 "x_c",  "y_c",  "u_c",  "v_c",  "exx",  "eyy",  "exy",  "e1",  "e2",  "gamma",  "e_vonmises",  "sigma",  "x",  "y",  "u",  "v"
-700,715,0,0,0,0,0,0,0,0,0,-1,524,309,0,0
-693,715,0,0,0,0,0,0,0,0,0,-1,531,309,0,0
-686,715,0,0,0,0,0,0,0,0,0,-1,538,309,0,0
-679,715,0,0,0,0,0,0,0,0,0,-1,545,309,0,0
-672,715,0,0,0,0,0,0,0,0,0,-1,552,309,0,0
-665,715,0,0,0,0,0,0,0,0,0,-1,559,309,0,0
-658,715,0,0,0,0,0,0,0,0,0,-1,566,309,0,0
-651,715,0,0,0,0,0,0,0,0,0,-1,573,309,0,0
-644,715,0,0,0,0,0,0,0,0,0,-1,580,309,0,0
-637,715,0,0,0,0,0,0,0,0,0,-1,587,309,0,0
-630,715,0,0,0,0,0,0,0,0,0,-1,594,309,0,0
-623,715,0,0,0,0,0,0,0,0,0,-1,601,309,0,0
-616,715,0,0,0,0,0,0,0,0,0,-1,608,309,0,0
-609,715,0,0,0,0,0,0,0,0,0,-1,615,309,0,0
-602,715,0,0,0,0,0,0,0,0,0,-1,622,309,0,0
-595,715,0,0,0,0,0,0,0,0,0,-1,629,309,0,0
-588,715,0,0,0,0,0,0,0,0,0,-1,636,309,0,0
-581,715,0,0,0,0,0,0,0,0,0,-1,643,309,0,0
-574,715,0,0,0,0,0,0,0,0,0,-1,650,309,0,0
-567,715,0,0,0,0,0,0,0,0,0,-1,657,309,0,0
-560,715,0,0,0,0,0,0,0,0,0,-1,664,309,0,0
-553,715,0,0,0,0,0,0,0,0,0,-1,671,309,0,0
-546,715,0,0,0,0,0,0,0,0,0,-1,678,309,0,0
-539,715,0,0,0,0,0,0,0,0,0,-1,685,309,0,0
-532,715,0,0,0,0,0,0,0,0,0,-1,692,309,0,0
-525,715,0,0,0,0,0,0,0,0,0,-1,699,309,0,0
-518,715,0,0,0,0,0,0,0,0,0,-1,706,309,0,0
-511,715,0,0,0,0,0,0,0,0,0,-1,713,309,0,0
-504,715,0,0,0,0,0,0,0,0,0,-1,720,309,0,0
-497,715,0,0,0,0,0,0,0,0,0,-1,727,309,0,0
-490,715,0,0,0,0,0,0,0,0,0,-1,734,309,0,0
-483,715,0,0,0,0,0,0,0,0,0,-1,741,309,0,0
-476,715,0,0,0,0,0,0,0,0,0,-1,748,309,0,0
-469,715,0,0,0,0,0,0,0,0,0,-1,755,309,0,0
-462,715,0,0,0,0,0,0,0,0,0,-1,762,309,0,0
-455,715,0,0,0,0,0,0,0,0,0,-1,769,309,0,0
-448,715,0,0,0,0,0,0,0,0,0,-1,776,309,0,0
-441,715,0,0,0,0,0,0,0,0,0,-1,783,309,0,0
-434,715,0,0,0,0,0,0,0,0,0,-1,790,309,0,0
-427,715,0,0,0,0,0,0,0,0,0,-1,797,309,0,0
-420,715,0,0,0,0,0,0,0,0,0,-1,804,309,0,0
-413,715,0,0,0,0,0,0,0,0,0,-1,811,309,0,0
-406,715,0,0,0,0,0,0,0,0,0,-1,818,309,0,0
-399,715,0,0,0,0,0,0,0,0,0,-1,825,309,0,0
-392,715,0,0,0,0,0,0,0,0,0,-1,832,309,0,0
-385,715,0,0,0,0,0,0,0,0,0,-1,839,309,0,0
-378,715,0,0,0,0,0,0,0,0,0,-1,846,309,0,0
-371,715,0,0,0,0,0,0,0,0,0,-1,853,309,0,0
-364,715,0,0,0,0,0,0,0,0,0,-1,860,309,0,0
-357,715,0,0,0,0,0,0,0,0,0,-1,867,309,0,0
-350,715,0,0,0,0,0,0,0,0,0,-1,874,309,0,0
-343,715,0,0,0,0,0,0,0,0,0,-1,881,309,0,0
-336,715,0,0,0,0,0,0,0,0,0,-1,888,309,0,0
-329,715,0,0,0,0,0,0,0,0,0,-1,895,309,0,0
-322,715,0,0,0,0,0,0,0,0,0,-1,902,309,0,0
-315,715,0,0,0,0,0,0,0,0,0,-1,909,309,0,0
-308,715,0,0,0,0,0,0,0,0,0,-1,916,309,0,0
-301,715,0,0,0,0,0,0,0,0,0,-1,923,309,0,0
-294,715,0,0,0,0,0,0,0,0,0,-1,930,309,0,0
-287,715,0,0,0,0,0,0,0,0,0,-1,937,309,0,0
-280,715,0,0,0,0,0,0,0,0,0,-1,944,309,0,0
-273,715,0,0,0,0,0,0,0,0,0,-1,951,309,0,0
-266,715,0,0,0,0,0,0,0,0,0,-1,958,309,0,0
-259,715,0,0,0,0,0,0,0,0,0,-1,965,309,0,0
-252,715,0,0,0,0,0,0,0,0,0,-1,972,309,0,0
-245,715,0,0,0,0,0,0,0,0,0,-1,979,309,0,0
-238,715,0,0,0,0,0,0,0,0,0,-1,986,309,0,0
-231,715,0,0,0,0,0,0,0,0,0,-1,993,309,0,0
-224,715,0,0,0,0,0,0,0,0,0,-1,1000,309,0,0
-217,715,0,0,0,0,0,0,0,0,0,-1,1007,309,0,0
-210,715,0,0,0,0,0,0,0,0,0,-1,1014,309,0,0
-203,715,0,0,0,0,0,0,0,0,0,-1,1021,309,0,0
-196,715,0,0,0,0,0,0,0,0,0,-1,1028,309,0,0
-189,715,0,0,0,0,0,0,0,0,0,-1,1035,309,0,0
-182,715,0,0,0,0,0,0,0,0,0,-1,1042,309,0,0
-175,715,0,0,0,0,0,0,0,0,0,-1,1049,309,0,0
-168,715,0,0,0,0,0,0,0,0,0,-1,1056,309,0,0
-161,715,0,0,0,0,0,0,0,0,0,-1,1063,309,0,0
-154,715,0,0,0,0,0,0,0,0,0,-1,1070,309,0,0
-147,715,0,0,0,0,0,0,0,0,0,-1,1077,309,0,0
-140,715,0,0,0,0,0,0,0,0,0,-1,1084,309,0,0
-133,715,0,0,0,0,0,0,0,0,0,-1,1091,309,0,0
-126,715,0,0,0,0,0,0,0,0,0,-1,1098,309,0,0
-119,715,0,0,0,0,0,0,0,0,0,-1,1105,309,0,0
-112,715,0,0,0,0,0,0,0,0,0,-1,1112,309,0,0
-105,715,0,0,0,0,0,0,0,0,0,-1,1119,309,0,0
-98,715,0,0,0,0,0,0,0,0,0,-1,1126,309,0,0
-91,715,0,0,0,0,0,0,0,0,0,-1,1133,309,0,0
-84,715,0,0,0,0,0,0,0,0,0,-1,1140,309,0,0
-77,715,0,0,0,0,0,0,0,0,0,-1,1147,309,0,0
-70,715,0,0,0,0,0,0,0,0,0,-1,1154,309,0,0
-63,715,0,0,0,0,0,0,0,0,0,-1,1161,309,0,0
-56,715,0,0,0,0,0,0,0,0,0,-1,1168,309,0,0
-49,715,0,0,0,0,0,0,0,0,0,-1,1175,309,0,0
-42,715,0,0,0,0,0,0,0,0,0,-1,1182,309,0,0
-35,715,0,0,0,0,0,0,0,0,0,-1,1189,309,0,0
-28,715,0,0,0,0,0,0,0,0,0,-1,1196,309,0,0
-21,715,0,0,0,0,0,0,0,0,0,-1,1203,309,0,0
-14,715,0,0,0,0,0,0,0,0,0,-1,1210,309,0,0
-7,715,0,0,0,0,0,0,0,0,0,-1,1217,309,0,0
0,715,0,0,0,0,0,0,0,0,0,-1,1224,309,0,0
7,715,0,0,0,0,0,0,0,0,0,-1,1231,309,0,0
14,715,0,0,0,0,0,0,0,0,0,-1,1238,309,0,0
21,715,0,0,0,0,0,0,0,0,0,-1,1245,309,0,0
28,715,0,0,0,0,0,0,0,0,0,-1,1252,309,0,0
35,715,0,0,0,0,0,0,0,0,0,-1,1259,309,0,0
42,715,0,0,0,0,0,0,0,0,0,-1,1266,309,0,0
49,715,0,0,0,0,0,0,0,0,0,-1,1273,309,0,0
56,715,0,0,0,0,0,0,0,0,0,-1,1280,309,0,0
63,715,-0.0422363,-23.0959,-0.00679816,0.0946258,-0.102215,0.158018,-0.0701899,-1.01567,0.134969,0.044172,1287,309,-0.042269,23.096
70,715,-0.0875244,-23.2944,-0.00417118,0.0891665,-0.0977486,0.150816,-0.0658203,-1.00812,0.128243,0.0457176,1294,309,-0.0875828,23.2944
77,715,0,0,0,0,0,0,0,0,0,-1,1301,309,0,0
84,715,0,0,0,0,0,0,0,0,0,-1,1308,309,0,0
91,715,0,0,0,0,0,0,0,0,0,-1,1315,309,0,0
98,715,0,0,0,0,0,0,0,0,0,-1,1322,309,0,0
105,715,0,0,0,0,0,0,0,0,0,-1,1329,309,0,0
112,715,0,0,0,0,0,0,0,0,0,-1,1336,309,0,0
119,715,0,0,0,0,0,0,0,0,0,-1,1343,309,0,0
126,715,0,0,0,0,0,0,0,0,0,-1,1350,309,0,0
133,715,0,0,0,0,0,0,0,0,0,-1,1357,309,0,0
140,715,0,0,0,0,0,0,0,0,0,-1,1364,309,0,0
147,715,0,0,0,0,0,0,0,0,0,-1,1371,309,0,0
154,715,0,0,0,0,0,0,0,0,0,-1,1378,309,0,0
161,715,0,0,0,0,0,0,0,0,0,-1,1385,309,0,0
168,715,0,0,0,0,0,0,0,0,0,-1,1392,309,0,0
175,715,0,0,0,0,0,0,0,0,0,-1,1399,309,0,0
182,715,0,0,0,0,0,0,0,0,0,-1,1406,309,0,0
189,715,0,0,0,0,0,0,0,0,0,-1,1413,309,0,0
196,715,0,0,0,0,0,0,0,0,0,-1,1420,309,0,0
203,715,0,0,0,0,0,0,0,0,0,-1,1427,309,0,0
210,715,0,0,0,0,0,0,0,0,0,-1,1434,309,0,0
217,715,0,0,0,0,0,0,0,0,0,-1,1441,309,0,0
224,715,0,0,0,0,0,0,0,0,0,-1,1448,309,0,0
231,715,0,0,0,0,0,0,0,0,0,-1,1455,309,0,0
238,715,0,0,0,0,0,0,0,0,0,-1,1462,309,0,0
245,715,0,0,0,0,0,0,0,0,0,-1,1469,309,0,0
252,715,0,0,0,0,0,0,0,0,0,-1,1476,309,0,0
259,715,0,0,0,0,0,0,0,0,0,-1,1483,309,0,0
266,715,0,0,0,0,0,0,0,0,0,-1,1490,309,0,0
273,715,0,0,0,0,0,0,0,0,0,-1,1497,309,0,0
280,715,0,0,0,0,0,0,0,0,0,-1,1504,309,0,0
287,715,0,0,0,0,0,0,0,0,0,-1,1511,309,0,0
294,715,0,0,0,0,0,0,0,0,0,-1,1518,309,0,0
301,715,0,0,0,0,0,0,0,0,0,-1,1525,309,0,0
308,715,0,0,0,0,0,0,0,0,0,-1,1532,309,0,0
315,715,0,0,0,0,0,0,0,0,0,-1,1539,309,0,0
322,715,0,0,0,0,0,0,0,0,0,-1,1546,309,0,0
329,715,0,0,0,0,0,0,0,0,0,-1,1553,309,0,0
336,715,0,0,0,0,0,0,0,0,0,-1,1560,309,0,0
343,715,0,0,0,0,0,0,0,0,0,-1,1567,309,0,0
350,715,0,0,0,0,0,0,0,0,0,-1,1574,309,0,0
357,715,0,0,0,0,0,0,0,0,0,-1,1581,309,0,0
364,715,0,0,0,0,0,0,0,0,0,-1,1588,309,0,0
371,715,0,0,0,0,0,0,0,0,0,-1,1595,309,0,0
378,715,0,0,0,0,0,0,0,0,0,-1,1602,309,0,0
385,715,0,0,0,0,0,0,0,0,0,-1,1609,309,0,0
392,715,0,0,0,0,0,0,0,0,0,-1,1616,309,0,0
399,715,0,0,0,0,0,0,0,0,0,-1,1623,309,0,0
406,715,0,0,0,0,0,0,0,0,0,-1,1630,309,0,0
413,715,0,0,0,0,0,0,0,0,0,-1,1637,309,0,0
420,715,0,0,0,0,0,0,0,0,0,-1,1644,309,0,0
427,715,0,0,0,0,0,0,0,0,0,-1,1651,309,0,0
434,715,0,0,0,0,0,0,0,0,0,-1,1658,309,0,0
441,715,0,0,0,0,0,0,0,0,0,-1,1665,309,0,0
448,715,0,0,0,0,0,0,0,0,0,-1,1672,309,0,0
455,715,0,0,0,0,0,0,0,0,0,-1,1679,309,0,0
462,715,0,0,0,0,0,0,0,0,0,-1,1686,309,0,0
469,715,0,0,0,0,0,0,0,0,0,-1,1693,309,0,0
476,715,0,0,0,0,0,0,0,0,0,-1,1700,309,0,0
483,715,0,0,0,0,0,0,0,0,0,-1,1707,309,0,0
490,715,0,0,0,0,0,0,0,0,0,-1,1714,309,0,0
497,715,0,0,0,0,0,0,0,0,0,-1,1721,309,0,0
504,715,0,0,0,0,0,0,0,0,0,-1,1728,309,0,0
511,715,0,0,0,0,0,0,0,0,0,-1,1735,309,0,0
518,715,0,0,0,0,0,0,0,0,0,-1,1742,309,0,0
525,715,0,0,0,0,0,0,0,0,0,-1,1749,309,0,0
532,715,0,0,0,0,0,0,0,0,0,-1,1756,309,0,0
539,715,0,0,0,0,0,0,0,0,0,-1,1763,309,0,0
546,715,0,0,0,0,0,0,0,0,0,-1,1770,309,0,0
553,715,0,0,0,0,0,0,0,0,0,-1,1777,309,0,0
560,715,0,0,0,0,0,0,0,0,0,-1,1784,309,0,0
567,715,0,0,0,0,0,0,0,0,0,-1,1791,309,0,0
574,715,0,0,0,0,0,0,0,0,0,-1,1798,309,0,0
581,715,0,0,0,0,0,0,0,0,0,-1,1805,309,0,0
588,715,0,0,0,0,0,0,0,0,0,-1,1812,309,0,0
595,715,0,0,0,0,0,0,0,0,0,-1,1819,309,0,0
602,715,0,0,0,0,0,0,0,0,0,-1,1826,309,0,0
609,715,0,0,0,0,0,0,0,0,0,-1,1833,309,0,0
616,715,0,0,0,0,0,0,0,0,0,-1,1840,309,0,0
623,715,0,0,0,0,0,0,0,0,0,-1,1847,309,0,0
630,715,0,0,0,0,0,0,0,0,0,-1,1854,309,0,0
637,715,0,0,0,0,0,0,0,0,0,-1,1861,309,0,0
644,715,0,0,0,0,0,0,0,0,0,-1,1868,309,0,0
651,715,0,0,0,0,0,0,0,0,0,-1,1875,309,0,0
658,715,0,0,0,0,0,0,0,0,0,-1,1882,309,0,0
665,715,0,0,0,0,0,0,0,0,0,-1,1889,309,0,0
672,715,0,0,0,0,0,0,0,0,0,-1,1896,309,0,0
679,715,0,0,0,0,0,0,0,0,0,-1,1903,309,0,0
686,715,0,0,0,0,0,0,0,0,0,-1,1910,309,0,0
693,715,0,0,0,0,0,0,0,0,0,-1,1917,309,0,0
700,715,0,0,0,0,0,0,0,0,0,-1,1924,309,0,0
707,715,0,0,0,0,0,0,0,0,0,-1,1931,309,0,0
714,715,0,0,0,0,0,0,0,0,0,-1,1938,309,0,0
721,715,0,0,0,0,0,0,0,0,0,-1,1945,309,0,0
728,715,0,0,0,0,0,0,0,0,0,-1,1952,309,0,0
735,715,0,0,0,0,0,0,0,0,0,-1,1959,309,0,0
742,715,0,0,0,0,0,0,0,0,0,-1,1966,309,0,0
749,715,0,0,0,0,0,0,0,0,0,-1,1973,309,0,0
756,715,0,0,0,0,0,0,0,0,0,-1,1980,309,0,0
763,715,0,0,0,0,0,0,0,0,0,-1,1987,309,0,0
770,715,0,0,0,0,0,0,0,0,0,-1,1994,309,0,0
777,715,0,0,0,0,0,0,0,0,0,-1,2001,309,0,0
784,715,0,0,0,0,0,0,0,0,0,-1,2008,309,0,0
791,715,0,0,0,0,0,0,0,0,0,-1,2015,309,0,0
798,715,0,0,0,0,0,0,0,0,0,-1,2022,309,0,0
805,715,0,0,0,0,0,0,0,0,0,-1,2029,309,0,0
812,715,0,0,0,0,0,0,0,0,0,-1,2036,309,0,0
-700,708,0,0,0,0,0,0,0,0,0,-1,524,316,0,0
-693,708,0,0,0,0,0,0,0,0,0,-1,531,316,0,0
-686,708,0,0,0,0,0,0,0,0,0,-1,538,316,0,0
-679,708,0,0,0,0,0,0,0,0,0,-1,545,316,0,0
-672,708,0,0,0,0,0,0,0,0,0,-1,552,316,0,0
-665,708,0,0,0,0,0,0,0,0,0,-1,559,316,0,0
-658,708,0,0,0,0,0,0,0,0,0,-1,566,316,0,0
-651,708,0,0,0,0,0,0,0,0,0,-1,573,316,0,0
-644,708,0,0,0,0,0,0,0,0,0,-1,580,316,0,0
-637,708,0,0,0,0,0,0,0,0,0,-1,587,316,0,0
-630,708,0,0,0,0,0,0,0,0,0,-1,594,316,0,0
-623,708,0,0,0,0,0,0,0,0,0,-1,601,316,0,0
-616,708,0,0,0,0,0,0,0,0,0,-1,608,316,0,0
-609,708,0,0,0,0,0,0,0,0,0,-1,615,316,0,0
-602,708,0,0,0,0,0,0,0,0,0,-1,622,316,0,0
-595,708,0,0,0,0,0,0,0,0,0,-1,629,316,0,0
-588,708,0,0,0,0,0,0,0,0,0,-1,636,316,0,0
-581,708,0,0,0,0,0,0,0,0,0,-1,643,316,0,0
-574,708,0,0,0,0,0,0,0,0,0,-1,650,316,0,0
-567,708,0,0,0,0,0,0,0,0,0,-1,657,316,0,0
-560,708,0,0,0,0,0,0,0,0,0,-1,664,316,0,0
-553,708,0,0,0,0,0,0,0,0,0,-1,671,316,0,0
-546,708,0,0,0,0,0,0,0,0,0,-1,678,316,0,0
-539,708,0,0,0,0,0,0,0,0,0,-1,685,316,0,0
-532,708,0,0,0,0,0,0,0,0,0,-1,692,316,0,0
-525,708,0,0,0,0,0,0,0,0,0,-1,699,316,0,0
-518,708,0,0,0,0,0,0,0,0,0,-1,706,316,0,0
-511,708,0,0,0,0,0,0,0,0,0,-1,713,316,0,0
-504,708,0,0,0,0,0,0,0,0,0,-1,720,316,0,0
-497,708,0,0,0,0,0,0,0,0,0,-1,727,316,0,0
-490,708,0,0,0,0,0,0,0,0,0,-1,734,316,0,0
-483,708,0,0,0,0,0,0,0,0,0,-1,741,316,0,0
-476,708,0,0,0,0,0,0,0,0,0,-1,748,316,0,0
-469,708,0,0,0,0,0,0,0,0,0,-1,755,316,0,0
-462,708,0,0,0,0,0,0,0,0,0,-1,762,316,0,0
-455,708,0,0,0,0,0,0,0,0,0,-1,769,316,0,0
-448,708,0,0,0,0,0,0,0,0,0,-1,776,316,0,0
-441,708,0,0,0,0,0,0,0,0,0,-1,783,316,0,0
-434,708,0,0,0,0,0,0,0,0,0,-1,790,316,0,0
-427,708,0,0,0,0,0,0,0,0,0,-1,797,316,0,0
-420,708,0,0,0,0,0,0,0,0,0,-1,804,316,0,0
-413,708,0,0,0,0,0,0,0,0,0,-1,811,316,0,0
-406,708,0,0,0,0,0,0,0,0,0,-1,818,316,0,0
-399,708,0,0,0,0,0,0,0,0,0,-1,825,316,0,0
-392,708,0,0,0,0,0,0,0,0,0,-1,832,316,0,0
-385,708,0,0,0,0,0,0,0,0,0,-1,839,316,0,0
-378,708,0,0,0,0,0,0,0,0,0,-1,846,316,0,0
-371,708,0,0,0,0,0,0,0,0,0,-1,853,316,0,0
-364,708,0,0,0,0,0,0,0,0,0,-1,860,316,0,0
-357,708,0,0,0,0,0,0,0,0,0,-1,867,316,0,0
-350,708,0,0,0,0,0,0,0,0,0,-1,874,316,0,0
-343,708,0,0,0,0,0,0,0,0,0,-1,881,316,0,0
-336,708,0,0,0,0,0,0,0,0,0,-1,888,316,0,0
-329,708,0,0,0,0,0,0,0,0,0,-1,895,316,0,0
-322,708,0,0,0,0,0,0,0,0,0,-1,902,316,0,0
-315,708,0,0,0,0,0,0,0,0,0,-1,909,316,0,0
-308,708,0,0,0,0,0,0,0,0,0,-1,916,316,0,0
-301,708,0,0,0,0,0,0,0,0,0,-1,923,316,0,0
-294,708,0,0,0,0,0,0,0,0,0,-1,930,316,0,0
-287,708,0,0,0,0,0,0,0,0,0,-1,937,316,0,0
-280,708,0,0,0,0,0,0,0,0,0,-1,944,316,0,0
-273,708,0,0,0,0,0,0,0,0,0,-1,951,316,0,0
-266,708,0,0,0,0,0,0,0,0,0,-1,958,316,0,0
-259,708,0,0,0,0,0,0,0,0,0,-1,965,316,0,0
-252,708,0,0,0,0,0,0,0,0,0,-1,972,316,0,0
-245,708,0,0,0,0,0,0,0,0,0,-1,979,316,0,0
-238,708,0,0,0,0,0,0,0,0,0,-1,986,316,0,0
-231,708,0,0,0,0,0,0,0,0,0,-1,993,316,0,0
-224,708,0,0,0,0,0,0,0,0,0,-1,1000,316,0,0
-217,708,0,0,0,0,0,0,0,0,0,-1,1007,316,0,0
-210,708,0,0,0,0,0,0,0,0,0,-1,1014,316,0,0
-203,708,0,0,0,0,0,0,0,0,0,-1,1021,316,0,0
-196,708,0,0,0,0,0,0,0,0,0,-1,1028,316,0,0
-189,708,0,0,0,0,0,0,0,0,0,-1,1035,316,0,0
-182,708,0,0,0,0,0,0,0,0,0,-1,1042,316,0,0
-175,708,0,0,0,0,0,0,0,0,0,-1,1049,316,0,0
-168,708,0,0,0,0,0,0,0,0,0,-1,1056,316,0,0
-161,708,0,0,0,0,0,0,0,0,0,-1,1063,316,0,0
-154,708,0,0,0,0,0,0,0,0,0,-1,1070,316,0,0
-147,708,0,0,0,0,0,0,0,0,0,-1,1077,316,0,0
-140,708,0,0,0,0,0,0,0,0,0,-1,1084,316,0,0
-133,708,0,0,0,0,0,0,0,0,0,-1,1091,316,0,0
-126,708,0,0,0,0,0,0,0,0,0,-1,1098,316,0,0
-119,708,0,0,0,0,0,0,0,0,0,-1,1105,316,0,0
-112,708,0,0,0,0,0,0,0,0,0,-1,1112,316,0,0
-105,708,0,0,0,0,0,0,0,0,0,-1,1119,316,0,0
-98,708,0,0,0,0,0,0,0,0,0,-1,1126,316,0,0
-91,708,0,0,0,0,0,0,0,0,0,-1,1133,316,0,0
-84,708,0,0,0,0,0,0,0,0,0,-1,1140,316,0,0
-77,708,0,0,0,0,0,0,0,0,0,-1,1147,316,0,0
-70,708,0,0,0,0,0,0,0,0,0,-1,1154,316,0,0
-63,708,0,0,0,0,0,0,0,0,0,-1,1161,316,0,0
-56,708,0,0,0,0,0,0,0,0,0,-1,1168,316,0,0
-49,708,0,0,0,0,0,0,0,0,0,-1,1175,316,0,0
-42,708,0,0,0,0,0,0,0,0,0,-1,1182,316,0,0
-35,708,-2.71204,-6.31558,0,0,0,0,0,0,0,-1,1189,316,-2.712,6.3156
-28,708,-2.92371,-5.53253,0,0,0,0,0,0,0,-1,1196,316,-2.92375,5.53254
-21,708,-19.7781,-6.86209,0,0,0,0,0,0,0,-1,1203,316,-19.7781,6.86209
-14,708,4.25586,-20.4009,0,0,0,0,0,0,0,-1,1210,316,4.25585,20.4009
-7,708,7.03284,-20.3705,0,0,0,0,0,0,0,-1,1217,316,7.03289,20.3705
0,708,7.54443,-22.2951,0,0,0,0,0,0,0,-1,1224,316,7.54437,22.2951
7,708,8.34766,-22.4535,0,0,0,0,0,0,0,-1,1231,316,8.34766,22.4535
14,708,9.151,-22.6119,0,0,0,0,0,0,0,-1,1238,316,9.15094,22.6119
21,708,0.678223,-23.5404,0,0,0,0,0,0,0,-1,1245,316,0.678168,23.5404
28,708,0.868042,-23.7713,-0.0291008,0.0571465,-0.0625136,0.0899676,-0.0619219,-1.08733,0.0881903,0.044153,1252,316,0.86801,23.7713
35,708,0.936523,-23.8951,-0.0230482,0.05945,-0.0731963,0.10222,-0.0658181,-1.04199,0.0977726,0.0456044,1259,316,0.936571,23.8951
42,708,0.744263,-23.729,-0.0180772,0.064135,-0.0794601,0.112492,-0.0664341,-1.0241,0.104438,0.0463869,1266,316,0.744254,23.729
49,708,1.02502,-23.756,-0.013953,0.069175,-0.0814488,0.119052,-0.0638301,-1.02133,0.10718,0.0460129,1273,316,1.02507,23.756
56,708,1.05713,-23.8915,-0.0095901,0.0731963,-0.0816329,0.123331,-0.0597247,-1.02004,0.107793,0.0421089,1280,316,1.05713,23.8915
63,708,1.02368,-24.1023,-0.00888596,0.0761553,-0.0789013,0.123264,-0.0559947,-1.03254,0.105896,0.0428997,1287,316,1.02369,24.1023
70,708,1.34473,-24.4484,-0.00646894,0.0697519,-0.074816,0.115605,-0.0523219,-1.02096,0.0992208,0.0451648,1294,316,1.34472,24.4484
77,708,1.44177,-24.7541,0,0,0,0,0,0,0,-1,1301,316,1.44182,24.7541
84,708,1.62122,-25.0989,0,0,0,0,0,0,0,-1,1308,316,1.6212,25.0989
91,708,5.78247,-23.3232,0,0,0,0,0,0,0,-1,1315,316,5.7825,23.3232
98,708,4.79358,-23.0286,-0.0139443,0.030965,-0.0402695,0.0546172,-0.0375965,-1.03973,0.053541,0.0444355,1322,316,4.79357,23.0286
105,708,4.79321,-23.1231,-0.0178978,0.011742,-0.0319659,0.0321563,-0.0383121,-1.00246,0.0407367,0.0470204,1329,316,4.7932,23.1231
112,708,4.84619,-23.1815,-0.0205112,-0.00874752,-0.0251831,0.0112316,-0.0404902,-0.900123,0.0314139,0.0462467,1336,316,4.84624,23.1814
119,708,4.61206,-25.3635,-0.0223209,-0.0301139,-0.02059,-0.00526193,-0.0471729,-0.691883,0.0298496,0.0415926,1343,316,4.61201,25.3635
126,708,4.74109,-24.7387,0,0,0,0,0,0,0,-1,1350,316,4.74106,24.7387
133,708,4.92236,-24.5027,0,0,0,0,0,0,0,-1,1357,316,4.92242,24.5027
140,708,4.82678,-24.3457,0,0,0,0,0,0,0,-1,1364,316,4.82682,24.3457
147,708,6.48889,-19.3706,0,0,0,0,0,0,0,-1,1371,316,6.48884,19.3706
154,708,0,0,0,0,0,0,0,0,0,-1,1378,316,0,0
161,708,0,0,0,0,0,0,0,0,0,-1,1385,316,0,0
168,708,0,0,0,0,0,0,0,0,0,-1,1392,316,0,0
175,708,0,0,0,0,0,0,0,0,0,-1,1399,316,0,0
182,708,0,0,0,0,0,0,0,0,0,-1,1406,316,0,0
189,708,0,0,0,0,0,0,0,0,0,-1,1413,316,0,0
196,708,0,0,0,0,0,0,0,0,0,-1,1420,316,0,0
203,708,0,0,0,0,0,0,0,0,0,-1,1427,316,0,0
210,708,0,0,0,0,0,0,0,0,0,-1,1434,316,0,0
217,708,0,0,0,0,0,0,0,0,0,-1,1441,316,0,0
224,708,0,0,0,0,0,0,0,0,0,-1,1448,316,0,0
231,708,0,0,0,0,0,0,0,0,0,-1,1455,316,0,0
238,708,0,0,0,0,0,0,0,0,0,-1,1462,316,0,0
245,708,0,0,0,0,0,0,0,0,0,-1,1469,316,0,0
252,708,0,0,0,0,0,0,0,0,0,-1,1476,316,0,0
259,708,0,0,0,0,0,0,0,0,0,-1,1483,316,0,0
266,708,0,0,0,0,0,0,0,0,0,-1,1490,316,0,0
273,708,0,0,0,0,0,0,0,0,0,-1,1497,316,0,0
280,708,0,0,0,0,0,0,0,0,0,-1,1504,316,0,0
287,708,0,0,0,0,0,0,0,0,0,-1,1511,316,0,0
294,708,0,0,0,0,0,0,0,0,0,-1,1518,316,0,0
301,708,0,0,0,0,0,0,0,0,0,-1,1525,316,0,0
308,708,0,0,0,0,0,0,0,0,0,-1,1532,316,0,0
315,708,0,0,0,0,0,0,0,0,0,-1,1539,316,0,0
322,708,0,0,0,0,0,0,0,0,0,-1,1546,316,0,0
329,708,0,0,0,0,0,0,0,0,0,-1,1553,316,0,0
336,708,0,0,0,0,0,0,0,0,0,-1,1560,316,0,0
343,708,0,0,0,0,0,0,0,0,0,-1,1567,316,0,0
350,708,0,0,0,0,0,0,0,0,0,-1,1574,316,0,0
357,708,0,0,0,0,0,0,0,0,0,-1,1581,316,0,0
364,708,0,0,0,0,0,0,0,0,0,-1,1588,316,0,0
371,708,0,0,0,0,0,0,0,0,0,-1,1595,316,0,0
378,708,0,0,0,0,0,0,0,0,0,-1,1602,316,0,0
385,708,0,0,0,0,0,0,0,0,0,-1,1609,316,0,0
392,708,0,0,0,0,0,0,0,0,0,-1,1616,316,0,0
399,708,0,0,0,0,0,0,0,0,0,-1,1623,316,0,0
406,708,0,0,0,0,0,0,0,0,0,-1,1630,316,0,0
413,708,0,0,0,0,0,0,0,0,0,-1,1637,316,0,0
420,708,0,0,0,0,0,0,0,0,0,-1,1644,316,0,0
427,708,0,0,0,0,0,0,0,0,0,-1,1651,316,0,0
434,708,0,0,0,0,0,0,0,0,0,-1,1658,316,0,0
441,708,0,0,0,0,0,0,0,0,0,-1,1665,316,0,0
448,708,0,0,0,0,0,0,0,0,0,-1,1672,316,0,0
455,708,0,0,0,0,0,0,0,0,0,-1,1679,316,0,0
462,708,0,0,0,0,0,0,0,0,0,-1,1686,316,0,0
469,708,0,0,0,0,0,0,0,0,0,-1,1693,316,0,0
476,708,0,0,0,0,0,0,0,0,0,-1,1700,316,0,0
483,708,0,0,0,0,0,0,0,0,0,-1,1707,316,0,0
490,708,0,0,0,0,0,0,0,0,0,-1,1714,316,0,0
497,708,0,0,0,0,0,0,0,0,0,-1,1721,316,0,0
504,708,0,0,0,0,0,0,0,0,0,-1,1728,316,0,0
511,708,0,0,0,0,0,0,0,0,0,-1,1735,316,0,0
518,708,0,0,0,0,0,0,0,0,0,-1,1742,316,0,0
525,708,0,0,0,0,0,0,0,0,0,-1,1749,316,0,0
532,708,0,0,0,0,0,0,0,0,0,-1,1756,316,0,0
539,708,0,0,0,0,0,0,0,0,0,-1,1763,316,0,0
546,708,0,0,0,0,0,0,0,0,0,-1,1770,316,0,0
553,708,0,0,0,0,0,0,0,0,0,-1,1777,316,0,0
560,708,0,0,0,0,0,0,0,0,0,-1,1784,316,0,0
567,708,0,0,0,0,0,0,0,0,0,-1,1791,316,0,0
574,708,0,0,0,0,0,0,0,0,0,-1,1798,316,0,0
581,708,0,0,0,0,0,0,0,0,0,-1,1805,316,0,0
588,708,0,0,0,0,0,0,0,0,0,-1,1812,316,0,0
595,708,0,0,0,0,0,0,0,0,0,-1,1819,316,0,0
602,708,0,0,0,0,0,0,0,0,0,-1,1826,316,0,0
609,708,0,0,0,0,0,0,0,0,0,-1,1833,316,0,0
616,708,0,0,0,0,0,0,0,0,0,-1,1840,316,0,0
623,708,0,0,0,0,0,0,0,0,0,-1,1847,316,0,0
630,708,0,0,0,0,0,0,0,0,0,-1,1854,316,0,0
637,708,0,0,0,0,0,0,0,0,0,-1,1861,316,0,0
644,708,0,0,0,0,0,0,0,0,0,-1,1868,316,0,0
651,708,0,0,0,0,0,0,0,0,0,-1,1875,316,0,0
658,708,0,0,0,0,0,0,0,0,0,-1,1882,316,0,0
665,708,0,0,0,0,0,0,0,0,0,-1,1889,316,0,0
672,708,0,0,0,0,0,0,0,0,0,-1,1896,316,0,0
679,708,0,0,0,0,0,0,0,0,0,-1,1903,316,0,0
686,708,0,0,0,0,0,0,0,0,0,-1,1910,316,0,0
693,708,0,0,0,0,0,0,0,0,0,-1,1917,316,0,0
700,708,0,0,0,0,0,0,0,0,0,-1,1924,316,0,0
707,708,0,0,0,0,0,0,0,0,0,-1,1931,316,0,0
714,708,0,0,0,0,0,0,0,0,0,-1,1938,316,0,0
721,708,0,0,0,0,0,0,0,0,0,-1,1945,316,0,0
728,708,0,0,0,0,0,0,0,0,0,-1,1952,316,0,0
735,708,0,0,0,0,0,0,0,0,0,-1,1959,316,0,0
742,708,0,0,0,0,0,0,0,0,0,-1,1966,316,0,0
749,708,0,0,0,0,0,0,0,0,0,-1,1973,316,0,0
756,708,0,0,0,0,0,0,0,0,0,-1,1980,316,0,0
763,708,0,0,0,0,0,0,0,0,0,-1,1987,316,0,0
770,708,0,0,0,0,0,0,0,0,0,-1,1994,316,0,0
777,708,0,0,0,0,0,0,0,0,0,-1,2001,316,0,0
784,708,0,0,0,0,0,0,0,0,0,-1,2008,316,0,0
791,708,0,0,0,0,0,0,0,0,0,-1,2015,316,0,0
798,708,0,0,0,0,0,0,0,0,0,-1,2022,316,0,0
805,708,0,0,0,0,0,0,0,0,0,-1,2029,316,0,0
812,708,0,0,0,0,0,0,0,0,0,-1,2036,316,0,0
-700,701,0,0,0,0,0,0,0,0,0,-1,524,323,0,0
-693,701,0,0,0,0,0,0,0,0,0,-1,531,323,0,0
-686,701,0,0,0,0,0,0,0,0,0,-1,538,323,0,0
-679,701,0,0,0,0,0,0,0,0,0,-1,545,323,0,0
-672,701,0,0,0,0,0,0,0,0,0,-1,552,323,0,0
-665,701,0,0,0,0,0,0,0,0,0,-1,559,323,0,0
-658,701,0,0,0,0,0,0,0,0,0,-1,566,323,0,0
-651,701,0,0,0,0,0,0,0,0,0,-1,573,323,0,0
-644,701,0,0,0,0,0,0,0,0,0,-1,580,323,0,0
-637,701,0,0,0,0,0,0,0,0,0,-1,587,323,0,0
-630,701,0,0,0,0,0,0,0,0,0,-1,594,323,0,0
-623,701,0,0,0,0,0,0,0,0,0,-1,601,323,0,0
-616,701,0,0,0,0,0,0,0,0,0,-1,608,323,0,0
-609,701,0,0,0,0,0,0,0,0,0,-1,615,323,0,0
-602,701,0,0,0,0,0,0,0,0,0,-1,622,323,0,0
-595,701,0,0,0,0,0,0,0,0,0,-1,629,323,0,0
-588,701,0,0,0,0,0,0,0,0,0,-1,636,323,0,0
-581,701,0,0,0,0,0,0,0,0,0,-1,643,323,0,0
-574,701,0,0,0,0,0,0,0,0,0,-1,650,323,0,0
-567,701,0,0,0,0,0,0,0,0,0,-1,657,323,0,0
-560,701,0,0,0,0,0,0,0,0,0,-1,664,323,0,0
-553,701,0,0,0,0,0,0,0,0,0,-1,671,323,0,0
-546,701,0,0,0,0,0,0,0,0,0,-1,678,323,0,0
-539,701,0,0,0,0,0,0,0,0,0,-1,685,323,0,0
-532,701,0,0,0,0,0,0,0,0,0,-1,692,323,0,0
-525,701,0,0,0,0,0,0,0,0,0,-1,699,323,0,0
-518,701,0,0,0,0,0,0,0,0,0,-1,706,323,0,0
-511,701,0,0,0,0,0,0,0,0,0,-1,713,323,0,0
-504,701,0,0,0,0,0,0,0,0,0,-1,720,323,0,0
-497,701,0,0,0,0,0,0,0,0,0,-1,727,323,0,0
-490,701,0,0,0,0,0,0,0,0,0,-1,734,323,0,0
-483,701,0,0,0,0,0,0,0,0,0,-1,741,323,0,0
-476,701,0,0,0,0,0,0,0,0,0,-1,748,323,0,0
-469,701,0,0,0,0,0,0,0,0,0,-1,755,323,0,0
-462,701,0,0,0,0,0,0,0,0,0,-1,762,323,0,0
-455,701,0,0,0,0,0,0,0,0,0,-1,769,323,0,0
-448,701,0,0,0,0,0,0,0,0,0,-1,776,323,0,0
-441,701,0,0,0,0,0,0,0,0,0,-1,783,323,0,0
-434,701,0,0,0,0,0,0,0,0,0,-1,790,323,0,0
-427,701,0,0,0,0,0,0,0,0,0,-1,797,323,0,0
-420,701,0,0,0,0,0,0,0,0,0,-1,804,323,0,0
-413,701,0,0,0,0,0,0,0,0,0,-1,811,323,0,0
-406,701,0,0,0,0,0,0,0,0,0,-1,818,323,0,0
-399,701,0,0,0,0,0,0,0,0,0,-1,825,323,0,0
-392,701,0,0,0,0,0,0,0,0,0,-1,832,323,0,0
-385,701,0,0,0,0,0,0,0,0,0,-1,839,323,0,0
-378,701,0,0,0,0,0,0,0,0,0,-1,846,323,0,0
-371,701,0,0,0,0,0,0,0,0,0,-1,853,323,0,0
-364,701,0,0,0,0,0,0,0,0,0,-1,860,323,0,0
-357,701,0,0,0,0,0,0,0,0,0,-1,867,323,0,0
-350,701,0,0,0,0,0,0,0,0,0,-1,874,323,0,0
-343,701,0,0,0,0,0,0,0,0,0,-1,881,323,0,0
-336,701,0,0,0,0,0,0,0,0,0,-1,888,323,0,0
-329,701,0,0,0,0,0,0,0,0,0,-1,895,323,0,0
-322,701,0,0,0,0,0,0,0,0,0,-1,902,323,0,0
-315,701,0,0,0,0,0,0,0,0,0,-1,909,323,0,0
-308,701,0,0,0,0,0,0,0,0,0,-1,916,323,0,0
-301,701,0,0,0,0,0,0,0,0,0,-1,923,323,0,0
-294,701,0,0,0,0,0,0,0,0,0,-1,930,323,0,0
-287,701,0,0,0,0,0,0,0,0,0,-1,937,323,0,0
-280,701,0,0,0,0,0,0,0,0,0,-1,944,323,0,0
-273,701,0,0,0,0,0,0,0,0,0,-1,951,323,0,0
-266,701,0,0,0,0,0,0,0,0,0,-1,958,323,0,0
-259,701,0,0,0,0,0,0,0,0,0,-1,965,323,0,0
-252,701,0,0,0,0,0,0,0,0,0,-1,972,323,0,0
-245,701,0,0,0,0,0,0,0,0,0,-1,979,323,0,0
-238,701,0,0,0,0,0,0,0,0,0,-1,986,323,0,0
-231,701,0,0,0,0,0,0,0,0,0,-1,993,323,0,0
-224,701,0,0,0,0,0,0,0,0,0,-1,1000,323,0,0
-217,701,0,0,0,0,0,0,0,0,0,-1,1007,323,0,0
-210,701,0,0,0,0,0,0,0,0,0,-1,1014,323,0,0
-203,701,0,0,0,0,0,0,0,0,0,-1,1021,323,0,0
-196,701,0,0,0,0,0,0,0,0,0,-1,1028,323,0,0
-189,701,0,0,0,0,0,0,0,0,0,-1,1035,323,0,0
-182,701,0,0,0,0,0,0,0,0,0,-1,1042,323,0,0
-175,701,0,0,0,0,0,0,0,0,0,-1,1049,323,0,0
-168,701,0,0,0,0,0,0,0,0,0,-1,1056,323,0,0
-161,701,0,0,0,0,0,0,0,0,0,-1,1063,323,0,0
-154,701,0,0,0,0,0,0,0,0,0,-1,1070,323,0,0
-147,701,0,0,0,0,0,0,0,0,0,-1,1077,323,0,0
-140,701,0,0,0,0,0,0,0,0,0,-1,1084,323,0,0
-133,701,0,0,0,0,0,0,0,0,0,-1,1091,323,0,0
-126,701,0,0,0,0,0,0,0,0,0,-1,1098,323,0,0
-119,701,0,0,0,0,0,0,0,0,0,-1,1105,323,0,0
-112,701,0,0,0,0,0,0,0,0,0,-1,1112,323,0,0
-105,701,0,0,0,0,0,0,0,0,0,-1,1119,323,0,0
-98,701,0,0,0,0,0,0,0,0,0,-1,1126,323,0,0
-91,701,0,0,0,0,0,0,0,0,0,-1,1133,323,0,0
-84,701,0,0,0,0,0,0,0,0,0,-1,1140,323,0,0
-77,701,0,0,0,0,0,0,0,0,0,-1,1147,323,0,0
-70,701,-10.1991,-16.2457,0,0,0,0,0,0,0,-1,1154,323,-10.1991,16.2457
-63,701,-2.479,-0.295959,0,0,0,0,0,0,0,-1,1161,323,-2.47895,0.295961
-56,701,-0.420166,-0.101776,0,0,0,0,0,0,0,-1,1168,323,-0.420119,0.101777
-49,701,-1.09021,-0.155762,0,0,0,0,0,0,0,-1,1175,323,-1.09024,0.155768
-42,701,-0.210327,-0.299133,0,0,0,0,0,0,0,-1,1182,323,-0.210379,0.29914
-35,701,-2.9635,-7.98676,0,0,0,0,0,0,0,-1,1189,323,-2.9635,7.98676
-28,701,-6.64417,-5.4917,0,0,0,0,0,0,0,-1,1196,323,-6.64411,5.4917
-21,701,0.563477,-18.3431,0,0,0,0,0,0,0,-1,1203,323,0.5635,18.3431
-14,701,6.47327,-20.4672,0,0,0,0,0,0,0,-1,1210,323,6.47325,20.4672
-7,701,6.69287,-21.108,0,0,0,0,0,0,0,-1,1217,323,6.69283,21.108
0,701,6.91235,-21.7487,0,0,0,0,0,0,0,-1,1224,323,6.9124,21.7487
7,701,8.05444,-22.4055,-0.0316913,0.0615381,-0.0152243,0.0639612,-0.0341144,-1.41296,0.0574914,0.0451351,1231,323,8.05442,22.4055
14,701,8.90063,-22.3985,-0.0320427,0.0546835,-0.0273716,0.0625996,-0.0399589,-1.28927,0.0596912,0.0463526,1238,323,8.90067,22.3985
21,701,2.51892,-22.5742,-0.0294503,0.0518726,-0.0390383,0.067579,-0.0451568,-1.18828,0.0655158,0.0452623,1245,323,2.51892,22.5742
28,701,2.2395,-23.3259,-0.0256964,0.0499774,-0.0488141,0.0739017,-0.0496208,-1.11509,0.0717735,0.0432056,1252,323,2.23956,23.3259
35,701,2.01672,-23.6631,-0.0207476,0.0510541,-0.0570189,0.0825329,-0.0522265,-1.06636,0.0784565,0.0427707,1259,323,2.01676,23.6631
42,701,1.89429,-23.6822,-0.0169198,0.0537832,-0.0614378,0.0893143,-0.0524508,-1.04647,0.0827653,0.0475041,1266,323,1.89423,23.6822
49,701,2.14673,-23.8741,-0.0136872,0.0570135,-0.0625187,0.093484,-0.0501577,-1.04271,0.0841797,0.0459502,1273,323,2.14675,23.8741
56,701,2.37878,-24.1797,-0.0100555,0.0595674,-0.0626377,0.0964171,-0.0469053,-1.03903,0.084377,0.0421442,1280,323,2.37877,24.1797
63,701,2.1936,-25.0728,-0.00957364,0.0612931,-0.0598148,0.0953819,-0.0436624,-1.0528,0.0821075,0.0425701,1287,323,2.19364,25.0728
70,701,2.50183,-25.2681,-0.00744912,0.0549453,-0.0561706,0.0880007,-0.0405045,-1.03889,0.0758629,0.0437831,1294,323,2.50182,25.2681
77,701,4.02209,-21.9485,0,0,0,0,0,0,0,-1,1301,323,4.02213,21.9485
84,701,5.82007,-23.2078,0,0,0,0,0,0,0,-1,1308,323,5.82003,23.2078
91,701,5.53748,-23.3797,-0.0109498,0.0349771,-0.0332737,0.0524421,-0.0284147,-1.08744,0.0473648,0.0490138,1315,323,5.53752,23.3797
98,701,4.99609,-23.294,-0.0138757,0.0221437,-0.0258299,0.0356226,-0.0273546,-1.08983,0.0364642,0.0449392,1322,323,4.99607,23.294
105,701,5.05151,-23.402,-0.0171801,0.00706125,-0.0190012,0.0174784,-0.0275972,-1.06931,0.0262421,0.0468382,1329,323,5.05156,23.402
112,701,5.38049,-23.2036,-0.019338,-0.0086221,-0.0135125,0.000555901,-0.028516,-0.97415,0.0191987,0.0450029,1336,323,5.38055,23.2036
119,701,4.28174,-24.6414,-0.0208711,-0.0249451,-0.00956766,-0.013126,-0.0326902,-0.680511,0.0189953,0.0466525,1343,323,4.28174,24.6414
126,701,4.09033,-24.2838,0,0,0,0,0,0,0,-1,1350,323,4.09031,24.2838
133,701,5.19775,-23.7553,0,0,0,0,0,0,0,-1,1357,323,5.19771,23.7553
140,701,4.69873,-20.1073,0,0,0,0,0,0,0,-1,1364,323,4.69868,20.1073
147,701,6.09082,-19.6848,0,0,0,0,0,0,0,-1,1371,323,6.0908,19.6848
154,701,7.60303,-19.7899,0,0,0,0,0,0,0,-1,1378,323,7.60305,19.7899
161,701,9.51721,-19.9935,0,0,0,0,0,0,0,-1,1385,323,9.51726,19.9935
168,701,30.7272,1.76184,0,0,0,0,0,0,0,-1,1392,323,30.7272,-1.76184
175,701,31.5035,2.25711,0,0,0,0,0,0,0,-1,1399,323,31.5036,-2.25712
182,701,8.80652,5.42807,0,0,0,0,0,0,0,-1,1406,323,8.8065,-5.42808
189,701,8.58081,4.24493,0,0,0,0,0,0,0,-1,1413,323,8.58082,-4.24494
196,701,0,0,0,0,0,0,0,0,0,-1,1420,323,0,0
203,701,0,0,0,0,0,0,0,0,0,-1,1427,323,0,0
210,701,0,0,0,0,0,0,0,0,0,-1,1434,323,0,0
217,701,0,0,0,0,0,0,0,0,0,-1,1441,323,0,0
224,701,0,0,0,0,0,0,0,0,0,-1,1448,323,0,0
231,701,0,0,0,0,0,0,0,0,0,-1,1455,323,0,0
238,701,0,0,0,0,0,0,0,0,0,-1,1462,323,0,0
245,701,0,0,0,0,0,0,0,0,0,-1,1469,323,0,0
252,701,0,0,0,0,0,0,0,0,0,-1,1476,323,0,0
259,701,0,0,0,0,0,0,0,0,0,-1,1483,323,0,0
266,701,0,0,0,0,0,0,0,0,0,-1,1490,323,0,0
273,701,0,0,0,0,0,0,0,0,0,-1,1497,323,0,0
280,701,0,0,0,0,0,0,0,0,0,-1,1504,323,0,0
287,701,0,0,0,0,0,0,0,0,0,-1,1511,323,0,0
294,701,0,0,0,0,0,0,0,0,0,-1,1518,323,0,0
301,701,0,0,0,0,0,0,0,0,0,-1,1525,323,0,0
308,701,0,0,0,0,0,0,0,0,0,-1,1532,323,0,0
315,701,0,0,0,0,0,0,0,0,0,-1,1539,323,0,0
322,701,0,0,0,0,0,0,0,0,0,-1,1546,323,0,0
329,701,0,0,0,0,0,0,0,0,0,-1,1553,323,0,0
336,701,0,0,0,0,0,0,0,0,0,-1,1560,323,0,0
343,701,0,0,0,0,0,0,0,0,0,-1,1567,323,0,0
350,701,0,0,0,0,0,0,0,0,0,-1,1574,323,0,0
357,701,0,0,0,0,0,0,0,0,0,-1,1581,323,0,0
364,701,0,0,0,0,0,0,0,0,0,-1,1588,323,0,0
371,701,0,0,0,0,0,0,0,0,0,-1,1595,323,0,0
378,701,0,0,0,0,0,0,0,0,0,-1,1602,323,0,0
385,701,0,0,0,0,0,0,0,0,0,-1,1609,323,0,0
392,701,0,0,0,0,0,0,0,0,0,-1,1616,323,0,0
399,701,0,0,0,0,0,0,0,0,0,-1,1623,323,0,0
406,701,0,0,0,0,0,0,0,0,0,-1,1630,323,0,0
413,701,0,0,0,0,0,0,0,0,0,-1,1637,323,0,0
420,701,0,0,0,0,0,0,0,0,0,-1,1644,323,0,0
427,701,0,0,0,0,0,0,0,0,0,-1,1651,323,0,0
434,701,0,0,0,0,0,0,0,0,0,-1,1658,323,0,0
441,701,0,0,0,0,0,0,0,0,0,-1,1665,323,0,0
448,701,0,0,0,0,0,0,0,0,0,-1,1672,323,0,0
455,701,0,0,0,0,0,0,0,0,0,-1,1679,323,0,0
462,701,0,0,0,0,0,0,0,0,0,-1,1686,323,0,0
469,701,0,0,0,0,0,0,0,0,0,-1,1693,323,0,0
476,701,0,0,0,0,0,0,0,0,0,-1,1700,323,0,0
483,701,0,0,0,0,0,0,0,0,0,-1,1707,323,0,0
490,701,0,0,0,0,0,0,0,0,0,-1,1714,323,0,0
497,701,0,0,0,0,0,0,0,0,0,-1,1721,323,0,0
504,701,0,0,0,0,0,0,0,0,0,-1,1728,323,0,0
511,701,0,0,0,0,0,0,0,0,0,-1,1735,323,0,0
518,701,0,0,0,0,0,0,0,0,0,-1,1742,323,0,0
525,701,0,0,0,0,0,0,0,0,0,-1,1749,323,0,0
532,701,0,0,0,0,0,0,0,0,0,-1,1756,323,0,0
539,701,0,0,0,0,0,0,0,0,0,-1,1763,323,0,0
546,701,0,0,0,0,0,0,0,0,0,-1,1770,323,0,0
553,701,0,0,0,0,0,0,0,0,0,-1,1777,323,0,0
560,701,0,0,0,0,0,0,0,0,0,-1,1784,323,0,0
567,701,0,0,0,0,0,0,0,0,0,-1,1791,323,0,0
574,701,0,0,0,0,0,0,0,0,0,-1,1798,323,0,0
581,701,0,0,0,0,0,0,0,0,0,-1,1805,323,0,0
588,701,0,0,0,0,0,0,0,0,0,-1,1812,323,0,0
595,701,0,0,0,0,0,0,0,0,0,-1,1819,323,0,0
602,701,0,0,0,0,0,0,0,0,0,-1,1826,323,0,0
609,701,0,0,0,0,0,0,0,0,0,-1,1833,323,0,0
616,701,0,0,0,0,0,0,0,0,0,-1,1840,323,0,0
623,701,0,0,0,0,0,0,0,0,0,-1,1847,323,0,0
630,701,0,0,0,0,0,0,0,0,0,-1,1854,323,0,0
637,701,0,0,0,0,0,0,0,0,0,-1,1861,323,0,0
644,701,0,0,0,0,0,0,0,0,0,-1,1868,323,0,0
651,701,0,0,0,0,0,0,0,0,0,-1,1875,323,0,0
658,701,0,0,0,0,0,0,0,0,0,-1,1882,323,0,0
665,701,0,0,0,0,0,0,0,0,0,-1,1889,323,0,0
672,701,0,0,0,0,0,0,0,0,0,-1,1896,323,0,0
679,701,0,0,0,0,0,0,0,0,0,-1,1903,323,0,0
686,701,0,0,0,0,0,0,0,0,0,-1,1910,323,0,0
693,701,0,0,0,0,0,0,0,0,0,-1,1917,323,0,0
700,701,0,0,0,0,0,0,0,0,0,-1,1924,323,0,0
707,701,0,0,0,0,0,0,0,0,0,-1,1931,323,0,0
714,701,0,0,0,0,0,0,0,0,0,-1,1938,323,0,0
721,701,0,0,0,0,0,0,0,0,0,-1,1945,323,0,0
728,701,0,0,0,0,0,0,0,0,0,-1,1952,323,0,0
735,701,0,0,0,0,0,0,0,0,0,-1,1959,323,0,0
742,701,0,0,0,0,0,0,0,0,0,-1,1966,323,0,0
749,701,0,0,0,0,0,0,0,0,0,-1,1973,323,0,0
756,701,0,0,0,0,0,0,0,0,0,-1,1980,323,0,0
763,701,0,0,0,0,0,0,0,0,0,-1,1987,323,0,0
770,701,0,0,0,0,0,0,0,0,0,-1,1994,323,0,0
777,701,0,0,0,0,0,0,0,0,0,-1,2001,323,0,0
784,701,0,0,0,0,0,0,0,0,0,-1,2008,323,0,0
791,701,0,0,0,0,0,0,0,0,0,-1,2015,323,0,0
798,701,0,0,0,0,0,0,0,0,0,-1,2022,323,0,0
805,701,0,0,0,0,0,0,0,0,0,-1,2029,323,0,0
812,701,0,0,0,0,0,0,0,0,0,-1,2036,323,0,0
-700,694,0,0,0,0,0,0,0,0,0,-1,524,330,0,0
-693,694,0,0,0,0,0,0,0,0,0,-1,531,330,0,0
-686,694,0,0,0,0,0,0,0,0,0,-1,538,330,0,0
-679,694,0,0,0,0,0,0,0,0,0,-1,545,330,0,0
-672,694,0,0,0,0,0,0,0,0,0,-1,552,330,0,0
-665,694,0,0,0,0,0,0,0,0,0,-1,559,330,0,0
-658,694,0,0,0,0,0,0,0,0,0,-1,566,330,0,0
-651,694,0,0,0,0,0,0,0,0,0,-1,573,330,0,0
-644,694,0,0,0,0,0,0,0,0,0,-1,580,330,0,0
-637,694,0,0,0,0,0,0,0,0,0,-1,587,330,0,0
-630,694,0,0,0,0,0,0,0,0,0,-1,594,330,0,0
-623,694,0,0,0,0,0,0,0,0,0,-1,601,330,0,0
-616,694,0,0,0,0,0,0,0,0,0,-1,608,330,0,0
-609,694,0,0,0,0,0,0,0,0,0,-1,615,330,0,0
-602,694,0,0,0,0,0,0,0,0,0,-1,622,330,0,0
-595,694,0,0,0,0,0,0,0,0,0,-1,629,330,0,0
-588,694,0,0,0,0,0,0,0,0,0,-1,636,330,0,0
-581,694,0,0,0,0,0,0,0,0,0,-1,643,330,0,0
-574,694,0,0,0,0,0,0,0,0,0,-1,650,330,0,0
-567,694,0,0,0,0,0,0,0,0,0,-1,657,330,0,0
-560,694,0,0,0,0,0,0,0,0,0,-1,664,330,0,0
-553,694,0,0,0,0,0,0,0,0,0,-1,671,330,0,0
-546,694,0,0,0,0,0,0,0,0,0,-1,678,330,0,0
-539,694,0,0,0,0,0,0,0,0,0,-1,685,330,0,0
-532,694,0,0,0,0,0,0,0,0,0,-1,692,330,0,0
-525,694,0,0,0,0,0,0,0,0,0,-1,699,330,0,0
-518,694,0,0,0,0,0,0,0,0,0,-1,706,330,0,0
-511,694,0,0,0,0,0,0,0,0,0,-1,713,330,0,0
-504,694,0,0,0,0,0,0,0,0,0,-1,720,330,0,0
-497,694,0,0,0,0,0,0,0,0,0,-1,727,330,0,0
-490,694,0,0,0,0,0,0,0,0,0,-1,734,330,0,0
-483,694,0,0,0,0,0,0,0,0,0,-1,741,330,0,0
-476,694,0,0,0,0,0,0,0,0,0,-1,748,330,0,0
-469,694,0,0,0,0,0,0,0,0,0,-1,755,330,0,0
-462,694,0,0,0,0,0,0,0,0,0,-1,762,330,0,0
-455,694,0,0,0,0,0,0,0,0,0,-1,769,330,0,0
-448,694,0,0,0,0,0,0,0,0,0,-1,776,330,0,0
-441,694,0,0,0,0,0,0,0,0,0,-1,783,330,0,0
-434,694,0,0,0,0,0,0,0,0,0,-1,790,330,0,0
-427,694,0,0,0,0,0,0,0,0,0,-1,797,330,0,0
-420,694,0,0,0,0,0,0,0,0,0,-1,804,330,0,0
-413,694,0,0,0,0,0,0,0,0,0,-1,811,330,0,0
-406,694,0,0,0,0,0,0,0,0,0,-1,818,330,0,0
-399,694,0,0,0,0,0,0,0,0,0,-1,825,330,0,0
-392,694,0,0,0,0,0,0,0,0,0,-1,832,330,0,0
-385,694,0,0,0,0,0,0,0,0,0,-1,839,330,0,0
-378,694,0,0,0,0,0,0,0,0,0,-1,846,330,0,0
-371,694,0,0,0,0,0,0,0,0,0,-1,853,330,0,0
-364,694,0,0,0,0,0,0,0,0,0,-1,860,330,0,0
-357,694,0,0,0,0,0,0,0,0,0,-1,867,330,0,0
-350,694,0,0,0,0,0,0,0,0,0,-1,874,330,0,0
-343,694,0,0,0,0,0,0,0,0,0,-1,881,330,0,0
-336,694,0,0,0,0,0,0,0,0,0,-1,888,330,0,0
-329,694,0,0,0,0,0,0,0,0,0,-1,895,330,0,0
-322,694,0,0,0,0,0,0,0,0,0,-1,902,330,0,0
-315,694,0,0,0,0,0,0,0,0,0,-1,909,330,0,0
-308,694,0,0,0,0,0,0,0,0,0,-1,916,330,0,0
-301,694,0,0,0,0,0,0,0,0,0,-1,923,330,0,0
-294,694,0,0,0,0,0,0,0,0,0,-1,930,330,0,0
-287,694,0,0,0,0,0,0,0,0,0,-1,937,330,0,0
-280,694,0,0,0,0,0,0,0,0,0,-1,944,330,0,0
-273,694,0,0,0,0,0,0,0,0,0,-1,951,330,0,0
-266,694,0,0,0,0,0,0,0,0,0,-1,958,330,0,0
-259,694,0,0,0,0,0,0,0,0,0,-1,965,330,0,0
-252,694,0,0,0,0,0,0,0,0,0,-1,972,330,0,0
-245,694,0,0,0,0,0,0,0,0,0,-1,979,330,0,0
-238,694,0,0,0,0,0,0,0,0,0,-1,986,330,0,0
-231,694,0,0,0,0,0,0,0,0,0,-1,993,330,0,0
-224,694,0,0,0,0,0,0,0,0,0,-1,1000,330,0,0
-217,694,0,0,0,0,0,0,0,0,0,-1,1007,330,0,0
-210,694,0,0,0,0,0,0,0,0,0,-1,1014,330,0,0
-203,694,0,0,0,0,0,0,0,0,0,-1,1021,330,0,0
-196,694,0,0,0,0,0,0,0,0,0,-1,1028,330,0,0
-189,694,0,0,0,0,0,0,0,0,0,-1,1035,330,0,0
-182,694,0,0,0,0,0,0,0,0,0,-1,1042,330,0,0
-175,694,0,0,0,0,0,0,0,0,0,-1,1049,330,0,0
-168,694,0,0,0,0,0,0,0,0,0,-1,1056,330,0,0
-161,694,0,0,0,0,0,0,0,0,0,-1,1063,330,0,0
-154,694,0,0,0,0,0,0,0,0,0,-1,1070,330,0,0
-147,694,0,0,0,0,0,0,0,0,0,-1,1077,330,0,0
-140,694,0,0,0,0,0,0,0,0,0,-1,1084,330,0,0
-133,694,0,0,0,0,0,0,0,0,0,-1,1091,330,0,0
-126,694,0,0,0,0,0,0,0,0,0,-1,1098,330,0,0
-119,694,0,0,0,0,0,0,0,0,0,-1,1105,330,0,0
-112,694,0,0,0,0,0,0,0,0,0,-1,1112,330,0,0
-105,694,2.5188,-19.3963,0,0,0,0,0,0,0,-1,1119,330,2.51882,19.3963
-98,694,1.34875,-10.1051,0,0,0,0,0,0,0,-1,1126,330,1.34874,10.1051
-91,694,1.35474,-9.22229,0,0,0,0,0,0,0,-1,1133,330,1.35476,9.22229
-84,694,1.90283,-23.2704,0,0,0,0,0,0,0,-1,1140,330,1.90283,23.2704
-77,694,-3.97034,-23.5838,0,0,0,0,0,0,0,-1,1147,330,-3.97029,23.5838
-70,694,-8.84351,-15.3281,0,0,0,0,0,0,0,-1,1154,330,-8.84354,15.3281
-63,694,-13.4351,-6.00711,0,0,0,0,0,0,0,-1,1161,330,-13.4351,6.00713
-56,694,-6.50623,-0.649139,0,0,0,0,0,0,0,-1,1168,330,-6.5062,0.649126
-49,694,-1.11426,0.0341797,0,0,0,0,0,0,0,-1,1175,330,-1.11424,-0.0341846
-42,694,-0.346313,-0.709595,0,0,0,0,0,0,0,-1,1182,330,-0.346298,0.709581
-35,694,-0.459106,-1.24713,0,0,0,0,0,0,0,-1,1189,330,-0.459142,1.24714
-28,694,-6.48413,-3.95972,0,0,0,0,0,0,0,-1,1196,330,-6.48414,3.9597
-21,694,2.63269,-20.663,0,0,0,0,0,0,0,-1,1203,330,2.63273,20.663
-14,694,5.87781,-21.0292,0,0,0,0,0,0,0,-1,1210,330,5.87786,21.0292
-7,694,6.2948,-21.5883,-0.0209728,0.0696898,0.00355124,0.0698287,-0.0211117,1.53171,0.0549584,0.0464691,1217,330,6.29474,21.5883
0,694,6.86157,-22.051,-0.0251676,0.0611682,-0.00397266,0.0613506,-0.02535,-1.52491,0.051475,0.0471359,1224,330,6.86153,22.051
7,694,7.69006,-22.3181,-0.0274725,0.0525396,-0.0124421,0.0544297,-0.0293626,-1.42004,0.0490938,0.045159,1231,330,7.6901,22.3181
14,694,8.37805,-22.6783,-0.0273092,0.0469759,-0.0214434,0.0527215,-0.0330547,-1.30901,0.0499549,0.0438104,1238,330,8.37806,22.6783
21,694,2.58667,-22.9082,-0.0250588,0.0444902,-0.0300873,0.0556995,-0.0362682,-1.21417,0.0534912,0.0457678,1245,330,2.58673,22.9082
28,694,3.09717,-23.5788,-0.0220709,0.0425787,-0.0372561,0.0595784,-0.0390707,-1.14272,0.0573639,0.0437877,1252,330,3.09719,23.5788
35,694,2.75439,-23.6679,-0.0181442,0.0429049,-0.0433393,0.0653902,-0.0406295,-1.09221,0.0617644,0.0427906,1259,330,2.75443,23.6679
42,694,2.45801,-23.864,-0.0152061,0.0443359,-0.0463879,0.0696843,-0.0405545,-1.07069,0.0643829,0.0474673,1266,330,2.45798,23.864
49,694,2.16101,-24.0865,0,0,0,0,0,0,0,-1,1273,330,2.16097,24.0865
56,694,3.53174,-24.1201,0,0,0,0,0,0,0,-1,1280,330,3.53176,24.1201
63,694,3.41956,-25.991,0,0,0,0,0,0,0,-1,1287,330,3.41951,25.991
70,694,4.07666,-22.2831,0,0,0,0,0,0,0,-1,1294,330,4.07661,22.2831
77,694,3.94226,-22.2745,0,0,0,0,0,0,0,-1,1301,330,3.94227,22.2745
84,694,3.80798,-22.2659,0,0,0,0,0,0,0,-1,1308,330,3.80794,22.2659
91,694,5.25439,-23.5261,-0.0106968,0.0262693,-0.0215726,0.036194,-0.0206215,-1.13961,0.0332106,0.0472172,1315,330,5.25439,23.5261
98,694,5.07568,-23.6776,-0.0129773,0.0160937,-0.015499,0.0228068,-0.0196903,-1.16206,0.0245577,0.0479396,1322,330,5.07572,23.6776
105,694,4.92444,-23.8082,0,0,0,0,0,0,0,-1,1329,330,4.92438,23.8082
112,694,4.18005,-24.1473,-0.0173553,-0.00719842,-0.00577291,-0.00458809,-0.0199656,-1.14614,0.0120752,0.0457657,1336,330,4.18,24.1473
119,694,4.05579,-23.7816,-0.0186002,-0.0194713,-0.00251268,-0.0164856,-0.0215859,-0.699579,0.0130277,0.0469531,1343,330,4.05577,23.7815
126,694,3.86084,-23.4537,-0.0192108,-0.0287568,-0.000265802,-0.0192034,-0.0287642,-0.0278156,0.0169152,0.0484786,1350,330,3.86083,23.4538
133,694,3.64661,-23.101,0,0,0,0,0,0,0,-1,1357,330,3.64655,23.101
140,694,3.47974,-22.3825,0,0,0,0,0,0,0,-1,1364,330,3.47969,22.3825
147,694,5.6095,-20.1523,0,0,0,0,0,0,0,-1,1371,330,5.60946,20.1522
154,694,7.07886,-20.1537,0,0,0,0,0,0,0,-1,1378,330,7.07883,20.1537
161,694,8.71729,-20.1926,0,0,0,0,0,0,0,-1,1385,330,8.71733,20.1926
168,694,30.451,0.196686,0,0,0,0,0,0,0,-1,1392,330,30.4511,-0.196674
175,694,31.0701,0.869873,0,0,0,0,0,0,0,-1,1399,330,31.07,-0.869874
182,694,8.29028,5.75238,0,0,0,0,0,0,0,-1,1406,330,8.29034,-5.75237
189,694,7.9801,4.46118,0,0,0,0,0,0,0,-1,1413,330,7.9801,-4.46118
196,694,7.39331,3.32632,0,0,0,0,0,0,0,-1,1420,330,7.39329,-3.32633
203,694,7.04492,2.20529,0,0,0,0,0,0,0,-1,1427,330,7.04496,-2.20529
210,694,6.44714,0.646912,0,0,0,0,0,0,0,-1,1434,330,6.44717,-0.646903
217,694,7.12061,-0.644958,0,0,0,0,0,0,0,-1,1441,330,7.12059,0.644961
224,694,6.74011,-1.70544,0,0,0,0,0,0,0,-1,1448,330,6.74013,1.70546
231,694,0,0,0,0,0,0,0,0,0,-1,1455,330,0,0
238,694,0,0,0,0,0,0,0,0,0,-1,1462,330,0,0
245,694,0,0,0,0,0,0,0,0,0,-1,1469,330,0,0
252,694,0,0,0,0,0,0,0,0,0,-1,1476,330,0,0
259,694,0,0,0,0,0,0,0,0,0,-1,1483,330,0,0
266,694,0,0,0,0,0,0,0,0,0,-1,1490,330,0,0
273,694,0,0,0,0,0,0,0,0,0,-1,1497,330,0,0
280,694,0,0,0,0,0,0,0,0,0,-1,1504,330,0,0
287,694,0,0,0,0,0,0,0,0,0,-1,1511,330,0,0
294,694,0,0,0,0,0,0,0,0,0,-1,1518,330,0,0
301,694,0,0,0,0,0,0,0,0,0,-1,1525,330,0,0
308,694,0,0,0,0,0,0,0,0,0,-1,1532,330,0,0
315,694,0,0,0,0,0,0,0,0,0,-1,1539,330,0,0
322,694,0,0,0,0,0,0,0,0,0,-1,1546,330,0,0
329,694,0,0,0,0,0,0,0,0,0,-1,1553,330,0,0
336,694,0,0,0,0,0,0,0,0,0,-1,1560,330,0,0
343,694,0,0,0,0,0,0,0,0,0,-1,1567,330,0,0
350,694,0,0,0,0,0,0,0,0,0,-1,1574,330,0,0
357,694,0,0,0,0,0,0,0,0,0,-1,1581,330,0,0
364,694,0,0,0,0,0,0,0,0,0,-1,1588,330,0,0
371,694,0,0,0,0,0,0,0,0,0,-1,1595,330,0,0
378,694,0,0,0,0,0,0,0,0,0,-1,1602,330,0,0
385,694,0,0,0,0,0,0,0,0,0,-1,1609,330,0,0
392,694,0,0,0,0,0,0,0,0,0,-1,1616,330,0,0
399,694,0,0,0,0,0,0,0,0,0,-1,1623,330,0,0
406,694,0,0,0,0,0,0,0,0,0,-1,1630,330,0,0
413,694,0,0,0,0,0,0,0,0,0,-1,1637,330,0,0
420,694,0,0,0,0,0,0,0,0,0,-1,1644,330,0,0
427,694,0,0,0,0,0,0,0,0,0,-1,1651,330,0,0
434,694,0,0,0,0,0,0,0,0,0,-1,1658,330,0,0
441,694,0,0,0,0,0,0,0,0,0,-1,1665,330,0,0
448,694,0,0,0,0,0,0,0,0,0,-1,1672,330,0,0
455,694,0,0,0,0,0,0,0,0,0,-1,1679,330,0,0
462,694,0,0,0,0,0,0,0,0,0,-1,1686,330,0,0
469,694,0,0,0,0,0,0,0,0,0,-1,1693,330,0,0
476,694,0,0,0,0,0,0,0,0,0,-1,1700,330,0,0
483,694,0,0,0,0,0,0,0,0,0,-1,1707,330,0,0
490,694,0,0,0,0,0,0,0,0,0,-1,1714,330,0,0
497,694,0,0,0,0,0,0,0,0,0,-1,1721,330,0,0
504,694,0,0,0,0,0,0,0,0,0,-1,1728,330,0,0
511,694,0,0,0,0,0,0,0,0,0,-1,1735,330,0,0
518,694,0,0,0,0,0,0,0,0,0,-1,1742,330,0,0
525,694,0,0,0,0,0,0,0,0,0,-1,1749,330,0,0
532,694,0,0,0,0,0,0,0,0,0,-1,1756,330,0,0
539,694,0,0,0,0,0,0,0,0,0,-1,1763,330,0,0
546,694,0,0,0,0,0,0,0,0,0,-1,1770,330,0,0
553,694,0,0,0,0,0,0,0,0,0,-1,1777,330,0,0
560,694,0,0,0,0,0,0,0,0,0,-1,1784,330,0,0
567,694,0,0,0,0,0,0,0,0,0,-1,1791,330,0,0
574,694,0,0,0,0,0,0,0,0,0,-1,1798,330,0,0
581,694,0,0,0,0,0,0,0,0,0,-1,1805,330,0,0
588,694,0,0,0,0,0,0,0,0,0,-1,1812,330,0,0
595,694,0,0,0,0,0,0,0,0,0,-1,1819,330,0,0
602,694,0,0,0,0,0,0,0,0,0,-1,1826,330,0,0
609,694,0,0,0,0,0,0,0,0,0,-1,1833,330,0,0
616,694,0,0,0,0,0,0,0,0,0,-1,1840,330,0,0
623,694,0,0,0,0,0,0,0,0,0,-1,1847,330,0,0
630,694,0,0,0,0,0,0,0,0,0,-1,1854,330,0,0
637,694,0,0,0,0,0,0,0,0,0,-1,1861,330,0,0
644,694,0,0,0,0,0,0,0,0,0,-1,1868,330,0,0
651,694,0,0,0,0,0,0,0,0,0,-1,1875,330,0,0
658,694,0,0,0,0,0,0,0,0,0,-1,1882,330,0,0
665,694,0,0,0,0,0,0,0,0,0,-1,1889,330,0,0
672,694,0,0,0,0,0,0,0,0,0,-1,1896,330,0,0
679,694,0,0,0,0,0,0,0,0,0,-1,1903,330,0,0
686,694,0,0,0,0,0,0,0,0,0,-1,1910,330,0,0
693,694,0,0,0,0,0,0,0,0,0,-1,1917,330,0,0
700,694,0,0,0,0,0,0,0,0,0,-1,1924,330,0,0
707,694,0,0,0,0,0,0,0,0,0,-1,1931,330,0,0
714,694,0,0,0,0,0,0,0,0,0,-1,1938,330,0,0
721,694,0,0,0,0,0,0,0,0,0,-1,1945,330,0,0
728,694,0,0,0,0,0,0,0,0,0,-1,1952,330,0,0
735,694,0,0,0,0,0,0,0,0,0,-1,1959,330,0,0
742,694,0,0,0,0,0,0,0,0,0,-1,1966,330,0,0
749,694,0,0,0,0,0,0,0,0,0,-1,1973,330,0,0
756,694,0,0,0,0,0,0,0,0,0,-1,1980,330,0,0
763,694,0,0,0,0,0,0,0,0,0,-1,1987,330,0,0
770,694,0,0,0,0,0,0,0,0,0,-1,1994,330,0,0
777,694,0,0,0,0,0,0,0,0,0,-1,2001,330,0,0
784,694,0,0,0,0,0,0,0,0,0,-1,2008,330,0,0
791,694,0,0,0,0,0,0,0,0,0,-1,2015,330,0,0
798,694,0,0,0,0,0,0,0,0,0,-1,2022,330,0,0
805,694,0,0,0,0,0,0,0,0,0,-1,2029,330,0,0
812,694,0,0,0,0,0,0,0,0,0,-1,2036,330,0,0
-700,687,0,0,0,0,0,0,0,0,0,-1,524,337,0,0
-693,687,0,0,0,0,0,0,0,0,0,-1,531,337,0,0
-686,687,0,0,0,0,0,0,0,0,0,-1,538,337,0,0
-679,687,0,0,0,0,0,0,0,0,0,-1,545,337,0,0
-672,687,0,0,0,0,0,0,0,0,0,-1,552,337,0,0
-665,687,0,0,0,0,0,0,0,0,0,-1,559,337,0,0
-658,687,0,0,0,0,0,0,0,0,0,-1,566,337,0,0
-651,687,0,0,0,0,0,0,0,0,0,-1,573,337,0,0
-644,687,0,0,0,0,0,0,0,0,0,-1,580,337,0,0
-637,687,0,0,0,0,0,0,0,0,0,-1,587,337,0,0
-630,687,0,0,0,0,0,0,0,0,0,-1,594,337,0,0
-623,687,0,0,0,0,0,0,0,0,0,-1,601,337,0,0
-616,687,0,0,0,0,0,0,0,0,0,-1,608,337,0,0
-609,687,0,0,0,0,0,0,0,0,0,-1,615,337,0,0
-602,687,0,0,0,0,0,0,0,0,0,-1,622,337,0,0
-595,687,0,0,0,0,0,0,0,0,0,-1,629,337,0,0
-588,687,0,0,0,0,0,0,0,0,0,-1,636,337,0,0
-581,687,0,0,0,0,0,0,0,0,0,-1,643,337,0,0
-574,687,0,0,0,0,0,0,0,0,0,-1,650,337,0,0
-567,687,0,0,0,0,0,0,0,0,0,-1,657,337,0,0
-560,687,0,0,0,0,0,0,0,0,0,-1,664,337,0,0
-553,687,0,0,0,0,0,0,0,0,0,-1,671,337,0,0
-546,687,0,0,0,0,0,0,0,0,0,-1,678,337,0,0
-539,687,0,0,0,0,0,0,0,0,0,-1,685,337,0,0
-532,687,0,0,0,0,0,0,0,0,0,-1,692,337,0,0
-525,687,0,0,0,0,0,0,0,0,0,-1,699,337,0,0
-518,687,0,0,0,0,0,0,0,0,0,-1,706,337,0,0
-511,687,0,0,0,0,0,0,0,0,0,-1,713,337,0,0
-504,687,0,0,0,0,0,0,0,0,0,-1,720,337,0,0
-497,687,0,0,0,0,0,0,0,0,0,-1,727,337,0,0
-490,687,0,0,0,0,0,0,0,0,0,-1,734,337,0,0
-483,687,0,0,0,0,0,0,0,0,0,-1,741,337,0,0
-476,687,0,0,0,0,0,0,0,0,0,-1,748,337,0,0
-469,687,0,0,0,0,0,0,0,0,0,-1,755,337,0,0
-462,687,0,0,0,0,0,0,0,0,0,-1,762,337,0,0
-455,687,0,0,0,0,0,0,0,0,0,-1,769,337,0,0
-448,687,0,0,0,0,0,0,0,0,0,-1,776,337,0,0
-441,687,0,0,0,0,0,0,0,0,0,-1,783,337,0,0
-434,687,0,0,0,0,0,0,0,0,0,-1,790,337,0,0
-427,687,0,0,0,0,0,0,0,0,0,-1,797,337,0,0
-420,687,0,0,0,0,0,0,0,0,0,-1,804,337,0,0
-413,687,0,0,0,0,0,0,0,0,0,-1,811,337,0,0
-406,687,0,0,0,0,0,0,0,0,0,-1,818,337,0,0
-399,687,0,0,0,0,0,0,0,0,0,-1,825,337,0,0
-392,687,0,0,0,0,0,0,0,0,0,-1,832,337,0,0
-385,687,0,0,0,0,0,0,0,0,0,-1,839,337,0,0
-378,687,0,0,0,0,0,0,0,0,0,-1,846,337,0,0
-371,687,0,0,0,0,0,0,0,0,0,-1,853,337,0,0
-364,687,0,0,0,0,0,0,0,0,0,-1,860,337,0,0
-357,687,0,0,0,0,0,0,0,0,0,-1,867,337,0,0
-350,687,0,0,0,0,0,0,0,0,0,-1,874,337,0,0
-343,687,0,0,0,0,0,0,0,0,0,-1,881,337,0,0
-336,687,0,0,0,0,0,0,0,0,0,-1,888,337,0,0
-329,687,0,0,0,0,0,0,0,0,0,-1,895,337,0,0
-322,687,0,0,0,0,0,0,0,0,0,-1,902,337,0,0
-315,687,0,0,0,0,0,0,0,0,0,-1,909,337,0,0
-308,687,0,0,0,0,0,0,0,0,0,-1,916,337,0,0
-301,687,0,0,0,0,0,0,0,0,0,-1,923,337,0,0
-294,687,0,0,0,0,0,0,0,0,0,-1,930,337,0,0
-287,687,0,0,0,0,0,0,0,0,0,-1,937,337,0,0
-280,687,0,0,0,0,0,0,0,0,0,-1,944,337,0,0
-273,687,0,0,0,0,0,0,0,0,0,-1,951,337,0,0
-266,687,0,0,0,0,0,0,0,0,0,-1,958,337,0,0
-259,687,0,0,0,0,0,0,0,0,0,-1,965,337,0,0
-252,687,0,0,0,0,0,0,0,0,0,-1,972,337,0,0
-245,687,0,0,0,0,0,0,0,0,0,-1,979,337,0,0
-238,687,0,0,0,0,0,0,0,0,0,-1,986,337,0,0
-231,687,0,0,0,0,0,0,0,0,0,-1,993,337,0,0
-224,687,0,0,0,0,0,0,0,0,0,-1,1000,337,0,0
-217,687,0,0,0,0,0,0,0,0,0,-1,1007,337,0,0
-210,687,0,0,0,0,0,0,0,0,0,-1,1014,337,0,0
-203,687,0,0,0,0,0,0,0,0,0,-1,1021,337,0,0
-196,687,0,0,0,0,0,0,0,0,0,-1,1028,337,0,0
-189,687,0,0,0,0,0,0,0,0,0,-1,1035,337,0,0
-182,687,0,0,0,0,0,0,0,0,0,-1,1042,337,0,0
-175,687,0,0,0,0,0,0,0,0,0,-1,1049,337,0,0
-168,687,0,0,0,0,0,0,0,0,0,-1,1056,337,0,0
-161,687,0,0,0,0,0,0,0,0,0,-1,1063,337,0,0
-154,687,0,0,0,0,0,0,0,0,0,-1,1070,337,0,0
-147,687,0,0,0,0,0,0,0,0,0,-1,1077,337,0,0
-140,687,0,0,0,0,0,0,0,0,0,-1,1084,337,0,0
-133,687,6.28271,-21.7387,0,0,0,0,0,0,0,-1,1091,337,6.28275,21.7388
-126,687,6.27686,-20.9077,0,0,0,0,0,0,0,-1,1098,337,6.27685,20.9076
-119,687,6.23584,-20.1508,0,0,0,0,0,0,0,-1,1105,337,6.23578,20.1507
-112,687,6.22949,-19.326,0,0,0,0,0,0,0,-1,1112,337,6.22949,19.326
-105,687,6.15454,-18.2863,0,0,0,0,0,0,0,-1,1119,337,6.15449,18.2863
-98,687,3.33679,-15.4141,0,0,0,0,0,0,0,-1,1126,337,3.33683,15.4141
-91,687,2.28162,-7.72437,0,0,0,0,0,0,0,-1,1133,337,2.28167,7.72437
-84,687,3.02051,-23.8021,0,0,0,0,0,0,0,-1,1140,337,3.02057,23.8021
-77,687,-2.90393,-23.0662,0,0,0,0,0,0,0,-1,1147,337,-2.90398,23.0662
-70,687,-7.77222,-14.7563,0,0,0,0,0,0,0,-1,1154,337,-7.77227,14.7563
-63,687,-12.6154,-4.68893,0,0,0,0,0,0,0,-1,1161,337,-12.6153,4.68892
-56,687,-17.2266,1.87033,0,0,0,0,0,0,0,-1,1168,337,-17.2266,-1.87034
-49,687,-15.6449,-9.94391,0,0,0,0,0,0,0,-1,1175,337,-15.6449,9.94392
-42,687,-4.2019,-0.405609,0,0,0,0,0,0,0,-1,1182,337,-4.20192,0.405614
-35,687,-4.42273,-0.688171,0,0,0,0,0,0,0,-1,1189,337,-4.42276,0.688178
-28,687,-1.14038,-1.39072,0,0,0,0,0,0,0,-1,1196,337,-1.14035,1.3907
-21,687,5.17542,-21.0285,0,0,0,0,0,0,0,-1,1203,337,5.17544,21.0285
-14,687,5.49158,-21.4986,-0.0158457,0.0611582,0.00535494,0.0615288,-0.0162163,1.5017,0.0473593,0.0482043,1210,337,5.49158,21.4986
-7,687,5.88953,-21.9913,-0.0194043,0.0559787,0.00113156,0.0559957,-0.0194213,1.55579,0.0452166,0.045679,1217,337,5.8895,21.9913
0,687,4.146,-23.4791,-0.0218446,0.0498541,-0.00402919,0.0500798,-0.0220703,-1.51483,0.0426894,0.0477893,1224,337,4.14598,23.479
7,687,3.97693,-23.6679,0,0,0,0,0,0,0,-1,1231,337,3.97692,23.6679
14,687,3.16077,-21.9797,-0.0226437,0.0392159,-0.0164184,0.0433035,-0.0267313,-1.32679,0.0408102,0.0454455,1238,337,3.16083,21.9797
21,687,2.94702,-23.1582,-0.0207832,0.0371556,-0.0226166,0.0449385,-0.0285662,-1.23936,0.0427874,0.0450578,1245,337,2.94704,23.1582
28,687,3.9502,-23.3117,0,0,0,0,0,0,0,-1,1252,337,3.95018,23.3117
35,687,4.00122,-23.5735,0,0,0,0,0,0,0,-1,1259,337,4.00125,23.5735
42,687,2.96423,-23.9952,0,0,0,0,0,0,0,-1,1266,337,2.96424,23.9952
49,687,2.61255,-24.1396,0,0,0,0,0,0,0,-1,1273,337,2.61256,24.1396
56,687,3.28052,-23.2573,0,0,0,0,0,0,0,-1,1280,337,3.28055,23.2573
63,687,4.021,-22.6637,0,0,0,0,0,0,0,-1,1287,337,4.02103,22.6637
70,687,4.0083,-22.5124,-0.00720982,0.0333971,-0.0289088,0.04842,-0.0222327,-1.09154,0.0417149,0.0434474,1294,337,4.00833,22.5124
77,687,3.82617,-22.6753,-0.0064773,0.0298935,-0.0234604,0.0413914,-0.0179752,-1.1151,0.0351529,0.046198,1301,337,3.82618,22.6753
84,687,3.6438,-22.624,0,0,0,0,0,0,0,-1,1308,337,3.64376,22.624
91,687,4.98254,-23.745,-0.00988221,0.0197292,-0.012962,0.0246014,-0.0147545,-1.21125,0.022958,0.047136,1315,337,4.98259,23.745
98,687,4.57983,-23.486,-0.0116021,0.0118784,-0.00817614,0.0144449,-0.0141686,-1.26664,0.0165203,0.0487215,1322,337,4.57978,23.486
105,687,4.37439,-23.3579,0,0,0,0,0,0,0,-1,1329,337,4.37442,23.3579
112,687,3.87659,-23.1425,-0.0150157,-0.00532701,-0.000738311,-0.00527107,-0.0150716,-1.49517,0.0088316,0.0461278,1336,337,3.87662,23.1425
119,687,3.66821,-22.8825,-0.0159874,-0.0143517,0.00183221,-0.0131631,-0.017176,0.995313,0.010375,0.0456709,1343,337,3.66819,22.8825
126,687,3.47839,-22.8253,-0.0164465,-0.0213179,0.00373511,-0.0144231,-0.0233413,0.496466,0.0136005,0.0461501,1350,337,3.47835,22.8253
133,687,3.22461,-22.7459,0,0,0,0,0,0,0,-1,1357,337,3.22466,22.7459
140,687,2.81799,-22.6561,0,0,0,0,0,0,0,-1,1364,337,2.81797,22.6561
147,687,4.88428,-20.9026,0,0,0,0,0,0,0,-1,1371,337,4.88433,20.9027
154,687,3.96045,-20.2497,0,0,0,0,0,0,0,-1,1378,337,3.96049,20.2497
161,687,29.3895,-1.90628,0,0,0,0,0,0,0,-1,1385,337,29.3895,1.90628
168,687,29.8564,-1.19434,0,0,0,0,0,0,0,-1,1392,337,29.8564,1.19434
175,687,30.3419,-0.453583,0,0,0,0,0,0,0,-1,1399,337,30.3419,0.45357
182,687,6.67249,0.289917,0,0,0,0,0,0,0,-1,1406,337,6.67247,-0.289916
189,687,7.76062,4.53635,0,0,0,0,0,0,0,-1,1413,337,7.76064,-4.53636
196,687,6.99048,3.2966,0,0,0,0,0,0,0,-1,1420,337,6.99046,-3.2966
203,687,6.36499,2.1445,0,0,0,0,0,0,0,-1,1427,337,6.36499,-2.14451
210,687,6.68066,0.674652,0,0,0,0,0,0,0,-1,1434,337,6.68062,-0.674655
217,687,5.99683,-0.630493,0,0,0,0,0,0,0,-1,1441,337,5.99684,0.630497
224,687,5.52917,0.524902,0,0,0,0,0,0,0,-1,1448,337,5.5292,-0.524915
231,687,5.85583,-1.73651,0,0,0,0,0,0,0,-1,1455,337,5.85577,1.73651
238,687,5.96582,-2.96774,0,0,0,0,0,0,0,-1,1462,337,5.96577,2.96773
245,687,1.28259,2.32211,0,0,0,0,0,0,0,-1,1469,337,1.28258,-2.32211
252,687,1.97278,3.88422,0,0,0,0,0,0,0,-1,1476,337,1.97281,-3.88421
259,687,0,0,0,0,0,0,0,0,0,-1,1483,337,0,0
266,687,0,0,0,0,0,0,0,0,0,-1,1490,337,0,0
273,687,0,0,0,0,0,0,0,0,0,-1,1497,337,0,0
280,687,0,0,0,0,0,0,0,0,0,-1,1504,337,0,0
287,687,0,0,0,0,0,0,0,0,0,-1,1511,337,0,0
294,687,0,0,0,0,0,0,0,0,0,-1,1518,337,0,0
301,687,0,0,0,0,0,0,0,0,0,-1,1525,337,0,0
308,687,0,0,0,0,0,0,0,0,0,-1,1532,337,0,0
315,687,0,0,0,0,0,0,0,0,0,-1,1539,337,0,0
322,687,0,0,0,0,0,0,0,0,0,-1,1546,337,0,0
329,687,0,0,0,0,0,0,0,0,0,-1,1553,337,0,0
336,687,0,0,0,0,0,0,0,0,0,-1,1560,337,0,0
343,687,0,0,0,0,0,0,0,0,0,-1,1567,337,0,0
350,687,0,0,0,0,0,0,0,0,0,-1,1574,337,0,0
357,687,0,0,0,0,0,0,0,0,0,-1,1581,337,0,0
364,687,0,0,0,0,0,0,0,0,0,-1,1588,337,0,0
371,687,0,0,0,0,0,0,0,0,0,-1,1595,337,0,0
378,687,0,0,0,0,0,0,0,0,0,-1,1602,337,0,0
385,687,0,0,0,0,0,0,0,0,0,-1,1609,337,0,0
392,687,0,0,0,0,0,0,0,0,0,-1,1616,337,0,0
399,687,0,0,0,0,0,0,0,0,0,-1,1623,337,0,0
406,687,0,0,0,0,0,0,0,0,0,-1,1630,337,0,0
413,687,0,0,0,0,0,0,0,0,0,-1,1637,337,0,0
420,687,0,0,0,0,0,0,0,0,0,-1,1644,337,0,0
427,687,0,0,0,0,0,0,0,0,0,-1,1651,337,0,0
434,687,0,0,0,0,0,0,0,0,0,-1,1658,337,0,0
441,687,0,0,0,0,0,0,0,0,0,-1,1665,337,0,0
448,687,0,0,0,0,0,0,0,0,0,-1,1672,337,0,0
455,687,0,0,0,0,0,0,0,0,0,-1,1679,337,0,0
462,687,0,0,0,0,0,0,0,0,0,-1,1686,337,0,0
469,687,0,0,0,0,0,0,0,0,0,-1,1693,337,0,0
476,687,0,0,0,0,0,0,0,0,0,-1,1700,337,0,0
483,687,0,0,0,0,0,0,0,0,0,-1,1707,337,0,0
490,687,0,0,0,0,0,0,0,0,0,-1,1714,337,0,0
497,687,0,0,0,0,0,0,0,0,0,-1,1721,337,0,0
504,687,0,0,0,0,0,0,0,0,0,-1,1728,337,0,0
511,687,0,0,0,0,0,0,0,0,0,-1,1735,337,0,0
518,687,0,0,0,0,0,0,0,0,0,-1,1742,337,0,0
525,687,0,0,0,0,0,0,0,0,0,-1,1749,337,0,0
532,687,0,0,0,0,0,0,0,0,0,-1,1756,337,0,0
539,687,0,0,0,0,0,0,0,0,0,-1,1763,337,0,0
546,687,0,0,0,0,0,0,0,0,0,-1,1770,337,0,0
553,687,0,0,0,0,0,0,0,0,0,-1,1777,337,0,0
560,687,0,0,0,0,0,0,0,0,0,-1,1784,337,0,0
567,687,0,0,0,0,0,0,0,0,0,-1,1791,337,0,0
574,687,0,0,0,0,0,0,0,0,0,-1,1798,337,0,0
581,687,0,0,0,0,0,0,0,0,0,-1,1805,337,0,0
588,687,0,0,0,0,0,0,0,0,0,-1,1812,337,0,0
595,687,0,0,0,0,0,0,0,0,0,-1,1819,337,0,0
602,687,0,0,0,0,0,0,0,0,0,-1,1826,337,0,0
609,687,0,0,0,0,0,0,0,0,0,-1,1833,337,0,0
616,687,0,0,0,0,0,0,0,0,0,-1,1840,337,0,0
623,687,0,0,0,0,0,0,0,0,0,-1,1847,337,0,0
630,687,0,0,0,0,0,0,0,0,0,-1,1854,337,0,0
637,687,0,0,0,0,0,0,0,0,0,-1,1861,337,0,0
644,687,0,0,0,0,0,0,0,0,0,-1,1868,337,0,0
651,687,0,0,0,0,0,0,0,0,0,-1,1875,337,0,0
658,687,0,0,0,0,0,0,0,0,0,-1,1882,337,0,0
665,687,0,0,0,0,0,0,0,0,0,-1,1889,337,0,0
672,687,0,0,0,0,0,0,0,0,0,-1,1896,337,0,0
679,687,0,0,0,0,0,0,0,0,0,-1,1903,337,0,0
686,687,0,0,0,0,0,0,0,0,0,-1,1910,337,0,0
693,687,0,0,0,0,0,0,0,0,0,-1,1917,337,0,0
700,687,0,0,0,0,0,0,0,0,0,-1,1924,337,0,0
707,687,0,0,0,0,0,0,0,0,0,-1,1931,337,0,0
714,687,0,0,0,0,0,0,0,0,0,-1,1938,337,0,0
721,687,0,0,0,0,0,0,0,0,0,-1,1945,337,0,0
728,687,0,0,0,0,0,0,0,0,0,-1,1952,337,0,0
735,687,0,0,0,0,0,0,0,0,0,-1,1959,337,0,0
742,687,0,0,0,0,0,0,0,0,0,-1,1966,337,0,0
749,687,0,0,0,0,0,0,0,0,0,-1,1973,337,0,0
756,687,0,0,0,0,0,0,0,0,0,-1,1980,337,0,0
763,687,0,0,0,0,0,0,0,0,0,-1,1987,337,0,0
770,687,0,0,0,0,0,0,0,0,0,-1,1994,337,0,0
777,687,0,0,0,0,0,0,0,0,0,-1,2001,337,0,0
784,687,0,0,0,0,0,0,0,0,0,-1,2008,337,0,0
791,687,0,0,0,0,0,0,0,0,0,-1,2015,337,0,0
798,687,0,0,0,0,0,0,0,0,0,-1,2022,337,0,0
805,687,0,0,0,0,0,0,0,0,0,-1,2029,337,0,0
812,687,0,0,0,0,0,0,0,0,0,-1,2036,337,0,0
-700,680,0,0,0,0,0,0,0,0,0,-1,524,344,0,0
-693,680,0,0,0,0,0,0,0,0,0,-1,531,344,0,0
-686,680,0,0,0,0,0,0,0,0,0,-1,538,344,0,0
-679,680,0,0,0,0,0,0,0,0,0,-1,545,344,0,0
-672,680,0,0,0,0,0,0,0,0,0,-1,552,344,0,0
-665,680,0,0,0,0,0,0,0,0,0,-1,559,344,0,0
-658,680,0,0,0,0,0,0,0,0,0,-1,566,344,0,0
-651,680,0,0,0,0,0,0,0,0,0,-1,573,344,0,0
-644,680,0,0,0,0,0,0,0,0,0,-1,580,344,0,0
-637,680,0,0,0,0,0,0,0,0,0,-1,587,344,0,0
-630,680,0,0,0,0,0,0,0,0,0,-1,594,344,0,0
-623,680,0,0,0,0,0,0,0,0,0,-1,601,344,0,0
-616,680,0,0,0,0,0,0,0,0,0,-1,608,344,0,0
-609,680,0,0,0,0,0,0,0,0,0,-1,615,344,0,0
-602,680,0,0,0,0,0,0,0,0,0,-1,622,344,0,0
-595,680,0,0,0,0,0,0,0,0,0,-1,629,344,0,0
-588,680,0,0,0,0,0,0,0,0,0,-1,636,344,0,0
-581,680,0,0,0,0,0,0,0,0,0,-1,643,344,0,0
-574,680,0,0,0,0,0,0,0,0,0,-1,650,344,0,0
-567,680,0,0,0,0,0,0,0,0,0,-1,657,344,0,0
-560,680,0,0,0,0,0,0,0,0,0,-1,664,344,0,0
-553,680,0,0,0,0,0,0,0,0,0,-1,671,344,0,0
-546,680,0,0,0,0,0,0,0,0,0,-1,678,344,0,0
-539,680,0,0,0,0,0,0,0,0,0,-1,685,344,0,0
-532,680,0,0,0,0,0,0,0,0,0,-1,692,344,0,0
-525,680,0,0,0,0,0,0,0,0,0,-1,699,344,0,0
-518,680,0,0,0,0,0,0,0,0,0,-1,706,344,0,0
-511,680,0,0,0,0,0,0,0,0,0,-1,713,344,0,0
-504,680,0,0,0,0,0,0,0,0,0,-1,720,344,0,0
-497,680,0,0,0,0,0,0,0,0,0,-1,727,344,0,0
-490,680,0,0,0,0,0,0,0,0,0,-1,734,344,0,0
-483,680,0,0,0,0,0,0,0,0,0,-1,741,344,0,0
-476,680,0,0,0,0,0,0,0,0,0,-1,748,344,0,0
-469,680,0,0,0,0,0,0,0,0,0,-1,755,344,0,0
-462,680,0,0,0,0,0,0,0,0,0,-1,762,344,0,0
-455,680,0,0,0,0,0,0,0,0,0,-1,769,344,0,0
-448,680,0,0,0,0,0,0,0,0,0,-1,776,344,0,0
-441,680,0,0,0,0,0,0,0,0,0,-1,783,344,0,0
-434,680,0,0,0,0,0,0,0,0,0,-1,790,344,0,0
-427,680,0,0,0,0,0,0,0,0,0,-1,797,344,0,0
-420,680,0,0,0,0,0,0,0,0,0,-1,804,344,0,0
-413,680,0,0,0,0,0,0,0,0,0,-1,811,344,0,0
-406,680,0,0,0,0,0,0,0,0,0,-1,818,344,0,0
-399,680,0,0,0,0,0,0,0,0,0,-1,825,344,0,0
-392,680,0,0,0,0,0,0,0,0,0,-1,832,344,0,0
-385,680,0,0,0,0,0,0,0,0,0,-1,839,344,0,0
-378,680,0,0,0,0,0,0,0,0,0,-1,846,344,0,0
-371,680,0,0,0,0,0,0,0,0,0,-1,853,344,0,0
-364,680,0,0,0,0,0,0,0,0,0,-1,860,344,0,0
-357,680,0,0,0,0,0,0,0,0,0,-1,867,344,0,0
-350,680,0,0,0,0,0,0,0,0,0,-1,874,344,0,0
-343,680,0,0,0,0,0,0,0,0,0,-1,881,344,0,0
-336,680,0,0,0,0,0,0,0,0,0,-1,888,344,0,0
-329,680,0,0,0,0,0,0,0,0,0,-1,895,344,0,0
-322,680,0,0,0,0,0,0,0,0,0,-1,902,344,0,0
-315,680,0,0,0,0,0,0,0,0,0,-1,909,344,0,0
-308,680,0,0,0,0,0,0,0,0,0,-1,916,344,0,0
-301,680,0,0,0,0,0,0,0,0,0,-1,923,344,0,0
-294,680,0,0,0,0,0,0,0,0,0,-1,930,344,0,0
-287,680,0,0,0,0,0,0,0,0,0,-1,937,344,0,0
-280,680,0,0,0,0,0,0,0,0,0,-1,944,344,0,0
-273,680,0,0,0,0,0,0,0,0,0,-1,951,344,0,0
-266,680,0,0,0,0,0,0,0,0,0,-1,958,344,0,0
-259,680,0,0,0,0,0,0,0,0,0,-1,965,344,0,0
-252,680,0,0,0,0,0,0,0,0,0,-1,972,344,0,0
-245,680,0,0,0,0,0,0,0,0,0,-1,979,344,0,0
-238,680,0,0,0,0,0,0,0,0,0,-1,986,344,0,0
-231,680,0,0,0,0,0,0,0,0,0,-1,993,344,0,0
-224,680,0,0,0,0,0,0,0,0,0,-1,1000,344,0,0
-217,680,0,0,0,0,0,0,0,0,0,-1,1007,344,0,0
-210,680,0,0,0,0,0,0,0,0,0,-1,1014,344,0,0
-203,680,0,0,0,0,0,0,0,0,0,-1,1021,344,0,0
-196,680,0,0,0,0,0,0,0,0,0,-1,1028,344,0,0
-189,680,0,0,0,0,0,0,0,0,0,-1,1035,344,0,0
-182,680,0,0,0,0,0,0,0,0,0,-1,1042,344,0,0
-175,680,0,0,0,0,0,0,0,0,0,-1,1049,344,0,0
-168,680,0,0,0,0,0,0,0,0,0,-1,1056,344,0,0
-161,680,0,0,0,0,0,0,0,0,0,-1,1063,344,0,0
-154,680,7.43518,-26.8746,0,0,0,0,0,0,0,-1,1070,344,7.43524,26.8746
-147,680,7.21204,-27.3228,0,0,0,0,0,0,0,-1,1077,344,7.21198,27.3227
-140,680,2.61023,-22.0393,0,0,0,0,0,0,0,-1,1084,344,2.61019,22.0393
-133,680,3.45679,-21.7421,0,0,0,0,0,0,0,-1,1091,344,3.45676,21.7421
-126,680,3.43164,-21.5391,0,0,0,0,0,0,0,-1,1098,344,3.4317,21.5391
-119,680,3.61682,-21.0441,0,0,0,0,0,0,0,-1,1105,344,3.61688,21.0441
-112,680,4.18555,-20.4591,0,0,0,0,0,0,0,-1,1112,344,4.18559,20.4591
-105,680,4.44507,-19.4019,0,0,0,0,0,0,0,-1,1119,344,4.44506,19.4019
-98,680,3.32776,-19.4174,0,0,0,0,0,0,0,-1,1126,344,3.32772,19.4174
-91,680,8.72412,-27.7066,0,0,0,0,0,0,0,-1,1133,344,8.72408,27.7066
-84,680,3.77551,-23.3849,0,0,0,0,0,0,0,-1,1140,344,3.77554,23.385
-77,680,-1.28748,-18.6711,0,0,0,0,0,0,0,-1,1147,344,-1.28748,18.671
-70,680,-6.60596,-14.4461,0,0,0,0,0,0,0,-1,1154,344,-6.60593,14.4461
-63,680,-11.5272,-6.79587,0,0,0,0,0,0,0,-1,1161,344,-11.5272,6.79587
-56,680,-6.96912,-8.83356,0,0,0,0,0,0,0,-1,1168,344,-6.96907,8.83354
-49,680,-6.7677,-2.24063,0,0,0,0,0,0,0,-1,1175,344,-6.76772,2.24063
-42,680,-1.02368,0.618805,0,0,0,0,0,0,0,-1,1182,344,-1.0237,-0.618797
-35,680,-0.947876,-0.942719,0,0,0,0,0,0,0,-1,1189,344,-0.947842,0.942731
-28,680,-1.46118,-1.10574,0,0,0,0,0,0,0,-1,1196,344,-1.4612,1.10575
-21,680,4.71082,-21.7811,0,0,0,0,0,0,0,-1,1203,344,4.71083,21.7811
-14,680,4.97888,-21.9149,0,0,0,0,0,0,0,-1,1210,344,4.97884,21.9148
-7,680,3.88684,-22.9897,0,0,0,0,0,0,0,-1,1217,344,3.88679,22.9897
0,680,3.93689,-23.4136,-0.0182677,0.0396066,-0.0037011,0.0398424,-0.0185034,-1.50719,0.0344287,0.0475259,1224,344,3.93692,23.4136
7,680,3.75317,-23.2766,-0.0188196,0.0351181,-0.00774676,0.0362086,-0.0199102,-1.43094,0.0328525,0.0484359,1231,344,3.7532,23.2766
14,680,3.08594,-22.9539,-0.0182654,0.0318885,-0.0122263,0.0347102,-0.0210871,-1.34398,0.0325331,0.0445171,1238,344,3.08593,22.954
21,680,3.53662,-23.1084,-0.0167815,0.0302683,-0.0165098,0.0354836,-0.0219967,-1.26483,0.0334894,0.0452125,1245,344,3.53668,23.1084
28,680,3.8595,-23.379,-0.0150056,0.0287876,-0.0199549,0.0365164,-0.0227343,-1.20128,0.0345155,0.0435444,1252,344,3.85944,23.379
35,680,3.88367,-23.5385,-0.0127027,0.0284581,-0.0228941,0.0386623,-0.0229069,-1.15151,0.0359329,0.0425771,1259,344,3.88364,23.5385
42,680,3.49353,-23.7451,-0.0110084,0.0284879,-0.0241535,0.0399388,-0.0224593,-1.12809,0.0364937,0.0436966,1266,344,3.49353,23.7451
49,680,3.3136,-23.6181,-0.00952447,0.0291317,-0.0239386,0.040571,-0.0209637,-1.12502,0.0361232,0.0435487,1273,344,3.31362,23.6181
56,680,3.41553,-23.3318,-0.00774875,0.0296219,-0.0237926,0.0411893,-0.0193161,-1.11827,0.0356856,0.0425014,1280,344,3.41552,23.3318
63,680,3.50867,-23.1677,-0.00756426,0.0297859,-0.0216795,0.0397248,-0.0175032,-1.14094,0.0338607,0.0398094,1287,344,3.50872,23.1677
70,680,3.8667,-23.1008,-0.00645606,0.0256118,-0.0194012,0.0347472,-0.0155914,-1.13073,0.0297562,0.0375461,1294,344,3.86668,23.1008
77,680,3.70166,-23.0872,-0.0060034,0.0228071,-0.0149314,0.0291493,-0.0123457,-1.16913,0.0246032,0.0419199,1301,344,3.70172,23.0872
84,680,3.63855,-23.0015,-0.00757892,0.0195379,-0.0105931,0.0231854,-0.0112264,-1.23918,0.0202636,0.0459341,1308,344,3.63851,23.0015
91,680,3.78198,-22.9185,0,0,0,0,0,0,0,-1,1315,344,3.78197,22.9185
98,680,4.18286,-23.5026,0,0,0,0,0,0,0,-1,1322,344,4.18283,23.5026
105,680,3.95984,-23.4344,0,0,0,0,0,0,0,-1,1329,344,3.95987,23.4344
112,680,3.58386,-22.1143,-0.012544,-0.00334488,0.00232245,-0.0027918,-0.0130971,1.33701,0.0079656,0.0456819,1336,344,3.58386,22.1143
119,680,3.63184,-21.868,-0.0132715,-0.00979319,0.00423609,-0.00695313,-0.0161115,0.980184,0.00933099,0.0430269,1343,344,3.63186,21.868
126,680,3.1095,-22.5044,0,0,0,0,0,0,0,-1,1350,344,3.10945,22.5044
133,680,2.92834,-22.7474,0,0,0,0,0,0,0,-1,1357,344,2.9283,22.7474
140,680,2.9176,-22.7932,0,0,0,0,0,0,0,-1,1364,344,2.91757,22.7931
147,680,2.86755,-22.7426,0,0,0,0,0,0,0,-1,1371,344,2.86752,22.7426
154,680,3.13586,-21.9919,0,0,0,0,0,0,0,-1,1378,344,3.13582,21.9919
161,680,3.41138,-19.8656,0,0,0,0,0,0,0,-1,1385,344,3.41144,19.8656
168,680,29.4142,-2.51651,0,0,0,0,0,0,0,-1,1392,344,29.4142,2.51652
175,680,6.66541,0.942078,0,0,0,0,0,0,0,-1,1399,344,6.66538,-0.942088
182,680,6.52917,0.532379,0,0,0,0,0,0,0,-1,1406,344,6.52922,-0.532385
189,680,7.55884,4.77695,0,0,0,0,0,0,0,-1,1413,344,7.55886,-4.77694
196,680,6.55627,3.35254,0,0,0,0,0,0,0,-1,1420,344,6.55622,-3.35255
203,680,5.7334,1.90753,0,0,0,0,0,0,0,-1,1427,344,5.73341,-1.90754
210,680,5.27515,0.493622,0,0,0,0,0,0,0,-1,1434,344,5.27514,-0.493632
217,680,6.56384,-0.374176,0,0,0,0,0,0,0,-1,1441,344,6.56379,0.374176
224,680,3.9491,-0.640228,0,0,0,0,0,0,0,-1,1448,344,3.94908,0.64024
231,680,4.24866,-1.96881,0,0,0,0,0,0,0,-1,1455,344,4.2486,1.96882
238,680,4.29333,-3.23984,0,0,0,0,0,0,0,-1,1462,344,4.29332,3.23984
245,680,2.44397,0.985382,0,0,0,0,0,0,0,-1,1469,344,2.44402,-0.985394
252,680,3.07349,2.18951,0,0,0,0,0,0,0,-1,1476,344,3.0735,-2.18952
259,680,2.82971,1.30682,0,0,0,0,0,0,0,-1,1483,344,2.82972,-1.30684
266,680,2.67554,1.44067,0,0,0,0,0,0,0,-1,1490,344,2.67551,-1.44066
273,680,2.46411,1.54666,0,0,0,0,0,0,0,-1,1497,344,2.46407,-1.54666
280,680,0,0,0,0,0,0,0,0,0,-1,1504,344,0,0
287,680,0,0,0,0,0,0,0,0,0,-1,1511,344,0,0
294,680,0,0,0,0,0,0,0,0,0,-1,1518,344,0,0
301,680,0,0,0,0,0,0,0,0,0,-1,1525,344,0,0
308,680,0,0,0,0,0,0,0,0,0,-1,1532,344,0,0
315,680,0,0,0,0,0,0,0,0,0,-1,1539,344,0,0
322,680,0,0,0,0,0,0,0,0,0,-1,1546,344,0,0
329,680,0,0,0,0,0,0,0,0,0,-1,1553,344,0,0
336,680,0,0,0,0,0,0,0,0,0,-1,1560,344,0,0
343,680,0,0,0,0,0,0,0,0,0,-1,1567,344,0,0
350,680,0,0,0,0,0,0,0,0,0,-1,1574,344,0,0
357,680,0,0,0,0,0,0,0,0,0,-1,1581,344,0,0
364,680,0,0,0,0,0,0,0,0,0,-1,1588,344,0,0
371,680,0,0,0,0,0,0,0,0,0,-1,1595,344,0,0
378,680,0,0,0,0,0,0,0,0,0,-1,1602,344,0,0
385,680,0,0,0,0,0,0,0,0,0,-1,1609,344,0,0
392,680,0,0,0,0,0,0,0,0,0,-1,1616,344,0,0
399,680,0,0,0,0,0,0,0,0,0,-1,1623,344,0,0
406,680,0,0,0,0,0,0,0,0,0,-1,1630,344,0,0
413,680,0,0,0,0,0,0,0,0,0,-1,1637,344,0,0
420,680,0,0,0,0,0,0,0,0,0,-1,1644,344,0,0
427,680,0,0,0,0,0,0,0,0,0,-1,1651,344,0,0
434,680,0,0,0,0,0,0,0,0,0,-1,1658,344,0,0
441,680,0,0,0,0,0,0,0,0,0,-1,1665,344,0,0
448,680,0,0,0,0,0,0,0,0,0,-1,1672,344,0,0
455,680,0,0,0,0,0,0,0,0,0,-1,1679,344,0,0
462,680,0,0,0,0,0,0,0,0,0,-1,1686,344,0,0
469,680,0,0,0,0,0,0,0,0,0,-1,1693,344,0,0
476,680,0,0,0,0,0,0,0,0,0,-1,1700,344,0,0
483,680,0,0,0,0,0,0,0,0,0,-1,1707,344,0,0
490,680,0,0,0,0,0,0,0,0,0,-1,1714,344,0,0
497,680,0,0,0,0,0,0,0,0,0,-1,1721,344,0,0
504,680,0,0,0,0,0,0,0,0,0,-1,1728,344,0,0
511,680,0,0,0,0,0,0,0,0,0,-1,1735,344,0,0
518,680,0,0,0,0,0,0,0,0,0,-1,1742,344,0,0
525,680,0,0,0,0,0,0,0,0,0,-1,1749,344,0,0
532,680,0,0,0,0,0,0,0,0,0,-1,1756,344,0,0
539,680,0,0,0,0,0,0,0,0,0,-1,1763,344,0,0
546,680,0,0,0,0,0,0,0,0,0,-1,1770,344,0,0
553,680,0,0,0,0,0,0,0,0,0,-1,1777,344,0,0
560,680,0,0,0,0,0,0,0,0,0,-1,1784,344,0,0
567,680,0,0,0,0,0,0,0,0,0,-1,1791,344,0,0
574,680,0,0,0,0,0,0,0,0,0,-1,1798,344,0,0
581,680,0,0,0,0,0,0,0,0,0,-1,1805,344,0,0
588,680,0,0,0,0,0,0,0,0,0,-1,1812,344,0,0
595,680,0,0,0,0,0,0,0,0,0,-1,1819,344,0,0
602,680,0,0,0,0,0,0,0,0,0,-1,1826,344,0,0
609,680,0,0,0,0,0,0,0,0,0,-1,1833,344,0,0
616,680,0,0,0,0,0,0,0,0,0,-1,1840,344,0,0
623,680,0,0,0,0,0,0,0,0,0,-1,1847,344,0,0
630,680,0,0,0,0,0,0,0,0,0,-1,1854,344,0,0
637,680,0,0,0,0,0,0,0,0,0,-1,1861,344,0,0
644,680,0,0,0,0,0,0,0,0,0,-1,1868,344,0,0
651,680,0,0,0,0,0,0,0,0,0,-1,1875,344,0,0
658,680,0,0,0,0,0,0,0,0,0,-1,1882,344,0,0
665,680,0,0,0,0,0,0,0,0,0,-1,1889,344,0,0
672,680,0,0,0,0,0,0,0,0,0,-1,1896,344,0,0
679,680,0,0,0,0,0,0,0,0,0,-1,1903,344,0,0
686,680,0,0,0,0,0,0,0,0,0,-1,1910,344,0,0
693,680,0,0,0,0,0,0,0,0,0,-1,1917,344,0,0
700,680,0,0,0,0,0,0,0,0,0,-1,1924,344,0,0
707,680,0,0,0,0,0,0,0,0,0,-1,1931,344,0,0
714,680,0,0,0,0,0,0,0,0,0,-1,1938,344,0,0
721,680,0,0,0,0,0,0,0,0,0,-1,1945,344,0,0
728,680,0,0,0,0,0,0,0,0,0,-1,1952,344,0,0
735,680,0,0,0,0,0,0,0,0,0,-1,1959,344,0,0
742,680,0,0,0,0,0,0,0,0,0,-1,1966,344,0,0
749,680,0,0,0,0,0,0,0,0,0,-1,1973,344,0,0
756,680,0,0,0,0,0,0,0,0,0,-1,1980,344,0,0
763,680,0,0,0,0,0,0,0,0,0,-1,1987,344,0,0
770,680,0,0,0,0,0,0,0,0,0,-1,1994,344,0,0
777,680,0,0,0,0,0,0,0,0,0,-1,2001,344,0,0
784,680,0,0,0,0,0,0,0,0,0,-1,2008,344,0,0
791,680,0,0,0,0,0,0,0,0,0,-1,2015,344,0,0
798,680,0,0,0,0,0,0,0,0,0,-1,2022,344,0,0
805,680,0,0,0,0,0,0,0,0,0,-1,2029,344,0,0
812,680,0,0,0,0,0,0,0,0,0,-1,2036,344,0,0
-700,673,0,0,0,0,0,0,0,0,0,-1,524,351,0,0
-693,673,0,0,0,0,0,0,0,0,0,-1,531,351,0,0
-686,673,0,0,0,0,0,0,0,0,0,-1,538,351,0,0
-679,673,0,0,0,0,0,0,0,0,0,-1,545,351,0,0
-672,673,0,0,0,0,0,0,0,0,0,-1,552,351,0,0
-665,673,0,0,0,0,0,0,0,0,0,-1,559,351,0,0
-658,673,0,0,0,0,0,0,0,0,0,-1,566,351,0,0
-651,673,0,0,0,0,0,0,0,0,0,-1,573,351,0,0
-644,673,0,0,0,0,0,0,0,0,0,-1,580,351,0,0
-637,673,0,0,0,0,0,0,0,0,0,-1,587,351,0,0
-630,673,0,0,0,0,0,0,0,0,0,-1,594,351,0,0
-623,673,0,0,0,0,0,0,0,0,0,-1,601,351,0,0
-616,673,0,0,0,0,0,0,0,0,0,-1,608,351,0,0
-609,673,0,0,0,0,0,0,0,0,0,-1,615,351,0,0
-602,673,0,0,0,0,0,0,0,0,0,-1,622,351,0,0
-595,673,0,0,0,0,0,0,0,0,0,-1,629,351,0,0
-588,673,0,0,0,0,0,0,0,0,0,-1,636,351,0,0
-581,673,0,0,0,0,0,0,0,0,0,-1,643,351,0,0
-574,673,0,0,0,0,0,0,0,0,0,-1,650,351,0,0
-567,673,0,0,0,0,0,0,0,0,0,-1,657,351,0,0
-560,673,0,0,0,0,0,0,0,0,0,-1,664,351,0,0
-553,673,0,0,0,0,0,0,0,0,0,-1,671,351,0,0
-546,673,0,0,0,0,0,0,0,0,0,-1,678,351,0,0
-539,673,0,0,0,0,0,0,0,0,0,-1,685,351,0,0
-532,673,0,0,0,0,0,0,0,0,0,-1,692,351,0,0
-525,673,0,0,0,0,0,0,0,0,0,-1,699,351,0,0
-518,673,0,0,0,0,0,0,0,0,0,-1,706,351,0,0
-511,673,0,0,0,0,0,0,0,0,0,-1,713,351,0,0
-504,673,0,0,0,0,0,0,0,0,0,-1,720,351,0,0
-497,673,0,0,0,0,0,0,0,0,0,-1,727,351,0,0
-490,673,0,0,0,0,0,0,0,0,0,-1,734,351,0,0
-483,673,0,0,0,0,0,0,0,0,0,-1,741,351,0,0
-476,673,0,0,0,0,0,0,0,0,0,-1,748,351,0,0
-469,673,0,0,0,0,0,0,0,0,0,-1,755,351,0,0
-462,673,0,0,0,0,0,0,0,0,0,-1,762,351,0,0
-455,673,0,0,0,0,0,0,0,0,0,-1,769,351,0,0
-448,673,0,0,0,0,0,0,0,0,0,-1,776,351,0,0
-441,673,0,0,0,0,0,0,0,0,0,-1,783,351,0,0
-434,673,0,0,0,0,0,0,0,0,0,-1,790,351,0,0
-427,673,0,0,0,0,0,0,0,0,0,-1,797,351,0,0
-420,673,0,0,0,0,0,0,0,0,0,-1,804,351,0,0
-413,673,0,0,0,0,0,0,0,0,0,-1,811,351,0,0
-406,673,0,0,0,0,0,0,0,0,0,-1,818,351,0,0
-399,673,0,0,0,0,0,0,0,0,0,-1,825,351,0,0
-392,673,0,0,0,0,0,0,0,0,0,-1,832,351,0,0
-385,673,0,0,0,0,0,0,0,0,0,-1,839,351,0,0
-378,673,0,0,0,0,0,0,0,0,0,-1,846,351,0,0
-371,673,0,0,0,0,0,0,0,0,0,-1,853,351,0,0
-364,673,0,0,0,0,0,0,0,0,0,-1,860,351,0,0
-357,673,0,0,0,0,0,0,0,0,0,-1,867,351,0,0
-350,673,0,0,0,0,0,0,0,0,0,-1,874,351,0,0
-343,673,0,0,0,0,0,0,0,0,0,-1,881,351,0,0
-336,673,0,0,0,0,0,0,0,0,0,-1,888,351,0,0
-329,673,0,0,0,0,0,0,0,0,0,-1,895,351,0,0
-322,673,0,0,0,0,0,0,0,0,0,-1,902,351,0,0
-315,673,0,0,0,0,0,0,0,0,0,-1,909,351,0,0
-308,673,0,0,0,0,0,0,0,0,0,-1,916,351,0,0
-301,673,0,0,0,0,0,0,0,0,0,-1,923,351,0,0
-294,673,0,0,0,0,0,0,0,0,0,-1,930,351,0,0
-287,673,0,0,0,0,0,0,0,0,0,-1,937,351,0,0
-280,673,0,0,0,0,0,0,0,0,0,-1,944,351,0,0
-273,673,0,0,0,0,0,0,0,0,0,-1,951,351,0,0
-266,673,0,0,0,0,0,0,0,0,0,-1,958,351,0,0
-259,673,0,0,0,0,0,0,0,0,0,-1,965,351,0,0
-252,673,0,0,0,0,0,0,0,0,0,-1,972,351,0,0
-245,673,0,0,0,0,0,0,0,0,0,-1,979,351,0,0
-238,673,0,0,0,0,0,0,0,0,0,-1,986,351,0,0
-231,673,0,0,0,0,0,0,0,0,0,-1,993,351,0,0
-224,673,0,0,0,0,0,0,0,0,0,-1,1000,351,0,0
-217,673,0,0,0,0,0,0,0,0,0,-1,1007,351,0,0
-210,673,0,0,0,0,0,0,0,0,0,-1,1014,351,0,0
-203,673,0,0,0,0,0,0,0,0,0,-1,1021,351,0,0
-196,673,0,0,0,0,0,0,0,0,0,-1,1028,351,0,0
-189,673,0,0,0,0,0,0,0,0,0,-1,1035,351,0,0
-182,673,0,0,0,0,0,0,0,0,0,-1,1042,351,0,0
-175,673,4.49194,-22.1735,0,0,0,0,0,0,0,-1,1049,351,4.4919,22.1735
-168,673,3.04211,-24.996,0,0,0,0,0,0,0,-1,1056,351,3.04214,24.996
-161,673,2.21057,-25.5725,0,0,0,0,0,0,0,-1,1063,351,2.21056,25.5725
-154,673,1.97681,-26.6865,0,0,0,0,0,0,0,-1,1070,351,1.97682,26.6865
-147,673,8.15857,-26.6613,0,0,0,0,0,0,0,-1,1077,351,8.15855,26.6613
-140,673,4.27014,-22.1226,0,0,0,0,0,0,0,-1,1084,351,4.27012,22.1226
-133,673,4.22412,-21.7417,0,0,0,0,0,0,0,-1,1091,351,4.22411,21.7417
-126,673,4.25195,-21.6383,-0.0224749,0.0123598,-0.0016011,0.0124332,-0.0225483,-1.52496,0.0204761,0.0426596,1098,351,4.25196,21.6383
-119,673,4.08777,-21.3821,0,0,0,0,0,0,0,-1,1105,351,4.08773,21.3821
-112,673,4.2135,-20.5874,0,0,0,0,0,0,0,-1,1112,351,4.21351,20.5874
-105,673,4.42932,-19.6452,0,0,0,0,0,0,0,-1,1119,351,4.42928,19.6452
-98,673,4.56433,-18.6721,0,0,0,0,0,0,0,-1,1126,351,4.56439,18.6721
-91,673,9.3949,-25.8218,0,0,0,0,0,0,0,-1,1133,351,9.39491,25.8218
-84,673,4.54175,-21.8352,0,0,0,0,0,0,0,-1,1140,351,4.54177,21.8352
-77,673,-0.469849,-17.7731,0,0,0,0,0,0,0,-1,1147,351,-0.469892,17.7731
-70,673,-5.71082,-14.1129,0,0,0,0,0,0,0,-1,1154,351,-5.7108,14.1129
-63,673,1.11719,-2.95016,0,0,0,0,0,0,0,-1,1161,351,1.11724,2.95016
-56,673,-6.18872,-9.52338,0,0,0,0,0,0,0,-1,1168,351,-6.18874,9.52336
-49,673,-0.926758,-0.115448,0,0,0,0,0,0,0,-1,1175,351,-0.926732,0.115444
-42,673,-1.15015,0.289917,0,0,0,0,0,0,0,-1,1182,351,-1.15017,-0.289932
-35,673,-0.919556,-1.00711,0,0,0,0,0,0,0,-1,1189,351,-0.919514,1.00711
-28,673,1.03564,-2.58228,0,0,0,0,0,0,0,-1,1196,351,1.0356,2.58229
-21,673,4.10608,-22.3935,0,0,0,0,0,0,0,-1,1203,351,4.1061,22.3935
-14,673,4.38306,-22.493,-0.0128092,0.0359385,0.00106783,0.0359619,-0.0128325,1.54891,0.0292074,0.0437955,1210,351,4.38311,22.493
-7,673,3.85767,-23.1151,-0.0140465,0.0335817,-0.000839322,0.0335965,-0.0140613,-1.55318,0.0282753,0.0419125,1217,351,3.85762,23.115
0,673,3.78174,-23.2934,-0.014707,0.0306608,-0.00313256,0.0308761,-0.0149223,-1.50218,0.0269712,0.0428199,1224,351,3.7817,23.2934
7,673,3.77332,-23.2999,-0.0148582,0.027575,-0.00581878,0.0283584,-0.0156416,-1.43696,0.0257547,0.0443716,1231,351,3.77333,23.2999
14,673,3.80701,-23.2359,-0.0142892,0.0252462,-0.00881663,0.0271232,-0.0161663,-1.36103,0.0252587,0.0389033,1238,351,3.807,23.2359
21,673,3.72949,-23.3384,-0.0131448,0.0240351,-0.0116577,0.0273881,-0.0164977,-1.29074,0.0255962,0.0263029,1245,351,3.72948,23.3384
28,673,3.74023,-23.3982,-0.0118128,0.0228477,-0.0138924,0.0277286,-0.0166937,-1.23293,0.0259097,0.0181776,1252,351,3.74017,23.3982
35,673,3.78345,-23.4295,-0.0101031,0.0224437,-0.0157839,0.0288409,-0.0165003,-1.18573,0.026499,0.026124,1259,351,3.78344,23.4295
42,673,3.66699,-23.3834,-0.00883566,0.0221684,-0.0164977,0.0293045,-0.0159718,-1.16255,0.0265154,0.0304569,1266,351,3.667,23.3834
49,673,3.55798,-23.3836,-0.00773065,0.0224644,-0.0161164,0.0294502,-0.0147165,-1.16178,0.0259683,0.0185989,1273,351,3.55799,23.3836
56,673,3.55383,-23.3688,-0.00641901,0.022689,-0.0158747,0.0296716,-0.0134016,-1.15641,0.0254528,0.0147859,1280,351,3.55385,23.3688
63,673,3.6322,-23.3371,-0.0062859,0.0226891,-0.0141065,0.0284224,-0.0120192,-1.18476,0.0239806,0.0179285,1287,351,3.63223,23.3371
70,673,3.59729,-23.3399,-0.0054817,0.0194012,-0.0122426,0.0244146,-0.0104951,-1.18212,0.0206823,0.0280732,1294,351,3.59732,23.3399
77,673,3.58081,-23.2674,-0.00524912,0.0172614,-0.00870828,0.020237,-0.00822463,-1.24155,0.0169131,0.037524,1301,351,3.58084,23.2674
84,673,3.71033,-23.2548,-0.00649229,0.0147853,-0.00544988,0.0161,-0.00780695,-1.33409,0.0140768,0.0416223,1308,351,3.71035,23.2548
91,673,3.87292,-23.4864,-0.00732489,0.0113489,-0.00267992,0.0117259,-0.00770188,-1.43104,0.0112965,0.0455383,1315,351,3.87292,23.4864
98,673,3.85046,-23.4733,-0.00820838,0.00710531,8.48962e-06,0.00710531,-0.00820838,1.57024,0.00884901,0.049212,1322,351,3.85052,23.4733
105,673,3.52502,-23.2534,-0.00936518,0.00280779,0.00223213,0.00320419,-0.00976157,1.39504,0.00779837,0.0434697,1329,351,3.52507,23.2533
112,673,3.47644,-23.1668,0,0,0,0,0,0,0,-1,1336,351,3.47648,23.1668
119,673,3.43884,-22.4978,0,0,0,0,0,0,0,-1,1343,351,3.43879,22.4978
126,673,3.16882,-22.7167,-0.0107736,-0.00936372,0.00624035,-0.00378862,-0.0163487,0.841642,0.0098814,0.0421485,1350,351,3.16881,22.7167
133,673,3.0448,-22.8264,-0.0102465,-0.00999639,0.00620675,-0.00391345,-0.0163295,0.795472,0.00984462,0.0419585,1357,351,3.04484,22.8264
140,673,3.01843,-22.8541,-0.00964939,-0.00947339,0.00634152,-0.00321926,-0.0159035,0.792336,0.00970883,0.0445346,1364,351,3.01841,22.8541
147,673,3.37024,-22.7618,-0.00861907,-0.00861399,0.00652482,-0.00209171,-0.0151414,0.785593,0.00947428,0.0415649,1371,351,3.37025,22.7618
154,673,3.13794,-22.2696,-0.00785925,-0.0075367,0.00728284,-0.000413348,-0.0149826,0.796468,0.00985351,0.0392302,1378,351,3.13799,22.2696
161,673,3.09644,-22.0399,0,0,0,0,0,0,0,-1,1385,351,3.09647,22.0399
168,673,6.87061,1.83954,0,0,0,0,0,0,0,-1,1392,351,6.87063,-1.83953
175,673,6.6228,1.1459,0,0,0,0,0,0,0,-1,1399,351,6.62276,-1.14591
182,673,6.37244,0.796112,0,0,0,0,0,0,0,-1,1406,351,6.3724,-0.796102
189,673,6.12097,0.265472,0,0,0,0,0,0,0,-1,1413,351,6.121,-0.265482
196,673,6.02173,3.12717,0,0,0,0,0,0,0,-1,1420,351,6.02176,-3.12717
203,673,5.04456,1.6351,0,0,0,0,0,0,0,-1,1427,351,5.04455,-1.63509
210,673,4.79224,0.447479,0,0,0,0,0,0,0,-1,1434,351,4.79229,-0.447469
217,673,2.01648,0.972687,0,0,0,0,0,0,0,-1,1441,351,2.01644,-0.972691
224,673,2.3689,-1.80539,0,0,0,0,0,0,0,-1,1448,351,2.36896,1.80539
231,673,2.65857,-2.18497,0,0,0,0,0,0,0,-1,1455,351,2.65852,2.18496
238,673,3.77844,-2.06088,0,0,0,0,0,0,0,-1,1462,351,3.77839,2.06088
245,673,3.5376,-0.190399,0,0,0,0,0,0,0,-1,1469,351,3.53759,0.1904
252,673,3.80518,0.55603,0,0,0,0,0,0,0,-1,1476,351,3.80519,-0.556022
259,673,3.88562,1.29617,0,0,0,0,0,0,0,-1,1483,351,3.88562,-1.29618
266,673,4.22424,2.04834,0,0,0,0,0,0,0,-1,1490,351,4.22429,-2.04834
273,673,6.07886,0.385895,0,0,0,0,0,0,0,-1,1497,351,6.0789,-0.385906
280,673,6.97534,-0.0820007,0,0,0,0,0,0,0,-1,1504,351,6.97536,0.0820122
287,673,7.66968,-0.348541,0,0,0,0,0,0,0,-1,1511,351,7.66969,0.348534
294,673,8.20996,0.28537,0,0,0,0,0,0,0,-1,1518,351,8.20993,-0.28536
301,673,0,0,0,0,0,0,0,0,0,-1,1525,351,0,0
308,673,0,0,0,0,0,0,0,0,0,-1,1532,351,0,0
315,673,0,0,0,0,0,0,0,0,0,-1,1539,351,0,0
322,673,0,0,0,0,0,0,0,0,0,-1,1546,351,0,0
329,673,0,0,0,0,0,0,0,0,0,-1,1553,351,0,0
336,673,0,0,0,0,0,0,0,0,0,-1,1560,351,0,0
343,673,0,0,0,0,0,0,0,0,0,-1,1567,351,0,0
350,673,0,0,0,0,0,0,0,0,0,-1,1574,351,0,0
357,673,0,0,0,0,0,0,0,0,0,-1,1581,351,0,0
364,673,0,0,0,0,0,0,0,0,0,-1,1588,351,0,0
371,673,0,0,0,0,0,0,0,0,0,-1,1595,351,0,0
378,673,0,0,0,0,0,0,0,0,0,-1,1602,351,0,0
385,673,0,0,0,0,0,0,0,0,0,-1,1609,351,0,0
392,673,0,0,0,0,0,0,0,0,0,-1,1616,351,0,0
399,673,0,0,0,0,0,0,0,0,0,-1,1623,351,0,0
406,673,0,0,0,0,0,0,0,0,0,-1,1630,351,0,0
413,673,0,0,0,0,0,0,0,0,0,-1,1637,351,0,0
420,673,0,0,0,0,0,0,0,0,0,-1,1644,351,0,0
427,673,0,0,0,0,0,0,0,0,0,-1,1651,351,0,0
434,673,0,0,0,0,0,0,0,0,0,-1,1658,351,0,0
441,673,0,0,0,0,0,0,0,0,0,-1,1665,351,0,0
448,673,0,0,0,0,0,0,0,0,0,-1,1672,351,0,0
455,673,0,0,0,0,0,0,0,0,0,-1,1679,351,0,0
462,673,0,0,0,0,0,0,0,0,0,-1,1686,351,0,0
469,673,0,0,0,0,0,0,0,0,0,-1,1693,351,0,0
476,673,0,0,0,0,0,0,0,0,0,-1,1700,351,0,0
483,673,0,0,0,0,0,0,0,0,0,-1,1707,351,0,0
490,673,0,0,0,0,0,0,0,0,0,-1,1714,351,0,0
497,673,0,0,0,0,0,0,0,0,0,-1,1721,351,0,0
504,673,0,0,0,0,0,0,0,0,0,-1,1728,351,0,0
511,673,0,0,0,0,0,0,0,0,0,-1,1735,351,0,0
518,673,0,0,0,0,0,0,0,0,0,-1,1742,351,0,0
525,673,0,0,0,0,0,0,0,0,0,-1,1749,351,0,0
532,673,0,0,0,0,0,0,0,0,0,-1,1756,351,0,0
539,673,0,0,0,0,0,0,0,0,0,-1,1763,351,0,0
546,673,0,0,0,0,0,0,0,0,0,-1,1770,351,0,0
553,673,0,0,0,0,0,0,0,0,0,-1,1777,351,0,0
560,673,0,0,0,0,0,0,0,0,0,-1,1784,351,0,0
567,673,0,0,0,0,0,0,0,0,0,-1,1791,351,0,0
574,673,0,0,0,0,0,0,0,0,0,-1,1798,351,0,0
581,673,0,0,0,0,0,0,0,0,0,-1,1805,351,0,0
588,673,0,0,0,0,0,0,0,0,0,-1,1812,351,0,0
595,673,0,0,0,0,0,0,0,0,0,-1,1819,351,0,0
602,673,0,0,0,0,0,0,0,0,0,-1,1826,351,0,0
609,673,0,0,0,0,0,0,0,0,0,-1,1833,351,0,0
616,673,0,0,0,0,0,0,0,0,0,-1,1840,351,0,0
623,673,0,0,0,0,0,0,0,0,0,-1,1847,351,0,0
630,673,0,0,0,0,0,0,0,0,0,-1,1854,351,0,0
637,673,0,0,0,0,0,0,0,0,0,-1,1861,351,0,0
644,673,0,0,0,0,0,0,0,0,0,-1,1868,351,0,0
651,673,0,0,0,0,0,0,0,0,0,-1,1875,351,0,0
658,673,0,0,0,0,0,0,0,0,0,-1,1882,351,0,0
665,673,0,0,0,0,0,0,0,0,0,-1,1889,351,0,0
672,673,0,0,0,0,0,0,0,0,0,-1,1896,351,0,0
679,673,0,0,0,0,0,0,0,0,0,-1,1903,351,0,0
686,673,0,0,0,0,0,0,0,0,0,-1,1910,351,0,0
693,673,0,0,0,0,0,0,0,0,0,-1,1917,351,0,0
700,673,0,0,0,0,0,0,0,0,0,-1,1924,351,0,0
707,673,0,0,0,0,0,0,0,0,0,-1,1931,351,0,0
714,673,0,0,0,0,0,0,0,0,0,-1,1938,351,0,0
721,673,0,0,0,0,0,0,0,0,0,-1,1945,351,0,0
728,673,0,0,0,0,0,0,0,0,0,-1,1952,351,0,0
735,673,0,0,0,0,0,0,0,0,0,-1,1959,351,0,0
742,673,0,0,0,0,0,0,0,0,0,-1,1966,351,0,0
749,673,0,0,0,0,0,0,0,0,0,-1,1973,351,0,0
756,673,0,0,0,0,0,0,0,0,0,-1,1980,351,0,0
763,673,0,0,0,0,0,0,0,0,0,-1,1987,351,0,0
770,673,0,0,0,0,0,0,0,0,0,-1,1994,351,0,0
777,673,0,0,0,0,0,0,0,0,0,-1,2001,351,0,0
784,673,0,0,0,0,0,0,0,0,0,-1,2008,351,0,0
791,673,0,0,0,0,0,0,0,0,0,-1,2015,351,0,0
798,673,0,0,0,0,0,0,0,0,0,-1,2022,351,0,0
805,673,0,0,0,0,0,0,0,0,0,-1,2029,351,0,0
812,673,0,0,0,0,0,0,0,0,0,-1,2036,351,0,0
-700,666,0,0,0,0,0,0,0,0,0,-1,524,358,0,0
-693,666,0,0,0,0,0,0,0,0,0,-1,531,358,0,0
-686,666,0,0,0,0,0,0,0,0,0,-1,538,358,0,0
-679,666,0,0,0,0,0,0,0,0,0,-1,545,358,0,0
-672,666,0,0,0,0,0,0,0,0,0,-1,552,358,0,0
-665,666,0,0,0,0,0,0,0,0,0,-1,559,358,0,0
-658,666,0,0,0,0,0,0,0,0,0,-1,566,358,0,0
-651,666,0,0,0,0,0,0,0,0,0,-1,573,358,0,0
-644,666,0,0,0,0,0,0,0,0,0,-1,580,358,0,0
-637,666,0,0,0,0,0,0,0,0,0,-1,587,358,0,0
-630,666,0,0,0,0,0,0,0,0,0,-1,594,358,0,0
-623,666,0,0,0,0,0,0,0,0,0,-1,601,358,0,0
-616,666,0,0,0,0,0,0,0,0,0,-1,608,358,0,0
-609,666,0,0,0,0,0,0,0,0,0,-1,615,358,0,0
-602,666,0,0,0,0,0,0,0,0,0,-1,622,358,0,0
-595,666,0,0,0,0,0,0,0,0,0,-1,629,358,0,0
-588,666,0,0,0,0,0,0,0,0,0,-1,636,358,0,0
-581,666,0,0,0,0,0,0,0,0,0,-1,643,358,0,0
-574,666,0,0,0,0,0,0,0,0,0,-1,650,358,0,0
-567,666,0,0,0,0,0,0,0,0,0,-1,657,358,0,0
-560,666,0,0,0,0,0,0,0,0,0,-1,664,358,0,0
-553,666,0,0,0,0,0,0,0,0,0,-1,671,358,0,0
-546,666,0,0,0,0,0,0,0,0,0,-1,678,358,0,0
-539,666,0,0,0,0,0,0,0,0,0,-1,685,358,0,0
-532,666,0,0,0,0,0,0,0,0,0,-1,692,358,0,0
-525,666,0,0,0,0,0,0,0,0,0,-1,699,358,0,0
-518,666,0,0,0,0,0,0,0,0,0,-1,706,358,0,0
-511,666,0,0,0,0,0,0,0,0,0,-1,713,358,0,0
-504,666,0,0,0,0,0,0,0,0,0,-1,720,358,0,0
-497,666,0,0,0,0,0,0,0,0,0,-1,727,358,0,0
-490,666,0,0,0,0,0,0,0,0,0,-1,734,358,0,0
-483,666,0,0,0,0,0,0,0,0,0,-1,741,358,0,0
-476,666,0,0,0,0,0,0,0,0,0,-1,748,358,0,0
-469,666,0,0,0,0,0,0,0,0,0,-1,755,358,0,0
-462,666,0,0,0,0,0,0,0,0,0,-1,762,358,0,0
-455,666,0,0,0,0,0,0,0,0,0,-1,769,358,0,0
-448,666,0,0,0,0,0,0,0,0,0,-1,776,358,0,0
-441,666,0,0,0,0,0,0,0,0,0,-1,783,358,0,0
-434,666,0,0,0,0,0,0,0,0,0,-1,790,358,0,0
-427,666,0,0,0,0,0,0,0,0,0,-1,797,358,0,0
-420,666,0,0,0,0,0,0,0,0,0,-1,804,358,0,0
-413,666,0,0,0,0,0,0,0,0,0,-1,811,358,0,0
-406,666,0,0,0,0,0,0,0,0,0,-1,818,358,0,0
-399,666,0,0,0,0,0,0,0,0,0,-1,825,358,0,0
-392,666,0,0,0,0,0,0,0,0,0,-1,832,358,0,0
-385,666,0,0,0,0,0,0,0,0,0,-1,839,358,0,0
-378,666,0,0,0,0,0,0,0,0,0,-1,846,358,0,0
-371,666,0,0,0,0,0,0,0,0,0,-1,853,358,0,0
-364,666,0,0,0,0,0,0,0,0,0,-1,860,358,0,0
-357,666,0,0,0,0,0,0,0,0,0,-1,867,358,0,0
-350,666,0,0,0,0,0,0,0,0,0,-1,874,358,0,0
-343,666,0,0,0,0,0,0,0,0,0,-1,881,358,0,0
-336,666,0,0,0,0,0,0,0,0,0,-1,888,358,0,0
-329,666,0,0,0,0,0,0,0,0,0,-1,895,358,0,0
-322,666,0,0,0,0,0,0,0,0,0,-1,902,358,0,0
-315,666,0,0,0,0,0,0,0,0,0,-1,909,358,0,0
-308,666,0,0,0,0,0,0,0,0,0,-1,916,358,0,0
-301,666,0,0,0,0,0,0,0,0,0,-1,923,358,0,0
-294,666,0,0,0,0,0,0,0,0,0,-1,930,358,0,0
-287,666,0,0,0,0,0,0,0,0,0,-1,937,358,0,0
-280,666,0,0,0,0,0,0,0,0,0,-1,944,358,0,0
-273,666,0,0,0,0,0,0,0,0,0,-1,951,358,0,0
-266,666,0,0,0,0,0,0,0,0,0,-1,958,358,0,0
-259,666,0,0,0,0,0,0,0,0,0,-1,965,358,0,0
-252,666,0,0,0,0,0,0,0,0,0,-1,972,358,0,0
-245,666,0,0,0,0,0,0,0,0,0,-1,979,358,0,0
-238,666,0,0,0,0,0,0,0,0,0,-1,986,358,0,0
-231,666,0,0,0,0,0,0,0,0,0,-1,993,358,0,0
-224,666,0,0,0,0,0,0,0,0,0,-1,1000,358,0,0
-217,666,0,0,0,0,0,0,0,0,0,-1,1007,358,0,0
-210,666,0,0,0,0,0,0,0,0,0,-1,1014,358,0,0
-203,666,0,0,0,0,0,0,0,0,0,-1,1021,358,0,0
-196,666,8.33582,-20.8501,0,0,0,0,0,0,0,-1,1028,358,8.3358,20.8501
-189,666,6.60144,-21.3325,0,0,0,0,0,0,0,-1,1035,358,6.60149,21.3325
-182,666,5.74255,-21.3522,0,0,0,0,0,0,0,-1,1042,358,5.7425,21.3522
-175,666,3.62329,-23.1089,0,0,0,0,0,0,0,-1,1049,358,3.62323,23.1088
-168,666,3.12537,-23.8811,-0.0614653,-0.109706,-0.00767337,-0.0602741,-0.110897,-0.154001,0.0641074,0.0446859,1056,358,3.1254,23.8811
-161,666,2.6051,-24.6397,0,0,0,0,0,0,0,-1,1063,358,2.60505,24.6397
-154,666,2.0708,-25.1905,0,0,0,0,0,0,0,-1,1070,358,2.07086,25.1905
-147,666,1.55652,-25.6157,0,0,0,0,0,0,0,-1,1077,358,1.55649,25.6157
-140,666,3.19165,-21.2164,0,0,0,0,0,0,0,-1,1084,358,3.19163,21.2164
-133,666,5.04541,-21.7517,0,0,0,0,0,0,0,-1,1091,358,5.04538,21.7517
-126,666,5.08643,-21.7761,0,0,0,0,0,0,0,-1,1098,358,5.08648,21.7761
-119,666,4.55859,-21.7201,0,0,0,0,0,0,0,-1,1105,358,4.55858,21.7201
-112,666,4.80249,-21.3401,0,0,0,0,0,0,0,-1,1112,358,4.80253,21.3401
-105,666,4.53809,-20.265,0,0,0,0,0,0,0,-1,1119,358,4.53805,20.265
-98,666,4.59204,-19.3409,0,0,0,0,0,0,0,-1,1126,358,4.59206,19.3409
-91,666,4.18652,-17.1649,0,0,0,0,0,0,0,-1,1133,358,4.18652,17.165
-84,666,5.09656,-19.9682,0,0,0,0,0,0,0,-1,1140,358,5.09655,19.9682
-77,666,0.964722,-10.3601,0,0,0,0,0,0,0,-1,1147,358,0.964669,10.3601
-70,666,2.05957,-6.51086,0,0,0,0,0,0,0,-1,1154,358,2.05959,6.51088
-63,666,1.47485,-3.79593,0,0,0,0,0,0,0,-1,1161,358,1.47481,3.79593
-56,666,0.424683,-2.04132,0,0,0,0,0,0,0,-1,1168,358,0.424665,2.04132
-49,666,0.754395,-2.23169,0,0,0,0,0,0,0,-1,1175,358,0.754383,2.23169
-42,666,1.34473,-3.53897,0,0,0,0,0,0,0,-1,1182,358,1.34476,3.53896
-35,666,3.61829,-23.2085,0,0,0,0,0,0,0,-1,1189,358,3.61831,23.2085
-28,666,3.84656,-23.1165,0,0,0,0,0,0,0,-1,1196,358,3.8465,23.1165
-21,666,3.85498,-23.0795,-0.00947344,0.0274183,0.00130165,0.0274642,-0.00951931,1.53557,0.0221744,0.0327411,1203,358,3.85496,23.0795
-14,666,3.82739,-23.1532,-0.0103743,0.0264633,0.000258815,0.0264651,-0.0103761,1.56377,0.021936,0.0255859,1210,358,3.82743,23.1532
-7,666,3.79333,-23.2306,-0.0110916,0.0249988,-0.00098904,0.0250258,-0.0111186,-1.54342,0.0213767,0.0171267,1217,358,3.79331,23.2306
0,666,3.7793,-23.2971,-0.011375,0.0230878,-0.00246876,0.0232638,-0.0115509,-1.49965,0.0204759,0.0119431,1224,358,3.77928,23.2972
7,666,3.74353,-23.3319,-0.011312,0.0210473,-0.00420598,0.0215851,-0.0118497,-1.44363,0.0195744,0.0154468,1231,358,3.74356,23.3319
14,666,3.72693,-23.3468,-0.0107876,0.0194263,-0.0061438,0.0206278,-0.0119891,-1.37767,0.0190503,0.0159697,1238,358,3.7269,23.3468
21,666,3.67468,-23.423,-0.00992916,0.0185598,-0.00794801,0.0206272,-0.0119965,-1.31633,0.0190538,0.0119934,1245,358,3.67469,23.423
28,666,3.65039,-23.473,-0.00894457,0.0176473,-0.00932768,0.0205929,-0.0118902,-1.26492,0.0189772,0.012515,1252,358,3.65036,23.473
35,666,3.67285,-23.4834,-0.00769792,0.0172466,-0.010475,0.0210618,-0.0115132,-1.22151,0.0190746,0.0118535,1259,358,3.67291,23.4834
42,666,3.6272,-23.5122,-0.00675887,0.0168248,-0.0108193,0.0210362,-0.0109703,-1.19959,0.0187811,0.0128177,1266,358,3.62716,23.5122
49,666,3.57214,-23.5066,-0.00595517,0.0169096,-0.0103614,0.0209063,-0.0099519,-1.20265,0.0181864,0.0108231,1273,358,3.57211,23.5066
56,666,3.56677,-23.5068,-0.0050237,0.0169787,-0.0100526,0.0208799,-0.0089249,-1.20061,0.0176632,0.0122204,1280,358,3.56675,23.5068
63,666,3.51648,-23.525,-0.00493107,0.0168973,-0.00862404,0.0198933,-0.00792708,-1.23644,0.01655,0.0139115,1287,358,3.51652,23.525
70,666,3.50757,-23.5023,-0.0043837,0.0144275,-0.00713861,0.0168297,-0.00678595,-1.24619,0.0140395,0.0148188,1294,358,3.50762,23.5023
77,666,3.48364,-23.4546,-0.00430872,0.0128806,-0.00444939,0.013964,-0.00539215,-1.33194,0.0115348,0.0182524,1301,358,3.48365,23.4546
84,666,3.505,-23.4673,-0.00525281,0.0111018,-0.00209969,0.0113671,-0.00551808,-1.44513,0.00994171,0.0239011,1308,358,3.50497,23.4673
91,666,3.51147,-23.4525,-0.00584902,0.00867663,-0.000147402,0.00867812,-0.00585051,-1.56065,0.0084409,0.0224213,1315,358,3.51145,23.4525
98,666,3.40759,-23.3831,-0.00645562,0.00574348,0.00176624,0.00599406,-0.0067062,1.42987,0.00733634,0.0197448,1322,358,3.40755,23.3831
105,666,3.32764,-23.2814,-0.00728095,0.00289143,0.00330708,0.00387204,-0.00826156,1.28254,0.00715651,0.020388,1329,358,3.32765,23.2814
112,666,3.38342,-23.0856,-0.00779267,7.2098e-05,0.00443789,0.00206917,-0.00978975,1.14794,0.00731444,0.0411812,1336,358,3.38345,23.0856
119,666,3.34705,-22.9292,-0.00814145,-0.00281329,0.00530987,0.000463343,-0.0114181,1.01791,0.00777111,0.0444395,1343,358,3.34709,22.9292
126,666,3.23596,-22.9224,-0.00819277,-0.00506451,0.00590439,-0.000520581,-0.0127367,0.914879,0.00832304,0.0256402,1350,358,3.23598,22.9224
133,666,3.16699,-22.9088,-0.00776475,-0.00535504,0.00582373,-0.000612835,-0.012507,0.887402,0.00814138,0.0222423,1357,358,3.16704,22.9088
140,666,3.10767,-22.9167,-0.00730629,-0.00477745,0.00584919,-5.75804e-05,-0.0120262,0.891845,0.00799832,0.0227768,1364,358,3.10769,22.9167
147,666,3.09473,-22.8205,-0.0064872,-0.00382682,0.00581478,0.000807979,-0.011122,0.897843,0.00769814,0.021247,1371,358,3.0947,22.8205
154,666,3.14331,-22.5627,-0.00579382,-0.00257201,0.00607362,0.0021007,-0.0104665,0.915028,0.00777313,0.0178404,1378,358,3.14328,22.5626
161,666,3.15637,-22.4324,-0.00553588,-0.00094753,0.00664171,0.00378507,-0.0102685,0.951692,0.0083967,0.0252369,1385,358,3.15639,22.4324
168,666,3.13513,-22.3161,0,0,0,0,0,0,0,-1,1392,358,3.13511,22.3161
175,666,3.31885,-22.5399,0,0,0,0,0,0,0,-1,1399,358,3.31886,22.54
182,666,2.60876,-5.17068,0,0,0,0,0,0,0,-1,1406,358,2.6088,5.17068
189,666,2.46973,-5.49979,0,0,0,0,0,0,0,-1,1413,358,2.46975,5.49979
196,666,2.32458,-5.23651,0,0,0,0,0,0,0,-1,1420,358,2.32461,5.23653
203,666,2.28064,-3.88004,0,0,0,0,0,0,0,-1,1427,358,2.28059,3.88003
210,666,3.02576,-5.83548,0,0,0,0,0,0,0,-1,1434,358,3.02581,5.83547
217,666,2.30444,-5.36011,0,0,0,0,0,0,0,-1,1441,358,2.30447,5.3601
224,666,1.82324,-6.03101,0,0,0,0,0,0,0,-1,1448,358,1.82322,6.031
231,666,2.29797,-10.1093,0,0,0,0,0,0,0,-1,1455,358,2.29801,10.1093
238,666,2.52429,-6.10568,0,0,0,0,0,0,0,-1,1462,358,2.52423,6.10567
245,666,4.53345,-1.38205,0,0,0,0,0,0,0,-1,1469,358,4.53349,1.38204
252,666,4.77405,-0.246979,0,0,0,0,0,0,0,-1,1476,358,4.77405,0.246993
259,666,4.83655,1.14087,0,0,0,0,0,0,0,-1,1483,358,4.83652,-1.14087
266,666,6.14148,0.749512,0,0,0,0,0,0,0,-1,1490,358,6.14144,-0.749519
273,666,2.61304,-1.53772,0,0,0,0,0,0,0,-1,1497,358,2.613,1.53773
280,666,8.70898,-0.836975,0,0,0,0,0,0,0,-1,1504,358,8.70894,0.836988
287,666,2.27039,-4.09058,0,0,0,0,0,0,0,-1,1511,358,2.27042,4.09059
294,666,5.04211,-6.10623,0,0,0,0,0,0,0,-1,1518,358,5.04208,6.10623
301,666,-6.16052,-22.2927,0,0,0,0,0,0,0,-1,1525,358,-6.16053,22.2927
308,666,1.08496,-1.87576,0,0,0,0,0,0,0,-1,1532,358,1.08491,1.87575
315,666,1.76294,-0.284027,0,0,0,0,0,0,0,-1,1539,358,1.76291,0.284016
322,666,0,0,0,0,0,0,0,0,0,-1,1546,358,0,0
329,666,0,0,0,0,0,0,0,0,0,-1,1553,358,0,0
336,666,0,0,0,0,0,0,0,0,0,-1,1560,358,0,0
343,666,0,0,0,0,0,0,0,0,0,-1,1567,358,0,0
350,666,0,0,0,0,0,0,0,0,0,-1,1574,358,0,0
357,666,0,0,0,0,0,0,0,0,0,-1,1581,358,0,0
364,666,0,0,0,0,0,0,0,0,0,-1,1588,358,0,0
371,666,0,0,0,0,0,0,0,0,0,-1,1595,358,0,0
378,666,0,0,0,0,0,0,0,0,0,-1,1602,358,0,0
385,666,0,0,0,0,0,0,0,0,0,-1,1609,358,0,0
392,666,0,0,0,0,0,0,0,0,0,-1,1616,358,0,0
399,666,0,0,0,0,0,0,0,0,0,-1,1623,358,0,0
406,666,0,0,0,0,0,0,0,0,0,-1,1630,358,0,0
413,666,0,0,0,0,0,0,0,0,0,-1,1637,358,0,0
420,666,0,0,0,0,0,0,0,0,0,-1,1644,358,0,0
427,666,0,0,0,0,0,0,0,0,0,-1,1651,358,0,0
434,666,0,0,0,0,0,0,0,0,0,-1,1658,358,0,0
441,666,0,0,0,0,0,0,0,0,0,-1,1665,358,0,0
448,666,0,0,0,0,0,0,0,0,0,-1,1672,358,0,0
455,666,0,0,0,0,0,0,0,0,0,-1,1679,358,0,0
462,666,0,0,0,0,0,0,0,0,0,-1,1686,358,0,0
469,666,0,0,0,0,0,0,0,0,0,-1,1693,358,0,0
476,666,0,0,0,0,0,0,0,0,0,-1,1700,358,0,0
483,666,0,0,0,0,0,0,0,0,0,-1,1707,358,0,0
490,666,0,0,0,0,0,0,0,0,0,-1,1714,358,0,0
497,666,0,0,0,0,0,0,0,0,0,-1,1721,358,0,0
504,666,0,0,0,0,0,0,0,0,0,-1,1728,358,0,0
511,666,0,0,0,0,0,0,0,0,0,-1,1735,358,0,0
518,666,0,0,0,0,0,0,0,0,0,-1,1742,358,0,0
525,666,0,0,0,0,0,0,0,0,0,-1,1749,358,0,0
532,666,0,0,0,0,0,0,0,0,0,-1,1756,358,0,0
539,666,0,0,0,0,0,0,0,0,0,-1,1763,358,0,0
546,666,0,0,0,0,0,0,0,0,0,-1,1770,358,0,0
553,666,0,0,0,0,0,0,0,0,0,-1,1777,358,0,0
560,666,0,0,0,0,0,0,0,0,0,-1,1784,358,0,0
567,666,0,0,0,0,0,0,0,0,0,-1,1791,358,0,0
574,666,0,0,0,0,0,0,0,0,0,-1,1798,358,0,0
581,666,0,0,0,0,0,0,0,0,0,-1,1805,358,0,0
588,666,0,0,0,0,0,0,0,0,0,-1,1812,358,0,0
595,666,0,0,0,0,0,0,0,0,0,-1,1819,358,0,0
602,666,0,0,0,0,0,0,0,0,0,-1,1826,358,0,0
609,666,0,0,0,0,0,0,0,0,0,-1,1833,358,0,0
616,666,0,0,0,0,0,0,0,0,0,-1,1840,358,0,0
623,666,0,0,0,0,0,0,0,0,0,-1,1847,358,0,0
630,666,0,0,0,0,0,0,0,0,0,-1,1854,358,0,0
637,666,0,0,0,0,0,0,0,0,0,-1,1861,358,0,0
644,666,0,0,0,0,0,0,0,0,0,-1,1868,358,0,0
651,666,0,0,0,0,0,0,0,0,0,-1,1875,358,0,0
658,666,0,0,0,0,0,0,0,0,0,-1,1882,358,0,0
665,666,0,0,0,0,0,0,0,0,0,-1,1889,358,0,0
672,666,0,0,0,0,0,0,0,0,0,-1,1896,358,0,0
679,666,0,0,0,0,0,0,0,0,0,-1,1903,358,0,0
686,666,0,0,0,0,0,0,0,0,0,-1,1910,358,0,0
693,666,0,0,0,0,0,0,0,0,0,-1,1917,358,0,0
700,666,0,0,0,0,0,0,0,0,0,-1,1924,358,0,0
707,666,0,0,0,0,0,0,0,0,0,-1,1931,358,0,0
714,666,0,0,0,0,0,0,0,0,0,-1,1938,358,0,0
721,666,0,0,0,0,0,0,0,0,0,-1,1945,358,0,0
728,666,0,0,0,0,0,0,0,0,0,-1,1952,358,0,0
735,666,0,0,0,0,0,0,0,0,0,-1,1959,358,0,0
742,666,0,0,0,0,0,0,0,0,0,-1,1966,358,0,0
749,666,0,0,0,0,0,0,0,0,0,-1,1973,358,0,0
756,666,0,0,0,0,0,0,0,0,0,-1,1980,358,0,0
763,666,0,0,0,0,0,0,0,0,0,-1,1987,358,0,0
770,666,0,0,0,0,0,0,0,0,0,-1,1994,358,0,0
777,666,0,0,0,0,0,0,0,0,0,-1,2001,358,0,0
784,666,0,0,0,0,0,0,0,0,0,-1,2008,358,0,0
791,666,0,0,0,0,0,0,0,0,0,-1,2015,358,0,0
798,666,0,0,0,0,0,0,0,0,0,-1,2022,358,0,0
805,666,0,0,0,0,0,0,0,0,0,-1,2029,358,0,0
812,666,0,0,0,0,0,0,0,0,0,-1,2036,358,0,0
-700,659,0,0,0,0,0,0,0,0,0,-1,524,365,0,0
-693,659,0,0,0,0,0,0,0,0,0,-1,531,365,0,0
-686,659,0,0,0,0,0,0,0,0,0,-1,538,365,0,0
-679,659,0,0,0,0,0,0,0,0,0,-1,545,365,0,0
-672,659,0,0,0,0,0,0,0,0,0,-1,552,365,0,0
-665,659,0,0,0,0,0,0,0,0,0,-1,559,365,0,0
-658,659,0,0,0,0,0,0,0,0,0,-1,566,365,0,0
-651,659,0,0,0,0,0,0,0,0,0,-1,573,365,0,0
-644,659,0,0,0,0,0,0,0,0,0,-1,580,365,0,0
-637,659,0,0,0,0,0,0,0,0,0,-1,587,365,0,0
-630,659,0,0,0,0,0,0,0,0,0,-1,594,365,0,0
-623,659,0,0,0,0,0,0,0,0,0,-1,601,365,0,0
-616,659,0,0,0,0,0,0,0,0,0,-1,608,365,0,0
-609,659,0,0,0,0,0,0,0,0,0,-1,615,365,0,0
-602,659,0,0,0,0,0,0,0,0,0,-1,622,365,0,0
-595,659,0,0,0,0,0,0,0,0,0,-1,629,365,0,0
-588,659,0,0,0,0,0,0,0,0,0,-1,636,365,0,0
-581,659,0,0,0,0,0,0,0,0,0,-1,643,365,0,0
-574,659,0,0,0,0,0,0,0,0,0,-1,650,365,0,0
-567,659,0,0,0,0,0,0,0,0,0,-1,657,365,0,0
-560,659,0,0,0,0,0,0,0,0,0,-1,664,365,0,0
-553,659,0,0,0,0,0,0,0,0,0,-1,671,365,0,0
-546,659,0,0,0,0,0,0,0,0,0,-1,678,365,0,0
-539,659,0,0,0,0,0,0,0,0,0,-1,685,365,0,0
-532,659,0,0,0,0,0,0,0,0,0,-1,692,365,0,0
-525,659,0,0,0,0,0,0,0,0,0,-1,699,365,0,0
-518,659,0,0,0,0,0,0,0,0,0,-1,706,365,0,0
-511,659,0,0,0,0,0,0,0,0,0,-1,713,365,0,0
-504,659,0,0,0,0,0,0,0,0,0,-1,720,365,0,0
-497,659,0,0,0,0,0,0,0,0,0,-1,727,365,0,0
-490,659,0,0,0,0,0,0,0,0,0,-1,734,365,0,0
-483,659,0,0,0,0,0,0,0,0,0,-1,741,365,0,0
-476,659,0,0,0,0,0,0,0,0,0,-1,748,365,0,0
-469,659,0,0,0,0,0,0,0,0,0,-1,755,365,0,0
-462,659,0,0,0,0,0,0,0,0,0,-1,762,365,0,0
-455,659,0,0,0,0,0,0,0,0,0,-1,769,365,0,0
-448,659,0,0,0,0,0,0,0,0,0,-1,776,365,0,0
-441,659,0,0,0,0,0,0,0,0,0,-1,783,365,0,0
-434,659,0,0,0,0,0,0,0,0,0,-1,790,365,0,0
-427,659,0,0,0,0,0,0,0,0,0,-1,797,365,0,0
-420,659,0,0,0,0,0,0,0,0,0,-1,804,365,0,0
-413,659,0,0,0,0,0,0,0,0,0,-1,811,365,0,0
-406,659,0,0,0,0,0,0,0,0,0,-1,818,365,0,0
-399,659,0,0,0,0,0,0,0,0,0,-1,825,365,0,0
-392,659,0,0,0,0,0,0,0,0,0,-1,832,365,0,0
-385,659,0,0,0,0,0,0,0,0,0,-1,839,365,0,0
-378,659,0,0,0,0,0,0,0,0,0,-1,846,365,0,0
-371,659,0,0,0,0,0,0,0,0,0,-1,853,365,0,0
-364,659,0,0,0,0,0,0,0,0,0,-1,860,365,0,0
-357,659,0,0,0,0,0,0,0,0,0,-1,867,365,0,0
-350,659,0,0,0,0,0,0,0,0,0,-1,874,365,0,0
-343,659,0,0,0,0,0,0,0,0,0,-1,881,365,0,0
-336,659,0,0,0,0,0,0,0,0,0,-1,888,365,0,0
-329,659,0,0,0,0,0,0,0,0,0,-1,895,365,0,0
-322,659,0,0,0,0,0,0,0,0,0,-1,902,365,0,0
-315,659,0,0,0,0,0,0,0,0,0,-1,909,365,0,0
-308,659,0,0,0,0,0,0,0,0,0,-1,916,365,0,0
-301,659,0,0,0,0,0,0,0,0,0,-1,923,365,0,0
-294,659,0,0,0,0,0,0,0,0,0,-1,930,365,0,0
-287,659,0,0,0,0,0,0,0,0,0,-1,937,365,0,0
-280,659,0,0,0,0,0,0,0,0,0,-1,944,365,0,0
-273,659,0,0,0,0,0,0,0,0,0,-1,951,365,0,0
-266,659,0,0,0,0,0,0,0,0,0,-1,958,365,0,0
-259,659,0,0,0,0,0,0,0,0,0,-1,965,365,0,0
-252,659,0,0,0,0,0,0,0,0,0,-1,972,365,0,0
-245,659,0,0,0,0,0,0,0,0,0,-1,979,365,0,0
-238,659,0,0,0,0,0,0,0,0,0,-1,986,365,0,0
-231,659,0,0,0,0,0,0,0,0,0,-1,993,365,0,0
-224,659,0,0,0,0,0,0,0,0,0,-1,1000,365,0,0
-217,659,3.57001,-16.8541,0,0,0,0,0,0,0,-1,1007,365,3.57003,16.8541
-210,659,3.20129,-17.9641,0,0,0,0,0,0,0,-1,1014,365,3.2013,17.9641
-203,659,9.59375,-19.847,0,0,0,0,0,0,0,-1,1021,365,9.59378,19.8469
-196,659,6.40063,-20.0431,0,0,0,0,0,0,0,-1,1028,365,6.40064,20.0431
-189,659,5.94824,-20.1241,-0.0668512,-0.129527,0.000504049,-0.0668472,-0.129532,0.0080414,0.074798,0.0452029,1035,365,5.94828,20.1241
-182,659,5.44128,-20.2914,-0.0609727,-0.116707,-0.00115955,-0.0609486,-0.116731,-0.020793,0.0674168,0.0398459,1042,365,5.44132,20.2914
-175,659,3.54321,-22.1127,0,0,0,0,0,0,0,-1,1049,365,3.54317,22.1127
-168,659,3.5415,-22.8195,0,0,0,0,0,0,0,-1,1056,365,3.54145,22.8195
-161,659,3.53967,-23.5263,0,0,0,0,0,0,0,-1,1063,365,3.53972,23.5263
-154,659,5.86682,-21.5092,0,0,0,0,0,0,0,-1,1070,365,5.86682,21.5092
-147,659,5.45447,-21.4775,0,0,0,0,0,0,0,-1,1077,365,5.45447,21.4775
-140,659,4.77808,-20.873,0,0,0,0,0,0,0,-1,1084,365,4.77803,20.873
-133,659,4.49744,-20.6693,0,0,0,0,0,0,0,-1,1091,365,4.49746,20.6693
-126,659,4.24475,-20.9085,0,0,0,0,0,0,0,-1,1098,365,4.24473,20.9085
-119,659,4.24268,-21.126,0,0,0,0,0,0,0,-1,1105,365,4.24271,21.126
-112,659,4.43689,-21.3911,-0.00768163,0.0203046,0.00637522,0.0216884,-0.00906547,1.35705,0.0182475,0.0400135,1112,365,4.43692,21.3911
-105,659,4.3717,-21.0414,-0.00701482,0.0200101,0.0067392,0.0215974,-0.00860215,1.33948,0.0179658,0.0430834,1119,365,4.37166,21.0414
-98,659,4.20288,-21.356,0,0,0,0,0,0,0,-1,1126,365,4.20284,21.3559
-91,659,4.20776,-20.8654,0,0,0,0,0,0,0,-1,1133,365,4.20777,20.8654
-84,659,2.8584,-17.8303,0,0,0,0,0,0,0,-1,1140,365,2.85836,17.8303
-77,659,2.80139,-15.3457,0,0,0,0,0,0,0,-1,1147,365,2.80139,15.3457
-70,659,2.9353,-12.7028,0,0,0,0,0,0,0,-1,1154,365,2.93533,12.7028
-63,659,2.11267,-9.7796,0,0,0,0,0,0,0,-1,1161,365,2.11266,9.7796
-56,659,2.11182,-9.91541,0,0,0,0,0,0,0,-1,1168,365,2.11178,9.91541
-49,659,3.87146,-22.7706,0,0,0,0,0,0,0,-1,1175,365,3.87146,22.7706
-42,659,3.86438,-22.9025,0,0,0,0,0,0,0,-1,1182,365,3.86443,22.9025
-35,659,3.78113,-23.0769,-0.00553022,0.0187058,0.00203212,0.018875,-0.00569943,1.48772,0.0148523,0.0439637,1189,365,3.78118,23.0769
-28,659,3.82056,-23.0861,-0.00719237,0.0193589,0.00128706,0.0194211,-0.00725461,1.52247,0.0159262,0.0163728,1196,365,3.82056,23.0861
-21,659,3.79907,-23.1513,-0.00742817,0.0194207,0.000544869,0.0194318,-0.00743922,1.55051,0.0160207,0.0115322,1203,365,3.79912,23.1513
-14,659,3.77661,-23.2667,-0.00792345,0.0189643,-8.52302e-05,0.0189646,-0.00792371,-1.56763,0.0159543,0.00856753,1210,365,3.77656,23.2667
-7,659,3.74133,-23.3435,-0.00831104,0.0180599,-0.000881205,0.0180894,-0.00834046,-1.53743,0.0156014,0.00861875,1217,365,3.74134,23.3435
0,659,3.72266,-23.38,-0.00838403,0.0168067,-0.00182068,0.0169376,-0.00851494,-1.49902,0.0149608,0.00825114,1224,365,3.72271,23.38
7,659,3.70557,-23.4164,-0.00822103,0.0154641,-0.002926,0.0158202,-0.00857714,-1.44968,0.0142912,0.00805856,1231,365,3.70561,23.4164
14,659,3.67981,-23.4428,-0.0077843,0.0142465,-0.00410218,0.0149855,-0.00852334,-1.39255,0.0137427,0.0108785,1238,365,3.67984,23.4428
21,659,3.65137,-23.4907,-0.00717154,0.0134858,-0.00513417,0.0146915,-0.00837722,-1.34014,0.013484,0.0116005,1245,365,3.65139,23.4907
28,659,3.63123,-23.5258,-0.00646102,0.0127036,-0.00590334,0.0143761,-0.0081335,-1.29472,0.0131615,0.0109561,1252,365,3.63121,23.5257
35,659,3.62402,-23.5515,-0.00557042,0.0122385,-0.00650597,0.0143621,-0.00769397,-1.2553,0.0129266,0.011298,1259,365,3.62401,23.5515
42,659,3.61157,-23.5851,-0.00488746,0.0116643,-0.00656375,0.0139513,-0.00717439,-1.23553,0.0124043,0.0114227,1266,365,3.61161,23.5851
49,659,3.57495,-23.5952,-0.00432097,0.0115413,-0.00603902,0.0135788,-0.00635842,-1.24541,0.0117597,0.0108004,1273,365,3.57497,23.5952
56,659,3.5437,-23.5884,-0.00368487,0.0114502,-0.00565506,0.0133297,-0.00556442,-1.24992,0.0112114,0.0145542,1280,365,3.54365,23.5884
63,659,3.51917,-23.5984,-0.00362859,0.0112985,-0.00450428,0.0125523,-0.00488244,-1.2993,0.0103856,0.0160385,1287,365,3.51912,23.5984
70,659,3.49561,-23.5937,-0.00327324,0.00949767,-0.0033398,0.0103183,-0.00409392,-1.32984,0.0085757,0.0171055,1294,365,3.49564,23.5937
77,659,3.44946,-23.5609,-0.00328463,0.00846396,-0.00136317,0.00862005,-0.00344072,-1.45679,0.00717412,0.016832,1301,365,3.44941,23.5609
84,659,3.43091,-23.5323,-0.00397999,0.00731771,0.000247217,0.00732312,-0.0039854,1.54893,0.00662309,0.0127389,1308,365,3.43091,23.5323
91,659,3.40112,-23.5007,-0.00439743,0.00578112,0.00152576,0.00600491,-0.00462122,1.42516,0.00615231,0.011448,1315,365,3.40116,23.5007
98,659,3.40503,-23.447,-0.00480765,0.00395308,0.00278382,0.00476282,-0.00561739,1.28773,0.00599978,0.00830787,1322,365,3.40497,23.447
105,659,3.39368,-23.362,-0.00538454,0.00227019,0.00374466,0.00379737,-0.00691172,1.18356,0.00626944,0.00915017,1329,365,3.39368,23.362
112,659,3.37415,-23.2915,-0.00572993,0.000615981,0.00440008,0.00286782,-0.00798177,1.09778,0.00649182,0.0126416,1336,365,3.37409,23.2915
119,659,3.32837,-23.2249,-0.00594243,-0.000961029,0.00481831,0.00197227,-0.00887572,1.02395,0.00667245,0.0142061,1343,365,3.32835,23.2249
126,659,3.29004,-23.124,-0.00591507,-0.00212472,0.00502765,0.00135309,-0.00939288,0.965638,0.00675825,0.0124096,1350,365,3.29,23.124
133,659,3.26721,-23.0341,-0.00558618,-0.00215922,0.00492721,0.00134395,-0.00908934,0.952737,0.00655364,0.011363,1357,365,3.26718,23.0341
140,659,3.25562,-22.9697,-0.00524969,-0.00157507,0.00489798,0.00181886,-0.00864362,0.964835,0.0064547,0.00921589,1364,365,3.25559,22.9697
147,659,3.23901,-22.8709,-0.004645,-0.000644429,0.00477267,0.00253018,-0.00781961,0.983835,0.00623015,0.00806538,1371,365,3.23903,22.8709
154,659,3.19983,-22.7422,-0.00409318,0.00056852,0.00479067,0.00356527,-0.00708994,1.01181,0.00626298,0.00868984,1378,365,3.19986,22.7422
161,659,3.17212,-22.6173,-0.00383222,0.00193729,0.00502252,0.00484456,-0.00673948,1.04608,0.00671781,0.0110055,1385,365,3.17206,22.6173
168,659,3.19568,-22.4934,-0.00355753,0.00415166,0.00506081,0.00665865,-0.00606452,1.11086,0.00734839,0.0184771,1392,365,3.19564,22.4935
175,659,3.21228,-22.4002,-0.00288253,0.00813615,0.0052962,0.010269,-0.00501535,1.18796,0.00899649,0.0420118,1399,365,3.21226,22.4002
182,659,3.07837,-22.245,0,0,0,0,0,0,0,-1,1406,365,3.07834,22.245
189,659,3.10999,-22.0461,0,0,0,0,0,0,0,-1,1413,365,3.10993,22.0461
196,659,2.41248,-13.4371,0,0,0,0,0,0,0,-1,1420,365,2.41243,13.4371
203,659,2.38623,-12.2163,0,0,0,0,0,0,0,-1,1427,365,2.38617,12.2163
210,659,2.20789,-13.9792,0,0,0,0,0,0,0,-1,1434,365,2.20794,13.9792
217,659,2.24121,-13.487,0,0,0,0,0,0,0,-1,1441,365,2.24116,13.487
224,659,2.3479,-15.2926,0,0,0,0,0,0,0,-1,1448,365,2.34793,15.2926
231,659,2.47974,-17.8629,0,0,0,0,0,0,0,-1,1455,365,2.47976,17.8628
238,659,3.67126,-20.6326,0,0,0,0,0,0,0,-1,1462,365,3.6713,20.6326
245,659,3.16357,-21.0596,0,0,0,0,0,0,0,-1,1469,365,3.16359,21.0596
252,659,2.45972,-18.7531,0,0,0,0,0,0,0,-1,1476,365,2.45976,18.7531
259,659,2.33069,-3.36703,0,0,0,0,0,0,0,-1,1483,365,2.33073,3.36702
266,659,1.72681,-17.183,0,0,0,0,0,0,0,-1,1490,365,1.72683,17.183
273,659,2.4375,-14.5841,0,0,0,0,0,0,0,-1,1497,365,2.43748,14.5841
280,659,1.70947,-9.4129,0,0,0,0,0,0,0,-1,1504,365,1.70952,9.4129
287,659,5.63684,-10.0938,0,0,0,0,0,0,0,-1,1511,365,5.63681,10.0938
294,659,-4.42212,-20.9467,0,0,0,0,0,0,0,-1,1518,365,-4.42212,20.9467
301,659,-4.06885,-21.6602,0,0,0,0,0,0,0,-1,1525,365,-4.0689,21.6602
308,659,-4.50159,-21.5151,0,0,0,0,0,0,0,-1,1532,365,-4.50162,21.5151
315,659,2.17102,-2.98474,0,0,0,0,0,0,0,-1,1539,365,2.171,2.98473
322,659,0.382813,-2.2424,0,0,0,0,0,0,0,-1,1546,365,0.382801,2.2424
329,659,0.604004,-1.75998,0,0,0,0,0,0,0,-1,1553,365,0.603966,1.75998
336,659,2.09851,-1.17941,0,0,0,0,0,0,0,-1,1560,365,2.09857,1.17942
343,659,0,0,0,0,0,0,0,0,0,-1,1567,365,0,0
350,659,0,0,0,0,0,0,0,0,0,-1,1574,365,0,0
357,659,0,0,0,0,0,0,0,0,0,-1,1581,365,0,0
364,659,0,0,0,0,0,0,0,0,0,-1,1588,365,0,0
371,659,0,0,0,0,0,0,0,0,0,-1,1595,365,0,0
378,659,0,0,0,0,0,0,0,0,0,-1,1602,365,0,0
385,659,0,0,0,0,0,0,0,0,0,-1,1609,365,0,0
392,659,0,0,0,0,0,0,0,0,0,-1,1616,365,0,0
399,659,0,0,0,0,0,0,0,0,0,-1,1623,365,0,0
406,659,0,0,0,0,0,0,0,0,0,-1,1630,365,0,0
413,659,0,0,0,0,0,0,0,0,0,-1,1637,365,0,0
420,659,0,0,0,0,0,0,0,0,0,-1,1644,365,0,0
427,659,0,0,0,0,0,0,0,0,0,-1,1651,365,0,0
434,659,0,0,0,0,0,0,0,0,0,-1,1658,365,0,0
441,659,0,0,0,0,0,0,0,0,0,-1,1665,365,0,0
448,659,0,0,0,0,0,0,0,0,0,-1,1672,365,0,0
455,659,0,0,0,0,0,0,0,0,0,-1,1679,365,0,0
462,659,0,0,0,0,0,0,0,0,0,-1,1686,365,0,0
469,659,0,0,0,0,0,0,0,0,0,-1,1693,365,0,0
476,659,0,0,0,0,0,0,0,0,0,-1,1700,365,0,0
483,659,0,0,0,0,0,0,0,0,0,-1,1707,365,0,0
490,659,0,0,0,0,0,0,0,0,0,-1,1714,365,0,0
497,659,0,0,0,0,0,0,0,0,0,-1,1721,365,0,0
504,659,0,0,0,0,0,0,0,0,0,-1,1728,365,0,0
511,659,0,0,0,0,0,0,0,0,0,-1,1735,365,0,0
518,659,0,0,0,0,0,0,0,0,0,-1,1742,365,0,0
525,659,0,0,0,0,0,0,0,0,0,-1,1749,365,0,0
532,659,0,0,0,0,0,0,0,0,0,-1,1756,365,0,0
539,659,0,0,0,0,0,0,0,0,0,-1,1763,365,0,0
546,659,0,0,0,0,0,0,0,0,0,-1,1770,365,0,0
553,659,0,0,0,0,0,0,0,0,0,-1,1777,365,0,0
560,659,0,0,0,0,0,0,0,0,0,-1,1784,365,0,0
567,659,0,0,0,0,0,0,0,0,0,-1,1791,365,0,0
574,659,0,0,0,0,0,0,0,0,0,-1,1798,365,0,0
581,659,0,0,0,0,0,0,0,0,0,-1,1805,365,0,0
588,659,0,0,0,0,0,0,0,0,0,-1,1812,365,0,0
595,659,0,0,0,0,0,0,0,0,0,-1,1819,365,0,0
602,659,0,0,0,0,0,0,0,0,0,-1,1826,365,0,0
609,659,0,0,0,0,0,0,0,0,0,-1,1833,365,0,0
616,659,0,0,0,0,0,0,0,0,0,-1,1840,365,0,0
623,659,0,0,0,0,0,0,0,0,0,-1,1847,365,0,0
630,659,0,0,0,0,0,0,0,0,0,-1,1854,365,0,0
637,659,0,0,0,0,0,0,0,0,0,-1,1861,365,0,0
644,659,0,0,0,0,0,0,0,0,0,-1,1868,365,0,0
651,659,0,0,0,0,0,0,0,0,0,-1,1875,365,0,0
658,659,0,0,0,0,0,0,0,0,0,-1,1882,365,0,0
665,659,0,0,0,0,0,0,0,0,0,-1,1889,365,0,0
672,659,0,0,0,0,0,0,0,0,0,-1,1896,365,0,0
679,659,0,0,0,0,0,0,0,0,0,-1,1903,365,0,0
686,659,0,0,0,0,0,0,0,0,0,-1,1910,365,0,0
693,659,0,0,0,0,0,0,0,0,0,-1,1917,365,0,0
700,659,0,0,0,0,0,0,0,0,0,-1,1924,365,0,0
707,659,0,0,0,0,0,0,0,0,0,-1,1931,365,0,0
714,659,0,0,0,0,0,0,0,0,0,-1,1938,365,0,0
721,659,0,0,0,0,0,0,0,0,0,-1,1945,365,0,0
728,659,0,0,0,0,0,0,0,0,0,-1,1952,365,0,0
735,659,0,0,0,0,0,0,0,0,0,-1,1959,365,0,0
742,659,0,0,0,0,0,0,0,0,0,-1,1966,365,0,0
749,659,0,0,0,0,0,0,0,0,0,-1,1973,365,0,0
756,659,0,0,0,0,0,0,0,0,0,-1,1980,365,0,0
763,659,0,0,0,0,0,0,0,0,0,-1,1987,365,0,0
770,659,0,0,0,0,0,0,0,0,0,-1,1994,365,0,0
777,659,0,0,0,0,0,0,0,0,0,-1,2001,365,0,0
784,659,0,0,0,0,0,0,0,0,0,-1,2008,365,0,0
791,659,0,0,0,0,0,0,0,0,0,-1,2015,365,0,0
798,659,0,0,0,0,0,0,0,0,0,-1,2022,365,0,0
805,659,0,0,0,0,0,0,0,0,0,-1,2029,365,0,0
812,659,0,0,0,0,0,0,0,0,0,-1,2036,365,0,0
-700,652,0,0,0,0,0,0,0,0,0,-1,524,372,0,0
-693,652,0,0,0,0,0,0,0,0,0,-1,531,372,0,0
-686,652,0,0,0,0,0,0,0,0,0,-1,538,372,0,0
-679,652,0,0,0,0,0,0,0,0,0,-1,545,372,0,0
-672,652,0,0,0,0,0,0,0,0,0,-1,552,372,0,0
-665,652,0,0,0,0,0,0,0,0,0,-1,559,372,0,0
-658,652,0,0,0,0,0,0,0,0,0,-1,566,372,0,0
-651,652,0,0,0,0,0,0,0,0,0,-1,573,372,0,0
-644,652,0,0,0,0,0,0,0,0,0,-1,580,372,0,0
-637,652,0,0,0,0,0,0,0,0,0,-1,587,372,0,0
-630,652,0,0,0,0,0,0,0,0,0,-1,594,372,0,0
-623,652,0,0,0,0,0,0,0,0,0,-1,601,372,0,0
-616,652,0,0,0,0,0,0,0,0,0,-1,608,372,0,0
-609,652,0,0,0,0,0,0,0,0,0,-1,615,372,0,0
-602,652,0,0,0,0,0,0,0,0,0,-1,622,372,0,0
-595,652,0,0,0,0,0,0,0,0,0,-1,629,372,0,0
-588,652,0,0,0,0,0,0,0,0,0,-1,636,372,0,0
-581,652,0,0,0,0,0,0,0,0,0,-1,643,372,0,0
-574,652,0,0,0,0,0,0,0,0,0,-1,650,372,0,0
-567,652,0,0,0,0,0,0,0,0,0,-1,657,372,0,0
-560,652,0,0,0,0,0,0,0,0,0,-1,664,372,0,0
-553,652,0,0,0,0,0,0,0,0,0,-1,671,372,0,0
-546,652,0,0,0,0,0,0,0,0,0,-1,678,372,0,0
-539,652,0,0,0,0,0,0,0,0,0,-1,685,372,0,0
-532,652,0,0,0,0,0,0,0,0,0,-1,692,372,0,0
-525,652,0,0,0,0,0,0,0,0,0,-1,699,372,0,0
-518,652,0,0,0,0,0,0,0,0,0,-1,706,372,0,0
-511,652,0,0,0,0,0,0,0,0,0,-1,713,372,0,0
-504,652,0,0,0,0,0,0,0,0,0,-1,720,372,0,0
-497,652,0,0,0,0,0,0,0,0,0,-1,727,372,0,0
-490,652,0,0,0,0,0,0,0,0,0,-1,734,372,0,0
-483,652,0,0,0,0,0,0,0,0,0,-1,741,372,0,0
-476,652,0,0,0,0,0,0,0,0,0,-1,748,372,0,0
-469,652,0,0,0,0,0,0,0,0,0,-1,755,372,0,0
-462,652,0,0,0,0,0,0,0,0,0,-1,762,372,0,0
-455,652,0,0,0,0,0,0,0,0,0,-1,769,372,0,0
-448,652,0,0,0,0,0,0,0,0,0,-1,776,372,0,0
-441,652,0,0,0,0,0,0,0,0,0,-1,783,372,0,0
-434,652,0,0,0,0,0,0,0,0,0,-1,790,372,0,0
-427,652,0,0,0,0,0,0,0,0,0,-1,797,372,0,0
-420,652,0,0,0,0,0,0,0,0,0,-1,804,372,0,0
-413,652,0,0,0,0,0,0,0,0,0,-1,811,372,0,0
-406,652,0,0,0,0,0,0,0,0,0,-1,818,372,0,0
-399,652,0,0,0,0,0,0,0,0,0,-1,825,372,0,0
-392,652,0,0,0,0,0,0,0,0,0,-1,832,372,0,0
-385,652,0,0,0,0,0,0,0,0,0,-1,839,372,0,0
-378,652,0,0,0,0,0,0,0,0,0,-1,846,372,0,0
-371,652,0,0,0,0,0,0,0,0,0,-1,853,372,0,0
-364,652,0,0,0,0,0,0,0,0,0,-1,860,372,0,0
-357,652,0,0,0,0,0,0,0,0,0,-1,867,372,0,0
-350,652,0,0,0,0,0,0,0,0,0,-1,874,372,0,0
-343,652,0,0,0,0,0,0,0,0,0,-1,881,372,0,0
-336,652,0,0,0,0,0,0,0,0,0,-1,888,372,0,0
-329,652,0,0,0,0,0,0,0,0,0,-1,895,372,0,0
-322,652,0,0,0,0,0,0,0,0,0,-1,902,372,0,0
-315,652,0,0,0,0,0,0,0,0,0,-1,909,372,0,0
-308,652,0,0,0,0,0,0,0,0,0,-1,916,372,0,0
-301,652,0,0,0,0,0,0,0,0,0,-1,923,372,0,0
-294,652,0,0,0,0,0,0,0,0,0,-1,930,372,0,0
-287,652,0,0,0,0,0,0,0,0,0,-1,937,372,0,0
-280,652,0,0,0,0,0,0,0,0,0,-1,944,372,0,0
-273,652,0,0,0,0,0,0,0,0,0,-1,951,372,0,0
-266,652,0,0,0,0,0,0,0,0,0,-1,958,372,0,0
-259,652,0,0,0,0,0,0,0,0,0,-1,965,372,0,0
-252,652,0,0,0,0,0,0,0,0,0,-1,972,372,0,0
-245,652,0,0,0,0,0,0,0,0,0,-1,979,372,0,0
-238,652,0,0,0,0,0,0,0,0,0,-1,986,372,0,0
-231,652,5.28143,-16.9447,0,0,0,0,0,0,0,-1,993,372,5.28146,16.9447
-224,652,9.47449,-18.002,0,0,0,0,0,0,0,-1,1000,372,9.47449,18.002
-217,652,2.88489,-16.6299,0,0,0,0,0,0,0,-1,1007,372,2.88488,16.6299
-210,652,2.83881,-19.5396,0,0,0,0,0,0,0,-1,1014,372,2.83878,19.5396
-203,652,9.54285,-19.3427,0,0,0,0,0,0,0,-1,1021,372,9.54282,19.3427
-196,652,6.32019,-19.0461,0,0,0,0,0,0,0,-1,1028,372,6.32022,19.0461
-189,652,5.60425,-18.965,-0.0513558,-0.0940966,-6.42847e-05,-0.0513557,-0.0940967,-0.00150405,0.0544026,0.0434647,1035,372,5.60422,18.965
-182,652,5.03015,-19.1372,-0.046232,-0.083558,-0.00117259,-0.0461952,-0.0835948,-0.0313735,0.0483524,0.0412284,1042,372,5.03021,19.1372
-175,652,3.60461,-20.9647,0,0,0,0,0,0,0,-1,1049,372,3.60467,20.9647
-168,652,3.85181,-21.8062,0,0,0,0,0,0,0,-1,1056,372,3.85183,21.8062
-161,652,5.23853,-20.0515,0,0,0,0,0,0,0,-1,1063,372,5.23847,20.0515
-154,652,5.27026,-20.5144,0,0,0,0,0,0,0,-1,1070,372,5.27028,20.5144
-147,652,5.02942,-20.7948,-0.0198697,-0.0181482,-0.00120763,-0.0175259,-0.0204919,-1.09502,0.0127878,0.0410314,1077,372,5.02942,20.7948
-140,652,4.55737,-20.6797,0,0,0,0,0,0,0,-1,1084,372,4.55736,20.6797
-133,652,4.21375,-20.6116,-0.0112591,0.00323453,0.00061475,0.00326056,-0.0112851,1.52848,0.00881364,0.0431626,1091,372,4.21372,20.6116
-126,652,4.11707,-20.8427,-0.00786614,0.01118,0.00137718,0.0112791,-0.00796521,1.49899,0.0111655,0.0413388,1098,372,4.11713,20.8427
-119,652,4.06323,-21.1101,-0.00705192,0.0128809,0.00294583,0.0133072,-0.00747816,1.4271,0.0121567,0.0376399,1105,372,4.06322,21.1101
-112,652,4.07654,-21.3537,-0.00568132,0.0155598,0.00468435,0.016547,-0.00666849,1.3631,0.013802,0.028494,1112,372,4.07652,21.3537
-105,652,4.02698,-21.41,-0.00523882,0.0151522,0.00486085,0.0162517,-0.00633828,1.34835,0.0134544,0.0238442,1119,372,4.02694,21.41
-98,652,4.01135,-21.5809,-0.00496813,0.0140982,0.00488038,0.0152748,-0.00614474,1.33422,0.0127355,0.0289158,1126,372,4.01141,21.5809
-91,652,3.99146,-21.7106,0,0,0,0,0,0,0,-1,1133,372,3.99146,21.7106
-84,652,3.98987,-21.8875,0,0,0,0,0,0,0,-1,1140,372,3.9899,21.8874
-77,652,3.88892,-22.191,0,0,0,0,0,0,0,-1,1147,372,3.88887,22.191
-70,652,3.85767,-22.3943,0,0,0,0,0,0,0,-1,1154,372,3.85764,22.3943
-63,652,3.85449,-22.5471,0,0,0,0,0,0,0,-1,1161,372,3.8545,22.5471
-56,652,3.79321,-22.6453,0,0,0,0,0,0,0,-1,1168,372,3.79317,22.6453
-49,652,3.83997,-22.8125,-0.00420009,0.0108251,-3.91978e-05,0.0108252,-0.00420019,-1.56819,0.00895156,0.0376807,1175,372,3.84,22.8125
-42,652,3.77808,-22.8799,-0.00339386,0.0108192,0.000283818,0.0108249,-0.00339952,1.55084,0.00857734,0.0112216,1182,372,3.77806,22.8799
-35,652,3.76526,-22.9818,-0.00445755,0.0126042,0.0010608,0.0126699,-0.00452325,1.50894,0.0102912,0.00908526,1189,372,3.76531,22.9817
-28,652,3.74512,-23.0781,-0.00532328,0.0131063,0.000609306,0.0131264,-0.0053434,1.53778,0.0109746,0.00822638,1196,372,3.74511,23.0781
-21,652,3.71899,-23.1723,-0.00539716,0.0133141,0.000325519,0.0133198,-0.00540282,1.55341,0.011127,0.00798645,1203,372,3.71901,23.1723
-14,652,3.71033,-23.2631,-0.00565227,0.0130771,4.54841e-05,0.0130772,-0.00565237,1.56837,0.0110931,0.00918801,1210,372,3.71031,23.2631
-7,652,3.68762,-23.3457,-0.00586263,0.0125118,-0.000398757,0.0125204,-0.00587128,-1.54911,0.0108473,0.0121374,1217,372,3.68763,23.3457
0,652,3.64819,-23.388,-0.00587743,0.0116811,-0.000931025,0.0117303,-0.00592666,-1.51797,0.0103762,0.0122036,1224,372,3.64821,23.388
7,652,3.64575,-23.3971,-0.00573269,0.0107844,-0.00154641,0.0109279,-0.00587623,-1.47824,0.00984692,0.0128564,1231,372,3.64574,23.3971
14,652,3.65186,-23.4702,-0.00543106,0.00987112,-0.00217873,0.0101753,-0.00573522,-1.43209,0.0093044,0.0115161,1238,372,3.65184,23.4702
21,652,3.62292,-23.5313,-0.00504854,0.00924956,-0.00265921,0.00972811,-0.00552709,-1.39274,0.00891822,0.0108741,1245,372,3.62291,23.5313
28,652,3.60107,-23.5706,-0.00457184,0.00862476,-0.00298267,0.00926758,-0.00521466,-1.35852,0.00846976,0.0100162,1252,372,3.60101,23.5706
35,652,3.56628,-23.5838,-0.00396526,0.008205,-0.00318196,0.00898672,-0.00474698,-1.32989,0.00805412,0.00977653,1259,372,3.56634,23.5838
42,652,3.56189,-23.599,-0.0034892,0.00761577,-0.00301721,0.00838259,-0.00425603,-1.32192,0.00742543,0.0108855,1266,372,3.56195,23.599
49,652,3.5863,-23.6218,-0.00311202,0.00739415,-0.00245041,0.00793757,-0.00365543,-1.35256,0.00684373,0.0130346,1273,372,3.58625,23.6218
56,652,3.55212,-23.6281,-0.00272388,0.00723416,-0.00204108,0.00763628,-0.003126,-1.37628,0.0063929,0.0146357,1280,372,3.55218,23.628
63,652,3.51587,-23.637,-0.00272527,0.00706729,-0.00110585,0.00719062,-0.0028486,-1.45973,0.00597412,0.0178489,1287,372,3.51588,23.637
70,652,3.51086,-23.6168,-0.00253882,0.00584904,-0.000237585,0.00585576,-0.00254554,-1.5425,0.00497441,0.0158906,1294,372,3.51087,23.6168
77,652,3.47656,-23.5692,-0.0026029,0.00520872,0.00111416,0.00536452,-0.00275871,1.43186,0.00476971,0.0150108,1301,372,3.47653,23.5692
84,652,3.47778,-23.5491,-0.003102,0.00450609,0.00207312,0.00503432,-0.00363023,1.32131,0.00502432,0.0131705,1308,372,3.47775,23.5491
91,652,3.43945,-23.5486,-0.00340339,0.00359258,0.00279624,0.00457286,-0.00438368,1.23361,0.00517144,0.0165357,1315,372,3.43943,23.5486
98,652,3.46411,-23.4695,-0.00368721,0.00252116,0.00354167,0.00412647,-0.00529252,1.14523,0.00545193,0.0136553,1322,372,3.46406,23.4695
105,652,3.44727,-23.3803,-0.00407517,0.00159572,0.00406354,0.00371528,-0.00619474,1.09001,0.00578094,0.0108203,1329,372,3.44733,23.3803
112,652,3.41577,-23.3102,-0.00430537,0.000690136,0.00436467,0.00322122,-0.00683645,1.04529,0.00593052,0.0086405,1336,372,3.41583,23.3102
119,652,3.39307,-23.2469,-0.00441835,-0.000107437,0.00452774,0.00275173,-0.00727751,1.00755,0.00598368,0.00934907,1343,372,3.39312,23.2469
126,652,3.36658,-23.1695,-0.00431503,-0.000655544,0.0045199,0.00239093,-0.00736151,0.977725,0.00586929,0.0127301,1350,372,3.36653,23.1695
133,652,3.34827,-23.0764,-0.00403608,-0.000522046,0.0043868,0.00244652,-0.00700465,0.975877,0.00566422,0.0136884,1357,372,3.34831,23.0764
140,652,3.33118,-22.9786,-0.00375753,6.9823e-05,0.00428915,0.00285285,-0.00654055,0.995229,0.00556084,0.0100491,1364,372,3.33116,22.9786
147,652,3.31482,-22.8788,-0.00328695,0.000996047,0.00409752,0.00347793,-0.00576883,1.02619,0.00539296,0.00868194,1371,372,3.31488,22.8788
154,652,3.30615,-22.7784,-0.00282968,0.0021709,0.00394286,0.0043394,-0.00499818,1.06797,0.00539552,0.00873576,1378,372,3.30618,22.7784
161,652,3.28491,-22.6599,-0.00259273,0.00337062,0.00395313,0.00534047,-0.00456259,1.10851,0.00572341,0.0112726,1385,372,3.28488,22.6599
168,652,3.25879,-22.5223,-0.00243154,0.00500711,0.00372254,0.00654998,-0.00397441,1.17788,0.00613661,0.0122748,1392,372,3.25877,22.5223
175,652,3.24866,-22.3727,-0.00209685,0.0070102,0.00377862,0.00837382,-0.00346047,1.22446,0.00702608,0.0117307,1399,372,3.24861,22.3727
182,652,3.21887,-22.2641,-0.00195597,0.00761894,0.00370908,0.00888764,-0.00322466,1.24122,0.00724333,0.0176409,1406,372,3.21887,22.2641
189,652,3.21863,-22.1222,-0.00253225,0.00772293,0.00406244,0.00913717,-0.00394649,1.23579,0.00774948,0.0289212,1413,372,3.21864,22.1222
196,652,3.20374,-21.9485,0,0,0,0,0,0,0,-1,1420,372,3.20375,21.9486
203,652,3.17432,-21.7508,0,0,0,0,0,0,0,-1,1427,372,3.17435,21.7508
210,652,3.22119,-21.5425,0,0,0,0,0,0,0,-1,1434,372,3.22117,21.5425
217,652,3.19934,-21.3879,0,0,0,0,0,0,0,-1,1441,372,3.19939,21.3879
224,652,3.0824,-21.2553,0,0,0,0,0,0,0,-1,1448,372,3.08242,21.2554
231,652,3.03711,-20.8997,0,0,0,0,0,0,0,-1,1455,372,3.03717,20.8997
238,652,3.37866,-20.6103,-0.00651011,0.00949503,0.00434421,0.0105981,-0.00761321,1.32213,0.0105613,0.0470712,1462,372,3.37872,20.6103
245,652,3.14929,-20.6928,-0.00634019,0.0109117,0.00493272,0.0122225,-0.00765098,1.31107,0.0115747,0.0464582,1469,372,3.14929,20.6928
252,652,3.06213,-20.2723,0,0,0,0,0,0,0,-1,1476,372,3.06213,20.2723
259,652,2.95142,-19.7856,0,0,0,0,0,0,0,-1,1483,372,2.95137,19.7856
266,652,2.9032,-19.6293,0,0,0,0,0,0,0,-1,1490,372,2.90314,19.6293
273,652,2.86646,-19.6941,0,0,0,0,0,0,0,-1,1497,372,2.86645,19.6941
280,652,3.08984,-19.6676,0,0,0,0,0,0,0,-1,1504,372,3.08984,19.6676
287,652,-3.88074,-18.5464,0,0,0,0,0,0,0,-1,1511,372,-3.88072,18.5464
294,652,-2.47388,-19.9854,0,0,0,0,0,0,0,-1,1518,372,-2.47392,19.9854
301,652,-1.06714,-21.4244,0,0,0,0,0,0,0,-1,1525,372,-1.06712,21.4244
308,652,-0.746094,-21.639,0,0,0,0,0,0,0,-1,1532,372,-0.746081,21.639
315,652,2.33008,-15.3782,0,0,0,0,0,0,0,-1,1539,372,2.33012,15.3782
322,652,1.95398,-18.5313,0,0,0,0,0,0,0,-1,1546,372,1.95404,18.5313
329,652,2.00732,-17.6091,0,0,0,0,0,0,0,-1,1553,372,2.00727,17.6091
336,652,1.76904,-14.9183,0,0,0,0,0,0,0,-1,1560,372,1.7691,14.9183
343,652,4.18225,-6.7092,0,0,0,0,0,0,0,-1,1567,372,4.18231,6.70921
350,652,4.64563,-7.2074,0,0,0,0,0,0,0,-1,1574,372,4.6456,7.2074
357,652,0,0,0,0,0,0,0,0,0,-1,1581,372,0,0
364,652,0,0,0,0,0,0,0,0,0,-1,1588,372,0,0
371,652,0,0,0,0,0,0,0,0,0,-1,1595,372,0,0
378,652,0,0,0,0,0,0,0,0,0,-1,1602,372,0,0
385,652,0,0,0,0,0,0,0,0,0,-1,1609,372,0,0
392,652,0,0,0,0,0,0,0,0,0,-1,1616,372,0,0
399,652,0,0,0,0,0,0,0,0,0,-1,1623,372,0,0
406,652,0,0,0,0,0,0,0,0,0,-1,1630,372,0,0
413,652,0,0,0,0,0,0,0,0,0,-1,1637,372,0,0
420,652,0,0,0,0,0,0,0,0,0,-1,1644,372,0,0
427,652,0,0,0,0,0,0,0,0,0,-1,1651,372,0,0
434,652,0,0,0,0,0,0,0,0,0,-1,1658,372,0,0
441,652,0,0,0,0,0,0,0,0,0,-1,1665,372,0,0
448,652,0,0,0,0,0,0,0,0,0,-1,1672,372,0,0
455,652,0,0,0,0,0,0,0,0,0,-1,1679,372,0,0
462,652,0,0,0,0,0,0,0,0,0,-1,1686,372,0,0
469,652,0,0,0,0,0,0,0,0,0,-1,1693,372,0,0
476,652,0,0,0,0,0,0,0,0,0,-1,1700,372,0,0
483,652,0,0,0,0,0,0,0,0,0,-1,1707,372,0,0
490,652,0,0,0,0,0,0,0,0,0,-1,1714,372,0,0
497,652,0,0,0,0,0,0,0,0,0,-1,1721,372,0,0
504,652,0,0,0,0,0,0,0,0,0,-1,1728,372,0,0
511,652,0,0,0,0,0,0,0,0,0,-1,1735,372,0,0
518,652,0,0,0,0,0,0,0,0,0,-1,1742,372,0,0
525,652,0,0,0,0,0,0,0,0,0,-1,1749,372,0,0
532,652,0,0,0,0,0,0,0,0,0,-1,1756,372,0,0
539,652,0,0,0,0,0,0,0,0,0,-1,1763,372,0,0
546,652,0,0,0,0,0,0,0,0,0,-1,1770,372,0,0
553,652,0,0,0,0,0,0,0,0,0,-1,1777,372,0,0
560,652,0,0,0,0,0,0,0,0,0,-1,1784,372,0,0
567,652,0,0,0,0,0,0,0,0,0,-1,1791,372,0,0
574,652,0,0,0,0,0,0,0,0,0,-1,1798,372,0,0
581,652,0,0,0,0,0,0,0,0,0,-1,1805,372,0,0
588,652,0,0,0,0,0,0,0,0,0,-1,1812,372,0,0
595,652,0,0,0,0,0,0,0,0,0,-1,1819,372,0,0
602,652,0,0,0,0,0,0,0,0,0,-1,1826,372,0,0
609,652,0,0,0,0,0,0,0,0,0,-1,1833,372,0,0
616,652,0,0,0,0,0,0,0,0,0,-1,1840,372,0,0
623,652,0,0,0,0,0,0,0,0,0,-1,1847,372,0,0
630,652,0,0,0,0,0,0,0,0,0,-1,1854,372,0,0
637,652,0,0,0,0,0,0,0,0,0,-1,1861,372,0,0
644,652,0,0,0,0,0,0,0,0,0,-1,1868,372,0,0
651,652,0,0,0,0,0,0,0,0,0,-1,1875,372,0,0
658,652,0,0,0,0,0,0,0,0,0,-1,1882,372,0,0
665,652,0,0,0,0,0,0,0,0,0,-1,1889,372,0,0
672,652,0,0,0,0,0,0,0,0,0,-1,1896,372,0,0
679,652,0,0,0,0,0,0,0,0,0,-1,1903,372,0,0
686,652,0,0,0,0,0,0,0,0,0,-1,1910,372,0,0
693,652,0,0,0,0,0,0,0,0,0,-1,1917,372,0,0
700,652,0,0,0,0,0,0,0,0,0,-1,1924,372,0,0
707,652,0,0,0,0,0,0,0,0,0,-1,1931,372,0,0
714,652,0,0,0,0,0,0,0,0,0,-1,1938,372,0,0
721,652,0,0,0,0,0,0,0,0,0,-1,1945,372,0,0
728,652,0,0,0,0,0,0,0,0,0,-1,1952,372,0,0
735,652,0,0,0,0,0,0,0,0,0,-1,1959,372,0,0
742,652,0,0,0,0,0,0,0,0,0,-1,1966,372,0,0
749,652,0,0,0,0,0,0,0,0,0,-1,1973,372,0,0
756,652,0,0,0,0,0,0,0,0,0,-1,1980,372,0,0
763,652,0,0,0,0,0,0,0,0,0,-1,1987,372,0,0
770,652,0,0,0,0,0,0,0,0,0,-1,1994,372,0,0
777,652,0,0,0,0,0,0,0,0,0,-1,2001,372,0,0
784,652,0,0,0,0,0,0,0,0,0,-1,2008,372,0,0
791,652,0,0,0,0,0,0,0,0,0,-1,2015,372,0,0
798,652,0,0,0,0,0,0,0,0,0,-1,2022,372,0,0
805,652,0,0,0,0,0,0,0,0,0,-1,2029,372,0,0
812,652,0,0,0,0,0,0,0,0,0,-1,2036,372,0,0
-700,645,0,0,0,0,0,0,0,0,0,-1,524,379,0,0
-693,645,0,0,0,0,0,0,0,0,0,-1,531,379,0,0
-686,645,0,0,0,0,0,0,0,0,0,-1,538,379,0,0
-679,645,0,0,0,0,0,0,0,0,0,-1,545,379,0,0
-672,645,0,0,0,0,0,0,0,0,0,-1,552,379,0,0
-665,645,0,0,0,0,0,0,0,0,0,-1,559,379,0,0
-658,645,0,0,0,0,0,0,0,0,0,-1,566,379,0,0
-651,645,0,0,0,0,0,0,0,0,0,-1,573,379,0,0
-644,645,0,0,0,0,0,0,0,0,0,-1,580,379,0,0
-637,645,0,0,0,0,0,0,0,0,0,-1,587,379,0,0
-630,645,0,0,0,0,0,0,0,0,0,-1,594,379,0,0
-623,645,0,0,0,0,0,0,0,0,0,-1,601,379,0,0
-616,645,0,0,0,0,0,0,0,0,0,-1,608,379,0,0
-609,645,0,0,0,0,0,0,0,0,0,-1,615,379,0,0
-602,645,0,0,0,0,0,0,0,0,0,-1,622,379,0,0
-595,645,0,0,0,0,0,0,0,0,0,-1,629,379,0,0
-588,645,0,0,0,0,0,0,0,0,0,-1,636,379,0,0
-581,645,0,0,0,0,0,0,0,0,0,-1,643,379,0,0
-574,645,0,0,0,0,0,0,0,0,0,-1,650,379,0,0
-567,645,0,0,0,0,0,0,0,0,0,-1,657,379,0,0
-560,645,0,0,0,0,0,0,0,0,0,-1,664,379,0,0
-553,645,0,0,0,0,0,0,0,0,0,-1,671,379,0,0
-546,645,0,0,0,0,0,0,0,0,0,-1,678,379,0,0
-539,645,0,0,0,0,0,0,0,0,0,-1,685,379,0,0
-532,645,0,0,0,0,0,0,0,0,0,-1,692,379,0,0
-525,645,0,0,0,0,0,0,0,0,0,-1,699,379,0,0
-518,645,0,0,0,0,0,0,0,0,0,-1,706,379,0,0
-511,645,0,0,0,0,0,0,0,0,0,-1,713,379,0,0
-504,645,0,0,0,0,0,0,0,0,0,-1,720,379,0,0
-497,645,0,0,0,0,0,0,0,0,0,-1,727,379,0,0
-490,645,0,0,0,0,0,0,0,0,0,-1,734,379,0,0
-483,645,0,0,0,0,0,0,0,0,0,-1,741,379,0,0
-476,645,0,0,0,0,0,0,0,0,0,-1,748,379,0,0
-469,645,0,0,0,0,0,0,0,0,0,-1,755,379,0,0
-462,645,0,0,0,0,0,0,0,0,0,-1,762,379,0,0
-455,645,0,0,0,0,0,0,0,0,0,-1,769,379,0,0
-448,645,0,0,0,0,0,0,0,0,0,-1,776,379,0,0
-441,645,0,0,0,0,0,0,0,0,0,-1,783,379,0,0
-434,645,0,0,0,0,0,0,0,0,0,-1,790,379,0,0
-427,645,0,0,0,0,0,0,0,0,0,-1,797,379,0,0
-420,645,0,0,0,0,0,0,0,0,0,-1,804,379,0,0
-413,645,0,0,0,0,0,0,0,0,0,-1,811,379,0,0
-406,645,0,0,0,0,0,0,0,0,0,-1,818,379,0,0
-399,645,0,0,0,0,0,0,0,0,0,-1,825,379,0,0
-392,645,0,0,0,0,0,0,0,0,0,-1,832,379,0,0
-385,645,0,0,0,0,0,0,0,0,0,-1,839,379,0,0
-378,645,0,0,0,0,0,0,0,0,0,-1,846,379,0,0
-371,645,0,0,0,0,0,0,0,0,0,-1,853,379,0,0
-364,645,0,0,0,0,0,0,0,0,0,-1,860,379,0,0
-357,645,0,0,0,0,0,0,0,0,0,-1,867,379,0,0
-350,645,0,0,0,0,0,0,0,0,0,-1,874,379,0,0
-343,645,0,0,0,0,0,0,0,0,0,-1,881,379,0,0
-336,645,0,0,0,0,0,0,0,0,0,-1,888,379,0,0
-329,645,0,0,0,0,0,0,0,0,0,-1,895,379,0,0
-322,645,0,0,0,0,0,0,0,0,0,-1,902,379,0,0
-315,645,0,0,0,0,0,0,0,0,0,-1,909,379,0,0
-308,645,0,0,0,0,0,0,0,0,0,-1,916,379,0,0
-301,645,0,0,0,0,0,0,0,0,0,-1,923,379,0,0
-294,645,0,0,0,0,0,0,0,0,0,-1,930,379,0,0
-287,645,0,0,0,0,0,0,0,0,0,-1,937,379,0,0
-280,645,0,0,0,0,0,0,0,0,0,-1,944,379,0,0
-273,645,0,0,0,0,0,0,0,0,0,-1,951,379,0,0
-266,645,0,0,0,0,0,0,0,0,0,-1,958,379,0,0
-259,645,0,0,0,0,0,0,0,0,0,-1,965,379,0,0
-252,645,2.6051,-18.1004,0,0,0,0,0,0,0,-1,972,379,2.60507,18.1004
-245,645,2.60535,-18.1753,0,0,0,0,0,0,0,-1,979,379,2.60534,18.1753
-238,645,2.73907,-18.5026,0,0,0,0,0,0,0,-1,986,379,2.73909,18.5026
-231,645,7.82458,-17.8101,0,0,0,0,0,0,0,-1,993,379,7.82458,17.8101
-224,645,7.9621,-18.4546,0,0,0,0,0,0,0,-1,1000,379,7.96209,18.4546
-217,645,8.09961,-19.0991,0,0,0,0,0,0,0,-1,1007,379,8.0996,19.0991
-210,645,10.6344,-19.6549,0,0,0,0,0,0,0,-1,1014,379,10.6344,19.6549
-203,645,10.1741,-18.3227,0,0,0,0,0,0,0,-1,1021,379,10.1741,18.3227
-196,645,4.84814,-19.7113,0,0,0,0,0,0,0,-1,1028,379,4.84817,19.7113
-189,645,5.15369,-18.0082,0,0,0,0,0,0,0,-1,1035,379,5.15363,18.0082
-182,645,4.26123,-18.2267,0,0,0,0,0,0,0,-1,1042,379,4.26126,18.2267
-175,645,3.90857,-19.3517,0,0,0,0,0,0,0,-1,1049,379,3.90853,19.3517
-168,645,3.9303,-20.6929,0,0,0,0,0,0,0,-1,1056,379,3.93034,20.6929
-161,645,4.20996,-21.5648,0,0,0,0,0,0,0,-1,1063,379,4.20994,21.5648
-154,645,4.67371,-19.5196,0,0,0,0,0,0,0,-1,1070,379,4.67375,19.5196
-147,645,4.54712,-20.6219,0,0,0,0,0,0,0,-1,1077,379,4.54713,20.6219
-140,645,4.33667,-20.4864,0,0,0,0,0,0,0,-1,1084,379,4.33669,20.4864
-133,645,3.74841,-20.7919,-0.0077237,0.00425212,0.000532418,0.00427574,-0.00774733,1.52646,0.00703732,0.0348603,1091,379,3.74837,20.7919
-126,645,3.96008,-20.9491,-0.00544291,0.00937214,0.00106701,0.0094486,-0.00551936,1.49927,0.00874044,0.0273161,1098,379,3.96012,20.9491
-119,645,3.91443,-21.215,-0.00497756,0.0103003,0.00215893,0.0105995,-0.00527678,1.43308,0.00933633,0.0181849,1105,379,3.91438,21.215
-112,645,3.88123,-21.4499,-0.00410479,0.0118234,0.00324479,0.012459,-0.00474043,1.37735,0.010258,0.0124046,1112,379,3.88127,21.4499
-105,645,3.86035,-21.6181,-0.00379005,0.0114276,0.00332069,0.0121206,-0.0044831,1.36504,0.00991845,0.0117703,1119,379,3.86034,21.6181
-98,645,3.82104,-21.7607,-0.00360088,0.0105696,0.00329447,0.011298,-0.00432935,1.35318,0.0093167,0.0138283,1126,379,3.82109,21.7607
-91,645,3.81946,-21.9245,-0.00310874,0.00975149,0.00294998,0.0103959,-0.00375314,1.35573,0.00846372,0.0178077,1133,379,3.8195,21.9245
-84,645,3.82837,-22.0928,-0.00296738,0.00815262,0.00268392,0.00876652,-0.00358128,1.34593,0.00733554,0.0206333,1140,379,3.82842,22.0928
-77,645,3.77881,-22.3037,-0.00299804,0.00655178,0.00230911,0.00708081,-0.00352707,1.34558,0.00623797,0.0159901,1147,379,3.77875,22.3037
-70,645,3.74194,-22.4526,-0.00279848,0.00533677,0.0022586,0.00592176,-0.00338347,1.31736,0.00543859,0.0119008,1154,379,3.74199,22.4526
-63,645,3.73254,-22.5594,-0.00273266,0.00608935,0.0016898,0.00640194,-0.00304526,1.38787,0.00556792,0.0110913,1161,379,3.73251,22.5594
-56,645,3.7323,-22.6656,-0.00275204,0.00661218,0.000200586,0.00661648,-0.00275633,1.54939,0.00556227,0.0131101,1168,379,3.73224,22.6657
-49,645,3.72095,-22.7766,-0.00305064,0.00703944,-8.71355e-05,0.00704019,-0.00305139,-1.56216,0.00597616,0.0115603,1175,379,3.72099,22.7766
-42,645,3.69531,-22.8782,-0.00283442,0.00707997,8.91421e-05,0.00708078,-0.00283522,1.56181,0.00589732,0.0104847,1182,379,3.69527,22.8782
-35,645,3.67761,-23.0008,-0.00312547,0.00807196,0.00051735,0.00809581,-0.00314932,1.52472,0.00669848,0.01048,1189,379,3.67758,23.0008
-28,645,3.64771,-23.1139,-0.00325812,0.00822256,0.00025113,0.00822805,-0.00326361,1.54894,0.00683797,0.0087181,1196,379,3.64774,23.1139
-21,645,3.63074,-23.188,-0.0031375,0.00826228,0.000122883,0.00826361,-0.00313882,1.56002,0.00680122,0.00989894,1203,379,3.63077,23.188
-14,645,3.63513,-23.2606,-0.00315626,0.00798475,-5.06298e-05,0.00798498,-0.00315649,-1.56625,0.00663083,0.00989496,1210,379,3.63518,23.2606
-7,645,3.6355,-23.3452,-0.00318138,0.00752639,-0.000362464,0.00753865,-0.00319364,-1.537,0.0063633,0.0132198,1217,379,3.63547,23.3452
0,645,3.61426,-23.401,-0.00311446,0.00691794,-0.00068896,0.00696504,-0.00316155,-1.50255,0.00598247,0.0240044,1224,379,3.6143,23.401
7,645,3.59692,-23.4438,-0.00293483,0.00630283,-0.00100178,0.00641022,-0.00304222,-1.46401,0.00557164,0.0166848,1231,379,3.59687,23.4438
14,645,3.60144,-23.4909,-0.00266804,0.00562098,-0.00127378,0.0058123,-0.00285937,-1.42171,0.00510243,0.0164572,1238,379,3.60144,23.4909
21,645,3.57703,-23.5524,-0.00242325,0.00513831,-0.00139009,0.00538577,-0.00267071,-1.39463,0.00473863,0.0108487,1245,379,3.57697,23.5524
28,645,3.56238,-23.5804,-0.00215921,0.00464619,-0.0013631,0.00490906,-0.00242208,-1.38029,0.00431305,0.0093791,1252,379,3.56242,23.5804
35,645,3.53662,-23.5985,-0.00181726,0.00433267,-0.00124981,0.00457696,-0.00206155,-1.37777,0.00392339,0.00869901,1259,379,3.53662,23.5985
42,645,3.53589,-23.6239,-0.0015085,0.00381637,-0.00092111,0.0039712,-0.00166333,-1.40426,0.00334282,0.00853842,1266,379,3.53592,23.6239
49,645,3.56787,-23.6403,-0.00128867,0.0035855,-0.000331158,0.0036079,-0.00131107,-1.50327,0.00294135,0.0113229,1273,379,3.56785,23.6403
56,645,3.55786,-23.6291,-0.00113575,0.00343948,9.9573e-05,0.00344164,-0.00113792,1.54905,0.00275327,0.0112881,1280,379,3.55783,23.6291
63,645,3.53589,-23.6355,-0.00117182,0.00326792,0.000828648,0.00341754,-0.00132144,1.39216,0.00282385,0.0115271,1287,379,3.53595,23.6355
70,645,3.52429,-23.6173,-0.00114351,0.00250792,0.00147283,0.00302793,-0.00166353,1.23139,0.00274653,0.0154841,1294,379,3.52433,23.6173
77,645,3.52478,-23.5826,-0.00131035,0.00215769,0.00228832,0.00329477,-0.00244743,1.10963,0.00332727,0.0181322,1301,379,3.52478,23.5826
84,645,3.52649,-23.5519,-0.00161859,0.00177142,0.00274203,0.00330004,-0.00314721,1.06223,0.00372267,0.0133487,1308,379,3.52649,23.5519
91,645,3.48926,-23.5373,-0.00182088,0.00124295,0.00303117,0.00310732,-0.00368525,1.01937,0.00392642,0.0148113,1315,379,3.48923,23.5373
98,645,3.50769,-23.467,-0.00199495,0.000624918,0.00336817,0.00292892,-0.00429895,0.970855,0.00419793,0.0136945,1322,379,3.50766,23.467
105,645,3.50073,-23.395,-0.00221031,0.000133905,0.00351825,0.00267015,-0.00474656,0.946191,0.00433762,0.0102806,1329,379,3.5007,23.395
112,645,3.4679,-23.3254,-0.00234845,-0.000338733,0.00350696,0.00230449,-0.00499167,0.924927,0.00430662,0.00812532,1336,379,3.46786,23.3254
119,645,3.45386,-23.2542,-0.00241046,-0.000651437,0.00345825,0.00203739,-0.00509929,0.90992,0.00424489,0.0081203,1343,379,3.45382,23.2542
126,645,3.43835,-23.1798,-0.00227092,-0.000827537,0.00330528,0.00183392,-0.00493238,0.892884,0.00404075,0.0113979,1350,379,3.43833,23.1798
133,645,3.43762,-23.0948,-0.00205374,-0.000594543,0.00312831,0.00188812,-0.00453641,0.899963,0.00381281,0.0130284,1357,379,3.43757,23.0948
140,645,3.43274,-22.978,-0.001885,-6.58061e-05,0.00301015,0.00216917,-0.00411998,0.932125,0.00368881,0.0124214,1364,379,3.43271,22.978
147,645,3.41638,-22.8907,-0.00162918,0.000774251,0.00283569,0.00265235,-0.00350728,0.985818,0.00356767,0.0124868,1371,379,3.41633,22.8907
154,645,3.4126,-22.8095,-0.0013407,0.00179899,0.00266307,0.00332048,-0.00286219,1.05173,0.00357283,0.011489,1378,379,3.41257,22.8095
161,645,3.39771,-22.6839,-0.00117048,0.00283167,0.00263881,0.00414234,-0.00248115,1.1098,0.00386395,0.0144399,1385,379,3.39769,22.6839
168,645,3.36304,-22.5619,-0.00119758,0.00417711,0.00250997,0.00516696,-0.00218743,1.19516,0.00436067,0.0171551,1392,379,3.36305,22.5619
175,645,3.39026,-22.4368,-0.00128761,0.0053279,0.002493,0.00616216,-0.00212187,1.24787,0.00496878,0.0139153,1399,379,3.39023,22.4368
182,645,3.38586,-22.2818,-0.00132993,0.00581029,0.00256571,0.0066366,-0.00215624,1.25922,0.00529167,0.00990139,1406,379,3.38592,22.2818
189,645,3.3717,-22.1066,-0.00183405,0.0059999,0.0028741,0.00694123,-0.00277538,1.25428,0.0057792,0.0109833,1413,379,3.37169,22.1066
196,645,3.33801,-21.9562,-0.00271552,0.00557208,0.00291209,0.006493,-0.00363643,1.26451,0.00592524,0.0111842,1420,379,3.33804,21.9562
203,645,3.30127,-21.7804,-0.00339798,0.00543602,0.00271325,0.0062028,-0.00416477,1.29537,0.00602415,0.0106763,1427,379,3.30127,21.7804
210,645,3.31677,-21.5738,-0.00383069,0.00504699,0.00250795,0.0057065,-0.0044902,1.31365,0.00590101,0.0154445,1434,379,3.3168,21.5738
217,645,3.29187,-21.428,-0.00449866,0.00515474,0.00247293,0.00575136,-0.00509528,1.33406,0.00626613,0.0181484,1441,379,3.29184,21.428
224,645,3.23267,-21.3111,-0.00489879,0.0057558,0.00259962,0.00635625,-0.00549923,1.3438,0.00685072,0.0168766,1448,379,3.23264,21.3111
231,645,3.21277,-21.0209,-0.00480296,0.00637583,0.00297842,0.00711986,-0.005547,1.326,0.00733198,0.0169158,1455,379,3.2128,21.021
238,645,3.21582,-20.7949,-0.00468335,0.00750664,0.00356475,0.00847255,-0.00564926,1.30619,0.00820737,0.0131085,1462,379,3.21585,20.7948
245,645,3.20337,-20.6078,-0.00453227,0.00868648,0.00408015,0.00984444,-0.00569023,1.29426,0.00907522,0.0134224,1469,379,3.20336,20.6078
252,645,3.19604,-20.3187,-0.00385324,0.00986307,0.00468057,0.011308,-0.00529822,1.27136,0.00979468,0.018947,1476,379,3.19608,20.3187
259,645,3.15393,-19.9924,-0.00286267,0.0113235,0.00551595,0.0132158,-0.004755,1.24031,0.0107519,0.0322046,1483,379,3.15387,19.9924
266,645,3.07788,-19.8309,-0.00186834,0.0130761,0.0065683,0.0155526,-0.00434482,1.21024,0.01208,0.0268634,1490,379,3.07785,19.8309
273,645,3.07458,-19.7006,-0.000896786,0.0150274,0.00770104,0.0181423,-0.00401174,1.18643,0.0136304,0.0272878,1497,379,3.07464,19.7006
280,645,3.25586,-19.4854,7.97374e-05,0.0166162,0.00876014,0.0203939,-0.00369792,1.16366,0.0149815,0.0486801,1504,379,3.25583,19.4854
287,645,3.49548,-18.765,0,0,0,0,0,0,0,-1,1511,379,3.49546,18.765
294,645,3.19897,-18.8791,0,0,0,0,0,0,0,-1,1518,379,3.19894,18.8791
301,645,0.732422,-19.9609,0,0,0,0,0,0,0,-1,1525,379,0.7324,19.9609
308,645,2.10364,-17.449,0,0,0,0,0,0,0,-1,1532,379,2.10368,17.449
315,645,3.07629,-17.7949,0,0,0,0,0,0,0,-1,1539,379,3.07629,17.7949
322,645,3.49536,-17.7476,0,0,0,0,0,0,0,-1,1546,379,3.49535,17.7476
329,645,2.5675,-17.1958,0,0,0,0,0,0,0,-1,1553,379,2.56747,17.1958
336,645,2.62732,-16.2267,0,0,0,0,0,0,0,-1,1560,379,2.62731,16.2267
343,645,0.977295,-13.792,0,0,0,0,0,0,0,-1,1567,379,0.977251,13.792
350,645,3.93213,-5.72198,0,0,0,0,0,0,0,-1,1574,379,3.9321,5.72198
357,645,1.63928,-6.465,0,0,0,0,0,0,0,-1,1581,379,1.63926,6.46499
364,645,-0.0794678,-3.22021,0,0,0,0,0,0,0,-1,1588,379,-0.0794987,3.22021
371,645,0,0,0,0,0,0,0,0,0,-1,1595,379,0,0
378,645,0,0,0,0,0,0,0,0,0,-1,1602,379,0,0
385,645,0,0,0,0,0,0,0,0,0,-1,1609,379,0,0
392,645,0,0,0,0,0,0,0,0,0,-1,1616,379,0,0
399,645,0,0,0,0,0,0,0,0,0,-1,1623,379,0,0
406,645,0,0,0,0,0,0,0,0,0,-1,1630,379,0,0
413,645,0,0,0,0,0,0,0,0,0,-1,1637,379,0,0
420,645,0,0,0,0,0,0,0,0,0,-1,1644,379,0,0
427,645,0,0,0,0,0,0,0,0,0,-1,1651,379,0,0
434,645,0,0,0,0,0,0,0,0,0,-1,1658,379,0,0
441,645,0,0,0,0,0,0,0,0,0,-1,1665,379,0,0
448,645,0,0,0,0,0,0,0,0,0,-1,1672,379,0,0
455,645,0,0,0,0,0,0,0,0,0,-1,1679,379,0,0
462,645,0,0,0,0,0,0,0,0,0,-1,1686,379,0,0
469,645,0,0,0,0,0,0,0,0,0,-1,1693,379,0,0
476,645,0,0,0,0,0,0,0,0,0,-1,1700,379,0,0
483,645,0,0,0,0,0,0,0,0,0,-1,1707,379,0,0
490,645,0,0,0,0,0,0,0,0,0,-1,1714,379,0,0
497,645,0,0,0,0,0,0,0,0,0,-1,1721,379,0,0
504,645,0,0,0,0,0,0,0,0,0,-1,1728,379,0,0
511,645,0,0,0,0,0,0,0,0,0,-1,1735,379,0,0
518,645,0,0,0,0,0,0,0,0,0,-1,1742,379,0,0
525,645,0,0,0,0,0,0,0,0,0,-1,1749,379,0,0
532,645,0,0,0,0,0,0,0,0,0,-1,1756,379,0,0
539,645,0,0,0,0,0,0,0,0,0,-1,1763,379,0,0
546,645,0,0,0,0,0,0,0,0,0,-1,1770,379,0,0
553,645,0,0,0,0,0,0,0,0,0,-1,1777,379,0,0
560,645,0,0,0,0,0,0,0,0,0,-1,1784,379,0,0
567,645,0,0,0,0,0,0,0,0,0,-1,1791,379,0,0
574,645,0,0,0,0,0,0,0,0,0,-1,1798,379,0,0
581,645,0,0,0,0,0,0,0,0,0,-1,1805,379,0,0
588,645,0,0,0,0,0,0,0,0,0,-1,1812,379,0,0
595,645,0,0,0,0,0,0,0,0,0,-1,1819,379,0,0
602,645,0,0,0,0,0,0,0,0,0,-1,1826,379,0,0
609,645,0,0,0,0,0,0,0,0,0,-1,1833,379,0,0
616,645,0,0,0,0,0,0,0,0,0,-1,1840,379,0,0
623,645,0,0,0,0,0,0,0,0,0,-1,1847,379,0,0
630,645,0,0,0,0,0,0,0,0,0,-1,1854,379,0,0
637,645,0,0,0,0,0,0,0,0,0,-1,1861,379,0,0
644,645,0,0,0,0,0,0,0,0,0,-1,1868,379,0,0
651,645,0,0,0,0,0,0,0,0,0,-1,1875,379,0,0
658,645,0,0,0,0,0,0,0,0,0,-1,1882,379,0,0
665,645,0,0,0,0,0,0,0,0,0,-1,1889,379,0,0
672,645,0,0,0,0,0,0,0,0,0,-1,1896,379,0,0
679,645,0,0,0,0,0,0,0,0,0,-1,1903,379,0,0
686,645,0,0,0,0,0,0,0,0,0,-1,1910,379,0,0
693,645,0,0,0,0,0,0,0,0,0,-1,1917,379,0,0
700,645,0,0,0,0,0,0,0,0,0,-1,1924,379,0,0
707,645,0,0,0,0,0,0,0,0,0,-1,1931,379,0,0
714,645,0,0,0,0,0,0,0,0,0,-1,1938,379,0,0
721,645,0,0,0,0,0,0,0,0,0,-1,1945,379,0,0
728,645,0,0,0,0,0,0,0,0,0,-1,1952,379,0,0
735,645,0,0,0,0,0,0,0,0,0,-1,1959,379,0,0
742,645,0,0,0,0,0,0,0,0,0,-1,1966,379,0,0
749,645,0,0,0,0,0,0,0,0,0,-1,1973,379,0,0
756,645,0,0,0,0,0,0,0,0,0,-1,1980,379,0,0
763,645,0,0,0,0,0,0,0,0,0,-1,1987,379,0,0
770,645,0,0,0,0,0,0,0,0,0,-1,1994,379,0,0
777,645,0,0,0,0,0,0,0,0,0,-1,2001,379,0,0
784,645,0,0,0,0,0,0,0,0,0,-1,2008,379,0,0
791,645,0,0,0,0,0,0,0,0,0,-1,2015,379,0,0
798,645,0,0,0,0,0,0,0,0,0,-1,2022,379,0,0
805,645,0,0,0,0,0,0,0,0,0,-1,2029,379,0,0
812,645,0,0,0,0,0,0,0,0,0,-1,2036,379,0,0
-700,638,0,0,0,0,0,0,0,0,0,-1,524,386,0,0
-693,638,0,0,0,0,0,0,0,0,0,-1,531,386,0,0
-686,638,0,0,0,0,0,0,0,0,0,-1,538,386,0,0
-679,638,0,0,0,0,0,0,0,0,0,-1,545,386,0,0
-672,638,0,0,0,0,0,0,0,0,0,-1,552,386,0,0
-665,638,0,0,0,0,0,0,0,0,0,-1,559,386,0,0
-658,638,0,0,0,0,0,0,0,0,0,-1,566,386,0,0
-651,638,0,0,0,0,0,0,0,0,0,-1,573,386,0,0
-644,638,0,0,0,0,0,0,0,0,0,-1,580,386,0,0
-637,638,0,0,0,0,0,0,0,0,0,-1,587,386,0,0
-630,638,0,0,0,0,0,0,0,0,0,-1,594,386,0,0
-623,638,0,0,0,0,0,0,0,0,0,-1,601,386,0,0
-616,638,0,0,0,0,0,0,0,0,0,-1,608,386,0,0
-609,638,0,0,0,0,0,0,0,0,0,-1,615,386,0,0
-602,638,0,0,0,0,0,0,0,0,0,-1,622,386,0,0
-595,638,0,0,0,0,0,0,0,0,0,-1,629,386,0,0
-588,638,0,0,0,0,0,0,0,0,0,-1,636,386,0,0
-581,638,0,0,0,0,0,0,0,0,0,-1,643,386,0,0
-574,638,0,0,0,0,0,0,0,0,0,-1,650,386,0,0
-567,638,0,0,0,0,0,0,0,0,0,-1,657,386,0,0
-560,638,0,0,0,0,0,0,0,0,0,-1,664,386,0,0
-553,638,0,0,0,0,0,0,0,0,0,-1,671,386,0,0
-546,638,0,0,0,0,0,0,0,0,0,-1,678,386,0,0
-539,638,0,0,0,0,0,0,0,0,0,-1,685,386,0,0
-532,638,0,0,0,0,0,0,0,0,0,-1,692,386,0,0
-525,638,0,0,0,0,0,0,0,0,0,-1,699,386,0,0
-518,638,0,0,0,0,0,0,0,0,0,-1,706,386,0,0
-511,638,0,0,0,0,0,0,0,0,0,-1,713,386,0,0
-504,638,0,0,0,0,0,0,0,0,0,-1,720,386,0,0
-497,638,0,0,0,0,0,0,0,0,0,-1,727,386,0,0
-490,638,0,0,0,0,0,0,0,0,0,-1,734,386,0,0
-483,638,0,0,0,0,0,0,0,0,0,-1,741,386,0,0
-476,638,0,0,0,0,0,0,0,0,0,-1,748,386,0,0
-469,638,0,0,0,0,0,0,0,0,0,-1,755,386,0,0
-462,638,0,0,0,0,0,0,0,0,0,-1,762,386,0,0
-455,638,0,0,0,0,0,0,0,0,0,-1,769,386,0,0
-448,638,0,0,0,0,0,0,0,0,0,-1,776,386,0,0
-441,638,0,0,0,0,0,0,0,0,0,-1,783,386,0,0
-434,638,0,0,0,0,0,0,0,0,0,-1,790,386,0,0
-427,638,0,0,0,0,0,0,0,0,0,-1,797,386,0,0
-420,638,0,0,0,0,0,0,0,0,0,-1,804,386,0,0
-413,638,0,0,0,0,0,0,0,0,0,-1,811,386,0,0
-406,638,0,0,0,0,0,0,0,0,0,-1,818,386,0,0
-399,638,0,0,0,0,0,0,0,0,0,-1,825,386,0,0
-392,638,0,0,0,0,0,0,0,0,0,-1,832,386,0,0
-385,638,0,0,0,0,0,0,0,0,0,-1,839,386,0,0
-378,638,0,0,0,0,0,0,0,0,0,-1,846,386,0,0
-371,638,0,0,0,0,0,0,0,0,0,-1,853,386,0,0
-364,638,0,0,0,0,0,0,0,0,0,-1,860,386,0,0
-357,638,0,0,0,0,0,0,0,0,0,-1,867,386,0,0
-350,638,0,0,0,0,0,0,0,0,0,-1,874,386,0,0
-343,638,0,0,0,0,0,0,0,0,0,-1,881,386,0,0
-336,638,0,0,0,0,0,0,0,0,0,-1,888,386,0,0
-329,638,0,0,0,0,0,0,0,0,0,-1,895,386,0,0
-322,638,0,0,0,0,0,0,0,0,0,-1,902,386,0,0
-315,638,0,0,0,0,0,0,0,0,0,-1,909,386,0,0
-308,638,0,0,0,0,0,0,0,0,0,-1,916,386,0,0
-301,638,0,0,0,0,0,0,0,0,0,-1,923,386,0,0
-294,638,0,0,0,0,0,0,0,0,0,-1,930,386,0,0
-287,638,0,0,0,0,0,0,0,0,0,-1,937,386,0,0
-280,638,0,0,0,0,0,0,0,0,0,-1,944,386,0,0
-273,638,0,0,0,0,0,0,0,0,0,-1,951,386,0,0
-266,638,5.203,-11.6631,0,0,0,0,0,0,0,-1,958,386,5.203,11.6631
-259,638,1.21844,-16.8574,0,0,0,0,0,0,0,-1,965,386,1.21842,16.8574
-252,638,1.5874,-17.3302,0,0,0,0,0,0,0,-1,972,386,1.58738,17.3302
-245,638,2.48798,-17.8381,0,0,0,0,0,0,0,-1,979,386,2.48797,17.8381
-238,638,2.6925,-18.2179,0,0,0,0,0,0,0,-1,986,386,2.69249,18.2179
-231,638,2.86945,-18.6092,0,0,0,0,0,0,0,-1,993,386,2.86942,18.6092
-224,638,6.44049,-18.5715,0,0,0,0,0,0,0,-1,1000,386,6.44048,18.5715
-217,638,6.53162,-18.8751,0,0,0,0,0,0,0,-1,1007,386,6.5316,18.8751
-210,638,10.8154,-19.396,0,0,0,0,0,0,0,-1,1014,386,10.8154,19.396
-203,638,10.7463,-17.7428,0,0,0,0,0,0,0,-1,1021,386,10.7463,17.7428
-196,638,4.36646,-19.408,0,0,0,0,0,0,0,-1,1028,386,4.36643,19.408
-189,638,4.16382,-18.5785,0,0,0,0,0,0,0,-1,1035,386,4.16378,18.5785
-182,638,3.4248,-19.2495,0,0,0,0,0,0,0,-1,1042,386,3.42486,19.2495
-175,638,3.66516,-19.4539,-0.0203017,-0.0279852,-0.00232179,-0.0196546,-0.0286323,-0.271809,0.0169096,0.0431629,1049,386,3.66516,19.4539
-168,638,3.82959,-19.7681,-0.0172338,-0.0217986,-0.0025451,-0.0160976,-0.0229348,-0.419881,0.0135965,0.0368364,1056,386,3.82957,19.7681
-161,638,3.83472,-20.0043,-0.0142181,-0.0156789,-0.00209125,-0.0127334,-0.0171636,-0.617396,0.0102887,0.0311615,1063,386,3.83468,20.0043
-154,638,3.88708,-20.2144,-0.0115424,-0.00949642,-0.00140393,-0.00878231,-0.0122565,-1.10025,0.00729415,0.0226114,1070,386,3.88705,20.2144
-147,638,3.85669,-20.4755,-0.00926833,-0.00452107,-0.000868579,-0.00436715,-0.00942226,-1.3954,0.00544477,0.0179925,1077,386,3.8567,20.4755
-140,638,3.81665,-20.6739,-0.0073323,-0.000364909,-0.000243911,-0.000356381,-0.00734083,-1.53585,0.00477953,0.015506,1084,386,3.81664,20.6739
-133,638,3.78223,-20.9105,-0.00516509,0.00447687,0.000216778,0.00448174,-0.00516996,1.54833,0.00557713,0.0138078,1091,386,3.7822,20.9105
-126,638,3.77502,-21.0886,-0.00365327,0.00764239,0.000590499,0.00767317,-0.00368405,1.51871,0.00669057,0.0145504,1098,386,3.77503,21.0886
-119,638,3.75171,-21.2852,-0.00336012,0.00813095,0.00134061,0.00828528,-0.00351445,1.45618,0.00699573,0.0159239,1105,386,3.75173,21.2852
-112,638,3.73938,-21.4886,-0.00278004,0.00895935,0.00198667,0.00928645,-0.00310713,1.40762,0.007446,0.0141643,1112,386,3.73935,21.4886
-105,638,3.7345,-21.6765,-0.00251841,0.00863172,0.00198562,0.00897477,-0.00286146,1.39972,0.00713101,0.0141686,1119,386,3.73446,21.6765
-98,638,3.69653,-21.8338,-0.00235609,0.00798135,0.00191137,0.00832344,-0.00269818,1.3937,0.00663385,0.0147088,1126,386,3.69654,21.8338
-91,638,3.64368,-21.9944,-0.00198354,0.00736754,0.00163443,0.00764498,-0.00226099,1.40265,0.00599418,0.0127843,1133,386,3.64366,21.9945
-84,638,3.62476,-22.1581,-0.00186105,0.00622505,0.00145736,0.00647969,-0.00211569,1.39781,0.00517135,0.0149384,1140,386,3.62476,22.1581
-77,638,3.61108,-22.3213,-0.00186812,0.00505064,0.00122612,0.0052615,-0.00207898,1.40049,0.00436878,0.0120764,1147,386,3.61114,22.3213
-70,638,3.62329,-22.4533,-0.00170864,0.00408524,0.00117803,0.0043156,-0.001939,1.37768,0.00369697,0.0104373,1154,386,3.62329,22.4533
-63,638,3.61865,-22.5804,-0.00162377,0.00422862,0.000871509,0.00435564,-0.0017508,1.42606,0.0036309,0.0106707,1161,386,3.61865,22.5804
-56,638,3.6239,-22.6916,-0.00176431,0.00421427,4.18265e-05,0.00421456,-0.00176461,1.5638,0.00354736,0.014949,1168,386,3.62391,22.6916
-49,638,3.60425,-22.8028,-0.00203542,0.00368004,-0.000434637,0.00371291,-0.00206828,-1.49533,0.00338249,0.0136058,1175,386,3.60425,22.8028
-42,638,3.58752,-22.9098,-0.00203893,0.00343386,-0.00036627,0.00345827,-0.00206334,-1.50427,0.00322163,0.012128,1182,386,3.58757,22.9098
-35,638,3.58362,-23.0221,-0.00204302,0.00360707,-0.000286798,0.00362159,-0.00205754,-1.52021,0.00332004,0.0108189,1189,386,3.58366,23.0221
-28,638,3.57629,-23.1221,-0.00198886,0.00333218,-0.000493993,0.00337765,-0.00203433,-1.479,0.00315653,0.0100984,1196,386,3.57634,23.1221
-21,638,3.5387,-23.1936,-0.00192536,0.00304974,-0.000666575,0.0031375,-0.00201312,-1.43989,0.00299724,0.0112942,1203,386,3.53865,23.1936
-14,638,3.53528,-23.2753,-0.00194012,0.00258237,-0.000883709,0.00274891,-0.00210667,-1.38452,0.00281153,0.0111538,1210,386,3.53532,23.2753
-7,638,3.56372,-23.3757,-0.00194602,0.00213976,-0.00120186,0.00246707,-0.00227333,-1.3049,0.00273764,0.0164449,1217,386,3.56366,23.3757
0,638,3.58191,-23.406,-0.00188659,0.00167168,-0.00148708,0.00221132,-0.00242623,-1.22269,0.00267845,0.0310319,1224,386,3.58192,23.406
7,638,3.54797,-23.4532,-0.00165956,0.00127739,-0.00168732,0.00204576,-0.00242793,-1.14348,0.00258603,0.0252506,1231,386,3.54795,23.4532
14,638,3.52917,-23.5043,-0.00127593,0.000915937,-0.00180735,0.00193367,-0.00229366,-1.05795,0.0024436,0.0138834,1238,386,3.52914,23.5043
21,638,3.52527,-23.5668,-0.000944371,0.000738073,-0.00176739,0.00185423,-0.00206052,-1.00752,0.00226123,0.0111179,1245,386,3.52528,23.5668
28,638,3.5271,-23.583,-0.000611145,0.000552863,-0.001526,0.00160408,-0.00166236,-0.967579,0.00188598,0.00875625,1252,386,3.52706,23.583
35,638,3.52576,-23.6024,-0.000201741,0.000569527,-0.00123161,0.00147446,-0.00110668,-0.93712,0.00149526,0.0104313,1259,386,3.52579,23.6025
42,638,3.55261,-23.632,0.000241631,0.000365445,-0.000789878,0.00109584,-0.000488763,-0.824506,0.000936982,0.0091513,1266,386,3.55266,23.632
49,638,3.57495,-23.629,0.000662699,0.000474606,-0.000241811,0.000828108,0.000309197,-0.599936,0.000483192,0.00752886,1273,386,3.57493,23.629
56,638,3.54871,-23.615,0.000925793,0.00067695,0.000214096,0.001049,0.000553747,0.522177,0.000605952,0.0105467,1280,386,3.5487,23.615
63,638,3.52686,-23.6282,0.000970347,0.000728724,0.000747252,0.00160649,9.25802e-05,0.705254,0.00104151,0.0133107,1287,386,3.52686,23.6282
70,638,3.5304,-23.628,0.000958808,0.000486507,0.00119723,0.00194295,-0.000497637,0.688024,0.00148916,0.0173139,1294,386,3.53039,23.628
77,638,3.54846,-23.6013,0.000835153,0.000481834,0.00159564,0.00226388,-0.000946895,0.730266,0.00190502,0.0182473,1301,386,3.54848,23.6013
84,638,3.56946,-23.5496,0.000490939,0.000465619,0.00174643,0.00222476,-0.0012682,0.781774,0.00204171,0.0136205,1308,386,3.56948,23.5496
91,638,3.56201,-23.4939,7.26818e-05,0.000203392,0.00174942,0.00188868,-0.0016126,0.804069,0.00202356,0.0142497,1315,386,3.56196,23.4939
98,638,3.54602,-23.4579,-0.000293216,-0.000137544,0.00182473,0.00161101,-0.00204177,0.806713,0.00211381,0.0128447,1322,386,3.54601,23.4579
105,638,3.54468,-23.4043,-0.000622964,-0.000418065,0.00179582,0.00127822,-0.00231925,0.813892,0.00210579,0.00978516,1329,386,3.54469,23.4043
112,638,3.53101,-23.3341,-0.000929475,-0.000750927,0.00164276,0.000804985,-0.00248539,0.812543,0.00198056,0.00967732,1336,386,3.53102,23.3341
119,638,3.52893,-23.2751,-0.00119717,-0.00095724,0.00154733,0.000474767,-0.00262917,0.824085,0.0019306,0.0111529,1343,386,3.52897,23.275
126,638,3.54248,-23.1866,-0.00116415,-0.00110552,0.00139309,0.000258563,-0.00252823,0.795918,0.00177795,0.0148638,1350,386,3.54252,23.1865
133,638,3.55347,-23.0923,-0.00102145,-0.000980465,0.00120277,0.00020199,-0.00220391,0.793917,0.00154102,0.0153831,1357,386,3.55349,23.0924
140,638,3.53882,-23.0124,-0.000921098,-0.000742275,0.00114163,0.000313439,-0.00197681,0.824478,0.00143382,0.0157688,1364,386,3.53886,23.0124
147,638,3.52612,-22.9237,-0.000754825,-0.000246662,0.00106657,0.000595677,-0.00159716,0.90233,0.00130931,0.018043,1371,386,3.5261,22.9237
154,638,3.53455,-22.8417,-0.00052083,0.0003683,0.00101508,0.0010319,-0.00118443,0.991797,0.0012806,0.0171276,1378,386,3.53456,22.8417
161,638,3.51123,-22.7138,-0.000315183,0.00108772,0.00108333,0.00167687,-0.000904326,1.07271,0.00151234,0.0198016,1385,386,3.51119,22.7138
168,638,3.505,-22.5817,-0.000300851,0.00207344,0.0011643,0.0025491,-0.000776507,1.18296,0.0020089,0.0247566,1392,386,3.50499,22.5817
175,638,3.52295,-22.466,-0.000403828,0.00286056,0.00128676,0.00330678,-0.000850051,1.23699,0.00253581,0.0192501,1399,386,3.52295,22.466
182,638,3.52295,-22.3053,-0.000562535,0.00333143,0.00148414,0.00383259,-0.0010637,1.24514,0.00297373,0.0119084,1406,386,3.52291,22.3053
189,638,3.51428,-22.1445,-0.00105075,0.00385408,0.00180815,0.00444859,-0.00164526,1.25314,0.00364026,0.0105339,1413,386,3.51427,22.1445
196,638,3.49133,-21.988,-0.00173194,0.00380796,0.00191491,0.00440543,-0.00232941,1.26836,0.00394946,0.0134908,1420,386,3.49133,21.988
203,638,3.46777,-21.8506,-0.00222908,0.0039385,0.00190512,0.00447952,-0.0027701,1.2941,0.00422418,0.0191898,1427,386,3.46779,21.8506
210,638,3.4397,-21.6639,-0.00257095,0.00390158,0.0019106,0.00442348,-0.00309285,1.30414,0.00436217,0.0161482,1434,386,3.43972,21.6639
217,638,3.43237,-21.4619,-0.00301908,0.0040869,0.00194744,0.00458561,-0.00351779,1.3201,0.00469202,0.0119938,1441,386,3.43239,21.4619
224,638,3.42224,-21.2498,-0.00330815,0.00459341,0.00208423,0.00510947,-0.00382422,1.32807,0.00517563,0.0108504,1448,386,3.42228,21.2498
231,638,3.39075,-21.0438,-0.00322969,0.00508914,0.00242324,0.00574354,-0.00388409,1.30704,0.00559296,0.0114968,1455,386,3.39079,21.0438
238,638,3.36316,-20.8653,-0.00313819,0.00600472,0.00292832,0.0068622,-0.00399566,1.28594,0.00634119,0.0119127,1462,386,3.36311,20.8653
245,638,3.35779,-20.6588,-0.00303657,0.00694331,0.003363,0.00797078,-0.00406405,1.27428,0.00706929,0.0141287,1469,386,3.35785,20.6588
252,638,3.35437,-20.4195,-0.00257164,0.00789982,0.00386542,0.00917211,-0.00384393,1.25282,0.00772184,0.0162306,1476,386,3.35442,20.4195
259,638,3.31897,-20.2103,-0.00189768,0.00908073,0.00456728,0.0107323,-0.0035493,1.22381,0.00858612,0.015226,1483,386,3.31902,20.2103
266,638,3.26221,-19.9798,-0.00126512,0.0104619,0.00542478,0.0125865,-0.00338966,1.19752,0.00971993,0.0115602,1490,386,3.26218,19.9798
273,638,3.25928,-19.7617,-0.000671266,0.011948,0.00630876,0.0145609,-0.00328418,1.17813,0.0109672,0.0106551,1497,386,3.25928,19.7617
280,638,3.31494,-19.4552,-5.21528e-05,0.0131362,0.00716146,0.016277,-0.00319295,1.15749,0.0120574,0.020768,1504,386,3.31492,19.4552
287,638,3.52612,-18.9556,0.00051992,0.0144608,0.0082552,0.0182948,-0.00331405,1.13601,0.0134381,0.0384431,1511,386,3.52617,18.9556
294,638,3.37012,-18.7849,0.00116577,0.0156254,0.00923003,0.0201201,-0.00332889,1.11763,0.0146496,0.0487182,1518,386,3.37007,18.7849
301,638,3.24365,-18.5157,0,0,0,0,0,0,0,-1,1525,386,3.24368,18.5157
308,638,3.52771,-18.0247,0,0,0,0,0,0,0,-1,1532,386,3.52777,18.0247
315,638,3.7572,-17.7492,0,0,0,0,0,0,0,-1,1539,386,3.75721,17.7492
322,638,3.41968,-17.698,0,0,0,0,0,0,0,-1,1546,386,3.41967,17.698
329,638,3.31995,-18.0058,0,0,0,0,0,0,0,-1,1553,386,3.31995,18.0058
336,638,3.0708,-16.248,0,0,0,0,0,0,0,-1,1560,386,3.07077,16.248
343,638,-0.128174,-12.1073,0,0,0,0,0,0,0,-1,1567,386,-0.128176,12.1073
350,638,2.3783,-11.33,0,0,0,0,0,0,0,-1,1574,386,2.37831,11.33
357,638,0.130371,-3.02618,0,0,0,0,0,0,0,-1,1581,386,0.130345,3.0262
364,638,3.78149,-6.45215,0,0,0,0,0,0,0,-1,1588,386,3.78155,6.45216
371,638,4.18604,-6.71164,0,0,0,0,0,0,0,-1,1595,386,4.18598,6.71164
378,638,4.59045,-6.97113,0,0,0,0,0,0,0,-1,1602,386,4.5904,6.97112
385,638,0,0,0,0,0,0,0,0,0,-1,1609,386,0,0
392,638,0,0,0,0,0,0,0,0,0,-1,1616,386,0,0
399,638,0,0,0,0,0,0,0,0,0,-1,1623,386,0,0
406,638,0,0,0,0,0,0,0,0,0,-1,1630,386,0,0
413,638,0,0,0,0,0,0,0,0,0,-1,1637,386,0,0
420,638,0,0,0,0,0,0,0,0,0,-1,1644,386,0,0
427,638,0,0,0,0,0,0,0,0,0,-1,1651,386,0,0
434,638,0,0,0,0,0,0,0,0,0,-1,1658,386,0,0
441,638,0,0,0,0,0,0,0,0,0,-1,1665,386,0,0
448,638,0,0,0,0,0,0,0,0,0,-1,1672,386,0,0
455,638,0,0,0,0,0,0,0,0,0,-1,1679,386,0,0
462,638,0,0,0,0,0,0,0,0,0,-1,1686,386,0,0
469,638,0,0,0,0,0,0,0,0,0,-1,1693,386,0,0
476,638,0,0,0,0,0,0,0,0,0,-1,1700,386,0,0
483,638,0,0,0,0,0,0,0,0,0,-1,1707,386,0,0
490,638,0,0,0,0,0,0,0,0,0,-1,1714,386,0,0
497,638,0,0,0,0,0,0,0,0,0,-1,1721,386,0,0
504,638,0,0,0,0,0,0,0,0,0,-1,1728,386,0,0
511,638,0,0,0,0,0,0,0,0,0,-1,1735,386,0,0
518,638,0,0,0,0,0,0,0,0,0,-1,1742,386,0,0
525,638,0,0,0,0,0,0,0,0,0,-1,1749,386,0,0
532,638,0,0,0,0,0,0,0,0,0,-1,1756,386,0,0
539,638,0,0,0,0,0,0,0,0,0,-1,1763,386,0,0
546,638,0,0,0,0,0,0,0,0,0,-1,1770,386,0,0
553,638,0,0,0,0,0,0,0,0,0,-1,1777,386,0,0
560,638,0,0,0,0,0,0,0,0,0,-1,1784,386,0,0
567,638,0,0,0,0,0,0,0,0,0,-1,1791,386,0,0
574,638,0,0,0,0,0,0,0,0,0,-1,1798,386,0,0
581,638,0,0,0,0,0,0,0,0,0,-1,1805,386,0,0
588,638,0,0,0,0,0,0,0,0,0,-1,1812,386,0,0
595,638,0,0,0,0,0,0,0,0,0,-1,1819,386,0,0
602,638,0,0,0,0,0,0,0,0,0,-1,1826,386,0,0
609,638,0,0,0,0,0,0,0,0,0,-1,1833,386,0,0
616,638,0,0,0,0,0,0,0,0,0,-1,1840,386,0,0
623,638,0,0,0,0,0,0,0,0,0,-1,1847,386,0,0
630,638,0,0,0,0,0,0,0,0,0,-1,1854,386,0,0
637,638,0,0,0,0,0,0,0,0,0,-1,1861,386,0,0
644,638,0,0,0,0,0,0,0,0,0,-1,1868,386,0,0
651,638,0,0,0,0,0,0,0,0,0,-1,1875,386,0,0
658,638,0,0,0,0,0,0,0,0,0,-1,1882,386,0,0
665,638,0,0,0,0,0,0,0,0,0,-1,1889,386,0,0
672,638,0,0,0,0,0,0,0,0,0,-1,1896,386,0,0
679,638,0,0,0,0,0,0,0,0,0,-1,1903,386,0,0
686,638,0,0,0,0,0,0,0,0,0,-1,1910,386,0,0
693,638,0,0,0,0,0,0,0,0,0,-1,1917,386,0,0
700,638,0,0,0,0,0,0,0,0,0,-1,1924,386,0,0
707,638,0,0,0,0,0,0,0,0,0,-1,1931,386,0,0
714,638,0,0,0,0,0,0,0,0,0,-1,1938,386,0,0
721,638,0,0,0,0,0,0,0,0,0,-1,1945,386,0,0
728,638,0,0,0,0,0,0,0,0,0,-1,1952,386,0,0
735,638,0,0,0,0,0,0,0,0,0,-1,1959,386,0,0
742,638,0,0,0,0,0,0,0,0,0,-1,1966,386,0,0
749,638,0,0,0,0,0,0,0,0,0,-1,1973,386,0,0
756,638,0,0,0,0,0,0,0,0,0,-1,1980,386,0,0
763,638,0,0,0,0,0,0,0,0,0,-1,1987,386,0,0
770,638,0,0,0,0,0,0,0,0,0,-1,1994,386,0,0
777,638,0,0,0,0,0,0,0,0,0,-1,2001,386,0,0
784,638,0,0,0,0,0,0,0,0,0,-1,2008,386,0,0
791,638,0,0,0,0,0,0,0,0,0,-1,2015,386,0,0
798,638,0,0,0,0,0,0,0,0,0,-1,2022,386,0,0
805,638,0,0,0,0,0,0,0,0,0,-1,2029,386,0,0
812,638,0,0,0,0,0,0,0,0,0,-1,2036,386,0,0
-700,631,0,0,0,0,0,0,0,0,0,-1,524,393,0,0
-693,631,0,0,0,0,0,0,0,0,0,-1,531,393,0,0
-686,631,0,0,0,0,0,0,0,0,0,-1,538,393,0,0
-679,631,0,0,0,0,0,0,0,0,0,-1,545,393,0,0
-672,631,0,0,0,0,0,0,0,0,0,-1,552,393,0,0
-665,631,0,0,0,0,0,0,0,0,0,-1,559,393,0,0
-658,631,0,0,0,0,0,0,0,0,0,-1,566,393,0,0
-651,631,0,0,0,0,0,0,0,0,0,-1,573,393,0,0
-644,631,0,0,0,0,0,0,0,0,0,-1,580,393,0,0
-637,631,0,0,0,0,0,0,0,0,0,-1,587,393,0,0
-630,631,0,0,0,0,0,0,0,0,0,-1,594,393,0,0
-623,631,0,0,0,0,0,0,0,0,0,-1,601,393,0,0
-616,631,0,0,0,0,0,0,0,0,0,-1,608,393,0,0
-609,631,0,0,0,0,0,0,0,0,0,-1,615,393,0,0
-602,631,0,0,0,0,0,0,0,0,0,-1,622,393,0,0
-595,631,0,0,0,0,0,0,0,0,0,-1,629,393,0,0
-588,631,0,0,0,0,0,0,0,0,0,-1,636,393,0,0
-581,631,0,0,0,0,0,0,0,0,0,-1,643,393,0,0
-574,631,0,0,0,0,0,0,0,0,0,-1,650,393,0,0
-567,631,0,0,0,0,0,0,0,0,0,-1,657,393,0,0
-560,631,0,0,0,0,0,0,0,0,0,-1,664,393,0,0
-553,631,0,0,0,0,0,0,0,0,0,-1,671,393,0,0
-546,631,0,0,0,0,0,0,0,0,0,-1,678,393,0,0
-539,631,0,0,0,0,0,0,0,0,0,-1,685,393,0,0
-532,631,0,0,0,0,0,0,0,0,0,-1,692,393,0,0
-525,631,0,0,0,0,0,0,0,0,0,-1,699,393,0,0
-518,631,0,0,0,0,0,0,0,0,0,-1,706,393,0,0
-511,631,0,0,0,0,0,0,0,0,0,-1,713,393,0,0
-504,631,0,0,0,0,0,0,0,0,0,-1,720,393,0,0
-497,631,0,0,0,0,0,0,0,0,0,-1,727,393,0,0
-490,631,0,0,0,0,0,0,0,0,0,-1,734,393,0,0
-483,631,0,0,0,0,0,0,0,0,0,-1,741,393,0,0
-476,631,0,0,0,0,0,0,0,0,0,-1,748,393,0,0
-469,631,0,0,0,0,0,0,0,0,0,-1,755,393,0,0
-462,631,0,0,0,0,0,0,0,0,0,-1,762,393,0,0
-455,631,0,0,0,0,0,0,0,0,0,-1,769,393,0,0
-448,631,0,0,0,0,0,0,0,0,0,-1,776,393,0,0
-441,631,0,0,0,0,0,0,0,0,0,-1,783,393,0,0
-434,631,0,0,0,0,0,0,0,0,0,-1,790,393,0,0
-427,631,0,0,0,0,0,0,0,0,0,-1,797,393,0,0
-420,631,0,0,0,0,0,0,0,0,0,-1,804,393,0,0
-413,631,0,0,0,0,0,0,0,0,0,-1,811,393,0,0
-406,631,0,0,0,0,0,0,0,0,0,-1,818,393,0,0
-399,631,0,0,0,0,0,0,0,0,0,-1,825,393,0,0
-392,631,0,0,0,0,0,0,0,0,0,-1,832,393,0,0
-385,631,0,0,0,0,0,0,0,0,0,-1,839,393,0,0
-378,631,0,0,0,0,0,0,0,0,0,-1,846,393,0,0
-371,631,0,0,0,0,0,0,0,0,0,-1,853,393,0,0
-364,631,0,0,0,0,0,0,0,0,0,-1,860,393,0,0
-357,631,0,0,0,0,0,0,0,0,0,-1,867,393,0,0
-350,631,0,0,0,0,0,0,0,0,0,-1,874,393,0,0
-343,631,0,0,0,0,0,0,0,0,0,-1,881,393,0,0
-336,631,0,0,0,0,0,0,0,0,0,-1,888,393,0,0
-329,631,0,0,0,0,0,0,0,0,0,-1,895,393,0,0
-322,631,0,0,0,0,0,0,0,0,0,-1,902,393,0,0
-315,631,0,0,0,0,0,0,0,0,0,-1,909,393,0,0
-308,631,0,0,0,0,0,0,0,0,0,-1,916,393,0,0
-301,631,0,0,0,0,0,0,0,0,0,-1,923,393,0,0
-294,631,0,0,0,0,0,0,0,0,0,-1,930,393,0,0
-287,631,0,0,0,0,0,0,0,0,0,-1,937,393,0,0
-280,631,1.55042,-14.0146,0,0,0,0,0,0,0,-1,944,393,1.55041,14.0146
-273,631,2.41461,-11.6467,0,0,0,0,0,0,0,-1,951,393,2.41461,11.6467
-266,631,1.18927,-15.6338,0,0,0,0,0,0,0,-1,958,393,1.18924,15.6338
-259,631,1.46075,-16.2269,0,0,0,0,0,0,0,-1,965,393,1.46073,16.2269
-252,631,1.83551,-16.9416,0,0,0,0,0,0,0,-1,972,393,1.83554,16.9416
-245,631,2.29022,-17.5462,0,0,0,0,0,0,0,-1,979,393,2.29022,17.5462
-238,631,2.534,-17.8409,0,0,0,0,0,0,0,-1,986,393,2.534,17.8409
-231,631,2.58472,-18.1731,0,0,0,0,0,0,0,-1,993,393,2.58472,18.1731
-224,631,5.24615,-18.3286,0,0,0,0,0,0,0,-1,1000,393,5.24613,18.3286
-217,631,5.05188,-18.3867,0,0,0,0,0,0,0,-1,1007,393,5.0519,18.3866
-210,631,3.94629,-18.0287,0,0,0,0,0,0,0,-1,1014,393,3.94627,18.0286
-203,631,4.02893,-18.2311,0,0,0,0,0,0,0,-1,1021,393,4.02896,18.2311
-196,631,3.92163,-18.5235,0,0,0,0,0,0,0,-1,1028,393,3.92167,18.5235
-189,631,3.8562,-18.6531,0,0,0,0,0,0,0,-1,1035,393,3.85625,18.6531
-182,631,3.83691,-18.7538,0,0,0,0,0,0,0,-1,1042,393,3.83691,18.7538
-175,631,3.67566,-19.4649,-0.0134977,-0.0150235,-0.00221687,-0.0119161,-0.016605,-0.619682,0.00988497,0.0354145,1049,393,3.67566,19.4649
-168,631,3.6532,-19.8145,-0.0113812,-0.0113313,-0.00226735,-0.00908874,-0.0136237,-0.790899,0.00801078,0.0184061,1056,393,3.65321,19.8145
-161,631,3.6554,-20.0677,-0.00932313,-0.00771447,-0.00186729,-0.00648564,-0.0105519,-0.988763,0.00614531,0.0093418,1063,393,3.65539,20.0677
-154,631,3.64722,-20.3204,-0.00752777,-0.00405753,-0.00131925,-0.00361296,-0.00797234,-1.24576,0.00460955,0.00890712,1070,393,3.64725,20.3204
-147,631,3.63684,-20.5409,-0.00601851,-0.00120004,-0.000882188,-0.0010436,-0.00617495,-1.39529,0.00381663,0.0098081,1077,393,3.63683,20.5409
-140,631,3.62122,-20.7453,-0.00470947,0.00116247,-0.000416784,0.0011919,-0.0047389,-1.50029,0.00362253,0.00988658,1084,393,3.62125,20.7453
-133,631,3.59973,-20.9432,-0.00324231,0.00408632,-8.07809e-05,0.00408721,-0.0032432,-1.55978,0.00424155,0.00887526,1091,393,3.59977,20.9432
-126,631,3.59387,-21.1169,-0.00222926,0.00591965,0.000179901,0.00592362,-0.00223323,1.54873,0.00486737,0.0130982,1098,393,3.59384,21.1169
-119,631,3.56348,-21.3024,-0.0019946,0.00615494,0.000676802,0.00621077,-0.00205043,1.4885,0.00496712,0.0167668,1105,393,3.56353,21.3024
-112,631,3.56384,-21.4919,-0.00156102,0.00656996,0.00102539,0.00669727,-0.00168834,1.44726,0.00512125,0.0150863,1112,393,3.56381,21.4919
-105,631,3.60156,-21.6722,-0.00129344,0.00632394,0.000956559,0.00644222,-0.00141172,1.44777,0.00483459,0.0174082,1119,393,3.60159,21.6722
-98,631,3.54578,-21.8456,-0.00111119,0.00586292,0.00082796,0.00595986,-0.00120814,1.45424,0.0044312,0.0147072,1126,393,3.54572,21.8456
-91,631,3.49475,-22.0003,-0.000803572,0.00542608,0.000579116,0.00547946,-0.00085695,1.47888,0.00396957,0.0168413,1133,393,3.4948,22.0003
-84,631,3.50867,-22.1557,-0.000651914,0.00463363,0.000435552,0.00466928,-0.000687565,1.48913,0.00336553,0.016585,1140,393,3.50863,22.1557
-77,631,3.48987,-22.3181,-0.000596366,0.00380349,0.000292088,0.00382279,-0.000615672,1.5048,0.0027766,0.0109111,1147,393,3.48984,22.3181
-70,631,3.4967,-22.4482,-0.000436031,0.00300328,0.000266174,0.00302375,-0.000456509,1.49401,0.00218397,0.0110318,1154,393,3.49675,22.4482
-63,631,3.49866,-22.5749,-0.000402394,0.00271438,0.000150202,0.0027216,-0.000409615,1.52275,0.00196522,0.0115422,1161,393,3.49863,22.5748
-56,631,3.4812,-22.7035,-0.000351453,0.00234473,-0.000170269,0.00235544,-0.000362163,-1.50798,0.00170389,0.0129227,1168,393,3.48121,22.7035
-49,631,3.48059,-22.8138,-0.000210607,0.00158439,-0.000308269,0.00163586,-0.000262073,-1.40537,0.00118761,0.0112464,1175,393,3.48063,22.8137
-42,631,3.46326,-22.9225,-9.76559e-05,0.000978315,-0.000327896,0.00107037,-0.000189706,-1.29711,0.000784495,0.00913514,1182,393,3.46323,22.9225
-35,631,3.47034,-23.0303,-0.00015989,0.000418218,-0.000403383,0.000625421,-0.000367092,-1.09628,0.000579461,0.00989399,1189,393,3.47032,23.0303
-28,631,3.4884,-23.1201,-0.000304226,-0.0003782,-0.000548344,0.000208378,-0.000890803,-0.751723,0.00067415,0.012971,1196,393,3.48838,23.1201
-21,631,3.46155,-23.2088,-0.000347259,-0.00103263,-0.000813413,0.000192708,-0.0015726,-0.586035,0.00111818,0.0113026,1203,393,3.46161,23.2088
-14,631,3.44751,-23.2928,-0.000491692,-0.0018134,-0.00112245,0.000150002,-0.0024551,-0.519342,0.00168895,0.0132877,1210,393,3.44753,23.2928
-7,631,3.44324,-23.4192,-0.000628929,-0.00235701,-0.00153163,0.000265569,-0.00325151,-0.528584,0.0022614,0.0212299,1217,393,3.44328,23.4192
0,631,3.44336,-23.458,-0.000729521,-0.00283307,-0.00187769,0.000370904,-0.00393349,-0.5301,0.0027543,0.0234433,1224,393,3.44336,23.458
7,631,3.45801,-23.4725,-0.000541215,-0.00313561,-0.002076,0.000609545,-0.00428637,-0.506151,0.00308093,0.0187903,1231,393,3.45801,23.4725
14,631,3.48511,-23.5233,-0.000110709,-0.00330843,-0.00216791,0.00098416,-0.0044033,-0.467667,0.00331268,0.0109908,1238,393,3.48511,23.5233
21,631,3.50476,-23.5724,0.000235864,-0.00332107,-0.00212188,0.00122603,-0.00431123,-0.43661,0.00335828,0.0126775,1245,393,3.50478,23.5724
28,631,3.5094,-23.5992,0.00062597,-0.00326878,-0.00180741,0.00133548,-0.00397829,-0.37407,0.00319188,0.0142548,1252,393,3.50941,23.5992
35,631,3.5238,-23.6112,0.00114443,-0.00294829,-0.00141371,0.00158527,-0.00338913,-0.302276,0.00293424,0.0136203,1259,393,3.52382,23.6112
42,631,3.55054,-23.6316,0.00193937,-0.0028262,-0.000925518,0.0021128,-0.00299964,-0.185241,0.00296643,0.0120652,1266,393,3.55049,23.6316
49,631,3.54907,-23.6354,0.00274974,-0.00233902,-0.000433001,0.00278632,-0.0023756,-0.0842823,0.00298338,0.010463,1273,393,3.54902,23.6354
56,631,3.5415,-23.6393,0.00321715,-0.00185095,-1.12258e-06,0.00321715,-0.00185095,-0.0002215,0.0029613,0.0123971,1280,393,3.54154,23.6393
63,631,3.52917,-23.6605,0.00349189,-0.001449,0.00052109,0.00354625,-0.00150336,0.103941,0.00299387,0.0144274,1287,393,3.52912,23.6604
70,631,3.54895,-23.6451,0.00366772,-0.00124346,0.000931911,0.0038386,-0.00141435,0.181358,0.00313861,0.0144717,1294,393,3.54896,23.6451
77,631,3.56445,-23.6138,0.00372789,-0.000954165,0.00113063,0.00398662,-0.0012129,0.224963,0.0031411,0.0153419,1301,393,3.56441,23.6138
84,631,3.58704,-23.5789,0.00333488,-0.000649176,0.00128061,0.003711,-0.0010253,0.285673,0.00287732,0.013508,1308,393,3.58709,23.5789
91,631,3.58936,-23.5204,0.00272764,-0.000683785,0.00122775,0.00312356,-0.0010797,0.311941,0.00252057,0.0162917,1315,393,3.5893,23.5204
98,631,3.58105,-23.475,0.00212831,-0.000852881,0.00124527,0.00258003,-0.0013046,0.347984,0.00228273,0.0132296,1322,393,3.58099,23.475
105,631,3.56934,-23.4186,0.00158353,-0.00103955,0.0011594,0.00202251,-0.00147854,0.361952,0.00202945,0.011034,1329,393,3.56936,23.4186
112,631,3.59436,-23.3495,0.000964079,-0.00135992,0.000936619,0.00129456,-0.0016904,0.339207,0.00172841,0.0121028,1336,393,3.59441,23.3494
119,631,3.60718,-23.3018,0.000368859,-0.0015769,0.000829767,0.000674654,-0.00188269,0.353087,0.00153041,0.0125175,1343,393,3.60718,23.3019
126,631,3.61804,-23.2018,0.000207726,-0.00178486,0.000681467,0.000418494,-0.00199563,0.299954,0.00148964,0.0175167,1350,393,3.61808,23.2018
133,631,3.64368,-23.114,0.000192767,-0.00186467,0.000454895,0.000288856,-0.00196076,0.208172,0.00141333,0.0186971,1357,393,3.64371,23.114
140,631,3.64539,-23.0444,0.000143167,-0.00197778,0.00035281,0.000200315,-0.00203493,0.160586,0.00142808,0.0195753,1364,393,3.64539,23.0444
147,631,3.63855,-22.9074,7.75261e-05,-0.00188351,0.00026681,0.000113179,-0.00191917,0.132839,0.00131879,0.0239565,1371,393,3.63857,22.9074
154,631,3.65308,-22.7972,0.000160288,-0.0017669,0.000205208,0.000181896,-0.00178851,0.104913,0.00125737,0.0235813,1378,393,3.65311,22.7972
161,631,3.66602,-22.7015,0.000400905,-0.0013601,0.000193698,0.000421958,-0.00138116,0.108268,0.00108902,0.0254044,1385,393,3.66597,22.7015
168,631,3.67969,-22.5615,0.000501519,-0.000696635,0.000233747,0.000545506,-0.000740622,0.186006,0.000745389,0.0299186,1392,393,3.67968,22.5615
175,631,3.63599,-22.4413,0.000444473,-1.13859e-05,0.000328077,0.000616027,-0.000182939,0.481803,0.000483345,0.0216183,1399,393,3.63597,22.4414
182,631,3.64709,-22.3004,0.000253054,0.000597015,0.000515454,0.000968422,-0.000118353,0.946416,0.000688465,0.0109492,1406,393,3.64713,22.3004
189,631,3.65259,-22.136,-8.48479e-05,0.00129068,0.0007779,0.00164126,-0.000435423,1.14739,0.00126455,0.0102133,1413,393,3.65259,22.1359
196,631,3.62683,-21.9905,-0.000472789,0.00177416,0.000983376,0.00214374,-0.000842374,1.2113,0.00177777,0.0118301,1420,393,3.62682,21.9905
203,631,3.62048,-21.8351,-0.000885983,0.00227778,0.00111057,0.0026287,-0.0012369,1.26474,0.00227951,0.0145137,1427,393,3.62049,21.8351
210,631,3.60571,-21.6685,-0.00128805,0.00266032,0.00126863,0.0030328,-0.00166053,1.28522,0.00274803,0.0160215,1434,393,3.60568,21.6685
217,631,3.6106,-21.4789,-0.00169179,0.00309846,0.00143069,0.00349323,-0.00208656,1.30157,0.00325543,0.0162527,1441,393,3.61057,21.4789
224,631,3.59595,-21.275,-0.00194091,0.003551,0.00158082,0.00397352,-0.00236343,1.30962,0.0036978,0.0133578,1448,393,3.59591,21.275
231,631,3.56909,-21.0697,-0.00194124,0.00398094,0.00188383,0.00452939,-0.0024897,1.28749,0.00410911,0.0114681,1455,393,3.56911,21.0697
238,631,3.53992,-20.8645,-0.00190818,0.00472301,0.00231184,0.00544942,-0.00263459,1.26635,0.00476068,0.016915,1462,393,3.53988,20.8645
245,631,3.55579,-20.6806,-0.00185952,0.00547698,0.0026726,0.00634733,-0.00272986,1.25597,0.00537765,0.018255,1469,393,3.55577,20.6806
252,631,3.53979,-20.4777,-0.00156753,0.00625269,0.00308452,0.00732286,-0.0026377,1.23684,0.00595902,0.0173156,1476,393,3.53976,20.4777
259,631,3.5022,-20.2428,-0.00113741,0.00718973,0.00366082,0.00857025,-0.00251793,1.21018,0.00671212,0.0127246,1483,393,3.50221,20.2428
266,631,3.51221,-20.0214,-0.000761232,0.00825199,0.00434733,0.0100071,-0.00251631,1.18709,0.00764938,0.0113287,1490,393,3.51221,20.0214
273,631,3.49951,-19.7936,-0.000426107,0.0093547,0.00502755,0.011478,-0.00254943,1.17118,0.0086283,0.0135824,1497,393,3.49957,19.7936
280,631,3.48254,-19.5302,-5.62115e-05,0.0102187,0.0057036,0.0127574,-0.00259499,1.15201,0.00948898,0.0119914,1504,393,3.48255,19.5302
287,631,3.47412,-19.2554,0.000302116,0.0112109,0.00657351,0.0142983,-0.00278523,1.13171,0.0105835,0.013204,1511,393,3.47418,19.2554
294,631,3.46582,-18.9493,0.000686218,0.0120756,0.00733182,0.0156645,-0.00290268,1.11559,0.011533,0.0166038,1518,393,3.46577,18.9493
301,631,3.43823,-18.6111,0.000973946,0.0132727,0.00821487,0.0173849,-0.00313821,1.10669,0.0127652,0.0246425,1525,393,3.43826,18.6111
308,631,3.60571,-18.2293,0.000943778,0.0139717,0.00891088,0.0184956,-0.00358017,1.10102,0.0136809,0.0330029,1532,393,3.60575,18.2293
315,631,3.71301,-17.9657,0.000850049,0.0144739,0.00964211,0.0194676,-0.00414366,1.09293,0.0145575,0.0388659,1539,393,3.71306,17.9657
322,631,3.53027,-17.8361,0.000703544,0.014853,0.0103616,0.0203248,-0.00476822,1.08494,0.0153875,0.0416302,1546,393,3.53022,17.8361
329,631,3.48303,-17.758,0.000333707,0.0150756,0.0109211,0.0208804,-0.0054711,1.08225,0.0160577,0.0489534,1553,393,3.48306,17.758
336,631,3.59241,-17.3481,0,0,0,0,0,0,0,-1,1560,393,3.59236,17.3482
343,631,2.45703,-11.5554,0,0,0,0,0,0,0,-1,1567,393,2.45703,11.5554
350,631,2.1344,-9.23401,0,0,0,0,0,0,0,-1,1574,393,2.13439,9.23401
357,631,2.6449,-9.60303,0,0,0,0,0,0,0,-1,1581,393,2.64491,9.60304
364,631,3.39136,-5.7594,0,0,0,0,0,0,0,-1,1588,393,3.39137,5.75939
371,631,3.72839,-6.0574,0,0,0,0,0,0,0,-1,1595,393,3.72845,6.05742
378,631,4.06555,-6.35544,0,0,0,0,0,0,0,-1,1602,393,4.06553,6.35544
385,631,3.90442,-3.58298,0,0,0,0,0,0,0,-1,1609,393,3.90437,3.58299
392,631,0.352295,-2.21301,0,0,0,0,0,0,0,-1,1616,393,0.352345,2.213
399,631,0,0,0,0,0,0,0,0,0,-1,1623,393,0,0
406,631,0,0,0,0,0,0,0,0,0,-1,1630,393,0,0
413,631,0,0,0,0,0,0,0,0,0,-1,1637,393,0,0
420,631,0,0,0,0,0,0,0,0,0,-1,1644,393,0,0
427,631,0,0,0,0,0,0,0,0,0,-1,1651,393,0,0
434,631,0,0,0,0,0,0,0,0,0,-1,1658,393,0,0
441,631,0,0,0,0,0,0,0,0,0,-1,1665,393,0,0
448,631,0,0,0,0,0,0,0,0,0,-1,1672,393,0,0
455,631,0,0,0,0,0,0,0,0,0,-1,1679,393,0,0
462,631,0,0,0,0,0,0,0,0,0,-1,1686,393,0,0
469,631,0,0,0,0,0,0,0,0,0,-1,1693,393,0,0
476,631,0,0,0,0,0,0,0,0,0,-1,1700,393,0,0
483,631,0,0,0,0,0,0,0,0,0,-1,1707,393,0,0
490,631,0,0,0,0,0,0,0,0,0,-1,1714,393,0,0
497,631,0,0,0,0,0,0,0,0,0,-1,1721,393,0,0
504,631,0,0,0,0,0,0,0,0,0,-1,1728,393,0,0
511,631,0,0,0,0,0,0,0,0,0,-1,1735,393,0,0
518,631,0,0,0,0,0,0,0,0,0,-1,1742,393,0,0
525,631,0,0,0,0,0,0,0,0,0,-1,1749,393,0,0
532,631,0,0,0,0,0,0,0,0,0,-1,1756,393,0,0
539,631,0,0,0,0,0,0,0,0,0,-1,1763,393,0,0
546,631,0,0,0,0,0,0,0,0,0,-1,1770,393,0,0
553,631,0,0,0,0,0,0,0,0,0,-1,1777,393,0,0
560,631,0,0,0,0,0,0,0,0,0,-1,1784,393,0,0
567,631,0,0,0,0,0,0,0,0,0,-1,1791,393,0,0
574,631,0,0,0,0,0,0,0,0,0,-1,1798,393,0,0
581,631,0,0,0,0,0,0,0,0,0,-1,1805,393,0,0
588,631,0,0,0,0,0,0,0,0,0,-1,1812,393,0,0
595,631,0,0,0,0,0,0,0,0,0,-1,1819,393,0,0
602,631,0,0,0,0,0,0,0,0,0,-1,1826,393,0,0
609,631,0,0,0,0,0,0,0,0,0,-1,1833,393,0,0
616,631,0,0,0,0,0,0,0,0,0,-1,1840,393,0,0
623,631,0,0,0,0,0,0,0,0,0,-1,1847,393,0,0
630,631,0,0,0,0,0,0,0,0,0,-1,1854,393,0,0
637,631,0,0,0,0,0,0,0,0,0,-1,1861,393,0,0
644,631,0,0,0,0,0,0,0,0,0,-1,1868,393,0,0
651,631,0,0,0,0,0,0,0,0,0,-1,1875,393,0,0
658,631,0,0,0,0,0,0,0,0,0,-1,1882,393,0,0
665,631,0,0,0,0,0,0,0,0,0,-1,1889,393,0,0
672,631,0,0,0,0,0,0,0,0,0,-1,1896,393,0,0
679,631,0,0,0,0,0,0,0,0,0,-1,1903,393,0,0
686,631,0,0,0,0,0,0,0,0,0,-1,1910,393,0,0
693,631,0,0,0,0,0,0,0,0,0,-1,1917,393,0,0
700,631,0,0,0,0,0,0,0,0,0,-1,1924,393,0,0
707,631,0,0,0,0,0,0,0,0,0,-1,1931,393,0,0
714,631,0,0,0,0,0,0,0,0,0,-1,1938,393,0,0
721,631,0,0,0,0,0,0,0,0,0,-1,1945,393,0,0
728,631,0,0,0,0,0,0,0,0,0,-1,1952,393,0,0
735,631,0,0,0,0,0,0,0,0,0,-1,1959,393,0,0
742,631,0,0,0,0,0,0,0,0,0,-1,1966,393,0,0
749,631,0,0,0,0,0,0,0,0,0,-1,1973,393,0,0
756,631,0,0,0,0,0,0,0,0,0,-1,1980,393,0,0
763,631,0,0,0,0,0,0,0,0,0,-1,1987,393,0,0
770,631,0,0,0,0,0,0,0,0,0,-1,1994,393,0,0
777,631,0,0,0,0,0,0,0,0,0,-1,2001,393,0,0
784,631,0,0,0,0,0,0,0,0,0,-1,2008,393,0,0
791,631,0,0,0,0,0,0,0,0,0,-1,2015,393,0,0
798,631,0,0,0,0,0,0,0,0,0,-1,2022,393,0,0
805,631,0,0,0,0,0,0,0,0,0,-1,2029,393,0,0
812,631,0,0,0,0,0,0,0,0,0,-1,2036,393,0,0
-700,624,0,0,0,0,0,0,0,0,0,-1,524,400,0,0
-693,624,0,0,0,0,0,0,0,0,0,-1,531,400,0,0
-686,624,0,0,0,0,0,0,0,0,0,-1,538,400,0,0
-679,624,0,0,0,0,0,0,0,0,0,-1,545,400,0,0
-672,624,0,0,0,0,0,0,0,0,0,-1,552,400,0,0
-665,624,0,0,0,0,0,0,0,0,0,-1,559,400,0,0
-658,624,0,0,0,0,0,0,0,0,0,-1,566,400,0,0
-651,624,0,0,0,0,0,0,0,0,0,-1,573,400,0,0
-644,624,0,0,0,0,0,0,0,0,0,-1,580,400,0,0
-637,624,0,0,0,0,0,0,0,0,0,-1,587,400,0,0
-630,624,0,0,0,0,0,0,0,0,0,-1,594,400,0,0
-623,624,0,0,0,0,0,0,0,0,0,-1,601,400,0,0
-616,624,0,0,0,0,0,0,0,0,0,-1,608,400,0,0
-609,624,0,0,0,0,0,0,0,0,0,-1,615,400,0,0
-602,624,0,0,0,0,0,0,0,0,0,-1,622,400,0,0
-595,624,0,0,0,0,0,0,0,0,0,-1,629,400,0,0
-588,624,0,0,0,0,0,0,0,0,0,-1,636,400,0,0
-581,624,0,0,0,0,0,0,0,0,0,-1,643,400,0,0
-574,624,0,0,0,0,0,0,0,0,0,-1,650,400,0,0
-567,624,0,0,0,0,0,0,0,0,0,-1,657,400,0,0
-560,624,0,0,0,0,0,0,0,0,0,-1,664,400,0,0
-553,624,0,0,0,0,0,0,0,0,0,-1,671,400,0,0
-546,624,0,0,0,0,0,0,0,0,0,-1,678,400,0,0
-539,624,0,0,0,0,0,0,0,0,0,-1,685,400,0,0
-532,624,0,0,0,0,0,0,0,0,0,-1,692,400,0,0
-525,624,0,0,0,0,0,0,0,0,0,-1,699,400,0,0
-518,624,0,0,0,0,0,0,0,0,0,-1,706,400,0,0
-511,624,0,0,0,0,0,0,0,0,0,-1,713,400,0,0
-504,624,0,0,0,0,0,0,0,0,0,-1,720,400,0,0
-497,624,0,0,0,0,0,0,0,0,0,-1,727,400,0,0
-490,624,0,0,0,0,0,0,0,0,0,-1,734,400,0,0
-483,624,0,0,0,0,0,0,0,0,0,-1,741,400,0,0
-476,624,0,0,0,0,0,0,0,0,0,-1,748,400,0,0
-469,624,0,0,0,0,0,0,0,0,0,-1,755,400,0,0
-462,624,0,0,0,0,0,0,0,0,0,-1,762,400,0,0
-455,624,0,0,0,0,0,0,0,0,0,-1,769,400,0,0
-448,624,0,0,0,0,0,0,0,0,0,-1,776,400,0,0
-441,624,0,0,0,0,0,0,0,0,0,-1,783,400,0,0
-434,624,0,0,0,0,0,0,0,0,0,-1,790,400,0,0
-427,624,0,0,0,0,0,0,0,0,0,-1,797,400,0,0
-420,624,0,0,0,0,0,0,0,0,0,-1,804,400,0,0
-413,624,0,0,0,0,0,0,0,0,0,-1,811,400,0,0
-406,624,0,0,0,0,0,0,0,0,0,-1,818,400,0,0
-399,624,0,0,0,0,0,0,0,0,0,-1,825,400,0,0
-392,624,0,0,0,0,0,0,0,0,0,-1,832,400,0,0
-385,624,0,0,0,0,0,0,0,0,0,-1,839,400,0,0
-378,624,0,0,0,0,0,0,0,0,0,-1,846,400,0,0
-371,624,0,0,0,0,0,0,0,0,0,-1,853,400,0,0
-364,624,0,0,0,0,0,0,0,0,0,-1,860,400,0,0
-357,624,0,0,0,0,0,0,0,0,0,-1,867,400,0,0
-350,624,0,0,0,0,0,0,0,0,0,-1,874,400,0,0
-343,624,0,0,0,0,0,0,0,0,0,-1,881,400,0,0
-336,624,0,0,0,0,0,0,0,0,0,-1,888,400,0,0
-329,624,0,0,0,0,0,0,0,0,0,-1,895,400,0,0
-322,624,0,0,0,0,0,0,0,0,0,-1,902,400,0,0
-315,624,0,0,0,0,0,0,0,0,0,-1,909,400,0,0
-308,624,0,0,0,0,0,0,0,0,0,-1,916,400,0,0
-301,624,0,0,0,0,0,0,0,0,0,-1,923,400,0,0
-294,624,-0.912903,-12.9461,0,0,0,0,0,0,0,-1,930,400,-0.912926,12.9461
-287,624,0.12146,-15.0862,0,0,0,0,0,0,0,-1,937,400,0.121451,15.0862
-280,624,1.51831,-12.2324,0,0,0,0,0,0,0,-1,944,400,1.51834,12.2324
-273,624,2.42194,-10.4277,0,0,0,0,0,0,0,-1,951,400,2.42196,10.4277
-266,624,1.09729,-14.7566,0,0,0,0,0,0,0,-1,958,400,1.09731,14.7566
-259,624,1.5235,-15.5336,0,0,0,0,0,0,0,-1,965,400,1.52352,15.5336
-252,624,2.13629,-16.571,0,0,0,0,0,0,0,-1,972,400,2.13626,16.571
-245,624,3.10236,-18.6902,0,0,0,0,0,0,0,-1,979,400,3.10237,18.6902
-238,624,2.62347,-17.5465,0,0,0,0,0,0,0,-1,986,400,2.62347,17.5465
-231,624,2.60809,-17.6419,0,0,0,0,0,0,0,-1,993,400,2.60809,17.6419
-224,624,3.77899,-17.4924,0,0,0,0,0,0,0,-1,1000,400,3.77898,17.4924
-217,624,3.97864,-17.779,0,0,0,0,0,0,0,-1,1007,400,3.97865,17.779
-210,624,3.79462,-18.1473,0,0,0,0,0,0,0,-1,1014,400,3.79465,18.1473
-203,624,3.70361,-18.3937,-0.0129304,-0.0121829,-0.00169254,-0.0108233,-0.0142899,-0.894065,0.00860702,0.0425281,1021,400,3.70366,18.3937
-196,624,3.64441,-18.6865,-0.0125306,-0.0109956,-0.00172763,-0.00987266,-0.0136535,-0.994422,0.00814021,0.0385282,1028,400,3.64439,18.6865
-189,624,3.53784,-18.9231,-0.0115461,-0.00997256,-0.00196302,-0.00864451,-0.0128741,-0.975993,0.00757717,0.0369091,1035,400,3.53787,18.9231
-182,624,3.57275,-19.183,-0.0100973,-0.00848358,-0.00202197,-0.00711342,-0.0114674,-0.975237,0.00668431,0.0304886,1042,400,3.57279,19.183
-175,624,3.53711,-19.6017,-0.00864421,-0.00668787,-0.0020391,-0.00540446,-0.00992763,-1.00904,0.00573924,0.02011,1049,400,3.53712,19.6017
-168,624,3.48987,-19.8735,-0.00723719,-0.00478389,-0.00197897,-0.00368224,-0.00833884,-1.06284,0.00482537,0.0129824,1056,400,3.48982,19.8735
-161,624,3.46851,-20.1107,-0.00587926,-0.00293872,-0.00162143,-0.00222022,-0.00659777,-1.15367,0.0038765,0.0110009,1063,400,3.46848,20.1107
-154,624,3.4491,-20.3221,-0.004703,-0.00104827,-0.00117829,-0.000701328,-0.00504994,-1.28444,0.00315891,0.0100917,1070,400,3.4491,20.3221
-147,624,3.43433,-20.5571,-0.00370382,0.000345713,-0.000814175,0.000503275,-0.00386139,-1.37964,0.00275737,0.0109598,1077,400,3.43436,20.5571
-140,624,3.4187,-20.7534,-0.00279859,0.00149389,-0.000471289,0.00154503,-0.00284973,-1.46272,0.00257431,0.0100864,1084,400,3.41872,20.7534
-133,624,3.40881,-20.9445,-0.00179335,0.00309629,-0.000235007,0.00310756,-0.00180462,-1.52288,0.00286911,0.0112066,1091,400,3.40879,20.9445
-126,624,3.3866,-21.1304,-0.00109736,0.00401997,-6.2074e-05,0.00402072,-0.00109811,-1.55867,0.00311179,0.0134068,1098,400,3.38658,21.1304
-119,624,3.35181,-21.3206,-0.00086274,0.00410463,0.00022771,0.00411505,-0.000873157,1.52508,0.00307601,0.0156711,1105,400,3.35183,21.3206
-112,624,3.35352,-21.481,-0.000489498,0.00428222,0.000359822,0.0043092,-0.000516479,1.49595,0.00305952,0.0179685,1112,400,3.35351,21.481
-105,624,3.40894,-21.6628,-0.000183197,0.00413079,0.000218089,0.00414179,-0.000194194,1.52041,0.00282815,0.0133243,1119,400,3.40894,21.6628
-98,624,3.34998,-21.8415,4.96349e-05,0.00385395,2.60809e-05,0.00385413,4.9456e-05,1.56394,0.00255309,0.0128418,1126,400,3.34998,21.8415
-91,624,3.36304,-21.9904,0.000338566,0.00360215,-0.000225469,0.00361765,0.000323063,-1.50214,0.00231162,0.0177114,1133,400,3.36305,21.9904
-84,624,3.41321,-22.1614,0.000552171,0.0031183,-0.000374379,0.0031718,0.000498667,-1.42884,0.00196947,0.0164784,1140,400,3.41326,22.1614
-77,624,3.39832,-22.3253,0.000701048,0.00261797,-0.000483436,0.00273299,0.000586029,-1.33722,0.00166147,0.0121996,1147,400,3.39833,22.3253
-70,624,3.35999,-22.4261,0.000917294,0.00196854,-0.000499242,0.00216785,0.000717989,-1.19097,0.00127516,0.0132893,1154,400,3.35998,22.4261
-63,624,3.33679,-22.5587,0.0010893,0.00155378,-0.000509099,0.00188111,0.000761969,-0.99939,0.00109257,0.0144617,1161,400,3.33675,22.5587
-56,624,3.36121,-22.7008,0.00124966,0.00100452,-0.000541745,0.00168253,0.000571653,-0.674143,0.000987898,0.012136,1168,400,3.36116,22.7008
-49,624,3.38452,-22.8298,0.00146912,0.000143816,-0.000505319,0.0016398,-2.68715e-05,-0.32575,0.00110227,0.0103835,1175,400,3.38447,22.8298
-42,624,3.36145,-22.9278,0.00159993,-0.000969218,-0.000740553,0.0017981,-0.00116739,-0.261479,0.00172499,0.0089318,1182,400,3.36139,22.9278
-35,624,3.36145,-23.0239,0.0013442,-0.00216856,-0.000908713,0.00156535,-0.00238971,-0.238727,0.00229993,0.0135267,1189,400,3.36147,23.0239
-28,624,3.37024,-23.1532,0.000855309,-0.00354586,-0.00110575,0.0011175,-0.00380805,-0.232815,0.00298184,0.0193164,1196,400,3.37019,23.1532
-21,624,3.38464,-23.2289,0.000637083,-0.00455156,-0.00147444,0.0010268,-0.00494128,-0.258405,0.00368446,0.0143374,1203,400,3.3847,23.2289
-14,624,3.39148,-23.2934,0.000325425,-0.00564229,-0.00187698,0.000866688,-0.00618355,-0.280752,0.00443955,0.0152131,1210,400,3.39146,23.2934
-7,624,3.35559,-23.3516,-1.81504e-05,-0.00618357,-0.00233529,0.000766525,-0.00696824,-0.324156,0.00492094,0.0202409,1217,400,3.35555,23.3516
0,624,3.40051,-23.4086,-0.000341905,-0.00655921,-0.00261407,0.000611103,-0.00751222,-0.349594,0.00522377,0.0195795,1224,400,3.40048,23.4086
7,624,3.42615,-23.4532,-0.000217121,-0.00666391,-0.00266242,0.000740241,-0.00762128,-0.345187,0.00534471,0.0148557,1231,400,3.42612,23.4532
14,624,3.46399,-23.5479,0.00028597,-0.00655987,-0.00254603,0.00112904,-0.00740294,-0.319767,0.00535149,0.0124158,1238,400,3.46398,23.5479
21,624,3.47119,-23.5711,0.000685655,-0.00628493,-0.00227198,0.00136079,-0.00696006,-0.288847,0.00515387,0.0126085,1245,400,3.47119,23.5711
28,624,3.46484,-23.5949,0.00110306,-0.00590379,-0.00167992,0.00148501,-0.00628574,-0.22356,0.00476329,0.0118757,1252,400,3.46479,23.595
35,624,3.46228,-23.6201,0.00167032,-0.00523889,-0.00100917,0.00181471,-0.00538327,-0.142107,0.00432264,0.0150662,1259,400,3.46223,23.6202
42,624,3.49158,-23.6505,0.00267612,-0.00480286,-0.00029472,0.00268772,-0.00481446,-0.0393251,0.00438901,0.0171682,1266,400,3.49156,23.6504
49,624,3.54065,-23.6377,0.00379114,-0.0040999,0.000367975,0.00380827,-0.00411702,0.0464974,0.00457682,0.018463,1273,400,3.54065,23.6377
56,624,3.54065,-23.6548,0.00447034,-0.0034524,0.000908033,0.00457307,-0.00355514,0.112665,0.00470508,0.0187528,1280,400,3.54061,23.6548
63,624,3.55908,-23.6629,0.00480787,-0.00288318,0.00158077,0.00512009,-0.00319541,0.195005,0.00484363,0.0146518,1287,400,3.55908,23.6629
70,624,3.57385,-23.6578,0.00505944,-0.0025603,0.00201378,0.00555891,-0.00305978,0.243121,0.00504525,0.0129132,1294,400,3.57382,23.6578
77,624,3.58252,-23.6125,0.00523591,-0.00213717,0.00220484,0.00584494,-0.00274619,0.269502,0.0050665,0.013912,1301,400,3.58254,23.6125
84,624,3.60681,-23.5912,0.0048493,-0.00172849,0.00232272,0.0055868,-0.00246599,0.307448,0.00476424,0.0129222,1308,400,3.60687,23.5912
91,624,3.62,-23.553,0.00422548,-0.00170003,0.00215239,0.00492479,-0.00239934,0.31414,0.00431156,0.0133612,1315,400,3.61995,23.553
98,624,3.61963,-23.5092,0.0035481,-0.00188663,0.00206315,0.00424258,-0.00258111,0.324697,0.0039784,0.0128712,1322,400,3.61968,23.5092
105,624,3.63269,-23.4628,0.00297853,-0.00210444,0.00181422,0.00355963,-0.00268553,0.309978,0.0036174,0.014088,1329,400,3.63267,23.4628
112,624,3.67419,-23.3957,0.00225554,-0.00248517,0.00142235,0.00264954,-0.00287917,0.270231,0.00319292,0.0149274,1336,400,3.67414,23.3957
119,624,3.69165,-23.338,0.00153814,-0.00273452,0.00118661,0.00184557,-0.00304194,0.253507,0.00284985,0.015437,1343,400,3.69163,23.338
126,624,3.68054,-23.2148,0.00142017,-0.00303526,0.000903637,0.00159647,-0.00321156,0.192677,0.00282764,0.018478,1350,400,3.6806,23.2148
133,624,3.7157,-23.1115,0.00154966,-0.00328817,0.000529191,0.00160686,-0.00334538,0.107689,0.00291732,0.0194438,1357,400,3.71567,23.1115
140,624,3.74597,-22.9962,0.00160725,-0.00366386,0.000271052,0.00162115,-0.00367777,0.051242,0.0031352,0.0188592,1364,400,3.74594,22.9962
147,624,3.74292,-22.8516,0.00147778,-0.00389615,4.64154e-05,0.00147818,-0.00389655,0.00863629,0.0032061,0.0247241,1371,400,3.74294,22.8516
154,624,3.75195,-22.7884,0.00146291,-0.00414335,-0.000159575,0.00146745,-0.00414789,-0.028433,0.00336288,0.027472,1378,400,3.75197,22.7884
161,624,3.77844,-22.7031,0.00173492,-0.00401214,-0.000312457,0.00175186,-0.00402908,-0.0541553,0.00342286,0.0238078,1385,400,3.77839,22.7031
168,624,3.80383,-22.5644,0.00194474,-0.0035034,-0.000457102,0.00198282,-0.00354148,-0.0831261,0.0032315,0.0231715,1392,400,3.80378,22.5644
175,624,3.79041,-22.4494,0.00192324,-0.00278203,-0.000476896,0.00197109,-0.00282988,-0.0999985,0.00278658,0.0172811,1399,400,3.79042,22.4494
182,624,3.80066,-22.3075,0.00162494,-0.0020948,-0.000369255,0.00166124,-0.00213111,-0.0979945,0.00219511,0.0104458,1406,400,3.80065,22.3075
189,624,3.79956,-22.1427,0.00124054,-0.0013722,-0.000234226,0.00126137,-0.00139303,-0.0887052,0.00153315,0.0102768,1413,400,3.79954,22.1427
196,624,3.76685,-21.9686,0.000914333,-0.00037394,8.65139e-05,0.000920117,-0.000379724,0.0667555,0.000771779,0.0113784,1420,400,3.7668,21.9686
203,624,3.76807,-21.8094,0.000526263,0.000625448,0.000318339,0.000898035,0.000253676,0.862669,0.000534585,0.0149945,1427,400,3.76812,21.8094
210,624,3.77991,-21.6514,-1.49319e-05,0.00152322,0.000611305,0.00173658,-0.000228287,1.235,0.00124083,0.0179807,1434,400,3.77996,21.6514
217,624,3.77551,-21.455,-0.000458599,0.00235507,0.00093516,0.00263753,-0.000741056,1.27747,0.00205051,0.0200942,1441,400,3.77552,21.455
224,624,3.78052,-21.278,-0.000705697,0.00283199,0.00111142,0.00315218,-0.00102589,1.2903,0.00251418,0.0164698,1448,400,3.7805,21.278
231,624,3.76477,-21.0946,-0.000814359,0.00327032,0.00139423,0.00370083,-0.00124488,1.2713,0.00297045,0.0123236,1455,400,3.7648,21.0946
238,624,3.73767,-20.89,-0.000850609,0.00389185,0.00176264,0.00447521,-0.00143398,1.25118,0.0035591,0.0179622,1462,400,3.73762,20.89
245,624,3.74463,-20.7042,-0.000851582,0.00451687,0.00206316,0.00521816,-0.00155287,1.24314,0.00409573,0.0185467,1469,400,3.74468,20.7042
252,624,3.74536,-20.5017,-0.000703464,0.00515696,0.00239848,0.00601341,-0.00155992,1.22783,0.00461759,0.0133845,1476,400,3.7454,20.5017
259,624,3.73511,-20.265,-0.000471167,0.00590024,0.00286698,0.00700036,-0.00157129,1.2044,0.00526935,0.00918065,1483,400,3.73513,20.265
266,624,3.75623,-20.0155,-0.00028516,0.00671477,0.00341613,0.00810558,-0.00167597,1.18416,0.00604038,0.0134192,1490,400,3.75617,20.0155
273,624,3.72791,-19.7879,-0.000131148,0.00753463,0.00394623,0.00920299,-0.00179951,1.17081,0.00681483,0.0163322,1497,400,3.72793,19.7879
280,624,3.68982,-19.5547,6.26727e-05,0.00817139,0.00449315,0.010169,-0.00193493,1.15245,0.00750788,0.0142441,1504,400,3.68982,19.5547
287,624,3.67908,-19.3113,0.000270257,0.00893118,0.00519651,0.0113651,-0.00216364,1.13277,0.00839144,0.0114312,1511,400,3.6791,19.3113
294,624,3.66052,-19.0656,0.000479135,0.00957496,0.00579639,0.0123947,-0.00234056,1.11804,0.0091437,0.00942394,1518,400,3.66058,19.0656
301,624,3.63965,-18.7886,0.000616676,0.0104072,0.0064789,0.0136323,-0.00260839,1.10893,0.0100709,0.0107386,1525,400,3.63963,18.7886
308,624,3.65356,-18.4898,0.000578172,0.0109318,0.00705651,0.0145067,-0.00299681,1.10187,0.0108095,0.0147624,1532,400,3.65354,18.4898
315,624,3.66296,-18.2107,0.000493708,0.0113643,0.00765793,0.0153198,-0.00346174,1.09402,0.0115415,0.0174733,1539,400,3.66298,18.2107
322,624,3.63672,-17.9534,0.00036082,0.0116986,0.00823197,0.0160248,-0.00396538,1.08693,0.0122213,0.026161,1546,400,3.63671,17.9534
329,624,3.69641,-17.6514,7.49082e-05,0.011913,0.00870994,0.0165248,-0.00453687,1.08384,0.0127997,0.0401721,1553,400,3.69641,17.6514
336,624,3.7262,-17.2562,-0.000446692,0.0122575,0.00897429,0.0169002,-0.00508947,1.09337,0.0132922,0.0430585,1560,400,3.72615,17.2561
343,624,3.81433,-16.628,0,0,0,0,0,0,0,-1,1567,400,3.8143,16.628
350,624,1.99194,-7.29742,0,0,0,0,0,0,0,-1,1574,400,1.99198,7.29741
357,624,2.64075,-3.13092,0,0,0,0,0,0,0,-1,1581,400,2.64076,3.13091
364,624,3.16565,-4.9458,0,0,0,0,0,0,0,-1,1588,400,3.16564,4.94579
371,624,3.37561,-5.23529,0,0,0,0,0,0,0,-1,1595,400,3.37563,5.23529
378,624,1.50439,-5.22165,0,0,0,0,0,0,0,-1,1602,400,1.50438,5.22164
385,624,1.2301,-10.5866,0,0,0,0,0,0,0,-1,1609,400,1.2301,10.5866
392,624,4.26819,-5.14236,0,0,0,0,0,0,0,-1,1616,400,4.26818,5.14236
399,624,3.86841,-2.36917,0,0,0,0,0,0,0,-1,1623,400,3.86838,2.36916
406,624,4.35376,-2.6962,0,0,0,0,0,0,0,-1,1630,400,4.35373,2.69619
413,624,0,0,0,0,0,0,0,0,0,-1,1637,400,0,0
420,624,0,0,0,0,0,0,0,0,0,-1,1644,400,0,0
427,624,0,0,0,0,0,0,0,0,0,-1,1651,400,0,0
434,624,0,0,0,0,0,0,0,0,0,-1,1658,400,0,0
441,624,0,0,0,0,0,0,0,0,0,-1,1665,400,0,0
448,624,0,0,0,0,0,0,0,0,0,-1,1672,400,0,0
455,624,0,0,0,0,0,0,0,0,0,-1,1679,400,0,0
462,624,0,0,0,0,0,0,0,0,0,-1,1686,400,0,0
469,624,0,0,0,0,0,0,0,0,0,-1,1693,400,0,0
476,624,0,0,0,0,0,0,0,0,0,-1,1700,400,0,0
483,624,0,0,0,0,0,0,0,0,0,-1,1707,400,0,0
490,624,0,0,0,0,0,0,0,0,0,-1,1714,400,0,0
497,624,0,0,0,0,0,0,0,0,0,-1,1721,400,0,0
504,624,0,0,0,0,0,0,0,0,0,-1,1728,400,0,0
511,624,0,0,0,0,0,0,0,0,0,-1,1735,400,0,0
518,624,0,0,0,0,0,0,0,0,0,-1,1742,400,0,0
525,624,0,0,0,0,0,0,0,0,0,-1,1749,400,0,0
532,624,0,0,0,0,0,0,0,0,0,-1,1756,400,0,0
539,624,0,0,0,0,0,0,0,0,0,-1,1763,400,0,0
546,624,0,0,0,0,0,0,0,0,0,-1,1770,400,0,0
553,624,0,0,0,0,0,0,0,0,0,-1,1777,400,0,0
560,624,0,0,0,0,0,0,0,0,0,-1,1784,400,0,0
567,624,0,0,0,0,0,0,0,0,0,-1,1791,400,0,0
574,624,0,0,0,0,0,0,0,0,0,-1,1798,400,0,0
581,624,0,0,0,0,0,0,0,0,0,-1,1805,400,0,0
588,624,0,0,0,0,0,0,0,0,0,-1,1812,400,0,0
595,624,0,0,0,0,0,0,0,0,0,-1,1819,400,0,0
602,624,0,0,0,0,0,0,0,0,0,-1,1826,400,0,0
609,624,0,0,0,0,0,0,0,0,0,-1,1833,400,0,0
616,624,0,0,0,0,0,0,0,0,0,-1,1840,400,0,0
623,624,0,0,0,0,0,0,0,0,0,-1,1847,400,0,0
630,624,0,0,0,0,0,0,0,0,0,-1,1854,400,0,0
637,624,0,0,0,0,0,0,0,0,0,-1,1861,400,0,0
644,624,0,0,0,0,0,0,0,0,0,-1,1868,400,0,0
651,624,0,0,0,0,0,0,0,0,0,-1,1875,400,0,0
658,624,0,0,0,0,0,0,0,0,0,-1,1882,400,0,0
665,624,0,0,0,0,0,0,0,0,0,-1,1889,400,0,0
672,624,0,0,0,0,0,0,0,0,0,-1,1896,400,0,0
679,624,0,0,0,0,0,0,0,0,0,-1,1903,400,0,0
686,624,0,0,0,0,0,0,0,0,0,-1,1910,400,0,0
693,624,0,0,0,0,0,0,0,0,0,-1,1917,400,0,0
700,624,0,0,0,0,0,0,0,0,0,-1,1924,400,0,0
707,624,0,0,0,0,0,0,0,0,0,-1,1931,400,0,0
714,624,0,0,0,0,0,0,0,0,0,-1,1938,400,0,0
721,624,0,0,0,0,0,0,0,0,0,-1,1945,400,0,0
728,624,0,0,0,0,0,0,0,0,0,-1,1952,400,0,0
735,624,0,0,0,0,0,0,0,0,0,-1,1959,400,0,0
742,624,0,0,0,0,0,0,0,0,0,-1,1966,400,0,0
749,624,0,0,0,0,0,0,0,0,0,-1,1973,400,0,0
756,624,0,0,0,0,0,0,0,0,0,-1,1980,400,0,0
763,624,0,0,0,0,0,0,0,0,0,-1,1987,400,0,0
770,624,0,0,0,0,0,0,0,0,0,-1,1994,400,0,0
777,624,0,0,0,0,0,0,0,0,0,-1,2001,400,0,0
784,624,0,0,0,0,0,0,0,0,0,-1,2008,400,0,0
791,624,0,0,0,0,0,0,0,0,0,-1,2015,400,0,0
798,624,0,0,0,0,0,0,0,0,0,-1,2022,400,0,0
805,624,0,0,0,0,0,0,0,0,0,-1,2029,400,0,0
812,624,0,0,0,0,0,0,0,0,0,-1,2036,400,0,0
-700,617,0,0,0,0,0,0,0,0,0,-1,524,407,0,0
-693,617,0,0,0,0,0,0,0,0,0,-1,531,407,0,0
-686,617,0,0,0,0,0,0,0,0,0,-1,538,407,0,0
-679,617,0,0,0,0,0,0,0,0,0,-1,545,407,0,0
-672,617,0,0,0,0,0,0,0,0,0,-1,552,407,0,0
-665,617,0,0,0,0,0,0,0,0,0,-1,559,407,0,0
-658,617,0,0,0,0,0,0,0,0,0,-1,566,407,0,0
-651,617,0,0,0,0,0,0,0,0,0,-1,573,407,0,0
-644,617,0,0,0,0,0,0,0,0,0,-1,580,407,0,0
-637,617,0,0,0,0,0,0,0,0,0,-1,587,407,0,0
-630,617,0,0,0,0,0,0,0,0,0,-1,594,407,0,0
-623,617,0,0,0,0,0,0,0,0,0,-1,601,407,0,0
-616,617,0,0,0,0,0,0,0,0,0,-1,608,407,0,0
-609,617,0,0,0,0,0,0,0,0,0,-1,615,407,0,0
-602,617,0,0,0,0,0,0,0,0,0,-1,622,407,0,0
-595,617,0,0,0,0,0,0,0,0,0,-1,629,407,0,0
-588,617,0,0,0,0,0,0,0,0,0,-1,636,407,0,0
-581,617,0,0,0,0,0,0,0,0,0,-1,643,407,0,0
-574,617,0,0,0,0,0,0,0,0,0,-1,650,407,0,0
-567,617,0,0,0,0,0,0,0,0,0,-1,657,407,0,0
-560,617,0,0,0,0,0,0,0,0,0,-1,664,407,0,0
-553,617,0,0,0,0,0,0,0,0,0,-1,671,407,0,0
-546,617,0,0,0,0,0,0,0,0,0,-1,678,407,0,0
-539,617,0,0,0,0,0,0,0,0,0,-1,685,407,0,0
-532,617,0,0,0,0,0,0,0,0,0,-1,692,407,0,0
-525,617,0,0,0,0,0,0,0,0,0,-1,699,407,0,0
-518,617,0,0,0,0,0,0,0,0,0,-1,706,407,0,0
-511,617,0,0,0,0,0,0,0,0,0,-1,713,407,0,0
-504,617,0,0,0,0,0,0,0,0,0,-1,720,407,0,0
-497,617,0,0,0,0,0,0,0,0,0,-1,727,407,0,0
-490,617,0,0,0,0,0,0,0,0,0,-1,734,407,0,0
-483,617,0,0,0,0,0,0,0,0,0,-1,741,407,0,0
-476,617,0,0,0,0,0,0,0,0,0,-1,748,407,0,0
-469,617,0,0,0,0,0,0,0,0,0,-1,755,407,0,0
-462,617,0,0,0,0,0,0,0,0,0,-1,762,407,0,0
-455,617,0,0,0,0,0,0,0,0,0,-1,769,407,0,0
-448,617,0,0,0,0,0,0,0,0,0,-1,776,407,0,0
-441,617,0,0,0,0,0,0,0,0,0,-1,783,407,0,0
-434,617,0,0,0,0,0,0,0,0,0,-1,790,407,0,0
-427,617,0,0,0,0,0,0,0,0,0,-1,797,407,0,0
-420,617,0,0,0,0,0,0,0,0,0,-1,804,407,0,0
-413,617,0,0,0,0,0,0,0,0,0,-1,811,407,0,0
-406,617,0,0,0,0,0,0,0,0,0,-1,818,407,0,0
-399,617,0,0,0,0,0,0,0,0,0,-1,825,407,0,0
-392,617,0,0,0,0,0,0,0,0,0,-1,832,407,0,0
-385,617,0,0,0,0,0,0,0,0,0,-1,839,407,0,0
-378,617,0,0,0,0,0,0,0,0,0,-1,846,407,0,0
-371,617,0,0,0,0,0,0,0,0,0,-1,853,407,0,0
-364,617,0,0,0,0,0,0,0,0,0,-1,860,407,0,0
-357,617,0,0,0,0,0,0,0,0,0,-1,867,407,0,0
-350,617,0,0,0,0,0,0,0,0,0,-1,874,407,0,0
-343,617,0,0,0,0,0,0,0,0,0,-1,881,407,0,0
-336,617,0,0,0,0,0,0,0,0,0,-1,888,407,0,0
-329,617,0,0,0,0,0,0,0,0,0,-1,895,407,0,0
-322,617,0,0,0,0,0,0,0,0,0,-1,902,407,0,0
-315,617,0,0,0,0,0,0,0,0,0,-1,909,407,0,0
-308,617,0,0,0,0,0,0,0,0,0,-1,916,407,0,0
-301,617,3.0321,-13.8866,0,0,0,0,0,0,0,-1,923,407,3.03209,13.8866
-294,617,-0.867493,-11.1655,0,0,0,0,0,0,0,-1,930,407,-0.867487,11.1655
-287,617,-0.212524,-10.7744,0,0,0,0,0,0,0,-1,937,407,-0.212541,10.7743
-280,617,2.19739,-11.6377,0,0,0,0,0,0,0,-1,944,407,2.19737,11.6377
-273,617,2.42114,-9.26978,0,0,0,0,0,0,0,-1,951,407,2.42112,9.26979
-266,617,1.62323,-14.1301,0,0,0,0,0,0,0,-1,958,407,1.62322,14.1301
-259,617,2.11719,-14.8356,0,0,0,0,0,0,0,-1,965,407,2.11717,14.8356
-252,617,2.6358,-17.8688,0,0,0,0,0,0,0,-1,972,407,2.63582,17.8688
-245,617,2.94519,-18.1576,0,0,0,0,0,0,0,-1,979,407,2.94521,18.1576
-238,617,3.25458,-18.4464,0,0,0,0,0,0,0,-1,986,407,3.2546,18.4464
-231,617,3.55554,-17.4,0,0,0,0,0,0,0,-1,993,407,3.55557,17.4
-224,617,3.47064,-17.5949,0,0,0,0,0,0,0,-1,1000,407,3.47065,17.5949
-217,617,3.38574,-17.7898,0,0,0,0,0,0,0,-1,1007,407,3.38572,17.7898
-210,617,3.47083,-18.2972,-0.00793238,-0.00369565,-0.0018851,-0.00297834,-0.0086497,-1.2072,0.00507394,0.0266946,1014,407,3.47082,18.2972
-203,617,3.41406,-18.6233,-0.00790632,-0.00362991,-0.00182767,-0.00295524,-0.00858099,-1.21717,0.00503358,0.0197751,1021,407,3.41405,18.6233
-196,617,3.35291,-18.8766,-0.00773313,-0.00323517,-0.00175886,-0.00262906,-0.00833923,-1.23894,0.00492298,0.0158921,1028,407,3.35293,18.8767
-189,617,3.30701,-19.1369,-0.00714563,-0.00296908,-0.00184996,-0.00226751,-0.0078472,-1.20832,0.00466317,0.0125935,1035,407,3.30704,19.1369
-182,617,3.31226,-19.3882,-0.00622265,-0.00254044,-0.00182418,-0.00178977,-0.00697332,-1.18041,0.00418196,0.013714,1042,407,3.31229,19.3882
-175,617,3.30798,-19.6208,-0.0052683,-0.00198807,-0.00168822,-0.00127445,-0.00598192,-1.17087,0.00363831,0.0135632,1049,407,3.30794,19.6208
-168,617,3.28442,-19.88,-0.00435202,-0.00127287,-0.0015637,-0.000618031,-0.00500686,-1.17421,0.00315215,0.0105993,1056,407,3.28445,19.88
-161,617,3.2605,-20.125,-0.00347029,-0.000555529,-0.00125866,-8.72416e-05,-0.00393857,-1.21461,0.00259712,0.0110864,1063,407,3.26051,20.125
-154,617,3.2345,-20.3292,-0.00268304,0.000238767,-0.000897719,0.000492547,-0.00293682,-1.29529,0.00214103,0.0116583,1070,407,3.2345,20.3292
-147,617,3.22998,-20.5422,-0.00199051,0.000729998,-0.000595749,0.000854738,-0.00211525,-1.36439,0.00176545,0.0158067,1077,407,3.22999,20.5422
-140,617,3.23035,-20.77,-0.00132182,0.00112538,-0.000356959,0.00117639,-0.00137282,-1.42887,0.00147324,0.0120681,1084,407,3.23036,20.77
-133,617,3.22485,-20.958,-0.000602503,0.00186449,-0.00021049,0.00188232,-0.000620333,-1.48629,0.0015049,0.0143521,1091,407,3.22483,20.958
-126,617,3.20178,-21.1196,-9.3273e-05,0.0021849,-0.000119652,0.00219116,-9.95399e-05,-1.51847,0.00149506,0.0140622,1098,407,3.20183,21.1196
-119,617,3.18567,-21.321,0.000180673,0.00218075,-1.96133e-05,0.00218094,0.000180481,-1.56099,0.00139769,0.0133888,1105,407,3.18568,21.321
-112,617,3.1908,-21.4927,0.000548087,0.0022154,-6.8489e-05,0.00221821,0.000545278,-1.52981,0.0013347,0.0150096,1112,407,3.19085,21.4927
-105,617,3.19177,-21.6602,0.000904581,0.00215423,-0.000302971,0.00222381,0.000835001,-1.34505,0.00129712,0.0155338,1119,407,3.1918,21.6603
-98,617,3.20166,-21.8384,0.00119683,0.00203186,-0.000579939,0.00232894,0.000899748,-1.09739,0.00135615,0.0122616,1126,407,3.20171,21.8384
-91,617,3.21716,-21.9963,0.00150417,0.00193828,-0.000878749,0.00262638,0.000816066,-0.906477,0.00155214,0.0166071,1133,407,3.21718,21.9963
-84,617,3.2478,-22.1834,0.00179886,0.00174607,-0.00107102,0.00284381,0.000701119,-0.773078,0.00171074,0.0162092,1140,407,3.24785,22.1834
-77,617,3.25232,-22.3181,0.00205993,0.00156085,-0.00118414,0.00302054,0.000600236,-0.681548,0.00184643,0.0127422,1147,407,3.25238,22.318
-70,617,3.22339,-22.4307,0.00237807,0.00100295,-0.00118394,0.00305962,0.000321407,-0.522329,0.0019415,0.0147585,1154,407,3.22335,22.4307
-63,617,3.21265,-22.5626,0.00269404,0.00051417,-0.00113424,0.00317715,3.10603e-05,-0.402659,0.00210782,0.016361,1161,407,3.21269,22.5626
-56,617,3.25171,-22.7049,0.00294533,-0.000189808,-0.000972731,0.00322262,-0.00046709,-0.277691,0.00231984,0.0121648,1168,407,3.25174,22.7049
-49,617,3.26648,-22.8342,0.00320886,-0.00127457,-0.00081469,0.00335231,-0.00141801,-0.174291,0.00282861,0.00995618,1175,407,3.26651,22.8342
-42,617,3.26257,-22.953,0.00323025,-0.00301796,-0.00136645,0.00351602,-0.00330373,-0.206159,0.00393802,0.010789,1182,407,3.26258,22.953
-35,617,3.29126,-23.0441,0.00256612,-0.0050206,-0.00167018,0.00291753,-0.005372,-0.207375,0.00485539,0.0151301,1189,407,3.29122,23.0441
-28,617,3.28381,-23.1458,0.00157625,-0.00715117,-0.00193354,0.00198544,-0.00756036,-0.208548,0.00581613,0.0187659,1196,407,3.2838,23.1458
-21,617,3.3241,-23.2132,0.00112973,-0.00855848,-0.00239503,0.00168947,-0.00911822,-0.229588,0.00671321,0.0148044,1203,407,3.32408,23.2132
-14,617,3.31445,-23.2771,0.000544615,-0.0089518,-0.00308565,0.00145916,-0.00986634,-0.288137,0.007114,0.0164348,1210,407,3.31443,23.2771
-7,617,3.28369,-23.3118,-0.000172511,-0.00912438,-0.00380659,0.00122728,-0.0105242,-0.352379,0.00745894,0.0190552,1217,407,3.28373,23.3118
0,617,3.35571,-23.3553,-0.000828673,-0.00901032,-0.00407466,0.000854385,-0.0106934,-0.39171,0.0074301,0.0160365,1224,407,3.35572,23.3554
7,617,3.4093,-23.4704,-0.000769943,-0.00852927,-0.00404235,0.000953283,-0.0102525,-0.402966,0.0071739,0.0121328,1231,407,3.40924,23.4704
14,617,3.40222,-23.5295,-0.000148968,-0.00777007,-0.00378514,0.00141148,-0.00933052,-0.391026,0.00674028,0.0139986,1238,407,3.40221,23.5295
21,617,3.4259,-23.5508,0.000332984,-0.00683682,-0.00335597,0.00165869,-0.00816253,-0.376214,0.00607059,0.011886,1245,407,3.4259,23.5508
28,617,3.44385,-23.5982,0.000831736,-0.00589687,-0.00247037,0.00164131,-0.00670644,-0.316685,0.00510675,0.0103005,1252,407,3.44388,23.5982
35,617,3.41235,-23.6443,0.0015218,-0.00479725,-0.00146917,0.00184668,-0.00512213,-0.217627,0.00416895,0.0129007,1259,407,3.41231,23.6443
42,617,3.4751,-23.6349,0.00279661,-0.004108,-0.000409441,0.0028208,-0.00413219,-0.059024,0.00403805,0.0197684,1266,407,3.47505,23.6349
49,617,3.54395,-23.6357,0.00430363,-0.00344177,0.000576098,0.00434624,-0.00348439,0.0738379,0.00453014,0.0194462,1273,407,3.54395,23.6357
56,617,3.56592,-23.6418,0.00531589,-0.0029239,0.00139832,0.00554673,-0.00315473,0.163603,0.00508667,0.0141296,1280,407,3.56589,23.6417
63,617,3.59802,-23.6502,0.0060072,-0.00262981,0.00244565,0.00665162,-0.00327423,0.257643,0.00584023,0.010311,1287,407,3.59808,23.6502
70,617,3.59363,-23.6399,0.00653588,-0.00263007,0.00312759,0.00750137,-0.00359556,0.29942,0.00653776,0.0145389,1294,407,3.59361,23.6399
77,617,3.63098,-23.5935,0.00696689,-0.00248371,0.00351427,0.00813044,-0.00364726,0.319733,0.00696213,0.013829,1301,407,3.63101,23.5935
84,617,3.65417,-23.5633,0.00683109,-0.00236958,0.00378824,0.00819011,-0.00372859,0.344445,0.00704013,0.0106088,1308,407,3.65417,23.5633
91,617,3.66956,-23.543,0.00646806,-0.00307491,0.00376327,0.00777352,-0.00438037,0.333906,0.00710763,0.0100902,1315,407,3.6695,23.543
98,617,3.70361,-23.497,0.00597849,-0.00339494,0.00373752,0.0072863,-0.00470275,0.336598,0.00697525,0.0112636,1322,407,3.70358,23.497
105,617,3.72046,-23.4476,0.00558039,-0.00372675,0.00334,0.00665494,-0.0048013,0.311263,0.00664306,0.0131466,1329,407,3.72041,23.4476
112,617,3.75256,-23.3855,0.00488114,-0.00421814,0.00281115,0.00567956,-0.00501656,0.276733,0.00617936,0.0162089,1336,407,3.75261,23.3855
119,617,3.78186,-23.306,0.00414191,-0.00452696,0.00247918,0.00480084,-0.00518588,0.259778,0.00576726,0.019302,1343,407,3.7818,23.306
126,617,3.76501,-23.2107,0.00413874,-0.00487774,0.00206744,0.00459019,-0.00532919,0.214988,0.00573225,0.0209804,1350,407,3.76503,23.2107
133,617,3.76904,-23.1092,0.00447208,-0.00521488,0.00151597,0.00470378,-0.00544658,0.151666,0.00586555,0.0188334,1357,407,3.769,23.1092
140,617,3.82471,-23.0063,0.00465427,-0.00571627,0.00107487,0.0047645,-0.00582651,0.102199,0.00612496,0.0163679,1364,407,3.82469,23.0063
147,617,3.84375,-22.8777,0.0044521,-0.00610799,0.000650388,0.004492,-0.0061479,0.0612806,0.0061677,0.0208202,1371,407,3.84369,22.8777
154,617,3.83948,-22.8051,0.00428137,-0.00652815,0.000213748,0.0042856,-0.00653237,0.0197637,0.0062905,0.0238817,1378,407,3.83942,22.8051
161,617,3.84766,-22.7205,0.00447719,-0.00659107,-0.000175902,0.00447998,-0.00659387,-0.0158872,0.0064322,0.0229049,1385,407,3.8477,22.7205
168,617,3.87878,-22.6358,0.00451844,-0.00610664,-0.000700016,0.00456436,-0.00615256,-0.0655059,0.00621003,0.0215767,1392,407,3.87884,22.6358
175,617,3.9043,-22.4807,0.00444639,-0.00531946,-0.000967055,0.00454123,-0.0054143,-0.0977591,0.00575519,0.0173718,1399,407,3.90434,22.4807
182,617,3.93811,-22.3106,0.00393956,-0.0047568,-0.00103553,0.00406117,-0.00487841,-0.116899,0.00516845,0.0112657,1406,407,3.93814,22.3106
189,617,3.93823,-22.1539,0.00315368,-0.00419915,-0.00115904,0.00333206,-0.00437752,-0.1527,0.00446475,0.011297,1413,407,3.93818,22.1539
196,617,3.90588,-21.9832,0.0024685,-0.00271616,-0.000812345,0.0025928,-0.00284046,-0.151837,0.00313798,0.014422,1420,407,3.90594,21.9832
203,617,3.9165,-21.8294,0.00204682,-0.00110291,-0.000497997,0.00212368,-0.00117977,-0.153133,0.00193303,0.01433,1427,407,3.91645,21.8294
210,617,3.94592,-21.65,0.00126949,0.000416928,-7.04834e-05,0.00127527,0.00041114,-0.0819316,0.000751603,0.0139339,1434,407,3.94593,21.65
217,617,3.9436,-21.4316,0.000702075,0.00177966,0.000458502,0.00194834,0.000533392,1.21826,0.00116262,0.0187018,1441,407,3.94364,21.4316
224,617,3.95093,-21.2752,0.000434976,0.00231848,0.000669799,0.00253238,0.000221077,1.26169,0.0016196,0.0185709,1448,407,3.95088,21.2752
231,617,3.9679,-21.1302,0.000209545,0.00279334,0.000944241,0.00310162,-9.87422e-05,1.25522,0.00210144,0.0143694,1455,407,3.96786,21.1302
238,617,3.95642,-20.9254,0.000108094,0.00331477,0.00126574,0.00375417,-0.000331308,1.23666,0.00262021,0.0160333,1462,407,3.95641,20.9254
245,617,3.95532,-20.7338,6.25464e-05,0.00382004,0.00150807,0.00435043,-0.000467847,1.2326,0.00306815,0.0142006,1469,407,3.9553,20.7338
252,617,3.95789,-20.5051,8.63676e-05,0.00432189,0.00176938,0.00496378,-0.000555515,1.22279,0.00350904,0.0150008,1476,407,3.9579,20.5051
259,617,3.93811,-20.2518,0.000149295,0.0048647,0.00213366,0.00568682,-0.000672823,1.20302,0.00403424,0.0114969,1483,407,3.9381,20.2518
266,617,3.93958,-20.0084,0.000183912,0.00543465,0.00255639,0.00647367,-0.000855102,1.18475,0.00462722,0.014308,1490,407,3.9396,20.0084
273,617,3.93323,-19.7811,0.000203489,0.00599274,0.00295833,0.00723703,-0.0010408,1.17266,0.00520641,0.0147543,1497,407,3.93318,19.7811
280,617,3.91992,-19.5622,0.000268453,0.00643416,0.00339767,0.00793913,-0.00123652,1.15383,0.00574942,0.0125604,1504,407,3.91996,19.5622
287,617,3.89929,-19.3275,0.000371938,0.00700609,0.00396392,0.00885773,-0.0014797,1.13379,0.00645517,0.012449,1511,407,3.8993,19.3275
294,617,3.89246,-19.0775,0.000473003,0.0074739,0.00444335,0.00963,-0.00168309,1.11903,0.00704834,0.00997173,1518,407,3.89248,19.0775
301,617,3.86731,-18.8307,0.000520997,0.00804488,0.00498319,0.0105267,-0.00196081,1.10872,0.00775447,0.00789697,1525,407,3.86734,18.8307
308,617,3.85449,-18.5574,0.000485298,0.00845516,0.00547586,0.0112426,-0.00230212,1.09995,0.00836865,0.00838063,1532,407,3.85446,18.5574
315,617,3.84705,-18.2732,0.000414367,0.00884926,0.00597733,0.0119472,-0.0026836,1.09263,0.00899381,0.00956445,1539,407,3.84705,18.2732
322,617,3.83508,-17.9839,0.000286669,0.00916729,0.00643988,0.0125493,-0.00309532,1.08722,0.00956636,0.012041,1546,407,3.83508,17.9839
329,617,3.83276,-17.6972,4.11069e-05,0.00939005,0.00684647,0.0130056,-0.00357447,1.08493,0.0100755,0.0122126,1553,407,3.83277,17.6972
336,617,3.84167,-17.3499,-0.000363907,0.00972135,0.00710624,0.0133923,-0.00403488,1.09397,0.010534,0.0232014,1560,407,3.84165,17.3499
343,617,3.90076,-16.9505,0,0,0,0,0,0,0,-1,1567,407,3.90072,16.9505
350,617,2.88098,-10.0063,0,0,0,0,0,0,0,-1,1574,407,2.88098,10.0063
357,617,2.1748,-7.16504,0,0,0,0,0,0,0,-1,1581,407,2.1748,7.16505
364,617,2.30127,-7.60257,0,0,0,0,0,0,0,-1,1588,407,2.30125,7.60258
371,617,2.60266,-6.20667,0,0,0,0,0,0,0,-1,1595,407,2.60261,6.20668
378,617,1.56921,-10.3601,0,0,0,0,0,0,0,-1,1602,407,1.56918,10.3601
385,617,1.74146,-10.3561,0,0,0,0,0,0,0,-1,1609,407,1.7414,10.3561
392,617,1.91357,-10.3521,0,0,0,0,0,0,0,-1,1616,407,1.91362,10.3521
399,617,3.25,-2.14835,0,0,0,0,0,0,0,-1,1623,407,3.25006,2.14836
406,617,3.02429,-3.19577,0,0,0,0,0,0,0,-1,1630,407,3.02431,3.19577
413,617,2.92786,-3.80649,0,0,0,0,0,0,0,-1,1637,407,2.92788,3.8065
420,617,3.42737,-4.47391,0,0,0,0,0,0,0,-1,1644,407,3.42737,4.47391
427,617,0,0,0,0,0,0,0,0,0,-1,1651,407,0,0
434,617,0,0,0,0,0,0,0,0,0,-1,1658,407,0,0
441,617,0,0,0,0,0,0,0,0,0,-1,1665,407,0,0
448,617,0,0,0,0,0,0,0,0,0,-1,1672,407,0,0
455,617,0,0,0,0,0,0,0,0,0,-1,1679,407,0,0
462,617,0,0,0,0,0,0,0,0,0,-1,1686,407,0,0
469,617,0,0,0,0,0,0,0,0,0,-1,1693,407,0,0
476,617,0,0,0,0,0,0,0,0,0,-1,1700,407,0,0
483,617,0,0,0,0,0,0,0,0,0,-1,1707,407,0,0
490,617,0,0,0,0,0,0,0,0,0,-1,1714,407,0,0
497,617,0,0,0,0,0,0,0,0,0,-1,1721,407,0,0
504,617,0,0,0,0,0,0,0,0,0,-1,1728,407,0,0
511,617,0,0,0,0,0,0,0,0,0,-1,1735,407,0,0
518,617,0,0,0,0,0,0,0,0,0,-1,1742,407,0,0
525,617,0,0,0,0,0,0,0,0,0,-1,1749,407,0,0
532,617,0,0,0,0,0,0,0,0,0,-1,1756,407,0,0
539,617,0,0,0,0,0,0,0,0,0,-1,1763,407,0,0
546,617,0,0,0,0,0,0,0,0,0,-1,1770,407,0,0
553,617,0,0,0,0,0,0,0,0,0,-1,1777,407,0,0
560,617,0,0,0,0,0,0,0,0,0,-1,1784,407,0,0
567,617,0,0,0,0,0,0,0,0,0,-1,1791,407,0,0
574,617,0,0,0,0,0,0,0,0,0,-1,1798,407,0,0
581,617,0,0,0,0,0,0,0,0,0,-1,1805,407,0,0
588,617,0,0,0,0,0,0,0,0,0,-1,1812,407,0,0
595,617,0,0,0,0,0,0,0,0,0,-1,1819,407,0,0
602,617,0,0,0,0,0,0,0,0,0,-1,1826,407,0,0
609,617,0,0,0,0,0,0,0,0,0,-1,1833,407,0,0
616,617,0,0,0,0,0,0,0,0,0,-1,1840,407,0,0
623,617,0,0,0,0,0,0,0,0,0,-1,1847,407,0,0
630,617,0,0,0,0,0,0,0,0,0,-1,1854,407,0,0
637,617,0,0,0,0,0,0,0,0,0,-1,1861,407,0,0
644,617,0,0,0,0,0,0,0,0,0,-1,1868,407,0,0
651,617,0,0,0,0,0,0,0,0,0,-1,1875,407,0,0
658,617,0,0,0,0,0,0,0,0,0,-1,1882,407,0,0
665,617,0,0,0,0,0,0,0,0,0,-1,1889,407,0,0
672,617,0,0,0,0,0,0,0,0,0,-1,1896,407,0,0
679,617,0,0,0,0,0,0,0,0,0,-1,1903,407,0,0
686,617,0,0,0,0,0,0,0,0,0,-1,1910,407,0,0
693,617,0,0,0,0,0,0,0,0,0,-1,1917,407,0,0
700,617,0,0,0,0,0,0,0,0,0,-1,1924,407,0,0
707,617,0,0,0,0,0,0,0,0,0,-1,1931,407,0,0
714,617,0,0,0,0,0,0,0,0,0,-1,1938,407,0,0
721,617,0,0,0,0,0,0,0,0,0,-1,1945,407,0,0
728,617,0,0,0,0,0,0,0,0,0,-1,1952,407,0,0
735,617,0,0,0,0,0,0,0,0,0,-1,1959,407,0,0
742,617,0,0,0,0,0,0,0,0,0,-1,1966,407,0,0
749,617,0,0,0,0,0,0,0,0,0,-1,1973,407,0,0
756,617,0,0,0,0,0,0,0,0,0,-1,1980,407,0,0
763,617,0,0,0,0,0,0,0,0,0,-1,1987,407,0,0
770,617,0,0,0,0,0,0,0,0,0,-1,1994,407,0,0
777,617,0,0,0,0,0,0,0,0,0,-1,2001,407,0,0
784,617,0,0,0,0,0,0,0,0,0,-1,2008,407,0,0
791,617,0,0,0,0,0,0,0,0,0,-1,2015,407,0,0
798,617,0,0,0,0,0,0,0,0,0,-1,2022,407,0,0
805,617,0,0,0,0,0,0,0,0,0,-1,2029,407,0,0
812,617,0,0,0,0,0,0,0,0,0,-1,2036,407,0,0
-700,610,0,0,0,0,0,0,0,0,0,-1,524,414,0,0
-693,610,0,0,0,0,0,0,0,0,0,-1,531,414,0,0
-686,610,0,0,0,0,0,0,0,0,0,-1,538,414,0,0
-679,610,0,0,0,0,0,0,0,0,0,-1,545,414,0,0
-672,610,0,0,0,0,0,0,0,0,0,-1,552,414,0,0
-665,610,0,0,0,0,0,0,0,0,0,-1,559,414,0,0
-658,610,0,0,0,0,0,0,0,0,0,-1,566,414,0,0
-651,610,0,0,0,0,0,0,0,0,0,-1,573,414,0,0
-644,610,0,0,0,0,0,0,0,0,0,-1,580,414,0,0
-637,610,0,0,0,0,0,0,0,0,0,-1,587,414,0,0
-630,610,0,0,0,0,0,0,0,0,0,-1,594,414,0,0
-623,610,0,0,0,0,0,0,0,0,0,-1,601,414,0,0
-616,610,0,0,0,0,0,0,0,0,0,-1,608,414,0,0
-609,610,0,0,0,0,0,0,0,0,0,-1,615,414,0,0
-602,610,0,0,0,0,0,0,0,0,0,-1,622,414,0,0
-595,610,0,0,0,0,0,0,0,0,0,-1,629,414,0,0
-588,610,0,0,0,0,0,0,0,0,0,-1,636,414,0,0
-581,610,0,0,0,0,0,0,0,0,0,-1,643,414,0,0
-574,610,0,0,0,0,0,0,0,0,0,-1,650,414,0,0
-567,610,0,0,0,0,0,0,0,0,0,-1,657,414,0,0
-560,610,0,0,0,0,0,0,0,0,0,-1,664,414,0,0
-553,610,0,0,0,0,0,0,0,0,0,-1,671,414,0,0
-546,610,0,0,0,0,0,0,0,0,0,-1,678,414,0,0
-539,610,0,0,0,0,0,0,0,0,0,-1,685,414,0,0
-532,610,0,0,0,0,0,0,0,0,0,-1,692,414,0,0
-525,610,0,0,0,0,0,0,0,0,0,-1,699,414,0,0
-518,610,0,0,0,0,0,0,0,0,0,-1,706,414,0,0
-511,610,0,0,0,0,0,0,0,0,0,-1,713,414,0,0
-504,610,0,0,0,0,0,0,0,0,0,-1,720,414,0,0
-497,610,0,0,0,0,0,0,0,0,0,-1,727,414,0,0
-490,610,0,0,0,0,0,0,0,0,0,-1,734,414,0,0
-483,610,0,0,0,0,0,0,0,0,0,-1,741,414,0,0
-476,610,0,0,0,0,0,0,0,0,0,-1,748,414,0,0
-469,610,0,0,0,0,0,0,0,0,0,-1,755,414,0,0
-462,610,0,0,0,0,0,0,0,0,0,-1,762,414,0,0
-455,610,0,0,0,0,0,0,0,0,0,-1,769,414,0,0
-448,610,0,0,0,0,0,0,0,0,0,-1,776,414,0,0
-441,610,0,0,0,0,0,0,0,0,0,-1,783,414,0,0
-434,610,0,0,0,0,0,0,0,0,0,-1,790,414,0,0
-427,610,0,0,0,0,0,0,0,0,0,-1,797,414,0,0
-420,610,0,0,0,0,0,0,0,0,0,-1,804,414,0,0
-413,610,0,0,0,0,0,0,0,0,0,-1,811,414,0,0
-406,610,0,0,0,0,0,0,0,0,0,-1,818,414,0,0
-399,610,0,0,0,0,0,0,0,0,0,-1,825,414,0,0
-392,610,0,0,0,0,0,0,0,0,0,-1,832,414,0,0
-385,610,0,0,0,0,0,0,0,0,0,-1,839,414,0,0
-378,610,0,0,0,0,0,0,0,0,0,-1,846,414,0,0
-371,610,0,0,0,0,0,0,0,0,0,-1,853,414,0,0
-364,610,0,0,0,0,0,0,0,0,0,-1,860,414,0,0
-357,610,0,0,0,0,0,0,0,0,0,-1,867,414,0,0
-350,610,0,0,0,0,0,0,0,0,0,-1,874,414,0,0
-343,610,0,0,0,0,0,0,0,0,0,-1,881,414,0,0
-336,610,0,0,0,0,0,0,0,0,0,-1,888,414,0,0
-329,610,0,0,0,0,0,0,0,0,0,-1,895,414,0,0
-322,610,0,0,0,0,0,0,0,0,0,-1,902,414,0,0
-315,610,6.6438,-13.537,0,0,0,0,0,0,0,-1,909,414,6.64383,13.537
-308,610,6.20703,-13.9936,0,0,0,0,0,0,0,-1,916,414,6.20702,13.9936
-301,610,5.73285,-14.3911,0,0,0,0,0,0,0,-1,923,414,5.73285,14.3911
-294,610,2.37964,-12.4347,0,0,0,0,0,0,0,-1,930,414,2.37964,12.4347
-287,610,2.08557,-11.9136,0,0,0,0,0,0,0,-1,937,414,2.08555,11.9136
-280,610,2.25854,-11.0924,0,0,0,0,0,0,0,-1,944,414,2.25856,11.0924
-273,610,3.74542,-14.4477,0,0,0,0,0,0,0,-1,951,414,3.74543,14.4477
-266,610,3.15741,-15.1125,0,0,0,0,0,0,0,-1,958,414,3.1574,15.1126
-259,610,2.52606,-13.8111,0,0,0,0,0,0,0,-1,965,414,2.52605,13.8111
-252,610,3.07257,-17.5199,0,0,0,0,0,0,0,-1,972,414,3.07256,17.5199
-245,610,3.03192,-17.6599,0,0,0,0,0,0,0,-1,979,414,3.03194,17.6599
-238,610,3.23877,-17.1212,0,0,0,0,0,0,0,-1,986,414,3.23876,17.1212
-231,610,3.18323,-17.4133,-0.00461206,-0.00015281,-0.00259187,0.00103649,-0.00580136,-1.1406,0.00425535,0.0388216,993,414,3.18326,17.4133
-224,610,3.17761,-17.7446,-0.00468773,0.000538292,-0.00235598,0.00144359,-0.00559302,-1.20394,0.00429159,0.025498,1000,414,3.17764,17.7446
-217,610,3.16846,-18.0656,-0.00442141,0.00091294,-0.00198492,0.00157048,-0.00507895,-1.25091,0.00401323,0.0156924,1007,414,3.16845,18.0656
-210,610,3.16559,-18.3928,-0.00442791,0.00124633,-0.001623,0.00167775,-0.00485933,-1.31099,0.00392035,0.0106325,1014,414,3.16556,18.3928
-203,610,3.14917,-18.6688,-0.00447683,0.00112423,-0.0014537,0.00147905,-0.00483164,-1.3314,0.00381101,0.0134716,1021,414,3.14913,18.6688
-196,610,3.11768,-18.9362,-0.0043892,0.00122286,-0.00132804,0.00152126,-0.0046876,-1.34977,0.00373684,0.01457,1028,414,3.11773,18.9362
-189,610,3.11438,-19.1649,-0.00400754,0.00114175,-0.0013197,0.00146028,-0.00432606,-1.33397,0.00347464,0.0108729,1035,414,3.11432,19.1649
-182,610,3.10559,-19.3987,-0.00339118,0.0010067,-0.00124276,0.00133358,-0.00371806,-1.31359,0.00302293,0.0112204,1042,414,3.10559,19.3988
-175,610,3.07959,-19.6292,-0.00274009,0.000913475,-0.00108246,0.0012101,-0.00303672,-1.30333,0.00252637,0.0125124,1049,414,3.07959,19.6292
-168,610,3.05688,-19.8679,-0.00214758,0.000893431,-0.000961528,0.00117195,-0.0024261,-1.28885,0.00211898,0.0112397,1056,414,3.05694,19.8679
-161,610,3.04639,-20.1255,-0.0016018,0.000876678,-0.00075422,0.00108815,-0.00181327,-1.29743,0.00169248,0.0107705,1063,414,3.04642,20.1255
-154,610,3.03357,-20.3376,-0.00109399,0.000912196,-0.000510596,0.00103467,-0.00121646,-1.33538,0.00130111,0.0135102,1070,414,3.03356,20.3376
-147,610,3.04321,-20.526,-0.00062355,0.000738721,-0.000314083,0.000807648,-0.000692477,-1.35477,0.000866948,0.0152778,1077,414,3.04325,20.526
-140,610,3.04089,-20.7498,-0.000130687,0.000552349,-0.000216547,0.000615216,-0.000193554,-1.28825,0.000487639,0.0123043,1084,414,3.04088,20.7498
-133,610,3.04126,-20.9365,0.000382407,0.000627592,-0.000192163,0.000732937,0.000277062,-1.06933,0.000427339,0.013271,1091,414,3.04124,20.9365
-126,610,3.03223,-21.1119,0.000769761,0.000463131,-0.000200296,0.000868684,0.000364208,-0.458743,0.00050371,0.011209,1098,414,3.03217,21.1119
-119,610,3.02771,-21.3146,0.00109714,0.000330732,-0.00028696,0.00119268,0.000235196,-0.32138,0.00072947,0.0096288,1105,414,3.02773,21.3146
-112,610,3.04211,-21.4948,0.00148645,0.000223113,-0.000490348,0.00165443,5.51277e-05,-0.330053,0.00108505,0.0169126,1112,414,3.04212,21.4948
-105,610,3.04504,-21.6704,0.00192765,0.00026505,-0.00079692,0.00224793,-5.52317e-05,-0.382143,0.00151737,0.0163611,1119,414,3.04505,21.6705
-98,610,3.03247,-21.8382,0.00231518,0.000300938,-0.00113799,0.00282771,-0.000211587,-0.423166,0.00195948,0.011444,1126,414,3.0325,21.8382
-91,610,3.05115,-22.0011,0.00269094,0.000378375,-0.00148269,0.00341491,-0.000345601,-0.454231,0.00240012,0.0124426,1133,414,3.05109,22.0011
-84,610,3.07764,-22.1703,0.00309261,0.00045921,-0.00171394,0.00393722,-0.000385406,-0.457865,0.00276226,0.0135209,1140,414,3.07768,22.1703
-77,610,3.07068,-22.3272,0.00348173,0.000564285,-0.00183977,0.00437091,-0.000324894,-0.450206,0.00302805,0.0109244,1147,414,3.07069,22.3272
-70,610,3.08411,-22.453,0.00394223,2.69577e-05,-0.00181873,0.00465669,-0.00068751,-0.374317,0.00335718,0.0129552,1154,414,3.08407,22.453
-63,610,3.11047,-22.5749,0.00441062,-0.000432798,-0.00175868,0.00498184,-0.00100402,-0.314052,0.00370157,0.0122762,1161,414,3.1105,22.5749
-56,610,3.12158,-22.7023,0.00479714,-0.0012469,-0.00147502,0.0051379,-0.00158766,-0.227038,0.00405934,0.0102262,1168,414,3.12162,22.7023
-49,610,3.13049,-22.8264,0.00517307,-0.00267623,-0.00125942,0.0053702,-0.00287335,-0.15526,0.00483164,0.0106149,1175,414,3.13053,22.8263
-42,610,3.14343,-22.9418,0.00500853,-0.00536683,-0.00217123,0.00544458,-0.00580288,-0.198192,0.00649482,0.0140396,1182,414,3.14348,22.9418
-35,610,3.17761,-23.0405,0.00375221,-0.00838986,-0.00248659,0.00424171,-0.00887936,-0.19437,0.00773157,0.0139345,1189,414,3.17759,23.0405
-28,610,3.20776,-23.1382,0.0021004,-0.0113978,-0.00274313,0.00263657,-0.011934,-0.193024,0.00896502,0.012626,1196,414,3.20774,23.1382
-21,610,3.2395,-23.2041,0.00137005,-0.0132166,-0.0032502,0.00206148,-0.0139081,-0.209611,0.0100301,0.0118937,1203,414,3.2395,23.2041
-14,610,3.24817,-23.2667,0.000221114,-0.0117679,-0.00405431,0.00146342,-0.0130102,-0.297334,0.00920017,0.0133659,1210,414,3.24819,23.2667
-7,610,3.27551,-23.315,-0.00120743,-0.0112761,-0.00488201,0.00077097,-0.0132545,-0.385018,0.00910424,0.0146865,1217,414,3.2755,23.315
0,610,3.30969,-23.391,-0.00239731,-0.010286,-0.00507966,8.95811e-05,-0.0127729,-0.455275,0.0085453,0.0113492,1224,414,3.30971,23.391
7,610,3.32727,-23.4659,-0.00245822,-0.00895234,-0.00486238,0.000141618,-0.0115522,-0.491008,0.00774909,0.0117401,1231,414,3.32725,23.4659
14,610,3.37671,-23.4827,-0.00167561,-0.00736688,-0.00449614,0.000799743,-0.00984224,-0.503266,0.00684367,0.0145016,1238,414,3.37675,23.4827
21,610,3.41663,-23.5053,-0.00105876,-0.00562451,-0.00388571,0.00116505,-0.00784833,-0.519807,0.00566067,0.0127244,1245,414,3.41665,23.5053
28,610,3.41174,-23.571,-0.000449747,-0.0040672,-0.00275639,0.00103837,-0.00555532,-0.49504,0.00409381,0.0128566,1252,414,3.41179,23.5711
35,610,3.48413,-23.6052,0.000442601,-0.00255964,-0.00146009,0.00103557,-0.00315262,-0.385772,0.00251892,0.0164314,1259,414,3.48409,23.6052
42,610,3.49719,-23.5878,0.00215943,-0.00172461,-0.00013511,0.00216412,-0.0017293,-0.03473,0.00225254,0.0157618,1266,414,3.49716,23.5878
49,610,3.52563,-23.6276,0.00422944,-0.00122091,0.00107734,0.00443467,-0.00142613,0.188236,0.00352921,0.0147797,1273,414,3.52565,23.6276
56,610,3.60132,-23.6228,0.00570221,-0.000991954,0.0020865,0.00629929,-0.00158904,0.278716,0.00481737,0.0135175,1280,414,3.60135,23.6228
63,610,3.59204,-23.5619,0.00677028,-0.00112856,0.00335213,0.00800108,-0.00235936,0.351889,0.00627026,0.0175147,1287,414,3.59207,23.5618
70,610,3.60437,-23.5183,0.00763846,-0.00166825,0.00420207,0.00925496,-0.00328475,0.367241,0.00750834,0.02453,1294,414,3.60438,23.5183
77,610,3.61768,-23.498,0.00838469,-0.00203235,0.0047053,0.0101953,-0.00384298,0.367341,0.00837705,0.031817,1301,414,3.61766,23.4981
84,610,3.68054,-23.4875,0.00845486,-0.00243462,0.00508915,0.0104629,-0.0044427,0.375827,0.00883666,0.0311004,1308,414,3.68058,23.4875
91,610,3.71948,-23.4765,0.00839547,-0.0042262,0.00512981,0.0102174,-0.00604811,0.341266,0.00949317,0.0254915,1315,414,3.71951,23.4765
98,610,3.7832,-23.4726,0.00813513,-0.00474649,0.00518512,0.00996291,-0.00657426,0.338904,0.00961433,0.0242582,1322,414,3.78317,23.4726
105,610,3.81104,-23.4332,0.00786422,-0.00529843,0.00476789,0.0094098,-0.00684401,0.313476,0.00942304,0.0196796,1329,414,3.81108,23.4332
112,610,3.81042,-23.3675,0.00709238,-0.00594203,0.00415251,0.00830287,-0.00715252,0.283648,0.00893141,0.0128695,1336,414,3.81044,23.3675
119,610,3.83203,-23.2679,0.00625683,-0.0062915,0.00387497,0.00735699,-0.00739165,0.276633,0.00851514,0.0180717,1343,414,3.83203,23.2679
126,610,3.8761,-23.1774,0.0064558,-0.00666836,0.00341552,0.00729147,-0.00750403,0.239954,0.00854248,0.0245458,1350,414,3.87607,23.1774
133,610,3.90344,-23.086,0.00719034,-0.00707686,0.00276576,0.00770773,-0.00759425,0.184933,0.00883469,0.0197351,1357,414,3.90345,23.086
140,610,3.92896,-23.0039,0.00769261,-0.00767942,0.00215518,0.00798905,-0.00797587,0.136691,0.00921735,0.0157788,1364,414,3.92901,23.0039
147,610,3.91162,-22.8983,0.00757171,-0.00820957,0.00155678,0.00772382,-0.00836167,0.0973966,0.00928939,0.0164437,1371,414,3.91162,22.8983
154,610,3.91211,-22.7875,0.00743128,-0.00877344,0.000884538,0.00747942,-0.00882157,0.0543699,0.00942201,0.02167,1378,414,3.91205,22.7875
161,610,3.92542,-22.6826,0.00770908,-0.00899517,0.000228614,0.00771221,-0.0089983,0.0136826,0.00965734,0.0272041,1385,414,3.92536,22.6826
168,610,3.93628,-22.5759,0.00771917,-0.00851454,-0.000713999,0.00775052,-0.00854588,-0.0438696,0.00941246,0.0281686,1392,414,3.93634,22.5759
175,610,4.01611,-22.4441,0.00766758,-0.00771301,-0.00134197,0.00778379,-0.00782922,-0.0863813,0.00901419,0.021633,1399,414,4.01612,22.4441
182,610,4.08606,-22.3023,0.00691204,-0.00738701,-0.00160081,0.00708906,-0.00756403,-0.110136,0.00846145,0.0149956,1406,414,4.08602,22.3023
189,610,4.09021,-22.1547,0.00557738,-0.00718917,-0.00206148,0.005902,-0.0075138,-0.156188,0.00776422,0.013561,1413,414,4.09026,22.1547
196,610,4.09399,-22.0071,0.00424754,-0.00526819,-0.00168801,0.0045381,-0.00555876,-0.170465,0.00583934,0.01296,1420,414,4.09405,22.0071
203,610,4.09229,-21.8352,0.00370817,-0.00291702,-0.00132737,0.00396422,-0.00317306,-0.190556,0.00412914,0.0130625,1427,414,4.09226,21.8352
210,610,4.09875,-21.6694,0.00258755,-0.000673982,-0.000783002,0.00276578,-0.000852219,-0.223819,0.00218407,0.0100803,1434,414,4.09871,21.6694
217,610,4.12512,-21.4552,0.00180356,0.0013927,4.38275e-06,0.00180361,0.00139266,0.0106656,0.00109152,0.0162091,1441,414,4.12507,21.4552
224,610,4.13818,-21.277,0.00150083,0.00203247,0.000260292,0.00213869,0.00139461,1.18335,0.00125367,0.020097,1448,414,4.13813,21.277
231,610,4.14453,-21.1302,0.00115716,0.00257187,0.000539718,0.00275426,0.000974768,1.24491,0.00161264,0.0154495,1455,414,4.14459,21.1303
238,610,4.14148,-20.9172,0.000998349,0.00301629,0.000827502,0.00331223,0.000702413,1.22734,0.00201524,0.0116068,1462,414,4.14153,20.9172
245,610,4.15869,-20.7047,0.000917032,0.00341467,0.00101583,0.00377565,0.000556048,1.22936,0.00235375,0.0133648,1469,414,4.15864,20.7047
252,610,4.16357,-20.4922,0.000832667,0.00375905,0.00120143,0.0041891,0.000402615,1.22706,0.00266867,0.0147737,1476,414,4.16353,20.4922
259,610,4.14819,-20.2477,0.000747819,0.00408125,0.00145876,0.00462947,0.0001996,1.21132,0.00302198,0.011946,1483,414,4.14824,20.2477
266,610,4.13916,-20.0157,0.000656402,0.00439917,0.00175795,0.00509537,-3.97945e-05,1.19372,0.00341026,0.0115505,1490,414,4.1392,20.0157
273,610,4.14099,-19.7961,0.000569251,0.00470425,0.00204448,0.0055444,-0.000270902,1.1809,0.0037898,0.00979311,1497,414,4.14103,19.7961
280,610,4.13489,-19.5747,0.000532005,0.00495073,0.00238708,0.00599398,-0.000511238,1.15877,0.00417684,0.00939873,1504,414,4.13487,19.5747
287,610,4.11353,-19.3308,0.000554251,0.00534987,0.00283464,0.00666483,-0.00076071,1.13645,0.00471728,0.0123569,1511,414,4.11347,19.3308
294,610,4.12891,-19.081,0.000578269,0.00565758,0.00321913,0.00721825,-0.000982398,1.11937,0.00517083,0.0108177,1518,414,4.12894,19.081
301,610,4.13,-18.8455,0.00055959,0.00601973,0.00365487,0.0078516,-0.00127228,1.10618,0.00570598,0.0101317,1525,414,4.13,18.8455
308,610,4.10474,-18.5454,0.000521819,0.00633862,0.00408536,0.00844509,-0.00158466,1.09473,0.00622587,0.0118245,1532,414,4.10473,18.5454
315,610,4.09875,-18.2596,0.000458115,0.00669721,0.00451136,0.00906255,-0.00190722,1.08789,0.00676762,0.0132186,1539,414,4.09872,18.2596
322,610,4.08154,-18.0049,0.000325263,0.0070071,0.00489524,0.00959283,-0.00226046,1.08483,0.00726686,0.0125198,1546,414,4.08157,18.0049
329,610,4.05371,-17.7322,9.57456e-05,0.00724785,0.00525059,0.0100245,-0.00268091,1.08435,0.00773312,0.010996,1553,414,4.05365,17.7322
336,610,4.05542,-17.4234,-0.000240844,0.00757869,0.0054992,0.0104163,-0.00307848,1.09442,0.00816614,0.0104227,1560,414,4.05537,17.4234
343,610,4.05005,-17.1196,-0.000400377,0.00763356,0.00569588,0.0105865,-0.00335328,1.09252,0.00840151,0.021183,1567,414,4.05008,17.1196
350,610,4.06604,-16.8134,0,0,0,0,0,0,0,-1,1574,414,4.06599,16.8134
357,610,4.12476,-16.2809,0,0,0,0,0,0,0,-1,1581,414,4.12474,16.2809
364,610,4.34302,-15.9496,0,0,0,0,0,0,0,-1,1588,414,4.34299,15.9496
371,610,3.54138,-13.3788,0,0,0,0,0,0,0,-1,1595,414,3.54137,13.3788
378,610,3.5752,-12.1958,0,0,0,0,0,0,0,-1,1602,414,3.57517,12.1958
385,610,2.57104,-10.3878,0,0,0,0,0,0,0,-1,1609,414,2.57109,10.3878
392,610,2.35229,-10.3207,0,0,0,0,0,0,0,-1,1616,414,2.35227,10.3207
399,610,3.03833,-2.82547,0,0,0,0,0,0,0,-1,1623,414,3.03827,2.82546
406,610,2.91687,-2.9166,0,0,0,0,0,0,0,-1,1630,414,2.91688,2.91659
413,610,3.01929,-3.20306,0,0,0,0,0,0,0,-1,1637,414,3.01929,3.20306
420,610,4.78149,-3.64041,0,0,0,0,0,0,0,-1,1644,414,4.78152,3.64042
427,610,5.20764,-4.67545,0,0,0,0,0,0,0,-1,1651,414,5.20759,4.67545
434,610,5.39233,-5.45441,0,0,0,0,0,0,0,-1,1658,414,5.39228,5.4544
441,610,0,0,0,0,0,0,0,0,0,-1,1665,414,0,0
448,610,0,0,0,0,0,0,0,0,0,-1,1672,414,0,0
455,610,0,0,0,0,0,0,0,0,0,-1,1679,414,0,0
462,610,0,0,0,0,0,0,0,0,0,-1,1686,414,0,0
469,610,0,0,0,0,0,0,0,0,0,-1,1693,414,0,0
476,610,0,0,0,0,0,0,0,0,0,-1,1700,414,0,0
483,610,0,0,0,0,0,0,0,0,0,-1,1707,414,0,0
490,610,0,0,0,0,0,0,0,0,0,-1,1714,414,0,0
497,610,0,0,0,0,0,0,0,0,0,-1,1721,414,0,0
504,610,0,0,0,0,0,0,0,0,0,-1,1728,414,0,0
511,610,0,0,0,0,0,0,0,0,0,-1,1735,414,0,0
518,610,0,0,0,0,0,0,0,0,0,-1,1742,414,0,0
525,610,0,0,0,0,0,0,0,0,0,-1,1749,414,0,0
532,610,0,0,0,0,0,0,0,0,0,-1,1756,414,0,0
539,610,0,0,0,0,0,0,0,0,0,-1,1763,414,0,0
546,610,0,0,0,0,0,0,0,0,0,-1,1770,414,0,0
553,610,0,0,0,0,0,0,0,0,0,-1,1777,414,0,0
560,610,0,0,0,0,0,0,0,0,0,-1,1784,414,0,0
567,610,0,0,0,0,0,0,0,0,0,-1,1791,414,0,0
574,610,0,0,0,0,0,0,0,0,0,-1,1798,414,0,0
581,610,0,0,0,0,0,0,0,0,0,-1,1805,414,0,0
588,610,0,0,0,0,0,0,0,0,0,-1,1812,414,0,0
595,610,0,0,0,0,0,0,0,0,0,-1,1819,414,0,0
602,610,0,0,0,0,0,0,0,0,0,-1,1826,414,0,0
609,610,0,0,0,0,0,0,0,0,0,-1,1833,414,0,0
616,610,0,0,0,0,0,0,0,0,0,-1,1840,414,0,0
623,610,0,0,0,0,0,0,0,0,0,-1,1847,414,0,0
630,610,0,0,0,0,0,0,0,0,0,-1,1854,414,0,0
637,610,0,0,0,0,0,0,0,0,0,-1,1861,414,0,0
644,610,0,0,0,0,0,0,0,0,0,-1,1868,414,0,0
651,610,0,0,0,0,0,0,0,0,0,-1,1875,414,0,0
658,610,0,0,0,0,0,0,0,0,0,-1,1882,414,0,0
665,610,0,0,0,0,0,0,0,0,0,-1,1889,414,0,0
672,610,0,0,0,0,0,0,0,0,0,-1,1896,414,0,0
679,610,0,0,0,0,0,0,0,0,0,-1,1903,414,0,0
686,610,0,0,0,0,0,0,0,0,0,-1,1910,414,0,0
693,610,0,0,0,0,0,0,0,0,0,-1,1917,414,0,0
700,610,0,0,0,0,0,0,0,0,0,-1,1924,414,0,0
707,610,0,0,0,0,0,0,0,0,0,-1,1931,414,0,0
714,610,0,0,0,0,0,0,0,0,0,-1,1938,414,0,0
721,610,0,0,0,0,0,0,0,0,0,-1,1945,414,0,0
728,610,0,0,0,0,0,0,0,0,0,-1,1952,414,0,0
735,610,0,0,0,0,0,0,0,0,0,-1,1959,414,0,0
742,610,0,0,0,0,0,0,0,0,0,-1,1966,414,0,0
749,610,0,0,0,0,0,0,0,0,0,-1,1973,414,0,0
756,610,0,0,0,0,0,0,0,0,0,-1,1980,414,0,0
763,610,0,0,0,0,0,0,0,0,0,-1,1987,414,0,0
770,610,0,0,0,0,0,0,0,0,0,-1,1994,414,0,0
777,610,0,0,0,0,0,0,0,0,0,-1,2001,414,0,0
784,610,0,0,0,0,0,0,0,0,0,-1,2008,414,0,0
791,610,0,0,0,0,0,0,0,0,0,-1,2015,414,0,0
798,610,0,0,0,0,0,0,0,0,0,-1,2022,414,0,0
805,610,0,0,0,0,0,0,0,0,0,-1,2029,414,0,0
812,610,0,0,0,0,0,0,0,0,0,-1,2036,414,0,0
-700,603,0,0,0,0,0,0,0,0,0,-1,524,421,0,0
-693,603,0,0,0,0,0,0,0,0,0,-1,531,421,0,0
-686,603,0,0,0,0,0,0,0,0,0,-1,538,421,0,0
-679,603,0,0,0,0,0,0,0,0,0,-1,545,421,0,0
-672,603,0,0,0,0,0,0,0,0,0,-1,552,421,0,0
-665,603,0,0,0,0,0,0,0,0,0,-1,559,421,0,0
-658,603,0,0,0,0,0,0,0,0,0,-1,566,421,0,0
-651,603,0,0,0,0,0,0,0,0,0,-1,573,421,0,0
-644,603,0,0,0,0,0,0,0,0,0,-1,580,421,0,0
-637,603,0,0,0,0,0,0,0,0,0,-1,587,421,0,0
-630,603,0,0,0,0,0,0,0,0,0,-1,594,421,0,0
-623,603,0,0,0,0,0,0,0,0,0,-1,601,421,0,0
-616,603,0,0,0,0,0,0,0,0,0,-1,608,421,0,0
-609,603,0,0,0,0,0,0,0,0,0,-1,615,421,0,0
-602,603,0,0,0,0,0,0,0,0,0,-1,622,421,0,0
-595,603,0,0,0,0,0,0,0,0,0,-1,629,421,0,0
-588,603,0,0,0,0,0,0,0,0,0,-1,636,421,0,0
-581,603,0,0,0,0,0,0,0,0,0,-1,643,421,0,0
-574,603,0,0,0,0,0,0,0,0,0,-1,650,421,0,0
-567,603,0,0,0,0,0,0,0,0,0,-1,657,421,0,0
-560,603,0,0,0,0,0,0,0,0,0,-1,664,421,0,0
-553,603,0,0,0,0,0,0,0,0,0,-1,671,421,0,0
-546,603,0,0,0,0,0,0,0,0,0,-1,678,421,0,0
-539,603,0,0,0,0,0,0,0,0,0,-1,685,421,0,0
-532,603,0,0,0,0,0,0,0,0,0,-1,692,421,0,0
-525,603,0,0,0,0,0,0,0,0,0,-1,699,421,0,0
-518,603,0,0,0,0,0,0,0,0,0,-1,706,421,0,0
-511,603,0,0,0,0,0,0,0,0,0,-1,713,421,0,0
-504,603,0,0,0,0,0,0,0,0,0,-1,720,421,0,0
-497,603,0,0,0,0,0,0,0,0,0,-1,727,421,0,0
-490,603,0,0,0,0,0,0,0,0,0,-1,734,421,0,0
-483,603,0,0,0,0,0,0,0,0,0,-1,741,421,0,0
-476,603,0,0,0,0,0,0,0,0,0,-1,748,421,0,0
-469,603,0,0,0,0,0,0,0,0,0,-1,755,421,0,0
-462,603,0,0,0,0,0,0,0,0,0,-1,762,421,0,0
-455,603,0,0,0,0,0,0,0,0,0,-1,769,421,0,0
-448,603,0,0,0,0,0,0,0,0,0,-1,776,421,0,0
-441,603,0,0,0,0,0,0,0,0,0,-1,783,421,0,0
-434,603,0,0,0,0,0,0,0,0,0,-1,790,421,0,0
-427,603,0,0,0,0,0,0,0,0,0,-1,797,421,0,0
-420,603,0,0,0,0,0,0,0,0,0,-1,804,421,0,0
-413,603,0,0,0,0,0,0,0,0,0,-1,811,421,0,0
-406,603,0,0,0,0,0,0,0,0,0,-1,818,421,0,0
-399,603,0,0,0,0,0,0,0,0,0,-1,825,421,0,0
-392,603,0,0,0,0,0,0,0,0,0,-1,832,421,0,0
-385,603,0,0,0,0,0,0,0,0,0,-1,839,421,0,0
-378,603,0,0,0,0,0,0,0,0,0,-1,846,421,0,0
-371,603,0,0,0,0,0,0,0,0,0,-1,853,421,0,0
-364,603,0,0,0,0,0,0,0,0,0,-1,860,421,0,0
-357,603,0,0,0,0,0,0,0,0,0,-1,867,421,0,0
-350,603,0,0,0,0,0,0,0,0,0,-1,874,421,0,0
-343,603,0,0,0,0,0,0,0,0,0,-1,881,421,0,0
-336,603,0,0,0,0,0,0,0,0,0,-1,888,421,0,0
-329,603,0.191833,-18.5754,0,0,0,0,0,0,0,-1,895,421,0.191843,18.5754
-322,603,0.93042,-16.6873,0,0,0,0,0,0,0,-1,902,421,0.930445,16.6873
-315,603,5.52008,-13.3285,0,0,0,0,0,0,0,-1,909,421,5.52009,13.3285
-308,603,5.18152,-13.3872,0,0,0,0,0,0,0,-1,916,421,5.18154,13.3872
-301,603,4.70502,-13.6409,0,0,0,0,0,0,0,-1,923,421,4.70499,13.6409
-294,603,3.95184,-13.8366,0,0,0,0,0,0,0,-1,930,421,3.95182,13.8366
-287,603,3.80811,-9.60947,0,0,0,0,0,0,0,-1,937,421,3.80809,9.60946
-280,603,3.49683,-14.7984,0,0,0,0,0,0,0,-1,944,421,3.49682,14.7984
-273,603,2.97968,-15.887,0,0,0,0,0,0,0,-1,951,421,2.9797,15.887
-266,603,2.32379,-16.4419,0,0,0,0,0,0,0,-1,958,421,2.32379,16.4419
-259,603,2.61523,-16.3591,0,0,0,0,0,0,0,-1,965,421,2.61522,16.3591
-252,603,2.92926,-17.0815,-0.00211039,-0.00210704,-0.00551196,0.00340324,-0.00762067,-0.78555,0.00651807,0.0429679,972,421,2.92923,17.0816
-245,603,2.92114,-17.246,-0.00182859,9.34569e-05,-0.00443095,0.0036664,-0.00540153,-0.892188,0.00526723,0.0329765,979,421,2.92113,17.246
-238,603,3.00342,-17.2432,-0.00203687,0.00150756,-0.00348586,0.00364584,-0.00417515,-1.02057,0.00451889,0.0212456,986,421,3.0034,17.2432
-231,603,2.9541,-17.5564,-0.00236231,0.00266785,-0.00267336,0.00382326,-0.00351772,-1.16285,0.00423954,0.0132842,993,421,2.95409,17.5564
-224,603,2.90717,-17.8589,-0.00231893,0.00347567,-0.00239286,0.00433604,-0.00317931,-1.22563,0.00435609,0.0125353,1000,421,2.90715,17.8589
-217,603,2.90527,-18.1312,-0.00200123,0.00391644,-0.00204512,0.00455444,-0.00263923,-1.2684,0.00420205,0.0117656,1007,421,2.90525,18.1312
-210,603,2.91571,-18.416,-0.00193833,0.00416244,-0.00169341,0.00460096,-0.00237686,-1.3174,0.00409629,0.0104603,1014,421,2.91571,18.416
-203,603,2.91229,-18.6941,-0.00194962,0.00389963,-0.00149447,0.00425934,-0.00230933,-1.33459,0.00384773,0.0163323,1021,421,2.91231,18.6941
-196,603,2.92334,-18.9796,-0.00186811,0.00373743,-0.00134688,0.00404426,-0.00217494,-1.34681,0.00364432,0.0178309,1028,421,2.9233,18.9796
-189,603,2.91248,-19.1758,-0.00161471,0.00330527,-0.00127067,0.00361406,-0.0019235,-1.3324,0.00324639,0.0147309,1035,421,2.91243,19.1758
-182,603,2.87207,-19.4211,-0.00121764,0.00267883,-0.00113173,0.00298369,-0.0015225,-1.30767,0.00264685,0.0111027,1042,421,2.87205,19.4211
-175,603,2.85144,-19.6582,-0.000799997,0.00203821,-0.000923003,0.00231197,-0.00107376,-1.28246,0.00199785,0.0114775,1049,421,2.85142,19.6582
-168,603,2.82483,-19.8695,-0.000469311,0.00141981,-0.000758344,0.00168656,-0.000736065,-1.23256,0.00143414,0.0140253,1056,421,2.82487,19.8695
-161,603,2.81262,-20.1144,-0.000194309,0.000866218,-0.00059617,0.00113383,-0.000461916,-1.14888,0.000948135,0.0135557,1063,421,2.81265,20.1144
-154,603,2.81641,-20.3404,0.000101411,0.000368339,-0.000406517,0.00066274,-0.00019299,-0.94401,0.000518275,0.0120028,1070,421,2.81646,20.3404
-147,603,2.83301,-20.5359,0.000419636,-0.000229395,-0.00024676,0.000502798,-0.000312557,-0.32506,0.000474997,0.0131185,1077,421,2.83295,20.5359
-140,603,2.85217,-20.7286,0.000793738,-0.000741006,-0.00022835,0.000826993,-0.000774261,-0.144615,0.000924652,0.0116416,1084,421,2.85217,20.7286
-133,603,2.83398,-20.9194,0.00117575,-0.00106196,-0.000272409,0.00120843,-0.00109464,-0.119413,0.00133022,0.0117446,1091,421,2.83402,20.9194
-126,603,2.83643,-21.0979,0.00151466,-0.00146822,-0.000321027,0.00154882,-0.00150238,-0.106006,0.00176168,0.0105227,1098,421,2.83639,21.0979
-119,603,2.87024,-21.304,0.00192895,-0.00165966,-0.000521829,0.00200329,-0.001734,-0.141509,0.0021596,0.0108511,1105,421,2.87029,21.3039
-112,603,2.86841,-21.5026,0.00239807,-0.0017814,-0.00077864,0.00253842,-0.00192175,-0.178333,0.00258327,0.0155864,1112,421,2.86846,21.5026
-105,603,2.87488,-21.6933,0.00293455,-0.00162637,-0.00111526,0.00319266,-0.00188448,-0.227425,0.00296354,0.0149626,1119,421,2.87484,21.6933
-98,603,2.86267,-21.8385,0.00343425,-0.00141885,-0.0014645,0.00384193,-0.00182653,-0.271506,0.00334093,0.0114808,1126,421,2.8627,21.8385
-91,603,2.87732,-21.9869,0.00391998,-0.00113662,-0.00181043,0.00450133,-0.00171797,-0.310714,0.00370864,0.00837643,1133,421,2.87732,21.9869
-84,603,2.92126,-22.1627,0.00444425,-0.00075017,-0.00204499,0.00515272,-0.00145863,-0.333499,0.00401076,0.00942293,1140,421,2.92128,22.1627
-77,603,2.92639,-22.3177,0.00497316,-0.000353749,-0.00216908,0.00574465,-0.00112524,-0.341725,0.00425474,0.0144005,1147,421,2.92644,22.3177
-70,603,3.04895,-22.6634,0.00562698,-0.000965093,-0.00216388,0.00627381,-0.00161193,-0.290469,0.00481073,0.043252,1154,421,3.04898,22.6634
-63,603,3,-22.5541,0,0,0,0,0,0,0,-1,1161,421,3.00004,22.5541
-56,603,2.98181,-22.6956,0,0,0,0,0,0,0,-1,1168,421,2.98177,22.6956
-49,603,3.0094,-22.822,0,0,0,0,0,0,0,-1,1175,421,3.00945,22.822
-42,603,3.02649,-22.906,0,0,0,0,0,0,0,-1,1182,421,3.02646,22.906
-35,603,3.00623,-22.9759,0.0045506,-0.0127954,-0.00330624,0.00515942,-0.0134043,-0.182102,0.0110645,0.0415977,1189,421,3.00626,22.9759
-28,603,3.04883,-23.0587,0.00224967,-0.016552,-0.00335584,0.00283069,-0.017133,-0.171437,0.0124731,0.0242941,1196,421,3.04879,23.0587
-21,603,3.12146,-23.1364,0.00120229,-0.0185632,-0.00378685,0.00190297,-0.0192639,-0.18296,0.0135216,0.021842,1203,421,3.12147,23.1364
-14,603,3.18372,-23.197,-0.000421982,-0.0153852,-0.00468681,0.00092481,-0.016732,-0.279818,0.0114754,0.0218614,1210,421,3.18377,23.197
-7,603,3.22083,-23.2615,-0.00238372,-0.0141951,-0.00570465,-7.84276e-05,-0.0165004,-0.384042,0.0109742,0.0235653,1217,421,3.22088,23.2615
0,603,3.22473,-23.3532,-0.00414568,-0.0121077,-0.00601379,-0.000914611,-0.0153388,-0.493022,0.00993503,0.0282026,1224,421,3.22476,23.3532
7,603,3.25122,-23.318,-0.0040226,-0.00986163,-0.00555179,-0.000669488,-0.0132147,-0.543334,0.00859537,0.034078,1231,421,3.25117,23.318
14,603,3.45569,-23.2401,-0.0027058,-0.00747346,-0.00530418,0.000725608,-0.0109049,-0.574211,0.00752346,0.0322834,1238,421,3.45573,23.2401
21,603,3.42261,-23.3224,-0.00180911,-0.00492157,-0.00461878,0.00150857,-0.00823925,-0.622904,0.00605862,0.0250587,1245,421,3.42267,23.3224
28,603,3.48401,-23.3745,-0.00093306,-0.00272535,-0.00335936,0.00164763,-0.00530604,-0.655053,0.00419582,0.0282766,1252,421,3.48405,23.3745
35,603,3.54248,-23.3501,0.000225422,-0.000796011,-0.00185208,0.00163591,-0.0022065,-0.650865,0.00222656,0.0378957,1259,421,3.54254,23.3501
42,603,3.57092,-23.4752,0.00241829,0.000232814,-0.000309987,0.00246141,0.000189696,-0.138208,0.00158151,0.0328875,1266,421,3.57091,23.4752
49,603,3.58521,-23.5547,0.00499262,0.000626968,0.00113376,0.00526949,0.000350091,0.239523,0.00340231,0.0161181,1273,421,3.58524,23.5547
56,603,3.53479,-23.4772,0.00682513,0.000610267,0.00235168,0.00761469,-0.000179289,0.323917,0.00513727,0.030631,1280,421,3.53483,23.4772
63,603,3.63452,-23.1223,0.00814836,0.000126361,0.00388279,0.00971985,-0.00144513,0.384579,0.00701143,0.0456473,1287,421,3.63449,23.1223
70,603,3.69922,-23.0271,0,0,0,0,0,0,0,-1,1294,421,3.69928,23.0271
77,603,3.58459,-23.3799,0,0,0,0,0,0,0,-1,1301,421,3.58459,23.3799
84,603,3.70618,-23.3977,0,0,0,0,0,0,0,-1,1308,421,3.70621,23.3977
91,603,3.87268,-23.1129,0,0,0,0,0,0,0,-1,1315,421,3.87269,23.1129
98,603,3.85938,-23.4503,0,0,0,0,0,0,0,-1,1322,421,3.85936,23.4503
105,603,4.17395,-23.4122,0.0102041,-0.00693523,0.00652075,0.0124029,-0.00913401,0.325224,0.012482,0.0442857,1329,421,4.17389,23.4122
112,603,4.05457,-23.2836,0.00934883,-0.0076767,0.00580624,0.0111404,-0.00946828,0.299293,0.0119115,0.0369802,1336,421,4.05451,23.2836
119,603,4.04675,-23.1269,0.0084718,-0.00791556,0.00579502,0.010314,-0.00975774,0.307789,0.0115899,0.037566,1343,421,4.04681,23.1269
126,603,4.09692,-22.9518,0.00932279,-0.00819752,0.00534643,0.0108254,-0.00970014,0.273984,0.0118564,0.0425917,1350,421,4.09697,22.9518
133,603,4.09375,-22.8548,0.0108092,-0.00857159,0.00465425,0.011869,-0.00963135,0.22388,0.0124356,0.0357989,1357,421,4.09377,22.8548
140,603,4.11243,-22.8238,0.0119885,-0.00920654,0.00387636,0.0126752,-0.00989324,0.175332,0.0130628,0.0228054,1364,421,4.1124,22.8238
147,603,4.00281,-22.7932,0.0121536,-0.00986487,0.0030636,0.0125719,-0.0102832,0.135705,0.0132174,0.0172394,1371,421,4.00279,22.7932
154,603,4.01379,-22.7386,0.0122176,-0.0105185,0.00209383,0.0124089,-0.0107098,0.0910717,0.0133596,0.0261633,1378,421,4.01377,22.7386
161,603,4.14734,-22.6134,0.0126204,-0.0109135,0.00111189,0.0126728,-0.010966,0.0471063,0.0136597,0.0320456,1385,421,4.14728,22.6134
168,603,4.09644,-22.4959,0.0125277,-0.0104491,-0.00033163,0.0125325,-0.0104539,-0.0144292,0.0132893,0.0309146,1392,421,4.09645,22.4959
175,603,4.297,-22.389,0.0124244,-0.00967238,-0.00139468,0.0125121,-0.00976006,-0.0627847,0.0128915,0.0323556,1399,421,4.297,22.389
182,603,4.41589,-22.2906,0.0112795,-0.00990299,-0.00203155,0.0114726,-0.0100961,-0.094756,0.0124611,0.0398788,1406,421,4.4159,22.2906
189,603,4.34729,-22.1018,0.00894826,-0.0104183,-0.00297528,0.00939505,-0.0108651,-0.149052,0.0117075,0.0354864,1413,421,4.34724,22.1018
196,603,4.27893,-21.9086,0.00635698,-0.00819393,-0.00262589,0.00681635,-0.0086533,-0.173187,0.00895237,0.0266916,1420,421,4.27887,21.9086
203,603,4.26782,-21.7909,0.0056033,-0.00491274,-0.00220443,0.00604671,-0.00535615,-0.198496,0.00658747,0.0156519,1427,421,4.26787,21.7909
210,603,4.27844,-21.6959,0.00398061,-0.00176881,-0.00152944,0.00436215,-0.00215034,-0.244472,0.00383159,0.0119391,1434,421,4.27843,21.6959
217,603,4.28955,-21.4899,0.00286435,0.00121531,-0.000422202,0.00296616,0.0011135,-0.236625,0.00173014,0.0134784,1441,421,4.28955,21.4899
224,603,4.31384,-21.2938,0.00250977,0.00199632,-0.00011359,0.00253378,0.00197231,-0.20828,0.00153661,0.0171885,1448,421,4.31389,21.2938
231,603,4.31946,-21.118,0.00204961,0.00262958,0.000184788,0.00268345,0.00199574,1.28712,0.00160947,0.0145738,1455,421,4.31941,21.118
238,603,4.33655,-20.9182,0.0018443,0.00302246,0.000453905,0.00317705,0.00168971,1.24254,0.00183551,0.0107614,1462,421,4.33654,20.9182
245,603,4.35522,-20.709,0.00173376,0.00332184,0.000591307,0.00351782,0.00153778,1.25075,0.00203636,0.0119154,1469,421,4.35523,20.7089
252,603,4.37109,-20.4949,0.00155833,0.00350146,0.000704142,0.0037298,0.00133,1.25722,0.00218273,0.0104635,1476,421,4.37113,20.4949
259,603,4.37646,-20.2723,0.00134807,0.00359165,0.000858899,0.0038827,0.00105702,1.24408,0.00231791,0.0101133,1483,421,4.37647,20.2723
266,603,4.36084,-20.0351,0.00115342,0.00364994,0.00104299,0.00402833,0.000775029,1.22277,0.00246811,0.0109693,1490,421,4.3608,20.0351
273,603,4.36694,-19.7942,0.000981122,0.00369912,0.00122459,0.00416946,0.00051078,1.20409,0.00262599,0.0105691,1497,421,4.36696,19.7942
280,603,4.38232,-19.5777,0.000855739,0.00371694,0.0014633,0.00433277,0.000239909,1.17245,0.00281196,0.0117765,1504,421,4.38236,19.5777
287,603,4.37744,-19.329,0.000807584,0.00393479,0.00179483,0.00475158,-9.2038e-06,1.14373,0.00317079,0.0107331,1511,421,4.37742,19.329
294,603,4.375,-19.0745,0.000771896,0.0040809,0.0020899,0.00509193,-0.000239133,1.12022,0.00347707,0.009874,1518,421,4.375,19.0745
301,603,4.36108,-18.8197,0.000698327,0.00425525,0.00243705,0.00549377,-0.000540187,1.10061,0.00385521,0.0116434,1525,421,4.36113,18.8197
308,603,4.34949,-18.5364,0.000654075,0.00449053,0.00281396,0.00597788,-0.000833277,1.08456,0.00429008,0.0165001,1532,421,4.34946,18.5364
315,603,4.34167,-18.2751,0.000593427,0.00481112,0.00318061,0.0065185,-0.00111395,1.07814,0.00476062,0.0152046,1539,421,4.34165,18.2752
322,603,4.34009,-18.0122,0.000452712,0.00512109,0.00351859,0.00700933,-0.00143553,1.07826,0.00521764,0.0144054,1546,421,4.34013,18.0122
329,603,4.30396,-17.7374,0.000231749,0.0053948,0.00386012,0.00745707,-0.00183052,1.08013,0.00568073,0.010675,1553,421,4.304,17.7374
336,603,4.30383,-17.4494,-6.12426e-05,0.00574097,0.0041313,0.00788804,-0.00220831,1.09151,0.00612888,0.00954539,1560,421,4.30379,17.4494
343,603,4.32239,-17.1647,-0.000237686,0.00589925,0.00435024,0.00815432,-0.00249276,1.09255,0.00643026,0.0118638,1567,421,4.32245,17.1647
350,603,4.31384,-16.8621,-0.000317701,0.00644436,0.0047327,0.00887968,-0.00275301,1.09556,0.00701977,0.02554,1574,421,4.31385,16.8621
357,603,4.33057,-16.4708,-0.000670476,0.00690559,0.00503644,0.00941954,-0.00318442,1.10783,0.00756788,0.0359769,1581,421,4.33055,16.4708
364,603,4.31836,-16.064,-0.00127582,0.00723046,0.00502226,0.00955852,-0.00360389,1.13673,0.00785426,0.0481723,1588,421,4.31834,16.064
371,603,4.19397,-15.7595,0,0,0,0,0,0,0,-1,1595,421,4.19395,15.7595
378,603,4.12769,-15.6466,0,0,0,0,0,0,0,-1,1602,421,4.12774,15.6466
385,603,3.99951,-15.1141,0,0,0,0,0,0,0,-1,1609,421,3.9995,15.1141
392,603,4.07629,-14.9025,0,0,0,0,0,0,0,-1,1616,421,4.07628,14.9025
399,603,2.38013,-5.37076,0,0,0,0,0,0,0,-1,1623,421,2.38016,5.37075
406,603,3.01917,-2.37219,0,0,0,0,0,0,0,-1,1630,421,3.01915,2.37219
413,603,2.38928,-2.41275,0,0,0,0,0,0,0,-1,1637,421,2.38926,2.41274
420,603,2.74866,-2.30066,0,0,0,0,0,0,0,-1,1644,421,2.74867,2.30065
427,603,7.11548,-3.35352,0,0,0,0,0,0,0,-1,1651,421,7.11549,3.35351
434,603,7.32153,-4.50525,0,0,0,0,0,0,0,-1,1658,421,7.32149,4.50525
441,603,3.18213,-0.250946,0,0,0,0,0,0,0,-1,1665,421,3.18212,0.250944
448,603,2.95667,-0.066925,0,0,0,0,0,0,0,-1,1672,421,2.95662,0.0669226
455,603,0,0,0,0,0,0,0,0,0,-1,1679,421,0,0
462,603,0,0,0,0,0,0,0,0,0,-1,1686,421,0,0
469,603,0,0,0,0,0,0,0,0,0,-1,1693,421,0,0
476,603,0,0,0,0,0,0,0,0,0,-1,1700,421,0,0
483,603,0,0,0,0,0,0,0,0,0,-1,1707,421,0,0
490,603,0,0,0,0,0,0,0,0,0,-1,1714,421,0,0
497,603,0,0,0,0,0,0,0,0,0,-1,1721,421,0,0
504,603,0,0,0,0,0,0,0,0,0,-1,1728,421,0,0
511,603,0,0,0,0,0,0,0,0,0,-1,1735,421,0,0
518,603,0,0,0,0,0,0,0,0,0,-1,1742,421,0,0
525,603,0,0,0,0,0,0,0,0,0,-1,1749,421,0,0
532,603,0,0,0,0,0,0,0,0,0,-1,1756,421,0,0
539,603,0,0,0,0,0,0,0,0,0,-1,1763,421,0,0
546,603,0,0,0,0,0,0,0,0,0,-1,1770,421,0,0
553,603,0,0,0,0,0,0,0,0,0,-1,1777,421,0,0
560,603,0,0,0,0,0,0,0,0,0,-1,1784,421,0,0
567,603,0,0,0,0,0,0,0,0,0,-1,1791,421,0,0
574,603,0,0,0,0,0,0,0,0,0,-1,1798,421,0,0
581,603,0,0,0,0,0,0,0,0,0,-1,1805,421,0,0
588,603,0,0,0,0,0,0,0,0,0,-1,1812,421,0,0
595,603,0,0,0,0,0,0,0,0,0,-1,1819,421,0,0
602,603,0,0,0,0,0,0,0,0,0,-1,1826,421,0,0
609,603,0,0,0,0,0,0,0,0,0,-1,1833,421,0,0
616,603,0,0,0,0,0,0,0,0,0,-1,1840,421,0,0
623,603,0,0,0,0,0,0,0,0,0,-1,1847,421,0,0
630,603,0,0,0,0,0,0,0,0,0,-1,1854,421,0,0
637,603,0,0,0,0,0,0,0,0,0,-1,1861,421,0,0
644,603,0,0,0,0,0,0,0,0,0,-1,1868,421,0,0
651,603,0,0,0,0,0,0,0,0,0,-1,1875,421,0,0
658,603,0,0,0,0,0,0,0,0,0,-1,1882,421,0,0
665,603,0,0,0,0,0,0,0,0,0,-1,1889,421,0,0
672,603,0,0,0,0,0,0,0,0,0,-1,1896,421,0,0
679,603,0,0,0,0,0,0,0,0,0,-1,1903,421,0,0
686,603,0,0,0,0,0,0,0,0,0,-1,1910,421,0,0
693,603,0,0,0,0,0,0,0,0,0,-1,1917,421,0,0
700,603,0,0,0,0,0,0,0,0,0,-1,1924,421,0,0
707,603,0,0,0,0,0,0,0,0,0,-1,1931,421,0,0
714,603,0,0,0,0,0,0,0,0,0,-1,1938,421,0,0
721,603,0,0,0,0,0,0,0,0,0,-1,1945,421,0,0
728,603,0,0,0,0,0,0,0,0,0,-1,1952,421,0,0
735,603,0,0,0,0,0,0,0,0,0,-1,1959,421,0,0
742,603,0,0,0,0,0,0,0,0,0,-1,1966,421,0,0
749,603,0,0,0,0,0,0,0,0,0,-1,1973,421,0,0
756,603,0,0,0,0,0,0,0,0,0,-1,1980,421,0,0
763,603,0,0,0,0,0,0,0,0,0,-1,1987,421,0,0
770,603,0,0,0,0,0,0,0,0,0,-1,1994,421,0,0
777,603,0,0,0,0,0,0,0,0,0,-1,2001,421,0,0
784,603,0,0,0,0,0,0,0,0,0,-1,2008,421,0,0
791,603,0,0,0,0,0,0,0,0,0,-1,2015,421,0,0
798,603,0,0,0,0,0,0,0,0,0,-1,2022,421,0,0
805,603,0,0,0,0,0,0,0,0,0,-1,2029,421,0,0
812,603,0,0,0,0,0,0,0,0,0,-1,2036,421,0,0
-700,596,0,0,0,0,0,0,0,0,0,-1,524,428,0,0
-693,596,0,0,0,0,0,0,0,0,0,-1,531,428,0,0
-686,596,0,0,0,0,0,0,0,0,0,-1,538,428,0,0
-679,596,0,0,0,0,0,0,0,0,0,-1,545,428,0,0
-672,596,0,0,0,0,0,0,0,0,0,-1,552,428,0,0
-665,596,0,0,0,0,0,0,0,0,0,-1,559,428,0,0
-658,596,0,0,0,0,0,0,0,0,0,-1,566,428,0,0
-651,596,0,0,0,0,0,0,0,0,0,-1,573,428,0,0
-644,596,0,0,0,0,0,0,0,0,0,-1,580,428,0,0
-637,596,0,0,0,0,0,0,0,0,0,-1,587,428,0,0
-630,596,0,0,0,0,0,0,0,0,0,-1,594,428,0,0
-623,596,0,0,0,0,0,0,0,0,0,-1,601,428,0,0
-616,596,0,0,0,0,0,0,0,0,0,-1,608,428,0,0
-609,596,0,0,0,0,0,0,0,0,0,-1,615,428,0,0
-602,596,0,0,0,0,0,0,0,0,0,-1,622,428,0,0
-595,596,0,0,0,0,0,0,0,0,0,-1,629,428,0,0
-588,596,0,0,0,0,0,0,0,0,0,-1,636,428,0,0
-581,596,0,0,0,0,0,0,0,0,0,-1,643,428,0,0
-574,596,0,0,0,0,0,0,0,0,0,-1,650,428,0,0
-567,596,0,0,0,0,0,0,0,0,0,-1,657,428,0,0
-560,596,0,0,0,0,0,0,0,0,0,-1,664,428,0,0
-553,596,0,0,0,0,0,0,0,0,0,-1,671,428,0,0
-546,596,0,0,0,0,0,0,0,0,0,-1,678,428,0,0
-539,596,0,0,0,0,0,0,0,0,0,-1,685,428,0,0
-532,596,0,0,0,0,0,0,0,0,0,-1,692,428,0,0
-525,596,0,0,0,0,0,0,0,0,0,-1,699,428,0,0
-518,596,0,0,0,0,0,0,0,0,0,-1,706,428,0,0
-511,596,0,0,0,0,0,0,0,0,0,-1,713,428,0,0
-504,596,0,0,0,0,0,0,0,0,0,-1,720,428,0,0
-497,596,0,0,0,0,0,0,0,0,0,-1,727,428,0,0
-490,596,0,0,0,0,0,0,0,0,0,-1,734,428,0,0
-483,596,0,0,0,0,0,0,0,0,0,-1,741,428,0,0
-476,596,0,0,0,0,0,0,0,0,0,-1,748,428,0,0
-469,596,0,0,0,0,0,0,0,0,0,-1,755,428,0,0
-462,596,0,0,0,0,0,0,0,0,0,-1,762,428,0,0
-455,596,0,0,0,0,0,0,0,0,0,-1,769,428,0,0
-448,596,0,0,0,0,0,0,0,0,0,-1,776,428,0,0
-441,596,0,0,0,0,0,0,0,0,0,-1,783,428,0,0
-434,596,0,0,0,0,0,0,0,0,0,-1,790,428,0,0
-427,596,0,0,0,0,0,0,0,0,0,-1,797,428,0,0
-420,596,0,0,0,0,0,0,0,0,0,-1,804,428,0,0
-413,596,0,0,0,0,0,0,0,0,0,-1,811,428,0,0
-406,596,0,0,0,0,0,0,0,0,0,-1,818,428,0,0
-399,596,0,0,0,0,0,0,0,0,0,-1,825,428,0,0
-392,596,0,0,0,0,0,0,0,0,0,-1,832,428,0,0
-385,596,0,0,0,0,0,0,0,0,0,-1,839,428,0,0
-378,596,0,0,0,0,0,0,0,0,0,-1,846,428,0,0
-371,596,0,0,0,0,0,0,0,0,0,-1,853,428,0,0
-364,596,0,0,0,0,0,0,0,0,0,-1,860,428,0,0
-357,596,0,0,0,0,0,0,0,0,0,-1,867,428,0,0
-350,596,0,0,0,0,0,0,0,0,0,-1,874,428,0,0
-343,596,0,0,0,0,0,0,0,0,0,-1,881,428,0,0
-336,596,-0.315308,-18.9491,0,0,0,0,0,0,0,-1,888,428,-0.315329,18.9491
-329,596,0.0933228,-17.6538,0,0,0,0,0,0,0,-1,895,428,0.0933086,17.6539
-322,596,0.433533,-16.0376,0,0,0,0,0,0,0,-1,902,428,0.433533,16.0376
-315,596,4.39758,-13.4543,0,0,0,0,0,0,0,-1,909,428,4.3976,13.4543
-308,596,3.96692,-13.1268,0,0,0,0,0,0,0,-1,916,428,3.9669,13.1268
-301,596,3.05066,-14.5527,0,0,0,0,0,0,0,-1,923,428,3.05068,14.5527
-294,596,2.47266,-14.8593,0,0,0,0,0,0,0,-1,930,428,2.47267,14.8593
-287,596,2.64307,-15.0371,0,0,0,0,0,0,0,-1,937,428,2.64308,15.0371
-280,596,2.75031,-15.5467,0,0,0,0,0,0,0,-1,944,428,2.75033,15.5467
-273,596,2.75281,-15.873,-0.00241557,-0.00708405,-0.00870947,0.00426704,-0.0137667,-0.654469,0.0108826,0.0442602,951,428,2.75279,15.873
-266,596,2.41229,-16.2895,-0.00236685,-0.00496625,-0.00702529,0.00347795,-0.010811,-0.693931,0.00860427,0.0371201,958,428,2.41231,16.2895
-259,596,2.54559,-16.3981,-0.00214901,-0.00311789,-0.00568897,0.00307611,-0.00834301,-0.742924,0.00682259,0.0326599,965,428,2.54557,16.3981
-252,596,2.73114,-16.7402,-0.00172593,-0.00172576,-0.00475733,0.00303149,-0.00648318,-0.785407,0.00561249,0.0176276,972,428,2.73114,16.7402
-245,596,2.73376,-17.0351,-0.00136861,-0.000219195,-0.00387063,0.00311916,-0.00470696,-0.859099,0.00454931,0.0132682,979,428,2.73374,17.0351
-238,596,2.72534,-17.3038,-0.00112697,0.00131674,-0.00312149,0.003447,-0.00325722,-0.971948,0.0038712,0.0109569,986,428,2.72535,17.3038
-231,596,2.66815,-17.6082,-0.00103802,0.00259199,-0.00250146,0.00386754,-0.00231357,-1.09924,0.00360607,0.0125405,993,428,2.66816,17.6082
-224,596,2.65277,-17.9002,-0.000890214,0.00333604,-0.00215413,0.00424046,-0.00179464,-1.17329,0.00357847,0.0133565,1000,428,2.65274,17.9002
-217,596,2.66705,-18.1844,-0.00053093,0.00378118,-0.00177951,0.0044207,-0.00117045,-1.22579,0.00340501,0.0138834,1007,428,2.66706,18.1844
-210,596,2.68732,-18.4524,-0.000404387,0.00398159,-0.00140211,0.00439151,-0.000814303,-1.28637,0.00323347,0.0120052,1014,428,2.68732,18.4524
-203,596,2.65424,-18.6874,-0.000364236,0.00372735,-0.00116282,0.00403474,-0.000671617,-1.31237,0.00293938,0.0152601,1021,428,2.65424,18.6874
-196,596,2.66235,-18.9404,-0.000227901,0.00355115,-0.00101944,0.00380862,-0.000485366,-1.32341,0.00271537,0.0149162,1028,428,2.66233,18.9404
-189,596,2.64087,-19.187,-4.59228e-05,0.00302091,-0.000898295,0.00326465,-0.000289667,-1.30583,0.00227913,0.0122445,1035,428,2.64089,19.187
-182,596,2.61609,-19.4167,0.000231439,0.00224013,-0.00074184,0.0024844,-1.28292e-05,-1.2527,0.00166056,0.0118937,1042,428,2.61604,19.4167
-175,596,2.62024,-19.6497,0.000517651,0.00138608,-0.000532752,0.00163915,0.000264576,-1.12732,0.00101612,0.0131992,1049,428,2.62027,19.6497
-168,596,2.62488,-19.8744,0.000689225,0.000491558,-0.000370397,0.000973748,0.000207035,-0.65502,0.000592339,0.0155923,1056,428,2.62484,19.8744
-161,596,2.60547,-20.114,0.000791447,-0.000288875,-0.000247979,0.000845649,-0.000343077,-0.215191,0.000706461,0.0147931,1063,428,2.60547,20.114
-154,596,2.60938,-20.347,0.000954312,-0.00100268,-8.69836e-05,0.000958171,-0.00100653,-0.0443311,0.00113444,0.0120498,1070,428,2.60937,20.347
-147,596,2.65674,-20.5324,0.00118972,-0.00185286,2.86348e-05,0.00118999,-0.00185313,0.00941025,0.00177079,0.0123087,1077,428,2.65672,20.5324
-140,596,2.66931,-20.7117,0.00150603,-0.00243089,6.27033e-06,0.00150604,-0.0024309,0.00159269,0.00229381,0.0137839,1084,428,2.66926,20.7117
-133,596,2.63757,-20.9285,0.00185086,-0.00285669,-8.38325e-05,0.00185235,-0.00285818,-0.0178006,0.00274021,0.0145474,1091,428,2.63753,20.9285
-126,596,2.63965,-21.1144,0.00218237,-0.0033551,-0.000153687,0.00218664,-0.00335936,-0.0277255,0.00322575,0.0114531,1098,428,2.6397,21.1144
-119,596,2.69507,-21.3224,0.00265553,-0.00365447,-0.000450374,0.00268751,-0.00368645,-0.0708957,0.00369504,0.0140453,1105,428,2.69507,21.3224
-112,596,2.68115,-21.5014,0.00318864,-0.00382127,-0.00077709,0.00327375,-0.00390639,-0.109091,0.00415081,0.0144664,1112,428,2.68119,21.5014
-105,596,2.67468,-21.6836,0.00382743,-0.00353183,-0.00119498,0.00401661,-0.00372101,-0.157006,0.0044684,0.0148395,1119,428,2.67474,21.6836
-98,596,2.70459,-21.828,0.00447437,-0.00311106,-0.00163465,0.00481164,-0.00344833,-0.20347,0.0047905,0.0102449,1126,428,2.7046,21.828
-91,596,2.7301,-22.0325,0.00521391,-0.00252309,-0.00214511,0.00576885,-0.00307803,-0.253149,0.0051859,0.0139798,1133,428,2.73009,22.0325
-84,596,2.84631,-22.3817,0.00589983,-0.0017912,-0.0024655,0.00662232,-0.00251369,-0.285059,0.00544958,0.0470381,1140,428,2.84632,22.3816
-77,596,2.79431,-22.32,0,0,0,0,0,0,0,-1,1147,428,2.79429,22.32
-70,596,2.93481,-22.951,0,0,0,0,0,0,0,-1,1154,428,2.93484,22.951
-63,596,1.95569,-12.2758,0,0,0,0,0,0,0,-1,1161,428,1.95563,12.2759
-56,596,1.60107,-10.5827,0,0,0,0,0,0,0,-1,1168,428,1.60108,10.5827
-49,596,1.59473,-10.0393,0,0,0,0,0,0,0,-1,1175,428,1.59472,10.0393
-42,596,1.99585,-6.6246,0,0,0,0,0,0,0,-1,1182,428,1.99586,6.62459
-35,596,2.69727,-22.8155,0,0,0,0,0,0,0,-1,1189,428,2.69729,22.8155
-28,596,2.89368,-22.9494,0,0,0,0,0,0,0,-1,1196,428,2.89368,22.9494
-21,596,2.93079,-22.7228,0.00102426,-0.0248405,-0.00425776,0.00170713,-0.0255234,-0.159027,0.0176122,0.0464181,1203,428,2.93082,22.7228
-14,596,3.06799,-23.0164,-0.00116819,-0.0188892,-0.00526191,0.000276459,-0.0203338,-0.267947,0.013649,0.0493213,1210,428,3.06797,23.0164
-7,596,3.13721,-23.1319,0,0,0,0,0,0,0,-1,1217,428,3.1372,23.1319
0,596,3.12537,-23.3012,0,0,0,0,0,0,0,-1,1224,428,3.12536,23.3012
7,596,3.86182,-22.8777,-0.00624897,-0.0101086,-0.00637444,-0.00151862,-0.0148389,-0.638414,0.00942727,0.0474519,1231,428,3.86179,22.8777
14,596,3.94299,-22.9135,-0.00471598,-0.00659356,-0.00616802,0.000584282,-0.0118938,-0.709876,0.00813097,0.0462732,1238,428,3.94298,22.9135
21,596,3.49756,-22.9302,-0.00358819,-0.00298314,-0.00533841,0.00206131,-0.00863264,-0.813702,0.0065512,0.046637,1245,428,3.49761,22.9302
28,596,3.72644,-23.0211,-0.00243102,7.03176e-05,-0.00385249,0.00287006,-0.00523077,-0.942351,0.00474275,0.0461939,1252,428,3.72643,23.0211
35,596,3.63281,-23.1204,-0.000947269,0.002515,-0.00201856,0.00344308,-0.00187535,-1.13985,0.00311475,0.0445617,1259,428,3.63277,23.1203
42,596,3.63391,-23.3939,0.00180248,0.00374325,-0.000133752,0.00375243,0.0017933,-1.50231,0.00216717,0.0430629,1266,428,3.63389,23.3939
49,596,3.70874,-23.5857,0.00501612,0.0039237,0.00166531,0.00622251,0.00271731,0.62693,0.00360216,0.0424266,1273,428,3.70869,23.5857
56,596,3.78833,-23.454,0.00736518,0.0035378,0.00320286,0.00918251,0.00172047,0.516111,0.0056364,0.0434658,1280,428,3.78833,23.454
63,596,4.41553,-23.3253,0.00910418,0.00254991,0.00510373,0.0118923,-0.000238243,0.499995,0.00800882,0.0446957,1287,428,4.41556,23.3253
70,596,4.51294,-23.0007,0,0,0,0,0,0,0,-1,1294,428,4.51291,23.0007
77,596,4.22559,-22.8365,0.0114888,-0.000667494,0.00740681,0.0149921,-0.00417082,0.441805,0.0116369,0.0438065,1301,428,4.22553,22.8365
84,596,3.66907,-22.4546,0.0118294,-0.00220842,0.00826467,0.0156535,-0.00603247,0.433364,0.0129246,0.0437746,1308,428,3.66904,22.4546
91,596,3.97913,-22.5812,0.0123514,-0.00589739,0.00872337,0.0158505,-0.00939645,0.381466,0.0147342,0.0409812,1315,428,3.97916,22.5812
98,596,4.30554,-22.6689,0.0126226,-0.006877,0.00926527,0.0163229,-0.0105772,0.379961,0.0156484,0.0469367,1322,428,4.30558,22.6689
105,596,4.61011,-22.7484,0,0,0,0,0,0,0,-1,1329,428,4.61008,22.7484
112,596,4.57166,-23.0903,0.0122743,-0.00875142,0.00831582,0.0151657,-0.0116428,0.334619,0.0155224,0.0468802,1336,428,4.57161,23.0903
119,596,4.44263,-22.8279,0.0115833,-0.00886198,0.00849199,0.0146504,-0.011929,0.346592,0.0153724,0.049322,1343,428,4.44264,22.8279
126,596,4.40308,-22.5284,0,0,0,0,0,0,0,-1,1350,428,4.40312,22.5284
133,596,4.27026,-22.5437,0,0,0,0,0,0,0,-1,1357,428,4.27027,22.5437
140,596,4.39136,-22.4688,0.0176687,-0.0100308,0.00629499,0.0190322,-0.0113943,0.213303,0.0177503,0.0456424,1364,428,4.39142,22.4687
147,596,3.9801,-22.3984,0.0184379,-0.0108432,0.0052118,0.0193378,-0.0117432,0.170998,0.0181224,0.0387,1371,428,3.98004,22.3984
154,596,4.27466,-22.2694,0.0190111,-0.0115385,0.00386329,0.0194921,-0.0120195,0.123862,0.018363,0.041786,1378,428,4.2746,22.2694
161,596,4.45691,-22.2521,0.0196818,-0.0121346,0.00249112,0.0198757,-0.0123285,0.0776658,0.0187625,0.0486291,1385,428,4.45687,22.2521
168,596,4.41968,-22.2705,0,0,0,0,0,0,0,-1,1392,428,4.41973,22.2705
175,596,4.54675,-22.1496,0,0,0,0,0,0,0,-1,1399,428,4.54676,22.1496
182,596,4.65393,-22.1999,0,0,0,0,0,0,0,-1,1406,428,4.65387,22.1999
189,596,4.55896,-22.0352,0,0,0,0,0,0,0,-1,1413,428,4.55898,22.0352
196,596,4.47937,-21.6936,0,0,0,0,0,0,0,-1,1420,428,4.47932,21.6936
203,596,4.41077,-21.7449,0,0,0,0,0,0,0,-1,1427,428,4.41072,21.7449
210,596,4.43054,-21.7201,0,0,0,0,0,0,0,-1,1434,428,4.43055,21.7201
217,596,4.40649,-21.578,0.00360948,0.00132855,-0.000888029,0.00391444,0.00102359,-0.330796,0.00234414,0.0463731,1441,428,4.40652,21.578
224,596,4.45227,-21.3774,0.00320744,0.00228558,-0.000506368,0.00343125,0.00206178,-0.416169,0.00199443,0.020098,1448,428,4.45231,21.3774
231,596,4.53381,-21.1187,0.00266606,0.00303446,-0.000165072,0.00309761,0.00260292,-1.20546,0.00192152,0.0130474,1455,428,4.53384,21.1187
238,596,4.54321,-20.902,0.00247476,0.00338752,0.000111019,0.00340083,0.00246146,1.45148,0.00202796,0.0142248,1462,428,4.54324,20.902
245,596,4.57129,-20.7051,0.00239303,0.00357634,0.000208373,0.00361196,0.00235741,1.40149,0.00211752,0.0130108,1469,428,4.57129,20.7051
252,596,4.59668,-20.4973,0.00218865,0.00355176,0.000256275,0.00359835,0.00214206,1.39097,0.00209005,0.0100436,1476,428,4.59672,20.4973
259,596,4.60242,-20.2724,0.00191127,0.00337742,0.000317343,0.00344316,0.00184553,1.36653,0.00198962,0.00901662,1483,428,4.60245,20.2724
266,596,4.58923,-20.0479,0.00166057,0.00316065,0.00039889,0.00326012,0.00156109,1.32641,0.00188279,0.0100466,1490,428,4.58921,20.0479
273,596,4.59924,-19.8123,0.00143988,0.00295226,0.000490864,0.00309761,0.00129453,1.28292,0.00179642,0.0121303,1497,428,4.59922,19.8123
280,596,4.6283,-19.5813,0.00125314,0.0027309,0.000635757,0.00296677,0.00101727,1.21554,0.00174082,0.0126454,1504,428,4.62831,19.5813
287,596,4.62329,-19.339,0.00114866,0.00276328,0.000862925,0.00313766,0.00077428,1.16145,0.00188738,0.0109443,1511,428,4.62335,19.339
294,596,4.60583,-19.0694,0.00104429,0.00276316,0.00107504,0.00328008,0.000527375,1.1226,0.00203385,0.00918952,1518,428,4.60585,19.0694
301,596,4.60315,-18.8149,0.000898682,0.00276277,0.00134032,0.00346326,0.000198195,1.08921,0.00224569,0.0106411,1525,428,4.60314,18.8149
308,596,4.61572,-18.563,0.000834097,0.00290832,0.00166423,0.00383214,-8.97275e-05,1.06404,0.00258519,0.0164515,1532,428,4.61576,18.563
315,596,4.59497,-18.3,0.000765973,0.00317437,0.00197464,0.00428303,-0.000342681,1.05921,0.00297616,0.0159937,1539,428,4.59494,18.3
322,596,4.59277,-18.0103,0.000610935,0.00347124,0.00227326,0.0047268,-0.000644621,1.06618,0.00338659,0.0131509,1546,428,4.59276,18.0103
329,596,4.58008,-17.7351,0.000394722,0.00376667,0.00260069,0.00518006,-0.00101867,1.07298,0.00383826,0.0097629,1553,428,4.58005,17.7351
336,596,4.55981,-17.4645,0.000138604,0.00411624,0.00288262,0.00562954,-0.0013747,1.08737,0.0042854,0.00917893,1560,428,4.5598,17.4645
343,596,4.58044,-17.1971,-3.66448e-05,0.00433752,0.00310999,0.00595246,-0.00165158,1.09185,0.00461834,0.0115644,1567,428,4.58041,17.1971
350,596,4.60278,-16.899,-0.000138686,0.00487015,0.00346521,0.00664122,-0.00190975,1.09831,0.00518271,0.0119845,1574,428,4.60274,16.899
357,596,4.57251,-16.5692,-0.000450065,0.00532726,0.00375516,0.00717627,-0.00229908,1.11325,0.00570705,0.00970064,1581,428,4.57254,16.5692
364,596,4.53918,-16.2107,-0.000954919,0.00566636,0.00377599,0.00737752,-0.00266608,1.14531,0.00600758,0.0131552,1588,428,4.53917,16.2107
371,596,4.5199,-15.933,-0.00127248,0.00611415,0.00383816,0.00774738,-0.00290571,1.16848,0.00635878,0.0173429,1595,428,4.51994,15.933
378,596,4.46802,-15.6761,-0.00166192,0.00678272,0.00390505,0.0083117,-0.00319089,1.19761,0.00685688,0.0224161,1602,428,4.46802,15.6761
385,596,4.40796,-15.2437,-0.00219205,0.00747212,0.00358997,0.00865975,-0.00337967,1.25131,0.00717032,0.0314713,1609,428,4.40794,15.2437
392,596,4.41235,-14.8936,-0.00161949,0.0074596,0.00286385,0.00828747,-0.00244735,1.28939,0.00649629,0.0423059,1616,428,4.41231,14.8936
399,596,4.37415,-14.6423,0,0,0,0,0,0,0,-1,1623,428,4.37418,14.6423
406,596,3.60034,-10.1525,0,0,0,0,0,0,0,-1,1630,428,3.60028,10.1525
413,596,3.39124,-2.63528,0,0,0,0,0,0,0,-1,1637,428,3.39122,2.6353
420,596,2.6344,-3.06308,0,0,0,0,0,0,0,-1,1644,428,2.63439,3.06308
427,596,2.99329,-1.90512,0,0,0,0,0,0,0,-1,1651,428,2.99327,1.90512
434,596,3.80896,-0.253998,0,0,0,0,0,0,0,-1,1658,428,3.80902,0.254004
441,596,3.86401,-0.131622,0,0,0,0,0,0,0,-1,1665,428,3.86406,0.131613
448,596,1.0769,0.0083313,0,0,0,0,0,0,0,-1,1672,428,1.07684,-0.00832231
455,596,2.00769,-1.43329,0,0,0,0,0,0,0,-1,1679,428,2.00765,1.4333
462,596,0,0,0,0,0,0,0,0,0,-1,1686,428,0,0
469,596,0,0,0,0,0,0,0,0,0,-1,1693,428,0,0
476,596,0,0,0,0,0,0,0,0,0,-1,1700,428,0,0
483,596,0,0,0,0,0,0,0,0,0,-1,1707,428,0,0
490,596,0,0,0,0,0,0,0,0,0,-1,1714,428,0,0
497,596,0,0,0,0,0,0,0,0,0,-1,1721,428,0,0
504,596,0,0,0,0,0,0,0,0,0,-1,1728,428,0,0
511,596,0,0,0,0,0,0,0,0,0,-1,1735,428,0,0
518,596,0,0,0,0,0,0,0,0,0,-1,1742,428,0,0
525,596,0,0,0,0,0,0,0,0,0,-1,1749,428,0,0
532,596,0,0,0,0,0,0,0,0,0,-1,1756,428,0,0
539,596,0,0,0,0,0,0,0,0,0,-1,1763,428,0,0
546,596,0,0,0,0,0,0,0,0,0,-1,1770,428,0,0
553,596,0,0,0,0,0,0,0,0,0,-1,1777,428,0,0
560,596,0,0,0,0,0,0,0,0,0,-1,1784,428,0,0
567,596,0,0,0,0,0,0,0,0,0,-1,1791,428,0,0
574,596,0,0,0,0,0,0,0,0,0,-1,1798,428,0,0
581,596,0,0,0,0,0,0,0,0,0,-1,1805,428,0,0
588,596,0,0,0,0,0,0,0,0,0,-1,1812,428,0,0
595,596,0,0,0,0,0,0,0,0,0,-1,1819,428,0,0
602,596,0,0,0,0,0,0,0,0,0,-1,1826,428,0,0
609,596,0,0,0,0,0,0,0,0,0,-1,1833,428,0,0
616,596,0,0,0,0,0,0,0,0,0,-1,1840,428,0,0
623,596,0,0,0,0,0,0,0,0,0,-1,1847,428,0,0
630,596,0,0,0,0,0,0,0,0,0,-1,1854,428,0,0
637,596,0,0,0,0,0,0,0,0,0,-1,1861,428,0,0
644,596,0,0,0,0,0,0,0,0,0,-1,1868,428,0,0
651,596,0,0,0,0,0,0,0,0,0,-1,1875,428,0,0
658,596,0,0,0,0,0,0,0,0,0,-1,1882,428,0,0
665,596,0,0,0,0,0,0,0,0,0,-1,1889,428,0,0
672,596,0,0,0,0,0,0,0,0,0,-1,1896,428,0,0
679,596,0,0,0,0,0,0,0,0,0,-1,1903,428,0,0
686,596,0,0,0,0,0,0,0,0,0,-1,1910,428,0,0
693,596,0,0,0,0,0,0,0,0,0,-1,1917,428,0,0
700,596,0,0,0,0,0,0,0,0,0,-1,1924,428,0,0
707,596,0,0,0,0,0,0,0,0,0,-1,1931,428,0,0
714,596,0,0,0,0,0,0,0,0,0,-1,1938,428,0,0
721,596,0,0,0,0,0,0,0,0,0,-1,1945,428,0,0
728,596,0,0,0,0,0,0,0,0,0,-1,1952,428,0,0
735,596,0,0,0,0,0,0,0,0,0,-1,1959,428,0,0
742,596,0,0,0,0,0,0,0,0,0,-1,1966,428,0,0
749,596,0,0,0,0,0,0,0,0,0,-1,1973,428,0,0
756,596,0,0,0,0,0,0,0,0,0,-1,1980,428,0,0
763,596,0,0,0,0,0,0,0,0,0,-1,1987,428,0,0
770,596,0,0,0,0,0,0,0,0,0,-1,1994,428,0,0
777,596,0,0,0,0,0,0,0,0,0,-1,2001,428,0,0
784,596,0,0,0,0,0,0,0,0,0,-1,2008,428,0,0
791,596,0,0,0,0,0,0,0,0,0,-1,2015,428,0,0
798,596,0,0,0,0,0,0,0,0,0,-1,2022,428,0,0
805,596,0,0,0,0,0,0,0,0,0,-1,2029,428,0,0
812,596,0,0,0,0,0,0,0,0,0,-1,2036,428,0,0
-700,589,0,0,0,0,0,0,0,0,0,-1,524,435,0,0
-693,589,0,0,0,0,0,0,0,0,0,-1,531,435,0,0
-686,589,0,0,0,0,0,0,0,0,0,-1,538,435,0,0
-679,589,0,0,0,0,0,0,0,0,0,-1,545,435,0,0
-672,589,0,0,0,0,0,0,0,0,0,-1,552,435,0,0
-665,589,0,0,0,0,0,0,0,0,0,-1,559,435,0,0
-658,589,0,0,0,0,0,0,0,0,0,-1,566,435,0,0
-651,589,0,0,0,0,0,0,0,0,0,-1,573,435,0,0
-644,589,0,0,0,0,0,0,0,0,0,-1,580,435,0,0
-637,589,0,0,0,0,0,0,0,0,0,-1,587,435,0,0
-630,589,0,0,0,0,0,0,0,0,0,-1,594,435,0,0
-623,589,0,0,0,0,0,0,0,0,0,-1,601,435,0,0
-616,589,0,0,0,0,0,0,0,0,0,-1,608,435,0,0
-609,589,0,0,0,0,0,0,0,0,0,-1,615,435,0,0
-602,589,0,0,0,0,0,0,0,0,0,-1,622,435,0,0
-595,589,0,0,0,0,0,0,0,0,0,-1,629,435,0,0
-588,589,0,0,0,0,0,0,0,0,0,-1,636,435,0,0
-581,589,0,0,0,0,0,0,0,0,0,-1,643,435,0,0
-574,589,0,0,0,0,0,0,0,0,0,-1,650,435,0,0
-567,589,0,0,0,0,0,0,0,0,0,-1,657,435,0,0
-560,589,0,0,0,0,0,0,0,0,0,-1,664,435,0,0
-553,589,0,0,0,0,0,0,0,0,0,-1,671,435,0,0
-546,589,0,0,0,0,0,0,0,0,0,-1,678,435,0,0
-539,589,0,0,0,0,0,0,0,0,0,-1,685,435,0,0
-532,589,0,0,0,0,0,0,0,0,0,-1,692,435,0,0
-525,589,0,0,0,0,0,0,0,0,0,-1,699,435,0,0
-518,589,0,0,0,0,0,0,0,0,0,-1,706,435,0,0
-511,589,0,0,0,0,0,0,0,0,0,-1,713,435,0,0
-504,589,0,0,0,0,0,0,0,0,0,-1,720,435,0,0
-497,589,0,0,0,0,0,0,0,0,0,-1,727,435,0,0
-490,589,0,0,0,0,0,0,0,0,0,-1,734,435,0,0
-483,589,0,0,0,0,0,0,0,0,0,-1,741,435,0,0
-476,589,0,0,0,0,0,0,0,0,0,-1,748,435,0,0
-469,589,0,0,0,0,0,0,0,0,0,-1,755,435,0,0
-462,589,0,0,0,0,0,0,0,0,0,-1,762,435,0,0
-455,589,0,0,0,0,0,0,0,0,0,-1,769,435,0,0
-448,589,0,0,0,0,0,0,0,0,0,-1,776,435,0,0
-441,589,0,0,0,0,0,0,0,0,0,-1,783,435,0,0
-434,589,0,0,0,0,0,0,0,0,0,-1,790,435,0,0
-427,589,0,0,0,0,0,0,0,0,0,-1,797,435,0,0
-420,589,0,0,0,0,0,0,0,0,0,-1,804,435,0,0
-413,589,0,0,0,0,0,0,0,0,0,-1,811,435,0,0
-406,589,0,0,0,0,0,0,0,0,0,-1,818,435,0,0
-399,589,0,0,0,0,0,0,0,0,0,-1,825,435,0,0
-392,589,0,0,0,0,0,0,0,0,0,-1,832,435,0,0
-385,589,0,0,0,0,0,0,0,0,0,-1,839,435,0,0
-378,589,0,0,0,0,0,0,0,0,0,-1,846,435,0,0
-371,589,0,0,0,0,0,0,0,0,0,-1,853,435,0,0
-364,589,0,0,0,0,0,0,0,0,0,-1,860,435,0,0
-357,589,0,0,0,0,0,0,0,0,0,-1,867,435,0,0
-350,589,-0.799927,-20.664,0,0,0,0,0,0,0,-1,874,435,-0.799952,20.664
-343,589,-0.370911,-19.1543,0,0,0,0,0,0,0,-1,881,435,-0.370922,19.1543
-336,589,0.0728149,-17.6812,0,0,0,0,0,0,0,-1,888,435,0.0727911,17.6812
-329,589,0.491028,-16.2322,0,0,0,0,0,0,0,-1,895,435,0.491054,16.2322
-322,589,2.10931,-14.0623,0,0,0,0,0,0,0,-1,902,435,2.10934,14.0623
-315,589,2.31042,-14.3635,0,0,0,0,0,0,0,-1,909,435,2.31042,14.3635
-308,589,2.5296,-14.6329,0,0,0,0,0,0,0,-1,916,435,2.52959,14.6329
-301,589,2.48798,-14.4848,0,0,0,0,0,0,0,-1,923,435,2.48796,14.4848
-294,589,2.26868,-14.9006,0,0,0,0,0,0,0,-1,930,435,2.26866,14.9006
-287,589,2.10114,-15.3947,0,0,0,0,0,0,0,-1,937,435,2.10115,15.3947
-280,589,2.53259,-15.4753,-0.00195418,-0.00580526,-0.00815672,0.0045012,-0.0122606,-0.669486,0.0100171,0.0330351,944,435,2.53257,15.4753
-273,589,2.52667,-15.8484,-0.00188188,-0.00470612,-0.00695684,0.00380471,-0.0103927,-0.685267,0.00848595,0.0202195,951,435,2.52666,15.8484
-266,589,2.50146,-16.1357,-0.00184807,-0.00321401,-0.00570142,0.00321114,-0.00827321,-0.725787,0.00684183,0.0169706,958,435,2.50145,16.1357
-259,589,2.47882,-16.4247,-0.00166232,-0.00198773,-0.00465205,0.00282987,-0.00647991,-0.767918,0.00551099,0.0146227,965,435,2.47881,16.4247
-252,589,2.48102,-16.7674,-0.00126154,-0.00120724,-0.00387949,0.00264519,-0.00511397,-0.788897,0.00455471,0.0105184,972,435,2.48102,16.7674
-245,589,2.48376,-17.04,-0.000887588,-0.000369335,-0.00313507,0.0025173,-0.00377423,-0.826631,0.0036565,0.0103523,979,435,2.48374,17.04
-238,589,2.46155,-17.3003,-0.000627302,0.000521481,-0.00246013,0.00247339,-0.00257921,-0.900083,0.00291733,0.0127708,986,435,2.46156,17.3003
-231,589,2.40955,-17.6033,-0.000504242,0.00122062,-0.00187954,0.00242614,-0.00170977,-1.00049,0.00239978,0.0143581,993,435,2.40955,17.6033
-224,589,2.38135,-17.8996,-0.000351272,0.00163604,-0.00146604,0.00241343,-0.00112867,-1.08323,0.00208939,0.0142739,1000,435,2.38133,17.8996
-217,589,2.3996,-18.179,-2.39646e-05,0.00185965,-0.00105655,0.00233322,-0.000497536,-1.14942,0.00174513,0.0145548,1007,435,2.39958,18.179
-210,589,2.41815,-18.4374,0.000126092,0.00186747,-0.000662158,0.00209065,-9.70899e-05,-1.2457,0.00142723,0.0140208,1014,435,2.41814,18.4374
-203,589,2.40503,-18.6791,0.000228234,0.00157856,-0.000411723,0.0016942,0.0001126,-1.297,0.00109387,0.0111505,1021,435,2.40503,18.6791
-196,589,2.39771,-18.9334,0.000388731,0.00139642,-0.000248043,0.00145417,0.000330984,-1.34206,0.000880113,0.0130163,1028,435,2.39773,18.9334
-189,589,2.36389,-19.196,0.000577604,0.000921839,-0.000112454,0.000955319,0.000544124,-1.28143,0.000553331,0.016597,1035,435,2.36395,19.196
-182,589,2.37268,-19.3945,0.00083491,0.000267854,3.87058e-05,0.00083754,0.000265224,0.0678382,0.00049427,0.012366,1042,435,2.37271,19.3945
-175,589,2.39075,-19.6222,0.00110567,-0.000492788,0.000203465,0.00113116,-0.00051828,0.124641,0.000973972,0.0147316,1049,435,2.39072,19.6222
-168,589,2.42615,-19.8815,0.00125661,-0.00135224,0.000302427,0.00129121,-0.00138684,0.113911,0.0015465,0.0127677,1056,435,2.42612,19.8815
-161,589,2.40283,-20.1135,0.00131753,-0.00208502,0.000330079,0.00134925,-0.00211675,0.0958187,0.00201738,0.0122153,1063,435,2.40284,20.1135
-154,589,2.39905,-20.315,0.00146219,-0.00277759,0.000435217,0.0015064,-0.0028218,0.101244,0.00253707,0.0123004,1070,435,2.39902,20.315
-147,589,2.44312,-20.5118,0.00171238,-0.00376814,0.000473121,0.00175293,-0.00380869,0.0854849,0.0032833,0.0123393,1077,435,2.44306,20.5118
-140,589,2.45288,-20.6982,0.00205963,-0.00424913,0.000369474,0.00208119,-0.00427069,0.0582996,0.00373918,0.0133745,1084,435,2.45288,20.6982
-133,589,2.43958,-20.9092,0.00246248,-0.00463374,0.000193891,0.00246777,-0.00463903,0.027296,0.00416646,0.0141354,1091,435,2.43959,20.9092
-126,589,2.46619,-21.1199,0.00286379,-0.00515702,6.99397e-05,0.0028644,-0.00515763,0.00871889,0.00469418,0.011624,1098,435,2.46613,21.1199
-119,589,2.50049,-21.3063,0.00345072,-0.00564481,-0.000351024,0.00346425,-0.00565833,-0.0385166,0.00531746,0.0173725,1105,435,2.50047,21.3063
-112,589,2.49292,-21.4937,0.00410539,-0.00593698,-0.000786507,0.00416662,-0.0059982,-0.0776876,0.00590033,0.0163414,1112,435,2.49289,21.4937
-105,589,2.48572,-21.671,0.00491186,-0.00554536,-0.00133001,0.00507837,-0.00571186,-0.124545,0.00623332,0.016512,1119,435,2.48576,21.671
-98,589,2.57153,-21.8027,0.00577517,-0.0049581,-0.00190187,0.0061022,-0.00528513,-0.17029,0.00658012,0.0201908,1126,435,2.57149,21.8027
-91,589,2.71814,-22.0452,0.00680802,-0.00412301,-0.00260718,0.00739802,-0.00471301,-0.222549,0.00704935,0.0496776,1133,435,2.71814,22.0452
-84,589,2.76538,-22.6013,0,0,0,0,0,0,0,-1,1140,435,2.76539,22.6014
-77,589,2.18152,-14.8023,0,0,0,0,0,0,0,-1,1147,435,2.18155,14.8023
-70,589,1.48267,-9.90961,0,0,0,0,0,0,0,-1,1154,435,1.48264,9.9096
-63,589,0.880127,-5.50586,0,0,0,0,0,0,0,-1,1161,435,0.880186,5.50587
-56,589,-2.78052,-7.28082,0,0,0,0,0,0,0,-1,1168,435,-2.78053,7.28082
-49,589,-0.525757,-2.76703,0,0,0,0,0,0,0,-1,1175,435,-0.525771,2.76702
-42,589,-2.7738,-2.87921,0,0,0,0,0,0,0,-1,1182,435,-2.77383,2.87922
-35,589,-2.55225,-3.27551,0,0,0,0,0,0,0,-1,1189,435,-2.55223,3.27552
-28,589,-0.0632324,-3.42938,0,0,0,0,0,0,0,-1,1196,435,-0.063241,3.42938
-21,589,2.7478,-22.3184,0,0,0,0,0,0,0,-1,1203,435,2.74783,22.3184
-14,589,2.96191,-22.856,0,0,0,0,0,0,0,-1,1210,435,2.96191,22.856
-7,589,1.89783,-22.4024,0,0,0,0,0,0,0,-1,1217,435,1.89779,22.4024
0,589,4.30249,-22.694,0,0,0,0,0,0,0,-1,1224,435,4.30244,22.694
7,589,4.4613,-22.6642,-0.00883237,-0.00974995,-0.00688271,-0.00239318,-0.0161891,-0.752118,0.0100901,0.0492207,1231,435,4.46135,22.6642
14,589,4.44653,-22.6856,-0.00726355,-0.00470067,-0.00684441,0.000981226,-0.0129455,-0.877939,0.00897527,0.044386,1238,435,4.44657,22.6856
21,589,3.53247,-22.6682,-0.00593743,0.000279097,-0.00593946,0.00387445,-0.00953279,-1.02646,0.00796715,0.046636,1245,435,3.53245,22.6682
28,589,3.93604,-22.8332,0,0,0,0,0,0,0,-1,1252,435,3.93609,22.8332
35,589,3.75098,-23.0107,0,0,0,0,0,0,0,-1,1259,435,3.75099,23.0107
42,589,3.57483,-23.5509,0.000676237,0.00892623,2.35482e-05,0.0089263,0.00067617,1.56794,0.00573877,0.0465404,1266,435,3.57481,23.5509
49,589,3.52551,-23.5609,0.00452317,0.00875772,0.00217744,0.00967756,0.00360332,1.17109,0.00564772,0.0456633,1273,435,3.52545,23.5609
56,589,3.68433,-23.293,0.00741159,0.00779667,0.0040457,0.0116544,0.00355386,0.809176,0.00689725,0.0468315,1280,435,3.68437,23.293
63,589,4.52795,-23.3871,0.00960906,0.00609357,0.0063265,0.0144175,0.00128517,0.649897,0.00921318,0.0463565,1287,435,4.52793,23.3871
70,589,5.06189,-23.3062,0,0,0,0,0,0,0,-1,1294,435,5.06191,23.3062
77,589,3.52527,-22.2088,0.0125418,0.00108472,0.00926053,0.0177024,-0.0040759,0.508408,0.013369,0.0439869,1301,435,3.52531,22.2088
84,589,3.55872,-22.2817,0.0131904,-0.00135084,0.0104395,0.0186416,-0.00680211,0.481229,0.0152108,0.041599,1308,435,3.55871,22.2817
91,589,3.86926,-22.3603,0.0142963,-0.00639997,0.011213,0.0192065,-0.0113102,0.412745,0.0178143,0.0417564,1315,435,3.86932,22.3603
98,589,4.31079,-22.417,0.0150987,-0.00763128,0.012093,0.020329,-0.0128616,0.408211,0.0193236,0.0445041,1322,435,4.31073,22.417
105,589,4.95862,-23.2115,0.0160959,-0.00895829,0.0121205,0.0209996,-0.013862,0.384451,0.0202675,0.0484473,1329,435,4.95864,23.2115
112,589,4.80579,-22.9647,0.0156533,-0.00972385,0.0113265,0.0199732,-0.0140438,0.364371,0.0197389,0.0444176,1336,435,4.80574,22.9647
119,589,4.6521,-22.6471,0,0,0,0,0,0,0,-1,1343,435,4.65207,22.6471
126,589,5.19336,-21.3448,0,0,0,0,0,0,0,-1,1350,435,5.19337,21.3448
133,589,5.01306,-21.5232,0.0219197,-0.00968726,0.010601,0.025146,-0.0129135,0.295429,0.0223488,0.0455199,1357,435,5.01304,21.5232
140,589,4.23657,-22.0839,0.0252809,-0.0102627,0.00938484,0.0276067,-0.0125885,0.242927,0.0237405,0.0453898,1364,435,4.23656,22.0839
147,589,3.26721,-22.3121,0,0,0,0,0,0,0,-1,1371,435,3.26716,22.3121
154,589,4.60071,-21.7198,0.0286754,-0.011725,0.00614006,0.0295879,-0.0126376,0.147543,0.0250251,0.0417589,1378,435,4.60072,21.7198
161,589,4.96582,-21.554,0.0298377,-0.0123792,0.0043475,0.0302808,-0.0128223,0.10156,0.025557,0.0465761,1385,435,4.96584,21.554
168,589,5.38757,-21.4948,0,0,0,0,0,0,0,-1,1392,435,5.38761,21.4948
175,589,8.66992,-7.65527,0,0,0,0,0,0,0,-1,1399,435,8.66994,7.65528
182,589,3.8136,-2.45389,0,0,0,0,0,0,0,-1,1406,435,3.81363,2.4539
189,589,3.69983,-3.68149,0,0,0,0,0,0,0,-1,1413,435,3.69987,3.68147
196,589,3.31055,-5.31677,0,0,0,0,0,0,0,-1,1420,435,3.31059,5.31678
203,589,2.72559,-8.84338,0,0,0,0,0,0,0,-1,1427,435,2.72558,8.84338
210,589,3.62378,-14.4032,0,0,0,0,0,0,0,-1,1434,435,3.62378,14.4032
217,589,4.58459,-21.7711,0,0,0,0,0,0,0,-1,1441,435,4.58456,21.771
224,589,4.724,-21.5189,0,0,0,0,0,0,0,-1,1448,435,4.72405,21.5189
231,589,4.76416,-21.1848,0.00356514,0.00436608,-0.000186007,0.00440717,0.00352405,-1.35338,0.00269246,0.025959,1455,435,4.76418,21.1848
238,589,4.75928,-20.9327,0.00335994,0.00461725,5.71916e-05,0.00461985,0.00335735,1.52543,0.00275716,0.0229706,1462,435,4.75934,20.9327
245,589,4.79211,-20.668,0.00326101,0.00457853,4.91125e-05,0.00458036,0.00325918,1.53359,0.00272223,0.0201344,1469,435,4.7921,20.668
252,589,4.82837,-20.4745,0.00297658,0.00417801,-3.40252e-05,0.00417897,0.00297562,-1.54251,0.002484,0.0131914,1476,435,4.82841,20.4745
259,589,4.82605,-20.2736,0.00258933,0.00358725,-0.000120245,0.00360153,0.00257504,-1.45256,0.00214246,0.00955258,1483,435,4.82605,20.2736
266,589,4.82727,-20.0388,0.00225152,0.00299097,-0.00017169,0.00302889,0.0022136,-1.35342,0.00180978,0.0096317,1490,435,4.82724,20.0389
273,589,4.84167,-19.8242,0.0019615,0.00246466,-0.000177207,0.00252081,0.00190536,-1.26397,0.00151757,0.0125536,1497,435,4.84173,19.8242
280,589,4.86487,-19.5988,0.00169572,0.00193877,-0.000133485,0.00199776,0.00163673,-1.15466,0.0012293,0.0130666,1504,435,4.86485,19.5988
287,589,4.8645,-19.3497,0.00152312,0.00176121,-2.07054e-06,0.00176122,0.0015231,-1.5621,0.00110337,0.0111514,1511,435,4.86451,19.3497
294,589,4.85828,-19.0696,0.00135883,0.00160164,0.000142456,0.00166741,0.00129306,1.1383,0.00101021,0.00985423,1518,435,4.85822,19.0696
301,589,4.86169,-18.7994,0.00115034,0.00144166,0.000347611,0.00167289,0.000919103,0.983798,0.000967416,0.0103826,1525,435,4.86164,18.7994
308,589,4.87219,-18.5497,0.00102227,0.00147402,0.000608069,0.00189681,0.000599479,0.963231,0.00111956,0.0102214,1532,435,4.87216,18.5497
315,589,4.87402,-18.2807,0.000916265,0.00167312,0.000859922,0.0022342,0.000355184,0.992681,0.00138632,0.0107753,1539,435,4.87405,18.2807
322,589,4.87622,-18.0101,0.000733794,0.00195491,0.00112227,0.00262196,6.67457e-05,1.03453,0.00172616,0.0114748,1546,435,4.87622,18.0101
329,589,4.87476,-17.7467,0.000517737,0.00227987,0.00143937,0.00308643,-0.000288821,1.06004,0.00216034,0.00982472,1553,435,4.87477,17.7467
336,589,4.86072,-17.4784,0.000292159,0.00264771,0.00173888,0.00357013,-0.000630269,1.08307,0.00261561,0.00947261,1560,435,4.8607,17.4783
343,589,4.85095,-17.2087,0.000112139,0.00294868,0.00198616,0.00397097,-0.000910149,1.09545,0.00299712,0.0104948,1567,435,4.85099,17.2087
350,589,4.84619,-16.9237,1.6955e-06,0.00350208,0.00234258,0.00467607,-0.0011723,1.10623,0.00357284,0.0157737,1574,435,4.84623,16.9237
357,589,4.85107,-16.5603,-0.000258973,0.00400474,0.00265574,0.00527844,-0.00153267,1.1236,0.00412586,0.0135971,1581,435,4.85112,16.5603
364,589,4.8606,-16.2291,-0.000656494,0.00439894,0.00274929,0.00560592,-0.00186347,1.15712,0.00448926,0.00994151,1588,435,4.86058,16.2291
371,589,4.82715,-15.9504,-0.000918126,0.00485086,0.00286996,0.00603539,-0.00210265,1.17936,0.00487795,0.00995557,1595,435,4.82716,15.9504
378,589,4.79565,-15.6301,-0.00127523,0.00541552,0.0029425,0.00652546,-0.00238517,1.21009,0.00532645,0.012529,1602,435,4.79564,15.6301
385,589,4.76746,-15.288,-0.00172091,0.00588415,0.00267887,0.00673303,-0.00256979,1.26393,0.00554737,0.0156578,1609,435,4.76748,15.288
392,589,4.74988,-14.8889,-0.00120555,0.00581556,0.00216482,0.00642937,-0.00181937,1.29451,0.00500419,0.0191531,1616,435,4.74983,14.8888
399,589,4.78381,-14.4354,0.00126358,0.00527759,0.00316319,0.00701676,-0.000475593,1.06809,0.00484416,0.0308337,1623,435,4.78387,14.4354
406,589,4.83887,-14.1283,0,0,0,0,0,0,0,-1,1630,435,4.83892,14.1283
413,589,4.23376,-14.1825,0,0,0,0,0,0,0,-1,1637,435,4.23371,14.1825
420,589,2.79724,-5.79956,0,0,0,0,0,0,0,-1,1644,435,2.7973,5.79955
427,589,2.87976,-5.28177,0,0,0,0,0,0,0,-1,1651,435,2.87972,5.28177
434,589,2.52734,-2.73029,0,0,0,0,0,0,0,-1,1658,435,2.52736,2.73029
441,589,3.17639,-2.02435,0,0,0,0,0,0,0,-1,1665,435,3.17643,2.02435
448,589,0.453735,-3.2868,0,0,0,0,0,0,0,-1,1672,435,0.453701,3.28681
455,589,0.664307,-3.46848,0,0,0,0,0,0,0,-1,1679,435,0.66425,3.46846
462,589,3.46716,-4.41891,0,0,0,0,0,0,0,-1,1686,435,3.4672,4.41891
469,589,0.0238037,-3.81497,0,0,0,0,0,0,0,-1,1693,435,0.0237965,3.81498
476,589,0,0,0,0,0,0,0,0,0,-1,1700,435,0,0
483,589,0,0,0,0,0,0,0,0,0,-1,1707,435,0,0
490,589,0,0,0,0,0,0,0,0,0,-1,1714,435,0,0
497,589,0,0,0,0,0,0,0,0,0,-1,1721,435,0,0
504,589,0,0,0,0,0,0,0,0,0,-1,1728,435,0,0
511,589,0,0,0,0,0,0,0,0,0,-1,1735,435,0,0
518,589,0,0,0,0,0,0,0,0,0,-1,1742,435,0,0
525,589,0,0,0,0,0,0,0,0,0,-1,1749,435,0,0
532,589,0,0,0,0,0,0,0,0,0,-1,1756,435,0,0
539,589,0,0,0,0,0,0,0,0,0,-1,1763,435,0,0
546,589,0,0,0,0,0,0,0,0,0,-1,1770,435,0,0
553,589,0,0,0,0,0,0,0,0,0,-1,1777,435,0,0
560,589,0,0,0,0,0,0,0,0,0,-1,1784,435,0,0
567,589,0,0,0,0,0,0,0,0,0,-1,1791,435,0,0
574,589,0,0,0,0,0,0,0,0,0,-1,1798,435,0,0
581,589,0,0,0,0,0,0,0,0,0,-1,1805,435,0,0
588,589,0,0,0,0,0,0,0,0,0,-1,1812,435,0,0
595,589,0,0,0,0,0,0,0,0,0,-1,1819,435,0,0
602,589,0,0,0,0,0,0,0,0,0,-1,1826,435,0,0
609,589,0,0,0,0,0,0,0,0,0,-1,1833,435,0,0
616,589,0,0,0,0,0,0,0,0,0,-1,1840,435,0,0
623,589,0,0,0,0,0,0,0,0,0,-1,1847,435,0,0
630,589,0,0,0,0,0,0,0,0,0,-1,1854,435,0,0
637,589,0,0,0,0,0,0,0,0,0,-1,1861,435,0,0
644,589,0,0,0,0,0,0,0,0,0,-1,1868,435,0,0
651,589,0,0,0,0,0,0,0,0,0,-1,1875,435,0,0
658,589,0,0,0,0,0,0,0,0,0,-1,1882,435,0,0
665,589,0,0,0,0,0,0,0,0,0,-1,1889,435,0,0
672,589,0,0,0,0,0,0,0,0,0,-1,1896,435,0,0
679,589,0,0,0,0,0,0,0,0,0,-1,1903,435,0,0
686,589,0,0,0,0,0,0,0,0,0,-1,1910,435,0,0
693,589,0,0,0,0,0,0,0,0,0,-1,1917,435,0,0
700,589,0,0,0,0,0,0,0,0,0,-1,1924,435,0,0
707,589,0,0,0,0,0,0,0,0,0,-1,1931,435,0,0
714,589,0,0,0,0,0,0,0,0,0,-1,1938,435,0,0
721,589,0,0,0,0,0,0,0,0,0,-1,1945,435,0,0
728,589,0,0,0,0,0,0,0,0,0,-1,1952,435,0,0
735,589,0,0,0,0,0,0,0,0,0,-1,1959,435,0,0
742,589,0,0,0,0,0,0,0,0,0,-1,1966,435,0,0
749,589,0,0,0,0,0,0,0,0,0,-1,1973,435,0,0
756,589,0,0,0,0,0,0,0,0,0,-1,1980,435,0,0
763,589,0,0,0,0,0,0,0,0,0,-1,1987,435,0,0
770,589,0,0,0,0,0,0,0,0,0,-1,1994,435,0,0
777,589,0,0,0,0,0,0,0,0,0,-1,2001,435,0,0
784,589,0,0,0,0,0,0,0,0,0,-1,2008,435,0,0
791,589,0,0,0,0,0,0,0,0,0,-1,2015,435,0,0
798,589,0,0,0,0,0,0,0,0,0,-1,2022,435,0,0
805,589,0,0,0,0,0,0,0,0,0,-1,2029,435,0,0
812,589,0,0,0,0,0,0,0,0,0,-1,2036,435,0,0
-700,582,0,0,0,0,0,0,0,0,0,-1,524,442,0,0
-693,582,0,0,0,0,0,0,0,0,0,-1,531,442,0,0
-686,582,0,0,0,0,0,0,0,0,0,-1,538,442,0,0
-679,582,0,0,0,0,0,0,0,0,0,-1,545,442,0,0
-672,582,0,0,0,0,0,0,0,0,0,-1,552,442,0,0
-665,582,0,0,0,0,0,0,0,0,0,-1,559,442,0,0
-658,582,0,0,0,0,0,0,0,0,0,-1,566,442,0,0
-651,582,0,0,0,0,0,0,0,0,0,-1,573,442,0,0
-644,582,0,0,0,0,0,0,0,0,0,-1,580,442,0,0
-637,582,0,0,0,0,0,0,0,0,0,-1,587,442,0,0
-630,582,0,0,0,0,0,0,0,0,0,-1,594,442,0,0
-623,582,0,0,0,0,0,0,0,0,0,-1,601,442,0,0
-616,582,0,0,0,0,0,0,0,0,0,-1,608,442,0,0
-609,582,0,0,0,0,0,0,0,0,0,-1,615,442,0,0
-602,582,0,0,0,0,0,0,0,0,0,-1,622,442,0,0
-595,582,0,0,0,0,0,0,0,0,0,-1,629,442,0,0
-588,582,0,0,0,0,0,0,0,0,0,-1,636,442,0,0
-581,582,0,0,0,0,0,0,0,0,0,-1,643,442,0,0
-574,582,0,0,0,0,0,0,0,0,0,-1,650,442,0,0
-567,582,0,0,0,0,0,0,0,0,0,-1,657,442,0,0
-560,582,0,0,0,0,0,0,0,0,0,-1,664,442,0,0
-553,582,0,0,0,0,0,0,0,0,0,-1,671,442,0,0
-546,582,0,0,0,0,0,0,0,0,0,-1,678,442,0,0
-539,582,0,0,0,0,0,0,0,0,0,-1,685,442,0,0
-532,582,0,0,0,0,0,0,0,0,0,-1,692,442,0,0
-525,582,0,0,0,0,0,0,0,0,0,-1,699,442,0,0
-518,582,0,0,0,0,0,0,0,0,0,-1,706,442,0,0
-511,582,0,0,0,0,0,0,0,0,0,-1,713,442,0,0
-504,582,0,0,0,0,0,0,0,0,0,-1,720,442,0,0
-497,582,0,0,0,0,0,0,0,0,0,-1,727,442,0,0
-490,582,0,0,0,0,0,0,0,0,0,-1,734,442,0,0
-483,582,0,0,0,0,0,0,0,0,0,-1,741,442,0,0
-476,582,0,0,0,0,0,0,0,0,0,-1,748,442,0,0
-469,582,0,0,0,0,0,0,0,0,0,-1,755,442,0,0
-462,582,0,0,0,0,0,0,0,0,0,-1,762,442,0,0
-455,582,0,0,0,0,0,0,0,0,0,-1,769,442,0,0
-448,582,0,0,0,0,0,0,0,0,0,-1,776,442,0,0
-441,582,0,0,0,0,0,0,0,0,0,-1,783,442,0,0
-434,582,0,0,0,0,0,0,0,0,0,-1,790,442,0,0
-427,582,0,0,0,0,0,0,0,0,0,-1,797,442,0,0
-420,582,0,0,0,0,0,0,0,0,0,-1,804,442,0,0
-413,582,0,0,0,0,0,0,0,0,0,-1,811,442,0,0
-406,582,0,0,0,0,0,0,0,0,0,-1,818,442,0,0
-399,582,0,0,0,0,0,0,0,0,0,-1,825,442,0,0
-392,582,0,0,0,0,0,0,0,0,0,-1,832,442,0,0
-385,582,0,0,0,0,0,0,0,0,0,-1,839,442,0,0
-378,582,0,0,0,0,0,0,0,0,0,-1,846,442,0,0
-371,582,0,0,0,0,0,0,0,0,0,-1,853,442,0,0
-364,582,0,0,0,0,0,0,0,0,0,-1,860,442,0,0
-357,582,-1.4903,-21.5295,0,0,0,0,0,0,0,-1,867,442,-1.49031,21.5295
-350,582,-0.880859,-19.7966,0,0,0,0,0,0,0,-1,874,442,-0.880885,19.7966
-343,582,-0.208557,-18.0078,0,0,0,0,0,0,0,-1,881,442,-0.208576,18.0078
-336,582,0.219543,-16.4952,0,0,0,0,0,0,0,-1,888,442,0.219519,16.4952
-329,582,2.12323,-13.3377,0,0,0,0,0,0,0,-1,895,442,2.12325,13.3377
-322,582,2.11774,-13.7749,0.00247879,-0.0117132,-0.0132934,0.0104515,-0.019686,-0.540237,0.0176701,0.0494584,902,442,2.11772,13.7749
-315,582,2.22565,-14.1943,0.000941963,-0.00997867,-0.012273,0.00891447,-0.0179512,-0.576093,0.0158007,0.0473475,909,442,2.22563,14.1943
-308,582,2.37238,-14.0937,0,0,0,0,0,0,0,-1,916,442,2.37239,14.0937
-301,582,2.28723,-14.4766,-0.000677338,-0.00688699,-0.0099026,0.00659577,-0.0141601,-0.633484,0.0122458,0.0471825,923,442,2.28724,14.4766
-294,582,2.1593,-14.8745,-0.00113674,-0.00586015,-0.00859615,0.00541623,-0.0124131,-0.651336,0.0105547,0.0441299,930,442,2.1593,14.8745
-287,582,2.14185,-15.1743,-0.00141927,-0.0046254,-0.00735943,0.00450967,-0.0105543,-0.678161,0.00892755,0.0346659,937,442,2.14185,15.1743
-280,582,2.29303,-15.4354,-0.00148745,-0.00357274,-0.00631757,0.00387293,-0.00893313,-0.703616,0.00758354,0.0163151,944,442,2.293,15.4354
-273,582,2.25525,-15.7911,-0.00138738,-0.00292484,-0.00543295,0.00333095,-0.00764317,-0.715118,0.00649692,0.0110239,951,442,2.25526,15.7912
-266,582,2.23462,-16.1273,-0.00136164,-0.00196682,-0.00446952,0.00281552,-0.00614398,-0.751599,0.00529042,0.0106318,958,442,2.23461,16.1273
-259,582,2.21631,-16.4381,-0.00118677,-0.00127566,-0.00362166,0.00239072,-0.00485315,-0.779263,0.00426203,0.00901536,965,442,2.21633,16.4381
-252,582,2.19397,-16.7541,-0.000797827,-0.000908465,-0.00295551,0.00210288,-0.00380917,-0.776041,0.00346039,0.00843385,972,442,2.19399,16.7541
-245,582,2.19226,-17.0342,-0.000440402,-0.000613679,-0.00231988,0.00179446,-0.00284854,-0.766734,0.00270356,0.0108923,979,442,2.19228,17.0342
-238,582,2.18536,-17.2974,-0.000197624,-0.000260239,-0.00171086,0.00148222,-0.00194008,-0.77625,0.00198175,0.0144605,986,442,2.18536,17.2974
-231,582,2.15936,-17.5822,-7.68364e-05,-4.57903e-05,-0.00117663,0.00111542,-0.00123804,-0.791994,0.00135938,0.0122092,993,442,2.15936,17.5822
-224,582,2.14258,-17.8713,3.85138e-05,8.33719e-05,-0.000726313,0.000787602,-0.000665716,-0.800834,0.000840057,0.0103216,1000,442,2.14259,17.8713
-217,582,2.13599,-18.1426,0.000297258,0.00011184,-0.000306659,0.000524916,-0.000115817,-0.638606,0.000394261,0.0120697,1007,442,2.13602,18.1426
-210,582,2.14868,-18.4119,0.000432402,-5.10309e-05,7.93361e-05,0.000445089,-6.37178e-05,0.158571,0.000320086,0.0123185,1014,442,2.14867,18.4119
-203,582,2.1756,-18.6877,0.000568718,-0.000367471,0.000315474,0.000665102,-0.000463855,0.296515,0.000655247,0.010007,1021,442,2.17561,18.6877
-196,582,2.17554,-18.9493,0.000747143,-0.000547625,0.000475933,0.000903263,-0.000703745,0.316969,0.000930187,0.0145571,1028,442,2.17557,18.9493
-189,582,2.14978,-19.194,0.000959088,-0.000962059,0.000608897,0.00113582,-0.00113879,0.282483,0.00131324,0.0203805,1035,442,2.14974,19.194
-182,582,2.13538,-19.4166,0.00125904,-0.00148198,0.000759084,0.00145522,-0.00167815,0.252905,0.00181058,0.0141438,1042,442,2.13535,19.4166
-175,582,2.15393,-19.6172,0.00160569,-0.00216472,0.000875921,0.00179924,-0.00235827,0.217477,0.00240756,0.0127624,1049,442,2.15389,19.6172
-168,582,2.18127,-19.8601,0.00183648,-0.00300776,0.000892914,0.00199582,-0.00316711,0.176596,0.00300628,0.011143,1056,442,2.18127,19.8601
-161,582,2.16882,-20.0999,0.0018956,-0.00373361,0.000813905,0.00201092,-0.00384893,0.140747,0.00343821,0.0124882,1063,442,2.16882,20.0999
-154,582,2.16846,-20.2985,0.00206486,-0.00446439,0.000888249,0.00218354,-0.00458307,0.132826,0.00398774,0.0122666,1070,442,2.16846,20.2985
-147,582,2.20789,-20.5034,0.00241168,-0.00576385,0.00084517,0.00249814,-0.00585031,0.101942,0.0049478,0.0113883,1077,442,2.20783,20.5035
-140,582,2.2052,-20.6888,0.00276457,-0.00608509,0.00064463,0.00281128,-0.0061318,0.0723335,0.0052806,0.0120886,1084,442,2.20524,20.6888
-133,582,2.24475,-20.8977,0.00318592,-0.00640854,0.000361937,0.00319955,-0.00642217,0.0376522,0.00565801,0.0148392,1091,442,2.24478,20.8977
-126,582,2.2749,-21.0469,0.00359702,-0.00697958,0.000181596,0.00360013,-0.0069827,0.0171628,0.00621316,0.0135021,1098,442,2.27489,21.0469
-119,582,2.26709,-21.1887,0.0041993,-0.00783859,-0.000347963,0.00420935,-0.00784864,-0.0288735,0.00706659,0.017386,1105,442,2.26705,21.1887
-112,582,2.23242,-21.4213,0.00487967,-0.00846575,-0.000899495,0.00494002,-0.00852611,-0.0669972,0.00786603,0.0253087,1112,442,2.23248,21.4213
-105,582,2.27319,-21.6527,0.00579156,-0.0081147,-0.00158267,0.00596941,-0.00829255,-0.111903,0.00827048,0.0356658,1119,442,2.27321,21.6527
-98,582,2.38892,-21.7411,0.00684575,-0.00754024,-0.00230611,0.00720639,-0.00790088,-0.155126,0.00872525,0.043405,1126,442,2.38892,21.7411
-91,582,2.75903,-22.0936,0,0,0,0,0,0,0,-1,1133,442,2.75908,22.0936
-84,582,2.10278,-16.7533,0,0,0,0,0,0,0,-1,1140,442,2.10279,16.7533
-77,582,2.30212,-11.4907,0,0,0,0,0,0,0,-1,1147,442,2.30207,11.4907
-70,582,1.49255,-6.36548,0,0,0,0,0,0,0,-1,1154,442,1.49251,6.36549
-63,582,-4.62915,-4.0347,0,0,0,0,0,0,0,-1,1161,442,-4.6292,4.03471
-56,582,-5.81714,-5.24149,0,0,0,0,0,0,0,-1,1168,442,-5.81718,5.24149
-49,582,-3.88672,-10.1064,0,0,0,0,0,0,0,-1,1175,442,-3.88678,10.1064
-42,582,-0.948975,1.13968,0,0,0,0,0,0,0,-1,1182,442,-0.949003,-1.13969
-35,582,-2.58435,-3.86911,0,0,0,0,0,0,0,-1,1189,442,-2.58437,3.86912
-28,582,-0.825317,-3.45941,0,0,0,0,0,0,0,-1,1196,442,-0.825377,3.45942
-21,582,1.4292,-22.4932,0,0,0,0,0,0,0,-1,1203,442,1.42922,22.4932
-14,582,1.40015,-22.3353,0,0,0,0,0,0,0,-1,1210,442,1.40019,22.3353
-7,582,4.81995,-22.9042,0,0,0,0,0,0,0,-1,1217,442,4.8199,22.9042
0,582,4.98926,-22.5597,0,0,0,0,0,0,0,-1,1224,442,4.98927,22.5597
7,582,5.14417,-22.4033,-0.0115201,-0.00910903,-0.0069391,-0.00327153,-0.0173576,-0.871406,0.0106501,0.0468729,1231,442,5.14421,22.4032
14,582,4.85913,-22.2542,-0.0102354,-0.00190518,-0.00723244,0.00227576,-0.0144163,-1.04665,0.0104524,0.0437562,1238,442,4.8591,22.2542
21,582,4.58398,-21.774,-0.0087838,0.0048697,-0.00636749,0.00737834,-0.0112924,-1.19549,0.0108582,0.0409978,1245,442,4.58401,21.774
28,582,4.22229,-23.8249,0,0,0,0,0,0,0,-1,1252,442,4.22233,23.8249
35,582,3.8634,-23.8015,0,0,0,0,0,0,0,-1,1259,442,3.86345,23.8015
42,582,3.49548,-23.7435,0,0,0,0,0,0,0,-1,1266,442,3.49543,23.7435
49,582,3.19739,-23.6881,0,0,0,0,0,0,0,-1,1273,442,3.19742,23.6881
56,582,3.28357,-23.3834,0.00686818,0.0134599,0.00473732,0.0159351,0.00439301,1.08932,0.00950375,0.0466986,1280,442,3.28352,23.3834
63,582,3.93701,-23.3923,0.00953652,0.0107791,0.0073779,0.0175618,0.00275381,0.827405,0.0109065,0.0451579,1287,442,3.93697,23.3923
70,582,4.29761,-23.2414,0,0,0,0,0,0,0,-1,1294,442,4.29766,23.2414
77,582,3.21838,-22.2018,0.01296,0.0033758,0.0110098,0.0201754,-0.00383957,0.580134,0.014896,0.0453005,1301,442,3.21834,22.2018
84,582,3.40088,-22.3207,0.0140076,-0.000266019,0.0125887,0.0213418,-0.00760017,0.527526,0.0173261,0.0459551,1308,442,3.40084,22.3207
91,582,3.56726,-22.163,0.0159149,-0.00696109,0.0137924,0.022395,-0.0134412,0.439222,0.0209042,0.0435884,1315,442,3.56727,22.163
98,582,5.18164,-23.8074,0.0174832,-0.00848583,0.0151268,0.024434,-0.0154366,0.430729,0.0232139,0.045533,1322,442,5.18162,23.8074
105,582,5.00708,-23.2318,0.0193669,-0.0100899,0.0154811,0.0260064,-0.0167294,0.405155,0.0248666,0.0458383,1329,442,5.00705,23.2319
112,582,4.74512,-22.8579,0.0195012,-0.0107087,0.0147309,0.025495,-0.0167025,0.386431,0.0245384,0.0431646,1336,442,4.74518,22.8579
119,582,4.36951,-22.4352,0.0201528,-0.0101031,0.0156639,0.0268013,-0.0167516,0.401401,0.0253674,0.0423126,1343,442,4.36957,22.4352
126,582,4.02625,-21.9952,0,0,0,0,0,0,0,-1,1350,442,4.02622,21.9952
133,582,3.66052,-22.1964,0.0301013,-0.00946991,0.0145227,0.0348591,-0.0142277,0.316592,0.0291627,0.0458514,1357,442,3.66048,22.1964
140,582,3.98792,-21.5208,0.035238,-0.00980455,0.0130231,0.0387323,-0.0132988,0.262139,0.0312136,0.0460406,1364,442,3.98793,21.5208
147,582,3.02234,-21.7927,0,0,0,0,0,0,0,-1,1371,442,3.02238,21.7927
154,582,4.34216,-21.7249,0,0,0,0,0,0,0,-1,1378,442,4.34221,21.7248
161,582,5.15942,-21.0309,0,0,0,0,0,0,0,-1,1385,442,5.15937,21.0309
168,582,4.49744,-21.4881,0,0,0,0,0,0,0,-1,1392,442,4.49742,21.4881
175,582,6.50549,-2.00424,0,0,0,0,0,0,0,-1,1399,442,6.50546,2.00425
182,582,5.18958,-2.18652,0,0,0,0,0,0,0,-1,1406,442,5.1896,2.18652
189,582,6.19751,-0.880951,0,0,0,0,0,0,0,-1,1413,442,6.19754,0.88096
196,582,4.87354,-2.22327,0,0,0,0,0,0,0,-1,1420,442,4.87348,2.22325
203,582,3.11401,-4.48257,0,0,0,0,0,0,0,-1,1427,442,3.11404,4.48259
210,582,2.93115,-11.0731,0,0,0,0,0,0,0,-1,1434,442,2.93113,11.0731
217,582,4.94092,-16.5476,0,0,0,0,0,0,0,-1,1441,442,4.94087,16.5476
224,582,5.21008,-20.9908,0,0,0,0,0,0,0,-1,1448,442,5.21006,20.9908
231,582,5.09668,-20.7451,0,0,0,0,0,0,0,-1,1455,442,5.09668,20.7452
238,582,4.80457,-21.1425,0,0,0,0,0,0,0,-1,1462,442,4.80452,21.1425
245,582,5.03601,-20.8575,0.00417907,0.00668724,0.000208853,0.00670451,0.0041618,1.48828,0.00390829,0.0472057,1469,442,5.03597,20.8576
252,582,5.11475,-20.594,0.00381286,0.00570898,-1.57519e-05,0.00570911,0.00381273,-1.56249,0.00335748,0.0341376,1476,442,5.1148,20.594
259,582,5.01697,-20.4038,0.00331393,0.00451951,-0.000275705,0.00457957,0.00325387,-1.35631,0.00272101,0.0274726,1483,442,5.01695,20.4038
266,582,5.02417,-20.156,0.00289161,0.00340284,-0.000492681,0.00370227,0.00259218,-1.0247,0.00219386,0.0196174,1490,442,5.02421,20.156
273,582,5.09607,-19.8525,0.00254004,0.00245474,-0.000622297,0.00312115,0.00187363,-0.751181,0.00181404,0.0161782,1497,442,5.09603,19.8525
280,582,5.10632,-19.6227,0.0022041,0.00149179,-0.000728181,0.00265856,0.00103733,-0.557952,0.00154721,0.0130906,1504,442,5.10629,19.6227
287,582,5.1228,-19.3422,0.00196993,0.00101463,-0.000730799,0.00236533,0.000619228,-0.495946,0.00141634,0.0108407,1511,442,5.12279,19.3422
294,582,5.12292,-19.0699,0.00174557,0.000639812,-0.000690087,0.00207694,0.000308442,-0.447671,0.00129412,0.00880958,1518,442,5.12289,19.0698
301,582,5.13184,-18.8112,0.00147423,0.000289097,-0.00056701,0.0017018,6.15192e-05,-0.381682,0.0011146,0.00961729,1525,442,5.13189,18.8112
308,582,5.14526,-18.5593,0.0012869,0.000177775,-0.000385948,0.00140798,5.66924e-05,-0.304002,0.000920339,0.0121019,1532,442,5.14522,18.5593
315,582,5.13867,-18.2752,0.00114227,0.000281873,-0.000191348,0.0011829,0.000241237,-0.209257,0.000721755,0.0131227,1539,442,5.1387,18.2752
322,582,5.13489,-17.9932,0.000932829,0.000544821,5.23632e-05,0.000939772,0.000537879,0.131813,0.000544468,0.0105151,1546,442,5.13494,17.9932
329,582,5.13989,-17.7399,0.000710025,0.000909497,0.000377748,0.00120045,0.000419068,0.914467,0.000703526,0.00992375,1553,442,5.13987,17.7399
336,582,5.14355,-17.467,0.000489362,0.00130819,0.000702049,0.00171148,8.60695e-05,1.04937,0.00111341,0.0104239,1560,442,5.14351,17.467
343,582,5.15137,-17.1646,0.000289031,0.00168727,0.000976391,0.00218903,-0.000212728,1.0961,0.00153518,0.0128413,1567,442,5.15131,17.1645
350,582,5.15063,-16.878,0.00013878,0.00224365,0.00133694,0.0028927,-0.000510263,1.11884,0.00211913,0.0158251,1574,442,5.15064,16.878
357,582,5.15112,-16.5442,-0.000108359,0.00276286,0.00167264,0.0035315,-0.000876993,1.14004,0.00269466,0.0142068,1581,442,5.15117,16.5442
364,582,5.14294,-16.2365,-0.00044989,0.00317603,0.00183438,0.00394217,-0.00121603,1.17516,0.00311364,0.0102455,1588,442,5.14294,16.2365
371,582,5.10815,-15.9485,-0.000694392,0.00360232,0.0020063,0.00439347,-0.00148554,1.19519,0.00352994,0.0141254,1595,442,5.10818,15.9485
378,582,5.08374,-15.6421,-0.00103816,0.00407758,0.00210557,0.00483274,-0.00179331,1.22644,0.00395744,0.0167782,1602,442,5.0837,15.6421
385,582,5.05701,-15.3159,-0.00143398,0.00444018,0.00192848,0.00501671,-0.00201051,1.2803,0.00417908,0.0119405,1609,442,5.05696,15.3159
392,582,5.03613,-14.982,-0.0010139,0.00436839,0.00158968,0.00480283,-0.00144835,1.30402,0.00377837,0.0101939,1616,442,5.03615,14.982
399,582,5.0238,-14.6599,0.000938486,0.00388384,0.00246259,0.00528051,-0.000458178,1.05488,0.00368258,0.016401,1623,442,5.0238,14.6599
406,582,5.03687,-14.2408,0.00233274,0.00367175,0.00286084,0.00594037,6.4112e-05,0.900342,0.00393905,0.0286108,1630,442,5.0369,14.2408
413,582,4.83862,-13.9737,0.00424703,0.00289761,0.00323891,0.00688076,0.000263885,0.682709,0.00450179,0.0446181,1637,442,4.83861,13.9737
420,582,4.67017,-13.6901,0,0,0,0,0,0,0,-1,1644,442,4.67016,13.6901
427,582,4.849,-13.2115,0,0,0,0,0,0,0,-1,1651,442,4.84903,13.2115
434,582,4.4812,-12.9635,0,0,0,0,0,0,0,-1,1658,442,4.48117,12.9635
441,582,4.53979,-12.7726,0,0,0,0,0,0,0,-1,1665,442,4.53983,12.7726
448,582,6.12402,-12.6808,0,0,0,0,0,0,0,-1,1672,442,6.12406,12.6808
455,582,3.6698,-4.4032,0,0,0,0,0,0,0,-1,1679,442,3.66983,4.40319
462,582,1.38074,-3.94418,0,0,0,0,0,0,0,-1,1686,442,1.38074,3.94419
469,582,4.77759,-10.3864,0,0,0,0,0,0,0,-1,1693,442,4.77756,10.3864
476,582,1.93579,-8.53891,0,0,0,0,0,0,0,-1,1700,442,1.93579,8.53892
483,582,0,0,0,0,0,0,0,0,0,-1,1707,442,0,0
490,582,0,0,0,0,0,0,0,0,0,-1,1714,442,0,0
497,582,0,0,0,0,0,0,0,0,0,-1,1721,442,0,0
504,582,0,0,0,0,0,0,0,0,0,-1,1728,442,0,0
511,582,0,0,0,0,0,0,0,0,0,-1,1735,442,0,0
518,582,0,0,0,0,0,0,0,0,0,-1,1742,442,0,0
525,582,0,0,0,0,0,0,0,0,0,-1,1749,442,0,0
532,582,0,0,0,0,0,0,0,0,0,-1,1756,442,0,0
539,582,0,0,0,0,0,0,0,0,0,-1,1763,442,0,0
546,582,0,0,0,0,0,0,0,0,0,-1,1770,442,0,0
553,582,0,0,0,0,0,0,0,0,0,-1,1777,442,0,0
560,582,0,0,0,0,0,0,0,0,0,-1,1784,442,0,0
567,582,0,0,0,0,0,0,0,0,0,-1,1791,442,0,0
574,582,0,0,0,0,0,0,0,0,0,-1,1798,442,0,0
581,582,0,0,0,0,0,0,0,0,0,-1,1805,442,0,0
588,582,0,0,0,0,0,0,0,0,0,-1,1812,442,0,0
595,582,0,0,0,0,0,0,0,0,0,-1,1819,442,0,0
602,582,0,0,0,0,0,0,0,0,0,-1,1826,442,0,0
609,582,0,0,0,0,0,0,0,0,0,-1,1833,442,0,0
616,582,0,0,0,0,0,0,0,0,0,-1,1840,442,0,0
623,582,0,0,0,0,0,0,0,0,0,-1,1847,442,0,0
630,582,0,0,0,0,0,0,0,0,0,-1,1854,442,0,0
637,582,0,0,0,0,0,0,0,0,0,-1,1861,442,0,0
644,582,0,0,0,0,0,0,0,0,0,-1,1868,442,0,0
651,582,0,0,0,0,0,0,0,0,0,-1,1875,442,0,0
658,582,0,0,0,0,0,0,0,0,0,-1,1882,442,0,0
665,582,0,0,0,0,0,0,0,0,0,-1,1889,442,0,0
672,582,0,0,0,0,0,0,0,0,0,-1,1896,442,0,0
679,582,0,0,0,0,0,0,0,0,0,-1,1903,442,0,0
686,582,0,0,0,0,0,0,0,0,0,-1,1910,442,0,0
693,582,0,0,0,0,0,0,0,0,0,-1,1917,442,0,0
700,582,0,0,0,0,0,0,0,0,0,-1,1924,442,0,0
707,582,0,0,0,0,0,0,0,0,0,-1,1931,442,0,0
714,582,0,0,0,0,0,0,0,0,0,-1,1938,442,0,0
721,582,0,0,0,0,0,0,0,0,0,-1,1945,442,0,0
728,582,0,0,0,0,0,0,0,0,0,-1,1952,442,0,0
735,582,0,0,0,0,0,0,0,0,0,-1,1959,442,0,0
742,582,0,0,0,0,0,0,0,0,0,-1,1966,442,0,0
749,582,0,0,0,0,0,0,0,0,0,-1,1973,442,0,0
756,582,0,0,0,0,0,0,0,0,0,-1,1980,442,0,0
763,582,0,0,0,0,0,0,0,0,0,-1,1987,442,0,0
770,582,0,0,0,0,0,0,0,0,0,-1,1994,442,0,0
777,582,0,0,0,0,0,0,0,0,0,-1,2001,442,0,0
784,582,0,0,0,0,0,0,0,0,0,-1,2008,442,0,0
791,582,0,0,0,0,0,0,0,0,0,-1,2015,442,0,0
798,582,0,0,0,0,0,0,0,0,0,-1,2022,442,0,0
805,582,0,0,0,0,0,0,0,0,0,-1,2029,442,0,0
812,582,0,0,0,0,0,0,0,0,0,-1,2036,442,0,0
-700,575,0,0,0,0,0,0,0,0,0,-1,524,449,0,0
-693,575,0,0,0,0,0,0,0,0,0,-1,531,449,0,0
-686,575,0,0,0,0,0,0,0,0,0,-1,538,449,0,0
-679,575,0,0,0,0,0,0,0,0,0,-1,545,449,0,0
-672,575,0,0,0,0,0,0,0,0,0,-1,552,449,0,0
-665,575,0,0,0,0,0,0,0,0,0,-1,559,449,0,0
-658,575,0,0,0,0,0,0,0,0,0,-1,566,449,0,0
-651,575,0,0,0,0,0,0,0,0,0,-1,573,449,0,0
-644,575,0,0,0,0,0,0,0,0,0,-1,580,449,0,0
-637,575,0,0,0,0,0,0,0,0,0,-1,587,449,0,0
-630,575,0,0,0,0,0,0,0,0,0,-1,594,449,0,0
-623,575,0,0,0,0,0,0,0,0,0,-1,601,449,0,0
-616,575,0,0,0,0,0,0,0,0,0,-1,608,449,0,0
-609,575,0,0,0,0,0,0,0,0,0,-1,615,449,0,0
-602,575,0,0,0,0,0,0,0,0,0,-1,622,449,0,0
-595,575,0,0,0,0,0,0,0,0,0,-1,629,449,0,0
-588,575,0,0,0,0,0,0,0,0,0,-1,636,449,0,0
-581,575,0,0,0,0,0,0,0,0,0,-1,643,449,0,0
-574,575,0,0,0,0,0,0,0,0,0,-1,650,449,0,0
-567,575,0,0,0,0,0,0,0,0,0,-1,657,449,0,0
-560,575,0,0,0,0,0,0,0,0,0,-1,664,449,0,0
-553,575,0,0,0,0,0,0,0,0,0,-1,671,449,0,0
-546,575,0,0,0,0,0,0,0,0,0,-1,678,449,0,0
-539,575,0,0,0,0,0,0,0,0,0,-1,685,449,0,0
-532,575,0,0,0,0,0,0,0,0,0,-1,692,449,0,0
-525,575,0,0,0,0,0,0,0,0,0,-1,699,449,0,0
-518,575,0,0,0,0,0,0,0,0,0,-1,706,449,0,0
-511,575,0,0,0,0,0,0,0,0,0,-1,713,449,0,0
-504,575,0,0,0,0,0,0,0,0,0,-1,720,449,0,0
-497,575,0,0,0,0,0,0,0,0,0,-1,727,449,0,0
-490,575,0,0,0,0,0,0,0,0,0,-1,734,449,0,0
-483,575,0,0,0,0,0,0,0,0,0,-1,741,449,0,0
-476,575,0,0,0,0,0,0,0,0,0,-1,748,449,0,0
-469,575,0,0,0,0,0,0,0,0,0,-1,755,449,0,0
-462,575,0,0,0,0,0,0,0,0,0,-1,762,449,0,0
-455,575,0,0,0,0,0,0,0,0,0,-1,769,449,0,0
-448,575,0,0,0,0,0,0,0,0,0,-1,776,449,0,0
-441,575,0,0,0,0,0,0,0,0,0,-1,783,449,0,0
-434,575,0,0,0,0,0,0,0,0,0,-1,790,449,0,0
-427,575,0,0,0,0,0,0,0,0,0,-1,797,449,0,0
-420,575,0,0,0,0,0,0,0,0,0,-1,804,449,0,0
-413,575,0,0,0,0,0,0,0,0,0,-1,811,449,0,0
-406,575,0,0,0,0,0,0,0,0,0,-1,818,449,0,0
-399,575,0,0,0,0,0,0,0,0,0,-1,825,449,0,0
-392,575,0,0,0,0,0,0,0,0,0,-1,832,449,0,0
-385,575,0,0,0,0,0,0,0,0,0,-1,839,449,0,0
-378,575,0,0,0,0,0,0,0,0,0,-1,846,449,0,0
-371,575,0.56897,-3.52304,0,0,0,0,0,0,0,-1,853,449,0.568955,3.52306
-364,575,1.49805,-4.67191,0,0,0,0,0,0,0,-1,860,449,1.49803,4.6719
-357,575,3.15521,-8.29892,0,0,0,0,0,0,0,-1,867,449,3.15521,8.29891
-350,575,-0.825928,-18.5347,0,0,0,0,0,0,0,-1,874,449,-0.825948,18.5347
-343,575,0.465393,-16.3569,0,0,0,0,0,0,0,-1,881,449,0.465397,16.3569
-336,575,0.479309,-15.4891,0,0,0,0,0,0,0,-1,888,449,0.479336,15.4891
-329,575,2.05048,-12.8936,0,0,0,0,0,0,0,-1,895,449,2.05047,12.8936
-322,575,2.18488,-13.468,0.00152866,-0.00733424,-0.00981733,0.00786836,-0.0136739,-0.573393,0.0125871,0.0449578,902,449,2.18488,13.468
-315,575,2.11945,-13.9926,0.000550816,-0.00627518,-0.00911038,0.00686651,-0.0125909,-0.606176,0.0113946,0.0453442,909,449,2.11943,13.9926
-308,575,2.06696,-14.3238,-7.27224e-05,-0.00504858,-0.00834355,0.00614593,-0.0112672,-0.640502,0.0101974,0.0456236,916,449,2.06695,14.3238
-301,575,2.06146,-14.5193,-0.000580688,-0.00431378,-0.00746016,0.00524289,-0.0101374,-0.662814,0.00902843,0.0333486,923,449,2.06149,14.5194
-294,575,1.987,-14.8246,-0.000927074,-0.00362537,-0.00652813,0.00438986,-0.00894231,-0.683499,0.00784549,0.0241919,930,449,1.987,14.8246
-287,575,1.97424,-15.1554,-0.00114775,-0.00278171,-0.0056029,0.00369743,-0.00762688,-0.713002,0.006668,0.0164308,937,449,1.97424,15.1554
-280,575,1.99664,-15.4761,-0.00118289,-0.00223633,-0.00482799,0.00314702,-0.00656624,-0.731065,0.0057226,0.0121171,944,449,1.99667,15.4761
-273,575,1.98376,-15.8236,-0.00108842,-0.00202344,-0.0041363,0.00260671,-0.00571857,-0.729124,0.00491726,0.0112505,951,449,1.98377,15.8236
-266,575,1.96863,-16.1485,-0.00101411,-0.00154805,-0.00336139,0.0020909,-0.00465305,-0.74577,0.00398618,0.01286,958,449,1.96862,16.1485
-259,575,1.94061,-16.4446,-0.00078993,-0.00129021,-0.00267203,0.00164365,-0.00372379,-0.738727,0.00317551,0.0129483,965,449,1.94062,16.4446
-252,575,1.91003,-16.7477,-0.000382403,-0.00116778,-0.00208005,0.0013417,-0.00289188,-0.692102,0.00249828,0.0114779,972,449,1.91002,16.7476
-245,575,1.90417,-17.0479,1.039e-05,-0.00127633,-0.00151434,0.00101236,-0.00227831,-0.584528,0.00194617,0.0133973,979,449,1.90419,17.0479
-238,575,1.90363,-17.3194,0.000285726,-0.00132715,-0.000944941,0.000721566,-0.00176299,-0.432157,0.00147587,0.0134275,986,449,1.90361,17.3194
-231,575,1.89325,-17.5879,0.000448548,-0.00148759,-0.000438532,0.000543243,-0.00158229,-0.212671,0.00127512,0.0118703,993,449,1.89325,17.5879
-224,575,1.86945,-17.8558,0.000593308,-0.00159498,3.71701e-05,0.000593939,-0.00159562,0.0169794,0.00130749,0.0118291,1000,449,1.86947,17.8558
-217,575,1.87738,-18.1358,0.000830484,-0.00173527,0.000474297,0.000915353,-0.00182014,0.177064,0.00160788,0.0103085,1007,449,1.87735,18.1358
-210,575,1.9007,-18.4282,0.00097594,-0.00206428,0.000862029,0.00120335,-0.00229169,0.257932,0.00205021,0.00881513,1014,449,1.90068,18.4282
-203,575,1.93024,-18.6917,0.00115688,-0.00241622,0.0010919,0.00146413,-0.00272347,0.2743,0.00245388,0.0113419,1021,449,1.93021,18.6916
-196,575,1.94373,-18.9421,0.00134427,-0.00259841,0.00124622,0.00170514,-0.00295928,0.281869,0.00272526,0.0134905,1028,449,1.9437,18.9421
-189,575,1.92529,-19.1883,0.00154638,-0.0029362,0.00137365,0.00193384,-0.00332365,0.274919,0.00307056,0.0147795,1035,449,1.92526,19.1883
-182,575,1.92969,-19.4119,0.00183864,-0.00328141,0.00152718,0.00225956,-0.00370233,0.268939,0.00347553,0.0141386,1042,449,1.92973,19.4119
-175,575,1.92981,-19.6254,0.00223597,-0.00389873,0.00157905,0.00261855,-0.00428131,0.237706,0.00402201,0.0118478,1049,449,1.92984,19.6254
-168,575,1.9187,-19.8525,0.00251467,-0.00473591,0.00149081,0.00280923,-0.00503047,0.195073,0.00458641,0.0104877,1056,449,1.91864,19.8525
-161,575,1.93201,-20.0877,0.0025476,-0.0054614,0.00127113,0.00274451,-0.0056583,0.153683,0.00494764,0.0145241,1063,449,1.93206,20.0877
-154,575,1.9425,-20.2924,0.00270791,-0.00624825,0.0012886,0.00288962,-0.00642996,0.140094,0.00550856,0.0180824,1070,449,1.94245,20.2923
-147,575,2.00183,-20.3509,0,0,0,0,0,0,0,-1,1077,449,2.00179,20.3509
-140,575,1.83105,-20.6846,0,0,0,0,0,0,0,-1,1084,449,1.83111,20.6846
-133,575,2.06653,-20.7559,0.00386502,-0.0083608,0.00043536,0.0038805,-0.00837628,0.0355499,0.0072334,0.0336645,1091,449,2.06647,20.7559
-126,575,2.1366,-20.7088,0.00424155,-0.00902209,0.000231533,0.00424559,-0.00902613,0.0174491,0.00782637,0.0393816,1098,449,2.13657,20.7088
-119,575,2.05603,-20.8118,0.0048419,-0.0105826,-0.000346775,0.00484969,-0.0105904,-0.0224669,0.00911743,0.0367948,1105,449,2.05605,20.8118
-112,575,1.9679,-21.2849,0.00549881,-0.011914,-0.000960979,0.00555168,-0.0119669,-0.0549656,0.0103379,0.0490907,1112,449,1.96794,21.2849
-105,575,2.09424,-21.6092,0,0,0,0,0,0,0,-1,1119,449,2.09421,21.6092
-98,575,2.21802,-21.5704,0,0,0,0,0,0,0,-1,1126,449,2.21796,21.5704
-91,575,1.60803,-16.4247,0,0,0,0,0,0,0,-1,1133,449,1.60802,16.4247
-84,575,1.16553,-11.9056,0,0,0,0,0,0,0,-1,1140,449,1.16558,11.9056
-77,575,0.205078,-11.2584,0,0,0,0,0,0,0,-1,1147,449,0.205117,11.2584
-70,575,-4.2467,-1.78738,0,0,0,0,0,0,0,-1,1154,449,-4.24674,1.78739
-63,575,-4.52209,-3.48798,0,0,0,0,0,0,0,-1,1161,449,-4.5221,3.48796
-56,575,-5.5968,-5.4928,0,0,0,0,0,0,0,-1,1168,449,-5.59683,5.49281
-49,575,-5.96863,-7.17612,0,0,0,0,0,0,0,-1,1175,449,-5.96868,7.1761
-42,575,-0.830322,0.773499,0,0,0,0,0,0,0,-1,1182,449,-0.83038,-0.77351
-35,575,-0.62085,0.205139,0,0,0,0,0,0,0,-1,1189,449,-0.620855,-0.205126
-28,575,0.49292,-3.87988,0,0,0,0,0,0,0,-1,1196,449,0.492941,3.87989
-21,575,2.43945,-19.4295,0,0,0,0,0,0,0,-1,1203,449,2.43951,19.4295
-14,575,5.41638,-23.2536,0,0,0,0,0,0,0,-1,1210,449,5.41642,23.2536
-7,575,5.36475,-22.7891,0,0,0,0,0,0,0,-1,1217,449,5.36479,22.7891
0,575,5.45251,-22.3483,-0.0110637,-0.0188498,-0.00587241,-0.0079111,-0.0220024,-0.492688,0.012869,0.0471034,1224,449,5.45256,22.3483
7,575,5.73474,-21.8829,-0.0139974,-0.00872832,-0.00638042,-0.00445993,-0.0182658,-0.981193,0.0109963,0.0455507,1231,449,5.73472,21.8829
14,575,5.95496,-21.4255,0,0,0,0,0,0,0,-1,1238,449,5.95492,21.4255
21,575,4.96045,-21.7437,-0.0119874,0.0107879,-0.00652603,0.0125253,-0.0137248,-1.3106,0.0151608,0.0436141,1245,449,4.96039,21.7437
28,575,4.69617,-21.279,-0.00982235,0.0182834,-0.00497671,0.0191386,-0.0106776,-1.40062,0.0174439,0.043262,1252,449,4.69622,21.279
35,575,3.87317,-23.8422,0,0,0,0,0,0,0,-1,1259,449,3.87313,23.8422
42,575,3.48865,-24.2057,-0.00302307,0.0248647,-3.87139e-05,0.0248648,-0.00302312,-1.56941,0.0176706,0.0432367,1266,449,3.48861,24.2057
49,575,3.14441,-23.9866,0.00182408,0.0235428,0.00264978,0.0238614,0.00150547,1.45113,0.0154303,0.0438365,1273,449,3.1444,23.9866
56,575,2.86377,-23.5643,0.00565932,0.0206222,0.00507647,0.0221819,0.0040996,1.27271,0.0136285,0.0451996,1280,449,2.86382,23.5643
63,575,3.31836,-23.2997,0.00876171,0.0166394,0.00800922,0.0216259,0.0037752,1.01393,0.0133382,0.0429429,1287,449,3.31834,23.2997
70,575,3.89978,-22.9371,0.0109094,0.011174,0.0103068,0.0213494,0.000733996,0.791817,0.0139947,0.0426419,1294,449,3.89979,22.9371
77,575,4.26526,-22.5698,0.0125024,0.00613424,0.0123691,0.0220907,-0.00345403,0.659422,0.0160032,0.0468948,1301,449,4.26524,22.5698
84,575,3.28491,-22.3421,0.014026,0.000916963,0.0144281,0.0233186,-0.00837563,0.57219,0.0189645,0.0457658,1308,449,3.2849,22.3421
91,575,3.12891,-22.381,0.0169725,-0.00771167,0.0161895,0.0249879,-0.015727,0.459718,0.0237086,0.0450284,1315,449,3.12893,22.381
98,575,3.2854,-22.934,0.0195912,-0.00958798,0.0181143,0.0282607,-0.0182575,0.44638,0.0270635,0.040773,1322,449,3.28539,22.934
105,575,2.92529,-22.5293,0,0,0,0,0,0,0,-1,1329,449,2.92524,22.5293
112,575,4.50232,-22.6242,0.0237965,-0.0118542,0.0183341,0.0315422,-0.0196,0.399733,0.0297941,0.0436209,1336,449,4.50232,22.6242
119,575,4.13,-22.1821,0.0258439,-0.0105535,0.0199141,0.0346224,-0.0193319,0.415188,0.0315647,0.0449455,1343,449,4.12995,22.1821
126,575,3.75952,-21.7252,0.0326212,-0.00929989,0.0197309,0.040447,-0.0171257,0.377594,0.0341365,0.0455749,1350,449,3.75957,21.7252
133,575,3.69897,-22.2716,0.0405015,-0.00873169,0.0188843,0.0469105,-0.0151408,0.327189,0.0373577,0.0436675,1357,449,3.69898,22.2716
140,575,5.14624,-22.2364,0.0479854,-0.00864268,0.0170221,0.0527082,-0.0133656,0.270647,0.040339,0.0437249,1364,449,5.14622,22.2364
147,575,5.85229,-21.9958,0,0,0,0,0,0,0,-1,1371,449,5.85232,21.9959
154,575,6.87549,-21.7477,0,0,0,0,0,0,0,-1,1378,449,6.8755,21.7477
161,575,4.54761,-21.5986,0,0,0,0,0,0,0,-1,1385,449,4.54758,21.5986
168,575,4.30603,-21.5567,0,0,0,0,0,0,0,-1,1392,449,4.30599,21.5567
175,575,4.32617,1.93634,0,0,0,0,0,0,0,-1,1399,449,4.32612,-1.93634
182,575,6.3147,-2.88345,0,0,0,0,0,0,0,-1,1406,449,6.31466,2.88346
189,575,6.10449,-1.30817,0,0,0,0,0,0,0,-1,1413,449,6.10455,1.30817
196,575,5.79895,0.818359,0,0,0,0,0,0,0,-1,1420,449,5.79895,-0.81837
203,575,3.29724,-1.46378,0,0,0,0,0,0,0,-1,1427,449,3.29722,1.46377
210,575,2.32739,-7.74503,0,0,0,0,0,0,0,-1,1434,449,2.32741,7.74502
217,575,3.33618,-11.5521,0,0,0,0,0,0,0,-1,1441,449,3.3362,11.5521
224,575,5.51709,-16.3903,0,0,0,0,0,0,0,-1,1448,449,5.51713,16.3903
231,575,5.48572,-20.4595,0,0,0,0,0,0,0,-1,1455,449,5.48571,20.4595
238,575,5.4032,-20.5479,0,0,0,0,0,0,0,-1,1462,449,5.40323,20.5479
245,575,5.43481,-21.2073,0,0,0,0,0,0,0,-1,1469,449,5.43478,21.2073
252,575,5.39307,-20.8873,0,0,0,0,0,0,0,-1,1476,449,5.39303,20.8873
259,575,5.24011,-20.7377,0,0,0,0,0,0,0,-1,1483,449,5.24008,20.7377
266,575,5.23328,-20.4121,0,0,0,0,0,0,0,-1,1490,449,5.2333,20.4121
273,575,5.32837,-19.9347,0,0,0,0,0,0,0,-1,1497,449,5.32832,19.9347
280,575,5.26025,-19.6855,0,0,0,0,0,0,0,-1,1504,449,5.2602,19.6855
287,575,5.31946,-19.3729,0.00252275,0.000748718,-0.00128774,0.00319941,7.20582e-05,-0.483809,0.00210933,0.0219638,1511,449,5.31951,19.3729
294,575,5.37268,-19.0905,0.00220029,9.65239e-05,-0.00137053,0.00287607,-0.000579256,-0.458094,0.0021368,0.0104683,1518,449,5.37263,19.0905
301,575,5.40344,-18.833,0.00183164,-0.00051149,-0.00135149,0.00244868,-0.00112852,-0.428295,0.00211166,0.0100618,1525,449,5.40344,18.833
308,575,5.42322,-18.5766,0.00153918,-0.000857296,-0.00128535,0.00209819,-0.0014163,-0.410229,0.00204178,0.011126,1532,449,5.4232,18.5766
315,575,5.40759,-18.2982,0.00132992,-0.000922929,-0.00116356,0.00182297,-0.00141598,-0.400807,0.00187493,0.010837,1539,449,5.40755,18.2982
322,575,5.41931,-18.0015,0.00108658,-0.000726379,-0.00094187,0.00148732,-0.00112712,-0.402271,0.00151422,0.0100016,1546,449,5.41928,18.0015
329,575,5.43335,-17.7381,0.000854325,-0.000351295,-0.000610724,0.00110963,-0.000606601,-0.395959,0.00100495,0.0102447,1553,449,5.43331,17.7381
336,575,5.43445,-17.4688,0.000629739,6.2941e-05,-0.00026718,0.000735827,-4.3147e-05,-0.377974,0.000505548,0.0116449,1560,449,5.4345,17.4688
343,575,5.45471,-17.1625,0.000401393,0.000497653,3.15046e-05,0.000507047,0.000391998,1.281,0.000306955,0.0120079,1567,449,5.4547,17.1625
350,575,5.46057,-16.8586,0.000242001,0.00105469,0.000422775,0.00123474,6.19547e-05,1.16819,0.000803305,0.0114574,1574,449,5.46059,16.8585
357,575,5.4447,-16.5535,2.9142e-05,0.00161034,0.000802656,0.00194638,-0.000306892,1.17431,0.00141105,0.0111105,1581,449,5.44475,16.5535
364,575,5.41797,-16.2632,-0.000232731,0.00206859,0.00105193,0.00247696,-0.000641104,1.20049,0.00190138,0.0107742,1588,449,5.41798,16.2632
371,575,5.40552,-15.9674,-0.000435154,0.00249747,0.00128829,0.00298302,-0.000920705,1.21037,0.00235632,0.0193522,1595,449,5.40547,15.9674
378,575,5.39807,-15.6383,-0.000731532,0.00292506,0.00142734,0.00341624,-0.00122271,1.23937,0.00277631,0.019212,1602,449,5.39806,15.6383
385,575,5.37463,-15.3111,-0.00104613,0.00324167,0.00133816,0.00362502,-0.00142948,1.2918,0.00300858,0.011449,1609,449,5.37469,15.3111
392,575,5.35974,-14.9971,-0.000689782,0.0032045,0.0011399,0.00351363,-0.000998905,1.30598,0.00273684,0.00918306,1616,449,5.35968,14.9971
399,575,5.3584,-14.6938,0.000865,0.00280402,0.00189563,0.00396368,-0.000294661,1.02178,0.00274595,0.0104172,1623,449,5.35836,14.6938
406,575,5.33557,-14.3319,0.00193669,0.00266524,0.00226441,0.00459449,7.44523e-06,0.865151,0.00306051,0.0114248,1630,449,5.33555,14.3319
413,575,5.3208,-13.9633,0.00333455,0.00212503,0.00261842,0.00541715,4.24366e-05,0.671907,0.00359737,0.0130681,1637,449,5.32086,13.9633
420,575,5.30859,-13.6205,0.00490595,0.00155821,0.00305036,0.00671152,-0.000247364,0.534458,0.00455904,0.0134623,1644,449,5.30862,13.6205
427,575,5.24878,-13.2551,0.00671713,0.00102539,0.00374414,0.00857419,-0.000831672,0.460436,0.00601256,0.0190764,1651,449,5.2488,13.2551
434,575,5.1012,-13.0049,0.00911928,0.000486218,0.00465267,0.0111494,-0.00154389,0.411429,0.00799738,0.0295441,1658,449,5.10114,13.0049
441,575,5.18604,-12.7674,0.0114114,-0.000151139,0.00564425,0.0137098,-0.00244951,0.386703,0.0100563,0.0499658,1665,449,5.18606,12.7674
448,575,6.29504,-12.4507,0.0132489,-0.000486917,0.00665426,0.0159438,-0.00318181,0.384799,0.0118333,0.0488411,1672,449,6.29505,12.4507
455,575,5.35046,-11.6857,0,0,0,0,0,0,0,-1,1679,449,5.35051,11.6857
462,575,4.57031,-10.2824,0,0,0,0,0,0,0,-1,1686,449,4.5703,10.2824
469,575,4.97754,-10.8797,0,0,0,0,0,0,0,-1,1693,449,4.9775,10.8797
476,575,4.91028,-10.6568,0,0,0,0,0,0,0,-1,1700,449,4.91023,10.6568
483,575,5.24609,-10.364,0,0,0,0,0,0,0,-1,1707,449,5.24606,10.364
490,575,5.75183,-9.44348,0,0,0,0,0,0,0,-1,1714,449,5.75186,9.44349
497,575,0,0,0,0,0,0,0,0,0,-1,1721,449,0,0
504,575,0,0,0,0,0,0,0,0,0,-1,1728,449,0,0
511,575,0,0,0,0,0,0,0,0,0,-1,1735,449,0,0
518,575,0,0,0,0,0,0,0,0,0,-1,1742,449,0,0
525,575,0,0,0,0,0,0,0,0,0,-1,1749,449,0,0
532,575,0,0,0,0,0,0,0,0,0,-1,1756,449,0,0
539,575,0,0,0,0,0,0,0,0,0,-1,1763,449,0,0
546,575,0,0,0,0,0,0,0,0,0,-1,1770,449,0,0
553,575,0,0,0,0,0,0,0,0,0,-1,1777,449,0,0
560,575,0,0,0,0,0,0,0,0,0,-1,1784,449,0,0
567,575,0,0,0,0,0,0,0,0,0,-1,1791,449,0,0
574,575,0,0,0,0,0,0,0,0,0,-1,1798,449,0,0
581,575,0,0,0,0,0,0,0,0,0,-1,1805,449,0,0
588,575,0,0,0,0,0,0,0,0,0,-1,1812,449,0,0
595,575,0,0,0,0,0,0,0,0,0,-1,1819,449,0,0
602,575,0,0,0,0,0,0,0,0,0,-1,1826,449,0,0
609,575,0,0,0,0,0,0,0,0,0,-1,1833,449,0,0
616,575,0,0,0,0,0,0,0,0,0,-1,1840,449,0,0
623,575,0,0,0,0,0,0,0,0,0,-1,1847,449,0,0
630,575,0,0,0,0,0,0,0,0,0,-1,1854,449,0,0
637,575,0,0,0,0,0,0,0,0,0,-1,1861,449,0,0
644,575,0,0,0,0,0,0,0,0,0,-1,1868,449,0,0
651,575,0,0,0,0,0,0,0,0,0,-1,1875,449,0,0
658,575,0,0,0,0,0,0,0,0,0,-1,1882,449,0,0
665,575,0,0,0,0,0,0,0,0,0,-1,1889,449,0,0
672,575,0,0,0,0,0,0,0,0,0,-1,1896,449,0,0
679,575,0,0,0,0,0,0,0,0,0,-1,1903,449,0,0
686,575,0,0,0,0,0,0,0,0,0,-1,1910,449,0,0
693,575,0,0,0,0,0,0,0,0,0,-1,1917,449,0,0
700,575,0,0,0,0,0,0,0,0,0,-1,1924,449,0,0
707,575,0,0,0,0,0,0,0,0,0,-1,1931,449,0,0
714,575,0,0,0,0,0,0,0,0,0,-1,1938,449,0,0
721,575,0,0,0,0,0,0,0,0,0,-1,1945,449,0,0
728,575,0,0,0,0,0,0,0,0,0,-1,1952,449,0,0
735,575,0,0,0,0,0,0,0,0,0,-1,1959,449,0,0
742,575,0,0,0,0,0,0,0,0,0,-1,1966,449,0,0
749,575,0,0,0,0,0,0,0,0,0,-1,1973,449,0,0
756,575,0,0,0,0,0,0,0,0,0,-1,1980,449,0,0
763,575,0,0,0,0,0,0,0,0,0,-1,1987,449,0,0
770,575,0,0,0,0,0,0,0,0,0,-1,1994,449,0,0
777,575,0,0,0,0,0,0,0,0,0,-1,2001,449,0,0
784,575,0,0,0,0,0,0,0,0,0,-1,2008,449,0,0
791,575,0,0,0,0,0,0,0,0,0,-1,2015,449,0,0
798,575,0,0,0,0,0,0,0,0,0,-1,2022,449,0,0
805,575,0,0,0,0,0,0,0,0,0,-1,2029,449,0,0
812,575,0,0,0,0,0,0,0,0,0,-1,2036,449,0,0
-700,568,0,0,0,0,0,0,0,0,0,-1,524,456,0,0
-693,568,0,0,0,0,0,0,0,0,0,-1,531,456,0,0
-686,568,0,0,0,0,0,0,0,0,0,-1,538,456,0,0
-679,568,0,0,0,0,0,0,0,0,0,-1,545,456,0,0
-672,568,0,0,0,0,0,0,0,0,0,-1,552,456,0,0
-665,568,0,0,0,0,0,0,0,0,0,-1,559,456,0,0
-658,568,0,0,0,0,0,0,0,0,0,-1,566,456,0,0
-651,568,0,0,0,0,0,0,0,0,0,-1,573,456,0,0
-644,568,0,0,0,0,0,0,0,0,0,-1,580,456,0,0
-637,568,0,0,0,0,0,0,0,0,0,-1,587,456,0,0
-630,568,0,0,0,0,0,0,0,0,0,-1,594,456,0,0
-623,568,0,0,0,0,0,0,0,0,0,-1,601,456,0,0
-616,568,0,0,0,0,0,0,0,0,0,-1,608,456,0,0
-609,568,0,0,0,0,0,0,0,0,0,-1,615,456,0,0
-602,568,0,0,0,0,0,0,0,0,0,-1,622,456,0,0
-595,568,0,0,0,0,0,0,0,0,0,-1,629,456,0,0
-588,568,0,0,0,0,0,0,0,0,0,-1,636,456,0,0
-581,568,0,0,0,0,0,0,0,0,0,-1,643,456,0,0
-574,568,0,0,0,0,0,0,0,0,0,-1,650,456,0,0
-567,568,0,0,0,0,0,0,0,0,0,-1,657,456,0,0
-560,568,0,0,0,0,0,0,0,0,0,-1,664,456,0,0
-553,568,0,0,0,0,0,0,0,0,0,-1,671,456,0,0
-546,568,0,0,0,0,0,0,0,0,0,-1,678,456,0,0
-539,568,0,0,0,0,0,0,0,0,0,-1,685,456,0,0
-532,568,0,0,0,0,0,0,0,0,0,-1,692,456,0,0
-525,568,0,0,0,0,0,0,0,0,0,-1,699,456,0,0
-518,568,0,0,0,0,0,0,0,0,0,-1,706,456,0,0
-511,568,0,0,0,0,0,0,0,0,0,-1,713,456,0,0
-504,568,0,0,0,0,0,0,0,0,0,-1,720,456,0,0
-497,568,0,0,0,0,0,0,0,0,0,-1,727,456,0,0
-490,568,0,0,0,0,0,0,0,0,0,-1,734,456,0,0
-483,568,0,0,0,0,0,0,0,0,0,-1,741,456,0,0
-476,568,0,0,0,0,0,0,0,0,0,-1,748,456,0,0
-469,568,0,0,0,0,0,0,0,0,0,-1,755,456,0,0
-462,568,0,0,0,0,0,0,0,0,0,-1,762,456,0,0
-455,568,0,0,0,0,0,0,0,0,0,-1,769,456,0,0
-448,568,0,0,0,0,0,0,0,0,0,-1,776,456,0,0
-441,568,0,0,0,0,0,0,0,0,0,-1,783,456,0,0
-434,568,0,0,0,0,0,0,0,0,0,-1,790,456,0,0
-427,568,0,0,0,0,0,0,0,0,0,-1,797,456,0,0
-420,568,0,0,0,0,0,0,0,0,0,-1,804,456,0,0
-413,568,0,0,0,0,0,0,0,0,0,-1,811,456,0,0
-406,568,0,0,0,0,0,0,0,0,0,-1,818,456,0,0
-399,568,0,0,0,0,0,0,0,0,0,-1,825,456,0,0
-392,568,0,0,0,0,0,0,0,0,0,-1,832,456,0,0
-385,568,0,0,0,0,0,0,0,0,0,-1,839,456,0,0
-378,568,0.321777,-7.29929,0,0,0,0,0,0,0,-1,846,456,0.321806,7.29927
-371,568,1.09595,-7.46707,0,0,0,0,0,0,0,-1,853,456,1.09597,7.46707
-364,568,1.87787,-7.61115,0,0,0,0,0,0,0,-1,860,456,1.87784,7.61116
-357,568,2.14166,-7.67645,0,0,0,0,0,0,0,-1,867,456,2.14167,7.67646
-350,568,2.7467,-11.2507,0,0,0,0,0,0,0,-1,874,456,2.7467,11.2507
-343,568,2.16516,-11.3762,0,0,0,0,0,0,0,-1,881,456,2.16514,11.3762
-336,568,1.55981,-12.7378,0,0,0,0,0,0,0,-1,888,456,1.55983,12.7378
-329,568,1.65533,-13.0468,0.00148265,-0.00492204,-0.0078257,0.00673587,-0.0101753,-0.591188,0.00983073,0.0477399,895,456,1.65532,13.0468
-322,568,1.69397,-13.3669,0.00079696,-0.00427119,-0.00721889,0.00591363,-0.00938786,-0.6166,0.0089099,0.0424927,902,456,1.69397,13.3668
-315,568,1.92505,-13.6552,0.000223712,-0.00366799,-0.00670491,0.00525942,-0.0087037,-0.644171,0.00814295,0.0379776,909,456,1.92504,13.6552
-308,568,1.81873,-14.1773,-0.000140062,-0.00296687,-0.0061493,0.00475618,-0.00786312,-0.672436,0.00735899,0.0286019,916,456,1.81871,14.1773
-301,568,1.7829,-14.544,-0.000450222,-0.00256843,-0.00550349,0.00409515,-0.0071138,-0.690339,0.00654925,0.0164383,923,456,1.7829,14.544
-294,568,1.73651,-14.857,-0.000630143,-0.00223965,-0.00481174,0.00344368,-0.00631347,-0.702541,0.00571394,0.0122534,930,456,1.73648,14.857
-287,568,1.71509,-15.1882,-0.000715898,-0.00180734,-0.00412529,0.00289961,-0.00542285,-0.719636,0.00487803,0.0102618,937,456,1.71508,15.1882
-280,568,1.70972,-15.52,-0.000707108,-0.00163926,-0.00353993,0.00239729,-0.00474366,-0.719943,0.00419636,0.0105566,944,456,1.70974,15.52
-273,568,1.69366,-15.8493,-0.000617845,-0.0017533,-0.00298093,0.00184894,-0.00422008,-0.691299,0.00359199,0.0117859,951,456,1.69365,15.8493
-266,568,1.67273,-16.1599,-0.000503859,-0.00166747,-0.00234137,0.00132691,-0.00349824,-0.66362,0.00287829,0.011299,958,456,1.67271,16.1599
-259,568,1.64752,-16.4426,-0.00025677,-0.00174198,-0.00177598,0.000925608,-0.00292436,-0.587376,0.00232048,0.012719,965,456,1.64753,16.4426
-252,568,1.63257,-16.737,0.000120297,-0.00174822,-0.00123835,0.000737281,-0.0023652,-0.462231,0.00187161,0.0130085,972,456,1.63255,16.737
-245,568,1.63922,-17.0287,0.000498209,-0.00215914,-0.000724901,0.000683092,-0.00234402,-0.249723,0.0018333,0.0139789,979,456,1.63923,17.0287
-238,568,1.64453,-17.3227,0.000758502,-0.00252692,-0.000178398,0.000768161,-0.00253658,-0.054088,0.00199698,0.0129746,986,456,1.64451,17.3227
-231,568,1.61194,-17.5886,0.000927697,-0.00298961,0.000316866,0.000953162,-0.00301507,0.0801939,0.00239194,0.0116412,993,456,1.61195,17.5886
-224,568,1.58655,-17.8627,0.00107028,-0.0032791,0.000818636,0.00121926,-0.00342807,0.180015,0.00278233,0.0130694,1000,456,1.58655,17.8627
-217,568,1.61584,-18.1281,0.00126957,-0.0035472,0.00127843,0.00158785,-0.00386548,0.244001,0.00323872,0.011039,1007,456,1.61584,18.1281
-210,568,1.63495,-18.4059,0.00141329,-0.00400326,0.00167637,0.00189014,-0.0044801,0.27713,0.00377783,0.0111563,1014,456,1.63498,18.4059
-203,568,1.63696,-18.6787,0.00162469,-0.00435386,0.00190659,0.00218095,-0.00491012,0.283879,0.00419389,0.010031,1021,456,1.63698,18.6787
-196,568,1.67444,-18.9159,0.00181502,-0.00449903,0.00205972,0.00242751,-0.00511152,0.289039,0.00444366,0.012209,1028,456,1.6744,18.9159
-189,568,1.70593,-19.1504,0.00200845,-0.00472651,0.00218591,0.00265571,-0.00537377,0.287879,0.00472353,0.0128878,1035,456,1.70595,19.1504
-182,568,1.72571,-19.3916,0.00229176,-0.00485516,0.0023445,0.00299221,-0.00555561,0.290321,0.00500851,0.0145363,1042,456,1.72566,19.3916
-175,568,1.72351,-19.6214,0.00273911,-0.00534933,0.00233503,0.0033648,-0.00597502,0.261808,0.00546209,0.0129942,1049,456,1.72354,19.6214
-168,568,1.68689,-19.7938,0.00308323,-0.00614841,0.002122,0.00354764,-0.00661282,0.215455,0.00595446,0.0180259,1056,456,1.68689,19.7938
-161,568,1.68555,-19.9807,0.00307746,-0.00690172,0.00172513,0.00336727,-0.00719154,0.16644,0.00622799,0.0313108,1063,456,1.68557,19.9807
-154,568,1.83154,-20.4294,0.00321308,-0.00785374,0.00169291,0.00346625,-0.00810691,0.148451,0.00685849,0.0417269,1070,456,1.83156,20.4294
-147,568,1.92896,-20.6773,0.00374239,-0.0106103,0.00138098,0.00387406,-0.010742,0.0950551,0.00874359,0.0473336,1077,456,1.92891,20.6773
-140,568,1.83459,-20.7742,0,0,0,0,0,0,0,-1,1084,456,1.83455,20.7742
-133,568,1.65552,-21.0986,0,0,0,0,0,0,0,-1,1091,456,1.65547,21.0986
-126,568,1.97778,-20.2437,0,0,0,0,0,0,0,-1,1098,456,1.97776,20.2438
-119,568,1.70984,-20.4309,0,0,0,0,0,0,0,-1,1105,456,1.70981,20.4309
-112,568,1.7251,-21.0826,0,0,0,0,0,0,0,-1,1112,456,1.72507,21.0825
-105,568,0.272095,-16.297,0,0,0,0,0,0,0,-1,1119,456,0.272141,16.297
-98,568,1.58618,-14.7874,0,0,0,0,0,0,0,-1,1126,456,1.58617,14.7874
-91,568,1.11621,-11.1853,0,0,0,0,0,0,0,-1,1133,456,1.11626,11.1853
-84,568,0.461792,-9.7959,0,0,0,0,0,0,0,-1,1140,456,0.461793,9.7959
-77,568,-1.13806,-8.57822,0,0,0,0,0,0,0,-1,1147,456,-1.13807,8.57821
-70,568,-4.09766,-1.42911,0,0,0,0,0,0,0,-1,1154,456,-4.09767,1.4291
-63,568,-5.92273,-3.70752,0,0,0,0,0,0,0,-1,1161,456,-5.92272,3.70751
-56,568,-5.24158,-6.01385,0,0,0,0,0,0,0,-1,1168,456,-5.24161,6.01386
-49,568,-5.24365,-8.33557,0,0,0,0,0,0,0,-1,1175,456,-5.24371,8.33557
-42,568,-0.664795,0.521973,0,0,0,0,0,0,0,-1,1182,456,-0.664829,-0.521984
-35,568,-0.153076,-1.67731,0,0,0,0,0,0,0,-1,1189,456,-0.153068,1.67731
-28,568,1.25439,-4.48798,0,0,0,0,0,0,0,-1,1196,456,1.2544,4.48797
-21,568,1.41333,-19.9266,0,0,0,0,0,0,0,-1,1203,456,1.41338,19.9266
-14,568,1.9375,-20.3064,0,0,0,0,0,0,0,-1,1210,456,1.93746,20.3064
-7,568,5.90967,-22.6741,0,0,0,0,0,0,0,-1,1217,456,5.90968,22.6741
0,568,5.98389,-21.874,0,0,0,0,0,0,0,-1,1224,456,5.98386,21.874
7,568,6.20386,-21.2683,0,0,0,0,0,0,0,-1,1231,456,6.20386,21.2683
14,568,5.32935,-21.7807,-0.0167038,0.00562777,-0.00654793,0.0074061,-0.0184821,-1.30561,0.0153958,0.0433087,1238,456,5.32937,21.7807
21,568,5.23206,-21.4252,-0.0153117,0.0180306,-0.00630072,0.0191815,-0.0164626,-1.39012,0.0205991,0.0419896,1245,456,5.232,21.4252
28,568,5.08386,-21.1416,-0.0127723,0.0279274,-0.00514093,0.0285667,-0.0134116,-1.44707,0.0247571,0.042624,1252,456,5.08386,21.1416
35,568,5.04419,-20.834,-0.00994285,0.0336457,-0.00297529,0.0338479,-0.010145,-1.50296,0.0265998,0.0432916,1259,456,5.04417,20.834
42,568,3.47253,-24.3925,-0.00538581,0.0358649,-0.000501184,0.0358709,-0.0053919,-1.55865,0.025899,0.0440379,1266,456,3.47253,24.3925
49,568,2.44373,-24.1146,-0.000344547,0.0337167,0.00221644,0.0338604,-0.000488171,1.50609,0.022738,0.0467646,1273,456,2.44371,24.1146
56,568,2.47119,-23.6726,0.00374024,0.0293033,0.00474522,0.0301557,0.00288782,1.39305,0.0192137,0.047138,1280,456,2.4712,23.6726
63,568,2.80273,-23.4283,0.00715467,0.0236007,0.0078205,0.0267258,0.00402964,1.19064,0.0166374,0.0472957,1287,456,2.80273,23.4283
70,568,3.42212,-23.0272,0.00933481,0.0161218,0.0103715,0.0236409,0.00181577,0.943506,0.0151915,0.0459271,1294,456,3.42217,23.0272
77,568,3.26025,-22.4127,0.0108528,0.00916029,0.0128515,0.0228859,-0.00287285,0.752522,0.0162995,0.0455906,1301,456,3.26026,22.4127
84,568,3.09814,-22.2845,0.0128964,0.00192895,0.0154596,0.023816,-0.00899065,0.614964,0.019575,0.0460736,1308,456,3.09819,22.2845
91,568,2.80762,-22.121,0.0171274,-0.00891075,0.0179117,0.0262516,-0.0180349,0.471139,0.0257151,0.0421501,1315,456,2.80756,22.121
98,568,2.7749,-22.0406,0.0211228,-0.0112392,0.0205882,0.0311276,-0.0212441,0.452346,0.0304158,0.0440655,1322,456,2.77487,22.0406
105,568,2.7937,-22.0037,0,0,0,0,0,0,0,-1,1329,456,2.79372,22.0037
112,568,2.69373,-22.0336,0.0284221,-0.0135165,0.0217629,0.0376742,-0.0227686,0.401984,0.0352486,0.0470442,1336,456,2.69371,22.0336
119,568,3.93262,-21.8783,0.0325206,-0.0112285,0.0242794,0.0433261,-0.022034,0.418728,0.0383973,0.0476806,1343,456,3.93257,21.8783
126,568,2.84412,-22.5471,0.0423982,-0.00905098,0.0242882,0.0520526,-0.0187053,0.378342,0.0423374,0.0493298,1350,456,2.84413,22.5471
133,568,3.64978,-22.4211,0.0534504,-0.00768216,0.0234032,0.061381,-0.0156128,0.326723,0.0469974,0.0474568,1357,456,3.64977,22.4211
140,568,4.79004,-22.2064,0.0639597,-0.00691737,0.021048,0.069739,-0.0126967,0.267972,0.0512518,0.047268,1364,456,4.78998,22.2064
147,568,5.89075,-22.0089,0,0,0,0,0,0,0,-1,1371,456,5.89081,22.0089
154,568,6.97852,-21.7719,0,0,0,0,0,0,0,-1,1378,456,6.9785,21.7719
161,568,8.06201,-21.5999,0,0,0,0,0,0,0,-1,1385,456,8.062,21.5999
168,568,4.39075,-21.5911,0,0,0,0,0,0,0,-1,1392,456,4.39076,21.5911
175,568,10.5151,0.747498,0,0,0,0,0,0,0,-1,1399,456,10.5152,-0.747501
182,568,6.35095,-3.63361,0,0,0,0,0,0,0,-1,1406,456,6.35093,3.63359
189,568,6.17493,-1.70911,0,0,0,0,0,0,0,-1,1413,456,6.17497,1.70911
196,568,6.04724,0.200836,0,0,0,0,0,0,0,-1,1420,456,6.04724,-0.200835
203,568,5.9281,2.08649,0,0,0,0,0,0,0,-1,1427,456,5.92812,-2.08648
210,568,1.46216,-2.50446,0,0,0,0,0,0,0,-1,1434,456,1.46219,2.50446
217,568,2.62366,-7.86703,0,0,0,0,0,0,0,-1,1441,456,2.62365,7.86704
224,568,3.43494,-12.1555,0,0,0,0,0,0,0,-1,1448,456,3.43492,12.1555
231,568,4.38245,-9.3205,0,0,0,0,0,0,0,-1,1455,456,4.38244,9.32048
238,568,5.88879,-20.7448,0,0,0,0,0,0,0,-1,1462,456,5.88876,20.7449
245,568,3.34387,-10.6774,0,0,0,0,0,0,0,-1,1469,456,3.34389,10.6774
252,568,3.56946,-9.28928,0,0,0,0,0,0,0,-1,1476,456,3.56948,9.28928
259,568,3.38843,-8.73068,0,0,0,0,0,0,0,-1,1483,456,3.38842,8.73068
266,568,3.104,-9.16876,0,0,0,0,0,0,0,-1,1490,456,3.10397,9.16876
273,568,3.77869,-13.1147,0,0,0,0,0,0,0,-1,1497,456,3.77869,13.1147
280,568,4.40002,-14.9322,0,0,0,0,0,0,0,-1,1504,456,4.4,14.9322
287,568,5.57422,-19.4596,0,0,0,0,0,0,0,-1,1511,456,5.57418,19.4596
294,568,5.68652,-19.0352,0.00271018,-0.000381119,-0.00189699,0.00361148,-0.00128243,-0.443551,0.00293022,0.0316521,1518,456,5.68657,19.0352
301,568,5.67175,-18.7943,0.00225524,-0.00118038,-0.00195397,0.00313913,-0.00206428,-0.424813,0.00302548,0.0213498,1525,456,5.6718,18.7943
308,568,5.68616,-18.5388,0.00182667,-0.00174664,-0.00201923,0.00273621,-0.00265618,-0.423216,0.00311341,0.0139654,1532,456,5.68614,18.5388
315,568,5.69214,-18.288,0.00152426,-0.00196656,-0.00198064,0.00241882,-0.00286111,-0.424223,0.00305193,0.00825161,1539,456,5.69212,18.288
322,568,5.70142,-18.0048,0.0012306,-0.00182,-0.00179552,0.00206124,-0.00265064,-0.433295,0.00272749,0.0097928,1546,456,5.70139,18.0048
329,568,5.72119,-17.7286,0.000973412,-0.00143133,-0.00148555,0.00168221,-0.00214012,-0.445182,0.0022121,0.0106436,1553,456,5.72119,17.7286
336,568,5.74316,-17.4473,0.000723472,-0.00101687,-0.00115436,0.00129889,-0.00159229,-0.462429,0.00167209,0.0109238,1560,456,5.74313,17.4473
343,568,5.76294,-17.1501,0.000450226,-0.000557565,-0.000861806,0.000944639,-0.00105198,-0.520853,0.0011533,0.0111074,1567,456,5.76288,17.1501
350,568,5.75513,-16.8723,0.000272395,-2.7521e-05,-0.000461756,0.000607932,-0.000363058,-0.628393,0.000566513,0.010064,1574,456,5.75514,16.8723
357,568,5.73657,-16.5743,9.94773e-05,0.000547188,-4.54032e-05,0.000551746,9.49193e-05,-1.47074,0.000340628,0.00925612,1581,456,5.73659,16.5743
364,568,5.75415,-16.2803,-8.61584e-05,0.00103703,0.00028387,0.00110469,-0.000153826,1.33679,0.000792728,0.0117761,1588,456,5.75415,16.2803
371,568,5.73792,-15.9774,-0.000227125,0.00146832,0.000586055,0.00165117,-0.000409982,1.26835,0.00125988,0.021787,1595,456,5.73796,15.9774
378,568,5.71436,-15.641,-0.0004426,0.00188268,0.000793549,0.00212768,-0.000687601,1.27134,0.0016948,0.019471,1602,456,5.71432,15.641
385,568,5.69263,-15.3127,-0.000673275,0.00224625,0.000835447,0.00246841,-0.000895439,1.31089,0.00201165,0.00914165,1609,456,5.69268,15.3126
392,568,5.6759,-14.9977,-0.000404371,0.00228958,0.000778587,0.00249841,-0.000613205,1.30874,0.00190323,0.0100977,1616,456,5.67585,14.9977
399,568,5.672,-14.7274,0.000757316,0.00201078,0.00141732,0.00293376,-0.000165658,0.993571,0.00201333,0.0177885,1623,456,5.67204,14.7275
406,568,5.67468,-14.3691,0.00154722,0.00195544,0.00176046,0.00352358,-2.09211e-05,0.843112,0.00235606,0.0161753,1630,456,5.67465,14.3691
413,568,5.65601,-13.9858,0.00254143,0.00162441,0.00209747,0.00422992,-6.40792e-05,0.677791,0.00284155,0.0120127,1637,456,5.65601,13.9858
420,568,5.66101,-13.6213,0.00360291,0.00127845,0.00246873,0.0051693,-0.000287948,0.565398,0.00354608,0.0103356,1644,456,5.66099,13.6213
427,568,5.63647,-13.2556,0.00477818,0.000943661,0.00299396,0.00641616,-0.000694314,0.500609,0.00452666,0.0129341,1651,456,5.6365,13.2555
434,568,5.62549,-12.9158,0.00632959,0.000592248,0.00366637,0.00811619,-0.00119435,0.453431,0.00584969,0.0177805,1658,456,5.62546,12.9158
441,568,5.58093,-12.631,0.0077345,0.000179105,0.00436837,0.00973206,-0.00181846,0.428891,0.00717146,0.0250838,1665,456,5.58093,12.631
448,568,5.64539,-12.184,0.00871217,1.03023e-06,0.00505051,0.0110258,-0.00231263,0.429573,0.00823046,0.0414523,1672,456,5.64535,12.184
455,568,5.65491,-11.6166,0.00906736,-0.000209655,0.00553181,0.011648,-0.00279033,0.436504,0.00884344,0.0494471,1679,456,5.65487,11.6166
462,568,5.70239,-11.0564,0,0,0,0,0,0,0,-1,1686,456,5.70238,11.0564
469,568,5.38,-10.9742,0.00793471,0.000556531,0.00602741,0.0113124,-0.00282114,0.510781,0.00863693,0.0492734,1693,456,5.38004,10.9742
476,568,5.27856,-10.7008,0.00588463,0.000965583,0.00556069,0.00950544,-0.00265523,0.57718,0.00738295,0.0488477,1700,456,5.2786,10.7008
483,568,5.375,-10.2618,0,0,0,0,0,0,0,-1,1707,456,5.37498,10.2618
490,568,5.5415,-9.66003,0,0,0,0,0,0,0,-1,1714,456,5.54144,9.66004
497,568,6.58289,-3.47745,0,0,0,0,0,0,0,-1,1721,456,6.58294,3.47744
504,568,0,0,0,0,0,0,0,0,0,-1,1728,456,0,0
511,568,0,0,0,0,0,0,0,0,0,-1,1735,456,0,0
518,568,0,0,0,0,0,0,0,0,0,-1,1742,456,0,0
525,568,0,0,0,0,0,0,0,0,0,-1,1749,456,0,0
532,568,0,0,0,0,0,0,0,0,0,-1,1756,456,0,0
539,568,0,0,0,0,0,0,0,0,0,-1,1763,456,0,0
546,568,0,0,0,0,0,0,0,0,0,-1,1770,456,0,0
553,568,0,0,0,0,0,0,0,0,0,-1,1777,456,0,0
560,568,0,0,0,0,0,0,0,0,0,-1,1784,456,0,0
567,568,0,0,0,0,0,0,0,0,0,-1,1791,456,0,0
574,568,0,0,0,0,0,0,0,0,0,-1,1798,456,0,0
581,568,0,0,0,0,0,0,0,0,0,-1,1805,456,0,0
588,568,0,0,0,0,0,0,0,0,0,-1,1812,456,0,0
595,568,0,0,0,0,0,0,0,0,0,-1,1819,456,0,0
602,568,0,0,0,0,0,0,0,0,0,-1,1826,456,0,0
609,568,0,0,0,0,0,0,0,0,0,-1,1833,456,0,0
616,568,0,0,0,0,0,0,0,0,0,-1,1840,456,0,0
623,568,0,0,0,0,0,0,0,0,0,-1,1847,456,0,0
630,568,0,0,0,0,0,0,0,0,0,-1,1854,456,0,0
637,568,0,0,0,0,0,0,0,0,0,-1,1861,456,0,0
644,568,0,0,0,0,0,0,0,0,0,-1,1868,456,0,0
651,568,0,0,0,0,0,0,0,0,0,-1,1875,456,0,0
658,568,0,0,0,0,0,0,0,0,0,-1,1882,456,0,0
665,568,0,0,0,0,0,0,0,0,0,-1,1889,456,0,0
672,568,0,0,0,0,0,0,0,0,0,-1,1896,456,0,0
679,568,0,0,0,0,0,0,0,0,0,-1,1903,456,0,0
686,568,0,0,0,0,0,0,0,0,0,-1,1910,456,0,0
693,568,0,0,0,0,0,0,0,0,0,-1,1917,456,0,0
700,568,0,0,0,0,0,0,0,0,0,-1,1924,456,0,0
707,568,0,0,0,0,0,0,0,0,0,-1,1931,456,0,0
714,568,0,0,0,0,0,0,0,0,0,-1,1938,456,0,0
721,568,0,0,0,0,0,0,0,0,0,-1,1945,456,0,0
728,568,0,0,0,0,0,0,0,0,0,-1,1952,456,0,0
735,568,0,0,0,0,0,0,0,0,0,-1,1959,456,0,0
742,568,0,0,0,0,0,0,0,0,0,-1,1966,456,0,0
749,568,0,0,0,0,0,0,0,0,0,-1,1973,456,0,0
756,568,0,0,0,0,0,0,0,0,0,-1,1980,456,0,0
763,568,0,0,0,0,0,0,0,0,0,-1,1987,456,0,0
770,568,0,0,0,0,0,0,0,0,0,-1,1994,456,0,0
777,568,0,0,0,0,0,0,0,0,0,-1,2001,456,0,0
784,568,0,0,0,0,0,0,0,0,0,-1,2008,456,0,0
791,568,0,0,0,0,0,0,0,0,0,-1,2015,456,0,0
798,568,0,0,0,0,0,0,0,0,0,-1,2022,456,0,0
805,568,0,0,0,0,0,0,0,0,0,-1,2029,456,0,0
812,568,0,0,0,0,0,0,0,0,0,-1,2036,456,0,0
-700,561,0,0,0,0,0,0,0,0,0,-1,524,463,0,0
-693,561,0,0,0,0,0,0,0,0,0,-1,531,463,0,0
-686,561,0,0,0,0,0,0,0,0,0,-1,538,463,0,0
-679,561,0,0,0,0,0,0,0,0,0,-1,545,463,0,0
-672,561,0,0,0,0,0,0,0,0,0,-1,552,463,0,0
-665,561,0,0,0,0,0,0,0,0,0,-1,559,463,0,0
-658,561,0,0,0,0,0,0,0,0,0,-1,566,463,0,0
-651,561,0,0,0,0,0,0,0,0,0,-1,573,463,0,0
-644,561,0,0,0,0,0,0,0,0,0,-1,580,463,0,0
-637,561,0,0,0,0,0,0,0,0,0,-1,587,463,0,0
-630,561,0,0,0,0,0,0,0,0,0,-1,594,463,0,0
-623,561,0,0,0,0,0,0,0,0,0,-1,601,463,0,0
-616,561,0,0,0,0,0,0,0,0,0,-1,608,463,0,0
-609,561,0,0,0,0,0,0,0,0,0,-1,615,463,0,0
-602,561,0,0,0,0,0,0,0,0,0,-1,622,463,0,0
-595,561,0,0,0,0,0,0,0,0,0,-1,629,463,0,0
-588,561,0,0,0,0,0,0,0,0,0,-1,636,463,0,0
-581,561,0,0,0,0,0,0,0,0,0,-1,643,463,0,0
-574,561,0,0,0,0,0,0,0,0,0,-1,650,463,0,0
-567,561,0,0,0,0,0,0,0,0,0,-1,657,463,0,0
-560,561,0,0,0,0,0,0,0,0,0,-1,664,463,0,0
-553,561,0,0,0,0,0,0,0,0,0,-1,671,463,0,0
-546,561,0,0,0,0,0,0,0,0,0,-1,678,463,0,0
-539,561,0,0,0,0,0,0,0,0,0,-1,685,463,0,0
-532,561,0,0,0,0,0,0,0,0,0,-1,692,463,0,0
-525,561,0,0,0,0,0,0,0,0,0,-1,699,463,0,0
-518,561,0,0,0,0,0,0,0,0,0,-1,706,463,0,0
-511,561,0,0,0,0,0,0,0,0,0,-1,713,463,0,0
-504,561,0,0,0,0,0,0,0,0,0,-1,720,463,0,0
-497,561,0,0,0,0,0,0,0,0,0,-1,727,463,0,0
-490,561,0,0,0,0,0,0,0,0,0,-1,734,463,0,0
-483,561,0,0,0,0,0,0,0,0,0,-1,741,463,0,0
-476,561,0,0,0,0,0,0,0,0,0,-1,748,463,0,0
-469,561,0,0,0,0,0,0,0,0,0,-1,755,463,0,0
-462,561,0,0,0,0,0,0,0,0,0,-1,762,463,0,0
-455,561,0,0,0,0,0,0,0,0,0,-1,769,463,0,0
-448,561,0,0,0,0,0,0,0,0,0,-1,776,463,0,0
-441,561,0,0,0,0,0,0,0,0,0,-1,783,463,0,0
-434,561,0,0,0,0,0,0,0,0,0,-1,790,463,0,0
-427,561,0,0,0,0,0,0,0,0,0,-1,797,463,0,0
-420,561,0,0,0,0,0,0,0,0,0,-1,804,463,0,0
-413,561,0,0,0,0,0,0,0,0,0,-1,811,463,0,0
-406,561,0,0,0,0,0,0,0,0,0,-1,818,463,0,0
-399,561,0,0,0,0,0,0,0,0,0,-1,825,463,0,0
-392,561,4.92407,-2.54578,0,0,0,0,0,0,0,-1,832,463,4.92408,2.54576
-385,561,5.55634,-1.02338,0,0,0,0,0,0,0,-1,839,463,5.55634,1.02338
-378,561,0.160522,-4.51785,0,0,0,0,0,0,0,-1,846,463,0.160542,4.51785
-371,561,1.06299,-7.56818,0,0,0,0,0,0,0,-1,853,463,1.06297,7.56817
-364,561,1.45264,-7.57684,0,0,0,0,0,0,0,-1,860,463,1.45264,7.57684
-357,561,0.948242,-12.2803,0,0,0,0,0,0,0,-1,867,463,0.948262,12.2803
-350,561,1.33124,-11.9406,0,0,0,0,0,0,0,-1,874,463,1.33127,11.9406
-343,561,1.60773,-12.2777,0,0,0,0,0,0,0,-1,881,463,1.60776,12.2777
-336,561,1.57208,-12.7711,0,0,0,0,0,0,0,-1,888,463,1.57211,12.7712
-329,561,1.40405,-13.299,0.000570713,-0.00243037,-0.00571981,0.00498354,-0.00684319,-0.657118,0.00685624,0.040132,895,463,1.40406,13.299
-322,561,1.39459,-13.4941,0.000243045,-0.00217531,-0.00528531,0.00445573,-0.006388,-0.672943,0.00629367,0.0316547,902,463,1.3946,13.4941
-315,561,1.48651,-13.7202,-3.54438e-05,-0.00187993,-0.00490385,0.00403213,-0.00594751,-0.692451,0.00579701,0.0216657,909,463,1.48649,13.7202
-308,561,1.50208,-14.1243,-0.000197323,-0.0015189,-0.00447756,0.00366795,-0.00538417,-0.712138,0.00525746,0.0168723,916,463,1.50208,14.1243
-301,561,1.46576,-14.5532,-0.000336862,-0.00135704,-0.00397372,0.00315937,-0.00485327,-0.721564,0.00466043,0.012874,923,463,1.46575,14.5532
-294,561,1.4303,-14.8842,-0.000358346,-0.00130676,-0.00343154,0.0026316,-0.0042967,-0.716738,0.00403838,0.011365,930,463,1.43032,14.8842
-287,561,1.4126,-15.1996,-0.000296389,-0.00122357,-0.0029058,0.00218257,-0.00370253,-0.706295,0.00343533,0.00977675,937,463,1.41258,15.1996
-280,561,1.37292,-15.5087,-0.000223011,-0.00137556,-0.00244966,0.00171725,-0.00331581,-0.669876,0.00295429,0.0123978,944,463,1.37294,15.5087
-273,561,1.3631,-15.8117,-0.000117552,-0.00179143,-0.00197082,0.00118667,-0.00309565,-0.584604,0.00255298,0.0145765,951,463,1.36308,15.8117
-266,561,1.36456,-16.1298,5.95465e-05,-0.00209033,-0.00141743,0.000763538,-0.00279432,-0.460979,0.0021628,0.00930264,958,463,1.36455,16.1298
-259,561,1.35089,-16.4218,0.000349139,-0.00250525,-0.000943745,0.00063295,-0.00278906,-0.292125,0.00210236,0.010241,965,463,1.35091,16.4218
-252,561,1.35333,-16.718,0.000689623,-0.00259083,-0.000434672,0.000746241,-0.00264745,-0.129526,0.00205929,0.0143789,972,463,1.35333,16.7181
-245,561,1.35565,-17.0267,0.0010342,-0.003262,5.20561e-05,0.00103483,-0.00326263,0.0121144,0.00258989,0.0160769,979,463,1.35565,17.0267
-238,561,1.35596,-17.3237,0.00126026,-0.0038846,0.000595785,0.00132835,-0.00395269,0.113796,0.00317202,0.0131336,986,463,1.35593,17.3237
-231,561,1.32983,-17.5877,0.00141313,-0.00456466,0.00109373,0.00160696,-0.00475849,0.175398,0.00382229,0.0111855,993,463,1.32983,17.5877
-224,561,1.33826,-17.8625,0.00151492,-0.00496401,0.00163559,0.00190441,-0.0053535,0.233778,0.00434521,0.0110497,1000,463,1.33828,17.8625
-217,561,1.36426,-18.1244,0.00164978,-0.00527861,0.00212698,0.00225064,-0.00587947,0.275321,0.00484727,0.0109275,1007,463,1.36424,18.1244
-210,561,1.36353,-18.3941,0.00175729,-0.00578196,0.00254705,0.00253712,-0.00656179,0.297107,0.00542185,0.0122155,1014,463,1.36351,18.3941
-203,561,1.36609,-18.669,0.00196209,-0.00608667,0.00279017,0.00283471,-0.0069593,0.303113,0.00581932,0.0136256,1021,463,1.36607,18.6691
-196,561,1.39746,-18.8955,0.00212411,-0.00616572,0.00294925,0.00306628,-0.00710789,0.309212,0.00602656,0.0138697,1028,463,1.39749,18.8955
-189,561,1.41956,-19.1102,0.00228037,-0.00626569,0.00308385,0.00327696,-0.00726228,0.312571,0.00622816,0.0178915,1035,463,1.41955,19.1102
-182,561,1.427,-19.3526,0.00252224,-0.00616312,0.00327066,0.00361611,-0.00725699,0.322755,0.00639382,0.0205603,1042,463,1.42697,19.3526
-175,561,1.33105,-19.6427,0.00302746,-0.00656942,0.00321214,0.00400335,-0.00754531,0.294951,0.00677134,0.0318955,1049,463,1.33111,19.6427
-168,561,1.41748,-19.8886,0.0034771,-0.00738519,0.00285983,0.00418403,-0.00809211,0.242335,0.00720636,0.0479642,1056,463,1.41745,19.8886
-161,561,1.38538,-19.9745,0,0,0,0,0,0,0,-1,1063,463,1.38534,19.9745
-154,561,1.83179,-20.7812,0,0,0,0,0,0,0,-1,1070,463,1.83183,20.7812
-147,561,1.88098,-21.0252,0,0,0,0,0,0,0,-1,1077,463,1.88094,21.0252
-140,561,1.89368,-21.2703,0,0,0,0,0,0,0,-1,1084,463,1.89363,21.2703
-133,561,1.92224,-20.9314,0,0,0,0,0,0,0,-1,1091,463,1.92219,20.9314
-126,561,1.5376,-18.5582,0,0,0,0,0,0,0,-1,1098,463,1.53766,18.5582
-119,561,1.13025,-20.0253,0,0,0,0,0,0,0,-1,1105,463,1.13027,20.0253
-112,561,0.562378,-20.105,0,0,0,0,0,0,0,-1,1112,463,0.562368,20.105
-105,561,0.530518,-13.5379,0,0,0,0,0,0,0,-1,1119,463,0.530477,13.5379
-98,561,1.5387,-7.54352,0,0,0,0,0,0,0,-1,1126,463,1.53871,7.54351
-91,561,1.29553,-6.57968,0,0,0,0,0,0,0,-1,1133,463,1.29549,6.5797
-84,561,1.23364,-5.84555,0,0,0,0,0,0,0,-1,1140,463,1.23363,5.84556
-77,561,-2.36023,1.00204,0,0,0,0,0,0,0,-1,1147,463,-2.3602,-1.00205
-70,561,-3.90015,-1.41541,0,0,0,0,0,0,0,-1,1154,463,-3.90009,1.4154
-63,561,-6.95691,-4.02756,0,0,0,0,0,0,0,-1,1161,463,-6.95696,4.02756
-56,561,-5.37988,-6.66855,0,0,0,0,0,0,0,-1,1168,463,-5.37988,6.66854
-49,561,-5.7439,-9.11029,0,0,0,0,0,0,0,-1,1175,463,-5.74387,9.1103
-42,561,-1.72644,-5.63065,0,0,0,0,0,0,0,-1,1182,463,-1.72648,5.63064
-35,561,-1.65674,-4.87994,0,0,0,0,0,0,0,-1,1189,463,-1.6567,4.87993
-28,561,-1.91418,-3.86896,0,0,0,0,0,0,0,-1,1196,463,-1.91414,3.86895
-21,561,1.04163,-19.114,0,0,0,0,0,0,0,-1,1203,463,1.04162,19.114
-14,561,1.67834,-19.6006,0,0,0,0,0,0,0,-1,1210,463,1.67832,19.6006
-7,561,2.31055,-19.9206,0,0,0,0,0,0,0,-1,1217,463,2.31053,19.9206
0,561,6.59192,-21.1806,0,0,0,0,0,0,0,-1,1224,463,6.59192,21.1806
7,561,5.70898,-21.8194,-0.0169486,-0.0114588,-0.00270835,-0.0103476,-0.0180598,-1.18145,0.0104638,0.0446519,1231,463,5.70902,21.8194
14,561,5.7439,-21.121,-0.0195621,0.0101274,-0.00510146,0.0109795,-0.0204142,-1.40529,0.018396,0.0411143,1238,463,5.74391,21.121
21,561,5.67102,-20.836,-0.0183173,0.0266667,-0.00555555,0.0273426,-0.0189933,-1.44972,0.0268964,0.0411147,1245,463,5.67105,20.836
28,561,5.69153,-20.5457,0,0,0,0,0,0,0,-1,1252,463,5.69152,20.5457
35,561,4.63562,-24.7744,-0.0123687,0.0463282,-0.00359479,0.0465475,-0.012588,-1.50986,0.0359695,0.0416014,1259,463,4.63567,24.7744
42,561,3.57568,-24.7421,-0.00776261,0.0488211,-0.00159473,0.048866,-0.00780752,-1.54264,0.0354675,0.0450562,1266,463,3.57568,24.7421
49,561,1.65149,-24.1597,-0.00290184,0.0456045,0.000822756,0.0456185,-0.00291579,1.55384,0.0314294,0.0473768,1273,463,1.65148,24.1597
56,561,2.14612,-23.6838,0.00111545,0.0392122,0.00318749,0.0394771,0.000850596,1.4879,0.0260392,0.0477147,1280,463,2.14611,23.6838
63,561,2.78735,-23.6896,0.00458407,0.0311947,0.00611434,0.0325324,0.00324641,1.35542,0.0206912,0.0489799,1287,463,2.78732,23.6896
70,561,4.16516,-22.7447,0.006465,0.0211379,0.00875234,0.0252219,0.00238098,1.13421,0.0160798,0.0470794,1294,463,4.16514,22.7447
77,561,3.19434,-22.6957,0.00756412,0.011781,0.0115939,0.0214566,-0.00211145,0.875345,0.0150576,0.0488602,1301,463,3.19429,22.6957
84,561,2.7561,-22.2549,0.0100915,0.00199408,0.0147927,0.0213795,-0.00929399,0.651822,0.0181618,0.0459902,1308,463,2.75607,22.255
91,561,2.33984,-22.0665,0,0,0,0,0,0,0,-1,1315,463,2.3398,22.0665
98,561,0.494995,-21.8022,0,0,0,0,0,0,0,-1,1322,463,0.494999,21.8022
105,561,-0.466309,-21.6172,0,0,0,0,0,0,0,-1,1329,463,-0.466272,21.6172
112,561,2.39172,-21.8739,0.0330102,-0.0164876,0.0243063,0.04295,-0.0264274,0.388188,0.0404319,0.0475655,1336,463,2.39171,21.8739
119,561,2.59814,-22.0687,0.0399475,-0.0128031,0.0282209,0.0521997,-0.0250552,0.409595,0.0455116,0.0456273,1343,463,2.59809,22.0687
126,561,2.91589,-22.1592,0.0538966,-0.00934753,0.0285303,0.0648649,-0.0203158,0.367022,0.0513721,0.0480541,1350,463,2.91593,22.1592
133,561,3.20447,-22.2667,0,0,0,0,0,0,0,-1,1357,463,3.20441,22.2667
140,561,4.83826,-22.2479,0,0,0,0,0,0,0,-1,1364,463,4.83822,22.2479
147,561,5.92932,-22.022,0,0,0,0,0,0,0,-1,1371,463,5.92929,22.022
154,561,7.08154,-21.796,0,0,0,0,0,0,0,-1,1378,463,7.0815,21.796
161,561,4.75647,-21.6194,0,0,0,0,0,0,0,-1,1385,463,4.75644,21.6194
168,561,2.48633,-15.9171,0,0,0,0,0,0,0,-1,1392,463,2.48634,15.9171
175,561,10.4185,0.276398,0,0,0,0,0,0,0,-1,1399,463,10.4185,-0.276394
182,561,6.45703,-4.02127,0,0,0,0,0,0,0,-1,1406,463,6.45704,4.02127
189,561,6.50854,-2.08685,0,0,0,0,0,0,0,-1,1413,463,6.50851,2.08686
196,561,6.44775,-0.27182,0,0,0,0,0,0,0,-1,1420,463,6.44773,0.271814
203,561,6.18591,1.1301,0,0,0,0,0,0,0,-1,1427,463,6.18592,-1.13009
210,561,5.68713,2.68427,0,0,0,0,0,0,0,-1,1434,463,5.6871,-2.68425
217,561,3.61743,-7.33582,0,0,0,0,0,0,0,-1,1441,463,3.61738,7.33581
224,561,4.27466,-8.59171,0,0,0,0,0,0,0,-1,1448,463,4.27466,8.59171
231,561,4.93188,-9.8476,0,0,0,0,0,0,0,-1,1455,463,4.93193,9.84761
238,561,2.18018,-5.18359,0,0,0,0,0,0,0,-1,1462,463,2.18023,5.18359
245,561,3.07568,-3.50238,0,0,0,0,0,0,0,-1,1469,463,3.0757,3.50238
252,561,3.47412,-3.71109,0,0,0,0,0,0,0,-1,1476,463,3.47413,3.71109
259,561,3.42212,-3.2334,0,0,0,0,0,0,0,-1,1483,463,3.42214,3.2334
266,561,4.44373,-5.90027,0,0,0,0,0,0,0,-1,1490,463,4.44372,5.90026
273,561,2.59485,-3.65268,0,0,0,0,0,0,0,-1,1497,463,2.5948,3.65268
280,561,3.10767,-6.38235,0,0,0,0,0,0,0,-1,1504,463,3.10766,6.38235
287,561,4.91809,-14.429,0,0,0,0,0,0,0,-1,1511,463,4.9181,14.429
294,561,5.99292,-18.9478,0,0,0,0,0,0,0,-1,1518,463,5.99287,18.9478
301,561,5.96204,-18.675,0.00252922,-0.00219019,-0.0026936,0.00375053,-0.0034115,-0.425688,0.00413655,0.0420911,1525,463,5.96205,18.675
308,561,5.97339,-18.4641,0.00193176,-0.00288195,-0.00287122,0.00327148,-0.00422167,-0.436576,0.00433775,0.0322471,1532,463,5.97338,18.4641
315,561,5.97095,-18.2879,0.00154233,-0.00314803,-0.00285259,0.00289,-0.0044957,-0.441355,0.0042976,0.0188651,1539,463,5.97097,18.2879
322,561,5.97363,-18.0479,0.00123968,-0.00295579,-0.00264146,0.00251504,-0.00423116,-0.449814,0.0039367,0.0185681,1546,463,5.97357,18.0479
329,561,5.98218,-17.7342,0.00100298,-0.00248757,-0.00230484,0.00214878,-0.00363336,-0.461344,0.0033748,0.0142311,1553,463,5.98224,17.7342
336,561,6.02441,-17.4403,0.000758396,-0.0020386,-0.0019534,0.0017623,-0.00304251,-0.474729,0.00280669,0.0111005,1560,463,6.02447,17.4403
343,561,6.04053,-17.1511,0.000453454,-0.00152875,-0.00164563,0.00138338,-0.00245868,-0.514356,0.00224699,0.0102694,1567,463,6.04055,17.1511
350,561,6.03186,-16.8533,0.000271778,-0.00101824,-0.00122261,0.00100909,-0.00175556,-0.54267,0.00161545,0.00926943,1574,463,6.03191,16.8533
357,561,6.03479,-16.5519,0.000153981,-0.000426673,-0.000768914,0.000685554,-0.000958246,-0.604883,0.000953391,0.00920315,1581,463,6.03475,16.5519
364,561,6.05103,-16.2732,5.22156e-05,9.02684e-05,-0.00036743,0.000439165,-0.000296681,-0.811266,0.000427487,0.00920309,1588,463,6.05107,16.2732
371,561,6.04077,-15.976,-2.20126e-05,0.000537913,-1.13986e-05,0.000538145,-2.22446e-05,-1.55045,0.000366404,0.0162899,1595,463,6.04071,15.976
378,561,6.01697,-15.641,-0.000154841,0.000970776,0.000257278,0.00102679,-0.000210859,1.35641,0.00076457,0.0117721,1602,463,6.01701,15.641
385,561,6.01074,-15.3026,-0.000308419,0.00142544,0.00041848,0.00152116,-0.000404138,1.34593,0.00117228,0.00947249,1609,463,6.01079,15.3026
392,561,5.99451,-14.9646,-0.000130698,0.00157342,0.000475227,0.00169699,-0.000254264,1.31641,0.00122491,0.0126558,1616,463,5.99456,14.9646
399,561,6.02112,-14.6628,0.000674518,0.0014412,0.00099445,0.00212363,-7.9195e-06,0.969361,0.0014184,0.0192881,1623,463,6.02115,14.6628
406,561,6.00952,-14.321,0.0012399,0.00147612,0.00130823,0.00267156,4.44605e-05,0.830418,0.00176641,0.0190127,1630,463,6.00954,14.3209
413,561,5.97791,-13.9685,0.00193962,0.00133711,0.00162667,0.0032927,-1.59659e-05,0.693837,0.00220047,0.0172571,1637,463,5.97788,13.9685
420,561,5.97876,-13.619,0.0026478,0.00116281,0.00194374,0.00398603,-0.000175422,0.602955,0.00271772,0.0130309,1644,463,5.97873,13.6191
427,561,5.96973,-13.2561,0.00339916,0.000972434,0.00234671,0.00482763,-0.000456038,0.546802,0.0033807,0.0103271,1651,463,5.96968,13.2561
434,561,5.97461,-12.9044,0.00439745,0.000744399,0.00285067,0.00595656,-0.000814712,0.500481,0.00426861,0.0125212,1658,463,5.97457,12.9044
441,561,5.95691,-12.5739,0.00526595,0.000452537,0.0033561,0.00698909,-0.0012706,0.474338,0.00513559,0.0152542,1665,463,5.95697,12.5739
448,561,5.95996,-12.1684,0.00578048,0.000321185,0.00383014,0.00775412,-0.00165246,0.475807,0.00579925,0.020078,1672,463,5.95992,12.1684
455,561,6.04089,-11.7244,0.00586911,0.000157508,0.0041473,0.00804876,-0.00202214,0.483884,0.00615168,0.03643,1679,463,6.04095,11.7244
462,561,5.84863,-11.4176,0.00563266,0.000192014,0.00433724,0.00803208,-0.0022074,0.505307,0.00622243,0.0379647,1686,463,5.84862,11.4176
469,561,5.76416,-11.0804,0.00503657,0.000338233,0.00442023,0.0076931,-0.0023183,0.54115,0.00605138,0.0249435,1693,463,5.76411,11.0804
476,561,5.5343,-10.7366,0.00378714,0.000332002,0.00410164,0.00651018,-0.00239104,0.586079,0.00531938,0.0412399,1700,463,5.53434,10.7366
483,561,5.29346,-10.3653,0,0,0,0,0,0,0,-1,1707,463,5.29347,10.3653
490,561,4.00928,-7.65302,0,0,0,0,0,0,0,-1,1714,463,4.00929,7.65302
497,561,7.30652,-2.46649,0,0,0,0,0,0,0,-1,1721,463,7.30649,2.4665
504,561,6.45044,-2.35263,0,0,0,0,0,0,0,-1,1728,463,6.4504,2.35263
511,561,0,0,0,0,0,0,0,0,0,-1,1735,463,0,0
518,561,0,0,0,0,0,0,0,0,0,-1,1742,463,0,0
525,561,0,0,0,0,0,0,0,0,0,-1,1749,463,0,0
532,561,0,0,0,0,0,0,0,0,0,-1,1756,463,0,0
539,561,0,0,0,0,0,0,0,0,0,-1,1763,463,0,0
546,561,0,0,0,0,0,0,0,0,0,-1,1770,463,0,0
553,561,0,0,0,0,0,0,0,0,0,-1,1777,463,0,0
560,561,0,0,0,0,0,0,0,0,0,-1,1784,463,0,0
567,561,0,0,0,0,0,0,0,0,0,-1,1791,463,0,0
574,561,0,0,0,0,0,0,0,0,0,-1,1798,463,0,0
581,561,0,0,0,0,0,0,0,0,0,-1,1805,463,0,0
588,561,0,0,0,0,0,0,0,0,0,-1,1812,463,0,0
595,561,0,0,0,0,0,0,0,0,0,-1,1819,463,0,0
602,561,0,0,0,0,0,0,0,0,0,-1,1826,463,0,0
609,561,0,0,0,0,0,0,0,0,0,-1,1833,463,0,0
616,561,0,0,0,0,0,0,0,0,0,-1,1840,463,0,0
623,561,0,0,0,0,0,0,0,0,0,-1,1847,463,0,0
630,561,0,0,0,0,0,0,0,0,0,-1,1854,463,0,0
637,561,0,0,0,0,0,0,0,0,0,-1,1861,463,0,0
644,561,0,0,0,0,0,0,0,0,0,-1,1868,463,0,0
651,561,0,0,0,0,0,0,0,0,0,-1,1875,463,0,0
658,561,0,0,0,0,0,0,0,0,0,-1,1882,463,0,0
665,561,0,0,0,0,0,0,0,0,0,-1,1889,463,0,0
672,561,0,0,0,0,0,0,0,0,0,-1,1896,463,0,0
679,561,0,0,0,0,0,0,0,0,0,-1,1903,463,0,0
686,561,0,0,0,0,0,0,0,0,0,-1,1910,463,0,0
693,561,0,0,0,0,0,0,0,0,0,-1,1917,463,0,0
700,561,0,0,0,0,0,0,0,0,0,-1,1924,463,0,0
707,561,0,0,0,0,0,0,0,0,0,-1,1931,463,0,0
714,561,0,0,0,0,0,0,0,0,0,-1,1938,463,0,0
721,561,0,0,0,0,0,0,0,0,0,-1,1945,463,0,0
728,561,0,0,0,0,0,0,0,0,0,-1,1952,463,0,0
735,561,0,0,0,0,0,0,0,0,0,-1,1959,463,0,0
742,561,0,0,0,0,0,0,0,0,0,-1,1966,463,0,0
749,561,0,0,0,0,0,0,0,0,0,-1,1973,463,0,0
756,561,0,0,0,0,0,0,0,0,0,-1,1980,463,0,0
763,561,0,0,0,0,0,0,0,0,0,-1,1987,463,0,0
770,561,0,0,0,0,0,0,0,0,0,-1,1994,463,0,0
777,561,0,0,0,0,0,0,0,0,0,-1,2001,463,0,0
784,561,0,0,0,0,0,0,0,0,0,-1,2008,463,0,0
791,561,0,0,0,0,0,0,0,0,0,-1,2015,463,0,0
798,561,0,0,0,0,0,0,0,0,0,-1,2022,463,0,0
805,561,0,0,0,0,0,0,0,0,0,-1,2029,463,0,0
812,561,0,0,0,0,0,0,0,0,0,-1,2036,463,0,0
-700,554,0,0,0,0,0,0,0,0,0,-1,524,470,0,0
-693,554,0,0,0,0,0,0,0,0,0,-1,531,470,0,0
-686,554,0,0,0,0,0,0,0,0,0,-1,538,470,0,0
-679,554,0,0,0,0,0,0,0,0,0,-1,545,470,0,0
-672,554,0,0,0,0,0,0,0,0,0,-1,552,470,0,0
-665,554,0,0,0,0,0,0,0,0,0,-1,559,470,0,0
-658,554,0,0,0,0,0,0,0,0,0,-1,566,470,0,0
-651,554,0,0,0,0,0,0,0,0,0,-1,573,470,0,0
-644,554,0,0,0,0,0,0,0,0,0,-1,580,470,0,0
-637,554,0,0,0,0,0,0,0,0,0,-1,587,470,0,0
-630,554,0,0,0,0,0,0,0,0,0,-1,594,470,0,0
-623,554,0,0,0,0,0,0,0,0,0,-1,601,470,0,0
-616,554,0,0,0,0,0,0,0,0,0,-1,608,470,0,0
-609,554,0,0,0,0,0,0,0,0,0,-1,615,470,0,0
-602,554,0,0,0,0,0,0,0,0,0,-1,622,470,0,0
-595,554,0,0,0,0,0,0,0,0,0,-1,629,470,0,0
-588,554,0,0,0,0,0,0,0,0,0,-1,636,470,0,0
-581,554,0,0,0,0,0,0,0,0,0,-1,643,470,0,0
-574,554,0,0,0,0,0,0,0,0,0,-1,650,470,0,0
-567,554,0,0,0,0,0,0,0,0,0,-1,657,470,0,0
-560,554,0,0,0,0,0,0,0,0,0,-1,664,470,0,0
-553,554,0,0,0,0,0,0,0,0,0,-1,671,470,0,0
-546,554,0,0,0,0,0,0,0,0,0,-1,678,470,0,0
-539,554,0,0,0,0,0,0,0,0,0,-1,685,470,0,0
-532,554,0,0,0,0,0,0,0,0,0,-1,692,470,0,0
-525,554,0,0,0,0,0,0,0,0,0,-1,699,470,0,0
-518,554,0,0,0,0,0,0,0,0,0,-1,706,470,0,0
-511,554,0,0,0,0,0,0,0,0,0,-1,713,470,0,0
-504,554,0,0,0,0,0,0,0,0,0,-1,720,470,0,0
-497,554,0,0,0,0,0,0,0,0,0,-1,727,470,0,0
-490,554,0,0,0,0,0,0,0,0,0,-1,734,470,0,0
-483,554,0,0,0,0,0,0,0,0,0,-1,741,470,0,0
-476,554,0,0,0,0,0,0,0,0,0,-1,748,470,0,0
-469,554,0,0,0,0,0,0,0,0,0,-1,755,470,0,0
-462,554,0,0,0,0,0,0,0,0,0,-1,762,470,0,0
-455,554,0,0,0,0,0,0,0,0,0,-1,769,470,0,0
-448,554,0,0,0,0,0,0,0,0,0,-1,776,470,0,0
-441,554,0,0,0,0,0,0,0,0,0,-1,783,470,0,0
-434,554,0,0,0,0,0,0,0,0,0,-1,790,470,0,0
-427,554,0,0,0,0,0,0,0,0,0,-1,797,470,0,0
-420,554,0,0,0,0,0,0,0,0,0,-1,804,470,0,0
-413,554,0,0,0,0,0,0,0,0,0,-1,811,470,0,0
-406,554,0,0,0,0,0,0,0,0,0,-1,818,470,0,0
-399,554,-1.32275,-3.95142,0,0,0,0,0,0,0,-1,825,470,-1.32275,3.95141
-392,554,-1.35632,-3.7406,0,0,0,0,0,0,0,-1,832,470,-1.35632,3.7406
-385,554,-0.849243,-4.14447,0,0,0,0,0,0,0,-1,839,470,-0.849262,4.14446
-378,554,-0.982666,-4.55084,0,0,0,0,0,0,0,-1,846,470,-0.982671,4.55084
-371,554,-1.74542,-4.63467,0,0,0,0,0,0,0,-1,853,470,-1.74541,4.63468
-364,554,1.04883,-7.68756,0,0,0,0,0,0,0,-1,860,470,1.0488,7.68757
-357,554,1.06714,-11.5403,0,0,0,0,0,0,0,-1,867,470,1.06715,11.5403
-350,554,1.23102,-12.4027,0,0,0,0,0,0,0,-1,874,470,1.23099,12.4027
-343,554,1.21155,-12.5258,-0.00030971,-0.00097291,-0.0047307,0.004101,-0.00538362,-0.750408,0.00549261,0.049142,881,470,1.21157,12.5258
-336,554,1.21442,-12.8226,-7.45513e-05,-0.000965143,-0.00450444,0.00400655,-0.00504624,-0.73613,0.00523811,0.0383472,888,470,1.2144,12.8226
-329,554,1.16821,-13.2081,1.43513e-05,-0.000911977,-0.00418943,0.00376614,-0.00466376,-0.730344,0.00487619,0.0182378,895,470,1.16822,13.2081
-322,554,1.13519,-13.5444,-9.11602e-05,-0.000865849,-0.00385501,0.00339592,-0.00435293,-0.735327,0.00448516,0.0118176,902,470,1.13521,13.5444
-315,554,1.14471,-13.8683,-0.000176494,-0.000731531,-0.00355048,0.0031073,-0.00401532,-0.746396,0.00412337,0.0112795,909,470,1.1447,13.8683
-308,554,1.14008,-14.2056,-0.000192613,-0.00056557,-0.00320107,0.0028274,-0.00358558,-0.756303,0.00371115,0.0131726,916,470,1.14005,14.2056
-301,554,1.13782,-14.5572,-0.000195305,-0.000553449,-0.0027764,0.0024078,-0.00315655,-0.753194,0.00322226,0.0139022,923,470,1.13779,14.5572
-294,554,1.09674,-14.8735,-7.49489e-05,-0.000714657,-0.0023204,0.00194754,-0.00273715,-0.716908,0.00271748,0.0116178,930,470,1.09671,14.8735
-287,554,1.06824,-15.1908,0.00013795,-0.000941207,-0.00190037,0.00157385,-0.00237711,-0.647072,0.00229675,0.0112624,937,470,1.06822,15.1908
-280,554,1.05865,-15.5089,0.000282626,-0.00139516,-0.0015266,0.00118565,-0.00229818,-0.534162,0.00204529,0.0118226,944,470,1.05865,15.5088
-273,554,1.05133,-15.8217,0.00041323,-0.00212416,-0.00108512,0.000813985,-0.00252492,-0.353782,0.00201031,0.0145354,951,470,1.05135,15.8218
-266,554,1.05658,-16.1225,0.000669888,-0.00282875,-0.000574203,0.000761717,-0.00292058,-0.158582,0.00224447,0.0117299,958,470,1.0566,16.1225
-259,554,1.05695,-16.3913,0.00101124,-0.00359215,-0.000161803,0.00101692,-0.00359783,-0.0350909,0.00279978,0.0117023,965,470,1.05693,16.3913
-252,554,1.03711,-16.682,0.00130718,-0.00374114,0.000339771,0.00132995,-0.0037639,0.0669017,0.0030508,0.013841,972,470,1.03711,16.682
-245,554,1.02643,-16.9825,0.00160531,-0.0046614,0.000823345,0.00171168,-0.00476777,0.12848,0.00387713,0.0155688,979,470,1.02644,16.9825
-238,554,1.04987,-17.2957,0.00177805,-0.0054884,0.0013763,0.00202999,-0.00574034,0.181053,0.00465356,0.0119251,986,470,1.04984,17.2957
-231,554,1.0553,-17.5823,0.00189605,-0.00631257,0.00188895,0.00230987,-0.00672639,0.215666,0.00542082,0.0100882,993,470,1.05529,17.5823
-224,554,1.07031,-17.8413,0.00193328,-0.00675265,0.00247856,0.00259078,-0.00741014,0.259301,0.00599334,0.00956986,1000,470,1.07029,17.8413
-217,554,1.09717,-18.0976,0.00197496,-0.00703749,0.00301235,0.0028891,-0.00795163,0.294631,0.0064824,0.0101553,1007,470,1.09719,18.0976
-210,554,1.12738,-18.3954,0.00200915,-0.00749947,0.00346807,0.00313965,-0.00862997,0.315112,0.00703733,0.014694,1014,470,1.12736,18.3954
-203,554,1.12604,-18.4411,0,0,0,0,0,0,0,-1,1021,470,1.12601,18.4411
-196,554,1.10876,-18.7176,0.00226675,-0.00764864,0.00390272,0.00361857,-0.00900046,0.333445,0.00750322,0.0299686,1028,470,1.10882,18.7176
-189,554,1.22241,-18.7932,0.00235307,-0.00757701,0.00404274,0.00379079,-0.00901473,0.341682,0.00759557,0.035505,1035,470,1.22247,18.7932
-182,554,1.28979,-18.8711,0.00250623,-0.00719901,0.00427002,0.00411743,-0.00881022,0.360811,0.00762594,0.0461699,1042,470,1.28974,18.8711
-175,554,0.900146,-19.6895,0,0,0,0,0,0,0,-1,1049,470,0.900161,19.6895
-168,554,1.16052,-20.0043,0,0,0,0,0,0,0,-1,1056,470,1.16047,20.0043
-161,554,1.41785,-20.3784,0,0,0,0,0,0,0,-1,1063,470,1.41783,20.3784
-154,554,1.61353,-20.4877,0,0,0,0,0,0,0,-1,1070,470,1.61347,20.4877
-147,554,1.84106,-21.3104,0,0,0,0,0,0,0,-1,1077,470,1.84109,21.3104
-140,554,1.82617,-20.3783,0,0,0,0,0,0,0,-1,1084,470,1.82617,20.3783
-133,554,1.48523,-20.8091,0,0,0,0,0,0,0,-1,1091,470,1.48518,20.8091
-126,554,0.532715,-15.1913,0,0,0,0,0,0,0,-1,1098,470,0.532762,15.1913
-119,554,0.748901,-18.7209,0,0,0,0,0,0,0,-1,1105,470,0.748894,18.721
-112,554,0.53186,-16.7545,0,0,0,0,0,0,0,-1,1112,470,0.531912,16.7545
-105,554,2.82129,-9.46112,0,0,0,0,0,0,0,-1,1119,470,2.82127,9.46112
-98,554,1.51929,-7.3624,0,0,0,0,0,0,0,-1,1126,470,1.51928,7.36241
-91,554,1.41089,-6.5864,0,0,0,0,0,0,0,-1,1133,470,1.41093,6.58638
-84,554,1.62305,-5.87186,0,0,0,0,0,0,0,-1,1140,470,1.62299,5.87186
-77,554,-2.56958,1.33258,0,0,0,0,0,0,0,-1,1147,470,-2.56959,-1.33257
-70,554,-3.68164,-1.18332,0,0,0,0,0,0,0,-1,1154,470,-3.68158,1.18331
-63,554,-4.86853,-3.88708,0,0,0,0,0,0,0,-1,1161,470,-4.86853,3.88708
-56,554,-5.69958,-6.45422,0,0,0,0,0,0,0,-1,1168,470,-5.69955,6.45422
-49,554,-6.23645,-8.8569,0,0,0,0,0,0,0,-1,1175,470,-6.23643,8.85689
-42,554,-6.62524,-11.5382,0,0,0,0,0,0,0,-1,1182,470,-6.62522,11.5382
-35,554,-2.40173,-4.59482,0,0,0,0,0,0,0,-1,1189,470,-2.40169,4.59481
-28,554,-0.760132,-1.65555,0,0,0,0,0,0,0,-1,1196,470,-0.760095,1.65556
-21,554,1.29895,-16.9031,0,0,0,0,0,0,0,-1,1203,470,1.29894,16.9031
-14,554,3.78406,-24.0003,0,0,0,0,0,0,0,-1,1210,470,3.7841,24.0003
-7,554,3.65515,-22.9963,0,0,0,0,0,0,0,-1,1217,470,3.65521,22.9963
0,554,6.17627,-21.9448,0,0,0,0,0,0,0,-1,1224,470,6.17622,21.9448
7,554,6.10449,-21.3216,-0.0163727,-0.0159635,0.00113726,-0.0150126,-0.0173236,0.874394,0.010861,0.0492333,1231,470,6.10452,21.3216
14,554,5.7666,-20.8109,-0.0211765,0.0148853,-0.00243121,0.0150485,-0.0213397,-1.50378,0.0211131,0.0457296,1238,470,5.76657,20.8109
21,554,5.97217,-20.494,-0.020103,0.036274,-0.00405254,0.0365638,-0.0203928,-1.4994,0.0333227,0.0425714,1245,470,5.97215,20.494
28,554,6.21106,-20.0991,0,0,0,0,0,0,0,-1,1252,470,6.21111,20.0991
35,554,6.45911,-19.7353,0,0,0,0,0,0,0,-1,1259,470,6.45908,19.7353
42,554,3.74841,-25.0271,-0.00962607,0.0625799,-0.0039073,0.0627907,-0.00983689,-1.51689,0.0454953,0.0440535,1266,470,3.7484,25.0271
49,554,3.68591,-25.4426,-0.00557773,0.0578915,-0.00236014,0.0579792,-0.00566537,-1.53368,0.040673,0.0447281,1273,470,3.68591,25.4426
56,554,1.31226,-24.0144,-0.00218018,0.0488196,-0.000665303,0.0488283,-0.00218886,-1.55775,0.0333058,0.0491779,1280,470,1.31221,24.0144
63,554,5.52148,-22.4615,0.000817672,0.0375954,0.00151642,0.0376578,0.000755252,1.52966,0.0248573,0.0458012,1287,470,5.52145,22.4615
70,554,4.79675,-22.3095,0.00178382,0.0242241,0.00386029,0.0248696,0.00113832,1.40511,0.0162136,0.0455906,1294,470,4.79679,22.3095
77,554,3.8197,-22.0832,0.00184288,0.011904,0.00681594,0.0153448,-0.00159789,1.10331,0.010802,0.0448864,1301,470,3.81968,22.0832
84,554,2.698,-21.9337,0.00464886,-0.00111541,0.0105244,0.0126786,-0.00914515,0.651748,0.0126549,0.0434547,1308,470,2.69797,21.9337
91,554,1.76196,-21.7348,0,0,0,0,0,0,0,-1,1315,470,1.76195,21.7348
98,554,0.801514,-21.5326,0,0,0,0,0,0,0,-1,1322,470,0.801563,21.5325
105,554,-0.156982,-21.314,0,0,0,0,0,0,0,-1,1329,470,-0.156979,21.314
112,554,-1.09802,-21.0771,0,0,0,0,0,0,0,-1,1336,470,-1.09798,21.0771
119,554,2.59436,-21.735,0.0473816,-0.0174041,0.0299877,0.0591312,-0.0291538,0.373431,0.0519416,0.042681,1343,470,2.59438,21.735
126,554,3.0304,-21.7612,0.0666521,-0.0122327,0.0308254,0.0772688,-0.0228494,0.331688,0.0605827,0.042761,1350,470,3.03035,21.7612
133,554,3.29077,-21.8809,0,0,0,0,0,0,0,-1,1357,470,3.29071,21.8809
140,554,4.00854,-21.754,0,0,0,0,0,0,0,-1,1364,470,4.00857,21.754
147,554,4.80127,-21.7318,0,0,0,0,0,0,0,-1,1371,470,4.80123,21.7318
154,554,5.78674,-22.3427,0,0,0,0,0,0,0,-1,1378,470,5.78679,22.3427
161,554,5.94299,-22.7542,0,0,0,0,0,0,0,-1,1385,470,5.94298,22.7542
168,554,1.62,-15.7257,0,0,0,0,0,0,0,-1,1392,470,1.61995,15.7257
175,554,10.663,0.286957,0,0,0,0,0,0,0,-1,1399,470,10.663,-0.286966
182,554,6.71106,-4.50217,0,0,0,0,0,0,0,-1,1406,470,6.71107,4.50215
189,554,6.90479,-2.50348,0,0,0,0,0,0,0,-1,1413,470,6.90477,2.50348
196,554,6.96216,-0.740906,0,0,0,0,0,0,0,-1,1420,470,6.96214,0.740912
203,554,6.43518,0.414154,0,0,0,0,0,0,0,-1,1427,470,6.43523,-0.414141
210,554,6.21167,1.96707,0,0,0,0,0,0,0,-1,1434,470,6.21165,-1.96706
217,554,5.64551,3.4989,0,0,0,0,0,0,0,-1,1441,470,5.64555,-3.49891
224,554,4.85144,-8.85172,0,0,0,0,0,0,0,-1,1448,470,4.85146,8.85173
231,554,3.25073,-5.29642,0,0,0,0,0,0,0,-1,1455,470,3.25078,5.29642
238,554,4.28625,-3.25253,0,0,0,0,0,0,0,-1,1462,470,4.28622,3.25252
245,554,4.0752,-2.90033,0,0,0,0,0,0,0,-1,1469,470,4.07515,2.90032
252,554,3.52112,-0.934998,0,0,0,0,0,0,0,-1,1476,470,3.52113,0.934996
259,554,3.96448,-2.16425,0,0,0,0,0,0,0,-1,1483,470,3.96446,2.16424
266,554,3.0592,-2.71716,0,0,0,0,0,0,0,-1,1490,470,3.05923,2.71718
273,554,2.58521,-3.06876,0,0,0,0,0,0,0,-1,1497,470,2.58524,3.06874
280,554,2.83301,-0.991699,0,0,0,0,0,0,0,-1,1504,470,2.83303,0.991704
287,554,3.54126,-4.12277,0,0,0,0,0,0,0,-1,1511,470,3.54123,4.12277
294,554,3.62036,-8.50146,0,0,0,0,0,0,0,-1,1518,470,3.62031,8.50145
301,554,6.2124,-18.3642,0,0,0,0,0,0,0,-1,1525,470,6.21236,18.3642
308,554,6.27649,-18.435,0,0,0,0,0,0,0,-1,1532,470,6.2765,18.435
315,554,6.27075,-18.314,0,0,0,0,0,0,0,-1,1539,470,6.27076,18.314
322,554,6.24316,-18.1391,0,0,0,0,0,0,0,-1,1546,470,6.24318,18.1391
329,554,6.29688,-17.5476,0.000845426,-0.00364988,-0.00322089,0.00252538,-0.00532983,-0.480762,0.00463055,0.0360528,1553,470,6.29687,17.5476
336,554,6.29321,-17.4131,0.000649,-0.0031143,-0.00279751,0.0021388,-0.0046041,-0.489343,0.0039788,0.0200635,1560,470,6.29322,17.4131
343,554,6.30896,-17.1677,0.000333909,-0.0025034,-0.00243489,0.00173328,-0.00390277,-0.521621,0.00333336,0.0124489,1567,470,6.30898,17.1677
350,554,6.34448,-16.8524,0.000173699,-0.00198039,-0.00195518,0.00132887,-0.00313556,-0.533644,0.00264696,0.00972771,1574,470,6.34444,16.8524
357,554,6.36035,-16.5457,0.00014703,-0.00134808,-0.00144305,0.00102467,-0.00222572,-0.546412,0.00191884,0.0103285,1581,470,6.36032,16.5456
364,554,6.35132,-16.2548,0.000148651,-0.000779713,-0.000960105,0.000750896,-0.00138196,-0.56023,0.00124924,0.00835159,1588,470,6.35135,16.2548
371,554,6.34119,-15.9607,0.000151092,-0.000292043,-0.000547565,0.000520219,-0.00066117,-0.593147,0.000683691,0.00832072,1595,470,6.3412,15.9607
378,554,6.34558,-15.6289,0.000107551,0.000175573,-0.000234871,0.000378883,-9.57585e-05,-0.857302,0.00028983,0.00969153,1602,470,6.3456,15.6289
385,554,6.34607,-15.289,3.16879e-05,0.00073612,3.82618e-05,0.000738192,2.96158e-05,1.51669,0.000482559,0.00888705,1609,470,6.34611,15.289
392,554,6.32776,-14.9552,0.000122384,0.000999376,0.000190335,0.0010389,8.28564e-05,1.36603,0.000666702,0.0121337,1616,470,6.32777,14.9552
399,554,6.33923,-14.631,0.000606322,0.0010205,0.000588074,0.00143688,0.000189938,0.95469,0.000901304,0.0170118,1623,470,6.33925,14.631
406,554,6.32715,-14.3063,0.00098594,0.00113878,0.000869203,0.00193492,0.000189804,0.829245,0.00123156,0.016148,1630,470,6.32721,14.3063
413,554,6.29663,-13.9566,0.00146596,0.00116939,0.00117194,0.00249896,0.000136395,0.722468,0.00162242,0.0152272,1637,470,6.2966,13.9566
420,554,6.31641,-13.6086,0.00192196,0.00112604,0.00144699,0.00302472,2.3282e-05,0.651202,0.00200876,0.0157053,1644,470,6.3164,13.6086
427,554,6.31665,-13.2557,0.00238271,0.00103809,0.00176768,0.00360162,-0.000180817,0.603679,0.00246356,0.0113709,1651,470,6.3167,13.2557
434,554,6.29272,-12.925,0.0030123,0.00089149,0.00215905,0.00435729,-0.000453505,0.557129,0.00306723,0.0101691,1658,470,6.29273,12.925
441,554,6.28101,-12.5689,0.00355484,0.000664509,0.00254129,0.00503314,-0.000813789,0.526864,0.003657,0.011348,1665,470,6.28106,12.5689
448,554,6.276,-12.1757,0.00382858,0.000530409,0.00289645,0.0055125,-0.00115351,0.526611,0.00411377,0.014454,1672,470,6.27602,12.1756
455,554,6.25159,-11.8152,0.00381358,0.000356868,0.00313218,0.00566263,-0.00149218,0.533284,0.00435847,0.0153449,1679,470,6.25154,11.8152
462,554,6.19031,-11.4697,0.00363746,0.000236364,0.00326959,0.0056223,-0.00174847,0.545595,0.00444711,0.0176543,1686,470,6.19033,11.4697
469,554,6.14111,-11.0889,0.00327714,0.000144856,0.00335402,0.00541266,-0.00199066,0.56697,0.00442389,0.0233376,1693,470,6.14114,11.0889
476,554,6.09363,-10.6965,0.00247233,-0.000122426,0.00315523,0.0045865,-0.0022366,0.590344,0.00401644,0.0462354,1700,470,6.09358,10.6965
483,554,6.04651,-10.3262,0,0,0,0,0,0,0,-1,1707,470,6.04645,10.3262
490,554,7.31543,-3.51794,0,0,0,0,0,0,0,-1,1714,470,7.3154,3.51794
497,554,7.9751,-2.43454,0,0,0,0,0,0,0,-1,1721,470,7.97505,2.43453
504,554,2.13257,-3.81628,0,0,0,0,0,0,0,-1,1728,470,2.1326,3.8163
511,554,1.31396,-4.02713,0,0,0,0,0,0,0,-1,1735,470,1.31398,4.02712
518,554,5.04236,-5.9472,0,0,0,0,0,0,0,-1,1742,470,5.04231,5.94721
525,554,0,0,0,0,0,0,0,0,0,-1,1749,470,0,0
532,554,0,0,0,0,0,0,0,0,0,-1,1756,470,0,0
539,554,0,0,0,0,0,0,0,0,0,-1,1763,470,0,0
546,554,0,0,0,0,0,0,0,0,0,-1,1770,470,0,0
553,554,0,0,0,0,0,0,0,0,0,-1,1777,470,0,0
560,554,0,0,0,0,0,0,0,0,0,-1,1784,470,0,0
567,554,0,0,0,0,0,0,0,0,0,-1,1791,470,0,0
574,554,0,0,0,0,0,0,0,0,0,-1,1798,470,0,0
581,554,0,0,0,0,0,0,0,0,0,-1,1805,470,0,0
588,554,0,0,0,0,0,0,0,0,0,-1,1812,470,0,0
595,554,0,0,0,0,0,0,0,0,0,-1,1819,470,0,0
602,554,0,0,0,0,0,0,0,0,0,-1,1826,470,0,0
609,554,0,0,0,0,0,0,0,0,0,-1,1833,470,0,0
616,554,0,0,0,0,0,0,0,0,0,-1,1840,470,0,0
623,554,0,0,0,0,0,0,0,0,0,-1,1847,470,0,0
630,554,0,0,0,0,0,0,0,0,0,-1,1854,470,0,0
637,554,0,0,0,0,0,0,0,0,0,-1,1861,470,0,0
644,554,0,0,0,0,0,0,0,0,0,-1,1868,470,0,0
651,554,0,0,0,0,0,0,0,0,0,-1,1875,470,0,0
658,554,0,0,0,0,0,0,0,0,0,-1,1882,470,0,0
665,554,0,0,0,0,0,0,0,0,0,-1,1889,470,0,0
672,554,0,0,0,0,0,0,0,0,0,-1,1896,470,0,0
679,554,0,0,0,0,0,0,0,0,0,-1,1903,470,0,0
686,554,0,0,0,0,0,0,0,0,0,-1,1910,470,0,0
693,554,0,0,0,0,0,0,0,0,0,-1,1917,470,0,0
700,554,0,0,0,0,0,0,0,0,0,-1,1924,470,0,0
707,554,0,0,0,0,0,0,0,0,0,-1,1931,470,0,0
714,554,0,0,0,0,0,0,0,0,0,-1,1938,470,0,0
721,554,0,0,0,0,0,0,0,0,0,-1,1945,470,0,0
728,554,0,0,0,0,0,0,0,0,0,-1,1952,470,0,0
735,554,0,0,0,0,0,0,0,0,0,-1,1959,470,0,0
742,554,0,0,0,0,0,0,0,0,0,-1,1966,470,0,0
749,554,0,0,0,0,0,0,0,0,0,-1,1973,470,0,0
756,554,0,0,0,0,0,0,0,0,0,-1,1980,470,0,0
763,554,0,0,0,0,0,0,0,0,0,-1,1987,470,0,0
770,554,0,0,0,0,0,0,0,0,0,-1,1994,470,0,0
777,554,0,0,0,0,0,0,0,0,0,-1,2001,470,0,0
784,554,0,0,0,0,0,0,0,0,0,-1,2008,470,0,0
791,554,0,0,0,0,0,0,0,0,0,-1,2015,470,0,0
798,554,0,0,0,0,0,0,0,0,0,-1,2022,470,0,0
805,554,0,0,0,0,0,0,0,0,0,-1,2029,470,0,0
812,554,0,0,0,0,0,0,0,0,0,-1,2036,470,0,0
-700,547,0,0,0,0,0,0,0,0,0,-1,524,477,0,0
-693,547,0,0,0,0,0,0,0,0,0,-1,531,477,0,0
-686,547,0,0,0,0,0,0,0,0,0,-1,538,477,0,0
-679,547,0,0,0,0,0,0,0,0,0,-1,545,477,0,0
-672,547,0,0,0,0,0,0,0,0,0,-1,552,477,0,0
-665,547,0,0,0,0,0,0,0,0,0,-1,559,477,0,0
-658,547,0,0,0,0,0,0,0,0,0,-1,566,477,0,0
-651,547,0,0,0,0,0,0,0,0,0,-1,573,477,0,0
-644,547,0,0,0,0,0,0,0,0,0,-1,580,477,0,0
-637,547,0,0,0,0,0,0,0,0,0,-1,587,477,0,0
-630,547,0,0,0,0,0,0,0,0,0,-1,594,477,0,0
-623,547,0,0,0,0,0,0,0,0,0,-1,601,477,0,0
-616,547,0,0,0,0,0,0,0,0,0,-1,608,477,0,0
-609,547,0,0,0,0,0,0,0,0,0,-1,615,477,0,0
-602,547,0,0,0,0,0,0,0,0,0,-1,622,477,0,0
-595,547,0,0,0,0,0,0,0,0,0,-1,629,477,0,0
-588,547,0,0,0,0,0,0,0,0,0,-1,636,477,0,0
-581,547,0,0,0,0,0,0,0,0,0,-1,643,477,0,0
-574,547,0,0,0,0,0,0,0,0,0,-1,650,477,0,0
-567,547,0,0,0,0,0,0,0,0,0,-1,657,477,0,0
-560,547,0,0,0,0,0,0,0,0,0,-1,664,477,0,0
-553,547,0,0,0,0,0,0,0,0,0,-1,671,477,0,0
-546,547,0,0,0,0,0,0,0,0,0,-1,678,477,0,0
-539,547,0,0,0,0,0,0,0,0,0,-1,685,477,0,0
-532,547,0,0,0,0,0,0,0,0,0,-1,692,477,0,0
-525,547,0,0,0,0,0,0,0,0,0,-1,699,477,0,0
-518,547,0,0,0,0,0,0,0,0,0,-1,706,477,0,0
-511,547,0,0,0,0,0,0,0,0,0,-1,713,477,0,0
-504,547,0,0,0,0,0,0,0,0,0,-1,720,477,0,0
-497,547,0,0,0,0,0,0,0,0,0,-1,727,477,0,0
-490,547,0,0,0,0,0,0,0,0,0,-1,734,477,0,0
-483,547,0,0,0,0,0,0,0,0,0,-1,741,477,0,0
-476,547,0,0,0,0,0,0,0,0,0,-1,748,477,0,0
-469,547,0,0,0,0,0,0,0,0,0,-1,755,477,0,0
-462,547,0,0,0,0,0,0,0,0,0,-1,762,477,0,0
-455,547,0,0,0,0,0,0,0,0,0,-1,769,477,0,0
-448,547,0,0,0,0,0,0,0,0,0,-1,776,477,0,0
-441,547,0,0,0,0,0,0,0,0,0,-1,783,477,0,0
-434,547,0,0,0,0,0,0,0,0,0,-1,790,477,0,0
-427,547,0,0,0,0,0,0,0,0,0,-1,797,477,0,0
-420,547,0,0,0,0,0,0,0,0,0,-1,804,477,0,0
-413,547,0,0,0,0,0,0,0,0,0,-1,811,477,0,0
-406,547,0.8573,-6.14468,0,0,0,0,0,0,0,-1,818,477,0.85729,6.14469
-399,547,1.271,-4.19394,0,0,0,0,0,0,0,-1,825,477,1.27098,4.19393
-392,547,-1.52271,-4.41675,0,0,0,0,0,0,0,-1,832,477,-1.52273,4.41674
-385,547,-1.73743,-4.6431,0,0,0,0,0,0,0,-1,839,477,-1.73743,4.64308
-378,547,-2.41339,-4.60071,0,0,0,0,0,0,0,-1,846,477,-2.41337,4.60071
-371,547,1.64569,-11.1445,0,0,0,0,0,0,0,-1,853,477,1.64569,11.1445
-364,547,0.271729,-4.58582,0,0,0,0,0,0,0,-1,860,477,0.271753,4.5858
-357,547,1.47601,-11.74,0,0,0,0,0,0,0,-1,867,477,1.476,11.74
-350,547,0.950134,-11.9207,0,0,0,0,0,0,0,-1,874,477,0.950164,11.9207
-343,547,0.880066,-12.3649,-0.000869849,0.000215807,-0.00349339,0.00320829,-0.00386233,-0.862475,0.00408804,0.0425347,881,477,0.880049,12.3649
-336,547,0.852905,-12.8384,-0.00055173,6.50131e-05,-0.00328895,0.00306001,-0.00354673,-0.832142,0.00381785,0.0178183,888,477,0.852902,12.8384
-329,547,0.823914,-13.1947,-0.000341815,3.43076e-07,-0.00304509,0.00287915,-0.00322062,-0.81346,0.00352355,0.00942349,895,477,0.823913,13.1947
-322,547,0.822021,-13.5446,-0.000278368,-6.49602e-05,-0.0027789,0.00260928,-0.00295261,-0.804588,0.0032132,0.0108326,902,477,0.821994,13.5446
-315,547,0.812195,-13.8988,-0.000207652,-1.27696e-05,-0.00253126,0.00242292,-0.00264334,-0.804636,0.00292593,0.0100177,909,477,0.812208,13.8988
-308,547,0.820679,-14.226,-9.42256e-05,4.11069e-05,-0.00223875,0.00221321,-0.00226633,-0.800506,0.00258633,0.0113113,916,477,0.820665,14.226
-301,547,0.810242,-14.5675,3.05069e-05,-1.80312e-05,-0.00187142,0.00187782,-0.00186534,-0.778914,0.00216112,0.0113987,923,477,0.810266,14.5675
-294,547,0.767883,-14.8748,0.000282623,-0.000326149,-0.0014782,0.00148745,-0.00153098,-0.683859,0.00174275,0.0095343,930,477,0.767892,14.8748
-287,547,0.758728,-15.1805,0.000646317,-0.00083641,-0.00114195,0.00126645,-0.00145655,-0.49749,0.0015734,0.0108888,937,477,0.7587,15.1805
-280,547,0.769897,-15.5033,0.000869588,-0.0015537,-0.000823989,0.00112322,-0.00180733,-0.298609,0.00170725,0.0133712,944,477,0.769875,15.5033
-273,547,0.771362,-15.8126,0.00103552,-0.00258752,-0.000388997,0.00107682,-0.00262882,-0.105761,0.00220111,0.0128439,951,477,0.771355,15.8126
-266,547,0.762512,-16.1115,0.00138761,-0.00370468,0.000119077,0.00139039,-0.00370747,0.0233667,0.0030429,0.012112,958,477,0.762537,16.1116
-259,547,0.746643,-16.4026,0.00179403,-0.00484146,0.000505082,0.00183226,-0.00487969,0.0755382,0.00400607,0.0110447,965,477,0.746634,16.4026
-252,547,0.745117,-16.6919,0.00203698,-0.00509734,0.00103126,0.00218305,-0.00524341,0.140713,0.00440736,0.0112535,972,477,0.745122,16.6919
-245,547,0.755005,-16.9837,0.00227211,-0.0063335,0.00155484,0.00254442,-0.00660581,0.173377,0.00545359,0.0127795,979,477,0.755016,16.9837
-238,547,0.775146,-17.2873,0.00238396,-0.0073963,0.00213904,0.00283133,-0.00784367,0.206172,0.00638566,0.00906121,986,477,0.775172,17.2873
-231,547,0.782043,-17.5765,0.0024489,-0.00836987,0.00269209,0.00308177,-0.00900274,0.230891,0.00725077,0.0080749,993,477,0.78204,17.5766
-224,547,0.791626,-17.8192,0.00238194,-0.00884801,0.00336142,0.00331121,-0.00977727,0.269714,0.00785801,0.0103295,1000,477,0.791639,17.8192
-217,547,0.830627,-18.0789,0.0022805,-0.00906058,0.00396668,0.00353019,-0.0103103,0.305203,0.00830425,0.0165983,1007,477,0.830648,18.0789
-210,547,0.887573,-18.2786,0.00217527,-0.00939764,0.0044892,0.00371247,-0.0109348,0.329908,0.00879263,0.0324495,1014,477,0.887566,18.2786
-203,547,0.984192,-18.2255,0.00220743,-0.00935811,0.00481254,0.00394802,-0.0110987,0.347041,0.00900829,0.0435493,1021,477,0.984168,18.2255
-196,547,0.976563,-18.2495,0.00216985,-0.00899568,0.00498387,0.00407082,-0.0108966,0.364391,0.00893599,0.0449561,1028,477,0.976541,18.2495
-189,547,0.856323,-18.4856,0.0020868,-0.00854135,0.00510742,0.00414328,-0.0105978,0.382785,0.00877853,0.0462171,1035,477,0.856327,18.4856
-182,547,0.901245,-18.6245,0,0,0,0,0,0,0,-1,1042,477,0.901272,18.6245
-175,547,-0.350098,-12.3584,0,0,0,0,0,0,0,-1,1049,477,-0.350098,12.3584
-168,547,1.12463,-8.66785,0,0,0,0,0,0,0,-1,1056,477,1.12461,8.66786
-161,547,1.91382,-19.5882,0,0,0,0,0,0,0,-1,1063,477,1.91386,19.5882
-154,547,1.53113,-20.7672,0,0,0,0,0,0,0,-1,1070,477,1.53115,20.7672
-147,547,1.65625,-20.588,0,0,0,0,0,0,0,-1,1077,477,1.65624,20.5879
-140,547,1.41565,-21.0292,0,0,0,0,0,0,0,-1,1084,477,1.41561,21.0292
-133,547,2.31665,-17.9421,0,0,0,0,0,0,0,-1,1091,477,2.31667,17.9421
-126,547,0.784302,-9.76431,0,0,0,0,0,0,0,-1,1098,477,0.78428,9.76432
-119,547,0.190308,-15.7633,0,0,0,0,0,0,0,-1,1105,477,0.190348,15.7633
-112,547,4.36194,-9.23029,0,0,0,0,0,0,0,-1,1112,477,4.36195,9.23029
-105,547,4.448,-9.17819,0,0,0,0,0,0,0,-1,1119,477,4.44799,9.1782
-98,547,1.50391,-7.20621,0,0,0,0,0,0,0,-1,1126,477,1.50395,7.20621
-91,547,1.37805,-7.12024,0,0,0,0,0,0,0,-1,1133,477,1.37804,7.12025
-84,547,1.94202,-6.66241,0,0,0,0,0,0,0,-1,1140,477,1.94201,6.66241
-77,547,-2.28357,1.8588,0,0,0,0,0,0,0,-1,1147,477,-2.28356,-1.85879
-70,547,-3.70178,-0.874908,0,0,0,0,0,0,0,-1,1154,477,-3.70182,0.874918
-63,547,-5.12012,-3.60861,0,0,0,0,0,0,0,-1,1161,477,-5.12009,3.60862
-56,547,-6.01917,-6.2399,0,0,0,0,0,0,0,-1,1168,477,-6.01921,6.23991
-49,547,-6.729,-8.60349,0,0,0,0,0,0,0,-1,1175,477,-6.72899,8.60348
-42,547,-2.41736,-5.53012,0,0,0,0,0,0,0,-1,1182,477,-2.41734,5.53011
-35,547,-2.96838,-4.45734,0,0,0,0,0,0,0,-1,1189,477,-2.96839,4.45734
-28,547,-0.869141,-1.29901,0,0,0,0,0,0,0,-1,1196,477,-0.869135,1.29901
-21,547,1.25781,-16.1606,0,0,0,0,0,0,0,-1,1203,477,1.25784,16.1606
-14,547,2.85022,-23.0263,0,0,0,0,0,0,0,-1,1210,477,2.85016,23.0263
-7,547,2.96936,-21.8445,0,0,0,0,0,0,0,-1,1217,477,2.96938,21.8445
0,547,3.21594,-20.7074,0,0,0,0,0,0,0,-1,1224,477,3.21598,20.7074
7,547,6.59607,-20.8457,0,0,0,0,0,0,0,-1,1231,477,6.59608,20.8457
14,547,0,0,0,0,0,0,0,0,0,-1,1238,477,0,0
21,547,0,0,0,0,0,0,0,0,0,-1,1245,477,0,0
28,547,0,0,0,0,0,0,0,0,0,-1,1252,477,0,0
35,547,0,0,0,0,0,0,0,0,0,-1,1259,477,0,0
42,547,0,0,0,0,0,0,0,0,0,-1,1266,477,0,0
49,547,0,0,0,0,0,0,0,0,0,-1,1273,477,0,0
56,547,0,0,0,0,0,0,0,0,0,-1,1280,477,0,0
63,547,0,0,0,0,0,0,0,0,0,-1,1287,477,0,0
70,547,0,0,0,0,0,0,0,0,0,-1,1294,477,0,0
77,547,0,0,0,0,0,0,0,0,0,-1,1301,477,0,0
84,547,0,0,0,0,0,0,0,0,0,-1,1308,477,0,0
91,547,0,0,0,0,0,0,0,0,0,-1,1315,477,0,0
98,547,0,0,0,0,0,0,0,0,0,-1,1322,477,0,0
105,547,0.152344,-21.0108,0,0,0,0,0,0,0,-1,1329,477,0.152313,21.0108
112,547,3.86511,-17.3073,0,0,0,0,0,0,0,-1,1336,477,3.86513,17.3073
119,547,2.52039,-21.4086,0,0,0,0,0,0,0,-1,1343,477,2.52038,21.4086
126,547,2.18457,-21.5577,0,0,0,0,0,0,0,-1,1350,477,2.18454,21.5577
133,547,2.48987,-21.8188,0,0,0,0,0,0,0,-1,1357,477,2.48983,21.8188
140,547,3.04626,-21.3549,0,0,0,0,0,0,0,-1,1364,477,3.04622,21.3549
147,547,6.43188,-21.9275,0,0,0,0,0,0,0,-1,1371,477,6.43193,21.9275
154,547,6.49902,-22.6739,0,0,0,0,0,0,0,-1,1378,477,6.49902,22.6739
161,547,6.60522,-23.546,0,0,0,0,0,0,0,-1,1385,477,6.60523,23.546
168,547,9.11914,-12.0414,0,0,0,0,0,0,0,-1,1392,477,9.1191,12.0414
175,547,3.35034,-0.26532,0,0,0,0,0,0,0,-1,1399,477,3.3503,0.265306
182,547,4.26038,3.72672,0,0,0,0,0,0,0,-1,1406,477,4.26039,-3.7267
189,547,3.40454,1.28671,0,0,0,0,0,0,0,-1,1413,477,3.40457,-1.28673
196,547,3.53931,1.87793,0,0,0,0,0,0,0,-1,1420,477,3.53928,-1.87794
203,547,6.49414,-0.425842,0,0,0,0,0,0,0,-1,1427,477,6.4941,0.425844
210,547,4.82092,0.53595,0,0,0,0,0,0,0,-1,1434,477,4.82096,-0.535942
217,547,4.68579,0.480072,0,0,0,0,0,0,0,-1,1441,477,4.68577,-0.480069
224,547,4.55615,0.739807,0,0,0,0,0,0,0,-1,1448,477,4.55613,-0.73981
231,547,5.90869,-3.57721,0,0,0,0,0,0,0,-1,1455,477,5.90871,3.57722
238,547,5.50049,-3.15356,0,0,0,0,0,0,0,-1,1462,477,5.50045,3.15356
245,547,5.13708,-2.65213,0,0,0,0,0,0,0,-1,1469,477,5.13708,2.65212
252,547,3.73511,-0.645233,0,0,0,0,0,0,0,-1,1476,477,3.73515,0.645237
259,547,5.86816,-3.20816,0,0,0,0,0,0,0,-1,1483,477,5.86815,3.20816
266,547,5.40222,-2.45731,0,0,0,0,0,0,0,-1,1490,477,5.40221,2.45732
273,547,3.05737,0.495789,0,0,0,0,0,0,0,-1,1497,477,3.05742,-0.49578
280,547,2.0885,1.47797,0,0,0,0,0,0,0,-1,1504,477,2.08848,-1.47795
287,547,2.31177,-2.21716,0,0,0,0,0,0,0,-1,1511,477,2.31174,2.21717
294,547,2.4823,-3.03659,0,0,0,0,0,0,0,-1,1518,477,2.48229,3.0366
301,547,4.72119,-3.93454,0,0,0,0,0,0,0,-1,1525,477,4.72119,3.93453
308,547,4.07471,-5.42175,0,0,0,0,0,0,0,-1,1532,477,4.07468,5.42174
315,547,3.58496,-6.62112,0,0,0,0,0,0,0,-1,1539,477,3.58497,6.62113
322,547,5.73926,-14.1878,0,0,0,0,0,0,0,-1,1546,477,5.73926,14.1878
329,547,6.53064,-17.5031,0,0,0,0,0,0,0,-1,1553,477,6.5307,17.5031
336,547,6.60718,-17.542,0,0,0,0,0,0,0,-1,1560,477,6.60724,17.542
343,547,6.74548,-17.2392,8.60691e-05,-0.00334741,-0.00314655,0.00195374,-0.00521508,-0.535671,0.0042793,0.0354783,1567,477,6.74543,17.2392
350,547,6.69714,-16.8976,-3.25528e-05,-0.00281051,-0.00259988,0.00152612,-0.00436918,-0.540064,0.00353312,0.0227545,1574,477,6.69711,16.8976
357,547,6.66968,-16.5784,7.41255e-05,-0.00214105,-0.00203257,0.00128129,-0.00334822,-0.535931,0.00276022,0.0150738,1581,477,6.66972,16.5784
364,547,6.64893,-16.253,0.000199437,-0.00152077,-0.00148154,0.00105244,-0.00237377,-0.522401,0.00202657,0.00974305,1588,477,6.64894,16.253
371,547,6.65344,-15.9405,0.000285346,-0.000986053,-0.0010272,0.000857639,-0.00155835,-0.508309,0.00141429,0.00879282,1595,477,6.65344,15.9405
378,547,6.65991,-15.6231,0.000337829,-0.000476964,-0.000682682,0.000725434,-0.000864569,-0.516382,0.000919159,0.00959701,1602,477,6.65992,15.6231
385,547,6.65955,-15.2901,0.000340906,0.000185802,-0.000313938,0.000586728,-6.00209e-05,-0.664307,0.000412617,0.00974442,1609,477,6.65951,15.2901
392,547,6.64429,-14.9616,0.000356146,0.000551873,-8.53327e-05,0.000583851,0.000324168,-1.21224,0.000337771,0.0107068,1616,477,6.64426,14.9616
399,547,6.6394,-14.6328,0.000559514,0.000715021,0.000191903,0.000844324,0.000430212,0.977877,0.0004875,0.0127164,1623,477,6.63935,14.6329
406,547,6.65295,-14.3011,0.000792655,0.000897875,0.0004367,0.00128512,0.000405408,0.845345,0.000758623,0.0123385,1630,477,6.65296,14.3011
413,547,6.6438,-13.9588,0.00111855,0.00106761,0.000726156,0.00181968,0.000366478,0.767865,0.00111129,0.0122072,1637,477,6.64376,13.9588
420,547,6.67188,-13.6218,0.00140049,0.00111542,0.000968811,0.00223719,0.000278712,0.71236,0.00140778,0.0150059,1644,477,6.67191,13.6218
427,547,6.677,-13.2611,0.00166511,0.0010823,0.00122946,0.00263722,0.000110187,0.669037,0.0017226,0.0147082,1651,477,6.67696,13.2611
434,547,6.61914,-12.9286,0.00205025,0.000975143,0.00154009,0.0031439,-0.000118507,0.617488,0.00213653,0.00943773,1658,477,6.61917,12.9286
441,547,6.58911,-12.5886,0.0023995,0.000774505,0.00184331,0.00360144,-0.000427436,0.577818,0.00255538,0.00973289,1665,477,6.58913,12.5886
448,547,6.59387,-12.201,0.00255946,0.000612413,0.00213102,0.00392879,-0.00075692,0.571137,0.00290456,0.011054,1672,477,6.59392,12.201
455,547,6.60693,-11.833,0.00251835,0.000410923,0.0023278,0.00401982,-0.00109055,0.572864,0.00310784,0.0105495,1679,477,6.60691,11.833
462,547,6.57544,-11.4729,0.00241449,0.000189451,0.00245545,0.0039977,-0.00139376,0.572692,0.00323151,0.0104759,1686,477,6.57538,11.4729
469,547,6.5437,-11.0785,0.00222515,-4.36656e-05,0.00256855,0.00389865,-0.00171716,0.577452,0.00332283,0.018983,1693,477,6.54367,11.0785
476,547,6.61206,-10.6318,0.00170256,-0.000446525,0.00246345,0.00331562,-0.00205959,0.579741,0.00313149,0.0392337,1700,477,6.61207,10.6318
483,547,6.57019,-10.4894,0,0,0,0,0,0,0,-1,1707,477,6.57021,10.4894
490,547,3.65271,-3.71707,0,0,0,0,0,0,0,-1,1714,477,3.65277,3.71708
497,547,2.55481,-3.81421,0,0,0,0,0,0,0,-1,1721,477,2.55476,3.8142
504,547,4.01953,-2.22714,0,0,0,0,0,0,0,-1,1728,477,4.0195,2.22713
511,547,5.2146,-6.9552,0,0,0,0,0,0,0,-1,1735,477,5.21464,6.95521
518,547,5.24243,-6.56122,0,0,0,0,0,0,0,-1,1742,477,5.24241,6.56121
525,547,5.7533,-5.33215,0,0,0,0,0,0,0,-1,1749,477,5.75329,5.33215
532,547,0,0,0,0,0,0,0,0,0,-1,1756,477,0,0
539,547,0,0,0,0,0,0,0,0,0,-1,1763,477,0,0
546,547,0,0,0,0,0,0,0,0,0,-1,1770,477,0,0
553,547,0,0,0,0,0,0,0,0,0,-1,1777,477,0,0
560,547,0,0,0,0,0,0,0,0,0,-1,1784,477,0,0
567,547,0,0,0,0,0,0,0,0,0,-1,1791,477,0,0
574,547,0,0,0,0,0,0,0,0,0,-1,1798,477,0,0
581,547,0,0,0,0,0,0,0,0,0,-1,1805,477,0,0
588,547,0,0,0,0,0,0,0,0,0,-1,1812,477,0,0
595,547,0,0,0,0,0,0,0,0,0,-1,1819,477,0,0
602,547,0,0,0,0,0,0,0,0,0,-1,1826,477,0,0
609,547,0,0,0,0,0,0,0,0,0,-1,1833,477,0,0
616,547,0,0,0,0,0,0,0,0,0,-1,1840,477,0,0
623,547,0,0,0,0,0,0,0,0,0,-1,1847,477,0,0
630,547,0,0,0,0,0,0,0,0,0,-1,1854,477,0,0
637,547,0,0,0,0,0,0,0,0,0,-1,1861,477,0,0
644,547,0,0,0,0,0,0,0,0,0,-1,1868,477,0,0
651,547,0,0,0,0,0,0,0,0,0,-1,1875,477,0,0
658,547,0,0,0,0,0,0,0,0,0,-1,1882,477,0,0
665,547,0,0,0,0,0,0,0,0,0,-1,1889,477,0,0
672,547,0,0,0,0,0,0,0,0,0,-1,1896,477,0,0
679,547,0,0,0,0,0,0,0,0,0,-1,1903,477,0,0
686,547,0,0,0,0,0,0,0,0,0,-1,1910,477,0,0
693,547,0,0,0,0,0,0,0,0,0,-1,1917,477,0,0
700,547,0,0,0,0,0,0,0,0,0,-1,1924,477,0,0
707,547,0,0,0,0,0,0,0,0,0,-1,1931,477,0,0
714,547,0,0,0,0,0,0,0,0,0,-1,1938,477,0,0
721,547,0,0,0,0,0,0,0,0,0,-1,1945,477,0,0
728,547,0,0,0,0,0,0,0,0,0,-1,1952,477,0,0
735,547,0,0,0,0,0,0,0,0,0,-1,1959,477,0,0
742,547,0,0,0,0,0,0,0,0,0,-1,1966,477,0,0
749,547,0,0,0,0,0,0,0,0,0,-1,1973,477,0,0
756,547,0,0,0,0,0,0,0,0,0,-1,1980,477,0,0
763,547,0,0,0,0,0,0,0,0,0,-1,1987,477,0,0
770,547,0,0,0,0,0,0,0,0,0,-1,1994,477,0,0
777,547,0,0,0,0,0,0,0,0,0,-1,2001,477,0,0
784,547,0,0,0,0,0,0,0,0,0,-1,2008,477,0,0
791,547,0,0,0,0,0,0,0,0,0,-1,2015,477,0,0
798,547,0,0,0,0,0,0,0,0,0,-1,2022,477,0,0
805,547,0,0,0,0,0,0,0,0,0,-1,2029,477,0,0
812,547,0,0,0,0,0,0,0,0,0,-1,2036,477,0,0
-700,540,0,0,0,0,0,0,0,0,0,-1,524,484,0,0
-693,540,0,0,0,0,0,0,0,0,0,-1,531,484,0,0
-686,540,0,0,0,0,0,0,0,0,0,-1,538,484,0,0
-679,540,0,0,0,0,0,0,0,0,0,-1,545,484,0,0
-672,540,0,0,0,0,0,0,0,0,0,-1,552,484,0,0
-665,540,0,0,0,0,0,0,0,0,0,-1,559,484,0,0
-658,540,0,0,0,0,0,0,0,0,0,-1,566,484,0,0
-651,540,0,0,0,0,0,0,0,0,0,-1,573,484,0,0
-644,540,0,0,0,0,0,0,0,0,0,-1,580,484,0,0
-637,540,0,0,0,0,0,0,0,0,0,-1,587,484,0,0
-630,540,0,0,0,0,0,0,0,0,0,-1,594,484,0,0
-623,540,0,0,0,0,0,0,0,0,0,-1,601,484,0,0
-616,540,0,0,0,0,0,0,0,0,0,-1,608,484,0,0
-609,540,0,0,0,0,0,0,0,0,0,-1,615,484,0,0
-602,540,0,0,0,0,0,0,0,0,0,-1,622,484,0,0
-595,540,0,0,0,0,0,0,0,0,0,-1,629,484,0,0
-588,540,0,0,0,0,0,0,0,0,0,-1,636,484,0,0
-581,540,0,0,0,0,0,0,0,0,0,-1,643,484,0,0
-574,540,0,0,0,0,0,0,0,0,0,-1,650,484,0,0
-567,540,0,0,0,0,0,0,0,0,0,-1,657,484,0,0
-560,540,0,0,0,0,0,0,0,0,0,-1,664,484,0,0
-553,540,0,0,0,0,0,0,0,0,0,-1,671,484,0,0
-546,540,0,0,0,0,0,0,0,0,0,-1,678,484,0,0
-539,540,0,0,0,0,0,0,0,0,0,-1,685,484,0,0
-532,540,0,0,0,0,0,0,0,0,0,-1,692,484,0,0
-525,540,0,0,0,0,0,0,0,0,0,-1,699,484,0,0
-518,540,0,0,0,0,0,0,0,0,0,-1,706,484,0,0
-511,540,0,0,0,0,0,0,0,0,0,-1,713,484,0,0
-504,540,0,0,0,0,0,0,0,0,0,-1,720,484,0,0
-497,540,0,0,0,0,0,0,0,0,0,-1,727,484,0,0
-490,540,0,0,0,0,0,0,0,0,0,-1,734,484,0,0
-483,540,0,0,0,0,0,0,0,0,0,-1,741,484,0,0
-476,540,0,0,0,0,0,0,0,0,0,-1,748,484,0,0
-469,540,0,0,0,0,0,0,0,0,0,-1,755,484,0,0
-462,540,0,0,0,0,0,0,0,0,0,-1,762,484,0,0
-455,540,0,0,0,0,0,0,0,0,0,-1,769,484,0,0
-448,540,0,0,0,0,0,0,0,0,0,-1,776,484,0,0
-441,540,0,0,0,0,0,0,0,0,0,-1,783,484,0,0
-434,540,0,0,0,0,0,0,0,0,0,-1,790,484,0,0
-427,540,0,0,0,0,0,0,0,0,0,-1,797,484,0,0
-420,540,0.291504,-4.59543,0,0,0,0,0,0,0,-1,804,484,0.291518,4.59544
-413,540,0.30542,-5.62857,0,0,0,0,0,0,0,-1,811,484,0.30539,5.62856
-406,540,0.992554,-6.1304,0,0,0,0,0,0,0,-1,818,484,0.992553,6.13041
-399,540,1.35217,-4.24222,0,0,0,0,0,0,0,-1,825,484,1.35215,4.24222
-392,540,1.74487,-2.36649,0,0,0,0,0,0,0,-1,832,484,1.74486,2.36648
-385,540,-2.29407,-5.03418,0,0,0,0,0,0,0,-1,839,484,-2.29408,5.03418
-378,540,1.06445,-10.5824,0,0,0,0,0,0,0,-1,846,484,1.06446,10.5824
-371,540,1.14825,-10.7452,0,0,0,0,0,0,0,-1,853,484,1.14827,10.7452
-364,540,0.686157,-11.4509,0,0,0,0,0,0,0,-1,860,484,0.68615,11.4509
-357,540,0.711304,-11.7585,0,0,0,0,0,0,0,-1,867,484,0.711279,11.7585
-350,540,0.664917,-11.9775,-0.00125486,0.00124128,-0.00285061,0.00310507,-0.00311865,-0.99174,0.00359327,0.0336561,874,484,0.664889,11.9775
-343,540,0.559509,-12.4279,-0.00098182,0.000871971,-0.00267503,0.00277614,-0.00288599,-0.952174,0.00326924,0.0166999,881,484,0.559522,12.4279
-336,540,0.483337,-12.8611,-0.000670665,0.000628845,-0.0024473,0.00251118,-0.002553,-0.915154,0.00292384,0.0121902,888,484,0.483356,12.8611
-329,540,0.495544,-13.2,-0.000431323,0.000490549,-0.00222309,0.00229998,-0.00224075,-0.88762,0.00262167,0.00984502,895,484,0.495529,13.2
-322,540,0.498596,-13.5447,-0.000265858,0.000361861,-0.00197288,0.00204569,-0.00194969,-0.864281,0.00230695,0.0142914,902,484,0.498625,13.5447
-315,540,0.47522,-13.8873,-0.000101475,0.00037957,-0.00173082,0.0018865,-0.0016084,-0.854438,0.00201991,0.0127524,909,484,0.475218,13.8873
-308,540,0.470337,-14.2177,8.50704e-05,0.000368422,-0.00145307,0.00168671,-0.00123322,-0.833995,0.00169258,0.0115146,916,484,0.470367,14.2177
-301,540,0.467041,-14.5334,0.000298488,0.00024445,-0.00109801,0.00136981,-0.000826878,-0.773097,0.00128111,0.01188,923,484,0.46707,14.5334
-294,540,0.460938,-14.8586,0.000663894,-0.000206948,-0.000723818,0.00107316,-0.000616219,-0.514615,0.000987187,0.011026,930,484,0.46092,14.8586
-287,540,0.470337,-15.1814,0.00117658,-0.00100406,-0.00043873,0.00126154,-0.00108902,-0.191281,0.00135831,0.00792531,937,484,0.470365,15.1814
-280,540,0.468262,-15.4912,0.00148064,-0.00198832,-0.0001571,0.00148774,-0.00199542,-0.0451641,0.00201811,0.00912523,944,484,0.468255,15.4912
-273,540,0.464844,-15.7957,0.00169411,-0.00335576,0.00028221,0.00170984,-0.00337148,0.0556535,0.00298553,0.0116951,951,484,0.464871,15.7957
-266,540,0.469299,-16.1057,0.00216973,-0.00492651,0.000793798,0.00225745,-0.00501423,0.110049,0.00429769,0.0129018,958,484,0.469274,16.1057
-259,540,0.462097,-16.4162,0.00268263,-0.00649738,0.00114398,0.00282304,-0.00663779,0.122129,0.00560827,0.0119521,965,484,0.462104,16.4162
-252,540,0.46405,-16.6859,0.00288863,-0.00692773,0.00167738,0.00316734,-0.00720644,0.164654,0.00613877,0.0121666,972,484,0.464063,16.6859
-245,540,0.473206,-16.9728,0.00307017,-0.00855578,0.00222763,0.00348239,-0.008968,0.182978,0.00741716,0.0130736,979,484,0.47322,16.9729
-238,540,0.481262,-17.2518,0.00311373,-0.00989463,0.00283043,0.0037029,-0.0104838,0.205227,0.00849686,0.00962353,986,484,0.481285,17.2518
-231,540,0.484863,-17.5258,0.00310359,-0.0110058,0.00341355,0.00388605,-0.0117883,0.22533,0.00942515,0.0115882,993,484,0.484838,17.5259
-224,540,0.450989,-17.7757,0.00287647,-0.0114811,0.00416366,0.00399654,-0.0126012,0.26279,0.0100027,0.0188892,1000,484,0.451012,17.7757
-217,540,0.405273,-17.9599,0.00261226,-0.0114931,0.00484728,0.0041174,-0.0129983,0.301074,0.0103156,0.0309771,1007,484,0.405272,17.9599
-210,540,0.451111,-18.2201,0.00228629,-0.0114827,0.00547019,0.00419492,-0.0133914,0.335709,0.0106061,0.0442048,1014,484,0.451141,18.2201
-203,540,0.510254,-18.7126,0.00201563,-0.0109984,0.00587263,0.00427383,-0.0132566,0.367099,0.0105548,0.0447006,1021,484,0.510281,18.7126
-196,540,0.57251,-18.9616,0,0,0,0,0,0,0,-1,1028,484,0.572481,18.9616
-189,540,0.521118,-18.2957,0,0,0,0,0,0,0,-1,1035,484,0.521093,18.2957
-182,540,0.109375,-15.2948,0,0,0,0,0,0,0,-1,1042,484,0.109331,15.2948
-175,540,1.73413,-10.728,0,0,0,0,0,0,0,-1,1049,484,1.73414,10.728
-168,540,1.18164,-7.65347,0,0,0,0,0,0,0,-1,1056,484,1.18163,7.65347
-161,540,-0.405884,-9.86481,0,0,0,0,0,0,0,-1,1063,484,-0.405886,9.8648
-154,540,1.9303,-20.0667,0,0,0,0,0,0,0,-1,1070,484,1.93031,20.0667
-147,540,-0.0977783,-20.4227,0,0,0,0,0,0,0,-1,1077,484,-0.0977603,20.4227
-140,540,1.40735,-15.6289,0,0,0,0,0,0,0,-1,1084,484,1.4073,15.6289
-133,540,2.28345,-17.6413,0,0,0,0,0,0,0,-1,1091,484,2.2835,17.6413
-126,540,1.46765,-17.5085,0,0,0,0,0,0,0,-1,1098,484,1.46764,17.5085
-119,540,6.18579,-10.4846,0,0,0,0,0,0,0,-1,1105,484,6.18582,10.4846
-112,540,5.8468,-9.65106,0,0,0,0,0,0,0,-1,1112,484,5.84681,9.65106
-105,540,5.50781,-8.81754,0,0,0,0,0,0,0,-1,1119,484,5.5078,8.81753
-98,540,0.73877,-3.08093,0,0,0,0,0,0,0,-1,1126,484,0.738754,3.08092
-91,540,1.56519,-7.48666,0,0,0,0,0,0,0,-1,1133,484,1.56514,7.48667
-84,540,-0.945923,4.43073,0,0,0,0,0,0,0,-1,1140,484,-0.945891,-4.43074
-77,540,-2.28894,2.14368,0,0,0,0,0,0,0,-1,1147,484,-2.28894,-2.14368
-70,540,-3.75244,-0.452576,0,0,0,0,0,0,0,-1,1154,484,-3.75244,0.452576
-63,540,-5.26257,-3.04767,0,0,0,0,0,0,0,-1,1161,484,-5.26262,3.04766
-56,540,-5.19055,-6.12595,0,0,0,0,0,0,0,-1,1168,484,-5.19057,6.12595
-49,540,-5.63867,-8.52298,0,0,0,0,0,0,0,-1,1175,484,-5.63871,8.52298
-42,540,0,0,0,0,0,0,0,0,0,-1,1182,484,0,0
-35,540,0,0,0,0,0,0,0,0,0,-1,1189,484,0,0
-28,540,0,0,0,0,0,0,0,0,0,-1,1196,484,0,0
-21,540,0,0,0,0,0,0,0,0,0,-1,1203,484,0,0
-14,540,0,0,0,0,0,0,0,0,0,-1,1210,484,0,0
-7,540,0,0,0,0,0,0,0,0,0,-1,1217,484,0,0
0,540,0,0,0,0,0,0,0,0,0,-1,1224,484,0,0
7,540,0,0,0,0,0,0,0,0,0,-1,1231,484,0,0
14,540,0,0,0,0,0,0,0,0,0,-1,1238,484,0,0
21,540,0,0,0,0,0,0,0,0,0,-1,1245,484,0,0
28,540,0,0,0,0,0,0,0,0,0,-1,1252,484,0,0
35,540,0,0,0,0,0,0,0,0,0,-1,1259,484,0,0
42,540,0,0,0,0,0,0,0,0,0,-1,1266,484,0,0
49,540,0,0,0,0,0,0,0,0,0,-1,1273,484,0,0
56,540,0,0,0,0,0,0,0,0,0,-1,1280,484,0,0
63,540,0,0,0,0,0,0,0,0,0,-1,1287,484,0,0
70,540,0,0,0,0,0,0,0,0,0,-1,1294,484,0,0
77,540,0,0,0,0,0,0,0,0,0,-1,1301,484,0,0
84,540,0,0,0,0,0,0,0,0,0,-1,1308,484,0,0
91,540,0,0,0,0,0,0,0,0,0,-1,1315,484,0,0
98,540,0,0,0,0,0,0,0,0,0,-1,1322,484,0,0
105,540,0,0,0,0,0,0,0,0,0,-1,1329,484,0,0
112,540,0,0,0,0,0,0,0,0,0,-1,1336,484,0,0
119,540,0,0,0,0,0,0,0,0,0,-1,1343,484,0,0
126,540,0,0,0,0,0,0,0,0,0,-1,1350,484,0,0
133,540,0,0,0,0,0,0,0,0,0,-1,1357,484,0,0
140,540,0,0,0,0,0,0,0,0,0,-1,1364,484,0,0
147,540,0,0,0,0,0,0,0,0,0,-1,1371,484,0,0
154,540,0,0,0,0,0,0,0,0,0,-1,1378,484,0,0
161,540,0,0,0,0,0,0,0,0,0,-1,1385,484,0,0
168,540,3.05078,-0.0010376,0,0,0,0,0,0,0,-1,1392,484,3.05084,0.00102554
175,540,3.37708,0.617035,0,0,0,0,0,0,0,-1,1399,484,3.37707,-0.617046
182,540,3.32678,1.23267,0,0,0,0,0,0,0,-1,1406,484,3.32678,-1.23266
189,540,3.5813,2.15619,0,0,0,0,0,0,0,-1,1413,484,3.58129,-2.1562
196,540,1.84448,-0.801483,0,0,0,0,0,0,0,-1,1420,484,1.84446,0.80148
203,540,4.14648,0.702087,0,0,0,0,0,0,0,-1,1427,484,4.14645,-0.702089
210,540,4.50671,-0.56076,0,0,0,0,0,0,0,-1,1434,484,4.50667,0.560771
217,540,5.00452,-0.278717,0,0,0,0,0,0,0,-1,1441,484,5.00452,0.278709
224,540,6.44458,-2.83527,0,0,0,0,0,0,0,-1,1448,484,6.44457,2.83525
231,540,6.9231,-3.10504,0,0,0,0,0,0,0,-1,1455,484,6.92307,3.10505
238,540,6.4823,-2.58365,0,0,0,0,0,0,0,-1,1462,484,6.48225,2.58363
245,540,6.02087,-1.97916,0,0,0,0,0,0,0,-1,1469,484,6.02088,1.97915
252,540,6.50647,-3.56006,0,0,0,0,0,0,0,-1,1476,484,6.50649,3.56006
259,540,6.01941,-2.798,0,0,0,0,0,0,0,-1,1483,484,6.01941,2.79801
266,540,5.5332,-2.02853,0,0,0,0,0,0,0,-1,1490,484,5.53323,2.02855
273,540,5.06787,-1.28137,0,0,0,0,0,0,0,-1,1497,484,5.06786,1.28136
280,540,1.62903,-2.14609,0,0,0,0,0,0,0,-1,1504,484,1.62906,2.1461
287,540,1.97156,-2.45053,0,0,0,0,0,0,0,-1,1511,484,1.97159,2.45053
294,540,2.44165,-2.6185,0,0,0,0,0,0,0,-1,1518,484,2.44167,2.6185
301,540,4.36169,-2.54272,0,0,0,0,0,0,0,-1,1525,484,4.36165,2.54272
308,540,4.2019,-4.30469,0,0,0,0,0,0,0,-1,1532,484,4.20193,4.3047
315,540,4.45923,-5.32101,0,0,0,0,0,0,0,-1,1539,484,4.45923,5.32103
322,540,4.71655,-6.33737,0,0,0,0,0,0,0,-1,1546,484,4.71653,6.33736
329,540,5.8949,-12.9383,0,0,0,0,0,0,0,-1,1553,484,5.89492,12.9383
336,540,7.33521,-16.6613,0,0,0,0,0,0,0,-1,1560,484,7.33518,16.6613
343,540,7.22498,-17.393,0,0,0,0,0,0,0,-1,1567,484,7.22494,17.393
350,540,6.99939,-16.9727,0,0,0,0,0,0,0,-1,1574,484,6.99937,16.9727
357,540,7.09729,-16.3882,-0.0002161,-0.00299655,-0.0027278,0.00145531,-0.00466797,-0.549729,0.00369391,0.0440352,1581,484,7.0973,16.3882
364,540,6.91821,-16.183,0.000111253,-0.00225078,-0.00205009,0.00129618,-0.0034357,-0.524075,0.00282351,0.0253677,1588,484,6.91816,16.183
371,540,6.92957,-15.926,0.000327567,-0.0015983,-0.00151426,0.00115914,-0.00242987,-0.502196,0.00211496,0.0159873,1595,484,6.92962,15.926
378,540,6.97778,-15.6189,0.000514245,-0.000999496,-0.00112264,0.00111132,-0.00159657,-0.488802,0.00157175,0.0120403,1602,484,6.97779,15.6189
385,540,6.97961,-15.3003,0.000616596,-0.000210073,-0.000643939,0.000968443,-0.00056192,-0.500074,0.000893886,0.0130283,1609,484,6.97957,15.3003
392,540,6.95935,-14.9638,0.00055595,0.00023084,-0.000369528,0.000797096,-1.03064e-05,-0.578187,0.000534866,0.0114565,1616,484,6.95939,14.9638
399,540,6.95251,-14.6482,0.000517643,0.000515716,-0.000217901,0.000734583,0.000298776,-0.783188,0.000426564,0.0153599,1623,484,6.95256,14.6482
406,540,6.95703,-14.3141,0.00064488,0.000729964,-1.34075e-05,0.000732027,0.000642817,-1.41814,0.000461167,0.0164642,1630,484,6.95699,14.3141
413,540,6.98096,-13.9613,0.000875441,0.000985578,0.000258733,0.00119504,0.000665981,0.890254,0.000691463,0.0124453,1637,484,6.98094,13.9613
420,540,7.01196,-13.6053,0.00104853,0.00106838,0.000469096,0.00152766,0.000589254,0.795971,0.000889638,0.0120617,1644,484,7.01193,13.6053
427,540,7.00183,-13.2566,0.00118436,0.0010518,0.000691188,0.00181244,0.000423724,0.737599,0.00109474,0.013446,1651,484,7.0018,13.2566
434,540,6.96326,-12.9206,0.00140452,0.000957864,0.000953213,0.00216022,0.000202168,0.670328,0.00137771,0.015159,1658,484,6.96324,12.9206
441,540,6.96997,-12.5578,0.00163722,0.000777196,0.00121847,0.00249933,-8.49108e-05,0.615764,0.00169523,0.0178487,1665,484,6.97003,12.5578
448,540,6.94629,-12.2093,0.0017512,0.000591414,0.00148152,0.00276227,-0.000419663,0.598856,0.00199616,0.0114626,1672,484,6.94625,12.2093
455,540,6.95642,-11.847,0.00171872,0.000377377,0.00167609,0.00285334,-0.00075724,0.595084,0.00219855,0.0101929,1679,484,6.95641,11.8471
462,540,6.93066,-11.4886,0.00167539,0.000115242,0.00182585,0.00288083,-0.00109019,0.583515,0.00236909,0.010255,1686,484,6.93071,11.4885
469,540,6.90491,-11.113,0.00160373,-0.000174257,0.0019862,0.00289082,-0.00146134,0.574976,0.0025575,0.0133751,1693,484,6.90489,11.113
476,540,6.90674,-10.7509,0.00127356,-0.000605865,0.00197182,0.00251814,-0.00185044,0.563033,0.002532,0.0202753,1700,484,6.90673,10.7509
483,540,6.94763,-10.4129,0.000917084,-0.00121803,0.00184167,0.00197824,-0.00227919,0.52273,0.00246008,0.0408698,1707,484,6.94764,10.4129
490,540,7.15076,-9.96158,0,0,0,0,0,0,0,-1,1714,484,7.15075,9.96158
497,540,4.49695,-7.83932,0,0,0,0,0,0,0,-1,1721,484,4.49699,7.83932
504,540,5.52747,-4.4433,0,0,0,0,0,0,0,-1,1728,484,5.5275,4.44329
511,540,5.82471,-6.83521,0,0,0,0,0,0,0,-1,1735,484,5.82465,6.83522
518,540,6.64258,-8.51245,0,0,0,0,0,0,0,-1,1742,484,6.6426,8.51247
525,540,5.83813,-7.04257,0,0,0,0,0,0,0,-1,1749,484,5.83816,7.04257
532,540,2.84265,-1.07925,0,0,0,0,0,0,0,-1,1756,484,2.84269,1.07927
539,540,0,0,0,0,0,0,0,0,0,-1,1763,484,0,0
546,540,0,0,0,0,0,0,0,0,0,-1,1770,484,0,0
553,540,0,0,0,0,0,0,0,0,0,-1,1777,484,0,0
560,540,0,0,0,0,0,0,0,0,0,-1,1784,484,0,0
567,540,0,0,0,0,0,0,0,0,0,-1,1791,484,0,0
574,540,0,0,0,0,0,0,0,0,0,-1,1798,484,0,0
581,540,0,0,0,0,0,0,0,0,0,-1,1805,484,0,0
588,540,0,0,0,0,0,0,0,0,0,-1,1812,484,0,0
595,540,0,0,0,0,0,0,0,0,0,-1,1819,484,0,0
602,540,0,0,0,0,0,0,0,0,0,-1,1826,484,0,0
609,540,0,0,0,0,0,0,0,0,0,-1,1833,484,0,0
616,540,0,0,0,0,0,0,0,0,0,-1,1840,484,0,0
623,540,0,0,0,0,0,0,0,0,0,-1,1847,484,0,0
630,540,0,0,0,0,0,0,0,0,0,-1,1854,484,0,0
637,540,0,0,0,0,0,0,0,0,0,-1,1861,484,0,0
644,540,0,0,0,0,0,0,0,0,0,-1,1868,484,0,0
651,540,0,0,0,0,0,0,0,0,0,-1,1875,484,0,0
658,540,0,0,0,0,0,0,0,0,0,-1,1882,484,0,0
665,540,0,0,0,0,0,0,0,0,0,-1,1889,484,0,0
672,540,0,0,0,0,0,0,0,0,0,-1,1896,484,0,0
679,540,0,0,0,0,0,0,0,0,0,-1,1903,484,0,0
686,540,0,0,0,0,0,0,0,0,0,-1,1910,484,0,0
693,540,0,0,0,0,0,0,0,0,0,-1,1917,484,0,0
700,540,0,0,0,0,0,0,0,0,0,-1,1924,484,0,0
707,540,0,0,0,0,0,0,0,0,0,-1,1931,484,0,0
714,540,0,0,0,0,0,0,0,0,0,-1,1938,484,0,0
721,540,0,0,0,0,0,0,0,0,0,-1,1945,484,0,0
728,540,0,0,0,0,0,0,0,0,0,-1,1952,484,0,0
735,540,0,0,0,0,0,0,0,0,0,-1,1959,484,0,0
742,540,0,0,0,0,0,0,0,0,0,-1,1966,484,0,0
749,540,0,0,0,0,0,0,0,0,0,-1,1973,484,0,0
756,540,0,0,0,0,0,0,0,0,0,-1,1980,484,0,0
763,540,0,0,0,0,0,0,0,0,0,-1,1987,484,0,0
770,540,0,0,0,0,0,0,0,0,0,-1,1994,484,0,0
777,540,0,0,0,0,0,0,0,0,0,-1,2001,484,0,0
784,540,0,0,0,0,0,0,0,0,0,-1,2008,484,0,0
791,540,0,0,0,0,0,0,0,0,0,-1,2015,484,0,0
798,540,0,0,0,0,0,0,0,0,0,-1,2022,484,0,0
805,540,0,0,0,0,0,0,0,0,0,-1,2029,484,0,0
812,540,0,0,0,0,0,0,0,0,0,-1,2036,484,0,0
-700,533,0,0,0,0,0,0,0,0,0,-1,524,491,0,0
-693,533,0,0,0,0,0,0,0,0,0,-1,531,491,0,0
-686,533,0,0,0,0,0,0,0,0,0,-1,538,491,0,0
-679,533,0,0,0,0,0,0,0,0,0,-1,545,491,0,0
-672,533,0,0,0,0,0,0,0,0,0,-1,552,491,0,0
-665,533,0,0,0,0,0,0,0,0,0,-1,559,491,0,0
-658,533,0,0,0,0,0,0,0,0,0,-1,566,491,0,0
-651,533,0,0,0,0,0,0,0,0,0,-1,573,491,0,0
-644,533,0,0,0,0,0,0,0,0,0,-1,580,491,0,0
-637,533,0,0,0,0,0,0,0,0,0,-1,587,491,0,0
-630,533,0,0,0,0,0,0,0,0,0,-1,594,491,0,0
-623,533,0,0,0,0,0,0,0,0,0,-1,601,491,0,0
-616,533,0,0,0,0,0,0,0,0,0,-1,608,491,0,0
-609,533,0,0,0,0,0,0,0,0,0,-1,615,491,0,0
-602,533,0,0,0,0,0,0,0,0,0,-1,622,491,0,0
-595,533,0,0,0,0,0,0,0,0,0,-1,629,491,0,0
-588,533,0,0,0,0,0,0,0,0,0,-1,636,491,0,0
-581,533,0,0,0,0,0,0,0,0,0,-1,643,491,0,0
-574,533,0,0,0,0,0,0,0,0,0,-1,650,491,0,0
-567,533,0,0,0,0,0,0,0,0,0,-1,657,491,0,0
-560,533,0,0,0,0,0,0,0,0,0,-1,664,491,0,0
-553,533,0,0,0,0,0,0,0,0,0,-1,671,491,0,0
-546,533,0,0,0,0,0,0,0,0,0,-1,678,491,0,0
-539,533,0,0,0,0,0,0,0,0,0,-1,685,491,0,0
-532,533,0,0,0,0,0,0,0,0,0,-1,692,491,0,0
-525,533,0,0,0,0,0,0,0,0,0,-1,699,491,0,0
-518,533,0,0,0,0,0,0,0,0,0,-1,706,491,0,0
-511,533,0,0,0,0,0,0,0,0,0,-1,713,491,0,0
-504,533,0,0,0,0,0,0,0,0,0,-1,720,491,0,0
-497,533,0,0,0,0,0,0,0,0,0,-1,727,491,0,0
-490,533,0,0,0,0,0,0,0,0,0,-1,734,491,0,0
-483,533,0,0,0,0,0,0,0,0,0,-1,741,491,0,0
-476,533,0,0,0,0,0,0,0,0,0,-1,748,491,0,0
-469,533,0,0,0,0,0,0,0,0,0,-1,755,491,0,0
-462,533,0,0,0,0,0,0,0,0,0,-1,762,491,0,0
-455,533,0,0,0,0,0,0,0,0,0,-1,769,491,0,0
-448,533,0,0,0,0,0,0,0,0,0,-1,776,491,0,0
-441,533,0,0,0,0,0,0,0,0,0,-1,783,491,0,0
-434,533,0,0,0,0,0,0,0,0,0,-1,790,491,0,0
-427,533,0.559814,-4.40222,0,0,0,0,0,0,0,-1,797,491,0.559816,4.40222
-420,533,0.390503,-5.39261,0,0,0,0,0,0,0,-1,804,491,0.390501,5.3926
-413,533,0.31366,-6.33676,0,0,0,0,0,0,0,-1,811,491,0.313636,6.33677
-406,533,0.675903,-10.4675,0,0,0,0,0,0,0,-1,818,491,0.675884,10.4675
-399,533,1.49341,-4.32501,0,0,0,0,0,0,0,-1,825,491,1.49343,4.32502
-392,533,1.98297,-2.53873,0,0,0,0,0,0,0,-1,832,491,1.98299,2.53873
-385,533,-1.69116,-6.64645,0,0,0,0,0,0,0,-1,839,491,-1.69115,6.64645
-378,533,0.538757,-10.1314,0,0,0,0,0,0,0,-1,846,491,0.538741,10.1314
-371,533,0.355408,-11.1404,0,0,0,0,0,0,0,-1,853,491,0.355421,11.1405
-364,533,0.332397,-11.4417,-0.00161326,0.00306642,-0.00306838,0.00458531,-0.00313215,-1.11115,0.00448193,0.0457257,860,491,0.33238,11.4417
-357,533,0.274536,-11.7253,-0.00134999,0.00222092,-0.0026532,0.00363348,-0.00276255,-1.08157,0.00370414,0.0241127,867,491,0.274535,11.7253
-350,533,0.26001,-12.0923,-0.00122964,0.00149886,-0.00224937,0.00276536,-0.00249614,-1.05799,0.00303906,0.0111502,874,491,0.260018,12.0923
-343,533,0.21991,-12.5106,-0.000953172,0.00110538,-0.00204467,0.00236522,-0.00221302,-1.01858,0.00264373,0.0104834,881,491,0.219888,12.5106
-336,533,0.173462,-12.8875,-0.000640113,0.000826898,-0.0018067,0.00204332,-0.00185653,-0.978228,0.00225244,0.0138521,888,491,0.173454,12.8875
-329,533,0.179077,-13.2042,-0.000368699,0.000669495,-0.0016001,0.00183259,-0.0015318,-0.94225,0.00194502,0.0133932,895,491,0.179069,13.2042
-322,533,0.185181,-13.5315,-0.000161867,0.000528736,-0.00137182,0.00159805,-0.00123118,-0.908692,0.00163803,0.011311,902,491,0.185163,13.5315
-315,533,0.149841,-13.863,5.34378e-05,0.000536393,-0.0011457,0.00146578,-0.000875952,-0.889263,0.00136622,0.0125018,909,491,0.149846,13.863
-308,533,0.129517,-14.2017,0.000299598,0.000498231,-0.000885059,0.00128953,-0.0004917,-0.841272,0.00106222,0.0115025,916,491,0.129543,14.2017
-301,533,0.124512,-14.5201,0.000592081,0.000324293,-0.000543669,0.0010181,-0.000101727,-0.664662,0.000715059,0.0126974,923,491,0.124493,14.5201
-294,533,0.138,-14.8321,0.00106324,-0.000260065,-0.000188091,0.00108946,-0.000286281,-0.138484,0.00083819,0.0118894,930,491,0.137976,14.8321
-287,533,0.153015,-15.1706,0.00173197,-0.00135034,4.68256e-05,0.00173268,-0.00135105,0.0151871,0.00178493,0.00881883,937,491,0.152996,15.1706
-280,533,0.151062,-15.4971,0.00213902,-0.00261386,0.00030084,0.00215798,-0.00263283,0.0629615,0.0027705,0.00831248,944,491,0.151044,15.4971
-273,533,0.130432,-15.8038,0.00243748,-0.00435026,0.000751699,0.00251973,-0.00443251,0.108984,0.0040642,0.0114668,951,491,0.130458,15.8038
-266,533,0.146729,-16.1034,0.00308531,-0.00642973,0.00128418,0.00325558,-0.0066,0.131822,0.0057983,0.0111225,958,491,0.146717,16.1034
-259,533,0.165527,-16.4032,0.00375449,-0.00851079,0.00161266,0.00396298,-0.00871928,0.128571,0.00749178,0.0117555,965,491,0.165534,16.4032
-252,533,0.1828,-16.6554,0.00394035,-0.00920466,0.00216948,0.00428915,-0.00955346,0.159412,0.00818241,0.0144556,972,491,0.182799,16.6554
-245,533,0.222961,-16.9184,0.00406518,-0.011354,0.00278188,0.00455172,-0.0118406,0.173146,0.00977099,0.0189034,979,491,0.222937,16.9184
-238,533,0.224609,-17.0952,0.00402278,-0.0130367,0.00341368,0.00468051,-0.0136944,0.190343,0.0110261,0.0202124,986,491,0.22463,17.0952
-231,533,0.32666,-17.2365,0.00389471,-0.0142876,0.00403532,0.00475006,-0.0151429,0.208874,0.0119963,0.0316503,993,491,0.326648,17.2365
-224,533,-0.133362,-17.4307,0.00341006,-0.0146949,0.00488926,0.00464603,-0.0159309,0.247606,0.0124614,0.0452726,1000,491,-0.133336,17.4306
-217,533,-0.21228,-17.8089,0.00282584,-0.0143326,0.00563948,0.0045134,-0.0160201,0.29076,0.0124601,0.0473755,1007,491,-0.212283,17.8089
-210,533,0.0571289,-18.2929,0.00212213,-0.0136987,0.00635525,0.00435883,-0.0159354,0.338407,0.0123359,0.049141,1014,491,0.0571006,18.2929
-203,533,-0.20282,-19.0638,0.00141582,-0.0124047,0.00683682,0.00422636,-0.0152152,0.390029,0.0118071,0.0476671,1021,491,-0.202835,19.0638
-196,533,-0.155884,-19.6822,0,0,0,0,0,0,0,-1,1028,491,-0.155871,19.6822
-189,533,-0.169189,-15.0303,0,0,0,0,0,0,0,-1,1035,491,-0.169241,15.0303
-182,533,1.26123,-11.4969,0,0,0,0,0,0,0,-1,1042,491,1.26128,11.4969
-175,533,0.937744,-7.36966,0,0,0,0,0,0,0,-1,1049,491,0.937769,7.36965
-168,533,2.64807,-2.7543,0,0,0,0,0,0,0,-1,1056,491,2.64812,2.7543
-161,533,1.91833,-1.76553,0,0,0,0,0,0,0,-1,1063,491,1.91836,1.76554
-154,533,0.376709,-11.0633,0,0,0,0,0,0,0,-1,1070,491,0.376715,11.0632
-147,533,0.383789,-12.1586,0,0,0,0,0,0,0,-1,1077,491,0.383829,12.1586
-140,533,1.14001,-15.4608,0,0,0,0,0,0,0,-1,1084,491,1.14005,15.4608
-133,533,0.189941,-16.0795,0,0,0,0,0,0,0,-1,1091,491,0.18994,16.0795
-126,533,2.89612,-2.59003,0,0,0,0,0,0,0,-1,1098,491,2.89608,2.59003
-119,533,3.00842,-12.8239,0,0,0,0,0,0,0,-1,1105,491,3.00841,12.8239
-112,533,7.05884,-10.21,0,0,0,0,0,0,0,-1,1112,491,7.0588,10.21
-105,533,3.84839,1.12769,0,0,0,0,0,0,0,-1,1119,491,3.84843,-1.12769
-98,533,-1.39392,-5.16367,0,0,0,0,0,0,0,-1,1126,491,-1.39394,5.16367
-91,533,0.367432,4.49753,0,0,0,0,0,0,0,-1,1133,491,0.367468,-4.49754
-84,533,-0.88623,3.03604,0,0,0,0,0,0,0,-1,1140,491,-0.886288,-3.03605
-77,533,0,0,0,0,0,0,0,0,0,-1,1147,491,0,0
-70,533,0,0,0,0,0,0,0,0,0,-1,1154,491,0,0
-63,533,0,0,0,0,0,0,0,0,0,-1,1161,491,0,0
-56,533,0,0,0,0,0,0,0,0,0,-1,1168,491,0,0
-49,533,0,0,0,0,0,0,0,0,0,-1,1175,491,0,0
-42,533,0,0,0,0,0,0,0,0,0,-1,1182,491,0,0
-35,533,0,0,0,0,0,0,0,0,0,-1,1189,491,0,0
-28,533,0,0,0,0,0,0,0,0,0,-1,1196,491,0,0
-21,533,0,0,0,0,0,0,0,0,0,-1,1203,491,0,0
-14,533,0,0,0,0,0,0,0,0,0,-1,1210,491,0,0
-7,533,0,0,0,0,0,0,0,0,0,-1,1217,491,0,0
0,533,0,0,0,0,0,0,0,0,0,-1,1224,491,0,0
7,533,0,0,0,0,0,0,0,0,0,-1,1231,491,0,0
14,533,0,0,0,0,0,0,0,0,0,-1,1238,491,0,0
21,533,0,0,0,0,0,0,0,0,0,-1,1245,491,0,0
28,533,0,0,0,0,0,0,0,0,0,-1,1252,491,0,0
35,533,0,0,0,0,0,0,0,0,0,-1,1259,491,0,0
42,533,0,0,0,0,0,0,0,0,0,-1,1266,491,0,0
49,533,0,0,0,0,0,0,0,0,0,-1,1273,491,0,0
56,533,0,0,0,0,0,0,0,0,0,-1,1280,491,0,0
63,533,0,0,0,0,0,0,0,0,0,-1,1287,491,0,0
70,533,0,0,0,0,0,0,0,0,0,-1,1294,491,0,0
77,533,0,0,0,0,0,0,0,0,0,-1,1301,491,0,0
84,533,0,0,0,0,0,0,0,0,0,-1,1308,491,0,0
91,533,0,0,0,0,0,0,0,0,0,-1,1315,491,0,0
98,533,0,0,0,0,0,0,0,0,0,-1,1322,491,0,0
105,533,0,0,0,0,0,0,0,0,0,-1,1329,491,0,0
112,533,0,0,0,0,0,0,0,0,0,-1,1336,491,0,0
119,533,0,0,0,0,0,0,0,0,0,-1,1343,491,0,0
126,533,0,0,0,0,0,0,0,0,0,-1,1350,491,0,0
133,533,0,0,0,0,0,0,0,0,0,-1,1357,491,0,0
140,533,0,0,0,0,0,0,0,0,0,-1,1364,491,0,0
147,533,0,0,0,0,0,0,0,0,0,-1,1371,491,0,0
154,533,0,0,0,0,0,0,0,0,0,-1,1378,491,0,0
161,533,0,0,0,0,0,0,0,0,0,-1,1385,491,0,0
168,533,0,0,0,0,0,0,0,0,0,-1,1392,491,0,0
175,533,0,0,0,0,0,0,0,0,0,-1,1399,491,0,0
182,533,0,0,0,0,0,0,0,0,0,-1,1406,491,0,0
189,533,0,0,0,0,0,0,0,0,0,-1,1413,491,0,0
196,533,0,0,0,0,0,0,0,0,0,-1,1420,491,0,0
203,533,3.7887,1.16193,0,0,0,0,0,0,0,-1,1427,491,3.78872,-1.16193
210,533,5.09558,-0.216034,0,0,0,0,0,0,0,-1,1434,491,5.09559,0.216028
217,533,6.91614,-2.46814,0,0,0,0,0,0,0,-1,1441,491,6.91618,2.46814
224,533,7.23621,-2.1857,0,0,0,0,0,0,0,-1,1448,491,7.23621,2.1857
231,533,7.23474,-1.92282,0,0,0,0,0,0,0,-1,1455,491,7.2347,1.92282
238,533,7.23535,-1.67258,0,0,0,0,0,0,0,-1,1462,491,7.23539,1.67258
245,533,6.86682,-1.2301,0,0,0,0,0,0,0,-1,1469,491,6.86686,1.23011
252,533,6.63354,-3.07825,0,0,0,0,0,0,0,-1,1476,491,6.6335,3.07824
259,533,6.16431,-2.35037,0,0,0,0,0,0,0,-1,1483,491,6.1643,2.35037
266,533,5.68884,-1.6214,0,0,0,0,0,0,0,-1,1490,491,5.68885,1.6214
273,533,5.21399,-0.864227,0,0,0,0,0,0,0,-1,1497,491,5.21403,0.864227
280,533,1.41089,-1.97946,0,0,0,0,0,0,0,-1,1504,491,1.41087,1.97946
287,533,1.6814,-2.44443,0,0,0,0,0,0,0,-1,1511,491,1.6814,2.44444
294,533,2.2384,-2.57626,0,0,0,0,0,0,0,-1,1518,491,2.23839,2.57625
301,533,3.39941,-4.0817,0,0,0,0,0,0,0,-1,1525,491,3.3994,4.08171
308,533,4.13733,-4.14752,0,0,0,0,0,0,0,-1,1532,491,4.13727,4.14752
315,533,4.80762,-5.29349,0,0,0,0,0,0,0,-1,1539,491,4.80762,5.29347
322,533,5.47803,-6.43942,0,0,0,0,0,0,0,-1,1546,491,5.47798,6.43943
329,533,3.88477,-3.86301,0,0,0,0,0,0,0,-1,1553,491,3.88475,3.86299
336,533,6.70923,-13.2003,0,0,0,0,0,0,0,-1,1560,491,6.70926,13.2004
343,533,7.56055,-16.1165,0,0,0,0,0,0,0,-1,1567,491,7.5606,16.1165
350,533,5.62915,-8.02426,0,0,0,0,0,0,0,-1,1574,491,5.6291,8.02426
357,533,7.22241,-16.5254,0,0,0,0,0,0,0,-1,1581,491,7.22238,16.5254
364,533,7.18518,-16.1281,5.01324e-06,-0.00282408,-0.00248042,0.00144589,-0.00426496,-0.526257,0.00342845,0.0496981,1588,491,7.18513,16.1281
371,533,7.18433,-15.9044,0.000370038,-0.00195243,-0.00185718,0.00139914,-0.00298154,-0.506003,0.0025836,0.0400643,1595,491,7.18429,15.9044
378,533,7.2467,-15.6097,0.000699915,-0.00123161,-0.00145279,0.00147866,-0.00201035,-0.492056,0.00202216,0.0299237,1602,491,7.24665,15.6097
385,533,7.31592,-15.273,0.000898185,-0.00032515,-0.00088454,0.00136195,-0.000788912,-0.482896,0.0012564,0.0243339,1609,491,7.31591,15.273
392,533,7.29749,-14.9757,0.00075563,0.000140686,-0.000605608,0.00112735,-0.000231033,-0.550501,0.000839245,0.0134625,1616,491,7.29754,14.9757
399,533,7.31165,-14.6713,0.000499025,0.000483506,-0.000606674,0.00109799,-0.000115458,-0.779003,0.000773358,0.0120876,1623,491,7.31161,14.6713
406,533,7.30945,-14.3412,0.000551081,0.000667118,-0.000451528,0.00106434,0.000153859,-0.849295,0.00066424,0.0144072,1630,491,7.30943,14.3412
413,533,7.32715,-13.96,0.000735352,0.000956729,-0.000206404,0.00108025,0.00061183,-1.03152,0.000625513,0.0124903,1637,491,7.32712,13.96
420,533,7.32825,-13.6118,0.000845765,0.00102477,-2.52381e-05,0.00102826,0.000842275,-1.43338,0.000632692,0.0120227,1644,491,7.32828,13.6119
427,533,7.33594,-13.2501,0.000896963,0.000992236,0.000175195,0.00112616,0.000763043,0.918141,0.000663712,0.0133039,1651,491,7.33588,13.2501
434,533,7.31995,-12.9278,0.00100719,0.000901209,0.000408905,0.00136653,0.000541876,0.72096,0.000794574,0.0128838,1658,491,7.31992,12.9278
441,533,7.32751,-12.5486,0.00116934,0.000739,0.000661971,0.00165023,0.000258107,0.628262,0.00102501,0.0144433,1665,491,7.32746,12.5486
448,533,7.31348,-12.2032,0.00127063,0.000539543,0.000925582,0.00190024,-9.00626e-05,0.597332,0.00129789,0.0150773,1672,491,7.31342,12.2032
455,533,7.29297,-11.8479,0.00125128,0.000331492,0.00113149,0.00201276,-0.000429994,0.592371,0.00150578,0.0150428,1679,491,7.29293,11.8479
462,533,7.27661,-11.4658,0.00123875,5.15429e-05,0.0013012,0.00207535,-0.000785054,0.571399,0.00170654,0.0153102,1686,491,7.27662,11.4657
469,533,7.27356,-11.121,0.00122408,-0.000267967,0.00149349,0.00214751,-0.0011914,0.553769,0.00195388,0.0098474,1693,491,7.2736,11.121
476,533,7.28064,-10.7123,0.000990493,-0.000703247,0.00154041,0.00190148,-0.00161423,0.534065,0.00203205,0.0108416,1700,491,7.28066,10.7123
483,533,7.31055,-10.3131,0.00072971,-0.00128505,0.0014858,0.00151744,-0.00207277,0.487493,0.00208106,0.0205261,1707,491,7.31056,10.3131
490,533,7.36523,-10.1273,0.000241588,-0.0020001,0.00133444,0.000863451,-0.00262196,0.436087,0.00209594,0.0484018,1714,491,7.36519,10.1273
497,533,7.48059,-9.92084,0,0,0,0,0,0,0,-1,1721,491,7.48057,9.92084
504,533,7.4679,-9.08002,0,0,0,0,0,0,0,-1,1728,491,7.46786,9.08001
511,533,7.45654,-8.69016,0,0,0,0,0,0,0,-1,1735,491,7.45654,8.69016
518,533,7.49146,-8.3551,0,0,0,0,0,0,0,-1,1742,491,7.4914,8.35511
525,533,6.49841,-8.46698,0,0,0,0,0,0,0,-1,1749,491,6.49846,8.46697
532,533,3.24243,0.0737,0,0,0,0,0,0,0,-1,1756,491,3.24239,-0.0737072
539,533,3.61609,1.62427,0,0,0,0,0,0,0,-1,1763,491,3.61606,-1.62426
546,533,3.59607,1.65799,0,0,0,0,0,0,0,-1,1770,491,3.59605,-1.658
553,533,0,0,0,0,0,0,0,0,0,-1,1777,491,0,0
560,533,0,0,0,0,0,0,0,0,0,-1,1784,491,0,0
567,533,0,0,0,0,0,0,0,0,0,-1,1791,491,0,0
574,533,0,0,0,0,0,0,0,0,0,-1,1798,491,0,0
581,533,0,0,0,0,0,0,0,0,0,-1,1805,491,0,0
588,533,0,0,0,0,0,0,0,0,0,-1,1812,491,0,0
595,533,0,0,0,0,0,0,0,0,0,-1,1819,491,0,0
602,533,0,0,0,0,0,0,0,0,0,-1,1826,491,0,0
609,533,0,0,0,0,0,0,0,0,0,-1,1833,491,0,0
616,533,0,0,0,0,0,0,0,0,0,-1,1840,491,0,0
623,533,0,0,0,0,0,0,0,0,0,-1,1847,491,0,0
630,533,0,0,0,0,0,0,0,0,0,-1,1854,491,0,0
637,533,0,0,0,0,0,0,0,0,0,-1,1861,491,0,0
644,533,0,0,0,0,0,0,0,0,0,-1,1868,491,0,0
651,533,0,0,0,0,0,0,0,0,0,-1,1875,491,0,0
658,533,0,0,0,0,0,0,0,0,0,-1,1882,491,0,0
665,533,0,0,0,0,0,0,0,0,0,-1,1889,491,0,0
672,533,0,0,0,0,0,0,0,0,0,-1,1896,491,0,0
679,533,0,0,0,0,0,0,0,0,0,-1,1903,491,0,0
686,533,0,0,0,0,0,0,0,0,0,-1,1910,491,0,0
693,533,0,0,0,0,0,0,0,0,0,-1,1917,491,0,0
700,533,0,0,0,0,0,0,0,0,0,-1,1924,491,0,0
707,533,0,0,0,0,0,0,0,0,0,-1,1931,491,0,0
714,533,0,0,0,0,0,0,0,0,0,-1,1938,491,0,0
721,533,0,0,0,0,0,0,0,0,0,-1,1945,491,0,0
728,533,0,0,0,0,0,0,0,0,0,-1,1952,491,0,0
735,533,0,0,0,0,0,0,0,0,0,-1,1959,491,0,0
742,533,0,0,0,0,0,0,0,0,0,-1,1966,491,0,0
749,533,0,0,0,0,0,0,0,0,0,-1,1973,491,0,0
756,533,0,0,0,0,0,0,0,0,0,-1,1980,491,0,0
763,533,0,0,0,0,0,0,0,0,0,-1,1987,491,0,0
770,533,0,0,0,0,0,0,0,0,0,-1,1994,491,0,0
777,533,0,0,0,0,0,0,0,0,0,-1,2001,491,0,0
784,533,0,0,0,0,0,0,0,0,0,-1,2008,491,0,0
791,533,0,0,0,0,0,0,0,0,0,-1,2015,491,0,0
798,533,0,0,0,0,0,0,0,0,0,-1,2022,491,0,0
805,533,0,0,0,0,0,0,0,0,0,-1,2029,491,0,0
812,533,0,0,0,0,0,0,0,0,0,-1,2036,491,0,0
-700,526,0,0,0,0,0,0,0,0,0,-1,524,498,0,0
-693,526,0,0,0,0,0,0,0,0,0,-1,531,498,0,0
-686,526,0,0,0,0,0,0,0,0,0,-1,538,498,0,0
-679,526,0,0,0,0,0,0,0,0,0,-1,545,498,0,0
-672,526,0,0,0,0,0,0,0,0,0,-1,552,498,0,0
-665,526,0,0,0,0,0,0,0,0,0,-1,559,498,0,0
-658,526,0,0,0,0,0,0,0,0,0,-1,566,498,0,0
-651,526,0,0,0,0,0,0,0,0,0,-1,573,498,0,0
-644,526,0,0,0,0,0,0,0,0,0,-1,580,498,0,0
-637,526,0,0,0,0,0,0,0,0,0,-1,587,498,0,0
-630,526,0,0,0,0,0,0,0,0,0,-1,594,498,0,0
-623,526,0,0,0,0,0,0,0,0,0,-1,601,498,0,0
-616,526,0,0,0,0,0,0,0,0,0,-1,608,498,0,0
-609,526,0,0,0,0,0,0,0,0,0,-1,615,498,0,0
-602,526,0,0,0,0,0,0,0,0,0,-1,622,498,0,0
-595,526,0,0,0,0,0,0,0,0,0,-1,629,498,0,0
-588,526,0,0,0,0,0,0,0,0,0,-1,636,498,0,0
-581,526,0,0,0,0,0,0,0,0,0,-1,643,498,0,0
-574,526,0,0,0,0,0,0,0,0,0,-1,650,498,0,0
-567,526,0,0,0,0,0,0,0,0,0,-1,657,498,0,0
-560,526,0,0,0,0,0,0,0,0,0,-1,664,498,0,0
-553,526,0,0,0,0,0,0,0,0,0,-1,671,498,0,0
-546,526,0,0,0,0,0,0,0,0,0,-1,678,498,0,0
-539,526,0,0,0,0,0,0,0,0,0,-1,685,498,0,0
-532,526,0,0,0,0,0,0,0,0,0,-1,692,498,0,0
-525,526,0,0,0,0,0,0,0,0,0,-1,699,498,0,0
-518,526,0,0,0,0,0,0,0,0,0,-1,706,498,0,0
-511,526,0,0,0,0,0,0,0,0,0,-1,713,498,0,0
-504,526,0,0,0,0,0,0,0,0,0,-1,720,498,0,0
-497,526,0,0,0,0,0,0,0,0,0,-1,727,498,0,0
-490,526,0,0,0,0,0,0,0,0,0,-1,734,498,0,0
-483,526,0,0,0,0,0,0,0,0,0,-1,741,498,0,0
-476,526,0,0,0,0,0,0,0,0,0,-1,748,498,0,0
-469,526,0,0,0,0,0,0,0,0,0,-1,755,498,0,0
-462,526,0,0,0,0,0,0,0,0,0,-1,762,498,0,0
-455,526,0,0,0,0,0,0,0,0,0,-1,769,498,0,0
-448,526,0,0,0,0,0,0,0,0,0,-1,776,498,0,0
-441,526,0,0,0,0,0,0,0,0,0,-1,783,498,0,0
-434,526,-0.153564,-5.96649,0,0,0,0,0,0,0,-1,790,498,-0.153589,5.9665
-427,526,1.23206,-4.59808,0,0,0,0,0,0,0,-1,797,498,1.23208,4.59809
-420,526,0.758484,-5.79626,0,0,0,0,0,0,0,-1,804,498,0.758485,5.79626
-413,526,-0.720764,-9.76767,0,0,0,0,0,0,0,-1,811,498,-0.720737,9.76768
-406,526,0.0325928,-10.0363,0,0,0,0,0,0,0,-1,818,498,0.0326041,10.0363
-399,526,0.78595,-10.305,0,0,0,0,0,0,0,-1,825,498,0.785945,10.305
-392,526,-1.10022,-6.7597,0,0,0,0,0,0,0,-1,832,498,-1.10022,6.75971
-385,526,-0.932373,-9.28836,0,0,0,0,0,0,0,-1,839,498,-0.932369,9.28835
-378,526,0.00543213,-10.7099,0,0,0,0,0,0,0,-1,846,498,0.00544762,10.7099
-371,526,0.00360107,-11.0646,-0.00198772,0.00425974,-0.00294172,0.00542686,-0.00315484,-1.1931,0.00501219,0.0390176,853,498,0.00358176,11.0646
-364,526,-0.0263062,-11.4024,-0.00159298,0.00322265,-0.00243491,0.00423922,-0.00260954,-1.1753,0.00399127,0.0209705,860,498,-0.0262819,11.4024
-357,526,-0.103699,-11.7295,-0.00133177,0.00242451,-0.0020172,0.00330255,-0.0022098,-1.16026,0.00320333,0.0130923,867,498,-0.103691,11.7295
-350,526,-0.0844116,-12.1134,-0.00114357,0.00170671,-0.00162091,0.0024399,-0.00187676,-1.14601,0.00249928,0.0107873,874,498,-0.0843826,12.1134
-343,526,-0.107422,-12.5125,-0.000837825,0.00131435,-0.00141181,0.00201341,-0.00153689,-1.11103,0.00205591,0.0137314,881,498,-0.1074,12.5125
-336,526,-0.136841,-12.8654,-0.000510984,0.00100912,-0.00118794,0.00165935,-0.00116121,-1.06998,0.00163689,0.0139329,888,498,-0.136854,12.8654
-329,526,-0.136353,-13.2006,-0.000200027,0.000820946,-0.0010258,0.00145626,-0.000835342,-1.01628,0.00133915,0.0144201,895,498,-0.136333,13.2006
-322,526,-0.137268,-13.5098,5.76305e-05,0.000648359,-0.000845786,0.00124887,-0.000542881,-0.953387,0.0010609,0.00990937,902,498,-0.137271,13.5098
-315,526,-0.161682,-13.867,0.000326671,0.000604873,-0.000670679,0.00115072,-0.00021918,-0.88765,0.000849685,0.0090276,909,498,-0.161685,13.867
-308,526,-0.181946,-14.2264,0.000633638,0.000507331,-0.00046617,0.00104091,0.000100056,-0.718071,0.000663111,0.00873206,916,498,-0.181954,14.2264
-301,526,-0.197021,-14.5333,0.00100937,0.000259716,-0.000177316,0.00104919,0.000219891,-0.220933,0.000638906,0.0100487,923,498,-0.197032,14.5333
-294,526,-0.188477,-14.8314,0.00158616,-0.000471484,0.000127267,0.001594,-0.000479326,0.0615381,0.00125337,0.00929872,930,498,-0.188471,14.8314
-287,526,-0.187927,-15.1494,0.0024133,-0.00188257,0.000286741,0.00243235,-0.00190163,0.0663557,0.00250847,0.00926198,937,498,-0.187922,15.1493
-280,526,-0.204163,-15.4735,0.00293844,-0.00346009,0.000507079,0.00297838,-0.00350003,0.0785955,0.00374435,0.0126054,944,498,-0.204189,15.4735
-273,526,-0.190063,-15.798,0.00336637,-0.00562861,0.000965889,0.00346892,-0.00573116,0.105774,0.00536493,0.0106214,951,498,-0.190085,15.798
-266,526,-0.174194,-16.1024,0.00422749,-0.0082417,0.0015689,0.00442186,-0.00843607,0.123263,0.00754316,0.0100124,958,498,-0.17417,16.1024
-259,526,-0.120911,-16.3591,0.00509715,-0.0108755,0.00191283,0.00532303,-0.0111013,0.117542,0.00967626,0.0177759,965,498,-0.120914,16.3591
-252,526,-0.0924683,-16.5232,0.00528301,-0.0119396,0.00251719,0.00564338,-0.0123,0.142194,0.0105946,0.0329454,972,498,-0.0924508,16.5232
-245,526,0.074585,-16.506,0.0053745,-0.0147874,0.00325783,0.00588784,-0.0153007,0.156286,0.0126292,0.0391498,979,498,0.0746089,16.506
-238,526,0.37439,-16.5347,0.00525073,-0.0168724,0.00392578,0.00592671,-0.0175484,0.170518,0.0140961,0.0439745,986,498,0.374384,16.5347
-231,526,0.223877,-16.8395,0,0,0,0,0,0,0,-1,993,498,0.223905,16.8395
-224,526,-0.688232,-17.0555,0,0,0,0,0,0,0,-1,1000,498,-0.688234,17.0556
-217,526,-0.733582,-17.7231,0,0,0,0,0,0,0,-1,1007,498,-0.733554,17.7231
-210,526,-0.187988,-18.3642,0,0,0,0,0,0,0,-1,1014,498,-0.187984,18.3642
-203,526,-0.659302,-18.8818,0,0,0,0,0,0,0,-1,1021,498,-0.659273,18.8818
-196,526,-0.328247,-12.179,0,0,0,0,0,0,0,-1,1028,498,-0.328238,12.179
-189,526,0.401245,-5.96826,0,0,0,0,0,0,0,-1,1035,498,0.401197,5.96826
-182,526,1.7323,-2.99405,0,0,0,0,0,0,0,-1,1042,498,1.73226,2.99404
-175,526,2.27637,-2.07983,0,0,0,0,0,0,0,-1,1049,498,2.27639,2.07984
-168,526,2.12036,-1.66049,0,0,0,0,0,0,0,-1,1056,498,2.12035,1.66048
-161,526,2.09082,-1.20572,0,0,0,0,0,0,0,-1,1063,498,2.09086,1.2057
-154,526,-1.3446,-5.37799,0,0,0,0,0,0,0,-1,1070,498,-1.34457,5.37799
-147,526,-0.472656,-6.64996,0,0,0,0,0,0,0,-1,1077,498,-0.472659,6.64997
-140,526,0.422852,-8.03339,0,0,0,0,0,0,0,-1,1084,498,0.422844,8.0334
-133,526,1.09583,-9.2215,0,0,0,0,0,0,0,-1,1091,498,1.09581,9.2215
-126,526,3.42529,-2.36053,0,0,0,0,0,0,0,-1,1098,498,3.42523,2.36052
-119,526,2.7771,-0.764099,0,0,0,0,0,0,0,-1,1105,498,2.7771,0.764107
-112,526,2.57715,-1.1893,0,0,0,0,0,0,0,-1,1112,498,2.57718,1.1893
-105,526,0,0,0,0,0,0,0,0,0,-1,1119,498,0,0
-98,526,0,0,0,0,0,0,0,0,0,-1,1126,498,0,0
-91,526,0,0,0,0,0,0,0,0,0,-1,1133,498,0,0
-84,526,0,0,0,0,0,0,0,0,0,-1,1140,498,0,0
-77,526,0,0,0,0,0,0,0,0,0,-1,1147,498,0,0
-70,526,0,0,0,0,0,0,0,0,0,-1,1154,498,0,0
-63,526,0,0,0,0,0,0,0,0,0,-1,1161,498,0,0
-56,526,0,0,0,0,0,0,0,0,0,-1,1168,498,0,0
-49,526,0,0,0,0,0,0,0,0,0,-1,1175,498,0,0
-42,526,0,0,0,0,0,0,0,0,0,-1,1182,498,0,0
-35,526,0,0,0,0,0,0,0,0,0,-1,1189,498,0,0
-28,526,0,0,0,0,0,0,0,0,0,-1,1196,498,0,0
-21,526,0,0,0,0,0,0,0,0,0,-1,1203,498,0,0
-14,526,0,0,0,0,0,0,0,0,0,-1,1210,498,0,0
-7,526,0,0,0,0,0,0,0,0,0,-1,1217,498,0,0
0,526,0,0,0,0,0,0,0,0,0,-1,1224,498,0,0
7,526,0,0,0,0,0,0,0,0,0,-1,1231,498,0,0
14,526,0,0,0,0,0,0,0,0,0,-1,1238,498,0,0
21,526,0,0,0,0,0,0,0,0,0,-1,1245,498,0,0
28,526,0,0,0,0,0,0,0,0,0,-1,1252,498,0,0
35,526,0,0,0,0,0,0,0,0,0,-1,1259,498,0,0
42,526,0,0,0,0,0,0,0,0,0,-1,1266,498,0,0
49,526,0,0,0,0,0,0,0,0,0,-1,1273,498,0,0
56,526,0,0,0,0,0,0,0,0,0,-1,1280,498,0,0
63,526,0,0,0,0,0,0,0,0,0,-1,1287,498,0,0
70,526,0,0,0,0,0,0,0,0,0,-1,1294,498,0,0
77,526,0,0,0,0,0,0,0,0,0,-1,1301,498,0,0
84,526,0,0,0,0,0,0,0,0,0,-1,1308,498,0,0
91,526,0,0,0,0,0,0,0,0,0,-1,1315,498,0,0
98,526,0,0,0,0,0,0,0,0,0,-1,1322,498,0,0
105,526,0,0,0,0,0,0,0,0,0,-1,1329,498,0,0
112,526,0,0,0,0,0,0,0,0,0,-1,1336,498,0,0
119,526,0,0,0,0,0,0,0,0,0,-1,1343,498,0,0
126,526,0,0,0,0,0,0,0,0,0,-1,1350,498,0,0
133,526,0,0,0,0,0,0,0,0,0,-1,1357,498,0,0
140,526,0,0,0,0,0,0,0,0,0,-1,1364,498,0,0
147,526,0,0,0,0,0,0,0,0,0,-1,1371,498,0,0
154,526,0,0,0,0,0,0,0,0,0,-1,1378,498,0,0
161,526,0,0,0,0,0,0,0,0,0,-1,1385,498,0,0
168,526,0,0,0,0,0,0,0,0,0,-1,1392,498,0,0
175,526,0,0,0,0,0,0,0,0,0,-1,1399,498,0,0
182,526,0,0,0,0,0,0,0,0,0,-1,1406,498,0,0
189,526,0,0,0,0,0,0,0,0,0,-1,1413,498,0,0
196,526,0,0,0,0,0,0,0,0,0,-1,1420,498,0,0
203,526,0,0,0,0,0,0,0,0,0,-1,1427,498,0,0
210,526,0,0,0,0,0,0,0,0,0,-1,1434,498,0,0
217,526,0,0,0,0,0,0,0,0,0,-1,1441,498,0,0
224,526,0,0,0,0,0,0,0,0,0,-1,1448,498,0,0
231,526,7.93237,-1.30618,0,0,0,0,0,0,0,-1,1455,498,7.93238,1.30618
238,526,7.97717,-1.08197,0,0,0,0,0,0,0,-1,1462,498,7.97723,1.08196
245,526,7.2793,-0.792938,0,0,0,0,0,0,0,-1,1469,498,7.27931,0.792926
252,526,6.73523,-2.23608,0,0,0,0,0,0,0,-1,1476,498,6.73525,2.23608
259,526,6.22949,-1.84967,0,0,0,0,0,0,0,-1,1483,498,6.22953,1.84968
266,526,5.72375,-1.46329,0,0,0,0,0,0,0,-1,1490,498,5.72381,1.46328
273,526,4.33984,0.49173,0,0,0,0,0,0,0,-1,1497,498,4.33979,-0.491727
280,526,1.4585,-1.59897,0,0,0,0,0,0,0,-1,1504,498,1.45846,1.59895
287,526,1.46411,-2.40134,0,0,0,0,0,0,0,-1,1511,498,1.46406,2.40133
294,526,5.57471,-4.59085,0,0,0,0,0,0,0,-1,1518,498,5.57466,4.59084
301,526,4.42786,-3.99677,0,0,0,0,0,0,0,-1,1525,498,4.42788,3.99676
308,526,5.79529,-4.19366,0,0,0,0,0,0,0,-1,1532,498,5.79528,4.19368
315,526,5.09851,-5.20068,0,0,0,0,0,0,0,-1,1539,498,5.09851,5.20068
322,526,5.50708,-4.72348,0,0,0,0,0,0,0,-1,1546,498,5.50713,4.72347
329,526,3.88672,-4.345,0,0,0,0,0,0,0,-1,1553,498,3.88674,4.34501
336,526,4.97876,-2.23828,0,0,0,0,0,0,0,-1,1560,498,4.97877,2.23828
343,526,3.31665,-2.69696,0,0,0,0,0,0,0,-1,1567,498,3.31667,2.69696
350,526,6.06287,-6.12015,0,0,0,0,0,0,0,-1,1574,498,6.06286,6.12014
357,526,5.79736,-7.7854,0,0,0,0,0,0,0,-1,1581,498,5.79734,7.78539
364,526,7.31567,-16.3492,0,0,0,0,0,0,0,-1,1588,498,7.31572,16.3493
371,526,7.46643,-16.267,0,0,0,0,0,0,0,-1,1595,498,7.46637,16.267
378,526,7.47937,-15.9454,0,0,0,0,0,0,0,-1,1602,498,7.47932,15.9454
385,526,7.59985,-15.4241,0,0,0,0,0,0,0,-1,1609,498,7.59987,15.4241
392,526,7.71558,-15.0135,0.000653862,0.000244364,-0.000997628,0.00146754,-0.000569309,-0.684186,0.00121349,0.0434532,1616,498,7.71558,15.0135
399,526,7.60571,-14.6736,0.000284478,0.000595758,-0.00111793,0.00156883,-0.000688594,-0.854564,0.00133594,0.0225639,1623,498,7.60566,14.6736
406,526,7.67773,-14.2968,0.00037372,0.000691778,-0.000970633,0.00151632,-0.000450826,-0.866597,0.00118997,0.0126267,1630,498,7.67777,14.2968
413,526,7.67383,-13.9424,0.000590798,0.00100169,-0.000707134,0.00153262,5.98706e-05,-0.926773,0.00100238,0.0128469,1637,498,7.6738,13.9424
420,526,7.66553,-13.6138,0.000705833,0.00102301,-0.000510045,0.00139856,0.000330292,-0.936127,0.000844096,0.0135505,1644,498,7.66552,13.6138
427,526,7.67456,-13.266,0.000725864,0.00095638,-0.000297089,0.00115979,0.000522459,-0.97044,0.000670696,0.0140582,1651,498,7.67458,13.266
434,526,7.6582,-12.9165,0.000764051,0.000867112,-6.62617e-05,0.000899522,0.000731641,-1.11589,0.000552293,0.0123192,1658,498,7.65818,12.9165
441,526,7.65002,-12.5463,0.000875233,0.000734431,0.000198216,0.00101518,0.000594485,0.61476,0.00058897,0.0104186,1665,498,7.64997,12.5463
448,526,7.66516,-12.2011,0.000971642,0.000537498,0.000475341,0.00127713,0.000232009,0.571206,0.000785588,0.00941126,1672,498,7.66512,12.2011
455,526,7.65454,-11.8415,0.000959629,0.0003423,0.0006911,0.00140786,-0.000105933,0.575375,0.000975804,0.0123052,1679,498,7.65453,11.8415
462,526,7.64807,-11.4638,0.000956356,8.28664e-05,0.000879442,0.00150153,-0.000462307,0.55493,0.00118556,0.0109124,1686,498,7.64801,11.4638
469,526,7.64917,-11.1074,0.000965555,-0.000237099,0.00108606,0.00160565,-0.000877191,0.532567,0.00145389,0.00815404,1693,498,7.64919,11.1074
476,526,7.62878,-10.7199,0.000802291,-0.000652334,0.00117266,0.00145487,-0.00130492,0.507819,0.00159415,0.00911749,1700,498,7.62874,10.7199
483,526,7.63208,-10.3033,0.000606618,-0.00118822,0.00116263,0.0011779,-0.0017595,0.456718,0.00170695,0.0117372,1707,498,7.6321,10.3033
490,526,7.71851,-9.86929,0.000165529,-0.00185872,0.00100596,0.000580415,-0.0022736,0.391173,0.00174175,0.0242178,1714,498,7.71848,9.86929
497,526,7.64246,-9.65295,-0.000437888,-0.00263941,0.000813924,-0.000169655,-0.00290765,0.318347,0.00188443,0.0303858,1721,498,7.64246,9.65297
504,526,7.61914,-9.22299,-0.00140593,-0.0034016,0.000243091,-0.00137674,-0.00343078,0.119482,0.00199359,0.0337875,1728,498,7.61908,9.223
511,526,7.67896,-8.82123,-0.0022095,-0.00446983,-0.000212741,-0.00218965,-0.00448968,-0.093031,0.00259238,0.0410878,1735,498,7.67899,8.82123
518,526,7.76721,-8.43915,-0.00341936,-0.00535995,-0.000920612,-0.00305212,-0.00572719,-0.379564,0.00330898,0.0433642,1742,498,7.76716,8.43916
525,526,7.92932,-8.09033,0,0,0,0,0,0,0,-1,1749,498,7.9293,8.09032
532,526,3.54285,-2.81274,0,0,0,0,0,0,0,-1,1756,498,3.54284,2.81273
539,526,3.29407,0.932312,0,0,0,0,0,0,0,-1,1763,498,3.2941,-0.93232
546,526,3.36731,1.07721,0,0,0,0,0,0,0,-1,1770,498,3.36735,-1.07719
553,526,3.40796,1.37137,0,0,0,0,0,0,0,-1,1777,498,3.40792,-1.37138
560,526,0,0,0,0,0,0,0,0,0,-1,1784,498,0,0
567,526,0,0,0,0,0,0,0,0,0,-1,1791,498,0,0
574,526,0,0,0,0,0,0,0,0,0,-1,1798,498,0,0
581,526,0,0,0,0,0,0,0,0,0,-1,1805,498,0,0
588,526,0,0,0,0,0,0,0,0,0,-1,1812,498,0,0
595,526,0,0,0,0,0,0,0,0,0,-1,1819,498,0,0
602,526,0,0,0,0,0,0,0,0,0,-1,1826,498,0,0
609,526,0,0,0,0,0,0,0,0,0,-1,1833,498,0,0
616,526,0,0,0,0,0,0,0,0,0,-1,1840,498,0,0
623,526,0,0,0,0,0,0,0,0,0,-1,1847,498,0,0
630,526,0,0,0,0,0,0,0,0,0,-1,1854,498,0,0
637,526,0,0,0,0,0,0,0,0,0,-1,1861,498,0,0
644,526,0,0,0,0,0,0,0,0,0,-1,1868,498,0,0
651,526,0,0,0,0,0,0,0,0,0,-1,1875,498,0,0
658,526,0,0,0,0,0,0,0,0,0,-1,1882,498,0,0
665,526,0,0,0,0,0,0,0,0,0,-1,1889,498,0,0
672,526,0,0,0,0,0,0,0,0,0,-1,1896,498,0,0
679,526,0,0,0,0,0,0,0,0,0,-1,1903,498,0,0
686,526,0,0,0,0,0,0,0,0,0,-1,1910,498,0,0
693,526,0,0,0,0,0,0,0,0,0,-1,1917,498,0,0
700,526,0,0,0,0,0,0,0,0,0,-1,1924,498,0,0
707,526,0,0,0,0,0,0,0,0,0,-1,1931,498,0,0
714,526,0,0,0,0,0,0,0,0,0,-1,1938,498,0,0
721,526,0,0,0,0,0,0,0,0,0,-1,1945,498,0,0
728,526,0,0,0,0,0,0,0,0,0,-1,1952,498,0,0
735,526,0,0,0,0,0,0,0,0,0,-1,1959,498,0,0
742,526,0,0,0,0,0,0,0,0,0,-1,1966,498,0,0
749,526,0,0,0,0,0,0,0,0,0,-1,1973,498,0,0
756,526,0,0,0,0,0,0,0,0,0,-1,1980,498,0,0
763,526,0,0,0,0,0,0,0,0,0,-1,1987,498,0,0
770,526,0,0,0,0,0,0,0,0,0,-1,1994,498,0,0
777,526,0,0,0,0,0,0,0,0,0,-1,2001,498,0,0
784,526,0,0,0,0,0,0,0,0,0,-1,2008,498,0,0
791,526,0,0,0,0,0,0,0,0,0,-1,2015,498,0,0
798,526,0,0,0,0,0,0,0,0,0,-1,2022,498,0,0
805,526,0,0,0,0,0,0,0,0,0,-1,2029,498,0,0
812,526,0,0,0,0,0,0,0,0,0,-1,2036,498,0,0
-700,519,0,0,0,0,0,0,0,0,0,-1,524,505,0,0
-693,519,0,0,0,0,0,0,0,0,0,-1,531,505,0,0
-686,519,0,0,0,0,0,0,0,0,0,-1,538,505,0,0
-679,519,0,0,0,0,0,0,0,0,0,-1,545,505,0,0
-672,519,0,0,0,0,0,0,0,0,0,-1,552,505,0,0
-665,519,0,0,0,0,0,0,0,0,0,-1,559,505,0,0
-658,519,0,0,0,0,0,0,0,0,0,-1,566,505,0,0
-651,519,0,0,0,0,0,0,0,0,0,-1,573,505,0,0
-644,519,0,0,0,0,0,0,0,0,0,-1,580,505,0,0
-637,519,0,0,0,0,0,0,0,0,0,-1,587,505,0,0
-630,519,0,0,0,0,0,0,0,0,0,-1,594,505,0,0
-623,519,0,0,0,0,0,0,0,0,0,-1,601,505,0,0
-616,519,0,0,0,0,0,0,0,0,0,-1,608,505,0,0
-609,519,0,0,0,0,0,0,0,0,0,-1,615,505,0,0
-602,519,0,0,0,0,0,0,0,0,0,-1,622,505,0,0
-595,519,0,0,0,0,0,0,0,0,0,-1,629,505,0,0
-588,519,0,0,0,0,0,0,0,0,0,-1,636,505,0,0
-581,519,0,0,0,0,0,0,0,0,0,-1,643,505,0,0
-574,519,0,0,0,0,0,0,0,0,0,-1,650,505,0,0
-567,519,0,0,0,0,0,0,0,0,0,-1,657,505,0,0
-560,519,0,0,0,0,0,0,0,0,0,-1,664,505,0,0
-553,519,0,0,0,0,0,0,0,0,0,-1,671,505,0,0
-546,519,0,0,0,0,0,0,0,0,0,-1,678,505,0,0
-539,519,0,0,0,0,0,0,0,0,0,-1,685,505,0,0
-532,519,0,0,0,0,0,0,0,0,0,-1,692,505,0,0
-525,519,0,0,0,0,0,0,0,0,0,-1,699,505,0,0
-518,519,0,0,0,0,0,0,0,0,0,-1,706,505,0,0
-511,519,0,0,0,0,0,0,0,0,0,-1,713,505,0,0
-504,519,0,0,0,0,0,0,0,0,0,-1,720,505,0,0
-497,519,0,0,0,0,0,0,0,0,0,-1,727,505,0,0
-490,519,0,0,0,0,0,0,0,0,0,-1,734,505,0,0
-483,519,0,0,0,0,0,0,0,0,0,-1,741,505,0,0
-476,519,0,0,0,0,0,0,0,0,0,-1,748,505,0,0
-469,519,0,0,0,0,0,0,0,0,0,-1,755,505,0,0
-462,519,0,0,0,0,0,0,0,0,0,-1,762,505,0,0
-455,519,0,0,0,0,0,0,0,0,0,-1,769,505,0,0
-448,519,0,0,0,0,0,0,0,0,0,-1,776,505,0,0
-441,519,1.34839,-5.29346,0,0,0,0,0,0,0,-1,783,505,1.3484,5.29347
-434,519,0.949585,-5.77313,0,0,0,0,0,0,0,-1,790,505,0.949598,5.77315
-427,519,0.138489,-5.67401,0,0,0,0,0,0,0,-1,797,505,0.138516,5.67402
-420,519,0.713989,-6.8869,0,0,0,0,0,0,0,-1,804,505,0.713969,6.88691
-413,519,-1.29419,-9.25452,0,0,0,0,0,0,0,-1,811,505,-1.29422,9.25452
-406,519,-0.64386,-9.55621,0,0,0,0,0,0,0,-1,818,505,-0.643865,9.55624
-399,519,-0.541565,-9.71631,0,0,0,0,0,0,0,-1,825,505,-0.541584,9.71632
-392,519,-0.255859,-9.64789,0,0,0,0,0,0,0,-1,832,505,-0.255862,9.6479
-385,519,-0.302063,-10.1473,0,0,0,0,0,0,0,-1,839,505,-0.30208,10.1472
-378,519,-0.447571,-10.5162,-0.00193066,0.00509638,-0.00323972,0.00636205,-0.00319633,-1.19836,0.00561851,0.033922,846,505,-0.447573,10.5162
-371,519,-0.408813,-10.9423,-0.00157003,0.00388098,-0.00257331,0.00490384,-0.0025929,-1.19245,0.00439626,0.0185867,853,505,-0.408818,10.9423
-364,519,-0.430603,-11.3451,-0.00122616,0.00295753,-0.00205411,0.00379744,-0.00206607,-1.18265,0.00343414,0.0114549,860,505,-0.430614,11.3451
-357,519,-0.407104,-11.7554,-0.000946069,0.00224829,-0.00164536,0.00294418,-0.00164196,-1.17067,0.00268316,0.00985435,867,505,-0.40708,11.7553
-350,519,-0.407349,-12.1263,-0.00071022,0.00158682,-0.0012782,0.00215669,-0.0012801,-1.1514,0.00200563,0.0115104,874,505,-0.407325,12.1264
-343,519,-0.450562,-12.466,-0.000392698,0.00122061,-0.0010714,0.00175507,-0.000927158,-1.10807,0.00157298,0.0146447,881,505,-0.450574,12.466
-336,519,-0.484863,-12.8205,-6.596e-05,0.000917226,-0.000858806,0.00141518,-0.000563918,-1.04534,0.00117734,0.0141149,888,505,-0.484845,12.8205
-329,519,-0.482361,-13.163,0.000261499,0.00071406,-0.000731727,0.0012537,-0.000278136,-0.935355,0.000942293,0.0124898,895,505,-0.482341,13.163
-322,519,-0.4776,-13.4975,0.000535892,0.000523029,-0.000590031,0.00111953,-6.06056e-05,-0.779948,0.000767351,0.0107744,902,505,-0.477621,13.4975
-315,519,-0.479004,-13.8622,0.000821047,0.000427547,-0.000452629,0.00111784,0.000130755,-0.580376,0.00070569,0.00909511,909,505,-0.47899,13.8622
-308,519,-0.512573,-14.2346,0.00114866,0.00027312,-0.000291335,0.00123674,0.000185039,-0.293598,0.000770255,0.00831763,916,505,-0.512563,14.2346
-301,519,-0.532837,-14.5489,0.00156957,-3.65572e-05,-4.2533e-05,0.00157069,-3.76828e-05,-0.026457,0.00105991,0.0126964,923,505,-0.53283,14.5489
-294,519,-0.504883,-14.8342,0.00220907,-0.000904249,0.00022623,0.00222543,-0.000920602,0.07216,0.00186771,0.0142087,930,505,-0.504901,14.8343
-287,519,-0.538635,-15.1509,0.00315641,-0.0026396,0.000315586,0.00317355,-0.00265673,0.0542352,0.00337052,0.0102274,937,505,-0.538622,15.1509
-280,519,-0.560547,-15.485,0.00381229,-0.00454884,0.00050415,0.00384258,-0.00457913,0.0600071,0.00486847,0.0158584,944,505,-0.560517,15.485
-273,519,-0.505859,-15.8075,0.00440738,-0.00719635,0.00097293,0.00448839,-0.00727736,0.0830733,0.00685628,0.0260984,951,505,-0.505856,15.8075
-266,519,-0.500793,-16.1163,0.00556703,-0.0103578,0.00167297,0.00574088,-0.0105317,0.103548,0.00952971,0.0354801,958,505,-0.500773,16.1163
-259,519,-0.388123,-16.3681,0,0,0,0,0,0,0,-1,965,505,-0.388153,16.3681
-252,519,-0.394287,-16.4233,0,0,0,0,0,0,0,-1,972,505,-0.394308,16.4233
-245,519,0.03125,-15.9658,0,0,0,0,0,0,0,-1,979,505,0.0312769,15.9658
-238,519,0.481201,-15.9402,0,0,0,0,0,0,0,-1,986,505,0.481182,15.9402
-231,519,0.337585,-11.2798,0,0,0,0,0,0,0,-1,993,505,0.337568,11.2798
-224,519,-0.0494995,-7.97394,0,0,0,0,0,0,0,-1,1000,505,-0.0495123,7.97392
-217,519,-2.97125,-4.84393,0,0,0,0,0,0,0,-1,1007,505,-2.97128,4.84393
-210,519,-2.14398,-4.74774,0,0,0,0,0,0,0,-1,1014,505,-2.14397,4.74775
-203,519,-0.513611,-5.39017,0,0,0,0,0,0,0,-1,1021,505,-0.513585,5.39017
-196,519,-0.374023,-5.41635,0,0,0,0,0,0,0,-1,1028,505,-0.374047,5.41635
-189,519,-0.234497,-5.44254,0,0,0,0,0,0,0,-1,1035,505,-0.234508,5.44253
-182,519,2.76697,-1.19659,0,0,0,0,0,0,0,-1,1042,505,2.76696,1.19661
-175,519,2.31323,-0.960938,0,0,0,0,0,0,0,-1,1049,505,2.31319,0.960941
-168,519,2.01074,-0.721405,0,0,0,0,0,0,0,-1,1056,505,2.01072,0.721407
-161,519,2.32056,-0.522339,0,0,0,0,0,0,0,-1,1063,505,2.32057,0.522328
-154,519,2.55566,0.116669,0,0,0,0,0,0,0,-1,1070,505,2.55563,-0.116661
-147,519,-0.55127,-6.14001,0,0,0,0,0,0,0,-1,1077,505,-0.551252,6.14001
-140,519,0.240601,-7.53503,0,0,0,0,0,0,0,-1,1084,505,0.240653,7.53501
-133,519,2.70911,-4.4516,0,0,0,0,0,0,0,-1,1091,505,2.70915,4.45161
-126,519,0,0,0,0,0,0,0,0,0,-1,1098,505,0,0
-119,519,0,0,0,0,0,0,0,0,0,-1,1105,505,0,0
-112,519,0,0,0,0,0,0,0,0,0,-1,1112,505,0,0
-105,519,0,0,0,0,0,0,0,0,0,-1,1119,505,0,0
-98,519,0,0,0,0,0,0,0,0,0,-1,1126,505,0,0
-91,519,0,0,0,0,0,0,0,0,0,-1,1133,505,0,0
-84,519,0,0,0,0,0,0,0,0,0,-1,1140,505,0,0
-77,519,0,0,0,0,0,0,0,0,0,-1,1147,505,0,0
-70,519,0,0,0,0,0,0,0,0,0,-1,1154,505,0,0
-63,519,0,0,0,0,0,0,0,0,0,-1,1161,505,0,0
-56,519,0,0,0,0,0,0,0,0,0,-1,1168,505,0,0
-49,519,0,0,0,0,0,0,0,0,0,-1,1175,505,0,0
-42,519,0,0,0,0,0,0,0,0,0,-1,1182,505,0,0
-35,519,0,0,0,0,0,0,0,0,0,-1,1189,505,0,0
-28,519,0,0,0,0,0,0,0,0,0,-1,1196,505,0,0
-21,519,0,0,0,0,0,0,0,0,0,-1,1203,505,0,0
-14,519,0,0,0,0,0,0,0,0,0,-1,1210,505,0,0
-7,519,0,0,0,0,0,0,0,0,0,-1,1217,505,0,0
0,519,0,0,0,0,0,0,0,0,0,-1,1224,505,0,0
7,519,0,0,0,0,0,0,0,0,0,-1,1231,505,0,0
14,519,0,0,0,0,0,0,0,0,0,-1,1238,505,0,0
21,519,0,0,0,0,0,0,0,0,0,-1,1245,505,0,0
28,519,0,0,0,0,0,0,0,0,0,-1,1252,505,0,0
35,519,0,0,0,0,0,0,0,0,0,-1,1259,505,0,0
42,519,0,0,0,0,0,0,0,0,0,-1,1266,505,0,0
49,519,0,0,0,0,0,0,0,0,0,-1,1273,505,0,0
56,519,0,0,0,0,0,0,0,0,0,-1,1280,505,0,0
63,519,0,0,0,0,0,0,0,0,0,-1,1287,505,0,0
70,519,0,0,0,0,0,0,0,0,0,-1,1294,505,0,0
77,519,0,0,0,0,0,0,0,0,0,-1,1301,505,0,0
84,519,0,0,0,0,0,0,0,0,0,-1,1308,505,0,0
91,519,0,0,0,0,0,0,0,0,0,-1,1315,505,0,0
98,519,0,0,0,0,0,0,0,0,0,-1,1322,505,0,0
105,519,0,0,0,0,0,0,0,0,0,-1,1329,505,0,0
112,519,0,0,0,0,0,0,0,0,0,-1,1336,505,0,0
119,519,0,0,0,0,0,0,0,0,0,-1,1343,505,0,0
126,519,0,0,0,0,0,0,0,0,0,-1,1350,505,0,0
133,519,0,0,0,0,0,0,0,0,0,-1,1357,505,0,0
140,519,0,0,0,0,0,0,0,0,0,-1,1364,505,0,0
147,519,0,0,0,0,0,0,0,0,0,-1,1371,505,0,0
154,519,0,0,0,0,0,0,0,0,0,-1,1378,505,0,0
161,519,0,0,0,0,0,0,0,0,0,-1,1385,505,0,0
168,519,0,0,0,0,0,0,0,0,0,-1,1392,505,0,0
175,519,0,0,0,0,0,0,0,0,0,-1,1399,505,0,0
182,519,0,0,0,0,0,0,0,0,0,-1,1406,505,0,0
189,519,0,0,0,0,0,0,0,0,0,-1,1413,505,0,0
196,519,0,0,0,0,0,0,0,0,0,-1,1420,505,0,0
203,519,0,0,0,0,0,0,0,0,0,-1,1427,505,0,0
210,519,0,0,0,0,0,0,0,0,0,-1,1434,505,0,0
217,519,0,0,0,0,0,0,0,0,0,-1,1441,505,0,0
224,519,0,0,0,0,0,0,0,0,0,-1,1448,505,0,0
231,519,0,0,0,0,0,0,0,0,0,-1,1455,505,0,0
238,519,0,0,0,0,0,0,0,0,0,-1,1462,505,0,0
245,519,0,0,0,0,0,0,0,0,0,-1,1469,505,0,0
252,519,5.26208,0.0938416,0,0,0,0,0,0,0,-1,1476,505,5.26207,-0.0938493
259,519,6.14246,-1.36441,0,0,0,0,0,0,0,-1,1483,505,6.14241,1.36441
266,519,5.31909,-0.400787,0,0,0,0,0,0,0,-1,1490,505,5.31912,0.400773
273,519,4.02393,0.325531,0,0,0,0,0,0,0,-1,1497,505,4.0239,-0.325522
280,519,4.68848,0.53006,0,0,0,0,0,0,0,-1,1504,505,4.68842,-0.530073
287,519,7.9519,-3.80801,0,0,0,0,0,0,0,-1,1511,505,7.95193,3.808
294,519,6.92273,-3.38889,0,0,0,0,0,0,0,-1,1518,505,6.92268,3.38888
301,519,5.35669,-2.92661,0,0,0,0,0,0,0,-1,1525,505,5.35675,2.9266
308,519,7.37549,-5.64529,0,0,0,0,0,0,0,-1,1532,505,7.3755,5.64529
315,519,6.30029,-4.53754,0,0,0,0,0,0,0,-1,1539,505,6.30024,4.53753
322,519,5.84302,-5.45117,0,0,0,0,0,0,0,-1,1546,505,5.84303,5.45116
329,519,4.92407,0.62384,0,0,0,0,0,0,0,-1,1553,505,4.92403,-0.623832
336,519,3.10095,-0.329285,0,0,0,0,0,0,0,-1,1560,505,3.1009,0.329283
343,519,2.49146,-2.31119,0,0,0,0,0,0,0,-1,1567,505,2.49145,2.31119
350,519,3.47729,-2.22516,0,0,0,0,0,0,0,-1,1574,505,3.47726,2.22515
357,519,4.51917,-4.51691,0,0,0,0,0,0,0,-1,1581,505,4.51914,4.51691
364,519,3.54626,-7.20673,0,0,0,0,0,0,0,-1,1588,505,3.54622,7.20675
371,519,5.349,-8.20068,0,0,0,0,0,0,0,-1,1595,505,5.34898,8.20068
378,519,6.36597,-10.0967,0,0,0,0,0,0,0,-1,1602,505,6.36597,10.0967
385,519,6.24756,-9.72186,0,0,0,0,0,0,0,-1,1609,505,6.24752,9.72183
392,519,7.88257,-15.2707,0,0,0,0,0,0,0,-1,1616,505,7.88261,15.2707
399,519,7.84082,-14.67,0,0,0,0,0,0,0,-1,1623,505,7.84087,14.67
406,519,7.98975,-14.3087,0.00108839,0.000440747,-0.00157843,0.00237587,-0.000846732,-0.684224,0.00192913,0.0331219,1630,505,7.98977,14.3087
413,519,8.06384,-13.9739,0.00127033,0.000804477,-0.00124243,0.00230148,-0.00022667,-0.692735,0.00161519,0.0156705,1637,505,8.06378,13.974
420,519,8.02393,-13.6036,0.00123755,0.000822568,-0.000993955,0.00204544,1.46774e-05,-0.6825,0.00135876,0.0161388,1644,505,8.02398,13.6036
427,519,8.02637,-13.2808,0.00103899,0.000781068,-0.000742348,0.0016635,0.000156563,-0.699396,0.00106067,0.0147249,1651,505,8.02638,13.2808
434,519,8.02856,-12.9312,0.000808259,0.000776707,-0.00050099,0.00129372,0.000291244,-0.769659,0.000783652,0.0127701,1658,505,8.02856,12.9311
441,519,8.0155,-12.5524,0.000677395,0.000745347,-0.000228269,0.000942154,0.000480587,-0.859277,0.00054399,0.0118855,1665,505,8.01549,12.5524
448,519,8.02368,-12.1962,0.00061508,0.000613474,5.09727e-05,0.000665256,0.000563298,0.777519,0.000413727,0.00889445,1672,505,8.02364,12.1962
455,519,8.01782,-11.833,0.000491447,0.000479849,0.00025668,0.000742394,0.000228903,0.774104,0.000438993,0.00982276,1679,505,8.01783,11.833
462,519,8.01135,-11.4621,0.000420116,0.000280425,0.000447653,0.00080334,-0.000102799,0.708009,0.000572909,0.0102105,1686,505,8.01131,11.4621
469,519,8.02063,-11.0884,0.000416777,-6.16548e-06,0.000663733,0.000901913,-0.000491302,0.631178,0.000815935,0.0109028,1693,505,8.02058,11.0884
476,519,8.00195,-10.702,0.00028356,-0.000378467,0.0007756,0.000795829,-0.000890736,0.583708,0.000974252,0.0122492,1700,505,8.00198,10.702
483,519,7.97864,-10.3105,0.000119245,-0.000854685,0.000794806,0.000564402,-0.00129984,0.510551,0.00110389,0.012647,1707,505,7.9786,10.3106
490,519,7.99023,-9.88849,-0.000291138,-0.00147658,0.000620345,-2.58699e-05,-0.00174185,0.404083,0.00115271,0.0108336,1714,505,7.99018,9.88847
497,519,7.98682,-9.53723,-0.000754775,-0.00215991,0.000430142,-0.000633557,-0.00228113,0.274687,0.00135969,0.0154167,1721,505,7.98683,9.53726
504,519,7.94751,-9.14459,-0.00144863,-0.00286142,4.24407e-05,-0.00144736,-0.00286269,0.0300044,0.00165281,0.0160428,1728,505,7.94753,9.1446
511,519,7.9458,-8.75702,-0.00240565,-0.00371368,-0.000451975,-0.00226467,-0.00385466,-0.302357,0.00223682,0.0207721,1735,505,7.94586,8.757
518,519,7.94495,-8.49536,-0.0037915,-0.00442588,-0.00119891,-0.00286853,-0.00534885,-0.65608,0.00309087,0.0418661,1742,505,7.94496,8.49535
525,519,8.0199,-8.2381,0,0,0,0,0,0,0,-1,1749,505,8.01991,8.23808
532,519,3.5155,-2.86511,0,0,0,0,0,0,0,-1,1756,505,3.51554,2.8651
539,519,3.30005,0.0229797,0,0,0,0,0,0,0,-1,1763,505,3.30008,-0.0229869
546,519,4.62024,-2.89774,0,0,0,0,0,0,0,-1,1770,505,4.62023,2.89775
553,519,4.14136,0.0667419,0,0,0,0,0,0,0,-1,1777,505,4.14141,-0.0667503
560,519,3.77856,0.279724,0,0,0,0,0,0,0,-1,1784,505,3.77861,-0.279731
567,519,0,0,0,0,0,0,0,0,0,-1,1791,505,0,0
574,519,0,0,0,0,0,0,0,0,0,-1,1798,505,0,0
581,519,0,0,0,0,0,0,0,0,0,-1,1805,505,0,0
588,519,0,0,0,0,0,0,0,0,0,-1,1812,505,0,0
595,519,0,0,0,0,0,0,0,0,0,-1,1819,505,0,0
602,519,0,0,0,0,0,0,0,0,0,-1,1826,505,0,0
609,519,0,0,0,0,0,0,0,0,0,-1,1833,505,0,0
616,519,0,0,0,0,0,0,0,0,0,-1,1840,505,0,0
623,519,0,0,0,0,0,0,0,0,0,-1,1847,505,0,0
630,519,0,0,0,0,0,0,0,0,0,-1,1854,505,0,0
637,519,0,0,0,0,0,0,0,0,0,-1,1861,505,0,0
644,519,0,0,0,0,0,0,0,0,0,-1,1868,505,0,0
651,519,0,0,0,0,0,0,0,0,0,-1,1875,505,0,0
658,519,0,0,0,0,0,0,0,0,0,-1,1882,505,0,0
665,519,0,0,0,0,0,0,0,0,0,-1,1889,505,0,0
672,519,0,0,0,0,0,0,0,0,0,-1,1896,505,0,0
679,519,0,0,0,0,0,0,0,0,0,-1,1903,505,0,0
686,519,0,0,0,0,0,0,0,0,0,-1,1910,505,0,0
693,519,0,0,0,0,0,0,0,0,0,-1,1917,505,0,0
700,519,0,0,0,0,0,0,0,0,0,-1,1924,505,0,0
707,519,0,0,0,0,0,0,0,0,0,-1,1931,505,0,0
714,519,0,0,0,0,0,0,0,0,0,-1,1938,505,0,0
721,519,0,0,0,0,0,0,0,0,0,-1,1945,505,0,0
728,519,0,0,0,0,0,0,0,0,0,-1,1952,505,0,0
735,519,0,0,0,0,0,0,0,0,0,-1,1959,505,0,0
742,519,0,0,0,0,0,0,0,0,0,-1,1966,505,0,0
749,519,0,0,0,0,0,0,0,0,0,-1,1973,505,0,0
756,519,0,0,0,0,0,0,0,0,0,-1,1980,505,0,0
763,519,0,0,0,0,0,0,0,0,0,-1,1987,505,0,0
770,519,0,0,0,0,0,0,0,0,0,-1,1994,505,0,0
777,519,0,0,0,0,0,0,0,0,0,-1,2001,505,0,0
784,519,0,0,0,0,0,0,0,0,0,-1,2008,505,0,0
791,519,0,0,0,0,0,0,0,0,0,-1,2015,505,0,0
798,519,0,0,0,0,0,0,0,0,0,-1,2022,505,0,0
805,519,0,0,0,0,0,0,0,0,0,-1,2029,505,0,0
812,519,0,0,0,0,0,0,0,0,0,-1,2036,505,0,0
-700,512,0,0,0,0,0,0,0,0,0,-1,524,512,0,0
-693,512,0,0,0,0,0,0,0,0,0,-1,531,512,0,0
-686,512,0,0,0,0,0,0,0,0,0,-1,538,512,0,0
-679,512,0,0,0,0,0,0,0,0,0,-1,545,512,0,0
-672,512,0,0,0,0,0,0,0,0,0,-1,552,512,0,0
-665,512,0,0,0,0,0,0,0,0,0,-1,559,512,0,0
-658,512,0,0,0,0,0,0,0,0,0,-1,566,512,0,0
-651,512,0,0,0,0,0,0,0,0,0,-1,573,512,0,0
-644,512,0,0,0,0,0,0,0,0,0,-1,580,512,0,0
-637,512,0,0,0,0,0,0,0,0,0,-1,587,512,0,0
-630,512,0,0,0,0,0,0,0,0,0,-1,594,512,0,0
-623,512,0,0,0,0,0,0,0,0,0,-1,601,512,0,0
-616,512,0,0,0,0,0,0,0,0,0,-1,608,512,0,0
-609,512,0,0,0,0,0,0,0,0,0,-1,615,512,0,0
-602,512,0,0,0,0,0,0,0,0,0,-1,622,512,0,0
-595,512,0,0,0,0,0,0,0,0,0,-1,629,512,0,0
-588,512,0,0,0,0,0,0,0,0,0,-1,636,512,0,0
-581,512,0,0,0,0,0,0,0,0,0,-1,643,512,0,0
-574,512,0,0,0,0,0,0,0,0,0,-1,650,512,0,0
-567,512,0,0,0,0,0,0,0,0,0,-1,657,512,0,0
-560,512,0,0,0,0,0,0,0,0,0,-1,664,512,0,0
-553,512,0,0,0,0,0,0,0,0,0,-1,671,512,0,0
-546,512,0,0,0,0,0,0,0,0,0,-1,678,512,0,0
-539,512,0,0,0,0,0,0,0,0,0,-1,685,512,0,0
-532,512,0,0,0,0,0,0,0,0,0,-1,692,512,0,0
-525,512,0,0,0,0,0,0,0,0,0,-1,699,512,0,0
-518,512,0,0,0,0,0,0,0,0,0,-1,706,512,0,0
-511,512,0,0,0,0,0,0,0,0,0,-1,713,512,0,0
-504,512,0,0,0,0,0,0,0,0,0,-1,720,512,0,0
-497,512,0,0,0,0,0,0,0,0,0,-1,727,512,0,0
-490,512,0,0,0,0,0,0,0,0,0,-1,734,512,0,0
-483,512,0,0,0,0,0,0,0,0,0,-1,741,512,0,0
-476,512,0,0,0,0,0,0,0,0,0,-1,748,512,0,0
-469,512,0,0,0,0,0,0,0,0,0,-1,755,512,0,0
-462,512,0,0,0,0,0,0,0,0,0,-1,762,512,0,0
-455,512,0,0,0,0,0,0,0,0,0,-1,769,512,0,0
-448,512,1.96283,-4.15674,0,0,0,0,0,0,0,-1,776,512,1.96285,4.15677
-441,512,1.78198,-4.88824,0,0,0,0,0,0,0,-1,783,512,1.78201,4.88826
-434,512,1.32996,-7.28003,0,0,0,0,0,0,0,-1,790,512,1.32993,7.28003
-427,512,0.427734,-6.66571,0,0,0,0,0,0,0,-1,797,512,0.427713,6.6657
-420,512,-0.0951538,-7.87762,0,0,0,0,0,0,0,-1,804,512,-0.0951493,7.87765
-413,512,-1.5838,-8.56543,0,0,0,0,0,0,0,-1,811,512,-1.58378,8.56542
-406,512,-1.38434,-8.89771,0,0,0,0,0,0,0,-1,818,512,-1.38436,8.8977
-399,512,-0.639282,-9.21051,0,0,0,0,0,0,0,-1,825,512,-0.639307,9.21054
-392,512,-0.683289,-9.71851,-0.00182087,0.00769933,-0.00445095,0.00945609,-0.00357764,-1.19487,0.00777596,0.0375998,832,512,-0.683307,9.71848
-385,512,-0.717224,-10.215,-0.00175353,0.0058151,-0.00348377,0.00717449,-0.00311292,-1.19876,0.00609178,0.0204131,839,512,-0.717252,10.215
-378,512,-0.768555,-10.5972,-0.00143152,0.00436254,-0.00280262,0.00549632,-0.0025653,-1.18638,0.00475582,0.0158969,846,512,-0.768559,10.5973
-371,512,-0.783813,-10.981,-0.00113684,0.00322578,-0.0022413,0.00417202,-0.00208307,-1.17132,0.0036779,0.0122691,853,512,-0.783802,10.981
-364,512,-0.769897,-11.4041,-0.000851803,0.00236733,-0.00177495,0.00315384,-0.00163831,-1.15368,0.00281249,0.00951291,860,512,-0.769902,11.4041
-357,512,-0.757446,-11.764,-0.000559853,0.00172464,-0.00139792,0.00238764,-0.00122285,-1.12794,0.00212037,0.0107579,867,512,-0.757425,11.7641
-350,512,-0.763306,-12.1266,-0.000285349,0.00113955,-0.0010838,0.0017241,-0.000869896,-1.07617,0.00152447,0.0116606,874,512,-0.763321,12.1267
-343,512,-0.800842,-12.4641,4.20035e-05,0.000815347,-0.00089989,0.00140812,-0.000550772,-0.988315,0.00116652,0.0127286,881,512,-0.800847,12.4641
-336,512,-0.81781,-12.8142,0.000379641,0.00054695,-0.000711451,0.00117965,-0.000253056,-0.843921,0.000882955,0.0125667,888,512,-0.817834,12.8142
-329,512,-0.809937,-13.1628,0.000745627,0.000374258,-0.000616939,0.00120422,-8.43338e-05,-0.639222,0.000832349,0.0135313,895,512,-0.809965,13.1628
-322,512,-0.824646,-13.5144,0.00107354,0.000226877,-0.000508302,0.0013117,-1.12907e-05,-0.438177,0.000878258,0.0115495,902,512,-0.824656,13.5144
-315,512,-0.830811,-13.861,0.00142209,0.000139942,-0.000399606,0.00153644,2.55951e-05,-0.278702,0.00101587,0.010594,909,512,-0.83078,13.861
-308,512,-0.855347,-14.2151,0.00182305,-2.25791e-06,-0.000273122,0.00186304,-4.22492e-05,-0.145389,0.00125635,0.0107044,916,512,-0.855356,14.2151
-301,512,-0.847839,-14.5433,0.00233251,-0.000306587,-5.10667e-05,0.0023335,-0.000307575,-0.0193404,0.00166767,0.014723,923,512,-0.847865,14.5433
-294,512,-0.826355,-14.8437,0.00305007,-0.00126665,0.000204361,0.00305972,-0.00127631,0.047201,0.00257302,0.0153769,930,512,-0.826385,14.8437
-287,512,-0.907532,-15.1024,0.00414239,-0.00331981,0.00021156,0.00414838,-0.0033258,0.0283205,0.00432392,0.0220556,937,512,-0.907548,15.1024
-280,512,-0.818787,-15.4672,0.00495485,-0.00560086,0.000365819,0.00496751,-0.00561352,0.0346007,0.00611276,0.0351549,944,512,-0.818801,15.4672
-273,512,-0.718445,-15.8464,0,0,0,0,0,0,0,-1,951,512,-0.718434,15.8465
-266,512,-0.787476,-16.1851,0,0,0,0,0,0,0,-1,958,512,-0.787455,16.1851
-259,512,-0.525452,-14.0815,0,0,0,0,0,0,0,-1,965,512,-0.525475,14.0815
-252,512,1.45941,-3.43475,0,0,0,0,0,0,0,-1,972,512,1.45938,3.43475
-245,512,4.12927,-11.272,0,0,0,0,0,0,0,-1,979,512,4.1293,11.272
-238,512,0.227051,-8.92969,0,0,0,0,0,0,0,-1,986,512,0.227073,8.92968
-231,512,-2.54437,-10.169,0,0,0,0,0,0,0,-1,993,512,-2.54439,10.169
-224,512,-4.84601,-7.52783,0,0,0,0,0,0,0,-1,1000,512,-4.84602,7.52786
-217,512,-7.37274,-3.89563,0,0,0,0,0,0,0,-1,1007,512,-7.37274,3.89561
-210,512,-3.76642,-1.94702,0,0,0,0,0,0,0,-1,1014,512,-3.76641,1.94702
-203,512,-2.48328,-5.19061,0,0,0,0,0,0,0,-1,1021,512,-2.48328,5.19059
-196,512,-1.14929,-4.63202,0,0,0,0,0,0,0,-1,1028,512,-1.14934,4.632
-189,512,0.197998,4.55505,0,0,0,0,0,0,0,-1,1035,512,0.197996,-4.55506
-182,512,2.73938,0.0778503,0,0,0,0,0,0,0,-1,1042,512,2.73944,-0.077852
-175,512,2.29565,0.209808,0,0,0,0,0,0,0,-1,1049,512,2.29565,-0.209813
-168,512,2.09399,-0.302856,0,0,0,0,0,0,0,-1,1056,512,2.09403,0.302826
-161,512,2.76636,0.0921021,0,0,0,0,0,0,0,-1,1063,512,2.76633,-0.0921104
-154,512,3.41382,0.466187,0,0,0,0,0,0,0,-1,1070,512,3.41382,-0.466178
-147,512,0,0,0,0,0,0,0,0,0,-1,1077,512,0,0
-140,512,0,0,0,0,0,0,0,0,0,-1,1084,512,0,0
-133,512,0,0,0,0,0,0,0,0,0,-1,1091,512,0,0
-126,512,0,0,0,0,0,0,0,0,0,-1,1098,512,0,0
-119,512,0,0,0,0,0,0,0,0,0,-1,1105,512,0,0
-112,512,0,0,0,0,0,0,0,0,0,-1,1112,512,0,0
-105,512,0,0,0,0,0,0,0,0,0,-1,1119,512,0,0
-98,512,0,0,0,0,0,0,0,0,0,-1,1126,512,0,0
-91,512,0,0,0,0,0,0,0,0,0,-1,1133,512,0,0
-84,512,0,0,0,0,0,0,0,0,0,-1,1140,512,0,0
-77,512,0,0,0,0,0,0,0,0,0,-1,1147,512,0,0
-70,512,0,0,0,0,0,0,0,0,0,-1,1154,512,0,0
-63,512,0,0,0,0,0,0,0,0,0,-1,1161,512,0,0
-56,512,0,0,0,0,0,0,0,0,0,-1,1168,512,0,0
-49,512,0,0,0,0,0,0,0,0,0,-1,1175,512,0,0
-42,512,0,0,0,0,0,0,0,0,0,-1,1182,512,0,0
-35,512,0,0,0,0,0,0,0,0,0,-1,1189,512,0,0
-28,512,0,0,0,0,0,0,0,0,0,-1,1196,512,0,0
-21,512,0,0,0,0,0,0,0,0,0,-1,1203,512,0,0
-14,512,0,0,0,0,0,0,0,0,0,-1,1210,512,0,0
-7,512,0,0,0,0,0,0,0,0,0,-1,1217,512,0,0
0,512,0,0,0,0,0,0,0,0,0,-1,1224,512,0,0
7,512,0,0,0,0,0,0,0,0,0,-1,1231,512,0,0
14,512,0,0,0,0,0,0,0,0,0,-1,1238,512,0,0
21,512,0,0,0,0,0,0,0,0,0,-1,1245,512,0,0
28,512,0,0,0,0,0,0,0,0,0,-1,1252,512,0,0
35,512,0,0,0,0,0,0,0,0,0,-1,1259,512,0,0
42,512,0,0,0,0,0,0,0,0,0,-1,1266,512,0,0
49,512,0,0,0,0,0,0,0,0,0,-1,1273,512,0,0
56,512,0,0,0,0,0,0,0,0,0,-1,1280,512,0,0
63,512,0,0,0,0,0,0,0,0,0,-1,1287,512,0,0
70,512,0,0,0,0,0,0,0,0,0,-1,1294,512,0,0
77,512,0,0,0,0,0,0,0,0,0,-1,1301,512,0,0
84,512,0,0,0,0,0,0,0,0,0,-1,1308,512,0,0
91,512,0,0,0,0,0,0,0,0,0,-1,1315,512,0,0
98,512,0,0,0,0,0,0,0,0,0,-1,1322,512,0,0
105,512,0,0,0,0,0,0,0,0,0,-1,1329,512,0,0
112,512,0,0,0,0,0,0,0,0,0,-1,1336,512,0,0
119,512,0,0,0,0,0,0,0,0,0,-1,1343,512,0,0
126,512,0,0,0,0,0,0,0,0,0,-1,1350,512,0,0
133,512,0,0,0,0,0,0,0,0,0,-1,1357,512,0,0
140,512,0,0,0,0,0,0,0,0,0,-1,1364,512,0,0
147,512,0,0,0,0,0,0,0,0,0,-1,1371,512,0,0
154,512,0,0,0,0,0,0,0,0,0,-1,1378,512,0,0
161,512,0,0,0,0,0,0,0,0,0,-1,1385,512,0,0
168,512,0,0,0,0,0,0,0,0,0,-1,1392,512,0,0
175,512,0,0,0,0,0,0,0,0,0,-1,1399,512,0,0
182,512,0,0,0,0,0,0,0,0,0,-1,1406,512,0,0
189,512,0,0,0,0,0,0,0,0,0,-1,1413,512,0,0
196,512,0,0,0,0,0,0,0,0,0,-1,1420,512,0,0
203,512,0,0,0,0,0,0,0,0,0,-1,1427,512,0,0
210,512,0,0,0,0,0,0,0,0,0,-1,1434,512,0,0
217,512,0,0,0,0,0,0,0,0,0,-1,1441,512,0,0
224,512,0,0,0,0,0,0,0,0,0,-1,1448,512,0,0
231,512,0,0,0,0,0,0,0,0,0,-1,1455,512,0,0
238,512,0,0,0,0,0,0,0,0,0,-1,1462,512,0,0
245,512,0,0,0,0,0,0,0,0,0,-1,1469,512,0,0
252,512,0,0,0,0,0,0,0,0,0,-1,1476,512,0,0
259,512,0,0,0,0,0,0,0,0,0,-1,1483,512,0,0
266,512,0,0,0,0,0,0,0,0,0,-1,1490,512,0,0
273,512,4.00745,0.618622,0,0,0,0,0,0,0,-1,1497,512,4.00747,-0.618611
280,512,4.49609,0.649841,0,0,0,0,0,0,0,-1,1504,512,4.49612,-0.649834
287,512,4.77234,0.458069,0,0,0,0,0,0,0,-1,1511,512,4.77233,-0.458083
294,512,8.54956,-2.36273,0,0,0,0,0,0,0,-1,1518,512,8.54952,2.36274
301,512,6.302,-1.69092,0,0,0,0,0,0,0,-1,1525,512,6.30196,1.69093
308,512,8.2439,-6.22754,0,0,0,0,0,0,0,-1,1532,512,8.24394,6.22757
315,512,7.53687,-6.04211,0,0,0,0,0,0,0,-1,1539,512,7.53691,6.04211
322,512,6.82983,-5.85663,0,0,0,0,0,0,0,-1,1546,512,6.82988,5.85666
329,512,4.38147,-0.329651,0,0,0,0,0,0,0,-1,1553,512,4.38144,0.329662
336,512,4.41467,-0.741455,0,0,0,0,0,0,0,-1,1560,512,4.41467,0.741442
343,512,4.44727,-1.21667,0,0,0,0,0,0,0,-1,1567,512,4.44732,1.21666
350,512,4.55469,-1.65082,0,0,0,0,0,0,0,-1,1574,512,4.5547,1.65083
357,512,5.79993,-2.67456,0,0,0,0,0,0,0,-1,1581,512,5.79991,2.67454
364,512,5.18298,-6.80133,0,0,0,0,0,0,0,-1,1588,512,5.18296,6.80132
371,512,5.28467,-7.69269,0,0,0,0,0,0,0,-1,1595,512,5.28464,7.69269
378,512,6.29407,-9.88055,0,0,0,0,0,0,0,-1,1602,512,6.29412,9.88057
385,512,6.45569,-9.32233,0,0,0,0,0,0,0,-1,1609,512,6.45565,9.3223
392,512,6.35522,-8.98425,0,0,0,0,0,0,0,-1,1616,512,6.35526,8.98422
399,512,7.5304,-12.1449,0,0,0,0,0,0,0,-1,1623,512,7.53042,12.1449
406,512,8.36816,-14.4123,0,0,0,0,0,0,0,-1,1630,512,8.36816,14.4123
413,512,8.38269,-14.1011,0,0,0,0,0,0,0,-1,1637,512,8.38264,14.1011
420,512,8.40662,-13.6362,0.00136715,0.000576576,-0.00145982,0.00248425,-0.000540526,-0.65318,0.00186267,0.0235815,1644,512,8.40658,13.6362
427,512,8.39807,-13.2738,0.00116782,0.000577041,-0.0011679,0.00207711,-0.00033225,-0.661534,0.00150774,0.0151431,1651,512,8.39804,13.2738
434,512,8.38916,-12.9351,0.000940634,0.000706427,-0.000857657,0.00168915,-4.20844e-05,-0.717548,0.00114038,0.011346,1658,512,8.38915,12.9351
441,512,8.37207,-12.5547,0.000815703,0.000773857,-0.000543485,0.00133867,0.000250893,-0.766159,0.000821683,0.0131868,1665,512,8.37206,12.5548
448,512,8.3689,-12.1939,0.00079697,0.000703148,-0.000238196,0.00099283,0.000507288,-0.68817,0.000573257,0.009207,1672,512,8.36886,12.1939
455,512,8.37231,-11.821,0.000710666,0.000612614,-1.83519e-05,0.000713988,0.000609291,-0.179091,0.000445216,0.00824905,1679,512,8.37236,11.8211
462,512,8.36792,-11.436,0.000650005,0.000449081,0.000192031,0.000766265,0.00033282,0.544398,0.000443673,0.0088739,1686,512,8.36791,11.436
469,512,8.36023,-11.0675,0.000650422,0.000182239,0.000425695,0.000902144,-6.94836e-05,0.534013,0.000625878,0.0103424,1693,512,8.36022,11.0675
476,512,8.35083,-10.6964,0.000523056,-0.000160878,0.000557489,0.000835104,-0.000472926,0.510289,0.00076478,0.0131438,1700,512,8.35088,10.6964
483,512,8.34473,-10.2961,0.000331784,-0.000588821,0.000593317,0.000622417,-0.000879454,0.45549,0.000871328,0.012325,1707,512,8.34467,10.2961
490,512,8.34888,-9.90887,-0.000129731,-0.00116512,0.000395877,4.28507e-06,-0.00129913,0.32642,0.00086752,0.0101127,1714,512,8.34887,9.9089
497,512,8.35461,-9.52612,-0.00066509,-0.00175188,0.000187616,-0.000633613,-0.00178335,0.166226,0.00104389,0.0115443,1721,512,8.35465,9.52614
504,512,8.32861,-9.12561,-0.00143612,-0.00237262,-0.000169812,-0.00140628,-0.00240246,-0.173952,0.00139378,0.0123473,1728,512,8.32856,9.12563
511,512,8.28198,-8.71448,-0.00249654,-0.00304355,-0.000700053,-0.00201846,-0.00352163,-0.599171,0.00204046,0.0133698,1735,512,8.28194,8.71449
518,512,8.28955,-8.34485,-0.00397856,-0.00362042,-0.00148432,-0.00230441,-0.00529458,-0.845428,0.00306536,0.0201473,1742,512,8.28958,8.34488
525,512,8.37854,-7.9527,0,0,0,0,0,0,0,-1,1749,512,8.37856,7.95272
532,512,7.39917,-7.64929,0,0,0,0,0,0,0,-1,1756,512,7.39916,7.64932
539,512,7.05908,-7.00647,0,0,0,0,0,0,0,-1,1763,512,7.05909,7.00647
546,512,2.77551,-0.66449,0,0,0,0,0,0,0,-1,1770,512,2.77548,0.664503
553,512,3.927,-0.448853,0,0,0,0,0,0,0,-1,1777,512,3.92704,0.448843
560,512,3.55762,-0.201233,0,0,0,0,0,0,0,-1,1784,512,3.55768,0.201259
567,512,3.09045,0.191193,0,0,0,0,0,0,0,-1,1791,512,3.09045,-0.191203
574,512,0,0,0,0,0,0,0,0,0,-1,1798,512,0,0
581,512,0,0,0,0,0,0,0,0,0,-1,1805,512,0,0
588,512,0,0,0,0,0,0,0,0,0,-1,1812,512,0,0
595,512,0,0,0,0,0,0,0,0,0,-1,1819,512,0,0
602,512,0,0,0,0,0,0,0,0,0,-1,1826,512,0,0
609,512,0,0,0,0,0,0,0,0,0,-1,1833,512,0,0
616,512,0,0,0,0,0,0,0,0,0,-1,1840,512,0,0
623,512,0,0,0,0,0,0,0,0,0,-1,1847,512,0,0
630,512,0,0,0,0,0,0,0,0,0,-1,1854,512,0,0
637,512,0,0,0,0,0,0,0,0,0,-1,1861,512,0,0
644,512,0,0,0,0,0,0,0,0,0,-1,1868,512,0,0
651,512,0,0,0,0,0,0,0,0,0,-1,1875,512,0,0
658,512,0,0,0,0,0,0,0,0,0,-1,1882,512,0,0
665,512,0,0,0,0,0,0,0,0,0,-1,1889,512,0,0
672,512,0,0,0,0,0,0,0,0,0,-1,1896,512,0,0
679,512,0,0,0,0,0,0,0,0,0,-1,1903,512,0,0
686,512,0,0,0,0,0,0,0,0,0,-1,1910,512,0,0
693,512,0,0,0,0,0,0,0,0,0,-1,1917,512,0,0
700,512,0,0,0,0,0,0,0,0,0,-1,1924,512,0,0
707,512,0,0,0,0,0,0,0,0,0,-1,1931,512,0,0
714,512,0,0,0,0,0,0,0,0,0,-1,1938,512,0,0
721,512,0,0,0,0,0,0,0,0,0,-1,1945,512,0,0
728,512,0,0,0,0,0,0,0,0,0,-1,1952,512,0,0
735,512,0,0,0,0,0,0,0,0,0,-1,1959,512,0,0
742,512,0,0,0,0,0,0,0,0,0,-1,1966,512,0,0
749,512,0,0,0,0,0,0,0,0,0,-1,1973,512,0,0
756,512,0,0,0,0,0,0,0,0,0,-1,1980,512,0,0
763,512,0,0,0,0,0,0,0,0,0,-1,1987,512,0,0
770,512,0,0,0,0,0,0,0,0,0,-1,1994,512,0,0
777,512,0,0,0,0,0,0,0,0,0,-1,2001,512,0,0
784,512,0,0,0,0,0,0,0,0,0,-1,2008,512,0,0
791,512,0,0,0,0,0,0,0,0,0,-1,2015,512,0,0
798,512,0,0,0,0,0,0,0,0,0,-1,2022,512,0,0
805,512,0,0,0,0,0,0,0,0,0,-1,2029,512,0,0
812,512,0,0,0,0,0,0,0,0,0,-1,2036,512,0,0
-700,505,0,0,0,0,0,0,0,0,0,-1,524,519,0,0
-693,505,0,0,0,0,0,0,0,0,0,-1,531,519,0,0
-686,505,0,0,0,0,0,0,0,0,0,-1,538,519,0,0
-679,505,0,0,0,0,0,0,0,0,0,-1,545,519,0,0
-672,505,0,0,0,0,0,0,0,0,0,-1,552,519,0,0
-665,505,0,0,0,0,0,0,0,0,0,-1,559,519,0,0
-658,505,0,0,0,0,0,0,0,0,0,-1,566,519,0,0
-651,505,0,0,0,0,0,0,0,0,0,-1,573,519,0,0
-644,505,0,0,0,0,0,0,0,0,0,-1,580,519,0,0
-637,505,0,0,0,0,0,0,0,0,0,-1,587,519,0,0
-630,505,0,0,0,0,0,0,0,0,0,-1,594,519,0,0
-623,505,0,0,0,0,0,0,0,0,0,-1,601,519,0,0
-616,505,0,0,0,0,0,0,0,0,0,-1,608,519,0,0
-609,505,0,0,0,0,0,0,0,0,0,-1,615,519,0,0
-602,505,0,0,0,0,0,0,0,0,0,-1,622,519,0,0
-595,505,0,0,0,0,0,0,0,0,0,-1,629,519,0,0
-588,505,0,0,0,0,0,0,0,0,0,-1,636,519,0,0
-581,505,0,0,0,0,0,0,0,0,0,-1,643,519,0,0
-574,505,0,0,0,0,0,0,0,0,0,-1,650,519,0,0
-567,505,0,0,0,0,0,0,0,0,0,-1,657,519,0,0
-560,505,0,0,0,0,0,0,0,0,0,-1,664,519,0,0
-553,505,0,0,0,0,0,0,0,0,0,-1,671,519,0,0
-546,505,0,0,0,0,0,0,0,0,0,-1,678,519,0,0
-539,505,0,0,0,0,0,0,0,0,0,-1,685,519,0,0
-532,505,0,0,0,0,0,0,0,0,0,-1,692,519,0,0
-525,505,0,0,0,0,0,0,0,0,0,-1,699,519,0,0
-518,505,0,0,0,0,0,0,0,0,0,-1,706,519,0,0
-511,505,0,0,0,0,0,0,0,0,0,-1,713,519,0,0
-504,505,0,0,0,0,0,0,0,0,0,-1,720,519,0,0
-497,505,0,0,0,0,0,0,0,0,0,-1,727,519,0,0
-490,505,0,0,0,0,0,0,0,0,0,-1,734,519,0,0
-483,505,0,0,0,0,0,0,0,0,0,-1,741,519,0,0
-476,505,0,0,0,0,0,0,0,0,0,-1,748,519,0,0
-469,505,0,0,0,0,0,0,0,0,0,-1,755,519,0,0
-462,505,0,0,0,0,0,0,0,0,0,-1,762,519,0,0
-455,505,2.72137,-3.26379,0,0,0,0,0,0,0,-1,769,519,2.72135,3.26377
-448,505,2.51111,-3.94989,0,0,0,0,0,0,0,-1,776,519,2.51112,3.94986
-441,505,2.80212,-6.8902,0,0,0,0,0,0,0,-1,783,519,2.80209,6.89019
-434,505,0.304626,-6.2099,0,0,0,0,0,0,0,-1,790,519,0.304615,6.20987
-427,505,0.0349731,-6.49762,0,0,0,0,0,0,0,-1,797,519,0.0349682,6.49761
-420,505,-0.523132,-7.62921,0,0,0,0,0,0,0,-1,804,519,-0.523104,7.62919
-413,505,-0.55426,-8.42242,0,0,0,0,0,0,0,-1,811,519,-0.554273,8.42243
-406,505,-1.12366,-8.63232,0,0,0,0,0,0,0,-1,818,519,-1.12363,8.63231
-399,505,-0.963562,-9.27008,0,0,0,0,0,0,0,-1,825,519,-0.963555,9.2701
-392,505,-1.0368,-9.75665,-0.00153261,0.00662173,-0.00371964,0.00806353,-0.00297441,-1.20101,0.00659468,0.0221355,832,519,-1.03679,9.75667
-385,505,-1.09619,-10.2448,-0.00131849,0.00499545,-0.00294634,0.00615674,-0.00247978,-1.19535,0.00513472,0.0097253,839,519,-1.0962,10.2448
-378,505,-1.14679,-10.6277,-0.000921876,0.00372485,-0.00239532,0.00473848,-0.00193551,-1.17047,0.00396489,0.0113695,846,519,-1.1468,10.6277
-371,505,-1.1366,-11.0358,-0.00062028,0.00269046,-0.00192033,0.00357042,-0.00150025,-1.14111,0.00300778,0.0144137,853,519,-1.13658,11.0358
-364,505,-1.13116,-11.4213,-0.000344756,0.00187122,-0.00151391,0.00263929,-0.00111282,-1.1013,0.00222523,0.0149138,860,519,-1.13119,11.4212
-357,505,-1.11676,-11.7556,-2.56466e-05,0.00127173,-0.00118134,0.00197077,-0.000724682,-1.03648,0.0016107,0.0123371,867,519,-1.11675,11.7556
-350,505,-1.12982,-12.0958,0.000302484,0.000759929,-0.000928881,0.00148783,-0.00042542,-0.906114,0.00116,0.012288,874,519,-1.12983,12.0958
-343,505,-1.15002,-12.4584,0.000649009,0.00046869,-0.000775007,0.00133908,-0.000221384,-0.727492,0.000974932,0.00971717,881,519,-1.15005,12.4584
-336,505,-1.15717,-12.8057,0.0010007,0.000232472,-0.000619808,0.00134577,-0.000112594,-0.507996,0.00093697,0.0112168,888,519,-1.15714,12.8057
-329,505,-1.13776,-13.1547,0.00140272,9.32137e-05,-0.000556149,0.00160704,-0.000111104,-0.352073,0.00111025,0.0149244,895,519,-1.13773,13.1546
-322,505,-1.151,-13.5189,0.00178439,8.6784e-06,-0.000478609,0.00190517,-0.000112106,-0.247203,0.00130909,0.0165491,902,519,-1.15102,13.5189
-315,505,-1.17535,-13.8576,0.00219981,-4.5828e-05,-0.000393168,0.00226665,-0.000112674,-0.168409,0.00155003,0.0135453,909,519,-1.17536,13.8576
-308,505,-1.18555,-14.1864,0.00267575,-0.000142886,-0.000294004,0.00270609,-0.000173226,-0.102832,0.00186449,0.0120126,916,519,-1.18552,14.1864
-301,505,-1.16632,-14.5339,0.00328075,-0.000402363,-8.02945e-05,0.0032825,-0.000404112,-0.0217869,0.00233472,0.017518,923,519,-1.16634,14.5339
-294,505,-1.14941,-14.8415,0,0,0,0,0,0,0,-1,930,519,-1.14943,14.8415
-287,505,-1.20197,-15.1919,0,0,0,0,0,0,0,-1,937,519,-1.20195,15.1919
-280,505,-1.05542,-15.6699,0,0,0,0,0,0,0,-1,944,519,-1.05543,15.6699
-273,505,-0.0680542,-9.44867,0,0,0,0,0,0,0,-1,951,519,-0.0680462,9.44866
-266,505,-0.036377,-9.07922,0,0,0,0,0,0,0,-1,958,519,-0.0364055,9.0792
-259,505,0.10321,-6.69824,0,0,0,0,0,0,0,-1,965,519,0.103235,6.69826
-252,505,6.82312,-15.6972,0,0,0,0,0,0,0,-1,972,519,6.82314,15.6972
-245,505,4.26727,-12.9861,0,0,0,0,0,0,0,-1,979,519,4.2673,12.9861
-238,505,1.67432,-11.2307,0,0,0,0,0,0,0,-1,986,519,1.67429,11.2307
-231,505,-0.958435,-8.3075,0,0,0,0,0,0,0,-1,993,519,-0.958421,8.30751
-224,505,-3.69653,-5.12732,0,0,0,0,0,0,0,-1,1000,519,-3.69653,5.12733
-217,505,-6.34302,-1.65533,0,0,0,0,0,0,0,-1,1007,519,-6.34299,1.65535
-210,505,-3.06128,-0.396301,0,0,0,0,0,0,0,-1,1014,519,-3.06129,0.396294
-203,505,-4.26465,2.03607,0,0,0,0,0,0,0,-1,1021,519,-4.26462,-2.03606
-196,505,-5.47595,4.27295,0,0,0,0,0,0,0,-1,1028,519,-5.47597,-4.27292
-189,505,1.51526,5.56207,0,0,0,0,0,0,0,-1,1035,519,1.51523,-5.56209
-182,505,2.97815,7.5097,0,0,0,0,0,0,0,-1,1042,519,2.97812,-7.5097
-175,505,-2.38416,-2.17548,0,0,0,0,0,0,0,-1,1049,519,-2.38411,2.1755
-168,505,0,0,0,0,0,0,0,0,0,-1,1056,519,0,0
-161,505,0,0,0,0,0,0,0,0,0,-1,1063,519,0,0
-154,505,0,0,0,0,0,0,0,0,0,-1,1070,519,0,0
-147,505,0,0,0,0,0,0,0,0,0,-1,1077,519,0,0
-140,505,0,0,0,0,0,0,0,0,0,-1,1084,519,0,0
-133,505,0,0,0,0,0,0,0,0,0,-1,1091,519,0,0
-126,505,0,0,0,0,0,0,0,0,0,-1,1098,519,0,0
-119,505,0,0,0,0,0,0,0,0,0,-1,1105,519,0,0
-112,505,0,0,0,0,0,0,0,0,0,-1,1112,519,0,0
-105,505,0,0,0,0,0,0,0,0,0,-1,1119,519,0,0
-98,505,0,0,0,0,0,0,0,0,0,-1,1126,519,0,0
-91,505,0,0,0,0,0,0,0,0,0,-1,1133,519,0,0
-84,505,0,0,0,0,0,0,0,0,0,-1,1140,519,0,0
-77,505,0,0,0,0,0,0,0,0,0,-1,1147,519,0,0
-70,505,0,0,0,0,0,0,0,0,0,-1,1154,519,0,0
-63,505,0,0,0,0,0,0,0,0,0,-1,1161,519,0,0
-56,505,0,0,0,0,0,0,0,0,0,-1,1168,519,0,0
-49,505,0,0,0,0,0,0,0,0,0,-1,1175,519,0,0
-42,505,0,0,0,0,0,0,0,0,0,-1,1182,519,0,0
-35,505,0,0,0,0,0,0,0,0,0,-1,1189,519,0,0
-28,505,0,0,0,0,0,0,0,0,0,-1,1196,519,0,0
-21,505,0,0,0,0,0,0,0,0,0,-1,1203,519,0,0
-14,505,0,0,0,0,0,0,0,0,0,-1,1210,519,0,0
-7,505,0,0,0,0,0,0,0,0,0,-1,1217,519,0,0
0,505,0,0,0,0,0,0,0,0,0,-1,1224,519,0,0
7,505,0,0,0,0,0,0,0,0,0,-1,1231,519,0,0
14,505,0,0,0,0,0,0,0,0,0,-1,1238,519,0,0
21,505,0,0,0,0,0,0,0,0,0,-1,1245,519,0,0
28,505,0,0,0,0,0,0,0,0,0,-1,1252,519,0,0
35,505,0,0,0,0,0,0,0,0,0,-1,1259,519,0,0
42,505,0,0,0,0,0,0,0,0,0,-1,1266,519,0,0
49,505,0,0,0,0,0,0,0,0,0,-1,1273,519,0,0
56,505,0,0,0,0,0,0,0,0,0,-1,1280,519,0,0
63,505,0,0,0,0,0,0,0,0,0,-1,1287,519,0,0
70,505,0,0,0,0,0,0,0,0,0,-1,1294,519,0,0
77,505,0,0,0,0,0,0,0,0,0,-1,1301,519,0,0
84,505,0,0,0,0,0,0,0,0,0,-1,1308,519,0,0
91,505,0,0,0,0,0,0,0,0,0,-1,1315,519,0,0
98,505,0,0,0,0,0,0,0,0,0,-1,1322,519,0,0
105,505,0,0,0,0,0,0,0,0,0,-1,1329,519,0,0
112,505,0,0,0,0,0,0,0,0,0,-1,1336,519,0,0
119,505,0,0,0,0,0,0,0,0,0,-1,1343,519,0,0
126,505,0,0,0,0,0,0,0,0,0,-1,1350,519,0,0
133,505,0,0,0,0,0,0,0,0,0,-1,1357,519,0,0
140,505,0,0,0,0,0,0,0,0,0,-1,1364,519,0,0
147,505,0,0,0,0,0,0,0,0,0,-1,1371,519,0,0
154,505,0,0,0,0,0,0,0,0,0,-1,1378,519,0,0
161,505,0,0,0,0,0,0,0,0,0,-1,1385,519,0,0
168,505,0,0,0,0,0,0,0,0,0,-1,1392,519,0,0
175,505,0,0,0,0,0,0,0,0,0,-1,1399,519,0,0
182,505,0,0,0,0,0,0,0,0,0,-1,1406,519,0,0
189,505,0,0,0,0,0,0,0,0,0,-1,1413,519,0,0
196,505,0,0,0,0,0,0,0,0,0,-1,1420,519,0,0
203,505,0,0,0,0,0,0,0,0,0,-1,1427,519,0,0
210,505,0,0,0,0,0,0,0,0,0,-1,1434,519,0,0
217,505,0,0,0,0,0,0,0,0,0,-1,1441,519,0,0
224,505,0,0,0,0,0,0,0,0,0,-1,1448,519,0,0
231,505,0,0,0,0,0,0,0,0,0,-1,1455,519,0,0
238,505,0,0,0,0,0,0,0,0,0,-1,1462,519,0,0
245,505,0,0,0,0,0,0,0,0,0,-1,1469,519,0,0
252,505,0,0,0,0,0,0,0,0,0,-1,1476,519,0,0
259,505,0,0,0,0,0,0,0,0,0,-1,1483,519,0,0
266,505,0,0,0,0,0,0,0,0,0,-1,1490,519,0,0
273,505,0,0,0,0,0,0,0,0,0,-1,1497,519,0,0
280,505,0,0,0,0,0,0,0,0,0,-1,1504,519,0,0
287,505,4.39478,0.499512,0,0,0,0,0,0,0,-1,1511,519,4.39476,-0.499506
294,505,4.88867,0.0822754,0,0,0,0,0,0,0,-1,1518,519,4.88871,-0.0822748
301,505,4.82153,-0.0704346,0,0,0,0,0,0,0,-1,1525,519,4.82156,0.0704312
308,505,4.67761,-0.29187,0,0,0,0,0,0,0,-1,1532,519,4.67762,0.291845
315,505,8.44055,-6.54352,0,0,0,0,0,0,0,-1,1539,519,8.44059,6.54349
322,505,4.78955,-0.594116,0,0,0,0,0,0,0,-1,1546,519,4.78957,0.594096
329,505,5.16321,0.434631,0,0,0,0,0,0,0,-1,1553,519,5.16316,-0.434614
336,505,4.94495,-0.920471,0,0,0,0,0,0,0,-1,1560,519,4.945,0.920495
343,505,5.01855,-1.4823,0,0,0,0,0,0,0,-1,1567,519,5.01851,1.48227
350,505,5.33154,-1.77838,0,0,0,0,0,0,0,-1,1574,519,5.33152,1.77838
357,505,5.56567,-1.9425,0,0,0,0,0,0,0,-1,1581,519,5.56562,1.94248
364,505,5.85205,-2.6579,0,0,0,0,0,0,0,-1,1588,519,5.85211,2.65788
371,505,5.88477,-7.00922,0,0,0,0,0,0,0,-1,1595,519,5.88473,7.00924
378,505,5.44104,-7.10162,0,0,0,0,0,0,0,-1,1602,519,5.44099,7.10162
385,505,6.64661,-8.65015,0,0,0,0,0,0,0,-1,1609,519,6.64662,8.65014
392,505,6.34558,-8.3429,0,0,0,0,0,0,0,-1,1616,519,6.34554,8.34288
399,505,7.45898,-9.70386,0,0,0,0,0,0,0,-1,1623,519,7.45899,9.70388
406,505,7.08679,-9.4928,0,0,0,0,0,0,0,-1,1630,519,7.08678,9.49278
413,505,8.4032,-14.0308,0,0,0,0,0,0,0,-1,1637,519,8.4032,14.0308
420,505,8.7406,-13.7722,0,0,0,0,0,0,0,-1,1644,519,8.74054,13.7722
427,505,8.7616,-13.3361,0.000961007,0.000455215,-0.00175488,0.00248112,-0.00106489,-0.713836,0.00210101,0.0205647,1651,519,8.76158,13.3361
434,505,8.74731,-12.9272,0.00076366,0.000725269,-0.00132206,0.00206666,-0.000577736,-0.778139,0.00160539,0.010339,1658,519,8.74737,12.9272
441,505,8.75024,-12.5219,0.000685507,0.000889412,-0.000909317,0.00170247,-0.000127554,-0.841225,0.0011798,0.0104981,1665,519,8.75021,12.5219
448,505,8.75781,-12.1641,0.000761974,0.000896955,-0.000521156,0.00135497,0.000303957,-0.849791,0.000820971,0.010526,1672,519,8.75783,12.164
455,505,8.74451,-11.8035,0.00077609,0.000850645,-0.000239491,0.00105574,0.000570993,-0.862606,0.000610211,0.0102806,1679,519,8.74451,11.8034
462,505,8.72253,-11.4236,0.000786399,0.00072819,2.06329e-05,0.00079297,0.000721618,0.308347,0.000506541,0.0100923,1686,519,8.72258,11.4236
469,505,8.71814,-11.0513,0.000848345,0.000496819,0.000290796,0.00101237,0.000332795,0.513567,0.000595812,0.0103196,1693,519,8.71814,11.0513
476,505,8.71912,-10.68,0.000790286,0.000200761,0.000462217,0.00104373,-5.26819e-05,0.501553,0.000714029,0.0107305,1700,519,8.71912,10.68
483,505,8.71411,-10.3018,0.000633753,-0.000160222,0.00053771,0.000905145,-0.000431614,0.467415,0.000787754,0.0116408,1707,519,8.71412,10.3017
490,505,8.71338,-9.92236,0.000193476,-0.000667223,0.000356488,0.00032195,-0.000795697,0.345901,0.000664316,0.0118402,1714,519,8.71336,9.92234
497,505,8.72021,-9.54565,-0.000342994,-0.00114858,0.000160094,-0.000312345,-0.00117923,0.189157,0.000705477,0.0122922,1721,519,8.72023,9.54564
504,505,8.69019,-9.14569,-0.00111005,-0.00168928,-0.000190941,-0.00105278,-0.00174656,-0.291441,0.00101545,0.0123609,1728,519,8.69021,9.14569
511,505,8.6604,-8.74097,-0.00216647,-0.0022457,-0.000715431,-0.00148956,-0.00292261,-0.757739,0.00168747,0.0135092,1735,519,8.66034,8.74095
518,505,8.69092,-8.33899,-0.00360385,-0.00272698,-0.00147786,-0.00162389,-0.00470693,-0.929597,0.00276073,0.0221221,1742,519,8.69095,8.33896
525,505,8.46545,-7.95917,-0.00539168,-0.00335035,-0.00252978,-0.0016431,-0.00709893,-0.977141,0.00429109,0.0353246,1749,519,8.4655,7.95915
532,505,8.41711,-7.33777,0,0,0,0,0,0,0,-1,1756,519,8.41716,7.33778
539,505,7.90369,-7.11932,0,0,0,0,0,0,0,-1,1763,519,7.90373,7.11932
546,505,7.94946,-6.64539,0,0,0,0,0,0,0,-1,1770,519,7.94947,6.64539
553,505,2.82837,0.162659,0,0,0,0,0,0,0,-1,1777,519,2.82841,-0.162672
560,505,3.66223,-0.479797,0,0,0,0,0,0,0,-1,1784,519,3.66219,0.47982
567,505,4.65271,-0.950256,0,0,0,0,0,0,0,-1,1791,519,4.65274,0.95028
574,505,5.54443,-1.19977,0,0,0,0,0,0,0,-1,1798,519,5.54443,1.19974
581,505,0,0,0,0,0,0,0,0,0,-1,1805,519,0,0
588,505,0,0,0,0,0,0,0,0,0,-1,1812,519,0,0
595,505,0,0,0,0,0,0,0,0,0,-1,1819,519,0,0
602,505,0,0,0,0,0,0,0,0,0,-1,1826,519,0,0
609,505,0,0,0,0,0,0,0,0,0,-1,1833,519,0,0
616,505,0,0,0,0,0,0,0,0,0,-1,1840,519,0,0
623,505,0,0,0,0,0,0,0,0,0,-1,1847,519,0,0
630,505,0,0,0,0,0,0,0,0,0,-1,1854,519,0,0
637,505,0,0,0,0,0,0,0,0,0,-1,1861,519,0,0
644,505,0,0,0,0,0,0,0,0,0,-1,1868,519,0,0
651,505,0,0,0,0,0,0,0,0,0,-1,1875,519,0,0
658,505,0,0,0,0,0,0,0,0,0,-1,1882,519,0,0
665,505,0,0,0,0,0,0,0,0,0,-1,1889,519,0,0
672,505,0,0,0,0,0,0,0,0,0,-1,1896,519,0,0
679,505,0,0,0,0,0,0,0,0,0,-1,1903,519,0,0
686,505,0,0,0,0,0,0,0,0,0,-1,1910,519,0,0
693,505,0,0,0,0,0,0,0,0,0,-1,1917,519,0,0
700,505,0,0,0,0,0,0,0,0,0,-1,1924,519,0,0
707,505,0,0,0,0,0,0,0,0,0,-1,1931,519,0,0
714,505,0,0,0,0,0,0,0,0,0,-1,1938,519,0,0
721,505,0,0,0,0,0,0,0,0,0,-1,1945,519,0,0
728,505,0,0,0,0,0,0,0,0,0,-1,1952,519,0,0
735,505,0,0,0,0,0,0,0,0,0,-1,1959,519,0,0
742,505,0,0,0,0,0,0,0,0,0,-1,1966,519,0,0
749,505,0,0,0,0,0,0,0,0,0,-1,1973,519,0,0
756,505,0,0,0,0,0,0,0,0,0,-1,1980,519,0,0
763,505,0,0,0,0,0,0,0,0,0,-1,1987,519,0,0
770,505,0,0,0,0,0,0,0,0,0,-1,1994,519,0,0
777,505,0,0,0,0,0,0,0,0,0,-1,2001,519,0,0
784,505,0,0,0,0,0,0,0,0,0,-1,2008,519,0,0
791,505,0,0,0,0,0,0,0,0,0,-1,2015,519,0,0
798,505,0,0,0,0,0,0,0,0,0,-1,2022,519,0,0
805,505,0,0,0,0,0,0,0,0,0,-1,2029,519,0,0
812,505,0,0,0,0,0,0,0,0,0,-1,2036,519,0,0
-700,498,0,0,0,0,0,0,0,0,0,-1,524,526,0,0
-693,498,0,0,0,0,0,0,0,0,0,-1,531,526,0,0
-686,498,0,0,0,0,0,0,0,0,0,-1,538,526,0,0
-679,498,0,0,0,0,0,0,0,0,0,-1,545,526,0,0
-672,498,0,0,0,0,0,0,0,0,0,-1,552,526,0,0
-665,498,0,0,0,0,0,0,0,0,0,-1,559,526,0,0
-658,498,0,0,0,0,0,0,0,0,0,-1,566,526,0,0
-651,498,0,0,0,0,0,0,0,0,0,-1,573,526,0,0
-644,498,0,0,0,0,0,0,0,0,0,-1,580,526,0,0
-637,498,0,0,0,0,0,0,0,0,0,-1,587,526,0,0
-630,498,0,0,0,0,0,0,0,0,0,-1,594,526,0,0
-623,498,0,0,0,0,0,0,0,0,0,-1,601,526,0,0
-616,498,0,0,0,0,0,0,0,0,0,-1,608,526,0,0
-609,498,0,0,0,0,0,0,0,0,0,-1,615,526,0,0
-602,498,0,0,0,0,0,0,0,0,0,-1,622,526,0,0
-595,498,0,0,0,0,0,0,0,0,0,-1,629,526,0,0
-588,498,0,0,0,0,0,0,0,0,0,-1,636,526,0,0
-581,498,0,0,0,0,0,0,0,0,0,-1,643,526,0,0
-574,498,0,0,0,0,0,0,0,0,0,-1,650,526,0,0
-567,498,0,0,0,0,0,0,0,0,0,-1,657,526,0,0
-560,498,0,0,0,0,0,0,0,0,0,-1,664,526,0,0
-553,498,0,0,0,0,0,0,0,0,0,-1,671,526,0,0
-546,498,0,0,0,0,0,0,0,0,0,-1,678,526,0,0
-539,498,0,0,0,0,0,0,0,0,0,-1,685,526,0,0
-532,498,0,0,0,0,0,0,0,0,0,-1,692,526,0,0
-525,498,0,0,0,0,0,0,0,0,0,-1,699,526,0,0
-518,498,0,0,0,0,0,0,0,0,0,-1,706,526,0,0
-511,498,0,0,0,0,0,0,0,0,0,-1,713,526,0,0
-504,498,0,0,0,0,0,0,0,0,0,-1,720,526,0,0
-497,498,0,0,0,0,0,0,0,0,0,-1,727,526,0,0
-490,498,0,0,0,0,0,0,0,0,0,-1,734,526,0,0
-483,498,0,0,0,0,0,0,0,0,0,-1,741,526,0,0
-476,498,0,0,0,0,0,0,0,0,0,-1,748,526,0,0
-469,498,0,0,0,0,0,0,0,0,0,-1,755,526,0,0
-462,498,6.81024,1.15515,0,0,0,0,0,0,0,-1,762,526,6.81026,-1.15514
-455,498,3.25757,-3.0592,0,0,0,0,0,0,0,-1,769,526,3.25754,3.05921
-448,498,3.05939,-3.74298,0,0,0,0,0,0,0,-1,776,526,3.05939,3.74296
-441,498,2.77191,-6.08209,0,0,0,0,0,0,0,-1,783,526,2.77189,6.08207
-434,498,2.10681,-6.95929,0,0,0,0,0,0,0,-1,790,526,2.10682,6.9593
-427,498,-0.342224,-6.47314,0,0,0,0,0,0,0,-1,797,526,-0.342207,6.47314
-420,498,-0.675293,-6.72467,0,0,0,0,0,0,0,-1,804,526,-0.675275,6.72468
-413,498,-1.61993,-8.30658,0,0,0,0,0,0,0,-1,811,526,-1.61992,8.30659
-406,498,-1.49054,-8.84094,-0.00146083,0.0095221,-0.00464394,0.0112225,-0.00316119,-1.21981,0.00872832,0.0469088,818,526,-1.49052,8.84094
-399,498,-1.38159,-9.37555,-0.00129885,0.00743047,-0.00379581,0.00885014,-0.00271852,-1.21289,0.00698489,0.0255518,825,526,-1.38158,9.37552
-392,498,-1.42682,-9.8512,-0.00120001,0.00558251,-0.00300566,0.00672276,-0.00234027,-1.2082,0.00543264,0.0129021,832,526,-1.42681,9.85117
-385,498,-1.45795,-10.2464,-0.000892711,0.00422497,-0.00241805,0.00518673,-0.00185447,-1.19224,0.00421425,0.00951417,839,526,-1.45795,10.2464
-378,498,-1.48865,-10.6249,-0.000449496,0.00317028,-0.00198338,0.00404544,-0.00132466,-1.15524,0.00323035,0.0105307,846,526,-1.48864,10.6249
-371,498,-1.46832,-11.0156,-0.000134652,0.00227501,-0.00158639,0.00306223,-0.000921869,-1.11017,0.00240833,0.0163253,853,526,-1.46833,11.0156
-364,498,-1.48035,-11.3871,0.000150639,0.00152953,-0.0012354,0.00225484,-0.000574675,-1.03991,0.00172696,0.0162942,860,526,-1.48034,11.3871
-357,498,-1.49377,-11.7325,0.000509435,0.00098149,-0.000954994,0.00172919,-0.000238266,-0.906546,0.00123987,0.0109768,867,526,-1.49377,11.7325
-350,498,-1.50006,-12.0832,0.000908598,0.000545794,-0.000774322,0.00152248,-6.8091e-05,-0.670337,0.00103843,0.0114004,874,526,-1.50007,12.0832
-343,498,-1.49341,-12.4442,0.0012979,0.000274025,-0.000659817,0.00162109,-4.91643e-05,-0.455468,0.00109748,0.0113325,881,526,-1.49339,12.4442
-336,498,-1.49414,-12.8182,0.00168293,4.64607e-05,-0.000554029,0.00185285,-0.000123463,-0.297597,0.00127838,0.0143935,888,526,-1.49417,12.8182
-329,498,-1.48242,-13.1501,0.00213842,-9.83499e-05,-0.000534751,0.00225969,-0.000219619,-0.223006,0.00158475,0.0197259,895,526,-1.48242,13.1501
-322,498,-1.50726,-13.4991,0.00260164,-0.000159042,-0.000506951,0.00269179,-0.000249191,-0.175986,0.00188309,0.0199552,902,526,-1.50728,13.4991
-315,498,-1.54071,-13.843,0.00311938,-0.000234695,-0.000466212,0.00318298,-0.000298292,-0.135575,0.00222808,0.0174294,909,526,-1.54074,13.843
-308,498,-1.51147,-14.1861,0.00371841,-0.000350656,-0.000430401,0.00376344,-0.000395683,-0.104237,0.00265071,0.0214543,916,526,-1.51146,14.1861
-301,498,-1.39807,-14.5965,0.00444466,-0.000583685,-0.000247537,0.00445682,-0.000595841,-0.0490703,0.00318844,0.0399319,923,526,-1.3981,14.5965
-294,498,-1.33246,-15.0214,0,0,0,0,0,0,0,-1,930,526,-1.33246,15.0214
-287,498,-0.91394,-13.4327,0,0,0,0,0,0,0,-1,937,526,-0.913935,13.4327
-280,498,-0.341614,-8.66608,0,0,0,0,0,0,0,-1,944,526,-0.341589,8.66606
-273,498,-0.988892,-8.62921,0,0,0,0,0,0,0,-1,951,526,-0.988906,8.62922
-266,498,0.362488,-6.33545,0,0,0,0,0,0,0,-1,958,526,0.362478,6.33547
-259,498,10.9454,-17.3615,0,0,0,0,0,0,0,-1,965,526,10.9454,17.3614
-252,498,8.56586,-14.6886,0,0,0,0,0,0,0,-1,972,526,8.56584,14.6886
-245,498,5.97382,-11.928,0,0,0,0,0,0,0,-1,979,526,5.97381,11.928
-238,498,2.24841,-13.8145,0,0,0,0,0,0,0,-1,986,526,2.24838,13.8145
-231,498,0.665894,-10.4898,0,0,0,0,0,0,0,-1,993,526,0.665863,10.4898
-224,498,-2.11243,-4.76312,0,0,0,0,0,0,0,-1,1000,526,-2.11245,4.76314
-217,498,-3.82239,-1.42841,0,0,0,0,0,0,0,-1,1007,526,-3.82241,1.42843
-210,498,-1.80591,-0.358215,0,0,0,0,0,0,0,-1,1014,526,-1.8059,0.3582
-203,498,-3.17316,1.06641,0,0,0,0,0,0,0,-1,1021,526,-3.17313,-1.0664
-196,498,-0.103271,5.40527,0,0,0,0,0,0,0,-1,1028,526,-0.103285,-5.40528
-189,498,3.00256,6.47137,0,0,0,0,0,0,0,-1,1035,526,3.00256,-6.47139
-182,498,0,0,0,0,0,0,0,0,0,-1,1042,526,0,0
-175,498,0,0,0,0,0,0,0,0,0,-1,1049,526,0,0
-168,498,0,0,0,0,0,0,0,0,0,-1,1056,526,0,0
-161,498,0,0,0,0,0,0,0,0,0,-1,1063,526,0,0
-154,498,0,0,0,0,0,0,0,0,0,-1,1070,526,0,0
-147,498,0,0,0,0,0,0,0,0,0,-1,1077,526,0,0
-140,498,0,0,0,0,0,0,0,0,0,-1,1084,526,0,0
-133,498,0,0,0,0,0,0,0,0,0,-1,1091,526,0,0
-126,498,0,0,0,0,0,0,0,0,0,-1,1098,526,0,0
-119,498,0,0,0,0,0,0,0,0,0,-1,1105,526,0,0
-112,498,0,0,0,0,0,0,0,0,0,-1,1112,526,0,0
-105,498,0,0,0,0,0,0,0,0,0,-1,1119,526,0,0
-98,498,0,0,0,0,0,0,0,0,0,-1,1126,526,0,0
-91,498,0,0,0,0,0,0,0,0,0,-1,1133,526,0,0
-84,498,0,0,0,0,0,0,0,0,0,-1,1140,526,0,0
-77,498,0,0,0,0,0,0,0,0,0,-1,1147,526,0,0
-70,498,0,0,0,0,0,0,0,0,0,-1,1154,526,0,0
-63,498,0,0,0,0,0,0,0,0,0,-1,1161,526,0,0
-56,498,0,0,0,0,0,0,0,0,0,-1,1168,526,0,0
-49,498,0,0,0,0,0,0,0,0,0,-1,1175,526,0,0
-42,498,0,0,0,0,0,0,0,0,0,-1,1182,526,0,0
-35,498,0,0,0,0,0,0,0,0,0,-1,1189,526,0,0
-28,498,0,0,0,0,0,0,0,0,0,-1,1196,526,0,0
-21,498,0,0,0,0,0,0,0,0,0,-1,1203,526,0,0
-14,498,0,0,0,0,0,0,0,0,0,-1,1210,526,0,0
-7,498,0,0,0,0,0,0,0,0,0,-1,1217,526,0,0
0,498,0,0,0,0,0,0,0,0,0,-1,1224,526,0,0
7,498,0,0,0,0,0,0,0,0,0,-1,1231,526,0,0
14,498,0,0,0,0,0,0,0,0,0,-1,1238,526,0,0
21,498,0,0,0,0,0,0,0,0,0,-1,1245,526,0,0
28,498,0,0,0,0,0,0,0,0,0,-1,1252,526,0,0
35,498,0,0,0,0,0,0,0,0,0,-1,1259,526,0,0
42,498,0,0,0,0,0,0,0,0,0,-1,1266,526,0,0
49,498,0,0,0,0,0,0,0,0,0,-1,1273,526,0,0
56,498,0,0,0,0,0,0,0,0,0,-1,1280,526,0,0
63,498,0,0,0,0,0,0,0,0,0,-1,1287,526,0,0
70,498,0,0,0,0,0,0,0,0,0,-1,1294,526,0,0
77,498,0,0,0,0,0,0,0,0,0,-1,1301,526,0,0
84,498,0,0,0,0,0,0,0,0,0,-1,1308,526,0,0
91,498,0,0,0,0,0,0,0,0,0,-1,1315,526,0,0
98,498,0,0,0,0,0,0,0,0,0,-1,1322,526,0,0
105,498,0,0,0,0,0,0,0,0,0,-1,1329,526,0,0
112,498,0,0,0,0,0,0,0,0,0,-1,1336,526,0,0
119,498,0,0,0,0,0,0,0,0,0,-1,1343,526,0,0
126,498,0,0,0,0,0,0,0,0,0,-1,1350,526,0,0
133,498,0,0,0,0,0,0,0,0,0,-1,1357,526,0,0
140,498,0,0,0,0,0,0,0,0,0,-1,1364,526,0,0
147,498,0,0,0,0,0,0,0,0,0,-1,1371,526,0,0
154,498,0,0,0,0,0,0,0,0,0,-1,1378,526,0,0
161,498,0,0,0,0,0,0,0,0,0,-1,1385,526,0,0
168,498,0,0,0,0,0,0,0,0,0,-1,1392,526,0,0
175,498,0,0,0,0,0,0,0,0,0,-1,1399,526,0,0
182,498,0,0,0,0,0,0,0,0,0,-1,1406,526,0,0
189,498,0,0,0,0,0,0,0,0,0,-1,1413,526,0,0
196,498,0,0,0,0,0,0,0,0,0,-1,1420,526,0,0
203,498,0,0,0,0,0,0,0,0,0,-1,1427,526,0,0
210,498,0,0,0,0,0,0,0,0,0,-1,1434,526,0,0
217,498,0,0,0,0,0,0,0,0,0,-1,1441,526,0,0
224,498,0,0,0,0,0,0,0,0,0,-1,1448,526,0,0
231,498,0,0,0,0,0,0,0,0,0,-1,1455,526,0,0
238,498,0,0,0,0,0,0,0,0,0,-1,1462,526,0,0
245,498,0,0,0,0,0,0,0,0,0,-1,1469,526,0,0
252,498,0,0,0,0,0,0,0,0,0,-1,1476,526,0,0
259,498,0,0,0,0,0,0,0,0,0,-1,1483,526,0,0
266,498,0,0,0,0,0,0,0,0,0,-1,1490,526,0,0
273,498,0,0,0,0,0,0,0,0,0,-1,1497,526,0,0
280,498,0,0,0,0,0,0,0,0,0,-1,1504,526,0,0
287,498,0,0,0,0,0,0,0,0,0,-1,1511,526,0,0
294,498,0,0,0,0,0,0,0,0,0,-1,1518,526,0,0
301,498,0,0,0,0,0,0,0,0,0,-1,1525,526,0,0
308,498,4.77942,-0.293884,0,0,0,0,0,0,0,-1,1532,526,4.77939,0.293899
315,498,4.56091,-0.564148,0,0,0,0,0,0,0,-1,1539,526,4.56097,0.564142
322,498,4.52344,-0.447266,0,0,0,0,0,0,0,-1,1546,526,4.52341,0.447295
329,498,4.63232,-0.156982,0,0,0,0,0,0,0,-1,1553,526,4.63238,0.156991
336,498,5.22644,0.0925903,0,0,0,0,0,0,0,-1,1560,526,5.22648,-0.0926188
343,498,6.22607,-1.67615,0,0,0,0,0,0,0,-1,1567,526,6.22605,1.67617
350,498,6.19373,-1.59906,0,0,0,0,0,0,0,-1,1574,526,6.19367,1.59906
357,498,6.21472,-1.58929,0,0,0,0,0,0,0,-1,1581,526,6.21476,1.58927
364,498,5.73547,-1.2019,0,0,0,0,0,0,0,-1,1588,526,5.73547,1.20192
371,498,3.27087,-4.55334,0,0,0,0,0,0,0,-1,1595,526,3.27089,4.55332
378,498,8.42944,-4.70624,0,0,0,0,0,0,0,-1,1602,526,8.42942,4.70624
385,498,4.7793,-5.15314,0,0,0,0,0,0,0,-1,1609,526,4.77935,5.15311
392,498,9.12439,-8.57953,0,0,0,0,0,0,0,-1,1616,526,9.12443,8.57955
399,498,7.98938,-9.46021,0,0,0,0,0,0,0,-1,1623,526,7.98936,9.4602
406,498,7.58081,-9.26819,0,0,0,0,0,0,0,-1,1630,526,7.58085,9.26817
413,498,7.17236,-9.07611,0,0,0,0,0,0,0,-1,1637,526,7.17234,9.07614
420,498,10.0431,-13.4729,0,0,0,0,0,0,0,-1,1644,526,10.0431,13.4729
427,498,9.58289,-13.1076,0,0,0,0,0,0,0,-1,1651,526,9.5829,13.1076
434,498,9.12268,-12.7424,0,0,0,0,0,0,0,-1,1658,526,9.12268,12.7423
441,498,9.12781,-12.5215,0.000519572,0.00111376,-0.00128352,0.00213412,-0.000500786,-0.89913,0.00161575,0.00884277,1665,526,9.12776,12.5215
448,498,9.13928,-12.1538,0.000678854,0.00123033,-0.000797673,0.00179858,0.000110604,-0.951807,0.00116394,0.00974013,1672,526,9.13931,12.1538
455,498,9.1272,-11.797,0.000794625,0.00125423,-0.000435105,0.00151649,0.000532364,-1.02836,0.000888401,0.0127749,1679,526,9.12715,11.797
462,498,9.11267,-11.4348,0.000859967,0.00118381,-0.000114914,0.00122044,0.000823334,-1.26219,0.000718804,0.0148642,1686,526,9.11267,11.4348
469,498,9.09546,-11.0727,0.000961266,0.000991375,0.000191591,0.0011685,0.000784139,0.824606,0.00068767,0.0132567,1693,526,9.09547,11.0727
476,498,9.10889,-10.6862,0.000957013,0.00073655,0.000406542,0.001268,0.00042556,0.653009,0.000745154,0.00986358,1700,526,9.10887,10.6862
483,498,9.09363,-10.3004,0.000824446,0.000428866,0.000528938,0.00119137,6.19472e-05,0.606478,0.000774421,0.0079901,1707,526,9.09362,10.3004
490,498,9.08264,-9.93518,0.000415961,-2.23535e-05,0.000384302,0.000639204,-0.000245596,0.52626,0.000527419,0.0100493,1714,526,9.08262,9.93518
497,498,9.09424,-9.53186,-0.000102957,-0.00042594,0.000214846,4.32329e-06,-0.00053322,0.463115,0.00035693,0.0122165,1721,526,9.09425,9.53184
504,498,9.07019,-9.14233,-0.000842132,-0.0009205,-0.000115678,-0.000759181,-0.00100345,-0.622096,0.000604233,0.0136761,1728,526,9.07024,9.14234
511,498,9.05176,-8.74829,-0.0018452,-0.00141862,-0.00060685,-0.000988666,-0.00227515,-0.95439,0.0013173,0.0147826,1735,526,9.05175,8.7483
518,498,9.08691,-8.32745,-0.00316354,-0.00185509,-0.00129031,-0.00106262,-0.00395601,-1.02002,0.00236412,0.0161082,1742,526,9.08694,8.32745
525,498,8.98694,-7.92053,-0.00473573,-0.00242006,-0.00220608,-0.00108644,-0.00606935,-1.02706,0.00373711,0.0269421,1749,526,8.98699,7.9205
532,498,8.81543,-7.5943,-0.00653144,-0.00297463,-0.00331385,-0.000992141,-0.00851393,-1.03167,0.00537585,0.0444956,1756,526,8.81539,7.59429
539,498,8.57458,-7.33789,-0.0084587,-0.00322268,-0.00447411,-0.000656899,-0.0110245,-1.05011,0.00714076,0.0497011,1763,526,8.57455,7.33791
546,498,8.41748,-7.03583,0,0,0,0,0,0,0,-1,1770,526,8.41747,7.03583
553,498,5.93958,-1.71448,0,0,0,0,0,0,0,-1,1777,526,5.93956,1.71447
560,498,3.69385,-0.615112,0,0,0,0,0,0,0,-1,1784,526,3.69381,0.615118
567,498,5.12695,-0.581604,0,0,0,0,0,0,0,-1,1791,526,5.12699,0.58159
574,498,3.88,0.0286255,0,0,0,0,0,0,0,-1,1798,526,3.87999,-0.0286535
581,498,10.8722,2.58551,0,0,0,0,0,0,0,-1,1805,526,10.8723,-2.58551
588,498,0,0,0,0,0,0,0,0,0,-1,1812,526,0,0
595,498,0,0,0,0,0,0,0,0,0,-1,1819,526,0,0
602,498,0,0,0,0,0,0,0,0,0,-1,1826,526,0,0
609,498,0,0,0,0,0,0,0,0,0,-1,1833,526,0,0
616,498,0,0,0,0,0,0,0,0,0,-1,1840,526,0,0
623,498,0,0,0,0,0,0,0,0,0,-1,1847,526,0,0
630,498,0,0,0,0,0,0,0,0,0,-1,1854,526,0,0
637,498,0,0,0,0,0,0,0,0,0,-1,1861,526,0,0
644,498,0,0,0,0,0,0,0,0,0,-1,1868,526,0,0
651,498,0,0,0,0,0,0,0,0,0,-1,1875,526,0,0
658,498,0,0,0,0,0,0,0,0,0,-1,1882,526,0,0
665,498,0,0,0,0,0,0,0,0,0,-1,1889,526,0,0
672,498,0,0,0,0,0,0,0,0,0,-1,1896,526,0,0
679,498,0,0,0,0,0,0,0,0,0,-1,1903,526,0,0
686,498,0,0,0,0,0,0,0,0,0,-1,1910,526,0,0
693,498,0,0,0,0,0,0,0,0,0,-1,1917,526,0,0
700,498,0,0,0,0,0,0,0,0,0,-1,1924,526,0,0
707,498,0,0,0,0,0,0,0,0,0,-1,1931,526,0,0
714,498,0,0,0,0,0,0,0,0,0,-1,1938,526,0,0
721,498,0,0,0,0,0,0,0,0,0,-1,1945,526,0,0
728,498,0,0,0,0,0,0,0,0,0,-1,1952,526,0,0
735,498,0,0,0,0,0,0,0,0,0,-1,1959,526,0,0
742,498,0,0,0,0,0,0,0,0,0,-1,1966,526,0,0
749,498,0,0,0,0,0,0,0,0,0,-1,1973,526,0,0
756,498,0,0,0,0,0,0,0,0,0,-1,1980,526,0,0
763,498,0,0,0,0,0,0,0,0,0,-1,1987,526,0,0
770,498,0,0,0,0,0,0,0,0,0,-1,1994,526,0,0
777,498,0,0,0,0,0,0,0,0,0,-1,2001,526,0,0
784,498,0,0,0,0,0,0,0,0,0,-1,2008,526,0,0
791,498,0,0,0,0,0,0,0,0,0,-1,2015,526,0,0
798,498,0,0,0,0,0,0,0,0,0,-1,2022,526,0,0
805,498,0,0,0,0,0,0,0,0,0,-1,2029,526,0,0
812,498,0,0,0,0,0,0,0,0,0,-1,2036,526,0,0
-700,491,0,0,0,0,0,0,0,0,0,-1,524,533,0,0
-693,491,0,0,0,0,0,0,0,0,0,-1,531,533,0,0
-686,491,0,0,0,0,0,0,0,0,0,-1,538,533,0,0
-679,491,0,0,0,0,0,0,0,0,0,-1,545,533,0,0
-672,491,0,0,0,0,0,0,0,0,0,-1,552,533,0,0
-665,491,0,0,0,0,0,0,0,0,0,-1,559,533,0,0
-658,491,0,0,0,0,0,0,0,0,0,-1,566,533,0,0
-651,491,0,0,0,0,0,0,0,0,0,-1,573,533,0,0
-644,491,0,0,0,0,0,0,0,0,0,-1,580,533,0,0
-637,491,0,0,0,0,0,0,0,0,0,-1,587,533,0,0
-630,491,0,0,0,0,0,0,0,0,0,-1,594,533,0,0
-623,491,0,0,0,0,0,0,0,0,0,-1,601,533,0,0
-616,491,0,0,0,0,0,0,0,0,0,-1,608,533,0,0
-609,491,0,0,0,0,0,0,0,0,0,-1,615,533,0,0
-602,491,0,0,0,0,0,0,0,0,0,-1,622,533,0,0
-595,491,0,0,0,0,0,0,0,0,0,-1,629,533,0,0
-588,491,0,0,0,0,0,0,0,0,0,-1,636,533,0,0
-581,491,0,0,0,0,0,0,0,0,0,-1,643,533,0,0
-574,491,0,0,0,0,0,0,0,0,0,-1,650,533,0,0
-567,491,0,0,0,0,0,0,0,0,0,-1,657,533,0,0
-560,491,0,0,0,0,0,0,0,0,0,-1,664,533,0,0
-553,491,0,0,0,0,0,0,0,0,0,-1,671,533,0,0
-546,491,0,0,0,0,0,0,0,0,0,-1,678,533,0,0
-539,491,0,0,0,0,0,0,0,0,0,-1,685,533,0,0
-532,491,0,0,0,0,0,0,0,0,0,-1,692,533,0,0
-525,491,0,0,0,0,0,0,0,0,0,-1,699,533,0,0
-518,491,0,0,0,0,0,0,0,0,0,-1,706,533,0,0
-511,491,0,0,0,0,0,0,0,0,0,-1,713,533,0,0
-504,491,0,0,0,0,0,0,0,0,0,-1,720,533,0,0
-497,491,0,0,0,0,0,0,0,0,0,-1,727,533,0,0
-490,491,0,0,0,0,0,0,0,0,0,-1,734,533,0,0
-483,491,0,0,0,0,0,0,0,0,0,-1,741,533,0,0
-476,491,0,0,0,0,0,0,0,0,0,-1,748,533,0,0
-469,491,-5.85913,4.55011,0,0,0,0,0,0,0,-1,755,533,-5.8591,-4.55009
-462,491,-9.93713,4.90381,0,0,0,0,0,0,0,-1,762,533,-9.93716,-4.9038
-455,491,1.9494,-0.27887,0,0,0,0,0,0,0,-1,769,533,1.94941,0.27885
-448,491,2.68909,-1.8999,0,0,0,0,0,0,0,-1,776,533,2.6891,1.89988
-441,491,3.46069,-3.51855,0,0,0,0,0,0,0,-1,783,533,3.46071,3.51854
-434,491,2.67145,-7.44061,0,0,0,0,0,0,0,-1,790,533,2.67146,7.44061
-427,491,2.27136,-8.34546,0,0,0,0,0,0,0,-1,797,533,2.27136,8.34546
-420,491,-1.52142,-8.1123,0,0,0,0,0,0,0,-1,804,533,-1.52142,8.11228
-413,491,-1.82062,-8.58807,0,0,0,0,0,0,0,-1,811,533,-1.82061,8.58808
-406,491,-1.77197,-9.09546,-0.00143265,0.0079922,-0.00367277,0.0092544,-0.00269485,-1.23978,0.00723711,0.0240333,818,533,-1.77198,9.09547
-399,491,-1.77948,-9.48871,-0.00115419,0.00623104,-0.00300132,0.00729692,-0.00222008,-1.22955,0.00574934,0.0110823,825,533,-1.77948,9.48872
-392,491,-1.82416,-9.88055,-0.000925043,0.00461023,-0.00234452,0.0054698,-0.00178461,-1.21939,0.00436476,0.0106833,832,533,-1.82414,9.88056
-385,491,-1.83649,-10.2572,-0.000525193,0.00344631,-0.00188534,0.00419875,-0.00127764,-1.19106,0.00330833,0.0104868,839,533,-1.83647,10.2572
-378,491,-1.84338,-10.6256,-3.10638e-05,0.00253624,-0.00154233,0.00325921,-0.000754037,-1.13246,0.00246293,0.0138163,846,533,-1.8434,10.6256
-371,491,-1.83618,-11.002,0.000321444,0.00174583,-0.00121368,0.00244085,-0.000373572,-1.05073,0.00176499,0.0141564,853,533,-1.83616,11.0019
-364,491,-1.84955,-11.3632,0.000644652,0.00107206,-0.000918232,0.00180113,-8.44155e-05,-0.89973,0.00122986,0.0134888,860,533,-1.84957,11.3631
-357,491,-1.87091,-11.7054,0.00106381,0.000581699,-0.000701157,0.00156419,8.13174e-05,-0.619829,0.00101677,0.0113718,867,533,-1.87091,11.7054
-350,491,-1.87842,-12.0598,0.00155582,0.000245844,-0.000614427,0.0017989,2.76166e-06,-0.376729,0.00119835,0.014274,874,533,-1.8784,12.0598
-343,491,-1.85132,-12.4318,0.00200991,2.50421e-05,-0.000567951,0.00216093,-0.000125981,-0.259894,0.0014844,0.0217027,881,533,-1.85134,12.4318
-336,491,-1.84338,-12.8064,0.00244641,-0.000157438,-0.000551088,0.00255824,-0.00026927,-0.20021,0.00180197,0.0222856,888,533,-1.84338,12.8064
-329,491,-1.85339,-13.145,0.00297277,-0.000280873,-0.000615467,0.0030853,-0.000393404,-0.180841,0.00219976,0.0243486,895,533,-1.85341,13.145
-322,491,-1.87616,-13.4628,0.00355302,-0.000285227,-0.000677768,0.00366919,-0.000401393,-0.169746,0.00259031,0.0239024,902,533,-1.87615,13.4628
-315,491,-1.92389,-13.7809,0.00423619,-0.000331153,-0.000740038,0.0043531,-0.000448067,-0.156689,0.00306237,0.0235311,909,533,-1.92387,13.781
-308,491,-1.82269,-14.3091,0,0,0,0,0,0,0,-1,916,533,-1.82267,14.3092
-301,491,-1.71704,-15.0875,0,0,0,0,0,0,0,-1,923,533,-1.71704,15.0874
-294,491,-0.777283,-8.60913,0,0,0,0,0,0,0,-1,930,533,-0.777288,8.6091
-287,491,-0.26123,-8.69055,0,0,0,0,0,0,0,-1,937,533,-0.261204,8.69053
-280,491,0.2948,-5.99219,0,0,0,0,0,0,0,-1,944,533,0.294811,5.99221
-273,491,0.369995,-5.33691,0,0,0,0,0,0,0,-1,951,533,0.369985,5.33693
-266,491,1.1167,-5.0321,0,0,0,0,0,0,0,-1,958,533,1.11668,5.0321
-259,491,12.0862,-16.9615,0,0,0,0,0,0,0,-1,965,533,12.0862,16.9615
-252,491,9.72443,-13.8417,0,0,0,0,0,0,0,-1,972,533,9.72444,13.8418
-245,491,5.27258,-14.3619,0,0,0,0,0,0,0,-1,979,533,5.27255,14.3619
-238,491,3.65381,-11.1472,0,0,0,0,0,0,0,-1,986,533,3.6538,11.1472
-231,491,2.17719,-7.86835,0,0,0,0,0,0,0,-1,993,533,2.17719,7.86832
-224,491,0.554626,-4.61725,0,0,0,0,0,0,0,-1,1000,533,0.554608,4.61727
-217,491,-2.92743,-1.0766,0,0,0,0,0,0,0,-1,1007,533,-2.92743,1.07659
-210,491,-0.92395,0.374512,0,0,0,0,0,0,0,-1,1014,533,-0.923959,-0.374531
-203,491,0.417419,4.77161,0,0,0,0,0,0,0,-1,1021,533,0.417446,-4.77162
-196,491,0,0,0,0,0,0,0,0,0,-1,1028,533,0,0
-189,491,0,0,0,0,0,0,0,0,0,-1,1035,533,0,0
-182,491,0,0,0,0,0,0,0,0,0,-1,1042,533,0,0
-175,491,0,0,0,0,0,0,0,0,0,-1,1049,533,0,0
-168,491,0,0,0,0,0,0,0,0,0,-1,1056,533,0,0
-161,491,0,0,0,0,0,0,0,0,0,-1,1063,533,0,0
-154,491,0,0,0,0,0,0,0,0,0,-1,1070,533,0,0
-147,491,0,0,0,0,0,0,0,0,0,-1,1077,533,0,0
-140,491,0,0,0,0,0,0,0,0,0,-1,1084,533,0,0
-133,491,0,0,0,0,0,0,0,0,0,-1,1091,533,0,0
-126,491,0,0,0,0,0,0,0,0,0,-1,1098,533,0,0
-119,491,0,0,0,0,0,0,0,0,0,-1,1105,533,0,0
-112,491,0,0,0,0,0,0,0,0,0,-1,1112,533,0,0
-105,491,0,0,0,0,0,0,0,0,0,-1,1119,533,0,0
-98,491,0,0,0,0,0,0,0,0,0,-1,1126,533,0,0
-91,491,0,0,0,0,0,0,0,0,0,-1,1133,533,0,0
-84,491,0,0,0,0,0,0,0,0,0,-1,1140,533,0,0
-77,491,0,0,0,0,0,0,0,0,0,-1,1147,533,0,0
-70,491,0,0,0,0,0,0,0,0,0,-1,1154,533,0,0
-63,491,0,0,0,0,0,0,0,0,0,-1,1161,533,0,0
-56,491,0,0,0,0,0,0,0,0,0,-1,1168,533,0,0
-49,491,0,0,0,0,0,0,0,0,0,-1,1175,533,0,0
-42,491,0,0,0,0,0,0,0,0,0,-1,1182,533,0,0
-35,491,0,0,0,0,0,0,0,0,0,-1,1189,533,0,0
-28,491,0,0,0,0,0,0,0,0,0,-1,1196,533,0,0
-21,491,0,0,0,0,0,0,0,0,0,-1,1203,533,0,0
-14,491,0,0,0,0,0,0,0,0,0,-1,1210,533,0,0
-7,491,0,0,0,0,0,0,0,0,0,-1,1217,533,0,0
0,491,0,0,0,0,0,0,0,0,0,-1,1224,533,0,0
7,491,0,0,0,0,0,0,0,0,0,-1,1231,533,0,0
14,491,0,0,0,0,0,0,0,0,0,-1,1238,533,0,0
21,491,0,0,0,0,0,0,0,0,0,-1,1245,533,0,0
28,491,0,0,0,0,0,0,0,0,0,-1,1252,533,0,0
35,491,0,0,0,0,0,0,0,0,0,-1,1259,533,0,0
42,491,0,0,0,0,0,0,0,0,0,-1,1266,533,0,0
49,491,0,0,0,0,0,0,0,0,0,-1,1273,533,0,0
56,491,0,0,0,0,0,0,0,0,0,-1,1280,533,0,0
63,491,0,0,0,0,0,0,0,0,0,-1,1287,533,0,0
70,491,0,0,0,0,0,0,0,0,0,-1,1294,533,0,0
77,491,0,0,0,0,0,0,0,0,0,-1,1301,533,0,0
84,491,0,0,0,0,0,0,0,0,0,-1,1308,533,0,0
91,491,0,0,0,0,0,0,0,0,0,-1,1315,533,0,0
98,491,0,0,0,0,0,0,0,0,0,-1,1322,533,0,0
105,491,0,0,0,0,0,0,0,0,0,-1,1329,533,0,0
112,491,0,0,0,0,0,0,0,0,0,-1,1336,533,0,0
119,491,0,0,0,0,0,0,0,0,0,-1,1343,533,0,0
126,491,0,0,0,0,0,0,0,0,0,-1,1350,533,0,0
133,491,0,0,0,0,0,0,0,0,0,-1,1357,533,0,0
140,491,0,0,0,0,0,0,0,0,0,-1,1364,533,0,0
147,491,0,0,0,0,0,0,0,0,0,-1,1371,533,0,0
154,491,0,0,0,0,0,0,0,0,0,-1,1378,533,0,0
161,491,0,0,0,0,0,0,0,0,0,-1,1385,533,0,0
168,491,0,0,0,0,0,0,0,0,0,-1,1392,533,0,0
175,491,0,0,0,0,0,0,0,0,0,-1,1399,533,0,0
182,491,0,0,0,0,0,0,0,0,0,-1,1406,533,0,0
189,491,0,0,0,0,0,0,0,0,0,-1,1413,533,0,0
196,491,0,0,0,0,0,0,0,0,0,-1,1420,533,0,0
203,491,0,0,0,0,0,0,0,0,0,-1,1427,533,0,0
210,491,0,0,0,0,0,0,0,0,0,-1,1434,533,0,0
217,491,0,0,0,0,0,0,0,0,0,-1,1441,533,0,0
224,491,0,0,0,0,0,0,0,0,0,-1,1448,533,0,0
231,491,0,0,0,0,0,0,0,0,0,-1,1455,533,0,0
238,491,0,0,0,0,0,0,0,0,0,-1,1462,533,0,0
245,491,0,0,0,0,0,0,0,0,0,-1,1469,533,0,0
252,491,0,0,0,0,0,0,0,0,0,-1,1476,533,0,0
259,491,0,0,0,0,0,0,0,0,0,-1,1483,533,0,0
266,491,0,0,0,0,0,0,0,0,0,-1,1490,533,0,0
273,491,0,0,0,0,0,0,0,0,0,-1,1497,533,0,0
280,491,0,0,0,0,0,0,0,0,0,-1,1504,533,0,0
287,491,0,0,0,0,0,0,0,0,0,-1,1511,533,0,0
294,491,0,0,0,0,0,0,0,0,0,-1,1518,533,0,0
301,491,0,0,0,0,0,0,0,0,0,-1,1525,533,0,0
308,491,0,0,0,0,0,0,0,0,0,-1,1532,533,0,0
315,491,0,0,0,0,0,0,0,0,0,-1,1539,533,0,0
322,491,4.26331,-0.734314,0,0,0,0,0,0,0,-1,1546,533,4.26326,0.734324
329,491,4.25354,-0.783752,0,0,0,0,0,0,0,-1,1553,533,4.25359,0.783734
336,491,4.81604,-0.722107,0,0,0,0,0,0,0,-1,1560,533,4.81605,0.722115
343,491,6.14478,-1.44281,0,0,0,0,0,0,0,-1,1567,533,6.14474,1.44281
350,491,6.36353,-1.30792,0,0,0,0,0,0,0,-1,1574,533,6.36352,1.3079
357,491,6.69482,-1.06018,0,0,0,0,0,0,0,-1,1581,533,6.69489,1.06018
364,491,8.01086,-1.69604,0,0,0,0,0,0,0,-1,1588,533,8.01087,1.69607
371,491,8.2135,-0.539307,0,0,0,0,0,0,0,-1,1595,533,8.21348,0.53929
378,491,13.3589,2.17267,0,0,0,0,0,0,0,-1,1602,533,13.3589,-2.17264
385,491,8.08228,-4.95471,0,0,0,0,0,0,0,-1,1609,533,8.08227,4.95474
392,491,2.88721,-4.30988,0,0,0,0,0,0,0,-1,1616,533,2.88716,4.30986
399,491,8.95862,-8.55518,0,0,0,0,0,0,0,-1,1623,533,8.95864,8.55516
406,491,8.16541,-9.00806,0,0,0,0,0,0,0,-1,1630,533,8.16535,9.00807
413,491,5.31848,-3.7124,0,0,0,0,0,0,0,-1,1637,533,5.31849,3.7124
420,491,4.86389,-3.95892,0,0,0,0,0,0,0,-1,1644,533,4.86387,3.95893
427,491,10.2439,-12.7366,0,0,0,0,0,0,0,-1,1651,533,10.2439,12.7366
434,491,9.70862,-12.3748,0,0,0,0,0,0,0,-1,1658,533,9.70862,12.3748
441,491,9.53125,-12.3897,0.000495844,0.00155964,-0.00156842,0.00268389,-0.000628412,-0.948877,0.0020314,0.0240845,1665,533,9.5313,12.3897
448,491,9.49365,-12.1688,0.000719483,0.00181293,-0.000965631,0.00237587,0.000156544,-1.04299,0.0015344,0.012702,1672,533,9.4937,12.1687
455,491,9.5022,-11.7841,0.000916451,0.00189344,-0.000520278,0.00211861,0.000691281,-1.16235,0.00124754,0.0111247,1679,533,9.50222,11.7841
462,491,9.50134,-11.4142,0.00103933,0.00183976,-0.000136286,0.00186233,0.00101677,-1.40669,0.00107673,0.0147704,1686,533,9.50137,11.4142
469,491,9.47583,-11.0553,0.00117351,0.00164601,0.000187616,0.00171144,0.00110808,1.23521,0.00100232,0.0139889,1693,533,9.47579,11.0553
476,491,9.47839,-10.6837,0.00122175,0.00138697,0.00043194,0.00174413,0.000864592,0.879879,0.00100699,0.010055,1700,533,9.47844,10.6837
483,491,9.47681,-10.2894,0.00111946,0.00108733,0.000593406,0.00169702,0.000509774,0.771863,0.00100546,0.0112439,1707,533,9.47683,10.2894
490,491,9.46802,-9.9248,0.000766962,0.000655372,0.000489173,0.00120351,0.000218822,0.728613,0.000740261,0.0099024,1714,533,9.46798,9.92483
497,491,9.47131,-9.52997,0.000285991,0.000282752,0.000344032,0.000628408,-5.96642e-05,0.783044,0.000440176,0.0115981,1721,533,9.47137,9.52995
504,491,9.46729,-9.12518,-0.000399497,-0.000205424,3.85565e-05,-0.000198045,-0.000406876,1.38169,0.000234938,0.0131921,1728,533,9.46725,9.12519
511,491,9.45129,-8.74005,-0.00131935,-0.000685115,-0.000408258,-0.000485282,-0.00151918,-1.1156,0.000895963,0.0118565,1735,533,9.45126,8.74007
518,491,9.43481,-8.34076,-0.00249524,-0.00111207,-0.000999759,-0.000588006,-0.00301931,-1.08798,0.00184831,0.00900578,1742,533,9.4348,8.34077
525,491,9.44458,-7.91913,-0.00384843,-0.00162615,-0.00177064,-0.000646884,-0.00482769,-1.06561,0.00302597,0.00957079,1749,533,9.44462,7.91915
532,491,9.44958,-7.53693,-0.00534889,-0.0020757,-0.00265609,-0.00059248,-0.00683211,-1.06151,0.00437066,0.0215638,1756,533,9.4496,7.5369
539,491,9.3136,-7.26807,-0.00693434,-0.00233802,-0.00356797,-0.000392134,-0.00888023,-1.07151,0.00579387,0.0350897,1763,533,9.31358,7.26808
546,491,9.04724,-6.69769,0,0,0,0,0,0,0,-1,1770,533,9.04727,6.69772
553,491,8.87097,-5.98004,0,0,0,0,0,0,0,-1,1777,533,8.871,5.98001
560,491,6.28455,-1.43585,0,0,0,0,0,0,0,-1,1784,533,6.28458,1.43586
567,491,5.67651,-1.3562,0,0,0,0,0,0,0,-1,1791,533,5.67649,1.3562
574,491,8.0719,1.58325,0,0,0,0,0,0,0,-1,1798,533,8.07195,-1.58326
581,491,9.44812,1.60931,0,0,0,0,0,0,0,-1,1805,533,9.44808,-1.60933
588,491,11.0497,1.54962,0,0,0,0,0,0,0,-1,1812,533,11.0496,-1.54963
595,491,0,0,0,0,0,0,0,0,0,-1,1819,533,0,0
602,491,0,0,0,0,0,0,0,0,0,-1,1826,533,0,0
609,491,0,0,0,0,0,0,0,0,0,-1,1833,533,0,0
616,491,0,0,0,0,0,0,0,0,0,-1,1840,533,0,0
623,491,0,0,0,0,0,0,0,0,0,-1,1847,533,0,0
630,491,0,0,0,0,0,0,0,0,0,-1,1854,533,0,0
637,491,0,0,0,0,0,0,0,0,0,-1,1861,533,0,0
644,491,0,0,0,0,0,0,0,0,0,-1,1868,533,0,0
651,491,0,0,0,0,0,0,0,0,0,-1,1875,533,0,0
658,491,0,0,0,0,0,0,0,0,0,-1,1882,533,0,0
665,491,0,0,0,0,0,0,0,0,0,-1,1889,533,0,0
672,491,0,0,0,0,0,0,0,0,0,-1,1896,533,0,0
679,491,0,0,0,0,0,0,0,0,0,-1,1903,533,0,0
686,491,0,0,0,0,0,0,0,0,0,-1,1910,533,0,0
693,491,0,0,0,0,0,0,0,0,0,-1,1917,533,0,0
700,491,0,0,0,0,0,0,0,0,0,-1,1924,533,0,0
707,491,0,0,0,0,0,0,0,0,0,-1,1931,533,0,0
714,491,0,0,0,0,0,0,0,0,0,-1,1938,533,0,0
721,491,0,0,0,0,0,0,0,0,0,-1,1945,533,0,0
728,491,0,0,0,0,0,0,0,0,0,-1,1952,533,0,0
735,491,0,0,0,0,0,0,0,0,0,-1,1959,533,0,0
742,491,0,0,0,0,0,0,0,0,0,-1,1966,533,0,0
749,491,0,0,0,0,0,0,0,0,0,-1,1973,533,0,0
756,491,0,0,0,0,0,0,0,0,0,-1,1980,533,0,0
763,491,0,0,0,0,0,0,0,0,0,-1,1987,533,0,0
770,491,0,0,0,0,0,0,0,0,0,-1,1994,533,0,0
777,491,0,0,0,0,0,0,0,0,0,-1,2001,533,0,0
784,491,0,0,0,0,0,0,0,0,0,-1,2008,533,0,0
791,491,0,0,0,0,0,0,0,0,0,-1,2015,533,0,0
798,491,0,0,0,0,0,0,0,0,0,-1,2022,533,0,0
805,491,0,0,0,0,0,0,0,0,0,-1,2029,533,0,0
812,491,0,0,0,0,0,0,0,0,0,-1,2036,533,0,0
-700,484,0,0,0,0,0,0,0,0,0,-1,524,540,0,0
-693,484,0,0,0,0,0,0,0,0,0,-1,531,540,0,0
-686,484,0,0,0,0,0,0,0,0,0,-1,538,540,0,0
-679,484,0,0,0,0,0,0,0,0,0,-1,545,540,0,0
-672,484,0,0,0,0,0,0,0,0,0,-1,552,540,0,0
-665,484,0,0,0,0,0,0,0,0,0,-1,559,540,0,0
-658,484,0,0,0,0,0,0,0,0,0,-1,566,540,0,0
-651,484,0,0,0,0,0,0,0,0,0,-1,573,540,0,0
-644,484,0,0,0,0,0,0,0,0,0,-1,580,540,0,0
-637,484,0,0,0,0,0,0,0,0,0,-1,587,540,0,0
-630,484,0,0,0,0,0,0,0,0,0,-1,594,540,0,0
-623,484,0,0,0,0,0,0,0,0,0,-1,601,540,0,0
-616,484,0,0,0,0,0,0,0,0,0,-1,608,540,0,0
-609,484,0,0,0,0,0,0,0,0,0,-1,615,540,0,0
-602,484,0,0,0,0,0,0,0,0,0,-1,622,540,0,0
-595,484,0,0,0,0,0,0,0,0,0,-1,629,540,0,0
-588,484,0,0,0,0,0,0,0,0,0,-1,636,540,0,0
-581,484,0,0,0,0,0,0,0,0,0,-1,643,540,0,0
-574,484,0,0,0,0,0,0,0,0,0,-1,650,540,0,0
-567,484,0,0,0,0,0,0,0,0,0,-1,657,540,0,0
-560,484,0,0,0,0,0,0,0,0,0,-1,664,540,0,0
-553,484,0,0,0,0,0,0,0,0,0,-1,671,540,0,0
-546,484,0,0,0,0,0,0,0,0,0,-1,678,540,0,0
-539,484,0,0,0,0,0,0,0,0,0,-1,685,540,0,0
-532,484,0,0,0,0,0,0,0,0,0,-1,692,540,0,0
-525,484,0,0,0,0,0,0,0,0,0,-1,699,540,0,0
-518,484,0,0,0,0,0,0,0,0,0,-1,706,540,0,0
-511,484,0,0,0,0,0,0,0,0,0,-1,713,540,0,0
-504,484,0,0,0,0,0,0,0,0,0,-1,720,540,0,0
-497,484,0,0,0,0,0,0,0,0,0,-1,727,540,0,0
-490,484,0,0,0,0,0,0,0,0,0,-1,734,540,0,0
-483,484,0,0,0,0,0,0,0,0,0,-1,741,540,0,0
-476,484,-8.46552,1.44702,0,0,0,0,0,0,0,-1,748,540,-8.46554,-1.44702
-469,484,-7.82343,1.70355,0,0,0,0,0,0,0,-1,755,540,-7.82345,-1.70355
-462,484,-8.36987,3.08612,0,0,0,0,0,0,0,-1,762,540,-8.36988,-3.0861
-455,484,-6.77197,2.07092,0,0,0,0,0,0,0,-1,769,540,-6.77197,-2.07094
-448,484,3.54895,-1.40106,0,0,0,0,0,0,0,-1,776,540,3.54897,1.40106
-441,484,4.28906,-3.05884,0,0,0,0,0,0,0,-1,783,540,4.28905,3.05883
-434,484,-2.17548,-5.07245,0,0,0,0,0,0,0,-1,790,540,-2.17546,5.07243
-427,484,-2.01874,-7.46069,0,0,0,0,0,0,0,-1,797,540,-2.01875,7.46069
-420,484,-2.00623,-8.10187,-0.00206898,0.0108159,-0.00438019,0.0121639,-0.00341699,-1.27224,0.00945633,0.0499747,804,540,-2.00621,8.10185
-413,484,-2.05994,-8.62903,-0.00158133,0.00843811,-0.00361204,0.00960448,-0.0027477,-1.25845,0.00748884,0.0281646,811,540,-2.05991,8.62904
-406,484,-2.09851,-9.08063,-0.00118271,0.00662696,-0.00293765,0.00760859,-0.00216434,-1.24831,0.00592706,0.0155023,818,540,-2.09852,9.08061
-399,484,-2.15332,-9.4837,-0.000875949,0.0051018,-0.00235524,0.00591826,-0.0016924,-1.23711,0.00461428,0.0162102,825,540,-2.15332,9.4837
-392,484,-2.17047,-9.84644,-0.000612253,0.00362709,-0.00176342,0.00426471,-0.00124988,-1.22384,0.00333869,0.0190967,832,540,-2.17049,9.84644
-385,484,-2.19495,-10.2464,-0.000212039,0.00259044,-0.00135933,0.00314144,-0.000763039,-1.18569,0.0023896,0.0135534,839,540,-2.19496,10.2464
-378,484,-2.21826,-10.6265,0.000254004,0.00177096,-0.00104541,0.00230405,-0.000279095,-1.09923,0.00163702,0.0144688,846,540,-2.21825,10.6265
-371,484,-2.21997,-10.995,0.000591003,0.00105084,-0.000739355,0.0015952,4.66412e-05,-0.936144,0.00104827,0.0159185,853,540,-2.22,10.995
-364,484,-2.23456,-11.3417,0.000917782,0.000439685,-0.000470958,0.00120689,0.00015058,-0.550552,0.00075939,0.0121048,860,540,-2.23458,11.3417
-357,484,-2.25,-11.6797,0.00136596,1.24158e-05,-0.000303505,0.0014309,-5.25237e-05,-0.210787,0.000971912,0.0127939,867,540,-2.25001,11.6797
-350,484,-2.25867,-12.0428,0.00192984,-0.000194022,-0.000311899,0.0019747,-0.000238878,-0.142838,0.00140289,0.0151744,874,540,-2.25864,12.0428
-343,484,-2.23907,-12.4311,0.00244227,-0.000314054,-0.000346417,0.00248514,-0.000356926,-0.12313,0.00178765,0.0218556,881,540,-2.23906,12.4311
-336,484,-2.20612,-12.8072,0.00292685,-0.00038417,-0.000446464,0.002986,-0.000443316,-0.131709,0.0021537,0.0245253,888,540,-2.20612,12.8072
-329,484,-2.19287,-13.1193,0.00352763,-0.000413612,-0.000639508,0.0036288,-0.000514782,-0.156899,0.00260779,0.0352225,895,540,-2.19285,13.1193
-322,484,-2.18445,-13.4666,0,0,0,0,0,0,0,-1,902,540,-2.18444,13.4666
-315,484,-2.04785,-13.8908,0,0,0,0,0,0,0,-1,909,540,-2.04788,13.8908
-308,484,-1.32623,-8.9317,0,0,0,0,0,0,0,-1,916,540,-1.32626,8.93173
-301,484,-1.33453,-6.52667,0,0,0,0,0,0,0,-1,923,540,-1.33454,6.5267
-294,484,-1.61224,-8.17059,0,0,0,0,0,0,0,-1,930,540,-1.61227,8.17058
-287,484,-0.715759,-5.62103,0,0,0,0,0,0,0,-1,937,540,-0.715772,5.62105
-280,484,2.66742,-1.6795,0,0,0,0,0,0,0,-1,944,540,2.6674,1.67949
-273,484,2.53125,-2.22296,0,0,0,0,0,0,0,-1,951,540,2.53128,2.22295
-266,484,2.6778,-2.72058,0,0,0,0,0,0,0,-1,958,540,2.6778,2.72061
-259,484,2.41718,-2.59894,0,0,0,0,0,0,0,-1,965,540,2.41717,2.59892
-252,484,10.6069,-11.696,0,0,0,0,0,0,0,-1,972,540,10.6069,11.696
-245,484,6.34106,-11.6107,0,0,0,0,0,0,0,-1,979,540,6.34104,11.6107
-238,484,4.89319,-8.54059,0,0,0,0,0,0,0,-1,986,540,4.89321,8.5406
-231,484,3.47675,-5.22064,0,0,0,0,0,0,0,-1,993,540,3.47676,5.22067
-224,484,1.71344,-2.03473,0,0,0,0,0,0,0,-1,1000,540,1.71342,2.03472
-217,484,-0.745056,1.17358,0,0,0,0,0,0,0,-1,1007,540,-0.745043,-1.17359
-210,484,0,0,0,0,0,0,0,0,0,-1,1014,540,0,0
-203,484,0,0,0,0,0,0,0,0,0,-1,1021,540,0,0
-196,484,0,0,0,0,0,0,0,0,0,-1,1028,540,0,0
-189,484,0,0,0,0,0,0,0,0,0,-1,1035,540,0,0
-182,484,0,0,0,0,0,0,0,0,0,-1,1042,540,0,0
-175,484,0,0,0,0,0,0,0,0,0,-1,1049,540,0,0
-168,484,0,0,0,0,0,0,0,0,0,-1,1056,540,0,0
-161,484,0,0,0,0,0,0,0,0,0,-1,1063,540,0,0
-154,484,0,0,0,0,0,0,0,0,0,-1,1070,540,0,0
-147,484,0,0,0,0,0,0,0,0,0,-1,1077,540,0,0
-140,484,0,0,0,0,0,0,0,0,0,-1,1084,540,0,0
-133,484,0,0,0,0,0,0,0,0,0,-1,1091,540,0,0
-126,484,0,0,0,0,0,0,0,0,0,-1,1098,540,0,0
-119,484,0,0,0,0,0,0,0,0,0,-1,1105,540,0,0
-112,484,0,0,0,0,0,0,0,0,0,-1,1112,540,0,0
-105,484,0,0,0,0,0,0,0,0,0,-1,1119,540,0,0
-98,484,0,0,0,0,0,0,0,0,0,-1,1126,540,0,0
-91,484,0,0,0,0,0,0,0,0,0,-1,1133,540,0,0
-84,484,0,0,0,0,0,0,0,0,0,-1,1140,540,0,0
-77,484,0,0,0,0,0,0,0,0,0,-1,1147,540,0,0
-70,484,0,0,0,0,0,0,0,0,0,-1,1154,540,0,0
-63,484,0,0,0,0,0,0,0,0,0,-1,1161,540,0,0
-56,484,0,0,0,0,0,0,0,0,0,-1,1168,540,0,0
-49,484,0,0,0,0,0,0,0,0,0,-1,1175,540,0,0
-42,484,0,0,0,0,0,0,0,0,0,-1,1182,540,0,0
-35,484,0,0,0,0,0,0,0,0,0,-1,1189,540,0,0
-28,484,0,0,0,0,0,0,0,0,0,-1,1196,540,0,0
-21,484,0,0,0,0,0,0,0,0,0,-1,1203,540,0,0
-14,484,0,0,0,0,0,0,0,0,0,-1,1210,540,0,0
-7,484,0,0,0,0,0,0,0,0,0,-1,1217,540,0,0
0,484,0,0,0,0,0,0,0,0,0,-1,1224,540,0,0
7,484,0,0,0,0,0,0,0,0,0,-1,1231,540,0,0
14,484,0,0,0,0,0,0,0,0,0,-1,1238,540,0,0
21,484,0,0,0,0,0,0,0,0,0,-1,1245,540,0,0
28,484,0,0,0,0,0,0,0,0,0,-1,1252,540,0,0
35,484,0,0,0,0,0,0,0,0,0,-1,1259,540,0,0
42,484,0,0,0,0,0,0,0,0,0,-1,1266,540,0,0
49,484,0,0,0,0,0,0,0,0,0,-1,1273,540,0,0
56,484,0,0,0,0,0,0,0,0,0,-1,1280,540,0,0
63,484,0,0,0,0,0,0,0,0,0,-1,1287,540,0,0
70,484,0,0,0,0,0,0,0,0,0,-1,1294,540,0,0
77,484,0,0,0,0,0,0,0,0,0,-1,1301,540,0,0
84,484,0,0,0,0,0,0,0,0,0,-1,1308,540,0,0
91,484,0,0,0,0,0,0,0,0,0,-1,1315,540,0,0
98,484,0,0,0,0,0,0,0,0,0,-1,1322,540,0,0
105,484,0,0,0,0,0,0,0,0,0,-1,1329,540,0,0
112,484,0,0,0,0,0,0,0,0,0,-1,1336,540,0,0
119,484,0,0,0,0,0,0,0,0,0,-1,1343,540,0,0
126,484,0,0,0,0,0,0,0,0,0,-1,1350,540,0,0
133,484,0,0,0,0,0,0,0,0,0,-1,1357,540,0,0
140,484,0,0,0,0,0,0,0,0,0,-1,1364,540,0,0
147,484,0,0,0,0,0,0,0,0,0,-1,1371,540,0,0
154,484,0,0,0,0,0,0,0,0,0,-1,1378,540,0,0
161,484,0,0,0,0,0,0,0,0,0,-1,1385,540,0,0
168,484,0,0,0,0,0,0,0,0,0,-1,1392,540,0,0
175,484,0,0,0,0,0,0,0,0,0,-1,1399,540,0,0
182,484,0,0,0,0,0,0,0,0,0,-1,1406,540,0,0
189,484,0,0,0,0,0,0,0,0,0,-1,1413,540,0,0
196,484,0,0,0,0,0,0,0,0,0,-1,1420,540,0,0
203,484,0,0,0,0,0,0,0,0,0,-1,1427,540,0,0
210,484,0,0,0,0,0,0,0,0,0,-1,1434,540,0,0
217,484,0,0,0,0,0,0,0,0,0,-1,1441,540,0,0
224,484,0,0,0,0,0,0,0,0,0,-1,1448,540,0,0
231,484,0,0,0,0,0,0,0,0,0,-1,1455,540,0,0
238,484,0,0,0,0,0,0,0,0,0,-1,1462,540,0,0
245,484,0,0,0,0,0,0,0,0,0,-1,1469,540,0,0
252,484,0,0,0,0,0,0,0,0,0,-1,1476,540,0,0
259,484,0,0,0,0,0,0,0,0,0,-1,1483,540,0,0
266,484,0,0,0,0,0,0,0,0,0,-1,1490,540,0,0
273,484,0,0,0,0,0,0,0,0,0,-1,1497,540,0,0
280,484,0,0,0,0,0,0,0,0,0,-1,1504,540,0,0
287,484,0,0,0,0,0,0,0,0,0,-1,1511,540,0,0
294,484,0,0,0,0,0,0,0,0,0,-1,1518,540,0,0
301,484,0,0,0,0,0,0,0,0,0,-1,1525,540,0,0
308,484,0,0,0,0,0,0,0,0,0,-1,1532,540,0,0
315,484,0,0,0,0,0,0,0,0,0,-1,1539,540,0,0
322,484,0,0,0,0,0,0,0,0,0,-1,1546,540,0,0
329,484,0,0,0,0,0,0,0,0,0,-1,1553,540,0,0
336,484,4.38708,-1.64136,0,0,0,0,0,0,0,-1,1560,540,4.38704,1.64138
343,484,7.57996,-1.05457,0,0,0,0,0,0,0,-1,1567,540,7.57995,1.05454
350,484,8.10425,-1.18878,0,0,0,0,0,0,0,-1,1574,540,8.1043,1.18877
357,484,7.74902,-3.80286,0,0,0,0,0,0,0,-1,1581,540,7.74901,3.80287
364,484,6.31262,-3.87213,0,0,0,0,0,0,0,-1,1588,540,6.31263,3.87215
371,484,7.21008,0.973511,0,0,0,0,0,0,0,-1,1595,540,7.21014,-0.973541
378,484,11.0563,1.5014,0,0,0,0,0,0,0,-1,1602,540,11.0563,-1.5014
385,484,14.3469,2.5545,0,0,0,0,0,0,0,-1,1609,540,14.3469,-2.55453
392,484,7.39453,-4.95026,0,0,0,0,0,0,0,-1,1616,540,7.39448,4.95023
399,484,7.14417,-2.5639,0,0,0,0,0,0,0,-1,1623,540,7.14417,2.56391
406,484,7.88953,-2.47321,0,0,0,0,0,0,0,-1,1630,540,7.88954,2.47323
413,484,4.4895,-1.08673,0,0,0,0,0,0,0,-1,1637,540,4.48952,1.08674
420,484,4.50012,-2.11255,0,0,0,0,0,0,0,-1,1644,540,4.50012,2.11256
427,484,5.28601,-3.54053,0,0,0,0,0,0,0,-1,1651,540,5.28599,3.54051
434,484,10.2957,-11.9188,0,0,0,0,0,0,0,-1,1658,540,10.2957,11.9188
441,484,9.922,-12.1998,0,0,0,0,0,0,0,-1,1665,540,9.92199,12.1998
448,484,9.83655,-12.189,0,0,0,0,0,0,0,-1,1672,540,9.83656,12.189
455,484,9.86157,-11.8053,0.00113981,0.00274372,-0.000499088,0.00288634,0.000997192,-1.29245,0.00169275,0.0247057,1679,540,9.86155,11.8053
462,484,9.87573,-11.3906,0.00135094,0.00267569,-3.49748e-05,0.00267661,0.00135002,-1.54442,0.00154536,0.0157075,1686,540,9.87575,11.3906
469,484,9.88281,-11.0323,0.00152346,0.0024474,0.000301621,0.00253715,0.00143371,1.28159,0.00146895,0.0165821,1693,540,9.88282,11.0323
476,484,9.86792,-10.6355,0.00163383,0.00214697,0.000575481,0.00252048,0.00126032,0.995088,0.0014552,0.0157502,1700,540,9.86791,10.6355
483,484,9.86316,-10.2632,0.00157148,0.00181959,0.000778457,0.00248382,0.000907257,0.864415,0.00145128,0.0124111,1707,540,9.8632,10.2633
490,484,9.86877,-9.90112,0.00129023,0.00138353,0.000723237,0.00206162,0.000612139,0.817606,0.00122256,0.0118082,1714,540,9.86872,9.9011
497,484,9.85498,-9.52264,0.000843831,0.00100736,0.000599411,0.00153055,0.000320632,0.853182,0.00093206,0.0132081,1721,540,9.85498,9.52263
504,484,9.84839,-9.12531,0.000207893,0.000494678,0.000315692,0.000698017,4.55364e-06,0.998576,0.000463834,0.0160048,1728,540,9.84833,9.12532
511,484,9.85876,-8.72095,-0.000624936,6.53171e-06,-8.82452e-05,1.86318e-05,-0.000637036,-1.43453,0.000431036,0.0174304,1735,540,9.85878,8.72092
518,484,9.83533,-8.33313,-0.00165072,-0.000434784,-0.000594243,-0.000192605,-0.0018929,-1.1838,0.00120288,0.0143758,1742,540,9.83535,8.33312
525,484,9.81506,-7.92981,-0.00280174,-0.000917892,-0.00124236,-0.000300753,-0.00341888,-1.10975,0.00218591,0.0130486,1749,540,9.81505,7.9298
532,484,9.82556,-7.51385,-0.00404587,-0.00130473,-0.00194668,-0.000294545,-0.00505606,-1.09212,0.00327694,0.0155062,1756,540,9.82559,7.51382
539,484,9.80286,-7.08771,-0.00531831,-0.00160814,-0.00265869,-0.000221316,-0.00670513,-1.09,0.00439817,0.0301507,1763,540,9.80287,7.08771
546,484,9.78601,-6.58722,0,0,0,0,0,0,0,-1,1770,540,9.78606,6.58725
553,484,9.80713,-6.15936,0,0,0,0,0,0,0,-1,1777,540,9.80717,6.15935
560,484,10.0549,-5.47931,0,0,0,0,0,0,0,-1,1784,540,10.055,5.47928
567,484,7.78223,-1.38312,0,0,0,0,0,0,0,-1,1791,540,7.78224,1.38311
574,484,5.74463,1.50922,0,0,0,0,0,0,0,-1,1798,540,5.74463,-1.50924
581,484,10.34,2.9491,0,0,0,0,0,0,0,-1,1805,540,10.34,-2.94912
588,484,10.6669,2.88568,0,0,0,0,0,0,0,-1,1812,540,10.6669,-2.88567
595,484,10.7233,1.04767,0,0,0,0,0,0,0,-1,1819,540,10.7233,-1.04766
602,484,0,0,0,0,0,0,0,0,0,-1,1826,540,0,0
609,484,0,0,0,0,0,0,0,0,0,-1,1833,540,0,0
616,484,0,0,0,0,0,0,0,0,0,-1,1840,540,0,0
623,484,0,0,0,0,0,0,0,0,0,-1,1847,540,0,0
630,484,0,0,0,0,0,0,0,0,0,-1,1854,540,0,0
637,484,0,0,0,0,0,0,0,0,0,-1,1861,540,0,0
644,484,0,0,0,0,0,0,0,0,0,-1,1868,540,0,0
651,484,0,0,0,0,0,0,0,0,0,-1,1875,540,0,0
658,484,0,0,0,0,0,0,0,0,0,-1,1882,540,0,0
665,484,0,0,0,0,0,0,0,0,0,-1,1889,540,0,0
672,484,0,0,0,0,0,0,0,0,0,-1,1896,540,0,0
679,484,0,0,0,0,0,0,0,0,0,-1,1903,540,0,0
686,484,0,0,0,0,0,0,0,0,0,-1,1910,540,0,0
693,484,0,0,0,0,0,0,0,0,0,-1,1917,540,0,0
700,484,0,0,0,0,0,0,0,0,0,-1,1924,540,0,0
707,484,0,0,0,0,0,0,0,0,0,-1,1931,540,0,0
714,484,0,0,0,0,0,0,0,0,0,-1,1938,540,0,0
721,484,0,0,0,0,0,0,0,0,0,-1,1945,540,0,0
728,484,0,0,0,0,0,0,0,0,0,-1,1952,540,0,0
735,484,0,0,0,0,0,0,0,0,0,-1,1959,540,0,0
742,484,0,0,0,0,0,0,0,0,0,-1,1966,540,0,0
749,484,0,0,0,0,0,0,0,0,0,-1,1973,540,0,0
756,484,0,0,0,0,0,0,0,0,0,-1,1980,540,0,0
763,484,0,0,0,0,0,0,0,0,0,-1,1987,540,0,0
770,484,0,0,0,0,0,0,0,0,0,-1,1994,540,0,0
777,484,0,0,0,0,0,0,0,0,0,-1,2001,540,0,0
784,484,0,0,0,0,0,0,0,0,0,-1,2008,540,0,0
791,484,0,0,0,0,0,0,0,0,0,-1,2015,540,0,0
798,484,0,0,0,0,0,0,0,0,0,-1,2022,540,0,0
805,484,0,0,0,0,0,0,0,0,0,-1,2029,540,0,0
812,484,0,0,0,0,0,0,0,0,0,-1,2036,540,0,0
-700,477,0,0,0,0,0,0,0,0,0,-1,524,547,0,0
-693,477,0,0,0,0,0,0,0,0,0,-1,531,547,0,0
-686,477,0,0,0,0,0,0,0,0,0,-1,538,547,0,0
-679,477,0,0,0,0,0,0,0,0,0,-1,545,547,0,0
-672,477,0,0,0,0,0,0,0,0,0,-1,552,547,0,0
-665,477,0,0,0,0,0,0,0,0,0,-1,559,547,0,0
-658,477,0,0,0,0,0,0,0,0,0,-1,566,547,0,0
-651,477,0,0,0,0,0,0,0,0,0,-1,573,547,0,0
-644,477,0,0,0,0,0,0,0,0,0,-1,580,547,0,0
-637,477,0,0,0,0,0,0,0,0,0,-1,587,547,0,0
-630,477,0,0,0,0,0,0,0,0,0,-1,594,547,0,0
-623,477,0,0,0,0,0,0,0,0,0,-1,601,547,0,0
-616,477,0,0,0,0,0,0,0,0,0,-1,608,547,0,0
-609,477,0,0,0,0,0,0,0,0,0,-1,615,547,0,0
-602,477,0,0,0,0,0,0,0,0,0,-1,622,547,0,0
-595,477,0,0,0,0,0,0,0,0,0,-1,629,547,0,0
-588,477,0,0,0,0,0,0,0,0,0,-1,636,547,0,0
-581,477,0,0,0,0,0,0,0,0,0,-1,643,547,0,0
-574,477,0,0,0,0,0,0,0,0,0,-1,650,547,0,0
-567,477,0,0,0,0,0,0,0,0,0,-1,657,547,0,0
-560,477,0,0,0,0,0,0,0,0,0,-1,664,547,0,0
-553,477,0,0,0,0,0,0,0,0,0,-1,671,547,0,0
-546,477,0,0,0,0,0,0,0,0,0,-1,678,547,0,0
-539,477,0,0,0,0,0,0,0,0,0,-1,685,547,0,0
-532,477,0,0,0,0,0,0,0,0,0,-1,692,547,0,0
-525,477,0,0,0,0,0,0,0,0,0,-1,699,547,0,0
-518,477,0,0,0,0,0,0,0,0,0,-1,706,547,0,0
-511,477,0,0,0,0,0,0,0,0,0,-1,713,547,0,0
-504,477,0,0,0,0,0,0,0,0,0,-1,720,547,0,0
-497,477,0,0,0,0,0,0,0,0,0,-1,727,547,0,0
-490,477,0,0,0,0,0,0,0,0,0,-1,734,547,0,0
-483,477,-7.73151,-0.224182,0,0,0,0,0,0,0,-1,741,547,-7.73152,0.224176
-476,477,-6.25806,-0.310547,0,0,0,0,0,0,0,-1,748,547,-6.25804,0.310549
-469,477,-7.26617,0.525085,0,0,0,0,0,0,0,-1,755,547,-7.2662,-0.525111
-462,477,-6.65143,1.06042,0,0,0,0,0,0,0,-1,762,547,-6.65143,-1.06043
-455,477,-5.31757,0.429016,0,0,0,0,0,0,0,-1,769,547,-5.31756,-0.42902
-448,477,-4.0697,0.273376,0,0,0,0,0,0,0,-1,776,547,-4.06971,-0.273363
-441,477,-2.47504,-4.76971,0,0,0,0,0,0,0,-1,783,547,-2.47505,4.76973
-434,477,-2.32397,-7.6673,0,0,0,0,0,0,0,-1,790,547,-2.324,7.66733
-427,477,-2.49249,-7.81616,-0.00253181,0.0109088,-0.00423446,0.0121316,-0.00375463,-1.28967,0.00958755,0.0349461,797,547,-2.49251,7.81616
-420,477,-2.5061,-8.10437,-0.0018248,0.00878647,-0.0035202,0.00984806,-0.00288639,-1.2779,0.00770976,0.0290681,804,547,-2.50607,8.1044
-413,477,-2.47296,-8.62836,-0.00140857,0.00678741,-0.00280733,0.00765678,-0.00227794,-1.27049,0.00600951,0.0182862,811,547,-2.47294,8.62838
-406,477,-2.52069,-9.05981,-0.00104151,0.0052925,-0.00221233,0.00598869,-0.0017377,-1.26592,0.00468048,0.0119285,818,547,-2.52067,9.0598
-399,477,-2.53406,-9.47339,-0.000724021,0.00401242,-0.00171709,0.00456941,-0.00128101,-1.25712,0.00355115,0.0199438,825,547,-2.53409,9.47337
-392,477,-2.56354,-9.86292,-0.00042871,0.00271439,-0.00120805,0.00312505,-0.000839371,-1.24311,0.00241234,0.0177461,832,547,-2.56351,9.86293
-385,477,-2.55756,-10.2306,-1.77941e-05,0.00182338,-0.000872237,0.00217098,-0.000365385,-1.19158,0.00158323,0.014619,839,547,-2.55755,10.2306
-378,477,-2.58051,-10.6221,0.00043557,0.00111167,-0.000600446,0.00146268,8.45517e-05,-1.04178,0.000948196,0.0130085,846,547,-2.5805,10.6221
-371,477,-2.58887,-10.9634,0.000784724,0.000482636,-0.000330787,0.000997319,0.00027004,-0.571225,0.000595633,0.0131767,853,547,-2.58884,10.9635
-364,477,-2.59991,-11.3013,0.00114636,-4.94141e-05,-9.79392e-05,0.00115433,-5.73826e-05,-0.0811832,0.000789377,0.0137615,860,547,-2.59993,11.3013
-357,477,-2.60327,-11.6627,0.00164671,-0.000414231,2.1174e-05,0.00164693,-0.000414449,0.0102725,0.00125905,0.0115302,867,547,-2.60326,11.6627
-350,477,-2.61652,-12.0247,0.00230439,-0.000503983,-7.24763e-05,0.00230626,-0.000505852,-0.0257843,0.00173094,0.0104594,874,547,-2.61652,12.0247
-343,477,-2.5448,-12.4244,0.00290535,-0.000546302,-0.000171859,0.00291389,-0.000554838,-0.0496266,0.00215152,0.0184726,881,547,-2.54482,12.4244
-336,477,-2.46466,-12.7994,0.0034739,-0.000511722,-0.000382769,0.00351033,-0.000548149,-0.0948818,0.00254271,0.0328011,888,547,-2.46468,12.7994
-329,477,-2.41431,-13.1993,0,0,0,0,0,0,0,-1,895,547,-2.4143,13.1993
-322,477,-2.04822,-12.0026,0,0,0,0,0,0,0,-1,902,547,-2.04819,12.0026
-315,477,-1.67358,-9.15253,0,0,0,0,0,0,0,-1,909,547,-1.67356,9.15253
-308,477,-1.30127,-6.55188,0,0,0,0,0,0,0,-1,916,547,-1.30128,6.55185
-301,477,-1.21185,-6.28351,0,0,0,0,0,0,0,-1,923,547,-1.21184,6.28352
-294,477,-0.352905,3.27142,0,0,0,0,0,0,0,-1,930,547,-0.35292,-3.27144
-287,477,3.54364,2.15399,0,0,0,0,0,0,0,-1,937,547,3.54362,-2.15396
-280,477,1.97308,-0.954163,0,0,0,0,0,0,0,-1,944,547,1.9731,0.954178
-273,477,2.11621,-3.76709,0,0,0,0,0,0,0,-1,951,547,2.11619,3.76706
-266,477,2.04669,-3.42389,0,0,0,0,0,0,0,-1,958,547,2.04671,3.42391
-259,477,-1.33478,-3.41205,0,0,0,0,0,0,0,-1,965,547,-1.3348,3.41206
-252,477,0.597168,-5.32922,0,0,0,0,0,0,0,-1,972,547,0.597144,5.32924
-245,477,8.2309,-8.48492,0,0,0,0,0,0,0,-1,979,547,8.23091,8.48494
-238,477,6.60938,-5.64063,0,0,0,0,0,0,0,-1,986,547,6.60938,5.64063
-231,477,4.71716,-2.52484,0,0,0,0,0,0,0,-1,993,547,4.71716,2.52483
-224,477,0,0,0,0,0,0,0,0,0,-1,1000,547,0,0
-217,477,0,0,0,0,0,0,0,0,0,-1,1007,547,0,0
-210,477,0,0,0,0,0,0,0,0,0,-1,1014,547,0,0
-203,477,0,0,0,0,0,0,0,0,0,-1,1021,547,0,0
-196,477,0,0,0,0,0,0,0,0,0,-1,1028,547,0,0
-189,477,0,0,0,0,0,0,0,0,0,-1,1035,547,0,0
-182,477,0,0,0,0,0,0,0,0,0,-1,1042,547,0,0
-175,477,0,0,0,0,0,0,0,0,0,-1,1049,547,0,0
-168,477,0,0,0,0,0,0,0,0,0,-1,1056,547,0,0
-161,477,0,0,0,0,0,0,0,0,0,-1,1063,547,0,0
-154,477,0,0,0,0,0,0,0,0,0,-1,1070,547,0,0
-147,477,0,0,0,0,0,0,0,0,0,-1,1077,547,0,0
-140,477,0,0,0,0,0,0,0,0,0,-1,1084,547,0,0
-133,477,0,0,0,0,0,0,0,0,0,-1,1091,547,0,0
-126,477,0,0,0,0,0,0,0,0,0,-1,1098,547,0,0
-119,477,0,0,0,0,0,0,0,0,0,-1,1105,547,0,0
-112,477,0,0,0,0,0,0,0,0,0,-1,1112,547,0,0
-105,477,0,0,0,0,0,0,0,0,0,-1,1119,547,0,0
-98,477,0,0,0,0,0,0,0,0,0,-1,1126,547,0,0
-91,477,0,0,0,0,0,0,0,0,0,-1,1133,547,0,0
-84,477,0,0,0,0,0,0,0,0,0,-1,1140,547,0,0
-77,477,0,0,0,0,0,0,0,0,0,-1,1147,547,0,0
-70,477,0,0,0,0,0,0,0,0,0,-1,1154,547,0,0
-63,477,0,0,0,0,0,0,0,0,0,-1,1161,547,0,0
-56,477,0,0,0,0,0,0,0,0,0,-1,1168,547,0,0
-49,477,0,0,0,0,0,0,0,0,0,-1,1175,547,0,0
-42,477,0,0,0,0,0,0,0,0,0,-1,1182,547,0,0
-35,477,0,0,0,0,0,0,0,0,0,-1,1189,547,0,0
-28,477,0,0,0,0,0,0,0,0,0,-1,1196,547,0,0
-21,477,0,0,0,0,0,0,0,0,0,-1,1203,547,0,0
-14,477,0,0,0,0,0,0,0,0,0,-1,1210,547,0,0
-7,477,0,0,0,0,0,0,0,0,0,-1,1217,547,0,0
0,477,0,0,0,0,0,0,0,0,0,-1,1224,547,0,0
7,477,0,0,0,0,0,0,0,0,0,-1,1231,547,0,0
14,477,0,0,0,0,0,0,0,0,0,-1,1238,547,0,0
21,477,0,0,0,0,0,0,0,0,0,-1,1245,547,0,0
28,477,0,0,0,0,0,0,0,0,0,-1,1252,547,0,0
35,477,0,0,0,0,0,0,0,0,0,-1,1259,547,0,0
42,477,0,0,0,0,0,0,0,0,0,-1,1266,547,0,0
49,477,0,0,0,0,0,0,0,0,0,-1,1273,547,0,0
56,477,0,0,0,0,0,0,0,0,0,-1,1280,547,0,0
63,477,0,0,0,0,0,0,0,0,0,-1,1287,547,0,0
70,477,0,0,0,0,0,0,0,0,0,-1,1294,547,0,0
77,477,0,0,0,0,0,0,0,0,0,-1,1301,547,0,0
84,477,0,0,0,0,0,0,0,0,0,-1,1308,547,0,0
91,477,0,0,0,0,0,0,0,0,0,-1,1315,547,0,0
98,477,0,0,0,0,0,0,0,0,0,-1,1322,547,0,0
105,477,0,0,0,0,0,0,0,0,0,-1,1329,547,0,0
112,477,0,0,0,0,0,0,0,0,0,-1,1336,547,0,0
119,477,0,0,0,0,0,0,0,0,0,-1,1343,547,0,0
126,477,0,0,0,0,0,0,0,0,0,-1,1350,547,0,0
133,477,0,0,0,0,0,0,0,0,0,-1,1357,547,0,0
140,477,0,0,0,0,0,0,0,0,0,-1,1364,547,0,0
147,477,0,0,0,0,0,0,0,0,0,-1,1371,547,0,0
154,477,0,0,0,0,0,0,0,0,0,-1,1378,547,0,0
161,477,0,0,0,0,0,0,0,0,0,-1,1385,547,0,0
168,477,0,0,0,0,0,0,0,0,0,-1,1392,547,0,0
175,477,0,0,0,0,0,0,0,0,0,-1,1399,547,0,0
182,477,0,0,0,0,0,0,0,0,0,-1,1406,547,0,0
189,477,0,0,0,0,0,0,0,0,0,-1,1413,547,0,0
196,477,0,0,0,0,0,0,0,0,0,-1,1420,547,0,0
203,477,0,0,0,0,0,0,0,0,0,-1,1427,547,0,0
210,477,0,0,0,0,0,0,0,0,0,-1,1434,547,0,0
217,477,0,0,0,0,0,0,0,0,0,-1,1441,547,0,0
224,477,0,0,0,0,0,0,0,0,0,-1,1448,547,0,0
231,477,0,0,0,0,0,0,0,0,0,-1,1455,547,0,0
238,477,0,0,0,0,0,0,0,0,0,-1,1462,547,0,0
245,477,0,0,0,0,0,0,0,0,0,-1,1469,547,0,0
252,477,0,0,0,0,0,0,0,0,0,-1,1476,547,0,0
259,477,0,0,0,0,0,0,0,0,0,-1,1483,547,0,0
266,477,0,0,0,0,0,0,0,0,0,-1,1490,547,0,0
273,477,0,0,0,0,0,0,0,0,0,-1,1497,547,0,0
280,477,0,0,0,0,0,0,0,0,0,-1,1504,547,0,0
287,477,0,0,0,0,0,0,0,0,0,-1,1511,547,0,0
294,477,0,0,0,0,0,0,0,0,0,-1,1518,547,0,0
301,477,0,0,0,0,0,0,0,0,0,-1,1525,547,0,0
308,477,0,0,0,0,0,0,0,0,0,-1,1532,547,0,0
315,477,0,0,0,0,0,0,0,0,0,-1,1539,547,0,0
322,477,0,0,0,0,0,0,0,0,0,-1,1546,547,0,0
329,477,0,0,0,0,0,0,0,0,0,-1,1553,547,0,0
336,477,0,0,0,0,0,0,0,0,0,-1,1560,547,0,0
343,477,0,0,0,0,0,0,0,0,0,-1,1567,547,0,0
350,477,1.7699,-3.32275,0,0,0,0,0,0,0,-1,1574,547,1.7699,3.32272
357,477,3.073,-4.83313,0,0,0,0,0,0,0,-1,1581,547,3.07303,4.83316
364,477,4.30127,-4.22864,0,0,0,0,0,0,0,-1,1588,547,4.30125,4.22865
371,477,4.57703,0.283264,0,0,0,0,0,0,0,-1,1595,547,4.57706,-0.283262
378,477,8.57947,1.05969,0,0,0,0,0,0,0,-1,1602,547,8.5795,-1.05972
385,477,12.3726,2.02356,0,0,0,0,0,0,0,-1,1609,547,12.3725,-2.02355
392,477,16.4678,2.76843,0,0,0,0,0,0,0,-1,1616,547,16.4678,-2.76845
399,477,8.00037,-2.29523,0,0,0,0,0,0,0,-1,1623,547,8.00031,2.2952
406,477,4.82495,2.7475,0,0,0,0,0,0,0,-1,1630,547,4.825,-2.74752
413,477,4.88171,-0.336426,0,0,0,0,0,0,0,-1,1637,547,4.88169,0.336398
420,477,3.34875,0.102722,0,0,0,0,0,0,0,-1,1644,547,3.34871,-0.1027
427,477,1.66772,-0.373108,0,0,0,0,0,0,0,-1,1651,547,1.66768,0.373104
434,477,3.76978,-2.30798,0,0,0,0,0,0,0,-1,1658,547,3.76974,2.30801
441,477,4.05444,-2.80402,0,0,0,0,0,0,0,-1,1665,547,4.05444,2.804
448,477,10.4247,-11.7421,0,0,0,0,0,0,0,-1,1672,547,10.4247,11.7421
455,477,10.2811,-11.8839,0,0,0,0,0,0,0,-1,1679,547,10.2811,11.8839
462,477,10.3713,-11.4996,0.00194441,0.00348554,0.000186436,0.00350778,0.00192217,1.4521,0.00202832,0.0480789,1686,547,10.3713,11.4997
469,477,10.2855,-11.0169,0.00213594,0.00323192,0.000530993,0.00344698,0.00192088,1.18597,0.00199446,0.0286569,1693,547,10.2855,11.0169
476,477,10.2574,-10.6422,0.00229573,0.00290038,0.000837638,0.00348858,0.00170752,0.958585,0.00201428,0.0187953,1700,547,10.2574,10.6422
483,477,10.2678,-10.2656,0.0022671,0.00255179,0.0010889,0.00350761,0.00131129,0.850391,0.0020465,0.0124216,1707,547,10.2679,10.2655
490,477,10.2446,-9.89233,0.00204733,0.00212261,0.00109093,0.00317655,0.000993394,0.802644,0.00187637,0.0116132,1714,547,10.2447,9.89232
497,477,10.243,-9.49402,0.00160813,0.00173964,0.000985862,0.00266194,0.000685835,0.818698,0.00159592,0.0119361,1721,547,10.2431,9.49401
504,477,10.2362,-9.10455,0.000994732,0.00119449,0.000715121,0.00181667,0.000372546,0.854781,0.00110801,0.0173053,1728,547,10.2362,9.10454
511,477,10.2676,-8.74304,0.000220639,0.000684961,0.000338094,0.00086293,4.26703e-05,1.08626,0.000561604,0.0217293,1735,547,10.2675,8.74305
518,477,10.2367,-8.34241,-0.000693557,0.000213032,-0.000107481,0.000225601,-0.000706125,-1.45439,0.000561272,0.0195756,1742,547,10.2367,8.34239
525,477,10.1865,-7.91547,-0.00170456,-0.000257612,-0.000665871,2.17382e-06,-0.00196435,-1.19882,0.00131029,0.0169928,1749,547,10.1865,7.91546
532,477,10.1646,-7.51013,-0.00278367,-0.000623551,-0.00124304,-5.68959e-05,-0.00335032,-1.14308,0.00221483,0.0187786,1756,547,10.1645,7.51014
539,477,10.1974,-7.04974,-0.00386935,-0.000969181,-0.00182672,-8.69615e-05,-0.00475157,-1.12088,0.00313913,0.0165908,1763,547,10.1974,7.04973
546,477,10.1633,-6.67554,-0.0049752,-0.00136486,-0.00243674,-0.00013748,-0.00620258,-1.1042,0.00409,0.027628,1770,547,10.1633,6.67553
553,477,10.1465,-6.24707,-0.00610764,-0.00159736,-0.00304459,-6.36785e-05,-0.00764132,-1.10416,0.00507312,0.0343785,1777,547,10.1465,6.24706
560,477,10.3789,-5.70862,0,0,0,0,0,0,0,-1,1784,547,10.379,5.70859
567,477,10.2544,-5.24359,0,0,0,0,0,0,0,-1,1791,547,10.2543,5.24358
574,477,6.82593,-0.916992,0,0,0,0,0,0,0,-1,1798,547,6.82598,0.916977
581,477,9.29321,-0.557007,0,0,0,0,0,0,0,-1,1805,547,9.29324,0.55703
588,477,9.75195,0.422729,0,0,0,0,0,0,0,-1,1812,547,9.75198,-0.42273
595,477,9.89172,1.21326,0,0,0,0,0,0,0,-1,1819,547,9.89174,-1.21328
602,477,6.5271,-0.964417,0,0,0,0,0,0,0,-1,1826,547,6.52706,0.964427
609,477,0,0,0,0,0,0,0,0,0,-1,1833,547,0,0
616,477,0,0,0,0,0,0,0,0,0,-1,1840,547,0,0
623,477,0,0,0,0,0,0,0,0,0,-1,1847,547,0,0
630,477,0,0,0,0,0,0,0,0,0,-1,1854,547,0,0
637,477,0,0,0,0,0,0,0,0,0,-1,1861,547,0,0
644,477,0,0,0,0,0,0,0,0,0,-1,1868,547,0,0
651,477,0,0,0,0,0,0,0,0,0,-1,1875,547,0,0
658,477,0,0,0,0,0,0,0,0,0,-1,1882,547,0,0
665,477,0,0,0,0,0,0,0,0,0,-1,1889,547,0,0
672,477,0,0,0,0,0,0,0,0,0,-1,1896,547,0,0
679,477,0,0,0,0,0,0,0,0,0,-1,1903,547,0,0
686,477,0,0,0,0,0,0,0,0,0,-1,1910,547,0,0
693,477,0,0,0,0,0,0,0,0,0,-1,1917,547,0,0
700,477,0,0,0,0,0,0,0,0,0,-1,1924,547,0,0
707,477,0,0,0,0,0,0,0,0,0,-1,1931,547,0,0
714,477,0,0,0,0,0,0,0,0,0,-1,1938,547,0,0
721,477,0,0,0,0,0,0,0,0,0,-1,1945,547,0,0
728,477,0,0,0,0,0,0,0,0,0,-1,1952,547,0,0
735,477,0,0,0,0,0,0,0,0,0,-1,1959,547,0,0
742,477,0,0,0,0,0,0,0,0,0,-1,1966,547,0,0
749,477,0,0,0,0,0,0,0,0,0,-1,1973,547,0,0
756,477,0,0,0,0,0,0,0,0,0,-1,1980,547,0,0
763,477,0,0,0,0,0,0,0,0,0,-1,1987,547,0,0
770,477,0,0,0,0,0,0,0,0,0,-1,1994,547,0,0
777,477,0,0,0,0,0,0,0,0,0,-1,2001,547,0,0
784,477,0,0,0,0,0,0,0,0,0,-1,2008,547,0,0
791,477,0,0,0,0,0,0,0,0,0,-1,2015,547,0,0
798,477,0,0,0,0,0,0,0,0,0,-1,2022,547,0,0
805,477,0,0,0,0,0,0,0,0,0,-1,2029,547,0,0
812,477,0,0,0,0,0,0,0,0,0,-1,2036,547,0,0
-700,470,0,0,0,0,0,0,0,0,0,-1,524,554,0,0
-693,470,0,0,0,0,0,0,0,0,0,-1,531,554,0,0
-686,470,0,0,0,0,0,0,0,0,0,-1,538,554,0,0
-679,470,0,0,0,0,0,0,0,0,0,-1,545,554,0,0
-672,470,0,0,0,0,0,0,0,0,0,-1,552,554,0,0
-665,470,0,0,0,0,0,0,0,0,0,-1,559,554,0,0
-658,470,0,0,0,0,0,0,0,0,0,-1,566,554,0,0
-651,470,0,0,0,0,0,0,0,0,0,-1,573,554,0,0
-644,470,0,0,0,0,0,0,0,0,0,-1,580,554,0,0
-637,470,0,0,0,0,0,0,0,0,0,-1,587,554,0,0
-630,470,0,0,0,0,0,0,0,0,0,-1,594,554,0,0
-623,470,0,0,0,0,0,0,0,0,0,-1,601,554,0,0
-616,470,0,0,0,0,0,0,0,0,0,-1,608,554,0,0
-609,470,0,0,0,0,0,0,0,0,0,-1,615,554,0,0
-602,470,0,0,0,0,0,0,0,0,0,-1,622,554,0,0
-595,470,0,0,0,0,0,0,0,0,0,-1,629,554,0,0
-588,470,0,0,0,0,0,0,0,0,0,-1,636,554,0,0
-581,470,0,0,0,0,0,0,0,0,0,-1,643,554,0,0
-574,470,0,0,0,0,0,0,0,0,0,-1,650,554,0,0
-567,470,0,0,0,0,0,0,0,0,0,-1,657,554,0,0
-560,470,0,0,0,0,0,0,0,0,0,-1,664,554,0,0
-553,470,0,0,0,0,0,0,0,0,0,-1,671,554,0,0
-546,470,0,0,0,0,0,0,0,0,0,-1,678,554,0,0
-539,470,0,0,0,0,0,0,0,0,0,-1,685,554,0,0
-532,470,0,0,0,0,0,0,0,0,0,-1,692,554,0,0
-525,470,0,0,0,0,0,0,0,0,0,-1,699,554,0,0
-518,470,0,0,0,0,0,0,0,0,0,-1,706,554,0,0
-511,470,0,0,0,0,0,0,0,0,0,-1,713,554,0,0
-504,470,0,0,0,0,0,0,0,0,0,-1,720,554,0,0
-497,470,0,0,0,0,0,0,0,0,0,-1,727,554,0,0
-490,470,-9.13263,-1.03125,0,0,0,0,0,0,0,-1,734,554,-9.1326,1.03127
-483,470,-7.68677,-1.03955,0,0,0,0,0,0,0,-1,741,554,-7.68678,1.03958
-476,470,-6.17969,-1.03394,0,0,0,0,0,0,0,-1,748,554,-6.17971,1.03395
-469,470,-6.23016,-0.651855,0,0,0,0,0,0,0,-1,755,554,-6.23014,0.651829
-462,470,-4.87915,-1.03705,0,0,0,0,0,0,0,-1,762,554,-4.87914,1.03702
-455,470,-4.14777,-1.37079,0,0,0,0,0,0,0,-1,769,554,-4.14779,1.37078
-448,470,-2.9314,-5.74518,0,0,0,0,0,0,0,-1,776,554,-2.93137,5.74518
-441,470,-2.4798,-6.78607,0,0,0,0,0,0,0,-1,783,554,-2.47981,6.7861
-434,470,-2.66254,-7.49023,-0.00247641,0.0110662,-0.00458017,0.0124698,-0.00387997,-1.27344,0.00986422,0.036301,790,554,-2.66257,7.49023
-427,470,-2.89142,-7.883,-0.00201767,0.00885721,-0.00355055,0.00991378,-0.00307424,-1.28156,0.00783755,0.0181121,797,554,-2.89145,7.88299
-420,470,-2.86713,-8.27826,-0.00149686,0.00710964,-0.00284608,0.00796566,-0.00235289,-1.27863,0.00624429,0.0136532,804,554,-2.86713,8.27826
-413,470,-2.8761,-8.68018,-0.00120181,0.00540539,-0.00213965,0.00603776,-0.00183418,-1.28343,0.00475596,0.0125814,811,554,-2.87611,8.6802
-406,470,-2.914,-9.05676,-0.000905434,0.00413714,-0.00157173,0.00458692,-0.00135521,-1.29208,0.00359584,0.0107286,818,554,-2.91402,9.05676
-399,470,-2.91577,-9.4574,-0.000616447,0.00304019,-0.00111623,0.003354,-0.000930259,-1.29674,0.00260212,0.0142032,825,554,-2.91574,9.45737
-392,470,-2.92847,-9.8634,-0.000326737,0.001885,-0.000653074,0.00206345,-0.000505178,-1.30407,0.00157133,0.0133196,832,554,-2.9285,9.86339
-385,470,-2.92303,-10.2212,6.02567e-05,0.00109516,-0.000347237,0.00120087,-4.54521e-05,-1.27528,0.000816155,0.0104862,839,554,-2.92306,10.2212
-378,470,-2.93512,-10.6021,0.000469787,0.000449348,-8.46466e-05,0.000544829,0.000374306,-0.725323,0.000321808,0.0144536,846,554,-2.93514,10.6021
-371,470,-2.93701,-10.9601,0.000813999,-0.000124414,0.000172039,0.000844545,-0.000154959,0.17572,0.00062116,0.0124742,853,554,-2.937,10.9601
-364,470,-2.95001,-11.2968,0.00120459,-0.000609706,0.000385931,0.00128328,-0.000688387,0.201118,0.00115548,0.0135853,860,554,-2.94999,11.2968
-357,470,-2.9621,-11.6393,0.00175226,-0.000959569,0.000466777,0.00183036,-0.00103766,0.165773,0.0016768,0.0140854,867,554,-2.96211,11.6393
-350,470,-2.95544,-12.0229,0.00249916,-0.000999635,0.000296112,0.00252405,-0.00102452,0.0838379,0.00210886,0.0104493,874,554,-2.95547,12.0229
-343,470,-2.84064,-12.3898,0.00321207,-0.00102262,0.000115823,0.00321524,-0.00102579,0.0273237,0.00255501,0.030074,881,554,-2.84065,12.3898
-336,470,-2.67297,-12.7922,0,0,0,0,0,0,0,-1,888,554,-2.67295,12.7922
-329,470,-2.78516,-12.3594,0,0,0,0,0,0,0,-1,895,554,-2.78517,12.3594
-322,470,-2.30829,-11.4527,0,0,0,0,0,0,0,-1,902,554,-2.30827,11.4527
-315,470,-1.04797,-8.29529,0,0,0,0,0,0,0,-1,909,554,-1.04797,8.29526
-308,470,-1.39368,-6.68152,0,0,0,0,0,0,0,-1,916,554,-1.39369,6.68149
-301,470,-0.0340576,3.34888,0,0,0,0,0,0,0,-1,923,554,-0.0340496,-3.3489
-294,470,-1.18378,3.22266,0,0,0,0,0,0,0,-1,930,554,-1.18376,-3.22268
-287,470,-2.15454,3.2204,0,0,0,0,0,0,0,-1,937,554,-2.15452,-3.22037
-280,470,-3.00537,3.099,0,0,0,0,0,0,0,-1,944,554,-3.00536,-3.09898
-273,470,-12.3932,3.65009,0,0,0,0,0,0,0,-1,951,554,-12.3932,-3.65011
-266,470,-11.5706,1.16028,0,0,0,0,0,0,0,-1,958,554,-11.5706,-1.16031
-259,470,-7.50415,-2.77167,0,0,0,0,0,0,0,-1,965,554,-7.50413,2.7717
-252,470,-0.371155,-5.87823,0,0,0,0,0,0,0,-1,972,554,-0.37114,5.87821
-245,470,1.33221,-6.81122,0,0,0,0,0,0,0,-1,979,554,1.33223,6.8112
-238,470,0,0,0,0,0,0,0,0,0,-1,986,554,0,0
-231,470,0,0,0,0,0,0,0,0,0,-1,993,554,0,0
-224,470,0,0,0,0,0,0,0,0,0,-1,1000,554,0,0
-217,470,0,0,0,0,0,0,0,0,0,-1,1007,554,0,0
-210,470,0,0,0,0,0,0,0,0,0,-1,1014,554,0,0
-203,470,0,0,0,0,0,0,0,0,0,-1,1021,554,0,0
-196,470,0,0,0,0,0,0,0,0,0,-1,1028,554,0,0
-189,470,0,0,0,0,0,0,0,0,0,-1,1035,554,0,0
-182,470,0,0,0,0,0,0,0,0,0,-1,1042,554,0,0
-175,470,0,0,0,0,0,0,0,0,0,-1,1049,554,0,0
-168,470,0,0,0,0,0,0,0,0,0,-1,1056,554,0,0
-161,470,0,0,0,0,0,0,0,0,0,-1,1063,554,0,0
-154,470,0,0,0,0,0,0,0,0,0,-1,1070,554,0,0
-147,470,0,0,0,0,0,0,0,0,0,-1,1077,554,0,0
-140,470,0,0,0,0,0,0,0,0,0,-1,1084,554,0,0
-133,470,0,0,0,0,0,0,0,0,0,-1,1091,554,0,0
-126,470,0,0,0,0,0,0,0,0,0,-1,1098,554,0,0
-119,470,0,0,0,0,0,0,0,0,0,-1,1105,554,0,0
-112,470,0,0,0,0,0,0,0,0,0,-1,1112,554,0,0
-105,470,0,0,0,0,0,0,0,0,0,-1,1119,554,0,0
-98,470,0,0,0,0,0,0,0,0,0,-1,1126,554,0,0
-91,470,0,0,0,0,0,0,0,0,0,-1,1133,554,0,0
-84,470,0,0,0,0,0,0,0,0,0,-1,1140,554,0,0
-77,470,0,0,0,0,0,0,0,0,0,-1,1147,554,0,0
-70,470,0,0,0,0,0,0,0,0,0,-1,1154,554,0,0
-63,470,0,0,0,0,0,0,0,0,0,-1,1161,554,0,0
-56,470,0,0,0,0,0,0,0,0,0,-1,1168,554,0,0
-49,470,0,0,0,0,0,0,0,0,0,-1,1175,554,0,0
-42,470,0,0,0,0,0,0,0,0,0,-1,1182,554,0,0
-35,470,0,0,0,0,0,0,0,0,0,-1,1189,554,0,0
-28,470,0,0,0,0,0,0,0,0,0,-1,1196,554,0,0
-21,470,0,0,0,0,0,0,0,0,0,-1,1203,554,0,0
-14,470,0,0,0,0,0,0,0,0,0,-1,1210,554,0,0
-7,470,0,0,0,0,0,0,0,0,0,-1,1217,554,0,0
0,470,0,0,0,0,0,0,0,0,0,-1,1224,554,0,0
7,470,0,0,0,0,0,0,0,0,0,-1,1231,554,0,0
14,470,0,0,0,0,0,0,0,0,0,-1,1238,554,0,0
21,470,0,0,0,0,0,0,0,0,0,-1,1245,554,0,0
28,470,0,0,0,0,0,0,0,0,0,-1,1252,554,0,0
35,470,0,0,0,0,0,0,0,0,0,-1,1259,554,0,0
42,470,0,0,0,0,0,0,0,0,0,-1,1266,554,0,0
49,470,0,0,0,0,0,0,0,0,0,-1,1273,554,0,0
56,470,0,0,0,0,0,0,0,0,0,-1,1280,554,0,0
63,470,0,0,0,0,0,0,0,0,0,-1,1287,554,0,0
70,470,0,0,0,0,0,0,0,0,0,-1,1294,554,0,0
77,470,0,0,0,0,0,0,0,0,0,-1,1301,554,0,0
84,470,0,0,0,0,0,0,0,0,0,-1,1308,554,0,0
91,470,0,0,0,0,0,0,0,0,0,-1,1315,554,0,0
98,470,0,0,0,0,0,0,0,0,0,-1,1322,554,0,0
105,470,0,0,0,0,0,0,0,0,0,-1,1329,554,0,0
112,470,0,0,0,0,0,0,0,0,0,-1,1336,554,0,0
119,470,0,0,0,0,0,0,0,0,0,-1,1343,554,0,0
126,470,0,0,0,0,0,0,0,0,0,-1,1350,554,0,0
133,470,0,0,0,0,0,0,0,0,0,-1,1357,554,0,0
140,470,0,0,0,0,0,0,0,0,0,-1,1364,554,0,0
147,470,0,0,0,0,0,0,0,0,0,-1,1371,554,0,0
154,470,0,0,0,0,0,0,0,0,0,-1,1378,554,0,0
161,470,0,0,0,0,0,0,0,0,0,-1,1385,554,0,0
168,470,0,0,0,0,0,0,0,0,0,-1,1392,554,0,0
175,470,0,0,0,0,0,0,0,0,0,-1,1399,554,0,0
182,470,0,0,0,0,0,0,0,0,0,-1,1406,554,0,0
189,470,0,0,0,0,0,0,0,0,0,-1,1413,554,0,0
196,470,0,0,0,0,0,0,0,0,0,-1,1420,554,0,0
203,470,0,0,0,0,0,0,0,0,0,-1,1427,554,0,0
210,470,0,0,0,0,0,0,0,0,0,-1,1434,554,0,0
217,470,0,0,0,0,0,0,0,0,0,-1,1441,554,0,0
224,470,0,0,0,0,0,0,0,0,0,-1,1448,554,0,0
231,470,0,0,0,0,0,0,0,0,0,-1,1455,554,0,0
238,470,0,0,0,0,0,0,0,0,0,-1,1462,554,0,0
245,470,0,0,0,0,0,0,0,0,0,-1,1469,554,0,0
252,470,0,0,0,0,0,0,0,0,0,-1,1476,554,0,0
259,470,0,0,0,0,0,0,0,0,0,-1,1483,554,0,0
266,470,0,0,0,0,0,0,0,0,0,-1,1490,554,0,0
273,470,0,0,0,0,0,0,0,0,0,-1,1497,554,0,0
280,470,0,0,0,0,0,0,0,0,0,-1,1504,554,0,0
287,470,0,0,0,0,0,0,0,0,0,-1,1511,554,0,0
294,470,0,0,0,0,0,0,0,0,0,-1,1518,554,0,0
301,470,0,0,0,0,0,0,0,0,0,-1,1525,554,0,0
308,470,0,0,0,0,0,0,0,0,0,-1,1532,554,0,0
315,470,0,0,0,0,0,0,0,0,0,-1,1539,554,0,0
322,470,0,0,0,0,0,0,0,0,0,-1,1546,554,0,0
329,470,0,0,0,0,0,0,0,0,0,-1,1553,554,0,0
336,470,0,0,0,0,0,0,0,0,0,-1,1560,554,0,0
343,470,0,0,0,0,0,0,0,0,0,-1,1567,554,0,0
350,470,0,0,0,0,0,0,0,0,0,-1,1574,554,0,0
357,470,0,0,0,0,0,0,0,0,0,-1,1581,554,0,0
364,470,1.33423,0.293335,0,0,0,0,0,0,0,-1,1588,554,1.33422,-0.293348
371,470,2.22498,-0.0305176,0,0,0,0,0,0,0,-1,1595,554,2.22494,0.0305046
378,470,6.27051,0.710083,0,0,0,0,0,0,0,-1,1602,554,6.27054,-0.710093
385,470,10.3657,1.47296,0,0,0,0,0,0,0,-1,1609,554,10.3657,-1.47299
392,470,15.3881,3.01935,0,0,0,0,0,0,0,-1,1616,554,15.388,-3.01937
399,470,18.4479,2.93793,0,0,0,0,0,0,0,-1,1623,554,18.4479,-2.93792
406,470,15.1896,1.36676,0,0,0,0,0,0,0,-1,1630,554,15.1896,-1.36679
413,470,6.55383,1.99207,0,0,0,0,0,0,0,-1,1637,554,6.5538,-1.99208
420,470,4.47095,0.845703,0,0,0,0,0,0,0,-1,1644,554,4.47098,-0.845718
427,470,3.51038,1.19684,0,0,0,0,0,0,0,-1,1651,554,3.51039,-1.19684
434,470,3.31775,-1.37427,0,0,0,0,0,0,0,-1,1658,554,3.31781,1.37426
441,470,2.55457,-2.05902,0,0,0,0,0,0,0,-1,1665,554,2.55461,2.05904
448,470,3.27258,-2.64032,0,0,0,0,0,0,0,-1,1672,554,3.27257,2.64029
455,470,10.3658,-9.82233,0,0,0,0,0,0,0,-1,1679,554,10.3659,9.82233
462,470,10.9508,-11.5019,0,0,0,0,0,0,0,-1,1686,554,10.9508,11.5019
469,470,10.5544,-11.1519,0,0,0,0,0,0,0,-1,1693,554,10.5544,11.1518
476,470,10.5868,-10.6495,0.00333634,0.0037205,0.00150905,0.00504964,0.00200719,0.8487,0.00293576,0.0377118,1700,554,10.5868,10.6495
483,470,10.6639,-10.2717,0.00334912,0.00329546,0.00173507,0.00505756,0.00158701,0.777668,0.00298672,0.0160251,1707,554,10.6639,10.2717
490,470,10.6224,-9.89343,0.00316242,0.00285516,0.00172092,0.00473656,0.00128103,0.74088,0.00282908,0.0125662,1714,554,10.6224,9.89342
497,470,10.6259,-9.48456,0.00266253,0.00242834,0.00155031,0.00410016,0.000990712,0.747705,0.00247034,0.0117638,1721,554,10.6258,9.48455
504,470,10.6587,-9.11359,0.00199252,0.00182822,0.0012099,0.00312305,0.000697686,0.7515,0.00189283,0.0190549,1728,554,10.6587,9.11358
511,470,10.6842,-8.78442,0.0011932,0.00128061,0.000784042,0.00202216,0.000451646,0.813238,0.00122562,0.0271254,1735,554,10.6842,8.78444
518,470,10.703,-8.35431,0.000300598,0.000762635,0.00033051,0.000934861,0.000128372,1.09042,0.000585163,0.0261067,1742,554,10.703,8.35429
525,470,10.6346,-7.90417,-0.000669435,0.0002882,-0.00020038,0.000328438,-0.000709672,-1.37262,0.000612677,0.0156677,1749,554,10.6347,7.9042
532,470,10.5898,-7.45941,-0.00168612,-8.00767e-05,-0.000717142,0.000193533,-0.00195973,-1.20631,0.00137555,0.0131909,1756,554,10.5899,7.45942
539,470,10.5896,-7.0351,-0.00268899,-0.000477504,-0.00123807,7.67168e-05,-0.00324321,-1.1499,0.00218816,0.0155282,1763,554,10.5896,7.03512
546,470,10.5929,-6.65784,-0.00366854,-0.000869087,-0.00173754,-3.76054e-05,-0.00450002,-1.12446,0.00298756,0.0152516,1770,554,10.5929,6.65784
553,470,10.6024,-6.25958,-0.00465276,-0.00111991,-0.00221861,-5.04055e-05,-0.00572227,-1.1216,0.00379815,0.0156953,1777,554,10.6024,6.2596
560,470,10.5795,-5.79034,-0.00556919,-0.00146451,-0.00266002,-0.000157117,-0.00687659,-1.11397,0.00453293,0.0237912,1784,554,10.5794,5.79033
567,470,10.4934,-5.37109,-0.00644046,-0.00192715,-0.00310025,-0.000349228,-0.00801839,-1.1,0.00523307,0.0226268,1791,554,10.4934,5.37108
574,470,10.5959,-4.76544,0,0,0,0,0,0,0,-1,1798,554,10.5959,4.76542
581,470,8.24646,-4.06317,0,0,0,0,0,0,0,-1,1805,554,8.24648,4.06318
588,470,11.1803,1.74927,0,0,0,0,0,0,0,-1,1812,554,11.1803,-1.74926
595,470,4.72192,3.44116,0,0,0,0,0,0,0,-1,1819,554,4.72191,-3.44116
602,470,14.4307,2.76141,0,0,0,0,0,0,0,-1,1826,554,14.4306,-2.76139
609,470,20.9181,4.41058,0,0,0,0,0,0,0,-1,1833,554,20.9181,-4.4106
616,470,0,0,0,0,0,0,0,0,0,-1,1840,554,0,0
623,470,0,0,0,0,0,0,0,0,0,-1,1847,554,0,0
630,470,0,0,0,0,0,0,0,0,0,-1,1854,554,0,0
637,470,0,0,0,0,0,0,0,0,0,-1,1861,554,0,0
644,470,0,0,0,0,0,0,0,0,0,-1,1868,554,0,0
651,470,0,0,0,0,0,0,0,0,0,-1,1875,554,0,0
658,470,0,0,0,0,0,0,0,0,0,-1,1882,554,0,0
665,470,0,0,0,0,0,0,0,0,0,-1,1889,554,0,0
672,470,0,0,0,0,0,0,0,0,0,-1,1896,554,0,0
679,470,0,0,0,0,0,0,0,0,0,-1,1903,554,0,0
686,470,0,0,0,0,0,0,0,0,0,-1,1910,554,0,0
693,470,0,0,0,0,0,0,0,0,0,-1,1917,554,0,0
700,470,0,0,0,0,0,0,0,0,0,-1,1924,554,0,0
707,470,0,0,0,0,0,0,0,0,0,-1,1931,554,0,0
714,470,0,0,0,0,0,0,0,0,0,-1,1938,554,0,0
721,470,0,0,0,0,0,0,0,0,0,-1,1945,554,0,0
728,470,0,0,0,0,0,0,0,0,0,-1,1952,554,0,0
735,470,0,0,0,0,0,0,0,0,0,-1,1959,554,0,0
742,470,0,0,0,0,0,0,0,0,0,-1,1966,554,0,0
749,470,0,0,0,0,0,0,0,0,0,-1,1973,554,0,0
756,470,0,0,0,0,0,0,0,0,0,-1,1980,554,0,0
763,470,0,0,0,0,0,0,0,0,0,-1,1987,554,0,0
770,470,0,0,0,0,0,0,0,0,0,-1,1994,554,0,0
777,470,0,0,0,0,0,0,0,0,0,-1,2001,554,0,0
784,470,0,0,0,0,0,0,0,0,0,-1,2008,554,0,0
791,470,0,0,0,0,0,0,0,0,0,-1,2015,554,0,0
798,470,0,0,0,0,0,0,0,0,0,-1,2022,554,0,0
805,470,0,0,0,0,0,0,0,0,0,-1,2029,554,0,0
812,470,0,0,0,0,0,0,0,0,0,-1,2036,554,0,0
-700,463,0,0,0,0,0,0,0,0,0,-1,524,561,0,0
-693,463,0,0,0,0,0,0,0,0,0,-1,531,561,0,0
-686,463,0,0,0,0,0,0,0,0,0,-1,538,561,0,0
-679,463,0,0,0,0,0,0,0,0,0,-1,545,561,0,0
-672,463,0,0,0,0,0,0,0,0,0,-1,552,561,0,0
-665,463,0,0,0,0,0,0,0,0,0,-1,559,561,0,0
-658,463,0,0,0,0,0,0,0,0,0,-1,566,561,0,0
-651,463,0,0,0,0,0,0,0,0,0,-1,573,561,0,0
-644,463,0,0,0,0,0,0,0,0,0,-1,580,561,0,0
-637,463,0,0,0,0,0,0,0,0,0,-1,587,561,0,0
-630,463,0,0,0,0,0,0,0,0,0,-1,594,561,0,0
-623,463,0,0,0,0,0,0,0,0,0,-1,601,561,0,0
-616,463,0,0,0,0,0,0,0,0,0,-1,608,561,0,0
-609,463,0,0,0,0,0,0,0,0,0,-1,615,561,0,0
-602,463,0,0,0,0,0,0,0,0,0,-1,622,561,0,0
-595,463,0,0,0,0,0,0,0,0,0,-1,629,561,0,0
-588,463,0,0,0,0,0,0,0,0,0,-1,636,561,0,0
-581,463,0,0,0,0,0,0,0,0,0,-1,643,561,0,0
-574,463,0,0,0,0,0,0,0,0,0,-1,650,561,0,0
-567,463,0,0,0,0,0,0,0,0,0,-1,657,561,0,0
-560,463,0,0,0,0,0,0,0,0,0,-1,664,561,0,0
-553,463,0,0,0,0,0,0,0,0,0,-1,671,561,0,0
-546,463,0,0,0,0,0,0,0,0,0,-1,678,561,0,0
-539,463,0,0,0,0,0,0,0,0,0,-1,685,561,0,0
-532,463,0,0,0,0,0,0,0,0,0,-1,692,561,0,0
-525,463,0,0,0,0,0,0,0,0,0,-1,699,561,0,0
-518,463,0,0,0,0,0,0,0,0,0,-1,706,561,0,0
-511,463,0,0,0,0,0,0,0,0,0,-1,713,561,0,0
-504,463,0,0,0,0,0,0,0,0,0,-1,720,561,0,0
-497,463,-9.81451,-1.67126,0,0,0,0,0,0,0,-1,727,561,-9.81452,1.67127
-490,463,-8.57043,-1.58942,0,0,0,0,0,0,0,-1,734,561,-8.57045,1.58944
-483,463,-7.29224,-1.7226,0,0,0,0,0,0,0,-1,741,561,-7.29226,1.72261
-476,463,-5.77704,-1.7312,0,0,0,0,0,0,0,-1,748,561,-5.77703,1.73121
-469,463,-5.14545,-2.138,0,0,0,0,0,0,0,-1,755,561,-5.14546,2.13799
-462,463,-3.13672,-3.07977,0,0,0,0,0,0,0,-1,762,561,-3.13672,3.07974
-455,463,-2.91406,-5.61798,0,0,0,0,0,0,0,-1,769,561,-2.91406,5.61801
-448,463,-3.08838,-6.21674,-0.0020966,0.0139644,-0.00706212,0.0166279,-0.00476014,-1.21013,0.0129666,0.0493467,776,561,-3.08836,6.21672
-441,463,-3.0531,-6.96472,-0.00197712,0.0113054,-0.00534319,0.013188,-0.00385971,-1.23204,0.010322,0.0413637,783,561,-3.05313,6.96473
-434,463,-3.22308,-7.50543,-0.00180581,0.00898996,-0.00399454,0.0103072,-0.00312309,-1.25226,0.00811537,0.0188906,790,561,-3.2231,7.50545
-427,463,-3.25482,-7.91827,-0.00151611,0.00713135,-0.00299087,0.00806499,-0.00244975,-1.26822,0.00635269,0.0103821,797,561,-3.25483,7.91826
-420,463,-3.24591,-8.29474,-0.00118598,0.00561436,-0.0022458,0.00628908,-0.00186071,-1.27894,0.00493139,0.00977112,804,561,-3.24592,8.29474
-413,463,-3.26703,-8.68335,-0.00103037,0.00409676,-0.00150326,0.00450501,-0.00143862,-1.30562,0.00358055,0.00834069,811,561,-3.26702,8.68332
-406,463,-3.30219,-9.06586,-0.000835717,0.00297188,-0.000915602,0.00318061,-0.00104445,-1.34666,0.00254114,0.0085115,818,561,-3.30216,9.06589
-399,463,-3.29498,-9.44043,-0.000610598,0.0019802,-0.000451955,0.00205678,-0.000687177,-1.40295,0.00164869,0.0101462,825,561,-3.29496,9.44041
-392,463,-3.30103,-9.81763,-0.000361958,0.000920732,4.58035e-06,0.000920748,-0.000361974,1.56723,0.000763643,0.00954163,832,561,-3.30105,9.81761
-385,463,-3.32159,-10.2137,-2.9643e-05,0.000185005,0.000319122,0.000414366,-0.000259005,0.947612,0.000392205,0.00995971,839,561,-3.32157,10.2137
-378,463,-3.31061,-10.6036,0.000310271,-0.00043111,0.000603888,0.000648165,-0.000769005,0.510131,0.000819194,0.0105817,846,561,-3.31061,10.6036
-371,463,-3.30463,-10.9928,0.000640255,-0.000968562,0.00086363,0.00101607,-0.00134438,0.410443,0.00136719,0.0104424,853,561,-3.30462,10.9928
-364,463,-3.30884,-11.3068,0.00106728,-0.00140041,0.00106046,0.00146038,-0.00179351,0.354985,0.00188191,0.0143109,860,561,-3.30883,11.3068
-357,463,-3.34497,-11.6216,0.00167228,-0.0017165,0.00109549,0.00199557,-0.00203979,0.286969,0.00232986,0.0192479,867,561,-3.34495,11.6216
-350,463,-3.2738,-12.0827,0.00252843,-0.00169738,0.000827918,0.00268485,-0.00185379,0.186725,0.00263499,0.0268096,874,561,-3.27381,12.0827
-343,463,-3.06226,-12.3175,0,0,0,0,0,0,0,-1,881,561,-3.06226,12.3175
-336,463,-2.94928,-12.2127,0,0,0,0,0,0,0,-1,888,561,-2.94925,12.2127
-329,463,-2.64307,-12.7037,0,0,0,0,0,0,0,-1,895,561,-2.64307,12.7038
-322,463,-1.82898,-9.11957,0,0,0,0,0,0,0,-1,902,561,-1.829,9.11957
-315,463,-0.944763,-5.96234,0,0,0,0,0,0,0,-1,909,561,-0.94479,5.96237
-308,463,-1.1535,-3.17889,0,0,0,0,0,0,0,-1,916,561,-1.15352,3.17889
-301,463,-1.50366,-3.15338,0,0,0,0,0,0,0,-1,923,561,-1.50364,3.15341
-294,463,-2.35889,-3.93463,0,0,0,0,0,0,0,-1,930,561,-2.35886,3.93465
-287,463,-2.80322,2.73999,0,0,0,0,0,0,0,-1,937,561,-2.80322,-2.74
-280,463,-12.864,5.25146,0,0,0,0,0,0,0,-1,944,561,-12.864,-5.25149
-273,463,-12.4598,3.39178,0,0,0,0,0,0,0,-1,951,561,-12.4598,-3.3918
-266,463,-9.0755,-1.742,0,0,0,0,0,0,0,-1,958,561,-9.07549,1.74198
-259,463,-6.23285,-5.68842,0,0,0,0,0,0,0,-1,965,561,-6.23288,5.68843
-252,463,0,0,0,0,0,0,0,0,0,-1,972,561,0,0
-245,463,0,0,0,0,0,0,0,0,0,-1,979,561,0,0
-238,463,0,0,0,0,0,0,0,0,0,-1,986,561,0,0
-231,463,0,0,0,0,0,0,0,0,0,-1,993,561,0,0
-224,463,0,0,0,0,0,0,0,0,0,-1,1000,561,0,0
-217,463,0,0,0,0,0,0,0,0,0,-1,1007,561,0,0
-210,463,0,0,0,0,0,0,0,0,0,-1,1014,561,0,0
-203,463,0,0,0,0,0,0,0,0,0,-1,1021,561,0,0
-196,463,0,0,0,0,0,0,0,0,0,-1,1028,561,0,0
-189,463,0,0,0,0,0,0,0,0,0,-1,1035,561,0,0
-182,463,0,0,0,0,0,0,0,0,0,-1,1042,561,0,0
-175,463,0,0,0,0,0,0,0,0,0,-1,1049,561,0,0
-168,463,0,0,0,0,0,0,0,0,0,-1,1056,561,0,0
-161,463,0,0,0,0,0,0,0,0,0,-1,1063,561,0,0
-154,463,0,0,0,0,0,0,0,0,0,-1,1070,561,0,0
-147,463,0,0,0,0,0,0,0,0,0,-1,1077,561,0,0
-140,463,0,0,0,0,0,0,0,0,0,-1,1084,561,0,0
-133,463,0,0,0,0,0,0,0,0,0,-1,1091,561,0,0
-126,463,0,0,0,0,0,0,0,0,0,-1,1098,561,0,0
-119,463,0,0,0,0,0,0,0,0,0,-1,1105,561,0,0
-112,463,0,0,0,0,0,0,0,0,0,-1,1112,561,0,0
-105,463,0,0,0,0,0,0,0,0,0,-1,1119,561,0,0
-98,463,0,0,0,0,0,0,0,0,0,-1,1126,561,0,0
-91,463,0,0,0,0,0,0,0,0,0,-1,1133,561,0,0
-84,463,0,0,0,0,0,0,0,0,0,-1,1140,561,0,0
-77,463,0,0,0,0,0,0,0,0,0,-1,1147,561,0,0
-70,463,0,0,0,0,0,0,0,0,0,-1,1154,561,0,0
-63,463,0,0,0,0,0,0,0,0,0,-1,1161,561,0,0
-56,463,0,0,0,0,0,0,0,0,0,-1,1168,561,0,0
-49,463,0,0,0,0,0,0,0,0,0,-1,1175,561,0,0
-42,463,0,0,0,0,0,0,0,0,0,-1,1182,561,0,0
-35,463,0,0,0,0,0,0,0,0,0,-1,1189,561,0,0
-28,463,0,0,0,0,0,0,0,0,0,-1,1196,561,0,0
-21,463,0,0,0,0,0,0,0,0,0,-1,1203,561,0,0
-14,463,0,0,0,0,0,0,0,0,0,-1,1210,561,0,0
-7,463,0,0,0,0,0,0,0,0,0,-1,1217,561,0,0
0,463,0,0,0,0,0,0,0,0,0,-1,1224,561,0,0
7,463,0,0,0,0,0,0,0,0,0,-1,1231,561,0,0
14,463,0,0,0,0,0,0,0,0,0,-1,1238,561,0,0
21,463,0,0,0,0,0,0,0,0,0,-1,1245,561,0,0
28,463,0,0,0,0,0,0,0,0,0,-1,1252,561,0,0
35,463,0,0,0,0,0,0,0,0,0,-1,1259,561,0,0
42,463,0,0,0,0,0,0,0,0,0,-1,1266,561,0,0
49,463,0,0,0,0,0,0,0,0,0,-1,1273,561,0,0
56,463,0,0,0,0,0,0,0,0,0,-1,1280,561,0,0
63,463,0,0,0,0,0,0,0,0,0,-1,1287,561,0,0
70,463,0,0,0,0,0,0,0,0,0,-1,1294,561,0,0
77,463,0,0,0,0,0,0,0,0,0,-1,1301,561,0,0
84,463,0,0,0,0,0,0,0,0,0,-1,1308,561,0,0
91,463,0,0,0,0,0,0,0,0,0,-1,1315,561,0,0
98,463,0,0,0,0,0,0,0,0,0,-1,1322,561,0,0
105,463,0,0,0,0,0,0,0,0,0,-1,1329,561,0,0
112,463,0,0,0,0,0,0,0,0,0,-1,1336,561,0,0
119,463,0,0,0,0,0,0,0,0,0,-1,1343,561,0,0
126,463,0,0,0,0,0,0,0,0,0,-1,1350,561,0,0
133,463,0,0,0,0,0,0,0,0,0,-1,1357,561,0,0
140,463,0,0,0,0,0,0,0,0,0,-1,1364,561,0,0
147,463,0,0,0,0,0,0,0,0,0,-1,1371,561,0,0
154,463,0,0,0,0,0,0,0,0,0,-1,1378,561,0,0
161,463,0,0,0,0,0,0,0,0,0,-1,1385,561,0,0
168,463,0,0,0,0,0,0,0,0,0,-1,1392,561,0,0
175,463,0,0,0,0,0,0,0,0,0,-1,1399,561,0,0
182,463,0,0,0,0,0,0,0,0,0,-1,1406,561,0,0
189,463,0,0,0,0,0,0,0,0,0,-1,1413,561,0,0
196,463,0,0,0,0,0,0,0,0,0,-1,1420,561,0,0
203,463,0,0,0,0,0,0,0,0,0,-1,1427,561,0,0
210,463,0,0,0,0,0,0,0,0,0,-1,1434,561,0,0
217,463,0,0,0,0,0,0,0,0,0,-1,1441,561,0,0
224,463,0,0,0,0,0,0,0,0,0,-1,1448,561,0,0
231,463,0,0,0,0,0,0,0,0,0,-1,1455,561,0,0
238,463,0,0,0,0,0,0,0,0,0,-1,1462,561,0,0
245,463,0,0,0,0,0,0,0,0,0,-1,1469,561,0,0
252,463,0,0,0,0,0,0,0,0,0,-1,1476,561,0,0
259,463,0,0,0,0,0,0,0,0,0,-1,1483,561,0,0
266,463,0,0,0,0,0,0,0,0,0,-1,1490,561,0,0
273,463,0,0,0,0,0,0,0,0,0,-1,1497,561,0,0
280,463,0,0,0,0,0,0,0,0,0,-1,1504,561,0,0
287,463,0,0,0,0,0,0,0,0,0,-1,1511,561,0,0
294,463,0,0,0,0,0,0,0,0,0,-1,1518,561,0,0
301,463,0,0,0,0,0,0,0,0,0,-1,1525,561,0,0
308,463,0,0,0,0,0,0,0,0,0,-1,1532,561,0,0
315,463,0,0,0,0,0,0,0,0,0,-1,1539,561,0,0
322,463,0,0,0,0,0,0,0,0,0,-1,1546,561,0,0
329,463,0,0,0,0,0,0,0,0,0,-1,1553,561,0,0
336,463,0,0,0,0,0,0,0,0,0,-1,1560,561,0,0
343,463,0,0,0,0,0,0,0,0,0,-1,1567,561,0,0
350,463,0,0,0,0,0,0,0,0,0,-1,1574,561,0,0
357,463,0,0,0,0,0,0,0,0,0,-1,1581,561,0,0
364,463,0,0,0,0,0,0,0,0,0,-1,1588,561,0,0
371,463,1.75842,0.152588,0,0,0,0,0,0,0,-1,1595,561,1.75844,-0.152558
378,463,4.58813,-0.0444336,0,0,0,0,0,0,0,-1,1602,561,4.58809,0.0444505
385,463,8.88574,1.65057,0,0,0,0,0,0,0,-1,1609,561,8.88575,-1.65055
392,463,14.0912,2.50513,0,0,0,0,0,0,0,-1,1616,561,14.0912,-2.5051
399,463,21.4769,2.7002,0,0,0,0,0,0,0,-1,1623,561,21.477,-2.70017
406,463,26.2987,4.32318,0,0,0,0,0,0,0,-1,1630,561,26.2987,-4.3232
413,463,26.5011,2.65222,0,0,0,0,0,0,0,-1,1637,561,26.5011,-2.65224
420,463,8.849,2.26611,0,0,0,0,0,0,0,-1,1644,561,8.84899,-2.26613
427,463,5.12207,1.69183,0,0,0,0,0,0,0,-1,1651,561,5.12206,-1.69184
434,463,4.59814,1.81995,0,0,0,0,0,0,0,-1,1658,561,4.59812,-1.81994
441,463,1.76392,-5.99225,0,0,0,0,0,0,0,-1,1665,561,1.7639,5.99225
448,463,2.49939,-4.30536,0,0,0,0,0,0,0,-1,1672,561,2.49941,4.30536
455,463,4.40295,-3.02557,0,0,0,0,0,0,0,-1,1679,561,4.40299,3.02558
462,463,5.38293,-4.06445,0,0,0,0,0,0,0,-1,1686,561,5.38289,4.06444
469,463,5.94373,-4.50647,0,0,0,0,0,0,0,-1,1693,561,5.94368,4.50646
476,463,10.6274,-10.93,0,0,0,0,0,0,0,-1,1700,561,10.6274,10.93
483,463,10.9036,-10.4493,0.0045812,0.00415772,0.00260568,0.00698373,0.00175519,0.744856,0.00419499,0.0460599,1707,561,10.9036,10.4493
490,463,11.0402,-9.87439,0.00443227,0.00367055,0.00255722,0.00663684,0.00146599,0.711474,0.00402587,0.0228817,1714,561,11.0402,9.87437
497,463,11.0125,-9.47797,0.00386755,0.00313848,0.00229753,0.00582928,0.00117674,0.706723,0.00355938,0.0133314,1721,561,11.0125,9.47799
504,463,11.0322,-9.09528,0.00313547,0.0024474,0.00187093,0.00469373,0.000889137,0.694472,0.00287891,0.0162794,1728,561,11.0322,9.09526
511,463,11.0486,-8.70154,0.00231321,0.00183871,0.00139037,0.00348642,0.000665497,0.700893,0.00213727,0.0234715,1735,561,11.0486,8.70153
518,463,11.0922,-8.28925,0.00144541,0.00126078,0.000926849,0.00228453,0.000421657,0.735762,0.00140374,0.0242603,1742,561,11.0921,8.28927
525,463,11.0587,-7.90997,0.000511383,0.000785331,0.000417968,0.0010882,0.000208517,0.94374,0.000666915,0.0183037,1749,561,11.0587,7.90997
532,463,11.0402,-7.48694,-0.00045439,0.000409416,-6.19449e-05,0.000413836,-0.000458809,-1.49957,0.000504045,0.0146766,1756,561,11.0402,7.48692
539,463,11.0114,-7.04645,-0.0014002,-3.5141e-05,-0.000558588,0.000164297,-0.00159964,-1.22786,0.0011252,0.0148897,1763,561,11.0113,7.04644
546,463,10.9926,-6.685,-0.0022884,-0.000413028,-0.000999225,1.95793e-05,-0.00272101,-1.16222,0.00182057,0.0127122,1770,561,10.9925,6.68502
553,463,10.9871,-6.25647,-0.00317196,-0.000693913,-0.00142755,-4.26759e-05,-0.0038232,-1.14281,0.00253469,0.0112772,1777,561,10.987,6.25648
560,463,10.9945,-5.75671,-0.00404738,-0.00102641,-0.00182508,-0.00016782,-0.00490596,-1.13108,0.00321616,0.0147103,1784,561,10.9945,5.7567
567,463,10.8992,-5.35333,-0.00488001,-0.00144229,-0.00222379,-0.000350502,-0.00597179,-1.11441,0.00386965,0.0215192,1791,561,10.8992,5.35334
574,463,10.9622,-4.93335,0,0,0,0,0,0,0,-1,1798,561,10.9621,4.93336
581,463,7.77832,-2.18085,0,0,0,0,0,0,0,-1,1805,561,7.77828,2.18082
588,463,1.97424,2.16016,0,0,0,0,0,0,0,-1,1812,561,1.97422,-2.16013
595,463,9.98657,2.99854,0,0,0,0,0,0,0,-1,1819,561,9.98662,-2.99856
602,463,17.2202,4.91302,0,0,0,0,0,0,0,-1,1826,561,17.2202,-4.91305
609,463,17.96,4.03131,0,0,0,0,0,0,0,-1,1833,561,17.96,-4.03132
616,463,20.8352,3.15131,0,0,0,0,0,0,0,-1,1840,561,20.8352,-3.1513
623,463,0,0,0,0,0,0,0,0,0,-1,1847,561,0,0
630,463,0,0,0,0,0,0,0,0,0,-1,1854,561,0,0
637,463,0,0,0,0,0,0,0,0,0,-1,1861,561,0,0
644,463,0,0,0,0,0,0,0,0,0,-1,1868,561,0,0
651,463,0,0,0,0,0,0,0,0,0,-1,1875,561,0,0
658,463,0,0,0,0,0,0,0,0,0,-1,1882,561,0,0
665,463,0,0,0,0,0,0,0,0,0,-1,1889,561,0,0
672,463,0,0,0,0,0,0,0,0,0,-1,1896,561,0,0
679,463,0,0,0,0,0,0,0,0,0,-1,1903,561,0,0
686,463,0,0,0,0,0,0,0,0,0,-1,1910,561,0,0
693,463,0,0,0,0,0,0,0,0,0,-1,1917,561,0,0
700,463,0,0,0,0,0,0,0,0,0,-1,1924,561,0,0
707,463,0,0,0,0,0,0,0,0,0,-1,1931,561,0,0
714,463,0,0,0,0,0,0,0,0,0,-1,1938,561,0,0
721,463,0,0,0,0,0,0,0,0,0,-1,1945,561,0,0
728,463,0,0,0,0,0,0,0,0,0,-1,1952,561,0,0
735,463,0,0,0,0,0,0,0,0,0,-1,1959,561,0,0
742,463,0,0,0,0,0,0,0,0,0,-1,1966,561,0,0
749,463,0,0,0,0,0,0,0,0,0,-1,1973,561,0,0
756,463,0,0,0,0,0,0,0,0,0,-1,1980,561,0,0
763,463,0,0,0,0,0,0,0,0,0,-1,1987,561,0,0
770,463,0,0,0,0,0,0,0,0,0,-1,1994,561,0,0
777,463,0,0,0,0,0,0,0,0,0,-1,2001,561,0,0
784,463,0,0,0,0,0,0,0,0,0,-1,2008,561,0,0
791,463,0,0,0,0,0,0,0,0,0,-1,2015,561,0,0
798,463,0,0,0,0,0,0,0,0,0,-1,2022,561,0,0
805,463,0,0,0,0,0,0,0,0,0,-1,2029,561,0,0
812,463,0,0,0,0,0,0,0,0,0,-1,2036,561,0,0
-700,456,0,0,0,0,0,0,0,0,0,-1,524,568,0,0
-693,456,0,0,0,0,0,0,0,0,0,-1,531,568,0,0
-686,456,0,0,0,0,0,0,0,0,0,-1,538,568,0,0
-679,456,0,0,0,0,0,0,0,0,0,-1,545,568,0,0
-672,456,0,0,0,0,0,0,0,0,0,-1,552,568,0,0
-665,456,0,0,0,0,0,0,0,0,0,-1,559,568,0,0
-658,456,0,0,0,0,0,0,0,0,0,-1,566,568,0,0
-651,456,0,0,0,0,0,0,0,0,0,-1,573,568,0,0
-644,456,0,0,0,0,0,0,0,0,0,-1,580,568,0,0
-637,456,0,0,0,0,0,0,0,0,0,-1,587,568,0,0
-630,456,0,0,0,0,0,0,0,0,0,-1,594,568,0,0
-623,456,0,0,0,0,0,0,0,0,0,-1,601,568,0,0
-616,456,0,0,0,0,0,0,0,0,0,-1,608,568,0,0
-609,456,0,0,0,0,0,0,0,0,0,-1,615,568,0,0
-602,456,0,0,0,0,0,0,0,0,0,-1,622,568,0,0
-595,456,0,0,0,0,0,0,0,0,0,-1,629,568,0,0
-588,456,0,0,0,0,0,0,0,0,0,-1,636,568,0,0
-581,456,0,0,0,0,0,0,0,0,0,-1,643,568,0,0
-574,456,0,0,0,0,0,0,0,0,0,-1,650,568,0,0
-567,456,0,0,0,0,0,0,0,0,0,-1,657,568,0,0
-560,456,0,0,0,0,0,0,0,0,0,-1,664,568,0,0
-553,456,0,0,0,0,0,0,0,0,0,-1,671,568,0,0
-546,456,0,0,0,0,0,0,0,0,0,-1,678,568,0,0
-539,456,0,0,0,0,0,0,0,0,0,-1,685,568,0,0
-532,456,0,0,0,0,0,0,0,0,0,-1,692,568,0,0
-525,456,0,0,0,0,0,0,0,0,0,-1,699,568,0,0
-518,456,0,0,0,0,0,0,0,0,0,-1,706,568,0,0
-511,456,0,0,0,0,0,0,0,0,0,-1,713,568,0,0
-504,456,-10.3994,-2.34839,0,0,0,0,0,0,0,-1,720,568,-10.3994,2.3484
-497,456,-9.21375,-2.38068,0,0,0,0,0,0,0,-1,727,568,-9.21372,2.38069
-490,456,-8.09058,-2.31824,0,0,0,0,0,0,0,-1,734,568,-8.09057,2.31821
-483,456,-6.66119,-2.24329,0,0,0,0,0,0,0,-1,741,568,-6.66121,2.24331
-476,456,-5.1499,-2.21185,0,0,0,0,0,0,0,-1,748,568,-5.14992,2.21184
-469,456,-2.81238,-3.51501,0,0,0,0,0,0,0,-1,755,568,-2.81237,3.51501
-462,456,-3.75122,-5.14362,0,0,0,0,0,0,0,-1,762,568,-3.7512,5.14361
-455,456,-3.54993,-5.86176,0,0,0,0,0,0,0,-1,769,568,-3.54991,5.86178
-448,456,-3.50458,-6.48364,-0.00145467,0.0111204,-0.00599913,0.0135233,-0.00385751,-1.18983,0.0105394,0.0449494,776,568,-3.50457,6.48361
-441,456,-3.56836,-7.06555,-0.00138445,0.00906811,-0.00454408,0.0107673,-0.00308368,-1.21295,0.00839703,0.0217579,783,568,-3.56839,7.06556
-434,456,-3.6441,-7.50775,-0.00128602,0.00718743,-0.00333814,0.0083445,-0.00244309,-1.23713,0.00653149,0.0124969,790,568,-3.6441,7.50775
-427,456,-3.63348,-7.90948,-0.00108778,0.00559514,-0.00239891,0.00636709,-0.00185973,-1.25947,0.00498172,0.0090239,797,568,-3.63349,7.9095
-420,456,-3.63562,-8.29169,-0.000888553,0.00423047,-0.00163898,0.00471026,-0.00136834,-1.28602,0.00368204,0.009231,804,568,-3.6356,8.29166
-413,456,-3.65533,-8.66724,-0.000830564,0.00285991,-0.000884536,0.00306096,-0.00103162,-1.3473,0.00245777,0.00826775,811,568,-3.65532,8.66723
-406,456,-3.68726,-9.04193,-0.000720163,0.00184693,-0.000291852,0.00187969,-0.000752926,-1.45901,0.00156566,0.00891542,818,568,-3.68725,9.04195
-399,456,-3.68512,-9.41644,-0.000570677,0.000936994,0.000179204,0.000958002,-0.000591685,1.4541,0.000903006,0.010736,825,568,-3.68512,9.41647
-392,456,-3.68573,-9.78906,-0.000391083,-3.30819e-05,0.000629637,0.000442504,-0.000866669,0.92389,0.000768962,0.0095628,832,568,-3.68572,9.78908
-385,456,-3.70294,-10.1826,-0.000156659,-0.000733488,0.000966361,0.000563408,-0.00145356,0.640379,0.0012017,0.00913913,839,568,-3.70297,10.1826
-378,456,-3.70404,-10.5927,5.35085e-05,-0.00134396,0.00129978,0.000830462,-0.00212091,0.53877,0.00175743,0.0102003,846,568,-3.70403,10.5927
-371,456,-3.7063,-10.9736,0.000305005,-0.00186594,0.00159325,0.00114741,-0.00270834,0.486368,0.00228611,0.0105834,853,568,-3.70627,10.9735
-364,456,-3.70325,-11.3024,0.000700083,-0.00225426,0.00180628,0.00155629,-0.00311047,0.442648,0.00274371,0.0163437,860,568,-3.70325,11.3024
-357,456,-3.67725,-11.6661,0.00128444,-0.0025358,0.00182728,0.00201771,-0.00326907,0.381618,0.00308069,0.0253834,867,568,-3.67726,11.6661
-350,456,-3.49017,-12.2921,0,0,0,0,0,0,0,-1,874,568,-3.49016,12.292
-343,456,-3.39081,-12.0217,0,0,0,0,0,0,0,-1,881,568,-3.39078,12.0217
-336,456,-3.04517,-12.4623,0,0,0,0,0,0,0,-1,888,568,-3.04519,12.4624
-329,456,-1.06183,-10.7184,0,0,0,0,0,0,0,-1,895,568,-1.06184,10.7184
-322,456,-0.662537,-7.66632,0,0,0,0,0,0,0,-1,902,568,-0.662564,7.66633
-315,456,-0.675476,-3.38397,0,0,0,0,0,0,0,-1,909,568,-0.675473,3.38399
-308,456,-1.1618,-3.15314,0,0,0,0,0,0,0,-1,916,568,-1.16178,3.15314
-301,456,-1.83551,-3.26447,0,0,0,0,0,0,0,-1,923,568,-1.8355,3.26449
-294,456,-2.93414,-3.35449,0,0,0,0,0,0,0,-1,930,568,-2.93413,3.35451
-287,456,-3.7569,-3.53101,0,0,0,0,0,0,0,-1,937,568,-3.75692,3.53101
-280,456,-13.072,4.52856,0,0,0,0,0,0,0,-1,944,568,-13.072,-4.52855
-273,456,-9.63324,-0.963684,0,0,0,0,0,0,0,-1,951,568,-9.63325,0.963669
-266,456,-6.02454,-4.80182,0,0,0,0,0,0,0,-1,958,568,-6.02451,4.80183
-259,456,0,0,0,0,0,0,0,0,0,-1,965,568,0,0
-252,456,0,0,0,0,0,0,0,0,0,-1,972,568,0,0
-245,456,0,0,0,0,0,0,0,0,0,-1,979,568,0,0
-238,456,0,0,0,0,0,0,0,0,0,-1,986,568,0,0
-231,456,0,0,0,0,0,0,0,0,0,-1,993,568,0,0
-224,456,0,0,0,0,0,0,0,0,0,-1,1000,568,0,0
-217,456,0,0,0,0,0,0,0,0,0,-1,1007,568,0,0
-210,456,0,0,0,0,0,0,0,0,0,-1,1014,568,0,0
-203,456,0,0,0,0,0,0,0,0,0,-1,1021,568,0,0
-196,456,0,0,0,0,0,0,0,0,0,-1,1028,568,0,0
-189,456,0,0,0,0,0,0,0,0,0,-1,1035,568,0,0
-182,456,0,0,0,0,0,0,0,0,0,-1,1042,568,0,0
-175,456,0,0,0,0,0,0,0,0,0,-1,1049,568,0,0
-168,456,0,0,0,0,0,0,0,0,0,-1,1056,568,0,0
-161,456,0,0,0,0,0,0,0,0,0,-1,1063,568,0,0
-154,456,0,0,0,0,0,0,0,0,0,-1,1070,568,0,0
-147,456,0,0,0,0,0,0,0,0,0,-1,1077,568,0,0
-140,456,0,0,0,0,0,0,0,0,0,-1,1084,568,0,0
-133,456,0,0,0,0,0,0,0,0,0,-1,1091,568,0,0
-126,456,0,0,0,0,0,0,0,0,0,-1,1098,568,0,0
-119,456,0,0,0,0,0,0,0,0,0,-1,1105,568,0,0
-112,456,0,0,0,0,0,0,0,0,0,-1,1112,568,0,0
-105,456,0,0,0,0,0,0,0,0,0,-1,1119,568,0,0
-98,456,0,0,0,0,0,0,0,0,0,-1,1126,568,0,0
-91,456,0,0,0,0,0,0,0,0,0,-1,1133,568,0,0
-84,456,0,0,0,0,0,0,0,0,0,-1,1140,568,0,0
-77,456,0,0,0,0,0,0,0,0,0,-1,1147,568,0,0
-70,456,0,0,0,0,0,0,0,0,0,-1,1154,568,0,0
-63,456,0,0,0,0,0,0,0,0,0,-1,1161,568,0,0
-56,456,0,0,0,0,0,0,0,0,0,-1,1168,568,0,0
-49,456,0,0,0,0,0,0,0,0,0,-1,1175,568,0,0
-42,456,0,0,0,0,0,0,0,0,0,-1,1182,568,0,0
-35,456,0,0,0,0,0,0,0,0,0,-1,1189,568,0,0
-28,456,0,0,0,0,0,0,0,0,0,-1,1196,568,0,0
-21,456,0,0,0,0,0,0,0,0,0,-1,1203,568,0,0
-14,456,0,0,0,0,0,0,0,0,0,-1,1210,568,0,0
-7,456,0,0,0,0,0,0,0,0,0,-1,1217,568,0,0
0,456,0,0,0,0,0,0,0,0,0,-1,1224,568,0,0
7,456,0,0,0,0,0,0,0,0,0,-1,1231,568,0,0
14,456,0,0,0,0,0,0,0,0,0,-1,1238,568,0,0
21,456,0,0,0,0,0,0,0,0,0,-1,1245,568,0,0
28,456,0,0,0,0,0,0,0,0,0,-1,1252,568,0,0
35,456,0,0,0,0,0,0,0,0,0,-1,1259,568,0,0
42,456,0,0,0,0,0,0,0,0,0,-1,1266,568,0,0
49,456,0,0,0,0,0,0,0,0,0,-1,1273,568,0,0
56,456,0,0,0,0,0,0,0,0,0,-1,1280,568,0,0
63,456,0,0,0,0,0,0,0,0,0,-1,1287,568,0,0
70,456,0,0,0,0,0,0,0,0,0,-1,1294,568,0,0
77,456,0,0,0,0,0,0,0,0,0,-1,1301,568,0,0
84,456,0,0,0,0,0,0,0,0,0,-1,1308,568,0,0
91,456,0,0,0,0,0,0,0,0,0,-1,1315,568,0,0
98,456,0,0,0,0,0,0,0,0,0,-1,1322,568,0,0
105,456,0,0,0,0,0,0,0,0,0,-1,1329,568,0,0
112,456,0,0,0,0,0,0,0,0,0,-1,1336,568,0,0
119,456,0,0,0,0,0,0,0,0,0,-1,1343,568,0,0
126,456,0,0,0,0,0,0,0,0,0,-1,1350,568,0,0
133,456,0,0,0,0,0,0,0,0,0,-1,1357,568,0,0
140,456,0,0,0,0,0,0,0,0,0,-1,1364,568,0,0
147,456,0,0,0,0,0,0,0,0,0,-1,1371,568,0,0
154,456,0,0,0,0,0,0,0,0,0,-1,1378,568,0,0
161,456,0,0,0,0,0,0,0,0,0,-1,1385,568,0,0
168,456,0,0,0,0,0,0,0,0,0,-1,1392,568,0,0
175,456,0,0,0,0,0,0,0,0,0,-1,1399,568,0,0
182,456,0,0,0,0,0,0,0,0,0,-1,1406,568,0,0
189,456,0,0,0,0,0,0,0,0,0,-1,1413,568,0,0
196,456,0,0,0,0,0,0,0,0,0,-1,1420,568,0,0
203,456,0,0,0,0,0,0,0,0,0,-1,1427,568,0,0
210,456,0,0,0,0,0,0,0,0,0,-1,1434,568,0,0
217,456,0,0,0,0,0,0,0,0,0,-1,1441,568,0,0
224,456,0,0,0,0,0,0,0,0,0,-1,1448,568,0,0
231,456,0,0,0,0,0,0,0,0,0,-1,1455,568,0,0
238,456,0,0,0,0,0,0,0,0,0,-1,1462,568,0,0
245,456,0,0,0,0,0,0,0,0,0,-1,1469,568,0,0
252,456,0,0,0,0,0,0,0,0,0,-1,1476,568,0,0
259,456,0,0,0,0,0,0,0,0,0,-1,1483,568,0,0
266,456,0,0,0,0,0,0,0,0,0,-1,1490,568,0,0
273,456,0,0,0,0,0,0,0,0,0,-1,1497,568,0,0
280,456,0,0,0,0,0,0,0,0,0,-1,1504,568,0,0
287,456,0,0,0,0,0,0,0,0,0,-1,1511,568,0,0
294,456,0,0,0,0,0,0,0,0,0,-1,1518,568,0,0
301,456,0,0,0,0,0,0,0,0,0,-1,1525,568,0,0
308,456,0,0,0,0,0,0,0,0,0,-1,1532,568,0,0
315,456,0,0,0,0,0,0,0,0,0,-1,1539,568,0,0
322,456,0,0,0,0,0,0,0,0,0,-1,1546,568,0,0
329,456,0,0,0,0,0,0,0,0,0,-1,1553,568,0,0
336,456,0,0,0,0,0,0,0,0,0,-1,1560,568,0,0
343,456,0,0,0,0,0,0,0,0,0,-1,1567,568,0,0
350,456,0,0,0,0,0,0,0,0,0,-1,1574,568,0,0
357,456,0,0,0,0,0,0,0,0,0,-1,1581,568,0,0
364,456,0,0,0,0,0,0,0,0,0,-1,1588,568,0,0
371,456,0,0,0,0,0,0,0,0,0,-1,1595,568,0,0
378,456,0,0,0,0,0,0,0,0,0,-1,1602,568,0,0
385,456,5.66284,0.660645,0,0,0,0,0,0,0,-1,1609,568,5.66285,-0.660615
392,456,16.7321,4.45581,0,0,0,0,0,0,0,-1,1616,568,16.732,-4.45581
399,456,24.1917,5.99652,0,0,0,0,0,0,0,-1,1623,568,24.1916,-5.99651
406,456,24.446,4.53003,0,0,0,0,0,0,0,-1,1630,568,24.446,-4.53005
413,456,24.9418,2.90521,0,0,0,0,0,0,0,-1,1637,568,24.9418,-2.90524
420,456,25.3048,1.04712,0,0,0,0,0,0,0,-1,1644,568,25.3048,-1.04713
427,456,6.21375,2.02905,0,0,0,0,0,0,0,-1,1651,568,6.21372,-2.02904
434,456,3.0719,-4.86285,0,0,0,0,0,0,0,-1,1658,568,3.07184,4.86287
441,456,2.90344,-4.70459,0,0,0,0,0,0,0,-1,1665,568,2.90346,4.7046
448,456,3.06995,-4.93689,0,0,0,0,0,0,0,-1,1672,568,3.06991,4.93687
455,456,3.46582,-3.43701,0,0,0,0,0,0,0,-1,1679,568,3.46585,3.43698
462,456,4.68445,-4.45831,0,0,0,0,0,0,0,-1,1686,568,4.68439,4.45833
469,456,4.93201,-2.289,0,0,0,0,0,0,0,-1,1693,568,4.93197,2.28903
476,456,4.8363,-2.79364,0,0,0,0,0,0,0,-1,1700,568,4.83636,2.79363
483,456,10.9661,-10.8603,0,0,0,0,0,0,0,-1,1707,568,10.9661,10.8603
490,456,11.4115,-9.91382,0,0,0,0,0,0,0,-1,1714,568,11.4115,9.91381
497,456,11.4406,-9.55975,0.0051632,0.00395344,0.00313705,0.00775315,0.00136348,0.690158,0.00477955,0.0405401,1721,568,11.4406,9.55977
504,456,11.3981,-9.08606,0.0043037,0.0031006,0.00256718,0.00633886,0.00106543,0.670312,0.00391934,0.0121031,1728,568,11.3981,9.08605
511,456,11.4099,-8.67126,0.00341277,0.00237651,0.00198934,0.00495035,0.000838938,0.658002,0.00305917,0.0139952,1735,568,11.4099,8.67127
518,456,11.4357,-8.26581,0.00253243,0.00170385,0.0014815,0.00365647,0.000579809,0.64906,0.00226921,0.0168736,1742,568,11.4357,8.26583
525,456,11.4315,-7.89349,0.00159706,0.00121655,0.000969189,0.00239449,0.000419119,0.688478,0.00147658,0.0155366,1749,568,11.4316,7.89351
532,456,11.427,-7.48291,0.000651892,0.000815439,0.00050184,0.00124212,0.000225207,0.866162,0.000764157,0.0139585,1756,568,11.427,7.48292
539,456,11.4126,-7.03265,-0.000261209,0.000330148,1.57559e-05,0.000330567,-0.000261628,1.54418,0.000342676,0.0167164,1763,568,11.4126,7.03266
546,456,11.3848,-6.65466,-0.00108523,-3.82276e-05,-0.000381653,8.61235e-05,-0.00120958,-1.25582,0.000836573,0.0191943,1770,568,11.3848,6.65466
553,456,11.3663,-6.23163,-0.00189294,-0.000335833,-0.000760454,-2.60688e-05,-0.0022027,-1.18398,0.00145986,0.0131242,1777,568,11.3663,6.23162
560,456,11.373,-5.81104,-0.00271956,-0.000655215,-0.00110548,-0.000174948,-0.00319982,-1.16096,0.00207736,0.0100268,1784,568,11.3731,5.81104
567,456,11.3813,-5.37103,-0.00348208,-0.000984569,-0.00141479,-0.00034626,-0.00412039,-1.14697,0.00263909,0.0154639,1791,568,11.3814,5.37101
574,456,11.342,-5.11475,-0.00440865,-0.00136223,-0.00183412,-0.000501286,-0.00526959,-1.13193,0.00335846,0.0465782,1798,568,11.342,5.11474
581,456,11.3712,-4.78918,0,0,0,0,0,0,0,-1,1805,568,11.3713,4.78918
588,456,5.23901,-0.0901489,0,0,0,0,0,0,0,-1,1812,568,5.23906,0.0901656
595,456,6.90063,3.14886,0,0,0,0,0,0,0,-1,1819,568,6.90066,-3.14887
602,456,16.894,4.10938,0,0,0,0,0,0,0,-1,1826,568,16.8941,-4.1094
609,456,14.9966,3.5708,0,0,0,0,0,0,0,-1,1833,568,14.9966,-3.57083
616,456,17.7407,2.6579,0,0,0,0,0,0,0,-1,1840,568,17.7408,-2.6579
623,456,20.6838,1.7121,0,0,0,0,0,0,0,-1,1847,568,20.6838,-1.71208
630,456,0,0,0,0,0,0,0,0,0,-1,1854,568,0,0
637,456,0,0,0,0,0,0,0,0,0,-1,1861,568,0,0
644,456,0,0,0,0,0,0,0,0,0,-1,1868,568,0,0
651,456,0,0,0,0,0,0,0,0,0,-1,1875,568,0,0
658,456,0,0,0,0,0,0,0,0,0,-1,1882,568,0,0
665,456,0,0,0,0,0,0,0,0,0,-1,1889,568,0,0
672,456,0,0,0,0,0,0,0,0,0,-1,1896,568,0,0
679,456,0,0,0,0,0,0,0,0,0,-1,1903,568,0,0
686,456,0,0,0,0,0,0,0,0,0,-1,1910,568,0,0
693,456,0,0,0,0,0,0,0,0,0,-1,1917,568,0,0
700,456,0,0,0,0,0,0,0,0,0,-1,1924,568,0,0
707,456,0,0,0,0,0,0,0,0,0,-1,1931,568,0,0
714,456,0,0,0,0,0,0,0,0,0,-1,1938,568,0,0
721,456,0,0,0,0,0,0,0,0,0,-1,1945,568,0,0
728,456,0,0,0,0,0,0,0,0,0,-1,1952,568,0,0
735,456,0,0,0,0,0,0,0,0,0,-1,1959,568,0,0
742,456,0,0,0,0,0,0,0,0,0,-1,1966,568,0,0
749,456,0,0,0,0,0,0,0,0,0,-1,1973,568,0,0
756,456,0,0,0,0,0,0,0,0,0,-1,1980,568,0,0
763,456,0,0,0,0,0,0,0,0,0,-1,1987,568,0,0
770,456,0,0,0,0,0,0,0,0,0,-1,1994,568,0,0
777,456,0,0,0,0,0,0,0,0,0,-1,2001,568,0,0
784,456,0,0,0,0,0,0,0,0,0,-1,2008,568,0,0
791,456,0,0,0,0,0,0,0,0,0,-1,2015,568,0,0
798,456,0,0,0,0,0,0,0,0,0,-1,2022,568,0,0
805,456,0,0,0,0,0,0,0,0,0,-1,2029,568,0,0
812,456,0,0,0,0,0,0,0,0,0,-1,2036,568,0,0
-700,449,0,0,0,0,0,0,0,0,0,-1,524,575,0,0
-693,449,0,0,0,0,0,0,0,0,0,-1,531,575,0,0
-686,449,0,0,0,0,0,0,0,0,0,-1,538,575,0,0
-679,449,0,0,0,0,0,0,0,0,0,-1,545,575,0,0
-672,449,0,0,0,0,0,0,0,0,0,-1,552,575,0,0
-665,449,0,0,0,0,0,0,0,0,0,-1,559,575,0,0
-658,449,0,0,0,0,0,0,0,0,0,-1,566,575,0,0
-651,449,0,0,0,0,0,0,0,0,0,-1,573,575,0,0
-644,449,0,0,0,0,0,0,0,0,0,-1,580,575,0,0
-637,449,0,0,0,0,0,0,0,0,0,-1,587,575,0,0
-630,449,0,0,0,0,0,0,0,0,0,-1,594,575,0,0
-623,449,0,0,0,0,0,0,0,0,0,-1,601,575,0,0
-616,449,0,0,0,0,0,0,0,0,0,-1,608,575,0,0
-609,449,0,0,0,0,0,0,0,0,0,-1,615,575,0,0
-602,449,0,0,0,0,0,0,0,0,0,-1,622,575,0,0
-595,449,0,0,0,0,0,0,0,0,0,-1,629,575,0,0
-588,449,0,0,0,0,0,0,0,0,0,-1,636,575,0,0
-581,449,0,0,0,0,0,0,0,0,0,-1,643,575,0,0
-574,449,0,0,0,0,0,0,0,0,0,-1,650,575,0,0
-567,449,0,0,0,0,0,0,0,0,0,-1,657,575,0,0
-560,449,0,0,0,0,0,0,0,0,0,-1,664,575,0,0
-553,449,0,0,0,0,0,0,0,0,0,-1,671,575,0,0
-546,449,0,0,0,0,0,0,0,0,0,-1,678,575,0,0
-539,449,0,0,0,0,0,0,0,0,0,-1,685,575,0,0
-532,449,0,0,0,0,0,0,0,0,0,-1,692,575,0,0
-525,449,0,0,0,0,0,0,0,0,0,-1,699,575,0,0
-518,449,0,0,0,0,0,0,0,0,0,-1,706,575,0,0
-511,449,-0.941345,-4.4519,0,0,0,0,0,0,0,-1,713,575,-0.941356,4.45191
-504,449,-14.1078,0.318237,0,0,0,0,0,0,0,-1,720,575,-14.1078,-0.318231
-497,449,-8.61292,-3.09009,0,0,0,0,0,0,0,-1,727,575,-8.61291,3.09011
-490,449,-7.50995,-2.96252,0,0,0,0,0,0,0,-1,734,575,-7.50995,2.96251
-483,449,-5.77789,-2.50061,0,0,0,0,0,0,0,-1,741,575,-5.77792,2.50059
-476,449,-4.1723,-2.07739,0,0,0,0,0,0,0,-1,748,575,-4.17228,2.0774
-469,449,-4.02954,-4.56329,0,0,0,0,0,0,0,-1,755,575,-4.02951,4.56329
-462,449,-4.20502,-5.77777,0,0,0,0,0,0,0,-1,762,575,-4.20503,5.77779
-455,449,-4.16815,-6.09277,0,0,0,0,0,0,0,-1,769,575,-4.16815,6.09275
-448,449,-3.98096,-6.64001,-0.000770462,0.00864801,-0.00500158,0.0108085,-0.00293092,-1.16305,0.00835576,0.0312094,776,575,-3.98095,6.64004
-441,449,-3.9978,-7.14069,-0.000775839,0.00710618,-0.0038018,0.00864104,-0.00231071,-1.18709,0.0066658,0.0155777,783,575,-3.99779,7.14066
-434,449,-4.04791,-7.48389,-0.000774091,0.00558821,-0.00272951,0.00659871,-0.0017846,-1.21623,0.00509919,0.0129551,790,575,-4.04792,7.48387
-427,449,-4.02209,-7.87616,-0.0007015,0.00423158,-0.0018481,0.00484713,-0.00131705,-1.24928,0.00374838,0.013457,797,575,-4.02209,7.87613
-420,449,-4.02679,-8.2793,-0.000668102,0.00298974,-0.0010721,0.00328081,-0.00095917,-1.30569,0.00256737,0.013945,804,575,-4.0268,8.2793
-413,449,-4.03424,-8.65045,-0.000735985,0.00174799,-0.000307207,0.00178542,-0.000773415,-1.44955,0.00151537,0.01073,811,575,-4.03426,8.65043
-406,449,-4.05573,-9.03967,-0.000744568,0.000810789,0.000303951,0.000868078,-0.000801857,1.3845,0.00096439,0.00948295,818,575,-4.0557,9.03965
-399,449,-4.07471,-9.43286,-0.00071082,-5.94723e-05,0.000808012,0.00048603,-0.00125632,0.976967,0.0010382,0.0088539,825,575,-4.07468,9.43288
-392,449,-4.05939,-9.8064,-0.000643648,-0.00096533,0.00127876,0.000484347,-0.00209332,0.722837,0.00158191,0.00950211,832,575,-4.05942,9.8064
-385,449,-4.05322,-10.1728,-0.000555562,-0.00168096,0.00167446,0.000648216,-0.00288474,0.623302,0.00217172,0.0106103,839,575,-4.0532,10.1728
-378,449,-4.08209,-10.5572,-0.000528704,-0.00235066,0.00210406,0.000853119,-0.00373248,0.581101,0.0028161,0.00981887,846,575,-4.0821,10.5572
-371,449,-4.09442,-10.9496,-0.000412604,-0.00293278,0.00248841,0.00111658,-0.00446196,0.551028,0.00340836,0.0110822,853,575,-4.0944,10.9497
-364,449,-4.12903,-11.3383,-0.000109884,-0.00336265,0.00277889,0.00148357,-0.0049561,0.520642,0.00389397,0.0288711,860,575,-4.12904,11.3383
-357,449,-3.81885,-11.8085,0,0,0,0,0,0,0,-1,867,575,-3.81884,11.8086
-350,449,-2.8764,-9.90204,0,0,0,0,0,0,0,-1,874,575,-2.87638,9.90203
-343,449,-2.98492,-9.2254,0,0,0,0,0,0,0,-1,881,575,-2.98491,9.22541
-336,449,-1.29523,-9.54626,0,0,0,0,0,0,0,-1,888,575,-1.29525,9.54626
-329,449,-0.733398,-7.78937,0,0,0,0,0,0,0,-1,895,575,-0.733398,7.78937
-322,449,-0.628845,-3.16669,0,0,0,0,0,0,0,-1,902,575,-0.628861,3.16667
-315,449,-0.540344,-3.21918,0,0,0,0,0,0,0,-1,909,575,-0.540336,3.21917
-308,449,-1.04413,-2.99341,0,0,0,0,0,0,0,-1,916,575,-1.04415,2.99338
-301,449,-1.58691,-2.80725,0,0,0,0,0,0,0,-1,923,575,-1.58692,2.80728
-294,449,-3.71118,-2.76086,0,0,0,0,0,0,0,-1,930,575,-3.71119,2.76087
-287,449,-4.4082,-2.69525,0,0,0,0,0,0,0,-1,937,575,-4.40822,2.69526
-280,449,-4.68903,-4.4364,0,0,0,0,0,0,0,-1,944,575,-4.68901,4.4364
-273,449,0,0,0,0,0,0,0,0,0,-1,951,575,0,0
-266,449,0,0,0,0,0,0,0,0,0,-1,958,575,0,0
-259,449,0,0,0,0,0,0,0,0,0,-1,965,575,0,0
-252,449,0,0,0,0,0,0,0,0,0,-1,972,575,0,0
-245,449,0,0,0,0,0,0,0,0,0,-1,979,575,0,0
-238,449,0,0,0,0,0,0,0,0,0,-1,986,575,0,0
-231,449,0,0,0,0,0,0,0,0,0,-1,993,575,0,0
-224,449,0,0,0,0,0,0,0,0,0,-1,1000,575,0,0
-217,449,0,0,0,0,0,0,0,0,0,-1,1007,575,0,0
-210,449,0,0,0,0,0,0,0,0,0,-1,1014,575,0,0
-203,449,0,0,0,0,0,0,0,0,0,-1,1021,575,0,0
-196,449,0,0,0,0,0,0,0,0,0,-1,1028,575,0,0
-189,449,0,0,0,0,0,0,0,0,0,-1,1035,575,0,0
-182,449,0,0,0,0,0,0,0,0,0,-1,1042,575,0,0
-175,449,0,0,0,0,0,0,0,0,0,-1,1049,575,0,0
-168,449,0,0,0,0,0,0,0,0,0,-1,1056,575,0,0
-161,449,0,0,0,0,0,0,0,0,0,-1,1063,575,0,0
-154,449,0,0,0,0,0,0,0,0,0,-1,1070,575,0,0
-147,449,0,0,0,0,0,0,0,0,0,-1,1077,575,0,0
-140,449,0,0,0,0,0,0,0,0,0,-1,1084,575,0,0
-133,449,0,0,0,0,0,0,0,0,0,-1,1091,575,0,0
-126,449,0,0,0,0,0,0,0,0,0,-1,1098,575,0,0
-119,449,0,0,0,0,0,0,0,0,0,-1,1105,575,0,0
-112,449,0,0,0,0,0,0,0,0,0,-1,1112,575,0,0
-105,449,0,0,0,0,0,0,0,0,0,-1,1119,575,0,0
-98,449,0,0,0,0,0,0,0,0,0,-1,1126,575,0,0
-91,449,0,0,0,0,0,0,0,0,0,-1,1133,575,0,0
-84,449,0,0,0,0,0,0,0,0,0,-1,1140,575,0,0
-77,449,0,0,0,0,0,0,0,0,0,-1,1147,575,0,0
-70,449,0,0,0,0,0,0,0,0,0,-1,1154,575,0,0
-63,449,0,0,0,0,0,0,0,0,0,-1,1161,575,0,0
-56,449,0,0,0,0,0,0,0,0,0,-1,1168,575,0,0
-49,449,0,0,0,0,0,0,0,0,0,-1,1175,575,0,0
-42,449,0,0,0,0,0,0,0,0,0,-1,1182,575,0,0
-35,449,0,0,0,0,0,0,0,0,0,-1,1189,575,0,0
-28,449,0,0,0,0,0,0,0,0,0,-1,1196,575,0,0
-21,449,0,0,0,0,0,0,0,0,0,-1,1203,575,0,0
-14,449,0,0,0,0,0,0,0,0,0,-1,1210,575,0,0
-7,449,0,0,0,0,0,0,0,0,0,-1,1217,575,0,0
0,449,0,0,0,0,0,0,0,0,0,-1,1224,575,0,0
7,449,0,0,0,0,0,0,0,0,0,-1,1231,575,0,0
14,449,0,0,0,0,0,0,0,0,0,-1,1238,575,0,0
21,449,0,0,0,0,0,0,0,0,0,-1,1245,575,0,0
28,449,0,0,0,0,0,0,0,0,0,-1,1252,575,0,0
35,449,0,0,0,0,0,0,0,0,0,-1,1259,575,0,0
42,449,0,0,0,0,0,0,0,0,0,-1,1266,575,0,0
49,449,0,0,0,0,0,0,0,0,0,-1,1273,575,0,0
56,449,0,0,0,0,0,0,0,0,0,-1,1280,575,0,0
63,449,0,0,0,0,0,0,0,0,0,-1,1287,575,0,0
70,449,0,0,0,0,0,0,0,0,0,-1,1294,575,0,0
77,449,0,0,0,0,0,0,0,0,0,-1,1301,575,0,0
84,449,0,0,0,0,0,0,0,0,0,-1,1308,575,0,0
91,449,0,0,0,0,0,0,0,0,0,-1,1315,575,0,0
98,449,0,0,0,0,0,0,0,0,0,-1,1322,575,0,0
105,449,0,0,0,0,0,0,0,0,0,-1,1329,575,0,0
112,449,0,0,0,0,0,0,0,0,0,-1,1336,575,0,0
119,449,0,0,0,0,0,0,0,0,0,-1,1343,575,0,0
126,449,0,0,0,0,0,0,0,0,0,-1,1350,575,0,0
133,449,0,0,0,0,0,0,0,0,0,-1,1357,575,0,0
140,449,0,0,0,0,0,0,0,0,0,-1,1364,575,0,0
147,449,0,0,0,0,0,0,0,0,0,-1,1371,575,0,0
154,449,0,0,0,0,0,0,0,0,0,-1,1378,575,0,0
161,449,0,0,0,0,0,0,0,0,0,-1,1385,575,0,0
168,449,0,0,0,0,0,0,0,0,0,-1,1392,575,0,0
175,449,0,0,0,0,0,0,0,0,0,-1,1399,575,0,0
182,449,0,0,0,0,0,0,0,0,0,-1,1406,575,0,0
189,449,0,0,0,0,0,0,0,0,0,-1,1413,575,0,0
196,449,0,0,0,0,0,0,0,0,0,-1,1420,575,0,0
203,449,0,0,0,0,0,0,0,0,0,-1,1427,575,0,0
210,449,0,0,0,0,0,0,0,0,0,-1,1434,575,0,0
217,449,0,0,0,0,0,0,0,0,0,-1,1441,575,0,0
224,449,0,0,0,0,0,0,0,0,0,-1,1448,575,0,0
231,449,0,0,0,0,0,0,0,0,0,-1,1455,575,0,0
238,449,0,0,0,0,0,0,0,0,0,-1,1462,575,0,0
245,449,0,0,0,0,0,0,0,0,0,-1,1469,575,0,0
252,449,0,0,0,0,0,0,0,0,0,-1,1476,575,0,0
259,449,0,0,0,0,0,0,0,0,0,-1,1483,575,0,0
266,449,0,0,0,0,0,0,0,0,0,-1,1490,575,0,0
273,449,0,0,0,0,0,0,0,0,0,-1,1497,575,0,0
280,449,0,0,0,0,0,0,0,0,0,-1,1504,575,0,0
287,449,0,0,0,0,0,0,0,0,0,-1,1511,575,0,0
294,449,0,0,0,0,0,0,0,0,0,-1,1518,575,0,0
301,449,0,0,0,0,0,0,0,0,0,-1,1525,575,0,0
308,449,0,0,0,0,0,0,0,0,0,-1,1532,575,0,0
315,449,0,0,0,0,0,0,0,0,0,-1,1539,575,0,0
322,449,0,0,0,0,0,0,0,0,0,-1,1546,575,0,0
329,449,0,0,0,0,0,0,0,0,0,-1,1553,575,0,0
336,449,0,0,0,0,0,0,0,0,0,-1,1560,575,0,0
343,449,0,0,0,0,0,0,0,0,0,-1,1567,575,0,0
350,449,0,0,0,0,0,0,0,0,0,-1,1574,575,0,0
357,449,0,0,0,0,0,0,0,0,0,-1,1581,575,0,0
364,449,0,0,0,0,0,0,0,0,0,-1,1588,575,0,0
371,449,0,0,0,0,0,0,0,0,0,-1,1595,575,0,0
378,449,0,0,0,0,0,0,0,0,0,-1,1602,575,0,0
385,449,0,0,0,0,0,0,0,0,0,-1,1609,575,0,0
392,449,7.95471,3.66217,0,0,0,0,0,0,0,-1,1616,575,7.95471,-3.66218
399,449,19.9791,5.565,0,0,0,0,0,0,0,-1,1623,575,19.9791,-5.56499
406,449,24.9847,4.55969,0,0,0,0,0,0,0,-1,1630,575,24.9848,-4.55968
413,449,23.5795,3.19586,0,0,0,0,0,0,0,-1,1637,575,23.5795,-3.19584
420,449,23.9675,1.29718,0,0,0,0,0,0,0,-1,1644,575,23.9675,-1.29721
427,449,24.4276,-0.596558,0,0,0,0,0,0,0,-1,1651,575,24.4277,0.596569
434,449,25.61,-2.96594,0,0,0,0,0,0,0,-1,1658,575,25.61,2.96595
441,449,3.89856,-6.06458,0,0,0,0,0,0,0,-1,1665,575,3.89855,6.06459
448,449,4.03198,-5.18207,0,0,0,0,0,0,0,-1,1672,575,4.03197,5.18207
455,449,4.21948,-4.09467,0,0,0,0,0,0,0,-1,1679,575,4.21952,4.09465
462,449,4.23181,-2.96924,0,0,0,0,0,0,0,-1,1686,575,4.23185,2.96926
469,449,4.51672,-2.95135,0,0,0,0,0,0,0,-1,1693,575,4.51672,2.95135
476,449,4.71838,-1.86688,0,0,0,0,0,0,0,-1,1700,575,4.71842,1.86689
483,449,4.87878,-1.73126,0,0,0,0,0,0,0,-1,1707,575,4.87875,1.73128
490,449,5.73279,-2.74573,0,0,0,0,0,0,0,-1,1714,575,5.73282,2.74575
497,449,11.7959,-9.76984,0,0,0,0,0,0,0,-1,1721,575,11.7959,9.76985
504,449,11.7556,-9.10529,0.00516362,0.00388308,0.00327032,0.00785576,0.00119094,0.688729,0.00488879,0.0436947,1728,575,11.7557,9.1053
511,449,11.83,-8.67389,0.00422983,0.00298195,0.002568,0.0062486,0.000963182,0.666224,0.00388468,0.0116126,1735,575,11.83,8.67391
518,449,11.8459,-8.27112,0.00336854,0.00217325,0.00200038,0.00485864,0.000683139,0.640236,0.0030371,0.0129073,1742,575,11.8459,8.27114
525,449,11.8191,-7.88501,0.00244932,0.00165486,0.00147271,0.00357744,0.000526747,0.65367,0.00223021,0.0117919,1749,575,11.819,7.88502
532,449,11.7948,-7.47809,0.00154443,0.00119702,0.000999048,0.00238476,0.000356687,0.699325,0.00148529,0.0103257,1756,575,11.7948,7.47806
539,449,11.7736,-7.04608,0.000685927,0.000667931,0.000511831,0.00118884,0.000165019,0.776609,0.000743681,0.0128342,1763,575,11.7736,7.0461
546,449,11.7826,-6.6441,-6.37615e-05,0.000290823,0.000133378,0.000335391,-0.00010833,1.24831,0.000267129,0.0217591,1770,575,11.7826,6.64412
553,449,11.7677,-6.23151,-0.000795107,-3.84863e-05,-0.000226275,2.40198e-05,-0.000857613,-1.30128,0.000579914,0.0157144,1777,575,11.7677,6.23153
560,449,11.7947,-5.83362,-0.00156943,-0.000358359,-0.00055775,-0.000140634,-0.00178716,-1.19862,0.00114744,0.0126894,1784,575,11.7947,5.83359
567,449,11.7732,-5.41302,-0.00227608,-0.000637902,-0.000844147,-0.000280772,-0.00263321,-1.17057,0.00166977,0.00946282,1791,575,11.7732,5.413
574,449,11.7828,-4.95886,-0.00309771,-0.000951089,-0.00120183,-0.00041307,-0.00363573,-1.14988,0.00229854,0.0226107,1798,575,11.7828,4.95886
581,449,11.8167,-4.44666,0,0,0,0,0,0,0,-1,1805,575,11.8166,4.44668
588,449,11.7297,-3.72607,0,0,0,0,0,0,0,-1,1812,575,11.7298,3.7261
595,449,11.2511,-2.25397,0,0,0,0,0,0,0,-1,1819,575,11.2511,2.25397
602,449,9.46167,4.17444,0,0,0,0,0,0,0,-1,1826,575,9.46164,-4.17442
609,449,12.2028,3.18652,0,0,0,0,0,0,0,-1,1833,575,12.2027,-3.18655
616,449,14.9438,2.19867,0,0,0,0,0,0,0,-1,1840,575,14.9438,-2.19867
623,449,9.83789,-0.0820313,0,0,0,0,0,0,0,-1,1847,575,9.83794,0.0820443
630,449,8.90686,4.99329,0,0,0,0,0,0,0,-1,1854,575,8.90685,-4.99327
637,449,0,0,0,0,0,0,0,0,0,-1,1861,575,0,0
644,449,0,0,0,0,0,0,0,0,0,-1,1868,575,0,0
651,449,0,0,0,0,0,0,0,0,0,-1,1875,575,0,0
658,449,0,0,0,0,0,0,0,0,0,-1,1882,575,0,0
665,449,0,0,0,0,0,0,0,0,0,-1,1889,575,0,0
672,449,0,0,0,0,0,0,0,0,0,-1,1896,575,0,0
679,449,0,0,0,0,0,0,0,0,0,-1,1903,575,0,0
686,449,0,0,0,0,0,0,0,0,0,-1,1910,575,0,0
693,449,0,0,0,0,0,0,0,0,0,-1,1917,575,0,0
700,449,0,0,0,0,0,0,0,0,0,-1,1924,575,0,0
707,449,0,0,0,0,0,0,0,0,0,-1,1931,575,0,0
714,449,0,0,0,0,0,0,0,0,0,-1,1938,575,0,0
721,449,0,0,0,0,0,0,0,0,0,-1,1945,575,0,0
728,449,0,0,0,0,0,0,0,0,0,-1,1952,575,0,0
735,449,0,0,0,0,0,0,0,0,0,-1,1959,575,0,0
742,449,0,0,0,0,0,0,0,0,0,-1,1966,575,0,0
749,449,0,0,0,0,0,0,0,0,0,-1,1973,575,0,0
756,449,0,0,0,0,0,0,0,0,0,-1,1980,575,0,0
763,449,0,0,0,0,0,0,0,0,0,-1,1987,575,0,0
770,449,0,0,0,0,0,0,0,0,0,-1,1994,575,0,0
777,449,0,0,0,0,0,0,0,0,0,-1,2001,575,0,0
784,449,0,0,0,0,0,0,0,0,0,-1,2008,575,0,0
791,449,0,0,0,0,0,0,0,0,0,-1,2015,575,0,0
798,449,0,0,0,0,0,0,0,0,0,-1,2022,575,0,0
805,449,0,0,0,0,0,0,0,0,0,-1,2029,575,0,0
812,449,0,0,0,0,0,0,0,0,0,-1,2036,575,0,0
-700,442,0,0,0,0,0,0,0,0,0,-1,524,582,0,0
-693,442,0,0,0,0,0,0,0,0,0,-1,531,582,0,0
-686,442,0,0,0,0,0,0,0,0,0,-1,538,582,0,0
-679,442,0,0,0,0,0,0,0,0,0,-1,545,582,0,0
-672,442,0,0,0,0,0,0,0,0,0,-1,552,582,0,0
-665,442,0,0,0,0,0,0,0,0,0,-1,559,582,0,0
-658,442,0,0,0,0,0,0,0,0,0,-1,566,582,0,0
-651,442,0,0,0,0,0,0,0,0,0,-1,573,582,0,0
-644,442,0,0,0,0,0,0,0,0,0,-1,580,582,0,0
-637,442,0,0,0,0,0,0,0,0,0,-1,587,582,0,0
-630,442,0,0,0,0,0,0,0,0,0,-1,594,582,0,0
-623,442,0,0,0,0,0,0,0,0,0,-1,601,582,0,0
-616,442,0,0,0,0,0,0,0,0,0,-1,608,582,0,0
-609,442,0,0,0,0,0,0,0,0,0,-1,615,582,0,0
-602,442,0,0,0,0,0,0,0,0,0,-1,622,582,0,0
-595,442,0,0,0,0,0,0,0,0,0,-1,629,582,0,0
-588,442,0,0,0,0,0,0,0,0,0,-1,636,582,0,0
-581,442,0,0,0,0,0,0,0,0,0,-1,643,582,0,0
-574,442,0,0,0,0,0,0,0,0,0,-1,650,582,0,0
-567,442,0,0,0,0,0,0,0,0,0,-1,657,582,0,0
-560,442,0,0,0,0,0,0,0,0,0,-1,664,582,0,0
-553,442,0,0,0,0,0,0,0,0,0,-1,671,582,0,0
-546,442,0,0,0,0,0,0,0,0,0,-1,678,582,0,0
-539,442,0,0,0,0,0,0,0,0,0,-1,685,582,0,0
-532,442,0,0,0,0,0,0,0,0,0,-1,692,582,0,0
-525,442,0,0,0,0,0,0,0,0,0,-1,699,582,0,0
-518,442,-0.493774,-5.72943,0,0,0,0,0,0,0,-1,706,582,-0.493791,5.72946
-511,442,-1.33008,-6.18512,0,0,0,0,0,0,0,-1,713,582,-1.33006,6.18511
-504,442,-3.20807,-6.34082,0,0,0,0,0,0,0,-1,720,582,-3.2081,6.34083
-497,442,-13.6886,-0.250122,0,0,0,0,0,0,0,-1,727,582,-13.6886,0.250143
-490,442,-9.09039,-3.64862,0,0,0,0,0,0,0,-1,734,582,-9.09037,3.64861
-483,442,-7.36499,-1.01892,0,0,0,0,0,0,0,-1,741,582,-7.365,1.01895
-476,442,-4.62225,-3.47467,0,0,0,0,0,0,0,-1,748,582,-4.62225,3.47465
-469,442,-4.3595,-5.11237,0,0,0,0,0,0,0,-1,755,582,-4.35952,5.11238
-462,442,-4.42914,-5.86108,-1.75048e-05,0.00969793,-0.00680796,0.0132036,-0.00352315,-1.09527,0.010182,0.0412003,762,582,-4.42914,5.86108
-455,442,-4.45129,-6.29791,-0.000265454,0.00801346,-0.00531627,0.0106118,-0.00286379,-1.11619,0.0081976,0.034637,769,582,-4.45127,6.2979
-448,442,-4.36847,-6.71301,-0.000401431,0.00657313,-0.00407091,0.00844621,-0.00227451,-1.13956,0.00652254,0.0161546,776,582,-4.36844,6.71299
-441,442,-4.41534,-7.11053,-0.000452607,0.005375,-0.00305305,0.00668154,-0.00175915,-1.16643,0.00514205,0.0142982,783,582,-4.41534,7.11055
-434,442,-4.42358,-7.49249,-0.000495942,0.004128,-0.00209839,0.00493828,-0.00130622,-1.20229,0.00380312,0.0137645,790,582,-4.42357,7.4925
-427,442,-4.4231,-7.85974,-0.000489769,0.00295765,-0.00127718,0.00337925,-0.000911369,-1.25196,0.00261021,0.0139307,797,582,-4.42311,7.85977
-420,442,-4.42126,-8.26086,-0.000565071,0.00181104,-0.000497737,0.00191109,-0.000665122,-1.37243,0.00154428,0.0146426,804,582,-4.42124,8.26087
-413,442,-4.41003,-8.64972,-0.000709706,0.000687477,0.000263533,0.000735531,-0.00075776,1.39043,0.000862184,0.0119179,811,582,-4.41006,8.64973
-406,442,-4.4234,-9.04834,-0.000808228,-0.000193147,0.000892122,0.000442956,-0.00144433,0.951384,0.00113961,0.00864269,818,582,-4.42342,9.04835
-399,442,-4.44739,-9.44141,-0.000879283,-0.00104139,0.00143903,0.000480969,-0.00240164,0.757265,0.00178317,0.00779987,825,582,-4.44737,9.4414
-392,442,-4.44244,-9.8147,-0.000930691,-0.00188325,0.00194836,0.00059876,-0.0034127,0.665523,0.00249875,0.010778,832,582,-4.44245,9.8147
-385,442,-4.44391,-10.1701,-0.00101256,-0.00263221,0.00243343,0.000742257,-0.00438703,0.624766,0.00320092,0.0131751,839,582,-4.44391,10.1701
-378,442,-4.44653,-10.548,-0.00121541,-0.00340393,0.0030093,0.000892404,-0.00551175,0.611017,0.00400525,0.0131998,846,582,-4.44651,10.548
-371,442,-4.44482,-10.9622,-0.001293,-0.00410269,0.00355509,0.00112475,-0.00652044,0.597233,0.00476632,0.0277545,853,582,-4.44482,10.9622
-364,442,-4.42212,-10.8589,0,0,0,0,0,0,0,-1,860,582,-4.42212,10.8589
-357,442,-4.9115,-11.2649,0,0,0,0,0,0,0,-1,867,582,-4.91147,11.2649
-350,442,-1.75372,-6.27618,0,0,0,0,0,0,0,-1,874,582,-1.75371,6.27618
-343,442,-1.4599,-4.63605,0,0,0,0,0,0,0,-1,881,582,-1.4599,4.63607
-336,442,-1.4054,-2.64313,0,0,0,0,0,0,0,-1,888,582,-1.40539,2.64315
-329,442,-0.952576,-2.76923,0,0,0,0,0,0,0,-1,895,582,-0.952571,2.7692
-322,442,-0.972534,-2.63208,0,0,0,0,0,0,0,-1,902,582,-0.972512,2.6321
-315,442,-0.445557,-2.89764,0,0,0,0,0,0,0,-1,909,582,-0.445582,2.89765
-308,442,-0.654175,-3.07831,0,0,0,0,0,0,0,-1,916,582,-0.654145,3.07832
-301,442,-1.37427,-2.41455,0,0,0,0,0,0,0,-1,923,582,-1.37425,2.41453
-294,442,-2.99963,-2.07855,0,0,0,0,0,0,0,-1,930,582,-2.99964,2.07857
-287,442,-5.62799,-2.76422,0,0,0,0,0,0,0,-1,937,582,-5.628,2.76424
-280,442,0,0,0,0,0,0,0,0,0,-1,944,582,0,0
-273,442,0,0,0,0,0,0,0,0,0,-1,951,582,0,0
-266,442,0,0,0,0,0,0,0,0,0,-1,958,582,0,0
-259,442,0,0,0,0,0,0,0,0,0,-1,965,582,0,0
-252,442,0,0,0,0,0,0,0,0,0,-1,972,582,0,0
-245,442,0,0,0,0,0,0,0,0,0,-1,979,582,0,0
-238,442,0,0,0,0,0,0,0,0,0,-1,986,582,0,0
-231,442,0,0,0,0,0,0,0,0,0,-1,993,582,0,0
-224,442,0,0,0,0,0,0,0,0,0,-1,1000,582,0,0
-217,442,0,0,0,0,0,0,0,0,0,-1,1007,582,0,0
-210,442,0,0,0,0,0,0,0,0,0,-1,1014,582,0,0
-203,442,0,0,0,0,0,0,0,0,0,-1,1021,582,0,0
-196,442,0,0,0,0,0,0,0,0,0,-1,1028,582,0,0
-189,442,0,0,0,0,0,0,0,0,0,-1,1035,582,0,0
-182,442,0,0,0,0,0,0,0,0,0,-1,1042,582,0,0
-175,442,0,0,0,0,0,0,0,0,0,-1,1049,582,0,0
-168,442,0,0,0,0,0,0,0,0,0,-1,1056,582,0,0
-161,442,0,0,0,0,0,0,0,0,0,-1,1063,582,0,0
-154,442,0,0,0,0,0,0,0,0,0,-1,1070,582,0,0
-147,442,0,0,0,0,0,0,0,0,0,-1,1077,582,0,0
-140,442,0,0,0,0,0,0,0,0,0,-1,1084,582,0,0
-133,442,0,0,0,0,0,0,0,0,0,-1,1091,582,0,0
-126,442,0,0,0,0,0,0,0,0,0,-1,1098,582,0,0
-119,442,0,0,0,0,0,0,0,0,0,-1,1105,582,0,0
-112,442,0,0,0,0,0,0,0,0,0,-1,1112,582,0,0
-105,442,0,0,0,0,0,0,0,0,0,-1,1119,582,0,0
-98,442,0,0,0,0,0,0,0,0,0,-1,1126,582,0,0
-91,442,0,0,0,0,0,0,0,0,0,-1,1133,582,0,0
-84,442,0,0,0,0,0,0,0,0,0,-1,1140,582,0,0
-77,442,0,0,0,0,0,0,0,0,0,-1,1147,582,0,0
-70,442,0,0,0,0,0,0,0,0,0,-1,1154,582,0,0
-63,442,0,0,0,0,0,0,0,0,0,-1,1161,582,0,0
-56,442,0,0,0,0,0,0,0,0,0,-1,1168,582,0,0
-49,442,0,0,0,0,0,0,0,0,0,-1,1175,582,0,0
-42,442,0,0,0,0,0,0,0,0,0,-1,1182,582,0,0
-35,442,0,0,0,0,0,0,0,0,0,-1,1189,582,0,0
-28,442,0,0,0,0,0,0,0,0,0,-1,1196,582,0,0
-21,442,0,0,0,0,0,0,0,0,0,-1,1203,582,0,0
-14,442,0,0,0,0,0,0,0,0,0,-1,1210,582,0,0
-7,442,0,0,0,0,0,0,0,0,0,-1,1217,582,0,0
0,442,0,0,0,0,0,0,0,0,0,-1,1224,582,0,0
7,442,0,0,0,0,0,0,0,0,0,-1,1231,582,0,0
14,442,0,0,0,0,0,0,0,0,0,-1,1238,582,0,0
21,442,0,0,0,0,0,0,0,0,0,-1,1245,582,0,0
28,442,0,0,0,0,0,0,0,0,0,-1,1252,582,0,0
35,442,0,0,0,0,0,0,0,0,0,-1,1259,582,0,0
42,442,0,0,0,0,0,0,0,0,0,-1,1266,582,0,0
49,442,0,0,0,0,0,0,0,0,0,-1,1273,582,0,0
56,442,0,0,0,0,0,0,0,0,0,-1,1280,582,0,0
63,442,0,0,0,0,0,0,0,0,0,-1,1287,582,0,0
70,442,0,0,0,0,0,0,0,0,0,-1,1294,582,0,0
77,442,0,0,0,0,0,0,0,0,0,-1,1301,582,0,0
84,442,0,0,0,0,0,0,0,0,0,-1,1308,582,0,0
91,442,0,0,0,0,0,0,0,0,0,-1,1315,582,0,0
98,442,0,0,0,0,0,0,0,0,0,-1,1322,582,0,0
105,442,0,0,0,0,0,0,0,0,0,-1,1329,582,0,0
112,442,0,0,0,0,0,0,0,0,0,-1,1336,582,0,0
119,442,0,0,0,0,0,0,0,0,0,-1,1343,582,0,0
126,442,0,0,0,0,0,0,0,0,0,-1,1350,582,0,0
133,442,0,0,0,0,0,0,0,0,0,-1,1357,582,0,0
140,442,0,0,0,0,0,0,0,0,0,-1,1364,582,0,0
147,442,0,0,0,0,0,0,0,0,0,-1,1371,582,0,0
154,442,0,0,0,0,0,0,0,0,0,-1,1378,582,0,0
161,442,0,0,0,0,0,0,0,0,0,-1,1385,582,0,0
168,442,0,0,0,0,0,0,0,0,0,-1,1392,582,0,0
175,442,0,0,0,0,0,0,0,0,0,-1,1399,582,0,0
182,442,0,0,0,0,0,0,0,0,0,-1,1406,582,0,0
189,442,0,0,0,0,0,0,0,0,0,-1,1413,582,0,0
196,442,0,0,0,0,0,0,0,0,0,-1,1420,582,0,0
203,442,0,0,0,0,0,0,0,0,0,-1,1427,582,0,0
210,442,0,0,0,0,0,0,0,0,0,-1,1434,582,0,0
217,442,0,0,0,0,0,0,0,0,0,-1,1441,582,0,0
224,442,0,0,0,0,0,0,0,0,0,-1,1448,582,0,0
231,442,0,0,0,0,0,0,0,0,0,-1,1455,582,0,0
238,442,0,0,0,0,0,0,0,0,0,-1,1462,582,0,0
245,442,0,0,0,0,0,0,0,0,0,-1,1469,582,0,0
252,442,0,0,0,0,0,0,0,0,0,-1,1476,582,0,0
259,442,0,0,0,0,0,0,0,0,0,-1,1483,582,0,0
266,442,0,0,0,0,0,0,0,0,0,-1,1490,582,0,0
273,442,0,0,0,0,0,0,0,0,0,-1,1497,582,0,0
280,442,0,0,0,0,0,0,0,0,0,-1,1504,582,0,0
287,442,0,0,0,0,0,0,0,0,0,-1,1511,582,0,0
294,442,0,0,0,0,0,0,0,0,0,-1,1518,582,0,0
301,442,0,0,0,0,0,0,0,0,0,-1,1525,582,0,0
308,442,0,0,0,0,0,0,0,0,0,-1,1532,582,0,0
315,442,0,0,0,0,0,0,0,0,0,-1,1539,582,0,0
322,442,0,0,0,0,0,0,0,0,0,-1,1546,582,0,0
329,442,0,0,0,0,0,0,0,0,0,-1,1553,582,0,0
336,442,0,0,0,0,0,0,0,0,0,-1,1560,582,0,0
343,442,0,0,0,0,0,0,0,0,0,-1,1567,582,0,0
350,442,0,0,0,0,0,0,0,0,0,-1,1574,582,0,0
357,442,0,0,0,0,0,0,0,0,0,-1,1581,582,0,0
364,442,0,0,0,0,0,0,0,0,0,-1,1588,582,0,0
371,442,0,0,0,0,0,0,0,0,0,-1,1595,582,0,0
378,442,0,0,0,0,0,0,0,0,0,-1,1602,582,0,0
385,442,0,0,0,0,0,0,0,0,0,-1,1609,582,0,0
392,442,0,0,0,0,0,0,0,0,0,-1,1616,582,0,0
399,442,0,0,0,0,0,0,0,0,0,-1,1623,582,0,0
406,442,17.6321,4.08295,0,0,0,0,0,0,0,-1,1630,582,17.6321,-4.08293
413,442,22.1273,3.56525,0,0,0,0,0,0,0,-1,1637,582,22.1273,-3.56525
420,442,22.7478,1.55011,0,0,0,0,0,0,0,-1,1644,582,22.7478,-1.55009
427,442,23.2969,-0.456787,0,0,0,0,0,0,0,-1,1651,582,23.2968,0.456769
434,442,23.9512,-2.49365,0,0,0,0,0,0,0,-1,1658,582,23.9512,2.49366
441,442,24.8251,-4.43958,0,0,0,0,0,0,0,-1,1665,582,24.8251,4.43956
448,442,4.7749,-5.88562,0,0,0,0,0,0,0,-1,1672,582,4.7749,5.8856
455,442,4.87024,-4.60687,0,0,0,0,0,0,0,-1,1679,582,4.87019,4.60686
462,442,5.02307,-3.72821,0,0,0,0,0,0,0,-1,1686,582,5.02311,3.7282
469,442,5.12976,-2.98834,0,0,0,0,0,0,0,-1,1693,582,5.12971,2.98834
476,442,5.4624,1.76947,0,0,0,0,0,0,0,-1,1700,582,5.46234,-1.76944
483,442,5.98486,1.87042,0,0,0,0,0,0,0,-1,1707,582,5.98492,-1.87045
490,442,5.04407,-2.35834,0,0,0,0,0,0,0,-1,1714,582,5.04411,2.35837
497,442,6.20984,-3.07831,0,0,0,0,0,0,0,-1,1721,582,6.2098,3.07833
504,442,12.0217,-9.11523,0,0,0,0,0,0,0,-1,1728,582,12.0217,9.11525
511,442,12.1637,-8.69537,0.00486434,0.00351286,0.00278106,0.00705058,0.00132662,0.666217,0.00432651,0.0292167,1735,582,12.1637,8.69536
518,442,12.2506,-8.24994,0.00406187,0.00253507,0.00223093,0.0056564,0.000940546,0.620549,0.0034998,0.0111634,1742,582,12.2506,8.24993
525,442,12.2295,-7.86023,0.0031858,0.00198249,0.00176037,0.00444449,0.000723804,0.620732,0.00275362,0.00986505,1749,582,12.2295,7.86026
532,442,12.214,-7.45514,0.00234565,0.00145615,0.00134157,0.00331427,0.000487533,0.625342,0.00206626,0.0109224,1756,582,12.214,7.45515
539,442,12.2039,-7.034,0.0015584,0.000907237,0.000914912,0.00220393,0.000261702,0.614455,0.00139029,0.0120042,1763,582,12.2038,7.03398
546,442,12.2067,-6.63257,0.000872588,0.000540579,0.000598568,0.00132774,8.54222e-05,0.65013,0.000858107,0.0152401,1770,582,12.2066,6.63259
553,442,12.1808,-6.22601,0.000182675,0.000206082,0.000288195,0.000482811,-9.40547e-05,0.805692,0.000357375,0.015705,1777,582,12.1808,6.226
560,442,12.1893,-5.81689,-0.00058547,-8.08072e-05,-1.14194e-05,-8.05489e-05,-0.000585728,-1.54818,0.000366597,0.0142174,1784,582,12.1894,5.81688
567,442,12.172,-5.396,-0.00129878,-0.000288858,-0.000262403,-0.000224749,-0.00136289,-1.33117,0.000843716,0.0101348,1791,582,12.1719,5.39599
574,442,12.1685,-4.97363,-0.00207535,-0.000482495,-0.000536786,-0.000318487,-0.00223936,-1.27427,0.00139888,0.0124094,1798,582,12.1684,4.97365
581,442,12.222,-4.49323,-0.00298601,-0.000643565,-0.000824432,-0.000382499,-0.00324707,-1.26412,0.00204915,0.0234767,1805,582,12.2221,4.49321
588,442,12.1455,-4.23157,-0.00389277,-0.000670466,-0.00102853,-0.000370158,-0.00419308,-1.28671,0.00268053,0.0420751,1812,582,12.1455,4.23154
595,442,12.301,-3.70398,0,0,0,0,0,0,0,-1,1819,582,12.3011,3.70397
602,442,11.4385,-1.74512,0,0,0,0,0,0,0,-1,1826,582,11.4385,1.74509
609,442,12.761,2.97223,0,0,0,0,0,0,0,-1,1833,582,12.761,-2.97221
616,442,9.78345,-0.103394,0,0,0,0,0,0,0,-1,1840,582,9.78341,0.103424
623,442,9.23828,0.326721,0,0,0,0,0,0,0,-1,1847,582,9.23829,-0.326727
630,442,7.74304,2.3924,0,0,0,0,0,0,0,-1,1854,582,7.7431,-2.39238
637,442,5.87805,1.84027,0,0,0,0,0,0,0,-1,1861,582,5.87807,-1.84025
644,442,0,0,0,0,0,0,0,0,0,-1,1868,582,0,0
651,442,0,0,0,0,0,0,0,0,0,-1,1875,582,0,0
658,442,0,0,0,0,0,0,0,0,0,-1,1882,582,0,0
665,442,0,0,0,0,0,0,0,0,0,-1,1889,582,0,0
672,442,0,0,0,0,0,0,0,0,0,-1,1896,582,0,0
679,442,0,0,0,0,0,0,0,0,0,-1,1903,582,0,0
686,442,0,0,0,0,0,0,0,0,0,-1,1910,582,0,0
693,442,0,0,0,0,0,0,0,0,0,-1,1917,582,0,0
700,442,0,0,0,0,0,0,0,0,0,-1,1924,582,0,0
707,442,0,0,0,0,0,0,0,0,0,-1,1931,582,0,0
714,442,0,0,0,0,0,0,0,0,0,-1,1938,582,0,0
721,442,0,0,0,0,0,0,0,0,0,-1,1945,582,0,0
728,442,0,0,0,0,0,0,0,0,0,-1,1952,582,0,0
735,442,0,0,0,0,0,0,0,0,0,-1,1959,582,0,0
742,442,0,0,0,0,0,0,0,0,0,-1,1966,582,0,0
749,442,0,0,0,0,0,0,0,0,0,-1,1973,582,0,0
756,442,0,0,0,0,0,0,0,0,0,-1,1980,582,0,0
763,442,0,0,0,0,0,0,0,0,0,-1,1987,582,0,0
770,442,0,0,0,0,0,0,0,0,0,-1,1994,582,0,0
777,442,0,0,0,0,0,0,0,0,0,-1,2001,582,0,0
784,442,0,0,0,0,0,0,0,0,0,-1,2008,582,0,0
791,442,0,0,0,0,0,0,0,0,0,-1,2015,582,0,0
798,442,0,0,0,0,0,0,0,0,0,-1,2022,582,0,0
805,442,0,0,0,0,0,0,0,0,0,-1,2029,582,0,0
812,442,0,0,0,0,0,0,0,0,0,-1,2036,582,0,0
-700,435,0,0,0,0,0,0,0,0,0,-1,524,589,0,0
-693,435,0,0,0,0,0,0,0,0,0,-1,531,589,0,0
-686,435,0,0,0,0,0,0,0,0,0,-1,538,589,0,0
-679,435,0,0,0,0,0,0,0,0,0,-1,545,589,0,0
-672,435,0,0,0,0,0,0,0,0,0,-1,552,589,0,0
-665,435,0,0,0,0,0,0,0,0,0,-1,559,589,0,0
-658,435,0,0,0,0,0,0,0,0,0,-1,566,589,0,0
-651,435,0,0,0,0,0,0,0,0,0,-1,573,589,0,0
-644,435,0,0,0,0,0,0,0,0,0,-1,580,589,0,0
-637,435,0,0,0,0,0,0,0,0,0,-1,587,589,0,0
-630,435,0,0,0,0,0,0,0,0,0,-1,594,589,0,0
-623,435,0,0,0,0,0,0,0,0,0,-1,601,589,0,0
-616,435,0,0,0,0,0,0,0,0,0,-1,608,589,0,0
-609,435,0,0,0,0,0,0,0,0,0,-1,615,589,0,0
-602,435,0,0,0,0,0,0,0,0,0,-1,622,589,0,0
-595,435,0,0,0,0,0,0,0,0,0,-1,629,589,0,0
-588,435,0,0,0,0,0,0,0,0,0,-1,636,589,0,0
-581,435,0,0,0,0,0,0,0,0,0,-1,643,589,0,0
-574,435,0,0,0,0,0,0,0,0,0,-1,650,589,0,0
-567,435,0,0,0,0,0,0,0,0,0,-1,657,589,0,0
-560,435,0,0,0,0,0,0,0,0,0,-1,664,589,0,0
-553,435,0,0,0,0,0,0,0,0,0,-1,671,589,0,0
-546,435,0,0,0,0,0,0,0,0,0,-1,678,589,0,0
-539,435,0,0,0,0,0,0,0,0,0,-1,685,589,0,0
-532,435,0,0,0,0,0,0,0,0,0,-1,692,589,0,0
-525,435,-10.0776,10.0547,0,0,0,0,0,0,0,-1,699,589,-10.0776,-10.0547
-518,435,-1.83093,-5.82367,0,0,0,0,0,0,0,-1,706,589,-1.83093,5.8237
-511,435,-2.45154,-5.33118,0,0,0,0,0,0,0,-1,713,589,-2.45151,5.33115
-504,435,-3.07208,-4.83862,0,0,0,0,0,0,0,-1,720,589,-3.0721,4.8386
-497,435,-6.31012,-5.84698,0,0,0,0,0,0,0,-1,727,589,-6.31012,5.84697
-490,435,-5.81903,-0.458679,0,0,0,0,0,0,0,-1,734,589,-5.81902,0.458684
-483,435,-6.59656,-2.43073,0,0,0,0,0,0,0,-1,741,589,-6.59654,2.4307
-476,435,-4.99017,-4.36621,0,0,0,0,0,0,0,-1,748,589,-4.9902,4.36621
-469,435,-4.82166,-5.10083,0.000173985,0.00860543,-0.00661936,0.0122375,-0.00345811,-1.06895,0.0095227,0.0328523,755,589,-4.82168,5.10081
-462,435,-4.69373,-5.88837,0.00015724,0.0073612,-0.00539926,0.0102497,-0.00273125,-1.07956,0.00790248,0.0191963,762,589,-4.69373,5.88839
-455,435,-4.77942,-6.26794,-9.67597e-07,0.00607402,-0.00425084,0.00826109,-0.00218803,-1.09561,0.00636339,0.0179156,769,589,-4.77941,6.26791
-448,435,-4.76794,-6.70349,-8.29934e-05,0.0049289,-0.00324291,0.00652127,-0.00167537,-1.11435,0.00500041,0.0135534,776,589,-4.76797,6.70349
-441,435,-4.78107,-7.08984,-0.000140867,0.0039607,-0.00238703,0.00505692,-0.00123709,-1.14029,0.00385046,0.0114858,783,589,-4.78107,7.08982
-434,435,-4.79974,-7.46692,-0.000207315,0.00293253,-0.00155075,0.00356929,-0.000844083,-1.18117,0.00270515,0.012749,790,589,-4.79977,7.46691
-427,435,-4.80725,-7.8642,-0.000253143,0.00191622,-0.000792008,0.0021746,-0.000511522,-1.25545,0.00164693,0.0102448,797,589,-4.80725,7.86421
-420,435,-4.80829,-8.24786,-0.000429097,0.000838402,-1.14933e-05,0.000838507,-0.000429201,-1.56173,0.000744519,0.0105448,804,589,-4.80827,8.24785
-413,435,-4.80347,-8.64056,-0.000656572,-0.000194074,0.000749988,0.000359507,-0.00121015,0.934942,0.000949567,0.010984,811,589,-4.80348,8.64053
-406,435,-4.80652,-9.02545,-0.000875916,-0.00107586,0.00142184,0.000449464,-0.00240124,0.750301,0.00176977,0.0106952,818,589,-4.80654,9.02544
-399,435,-4.84119,-9.40289,-0.00110539,-0.00197662,0.00205842,0.000563003,-0.00364502,0.681124,0.00263779,0.00929374,825,589,-4.84118,9.40286
-392,435,-4.85852,-9.79309,-0.00135133,-0.00283542,0.00267315,0.000680858,-0.0048676,0.650011,0.0034942,0.0109292,832,589,-4.8585,9.79311
-385,435,-4.849,-10.1794,-0.00170817,-0.0037386,0.00334209,0.000769495,-0.00621626,0.637944,0.00442304,0.0156143,839,589,-4.84902,10.1794
-378,435,-4.84247,-10.4985,-0.00227866,-0.00478468,0.00419676,0.00084815,-0.00791149,0.640328,0.00557858,0.0285955,846,589,-4.84249,10.4985
-371,435,-5.01715,-10.6575,-0.00268307,-0.00577701,0.00504007,0.00104209,-0.00950217,0.636495,0.00670918,0.045254,853,589,-5.01714,10.6575
-364,435,-5.37927,-10.7906,0,0,0,0,0,0,0,-1,860,589,-5.37928,10.7906
-357,435,-5.57343,-10.9666,0,0,0,0,0,0,0,-1,867,589,-5.57342,10.9666
-350,435,-0.86676,-3.69836,0,0,0,0,0,0,0,-1,874,589,-0.866784,3.69834
-343,435,-1.60706,-2.36835,0,0,0,0,0,0,0,-1,881,589,-1.60706,2.36838
-336,435,-2.07263,-1.94012,0,0,0,0,0,0,0,-1,888,589,-2.07265,1.94014
-329,435,-2.55963,-1.5517,0,0,0,0,0,0,0,-1,895,589,-2.5596,1.55168
-322,435,-3.08545,-1.55255,0,0,0,0,0,0,0,-1,902,589,-3.08544,1.55254
-315,435,-0.404297,-2.63763,0,0,0,0,0,0,0,-1,909,589,-0.404276,2.63761
-308,435,-1.70056,-1.90369,0,0,0,0,0,0,0,-1,916,589,-1.70056,1.90367
-301,435,-1.25232,-2.05511,0,0,0,0,0,0,0,-1,923,589,-1.25234,2.05514
-294,435,-1.79974,-1.97321,0,0,0,0,0,0,0,-1,930,589,-1.79973,1.97322
-287,435,0,0,0,0,0,0,0,0,0,-1,937,589,0,0
-280,435,0,0,0,0,0,0,0,0,0,-1,944,589,0,0
-273,435,0,0,0,0,0,0,0,0,0,-1,951,589,0,0
-266,435,0,0,0,0,0,0,0,0,0,-1,958,589,0,0
-259,435,0,0,0,0,0,0,0,0,0,-1,965,589,0,0
-252,435,0,0,0,0,0,0,0,0,0,-1,972,589,0,0
-245,435,0,0,0,0,0,0,0,0,0,-1,979,589,0,0
-238,435,0,0,0,0,0,0,0,0,0,-1,986,589,0,0
-231,435,0,0,0,0,0,0,0,0,0,-1,993,589,0,0
-224,435,0,0,0,0,0,0,0,0,0,-1,1000,589,0,0
-217,435,0,0,0,0,0,0,0,0,0,-1,1007,589,0,0
-210,435,0,0,0,0,0,0,0,0,0,-1,1014,589,0,0
-203,435,0,0,0,0,0,0,0,0,0,-1,1021,589,0,0
-196,435,0,0,0,0,0,0,0,0,0,-1,1028,589,0,0
-189,435,0,0,0,0,0,0,0,0,0,-1,1035,589,0,0
-182,435,0,0,0,0,0,0,0,0,0,-1,1042,589,0,0
-175,435,0,0,0,0,0,0,0,0,0,-1,1049,589,0,0
-168,435,0,0,0,0,0,0,0,0,0,-1,1056,589,0,0
-161,435,0,0,0,0,0,0,0,0,0,-1,1063,589,0,0
-154,435,0,0,0,0,0,0,0,0,0,-1,1070,589,0,0
-147,435,0,0,0,0,0,0,0,0,0,-1,1077,589,0,0
-140,435,0,0,0,0,0,0,0,0,0,-1,1084,589,0,0
-133,435,0,0,0,0,0,0,0,0,0,-1,1091,589,0,0
-126,435,0,0,0,0,0,0,0,0,0,-1,1098,589,0,0
-119,435,0,0,0,0,0,0,0,0,0,-1,1105,589,0,0
-112,435,0,0,0,0,0,0,0,0,0,-1,1112,589,0,0
-105,435,0,0,0,0,0,0,0,0,0,-1,1119,589,0,0
-98,435,0,0,0,0,0,0,0,0,0,-1,1126,589,0,0
-91,435,0,0,0,0,0,0,0,0,0,-1,1133,589,0,0
-84,435,0,0,0,0,0,0,0,0,0,-1,1140,589,0,0
-77,435,0,0,0,0,0,0,0,0,0,-1,1147,589,0,0
-70,435,0,0,0,0,0,0,0,0,0,-1,1154,589,0,0
-63,435,0,0,0,0,0,0,0,0,0,-1,1161,589,0,0
-56,435,0,0,0,0,0,0,0,0,0,-1,1168,589,0,0
-49,435,0,0,0,0,0,0,0,0,0,-1,1175,589,0,0
-42,435,0,0,0,0,0,0,0,0,0,-1,1182,589,0,0
-35,435,0,0,0,0,0,0,0,0,0,-1,1189,589,0,0
-28,435,0,0,0,0,0,0,0,0,0,-1,1196,589,0,0
-21,435,0,0,0,0,0,0,0,0,0,-1,1203,589,0,0
-14,435,0,0,0,0,0,0,0,0,0,-1,1210,589,0,0
-7,435,0,0,0,0,0,0,0,0,0,-1,1217,589,0,0
0,435,0,0,0,0,0,0,0,0,0,-1,1224,589,0,0
7,435,0,0,0,0,0,0,0,0,0,-1,1231,589,0,0
14,435,0,0,0,0,0,0,0,0,0,-1,1238,589,0,0
21,435,0,0,0,0,0,0,0,0,0,-1,1245,589,0,0
28,435,0,0,0,0,0,0,0,0,0,-1,1252,589,0,0
35,435,0,0,0,0,0,0,0,0,0,-1,1259,589,0,0
42,435,0,0,0,0,0,0,0,0,0,-1,1266,589,0,0
49,435,0,0,0,0,0,0,0,0,0,-1,1273,589,0,0
56,435,0,0,0,0,0,0,0,0,0,-1,1280,589,0,0
63,435,0,0,0,0,0,0,0,0,0,-1,1287,589,0,0
70,435,0,0,0,0,0,0,0,0,0,-1,1294,589,0,0
77,435,0,0,0,0,0,0,0,0,0,-1,1301,589,0,0
84,435,0,0,0,0,0,0,0,0,0,-1,1308,589,0,0
91,435,0,0,0,0,0,0,0,0,0,-1,1315,589,0,0
98,435,0,0,0,0,0,0,0,0,0,-1,1322,589,0,0
105,435,0,0,0,0,0,0,0,0,0,-1,1329,589,0,0
112,435,0,0,0,0,0,0,0,0,0,-1,1336,589,0,0
119,435,0,0,0,0,0,0,0,0,0,-1,1343,589,0,0
126,435,0,0,0,0,0,0,0,0,0,-1,1350,589,0,0
133,435,0,0,0,0,0,0,0,0,0,-1,1357,589,0,0
140,435,0,0,0,0,0,0,0,0,0,-1,1364,589,0,0
147,435,0,0,0,0,0,0,0,0,0,-1,1371,589,0,0
154,435,0,0,0,0,0,0,0,0,0,-1,1378,589,0,0
161,435,0,0,0,0,0,0,0,0,0,-1,1385,589,0,0
168,435,0,0,0,0,0,0,0,0,0,-1,1392,589,0,0
175,435,0,0,0,0,0,0,0,0,0,-1,1399,589,0,0
182,435,0,0,0,0,0,0,0,0,0,-1,1406,589,0,0
189,435,0,0,0,0,0,0,0,0,0,-1,1413,589,0,0
196,435,0,0,0,0,0,0,0,0,0,-1,1420,589,0,0
203,435,0,0,0,0,0,0,0,0,0,-1,1427,589,0,0
210,435,0,0,0,0,0,0,0,0,0,-1,1434,589,0,0
217,435,0,0,0,0,0,0,0,0,0,-1,1441,589,0,0
224,435,0,0,0,0,0,0,0,0,0,-1,1448,589,0,0
231,435,0,0,0,0,0,0,0,0,0,-1,1455,589,0,0
238,435,0,0,0,0,0,0,0,0,0,-1,1462,589,0,0
245,435,0,0,0,0,0,0,0,0,0,-1,1469,589,0,0
252,435,0,0,0,0,0,0,0,0,0,-1,1476,589,0,0
259,435,0,0,0,0,0,0,0,0,0,-1,1483,589,0,0
266,435,0,0,0,0,0,0,0,0,0,-1,1490,589,0,0
273,435,0,0,0,0,0,0,0,0,0,-1,1497,589,0,0
280,435,0,0,0,0,0,0,0,0,0,-1,1504,589,0,0
287,435,0,0,0,0,0,0,0,0,0,-1,1511,589,0,0
294,435,0,0,0,0,0,0,0,0,0,-1,1518,589,0,0
301,435,0,0,0,0,0,0,0,0,0,-1,1525,589,0,0
308,435,0,0,0,0,0,0,0,0,0,-1,1532,589,0,0
315,435,0,0,0,0,0,0,0,0,0,-1,1539,589,0,0
322,435,0,0,0,0,0,0,0,0,0,-1,1546,589,0,0
329,435,0,0,0,0,0,0,0,0,0,-1,1553,589,0,0
336,435,0,0,0,0,0,0,0,0,0,-1,1560,589,0,0
343,435,0,0,0,0,0,0,0,0,0,-1,1567,589,0,0
350,435,0,0,0,0,0,0,0,0,0,-1,1574,589,0,0
357,435,0,0,0,0,0,0,0,0,0,-1,1581,589,0,0
364,435,0,0,0,0,0,0,0,0,0,-1,1588,589,0,0
371,435,0,0,0,0,0,0,0,0,0,-1,1595,589,0,0
378,435,0,0,0,0,0,0,0,0,0,-1,1602,589,0,0
385,435,0,0,0,0,0,0,0,0,0,-1,1609,589,0,0
392,435,0,0,0,0,0,0,0,0,0,-1,1616,589,0,0
399,435,0,0,0,0,0,0,0,0,0,-1,1623,589,0,0
406,435,0,0,0,0,0,0,0,0,0,-1,1630,589,0,0
413,435,20.4565,3.49835,0,0,0,0,0,0,0,-1,1637,589,20.4565,-3.49836
420,435,21.4015,1.49609,0,0,0,0,0,0,0,-1,1644,589,21.4015,-1.49609
427,435,22.0464,-0.373962,0,0,0,0,0,0,0,-1,1651,589,22.0464,0.373972
434,435,22.1863,-1.54407,0,0,0,0,0,0,0,-1,1658,589,22.1862,1.54405
441,435,22.3992,-2.38287,0,0,0,0,0,0,0,-1,1665,589,22.3992,2.38289
448,435,7.4585,-0.00292969,0,0,0,0,0,0,0,-1,1672,589,7.45848,0.00294131
455,435,5.49915,-5.047,0,0,0,0,0,0,0,-1,1679,589,5.49914,5.04703
462,435,5.60669,-4.71466,0,0,0,0,0,0,0,-1,1686,589,5.60675,4.71469
469,435,5.87708,1.22351,0,0,0,0,0,0,0,-1,1693,589,5.87703,-1.22351
476,435,6.14136,1.37714,0,0,0,0,0,0,0,-1,1700,589,6.14138,-1.37712
483,435,6.49243,1.36169,0,0,0,0,0,0,0,-1,1707,589,6.49242,-1.36171
490,435,4.38391,-1.36218,0,0,0,0,0,0,0,-1,1714,589,4.38389,1.3622
497,435,7.23499,-3.64551,0,0,0,0,0,0,0,-1,1721,589,7.23495,3.64551
504,435,7.31189,-3.75909,0,0,0,0,0,0,0,-1,1728,589,7.31184,3.75911
511,435,12.4978,-8.69037,0,0,0,0,0,0,0,-1,1735,589,12.4978,8.69039
518,435,12.6711,-8.27252,0.00462507,0.00287818,0.0024108,0.00631577,0.00118747,0.6116,0.0038758,0.0272727,1742,589,12.6712,8.27254
525,435,12.6372,-7.8584,0.00368215,0.00228354,0.00191878,0.00502508,0.0009406,0.610653,0.0030847,0.0119985,1749,589,12.6372,7.85841
532,435,12.6261,-7.44434,0.0028237,0.00167066,0.00147785,0.0038335,0.000660862,0.599424,0.00236634,0.013922,1756,589,12.6261,7.44434
539,435,12.6426,-7.02411,0.00205996,0.00111107,0.00105956,0.00274645,0.00042458,0.574896,0.00170713,0.0156239,1763,589,12.6426,7.02411
546,435,12.6244,-6.60724,0.00141134,0.000747372,0.000763976,0.00191235,0.000246367,0.580432,0.00120123,0.0149701,1770,589,12.6244,6.60726
553,435,12.5944,-6.21057,0.000765917,0.000394563,0.000478541,0.00109354,6.69393e-05,0.600336,0.00070777,0.0104659,1777,589,12.5944,6.21057
560,435,12.5856,-5.80121,4.29058e-05,0.000122158,0.000208556,0.000294819,-0.000129755,0.87928,0.000251227,0.00917917,1784,589,12.5856,5.80123
567,435,12.5958,-5.37354,-0.000623659,-4.18947e-05,6.8913e-06,-4.18131e-05,-0.000623741,1.55895,0.000402614,0.00850132,1791,589,12.5958,5.37356
574,435,12.5778,-4.97034,-0.00129147,-0.000156394,-0.000171192,-0.000131137,-0.00131673,-1.42432,0.000837535,0.00976367,1798,589,12.5778,4.97031
581,435,12.5634,-4.56836,-0.00201685,-0.000200798,-0.000326047,-0.000144035,-0.00207361,-1.39843,0.00133698,0.0181085,1805,589,12.5633,4.56837
588,435,12.5558,-4.14569,-0.00275762,-0.00010654,-0.000408729,-4.49548e-05,-0.00281921,-1.42125,0.00186467,0.0329615,1812,589,12.5558,4.14568
595,435,12.4517,-3.77521,-0.00351866,0.000309505,-0.000324672,0.000336846,-0.003546,-1.48678,0.00248391,0.0352091,1819,589,12.4517,3.77523
602,435,12.4669,-3.39136,0,0,0,0,0,0,0,-1,1826,589,12.4669,3.39134
609,435,10.941,-1.83826,0,0,0,0,0,0,0,-1,1833,589,10.9411,1.83828
616,435,5.05151,-2.75269,0,0,0,0,0,0,0,-1,1840,589,5.05157,2.7527
623,435,11.7588,3.9704,0,0,0,0,0,0,0,-1,1847,589,11.7587,-3.97043
630,435,4.72742,-0.87561,0,0,0,0,0,0,0,-1,1854,589,4.7274,0.875636
637,435,5.05286,1.48792,0,0,0,0,0,0,0,-1,1861,589,5.05291,-1.48792
644,435,0,0,0,0,0,0,0,0,0,-1,1868,589,0,0
651,435,0,0,0,0,0,0,0,0,0,-1,1875,589,0,0
658,435,0,0,0,0,0,0,0,0,0,-1,1882,589,0,0
665,435,0,0,0,0,0,0,0,0,0,-1,1889,589,0,0
672,435,0,0,0,0,0,0,0,0,0,-1,1896,589,0,0
679,435,0,0,0,0,0,0,0,0,0,-1,1903,589,0,0
686,435,0,0,0,0,0,0,0,0,0,-1,1910,589,0,0
693,435,0,0,0,0,0,0,0,0,0,-1,1917,589,0,0
700,435,0,0,0,0,0,0,0,0,0,-1,1924,589,0,0
707,435,0,0,0,0,0,0,0,0,0,-1,1931,589,0,0
714,435,0,0,0,0,0,0,0,0,0,-1,1938,589,0,0
721,435,0,0,0,0,0,0,0,0,0,-1,1945,589,0,0
728,435,0,0,0,0,0,0,0,0,0,-1,1952,589,0,0
735,435,0,0,0,0,0,0,0,0,0,-1,1959,589,0,0
742,435,0,0,0,0,0,0,0,0,0,-1,1966,589,0,0
749,435,0,0,0,0,0,0,0,0,0,-1,1973,589,0,0
756,435,0,0,0,0,0,0,0,0,0,-1,1980,589,0,0
763,435,0,0,0,0,0,0,0,0,0,-1,1987,589,0,0
770,435,0,0,0,0,0,0,0,0,0,-1,1994,589,0,0
777,435,0,0,0,0,0,0,0,0,0,-1,2001,589,0,0
784,435,0,0,0,0,0,0,0,0,0,-1,2008,589,0,0
791,435,0,0,0,0,0,0,0,0,0,-1,2015,589,0,0
798,435,0,0,0,0,0,0,0,0,0,-1,2022,589,0,0
805,435,0,0,0,0,0,0,0,0,0,-1,2029,589,0,0
812,435,0,0,0,0,0,0,0,0,0,-1,2036,589,0,0
-700,428,0,0,0,0,0,0,0,0,0,-1,524,596,0,0
-693,428,0,0,0,0,0,0,0,0,0,-1,531,596,0,0
-686,428,0,0,0,0,0,0,0,0,0,-1,538,596,0,0
-679,428,0,0,0,0,0,0,0,0,0,-1,545,596,0,0
-672,428,0,0,0,0,0,0,0,0,0,-1,552,596,0,0
-665,428,0,0,0,0,0,0,0,0,0,-1,559,596,0,0
-658,428,0,0,0,0,0,0,0,0,0,-1,566,596,0,0
-651,428,0,0,0,0,0,0,0,0,0,-1,573,596,0,0
-644,428,0,0,0,0,0,0,0,0,0,-1,580,596,0,0
-637,428,0,0,0,0,0,0,0,0,0,-1,587,596,0,0
-630,428,0,0,0,0,0,0,0,0,0,-1,594,596,0,0
-623,428,0,0,0,0,0,0,0,0,0,-1,601,596,0,0
-616,428,0,0,0,0,0,0,0,0,0,-1,608,596,0,0
-609,428,0,0,0,0,0,0,0,0,0,-1,615,596,0,0
-602,428,0,0,0,0,0,0,0,0,0,-1,622,596,0,0
-595,428,0,0,0,0,0,0,0,0,0,-1,629,596,0,0
-588,428,0,0,0,0,0,0,0,0,0,-1,636,596,0,0
-581,428,0,0,0,0,0,0,0,0,0,-1,643,596,0,0
-574,428,0,0,0,0,0,0,0,0,0,-1,650,596,0,0
-567,428,0,0,0,0,0,0,0,0,0,-1,657,596,0,0
-560,428,0,0,0,0,0,0,0,0,0,-1,664,596,0,0
-553,428,0,0,0,0,0,0,0,0,0,-1,671,596,0,0
-546,428,0,0,0,0,0,0,0,0,0,-1,678,596,0,0
-539,428,0,0,0,0,0,0,0,0,0,-1,685,596,0,0
-532,428,0,0,0,0,0,0,0,0,0,-1,692,596,0,0
-525,428,-9.59918,7.58618,0,0,0,0,0,0,0,-1,699,596,-9.59918,-7.5862
-518,428,-2.92285,-4.81854,0,0,0,0,0,0,0,-1,706,596,-2.92285,4.81856
-511,428,-3.68811,-4.79474,0,0,0,0,0,0,0,-1,713,596,-3.68811,4.79474
-504,428,-4.45337,-4.77094,0,0,0,0,0,0,0,-1,720,596,-4.45337,4.77092
-497,428,-2.98108,-3.77502,0,0,0,0,0,0,0,-1,727,596,-2.98106,3.77505
-490,428,-4.45392,-1.88556,0,0,0,0,0,0,0,-1,734,596,-4.45389,1.88555
-483,428,-6.43359,-4.26349,0,0,0,0,0,0,0,-1,741,596,-6.43361,4.2635
-476,428,-5.74634,-4.83057,0,0,0,0,0,0,0,-1,748,596,-5.74633,4.83058
-469,428,-5.06488,-5.43616,8.22544e-05,0.00626245,-0.00492593,0.00898729,-0.00264258,-1.06553,0.0070397,0.0228185,755,596,-5.0649,5.43615
-462,428,-5.11151,-5.79669,0.000199188,0.00538152,-0.00410135,0.00764166,-0.00206095,-1.06713,0.0059026,0.0217791,762,596,-5.11149,5.79666
-455,428,-5.16205,-6.25244,0.000180057,0.00446005,-0.00329419,0.00624832,-0.00160821,-1.07345,0.00479242,0.0135331,769,596,-5.16205,6.25246
-448,428,-5.1687,-6.67065,0.000159778,0.00357375,-0.00250006,0.00489399,-0.00116046,-1.08493,0.00371047,0.0107213,776,596,-5.16867,6.67065
-441,428,-5.17737,-7.06335,9.58583e-05,0.00278761,-0.00177753,0.0036713,-0.00078784,-1.10943,0.00274806,0.0127478,783,596,-5.17734,7.06335
-434,428,-5.17694,-7.46808,1.02692e-05,0.0019417,-0.0010429,0.00239735,-0.000445372,-1.15889,0.00176551,0.010257,790,596,-5.17692,7.46809
-427,428,-5.17999,-7.87366,-8.61639e-05,0.00105185,-0.000337802,0.00114456,-0.000178882,-1.30292,0.000829127,0.0108695,797,596,-5.18001,7.87365
-420,428,-5.18536,-8.24323,-0.000359877,1.68099e-05,0.000446697,0.000313247,-0.000656314,0.984907,0.000571337,0.0110523,804,596,-5.18538,8.24323
-413,428,-5.18427,-8.60492,-0.000674591,-0.000954195,0.00121337,0.000407001,-0.00203579,0.728042,0.00151124,0.0132425,811,596,-5.18424,8.6049
-406,428,-5.19757,-8.98907,-0.00103918,-0.00190617,0.0019477,0.00052268,-0.00346803,0.675899,0.0025045,0.0160513,818,596,-5.19756,8.98909
-399,428,-5.21875,-9.38666,-0.00147217,-0.00295381,0.00270661,0.000593171,-0.00501915,0.651816,0.00356034,0.0148136,825,596,-5.21873,9.38669
-392,428,-5.21735,-9.79333,-0.00199267,-0.00394712,0.00348632,0.000650792,-0.00659059,0.648753,0.00462594,0.0173867,832,596,-5.21737,9.79333
-385,428,-5.26123,-10.1464,-0.00275501,-0.00519882,0.00444699,0.000634893,-0.00858872,0.651321,0.00594875,0.033992,839,596,-5.26123,10.1464
-378,428,-5.29669,-10.4554,0,0,0,0,0,0,0,-1,846,596,-5.29672,10.4554
-371,428,-5.41565,-10.3707,0,0,0,0,0,0,0,-1,853,596,-5.41565,10.3707
-364,428,-6.33643,-10.7223,0,0,0,0,0,0,0,-1,860,596,-6.33645,10.7223
-357,428,-3.20996,-4.70966,0,0,0,0,0,0,0,-1,867,596,-3.20997,4.70965
-350,428,-1.62793,-3.94055,0,0,0,0,0,0,0,-1,874,596,-1.62794,3.94055
-343,428,-0.0567017,-4.80994,0,0,0,0,0,0,0,-1,881,596,-0.0567096,4.80996
-336,428,-3.29175,-1.39569,0,0,0,0,0,0,0,-1,888,596,-3.29172,1.39568
-329,428,-3.71564,-0.791321,0,0,0,0,0,0,0,-1,895,596,-3.71564,0.791299
-322,428,-5.52863,-3.59827,0,0,0,0,0,0,0,-1,902,596,-5.52865,3.59829
-315,428,-4.57172,-1.22052,0,0,0,0,0,0,0,-1,909,596,-4.57171,1.22052
-308,428,-5.94324,-0.810791,0,0,0,0,0,0,0,-1,916,596,-5.94321,0.810803
-301,428,0,0,0,0,0,0,0,0,0,-1,923,596,0,0
-294,428,0,0,0,0,0,0,0,0,0,-1,930,596,0,0
-287,428,0,0,0,0,0,0,0,0,0,-1,937,596,0,0
-280,428,0,0,0,0,0,0,0,0,0,-1,944,596,0,0
-273,428,0,0,0,0,0,0,0,0,0,-1,951,596,0,0
-266,428,0,0,0,0,0,0,0,0,0,-1,958,596,0,0
-259,428,0,0,0,0,0,0,0,0,0,-1,965,596,0,0
-252,428,0,0,0,0,0,0,0,0,0,-1,972,596,0,0
-245,428,0,0,0,0,0,0,0,0,0,-1,979,596,0,0
-238,428,0,0,0,0,0,0,0,0,0,-1,986,596,0,0
-231,428,0,0,0,0,0,0,0,0,0,-1,993,596,0,0
-224,428,0,0,0,0,0,0,0,0,0,-1,1000,596,0,0
-217,428,0,0,0,0,0,0,0,0,0,-1,1007,596,0,0
-210,428,0,0,0,0,0,0,0,0,0,-1,1014,596,0,0
-203,428,0,0,0,0,0,0,0,0,0,-1,1021,596,0,0
-196,428,0,0,0,0,0,0,0,0,0,-1,1028,596,0,0
-189,428,0,0,0,0,0,0,0,0,0,-1,1035,596,0,0
-182,428,0,0,0,0,0,0,0,0,0,-1,1042,596,0,0
-175,428,0,0,0,0,0,0,0,0,0,-1,1049,596,0,0
-168,428,0,0,0,0,0,0,0,0,0,-1,1056,596,0,0
-161,428,0,0,0,0,0,0,0,0,0,-1,1063,596,0,0
-154,428,0,0,0,0,0,0,0,0,0,-1,1070,596,0,0
-147,428,0,0,0,0,0,0,0,0,0,-1,1077,596,0,0
-140,428,0,0,0,0,0,0,0,0,0,-1,1084,596,0,0
-133,428,0,0,0,0,0,0,0,0,0,-1,1091,596,0,0
-126,428,0,0,0,0,0,0,0,0,0,-1,1098,596,0,0
-119,428,0,0,0,0,0,0,0,0,0,-1,1105,596,0,0
-112,428,0,0,0,0,0,0,0,0,0,-1,1112,596,0,0
-105,428,0,0,0,0,0,0,0,0,0,-1,1119,596,0,0
-98,428,0,0,0,0,0,0,0,0,0,-1,1126,596,0,0
-91,428,0,0,0,0,0,0,0,0,0,-1,1133,596,0,0
-84,428,0,0,0,0,0,0,0,0,0,-1,1140,596,0,0
-77,428,0,0,0,0,0,0,0,0,0,-1,1147,596,0,0
-70,428,0,0,0,0,0,0,0,0,0,-1,1154,596,0,0
-63,428,0,0,0,0,0,0,0,0,0,-1,1161,596,0,0
-56,428,0,0,0,0,0,0,0,0,0,-1,1168,596,0,0
-49,428,0,0,0,0,0,0,0,0,0,-1,1175,596,0,0
-42,428,0,0,0,0,0,0,0,0,0,-1,1182,596,0,0
-35,428,0,0,0,0,0,0,0,0,0,-1,1189,596,0,0
-28,428,0,0,0,0,0,0,0,0,0,-1,1196,596,0,0
-21,428,0,0,0,0,0,0,0,0,0,-1,1203,596,0,0
-14,428,0,0,0,0,0,0,0,0,0,-1,1210,596,0,0
-7,428,0,0,0,0,0,0,0,0,0,-1,1217,596,0,0
0,428,0,0,0,0,0,0,0,0,0,-1,1224,596,0,0
7,428,0,0,0,0,0,0,0,0,0,-1,1231,596,0,0
14,428,0,0,0,0,0,0,0,0,0,-1,1238,596,0,0
21,428,0,0,0,0,0,0,0,0,0,-1,1245,596,0,0
28,428,0,0,0,0,0,0,0,0,0,-1,1252,596,0,0
35,428,0,0,0,0,0,0,0,0,0,-1,1259,596,0,0
42,428,0,0,0,0,0,0,0,0,0,-1,1266,596,0,0
49,428,0,0,0,0,0,0,0,0,0,-1,1273,596,0,0
56,428,0,0,0,0,0,0,0,0,0,-1,1280,596,0,0
63,428,0,0,0,0,0,0,0,0,0,-1,1287,596,0,0
70,428,0,0,0,0,0,0,0,0,0,-1,1294,596,0,0
77,428,0,0,0,0,0,0,0,0,0,-1,1301,596,0,0
84,428,0,0,0,0,0,0,0,0,0,-1,1308,596,0,0
91,428,0,0,0,0,0,0,0,0,0,-1,1315,596,0,0
98,428,0,0,0,0,0,0,0,0,0,-1,1322,596,0,0
105,428,0,0,0,0,0,0,0,0,0,-1,1329,596,0,0
112,428,0,0,0,0,0,0,0,0,0,-1,1336,596,0,0
119,428,0,0,0,0,0,0,0,0,0,-1,1343,596,0,0
126,428,0,0,0,0,0,0,0,0,0,-1,1350,596,0,0
133,428,0,0,0,0,0,0,0,0,0,-1,1357,596,0,0
140,428,0,0,0,0,0,0,0,0,0,-1,1364,596,0,0
147,428,0,0,0,0,0,0,0,0,0,-1,1371,596,0,0
154,428,0,0,0,0,0,0,0,0,0,-1,1378,596,0,0
161,428,0,0,0,0,0,0,0,0,0,-1,1385,596,0,0
168,428,0,0,0,0,0,0,0,0,0,-1,1392,596,0,0
175,428,0,0,0,0,0,0,0,0,0,-1,1399,596,0,0
182,428,0,0,0,0,0,0,0,0,0,-1,1406,596,0,0
189,428,0,0,0,0,0,0,0,0,0,-1,1413,596,0,0
196,428,0,0,0,0,0,0,0,0,0,-1,1420,596,0,0
203,428,0,0,0,0,0,0,0,0,0,-1,1427,596,0,0
210,428,0,0,0,0,0,0,0,0,0,-1,1434,596,0,0
217,428,0,0,0,0,0,0,0,0,0,-1,1441,596,0,0
224,428,0,0,0,0,0,0,0,0,0,-1,1448,596,0,0
231,428,0,0,0,0,0,0,0,0,0,-1,1455,596,0,0
238,428,0,0,0,0,0,0,0,0,0,-1,1462,596,0,0
245,428,0,0,0,0,0,0,0,0,0,-1,1469,596,0,0
252,428,0,0,0,0,0,0,0,0,0,-1,1476,596,0,0
259,428,0,0,0,0,0,0,0,0,0,-1,1483,596,0,0
266,428,0,0,0,0,0,0,0,0,0,-1,1490,596,0,0
273,428,0,0,0,0,0,0,0,0,0,-1,1497,596,0,0
280,428,0,0,0,0,0,0,0,0,0,-1,1504,596,0,0
287,428,0,0,0,0,0,0,0,0,0,-1,1511,596,0,0
294,428,0,0,0,0,0,0,0,0,0,-1,1518,596,0,0
301,428,0,0,0,0,0,0,0,0,0,-1,1525,596,0,0
308,428,0,0,0,0,0,0,0,0,0,-1,1532,596,0,0
315,428,0,0,0,0,0,0,0,0,0,-1,1539,596,0,0
322,428,0,0,0,0,0,0,0,0,0,-1,1546,596,0,0
329,428,0,0,0,0,0,0,0,0,0,-1,1553,596,0,0
336,428,0,0,0,0,0,0,0,0,0,-1,1560,596,0,0
343,428,0,0,0,0,0,0,0,0,0,-1,1567,596,0,0
350,428,0,0,0,0,0,0,0,0,0,-1,1574,596,0,0
357,428,0,0,0,0,0,0,0,0,0,-1,1581,596,0,0
364,428,0,0,0,0,0,0,0,0,0,-1,1588,596,0,0
371,428,0,0,0,0,0,0,0,0,0,-1,1595,596,0,0
378,428,0,0,0,0,0,0,0,0,0,-1,1602,596,0,0
385,428,0,0,0,0,0,0,0,0,0,-1,1609,596,0,0
392,428,0,0,0,0,0,0,0,0,0,-1,1616,596,0,0
399,428,0,0,0,0,0,0,0,0,0,-1,1623,596,0,0
406,428,0,0,0,0,0,0,0,0,0,-1,1630,596,0,0
413,428,0,0,0,0,0,0,0,0,0,-1,1637,596,0,0
420,428,19.8469,1.3399,0,0,0,0,0,0,0,-1,1644,596,19.8469,-1.33992
427,428,20.7299,-0.225281,0,0,0,0,0,0,0,-1,1651,596,20.7299,0.225262
434,428,19.8915,-0.583069,0,0,0,0,0,0,0,-1,1658,596,19.8915,0.583075
441,428,8.17993,0.607483,0,0,0,0,0,0,0,-1,1665,596,8.17997,-0.607513
448,428,7.84338,-0.385986,0,0,0,0,0,0,0,-1,1672,596,7.84336,0.385978
455,428,6.64038,2.1123,0,0,0,0,0,0,0,-1,1679,596,6.64037,-2.11229
462,428,4.84106,4.12341,0,0,0,0,0,0,0,-1,1686,596,4.84107,-4.12339
469,428,7.83789,3.10083,0,0,0,0,0,0,0,-1,1693,596,7.83785,-3.10086
476,428,7.61255,1.73956,0,0,0,0,0,0,0,-1,1700,596,7.61252,-1.73958
483,428,7.22766,1.05121,0,0,0,0,0,0,0,-1,1707,596,7.2277,-1.05121
490,428,5.4071,-3.2793,0,0,0,0,0,0,0,-1,1714,596,5.40707,3.27929
497,428,7.84106,-3.65491,0,0,0,0,0,0,0,-1,1721,596,7.84107,3.65491
504,428,6.92139,-2.83356,0,0,0,0,0,0,0,-1,1728,596,6.92137,2.83353
511,428,7.88501,-3.78723,0,0,0,0,0,0,0,-1,1735,596,7.88502,3.78722
518,428,13.0354,-8.33417,0,0,0,0,0,0,0,-1,1742,596,13.0355,8.33415
525,428,13.0209,-7.84302,0,0,0,0,0,0,0,-1,1749,596,13.0208,7.84302
532,428,13.0109,-7.42224,0.00331857,0.00186819,0.00165889,0.00440385,0.000782905,0.579338,0.00271286,0.0209265,1756,596,13.0109,7.42224
539,428,13.0629,-7.01477,0.00252095,0.0012979,0.00119243,0.00324952,0.000569337,0.548464,0.00200371,0.0210198,1763,596,13.0628,7.01478
546,428,13.0366,-6.61725,0.00186031,0.00092274,0.000872793,0.00238225,0.000400805,0.538951,0.00147286,0.0168239,1770,596,13.0366,6.61723
553,428,13.0049,-6.19971,0.00121842,0.00053216,0.000574195,0.0015442,0.000206383,0.516077,0.000968033,0.011125,1777,596,13.0048,6.19971
560,428,13.0293,-5.78619,0.000513232,0.000254019,0.000305337,0.000715331,5.19203e-05,0.584687,0.000460557,0.0116754,1784,596,13.0293,5.78619
567,428,13.0209,-5.38831,-0.000129304,0.000106959,0.000124762,0.000160643,-0.000182988,1.16445,0.000198535,0.0107482,1791,596,13.0209,5.38833
574,428,12.9985,-4.99335,-0.000726565,3.42897e-05,4.26666e-06,3.43136e-05,-0.000726589,1.56519,0.000496226,0.0125455,1798,596,12.9986,4.99332
581,428,12.9795,-4.552,-0.00133392,5.68733e-05,-6.10765e-05,5.95503e-05,-0.0013366,-1.52699,0.000911564,0.0118416,1805,596,12.9795,4.552
588,428,12.9796,-4.08844,-0.00194622,0.000243684,-4.8277e-05,0.000244748,-0.00194729,-1.54877,0.00138699,0.0159022,1812,596,12.9796,4.08847
595,428,12.9275,-3.65393,-0.00252077,0.000693013,0.000134316,0.000698617,-0.00252637,1.5291,0.00195909,0.0135228,1819,596,12.9275,3.65391
602,428,12.8676,-3.21765,-0.00327396,0.00145548,0.000409248,0.00149063,-0.00330911,1.48511,0.00283665,0.0236054,1826,596,12.8675,3.21767
609,428,12.8141,-2.66193,0,0,0,0,0,0,0,-1,1833,596,12.8141,2.66193
616,428,5.88977,-0.239319,0,0,0,0,0,0,0,-1,1840,596,5.88983,0.239293
623,428,9.53577,1.12518,0,0,0,0,0,0,0,-1,1847,596,9.5358,-1.1252
630,428,7.07996,6.88562,0,0,0,0,0,0,0,-1,1854,596,7.0799,-6.88565
637,428,3.95435,1.90857,0,0,0,0,0,0,0,-1,1861,596,3.95439,-1.90858
644,428,5.75476,0.888977,0,0,0,0,0,0,0,-1,1868,596,5.75472,-0.888955
651,428,0,0,0,0,0,0,0,0,0,-1,1875,596,0,0
658,428,0,0,0,0,0,0,0,0,0,-1,1882,596,0,0
665,428,0,0,0,0,0,0,0,0,0,-1,1889,596,0,0
672,428,0,0,0,0,0,0,0,0,0,-1,1896,596,0,0
679,428,0,0,0,0,0,0,0,0,0,-1,1903,596,0,0
686,428,0,0,0,0,0,0,0,0,0,-1,1910,596,0,0
693,428,0,0,0,0,0,0,0,0,0,-1,1917,596,0,0
700,428,0,0,0,0,0,0,0,0,0,-1,1924,596,0,0
707,428,0,0,0,0,0,0,0,0,0,-1,1931,596,0,0
714,428,0,0,0,0,0,0,0,0,0,-1,1938,596,0,0
721,428,0,0,0,0,0,0,0,0,0,-1,1945,596,0,0
728,428,0,0,0,0,0,0,0,0,0,-1,1952,596,0,0
735,428,0,0,0,0,0,0,0,0,0,-1,1959,596,0,0
742,428,0,0,0,0,0,0,0,0,0,-1,1966,596,0,0
749,428,0,0,0,0,0,0,0,0,0,-1,1973,596,0,0
756,428,0,0,0,0,0,0,0,0,0,-1,1980,596,0,0
763,428,0,0,0,0,0,0,0,0,0,-1,1987,596,0,0
770,428,0,0,0,0,0,0,0,0,0,-1,1994,596,0,0
777,428,0,0,0,0,0,0,0,0,0,-1,2001,596,0,0
784,428,0,0,0,0,0,0,0,0,0,-1,2008,596,0,0
791,428,0,0,0,0,0,0,0,0,0,-1,2015,596,0,0
798,428,0,0,0,0,0,0,0,0,0,-1,2022,596,0,0
805,428,0,0,0,0,0,0,0,0,0,-1,2029,596,0,0
812,428,0,0,0,0,0,0,0,0,0,-1,2036,596,0,0
-700,421,0,0,0,0,0,0,0,0,0,-1,524,603,0,0
-693,421,0,0,0,0,0,0,0,0,0,-1,531,603,0,0
-686,421,0,0,0,0,0,0,0,0,0,-1,538,603,0,0
-679,421,0,0,0,0,0,0,0,0,0,-1,545,603,0,0
-672,421,0,0,0,0,0,0,0,0,0,-1,552,603,0,0
-665,421,0,0,0,0,0,0,0,0,0,-1,559,603,0,0
-658,421,0,0,0,0,0,0,0,0,0,-1,566,603,0,0
-651,421,0,0,0,0,0,0,0,0,0,-1,573,603,0,0
-644,421,0,0,0,0,0,0,0,0,0,-1,580,603,0,0
-637,421,0,0,0,0,0,0,0,0,0,-1,587,603,0,0
-630,421,0,0,0,0,0,0,0,0,0,-1,594,603,0,0
-623,421,0,0,0,0,0,0,0,0,0,-1,601,603,0,0
-616,421,0,0,0,0,0,0,0,0,0,-1,608,603,0,0
-609,421,0,0,0,0,0,0,0,0,0,-1,615,603,0,0
-602,421,0,0,0,0,0,0,0,0,0,-1,622,603,0,0
-595,421,0,0,0,0,0,0,0,0,0,-1,629,603,0,0
-588,421,0,0,0,0,0,0,0,0,0,-1,636,603,0,0
-581,421,0,0,0,0,0,0,0,0,0,-1,643,603,0,0
-574,421,0,0,0,0,0,0,0,0,0,-1,650,603,0,0
-567,421,0,0,0,0,0,0,0,0,0,-1,657,603,0,0
-560,421,0,0,0,0,0,0,0,0,0,-1,664,603,0,0
-553,421,0,0,0,0,0,0,0,0,0,-1,671,603,0,0
-546,421,0,0,0,0,0,0,0,0,0,-1,678,603,0,0
-539,421,0,0,0,0,0,0,0,0,0,-1,685,603,0,0
-532,421,-8.97382,6.95636,0,0,0,0,0,0,0,-1,692,603,-8.97384,-6.95634
-525,421,-2.11481,-8.04272,0,0,0,0,0,0,0,-1,699,603,-2.11483,8.0427
-518,421,-3.05908,-5.07233,0,0,0,0,0,0,0,-1,706,603,-3.0591,5.07235
-511,421,-4.63525,-4.08447,0,0,0,0,0,0,0,-1,713,603,-4.63524,4.08449
-504,421,-4.97272,-4.38385,0,0,0,0,0,0,0,-1,720,603,-4.9727,4.38383
-497,421,-6.63141,-2.32501,0,0,0,0,0,0,0,-1,727,603,-6.6314,2.32498
-490,421,-5.52075,-3.10205,0,0,0,0,0,0,0,-1,734,603,-5.52075,3.10204
-483,421,-5.50635,-4.4856,0,0,0,0,0,0,0,-1,741,603,-5.50633,4.48561
-476,421,-5.67542,-5.09686,0,0,0,0,0,0,0,-1,748,603,-5.6754,5.09686
-469,421,-5.5412,-5.4259,-4.8777e-05,0.00428368,-0.00351115,0.00624307,-0.00200817,-1.0618,0.0049686,0.0229643,755,603,-5.54119,5.42588
-462,421,-5.51862,-5.86011,0.000184718,0.00372513,-0.0030315,0.00546542,-0.00155558,-1.04966,0.00425794,0.0198744,762,603,-5.51862,5.86008
-455,421,-5.51196,-6.25562,0.000302211,0.00313173,-0.00253716,0.00462192,-0.00118798,-1.03973,0.00354427,0.0181947,769,603,-5.51197,6.25559
-448,421,-5.55743,-6.66211,0.000368337,0.00248233,-0.00195334,0.00364632,-0.00079565,-1.0334,0.00273495,0.0175033,776,603,-5.55746,6.66214
-441,421,-5.55981,-7.0708,0.000334285,0.00184484,-0.00136221,0.00264714,-0.000468019,-1.03852,0.00193968,0.0134557,783,603,-5.55983,7.07082
-434,421,-5.58124,-7.46851,0.000260401,0.00115477,-0.000729901,0.00156358,-0.00014841,-1.06024,0.00109521,0.0101845,790,603,-5.58124,7.46848
-427,421,-5.57764,-7.86499,0.000133481,0.000377833,-7.23469e-05,0.000397647,0.000113667,-1.30348,0.000236496,0.0103726,797,603,-5.57767,7.865
-420,421,-5.5752,-8.23865,-0.000220979,-0.000621344,0.000727001,0.000332896,-0.00117522,0.651051,0.000914862,0.0112132,804,603,-5.57519,8.23867
-413,421,-5.58716,-8.61005,-0.000615619,-0.00153031,0.00152312,0.000517336,-0.00266326,0.639546,0.00197072,0.013226,811,603,-5.58714,8.61005
-406,421,-5.62274,-9.02997,-0.00113306,-0.00257852,0.00236532,0.00061749,-0.00432906,0.637127,0.00311236,0.0183819,818,603,-5.62275,9.02995
-399,421,-5.57172,-9.4657,-0.00179863,-0.00381675,0.0033132,0.000655759,-0.00627114,0.637582,0.00441561,0.0225909,825,603,-5.57174,9.46571
-392,421,-5.65216,-9.73572,-0.00268833,-0.0050209,0.004385,0.000682835,-0.00839207,0.655421,0.00583566,0.0321643,832,603,-5.65218,9.73572
-385,421,-5.6839,-10.1119,0,0,0,0,0,0,0,-1,839,603,-5.6839,10.1119
-378,421,-4.94733,-8.87909,0,0,0,0,0,0,0,-1,846,603,-4.94731,8.87906
-371,421,-5.65082,-7.01849,0,0,0,0,0,0,0,-1,853,603,-5.65082,7.0185
-364,421,-5.94189,-7.09875,0,0,0,0,0,0,0,-1,860,603,-5.94192,7.09878
-357,421,-7.62531,-8.26337,0,0,0,0,0,0,0,-1,867,603,-7.62532,8.26337
-350,421,-5.38019,-3.75024,0,0,0,0,0,0,0,-1,874,603,-5.38017,3.75026
-343,421,-6.22797,-2.57123,0,0,0,0,0,0,0,-1,881,603,-6.22798,2.57121
-336,421,-6.22882,-2.59369,0,0,0,0,0,0,0,-1,888,603,-6.22883,2.5937
-329,421,-4.50134,-1.49469,0,0,0,0,0,0,0,-1,895,603,-4.50137,1.49468
-322,421,-6.30377,-0.285339,0,0,0,0,0,0,0,-1,902,603,-6.30379,0.285355
-315,421,-4.47821,-1.26733,0,0,0,0,0,0,0,-1,909,603,-4.47824,1.26732
-308,421,0,0,0,0,0,0,0,0,0,-1,916,603,0,0
-301,421,0,0,0,0,0,0,0,0,0,-1,923,603,0,0
-294,421,0,0,0,0,0,0,0,0,0,-1,930,603,0,0
-287,421,0,0,0,0,0,0,0,0,0,-1,937,603,0,0
-280,421,0,0,0,0,0,0,0,0,0,-1,944,603,0,0
-273,421,0,0,0,0,0,0,0,0,0,-1,951,603,0,0
-266,421,0,0,0,0,0,0,0,0,0,-1,958,603,0,0
-259,421,0,0,0,0,0,0,0,0,0,-1,965,603,0,0
-252,421,0,0,0,0,0,0,0,0,0,-1,972,603,0,0
-245,421,0,0,0,0,0,0,0,0,0,-1,979,603,0,0
-238,421,0,0,0,0,0,0,0,0,0,-1,986,603,0,0
-231,421,0,0,0,0,0,0,0,0,0,-1,993,603,0,0
-224,421,0,0,0,0,0,0,0,0,0,-1,1000,603,0,0
-217,421,0,0,0,0,0,0,0,0,0,-1,1007,603,0,0
-210,421,0,0,0,0,0,0,0,0,0,-1,1014,603,0,0
-203,421,0,0,0,0,0,0,0,0,0,-1,1021,603,0,0
-196,421,0,0,0,0,0,0,0,0,0,-1,1028,603,0,0
-189,421,0,0,0,0,0,0,0,0,0,-1,1035,603,0,0
-182,421,0,0,0,0,0,0,0,0,0,-1,1042,603,0,0
-175,421,0,0,0,0,0,0,0,0,0,-1,1049,603,0,0
-168,421,0,0,0,0,0,0,0,0,0,-1,1056,603,0,0
-161,421,0,0,0,0,0,0,0,0,0,-1,1063,603,0,0
-154,421,0,0,0,0,0,0,0,0,0,-1,1070,603,0,0
-147,421,0,0,0,0,0,0,0,0,0,-1,1077,603,0,0
-140,421,0,0,0,0,0,0,0,0,0,-1,1084,603,0,0
-133,421,0,0,0,0,0,0,0,0,0,-1,1091,603,0,0
-126,421,0,0,0,0,0,0,0,0,0,-1,1098,603,0,0
-119,421,0,0,0,0,0,0,0,0,0,-1,1105,603,0,0
-112,421,0,0,0,0,0,0,0,0,0,-1,1112,603,0,0
-105,421,0,0,0,0,0,0,0,0,0,-1,1119,603,0,0
-98,421,0,0,0,0,0,0,0,0,0,-1,1126,603,0,0
-91,421,0,0,0,0,0,0,0,0,0,-1,1133,603,0,0
-84,421,0,0,0,0,0,0,0,0,0,-1,1140,603,0,0
-77,421,0,0,0,0,0,0,0,0,0,-1,1147,603,0,0
-70,421,0,0,0,0,0,0,0,0,0,-1,1154,603,0,0
-63,421,0,0,0,0,0,0,0,0,0,-1,1161,603,0,0
-56,421,0,0,0,0,0,0,0,0,0,-1,1168,603,0,0
-49,421,0,0,0,0,0,0,0,0,0,-1,1175,603,0,0
-42,421,0,0,0,0,0,0,0,0,0,-1,1182,603,0,0
-35,421,0,0,0,0,0,0,0,0,0,-1,1189,603,0,0
-28,421,0,0,0,0,0,0,0,0,0,-1,1196,603,0,0
-21,421,0,0,0,0,0,0,0,0,0,-1,1203,603,0,0
-14,421,0,0,0,0,0,0,0,0,0,-1,1210,603,0,0
-7,421,0,0,0,0,0,0,0,0,0,-1,1217,603,0,0
0,421,0,0,0,0,0,0,0,0,0,-1,1224,603,0,0
7,421,0,0,0,0,0,0,0,0,0,-1,1231,603,0,0
14,421,0,0,0,0,0,0,0,0,0,-1,1238,603,0,0
21,421,0,0,0,0,0,0,0,0,0,-1,1245,603,0,0
28,421,0,0,0,0,0,0,0,0,0,-1,1252,603,0,0
35,421,0,0,0,0,0,0,0,0,0,-1,1259,603,0,0
42,421,0,0,0,0,0,0,0,0,0,-1,1266,603,0,0
49,421,0,0,0,0,0,0,0,0,0,-1,1273,603,0,0
56,421,0,0,0,0,0,0,0,0,0,-1,1280,603,0,0
63,421,0,0,0,0,0,0,0,0,0,-1,1287,603,0,0
70,421,0,0,0,0,0,0,0,0,0,-1,1294,603,0,0
77,421,0,0,0,0,0,0,0,0,0,-1,1301,603,0,0
84,421,0,0,0,0,0,0,0,0,0,-1,1308,603,0,0
91,421,0,0,0,0,0,0,0,0,0,-1,1315,603,0,0
98,421,0,0,0,0,0,0,0,0,0,-1,1322,603,0,0
105,421,0,0,0,0,0,0,0,0,0,-1,1329,603,0,0
112,421,0,0,0,0,0,0,0,0,0,-1,1336,603,0,0
119,421,0,0,0,0,0,0,0,0,0,-1,1343,603,0,0
126,421,0,0,0,0,0,0,0,0,0,-1,1350,603,0,0
133,421,0,0,0,0,0,0,0,0,0,-1,1357,603,0,0
140,421,0,0,0,0,0,0,0,0,0,-1,1364,603,0,0
147,421,0,0,0,0,0,0,0,0,0,-1,1371,603,0,0
154,421,0,0,0,0,0,0,0,0,0,-1,1378,603,0,0
161,421,0,0,0,0,0,0,0,0,0,-1,1385,603,0,0
168,421,0,0,0,0,0,0,0,0,0,-1,1392,603,0,0
175,421,0,0,0,0,0,0,0,0,0,-1,1399,603,0,0
182,421,0,0,0,0,0,0,0,0,0,-1,1406,603,0,0
189,421,0,0,0,0,0,0,0,0,0,-1,1413,603,0,0
196,421,0,0,0,0,0,0,0,0,0,-1,1420,603,0,0
203,421,0,0,0,0,0,0,0,0,0,-1,1427,603,0,0
210,421,0,0,0,0,0,0,0,0,0,-1,1434,603,0,0
217,421,0,0,0,0,0,0,0,0,0,-1,1441,603,0,0
224,421,0,0,0,0,0,0,0,0,0,-1,1448,603,0,0
231,421,0,0,0,0,0,0,0,0,0,-1,1455,603,0,0
238,421,0,0,0,0,0,0,0,0,0,-1,1462,603,0,0
245,421,0,0,0,0,0,0,0,0,0,-1,1469,603,0,0
252,421,0,0,0,0,0,0,0,0,0,-1,1476,603,0,0
259,421,0,0,0,0,0,0,0,0,0,-1,1483,603,0,0
266,421,0,0,0,0,0,0,0,0,0,-1,1490,603,0,0
273,421,0,0,0,0,0,0,0,0,0,-1,1497,603,0,0
280,421,0,0,0,0,0,0,0,0,0,-1,1504,603,0,0
287,421,0,0,0,0,0,0,0,0,0,-1,1511,603,0,0
294,421,0,0,0,0,0,0,0,0,0,-1,1518,603,0,0
301,421,0,0,0,0,0,0,0,0,0,-1,1525,603,0,0
308,421,0,0,0,0,0,0,0,0,0,-1,1532,603,0,0
315,421,0,0,0,0,0,0,0,0,0,-1,1539,603,0,0
322,421,0,0,0,0,0,0,0,0,0,-1,1546,603,0,0
329,421,0,0,0,0,0,0,0,0,0,-1,1553,603,0,0
336,421,0,0,0,0,0,0,0,0,0,-1,1560,603,0,0
343,421,0,0,0,0,0,0,0,0,0,-1,1567,603,0,0
350,421,0,0,0,0,0,0,0,0,0,-1,1574,603,0,0
357,421,0,0,0,0,0,0,0,0,0,-1,1581,603,0,0
364,421,0,0,0,0,0,0,0,0,0,-1,1588,603,0,0
371,421,0,0,0,0,0,0,0,0,0,-1,1595,603,0,0
378,421,0,0,0,0,0,0,0,0,0,-1,1602,603,0,0
385,421,0,0,0,0,0,0,0,0,0,-1,1609,603,0,0
392,421,0,0,0,0,0,0,0,0,0,-1,1616,603,0,0
399,421,0,0,0,0,0,0,0,0,0,-1,1623,603,0,0
406,421,0,0,0,0,0,0,0,0,0,-1,1630,603,0,0
413,421,0,0,0,0,0,0,0,0,0,-1,1637,603,0,0
420,421,0,0,0,0,0,0,0,0,0,-1,1644,603,0,0
427,421,0,0,0,0,0,0,0,0,0,-1,1651,603,0,0
434,421,3.68176,-0.0327759,0,0,0,0,0,0,0,-1,1658,603,3.6818,0.0328037
441,421,8.06689,0.527832,0,0,0,0,0,0,0,-1,1665,603,8.06693,-0.527851
448,421,6.93921,0.802246,0,0,0,0,0,0,0,-1,1672,603,6.93923,-0.802251
455,421,7.29456,2.14825,0,0,0,0,0,0,0,-1,1679,603,7.29461,-2.14827
462,421,7.86902,3.53174,0,0,0,0,0,0,0,-1,1686,603,7.869,-3.53173
469,421,8.06604,2.81213,0,0,0,0,0,0,0,-1,1693,603,8.06606,-2.81212
476,421,8.26306,2.09253,0,0,0,0,0,0,0,-1,1700,603,8.26312,-2.09251
483,421,8.05322,0.798096,0,0,0,0,0,0,0,-1,1707,603,8.05323,-0.7981
490,421,7.51233,0.213074,0,0,0,0,0,0,0,-1,1714,603,7.51235,-0.213043
497,421,7.49634,-2.86688,0,0,0,0,0,0,0,-1,1721,603,7.4963,2.86688
504,421,6.90491,-2.18671,0,0,0,0,0,0,0,-1,1728,603,6.90491,2.18669
511,421,6.31348,-1.50653,0,0,0,0,0,0,0,-1,1735,603,6.31353,1.5065
518,421,6.27588,-2.49878,0,0,0,0,0,0,0,-1,1742,603,6.2759,2.4988
525,421,13.2369,-8.07806,0,0,0,0,0,0,0,-1,1749,603,13.237,8.07809
532,421,13.3553,-7.45276,0.00375656,0.00206024,0.00176768,0.00486902,0.000947775,0.561713,0.00298075,0.0398463,1756,603,13.3553,7.45278
539,421,13.4655,-7.00616,0.00291329,0.0014687,0.00125754,0.00364121,0.000740779,0.524718,0.00222209,0.0214888,1763,603,13.4655,7.00619
546,421,13.4462,-6.60876,0.00223509,0.00106453,0.000918545,0.00273897,0.000560645,0.501743,0.00167076,0.0132793,1770,603,13.4461,6.60876
553,421,13.4359,-6.18201,0.00159676,0.000619403,0.000608479,0.0018885,0.000327663,0.447079,0.00116524,0.0120444,1777,603,13.4359,6.182
560,421,13.4519,-5.75812,0.000912623,0.000325676,0.00034068,0.0010688,0.000169495,0.42985,0.000663296,0.014288,1784,603,13.4519,5.75812
567,421,13.4355,-5.36707,0.0002938,0.000178581,0.000177518,0.000422823,4.95581e-05,0.628497,0.000266901,0.0169484,1791,603,13.4355,5.36708
574,421,13.4031,-4.97693,-0.000239831,0.000132419,0.000106986,0.000160977,-0.000268388,1.30995,0.000250466,0.0189475,1798,603,13.4031,4.97694
581,421,13.403,-4.51752,-0.000741417,0.000196334,0.000111233,0.000209348,-0.000754431,1.45433,0.000585351,0.0165482,1805,603,13.403,4.51752
588,421,13.3699,-4.10522,-0.00122237,0.000432825,0.00019731,0.000456021,-0.00124557,1.45377,0.00101705,0.0118377,1812,603,13.3698,4.10522
595,421,13.386,-3.66931,-0.00158387,0.000922232,0.000480216,0.0010111,-0.00167274,1.38781,0.00156513,0.0153011,1819,603,13.3859,3.6693
602,421,13.3416,-3.28998,-0.00198339,0.00171436,0.000885774,0.00191559,-0.00218462,1.34741,0.00236896,0.0162144,1826,603,13.3415,3.28997
609,421,13.2579,-2.81537,-0.00204949,0.00262004,0.00153751,0.00308082,-0.00251027,1.27962,0.00323361,0.0332704,1833,603,13.2579,2.81536
616,421,13.4641,-2.25476,0,0,0,0,0,0,0,-1,1840,603,13.4641,2.25477
623,421,6.19885,0.376648,0,0,0,0,0,0,0,-1,1847,603,6.19881,-0.376624
630,421,6.54993,0.778748,0,0,0,0,0,0,0,-1,1854,603,6.54991,-0.778744
637,421,3.74512,1.65405,0,0,0,0,0,0,0,-1,1861,603,3.74517,-1.65407
644,421,3.58081,0.354675,0,0,0,0,0,0,0,-1,1868,603,3.58082,-0.354704
651,421,3.28687,3.66351,0,0,0,0,0,0,0,-1,1875,603,3.28688,-3.66353
658,421,0,0,0,0,0,0,0,0,0,-1,1882,603,0,0
665,421,0,0,0,0,0,0,0,0,0,-1,1889,603,0,0
672,421,0,0,0,0,0,0,0,0,0,-1,1896,603,0,0
679,421,0,0,0,0,0,0,0,0,0,-1,1903,603,0,0
686,421,0,0,0,0,0,0,0,0,0,-1,1910,603,0,0
693,421,0,0,0,0,0,0,0,0,0,-1,1917,603,0,0
700,421,0,0,0,0,0,0,0,0,0,-1,1924,603,0,0
707,421,0,0,0,0,0,0,0,0,0,-1,1931,603,0,0
714,421,0,0,0,0,0,0,0,0,0,-1,1938,603,0,0
721,421,0,0,0,0,0,0,0,0,0,-1,1945,603,0,0
728,421,0,0,0,0,0,0,0,0,0,-1,1952,603,0,0
735,421,0,0,0,0,0,0,0,0,0,-1,1959,603,0,0
742,421,0,0,0,0,0,0,0,0,0,-1,1966,603,0,0
749,421,0,0,0,0,0,0,0,0,0,-1,1973,603,0,0
756,421,0,0,0,0,0,0,0,0,0,-1,1980,603,0,0
763,421,0,0,0,0,0,0,0,0,0,-1,1987,603,0,0
770,421,0,0,0,0,0,0,0,0,0,-1,1994,603,0,0
777,421,0,0,0,0,0,0,0,0,0,-1,2001,603,0,0
784,421,0,0,0,0,0,0,0,0,0,-1,2008,603,0,0
791,421,0,0,0,0,0,0,0,0,0,-1,2015,603,0,0
798,421,0,0,0,0,0,0,0,0,0,-1,2022,603,0,0
805,421,0,0,0,0,0,0,0,0,0,-1,2029,603,0,0
812,421,0,0,0,0,0,0,0,0,0,-1,2036,603,0,0
-700,414,0,0,0,0,0,0,0,0,0,-1,524,610,0,0
-693,414,0,0,0,0,0,0,0,0,0,-1,531,610,0,0
-686,414,0,0,0,0,0,0,0,0,0,-1,538,610,0,0
-679,414,0,0,0,0,0,0,0,0,0,-1,545,610,0,0
-672,414,0,0,0,0,0,0,0,0,0,-1,552,610,0,0
-665,414,0,0,0,0,0,0,0,0,0,-1,559,610,0,0
-658,414,0,0,0,0,0,0,0,0,0,-1,566,610,0,0
-651,414,0,0,0,0,0,0,0,0,0,-1,573,610,0,0
-644,414,0,0,0,0,0,0,0,0,0,-1,580,610,0,0
-637,414,0,0,0,0,0,0,0,0,0,-1,587,610,0,0
-630,414,0,0,0,0,0,0,0,0,0,-1,594,610,0,0
-623,414,0,0,0,0,0,0,0,0,0,-1,601,610,0,0
-616,414,0,0,0,0,0,0,0,0,0,-1,608,610,0,0
-609,414,0,0,0,0,0,0,0,0,0,-1,615,610,0,0
-602,414,0,0,0,0,0,0,0,0,0,-1,622,610,0,0
-595,414,0,0,0,0,0,0,0,0,0,-1,629,610,0,0
-588,414,0,0,0,0,0,0,0,0,0,-1,636,610,0,0
-581,414,0,0,0,0,0,0,0,0,0,-1,643,610,0,0
-574,414,0,0,0,0,0,0,0,0,0,-1,650,610,0,0
-567,414,0,0,0,0,0,0,0,0,0,-1,657,610,0,0
-560,414,0,0,0,0,0,0,0,0,0,-1,664,610,0,0
-553,414,0,0,0,0,0,0,0,0,0,-1,671,610,0,0
-546,414,0,0,0,0,0,0,0,0,0,-1,678,610,0,0
-539,414,-7.50146,5.65619,0,0,0,0,0,0,0,-1,685,610,-7.50149,-5.65617
-532,414,-8.15204,4.01605,0,0,0,0,0,0,0,-1,692,610,-8.15206,-4.01606
-525,414,-3.47137,-3.27924,0,0,0,0,0,0,0,-1,699,610,-3.47136,3.27922
-518,414,-3.41998,-4.42413,0,0,0,0,0,0,0,-1,706,610,-3.42001,4.4241
-511,414,-3.92542,-4.97021,0,0,0,0,0,0,0,-1,713,610,-3.92542,4.97023
-504,414,-1.62408,-3.64496,0,0,0,0,0,0,0,-1,720,610,-1.62406,3.64499
-497,414,-6.00269,-3.92932,0,0,0,0,0,0,0,-1,727,610,-6.00269,3.92933
-490,414,-5.92828,-3.89386,0,0,0,0,0,0,0,-1,734,610,-5.92829,3.89388
-483,414,-5.86206,-4.58838,-0.000516727,0.00328479,-0.00275948,0.0047348,-0.00196673,-1.08699,0.00397763,0.0283487,741,610,-5.86206,4.58841
-476,414,-5.93427,-5.06061,-0.000199975,0.00313963,-0.00270932,0.00465238,-0.00171273,-1.06156,0.00380329,0.0179526,748,610,-5.93429,5.0606
-469,414,-5.97192,-5.43396,0.000100809,0.00289906,-0.00255458,0.00441257,-0.0014127,-1.03593,0.00350873,0.013504,755,610,-5.97194,5.43394
-462,414,-5.93628,-5.85248,0.000391049,0.00255198,-0.00229398,0.00400721,-0.00106418,-1.00549,0.00308794,0.0213596,762,610,-5.9363,5.85249
-455,414,-5.92859,-6.2821,0.000590652,0.002191,-0.00200893,0.00355325,-0.000771597,-0.974922,0.00266355,0.0223086,769,610,-5.92858,6.28208
-448,414,-5.94202,-6.66675,0.000700063,0.00170986,-0.00157093,0.00285503,-0.000445109,-0.940885,0.00206776,0.0223576,776,610,-5.94201,6.66677
-441,414,-5.94275,-7.07153,0.000659037,0.00116651,-0.00106394,0.00200655,-0.000181003,-0.902456,0.00140193,0.0158529,783,610,-5.94276,7.07156
-434,414,-5.97955,-7.47369,0.000557684,0.000586286,-0.000504436,0.00107662,6.73464e-05,-0.79957,0.000696387,0.00945146,790,610,-5.97953,7.47369
-427,414,-5.98633,-7.86249,0.000351986,-0.000106752,0.000124325,0.000383514,-0.000138279,0.248352,0.000312151,0.0106497,797,610,-5.9863,7.86249
-420,414,-5.97681,-8.23914,-0.000132698,-0.00109204,0.00094763,0.000449745,-0.00167448,0.551108,0.00129259,0.0101901,804,610,-5.97678,8.23912
-413,414,-5.99164,-8.62469,-0.000663254,-0.00195391,0.00178446,0.00058898,-0.00320614,0.611896,0.0023584,0.0109798,811,610,-5.99162,8.62468
-406,414,-5.97607,-9.09351,-0.00140644,-0.00313825,0.0027559,0.000616391,-0.00516107,0.633182,0.0036635,0.0211583,818,610,-5.97607,9.0935
-399,414,-6.01758,-9.34802,-0.00241698,-0.00464093,0.00394963,0.000574221,-0.00763213,0.64818,0.00528989,0.0378919,825,610,-6.01758,9.34804
-392,414,-6.07806,-9.50037,-0.00387132,-0.00619895,0.00544618,0.000534009,-0.0106043,0.680134,0.00725408,0.0409406,832,610,-6.07809,9.50037
-385,414,-6.12592,-10.0185,0,0,0,0,0,0,0,-1,839,610,-6.12591,10.0185
-378,414,-6.68689,-9.74677,0,0,0,0,0,0,0,-1,846,610,-6.68688,9.74677
-371,414,-5.20886,-8.05151,0,0,0,0,0,0,0,-1,853,610,-5.20887,8.05153
-364,414,-6.76282,-6.58759,0,0,0,0,0,0,0,-1,860,610,-6.7628,6.58756
-357,414,-9.08685,-8.86188,0,0,0,0,0,0,0,-1,867,610,-9.08688,8.86187
-350,414,-6.4502,-2.41821,0,0,0,0,0,0,0,-1,874,610,-6.45021,2.41822
-343,414,-6.80249,-2.32117,0,0,0,0,0,0,0,-1,881,610,-6.80252,2.32116
-336,414,-7.11017,-2.52026,0,0,0,0,0,0,0,-1,888,610,-7.11016,2.52026
-329,414,-7.59747,-2.70313,0,0,0,0,0,0,0,-1,895,610,-7.59747,2.70315
-322,414,-4.42236,-1.29163,0,0,0,0,0,0,0,-1,902,610,-4.42238,1.2916
-315,414,0,0,0,0,0,0,0,0,0,-1,909,610,0,0
-308,414,0,0,0,0,0,0,0,0,0,-1,916,610,0,0
-301,414,0,0,0,0,0,0,0,0,0,-1,923,610,0,0
-294,414,0,0,0,0,0,0,0,0,0,-1,930,610,0,0
-287,414,0,0,0,0,0,0,0,0,0,-1,937,610,0,0
-280,414,0,0,0,0,0,0,0,0,0,-1,944,610,0,0
-273,414,0,0,0,0,0,0,0,0,0,-1,951,610,0,0
-266,414,0,0,0,0,0,0,0,0,0,-1,958,610,0,0
-259,414,0,0,0,0,0,0,0,0,0,-1,965,610,0,0
-252,414,0,0,0,0,0,0,0,0,0,-1,972,610,0,0
-245,414,0,0,0,0,0,0,0,0,0,-1,979,610,0,0
-238,414,0,0,0,0,0,0,0,0,0,-1,986,610,0,0
-231,414,0,0,0,0,0,0,0,0,0,-1,993,610,0,0
-224,414,0,0,0,0,0,0,0,0,0,-1,1000,610,0,0
-217,414,0,0,0,0,0,0,0,0,0,-1,1007,610,0,0
-210,414,0,0,0,0,0,0,0,0,0,-1,1014,610,0,0
-203,414,0,0,0,0,0,0,0,0,0,-1,1021,610,0,0
-196,414,0,0,0,0,0,0,0,0,0,-1,1028,610,0,0
-189,414,0,0,0,0,0,0,0,0,0,-1,1035,610,0,0
-182,414,0,0,0,0,0,0,0,0,0,-1,1042,610,0,0
-175,414,0,0,0,0,0,0,0,0,0,-1,1049,610,0,0
-168,414,0,0,0,0,0,0,0,0,0,-1,1056,610,0,0
-161,414,0,0,0,0,0,0,0,0,0,-1,1063,610,0,0
-154,414,0,0,0,0,0,0,0,0,0,-1,1070,610,0,0
-147,414,0,0,0,0,0,0,0,0,0,-1,1077,610,0,0
-140,414,0,0,0,0,0,0,0,0,0,-1,1084,610,0,0
-133,414,0,0,0,0,0,0,0,0,0,-1,1091,610,0,0
-126,414,0,0,0,0,0,0,0,0,0,-1,1098,610,0,0
-119,414,0,0,0,0,0,0,0,0,0,-1,1105,610,0,0
-112,414,0,0,0,0,0,0,0,0,0,-1,1112,610,0,0
-105,414,0,0,0,0,0,0,0,0,0,-1,1119,610,0,0
-98,414,0,0,0,0,0,0,0,0,0,-1,1126,610,0,0
-91,414,0,0,0,0,0,0,0,0,0,-1,1133,610,0,0
-84,414,0,0,0,0,0,0,0,0,0,-1,1140,610,0,0
-77,414,0,0,0,0,0,0,0,0,0,-1,1147,610,0,0
-70,414,0,0,0,0,0,0,0,0,0,-1,1154,610,0,0
-63,414,0,0,0,0,0,0,0,0,0,-1,1161,610,0,0
-56,414,0,0,0,0,0,0,0,0,0,-1,1168,610,0,0
-49,414,0,0,0,0,0,0,0,0,0,-1,1175,610,0,0
-42,414,0,0,0,0,0,0,0,0,0,-1,1182,610,0,0
-35,414,0,0,0,0,0,0,0,0,0,-1,1189,610,0,0
-28,414,0,0,0,0,0,0,0,0,0,-1,1196,610,0,0
-21,414,0,0,0,0,0,0,0,0,0,-1,1203,610,0,0
-14,414,0,0,0,0,0,0,0,0,0,-1,1210,610,0,0
-7,414,0,0,0,0,0,0,0,0,0,-1,1217,610,0,0
0,414,0,0,0,0,0,0,0,0,0,-1,1224,610,0,0
7,414,0,0,0,0,0,0,0,0,0,-1,1231,610,0,0
14,414,0,0,0,0,0,0,0,0,0,-1,1238,610,0,0
21,414,0,0,0,0,0,0,0,0,0,-1,1245,610,0,0
28,414,0,0,0,0,0,0,0,0,0,-1,1252,610,0,0
35,414,0,0,0,0,0,0,0,0,0,-1,1259,610,0,0
42,414,0,0,0,0,0,0,0,0,0,-1,1266,610,0,0
49,414,0,0,0,0,0,0,0,0,0,-1,1273,610,0,0
56,414,0,0,0,0,0,0,0,0,0,-1,1280,610,0,0
63,414,0,0,0,0,0,0,0,0,0,-1,1287,610,0,0
70,414,0,0,0,0,0,0,0,0,0,-1,1294,610,0,0
77,414,0,0,0,0,0,0,0,0,0,-1,1301,610,0,0
84,414,0,0,0,0,0,0,0,0,0,-1,1308,610,0,0
91,414,0,0,0,0,0,0,0,0,0,-1,1315,610,0,0
98,414,0,0,0,0,0,0,0,0,0,-1,1322,610,0,0
105,414,0,0,0,0,0,0,0,0,0,-1,1329,610,0,0
112,414,0,0,0,0,0,0,0,0,0,-1,1336,610,0,0
119,414,0,0,0,0,0,0,0,0,0,-1,1343,610,0,0
126,414,0,0,0,0,0,0,0,0,0,-1,1350,610,0,0
133,414,0,0,0,0,0,0,0,0,0,-1,1357,610,0,0
140,414,0,0,0,0,0,0,0,0,0,-1,1364,610,0,0
147,414,0,0,0,0,0,0,0,0,0,-1,1371,610,0,0
154,414,0,0,0,0,0,0,0,0,0,-1,1378,610,0,0
161,414,0,0,0,0,0,0,0,0,0,-1,1385,610,0,0
168,414,0,0,0,0,0,0,0,0,0,-1,1392,610,0,0
175,414,0,0,0,0,0,0,0,0,0,-1,1399,610,0,0
182,414,0,0,0,0,0,0,0,0,0,-1,1406,610,0,0
189,414,0,0,0,0,0,0,0,0,0,-1,1413,610,0,0
196,414,0,0,0,0,0,0,0,0,0,-1,1420,610,0,0
203,414,0,0,0,0,0,0,0,0,0,-1,1427,610,0,0
210,414,0,0,0,0,0,0,0,0,0,-1,1434,610,0,0
217,414,0,0,0,0,0,0,0,0,0,-1,1441,610,0,0
224,414,0,0,0,0,0,0,0,0,0,-1,1448,610,0,0
231,414,0,0,0,0,0,0,0,0,0,-1,1455,610,0,0
238,414,0,0,0,0,0,0,0,0,0,-1,1462,610,0,0
245,414,0,0,0,0,0,0,0,0,0,-1,1469,610,0,0
252,414,0,0,0,0,0,0,0,0,0,-1,1476,610,0,0
259,414,0,0,0,0,0,0,0,0,0,-1,1483,610,0,0
266,414,0,0,0,0,0,0,0,0,0,-1,1490,610,0,0
273,414,0,0,0,0,0,0,0,0,0,-1,1497,610,0,0
280,414,0,0,0,0,0,0,0,0,0,-1,1504,610,0,0
287,414,0,0,0,0,0,0,0,0,0,-1,1511,610,0,0
294,414,0,0,0,0,0,0,0,0,0,-1,1518,610,0,0
301,414,0,0,0,0,0,0,0,0,0,-1,1525,610,0,0
308,414,0,0,0,0,0,0,0,0,0,-1,1532,610,0,0
315,414,0,0,0,0,0,0,0,0,0,-1,1539,610,0,0
322,414,0,0,0,0,0,0,0,0,0,-1,1546,610,0,0
329,414,0,0,0,0,0,0,0,0,0,-1,1553,610,0,0
336,414,0,0,0,0,0,0,0,0,0,-1,1560,610,0,0
343,414,0,0,0,0,0,0,0,0,0,-1,1567,610,0,0
350,414,0,0,0,0,0,0,0,0,0,-1,1574,610,0,0
357,414,0,0,0,0,0,0,0,0,0,-1,1581,610,0,0
364,414,0,0,0,0,0,0,0,0,0,-1,1588,610,0,0
371,414,0,0,0,0,0,0,0,0,0,-1,1595,610,0,0
378,414,0,0,0,0,0,0,0,0,0,-1,1602,610,0,0
385,414,0,0,0,0,0,0,0,0,0,-1,1609,610,0,0
392,414,0,0,0,0,0,0,0,0,0,-1,1616,610,0,0
399,414,0,0,0,0,0,0,0,0,0,-1,1623,610,0,0
406,414,0,0,0,0,0,0,0,0,0,-1,1630,610,0,0
413,414,0,0,0,0,0,0,0,0,0,-1,1637,610,0,0
420,414,0,0,0,0,0,0,0,0,0,-1,1644,610,0,0
427,414,0,0,0,0,0,0,0,0,0,-1,1651,610,0,0
434,414,0,0,0,0,0,0,0,0,0,-1,1658,610,0,0
441,414,7.84375,0.584412,0,0,0,0,0,0,0,-1,1665,610,7.84379,-0.584394
448,414,7.40808,1.25446,0,0,0,0,0,0,0,-1,1672,610,7.40807,-1.25446
455,414,6.3512,1.73846,0,0,0,0,0,0,0,-1,1679,610,6.3512,-1.73847
462,414,8.18103,3.22113,0,0,0,0,0,0,0,-1,1686,610,8.18108,-3.22112
469,414,8.38513,2.49579,0,0,0,0,0,0,0,-1,1693,610,8.38516,-2.49576
476,414,8.64099,1.71161,0,0,0,0,0,0,0,-1,1700,610,8.64097,-1.71164
483,414,8.62744,0.687622,0,0,0,0,0,0,0,-1,1707,610,8.62749,-0.687615
490,414,8.38831,-0.0302734,0,0,0,0,0,0,0,-1,1714,610,8.38835,0.0302913
497,414,4.71094,-0.110046,0,0,0,0,0,0,0,-1,1721,610,4.71089,0.110024
504,414,7.19568,-1.43835,0,0,0,0,0,0,0,-1,1728,610,7.19563,1.43836
511,414,5.94153,-1.28772,0,0,0,0,0,0,0,-1,1735,610,5.94151,1.28769
518,414,4.53381,-0.0996704,0,0,0,0,0,0,0,-1,1742,610,4.53378,0.0996819
525,414,6.18811,-1.64056,0,0,0,0,0,0,0,-1,1749,610,6.18814,1.64055
532,414,13.6552,-7.69476,0,0,0,0,0,0,0,-1,1756,610,13.6551,7.69478
539,414,13.7949,-7.10077,0.00315739,0.00170157,0.0013264,0.00394249,0.000916471,0.534444,0.00238234,0.0482491,1763,610,13.7949,7.10075
546,414,13.8429,-6.58099,0.00249088,0.00125402,0.000971823,0.00302436,0.00072054,0.502034,0.00182413,0.0137743,1770,610,13.8429,6.581
553,414,13.8547,-6.18024,0.00189065,0.000745159,0.00065198,0.00218573,0.000450083,0.425002,0.0013327,0.0119198,1777,610,13.8547,6.18024
560,414,13.8574,-5.74597,0.00125665,0.000432032,0.000381786,0.00140627,0.000282417,0.373489,0.000858991,0.0142947,1784,610,13.8574,5.74595
567,414,13.8309,-5.32001,0.000675337,0.0002667,0.000223205,0.000773618,0.000168419,0.414773,0.000469779,0.0237781,1791,610,13.8309,5.31999
574,414,13.8232,-4.90497,0.000204762,0.000231727,0.00017974,0.000398489,3.79998e-05,0.822835,0.000253943,0.0221467,1798,610,13.8233,4.90497
581,414,13.8187,-4.50159,-0.000209884,0.000318477,0.000218,0.000396809,-0.000288216,1.22584,0.000397153,0.0172818,1805,610,13.8187,4.50161
588,414,13.8049,-4.09613,-0.000592989,0.000570178,0.000327793,0.000656193,-0.000679004,1.31418,0.000770914,0.0166854,1812,610,13.805,4.09612
595,414,13.8094,-3.65387,-0.000798452,0.00105262,0.000635154,0.0012496,-0.00099543,1.27008,0.00129893,0.0216432,1819,610,13.8094,3.6539
602,414,13.7943,-3.23523,-0.000890007,0.00181084,0.00110822,0.00220736,-0.00128652,1.22719,0.00204041,0.0251129,1826,610,13.7943,3.23525
609,414,13.6957,-2.82904,-0.000674264,0.00270674,0.00179452,0.00348161,-0.00144914,1.16318,0.00292628,0.0243533,1833,610,13.6957,2.82907
616,414,14.0925,-2.21729,0,0,0,0,0,0,0,-1,1840,610,14.0926,2.21729
623,414,9.6969,0.0378418,0,0,0,0,0,0,0,-1,1847,610,9.69685,-0.0378644
630,414,5.47144,0.499329,0,0,0,0,0,0,0,-1,1854,610,5.47142,-0.499303
637,414,8.36707,4.16278,0,0,0,0,0,0,0,-1,1861,610,8.36709,-4.16278
644,414,5.87073,1.51422,0,0,0,0,0,0,0,-1,1868,610,5.87076,-1.51424
651,414,3.6377,0.820557,0,0,0,0,0,0,0,-1,1875,610,3.6377,-0.820543
658,414,2.29761,3.87323,0,0,0,0,0,0,0,-1,1882,610,2.29758,-3.87325
665,414,0,0,0,0,0,0,0,0,0,-1,1889,610,0,0
672,414,0,0,0,0,0,0,0,0,0,-1,1896,610,0,0
679,414,0,0,0,0,0,0,0,0,0,-1,1903,610,0,0
686,414,0,0,0,0,0,0,0,0,0,-1,1910,610,0,0
693,414,0,0,0,0,0,0,0,0,0,-1,1917,610,0,0
700,414,0,0,0,0,0,0,0,0,0,-1,1924,610,0,0
707,414,0,0,0,0,0,0,0,0,0,-1,1931,610,0,0
714,414,0,0,0,0,0,0,0,0,0,-1,1938,610,0,0
721,414,0,0,0,0,0,0,0,0,0,-1,1945,610,0,0
728,414,0,0,0,0,0,0,0,0,0,-1,1952,610,0,0
735,414,0,0,0,0,0,0,0,0,0,-1,1959,610,0,0
742,414,0,0,0,0,0,0,0,0,0,-1,1966,610,0,0
749,414,0,0,0,0,0,0,0,0,0,-1,1973,610,0,0
756,414,0,0,0,0,0,0,0,0,0,-1,1980,610,0,0
763,414,0,0,0,0,0,0,0,0,0,-1,1987,610,0,0
770,414,0,0,0,0,0,0,0,0,0,-1,1994,610,0,0
777,414,0,0,0,0,0,0,0,0,0,-1,2001,610,0,0
784,414,0,0,0,0,0,0,0,0,0,-1,2008,610,0,0
791,414,0,0,0,0,0,0,0,0,0,-1,2015,610,0,0
798,414,0,0,0,0,0,0,0,0,0,-1,2022,610,0,0
805,414,0,0,0,0,0,0,0,0,0,-1,2029,610,0,0
812,414,0,0,0,0,0,0,0,0,0,-1,2036,610,0,0
-700,407,0,0,0,0,0,0,0,0,0,-1,524,617,0,0
-693,407,0,0,0,0,0,0,0,0,0,-1,531,617,0,0
-686,407,0,0,0,0,0,0,0,0,0,-1,538,617,0,0
-679,407,0,0,0,0,0,0,0,0,0,-1,545,617,0,0
-672,407,0,0,0,0,0,0,0,0,0,-1,552,617,0,0
-665,407,0,0,0,0,0,0,0,0,0,-1,559,617,0,0
-658,407,0,0,0,0,0,0,0,0,0,-1,566,617,0,0
-651,407,0,0,0,0,0,0,0,0,0,-1,573,617,0,0
-644,407,0,0,0,0,0,0,0,0,0,-1,580,617,0,0
-637,407,0,0,0,0,0,0,0,0,0,-1,587,617,0,0
-630,407,0,0,0,0,0,0,0,0,0,-1,594,617,0,0
-623,407,0,0,0,0,0,0,0,0,0,-1,601,617,0,0
-616,407,0,0,0,0,0,0,0,0,0,-1,608,617,0,0
-609,407,0,0,0,0,0,0,0,0,0,-1,615,617,0,0
-602,407,0,0,0,0,0,0,0,0,0,-1,622,617,0,0
-595,407,0,0,0,0,0,0,0,0,0,-1,629,617,0,0
-588,407,0,0,0,0,0,0,0,0,0,-1,636,617,0,0
-581,407,0,0,0,0,0,0,0,0,0,-1,643,617,0,0
-574,407,0,0,0,0,0,0,0,0,0,-1,650,617,0,0
-567,407,0,0,0,0,0,0,0,0,0,-1,657,617,0,0
-560,407,0,0,0,0,0,0,0,0,0,-1,664,617,0,0
-553,407,0,0,0,0,0,0,0,0,0,-1,671,617,0,0
-546,407,-8.54517,-0.658142,0,0,0,0,0,0,0,-1,678,617,-8.54515,0.658112
-539,407,-6.09442,-1.01154,0,0,0,0,0,0,0,-1,685,617,-6.09441,1.01155
-532,407,-7.75665,1.62152,0,0,0,0,0,0,0,-1,692,617,-7.75667,-1.62154
-525,407,-3.78247,-2.67639,0,0,0,0,0,0,0,-1,699,617,-3.78246,2.67638
-518,407,-5.013,-5.87323,0,0,0,0,0,0,0,-1,706,617,-5.013,5.87324
-511,407,-4.26392,-4.37659,0,0,0,0,0,0,0,-1,713,617,-4.26393,4.37658
-504,407,-6.27057,-3.50836,0,0,0,0,0,0,0,-1,720,617,-6.27055,3.50837
-497,407,-6.25055,-3.90509,-0.000828681,0.00163802,-0.00209362,0.00283456,-0.00202523,-1.05158,0.00281874,0.0432669,727,617,-6.25057,3.90508
-490,407,-6.27942,-4.24896,-0.00110797,0.0020238,-0.00153405,0.00265002,-0.00173418,-1.18323,0.00254956,0.031751,734,617,-6.27944,4.24897
-483,407,-6.25787,-4.6142,-0.000613233,0.00198211,-0.0017177,0.00283721,-0.00146834,-1.10889,0.00252734,0.0205094,741,617,-6.25789,4.61417
-476,407,-6.31165,-5.00647,-0.0001951,0.00191724,-0.00179218,0.00294131,-0.00121917,-1.05166,0.0024697,0.0132448,748,617,-6.31164,5.00646
-469,407,-6.34985,-5.41101,0.000200103,0.00179263,-0.00177912,0.00294555,-0.000952815,-0.99581,0.00234669,0.0127837,755,617,-6.34983,5.41099
-462,407,-6.36768,-5.82153,0.000527264,0.00159293,-0.00167291,0.00281581,-0.000695614,-0.939573,0.00214698,0.019126,762,617,-6.3677,5.82152
-455,407,-6.36157,-6.26129,0.000804077,0.00142382,-0.00155893,0.00270338,-0.000475482,-0.883506,0.00197987,0.0204719,769,617,-6.36157,6.26132
-448,407,-6.32867,-6.66376,0.000966874,0.00111119,-0.00126555,0.00230664,-0.000228574,-0.813875,0.00161934,0.0183518,776,617,-6.32867,6.66374
-441,407,-6.35797,-7.02179,0.000946712,0.000677564,-0.000859102,0.00168172,-5.74407e-05,-0.707707,0.00114077,0.0140953,783,617,-6.35798,7.02177
-434,407,-6.38635,-7.42029,0.00085626,0.000232736,-0.000405537,0.00105602,3.29751e-05,-0.457697,0.000693284,0.0103649,790,617,-6.38633,7.42026
-427,407,-6.39685,-7.83569,0.000608776,-0.000341511,0.000150864,0.000632151,-0.000364887,0.153722,0.000582493,0.0109608,797,617,-6.39685,7.83567
-420,407,-6.36768,-8.22192,3.13551e-05,-0.0012883,0.000948516,0.000526974,-0.00178392,0.481501,0.00139843,0.010969,804,617,-6.36767,8.22193
-413,407,-6.35327,-8.59949,-0.000599137,-0.00207997,0.00178154,0.000589727,-0.00326883,0.588456,0.00240007,0.0134066,811,617,-6.3533,8.5995
-406,407,-6.38892,-8.62573,0,0,0,0,0,0,0,-1,818,617,-6.38894,8.62576
-399,407,-6.54626,-9.31219,0,0,0,0,0,0,0,-1,825,617,-6.54627,9.31222
-392,407,-6.34534,-9.48755,0,0,0,0,0,0,0,-1,832,617,-6.34535,9.48754
-385,407,-6.54492,-9.28583,0,0,0,0,0,0,0,-1,839,617,-6.54491,9.28586
-378,407,-6.08655,-7.42291,0,0,0,0,0,0,0,-1,846,617,-6.08652,7.42292
-371,407,-7.4007,-5.79449,0,0,0,0,0,0,0,-1,853,617,-7.40072,5.79447
-364,407,-10.0638,-6.6228,0,0,0,0,0,0,0,-1,860,617,-10.0639,6.62279
-357,407,-6.64447,-1.83337,0,0,0,0,0,0,0,-1,867,617,-6.64446,1.8334
-350,407,-7.03351,-1.77551,0,0,0,0,0,0,0,-1,874,617,-7.03349,1.77551
-343,407,-7.40967,-1.95026,0,0,0,0,0,0,0,-1,881,617,-7.40969,1.95026
-336,407,-8.10229,-2.40662,0,0,0,0,0,0,0,-1,888,617,-8.10229,2.40664
-329,407,-8.81232,-2.76331,0,0,0,0,0,0,0,-1,895,617,-8.81235,2.76331
-322,407,0,0,0,0,0,0,0,0,0,-1,902,617,0,0
-315,407,0,0,0,0,0,0,0,0,0,-1,909,617,0,0
-308,407,0,0,0,0,0,0,0,0,0,-1,916,617,0,0
-301,407,0,0,0,0,0,0,0,0,0,-1,923,617,0,0
-294,407,0,0,0,0,0,0,0,0,0,-1,930,617,0,0
-287,407,0,0,0,0,0,0,0,0,0,-1,937,617,0,0
-280,407,0,0,0,0,0,0,0,0,0,-1,944,617,0,0
-273,407,0,0,0,0,0,0,0,0,0,-1,951,617,0,0
-266,407,0,0,0,0,0,0,0,0,0,-1,958,617,0,0
-259,407,0,0,0,0,0,0,0,0,0,-1,965,617,0,0
-252,407,0,0,0,0,0,0,0,0,0,-1,972,617,0,0
-245,407,0,0,0,0,0,0,0,0,0,-1,979,617,0,0
-238,407,0,0,0,0,0,0,0,0,0,-1,986,617,0,0
-231,407,0,0,0,0,0,0,0,0,0,-1,993,617,0,0
-224,407,0,0,0,0,0,0,0,0,0,-1,1000,617,0,0
-217,407,0,0,0,0,0,0,0,0,0,-1,1007,617,0,0
-210,407,0,0,0,0,0,0,0,0,0,-1,1014,617,0,0
-203,407,0,0,0,0,0,0,0,0,0,-1,1021,617,0,0
-196,407,0,0,0,0,0,0,0,0,0,-1,1028,617,0,0
-189,407,0,0,0,0,0,0,0,0,0,-1,1035,617,0,0
-182,407,0,0,0,0,0,0,0,0,0,-1,1042,617,0,0
-175,407,0,0,0,0,0,0,0,0,0,-1,1049,617,0,0
-168,407,0,0,0,0,0,0,0,0,0,-1,1056,617,0,0
-161,407,0,0,0,0,0,0,0,0,0,-1,1063,617,0,0
-154,407,0,0,0,0,0,0,0,0,0,-1,1070,617,0,0
-147,407,0,0,0,0,0,0,0,0,0,-1,1077,617,0,0
-140,407,0,0,0,0,0,0,0,0,0,-1,1084,617,0,0
-133,407,0,0,0,0,0,0,0,0,0,-1,1091,617,0,0
-126,407,0,0,0,0,0,0,0,0,0,-1,1098,617,0,0
-119,407,0,0,0,0,0,0,0,0,0,-1,1105,617,0,0
-112,407,0,0,0,0,0,0,0,0,0,-1,1112,617,0,0
-105,407,0,0,0,0,0,0,0,0,0,-1,1119,617,0,0
-98,407,0,0,0,0,0,0,0,0,0,-1,1126,617,0,0
-91,407,0,0,0,0,0,0,0,0,0,-1,1133,617,0,0
-84,407,0,0,0,0,0,0,0,0,0,-1,1140,617,0,0
-77,407,0,0,0,0,0,0,0,0,0,-1,1147,617,0,0
-70,407,0,0,0,0,0,0,0,0,0,-1,1154,617,0,0
-63,407,0,0,0,0,0,0,0,0,0,-1,1161,617,0,0
-56,407,0,0,0,0,0,0,0,0,0,-1,1168,617,0,0
-49,407,0,0,0,0,0,0,0,0,0,-1,1175,617,0,0
-42,407,0,0,0,0,0,0,0,0,0,-1,1182,617,0,0
-35,407,0,0,0,0,0,0,0,0,0,-1,1189,617,0,0
-28,407,0,0,0,0,0,0,0,0,0,-1,1196,617,0,0
-21,407,0,0,0,0,0,0,0,0,0,-1,1203,617,0,0
-14,407,0,0,0,0,0,0,0,0,0,-1,1210,617,0,0
-7,407,0,0,0,0,0,0,0,0,0,-1,1217,617,0,0
0,407,0,0,0,0,0,0,0,0,0,-1,1224,617,0,0
7,407,0,0,0,0,0,0,0,0,0,-1,1231,617,0,0
14,407,0,0,0,0,0,0,0,0,0,-1,1238,617,0,0
21,407,0,0,0,0,0,0,0,0,0,-1,1245,617,0,0
28,407,0,0,0,0,0,0,0,0,0,-1,1252,617,0,0
35,407,0,0,0,0,0,0,0,0,0,-1,1259,617,0,0
42,407,0,0,0,0,0,0,0,0,0,-1,1266,617,0,0
49,407,0,0,0,0,0,0,0,0,0,-1,1273,617,0,0
56,407,0,0,0,0,0,0,0,0,0,-1,1280,617,0,0
63,407,0,0,0,0,0,0,0,0,0,-1,1287,617,0,0
70,407,0,0,0,0,0,0,0,0,0,-1,1294,617,0,0
77,407,0,0,0,0,0,0,0,0,0,-1,1301,617,0,0
84,407,0,0,0,0,0,0,0,0,0,-1,1308,617,0,0
91,407,0,0,0,0,0,0,0,0,0,-1,1315,617,0,0
98,407,0,0,0,0,0,0,0,0,0,-1,1322,617,0,0
105,407,0,0,0,0,0,0,0,0,0,-1,1329,617,0,0
112,407,0,0,0,0,0,0,0,0,0,-1,1336,617,0,0
119,407,0,0,0,0,0,0,0,0,0,-1,1343,617,0,0
126,407,0,0,0,0,0,0,0,0,0,-1,1350,617,0,0
133,407,0,0,0,0,0,0,0,0,0,-1,1357,617,0,0
140,407,0,0,0,0,0,0,0,0,0,-1,1364,617,0,0
147,407,0,0,0,0,0,0,0,0,0,-1,1371,617,0,0
154,407,0,0,0,0,0,0,0,0,0,-1,1378,617,0,0
161,407,0,0,0,0,0,0,0,0,0,-1,1385,617,0,0
168,407,0,0,0,0,0,0,0,0,0,-1,1392,617,0,0
175,407,0,0,0,0,0,0,0,0,0,-1,1399,617,0,0
182,407,0,0,0,0,0,0,0,0,0,-1,1406,617,0,0
189,407,0,0,0,0,0,0,0,0,0,-1,1413,617,0,0
196,407,0,0,0,0,0,0,0,0,0,-1,1420,617,0,0
203,407,0,0,0,0,0,0,0,0,0,-1,1427,617,0,0
210,407,0,0,0,0,0,0,0,0,0,-1,1434,617,0,0
217,407,0,0,0,0,0,0,0,0,0,-1,1441,617,0,0
224,407,0,0,0,0,0,0,0,0,0,-1,1448,617,0,0
231,407,0,0,0,0,0,0,0,0,0,-1,1455,617,0,0
238,407,0,0,0,0,0,0,0,0,0,-1,1462,617,0,0
245,407,0,0,0,0,0,0,0,0,0,-1,1469,617,0,0
252,407,0,0,0,0,0,0,0,0,0,-1,1476,617,0,0
259,407,0,0,0,0,0,0,0,0,0,-1,1483,617,0,0
266,407,0,0,0,0,0,0,0,0,0,-1,1490,617,0,0
273,407,0,0,0,0,0,0,0,0,0,-1,1497,617,0,0
280,407,0,0,0,0,0,0,0,0,0,-1,1504,617,0,0
287,407,0,0,0,0,0,0,0,0,0,-1,1511,617,0,0
294,407,0,0,0,0,0,0,0,0,0,-1,1518,617,0,0
301,407,0,0,0,0,0,0,0,0,0,-1,1525,617,0,0
308,407,0,0,0,0,0,0,0,0,0,-1,1532,617,0,0
315,407,0,0,0,0,0,0,0,0,0,-1,1539,617,0,0
322,407,0,0,0,0,0,0,0,0,0,-1,1546,617,0,0
329,407,0,0,0,0,0,0,0,0,0,-1,1553,617,0,0
336,407,0,0,0,0,0,0,0,0,0,-1,1560,617,0,0
343,407,0,0,0,0,0,0,0,0,0,-1,1567,617,0,0
350,407,0,0,0,0,0,0,0,0,0,-1,1574,617,0,0
357,407,0,0,0,0,0,0,0,0,0,-1,1581,617,0,0
364,407,0,0,0,0,0,0,0,0,0,-1,1588,617,0,0
371,407,0,0,0,0,0,0,0,0,0,-1,1595,617,0,0
378,407,0,0,0,0,0,0,0,0,0,-1,1602,617,0,0
385,407,0,0,0,0,0,0,0,0,0,-1,1609,617,0,0
392,407,0,0,0,0,0,0,0,0,0,-1,1616,617,0,0
399,407,0,0,0,0,0,0,0,0,0,-1,1623,617,0,0
406,407,0,0,0,0,0,0,0,0,0,-1,1630,617,0,0
413,407,0,0,0,0,0,0,0,0,0,-1,1637,617,0,0
420,407,0,0,0,0,0,0,0,0,0,-1,1644,617,0,0
427,407,0,0,0,0,0,0,0,0,0,-1,1651,617,0,0
434,407,0,0,0,0,0,0,0,0,0,-1,1658,617,0,0
441,407,0,0,0,0,0,0,0,0,0,-1,1665,617,0,0
448,407,7.02893,2.13843,0,0,0,0,0,0,0,-1,1672,617,7.02899,-2.13844
455,407,7.55237,2.29242,0,0,0,0,0,0,0,-1,1679,617,7.55236,-2.29244
462,407,8.2926,2.46173,0,0,0,0,0,0,0,-1,1686,617,8.29261,-2.46174
469,407,8.71509,2.22681,0,0,0,0,0,0,0,-1,1693,617,8.71511,-2.22681
476,407,8.89917,1.47766,0,0,0,0,0,0,0,-1,1700,617,8.89914,-1.47768
483,407,9.02612,0.682983,0,0,0,0,0,0,0,-1,1707,617,9.02608,-0.683004
490,407,9.12659,0.000671387,0,0,0,0,0,0,0,-1,1714,617,9.12653,-0.000675931
497,407,7.76819,0.855835,0,0,0,0,0,0,0,-1,1721,617,7.7682,-0.855865
504,407,4.69336,0.160706,0,0,0,0,0,0,0,-1,1728,617,4.69337,-0.1607
511,407,4.07104,-0.00140381,0,0,0,0,0,0,0,-1,1735,617,4.07109,0.00141425
518,407,6.09534,1.9411,0,0,0,0,0,0,0,-1,1742,617,6.09532,-1.94113
525,407,5.72534,-1.35986,0,0,0,0,0,0,0,-1,1749,617,5.72529,1.35988
532,407,14.1984,-7.08502,0,0,0,0,0,0,0,-1,1756,617,14.1984,7.08505
539,407,14.197,-7.03333,0,0,0,0,0,0,0,-1,1763,617,14.197,7.03331
546,407,14.2563,-6.58325,0.00271606,0.00142146,0.00097158,0.00323622,0.0009013,0.491548,0.00192857,0.0185317,1770,617,14.2563,6.58324
553,407,14.2406,-6.17993,0.00218558,0.000852861,0.000655853,0.00245419,0.000584245,0.388727,0.00148032,0.0144225,1777,617,14.2406,6.17994
560,407,14.2566,-5.73151,0.00162414,0.00051852,0.000401429,0.00175452,0.000388143,0.314034,0.00106416,0.0155596,1784,617,14.2565,5.73149
567,407,14.2283,-5.29437,0.00108063,0.000326285,0.000254774,0.00115861,0.0002483,0.297042,0.000704385,0.0284336,1791,617,14.2282,5.29437
574,407,14.2469,-4.89935,0.000661066,0.000302107,0.000238943,0.000780429,0.000182744,0.463284,0.000471332,0.0255337,1798,617,14.2469,4.89937
581,407,14.2346,-4.48846,0.000301791,0.000413048,0.000302624,0.000665114,4.97248e-05,0.876293,0.000427799,0.0178959,1805,617,14.2346,4.48845
588,407,14.2123,-4.08563,-2.92565e-05,0.000675545,0.000422746,0.000873509,-0.00022722,1.13285,0.000671027,0.0124085,1812,617,14.2123,4.08561
595,407,14.2258,-3.67566,-0.000159214,0.00113355,0.000726848,0.00145985,-0.000485518,1.14883,0.00116917,0.0228951,1819,617,14.2259,3.67563
602,407,14.2152,-3.23285,-0.0001634,0.00183073,0.00120679,0.00239906,-0.000731734,1.13066,0.00189108,0.0183933,1826,617,14.2152,3.23285
609,407,14.1681,-2.78064,-8.54063e-05,0.00263538,0.00178233,0.00351717,-0.000967195,1.11137,0.00272501,0.0164345,1833,617,14.168,2.78064
616,407,14.231,-2.22821,0.000245352,0.00368495,0.00245765,0.00496478,-0.00103448,1.09069,0.00370316,0.0292631,1840,617,14.231,2.22824
623,407,14.4791,-1.57086,0,0,0,0,0,0,0,-1,1847,617,14.4791,1.57087
630,407,7.06177,0.814575,0,0,0,0,0,0,0,-1,1854,617,7.06178,-0.814579
637,407,7.94031,1.34894,0,0,0,0,0,0,0,-1,1861,617,7.94033,-1.34896
644,407,5.09766,2.27747,0,0,0,0,0,0,0,-1,1868,617,5.09764,-2.27746
651,407,7.37524,0.0513916,0,0,0,0,0,0,0,-1,1875,617,7.3752,-0.0513923
658,407,3.76685,0.594177,0,0,0,0,0,0,0,-1,1882,617,3.76683,-0.594184
665,407,5.76123,0.375061,0,0,0,0,0,0,0,-1,1889,617,5.76118,-0.37509
672,407,0,0,0,0,0,0,0,0,0,-1,1896,617,0,0
679,407,0,0,0,0,0,0,0,0,0,-1,1903,617,0,0
686,407,0,0,0,0,0,0,0,0,0,-1,1910,617,0,0
693,407,0,0,0,0,0,0,0,0,0,-1,1917,617,0,0
700,407,0,0,0,0,0,0,0,0,0,-1,1924,617,0,0
707,407,0,0,0,0,0,0,0,0,0,-1,1931,617,0,0
714,407,0,0,0,0,0,0,0,0,0,-1,1938,617,0,0
721,407,0,0,0,0,0,0,0,0,0,-1,1945,617,0,0
728,407,0,0,0,0,0,0,0,0,0,-1,1952,617,0,0
735,407,0,0,0,0,0,0,0,0,0,-1,1959,617,0,0
742,407,0,0,0,0,0,0,0,0,0,-1,1966,617,0,0
749,407,0,0,0,0,0,0,0,0,0,-1,1973,617,0,0
756,407,0,0,0,0,0,0,0,0,0,-1,1980,617,0,0
763,407,0,0,0,0,0,0,0,0,0,-1,1987,617,0,0
770,407,0,0,0,0,0,0,0,0,0,-1,1994,617,0,0
777,407,0,0,0,0,0,0,0,0,0,-1,2001,617,0,0
784,407,0,0,0,0,0,0,0,0,0,-1,2008,617,0,0
791,407,0,0,0,0,0,0,0,0,0,-1,2015,617,0,0
798,407,0,0,0,0,0,0,0,0,0,-1,2022,617,0,0
805,407,0,0,0,0,0,0,0,0,0,-1,2029,617,0,0
812,407,0,0,0,0,0,0,0,0,0,-1,2036,617,0,0
-700,400,0,0,0,0,0,0,0,0,0,-1,524,624,0,0
-693,400,0,0,0,0,0,0,0,0,0,-1,531,624,0,0
-686,400,0,0,0,0,0,0,0,0,0,-1,538,624,0,0
-679,400,0,0,0,0,0,0,0,0,0,-1,545,624,0,0
-672,400,0,0,0,0,0,0,0,0,0,-1,552,624,0,0
-665,400,0,0,0,0,0,0,0,0,0,-1,559,624,0,0
-658,400,0,0,0,0,0,0,0,0,0,-1,566,624,0,0
-651,400,0,0,0,0,0,0,0,0,0,-1,573,624,0,0
-644,400,0,0,0,0,0,0,0,0,0,-1,580,624,0,0
-637,400,0,0,0,0,0,0,0,0,0,-1,587,624,0,0
-630,400,0,0,0,0,0,0,0,0,0,-1,594,624,0,0
-623,400,0,0,0,0,0,0,0,0,0,-1,601,624,0,0
-616,400,0,0,0,0,0,0,0,0,0,-1,608,624,0,0
-609,400,0,0,0,0,0,0,0,0,0,-1,615,624,0,0
-602,400,0,0,0,0,0,0,0,0,0,-1,622,624,0,0
-595,400,0,0,0,0,0,0,0,0,0,-1,629,624,0,0
-588,400,0,0,0,0,0,0,0,0,0,-1,636,624,0,0
-581,400,0,0,0,0,0,0,0,0,0,-1,643,624,0,0
-574,400,0,0,0,0,0,0,0,0,0,-1,650,624,0,0
-567,400,0,0,0,0,0,0,0,0,0,-1,657,624,0,0
-560,400,0,0,0,0,0,0,0,0,0,-1,664,624,0,0
-553,400,0,0,0,0,0,0,0,0,0,-1,671,624,0,0
-546,400,-8.41174,-1.4599,0,0,0,0,0,0,0,-1,678,624,-8.41173,1.45989
-539,400,-5.69104,-1.7337,0,0,0,0,0,0,0,-1,685,624,-5.69103,1.7337
-532,400,-3.03632,-2.03912,0,0,0,0,0,0,0,-1,692,624,-3.03632,2.03909
-525,400,-6.20813,-7.04071,0,0,0,0,0,0,0,-1,699,624,-6.20814,7.04071
-518,400,-5.26544,-1.58661,0,0,0,0,0,0,0,-1,706,624,-5.26544,1.58658
-511,400,-5.82935,-5.19202,0,0,0,0,0,0,0,-1,713,624,-5.82936,5.19201
-504,400,-6.85382,-3.70313,0,0,0,0,0,0,0,-1,720,624,-6.85384,3.70311
-497,400,-6.63599,-3.86664,-0.000546031,0.000628465,-0.00186419,0.00199572,-0.00191329,-0.937985,0.00225703,0.0365695,727,624,-6.63598,3.86666
-490,400,-6.66315,-4.16809,-0.00110568,0.00125744,-0.000911895,0.00156841,-0.00141665,-1.24215,0.00172417,0.0202745,734,624,-6.66315,4.16807
-483,400,-6.69379,-4.61023,-0.000535225,0.00122397,-0.00113085,0.00177703,-0.00108829,-1.11593,0.00167015,0.0154839,741,624,-6.69379,4.61022
-476,400,-6.71075,-5.0033,-2.45799e-05,0.00118742,-0.00126772,0.00198654,-0.000823694,-1.00836,0.00166815,0.0129545,748,624,-6.71077,5.00327
-469,400,-6.72107,-5.41364,0.000445302,0.00116267,-0.00136977,0.00221994,-0.00061197,-0.913451,0.00172062,0.0138303,755,624,-6.72105,5.41363
-462,400,-6.73138,-5.84369,0.000789986,0.00106369,-0.00139052,0.00232407,-0.000470404,-0.834448,0.00172766,0.0194446,762,624,-6.7314,5.84368
-455,400,-6.73553,-6.24951,0.00111965,0.00104098,-0.0014117,0.00249257,-0.000331934,-0.771471,0.00178269,0.0214544,769,624,-6.73552,6.24952
-448,400,-6.74158,-6.66602,0.00132323,0.000870486,-0.00124174,0.00235906,-0.000165346,-0.695237,0.00163062,0.016237,776,624,-6.7416,6.66602
-441,400,-6.75427,-7.01013,0.00132453,0.000520544,-0.000919414,0.00192599,-8.09175e-05,-0.579307,0.0013118,0.0146998,783,624,-6.75426,7.01014
-434,400,-6.77454,-7.38983,0.00124746,0.000183585,-0.000553887,0.00148347,-5.24279e-05,-0.402805,0.00100691,0.0112064,790,624,-6.77452,7.38985
-427,400,-6.79401,-7.79236,0.000959457,-0.000285268,-5.46487e-05,0.000961851,-0.000287663,-0.043792,0.0007556,0.00979441,797,624,-6.79399,7.79237
-420,400,-6.72308,-8.20776,0.000290544,-0.00120797,0.000724092,0.000583253,-0.00150068,0.384159,0.00124142,0.0154174,804,624,-6.72311,8.20777
-413,400,-6.76086,-8.55817,-0.000451524,-0.00194276,0.00156113,0.000532903,-0.00292719,0.562607,0.00215121,0.03412,811,624,-6.76086,8.55814
-406,400,-7.2229,-8.81055,0,0,0,0,0,0,0,-1,818,624,-7.2229,8.81053
-399,400,-7.34131,-9.1496,0,0,0,0,0,0,0,-1,825,624,-7.34132,9.14958
-392,400,-4.92285,-6.63354,0,0,0,0,0,0,0,-1,832,624,-4.92285,6.63354
-385,400,-3.68738,-5.04205,0,0,0,0,0,0,0,-1,839,624,-3.68736,5.04207
-378,400,-6.84064,-1.28662,0,0,0,0,0,0,0,-1,846,624,-6.84062,1.28662
-371,400,-6.98865,-1.2572,0,0,0,0,0,0,0,-1,853,624,-6.98865,1.25721
-364,400,-6.97247,-1.24133,0,0,0,0,0,0,0,-1,860,624,-6.97249,1.24135
-357,400,-7.18329,-1.23218,0,0,0,0,0,0,0,-1,867,624,-7.18327,1.2322
-350,400,-7.40186,-1.19409,0,0,0,0,0,0,0,-1,874,624,-7.40187,1.19407
-343,400,-8.09357,-1.51147,0,0,0,0,0,0,0,-1,881,624,-8.09355,1.51148
-336,400,0,0,0,0,0,0,0,0,0,-1,888,624,0,0
-329,400,0,0,0,0,0,0,0,0,0,-1,895,624,0,0
-322,400,0,0,0,0,0,0,0,0,0,-1,902,624,0,0
-315,400,0,0,0,0,0,0,0,0,0,-1,909,624,0,0
-308,400,0,0,0,0,0,0,0,0,0,-1,916,624,0,0
-301,400,0,0,0,0,0,0,0,0,0,-1,923,624,0,0
-294,400,0,0,0,0,0,0,0,0,0,-1,930,624,0,0
-287,400,0,0,0,0,0,0,0,0,0,-1,937,624,0,0
-280,400,0,0,0,0,0,0,0,0,0,-1,944,624,0,0
-273,400,0,0,0,0,0,0,0,0,0,-1,951,624,0,0
-266,400,0,0,0,0,0,0,0,0,0,-1,958,624,0,0
-259,400,0,0,0,0,0,0,0,0,0,-1,965,624,0,0
-252,400,0,0,0,0,0,0,0,0,0,-1,972,624,0,0
-245,400,0,0,0,0,0,0,0,0,0,-1,979,624,0,0
-238,400,0,0,0,0,0,0,0,0,0,-1,986,624,0,0
-231,400,0,0,0,0,0,0,0,0,0,-1,993,624,0,0
-224,400,0,0,0,0,0,0,0,0,0,-1,1000,624,0,0
-217,400,0,0,0,0,0,0,0,0,0,-1,1007,624,0,0
-210,400,0,0,0,0,0,0,0,0,0,-1,1014,624,0,0
-203,400,0,0,0,0,0,0,0,0,0,-1,1021,624,0,0
-196,400,0,0,0,0,0,0,0,0,0,-1,1028,624,0,0
-189,400,0,0,0,0,0,0,0,0,0,-1,1035,624,0,0
-182,400,0,0,0,0,0,0,0,0,0,-1,1042,624,0,0
-175,400,0,0,0,0,0,0,0,0,0,-1,1049,624,0,0
-168,400,0,0,0,0,0,0,0,0,0,-1,1056,624,0,0
-161,400,0,0,0,0,0,0,0,0,0,-1,1063,624,0,0
-154,400,0,0,0,0,0,0,0,0,0,-1,1070,624,0,0
-147,400,0,0,0,0,0,0,0,0,0,-1,1077,624,0,0
-140,400,0,0,0,0,0,0,0,0,0,-1,1084,624,0,0
-133,400,0,0,0,0,0,0,0,0,0,-1,1091,624,0,0
-126,400,0,0,0,0,0,0,0,0,0,-1,1098,624,0,0
-119,400,0,0,0,0,0,0,0,0,0,-1,1105,624,0,0
-112,400,0,0,0,0,0,0,0,0,0,-1,1112,624,0,0
-105,400,0,0,0,0,0,0,0,0,0,-1,1119,624,0,0
-98,400,0,0,0,0,0,0,0,0,0,-1,1126,624,0,0
-91,400,0,0,0,0,0,0,0,0,0,-1,1133,624,0,0
-84,400,0,0,0,0,0,0,0,0,0,-1,1140,624,0,0
-77,400,0,0,0,0,0,0,0,0,0,-1,1147,624,0,0
-70,400,0,0,0,0,0,0,0,0,0,-1,1154,624,0,0
-63,400,0,0,0,0,0,0,0,0,0,-1,1161,624,0,0
-56,400,0,0,0,0,0,0,0,0,0,-1,1168,624,0,0
-49,400,0,0,0,0,0,0,0,0,0,-1,1175,624,0,0
-42,400,0,0,0,0,0,0,0,0,0,-1,1182,624,0,0
-35,400,0,0,0,0,0,0,0,0,0,-1,1189,624,0,0
-28,400,0,0,0,0,0,0,0,0,0,-1,1196,624,0,0
-21,400,0,0,0,0,0,0,0,0,0,-1,1203,624,0,0
-14,400,0,0,0,0,0,0,0,0,0,-1,1210,624,0,0
-7,400,0,0,0,0,0,0,0,0,0,-1,1217,624,0,0
0,400,0,0,0,0,0,0,0,0,0,-1,1224,624,0,0
7,400,0,0,0,0,0,0,0,0,0,-1,1231,624,0,0
14,400,0,0,0,0,0,0,0,0,0,-1,1238,624,0,0
21,400,0,0,0,0,0,0,0,0,0,-1,1245,624,0,0
28,400,0,0,0,0,0,0,0,0,0,-1,1252,624,0,0
35,400,0,0,0,0,0,0,0,0,0,-1,1259,624,0,0
42,400,0,0,0,0,0,0,0,0,0,-1,1266,624,0,0
49,400,0,0,0,0,0,0,0,0,0,-1,1273,624,0,0
56,400,0,0,0,0,0,0,0,0,0,-1,1280,624,0,0
63,400,0,0,0,0,0,0,0,0,0,-1,1287,624,0,0
70,400,0,0,0,0,0,0,0,0,0,-1,1294,624,0,0
77,400,0,0,0,0,0,0,0,0,0,-1,1301,624,0,0
84,400,0,0,0,0,0,0,0,0,0,-1,1308,624,0,0
91,400,0,0,0,0,0,0,0,0,0,-1,1315,624,0,0
98,400,0,0,0,0,0,0,0,0,0,-1,1322,624,0,0
105,400,0,0,0,0,0,0,0,0,0,-1,1329,624,0,0
112,400,0,0,0,0,0,0,0,0,0,-1,1336,624,0,0
119,400,0,0,0,0,0,0,0,0,0,-1,1343,624,0,0
126,400,0,0,0,0,0,0,0,0,0,-1,1350,624,0,0
133,400,0,0,0,0,0,0,0,0,0,-1,1357,624,0,0
140,400,0,0,0,0,0,0,0,0,0,-1,1364,624,0,0
147,400,0,0,0,0,0,0,0,0,0,-1,1371,624,0,0
154,400,0,0,0,0,0,0,0,0,0,-1,1378,624,0,0
161,400,0,0,0,0,0,0,0,0,0,-1,1385,624,0,0
168,400,0,0,0,0,0,0,0,0,0,-1,1392,624,0,0
175,400,0,0,0,0,0,0,0,0,0,-1,1399,624,0,0
182,400,0,0,0,0,0,0,0,0,0,-1,1406,624,0,0
189,400,0,0,0,0,0,0,0,0,0,-1,1413,624,0,0
196,400,0,0,0,0,0,0,0,0,0,-1,1420,624,0,0
203,400,0,0,0,0,0,0,0,0,0,-1,1427,624,0,0
210,400,0,0,0,0,0,0,0,0,0,-1,1434,624,0,0
217,400,0,0,0,0,0,0,0,0,0,-1,1441,624,0,0
224,400,0,0,0,0,0,0,0,0,0,-1,1448,624,0,0
231,400,0,0,0,0,0,0,0,0,0,-1,1455,624,0,0
238,400,0,0,0,0,0,0,0,0,0,-1,1462,624,0,0
245,400,0,0,0,0,0,0,0,0,0,-1,1469,624,0,0
252,400,0,0,0,0,0,0,0,0,0,-1,1476,624,0,0
259,400,0,0,0,0,0,0,0,0,0,-1,1483,624,0,0
266,400,0,0,0,0,0,0,0,0,0,-1,1490,624,0,0
273,400,0,0,0,0,0,0,0,0,0,-1,1497,624,0,0
280,400,0,0,0,0,0,0,0,0,0,-1,1504,624,0,0
287,400,0,0,0,0,0,0,0,0,0,-1,1511,624,0,0
294,400,0,0,0,0,0,0,0,0,0,-1,1518,624,0,0
301,400,0,0,0,0,0,0,0,0,0,-1,1525,624,0,0
308,400,0,0,0,0,0,0,0,0,0,-1,1532,624,0,0
315,400,0,0,0,0,0,0,0,0,0,-1,1539,624,0,0
322,400,0,0,0,0,0,0,0,0,0,-1,1546,624,0,0
329,400,0,0,0,0,0,0,0,0,0,-1,1553,624,0,0
336,400,0,0,0,0,0,0,0,0,0,-1,1560,624,0,0
343,400,0,0,0,0,0,0,0,0,0,-1,1567,624,0,0
350,400,0,0,0,0,0,0,0,0,0,-1,1574,624,0,0
357,400,0,0,0,0,0,0,0,0,0,-1,1581,624,0,0
364,400,0,0,0,0,0,0,0,0,0,-1,1588,624,0,0
371,400,0,0,0,0,0,0,0,0,0,-1,1595,624,0,0
378,400,0,0,0,0,0,0,0,0,0,-1,1602,624,0,0
385,400,0,0,0,0,0,0,0,0,0,-1,1609,624,0,0
392,400,0,0,0,0,0,0,0,0,0,-1,1616,624,0,0
399,400,0,0,0,0,0,0,0,0,0,-1,1623,624,0,0
406,400,0,0,0,0,0,0,0,0,0,-1,1630,624,0,0
413,400,0,0,0,0,0,0,0,0,0,-1,1637,624,0,0
420,400,0,0,0,0,0,0,0,0,0,-1,1644,624,0,0
427,400,0,0,0,0,0,0,0,0,0,-1,1651,624,0,0
434,400,0,0,0,0,0,0,0,0,0,-1,1658,624,0,0
441,400,0,0,0,0,0,0,0,0,0,-1,1665,624,0,0
448,400,0,0,0,0,0,0,0,0,0,-1,1672,624,0,0
455,400,8.91309,2.75885,0,0,0,0,0,0,0,-1,1679,624,8.91312,-2.75885
462,400,8.90356,2.37878,0,0,0,0,0,0,0,-1,1686,624,8.90353,-2.37878
469,400,9.14429,1.76849,0,0,0,0,0,0,0,-1,1693,624,9.14432,-1.76847
476,400,9.23254,1.25995,0,0,0,0,0,0,0,-1,1700,624,9.23252,-1.25994
483,400,9.59766,0.562439,0,0,0,0,0,0,0,-1,1707,624,9.59771,-0.56242
490,400,9.92578,-0.213745,0,0,0,0,0,0,0,-1,1714,624,9.92579,0.21376
497,400,9.19141,0.175232,0,0,0,0,0,0,0,-1,1721,624,9.19138,-0.175209
504,400,9.23438,0.00823975,0,0,0,0,0,0,0,-1,1728,624,9.23436,-0.00823766
511,400,6.16687,3.3501,0,0,0,0,0,0,0,-1,1735,624,6.16682,-3.35007
518,400,6.55237,1.74994,0,0,0,0,0,0,0,-1,1742,624,6.55236,-1.74993
525,400,6.99731,1.08783,0,0,0,0,0,0,0,-1,1749,624,6.99736,-1.08785
532,400,6.96582,-1.74982,0,0,0,0,0,0,0,-1,1756,624,6.96585,1.74983
539,400,14.7831,-7.01892,0,0,0,0,0,0,0,-1,1763,624,14.7831,7.01893
546,400,14.7386,-6.64203,0.00288224,0.00143891,0.000703064,0.0031681,0.00115305,0.38617,0.00185153,0.044658,1770,624,14.7387,6.64204
553,400,14.6182,-6.17188,0.00240413,0.000893241,0.000474259,0.00254066,0.000756711,0.280301,0.00150629,0.0250675,1777,624,14.6182,6.17186
560,400,14.6603,-5.71954,0.00190405,0.000587281,0.000300018,0.00196918,0.000522146,0.213787,0.00117797,0.0139937,1784,624,14.6603,5.71955
567,400,14.6678,-5.29272,0.00138144,0.0003928,0.000200003,0.00142037,0.000353872,0.192234,0.00085376,0.0178157,1791,624,14.6678,5.2927
574,400,14.6664,-4.88092,0.00100526,0.000393519,0.000237685,0.00108676,0.000312025,0.330303,0.000646117,0.0207892,1798,624,14.6663,4.8809
581,400,14.6279,-4.47015,0.000699622,0.000528366,0.000345718,0.000970159,0.000257829,0.664001,0.000580248,0.0191669,1805,624,14.6279,4.47015
588,400,14.624,-4.02887,0.000424963,0.000788056,0.000493701,0.00113253,8.04862e-05,0.961587,0.000729674,0.0150902,1812,624,14.6241,4.02888
595,400,14.63,-3.63513,0.000360373,0.00120558,0.000801248,0.00168884,-0.000122889,1.02807,0.00116901,0.0143196,1819,624,14.63,3.63515
602,400,14.6208,-3.21307,0.00044607,0.00182053,0.00128507,0.00259059,-0.000323985,1.03094,0.00184456,0.0133524,1826,624,14.6209,3.21309
609,400,14.5608,-2.77679,0.000456291,0.00252908,0.00177196,0.00354547,-0.000560105,1.05001,0.00257077,0.013988,1833,624,14.5608,2.77681
616,400,14.5696,-2.3468,0.000523333,0.0033351,0.00225346,0.00458527,-0.000726833,1.06429,0.0033257,0.0187722,1840,624,14.5695,2.34679
623,400,14.6283,-1.90436,0,0,0,0,0,0,0,-1,1847,624,14.6283,1.90433
630,400,11.9432,0.09021,0,0,0,0,0,0,0,-1,1854,624,11.9432,-0.0902007
637,400,6.92896,1.01917,0,0,0,0,0,0,0,-1,1861,624,6.92899,-1.01918
644,400,8.65381,1.4599,0,0,0,0,0,0,0,-1,1868,624,8.65379,-1.45991
651,400,7.90601,0.424072,0,0,0,0,0,0,0,-1,1875,624,7.90598,-0.424097
658,400,8.69031,1.0484,0,0,0,0,0,0,0,-1,1882,624,8.6903,-1.0484
665,400,5.98438,0.522522,0,0,0,0,0,0,0,-1,1889,624,5.98442,-0.522552
672,400,0,0,0,0,0,0,0,0,0,-1,1896,624,0,0
679,400,0,0,0,0,0,0,0,0,0,-1,1903,624,0,0
686,400,0,0,0,0,0,0,0,0,0,-1,1910,624,0,0
693,400,0,0,0,0,0,0,0,0,0,-1,1917,624,0,0
700,400,0,0,0,0,0,0,0,0,0,-1,1924,624,0,0
707,400,0,0,0,0,0,0,0,0,0,-1,1931,624,0,0
714,400,0,0,0,0,0,0,0,0,0,-1,1938,624,0,0
721,400,0,0,0,0,0,0,0,0,0,-1,1945,624,0,0
728,400,0,0,0,0,0,0,0,0,0,-1,1952,624,0,0
735,400,0,0,0,0,0,0,0,0,0,-1,1959,624,0,0
742,400,0,0,0,0,0,0,0,0,0,-1,1966,624,0,0
749,400,0,0,0,0,0,0,0,0,0,-1,1973,624,0,0
756,400,0,0,0,0,0,0,0,0,0,-1,1980,624,0,0
763,400,0,0,0,0,0,0,0,0,0,-1,1987,624,0,0
770,400,0,0,0,0,0,0,0,0,0,-1,1994,624,0,0
777,400,0,0,0,0,0,0,0,0,0,-1,2001,624,0,0
784,400,0,0,0,0,0,0,0,0,0,-1,2008,624,0,0
791,400,0,0,0,0,0,0,0,0,0,-1,2015,624,0,0
798,400,0,0,0,0,0,0,0,0,0,-1,2022,624,0,0
805,400,0,0,0,0,0,0,0,0,0,-1,2029,624,0,0
812,400,0,0,0,0,0,0,0,0,0,-1,2036,624,0,0
-700,393,0,0,0,0,0,0,0,0,0,-1,524,631,0,0
-693,393,0,0,0,0,0,0,0,0,0,-1,531,631,0,0
-686,393,0,0,0,0,0,0,0,0,0,-1,538,631,0,0
-679,393,0,0,0,0,0,0,0,0,0,-1,545,631,0,0
-672,393,0,0,0,0,0,0,0,0,0,-1,552,631,0,0
-665,393,0,0,0,0,0,0,0,0,0,-1,559,631,0,0
-658,393,0,0,0,0,0,0,0,0,0,-1,566,631,0,0
-651,393,0,0,0,0,0,0,0,0,0,-1,573,631,0,0
-644,393,0,0,0,0,0,0,0,0,0,-1,580,631,0,0
-637,393,0,0,0,0,0,0,0,0,0,-1,587,631,0,0
-630,393,0,0,0,0,0,0,0,0,0,-1,594,631,0,0
-623,393,0,0,0,0,0,0,0,0,0,-1,601,631,0,0
-616,393,0,0,0,0,0,0,0,0,0,-1,608,631,0,0
-609,393,0,0,0,0,0,0,0,0,0,-1,615,631,0,0
-602,393,0,0,0,0,0,0,0,0,0,-1,622,631,0,0
-595,393,0,0,0,0,0,0,0,0,0,-1,629,631,0,0
-588,393,0,0,0,0,0,0,0,0,0,-1,636,631,0,0
-581,393,0,0,0,0,0,0,0,0,0,-1,643,631,0,0
-574,393,0,0,0,0,0,0,0,0,0,-1,650,631,0,0
-567,393,0,0,0,0,0,0,0,0,0,-1,657,631,0,0
-560,393,0,0,0,0,0,0,0,0,0,-1,664,631,0,0
-553,393,-2.35107,3.92633,0,0,0,0,0,0,0,-1,671,631,-2.35108,-3.92634
-546,393,-1.78778,2.4856,0,0,0,0,0,0,0,-1,678,631,-1.78778,-2.48557
-539,393,-5.2113,-2.20245,0,0,0,0,0,0,0,-1,685,631,-5.21128,2.20247
-532,393,-2.83643,-2.01624,0,0,0,0,0,0,0,-1,692,631,-2.83642,2.01626
-525,393,-5.9505,-0.952698,0,0,0,0,0,0,0,-1,699,631,-5.95053,0.95268
-518,393,-5.80219,-1.57739,0,0,0,0,0,0,0,-1,706,631,-5.80219,1.57738
-511,393,-6.15527,-2.09906,0,0,0,0,0,0,0,-1,713,631,-6.15526,2.09903
-504,393,-7.39258,-3.07983,0,0,0,0,0,0,0,-1,720,631,-7.39258,3.07986
-497,393,-7.13824,-3.6261,-0.000153738,0.000162794,-0.00187582,0.00188701,-0.00187796,-0.827484,0.00217371,0.0286466,727,631,-7.13827,3.62609
-490,393,-7.07861,-4.17963,-0.00090157,0.000894235,-0.000642266,0.0011003,-0.00110763,-1.26034,0.00127475,0.0160594,734,631,-7.07863,4.17963
-483,393,-7.07953,-4.61847,-0.000361129,0.00084085,-0.000798933,0.0012396,-0.000759881,-1.10786,0.00116542,0.0201205,741,631,-7.07954,4.61844
-476,393,-7.09082,-5.00146,0.000203406,0.000863297,-0.00100394,0.00159012,-0.000523414,-0.944164,0.001271,0.0162556,748,631,-7.09083,5.00144
-469,393,-7.10663,-5.40454,0.000741946,0.000936398,-0.00121285,0.00205592,-0.000377572,-0.825394,0.00151226,0.0121399,755,631,-7.10666,5.40454
-462,393,-7.1192,-5.83911,0.00111348,0.000936208,-0.00135183,0.00237958,-0.000329892,-0.752661,0.00170701,0.0146598,762,631,-7.11919,5.8391
-455,393,-7.13733,-6.25043,0.00150513,0.00103527,-0.00149725,0.00278577,-0.000245371,-0.70758,0.00194414,0.0150162,769,631,-7.13734,6.2504
-448,393,-7.15515,-6.66937,0.00177181,0.000997177,-0.00145573,0.00289087,-0.000121886,-0.655379,0.00196913,0.0147973,776,631,-7.15513,6.66938
-441,393,-7.16144,-7.03949,0.00183827,0.000718046,-0.00122913,0.00262889,-7.25783e-05,-0.571607,0.00177728,0.0134183,783,631,-7.16143,7.03946
-434,393,-7.17383,-7.39172,0.00182352,0.000460984,-0.000960995,0.00232023,-3.57276e-05,-0.477054,0.00155887,0.0115386,790,631,-7.17386,7.3917
-427,393,-7.12415,-7.80963,0.00154357,7.68739e-05,-0.000528073,0.00171392,-9.34703e-05,-0.312039,0.00117501,0.0201241,797,631,-7.12417,7.80964
-420,393,-7.11523,-8.16504,0.000834512,-0.00085189,0.000227702,0.000864716,-0.000882094,0.131876,0.00100854,0.0458876,804,631,-7.11525,8.16501
-413,393,-7.32898,-8.55487,0,0,0,0,0,0,0,-1,811,631,-7.329,8.55487
-406,393,-8.05688,-8.9953,0,0,0,0,0,0,0,-1,818,631,-8.05687,8.99531
-399,393,-5.07343,-5.92365,0,0,0,0,0,0,0,-1,825,631,-5.07344,5.92364
-392,393,-2.08063,-3.02386,0,0,0,0,0,0,0,-1,832,631,-2.08063,3.02384
-385,393,-3.16931,-0.624756,0,0,0,0,0,0,0,-1,839,631,-3.16928,0.624764
-378,393,-7.33081,-0.872314,0,0,0,0,0,0,0,-1,846,631,-7.33081,0.872325
-371,393,-7.47858,-0.811096,0,0,0,0,0,0,0,-1,853,631,-7.47859,0.811075
-364,393,-7.64917,-0.662415,0,0,0,0,0,0,0,-1,860,631,-7.64917,0.662406
-357,393,-8.09686,-0.726013,0,0,0,0,0,0,0,-1,867,631,-8.09689,0.726029
-350,393,-8.38788,-0.511841,0,0,0,0,0,0,0,-1,874,631,-8.38785,0.511811
-343,393,0,0,0,0,0,0,0,0,0,-1,881,631,0,0
-336,393,0,0,0,0,0,0,0,0,0,-1,888,631,0,0
-329,393,0,0,0,0,0,0,0,0,0,-1,895,631,0,0
-322,393,0,0,0,0,0,0,0,0,0,-1,902,631,0,0
-315,393,0,0,0,0,0,0,0,0,0,-1,909,631,0,0
-308,393,0,0,0,0,0,0,0,0,0,-1,916,631,0,0
-301,393,0,0,0,0,0,0,0,0,0,-1,923,631,0,0
-294,393,0,0,0,0,0,0,0,0,0,-1,930,631,0,0
-287,393,0,0,0,0,0,0,0,0,0,-1,937,631,0,0
-280,393,0,0,0,0,0,0,0,0,0,-1,944,631,0,0
-273,393,0,0,0,0,0,0,0,0,0,-1,951,631,0,0
-266,393,0,0,0,0,0,0,0,0,0,-1,958,631,0,0
-259,393,0,0,0,0,0,0,0,0,0,-1,965,631,0,0
-252,393,0,0,0,0,0,0,0,0,0,-1,972,631,0,0
-245,393,0,0,0,0,0,0,0,0,0,-1,979,631,0,0
-238,393,0,0,0,0,0,0,0,0,0,-1,986,631,0,0
-231,393,0,0,0,0,0,0,0,0,0,-1,993,631,0,0
-224,393,0,0,0,0,0,0,0,0,0,-1,1000,631,0,0
-217,393,0,0,0,0,0,0,0,0,0,-1,1007,631,0,0
-210,393,0,0,0,0,0,0,0,0,0,-1,1014,631,0,0
-203,393,0,0,0,0,0,0,0,0,0,-1,1021,631,0,0
-196,393,0,0,0,0,0,0,0,0,0,-1,1028,631,0,0
-189,393,0,0,0,0,0,0,0,0,0,-1,1035,631,0,0
-182,393,0,0,0,0,0,0,0,0,0,-1,1042,631,0,0
-175,393,0,0,0,0,0,0,0,0,0,-1,1049,631,0,0
-168,393,0,0,0,0,0,0,0,0,0,-1,1056,631,0,0
-161,393,0,0,0,0,0,0,0,0,0,-1,1063,631,0,0
-154,393,0,0,0,0,0,0,0,0,0,-1,1070,631,0,0
-147,393,0,0,0,0,0,0,0,0,0,-1,1077,631,0,0
-140,393,0,0,0,0,0,0,0,0,0,-1,1084,631,0,0
-133,393,0,0,0,0,0,0,0,0,0,-1,1091,631,0,0
-126,393,0,0,0,0,0,0,0,0,0,-1,1098,631,0,0
-119,393,0,0,0,0,0,0,0,0,0,-1,1105,631,0,0
-112,393,0,0,0,0,0,0,0,0,0,-1,1112,631,0,0
-105,393,0,0,0,0,0,0,0,0,0,-1,1119,631,0,0
-98,393,0,0,0,0,0,0,0,0,0,-1,1126,631,0,0
-91,393,0,0,0,0,0,0,0,0,0,-1,1133,631,0,0
-84,393,0,0,0,0,0,0,0,0,0,-1,1140,631,0,0
-77,393,0,0,0,0,0,0,0,0,0,-1,1147,631,0,0
-70,393,0,0,0,0,0,0,0,0,0,-1,1154,631,0,0
-63,393,0,0,0,0,0,0,0,0,0,-1,1161,631,0,0
-56,393,0,0,0,0,0,0,0,0,0,-1,1168,631,0,0
-49,393,0,0,0,0,0,0,0,0,0,-1,1175,631,0,0
-42,393,0,0,0,0,0,0,0,0,0,-1,1182,631,0,0
-35,393,0,0,0,0,0,0,0,0,0,-1,1189,631,0,0
-28,393,0,0,0,0,0,0,0,0,0,-1,1196,631,0,0
-21,393,0,0,0,0,0,0,0,0,0,-1,1203,631,0,0
-14,393,0,0,0,0,0,0,0,0,0,-1,1210,631,0,0
-7,393,0,0,0,0,0,0,0,0,0,-1,1217,631,0,0
0,393,0,0,0,0,0,0,0,0,0,-1,1224,631,0,0
7,393,0,0,0,0,0,0,0,0,0,-1,1231,631,0,0
14,393,0,0,0,0,0,0,0,0,0,-1,1238,631,0,0
21,393,0,0,0,0,0,0,0,0,0,-1,1245,631,0,0
28,393,0,0,0,0,0,0,0,0,0,-1,1252,631,0,0
35,393,0,0,0,0,0,0,0,0,0,-1,1259,631,0,0
42,393,0,0,0,0,0,0,0,0,0,-1,1266,631,0,0
49,393,0,0,0,0,0,0,0,0,0,-1,1273,631,0,0
56,393,0,0,0,0,0,0,0,0,0,-1,1280,631,0,0
63,393,0,0,0,0,0,0,0,0,0,-1,1287,631,0,0
70,393,0,0,0,0,0,0,0,0,0,-1,1294,631,0,0
77,393,0,0,0,0,0,0,0,0,0,-1,1301,631,0,0
84,393,0,0,0,0,0,0,0,0,0,-1,1308,631,0,0
91,393,0,0,0,0,0,0,0,0,0,-1,1315,631,0,0
98,393,0,0,0,0,0,0,0,0,0,-1,1322,631,0,0
105,393,0,0,0,0,0,0,0,0,0,-1,1329,631,0,0
112,393,0,0,0,0,0,0,0,0,0,-1,1336,631,0,0
119,393,0,0,0,0,0,0,0,0,0,-1,1343,631,0,0
126,393,0,0,0,0,0,0,0,0,0,-1,1350,631,0,0
133,393,0,0,0,0,0,0,0,0,0,-1,1357,631,0,0
140,393,0,0,0,0,0,0,0,0,0,-1,1364,631,0,0
147,393,0,0,0,0,0,0,0,0,0,-1,1371,631,0,0
154,393,0,0,0,0,0,0,0,0,0,-1,1378,631,0,0
161,393,0,0,0,0,0,0,0,0,0,-1,1385,631,0,0
168,393,0,0,0,0,0,0,0,0,0,-1,1392,631,0,0
175,393,0,0,0,0,0,0,0,0,0,-1,1399,631,0,0
182,393,0,0,0,0,0,0,0,0,0,-1,1406,631,0,0
189,393,0,0,0,0,0,0,0,0,0,-1,1413,631,0,0
196,393,0,0,0,0,0,0,0,0,0,-1,1420,631,0,0
203,393,0,0,0,0,0,0,0,0,0,-1,1427,631,0,0
210,393,0,0,0,0,0,0,0,0,0,-1,1434,631,0,0
217,393,0,0,0,0,0,0,0,0,0,-1,1441,631,0,0
224,393,0,0,0,0,0,0,0,0,0,-1,1448,631,0,0
231,393,0,0,0,0,0,0,0,0,0,-1,1455,631,0,0
238,393,0,0,0,0,0,0,0,0,0,-1,1462,631,0,0
245,393,0,0,0,0,0,0,0,0,0,-1,1469,631,0,0
252,393,0,0,0,0,0,0,0,0,0,-1,1476,631,0,0
259,393,0,0,0,0,0,0,0,0,0,-1,1483,631,0,0
266,393,0,0,0,0,0,0,0,0,0,-1,1490,631,0,0
273,393,0,0,0,0,0,0,0,0,0,-1,1497,631,0,0
280,393,0,0,0,0,0,0,0,0,0,-1,1504,631,0,0
287,393,0,0,0,0,0,0,0,0,0,-1,1511,631,0,0
294,393,0,0,0,0,0,0,0,0,0,-1,1518,631,0,0
301,393,0,0,0,0,0,0,0,0,0,-1,1525,631,0,0
308,393,0,0,0,0,0,0,0,0,0,-1,1532,631,0,0
315,393,0,0,0,0,0,0,0,0,0,-1,1539,631,0,0
322,393,0,0,0,0,0,0,0,0,0,-1,1546,631,0,0
329,393,0,0,0,0,0,0,0,0,0,-1,1553,631,0,0
336,393,0,0,0,0,0,0,0,0,0,-1,1560,631,0,0
343,393,0,0,0,0,0,0,0,0,0,-1,1567,631,0,0
350,393,0,0,0,0,0,0,0,0,0,-1,1574,631,0,0
357,393,0,0,0,0,0,0,0,0,0,-1,1581,631,0,0
364,393,0,0,0,0,0,0,0,0,0,-1,1588,631,0,0
371,393,0,0,0,0,0,0,0,0,0,-1,1595,631,0,0
378,393,0,0,0,0,0,0,0,0,0,-1,1602,631,0,0
385,393,0,0,0,0,0,0,0,0,0,-1,1609,631,0,0
392,393,0,0,0,0,0,0,0,0,0,-1,1616,631,0,0
399,393,0,0,0,0,0,0,0,0,0,-1,1623,631,0,0
406,393,0,0,0,0,0,0,0,0,0,-1,1630,631,0,0
413,393,0,0,0,0,0,0,0,0,0,-1,1637,631,0,0
420,393,0,0,0,0,0,0,0,0,0,-1,1644,631,0,0
427,393,0,0,0,0,0,0,0,0,0,-1,1651,631,0,0
434,393,0,0,0,0,0,0,0,0,0,-1,1658,631,0,0
441,393,0,0,0,0,0,0,0,0,0,-1,1665,631,0,0
448,393,0,0,0,0,0,0,0,0,0,-1,1672,631,0,0
455,393,0,0,0,0,0,0,0,0,0,-1,1679,631,0,0
462,393,8.51099,1.89502,0,0,0,0,0,0,0,-1,1686,631,8.51103,-1.89504
469,393,9.39465,1.51703,0,0,0,0,0,0,0,-1,1693,631,9.39465,-1.51703
476,393,9.95569,1.185,0,0,0,0,0,0,0,-1,1700,631,9.95575,-1.18497
483,393,10.5267,0.887329,0,0,0,0,0,0,0,-1,1707,631,10.5267,-0.887321
490,393,10.9303,0.761414,0,0,0,0,0,0,0,-1,1714,631,10.9303,-0.761386
497,393,8.32153,1.88104,0,0,0,0,0,0,0,-1,1721,631,8.32148,-1.88103
504,393,9.46985,1.78711,0,0,0,0,0,0,0,-1,1728,631,9.46986,-1.78713
511,393,9.66565,-0.375977,0,0,0,0,0,0,0,-1,1735,631,9.66571,0.375949
518,393,7.01599,1.62482,0,0,0,0,0,0,0,-1,1742,631,7.01597,-1.62483
525,393,7.88245,-1.13422,0,0,0,0,0,0,0,-1,1749,631,7.88246,1.13423
532,393,7.06335,-1.18103,0,0,0,0,0,0,0,-1,1756,631,7.06332,1.18101
539,393,9.91626,-2.46301,0,0,0,0,0,0,0,-1,1763,631,9.91625,2.46302
546,393,15.1317,-6.68561,0,0,0,0,0,0,0,-1,1770,631,15.1317,6.68559
553,393,14.9857,-6.07214,0.00255756,0.000902628,0.000290049,0.00260692,0.000853266,0.168572,0.00153474,0.049189,1777,631,14.9857,6.07213
560,393,15.0901,-5.75482,0.00210171,0.00062983,0.000171346,0.00212139,0.000610146,0.114375,0.00126108,0.0211012,1784,631,15.0901,5.75481
567,393,15.0839,-5.31018,0.0015601,0.000417639,8.17923e-05,0.00156593,0.000411813,0.0711095,0.000937338,0.0151731,1791,631,15.0839,5.31016
574,393,15.0717,-4.90198,0.00119111,0.000419792,0.000134548,0.0012139,0.000396996,0.167838,0.000714689,0.0171148,1798,631,15.0716,4.902
581,393,15.0509,-4.45911,0.000909519,0.000556191,0.00025691,0.00104464,0.000421065,0.484203,0.000606892,0.0154616,1805,631,15.051,4.45912
588,393,15.05,-4.01062,0.000677737,0.000794578,0.000416243,0.00115648,0.000315835,0.855118,0.000690231,0.0167963,1812,631,15.0501,4.0106
595,393,15.0582,-3.60889,0.000669795,0.00116715,0.000716784,0.00167717,0.000159777,0.952369,0.00106884,0.0148969,1819,631,15.0582,3.60888
602,393,15.0524,-3.19818,0.000840951,0.0017084,0.00119912,0.00254983,-4.74975e-07,0.958929,0.00170004,0.0164992,1826,631,15.0524,3.19817
609,393,15.0211,-2.77283,0.000852678,0.00236093,0.00164222,0.0034139,-0.000200288,1.00064,0.00234555,0.0163956,1833,631,15.0211,2.77282
616,393,15.0111,-2.35229,0.000871865,0.00304178,0.002045,0.00427181,-0.000358165,1.02929,0.00297446,0.0163142,1840,631,15.0111,2.35232
623,393,15.0522,-1.82764,0.00100224,0.0039391,0.00266454,0.00551305,-0.000571714,1.03724,0.00388,0.0284517,1847,631,15.0522,1.82762
630,393,15.1288,-1.20959,0,0,0,0,0,0,0,-1,1854,631,15.1288,1.20958
637,393,11.4626,0.608887,0,0,0,0,0,0,0,-1,1861,631,11.4627,-0.608904
644,393,8.97583,1.30585,0,0,0,0,0,0,0,-1,1868,631,8.97586,-1.30584
651,393,11.348,0.53302,0,0,0,0,0,0,0,-1,1875,631,11.348,-0.53305
658,393,9.21338,1.50836,0,0,0,0,0,0,0,-1,1882,631,9.21338,-1.50834
665,393,6.1001,2.32129,0,0,0,0,0,0,0,-1,1889,631,6.10012,-2.3213
672,393,7.14575,2.43225,0,0,0,0,0,0,0,-1,1896,631,7.14572,-2.43222
679,393,0,0,0,0,0,0,0,0,0,-1,1903,631,0,0
686,393,0,0,0,0,0,0,0,0,0,-1,1910,631,0,0
693,393,0,0,0,0,0,0,0,0,0,-1,1917,631,0,0
700,393,0,0,0,0,0,0,0,0,0,-1,1924,631,0,0
707,393,0,0,0,0,0,0,0,0,0,-1,1931,631,0,0
714,393,0,0,0,0,0,0,0,0,0,-1,1938,631,0,0
721,393,0,0,0,0,0,0,0,0,0,-1,1945,631,0,0
728,393,0,0,0,0,0,0,0,0,0,-1,1952,631,0,0
735,393,0,0,0,0,0,0,0,0,0,-1,1959,631,0,0
742,393,0,0,0,0,0,0,0,0,0,-1,1966,631,0,0
749,393,0,0,0,0,0,0,0,0,0,-1,1973,631,0,0
756,393,0,0,0,0,0,0,0,0,0,-1,1980,631,0,0
763,393,0,0,0,0,0,0,0,0,0,-1,1987,631,0,0
770,393,0,0,0,0,0,0,0,0,0,-1,1994,631,0,0
777,393,0,0,0,0,0,0,0,0,0,-1,2001,631,0,0
784,393,0,0,0,0,0,0,0,0,0,-1,2008,631,0,0
791,393,0,0,0,0,0,0,0,0,0,-1,2015,631,0,0
798,393,0,0,0,0,0,0,0,0,0,-1,2022,631,0,0
805,393,0,0,0,0,0,0,0,0,0,-1,2029,631,0,0
812,393,0,0,0,0,0,0,0,0,0,-1,2036,631,0,0
-700,386,0,0,0,0,0,0,0,0,0,-1,524,638,0,0
-693,386,0,0,0,0,0,0,0,0,0,-1,531,638,0,0
-686,386,0,0,0,0,0,0,0,0,0,-1,538,638,0,0
-679,386,0,0,0,0,0,0,0,0,0,-1,545,638,0,0
-672,386,0,0,0,0,0,0,0,0,0,-1,552,638,0,0
-665,386,0,0,0,0,0,0,0,0,0,-1,559,638,0,0
-658,386,0,0,0,0,0,0,0,0,0,-1,566,638,0,0
-651,386,0,0,0,0,0,0,0,0,0,-1,573,638,0,0
-644,386,0,0,0,0,0,0,0,0,0,-1,580,638,0,0
-637,386,0,0,0,0,0,0,0,0,0,-1,587,638,0,0
-630,386,0,0,0,0,0,0,0,0,0,-1,594,638,0,0
-623,386,0,0,0,0,0,0,0,0,0,-1,601,638,0,0
-616,386,0,0,0,0,0,0,0,0,0,-1,608,638,0,0
-609,386,0,0,0,0,0,0,0,0,0,-1,615,638,0,0
-602,386,0,0,0,0,0,0,0,0,0,-1,622,638,0,0
-595,386,0,0,0,0,0,0,0,0,0,-1,629,638,0,0
-588,386,0,0,0,0,0,0,0,0,0,-1,636,638,0,0
-581,386,0,0,0,0,0,0,0,0,0,-1,643,638,0,0
-574,386,0,0,0,0,0,0,0,0,0,-1,650,638,0,0
-567,386,0,0,0,0,0,0,0,0,0,-1,657,638,0,0
-560,386,-3.97229,-5.13898,0,0,0,0,0,0,0,-1,664,638,-3.97232,5.13897
-553,386,-4.94244,-5.54309,0,0,0,0,0,0,0,-1,671,638,-4.94242,5.5431
-546,386,-1.78668,1.72827,0,0,0,0,0,0,0,-1,678,638,-1.78668,-1.72829
-539,386,-0.879456,-2.90009,0,0,0,0,0,0,0,-1,685,638,-0.879442,2.90008
-532,386,-4.83362,1.61053,0,0,0,0,0,0,0,-1,692,638,-4.83361,-1.61051
-525,386,-6.64148,-1.50604,0,0,0,0,0,0,0,-1,699,638,-6.64149,1.50603
-518,386,-6.47589,-1.71948,0,0,0,0,0,0,0,-1,706,638,-6.47591,1.71947
-511,386,-7.51703,-2.47736,0,0,0,0,0,0,0,-1,713,638,-7.51703,2.47734
-504,386,-7.49219,-3.26398,0.00273166,-0.000852812,-0.00555895,0.00678015,-0.0049013,-0.629456,0.0067733,0.0331171,720,638,-7.49218,3.264
-497,386,-7.5426,-3.77704,0.00023504,0.000110276,-0.00198401,0.00215765,-0.00181234,-0.769682,0.00229496,0.0151331,727,638,-7.54259,3.77705
-490,386,-7.49646,-4.21387,-0.000647914,0.000764625,-0.000513656,0.000931659,-0.000814948,-1.2564,0.00100915,0.0127573,734,638,-7.49644,4.21384
-483,386,-7.47784,-4.64923,-0.000119834,0.000710024,-0.00061326,0.00103554,-0.000445347,-1.08282,0.00087733,0.0170212,741,638,-7.47784,4.64924
-476,386,-7.47937,-5.04333,0.000502308,0.000801219,-0.000885793,0.00155008,-0.000246549,-0.868974,0.00112461,0.0163979,748,638,-7.47936,5.04334
-469,386,-7.50305,-5.4245,0.00110403,0.000963421,-0.00119446,0.00223025,-0.000162796,-0.756002,0.00154396,0.0117454,755,638,-7.50307,5.42448
-462,386,-7.52271,-5.83307,0.00152276,0.00106476,-0.00145835,0.00276998,-0.000182463,-0.707522,0.00191038,0.0108852,762,638,-7.52268,5.83306
-455,386,-7.54437,-6.21515,0.00199162,0.00127423,-0.00173748,0.00340705,-0.000141194,-0.683606,0.00231986,0.0120888,769,638,-7.54438,6.21514
-448,386,-7.54822,-6.62451,0.00235166,0.00138445,-0.00186522,0.00379495,-5.88431e-05,-0.658553,0.00254981,0.0125171,776,638,-7.54823,6.62454
-441,386,-7.56921,-7.01196,0.00254716,0.00119863,-0.00179825,0.0037934,-4.76127e-05,-0.606033,0.00254495,0.0133611,783,638,-7.56921,7.01197
-434,386,-7.51569,-7.44989,0.00266977,0.00102658,-0.00169291,0.00372992,-3.35741e-05,-0.559483,0.00249788,0.031611,790,638,-7.5157,7.44986
-427,386,-7.42773,-7.87811,0,0,0,0,0,0,0,-1,797,638,-7.42771,7.87811
-420,386,-7.50513,-8.19263,0,0,0,0,0,0,0,-1,804,638,-7.50511,8.19264
-413,386,-5.45691,-5.35785,0,0,0,0,0,0,0,-1,811,638,-5.45691,5.35783
-406,386,-4.51135,-4.10999,0,0,0,0,0,0,0,-1,818,638,-4.51135,4.10996
-399,386,-3.57117,-3.42126,0,0,0,0,0,0,0,-1,825,638,-3.57116,3.42129
-392,386,-4.00977,0.403625,0,0,0,0,0,0,0,-1,832,638,-4.0098,-0.403616
-385,386,-3.2406,-0.118469,0,0,0,0,0,0,0,-1,839,638,-3.24058,0.118485
-378,386,-2.55243,-1.22748,0,0,0,0,0,0,0,-1,846,638,-2.55243,1.22748
-371,386,-7.95807,-0.330261,0,0,0,0,0,0,0,-1,853,638,-7.95806,0.330284
-364,386,-8.90637,-0.665955,0,0,0,0,0,0,0,-1,860,638,-8.90635,0.665951
-357,386,-9.10364,-0.388733,0,0,0,0,0,0,0,-1,867,638,-9.10364,0.388744
-350,386,0,0,0,0,0,0,0,0,0,-1,874,638,0,0
-343,386,0,0,0,0,0,0,0,0,0,-1,881,638,0,0
-336,386,0,0,0,0,0,0,0,0,0,-1,888,638,0,0
-329,386,0,0,0,0,0,0,0,0,0,-1,895,638,0,0
-322,386,0,0,0,0,0,0,0,0,0,-1,902,638,0,0
-315,386,0,0,0,0,0,0,0,0,0,-1,909,638,0,0
-308,386,0,0,0,0,0,0,0,0,0,-1,916,638,0,0
-301,386,0,0,0,0,0,0,0,0,0,-1,923,638,0,0
-294,386,0,0,0,0,0,0,0,0,0,-1,930,638,0,0
-287,386,0,0,0,0,0,0,0,0,0,-1,937,638,0,0
-280,386,0,0,0,0,0,0,0,0,0,-1,944,638,0,0
-273,386,0,0,0,0,0,0,0,0,0,-1,951,638,0,0
-266,386,0,0,0,0,0,0,0,0,0,-1,958,638,0,0
-259,386,0,0,0,0,0,0,0,0,0,-1,965,638,0,0
-252,386,0,0,0,0,0,0,0,0,0,-1,972,638,0,0
-245,386,0,0,0,0,0,0,0,0,0,-1,979,638,0,0
-238,386,0,0,0,0,0,0,0,0,0,-1,986,638,0,0
-231,386,0,0,0,0,0,0,0,0,0,-1,993,638,0,0
-224,386,0,0,0,0,0,0,0,0,0,-1,1000,638,0,0
-217,386,0,0,0,0,0,0,0,0,0,-1,1007,638,0,0
-210,386,0,0,0,0,0,0,0,0,0,-1,1014,638,0,0
-203,386,0,0,0,0,0,0,0,0,0,-1,1021,638,0,0
-196,386,0,0,0,0,0,0,0,0,0,-1,1028,638,0,0
-189,386,0,0,0,0,0,0,0,0,0,-1,1035,638,0,0
-182,386,0,0,0,0,0,0,0,0,0,-1,1042,638,0,0
-175,386,0,0,0,0,0,0,0,0,0,-1,1049,638,0,0
-168,386,0,0,0,0,0,0,0,0,0,-1,1056,638,0,0
-161,386,0,0,0,0,0,0,0,0,0,-1,1063,638,0,0
-154,386,0,0,0,0,0,0,0,0,0,-1,1070,638,0,0
-147,386,0,0,0,0,0,0,0,0,0,-1,1077,638,0,0
-140,386,0,0,0,0,0,0,0,0,0,-1,1084,638,0,0
-133,386,0,0,0,0,0,0,0,0,0,-1,1091,638,0,0
-126,386,0,0,0,0,0,0,0,0,0,-1,1098,638,0,0
-119,386,0,0,0,0,0,0,0,0,0,-1,1105,638,0,0
-112,386,0,0,0,0,0,0,0,0,0,-1,1112,638,0,0
-105,386,0,0,0,0,0,0,0,0,0,-1,1119,638,0,0
-98,386,0,0,0,0,0,0,0,0,0,-1,1126,638,0,0
-91,386,0,0,0,0,0,0,0,0,0,-1,1133,638,0,0
-84,386,0,0,0,0,0,0,0,0,0,-1,1140,638,0,0
-77,386,0,0,0,0,0,0,0,0,0,-1,1147,638,0,0
-70,386,0,0,0,0,0,0,0,0,0,-1,1154,638,0,0
-63,386,0,0,0,0,0,0,0,0,0,-1,1161,638,0,0
-56,386,0,0,0,0,0,0,0,0,0,-1,1168,638,0,0
-49,386,0,0,0,0,0,0,0,0,0,-1,1175,638,0,0
-42,386,0,0,0,0,0,0,0,0,0,-1,1182,638,0,0
-35,386,0,0,0,0,0,0,0,0,0,-1,1189,638,0,0
-28,386,0,0,0,0,0,0,0,0,0,-1,1196,638,0,0
-21,386,0,0,0,0,0,0,0,0,0,-1,1203,638,0,0
-14,386,0,0,0,0,0,0,0,0,0,-1,1210,638,0,0
-7,386,0,0,0,0,0,0,0,0,0,-1,1217,638,0,0
0,386,0,0,0,0,0,0,0,0,0,-1,1224,638,0,0
7,386,0,0,0,0,0,0,0,0,0,-1,1231,638,0,0
14,386,0,0,0,0,0,0,0,0,0,-1,1238,638,0,0
21,386,0,0,0,0,0,0,0,0,0,-1,1245,638,0,0
28,386,0,0,0,0,0,0,0,0,0,-1,1252,638,0,0
35,386,0,0,0,0,0,0,0,0,0,-1,1259,638,0,0
42,386,0,0,0,0,0,0,0,0,0,-1,1266,638,0,0
49,386,0,0,0,0,0,0,0,0,0,-1,1273,638,0,0
56,386,0,0,0,0,0,0,0,0,0,-1,1280,638,0,0
63,386,0,0,0,0,0,0,0,0,0,-1,1287,638,0,0
70,386,0,0,0,0,0,0,0,0,0,-1,1294,638,0,0
77,386,0,0,0,0,0,0,0,0,0,-1,1301,638,0,0
84,386,0,0,0,0,0,0,0,0,0,-1,1308,638,0,0
91,386,0,0,0,0,0,0,0,0,0,-1,1315,638,0,0
98,386,0,0,0,0,0,0,0,0,0,-1,1322,638,0,0
105,386,0,0,0,0,0,0,0,0,0,-1,1329,638,0,0
112,386,0,0,0,0,0,0,0,0,0,-1,1336,638,0,0
119,386,0,0,0,0,0,0,0,0,0,-1,1343,638,0,0
126,386,0,0,0,0,0,0,0,0,0,-1,1350,638,0,0
133,386,0,0,0,0,0,0,0,0,0,-1,1357,638,0,0
140,386,0,0,0,0,0,0,0,0,0,-1,1364,638,0,0
147,386,0,0,0,0,0,0,0,0,0,-1,1371,638,0,0
154,386,0,0,0,0,0,0,0,0,0,-1,1378,638,0,0
161,386,0,0,0,0,0,0,0,0,0,-1,1385,638,0,0
168,386,0,0,0,0,0,0,0,0,0,-1,1392,638,0,0
175,386,0,0,0,0,0,0,0,0,0,-1,1399,638,0,0
182,386,0,0,0,0,0,0,0,0,0,-1,1406,638,0,0
189,386,0,0,0,0,0,0,0,0,0,-1,1413,638,0,0
196,386,0,0,0,0,0,0,0,0,0,-1,1420,638,0,0
203,386,0,0,0,0,0,0,0,0,0,-1,1427,638,0,0
210,386,0,0,0,0,0,0,0,0,0,-1,1434,638,0,0
217,386,0,0,0,0,0,0,0,0,0,-1,1441,638,0,0
224,386,0,0,0,0,0,0,0,0,0,-1,1448,638,0,0
231,386,0,0,0,0,0,0,0,0,0,-1,1455,638,0,0
238,386,0,0,0,0,0,0,0,0,0,-1,1462,638,0,0
245,386,0,0,0,0,0,0,0,0,0,-1,1469,638,0,0
252,386,0,0,0,0,0,0,0,0,0,-1,1476,638,0,0
259,386,0,0,0,0,0,0,0,0,0,-1,1483,638,0,0
266,386,0,0,0,0,0,0,0,0,0,-1,1490,638,0,0
273,386,0,0,0,0,0,0,0,0,0,-1,1497,638,0,0
280,386,0,0,0,0,0,0,0,0,0,-1,1504,638,0,0
287,386,0,0,0,0,0,0,0,0,0,-1,1511,638,0,0
294,386,0,0,0,0,0,0,0,0,0,-1,1518,638,0,0
301,386,0,0,0,0,0,0,0,0,0,-1,1525,638,0,0
308,386,0,0,0,0,0,0,0,0,0,-1,1532,638,0,0
315,386,0,0,0,0,0,0,0,0,0,-1,1539,638,0,0
322,386,0,0,0,0,0,0,0,0,0,-1,1546,638,0,0
329,386,0,0,0,0,0,0,0,0,0,-1,1553,638,0,0
336,386,0,0,0,0,0,0,0,0,0,-1,1560,638,0,0
343,386,0,0,0,0,0,0,0,0,0,-1,1567,638,0,0
350,386,0,0,0,0,0,0,0,0,0,-1,1574,638,0,0
357,386,0,0,0,0,0,0,0,0,0,-1,1581,638,0,0
364,386,0,0,0,0,0,0,0,0,0,-1,1588,638,0,0
371,386,0,0,0,0,0,0,0,0,0,-1,1595,638,0,0
378,386,0,0,0,0,0,0,0,0,0,-1,1602,638,0,0
385,386,0,0,0,0,0,0,0,0,0,-1,1609,638,0,0
392,386,0,0,0,0,0,0,0,0,0,-1,1616,638,0,0
399,386,0,0,0,0,0,0,0,0,0,-1,1623,638,0,0
406,386,0,0,0,0,0,0,0,0,0,-1,1630,638,0,0
413,386,0,0,0,0,0,0,0,0,0,-1,1637,638,0,0
420,386,0,0,0,0,0,0,0,0,0,-1,1644,638,0,0
427,386,0,0,0,0,0,0,0,0,0,-1,1651,638,0,0
434,386,0,0,0,0,0,0,0,0,0,-1,1658,638,0,0
441,386,0,0,0,0,0,0,0,0,0,-1,1665,638,0,0
448,386,0,0,0,0,0,0,0,0,0,-1,1672,638,0,0
455,386,0,0,0,0,0,0,0,0,0,-1,1679,638,0,0
462,386,0,0,0,0,0,0,0,0,0,-1,1686,638,0,0
469,386,9.84692,1.55804,0,0,0,0,0,0,0,-1,1693,638,9.84691,-1.55807
476,386,10.6145,0.986511,0,0,0,0,0,0,0,-1,1700,638,10.6145,-0.986529
483,386,11.4113,0.732971,0,0,0,0,0,0,0,-1,1707,638,11.4112,-0.732958
490,386,7.79785,1.79572,0,0,0,0,0,0,0,-1,1714,638,7.79788,-1.7957
497,386,8.96362,1.77081,0,0,0,0,0,0,0,-1,1721,638,8.96357,-1.77081
504,386,10.0555,1.69427,0,0,0,0,0,0,0,-1,1728,638,10.0555,-1.69426
511,386,11.2172,1.534,0,0,0,0,0,0,0,-1,1735,638,11.2172,-1.53398
518,386,7.41553,1.75238,0,0,0,0,0,0,0,-1,1742,638,7.41547,-1.75238
525,386,8.82422,-1.1449,0,0,0,0,0,0,0,-1,1749,638,8.82426,1.14492
532,386,10.6432,0.617371,0,0,0,0,0,0,0,-1,1756,638,10.6432,-0.617359
539,386,9.62061,-0.393616,0,0,0,0,0,0,0,-1,1763,638,9.62059,0.393634
546,386,10.7963,-2.854,0,0,0,0,0,0,0,-1,1770,638,10.7962,2.854
553,386,15.4197,-6.06274,0,0,0,0,0,0,0,-1,1777,638,15.4197,6.06275
560,386,15.5483,-5.58179,0.00226091,0.000761388,2.43325e-05,0.0022613,0.000760994,0.0162212,0.00132862,0.0435342,1784,638,15.5483,5.58179
567,386,15.4576,-5.27271,0.00172774,0.000519826,-1.74724e-05,0.00172799,0.000519574,-0.014461,0.00102374,0.0206674,1791,638,15.4576,5.27271
574,386,15.4955,-4.86816,0.00137445,0.000500662,6.48738e-05,0.00137924,0.000495872,0.0737058,0.000806712,0.014401,1798,638,15.4955,4.86819
581,386,15.4717,-4.44855,0.00110665,0.000615137,0.000204446,0.00118058,0.000541215,0.346945,0.00068239,0.0136962,1805,638,15.4717,4.44853
588,386,15.4775,-4.03113,0.000901655,0.000802928,0.000371692,0.00122725,0.000477336,0.719381,0.000714353,0.0126751,1812,638,15.4775,4.03114
595,386,15.4617,-3.62463,0.00091253,0.00110386,0.000646514,0.00166175,0.000354642,0.858852,0.00101058,0.014335,1819,638,15.4617,3.62462
602,386,15.4447,-3.19757,0.00111343,0.00155194,0.00109531,0.00244972,0.000215644,0.884182,0.00156622,0.0163886,1826,638,15.4447,3.19755
609,386,15.4606,-2.79315,0.00109762,0.00212977,0.00147241,0.00317393,5.34618e-05,0.953956,0.00209836,0.0155337,1833,638,15.4606,2.79314
616,386,15.4476,-2.35052,0.00105927,0.00269775,0.00179113,0.0038481,-9.1083e-05,0.999888,0.00259629,0.0116534,1840,638,15.4477,2.3505
623,386,15.4261,-1.91791,0.00110051,0.00341562,0.00223041,0.00477096,-0.000254838,1.02476,0.0032689,0.00965365,1847,638,15.4262,1.91788
630,386,15.5143,-1.45807,0.00098108,0.00405449,0.00263472,0.0055679,-0.000532333,1.0494,0.0039015,0.0291991,1854,638,15.5142,1.45809
637,386,15.6499,-0.983887,0,0,0,0,0,0,0,-1,1861,638,15.6499,0.983895
644,386,11.6521,0.723328,0,0,0,0,0,0,0,-1,1868,638,11.6521,-0.723355
651,386,9.3866,1.31097,0,0,0,0,0,0,0,-1,1875,638,9.3866,-1.31095
658,386,12.0731,-0.00415039,0,0,0,0,0,0,0,-1,1882,638,12.0731,0.00412803
665,386,6.33167,1.78601,0,0,0,0,0,0,0,-1,1889,638,6.33171,-1.78601
672,386,7.23352,2.14435,0,0,0,0,0,0,0,-1,1896,638,7.23353,-2.14433
679,386,8.07764,2.57104,0,0,0,0,0,0,0,-1,1903,638,8.07758,-2.57103
686,386,0,0,0,0,0,0,0,0,0,-1,1910,638,0,0
693,386,0,0,0,0,0,0,0,0,0,-1,1917,638,0,0
700,386,0,0,0,0,0,0,0,0,0,-1,1924,638,0,0
707,386,0,0,0,0,0,0,0,0,0,-1,1931,638,0,0
714,386,0,0,0,0,0,0,0,0,0,-1,1938,638,0,0
721,386,0,0,0,0,0,0,0,0,0,-1,1945,638,0,0
728,386,0,0,0,0,0,0,0,0,0,-1,1952,638,0,0
735,386,0,0,0,0,0,0,0,0,0,-1,1959,638,0,0
742,386,0,0,0,0,0,0,0,0,0,-1,1966,638,0,0
749,386,0,0,0,0,0,0,0,0,0,-1,1973,638,0,0
756,386,0,0,0,0,0,0,0,0,0,-1,1980,638,0,0
763,386,0,0,0,0,0,0,0,0,0,-1,1987,638,0,0
770,386,0,0,0,0,0,0,0,0,0,-1,1994,638,0,0
777,386,0,0,0,0,0,0,0,0,0,-1,2001,638,0,0
784,386,0,0,0,0,0,0,0,0,0,-1,2008,638,0,0
791,386,0,0,0,0,0,0,0,0,0,-1,2015,638,0,0
798,386,0,0,0,0,0,0,0,0,0,-1,2022,638,0,0
805,386,0,0,0,0,0,0,0,0,0,-1,2029,638,0,0
812,386,0,0,0,0,0,0,0,0,0,-1,2036,638,0,0
-700,379,0,0,0,0,0,0,0,0,0,-1,524,645,0,0
-693,379,0,0,0,0,0,0,0,0,0,-1,531,645,0,0
-686,379,0,0,0,0,0,0,0,0,0,-1,538,645,0,0
-679,379,0,0,0,0,0,0,0,0,0,-1,545,645,0,0
-672,379,0,0,0,0,0,0,0,0,0,-1,552,645,0,0
-665,379,0,0,0,0,0,0,0,0,0,-1,559,645,0,0
-658,379,0,0,0,0,0,0,0,0,0,-1,566,645,0,0
-651,379,0,0,0,0,0,0,0,0,0,-1,573,645,0,0
-644,379,0,0,0,0,0,0,0,0,0,-1,580,645,0,0
-637,379,0,0,0,0,0,0,0,0,0,-1,587,645,0,0
-630,379,0,0,0,0,0,0,0,0,0,-1,594,645,0,0
-623,379,0,0,0,0,0,0,0,0,0,-1,601,645,0,0
-616,379,0,0,0,0,0,0,0,0,0,-1,608,645,0,0
-609,379,0,0,0,0,0,0,0,0,0,-1,615,645,0,0
-602,379,0,0,0,0,0,0,0,0,0,-1,622,645,0,0
-595,379,0,0,0,0,0,0,0,0,0,-1,629,645,0,0
-588,379,0,0,0,0,0,0,0,0,0,-1,636,645,0,0
-581,379,0,0,0,0,0,0,0,0,0,-1,643,645,0,0
-574,379,0,0,0,0,0,0,0,0,0,-1,650,645,0,0
-567,379,-8.78058,0.59668,0,0,0,0,0,0,0,-1,657,645,-8.7806,-0.596692
-560,379,-9.53485,-0.211304,0,0,0,0,0,0,0,-1,664,645,-9.53487,0.211282
-553,379,-5.17108,-4.53119,0,0,0,0,0,0,0,-1,671,645,-5.17106,4.53117
-546,379,-6.23053,-4.92102,0,0,0,0,0,0,0,-1,678,645,-6.23054,4.92105
-539,379,-0.71698,-2.19427,0,0,0,0,0,0,0,-1,685,645,-0.716959,2.19427
-532,379,-7.69611,0.217224,0,0,0,0,0,0,0,-1,692,645,-7.69614,-0.217204
-525,379,-7.09833,-1.13043,0,0,0,0,0,0,0,-1,699,645,-7.0983,1.13041
-518,379,-7.80975,-2.59821,0,0,0,0,0,0,0,-1,706,645,-7.80977,2.59822
-511,379,-7.6861,-3.07202,0.00630541,-0.00174428,-0.00971996,0.0128009,-0.00823974,-0.589105,0.0122426,0.0421795,713,645,-7.68609,3.07201
-504,379,-7.83093,-3.40607,0.00288315,-0.000555652,-0.00532475,0.00675922,-0.00443172,-0.629229,0.00650751,0.0228786,720,645,-7.83094,3.40609
-497,379,-7.89941,-3.77802,0.00047283,8.15884e-05,-0.00185025,0.00213777,-0.00158335,-0.732731,0.00215633,0.0121044,727,645,-7.89943,3.778
-490,379,-7.88977,-4.18781,-0.000425601,0.000606223,-0.000341268,0.000708881,-0.00052826,-1.27859,0.000716797,0.0109982,734,645,-7.88979,4.18782
-483,379,-7.88672,-4.60394,0.000117466,0.000570599,-0.000438161,0.000837304,-0.000149239,-1.02401,0.000614025,0.0129142,741,645,-7.8867,4.60392
-476,379,-7.87793,-4.97998,0.000800109,0.000740629,-0.000789056,0.00155999,-1.92475e-05,-0.766562,0.00104646,0.0135803,748,645,-7.87794,4.97998
-469,379,-7.89948,-5.36664,0.00147763,0.00101706,-0.00122221,0.00249106,3.62261e-06,-0.692282,0.0016595,0.0121922,755,645,-7.89945,5.36661
-462,379,-7.92194,-5.78357,0.00198644,0.00126685,-0.00165457,0.00331988,-6.65898e-05,-0.678336,0.00223578,0.0095633,762,645,-7.92196,5.78357
-455,379,-7.93719,-6.16882,0.00257329,0.00163982,-0.00212243,0.0042797,-6.65809e-05,-0.677167,0.00287558,0.00949045,769,645,-7.93718,6.16879
-448,379,-7.94086,-6.5451,0.00308234,0.00199641,-0.00251596,0.00511326,-3.45067e-05,-0.679124,0.0034204,0.0112263,776,645,-7.94085,6.54512
-441,379,-7.92798,-6.99451,0.00349755,0.00202581,-0.00274104,0.00559978,-7.64257e-05,-0.654258,0.00375892,0.0192379,783,645,-7.92798,6.99449
-434,379,-7.75824,-7.53448,0,0,0,0,0,0,0,-1,790,645,-7.75827,7.53447
-427,379,-4.16113,-4.13452,0,0,0,0,0,0,0,-1,797,645,-4.16116,4.1345
-420,379,-4.63953,-3.46869,0,0,0,0,0,0,0,-1,804,645,-4.63953,3.46872
-413,379,-4.62543,-3.7912,0,0,0,0,0,0,0,-1,811,645,-4.62541,3.79123
-406,379,-4.64063,-4.38489,0,0,0,0,0,0,0,-1,818,645,-4.64065,4.3849
-399,379,-2.93536,-1.40118,0,0,0,0,0,0,0,-1,825,645,-2.93534,1.40119
-392,379,-4.16711,-0.466003,0,0,0,0,0,0,0,-1,832,645,-4.16714,0.465992
-385,379,-3.51862,0.441101,0,0,0,0,0,0,0,-1,839,645,-3.51859,-0.441072
-378,379,-5.3504,0.212219,0,0,0,0,0,0,0,-1,846,645,-5.35038,-0.212241
-371,379,-4.32092,-0.186707,0,0,0,0,0,0,0,-1,853,645,-4.3209,0.186707
-364,379,-3.40887,-0.549805,0,0,0,0,0,0,0,-1,860,645,-3.4089,0.549802
-357,379,0,0,0,0,0,0,0,0,0,-1,867,645,0,0
-350,379,0,0,0,0,0,0,0,0,0,-1,874,645,0,0
-343,379,0,0,0,0,0,0,0,0,0,-1,881,645,0,0
-336,379,0,0,0,0,0,0,0,0,0,-1,888,645,0,0
-329,379,0,0,0,0,0,0,0,0,0,-1,895,645,0,0
-322,379,0,0,0,0,0,0,0,0,0,-1,902,645,0,0
-315,379,0,0,0,0,0,0,0,0,0,-1,909,645,0,0
-308,379,0,0,0,0,0,0,0,0,0,-1,916,645,0,0
-301,379,0,0,0,0,0,0,0,0,0,-1,923,645,0,0
-294,379,0,0,0,0,0,0,0,0,0,-1,930,645,0,0
-287,379,0,0,0,0,0,0,0,0,0,-1,937,645,0,0
-280,379,0,0,0,0,0,0,0,0,0,-1,944,645,0,0
-273,379,0,0,0,0,0,0,0,0,0,-1,951,645,0,0
-266,379,0,0,0,0,0,0,0,0,0,-1,958,645,0,0
-259,379,0,0,0,0,0,0,0,0,0,-1,965,645,0,0
-252,379,0,0,0,0,0,0,0,0,0,-1,972,645,0,0
-245,379,0,0,0,0,0,0,0,0,0,-1,979,645,0,0
-238,379,0,0,0,0,0,0,0,0,0,-1,986,645,0,0
-231,379,0,0,0,0,0,0,0,0,0,-1,993,645,0,0
-224,379,0,0,0,0,0,0,0,0,0,-1,1000,645,0,0
-217,379,0,0,0,0,0,0,0,0,0,-1,1007,645,0,0
-210,379,0,0,0,0,0,0,0,0,0,-1,1014,645,0,0
-203,379,0,0,0,0,0,0,0,0,0,-1,1021,645,0,0
-196,379,0,0,0,0,0,0,0,0,0,-1,1028,645,0,0
-189,379,0,0,0,0,0,0,0,0,0,-1,1035,645,0,0
-182,379,0,0,0,0,0,0,0,0,0,-1,1042,645,0,0
-175,379,0,0,0,0,0,0,0,0,0,-1,1049,645,0,0
-168,379,0,0,0,0,0,0,0,0,0,-1,1056,645,0,0
-161,379,0,0,0,0,0,0,0,0,0,-1,1063,645,0,0
-154,379,0,0,0,0,0,0,0,0,0,-1,1070,645,0,0
-147,379,0,0,0,0,0,0,0,0,0,-1,1077,645,0,0
-140,379,0,0,0,0,0,0,0,0,0,-1,1084,645,0,0
-133,379,0,0,0,0,0,0,0,0,0,-1,1091,645,0,0
-126,379,0,0,0,0,0,0,0,0,0,-1,1098,645,0,0
-119,379,0,0,0,0,0,0,0,0,0,-1,1105,645,0,0
-112,379,0,0,0,0,0,0,0,0,0,-1,1112,645,0,0
-105,379,0,0,0,0,0,0,0,0,0,-1,1119,645,0,0
-98,379,0,0,0,0,0,0,0,0,0,-1,1126,645,0,0
-91,379,0,0,0,0,0,0,0,0,0,-1,1133,645,0,0
-84,379,0,0,0,0,0,0,0,0,0,-1,1140,645,0,0
-77,379,0,0,0,0,0,0,0,0,0,-1,1147,645,0,0
-70,379,0,0,0,0,0,0,0,0,0,-1,1154,645,0,0
-63,379,0,0,0,0,0,0,0,0,0,-1,1161,645,0,0
-56,379,0,0,0,0,0,0,0,0,0,-1,1168,645,0,0
-49,379,0,0,0,0,0,0,0,0,0,-1,1175,645,0,0
-42,379,0,0,0,0,0,0,0,0,0,-1,1182,645,0,0
-35,379,0,0,0,0,0,0,0,0,0,-1,1189,645,0,0
-28,379,0,0,0,0,0,0,0,0,0,-1,1196,645,0,0
-21,379,0,0,0,0,0,0,0,0,0,-1,1203,645,0,0
-14,379,0,0,0,0,0,0,0,0,0,-1,1210,645,0,0
-7,379,0,0,0,0,0,0,0,0,0,-1,1217,645,0,0
0,379,0,0,0,0,0,0,0,0,0,-1,1224,645,0,0
7,379,0,0,0,0,0,0,0,0,0,-1,1231,645,0,0
14,379,0,0,0,0,0,0,0,0,0,-1,1238,645,0,0
21,379,0,0,0,0,0,0,0,0,0,-1,1245,645,0,0
28,379,0,0,0,0,0,0,0,0,0,-1,1252,645,0,0
35,379,0,0,0,0,0,0,0,0,0,-1,1259,645,0,0
42,379,0,0,0,0,0,0,0,0,0,-1,1266,645,0,0
49,379,0,0,0,0,0,0,0,0,0,-1,1273,645,0,0
56,379,0,0,0,0,0,0,0,0,0,-1,1280,645,0,0
63,379,0,0,0,0,0,0,0,0,0,-1,1287,645,0,0
70,379,0,0,0,0,0,0,0,0,0,-1,1294,645,0,0
77,379,0,0,0,0,0,0,0,0,0,-1,1301,645,0,0
84,379,0,0,0,0,0,0,0,0,0,-1,1308,645,0,0
91,379,0,0,0,0,0,0,0,0,0,-1,1315,645,0,0
98,379,0,0,0,0,0,0,0,0,0,-1,1322,645,0,0
105,379,0,0,0,0,0,0,0,0,0,-1,1329,645,0,0
112,379,0,0,0,0,0,0,0,0,0,-1,1336,645,0,0
119,379,0,0,0,0,0,0,0,0,0,-1,1343,645,0,0
126,379,0,0,0,0,0,0,0,0,0,-1,1350,645,0,0
133,379,0,0,0,0,0,0,0,0,0,-1,1357,645,0,0
140,379,0,0,0,0,0,0,0,0,0,-1,1364,645,0,0
147,379,0,0,0,0,0,0,0,0,0,-1,1371,645,0,0
154,379,0,0,0,0,0,0,0,0,0,-1,1378,645,0,0
161,379,0,0,0,0,0,0,0,0,0,-1,1385,645,0,0
168,379,0,0,0,0,0,0,0,0,0,-1,1392,645,0,0
175,379,0,0,0,0,0,0,0,0,0,-1,1399,645,0,0
182,379,0,0,0,0,0,0,0,0,0,-1,1406,645,0,0
189,379,0,0,0,0,0,0,0,0,0,-1,1413,645,0,0
196,379,0,0,0,0,0,0,0,0,0,-1,1420,645,0,0
203,379,0,0,0,0,0,0,0,0,0,-1,1427,645,0,0
210,379,0,0,0,0,0,0,0,0,0,-1,1434,645,0,0
217,379,0,0,0,0,0,0,0,0,0,-1,1441,645,0,0
224,379,0,0,0,0,0,0,0,0,0,-1,1448,645,0,0
231,379,0,0,0,0,0,0,0,0,0,-1,1455,645,0,0
238,379,0,0,0,0,0,0,0,0,0,-1,1462,645,0,0
245,379,0,0,0,0,0,0,0,0,0,-1,1469,645,0,0
252,379,0,0,0,0,0,0,0,0,0,-1,1476,645,0,0
259,379,0,0,0,0,0,0,0,0,0,-1,1483,645,0,0
266,379,0,0,0,0,0,0,0,0,0,-1,1490,645,0,0
273,379,0,0,0,0,0,0,0,0,0,-1,1497,645,0,0
280,379,0,0,0,0,0,0,0,0,0,-1,1504,645,0,0
287,379,0,0,0,0,0,0,0,0,0,-1,1511,645,0,0
294,379,0,0,0,0,0,0,0,0,0,-1,1518,645,0,0
301,379,0,0,0,0,0,0,0,0,0,-1,1525,645,0,0
308,379,0,0,0,0,0,0,0,0,0,-1,1532,645,0,0
315,379,0,0,0,0,0,0,0,0,0,-1,1539,645,0,0
322,379,0,0,0,0,0,0,0,0,0,-1,1546,645,0,0
329,379,0,0,0,0,0,0,0,0,0,-1,1553,645,0,0
336,379,0,0,0,0,0,0,0,0,0,-1,1560,645,0,0
343,379,0,0,0,0,0,0,0,0,0,-1,1567,645,0,0
350,379,0,0,0,0,0,0,0,0,0,-1,1574,645,0,0
357,379,0,0,0,0,0,0,0,0,0,-1,1581,645,0,0
364,379,0,0,0,0,0,0,0,0,0,-1,1588,645,0,0
371,379,0,0,0,0,0,0,0,0,0,-1,1595,645,0,0
378,379,0,0,0,0,0,0,0,0,0,-1,1602,645,0,0
385,379,0,0,0,0,0,0,0,0,0,-1,1609,645,0,0
392,379,0,0,0,0,0,0,0,0,0,-1,1616,645,0,0
399,379,0,0,0,0,0,0,0,0,0,-1,1623,645,0,0
406,379,0,0,0,0,0,0,0,0,0,-1,1630,645,0,0
413,379,0,0,0,0,0,0,0,0,0,-1,1637,645,0,0
420,379,0,0,0,0,0,0,0,0,0,-1,1644,645,0,0
427,379,0,0,0,0,0,0,0,0,0,-1,1651,645,0,0
434,379,0,0,0,0,0,0,0,0,0,-1,1658,645,0,0
441,379,0,0,0,0,0,0,0,0,0,-1,1665,645,0,0
448,379,0,0,0,0,0,0,0,0,0,-1,1672,645,0,0
455,379,0,0,0,0,0,0,0,0,0,-1,1679,645,0,0
462,379,0,0,0,0,0,0,0,0,0,-1,1686,645,0,0
469,379,0,0,0,0,0,0,0,0,0,-1,1693,645,0,0
476,379,11.1787,0.830383,0,0,0,0,0,0,0,-1,1700,645,11.1787,-0.830365
483,379,7.4231,1.54321,0,0,0,0,0,0,0,-1,1707,645,7.42314,-1.54324
490,379,8.52881,1.56677,0,0,0,0,0,0,0,-1,1714,645,8.52878,-1.56677
497,379,9.63599,1.49573,0,0,0,0,0,0,0,-1,1721,645,9.63604,-1.4957
504,379,10.0833,1.35229,0,0,0,0,0,0,0,-1,1728,645,10.0832,-1.35227
511,379,8.14343,1.59912,0,0,0,0,0,0,0,-1,1735,645,8.14347,-1.59912
518,379,12.7955,-0.324097,0,0,0,0,0,0,0,-1,1742,645,12.7955,0.324101
525,379,6.03711,1.10352,0,0,0,0,0,0,0,-1,1749,645,6.03711,-1.10351
532,379,8.70947,0.887817,0,0,0,0,0,0,0,-1,1756,645,8.70953,-0.887808
539,379,9.87097,0.111389,0,0,0,0,0,0,0,-1,1763,645,9.87095,-0.111395
546,379,8.42383,-0.730652,0,0,0,0,0,0,0,-1,1770,645,8.42378,0.730638
553,379,16.5718,-6.06122,0,0,0,0,0,0,0,-1,1777,645,16.5718,6.06124
560,379,16.2351,-5.60767,0,0,0,0,0,0,0,-1,1784,645,16.2352,5.60767
567,379,15.8986,-5.15411,0,0,0,0,0,0,0,-1,1791,645,15.8986,5.1541
574,379,15.9199,-4.8399,0.0015903,0.000602711,6.17187e-05,0.00159414,0.000598869,0.0621718,0.000929816,0.0124422,1798,645,15.9199,4.83993
581,379,15.9187,-4.42365,0.00134378,0.000707017,0.000219616,0.00141218,0.000638619,0.30192,0.00081656,0.0146308,1805,645,15.9186,4.42363
588,379,15.9044,-4.02106,0.00116663,0.000843268,0.000387494,0.00142482,0.000585078,0.587755,0.000826989,0.0170862,1812,645,15.9044,4.02109
595,379,15.8796,-3.61743,0.00117086,0.00107013,0.000610073,0.00173264,0.000508347,0.744211,0.00102842,0.0146659,1819,645,15.8797,3.61741
602,379,15.8677,-3.21106,0.00136066,0.00142768,0.000991813,0.00238655,0.000401795,0.802286,0.00147545,0.015567,1826,645,15.8677,3.21108
609,379,15.8417,-2.79028,0.00129441,0.00191925,0.00129047,0.00293458,0.000279082,0.904161,0.00187031,0.016833,1833,645,15.8417,2.79025
616,379,15.8317,-2.3623,0.0011607,0.00236577,0.00151791,0.00339637,0.000130109,0.974334,0.00222214,0.0131224,1840,645,15.8317,2.3623
623,379,15.8456,-1.9071,0.00103241,0.00290676,0.00179617,0.00399554,-5.63799e-05,1.02585,0.00268269,0.0111017,1847,645,15.8456,1.90713
630,379,15.8412,-1.4939,0.000633167,0.00328401,0.00202538,0.00437911,-0.000461928,1.07513,0.00308493,0.0126563,1854,645,15.8412,1.49388
637,379,15.8448,-0.995117,-0.000153659,0.0038964,0.00219447,0.00485741,-0.00111467,1.15803,0.00366675,0.0294621,1861,645,15.8449,0.995125
644,379,16.1296,-0.273804,0,0,0,0,0,0,0,-1,1868,645,16.1297,0.27381
651,379,12.9515,0.220825,0,0,0,0,0,0,0,-1,1875,645,12.9515,-0.220814
658,379,13.7498,0.37439,0,0,0,0,0,0,0,-1,1882,645,13.7498,-0.374371
665,379,11.9719,0.353333,0,0,0,0,0,0,0,-1,1889,645,11.9719,-0.353321
672,379,7.57605,2.15326,0,0,0,0,0,0,0,-1,1896,645,7.57599,-2.15326
679,379,8.55078,2.50409,0,0,0,0,0,0,0,-1,1903,645,8.55073,-2.50406
686,379,0,0,0,0,0,0,0,0,0,-1,1910,645,0,0
693,379,0,0,0,0,0,0,0,0,0,-1,1917,645,0,0
700,379,0,0,0,0,0,0,0,0,0,-1,1924,645,0,0
707,379,0,0,0,0,0,0,0,0,0,-1,1931,645,0,0
714,379,0,0,0,0,0,0,0,0,0,-1,1938,645,0,0
721,379,0,0,0,0,0,0,0,0,0,-1,1945,645,0,0
728,379,0,0,0,0,0,0,0,0,0,-1,1952,645,0,0
735,379,0,0,0,0,0,0,0,0,0,-1,1959,645,0,0
742,379,0,0,0,0,0,0,0,0,0,-1,1966,645,0,0
749,379,0,0,0,0,0,0,0,0,0,-1,1973,645,0,0
756,379,0,0,0,0,0,0,0,0,0,-1,1980,645,0,0
763,379,0,0,0,0,0,0,0,0,0,-1,1987,645,0,0
770,379,0,0,0,0,0,0,0,0,0,-1,1994,645,0,0
777,379,0,0,0,0,0,0,0,0,0,-1,2001,645,0,0
784,379,0,0,0,0,0,0,0,0,0,-1,2008,645,0,0
791,379,0,0,0,0,0,0,0,0,0,-1,2015,645,0,0
798,379,0,0,0,0,0,0,0,0,0,-1,2022,645,0,0
805,379,0,0,0,0,0,0,0,0,0,-1,2029,645,0,0
812,379,0,0,0,0,0,0,0,0,0,-1,2036,645,0,0
-700,372,0,0,0,0,0,0,0,0,0,-1,524,652,0,0
-693,372,0,0,0,0,0,0,0,0,0,-1,531,652,0,0
-686,372,0,0,0,0,0,0,0,0,0,-1,538,652,0,0
-679,372,0,0,0,0,0,0,0,0,0,-1,545,652,0,0
-672,372,0,0,0,0,0,0,0,0,0,-1,552,652,0,0
-665,372,0,0,0,0,0,0,0,0,0,-1,559,652,0,0
-658,372,0,0,0,0,0,0,0,0,0,-1,566,652,0,0
-651,372,0,0,0,0,0,0,0,0,0,-1,573,652,0,0
-644,372,0,0,0,0,0,0,0,0,0,-1,580,652,0,0
-637,372,0,0,0,0,0,0,0,0,0,-1,587,652,0,0
-630,372,0,0,0,0,0,0,0,0,0,-1,594,652,0,0
-623,372,0,0,0,0,0,0,0,0,0,-1,601,652,0,0
-616,372,0,0,0,0,0,0,0,0,0,-1,608,652,0,0
-609,372,0,0,0,0,0,0,0,0,0,-1,615,652,0,0
-602,372,0,0,0,0,0,0,0,0,0,-1,622,652,0,0
-595,372,0,0,0,0,0,0,0,0,0,-1,629,652,0,0
-588,372,0,0,0,0,0,0,0,0,0,-1,636,652,0,0
-581,372,0,0,0,0,0,0,0,0,0,-1,643,652,0,0
-574,372,0,0,0,0,0,0,0,0,0,-1,650,652,0,0
-567,372,-7.93744,0.73407,0,0,0,0,0,0,0,-1,657,652,-7.93741,-0.734076
-560,372,-8.78552,-0.158203,0,0,0,0,0,0,0,-1,664,652,-8.78552,0.158216
-553,372,-7.95551,1.61694,0,0,0,0,0,0,0,-1,671,652,-7.95552,-1.61697
-546,372,-4.2403,-3.75372,0,0,0,0,0,0,0,-1,678,652,-4.24028,3.75369
-539,372,-7.92285,-0.0650024,0,0,0,0,0,0,0,-1,685,652,-7.92287,0.0649772
-532,372,-8.59589,-0.419556,0,0,0,0,0,0,0,-1,692,652,-8.59591,0.419539
-525,372,-8.03674,-1.36804,0,0,0,0,0,0,0,-1,699,652,-8.03676,1.36806
-518,372,-8.28717,-2.53687,0,0,0,0,0,0,0,-1,706,652,-8.28717,2.53689
-511,372,-8.24957,-3.01294,0.00620984,-0.00118249,-0.00920015,0.0124285,-0.00740118,-0.594391,0.0115707,0.0260367,713,652,-8.2496,3.01296
-504,372,-8.27203,-3.37561,0.00306533,-0.000269458,-0.00513685,0.00679862,-0.00400275,-0.628465,0.00630543,0.014352,720,652,-8.27201,3.37562
-497,372,-8.27405,-3.78882,0.00083929,0.000188421,-0.00190877,0.00245017,-0.00142246,-0.700963,0.00226195,0.0113252,727,652,-8.27403,3.78881
-490,372,-8.29285,-4.17096,6.84998e-07,0.000644114,-0.000476676,0.000897483,-0.000252684,-1.08224,0.000697966,0.0119834,734,652,-8.29288,4.17095
-483,372,-8.29584,-4.56049,0.000548804,0.000634499,-0.000576857,0.0011701,1.3205e-05,-0.822469,0.000775701,0.0123841,741,652,-8.29586,4.56051
-476,372,-8.28546,-4.9295,0.00126191,0.000871159,-0.000978638,0.00206448,6.8584e-05,-0.686874,0.00135404,0.0138221,748,652,-8.28543,4.92951
-469,372,-8.29724,-5.31543,0.00197839,0.00123952,-0.00149118,0.00314521,7.26965e-05,-0.66397,0.002073,0.0114278,755,652,-8.29723,5.31541
-462,372,-8.30109,-5.75183,0.00254589,0.00161986,-0.00203348,0.00416841,-2.65427e-06,-0.673458,0.00277982,0.00962788,762,652,-8.30111,5.75181
-455,372,-8.33142,-6.15607,0.00320536,0.00213454,-0.00262148,0.00534554,-5.64125e-06,-0.684664,0.00356558,0.00958139,769,652,-8.33143,6.15609
-448,372,-8.32849,-6.5509,0.00381292,0.0027467,-0.00322735,0.00655089,8.72882e-06,-0.703545,0.00436435,0.0116741,776,652,-8.32848,6.55091
-441,372,-8.15552,-7.14386,0.00443027,0.00305215,-0.00372141,0.00752588,-4.34543e-05,-0.693855,0.0050318,0.0456384,783,652,-8.15549,7.14389
-434,372,-8.05859,-7.87238,0,0,0,0,0,0,0,-1,790,652,-8.05859,7.8724
-427,372,-4.54248,-3.56268,0,0,0,0,0,0,0,-1,797,652,-4.54247,3.56266
-420,372,-4.66168,-2.93597,0,0,0,0,0,0,0,-1,804,652,-4.66166,2.93599
-413,372,-4.74762,-3.29541,0,0,0,0,0,0,0,-1,811,652,-4.74763,3.29542
-406,372,-0.885437,-0.583923,0,0,0,0,0,0,0,-1,818,652,-0.885437,0.5839
-399,372,-3.97357,-0.825012,0,0,0,0,0,0,0,-1,825,652,-3.97359,0.825037
-392,372,-7.64337,0.173035,0,0,0,0,0,0,0,-1,832,652,-7.64337,-0.173019
-385,372,-6.48871,-0.0271606,0,0,0,0,0,0,0,-1,839,652,-6.48874,0.0271353
-378,372,-5.33044,-0.242432,0,0,0,0,0,0,0,-1,846,652,-5.33042,0.242457
-371,372,-4.40802,-0.495667,0,0,0,0,0,0,0,-1,853,652,-4.40802,0.495661
-364,372,0,0,0,0,0,0,0,0,0,-1,860,652,0,0
-357,372,0,0,0,0,0,0,0,0,0,-1,867,652,0,0
-350,372,0,0,0,0,0,0,0,0,0,-1,874,652,0,0
-343,372,0,0,0,0,0,0,0,0,0,-1,881,652,0,0
-336,372,0,0,0,0,0,0,0,0,0,-1,888,652,0,0
-329,372,0,0,0,0,0,0,0,0,0,-1,895,652,0,0
-322,372,0,0,0,0,0,0,0,0,0,-1,902,652,0,0
-315,372,0,0,0,0,0,0,0,0,0,-1,909,652,0,0
-308,372,0,0,0,0,0,0,0,0,0,-1,916,652,0,0
-301,372,0,0,0,0,0,0,0,0,0,-1,923,652,0,0
-294,372,0,0,0,0,0,0,0,0,0,-1,930,652,0,0
-287,372,0,0,0,0,0,0,0,0,0,-1,937,652,0,0
-280,372,0,0,0,0,0,0,0,0,0,-1,944,652,0,0
-273,372,0,0,0,0,0,0,0,0,0,-1,951,652,0,0
-266,372,0,0,0,0,0,0,0,0,0,-1,958,652,0,0
-259,372,0,0,0,0,0,0,0,0,0,-1,965,652,0,0
-252,372,0,0,0,0,0,0,0,0,0,-1,972,652,0,0
-245,372,0,0,0,0,0,0,0,0,0,-1,979,652,0,0
-238,372,0,0,0,0,0,0,0,0,0,-1,986,652,0,0
-231,372,0,0,0,0,0,0,0,0,0,-1,993,652,0,0
-224,372,0,0,0,0,0,0,0,0,0,-1,1000,652,0,0
-217,372,0,0,0,0,0,0,0,0,0,-1,1007,652,0,0
-210,372,0,0,0,0,0,0,0,0,0,-1,1014,652,0,0
-203,372,0,0,0,0,0,0,0,0,0,-1,1021,652,0,0
-196,372,0,0,0,0,0,0,0,0,0,-1,1028,652,0,0
-189,372,0,0,0,0,0,0,0,0,0,-1,1035,652,0,0
-182,372,0,0,0,0,0,0,0,0,0,-1,1042,652,0,0
-175,372,0,0,0,0,0,0,0,0,0,-1,1049,652,0,0
-168,372,0,0,0,0,0,0,0,0,0,-1,1056,652,0,0
-161,372,0,0,0,0,0,0,0,0,0,-1,1063,652,0,0
-154,372,0,0,0,0,0,0,0,0,0,-1,1070,652,0,0
-147,372,0,0,0,0,0,0,0,0,0,-1,1077,652,0,0
-140,372,0,0,0,0,0,0,0,0,0,-1,1084,652,0,0
-133,372,0,0,0,0,0,0,0,0,0,-1,1091,652,0,0
-126,372,0,0,0,0,0,0,0,0,0,-1,1098,652,0,0
-119,372,0,0,0,0,0,0,0,0,0,-1,1105,652,0,0
-112,372,0,0,0,0,0,0,0,0,0,-1,1112,652,0,0
-105,372,0,0,0,0,0,0,0,0,0,-1,1119,652,0,0
-98,372,0,0,0,0,0,0,0,0,0,-1,1126,652,0,0
-91,372,0,0,0,0,0,0,0,0,0,-1,1133,652,0,0
-84,372,0,0,0,0,0,0,0,0,0,-1,1140,652,0,0
-77,372,0,0,0,0,0,0,0,0,0,-1,1147,652,0,0
-70,372,0,0,0,0,0,0,0,0,0,-1,1154,652,0,0
-63,372,0,0,0,0,0,0,0,0,0,-1,1161,652,0,0
-56,372,0,0,0,0,0,0,0,0,0,-1,1168,652,0,0
-49,372,0,0,0,0,0,0,0,0,0,-1,1175,652,0,0
-42,372,0,0,0,0,0,0,0,0,0,-1,1182,652,0,0
-35,372,0,0,0,0,0,0,0,0,0,-1,1189,652,0,0
-28,372,0,0,0,0,0,0,0,0,0,-1,1196,652,0,0
-21,372,0,0,0,0,0,0,0,0,0,-1,1203,652,0,0
-14,372,0,0,0,0,0,0,0,0,0,-1,1210,652,0,0
-7,372,0,0,0,0,0,0,0,0,0,-1,1217,652,0,0
0,372,0,0,0,0,0,0,0,0,0,-1,1224,652,0,0
7,372,0,0,0,0,0,0,0,0,0,-1,1231,652,0,0
14,372,0,0,0,0,0,0,0,0,0,-1,1238,652,0,0
21,372,0,0,0,0,0,0,0,0,0,-1,1245,652,0,0
28,372,0,0,0,0,0,0,0,0,0,-1,1252,652,0,0
35,372,0,0,0,0,0,0,0,0,0,-1,1259,652,0,0
42,372,0,0,0,0,0,0,0,0,0,-1,1266,652,0,0
49,372,0,0,0,0,0,0,0,0,0,-1,1273,652,0,0
56,372,0,0,0,0,0,0,0,0,0,-1,1280,652,0,0
63,372,0,0,0,0,0,0,0,0,0,-1,1287,652,0,0
70,372,0,0,0,0,0,0,0,0,0,-1,1294,652,0,0
77,372,0,0,0,0,0,0,0,0,0,-1,1301,652,0,0
84,372,0,0,0,0,0,0,0,0,0,-1,1308,652,0,0
91,372,0,0,0,0,0,0,0,0,0,-1,1315,652,0,0
98,372,0,0,0,0,0,0,0,0,0,-1,1322,652,0,0
105,372,0,0,0,0,0,0,0,0,0,-1,1329,652,0,0
112,372,0,0,0,0,0,0,0,0,0,-1,1336,652,0,0
119,372,0,0,0,0,0,0,0,0,0,-1,1343,652,0,0
126,372,0,0,0,0,0,0,0,0,0,-1,1350,652,0,0
133,372,0,0,0,0,0,0,0,0,0,-1,1357,652,0,0
140,372,0,0,0,0,0,0,0,0,0,-1,1364,652,0,0
147,372,0,0,0,0,0,0,0,0,0,-1,1371,652,0,0
154,372,0,0,0,0,0,0,0,0,0,-1,1378,652,0,0
161,372,0,0,0,0,0,0,0,0,0,-1,1385,652,0,0
168,372,0,0,0,0,0,0,0,0,0,-1,1392,652,0,0
175,372,0,0,0,0,0,0,0,0,0,-1,1399,652,0,0
182,372,0,0,0,0,0,0,0,0,0,-1,1406,652,0,0
189,372,0,0,0,0,0,0,0,0,0,-1,1413,652,0,0
196,372,0,0,0,0,0,0,0,0,0,-1,1420,652,0,0
203,372,0,0,0,0,0,0,0,0,0,-1,1427,652,0,0
210,372,0,0,0,0,0,0,0,0,0,-1,1434,652,0,0
217,372,0,0,0,0,0,0,0,0,0,-1,1441,652,0,0
224,372,0,0,0,0,0,0,0,0,0,-1,1448,652,0,0
231,372,0,0,0,0,0,0,0,0,0,-1,1455,652,0,0
238,372,0,0,0,0,0,0,0,0,0,-1,1462,652,0,0
245,372,0,0,0,0,0,0,0,0,0,-1,1469,652,0,0
252,372,0,0,0,0,0,0,0,0,0,-1,1476,652,0,0
259,372,0,0,0,0,0,0,0,0,0,-1,1483,652,0,0
266,372,0,0,0,0,0,0,0,0,0,-1,1490,652,0,0
273,372,0,0,0,0,0,0,0,0,0,-1,1497,652,0,0
280,372,0,0,0,0,0,0,0,0,0,-1,1504,652,0,0
287,372,0,0,0,0,0,0,0,0,0,-1,1511,652,0,0
294,372,0,0,0,0,0,0,0,0,0,-1,1518,652,0,0
301,372,0,0,0,0,0,0,0,0,0,-1,1525,652,0,0
308,372,0,0,0,0,0,0,0,0,0,-1,1532,652,0,0
315,372,0,0,0,0,0,0,0,0,0,-1,1539,652,0,0
322,372,0,0,0,0,0,0,0,0,0,-1,1546,652,0,0
329,372,0,0,0,0,0,0,0,0,0,-1,1553,652,0,0
336,372,0,0,0,0,0,0,0,0,0,-1,1560,652,0,0
343,372,0,0,0,0,0,0,0,0,0,-1,1567,652,0,0
350,372,0,0,0,0,0,0,0,0,0,-1,1574,652,0,0
357,372,0,0,0,0,0,0,0,0,0,-1,1581,652,0,0
364,372,0,0,0,0,0,0,0,0,0,-1,1588,652,0,0
371,372,0,0,0,0,0,0,0,0,0,-1,1595,652,0,0
378,372,0,0,0,0,0,0,0,0,0,-1,1602,652,0,0
385,372,0,0,0,0,0,0,0,0,0,-1,1609,652,0,0
392,372,0,0,0,0,0,0,0,0,0,-1,1616,652,0,0
399,372,0,0,0,0,0,0,0,0,0,-1,1623,652,0,0
406,372,0,0,0,0,0,0,0,0,0,-1,1630,652,0,0
413,372,0,0,0,0,0,0,0,0,0,-1,1637,652,0,0
420,372,0,0,0,0,0,0,0,0,0,-1,1644,652,0,0
427,372,0,0,0,0,0,0,0,0,0,-1,1651,652,0,0
434,372,0,0,0,0,0,0,0,0,0,-1,1658,652,0,0
441,372,0,0,0,0,0,0,0,0,0,-1,1665,652,0,0
448,372,0,0,0,0,0,0,0,0,0,-1,1672,652,0,0
455,372,0,0,0,0,0,0,0,0,0,-1,1679,652,0,0
462,372,0,0,0,0,0,0,0,0,0,-1,1686,652,0,0
469,372,0,0,0,0,0,0,0,0,0,-1,1693,652,0,0
476,372,0,0,0,0,0,0,0,0,0,-1,1700,652,0,0
483,372,8.74182,1.53125,0,0,0,0,0,0,0,-1,1707,652,8.74186,-1.53126
490,372,9.78455,1.67096,0,0,0,0,0,0,0,-1,1714,652,9.7846,-1.67093
497,372,9.97644,1.46069,0,0,0,0,0,0,0,-1,1721,652,9.97647,-1.46071
504,372,10.1216,1.28375,0,0,0,0,0,0,0,-1,1728,652,10.1216,-1.28376
511,372,11.7367,-0.0272217,0,0,0,0,0,0,0,-1,1735,652,11.7367,0.0272326
518,372,12.0657,-0.0995483,0,0,0,0,0,0,0,-1,1742,652,12.0657,0.0995285
525,372,12.3947,-0.171814,0,0,0,0,0,0,0,-1,1749,652,12.3946,0.171824
532,372,9.36597,1.72034,0,0,0,0,0,0,0,-1,1756,652,9.36597,-1.72036
539,372,7.82886,-0.0865479,0,0,0,0,0,0,0,-1,1763,652,7.82882,0.0865771
546,372,10.953,-0.187195,0,0,0,0,0,0,0,-1,1770,652,10.953,0.187181
553,372,14.1201,-4.83234,0,0,0,0,0,0,0,-1,1777,652,14.1201,4.83235
560,372,16.683,-5.65491,0,0,0,0,0,0,0,-1,1784,652,16.683,5.6549
567,372,16.3354,-5.22168,0,0,0,0,0,0,0,-1,1791,652,16.3354,5.22166
574,372,16.3494,-4.78766,0.00172315,0.000853694,0.000116522,0.00173849,0.000838349,0.13094,0.00100393,0.0221685,1798,652,16.3494,4.78766
581,372,16.3484,-4.44043,0.00147935,0.000881575,0.000262241,0.00157809,0.000782839,0.360091,0.000911117,0.0171364,1805,652,16.3484,4.44045
588,372,16.3239,-4.0321,0.00131914,0.00090444,0.000406443,0.00156807,0.000655512,0.549526,0.000909371,0.0168581,1812,652,16.3238,4.03213
595,372,16.2958,-3.60205,0.00128836,0.000999332,0.000541996,0.00170478,0.000582916,0.655111,0.00100052,0.0141812,1819,652,16.2958,3.60203
602,372,16.3009,-3.19623,0.00145081,0.00123024,0.000833349,0.00218114,0.000499913,0.719609,0.00131941,0.0146106,1826,652,16.3009,3.19626
609,372,16.2313,-2.77924,0.00137353,0.00161174,0.0010713,0.00257053,0.000414732,0.840759,0.00159354,0.0163103,1833,652,16.2313,2.77921
616,372,16.2549,-2.33698,0.00118529,0.00193764,0.00123229,0.00284989,0.000273038,0.933538,0.00181577,0.0160089,1840,652,16.2548,2.33699
623,372,16.2795,-1.88293,0.000940129,0.00232431,0.00139296,0.00318763,7.68041e-05,1.01596,0.00209995,0.0130689,1847,652,16.2795,1.88291
630,372,16.2799,-1.46075,0.000368419,0.00252053,0.00150753,0.00329665,-0.000407694,1.09536,0.0023455,0.0168146,1854,652,16.2799,1.46074
637,372,16.3098,-1.07452,-0.000626163,0.00287187,0.00155168,0.00346097,-0.00121525,1.20796,0.00280167,0.0211666,1861,652,16.3098,1.07455
644,372,16.3945,-0.529175,-0.00202677,0.0030837,0.00154037,0.00351208,-0.00245515,1.29955,0.00346315,0.0338623,1868,652,16.3945,0.529202
651,372,16.5255,-0.019104,0,0,0,0,0,0,0,-1,1875,652,16.5255,0.0190785
658,372,14.157,0.280273,0,0,0,0,0,0,0,-1,1882,652,14.157,-0.280264
665,372,13.421,0.714966,0,0,0,0,0,0,0,-1,1889,652,13.4211,-0.714941
672,372,9.34106,1.48444,0,0,0,0,0,0,0,-1,1896,652,9.34109,-1.48444
679,372,10.7308,2.32391,0,0,0,0,0,0,0,-1,1903,652,10.7309,-2.3239
686,372,11.6295,2.52997,0,0,0,0,0,0,0,-1,1910,652,11.6296,-2.52996
693,372,0,0,0,0,0,0,0,0,0,-1,1917,652,0,0
700,372,0,0,0,0,0,0,0,0,0,-1,1924,652,0,0
707,372,0,0,0,0,0,0,0,0,0,-1,1931,652,0,0
714,372,0,0,0,0,0,0,0,0,0,-1,1938,652,0,0
721,372,0,0,0,0,0,0,0,0,0,-1,1945,652,0,0
728,372,0,0,0,0,0,0,0,0,0,-1,1952,652,0,0
735,372,0,0,0,0,0,0,0,0,0,-1,1959,652,0,0
742,372,0,0,0,0,0,0,0,0,0,-1,1966,652,0,0
749,372,0,0,0,0,0,0,0,0,0,-1,1973,652,0,0
756,372,0,0,0,0,0,0,0,0,0,-1,1980,652,0,0
763,372,0,0,0,0,0,0,0,0,0,-1,1987,652,0,0
770,372,0,0,0,0,0,0,0,0,0,-1,1994,652,0,0
777,372,0,0,0,0,0,0,0,0,0,-1,2001,652,0,0
784,372,0,0,0,0,0,0,0,0,0,-1,2008,652,0,0
791,372,0,0,0,0,0,0,0,0,0,-1,2015,652,0,0
798,372,0,0,0,0,0,0,0,0,0,-1,2022,652,0,0
805,372,0,0,0,0,0,0,0,0,0,-1,2029,652,0,0
812,372,0,0,0,0,0,0,0,0,0,-1,2036,652,0,0
-700,365,0,0,0,0,0,0,0,0,0,-1,524,659,0,0
-693,365,0,0,0,0,0,0,0,0,0,-1,531,659,0,0
-686,365,0,0,0,0,0,0,0,0,0,-1,538,659,0,0
-679,365,0,0,0,0,0,0,0,0,0,-1,545,659,0,0
-672,365,0,0,0,0,0,0,0,0,0,-1,552,659,0,0
-665,365,0,0,0,0,0,0,0,0,0,-1,559,659,0,0
-658,365,0,0,0,0,0,0,0,0,0,-1,566,659,0,0
-651,365,0,0,0,0,0,0,0,0,0,-1,573,659,0,0
-644,365,0,0,0,0,0,0,0,0,0,-1,580,659,0,0
-637,365,0,0,0,0,0,0,0,0,0,-1,587,659,0,0
-630,365,0,0,0,0,0,0,0,0,0,-1,594,659,0,0
-623,365,0,0,0,0,0,0,0,0,0,-1,601,659,0,0
-616,365,0,0,0,0,0,0,0,0,0,-1,608,659,0,0
-609,365,0,0,0,0,0,0,0,0,0,-1,615,659,0,0
-602,365,0,0,0,0,0,0,0,0,0,-1,622,659,0,0
-595,365,0,0,0,0,0,0,0,0,0,-1,629,659,0,0
-588,365,0,0,0,0,0,0,0,0,0,-1,636,659,0,0
-581,365,0,0,0,0,0,0,0,0,0,-1,643,659,0,0
-574,365,-7.69281,1.59015,0,0,0,0,0,0,0,-1,650,659,-7.69282,-1.59018
-567,365,-8.2583,1.72638,0,0,0,0,0,0,0,-1,657,659,-8.25827,-1.72637
-560,365,-7.17767,0.275757,0,0,0,0,0,0,0,-1,664,659,-7.17768,-0.27577
-553,365,-10.4943,0.199158,0,0,0,0,0,0,0,-1,671,659,-10.4943,-0.19914
-546,365,-10.0448,-1.17523,0,0,0,0,0,0,0,-1,678,659,-10.0448,1.17525
-539,365,-8.38599,1.52936,0,0,0,0,0,0,0,-1,685,659,-8.38598,-1.52935
-532,365,-8.52863,0.166504,0,0,0,0,0,0,0,-1,692,659,-8.52863,-0.166501
-525,365,-8.45709,-2.03668,0,0,0,0,0,0,0,-1,699,659,-8.4571,2.03666
-518,365,-8.68787,-2.47449,0,0,0,0,0,0,0,-1,706,659,-8.68787,2.47451
-511,365,-8.67261,-2.95801,0.00578786,-0.000615532,-0.00848458,0.0116547,-0.00648241,-0.604981,0.0106125,0.0263997,713,659,-8.67262,2.95801
-504,365,-8.66064,-3.37598,0.00298588,6.54916e-05,-0.00479532,0.0065384,-0.00348702,-0.637606,0.00587687,0.0117981,720,659,-8.66063,3.37597
-497,365,-8.67896,-3.78912,0.00107154,0.00038826,-0.00190478,0.00266507,-0.00120527,-0.696662,0.00228691,0.0117712,727,659,-8.67894,3.78911
-490,365,-8.68884,-4.18494,0.000377959,0.000758203,-0.000626247,0.00122255,-8.63898e-05,-0.932772,0.000845304,0.0135049,734,659,-8.68887,4.18493
-483,365,-8.70135,-4.57318,0.000933919,0.000789065,-0.000746252,0.00161125,0.000111734,-0.737023,0.00103893,0.0135574,741,659,-8.70137,4.57315
-476,365,-8.67865,-4.94135,0.00167597,0.0011016,-0.00120865,0.00263108,0.000146483,-0.668757,0.00170732,0.0153761,748,659,-8.67862,4.94136
-469,365,-8.69128,-5.33063,0.00243815,0.00155367,-0.0018017,0.0038511,0.000140728,-0.665049,0.0025218,0.0151345,755,659,-8.69127,5.33063
-462,365,-8.70337,-5.74579,0.00310163,0.00206332,-0.00245625,0.00509299,7.19603e-05,-0.68125,0.0033716,0.0142204,762,659,-8.70334,5.7458
-455,365,-8.71991,-6.15045,0.00387668,0.00271052,-0.00316784,0.00651465,7.25491e-05,-0.694385,0.00431912,0.0154377,769,659,-8.71993,6.15047
-448,365,-8.646,-6.638,0.00464633,0.00361976,-0.00403051,0.00819611,6.998e-05,-0.722065,0.0054409,0.0281249,776,659,-8.64602,6.63802
-441,365,-8.47626,-7.22119,0,0,0,0,0,0,0,-1,783,659,-8.47625,7.22116
-434,365,-5.45056,-3.98041,0,0,0,0,0,0,0,-1,790,659,-5.45055,3.98042
-427,365,-5.05377,-4.74689,0,0,0,0,0,0,0,-1,797,659,-5.05376,4.7469
-420,365,-4.58813,-3.16376,0,0,0,0,0,0,0,-1,804,659,-4.58816,3.16374
-413,365,0.141357,0.672729,0,0,0,0,0,0,0,-1,811,659,0.141365,-0.672714
-406,365,-1.75067,-0.934448,0,0,0,0,0,0,0,-1,818,659,-1.7507,0.934424
-399,365,-4.10242,-1.25439,0,0,0,0,0,0,0,-1,825,659,-4.10244,1.25438
-392,365,-7.46545,-0.779724,0,0,0,0,0,0,0,-1,832,659,-7.46543,0.779744
-385,365,-6.27875,-0.887573,0,0,0,0,0,0,0,-1,839,659,-6.27874,0.887545
-378,365,-5.34503,-0.263306,0,0,0,0,0,0,0,-1,846,659,-5.34504,0.263275
-371,365,0,0,0,0,0,0,0,0,0,-1,853,659,0,0
-364,365,0,0,0,0,0,0,0,0,0,-1,860,659,0,0
-357,365,0,0,0,0,0,0,0,0,0,-1,867,659,0,0
-350,365,0,0,0,0,0,0,0,0,0,-1,874,659,0,0
-343,365,0,0,0,0,0,0,0,0,0,-1,881,659,0,0
-336,365,0,0,0,0,0,0,0,0,0,-1,888,659,0,0
-329,365,0,0,0,0,0,0,0,0,0,-1,895,659,0,0
-322,365,0,0,0,0,0,0,0,0,0,-1,902,659,0,0
-315,365,0,0,0,0,0,0,0,0,0,-1,909,659,0,0
-308,365,0,0,0,0,0,0,0,0,0,-1,916,659,0,0
-301,365,0,0,0,0,0,0,0,0,0,-1,923,659,0,0
-294,365,0,0,0,0,0,0,0,0,0,-1,930,659,0,0
-287,365,0,0,0,0,0,0,0,0,0,-1,937,659,0,0
-280,365,0,0,0,0,0,0,0,0,0,-1,944,659,0,0
-273,365,0,0,0,0,0,0,0,0,0,-1,951,659,0,0
-266,365,0,0,0,0,0,0,0,0,0,-1,958,659,0,0
-259,365,0,0,0,0,0,0,0,0,0,-1,965,659,0,0
-252,365,0,0,0,0,0,0,0,0,0,-1,972,659,0,0
-245,365,0,0,0,0,0,0,0,0,0,-1,979,659,0,0
-238,365,0,0,0,0,0,0,0,0,0,-1,986,659,0,0
-231,365,0,0,0,0,0,0,0,0,0,-1,993,659,0,0
-224,365,0,0,0,0,0,0,0,0,0,-1,1000,659,0,0
-217,365,0,0,0,0,0,0,0,0,0,-1,1007,659,0,0
-210,365,0,0,0,0,0,0,0,0,0,-1,1014,659,0,0
-203,365,0,0,0,0,0,0,0,0,0,-1,1021,659,0,0
-196,365,0,0,0,0,0,0,0,0,0,-1,1028,659,0,0
-189,365,0,0,0,0,0,0,0,0,0,-1,1035,659,0,0
-182,365,0,0,0,0,0,0,0,0,0,-1,1042,659,0,0
-175,365,0,0,0,0,0,0,0,0,0,-1,1049,659,0,0
-168,365,0,0,0,0,0,0,0,0,0,-1,1056,659,0,0
-161,365,0,0,0,0,0,0,0,0,0,-1,1063,659,0,0
-154,365,0,0,0,0,0,0,0,0,0,-1,1070,659,0,0
-147,365,0,0,0,0,0,0,0,0,0,-1,1077,659,0,0
-140,365,0,0,0,0,0,0,0,0,0,-1,1084,659,0,0
-133,365,0,0,0,0,0,0,0,0,0,-1,1091,659,0,0
-126,365,0,0,0,0,0,0,0,0,0,-1,1098,659,0,0
-119,365,0,0,0,0,0,0,0,0,0,-1,1105,659,0,0
-112,365,0,0,0,0,0,0,0,0,0,-1,1112,659,0,0
-105,365,0,0,0,0,0,0,0,0,0,-1,1119,659,0,0
-98,365,0,0,0,0,0,0,0,0,0,-1,1126,659,0,0
-91,365,0,0,0,0,0,0,0,0,0,-1,1133,659,0,0
-84,365,0,0,0,0,0,0,0,0,0,-1,1140,659,0,0
-77,365,0,0,0,0,0,0,0,0,0,-1,1147,659,0,0
-70,365,0,0,0,0,0,0,0,0,0,-1,1154,659,0,0
-63,365,0,0,0,0,0,0,0,0,0,-1,1161,659,0,0
-56,365,0,0,0,0,0,0,0,0,0,-1,1168,659,0,0
-49,365,0,0,0,0,0,0,0,0,0,-1,1175,659,0,0
-42,365,0,0,0,0,0,0,0,0,0,-1,1182,659,0,0
-35,365,0,0,0,0,0,0,0,0,0,-1,1189,659,0,0
-28,365,0,0,0,0,0,0,0,0,0,-1,1196,659,0,0
-21,365,0,0,0,0,0,0,0,0,0,-1,1203,659,0,0
-14,365,0,0,0,0,0,0,0,0,0,-1,1210,659,0,0
-7,365,0,0,0,0,0,0,0,0,0,-1,1217,659,0,0
0,365,0,0,0,0,0,0,0,0,0,-1,1224,659,0,0
7,365,0,0,0,0,0,0,0,0,0,-1,1231,659,0,0
14,365,0,0,0,0,0,0,0,0,0,-1,1238,659,0,0
21,365,0,0,0,0,0,0,0,0,0,-1,1245,659,0,0
28,365,0,0,0,0,0,0,0,0,0,-1,1252,659,0,0
35,365,0,0,0,0,0,0,0,0,0,-1,1259,659,0,0
42,365,0,0,0,0,0,0,0,0,0,-1,1266,659,0,0
49,365,0,0,0,0,0,0,0,0,0,-1,1273,659,0,0
56,365,0,0,0,0,0,0,0,0,0,-1,1280,659,0,0
63,365,0,0,0,0,0,0,0,0,0,-1,1287,659,0,0
70,365,0,0,0,0,0,0,0,0,0,-1,1294,659,0,0
77,365,0,0,0,0,0,0,0,0,0,-1,1301,659,0,0
84,365,0,0,0,0,0,0,0,0,0,-1,1308,659,0,0
91,365,0,0,0,0,0,0,0,0,0,-1,1315,659,0,0
98,365,0,0,0,0,0,0,0,0,0,-1,1322,659,0,0
105,365,0,0,0,0,0,0,0,0,0,-1,1329,659,0,0
112,365,0,0,0,0,0,0,0,0,0,-1,1336,659,0,0
119,365,0,0,0,0,0,0,0,0,0,-1,1343,659,0,0
126,365,0,0,0,0,0,0,0,0,0,-1,1350,659,0,0
133,365,0,0,0,0,0,0,0,0,0,-1,1357,659,0,0
140,365,0,0,0,0,0,0,0,0,0,-1,1364,659,0,0
147,365,0,0,0,0,0,0,0,0,0,-1,1371,659,0,0
154,365,0,0,0,0,0,0,0,0,0,-1,1378,659,0,0
161,365,0,0,0,0,0,0,0,0,0,-1,1385,659,0,0
168,365,0,0,0,0,0,0,0,0,0,-1,1392,659,0,0
175,365,0,0,0,0,0,0,0,0,0,-1,1399,659,0,0
182,365,0,0,0,0,0,0,0,0,0,-1,1406,659,0,0
189,365,0,0,0,0,0,0,0,0,0,-1,1413,659,0,0
196,365,0,0,0,0,0,0,0,0,0,-1,1420,659,0,0
203,365,0,0,0,0,0,0,0,0,0,-1,1427,659,0,0
210,365,0,0,0,0,0,0,0,0,0,-1,1434,659,0,0
217,365,0,0,0,0,0,0,0,0,0,-1,1441,659,0,0
224,365,0,0,0,0,0,0,0,0,0,-1,1448,659,0,0
231,365,0,0,0,0,0,0,0,0,0,-1,1455,659,0,0
238,365,0,0,0,0,0,0,0,0,0,-1,1462,659,0,0
245,365,0,0,0,0,0,0,0,0,0,-1,1469,659,0,0
252,365,0,0,0,0,0,0,0,0,0,-1,1476,659,0,0
259,365,0,0,0,0,0,0,0,0,0,-1,1483,659,0,0
266,365,0,0,0,0,0,0,0,0,0,-1,1490,659,0,0
273,365,0,0,0,0,0,0,0,0,0,-1,1497,659,0,0
280,365,0,0,0,0,0,0,0,0,0,-1,1504,659,0,0
287,365,0,0,0,0,0,0,0,0,0,-1,1511,659,0,0
294,365,0,0,0,0,0,0,0,0,0,-1,1518,659,0,0
301,365,0,0,0,0,0,0,0,0,0,-1,1525,659,0,0
308,365,0,0,0,0,0,0,0,0,0,-1,1532,659,0,0
315,365,0,0,0,0,0,0,0,0,0,-1,1539,659,0,0
322,365,0,0,0,0,0,0,0,0,0,-1,1546,659,0,0
329,365,0,0,0,0,0,0,0,0,0,-1,1553,659,0,0
336,365,0,0,0,0,0,0,0,0,0,-1,1560,659,0,0
343,365,0,0,0,0,0,0,0,0,0,-1,1567,659,0,0
350,365,0,0,0,0,0,0,0,0,0,-1,1574,659,0,0
357,365,0,0,0,0,0,0,0,0,0,-1,1581,659,0,0
364,365,0,0,0,0,0,0,0,0,0,-1,1588,659,0,0
371,365,0,0,0,0,0,0,0,0,0,-1,1595,659,0,0
378,365,0,0,0,0,0,0,0,0,0,-1,1602,659,0,0
385,365,0,0,0,0,0,0,0,0,0,-1,1609,659,0,0
392,365,0,0,0,0,0,0,0,0,0,-1,1616,659,0,0
399,365,0,0,0,0,0,0,0,0,0,-1,1623,659,0,0
406,365,0,0,0,0,0,0,0,0,0,-1,1630,659,0,0
413,365,0,0,0,0,0,0,0,0,0,-1,1637,659,0,0
420,365,0,0,0,0,0,0,0,0,0,-1,1644,659,0,0
427,365,0,0,0,0,0,0,0,0,0,-1,1651,659,0,0
434,365,0,0,0,0,0,0,0,0,0,-1,1658,659,0,0
441,365,0,0,0,0,0,0,0,0,0,-1,1665,659,0,0
448,365,0,0,0,0,0,0,0,0,0,-1,1672,659,0,0
455,365,0,0,0,0,0,0,0,0,0,-1,1679,659,0,0
462,365,0,0,0,0,0,0,0,0,0,-1,1686,659,0,0
469,365,0,0,0,0,0,0,0,0,0,-1,1693,659,0,0
476,365,0,0,0,0,0,0,0,0,0,-1,1700,659,0,0
483,365,0,0,0,0,0,0,0,0,0,-1,1707,659,0,0
490,365,8.39551,0.471252,0,0,0,0,0,0,0,-1,1714,659,8.39551,-0.471241
497,365,9.89233,1.35394,0,0,0,0,0,0,0,-1,1721,659,9.89237,-1.35396
504,365,10.1414,1.18005,0,0,0,0,0,0,0,-1,1728,659,10.1413,-1.18004
511,365,10.5151,0.993896,0,0,0,0,0,0,0,-1,1735,659,10.5152,-0.993894
518,365,11.2029,0.398132,0,0,0,0,0,0,0,-1,1742,659,11.2029,-0.398136
525,365,15.5748,3.85303,0,0,0,0,0,0,0,-1,1749,659,15.5748,-3.85303
532,365,11.2446,1.00629,0,0,0,0,0,0,0,-1,1756,659,11.2446,-1.00631
539,365,12.6301,1.03204,0,0,0,0,0,0,0,-1,1763,659,12.6302,-1.03204
546,365,11.647,0.84198,0,0,0,0,0,0,0,-1,1770,659,11.6469,-0.841955
553,365,12.028,-0.558899,0,0,0,0,0,0,0,-1,1777,659,12.028,0.558873
560,365,14.5372,-4.55548,0,0,0,0,0,0,0,-1,1784,659,14.5373,4.55547
567,365,16.9532,-5.32306,0,0,0,0,0,0,0,-1,1791,659,16.9532,5.32306
574,365,16.8951,-4.74432,0,0,0,0,0,0,0,-1,1798,659,16.8952,4.74435
581,365,16.7263,-4.53876,0.00155239,0.00115339,0.000369616,0.00177291,0.000932872,0.537932,0.00102406,0.0413286,1805,659,16.7264,4.53877
588,365,16.6986,-4.08734,0.00143554,0.001051,0.000493951,0.00177332,0.000713218,0.599799,0.00103034,0.0160134,1812,659,16.6986,4.08737
595,365,16.7266,-3.57886,0.00135565,0.000996643,0.0005198,0.00172607,0.000626224,0.619144,0.00100897,0.012896,1819,659,16.7265,3.57888
602,365,16.7169,-3.1496,0.00148525,0.00108534,0.000694802,0.0020083,0.000562293,0.64529,0.00119632,0.0142525,1826,659,16.7169,3.1496
609,365,16.6726,-2.73688,0.00144275,0.00135183,0.000885253,0.00228371,0.000510871,0.759747,0.00138398,0.0159089,1833,659,16.6726,2.73687
616,365,16.7104,-2.29999,0.00123098,0.00156666,0.000990948,0.00240389,0.000393762,0.869289,0.0014888,0.0180339,1840,659,16.7104,2.29996
623,365,16.7258,-1.88007,0.000891633,0.00180556,0.00104117,0.00248563,0.000211564,0.99219,0.00159126,0.0122862,1847,659,16.7258,1.88005
630,365,16.6815,-1.46857,0.000192893,0.0018462,0.00105153,0.00235711,-0.000318015,1.11852,0.00168743,0.0154041,1854,659,16.6815,1.46856
637,365,16.6863,-1.08215,-0.000951942,0.00198558,0.000968877,0.00227636,-0.00124272,1.27923,0.00206075,0.0201965,1861,659,16.6862,1.08217
644,365,16.71,-0.652954,-0.00250184,0.00196948,0.000770083,0.0020984,-0.00263075,1.40493,0.00273613,0.0170494,1868,659,16.7099,0.652927
651,365,16.8772,-0.0870972,-0.00468049,0.00171697,0.000341051,0.0017351,-0.00469862,1.51769,0.00384362,0.0389288,1875,659,16.8771,0.0870723
658,365,16.9092,0.5401,0,0,0,0,0,0,0,-1,1882,659,16.9092,-0.540098
665,365,14.0961,0.769043,0,0,0,0,0,0,0,-1,1889,659,14.0961,-0.769063
672,365,10.0579,2.15088,0,0,0,0,0,0,0,-1,1896,659,10.0579,-2.15088
679,365,10.9718,2.19208,0,0,0,0,0,0,0,-1,1903,659,10.9718,-2.19211
686,365,12.2134,2.17108,0,0,0,0,0,0,0,-1,1910,659,12.2134,-2.17109
693,365,13.7141,1.98279,0,0,0,0,0,0,0,-1,1917,659,13.7141,-1.98278
700,365,0,0,0,0,0,0,0,0,0,-1,1924,659,0,0
707,365,0,0,0,0,0,0,0,0,0,-1,1931,659,0,0
714,365,0,0,0,0,0,0,0,0,0,-1,1938,659,0,0
721,365,0,0,0,0,0,0,0,0,0,-1,1945,659,0,0
728,365,0,0,0,0,0,0,0,0,0,-1,1952,659,0,0
735,365,0,0,0,0,0,0,0,0,0,-1,1959,659,0,0
742,365,0,0,0,0,0,0,0,0,0,-1,1966,659,0,0
749,365,0,0,0,0,0,0,0,0,0,-1,1973,659,0,0
756,365,0,0,0,0,0,0,0,0,0,-1,1980,659,0,0
763,365,0,0,0,0,0,0,0,0,0,-1,1987,659,0,0
770,365,0,0,0,0,0,0,0,0,0,-1,1994,659,0,0
777,365,0,0,0,0,0,0,0,0,0,-1,2001,659,0,0
784,365,0,0,0,0,0,0,0,0,0,-1,2008,659,0,0
791,365,0,0,0,0,0,0,0,0,0,-1,2015,659,0,0
798,365,0,0,0,0,0,0,0,0,0,-1,2022,659,0,0
805,365,0,0,0,0,0,0,0,0,0,-1,2029,659,0,0
812,365,0,0,0,0,0,0,0,0,0,-1,2036,659,0,0
-700,358,0,0,0,0,0,0,0,0,0,-1,524,666,0,0
-693,358,0,0,0,0,0,0,0,0,0,-1,531,666,0,0
-686,358,0,0,0,0,0,0,0,0,0,-1,538,666,0,0
-679,358,0,0,0,0,0,0,0,0,0,-1,545,666,0,0
-672,358,0,0,0,0,0,0,0,0,0,-1,552,666,0,0
-665,358,0,0,0,0,0,0,0,0,0,-1,559,666,0,0
-658,358,0,0,0,0,0,0,0,0,0,-1,566,666,0,0
-651,358,0,0,0,0,0,0,0,0,0,-1,573,666,0,0
-644,358,0,0,0,0,0,0,0,0,0,-1,580,666,0,0
-637,358,0,0,0,0,0,0,0,0,0,-1,587,666,0,0
-630,358,0,0,0,0,0,0,0,0,0,-1,594,666,0,0
-623,358,0,0,0,0,0,0,0,0,0,-1,601,666,0,0
-616,358,0,0,0,0,0,0,0,0,0,-1,608,666,0,0
-609,358,0,0,0,0,0,0,0,0,0,-1,615,666,0,0
-602,358,0,0,0,0,0,0,0,0,0,-1,622,666,0,0
-595,358,0,0,0,0,0,0,0,0,0,-1,629,666,0,0
-588,358,0,0,0,0,0,0,0,0,0,-1,636,666,0,0
-581,358,-8.31616,1.61993,0,0,0,0,0,0,0,-1,643,666,-8.31614,-1.61993
-574,358,-8.22406,1.75385,0,0,0,0,0,0,0,-1,650,666,-8.22408,-1.75383
-567,358,-8.14215,1.91577,0,0,0,0,0,0,0,-1,657,666,-8.14214,-1.91579
-560,358,-10.7819,1.64648,0,0,0,0,0,0,0,-1,664,666,-10.7818,-1.64646
-553,358,-10.3595,0.414978,0.0493576,-0.0126275,-0.0592434,0.0852255,-0.0484954,-0.544405,0.0781685,0.0471669,671,666,-10.3595,-0.415008
-546,358,-9.84106,-0.74585,0.0374069,-0.00851461,-0.0460942,0.0659425,-0.0370502,-0.554324,0.0602378,0.0479923,678,666,-9.84109,0.74587
-539,358,-9.03503,-2.19495,0,0,0,0,0,0,0,-1,685,666,-9.03506,2.19493
-532,358,-9.0437,-1.8338,0,0,0,0,0,0,0,-1,692,666,-9.04371,1.83379
-525,358,-8.95215,-2.284,0,0,0,0,0,0,0,-1,699,666,-8.95218,2.284
-518,358,-9.04218,-2.53094,0,0,0,0,0,0,0,-1,706,666,-9.0422,2.53093
-511,358,-9.05774,-2.94165,0.00526993,-5.55575e-05,-0.0075221,0.0105867,-0.0053723,-0.615286,0.00937642,0.0153889,713,666,-9.05772,2.94164
-504,358,-9.078,-3.35602,0.00284656,0.000399705,-0.00424344,0.00603941,-0.00279315,-0.645049,0.00521302,0.0109713,720,666,-9.078,3.35601
-497,358,-9.08386,-3.77551,0.00128103,0.000583347,-0.00176334,0.0027297,-0.000865326,-0.687744,0.00216663,0.0103313,727,666,-9.08383,3.77549
-490,358,-9.07892,-4.17505,0.000784991,0.00084687,-0.000708516,0.00152512,0.000106739,-0.807218,0.000983102,0.0104289,734,666,-9.0789,4.17502
-483,358,-9.08923,-4.55823,0.00134621,0.00094281,-0.000878642,0.00204601,0.000243014,-0.672573,0.00129065,0.0110135,741,666,-9.08925,4.55821
-476,358,-9.06708,-4.91937,0.00209099,0.00134758,-0.00141873,0.0031859,0.000252667,-0.657279,0.00204492,0.0130265,748,666,-9.06705,4.91937
-469,358,-9.0885,-5.32697,0.00287006,0.00188275,-0.0021062,0.00453968,0.000213128,-0.670285,0.00295797,0.0159846,755,666,-9.08847,5.32695
-462,358,-9.11993,-5.74542,0.00361733,0.00254531,-0.0028915,0.00602209,0.000140557,-0.693751,0.0039687,0.0185719,762,666,-9.11995,5.7454
-455,358,-9.05585,-6.16449,0.00451609,0.00334934,-0.00377236,0.00774991,0.000115516,-0.708684,0.00512854,0.0312294,769,666,-9.05587,6.1645
-448,358,-8.9079,-6.82465,0,0,0,0,0,0,0,-1,776,666,-8.90793,6.82465
-441,358,-5.56293,-3.98041,0,0,0,0,0,0,0,-1,783,666,-5.56291,3.98043
-434,358,-5.21558,-4.43127,0,0,0,0,0,0,0,-1,790,666,-5.21559,4.43125
-427,358,-3.56189,-3.15729,0,0,0,0,0,0,0,-1,797,666,-3.56192,3.15729
-420,358,0.200195,1.08234,0,0,0,0,0,0,0,-1,804,666,0.200174,-1.08231
-413,358,0.0325317,0.161072,0,0,0,0,0,0,0,-1,811,666,0.0325501,-0.161098
-406,358,-3.85846,0.753113,0,0,0,0,0,0,0,-1,818,666,-3.85846,-0.753129
-399,358,-1.31213,0.190735,0,0,0,0,0,0,0,-1,825,666,-1.31215,-0.190763
-392,358,-3.73914,-0.832214,0,0,0,0,0,0,0,-1,832,666,-3.73915,0.832202
-385,358,-5.95178,-1.69141,0,0,0,0,0,0,0,-1,839,666,-5.9518,1.69143
-378,358,0,0,0,0,0,0,0,0,0,-1,846,666,0,0
-371,358,0,0,0,0,0,0,0,0,0,-1,853,666,0,0
-364,358,0,0,0,0,0,0,0,0,0,-1,860,666,0,0
-357,358,0,0,0,0,0,0,0,0,0,-1,867,666,0,0
-350,358,0,0,0,0,0,0,0,0,0,-1,874,666,0,0
-343,358,0,0,0,0,0,0,0,0,0,-1,881,666,0,0
-336,358,0,0,0,0,0,0,0,0,0,-1,888,666,0,0
-329,358,0,0,0,0,0,0,0,0,0,-1,895,666,0,0
-322,358,0,0,0,0,0,0,0,0,0,-1,902,666,0,0
-315,358,0,0,0,0,0,0,0,0,0,-1,909,666,0,0
-308,358,0,0,0,0,0,0,0,0,0,-1,916,666,0,0
-301,358,0,0,0,0,0,0,0,0,0,-1,923,666,0,0
-294,358,0,0,0,0,0,0,0,0,0,-1,930,666,0,0
-287,358,0,0,0,0,0,0,0,0,0,-1,937,666,0,0
-280,358,0,0,0,0,0,0,0,0,0,-1,944,666,0,0
-273,358,0,0,0,0,0,0,0,0,0,-1,951,666,0,0
-266,358,0,0,0,0,0,0,0,0,0,-1,958,666,0,0
-259,358,0,0,0,0,0,0,0,0,0,-1,965,666,0,0
-252,358,0,0,0,0,0,0,0,0,0,-1,972,666,0,0
-245,358,0,0,0,0,0,0,0,0,0,-1,979,666,0,0
-238,358,0,0,0,0,0,0,0,0,0,-1,986,666,0,0
-231,358,0,0,0,0,0,0,0,0,0,-1,993,666,0,0
-224,358,0,0,0,0,0,0,0,0,0,-1,1000,666,0,0
-217,358,0,0,0,0,0,0,0,0,0,-1,1007,666,0,0
-210,358,0,0,0,0,0,0,0,0,0,-1,1014,666,0,0
-203,358,0,0,0,0,0,0,0,0,0,-1,1021,666,0,0
-196,358,0,0,0,0,0,0,0,0,0,-1,1028,666,0,0
-189,358,0,0,0,0,0,0,0,0,0,-1,1035,666,0,0
-182,358,0,0,0,0,0,0,0,0,0,-1,1042,666,0,0
-175,358,0,0,0,0,0,0,0,0,0,-1,1049,666,0,0
-168,358,0,0,0,0,0,0,0,0,0,-1,1056,666,0,0
-161,358,0,0,0,0,0,0,0,0,0,-1,1063,666,0,0
-154,358,0,0,0,0,0,0,0,0,0,-1,1070,666,0,0
-147,358,0,0,0,0,0,0,0,0,0,-1,1077,666,0,0
-140,358,0,0,0,0,0,0,0,0,0,-1,1084,666,0,0
-133,358,0,0,0,0,0,0,0,0,0,-1,1091,666,0,0
-126,358,0,0,0,0,0,0,0,0,0,-1,1098,666,0,0
-119,358,0,0,0,0,0,0,0,0,0,-1,1105,666,0,0
-112,358,0,0,0,0,0,0,0,0,0,-1,1112,666,0,0
-105,358,0,0,0,0,0,0,0,0,0,-1,1119,666,0,0
-98,358,0,0,0,0,0,0,0,0,0,-1,1126,666,0,0
-91,358,0,0,0,0,0,0,0,0,0,-1,1133,666,0,0
-84,358,0,0,0,0,0,0,0,0,0,-1,1140,666,0,0
-77,358,0,0,0,0,0,0,0,0,0,-1,1147,666,0,0
-70,358,0,0,0,0,0,0,0,0,0,-1,1154,666,0,0
-63,358,0,0,0,0,0,0,0,0,0,-1,1161,666,0,0
-56,358,0,0,0,0,0,0,0,0,0,-1,1168,666,0,0
-49,358,0,0,0,0,0,0,0,0,0,-1,1175,666,0,0
-42,358,0,0,0,0,0,0,0,0,0,-1,1182,666,0,0
-35,358,0,0,0,0,0,0,0,0,0,-1,1189,666,0,0
-28,358,0,0,0,0,0,0,0,0,0,-1,1196,666,0,0
-21,358,0,0,0,0,0,0,0,0,0,-1,1203,666,0,0
-14,358,0,0,0,0,0,0,0,0,0,-1,1210,666,0,0
-7,358,0,0,0,0,0,0,0,0,0,-1,1217,666,0,0
0,358,0,0,0,0,0,0,0,0,0,-1,1224,666,0,0
7,358,0,0,0,0,0,0,0,0,0,-1,1231,666,0,0
14,358,0,0,0,0,0,0,0,0,0,-1,1238,666,0,0
21,358,0,0,0,0,0,0,0,0,0,-1,1245,666,0,0
28,358,0,0,0,0,0,0,0,0,0,-1,1252,666,0,0
35,358,0,0,0,0,0,0,0,0,0,-1,1259,666,0,0
42,358,0,0,0,0,0,0,0,0,0,-1,1266,666,0,0
49,358,0,0,0,0,0,0,0,0,0,-1,1273,666,0,0
56,358,0,0,0,0,0,0,0,0,0,-1,1280,666,0,0
63,358,0,0,0,0,0,0,0,0,0,-1,1287,666,0,0
70,358,0,0,0,0,0,0,0,0,0,-1,1294,666,0,0
77,358,0,0,0,0,0,0,0,0,0,-1,1301,666,0,0
84,358,0,0,0,0,0,0,0,0,0,-1,1308,666,0,0
91,358,0,0,0,0,0,0,0,0,0,-1,1315,666,0,0
98,358,0,0,0,0,0,0,0,0,0,-1,1322,666,0,0
105,358,0,0,0,0,0,0,0,0,0,-1,1329,666,0,0
112,358,0,0,0,0,0,0,0,0,0,-1,1336,666,0,0
119,358,0,0,0,0,0,0,0,0,0,-1,1343,666,0,0
126,358,0,0,0,0,0,0,0,0,0,-1,1350,666,0,0
133,358,0,0,0,0,0,0,0,0,0,-1,1357,666,0,0
140,358,0,0,0,0,0,0,0,0,0,-1,1364,666,0,0
147,358,0,0,0,0,0,0,0,0,0,-1,1371,666,0,0
154,358,0,0,0,0,0,0,0,0,0,-1,1378,666,0,0
161,358,0,0,0,0,0,0,0,0,0,-1,1385,666,0,0
168,358,0,0,0,0,0,0,0,0,0,-1,1392,666,0,0
175,358,0,0,0,0,0,0,0,0,0,-1,1399,666,0,0
182,358,0,0,0,0,0,0,0,0,0,-1,1406,666,0,0
189,358,0,0,0,0,0,0,0,0,0,-1,1413,666,0,0
196,358,0,0,0,0,0,0,0,0,0,-1,1420,666,0,0
203,358,0,0,0,0,0,0,0,0,0,-1,1427,666,0,0
210,358,0,0,0,0,0,0,0,0,0,-1,1434,666,0,0
217,358,0,0,0,0,0,0,0,0,0,-1,1441,666,0,0
224,358,0,0,0,0,0,0,0,0,0,-1,1448,666,0,0
231,358,0,0,0,0,0,0,0,0,0,-1,1455,666,0,0
238,358,0,0,0,0,0,0,0,0,0,-1,1462,666,0,0
245,358,0,0,0,0,0,0,0,0,0,-1,1469,666,0,0
252,358,0,0,0,0,0,0,0,0,0,-1,1476,666,0,0
259,358,0,0,0,0,0,0,0,0,0,-1,1483,666,0,0
266,358,0,0,0,0,0,0,0,0,0,-1,1490,666,0,0
273,358,0,0,0,0,0,0,0,0,0,-1,1497,666,0,0
280,358,0,0,0,0,0,0,0,0,0,-1,1504,666,0,0
287,358,0,0,0,0,0,0,0,0,0,-1,1511,666,0,0
294,358,0,0,0,0,0,0,0,0,0,-1,1518,666,0,0
301,358,0,0,0,0,0,0,0,0,0,-1,1525,666,0,0
308,358,0,0,0,0,0,0,0,0,0,-1,1532,666,0,0
315,358,0,0,0,0,0,0,0,0,0,-1,1539,666,0,0
322,358,0,0,0,0,0,0,0,0,0,-1,1546,666,0,0
329,358,0,0,0,0,0,0,0,0,0,-1,1553,666,0,0
336,358,0,0,0,0,0,0,0,0,0,-1,1560,666,0,0
343,358,0,0,0,0,0,0,0,0,0,-1,1567,666,0,0
350,358,0,0,0,0,0,0,0,0,0,-1,1574,666,0,0
357,358,0,0,0,0,0,0,0,0,0,-1,1581,666,0,0
364,358,0,0,0,0,0,0,0,0,0,-1,1588,666,0,0
371,358,0,0,0,0,0,0,0,0,0,-1,1595,666,0,0
378,358,0,0,0,0,0,0,0,0,0,-1,1602,666,0,0
385,358,0,0,0,0,0,0,0,0,0,-1,1609,666,0,0
392,358,0,0,0,0,0,0,0,0,0,-1,1616,666,0,0
399,358,0,0,0,0,0,0,0,0,0,-1,1623,666,0,0
406,358,0,0,0,0,0,0,0,0,0,-1,1630,666,0,0
413,358,0,0,0,0,0,0,0,0,0,-1,1637,666,0,0
420,358,0,0,0,0,0,0,0,0,0,-1,1644,666,0,0
427,358,0,0,0,0,0,0,0,0,0,-1,1651,666,0,0
434,358,0,0,0,0,0,0,0,0,0,-1,1658,666,0,0
441,358,0,0,0,0,0,0,0,0,0,-1,1665,666,0,0
448,358,0,0,0,0,0,0,0,0,0,-1,1672,666,0,0
455,358,0,0,0,0,0,0,0,0,0,-1,1679,666,0,0
462,358,0,0,0,0,0,0,0,0,0,-1,1686,666,0,0
469,358,0,0,0,0,0,0,0,0,0,-1,1693,666,0,0
476,358,0,0,0,0,0,0,0,0,0,-1,1700,666,0,0
483,358,0,0,0,0,0,0,0,0,0,-1,1707,666,0,0
490,358,0,0,0,0,0,0,0,0,0,-1,1714,666,0,0
497,358,8.57239,1.1322,0,0,0,0,0,0,0,-1,1721,666,8.57234,-1.13219
504,358,10.5972,0.832947,0,0,0,0,0,0,0,-1,1728,666,10.5972,-0.832968
511,358,10.6873,0.868469,0,0,0,0,0,0,0,-1,1735,666,10.6872,-0.868484
518,358,16.5884,2.34894,0,0,0,0,0,0,0,-1,1742,666,16.5884,-2.34894
525,358,15.7626,3.65344,0,0,0,0,0,0,0,-1,1749,666,15.7626,-3.65342
532,358,14.9368,4.95789,0,0,0,0,0,0,0,-1,1756,666,14.9367,-4.9579
539,358,15.1597,3.42694,0,0,0,0,0,0,0,-1,1763,666,15.1597,-3.42692
546,358,12.3792,1.53558,0,0,0,0,0,0,0,-1,1770,666,12.3792,-1.5356
553,358,11.6584,1.26172,0,0,0,0,0,0,0,-1,1777,666,11.6585,-1.26175
560,358,10.8234,1.43042,0,0,0,0,0,0,0,-1,1784,666,10.8233,-1.43041
567,358,10.1333,-0.955139,0,0,0,0,0,0,0,-1,1791,666,10.1333,0.955132
574,358,14.7886,-2.69293,0,0,0,0,0,0,0,-1,1798,666,14.7885,2.6929
581,358,16.9485,-4.55957,0,0,0,0,0,0,0,-1,1805,666,16.9485,4.55955
588,358,17.0253,-4.1145,0.00164666,0.00121325,0.000669158,0.00213333,0.000726584,0.628803,0.00125237,0.0331316,1812,666,17.0252,4.11453
595,358,17.1522,-3.55914,0.00150261,0.00102977,0.000593507,0.00190505,0.000627327,0.595861,0.00112104,0.0128663,1819,666,17.1523,3.55914
602,358,17.1304,-3.12372,0.0015923,0.000979383,0.000634242,0.00199024,0.000581442,0.560343,0.0011817,0.0126469,1826,666,17.1303,3.1237
609,358,17.0961,-2.74127,0.00161258,0.00113891,0.000790316,0.00220078,0.000550706,0.639822,0.00132241,0.0163182,1833,666,17.0961,2.74126
616,358,17.1029,-2.30548,0.00138635,0.00126499,0.000855142,0.00218296,0.000468378,0.74998,0.00132703,0.0161431,1840,666,17.1029,2.3055
623,358,17.1299,-1.88287,0.000947848,0.00137694,0.00080261,0.00199318,0.000331602,0.915999,0.00123321,0.014271,1847,666,17.1299,1.88286
630,358,17.116,-1.48102,0.000144893,0.00130141,0.000714333,0.00164221,-0.000195899,1.12565,0.0011656,0.0166141,1854,666,17.1159,1.48101
637,358,17.0797,-1.10461,-0.00111616,0.00128989,0.000519205,0.00139715,-0.00122342,1.36708,0.0015141,0.0240825,1861,666,17.0797,1.10459
644,358,17.0781,-0.68988,-0.00282458,0.00119173,0.000170357,0.00119895,-0.00283179,1.52848,0.00238995,0.0204002,1868,666,17.0781,0.689876
651,358,17.1691,-0.139282,-0.00505525,0.00088107,-0.00035534,0.000902265,-0.00507644,-1.51122,0.00372169,0.0256416,1875,666,17.169,0.139272
658,358,16.7804,0.229736,-0.00811501,0.000211825,-0.00129715,0.000409213,-0.0083124,-1.41978,0.00568292,0.0459602,1882,666,16.7805,-0.229766
665,358,16.1375,0.54071,0,0,0,0,0,0,0,-1,1889,666,16.1374,-0.540699
672,358,12.4299,1.47272,0,0,0,0,0,0,0,-1,1896,666,12.4299,-1.4727
679,358,12.1294,2.19702,0,0,0,0,0,0,0,-1,1903,666,12.1294,-2.19703
686,358,11.9557,2.2002,0,0,0,0,0,0,0,-1,1910,666,11.9557,-2.20021
693,358,13.188,2.52203,0,0,0,0,0,0,0,-1,1917,666,13.188,-2.52202
700,358,0,0,0,0,0,0,0,0,0,-1,1924,666,0,0
707,358,0,0,0,0,0,0,0,0,0,-1,1931,666,0,0
714,358,0,0,0,0,0,0,0,0,0,-1,1938,666,0,0
721,358,0,0,0,0,0,0,0,0,0,-1,1945,666,0,0
728,358,0,0,0,0,0,0,0,0,0,-1,1952,666,0,0
735,358,0,0,0,0,0,0,0,0,0,-1,1959,666,0,0
742,358,0,0,0,0,0,0,0,0,0,-1,1966,666,0,0
749,358,0,0,0,0,0,0,0,0,0,-1,1973,666,0,0
756,358,0,0,0,0,0,0,0,0,0,-1,1980,666,0,0
763,358,0,0,0,0,0,0,0,0,0,-1,1987,666,0,0
770,358,0,0,0,0,0,0,0,0,0,-1,1994,666,0,0
777,358,0,0,0,0,0,0,0,0,0,-1,2001,666,0,0
784,358,0,0,0,0,0,0,0,0,0,-1,2008,666,0,0
791,358,0,0,0,0,0,0,0,0,0,-1,2015,666,0,0
798,358,0,0,0,0,0,0,0,0,0,-1,2022,666,0,0
805,358,0,0,0,0,0,0,0,0,0,-1,2029,666,0,0
812,358,0,0,0,0,0,0,0,0,0,-1,2036,666,0,0
-700,351,0,0,0,0,0,0,0,0,0,-1,524,673,0,0
-693,351,0,0,0,0,0,0,0,0,0,-1,531,673,0,0
-686,351,0,0,0,0,0,0,0,0,0,-1,538,673,0,0
-679,351,0,0,0,0,0,0,0,0,0,-1,545,673,0,0
-672,351,0,0,0,0,0,0,0,0,0,-1,552,673,0,0
-665,351,0,0,0,0,0,0,0,0,0,-1,559,673,0,0
-658,351,0,0,0,0,0,0,0,0,0,-1,566,673,0,0
-651,351,0,0,0,0,0,0,0,0,0,-1,573,673,0,0
-644,351,0,0,0,0,0,0,0,0,0,-1,580,673,0,0
-637,351,0,0,0,0,0,0,0,0,0,-1,587,673,0,0
-630,351,0,0,0,0,0,0,0,0,0,-1,594,673,0,0
-623,351,0,0,0,0,0,0,0,0,0,-1,601,673,0,0
-616,351,0,0,0,0,0,0,0,0,0,-1,608,673,0,0
-609,351,0,0,0,0,0,0,0,0,0,-1,615,673,0,0
-602,351,0,0,0,0,0,0,0,0,0,-1,622,673,0,0
-595,351,0,0,0,0,0,0,0,0,0,-1,629,673,0,0
-588,351,0,0,0,0,0,0,0,0,0,-1,636,673,0,0
-581,351,-9.0647,1.71906,0,0,0,0,0,0,0,-1,643,673,-9.06472,-1.71908
-574,351,-8.23584,2.64764,0,0,0,0,0,0,0,-1,650,673,-8.23584,-2.64764
-567,351,-10.6,2.37701,0,0,0,0,0,0,0,-1,657,673,-10.6,-2.37699
-560,351,-10.2571,1.34473,0.0518174,-0.00923511,-0.0611281,0.0896176,-0.0470353,-0.553822,0.0801632,0.0493799,664,673,-10.2571,-1.34475
-553,351,-10.0463,0.566467,0.0409764,-0.00670803,-0.049864,0.072405,-0.0381366,-0.562392,0.0648354,0.0417812,671,673,-10.0463,-0.566476
-546,351,-9.74506,-0.271912,0.0312589,-0.00433588,-0.0391202,0.0564399,-0.0295168,-0.57192,0.050432,0.0431026,678,673,-9.74507,0.271896
-539,351,-9.26404,-0.805237,0,0,0,0,0,0,0,-1,685,673,-9.26403,0.805247
-532,351,-9.29218,-1.64722,0.0165432,-0.00117608,-0.0218778,0.0312872,-0.0159201,-0.593011,0.0277323,0.0396192,692,673,-9.29219,1.64719
-525,351,-9.3996,-2.25439,0.0113588,-0.000334898,-0.0154196,0.0220029,-0.010979,-0.604182,0.0193934,0.0328867,699,673,-9.3996,2.25442
-518,351,-9.46777,-2.51178,0.00743464,0.00015719,-0.010311,0.0147301,-0.00713827,-0.615771,0.0128768,0.0148866,706,673,-9.46778,2.5118
-511,351,-9.44464,-2.92346,0.00465109,0.000435797,-0.00648901,0.00936616,-0.00427927,-0.628371,0.0080586,0.011541,713,673,-9.44466,2.92344
-504,351,-9.4729,-3.33838,0.00259238,0.000677685,-0.00361117,0.00537094,-0.00210088,-0.655825,0.00444944,0.0105453,720,673,-9.47288,3.3384
-497,351,-9.49384,-3.73889,0.00137077,0.000724793,-0.00154972,0.0026308,-0.000535241,-0.682661,0.00195684,0.00989444,727,673,-9.49386,3.73888
-490,351,-9.4939,-4.13037,0.00110893,0.000872239,-0.000760602,0.00176034,0.000220831,-0.708219,0.00110731,0.00994888,734,673,-9.49391,4.13039
-483,351,-9.48389,-4.52631,0.00168682,0.00104516,-0.000993822,0.00241032,0.000321667,-0.629268,0.00151111,0.0124157,741,673,-9.48388,4.52633
-476,351,-9.48944,-4.90497,0.00242584,0.00155064,-0.00160473,0.00365156,0.000324919,-0.652287,0.00233362,0.0122177,748,673,-9.48942,4.90497
-469,351,-9.4931,-5.28619,0.003211,0.00216527,-0.00237455,0.00511957,0.000256701,-0.67703,0.00333078,0.0142274,755,673,-9.49312,5.28622
-462,351,-9.49854,-5.73602,0.00405542,0.00302096,-0.00329766,0.00687617,0.000200209,-0.707608,0.00451885,0.0235485,762,673,-9.49855,5.736
-455,351,-9.30566,-6.2442,0,0,0,0,0,0,0,-1,769,673,-9.30566,6.24421
-448,351,-6.61456,-4.38654,0,0,0,0,0,0,0,-1,776,673,-6.61456,4.38654
-441,351,-4.31567,-2.3009,0,0,0,0,0,0,0,-1,783,673,-4.31565,2.30089
-434,351,-3.81708,-2.28003,0,0,0,0,0,0,0,-1,790,673,-3.81706,2.28006
-427,351,-2.05157,-2.7785,0,0,0,0,0,0,0,-1,797,673,-2.05157,2.77848
-420,351,-1.06989,-2.43665,0,0,0,0,0,0,0,-1,804,673,-1.06991,2.43663
-413,351,-0.392334,-2.06671,0,0,0,0,0,0,0,-1,811,673,-0.392363,2.06672
-406,351,-1.86316,-2.58105,0,0,0,0,0,0,0,-1,818,673,-1.86313,2.58106
-399,351,1.00952,-1.53455,0,0,0,0,0,0,0,-1,825,673,1.00954,1.53457
-392,351,-1.02197,0.877136,0,0,0,0,0,0,0,-1,832,673,-1.02195,-0.877143
-385,351,-1.47205,1.04437,0,0,0,0,0,0,0,-1,839,673,-1.47207,-1.04435
-378,351,0,0,0,0,0,0,0,0,0,-1,846,673,0,0
-371,351,0,0,0,0,0,0,0,0,0,-1,853,673,0,0
-364,351,0,0,0,0,0,0,0,0,0,-1,860,673,0,0
-357,351,0,0,0,0,0,0,0,0,0,-1,867,673,0,0
-350,351,0,0,0,0,0,0,0,0,0,-1,874,673,0,0
-343,351,0,0,0,0,0,0,0,0,0,-1,881,673,0,0
-336,351,0,0,0,0,0,0,0,0,0,-1,888,673,0,0
-329,351,0,0,0,0,0,0,0,0,0,-1,895,673,0,0
-322,351,0,0,0,0,0,0,0,0,0,-1,902,673,0,0
-315,351,0,0,0,0,0,0,0,0,0,-1,909,673,0,0
-308,351,0,0,0,0,0,0,0,0,0,-1,916,673,0,0
-301,351,0,0,0,0,0,0,0,0,0,-1,923,673,0,0
-294,351,0,0,0,0,0,0,0,0,0,-1,930,673,0,0
-287,351,0,0,0,0,0,0,0,0,0,-1,937,673,0,0
-280,351,0,0,0,0,0,0,0,0,0,-1,944,673,0,0
-273,351,0,0,0,0,0,0,0,0,0,-1,951,673,0,0
-266,351,0,0,0,0,0,0,0,0,0,-1,958,673,0,0
-259,351,0,0,0,0,0,0,0,0,0,-1,965,673,0,0
-252,351,0,0,0,0,0,0,0,0,0,-1,972,673,0,0
-245,351,0,0,0,0,0,0,0,0,0,-1,979,673,0,0
-238,351,0,0,0,0,0,0,0,0,0,-1,986,673,0,0
-231,351,0,0,0,0,0,0,0,0,0,-1,993,673,0,0
-224,351,0,0,0,0,0,0,0,0,0,-1,1000,673,0,0
-217,351,0,0,0,0,0,0,0,0,0,-1,1007,673,0,0
-210,351,0,0,0,0,0,0,0,0,0,-1,1014,673,0,0
-203,351,0,0,0,0,0,0,0,0,0,-1,1021,673,0,0
-196,351,0,0,0,0,0,0,0,0,0,-1,1028,673,0,0
-189,351,0,0,0,0,0,0,0,0,0,-1,1035,673,0,0
-182,351,0,0,0,0,0,0,0,0,0,-1,1042,673,0,0
-175,351,0,0,0,0,0,0,0,0,0,-1,1049,673,0,0
-168,351,0,0,0,0,0,0,0,0,0,-1,1056,673,0,0
-161,351,0,0,0,0,0,0,0,0,0,-1,1063,673,0,0
-154,351,0,0,0,0,0,0,0,0,0,-1,1070,673,0,0
-147,351,0,0,0,0,0,0,0,0,0,-1,1077,673,0,0
-140,351,0,0,0,0,0,0,0,0,0,-1,1084,673,0,0
-133,351,0,0,0,0,0,0,0,0,0,-1,1091,673,0,0
-126,351,0,0,0,0,0,0,0,0,0,-1,1098,673,0,0
-119,351,0,0,0,0,0,0,0,0,0,-1,1105,673,0,0
-112,351,0,0,0,0,0,0,0,0,0,-1,1112,673,0,0
-105,351,0,0,0,0,0,0,0,0,0,-1,1119,673,0,0
-98,351,0,0,0,0,0,0,0,0,0,-1,1126,673,0,0
-91,351,0,0,0,0,0,0,0,0,0,-1,1133,673,0,0
-84,351,0,0,0,0,0,0,0,0,0,-1,1140,673,0,0
-77,351,0,0,0,0,0,0,0,0,0,-1,1147,673,0,0
-70,351,0,0,0,0,0,0,0,0,0,-1,1154,673,0,0
-63,351,0,0,0,0,0,0,0,0,0,-1,1161,673,0,0
-56,351,0,0,0,0,0,0,0,0,0,-1,1168,673,0,0
-49,351,0,0,0,0,0,0,0,0,0,-1,1175,673,0,0
-42,351,0,0,0,0,0,0,0,0,0,-1,1182,673,0,0
-35,351,0,0,0,0,0,0,0,0,0,-1,1189,673,0,0
-28,351,0,0,0,0,0,0,0,0,0,-1,1196,673,0,0
-21,351,0,0,0,0,0,0,0,0,0,-1,1203,673,0,0
-14,351,0,0,0,0,0,0,0,0,0,-1,1210,673,0,0
-7,351,0,0,0,0,0,0,0,0,0,-1,1217,673,0,0
0,351,0,0,0,0,0,0,0,0,0,-1,1224,673,0,0
7,351,0,0,0,0,0,0,0,0,0,-1,1231,673,0,0
14,351,0,0,0,0,0,0,0,0,0,-1,1238,673,0,0
21,351,0,0,0,0,0,0,0,0,0,-1,1245,673,0,0
28,351,0,0,0,0,0,0,0,0,0,-1,1252,673,0,0
35,351,0,0,0,0,0,0,0,0,0,-1,1259,673,0,0
42,351,0,0,0,0,0,0,0,0,0,-1,1266,673,0,0
49,351,0,0,0,0,0,0,0,0,0,-1,1273,673,0,0
56,351,0,0,0,0,0,0,0,0,0,-1,1280,673,0,0
63,351,0,0,0,0,0,0,0,0,0,-1,1287,673,0,0
70,351,0,0,0,0,0,0,0,0,0,-1,1294,673,0,0
77,351,0,0,0,0,0,0,0,0,0,-1,1301,673,0,0
84,351,0,0,0,0,0,0,0,0,0,-1,1308,673,0,0
91,351,0,0,0,0,0,0,0,0,0,-1,1315,673,0,0
98,351,0,0,0,0,0,0,0,0,0,-1,1322,673,0,0
105,351,0,0,0,0,0,0,0,0,0,-1,1329,673,0,0
112,351,0,0,0,0,0,0,0,0,0,-1,1336,673,0,0
119,351,0,0,0,0,0,0,0,0,0,-1,1343,673,0,0
126,351,0,0,0,0,0,0,0,0,0,-1,1350,673,0,0
133,351,0,0,0,0,0,0,0,0,0,-1,1357,673,0,0
140,351,0,0,0,0,0,0,0,0,0,-1,1364,673,0,0
147,351,0,0,0,0,0,0,0,0,0,-1,1371,673,0,0
154,351,0,0,0,0,0,0,0,0,0,-1,1378,673,0,0
161,351,0,0,0,0,0,0,0,0,0,-1,1385,673,0,0
168,351,0,0,0,0,0,0,0,0,0,-1,1392,673,0,0
175,351,0,0,0,0,0,0,0,0,0,-1,1399,673,0,0
182,351,0,0,0,0,0,0,0,0,0,-1,1406,673,0,0
189,351,0,0,0,0,0,0,0,0,0,-1,1413,673,0,0
196,351,0,0,0,0,0,0,0,0,0,-1,1420,673,0,0
203,351,0,0,0,0,0,0,0,0,0,-1,1427,673,0,0
210,351,0,0,0,0,0,0,0,0,0,-1,1434,673,0,0
217,351,0,0,0,0,0,0,0,0,0,-1,1441,673,0,0
224,351,0,0,0,0,0,0,0,0,0,-1,1448,673,0,0
231,351,0,0,0,0,0,0,0,0,0,-1,1455,673,0,0
238,351,0,0,0,0,0,0,0,0,0,-1,1462,673,0,0
245,351,0,0,0,0,0,0,0,0,0,-1,1469,673,0,0
252,351,0,0,0,0,0,0,0,0,0,-1,1476,673,0,0
259,351,0,0,0,0,0,0,0,0,0,-1,1483,673,0,0
266,351,0,0,0,0,0,0,0,0,0,-1,1490,673,0,0
273,351,0,0,0,0,0,0,0,0,0,-1,1497,673,0,0
280,351,0,0,0,0,0,0,0,0,0,-1,1504,673,0,0
287,351,0,0,0,0,0,0,0,0,0,-1,1511,673,0,0
294,351,0,0,0,0,0,0,0,0,0,-1,1518,673,0,0
301,351,0,0,0,0,0,0,0,0,0,-1,1525,673,0,0
308,351,0,0,0,0,0,0,0,0,0,-1,1532,673,0,0
315,351,0,0,0,0,0,0,0,0,0,-1,1539,673,0,0
322,351,0,0,0,0,0,0,0,0,0,-1,1546,673,0,0
329,351,0,0,0,0,0,0,0,0,0,-1,1553,673,0,0
336,351,0,0,0,0,0,0,0,0,0,-1,1560,673,0,0
343,351,0,0,0,0,0,0,0,0,0,-1,1567,673,0,0
350,351,0,0,0,0,0,0,0,0,0,-1,1574,673,0,0
357,351,0,0,0,0,0,0,0,0,0,-1,1581,673,0,0
364,351,0,0,0,0,0,0,0,0,0,-1,1588,673,0,0
371,351,0,0,0,0,0,0,0,0,0,-1,1595,673,0,0
378,351,0,0,0,0,0,0,0,0,0,-1,1602,673,0,0
385,351,0,0,0,0,0,0,0,0,0,-1,1609,673,0,0
392,351,0,0,0,0,0,0,0,0,0,-1,1616,673,0,0
399,351,0,0,0,0,0,0,0,0,0,-1,1623,673,0,0
406,351,0,0,0,0,0,0,0,0,0,-1,1630,673,0,0
413,351,0,0,0,0,0,0,0,0,0,-1,1637,673,0,0
420,351,0,0,0,0,0,0,0,0,0,-1,1644,673,0,0
427,351,0,0,0,0,0,0,0,0,0,-1,1651,673,0,0
434,351,0,0,0,0,0,0,0,0,0,-1,1658,673,0,0
441,351,0,0,0,0,0,0,0,0,0,-1,1665,673,0,0
448,351,0,0,0,0,0,0,0,0,0,-1,1672,673,0,0
455,351,0,0,0,0,0,0,0,0,0,-1,1679,673,0,0
462,351,0,0,0,0,0,0,0,0,0,-1,1686,673,0,0
469,351,0,0,0,0,0,0,0,0,0,-1,1693,673,0,0
476,351,0,0,0,0,0,0,0,0,0,-1,1700,673,0,0
483,351,0,0,0,0,0,0,0,0,0,-1,1707,673,0,0
490,351,0,0,0,0,0,0,0,0,0,-1,1714,673,0,0
497,351,0,0,0,0,0,0,0,0,0,-1,1721,673,0,0
504,351,10.8842,1.61615,0,0,0,0,0,0,0,-1,1728,673,10.8842,-1.61618
511,351,15.4548,0.0236816,0,0,0,0,0,0,0,-1,1735,673,15.4549,-0.0236664
518,351,16.7448,2.49268,0,0,0,0,0,0,0,-1,1742,673,16.7448,-2.49269
525,351,16.0701,3.43225,0,0,0,0,0,0,0,-1,1749,673,16.07,-3.43227
532,351,32.3822,3.03021,0,0,0,0,0,0,0,-1,1756,673,32.3822,-3.03019
539,351,15.3387,3.54486,0,0,0,0,0,0,0,-1,1763,673,15.3387,-3.54485
546,351,13.9387,4.59357,0,0,0,0,0,0,0,-1,1770,673,13.9388,-4.59359
553,351,12.0682,2.02832,0,0,0,0,0,0,0,-1,1777,673,12.0683,-2.02831
560,351,12.0173,0.55304,0,0,0,0,0,0,0,-1,1784,673,12.0174,-0.553028
567,351,10.7827,0.130188,0,0,0,0,0,0,0,-1,1791,673,10.7827,-0.130183
574,351,13.405,-1.09204,0,0,0,0,0,0,0,-1,1798,673,13.405,1.09207
581,351,15.2351,-3.06049,0,0,0,0,0,0,0,-1,1805,673,15.2351,3.06046
588,351,17.3368,-4.17535,0,0,0,0,0,0,0,-1,1812,673,17.3368,4.17534
595,351,17.5189,-3.63092,0.00172115,0.00113482,0.000851826,0.00232885,0.000527123,0.619666,0.00141009,0.0282481,1819,673,17.5189,3.63093
602,351,17.5339,-3.16022,0.00170073,0.000913292,0.000655436,0.00207161,0.000542413,0.514931,0.00124045,0.0184159,1826,673,17.5339,3.16019
609,351,17.5488,-2.7334,0.00178266,0.000940627,0.00074559,0.00221789,0.000505395,0.528378,0.00134223,0.0173665,1833,673,17.5488,2.73342
616,351,17.5237,-2.30432,0.00154761,0.000980415,0.000762285,0.00207734,0.000450682,0.607313,0.00126179,0.0157805,1840,673,17.5237,2.30433
623,351,17.5461,-1.88196,0.00102746,0.000984583,0.000610818,0.00161722,0.000394829,0.767856,0.000973597,0.0159551,1847,673,17.5462,1.88197
630,351,17.5665,-1.48712,0.000173449,0.00083504,0.0004412,0.00105568,-4.71924e-05,1.10707,0.000720034,0.0238579,1854,673,17.5665,1.48714
637,351,17.5571,-1.04224,-0.00112523,0.000727637,0.000174436,0.000743916,-0.00114151,1.47774,0.00109659,0.0281405,1861,673,17.5571,1.04226
644,351,17.4966,-0.628296,-0.00287625,0.000589548,-0.00026792,0.000610137,-0.00289684,-1.4941,0.00216348,0.0216373,1868,673,17.4966,0.628296
651,351,17.5037,-0.176331,-0.00504647,0.000272273,-0.000823932,0.000396985,-0.00517118,-1.42057,0.00358711,0.015968,1875,673,17.5037,0.176356
658,351,17.4452,0.296509,-0.00788128,-0.000283423,-0.0016633,6.4746e-05,-0.00822945,-1.36445,0.00550801,0.0313852,1882,673,17.4452,-0.296522
665,351,17.048,0.504456,-0.0114405,-0.00110349,-0.00263574,-0.000470227,-0.0120738,-1.335,0.00789713,0.0398471,1889,673,17.048,-0.504466
672,351,16.8121,0.922241,0,0,0,0,0,0,0,-1,1896,673,16.8121,-0.922234
679,351,14.1252,1.85681,0,0,0,0,0,0,0,-1,1903,673,14.1253,-1.85682
686,351,13.0294,2.1189,0,0,0,0,0,0,0,-1,1910,673,13.0294,-2.11892
693,351,13.5187,2.34595,0,0,0,0,0,0,0,-1,1917,673,13.5187,-2.34596
700,351,14.5629,-2.40173,0,0,0,0,0,0,0,-1,1924,673,14.5629,2.40172
707,351,0,0,0,0,0,0,0,0,0,-1,1931,673,0,0
714,351,0,0,0,0,0,0,0,0,0,-1,1938,673,0,0
721,351,0,0,0,0,0,0,0,0,0,-1,1945,673,0,0
728,351,0,0,0,0,0,0,0,0,0,-1,1952,673,0,0
735,351,0,0,0,0,0,0,0,0,0,-1,1959,673,0,0
742,351,0,0,0,0,0,0,0,0,0,-1,1966,673,0,0
749,351,0,0,0,0,0,0,0,0,0,-1,1973,673,0,0
756,351,0,0,0,0,0,0,0,0,0,-1,1980,673,0,0
763,351,0,0,0,0,0,0,0,0,0,-1,1987,673,0,0
770,351,0,0,0,0,0,0,0,0,0,-1,1994,673,0,0
777,351,0,0,0,0,0,0,0,0,0,-1,2001,673,0,0
784,351,0,0,0,0,0,0,0,0,0,-1,2008,673,0,0
791,351,0,0,0,0,0,0,0,0,0,-1,2015,673,0,0
798,351,0,0,0,0,0,0,0,0,0,-1,2022,673,0,0
805,351,0,0,0,0,0,0,0,0,0,-1,2029,673,0,0
812,351,0,0,0,0,0,0,0,0,0,-1,2036,673,0,0
-700,344,0,0,0,0,0,0,0,0,0,-1,524,680,0,0
-693,344,0,0,0,0,0,0,0,0,0,-1,531,680,0,0
-686,344,0,0,0,0,0,0,0,0,0,-1,538,680,0,0
-679,344,0,0,0,0,0,0,0,0,0,-1,545,680,0,0
-672,344,0,0,0,0,0,0,0,0,0,-1,552,680,0,0
-665,344,0,0,0,0,0,0,0,0,0,-1,559,680,0,0
-658,344,0,0,0,0,0,0,0,0,0,-1,566,680,0,0
-651,344,0,0,0,0,0,0,0,0,0,-1,573,680,0,0
-644,344,0,0,0,0,0,0,0,0,0,-1,580,680,0,0
-637,344,0,0,0,0,0,0,0,0,0,-1,587,680,0,0
-630,344,0,0,0,0,0,0,0,0,0,-1,594,680,0,0
-623,344,0,0,0,0,0,0,0,0,0,-1,601,680,0,0
-616,344,0,0,0,0,0,0,0,0,0,-1,608,680,0,0
-609,344,0,0,0,0,0,0,0,0,0,-1,615,680,0,0
-602,344,0,0,0,0,0,0,0,0,0,-1,622,680,0,0
-595,344,0,0,0,0,0,0,0,0,0,-1,629,680,0,0
-588,344,-9.27826,1.47302,0,0,0,0,0,0,0,-1,636,680,-9.27829,-1.473
-581,344,-10.0098,1.71753,0,0,0,0,0,0,0,-1,643,680,-10.0098,-1.7175
-574,344,-10.2208,3.04871,0,0,0,0,0,0,0,-1,650,680,-10.2208,-3.04869
-567,344,-10.9838,2.31458,0,0,0,0,0,0,0,-1,657,680,-10.9838,-2.31457
-560,344,-10.4163,1.45575,0.0388968,-0.00499006,-0.0479119,0.0696512,-0.0357444,-0.570656,0.0618909,0.0472364,664,680,-10.4163,-1.45575
-553,344,-10.0569,0.639099,0.0313837,-0.00293408,-0.0396063,0.0573883,-0.0289386,-0.580985,0.050735,0.0463932,671,680,-10.0569,-0.63907
-546,344,-9.91815,-0.11908,0.0242492,-0.00137437,-0.0313963,0.0453471,-0.0224723,-0.591677,0.0398911,0.0439867,678,680,-9.91814,0.119094
-539,344,-9.86017,-0.987427,0.0181318,-0.000355964,-0.0240812,0.0346823,-0.0169065,-0.602139,0.0303685,0.0429813,685,680,-9.86014,0.987441
-532,344,-9.70667,-1.73541,0.0130959,0.000267814,-0.0178171,0.0256183,-0.0122546,-0.612624,0.0223151,0.0283799,692,680,-9.70667,1.73544
-525,344,-9.87872,-2.10217,0.00905989,0.000598067,-0.0125645,0.0180867,-0.00842872,-0.622993,0.0156435,0.0266568,699,680,-9.87871,2.10215
-518,344,-9.87787,-2.55029,0.00601313,0.000752304,-0.00841233,0.0121967,-0.00543127,-0.633871,0.0104244,0.0194962,706,680,-9.87786,2.55029
-511,344,-9.8526,-2.93573,0.00383342,0.000772758,-0.00524137,0.0077633,-0.00315713,-0.643361,0.00648917,0.0176071,713,680,-9.85258,2.93575
-504,344,-9.85284,-3.34747,0.00220837,0.000790167,-0.00281063,0.00439797,-0.00139944,-0.661831,0.00349318,0.0174077,720,680,-9.85283,3.34746
-497,344,-9.88452,-3.74738,0.00135115,0.0006925,-0.00119732,0.00226362,-0.000219961,-0.65119,0.00158749,0.0144773,727,680,-9.88451,3.74736
-490,344,-9.90485,-4.1344,0.00135322,0.000713026,-0.000720249,0.0018213,0.000244949,-0.576292,0.00114135,0.0135406,734,680,-9.90488,4.13442
-483,344,-9.87439,-4.52509,0.00194678,0.000960205,-0.00103963,0.00260422,0.000302769,-0.563884,0.00164454,0.0137405,741,680,-9.87441,4.52507
-476,344,-9.86475,-4.90686,0.00265262,0.00155322,-0.00171873,0.00390742,0.000298423,-0.630624,0.00251139,0.0151233,748,680,-9.86477,4.90689
-469,344,-9.88092,-5.31512,0.00341781,0.00223129,-0.00256765,0.00545985,0.000189248,-0.671864,0.00357848,0.0158233,755,680,-9.88092,5.31514
-462,344,-9.86658,-5.78333,0.00447533,0.00331433,-0.00366226,0.00760281,0.000186853,-0.706798,0.00500742,0.0401735,762,680,-9.86659,5.78332
-455,344,-9.75085,-6.18665,0,0,0,0,0,0,0,-1,769,680,-9.75089,6.18666
-448,344,-5.67657,-2.72864,0,0,0,0,0,0,0,-1,776,680,-5.6766,2.72863
-441,344,-5.09229,-2.34167,0,0,0,0,0,0,0,-1,783,680,-5.09229,2.34168
-434,344,-4.28778,-2.08807,0,0,0,0,0,0,0,-1,790,680,-4.28778,2.08809
-427,344,-3.06506,-1.45404,0,0,0,0,0,0,0,-1,797,680,-3.06505,1.45402
-420,344,-1.96582,-1.57574,0,0,0,0,0,0,0,-1,804,680,-1.96579,1.57574
-413,344,-0.817993,-1.4751,0,0,0,0,0,0,0,-1,811,680,-0.818017,1.47511
-406,344,-0.00714111,-1.25189,0,0,0,0,0,0,0,-1,818,680,-0.00714956,1.25191
-399,344,0.240051,-1.75769,0,0,0,0,0,0,0,-1,825,680,0.240079,1.75767
-392,344,1.11353,-2.05615,0,0,0,0,0,0,0,-1,832,680,1.11351,2.05616
-385,344,0,0,0,0,0,0,0,0,0,-1,839,680,0,0
-378,344,0,0,0,0,0,0,0,0,0,-1,846,680,0,0
-371,344,0,0,0,0,0,0,0,0,0,-1,853,680,0,0
-364,344,0,0,0,0,0,0,0,0,0,-1,860,680,0,0
-357,344,0,0,0,0,0,0,0,0,0,-1,867,680,0,0
-350,344,0,0,0,0,0,0,0,0,0,-1,874,680,0,0
-343,344,0,0,0,0,0,0,0,0,0,-1,881,680,0,0
-336,344,0,0,0,0,0,0,0,0,0,-1,888,680,0,0
-329,344,0,0,0,0,0,0,0,0,0,-1,895,680,0,0
-322,344,0,0,0,0,0,0,0,0,0,-1,902,680,0,0
-315,344,0,0,0,0,0,0,0,0,0,-1,909,680,0,0
-308,344,0,0,0,0,0,0,0,0,0,-1,916,680,0,0
-301,344,0,0,0,0,0,0,0,0,0,-1,923,680,0,0
-294,344,0,0,0,0,0,0,0,0,0,-1,930,680,0,0
-287,344,0,0,0,0,0,0,0,0,0,-1,937,680,0,0
-280,344,0,0,0,0,0,0,0,0,0,-1,944,680,0,0
-273,344,0,0,0,0,0,0,0,0,0,-1,951,680,0,0
-266,344,0,0,0,0,0,0,0,0,0,-1,958,680,0,0
-259,344,0,0,0,0,0,0,0,0,0,-1,965,680,0,0
-252,344,0,0,0,0,0,0,0,0,0,-1,972,680,0,0
-245,344,0,0,0,0,0,0,0,0,0,-1,979,680,0,0
-238,344,0,0,0,0,0,0,0,0,0,-1,986,680,0,0
-231,344,0,0,0,0,0,0,0,0,0,-1,993,680,0,0
-224,344,0,0,0,0,0,0,0,0,0,-1,1000,680,0,0
-217,344,0,0,0,0,0,0,0,0,0,-1,1007,680,0,0
-210,344,0,0,0,0,0,0,0,0,0,-1,1014,680,0,0
-203,344,0,0,0,0,0,0,0,0,0,-1,1021,680,0,0
-196,344,0,0,0,0,0,0,0,0,0,-1,1028,680,0,0
-189,344,0,0,0,0,0,0,0,0,0,-1,1035,680,0,0
-182,344,0,0,0,0,0,0,0,0,0,-1,1042,680,0,0
-175,344,0,0,0,0,0,0,0,0,0,-1,1049,680,0,0
-168,344,0,0,0,0,0,0,0,0,0,-1,1056,680,0,0
-161,344,0,0,0,0,0,0,0,0,0,-1,1063,680,0,0
-154,344,0,0,0,0,0,0,0,0,0,-1,1070,680,0,0
-147,344,0,0,0,0,0,0,0,0,0,-1,1077,680,0,0
-140,344,0,0,0,0,0,0,0,0,0,-1,1084,680,0,0
-133,344,0,0,0,0,0,0,0,0,0,-1,1091,680,0,0
-126,344,0,0,0,0,0,0,0,0,0,-1,1098,680,0,0
-119,344,0,0,0,0,0,0,0,0,0,-1,1105,680,0,0
-112,344,0,0,0,0,0,0,0,0,0,-1,1112,680,0,0
-105,344,0,0,0,0,0,0,0,0,0,-1,1119,680,0,0
-98,344,0,0,0,0,0,0,0,0,0,-1,1126,680,0,0
-91,344,0,0,0,0,0,0,0,0,0,-1,1133,680,0,0
-84,344,0,0,0,0,0,0,0,0,0,-1,1140,680,0,0
-77,344,0,0,0,0,0,0,0,0,0,-1,1147,680,0,0
-70,344,0,0,0,0,0,0,0,0,0,-1,1154,680,0,0
-63,344,0,0,0,0,0,0,0,0,0,-1,1161,680,0,0
-56,344,0,0,0,0,0,0,0,0,0,-1,1168,680,0,0
-49,344,0,0,0,0,0,0,0,0,0,-1,1175,680,0,0
-42,344,0,0,0,0,0,0,0,0,0,-1,1182,680,0,0
-35,344,0,0,0,0,0,0,0,0,0,-1,1189,680,0,0
-28,344,0,0,0,0,0,0,0,0,0,-1,1196,680,0,0
-21,344,0,0,0,0,0,0,0,0,0,-1,1203,680,0,0
-14,344,0,0,0,0,0,0,0,0,0,-1,1210,680,0,0
-7,344,0,0,0,0,0,0,0,0,0,-1,1217,680,0,0
0,344,0,0,0,0,0,0,0,0,0,-1,1224,680,0,0
7,344,0,0,0,0,0,0,0,0,0,-1,1231,680,0,0
14,344,0,0,0,0,0,0,0,0,0,-1,1238,680,0,0
21,344,0,0,0,0,0,0,0,0,0,-1,1245,680,0,0
28,344,0,0,0,0,0,0,0,0,0,-1,1252,680,0,0
35,344,0,0,0,0,0,0,0,0,0,-1,1259,680,0,0
42,344,0,0,0,0,0,0,0,0,0,-1,1266,680,0,0
49,344,0,0,0,0,0,0,0,0,0,-1,1273,680,0,0
56,344,0,0,0,0,0,0,0,0,0,-1,1280,680,0,0
63,344,0,0,0,0,0,0,0,0,0,-1,1287,680,0,0
70,344,0,0,0,0,0,0,0,0,0,-1,1294,680,0,0
77,344,0,0,0,0,0,0,0,0,0,-1,1301,680,0,0
84,344,0,0,0,0,0,0,0,0,0,-1,1308,680,0,0
91,344,0,0,0,0,0,0,0,0,0,-1,1315,680,0,0
98,344,0,0,0,0,0,0,0,0,0,-1,1322,680,0,0
105,344,0,0,0,0,0,0,0,0,0,-1,1329,680,0,0
112,344,0,0,0,0,0,0,0,0,0,-1,1336,680,0,0
119,344,0,0,0,0,0,0,0,0,0,-1,1343,680,0,0
126,344,0,0,0,0,0,0,0,0,0,-1,1350,680,0,0
133,344,0,0,0,0,0,0,0,0,0,-1,1357,680,0,0
140,344,0,0,0,0,0,0,0,0,0,-1,1364,680,0,0
147,344,0,0,0,0,0,0,0,0,0,-1,1371,680,0,0
154,344,0,0,0,0,0,0,0,0,0,-1,1378,680,0,0
161,344,0,0,0,0,0,0,0,0,0,-1,1385,680,0,0
168,344,0,0,0,0,0,0,0,0,0,-1,1392,680,0,0
175,344,0,0,0,0,0,0,0,0,0,-1,1399,680,0,0
182,344,0,0,0,0,0,0,0,0,0,-1,1406,680,0,0
189,344,0,0,0,0,0,0,0,0,0,-1,1413,680,0,0
196,344,0,0,0,0,0,0,0,0,0,-1,1420,680,0,0
203,344,0,0,0,0,0,0,0,0,0,-1,1427,680,0,0
210,344,0,0,0,0,0,0,0,0,0,-1,1434,680,0,0
217,344,0,0,0,0,0,0,0,0,0,-1,1441,680,0,0
224,344,0,0,0,0,0,0,0,0,0,-1,1448,680,0,0
231,344,0,0,0,0,0,0,0,0,0,-1,1455,680,0,0
238,344,0,0,0,0,0,0,0,0,0,-1,1462,680,0,0
245,344,0,0,0,0,0,0,0,0,0,-1,1469,680,0,0
252,344,0,0,0,0,0,0,0,0,0,-1,1476,680,0,0
259,344,0,0,0,0,0,0,0,0,0,-1,1483,680,0,0
266,344,0,0,0,0,0,0,0,0,0,-1,1490,680,0,0
273,344,0,0,0,0,0,0,0,0,0,-1,1497,680,0,0
280,344,0,0,0,0,0,0,0,0,0,-1,1504,680,0,0
287,344,0,0,0,0,0,0,0,0,0,-1,1511,680,0,0
294,344,0,0,0,0,0,0,0,0,0,-1,1518,680,0,0
301,344,0,0,0,0,0,0,0,0,0,-1,1525,680,0,0
308,344,0,0,0,0,0,0,0,0,0,-1,1532,680,0,0
315,344,0,0,0,0,0,0,0,0,0,-1,1539,680,0,0
322,344,0,0,0,0,0,0,0,0,0,-1,1546,680,0,0
329,344,0,0,0,0,0,0,0,0,0,-1,1553,680,0,0
336,344,0,0,0,0,0,0,0,0,0,-1,1560,680,0,0
343,344,0,0,0,0,0,0,0,0,0,-1,1567,680,0,0
350,344,0,0,0,0,0,0,0,0,0,-1,1574,680,0,0
357,344,0,0,0,0,0,0,0,0,0,-1,1581,680,0,0
364,344,0,0,0,0,0,0,0,0,0,-1,1588,680,0,0
371,344,0,0,0,0,0,0,0,0,0,-1,1595,680,0,0
378,344,0,0,0,0,0,0,0,0,0,-1,1602,680,0,0
385,344,0,0,0,0,0,0,0,0,0,-1,1609,680,0,0
392,344,0,0,0,0,0,0,0,0,0,-1,1616,680,0,0
399,344,0,0,0,0,0,0,0,0,0,-1,1623,680,0,0
406,344,0,0,0,0,0,0,0,0,0,-1,1630,680,0,0
413,344,0,0,0,0,0,0,0,0,0,-1,1637,680,0,0
420,344,0,0,0,0,0,0,0,0,0,-1,1644,680,0,0
427,344,0,0,0,0,0,0,0,0,0,-1,1651,680,0,0
434,344,0,0,0,0,0,0,0,0,0,-1,1658,680,0,0
441,344,0,0,0,0,0,0,0,0,0,-1,1665,680,0,0
448,344,0,0,0,0,0,0,0,0,0,-1,1672,680,0,0
455,344,0,0,0,0,0,0,0,0,0,-1,1679,680,0,0
462,344,0,0,0,0,0,0,0,0,0,-1,1686,680,0,0
469,344,0,0,0,0,0,0,0,0,0,-1,1693,680,0,0
476,344,0,0,0,0,0,0,0,0,0,-1,1700,680,0,0
483,344,0,0,0,0,0,0,0,0,0,-1,1707,680,0,0
490,344,0,0,0,0,0,0,0,0,0,-1,1714,680,0,0
497,344,0,0,0,0,0,0,0,0,0,-1,1721,680,0,0
504,344,0,0,0,0,0,0,0,0,0,-1,1728,680,0,0
511,344,15.4819,0.452637,0,0,0,0,0,0,0,-1,1735,680,15.4819,-0.452656
518,344,17.1357,2.31207,0,0,0,0,0,0,0,-1,1742,680,17.1358,-2.31207
525,344,31.5201,2.6217,0,0,0,0,0,0,0,-1,1749,680,31.5201,-2.62168
532,344,31.9766,2.61047,0,0,0,0,0,0,0,-1,1756,680,31.9765,-2.6105
539,344,32.4379,2.65314,0,0,0,0,0,0,0,-1,1763,680,32.4378,-2.65316
546,344,14.6722,4.30243,0,0,0,0,0,0,0,-1,1770,680,14.6722,-4.30241
553,344,14.8136,4.35681,0,0,0,0,0,0,0,-1,1777,680,14.8136,-4.35679
560,344,11.9363,2.14185,0,0,0,0,0,0,0,-1,1784,680,11.9362,-2.14182
567,344,11.397,0.925842,0,0,0,0,0,0,0,-1,1791,680,11.397,-0.92583
574,344,10.0004,0.504639,0,0,0,0,0,0,0,-1,1798,680,10.0004,-0.504645
581,344,13.6709,-0.969604,0,0,0,0,0,0,0,-1,1805,680,13.6709,0.969629
588,344,16.1447,-3.15948,0,0,0,0,0,0,0,-1,1812,680,16.1447,3.15946
595,344,17.9382,-3.69421,0,0,0,0,0,0,0,-1,1819,680,17.9383,3.69424
602,344,18.1272,-3.1261,0.00192518,0.000916013,0.000733366,0.00231078,0.000530411,0.484072,0.00139768,0.0429677,1826,680,18.1272,3.12612
609,344,18.0001,-2.69324,0.00210096,0.00080883,0.000806779,0.00248848,0.000421313,0.447785,0.00153791,0.0160027,1833,680,18.0001,2.69322
616,344,17.9561,-2.24677,0.00188439,0.000789595,0.000817289,0.00232066,0.000353324,0.490322,0.00144382,0.0233531,1840,680,17.9561,2.24676
623,344,17.97,-1.8606,0.00130019,0.000715468,0.00060057,0.00167578,0.000339877,0.55888,0.00102289,0.0200561,1847,680,17.97,1.86058
630,344,18.0037,-1.4693,0.000422881,0.000530933,0.000373371,0.000854167,9.96473e-05,0.857248,0.000539306,0.0246756,1854,680,18.0037,1.4693
637,344,17.9803,-1.03882,-0.000870139,0.000362504,6.46581e-05,0.000365886,-0.000873521,1.51853,0.000735307,0.0242456,1861,680,17.9803,1.0388
644,344,17.9325,-0.615417,-0.00258114,0.000205347,-0.000420374,0.000267384,-0.00264318,-1.42428,0.00185767,0.0166607,1868,680,17.9325,0.615432
651,344,17.9125,-0.190552,-0.00458802,-0.000104299,-0.000950652,8.89332e-05,-0.00478126,-1.37027,0.00321756,0.0114883,1875,680,17.9125,0.190548
658,344,17.9071,0.310913,-0.00711537,-0.000549562,-0.00166253,-0.000152592,-0.00751234,-1.33641,0.00495814,0.0217923,1882,680,17.9071,-0.310904
665,344,17.7776,0.70282,-0.0102169,-0.00115522,-0.00248393,-0.000519014,-0.0108531,-1.32006,0.00706875,0.0339159,1889,680,17.7776,-0.70283
672,344,17.7849,1.05518,0,0,0,0,0,0,0,-1,1896,680,17.7849,-1.0552
679,344,18.0424,1.065,0,0,0,0,0,0,0,-1,1903,680,18.0423,-1.06498
686,344,15.024,1.82709,0,0,0,0,0,0,0,-1,1910,680,15.024,-1.82706
693,344,12.4362,-1.42346,0,0,0,0,0,0,0,-1,1917,680,12.4361,1.42348
700,344,17.5396,2.61206,0,0,0,0,0,0,0,-1,1924,680,17.5396,-2.61204
707,344,18.5829,3.29352,0,0,0,0,0,0,0,-1,1931,680,18.5828,-3.2935
714,344,0,0,0,0,0,0,0,0,0,-1,1938,680,0,0
721,344,0,0,0,0,0,0,0,0,0,-1,1945,680,0,0
728,344,0,0,0,0,0,0,0,0,0,-1,1952,680,0,0
735,344,0,0,0,0,0,0,0,0,0,-1,1959,680,0,0
742,344,0,0,0,0,0,0,0,0,0,-1,1966,680,0,0
749,344,0,0,0,0,0,0,0,0,0,-1,1973,680,0,0
756,344,0,0,0,0,0,0,0,0,0,-1,1980,680,0,0
763,344,0,0,0,0,0,0,0,0,0,-1,1987,680,0,0
770,344,0,0,0,0,0,0,0,0,0,-1,1994,680,0,0
777,344,0,0,0,0,0,0,0,0,0,-1,2001,680,0,0
784,344,0,0,0,0,0,0,0,0,0,-1,2008,680,0,0
791,344,0,0,0,0,0,0,0,0,0,-1,2015,680,0,0
798,344,0,0,0,0,0,0,0,0,0,-1,2022,680,0,0
805,344,0,0,0,0,0,0,0,0,0,-1,2029,680,0,0
812,344,0,0,0,0,0,0,0,0,0,-1,2036,680,0,0
-700,337,0,0,0,0,0,0,0,0,0,-1,524,687,0,0
-693,337,0,0,0,0,0,0,0,0,0,-1,531,687,0,0
-686,337,0,0,0,0,0,0,0,0,0,-1,538,687,0,0
-679,337,0,0,0,0,0,0,0,0,0,-1,545,687,0,0
-672,337,0,0,0,0,0,0,0,0,0,-1,552,687,0,0
-665,337,0,0,0,0,0,0,0,0,0,-1,559,687,0,0
-658,337,0,0,0,0,0,0,0,0,0,-1,566,687,0,0
-651,337,0,0,0,0,0,0,0,0,0,-1,573,687,0,0
-644,337,0,0,0,0,0,0,0,0,0,-1,580,687,0,0
-637,337,0,0,0,0,0,0,0,0,0,-1,587,687,0,0
-630,337,0,0,0,0,0,0,0,0,0,-1,594,687,0,0
-623,337,0,0,0,0,0,0,0,0,0,-1,601,687,0,0
-616,337,0,0,0,0,0,0,0,0,0,-1,608,687,0,0
-609,337,0,0,0,0,0,0,0,0,0,-1,615,687,0,0
-602,337,0,0,0,0,0,0,0,0,0,-1,622,687,0,0
-595,337,0,0,0,0,0,0,0,0,0,-1,629,687,0,0
-588,337,-10.8413,1.27863,0,0,0,0,0,0,0,-1,636,687,-10.8413,-1.27861
-581,337,-11.2157,1.31567,0,0,0,0,0,0,0,-1,643,687,-11.2157,-1.3157
-574,337,-6.03339,2.0321,0,0,0,0,0,0,0,-1,650,687,-6.03337,-2.03213
-567,337,-9.8313,1.39795,0,0,0,0,0,0,0,-1,657,687,-9.83129,-1.39793
-560,337,-10.5417,1.32776,0,0,0,0,0,0,0,-1,664,687,-10.5417,-1.32775
-553,337,-10.1547,0.139648,0,0,0,0,0,0,0,-1,671,687,-10.1547,-0.139626
-546,337,-10.3056,-0.0985718,0.0178572,0.000537893,-0.0240805,0.0347878,-0.0163927,-0.612792,0.0301786,0.0415082,678,687,-10.3056,0.0985944
-539,337,-10.1603,-1.17072,0.0135073,0.00100852,-0.018622,0.0269006,-0.0123848,-0.623508,0.0231918,0.0286632,685,687,-10.1603,1.17074
-532,337,-10.21,-1.71979,0.00982925,0.00116287,-0.0138042,0.0199644,-0.00897229,-0.633317,0.0171037,0.0191659,692,687,-10.21,1.71981
-525,337,-10.2821,-2.13568,0.00682478,0.00111966,-0.009669,0.0140532,-0.00610878,-0.641957,0.011938,0.0156899,699,687,-10.2821,2.13565
-518,337,-10.2862,-2.55206,0.00455898,0.00101969,-0.00639855,0.00942809,-0.00384942,-0.650486,0.00788809,0.0232573,706,687,-10.2862,2.55209
-511,337,-10.2634,-2.935,0.00292768,0.000852632,-0.00383629,0.00586427,-0.00208395,-0.653333,0.00475877,0.0240268,713,687,-10.2633,2.93503
-504,337,-10.2518,-3.36194,0.00172621,0.000702479,-0.00184734,0.00313129,-0.0007026,-0.650247,0.0023569,0.0236153,720,687,-10.2518,3.36192
-497,337,-10.2608,-3.74268,0.00122831,0.000526508,-0.00067097,0.0016346,0.000120222,-0.544469,0.00105195,0.0161777,727,687,-10.2608,3.74266
-490,337,-10.2972,-4.13422,0.00152049,0.000504044,-0.00052974,0.00174637,0.000278159,-0.403063,0.0010835,0.0136697,734,687,-10.2972,4.13419
-483,337,-10.2851,-4.54565,0.00217086,0.000888979,-0.000983993,0.00270425,0.000355591,-0.49673,0.00169677,0.0141269,741,687,-10.2851,4.54567
-476,337,-10.2643,-4.95453,0.00287239,0.00161928,-0.00177332,0.00412659,0.000365079,-0.615583,0.0026378,0.0142334,748,687,-10.2644,4.95454
-469,337,-10.2469,-5.41254,0.00365553,0.00241419,-0.00276638,0.00587002,0.000199708,-0.675044,0.0038485,0.0337957,755,687,-10.2469,5.41254
-462,337,-10.1404,-5.73737,0,0,0,0,0,0,0,-1,762,687,-10.1404,5.73739
-455,337,-6.00574,-3.12933,0,0,0,0,0,0,0,-1,769,687,-6.00576,3.12934
-448,337,-5.30627,-2.07202,0,0,0,0,0,0,0,-1,776,687,-5.30628,2.07205
-441,337,-4.24762,-1.49597,0,0,0,0,0,0,0,-1,783,687,-4.24762,1.49598
-434,337,-6.86908,1.37531,0,0,0,0,0,0,0,-1,790,687,-6.86908,-1.3753
-427,337,-9.92004,2.487,0,0,0,0,0,0,0,-1,797,687,-9.92002,-2.48701
-420,337,-2.95996,-1.76697,0,0,0,0,0,0,0,-1,804,687,-2.95998,1.76696
-413,337,-1.29169,-1.99487,0,0,0,0,0,0,0,-1,811,687,-1.29171,1.9949
-406,337,-1.02356,-1.89563,0,0,0,0,0,0,0,-1,818,687,-1.02357,1.89564
-399,337,-0.472839,-2.21338,0,0,0,0,0,0,0,-1,825,687,-0.472837,2.2134
-392,337,0,0,0,0,0,0,0,0,0,-1,832,687,0,0
-385,337,0,0,0,0,0,0,0,0,0,-1,839,687,0,0
-378,337,0,0,0,0,0,0,0,0,0,-1,846,687,0,0
-371,337,0,0,0,0,0,0,0,0,0,-1,853,687,0,0
-364,337,0,0,0,0,0,0,0,0,0,-1,860,687,0,0
-357,337,0,0,0,0,0,0,0,0,0,-1,867,687,0,0
-350,337,0,0,0,0,0,0,0,0,0,-1,874,687,0,0
-343,337,0,0,0,0,0,0,0,0,0,-1,881,687,0,0
-336,337,0,0,0,0,0,0,0,0,0,-1,888,687,0,0
-329,337,0,0,0,0,0,0,0,0,0,-1,895,687,0,0
-322,337,0,0,0,0,0,0,0,0,0,-1,902,687,0,0
-315,337,0,0,0,0,0,0,0,0,0,-1,909,687,0,0
-308,337,0,0,0,0,0,0,0,0,0,-1,916,687,0,0
-301,337,0,0,0,0,0,0,0,0,0,-1,923,687,0,0
-294,337,0,0,0,0,0,0,0,0,0,-1,930,687,0,0
-287,337,0,0,0,0,0,0,0,0,0,-1,937,687,0,0
-280,337,0,0,0,0,0,0,0,0,0,-1,944,687,0,0
-273,337,0,0,0,0,0,0,0,0,0,-1,951,687,0,0
-266,337,0,0,0,0,0,0,0,0,0,-1,958,687,0,0
-259,337,0,0,0,0,0,0,0,0,0,-1,965,687,0,0
-252,337,0,0,0,0,0,0,0,0,0,-1,972,687,0,0
-245,337,0,0,0,0,0,0,0,0,0,-1,979,687,0,0
-238,337,0,0,0,0,0,0,0,0,0,-1,986,687,0,0
-231,337,0,0,0,0,0,0,0,0,0,-1,993,687,0,0
-224,337,0,0,0,0,0,0,0,0,0,-1,1000,687,0,0
-217,337,0,0,0,0,0,0,0,0,0,-1,1007,687,0,0
-210,337,0,0,0,0,0,0,0,0,0,-1,1014,687,0,0
-203,337,0,0,0,0,0,0,0,0,0,-1,1021,687,0,0
-196,337,0,0,0,0,0,0,0,0,0,-1,1028,687,0,0
-189,337,0,0,0,0,0,0,0,0,0,-1,1035,687,0,0
-182,337,0,0,0,0,0,0,0,0,0,-1,1042,687,0,0
-175,337,0,0,0,0,0,0,0,0,0,-1,1049,687,0,0
-168,337,0,0,0,0,0,0,0,0,0,-1,1056,687,0,0
-161,337,0,0,0,0,0,0,0,0,0,-1,1063,687,0,0
-154,337,0,0,0,0,0,0,0,0,0,-1,1070,687,0,0
-147,337,0,0,0,0,0,0,0,0,0,-1,1077,687,0,0
-140,337,0,0,0,0,0,0,0,0,0,-1,1084,687,0,0
-133,337,0,0,0,0,0,0,0,0,0,-1,1091,687,0,0
-126,337,0,0,0,0,0,0,0,0,0,-1,1098,687,0,0
-119,337,0,0,0,0,0,0,0,0,0,-1,1105,687,0,0
-112,337,0,0,0,0,0,0,0,0,0,-1,1112,687,0,0
-105,337,0,0,0,0,0,0,0,0,0,-1,1119,687,0,0
-98,337,0,0,0,0,0,0,0,0,0,-1,1126,687,0,0
-91,337,0,0,0,0,0,0,0,0,0,-1,1133,687,0,0
-84,337,0,0,0,0,0,0,0,0,0,-1,1140,687,0,0
-77,337,0,0,0,0,0,0,0,0,0,-1,1147,687,0,0
-70,337,0,0,0,0,0,0,0,0,0,-1,1154,687,0,0
-63,337,0,0,0,0,0,0,0,0,0,-1,1161,687,0,0
-56,337,0,0,0,0,0,0,0,0,0,-1,1168,687,0,0
-49,337,0,0,0,0,0,0,0,0,0,-1,1175,687,0,0
-42,337,0,0,0,0,0,0,0,0,0,-1,1182,687,0,0
-35,337,0,0,0,0,0,0,0,0,0,-1,1189,687,0,0
-28,337,0,0,0,0,0,0,0,0,0,-1,1196,687,0,0
-21,337,0,0,0,0,0,0,0,0,0,-1,1203,687,0,0
-14,337,0,0,0,0,0,0,0,0,0,-1,1210,687,0,0
-7,337,0,0,0,0,0,0,0,0,0,-1,1217,687,0,0
0,337,0,0,0,0,0,0,0,0,0,-1,1224,687,0,0
7,337,0,0,0,0,0,0,0,0,0,-1,1231,687,0,0
14,337,0,0,0,0,0,0,0,0,0,-1,1238,687,0,0
21,337,0,0,0,0,0,0,0,0,0,-1,1245,687,0,0
28,337,0,0,0,0,0,0,0,0,0,-1,1252,687,0,0
35,337,0,0,0,0,0,0,0,0,0,-1,1259,687,0,0
42,337,0,0,0,0,0,0,0,0,0,-1,1266,687,0,0
49,337,0,0,0,0,0,0,0,0,0,-1,1273,687,0,0
56,337,0,0,0,0,0,0,0,0,0,-1,1280,687,0,0
63,337,0,0,0,0,0,0,0,0,0,-1,1287,687,0,0
70,337,0,0,0,0,0,0,0,0,0,-1,1294,687,0,0
77,337,0,0,0,0,0,0,0,0,0,-1,1301,687,0,0
84,337,0,0,0,0,0,0,0,0,0,-1,1308,687,0,0
91,337,0,0,0,0,0,0,0,0,0,-1,1315,687,0,0
98,337,0,0,0,0,0,0,0,0,0,-1,1322,687,0,0
105,337,0,0,0,0,0,0,0,0,0,-1,1329,687,0,0
112,337,0,0,0,0,0,0,0,0,0,-1,1336,687,0,0
119,337,0,0,0,0,0,0,0,0,0,-1,1343,687,0,0
126,337,0,0,0,0,0,0,0,0,0,-1,1350,687,0,0
133,337,0,0,0,0,0,0,0,0,0,-1,1357,687,0,0
140,337,0,0,0,0,0,0,0,0,0,-1,1364,687,0,0
147,337,0,0,0,0,0,0,0,0,0,-1,1371,687,0,0
154,337,0,0,0,0,0,0,0,0,0,-1,1378,687,0,0
161,337,0,0,0,0,0,0,0,0,0,-1,1385,687,0,0
168,337,0,0,0,0,0,0,0,0,0,-1,1392,687,0,0
175,337,0,0,0,0,0,0,0,0,0,-1,1399,687,0,0
182,337,0,0,0,0,0,0,0,0,0,-1,1406,687,0,0
189,337,0,0,0,0,0,0,0,0,0,-1,1413,687,0,0
196,337,0,0,0,0,0,0,0,0,0,-1,1420,687,0,0
203,337,0,0,0,0,0,0,0,0,0,-1,1427,687,0,0
210,337,0,0,0,0,0,0,0,0,0,-1,1434,687,0,0
217,337,0,0,0,0,0,0,0,0,0,-1,1441,687,0,0
224,337,0,0,0,0,0,0,0,0,0,-1,1448,687,0,0
231,337,0,0,0,0,0,0,0,0,0,-1,1455,687,0,0
238,337,0,0,0,0,0,0,0,0,0,-1,1462,687,0,0
245,337,0,0,0,0,0,0,0,0,0,-1,1469,687,0,0
252,337,0,0,0,0,0,0,0,0,0,-1,1476,687,0,0
259,337,0,0,0,0,0,0,0,0,0,-1,1483,687,0,0
266,337,0,0,0,0,0,0,0,0,0,-1,1490,687,0,0
273,337,0,0,0,0,0,0,0,0,0,-1,1497,687,0,0
280,337,0,0,0,0,0,0,0,0,0,-1,1504,687,0,0
287,337,0,0,0,0,0,0,0,0,0,-1,1511,687,0,0
294,337,0,0,0,0,0,0,0,0,0,-1,1518,687,0,0
301,337,0,0,0,0,0,0,0,0,0,-1,1525,687,0,0
308,337,0,0,0,0,0,0,0,0,0,-1,1532,687,0,0
315,337,0,0,0,0,0,0,0,0,0,-1,1539,687,0,0
322,337,0,0,0,0,0,0,0,0,0,-1,1546,687,0,0
329,337,0,0,0,0,0,0,0,0,0,-1,1553,687,0,0
336,337,0,0,0,0,0,0,0,0,0,-1,1560,687,0,0
343,337,0,0,0,0,0,0,0,0,0,-1,1567,687,0,0
350,337,0,0,0,0,0,0,0,0,0,-1,1574,687,0,0
357,337,0,0,0,0,0,0,0,0,0,-1,1581,687,0,0
364,337,0,0,0,0,0,0,0,0,0,-1,1588,687,0,0
371,337,0,0,0,0,0,0,0,0,0,-1,1595,687,0,0
378,337,0,0,0,0,0,0,0,0,0,-1,1602,687,0,0
385,337,0,0,0,0,0,0,0,0,0,-1,1609,687,0,0
392,337,0,0,0,0,0,0,0,0,0,-1,1616,687,0,0
399,337,0,0,0,0,0,0,0,0,0,-1,1623,687,0,0
406,337,0,0,0,0,0,0,0,0,0,-1,1630,687,0,0
413,337,0,0,0,0,0,0,0,0,0,-1,1637,687,0,0
420,337,0,0,0,0,0,0,0,0,0,-1,1644,687,0,0
427,337,0,0,0,0,0,0,0,0,0,-1,1651,687,0,0
434,337,0,0,0,0,0,0,0,0,0,-1,1658,687,0,0
441,337,0,0,0,0,0,0,0,0,0,-1,1665,687,0,0
448,337,0,0,0,0,0,0,0,0,0,-1,1672,687,0,0
455,337,0,0,0,0,0,0,0,0,0,-1,1679,687,0,0
462,337,0,0,0,0,0,0,0,0,0,-1,1686,687,0,0
469,337,0,0,0,0,0,0,0,0,0,-1,1693,687,0,0
476,337,0,0,0,0,0,0,0,0,0,-1,1700,687,0,0
483,337,0,0,0,0,0,0,0,0,0,-1,1707,687,0,0
490,337,0,0,0,0,0,0,0,0,0,-1,1714,687,0,0
497,337,0,0,0,0,0,0,0,0,0,-1,1721,687,0,0
504,337,0,0,0,0,0,0,0,0,0,-1,1728,687,0,0
511,337,0,0,0,0,0,0,0,0,0,-1,1735,687,0,0
518,337,18.0369,1.64581,0,0,0,0,0,0,0,-1,1742,687,18.0368,-1.64581
525,337,31.0717,2.13745,0,0,0,0,0,0,0,-1,1749,687,31.0717,-2.13747
532,337,31.5126,2.13904,0,0,0,0,0,0,0,-1,1756,687,31.5125,-2.13905
539,337,31.9684,2.15594,0,0,0,0,0,0,0,-1,1763,687,31.9684,-2.15596
546,337,32.3584,1.43719,0,0,0,0,0,0,0,-1,1770,687,32.3585,-1.43722
553,337,32.1809,1.36395,0,0,0,0,0,0,0,-1,1777,687,32.181,-1.36396
560,337,18.4053,3.62793,0,0,0,0,0,0,0,-1,1784,687,18.4052,-3.6279
567,337,11.9288,1.38776,0,0,0,0,0,0,0,-1,1791,687,11.9288,-1.38777
574,337,10.704,1.19476,0,0,0,0,0,0,0,-1,1798,687,10.704,-1.19478
581,337,8.50427,0.561768,0,0,0,0,0,0,0,-1,1805,687,8.5043,-0.561754
588,337,8.5885,-0.0536499,0,0,0,0,0,0,0,-1,1812,687,8.58844,0.0536788
595,337,13.8816,-1.70703,0,0,0,0,0,0,0,-1,1819,687,13.8816,1.70702
602,337,18.3926,-3.18958,0,0,0,0,0,0,0,-1,1826,687,18.3926,3.18959
609,337,18.4021,-2.64618,0.0025893,0.000783583,0.000960608,0.00300474,0.000368139,0.40819,0.00189242,0.0284767,1833,687,18.402,2.64618
616,337,18.373,-2.23029,0.00235463,0.000671811,0.00094781,0.00278062,0.000245816,0.422398,0.00177748,0.0166464,1840,687,18.3731,2.23026
623,337,18.3938,-1.83698,0.00168464,0.000527262,0.000669463,0.00199086,0.000221043,0.428999,0.00126004,0.0139915,1847,687,18.3938,1.83695
630,337,18.4011,-1.43695,0.000789113,0.000338858,0.000387462,0.0010121,0.000115868,0.522221,0.000639621,0.0181912,1854,687,18.4011,1.43696
637,337,18.3821,-1.02808,-0.000480962,0.000137421,5.00101e-05,0.000141439,-0.00048498,1.49062,0.00037936,0.0174714,1861,687,18.3821,1.0281
644,337,18.3428,-0.597778,-0.00213993,-2.13227e-06,-0.000440316,8.50061e-05,-0.00222707,-1.37542,0.00151385,0.0117675,1868,687,18.3428,0.597808
651,337,18.3307,-0.170349,-0.00398741,-0.000253589,-0.000934667,-3.26873e-05,-0.00420831,-1.33871,0.00279471,0.0103142,1875,687,18.3307,0.170339
658,337,18.339,0.254272,-0.00616755,-0.000549984,-0.00151957,-0.000165282,-0.00655225,-1.32284,0.00431413,0.0121884,1882,687,18.339,-0.25428
665,337,18.3511,0.661804,-0.00881991,-0.000925083,-0.00220094,-0.000352959,-0.00939203,-1.31648,0.00614708,0.0150464,1889,687,18.3511,-0.661802
672,337,18.3187,1.03003,-0.0119298,-0.00139144,-0.00302308,-0.000585814,-0.0127354,-1.31036,0.00830192,0.0249396,1896,687,18.3187,-1.03003
679,337,18.3318,1.22675,-0.0157942,-0.00204231,-0.00406362,-0.000931285,-0.0169052,-1.30391,0.0109729,0.0477308,1903,687,18.3318,-1.22675
686,337,18.5237,1.48865,0,0,0,0,0,0,0,-1,1910,687,18.5236,-1.48866
693,337,16.5415,2.21411,0,0,0,0,0,0,0,-1,1917,687,16.5415,-2.2141
700,337,17.2661,2.44379,0,0,0,0,0,0,0,-1,1924,687,17.2661,-2.44378
707,337,17.3544,5.61853,0,0,0,0,0,0,0,-1,1931,687,17.3543,-5.61851
714,337,0,0,0,0,0,0,0,0,0,-1,1938,687,0,0
721,337,0,0,0,0,0,0,0,0,0,-1,1945,687,0,0
728,337,0,0,0,0,0,0,0,0,0,-1,1952,687,0,0
735,337,0,0,0,0,0,0,0,0,0,-1,1959,687,0,0
742,337,0,0,0,0,0,0,0,0,0,-1,1966,687,0,0
749,337,0,0,0,0,0,0,0,0,0,-1,1973,687,0,0
756,337,0,0,0,0,0,0,0,0,0,-1,1980,687,0,0
763,337,0,0,0,0,0,0,0,0,0,-1,1987,687,0,0
770,337,0,0,0,0,0,0,0,0,0,-1,1994,687,0,0
777,337,0,0,0,0,0,0,0,0,0,-1,2001,687,0,0
784,337,0,0,0,0,0,0,0,0,0,-1,2008,687,0,0
791,337,0,0,0,0,0,0,0,0,0,-1,2015,687,0,0
798,337,0,0,0,0,0,0,0,0,0,-1,2022,687,0,0
805,337,0,0,0,0,0,0,0,0,0,-1,2029,687,0,0
812,337,0,0,0,0,0,0,0,0,0,-1,2036,687,0,0
-700,330,0,0,0,0,0,0,0,0,0,-1,524,694,0,0
-693,330,0,0,0,0,0,0,0,0,0,-1,531,694,0,0
-686,330,0,0,0,0,0,0,0,0,0,-1,538,694,0,0
-679,330,0,0,0,0,0,0,0,0,0,-1,545,694,0,0
-672,330,0,0,0,0,0,0,0,0,0,-1,552,694,0,0
-665,330,0,0,0,0,0,0,0,0,0,-1,559,694,0,0
-658,330,0,0,0,0,0,0,0,0,0,-1,566,694,0,0
-651,330,0,0,0,0,0,0,0,0,0,-1,573,694,0,0
-644,330,0,0,0,0,0,0,0,0,0,-1,580,694,0,0
-637,330,0,0,0,0,0,0,0,0,0,-1,587,694,0,0
-630,330,0,0,0,0,0,0,0,0,0,-1,594,694,0,0
-623,330,0,0,0,0,0,0,0,0,0,-1,601,694,0,0
-616,330,0,0,0,0,0,0,0,0,0,-1,608,694,0,0
-609,330,0,0,0,0,0,0,0,0,0,-1,615,694,0,0
-602,330,0,0,0,0,0,0,0,0,0,-1,622,694,0,0
-595,330,-4.67883,1.65515,0,0,0,0,0,0,0,-1,629,694,-4.67881,-1.65515
-588,330,-8.5047,2.67346,0,0,0,0,0,0,0,-1,636,694,-8.50469,-2.67348
-581,330,-12.4227,0.947083,0,0,0,0,0,0,0,-1,643,694,-12.4227,-0.947109
-574,330,-9.02118,1.87952,0,0,0,0,0,0,0,-1,650,694,-9.02115,-1.87953
-567,330,-8.35577,0.909973,0,0,0,0,0,0,0,-1,657,694,-8.35575,-0.909945
-560,330,-10.8656,-0.00646973,0,0,0,0,0,0,0,-1,664,694,-10.8656,0.00647419
-553,330,-10.6685,-0.308105,0.0153446,0.00111217,-0.0217887,0.0311497,-0.0146929,-0.627558,0.0270298,0.0473609,671,694,-10.6685,0.308106
-546,330,-10.5891,-0.785034,0.012185,0.00169024,-0.017576,0.0252802,-0.011405,-0.640333,0.0216793,0.0311167,678,694,-10.589,0.785021
-539,330,-10.5496,-1.32751,0.00940131,0.00178219,-0.0137032,0.0198146,-0.00863111,-0.649819,0.0168409,0.0147081,685,694,-10.5496,1.32752
-532,330,-10.672,-1.70831,0.0069527,0.0016145,-0.0101614,0.0147897,-0.00622248,-0.656964,0.012463,0.012023,692,694,-10.672,1.70832
-525,330,-10.667,-2.14294,0.00489713,0.00131416,-0.00703471,0.0103649,-0.0041536,-0.660717,0.00863416,0.0113672,699,694,-10.667,2.14293
-518,330,-10.6702,-2.51019,0.0033612,0.00103655,-0.0045601,0.00690478,-0.00250703,-0.660611,0.00562817,0.0148692,706,694,-10.6702,2.51019
-511,330,-10.6795,-2.91046,0.00223993,0.000742197,-0.00255817,0.00415659,-0.00117447,-0.643009,0.00323443,0.0201213,713,694,-10.6795,2.91047
-504,330,-10.6697,-3.33746,0.00143408,0.000482467,-0.000989962,0.00205665,-0.000140096,-0.561381,0.0014201,0.0190242,720,694,-10.6698,3.33744
-497,330,-10.673,-3.70728,0.00124861,0.000291841,-0.000197747,0.00128787,0.000252582,-0.195986,0.000788,0.0134627,727,694,-10.673,3.70728
-490,330,-10.6808,-4.12384,0.00180085,0.000322784,-0.000367845,0.00188733,0.000236299,-0.230918,0.00118732,0.013248,734,694,-10.6808,4.12385
-483,330,-10.6822,-4.5575,0.00251795,0.000900964,-0.000973442,0.00297486,0.000444051,-0.438852,0.00185304,0.0133472,741,694,-10.6822,4.55748
-476,330,-10.6928,-4.94354,0.00320786,0.00182558,-0.0018803,0.00452002,0.000513425,-0.609279,0.00285762,0.031991,748,694,-10.6928,4.94354
-469,330,-10.5312,-5.42816,0,0,0,0,0,0,0,-1,755,694,-10.5312,5.42819
-462,330,-7.26733,-3.84833,0,0,0,0,0,0,0,-1,762,694,-7.26731,3.84832
-455,330,-5.04254,-1.79303,0,0,0,0,0,0,0,-1,769,694,-5.04252,1.79305
-448,330,-4.89886,-1.66156,0,0,0,0,0,0,0,-1,776,694,-4.89886,1.66157
-441,330,-5.30676,-2.34045,0,0,0,0,0,0,0,-1,783,694,-5.30679,2.34048
-434,330,-7.20428,1.00024,0,0,0,0,0,0,0,-1,790,694,-7.20431,-1.00027
-427,330,-16.0428,2.89258,0,0,0,0,0,0,0,-1,797,694,-16.0428,-2.89259
-420,330,-15.2923,3.32672,0,0,0,0,0,0,0,-1,804,694,-15.2923,-3.32675
-413,330,-10.4567,2.56183,0,0,0,0,0,0,0,-1,811,694,-10.4567,-2.56182
-406,330,-1.65375,-1.74371,0,0,0,0,0,0,0,-1,818,694,-1.65375,1.74371
-399,330,0,0,0,0,0,0,0,0,0,-1,825,694,0,0
-392,330,0,0,0,0,0,0,0,0,0,-1,832,694,0,0
-385,330,0,0,0,0,0,0,0,0,0,-1,839,694,0,0
-378,330,0,0,0,0,0,0,0,0,0,-1,846,694,0,0
-371,330,0,0,0,0,0,0,0,0,0,-1,853,694,0,0
-364,330,0,0,0,0,0,0,0,0,0,-1,860,694,0,0
-357,330,0,0,0,0,0,0,0,0,0,-1,867,694,0,0
-350,330,0,0,0,0,0,0,0,0,0,-1,874,694,0,0
-343,330,0,0,0,0,0,0,0,0,0,-1,881,694,0,0
-336,330,0,0,0,0,0,0,0,0,0,-1,888,694,0,0
-329,330,0,0,0,0,0,0,0,0,0,-1,895,694,0,0
-322,330,0,0,0,0,0,0,0,0,0,-1,902,694,0,0
-315,330,0,0,0,0,0,0,0,0,0,-1,909,694,0,0
-308,330,0,0,0,0,0,0,0,0,0,-1,916,694,0,0
-301,330,0,0,0,0,0,0,0,0,0,-1,923,694,0,0
-294,330,0,0,0,0,0,0,0,0,0,-1,930,694,0,0
-287,330,0,0,0,0,0,0,0,0,0,-1,937,694,0,0
-280,330,0,0,0,0,0,0,0,0,0,-1,944,694,0,0
-273,330,0,0,0,0,0,0,0,0,0,-1,951,694,0,0
-266,330,0,0,0,0,0,0,0,0,0,-1,958,694,0,0
-259,330,0,0,0,0,0,0,0,0,0,-1,965,694,0,0
-252,330,0,0,0,0,0,0,0,0,0,-1,972,694,0,0
-245,330,0,0,0,0,0,0,0,0,0,-1,979,694,0,0
-238,330,0,0,0,0,0,0,0,0,0,-1,986,694,0,0
-231,330,0,0,0,0,0,0,0,0,0,-1,993,694,0,0
-224,330,0,0,0,0,0,0,0,0,0,-1,1000,694,0,0
-217,330,0,0,0,0,0,0,0,0,0,-1,1007,694,0,0
-210,330,0,0,0,0,0,0,0,0,0,-1,1014,694,0,0
-203,330,0,0,0,0,0,0,0,0,0,-1,1021,694,0,0
-196,330,0,0,0,0,0,0,0,0,0,-1,1028,694,0,0
-189,330,0,0,0,0,0,0,0,0,0,-1,1035,694,0,0
-182,330,0,0,0,0,0,0,0,0,0,-1,1042,694,0,0
-175,330,0,0,0,0,0,0,0,0,0,-1,1049,694,0,0
-168,330,0,0,0,0,0,0,0,0,0,-1,1056,694,0,0
-161,330,0,0,0,0,0,0,0,0,0,-1,1063,694,0,0
-154,330,0,0,0,0,0,0,0,0,0,-1,1070,694,0,0
-147,330,0,0,0,0,0,0,0,0,0,-1,1077,694,0,0
-140,330,0,0,0,0,0,0,0,0,0,-1,1084,694,0,0
-133,330,0,0,0,0,0,0,0,0,0,-1,1091,694,0,0
-126,330,0,0,0,0,0,0,0,0,0,-1,1098,694,0,0
-119,330,0,0,0,0,0,0,0,0,0,-1,1105,694,0,0
-112,330,0,0,0,0,0,0,0,0,0,-1,1112,694,0,0
-105,330,0,0,0,0,0,0,0,0,0,-1,1119,694,0,0
-98,330,0,0,0,0,0,0,0,0,0,-1,1126,694,0,0
-91,330,0,0,0,0,0,0,0,0,0,-1,1133,694,0,0
-84,330,0,0,0,0,0,0,0,0,0,-1,1140,694,0,0
-77,330,0,0,0,0,0,0,0,0,0,-1,1147,694,0,0
-70,330,0,0,0,0,0,0,0,0,0,-1,1154,694,0,0
-63,330,0,0,0,0,0,0,0,0,0,-1,1161,694,0,0
-56,330,0,0,0,0,0,0,0,0,0,-1,1168,694,0,0
-49,330,0,0,0,0,0,0,0,0,0,-1,1175,694,0,0
-42,330,0,0,0,0,0,0,0,0,0,-1,1182,694,0,0
-35,330,0,0,0,0,0,0,0,0,0,-1,1189,694,0,0
-28,330,0,0,0,0,0,0,0,0,0,-1,1196,694,0,0
-21,330,0,0,0,0,0,0,0,0,0,-1,1203,694,0,0
-14,330,0,0,0,0,0,0,0,0,0,-1,1210,694,0,0
-7,330,0,0,0,0,0,0,0,0,0,-1,1217,694,0,0
0,330,0,0,0,0,0,0,0,0,0,-1,1224,694,0,0
7,330,0,0,0,0,0,0,0,0,0,-1,1231,694,0,0
14,330,0,0,0,0,0,0,0,0,0,-1,1238,694,0,0
21,330,0,0,0,0,0,0,0,0,0,-1,1245,694,0,0
28,330,0,0,0,0,0,0,0,0,0,-1,1252,694,0,0
35,330,0,0,0,0,0,0,0,0,0,-1,1259,694,0,0
42,330,0,0,0,0,0,0,0,0,0,-1,1266,694,0,0
49,330,0,0,0,0,0,0,0,0,0,-1,1273,694,0,0
56,330,0,0,0,0,0,0,0,0,0,-1,1280,694,0,0
63,330,0,0,0,0,0,0,0,0,0,-1,1287,694,0,0
70,330,0,0,0,0,0,0,0,0,0,-1,1294,694,0,0
77,330,0,0,0,0,0,0,0,0,0,-1,1301,694,0,0
84,330,0,0,0,0,0,0,0,0,0,-1,1308,694,0,0
91,330,0,0,0,0,0,0,0,0,0,-1,1315,694,0,0
98,330,0,0,0,0,0,0,0,0,0,-1,1322,694,0,0
105,330,0,0,0,0,0,0,0,0,0,-1,1329,694,0,0
112,330,0,0,0,0,0,0,0,0,0,-1,1336,694,0,0
119,330,0,0,0,0,0,0,0,0,0,-1,1343,694,0,0
126,330,0,0,0,0,0,0,0,0,0,-1,1350,694,0,0
133,330,0,0,0,0,0,0,0,0,0,-1,1357,694,0,0
140,330,0,0,0,0,0,0,0,0,0,-1,1364,694,0,0
147,330,0,0,0,0,0,0,0,0,0,-1,1371,694,0,0
154,330,0,0,0,0,0,0,0,0,0,-1,1378,694,0,0
161,330,0,0,0,0,0,0,0,0,0,-1,1385,694,0,0
168,330,0,0,0,0,0,0,0,0,0,-1,1392,694,0,0
175,330,0,0,0,0,0,0,0,0,0,-1,1399,694,0,0
182,330,0,0,0,0,0,0,0,0,0,-1,1406,694,0,0
189,330,0,0,0,0,0,0,0,0,0,-1,1413,694,0,0
196,330,0,0,0,0,0,0,0,0,0,-1,1420,694,0,0
203,330,0,0,0,0,0,0,0,0,0,-1,1427,694,0,0
210,330,0,0,0,0,0,0,0,0,0,-1,1434,694,0,0
217,330,0,0,0,0,0,0,0,0,0,-1,1441,694,0,0
224,330,0,0,0,0,0,0,0,0,0,-1,1448,694,0,0
231,330,0,0,0,0,0,0,0,0,0,-1,1455,694,0,0
238,330,0,0,0,0,0,0,0,0,0,-1,1462,694,0,0
245,330,0,0,0,0,0,0,0,0,0,-1,1469,694,0,0
252,330,0,0,0,0,0,0,0,0,0,-1,1476,694,0,0
259,330,0,0,0,0,0,0,0,0,0,-1,1483,694,0,0
266,330,0,0,0,0,0,0,0,0,0,-1,1490,694,0,0
273,330,0,0,0,0,0,0,0,0,0,-1,1497,694,0,0
280,330,0,0,0,0,0,0,0,0,0,-1,1504,694,0,0
287,330,0,0,0,0,0,0,0,0,0,-1,1511,694,0,0
294,330,0,0,0,0,0,0,0,0,0,-1,1518,694,0,0
301,330,0,0,0,0,0,0,0,0,0,-1,1525,694,0,0
308,330,0,0,0,0,0,0,0,0,0,-1,1532,694,0,0
315,330,0,0,0,0,0,0,0,0,0,-1,1539,694,0,0
322,330,0,0,0,0,0,0,0,0,0,-1,1546,694,0,0
329,330,0,0,0,0,0,0,0,0,0,-1,1553,694,0,0
336,330,0,0,0,0,0,0,0,0,0,-1,1560,694,0,0
343,330,0,0,0,0,0,0,0,0,0,-1,1567,694,0,0
350,330,0,0,0,0,0,0,0,0,0,-1,1574,694,0,0
357,330,0,0,0,0,0,0,0,0,0,-1,1581,694,0,0
364,330,0,0,0,0,0,0,0,0,0,-1,1588,694,0,0
371,330,0,0,0,0,0,0,0,0,0,-1,1595,694,0,0
378,330,0,0,0,0,0,0,0,0,0,-1,1602,694,0,0
385,330,0,0,0,0,0,0,0,0,0,-1,1609,694,0,0
392,330,0,0,0,0,0,0,0,0,0,-1,1616,694,0,0
399,330,0,0,0,0,0,0,0,0,0,-1,1623,694,0,0
406,330,0,0,0,0,0,0,0,0,0,-1,1630,694,0,0
413,330,0,0,0,0,0,0,0,0,0,-1,1637,694,0,0
420,330,0,0,0,0,0,0,0,0,0,-1,1644,694,0,0
427,330,0,0,0,0,0,0,0,0,0,-1,1651,694,0,0
434,330,0,0,0,0,0,0,0,0,0,-1,1658,694,0,0
441,330,0,0,0,0,0,0,0,0,0,-1,1665,694,0,0
448,330,0,0,0,0,0,0,0,0,0,-1,1672,694,0,0
455,330,0,0,0,0,0,0,0,0,0,-1,1679,694,0,0
462,330,0,0,0,0,0,0,0,0,0,-1,1686,694,0,0
469,330,0,0,0,0,0,0,0,0,0,-1,1693,694,0,0
476,330,0,0,0,0,0,0,0,0,0,-1,1700,694,0,0
483,330,0,0,0,0,0,0,0,0,0,-1,1707,694,0,0
490,330,0,0,0,0,0,0,0,0,0,-1,1714,694,0,0
497,330,0,0,0,0,0,0,0,0,0,-1,1721,694,0,0
504,330,0,0,0,0,0,0,0,0,0,-1,1728,694,0,0
511,330,0,0,0,0,0,0,0,0,0,-1,1735,694,0,0
518,330,0,0,0,0,0,0,0,0,0,-1,1742,694,0,0
525,330,30.6694,0.69519,0,0,0,0,0,0,0,-1,1749,694,30.6694,-0.695206
532,330,30.9469,1.32501,0,0,0,0,0,0,0,-1,1756,694,30.9469,-1.32501
539,330,31.5155,1.62506,0,0,0,0,0,0,0,-1,1763,694,31.5155,-1.62507
546,330,31.4187,1.85651,0,0,0,0,0,0,0,-1,1770,694,31.4187,-1.85651
553,330,31.8452,1.81476,0,0,0,0,0,0,0,-1,1777,694,31.8452,-1.81475
560,330,32.2401,2.43225,0,0,0,0,0,0,0,-1,1784,694,32.2401,-2.43227
567,330,18.0321,3.98578,0,0,0,0,0,0,0,-1,1791,694,18.0321,-3.98576
574,330,12.0454,2.1662,0,0,0,0,0,0,0,-1,1798,694,12.0455,-2.16618
581,330,11.4215,4.50836,0,0,0,0,0,0,0,-1,1805,694,11.4215,-4.50837
588,330,6.45667,-0.0630493,0,0,0,0,0,0,0,-1,1812,694,6.45661,0.0630695
595,330,8.23193,-0.258484,0,0,0,0,0,0,0,-1,1819,694,8.23188,0.258459
602,330,18.443,-3.32397,0,0,0,0,0,0,0,-1,1826,694,18.443,3.324
609,330,18.6888,-2.70349,0.00299006,0.00187385,0.00033252,0.00308161,0.0017823,0.268664,0.00178644,0.0444745,1833,694,18.6888,2.70351
616,330,18.7983,-2.22992,0.00272918,0.00116582,0.000657059,0.00296865,0.000926352,0.349498,0.00175386,0.0113682,1840,694,18.7984,2.22994
623,330,18.8109,-1.81592,0.00204156,0.000687345,0.000566513,0.00224729,0.000481609,0.348352,0.00136625,0.0118796,1847,694,18.8109,1.81592
630,330,18.816,-1.40436,0.00120776,0.000315505,0.000424367,0.00137736,0.000145907,0.380203,0.000873673,0.0129692,1854,694,18.816,1.40438
637,330,18.8104,-0.995544,8.52898e-06,3.71764e-05,0.000127029,0.000150686,-0.000104981,0.841541,0.000148394,0.0125909,1861,694,18.8104,0.995572
644,330,18.7836,-0.568359,-0.00158211,-6.75252e-05,-0.00035442,1.13075e-05,-0.00166095,-1.35193,0.00111109,0.00829271,1868,694,18.7836,0.568367
651,330,18.7822,-0.146118,-0.0032911,-0.00023875,-0.000816211,-3.41996e-05,-0.00349565,-1.32524,0.00231912,0.0111521,1875,694,18.7822,0.146096
658,330,18.7646,0.263794,-0.00522345,-0.000409167,-0.00131349,-7.41209e-05,-0.0055585,-1.32104,0.00368121,0.0117784,1882,694,18.7647,-0.263767
665,330,18.7449,0.67804,-0.00754809,-0.000596336,-0.00189898,-0.000111426,-0.008033,-1.32079,0.00531858,0.010448,1889,694,18.7448,-0.678053
672,330,18.785,1.11108,-0.010211,-0.000783793,-0.00255366,-0.000136495,-0.0108583,-1.32255,0.00719379,0.0184699,1896,694,18.7851,-1.11108
679,330,18.5735,1.49414,-0.0134047,-0.00102806,-0.00334096,-0.00018379,-0.014249,-1.32327,0.00943863,0.0341316,1903,694,18.5735,-1.49416
686,330,18.2056,2.49304,0,0,0,0,0,0,0,-1,1910,694,18.2056,-2.49305
693,330,17.3999,2.5976,0,0,0,0,0,0,0,-1,1917,694,17.4,-2.59759
700,330,17.1072,4.13,0,0,0,0,0,0,0,-1,1924,694,17.1071,-4.13002
707,330,16.663,4.88672,0,0,0,0,0,0,0,-1,1931,694,16.6629,-4.88673
714,330,16.5454,5.80896,0,0,0,0,0,0,0,-1,1938,694,16.5454,-5.80899
721,330,0,0,0,0,0,0,0,0,0,-1,1945,694,0,0
728,330,0,0,0,0,0,0,0,0,0,-1,1952,694,0,0
735,330,0,0,0,0,0,0,0,0,0,-1,1959,694,0,0
742,330,0,0,0,0,0,0,0,0,0,-1,1966,694,0,0
749,330,0,0,0,0,0,0,0,0,0,-1,1973,694,0,0
756,330,0,0,0,0,0,0,0,0,0,-1,1980,694,0,0
763,330,0,0,0,0,0,0,0,0,0,-1,1987,694,0,0
770,330,0,0,0,0,0,0,0,0,0,-1,1994,694,0,0
777,330,0,0,0,0,0,0,0,0,0,-1,2001,694,0,0
784,330,0,0,0,0,0,0,0,0,0,-1,2008,694,0,0
791,330,0,0,0,0,0,0,0,0,0,-1,2015,694,0,0
798,330,0,0,0,0,0,0,0,0,0,-1,2022,694,0,0
805,330,0,0,0,0,0,0,0,0,0,-1,2029,694,0,0
812,330,0,0,0,0,0,0,0,0,0,-1,2036,694,0,0
-700,323,0,0,0,0,0,0,0,0,0,-1,524,701,0,0
-693,323,0,0,0,0,0,0,0,0,0,-1,531,701,0,0
-686,323,0,0,0,0,0,0,0,0,0,-1,538,701,0,0
-679,323,0,0,0,0,0,0,0,0,0,-1,545,701,0,0
-672,323,0,0,0,0,0,0,0,0,0,-1,552,701,0,0
-665,323,0,0,0,0,0,0,0,0,0,-1,559,701,0,0
-658,323,0,0,0,0,0,0,0,0,0,-1,566,701,0,0
-651,323,0,0,0,0,0,0,0,0,0,-1,573,701,0,0
-644,323,0,0,0,0,0,0,0,0,0,-1,580,701,0,0
-637,323,0,0,0,0,0,0,0,0,0,-1,587,701,0,0
-630,323,0,0,0,0,0,0,0,0,0,-1,594,701,0,0
-623,323,0,0,0,0,0,0,0,0,0,-1,601,701,0,0
-616,323,0,0,0,0,0,0,0,0,0,-1,608,701,0,0
-609,323,0,0,0,0,0,0,0,0,0,-1,615,701,0,0
-602,323,-4.15833,2.12256,0,0,0,0,0,0,0,-1,622,701,-4.1583,-2.12257
-595,323,-4.052,1.79156,0,0,0,0,0,0,0,-1,629,701,-4.05198,-1.79158
-588,323,-4.07019,1.94543,0,0,0,0,0,0,0,-1,636,701,-4.07019,-1.94542
-581,323,-6.63727,0.562805,0,0,0,0,0,0,0,-1,643,701,-6.63728,-0.56279
-574,323,-6.15887,0.426697,0,0,0,0,0,0,0,-1,650,701,-6.15887,-0.426727
-567,323,-10.0015,0.0371094,0,0,0,0,0,0,0,-1,657,701,-10.0015,-0.037126
-560,323,-11.2544,-0.262329,0,0,0,0,0,0,0,-1,664,701,-11.2544,0.262339
-553,323,-11.0807,-0.642578,0.00891601,0.00194693,-0.0148608,0.0206953,-0.00983241,-0.67024,0.0179933,0.0384013,671,701,-11.0808,0.642608
-546,323,-11.0197,-0.930176,0.00736227,0.00227877,-0.0121684,0.0172516,-0.00761054,-0.682438,0.0147095,0.0163802,678,701,-11.0196,0.930155
-539,323,-11.0229,-1.28845,0.00593522,0.00215051,-0.00960001,0.0138276,-0.00574188,-0.688085,0.0116155,0.0144372,685,701,-11.023,1.28848
-532,323,-11.046,-1.71124,0.00457879,0.00179353,-0.00713902,0.0104597,-0.00408742,-0.689071,0.00866325,0.0104974,692,701,-11.046,1.71124
-525,323,-11.0574,-2.12604,0.00338685,0.00132675,-0.00487863,0.00734298,-0.00262938,-0.681359,0.00596808,0.00822408,699,701,-11.0574,2.12603
-518,323,-11.0728,-2.49799,0.00250776,0.000908093,-0.00313167,0.00494012,-0.00152427,-0.66037,0.00390204,0.00992081,706,701,-11.0728,2.498
-511,323,-11.107,-2.89709,0.0018351,0.000473156,-0.00166442,0.00295247,-0.000644212,-0.59122,0.00221451,0.0137315,713,701,-11.107,2.89711
-504,323,-11.1069,-3.30969,0.00135718,5.40027e-05,-0.000554917,0.00156146,-0.000150271,-0.352721,0.00109451,0.0151647,720,701,-11.1069,3.30971
-497,323,-11.0809,-3.69733,0.00136966,-0.000249412,-0.000205795,0.00139541,-0.00027516,-0.12447,0.00103427,0.0122066,727,701,-11.0809,3.69732
-490,323,-11.0815,-4.09644,0.00203388,-0.000310704,-0.000853177,0.00231148,-0.000588301,-0.314566,0.00176998,0.0133725,734,701,-11.0815,4.09643
-483,323,-11.0849,-4.50226,0.00274587,0.000200436,-0.00203634,0.0038745,-0.0009282,-0.506098,0.00294163,0.0225269,741,701,-11.0849,4.50223
-476,323,-10.9719,-5.06366,0,0,0,0,0,0,0,-1,748,701,-10.9719,5.06368
-469,323,-8.33301,-3.64001,0,0,0,0,0,0,0,-1,755,701,-8.33298,3.64
-462,323,-5.29431,-1.45697,0,0,0,0,0,0,0,-1,762,701,-5.29431,1.45699
-455,323,-5.0658,-1.36639,0,0,0,0,0,0,0,-1,769,701,-5.06578,1.3664
-448,323,-4.91608,-1.59601,0,0,0,0,0,0,0,-1,776,701,-4.91606,1.59604
-441,323,-14.4006,0.535217,0,0,0,0,0,0,0,-1,783,701,-14.4006,-0.535203
-434,323,-15.3158,2.479,0,0,0,0,0,0,0,-1,790,701,-15.3158,-2.47898
-427,323,-15.4075,2.98248,0,0,0,0,0,0,0,-1,797,701,-15.4075,-2.98248
-420,323,-14.8839,3.49579,0,0,0,0,0,0,0,-1,804,701,-14.8839,-3.49579
-413,323,-14.0645,4.22607,0,0,0,0,0,0,0,-1,811,701,-14.0645,-4.22605
-406,323,0,0,0,0,0,0,0,0,0,-1,818,701,0,0
-399,323,0,0,0,0,0,0,0,0,0,-1,825,701,0,0
-392,323,0,0,0,0,0,0,0,0,0,-1,832,701,0,0
-385,323,0,0,0,0,0,0,0,0,0,-1,839,701,0,0
-378,323,0,0,0,0,0,0,0,0,0,-1,846,701,0,0
-371,323,0,0,0,0,0,0,0,0,0,-1,853,701,0,0
-364,323,0,0,0,0,0,0,0,0,0,-1,860,701,0,0
-357,323,0,0,0,0,0,0,0,0,0,-1,867,701,0,0
-350,323,0,0,0,0,0,0,0,0,0,-1,874,701,0,0
-343,323,0,0,0,0,0,0,0,0,0,-1,881,701,0,0
-336,323,0,0,0,0,0,0,0,0,0,-1,888,701,0,0
-329,323,0,0,0,0,0,0,0,0,0,-1,895,701,0,0
-322,323,0,0,0,0,0,0,0,0,0,-1,902,701,0,0
-315,323,0,0,0,0,0,0,0,0,0,-1,909,701,0,0
-308,323,0,0,0,0,0,0,0,0,0,-1,916,701,0,0
-301,323,0,0,0,0,0,0,0,0,0,-1,923,701,0,0
-294,323,0,0,0,0,0,0,0,0,0,-1,930,701,0,0
-287,323,0,0,0,0,0,0,0,0,0,-1,937,701,0,0
-280,323,0,0,0,0,0,0,0,0,0,-1,944,701,0,0
-273,323,0,0,0,0,0,0,0,0,0,-1,951,701,0,0
-266,323,0,0,0,0,0,0,0,0,0,-1,958,701,0,0
-259,323,0,0,0,0,0,0,0,0,0,-1,965,701,0,0
-252,323,0,0,0,0,0,0,0,0,0,-1,972,701,0,0
-245,323,0,0,0,0,0,0,0,0,0,-1,979,701,0,0
-238,323,0,0,0,0,0,0,0,0,0,-1,986,701,0,0
-231,323,0,0,0,0,0,0,0,0,0,-1,993,701,0,0
-224,323,0,0,0,0,0,0,0,0,0,-1,1000,701,0,0
-217,323,0,0,0,0,0,0,0,0,0,-1,1007,701,0,0
-210,323,0,0,0,0,0,0,0,0,0,-1,1014,701,0,0
-203,323,0,0,0,0,0,0,0,0,0,-1,1021,701,0,0
-196,323,0,0,0,0,0,0,0,0,0,-1,1028,701,0,0
-189,323,0,0,0,0,0,0,0,0,0,-1,1035,701,0,0
-182,323,0,0,0,0,0,0,0,0,0,-1,1042,701,0,0
-175,323,0,0,0,0,0,0,0,0,0,-1,1049,701,0,0
-168,323,0,0,0,0,0,0,0,0,0,-1,1056,701,0,0
-161,323,0,0,0,0,0,0,0,0,0,-1,1063,701,0,0
-154,323,0,0,0,0,0,0,0,0,0,-1,1070,701,0,0
-147,323,0,0,0,0,0,0,0,0,0,-1,1077,701,0,0
-140,323,0,0,0,0,0,0,0,0,0,-1,1084,701,0,0
-133,323,0,0,0,0,0,0,0,0,0,-1,1091,701,0,0
-126,323,0,0,0,0,0,0,0,0,0,-1,1098,701,0,0
-119,323,0,0,0,0,0,0,0,0,0,-1,1105,701,0,0
-112,323,0,0,0,0,0,0,0,0,0,-1,1112,701,0,0
-105,323,0,0,0,0,0,0,0,0,0,-1,1119,701,0,0
-98,323,0,0,0,0,0,0,0,0,0,-1,1126,701,0,0
-91,323,0,0,0,0,0,0,0,0,0,-1,1133,701,0,0
-84,323,0,0,0,0,0,0,0,0,0,-1,1140,701,0,0
-77,323,0,0,0,0,0,0,0,0,0,-1,1147,701,0,0
-70,323,0,0,0,0,0,0,0,0,0,-1,1154,701,0,0
-63,323,0,0,0,0,0,0,0,0,0,-1,1161,701,0,0
-56,323,0,0,0,0,0,0,0,0,0,-1,1168,701,0,0
-49,323,0,0,0,0,0,0,0,0,0,-1,1175,701,0,0
-42,323,0,0,0,0,0,0,0,0,0,-1,1182,701,0,0
-35,323,0,0,0,0,0,0,0,0,0,-1,1189,701,0,0
-28,323,0,0,0,0,0,0,0,0,0,-1,1196,701,0,0
-21,323,0,0,0,0,0,0,0,0,0,-1,1203,701,0,0
-14,323,0,0,0,0,0,0,0,0,0,-1,1210,701,0,0
-7,323,0,0,0,0,0,0,0,0,0,-1,1217,701,0,0
0,323,0,0,0,0,0,0,0,0,0,-1,1224,701,0,0
7,323,0,0,0,0,0,0,0,0,0,-1,1231,701,0,0
14,323,0,0,0,0,0,0,0,0,0,-1,1238,701,0,0
21,323,0,0,0,0,0,0,0,0,0,-1,1245,701,0,0
28,323,0,0,0,0,0,0,0,0,0,-1,1252,701,0,0
35,323,0,0,0,0,0,0,0,0,0,-1,1259,701,0,0
42,323,0,0,0,0,0,0,0,0,0,-1,1266,701,0,0
49,323,0,0,0,0,0,0,0,0,0,-1,1273,701,0,0
56,323,0,0,0,0,0,0,0,0,0,-1,1280,701,0,0
63,323,0,0,0,0,0,0,0,0,0,-1,1287,701,0,0
70,323,0,0,0,0,0,0,0,0,0,-1,1294,701,0,0
77,323,0,0,0,0,0,0,0,0,0,-1,1301,701,0,0
84,323,0,0,0,0,0,0,0,0,0,-1,1308,701,0,0
91,323,0,0,0,0,0,0,0,0,0,-1,1315,701,0,0
98,323,0,0,0,0,0,0,0,0,0,-1,1322,701,0,0
105,323,0,0,0,0,0,0,0,0,0,-1,1329,701,0,0
112,323,0,0,0,0,0,0,0,0,0,-1,1336,701,0,0
119,323,0,0,0,0,0,0,0,0,0,-1,1343,701,0,0
126,323,0,0,0,0,0,0,0,0,0,-1,1350,701,0,0
133,323,0,0,0,0,0,0,0,0,0,-1,1357,701,0,0
140,323,0,0,0,0,0,0,0,0,0,-1,1364,701,0,0
147,323,0,0,0,0,0,0,0,0,0,-1,1371,701,0,0
154,323,0,0,0,0,0,0,0,0,0,-1,1378,701,0,0
161,323,0,0,0,0,0,0,0,0,0,-1,1385,701,0,0
168,323,0,0,0,0,0,0,0,0,0,-1,1392,701,0,0
175,323,0,0,0,0,0,0,0,0,0,-1,1399,701,0,0
182,323,0,0,0,0,0,0,0,0,0,-1,1406,701,0,0
189,323,0,0,0,0,0,0,0,0,0,-1,1413,701,0,0
196,323,0,0,0,0,0,0,0,0,0,-1,1420,701,0,0
203,323,0,0,0,0,0,0,0,0,0,-1,1427,701,0,0
210,323,0,0,0,0,0,0,0,0,0,-1,1434,701,0,0
217,323,0,0,0,0,0,0,0,0,0,-1,1441,701,0,0
224,323,0,0,0,0,0,0,0,0,0,-1,1448,701,0,0
231,323,0,0,0,0,0,0,0,0,0,-1,1455,701,0,0
238,323,0,0,0,0,0,0,0,0,0,-1,1462,701,0,0
245,323,0,0,0,0,0,0,0,0,0,-1,1469,701,0,0
252,323,0,0,0,0,0,0,0,0,0,-1,1476,701,0,0
259,323,0,0,0,0,0,0,0,0,0,-1,1483,701,0,0
266,323,0,0,0,0,0,0,0,0,0,-1,1490,701,0,0
273,323,0,0,0,0,0,0,0,0,0,-1,1497,701,0,0
280,323,0,0,0,0,0,0,0,0,0,-1,1504,701,0,0
287,323,0,0,0,0,0,0,0,0,0,-1,1511,701,0,0
294,323,0,0,0,0,0,0,0,0,0,-1,1518,701,0,0
301,323,0,0,0,0,0,0,0,0,0,-1,1525,701,0,0
308,323,0,0,0,0,0,0,0,0,0,-1,1532,701,0,0
315,323,0,0,0,0,0,0,0,0,0,-1,1539,701,0,0
322,323,0,0,0,0,0,0,0,0,0,-1,1546,701,0,0
329,323,0,0,0,0,0,0,0,0,0,-1,1553,701,0,0
336,323,0,0,0,0,0,0,0,0,0,-1,1560,701,0,0
343,323,0,0,0,0,0,0,0,0,0,-1,1567,701,0,0
350,323,0,0,0,0,0,0,0,0,0,-1,1574,701,0,0
357,323,0,0,0,0,0,0,0,0,0,-1,1581,701,0,0
364,323,0,0,0,0,0,0,0,0,0,-1,1588,701,0,0
371,323,0,0,0,0,0,0,0,0,0,-1,1595,701,0,0
378,323,0,0,0,0,0,0,0,0,0,-1,1602,701,0,0
385,323,0,0,0,0,0,0,0,0,0,-1,1609,701,0,0
392,323,0,0,0,0,0,0,0,0,0,-1,1616,701,0,0
399,323,0,0,0,0,0,0,0,0,0,-1,1623,701,0,0
406,323,0,0,0,0,0,0,0,0,0,-1,1630,701,0,0
413,323,0,0,0,0,0,0,0,0,0,-1,1637,701,0,0
420,323,0,0,0,0,0,0,0,0,0,-1,1644,701,0,0
427,323,0,0,0,0,0,0,0,0,0,-1,1651,701,0,0
434,323,0,0,0,0,0,0,0,0,0,-1,1658,701,0,0
441,323,0,0,0,0,0,0,0,0,0,-1,1665,701,0,0
448,323,0,0,0,0,0,0,0,0,0,-1,1672,701,0,0
455,323,0,0,0,0,0,0,0,0,0,-1,1679,701,0,0
462,323,0,0,0,0,0,0,0,0,0,-1,1686,701,0,0
469,323,0,0,0,0,0,0,0,0,0,-1,1693,701,0,0
476,323,0,0,0,0,0,0,0,0,0,-1,1700,701,0,0
483,323,0,0,0,0,0,0,0,0,0,-1,1707,701,0,0
490,323,0,0,0,0,0,0,0,0,0,-1,1714,701,0,0
497,323,0,0,0,0,0,0,0,0,0,-1,1721,701,0,0
504,323,0,0,0,0,0,0,0,0,0,-1,1728,701,0,0
511,323,0,0,0,0,0,0,0,0,0,-1,1735,701,0,0
518,323,0,0,0,0,0,0,0,0,0,-1,1742,701,0,0
525,323,0,0,0,0,0,0,0,0,0,-1,1749,701,0,0
532,323,33.6193,1.69446,0,0,0,0,0,0,0,-1,1756,701,33.6193,-1.69444
539,323,32.2698,2.44037,0,0,0,0,0,0,0,-1,1763,701,32.2697,-2.44036
546,323,31.1644,3.9444,0,0,0,0,0,0,0,-1,1770,701,31.1644,-3.94438
553,323,30.2488,5.8775,0,0,0,0,0,0,0,-1,1777,701,30.2487,-5.87752
560,323,31.9149,2.33624,0,0,0,0,0,0,0,-1,1784,701,31.9149,-2.33626
567,323,32.0164,2.60754,0,0,0,0,0,0,0,-1,1791,701,32.0163,-2.60753
574,323,12.514,5.89685,0,0,0,0,0,0,0,-1,1798,701,12.5141,-5.89683
581,323,11.821,5.3476,0,0,0,0,0,0,0,-1,1805,701,11.821,-5.34762
588,323,11.7933,7.00818,0,0,0,0,0,0,0,-1,1812,701,11.7933,-7.00819
595,323,6.67847,0.06604,0,0,0,0,0,0,0,-1,1819,701,6.67841,-0.0660418
602,323,11.2856,-0.595459,0,0,0,0,0,0,0,-1,1826,701,11.2856,0.595433
609,323,19.1434,-2.6449,0,0,0,0,0,0,0,-1,1833,701,19.1435,2.64488
616,323,19.2073,-2.22113,0.00254156,0.00162044,-0.000107221,0.00255387,0.00160813,-0.114367,0.00149092,0.0156914,1840,701,19.2073,2.2211
623,323,19.2415,-1.79572,0.00190492,0.000525032,0.000167087,0.00192486,0.000505088,0.1188,0.00115238,0.0127661,1847,701,19.2415,1.79571
630,323,19.2319,-1.36407,0.00128026,-6.17272e-05,0.000266973,0.00133142,-0.000112888,0.189337,0.000927537,0.014429,1854,701,19.232,1.36409
637,323,19.2363,-0.961914,0.000330515,-0.000340966,8.70578e-05,0.000341619,-0.000352069,0.126857,0.000400516,0.0107088,1861,701,19.2363,0.961889
644,323,19.2174,-0.559692,-0.00108167,-0.000295041,-0.000309228,-0.000188037,-0.00118868,-1.23766,0.000737802,0.00773142,1868,701,19.2174,0.559663
651,323,19.2185,-0.129272,-0.00256676,-0.000278846,-0.000678055,-9.29927e-05,-0.00275261,-1.30327,0.00180488,0.00978404,1875,701,19.2185,0.129267
658,323,19.1719,0.297363,-0.00419011,-0.000243295,-0.00105144,1.93354e-05,-0.00445274,-1.32602,0.00297496,0.0139816,1882,701,19.1719,-0.297357
665,323,19.1411,0.691772,-0.00612049,-0.000165788,-0.00150165,0.000191462,-0.00647774,-1.33723,0.00438371,0.0118732,1889,701,19.1411,-0.691754
672,323,19.1637,1.12604,-0.00829413,-4.96621e-05,-0.00198137,0.000401795,-0.00874558,-1.34677,0.00596883,0.0112671,1896,701,19.1637,-1.12606
679,323,19.0935,1.57703,-0.0107971,9.65771e-05,-0.00253223,0.000656424,-0.0113569,-1.35321,0.00779929,0.0249264,1903,701,19.0935,-1.577
686,323,18.8562,2.1499,-0.0138732,5.18289e-05,-0.00323728,0.000767635,-0.014589,-1.35318,0.00999171,0.0474203,1910,701,18.8562,-2.1499
693,323,18.7009,2.74084,0,0,0,0,0,0,0,-1,1917,701,18.7009,-2.74087
700,323,10.7705,0.828613,0,0,0,0,0,0,0,-1,1924,701,10.7705,-0.828591
707,323,16.9005,4.79193,0,0,0,0,0,0,0,-1,1931,701,16.9005,-4.7919
714,323,16.2346,6.25958,0,0,0,0,0,0,0,-1,1938,701,16.2346,-6.25956
721,323,0,0,0,0,0,0,0,0,0,-1,1945,701,0,0
728,323,0,0,0,0,0,0,0,0,0,-1,1952,701,0,0
735,323,0,0,0,0,0,0,0,0,0,-1,1959,701,0,0
742,323,0,0,0,0,0,0,0,0,0,-1,1966,701,0,0
749,323,0,0,0,0,0,0,0,0,0,-1,1973,701,0,0
756,323,0,0,0,0,0,0,0,0,0,-1,1980,701,0,0
763,323,0,0,0,0,0,0,0,0,0,-1,1987,701,0,0
770,323,0,0,0,0,0,0,0,0,0,-1,1994,701,0,0
777,323,0,0,0,0,0,0,0,0,0,-1,2001,701,0,0
784,323,0,0,0,0,0,0,0,0,0,-1,2008,701,0,0
791,323,0,0,0,0,0,0,0,0,0,-1,2015,701,0,0
798,323,0,0,0,0,0,0,0,0,0,-1,2022,701,0,0
805,323,0,0,0,0,0,0,0,0,0,-1,2029,701,0,0
812,323,0,0,0,0,0,0,0,0,0,-1,2036,701,0,0
-700,316,0,0,0,0,0,0,0,0,0,-1,524,708,0,0
-693,316,0,0,0,0,0,0,0,0,0,-1,531,708,0,0
-686,316,0,0,0,0,0,0,0,0,0,-1,538,708,0,0
-679,316,0,0,0,0,0,0,0,0,0,-1,545,708,0,0
-672,316,0,0,0,0,0,0,0,0,0,-1,552,708,0,0
-665,316,0,0,0,0,0,0,0,0,0,-1,559,708,0,0
-658,316,0,0,0,0,0,0,0,0,0,-1,566,708,0,0
-651,316,0,0,0,0,0,0,0,0,0,-1,573,708,0,0
-644,316,0,0,0,0,0,0,0,0,0,-1,580,708,0,0
-637,316,0,0,0,0,0,0,0,0,0,-1,587,708,0,0
-630,316,0,0,0,0,0,0,0,0,0,-1,594,708,0,0
-623,316,0,0,0,0,0,0,0,0,0,-1,601,708,0,0
-616,316,0,0,0,0,0,0,0,0,0,-1,608,708,0,0
-609,316,0,0,0,0,0,0,0,0,0,-1,615,708,0,0
-602,316,-0.451782,-0.0494995,0,0,0,0,0,0,0,-1,622,708,-0.451768,0.0495022
-595,316,-3.3761,2.17188,0,0,0,0,0,0,0,-1,629,708,-3.37609,-2.17189
-588,316,-5.00177,2.60675,0,0,0,0,0,0,0,-1,636,708,-5.00175,-2.60676
-581,316,-3.94653,0.393433,0,0,0,0,0,0,0,-1,643,708,-3.94655,-0.39342
-574,316,-9.67395,1.06067,0,0,0,0,0,0,0,-1,650,708,-9.67396,-1.06065
-567,316,-10.1962,0.448425,0,0,0,0,0,0,0,-1,657,708,-10.1962,-0.448411
-560,316,-10.6937,-0.117065,0,0,0,0,0,0,0,-1,664,708,-10.6937,0.11708
-553,316,-11.2733,-0.529297,0.0039517,0.00270392,-0.00933854,0.0126872,-0.00603155,-0.752044,0.0110326,0.0354118,671,708,-11.2733,0.529285
-546,316,-11.4637,-0.840637,0.00357187,0.00260286,-0.00779494,0.0108973,-0.00472262,-0.75436,0.00925009,0.0207412,678,708,-11.4637,0.840607
-539,316,-11.4256,-1.30292,0.00312522,0.00221524,-0.00620706,0.00889394,-0.00355349,-0.748813,0.00740372,0.0126203,685,708,-11.4256,1.30294
-532,316,-11.4546,-1.71289,0.00259878,0.00162359,-0.004591,0.006728,-0.00250563,-0.732493,0.00551371,0.0105571,692,708,-11.4546,1.7129
-525,316,-11.452,-2.08771,0.00211106,0.00103131,-0.0030459,0.00466456,-0.0015222,-0.697686,0.00372234,0.00912753,699,708,-11.4519,2.08768
-518,316,-11.4516,-2.48602,0.00185598,0.000488729,-0.00194275,0.00323187,-0.000887164,-0.616221,0.00250327,0.0093709,706,708,-11.4516,2.48601
-511,316,-11.48,-2.88281,0.00167998,-8.05577e-05,-0.000943664,0.00209021,-0.000490782,-0.41007,0.00158264,0.0108841,713,708,-11.48,2.88279
-504,316,-11.4746,-3.30096,0.00167751,-0.000659488,-0.000240591,0.00170202,-0.000684,-0.10153,0.00141875,0.0139112,720,708,-11.4746,3.30099
-497,316,-11.4573,-3.67932,0.00213739,-0.00111169,-0.000219231,0.00215212,-0.00112642,-0.0670696,0.00192349,0.0122349,727,708,-11.4573,3.67935
-490,316,-11.4669,-4.07288,0.00329071,-0.00133404,-0.0011207,0.00354798,-0.00159131,-0.225648,0.00303801,0.0157132,734,708,-11.4668,4.07289
-483,316,-11.4542,-4.49854,0,0,0,0,0,0,0,-1,741,708,-11.4542,4.49853
-476,316,-8.90894,-3.31207,0,0,0,0,0,0,0,-1,748,708,-8.90896,3.31206
-469,316,-6.24194,-1.42725,0,0,0,0,0,0,0,-1,755,708,-6.24192,1.42725
-462,316,-5.74237,-1.40039,0,0,0,0,0,0,0,-1,762,708,-5.74238,1.40039
-455,316,-5.44745,-1.21899,0,0,0,0,0,0,0,-1,769,708,-5.44746,1.21898
-448,316,-14.8945,0.655396,0,0,0,0,0,0,0,-1,776,708,-14.8946,-0.655396
-441,316,-14.9626,0.576111,0,0,0,0,0,0,0,-1,783,708,-14.9626,-0.576115
-434,316,-15.272,0.942993,0,0,0,0,0,0,0,-1,790,708,-15.272,-0.942979
-427,316,-14.6848,3.17792,0,0,0,0,0,0,0,-1,797,708,-14.6848,-3.1779
-420,316,-13.5587,2.737,0,0,0,0,0,0,0,-1,804,708,-13.5587,-2.73703
-413,316,0,0,0,0,0,0,0,0,0,-1,811,708,0,0
-406,316,0,0,0,0,0,0,0,0,0,-1,818,708,0,0
-399,316,0,0,0,0,0,0,0,0,0,-1,825,708,0,0
-392,316,0,0,0,0,0,0,0,0,0,-1,832,708,0,0
-385,316,0,0,0,0,0,0,0,0,0,-1,839,708,0,0
-378,316,0,0,0,0,0,0,0,0,0,-1,846,708,0,0
-371,316,0,0,0,0,0,0,0,0,0,-1,853,708,0,0
-364,316,0,0,0,0,0,0,0,0,0,-1,860,708,0,0
-357,316,0,0,0,0,0,0,0,0,0,-1,867,708,0,0
-350,316,0,0,0,0,0,0,0,0,0,-1,874,708,0,0
-343,316,0,0,0,0,0,0,0,0,0,-1,881,708,0,0
-336,316,0,0,0,0,0,0,0,0,0,-1,888,708,0,0
-329,316,0,0,0,0,0,0,0,0,0,-1,895,708,0,0
-322,316,0,0,0,0,0,0,0,0,0,-1,902,708,0,0
-315,316,0,0,0,0,0,0,0,0,0,-1,909,708,0,0
-308,316,0,0,0,0,0,0,0,0,0,-1,916,708,0,0
-301,316,0,0,0,0,0,0,0,0,0,-1,923,708,0,0
-294,316,0,0,0,0,0,0,0,0,0,-1,930,708,0,0
-287,316,0,0,0,0,0,0,0,0,0,-1,937,708,0,0
-280,316,0,0,0,0,0,0,0,0,0,-1,944,708,0,0
-273,316,0,0,0,0,0,0,0,0,0,-1,951,708,0,0
-266,316,0,0,0,0,0,0,0,0,0,-1,958,708,0,0
-259,316,0,0,0,0,0,0,0,0,0,-1,965,708,0,0
-252,316,0,0,0,0,0,0,0,0,0,-1,972,708,0,0
-245,316,0,0,0,0,0,0,0,0,0,-1,979,708,0,0
-238,316,0,0,0,0,0,0,0,0,0,-1,986,708,0,0
-231,316,0,0,0,0,0,0,0,0,0,-1,993,708,0,0
-224,316,0,0,0,0,0,0,0,0,0,-1,1000,708,0,0
-217,316,0,0,0,0,0,0,0,0,0,-1,1007,708,0,0
-210,316,0,0,0,0,0,0,0,0,0,-1,1014,708,0,0
-203,316,0,0,0,0,0,0,0,0,0,-1,1021,708,0,0
-196,316,0,0,0,0,0,0,0,0,0,-1,1028,708,0,0
-189,316,0,0,0,0,0,0,0,0,0,-1,1035,708,0,0
-182,316,0,0,0,0,0,0,0,0,0,-1,1042,708,0,0
-175,316,0,0,0,0,0,0,0,0,0,-1,1049,708,0,0
-168,316,0,0,0,0,0,0,0,0,0,-1,1056,708,0,0
-161,316,0,0,0,0,0,0,0,0,0,-1,1063,708,0,0
-154,316,0,0,0,0,0,0,0,0,0,-1,1070,708,0,0
-147,316,0,0,0,0,0,0,0,0,0,-1,1077,708,0,0
-140,316,0,0,0,0,0,0,0,0,0,-1,1084,708,0,0
-133,316,0,0,0,0,0,0,0,0,0,-1,1091,708,0,0
-126,316,0,0,0,0,0,0,0,0,0,-1,1098,708,0,0
-119,316,0,0,0,0,0,0,0,0,0,-1,1105,708,0,0
-112,316,0,0,0,0,0,0,0,0,0,-1,1112,708,0,0
-105,316,0,0,0,0,0,0,0,0,0,-1,1119,708,0,0
-98,316,0,0,0,0,0,0,0,0,0,-1,1126,708,0,0
-91,316,0,0,0,0,0,0,0,0,0,-1,1133,708,0,0
-84,316,0,0,0,0,0,0,0,0,0,-1,1140,708,0,0
-77,316,0,0,0,0,0,0,0,0,0,-1,1147,708,0,0
-70,316,0,0,0,0,0,0,0,0,0,-1,1154,708,0,0
-63,316,0,0,0,0,0,0,0,0,0,-1,1161,708,0,0
-56,316,0,0,0,0,0,0,0,0,0,-1,1168,708,0,0
-49,316,0,0,0,0,0,0,0,0,0,-1,1175,708,0,0
-42,316,0,0,0,0,0,0,0,0,0,-1,1182,708,0,0
-35,316,0,0,0,0,0,0,0,0,0,-1,1189,708,0,0
-28,316,0,0,0,0,0,0,0,0,0,-1,1196,708,0,0
-21,316,0,0,0,0,0,0,0,0,0,-1,1203,708,0,0
-14,316,0,0,0,0,0,0,0,0,0,-1,1210,708,0,0
-7,316,0,0,0,0,0,0,0,0,0,-1,1217,708,0,0
0,316,0,0,0,0,0,0,0,0,0,-1,1224,708,0,0
7,316,0,0,0,0,0,0,0,0,0,-1,1231,708,0,0
14,316,0,0,0,0,0,0,0,0,0,-1,1238,708,0,0
21,316,0,0,0,0,0,0,0,0,0,-1,1245,708,0,0
28,316,0,0,0,0,0,0,0,0,0,-1,1252,708,0,0
35,316,0,0,0,0,0,0,0,0,0,-1,1259,708,0,0
42,316,0,0,0,0,0,0,0,0,0,-1,1266,708,0,0
49,316,0,0,0,0,0,0,0,0,0,-1,1273,708,0,0
56,316,0,0,0,0,0,0,0,0,0,-1,1280,708,0,0
63,316,0,0,0,0,0,0,0,0,0,-1,1287,708,0,0
70,316,0,0,0,0,0,0,0,0,0,-1,1294,708,0,0
77,316,0,0,0,0,0,0,0,0,0,-1,1301,708,0,0
84,316,0,0,0,0,0,0,0,0,0,-1,1308,708,0,0
91,316,0,0,0,0,0,0,0,0,0,-1,1315,708,0,0
98,316,0,0,0,0,0,0,0,0,0,-1,1322,708,0,0
105,316,0,0,0,0,0,0,0,0,0,-1,1329,708,0,0
112,316,0,0,0,0,0,0,0,0,0,-1,1336,708,0,0
119,316,0,0,0,0,0,0,0,0,0,-1,1343,708,0,0
126,316,0,0,0,0,0,0,0,0,0,-1,1350,708,0,0
133,316,0,0,0,0,0,0,0,0,0,-1,1357,708,0,0
140,316,0,0,0,0,0,0,0,0,0,-1,1364,708,0,0
147,316,0,0,0,0,0,0,0,0,0,-1,1371,708,0,0
154,316,0,0,0,0,0,0,0,0,0,-1,1378,708,0,0
161,316,0,0,0,0,0,0,0,0,0,-1,1385,708,0,0
168,316,0,0,0,0,0,0,0,0,0,-1,1392,708,0,0
175,316,0,0,0,0,0,0,0,0,0,-1,1399,708,0,0
182,316,0,0,0,0,0,0,0,0,0,-1,1406,708,0,0
189,316,0,0,0,0,0,0,0,0,0,-1,1413,708,0,0
196,316,0,0,0,0,0,0,0,0,0,-1,1420,708,0,0
203,316,0,0,0,0,0,0,0,0,0,-1,1427,708,0,0
210,316,0,0,0,0,0,0,0,0,0,-1,1434,708,0,0
217,316,0,0,0,0,0,0,0,0,0,-1,1441,708,0,0
224,316,0,0,0,0,0,0,0,0,0,-1,1448,708,0,0
231,316,0,0,0,0,0,0,0,0,0,-1,1455,708,0,0
238,316,0,0,0,0,0,0,0,0,0,-1,1462,708,0,0
245,316,0,0,0,0,0,0,0,0,0,-1,1469,708,0,0
252,316,0,0,0,0,0,0,0,0,0,-1,1476,708,0,0
259,316,0,0,0,0,0,0,0,0,0,-1,1483,708,0,0
266,316,0,0,0,0,0,0,0,0,0,-1,1490,708,0,0
273,316,0,0,0,0,0,0,0,0,0,-1,1497,708,0,0
280,316,0,0,0,0,0,0,0,0,0,-1,1504,708,0,0
287,316,0,0,0,0,0,0,0,0,0,-1,1511,708,0,0
294,316,0,0,0,0,0,0,0,0,0,-1,1518,708,0,0
301,316,0,0,0,0,0,0,0,0,0,-1,1525,708,0,0
308,316,0,0,0,0,0,0,0,0,0,-1,1532,708,0,0
315,316,0,0,0,0,0,0,0,0,0,-1,1539,708,0,0
322,316,0,0,0,0,0,0,0,0,0,-1,1546,708,0,0
329,316,0,0,0,0,0,0,0,0,0,-1,1553,708,0,0
336,316,0,0,0,0,0,0,0,0,0,-1,1560,708,0,0
343,316,0,0,0,0,0,0,0,0,0,-1,1567,708,0,0
350,316,0,0,0,0,0,0,0,0,0,-1,1574,708,0,0
357,316,0,0,0,0,0,0,0,0,0,-1,1581,708,0,0
364,316,0,0,0,0,0,0,0,0,0,-1,1588,708,0,0
371,316,0,0,0,0,0,0,0,0,0,-1,1595,708,0,0
378,316,0,0,0,0,0,0,0,0,0,-1,1602,708,0,0
385,316,0,0,0,0,0,0,0,0,0,-1,1609,708,0,0
392,316,0,0,0,0,0,0,0,0,0,-1,1616,708,0,0
399,316,0,0,0,0,0,0,0,0,0,-1,1623,708,0,0
406,316,0,0,0,0,0,0,0,0,0,-1,1630,708,0,0
413,316,0,0,0,0,0,0,0,0,0,-1,1637,708,0,0
420,316,0,0,0,0,0,0,0,0,0,-1,1644,708,0,0
427,316,0,0,0,0,0,0,0,0,0,-1,1651,708,0,0
434,316,0,0,0,0,0,0,0,0,0,-1,1658,708,0,0
441,316,0,0,0,0,0,0,0,0,0,-1,1665,708,0,0
448,316,0,0,0,0,0,0,0,0,0,-1,1672,708,0,0
455,316,0,0,0,0,0,0,0,0,0,-1,1679,708,0,0
462,316,0,0,0,0,0,0,0,0,0,-1,1686,708,0,0
469,316,0,0,0,0,0,0,0,0,0,-1,1693,708,0,0
476,316,0,0,0,0,0,0,0,0,0,-1,1700,708,0,0
483,316,0,0,0,0,0,0,0,0,0,-1,1707,708,0,0
490,316,0,0,0,0,0,0,0,0,0,-1,1714,708,0,0
497,316,0,0,0,0,0,0,0,0,0,-1,1721,708,0,0
504,316,0,0,0,0,0,0,0,0,0,-1,1728,708,0,0
511,316,0,0,0,0,0,0,0,0,0,-1,1735,708,0,0
518,316,0,0,0,0,0,0,0,0,0,-1,1742,708,0,0
525,316,0,0,0,0,0,0,0,0,0,-1,1749,708,0,0
532,316,33.8604,0.531128,0,0,0,0,0,0,0,-1,1756,708,33.8604,-0.531151
539,316,32.5764,1.44672,0,0,0,0,0,0,0,-1,1763,708,32.5764,-1.4467
546,316,31.2839,3.05426,0,0,0,0,0,0,0,-1,1770,708,31.2839,-3.05423
553,316,30.4901,4.8869,0,0,0,0,0,0,0,-1,1777,708,30.4901,-4.88688
560,316,29.651,6.51129,0,0,0,0,0,0,0,-1,1784,708,29.651,-6.51128
567,316,31.678,2.43597,0,0,0,0,0,0,0,-1,1791,708,31.678,-2.43595
574,316,24.005,7.10864,0,0,0,0,0,0,0,-1,1798,708,24.005,-7.10867
581,316,24.6815,7.77496,0,0,0,0,0,0,0,-1,1805,708,24.6815,-7.77499
588,316,19.7659,2.90198,0,0,0,0,0,0,0,-1,1812,708,19.7659,-2.902
595,316,12.5363,1.50702,0,0,0,0,0,0,0,-1,1819,708,12.5363,-1.50701
602,316,7.79919,0.0422363,0,0,0,0,0,0,0,-1,1826,708,7.79923,-0.0422066
609,316,19.5251,-2.65112,0,0,0,0,0,0,0,-1,1833,708,19.5251,2.65114
616,316,19.6296,-2.20142,0.0014541,0.00243068,-0.0011852,0.00322424,0.000660544,-0.980797,0.00196664,0.020304,1840,708,19.6297,2.20143
623,316,19.6644,-1.78821,0.000985705,0.000463166,-0.000719395,0.00148981,-4.09337e-05,-0.611214,0.00100713,0.0107394,1847,708,19.6644,1.78821
630,316,19.6503,-1.3811,0.000718202,-0.000536372,-0.000425801,0.000849068,-0.000667238,-0.298177,0.000877535,0.0131897,1854,708,19.6503,1.3811
637,316,19.6541,-0.963867,0.000172007,-0.000882409,-0.000420362,0.000319078,-0.00102948,-0.336558,0.000813805,0.0120426,1861,708,19.654,0.96385
644,316,19.6407,-0.546387,-0.00092895,-0.000715811,-0.000593408,-0.000219479,-0.00142528,-0.874246,0.000886135,0.0114051,1868,708,19.6408,0.546395
651,316,19.6166,-0.121887,-0.00211328,-0.000474916,-0.000772734,-0.000167964,-0.00242023,-1.19268,0.00156052,0.0134543,1875,708,19.6166,0.121905
658,316,19.5819,0.310486,-0.00337187,-0.000214444,-0.000951728,5.02421e-05,-0.00363655,-1.29954,0.00244129,0.0234573,1882,708,19.582,-0.31049
665,316,19.5529,0.728394,-0.00486901,0.000111844,-0.00121018,0.000390308,-0.00514747,-1.34463,0.00356887,0.0172026,1889,708,19.5529,-0.728417
672,316,19.5767,1.1261,-0.00654808,0.000477585,-0.00149102,0.000780919,-0.00685141,-1.37009,0.00484892,0.0126387,1896,708,19.5766,-1.12609
679,316,19.572,1.59717,-0.00840607,0.000912929,-0.00181176,0.00125277,-0.00874591,-1.38538,0.00628992,0.0210108,1903,708,19.5721,-1.59716
686,316,19.3175,2.08649,-0.0107767,0.00103449,-0.00241602,0.00150959,-0.0112517,-1.37663,0.00805167,0.0353882,1910,708,19.3176,-2.08647
693,316,18.9987,2.63727,0,0,0,0,0,0,0,-1,1917,708,18.9986,-2.63724
700,316,12.8749,2.89136,0,0,0,0,0,0,0,-1,1924,708,12.8748,-2.89137
707,316,15.7089,5.41486,0,0,0,0,0,0,0,-1,1931,708,15.7088,-5.41487
714,316,16.1727,5.52045,0,0,0,0,0,0,0,-1,1938,708,16.1728,-5.52042
721,316,16.7094,6.53351,0,0,0,0,0,0,0,-1,1945,708,16.7094,-6.5335
728,316,0,0,0,0,0,0,0,0,0,-1,1952,708,0,0
735,316,0,0,0,0,0,0,0,0,0,-1,1959,708,0,0
742,316,0,0,0,0,0,0,0,0,0,-1,1966,708,0,0
749,316,0,0,0,0,0,0,0,0,0,-1,1973,708,0,0
756,316,0,0,0,0,0,0,0,0,0,-1,1980,708,0,0
763,316,0,0,0,0,0,0,0,0,0,-1,1987,708,0,0
770,316,0,0,0,0,0,0,0,0,0,-1,1994,708,0,0
777,316,0,0,0,0,0,0,0,0,0,-1,2001,708,0,0
784,316,0,0,0,0,0,0,0,0,0,-1,2008,708,0,0
791,316,0,0,0,0,0,0,0,0,0,-1,2015,708,0,0
798,316,0,0,0,0,0,0,0,0,0,-1,2022,708,0,0
805,316,0,0,0,0,0,0,0,0,0,-1,2029,708,0,0
812,316,0,0,0,0,0,0,0,0,0,-1,2036,708,0,0
-700,309,0,0,0,0,0,0,0,0,0,-1,524,715,0,0
-693,309,0,0,0,0,0,0,0,0,0,-1,531,715,0,0
-686,309,0,0,0,0,0,0,0,0,0,-1,538,715,0,0
-679,309,0,0,0,0,0,0,0,0,0,-1,545,715,0,0
-672,309,0,0,0,0,0,0,0,0,0,-1,552,715,0,0
-665,309,0,0,0,0,0,0,0,0,0,-1,559,715,0,0
-658,309,0,0,0,0,0,0,0,0,0,-1,566,715,0,0
-651,309,0,0,0,0,0,0,0,0,0,-1,573,715,0,0
-644,309,0,0,0,0,0,0,0,0,0,-1,580,715,0,0
-637,309,0,0,0,0,0,0,0,0,0,-1,587,715,0,0
-630,309,0,0,0,0,0,0,0,0,0,-1,594,715,0,0
-623,309,0,0,0,0,0,0,0,0,0,-1,601,715,0,0
-616,309,0,0,0,0,0,0,0,0,0,-1,608,715,0,0
-609,309,-5.95392,-3.93689,0,0,0,0,0,0,0,-1,615,715,-5.95392,3.93686
-602,309,-4.99786,-3.31287,0,0,0,0,0,0,0,-1,622,715,-4.99786,3.31284
-595,309,-6.80847,2.4046,0,0,0,0,0,0,0,-1,629,715,-6.80845,-2.40458
-588,309,-6.08795,2.19324,0,0,0,0,0,0,0,-1,636,715,-6.08793,-2.19325
-581,309,-5.97552,1.3277,0,0,0,0,0,0,0,-1,643,715,-5.97552,-1.32769
-574,309,-8.73602,0.208435,0,0,0,0,0,0,0,-1,650,715,-8.73604,-0.208437
-567,309,-10.3909,0.85968,0,0,0,0,0,0,0,-1,657,715,-10.3909,-0.859696
-560,309,-11.6477,-0.443176,0,0,0,0,0,0,0,-1,664,715,-11.6477,0.443201
-553,309,-11.7519,-0.540344,0.000680299,0.00317582,-0.00503221,0.00711266,-0.00325654,-0.906924,0.00612309,0.0363308,671,715,-11.7519,0.540357
-546,309,-11.8621,-0.881836,0.000975607,0.00267304,-0.00434532,0.00625175,-0.00260311,-0.881842,0.00525503,0.0177919,678,715,-11.8621,0.881854
-539,309,-11.8448,-1.30963,0.0011243,0.00203654,-0.00347478,0.00508501,-0.00192417,-0.850658,0.00418166,0.014524,685,715,-11.8449,1.3096
-532,309,-11.847,-1.70551,0.00110696,0.00120111,-0.00248981,0.00364429,-0.00133622,-0.79485,0.00297664,0.0119906,692,715,-11.847,1.70548
-525,309,-11.8226,-2.09406,0.00110973,0.000487578,-0.00147786,0.0023089,-0.000711596,-0.681668,0.00182336,0.014356,699,715,-11.8226,2.09407
-518,309,-11.8412,-2.48822,0.00127447,-0.000195608,-0.000867586,0.00167653,-0.000597665,-0.433958,0.00136136,0.0145863,706,715,-11.8412,2.48822
-511,309,-11.8639,-2.86902,0.00140515,-0.000912127,-0.000268739,0.00143591,-0.000942885,-0.113957,0.00138319,0.012161,713,715,-11.8639,2.86903
-504,309,-11.8488,-3.27838,0.00165614,-0.00161467,7.26502e-05,0.00165775,-0.00161628,0.0221971,0.00189031,0.00983804,720,715,-11.8488,3.27841
-497,309,-11.85,-3.66248,0.00222829,-0.00221255,-0.000151746,0.00223347,-0.00221773,-0.0341175,0.0025699,0.0138758,727,715,-11.85,3.66249
-490,309,-11.838,-4.03412,0.00334516,-0.00253279,-0.00119212,0.00357774,-0.00276537,-0.192673,0.00367219,0.040929,734,715,-11.838,4.03412
-483,309,-11.5913,-4.6366,0,0,0,0,0,0,0,-1,741,715,-11.5913,4.63658
-476,309,-5.29486,-1.2262,0,0,0,0,0,0,0,-1,748,715,-5.29484,1.22622
-469,309,-4.22717,-0.592896,0,0,0,0,0,0,0,-1,755,715,-4.2272,0.592905
-462,309,-10.428,2.46948,0,0,0,0,0,0,0,-1,762,715,-10.428,-2.46947
-455,309,-15.8216,0.00915527,0,0,0,0,0,0,0,-1,769,715,-15.8216,-0.00913359
-448,309,-19.2673,1.19257,0,0,0,0,0,0,0,-1,776,715,-19.2673,-1.19254
-441,309,-19.8181,1.4425,0,0,0,0,0,0,0,-1,783,715,-19.8181,-1.44249
-434,309,-15.3519,1.06873,0,0,0,0,0,0,0,-1,790,715,-15.3519,-1.06874
-427,309,-15.1996,1.32141,0,0,0,0,0,0,0,-1,797,715,-15.1996,-1.3214
-420,309,-13.3781,3.26843,0,0,0,0,0,0,0,-1,804,715,-13.3781,-3.26842
-413,309,0,0,0,0,0,0,0,0,0,-1,811,715,0,0
-406,309,0,0,0,0,0,0,0,0,0,-1,818,715,0,0
-399,309,0,0,0,0,0,0,0,0,0,-1,825,715,0,0
-392,309,0,0,0,0,0,0,0,0,0,-1,832,715,0,0
-385,309,0,0,0,0,0,0,0,0,0,-1,839,715,0,0
-378,309,0,0,0,0,0,0,0,0,0,-1,846,715,0,0
-371,309,0,0,0,0,0,0,0,0,0,-1,853,715,0,0
-364,309,0,0,0,0,0,0,0,0,0,-1,860,715,0,0
-357,309,0,0,0,0,0,0,0,0,0,-1,867,715,0,0
-350,309,0,0,0,0,0,0,0,0,0,-1,874,715,0,0
-343,309,0,0,0,0,0,0,0,0,0,-1,881,715,0,0
-336,309,0,0,0,0,0,0,0,0,0,-1,888,715,0,0
-329,309,0,0,0,0,0,0,0,0,0,-1,895,715,0,0
-322,309,0,0,0,0,0,0,0,0,0,-1,902,715,0,0
-315,309,0,0,0,0,0,0,0,0,0,-1,909,715,0,0
-308,309,0,0,0,0,0,0,0,0,0,-1,916,715,0,0
-301,309,0,0,0,0,0,0,0,0,0,-1,923,715,0,0
-294,309,0,0,0,0,0,0,0,0,0,-1,930,715,0,0
-287,309,0,0,0,0,0,0,0,0,0,-1,937,715,0,0
-280,309,0,0,0,0,0,0,0,0,0,-1,944,715,0,0
-273,309,0,0,0,0,0,0,0,0,0,-1,951,715,0,0
-266,309,0,0,0,0,0,0,0,0,0,-1,958,715,0,0
-259,309,0,0,0,0,0,0,0,0,0,-1,965,715,0,0
-252,309,0,0,0,0,0,0,0,0,0,-1,972,715,0,0
-245,309,0,0,0,0,0,0,0,0,0,-1,979,715,0,0
-238,309,0,0,0,0,0,0,0,0,0,-1,986,715,0,0
-231,309,0,0,0,0,0,0,0,0,0,-1,993,715,0,0
-224,309,0,0,0,0,0,0,0,0,0,-1,1000,715,0,0
-217,309,0,0,0,0,0,0,0,0,0,-1,1007,715,0,0
-210,309,0,0,0,0,0,0,0,0,0,-1,1014,715,0,0
-203,309,0,0,0,0,0,0,0,0,0,-1,1021,715,0,0
-196,309,0,0,0,0,0,0,0,0,0,-1,1028,715,0,0
-189,309,0,0,0,0,0,0,0,0,0,-1,1035,715,0,0
-182,309,0,0,0,0,0,0,0,0,0,-1,1042,715,0,0
-175,309,0,0,0,0,0,0,0,0,0,-1,1049,715,0,0
-168,309,0,0,0,0,0,0,0,0,0,-1,1056,715,0,0
-161,309,0,0,0,0,0,0,0,0,0,-1,1063,715,0,0
-154,309,0,0,0,0,0,0,0,0,0,-1,1070,715,0,0
-147,309,0,0,0,0,0,0,0,0,0,-1,1077,715,0,0
-140,309,0,0,0,0,0,0,0,0,0,-1,1084,715,0,0
-133,309,0,0,0,0,0,0,0,0,0,-1,1091,715,0,0
-126,309,0,0,0,0,0,0,0,0,0,-1,1098,715,0,0
-119,309,0,0,0,0,0,0,0,0,0,-1,1105,715,0,0
-112,309,0,0,0,0,0,0,0,0,0,-1,1112,715,0,0
-105,309,0,0,0,0,0,0,0,0,0,-1,1119,715,0,0
-98,309,0,0,0,0,0,0,0,0,0,-1,1126,715,0,0
-91,309,0,0,0,0,0,0,0,0,0,-1,1133,715,0,0
-84,309,0,0,0,0,0,0,0,0,0,-1,1140,715,0,0
-77,309,0,0,0,0,0,0,0,0,0,-1,1147,715,0,0
-70,309,0,0,0,0,0,0,0,0,0,-1,1154,715,0,0
-63,309,0,0,0,0,0,0,0,0,0,-1,1161,715,0,0
-56,309,0,0,0,0,0,0,0,0,0,-1,1168,715,0,0
-49,309,0,0,0,0,0,0,0,0,0,-1,1175,715,0,0
-42,309,0,0,0,0,0,0,0,0,0,-1,1182,715,0,0
-35,309,0,0,0,0,0,0,0,0,0,-1,1189,715,0,0
-28,309,0,0,0,0,0,0,0,0,0,-1,1196,715,0,0
-21,309,0,0,0,0,0,0,0,0,0,-1,1203,715,0,0
-14,309,0,0,0,0,0,0,0,0,0,-1,1210,715,0,0
-7,309,0,0,0,0,0,0,0,0,0,-1,1217,715,0,0
0,309,0,0,0,0,0,0,0,0,0,-1,1224,715,0,0
7,309,0,0,0,0,0,0,0,0,0,-1,1231,715,0,0
14,309,0,0,0,0,0,0,0,0,0,-1,1238,715,0,0
21,309,0,0,0,0,0,0,0,0,0,-1,1245,715,0,0
28,309,0,0,0,0,0,0,0,0,0,-1,1252,715,0,0
35,309,0,0,0,0,0,0,0,0,0,-1,1259,715,0,0
42,309,0,0,0,0,0,0,0,0,0,-1,1266,715,0,0
49,309,0,0,0,0,0,0,0,0,0,-1,1273,715,0,0
56,309,0,0,0,0,0,0,0,0,0,-1,1280,715,0,0
63,309,0,0,0,0,0,0,0,0,0,-1,1287,715,0,0
70,309,0,0,0,0,0,0,0,0,0,-1,1294,715,0,0
77,309,0,0,0,0,0,0,0,0,0,-1,1301,715,0,0
84,309,0,0,0,0,0,0,0,0,0,-1,1308,715,0,0
91,309,0,0,0,0,0,0,0,0,0,-1,1315,715,0,0
98,309,0,0,0,0,0,0,0,0,0,-1,1322,715,0,0
105,309,0,0,0,0,0,0,0,0,0,-1,1329,715,0,0
112,309,0,0,0,0,0,0,0,0,0,-1,1336,715,0,0
119,309,0,0,0,0,0,0,0,0,0,-1,1343,715,0,0
126,309,0,0,0,0,0,0,0,0,0,-1,1350,715,0,0
133,309,0,0,0,0,0,0,0,0,0,-1,1357,715,0,0
140,309,0,0,0,0,0,0,0,0,0,-1,1364,715,0,0
147,309,0,0,0,0,0,0,0,0,0,-1,1371,715,0,0
154,309,0,0,0,0,0,0,0,0,0,-1,1378,715,0,0
161,309,0,0,0,0,0,0,0,0,0,-1,1385,715,0,0
168,309,0,0,0,0,0,0,0,0,0,-1,1392,715,0,0
175,309,0,0,0,0,0,0,0,0,0,-1,1399,715,0,0
182,309,0,0,0,0,0,0,0,0,0,-1,1406,715,0,0
189,309,0,0,0,0,0,0,0,0,0,-1,1413,715,0,0
196,309,0,0,0,0,0,0,0,0,0,-1,1420,715,0,0
203,309,0,0,0,0,0,0,0,0,0,-1,1427,715,0,0
210,309,0,0,0,0,0,0,0,0,0,-1,1434,715,0,0
217,309,0,0,0,0,0,0,0,0,0,-1,1441,715,0,0
224,309,0,0,0,0,0,0,0,0,0,-1,1448,715,0,0
231,309,0,0,0,0,0,0,0,0,0,-1,1455,715,0,0
238,309,0,0,0,0,0,0,0,0,0,-1,1462,715,0,0
245,309,0,0,0,0,0,0,0,0,0,-1,1469,715,0,0
252,309,0,0,0,0,0,0,0,0,0,-1,1476,715,0,0
259,309,0,0,0,0,0,0,0,0,0,-1,1483,715,0,0
266,309,0,0,0,0,0,0,0,0,0,-1,1490,715,0,0
273,309,0,0,0,0,0,0,0,0,0,-1,1497,715,0,0
280,309,0,0,0,0,0,0,0,0,0,-1,1504,715,0,0
287,309,0,0,0,0,0,0,0,0,0,-1,1511,715,0,0
294,309,0,0,0,0,0,0,0,0,0,-1,1518,715,0,0
301,309,0,0,0,0,0,0,0,0,0,-1,1525,715,0,0
308,309,0,0,0,0,0,0,0,0,0,-1,1532,715,0,0
315,309,0,0,0,0,0,0,0,0,0,-1,1539,715,0,0
322,309,0,0,0,0,0,0,0,0,0,-1,1546,715,0,0
329,309,0,0,0,0,0,0,0,0,0,-1,1553,715,0,0
336,309,0,0,0,0,0,0,0,0,0,-1,1560,715,0,0
343,309,0,0,0,0,0,0,0,0,0,-1,1567,715,0,0
350,309,0,0,0,0,0,0,0,0,0,-1,1574,715,0,0
357,309,0,0,0,0,0,0,0,0,0,-1,1581,715,0,0
364,309,0,0,0,0,0,0,0,0,0,-1,1588,715,0,0
371,309,0,0,0,0,0,0,0,0,0,-1,1595,715,0,0
378,309,0,0,0,0,0,0,0,0,0,-1,1602,715,0,0
385,309,0,0,0,0,0,0,0,0,0,-1,1609,715,0,0
392,309,0,0,0,0,0,0,0,0,0,-1,1616,715,0,0
399,309,0,0,0,0,0,0,0,0,0,-1,1623,715,0,0
406,309,0,0,0,0,0,0,0,0,0,-1,1630,715,0,0
413,309,0,0,0,0,0,0,0,0,0,-1,1637,715,0,0
420,309,0,0,0,0,0,0,0,0,0,-1,1644,715,0,0
427,309,0,0,0,0,0,0,0,0,0,-1,1651,715,0,0
434,309,0,0,0,0,0,0,0,0,0,-1,1658,715,0,0
441,309,0,0,0,0,0,0,0,0,0,-1,1665,715,0,0
448,309,0,0,0,0,0,0,0,0,0,-1,1672,715,0,0
455,309,0,0,0,0,0,0,0,0,0,-1,1679,715,0,0
462,309,0,0,0,0,0,0,0,0,0,-1,1686,715,0,0
469,309,0,0,0,0,0,0,0,0,0,-1,1693,715,0,0
476,309,0,0,0,0,0,0,0,0,0,-1,1700,715,0,0
483,309,0,0,0,0,0,0,0,0,0,-1,1707,715,0,0
490,309,0,0,0,0,0,0,0,0,0,-1,1714,715,0,0
497,309,0,0,0,0,0,0,0,0,0,-1,1721,715,0,0
504,309,0,0,0,0,0,0,0,0,0,-1,1728,715,0,0
511,309,0,0,0,0,0,0,0,0,0,-1,1735,715,0,0
518,309,0,0,0,0,0,0,0,0,0,-1,1742,715,0,0
525,309,0,0,0,0,0,0,0,0,0,-1,1749,715,0,0
532,309,0,0,0,0,0,0,0,0,0,-1,1756,715,0,0
539,309,32.9092,0.469055,0,0,0,0,0,0,0,-1,1763,715,32.9092,-0.469069
546,309,31.9059,2.13855,0,0,0,0,0,0,0,-1,1770,715,31.9059,-2.13856
553,309,31.0214,4.17615,0,0,0,0,0,0,0,-1,1777,715,31.0214,-4.17615
560,309,30.699,4.74493,0,0,0,0,0,0,0,-1,1784,715,30.699,-4.7449
567,309,24.5099,5.24646,0,0,0,0,0,0,0,-1,1791,715,24.5099,-5.24643
574,309,25.0681,6.21802,0,0,0,0,0,0,0,-1,1798,715,25.0681,-6.218
581,309,25.644,7.03058,0,0,0,0,0,0,0,-1,1805,715,25.6441,-7.03056
588,309,26.2064,7.76422,0,0,0,0,0,0,0,-1,1812,715,26.2064,-7.7642
595,309,19.585,3.71558,0,0,0,0,0,0,0,-1,1819,715,19.5849,-3.71555
602,309,11.0811,3.47772,0,0,0,0,0,0,0,-1,1826,715,11.0811,-3.47772
609,309,19.8499,-2.70184,0,0,0,0,0,0,0,-1,1833,715,19.8498,2.70183
616,309,20.0057,-2.22076,0.000929931,0.00353669,-0.00195094,0.00457957,-0.000112956,-1.07989,0.00309139,0.0306719,1840,715,20.0057,2.22077
623,309,20.0919,-1.77588,0.00042437,0.000883946,-0.00138649,0.00205956,-0.000751243,-0.867519,0.00168039,0.0109638,1847,715,20.0919,1.7759
630,309,20.0699,-1.37323,0.000394141,-0.00065063,-0.000985495,0.000987142,-0.00124363,-0.54169,0.00129077,0.0106706,1854,715,20.0699,1.37323
637,309,20.0344,-0.94989,0.000119499,-0.00126025,-0.00081448,0.000497007,-0.00163776,-0.43402,0.00128983,0.0140125,1861,715,20.0345,0.949886
644,309,20.0042,-0.523254,-0.000781727,-0.00110734,-0.000786782,-0.000141083,-0.00174798,-0.683375,0.00112126,0.0143412,1868,715,20.0041,0.523237
651,309,20.0092,-0.0960083,-0.00173846,-0.000698239,-0.000849552,-0.00022223,-0.00221447,-1.06008,0.00140809,0.013159,1875,715,20.0091,0.0959895
658,309,20.001,0.331055,-0.00272037,-0.000290824,-0.000918356,1.72462e-05,-0.00302844,-1.24713,0.00202473,0.0190068,1882,715,20.001,-0.331035
665,309,20.0221,0.739197,-0.00386036,0.000185192,-0.00105251,0.000442636,-0.00411781,-1.33091,0.00290402,0.016335,1889,715,20.0221,-0.739196
672,309,20.0184,1.14899,-0.00508065,0.000739714,-0.00115092,0.000959032,-0.00529996,-1.38249,0.00389257,0.0153638,1896,715,20.0185,-1.14899
679,309,20.0018,1.58887,-0.00637459,0.00135697,-0.00128055,0.00156355,-0.00658116,-1.41086,0.00499094,0.0167485,1903,715,20.0018,-1.58889
686,309,19.9125,2.04443,-0.00795,0.00173912,-0.00161237,0.00200039,-0.00821127,-1.41015,0.00624863,0.0247483,1910,715,19.9124,-2.04444
693,309,19.5475,2.48187,-0.00952117,0.00261841,-0.00183623,0.00289008,-0.00979284,-1.42391,0.00767549,0.0430572,1917,715,19.5474,-2.48184
700,309,19.3624,3.0351,0,0,0,0,0,0,0,-1,1924,715,19.3625,-3.03512
707,309,15.6318,4.58655,0,0,0,0,0,0,0,-1,1931,715,15.6318,-4.58657
714,309,16.7573,6.68286,0,0,0,0,0,0,0,-1,1938,715,16.7574,-6.68284
721,309,16.8337,5.4458,0,0,0,0,0,0,0,-1,1945,715,16.8338,-5.44582
728,309,0,0,0,0,0,0,0,0,0,-1,1952,715,0,0
735,309,0,0,0,0,0,0,0,0,0,-1,1959,715,0,0
742,309,0,0,0,0,0,0,0,0,0,-1,1966,715,0,0
749,309,0,0,0,0,0,0,0,0,0,-1,1973,715,0,0
756,309,0,0,0,0,0,0,0,0,0,-1,1980,715,0,0
763,309,0,0,0,0,0,0,0,0,0,-1,1987,715,0,0
770,309,0,0,0,0,0,0,0,0,0,-1,1994,715,0,0
777,309,0,0,0,0,0,0,0,0,0,-1,2001,715,0,0
784,309,0,0,0,0,0,0,0,0,0,-1,2008,715,0,0
791,309,0,0,0,0,0,0,0,0,0,-1,2015,715,0,0
798,309,0,0,0,0,0,0,0,0,0,-1,2022,715,0,0
805,309,0,0,0,0,0,0,0,0,0,-1,2029,715,0,0
812,309,0,0,0,0,0,0,0,0,0,-1,2036,715,0,0
-700,302,0,0,0,0,0,0,0,0,0,-1,524,722,0,0
-693,302,0,0,0,0,0,0,0,0,0,-1,531,722,0,0
-686,302,0,0,0,0,0,0,0,0,0,-1,538,722,0,0
-679,302,0,0,0,0,0,0,0,0,0,-1,545,722,0,0
-672,302,0,0,0,0,0,0,0,0,0,-1,552,722,0,0
-665,302,0,0,0,0,0,0,0,0,0,-1,559,722,0,0
-658,302,0,0,0,0,0,0,0,0,0,-1,566,722,0,0
-651,302,0,0,0,0,0,0,0,0,0,-1,573,722,0,0
-644,302,0,0,0,0,0,0,0,0,0,-1,580,722,0,0
-637,302,0,0,0,0,0,0,0,0,0,-1,587,722,0,0
-630,302,0,0,0,0,0,0,0,0,0,-1,594,722,0,0
-623,302,0,0,0,0,0,0,0,0,0,-1,601,722,0,0
-616,302,0,0,0,0,0,0,0,0,0,-1,608,722,0,0
-609,302,-7.79266,-3.71649,0,0,0,0,0,0,0,-1,615,722,-7.79267,3.7165
-602,302,0.92865,-1.99158,0,0,0,0,0,0,0,-1,622,722,0.928637,1.99157
-595,302,-7.89941,2.13641,0,0,0,0,0,0,0,-1,629,722,-7.89939,-2.13639
-588,302,-7.10895,1.79163,0,0,0,0,0,0,0,-1,636,722,-7.10896,-1.79163
-581,302,-9.17566,1.09448,0,0,0,0,0,0,0,-1,643,722,-9.17569,-1.09445
-574,302,-11.0461,0.324829,0,0,0,0,0,0,0,-1,650,722,-11.0461,-0.324804
-567,302,-11.3148,-0.0177612,0,0,0,0,0,0,0,-1,657,722,-11.3147,0.0177691
-560,302,-12.3009,-0.0860596,0,0,0,0,0,0,0,-1,664,722,-12.3009,0.0860859
-553,302,-12.2318,-0.484253,-0.00258404,0.00361764,-0.00104727,0.00378972,-0.00275611,-1.40794,0.00379491,0.0211804,671,722,-12.2317,0.484225
-546,302,-12.2466,-0.907715,-0.00159856,0.00281255,-0.00113331,0.00308669,-0.00187269,-1.33347,0.00289175,0.015471,678,722,-12.2466,0.907705
-539,302,-12.2583,-1.27234,-0.000851634,0.00195343,-0.000934503,0.00223624,-0.00113445,-1.27692,0.00198042,0.015023,685,722,-12.2583,1.27236
-532,302,-12.2457,-1.68188,-0.000335725,0.000895654,-0.000556274,0.00110973,-0.000549802,-1.20342,0.000976143,0.0143305,692,722,-12.2457,1.68187
-525,302,-12.2285,-2.10284,0.000176684,4.63091e-05,-9.95048e-05,0.000230453,-7.45974e-06,-0.495415,0.000156182,0.0186433,699,722,-12.2284,2.10285
-518,302,-12.2509,-2.47614,0.000791049,-0.000773879,-2.91591e-05,0.000791592,-0.000774422,-0.0186242,0.000904157,0.0193277,706,722,-12.2509,2.47615
-511,302,-12.2535,-2.85535,0.00129362,-0.00160356,6.05648e-05,0.00129488,-0.00160483,0.0208926,0.00167733,0.0107977,713,722,-12.2535,2.85534
-504,302,-12.25,-3.25208,0.00185671,-0.00233348,-9.30457e-05,0.00185877,-0.00233554,-0.022191,0.0024268,0.0101341,720,722,-12.25,3.2521
-497,302,-12.2852,-3.63354,0.002637,-0.0029282,-0.000722734,0.00272932,-0.00302052,-0.127059,0.00332109,0.0150121,727,722,-12.2852,3.63355
-490,302,-12.3232,-4.00842,0,0,0,0,0,0,0,-1,734,722,-12.3232,4.00843
-483,302,-9.53412,-3.1673,0,0,0,0,0,0,0,-1,741,722,-9.53411,3.1673
-476,302,-4.29749,-0.203491,0,0,0,0,0,0,0,-1,748,722,-4.29751,0.203464
-469,302,-12.369,1.42859,0,0,0,0,0,0,0,-1,755,722,-12.3689,-1.42857
-462,302,-17.4766,0.310791,0,0,0,0,0,0,0,-1,762,722,-17.4766,-0.310788
-455,302,-17.8736,1.4895,0,0,0,0,0,0,0,-1,769,722,-17.8736,-1.48952
-448,302,-22.1009,-0.967468,0,0,0,0,0,0,0,-1,776,722,-22.1009,0.967494
-441,302,-22.2877,-0.842041,0,0,0,0,0,0,0,-1,783,722,-22.2877,0.842065
-434,302,-22.3103,-0.695129,0,0,0,0,0,0,0,-1,790,722,-22.3103,0.695104
-427,302,-15.3611,1.80798,0,0,0,0,0,0,0,-1,797,722,-15.3611,-1.80801
-420,302,0,0,0,0,0,0,0,0,0,-1,804,722,0,0
-413,302,0,0,0,0,0,0,0,0,0,-1,811,722,0,0
-406,302,0,0,0,0,0,0,0,0,0,-1,818,722,0,0
-399,302,0,0,0,0,0,0,0,0,0,-1,825,722,0,0
-392,302,0,0,0,0,0,0,0,0,0,-1,832,722,0,0
-385,302,0,0,0,0,0,0,0,0,0,-1,839,722,0,0
-378,302,0,0,0,0,0,0,0,0,0,-1,846,722,0,0
-371,302,0,0,0,0,0,0,0,0,0,-1,853,722,0,0
-364,302,0,0,0,0,0,0,0,0,0,-1,860,722,0,0
-357,302,0,0,0,0,0,0,0,0,0,-1,867,722,0,0
-350,302,0,0,0,0,0,0,0,0,0,-1,874,722,0,0
-343,302,0,0,0,0,0,0,0,0,0,-1,881,722,0,0
-336,302,0,0,0,0,0,0,0,0,0,-1,888,722,0,0
-329,302,0,0,0,0,0,0,0,0,0,-1,895,722,0,0
-322,302,0,0,0,0,0,0,0,0,0,-1,902,722,0,0
-315,302,0,0,0,0,0,0,0,0,0,-1,909,722,0,0
-308,302,0,0,0,0,0,0,0,0,0,-1,916,722,0,0
-301,302,0,0,0,0,0,0,0,0,0,-1,923,722,0,0
-294,302,0,0,0,0,0,0,0,0,0,-1,930,722,0,0
-287,302,0,0,0,0,0,0,0,0,0,-1,937,722,0,0
-280,302,0,0,0,0,0,0,0,0,0,-1,944,722,0,0
-273,302,0,0,0,0,0,0,0,0,0,-1,951,722,0,0
-266,302,0,0,0,0,0,0,0,0,0,-1,958,722,0,0
-259,302,0,0,0,0,0,0,0,0,0,-1,965,722,0,0
-252,302,0,0,0,0,0,0,0,0,0,-1,972,722,0,0
-245,302,0,0,0,0,0,0,0,0,0,-1,979,722,0,0
-238,302,0,0,0,0,0,0,0,0,0,-1,986,722,0,0
-231,302,0,0,0,0,0,0,0,0,0,-1,993,722,0,0
-224,302,0,0,0,0,0,0,0,0,0,-1,1000,722,0,0
-217,302,0,0,0,0,0,0,0,0,0,-1,1007,722,0,0
-210,302,0,0,0,0,0,0,0,0,0,-1,1014,722,0,0
-203,302,0,0,0,0,0,0,0,0,0,-1,1021,722,0,0
-196,302,0,0,0,0,0,0,0,0,0,-1,1028,722,0,0
-189,302,0,0,0,0,0,0,0,0,0,-1,1035,722,0,0
-182,302,0,0,0,0,0,0,0,0,0,-1,1042,722,0,0
-175,302,0,0,0,0,0,0,0,0,0,-1,1049,722,0,0
-168,302,0,0,0,0,0,0,0,0,0,-1,1056,722,0,0
-161,302,0,0,0,0,0,0,0,0,0,-1,1063,722,0,0
-154,302,0,0,0,0,0,0,0,0,0,-1,1070,722,0,0
-147,302,0,0,0,0,0,0,0,0,0,-1,1077,722,0,0
-140,302,0,0,0,0,0,0,0,0,0,-1,1084,722,0,0
-133,302,0,0,0,0,0,0,0,0,0,-1,1091,722,0,0
-126,302,0,0,0,0,0,0,0,0,0,-1,1098,722,0,0
-119,302,0,0,0,0,0,0,0,0,0,-1,1105,722,0,0
-112,302,0,0,0,0,0,0,0,0,0,-1,1112,722,0,0
-105,302,0,0,0,0,0,0,0,0,0,-1,1119,722,0,0
-98,302,0,0,0,0,0,0,0,0,0,-1,1126,722,0,0
-91,302,0,0,0,0,0,0,0,0,0,-1,1133,722,0,0
-84,302,0,0,0,0,0,0,0,0,0,-1,1140,722,0,0
-77,302,0,0,0,0,0,0,0,0,0,-1,1147,722,0,0
-70,302,0,0,0,0,0,0,0,0,0,-1,1154,722,0,0
-63,302,0,0,0,0,0,0,0,0,0,-1,1161,722,0,0
-56,302,0,0,0,0,0,0,0,0,0,-1,1168,722,0,0
-49,302,0,0,0,0,0,0,0,0,0,-1,1175,722,0,0
-42,302,0,0,0,0,0,0,0,0,0,-1,1182,722,0,0
-35,302,0,0,0,0,0,0,0,0,0,-1,1189,722,0,0
-28,302,0,0,0,0,0,0,0,0,0,-1,1196,722,0,0
-21,302,0,0,0,0,0,0,0,0,0,-1,1203,722,0,0
-14,302,0,0,0,0,0,0,0,0,0,-1,1210,722,0,0
-7,302,0,0,0,0,0,0,0,0,0,-1,1217,722,0,0
0,302,0,0,0,0,0,0,0,0,0,-1,1224,722,0,0
7,302,0,0,0,0,0,0,0,0,0,-1,1231,722,0,0
14,302,0,0,0,0,0,0,0,0,0,-1,1238,722,0,0
21,302,0,0,0,0,0,0,0,0,0,-1,1245,722,0,0
28,302,0,0,0,0,0,0,0,0,0,-1,1252,722,0,0
35,302,0,0,0,0,0,0,0,0,0,-1,1259,722,0,0
42,302,0,0,0,0,0,0,0,0,0,-1,1266,722,0,0
49,302,0,0,0,0,0,0,0,0,0,-1,1273,722,0,0
56,302,0,0,0,0,0,0,0,0,0,-1,1280,722,0,0
63,302,0,0,0,0,0,0,0,0,0,-1,1287,722,0,0
70,302,0,0,0,0,0,0,0,0,0,-1,1294,722,0,0
77,302,0,0,0,0,0,0,0,0,0,-1,1301,722,0,0
84,302,0,0,0,0,0,0,0,0,0,-1,1308,722,0,0
91,302,0,0,0,0,0,0,0,0,0,-1,1315,722,0,0
98,302,0,0,0,0,0,0,0,0,0,-1,1322,722,0,0
105,302,0,0,0,0,0,0,0,0,0,-1,1329,722,0,0
112,302,0,0,0,0,0,0,0,0,0,-1,1336,722,0,0
119,302,0,0,0,0,0,0,0,0,0,-1,1343,722,0,0
126,302,0,0,0,0,0,0,0,0,0,-1,1350,722,0,0
133,302,0,0,0,0,0,0,0,0,0,-1,1357,722,0,0
140,302,0,0,0,0,0,0,0,0,0,-1,1364,722,0,0
147,302,0,0,0,0,0,0,0,0,0,-1,1371,722,0,0
154,302,0,0,0,0,0,0,0,0,0,-1,1378,722,0,0
161,302,0,0,0,0,0,0,0,0,0,-1,1385,722,0,0
168,302,0,0,0,0,0,0,0,0,0,-1,1392,722,0,0
175,302,0,0,0,0,0,0,0,0,0,-1,1399,722,0,0
182,302,0,0,0,0,0,0,0,0,0,-1,1406,722,0,0
189,302,0,0,0,0,0,0,0,0,0,-1,1413,722,0,0
196,302,0,0,0,0,0,0,0,0,0,-1,1420,722,0,0
203,302,0,0,0,0,0,0,0,0,0,-1,1427,722,0,0
210,302,0,0,0,0,0,0,0,0,0,-1,1434,722,0,0
217,302,0,0,0,0,0,0,0,0,0,-1,1441,722,0,0
224,302,0,0,0,0,0,0,0,0,0,-1,1448,722,0,0
231,302,0,0,0,0,0,0,0,0,0,-1,1455,722,0,0
238,302,0,0,0,0,0,0,0,0,0,-1,1462,722,0,0
245,302,0,0,0,0,0,0,0,0,0,-1,1469,722,0,0
252,302,0,0,0,0,0,0,0,0,0,-1,1476,722,0,0
259,302,0,0,0,0,0,0,0,0,0,-1,1483,722,0,0
266,302,0,0,0,0,0,0,0,0,0,-1,1490,722,0,0
273,302,0,0,0,0,0,0,0,0,0,-1,1497,722,0,0
280,302,0,0,0,0,0,0,0,0,0,-1,1504,722,0,0
287,302,0,0,0,0,0,0,0,0,0,-1,1511,722,0,0
294,302,0,0,0,0,0,0,0,0,0,-1,1518,722,0,0
301,302,0,0,0,0,0,0,0,0,0,-1,1525,722,0,0
308,302,0,0,0,0,0,0,0,0,0,-1,1532,722,0,0
315,302,0,0,0,0,0,0,0,0,0,-1,1539,722,0,0
322,302,0,0,0,0,0,0,0,0,0,-1,1546,722,0,0
329,302,0,0,0,0,0,0,0,0,0,-1,1553,722,0,0
336,302,0,0,0,0,0,0,0,0,0,-1,1560,722,0,0
343,302,0,0,0,0,0,0,0,0,0,-1,1567,722,0,0
350,302,0,0,0,0,0,0,0,0,0,-1,1574,722,0,0
357,302,0,0,0,0,0,0,0,0,0,-1,1581,722,0,0
364,302,0,0,0,0,0,0,0,0,0,-1,1588,722,0,0
371,302,0,0,0,0,0,0,0,0,0,-1,1595,722,0,0
378,302,0,0,0,0,0,0,0,0,0,-1,1602,722,0,0
385,302,0,0,0,0,0,0,0,0,0,-1,1609,722,0,0
392,302,0,0,0,0,0,0,0,0,0,-1,1616,722,0,0
399,302,0,0,0,0,0,0,0,0,0,-1,1623,722,0,0
406,302,0,0,0,0,0,0,0,0,0,-1,1630,722,0,0
413,302,0,0,0,0,0,0,0,0,0,-1,1637,722,0,0
420,302,0,0,0,0,0,0,0,0,0,-1,1644,722,0,0
427,302,0,0,0,0,0,0,0,0,0,-1,1651,722,0,0
434,302,0,0,0,0,0,0,0,0,0,-1,1658,722,0,0
441,302,0,0,0,0,0,0,0,0,0,-1,1665,722,0,0
448,302,0,0,0,0,0,0,0,0,0,-1,1672,722,0,0
455,302,0,0,0,0,0,0,0,0,0,-1,1679,722,0,0
462,302,0,0,0,0,0,0,0,0,0,-1,1686,722,0,0
469,302,0,0,0,0,0,0,0,0,0,-1,1693,722,0,0
476,302,0,0,0,0,0,0,0,0,0,-1,1700,722,0,0
483,302,0,0,0,0,0,0,0,0,0,-1,1707,722,0,0
490,302,0,0,0,0,0,0,0,0,0,-1,1714,722,0,0
497,302,0,0,0,0,0,0,0,0,0,-1,1721,722,0,0
504,302,0,0,0,0,0,0,0,0,0,-1,1728,722,0,0
511,302,0,0,0,0,0,0,0,0,0,-1,1735,722,0,0
518,302,0,0,0,0,0,0,0,0,0,-1,1742,722,0,0
525,302,0,0,0,0,0,0,0,0,0,-1,1749,722,0,0
532,302,0,0,0,0,0,0,0,0,0,-1,1756,722,0,0
539,302,0,0,0,0,0,0,0,0,0,-1,1763,722,0,0
546,302,32.2542,1.56293,0,0,0,0,0,0,0,-1,1770,722,32.2542,-1.56291
553,302,31.6141,3.30438,0,0,0,0,0,0,0,-1,1777,722,31.6141,-3.3044
560,302,30.5267,4.11847,0,0,0,0,0,0,0,-1,1784,722,30.5267,-4.11849
567,302,29.3408,4.28564,0,0,0,0,0,0,0,-1,1791,722,29.3408,-4.28564
574,302,26.0609,5.33057,0,0,0,0,0,0,0,-1,1798,722,26.0609,-5.33057
581,302,26.552,6.34863,0,0,0,0,0,0,0,-1,1805,722,26.552,-6.3486
588,302,26.9731,7.19983,0,0,0,0,0,0,0,-1,1812,722,26.9732,-7.19981
595,302,27.3826,8.13104,0,0,0,0,0,0,0,-1,1819,722,27.3825,-8.13102
602,302,14.7349,5.21246,0,0,0,0,0,0,0,-1,1826,722,14.7349,-5.21247
609,302,11.1578,-0.125854,0,0,0,0,0,0,0,-1,1833,722,11.1579,0.125839
616,302,20.3639,-2.22156,0,0,0,0,0,0,0,-1,1840,722,20.3639,2.22153
623,302,20.5,-1.74841,0.000218299,0.0025516,-0.00382116,0.00538024,-0.00261034,-0.93356,0.00470485,0.0156766,1847,722,20.5,1.74842
630,302,20.4696,-1.35114,0.000226802,0.000412596,-0.00315621,0.00347727,-0.00283787,-0.80011,0.00365228,0.0110841,1854,722,20.4696,1.35114
637,302,20.4233,-0.929199,0.000112682,-0.000845409,-0.00243089,0.00211128,-0.002844,-0.688112,0.00287134,0.0146855,1861,722,20.4234,0.92923
644,302,20.4178,-0.50238,-0.000582035,-0.00106276,-0.00173879,0.000932924,-0.00257772,-0.716715,0.00209972,0.0150062,1868,722,20.4179,0.502407
651,302,20.4382,-0.0672607,-0.00124202,-0.000706896,-0.00131089,0.000363463,-0.00231238,-0.886069,0.00167593,0.014032,1875,722,20.4383,0.0672574
658,302,20.4497,0.3302,-0.0019166,-0.000303509,-0.00103284,0.000200394,-0.00242051,-1.11689,0.00168445,0.0154113,1882,722,20.4497,-0.330178
665,302,20.4386,0.726746,-0.00270459,0.000196637,-0.000897124,0.000451635,-0.00295959,-1.29386,0.00213955,0.0148229,1889,722,20.4386,-0.726737
672,302,20.42,1.13562,-0.00354464,0.000872428,-0.000816307,0.00101846,-0.00369067,-1.39378,0.00286101,0.01184,1896,722,20.42,-1.13559
679,302,20.3903,1.56274,-0.0043614,0.00164193,-0.000830984,0.00175483,-0.0044743,-1.43576,0.00370887,0.00962595,1903,722,20.3902,-1.56275
686,302,20.4082,1.97095,-0.00533842,0.0022275,-0.00099296,0.00235565,-0.00546657,-1.44245,0.00463368,0.0155868,1910,722,20.4082,-1.97092
693,302,20.156,2.27765,-0.00619716,0.00325647,-0.00104742,0.00337112,-0.00631182,-1.46176,0.00567574,0.0393006,1917,722,20.156,-2.27767
700,302,20.1738,2.45959,0,0,0,0,0,0,0,-1,1924,722,20.1738,-2.45958
707,302,16.7321,4.76685,0,0,0,0,0,0,0,-1,1931,722,16.7321,-4.76687
714,302,17.2,5.77594,0,0,0,0,0,0,0,-1,1938,722,17.2,-5.77595
721,302,17.7914,6.60394,0,0,0,0,0,0,0,-1,1945,722,17.7914,-6.60395
728,302,17.2798,4.81702,0,0,0,0,0,0,0,-1,1952,722,17.2798,-4.81703
735,302,0,0,0,0,0,0,0,0,0,-1,1959,722,0,0
742,302,0,0,0,0,0,0,0,0,0,-1,1966,722,0,0
749,302,0,0,0,0,0,0,0,0,0,-1,1973,722,0,0
756,302,0,0,0,0,0,0,0,0,0,-1,1980,722,0,0
763,302,0,0,0,0,0,0,0,0,0,-1,1987,722,0,0
770,302,0,0,0,0,0,0,0,0,0,-1,1994,722,0,0
777,302,0,0,0,0,0,0,0,0,0,-1,2001,722,0,0
784,302,0,0,0,0,0,0,0,0,0,-1,2008,722,0,0
791,302,0,0,0,0,0,0,0,0,0,-1,2015,722,0,0
798,302,0,0,0,0,0,0,0,0,0,-1,2022,722,0,0
805,302,0,0,0,0,0,0,0,0,0,-1,2029,722,0,0
812,302,0,0,0,0,0,0,0,0,0,-1,2036,722,0,0
-700,295,0,0,0,0,0,0,0,0,0,-1,524,729,0,0
-693,295,0,0,0,0,0,0,0,0,0,-1,531,729,0,0
-686,295,0,0,0,0,0,0,0,0,0,-1,538,729,0,0
-679,295,0,0,0,0,0,0,0,0,0,-1,545,729,0,0
-672,295,0,0,0,0,0,0,0,0,0,-1,552,729,0,0
-665,295,0,0,0,0,0,0,0,0,0,-1,559,729,0,0
-658,295,0,0,0,0,0,0,0,0,0,-1,566,729,0,0
-651,295,0,0,0,0,0,0,0,0,0,-1,573,729,0,0
-644,295,0,0,0,0,0,0,0,0,0,-1,580,729,0,0
-637,295,0,0,0,0,0,0,0,0,0,-1,587,729,0,0
-630,295,0,0,0,0,0,0,0,0,0,-1,594,729,0,0
-623,295,0,0,0,0,0,0,0,0,0,-1,601,729,0,0
-616,295,-13.4911,1.31738,0,0,0,0,0,0,0,-1,608,729,-13.4911,-1.3174
-609,295,-10.2864,0.832031,0,0,0,0,0,0,0,-1,615,729,-10.2863,-0.832034
-602,295,-8.19006,3.01587,0,0,0,0,0,0,0,-1,622,729,-8.19005,-3.01588
-595,295,-0.615479,-1.95447,0,0,0,0,0,0,0,-1,629,729,-0.615481,1.95445
-588,295,-7.98999,1.56903,0,0,0,0,0,0,0,-1,636,729,-7.98997,-1.56905
-581,295,-11.4152,0.875244,0,0,0,0,0,0,0,-1,643,729,-11.4152,-0.875256
-574,295,-11.6707,0.459167,-0.00926439,0.00650812,0.0064621,0.00881753,-0.0115738,1.22756,0.0118087,0.0473865,650,729,-11.6707,-0.459178
-567,295,-11.9786,0.0755005,-0.00718798,0.00527928,0.0042346,0.00658156,-0.00849026,1.27244,0.00872495,0.0494459,657,729,-11.9786,-0.0754972
-560,295,-12.5594,-0.135376,-0.00529074,0.00423321,0.00258153,0.00488794,-0.00594547,1.32241,0.00626459,0.030651,664,729,-12.5594,0.135372
-553,295,-12.6074,-0.520874,-0.0037655,0.00342855,0.00145556,0.00371189,-0.00404884,1.37854,0.00448207,0.0179655,671,729,-12.6073,0.520844
-546,295,-12.6755,-0.878845,-0.00260847,0.00250438,0.000898417,0.00265765,-0.00276175,1.40182,0.00312908,0.0200506,678,729,-12.6754,0.87882
-539,295,-12.6747,-1.24316,-0.00172669,0.00158001,0.00066248,0.0017078,-0.00185447,1.38025,0.00205726,0.0186853,685,729,-12.6747,1.24319
-532,295,-12.6605,-1.65088,-0.00100208,0.000368269,0.000682437,0.000650143,-0.00128396,1.1791,0.00113646,0.015875,692,729,-12.6605,1.65088
-525,295,-12.6509,-2.07312,-0.000229471,-0.000577931,0.000830738,0.000445111,-0.00125251,0.682032,0.0010164,0.014302,699,729,-12.6509,2.07312
-518,295,-12.6395,-2.45111,0.000619905,-0.00152053,0.00058742,0.000770518,-0.00167115,0.250991,0.00144131,0.0106146,706,729,-12.6395,2.45109
-511,295,-12.6372,-2.82239,0.00132675,-0.00245524,0.000375983,0.00136377,-0.00249226,0.0981343,0.00225783,0.00879835,713,729,-12.6372,2.82239
-504,295,-12.6511,-3.21368,0.0021023,-0.00320846,-8.85356e-05,0.00210377,-0.00320993,-0.0166648,0.00308995,0.0109916,720,729,-12.6511,3.21368
-497,295,-12.6938,-3.56775,0.00310293,-0.0038314,-0.00102954,0.00325256,-0.00398103,-0.144323,0.00418337,0.0201704,727,729,-12.6938,3.56776
-490,295,-12.7436,-3.88898,0,0,0,0,0,0,0,-1,734,729,-12.7436,3.88895
-483,295,-6.84503,-0.454651,0,0,0,0,0,0,0,-1,741,729,-6.84505,0.454639
-476,295,-13.1738,-0.836243,0,0,0,0,0,0,0,-1,748,729,-13.1738,0.836223
-469,295,-23.629,-2.02612,0,0,0,0,0,0,0,-1,755,729,-23.6289,2.0261
-462,295,-17.9293,-0.330566,0,0,0,0,0,0,0,-1,762,729,-17.9293,0.330568
-455,295,-21.8553,-0.431641,0,0,0,0,0,0,0,-1,769,729,-21.8553,0.431661
-448,295,-22.1149,-0.403748,0,0,0,0,0,0,0,-1,776,729,-22.1149,0.403755
-441,295,-22.3615,-0.338623,0,0,0,0,0,0,0,-1,783,729,-22.3615,0.338623
-434,295,-22.5533,-0.324768,0,0,0,0,0,0,0,-1,790,729,-22.5534,0.324743
-427,295,0,0,0,0,0,0,0,0,0,-1,797,729,0,0
-420,295,0,0,0,0,0,0,0,0,0,-1,804,729,0,0
-413,295,0,0,0,0,0,0,0,0,0,-1,811,729,0,0
-406,295,0,0,0,0,0,0,0,0,0,-1,818,729,0,0
-399,295,0,0,0,0,0,0,0,0,0,-1,825,729,0,0
-392,295,0,0,0,0,0,0,0,0,0,-1,832,729,0,0
-385,295,0,0,0,0,0,0,0,0,0,-1,839,729,0,0
-378,295,0,0,0,0,0,0,0,0,0,-1,846,729,0,0
-371,295,0,0,0,0,0,0,0,0,0,-1,853,729,0,0
-364,295,0,0,0,0,0,0,0,0,0,-1,860,729,0,0
-357,295,0,0,0,0,0,0,0,0,0,-1,867,729,0,0
-350,295,0,0,0,0,0,0,0,0,0,-1,874,729,0,0
-343,295,0,0,0,0,0,0,0,0,0,-1,881,729,0,0
-336,295,0,0,0,0,0,0,0,0,0,-1,888,729,0,0
-329,295,0,0,0,0,0,0,0,0,0,-1,895,729,0,0
-322,295,0,0,0,0,0,0,0,0,0,-1,902,729,0,0
-315,295,0,0,0,0,0,0,0,0,0,-1,909,729,0,0
-308,295,0,0,0,0,0,0,0,0,0,-1,916,729,0,0
-301,295,0,0,0,0,0,0,0,0,0,-1,923,729,0,0
-294,295,0,0,0,0,0,0,0,0,0,-1,930,729,0,0
-287,295,0,0,0,0,0,0,0,0,0,-1,937,729,0,0
-280,295,0,0,0,0,0,0,0,0,0,-1,944,729,0,0
-273,295,0,0,0,0,0,0,0,0,0,-1,951,729,0,0
-266,295,0,0,0,0,0,0,0,0,0,-1,958,729,0,0
-259,295,0,0,0,0,0,0,0,0,0,-1,965,729,0,0
-252,295,0,0,0,0,0,0,0,0,0,-1,972,729,0,0
-245,295,0,0,0,0,0,0,0,0,0,-1,979,729,0,0
-238,295,0,0,0,0,0,0,0,0,0,-1,986,729,0,0
-231,295,0,0,0,0,0,0,0,0,0,-1,993,729,0,0
-224,295,0,0,0,0,0,0,0,0,0,-1,1000,729,0,0
-217,295,0,0,0,0,0,0,0,0,0,-1,1007,729,0,0
-210,295,0,0,0,0,0,0,0,0,0,-1,1014,729,0,0
-203,295,0,0,0,0,0,0,0,0,0,-1,1021,729,0,0
-196,295,0,0,0,0,0,0,0,0,0,-1,1028,729,0,0
-189,295,0,0,0,0,0,0,0,0,0,-1,1035,729,0,0
-182,295,0,0,0,0,0,0,0,0,0,-1,1042,729,0,0
-175,295,0,0,0,0,0,0,0,0,0,-1,1049,729,0,0
-168,295,0,0,0,0,0,0,0,0,0,-1,1056,729,0,0
-161,295,0,0,0,0,0,0,0,0,0,-1,1063,729,0,0
-154,295,0,0,0,0,0,0,0,0,0,-1,1070,729,0,0
-147,295,0,0,0,0,0,0,0,0,0,-1,1077,729,0,0
-140,295,0,0,0,0,0,0,0,0,0,-1,1084,729,0,0
-133,295,0,0,0,0,0,0,0,0,0,-1,1091,729,0,0
-126,295,0,0,0,0,0,0,0,0,0,-1,1098,729,0,0
-119,295,0,0,0,0,0,0,0,0,0,-1,1105,729,0,0
-112,295,0,0,0,0,0,0,0,0,0,-1,1112,729,0,0
-105,295,0,0,0,0,0,0,0,0,0,-1,1119,729,0,0
-98,295,0,0,0,0,0,0,0,0,0,-1,1126,729,0,0
-91,295,0,0,0,0,0,0,0,0,0,-1,1133,729,0,0
-84,295,0,0,0,0,0,0,0,0,0,-1,1140,729,0,0
-77,295,0,0,0,0,0,0,0,0,0,-1,1147,729,0,0
-70,295,0,0,0,0,0,0,0,0,0,-1,1154,729,0,0
-63,295,0,0,0,0,0,0,0,0,0,-1,1161,729,0,0
-56,295,0,0,0,0,0,0,0,0,0,-1,1168,729,0,0
-49,295,0,0,0,0,0,0,0,0,0,-1,1175,729,0,0
-42,295,0,0,0,0,0,0,0,0,0,-1,1182,729,0,0
-35,295,0,0,0,0,0,0,0,0,0,-1,1189,729,0,0
-28,295,0,0,0,0,0,0,0,0,0,-1,1196,729,0,0
-21,295,0,0,0,0,0,0,0,0,0,-1,1203,729,0,0
-14,295,0,0,0,0,0,0,0,0,0,-1,1210,729,0,0
-7,295,0,0,0,0,0,0,0,0,0,-1,1217,729,0,0
0,295,0,0,0,0,0,0,0,0,0,-1,1224,729,0,0
7,295,0,0,0,0,0,0,0,0,0,-1,1231,729,0,0
14,295,0,0,0,0,0,0,0,0,0,-1,1238,729,0,0
21,295,0,0,0,0,0,0,0,0,0,-1,1245,729,0,0
28,295,0,0,0,0,0,0,0,0,0,-1,1252,729,0,0
35,295,0,0,0,0,0,0,0,0,0,-1,1259,729,0,0
42,295,0,0,0,0,0,0,0,0,0,-1,1266,729,0,0
49,295,0,0,0,0,0,0,0,0,0,-1,1273,729,0,0
56,295,0,0,0,0,0,0,0,0,0,-1,1280,729,0,0
63,295,0,0,0,0,0,0,0,0,0,-1,1287,729,0,0
70,295,0,0,0,0,0,0,0,0,0,-1,1294,729,0,0
77,295,0,0,0,0,0,0,0,0,0,-1,1301,729,0,0
84,295,0,0,0,0,0,0,0,0,0,-1,1308,729,0,0
91,295,0,0,0,0,0,0,0,0,0,-1,1315,729,0,0
98,295,0,0,0,0,0,0,0,0,0,-1,1322,729,0,0
105,295,0,0,0,0,0,0,0,0,0,-1,1329,729,0,0
112,295,0,0,0,0,0,0,0,0,0,-1,1336,729,0,0
119,295,0,0,0,0,0,0,0,0,0,-1,1343,729,0,0
126,295,0,0,0,0,0,0,0,0,0,-1,1350,729,0,0
133,295,0,0,0,0,0,0,0,0,0,-1,1357,729,0,0
140,295,0,0,0,0,0,0,0,0,0,-1,1364,729,0,0
147,295,0,0,0,0,0,0,0,0,0,-1,1371,729,0,0
154,295,0,0,0,0,0,0,0,0,0,-1,1378,729,0,0
161,295,0,0,0,0,0,0,0,0,0,-1,1385,729,0,0
168,295,0,0,0,0,0,0,0,0,0,-1,1392,729,0,0
175,295,0,0,0,0,0,0,0,0,0,-1,1399,729,0,0
182,295,0,0,0,0,0,0,0,0,0,-1,1406,729,0,0
189,295,0,0,0,0,0,0,0,0,0,-1,1413,729,0,0
196,295,0,0,0,0,0,0,0,0,0,-1,1420,729,0,0
203,295,0,0,0,0,0,0,0,0,0,-1,1427,729,0,0
210,295,0,0,0,0,0,0,0,0,0,-1,1434,729,0,0
217,295,0,0,0,0,0,0,0,0,0,-1,1441,729,0,0
224,295,0,0,0,0,0,0,0,0,0,-1,1448,729,0,0
231,295,0,0,0,0,0,0,0,0,0,-1,1455,729,0,0
238,295,0,0,0,0,0,0,0,0,0,-1,1462,729,0,0
245,295,0,0,0,0,0,0,0,0,0,-1,1469,729,0,0
252,295,0,0,0,0,0,0,0,0,0,-1,1476,729,0,0
259,295,0,0,0,0,0,0,0,0,0,-1,1483,729,0,0
266,295,0,0,0,0,0,0,0,0,0,-1,1490,729,0,0
273,295,0,0,0,0,0,0,0,0,0,-1,1497,729,0,0
280,295,0,0,0,0,0,0,0,0,0,-1,1504,729,0,0
287,295,0,0,0,0,0,0,0,0,0,-1,1511,729,0,0
294,295,0,0,0,0,0,0,0,0,0,-1,1518,729,0,0
301,295,0,0,0,0,0,0,0,0,0,-1,1525,729,0,0
308,295,0,0,0,0,0,0,0,0,0,-1,1532,729,0,0
315,295,0,0,0,0,0,0,0,0,0,-1,1539,729,0,0
322,295,0,0,0,0,0,0,0,0,0,-1,1546,729,0,0
329,295,0,0,0,0,0,0,0,0,0,-1,1553,729,0,0
336,295,0,0,0,0,0,0,0,0,0,-1,1560,729,0,0
343,295,0,0,0,0,0,0,0,0,0,-1,1567,729,0,0
350,295,0,0,0,0,0,0,0,0,0,-1,1574,729,0,0
357,295,0,0,0,0,0,0,0,0,0,-1,1581,729,0,0
364,295,0,0,0,0,0,0,0,0,0,-1,1588,729,0,0
371,295,0,0,0,0,0,0,0,0,0,-1,1595,729,0,0
378,295,0,0,0,0,0,0,0,0,0,-1,1602,729,0,0
385,295,0,0,0,0,0,0,0,0,0,-1,1609,729,0,0
392,295,0,0,0,0,0,0,0,0,0,-1,1616,729,0,0
399,295,0,0,0,0,0,0,0,0,0,-1,1623,729,0,0
406,295,0,0,0,0,0,0,0,0,0,-1,1630,729,0,0
413,295,0,0,0,0,0,0,0,0,0,-1,1637,729,0,0
420,295,0,0,0,0,0,0,0,0,0,-1,1644,729,0,0
427,295,0,0,0,0,0,0,0,0,0,-1,1651,729,0,0
434,295,0,0,0,0,0,0,0,0,0,-1,1658,729,0,0
441,295,0,0,0,0,0,0,0,0,0,-1,1665,729,0,0
448,295,0,0,0,0,0,0,0,0,0,-1,1672,729,0,0
455,295,0,0,0,0,0,0,0,0,0,-1,1679,729,0,0
462,295,0,0,0,0,0,0,0,0,0,-1,1686,729,0,0
469,295,0,0,0,0,0,0,0,0,0,-1,1693,729,0,0
476,295,0,0,0,0,0,0,0,0,0,-1,1700,729,0,0
483,295,0,0,0,0,0,0,0,0,0,-1,1707,729,0,0
490,295,0,0,0,0,0,0,0,0,0,-1,1714,729,0,0
497,295,0,0,0,0,0,0,0,0,0,-1,1721,729,0,0
504,295,0,0,0,0,0,0,0,0,0,-1,1728,729,0,0
511,295,0,0,0,0,0,0,0,0,0,-1,1735,729,0,0
518,295,0,0,0,0,0,0,0,0,0,-1,1742,729,0,0
525,295,0,0,0,0,0,0,0,0,0,-1,1749,729,0,0
532,295,0,0,0,0,0,0,0,0,0,-1,1756,729,0,0
539,295,0,0,0,0,0,0,0,0,0,-1,1763,729,0,0
546,295,32.6044,1.65704,0,0,0,0,0,0,0,-1,1770,729,32.6043,-1.65703
553,295,31.6449,2.58362,0,0,0,0,0,0,0,-1,1777,729,31.6449,-2.58361
560,295,30.6228,3.31049,0,0,0,0,0,0,0,-1,1784,729,30.6228,-3.31051
567,295,29.6796,3.8136,0,0,0,0,0,0,0,-1,1791,729,29.6795,-3.81358
574,295,29.0254,4.51575,0,0,0,0,0,0,0,-1,1798,729,29.0254,-4.51574
581,295,27.9486,4.94354,0,0,0,0,0,0,0,-1,1805,729,27.9486,-4.94353
588,295,27.4762,6.37732,0,0,0,0,0,0,0,-1,1812,729,27.4762,-6.37732
595,295,27.2102,6.99121,0,0,0,0,0,0,0,-1,1819,729,27.2103,-6.99121
602,295,26.9065,7.82141,0,0,0,0,0,0,0,-1,1826,729,26.9064,-7.8214
609,295,11.7737,2.19989,0,0,0,0,0,0,0,-1,1833,729,11.7736,-2.19988
616,295,20.9154,-2.12012,0,0,0,0,0,0,0,-1,1840,729,20.9154,2.12015
623,295,20.88,-1.72455,-0.000196068,0.00451363,-0.0055536,0.00819101,-0.00387344,-0.985919,0.00711254,0.0344589,1847,729,20.88,1.72452
630,295,20.868,-1.31952,-0.000119441,0.00203038,-0.00498822,0.0060582,-0.00414725,-0.89152,0.00592645,0.0128501,1854,729,20.868,1.31949
637,295,20.8541,-0.906555,-7.63894e-05,0.000213771,-0.0040827,0.00415396,-0.00401658,-0.803158,0.00471749,0.0139723,1861,729,20.8541,0.906551
644,295,20.855,-0.482361,-0.000548794,-0.000554826,-0.0029012,0.00234939,-0.00345301,-0.784878,0.00337015,0.0125003,1868,729,20.855,0.482374
651,295,20.8583,-0.067688,-0.000900907,-0.000466324,-0.00194842,0.00127688,-0.00264411,-0.84093,0.00230921,0.0129521,1875,729,20.8583,0.06771
658,295,20.8528,0.327698,-0.00125115,-0.000248636,-0.00128551,0.000629883,-0.00212967,-0.971296,0.00166982,0.0127541,1882,729,20.8527,-0.327711
665,295,20.8344,0.730957,-0.00172763,0.000170055,-0.00083527,0.000485323,-0.0020429,-1.20988,0.00154926,0.0119471,1889,729,20.8344,-0.730958
672,295,20.8027,1.14185,-0.00224924,0.000906547,-0.000545394,0.000998145,-0.00234084,-1.4044,0.00197904,0.0135982,1896,729,20.8027,-1.14184
679,295,20.7833,1.56946,-0.00268132,0.00176748,-0.000399692,0.0018031,-0.00271694,-1.4819,0.00262737,0.0106613,1903,729,20.7834,-1.56945
686,295,20.809,1.95099,-0.00317511,0.0025068,-0.000382299,0.00253241,-0.00320071,-1.50391,0.00331751,0.0106052,1910,729,20.8089,-1.951
693,295,20.7999,2.32245,-0.00351768,0.0035694,-0.000267848,0.0035795,-0.00352779,-1.53307,0.00410343,0.0336739,1917,729,20.7999,-2.32244
700,295,20.879,2.75372,-0.00339053,0.00504936,0.000213181,0.00505474,-0.00339591,1.54556,0.00491022,0.0456682,1924,729,20.879,-2.75371
707,295,21.194,3.37482,0,0,0,0,0,0,0,-1,1931,729,21.194,-3.3748
714,295,17.4906,4.63068,0,0,0,0,0,0,0,-1,1938,729,17.4906,-4.63066
721,295,18.3792,5.32281,0,0,0,0,0,0,0,-1,1945,729,18.3791,-5.32283
728,295,17.379,3.74866,0,0,0,0,0,0,0,-1,1952,729,17.379,-3.74863
735,295,0,0,0,0,0,0,0,0,0,-1,1959,729,0,0
742,295,0,0,0,0,0,0,0,0,0,-1,1966,729,0,0
749,295,0,0,0,0,0,0,0,0,0,-1,1973,729,0,0
756,295,0,0,0,0,0,0,0,0,0,-1,1980,729,0,0
763,295,0,0,0,0,0,0,0,0,0,-1,1987,729,0,0
770,295,0,0,0,0,0,0,0,0,0,-1,1994,729,0,0
777,295,0,0,0,0,0,0,0,0,0,-1,2001,729,0,0
784,295,0,0,0,0,0,0,0,0,0,-1,2008,729,0,0
791,295,0,0,0,0,0,0,0,0,0,-1,2015,729,0,0
798,295,0,0,0,0,0,0,0,0,0,-1,2022,729,0,0
805,295,0,0,0,0,0,0,0,0,0,-1,2029,729,0,0
812,295,0,0,0,0,0,0,0,0,0,-1,2036,729,0,0
-700,288,0,0,0,0,0,0,0,0,0,-1,524,736,0,0
-693,288,0,0,0,0,0,0,0,0,0,-1,531,736,0,0
-686,288,0,0,0,0,0,0,0,0,0,-1,538,736,0,0
-679,288,0,0,0,0,0,0,0,0,0,-1,545,736,0,0
-672,288,0,0,0,0,0,0,0,0,0,-1,552,736,0,0
-665,288,0,0,0,0,0,0,0,0,0,-1,559,736,0,0
-658,288,0,0,0,0,0,0,0,0,0,-1,566,736,0,0
-651,288,0,0,0,0,0,0,0,0,0,-1,573,736,0,0
-644,288,0,0,0,0,0,0,0,0,0,-1,580,736,0,0
-637,288,0,0,0,0,0,0,0,0,0,-1,587,736,0,0
-630,288,0,0,0,0,0,0,0,0,0,-1,594,736,0,0
-623,288,0,0,0,0,0,0,0,0,0,-1,601,736,0,0
-616,288,-11.7584,2.4425,0,0,0,0,0,0,0,-1,608,736,-11.7584,-2.44251
-609,288,-10.3007,2.32178,0,0,0,0,0,0,0,-1,615,736,-10.3007,-2.32178
-602,288,-10.1458,-1.85559,0,0,0,0,0,0,0,-1,622,736,-10.1458,1.85556
-595,288,-7.63208,1.81769,0,0,0,0,0,0,0,-1,629,736,-7.63205,-1.81766
-588,288,-8.19269,1.50598,0,0,0,0,0,0,0,-1,636,736,-8.19268,-1.50601
-581,288,-12.8525,1.01868,0,0,0,0,0,0,0,-1,643,736,-12.8525,-1.01866
-574,288,-12.7058,0.674927,-0.00883908,0.00568148,0.00826849,0.00942481,-0.0125824,1.14568,0.0127494,0.0450728,650,736,-12.7058,-0.674899
-567,288,-12.7786,0.244934,-0.00717825,0.00458108,0.00590029,0.00703111,-0.00962828,1.17722,0.00965719,0.0315172,657,736,-12.7786,-0.244963
-560,288,-12.9965,-0.165588,-0.00557939,0.00356424,0.00413807,0.00515887,-0.00717402,1.20298,0.00715201,0.0158412,664,736,-12.9965,0.165586
-553,288,-13.0145,-0.503357,-0.00420554,0.00273275,0.00289096,0.00377942,-0.00525222,1.22343,0.00523748,0.0167754,671,736,-13.0145,0.503332
-546,288,-13.0429,-0.86853,-0.00308097,0.00177915,0.0021814,0.00261462,-0.00391645,1.20503,0.0037956,0.0185522,678,736,-13.0429,0.868535
-539,288,-13.0388,-1.26538,-0.00224551,0.000870718,0.00178264,0.0016802,-0.003055,1.14454,0.00277201,0.0171268,685,736,-13.0388,1.26537
-532,288,-13.016,-1.6557,-0.00144443,-0.000377779,0.00167032,0.00084229,-0.0026645,0.93993,0.00211379,0.01394,692,736,-13.016,1.65568
-525,288,-13.0281,-2.05005,-0.000493637,-0.00125975,0.00168315,0.0008495,-0.00260288,0.673513,0.00207716,0.0122404,699,736,-13.0281,2.05007
-518,288,-13.0499,-2.4201,0.000525142,-0.00213601,0.00126564,0.00103094,-0.00264181,0.380197,0.0021874,0.0112831,706,736,-13.0499,2.42013
-511,288,-13.0327,-2.79816,0.00142484,-0.00294809,0.000865657,0.00158997,-0.00311322,0.18849,0.00276245,0.00836491,713,736,-13.0327,2.79815
-504,288,-13.0474,-3.18958,0.00241132,-0.00348956,0.00020359,0.00241834,-0.00349657,0.034447,0.00343384,0.0103935,720,736,-13.0475,3.18957
-497,288,-13.0476,-3.45435,0.00364533,-0.00389479,-0.000946407,0.00376231,-0.00401177,-0.122975,0.00448913,0.0286962,727,736,-13.0476,3.45433
-490,288,-12.9561,-3.68005,0,0,0,0,0,0,0,-1,734,736,-12.956,3.68004
-483,288,-17.1349,-0.278137,0,0,0,0,0,0,0,-1,741,736,-17.1349,0.278154
-476,288,-23.5206,-2.05359,0,0,0,0,0,0,0,-1,748,736,-23.5207,2.05357
-469,288,-24.2526,-1.79944,0,0,0,0,0,0,0,-1,755,736,-24.2526,1.79941
-462,288,-22.5938,-1.47705,0,0,0,0,0,0,0,-1,762,736,-22.5937,1.47706
-455,288,-22.1108,0.123596,0,0,0,0,0,0,0,-1,769,736,-22.1108,-0.123624
-448,288,-22.1017,0.155273,0,0,0,0,0,0,0,-1,776,736,-22.1017,-0.155287
-441,288,-22.4634,0.303162,0,0,0,0,0,0,0,-1,783,736,-22.4635,-0.303158
-434,288,-22.8825,0.392578,0,0,0,0,0,0,0,-1,790,736,-22.8825,-0.392573
-427,288,0,0,0,0,0,0,0,0,0,-1,797,736,0,0
-420,288,0,0,0,0,0,0,0,0,0,-1,804,736,0,0
-413,288,0,0,0,0,0,0,0,0,0,-1,811,736,0,0
-406,288,0,0,0,0,0,0,0,0,0,-1,818,736,0,0
-399,288,0,0,0,0,0,0,0,0,0,-1,825,736,0,0
-392,288,0,0,0,0,0,0,0,0,0,-1,832,736,0,0
-385,288,0,0,0,0,0,0,0,0,0,-1,839,736,0,0
-378,288,0,0,0,0,0,0,0,0,0,-1,846,736,0,0
-371,288,0,0,0,0,0,0,0,0,0,-1,853,736,0,0
-364,288,0,0,0,0,0,0,0,0,0,-1,860,736,0,0
-357,288,0,0,0,0,0,0,0,0,0,-1,867,736,0,0
-350,288,0,0,0,0,0,0,0,0,0,-1,874,736,0,0
-343,288,0,0,0,0,0,0,0,0,0,-1,881,736,0,0
-336,288,0,0,0,0,0,0,0,0,0,-1,888,736,0,0
-329,288,0,0,0,0,0,0,0,0,0,-1,895,736,0,0
-322,288,0,0,0,0,0,0,0,0,0,-1,902,736,0,0
-315,288,0,0,0,0,0,0,0,0,0,-1,909,736,0,0
-308,288,0,0,0,0,0,0,0,0,0,-1,916,736,0,0
-301,288,0,0,0,0,0,0,0,0,0,-1,923,736,0,0
-294,288,0,0,0,0,0,0,0,0,0,-1,930,736,0,0
-287,288,0,0,0,0,0,0,0,0,0,-1,937,736,0,0
-280,288,0,0,0,0,0,0,0,0,0,-1,944,736,0,0
-273,288,0,0,0,0,0,0,0,0,0,-1,951,736,0,0
-266,288,0,0,0,0,0,0,0,0,0,-1,958,736,0,0
-259,288,0,0,0,0,0,0,0,0,0,-1,965,736,0,0
-252,288,0,0,0,0,0,0,0,0,0,-1,972,736,0,0
-245,288,0,0,0,0,0,0,0,0,0,-1,979,736,0,0
-238,288,0,0,0,0,0,0,0,0,0,-1,986,736,0,0
-231,288,0,0,0,0,0,0,0,0,0,-1,993,736,0,0
-224,288,0,0,0,0,0,0,0,0,0,-1,1000,736,0,0
-217,288,0,0,0,0,0,0,0,0,0,-1,1007,736,0,0
-210,288,0,0,0,0,0,0,0,0,0,-1,1014,736,0,0
-203,288,0,0,0,0,0,0,0,0,0,-1,1021,736,0,0
-196,288,0,0,0,0,0,0,0,0,0,-1,1028,736,0,0
-189,288,0,0,0,0,0,0,0,0,0,-1,1035,736,0,0
-182,288,0,0,0,0,0,0,0,0,0,-1,1042,736,0,0
-175,288,0,0,0,0,0,0,0,0,0,-1,1049,736,0,0
-168,288,0,0,0,0,0,0,0,0,0,-1,1056,736,0,0
-161,288,0,0,0,0,0,0,0,0,0,-1,1063,736,0,0
-154,288,0,0,0,0,0,0,0,0,0,-1,1070,736,0,0
-147,288,0,0,0,0,0,0,0,0,0,-1,1077,736,0,0
-140,288,0,0,0,0,0,0,0,0,0,-1,1084,736,0,0
-133,288,0,0,0,0,0,0,0,0,0,-1,1091,736,0,0
-126,288,0,0,0,0,0,0,0,0,0,-1,1098,736,0,0
-119,288,0,0,0,0,0,0,0,0,0,-1,1105,736,0,0
-112,288,0,0,0,0,0,0,0,0,0,-1,1112,736,0,0
-105,288,0,0,0,0,0,0,0,0,0,-1,1119,736,0,0
-98,288,0,0,0,0,0,0,0,0,0,-1,1126,736,0,0
-91,288,0,0,0,0,0,0,0,0,0,-1,1133,736,0,0
-84,288,0,0,0,0,0,0,0,0,0,-1,1140,736,0,0
-77,288,0,0,0,0,0,0,0,0,0,-1,1147,736,0,0
-70,288,0,0,0,0,0,0,0,0,0,-1,1154,736,0,0
-63,288,0,0,0,0,0,0,0,0,0,-1,1161,736,0,0
-56,288,0,0,0,0,0,0,0,0,0,-1,1168,736,0,0
-49,288,0,0,0,0,0,0,0,0,0,-1,1175,736,0,0
-42,288,0,0,0,0,0,0,0,0,0,-1,1182,736,0,0
-35,288,0,0,0,0,0,0,0,0,0,-1,1189,736,0,0
-28,288,0,0,0,0,0,0,0,0,0,-1,1196,736,0,0
-21,288,0,0,0,0,0,0,0,0,0,-1,1203,736,0,0
-14,288,0,0,0,0,0,0,0,0,0,-1,1210,736,0,0
-7,288,0,0,0,0,0,0,0,0,0,-1,1217,736,0,0
0,288,0,0,0,0,0,0,0,0,0,-1,1224,736,0,0
7,288,0,0,0,0,0,0,0,0,0,-1,1231,736,0,0
14,288,0,0,0,0,0,0,0,0,0,-1,1238,736,0,0
21,288,0,0,0,0,0,0,0,0,0,-1,1245,736,0,0
28,288,0,0,0,0,0,0,0,0,0,-1,1252,736,0,0
35,288,0,0,0,0,0,0,0,0,0,-1,1259,736,0,0
42,288,0,0,0,0,0,0,0,0,0,-1,1266,736,0,0
49,288,0,0,0,0,0,0,0,0,0,-1,1273,736,0,0
56,288,0,0,0,0,0,0,0,0,0,-1,1280,736,0,0
63,288,0,0,0,0,0,0,0,0,0,-1,1287,736,0,0
70,288,0,0,0,0,0,0,0,0,0,-1,1294,736,0,0
77,288,0,0,0,0,0,0,0,0,0,-1,1301,736,0,0
84,288,0,0,0,0,0,0,0,0,0,-1,1308,736,0,0
91,288,0,0,0,0,0,0,0,0,0,-1,1315,736,0,0
98,288,0,0,0,0,0,0,0,0,0,-1,1322,736,0,0
105,288,0,0,0,0,0,0,0,0,0,-1,1329,736,0,0
112,288,0,0,0,0,0,0,0,0,0,-1,1336,736,0,0
119,288,0,0,0,0,0,0,0,0,0,-1,1343,736,0,0
126,288,0,0,0,0,0,0,0,0,0,-1,1350,736,0,0
133,288,0,0,0,0,0,0,0,0,0,-1,1357,736,0,0
140,288,0,0,0,0,0,0,0,0,0,-1,1364,736,0,0
147,288,0,0,0,0,0,0,0,0,0,-1,1371,736,0,0
154,288,0,0,0,0,0,0,0,0,0,-1,1378,736,0,0
161,288,0,0,0,0,0,0,0,0,0,-1,1385,736,0,0
168,288,0,0,0,0,0,0,0,0,0,-1,1392,736,0,0
175,288,0,0,0,0,0,0,0,0,0,-1,1399,736,0,0
182,288,0,0,0,0,0,0,0,0,0,-1,1406,736,0,0
189,288,0,0,0,0,0,0,0,0,0,-1,1413,736,0,0
196,288,0,0,0,0,0,0,0,0,0,-1,1420,736,0,0
203,288,0,0,0,0,0,0,0,0,0,-1,1427,736,0,0
210,288,0,0,0,0,0,0,0,0,0,-1,1434,736,0,0
217,288,0,0,0,0,0,0,0,0,0,-1,1441,736,0,0
224,288,0,0,0,0,0,0,0,0,0,-1,1448,736,0,0
231,288,0,0,0,0,0,0,0,0,0,-1,1455,736,0,0
238,288,0,0,0,0,0,0,0,0,0,-1,1462,736,0,0
245,288,0,0,0,0,0,0,0,0,0,-1,1469,736,0,0
252,288,0,0,0,0,0,0,0,0,0,-1,1476,736,0,0
259,288,0,0,0,0,0,0,0,0,0,-1,1483,736,0,0
266,288,0,0,0,0,0,0,0,0,0,-1,1490,736,0,0
273,288,0,0,0,0,0,0,0,0,0,-1,1497,736,0,0
280,288,0,0,0,0,0,0,0,0,0,-1,1504,736,0,0
287,288,0,0,0,0,0,0,0,0,0,-1,1511,736,0,0
294,288,0,0,0,0,0,0,0,0,0,-1,1518,736,0,0
301,288,0,0,0,0,0,0,0,0,0,-1,1525,736,0,0
308,288,0,0,0,0,0,0,0,0,0,-1,1532,736,0,0
315,288,0,0,0,0,0,0,0,0,0,-1,1539,736,0,0
322,288,0,0,0,0,0,0,0,0,0,-1,1546,736,0,0
329,288,0,0,0,0,0,0,0,0,0,-1,1553,736,0,0
336,288,0,0,0,0,0,0,0,0,0,-1,1560,736,0,0
343,288,0,0,0,0,0,0,0,0,0,-1,1567,736,0,0
350,288,0,0,0,0,0,0,0,0,0,-1,1574,736,0,0
357,288,0,0,0,0,0,0,0,0,0,-1,1581,736,0,0
364,288,0,0,0,0,0,0,0,0,0,-1,1588,736,0,0
371,288,0,0,0,0,0,0,0,0,0,-1,1595,736,0,0
378,288,0,0,0,0,0,0,0,0,0,-1,1602,736,0,0
385,288,0,0,0,0,0,0,0,0,0,-1,1609,736,0,0
392,288,0,0,0,0,0,0,0,0,0,-1,1616,736,0,0
399,288,0,0,0,0,0,0,0,0,0,-1,1623,736,0,0
406,288,0,0,0,0,0,0,0,0,0,-1,1630,736,0,0
413,288,0,0,0,0,0,0,0,0,0,-1,1637,736,0,0
420,288,0,0,0,0,0,0,0,0,0,-1,1644,736,0,0
427,288,0,0,0,0,0,0,0,0,0,-1,1651,736,0,0
434,288,0,0,0,0,0,0,0,0,0,-1,1658,736,0,0
441,288,0,0,0,0,0,0,0,0,0,-1,1665,736,0,0
448,288,0,0,0,0,0,0,0,0,0,-1,1672,736,0,0
455,288,0,0,0,0,0,0,0,0,0,-1,1679,736,0,0
462,288,0,0,0,0,0,0,0,0,0,-1,1686,736,0,0
469,288,0,0,0,0,0,0,0,0,0,-1,1693,736,0,0
476,288,0,0,0,0,0,0,0,0,0,-1,1700,736,0,0
483,288,0,0,0,0,0,0,0,0,0,-1,1707,736,0,0
490,288,0,0,0,0,0,0,0,0,0,-1,1714,736,0,0
497,288,0,0,0,0,0,0,0,0,0,-1,1721,736,0,0
504,288,0,0,0,0,0,0,0,0,0,-1,1728,736,0,0
511,288,0,0,0,0,0,0,0,0,0,-1,1735,736,0,0
518,288,0,0,0,0,0,0,0,0,0,-1,1742,736,0,0
525,288,0,0,0,0,0,0,0,0,0,-1,1749,736,0,0
532,288,0,0,0,0,0,0,0,0,0,-1,1756,736,0,0
539,288,0,0,0,0,0,0,0,0,0,-1,1763,736,0,0
546,288,0,0,0,0,0,0,0,0,0,-1,1770,736,0,0
553,288,31.5872,2.42285,0,0,0,0,0,0,0,-1,1777,736,31.5872,-2.42286
560,288,30.7548,2.93329,0,0,0,0,0,0,0,-1,1784,736,30.7547,-2.93326
567,288,32.0426,3.28711,0,0,0,0,0,0,0,-1,1791,736,32.0427,-3.28708
574,288,33.0079,3.82813,0,0,0,0,0,0,0,-1,1798,736,33.0079,-3.8281
581,288,32.9711,3.78625,0,0,0,0,0,0,0,-1,1805,736,32.9711,-3.78626
588,288,34.1703,3.7843,0,0,0,0,0,0,0,-1,1812,736,34.1702,-3.78428
595,288,27.4215,6.6875,0,0,0,0,0,0,0,-1,1819,736,27.4215,-6.68751
602,288,26.7634,7.61279,0,0,0,0,0,0,0,-1,1826,736,26.7635,-7.61279
609,288,17.5223,4.86414,0,0,0,0,0,0,0,-1,1833,736,17.5223,-4.86412
616,288,13.4886,0.801331,0,0,0,0,0,0,0,-1,1840,736,13.4886,-0.80132
623,288,21.2642,-1.73822,0,0,0,0,0,0,0,-1,1847,736,21.2642,1.73822
630,288,21.2485,-1.29303,-0.000425502,0.00261512,-0.00578781,0.00707896,-0.00488934,-0.913834,0.00694834,0.0238444,1854,736,21.2485,1.29303
637,288,21.2723,-0.898621,-0.00043644,0.000663894,-0.00506397,0.00520749,-0.00498004,-0.839508,0.00588226,0.0110906,1861,736,21.2723,0.898609
644,288,21.2684,-0.486145,-0.000847618,-0.000432507,-0.00374994,0.00311561,-0.00439574,-0.813045,0.00435762,0.00992866,1868,736,21.2685,0.486148
651,288,21.2612,-0.0830688,-0.000939665,-0.000529925,-0.00253643,0.00180989,-0.00327948,-0.825696,0.0029789,0.0105651,1875,736,21.2612,0.083058
658,288,21.2466,0.3526,-0.00100194,-0.000470223,-0.00164671,0.000931953,-0.00240412,-0.865432,0.00198761,0.0157314,1882,736,21.2465,-0.352607
665,288,21.2506,0.750854,-0.00118366,-0.000122491,-0.000957879,0.000441938,-0.00174809,-1.03832,0.00133727,0.0171183,1889,736,21.2507,-0.750865
672,288,21.2306,1.14545,-0.00143067,0.000658991,-0.00049666,0.000771028,-0.00154271,-1.34893,0.00136038,0.0160866,1896,736,21.2306,-1.14545
679,288,21.2241,1.58545,-0.00159883,0.00158428,-0.000215599,0.00159882,-0.00161337,-1.50347,0.00185456,0.0135901,1903,736,21.2241,-1.58544
686,288,21.2092,1.94861,-0.00175236,0.00246152,-2.82338e-05,0.00246171,-0.00175255,-1.5641,0.00244456,0.0102908,1910,736,21.2093,-1.94863
693,288,21.2281,2.37543,-0.00161985,0.00357339,0.000305494,0.0035913,-0.00163776,1.51224,0.00308842,0.0158752,1917,736,21.2282,-2.37543
700,288,21.1809,2.83411,-0.00108086,0.00507223,0.000973865,0.00522269,-0.00123132,1.41751,0.00395662,0.0323587,1924,736,21.1809,-2.83409
707,288,21.4063,3.03717,0.000233991,0.00711463,0.00226543,0.00779353,-0.000444911,1.27963,0.00535016,0.0474689,1931,736,21.4063,-3.03719
714,288,21.5977,3.2243,0,0,0,0,0,0,0,-1,1938,736,21.5977,-3.22433
721,288,18.0732,3.69385,0,0,0,0,0,0,0,-1,1945,736,18.0732,-3.69387
728,288,19.3208,3.91455,0,0,0,0,0,0,0,-1,1952,736,19.3209,-3.91455
735,288,18.7712,3.51312,0,0,0,0,0,0,0,-1,1959,736,18.7713,-3.51309
742,288,0,0,0,0,0,0,0,0,0,-1,1966,736,0,0
749,288,0,0,0,0,0,0,0,0,0,-1,1973,736,0,0
756,288,0,0,0,0,0,0,0,0,0,-1,1980,736,0,0
763,288,0,0,0,0,0,0,0,0,0,-1,1987,736,0,0
770,288,0,0,0,0,0,0,0,0,0,-1,1994,736,0,0
777,288,0,0,0,0,0,0,0,0,0,-1,2001,736,0,0
784,288,0,0,0,0,0,0,0,0,0,-1,2008,736,0,0
791,288,0,0,0,0,0,0,0,0,0,-1,2015,736,0,0
798,288,0,0,0,0,0,0,0,0,0,-1,2022,736,0,0
805,288,0,0,0,0,0,0,0,0,0,-1,2029,736,0,0
812,288,0,0,0,0,0,0,0,0,0,-1,2036,736,0,0
-700,281,0,0,0,0,0,0,0,0,0,-1,524,743,0,0
-693,281,0,0,0,0,0,0,0,0,0,-1,531,743,0,0
-686,281,0,0,0,0,0,0,0,0,0,-1,538,743,0,0
-679,281,0,0,0,0,0,0,0,0,0,-1,545,743,0,0
-672,281,0,0,0,0,0,0,0,0,0,-1,552,743,0,0
-665,281,0,0,0,0,0,0,0,0,0,-1,559,743,0,0
-658,281,0,0,0,0,0,0,0,0,0,-1,566,743,0,0
-651,281,0,0,0,0,0,0,0,0,0,-1,573,743,0,0
-644,281,0,0,0,0,0,0,0,0,0,-1,580,743,0,0
-637,281,0,0,0,0,0,0,0,0,0,-1,587,743,0,0
-630,281,0,0,0,0,0,0,0,0,0,-1,594,743,0,0
-623,281,-13.984,-1.39282,0,0,0,0,0,0,0,-1,601,743,-13.984,1.39285
-616,281,-11.5906,2.6853,0,0,0,0,0,0,0,-1,608,743,-11.5906,-2.68529
-609,281,-11.3053,-0.648315,0,0,0,0,0,0,0,-1,615,743,-11.3053,0.648336
-602,281,-12.5295,1.84766,0,0,0,0,0,0,0,-1,622,743,-12.5296,-1.84767
-595,281,-10.4797,-1.07404,0,0,0,0,0,0,0,-1,629,743,-10.4798,1.07402
-588,281,-13.277,1.49817,0,0,0,0,0,0,0,-1,636,743,-13.2771,-1.49817
-581,281,-13.3091,0.950989,0,0,0,0,0,0,0,-1,643,743,-13.3091,-0.950975
-574,281,-13.2363,0.621399,-0.00589168,0.00435679,0.0072931,0.00814587,-0.00968076,1.09164,0.0103049,0.0317155,650,743,-13.2364,-0.621398
-567,281,-13.3539,0.262695,-0.00522825,0.00338424,0.00546174,0.00603316,-0.00787717,1.11922,0.00805462,0.0164508,657,743,-13.3539,-0.262684
-560,281,-13.3983,-0.136902,-0.00436757,0.0024683,0.00407628,0.00436998,-0.00626925,1.13429,0.0061751,0.0085766,664,743,-13.3983,0.136882
-553,281,-13.3914,-0.510986,-0.00352542,0.00166785,0.0031101,0.00312279,-0.00498036,1.13323,0.00471916,0.0132041,671,743,-13.3914,0.511002
-546,281,-13.3882,-0.876404,-0.00274681,0.00076748,0.00255897,0.0021145,-0.00409384,1.08626,0.0036446,0.0147669,678,743,-13.3883,0.876411
-539,281,-13.4003,-1.26837,-0.00226142,-6.1112e-05,0.00227777,0.00136827,-0.00369081,1.01037,0.00302172,0.0131894,685,743,-13.4002,1.26839
-532,281,-13.4033,-1.63556,-0.00168827,-0.00124623,0.00223129,0.000774964,-0.00370946,0.834765,0.0027677,0.0127023,692,743,-13.4033,1.63555
-525,281,-13.4459,-2.02686,-0.000844491,-0.00198943,0.00224369,0.000898613,-0.00373254,0.66049,0.00283576,0.0147133,699,743,-13.4459,2.02686
-518,281,-13.4531,-2.41522,9.44922e-05,-0.00275492,0.00176113,0.000935038,-0.00359547,0.445304,0.00276193,0.0124861,706,743,-13.453,2.41524
-511,281,-13.4335,-2.80762,0.000960923,-0.00340768,0.00125012,0.00129336,-0.00374012,0.259908,0.00301835,0.0107868,713,743,-13.4335,2.80761
-504,281,-13.4577,-3.20715,0.00199386,-0.00376178,0.000465039,0.0020312,-0.00379911,0.0801046,0.00341733,0.0137197,720,743,-13.4577,3.20717
-497,281,-13.3429,-3.60724,0.00333066,-0.00400791,-0.000827557,0.00342283,-0.00410008,-0.110912,0.00434921,0.0426108,727,743,-13.3429,3.60725
-490,281,-13.1703,-3.92407,0,0,0,0,0,0,0,-1,734,743,-13.1703,3.92407
-483,281,-18.3956,0.210754,0,0,0,0,0,0,0,-1,741,743,-18.3956,-0.210773
-476,281,-23.7397,-0.931335,0,0,0,0,0,0,0,-1,748,743,-23.7398,0.931329
-469,281,-23.1513,0.790588,0,0,0,0,0,0,0,-1,755,743,-23.1513,-0.790611
-462,281,-23.1581,-1.1283,0,0,0,0,0,0,0,-1,762,743,-23.1582,1.12832
-455,281,-23.4791,-2.76215,0,0,0,0,0,0,0,-1,769,743,-23.4791,2.76215
-448,281,-22.0169,1.40869,0,0,0,0,0,0,0,-1,776,743,-22.0169,-1.40871
-441,281,-22.527,1.0976,0,0,0,0,0,0,0,-1,783,743,-22.527,-1.09757
-434,281,0,0,0,0,0,0,0,0,0,-1,790,743,0,0
-427,281,0,0,0,0,0,0,0,0,0,-1,797,743,0,0
-420,281,0,0,0,0,0,0,0,0,0,-1,804,743,0,0
-413,281,0,0,0,0,0,0,0,0,0,-1,811,743,0,0
-406,281,0,0,0,0,0,0,0,0,0,-1,818,743,0,0
-399,281,0,0,0,0,0,0,0,0,0,-1,825,743,0,0
-392,281,0,0,0,0,0,0,0,0,0,-1,832,743,0,0
-385,281,0,0,0,0,0,0,0,0,0,-1,839,743,0,0
-378,281,0,0,0,0,0,0,0,0,0,-1,846,743,0,0
-371,281,0,0,0,0,0,0,0,0,0,-1,853,743,0,0
-364,281,0,0,0,0,0,0,0,0,0,-1,860,743,0,0
-357,281,0,0,0,0,0,0,0,0,0,-1,867,743,0,0
-350,281,0,0,0,0,0,0,0,0,0,-1,874,743,0,0
-343,281,0,0,0,0,0,0,0,0,0,-1,881,743,0,0
-336,281,0,0,0,0,0,0,0,0,0,-1,888,743,0,0
-329,281,0,0,0,0,0,0,0,0,0,-1,895,743,0,0
-322,281,0,0,0,0,0,0,0,0,0,-1,902,743,0,0
-315,281,0,0,0,0,0,0,0,0,0,-1,909,743,0,0
-308,281,0,0,0,0,0,0,0,0,0,-1,916,743,0,0
-301,281,0,0,0,0,0,0,0,0,0,-1,923,743,0,0
-294,281,0,0,0,0,0,0,0,0,0,-1,930,743,0,0
-287,281,0,0,0,0,0,0,0,0,0,-1,937,743,0,0
-280,281,0,0,0,0,0,0,0,0,0,-1,944,743,0,0
-273,281,0,0,0,0,0,0,0,0,0,-1,951,743,0,0
-266,281,0,0,0,0,0,0,0,0,0,-1,958,743,0,0
-259,281,0,0,0,0,0,0,0,0,0,-1,965,743,0,0
-252,281,0,0,0,0,0,0,0,0,0,-1,972,743,0,0
-245,281,0,0,0,0,0,0,0,0,0,-1,979,743,0,0
-238,281,0,0,0,0,0,0,0,0,0,-1,986,743,0,0
-231,281,0,0,0,0,0,0,0,0,0,-1,993,743,0,0
-224,281,0,0,0,0,0,0,0,0,0,-1,1000,743,0,0
-217,281,0,0,0,0,0,0,0,0,0,-1,1007,743,0,0
-210,281,0,0,0,0,0,0,0,0,0,-1,1014,743,0,0
-203,281,0,0,0,0,0,0,0,0,0,-1,1021,743,0,0
-196,281,0,0,0,0,0,0,0,0,0,-1,1028,743,0,0
-189,281,0,0,0,0,0,0,0,0,0,-1,1035,743,0,0
-182,281,0,0,0,0,0,0,0,0,0,-1,1042,743,0,0
-175,281,0,0,0,0,0,0,0,0,0,-1,1049,743,0,0
-168,281,0,0,0,0,0,0,0,0,0,-1,1056,743,0,0
-161,281,0,0,0,0,0,0,0,0,0,-1,1063,743,0,0
-154,281,0,0,0,0,0,0,0,0,0,-1,1070,743,0,0
-147,281,0,0,0,0,0,0,0,0,0,-1,1077,743,0,0
-140,281,0,0,0,0,0,0,0,0,0,-1,1084,743,0,0
-133,281,0,0,0,0,0,0,0,0,0,-1,1091,743,0,0
-126,281,0,0,0,0,0,0,0,0,0,-1,1098,743,0,0
-119,281,0,0,0,0,0,0,0,0,0,-1,1105,743,0,0
-112,281,0,0,0,0,0,0,0,0,0,-1,1112,743,0,0
-105,281,0,0,0,0,0,0,0,0,0,-1,1119,743,0,0
-98,281,0,0,0,0,0,0,0,0,0,-1,1126,743,0,0
-91,281,0,0,0,0,0,0,0,0,0,-1,1133,743,0,0
-84,281,0,0,0,0,0,0,0,0,0,-1,1140,743,0,0
-77,281,0,0,0,0,0,0,0,0,0,-1,1147,743,0,0
-70,281,0,0,0,0,0,0,0,0,0,-1,1154,743,0,0
-63,281,0,0,0,0,0,0,0,0,0,-1,1161,743,0,0
-56,281,0,0,0,0,0,0,0,0,0,-1,1168,743,0,0
-49,281,0,0,0,0,0,0,0,0,0,-1,1175,743,0,0
-42,281,0,0,0,0,0,0,0,0,0,-1,1182,743,0,0
-35,281,0,0,0,0,0,0,0,0,0,-1,1189,743,0,0
-28,281,0,0,0,0,0,0,0,0,0,-1,1196,743,0,0
-21,281,0,0,0,0,0,0,0,0,0,-1,1203,743,0,0
-14,281,0,0,0,0,0,0,0,0,0,-1,1210,743,0,0
-7,281,0,0,0,0,0,0,0,0,0,-1,1217,743,0,0
0,281,0,0,0,0,0,0,0,0,0,-1,1224,743,0,0
7,281,0,0,0,0,0,0,0,0,0,-1,1231,743,0,0
14,281,0,0,0,0,0,0,0,0,0,-1,1238,743,0,0
21,281,0,0,0,0,0,0,0,0,0,-1,1245,743,0,0
28,281,0,0,0,0,0,0,0,0,0,-1,1252,743,0,0
35,281,0,0,0,0,0,0,0,0,0,-1,1259,743,0,0
42,281,0,0,0,0,0,0,0,0,0,-1,1266,743,0,0
49,281,0,0,0,0,0,0,0,0,0,-1,1273,743,0,0
56,281,0,0,0,0,0,0,0,0,0,-1,1280,743,0,0
63,281,0,0,0,0,0,0,0,0,0,-1,1287,743,0,0
70,281,0,0,0,0,0,0,0,0,0,-1,1294,743,0,0
77,281,0,0,0,0,0,0,0,0,0,-1,1301,743,0,0
84,281,0,0,0,0,0,0,0,0,0,-1,1308,743,0,0
91,281,0,0,0,0,0,0,0,0,0,-1,1315,743,0,0
98,281,0,0,0,0,0,0,0,0,0,-1,1322,743,0,0
105,281,0,0,0,0,0,0,0,0,0,-1,1329,743,0,0
112,281,0,0,0,0,0,0,0,0,0,-1,1336,743,0,0
119,281,0,0,0,0,0,0,0,0,0,-1,1343,743,0,0
126,281,0,0,0,0,0,0,0,0,0,-1,1350,743,0,0
133,281,0,0,0,0,0,0,0,0,0,-1,1357,743,0,0
140,281,0,0,0,0,0,0,0,0,0,-1,1364,743,0,0
147,281,0,0,0,0,0,0,0,0,0,-1,1371,743,0,0
154,281,0,0,0,0,0,0,0,0,0,-1,1378,743,0,0
161,281,0,0,0,0,0,0,0,0,0,-1,1385,743,0,0
168,281,0,0,0,0,0,0,0,0,0,-1,1392,743,0,0
175,281,0,0,0,0,0,0,0,0,0,-1,1399,743,0,0
182,281,0,0,0,0,0,0,0,0,0,-1,1406,743,0,0
189,281,0,0,0,0,0,0,0,0,0,-1,1413,743,0,0
196,281,0,0,0,0,0,0,0,0,0,-1,1420,743,0,0
203,281,0,0,0,0,0,0,0,0,0,-1,1427,743,0,0
210,281,0,0,0,0,0,0,0,0,0,-1,1434,743,0,0
217,281,0,0,0,0,0,0,0,0,0,-1,1441,743,0,0
224,281,0,0,0,0,0,0,0,0,0,-1,1448,743,0,0
231,281,0,0,0,0,0,0,0,0,0,-1,1455,743,0,0
238,281,0,0,0,0,0,0,0,0,0,-1,1462,743,0,0
245,281,0,0,0,0,0,0,0,0,0,-1,1469,743,0,0
252,281,0,0,0,0,0,0,0,0,0,-1,1476,743,0,0
259,281,0,0,0,0,0,0,0,0,0,-1,1483,743,0,0
266,281,0,0,0,0,0,0,0,0,0,-1,1490,743,0,0
273,281,0,0,0,0,0,0,0,0,0,-1,1497,743,0,0
280,281,0,0,0,0,0,0,0,0,0,-1,1504,743,0,0
287,281,0,0,0,0,0,0,0,0,0,-1,1511,743,0,0
294,281,0,0,0,0,0,0,0,0,0,-1,1518,743,0,0
301,281,0,0,0,0,0,0,0,0,0,-1,1525,743,0,0
308,281,0,0,0,0,0,0,0,0,0,-1,1532,743,0,0
315,281,0,0,0,0,0,0,0,0,0,-1,1539,743,0,0
322,281,0,0,0,0,0,0,0,0,0,-1,1546,743,0,0
329,281,0,0,0,0,0,0,0,0,0,-1,1553,743,0,0
336,281,0,0,0,0,0,0,0,0,0,-1,1560,743,0,0
343,281,0,0,0,0,0,0,0,0,0,-1,1567,743,0,0
350,281,0,0,0,0,0,0,0,0,0,-1,1574,743,0,0
357,281,0,0,0,0,0,0,0,0,0,-1,1581,743,0,0
364,281,0,0,0,0,0,0,0,0,0,-1,1588,743,0,0
371,281,0,0,0,0,0,0,0,0,0,-1,1595,743,0,0
378,281,0,0,0,0,0,0,0,0,0,-1,1602,743,0,0
385,281,0,0,0,0,0,0,0,0,0,-1,1609,743,0,0
392,281,0,0,0,0,0,0,0,0,0,-1,1616,743,0,0
399,281,0,0,0,0,0,0,0,0,0,-1,1623,743,0,0
406,281,0,0,0,0,0,0,0,0,0,-1,1630,743,0,0
413,281,0,0,0,0,0,0,0,0,0,-1,1637,743,0,0
420,281,0,0,0,0,0,0,0,0,0,-1,1644,743,0,0
427,281,0,0,0,0,0,0,0,0,0,-1,1651,743,0,0
434,281,0,0,0,0,0,0,0,0,0,-1,1658,743,0,0
441,281,0,0,0,0,0,0,0,0,0,-1,1665,743,0,0
448,281,0,0,0,0,0,0,0,0,0,-1,1672,743,0,0
455,281,0,0,0,0,0,0,0,0,0,-1,1679,743,0,0
462,281,0,0,0,0,0,0,0,0,0,-1,1686,743,0,0
469,281,0,0,0,0,0,0,0,0,0,-1,1693,743,0,0
476,281,0,0,0,0,0,0,0,0,0,-1,1700,743,0,0
483,281,0,0,0,0,0,0,0,0,0,-1,1707,743,0,0
490,281,0,0,0,0,0,0,0,0,0,-1,1714,743,0,0
497,281,0,0,0,0,0,0,0,0,0,-1,1721,743,0,0
504,281,0,0,0,0,0,0,0,0,0,-1,1728,743,0,0
511,281,0,0,0,0,0,0,0,0,0,-1,1735,743,0,0
518,281,0,0,0,0,0,0,0,0,0,-1,1742,743,0,0
525,281,0,0,0,0,0,0,0,0,0,-1,1749,743,0,0
532,281,0,0,0,0,0,0,0,0,0,-1,1756,743,0,0
539,281,0,0,0,0,0,0,0,0,0,-1,1763,743,0,0
546,281,0,0,0,0,0,0,0,0,0,-1,1770,743,0,0
553,281,0,0,0,0,0,0,0,0,0,-1,1777,743,0,0
560,281,33.7756,3.30078,0,0,0,0,0,0,0,-1,1784,743,33.7756,-3.30081
567,281,33.446,3.61365,0,0,0,0,0,0,0,-1,1791,743,33.4461,-3.61367
574,281,33.3246,3.62592,0.00253157,0.029394,-0.00625508,0.0307791,0.00114646,-1.35287,0.0201481,0.0494046,1798,743,33.3246,-3.62594
581,281,33.314,3.61987,0.00308923,0.0264426,-0.00601469,0.0279007,0.00163117,-1.33297,0.0180813,0.0482449,1805,743,33.3139,-3.6199
588,281,33.2914,3.70044,0,0,0,0,0,0,0,-1,1812,743,33.2914,-3.70042
595,281,33.8401,3.78223,0,0,0,0,0,0,0,-1,1819,743,33.8401,-3.78224
602,281,30.1091,6.0744,0,0,0,0,0,0,0,-1,1826,743,30.1091,-6.07442
609,281,32.7925,1.28723,0,0,0,0,0,0,0,-1,1833,743,32.7925,-1.28722
616,281,21.3191,-0.253906,0,0,0,0,0,0,0,-1,1840,743,21.3191,0.253931
623,281,21.192,-1.53882,0,0,0,0,0,0,0,-1,1847,743,21.1921,1.53879
630,281,21.8176,-1.42389,0,0,0,0,0,0,0,-1,1854,743,21.8177,1.42391
637,281,21.6495,-0.900879,-0.00109593,0.000831997,-0.00565692,0.0056065,-0.00587043,-0.86979,0.00662679,0.0141705,1861,743,21.6495,0.900886
644,281,21.6709,-0.480957,-0.00150624,-0.000474817,-0.00435594,0.00339583,-0.00537689,-0.84432,0.0051078,0.0102336,1868,743,21.6709,0.480971
651,281,21.6793,-0.0720215,-0.00133858,-0.000713486,-0.00303656,0.00202657,-0.00407863,-0.836681,0.0035906,0.0102595,1875,743,21.6794,0.0719954
658,281,21.6609,0.341003,-0.00110082,-0.000792547,-0.00201385,0.00107306,-0.00296642,-0.823592,0.00241608,0.0188228,1882,743,21.6609,-0.341013
665,281,21.6594,0.724426,-0.000984972,-0.000517079,-0.00112838,0.000401353,-0.0019034,-0.887615,0.00142173,0.020468,1889,743,21.6594,-0.724426
672,281,21.6459,1.14929,-0.000959572,0.000335649,-0.000511649,0.000513378,-0.0011373,-1.23647,0.000975448,0.012965,1896,743,21.6458,-1.14927
679,281,21.6483,1.56024,-0.000893188,0.00136409,-0.000109821,0.00136942,-0.000898518,-1.5223,0.00131877,0.0194634,1903,743,21.6483,-1.56026
686,281,21.6094,1.94281,-0.000745507,0.00244485,0.000238393,0.00246257,-0.000763222,1.49662,0.00194665,0.0140933,1910,743,21.6094,-1.94282
693,281,21.6061,2.34119,-0.000328477,0.00362267,0.000716521,0.00374859,-0.000454401,1.39683,0.00266348,0.0108379,1917,743,21.6061,-2.34117
700,281,21.5991,2.73743,0.000428171,0.00515409,0.00147628,0.00557734,4.92041e-06,1.29158,0.00371659,0.0226233,1924,743,21.5991,-2.73741
707,281,21.5465,2.99927,0.00191373,0.00719971,0.00282114,0.0084225,0.000690942,1.1618,0.00539944,0.0448584,1931,743,21.5466,-2.99928
714,281,21.4838,3.90015,0,0,0,0,0,0,0,-1,1938,743,21.4838,-3.90012
721,281,16.9656,3.22174,0,0,0,0,0,0,0,-1,1945,743,16.9656,-3.22172
728,281,19.0251,3.63934,0,0,0,0,0,0,0,-1,1952,743,19.0252,-3.63932
735,281,19.0869,2.50311,0,0,0,0,0,0,0,-1,1959,743,19.0869,-2.5031
742,281,0,0,0,0,0,0,0,0,0,-1,1966,743,0,0
749,281,0,0,0,0,0,0,0,0,0,-1,1973,743,0,0
756,281,0,0,0,0,0,0,0,0,0,-1,1980,743,0,0
763,281,0,0,0,0,0,0,0,0,0,-1,1987,743,0,0
770,281,0,0,0,0,0,0,0,0,0,-1,1994,743,0,0
777,281,0,0,0,0,0,0,0,0,0,-1,2001,743,0,0
784,281,0,0,0,0,0,0,0,0,0,-1,2008,743,0,0
791,281,0,0,0,0,0,0,0,0,0,-1,2015,743,0,0
798,281,0,0,0,0,0,0,0,0,0,-1,2022,743,0,0
805,281,0,0,0,0,0,0,0,0,0,-1,2029,743,0,0
812,281,0,0,0,0,0,0,0,0,0,-1,2036,743,0,0
-700,274,0,0,0,0,0,0,0,0,0,-1,524,750,0,0
-693,274,0,0,0,0,0,0,0,0,0,-1,531,750,0,0
-686,274,0,0,0,0,0,0,0,0,0,-1,538,750,0,0
-679,274,0,0,0,0,0,0,0,0,0,-1,545,750,0,0
-672,274,0,0,0,0,0,0,0,0,0,-1,552,750,0,0
-665,274,0,0,0,0,0,0,0,0,0,-1,559,750,0,0
-658,274,0,0,0,0,0,0,0,0,0,-1,566,750,0,0
-651,274,0,0,0,0,0,0,0,0,0,-1,573,750,0,0
-644,274,0,0,0,0,0,0,0,0,0,-1,580,750,0,0
-637,274,0,0,0,0,0,0,0,0,0,-1,587,750,0,0
-630,274,0,0,0,0,0,0,0,0,0,-1,594,750,0,0
-623,274,-16.0456,1.03815,0,0,0,0,0,0,0,-1,601,750,-16.0456,-1.03816
-616,274,-15.4506,-0.464111,0,0,0,0,0,0,0,-1,608,750,-15.4506,0.464138
-609,274,-12.7344,1.59833,0,0,0,0,0,0,0,-1,615,750,-12.7344,-1.5983
-602,274,-30.605,3.93317,0,0,0,0,0,0,0,-1,622,750,-30.605,-3.93317
-595,274,-12.4393,1.54791,0,0,0,0,0,0,0,-1,629,750,-12.4393,-1.54793
-588,274,-13.3416,1.63171,0,0,0,0,0,0,0,-1,636,750,-13.3415,-1.6317
-581,274,-13.4863,1.14148,-0.00214297,0.00445162,0.00782336,0.00964415,-0.0073355,0.984836,0.00983337,0.0397464,643,750,-13.4863,-1.1415
-574,274,-13.6155,0.613464,-0.00303683,0.00327755,0.00605537,0.00694937,-0.00670865,1.0257,0.00788586,0.0217348,650,750,-13.6155,-0.613473
-567,274,-13.763,0.227234,-0.0032149,0.00240764,0.00463946,0.00502112,-0.00582837,1.05779,0.00626973,0.0209217,657,750,-13.763,-0.227238
-560,274,-13.7698,-0.124329,-0.00300876,0.00157273,0.00358089,0.0035329,-0.00496893,1.06995,0.00493182,0.0141418,664,750,-13.7698,0.124308
-553,274,-13.7631,-0.524597,-0.0026605,0.000786599,0.00289297,0.00243053,-0.00430443,1.05405,0.00393828,0.0095209,671,750,-13.763,0.524589
-546,274,-13.7814,-0.901917,-0.00232832,-9.71289e-05,0.00254226,0.00156354,-0.00398899,0.992157,0.00330613,0.0108152,678,750,-13.7814,0.901933
-539,274,-13.8134,-1.2691,-0.00233887,-0.000908082,0.00244724,0.000926186,-0.00417313,0.927599,0.00313673,0.0108276,685,750,-13.8134,1.26909
-532,274,-13.8146,-1.63086,-0.00214827,-0.00206135,0.0025379,0.000433459,-0.00464308,0.793959,0.00324952,0.0117176,692,750,-13.8146,1.63083
-525,274,-13.8098,-2.02118,-0.0015818,-0.00272428,0.00260569,0.000514528,-0.0048206,0.677491,0.00339825,0.0122868,699,750,-13.8098,2.02115
-518,274,-13.8247,-2.41827,-0.000864396,-0.00340167,0.00212419,0.000341155,-0.00460722,0.516206,0.00319128,0.012828,706,750,-13.8247,2.41826
-511,274,-13.8217,-2.82281,-0.000149055,-0.00394176,0.00157508,0.000419754,-0.00451057,0.346556,0.00315628,0.0122082,713,750,-13.8217,2.82281
-504,274,-13.84,-3.23895,0.000868112,-0.00414857,0.000747488,0.00097712,-0.00425758,0.144811,0.00321399,0.0221862,720,750,-13.84,3.23892
-497,274,-13.744,-3.4151,0.00230899,-0.00423841,-0.000596234,0.00236284,-0.00429226,-0.090077,0.00389578,0.0494157,727,750,-13.744,3.41508
-490,274,-13.6545,-3.58826,0,0,0,0,0,0,0,-1,734,750,-13.6546,3.58825
-483,274,-21.9082,-0.51947,0,0,0,0,0,0,0,-1,741,750,-21.9082,0.519461
-476,274,-24.273,1.39331,0,0,0,0,0,0,0,-1,748,750,-24.273,-1.39331
-469,274,-23.6009,0.850647,0.0134295,-0.00177174,-0.0141961,0.0219316,-0.0102739,-0.539615,0.0189956,0.0486882,755,750,-23.6009,-0.85062
-462,274,-23.7605,-0.747375,0,0,0,0,0,0,0,-1,762,750,-23.7605,0.74738
-455,274,-24.0771,-2.31775,0,0,0,0,0,0,0,-1,769,750,-24.0771,2.31778
-448,274,-22.2698,1.42902,0,0,0,0,0,0,0,-1,776,750,-22.2699,-1.42904
-441,274,0,0,0,0,0,0,0,0,0,-1,783,750,0,0
-434,274,0,0,0,0,0,0,0,0,0,-1,790,750,0,0
-427,274,0,0,0,0,0,0,0,0,0,-1,797,750,0,0
-420,274,0,0,0,0,0,0,0,0,0,-1,804,750,0,0
-413,274,0,0,0,0,0,0,0,0,0,-1,811,750,0,0
-406,274,0,0,0,0,0,0,0,0,0,-1,818,750,0,0
-399,274,0,0,0,0,0,0,0,0,0,-1,825,750,0,0
-392,274,0,0,0,0,0,0,0,0,0,-1,832,750,0,0
-385,274,0,0,0,0,0,0,0,0,0,-1,839,750,0,0
-378,274,0,0,0,0,0,0,0,0,0,-1,846,750,0,0
-371,274,0,0,0,0,0,0,0,0,0,-1,853,750,0,0
-364,274,0,0,0,0,0,0,0,0,0,-1,860,750,0,0
-357,274,0,0,0,0,0,0,0,0,0,-1,867,750,0,0
-350,274,0,0,0,0,0,0,0,0,0,-1,874,750,0,0
-343,274,0,0,0,0,0,0,0,0,0,-1,881,750,0,0
-336,274,0,0,0,0,0,0,0,0,0,-1,888,750,0,0
-329,274,0,0,0,0,0,0,0,0,0,-1,895,750,0,0
-322,274,0,0,0,0,0,0,0,0,0,-1,902,750,0,0
-315,274,0,0,0,0,0,0,0,0,0,-1,909,750,0,0
-308,274,0,0,0,0,0,0,0,0,0,-1,916,750,0,0
-301,274,0,0,0,0,0,0,0,0,0,-1,923,750,0,0
-294,274,0,0,0,0,0,0,0,0,0,-1,930,750,0,0
-287,274,0,0,0,0,0,0,0,0,0,-1,937,750,0,0
-280,274,0,0,0,0,0,0,0,0,0,-1,944,750,0,0
-273,274,0,0,0,0,0,0,0,0,0,-1,951,750,0,0
-266,274,0,0,0,0,0,0,0,0,0,-1,958,750,0,0
-259,274,0,0,0,0,0,0,0,0,0,-1,965,750,0,0
-252,274,0,0,0,0,0,0,0,0,0,-1,972,750,0,0
-245,274,0,0,0,0,0,0,0,0,0,-1,979,750,0,0
-238,274,0,0,0,0,0,0,0,0,0,-1,986,750,0,0
-231,274,0,0,0,0,0,0,0,0,0,-1,993,750,0,0
-224,274,0,0,0,0,0,0,0,0,0,-1,1000,750,0,0
-217,274,0,0,0,0,0,0,0,0,0,-1,1007,750,0,0
-210,274,0,0,0,0,0,0,0,0,0,-1,1014,750,0,0
-203,274,0,0,0,0,0,0,0,0,0,-1,1021,750,0,0
-196,274,0,0,0,0,0,0,0,0,0,-1,1028,750,0,0
-189,274,0,0,0,0,0,0,0,0,0,-1,1035,750,0,0
-182,274,0,0,0,0,0,0,0,0,0,-1,1042,750,0,0
-175,274,0,0,0,0,0,0,0,0,0,-1,1049,750,0,0
-168,274,0,0,0,0,0,0,0,0,0,-1,1056,750,0,0
-161,274,0,0,0,0,0,0,0,0,0,-1,1063,750,0,0
-154,274,0,0,0,0,0,0,0,0,0,-1,1070,750,0,0
-147,274,0,0,0,0,0,0,0,0,0,-1,1077,750,0,0
-140,274,0,0,0,0,0,0,0,0,0,-1,1084,750,0,0
-133,274,0,0,0,0,0,0,0,0,0,-1,1091,750,0,0
-126,274,0,0,0,0,0,0,0,0,0,-1,1098,750,0,0
-119,274,0,0,0,0,0,0,0,0,0,-1,1105,750,0,0
-112,274,0,0,0,0,0,0,0,0,0,-1,1112,750,0,0
-105,274,0,0,0,0,0,0,0,0,0,-1,1119,750,0,0
-98,274,0,0,0,0,0,0,0,0,0,-1,1126,750,0,0
-91,274,0,0,0,0,0,0,0,0,0,-1,1133,750,0,0
-84,274,0,0,0,0,0,0,0,0,0,-1,1140,750,0,0
-77,274,0,0,0,0,0,0,0,0,0,-1,1147,750,0,0
-70,274,0,0,0,0,0,0,0,0,0,-1,1154,750,0,0
-63,274,0,0,0,0,0,0,0,0,0,-1,1161,750,0,0
-56,274,0,0,0,0,0,0,0,0,0,-1,1168,750,0,0
-49,274,0,0,0,0,0,0,0,0,0,-1,1175,750,0,0
-42,274,0,0,0,0,0,0,0,0,0,-1,1182,750,0,0
-35,274,0,0,0,0,0,0,0,0,0,-1,1189,750,0,0
-28,274,0,0,0,0,0,0,0,0,0,-1,1196,750,0,0
-21,274,0,0,0,0,0,0,0,0,0,-1,1203,750,0,0
-14,274,0,0,0,0,0,0,0,0,0,-1,1210,750,0,0
-7,274,0,0,0,0,0,0,0,0,0,-1,1217,750,0,0
0,274,0,0,0,0,0,0,0,0,0,-1,1224,750,0,0
7,274,0,0,0,0,0,0,0,0,0,-1,1231,750,0,0
14,274,0,0,0,0,0,0,0,0,0,-1,1238,750,0,0
21,274,0,0,0,0,0,0,0,0,0,-1,1245,750,0,0
28,274,0,0,0,0,0,0,0,0,0,-1,1252,750,0,0
35,274,0,0,0,0,0,0,0,0,0,-1,1259,750,0,0
42,274,0,0,0,0,0,0,0,0,0,-1,1266,750,0,0
49,274,0,0,0,0,0,0,0,0,0,-1,1273,750,0,0
56,274,0,0,0,0,0,0,0,0,0,-1,1280,750,0,0
63,274,0,0,0,0,0,0,0,0,0,-1,1287,750,0,0
70,274,0,0,0,0,0,0,0,0,0,-1,1294,750,0,0
77,274,0,0,0,0,0,0,0,0,0,-1,1301,750,0,0
84,274,0,0,0,0,0,0,0,0,0,-1,1308,750,0,0
91,274,0,0,0,0,0,0,0,0,0,-1,1315,750,0,0
98,274,0,0,0,0,0,0,0,0,0,-1,1322,750,0,0
105,274,0,0,0,0,0,0,0,0,0,-1,1329,750,0,0
112,274,0,0,0,0,0,0,0,0,0,-1,1336,750,0,0
119,274,0,0,0,0,0,0,0,0,0,-1,1343,750,0,0
126,274,0,0,0,0,0,0,0,0,0,-1,1350,750,0,0
133,274,0,0,0,0,0,0,0,0,0,-1,1357,750,0,0
140,274,0,0,0,0,0,0,0,0,0,-1,1364,750,0,0
147,274,0,0,0,0,0,0,0,0,0,-1,1371,750,0,0
154,274,0,0,0,0,0,0,0,0,0,-1,1378,750,0,0
161,274,0,0,0,0,0,0,0,0,0,-1,1385,750,0,0
168,274,0,0,0,0,0,0,0,0,0,-1,1392,750,0,0
175,274,0,0,0,0,0,0,0,0,0,-1,1399,750,0,0
182,274,0,0,0,0,0,0,0,0,0,-1,1406,750,0,0
189,274,0,0,0,0,0,0,0,0,0,-1,1413,750,0,0
196,274,0,0,0,0,0,0,0,0,0,-1,1420,750,0,0
203,274,0,0,0,0,0,0,0,0,0,-1,1427,750,0,0
210,274,0,0,0,0,0,0,0,0,0,-1,1434,750,0,0
217,274,0,0,0,0,0,0,0,0,0,-1,1441,750,0,0
224,274,0,0,0,0,0,0,0,0,0,-1,1448,750,0,0
231,274,0,0,0,0,0,0,0,0,0,-1,1455,750,0,0
238,274,0,0,0,0,0,0,0,0,0,-1,1462,750,0,0
245,274,0,0,0,0,0,0,0,0,0,-1,1469,750,0,0
252,274,0,0,0,0,0,0,0,0,0,-1,1476,750,0,0
259,274,0,0,0,0,0,0,0,0,0,-1,1483,750,0,0
266,274,0,0,0,0,0,0,0,0,0,-1,1490,750,0,0
273,274,0,0,0,0,0,0,0,0,0,-1,1497,750,0,0
280,274,0,0,0,0,0,0,0,0,0,-1,1504,750,0,0
287,274,0,0,0,0,0,0,0,0,0,-1,1511,750,0,0
294,274,0,0,0,0,0,0,0,0,0,-1,1518,750,0,0
301,274,0,0,0,0,0,0,0,0,0,-1,1525,750,0,0
308,274,0,0,0,0,0,0,0,0,0,-1,1532,750,0,0
315,274,0,0,0,0,0,0,0,0,0,-1,1539,750,0,0
322,274,0,0,0,0,0,0,0,0,0,-1,1546,750,0,0
329,274,0,0,0,0,0,0,0,0,0,-1,1553,750,0,0
336,274,0,0,0,0,0,0,0,0,0,-1,1560,750,0,0
343,274,0,0,0,0,0,0,0,0,0,-1,1567,750,0,0
350,274,0,0,0,0,0,0,0,0,0,-1,1574,750,0,0
357,274,0,0,0,0,0,0,0,0,0,-1,1581,750,0,0
364,274,0,0,0,0,0,0,0,0,0,-1,1588,750,0,0
371,274,0,0,0,0,0,0,0,0,0,-1,1595,750,0,0
378,274,0,0,0,0,0,0,0,0,0,-1,1602,750,0,0
385,274,0,0,0,0,0,0,0,0,0,-1,1609,750,0,0
392,274,0,0,0,0,0,0,0,0,0,-1,1616,750,0,0
399,274,0,0,0,0,0,0,0,0,0,-1,1623,750,0,0
406,274,0,0,0,0,0,0,0,0,0,-1,1630,750,0,0
413,274,0,0,0,0,0,0,0,0,0,-1,1637,750,0,0
420,274,0,0,0,0,0,0,0,0,0,-1,1644,750,0,0
427,274,0,0,0,0,0,0,0,0,0,-1,1651,750,0,0
434,274,0,0,0,0,0,0,0,0,0,-1,1658,750,0,0
441,274,0,0,0,0,0,0,0,0,0,-1,1665,750,0,0
448,274,0,0,0,0,0,0,0,0,0,-1,1672,750,0,0
455,274,0,0,0,0,0,0,0,0,0,-1,1679,750,0,0
462,274,0,0,0,0,0,0,0,0,0,-1,1686,750,0,0
469,274,0,0,0,0,0,0,0,0,0,-1,1693,750,0,0
476,274,0,0,0,0,0,0,0,0,0,-1,1700,750,0,0
483,274,0,0,0,0,0,0,0,0,0,-1,1707,750,0,0
490,274,0,0,0,0,0,0,0,0,0,-1,1714,750,0,0
497,274,0,0,0,0,0,0,0,0,0,-1,1721,750,0,0
504,274,0,0,0,0,0,0,0,0,0,-1,1728,750,0,0
511,274,0,0,0,0,0,0,0,0,0,-1,1735,750,0,0
518,274,0,0,0,0,0,0,0,0,0,-1,1742,750,0,0
525,274,0,0,0,0,0,0,0,0,0,-1,1749,750,0,0
532,274,0,0,0,0,0,0,0,0,0,-1,1756,750,0,0
539,274,0,0,0,0,0,0,0,0,0,-1,1763,750,0,0
546,274,0,0,0,0,0,0,0,0,0,-1,1770,750,0,0
553,274,0,0,0,0,0,0,0,0,0,-1,1777,750,0,0
560,274,33.7632,3.11829,0,0,0,0,0,0,0,-1,1784,750,33.7632,-3.11829
567,274,33.5734,3.47687,0.00374494,0.0305543,-0.00452388,0.0312971,0.00300215,-1.40806,0.0199395,0.0415609,1791,750,33.5734,-3.47686
574,274,33.7706,3.38037,0.00240087,0.0292388,-0.00669949,0.0308182,0.000821442,-1.33927,0.0202772,0.0444973,1798,750,33.7706,-3.38037
581,274,33.6526,3.42303,0.00233968,0.0261359,-0.00739352,0.028246,0.000229612,-1.29279,0.0187546,0.0436306,1805,750,33.6525,-3.42302
588,274,33.5253,3.67352,0,0,0,0,0,0,0,-1,1812,750,33.5253,-3.6735
595,274,33.3118,3.4267,0,0,0,0,0,0,0,-1,1819,750,33.3118,-3.4267
602,274,32.7855,3.48969,0,0,0,0,0,0,0,-1,1826,750,32.7855,-3.48966
609,274,32.6597,4.66486,0,0,0,0,0,0,0,-1,1833,750,32.6596,-4.66483
616,274,32.7869,1.78436,0,0,0,0,0,0,0,-1,1840,750,32.7868,-1.78437
623,274,22.468,-1.27539,0,0,0,0,0,0,0,-1,1847,750,22.4681,1.27539
630,274,22.2664,-1.11938,-0.00147231,0.00293549,-0.00697469,0.00804619,-0.00658301,-0.938426,0.00846025,0.0480652,1854,750,22.2663,1.11939
637,274,22.0374,-0.903503,-0.00170034,0.000955541,-0.00645229,0.00621512,-0.00695992,-0.886886,0.00761066,0.0140206,1861,750,22.0374,0.903515
644,274,22.0594,-0.467896,-0.00222597,-0.00053096,-0.00525398,0.00394343,-0.00670036,-0.865363,0.00621353,0.0114185,1868,750,22.0595,0.467925
651,274,22.0562,-0.0435791,-0.00193181,-0.000943536,-0.00389897,0.00249249,-0.00536783,-0.84843,0.00463827,0.0127452,1875,750,22.0561,0.0435513
658,274,22.0649,0.352234,-0.00147109,-0.00122499,-0.00276858,0.00142327,-0.00411936,-0.807606,0.00332384,0.0154066,1882,750,22.065,-0.352248
665,274,22.056,0.758179,-0.00107651,-0.00109402,-0.00166575,0.000580512,-0.00275103,-0.78277,0.00205504,0.0146716,1889,750,22.0561,-0.758183
672,274,22.059,1.16479,-0.000775433,-0.000220198,-0.000856378,0.000402437,-0.00139807,-0.942141,0.00109121,0.0124052,1896,750,22.059,-1.1648
679,274,22.0331,1.57092,-0.000442919,0.000865084,-0.000287442,0.000925464,-0.000503299,-1.36375,0.000836814,0.0140973,1903,750,22.0331,-1.57095
686,274,22.0217,1.96301,6.78701e-05,0.00214751,0.000246802,0.00217639,3.89821e-05,1.45428,0.00143811,0.0150354,1910,750,22.0217,-1.96302
693,274,22.0103,2.37695,0.000806612,0.00337769,0.000912079,0.00366838,0.000515921,1.26226,0.00229304,0.0125326,1917,750,22.0102,-2.37698
700,274,22.0228,2.78271,0.00179607,0.00491443,0.00179942,0.00573621,0.000974295,1.14239,0.0035443,0.0148389,1924,750,22.0228,-2.78273
707,274,21.9725,3.1972,0.00343469,0.00691478,0.00321897,0.00883391,0.00151557,1.03318,0.00545472,0.0229654,1931,750,21.9725,-3.19719
714,274,21.9812,3.70715,0.00579909,0.00928039,0.0050476,0.012879,0.00220044,0.951437,0.00795465,0.0473892,1938,750,21.9813,-3.70712
721,274,22.0736,4.10266,0,0,0,0,0,0,0,-1,1945,750,22.0736,-4.10268
728,274,19.2209,3.95154,0,0,0,0,0,0,0,-1,1952,750,19.221,-3.95151
735,274,20.6608,4.10931,0,0,0,0,0,0,0,-1,1959,750,20.6607,-4.10932
742,274,11.7815,-0.740234,0,0,0,0,0,0,0,-1,1966,750,11.7815,0.740253
749,274,0,0,0,0,0,0,0,0,0,-1,1973,750,0,0
756,274,0,0,0,0,0,0,0,0,0,-1,1980,750,0,0
763,274,0,0,0,0,0,0,0,0,0,-1,1987,750,0,0
770,274,0,0,0,0,0,0,0,0,0,-1,1994,750,0,0
777,274,0,0,0,0,0,0,0,0,0,-1,2001,750,0,0
784,274,0,0,0,0,0,0,0,0,0,-1,2008,750,0,0
791,274,0,0,0,0,0,0,0,0,0,-1,2015,750,0,0
798,274,0,0,0,0,0,0,0,0,0,-1,2022,750,0,0
805,274,0,0,0,0,0,0,0,0,0,-1,2029,750,0,0
812,274,0,0,0,0,0,0,0,0,0,-1,2036,750,0,0
-700,267,0,0,0,0,0,0,0,0,0,-1,524,757,0,0
-693,267,0,0,0,0,0,0,0,0,0,-1,531,757,0,0
-686,267,0,0,0,0,0,0,0,0,0,-1,538,757,0,0
-679,267,0,0,0,0,0,0,0,0,0,-1,545,757,0,0
-672,267,0,0,0,0,0,0,0,0,0,-1,552,757,0,0
-665,267,0,0,0,0,0,0,0,0,0,-1,559,757,0,0
-658,267,0,0,0,0,0,0,0,0,0,-1,566,757,0,0
-651,267,0,0,0,0,0,0,0,0,0,-1,573,757,0,0
-644,267,0,0,0,0,0,0,0,0,0,-1,580,757,0,0
-637,267,0,0,0,0,0,0,0,0,0,-1,587,757,0,0
-630,267,-25.6956,-0.394348,0,0,0,0,0,0,0,-1,594,757,-25.6956,0.394341
-623,267,-26.4193,0.896667,0,0,0,0,0,0,0,-1,601,757,-26.4192,-0.896642
-616,267,-26.8851,2.11072,0,0,0,0,0,0,0,-1,608,757,-26.8851,-2.11069
-609,267,-27.7369,3.19238,0,0,0,0,0,0,0,-1,615,757,-27.7369,-3.19238
-602,267,-29.2867,4.46619,0,0,0,0,0,0,0,-1,622,757,-29.2867,-4.46621
-595,267,-14.0042,2.57886,0,0,0,0,0,0,0,-1,629,757,-14.0041,-2.57885
-588,267,-13.9238,1.86078,0.00440271,0.00417647,0.0070427,0.0113332,-0.00275402,0.777368,0.00862137,0.0440949,636,757,-13.9238,-1.86079
-581,267,-14.0134,1.11517,0.00111008,0.00374702,0.00605446,0.00862491,-0.00376781,0.892608,0.00733583,0.0306927,643,757,-14.0134,-1.11519
-574,267,-14.0616,0.649353,-0.000527027,0.00280511,0.00474662,0.00616957,-0.00389149,0.954181,0.00585818,0.0173752,650,757,-14.0617,-0.649344
-567,267,-14.1381,0.27179,-0.00136034,0.00202135,0.00371836,0.00441525,-0.00375424,0.998788,0.0047218,0.0237997,657,757,-14.138,-0.271785
-560,267,-14.1465,-0.0948486,-0.00171685,0.00121958,0.00298868,0.00308121,-0.00357848,1.01371,0.00384855,0.0213182,664,757,-14.1465,0.094849
-553,267,-14.1293,-0.48938,-0.00188502,0.000353617,0.00260567,0.00207021,-0.00360161,0.988266,0.00331417,0.0176091,671,757,-14.1293,0.48936
-546,267,-14.1466,-0.896606,-0.00207731,-0.000635314,0.0024994,0.001245,-0.00395763,0.92582,0.00313689,0.0111665,678,757,-14.1466,0.896606
-539,267,-14.1696,-1.26636,-0.00265257,-0.00155434,0.00262799,0.000581294,-0.00478821,0.88839,0.00340249,0.0104019,685,757,-14.1695,1.26638
-532,267,-14.1605,-1.6272,-0.00289488,-0.00273943,0.00287007,5.39701e-05,-0.00568828,0.798935,0.0038103,0.0113365,692,757,-14.1605,1.6272
-525,267,-14.1796,-1.99878,-0.0026516,-0.00337793,0.00299349,6.74045e-07,-0.0060302,0.725035,0.00402036,0.0107843,699,757,-14.1796,1.9988
-518,267,-14.2047,-2.4104,-0.00218066,-0.00400913,0.00254464,-0.000391007,-0.00579879,0.612939,0.00374234,0.0110333,706,757,-14.2046,2.41041
-511,267,-14.199,-2.7865,-0.00164365,-0.00447278,0.00199186,-0.000615167,-0.00550127,0.476637,0.00348062,0.0159347,713,757,-14.199,2.78647
-504,267,-14.2607,-3.04529,-0.000673452,-0.00455868,0.00116832,-0.000349191,-0.00488295,0.27073,0.00314537,0.0295742,720,757,-14.2607,3.04526
-497,267,-14.3564,-3.28906,0,0,0,0,0,0,0,-1,727,757,-14.3564,3.28903
-490,267,-21.1359,0.910034,0,0,0,0,0,0,0,-1,734,757,-21.1359,-0.910037
-483,267,-24.4032,1.4812,0,0,0,0,0,0,0,-1,741,757,-24.4032,-1.48118
-476,267,-24.3922,1.34344,0.00983071,-0.00238246,-0.00862611,0.014293,-0.0068447,-0.477388,0.0124538,0.0431844,748,757,-24.3922,-1.34348
-469,267,-24.0363,0.933533,0.0139071,-0.00108925,-0.013145,0.0215421,-0.00872421,-0.526204,0.017989,0.0439283,755,757,-24.0362,-0.933512
-462,267,-24.8393,1.04138,0,0,0,0,0,0,0,-1,762,757,-24.8393,-1.04137
-455,267,-24.5936,1.10553,0,0,0,0,0,0,0,-1,769,757,-24.5936,-1.10555
-448,267,-22.6754,1.4834,0,0,0,0,0,0,0,-1,776,757,-22.6754,-1.48338
-441,267,0,0,0,0,0,0,0,0,0,-1,783,757,0,0
-434,267,0,0,0,0,0,0,0,0,0,-1,790,757,0,0
-427,267,0,0,0,0,0,0,0,0,0,-1,797,757,0,0
-420,267,0,0,0,0,0,0,0,0,0,-1,804,757,0,0
-413,267,0,0,0,0,0,0,0,0,0,-1,811,757,0,0
-406,267,0,0,0,0,0,0,0,0,0,-1,818,757,0,0
-399,267,0,0,0,0,0,0,0,0,0,-1,825,757,0,0
-392,267,0,0,0,0,0,0,0,0,0,-1,832,757,0,0
-385,267,0,0,0,0,0,0,0,0,0,-1,839,757,0,0
-378,267,0,0,0,0,0,0,0,0,0,-1,846,757,0,0
-371,267,0,0,0,0,0,0,0,0,0,-1,853,757,0,0
-364,267,0,0,0,0,0,0,0,0,0,-1,860,757,0,0
-357,267,0,0,0,0,0,0,0,0,0,-1,867,757,0,0
-350,267,0,0,0,0,0,0,0,0,0,-1,874,757,0,0
-343,267,0,0,0,0,0,0,0,0,0,-1,881,757,0,0
-336,267,0,0,0,0,0,0,0,0,0,-1,888,757,0,0
-329,267,0,0,0,0,0,0,0,0,0,-1,895,757,0,0
-322,267,0,0,0,0,0,0,0,0,0,-1,902,757,0,0
-315,267,0,0,0,0,0,0,0,0,0,-1,909,757,0,0
-308,267,0,0,0,0,0,0,0,0,0,-1,916,757,0,0
-301,267,0,0,0,0,0,0,0,0,0,-1,923,757,0,0
-294,267,0,0,0,0,0,0,0,0,0,-1,930,757,0,0
-287,267,0,0,0,0,0,0,0,0,0,-1,937,757,0,0
-280,267,0,0,0,0,0,0,0,0,0,-1,944,757,0,0
-273,267,0,0,0,0,0,0,0,0,0,-1,951,757,0,0
-266,267,0,0,0,0,0,0,0,0,0,-1,958,757,0,0
-259,267,0,0,0,0,0,0,0,0,0,-1,965,757,0,0
-252,267,0,0,0,0,0,0,0,0,0,-1,972,757,0,0
-245,267,0,0,0,0,0,0,0,0,0,-1,979,757,0,0
-238,267,0,0,0,0,0,0,0,0,0,-1,986,757,0,0
-231,267,0,0,0,0,0,0,0,0,0,-1,993,757,0,0
-224,267,0,0,0,0,0,0,0,0,0,-1,1000,757,0,0
-217,267,0,0,0,0,0,0,0,0,0,-1,1007,757,0,0
-210,267,0,0,0,0,0,0,0,0,0,-1,1014,757,0,0
-203,267,0,0,0,0,0,0,0,0,0,-1,1021,757,0,0
-196,267,0,0,0,0,0,0,0,0,0,-1,1028,757,0,0
-189,267,0,0,0,0,0,0,0,0,0,-1,1035,757,0,0
-182,267,0,0,0,0,0,0,0,0,0,-1,1042,757,0,0
-175,267,0,0,0,0,0,0,0,0,0,-1,1049,757,0,0
-168,267,0,0,0,0,0,0,0,0,0,-1,1056,757,0,0
-161,267,0,0,0,0,0,0,0,0,0,-1,1063,757,0,0
-154,267,0,0,0,0,0,0,0,0,0,-1,1070,757,0,0
-147,267,0,0,0,0,0,0,0,0,0,-1,1077,757,0,0
-140,267,0,0,0,0,0,0,0,0,0,-1,1084,757,0,0
-133,267,0,0,0,0,0,0,0,0,0,-1,1091,757,0,0
-126,267,0,0,0,0,0,0,0,0,0,-1,1098,757,0,0
-119,267,0,0,0,0,0,0,0,0,0,-1,1105,757,0,0
-112,267,0,0,0,0,0,0,0,0,0,-1,1112,757,0,0
-105,267,0,0,0,0,0,0,0,0,0,-1,1119,757,0,0
-98,267,0,0,0,0,0,0,0,0,0,-1,1126,757,0,0
-91,267,0,0,0,0,0,0,0,0,0,-1,1133,757,0,0
-84,267,0,0,0,0,0,0,0,0,0,-1,1140,757,0,0
-77,267,0,0,0,0,0,0,0,0,0,-1,1147,757,0,0
-70,267,0,0,0,0,0,0,0,0,0,-1,1154,757,0,0
-63,267,0,0,0,0,0,0,0,0,0,-1,1161,757,0,0
-56,267,0,0,0,0,0,0,0,0,0,-1,1168,757,0,0
-49,267,0,0,0,0,0,0,0,0,0,-1,1175,757,0,0
-42,267,0,0,0,0,0,0,0,0,0,-1,1182,757,0,0
-35,267,0,0,0,0,0,0,0,0,0,-1,1189,757,0,0
-28,267,0,0,0,0,0,0,0,0,0,-1,1196,757,0,0
-21,267,0,0,0,0,0,0,0,0,0,-1,1203,757,0,0
-14,267,0,0,0,0,0,0,0,0,0,-1,1210,757,0,0
-7,267,0,0,0,0,0,0,0,0,0,-1,1217,757,0,0
0,267,0,0,0,0,0,0,0,0,0,-1,1224,757,0,0
7,267,0,0,0,0,0,0,0,0,0,-1,1231,757,0,0
14,267,0,0,0,0,0,0,0,0,0,-1,1238,757,0,0
21,267,0,0,0,0,0,0,0,0,0,-1,1245,757,0,0
28,267,0,0,0,0,0,0,0,0,0,-1,1252,757,0,0
35,267,0,0,0,0,0,0,0,0,0,-1,1259,757,0,0
42,267,0,0,0,0,0,0,0,0,0,-1,1266,757,0,0
49,267,0,0,0,0,0,0,0,0,0,-1,1273,757,0,0
56,267,0,0,0,0,0,0,0,0,0,-1,1280,757,0,0
63,267,0,0,0,0,0,0,0,0,0,-1,1287,757,0,0
70,267,0,0,0,0,0,0,0,0,0,-1,1294,757,0,0
77,267,0,0,0,0,0,0,0,0,0,-1,1301,757,0,0
84,267,0,0,0,0,0,0,0,0,0,-1,1308,757,0,0
91,267,0,0,0,0,0,0,0,0,0,-1,1315,757,0,0
98,267,0,0,0,0,0,0,0,0,0,-1,1322,757,0,0
105,267,0,0,0,0,0,0,0,0,0,-1,1329,757,0,0
112,267,0,0,0,0,0,0,0,0,0,-1,1336,757,0,0
119,267,0,0,0,0,0,0,0,0,0,-1,1343,757,0,0
126,267,0,0,0,0,0,0,0,0,0,-1,1350,757,0,0
133,267,0,0,0,0,0,0,0,0,0,-1,1357,757,0,0
140,267,0,0,0,0,0,0,0,0,0,-1,1364,757,0,0
147,267,0,0,0,0,0,0,0,0,0,-1,1371,757,0,0
154,267,0,0,0,0,0,0,0,0,0,-1,1378,757,0,0
161,267,0,0,0,0,0,0,0,0,0,-1,1385,757,0,0
168,267,0,0,0,0,0,0,0,0,0,-1,1392,757,0,0
175,267,0,0,0,0,0,0,0,0,0,-1,1399,757,0,0
182,267,0,0,0,0,0,0,0,0,0,-1,1406,757,0,0
189,267,0,0,0,0,0,0,0,0,0,-1,1413,757,0,0
196,267,0,0,0,0,0,0,0,0,0,-1,1420,757,0,0
203,267,0,0,0,0,0,0,0,0,0,-1,1427,757,0,0
210,267,0,0,0,0,0,0,0,0,0,-1,1434,757,0,0
217,267,0,0,0,0,0,0,0,0,0,-1,1441,757,0,0
224,267,0,0,0,0,0,0,0,0,0,-1,1448,757,0,0
231,267,0,0,0,0,0,0,0,0,0,-1,1455,757,0,0
238,267,0,0,0,0,0,0,0,0,0,-1,1462,757,0,0
245,267,0,0,0,0,0,0,0,0,0,-1,1469,757,0,0
252,267,0,0,0,0,0,0,0,0,0,-1,1476,757,0,0
259,267,0,0,0,0,0,0,0,0,0,-1,1483,757,0,0
266,267,0,0,0,0,0,0,0,0,0,-1,1490,757,0,0
273,267,0,0,0,0,0,0,0,0,0,-1,1497,757,0,0
280,267,0,0,0,0,0,0,0,0,0,-1,1504,757,0,0
287,267,0,0,0,0,0,0,0,0,0,-1,1511,757,0,0
294,267,0,0,0,0,0,0,0,0,0,-1,1518,757,0,0
301,267,0,0,0,0,0,0,0,0,0,-1,1525,757,0,0
308,267,0,0,0,0,0,0,0,0,0,-1,1532,757,0,0
315,267,0,0,0,0,0,0,0,0,0,-1,1539,757,0,0
322,267,0,0,0,0,0,0,0,0,0,-1,1546,757,0,0
329,267,0,0,0,0,0,0,0,0,0,-1,1553,757,0,0
336,267,0,0,0,0,0,0,0,0,0,-1,1560,757,0,0
343,267,0,0,0,0,0,0,0,0,0,-1,1567,757,0,0
350,267,0,0,0,0,0,0,0,0,0,-1,1574,757,0,0
357,267,0,0,0,0,0,0,0,0,0,-1,1581,757,0,0
364,267,0,0,0,0,0,0,0,0,0,-1,1588,757,0,0
371,267,0,0,0,0,0,0,0,0,0,-1,1595,757,0,0
378,267,0,0,0,0,0,0,0,0,0,-1,1602,757,0,0
385,267,0,0,0,0,0,0,0,0,0,-1,1609,757,0,0
392,267,0,0,0,0,0,0,0,0,0,-1,1616,757,0,0
399,267,0,0,0,0,0,0,0,0,0,-1,1623,757,0,0
406,267,0,0,0,0,0,0,0,0,0,-1,1630,757,0,0
413,267,0,0,0,0,0,0,0,0,0,-1,1637,757,0,0
420,267,0,0,0,0,0,0,0,0,0,-1,1644,757,0,0
427,267,0,0,0,0,0,0,0,0,0,-1,1651,757,0,0
434,267,0,0,0,0,0,0,0,0,0,-1,1658,757,0,0
441,267,0,0,0,0,0,0,0,0,0,-1,1665,757,0,0
448,267,0,0,0,0,0,0,0,0,0,-1,1672,757,0,0
455,267,0,0,0,0,0,0,0,0,0,-1,1679,757,0,0
462,267,0,0,0,0,0,0,0,0,0,-1,1686,757,0,0
469,267,0,0,0,0,0,0,0,0,0,-1,1693,757,0,0
476,267,0,0,0,0,0,0,0,0,0,-1,1700,757,0,0
483,267,0,0,0,0,0,0,0,0,0,-1,1707,757,0,0
490,267,0,0,0,0,0,0,0,0,0,-1,1714,757,0,0
497,267,0,0,0,0,0,0,0,0,0,-1,1721,757,0,0
504,267,0,0,0,0,0,0,0,0,0,-1,1728,757,0,0
511,267,0,0,0,0,0,0,0,0,0,-1,1735,757,0,0
518,267,0,0,0,0,0,0,0,0,0,-1,1742,757,0,0
525,267,0,0,0,0,0,0,0,0,0,-1,1749,757,0,0
532,267,0,0,0,0,0,0,0,0,0,-1,1756,757,0,0
539,267,0,0,0,0,0,0,0,0,0,-1,1763,757,0,0
546,267,0,0,0,0,0,0,0,0,0,-1,1770,757,0,0
553,267,0,0,0,0,0,0,0,0,0,-1,1777,757,0,0
560,267,0,0,0,0,0,0,0,0,0,-1,1784,757,0,0
567,267,33.7308,3.13275,0.00524809,0.0231349,-0.000370164,0.0231426,0.00524043,-1.55011,0.0140121,0.0372113,1791,757,33.7309,-3.13276
574,267,33.8146,3.11053,0.00289794,0.0263129,-0.00547876,0.0275314,0.0016794,-1.35195,0.0178209,0.0396923,1798,757,33.8146,-3.11052
581,267,33.5642,3.31433,0.00237257,0.0248284,-0.00757562,0.0271451,5.58924e-05,-1.27402,0.0180781,0.0399537,1805,757,33.5642,-3.31435
588,267,33.5233,3.41638,0.00153172,0.0212143,-0.00838813,0.024304,-0.00155803,-1.21787,0.0167462,0.0462868,1812,757,33.5233,-3.41636
595,267,33.8583,3.12335,0,0,0,0,0,0,0,-1,1819,757,33.8582,-3.12334
602,267,32.6744,5.13361,0,0,0,0,0,0,0,-1,1826,757,32.6745,-5.1336
609,267,32.5704,4.72131,0,0,0,0,0,0,0,-1,1833,757,32.5705,-4.72132
616,267,32.4666,4.30902,0,0,0,0,0,0,0,-1,1840,757,32.4665,-4.30904
623,267,23.254,-0.612244,0,0,0,0,0,0,0,-1,1847,757,23.254,0.612251
630,267,22.8787,-0.594238,-0.00172545,0.00291671,-0.0070422,0.00801048,-0.00681922,-0.944589,0.00857114,0.0493962,1854,757,22.8786,0.59426
637,267,22.541,-0.859436,-0.00199461,0.00103034,-0.0064856,0.00617749,-0.00714176,-0.899953,0.00769659,0.028169,1861,757,22.5411,0.859425
644,267,22.4634,-0.451416,-0.00260722,-0.0004976,-0.00537444,0.00392456,-0.00702939,-0.882299,0.00640839,0.0125578,1868,757,22.4634,0.451407
651,267,22.4268,-0.0131836,-0.00231808,-0.00105343,-0.00415825,0.00252029,-0.00589181,-0.860853,0.00498506,0.0143938,1875,757,22.4268,0.0131594
658,267,22.4387,0.370117,-0.00177789,-0.00156642,-0.0031096,0.00143925,-0.00478355,-0.802393,0.00376171,0.014199,1882,757,22.4387,-0.370097
665,267,22.4635,0.776001,-0.00124449,-0.00164742,-0.00198281,0.000547065,-0.00343897,-0.734769,0.00249507,0.0143117,1889,757,22.4635,-0.776001
672,267,22.472,1.17261,-0.000786292,-0.000837957,-0.00112647,0.000314642,-0.00193889,-0.773934,0.00140923,0.0123989,1896,757,22.4721,-1.17261
679,267,22.4523,1.57623,-0.000288131,0.000218239,-0.000511997,0.000536231,-0.000606123,-1.01502,0.00065995,0.012425,1903,757,22.4523,-1.57623
686,267,22.4498,1.98535,0.00051963,0.00162809,9.51967e-05,0.0016362,0.000511514,1.48574,0.000966521,0.0135443,1910,757,22.4499,-1.98534
693,267,22.4257,2.35706,0.00151416,0.002864,0.000874021,0.00329336,0.0010848,1.11418,0.00193797,0.0138577,1917,757,22.4257,-2.35709
700,267,22.4213,2.75232,0.00268283,0.00436146,0.00182296,0.00552904,0.00151525,1.00114,0.00329905,0.015182,1924,757,22.4213,-2.75233
707,267,22.4086,3.14154,0.00441792,0.00626315,0.00323814,0.00870755,0.00197352,0.924181,0.0052718,0.0140021,1931,757,22.4086,-3.14151
714,267,22.4419,3.58313,0.00679163,0.00845254,0.00501136,0.0127018,0.00254239,0.867509,0.00776048,0.0297556,1938,757,22.4419,-3.58313
721,267,22.4867,4.04132,0,0,0,0,0,0,0,-1,1945,757,22.4867,-4.0413
728,267,23.665,3.49646,0,0,0,0,0,0,0,-1,1952,757,23.6651,-3.49643
735,267,24.6713,2.82483,0,0,0,0,0,0,0,-1,1959,757,24.6713,-2.82483
742,267,18.1177,3.56561,0,0,0,0,0,0,0,-1,1966,757,18.1176,-3.56564
749,267,0,0,0,0,0,0,0,0,0,-1,1973,757,0,0
756,267,0,0,0,0,0,0,0,0,0,-1,1980,757,0,0
763,267,0,0,0,0,0,0,0,0,0,-1,1987,757,0,0
770,267,0,0,0,0,0,0,0,0,0,-1,1994,757,0,0
777,267,0,0,0,0,0,0,0,0,0,-1,2001,757,0,0
784,267,0,0,0,0,0,0,0,0,0,-1,2008,757,0,0
791,267,0,0,0,0,0,0,0,0,0,-1,2015,757,0,0
798,267,0,0,0,0,0,0,0,0,0,-1,2022,757,0,0
805,267,0,0,0,0,0,0,0,0,0,-1,2029,757,0,0
812,267,0,0,0,0,0,0,0,0,0,-1,2036,757,0,0
-700,260,0,0,0,0,0,0,0,0,0,-1,524,764,0,0
-693,260,0,0,0,0,0,0,0,0,0,-1,531,764,0,0
-686,260,0,0,0,0,0,0,0,0,0,-1,538,764,0,0
-679,260,0,0,0,0,0,0,0,0,0,-1,545,764,0,0
-672,260,0,0,0,0,0,0,0,0,0,-1,552,764,0,0
-665,260,0,0,0,0,0,0,0,0,0,-1,559,764,0,0
-658,260,0,0,0,0,0,0,0,0,0,-1,566,764,0,0
-651,260,0,0,0,0,0,0,0,0,0,-1,573,764,0,0
-644,260,0,0,0,0,0,0,0,0,0,-1,580,764,0,0
-637,260,0,0,0,0,0,0,0,0,0,-1,587,764,0,0
-630,260,-25.3918,0.0657959,0,0,0,0,0,0,0,-1,594,764,-25.3918,-0.0657716
-623,260,-26.0159,1.33856,0,0,0,0,0,0,0,-1,601,764,-26.0159,-1.33858
-616,260,-26.6221,2.55426,0,0,0,0,0,0,0,-1,608,764,-26.6222,-2.55429
-609,260,-27.2641,3.71368,0,0,0,0,0,0,0,-1,615,764,-27.2641,-3.71371
-602,260,-27.9916,4.83417,0,0,0,0,0,0,0,-1,622,764,-27.9916,-4.83415
-595,260,-14.8761,1.98029,0,0,0,0,0,0,0,-1,629,764,-14.8761,-1.98032
-588,260,-14.6899,1.45233,0.00701613,0.00261147,0.00469524,0.00999989,-0.000372284,0.566104,0.00679409,0.0417707,636,764,-14.6899,-1.45235
-581,260,-14.5136,0.985046,0.00354601,0.00309087,0.00465065,0.00797465,-0.00133778,0.760951,0.00581389,0.0245044,643,764,-14.5136,-0.98503
-574,260,-14.5031,0.630005,0.0015272,0.00234967,0.00371312,0.00567426,-0.00179739,0.84055,0.00450317,0.0165556,650,764,-14.503,-0.629976
-567,260,-14.5404,0.281921,0.000262281,0.00163659,0.00300349,0.00403053,-0.00213166,0.897855,0.00361361,0.0171532,657,764,-14.5404,-0.281906
-560,260,-14.5414,-0.0846558,-0.000527762,0.00085745,0.00254841,0.00280569,-0.00247601,0.918083,0.00305137,0.0189308,664,764,-14.5415,0.0846746
-553,260,-14.5226,-0.480591,-0.00118198,-7.79649e-05,0.00243426,0.00186609,-0.00312603,0.896895,0.00291264,0.0163405,671,764,-14.5226,0.480579
-546,260,-14.5181,-0.863037,-0.00189186,-0.00113356,0.00251783,0.00103351,-0.00405892,0.860129,0.00310826,0.0105099,678,764,-14.5181,0.86305
-539,260,-14.5194,-1.2301,-0.00295841,-0.00208009,0.00279853,0.000313529,-0.00535203,0.863227,0.00367699,0.0114653,685,764,-14.5194,1.23008
-532,260,-14.5233,-1.56506,-0.00353925,-0.00314527,0.00311126,-0.000224772,-0.00645975,0.817014,0.00423356,0.0151801,692,764,-14.5233,1.56507
-525,260,-14.5505,-1.97284,-0.00355289,-0.00365591,0.00323641,-0.000367584,-0.00684122,0.777441,0.00444336,0.0139777,699,764,-14.5505,1.97283
-518,260,-14.5844,-2.36841,-0.003307,-0.00416827,0.00282687,-0.000878154,-0.00659712,0.709811,0.00413655,0.0146154,706,764,-14.5844,2.36841
-511,260,-14.5828,-2.70215,-0.00296101,-0.00451578,0.0022978,-0.00131265,-0.00616413,0.622284,0.00374926,0.0256336,713,764,-14.5828,2.70216
-504,260,-14.8418,-2.69836,-0.00213992,-0.00450502,0.00153505,-0.00138474,-0.0052602,0.457195,0.00314842,0.0492182,720,764,-14.8418,2.69834
-497,260,-15.0694,-2.74127,0,0,0,0,0,0,0,-1,727,764,-15.0694,2.74127
-490,260,-24.3334,1.38361,0,0,0,0,0,0,0,-1,734,764,-24.3335,-1.38362
-483,260,-24.5197,1.31506,0.00433758,-0.00313369,-0.004001,0.00607579,-0.0048719,-0.409842,0.00633338,0.0404948,741,764,-24.5197,-1.31509
-476,260,-24.4608,1.32239,0.00803047,-0.00205811,-0.00726612,0.0118316,-0.00585924,-0.48198,0.010406,0.0403615,748,764,-24.4608,-1.32238
-469,260,-24.4548,1.15686,0.0119209,-0.000656529,-0.0111271,0.0184135,-0.00714911,-0.528192,0.0152287,0.0448219,755,764,-24.4548,-1.15688
-462,260,-24.5576,1.01788,0.0155799,0.000785085,-0.0153121,0.0251878,-0.00882285,-0.560376,0.0203797,0.0425324,762,764,-24.5576,-1.01787
-455,260,-24.4797,1.1015,0.0178163,0.0037233,-0.0190675,0.0310977,-0.00955811,-0.608404,0.0245462,0.0441194,769,764,-24.4797,-1.1015
-448,260,0,0,0,0,0,0,0,0,0,-1,776,764,0,0
-441,260,0,0,0,0,0,0,0,0,0,-1,783,764,0,0
-434,260,0,0,0,0,0,0,0,0,0,-1,790,764,0,0
-427,260,0,0,0,0,0,0,0,0,0,-1,797,764,0,0
-420,260,0,0,0,0,0,0,0,0,0,-1,804,764,0,0
-413,260,0,0,0,0,0,0,0,0,0,-1,811,764,0,0
-406,260,0,0,0,0,0,0,0,0,0,-1,818,764,0,0
-399,260,0,0,0,0,0,0,0,0,0,-1,825,764,0,0
-392,260,0,0,0,0,0,0,0,0,0,-1,832,764,0,0
-385,260,0,0,0,0,0,0,0,0,0,-1,839,764,0,0
-378,260,0,0,0,0,0,0,0,0,0,-1,846,764,0,0
-371,260,0,0,0,0,0,0,0,0,0,-1,853,764,0,0
-364,260,0,0,0,0,0,0,0,0,0,-1,860,764,0,0
-357,260,0,0,0,0,0,0,0,0,0,-1,867,764,0,0
-350,260,0,0,0,0,0,0,0,0,0,-1,874,764,0,0
-343,260,0,0,0,0,0,0,0,0,0,-1,881,764,0,0
-336,260,0,0,0,0,0,0,0,0,0,-1,888,764,0,0
-329,260,0,0,0,0,0,0,0,0,0,-1,895,764,0,0
-322,260,0,0,0,0,0,0,0,0,0,-1,902,764,0,0
-315,260,0,0,0,0,0,0,0,0,0,-1,909,764,0,0
-308,260,0,0,0,0,0,0,0,0,0,-1,916,764,0,0
-301,260,0,0,0,0,0,0,0,0,0,-1,923,764,0,0
-294,260,0,0,0,0,0,0,0,0,0,-1,930,764,0,0
-287,260,0,0,0,0,0,0,0,0,0,-1,937,764,0,0
-280,260,0,0,0,0,0,0,0,0,0,-1,944,764,0,0
-273,260,0,0,0,0,0,0,0,0,0,-1,951,764,0,0
-266,260,0,0,0,0,0,0,0,0,0,-1,958,764,0,0
-259,260,0,0,0,0,0,0,0,0,0,-1,965,764,0,0
-252,260,0,0,0,0,0,0,0,0,0,-1,972,764,0,0
-245,260,0,0,0,0,0,0,0,0,0,-1,979,764,0,0
-238,260,0,0,0,0,0,0,0,0,0,-1,986,764,0,0
-231,260,0,0,0,0,0,0,0,0,0,-1,993,764,0,0
-224,260,0,0,0,0,0,0,0,0,0,-1,1000,764,0,0
-217,260,0,0,0,0,0,0,0,0,0,-1,1007,764,0,0
-210,260,0,0,0,0,0,0,0,0,0,-1,1014,764,0,0
-203,260,0,0,0,0,0,0,0,0,0,-1,1021,764,0,0
-196,260,0,0,0,0,0,0,0,0,0,-1,1028,764,0,0
-189,260,0,0,0,0,0,0,0,0,0,-1,1035,764,0,0
-182,260,0,0,0,0,0,0,0,0,0,-1,1042,764,0,0
-175,260,0,0,0,0,0,0,0,0,0,-1,1049,764,0,0
-168,260,0,0,0,0,0,0,0,0,0,-1,1056,764,0,0
-161,260,0,0,0,0,0,0,0,0,0,-1,1063,764,0,0
-154,260,0,0,0,0,0,0,0,0,0,-1,1070,764,0,0
-147,260,0,0,0,0,0,0,0,0,0,-1,1077,764,0,0
-140,260,0,0,0,0,0,0,0,0,0,-1,1084,764,0,0
-133,260,0,0,0,0,0,0,0,0,0,-1,1091,764,0,0
-126,260,0,0,0,0,0,0,0,0,0,-1,1098,764,0,0
-119,260,0,0,0,0,0,0,0,0,0,-1,1105,764,0,0
-112,260,0,0,0,0,0,0,0,0,0,-1,1112,764,0,0
-105,260,0,0,0,0,0,0,0,0,0,-1,1119,764,0,0
-98,260,0,0,0,0,0,0,0,0,0,-1,1126,764,0,0
-91,260,0,0,0,0,0,0,0,0,0,-1,1133,764,0,0
-84,260,0,0,0,0,0,0,0,0,0,-1,1140,764,0,0
-77,260,0,0,0,0,0,0,0,0,0,-1,1147,764,0,0
-70,260,0,0,0,0,0,0,0,0,0,-1,1154,764,0,0
-63,260,0,0,0,0,0,0,0,0,0,-1,1161,764,0,0
-56,260,0,0,0,0,0,0,0,0,0,-1,1168,764,0,0
-49,260,0,0,0,0,0,0,0,0,0,-1,1175,764,0,0
-42,260,0,0,0,0,0,0,0,0,0,-1,1182,764,0,0
-35,260,0,0,0,0,0,0,0,0,0,-1,1189,764,0,0
-28,260,0,0,0,0,0,0,0,0,0,-1,1196,764,0,0
-21,260,0,0,0,0,0,0,0,0,0,-1,1203,764,0,0
-14,260,0,0,0,0,0,0,0,0,0,-1,1210,764,0,0
-7,260,0,0,0,0,0,0,0,0,0,-1,1217,764,0,0
0,260,0,0,0,0,0,0,0,0,0,-1,1224,764,0,0
7,260,0,0,0,0,0,0,0,0,0,-1,1231,764,0,0
14,260,0,0,0,0,0,0,0,0,0,-1,1238,764,0,0
21,260,0,0,0,0,0,0,0,0,0,-1,1245,764,0,0
28,260,0,0,0,0,0,0,0,0,0,-1,1252,764,0,0
35,260,0,0,0,0,0,0,0,0,0,-1,1259,764,0,0
42,260,0,0,0,0,0,0,0,0,0,-1,1266,764,0,0
49,260,0,0,0,0,0,0,0,0,0,-1,1273,764,0,0
56,260,0,0,0,0,0,0,0,0,0,-1,1280,764,0,0
63,260,0,0,0,0,0,0,0,0,0,-1,1287,764,0,0
70,260,0,0,0,0,0,0,0,0,0,-1,1294,764,0,0
77,260,0,0,0,0,0,0,0,0,0,-1,1301,764,0,0
84,260,0,0,0,0,0,0,0,0,0,-1,1308,764,0,0
91,260,0,0,0,0,0,0,0,0,0,-1,1315,764,0,0
98,260,0,0,0,0,0,0,0,0,0,-1,1322,764,0,0
105,260,0,0,0,0,0,0,0,0,0,-1,1329,764,0,0
112,260,0,0,0,0,0,0,0,0,0,-1,1336,764,0,0
119,260,0,0,0,0,0,0,0,0,0,-1,1343,764,0,0
126,260,0,0,0,0,0,0,0,0,0,-1,1350,764,0,0
133,260,0,0,0,0,0,0,0,0,0,-1,1357,764,0,0
140,260,0,0,0,0,0,0,0,0,0,-1,1364,764,0,0
147,260,0,0,0,0,0,0,0,0,0,-1,1371,764,0,0
154,260,0,0,0,0,0,0,0,0,0,-1,1378,764,0,0
161,260,0,0,0,0,0,0,0,0,0,-1,1385,764,0,0
168,260,0,0,0,0,0,0,0,0,0,-1,1392,764,0,0
175,260,0,0,0,0,0,0,0,0,0,-1,1399,764,0,0
182,260,0,0,0,0,0,0,0,0,0,-1,1406,764,0,0
189,260,0,0,0,0,0,0,0,0,0,-1,1413,764,0,0
196,260,0,0,0,0,0,0,0,0,0,-1,1420,764,0,0
203,260,0,0,0,0,0,0,0,0,0,-1,1427,764,0,0
210,260,0,0,0,0,0,0,0,0,0,-1,1434,764,0,0
217,260,0,0,0,0,0,0,0,0,0,-1,1441,764,0,0
224,260,0,0,0,0,0,0,0,0,0,-1,1448,764,0,0
231,260,0,0,0,0,0,0,0,0,0,-1,1455,764,0,0
238,260,0,0,0,0,0,0,0,0,0,-1,1462,764,0,0
245,260,0,0,0,0,0,0,0,0,0,-1,1469,764,0,0
252,260,0,0,0,0,0,0,0,0,0,-1,1476,764,0,0
259,260,0,0,0,0,0,0,0,0,0,-1,1483,764,0,0
266,260,0,0,0,0,0,0,0,0,0,-1,1490,764,0,0
273,260,0,0,0,0,0,0,0,0,0,-1,1497,764,0,0
280,260,0,0,0,0,0,0,0,0,0,-1,1504,764,0,0
287,260,0,0,0,0,0,0,0,0,0,-1,1511,764,0,0
294,260,0,0,0,0,0,0,0,0,0,-1,1518,764,0,0
301,260,0,0,0,0,0,0,0,0,0,-1,1525,764,0,0
308,260,0,0,0,0,0,0,0,0,0,-1,1532,764,0,0
315,260,0,0,0,0,0,0,0,0,0,-1,1539,764,0,0
322,260,0,0,0,0,0,0,0,0,0,-1,1546,764,0,0
329,260,0,0,0,0,0,0,0,0,0,-1,1553,764,0,0
336,260,0,0,0,0,0,0,0,0,0,-1,1560,764,0,0
343,260,0,0,0,0,0,0,0,0,0,-1,1567,764,0,0
350,260,0,0,0,0,0,0,0,0,0,-1,1574,764,0,0
357,260,0,0,0,0,0,0,0,0,0,-1,1581,764,0,0
364,260,0,0,0,0,0,0,0,0,0,-1,1588,764,0,0
371,260,0,0,0,0,0,0,0,0,0,-1,1595,764,0,0
378,260,0,0,0,0,0,0,0,0,0,-1,1602,764,0,0
385,260,0,0,0,0,0,0,0,0,0,-1,1609,764,0,0
392,260,0,0,0,0,0,0,0,0,0,-1,1616,764,0,0
399,260,0,0,0,0,0,0,0,0,0,-1,1623,764,0,0
406,260,0,0,0,0,0,0,0,0,0,-1,1630,764,0,0
413,260,0,0,0,0,0,0,0,0,0,-1,1637,764,0,0
420,260,0,0,0,0,0,0,0,0,0,-1,1644,764,0,0
427,260,0,0,0,0,0,0,0,0,0,-1,1651,764,0,0
434,260,0,0,0,0,0,0,0,0,0,-1,1658,764,0,0
441,260,0,0,0,0,0,0,0,0,0,-1,1665,764,0,0
448,260,0,0,0,0,0,0,0,0,0,-1,1672,764,0,0
455,260,0,0,0,0,0,0,0,0,0,-1,1679,764,0,0
462,260,0,0,0,0,0,0,0,0,0,-1,1686,764,0,0
469,260,0,0,0,0,0,0,0,0,0,-1,1693,764,0,0
476,260,0,0,0,0,0,0,0,0,0,-1,1700,764,0,0
483,260,0,0,0,0,0,0,0,0,0,-1,1707,764,0,0
490,260,0,0,0,0,0,0,0,0,0,-1,1714,764,0,0
497,260,0,0,0,0,0,0,0,0,0,-1,1721,764,0,0
504,260,0,0,0,0,0,0,0,0,0,-1,1728,764,0,0
511,260,0,0,0,0,0,0,0,0,0,-1,1735,764,0,0
518,260,0,0,0,0,0,0,0,0,0,-1,1742,764,0,0
525,260,0,0,0,0,0,0,0,0,0,-1,1749,764,0,0
532,260,0,0,0,0,0,0,0,0,0,-1,1756,764,0,0
539,260,0,0,0,0,0,0,0,0,0,-1,1763,764,0,0
546,260,0,0,0,0,0,0,0,0,0,-1,1770,764,0,0
553,260,0,0,0,0,0,0,0,0,0,-1,1777,764,0,0
560,260,0,0,0,0,0,0,0,0,0,-1,1784,764,0,0
567,260,0,0,0,0,0,0,0,0,0,-1,1791,764,0,0
574,260,33.7283,2.97662,0.00345245,0.0206473,-0.00288292,0.0211178,0.00298197,-1.40903,0.0131973,0.0347652,1798,764,33.7283,-2.97665
581,260,33.5549,3.22064,0.00272963,0.0223344,-0.00659174,0.0243446,0.000719405,-1.27479,0.0159954,0.0368685,1805,764,33.555,-3.22067
588,260,33.7488,3.18951,0.00153051,0.0197626,-0.00831001,0.0229818,-0.0016887,-1.20121,0.015914,0.044384,1812,764,33.7488,-3.18954
595,260,32.1143,5.83521,0,0,0,0,0,0,0,-1,1819,764,32.1142,-5.83521
602,260,32.4208,5.35834,0,0,0,0,0,0,0,-1,1826,764,32.4208,-5.35836
609,260,32.5645,4.64917,0,0,0,0,0,0,0,-1,1833,764,32.5645,-4.64915
616,260,32.3729,3.51019,0,0,0,0,0,0,0,-1,1840,764,32.3729,-3.51021
623,260,32.2268,3.25836,0,0,0,0,0,0,0,-1,1847,764,32.2268,-3.25833
630,260,23.3267,-0.179871,0,0,0,0,0,0,0,-1,1854,764,23.3267,0.179897
637,260,23.0725,-0.827759,0,0,0,0,0,0,0,-1,1861,764,23.0725,0.827765
644,260,22.9401,-0.45697,-0.00293062,-0.000409079,-0.00525859,0.00373777,-0.00707747,-0.903054,0.00634264,0.0261833,1868,764,22.94,0.456958
651,260,22.8815,-0.0186768,-0.00265499,-0.00107105,-0.00418801,0.00239922,-0.00612526,-0.878846,0.00507591,0.0134392,1875,764,22.8815,0.018704
658,260,22.8573,0.393555,-0.00207609,-0.00181474,-0.00327293,0.00133012,-0.00522095,-0.805351,0.00399845,0.015019,1882,764,22.8573,-0.39356
665,260,22.8619,0.801514,-0.00146712,-0.00213116,-0.0021997,0.000425477,-0.00402375,-0.710494,0.00283499,0.0154256,1889,764,22.8619,-0.801488
672,260,22.8623,1.20154,-0.000934186,-0.00143829,-0.00135297,0.000190008,-0.00256249,-0.693305,0.00177506,0.0134019,1896,764,22.8623,-1.20157
679,260,22.8456,1.60535,-0.000368303,-0.000452062,-0.000733917,0.000324929,-0.00114529,-0.756898,0.000891793,0.0123416,1903,764,22.8455,-1.60533
686,260,22.8459,2.00079,0.00062399,0.00104637,-0.000112134,0.00107429,0.000596066,-1.32674,0.000621485,0.0154336,1910,764,22.8459,-2.00081
693,260,22.8251,2.34686,0.00174367,0.00222873,0.000730595,0.002756,0.0012164,0.945657,0.00159482,0.0154362,1917,764,22.8251,-2.34687
700,260,22.7782,2.75537,0.00290509,0.00351433,0.00165454,0.00489205,0.00152736,0.876435,0.00289007,0.0136541,1924,764,22.7782,-2.75537
707,260,22.7709,3.1438,0.00452052,0.0051267,0.00295167,0.00779079,0.00185642,0.836561,0.00469893,0.0131425,1931,764,22.7709,-3.14381
714,260,22.7838,3.5423,0.0065979,0.00682451,0.00449121,0.0112038,0.00221857,0.79801,0.00685052,0.0234586,1938,764,22.7838,-3.54228
721,260,22.9977,4.29962,0.0093489,0.00905108,0.00664238,0.015844,0.00255594,0.774191,0.0098222,0.0461802,1945,764,22.9977,-4.29963
728,260,23.1467,4.97235,0,0,0,0,0,0,0,-1,1952,764,23.1467,-4.97237
735,260,24.5448,3.315,0,0,0,0,0,0,0,-1,1959,764,24.5448,-3.31503
742,260,25.3129,2.32648,0,0,0,0,0,0,0,-1,1966,764,25.3129,-2.3265
749,260,18.9454,4.52777,0,0,0,0,0,0,0,-1,1973,764,18.9455,-4.5278
756,260,0,0,0,0,0,0,0,0,0,-1,1980,764,0,0
763,260,0,0,0,0,0,0,0,0,0,-1,1987,764,0,0
770,260,0,0,0,0,0,0,0,0,0,-1,1994,764,0,0
777,260,0,0,0,0,0,0,0,0,0,-1,2001,764,0,0
784,260,0,0,0,0,0,0,0,0,0,-1,2008,764,0,0
791,260,0,0,0,0,0,0,0,0,0,-1,2015,764,0,0
798,260,0,0,0,0,0,0,0,0,0,-1,2022,764,0,0
805,260,0,0,0,0,0,0,0,0,0,-1,2029,764,0,0
812,260,0,0,0,0,0,0,0,0,0,-1,2036,764,0,0
-700,253,0,0,0,0,0,0,0,0,0,-1,524,771,0,0
-693,253,0,0,0,0,0,0,0,0,0,-1,531,771,0,0
-686,253,0,0,0,0,0,0,0,0,0,-1,538,771,0,0
-679,253,0,0,0,0,0,0,0,0,0,-1,545,771,0,0
-672,253,0,0,0,0,0,0,0,0,0,-1,552,771,0,0
-665,253,0,0,0,0,0,0,0,0,0,-1,559,771,0,0
-658,253,0,0,0,0,0,0,0,0,0,-1,566,771,0,0
-651,253,0,0,0,0,0,0,0,0,0,-1,573,771,0,0
-644,253,0,0,0,0,0,0,0,0,0,-1,580,771,0,0
-637,253,-24.7979,-0.491394,0,0,0,0,0,0,0,-1,587,771,-24.7978,0.491371
-630,253,-25.156,0.540405,0,0,0,0,0,0,0,-1,594,771,-25.156,-0.540421
-623,253,-25.5059,1.48254,0,0,0,0,0,0,0,-1,601,771,-25.5059,-1.48256
-616,253,-25.7231,2.26166,0,0,0,0,0,0,0,-1,608,771,-25.7231,-2.26164
-609,253,-25.0447,2.33783,0,0,0,0,0,0,0,-1,615,771,-25.0447,-2.33784
-602,253,-15.8773,0.687378,0,0,0,0,0,0,0,-1,622,771,-15.8773,-0.687403
-595,253,-15.4241,0.967285,0,0,0,0,0,0,0,-1,629,771,-15.4242,-0.967261
-588,253,-15.2327,1.2121,0,0,0,0,0,0,0,-1,636,771,-15.2327,-1.21211
-581,253,-14.8605,0.941711,0.0048868,0.00230635,0.00356574,0.00738857,-0.00019542,0.611807,0.00499213,0.0227822,643,771,-14.8605,-0.941738
-574,253,-14.892,0.614319,0.00276431,0.00174949,0.00289817,0.00519915,-0.000685356,0.698737,0.00371568,0.0191531,650,771,-14.892,-0.614303
-567,253,-14.907,0.233337,0.00128151,0.00111751,0.00243455,0.00363544,-0.00123642,0.768563,0.00292423,0.0158979,657,771,-14.907,-0.233366
-560,253,-14.8876,-0.10376,0.000225082,0.000418497,0.00220634,0.00253025,-0.00188667,0.8073,0.00255912,0.0121802,664,771,-14.8876,0.10373
-553,253,-14.8922,-0.468506,-0.000790565,-0.000520462,0.00232872,0.00167712,-0.00298814,0.814363,0.00272871,0.0113935,671,771,-14.8922,0.468503
-546,253,-14.9251,-0.81665,-0.00193474,-0.00155442,0.00257518,0.000837607,-0.00432677,0.822253,0.00320046,0.00976923,678,771,-14.9251,0.816628
-539,253,-14.9339,-1.20349,-0.00337362,-0.00242298,0.00297132,0.000110793,-0.0059074,0.864711,0.00397571,0.0110881,685,771,-14.9339,1.20348
-532,253,-14.924,-1.58167,-0.00419188,-0.00324431,0.00331296,-0.000371429,-0.00706476,0.856421,0.00459104,0.0157012,692,771,-14.9239,1.58165
-525,253,-14.9282,-1.97821,-0.0044212,-0.00358808,0.00343433,-0.000545139,-0.00746414,0.84575,0.0048047,0.0128962,699,771,-14.9282,1.97822
-518,253,-14.9692,-2.32373,-0.00440566,-0.00395455,0.00307839,-0.00109346,-0.00726675,0.821968,0.00452428,0.0177869,706,771,-14.9691,2.32376
-511,253,-15.1556,-2.65045,-0.00428282,-0.00418054,0.00258996,-0.00164121,-0.00682214,0.795269,0.00411169,0.0447532,713,771,-15.1557,2.65043
-504,253,-15.4096,-2.99396,0,0,0,0,0,0,0,-1,720,771,-15.4096,2.99394
-497,253,-21.7811,0.987488,0,0,0,0,0,0,0,-1,727,771,-21.7811,-0.987511
-490,253,-24.5762,1.67554,0,0,0,0,0,0,0,-1,734,771,-24.5762,-1.67556
-483,253,-24.5529,1.49469,0.00210098,-0.00255991,-0.00312523,0.003669,-0.00412793,-0.465031,0.00450415,0.0491574,741,771,-24.5529,-1.4947
-476,253,-24.4479,1.31903,0.00553026,-0.00139616,-0.00603483,0.009025,-0.00489089,-0.524906,0.00815166,0.0475153,748,771,-24.4479,-1.31905
-469,253,-24.4024,1.198,0.00915407,0.000213995,-0.0094232,0.0151137,-0.00574563,-0.563933,0.0124414,0.042012,755,771,-24.4024,-1.19798
-462,253,-24.3534,1.03436,0.0125388,0.00210758,-0.013023,0.0213518,-0.00670542,-0.594933,0.0169186,0.0417372,762,771,-24.3534,-1.03437
-455,253,-24.3708,1.05438,0.014822,0.00612277,-0.0160734,0.027124,-0.00617917,-0.653258,0.0204559,0.0325786,769,771,-24.3709,-1.05435
-448,253,0,0,0,0,0,0,0,0,0,-1,776,771,0,0
-441,253,0,0,0,0,0,0,0,0,0,-1,783,771,0,0
-434,253,0,0,0,0,0,0,0,0,0,-1,790,771,0,0
-427,253,0,0,0,0,0,0,0,0,0,-1,797,771,0,0
-420,253,0,0,0,0,0,0,0,0,0,-1,804,771,0,0
-413,253,0,0,0,0,0,0,0,0,0,-1,811,771,0,0
-406,253,0,0,0,0,0,0,0,0,0,-1,818,771,0,0
-399,253,0,0,0,0,0,0,0,0,0,-1,825,771,0,0
-392,253,0,0,0,0,0,0,0,0,0,-1,832,771,0,0
-385,253,0,0,0,0,0,0,0,0,0,-1,839,771,0,0
-378,253,0,0,0,0,0,0,0,0,0,-1,846,771,0,0
-371,253,0,0,0,0,0,0,0,0,0,-1,853,771,0,0
-364,253,0,0,0,0,0,0,0,0,0,-1,860,771,0,0
-357,253,0,0,0,0,0,0,0,0,0,-1,867,771,0,0
-350,253,0,0,0,0,0,0,0,0,0,-1,874,771,0,0
-343,253,0,0,0,0,0,0,0,0,0,-1,881,771,0,0
-336,253,0,0,0,0,0,0,0,0,0,-1,888,771,0,0
-329,253,0,0,0,0,0,0,0,0,0,-1,895,771,0,0
-322,253,0,0,0,0,0,0,0,0,0,-1,902,771,0,0
-315,253,0,0,0,0,0,0,0,0,0,-1,909,771,0,0
-308,253,0,0,0,0,0,0,0,0,0,-1,916,771,0,0
-301,253,0,0,0,0,0,0,0,0,0,-1,923,771,0,0
-294,253,0,0,0,0,0,0,0,0,0,-1,930,771,0,0
-287,253,0,0,0,0,0,0,0,0,0,-1,937,771,0,0
-280,253,0,0,0,0,0,0,0,0,0,-1,944,771,0,0
-273,253,0,0,0,0,0,0,0,0,0,-1,951,771,0,0
-266,253,0,0,0,0,0,0,0,0,0,-1,958,771,0,0
-259,253,0,0,0,0,0,0,0,0,0,-1,965,771,0,0
-252,253,0,0,0,0,0,0,0,0,0,-1,972,771,0,0
-245,253,0,0,0,0,0,0,0,0,0,-1,979,771,0,0
-238,253,0,0,0,0,0,0,0,0,0,-1,986,771,0,0
-231,253,0,0,0,0,0,0,0,0,0,-1,993,771,0,0
-224,253,0,0,0,0,0,0,0,0,0,-1,1000,771,0,0
-217,253,0,0,0,0,0,0,0,0,0,-1,1007,771,0,0
-210,253,0,0,0,0,0,0,0,0,0,-1,1014,771,0,0
-203,253,0,0,0,0,0,0,0,0,0,-1,1021,771,0,0
-196,253,0,0,0,0,0,0,0,0,0,-1,1028,771,0,0
-189,253,0,0,0,0,0,0,0,0,0,-1,1035,771,0,0
-182,253,0,0,0,0,0,0,0,0,0,-1,1042,771,0,0
-175,253,0,0,0,0,0,0,0,0,0,-1,1049,771,0,0
-168,253,0,0,0,0,0,0,0,0,0,-1,1056,771,0,0
-161,253,0,0,0,0,0,0,0,0,0,-1,1063,771,0,0
-154,253,0,0,0,0,0,0,0,0,0,-1,1070,771,0,0
-147,253,0,0,0,0,0,0,0,0,0,-1,1077,771,0,0
-140,253,0,0,0,0,0,0,0,0,0,-1,1084,771,0,0
-133,253,0,0,0,0,0,0,0,0,0,-1,1091,771,0,0
-126,253,0,0,0,0,0,0,0,0,0,-1,1098,771,0,0
-119,253,0,0,0,0,0,0,0,0,0,-1,1105,771,0,0
-112,253,0,0,0,0,0,0,0,0,0,-1,1112,771,0,0
-105,253,0,0,0,0,0,0,0,0,0,-1,1119,771,0,0
-98,253,0,0,0,0,0,0,0,0,0,-1,1126,771,0,0
-91,253,0,0,0,0,0,0,0,0,0,-1,1133,771,0,0
-84,253,0,0,0,0,0,0,0,0,0,-1,1140,771,0,0
-77,253,0,0,0,0,0,0,0,0,0,-1,1147,771,0,0
-70,253,0,0,0,0,0,0,0,0,0,-1,1154,771,0,0
-63,253,0,0,0,0,0,0,0,0,0,-1,1161,771,0,0
-56,253,0,0,0,0,0,0,0,0,0,-1,1168,771,0,0
-49,253,0,0,0,0,0,0,0,0,0,-1,1175,771,0,0
-42,253,0,0,0,0,0,0,0,0,0,-1,1182,771,0,0
-35,253,0,0,0,0,0,0,0,0,0,-1,1189,771,0,0
-28,253,0,0,0,0,0,0,0,0,0,-1,1196,771,0,0
-21,253,0,0,0,0,0,0,0,0,0,-1,1203,771,0,0
-14,253,0,0,0,0,0,0,0,0,0,-1,1210,771,0,0
-7,253,0,0,0,0,0,0,0,0,0,-1,1217,771,0,0
0,253,0,0,0,0,0,0,0,0,0,-1,1224,771,0,0
7,253,0,0,0,0,0,0,0,0,0,-1,1231,771,0,0
14,253,0,0,0,0,0,0,0,0,0,-1,1238,771,0,0
21,253,0,0,0,0,0,0,0,0,0,-1,1245,771,0,0
28,253,0,0,0,0,0,0,0,0,0,-1,1252,771,0,0
35,253,0,0,0,0,0,0,0,0,0,-1,1259,771,0,0
42,253,0,0,0,0,0,0,0,0,0,-1,1266,771,0,0
49,253,0,0,0,0,0,0,0,0,0,-1,1273,771,0,0
56,253,0,0,0,0,0,0,0,0,0,-1,1280,771,0,0
63,253,0,0,0,0,0,0,0,0,0,-1,1287,771,0,0
70,253,0,0,0,0,0,0,0,0,0,-1,1294,771,0,0
77,253,0,0,0,0,0,0,0,0,0,-1,1301,771,0,0
84,253,0,0,0,0,0,0,0,0,0,-1,1308,771,0,0
91,253,0,0,0,0,0,0,0,0,0,-1,1315,771,0,0
98,253,0,0,0,0,0,0,0,0,0,-1,1322,771,0,0
105,253,0,0,0,0,0,0,0,0,0,-1,1329,771,0,0
112,253,0,0,0,0,0,0,0,0,0,-1,1336,771,0,0
119,253,0,0,0,0,0,0,0,0,0,-1,1343,771,0,0
126,253,0,0,0,0,0,0,0,0,0,-1,1350,771,0,0
133,253,0,0,0,0,0,0,0,0,0,-1,1357,771,0,0
140,253,0,0,0,0,0,0,0,0,0,-1,1364,771,0,0
147,253,0,0,0,0,0,0,0,0,0,-1,1371,771,0,0
154,253,0,0,0,0,0,0,0,0,0,-1,1378,771,0,0
161,253,0,0,0,0,0,0,0,0,0,-1,1385,771,0,0
168,253,0,0,0,0,0,0,0,0,0,-1,1392,771,0,0
175,253,0,0,0,0,0,0,0,0,0,-1,1399,771,0,0
182,253,0,0,0,0,0,0,0,0,0,-1,1406,771,0,0
189,253,0,0,0,0,0,0,0,0,0,-1,1413,771,0,0
196,253,0,0,0,0,0,0,0,0,0,-1,1420,771,0,0
203,253,0,0,0,0,0,0,0,0,0,-1,1427,771,0,0
210,253,0,0,0,0,0,0,0,0,0,-1,1434,771,0,0
217,253,0,0,0,0,0,0,0,0,0,-1,1441,771,0,0
224,253,0,0,0,0,0,0,0,0,0,-1,1448,771,0,0
231,253,0,0,0,0,0,0,0,0,0,-1,1455,771,0,0
238,253,0,0,0,0,0,0,0,0,0,-1,1462,771,0,0
245,253,0,0,0,0,0,0,0,0,0,-1,1469,771,0,0
252,253,0,0,0,0,0,0,0,0,0,-1,1476,771,0,0
259,253,0,0,0,0,0,0,0,0,0,-1,1483,771,0,0
266,253,0,0,0,0,0,0,0,0,0,-1,1490,771,0,0
273,253,0,0,0,0,0,0,0,0,0,-1,1497,771,0,0
280,253,0,0,0,0,0,0,0,0,0,-1,1504,771,0,0
287,253,0,0,0,0,0,0,0,0,0,-1,1511,771,0,0
294,253,0,0,0,0,0,0,0,0,0,-1,1518,771,0,0
301,253,0,0,0,0,0,0,0,0,0,-1,1525,771,0,0
308,253,0,0,0,0,0,0,0,0,0,-1,1532,771,0,0
315,253,0,0,0,0,0,0,0,0,0,-1,1539,771,0,0
322,253,0,0,0,0,0,0,0,0,0,-1,1546,771,0,0
329,253,0,0,0,0,0,0,0,0,0,-1,1553,771,0,0
336,253,0,0,0,0,0,0,0,0,0,-1,1560,771,0,0
343,253,0,0,0,0,0,0,0,0,0,-1,1567,771,0,0
350,253,0,0,0,0,0,0,0,0,0,-1,1574,771,0,0
357,253,0,0,0,0,0,0,0,0,0,-1,1581,771,0,0
364,253,0,0,0,0,0,0,0,0,0,-1,1588,771,0,0
371,253,0,0,0,0,0,0,0,0,0,-1,1595,771,0,0
378,253,0,0,0,0,0,0,0,0,0,-1,1602,771,0,0
385,253,0,0,0,0,0,0,0,0,0,-1,1609,771,0,0
392,253,0,0,0,0,0,0,0,0,0,-1,1616,771,0,0
399,253,0,0,0,0,0,0,0,0,0,-1,1623,771,0,0
406,253,0,0,0,0,0,0,0,0,0,-1,1630,771,0,0
413,253,0,0,0,0,0,0,0,0,0,-1,1637,771,0,0
420,253,0,0,0,0,0,0,0,0,0,-1,1644,771,0,0
427,253,0,0,0,0,0,0,0,0,0,-1,1651,771,0,0
434,253,0,0,0,0,0,0,0,0,0,-1,1658,771,0,0
441,253,0,0,0,0,0,0,0,0,0,-1,1665,771,0,0
448,253,0,0,0,0,0,0,0,0,0,-1,1672,771,0,0
455,253,0,0,0,0,0,0,0,0,0,-1,1679,771,0,0
462,253,0,0,0,0,0,0,0,0,0,-1,1686,771,0,0
469,253,0,0,0,0,0,0,0,0,0,-1,1693,771,0,0
476,253,0,0,0,0,0,0,0,0,0,-1,1700,771,0,0
483,253,0,0,0,0,0,0,0,0,0,-1,1707,771,0,0
490,253,0,0,0,0,0,0,0,0,0,-1,1714,771,0,0
497,253,0,0,0,0,0,0,0,0,0,-1,1721,771,0,0
504,253,0,0,0,0,0,0,0,0,0,-1,1728,771,0,0
511,253,0,0,0,0,0,0,0,0,0,-1,1735,771,0,0
518,253,0,0,0,0,0,0,0,0,0,-1,1742,771,0,0
525,253,0,0,0,0,0,0,0,0,0,-1,1749,771,0,0
532,253,0,0,0,0,0,0,0,0,0,-1,1756,771,0,0
539,253,0,0,0,0,0,0,0,0,0,-1,1763,771,0,0
546,253,0,0,0,0,0,0,0,0,0,-1,1770,771,0,0
553,253,0,0,0,0,0,0,0,0,0,-1,1777,771,0,0
560,253,0,0,0,0,0,0,0,0,0,-1,1784,771,0,0
567,253,0,0,0,0,0,0,0,0,0,-1,1791,771,0,0
574,253,33.6445,3.01038,0.00388389,0.0130218,0.00085684,0.0131015,0.00380424,1.47811,0.00778259,0.0383421,1798,771,33.6446,-3.01035
581,253,33.6263,2.99695,0.00317857,0.0186752,-0.0044311,0.0198528,0.00200102,-1.31105,0.0126212,0.0408111,1805,771,33.6263,-2.99692
588,253,33.921,2.94635,0.00165261,0.0176413,-0.00719211,0.0204004,-0.00110646,-1.20449,0.0139837,0.0432987,1812,771,33.921,-2.94634
595,253,34.1887,2.87805,0,0,0,0,0,0,0,-1,1819,771,34.1888,-2.87807
602,253,32.9943,4.35645,0,0,0,0,0,0,0,-1,1826,771,32.9943,-4.35642
609,253,32.9192,3.91742,-0.00120389,0.00996248,-0.00860807,0.0146395,-0.00588086,-1.07309,0.0122018,0.0389136,1833,771,32.9191,-3.91742
616,253,32.7892,3.27191,-0.00184035,0.00734297,-0.00808408,0.0120484,-0.00654577,-1.04367,0.0108909,0.0393608,1840,771,32.7892,-3.27192
623,253,32.9856,3.09766,-0.00243001,0.00475147,-0.0072925,0.00928932,-0.00696786,-1.01417,0.00941793,0.0498781,1847,771,32.9856,-3.09768
630,253,33.561,2.96838,0,0,0,0,0,0,0,-1,1854,771,33.561,-2.96836
637,253,22.3192,-0.604004,0,0,0,0,0,0,0,-1,1861,771,22.3192,0.603986
644,253,23.4149,-0.484375,0,0,0,0,0,0,0,-1,1868,771,23.4149,0.484382
651,253,23.2467,-0.00836182,-0.00305848,-0.00111845,-0.00418356,0.00220607,-0.00638301,-0.899317,0.00515066,0.0240921,1875,771,23.2468,0.00833969
658,253,23.2578,0.412476,-0.00247505,-0.00204768,-0.00343782,0.00118309,-0.00570582,-0.816437,0.00425345,0.0178374,1882,771,23.2578,-0.412445
665,253,23.1796,0.811218,-0.00183505,-0.00258514,-0.00247114,0.000289347,-0.00470954,-0.710087,0.00324045,0.0189386,1889,771,23.1795,-0.811209
672,253,23.1967,1.20917,-0.00125722,-0.00205498,-0.00165804,4.92469e-05,-0.00336144,-0.667354,0.00225755,0.0150698,1896,771,23.1967,-1.20914
679,253,23.2219,1.63513,-0.000641978,-0.0011909,-0.00103574,0.000155049,-0.00198793,-0.655879,0.00137988,0.0125822,1903,771,23.2219,-1.63516
686,253,23.2052,2.0387,0.000498412,0.000333458,-0.000401399,0.00082572,6.15013e-06,-0.684072,0.000548442,0.0188601,1910,771,23.2052,-2.03871
693,253,23.1755,2.41125,0.00172795,0.00145379,0.000506957,0.00211604,0.00106571,0.653357,0.0012217,0.0181437,1917,771,23.1756,-2.41126
700,253,23.1699,2.77356,0.00292535,0.00255283,0.00143951,0.0041906,0.00128758,0.72106,0.00247864,0.0152364,1924,771,23.1699,-2.77358
707,253,23.175,3.16376,0.00443924,0.00389671,0.00263212,0.00681404,0.00152192,0.734049,0.00412994,0.0142119,1931,771,23.1751,-3.16374
714,253,23.1669,3.55017,0.00628437,0.00519039,0.00399245,0.00976712,0.00170763,0.717319,0.00602344,0.0181233,1938,771,23.1669,-3.55015
721,253,23.1758,3.99847,0.00857595,0.00668817,0.00576085,0.0134697,0.00179439,0.704197,0.00844547,0.0332717,1945,771,23.1758,-3.99848
728,253,23.2999,4.54474,0.0119809,0.0082397,0.0083442,0.0186616,0.00155901,0.67513,0.0119553,0.0480384,1952,771,23.3,-4.54473
735,253,23.484,5.07092,0,0,0,0,0,0,0,-1,1959,771,23.484,-5.07095
742,253,25.3022,4.034,0,0,0,0,0,0,0,-1,1966,771,25.3022,-4.03397
749,253,27.9397,6.60461,0,0,0,0,0,0,0,-1,1973,771,27.9397,-6.60463
756,253,0,0,0,0,0,0,0,0,0,-1,1980,771,0,0
763,253,0,0,0,0,0,0,0,0,0,-1,1987,771,0,0
770,253,0,0,0,0,0,0,0,0,0,-1,1994,771,0,0
777,253,0,0,0,0,0,0,0,0,0,-1,2001,771,0,0
784,253,0,0,0,0,0,0,0,0,0,-1,2008,771,0,0
791,253,0,0,0,0,0,0,0,0,0,-1,2015,771,0,0
798,253,0,0,0,0,0,0,0,0,0,-1,2022,771,0,0
805,253,0,0,0,0,0,0,0,0,0,-1,2029,771,0,0
812,253,0,0,0,0,0,0,0,0,0,-1,2036,771,0,0
-700,246,0,0,0,0,0,0,0,0,0,-1,524,778,0,0
-693,246,0,0,0,0,0,0,0,0,0,-1,531,778,0,0
-686,246,0,0,0,0,0,0,0,0,0,-1,538,778,0,0
-679,246,0,0,0,0,0,0,0,0,0,-1,545,778,0,0
-672,246,0,0,0,0,0,0,0,0,0,-1,552,778,0,0
-665,246,0,0,0,0,0,0,0,0,0,-1,559,778,0,0
-658,246,0,0,0,0,0,0,0,0,0,-1,566,778,0,0
-651,246,0,0,0,0,0,0,0,0,0,-1,573,778,0,0
-644,246,0,0,0,0,0,0,0,0,0,-1,580,778,0,0
-637,246,-24.1234,0.130432,0,0,0,0,0,0,0,-1,587,778,-24.1234,-0.130438
-630,246,-24.0781,1.38916,0,0,0,0,0,0,0,-1,594,778,-24.0781,-1.38913
-623,246,-23.9183,2.49573,0,0,0,0,0,0,0,-1,601,778,-23.9183,-2.49575
-616,246,-24.2255,2.01471,0,0,0,0,0,0,0,-1,608,778,-24.2255,-2.01468
-609,246,-24.5802,2.6778,0,0,0,0,0,0,0,-1,615,778,-24.5802,-2.67782
-602,246,-16.1534,1.11444,0,0,0,0,0,0,0,-1,622,778,-16.1534,-1.11447
-595,246,-15.7502,1.2146,0.0114719,-0.00362854,-0.00115718,0.0115601,-0.0037167,-0.0760401,0.00919939,0.0460876,629,778,-15.7502,-1.21463
-588,246,-15.2397,1.28778,0.00752976,-0.000232733,0.0018815,0.00796176,-0.000664735,0.225694,0.00554272,0.0288689,636,778,-15.2397,-1.28779
-581,246,-15.2491,1.00696,0.00479567,0.00121201,0.00266546,0.00621559,-0.00020791,0.489473,0.00421474,0.0156624,643,778,-15.2491,-1.00697
-574,246,-15.2345,0.596924,0.00302144,0.000968424,0.00226399,0.00448077,-0.000490902,0.572556,0.00316353,0.016626,650,778,-15.2345,-0.596931
-567,246,-15.2617,0.227112,0.00168266,0.000547647,0.00205887,0.00325081,-0.0010205,0.650918,0.00257567,0.0179926,657,778,-15.2617,-0.22714
-560,246,-15.2561,-0.116089,0.000598572,2.33078e-05,0.00202578,0.00235704,-0.00173516,0.714877,0.00237171,0.0142553,664,778,-15.2561,0.116101
-553,246,-15.2628,-0.44696,-0.00065665,-0.000865061,0.00236417,0.00160561,-0.00312732,0.763374,0.00277924,0.0127622,671,778,-15.2628,0.446966
-546,246,-15.3273,-0.796631,-0.00215698,-0.00184319,0.00274827,0.000752656,-0.00475283,0.813912,0.00344694,0.0107833,678,778,-15.3273,0.79661
-539,246,-15.3197,-1.18475,-0.00384064,-0.00264225,0.00320934,2.33541e-05,-0.00650624,0.877687,0.0043453,0.010664,685,778,-15.3197,1.18478
-532,246,-15.296,-1.58594,-0.00479387,-0.00322311,0.00353551,-0.000386795,-0.00763018,0.894694,0.00496288,0.011965,692,778,-15.296,1.58594
-525,246,-15.3061,-1.9491,-0.00520972,-0.0034471,0.00364501,-0.000578368,-0.00807846,0.904015,0.00520357,0.013368,699,778,-15.3061,1.94908
-518,246,-15.3643,-2.2135,-0.00542507,-0.00371035,0.00335433,-0.00110554,-0.00802988,0.910518,0.00502544,0.0218918,706,778,-15.3642,2.21353
-511,246,-15.6547,-2.57117,0,0,0,0,0,0,0,-1,713,778,-15.6547,2.57117
-504,246,-13.706,-2.17554,0,0,0,0,0,0,0,-1,720,778,-13.706,2.17551
-497,246,-22.2386,1.31207,0,0,0,0,0,0,0,-1,727,778,-22.2386,-1.31204
-490,246,-24.8116,0.688538,0,0,0,0,0,0,0,-1,734,778,-24.8116,-0.688541
-483,246,-24.6357,1.47601,0,0,0,0,0,0,0,-1,741,778,-24.6357,-1.47601
-476,246,-24.2029,1.37018,0,0,0,0,0,0,0,-1,748,778,-24.2029,-1.37018
-469,246,-24.3879,1.16821,0,0,0,0,0,0,0,-1,755,778,-24.3879,-1.16822
-462,246,-24.512,0.990234,0,0,0,0,0,0,0,-1,762,778,-24.5119,-0.990205
-455,246,0,0,0,0,0,0,0,0,0,-1,769,778,0,0
-448,246,0,0,0,0,0,0,0,0,0,-1,776,778,0,0
-441,246,0,0,0,0,0,0,0,0,0,-1,783,778,0,0
-434,246,0,0,0,0,0,0,0,0,0,-1,790,778,0,0
-427,246,0,0,0,0,0,0,0,0,0,-1,797,778,0,0
-420,246,0,0,0,0,0,0,0,0,0,-1,804,778,0,0
-413,246,0,0,0,0,0,0,0,0,0,-1,811,778,0,0
-406,246,0,0,0,0,0,0,0,0,0,-1,818,778,0,0
-399,246,0,0,0,0,0,0,0,0,0,-1,825,778,0,0
-392,246,0,0,0,0,0,0,0,0,0,-1,832,778,0,0
-385,246,0,0,0,0,0,0,0,0,0,-1,839,778,0,0
-378,246,0,0,0,0,0,0,0,0,0,-1,846,778,0,0
-371,246,0,0,0,0,0,0,0,0,0,-1,853,778,0,0
-364,246,0,0,0,0,0,0,0,0,0,-1,860,778,0,0
-357,246,0,0,0,0,0,0,0,0,0,-1,867,778,0,0
-350,246,0,0,0,0,0,0,0,0,0,-1,874,778,0,0
-343,246,0,0,0,0,0,0,0,0,0,-1,881,778,0,0
-336,246,0,0,0,0,0,0,0,0,0,-1,888,778,0,0
-329,246,0,0,0,0,0,0,0,0,0,-1,895,778,0,0
-322,246,0,0,0,0,0,0,0,0,0,-1,902,778,0,0
-315,246,0,0,0,0,0,0,0,0,0,-1,909,778,0,0
-308,246,0,0,0,0,0,0,0,0,0,-1,916,778,0,0
-301,246,0,0,0,0,0,0,0,0,0,-1,923,778,0,0
-294,246,0,0,0,0,0,0,0,0,0,-1,930,778,0,0
-287,246,0,0,0,0,0,0,0,0,0,-1,937,778,0,0
-280,246,0,0,0,0,0,0,0,0,0,-1,944,778,0,0
-273,246,0,0,0,0,0,0,0,0,0,-1,951,778,0,0
-266,246,0,0,0,0,0,0,0,0,0,-1,958,778,0,0
-259,246,0,0,0,0,0,0,0,0,0,-1,965,778,0,0
-252,246,0,0,0,0,0,0,0,0,0,-1,972,778,0,0
-245,246,0,0,0,0,0,0,0,0,0,-1,979,778,0,0
-238,246,0,0,0,0,0,0,0,0,0,-1,986,778,0,0
-231,246,0,0,0,0,0,0,0,0,0,-1,993,778,0,0
-224,246,0,0,0,0,0,0,0,0,0,-1,1000,778,0,0
-217,246,0,0,0,0,0,0,0,0,0,-1,1007,778,0,0
-210,246,0,0,0,0,0,0,0,0,0,-1,1014,778,0,0
-203,246,0,0,0,0,0,0,0,0,0,-1,1021,778,0,0
-196,246,0,0,0,0,0,0,0,0,0,-1,1028,778,0,0
-189,246,0,0,0,0,0,0,0,0,0,-1,1035,778,0,0
-182,246,0,0,0,0,0,0,0,0,0,-1,1042,778,0,0
-175,246,0,0,0,0,0,0,0,0,0,-1,1049,778,0,0
-168,246,0,0,0,0,0,0,0,0,0,-1,1056,778,0,0
-161,246,0,0,0,0,0,0,0,0,0,-1,1063,778,0,0
-154,246,0,0,0,0,0,0,0,0,0,-1,1070,778,0,0
-147,246,0,0,0,0,0,0,0,0,0,-1,1077,778,0,0
-140,246,0,0,0,0,0,0,0,0,0,-1,1084,778,0,0
-133,246,0,0,0,0,0,0,0,0,0,-1,1091,778,0,0
-126,246,0,0,0,0,0,0,0,0,0,-1,1098,778,0,0
-119,246,0,0,0,0,0,0,0,0,0,-1,1105,778,0,0
-112,246,0,0,0,0,0,0,0,0,0,-1,1112,778,0,0
-105,246,0,0,0,0,0,0,0,0,0,-1,1119,778,0,0
-98,246,0,0,0,0,0,0,0,0,0,-1,1126,778,0,0
-91,246,0,0,0,0,0,0,0,0,0,-1,1133,778,0,0
-84,246,0,0,0,0,0,0,0,0,0,-1,1140,778,0,0
-77,246,0,0,0,0,0,0,0,0,0,-1,1147,778,0,0
-70,246,0,0,0,0,0,0,0,0,0,-1,1154,778,0,0
-63,246,0,0,0,0,0,0,0,0,0,-1,1161,778,0,0
-56,246,0,0,0,0,0,0,0,0,0,-1,1168,778,0,0
-49,246,0,0,0,0,0,0,0,0,0,-1,1175,778,0,0
-42,246,0,0,0,0,0,0,0,0,0,-1,1182,778,0,0
-35,246,0,0,0,0,0,0,0,0,0,-1,1189,778,0,0
-28,246,0,0,0,0,0,0,0,0,0,-1,1196,778,0,0
-21,246,0,0,0,0,0,0,0,0,0,-1,1203,778,0,0
-14,246,0,0,0,0,0,0,0,0,0,-1,1210,778,0,0
-7,246,0,0,0,0,0,0,0,0,0,-1,1217,778,0,0
0,246,0,0,0,0,0,0,0,0,0,-1,1224,778,0,0
7,246,0,0,0,0,0,0,0,0,0,-1,1231,778,0,0
14,246,0,0,0,0,0,0,0,0,0,-1,1238,778,0,0
21,246,0,0,0,0,0,0,0,0,0,-1,1245,778,0,0
28,246,0,0,0,0,0,0,0,0,0,-1,1252,778,0,0
35,246,0,0,0,0,0,0,0,0,0,-1,1259,778,0,0
42,246,0,0,0,0,0,0,0,0,0,-1,1266,778,0,0
49,246,0,0,0,0,0,0,0,0,0,-1,1273,778,0,0
56,246,0,0,0,0,0,0,0,0,0,-1,1280,778,0,0
63,246,0,0,0,0,0,0,0,0,0,-1,1287,778,0,0
70,246,0,0,0,0,0,0,0,0,0,-1,1294,778,0,0
77,246,0,0,0,0,0,0,0,0,0,-1,1301,778,0,0
84,246,0,0,0,0,0,0,0,0,0,-1,1308,778,0,0
91,246,0,0,0,0,0,0,0,0,0,-1,1315,778,0,0
98,246,0,0,0,0,0,0,0,0,0,-1,1322,778,0,0
105,246,0,0,0,0,0,0,0,0,0,-1,1329,778,0,0
112,246,0,0,0,0,0,0,0,0,0,-1,1336,778,0,0
119,246,0,0,0,0,0,0,0,0,0,-1,1343,778,0,0
126,246,0,0,0,0,0,0,0,0,0,-1,1350,778,0,0
133,246,0,0,0,0,0,0,0,0,0,-1,1357,778,0,0
140,246,0,0,0,0,0,0,0,0,0,-1,1364,778,0,0
147,246,0,0,0,0,0,0,0,0,0,-1,1371,778,0,0
154,246,0,0,0,0,0,0,0,0,0,-1,1378,778,0,0
161,246,0,0,0,0,0,0,0,0,0,-1,1385,778,0,0
168,246,0,0,0,0,0,0,0,0,0,-1,1392,778,0,0
175,246,0,0,0,0,0,0,0,0,0,-1,1399,778,0,0
182,246,0,0,0,0,0,0,0,0,0,-1,1406,778,0,0
189,246,0,0,0,0,0,0,0,0,0,-1,1413,778,0,0
196,246,0,0,0,0,0,0,0,0,0,-1,1420,778,0,0
203,246,0,0,0,0,0,0,0,0,0,-1,1427,778,0,0
210,246,0,0,0,0,0,0,0,0,0,-1,1434,778,0,0
217,246,0,0,0,0,0,0,0,0,0,-1,1441,778,0,0
224,246,0,0,0,0,0,0,0,0,0,-1,1448,778,0,0
231,246,0,0,0,0,0,0,0,0,0,-1,1455,778,0,0
238,246,0,0,0,0,0,0,0,0,0,-1,1462,778,0,0
245,246,0,0,0,0,0,0,0,0,0,-1,1469,778,0,0
252,246,0,0,0,0,0,0,0,0,0,-1,1476,778,0,0
259,246,0,0,0,0,0,0,0,0,0,-1,1483,778,0,0
266,246,0,0,0,0,0,0,0,0,0,-1,1490,778,0,0
273,246,0,0,0,0,0,0,0,0,0,-1,1497,778,0,0
280,246,0,0,0,0,0,0,0,0,0,-1,1504,778,0,0
287,246,0,0,0,0,0,0,0,0,0,-1,1511,778,0,0
294,246,0,0,0,0,0,0,0,0,0,-1,1518,778,0,0
301,246,0,0,0,0,0,0,0,0,0,-1,1525,778,0,0
308,246,0,0,0,0,0,0,0,0,0,-1,1532,778,0,0
315,246,0,0,0,0,0,0,0,0,0,-1,1539,778,0,0
322,246,0,0,0,0,0,0,0,0,0,-1,1546,778,0,0
329,246,0,0,0,0,0,0,0,0,0,-1,1553,778,0,0
336,246,0,0,0,0,0,0,0,0,0,-1,1560,778,0,0
343,246,0,0,0,0,0,0,0,0,0,-1,1567,778,0,0
350,246,0,0,0,0,0,0,0,0,0,-1,1574,778,0,0
357,246,0,0,0,0,0,0,0,0,0,-1,1581,778,0,0
364,246,0,0,0,0,0,0,0,0,0,-1,1588,778,0,0
371,246,0,0,0,0,0,0,0,0,0,-1,1595,778,0,0
378,246,0,0,0,0,0,0,0,0,0,-1,1602,778,0,0
385,246,0,0,0,0,0,0,0,0,0,-1,1609,778,0,0
392,246,0,0,0,0,0,0,0,0,0,-1,1616,778,0,0
399,246,0,0,0,0,0,0,0,0,0,-1,1623,778,0,0
406,246,0,0,0,0,0,0,0,0,0,-1,1630,778,0,0
413,246,0,0,0,0,0,0,0,0,0,-1,1637,778,0,0
420,246,0,0,0,0,0,0,0,0,0,-1,1644,778,0,0
427,246,0,0,0,0,0,0,0,0,0,-1,1651,778,0,0
434,246,0,0,0,0,0,0,0,0,0,-1,1658,778,0,0
441,246,0,0,0,0,0,0,0,0,0,-1,1665,778,0,0
448,246,0,0,0,0,0,0,0,0,0,-1,1672,778,0,0
455,246,0,0,0,0,0,0,0,0,0,-1,1679,778,0,0
462,246,0,0,0,0,0,0,0,0,0,-1,1686,778,0,0
469,246,0,0,0,0,0,0,0,0,0,-1,1693,778,0,0
476,246,0,0,0,0,0,0,0,0,0,-1,1700,778,0,0
483,246,0,0,0,0,0,0,0,0,0,-1,1707,778,0,0
490,246,0,0,0,0,0,0,0,0,0,-1,1714,778,0,0
497,246,0,0,0,0,0,0,0,0,0,-1,1721,778,0,0
504,246,0,0,0,0,0,0,0,0,0,-1,1728,778,0,0
511,246,0,0,0,0,0,0,0,0,0,-1,1735,778,0,0
518,246,0,0,0,0,0,0,0,0,0,-1,1742,778,0,0
525,246,0,0,0,0,0,0,0,0,0,-1,1749,778,0,0
532,246,0,0,0,0,0,0,0,0,0,-1,1756,778,0,0
539,246,0,0,0,0,0,0,0,0,0,-1,1763,778,0,0
546,246,0,0,0,0,0,0,0,0,0,-1,1770,778,0,0
553,246,0,0,0,0,0,0,0,0,0,-1,1777,778,0,0
560,246,0,0,0,0,0,0,0,0,0,-1,1784,778,0,0
567,246,0,0,0,0,0,0,0,0,0,-1,1791,778,0,0
574,246,0,0,0,0,0,0,0,0,0,-1,1798,778,0,0
581,246,33.8717,2.75861,0.00338547,0.0144379,-0.00175122,0.0147087,0.00311463,-1.41736,0.00895013,0.0429575,1805,778,33.8717,-2.75859
588,246,33.9138,2.8266,0.0018384,0.0149313,-0.00515636,0.0167181,5.15394e-05,-1.23721,0.0111283,0.0443685,1812,778,33.9138,-2.8266
595,246,33.7668,3.14001,0,0,0,0,0,0,0,-1,1819,778,33.7668,-3.14001
602,246,33.5743,3.3501,-0.000587113,0.0117169,-0.00769917,0.0154201,-0.00429028,-1.12248,0.0119692,0.0407668,1826,778,33.5744,-3.35008
609,246,33.2904,3.37848,-0.00144672,0.00923054,-0.00774586,0.0132993,-0.0055155,-1.08713,0.0111683,0.0456455,1833,778,33.2904,-3.37848
616,246,33.2017,3.07416,-0.00217181,0.006842,-0.00733909,0.0109476,-0.00627736,-1.06076,0.0100659,0.0470393,1840,778,33.2016,-3.07417
623,246,33.4913,2.98615,-0.00274072,0.00447304,-0.00662147,0.00840628,-0.00667396,-1.03479,0.00872571,0.0441168,1847,778,33.4914,-2.98614
630,246,33.9215,2.92444,0,0,0,0,0,0,0,-1,1854,778,33.9215,-2.92442
637,246,28.2345,2.4433,0,0,0,0,0,0,0,-1,1861,778,28.2345,-2.4433
644,246,23.5294,-0.373718,0,0,0,0,0,0,0,-1,1868,778,23.5294,0.373689
651,246,23.5696,0.0154419,-0.00343248,-0.00108067,-0.00390072,0.00181754,-0.00633069,-0.931795,0.00493906,0.0411708,1875,778,23.5696,-0.0154285
658,246,23.6008,0.418518,-0.00291489,-0.00214938,-0.00335219,0.00084183,-0.00590611,-0.842242,0.00424592,0.0226651,1882,778,23.6008,-0.418498
665,246,23.5634,0.821594,-0.00234157,-0.00288492,-0.00257687,-2.2094e-05,-0.0052044,-0.732877,0.00346226,0.0194082,1889,778,23.5634,-0.821566
672,246,23.5848,1.23059,-0.00182868,-0.00258361,-0.00189892,-0.000270068,-0.00414222,-0.687288,0.002676,0.0188305,1896,778,23.5848,-1.23058
679,246,23.645,1.63177,-0.00124435,-0.00189718,-0.00134944,-0.000182408,-0.00295912,-0.666732,0.00191484,0.019789,1903,778,23.6451,-1.63178
686,246,23.651,2.03461,-3.36226e-05,-0.000398231,-0.000772544,0.000577836,-0.00100969,-0.669528,0.000927793,0.0213226,1910,778,23.651,-2.03464
693,246,23.613,2.41235,0.00125019,0.000692046,0.000147062,0.00128657,0.000655668,0.242493,0.000742847,0.0168418,1917,778,23.613,-2.41237
700,246,23.5919,2.76477,0.00245076,0.00169391,0.0010967,0.00323248,0.000912183,0.619264,0.00192439,0.0142391,1924,778,23.5919,-2.76474
707,246,23.5884,3.15625,0.00381899,0.00287292,0.00225346,0.00564853,0.00104338,0.681943,0.00347057,0.0132736,1931,778,23.5884,-3.15622
714,246,23.5723,3.56409,0.00539086,0.00390321,0.00351963,0.00824441,0.00104967,0.681262,0.00518194,0.0117808,1938,778,23.5723,-3.56411
721,246,23.5685,3.91479,0.00716767,0.00487417,0.00506078,0.01121,0.000831842,0.673982,0.00721206,0.0182077,1945,778,23.5685,-3.9148
728,246,23.7368,4.36951,0.009619,0.0056186,0.00723341,0.0151237,0.000113926,0.650508,0.0100447,0.0383783,1952,778,23.7368,-4.36949
735,246,23.7312,5.19128,0,0,0,0,0,0,0,-1,1959,778,23.7312,-5.19129
742,246,23.52,6.10669,0,0,0,0,0,0,0,-1,1966,778,23.52,-6.10671
749,246,30.3331,3.97662,0,0,0,0,0,0,0,-1,1973,778,30.3331,-3.97664
756,246,30.812,4.54846,0,0,0,0,0,0,0,-1,1980,778,30.8121,-4.54846
763,246,0,0,0,0,0,0,0,0,0,-1,1987,778,0,0
770,246,0,0,0,0,0,0,0,0,0,-1,1994,778,0,0
777,246,0,0,0,0,0,0,0,0,0,-1,2001,778,0,0
784,246,0,0,0,0,0,0,0,0,0,-1,2008,778,0,0
791,246,0,0,0,0,0,0,0,0,0,-1,2015,778,0,0
798,246,0,0,0,0,0,0,0,0,0,-1,2022,778,0,0
805,246,0,0,0,0,0,0,0,0,0,-1,2029,778,0,0
812,246,0,0,0,0,0,0,0,0,0,-1,2036,778,0,0
-700,239,0,0,0,0,0,0,0,0,0,-1,524,785,0,0
-693,239,0,0,0,0,0,0,0,0,0,-1,531,785,0,0
-686,239,0,0,0,0,0,0,0,0,0,-1,538,785,0,0
-679,239,0,0,0,0,0,0,0,0,0,-1,545,785,0,0
-672,239,0,0,0,0,0,0,0,0,0,-1,552,785,0,0
-665,239,0,0,0,0,0,0,0,0,0,-1,559,785,0,0
-658,239,0,0,0,0,0,0,0,0,0,-1,566,785,0,0
-651,239,0,0,0,0,0,0,0,0,0,-1,573,785,0,0
-644,239,0,0,0,0,0,0,0,0,0,-1,580,785,0,0
-637,239,-23.2709,0.465088,0,0,0,0,0,0,0,-1,587,785,-23.271,-0.465116
-630,239,-23.4006,0.956299,0,0,0,0,0,0,0,-1,594,785,-23.4005,-0.956285
-623,239,-23.3302,1.56317,0,0,0,0,0,0,0,-1,601,785,-23.3302,-1.56317
-616,239,-23.8334,2.11334,0,0,0,0,0,0,0,-1,608,785,-23.8334,-2.11337
-609,239,-24.415,2.79736,0,0,0,0,0,0,0,-1,615,785,-24.415,-2.79739
-602,239,-16.5756,1.89313,0,0,0,0,0,0,0,-1,622,785,-16.5757,-1.89315
-595,239,-16.0993,1.62671,0.0101621,-0.00352321,-0.0028174,0.0107195,-0.00408053,-0.195293,0.00882669,0.0447807,629,785,-16.0993,-1.62672
-588,239,-15.5986,1.42822,0.00672222,-0.000657522,0.000384076,0.00674216,-0.000677457,0.0518578,0.00473677,0.0194035,636,785,-15.5986,-1.42823
-581,239,-15.6231,1.00897,0.00446774,0.000503462,0.00157018,0.00501431,-4.31011e-05,0.334972,0.00335733,0.0108169,643,785,-15.6231,-1.00896
-574,239,-15.6036,0.595398,0.00313345,0.000426549,0.00146466,0.00377426,-0.000214255,0.41242,0.00259054,0.0118433,650,785,-15.6036,-0.595387
-567,239,-15.6434,0.232727,0.00204597,0.000123067,0.00155758,0.00291494,-0.0007459,0.508886,0.00223383,0.0139548,657,785,-15.6434,-0.23273
-560,239,-15.6644,-0.0858154,0.000967731,-0.00027103,0.00176972,0.00222333,-0.00152663,0.617066,0.00217746,0.0137917,664,785,-15.6644,0.0857935
-553,239,-15.6743,-0.437744,-0.000545606,-0.00111456,0.00237247,0.00155938,-0.00321954,0.72573,0.00281406,0.0142062,671,785,-15.6742,0.437732
-546,239,-15.7325,-0.808228,-0.00237749,-0.00206838,0.00291804,0.000699189,-0.00514506,0.811856,0.00368528,0.0155989,678,785,-15.7326,0.80825
-539,239,-15.7286,-1.18878,-0.00422494,-0.00282301,0.00342355,-2.94e-05,-0.00701855,0.886377,0.00466926,0.0174172,685,785,-15.7286,1.1888
-532,239,-15.6634,-1.57275,-0.00529229,-0.00320069,0.00374892,-0.000354434,-0.00813854,0.921421,0.00531149,0.015215,692,785,-15.6634,1.57274
-525,239,-15.6879,-1.89526,-0.00589229,-0.00334773,0.00387738,-0.000539223,-0.00870079,0.943928,0.0056294,0.0196853,699,785,-15.6879,1.89524
-518,239,-15.8038,-2.03284,-0.00636245,-0.00354158,0.00369443,-0.000997504,-0.00890652,0.967746,0.00563469,0.0471353,706,785,-15.8038,2.03285
-511,239,-15.8786,-2.09137,0,0,0,0,0,0,0,-1,713,785,-15.8786,2.09137
-504,239,-14.8194,-2.07751,0,0,0,0,0,0,0,-1,720,785,-14.8194,2.07754
-497,239,-24.1104,0.64563,0,0,0,0,0,0,0,-1,727,785,-24.1103,-0.645601
-490,239,-24.6221,0.769592,-0.00476019,-0.00244031,0.000426789,-0.00236429,-0.00483622,1.39451,0.00279242,0.0467498,734,785,-24.6221,-0.769585
-483,239,-24.5472,1.32611,-0.00254139,-0.00126892,-0.00160373,-0.00017983,-0.00363048,-0.974236,0.00236266,0.0460392,741,785,-24.5472,-1.32611
-476,239,-24.2889,1.22076,0.000606732,0.000518098,-0.00426271,0.00482535,-0.00370052,-0.7802,0.00493668,0.0430721,748,785,-24.289,-1.22076
-469,239,-24.3803,1.08063,0.00418965,0.00309819,-0.00736374,0.0110279,-0.00374001,-0.748411,0.00886556,0.0423199,755,785,-24.3803,-1.08065
-462,239,-24.3663,1.07977,0,0,0,0,0,0,0,-1,762,785,-24.3664,-1.07979
-455,239,0,0,0,0,0,0,0,0,0,-1,769,785,0,0
-448,239,0,0,0,0,0,0,0,0,0,-1,776,785,0,0
-441,239,0,0,0,0,0,0,0,0,0,-1,783,785,0,0
-434,239,0,0,0,0,0,0,0,0,0,-1,790,785,0,0
-427,239,0,0,0,0,0,0,0,0,0,-1,797,785,0,0
-420,239,0,0,0,0,0,0,0,0,0,-1,804,785,0,0
-413,239,0,0,0,0,0,0,0,0,0,-1,811,785,0,0
-406,239,0,0,0,0,0,0,0,0,0,-1,818,785,0,0
-399,239,0,0,0,0,0,0,0,0,0,-1,825,785,0,0
-392,239,0,0,0,0,0,0,0,0,0,-1,832,785,0,0
-385,239,0,0,0,0,0,0,0,0,0,-1,839,785,0,0
-378,239,0,0,0,0,0,0,0,0,0,-1,846,785,0,0
-371,239,0,0,0,0,0,0,0,0,0,-1,853,785,0,0
-364,239,0,0,0,0,0,0,0,0,0,-1,860,785,0,0
-357,239,0,0,0,0,0,0,0,0,0,-1,867,785,0,0
-350,239,0,0,0,0,0,0,0,0,0,-1,874,785,0,0
-343,239,0,0,0,0,0,0,0,0,0,-1,881,785,0,0
-336,239,0,0,0,0,0,0,0,0,0,-1,888,785,0,0
-329,239,0,0,0,0,0,0,0,0,0,-1,895,785,0,0
-322,239,0,0,0,0,0,0,0,0,0,-1,902,785,0,0
-315,239,0,0,0,0,0,0,0,0,0,-1,909,785,0,0
-308,239,0,0,0,0,0,0,0,0,0,-1,916,785,0,0
-301,239,0,0,0,0,0,0,0,0,0,-1,923,785,0,0
-294,239,0,0,0,0,0,0,0,0,0,-1,930,785,0,0
-287,239,0,0,0,0,0,0,0,0,0,-1,937,785,0,0
-280,239,0,0,0,0,0,0,0,0,0,-1,944,785,0,0
-273,239,0,0,0,0,0,0,0,0,0,-1,951,785,0,0
-266,239,0,0,0,0,0,0,0,0,0,-1,958,785,0,0
-259,239,0,0,0,0,0,0,0,0,0,-1,965,785,0,0
-252,239,0,0,0,0,0,0,0,0,0,-1,972,785,0,0
-245,239,0,0,0,0,0,0,0,0,0,-1,979,785,0,0
-238,239,0,0,0,0,0,0,0,0,0,-1,986,785,0,0
-231,239,0,0,0,0,0,0,0,0,0,-1,993,785,0,0
-224,239,0,0,0,0,0,0,0,0,0,-1,1000,785,0,0
-217,239,0,0,0,0,0,0,0,0,0,-1,1007,785,0,0
-210,239,0,0,0,0,0,0,0,0,0,-1,1014,785,0,0
-203,239,0,0,0,0,0,0,0,0,0,-1,1021,785,0,0
-196,239,0,0,0,0,0,0,0,0,0,-1,1028,785,0,0
-189,239,0,0,0,0,0,0,0,0,0,-1,1035,785,0,0
-182,239,0,0,0,0,0,0,0,0,0,-1,1042,785,0,0
-175,239,0,0,0,0,0,0,0,0,0,-1,1049,785,0,0
-168,239,0,0,0,0,0,0,0,0,0,-1,1056,785,0,0
-161,239,0,0,0,0,0,0,0,0,0,-1,1063,785,0,0
-154,239,0,0,0,0,0,0,0,0,0,-1,1070,785,0,0
-147,239,0,0,0,0,0,0,0,0,0,-1,1077,785,0,0
-140,239,0,0,0,0,0,0,0,0,0,-1,1084,785,0,0
-133,239,0,0,0,0,0,0,0,0,0,-1,1091,785,0,0
-126,239,0,0,0,0,0,0,0,0,0,-1,1098,785,0,0
-119,239,0,0,0,0,0,0,0,0,0,-1,1105,785,0,0
-112,239,0,0,0,0,0,0,0,0,0,-1,1112,785,0,0
-105,239,0,0,0,0,0,0,0,0,0,-1,1119,785,0,0
-98,239,0,0,0,0,0,0,0,0,0,-1,1126,785,0,0
-91,239,0,0,0,0,0,0,0,0,0,-1,1133,785,0,0
-84,239,0,0,0,0,0,0,0,0,0,-1,1140,785,0,0
-77,239,0,0,0,0,0,0,0,0,0,-1,1147,785,0,0
-70,239,0,0,0,0,0,0,0,0,0,-1,1154,785,0,0
-63,239,0,0,0,0,0,0,0,0,0,-1,1161,785,0,0
-56,239,0,0,0,0,0,0,0,0,0,-1,1168,785,0,0
-49,239,0,0,0,0,0,0,0,0,0,-1,1175,785,0,0
-42,239,0,0,0,0,0,0,0,0,0,-1,1182,785,0,0
-35,239,0,0,0,0,0,0,0,0,0,-1,1189,785,0,0
-28,239,0,0,0,0,0,0,0,0,0,-1,1196,785,0,0
-21,239,0,0,0,0,0,0,0,0,0,-1,1203,785,0,0
-14,239,0,0,0,0,0,0,0,0,0,-1,1210,785,0,0
-7,239,0,0,0,0,0,0,0,0,0,-1,1217,785,0,0
0,239,0,0,0,0,0,0,0,0,0,-1,1224,785,0,0
7,239,0,0,0,0,0,0,0,0,0,-1,1231,785,0,0
14,239,0,0,0,0,0,0,0,0,0,-1,1238,785,0,0
21,239,0,0,0,0,0,0,0,0,0,-1,1245,785,0,0
28,239,0,0,0,0,0,0,0,0,0,-1,1252,785,0,0
35,239,0,0,0,0,0,0,0,0,0,-1,1259,785,0,0
42,239,0,0,0,0,0,0,0,0,0,-1,1266,785,0,0
49,239,0,0,0,0,0,0,0,0,0,-1,1273,785,0,0
56,239,0,0,0,0,0,0,0,0,0,-1,1280,785,0,0
63,239,0,0,0,0,0,0,0,0,0,-1,1287,785,0,0
70,239,0,0,0,0,0,0,0,0,0,-1,1294,785,0,0
77,239,0,0,0,0,0,0,0,0,0,-1,1301,785,0,0
84,239,0,0,0,0,0,0,0,0,0,-1,1308,785,0,0
91,239,0,0,0,0,0,0,0,0,0,-1,1315,785,0,0
98,239,0,0,0,0,0,0,0,0,0,-1,1322,785,0,0
105,239,0,0,0,0,0,0,0,0,0,-1,1329,785,0,0
112,239,0,0,0,0,0,0,0,0,0,-1,1336,785,0,0
119,239,0,0,0,0,0,0,0,0,0,-1,1343,785,0,0
126,239,0,0,0,0,0,0,0,0,0,-1,1350,785,0,0
133,239,0,0,0,0,0,0,0,0,0,-1,1357,785,0,0
140,239,0,0,0,0,0,0,0,0,0,-1,1364,785,0,0
147,239,0,0,0,0,0,0,0,0,0,-1,1371,785,0,0
154,239,0,0,0,0,0,0,0,0,0,-1,1378,785,0,0
161,239,0,0,0,0,0,0,0,0,0,-1,1385,785,0,0
168,239,0,0,0,0,0,0,0,0,0,-1,1392,785,0,0
175,239,0,0,0,0,0,0,0,0,0,-1,1399,785,0,0
182,239,0,0,0,0,0,0,0,0,0,-1,1406,785,0,0
189,239,0,0,0,0,0,0,0,0,0,-1,1413,785,0,0
196,239,0,0,0,0,0,0,0,0,0,-1,1420,785,0,0
203,239,0,0,0,0,0,0,0,0,0,-1,1427,785,0,0
210,239,0,0,0,0,0,0,0,0,0,-1,1434,785,0,0
217,239,0,0,0,0,0,0,0,0,0,-1,1441,785,0,0
224,239,0,0,0,0,0,0,0,0,0,-1,1448,785,0,0
231,239,0,0,0,0,0,0,0,0,0,-1,1455,785,0,0
238,239,0,0,0,0,0,0,0,0,0,-1,1462,785,0,0
245,239,0,0,0,0,0,0,0,0,0,-1,1469,785,0,0
252,239,0,0,0,0,0,0,0,0,0,-1,1476,785,0,0
259,239,0,0,0,0,0,0,0,0,0,-1,1483,785,0,0
266,239,0,0,0,0,0,0,0,0,0,-1,1490,785,0,0
273,239,0,0,0,0,0,0,0,0,0,-1,1497,785,0,0
280,239,0,0,0,0,0,0,0,0,0,-1,1504,785,0,0
287,239,0,0,0,0,0,0,0,0,0,-1,1511,785,0,0
294,239,0,0,0,0,0,0,0,0,0,-1,1518,785,0,0
301,239,0,0,0,0,0,0,0,0,0,-1,1525,785,0,0
308,239,0,0,0,0,0,0,0,0,0,-1,1532,785,0,0
315,239,0,0,0,0,0,0,0,0,0,-1,1539,785,0,0
322,239,0,0,0,0,0,0,0,0,0,-1,1546,785,0,0
329,239,0,0,0,0,0,0,0,0,0,-1,1553,785,0,0
336,239,0,0,0,0,0,0,0,0,0,-1,1560,785,0,0
343,239,0,0,0,0,0,0,0,0,0,-1,1567,785,0,0
350,239,0,0,0,0,0,0,0,0,0,-1,1574,785,0,0
357,239,0,0,0,0,0,0,0,0,0,-1,1581,785,0,0
364,239,0,0,0,0,0,0,0,0,0,-1,1588,785,0,0
371,239,0,0,0,0,0,0,0,0,0,-1,1595,785,0,0
378,239,0,0,0,0,0,0,0,0,0,-1,1602,785,0,0
385,239,0,0,0,0,0,0,0,0,0,-1,1609,785,0,0
392,239,0,0,0,0,0,0,0,0,0,-1,1616,785,0,0
399,239,0,0,0,0,0,0,0,0,0,-1,1623,785,0,0
406,239,0,0,0,0,0,0,0,0,0,-1,1630,785,0,0
413,239,0,0,0,0,0,0,0,0,0,-1,1637,785,0,0
420,239,0,0,0,0,0,0,0,0,0,-1,1644,785,0,0
427,239,0,0,0,0,0,0,0,0,0,-1,1651,785,0,0
434,239,0,0,0,0,0,0,0,0,0,-1,1658,785,0,0
441,239,0,0,0,0,0,0,0,0,0,-1,1665,785,0,0
448,239,0,0,0,0,0,0,0,0,0,-1,1672,785,0,0
455,239,0,0,0,0,0,0,0,0,0,-1,1679,785,0,0
462,239,0,0,0,0,0,0,0,0,0,-1,1686,785,0,0
469,239,0,0,0,0,0,0,0,0,0,-1,1693,785,0,0
476,239,0,0,0,0,0,0,0,0,0,-1,1700,785,0,0
483,239,0,0,0,0,0,0,0,0,0,-1,1707,785,0,0
490,239,0,0,0,0,0,0,0,0,0,-1,1714,785,0,0
497,239,0,0,0,0,0,0,0,0,0,-1,1721,785,0,0
504,239,0,0,0,0,0,0,0,0,0,-1,1728,785,0,0
511,239,0,0,0,0,0,0,0,0,0,-1,1735,785,0,0
518,239,0,0,0,0,0,0,0,0,0,-1,1742,785,0,0
525,239,0,0,0,0,0,0,0,0,0,-1,1749,785,0,0
532,239,0,0,0,0,0,0,0,0,0,-1,1756,785,0,0
539,239,0,0,0,0,0,0,0,0,0,-1,1763,785,0,0
546,239,0,0,0,0,0,0,0,0,0,-1,1770,785,0,0
553,239,0,0,0,0,0,0,0,0,0,-1,1777,785,0,0
560,239,0,0,0,0,0,0,0,0,0,-1,1784,785,0,0
567,239,0,0,0,0,0,0,0,0,0,-1,1791,785,0,0
574,239,0,0,0,0,0,0,0,0,0,-1,1798,785,0,0
581,239,33.7238,3.00037,0.00342324,0.0102914,0.000602578,0.0103439,0.00337077,1.48395,0.00609156,0.0394671,1805,785,33.7238,-3.00035
588,239,33.7441,3.05304,0.00194862,0.0119452,-0.00292078,0.012736,0.00115779,-1.30638,0.00813227,0.0408107,1812,785,33.7442,-3.05303
595,239,33.8959,2.83447,0.000503061,0.0118189,-0.00515915,0.0138179,-0.00149597,-1.20114,0.00974893,0.0365089,1819,785,33.8958,-2.83448
602,239,33.8964,2.92981,-0.000653655,0.0105242,-0.0061742,0.0132634,-0.0033928,-1.15324,0.0101637,0.039069,1826,785,33.8963,-2.92983
609,239,34.0593,2.90686,0,0,0,0,0,0,0,-1,1833,785,34.0593,-2.90686
616,239,34.0459,2.80023,0,0,0,0,0,0,0,-1,1840,785,34.0458,-2.80024
623,239,33.5751,2.91864,-0.00295635,0.00411733,-0.00568283,0.00727405,-0.00611307,-1.06375,0.00773874,0.0444443,1847,785,33.575,-2.91862
630,239,33.4291,3.2334,-0.0030671,0.0024165,-0.00521655,0.0055679,-0.00621851,-1.02736,0.00680834,0.0434651,1854,785,33.4291,-3.23338
637,239,33.1805,3.56494,0,0,0,0,0,0,0,-1,1861,785,33.1806,-3.56492
644,239,18.3466,0.735413,0,0,0,0,0,0,0,-1,1868,785,18.3465,-0.735414
651,239,23.8944,0.020752,0,0,0,0,0,0,0,-1,1875,785,23.8945,-0.0207768
658,239,23.9781,0.481628,-0.00327555,-0.00211616,-0.00322283,0.000578698,-0.00597041,-0.874382,0.00418652,0.0271135,1882,785,23.9782,-0.481621
665,239,23.991,0.874207,-0.00282217,-0.0029315,-0.00267093,-0.000205351,-0.00554832,-0.775166,0.00363237,0.0151025,1889,785,23.9909,-0.874194
672,239,23.983,1.24237,-0.00244606,-0.00284642,-0.00218388,-0.00045321,-0.00483927,-0.739695,0.00308622,0.0206758,1896,785,23.983,-1.24238
679,239,24.0184,1.63177,-0.00197309,-0.00238822,-0.00177067,-0.00039786,-0.00396345,-0.727052,0.00252017,0.0211,1903,785,24.0184,-1.63178
686,239,24.0487,2.0462,-0.000806956,-0.00100428,-0.00130581,0.000403914,-0.00221515,-0.747693,0.00162819,0.0216587,1910,785,24.0487,-2.0462
693,239,24.036,2.4245,0.000444779,2.21778e-05,-0.000411477,0.000696038,-0.000229081,-0.548197,0.000556336,0.0145277,1917,785,24.036,-2.42453
700,239,24.0104,2.78821,0.00158642,0.000959006,0.000560896,0.00191537,0.000630048,0.530424,0.00112721,0.0114285,1924,785,24.0104,-2.78823
707,239,23.9927,3.16211,0.00275046,0.00202594,0.00173049,0.0041562,0.000620202,0.682218,0.00258895,0.0112631,1931,785,23.9927,-3.16213
714,239,23.9823,3.53937,0.00402071,0.00287601,0.00296874,0.00647177,0.000424948,0.690171,0.00418007,0.0105022,1938,785,23.9823,-3.53934
721,239,23.9347,3.9386,0.00526172,0.00346784,0.00438659,0.00884214,-0.000112572,0.684552,0.00593264,0.0228578,1945,785,23.9347,-3.93857
728,239,23.8594,4.34729,0.00675873,0.00366908,0.00630229,0.0117028,-0.00127496,0.665207,0.0082597,0.0397298,1952,785,23.8594,-4.34731
735,239,23.9753,4.82397,0,0,0,0,0,0,0,-1,1959,785,23.9753,-4.82396
742,239,29.3534,3.4256,0.0106943,0.0021248,0.0124315,0.0195587,-0.00673959,0.619438,0.0157732,0.0481739,1966,785,29.3533,-3.42557
749,239,29.812,4.10767,0,0,0,0,0,0,0,-1,1973,785,29.812,-4.10766
756,239,30.0831,4.79565,0,0,0,0,0,0,0,-1,1980,785,30.0831,-4.79564
763,239,0,0,0,0,0,0,0,0,0,-1,1987,785,0,0
770,239,0,0,0,0,0,0,0,0,0,-1,1994,785,0,0
777,239,0,0,0,0,0,0,0,0,0,-1,2001,785,0,0
784,239,0,0,0,0,0,0,0,0,0,-1,2008,785,0,0
791,239,0,0,0,0,0,0,0,0,0,-1,2015,785,0,0
798,239,0,0,0,0,0,0,0,0,0,-1,2022,785,0,0
805,239,0,0,0,0,0,0,0,0,0,-1,2029,785,0,0
812,239,0,0,0,0,0,0,0,0,0,-1,2036,785,0,0
-700,232,0,0,0,0,0,0,0,0,0,-1,524,792,0,0
-693,232,0,0,0,0,0,0,0,0,0,-1,531,792,0,0
-686,232,0,0,0,0,0,0,0,0,0,-1,538,792,0,0
-679,232,0,0,0,0,0,0,0,0,0,-1,545,792,0,0
-672,232,0,0,0,0,0,0,0,0,0,-1,552,792,0,0
-665,232,0,0,0,0,0,0,0,0,0,-1,559,792,0,0
-658,232,0,0,0,0,0,0,0,0,0,-1,566,792,0,0
-651,232,0,0,0,0,0,0,0,0,0,-1,573,792,0,0
-644,232,-22.5826,0.269348,0,0,0,0,0,0,0,-1,580,792,-22.5826,-0.269357
-637,232,-22.0887,-0.86969,0,0,0,0,0,0,0,-1,587,792,-22.0887,0.869704
-630,232,-22.8522,1.33289,0,0,0,0,0,0,0,-1,594,792,-22.8523,-1.3329
-623,232,-22.9125,1.82245,0,0,0,0,0,0,0,-1,601,792,-22.9126,-1.82244
-616,232,-23.5833,2.42975,0,0,0,0,0,0,0,-1,608,792,-23.5833,-2.42972
-609,232,-24.4119,2.80933,0,0,0,0,0,0,0,-1,615,792,-24.4118,-2.80933
-602,232,-16.363,2.52563,0,0,0,0,0,0,0,-1,622,792,-16.363,-2.52562
-595,232,-16.1475,1.97546,0.00904696,-0.00326774,-0.00321033,0.00983361,-0.00405439,-0.240303,0.00824641,0.0370801,629,792,-16.1475,-1.97546
-588,232,-16.0035,1.42505,0.00562667,-0.000942725,-0.000143498,0.0056298,-0.000945858,-0.0218295,0.00410497,0.0132,636,792,-16.0035,-1.42506
-581,232,-15.9813,1.00903,0.00351135,-4.90841e-05,0.00114966,0.0038503,-0.00038804,0.286708,0.00270551,0.00876937,643,792,-15.9813,-1.00906
-574,232,-15.9865,0.639832,0.00245201,-8.92582e-05,0.00113197,0.0028831,-0.00052035,0.363874,0.00211694,0.00899345,650,792,-15.9865,-0.639823
-567,232,-16.0319,0.278381,0.00158908,-0.000372326,0.00140153,0.00231895,-0.0011022,0.480124,0.00201641,0.0102508,657,792,-16.0318,-0.278354
-560,232,-16.0539,-0.0637817,0.000668804,-0.000633807,0.00178457,0.00191721,-0.00188221,0.610427,0.00219363,0.0120902,664,792,-16.0539,0.063788
-553,232,-16.0652,-0.436768,-0.000936893,-0.00140904,0.00257089,0.00140874,-0.00375467,0.739614,0.00308195,0.0130863,671,792,-16.0652,0.43674
-546,232,-16.1194,-0.80365,-0.00294945,-0.00231984,0.00317752,0.000558432,-0.00582772,0.834773,0.00408404,0.0210741,678,792,-16.1194,0.803664
-539,232,-16.1094,-1.18097,-0.00480261,-0.00301107,0.00364248,-0.000155831,-0.00765785,0.905967,0.00505409,0.0275382,685,792,-16.1094,1.18094
-532,232,-16.0701,-1.53644,-0.00588031,-0.00313635,0.00390919,-0.000365373,-0.00865129,0.954164,0.00564967,0.021934,692,792,-16.0701,1.53646
-525,232,-16.1951,-1.81946,-0.00662587,-0.00317304,0.0040223,-0.000522313,-0.00927661,0.988114,0.00601786,0.0384317,699,792,-16.1952,1.81945
-518,232,-16.2475,-1.85168,0,0,0,0,0,0,0,-1,706,792,-16.2475,1.85169
-511,232,-22.8702,0.296631,0,0,0,0,0,0,0,-1,713,792,-22.8703,-0.296616
-504,232,-23.8292,0.830627,0,0,0,0,0,0,0,-1,720,792,-23.8292,-0.83062
-497,232,-24.0757,0.758972,-0.00789933,-0.00267793,0.00224526,-0.00184524,-0.00873202,1.21565,0.00531415,0.0467545,727,792,-24.0757,-0.758947
-490,232,-24.3854,0.804871,-0.00684659,-0.00186902,0.000897239,-0.00171223,-0.00700338,1.39779,0.00421572,0.0437355,734,792,-24.3854,-0.804891
-483,232,-24.5105,0.960388,-0.00472081,-0.000500125,-0.00111872,-0.000221937,-0.004999,-1.32707,0.00326121,0.0434727,741,792,-24.5105,-0.960396
-476,232,-24.3546,1.05048,-0.00137834,0.00163565,-0.00383325,0.00424749,-0.00399018,-0.972687,0.0047568,0.0359764,748,792,-24.3545,-1.05049
-469,232,-24.4002,1.03162,0.0026268,0.00476038,-0.00698495,0.0107595,-0.00337235,-0.861176,0.00852253,0.0334777,755,792,-24.4002,-1.03164
-462,232,0,0,0,0,0,0,0,0,0,-1,762,792,0,0
-455,232,0,0,0,0,0,0,0,0,0,-1,769,792,0,0
-448,232,0,0,0,0,0,0,0,0,0,-1,776,792,0,0
-441,232,0,0,0,0,0,0,0,0,0,-1,783,792,0,0
-434,232,0,0,0,0,0,0,0,0,0,-1,790,792,0,0
-427,232,0,0,0,0,0,0,0,0,0,-1,797,792,0,0
-420,232,0,0,0,0,0,0,0,0,0,-1,804,792,0,0
-413,232,0,0,0,0,0,0,0,0,0,-1,811,792,0,0
-406,232,0,0,0,0,0,0,0,0,0,-1,818,792,0,0
-399,232,0,0,0,0,0,0,0,0,0,-1,825,792,0,0
-392,232,0,0,0,0,0,0,0,0,0,-1,832,792,0,0
-385,232,0,0,0,0,0,0,0,0,0,-1,839,792,0,0
-378,232,0,0,0,0,0,0,0,0,0,-1,846,792,0,0
-371,232,0,0,0,0,0,0,0,0,0,-1,853,792,0,0
-364,232,0,0,0,0,0,0,0,0,0,-1,860,792,0,0
-357,232,0,0,0,0,0,0,0,0,0,-1,867,792,0,0
-350,232,0,0,0,0,0,0,0,0,0,-1,874,792,0,0
-343,232,0,0,0,0,0,0,0,0,0,-1,881,792,0,0
-336,232,0,0,0,0,0,0,0,0,0,-1,888,792,0,0
-329,232,0,0,0,0,0,0,0,0,0,-1,895,792,0,0
-322,232,0,0,0,0,0,0,0,0,0,-1,902,792,0,0
-315,232,0,0,0,0,0,0,0,0,0,-1,909,792,0,0
-308,232,0,0,0,0,0,0,0,0,0,-1,916,792,0,0
-301,232,0,0,0,0,0,0,0,0,0,-1,923,792,0,0
-294,232,0,0,0,0,0,0,0,0,0,-1,930,792,0,0
-287,232,0,0,0,0,0,0,0,0,0,-1,937,792,0,0
-280,232,0,0,0,0,0,0,0,0,0,-1,944,792,0,0
-273,232,0,0,0,0,0,0,0,0,0,-1,951,792,0,0
-266,232,0,0,0,0,0,0,0,0,0,-1,958,792,0,0
-259,232,0,0,0,0,0,0,0,0,0,-1,965,792,0,0
-252,232,0,0,0,0,0,0,0,0,0,-1,972,792,0,0
-245,232,0,0,0,0,0,0,0,0,0,-1,979,792,0,0
-238,232,0,0,0,0,0,0,0,0,0,-1,986,792,0,0
-231,232,0,0,0,0,0,0,0,0,0,-1,993,792,0,0
-224,232,0,0,0,0,0,0,0,0,0,-1,1000,792,0,0
-217,232,0,0,0,0,0,0,0,0,0,-1,1007,792,0,0
-210,232,0,0,0,0,0,0,0,0,0,-1,1014,792,0,0
-203,232,0,0,0,0,0,0,0,0,0,-1,1021,792,0,0
-196,232,0,0,0,0,0,0,0,0,0,-1,1028,792,0,0
-189,232,0,0,0,0,0,0,0,0,0,-1,1035,792,0,0
-182,232,0,0,0,0,0,0,0,0,0,-1,1042,792,0,0
-175,232,0,0,0,0,0,0,0,0,0,-1,1049,792,0,0
-168,232,0,0,0,0,0,0,0,0,0,-1,1056,792,0,0
-161,232,0,0,0,0,0,0,0,0,0,-1,1063,792,0,0
-154,232,0,0,0,0,0,0,0,0,0,-1,1070,792,0,0
-147,232,0,0,0,0,0,0,0,0,0,-1,1077,792,0,0
-140,232,0,0,0,0,0,0,0,0,0,-1,1084,792,0,0
-133,232,0,0,0,0,0,0,0,0,0,-1,1091,792,0,0
-126,232,0,0,0,0,0,0,0,0,0,-1,1098,792,0,0
-119,232,0,0,0,0,0,0,0,0,0,-1,1105,792,0,0
-112,232,0,0,0,0,0,0,0,0,0,-1,1112,792,0,0
-105,232,0,0,0,0,0,0,0,0,0,-1,1119,792,0,0
-98,232,0,0,0,0,0,0,0,0,0,-1,1126,792,0,0
-91,232,0,0,0,0,0,0,0,0,0,-1,1133,792,0,0
-84,232,0,0,0,0,0,0,0,0,0,-1,1140,792,0,0
-77,232,0,0,0,0,0,0,0,0,0,-1,1147,792,0,0
-70,232,0,0,0,0,0,0,0,0,0,-1,1154,792,0,0
-63,232,0,0,0,0,0,0,0,0,0,-1,1161,792,0,0
-56,232,0,0,0,0,0,0,0,0,0,-1,1168,792,0,0
-49,232,0,0,0,0,0,0,0,0,0,-1,1175,792,0,0
-42,232,0,0,0,0,0,0,0,0,0,-1,1182,792,0,0
-35,232,0,0,0,0,0,0,0,0,0,-1,1189,792,0,0
-28,232,0,0,0,0,0,0,0,0,0,-1,1196,792,0,0
-21,232,0,0,0,0,0,0,0,0,0,-1,1203,792,0,0
-14,232,0,0,0,0,0,0,0,0,0,-1,1210,792,0,0
-7,232,0,0,0,0,0,0,0,0,0,-1,1217,792,0,0
0,232,0,0,0,0,0,0,0,0,0,-1,1224,792,0,0
7,232,0,0,0,0,0,0,0,0,0,-1,1231,792,0,0
14,232,0,0,0,0,0,0,0,0,0,-1,1238,792,0,0
21,232,0,0,0,0,0,0,0,0,0,-1,1245,792,0,0
28,232,0,0,0,0,0,0,0,0,0,-1,1252,792,0,0
35,232,0,0,0,0,0,0,0,0,0,-1,1259,792,0,0
42,232,0,0,0,0,0,0,0,0,0,-1,1266,792,0,0
49,232,0,0,0,0,0,0,0,0,0,-1,1273,792,0,0
56,232,0,0,0,0,0,0,0,0,0,-1,1280,792,0,0
63,232,0,0,0,0,0,0,0,0,0,-1,1287,792,0,0
70,232,0,0,0,0,0,0,0,0,0,-1,1294,792,0,0
77,232,0,0,0,0,0,0,0,0,0,-1,1301,792,0,0
84,232,0,0,0,0,0,0,0,0,0,-1,1308,792,0,0
91,232,0,0,0,0,0,0,0,0,0,-1,1315,792,0,0
98,232,0,0,0,0,0,0,0,0,0,-1,1322,792,0,0
105,232,0,0,0,0,0,0,0,0,0,-1,1329,792,0,0
112,232,0,0,0,0,0,0,0,0,0,-1,1336,792,0,0
119,232,0,0,0,0,0,0,0,0,0,-1,1343,792,0,0
126,232,0,0,0,0,0,0,0,0,0,-1,1350,792,0,0
133,232,0,0,0,0,0,0,0,0,0,-1,1357,792,0,0
140,232,0,0,0,0,0,0,0,0,0,-1,1364,792,0,0
147,232,0,0,0,0,0,0,0,0,0,-1,1371,792,0,0
154,232,0,0,0,0,0,0,0,0,0,-1,1378,792,0,0
161,232,0,0,0,0,0,0,0,0,0,-1,1385,792,0,0
168,232,0,0,0,0,0,0,0,0,0,-1,1392,792,0,0
175,232,0,0,0,0,0,0,0,0,0,-1,1399,792,0,0
182,232,0,0,0,0,0,0,0,0,0,-1,1406,792,0,0
189,232,0,0,0,0,0,0,0,0,0,-1,1413,792,0,0
196,232,0,0,0,0,0,0,0,0,0,-1,1420,792,0,0
203,232,0,0,0,0,0,0,0,0,0,-1,1427,792,0,0
210,232,0,0,0,0,0,0,0,0,0,-1,1434,792,0,0
217,232,0,0,0,0,0,0,0,0,0,-1,1441,792,0,0
224,232,0,0,0,0,0,0,0,0,0,-1,1448,792,0,0
231,232,0,0,0,0,0,0,0,0,0,-1,1455,792,0,0
238,232,0,0,0,0,0,0,0,0,0,-1,1462,792,0,0
245,232,0,0,0,0,0,0,0,0,0,-1,1469,792,0,0
252,232,0,0,0,0,0,0,0,0,0,-1,1476,792,0,0
259,232,0,0,0,0,0,0,0,0,0,-1,1483,792,0,0
266,232,0,0,0,0,0,0,0,0,0,-1,1490,792,0,0
273,232,0,0,0,0,0,0,0,0,0,-1,1497,792,0,0
280,232,0,0,0,0,0,0,0,0,0,-1,1504,792,0,0
287,232,0,0,0,0,0,0,0,0,0,-1,1511,792,0,0
294,232,0,0,0,0,0,0,0,0,0,-1,1518,792,0,0
301,232,0,0,0,0,0,0,0,0,0,-1,1525,792,0,0
308,232,0,0,0,0,0,0,0,0,0,-1,1532,792,0,0
315,232,0,0,0,0,0,0,0,0,0,-1,1539,792,0,0
322,232,0,0,0,0,0,0,0,0,0,-1,1546,792,0,0
329,232,0,0,0,0,0,0,0,0,0,-1,1553,792,0,0
336,232,0,0,0,0,0,0,0,0,0,-1,1560,792,0,0
343,232,0,0,0,0,0,0,0,0,0,-1,1567,792,0,0
350,232,0,0,0,0,0,0,0,0,0,-1,1574,792,0,0
357,232,0,0,0,0,0,0,0,0,0,-1,1581,792,0,0
364,232,0,0,0,0,0,0,0,0,0,-1,1588,792,0,0
371,232,0,0,0,0,0,0,0,0,0,-1,1595,792,0,0
378,232,0,0,0,0,0,0,0,0,0,-1,1602,792,0,0
385,232,0,0,0,0,0,0,0,0,0,-1,1609,792,0,0
392,232,0,0,0,0,0,0,0,0,0,-1,1616,792,0,0
399,232,0,0,0,0,0,0,0,0,0,-1,1623,792,0,0
406,232,0,0,0,0,0,0,0,0,0,-1,1630,792,0,0
413,232,0,0,0,0,0,0,0,0,0,-1,1637,792,0,0
420,232,0,0,0,0,0,0,0,0,0,-1,1644,792,0,0
427,232,0,0,0,0,0,0,0,0,0,-1,1651,792,0,0
434,232,0,0,0,0,0,0,0,0,0,-1,1658,792,0,0
441,232,0,0,0,0,0,0,0,0,0,-1,1665,792,0,0
448,232,0,0,0,0,0,0,0,0,0,-1,1672,792,0,0
455,232,0,0,0,0,0,0,0,0,0,-1,1679,792,0,0
462,232,0,0,0,0,0,0,0,0,0,-1,1686,792,0,0
469,232,0,0,0,0,0,0,0,0,0,-1,1693,792,0,0
476,232,0,0,0,0,0,0,0,0,0,-1,1700,792,0,0
483,232,0,0,0,0,0,0,0,0,0,-1,1707,792,0,0
490,232,0,0,0,0,0,0,0,0,0,-1,1714,792,0,0
497,232,0,0,0,0,0,0,0,0,0,-1,1721,792,0,0
504,232,0,0,0,0,0,0,0,0,0,-1,1728,792,0,0
511,232,0,0,0,0,0,0,0,0,0,-1,1735,792,0,0
518,232,0,0,0,0,0,0,0,0,0,-1,1742,792,0,0
525,232,0,0,0,0,0,0,0,0,0,-1,1749,792,0,0
532,232,0,0,0,0,0,0,0,0,0,-1,1756,792,0,0
539,232,0,0,0,0,0,0,0,0,0,-1,1763,792,0,0
546,232,0,0,0,0,0,0,0,0,0,-1,1770,792,0,0
553,232,0,0,0,0,0,0,0,0,0,-1,1777,792,0,0
560,232,0,0,0,0,0,0,0,0,0,-1,1784,792,0,0
567,232,0,0,0,0,0,0,0,0,0,-1,1791,792,0,0
574,232,0,0,0,0,0,0,0,0,0,-1,1798,792,0,0
581,232,0,0,0,0,0,0,0,0,0,-1,1805,792,0,0
588,232,33.7637,3.07709,0.00183858,0.0086745,-0.00139646,0.00894877,0.00156431,-1.37686,0.00551881,0.0386398,1812,792,33.7636,-3.07711
595,232,33.8483,2.84796,0.00048543,0.00945802,-0.00343042,0.0106193,-0.000675808,-1.24439,0.00731519,0.036682,1819,792,33.8482,-2.84795
602,232,33.8418,2.82501,-0.000697718,0.00897962,-0.00455623,0.0107871,-0.00250525,-1.19312,0.0081558,0.0349104,1826,792,33.8418,-2.825
609,232,33.9209,2.85535,-0.00167668,0.00741058,-0.00500405,0.00962603,-0.00389212,-1.154,0.00803533,0.0398146,1833,792,33.9209,-2.85532
616,232,33.9412,2.82025,-0.00254476,0.00551701,-0.00502001,0.00792417,-0.00495193,-1.12367,0.00749975,0.0443311,1840,792,33.9411,-2.82023
623,232,33.6223,2.9635,-0.00312237,0.00354435,-0.00467854,0.00595556,-0.00553357,-1.09492,0.00663474,0.0438493,1847,792,33.6223,-2.96349
630,232,33.4664,3.48645,-0.00328352,0.00195902,-0.00438787,0.00444896,-0.00577346,-1.05465,0.00591841,0.0477825,1854,792,33.4664,-3.48648
637,232,33.4974,4.08105,0,0,0,0,0,0,0,-1,1861,792,33.4974,-4.08107
644,232,29.3163,4.33893,0,0,0,0,0,0,0,-1,1868,792,29.3163,-4.33891
651,232,24.5564,0.363342,0,0,0,0,0,0,0,-1,1875,792,24.5564,-0.363365
658,232,24.4918,0.590881,-0.00346898,-0.00218886,-0.00312892,0.000364793,-0.00602264,-0.886288,0.00414205,0.0347386,1882,792,24.4918,-0.59088
665,232,24.417,0.88385,-0.00308963,-0.00295165,-0.00275473,-0.000265042,-0.00577623,-0.797918,0.00376558,0.0142223,1889,792,24.4169,-0.883852
672,232,24.3374,1.26471,-0.00282508,-0.00298251,-0.00243142,-0.000471098,-0.00533648,-0.769217,0.00341148,0.0184115,1896,792,24.3374,-1.26469
679,232,24.3776,1.66772,-0.00247704,-0.00273553,-0.00214915,-0.000453257,-0.00475932,-0.755366,0.0030331,0.0193581,1903,792,24.3775,-1.66774
686,232,24.4137,2.05939,-0.00143272,-0.00155886,-0.00181248,0.000317786,-0.00330936,-0.768007,0.00231944,0.0181538,1910,792,24.4137,-2.05939
693,232,24.4017,2.42413,-0.000288841,-0.000673104,-0.000987339,0.000524887,-0.00148683,-0.689301,0.00120492,0.0102413,1917,792,24.4017,-2.42414
700,232,24.4075,2.80615,0.000742251,0.000167461,-2.13797e-05,0.000743045,0.000166667,-0.0371272,0.000450211,0.0117949,1924,792,24.4075,-2.80616
707,232,24.3943,3.17798,0.00172886,0.00112166,0.00113469,0.00259986,0.000250661,0.654679,0.00165603,0.0122104,1931,792,24.3943,-3.17798
714,232,24.377,3.54236,0.00276149,0.0018291,0.00233331,0.00467472,-8.41324e-05,0.686797,0.0031449,0.0135238,1938,792,24.3769,-3.54234
721,232,24.36,3.94379,0.00362518,0.00214318,0.00361695,0.00657626,-0.00080789,0.684362,0.00467679,0.0218003,1945,792,24.36,-3.94381
728,232,24.33,4.28595,0.0044817,0.00198104,0.00526165,0.00863953,-0.00217679,0.668747,0.00660594,0.0409222,1952,792,24.33,-4.28598
735,232,24.4911,4.76825,0,0,0,0,0,0,0,-1,1959,792,24.4911,-4.76823
742,232,29.5056,3.25159,0,0,0,0,0,0,0,-1,1966,792,29.5057,-3.25157
749,232,29.0863,4.12286,0,0,0,0,0,0,0,-1,1973,792,29.0863,-4.12283
756,232,29.5652,4.83032,0,0,0,0,0,0,0,-1,1980,792,29.5652,-4.83032
763,232,29.8763,5.72894,0,0,0,0,0,0,0,-1,1987,792,29.8763,-5.72894
770,232,0,0,0,0,0,0,0,0,0,-1,1994,792,0,0
777,232,0,0,0,0,0,0,0,0,0,-1,2001,792,0,0
784,232,0,0,0,0,0,0,0,0,0,-1,2008,792,0,0
791,232,0,0,0,0,0,0,0,0,0,-1,2015,792,0,0
798,232,0,0,0,0,0,0,0,0,0,-1,2022,792,0,0
805,232,0,0,0,0,0,0,0,0,0,-1,2029,792,0,0
812,232,0,0,0,0,0,0,0,0,0,-1,2036,792,0,0
-700,225,0,0,0,0,0,0,0,0,0,-1,524,799,0,0
-693,225,0,0,0,0,0,0,0,0,0,-1,531,799,0,0
-686,225,0,0,0,0,0,0,0,0,0,-1,538,799,0,0
-679,225,0,0,0,0,0,0,0,0,0,-1,545,799,0,0
-672,225,0,0,0,0,0,0,0,0,0,-1,552,799,0,0
-665,225,0,0,0,0,0,0,0,0,0,-1,559,799,0,0
-658,225,0,0,0,0,0,0,0,0,0,-1,566,799,0,0
-651,225,0,0,0,0,0,0,0,0,0,-1,573,799,0,0
-644,225,-22.4099,-0.204834,0,0,0,0,0,0,0,-1,580,799,-22.4099,0.20484
-637,225,-21.7047,-0.424072,0,0,0,0,0,0,0,-1,587,799,-21.7047,0.424052
-630,225,-22.1293,-0.595947,0,0,0,0,0,0,0,-1,594,799,-22.1293,0.595923
-623,225,-22.5476,2.15985,0,0,0,0,0,0,0,-1,601,799,-22.5476,-2.15985
-616,225,-23.2698,2.66486,0,0,0,0,0,0,0,-1,608,799,-23.2698,-2.66486
-609,225,-16.8123,2.58722,0,0,0,0,0,0,0,-1,615,799,-16.8123,-2.5872
-602,225,-16.5437,2.19757,0,0,0,0,0,0,0,-1,622,799,-16.5437,-2.19759
-595,225,-16.4519,1.77911,0.00733989,-0.00310856,-0.00289564,0.00808871,-0.00385738,-0.253058,0.00703982,0.0299627,629,799,-16.4519,-1.77909
-588,225,-16.368,1.36218,0.00412831,-0.00128289,-0.000144154,0.00413215,-0.00128672,-0.0266147,0.0032692,0.0125729,636,799,-16.368,-1.3622
-581,225,-16.3542,1.01636,0.0022185,-0.000548725,0.00107295,0.00258578,-0.000916002,0.329802,0.00209697,0.0107358,643,799,-16.3543,-1.01638
-574,225,-16.3676,0.668274,0.00145534,-0.000588846,0.00107598,0.0019173,-0.0010508,0.405538,0.0017378,0.00886477,650,799,-16.3676,-0.668273
-567,225,-16.3883,0.297546,0.000834423,-0.000894668,0.0014116,0.00162519,-0.00168544,0.510634,0.0019115,0.0106924,657,799,-16.3883,-0.297559
-560,225,-16.4111,-0.0588989,0.000112496,-0.00106524,0.00185129,0.00146631,-0.00241905,0.631415,0.00226559,0.0108729,664,799,-16.411,0.0589232
-553,225,-16.4294,-0.421448,-0.00149692,-0.00168489,0.00270404,0.00111477,-0.00429658,0.768027,0.00329936,0.0106705,671,799,-16.4294,0.421452
-546,225,-16.4417,-0.7901,-0.00355946,-0.00251744,0.00326953,0.000272332,-0.00634923,0.864411,0.00432646,0.019267,678,799,-16.4416,0.790071
-539,225,-16.3871,-1.18646,-0.00530964,-0.00312148,0.0036271,-0.000427049,-0.00800408,0.931879,0.00519955,0.0305574,685,799,-16.3872,1.18646
-532,225,-16.4427,-1.47247,-0.0063398,-0.00304017,0.00382373,-0.000525522,-0.00885445,0.989067,0.00573583,0.0276083,692,799,-16.4427,1.47245
-525,225,-16.6682,-1.59027,0,0,0,0,0,0,0,-1,699,799,-16.6682,1.59025
-518,225,-21.963,0.171326,0,0,0,0,0,0,0,-1,706,799,-21.9629,-0.171319
-511,225,-22.6046,0.448364,0,0,0,0,0,0,0,-1,713,799,-22.6046,-0.448355
-504,225,-23.4608,0.816895,-0.00927497,-0.00257938,0.00326424,-0.00125139,-0.010603,1.18442,0.00669064,0.0429385,720,799,-23.4608,-0.816908
-497,225,-24.0953,0.905884,-0.00921355,-0.00207469,0.00242013,-0.0013316,-0.00995664,1.27289,0.00624142,0.0427843,727,799,-24.0953,-0.905877
-490,225,-24.3327,0.913879,-0.00835558,-0.00112958,0.00110337,-0.00096486,-0.00852031,1.4226,0.00538746,0.0369681,734,799,-24.3327,-0.913858
-483,225,-24.3823,0.984375,-0.00618589,0.000470844,-0.000972008,0.000609872,-0.00632492,-1.42873,0.0044339,0.0330324,741,799,-24.3823,-0.984357
-476,225,-24.3801,1.02087,-0.00244367,0.00297849,-0.00384398,0.00497125,-0.00443643,-1.09253,0.00543445,0.0318034,748,799,-24.3801,-1.02089
-469,225,-24.4371,0.986023,0.00229886,0.00660926,-0.0072126,0.0119818,-0.00307365,-0.930581,0.00918545,0.0340845,755,799,-24.4371,-0.986016
-462,225,0,0,0,0,0,0,0,0,0,-1,762,799,0,0
-455,225,0,0,0,0,0,0,0,0,0,-1,769,799,0,0
-448,225,0,0,0,0,0,0,0,0,0,-1,776,799,0,0
-441,225,0,0,0,0,0,0,0,0,0,-1,783,799,0,0
-434,225,0,0,0,0,0,0,0,0,0,-1,790,799,0,0
-427,225,0,0,0,0,0,0,0,0,0,-1,797,799,0,0
-420,225,0,0,0,0,0,0,0,0,0,-1,804,799,0,0
-413,225,0,0,0,0,0,0,0,0,0,-1,811,799,0,0
-406,225,0,0,0,0,0,0,0,0,0,-1,818,799,0,0
-399,225,0,0,0,0,0,0,0,0,0,-1,825,799,0,0
-392,225,0,0,0,0,0,0,0,0,0,-1,832,799,0,0
-385,225,0,0,0,0,0,0,0,0,0,-1,839,799,0,0
-378,225,0,0,0,0,0,0,0,0,0,-1,846,799,0,0
-371,225,0,0,0,0,0,0,0,0,0,-1,853,799,0,0
-364,225,0,0,0,0,0,0,0,0,0,-1,860,799,0,0
-357,225,0,0,0,0,0,0,0,0,0,-1,867,799,0,0
-350,225,0,0,0,0,0,0,0,0,0,-1,874,799,0,0
-343,225,0,0,0,0,0,0,0,0,0,-1,881,799,0,0
-336,225,0,0,0,0,0,0,0,0,0,-1,888,799,0,0
-329,225,0,0,0,0,0,0,0,0,0,-1,895,799,0,0
-322,225,0,0,0,0,0,0,0,0,0,-1,902,799,0,0
-315,225,0,0,0,0,0,0,0,0,0,-1,909,799,0,0
-308,225,0,0,0,0,0,0,0,0,0,-1,916,799,0,0
-301,225,0,0,0,0,0,0,0,0,0,-1,923,799,0,0
-294,225,0,0,0,0,0,0,0,0,0,-1,930,799,0,0
-287,225,0,0,0,0,0,0,0,0,0,-1,937,799,0,0
-280,225,0,0,0,0,0,0,0,0,0,-1,944,799,0,0
-273,225,0,0,0,0,0,0,0,0,0,-1,951,799,0,0
-266,225,0,0,0,0,0,0,0,0,0,-1,958,799,0,0
-259,225,0,0,0,0,0,0,0,0,0,-1,965,799,0,0
-252,225,0,0,0,0,0,0,0,0,0,-1,972,799,0,0
-245,225,0,0,0,0,0,0,0,0,0,-1,979,799,0,0
-238,225,0,0,0,0,0,0,0,0,0,-1,986,799,0,0
-231,225,0,0,0,0,0,0,0,0,0,-1,993,799,0,0
-224,225,0,0,0,0,0,0,0,0,0,-1,1000,799,0,0
-217,225,0,0,0,0,0,0,0,0,0,-1,1007,799,0,0
-210,225,0,0,0,0,0,0,0,0,0,-1,1014,799,0,0
-203,225,0,0,0,0,0,0,0,0,0,-1,1021,799,0,0
-196,225,0,0,0,0,0,0,0,0,0,-1,1028,799,0,0
-189,225,0,0,0,0,0,0,0,0,0,-1,1035,799,0,0
-182,225,0,0,0,0,0,0,0,0,0,-1,1042,799,0,0
-175,225,0,0,0,0,0,0,0,0,0,-1,1049,799,0,0
-168,225,0,0,0,0,0,0,0,0,0,-1,1056,799,0,0
-161,225,0,0,0,0,0,0,0,0,0,-1,1063,799,0,0
-154,225,0,0,0,0,0,0,0,0,0,-1,1070,799,0,0
-147,225,0,0,0,0,0,0,0,0,0,-1,1077,799,0,0
-140,225,0,0,0,0,0,0,0,0,0,-1,1084,799,0,0
-133,225,0,0,0,0,0,0,0,0,0,-1,1091,799,0,0
-126,225,0,0,0,0,0,0,0,0,0,-1,1098,799,0,0
-119,225,0,0,0,0,0,0,0,0,0,-1,1105,799,0,0
-112,225,0,0,0,0,0,0,0,0,0,-1,1112,799,0,0
-105,225,0,0,0,0,0,0,0,0,0,-1,1119,799,0,0
-98,225,0,0,0,0,0,0,0,0,0,-1,1126,799,0,0
-91,225,0,0,0,0,0,0,0,0,0,-1,1133,799,0,0
-84,225,0,0,0,0,0,0,0,0,0,-1,1140,799,0,0
-77,225,0,0,0,0,0,0,0,0,0,-1,1147,799,0,0
-70,225,0,0,0,0,0,0,0,0,0,-1,1154,799,0,0
-63,225,0,0,0,0,0,0,0,0,0,-1,1161,799,0,0
-56,225,0,0,0,0,0,0,0,0,0,-1,1168,799,0,0
-49,225,0,0,0,0,0,0,0,0,0,-1,1175,799,0,0
-42,225,0,0,0,0,0,0,0,0,0,-1,1182,799,0,0
-35,225,0,0,0,0,0,0,0,0,0,-1,1189,799,0,0
-28,225,0,0,0,0,0,0,0,0,0,-1,1196,799,0,0
-21,225,0,0,0,0,0,0,0,0,0,-1,1203,799,0,0
-14,225,0,0,0,0,0,0,0,0,0,-1,1210,799,0,0
-7,225,0,0,0,0,0,0,0,0,0,-1,1217,799,0,0
0,225,0,0,0,0,0,0,0,0,0,-1,1224,799,0,0
7,225,0,0,0,0,0,0,0,0,0,-1,1231,799,0,0
14,225,0,0,0,0,0,0,0,0,0,-1,1238,799,0,0
21,225,0,0,0,0,0,0,0,0,0,-1,1245,799,0,0
28,225,0,0,0,0,0,0,0,0,0,-1,1252,799,0,0
35,225,0,0,0,0,0,0,0,0,0,-1,1259,799,0,0
42,225,0,0,0,0,0,0,0,0,0,-1,1266,799,0,0
49,225,0,0,0,0,0,0,0,0,0,-1,1273,799,0,0
56,225,0,0,0,0,0,0,0,0,0,-1,1280,799,0,0
63,225,0,0,0,0,0,0,0,0,0,-1,1287,799,0,0
70,225,0,0,0,0,0,0,0,0,0,-1,1294,799,0,0
77,225,0,0,0,0,0,0,0,0,0,-1,1301,799,0,0
84,225,0,0,0,0,0,0,0,0,0,-1,1308,799,0,0
91,225,0,0,0,0,0,0,0,0,0,-1,1315,799,0,0
98,225,0,0,0,0,0,0,0,0,0,-1,1322,799,0,0
105,225,0,0,0,0,0,0,0,0,0,-1,1329,799,0,0
112,225,0,0,0,0,0,0,0,0,0,-1,1336,799,0,0
119,225,0,0,0,0,0,0,0,0,0,-1,1343,799,0,0
126,225,0,0,0,0,0,0,0,0,0,-1,1350,799,0,0
133,225,0,0,0,0,0,0,0,0,0,-1,1357,799,0,0
140,225,0,0,0,0,0,0,0,0,0,-1,1364,799,0,0
147,225,0,0,0,0,0,0,0,0,0,-1,1371,799,0,0
154,225,0,0,0,0,0,0,0,0,0,-1,1378,799,0,0
161,225,0,0,0,0,0,0,0,0,0,-1,1385,799,0,0
168,225,0,0,0,0,0,0,0,0,0,-1,1392,799,0,0
175,225,0,0,0,0,0,0,0,0,0,-1,1399,799,0,0
182,225,0,0,0,0,0,0,0,0,0,-1,1406,799,0,0
189,225,0,0,0,0,0,0,0,0,0,-1,1413,799,0,0
196,225,0,0,0,0,0,0,0,0,0,-1,1420,799,0,0
203,225,0,0,0,0,0,0,0,0,0,-1,1427,799,0,0
210,225,0,0,0,0,0,0,0,0,0,-1,1434,799,0,0
217,225,0,0,0,0,0,0,0,0,0,-1,1441,799,0,0
224,225,0,0,0,0,0,0,0,0,0,-1,1448,799,0,0
231,225,0,0,0,0,0,0,0,0,0,-1,1455,799,0,0
238,225,0,0,0,0,0,0,0,0,0,-1,1462,799,0,0
245,225,0,0,0,0,0,0,0,0,0,-1,1469,799,0,0
252,225,0,0,0,0,0,0,0,0,0,-1,1476,799,0,0
259,225,0,0,0,0,0,0,0,0,0,-1,1483,799,0,0
266,225,0,0,0,0,0,0,0,0,0,-1,1490,799,0,0
273,225,0,0,0,0,0,0,0,0,0,-1,1497,799,0,0
280,225,0,0,0,0,0,0,0,0,0,-1,1504,799,0,0
287,225,0,0,0,0,0,0,0,0,0,-1,1511,799,0,0
294,225,0,0,0,0,0,0,0,0,0,-1,1518,799,0,0
301,225,0,0,0,0,0,0,0,0,0,-1,1525,799,0,0
308,225,0,0,0,0,0,0,0,0,0,-1,1532,799,0,0
315,225,0,0,0,0,0,0,0,0,0,-1,1539,799,0,0
322,225,0,0,0,0,0,0,0,0,0,-1,1546,799,0,0
329,225,0,0,0,0,0,0,0,0,0,-1,1553,799,0,0
336,225,0,0,0,0,0,0,0,0,0,-1,1560,799,0,0
343,225,0,0,0,0,0,0,0,0,0,-1,1567,799,0,0
350,225,0,0,0,0,0,0,0,0,0,-1,1574,799,0,0
357,225,0,0,0,0,0,0,0,0,0,-1,1581,799,0,0
364,225,0,0,0,0,0,0,0,0,0,-1,1588,799,0,0
371,225,0,0,0,0,0,0,0,0,0,-1,1595,799,0,0
378,225,0,0,0,0,0,0,0,0,0,-1,1602,799,0,0
385,225,0,0,0,0,0,0,0,0,0,-1,1609,799,0,0
392,225,0,0,0,0,0,0,0,0,0,-1,1616,799,0,0
399,225,0,0,0,0,0,0,0,0,0,-1,1623,799,0,0
406,225,0,0,0,0,0,0,0,0,0,-1,1630,799,0,0
413,225,0,0,0,0,0,0,0,0,0,-1,1637,799,0,0
420,225,0,0,0,0,0,0,0,0,0,-1,1644,799,0,0
427,225,0,0,0,0,0,0,0,0,0,-1,1651,799,0,0
434,225,0,0,0,0,0,0,0,0,0,-1,1658,799,0,0
441,225,0,0,0,0,0,0,0,0,0,-1,1665,799,0,0
448,225,0,0,0,0,0,0,0,0,0,-1,1672,799,0,0
455,225,0,0,0,0,0,0,0,0,0,-1,1679,799,0,0
462,225,0,0,0,0,0,0,0,0,0,-1,1686,799,0,0
469,225,0,0,0,0,0,0,0,0,0,-1,1693,799,0,0
476,225,0,0,0,0,0,0,0,0,0,-1,1700,799,0,0
483,225,0,0,0,0,0,0,0,0,0,-1,1707,799,0,0
490,225,0,0,0,0,0,0,0,0,0,-1,1714,799,0,0
497,225,0,0,0,0,0,0,0,0,0,-1,1721,799,0,0
504,225,0,0,0,0,0,0,0,0,0,-1,1728,799,0,0
511,225,0,0,0,0,0,0,0,0,0,-1,1735,799,0,0
518,225,0,0,0,0,0,0,0,0,0,-1,1742,799,0,0
525,225,0,0,0,0,0,0,0,0,0,-1,1749,799,0,0
532,225,0,0,0,0,0,0,0,0,0,-1,1756,799,0,0
539,225,0,0,0,0,0,0,0,0,0,-1,1763,799,0,0
546,225,0,0,0,0,0,0,0,0,0,-1,1770,799,0,0
553,225,0,0,0,0,0,0,0,0,0,-1,1777,799,0,0
560,225,0,0,0,0,0,0,0,0,0,-1,1784,799,0,0
567,225,0,0,0,0,0,0,0,0,0,-1,1791,799,0,0
574,225,0,0,0,0,0,0,0,0,0,-1,1798,799,0,0
581,225,0,0,0,0,0,0,0,0,0,-1,1805,799,0,0
588,225,33.8748,2.98413,0.00170506,0.00510523,-0.000692577,0.00524089,0.0015694,-1.37737,0.0031059,0.0373792,1812,799,33.8748,-2.98415
595,225,33.917,2.88037,0.000557537,0.00649456,-0.00213376,0.00718187,-0.00012977,-1.25918,0.00483175,0.0344816,1819,799,33.917,-2.88036
602,225,33.8901,2.87286,-0.000553461,0.00683525,-0.00304805,0.00793035,-0.00164856,-1.22588,0.00591352,0.0327098,1826,799,33.8902,-2.87285
609,225,33.8611,2.89435,-0.00150944,0.00594434,-0.00348121,0.00731731,-0.00288241,-1.19513,0.00607153,0.0316256,1833,799,33.8611,-2.89433
616,225,33.8263,2.87238,-0.0024318,0.0043858,-0.00368863,0.00599954,-0.00404554,-1.15839,0.00583599,0.0364503,1840,799,33.8263,-2.87236
623,225,33.8533,2.92334,-0.00308143,0.00262172,-0.00360206,0.0043643,-0.00482401,-1.12021,0.00530709,0.0402876,1847,799,33.8533,-2.92332
630,225,33.6444,3.59894,0,0,0,0,0,0,0,-1,1854,799,33.6444,-3.59892
637,225,33.9178,3.58228,0,0,0,0,0,0,0,-1,1861,799,33.9178,-3.58228
644,225,34.0066,3.41473,0,0,0,0,0,0,0,-1,1868,799,34.0066,-3.41471
651,225,25.6475,1.06854,0,0,0,0,0,0,0,-1,1875,799,25.6474,-1.06855
658,225,25.2898,1.00336,-0.00364333,-0.00254776,-0.00299466,-5.11997e-05,-0.00613989,-0.875858,0.0040763,0.0479587,1882,799,25.2899,-1.00338
665,225,24.8914,0.918396,-0.0033414,-0.00316835,-0.00277795,-0.000475576,-0.00603418,-0.800967,0.003874,0.0184421,1889,799,24.8913,-0.918418
672,225,24.7748,1.28845,-0.00320575,-0.0032025,-0.0025939,-0.000610229,-0.00579802,-0.785711,0.00367885,0.0183294,1896,799,24.7748,-1.28846
679,225,24.7748,1.7334,-0.00299446,-0.00303781,-0.00243342,-0.000582614,-0.00544965,-0.780945,0.00345531,0.0172407,1903,799,24.7748,-1.7334
686,225,24.7943,2.06323,-0.00205702,-0.00207497,-0.00221577,0.000149794,-0.00428178,-0.783373,0.00290574,0.0107216,1910,799,24.7943,-2.06322
693,225,24.7734,2.4259,-0.000968654,-0.00133085,-0.00149657,0.000357739,-0.00265724,-0.725187,0.00190199,0.00967221,1917,799,24.7734,-2.42592
700,225,24.7643,2.81165,4.85774e-05,-0.000569578,-0.000569473,0.000387442,-0.000908442,-0.536771,0.00076807,0.0107365,1924,799,24.7642,-2.81167
707,225,24.7479,3.19,0.00102104,0.00034256,0.00056289,0.00133901,2.45855e-05,0.514208,0.000884592,0.0111352,1931,799,24.748,-3.19
714,225,24.7567,3.55994,0.00199139,0.000983199,0.00172089,0.0032805,-0.000305903,0.64292,0.00229577,0.0126269,1938,799,24.7567,-3.55993
721,225,24.787,3.94177,0.00273094,0.00115626,0.00289313,0.00494194,-0.00105475,0.652545,0.00369671,0.0160753,1945,799,24.787,-3.94178
728,225,24.7611,4.23401,0.00331064,0.000844396,0.00431445,0.00656474,-0.0024097,0.646203,0.00536331,0.0295145,1952,799,24.7611,-4.23403
735,225,24.9275,4.62512,0,0,0,0,0,0,0,-1,1959,799,24.9275,-4.62514
742,225,29.0922,3.2132,0,0,0,0,0,0,0,-1,1966,799,29.0921,-3.21322
749,225,25.3358,4.64941,0,0,0,0,0,0,0,-1,1973,799,25.3359,-4.64941
756,225,29.035,4.88544,0,0,0,0,0,0,0,-1,1980,799,29.035,-4.88543
763,225,25.6912,7.76556,0,0,0,0,0,0,0,-1,1987,799,25.6912,-7.76555
770,225,0,0,0,0,0,0,0,0,0,-1,1994,799,0,0
777,225,0,0,0,0,0,0,0,0,0,-1,2001,799,0,0
784,225,0,0,0,0,0,0,0,0,0,-1,2008,799,0,0
791,225,0,0,0,0,0,0,0,0,0,-1,2015,799,0,0
798,225,0,0,0,0,0,0,0,0,0,-1,2022,799,0,0
805,225,0,0,0,0,0,0,0,0,0,-1,2029,799,0,0
812,225,0,0,0,0,0,0,0,0,0,-1,2036,799,0,0
-700,218,0,0,0,0,0,0,0,0,0,-1,524,806,0,0
-693,218,0,0,0,0,0,0,0,0,0,-1,531,806,0,0
-686,218,0,0,0,0,0,0,0,0,0,-1,538,806,0,0
-679,218,0,0,0,0,0,0,0,0,0,-1,545,806,0,0
-672,218,0,0,0,0,0,0,0,0,0,-1,552,806,0,0
-665,218,0,0,0,0,0,0,0,0,0,-1,559,806,0,0
-658,218,0,0,0,0,0,0,0,0,0,-1,566,806,0,0
-651,218,-21.9341,0.518799,0,0,0,0,0,0,0,-1,573,806,-21.9341,-0.518773
-644,218,-21.558,0.250732,0.0115548,-0.00339001,-0.0296576,0.0346668,-0.0265021,-0.661989,0.0354206,0.0482438,580,806,-21.558,-0.250722
-637,218,-21.2309,0.131348,0.0165737,0.00132356,-0.0194567,0.0298461,-0.0119488,-0.598646,0.0248568,0.0468813,587,806,-21.2309,-0.131356
-630,218,-20.9091,-0.0494385,0,0,0,0,0,0,0,-1,594,806,-20.909,0.0494398
-623,218,-21.3431,3.54083,0,0,0,0,0,0,0,-1,601,806,-21.3431,-3.54082
-616,218,-22.7681,2.979,0,0,0,0,0,0,0,-1,608,806,-22.7681,-2.97903
-609,218,-16.5943,2.38593,0,0,0,0,0,0,0,-1,615,806,-16.5943,-2.38594
-602,218,-16.676,2.02887,0.00780953,-0.00258491,-0.00423768,0.0093182,-0.00409359,-0.342023,0.00793673,0.0414519,622,806,-16.676,-2.02888
-595,218,-16.7549,1.68652,0.00560359,-0.00270701,-0.0025795,0.00633914,-0.00344255,-0.277777,0.0057294,0.018127,629,806,-16.7549,-1.68654
-588,218,-16.7278,1.36633,0.00251546,-0.001404,-3.61895e-05,0.00251579,-0.00140434,-0.00923225,0.00229341,0.0113455,636,806,-16.7278,-1.36633
-581,218,-16.728,1.03503,0.000961728,-0.00085288,0.00111914,0.00149515,-0.0013863,0.444778,0.001664,0.0106328,643,806,-16.728,-1.03504
-574,218,-16.7485,0.675415,0.000569658,-0.000812627,0.00113038,0.00120344,-0.00144641,0.511009,0.00153204,0.0095823,650,806,-16.7485,-0.675397
-567,218,-16.7215,0.288147,0.000248288,-0.00104073,0.00145519,0.00119531,-0.00198775,0.576931,0.00185663,0.0157431,657,806,-16.7215,-0.288155
-560,218,-16.7596,-0.0575562,-0.000218631,-0.000992106,0.00186306,0.00129741,-0.00250814,0.68306,0.00223389,0.0161558,664,806,-16.7596,0.0575807
-553,218,-16.7662,-0.414551,-0.00168386,-0.00133279,0.00267524,0.00117267,-0.00418932,0.818158,0.00325496,0.01695,671,806,-16.7662,0.414557
-546,218,-16.7825,-0.839966,-0.00358449,-0.00200198,0.00314928,0.000453924,-0.0060404,0.908475,0.00418645,0.0166846,678,806,-16.7825,0.839957
-539,218,-16.7733,-1.22906,-0.00515738,-0.00250279,0.00338332,-0.000195729,-0.00746445,0.972326,0.00491235,0.0272135,685,806,-16.7733,1.22904
-532,218,-16.8274,-1.38049,-0.00609514,-0.0022953,0.00351293,-0.000201431,-0.00818901,1.03329,0.00539345,0.0330928,692,806,-16.8274,1.38049
-525,218,-16.9951,-1.43909,0,0,0,0,0,0,0,-1,699,806,-16.9951,1.43908
-518,218,-19.8492,1.62396,0,0,0,0,0,0,0,-1,706,806,-19.8493,-1.62399
-511,218,-23.7671,1.83356,0,0,0,0,0,0,0,-1,713,806,-23.7671,-1.83356
-504,218,-23.4674,1.04102,-0.00926173,-0.00162299,0.00318202,-0.000471157,-0.0104136,1.22349,0.00679077,0.0439287,720,806,-23.4674,-1.04099
-497,218,-24.1378,1.09583,-0.00937193,-0.00110348,0.00244106,-0.0004366,-0.0100388,1.30411,0.00655185,0.0439042,727,806,-24.1378,-1.09585
-490,218,-24.3497,0.994019,-0.0085504,-0.000102185,0.00117321,5.77127e-05,-0.0087103,1.43534,0.0058262,0.0316204,734,806,-24.3497,-0.994042
-483,218,-24.3483,1.03247,-0.00608692,0.00159083,-0.000952728,0.00170728,-0.00620338,-1.44916,0.00480683,0.0295082,741,806,-24.3483,-1.03248
-476,218,-24.3654,1.03503,-0.00161167,0.00422712,-0.00395994,0.00622748,-0.00361202,-1.10304,0.00574735,0.0359656,748,806,-24.3654,-1.03506
-469,218,0,0,0,0,0,0,0,0,0,-1,755,806,0,0
-462,218,0,0,0,0,0,0,0,0,0,-1,762,806,0,0
-455,218,0,0,0,0,0,0,0,0,0,-1,769,806,0,0
-448,218,0,0,0,0,0,0,0,0,0,-1,776,806,0,0
-441,218,0,0,0,0,0,0,0,0,0,-1,783,806,0,0
-434,218,0,0,0,0,0,0,0,0,0,-1,790,806,0,0
-427,218,0,0,0,0,0,0,0,0,0,-1,797,806,0,0
-420,218,0,0,0,0,0,0,0,0,0,-1,804,806,0,0
-413,218,0,0,0,0,0,0,0,0,0,-1,811,806,0,0
-406,218,0,0,0,0,0,0,0,0,0,-1,818,806,0,0
-399,218,0,0,0,0,0,0,0,0,0,-1,825,806,0,0
-392,218,0,0,0,0,0,0,0,0,0,-1,832,806,0,0
-385,218,0,0,0,0,0,0,0,0,0,-1,839,806,0,0
-378,218,0,0,0,0,0,0,0,0,0,-1,846,806,0,0
-371,218,0,0,0,0,0,0,0,0,0,-1,853,806,0,0
-364,218,0,0,0,0,0,0,0,0,0,-1,860,806,0,0
-357,218,0,0,0,0,0,0,0,0,0,-1,867,806,0,0
-350,218,0,0,0,0,0,0,0,0,0,-1,874,806,0,0
-343,218,0,0,0,0,0,0,0,0,0,-1,881,806,0,0
-336,218,0,0,0,0,0,0,0,0,0,-1,888,806,0,0
-329,218,0,0,0,0,0,0,0,0,0,-1,895,806,0,0
-322,218,0,0,0,0,0,0,0,0,0,-1,902,806,0,0
-315,218,0,0,0,0,0,0,0,0,0,-1,909,806,0,0
-308,218,0,0,0,0,0,0,0,0,0,-1,916,806,0,0
-301,218,0,0,0,0,0,0,0,0,0,-1,923,806,0,0
-294,218,0,0,0,0,0,0,0,0,0,-1,930,806,0,0
-287,218,0,0,0,0,0,0,0,0,0,-1,937,806,0,0
-280,218,0,0,0,0,0,0,0,0,0,-1,944,806,0,0
-273,218,0,0,0,0,0,0,0,0,0,-1,951,806,0,0
-266,218,0,0,0,0,0,0,0,0,0,-1,958,806,0,0
-259,218,0,0,0,0,0,0,0,0,0,-1,965,806,0,0
-252,218,0,0,0,0,0,0,0,0,0,-1,972,806,0,0
-245,218,0,0,0,0,0,0,0,0,0,-1,979,806,0,0
-238,218,0,0,0,0,0,0,0,0,0,-1,986,806,0,0
-231,218,0,0,0,0,0,0,0,0,0,-1,993,806,0,0
-224,218,0,0,0,0,0,0,0,0,0,-1,1000,806,0,0
-217,218,0,0,0,0,0,0,0,0,0,-1,1007,806,0,0
-210,218,0,0,0,0,0,0,0,0,0,-1,1014,806,0,0
-203,218,0,0,0,0,0,0,0,0,0,-1,1021,806,0,0
-196,218,0,0,0,0,0,0,0,0,0,-1,1028,806,0,0
-189,218,0,0,0,0,0,0,0,0,0,-1,1035,806,0,0
-182,218,0,0,0,0,0,0,0,0,0,-1,1042,806,0,0
-175,218,0,0,0,0,0,0,0,0,0,-1,1049,806,0,0
-168,218,0,0,0,0,0,0,0,0,0,-1,1056,806,0,0
-161,218,0,0,0,0,0,0,0,0,0,-1,1063,806,0,0
-154,218,0,0,0,0,0,0,0,0,0,-1,1070,806,0,0
-147,218,0,0,0,0,0,0,0,0,0,-1,1077,806,0,0
-140,218,0,0,0,0,0,0,0,0,0,-1,1084,806,0,0
-133,218,0,0,0,0,0,0,0,0,0,-1,1091,806,0,0
-126,218,0,0,0,0,0,0,0,0,0,-1,1098,806,0,0
-119,218,0,0,0,0,0,0,0,0,0,-1,1105,806,0,0
-112,218,0,0,0,0,0,0,0,0,0,-1,1112,806,0,0
-105,218,0,0,0,0,0,0,0,0,0,-1,1119,806,0,0
-98,218,0,0,0,0,0,0,0,0,0,-1,1126,806,0,0
-91,218,0,0,0,0,0,0,0,0,0,-1,1133,806,0,0
-84,218,0,0,0,0,0,0,0,0,0,-1,1140,806,0,0
-77,218,0,0,0,0,0,0,0,0,0,-1,1147,806,0,0
-70,218,0,0,0,0,0,0,0,0,0,-1,1154,806,0,0
-63,218,0,0,0,0,0,0,0,0,0,-1,1161,806,0,0
-56,218,0,0,0,0,0,0,0,0,0,-1,1168,806,0,0
-49,218,0,0,0,0,0,0,0,0,0,-1,1175,806,0,0
-42,218,0,0,0,0,0,0,0,0,0,-1,1182,806,0,0
-35,218,0,0,0,0,0,0,0,0,0,-1,1189,806,0,0
-28,218,0,0,0,0,0,0,0,0,0,-1,1196,806,0,0
-21,218,0,0,0,0,0,0,0,0,0,-1,1203,806,0,0
-14,218,0,0,0,0,0,0,0,0,0,-1,1210,806,0,0
-7,218,0,0,0,0,0,0,0,0,0,-1,1217,806,0,0
0,218,0,0,0,0,0,0,0,0,0,-1,1224,806,0,0
7,218,0,0,0,0,0,0,0,0,0,-1,1231,806,0,0
14,218,0,0,0,0,0,0,0,0,0,-1,1238,806,0,0
21,218,0,0,0,0,0,0,0,0,0,-1,1245,806,0,0
28,218,0,0,0,0,0,0,0,0,0,-1,1252,806,0,0
35,218,0,0,0,0,0,0,0,0,0,-1,1259,806,0,0
42,218,0,0,0,0,0,0,0,0,0,-1,1266,806,0,0
49,218,0,0,0,0,0,0,0,0,0,-1,1273,806,0,0
56,218,0,0,0,0,0,0,0,0,0,-1,1280,806,0,0
63,218,0,0,0,0,0,0,0,0,0,-1,1287,806,0,0
70,218,0,0,0,0,0,0,0,0,0,-1,1294,806,0,0
77,218,0,0,0,0,0,0,0,0,0,-1,1301,806,0,0
84,218,0,0,0,0,0,0,0,0,0,-1,1308,806,0,0
91,218,0,0,0,0,0,0,0,0,0,-1,1315,806,0,0
98,218,0,0,0,0,0,0,0,0,0,-1,1322,806,0,0
105,218,0,0,0,0,0,0,0,0,0,-1,1329,806,0,0
112,218,0,0,0,0,0,0,0,0,0,-1,1336,806,0,0
119,218,0,0,0,0,0,0,0,0,0,-1,1343,806,0,0
126,218,0,0,0,0,0,0,0,0,0,-1,1350,806,0,0
133,218,0,0,0,0,0,0,0,0,0,-1,1357,806,0,0
140,218,0,0,0,0,0,0,0,0,0,-1,1364,806,0,0
147,218,0,0,0,0,0,0,0,0,0,-1,1371,806,0,0
154,218,0,0,0,0,0,0,0,0,0,-1,1378,806,0,0
161,218,0,0,0,0,0,0,0,0,0,-1,1385,806,0,0
168,218,0,0,0,0,0,0,0,0,0,-1,1392,806,0,0
175,218,0,0,0,0,0,0,0,0,0,-1,1399,806,0,0
182,218,0,0,0,0,0,0,0,0,0,-1,1406,806,0,0
189,218,0,0,0,0,0,0,0,0,0,-1,1413,806,0,0
196,218,0,0,0,0,0,0,0,0,0,-1,1420,806,0,0
203,218,0,0,0,0,0,0,0,0,0,-1,1427,806,0,0
210,218,0,0,0,0,0,0,0,0,0,-1,1434,806,0,0
217,218,0,0,0,0,0,0,0,0,0,-1,1441,806,0,0
224,218,0,0,0,0,0,0,0,0,0,-1,1448,806,0,0
231,218,0,0,0,0,0,0,0,0,0,-1,1455,806,0,0
238,218,0,0,0,0,0,0,0,0,0,-1,1462,806,0,0
245,218,0,0,0,0,0,0,0,0,0,-1,1469,806,0,0
252,218,0,0,0,0,0,0,0,0,0,-1,1476,806,0,0
259,218,0,0,0,0,0,0,0,0,0,-1,1483,806,0,0
266,218,0,0,0,0,0,0,0,0,0,-1,1490,806,0,0
273,218,0,0,0,0,0,0,0,0,0,-1,1497,806,0,0
280,218,0,0,0,0,0,0,0,0,0,-1,1504,806,0,0
287,218,0,0,0,0,0,0,0,0,0,-1,1511,806,0,0
294,218,0,0,0,0,0,0,0,0,0,-1,1518,806,0,0
301,218,0,0,0,0,0,0,0,0,0,-1,1525,806,0,0
308,218,0,0,0,0,0,0,0,0,0,-1,1532,806,0,0
315,218,0,0,0,0,0,0,0,0,0,-1,1539,806,0,0
322,218,0,0,0,0,0,0,0,0,0,-1,1546,806,0,0
329,218,0,0,0,0,0,0,0,0,0,-1,1553,806,0,0
336,218,0,0,0,0,0,0,0,0,0,-1,1560,806,0,0
343,218,0,0,0,0,0,0,0,0,0,-1,1567,806,0,0
350,218,0,0,0,0,0,0,0,0,0,-1,1574,806,0,0
357,218,0,0,0,0,0,0,0,0,0,-1,1581,806,0,0
364,218,0,0,0,0,0,0,0,0,0,-1,1588,806,0,0
371,218,0,0,0,0,0,0,0,0,0,-1,1595,806,0,0
378,218,0,0,0,0,0,0,0,0,0,-1,1602,806,0,0
385,218,0,0,0,0,0,0,0,0,0,-1,1609,806,0,0
392,218,0,0,0,0,0,0,0,0,0,-1,1616,806,0,0
399,218,0,0,0,0,0,0,0,0,0,-1,1623,806,0,0
406,218,0,0,0,0,0,0,0,0,0,-1,1630,806,0,0
413,218,0,0,0,0,0,0,0,0,0,-1,1637,806,0,0
420,218,0,0,0,0,0,0,0,0,0,-1,1644,806,0,0
427,218,0,0,0,0,0,0,0,0,0,-1,1651,806,0,0
434,218,0,0,0,0,0,0,0,0,0,-1,1658,806,0,0
441,218,0,0,0,0,0,0,0,0,0,-1,1665,806,0,0
448,218,0,0,0,0,0,0,0,0,0,-1,1672,806,0,0
455,218,0,0,0,0,0,0,0,0,0,-1,1679,806,0,0
462,218,0,0,0,0,0,0,0,0,0,-1,1686,806,0,0
469,218,0,0,0,0,0,0,0,0,0,-1,1693,806,0,0
476,218,0,0,0,0,0,0,0,0,0,-1,1700,806,0,0
483,218,0,0,0,0,0,0,0,0,0,-1,1707,806,0,0
490,218,0,0,0,0,0,0,0,0,0,-1,1714,806,0,0
497,218,0,0,0,0,0,0,0,0,0,-1,1721,806,0,0
504,218,0,0,0,0,0,0,0,0,0,-1,1728,806,0,0
511,218,0,0,0,0,0,0,0,0,0,-1,1735,806,0,0
518,218,0,0,0,0,0,0,0,0,0,-1,1742,806,0,0
525,218,0,0,0,0,0,0,0,0,0,-1,1749,806,0,0
532,218,0,0,0,0,0,0,0,0,0,-1,1756,806,0,0
539,218,0,0,0,0,0,0,0,0,0,-1,1763,806,0,0
546,218,0,0,0,0,0,0,0,0,0,-1,1770,806,0,0
553,218,0,0,0,0,0,0,0,0,0,-1,1777,806,0,0
560,218,0,0,0,0,0,0,0,0,0,-1,1784,806,0,0
567,218,0,0,0,0,0,0,0,0,0,-1,1791,806,0,0
574,218,0,0,0,0,0,0,0,0,0,-1,1798,806,0,0
581,218,0,0,0,0,0,0,0,0,0,-1,1805,806,0,0
588,218,0,0,0,0,0,0,0,0,0,-1,1812,806,0,0
595,218,33.9375,2.98761,0.000461787,0.00299189,-0.00156363,0.00373813,-0.000284454,-1.12551,0.00259211,0.0388849,1819,806,33.9375,-2.98759
602,218,33.9169,2.96783,-0.000284611,0.00442823,-0.00199073,0.00515657,-0.00101295,-1.22006,0.00382039,0.0340656,1826,806,33.9168,-2.96783
609,218,33.8427,2.995,-0.00102394,0.00453091,-0.00216917,0.0052776,-0.00177063,-1.23927,0.00423388,0.0309265,1833,806,33.8427,-2.995
616,218,33.7229,3.00854,-0.00189279,0.0035188,-0.0024313,0.00445066,-0.00282465,-1.20479,0.00423523,0.031529,1840,806,33.7229,-3.00855
623,218,33.7844,2.92871,-0.00258917,0.00207852,-0.00255146,0.00320253,-0.00371318,-1.15584,0.00399642,0.0351153,1847,806,33.7845,-2.92873
630,218,33.9135,2.94037,-0.002996,0.000733964,-0.00268234,0.00213595,-0.00439799,-1.08917,0.00384699,0.0385796,1854,806,33.9134,-2.94039
637,218,33.9088,3.09888,-0.00337006,-0.000346908,-0.00278856,0.00131341,-0.00503037,-1.03376,0.00386647,0.0427543,1861,806,33.9089,-3.09885
644,218,33.9404,3.06683,0,0,0,0,0,0,0,-1,1868,806,33.9405,-3.06682
651,218,26.0741,1.44037,0,0,0,0,0,0,0,-1,1875,806,26.0741,-1.44034
658,218,25.9418,1.40399,0,0,0,0,0,0,0,-1,1882,806,25.9418,-1.40402
665,218,25.4618,1.0351,-0.00335061,-0.00320779,-0.00269538,-0.000582876,-0.00597552,-0.798642,0.0038043,0.0443832,1889,806,25.4618,-1.0351
672,218,25.2458,1.3349,-0.00333876,-0.00325321,-0.00264222,-0.000653414,-0.00593856,-0.793492,0.0037602,0.0145662,1896,806,25.2459,-1.33492
679,218,25.2031,1.70294,-0.00331743,-0.00316872,-0.00257943,-0.000662576,-0.00582358,-0.799807,0.00368146,0.0110452,1903,806,25.2031,-1.70292
686,218,25.1892,2.05078,-0.00258439,-0.00246677,-0.00247945,-4.54383e-05,-0.00500573,-0.797255,0.00332211,0.0107805,1910,806,25.1892,-2.05081
693,218,25.1718,2.43451,-0.00158468,-0.00188143,-0.00190489,0.000177603,-0.00364371,-0.746531,0.00249045,0.0114909,1917,806,25.1717,-2.4345
700,218,25.145,2.8147,-0.00061285,-0.00121945,-0.00105457,0.000181174,-0.00201347,-0.645376,0.0014066,0.00962113,1924,806,25.1451,-2.81469
707,218,25.1293,3.18652,0.000333697,-0.00036701,2.45677e-05,0.000334558,-0.00036787,0.035004,0.000405699,0.00769638,1931,806,25.1293,-3.18652
714,218,25.1443,3.56506,0.00123737,0.000200521,0.00112246,0.00195534,-0.000517449,0.569059,0.00150597,0.0101043,1938,806,25.1443,-3.56505
721,218,25.1783,3.92999,0.00189,0.000261899,0.00219253,0.00341473,-0.00126283,0.607644,0.00279422,0.0134956,1945,806,25.1784,-3.93
728,218,25.1766,4.29974,0.00228796,-0.000144004,0.00342769,0.00470897,-0.00256501,0.614947,0.00426001,0.0217391,1952,806,25.1766,-4.29975
735,218,25.3347,4.66864,0.00240693,-0.00125145,0.00500791,0.00590926,-0.00475378,0.610296,0.00616834,0.0385423,1959,806,25.3347,-4.66863
742,218,25.5841,4.69507,0,0,0,0,0,0,0,-1,1966,806,25.5841,-4.69505
749,218,25.353,4.66492,0,0,0,0,0,0,0,-1,1973,806,25.3531,-4.66492
756,218,24.5326,4.67377,0,0,0,0,0,0,0,-1,1980,806,24.5326,-4.67374
763,218,25.7863,7.36359,0,0,0,0,0,0,0,-1,1987,806,25.7862,-7.36362
770,218,0,0,0,0,0,0,0,0,0,-1,1994,806,0,0
777,218,0,0,0,0,0,0,0,0,0,-1,2001,806,0,0
784,218,0,0,0,0,0,0,0,0,0,-1,2008,806,0,0
791,218,0,0,0,0,0,0,0,0,0,-1,2015,806,0,0
798,218,0,0,0,0,0,0,0,0,0,-1,2022,806,0,0
805,218,0,0,0,0,0,0,0,0,0,-1,2029,806,0,0
812,218,0,0,0,0,0,0,0,0,0,-1,2036,806,0,0
-700,211,0,0,0,0,0,0,0,0,0,-1,524,813,0,0
-693,211,0,0,0,0,0,0,0,0,0,-1,531,813,0,0
-686,211,0,0,0,0,0,0,0,0,0,-1,538,813,0,0
-679,211,0,0,0,0,0,0,0,0,0,-1,545,813,0,0
-672,211,0,0,0,0,0,0,0,0,0,-1,552,813,0,0
-665,211,0,0,0,0,0,0,0,0,0,-1,559,813,0,0
-658,211,0,0,0,0,0,0,0,0,0,-1,566,813,0,0
-651,211,-21.3234,0.902893,0,0,0,0,0,0,0,-1,573,813,-21.3234,-0.902913
-644,211,-20.699,0.709595,0.0105062,0.0120378,-0.0140619,0.0253547,-0.00281076,-0.8126,0.0179137,0.0488602,580,813,-20.699,-0.709606
-637,211,-20.5129,0.652771,0.0136612,0.00997908,-0.0100475,0.0220349,0.0016054,-0.694785,0.0141851,0.0482105,587,813,-20.5129,-0.652755
-630,211,-17.6016,2.32758,0,0,0,0,0,0,0,-1,594,813,-17.6016,-2.32759
-623,211,-20.6038,3.33191,0,0,0,0,0,0,0,-1,601,813,-20.6038,-3.33194
-616,211,-16.9753,2.67841,0,0,0,0,0,0,0,-1,608,813,-16.9753,-2.67843
-609,211,-16.9988,2.35016,0.00700167,0.00103737,-0.003011,0.00825737,-0.00021833,-0.395106,0.00557911,0.0426732,615,813,-16.9988,-2.35016
-602,211,-17.0349,2.02271,0.00562167,-0.00186909,-0.00341365,0.00694392,-0.00319134,-0.369547,0.00598379,0.021327,622,813,-17.0349,-2.02271
-595,211,-17.0836,1.70624,0.00370314,-0.002418,-0.00217811,0.00439907,-0.00311393,-0.309257,0.00435873,0.0110551,629,813,-17.0836,-1.70623
-588,211,-17.0904,1.38123,0.000972304,-0.00154908,5.85609e-05,0.000973663,-0.00155044,0.023209,0.00146992,0.0109528,636,813,-17.0904,-1.3812
-581,211,-17.1036,1.03998,-0.000186156,-0.00114146,0.00111358,0.000547888,-0.0018755,0.582799,0.00146746,0.0111108,643,813,-17.1037,-1.03996
-574,211,-17.1208,0.666992,-0.000190058,-0.000982164,0.00115331,0.000633309,-0.00180553,0.620004,0.00146128,0.0129929,650,813,-17.1209,-0.666996
-567,211,-17.1251,0.291565,-0.000183647,-0.00103098,0.00141022,0.000865169,-0.0020798,0.639474,0.00174782,0.0201516,657,813,-17.1251,-0.291552
-560,211,-17.1353,-0.0354614,-0.000392191,-0.000723537,0.00173133,0.00118138,-0.00229711,0.737698,0.00204245,0.0216774,664,813,-17.1352,0.0354856
-553,211,-17.0729,-0.375793,-0.00163704,-0.000793373,0.00247925,0.00129967,-0.00373009,0.869664,0.00301482,0.0223232,671,813,-17.0729,0.375773
-546,211,-17.2389,-0.628052,-0.00324883,-0.00133983,0.00288889,0.00074816,-0.00533682,0.944955,0.00383169,0.0314096,678,813,-17.2389,0.628035
-539,211,-17.1909,-1.04785,-0.00462409,-0.00177298,0.00302915,0.000149298,-0.00654637,1.00533,0.00441485,0.0236452,685,813,-17.1908,1.04787
-532,211,-17.1536,-1.21869,0,0,0,0,0,0,0,-1,692,813,-17.1535,1.21868
-525,211,-14.3009,2.3233,0,0,0,0,0,0,0,-1,699,813,-14.3009,-2.3233
-518,211,-24.0538,1.42578,0,0,0,0,0,0,0,-1,706,813,-24.0537,-1.42576
-511,211,-23.9579,1.52405,-0.00812747,-0.00113126,0.00322187,0.00012639,-0.00938512,1.19864,0.0062993,0.0493695,713,813,-23.9579,-1.52404
-504,211,-23.937,1.39178,-0.0086628,-0.00086009,0.00293364,0.000119826,-0.00964271,1.24842,0.00646879,0.0487376,720,813,-23.937,-1.39179
-497,211,-24.1631,1.25433,-0.00885621,-0.00039066,0.00222604,0.000158992,-0.00940586,1.32872,0.00632424,0.0472499,727,813,-24.1631,-1.25434
-490,211,-24.2877,1.05048,-0.00791202,0.000582705,0.000879523,0.000672813,-0.00800213,1.4687,0.00557258,0.0332401,734,813,-24.2876,-1.05046
-483,211,-24.2834,0.999146,-0.0048594,0.00220899,-0.00148293,0.0025075,-0.00515791,-1.37215,0.00451295,0.0301438,741,813,-24.2834,-0.999154
-476,211,-24.3533,1.03149,0.000795753,0.00470598,-0.00475852,0.00789538,-0.00239365,-0.980317,0.00621701,0.0361031,748,813,-24.3533,-1.03148
-469,211,0,0,0,0,0,0,0,0,0,-1,755,813,0,0
-462,211,0,0,0,0,0,0,0,0,0,-1,762,813,0,0
-455,211,0,0,0,0,0,0,0,0,0,-1,769,813,0,0
-448,211,0,0,0,0,0,0,0,0,0,-1,776,813,0,0
-441,211,0,0,0,0,0,0,0,0,0,-1,783,813,0,0
-434,211,0,0,0,0,0,0,0,0,0,-1,790,813,0,0
-427,211,0,0,0,0,0,0,0,0,0,-1,797,813,0,0
-420,211,0,0,0,0,0,0,0,0,0,-1,804,813,0,0
-413,211,0,0,0,0,0,0,0,0,0,-1,811,813,0,0
-406,211,0,0,0,0,0,0,0,0,0,-1,818,813,0,0
-399,211,0,0,0,0,0,0,0,0,0,-1,825,813,0,0
-392,211,0,0,0,0,0,0,0,0,0,-1,832,813,0,0
-385,211,0,0,0,0,0,0,0,0,0,-1,839,813,0,0
-378,211,0,0,0,0,0,0,0,0,0,-1,846,813,0,0
-371,211,0,0,0,0,0,0,0,0,0,-1,853,813,0,0
-364,211,0,0,0,0,0,0,0,0,0,-1,860,813,0,0
-357,211,0,0,0,0,0,0,0,0,0,-1,867,813,0,0
-350,211,0,0,0,0,0,0,0,0,0,-1,874,813,0,0
-343,211,0,0,0,0,0,0,0,0,0,-1,881,813,0,0
-336,211,0,0,0,0,0,0,0,0,0,-1,888,813,0,0
-329,211,0,0,0,0,0,0,0,0,0,-1,895,813,0,0
-322,211,0,0,0,0,0,0,0,0,0,-1,902,813,0,0
-315,211,0,0,0,0,0,0,0,0,0,-1,909,813,0,0
-308,211,0,0,0,0,0,0,0,0,0,-1,916,813,0,0
-301,211,0,0,0,0,0,0,0,0,0,-1,923,813,0,0
-294,211,0,0,0,0,0,0,0,0,0,-1,930,813,0,0
-287,211,0,0,0,0,0,0,0,0,0,-1,937,813,0,0
-280,211,0,0,0,0,0,0,0,0,0,-1,944,813,0,0
-273,211,0,0,0,0,0,0,0,0,0,-1,951,813,0,0
-266,211,0,0,0,0,0,0,0,0,0,-1,958,813,0,0
-259,211,0,0,0,0,0,0,0,0,0,-1,965,813,0,0
-252,211,0,0,0,0,0,0,0,0,0,-1,972,813,0,0
-245,211,0,0,0,0,0,0,0,0,0,-1,979,813,0,0
-238,211,0,0,0,0,0,0,0,0,0,-1,986,813,0,0
-231,211,0,0,0,0,0,0,0,0,0,-1,993,813,0,0
-224,211,0,0,0,0,0,0,0,0,0,-1,1000,813,0,0
-217,211,0,0,0,0,0,0,0,0,0,-1,1007,813,0,0
-210,211,0,0,0,0,0,0,0,0,0,-1,1014,813,0,0
-203,211,0,0,0,0,0,0,0,0,0,-1,1021,813,0,0
-196,211,0,0,0,0,0,0,0,0,0,-1,1028,813,0,0
-189,211,0,0,0,0,0,0,0,0,0,-1,1035,813,0,0
-182,211,0,0,0,0,0,0,0,0,0,-1,1042,813,0,0
-175,211,0,0,0,0,0,0,0,0,0,-1,1049,813,0,0
-168,211,0,0,0,0,0,0,0,0,0,-1,1056,813,0,0
-161,211,0,0,0,0,0,0,0,0,0,-1,1063,813,0,0
-154,211,0,0,0,0,0,0,0,0,0,-1,1070,813,0,0
-147,211,0,0,0,0,0,0,0,0,0,-1,1077,813,0,0
-140,211,0,0,0,0,0,0,0,0,0,-1,1084,813,0,0
-133,211,0,0,0,0,0,0,0,0,0,-1,1091,813,0,0
-126,211,0,0,0,0,0,0,0,0,0,-1,1098,813,0,0
-119,211,0,0,0,0,0,0,0,0,0,-1,1105,813,0,0
-112,211,0,0,0,0,0,0,0,0,0,-1,1112,813,0,0
-105,211,0,0,0,0,0,0,0,0,0,-1,1119,813,0,0
-98,211,0,0,0,0,0,0,0,0,0,-1,1126,813,0,0
-91,211,0,0,0,0,0,0,0,0,0,-1,1133,813,0,0
-84,211,0,0,0,0,0,0,0,0,0,-1,1140,813,0,0
-77,211,0,0,0,0,0,0,0,0,0,-1,1147,813,0,0
-70,211,0,0,0,0,0,0,0,0,0,-1,1154,813,0,0
-63,211,0,0,0,0,0,0,0,0,0,-1,1161,813,0,0
-56,211,0,0,0,0,0,0,0,0,0,-1,1168,813,0,0
-49,211,0,0,0,0,0,0,0,0,0,-1,1175,813,0,0
-42,211,0,0,0,0,0,0,0,0,0,-1,1182,813,0,0
-35,211,0,0,0,0,0,0,0,0,0,-1,1189,813,0,0
-28,211,0,0,0,0,0,0,0,0,0,-1,1196,813,0,0
-21,211,0,0,0,0,0,0,0,0,0,-1,1203,813,0,0
-14,211,0,0,0,0,0,0,0,0,0,-1,1210,813,0,0
-7,211,0,0,0,0,0,0,0,0,0,-1,1217,813,0,0
0,211,0,0,0,0,0,0,0,0,0,-1,1224,813,0,0
7,211,0,0,0,0,0,0,0,0,0,-1,1231,813,0,0
14,211,0,0,0,0,0,0,0,0,0,-1,1238,813,0,0
21,211,0,0,0,0,0,0,0,0,0,-1,1245,813,0,0
28,211,0,0,0,0,0,0,0,0,0,-1,1252,813,0,0
35,211,0,0,0,0,0,0,0,0,0,-1,1259,813,0,0
42,211,0,0,0,0,0,0,0,0,0,-1,1266,813,0,0
49,211,0,0,0,0,0,0,0,0,0,-1,1273,813,0,0
56,211,0,0,0,0,0,0,0,0,0,-1,1280,813,0,0
63,211,0,0,0,0,0,0,0,0,0,-1,1287,813,0,0
70,211,0,0,0,0,0,0,0,0,0,-1,1294,813,0,0
77,211,0,0,0,0,0,0,0,0,0,-1,1301,813,0,0
84,211,0,0,0,0,0,0,0,0,0,-1,1308,813,0,0
91,211,0,0,0,0,0,0,0,0,0,-1,1315,813,0,0
98,211,0,0,0,0,0,0,0,0,0,-1,1322,813,0,0
105,211,0,0,0,0,0,0,0,0,0,-1,1329,813,0,0
112,211,0,0,0,0,0,0,0,0,0,-1,1336,813,0,0
119,211,0,0,0,0,0,0,0,0,0,-1,1343,813,0,0
126,211,0,0,0,0,0,0,0,0,0,-1,1350,813,0,0
133,211,0,0,0,0,0,0,0,0,0,-1,1357,813,0,0
140,211,0,0,0,0,0,0,0,0,0,-1,1364,813,0,0
147,211,0,0,0,0,0,0,0,0,0,-1,1371,813,0,0
154,211,0,0,0,0,0,0,0,0,0,-1,1378,813,0,0
161,211,0,0,0,0,0,0,0,0,0,-1,1385,813,0,0
168,211,0,0,0,0,0,0,0,0,0,-1,1392,813,0,0
175,211,0,0,0,0,0,0,0,0,0,-1,1399,813,0,0
182,211,0,0,0,0,0,0,0,0,0,-1,1406,813,0,0
189,211,0,0,0,0,0,0,0,0,0,-1,1413,813,0,0
196,211,0,0,0,0,0,0,0,0,0,-1,1420,813,0,0
203,211,0,0,0,0,0,0,0,0,0,-1,1427,813,0,0
210,211,0,0,0,0,0,0,0,0,0,-1,1434,813,0,0
217,211,0,0,0,0,0,0,0,0,0,-1,1441,813,0,0
224,211,0,0,0,0,0,0,0,0,0,-1,1448,813,0,0
231,211,0,0,0,0,0,0,0,0,0,-1,1455,813,0,0
238,211,0,0,0,0,0,0,0,0,0,-1,1462,813,0,0
245,211,0,0,0,0,0,0,0,0,0,-1,1469,813,0,0
252,211,0,0,0,0,0,0,0,0,0,-1,1476,813,0,0
259,211,0,0,0,0,0,0,0,0,0,-1,1483,813,0,0
266,211,0,0,0,0,0,0,0,0,0,-1,1490,813,0,0
273,211,0,0,0,0,0,0,0,0,0,-1,1497,813,0,0
280,211,0,0,0,0,0,0,0,0,0,-1,1504,813,0,0
287,211,0,0,0,0,0,0,0,0,0,-1,1511,813,0,0
294,211,0,0,0,0,0,0,0,0,0,-1,1518,813,0,0
301,211,0,0,0,0,0,0,0,0,0,-1,1525,813,0,0
308,211,0,0,0,0,0,0,0,0,0,-1,1532,813,0,0
315,211,0,0,0,0,0,0,0,0,0,-1,1539,813,0,0
322,211,0,0,0,0,0,0,0,0,0,-1,1546,813,0,0
329,211,0,0,0,0,0,0,0,0,0,-1,1553,813,0,0
336,211,0,0,0,0,0,0,0,0,0,-1,1560,813,0,0
343,211,0,0,0,0,0,0,0,0,0,-1,1567,813,0,0
350,211,0,0,0,0,0,0,0,0,0,-1,1574,813,0,0
357,211,0,0,0,0,0,0,0,0,0,-1,1581,813,0,0
364,211,0,0,0,0,0,0,0,0,0,-1,1588,813,0,0
371,211,0,0,0,0,0,0,0,0,0,-1,1595,813,0,0
378,211,0,0,0,0,0,0,0,0,0,-1,1602,813,0,0
385,211,0,0,0,0,0,0,0,0,0,-1,1609,813,0,0
392,211,0,0,0,0,0,0,0,0,0,-1,1616,813,0,0
399,211,0,0,0,0,0,0,0,0,0,-1,1623,813,0,0
406,211,0,0,0,0,0,0,0,0,0,-1,1630,813,0,0
413,211,0,0,0,0,0,0,0,0,0,-1,1637,813,0,0
420,211,0,0,0,0,0,0,0,0,0,-1,1644,813,0,0
427,211,0,0,0,0,0,0,0,0,0,-1,1651,813,0,0
434,211,0,0,0,0,0,0,0,0,0,-1,1658,813,0,0
441,211,0,0,0,0,0,0,0,0,0,-1,1665,813,0,0
448,211,0,0,0,0,0,0,0,0,0,-1,1672,813,0,0
455,211,0,0,0,0,0,0,0,0,0,-1,1679,813,0,0
462,211,0,0,0,0,0,0,0,0,0,-1,1686,813,0,0
469,211,0,0,0,0,0,0,0,0,0,-1,1693,813,0,0
476,211,0,0,0,0,0,0,0,0,0,-1,1700,813,0,0
483,211,0,0,0,0,0,0,0,0,0,-1,1707,813,0,0
490,211,0,0,0,0,0,0,0,0,0,-1,1714,813,0,0
497,211,0,0,0,0,0,0,0,0,0,-1,1721,813,0,0
504,211,0,0,0,0,0,0,0,0,0,-1,1728,813,0,0
511,211,0,0,0,0,0,0,0,0,0,-1,1735,813,0,0
518,211,0,0,0,0,0,0,0,0,0,-1,1742,813,0,0
525,211,0,0,0,0,0,0,0,0,0,-1,1749,813,0,0
532,211,0,0,0,0,0,0,0,0,0,-1,1756,813,0,0
539,211,0,0,0,0,0,0,0,0,0,-1,1763,813,0,0
546,211,0,0,0,0,0,0,0,0,0,-1,1770,813,0,0
553,211,0,0,0,0,0,0,0,0,0,-1,1777,813,0,0
560,211,0,0,0,0,0,0,0,0,0,-1,1784,813,0,0
567,211,0,0,0,0,0,0,0,0,0,-1,1791,813,0,0
574,211,0,0,0,0,0,0,0,0,0,-1,1798,813,0,0
581,211,0,0,0,0,0,0,0,0,0,-1,1805,813,0,0
588,211,0,0,0,0,0,0,0,0,0,-1,1812,813,0,0
595,211,33.957,3.02295,0.000667757,-0.000298759,-0.00272968,0.00295662,-0.00258763,-0.697787,0.00320334,0.0406062,1819,813,33.957,-3.02293
602,211,33.885,2.87085,0.000338469,0.0020842,-0.00215205,0.00353366,-0.00111099,-0.97806,0.00280055,0.0375794,1826,813,33.885,-2.87082
609,211,33.7817,2.90717,-0.000152599,0.00314396,-0.00160562,0.00379673,-0.00080537,-1.18465,0.00283796,0.0393088,1833,813,33.7817,-2.90719
616,211,33.7179,2.98383,-0.000944676,0.0027535,-0.00157303,0.00333207,-0.00152325,-1.21834,0.00286733,0.0326054,1840,813,33.7179,-2.9838
623,211,33.7454,2.99506,-0.00173637,0.00171646,-0.00169429,0.00240896,-0.00242887,-1.18279,0.00279313,0.0311244,1847,813,33.7453,-2.99507
630,211,33.7545,2.97998,-0.00233119,0.000520944,-0.00191241,0.00148045,-0.00329069,-1.10577,0.00281994,0.0350483,1854,813,33.7545,-2.97996
637,211,33.7253,3.05396,-0.00285452,-0.000490288,-0.00214734,0.000778816,-0.00412362,-1.03701,0.0030421,0.039503,1861,813,33.7253,-3.05398
644,211,33.825,2.97729,0,0,0,0,0,0,0,-1,1868,813,33.8249,-2.97728
651,211,33.6698,2.50604,0,0,0,0,0,0,0,-1,1875,813,33.6699,-2.50606
658,211,27.7909,1.52234,0,0,0,0,0,0,0,-1,1882,813,27.7909,-1.52234
665,211,26.0697,1.1427,0,0,0,0,0,0,0,-1,1889,813,26.0697,-1.14268
672,211,25.5833,1.43732,-0.00329872,-0.00316328,-0.0025438,-0.000686292,-0.0057757,-0.798705,0.00364332,0.0264779,1896,813,25.5833,-1.43733
679,211,25.5935,1.70447,-0.00344226,-0.00318653,-0.00255072,-0.000760473,-0.00586832,-0.810442,0.00368497,0.0137343,1903,813,25.5935,-1.70447
686,211,25.5643,2.06946,-0.00292352,-0.00273334,-0.00259409,-0.000232603,-0.00542426,-0.803718,0.00354119,0.0104263,1910,813,25.5644,-2.06944
693,211,25.5479,2.43658,-0.00206434,-0.0023295,-0.00219621,3.28617e-06,-0.00439713,-0.755251,0.00293252,0.0118471,1917,813,25.5479,-2.4366
700,211,25.4773,2.79541,-0.00118729,-0.00177537,-0.00145826,6.27991e-06,-0.00296894,-0.685914,0.00198139,0.0143833,1924,813,25.4773,-2.79539
707,211,25.5173,3.20782,-0.000293938,-0.000980611,-0.000443865,-7.61182e-05,-0.00119843,-0.456207,0.000774829,0.0202252,1931,813,25.5173,-3.20783
714,211,25.5447,3.5968,0.000530733,-0.00045393,0.000591985,0.00080836,-0.000731557,0.438523,0.00088944,0.0217313,1938,813,25.5447,-3.5968
721,211,25.5673,3.94775,0.00111626,-0.000426745,0.0015964,0.00211781,-0.0014283,0.560309,0.00206021,0.017301,1945,813,25.5672,-3.94778
728,211,25.5687,4.28857,0.00139572,-0.000827412,0.0027169,0.00321965,-0.00265134,0.591222,0.00339491,0.0165475,1952,813,25.5688,-4.28856
735,211,25.5787,4.65607,0.00135207,-0.00185939,0.00411751,0.00416588,-0.0046732,0.599481,0.00510604,0.0264187,1959,813,25.5787,-4.65606
742,211,25.693,4.81445,0.000891665,-0.00360852,0.00592848,0.00498269,-0.00769954,0.604026,0.00737788,0.0464809,1966,813,25.693,-4.81442
749,211,25.49,4.78357,-0.000117609,-0.00640564,0.00837479,0.00568387,-0.0122071,0.605831,0.0105558,0.0476458,1973,813,25.49,-4.78355
756,211,25.0944,4.94055,0,0,0,0,0,0,0,-1,1980,813,25.0943,-4.94053
763,211,25.6447,7.14771,0,0,0,0,0,0,0,-1,1987,813,25.6447,-7.14772
770,211,25.7712,7.711,0,0,0,0,0,0,0,-1,1994,813,25.7713,-7.71098
777,211,0,0,0,0,0,0,0,0,0,-1,2001,813,0,0
784,211,0,0,0,0,0,0,0,0,0,-1,2008,813,0,0
791,211,0,0,0,0,0,0,0,0,0,-1,2015,813,0,0
798,211,0,0,0,0,0,0,0,0,0,-1,2022,813,0,0
805,211,0,0,0,0,0,0,0,0,0,-1,2029,813,0,0
812,211,0,0,0,0,0,0,0,0,0,-1,2036,813,0,0
-700,204,0,0,0,0,0,0,0,0,0,-1,524,820,0,0
-693,204,0,0,0,0,0,0,0,0,0,-1,531,820,0,0
-686,204,0,0,0,0,0,0,0,0,0,-1,538,820,0,0
-679,204,0,0,0,0,0,0,0,0,0,-1,545,820,0,0
-672,204,0,0,0,0,0,0,0,0,0,-1,552,820,0,0
-665,204,0,0,0,0,0,0,0,0,0,-1,559,820,0,0
-658,204,0,0,0,0,0,0,0,0,0,-1,566,820,0,0
-651,204,-18.8838,4.62665,0,0,0,0,0,0,0,-1,573,820,-18.8838,-4.62668
-644,204,-19.796,1.23975,0,0,0,0,0,0,0,-1,580,820,-19.796,-1.23975
-637,204,-16.4373,2.69604,0,0,0,0,0,0,0,-1,587,820,-16.4373,-2.69605
-630,204,-17.1334,2.81,0,0,0,0,0,0,0,-1,594,820,-17.1334,-2.80999
-623,204,-17.0313,2.62512,0,0,0,0,0,0,0,-1,601,820,-17.0313,-2.62513
-616,204,-17.1979,2.48224,0,0,0,0,0,0,0,-1,608,820,-17.1979,-2.48227
-609,204,-17.2963,2.2774,0.00518223,0.00230725,-0.00121707,0.00562825,0.00186123,-0.351277,0.00331099,0.0355807,615,820,-17.2962,-2.27742
-602,204,-17.4057,2.04572,0.00376627,-0.000866625,-0.00230713,0.0047192,-0.00181955,-0.391691,0.00389691,0.0160067,622,820,-17.4057,-2.04571
-595,204,-17.4532,1.69318,0.00182752,-0.00183127,-0.00177369,0.00254619,-0.00254994,-0.38497,0.00294225,0.0151379,629,820,-17.4532,-1.69316
-588,204,-17.4538,1.36005,-0.000539184,-0.00143877,0.000108575,-0.000526265,-0.00145169,0.118429,0.000848629,0.0132008,636,820,-17.4538,-1.36003
-581,204,-17.4582,1.01923,-0.00125714,-0.00122546,0.00100128,-0.000239891,-0.00224271,0.793307,0.00142194,0.012554,643,820,-17.4582,-1.01925
-574,204,-17.4703,0.66803,-0.00087835,-0.00105425,0.0010337,7.113e-05,-0.00200373,0.742958,0.00136015,0.0139732,650,820,-17.4704,-0.668024
-567,204,-17.4729,0.321106,-0.000569342,-0.00107668,0.00119991,0.000403417,-0.00204944,0.681229,0.00151873,0.0141727,657,820,-17.4729,-0.321121
-560,204,-17.5049,-0.0410156,-0.000541083,-0.000748574,0.0014356,0.000794511,-0.00208417,0.749328,0.0017167,0.0133306,664,820,-17.5049,0.0410203
-553,204,-17.4954,-0.336914,-0.00151313,-0.000720866,0.00207502,0.0009955,-0.00322949,0.879715,0.00255043,0.0147281,671,820,-17.4954,0.336936
-546,204,-17.5347,-0.592957,-0.00284115,-0.00124537,0.00241872,0.000503669,-0.00459019,0.944718,0.00324109,0.0219219,678,820,-17.5347,0.592959
-539,204,-17.5004,-0.976135,-0.00401569,-0.00168831,0.00247302,-0.000118869,-0.00558513,1.00531,0.00368444,0.0392291,685,820,-17.5004,0.976128
-532,204,-17.4112,-1.51733,0,0,0,0,0,0,0,-1,692,820,-17.4112,1.51732
-525,204,-23.2989,0.5401,0,0,0,0,0,0,0,-1,699,820,-23.2989,-0.540089
-518,204,-24.2408,1.0592,0,0,0,0,0,0,0,-1,706,820,-24.2408,-1.0592
-511,204,-24.1379,1.20361,-0.00721173,-0.00118282,0.00262116,-0.0002026,-0.00819195,1.21293,0.00539503,0.0492895,713,820,-24.138,-1.20363
-504,204,-24.0198,1.35559,-0.00768697,-0.000977982,0.00235399,-0.000234443,-0.00843051,1.26485,0.00554384,0.0492874,720,820,-24.0198,-1.35556
-497,204,-24.1396,1.28882,-0.00776162,-0.000563994,0.00164106,-0.000207488,-0.00811813,1.35688,0.00534426,0.0413519,727,820,-24.1397,-1.28884
-490,204,-24.3136,0.898438,-0.00642392,0.000302194,0.000205584,0.000308472,-0.0064302,1.54027,0.00439323,0.0348637,734,820,-24.3136,-0.898413
-483,204,-24.3215,0.733887,-0.00240293,0.00160921,-0.0023671,0.00270595,-0.00349968,-1.13691,0.00359258,0.0383719,741,820,-24.3216,-0.733873
-476,204,0,0,0,0,0,0,0,0,0,-1,748,820,0,0
-469,204,0,0,0,0,0,0,0,0,0,-1,755,820,0,0
-462,204,0,0,0,0,0,0,0,0,0,-1,762,820,0,0
-455,204,0,0,0,0,0,0,0,0,0,-1,769,820,0,0
-448,204,0,0,0,0,0,0,0,0,0,-1,776,820,0,0
-441,204,0,0,0,0,0,0,0,0,0,-1,783,820,0,0
-434,204,0,0,0,0,0,0,0,0,0,-1,790,820,0,0
-427,204,0,0,0,0,0,0,0,0,0,-1,797,820,0,0
-420,204,0,0,0,0,0,0,0,0,0,-1,804,820,0,0
-413,204,0,0,0,0,0,0,0,0,0,-1,811,820,0,0
-406,204,0,0,0,0,0,0,0,0,0,-1,818,820,0,0
-399,204,0,0,0,0,0,0,0,0,0,-1,825,820,0,0
-392,204,0,0,0,0,0,0,0,0,0,-1,832,820,0,0
-385,204,0,0,0,0,0,0,0,0,0,-1,839,820,0,0
-378,204,0,0,0,0,0,0,0,0,0,-1,846,820,0,0
-371,204,0,0,0,0,0,0,0,0,0,-1,853,820,0,0
-364,204,0,0,0,0,0,0,0,0,0,-1,860,820,0,0
-357,204,0,0,0,0,0,0,0,0,0,-1,867,820,0,0
-350,204,0,0,0,0,0,0,0,0,0,-1,874,820,0,0
-343,204,0,0,0,0,0,0,0,0,0,-1,881,820,0,0
-336,204,0,0,0,0,0,0,0,0,0,-1,888,820,0,0
-329,204,0,0,0,0,0,0,0,0,0,-1,895,820,0,0
-322,204,0,0,0,0,0,0,0,0,0,-1,902,820,0,0
-315,204,0,0,0,0,0,0,0,0,0,-1,909,820,0,0
-308,204,0,0,0,0,0,0,0,0,0,-1,916,820,0,0
-301,204,0,0,0,0,0,0,0,0,0,-1,923,820,0,0
-294,204,0,0,0,0,0,0,0,0,0,-1,930,820,0,0
-287,204,0,0,0,0,0,0,0,0,0,-1,937,820,0,0
-280,204,0,0,0,0,0,0,0,0,0,-1,944,820,0,0
-273,204,0,0,0,0,0,0,0,0,0,-1,951,820,0,0
-266,204,0,0,0,0,0,0,0,0,0,-1,958,820,0,0
-259,204,0,0,0,0,0,0,0,0,0,-1,965,820,0,0
-252,204,0,0,0,0,0,0,0,0,0,-1,972,820,0,0
-245,204,0,0,0,0,0,0,0,0,0,-1,979,820,0,0
-238,204,0,0,0,0,0,0,0,0,0,-1,986,820,0,0
-231,204,0,0,0,0,0,0,0,0,0,-1,993,820,0,0
-224,204,0,0,0,0,0,0,0,0,0,-1,1000,820,0,0
-217,204,0,0,0,0,0,0,0,0,0,-1,1007,820,0,0
-210,204,0,0,0,0,0,0,0,0,0,-1,1014,820,0,0
-203,204,0,0,0,0,0,0,0,0,0,-1,1021,820,0,0
-196,204,0,0,0,0,0,0,0,0,0,-1,1028,820,0,0
-189,204,0,0,0,0,0,0,0,0,0,-1,1035,820,0,0
-182,204,0,0,0,0,0,0,0,0,0,-1,1042,820,0,0
-175,204,0,0,0,0,0,0,0,0,0,-1,1049,820,0,0
-168,204,0,0,0,0,0,0,0,0,0,-1,1056,820,0,0
-161,204,0,0,0,0,0,0,0,0,0,-1,1063,820,0,0
-154,204,0,0,0,0,0,0,0,0,0,-1,1070,820,0,0
-147,204,0,0,0,0,0,0,0,0,0,-1,1077,820,0,0
-140,204,0,0,0,0,0,0,0,0,0,-1,1084,820,0,0
-133,204,0,0,0,0,0,0,0,0,0,-1,1091,820,0,0
-126,204,0,0,0,0,0,0,0,0,0,-1,1098,820,0,0
-119,204,0,0,0,0,0,0,0,0,0,-1,1105,820,0,0
-112,204,0,0,0,0,0,0,0,0,0,-1,1112,820,0,0
-105,204,0,0,0,0,0,0,0,0,0,-1,1119,820,0,0
-98,204,0,0,0,0,0,0,0,0,0,-1,1126,820,0,0
-91,204,0,0,0,0,0,0,0,0,0,-1,1133,820,0,0
-84,204,0,0,0,0,0,0,0,0,0,-1,1140,820,0,0
-77,204,0,0,0,0,0,0,0,0,0,-1,1147,820,0,0
-70,204,0,0,0,0,0,0,0,0,0,-1,1154,820,0,0
-63,204,0,0,0,0,0,0,0,0,0,-1,1161,820,0,0
-56,204,0,0,0,0,0,0,0,0,0,-1,1168,820,0,0
-49,204,0,0,0,0,0,0,0,0,0,-1,1175,820,0,0
-42,204,0,0,0,0,0,0,0,0,0,-1,1182,820,0,0
-35,204,0,0,0,0,0,0,0,0,0,-1,1189,820,0,0
-28,204,0,0,0,0,0,0,0,0,0,-1,1196,820,0,0
-21,204,0,0,0,0,0,0,0,0,0,-1,1203,820,0,0
-14,204,0,0,0,0,0,0,0,0,0,-1,1210,820,0,0
-7,204,0,0,0,0,0,0,0,0,0,-1,1217,820,0,0
0,204,0,0,0,0,0,0,0,0,0,-1,1224,820,0,0
7,204,0,0,0,0,0,0,0,0,0,-1,1231,820,0,0
14,204,0,0,0,0,0,0,0,0,0,-1,1238,820,0,0
21,204,0,0,0,0,0,0,0,0,0,-1,1245,820,0,0
28,204,0,0,0,0,0,0,0,0,0,-1,1252,820,0,0
35,204,0,0,0,0,0,0,0,0,0,-1,1259,820,0,0
42,204,0,0,0,0,0,0,0,0,0,-1,1266,820,0,0
49,204,0,0,0,0,0,0,0,0,0,-1,1273,820,0,0
56,204,0,0,0,0,0,0,0,0,0,-1,1280,820,0,0
63,204,0,0,0,0,0,0,0,0,0,-1,1287,820,0,0
70,204,0,0,0,0,0,0,0,0,0,-1,1294,820,0,0
77,204,0,0,0,0,0,0,0,0,0,-1,1301,820,0,0
84,204,0,0,0,0,0,0,0,0,0,-1,1308,820,0,0
91,204,0,0,0,0,0,0,0,0,0,-1,1315,820,0,0
98,204,0,0,0,0,0,0,0,0,0,-1,1322,820,0,0
105,204,0,0,0,0,0,0,0,0,0,-1,1329,820,0,0
112,204,0,0,0,0,0,0,0,0,0,-1,1336,820,0,0
119,204,0,0,0,0,0,0,0,0,0,-1,1343,820,0,0
126,204,0,0,0,0,0,0,0,0,0,-1,1350,820,0,0
133,204,0,0,0,0,0,0,0,0,0,-1,1357,820,0,0
140,204,0,0,0,0,0,0,0,0,0,-1,1364,820,0,0
147,204,0,0,0,0,0,0,0,0,0,-1,1371,820,0,0
154,204,0,0,0,0,0,0,0,0,0,-1,1378,820,0,0
161,204,0,0,0,0,0,0,0,0,0,-1,1385,820,0,0
168,204,0,0,0,0,0,0,0,0,0,-1,1392,820,0,0
175,204,0,0,0,0,0,0,0,0,0,-1,1399,820,0,0
182,204,0,0,0,0,0,0,0,0,0,-1,1406,820,0,0
189,204,0,0,0,0,0,0,0,0,0,-1,1413,820,0,0
196,204,0,0,0,0,0,0,0,0,0,-1,1420,820,0,0
203,204,0,0,0,0,0,0,0,0,0,-1,1427,820,0,0
210,204,0,0,0,0,0,0,0,0,0,-1,1434,820,0,0
217,204,0,0,0,0,0,0,0,0,0,-1,1441,820,0,0
224,204,0,0,0,0,0,0,0,0,0,-1,1448,820,0,0
231,204,0,0,0,0,0,0,0,0,0,-1,1455,820,0,0
238,204,0,0,0,0,0,0,0,0,0,-1,1462,820,0,0
245,204,0,0,0,0,0,0,0,0,0,-1,1469,820,0,0
252,204,0,0,0,0,0,0,0,0,0,-1,1476,820,0,0
259,204,0,0,0,0,0,0,0,0,0,-1,1483,820,0,0
266,204,0,0,0,0,0,0,0,0,0,-1,1490,820,0,0
273,204,0,0,0,0,0,0,0,0,0,-1,1497,820,0,0
280,204,0,0,0,0,0,0,0,0,0,-1,1504,820,0,0
287,204,0,0,0,0,0,0,0,0,0,-1,1511,820,0,0
294,204,0,0,0,0,0,0,0,0,0,-1,1518,820,0,0
301,204,0,0,0,0,0,0,0,0,0,-1,1525,820,0,0
308,204,0,0,0,0,0,0,0,0,0,-1,1532,820,0,0
315,204,0,0,0,0,0,0,0,0,0,-1,1539,820,0,0
322,204,0,0,0,0,0,0,0,0,0,-1,1546,820,0,0
329,204,0,0,0,0,0,0,0,0,0,-1,1553,820,0,0
336,204,0,0,0,0,0,0,0,0,0,-1,1560,820,0,0
343,204,0,0,0,0,0,0,0,0,0,-1,1567,820,0,0
350,204,0,0,0,0,0,0,0,0,0,-1,1574,820,0,0
357,204,0,0,0,0,0,0,0,0,0,-1,1581,820,0,0
364,204,0,0,0,0,0,0,0,0,0,-1,1588,820,0,0
371,204,0,0,0,0,0,0,0,0,0,-1,1595,820,0,0
378,204,0,0,0,0,0,0,0,0,0,-1,1602,820,0,0
385,204,0,0,0,0,0,0,0,0,0,-1,1609,820,0,0
392,204,0,0,0,0,0,0,0,0,0,-1,1616,820,0,0
399,204,0,0,0,0,0,0,0,0,0,-1,1623,820,0,0
406,204,0,0,0,0,0,0,0,0,0,-1,1630,820,0,0
413,204,0,0,0,0,0,0,0,0,0,-1,1637,820,0,0
420,204,0,0,0,0,0,0,0,0,0,-1,1644,820,0,0
427,204,0,0,0,0,0,0,0,0,0,-1,1651,820,0,0
434,204,0,0,0,0,0,0,0,0,0,-1,1658,820,0,0
441,204,0,0,0,0,0,0,0,0,0,-1,1665,820,0,0
448,204,0,0,0,0,0,0,0,0,0,-1,1672,820,0,0
455,204,0,0,0,0,0,0,0,0,0,-1,1679,820,0,0
462,204,0,0,0,0,0,0,0,0,0,-1,1686,820,0,0
469,204,0,0,0,0,0,0,0,0,0,-1,1693,820,0,0
476,204,0,0,0,0,0,0,0,0,0,-1,1700,820,0,0
483,204,0,0,0,0,0,0,0,0,0,-1,1707,820,0,0
490,204,0,0,0,0,0,0,0,0,0,-1,1714,820,0,0
497,204,0,0,0,0,0,0,0,0,0,-1,1721,820,0,0
504,204,0,0,0,0,0,0,0,0,0,-1,1728,820,0,0
511,204,0,0,0,0,0,0,0,0,0,-1,1735,820,0,0
518,204,0,0,0,0,0,0,0,0,0,-1,1742,820,0,0
525,204,0,0,0,0,0,0,0,0,0,-1,1749,820,0,0
532,204,0,0,0,0,0,0,0,0,0,-1,1756,820,0,0
539,204,0,0,0,0,0,0,0,0,0,-1,1763,820,0,0
546,204,0,0,0,0,0,0,0,0,0,-1,1770,820,0,0
553,204,0,0,0,0,0,0,0,0,0,-1,1777,820,0,0
560,204,0,0,0,0,0,0,0,0,0,-1,1784,820,0,0
567,204,0,0,0,0,0,0,0,0,0,-1,1791,820,0,0
574,204,0,0,0,0,0,0,0,0,0,-1,1798,820,0,0
581,204,0,0,0,0,0,0,0,0,0,-1,1805,820,0,0
588,204,0,0,0,0,0,0,0,0,0,-1,1812,820,0,0
595,204,0,0,0,0,0,0,0,0,0,-1,1819,820,0,0
602,204,33.8759,2.76947,0.000661472,0.000282427,-0.00302123,0.00349911,-0.00255522,-0.754074,0.0035096,0.0393476,1826,820,33.8759,-2.76946
609,204,33.7291,2.81531,0.000400183,0.00176952,-0.00183235,0.00304094,-0.000871237,-0.964194,0.00237166,0.0427843,1833,820,33.7292,-2.81533
616,204,33.731,2.90302,-0.000269415,0.00178964,-0.00145394,0.00254164,-0.00102142,-1.09347,0.00211863,0.0395454,1840,820,33.731,-2.90304
623,204,33.7466,2.97864,-0.00113876,0.00110947,-0.00148419,0.0018472,-0.00187649,-1.10951,0.0021499,0.0277672,1847,820,33.7466,-2.97864
630,204,33.7178,3.00116,-0.00190238,9.84871e-05,-0.001712,0.00108093,-0.00288482,-1.04982,0.00236727,0.0261683,1854,820,33.7178,-3.00113
637,204,33.7307,2.96222,-0.00254546,-0.000794764,-0.00201132,0.000523432,-0.00386366,-0.990642,0.0027668,0.0325125,1861,820,33.7307,-2.96223
644,204,33.7947,2.88849,-0.00303205,-0.00155472,-0.00219132,1.90805e-05,-0.00460586,-0.94796,0.00307695,0.0400804,1868,820,33.7947,-2.88851
651,204,33.575,2.565,-0.00323403,-0.00206118,-0.00232698,-0.000247871,-0.00504733,-0.908834,0.00328538,0.0483726,1875,820,33.5749,-2.56498
658,204,33.2036,2.39185,0,0,0,0,0,0,0,-1,1882,820,33.2036,-2.39185
665,204,21.8292,1.51099,0,0,0,0,0,0,0,-1,1889,820,21.8292,-1.51099
672,204,25.8256,1.41199,0,0,0,0,0,0,0,-1,1896,820,25.8256,-1.41196
679,204,25.9094,1.60437,-0.0034292,-0.00310385,-0.00255727,-0.000704085,-0.00582897,-0.817162,0.00367385,0.0310458,1903,820,25.9095,-1.60439
686,204,25.933,2.06897,-0.00304684,-0.00281333,-0.00263533,-0.000292166,-0.005568,-0.807536,0.00361855,0.0132344,1910,820,25.933,-2.06898
693,204,25.8682,2.44153,-0.00232203,-0.00257932,-0.00238636,-6.08526e-05,-0.0048405,-0.75847,0.00320691,0.0154693,1917,820,25.8682,-2.4415
700,204,25.889,2.81812,-0.00159113,-0.00214635,-0.00181097,-3.66096e-05,-0.00370086,-0.709344,0.00245513,0.0183909,1924,820,25.889,-2.8181
707,204,25.8727,3.23694,-0.000812453,-0.00143281,-0.000917592,-0.000154032,-0.00209123,-0.62241,0.00134575,0.0156478,1931,820,25.8726,-3.23696
714,204,25.8979,3.65302,-0.000116971,-0.000914799,6.15998e-06,-0.000116924,-0.000914846,0.00772034,0.0005749,0.0229716,1938,820,25.898,-3.65301
721,204,25.9033,3.96667,0.000371756,-0.000850065,0.000923822,0.000868392,-0.0013467,0.493264,0.00128878,0.0214017,1945,820,25.9033,-3.96667
728,204,25.8878,4.29999,0.000556671,-0.00112655,0.00196151,0.0018495,-0.00241938,0.582744,0.00247195,0.013071,1952,820,25.8878,-4.3
735,204,25.8424,4.67413,0.00044963,-0.00189748,0.00325159,0.00273296,-0.00418082,0.612214,0.00402074,0.0147289,1959,820,25.8424,-4.67412
742,204,25.7781,5.026,-2.12889e-05,-0.00320616,0.0049169,0.00355462,-0.00678207,0.628794,0.00606408,0.0289661,1966,820,25.778,-5.02599
749,204,25.8092,5.33923,-0.000861938,-0.00528225,0.00722575,0.00448411,-0.0106283,0.63698,0.0089623,0.0433826,1973,820,25.8092,-5.33922
756,204,25.7766,5.76337,0,0,0,0,0,0,0,-1,1980,820,25.7766,-5.76338
763,204,25.6598,6.9245,0,0,0,0,0,0,0,-1,1987,820,25.6598,-6.92452
770,204,25.723,7.40259,0,0,0,0,0,0,0,-1,1994,820,25.723,-7.4026
777,204,0,0,0,0,0,0,0,0,0,-1,2001,820,0,0
784,204,0,0,0,0,0,0,0,0,0,-1,2008,820,0,0
791,204,0,0,0,0,0,0,0,0,0,-1,2015,820,0,0
798,204,0,0,0,0,0,0,0,0,0,-1,2022,820,0,0
805,204,0,0,0,0,0,0,0,0,0,-1,2029,820,0,0
812,204,0,0,0,0,0,0,0,0,0,-1,2036,820,0,0
-700,197,0,0,0,0,0,0,0,0,0,-1,524,827,0,0
-693,197,0,0,0,0,0,0,0,0,0,-1,531,827,0,0
-686,197,0,0,0,0,0,0,0,0,0,-1,538,827,0,0
-679,197,0,0,0,0,0,0,0,0,0,-1,545,827,0,0
-672,197,0,0,0,0,0,0,0,0,0,-1,552,827,0,0
-665,197,0,0,0,0,0,0,0,0,0,-1,559,827,0,0
-658,197,-18.0249,4.1817,0.0129336,0.0566572,0.0243406,0.0675124,0.00207837,1.1513,0.0443317,0.0444309,566,827,-18.0249,-4.18172
-651,197,-19.0324,4.13196,0.0145004,0.0411823,0.0138565,0.0470763,0.00860644,1.16862,0.0289451,0.048915,573,827,-19.0324,-4.13199
-644,197,-18.5774,3.70343,0,0,0,0,0,0,0,-1,580,827,-18.5774,-3.70343
-637,197,-16.5488,4.19678,0,0,0,0,0,0,0,-1,587,827,-16.5488,-4.19679
-630,197,-16.7599,3.55231,0,0,0,0,0,0,0,-1,594,827,-16.7599,-3.55229
-623,197,-17.0205,2.94019,0.00867264,0.0109597,0.0027475,0.0127922,0.00684021,0.982601,0.0073915,0.046952,601,827,-17.0205,-2.94018
-616,197,-17.3664,2.47321,0.00600028,0.00714126,0.00172677,0.00838934,0.0047522,0.944944,0.00485783,0.044295,608,827,-17.3664,-2.47318
-609,197,-17.6364,2.25842,0.00379362,0.00370374,0.000541034,0.00429158,0.00320578,0.743962,0.00257655,0.0324914,615,827,-17.6363,-2.25845
-602,197,-17.7855,2.0246,0.00242608,0.000417935,-0.00115147,0.00294976,-0.000105753,-0.426837,0.00200269,0.0174655,622,827,-17.7854,-2.02458
-595,197,-17.8216,1.70953,0.000607159,-0.000868975,-0.00121317,0.00128914,-0.00155095,-0.51212,0.00164205,0.0180927,629,827,-17.8216,-1.70956
-588,197,-17.8232,1.36017,-0.00144019,-0.000955542,0.000302739,-0.000810087,-0.00158564,1.1229,0.000915543,0.0192084,636,827,-17.8232,-1.36016
-581,197,-17.8038,1.01776,-0.00179223,-0.00097241,0.000987973,-0.000312686,-0.00245196,0.982041,0.00154102,0.011307,643,827,-17.8038,-1.01775
-574,197,-17.7947,0.67981,-0.00120781,-0.000887169,0.000974802,-5.959e-05,-0.00203538,0.8669,0.0013375,0.0126164,650,827,-17.7947,-0.679838
-567,197,-17.802,0.318481,-0.000761764,-0.000924988,0.00103282,0.000192666,-0.00187942,0.745971,0.00132186,0.0138409,657,827,-17.802,-0.318505
-560,197,-17.8243,0.00213623,-0.000595445,-0.000655649,0.00118337,0.00055821,-0.0018093,0.772682,0.00142909,0.0169602,664,827,-17.8243,-0.00215802
-553,197,-17.9678,-0.303528,-0.0012971,-0.00060339,0.00174371,0.000827627,-0.00272812,0.883575,0.00214843,0.0204664,671,827,-17.9678,0.303542
-546,197,-17.8559,-0.606201,-0.00231496,-0.0010975,0.00206041,0.000442224,-0.00385469,0.929032,0.00272917,0.034118,678,827,-17.8559,0.606181
-539,197,-17.7404,-0.860291,0,0,0,0,0,0,0,-1,685,827,-17.7404,0.860291
-532,197,-16.0519,0.0410156,0,0,0,0,0,0,0,-1,692,827,-16.0519,-0.0410415
-525,197,-24.498,0.615479,0,0,0,0,0,0,0,-1,699,827,-24.4981,-0.615456
-518,197,-24.4197,0.761719,0,0,0,0,0,0,0,-1,706,827,-24.4197,-0.761695
-511,197,-24.2862,0.965088,-0.00601717,-0.00129379,0.00231247,-0.000350168,-0.0069608,1.18336,0.00452832,0.0439894,713,827,-24.2862,-0.96508
-504,197,-24.2222,1.20166,-0.00635173,-0.00123853,0.0020808,-0.000498773,-0.00709149,1.22922,0.00457048,0.0401029,720,827,-24.2222,-1.20167
-497,197,-24.3622,1.16461,-0.0061354,-0.0010181,0.0013622,-0.00067808,-0.00647542,1.32618,0.00410961,0.0397297,727,827,-24.3622,-1.16461
-490,197,-24.5084,0.900391,-0.0041014,-0.000493585,-0.0002121,-0.000481158,-0.00411382,-1.51228,0.00259706,0.0377759,734,827,-24.5084,-0.900395
-483,197,-24.3946,0.693054,0.00130385,0.000123391,-0.00311718,0.00388619,-0.00245894,-0.691832,0.00369413,0.0393928,741,827,-24.3946,-0.693084
-476,197,0,0,0,0,0,0,0,0,0,-1,748,827,0,0
-469,197,0,0,0,0,0,0,0,0,0,-1,755,827,0,0
-462,197,0,0,0,0,0,0,0,0,0,-1,762,827,0,0
-455,197,0,0,0,0,0,0,0,0,0,-1,769,827,0,0
-448,197,0,0,0,0,0,0,0,0,0,-1,776,827,0,0
-441,197,0,0,0,0,0,0,0,0,0,-1,783,827,0,0
-434,197,0,0,0,0,0,0,0,0,0,-1,790,827,0,0
-427,197,0,0,0,0,0,0,0,0,0,-1,797,827,0,0
-420,197,0,0,0,0,0,0,0,0,0,-1,804,827,0,0
-413,197,0,0,0,0,0,0,0,0,0,-1,811,827,0,0
-406,197,0,0,0,0,0,0,0,0,0,-1,818,827,0,0
-399,197,0,0,0,0,0,0,0,0,0,-1,825,827,0,0
-392,197,0,0,0,0,0,0,0,0,0,-1,832,827,0,0
-385,197,0,0,0,0,0,0,0,0,0,-1,839,827,0,0
-378,197,0,0,0,0,0,0,0,0,0,-1,846,827,0,0
-371,197,0,0,0,0,0,0,0,0,0,-1,853,827,0,0
-364,197,0,0,0,0,0,0,0,0,0,-1,860,827,0,0
-357,197,0,0,0,0,0,0,0,0,0,-1,867,827,0,0
-350,197,0,0,0,0,0,0,0,0,0,-1,874,827,0,0
-343,197,0,0,0,0,0,0,0,0,0,-1,881,827,0,0
-336,197,0,0,0,0,0,0,0,0,0,-1,888,827,0,0
-329,197,0,0,0,0,0,0,0,0,0,-1,895,827,0,0
-322,197,0,0,0,0,0,0,0,0,0,-1,902,827,0,0
-315,197,0,0,0,0,0,0,0,0,0,-1,909,827,0,0
-308,197,0,0,0,0,0,0,0,0,0,-1,916,827,0,0
-301,197,0,0,0,0,0,0,0,0,0,-1,923,827,0,0
-294,197,0,0,0,0,0,0,0,0,0,-1,930,827,0,0
-287,197,0,0,0,0,0,0,0,0,0,-1,937,827,0,0
-280,197,0,0,0,0,0,0,0,0,0,-1,944,827,0,0
-273,197,0,0,0,0,0,0,0,0,0,-1,951,827,0,0
-266,197,0,0,0,0,0,0,0,0,0,-1,958,827,0,0
-259,197,0,0,0,0,0,0,0,0,0,-1,965,827,0,0
-252,197,0,0,0,0,0,0,0,0,0,-1,972,827,0,0
-245,197,0,0,0,0,0,0,0,0,0,-1,979,827,0,0
-238,197,0,0,0,0,0,0,0,0,0,-1,986,827,0,0
-231,197,0,0,0,0,0,0,0,0,0,-1,993,827,0,0
-224,197,0,0,0,0,0,0,0,0,0,-1,1000,827,0,0
-217,197,0,0,0,0,0,0,0,0,0,-1,1007,827,0,0
-210,197,0,0,0,0,0,0,0,0,0,-1,1014,827,0,0
-203,197,0,0,0,0,0,0,0,0,0,-1,1021,827,0,0
-196,197,0,0,0,0,0,0,0,0,0,-1,1028,827,0,0
-189,197,0,0,0,0,0,0,0,0,0,-1,1035,827,0,0
-182,197,0,0,0,0,0,0,0,0,0,-1,1042,827,0,0
-175,197,0,0,0,0,0,0,0,0,0,-1,1049,827,0,0
-168,197,0,0,0,0,0,0,0,0,0,-1,1056,827,0,0
-161,197,0,0,0,0,0,0,0,0,0,-1,1063,827,0,0
-154,197,0,0,0,0,0,0,0,0,0,-1,1070,827,0,0
-147,197,0,0,0,0,0,0,0,0,0,-1,1077,827,0,0
-140,197,0,0,0,0,0,0,0,0,0,-1,1084,827,0,0
-133,197,0,0,0,0,0,0,0,0,0,-1,1091,827,0,0
-126,197,0,0,0,0,0,0,0,0,0,-1,1098,827,0,0
-119,197,0,0,0,0,0,0,0,0,0,-1,1105,827,0,0
-112,197,0,0,0,0,0,0,0,0,0,-1,1112,827,0,0
-105,197,0,0,0,0,0,0,0,0,0,-1,1119,827,0,0
-98,197,0,0,0,0,0,0,0,0,0,-1,1126,827,0,0
-91,197,0,0,0,0,0,0,0,0,0,-1,1133,827,0,0
-84,197,0,0,0,0,0,0,0,0,0,-1,1140,827,0,0
-77,197,0,0,0,0,0,0,0,0,0,-1,1147,827,0,0
-70,197,0,0,0,0,0,0,0,0,0,-1,1154,827,0,0
-63,197,0,0,0,0,0,0,0,0,0,-1,1161,827,0,0
-56,197,0,0,0,0,0,0,0,0,0,-1,1168,827,0,0
-49,197,0,0,0,0,0,0,0,0,0,-1,1175,827,0,0
-42,197,0,0,0,0,0,0,0,0,0,-1,1182,827,0,0
-35,197,0,0,0,0,0,0,0,0,0,-1,1189,827,0,0
-28,197,0,0,0,0,0,0,0,0,0,-1,1196,827,0,0
-21,197,0,0,0,0,0,0,0,0,0,-1,1203,827,0,0
-14,197,0,0,0,0,0,0,0,0,0,-1,1210,827,0,0
-7,197,0,0,0,0,0,0,0,0,0,-1,1217,827,0,0
0,197,0,0,0,0,0,0,0,0,0,-1,1224,827,0,0
7,197,0,0,0,0,0,0,0,0,0,-1,1231,827,0,0
14,197,0,0,0,0,0,0,0,0,0,-1,1238,827,0,0
21,197,0,0,0,0,0,0,0,0,0,-1,1245,827,0,0
28,197,0,0,0,0,0,0,0,0,0,-1,1252,827,0,0
35,197,0,0,0,0,0,0,0,0,0,-1,1259,827,0,0
42,197,0,0,0,0,0,0,0,0,0,-1,1266,827,0,0
49,197,0,0,0,0,0,0,0,0,0,-1,1273,827,0,0
56,197,0,0,0,0,0,0,0,0,0,-1,1280,827,0,0
63,197,0,0,0,0,0,0,0,0,0,-1,1287,827,0,0
70,197,0,0,0,0,0,0,0,0,0,-1,1294,827,0,0
77,197,0,0,0,0,0,0,0,0,0,-1,1301,827,0,0
84,197,0,0,0,0,0,0,0,0,0,-1,1308,827,0,0
91,197,0,0,0,0,0,0,0,0,0,-1,1315,827,0,0
98,197,0,0,0,0,0,0,0,0,0,-1,1322,827,0,0
105,197,0,0,0,0,0,0,0,0,0,-1,1329,827,0,0
112,197,0,0,0,0,0,0,0,0,0,-1,1336,827,0,0
119,197,0,0,0,0,0,0,0,0,0,-1,1343,827,0,0
126,197,0,0,0,0,0,0,0,0,0,-1,1350,827,0,0
133,197,0,0,0,0,0,0,0,0,0,-1,1357,827,0,0
140,197,0,0,0,0,0,0,0,0,0,-1,1364,827,0,0
147,197,0,0,0,0,0,0,0,0,0,-1,1371,827,0,0
154,197,0,0,0,0,0,0,0,0,0,-1,1378,827,0,0
161,197,0,0,0,0,0,0,0,0,0,-1,1385,827,0,0
168,197,0,0,0,0,0,0,0,0,0,-1,1392,827,0,0
175,197,0,0,0,0,0,0,0,0,0,-1,1399,827,0,0
182,197,0,0,0,0,0,0,0,0,0,-1,1406,827,0,0
189,197,0,0,0,0,0,0,0,0,0,-1,1413,827,0,0
196,197,0,0,0,0,0,0,0,0,0,-1,1420,827,0,0
203,197,0,0,0,0,0,0,0,0,0,-1,1427,827,0,0
210,197,0,0,0,0,0,0,0,0,0,-1,1434,827,0,0
217,197,0,0,0,0,0,0,0,0,0,-1,1441,827,0,0
224,197,0,0,0,0,0,0,0,0,0,-1,1448,827,0,0
231,197,0,0,0,0,0,0,0,0,0,-1,1455,827,0,0
238,197,0,0,0,0,0,0,0,0,0,-1,1462,827,0,0
245,197,0,0,0,0,0,0,0,0,0,-1,1469,827,0,0
252,197,0,0,0,0,0,0,0,0,0,-1,1476,827,0,0
259,197,0,0,0,0,0,0,0,0,0,-1,1483,827,0,0
266,197,0,0,0,0,0,0,0,0,0,-1,1490,827,0,0
273,197,0,0,0,0,0,0,0,0,0,-1,1497,827,0,0
280,197,0,0,0,0,0,0,0,0,0,-1,1504,827,0,0
287,197,0,0,0,0,0,0,0,0,0,-1,1511,827,0,0
294,197,0,0,0,0,0,0,0,0,0,-1,1518,827,0,0
301,197,0,0,0,0,0,0,0,0,0,-1,1525,827,0,0
308,197,0,0,0,0,0,0,0,0,0,-1,1532,827,0,0
315,197,0,0,0,0,0,0,0,0,0,-1,1539,827,0,0
322,197,0,0,0,0,0,0,0,0,0,-1,1546,827,0,0
329,197,0,0,0,0,0,0,0,0,0,-1,1553,827,0,0
336,197,0,0,0,0,0,0,0,0,0,-1,1560,827,0,0
343,197,0,0,0,0,0,0,0,0,0,-1,1567,827,0,0
350,197,0,0,0,0,0,0,0,0,0,-1,1574,827,0,0
357,197,0,0,0,0,0,0,0,0,0,-1,1581,827,0,0
364,197,0,0,0,0,0,0,0,0,0,-1,1588,827,0,0
371,197,0,0,0,0,0,0,0,0,0,-1,1595,827,0,0
378,197,0,0,0,0,0,0,0,0,0,-1,1602,827,0,0
385,197,0,0,0,0,0,0,0,0,0,-1,1609,827,0,0
392,197,0,0,0,0,0,0,0,0,0,-1,1616,827,0,0
399,197,0,0,0,0,0,0,0,0,0,-1,1623,827,0,0
406,197,0,0,0,0,0,0,0,0,0,-1,1630,827,0,0
413,197,0,0,0,0,0,0,0,0,0,-1,1637,827,0,0
420,197,0,0,0,0,0,0,0,0,0,-1,1644,827,0,0
427,197,0,0,0,0,0,0,0,0,0,-1,1651,827,0,0
434,197,0,0,0,0,0,0,0,0,0,-1,1658,827,0,0
441,197,0,0,0,0,0,0,0,0,0,-1,1665,827,0,0
448,197,0,0,0,0,0,0,0,0,0,-1,1672,827,0,0
455,197,0,0,0,0,0,0,0,0,0,-1,1679,827,0,0
462,197,0,0,0,0,0,0,0,0,0,-1,1686,827,0,0
469,197,0,0,0,0,0,0,0,0,0,-1,1693,827,0,0
476,197,0,0,0,0,0,0,0,0,0,-1,1700,827,0,0
483,197,0,0,0,0,0,0,0,0,0,-1,1707,827,0,0
490,197,0,0,0,0,0,0,0,0,0,-1,1714,827,0,0
497,197,0,0,0,0,0,0,0,0,0,-1,1721,827,0,0
504,197,0,0,0,0,0,0,0,0,0,-1,1728,827,0,0
511,197,0,0,0,0,0,0,0,0,0,-1,1735,827,0,0
518,197,0,0,0,0,0,0,0,0,0,-1,1742,827,0,0
525,197,0,0,0,0,0,0,0,0,0,-1,1749,827,0,0
532,197,0,0,0,0,0,0,0,0,0,-1,1756,827,0,0
539,197,0,0,0,0,0,0,0,0,0,-1,1763,827,0,0
546,197,0,0,0,0,0,0,0,0,0,-1,1770,827,0,0
553,197,0,0,0,0,0,0,0,0,0,-1,1777,827,0,0
560,197,0,0,0,0,0,0,0,0,0,-1,1784,827,0,0
567,197,0,0,0,0,0,0,0,0,0,-1,1791,827,0,0
574,197,0,0,0,0,0,0,0,0,0,-1,1798,827,0,0
581,197,0,0,0,0,0,0,0,0,0,-1,1805,827,0,0
588,197,0,0,0,0,0,0,0,0,0,-1,1812,827,0,0
595,197,0,0,0,0,0,0,0,0,0,-1,1819,827,0,0
602,197,33.7963,2.71893,0.00138651,-0.00160695,-0.0041998,0.00434832,-0.00456875,-0.614224,0.0051488,0.0407483,1826,827,33.7963,-2.71895
609,197,33.6466,2.60498,0.0013117,8.78526e-05,-0.00212814,0.00291414,-0.00151459,-0.645405,0.00259914,0.0412871,1833,827,33.6467,-2.60495
616,197,33.7278,2.71631,0.000712781,0.000446872,-0.00118737,0.00177461,-0.000614962,-0.729643,0.00143275,0.0399425,1840,827,33.7277,-2.7163
623,197,33.7979,2.83093,-0.000270341,0.000169171,-0.000975728,0.000949584,-0.00105075,-0.896161,0.00115539,0.0358406,1847,827,33.7978,-2.8309
630,197,33.8116,2.86633,-0.00121901,-0.000550049,-0.0011853,0.000347055,-0.00211611,-0.922918,0.00153952,0.0301582,1854,827,33.8116,-2.86632
637,197,33.7993,2.8689,-0.00201722,-0.00124253,-0.00157441,-8.51287e-06,-0.00325123,-0.906015,0.00216465,0.0273243,1861,827,33.7993,-2.86887
644,197,33.8179,2.88824,-0.00258474,-0.00186135,-0.00185706,-0.000331094,-0.004115,-0.881578,0.0026399,0.0325597,1868,827,33.8179,-2.88823
651,197,33.64,2.86572,-0.00285812,-0.00227802,-0.00206861,-0.000479225,-0.00465691,-0.855052,0.00295783,0.0454095,1875,827,33.64,-2.86572
658,197,33.502,2.88342,0,0,0,0,0,0,0,-1,1882,827,33.502,-2.88341
665,197,14.0618,1.80304,0,0,0,0,0,0,0,-1,1889,827,14.0617,-1.80303
672,197,26.5841,1.04028,0,0,0,0,0,0,0,-1,1896,827,26.5841,-1.04029
679,197,26.4379,1.70538,-0.00328401,-0.00294823,-0.00248656,-0.000623897,-0.00560834,-0.819107,0.00354925,0.0401493,1903,827,26.4379,-1.70538
686,197,26.2992,2.13397,-0.00303363,-0.00278296,-0.00255568,-0.000349545,-0.00546705,-0.809899,0.00353395,0.0224737,1910,827,26.2992,-2.13397
693,197,26.2598,2.50635,-0.00243147,-0.00265875,-0.00239861,-0.000143813,-0.00494641,-0.761727,0.00325073,0.0141372,1917,827,26.2598,-2.50632
700,197,26.2214,2.87891,-0.00183689,-0.00233098,-0.00195052,-0.000117827,-0.00405004,-0.722406,0.00266162,0.0205483,1924,827,26.2214,-2.87888
707,197,26.2855,3.24335,-0.00115153,-0.00168636,-0.00115717,-0.000231283,-0.00260661,-0.671844,0.00166601,0.00914159,1931,827,26.2855,-3.24334
714,197,26.2511,3.59015,-0.00054205,-0.00116894,-0.000347682,-0.000387381,-0.00132361,-0.41857,0.000785779,0.0108648,1938,827,26.2511,-3.59014
721,197,26.2487,3.93817,-9.50313e-05,-0.0010357,0.00048449,0.00010987,-0.00124061,0.40011,0.000866021,0.0114557,1945,827,26.2486,-3.93816
728,197,26.2389,4.30658,8.16841e-05,-0.00117466,0.00143162,0.00101688,-0.00210986,0.578654,0.00184162,0.00991526,1952,827,26.2389,-4.30657
735,197,26.2189,4.67249,3.11014e-05,-0.00167904,0.00258749,0.00190114,-0.00354908,0.625816,0.00319428,0.0107205,1959,827,26.2189,-4.67248
742,197,26.1915,5.07184,-0.000298016,-0.00257315,0.00404883,0.00277002,-0.00564119,0.648448,0.00494962,0.0193705,1966,827,26.1915,-5.07181
749,197,26.0593,5.63196,-0.000837494,-0.00398697,0.00605272,0.00384198,-0.00866645,0.658134,0.00739863,0.0401321,1973,827,26.0593,-5.63194
756,197,25.8661,6.23914,-0.00159685,-0.00608007,0.00871953,0.00516459,-0.0128415,0.659583,0.0107061,0.0455534,1980,827,25.8661,-6.23912
763,197,25.7457,6.68372,0,0,0,0,0,0,0,-1,1987,827,25.7457,-6.6837
770,197,25.788,7.14117,0,0,0,0,0,0,0,-1,1994,827,25.7879,-7.1412
777,197,0,0,0,0,0,0,0,0,0,-1,2001,827,0,0
784,197,0,0,0,0,0,0,0,0,0,-1,2008,827,0,0
791,197,0,0,0,0,0,0,0,0,0,-1,2015,827,0,0
798,197,0,0,0,0,0,0,0,0,0,-1,2022,827,0,0
805,197,0,0,0,0,0,0,0,0,0,-1,2029,827,0,0
812,197,0,0,0,0,0,0,0,0,0,-1,2036,827,0,0
-700,190,0,0,0,0,0,0,0,0,0,-1,524,834,0,0
-693,190,0,0,0,0,0,0,0,0,0,-1,531,834,0,0
-686,190,0,0,0,0,0,0,0,0,0,-1,538,834,0,0
-679,190,0,0,0,0,0,0,0,0,0,-1,545,834,0,0
-672,190,0,0,0,0,0,0,0,0,0,-1,552,834,0,0
-665,190,0,0,0,0,0,0,0,0,0,-1,559,834,0,0
-658,190,-19.0739,3.25623,0.0159357,0.0557509,0.0365196,0.0774365,-0.00574989,1.03494,0.0536438,0.0496333,566,834,-19.0739,-3.25623
-651,190,-19.228,3.58618,0.0168145,0.0423495,0.024895,0.05756,0.00160394,1.02234,0.03785,0.0496402,573,834,-19.2279,-3.58621
-644,190,-18.8082,3.36078,0.0154973,0.0320089,0.0174689,0.0430746,0.00443156,1.00614,0.0273591,0.0452852,580,834,-18.8082,-3.36077
-637,190,-18.2473,3.18298,0.0131726,0.0239393,0.0122794,0.0319635,0.0051483,0.991982,0.0198171,0.0475426,587,834,-18.2473,-3.18299
-630,190,-16.6295,3.86115,0,0,0,0,0,0,0,-1,594,834,-16.6295,-3.86114
-623,190,-16.9897,3.3028,0.00731741,0.0124189,0.00572305,0.0161339,0.00360239,0.995032,0.00977886,0.0489385,601,834,-16.9897,-3.30279
-616,190,-17.8028,2.77002,0.00455058,0.00841728,0.00372855,0.0106839,0.00228394,1.02458,0.00649653,0.0432103,608,834,-17.8028,-2.77001
-609,190,-18.0526,2.30896,0.00251044,0.004882,0.00179636,0.00584866,0.00154379,1.07712,0.0034999,0.0241755,615,834,-18.0526,-2.30899
-602,190,-18.1162,2.01599,0.00118545,0.00167607,-0.000338353,0.00184869,0.00101284,-1.09906,0.00106897,0.0160462,622,834,-18.1162,-2.01599
-595,190,-18.1451,1.7085,-0.000495784,0.00017999,-0.000839989,0.000747503,-0.0010633,-0.976621,0.00105075,0.0183958,629,834,-18.1451,-1.70851
-588,190,-18.1692,1.36682,-0.00220995,-0.000327117,0.000391646,-0.0002489,-0.00228817,1.37368,0.00144962,0.0157406,636,834,-18.1692,-1.36682
-581,190,-18.1489,1.02936,-0.00220713,-0.000540326,0.0009164,-0.00013504,-0.00261241,1.1544,0.00169839,0.0112065,643,834,-18.1489,-1.02935
-574,190,-18.1384,0.680969,-0.00146918,-0.000558308,0.00084757,-5.15597e-05,-0.00197592,1.03193,0.00130044,0.010806,650,834,-18.1384,-0.680967
-567,190,-18.1213,0.301819,-0.000942225,-0.000528269,0.000807653,9.85056e-05,-0.001569,0.910834,0.00108033,0.0155505,657,834,-18.1213,-0.301837
-560,190,-18.1999,0.0101929,-0.000718065,-0.000198702,0.000907465,0.000485506,-0.00140227,0.924755,0.00113194,0.0312903,664,834,-18.1999,-0.0101844
-553,190,-18.4767,-0.337585,0,0,0,0,0,0,0,-1,671,834,-18.4768,0.337589
-546,190,-18.2336,-0.673035,0,0,0,0,0,0,0,-1,678,834,-18.2336,0.67306
-539,190,-16.4624,-0.542542,0,0,0,0,0,0,0,-1,685,834,-16.4624,0.542527
-532,190,-21.6292,2.06122,0,0,0,0,0,0,0,-1,692,834,-21.6292,-2.06123
-525,190,-23.7759,1.02698,0,0,0,0,0,0,0,-1,699,834,-23.7759,-1.02697
-518,190,-24.33,0.895752,0,0,0,0,0,0,0,-1,706,834,-24.3299,-0.895779
-511,190,-24.3591,0.866211,-0.00479185,-0.000768596,0.00208994,0.000120554,-0.005681,1.16855,0.00382815,0.0451085,713,834,-24.3591,-0.866207
-504,190,-24.4818,1.06152,-0.00478836,-0.000942498,0.00191993,-0.000148112,-0.00558274,1.17849,0.00367345,0.0438401,720,834,-24.4817,-1.06152
-497,190,-24.3953,1.42328,-0.00390842,-0.00109996,0.001229,-0.000638095,-0.00437028,1.21132,0.00272583,0.0454505,727,834,-24.3953,-1.42326
-490,190,-24.4002,1.36523,-0.000741006,-0.00123846,-0.000395072,-0.000522885,-0.00145658,-0.504458,0.000852034,0.0426355,734,834,-24.4002,-1.36521
-483,190,0,0,0,0,0,0,0,0,0,-1,741,834,0,0
-476,190,0,0,0,0,0,0,0,0,0,-1,748,834,0,0
-469,190,0,0,0,0,0,0,0,0,0,-1,755,834,0,0
-462,190,0,0,0,0,0,0,0,0,0,-1,762,834,0,0
-455,190,0,0,0,0,0,0,0,0,0,-1,769,834,0,0
-448,190,0,0,0,0,0,0,0,0,0,-1,776,834,0,0
-441,190,0,0,0,0,0,0,0,0,0,-1,783,834,0,0
-434,190,0,0,0,0,0,0,0,0,0,-1,790,834,0,0
-427,190,0,0,0,0,0,0,0,0,0,-1,797,834,0,0
-420,190,0,0,0,0,0,0,0,0,0,-1,804,834,0,0
-413,190,0,0,0,0,0,0,0,0,0,-1,811,834,0,0
-406,190,0,0,0,0,0,0,0,0,0,-1,818,834,0,0
-399,190,0,0,0,0,0,0,0,0,0,-1,825,834,0,0
-392,190,0,0,0,0,0,0,0,0,0,-1,832,834,0,0
-385,190,0,0,0,0,0,0,0,0,0,-1,839,834,0,0
-378,190,0,0,0,0,0,0,0,0,0,-1,846,834,0,0
-371,190,0,0,0,0,0,0,0,0,0,-1,853,834,0,0
-364,190,0,0,0,0,0,0,0,0,0,-1,860,834,0,0
-357,190,0,0,0,0,0,0,0,0,0,-1,867,834,0,0
-350,190,0,0,0,0,0,0,0,0,0,-1,874,834,0,0
-343,190,0,0,0,0,0,0,0,0,0,-1,881,834,0,0
-336,190,0,0,0,0,0,0,0,0,0,-1,888,834,0,0
-329,190,0,0,0,0,0,0,0,0,0,-1,895,834,0,0
-322,190,0,0,0,0,0,0,0,0,0,-1,902,834,0,0
-315,190,0,0,0,0,0,0,0,0,0,-1,909,834,0,0
-308,190,0,0,0,0,0,0,0,0,0,-1,916,834,0,0
-301,190,0,0,0,0,0,0,0,0,0,-1,923,834,0,0
-294,190,0,0,0,0,0,0,0,0,0,-1,930,834,0,0
-287,190,0,0,0,0,0,0,0,0,0,-1,937,834,0,0
-280,190,0,0,0,0,0,0,0,0,0,-1,944,834,0,0
-273,190,0,0,0,0,0,0,0,0,0,-1,951,834,0,0
-266,190,0,0,0,0,0,0,0,0,0,-1,958,834,0,0
-259,190,0,0,0,0,0,0,0,0,0,-1,965,834,0,0
-252,190,0,0,0,0,0,0,0,0,0,-1,972,834,0,0
-245,190,0,0,0,0,0,0,0,0,0,-1,979,834,0,0
-238,190,0,0,0,0,0,0,0,0,0,-1,986,834,0,0
-231,190,0,0,0,0,0,0,0,0,0,-1,993,834,0,0
-224,190,0,0,0,0,0,0,0,0,0,-1,1000,834,0,0
-217,190,0,0,0,0,0,0,0,0,0,-1,1007,834,0,0
-210,190,0,0,0,0,0,0,0,0,0,-1,1014,834,0,0
-203,190,0,0,0,0,0,0,0,0,0,-1,1021,834,0,0
-196,190,0,0,0,0,0,0,0,0,0,-1,1028,834,0,0
-189,190,0,0,0,0,0,0,0,0,0,-1,1035,834,0,0
-182,190,0,0,0,0,0,0,0,0,0,-1,1042,834,0,0
-175,190,0,0,0,0,0,0,0,0,0,-1,1049,834,0,0
-168,190,0,0,0,0,0,0,0,0,0,-1,1056,834,0,0
-161,190,0,0,0,0,0,0,0,0,0,-1,1063,834,0,0
-154,190,0,0,0,0,0,0,0,0,0,-1,1070,834,0,0
-147,190,0,0,0,0,0,0,0,0,0,-1,1077,834,0,0
-140,190,0,0,0,0,0,0,0,0,0,-1,1084,834,0,0
-133,190,0,0,0,0,0,0,0,0,0,-1,1091,834,0,0
-126,190,0,0,0,0,0,0,0,0,0,-1,1098,834,0,0
-119,190,0,0,0,0,0,0,0,0,0,-1,1105,834,0,0
-112,190,0,0,0,0,0,0,0,0,0,-1,1112,834,0,0
-105,190,0,0,0,0,0,0,0,0,0,-1,1119,834,0,0
-98,190,0,0,0,0,0,0,0,0,0,-1,1126,834,0,0
-91,190,0,0,0,0,0,0,0,0,0,-1,1133,834,0,0
-84,190,0,0,0,0,0,0,0,0,0,-1,1140,834,0,0
-77,190,0,0,0,0,0,0,0,0,0,-1,1147,834,0,0
-70,190,0,0,0,0,0,0,0,0,0,-1,1154,834,0,0
-63,190,0,0,0,0,0,0,0,0,0,-1,1161,834,0,0
-56,190,0,0,0,0,0,0,0,0,0,-1,1168,834,0,0
-49,190,0,0,0,0,0,0,0,0,0,-1,1175,834,0,0
-42,190,0,0,0,0,0,0,0,0,0,-1,1182,834,0,0
-35,190,0,0,0,0,0,0,0,0,0,-1,1189,834,0,0
-28,190,0,0,0,0,0,0,0,0,0,-1,1196,834,0,0
-21,190,0,0,0,0,0,0,0,0,0,-1,1203,834,0,0
-14,190,0,0,0,0,0,0,0,0,0,-1,1210,834,0,0
-7,190,0,0,0,0,0,0,0,0,0,-1,1217,834,0,0
0,190,0,0,0,0,0,0,0,0,0,-1,1224,834,0,0
7,190,0,0,0,0,0,0,0,0,0,-1,1231,834,0,0
14,190,0,0,0,0,0,0,0,0,0,-1,1238,834,0,0
21,190,0,0,0,0,0,0,0,0,0,-1,1245,834,0,0
28,190,0,0,0,0,0,0,0,0,0,-1,1252,834,0,0
35,190,0,0,0,0,0,0,0,0,0,-1,1259,834,0,0
42,190,0,0,0,0,0,0,0,0,0,-1,1266,834,0,0
49,190,0,0,0,0,0,0,0,0,0,-1,1273,834,0,0
56,190,0,0,0,0,0,0,0,0,0,-1,1280,834,0,0
63,190,0,0,0,0,0,0,0,0,0,-1,1287,834,0,0
70,190,0,0,0,0,0,0,0,0,0,-1,1294,834,0,0
77,190,0,0,0,0,0,0,0,0,0,-1,1301,834,0,0
84,190,0,0,0,0,0,0,0,0,0,-1,1308,834,0,0
91,190,0,0,0,0,0,0,0,0,0,-1,1315,834,0,0
98,190,0,0,0,0,0,0,0,0,0,-1,1322,834,0,0
105,190,0,0,0,0,0,0,0,0,0,-1,1329,834,0,0
112,190,0,0,0,0,0,0,0,0,0,-1,1336,834,0,0
119,190,0,0,0,0,0,0,0,0,0,-1,1343,834,0,0
126,190,0,0,0,0,0,0,0,0,0,-1,1350,834,0,0
133,190,0,0,0,0,0,0,0,0,0,-1,1357,834,0,0
140,190,0,0,0,0,0,0,0,0,0,-1,1364,834,0,0
147,190,0,0,0,0,0,0,0,0,0,-1,1371,834,0,0
154,190,0,0,0,0,0,0,0,0,0,-1,1378,834,0,0
161,190,0,0,0,0,0,0,0,0,0,-1,1385,834,0,0
168,190,0,0,0,0,0,0,0,0,0,-1,1392,834,0,0
175,190,0,0,0,0,0,0,0,0,0,-1,1399,834,0,0
182,190,0,0,0,0,0,0,0,0,0,-1,1406,834,0,0
189,190,0,0,0,0,0,0,0,0,0,-1,1413,834,0,0
196,190,0,0,0,0,0,0,0,0,0,-1,1420,834,0,0
203,190,0,0,0,0,0,0,0,0,0,-1,1427,834,0,0
210,190,0,0,0,0,0,0,0,0,0,-1,1434,834,0,0
217,190,0,0,0,0,0,0,0,0,0,-1,1441,834,0,0
224,190,0,0,0,0,0,0,0,0,0,-1,1448,834,0,0
231,190,0,0,0,0,0,0,0,0,0,-1,1455,834,0,0
238,190,0,0,0,0,0,0,0,0,0,-1,1462,834,0,0
245,190,0,0,0,0,0,0,0,0,0,-1,1469,834,0,0
252,190,0,0,0,0,0,0,0,0,0,-1,1476,834,0,0
259,190,0,0,0,0,0,0,0,0,0,-1,1483,834,0,0
266,190,0,0,0,0,0,0,0,0,0,-1,1490,834,0,0
273,190,0,0,0,0,0,0,0,0,0,-1,1497,834,0,0
280,190,0,0,0,0,0,0,0,0,0,-1,1504,834,0,0
287,190,0,0,0,0,0,0,0,0,0,-1,1511,834,0,0
294,190,0,0,0,0,0,0,0,0,0,-1,1518,834,0,0
301,190,0,0,0,0,0,0,0,0,0,-1,1525,834,0,0
308,190,0,0,0,0,0,0,0,0,0,-1,1532,834,0,0
315,190,0,0,0,0,0,0,0,0,0,-1,1539,834,0,0
322,190,0,0,0,0,0,0,0,0,0,-1,1546,834,0,0
329,190,0,0,0,0,0,0,0,0,0,-1,1553,834,0,0
336,190,0,0,0,0,0,0,0,0,0,-1,1560,834,0,0
343,190,0,0,0,0,0,0,0,0,0,-1,1567,834,0,0
350,190,0,0,0,0,0,0,0,0,0,-1,1574,834,0,0
357,190,0,0,0,0,0,0,0,0,0,-1,1581,834,0,0
364,190,0,0,0,0,0,0,0,0,0,-1,1588,834,0,0
371,190,0,0,0,0,0,0,0,0,0,-1,1595,834,0,0
378,190,0,0,0,0,0,0,0,0,0,-1,1602,834,0,0
385,190,0,0,0,0,0,0,0,0,0,-1,1609,834,0,0
392,190,0,0,0,0,0,0,0,0,0,-1,1616,834,0,0
399,190,0,0,0,0,0,0,0,0,0,-1,1623,834,0,0
406,190,0,0,0,0,0,0,0,0,0,-1,1630,834,0,0
413,190,0,0,0,0,0,0,0,0,0,-1,1637,834,0,0
420,190,0,0,0,0,0,0,0,0,0,-1,1644,834,0,0
427,190,0,0,0,0,0,0,0,0,0,-1,1651,834,0,0
434,190,0,0,0,0,0,0,0,0,0,-1,1658,834,0,0
441,190,0,0,0,0,0,0,0,0,0,-1,1665,834,0,0
448,190,0,0,0,0,0,0,0,0,0,-1,1672,834,0,0
455,190,0,0,0,0,0,0,0,0,0,-1,1679,834,0,0
462,190,0,0,0,0,0,0,0,0,0,-1,1686,834,0,0
469,190,0,0,0,0,0,0,0,0,0,-1,1693,834,0,0
476,190,0,0,0,0,0,0,0,0,0,-1,1700,834,0,0
483,190,0,0,0,0,0,0,0,0,0,-1,1707,834,0,0
490,190,0,0,0,0,0,0,0,0,0,-1,1714,834,0,0
497,190,0,0,0,0,0,0,0,0,0,-1,1721,834,0,0
504,190,0,0,0,0,0,0,0,0,0,-1,1728,834,0,0
511,190,0,0,0,0,0,0,0,0,0,-1,1735,834,0,0
518,190,0,0,0,0,0,0,0,0,0,-1,1742,834,0,0
525,190,0,0,0,0,0,0,0,0,0,-1,1749,834,0,0
532,190,0,0,0,0,0,0,0,0,0,-1,1756,834,0,0
539,190,0,0,0,0,0,0,0,0,0,-1,1763,834,0,0
546,190,0,0,0,0,0,0,0,0,0,-1,1770,834,0,0
553,190,0,0,0,0,0,0,0,0,0,-1,1777,834,0,0
560,190,0,0,0,0,0,0,0,0,0,-1,1784,834,0,0
567,190,0,0,0,0,0,0,0,0,0,-1,1791,834,0,0
574,190,0,0,0,0,0,0,0,0,0,-1,1798,834,0,0
581,190,0,0,0,0,0,0,0,0,0,-1,1805,834,0,0
588,190,0,0,0,0,0,0,0,0,0,-1,1812,834,0,0
595,190,0,0,0,0,0,0,0,0,0,-1,1819,834,0,0
602,190,33.6647,2.62701,0.00283942,-0.0035575,-0.00606614,0.00649867,-0.00721675,-0.542788,0.00792222,0.0444816,1826,834,33.6647,-2.62702
609,190,33.6406,2.60779,0.00282978,-0.00182552,-0.00336576,0.00459436,-0.0035901,-0.482876,0.00473714,0.041512,1833,834,33.6406,-2.60776
616,190,33.7196,2.48401,0.0021833,-0.00119015,-0.00189006,0.00302983,-0.00203668,-0.421093,0.00294382,0.0402711,1840,834,33.7196,-2.48404
623,190,33.7904,2.60474,0.000968818,-0.00105078,-0.00127374,0.00158448,-0.00166644,-0.450236,0.00187711,0.039228,1847,834,33.7904,-2.60472
630,190,33.8433,2.69659,-0.000279766,-0.00138299,-0.00125277,0.000537459,-0.00220022,-0.578013,0.00167496,0.0409452,1854,834,33.8433,-2.69658
637,190,33.8337,2.80182,-0.00134305,-0.00183797,-0.00155046,-2.04254e-05,-0.00316059,-0.706264,0.00210029,0.0348753,1861,834,33.8337,-2.80179
644,190,33.8079,2.88806,-0.00207879,-0.00229655,-0.0018016,-0.000382779,-0.00399256,-0.755217,0.00254373,0.0275668,1868,834,33.8078,-2.88807
651,190,33.8429,2.84717,-0.00246052,-0.00259225,-0.00199447,-0.000530825,-0.00452194,-0.768892,0.00285419,0.0383538,1875,834,33.8429,-2.84715
658,190,33.8501,2.7594,0,0,0,0,0,0,0,-1,1882,834,33.8501,-2.7594
665,190,25.9916,3.05157,0,0,0,0,0,0,0,-1,1889,834,25.9916,-3.05156
672,190,27.2662,1.70862,0,0,0,0,0,0,0,-1,1896,834,27.2662,-1.70861
679,190,26.8562,2.099,-0.00314556,-0.00277172,-0.00231527,-0.000635839,-0.00528145,-0.825677,0.00332932,0.0481916,1903,834,26.8562,-2.099
686,190,26.6122,2.23926,-0.00298086,-0.00262042,-0.00234692,-0.000446809,-0.00515447,-0.823718,0.00329748,0.0195948,1910,834,26.6122,-2.23924
693,190,26.6451,2.52704,-0.00244814,-0.00248052,-0.00221841,-0.000245866,-0.0046828,-0.781749,0.00304322,0.0127666,1917,834,26.6451,-2.52705
700,190,26.623,2.88898,-0.00196888,-0.00217552,-0.00186551,-0.000203833,-0.00394057,-0.757734,0.00256181,0.0106696,1924,834,26.6231,-2.88899
707,190,26.6329,3.22778,-0.00138337,-0.00156149,-0.0011919,-0.000277204,-0.00266766,-0.748107,0.00169361,0.0129908,1931,834,26.6329,-3.22778
714,190,26.6401,3.56567,-0.00085681,-0.00103868,-0.000538182,-0.000401936,-0.00149356,-0.701704,0.000892425,0.0118352,1938,834,26.6402,-3.56566
721,190,26.6196,3.93243,-0.000438808,-0.000834524,0.00015487,-0.000385404,-0.000887928,0.332062,0.00051413,0.0108174,1945,834,26.6196,-3.93242
728,190,26.6132,4.28162,-0.000261482,-0.000838216,0.000960648,0.000453147,-0.00155284,0.639588,0.00121479,0.0129742,1952,834,26.6131,-4.28162
735,190,26.6189,4.62616,-0.00024559,-0.00109623,0.00193472,0.00131001,-0.00265183,0.677201,0.00233069,0.0123468,1959,834,26.619,-4.62619
742,190,26.6008,5.05475,-0.000450667,-0.00163404,0.00313946,0.00215238,-0.00423709,0.692257,0.00375384,0.0156081,1966,834,26.6009,-5.05477
749,190,26.3993,5.68506,-0.000767495,-0.00251169,0.00477161,0.00321106,-0.00649025,0.695012,0.00570671,0.0371515,1973,834,26.3993,-5.68506
756,190,25.9557,6.27612,-0.00114649,-0.0038165,0.00697737,0.00462245,-0.00958543,0.690874,0.00836808,0.0453856,1980,834,25.9557,-6.27612
763,190,25.8019,6.70337,0,0,0,0,0,0,0,-1,1987,834,25.8019,-6.70337
770,190,25.6921,6.45648,0,0,0,0,0,0,0,-1,1994,834,25.6922,-6.45647
777,190,25.9713,6.77551,0,0,0,0,0,0,0,-1,2001,834,25.9714,-6.77554
784,190,0,0,0,0,0,0,0,0,0,-1,2008,834,0,0
791,190,0,0,0,0,0,0,0,0,0,-1,2015,834,0,0
798,190,0,0,0,0,0,0,0,0,0,-1,2022,834,0,0
805,190,0,0,0,0,0,0,0,0,0,-1,2029,834,0,0
812,190,0,0,0,0,0,0,0,0,0,-1,2036,834,0,0
-700,183,0,0,0,0,0,0,0,0,0,-1,524,841,0,0
-693,183,0,0,0,0,0,0,0,0,0,-1,531,841,0,0
-686,183,0,0,0,0,0,0,0,0,0,-1,538,841,0,0
-679,183,0,0,0,0,0,0,0,0,0,-1,545,841,0,0
-672,183,0,0,0,0,0,0,0,0,0,-1,552,841,0,0
-665,183,0,0,0,0,0,0,0,0,0,-1,559,841,0,0
-658,183,-19.5798,2.72845,0.0139551,0.049745,0.0446877,0.0799875,-0.0162875,0.975843,0.0595019,0.0475727,566,841,-19.5798,-2.72847
-651,183,-19.4459,3.0473,0.0152941,0.0391645,0.0326615,0.0620032,-0.00754463,0.960571,0.0440662,0.045856,573,841,-19.4459,-3.04733
-644,183,-19.0698,3.05389,0.0141447,0.0305462,0.0239107,0.0476234,-0.00293252,0.950599,0.0327702,0.0451853,580,841,-19.0698,-3.05392
-637,183,-18.155,2.13818,0.0118653,0.0234442,0.0173229,0.0359195,-0.000609955,0.946666,0.0241522,0.0494319,587,841,-18.1551,-2.13818
-630,183,-17.8391,2.26019,0.00903157,0.0175676,0.0123193,0.0263372,0.000261906,0.952152,0.0174715,0.0488424,594,841,-17.8391,-2.26017
-623,183,-16.9872,3.57043,0,0,0,0,0,0,0,-1,601,841,-16.9872,-3.57041
-616,183,-18.2557,2.75885,0.00352327,0.0088755,0.00575641,0.0125474,-0.00014868,1.00298,0.00841496,0.0380061,608,841,-18.2557,-2.75887
-609,183,-18.4247,2.3537,0.00180839,0.00549876,0.00319223,0.00734072,-3.357e-05,1.04745,0.00490504,0.016,615,841,-18.4247,-2.3537
-602,183,-18.4471,2.04327,0.000549867,0.00253728,0.000679073,0.00274715,0.000339999,1.27106,0.00172927,0.0113026,622,841,-18.4471,-2.04327
-595,183,-18.4839,1.68311,-0.00112563,0.000940659,-0.000229392,0.000965819,-0.00115079,-1.46155,0.00122358,0.0111523,629,841,-18.4839,-1.6831
-588,183,-18.4953,1.34216,-0.00256439,0.000153091,0.000667964,0.000308402,-0.0027197,1.34234,0.00192419,0.0111952,636,841,-18.4953,-1.34217
-581,183,-18.4959,1.02716,-0.0023376,-0.000135155,0.000960403,0.000224809,-0.00269757,1.2122,0.0018778,0.0120118,643,841,-18.4959,-1.02718
-574,183,-18.4819,0.718506,-0.00160994,-0.00020008,0.000738793,0.000116137,-0.00192616,1.16637,0.00132451,0.0122193,650,841,-18.4819,-0.718525
-567,183,-18.4113,0.350891,-0.0011181,-0.000132709,0.000521488,9.20203e-05,-0.00134283,1.16391,0.000927416,0.0291744,657,841,-18.4113,-0.350888
-560,183,-18.6001,0.0958862,-0.000879144,0.000235964,0.000487783,0.00041922,-0.0010624,1.21142,0.000881871,0.0347429,664,841,-18.6001,-0.0958882
-553,183,-18.8389,-0.374817,0,0,0,0,0,0,0,-1,671,841,-18.8389,0.374795
-546,183,-17.5842,-0.733643,0,0,0,0,0,0,0,-1,678,841,-17.5842,0.733616
-539,183,-16.8032,-0.417297,0,0,0,0,0,0,0,-1,685,841,-16.8032,0.41732
-532,183,-23.9379,0.849182,0,0,0,0,0,0,0,-1,692,841,-23.9379,-0.849191
-525,183,-24.3516,0.87561,0,0,0,0,0,0,0,-1,699,841,-24.3516,-0.875634
-518,183,-24.3568,0.823853,0,0,0,0,0,0,0,-1,706,841,-24.3568,-0.823883
-511,183,-24.6539,0.49353,0,0,0,0,0,0,0,-1,713,841,-24.6539,-0.493546
-504,183,-24.5665,1.10382,0,0,0,0,0,0,0,-1,720,841,-24.5665,-1.10382
-497,183,-24.4791,1.71411,0,0,0,0,0,0,0,-1,727,841,-24.479,-1.7141
-490,183,-24.2875,1.36688,0,0,0,0,0,0,0,-1,734,841,-24.2875,-1.36687
-483,183,0,0,0,0,0,0,0,0,0,-1,741,841,0,0
-476,183,0,0,0,0,0,0,0,0,0,-1,748,841,0,0
-469,183,0,0,0,0,0,0,0,0,0,-1,755,841,0,0
-462,183,0,0,0,0,0,0,0,0,0,-1,762,841,0,0
-455,183,0,0,0,0,0,0,0,0,0,-1,769,841,0,0
-448,183,0,0,0,0,0,0,0,0,0,-1,776,841,0,0
-441,183,0,0,0,0,0,0,0,0,0,-1,783,841,0,0
-434,183,0,0,0,0,0,0,0,0,0,-1,790,841,0,0
-427,183,0,0,0,0,0,0,0,0,0,-1,797,841,0,0
-420,183,0,0,0,0,0,0,0,0,0,-1,804,841,0,0
-413,183,0,0,0,0,0,0,0,0,0,-1,811,841,0,0
-406,183,0,0,0,0,0,0,0,0,0,-1,818,841,0,0
-399,183,0,0,0,0,0,0,0,0,0,-1,825,841,0,0
-392,183,0,0,0,0,0,0,0,0,0,-1,832,841,0,0
-385,183,0,0,0,0,0,0,0,0,0,-1,839,841,0,0
-378,183,0,0,0,0,0,0,0,0,0,-1,846,841,0,0
-371,183,0,0,0,0,0,0,0,0,0,-1,853,841,0,0
-364,183,0,0,0,0,0,0,0,0,0,-1,860,841,0,0
-357,183,0,0,0,0,0,0,0,0,0,-1,867,841,0,0
-350,183,0,0,0,0,0,0,0,0,0,-1,874,841,0,0
-343,183,0,0,0,0,0,0,0,0,0,-1,881,841,0,0
-336,183,0,0,0,0,0,0,0,0,0,-1,888,841,0,0
-329,183,0,0,0,0,0,0,0,0,0,-1,895,841,0,0
-322,183,0,0,0,0,0,0,0,0,0,-1,902,841,0,0
-315,183,0,0,0,0,0,0,0,0,0,-1,909,841,0,0
-308,183,0,0,0,0,0,0,0,0,0,-1,916,841,0,0
-301,183,0,0,0,0,0,0,0,0,0,-1,923,841,0,0
-294,183,0,0,0,0,0,0,0,0,0,-1,930,841,0,0
-287,183,0,0,0,0,0,0,0,0,0,-1,937,841,0,0
-280,183,0,0,0,0,0,0,0,0,0,-1,944,841,0,0
-273,183,0,0,0,0,0,0,0,0,0,-1,951,841,0,0
-266,183,0,0,0,0,0,0,0,0,0,-1,958,841,0,0
-259,183,0,0,0,0,0,0,0,0,0,-1,965,841,0,0
-252,183,0,0,0,0,0,0,0,0,0,-1,972,841,0,0
-245,183,0,0,0,0,0,0,0,0,0,-1,979,841,0,0
-238,183,0,0,0,0,0,0,0,0,0,-1,986,841,0,0
-231,183,0,0,0,0,0,0,0,0,0,-1,993,841,0,0
-224,183,0,0,0,0,0,0,0,0,0,-1,1000,841,0,0
-217,183,0,0,0,0,0,0,0,0,0,-1,1007,841,0,0
-210,183,0,0,0,0,0,0,0,0,0,-1,1014,841,0,0
-203,183,0,0,0,0,0,0,0,0,0,-1,1021,841,0,0
-196,183,0,0,0,0,0,0,0,0,0,-1,1028,841,0,0
-189,183,0,0,0,0,0,0,0,0,0,-1,1035,841,0,0
-182,183,0,0,0,0,0,0,0,0,0,-1,1042,841,0,0
-175,183,0,0,0,0,0,0,0,0,0,-1,1049,841,0,0
-168,183,0,0,0,0,0,0,0,0,0,-1,1056,841,0,0
-161,183,0,0,0,0,0,0,0,0,0,-1,1063,841,0,0
-154,183,0,0,0,0,0,0,0,0,0,-1,1070,841,0,0
-147,183,0,0,0,0,0,0,0,0,0,-1,1077,841,0,0
-140,183,0,0,0,0,0,0,0,0,0,-1,1084,841,0,0
-133,183,0,0,0,0,0,0,0,0,0,-1,1091,841,0,0
-126,183,0,0,0,0,0,0,0,0,0,-1,1098,841,0,0
-119,183,0,0,0,0,0,0,0,0,0,-1,1105,841,0,0
-112,183,0,0,0,0,0,0,0,0,0,-1,1112,841,0,0
-105,183,0,0,0,0,0,0,0,0,0,-1,1119,841,0,0
-98,183,0,0,0,0,0,0,0,0,0,-1,1126,841,0,0
-91,183,0,0,0,0,0,0,0,0,0,-1,1133,841,0,0
-84,183,0,0,0,0,0,0,0,0,0,-1,1140,841,0,0
-77,183,0,0,0,0,0,0,0,0,0,-1,1147,841,0,0
-70,183,0,0,0,0,0,0,0,0,0,-1,1154,841,0,0
-63,183,0,0,0,0,0,0,0,0,0,-1,1161,841,0,0
-56,183,0,0,0,0,0,0,0,0,0,-1,1168,841,0,0
-49,183,0,0,0,0,0,0,0,0,0,-1,1175,841,0,0
-42,183,0,0,0,0,0,0,0,0,0,-1,1182,841,0,0
-35,183,0,0,0,0,0,0,0,0,0,-1,1189,841,0,0
-28,183,0,0,0,0,0,0,0,0,0,-1,1196,841,0,0
-21,183,0,0,0,0,0,0,0,0,0,-1,1203,841,0,0
-14,183,0,0,0,0,0,0,0,0,0,-1,1210,841,0,0
-7,183,0,0,0,0,0,0,0,0,0,-1,1217,841,0,0
0,183,0,0,0,0,0,0,0,0,0,-1,1224,841,0,0
7,183,0,0,0,0,0,0,0,0,0,-1,1231,841,0,0
14,183,0,0,0,0,0,0,0,0,0,-1,1238,841,0,0
21,183,0,0,0,0,0,0,0,0,0,-1,1245,841,0,0
28,183,0,0,0,0,0,0,0,0,0,-1,1252,841,0,0
35,183,0,0,0,0,0,0,0,0,0,-1,1259,841,0,0
42,183,0,0,0,0,0,0,0,0,0,-1,1266,841,0,0
49,183,0,0,0,0,0,0,0,0,0,-1,1273,841,0,0
56,183,0,0,0,0,0,0,0,0,0,-1,1280,841,0,0
63,183,0,0,0,0,0,0,0,0,0,-1,1287,841,0,0
70,183,0,0,0,0,0,0,0,0,0,-1,1294,841,0,0
77,183,0,0,0,0,0,0,0,0,0,-1,1301,841,0,0
84,183,0,0,0,0,0,0,0,0,0,-1,1308,841,0,0
91,183,0,0,0,0,0,0,0,0,0,-1,1315,841,0,0
98,183,0,0,0,0,0,0,0,0,0,-1,1322,841,0,0
105,183,0,0,0,0,0,0,0,0,0,-1,1329,841,0,0
112,183,0,0,0,0,0,0,0,0,0,-1,1336,841,0,0
119,183,0,0,0,0,0,0,0,0,0,-1,1343,841,0,0
126,183,0,0,0,0,0,0,0,0,0,-1,1350,841,0,0
133,183,0,0,0,0,0,0,0,0,0,-1,1357,841,0,0
140,183,0,0,0,0,0,0,0,0,0,-1,1364,841,0,0
147,183,0,0,0,0,0,0,0,0,0,-1,1371,841,0,0
154,183,0,0,0,0,0,0,0,0,0,-1,1378,841,0,0
161,183,0,0,0,0,0,0,0,0,0,-1,1385,841,0,0
168,183,0,0,0,0,0,0,0,0,0,-1,1392,841,0,0
175,183,0,0,0,0,0,0,0,0,0,-1,1399,841,0,0
182,183,0,0,0,0,0,0,0,0,0,-1,1406,841,0,0
189,183,0,0,0,0,0,0,0,0,0,-1,1413,841,0,0
196,183,0,0,0,0,0,0,0,0,0,-1,1420,841,0,0
203,183,0,0,0,0,0,0,0,0,0,-1,1427,841,0,0
210,183,0,0,0,0,0,0,0,0,0,-1,1434,841,0,0
217,183,0,0,0,0,0,0,0,0,0,-1,1441,841,0,0
224,183,0,0,0,0,0,0,0,0,0,-1,1448,841,0,0
231,183,0,0,0,0,0,0,0,0,0,-1,1455,841,0,0
238,183,0,0,0,0,0,0,0,0,0,-1,1462,841,0,0
245,183,0,0,0,0,0,0,0,0,0,-1,1469,841,0,0
252,183,0,0,0,0,0,0,0,0,0,-1,1476,841,0,0
259,183,0,0,0,0,0,0,0,0,0,-1,1483,841,0,0
266,183,0,0,0,0,0,0,0,0,0,-1,1490,841,0,0
273,183,0,0,0,0,0,0,0,0,0,-1,1497,841,0,0
280,183,0,0,0,0,0,0,0,0,0,-1,1504,841,0,0
287,183,0,0,0,0,0,0,0,0,0,-1,1511,841,0,0
294,183,0,0,0,0,0,0,0,0,0,-1,1518,841,0,0
301,183,0,0,0,0,0,0,0,0,0,-1,1525,841,0,0
308,183,0,0,0,0,0,0,0,0,0,-1,1532,841,0,0
315,183,0,0,0,0,0,0,0,0,0,-1,1539,841,0,0
322,183,0,0,0,0,0,0,0,0,0,-1,1546,841,0,0
329,183,0,0,0,0,0,0,0,0,0,-1,1553,841,0,0
336,183,0,0,0,0,0,0,0,0,0,-1,1560,841,0,0
343,183,0,0,0,0,0,0,0,0,0,-1,1567,841,0,0
350,183,0,0,0,0,0,0,0,0,0,-1,1574,841,0,0
357,183,0,0,0,0,0,0,0,0,0,-1,1581,841,0,0
364,183,0,0,0,0,0,0,0,0,0,-1,1588,841,0,0
371,183,0,0,0,0,0,0,0,0,0,-1,1595,841,0,0
378,183,0,0,0,0,0,0,0,0,0,-1,1602,841,0,0
385,183,0,0,0,0,0,0,0,0,0,-1,1609,841,0,0
392,183,0,0,0,0,0,0,0,0,0,-1,1616,841,0,0
399,183,0,0,0,0,0,0,0,0,0,-1,1623,841,0,0
406,183,0,0,0,0,0,0,0,0,0,-1,1630,841,0,0
413,183,0,0,0,0,0,0,0,0,0,-1,1637,841,0,0
420,183,0,0,0,0,0,0,0,0,0,-1,1644,841,0,0
427,183,0,0,0,0,0,0,0,0,0,-1,1651,841,0,0
434,183,0,0,0,0,0,0,0,0,0,-1,1658,841,0,0
441,183,0,0,0,0,0,0,0,0,0,-1,1665,841,0,0
448,183,0,0,0,0,0,0,0,0,0,-1,1672,841,0,0
455,183,0,0,0,0,0,0,0,0,0,-1,1679,841,0,0
462,183,0,0,0,0,0,0,0,0,0,-1,1686,841,0,0
469,183,0,0,0,0,0,0,0,0,0,-1,1693,841,0,0
476,183,0,0,0,0,0,0,0,0,0,-1,1700,841,0,0
483,183,0,0,0,0,0,0,0,0,0,-1,1707,841,0,0
490,183,0,0,0,0,0,0,0,0,0,-1,1714,841,0,0
497,183,0,0,0,0,0,0,0,0,0,-1,1721,841,0,0
504,183,0,0,0,0,0,0,0,0,0,-1,1728,841,0,0
511,183,0,0,0,0,0,0,0,0,0,-1,1735,841,0,0
518,183,0,0,0,0,0,0,0,0,0,-1,1742,841,0,0
525,183,0,0,0,0,0,0,0,0,0,-1,1749,841,0,0
532,183,0,0,0,0,0,0,0,0,0,-1,1756,841,0,0
539,183,0,0,0,0,0,0,0,0,0,-1,1763,841,0,0
546,183,0,0,0,0,0,0,0,0,0,-1,1770,841,0,0
553,183,0,0,0,0,0,0,0,0,0,-1,1777,841,0,0
560,183,0,0,0,0,0,0,0,0,0,-1,1784,841,0,0
567,183,0,0,0,0,0,0,0,0,0,-1,1791,841,0,0
574,183,0,0,0,0,0,0,0,0,0,-1,1798,841,0,0
581,183,0,0,0,0,0,0,0,0,0,-1,1805,841,0,0
588,183,0,0,0,0,0,0,0,0,0,-1,1812,841,0,0
595,183,0,0,0,0,0,0,0,0,0,-1,1819,841,0,0
602,183,0,0,0,0,0,0,0,0,0,-1,1826,841,0,0
609,183,33.7487,2.8631,0.00430586,-0.00334064,-0.00482139,0.00663591,-0.00567069,-0.450176,0.0071125,0.0411904,1833,841,33.7487,-2.86309
616,183,33.7206,2.58545,0.00383087,-0.00235769,-0.00315434,0.00515524,-0.00368206,-0.397505,0.00512579,0.0411512,1840,841,33.7206,-2.58544
623,183,33.7952,2.39441,0.00255551,-0.00178001,-0.00221545,0.00348733,-0.00271183,-0.398138,0.00358841,0.0454278,1847,841,33.7952,-2.39442
630,183,33.8608,2.59521,0.00108489,-0.00168613,-0.00185384,0.00201376,-0.002615,-0.46449,0.00267992,0.04193,1854,841,33.8608,-2.59521
637,183,33.8895,2.71942,-0.000262603,-0.00192781,-0.00190288,0.000981856,-0.00317226,-0.579173,0.00250706,0.0362169,1861,841,33.8896,-2.71941
644,183,33.7877,2.84283,-0.00122214,-0.00226328,-0.00200619,0.000329921,-0.00381534,-0.658456,0.00266036,0.0299539,1868,841,33.7877,-2.84285
651,183,33.8467,2.81989,-0.00179033,-0.00247772,-0.00209406,-1.19484e-05,-0.0042561,-0.704059,0.00283342,0.0263239,1875,841,33.8466,-2.81991
658,183,33.8846,2.7074,-0.00203113,-0.00270039,-0.00222281,-0.000117905,-0.00461362,-0.710688,0.00303721,0.0437734,1882,841,33.8847,-2.70741
665,183,33.894,2.59375,0,0,0,0,0,0,0,-1,1889,841,33.894,-2.59373
672,183,27.0631,1.91321,0,0,0,0,0,0,0,-1,1896,841,27.0631,-1.91318
679,183,27.0618,2.09723,-0.00288138,-0.00240885,-0.00209181,-0.000540004,-0.00475022,-0.841633,0.00300304,0.0480385,1903,841,27.0617,-2.09725
686,183,27.0714,2.25305,-0.00283697,-0.00229781,-0.00208296,-0.000467058,-0.00466772,-0.849751,0.0029684,0.0221025,1910,841,27.0714,-2.25302
693,183,27.0778,2.55597,-0.00240744,-0.00213454,-0.0019879,-0.000278411,-0.00426357,-0.819664,0.00275427,0.0174353,1917,841,27.0778,-2.55596
700,183,27.0148,2.91138,-0.00200304,-0.00184671,-0.00170855,-0.000214534,-0.00363522,-0.808257,0.00235523,0.0156764,1924,841,27.0148,-2.91136
707,183,26.9746,3.2464,-0.00148113,-0.00128844,-0.00116785,-0.000212971,-0.0025566,-0.826555,0.00163803,0.0130007,1931,841,26.9746,-3.24641
714,183,26.975,3.5769,-0.00099119,-0.000774919,-0.000686444,-0.000188146,-0.00157796,-0.863521,0.000995207,0.0162498,1938,841,26.975,-3.57689
721,183,26.9773,3.92413,-0.00057717,-0.000518786,-0.000156532,-0.000388747,-0.000707209,-0.877585,0.000408979,0.0142183,1945,841,26.9773,-3.92412
728,183,26.9647,4.26849,-0.000386719,-0.000408427,0.000477501,8.00508e-05,-0.000875197,0.774035,0.000611896,0.0131564,1952,841,26.9647,-4.26847
735,183,26.9758,4.612,-0.000308997,-0.000449777,0.00123995,0.000862565,-0.00162134,0.757045,0.00145621,0.0128477,1959,841,26.9759,-4.61202
742,183,26.9844,4.99518,-0.000405158,-0.000674318,0.00215797,0.00162242,-0.0027019,0.754256,0.00252245,0.011501,1966,841,26.9844,-4.99515
749,183,26.8721,5.48505,-0.000545248,-0.0010883,0.00338516,0.00257926,-0.00421281,0.745378,0.00395902,0.0329798,1973,841,26.8721,-5.48505
756,183,26.7603,5.97583,0,0,0,0,0,0,0,-1,1980,841,26.7602,-5.97584
763,183,26.5212,6.03418,0,0,0,0,0,0,0,-1,1987,841,26.5212,-6.03419
770,183,28.3512,5.37347,0,0,0,0,0,0,0,-1,1994,841,28.3512,-5.37347
777,183,28.8025,5.54272,0,0,0,0,0,0,0,-1,2001,841,28.8025,-5.54275
784,183,0,0,0,0,0,0,0,0,0,-1,2008,841,0,0
791,183,0,0,0,0,0,0,0,0,0,-1,2015,841,0,0
798,183,0,0,0,0,0,0,0,0,0,-1,2022,841,0,0
805,183,0,0,0,0,0,0,0,0,0,-1,2029,841,0,0
812,183,0,0,0,0,0,0,0,0,0,-1,2036,841,0,0
-700,176,0,0,0,0,0,0,0,0,0,-1,524,848,0,0
-693,176,0,0,0,0,0,0,0,0,0,-1,531,848,0,0
-686,176,0,0,0,0,0,0,0,0,0,-1,538,848,0,0
-679,176,0,0,0,0,0,0,0,0,0,-1,545,848,0,0
-672,176,0,0,0,0,0,0,0,0,0,-1,552,848,0,0
-665,176,-20.3762,1.73615,0.000316214,0.0491689,0.0655017,0.0946505,-0.0451653,0.963868,0.0823908,0.0495139,559,848,-20.3762,-1.73617
-658,176,-20.1106,2.19232,0.00890455,0.0403031,0.0499525,0.0769653,-0.0277577,0.937653,0.0626472,0.049627,566,848,-20.1106,-2.19233
-651,176,-19.726,2.85223,0.0115832,0.0328317,0.038086,0.0617475,-0.0173326,0.921417,0.0479973,0.0463748,573,848,-19.726,-2.85221
-644,176,-19.2541,2.71936,0.0115818,0.0263829,0.0287958,0.0487139,-0.0107492,0.911177,0.0365892,0.0440261,580,848,-19.2541,-2.71933
-637,176,-18.7679,2.42523,0.0101465,0.0207709,0.0214278,0.0375352,-0.00661772,0.906904,0.0274961,0.0438783,587,848,-18.7679,-2.42521
-630,176,-18.3743,2.30664,0.00793168,0.015918,0.0156147,0.028042,-0.00419234,0.91058,0.0202374,0.0432753,594,848,-18.3743,-2.30664
-623,176,-18.499,2.42834,0,0,0,0,0,0,0,-1,601,848,-18.499,-2.42832
-616,176,-18.7087,2.61145,0.0031763,0.00832238,0.00768799,0.0138565,-0.0023578,0.946881,0.0101156,0.0279766,608,848,-18.7088,-2.61144
-609,176,-18.7842,2.34949,0.00185987,0.00537274,0.00460299,0.00854302,-0.00131041,0.967664,0.00617865,0.0115744,615,848,-18.7842,-2.34948
-602,176,-18.8085,2.01361,0.000660189,0.00281216,0.00178378,0.00381935,-0.000346999,1.05678,0.00266943,0.0124293,622,848,-18.8084,-2.01362
-595,176,-18.8278,1.67456,-0.00106116,0.00123624,0.000465687,0.00132705,-0.00115197,1.37822,0.00143245,0.0115636,629,848,-18.8278,-1.67454
-588,176,-18.8238,1.33966,-0.00234651,0.000306623,0.000973026,0.000625218,-0.00266511,1.25437,0.0020177,0.0118101,636,848,-18.8238,-1.33965
-581,176,-18.8342,1.04248,-0.00212546,2.56683e-05,0.000964689,0.00039491,-0.0024947,1.20524,0.00180919,0.0114022,643,848,-18.8342,-1.0425
-574,176,-18.8306,0.740845,-0.00153196,-4.45644e-05,0.000595705,0.000164602,-0.00174113,1.23312,0.00121933,0.0154994,650,848,-18.8305,-0.740835
-567,176,-18.7476,0.521179,-0.00112581,4.10525e-05,0.000269898,0.000100456,-0.00118522,1.35415,0.00082567,0.0375145,657,848,-18.7475,-0.521168
-560,176,-18.9529,0.137451,-0.00085909,0.000346744,0.00010489,0.0003558,-0.000868146,1.48467,0.00072699,0.0295228,664,848,-18.9529,-0.137423
-553,176,-19.0017,-0.257874,0,0,0,0,0,0,0,-1,671,848,-19.0017,0.257883
-546,176,-16.657,-0.403198,0,0,0,0,0,0,0,-1,678,848,-16.657,0.403182
-539,176,-22.7061,1.48657,0,0,0,0,0,0,0,-1,685,848,-22.7061,-1.48657
-532,176,-24.1915,1.23846,0,0,0,0,0,0,0,-1,692,848,-24.1915,-1.23845
-525,176,-24.2565,1.03186,-0.00208993,-0.000286803,0.00047572,-0.000168992,-0.00220774,1.32803,0.00141886,0.0468335,699,848,-24.2565,-1.03186
-518,176,-24.3673,0.804749,-0.00243176,-0.000532248,0.000600792,-0.000358177,-0.00260583,1.28878,0.00163099,0.0407565,706,848,-24.3673,-0.804725
-511,176,-24.4426,0.68573,-0.00235815,-0.000981303,0.000764777,-0.000640741,-0.00269871,1.15185,0.00162814,0.0389623,713,848,-24.4426,-0.685717
-504,176,-24.4966,0.960999,-0.00158233,-0.00196317,0.000765184,-0.000984225,-0.00256127,0.663448,0.00149189,0.0411522,720,848,-24.4966,-0.961005
-497,176,-24.5315,1.48792,0,0,0,0,0,0,0,-1,727,848,-24.5315,-1.48793
-490,176,-24.2288,1.32086,0,0,0,0,0,0,0,-1,734,848,-24.2288,-1.32085
-483,176,0,0,0,0,0,0,0,0,0,-1,741,848,0,0
-476,176,0,0,0,0,0,0,0,0,0,-1,748,848,0,0
-469,176,0,0,0,0,0,0,0,0,0,-1,755,848,0,0
-462,176,0,0,0,0,0,0,0,0,0,-1,762,848,0,0
-455,176,0,0,0,0,0,0,0,0,0,-1,769,848,0,0
-448,176,0,0,0,0,0,0,0,0,0,-1,776,848,0,0
-441,176,0,0,0,0,0,0,0,0,0,-1,783,848,0,0
-434,176,0,0,0,0,0,0,0,0,0,-1,790,848,0,0
-427,176,0,0,0,0,0,0,0,0,0,-1,797,848,0,0
-420,176,0,0,0,0,0,0,0,0,0,-1,804,848,0,0
-413,176,0,0,0,0,0,0,0,0,0,-1,811,848,0,0
-406,176,0,0,0,0,0,0,0,0,0,-1,818,848,0,0
-399,176,0,0,0,0,0,0,0,0,0,-1,825,848,0,0
-392,176,0,0,0,0,0,0,0,0,0,-1,832,848,0,0
-385,176,0,0,0,0,0,0,0,0,0,-1,839,848,0,0
-378,176,0,0,0,0,0,0,0,0,0,-1,846,848,0,0
-371,176,0,0,0,0,0,0,0,0,0,-1,853,848,0,0
-364,176,0,0,0,0,0,0,0,0,0,-1,860,848,0,0
-357,176,0,0,0,0,0,0,0,0,0,-1,867,848,0,0
-350,176,0,0,0,0,0,0,0,0,0,-1,874,848,0,0
-343,176,0,0,0,0,0,0,0,0,0,-1,881,848,0,0
-336,176,0,0,0,0,0,0,0,0,0,-1,888,848,0,0
-329,176,0,0,0,0,0,0,0,0,0,-1,895,848,0,0
-322,176,0,0,0,0,0,0,0,0,0,-1,902,848,0,0
-315,176,0,0,0,0,0,0,0,0,0,-1,909,848,0,0
-308,176,0,0,0,0,0,0,0,0,0,-1,916,848,0,0
-301,176,0,0,0,0,0,0,0,0,0,-1,923,848,0,0
-294,176,0,0,0,0,0,0,0,0,0,-1,930,848,0,0
-287,176,0,0,0,0,0,0,0,0,0,-1,937,848,0,0
-280,176,0,0,0,0,0,0,0,0,0,-1,944,848,0,0
-273,176,0,0,0,0,0,0,0,0,0,-1,951,848,0,0
-266,176,0,0,0,0,0,0,0,0,0,-1,958,848,0,0
-259,176,0,0,0,0,0,0,0,0,0,-1,965,848,0,0
-252,176,0,0,0,0,0,0,0,0,0,-1,972,848,0,0
-245,176,0,0,0,0,0,0,0,0,0,-1,979,848,0,0
-238,176,0,0,0,0,0,0,0,0,0,-1,986,848,0,0
-231,176,0,0,0,0,0,0,0,0,0,-1,993,848,0,0
-224,176,0,0,0,0,0,0,0,0,0,-1,1000,848,0,0
-217,176,0,0,0,0,0,0,0,0,0,-1,1007,848,0,0
-210,176,0,0,0,0,0,0,0,0,0,-1,1014,848,0,0
-203,176,0,0,0,0,0,0,0,0,0,-1,1021,848,0,0
-196,176,0,0,0,0,0,0,0,0,0,-1,1028,848,0,0
-189,176,0,0,0,0,0,0,0,0,0,-1,1035,848,0,0
-182,176,0,0,0,0,0,0,0,0,0,-1,1042,848,0,0
-175,176,0,0,0,0,0,0,0,0,0,-1,1049,848,0,0
-168,176,0,0,0,0,0,0,0,0,0,-1,1056,848,0,0
-161,176,0,0,0,0,0,0,0,0,0,-1,1063,848,0,0
-154,176,0,0,0,0,0,0,0,0,0,-1,1070,848,0,0
-147,176,0,0,0,0,0,0,0,0,0,-1,1077,848,0,0
-140,176,0,0,0,0,0,0,0,0,0,-1,1084,848,0,0
-133,176,0,0,0,0,0,0,0,0,0,-1,1091,848,0,0
-126,176,0,0,0,0,0,0,0,0,0,-1,1098,848,0,0
-119,176,0,0,0,0,0,0,0,0,0,-1,1105,848,0,0
-112,176,0,0,0,0,0,0,0,0,0,-1,1112,848,0,0
-105,176,0,0,0,0,0,0,0,0,0,-1,1119,848,0,0
-98,176,0,0,0,0,0,0,0,0,0,-1,1126,848,0,0
-91,176,0,0,0,0,0,0,0,0,0,-1,1133,848,0,0
-84,176,0,0,0,0,0,0,0,0,0,-1,1140,848,0,0
-77,176,0,0,0,0,0,0,0,0,0,-1,1147,848,0,0
-70,176,0,0,0,0,0,0,0,0,0,-1,1154,848,0,0
-63,176,0,0,0,0,0,0,0,0,0,-1,1161,848,0,0
-56,176,0,0,0,0,0,0,0,0,0,-1,1168,848,0,0
-49,176,0,0,0,0,0,0,0,0,0,-1,1175,848,0,0
-42,176,0,0,0,0,0,0,0,0,0,-1,1182,848,0,0
-35,176,0,0,0,0,0,0,0,0,0,-1,1189,848,0,0
-28,176,0,0,0,0,0,0,0,0,0,-1,1196,848,0,0
-21,176,0,0,0,0,0,0,0,0,0,-1,1203,848,0,0
-14,176,0,0,0,0,0,0,0,0,0,-1,1210,848,0,0
-7,176,0,0,0,0,0,0,0,0,0,-1,1217,848,0,0
0,176,0,0,0,0,0,0,0,0,0,-1,1224,848,0,0
7,176,0,0,0,0,0,0,0,0,0,-1,1231,848,0,0
14,176,0,0,0,0,0,0,0,0,0,-1,1238,848,0,0
21,176,0,0,0,0,0,0,0,0,0,-1,1245,848,0,0
28,176,0,0,0,0,0,0,0,0,0,-1,1252,848,0,0
35,176,0,0,0,0,0,0,0,0,0,-1,1259,848,0,0
42,176,0,0,0,0,0,0,0,0,0,-1,1266,848,0,0
49,176,0,0,0,0,0,0,0,0,0,-1,1273,848,0,0
56,176,0,0,0,0,0,0,0,0,0,-1,1280,848,0,0
63,176,0,0,0,0,0,0,0,0,0,-1,1287,848,0,0
70,176,0,0,0,0,0,0,0,0,0,-1,1294,848,0,0
77,176,0,0,0,0,0,0,0,0,0,-1,1301,848,0,0
84,176,0,0,0,0,0,0,0,0,0,-1,1308,848,0,0
91,176,0,0,0,0,0,0,0,0,0,-1,1315,848,0,0
98,176,0,0,0,0,0,0,0,0,0,-1,1322,848,0,0
105,176,0,0,0,0,0,0,0,0,0,-1,1329,848,0,0
112,176,0,0,0,0,0,0,0,0,0,-1,1336,848,0,0
119,176,0,0,0,0,0,0,0,0,0,-1,1343,848,0,0
126,176,0,0,0,0,0,0,0,0,0,-1,1350,848,0,0
133,176,0,0,0,0,0,0,0,0,0,-1,1357,848,0,0
140,176,0,0,0,0,0,0,0,0,0,-1,1364,848,0,0
147,176,0,0,0,0,0,0,0,0,0,-1,1371,848,0,0
154,176,0,0,0,0,0,0,0,0,0,-1,1378,848,0,0
161,176,0,0,0,0,0,0,0,0,0,-1,1385,848,0,0
168,176,0,0,0,0,0,0,0,0,0,-1,1392,848,0,0
175,176,0,0,0,0,0,0,0,0,0,-1,1399,848,0,0
182,176,0,0,0,0,0,0,0,0,0,-1,1406,848,0,0
189,176,0,0,0,0,0,0,0,0,0,-1,1413,848,0,0
196,176,0,0,0,0,0,0,0,0,0,-1,1420,848,0,0
203,176,0,0,0,0,0,0,0,0,0,-1,1427,848,0,0
210,176,0,0,0,0,0,0,0,0,0,-1,1434,848,0,0
217,176,0,0,0,0,0,0,0,0,0,-1,1441,848,0,0
224,176,0,0,0,0,0,0,0,0,0,-1,1448,848,0,0
231,176,0,0,0,0,0,0,0,0,0,-1,1455,848,0,0
238,176,0,0,0,0,0,0,0,0,0,-1,1462,848,0,0
245,176,0,0,0,0,0,0,0,0,0,-1,1469,848,0,0
252,176,0,0,0,0,0,0,0,0,0,-1,1476,848,0,0
259,176,0,0,0,0,0,0,0,0,0,-1,1483,848,0,0
266,176,0,0,0,0,0,0,0,0,0,-1,1490,848,0,0
273,176,0,0,0,0,0,0,0,0,0,-1,1497,848,0,0
280,176,0,0,0,0,0,0,0,0,0,-1,1504,848,0,0
287,176,0,0,0,0,0,0,0,0,0,-1,1511,848,0,0
294,176,0,0,0,0,0,0,0,0,0,-1,1518,848,0,0
301,176,0,0,0,0,0,0,0,0,0,-1,1525,848,0,0
308,176,0,0,0,0,0,0,0,0,0,-1,1532,848,0,0
315,176,0,0,0,0,0,0,0,0,0,-1,1539,848,0,0
322,176,0,0,0,0,0,0,0,0,0,-1,1546,848,0,0
329,176,0,0,0,0,0,0,0,0,0,-1,1553,848,0,0
336,176,0,0,0,0,0,0,0,0,0,-1,1560,848,0,0
343,176,0,0,0,0,0,0,0,0,0,-1,1567,848,0,0
350,176,0,0,0,0,0,0,0,0,0,-1,1574,848,0,0
357,176,0,0,0,0,0,0,0,0,0,-1,1581,848,0,0
364,176,0,0,0,0,0,0,0,0,0,-1,1588,848,0,0
371,176,0,0,0,0,0,0,0,0,0,-1,1595,848,0,0
378,176,0,0,0,0,0,0,0,0,0,-1,1602,848,0,0
385,176,0,0,0,0,0,0,0,0,0,-1,1609,848,0,0
392,176,0,0,0,0,0,0,0,0,0,-1,1616,848,0,0
399,176,0,0,0,0,0,0,0,0,0,-1,1623,848,0,0
406,176,0,0,0,0,0,0,0,0,0,-1,1630,848,0,0
413,176,0,0,0,0,0,0,0,0,0,-1,1637,848,0,0
420,176,0,0,0,0,0,0,0,0,0,-1,1644,848,0,0
427,176,0,0,0,0,0,0,0,0,0,-1,1651,848,0,0
434,176,0,0,0,0,0,0,0,0,0,-1,1658,848,0,0
441,176,0,0,0,0,0,0,0,0,0,-1,1665,848,0,0
448,176,0,0,0,0,0,0,0,0,0,-1,1672,848,0,0
455,176,0,0,0,0,0,0,0,0,0,-1,1679,848,0,0
462,176,0,0,0,0,0,0,0,0,0,-1,1686,848,0,0
469,176,0,0,0,0,0,0,0,0,0,-1,1693,848,0,0
476,176,0,0,0,0,0,0,0,0,0,-1,1700,848,0,0
483,176,0,0,0,0,0,0,0,0,0,-1,1707,848,0,0
490,176,0,0,0,0,0,0,0,0,0,-1,1714,848,0,0
497,176,0,0,0,0,0,0,0,0,0,-1,1721,848,0,0
504,176,0,0,0,0,0,0,0,0,0,-1,1728,848,0,0
511,176,0,0,0,0,0,0,0,0,0,-1,1735,848,0,0
518,176,0,0,0,0,0,0,0,0,0,-1,1742,848,0,0
525,176,0,0,0,0,0,0,0,0,0,-1,1749,848,0,0
532,176,0,0,0,0,0,0,0,0,0,-1,1756,848,0,0
539,176,0,0,0,0,0,0,0,0,0,-1,1763,848,0,0
546,176,0,0,0,0,0,0,0,0,0,-1,1770,848,0,0
553,176,0,0,0,0,0,0,0,0,0,-1,1777,848,0,0
560,176,0,0,0,0,0,0,0,0,0,-1,1784,848,0,0
567,176,0,0,0,0,0,0,0,0,0,-1,1791,848,0,0
574,176,0,0,0,0,0,0,0,0,0,-1,1798,848,0,0
581,176,0,0,0,0,0,0,0,0,0,-1,1805,848,0,0
588,176,0,0,0,0,0,0,0,0,0,-1,1812,848,0,0
595,176,0,0,0,0,0,0,0,0,0,-1,1819,848,0,0
602,176,0,0,0,0,0,0,0,0,0,-1,1826,848,0,0
609,176,33.7003,3.02734,0.00594267,-0.00462623,-0.00593684,0.00860627,-0.00728983,-0.421736,0.0091881,0.0392961,1833,848,33.7003,-3.02735
616,176,33.6642,2.89911,0.00555083,-0.00325071,-0.00425441,0.00727107,-0.00497095,-0.384245,0.0071094,0.0401136,1840,848,33.6641,-2.89911
623,176,34.0106,2.56567,0.0042166,-0.00227756,-0.00307407,0.00544091,-0.00350188,-0.379017,0.00520342,0.0477948,1847,848,34.0106,-2.56569
630,176,34.1343,2.6239,0.00256564,-0.00172716,-0.00235521,0.00360578,-0.00276731,-0.415875,0.0036901,0.0439153,1854,848,34.1342,-2.62392
637,176,33.9419,2.7005,0.000948955,-0.00168832,-0.00210128,0.00211108,-0.00285044,-0.505185,0.00287512,0.0337286,1861,848,33.942,-2.70048
644,176,33.7937,2.80566,-0.000253155,-0.00187547,-0.00201652,0.00110924,-0.00323787,-0.594173,0.00260817,0.0328,1868,848,33.7937,-2.80568
651,176,33.8457,2.83081,-0.00100377,-0.0020318,-0.00198189,0.000529682,-0.00356525,-0.658517,0.00257164,0.0330841,1875,848,33.8457,-2.83079
658,176,33.8464,2.74158,-0.00137913,-0.00221912,-0.0020234,0.000267404,-0.00386566,-0.683067,0.00267071,0.0380021,1882,848,33.8465,-2.74157
665,176,33.8325,2.67529,0,0,0,0,0,0,0,-1,1889,848,33.8325,-2.67532
672,176,16.9304,2.80719,0,0,0,0,0,0,0,-1,1896,848,16.9305,-2.80719
679,176,27.5515,1.96765,0,0,0,0,0,0,0,-1,1903,848,27.5515,-1.96768
686,176,27.5623,2.30591,-0.00243916,-0.00192542,-0.00170056,-0.000462442,-0.00390214,-0.860356,0.0024618,0.0317727,1910,848,27.5623,-2.3059
693,176,27.4524,2.63184,-0.00207653,-0.00179941,-0.00163597,-0.00029614,-0.0035798,-0.827644,0.0022942,0.0164537,1917,848,27.4524,-2.63183
700,176,27.3628,2.9646,-0.00171469,-0.00158312,-0.00143604,-0.00021136,-0.00308645,-0.808287,0.00199092,0.0174184,1924,848,27.3628,-2.9646
707,176,27.3535,3.28735,-0.00123123,-0.00110868,-0.00103284,-0.000135301,-0.00220461,-0.815027,0.00142678,0.0137916,1931,848,27.3535,-3.28734
714,176,27.3506,3.59869,-0.000746291,-0.000615206,-0.000715777,3.80233e-05,-0.00139952,-0.831055,0.000945942,0.0115366,1938,848,27.3505,-3.59869
721,176,27.3342,3.9198,-0.000216152,-0.000247817,-0.000288592,5.70418e-05,-0.00052101,-0.757995,0.000367831,0.0111154,1945,848,27.3342,-3.91978
728,176,27.3145,4.28601,0.000132372,4.87785e-05,0.000246655,0.000340747,-0.000159596,0.701469,0.000295117,0.0143095,1952,848,27.3145,-4.28603
735,176,27.3184,4.62622,0.000503604,0.000323402,0.000902906,0.00132089,-0.000493887,0.735668,0.00108342,0.0135934,1959,848,27.3184,-4.6262
742,176,27.3225,4.96533,0.000873164,0.000516001,0.00168802,0.00239202,-0.00100286,0.732697,0.00201399,0.0166547,1966,848,27.3225,-4.96531
749,176,27.3572,5.29547,0.00143589,0.00067969,0.00272254,0.00380646,-0.00169088,0.716401,0.00325129,0.0275127,1973,848,27.3572,-5.29544
756,176,27.7408,5.61761,0.00232049,0.000883062,0.00413816,0.00580189,-0.00259834,0.699416,0.00496604,0.0461071,1980,848,27.7408,-5.61759
763,176,28.1368,5.97028,0,0,0,0,0,0,0,-1,1987,848,28.1368,-5.97027
770,176,27.6885,5.42841,0,0,0,0,0,0,0,-1,1994,848,27.6885,-5.42838
777,176,28.1423,5.40625,0,0,0,0,0,0,0,-1,2001,848,28.1424,-5.40623
784,176,0,0,0,0,0,0,0,0,0,-1,2008,848,0,0
791,176,0,0,0,0,0,0,0,0,0,-1,2015,848,0,0
798,176,0,0,0,0,0,0,0,0,0,-1,2022,848,0,0
805,176,0,0,0,0,0,0,0,0,0,-1,2029,848,0,0
812,176,0,0,0,0,0,0,0,0,0,-1,2036,848,0,0
-700,169,0,0,0,0,0,0,0,0,0,-1,524,855,0,0
-693,169,0,0,0,0,0,0,0,0,0,-1,531,855,0,0
-686,169,0,0,0,0,0,0,0,0,0,-1,538,855,0,0
-679,169,0,0,0,0,0,0,0,0,0,-1,545,855,0,0
-672,169,0,0,0,0,0,0,0,0,0,-1,552,855,0,0
-665,169,-20.628,0.868042,-0.00719362,0.0340105,0.0661997,0.0827399,-0.055923,0.936253,0.0805546,0.0475349,559,855,-20.628,-0.868056
-658,169,-20.7631,2.10522,0.00243162,0.0288386,0.0520601,0.0693434,-0.0380732,0.90959,0.0628869,0.0484394,566,855,-20.7631,-2.1052
-651,169,-20.397,3.13562,0.00651891,0.0242146,0.0406853,0.057003,-0.0262695,0.892466,0.0491567,0.047473,573,855,-20.397,-3.13559
-644,169,-19.4045,2.35394,0.00784277,0.0199958,0.0313757,0.045878,-0.0180394,0.881049,0.0380516,0.047384,580,855,-19.4045,-2.35395
-637,169,-18.5093,4.64447,0,0,0,0,0,0,0,-1,587,855,-18.5094,-4.64449
-630,169,-19.1434,4.20618,0,0,0,0,0,0,0,-1,594,855,-19.1434,-4.20619
-623,169,-19.0624,2.48785,0,0,0,0,0,0,0,-1,601,855,-19.0624,-2.48782
-616,169,-19.1279,2.61676,0.00256709,0.00676854,0.00882291,0.0137374,-0.00440174,0.902271,0.0109252,0.0220476,608,855,-19.1279,-2.61679
-609,169,-19.1508,2.36176,0.00175979,0.0044808,0.00542208,0.00871046,-0.00246987,0.90832,0.00678187,0.0133124,615,855,-19.1508,-2.36175
-602,169,-19.1716,2.01245,0.000746393,0.00249235,0.00245311,0.00422319,-0.000984444,0.956344,0.00319458,0.0131173,622,855,-19.1716,-2.01245
-595,169,-19.1666,1.66571,-0.000896702,0.00109088,0.000833443,0.00139411,-0.00119993,1.22186,0.00149906,0.0116921,629,855,-19.1666,-1.66568
-588,169,-19.1528,1.36273,-0.00197242,0.000214038,0.00103386,0.000625476,-0.00238386,1.19205,0.00183364,0.0100748,636,855,-19.1528,-1.36274
-581,169,-19.1846,1.05591,-0.00179627,-8.46606e-06,0.000808745,0.00030309,-0.00210783,1.20308,0.00151638,0.0112217,643,855,-19.1846,-1.05589
-574,169,-19.293,0.734619,-0.00139312,-0.000100681,0.00035067,-1.16663e-05,-0.00148213,1.32221,0.000984224,0.0179771,650,855,-19.293,-0.734643
-567,169,-19.1632,0.539246,-0.00108456,1.14354e-05,5.56895e-06,1.14636e-05,-0.00108459,1.56572,0.000726913,0.032798,657,855,-19.1632,-0.539249
-560,169,-19.2322,0.262878,-0.000823046,0.000237634,-0.000217984,0.000280685,-0.000866098,-1.37581,0.000690253,0.0348918,664,855,-19.2322,-0.262902
-553,169,-19.1202,-0.269043,-0.000685549,0.000291948,-0.000134913,0.000310227,-0.000703827,-1.43613,0.000599985,0.0496629,671,855,-19.1202,0.269043
-546,169,-18.6571,-0.900024,0,0,0,0,0,0,0,-1,678,855,-18.6571,0.900015
-539,169,-24.2785,1.05768,0,0,0,0,0,0,0,-1,685,855,-24.2785,-1.05771
-532,169,-24.1996,1.12329,-0.000878698,-9.99569e-05,-0.000117093,-8.27315e-05,-0.000895923,-1.42474,0.000571704,0.0378777,692,855,-24.1996,-1.1233
-525,169,-24.1624,1.15802,-0.0010111,-0.000273204,-4.19312e-05,-0.000270829,-0.00101347,-1.51421,0.000605895,0.0409408,699,855,-24.1624,-1.15802
-518,169,-24.3643,0.97345,-0.00107539,-0.00062283,0.000137795,-0.000584176,-0.00111404,1.2973,0.000643446,0.0388994,706,855,-24.3643,-0.973435
-511,169,-24.4323,0.897766,-0.000606982,-0.00134881,0.000403405,-0.000429888,-0.0015259,0.413668,0.000908531,0.0411106,713,855,-24.4323,-0.897779
-504,169,-24.3274,0.552979,0.000680573,-0.00288035,0.000558994,0.000766262,-0.00296604,0.152107,0.00227619,0.0422905,720,855,-24.3274,-0.552992
-497,169,-24.1625,0.808044,0.00397066,-0.00487761,0.000278184,0.00397939,-0.00488635,0.0313981,0.00512756,0.042028,727,855,-24.1625,-0.808066
-490,169,0,0,0,0,0,0,0,0,0,-1,734,855,0,0
-483,169,0,0,0,0,0,0,0,0,0,-1,741,855,0,0
-476,169,0,0,0,0,0,0,0,0,0,-1,748,855,0,0
-469,169,0,0,0,0,0,0,0,0,0,-1,755,855,0,0
-462,169,0,0,0,0,0,0,0,0,0,-1,762,855,0,0
-455,169,0,0,0,0,0,0,0,0,0,-1,769,855,0,0
-448,169,0,0,0,0,0,0,0,0,0,-1,776,855,0,0
-441,169,0,0,0,0,0,0,0,0,0,-1,783,855,0,0
-434,169,0,0,0,0,0,0,0,0,0,-1,790,855,0,0
-427,169,0,0,0,0,0,0,0,0,0,-1,797,855,0,0
-420,169,0,0,0,0,0,0,0,0,0,-1,804,855,0,0
-413,169,0,0,0,0,0,0,0,0,0,-1,811,855,0,0
-406,169,0,0,0,0,0,0,0,0,0,-1,818,855,0,0
-399,169,0,0,0,0,0,0,0,0,0,-1,825,855,0,0
-392,169,0,0,0,0,0,0,0,0,0,-1,832,855,0,0
-385,169,0,0,0,0,0,0,0,0,0,-1,839,855,0,0
-378,169,0,0,0,0,0,0,0,0,0,-1,846,855,0,0
-371,169,0,0,0,0,0,0,0,0,0,-1,853,855,0,0
-364,169,0,0,0,0,0,0,0,0,0,-1,860,855,0,0
-357,169,0,0,0,0,0,0,0,0,0,-1,867,855,0,0
-350,169,0,0,0,0,0,0,0,0,0,-1,874,855,0,0
-343,169,0,0,0,0,0,0,0,0,0,-1,881,855,0,0
-336,169,0,0,0,0,0,0,0,0,0,-1,888,855,0,0
-329,169,0,0,0,0,0,0,0,0,0,-1,895,855,0,0
-322,169,0,0,0,0,0,0,0,0,0,-1,902,855,0,0
-315,169,0,0,0,0,0,0,0,0,0,-1,909,855,0,0
-308,169,0,0,0,0,0,0,0,0,0,-1,916,855,0,0
-301,169,0,0,0,0,0,0,0,0,0,-1,923,855,0,0
-294,169,0,0,0,0,0,0,0,0,0,-1,930,855,0,0
-287,169,0,0,0,0,0,0,0,0,0,-1,937,855,0,0
-280,169,0,0,0,0,0,0,0,0,0,-1,944,855,0,0
-273,169,0,0,0,0,0,0,0,0,0,-1,951,855,0,0
-266,169,0,0,0,0,0,0,0,0,0,-1,958,855,0,0
-259,169,0,0,0,0,0,0,0,0,0,-1,965,855,0,0
-252,169,0,0,0,0,0,0,0,0,0,-1,972,855,0,0
-245,169,0,0,0,0,0,0,0,0,0,-1,979,855,0,0
-238,169,0,0,0,0,0,0,0,0,0,-1,986,855,0,0
-231,169,0,0,0,0,0,0,0,0,0,-1,993,855,0,0
-224,169,0,0,0,0,0,0,0,0,0,-1,1000,855,0,0
-217,169,0,0,0,0,0,0,0,0,0,-1,1007,855,0,0
-210,169,0,0,0,0,0,0,0,0,0,-1,1014,855,0,0
-203,169,0,0,0,0,0,0,0,0,0,-1,1021,855,0,0
-196,169,0,0,0,0,0,0,0,0,0,-1,1028,855,0,0
-189,169,0,0,0,0,0,0,0,0,0,-1,1035,855,0,0
-182,169,0,0,0,0,0,0,0,0,0,-1,1042,855,0,0
-175,169,0,0,0,0,0,0,0,0,0,-1,1049,855,0,0
-168,169,0,0,0,0,0,0,0,0,0,-1,1056,855,0,0
-161,169,0,0,0,0,0,0,0,0,0,-1,1063,855,0,0
-154,169,0,0,0,0,0,0,0,0,0,-1,1070,855,0,0
-147,169,0,0,0,0,0,0,0,0,0,-1,1077,855,0,0
-140,169,0,0,0,0,0,0,0,0,0,-1,1084,855,0,0
-133,169,0,0,0,0,0,0,0,0,0,-1,1091,855,0,0
-126,169,0,0,0,0,0,0,0,0,0,-1,1098,855,0,0
-119,169,0,0,0,0,0,0,0,0,0,-1,1105,855,0,0
-112,169,0,0,0,0,0,0,0,0,0,-1,1112,855,0,0
-105,169,0,0,0,0,0,0,0,0,0,-1,1119,855,0,0
-98,169,0,0,0,0,0,0,0,0,0,-1,1126,855,0,0
-91,169,0,0,0,0,0,0,0,0,0,-1,1133,855,0,0
-84,169,0,0,0,0,0,0,0,0,0,-1,1140,855,0,0
-77,169,0,0,0,0,0,0,0,0,0,-1,1147,855,0,0
-70,169,0,0,0,0,0,0,0,0,0,-1,1154,855,0,0
-63,169,0,0,0,0,0,0,0,0,0,-1,1161,855,0,0
-56,169,0,0,0,0,0,0,0,0,0,-1,1168,855,0,0
-49,169,0,0,0,0,0,0,0,0,0,-1,1175,855,0,0
-42,169,0,0,0,0,0,0,0,0,0,-1,1182,855,0,0
-35,169,0,0,0,0,0,0,0,0,0,-1,1189,855,0,0
-28,169,0,0,0,0,0,0,0,0,0,-1,1196,855,0,0
-21,169,0,0,0,0,0,0,0,0,0,-1,1203,855,0,0
-14,169,0,0,0,0,0,0,0,0,0,-1,1210,855,0,0
-7,169,0,0,0,0,0,0,0,0,0,-1,1217,855,0,0
0,169,0,0,0,0,0,0,0,0,0,-1,1224,855,0,0
7,169,0,0,0,0,0,0,0,0,0,-1,1231,855,0,0
14,169,0,0,0,0,0,0,0,0,0,-1,1238,855,0,0
21,169,0,0,0,0,0,0,0,0,0,-1,1245,855,0,0
28,169,0,0,0,0,0,0,0,0,0,-1,1252,855,0,0
35,169,0,0,0,0,0,0,0,0,0,-1,1259,855,0,0
42,169,0,0,0,0,0,0,0,0,0,-1,1266,855,0,0
49,169,0,0,0,0,0,0,0,0,0,-1,1273,855,0,0
56,169,0,0,0,0,0,0,0,0,0,-1,1280,855,0,0
63,169,0,0,0,0,0,0,0,0,0,-1,1287,855,0,0
70,169,0,0,0,0,0,0,0,0,0,-1,1294,855,0,0
77,169,0,0,0,0,0,0,0,0,0,-1,1301,855,0,0
84,169,0,0,0,0,0,0,0,0,0,-1,1308,855,0,0
91,169,0,0,0,0,0,0,0,0,0,-1,1315,855,0,0
98,169,0,0,0,0,0,0,0,0,0,-1,1322,855,0,0
105,169,0,0,0,0,0,0,0,0,0,-1,1329,855,0,0
112,169,0,0,0,0,0,0,0,0,0,-1,1336,855,0,0
119,169,0,0,0,0,0,0,0,0,0,-1,1343,855,0,0
126,169,0,0,0,0,0,0,0,0,0,-1,1350,855,0,0
133,169,0,0,0,0,0,0,0,0,0,-1,1357,855,0,0
140,169,0,0,0,0,0,0,0,0,0,-1,1364,855,0,0
147,169,0,0,0,0,0,0,0,0,0,-1,1371,855,0,0
154,169,0,0,0,0,0,0,0,0,0,-1,1378,855,0,0
161,169,0,0,0,0,0,0,0,0,0,-1,1385,855,0,0
168,169,0,0,0,0,0,0,0,0,0,-1,1392,855,0,0
175,169,0,0,0,0,0,0,0,0,0,-1,1399,855,0,0
182,169,0,0,0,0,0,0,0,0,0,-1,1406,855,0,0
189,169,0,0,0,0,0,0,0,0,0,-1,1413,855,0,0
196,169,0,0,0,0,0,0,0,0,0,-1,1420,855,0,0
203,169,0,0,0,0,0,0,0,0,0,-1,1427,855,0,0
210,169,0,0,0,0,0,0,0,0,0,-1,1434,855,0,0
217,169,0,0,0,0,0,0,0,0,0,-1,1441,855,0,0
224,169,0,0,0,0,0,0,0,0,0,-1,1448,855,0,0
231,169,0,0,0,0,0,0,0,0,0,-1,1455,855,0,0
238,169,0,0,0,0,0,0,0,0,0,-1,1462,855,0,0
245,169,0,0,0,0,0,0,0,0,0,-1,1469,855,0,0
252,169,0,0,0,0,0,0,0,0,0,-1,1476,855,0,0
259,169,0,0,0,0,0,0,0,0,0,-1,1483,855,0,0
266,169,0,0,0,0,0,0,0,0,0,-1,1490,855,0,0
273,169,0,0,0,0,0,0,0,0,0,-1,1497,855,0,0
280,169,0,0,0,0,0,0,0,0,0,-1,1504,855,0,0
287,169,0,0,0,0,0,0,0,0,0,-1,1511,855,0,0
294,169,0,0,0,0,0,0,0,0,0,-1,1518,855,0,0
301,169,0,0,0,0,0,0,0,0,0,-1,1525,855,0,0
308,169,0,0,0,0,0,0,0,0,0,-1,1532,855,0,0
315,169,0,0,0,0,0,0,0,0,0,-1,1539,855,0,0
322,169,0,0,0,0,0,0,0,0,0,-1,1546,855,0,0
329,169,0,0,0,0,0,0,0,0,0,-1,1553,855,0,0
336,169,0,0,0,0,0,0,0,0,0,-1,1560,855,0,0
343,169,0,0,0,0,0,0,0,0,0,-1,1567,855,0,0
350,169,0,0,0,0,0,0,0,0,0,-1,1574,855,0,0
357,169,0,0,0,0,0,0,0,0,0,-1,1581,855,0,0
364,169,0,0,0,0,0,0,0,0,0,-1,1588,855,0,0
371,169,0,0,0,0,0,0,0,0,0,-1,1595,855,0,0
378,169,0,0,0,0,0,0,0,0,0,-1,1602,855,0,0
385,169,0,0,0,0,0,0,0,0,0,-1,1609,855,0,0
392,169,0,0,0,0,0,0,0,0,0,-1,1616,855,0,0
399,169,0,0,0,0,0,0,0,0,0,-1,1623,855,0,0
406,169,0,0,0,0,0,0,0,0,0,-1,1630,855,0,0
413,169,0,0,0,0,0,0,0,0,0,-1,1637,855,0,0
420,169,0,0,0,0,0,0,0,0,0,-1,1644,855,0,0
427,169,0,0,0,0,0,0,0,0,0,-1,1651,855,0,0
434,169,0,0,0,0,0,0,0,0,0,-1,1658,855,0,0
441,169,0,0,0,0,0,0,0,0,0,-1,1665,855,0,0
448,169,0,0,0,0,0,0,0,0,0,-1,1672,855,0,0
455,169,0,0,0,0,0,0,0,0,0,-1,1679,855,0,0
462,169,0,0,0,0,0,0,0,0,0,-1,1686,855,0,0
469,169,0,0,0,0,0,0,0,0,0,-1,1693,855,0,0
476,169,0,0,0,0,0,0,0,0,0,-1,1700,855,0,0
483,169,0,0,0,0,0,0,0,0,0,-1,1707,855,0,0
490,169,0,0,0,0,0,0,0,0,0,-1,1714,855,0,0
497,169,0,0,0,0,0,0,0,0,0,-1,1721,855,0,0
504,169,0,0,0,0,0,0,0,0,0,-1,1728,855,0,0
511,169,0,0,0,0,0,0,0,0,0,-1,1735,855,0,0
518,169,0,0,0,0,0,0,0,0,0,-1,1742,855,0,0
525,169,0,0,0,0,0,0,0,0,0,-1,1749,855,0,0
532,169,0,0,0,0,0,0,0,0,0,-1,1756,855,0,0
539,169,0,0,0,0,0,0,0,0,0,-1,1763,855,0,0
546,169,0,0,0,0,0,0,0,0,0,-1,1770,855,0,0
553,169,0,0,0,0,0,0,0,0,0,-1,1777,855,0,0
560,169,0,0,0,0,0,0,0,0,0,-1,1784,855,0,0
567,169,0,0,0,0,0,0,0,0,0,-1,1791,855,0,0
574,169,0,0,0,0,0,0,0,0,0,-1,1798,855,0,0
581,169,0,0,0,0,0,0,0,0,0,-1,1805,855,0,0
588,169,0,0,0,0,0,0,0,0,0,-1,1812,855,0,0
595,169,0,0,0,0,0,0,0,0,0,-1,1819,855,0,0
602,169,0,0,0,0,0,0,0,0,0,-1,1826,855,0,0
609,169,0,0,0,0,0,0,0,0,0,-1,1833,855,0,0
616,169,33.5347,3.26617,0.00712495,-0.00375122,-0.00553104,0.00944348,-0.00606975,-0.396936,0.0090269,0.041552,1840,855,33.5346,-3.26615
623,169,33.538,3.37024,0.00564059,-0.0027138,-0.00397658,0.00723073,-0.00430394,-0.3804,0.00673062,0.0455299,1847,855,33.5379,-3.37021
630,169,34.196,2.75171,0.0038566,-0.00190208,-0.00276701,0.00497062,-0.0030161,-0.382753,0.00465693,0.0447321,1854,855,34.1961,-2.75169
637,169,33.9711,2.82672,0.00206864,-0.00164441,-0.0020887,0.00300663,-0.00258241,-0.42209,0.00322993,0.0372741,1861,855,33.9711,-2.82669
644,169,33.8418,2.86273,0.000692132,-0.00167524,-0.00173806,0.00161129,-0.0025944,-0.486454,0.00245017,0.0367152,1868,855,33.8418,-2.86271
651,169,33.8151,2.88177,-0.000182488,-0.0017542,-0.00155386,0.00077294,-0.00270962,-0.551283,0.00211175,0.0353346,1875,855,33.815,-2.88175
658,169,33.8079,2.82739,-0.000636748,-0.00190482,-0.0015177,0.000374027,-0.0029156,-0.587536,0.00207965,0.0341913,1882,855,33.8078,-2.82736
665,169,33.8102,2.87537,0,0,0,0,0,0,0,-1,1889,855,33.8102,-2.87539
672,169,31.2465,2.96387,0,0,0,0,0,0,0,-1,1896,855,31.2464,-2.9639
679,169,27.8191,1.9812,0,0,0,0,0,0,0,-1,1903,855,27.819,-1.9812
686,169,27.816,2.30914,-0.00183766,-0.00166236,-0.00118527,-0.000561505,-0.00293852,-0.822305,0.00180126,0.032858,1910,855,27.8161,-2.30917
693,169,27.802,2.64288,-0.00156083,-0.00154527,-0.00116034,-0.000392681,-0.00271342,-0.788751,0.0016933,0.0166081,1917,855,27.802,-2.6429
700,169,27.7888,2.98492,-0.00125356,-0.00135227,-0.00106043,-0.000241338,-0.00236449,-0.762144,0.00150235,0.014608,1924,855,27.7888,-2.98492
707,169,27.7489,3.29712,-0.000841,-0.000943029,-0.000809241,-8.1167e-05,-0.00170286,-0.75392,0.00110918,0.0152099,1931,855,27.7489,-3.2971
714,169,27.7023,3.60596,-0.000443503,-0.000495848,-0.000674539,0.000205372,-0.00114472,-0.766008,0.000840016,0.0135376,1938,855,27.7023,-3.60599
721,169,27.679,3.95514,9.15906e-05,-8.01108e-05,-0.000391326,0.000406372,-0.000394892,-0.677417,0.000462626,0.0150806,1945,855,27.679,-3.95513
728,169,27.6812,4.29993,0.000490211,0.000325997,-7.13603e-07,0.000490215,0.000325994,-0.00434545,0.000288117,0.0132346,1952,855,27.6812,-4.29994
735,169,27.6548,4.62714,0.00101168,0.000800736,0.000495691,0.00141299,0.000399419,0.680574,0.000841087,0.0187265,1959,855,27.6548,-4.62713
742,169,27.6527,4.97546,0.00164948,0.00124119,0.00110029,0.00256441,0.000326265,0.693673,0.00161189,0.0142583,1966,855,27.6527,-4.97549
749,169,27.6744,5.24939,0.00260678,0.00171172,0.00188984,0.00410135,0.000217148,0.669136,0.0026648,0.0244749,1973,855,27.6745,-5.24942
756,169,28.0459,5.37476,0.00407768,0.00231956,0.00297805,0.0063037,9.3543e-05,0.641883,0.00417163,0.0464626,1980,855,28.0458,-5.37478
763,169,28.4919,5.51379,0,0,0,0,0,0,0,-1,1987,855,28.492,-5.51382
770,169,27.193,5.43518,0,0,0,0,0,0,0,-1,1994,855,27.193,-5.43518
777,169,27.4871,6.07129,0,0,0,0,0,0,0,-1,2001,855,27.4871,-6.07132
784,169,27.1527,7.06378,0,0,0,0,0,0,0,-1,2008,855,27.1527,-7.06377
791,169,0,0,0,0,0,0,0,0,0,-1,2015,855,0,0
798,169,0,0,0,0,0,0,0,0,0,-1,2022,855,0,0
805,169,0,0,0,0,0,0,0,0,0,-1,2029,855,0,0
812,169,0,0,0,0,0,0,0,0,0,-1,2036,855,0,0
-700,162,0,0,0,0,0,0,0,0,0,-1,524,862,0,0
-693,162,0,0,0,0,0,0,0,0,0,-1,531,862,0,0
-686,162,0,0,0,0,0,0,0,0,0,-1,538,862,0,0
-679,162,0,0,0,0,0,0,0,0,0,-1,545,862,0,0
-672,162,0,0,0,0,0,0,0,0,0,-1,552,862,0,0
-665,162,-21.0607,0.269714,0,0,0,0,0,0,0,-1,559,862,-21.0608,-0.269705
-658,162,-21.4435,2.00696,0,0,0,0,0,0,0,-1,566,862,-21.4436,-2.00696
-651,162,-20.8322,2.92645,0,0,0,0,0,0,0,-1,573,862,-20.8322,-2.92648
-644,162,-19.0201,4.60156,0,0,0,0,0,0,0,-1,580,862,-19.0201,-4.60156
-637,162,-19.0236,4.1416,0,0,0,0,0,0,0,-1,587,862,-19.0236,-4.1416
-630,162,-19.3564,3.79364,0.0042091,0.00916687,0.0186891,0.0255408,-0.0121648,0.851332,0.0222212,0.0468433,594,862,-19.3565,-3.79362
-623,162,-19.4365,2.92126,0.00315369,0.00710377,0.0136213,0.0188925,-0.00863504,0.857394,0.0162567,0.0337947,601,862,-19.4366,-2.92128
-616,162,-19.4575,2.64899,0.00182178,0.00512524,0.00960184,0.0132164,-0.00626937,0.870576,0.011486,0.0185781,608,862,-19.4575,-2.64898
-609,162,-19.4919,2.34058,0.00152429,0.00351945,0.00599778,0.00860204,-0.0035583,0.867806,0.00721927,0.0132768,615,862,-19.4919,-2.34058
-602,162,-19.5097,2.01331,0.000766867,0.00211699,0.00296454,0.00448236,-0.0015985,0.897345,0.00364001,0.0113543,622,862,-19.5097,-2.01332
-595,162,-19.4867,1.69696,-0.000689492,0.000968347,0.00112608,0.0015377,-0.00125884,1.10267,0.00161726,0.0107208,629,862,-19.4867,-1.69697
-588,162,-19.488,1.38623,-0.00152267,0.000166776,0.0010058,0.000635519,-0.00199141,1.13468,0.00158257,0.0112984,636,862,-19.488,-1.38625
-581,162,-19.6015,1.07336,-0.00138368,5.53632e-06,0.000577463,0.000214225,-0.00159236,1.22401,0.00113972,0.0154125,643,862,-19.6015,-1.07336
-574,162,-19.7467,0.744568,-0.00115972,-0.000100555,4.67979e-05,-9.84909e-05,-0.00116179,1.52673,0.00074387,0.0232967,650,862,-19.7467,-0.744593
-567,162,-19.6648,0.443665,-0.000947119,3.261e-05,-0.000312425,0.000123759,-0.00103827,-1.28693,0.000736904,0.0369282,657,862,-19.6648,-0.443655
-560,162,-19.5516,-0.00891113,-0.000696296,0.000193391,-0.000586644,0.000484778,-0.000987684,-1.10979,0.000866497,0.0333311,664,862,-19.5516,0.00889235
-553,162,-19.3881,-0.416504,-0.000429648,0.000222493,-0.000632559,0.000608077,-0.000815233,-1.02338,0.000824645,0.040899,671,862,-19.3881,0.41649
-546,162,-19.2241,-0.835144,0,0,0,0,0,0,0,-1,678,862,-19.2241,0.835148
-539,162,-24.2936,0.955566,0,0,0,0,0,0,0,-1,685,862,-24.2936,-0.955592
-532,162,-24.2124,0.998169,-0.00018078,-3.39178e-05,-0.000732683,0.000629004,-0.000843702,-0.835343,0.000853274,0.0379145,692,862,-24.2124,-0.99819
-525,162,-24.202,1.00592,-0.000135319,-0.000258594,-0.000634545,0.000440575,-0.000834488,-0.736982,0.000747776,0.0387272,699,862,-24.202,-1.0059
-518,162,-24.3594,0.899658,7.53888e-05,-0.00076787,-0.000369625,0.000214468,-0.00090695,-0.359884,0.000687367,0.0399506,706,862,-24.3594,-0.899643
-511,162,-24.3976,0.503662,0.00094239,-0.00192792,9.29496e-05,0.000945397,-0.00193093,0.0323379,0.00169283,0.0458391,713,862,-24.3977,-0.503682
-504,162,-24.4376,0.564148,0.00272474,-0.00422008,0.000584586,0.0027736,-0.00426894,0.0833939,0.00409645,0.0458121,720,862,-24.4376,-0.564158
-497,162,-24.1805,0.831726,0.00660841,-0.00705515,0.000803125,0.00665545,-0.0071022,0.0585101,0.00794438,0.0425191,727,862,-24.1806,-0.831734
-490,162,0,0,0,0,0,0,0,0,0,-1,734,862,0,0
-483,162,0,0,0,0,0,0,0,0,0,-1,741,862,0,0
-476,162,0,0,0,0,0,0,0,0,0,-1,748,862,0,0
-469,162,0,0,0,0,0,0,0,0,0,-1,755,862,0,0
-462,162,0,0,0,0,0,0,0,0,0,-1,762,862,0,0
-455,162,0,0,0,0,0,0,0,0,0,-1,769,862,0,0
-448,162,0,0,0,0,0,0,0,0,0,-1,776,862,0,0
-441,162,0,0,0,0,0,0,0,0,0,-1,783,862,0,0
-434,162,0,0,0,0,0,0,0,0,0,-1,790,862,0,0
-427,162,0,0,0,0,0,0,0,0,0,-1,797,862,0,0
-420,162,0,0,0,0,0,0,0,0,0,-1,804,862,0,0
-413,162,0,0,0,0,0,0,0,0,0,-1,811,862,0,0
-406,162,0,0,0,0,0,0,0,0,0,-1,818,862,0,0
-399,162,0,0,0,0,0,0,0,0,0,-1,825,862,0,0
-392,162,0,0,0,0,0,0,0,0,0,-1,832,862,0,0
-385,162,0,0,0,0,0,0,0,0,0,-1,839,862,0,0
-378,162,0,0,0,0,0,0,0,0,0,-1,846,862,0,0
-371,162,0,0,0,0,0,0,0,0,0,-1,853,862,0,0
-364,162,0,0,0,0,0,0,0,0,0,-1,860,862,0,0
-357,162,0,0,0,0,0,0,0,0,0,-1,867,862,0,0
-350,162,0,0,0,0,0,0,0,0,0,-1,874,862,0,0
-343,162,0,0,0,0,0,0,0,0,0,-1,881,862,0,0
-336,162,0,0,0,0,0,0,0,0,0,-1,888,862,0,0
-329,162,0,0,0,0,0,0,0,0,0,-1,895,862,0,0
-322,162,0,0,0,0,0,0,0,0,0,-1,902,862,0,0
-315,162,0,0,0,0,0,0,0,0,0,-1,909,862,0,0
-308,162,0,0,0,0,0,0,0,0,0,-1,916,862,0,0
-301,162,0,0,0,0,0,0,0,0,0,-1,923,862,0,0
-294,162,0,0,0,0,0,0,0,0,0,-1,930,862,0,0
-287,162,0,0,0,0,0,0,0,0,0,-1,937,862,0,0
-280,162,0,0,0,0,0,0,0,0,0,-1,944,862,0,0
-273,162,0,0,0,0,0,0,0,0,0,-1,951,862,0,0
-266,162,0,0,0,0,0,0,0,0,0,-1,958,862,0,0
-259,162,0,0,0,0,0,0,0,0,0,-1,965,862,0,0
-252,162,0,0,0,0,0,0,0,0,0,-1,972,862,0,0
-245,162,0,0,0,0,0,0,0,0,0,-1,979,862,0,0
-238,162,0,0,0,0,0,0,0,0,0,-1,986,862,0,0
-231,162,0,0,0,0,0,0,0,0,0,-1,993,862,0,0
-224,162,0,0,0,0,0,0,0,0,0,-1,1000,862,0,0
-217,162,0,0,0,0,0,0,0,0,0,-1,1007,862,0,0
-210,162,0,0,0,0,0,0,0,0,0,-1,1014,862,0,0
-203,162,0,0,0,0,0,0,0,0,0,-1,1021,862,0,0
-196,162,0,0,0,0,0,0,0,0,0,-1,1028,862,0,0
-189,162,0,0,0,0,0,0,0,0,0,-1,1035,862,0,0
-182,162,0,0,0,0,0,0,0,0,0,-1,1042,862,0,0
-175,162,0,0,0,0,0,0,0,0,0,-1,1049,862,0,0
-168,162,0,0,0,0,0,0,0,0,0,-1,1056,862,0,0
-161,162,0,0,0,0,0,0,0,0,0,-1,1063,862,0,0
-154,162,0,0,0,0,0,0,0,0,0,-1,1070,862,0,0
-147,162,0,0,0,0,0,0,0,0,0,-1,1077,862,0,0
-140,162,0,0,0,0,0,0,0,0,0,-1,1084,862,0,0
-133,162,0,0,0,0,0,0,0,0,0,-1,1091,862,0,0
-126,162,0,0,0,0,0,0,0,0,0,-1,1098,862,0,0
-119,162,0,0,0,0,0,0,0,0,0,-1,1105,862,0,0
-112,162,0,0,0,0,0,0,0,0,0,-1,1112,862,0,0
-105,162,0,0,0,0,0,0,0,0,0,-1,1119,862,0,0
-98,162,0,0,0,0,0,0,0,0,0,-1,1126,862,0,0
-91,162,0,0,0,0,0,0,0,0,0,-1,1133,862,0,0
-84,162,0,0,0,0,0,0,0,0,0,-1,1140,862,0,0
-77,162,0,0,0,0,0,0,0,0,0,-1,1147,862,0,0
-70,162,0,0,0,0,0,0,0,0,0,-1,1154,862,0,0
-63,162,0,0,0,0,0,0,0,0,0,-1,1161,862,0,0
-56,162,0,0,0,0,0,0,0,0,0,-1,1168,862,0,0
-49,162,0,0,0,0,0,0,0,0,0,-1,1175,862,0,0
-42,162,0,0,0,0,0,0,0,0,0,-1,1182,862,0,0
-35,162,0,0,0,0,0,0,0,0,0,-1,1189,862,0,0
-28,162,0,0,0,0,0,0,0,0,0,-1,1196,862,0,0
-21,162,0,0,0,0,0,0,0,0,0,-1,1203,862,0,0
-14,162,0,0,0,0,0,0,0,0,0,-1,1210,862,0,0
-7,162,0,0,0,0,0,0,0,0,0,-1,1217,862,0,0
0,162,0,0,0,0,0,0,0,0,0,-1,1224,862,0,0
7,162,0,0,0,0,0,0,0,0,0,-1,1231,862,0,0
14,162,0,0,0,0,0,0,0,0,0,-1,1238,862,0,0
21,162,0,0,0,0,0,0,0,0,0,-1,1245,862,0,0
28,162,0,0,0,0,0,0,0,0,0,-1,1252,862,0,0
35,162,0,0,0,0,0,0,0,0,0,-1,1259,862,0,0
42,162,0,0,0,0,0,0,0,0,0,-1,1266,862,0,0
49,162,0,0,0,0,0,0,0,0,0,-1,1273,862,0,0
56,162,0,0,0,0,0,0,0,0,0,-1,1280,862,0,0
63,162,0,0,0,0,0,0,0,0,0,-1,1287,862,0,0
70,162,0,0,0,0,0,0,0,0,0,-1,1294,862,0,0
77,162,0,0,0,0,0,0,0,0,0,-1,1301,862,0,0
84,162,0,0,0,0,0,0,0,0,0,-1,1308,862,0,0
91,162,0,0,0,0,0,0,0,0,0,-1,1315,862,0,0
98,162,0,0,0,0,0,0,0,0,0,-1,1322,862,0,0
105,162,0,0,0,0,0,0,0,0,0,-1,1329,862,0,0
112,162,0,0,0,0,0,0,0,0,0,-1,1336,862,0,0
119,162,0,0,0,0,0,0,0,0,0,-1,1343,862,0,0
126,162,0,0,0,0,0,0,0,0,0,-1,1350,862,0,0
133,162,0,0,0,0,0,0,0,0,0,-1,1357,862,0,0
140,162,0,0,0,0,0,0,0,0,0,-1,1364,862,0,0
147,162,0,0,0,0,0,0,0,0,0,-1,1371,862,0,0
154,162,0,0,0,0,0,0,0,0,0,-1,1378,862,0,0
161,162,0,0,0,0,0,0,0,0,0,-1,1385,862,0,0
168,162,0,0,0,0,0,0,0,0,0,-1,1392,862,0,0
175,162,0,0,0,0,0,0,0,0,0,-1,1399,862,0,0
182,162,0,0,0,0,0,0,0,0,0,-1,1406,862,0,0
189,162,0,0,0,0,0,0,0,0,0,-1,1413,862,0,0
196,162,0,0,0,0,0,0,0,0,0,-1,1420,862,0,0
203,162,0,0,0,0,0,0,0,0,0,-1,1427,862,0,0
210,162,0,0,0,0,0,0,0,0,0,-1,1434,862,0,0
217,162,0,0,0,0,0,0,0,0,0,-1,1441,862,0,0
224,162,0,0,0,0,0,0,0,0,0,-1,1448,862,0,0
231,162,0,0,0,0,0,0,0,0,0,-1,1455,862,0,0
238,162,0,0,0,0,0,0,0,0,0,-1,1462,862,0,0
245,162,0,0,0,0,0,0,0,0,0,-1,1469,862,0,0
252,162,0,0,0,0,0,0,0,0,0,-1,1476,862,0,0
259,162,0,0,0,0,0,0,0,0,0,-1,1483,862,0,0
266,162,0,0,0,0,0,0,0,0,0,-1,1490,862,0,0
273,162,0,0,0,0,0,0,0,0,0,-1,1497,862,0,0
280,162,0,0,0,0,0,0,0,0,0,-1,1504,862,0,0
287,162,0,0,0,0,0,0,0,0,0,-1,1511,862,0,0
294,162,0,0,0,0,0,0,0,0,0,-1,1518,862,0,0
301,162,0,0,0,0,0,0,0,0,0,-1,1525,862,0,0
308,162,0,0,0,0,0,0,0,0,0,-1,1532,862,0,0
315,162,0,0,0,0,0,0,0,0,0,-1,1539,862,0,0
322,162,0,0,0,0,0,0,0,0,0,-1,1546,862,0,0
329,162,0,0,0,0,0,0,0,0,0,-1,1553,862,0,0
336,162,0,0,0,0,0,0,0,0,0,-1,1560,862,0,0
343,162,0,0,0,0,0,0,0,0,0,-1,1567,862,0,0
350,162,0,0,0,0,0,0,0,0,0,-1,1574,862,0,0
357,162,0,0,0,0,0,0,0,0,0,-1,1581,862,0,0
364,162,0,0,0,0,0,0,0,0,0,-1,1588,862,0,0
371,162,0,0,0,0,0,0,0,0,0,-1,1595,862,0,0
378,162,0,0,0,0,0,0,0,0,0,-1,1602,862,0,0
385,162,0,0,0,0,0,0,0,0,0,-1,1609,862,0,0
392,162,0,0,0,0,0,0,0,0,0,-1,1616,862,0,0
399,162,0,0,0,0,0,0,0,0,0,-1,1623,862,0,0
406,162,0,0,0,0,0,0,0,0,0,-1,1630,862,0,0
413,162,0,0,0,0,0,0,0,0,0,-1,1637,862,0,0
420,162,0,0,0,0,0,0,0,0,0,-1,1644,862,0,0
427,162,0,0,0,0,0,0,0,0,0,-1,1651,862,0,0
434,162,0,0,0,0,0,0,0,0,0,-1,1658,862,0,0
441,162,0,0,0,0,0,0,0,0,0,-1,1665,862,0,0
448,162,0,0,0,0,0,0,0,0,0,-1,1672,862,0,0
455,162,0,0,0,0,0,0,0,0,0,-1,1679,862,0,0
462,162,0,0,0,0,0,0,0,0,0,-1,1686,862,0,0
469,162,0,0,0,0,0,0,0,0,0,-1,1693,862,0,0
476,162,0,0,0,0,0,0,0,0,0,-1,1700,862,0,0
483,162,0,0,0,0,0,0,0,0,0,-1,1707,862,0,0
490,162,0,0,0,0,0,0,0,0,0,-1,1714,862,0,0
497,162,0,0,0,0,0,0,0,0,0,-1,1721,862,0,0
504,162,0,0,0,0,0,0,0,0,0,-1,1728,862,0,0
511,162,0,0,0,0,0,0,0,0,0,-1,1735,862,0,0
518,162,0,0,0,0,0,0,0,0,0,-1,1742,862,0,0
525,162,0,0,0,0,0,0,0,0,0,-1,1749,862,0,0
532,162,0,0,0,0,0,0,0,0,0,-1,1756,862,0,0
539,162,0,0,0,0,0,0,0,0,0,-1,1763,862,0,0
546,162,0,0,0,0,0,0,0,0,0,-1,1770,862,0,0
553,162,0,0,0,0,0,0,0,0,0,-1,1777,862,0,0
560,162,0,0,0,0,0,0,0,0,0,-1,1784,862,0,0
567,162,0,0,0,0,0,0,0,0,0,-1,1791,862,0,0
574,162,0,0,0,0,0,0,0,0,0,-1,1798,862,0,0
581,162,0,0,0,0,0,0,0,0,0,-1,1805,862,0,0
588,162,0,0,0,0,0,0,0,0,0,-1,1812,862,0,0
595,162,0,0,0,0,0,0,0,0,0,-1,1819,862,0,0
602,162,0,0,0,0,0,0,0,0,0,-1,1826,862,0,0
609,162,0,0,0,0,0,0,0,0,0,-1,1833,862,0,0
616,162,33.5114,3.27661,0.00868666,-0.00339743,-0.00607929,0.0112157,-0.00592651,-0.394236,0.0100529,0.0432961,1840,862,33.5113,-3.27661
623,162,33.6779,3.10089,0.00687667,-0.00258192,-0.00446323,0.00865019,-0.00435545,-0.378231,0.00764406,0.0448885,1847,862,33.6779,-3.10089
630,162,33.858,2.88153,0.00487945,-0.00181148,-0.00313874,0.00612134,-0.00305336,-0.376764,0.00539483,0.0418089,1854,862,33.858,-2.88155
637,162,33.8223,2.84863,0.00290961,-0.00153405,-0.00229821,0.00388438,-0.00250883,-0.401147,0.00371949,0.0397616,1861,862,33.8223,-2.84865
644,162,33.808,2.81476,0.00136457,-0.00151444,-0.00181343,0.00224038,-0.00239025,-0.449924,0.00267397,0.0368411,1868,862,33.808,-2.81473
651,162,33.7987,2.87286,0.000374545,-0.00155705,-0.00152801,0.00121639,-0.00239889,-0.503567,0.00212418,0.0312912,1875,862,33.7987,-2.87289
658,162,33.8081,2.84698,-0.000142688,-0.0016691,-0.00141522,0.000702006,-0.00251379,-0.538109,0.0019524,0.031757,1882,862,33.8081,-2.84701
665,162,33.7815,2.84735,-0.000515159,-0.00158532,-0.00128786,0.000344356,-0.00244484,-0.588508,0.00175597,0.041154,1889,862,33.7815,-2.84735
672,162,33.6456,3.00891,0,0,0,0,0,0,0,-1,1896,862,33.6456,-3.00893
679,162,26.5077,2.54785,0,0,0,0,0,0,0,-1,1903,862,26.5077,-2.54787
686,162,28.1023,2.19897,0,0,0,0,0,0,0,-1,1910,862,28.1023,-2.19896
693,162,28.097,2.69135,-0.00110317,-0.00126386,-0.000953331,-0.000226803,-0.00214022,-0.743358,0.00135755,0.0198516,1917,862,28.097,-2.69136
700,162,28.1456,3.01862,-0.000828027,-0.00105897,-0.000892691,-4.33718e-05,-0.00184363,-0.721078,0.00121489,0.0181943,1924,862,28.1456,-3.01859
707,162,28.1228,3.29327,-0.000478123,-0.000710826,-0.000716342,0.000131255,-0.0013202,-0.704889,0.00092699,0.0136591,1931,862,28.1228,-3.29329
714,162,28.067,3.60907,-0.000142126,-0.000286514,-0.000660225,0.000449841,-0.00087848,-0.730941,0.000780103,0.0170893,1938,862,28.0671,-3.6091
721,162,27.9822,4.02283,0.000360734,0.000123787,-0.000476627,0.000733391,-0.000248871,-0.663584,0.000589659,0.0278696,1945,862,27.9821,-4.02285
728,162,27.9718,4.33765,0.000738882,0.000555892,-0.000211366,0.000877707,0.000417068,-0.581137,0.000506952,0.0235074,1952,862,27.9718,-4.33767
735,162,28.0282,4.63306,0.0013203,0.00110191,0.000138638,0.00138758,0.00103463,0.451826,0.000832722,0.0119685,1959,862,28.0282,-4.63304
742,162,28.0067,4.97827,0.00212604,0.00163589,0.0005861,0.00251624,0.00124569,0.587375,0.00145277,0.0132099,1966,862,28.0067,-4.97825
749,162,27.9661,5.28998,0.00336581,0.00221627,0.00118214,0.00410551,0.00147657,0.559121,0.00240124,0.0179811,1973,862,27.9661,-5.28996
756,162,28.1743,5.47577,0.00525393,0.00295051,0.00203887,0.00644389,0.00176055,0.528303,0.00384584,0.0399775,1980,862,28.1744,-5.47578
763,162,28.3385,5.72736,0,0,0,0,0,0,0,-1,1987,862,28.3385,-5.72737
770,162,27.1464,7.09766,0,0,0,0,0,0,0,-1,1994,862,27.1464,-7.09763
777,162,29.101,6.25061,0,0,0,0,0,0,0,-1,2001,862,29.101,-6.2506
784,162,27.6295,6.46851,0,0,0,0,0,0,0,-1,2008,862,27.6295,-6.46848
791,162,0,0,0,0,0,0,0,0,0,-1,2015,862,0,0
798,162,0,0,0,0,0,0,0,0,0,-1,2022,862,0,0
805,162,0,0,0,0,0,0,0,0,0,-1,2029,862,0,0
812,162,0,0,0,0,0,0,0,0,0,-1,2036,862,0,0
-700,155,0,0,0,0,0,0,0,0,0,-1,524,869,0,0
-693,155,0,0,0,0,0,0,0,0,0,-1,531,869,0,0
-686,155,0,0,0,0,0,0,0,0,0,-1,538,869,0,0
-679,155,0,0,0,0,0,0,0,0,0,-1,545,869,0,0
-672,155,0,0,0,0,0,0,0,0,0,-1,552,869,0,0
-665,155,-21.5442,1.35376,-0.0172041,0.00487043,0.0606605,0.0554896,-0.0678233,0.875389,0.0713133,0.0471437,559,869,-21.5442,-1.35373
-658,155,-22.2225,1.9704,-0.00752516,0.00592692,0.0497681,0.0494214,-0.0510197,0.852565,0.0579921,0.047777,566,869,-22.2225,-1.97037
-651,155,-21.0417,2.75256,-0.00210378,0.0062944,0.0402699,0.0425835,-0.0383929,0.837347,0.0467726,0.0466187,573,869,-21.0417,-2.75258
-644,155,-20.2925,2.93066,0,0,0,0,0,0,0,-1,580,869,-20.2926,-2.93065
-637,155,-19.5046,3.85779,0,0,0,0,0,0,0,-1,587,869,-19.5047,-3.85776
-630,155,-19.6201,3.47687,0.00230562,0.00504519,0.018872,0.0225971,-0.0152463,0.821626,0.0219859,0.0476417,594,869,-19.62,-3.47686
-623,155,-19.7238,2.99628,0.00191429,0.00427794,0.0138766,0.017023,-0.0108307,0.827879,0.0162133,0.0264439,601,869,-19.7237,-2.99628
-616,155,-19.7675,2.65228,0.00107439,0.00321201,0.00985673,0.0120577,-0.0077713,0.839404,0.0115371,0.0142275,608,869,-19.7675,-2.65227
-609,155,-19.8047,2.3158,0.00118707,0.00238701,0.00624264,0.00805845,-0.00448437,0.833305,0.00733894,0.0140389,615,869,-19.8047,-2.31581
-602,155,-19.8239,2.01477,0.000683201,0.00161645,0.00329077,0.00447352,-0.00217387,0.855828,0.00391367,0.012321,622,869,-19.8238,-2.01476
-595,155,-19.8344,1.71094,-0.00054376,0.000784453,0.00137149,0.00164417,-0.00140348,1.01087,0.00176139,0.0110508,629,869,-19.8344,-1.71091
-588,155,-19.8369,1.39606,-0.00118047,0.000117502,0.00101604,0.000674135,-0.0017371,1.06961,0.00143651,0.0123008,636,869,-19.8369,-1.39603
-581,155,-19.9716,1.14728,-0.00112658,-1.18657e-05,0.000434638,0.000137571,-0.00127601,1.23964,0.000900045,0.0200891,643,869,-19.9716,-1.1473
-574,155,-20.0593,0.895447,-0.00105859,-0.000155651,-0.000157849,-0.000128851,-0.00108539,-1.40262,0.000684696,0.0271685,650,869,-20.0593,-0.89544
-567,155,-19.9833,0.438354,-0.000900961,-2.5388e-05,-0.000533476,0.000226937,-0.00115329,-1.129,0.000854606,0.0300118,657,869,-19.9834,-0.438348
-560,155,-19.8882,-0.00268555,-0.000658366,5.66355e-05,-0.000872555,0.000642087,-0.00124382,-0.979826,0.00110715,0.0251116,664,869,-19.8882,0.00266592
-553,155,-19.7697,-0.585754,0,0,0,0,0,0,0,-1,671,869,-19.7697,0.585724
-546,155,-22.7988,0.873657,0,0,0,0,0,0,0,-1,678,869,-22.7988,-0.873645
-539,155,-24.28,0.859375,0,0,0,0,0,0,0,-1,685,869,-24.2801,-0.859382
-532,155,-24.2855,0.878296,-6.93925e-05,-0.000333597,-0.00124831,0.00105378,-0.00145677,-0.732682,0.00145568,0.0369364,692,869,-24.2855,-0.878273
-525,155,-24.238,0.98877,3.66546e-05,-0.000716308,-0.00112742,0.000848794,-0.00152845,-0.624254,0.00139107,0.0377031,699,869,-24.2379,-0.98878
-518,155,-24.296,0.973633,0.000431275,-0.00151537,-0.000771549,0.000699985,-0.00178408,-0.335136,0.001479,0.0412347,706,869,-24.296,-0.973618
-511,155,-24.33,0.882385,0.00163306,-0.00324002,-0.000123585,0.00163619,-0.00324315,-0.0253391,0.00286756,0.0435384,713,869,-24.33,-0.882398
-504,155,-24.3163,0.833008,0.00396179,-0.0061981,0.000628609,0.00400054,-0.00623684,0.0615587,0.00595738,0.0439268,720,869,-24.3163,-0.832997
-497,155,0,0,0,0,0,0,0,0,0,-1,727,869,0,0
-490,155,0,0,0,0,0,0,0,0,0,-1,734,869,0,0
-483,155,0,0,0,0,0,0,0,0,0,-1,741,869,0,0
-476,155,0,0,0,0,0,0,0,0,0,-1,748,869,0,0
-469,155,0,0,0,0,0,0,0,0,0,-1,755,869,0,0
-462,155,0,0,0,0,0,0,0,0,0,-1,762,869,0,0
-455,155,0,0,0,0,0,0,0,0,0,-1,769,869,0,0
-448,155,0,0,0,0,0,0,0,0,0,-1,776,869,0,0
-441,155,0,0,0,0,0,0,0,0,0,-1,783,869,0,0
-434,155,0,0,0,0,0,0,0,0,0,-1,790,869,0,0
-427,155,0,0,0,0,0,0,0,0,0,-1,797,869,0,0
-420,155,0,0,0,0,0,0,0,0,0,-1,804,869,0,0
-413,155,0,0,0,0,0,0,0,0,0,-1,811,869,0,0
-406,155,0,0,0,0,0,0,0,0,0,-1,818,869,0,0
-399,155,0,0,0,0,0,0,0,0,0,-1,825,869,0,0
-392,155,0,0,0,0,0,0,0,0,0,-1,832,869,0,0
-385,155,0,0,0,0,0,0,0,0,0,-1,839,869,0,0
-378,155,0,0,0,0,0,0,0,0,0,-1,846,869,0,0
-371,155,0,0,0,0,0,0,0,0,0,-1,853,869,0,0
-364,155,0,0,0,0,0,0,0,0,0,-1,860,869,0,0
-357,155,0,0,0,0,0,0,0,0,0,-1,867,869,0,0
-350,155,0,0,0,0,0,0,0,0,0,-1,874,869,0,0
-343,155,0,0,0,0,0,0,0,0,0,-1,881,869,0,0
-336,155,0,0,0,0,0,0,0,0,0,-1,888,869,0,0
-329,155,0,0,0,0,0,0,0,0,0,-1,895,869,0,0
-322,155,0,0,0,0,0,0,0,0,0,-1,902,869,0,0
-315,155,0,0,0,0,0,0,0,0,0,-1,909,869,0,0
-308,155,0,0,0,0,0,0,0,0,0,-1,916,869,0,0
-301,155,0,0,0,0,0,0,0,0,0,-1,923,869,0,0
-294,155,0,0,0,0,0,0,0,0,0,-1,930,869,0,0
-287,155,0,0,0,0,0,0,0,0,0,-1,937,869,0,0
-280,155,0,0,0,0,0,0,0,0,0,-1,944,869,0,0
-273,155,0,0,0,0,0,0,0,0,0,-1,951,869,0,0
-266,155,0,0,0,0,0,0,0,0,0,-1,958,869,0,0
-259,155,0,0,0,0,0,0,0,0,0,-1,965,869,0,0
-252,155,0,0,0,0,0,0,0,0,0,-1,972,869,0,0
-245,155,0,0,0,0,0,0,0,0,0,-1,979,869,0,0
-238,155,0,0,0,0,0,0,0,0,0,-1,986,869,0,0
-231,155,0,0,0,0,0,0,0,0,0,-1,993,869,0,0
-224,155,0,0,0,0,0,0,0,0,0,-1,1000,869,0,0
-217,155,0,0,0,0,0,0,0,0,0,-1,1007,869,0,0
-210,155,0,0,0,0,0,0,0,0,0,-1,1014,869,0,0
-203,155,0,0,0,0,0,0,0,0,0,-1,1021,869,0,0
-196,155,0,0,0,0,0,0,0,0,0,-1,1028,869,0,0
-189,155,0,0,0,0,0,0,0,0,0,-1,1035,869,0,0
-182,155,0,0,0,0,0,0,0,0,0,-1,1042,869,0,0
-175,155,0,0,0,0,0,0,0,0,0,-1,1049,869,0,0
-168,155,0,0,0,0,0,0,0,0,0,-1,1056,869,0,0
-161,155,0,0,0,0,0,0,0,0,0,-1,1063,869,0,0
-154,155,0,0,0,0,0,0,0,0,0,-1,1070,869,0,0
-147,155,0,0,0,0,0,0,0,0,0,-1,1077,869,0,0
-140,155,0,0,0,0,0,0,0,0,0,-1,1084,869,0,0
-133,155,0,0,0,0,0,0,0,0,0,-1,1091,869,0,0
-126,155,0,0,0,0,0,0,0,0,0,-1,1098,869,0,0
-119,155,0,0,0,0,0,0,0,0,0,-1,1105,869,0,0
-112,155,0,0,0,0,0,0,0,0,0,-1,1112,869,0,0
-105,155,0,0,0,0,0,0,0,0,0,-1,1119,869,0,0
-98,155,0,0,0,0,0,0,0,0,0,-1,1126,869,0,0
-91,155,0,0,0,0,0,0,0,0,0,-1,1133,869,0,0
-84,155,0,0,0,0,0,0,0,0,0,-1,1140,869,0,0
-77,155,0,0,0,0,0,0,0,0,0,-1,1147,869,0,0
-70,155,0,0,0,0,0,0,0,0,0,-1,1154,869,0,0
-63,155,0,0,0,0,0,0,0,0,0,-1,1161,869,0,0
-56,155,0,0,0,0,0,0,0,0,0,-1,1168,869,0,0
-49,155,0,0,0,0,0,0,0,0,0,-1,1175,869,0,0
-42,155,0,0,0,0,0,0,0,0,0,-1,1182,869,0,0
-35,155,0,0,0,0,0,0,0,0,0,-1,1189,869,0,0
-28,155,0,0,0,0,0,0,0,0,0,-1,1196,869,0,0
-21,155,0,0,0,0,0,0,0,0,0,-1,1203,869,0,0
-14,155,0,0,0,0,0,0,0,0,0,-1,1210,869,0,0
-7,155,0,0,0,0,0,0,0,0,0,-1,1217,869,0,0
0,155,0,0,0,0,0,0,0,0,0,-1,1224,869,0,0
7,155,0,0,0,0,0,0,0,0,0,-1,1231,869,0,0
14,155,0,0,0,0,0,0,0,0,0,-1,1238,869,0,0
21,155,0,0,0,0,0,0,0,0,0,-1,1245,869,0,0
28,155,0,0,0,0,0,0,0,0,0,-1,1252,869,0,0
35,155,0,0,0,0,0,0,0,0,0,-1,1259,869,0,0
42,155,0,0,0,0,0,0,0,0,0,-1,1266,869,0,0
49,155,0,0,0,0,0,0,0,0,0,-1,1273,869,0,0
56,155,0,0,0,0,0,0,0,0,0,-1,1280,869,0,0
63,155,0,0,0,0,0,0,0,0,0,-1,1287,869,0,0
70,155,0,0,0,0,0,0,0,0,0,-1,1294,869,0,0
77,155,0,0,0,0,0,0,0,0,0,-1,1301,869,0,0
84,155,0,0,0,0,0,0,0,0,0,-1,1308,869,0,0
91,155,0,0,0,0,0,0,0,0,0,-1,1315,869,0,0
98,155,0,0,0,0,0,0,0,0,0,-1,1322,869,0,0
105,155,0,0,0,0,0,0,0,0,0,-1,1329,869,0,0
112,155,0,0,0,0,0,0,0,0,0,-1,1336,869,0,0
119,155,0,0,0,0,0,0,0,0,0,-1,1343,869,0,0
126,155,0,0,0,0,0,0,0,0,0,-1,1350,869,0,0
133,155,0,0,0,0,0,0,0,0,0,-1,1357,869,0,0
140,155,0,0,0,0,0,0,0,0,0,-1,1364,869,0,0
147,155,0,0,0,0,0,0,0,0,0,-1,1371,869,0,0
154,155,0,0,0,0,0,0,0,0,0,-1,1378,869,0,0
161,155,0,0,0,0,0,0,0,0,0,-1,1385,869,0,0
168,155,0,0,0,0,0,0,0,0,0,-1,1392,869,0,0
175,155,0,0,0,0,0,0,0,0,0,-1,1399,869,0,0
182,155,0,0,0,0,0,0,0,0,0,-1,1406,869,0,0
189,155,0,0,0,0,0,0,0,0,0,-1,1413,869,0,0
196,155,0,0,0,0,0,0,0,0,0,-1,1420,869,0,0
203,155,0,0,0,0,0,0,0,0,0,-1,1427,869,0,0
210,155,0,0,0,0,0,0,0,0,0,-1,1434,869,0,0
217,155,0,0,0,0,0,0,0,0,0,-1,1441,869,0,0
224,155,0,0,0,0,0,0,0,0,0,-1,1448,869,0,0
231,155,0,0,0,0,0,0,0,0,0,-1,1455,869,0,0
238,155,0,0,0,0,0,0,0,0,0,-1,1462,869,0,0
245,155,0,0,0,0,0,0,0,0,0,-1,1469,869,0,0
252,155,0,0,0,0,0,0,0,0,0,-1,1476,869,0,0
259,155,0,0,0,0,0,0,0,0,0,-1,1483,869,0,0
266,155,0,0,0,0,0,0,0,0,0,-1,1490,869,0,0
273,155,0,0,0,0,0,0,0,0,0,-1,1497,869,0,0
280,155,0,0,0,0,0,0,0,0,0,-1,1504,869,0,0
287,155,0,0,0,0,0,0,0,0,0,-1,1511,869,0,0
294,155,0,0,0,0,0,0,0,0,0,-1,1518,869,0,0
301,155,0,0,0,0,0,0,0,0,0,-1,1525,869,0,0
308,155,0,0,0,0,0,0,0,0,0,-1,1532,869,0,0
315,155,0,0,0,0,0,0,0,0,0,-1,1539,869,0,0
322,155,0,0,0,0,0,0,0,0,0,-1,1546,869,0,0
329,155,0,0,0,0,0,0,0,0,0,-1,1553,869,0,0
336,155,0,0,0,0,0,0,0,0,0,-1,1560,869,0,0
343,155,0,0,0,0,0,0,0,0,0,-1,1567,869,0,0
350,155,0,0,0,0,0,0,0,0,0,-1,1574,869,0,0
357,155,0,0,0,0,0,0,0,0,0,-1,1581,869,0,0
364,155,0,0,0,0,0,0,0,0,0,-1,1588,869,0,0
371,155,0,0,0,0,0,0,0,0,0,-1,1595,869,0,0
378,155,0,0,0,0,0,0,0,0,0,-1,1602,869,0,0
385,155,0,0,0,0,0,0,0,0,0,-1,1609,869,0,0
392,155,0,0,0,0,0,0,0,0,0,-1,1616,869,0,0
399,155,0,0,0,0,0,0,0,0,0,-1,1623,869,0,0
406,155,0,0,0,0,0,0,0,0,0,-1,1630,869,0,0
413,155,0,0,0,0,0,0,0,0,0,-1,1637,869,0,0
420,155,0,0,0,0,0,0,0,0,0,-1,1644,869,0,0
427,155,0,0,0,0,0,0,0,0,0,-1,1651,869,0,0
434,155,0,0,0,0,0,0,0,0,0,-1,1658,869,0,0
441,155,0,0,0,0,0,0,0,0,0,-1,1665,869,0,0
448,155,0,0,0,0,0,0,0,0,0,-1,1672,869,0,0
455,155,0,0,0,0,0,0,0,0,0,-1,1679,869,0,0
462,155,0,0,0,0,0,0,0,0,0,-1,1686,869,0,0
469,155,0,0,0,0,0,0,0,0,0,-1,1693,869,0,0
476,155,0,0,0,0,0,0,0,0,0,-1,1700,869,0,0
483,155,0,0,0,0,0,0,0,0,0,-1,1707,869,0,0
490,155,0,0,0,0,0,0,0,0,0,-1,1714,869,0,0
497,155,0,0,0,0,0,0,0,0,0,-1,1721,869,0,0
504,155,0,0,0,0,0,0,0,0,0,-1,1728,869,0,0
511,155,0,0,0,0,0,0,0,0,0,-1,1735,869,0,0
518,155,0,0,0,0,0,0,0,0,0,-1,1742,869,0,0
525,155,0,0,0,0,0,0,0,0,0,-1,1749,869,0,0
532,155,0,0,0,0,0,0,0,0,0,-1,1756,869,0,0
539,155,0,0,0,0,0,0,0,0,0,-1,1763,869,0,0
546,155,0,0,0,0,0,0,0,0,0,-1,1770,869,0,0
553,155,0,0,0,0,0,0,0,0,0,-1,1777,869,0,0
560,155,0,0,0,0,0,0,0,0,0,-1,1784,869,0,0
567,155,0,0,0,0,0,0,0,0,0,-1,1791,869,0,0
574,155,0,0,0,0,0,0,0,0,0,-1,1798,869,0,0
581,155,0,0,0,0,0,0,0,0,0,-1,1805,869,0,0
588,155,0,0,0,0,0,0,0,0,0,-1,1812,869,0,0
595,155,0,0,0,0,0,0,0,0,0,-1,1819,869,0,0
602,155,0,0,0,0,0,0,0,0,0,-1,1826,869,0,0
609,155,0,0,0,0,0,0,0,0,0,-1,1833,869,0,0
616,155,33.8514,3.25586,0.0101677,-0.0024014,-0.00640924,0.0128594,-0.00509316,-0.397611,0.0106833,0.0459457,1840,869,33.8514,-3.25585
623,155,33.7338,3.01807,0.00802172,-0.00189089,-0.00471278,0.00990466,-0.00377383,-0.380109,0.00815741,0.0442326,1847,869,33.7337,-3.01809
630,155,33.6536,2.93884,0.00579879,-0.00132669,-0.00332771,0.00711117,-0.00263906,-0.375651,0.00582333,0.0443923,1854,869,33.6535,-2.93882
637,155,33.7052,2.79968,0.00364754,-0.00116899,-0.00239516,0.00463583,-0.00215728,-0.391335,0.00400807,0.0410117,1861,869,33.7052,-2.79968
644,155,33.7631,2.78815,0.00191129,-0.00120382,-0.00182615,0.0027539,-0.00204643,-0.432305,0.00278149,0.0364515,1868,869,33.763,-2.78813
651,155,33.845,2.84845,0.000769863,-0.00126299,-0.00147358,0.00154357,-0.00203669,-0.483486,0.00207359,0.0322825,1875,869,33.8449,-2.84846
658,155,33.821,2.82806,0.000174822,-0.0013641,-0.00130525,0.000920537,-0.00210982,-0.519062,0.00179392,0.0273691,1882,869,33.8211,-2.82806
665,155,33.7496,2.85211,-0.000200415,-0.00129397,-0.0011521,0.000528073,-0.00202246,-0.56384,0.00155452,0.0320942,1889,869,33.7496,-2.85213
672,155,33.712,2.94543,-0.00047062,-0.00117707,-0.000938138,0.000178585,-0.00182628,-0.605347,0.0012812,0.0466154,1896,869,33.7121,-2.94541
679,155,33.6697,2.96954,0,0,0,0,0,0,0,-1,1903,869,33.6697,-2.96952
686,155,28.2587,2.41248,0,0,0,0,0,0,0,-1,1910,869,28.2586,-2.41247
693,155,28.3634,2.698,-0.000691245,-0.000995484,-0.000824377,-5.07035e-06,-0.00168166,-0.694161,0.00111942,0.029103,1917,869,28.3634,-2.69799
700,155,28.485,3.06268,-0.000402769,-0.000769397,-0.000775825,0.000211105,-0.00138327,-0.669385,0.001,0.0216649,1924,869,28.485,-3.06266
707,155,28.5599,3.41125,-7.06083e-05,-0.000461664,-0.000656442,0.000418807,-0.000951079,-0.640652,0.000810561,0.0159705,1931,869,28.5599,-3.41126
714,155,28.5187,3.65723,0.000241992,-2.67995e-05,-0.000658162,0.00077934,-0.000564147,-0.684683,0.000778972,0.0288346,1938,869,28.5186,-3.65725
721,155,28.3651,3.98517,0.000735334,0.000433941,-0.000520691,0.0011267,4.25778e-05,-0.644539,0.000737349,0.0256963,1945,869,28.3652,-3.98518
728,155,28.353,4.3266,0.00110896,0.000950081,-0.00031208,0.00135155,0.00070749,-0.660767,0.000780607,0.0200697,1952,869,28.353,-4.32662
735,155,28.3737,4.64221,0.00173312,0.00160212,-3.33291e-06,0.0017332,0.00160204,-0.0254215,0.00111432,0.0171211,1959,869,28.3736,-4.64221
742,155,28.3922,4.98499,0.00259151,0.00225428,0.000432865,0.00288744,0.00195835,0.599677,0.001702,0.0185948,1966,869,28.3923,-4.98496
749,155,28.3271,5.29315,0.00396022,0.00294573,0.00102493,0.00459656,0.00230939,0.555617,0.00265383,0.0152021,1973,869,28.3271,-5.29313
756,155,28.3331,5.60126,0.00594573,0.00371341,0.00194373,0.00707098,0.00258817,0.524767,0.00413099,0.0246911,1980,869,28.3331,-5.60124
763,155,28.3661,5.93719,0.00887867,0.00439269,0.00333498,0.0106548,0.00261659,0.489361,0.0064115,0.0445761,1987,869,28.3661,-5.93722
770,155,28.4401,6.26917,0,0,0,0,0,0,0,-1,1994,869,28.4401,-6.26915
777,155,29.1022,6.0423,0,0,0,0,0,0,0,-1,2001,869,29.1022,-6.04231
784,155,29.5298,6.46472,0,0,0,0,0,0,0,-1,2008,869,29.5298,-6.46471
791,155,0,0,0,0,0,0,0,0,0,-1,2015,869,0,0
798,155,0,0,0,0,0,0,0,0,0,-1,2022,869,0,0
805,155,0,0,0,0,0,0,0,0,0,-1,2029,869,0,0
812,155,0,0,0,0,0,0,0,0,0,-1,2036,869,0,0
-700,148,0,0,0,0,0,0,0,0,0,-1,524,876,0,0
-693,148,0,0,0,0,0,0,0,0,0,-1,531,876,0,0
-686,148,0,0,0,0,0,0,0,0,0,-1,538,876,0,0
-679,148,0,0,0,0,0,0,0,0,0,-1,545,876,0,0
-672,148,-21.2548,1.38818,0,0,0,0,0,0,0,-1,552,876,-21.2548,-1.3882
-665,148,-21.6377,1.68481,-0.0187687,-0.0112582,0.0550416,0.0401561,-0.070183,0.819458,0.0644858,0.0471668,559,876,-21.6377,-1.68481
-658,148,-22.3547,2.2973,-0.0102439,-0.00731139,0.0454434,0.0366894,-0.0542447,0.801525,0.0528259,0.0483446,566,876,-22.3547,-2.29732
-651,148,-23.0667,2.90747,-0.0049477,-0.0043986,0.0369733,0.0323012,-0.0416475,0.789111,0.0428078,0.0456454,573,876,-23.0666,-2.90745
-644,148,-20.5898,2.25836,0,0,0,0,0,0,0,-1,580,876,-20.5899,-2.25835
-637,148,-19.756,3.68292,0,0,0,0,0,0,0,-1,587,876,-19.7561,-3.68294
-630,148,-19.8894,3.40991,0.00070332,0.000154369,0.0176344,0.0180653,-0.0172076,0.777616,0.0203669,0.0484371,594,876,-19.8894,-3.40991
-623,148,-19.9651,3.0155,0.000813495,0.000864457,0.0130363,0.0138753,-0.0121973,0.786375,0.0150634,0.0238492,601,876,-19.9651,-3.01551
-616,148,-20.0642,2.64752,0.00038756,0.000947559,0.00930223,0.009974,-0.00863888,0.800444,0.0107554,0.0131696,608,876,-20.0642,-2.6475
-609,148,-20.1257,2.3266,0.000803901,0.00101205,0.00591545,0.00682434,-0.0050084,0.794194,0.0068584,0.0124715,615,876,-20.1257,-2.32658
-602,148,-20.1627,2.02673,0.000517913,0.000946297,0.0032437,0.00398287,-0.00251866,0.818367,0.00378526,0.012911,622,876,-20.1627,-2.02674
-595,148,-20.1716,1.72144,-0.000451167,0.000462579,0.0014381,0.00151463,-0.00150322,0.939202,0.00174236,0.0108628,629,876,-20.1716,-1.72141
-588,148,-20.181,1.362,-0.000919368,6.99027e-06,0.000993447,0.000639928,-0.00155231,1.00353,0.00130171,0.0162581,636,876,-20.1811,-1.36201
-581,148,-20.2636,1.10449,-0.000974307,-7.70081e-05,0.000352441,4.48693e-05,-0.00109618,1.23786,0.000746196,0.0274363,643,876,-20.2636,-1.1045
-574,148,-20.0733,0.88446,-0.00103335,-0.00026757,-0.000275978,-0.000178475,-0.00112244,-1.25853,0.000696466,0.0325817,650,876,-20.0733,-0.884483
-567,148,-20.2041,0.559753,-0.00090511,-0.000170863,-0.000661168,0.000218269,-0.00129424,-1.03884,0.000944033,0.0429959,657,876,-20.2041,-0.559741
-560,148,-20.2416,-0.026062,0,0,0,0,0,0,0,-1,664,876,-20.2416,0.0260826
-553,148,-18.3896,-0.00280762,0,0,0,0,0,0,0,-1,671,876,-18.3897,0.00278524
-546,148,-24.1872,1.00677,0,0,0,0,0,0,0,-1,678,876,-24.1872,-1.00677
-539,148,-24.2519,0.9245,-0.00029514,-0.00057193,-0.00163872,0.00121102,-0.00207809,-0.743272,0.00192084,0.0364557,685,876,-24.2519,-0.924523
-532,148,-24.2833,0.890991,-0.0001744,-0.000833232,-0.00171745,0.00124494,-0.00225257,-0.690646,0.00204703,0.0341326,692,876,-24.2833,-0.890981
-525,148,-24.223,1.00165,-7.90059e-05,-0.00140585,-0.00162631,0.00101399,-0.00249885,-0.591736,0.00208766,0.0347482,699,876,-24.223,-1.00162
-518,148,-24.2327,1.276,0.000423187,-0.00253154,-0.00123924,0.000874116,-0.00298247,-0.348983,0.00233488,0.0417665,706,876,-24.2328,-1.27598
-511,148,-24.2704,1.3443,0.00182314,-0.00481336,-0.000490774,0.00185924,-0.00484946,-0.0734185,0.00399946,0.0415489,713,876,-24.2705,-1.3443
-504,148,-24.116,1.21289,0.00451653,-0.00819861,0.000453754,0.0045327,-0.00821479,0.0356257,0.00746141,0.0436326,720,876,-24.116,-1.21287
-497,148,0,0,0,0,0,0,0,0,0,-1,727,876,0,0
-490,148,0,0,0,0,0,0,0,0,0,-1,734,876,0,0
-483,148,0,0,0,0,0,0,0,0,0,-1,741,876,0,0
-476,148,0,0,0,0,0,0,0,0,0,-1,748,876,0,0
-469,148,0,0,0,0,0,0,0,0,0,-1,755,876,0,0
-462,148,0,0,0,0,0,0,0,0,0,-1,762,876,0,0
-455,148,0,0,0,0,0,0,0,0,0,-1,769,876,0,0
-448,148,0,0,0,0,0,0,0,0,0,-1,776,876,0,0
-441,148,0,0,0,0,0,0,0,0,0,-1,783,876,0,0
-434,148,0,0,0,0,0,0,0,0,0,-1,790,876,0,0
-427,148,0,0,0,0,0,0,0,0,0,-1,797,876,0,0
-420,148,0,0,0,0,0,0,0,0,0,-1,804,876,0,0
-413,148,0,0,0,0,0,0,0,0,0,-1,811,876,0,0
-406,148,0,0,0,0,0,0,0,0,0,-1,818,876,0,0
-399,148,0,0,0,0,0,0,0,0,0,-1,825,876,0,0
-392,148,0,0,0,0,0,0,0,0,0,-1,832,876,0,0
-385,148,0,0,0,0,0,0,0,0,0,-1,839,876,0,0
-378,148,0,0,0,0,0,0,0,0,0,-1,846,876,0,0
-371,148,0,0,0,0,0,0,0,0,0,-1,853,876,0,0
-364,148,0,0,0,0,0,0,0,0,0,-1,860,876,0,0
-357,148,0,0,0,0,0,0,0,0,0,-1,867,876,0,0
-350,148,0,0,0,0,0,0,0,0,0,-1,874,876,0,0
-343,148,0,0,0,0,0,0,0,0,0,-1,881,876,0,0
-336,148,0,0,0,0,0,0,0,0,0,-1,888,876,0,0
-329,148,0,0,0,0,0,0,0,0,0,-1,895,876,0,0
-322,148,0,0,0,0,0,0,0,0,0,-1,902,876,0,0
-315,148,0,0,0,0,0,0,0,0,0,-1,909,876,0,0
-308,148,0,0,0,0,0,0,0,0,0,-1,916,876,0,0
-301,148,0,0,0,0,0,0,0,0,0,-1,923,876,0,0
-294,148,0,0,0,0,0,0,0,0,0,-1,930,876,0,0
-287,148,0,0,0,0,0,0,0,0,0,-1,937,876,0,0
-280,148,0,0,0,0,0,0,0,0,0,-1,944,876,0,0
-273,148,0,0,0,0,0,0,0,0,0,-1,951,876,0,0
-266,148,0,0,0,0,0,0,0,0,0,-1,958,876,0,0
-259,148,0,0,0,0,0,0,0,0,0,-1,965,876,0,0
-252,148,0,0,0,0,0,0,0,0,0,-1,972,876,0,0
-245,148,0,0,0,0,0,0,0,0,0,-1,979,876,0,0
-238,148,0,0,0,0,0,0,0,0,0,-1,986,876,0,0
-231,148,0,0,0,0,0,0,0,0,0,-1,993,876,0,0
-224,148,0,0,0,0,0,0,0,0,0,-1,1000,876,0,0
-217,148,0,0,0,0,0,0,0,0,0,-1,1007,876,0,0
-210,148,0,0,0,0,0,0,0,0,0,-1,1014,876,0,0
-203,148,0,0,0,0,0,0,0,0,0,-1,1021,876,0,0
-196,148,0,0,0,0,0,0,0,0,0,-1,1028,876,0,0
-189,148,0,0,0,0,0,0,0,0,0,-1,1035,876,0,0
-182,148,0,0,0,0,0,0,0,0,0,-1,1042,876,0,0
-175,148,0,0,0,0,0,0,0,0,0,-1,1049,876,0,0
-168,148,0,0,0,0,0,0,0,0,0,-1,1056,876,0,0
-161,148,0,0,0,0,0,0,0,0,0,-1,1063,876,0,0
-154,148,0,0,0,0,0,0,0,0,0,-1,1070,876,0,0
-147,148,0,0,0,0,0,0,0,0,0,-1,1077,876,0,0
-140,148,0,0,0,0,0,0,0,0,0,-1,1084,876,0,0
-133,148,0,0,0,0,0,0,0,0,0,-1,1091,876,0,0
-126,148,0,0,0,0,0,0,0,0,0,-1,1098,876,0,0
-119,148,0,0,0,0,0,0,0,0,0,-1,1105,876,0,0
-112,148,0,0,0,0,0,0,0,0,0,-1,1112,876,0,0
-105,148,0,0,0,0,0,0,0,0,0,-1,1119,876,0,0
-98,148,0,0,0,0,0,0,0,0,0,-1,1126,876,0,0
-91,148,0,0,0,0,0,0,0,0,0,-1,1133,876,0,0
-84,148,0,0,0,0,0,0,0,0,0,-1,1140,876,0,0
-77,148,0,0,0,0,0,0,0,0,0,-1,1147,876,0,0
-70,148,0,0,0,0,0,0,0,0,0,-1,1154,876,0,0
-63,148,0,0,0,0,0,0,0,0,0,-1,1161,876,0,0
-56,148,0,0,0,0,0,0,0,0,0,-1,1168,876,0,0
-49,148,0,0,0,0,0,0,0,0,0,-1,1175,876,0,0
-42,148,0,0,0,0,0,0,0,0,0,-1,1182,876,0,0
-35,148,0,0,0,0,0,0,0,0,0,-1,1189,876,0,0
-28,148,0,0,0,0,0,0,0,0,0,-1,1196,876,0,0
-21,148,0,0,0,0,0,0,0,0,0,-1,1203,876,0,0
-14,148,0,0,0,0,0,0,0,0,0,-1,1210,876,0,0
-7,148,0,0,0,0,0,0,0,0,0,-1,1217,876,0,0
0,148,0,0,0,0,0,0,0,0,0,-1,1224,876,0,0
7,148,0,0,0,0,0,0,0,0,0,-1,1231,876,0,0
14,148,0,0,0,0,0,0,0,0,0,-1,1238,876,0,0
21,148,0,0,0,0,0,0,0,0,0,-1,1245,876,0,0
28,148,0,0,0,0,0,0,0,0,0,-1,1252,876,0,0
35,148,0,0,0,0,0,0,0,0,0,-1,1259,876,0,0
42,148,0,0,0,0,0,0,0,0,0,-1,1266,876,0,0
49,148,0,0,0,0,0,0,0,0,0,-1,1273,876,0,0
56,148,0,0,0,0,0,0,0,0,0,-1,1280,876,0,0
63,148,0,0,0,0,0,0,0,0,0,-1,1287,876,0,0
70,148,0,0,0,0,0,0,0,0,0,-1,1294,876,0,0
77,148,0,0,0,0,0,0,0,0,0,-1,1301,876,0,0
84,148,0,0,0,0,0,0,0,0,0,-1,1308,876,0,0
91,148,0,0,0,0,0,0,0,0,0,-1,1315,876,0,0
98,148,0,0,0,0,0,0,0,0,0,-1,1322,876,0,0
105,148,0,0,0,0,0,0,0,0,0,-1,1329,876,0,0
112,148,0,0,0,0,0,0,0,0,0,-1,1336,876,0,0
119,148,0,0,0,0,0,0,0,0,0,-1,1343,876,0,0
126,148,0,0,0,0,0,0,0,0,0,-1,1350,876,0,0
133,148,0,0,0,0,0,0,0,0,0,-1,1357,876,0,0
140,148,0,0,0,0,0,0,0,0,0,-1,1364,876,0,0
147,148,0,0,0,0,0,0,0,0,0,-1,1371,876,0,0
154,148,0,0,0,0,0,0,0,0,0,-1,1378,876,0,0
161,148,0,0,0,0,0,0,0,0,0,-1,1385,876,0,0
168,148,0,0,0,0,0,0,0,0,0,-1,1392,876,0,0
175,148,0,0,0,0,0,0,0,0,0,-1,1399,876,0,0
182,148,0,0,0,0,0,0,0,0,0,-1,1406,876,0,0
189,148,0,0,0,0,0,0,0,0,0,-1,1413,876,0,0
196,148,0,0,0,0,0,0,0,0,0,-1,1420,876,0,0
203,148,0,0,0,0,0,0,0,0,0,-1,1427,876,0,0
210,148,0,0,0,0,0,0,0,0,0,-1,1434,876,0,0
217,148,0,0,0,0,0,0,0,0,0,-1,1441,876,0,0
224,148,0,0,0,0,0,0,0,0,0,-1,1448,876,0,0
231,148,0,0,0,0,0,0,0,0,0,-1,1455,876,0,0
238,148,0,0,0,0,0,0,0,0,0,-1,1462,876,0,0
245,148,0,0,0,0,0,0,0,0,0,-1,1469,876,0,0
252,148,0,0,0,0,0,0,0,0,0,-1,1476,876,0,0
259,148,0,0,0,0,0,0,0,0,0,-1,1483,876,0,0
266,148,0,0,0,0,0,0,0,0,0,-1,1490,876,0,0
273,148,0,0,0,0,0,0,0,0,0,-1,1497,876,0,0
280,148,0,0,0,0,0,0,0,0,0,-1,1504,876,0,0
287,148,0,0,0,0,0,0,0,0,0,-1,1511,876,0,0
294,148,0,0,0,0,0,0,0,0,0,-1,1518,876,0,0
301,148,0,0,0,0,0,0,0,0,0,-1,1525,876,0,0
308,148,0,0,0,0,0,0,0,0,0,-1,1532,876,0,0
315,148,0,0,0,0,0,0,0,0,0,-1,1539,876,0,0
322,148,0,0,0,0,0,0,0,0,0,-1,1546,876,0,0
329,148,0,0,0,0,0,0,0,0,0,-1,1553,876,0,0
336,148,0,0,0,0,0,0,0,0,0,-1,1560,876,0,0
343,148,0,0,0,0,0,0,0,0,0,-1,1567,876,0,0
350,148,0,0,0,0,0,0,0,0,0,-1,1574,876,0,0
357,148,0,0,0,0,0,0,0,0,0,-1,1581,876,0,0
364,148,0,0,0,0,0,0,0,0,0,-1,1588,876,0,0
371,148,0,0,0,0,0,0,0,0,0,-1,1595,876,0,0
378,148,0,0,0,0,0,0,0,0,0,-1,1602,876,0,0
385,148,0,0,0,0,0,0,0,0,0,-1,1609,876,0,0
392,148,0,0,0,0,0,0,0,0,0,-1,1616,876,0,0
399,148,0,0,0,0,0,0,0,0,0,-1,1623,876,0,0
406,148,0,0,0,0,0,0,0,0,0,-1,1630,876,0,0
413,148,0,0,0,0,0,0,0,0,0,-1,1637,876,0,0
420,148,0,0,0,0,0,0,0,0,0,-1,1644,876,0,0
427,148,0,0,0,0,0,0,0,0,0,-1,1651,876,0,0
434,148,0,0,0,0,0,0,0,0,0,-1,1658,876,0,0
441,148,0,0,0,0,0,0,0,0,0,-1,1665,876,0,0
448,148,0,0,0,0,0,0,0,0,0,-1,1672,876,0,0
455,148,0,0,0,0,0,0,0,0,0,-1,1679,876,0,0
462,148,0,0,0,0,0,0,0,0,0,-1,1686,876,0,0
469,148,0,0,0,0,0,0,0,0,0,-1,1693,876,0,0
476,148,0,0,0,0,0,0,0,0,0,-1,1700,876,0,0
483,148,0,0,0,0,0,0,0,0,0,-1,1707,876,0,0
490,148,0,0,0,0,0,0,0,0,0,-1,1714,876,0,0
497,148,0,0,0,0,0,0,0,0,0,-1,1721,876,0,0
504,148,0,0,0,0,0,0,0,0,0,-1,1728,876,0,0
511,148,0,0,0,0,0,0,0,0,0,-1,1735,876,0,0
518,148,0,0,0,0,0,0,0,0,0,-1,1742,876,0,0
525,148,0,0,0,0,0,0,0,0,0,-1,1749,876,0,0
532,148,0,0,0,0,0,0,0,0,0,-1,1756,876,0,0
539,148,0,0,0,0,0,0,0,0,0,-1,1763,876,0,0
546,148,0,0,0,0,0,0,0,0,0,-1,1770,876,0,0
553,148,0,0,0,0,0,0,0,0,0,-1,1777,876,0,0
560,148,0,0,0,0,0,0,0,0,0,-1,1784,876,0,0
567,148,0,0,0,0,0,0,0,0,0,-1,1791,876,0,0
574,148,0,0,0,0,0,0,0,0,0,-1,1798,876,0,0
581,148,0,0,0,0,0,0,0,0,0,-1,1805,876,0,0
588,148,0,0,0,0,0,0,0,0,0,-1,1812,876,0,0
595,148,0,0,0,0,0,0,0,0,0,-1,1819,876,0,0
602,148,0,0,0,0,0,0,0,0,0,-1,1826,876,0,0
609,148,0,0,0,0,0,0,0,0,0,-1,1833,876,0,0
616,148,0,0,0,0,0,0,0,0,0,-1,1840,876,0,0
623,148,33.6362,2.88422,0,0,0,0,0,0,0,-1,1847,876,33.6362,-2.88419
630,148,33.6498,2.86401,0.0066729,-0.000681719,-0.00325306,0.00790527,-0.00191409,-0.362129,0.00601067,0.0439468,1854,876,33.6497,-2.86402
637,148,33.7073,2.81653,0.0043946,-0.000663752,-0.00222009,0.00523077,-0.00149992,-0.360204,0.00408011,0.0390463,1861,876,33.7073,-2.8165
644,148,33.767,2.81927,0.00251024,-0.000779612,-0.00159168,0.00315425,-0.00142362,-0.384474,0.00270525,0.0388409,1868,876,33.7669,-2.8193
651,148,33.871,2.71387,0.00123923,-0.000870216,-0.00121449,0.00179305,-0.00142404,-0.427843,0.00186146,0.0380413,1875,876,33.871,-2.71389
658,148,33.8462,2.77435,0.000559612,-0.000974419,-0.00103427,0.00108024,-0.00149505,-0.466346,0.00149326,0.0339372,1882,876,33.8461,-2.77435
665,148,33.71,2.94354,0.000170304,-0.000937043,-0.000906504,0.000678847,-0.00144559,-0.511244,0.00125289,0.0249828,1889,876,33.71,-2.94355
672,148,33.7266,2.86792,-5.64223e-05,-0.000858672,-0.000726057,0.000371946,-0.00128704,-0.533029,0.00100521,0.0282503,1896,876,33.7265,-2.86793
679,148,33.7767,2.73871,0,0,0,0,0,0,0,-1,1903,876,33.7768,-2.73871
686,148,21.6195,2.40845,0,0,0,0,0,0,0,-1,1910,876,21.6196,-2.40846
693,148,28.605,2.7572,0,0,0,0,0,0,0,-1,1917,876,28.605,-2.7572
700,148,28.8398,3.10693,-1.64565e-05,-0.000546606,-0.000722206,0.000487784,-0.00105085,-0.609513,0.00090794,0.0232039,1924,876,28.8399,-3.10695
707,148,28.9739,3.52441,0.000268413,-0.000308084,-0.000675637,0.00071472,-0.000754391,-0.583772,0.000848295,0.0193598,1931,876,28.9739,-3.52438
714,148,28.889,3.73468,0.000551253,9.88176e-05,-0.00072776,0.00108714,-0.000437073,-0.634712,0.000906293,0.0189553,1938,876,28.889,-3.73465
721,148,28.728,3.99103,0.00101559,0.000560401,-0.000630305,0.00145813,0.00011786,-0.612138,0.000935282,0.0175271,1945,876,28.7281,-3.991
728,148,28.7325,4.30701,0.00134345,0.00107043,-0.000464116,0.00169071,0.000723162,-0.642367,0.000979526,0.0199943,1952,876,28.7325,-4.30703
735,148,28.7374,4.66162,0.00196548,0.00173336,-0.000189587,0.00207171,0.00162713,-0.510734,0.00125938,0.0187897,1959,876,28.7374,-4.66159
742,148,28.7111,4.995,0.00286085,0.00244458,0.000178543,0.00292694,0.0023785,0.354511,0.0017966,0.0202562,1966,876,28.7111,-4.99502
749,148,28.64,5.28833,0.00437784,0.00317921,0.000661003,0.00467077,0.00288628,0.417153,0.00272157,0.0186815,1973,876,28.64,-5.28835
756,148,28.5597,5.60938,0.00650048,0.00394146,0.00147821,0.00717603,0.00326592,0.428662,0.00414864,0.0227099,1980,876,28.5597,-5.60938
763,148,28.4961,5.71039,0.00960696,0.00453898,0.00271257,0.010785,0.00336094,0.409711,0.00637231,0.0412545,1987,876,28.4961,-5.71042
770,148,28.6355,5.61261,0,0,0,0,0,0,0,-1,1994,876,28.6355,-5.61262
777,148,29.0511,5.80261,0,0,0,0,0,0,0,-1,2001,876,29.0511,-5.80262
784,148,29.7654,6.27441,0,0,0,0,0,0,0,-1,2008,876,29.7654,-6.2744
791,148,30.2592,6.45758,0,0,0,0,0,0,0,-1,2015,876,30.2591,-6.45757
798,148,0,0,0,0,0,0,0,0,0,-1,2022,876,0,0
805,148,0,0,0,0,0,0,0,0,0,-1,2029,876,0,0
812,148,0,0,0,0,0,0,0,0,0,-1,2036,876,0,0
-700,141,0,0,0,0,0,0,0,0,0,-1,524,883,0,0
-693,141,0,0,0,0,0,0,0,0,0,-1,531,883,0,0
-686,141,0,0,0,0,0,0,0,0,0,-1,538,883,0,0
-679,141,0,0,0,0,0,0,0,0,0,-1,545,883,0,0
-672,141,-21.7549,1.61224,0,0,0,0,0,0,0,-1,552,883,-21.7549,-1.61223
-665,141,-22.0325,2.06146,-0.0144639,-0.0107434,0.0481108,0.0355431,-0.0607505,0.804721,0.0562265,0.0443382,559,883,-22.0325,-2.06148
-658,141,-22.4869,2.57184,-0.00841965,-0.0103442,0.0400741,0.0307037,-0.0494675,0.773394,0.0467076,0.0477996,566,883,-22.4869,-2.57186
-651,141,-23.2595,3.08978,-0.00429842,-0.00860399,0.0328269,0.0264463,-0.0393487,0.752655,0.0382294,0.0449971,573,883,-23.2595,-3.08976
-644,141,-23.8486,3.58191,0,0,0,0,0,0,0,-1,580,883,-23.8486,-3.58193
-637,141,-20.2447,3.46295,0,0,0,0,0,0,0,-1,587,883,-20.2447,-3.46293
-630,141,-20.2872,3.28314,0.000521952,-0.00376174,0.0160862,0.0146083,-0.017848,0.719213,0.0187697,0.0405563,594,883,-20.2871,-3.28312
-623,141,-20.2404,2.9649,0.000706247,-0.00175801,0.0119119,0.0114495,-0.0125013,0.733863,0.0138325,0.0237712,601,883,-20.2404,-2.96491
-616,141,-20.3882,2.61713,0.000377922,-0.000685766,0.00847778,0.00834053,-0.00864837,0.754072,0.00980908,0.0120111,608,883,-20.3882,-2.61711
-609,141,-20.4451,2.32349,0.000894387,8.68336e-05,0.00540837,0.00591403,-0.00493281,0.748138,0.00627097,0.0128944,615,883,-20.4451,-2.32347
-602,141,-20.4636,2.02344,0.000630018,0.000594517,0.00315182,0.00376414,-0.0025396,0.782582,0.00366229,0.0128005,622,883,-20.4636,-2.02343
-595,141,-20.4608,1.71729,-0.000194558,0.000322177,0.00153802,0.00162338,-0.00149577,0.868614,0.00180134,0.0119226,629,883,-20.4608,-1.7173
-588,141,-20.6548,1.43347,-0.000531038,-1.09695e-05,0.00104736,0.000808159,-0.00135017,0.907075,0.00125914,0.0210641,636,883,-20.6548,-1.43349
-581,141,-20.6097,1.16327,-0.000717141,-8.71075e-05,0.000370513,8.42045e-05,-0.000888453,1.13771,0.000622272,0.0278999,643,883,-20.6098,-1.16326
-574,141,-20.3525,0.961182,-0.000903243,-0.00034021,-0.000286118,-0.000220336,-0.00102312,-1.17404,0.000621785,0.0361592,650,883,-20.3525,-0.96118
-567,141,-20.3972,0.738281,-0.000825492,-0.000334703,-0.000678562,0.000141473,-0.00130167,-0.958901,0.000918575,0.0383404,657,883,-20.3972,-0.738264
-560,141,-20.3812,0.589722,0,0,0,0,0,0,0,-1,664,883,-20.3812,-0.589727
-553,141,-24.0418,1.36993,0,0,0,0,0,0,0,-1,671,883,-24.0418,-1.36993
-546,141,-24.1482,1.15613,-0.000398281,-0.000700586,-0.00162734,0.00108491,-0.00218378,-0.739089,0.0019224,0.0400991,678,883,-24.1482,-1.15615
-539,141,-24.2281,0.948914,-0.000377574,-0.000858497,-0.00188726,0.00128448,-0.00252056,-0.722033,0.00223515,0.0306872,685,883,-24.2281,-0.948904
-532,141,-24.2878,0.866882,-0.000314325,-0.00115218,-0.00201652,0.00132632,-0.00279283,-0.682981,0.00242791,0.029448,692,883,-24.2878,-0.866901
-525,141,-24.3044,0.812073,-0.000263881,-0.00178575,-0.00196829,0.00108544,-0.00313508,-0.600949,0.00253069,0.0367149,699,883,-24.3044,-0.812102
-518,141,-24.324,0.695801,0.000297646,-0.00303434,-0.00158605,0.000931886,-0.00366858,-0.38041,0.00280837,0.0427369,706,883,-24.324,-0.695778
-511,141,-24.3096,1.47003,0.00175417,-0.00551045,-0.000809286,0.00184323,-0.00559951,-0.109611,0.00447577,0.0396987,713,883,-24.3096,-1.47002
-504,141,-24.2941,1.38422,0.00456614,-0.0087275,0.000276877,0.00457191,-0.00873326,0.0208157,0.00780598,0.0402456,720,883,-24.2941,-1.38419
-497,141,0,0,0,0,0,0,0,0,0,-1,727,883,0,0
-490,141,0,0,0,0,0,0,0,0,0,-1,734,883,0,0
-483,141,0,0,0,0,0,0,0,0,0,-1,741,883,0,0
-476,141,0,0,0,0,0,0,0,0,0,-1,748,883,0,0
-469,141,0,0,0,0,0,0,0,0,0,-1,755,883,0,0
-462,141,0,0,0,0,0,0,0,0,0,-1,762,883,0,0
-455,141,0,0,0,0,0,0,0,0,0,-1,769,883,0,0
-448,141,0,0,0,0,0,0,0,0,0,-1,776,883,0,0
-441,141,0,0,0,0,0,0,0,0,0,-1,783,883,0,0
-434,141,0,0,0,0,0,0,0,0,0,-1,790,883,0,0
-427,141,0,0,0,0,0,0,0,0,0,-1,797,883,0,0
-420,141,0,0,0,0,0,0,0,0,0,-1,804,883,0,0
-413,141,0,0,0,0,0,0,0,0,0,-1,811,883,0,0
-406,141,0,0,0,0,0,0,0,0,0,-1,818,883,0,0
-399,141,0,0,0,0,0,0,0,0,0,-1,825,883,0,0
-392,141,0,0,0,0,0,0,0,0,0,-1,832,883,0,0
-385,141,0,0,0,0,0,0,0,0,0,-1,839,883,0,0
-378,141,0,0,0,0,0,0,0,0,0,-1,846,883,0,0
-371,141,0,0,0,0,0,0,0,0,0,-1,853,883,0,0
-364,141,0,0,0,0,0,0,0,0,0,-1,860,883,0,0
-357,141,0,0,0,0,0,0,0,0,0,-1,867,883,0,0
-350,141,0,0,0,0,0,0,0,0,0,-1,874,883,0,0
-343,141,0,0,0,0,0,0,0,0,0,-1,881,883,0,0
-336,141,0,0,0,0,0,0,0,0,0,-1,888,883,0,0
-329,141,0,0,0,0,0,0,0,0,0,-1,895,883,0,0
-322,141,0,0,0,0,0,0,0,0,0,-1,902,883,0,0
-315,141,0,0,0,0,0,0,0,0,0,-1,909,883,0,0
-308,141,0,0,0,0,0,0,0,0,0,-1,916,883,0,0
-301,141,0,0,0,0,0,0,0,0,0,-1,923,883,0,0
-294,141,0,0,0,0,0,0,0,0,0,-1,930,883,0,0
-287,141,0,0,0,0,0,0,0,0,0,-1,937,883,0,0
-280,141,0,0,0,0,0,0,0,0,0,-1,944,883,0,0
-273,141,0,0,0,0,0,0,0,0,0,-1,951,883,0,0
-266,141,0,0,0,0,0,0,0,0,0,-1,958,883,0,0
-259,141,0,0,0,0,0,0,0,0,0,-1,965,883,0,0
-252,141,0,0,0,0,0,0,0,0,0,-1,972,883,0,0
-245,141,0,0,0,0,0,0,0,0,0,-1,979,883,0,0
-238,141,0,0,0,0,0,0,0,0,0,-1,986,883,0,0
-231,141,0,0,0,0,0,0,0,0,0,-1,993,883,0,0
-224,141,0,0,0,0,0,0,0,0,0,-1,1000,883,0,0
-217,141,0,0,0,0,0,0,0,0,0,-1,1007,883,0,0
-210,141,0,0,0,0,0,0,0,0,0,-1,1014,883,0,0
-203,141,0,0,0,0,0,0,0,0,0,-1,1021,883,0,0
-196,141,0,0,0,0,0,0,0,0,0,-1,1028,883,0,0
-189,141,0,0,0,0,0,0,0,0,0,-1,1035,883,0,0
-182,141,0,0,0,0,0,0,0,0,0,-1,1042,883,0,0
-175,141,0,0,0,0,0,0,0,0,0,-1,1049,883,0,0
-168,141,0,0,0,0,0,0,0,0,0,-1,1056,883,0,0
-161,141,0,0,0,0,0,0,0,0,0,-1,1063,883,0,0
-154,141,0,0,0,0,0,0,0,0,0,-1,1070,883,0,0
-147,141,0,0,0,0,0,0,0,0,0,-1,1077,883,0,0
-140,141,0,0,0,0,0,0,0,0,0,-1,1084,883,0,0
-133,141,0,0,0,0,0,0,0,0,0,-1,1091,883,0,0
-126,141,0,0,0,0,0,0,0,0,0,-1,1098,883,0,0
-119,141,0,0,0,0,0,0,0,0,0,-1,1105,883,0,0
-112,141,0,0,0,0,0,0,0,0,0,-1,1112,883,0,0
-105,141,0,0,0,0,0,0,0,0,0,-1,1119,883,0,0
-98,141,0,0,0,0,0,0,0,0,0,-1,1126,883,0,0
-91,141,0,0,0,0,0,0,0,0,0,-1,1133,883,0,0
-84,141,0,0,0,0,0,0,0,0,0,-1,1140,883,0,0
-77,141,0,0,0,0,0,0,0,0,0,-1,1147,883,0,0
-70,141,0,0,0,0,0,0,0,0,0,-1,1154,883,0,0
-63,141,0,0,0,0,0,0,0,0,0,-1,1161,883,0,0
-56,141,0,0,0,0,0,0,0,0,0,-1,1168,883,0,0
-49,141,0,0,0,0,0,0,0,0,0,-1,1175,883,0,0
-42,141,0,0,0,0,0,0,0,0,0,-1,1182,883,0,0
-35,141,0,0,0,0,0,0,0,0,0,-1,1189,883,0,0
-28,141,0,0,0,0,0,0,0,0,0,-1,1196,883,0,0
-21,141,0,0,0,0,0,0,0,0,0,-1,1203,883,0,0
-14,141,0,0,0,0,0,0,0,0,0,-1,1210,883,0,0
-7,141,0,0,0,0,0,0,0,0,0,-1,1217,883,0,0
0,141,0,0,0,0,0,0,0,0,0,-1,1224,883,0,0
7,141,0,0,0,0,0,0,0,0,0,-1,1231,883,0,0
14,141,0,0,0,0,0,0,0,0,0,-1,1238,883,0,0
21,141,0,0,0,0,0,0,0,0,0,-1,1245,883,0,0
28,141,0,0,0,0,0,0,0,0,0,-1,1252,883,0,0
35,141,0,0,0,0,0,0,0,0,0,-1,1259,883,0,0
42,141,0,0,0,0,0,0,0,0,0,-1,1266,883,0,0
49,141,0,0,0,0,0,0,0,0,0,-1,1273,883,0,0
56,141,0,0,0,0,0,0,0,0,0,-1,1280,883,0,0
63,141,0,0,0,0,0,0,0,0,0,-1,1287,883,0,0
70,141,0,0,0,0,0,0,0,0,0,-1,1294,883,0,0
77,141,0,0,0,0,0,0,0,0,0,-1,1301,883,0,0
84,141,0,0,0,0,0,0,0,0,0,-1,1308,883,0,0
91,141,0,0,0,0,0,0,0,0,0,-1,1315,883,0,0
98,141,0,0,0,0,0,0,0,0,0,-1,1322,883,0,0
105,141,0,0,0,0,0,0,0,0,0,-1,1329,883,0,0
112,141,0,0,0,0,0,0,0,0,0,-1,1336,883,0,0
119,141,0,0,0,0,0,0,0,0,0,-1,1343,883,0,0
126,141,0,0,0,0,0,0,0,0,0,-1,1350,883,0,0
133,141,0,0,0,0,0,0,0,0,0,-1,1357,883,0,0
140,141,0,0,0,0,0,0,0,0,0,-1,1364,883,0,0
147,141,0,0,0,0,0,0,0,0,0,-1,1371,883,0,0
154,141,0,0,0,0,0,0,0,0,0,-1,1378,883,0,0
161,141,0,0,0,0,0,0,0,0,0,-1,1385,883,0,0
168,141,0,0,0,0,0,0,0,0,0,-1,1392,883,0,0
175,141,0,0,0,0,0,0,0,0,0,-1,1399,883,0,0
182,141,0,0,0,0,0,0,0,0,0,-1,1406,883,0,0
189,141,0,0,0,0,0,0,0,0,0,-1,1413,883,0,0
196,141,0,0,0,0,0,0,0,0,0,-1,1420,883,0,0
203,141,0,0,0,0,0,0,0,0,0,-1,1427,883,0,0
210,141,0,0,0,0,0,0,0,0,0,-1,1434,883,0,0
217,141,0,0,0,0,0,0,0,0,0,-1,1441,883,0,0
224,141,0,0,0,0,0,0,0,0,0,-1,1448,883,0,0
231,141,0,0,0,0,0,0,0,0,0,-1,1455,883,0,0
238,141,0,0,0,0,0,0,0,0,0,-1,1462,883,0,0
245,141,0,0,0,0,0,0,0,0,0,-1,1469,883,0,0
252,141,0,0,0,0,0,0,0,0,0,-1,1476,883,0,0
259,141,0,0,0,0,0,0,0,0,0,-1,1483,883,0,0
266,141,0,0,0,0,0,0,0,0,0,-1,1490,883,0,0
273,141,0,0,0,0,0,0,0,0,0,-1,1497,883,0,0
280,141,0,0,0,0,0,0,0,0,0,-1,1504,883,0,0
287,141,0,0,0,0,0,0,0,0,0,-1,1511,883,0,0
294,141,0,0,0,0,0,0,0,0,0,-1,1518,883,0,0
301,141,0,0,0,0,0,0,0,0,0,-1,1525,883,0,0
308,141,0,0,0,0,0,0,0,0,0,-1,1532,883,0,0
315,141,0,0,0,0,0,0,0,0,0,-1,1539,883,0,0
322,141,0,0,0,0,0,0,0,0,0,-1,1546,883,0,0
329,141,0,0,0,0,0,0,0,0,0,-1,1553,883,0,0
336,141,0,0,0,0,0,0,0,0,0,-1,1560,883,0,0
343,141,0,0,0,0,0,0,0,0,0,-1,1567,883,0,0
350,141,0,0,0,0,0,0,0,0,0,-1,1574,883,0,0
357,141,0,0,0,0,0,0,0,0,0,-1,1581,883,0,0
364,141,0,0,0,0,0,0,0,0,0,-1,1588,883,0,0
371,141,0,0,0,0,0,0,0,0,0,-1,1595,883,0,0
378,141,0,0,0,0,0,0,0,0,0,-1,1602,883,0,0
385,141,0,0,0,0,0,0,0,0,0,-1,1609,883,0,0
392,141,0,0,0,0,0,0,0,0,0,-1,1616,883,0,0
399,141,0,0,0,0,0,0,0,0,0,-1,1623,883,0,0
406,141,0,0,0,0,0,0,0,0,0,-1,1630,883,0,0
413,141,0,0,0,0,0,0,0,0,0,-1,1637,883,0,0
420,141,0,0,0,0,0,0,0,0,0,-1,1644,883,0,0
427,141,0,0,0,0,0,0,0,0,0,-1,1651,883,0,0
434,141,0,0,0,0,0,0,0,0,0,-1,1658,883,0,0
441,141,0,0,0,0,0,0,0,0,0,-1,1665,883,0,0
448,141,0,0,0,0,0,0,0,0,0,-1,1672,883,0,0
455,141,0,0,0,0,0,0,0,0,0,-1,1679,883,0,0
462,141,0,0,0,0,0,0,0,0,0,-1,1686,883,0,0
469,141,0,0,0,0,0,0,0,0,0,-1,1693,883,0,0
476,141,0,0,0,0,0,0,0,0,0,-1,1700,883,0,0
483,141,0,0,0,0,0,0,0,0,0,-1,1707,883,0,0
490,141,0,0,0,0,0,0,0,0,0,-1,1714,883,0,0
497,141,0,0,0,0,0,0,0,0,0,-1,1721,883,0,0
504,141,0,0,0,0,0,0,0,0,0,-1,1728,883,0,0
511,141,0,0,0,0,0,0,0,0,0,-1,1735,883,0,0
518,141,0,0,0,0,0,0,0,0,0,-1,1742,883,0,0
525,141,0,0,0,0,0,0,0,0,0,-1,1749,883,0,0
532,141,0,0,0,0,0,0,0,0,0,-1,1756,883,0,0
539,141,0,0,0,0,0,0,0,0,0,-1,1763,883,0,0
546,141,0,0,0,0,0,0,0,0,0,-1,1770,883,0,0
553,141,0,0,0,0,0,0,0,0,0,-1,1777,883,0,0
560,141,0,0,0,0,0,0,0,0,0,-1,1784,883,0,0
567,141,0,0,0,0,0,0,0,0,0,-1,1791,883,0,0
574,141,0,0,0,0,0,0,0,0,0,-1,1798,883,0,0
581,141,0,0,0,0,0,0,0,0,0,-1,1805,883,0,0
588,141,0,0,0,0,0,0,0,0,0,-1,1812,883,0,0
595,141,0,0,0,0,0,0,0,0,0,-1,1819,883,0,0
602,141,0,0,0,0,0,0,0,0,0,-1,1826,883,0,0
609,141,0,0,0,0,0,0,0,0,0,-1,1833,883,0,0
616,141,0,0,0,0,0,0,0,0,0,-1,1840,883,0,0
623,141,33.8116,3.29059,0,0,0,0,0,0,0,-1,1847,883,33.8116,-3.29061
630,141,33.6805,2.75757,0,0,0,0,0,0,0,-1,1854,883,33.6806,-2.75754
637,141,33.8546,2.9353,0.00520157,0.000207685,-0.00201544,0.00591348,-0.000504225,-0.339547,0.00412069,0.0437817,1861,883,33.8547,-2.9353
644,141,33.7206,2.76074,0.00315611,-2.81551e-05,-0.00143357,0.00370641,-0.000578452,-0.36652,0.00268461,0.0420415,1868,883,33.7206,-2.76077
651,141,33.9431,2.71704,0.00176353,-0.000188521,-0.00108913,0.00224998,-0.000674972,-0.420057,0.00176845,0.040318,1875,883,33.9431,-2.71705
658,141,33.9647,2.81165,0.00100373,-0.000319693,-0.000914925,0.00147116,-0.000787118,-0.472321,0.0013236,0.0378507,1882,883,33.9647,-2.81163
665,141,33.7168,2.9408,0.000623617,-0.00034195,-0.000800613,0.00107575,-0.000794078,-0.514081,0.00108362,0.0289769,1889,883,33.7168,-2.94077
672,141,33.7169,2.90295,0.000452599,-0.000328897,-0.000637302,0.000809406,-0.000685704,-0.51039,0.000864186,0.0223389,1896,883,33.717,-2.90293
679,141,33.76,2.8064,0.000337601,-0.000368373,-0.000583861,0.000666885,-0.000697657,-0.51351,0.000787886,0.0340228,1903,883,33.76,-2.80638
686,141,33.8167,2.61768,0,0,0,0,0,0,0,-1,1910,883,33.8167,-2.61768
693,141,28.8508,2.62457,0,0,0,0,0,0,0,-1,1917,883,28.8508,-2.6246
700,141,29.1545,3.06842,0.000417532,-0.00027994,-0.000686457,0.000838757,-0.000701165,-0.550375,0.000890257,0.0217554,1924,883,29.1545,-3.06841
707,141,29.1689,3.43701,0.000658975,-0.000144775,-0.000689451,0.00105513,-0.000540927,-0.521526,0.000937287,0.0190105,1931,883,29.1689,-3.43702
714,141,29.0333,3.65704,0.000910711,0.000166745,-0.000785199,0.00140758,-0.000330127,-0.564187,0.00106561,0.0191745,1938,883,29.0334,-3.65703
721,141,29.0361,3.97858,0.00134155,0.000569048,-0.000715753,0.00176862,0.000141977,-0.53797,0.00113472,0.0138764,1945,883,29.0361,-3.97856
728,141,29.0599,4.28796,0.00161578,0.00098688,-0.000583302,0.00196399,0.000638669,-0.538185,0.00115678,0.015195,1952,883,29.0599,-4.28794
735,141,29.0304,4.67133,0.00222586,0.00158243,-0.000360398,0.00238725,0.00142105,-0.421025,0.00138659,0.0154359,1959,883,29.0305,-4.67133
742,141,29.0018,4.98523,0.00315488,0.00232646,-9.0361e-05,0.00316462,0.00231672,-0.107394,0.00189156,0.0155778,1966,883,29.0019,-4.98523
749,141,29.0018,5.26056,0.00476738,0.00315268,0.000278282,0.004814,0.00310606,0.165966,0.00281816,0.0137014,1973,883,29.0018,-5.26056
756,141,28.9523,5.62964,0.00696664,0.00399661,0.000966936,0.0072537,0.00370955,0.288584,0.00418829,0.0199124,1980,883,28.9523,-5.62962
763,141,28.6198,5.89813,0.0100927,0.00473544,0.0020155,0.0107663,0.00406187,0.32253,0.00627801,0.0428945,1987,883,28.6197,-5.89816
770,141,28.2959,6.17609,0,0,0,0,0,0,0,-1,1994,883,28.2958,-6.17606
777,141,29.0428,5.55023,0,0,0,0,0,0,0,-1,2001,883,29.0429,-5.55024
784,141,29.5728,6.3382,0,0,0,0,0,0,0,-1,2008,883,29.5728,-6.3382
791,141,30.2258,6.75677,0,0,0,0,0,0,0,-1,2015,883,30.2258,-6.75678
798,141,0,0,0,0,0,0,0,0,0,-1,2022,883,0,0
805,141,0,0,0,0,0,0,0,0,0,-1,2029,883,0,0
812,141,0,0,0,0,0,0,0,0,0,-1,2036,883,0,0
-700,134,0,0,0,0,0,0,0,0,0,-1,524,890,0,0
-693,134,0,0,0,0,0,0,0,0,0,-1,531,890,0,0
-686,134,0,0,0,0,0,0,0,0,0,-1,538,890,0,0
-679,134,0,0,0,0,0,0,0,0,0,-1,545,890,0,0
-672,134,-20.5536,1.60754,0,0,0,0,0,0,0,-1,552,890,-20.5536,-1.60756
-665,134,-21.5301,2.20917,-0.0158559,-0.0164291,0.0423742,0.0262326,-0.0585176,0.782016,0.0501001,0.048334,559,890,-21.5301,-2.20916
-658,134,-22.476,2.82739,-0.0106305,-0.0162187,0.035535,0.0222201,-0.0490692,0.746164,0.0421207,0.0448454,566,890,-22.476,-2.82739
-651,134,-23.441,3.42804,0,0,0,0,0,0,0,-1,573,890,-23.441,-3.42807
-644,134,-21.8285,0.343933,0,0,0,0,0,0,0,-1,580,890,-21.8285,-0.343929
-637,134,-20.7467,2.21387,0,0,0,0,0,0,0,-1,587,890,-20.7467,-2.21387
-630,134,-20.6801,2.56323,-0.000887682,-0.00733053,0.0147305,0.0109695,-0.0191877,0.677747,0.0176255,0.0436267,594,890,-20.68,-2.56322
-623,134,-20.5889,2.86249,-0.000266434,-0.00431452,0.0109403,0.00883551,-0.0134165,0.693929,0.0129376,0.0223174,601,890,-20.5889,-2.86246
-616,134,-20.7137,2.59705,-0.00017459,-0.00240205,0.00782258,0.00661314,-0.00918979,0.714686,0.00916416,0.0113265,608,890,-20.7137,-2.59705
-609,134,-20.771,2.31451,0.000582691,-0.000998325,0.00506693,0.0049204,-0.00533604,0.708015,0.00592318,0.0113307,615,890,-20.771,-2.3145
-602,134,-20.7654,2.00848,0.000538178,-3.75287e-05,0.00313877,0.00340227,-0.00290162,0.739672,0.00364337,0.0120655,622,890,-20.7654,-2.00849
-595,134,-20.7396,1.76428,-2.83967e-05,-3.0711e-05,0.00173272,0.00170316,-0.00176227,0.785064,0.00200086,0.0144681,629,890,-20.7396,-1.76428
-588,134,-21.0468,1.55255,-0.00020078,-0.000181956,0.00122534,0.001034,-0.00141674,0.789239,0.00142068,0.026696,636,890,-21.0467,-1.55256
-581,134,-20.9634,1.10504,-0.000462934,-0.000173614,0.00050445,0.000206508,-0.000843056,0.925035,0.000642041,0.0375005,643,890,-20.9634,-1.10502
-574,134,-20.9498,0.814819,-0.000745465,-0.000469373,-0.00019548,-0.000368109,-0.000846729,-1.09283,0.000490245,0.0390229,650,890,-20.9498,-0.81484
-567,134,-20.6307,0.674377,0,0,0,0,0,0,0,-1,657,890,-20.6307,-0.674408
-560,134,-18.8884,0.498169,0,0,0,0,0,0,0,-1,664,890,-18.8883,-0.498162
-553,134,-24.1557,1.04016,0,0,0,0,0,0,0,-1,671,890,-24.1557,-1.04014
-546,134,-24.1735,0.990906,-0.000410428,-0.000964913,-0.00170435,0.00103908,-0.00241442,-0.704771,0.00204591,0.0267868,678,890,-24.1735,-0.990895
-539,134,-24.2158,0.926208,-0.00040904,-0.00107489,-0.00203453,0.00131962,-0.00280355,-0.704299,0.00243136,0.0188221,685,890,-24.2158,-0.926234
-532,134,-24.2405,0.914612,-0.000400784,-0.00133547,-0.00225112,0.00143099,-0.00316725,-0.68305,0.00271715,0.0245627,692,890,-24.2406,-0.914624
-525,134,-24.3081,0.811096,-0.000396896,-0.00193311,-0.00231828,0.00127721,-0.00360721,-0.625427,0.00292502,0.0363332,699,890,-24.3081,-0.811117
-518,134,-24.3517,0.674683,0.000175577,-0.00312907,-0.00209027,0.00118772,-0.00414121,-0.450943,0.00323034,0.0428099,706,890,-24.3517,-0.674659
-511,134,-24.3684,0.644104,0.00153385,-0.0054475,-0.00154349,0.00185988,-0.00577353,-0.208164,0.00459617,0.0449965,713,890,-24.3684,-0.644103
-504,134,0,0,0,0,0,0,0,0,0,-1,720,890,0,0
-497,134,0,0,0,0,0,0,0,0,0,-1,727,890,0,0
-490,134,0,0,0,0,0,0,0,0,0,-1,734,890,0,0
-483,134,0,0,0,0,0,0,0,0,0,-1,741,890,0,0
-476,134,0,0,0,0,0,0,0,0,0,-1,748,890,0,0
-469,134,0,0,0,0,0,0,0,0,0,-1,755,890,0,0
-462,134,0,0,0,0,0,0,0,0,0,-1,762,890,0,0
-455,134,0,0,0,0,0,0,0,0,0,-1,769,890,0,0
-448,134,0,0,0,0,0,0,0,0,0,-1,776,890,0,0
-441,134,0,0,0,0,0,0,0,0,0,-1,783,890,0,0
-434,134,0,0,0,0,0,0,0,0,0,-1,790,890,0,0
-427,134,0,0,0,0,0,0,0,0,0,-1,797,890,0,0
-420,134,0,0,0,0,0,0,0,0,0,-1,804,890,0,0
-413,134,0,0,0,0,0,0,0,0,0,-1,811,890,0,0
-406,134,0,0,0,0,0,0,0,0,0,-1,818,890,0,0
-399,134,0,0,0,0,0,0,0,0,0,-1,825,890,0,0
-392,134,0,0,0,0,0,0,0,0,0,-1,832,890,0,0
-385,134,0,0,0,0,0,0,0,0,0,-1,839,890,0,0
-378,134,0,0,0,0,0,0,0,0,0,-1,846,890,0,0
-371,134,0,0,0,0,0,0,0,0,0,-1,853,890,0,0
-364,134,0,0,0,0,0,0,0,0,0,-1,860,890,0,0
-357,134,0,0,0,0,0,0,0,0,0,-1,867,890,0,0
-350,134,0,0,0,0,0,0,0,0,0,-1,874,890,0,0
-343,134,0,0,0,0,0,0,0,0,0,-1,881,890,0,0
-336,134,0,0,0,0,0,0,0,0,0,-1,888,890,0,0
-329,134,0,0,0,0,0,0,0,0,0,-1,895,890,0,0
-322,134,0,0,0,0,0,0,0,0,0,-1,902,890,0,0
-315,134,0,0,0,0,0,0,0,0,0,-1,909,890,0,0
-308,134,0,0,0,0,0,0,0,0,0,-1,916,890,0,0
-301,134,0,0,0,0,0,0,0,0,0,-1,923,890,0,0
-294,134,0,0,0,0,0,0,0,0,0,-1,930,890,0,0
-287,134,0,0,0,0,0,0,0,0,0,-1,937,890,0,0
-280,134,0,0,0,0,0,0,0,0,0,-1,944,890,0,0
-273,134,0,0,0,0,0,0,0,0,0,-1,951,890,0,0
-266,134,0,0,0,0,0,0,0,0,0,-1,958,890,0,0
-259,134,0,0,0,0,0,0,0,0,0,-1,965,890,0,0
-252,134,0,0,0,0,0,0,0,0,0,-1,972,890,0,0
-245,134,0,0,0,0,0,0,0,0,0,-1,979,890,0,0
-238,134,0,0,0,0,0,0,0,0,0,-1,986,890,0,0
-231,134,0,0,0,0,0,0,0,0,0,-1,993,890,0,0
-224,134,0,0,0,0,0,0,0,0,0,-1,1000,890,0,0
-217,134,0,0,0,0,0,0,0,0,0,-1,1007,890,0,0
-210,134,0,0,0,0,0,0,0,0,0,-1,1014,890,0,0
-203,134,0,0,0,0,0,0,0,0,0,-1,1021,890,0,0
-196,134,0,0,0,0,0,0,0,0,0,-1,1028,890,0,0
-189,134,0,0,0,0,0,0,0,0,0,-1,1035,890,0,0
-182,134,0,0,0,0,0,0,0,0,0,-1,1042,890,0,0
-175,134,0,0,0,0,0,0,0,0,0,-1,1049,890,0,0
-168,134,0,0,0,0,0,0,0,0,0,-1,1056,890,0,0
-161,134,0,0,0,0,0,0,0,0,0,-1,1063,890,0,0
-154,134,0,0,0,0,0,0,0,0,0,-1,1070,890,0,0
-147,134,0,0,0,0,0,0,0,0,0,-1,1077,890,0,0
-140,134,0,0,0,0,0,0,0,0,0,-1,1084,890,0,0
-133,134,0,0,0,0,0,0,0,0,0,-1,1091,890,0,0
-126,134,0,0,0,0,0,0,0,0,0,-1,1098,890,0,0
-119,134,0,0,0,0,0,0,0,0,0,-1,1105,890,0,0
-112,134,0,0,0,0,0,0,0,0,0,-1,1112,890,0,0
-105,134,0,0,0,0,0,0,0,0,0,-1,1119,890,0,0
-98,134,0,0,0,0,0,0,0,0,0,-1,1126,890,0,0
-91,134,0,0,0,0,0,0,0,0,0,-1,1133,890,0,0
-84,134,0,0,0,0,0,0,0,0,0,-1,1140,890,0,0
-77,134,0,0,0,0,0,0,0,0,0,-1,1147,890,0,0
-70,134,0,0,0,0,0,0,0,0,0,-1,1154,890,0,0
-63,134,0,0,0,0,0,0,0,0,0,-1,1161,890,0,0
-56,134,0,0,0,0,0,0,0,0,0,-1,1168,890,0,0
-49,134,0,0,0,0,0,0,0,0,0,-1,1175,890,0,0
-42,134,0,0,0,0,0,0,0,0,0,-1,1182,890,0,0
-35,134,0,0,0,0,0,0,0,0,0,-1,1189,890,0,0
-28,134,0,0,0,0,0,0,0,0,0,-1,1196,890,0,0
-21,134,0,0,0,0,0,0,0,0,0,-1,1203,890,0,0
-14,134,0,0,0,0,0,0,0,0,0,-1,1210,890,0,0
-7,134,0,0,0,0,0,0,0,0,0,-1,1217,890,0,0
0,134,0,0,0,0,0,0,0,0,0,-1,1224,890,0,0
7,134,0,0,0,0,0,0,0,0,0,-1,1231,890,0,0
14,134,0,0,0,0,0,0,0,0,0,-1,1238,890,0,0
21,134,0,0,0,0,0,0,0,0,0,-1,1245,890,0,0
28,134,0,0,0,0,0,0,0,0,0,-1,1252,890,0,0
35,134,0,0,0,0,0,0,0,0,0,-1,1259,890,0,0
42,134,0,0,0,0,0,0,0,0,0,-1,1266,890,0,0
49,134,0,0,0,0,0,0,0,0,0,-1,1273,890,0,0
56,134,0,0,0,0,0,0,0,0,0,-1,1280,890,0,0
63,134,0,0,0,0,0,0,0,0,0,-1,1287,890,0,0
70,134,0,0,0,0,0,0,0,0,0,-1,1294,890,0,0
77,134,0,0,0,0,0,0,0,0,0,-1,1301,890,0,0
84,134,0,0,0,0,0,0,0,0,0,-1,1308,890,0,0
91,134,0,0,0,0,0,0,0,0,0,-1,1315,890,0,0
98,134,0,0,0,0,0,0,0,0,0,-1,1322,890,0,0
105,134,0,0,0,0,0,0,0,0,0,-1,1329,890,0,0
112,134,0,0,0,0,0,0,0,0,0,-1,1336,890,0,0
119,134,0,0,0,0,0,0,0,0,0,-1,1343,890,0,0
126,134,0,0,0,0,0,0,0,0,0,-1,1350,890,0,0
133,134,0,0,0,0,0,0,0,0,0,-1,1357,890,0,0
140,134,0,0,0,0,0,0,0,0,0,-1,1364,890,0,0
147,134,0,0,0,0,0,0,0,0,0,-1,1371,890,0,0
154,134,0,0,0,0,0,0,0,0,0,-1,1378,890,0,0
161,134,0,0,0,0,0,0,0,0,0,-1,1385,890,0,0
168,134,0,0,0,0,0,0,0,0,0,-1,1392,890,0,0
175,134,0,0,0,0,0,0,0,0,0,-1,1399,890,0,0
182,134,0,0,0,0,0,0,0,0,0,-1,1406,890,0,0
189,134,0,0,0,0,0,0,0,0,0,-1,1413,890,0,0
196,134,0,0,0,0,0,0,0,0,0,-1,1420,890,0,0
203,134,0,0,0,0,0,0,0,0,0,-1,1427,890,0,0
210,134,0,0,0,0,0,0,0,0,0,-1,1434,890,0,0
217,134,0,0,0,0,0,0,0,0,0,-1,1441,890,0,0
224,134,0,0,0,0,0,0,0,0,0,-1,1448,890,0,0
231,134,0,0,0,0,0,0,0,0,0,-1,1455,890,0,0
238,134,0,0,0,0,0,0,0,0,0,-1,1462,890,0,0
245,134,0,0,0,0,0,0,0,0,0,-1,1469,890,0,0
252,134,0,0,0,0,0,0,0,0,0,-1,1476,890,0,0
259,134,0,0,0,0,0,0,0,0,0,-1,1483,890,0,0
266,134,0,0,0,0,0,0,0,0,0,-1,1490,890,0,0
273,134,0,0,0,0,0,0,0,0,0,-1,1497,890,0,0
280,134,0,0,0,0,0,0,0,0,0,-1,1504,890,0,0
287,134,0,0,0,0,0,0,0,0,0,-1,1511,890,0,0
294,134,0,0,0,0,0,0,0,0,0,-1,1518,890,0,0
301,134,0,0,0,0,0,0,0,0,0,-1,1525,890,0,0
308,134,0,0,0,0,0,0,0,0,0,-1,1532,890,0,0
315,134,0,0,0,0,0,0,0,0,0,-1,1539,890,0,0
322,134,0,0,0,0,0,0,0,0,0,-1,1546,890,0,0
329,134,0,0,0,0,0,0,0,0,0,-1,1553,890,0,0
336,134,0,0,0,0,0,0,0,0,0,-1,1560,890,0,0
343,134,0,0,0,0,0,0,0,0,0,-1,1567,890,0,0
350,134,0,0,0,0,0,0,0,0,0,-1,1574,890,0,0
357,134,0,0,0,0,0,0,0,0,0,-1,1581,890,0,0
364,134,0,0,0,0,0,0,0,0,0,-1,1588,890,0,0
371,134,0,0,0,0,0,0,0,0,0,-1,1595,890,0,0
378,134,0,0,0,0,0,0,0,0,0,-1,1602,890,0,0
385,134,0,0,0,0,0,0,0,0,0,-1,1609,890,0,0
392,134,0,0,0,0,0,0,0,0,0,-1,1616,890,0,0
399,134,0,0,0,0,0,0,0,0,0,-1,1623,890,0,0
406,134,0,0,0,0,0,0,0,0,0,-1,1630,890,0,0
413,134,0,0,0,0,0,0,0,0,0,-1,1637,890,0,0
420,134,0,0,0,0,0,0,0,0,0,-1,1644,890,0,0
427,134,0,0,0,0,0,0,0,0,0,-1,1651,890,0,0
434,134,0,0,0,0,0,0,0,0,0,-1,1658,890,0,0
441,134,0,0,0,0,0,0,0,0,0,-1,1665,890,0,0
448,134,0,0,0,0,0,0,0,0,0,-1,1672,890,0,0
455,134,0,0,0,0,0,0,0,0,0,-1,1679,890,0,0
462,134,0,0,0,0,0,0,0,0,0,-1,1686,890,0,0
469,134,0,0,0,0,0,0,0,0,0,-1,1693,890,0,0
476,134,0,0,0,0,0,0,0,0,0,-1,1700,890,0,0
483,134,0,0,0,0,0,0,0,0,0,-1,1707,890,0,0
490,134,0,0,0,0,0,0,0,0,0,-1,1714,890,0,0
497,134,0,0,0,0,0,0,0,0,0,-1,1721,890,0,0
504,134,0,0,0,0,0,0,0,0,0,-1,1728,890,0,0
511,134,0,0,0,0,0,0,0,0,0,-1,1735,890,0,0
518,134,0,0,0,0,0,0,0,0,0,-1,1742,890,0,0
525,134,0,0,0,0,0,0,0,0,0,-1,1749,890,0,0
532,134,0,0,0,0,0,0,0,0,0,-1,1756,890,0,0
539,134,0,0,0,0,0,0,0,0,0,-1,1763,890,0,0
546,134,0,0,0,0,0,0,0,0,0,-1,1770,890,0,0
553,134,0,0,0,0,0,0,0,0,0,-1,1777,890,0,0
560,134,0,0,0,0,0,0,0,0,0,-1,1784,890,0,0
567,134,0,0,0,0,0,0,0,0,0,-1,1791,890,0,0
574,134,0,0,0,0,0,0,0,0,0,-1,1798,890,0,0
581,134,0,0,0,0,0,0,0,0,0,-1,1805,890,0,0
588,134,0,0,0,0,0,0,0,0,0,-1,1812,890,0,0
595,134,0,0,0,0,0,0,0,0,0,-1,1819,890,0,0
602,134,0,0,0,0,0,0,0,0,0,-1,1826,890,0,0
609,134,0,0,0,0,0,0,0,0,0,-1,1833,890,0,0
616,134,0,0,0,0,0,0,0,0,0,-1,1840,890,0,0
623,134,33.7769,3.09375,0,0,0,0,0,0,0,-1,1847,890,33.7768,-3.09378
630,134,33.7405,3.20343,0.00805625,0.00193181,-0.00256687,0.00898978,0.000998278,-0.348813,0.00568969,0.0454161,1854,890,33.7405,-3.20344
637,134,33.9952,3.22009,0.00544576,0.00148963,-0.00172663,0.00609333,0.000842057,-0.358816,0.00381266,0.0444569,1861,890,33.9952,-3.22011
644,134,33.9987,3.06512,0.00333213,0.000987425,-0.00121189,0.00384592,0.000473633,-0.400989,0.00242156,0.0413032,1868,890,33.9987,-3.0651
651,134,33.8983,2.94537,0.00191329,0.000606311,-0.000909483,0.00237972,0.000139887,-0.473871,0.00154197,0.0450628,1875,890,33.8984,-2.94539
658,134,33.8533,2.98627,0.00114565,0.000346047,-0.000734176,0.00158182,-9.01289e-05,-0.536072,0.00108584,0.041775,1882,890,33.8533,-2.98627
665,134,33.7719,2.83514,0.000819523,0.000197772,-0.000628943,0.00121023,-0.000192931,-0.555867,0.00087822,0.0337585,1889,890,33.7718,-2.83513
672,134,33.755,2.85535,0.000731491,0.000109743,-0.000468242,0.000982661,-0.000141426,-0.49235,0.00070698,0.0226086,1896,890,33.755,-2.85537
679,134,33.7667,2.80011,0.000696209,-2.95224e-06,-0.000409886,0.000885343,-0.000192086,-0.432319,0.00066359,0.0184702,1903,890,33.7668,-2.80011
686,134,33.7916,2.72034,0,0,0,0,0,0,0,-1,1910,890,33.7916,-2.72035
693,134,29.3781,2.7746,0,0,0,0,0,0,0,-1,1917,890,29.3781,-2.77458
700,134,29.3424,2.98083,0.000731951,-0.00011755,-0.000530171,0.000986534,-0.000372133,-0.447675,0.000810721,0.0371358,1924,890,29.3424,-2.98085
707,134,29.1218,3.13715,0.000966687,-5.39404e-05,-0.000579432,0.00122849,-0.000315742,-0.42437,0.000942046,0.0214193,1931,890,29.1219,-3.13716
714,134,29.2035,3.52734,0.00120904,0.000181739,-0.000725818,0.00158457,-0.000193795,-0.477467,0.00112655,0.0217324,1938,890,29.2034,-3.52737
721,134,29.3689,3.96045,0.00161249,0.000527572,-0.000677334,0.00193781,0.00020225,-0.447763,0.00123001,0.0174032,1945,890,29.3689,-3.96047
728,134,29.4023,4.28851,0.00184789,0.000866291,-0.000567783,0.0021076,0.000606582,-0.428997,0.00125282,0.0160774,1952,890,29.4024,-4.2885
735,134,29.379,4.64355,0.00247777,0.00140377,-0.000368304,0.00259193,0.00128961,-0.300585,0.00149646,0.0216233,1959,890,29.379,-4.64354
742,134,29.3379,4.97467,0.00346385,0.00212947,-0.000141491,0.00347869,0.00211463,-0.104487,0.00202395,0.0143878,1966,890,29.3379,-4.97468
749,134,29.355,5.25092,0.00519048,0.00296491,0.000200787,0.00520845,0.00294694,0.0892584,0.00301576,0.0117915,1973,890,29.355,-5.25094
756,134,29.3541,5.57501,0.00752484,0.00381174,0.000878249,0.00772209,0.00361449,0.220929,0.00446138,0.0161588,1980,890,29.3542,-5.57503
763,134,29.3149,5.92664,0.0107316,0.00455049,0.00190213,0.0112701,0.00401205,0.275856,0.00659612,0.0386477,1987,890,29.3149,-5.92663
770,134,29.288,6.27466,0,0,0,0,0,0,0,-1,1994,890,29.2879,-6.27465
777,134,28.7573,0.378418,0,0,0,0,0,0,0,-1,2001,890,28.7573,-0.37843
784,134,30.4769,6.11542,0,0,0,0,0,0,0,-1,2008,890,30.477,-6.11542
791,134,30.244,6.61945,0,0,0,0,0,0,0,-1,2015,890,30.244,-6.61942
798,134,0,0,0,0,0,0,0,0,0,-1,2022,890,0,0
805,134,0,0,0,0,0,0,0,0,0,-1,2029,890,0,0
812,134,0,0,0,0,0,0,0,0,0,-1,2036,890,0,0
-700,127,0,0,0,0,0,0,0,0,0,-1,524,897,0,0
-693,127,0,0,0,0,0,0,0,0,0,-1,531,897,0,0
-686,127,0,0,0,0,0,0,0,0,0,-1,538,897,0,0
-679,127,-22.0844,3.09772,0,0,0,0,0,0,0,-1,545,897,-22.0843,-3.09771
-672,127,-22.1436,2.69775,0,0,0,0,0,0,0,-1,552,897,-22.1436,-2.69775
-665,127,-21.9675,2.75842,-0.0158127,-0.0199113,0.0364842,0.0186797,-0.0544037,0.757343,0.0438428,0.0456417,559,897,-21.9675,-2.7584
-658,127,-22.4094,3.17834,-0.0118741,-0.0202884,0.0305733,0.0147801,-0.0469426,0.717024,0.0372134,0.0463023,566,897,-22.4094,-3.17832
-651,127,-23.3644,3.79639,0,0,0,0,0,0,0,-1,573,897,-23.3644,-3.79637
-644,127,-22.6401,0.82074,0,0,0,0,0,0,0,-1,580,897,-22.6401,-0.820747
-637,127,-21.7466,1.81506,-0.00384457,-0.0117051,0.0162153,0.00891,-0.0244597,0.666501,0.019951,0.0490602,587,897,-21.7466,-1.81508
-630,127,-20.9564,2.66016,-0.00259887,-0.0102109,0.012762,0.00691262,-0.0197224,0.640483,0.0159595,0.0360033,594,897,-20.9564,-2.66018
-623,127,-20.9691,2.78406,-0.0016895,-0.00632768,0.00942307,0.00569566,-0.0137128,0.664742,0.0115198,0.0141981,601,897,-20.9691,-2.78407
-616,127,-21.0236,2.57147,-0.00126793,-0.00368664,0.00671535,0.0043461,-0.00930066,0.696309,0.00805019,0.00983351,608,897,-21.0236,-2.57145
-609,127,-21.0599,2.29224,-0.000357599,-0.00180772,0.00439554,0.00337228,-0.0055376,0.703658,0.00519451,0.0138403,615,897,-21.06,-2.29222
-602,127,-21.0617,2.00946,-0.000201315,-0.00052763,0.0028907,0.00253083,-0.00325978,0.757207,0.00335203,0.0152828,622,897,-21.0617,-2.00949
-595,127,-21.0447,1.78986,-0.000496329,-0.000301538,0.00177564,0.00137938,-0.00217724,0.812796,0.00207057,0.0187484,629,897,-21.0447,-1.78988
-588,127,-21.1847,1.5155,-0.000472423,-0.000299025,0.00131232,0.000929453,-0.0017009,0.818383,0.00154025,0.0261,636,897,-21.1847,-1.51551
-581,127,-21.2676,1.13507,-0.000720891,-0.000228335,0.00059583,0.000170109,-0.00111934,0.981373,0.000808911,0.0432278,643,897,-21.2676,-1.13507
-574,127,-21.2629,0.824036,-0.000985069,-0.000527319,-0.00011396,-0.000500517,-0.00101187,-1.33981,0.000584215,0.037915,650,897,-21.2629,-0.824054
-567,127,-20.6213,0.434875,0,0,0,0,0,0,0,-1,657,897,-20.6213,-0.434857
-560,127,-18.9678,1.21667,0,0,0,0,0,0,0,-1,664,897,-18.9677,-1.2167
-553,127,-24.2041,0.963562,0,0,0,0,0,0,0,-1,671,897,-24.2041,-0.96356
-546,127,-24.191,0.957581,-0.000562071,-0.00110508,-0.00164695,0.0008356,-0.00250275,-0.703707,0.00200591,0.0233232,678,897,-24.191,-0.95757
-539,127,-24.1697,0.955688,-0.000530887,-0.00122444,-0.00201042,0.00116245,-0.00291778,-0.699994,0.00242729,0.0206976,685,897,-24.1698,-0.955707
-532,127,-24.1577,0.93512,-0.000525211,-0.00148785,-0.00227082,0.00131473,-0.0033278,-0.680964,0.00276308,0.0177602,692,897,-24.1577,-0.935122
-525,127,-24.1802,0.919128,-0.000507582,-0.00209446,-0.00241729,0.00124315,-0.0038452,-0.62682,0.00306312,0.0333297,699,897,-24.1802,-0.919148
-518,127,-24.2285,0.911194,2.78455e-05,-0.00328276,-0.00231854,0.00122135,-0.00447626,-0.475388,0.00346382,0.0417937,706,897,-24.2285,-0.911191
-511,127,-24.1551,0.548462,0.00122446,-0.00545716,-0.00200678,0.00178085,-0.00601355,-0.270462,0.00471609,0.0448054,713,897,-24.1551,-0.548484
-504,127,0,0,0,0,0,0,0,0,0,-1,720,897,0,0
-497,127,0,0,0,0,0,0,0,0,0,-1,727,897,0,0
-490,127,0,0,0,0,0,0,0,0,0,-1,734,897,0,0
-483,127,0,0,0,0,0,0,0,0,0,-1,741,897,0,0
-476,127,0,0,0,0,0,0,0,0,0,-1,748,897,0,0
-469,127,0,0,0,0,0,0,0,0,0,-1,755,897,0,0
-462,127,0,0,0,0,0,0,0,0,0,-1,762,897,0,0
-455,127,0,0,0,0,0,0,0,0,0,-1,769,897,0,0
-448,127,0,0,0,0,0,0,0,0,0,-1,776,897,0,0
-441,127,0,0,0,0,0,0,0,0,0,-1,783,897,0,0
-434,127,0,0,0,0,0,0,0,0,0,-1,790,897,0,0
-427,127,0,0,0,0,0,0,0,0,0,-1,797,897,0,0
-420,127,0,0,0,0,0,0,0,0,0,-1,804,897,0,0
-413,127,0,0,0,0,0,0,0,0,0,-1,811,897,0,0
-406,127,0,0,0,0,0,0,0,0,0,-1,818,897,0,0
-399,127,0,0,0,0,0,0,0,0,0,-1,825,897,0,0
-392,127,0,0,0,0,0,0,0,0,0,-1,832,897,0,0
-385,127,0,0,0,0,0,0,0,0,0,-1,839,897,0,0
-378,127,0,0,0,0,0,0,0,0,0,-1,846,897,0,0
-371,127,0,0,0,0,0,0,0,0,0,-1,853,897,0,0
-364,127,0,0,0,0,0,0,0,0,0,-1,860,897,0,0
-357,127,0,0,0,0,0,0,0,0,0,-1,867,897,0,0
-350,127,0,0,0,0,0,0,0,0,0,-1,874,897,0,0
-343,127,0,0,0,0,0,0,0,0,0,-1,881,897,0,0
-336,127,0,0,0,0,0,0,0,0,0,-1,888,897,0,0
-329,127,0,0,0,0,0,0,0,0,0,-1,895,897,0,0
-322,127,0,0,0,0,0,0,0,0,0,-1,902,897,0,0
-315,127,0,0,0,0,0,0,0,0,0,-1,909,897,0,0
-308,127,0,0,0,0,0,0,0,0,0,-1,916,897,0,0
-301,127,0,0,0,0,0,0,0,0,0,-1,923,897,0,0
-294,127,0,0,0,0,0,0,0,0,0,-1,930,897,0,0
-287,127,0,0,0,0,0,0,0,0,0,-1,937,897,0,0
-280,127,0,0,0,0,0,0,0,0,0,-1,944,897,0,0
-273,127,0,0,0,0,0,0,0,0,0,-1,951,897,0,0
-266,127,0,0,0,0,0,0,0,0,0,-1,958,897,0,0
-259,127,0,0,0,0,0,0,0,0,0,-1,965,897,0,0
-252,127,0,0,0,0,0,0,0,0,0,-1,972,897,0,0
-245,127,0,0,0,0,0,0,0,0,0,-1,979,897,0,0
-238,127,0,0,0,0,0,0,0,0,0,-1,986,897,0,0
-231,127,0,0,0,0,0,0,0,0,0,-1,993,897,0,0
-224,127,0,0,0,0,0,0,0,0,0,-1,1000,897,0,0
-217,127,0,0,0,0,0,0,0,0,0,-1,1007,897,0,0
-210,127,0,0,0,0,0,0,0,0,0,-1,1014,897,0,0
-203,127,0,0,0,0,0,0,0,0,0,-1,1021,897,0,0
-196,127,0,0,0,0,0,0,0,0,0,-1,1028,897,0,0
-189,127,0,0,0,0,0,0,0,0,0,-1,1035,897,0,0
-182,127,0,0,0,0,0,0,0,0,0,-1,1042,897,0,0
-175,127,0,0,0,0,0,0,0,0,0,-1,1049,897,0,0
-168,127,0,0,0,0,0,0,0,0,0,-1,1056,897,0,0
-161,127,0,0,0,0,0,0,0,0,0,-1,1063,897,0,0
-154,127,0,0,0,0,0,0,0,0,0,-1,1070,897,0,0
-147,127,0,0,0,0,0,0,0,0,0,-1,1077,897,0,0
-140,127,0,0,0,0,0,0,0,0,0,-1,1084,897,0,0
-133,127,0,0,0,0,0,0,0,0,0,-1,1091,897,0,0
-126,127,0,0,0,0,0,0,0,0,0,-1,1098,897,0,0
-119,127,0,0,0,0,0,0,0,0,0,-1,1105,897,0,0
-112,127,0,0,0,0,0,0,0,0,0,-1,1112,897,0,0
-105,127,0,0,0,0,0,0,0,0,0,-1,1119,897,0,0
-98,127,0,0,0,0,0,0,0,0,0,-1,1126,897,0,0
-91,127,0,0,0,0,0,0,0,0,0,-1,1133,897,0,0
-84,127,0,0,0,0,0,0,0,0,0,-1,1140,897,0,0
-77,127,0,0,0,0,0,0,0,0,0,-1,1147,897,0,0
-70,127,0,0,0,0,0,0,0,0,0,-1,1154,897,0,0
-63,127,0,0,0,0,0,0,0,0,0,-1,1161,897,0,0
-56,127,0,0,0,0,0,0,0,0,0,-1,1168,897,0,0
-49,127,0,0,0,0,0,0,0,0,0,-1,1175,897,0,0
-42,127,0,0,0,0,0,0,0,0,0,-1,1182,897,0,0
-35,127,0,0,0,0,0,0,0,0,0,-1,1189,897,0,0
-28,127,0,0,0,0,0,0,0,0,0,-1,1196,897,0,0
-21,127,0,0,0,0,0,0,0,0,0,-1,1203,897,0,0
-14,127,0,0,0,0,0,0,0,0,0,-1,1210,897,0,0
-7,127,0,0,0,0,0,0,0,0,0,-1,1217,897,0,0
0,127,0,0,0,0,0,0,0,0,0,-1,1224,897,0,0
7,127,0,0,0,0,0,0,0,0,0,-1,1231,897,0,0
14,127,0,0,0,0,0,0,0,0,0,-1,1238,897,0,0
21,127,0,0,0,0,0,0,0,0,0,-1,1245,897,0,0
28,127,0,0,0,0,0,0,0,0,0,-1,1252,897,0,0
35,127,0,0,0,0,0,0,0,0,0,-1,1259,897,0,0
42,127,0,0,0,0,0,0,0,0,0,-1,1266,897,0,0
49,127,0,0,0,0,0,0,0,0,0,-1,1273,897,0,0
56,127,0,0,0,0,0,0,0,0,0,-1,1280,897,0,0
63,127,0,0,0,0,0,0,0,0,0,-1,1287,897,0,0
70,127,0,0,0,0,0,0,0,0,0,-1,1294,897,0,0
77,127,0,0,0,0,0,0,0,0,0,-1,1301,897,0,0
84,127,0,0,0,0,0,0,0,0,0,-1,1308,897,0,0
91,127,0,0,0,0,0,0,0,0,0,-1,1315,897,0,0
98,127,0,0,0,0,0,0,0,0,0,-1,1322,897,0,0
105,127,0,0,0,0,0,0,0,0,0,-1,1329,897,0,0
112,127,0,0,0,0,0,0,0,0,0,-1,1336,897,0,0
119,127,0,0,0,0,0,0,0,0,0,-1,1343,897,0,0
126,127,0,0,0,0,0,0,0,0,0,-1,1350,897,0,0
133,127,0,0,0,0,0,0,0,0,0,-1,1357,897,0,0
140,127,0,0,0,0,0,0,0,0,0,-1,1364,897,0,0
147,127,0,0,0,0,0,0,0,0,0,-1,1371,897,0,0
154,127,0,0,0,0,0,0,0,0,0,-1,1378,897,0,0
161,127,0,0,0,0,0,0,0,0,0,-1,1385,897,0,0
168,127,0,0,0,0,0,0,0,0,0,-1,1392,897,0,0
175,127,0,0,0,0,0,0,0,0,0,-1,1399,897,0,0
182,127,0,0,0,0,0,0,0,0,0,-1,1406,897,0,0
189,127,0,0,0,0,0,0,0,0,0,-1,1413,897,0,0
196,127,0,0,0,0,0,0,0,0,0,-1,1420,897,0,0
203,127,0,0,0,0,0,0,0,0,0,-1,1427,897,0,0
210,127,0,0,0,0,0,0,0,0,0,-1,1434,897,0,0
217,127,0,0,0,0,0,0,0,0,0,-1,1441,897,0,0
224,127,0,0,0,0,0,0,0,0,0,-1,1448,897,0,0
231,127,0,0,0,0,0,0,0,0,0,-1,1455,897,0,0
238,127,0,0,0,0,0,0,0,0,0,-1,1462,897,0,0
245,127,0,0,0,0,0,0,0,0,0,-1,1469,897,0,0
252,127,0,0,0,0,0,0,0,0,0,-1,1476,897,0,0
259,127,0,0,0,0,0,0,0,0,0,-1,1483,897,0,0
266,127,0,0,0,0,0,0,0,0,0,-1,1490,897,0,0
273,127,0,0,0,0,0,0,0,0,0,-1,1497,897,0,0
280,127,0,0,0,0,0,0,0,0,0,-1,1504,897,0,0
287,127,0,0,0,0,0,0,0,0,0,-1,1511,897,0,0
294,127,0,0,0,0,0,0,0,0,0,-1,1518,897,0,0
301,127,0,0,0,0,0,0,0,0,0,-1,1525,897,0,0
308,127,0,0,0,0,0,0,0,0,0,-1,1532,897,0,0
315,127,0,0,0,0,0,0,0,0,0,-1,1539,897,0,0
322,127,0,0,0,0,0,0,0,0,0,-1,1546,897,0,0
329,127,0,0,0,0,0,0,0,0,0,-1,1553,897,0,0
336,127,0,0,0,0,0,0,0,0,0,-1,1560,897,0,0
343,127,0,0,0,0,0,0,0,0,0,-1,1567,897,0,0
350,127,0,0,0,0,0,0,0,0,0,-1,1574,897,0,0
357,127,0,0,0,0,0,0,0,0,0,-1,1581,897,0,0
364,127,0,0,0,0,0,0,0,0,0,-1,1588,897,0,0
371,127,0,0,0,0,0,0,0,0,0,-1,1595,897,0,0
378,127,0,0,0,0,0,0,0,0,0,-1,1602,897,0,0
385,127,0,0,0,0,0,0,0,0,0,-1,1609,897,0,0
392,127,0,0,0,0,0,0,0,0,0,-1,1616,897,0,0
399,127,0,0,0,0,0,0,0,0,0,-1,1623,897,0,0
406,127,0,0,0,0,0,0,0,0,0,-1,1630,897,0,0
413,127,0,0,0,0,0,0,0,0,0,-1,1637,897,0,0
420,127,0,0,0,0,0,0,0,0,0,-1,1644,897,0,0
427,127,0,0,0,0,0,0,0,0,0,-1,1651,897,0,0
434,127,0,0,0,0,0,0,0,0,0,-1,1658,897,0,0
441,127,0,0,0,0,0,0,0,0,0,-1,1665,897,0,0
448,127,0,0,0,0,0,0,0,0,0,-1,1672,897,0,0
455,127,0,0,0,0,0,0,0,0,0,-1,1679,897,0,0
462,127,0,0,0,0,0,0,0,0,0,-1,1686,897,0,0
469,127,0,0,0,0,0,0,0,0,0,-1,1693,897,0,0
476,127,0,0,0,0,0,0,0,0,0,-1,1700,897,0,0
483,127,0,0,0,0,0,0,0,0,0,-1,1707,897,0,0
490,127,0,0,0,0,0,0,0,0,0,-1,1714,897,0,0
497,127,0,0,0,0,0,0,0,0,0,-1,1721,897,0,0
504,127,0,0,0,0,0,0,0,0,0,-1,1728,897,0,0
511,127,0,0,0,0,0,0,0,0,0,-1,1735,897,0,0
518,127,0,0,0,0,0,0,0,0,0,-1,1742,897,0,0
525,127,0,0,0,0,0,0,0,0,0,-1,1749,897,0,0
532,127,0,0,0,0,0,0,0,0,0,-1,1756,897,0,0
539,127,0,0,0,0,0,0,0,0,0,-1,1763,897,0,0
546,127,0,0,0,0,0,0,0,0,0,-1,1770,897,0,0
553,127,0,0,0,0,0,0,0,0,0,-1,1777,897,0,0
560,127,0,0,0,0,0,0,0,0,0,-1,1784,897,0,0
567,127,0,0,0,0,0,0,0,0,0,-1,1791,897,0,0
574,127,0,0,0,0,0,0,0,0,0,-1,1798,897,0,0
581,127,0,0,0,0,0,0,0,0,0,-1,1805,897,0,0
588,127,0,0,0,0,0,0,0,0,0,-1,1812,897,0,0
595,127,0,0,0,0,0,0,0,0,0,-1,1819,897,0,0
602,127,0,0,0,0,0,0,0,0,0,-1,1826,897,0,0
609,127,0,0,0,0,0,0,0,0,0,-1,1833,897,0,0
616,127,0,0,0,0,0,0,0,0,0,-1,1840,897,0,0
623,127,0,0,0,0,0,0,0,0,0,-1,1847,897,0,0
630,127,33.6818,3.05408,0.00873922,0.00456778,-0.00216466,0.00965949,0.00364751,-0.401984,0.00563233,0.0424364,1854,897,33.6817,-3.05408
637,127,33.9207,3.11676,0.00591046,0.00348277,-0.00149427,0.00662178,0.00277145,-0.444291,0.00383996,0.0426003,1861,897,33.9206,-3.11677
644,127,34.0541,2.98645,0.00362256,0.0024438,-0.00103835,0.00422714,0.00183922,-0.527265,0.00244738,0.0422229,1868,897,34.0541,-2.98647
651,127,33.7887,2.88458,0.0020933,0.00161109,-0.000777539,0.00266626,0.00103813,-0.635057,0.00155188,0.0449004,1875,897,33.7887,-2.88455
658,127,33.6786,2.94452,0.00124026,0.00103837,-0.000609461,0.00175708,0.000521551,-0.703329,0.00104199,0.0436987,1882,897,33.6786,-2.94454
665,127,33.7145,2.84125,0.000897532,0.000667525,-0.000511746,0.00130704,0.000258019,-0.67487,0.000799355,0.0392572,1889,897,33.7144,-2.84124
672,127,33.7192,2.7691,0.000856191,0.000416152,-0.000355558,0.0010543,0.000218045,-0.508333,0.000642635,0.031165,1896,897,33.7193,-2.76909
679,127,33.7729,2.79999,0.000884828,0.000203019,-0.000291192,0.000992263,9.55834e-05,-0.353456,0.000632061,0.0228596,1903,897,33.7729,-2.80002
686,127,33.7635,2.78473,0.000736229,-6.2956e-05,-0.000335783,0.000858579,-0.000185306,-0.349422,0.000643116,0.0351268,1910,897,33.7635,-2.7847
693,127,33.6906,2.71765,0,0,0,0,0,0,0,-1,1917,897,33.6906,-2.71767
700,127,29.4852,2.84802,0,0,0,0,0,0,0,-1,1924,897,29.4853,-2.84803
707,127,29.4388,3.20844,0.00107442,-7.54222e-05,-0.000456611,0.00123369,-0.000234686,-0.335601,0.000910822,0.0266527,1931,897,29.4388,-3.20843
714,127,29.5706,3.57709,0.00130871,0.000119731,-0.000640625,0.00158819,-0.000159745,-0.411366,0.00111586,0.0220848,1938,897,29.5705,-3.57712
721,127,29.7584,4.04889,0.00166715,0.000452696,-0.000587962,0.00190516,0.000214687,-0.384641,0.00120493,0.0152823,1945,897,29.7584,-4.04888
728,127,29.7286,4.32532,0.0018305,0.000756665,-0.000463787,0.00200307,0.00058409,-0.356225,0.00118949,0.0138929,1952,897,29.7286,-4.32533
735,127,29.7245,4.65222,0.00240246,0.0012757,-0.0002202,0.00244396,0.0012342,-0.1863,0.00141105,0.0207063,1959,897,29.7245,-4.65224
742,127,29.7036,4.95734,0.00328299,0.00198151,5.13637e-05,0.00328502,0.00197949,0.0393839,0.00190986,0.0179243,1966,897,29.7036,-4.95731
749,127,29.6761,5.23627,0.00488246,0.00282533,0.00048574,0.00499139,0.0027164,0.220601,0.00288553,0.0123932,1973,897,29.6762,-5.23624
756,127,29.6582,5.51904,0.00710142,0.00367909,0.00126702,0.00751944,0.00326107,0.318678,0.00435406,0.0144017,1980,897,29.6582,-5.51902
763,127,29.6509,5.80157,0.0100887,0.0044437,0.00238631,0.0109622,0.00357011,0.350928,0.006456,0.0237177,1987,897,29.6509,-5.80159
770,127,30.4058,6.02734,0.0139877,0.005085,0.0038485,0.0154207,0.003652,0.356447,0.00930514,0.0476641,1994,897,30.4057,-6.02733
777,127,31.3407,6.36176,0,0,0,0,0,0,0,-1,2001,897,31.3407,-6.36176
784,127,30.8353,5.90186,0,0,0,0,0,0,0,-1,2008,897,30.8353,-5.90185
791,127,30.5887,6.44751,0,0,0,0,0,0,0,-1,2015,897,30.5887,-6.44751
798,127,0,0,0,0,0,0,0,0,0,-1,2022,897,0,0
805,127,0,0,0,0,0,0,0,0,0,-1,2029,897,0,0
812,127,0,0,0,0,0,0,0,0,0,-1,2036,897,0,0
-700,120,0,0,0,0,0,0,0,0,0,-1,524,904,0,0
-693,120,0,0,0,0,0,0,0,0,0,-1,531,904,0,0
-686,120,0,0,0,0,0,0,0,0,0,-1,538,904,0,0
-679,120,-21.9791,3.24988,0,0,0,0,0,0,0,-1,545,904,-21.979,-3.24985
-672,120,-21.9971,3.30048,0,0,0,0,0,0,0,-1,552,904,-21.9971,-3.30046
-665,120,-22.0357,3.34845,-0.0146792,-0.0210561,0.0299192,0.0122209,-0.0479562,0.732314,0.0367286,0.0417336,559,904,-22.0357,-3.34842
-658,120,-22.2199,3.48883,-0.0118595,-0.0220591,0.0247736,0.00833382,-0.0422524,0.683888,0.031318,0.0450461,566,904,-22.2199,-3.48885
-651,120,-21.952,3.06689,0,0,0,0,0,0,0,-1,573,904,-21.952,-3.06688
-644,120,-21.6511,2.46265,-0.00668526,-0.01679,0.0162646,0.00529362,-0.0287689,0.634805,0.0211656,0.0438458,580,904,-21.6511,-2.46264
-637,120,-22.0505,1.8501,-0.00479581,-0.0131731,0.0128676,0.00454771,-0.0225166,0.628048,0.0167342,0.0413593,587,904,-22.0505,-1.8501
-630,120,-21.2546,2.95996,-0.00351033,-0.0117513,0.0101823,0.00335358,-0.0186152,0.593134,0.0136659,0.0245482,594,904,-21.2546,-2.95995
-623,120,-21.3199,2.78729,-0.00252773,-0.00728015,0.00741608,0.00288352,-0.0126914,0.630359,0.00956806,0.011173,601,904,-21.3199,-2.78726
-616,120,-21.3264,2.54651,-0.0019858,-0.0041922,0.00525251,0.00227811,-0.00845611,0.681886,0.00653059,0.0101707,608,904,-21.3264,-2.54654
-609,120,-21.3389,2.28241,-0.00108903,-0.00207058,0.00350383,0.00195823,-0.00511784,0.715817,0.00421895,0.0132065,615,904,-21.3389,-2.2824
-602,120,-21.3527,2.00958,-0.000909522,-0.00072955,0.00247813,0.00166023,-0.0032993,0.803546,0.00291504,0.0140098,622,904,-21.3527,-2.00956
-595,120,-21.3182,1.77484,-0.00108194,-0.000446224,0.00171608,0.000981192,-0.00250935,0.876971,0.00207865,0.0213657,629,904,-21.3183,-1.77487
-588,120,-21.3558,1.48859,-0.000971855,-0.000362353,0.00133866,0.000705809,-0.00204002,0.897317,0.0016465,0.0303009,636,904,-21.3558,-1.48861
-581,120,-21.528,1.20026,-0.00122195,-0.000282589,0.000676656,7.142e-05,-0.00157595,1.08878,0.00107523,0.0410778,643,904,-21.528,-1.20024
-574,120,-21.4108,0.83551,-0.00142972,-0.00054182,-1.26411e-05,-0.00054164,-0.0014299,-1.55656,0.000833597,0.0306286,650,904,-21.4108,-0.835521
-567,120,-21.1992,0.145386,0,0,0,0,0,0,0,-1,657,904,-21.1992,-0.14536
-560,120,-24.1983,0.978943,0,0,0,0,0,0,0,-1,664,904,-24.1983,-0.978965
-553,120,-24.1862,1.01959,-0.000888383,-0.00102556,-0.00116283,0.000207874,-0.00212182,-0.755939,0.00148868,0.0448289,671,904,-24.1861,-1.01958
-546,120,-24.139,1.03394,-0.000772692,-0.00109585,-0.00151407,0.000588399,-0.00245695,-0.73224,0.00186529,0.0331644,678,904,-24.139,-1.03394
-539,120,-24.1057,1.0318,-0.000636855,-0.00120781,-0.0019128,0.00101166,-0.00285632,-0.711323,0.00231628,0.0254214,685,904,-24.1056,-1.0318
-532,120,-24.1392,1.05896,-0.000533835,-0.00147564,-0.00224601,0.00129011,-0.00329958,-0.682064,0.00273321,0.0261017,692,904,-24.1392,-1.05895
-525,120,-24.2272,1.01013,-0.000391271,-0.00211023,-0.00254233,0.00143293,-0.00393443,-0.622396,0.00320907,0.0343038,699,904,-24.2272,-1.01011
-518,120,-24.2515,0.853699,0.000113368,-0.00334452,-0.00269716,0.00158816,-0.0048193,-0.500379,0.00385295,0.0396504,706,904,-24.2515,-0.85369
-511,120,-24.2598,0.753784,0.00115132,-0.00546082,-0.00275322,0.00214762,-0.00645711,-0.347206,0.00517146,0.040443,713,904,-24.2597,-0.753764
-504,120,0,0,0,0,0,0,0,0,0,-1,720,904,0,0
-497,120,0,0,0,0,0,0,0,0,0,-1,727,904,0,0
-490,120,0,0,0,0,0,0,0,0,0,-1,734,904,0,0
-483,120,0,0,0,0,0,0,0,0,0,-1,741,904,0,0
-476,120,0,0,0,0,0,0,0,0,0,-1,748,904,0,0
-469,120,0,0,0,0,0,0,0,0,0,-1,755,904,0,0
-462,120,0,0,0,0,0,0,0,0,0,-1,762,904,0,0
-455,120,0,0,0,0,0,0,0,0,0,-1,769,904,0,0
-448,120,0,0,0,0,0,0,0,0,0,-1,776,904,0,0
-441,120,0,0,0,0,0,0,0,0,0,-1,783,904,0,0
-434,120,0,0,0,0,0,0,0,0,0,-1,790,904,0,0
-427,120,0,0,0,0,0,0,0,0,0,-1,797,904,0,0
-420,120,0,0,0,0,0,0,0,0,0,-1,804,904,0,0
-413,120,0,0,0,0,0,0,0,0,0,-1,811,904,0,0
-406,120,0,0,0,0,0,0,0,0,0,-1,818,904,0,0
-399,120,0,0,0,0,0,0,0,0,0,-1,825,904,0,0
-392,120,0,0,0,0,0,0,0,0,0,-1,832,904,0,0
-385,120,0,0,0,0,0,0,0,0,0,-1,839,904,0,0
-378,120,0,0,0,0,0,0,0,0,0,-1,846,904,0,0
-371,120,0,0,0,0,0,0,0,0,0,-1,853,904,0,0
-364,120,0,0,0,0,0,0,0,0,0,-1,860,904,0,0
-357,120,0,0,0,0,0,0,0,0,0,-1,867,904,0,0
-350,120,0,0,0,0,0,0,0,0,0,-1,874,904,0,0
-343,120,0,0,0,0,0,0,0,0,0,-1,881,904,0,0
-336,120,0,0,0,0,0,0,0,0,0,-1,888,904,0,0
-329,120,0,0,0,0,0,0,0,0,0,-1,895,904,0,0
-322,120,0,0,0,0,0,0,0,0,0,-1,902,904,0,0
-315,120,0,0,0,0,0,0,0,0,0,-1,909,904,0,0
-308,120,0,0,0,0,0,0,0,0,0,-1,916,904,0,0
-301,120,0,0,0,0,0,0,0,0,0,-1,923,904,0,0
-294,120,0,0,0,0,0,0,0,0,0,-1,930,904,0,0
-287,120,0,0,0,0,0,0,0,0,0,-1,937,904,0,0
-280,120,0,0,0,0,0,0,0,0,0,-1,944,904,0,0
-273,120,0,0,0,0,0,0,0,0,0,-1,951,904,0,0
-266,120,0,0,0,0,0,0,0,0,0,-1,958,904,0,0
-259,120,0,0,0,0,0,0,0,0,0,-1,965,904,0,0
-252,120,0,0,0,0,0,0,0,0,0,-1,972,904,0,0
-245,120,0,0,0,0,0,0,0,0,0,-1,979,904,0,0
-238,120,0,0,0,0,0,0,0,0,0,-1,986,904,0,0
-231,120,0,0,0,0,0,0,0,0,0,-1,993,904,0,0
-224,120,0,0,0,0,0,0,0,0,0,-1,1000,904,0,0
-217,120,0,0,0,0,0,0,0,0,0,-1,1007,904,0,0
-210,120,0,0,0,0,0,0,0,0,0,-1,1014,904,0,0
-203,120,0,0,0,0,0,0,0,0,0,-1,1021,904,0,0
-196,120,0,0,0,0,0,0,0,0,0,-1,1028,904,0,0
-189,120,0,0,0,0,0,0,0,0,0,-1,1035,904,0,0
-182,120,0,0,0,0,0,0,0,0,0,-1,1042,904,0,0
-175,120,0,0,0,0,0,0,0,0,0,-1,1049,904,0,0
-168,120,0,0,0,0,0,0,0,0,0,-1,1056,904,0,0
-161,120,0,0,0,0,0,0,0,0,0,-1,1063,904,0,0
-154,120,0,0,0,0,0,0,0,0,0,-1,1070,904,0,0
-147,120,0,0,0,0,0,0,0,0,0,-1,1077,904,0,0
-140,120,0,0,0,0,0,0,0,0,0,-1,1084,904,0,0
-133,120,0,0,0,0,0,0,0,0,0,-1,1091,904,0,0
-126,120,0,0,0,0,0,0,0,0,0,-1,1098,904,0,0
-119,120,0,0,0,0,0,0,0,0,0,-1,1105,904,0,0
-112,120,0,0,0,0,0,0,0,0,0,-1,1112,904,0,0
-105,120,0,0,0,0,0,0,0,0,0,-1,1119,904,0,0
-98,120,0,0,0,0,0,0,0,0,0,-1,1126,904,0,0
-91,120,0,0,0,0,0,0,0,0,0,-1,1133,904,0,0
-84,120,0,0,0,0,0,0,0,0,0,-1,1140,904,0,0
-77,120,0,0,0,0,0,0,0,0,0,-1,1147,904,0,0
-70,120,0,0,0,0,0,0,0,0,0,-1,1154,904,0,0
-63,120,0,0,0,0,0,0,0,0,0,-1,1161,904,0,0
-56,120,0,0,0,0,0,0,0,0,0,-1,1168,904,0,0
-49,120,0,0,0,0,0,0,0,0,0,-1,1175,904,0,0
-42,120,0,0,0,0,0,0,0,0,0,-1,1182,904,0,0
-35,120,0,0,0,0,0,0,0,0,0,-1,1189,904,0,0
-28,120,0,0,0,0,0,0,0,0,0,-1,1196,904,0,0
-21,120,0,0,0,0,0,0,0,0,0,-1,1203,904,0,0
-14,120,0,0,0,0,0,0,0,0,0,-1,1210,904,0,0
-7,120,0,0,0,0,0,0,0,0,0,-1,1217,904,0,0
0,120,0,0,0,0,0,0,0,0,0,-1,1224,904,0,0
7,120,0,0,0,0,0,0,0,0,0,-1,1231,904,0,0
14,120,0,0,0,0,0,0,0,0,0,-1,1238,904,0,0
21,120,0,0,0,0,0,0,0,0,0,-1,1245,904,0,0
28,120,0,0,0,0,0,0,0,0,0,-1,1252,904,0,0
35,120,0,0,0,0,0,0,0,0,0,-1,1259,904,0,0
42,120,0,0,0,0,0,0,0,0,0,-1,1266,904,0,0
49,120,0,0,0,0,0,0,0,0,0,-1,1273,904,0,0
56,120,0,0,0,0,0,0,0,0,0,-1,1280,904,0,0
63,120,0,0,0,0,0,0,0,0,0,-1,1287,904,0,0
70,120,0,0,0,0,0,0,0,0,0,-1,1294,904,0,0
77,120,0,0,0,0,0,0,0,0,0,-1,1301,904,0,0
84,120,0,0,0,0,0,0,0,0,0,-1,1308,904,0,0
91,120,0,0,0,0,0,0,0,0,0,-1,1315,904,0,0
98,120,0,0,0,0,0,0,0,0,0,-1,1322,904,0,0
105,120,0,0,0,0,0,0,0,0,0,-1,1329,904,0,0
112,120,0,0,0,0,0,0,0,0,0,-1,1336,904,0,0
119,120,0,0,0,0,0,0,0,0,0,-1,1343,904,0,0
126,120,0,0,0,0,0,0,0,0,0,-1,1350,904,0,0
133,120,0,0,0,0,0,0,0,0,0,-1,1357,904,0,0
140,120,0,0,0,0,0,0,0,0,0,-1,1364,904,0,0
147,120,0,0,0,0,0,0,0,0,0,-1,1371,904,0,0
154,120,0,0,0,0,0,0,0,0,0,-1,1378,904,0,0
161,120,0,0,0,0,0,0,0,0,0,-1,1385,904,0,0
168,120,0,0,0,0,0,0,0,0,0,-1,1392,904,0,0
175,120,0,0,0,0,0,0,0,0,0,-1,1399,904,0,0
182,120,0,0,0,0,0,0,0,0,0,-1,1406,904,0,0
189,120,0,0,0,0,0,0,0,0,0,-1,1413,904,0,0
196,120,0,0,0,0,0,0,0,0,0,-1,1420,904,0,0
203,120,0,0,0,0,0,0,0,0,0,-1,1427,904,0,0
210,120,0,0,0,0,0,0,0,0,0,-1,1434,904,0,0
217,120,0,0,0,0,0,0,0,0,0,-1,1441,904,0,0
224,120,0,0,0,0,0,0,0,0,0,-1,1448,904,0,0
231,120,0,0,0,0,0,0,0,0,0,-1,1455,904,0,0
238,120,0,0,0,0,0,0,0,0,0,-1,1462,904,0,0
245,120,0,0,0,0,0,0,0,0,0,-1,1469,904,0,0
252,120,0,0,0,0,0,0,0,0,0,-1,1476,904,0,0
259,120,0,0,0,0,0,0,0,0,0,-1,1483,904,0,0
266,120,0,0,0,0,0,0,0,0,0,-1,1490,904,0,0
273,120,0,0,0,0,0,0,0,0,0,-1,1497,904,0,0
280,120,0,0,0,0,0,0,0,0,0,-1,1504,904,0,0
287,120,0,0,0,0,0,0,0,0,0,-1,1511,904,0,0
294,120,0,0,0,0,0,0,0,0,0,-1,1518,904,0,0
301,120,0,0,0,0,0,0,0,0,0,-1,1525,904,0,0
308,120,0,0,0,0,0,0,0,0,0,-1,1532,904,0,0
315,120,0,0,0,0,0,0,0,0,0,-1,1539,904,0,0
322,120,0,0,0,0,0,0,0,0,0,-1,1546,904,0,0
329,120,0,0,0,0,0,0,0,0,0,-1,1553,904,0,0
336,120,0,0,0,0,0,0,0,0,0,-1,1560,904,0,0
343,120,0,0,0,0,0,0,0,0,0,-1,1567,904,0,0
350,120,0,0,0,0,0,0,0,0,0,-1,1574,904,0,0
357,120,0,0,0,0,0,0,0,0,0,-1,1581,904,0,0
364,120,0,0,0,0,0,0,0,0,0,-1,1588,904,0,0
371,120,0,0,0,0,0,0,0,0,0,-1,1595,904,0,0
378,120,0,0,0,0,0,0,0,0,0,-1,1602,904,0,0
385,120,0,0,0,0,0,0,0,0,0,-1,1609,904,0,0
392,120,0,0,0,0,0,0,0,0,0,-1,1616,904,0,0
399,120,0,0,0,0,0,0,0,0,0,-1,1623,904,0,0
406,120,0,0,0,0,0,0,0,0,0,-1,1630,904,0,0
413,120,0,0,0,0,0,0,0,0,0,-1,1637,904,0,0
420,120,0,0,0,0,0,0,0,0,0,-1,1644,904,0,0
427,120,0,0,0,0,0,0,0,0,0,-1,1651,904,0,0
434,120,0,0,0,0,0,0,0,0,0,-1,1658,904,0,0
441,120,0,0,0,0,0,0,0,0,0,-1,1665,904,0,0
448,120,0,0,0,0,0,0,0,0,0,-1,1672,904,0,0
455,120,0,0,0,0,0,0,0,0,0,-1,1679,904,0,0
462,120,0,0,0,0,0,0,0,0,0,-1,1686,904,0,0
469,120,0,0,0,0,0,0,0,0,0,-1,1693,904,0,0
476,120,0,0,0,0,0,0,0,0,0,-1,1700,904,0,0
483,120,0,0,0,0,0,0,0,0,0,-1,1707,904,0,0
490,120,0,0,0,0,0,0,0,0,0,-1,1714,904,0,0
497,120,0,0,0,0,0,0,0,0,0,-1,1721,904,0,0
504,120,0,0,0,0,0,0,0,0,0,-1,1728,904,0,0
511,120,0,0,0,0,0,0,0,0,0,-1,1735,904,0,0
518,120,0,0,0,0,0,0,0,0,0,-1,1742,904,0,0
525,120,0,0,0,0,0,0,0,0,0,-1,1749,904,0,0
532,120,0,0,0,0,0,0,0,0,0,-1,1756,904,0,0
539,120,0,0,0,0,0,0,0,0,0,-1,1763,904,0,0
546,120,0,0,0,0,0,0,0,0,0,-1,1770,904,0,0
553,120,0,0,0,0,0,0,0,0,0,-1,1777,904,0,0
560,120,0,0,0,0,0,0,0,0,0,-1,1784,904,0,0
567,120,0,0,0,0,0,0,0,0,0,-1,1791,904,0,0
574,120,0,0,0,0,0,0,0,0,0,-1,1798,904,0,0
581,120,0,0,0,0,0,0,0,0,0,-1,1805,904,0,0
588,120,0,0,0,0,0,0,0,0,0,-1,1812,904,0,0
595,120,0,0,0,0,0,0,0,0,0,-1,1819,904,0,0
602,120,0,0,0,0,0,0,0,0,0,-1,1826,904,0,0
609,120,0,0,0,0,0,0,0,0,0,-1,1833,904,0,0
616,120,0,0,0,0,0,0,0,0,0,-1,1840,904,0,0
623,120,0,0,0,0,0,0,0,0,0,-1,1847,904,0,0
630,120,33.6571,2.8764,0.0090489,0.00774188,-0.00170011,0.0102168,0.006574,-0.601907,0.00597903,0.0397644,1854,904,33.6571,-2.87638
637,120,33.8333,2.83551,0.00613676,0.00577288,-0.00115731,0.00712634,0.00478329,-0.707432,0.00419403,0.0430976,1861,904,33.8332,-2.83549
644,120,33.8593,2.80676,0.00380497,0.00409271,-0.000779822,0.00474182,0.00315586,-0.876616,0.00278726,0.043569,1868,904,33.8593,-2.80674
651,120,33.61,3.00073,0.00227836,0.00273449,-0.000603561,0.00315164,0.00186121,-0.96604,0.00182952,0.0442872,1875,904,33.6099,-3.00075
658,120,33.5936,2.97266,0.00138834,0.00176288,-0.000487363,0.00209772,0.00105351,-0.968828,0.00121112,0.0427,1882,904,33.5937,-2.97266
665,120,33.6377,2.83673,0.00103511,0.00110241,-0.000422823,0.00149292,0.000644598,-0.825104,0.000864607,0.0395899,1889,904,33.6377,-2.8367
672,120,33.6973,2.70563,0.00101811,0.000649329,-0.000297491,0.00118372,0.000483718,-0.507967,0.000687213,0.0362916,1896,904,33.6972,-2.70564
679,120,33.7369,2.73108,0.00107983,0.000294497,-0.000235534,0.00114506,0.000229274,-0.270147,0.000699583,0.0294167,1903,904,33.737,-2.7311
686,120,33.7349,2.83539,0.000944159,-3.31407e-05,-0.000277916,0.00101766,-0.000106644,-0.258559,0.000716639,0.020462,1910,904,33.7348,-2.83539
693,120,33.776,2.76642,0,0,0,0,0,0,0,-1,1917,904,33.776,-2.76642
700,120,29.9836,3.12158,0,0,0,0,0,0,0,-1,1924,904,29.9836,-3.12158
707,120,29.905,3.41626,0.00103166,-0.000184458,-0.000401344,0.00115217,-0.000304968,-0.291701,0.000887411,0.0299936,1931,904,29.905,-3.41624
714,120,30.0594,3.80933,0.00121314,-6.62065e-06,-0.000601578,0.00145991,-0.00025339,-0.389271,0.00106781,0.0187913,1938,904,30.0595,-3.8093
721,120,30.0682,4.08374,0.00148926,0.000355055,-0.000534431,0.0017014,0.000142913,-0.377873,0.00108976,0.0141797,1945,904,30.0682,-4.08372
728,120,30.0408,4.38043,0.00154653,0.000649009,-0.00038087,0.00168637,0.000509172,-0.351874,0.000998764,0.0103638,1952,904,30.0408,-4.38041
735,120,30.0181,4.65265,0.00199696,0.00115751,-8.17491e-05,0.00200484,0.00114963,-0.0961809,0.00116165,0.0128418,1959,904,30.0181,-4.65265
742,120,29.9999,4.95203,0.00269603,0.00185154,0.000241109,0.00276002,0.00178755,0.259418,0.00161649,0.0139017,1966,904,29.9999,-4.95205
749,120,29.9863,5.22943,0.0040714,0.00272114,0.000761154,0.0044137,0.00237884,0.422609,0.00255083,0.0106897,1973,904,29.9863,-5.22942
756,120,29.9559,5.49799,0.00608564,0.00359989,0.00163252,0.00689456,0.00279097,0.460043,0.00400455,0.013646,1980,904,29.956,-5.49796
763,120,29.8999,5.77142,0.00877546,0.00442476,0.00282498,0.0101656,0.00303463,0.457295,0.00602585,0.0272413,1987,904,29.8999,-5.77145
770,120,30.1788,5.82953,0.0122629,0.0051378,0.00432248,0.0143017,0.00309895,0.440739,0.00868773,0.0479194,1994,904,30.1788,-5.82952
777,120,30.678,5.77515,0,0,0,0,0,0,0,-1,2001,904,30.678,-5.77513
784,120,28.2545,3.00208,0,0,0,0,0,0,0,-1,2008,904,28.2545,-3.00207
791,120,30.959,6.34747,0,0,0,0,0,0,0,-1,2015,904,30.9589,-6.34746
798,120,26.4365,4.82922,0,0,0,0,0,0,0,-1,2022,904,26.4366,-4.8292
805,120,0,0,0,0,0,0,0,0,0,-1,2029,904,0,0
812,120,0,0,0,0,0,0,0,0,0,-1,2036,904,0,0
-700,113,0,0,0,0,0,0,0,0,0,-1,524,911,0,0
-693,113,0,0,0,0,0,0,0,0,0,-1,531,911,0,0
-686,113,0,0,0,0,0,0,0,0,0,-1,538,911,0,0
-679,113,-21.8737,3.40198,0,0,0,0,0,0,0,-1,545,911,-21.8737,-3.402
-672,113,-22.5142,3.26404,0,0,0,0,0,0,0,-1,552,911,-22.5143,-3.26402
-665,113,-22.1857,3.44427,-0.00738516,-0.0196736,0.0245748,0.0118019,-0.0388606,0.662899,0.0306091,0.0427432,559,911,-22.1857,-3.44426
-658,113,-22.0452,3.6546,-0.00729178,-0.0213156,0.0197398,0.00664447,-0.0352518,0.614741,0.0260006,0.0457579,566,911,-22.0452,-3.6546
-651,113,-21.6804,3.53284,-0.006408,-0.0197529,0.0157563,0.00403047,-0.0301913,0.585108,0.0215968,0.0497632,573,911,-21.6804,-3.53283
-644,113,-21.5974,3.1994,-0.00524197,-0.0166978,0.0124993,0.00277932,-0.024719,0.570548,0.0174796,0.0432647,580,911,-21.5974,-3.19937
-637,113,-21.605,3.05664,-0.00411637,-0.0131699,0.00983244,0.00218129,-0.0194676,0.569667,0.0137632,0.0375492,587,911,-21.6051,-3.05663
-630,113,-21.5544,3.02002,-0.00347434,-0.0121187,0.00781672,0.00113557,-0.0167287,0.532848,0.0115496,0.0169094,594,911,-21.5545,-3.02
-623,113,-21.6191,2.78418,-0.00288683,-0.00735994,0.00554861,0.000859024,-0.0111058,0.593817,0.00770618,0.0108784,601,911,-21.6191,-2.78416
-616,113,-21.6206,2.52722,-0.00242598,-0.00412096,0.00393777,0.000754471,-0.00730141,0.679405,0.00513759,0.0100453,608,911,-21.6206,-2.5272
-609,113,-21.618,2.28497,-0.00174486,-0.00204608,0.00275473,0.000863374,-0.00465432,0.758089,0.00342711,0.0110876,615,911,-21.618,-2.28497
-602,113,-21.6276,2.00134,-0.00167403,-0.000838889,0.00213527,0.000919252,-0.00343217,0.881959,0.00264826,0.0155652,622,911,-21.6276,-2.00132
-595,113,-21.6292,1.80487,-0.00180976,-0.000604182,0.00164808,0.00054789,-0.00296183,0.960717,0.00218025,0.020338,629,911,-21.6292,-1.80487
-588,113,-21.6225,1.55017,-0.001659,-0.000510622,0.00132521,0.000359445,-0.00252906,0.98983,0.00181774,0.0231567,636,911,-21.6225,-1.55017
-581,113,-21.645,1.27734,-0.00188925,-0.00048269,0.000688741,-0.000201609,-0.00217033,1.18332,0.00138458,0.0244518,643,911,-21.645,-1.27735
-574,113,-21.5148,0.863464,-0.00200568,-0.000772009,-8.07241e-06,-0.000771956,-0.00200574,-1.56425,0.0011682,0.0284735,650,911,-21.5148,-0.863464
-567,113,-21.8396,0.437378,0,0,0,0,0,0,0,-1,657,911,-21.8396,-0.437351
-560,113,-24.1165,0.927734,0,0,0,0,0,0,0,-1,664,911,-24.1165,-0.92771
-553,113,-24.1858,1.06781,-0.00125851,-0.00140253,-0.00110896,-0.000219219,-0.00244182,-0.752977,0.00155995,0.0375382,671,911,-24.1858,-1.06782
-546,113,-24.1677,1.14764,-0.000995042,-0.00150599,-0.00149634,0.000267475,-0.00276851,-0.700847,0.00194098,0.0345102,678,911,-24.1677,-1.14766
-539,113,-24.1383,1.12146,-0.000646697,-0.00164989,-0.0019381,0.000853663,-0.00315025,-0.658772,0.00243512,0.0338532,685,911,-24.1383,-1.12148
-532,113,-24.1243,1.03387,-0.000282917,-0.00194484,-0.00236969,0.00139729,-0.00362504,-0.616766,0.00299322,0.0356166,692,911,-24.1242,-1.0339
-525,113,-24.2568,0.959412,0.000187051,-0.00257844,-0.00286257,0.00198335,-0.00437473,-0.560403,0.00375639,0.0360751,699,911,-24.2569,-0.959397
-518,113,-24.3669,0.930969,0.000843145,-0.00373866,-0.00334451,0.00260613,-0.00550164,-0.485113,0.00477949,0.0407851,706,911,-24.3669,-0.930988
-511,113,-24.3281,0.971802,0.00193718,-0.00569443,-0.00381791,0.00351923,-0.00727647,-0.392837,0.00635748,0.0431109,713,911,-24.3281,-0.971773
-504,113,0,0,0,0,0,0,0,0,0,-1,720,911,0,0
-497,113,0,0,0,0,0,0,0,0,0,-1,727,911,0,0
-490,113,0,0,0,0,0,0,0,0,0,-1,734,911,0,0
-483,113,0,0,0,0,0,0,0,0,0,-1,741,911,0,0
-476,113,0,0,0,0,0,0,0,0,0,-1,748,911,0,0
-469,113,0,0,0,0,0,0,0,0,0,-1,755,911,0,0
-462,113,0,0,0,0,0,0,0,0,0,-1,762,911,0,0
-455,113,0,0,0,0,0,0,0,0,0,-1,769,911,0,0
-448,113,0,0,0,0,0,0,0,0,0,-1,776,911,0,0
-441,113,0,0,0,0,0,0,0,0,0,-1,783,911,0,0
-434,113,0,0,0,0,0,0,0,0,0,-1,790,911,0,0
-427,113,0,0,0,0,0,0,0,0,0,-1,797,911,0,0
-420,113,0,0,0,0,0,0,0,0,0,-1,804,911,0,0
-413,113,0,0,0,0,0,0,0,0,0,-1,811,911,0,0
-406,113,0,0,0,0,0,0,0,0,0,-1,818,911,0,0
-399,113,0,0,0,0,0,0,0,0,0,-1,825,911,0,0
-392,113,0,0,0,0,0,0,0,0,0,-1,832,911,0,0
-385,113,0,0,0,0,0,0,0,0,0,-1,839,911,0,0
-378,113,0,0,0,0,0,0,0,0,0,-1,846,911,0,0
-371,113,0,0,0,0,0,0,0,0,0,-1,853,911,0,0
-364,113,0,0,0,0,0,0,0,0,0,-1,860,911,0,0
-357,113,0,0,0,0,0,0,0,0,0,-1,867,911,0,0
-350,113,0,0,0,0,0,0,0,0,0,-1,874,911,0,0
-343,113,0,0,0,0,0,0,0,0,0,-1,881,911,0,0
-336,113,0,0,0,0,0,0,0,0,0,-1,888,911,0,0
-329,113,0,0,0,0,0,0,0,0,0,-1,895,911,0,0
-322,113,0,0,0,0,0,0,0,0,0,-1,902,911,0,0
-315,113,0,0,0,0,0,0,0,0,0,-1,909,911,0,0
-308,113,0,0,0,0,0,0,0,0,0,-1,916,911,0,0
-301,113,0,0,0,0,0,0,0,0,0,-1,923,911,0,0
-294,113,0,0,0,0,0,0,0,0,0,-1,930,911,0,0
-287,113,0,0,0,0,0,0,0,0,0,-1,937,911,0,0
-280,113,0,0,0,0,0,0,0,0,0,-1,944,911,0,0
-273,113,0,0,0,0,0,0,0,0,0,-1,951,911,0,0
-266,113,0,0,0,0,0,0,0,0,0,-1,958,911,0,0
-259,113,0,0,0,0,0,0,0,0,0,-1,965,911,0,0
-252,113,0,0,0,0,0,0,0,0,0,-1,972,911,0,0
-245,113,0,0,0,0,0,0,0,0,0,-1,979,911,0,0
-238,113,0,0,0,0,0,0,0,0,0,-1,986,911,0,0
-231,113,0,0,0,0,0,0,0,0,0,-1,993,911,0,0
-224,113,0,0,0,0,0,0,0,0,0,-1,1000,911,0,0
-217,113,0,0,0,0,0,0,0,0,0,-1,1007,911,0,0
-210,113,0,0,0,0,0,0,0,0,0,-1,1014,911,0,0
-203,113,0,0,0,0,0,0,0,0,0,-1,1021,911,0,0
-196,113,0,0,0,0,0,0,0,0,0,-1,1028,911,0,0
-189,113,0,0,0,0,0,0,0,0,0,-1,1035,911,0,0
-182,113,0,0,0,0,0,0,0,0,0,-1,1042,911,0,0
-175,113,0,0,0,0,0,0,0,0,0,-1,1049,911,0,0
-168,113,0,0,0,0,0,0,0,0,0,-1,1056,911,0,0
-161,113,0,0,0,0,0,0,0,0,0,-1,1063,911,0,0
-154,113,0,0,0,0,0,0,0,0,0,-1,1070,911,0,0
-147,113,0,0,0,0,0,0,0,0,0,-1,1077,911,0,0
-140,113,0,0,0,0,0,0,0,0,0,-1,1084,911,0,0
-133,113,0,0,0,0,0,0,0,0,0,-1,1091,911,0,0
-126,113,0,0,0,0,0,0,0,0,0,-1,1098,911,0,0
-119,113,0,0,0,0,0,0,0,0,0,-1,1105,911,0,0
-112,113,0,0,0,0,0,0,0,0,0,-1,1112,911,0,0
-105,113,0,0,0,0,0,0,0,0,0,-1,1119,911,0,0
-98,113,0,0,0,0,0,0,0,0,0,-1,1126,911,0,0
-91,113,0,0,0,0,0,0,0,0,0,-1,1133,911,0,0
-84,113,0,0,0,0,0,0,0,0,0,-1,1140,911,0,0
-77,113,0,0,0,0,0,0,0,0,0,-1,1147,911,0,0
-70,113,0,0,0,0,0,0,0,0,0,-1,1154,911,0,0
-63,113,0,0,0,0,0,0,0,0,0,-1,1161,911,0,0
-56,113,0,0,0,0,0,0,0,0,0,-1,1168,911,0,0
-49,113,0,0,0,0,0,0,0,0,0,-1,1175,911,0,0
-42,113,0,0,0,0,0,0,0,0,0,-1,1182,911,0,0
-35,113,0,0,0,0,0,0,0,0,0,-1,1189,911,0,0
-28,113,0,0,0,0,0,0,0,0,0,-1,1196,911,0,0
-21,113,0,0,0,0,0,0,0,0,0,-1,1203,911,0,0
-14,113,0,0,0,0,0,0,0,0,0,-1,1210,911,0,0
-7,113,0,0,0,0,0,0,0,0,0,-1,1217,911,0,0
0,113,0,0,0,0,0,0,0,0,0,-1,1224,911,0,0
7,113,0,0,0,0,0,0,0,0,0,-1,1231,911,0,0
14,113,0,0,0,0,0,0,0,0,0,-1,1238,911,0,0
21,113,0,0,0,0,0,0,0,0,0,-1,1245,911,0,0
28,113,0,0,0,0,0,0,0,0,0,-1,1252,911,0,0
35,113,0,0,0,0,0,0,0,0,0,-1,1259,911,0,0
42,113,0,0,0,0,0,0,0,0,0,-1,1266,911,0,0
49,113,0,0,0,0,0,0,0,0,0,-1,1273,911,0,0
56,113,0,0,0,0,0,0,0,0,0,-1,1280,911,0,0
63,113,0,0,0,0,0,0,0,0,0,-1,1287,911,0,0
70,113,0,0,0,0,0,0,0,0,0,-1,1294,911,0,0
77,113,0,0,0,0,0,0,0,0,0,-1,1301,911,0,0
84,113,0,0,0,0,0,0,0,0,0,-1,1308,911,0,0
91,113,0,0,0,0,0,0,0,0,0,-1,1315,911,0,0
98,113,0,0,0,0,0,0,0,0,0,-1,1322,911,0,0
105,113,0,0,0,0,0,0,0,0,0,-1,1329,911,0,0
112,113,0,0,0,0,0,0,0,0,0,-1,1336,911,0,0
119,113,0,0,0,0,0,0,0,0,0,-1,1343,911,0,0
126,113,0,0,0,0,0,0,0,0,0,-1,1350,911,0,0
133,113,0,0,0,0,0,0,0,0,0,-1,1357,911,0,0
140,113,0,0,0,0,0,0,0,0,0,-1,1364,911,0,0
147,113,0,0,0,0,0,0,0,0,0,-1,1371,911,0,0
154,113,0,0,0,0,0,0,0,0,0,-1,1378,911,0,0
161,113,0,0,0,0,0,0,0,0,0,-1,1385,911,0,0
168,113,0,0,0,0,0,0,0,0,0,-1,1392,911,0,0
175,113,0,0,0,0,0,0,0,0,0,-1,1399,911,0,0
182,113,0,0,0,0,0,0,0,0,0,-1,1406,911,0,0
189,113,0,0,0,0,0,0,0,0,0,-1,1413,911,0,0
196,113,0,0,0,0,0,0,0,0,0,-1,1420,911,0,0
203,113,0,0,0,0,0,0,0,0,0,-1,1427,911,0,0
210,113,0,0,0,0,0,0,0,0,0,-1,1434,911,0,0
217,113,0,0,0,0,0,0,0,0,0,-1,1441,911,0,0
224,113,0,0,0,0,0,0,0,0,0,-1,1448,911,0,0
231,113,0,0,0,0,0,0,0,0,0,-1,1455,911,0,0
238,113,0,0,0,0,0,0,0,0,0,-1,1462,911,0,0
245,113,0,0,0,0,0,0,0,0,0,-1,1469,911,0,0
252,113,0,0,0,0,0,0,0,0,0,-1,1476,911,0,0
259,113,0,0,0,0,0,0,0,0,0,-1,1483,911,0,0
266,113,0,0,0,0,0,0,0,0,0,-1,1490,911,0,0
273,113,0,0,0,0,0,0,0,0,0,-1,1497,911,0,0
280,113,0,0,0,0,0,0,0,0,0,-1,1504,911,0,0
287,113,0,0,0,0,0,0,0,0,0,-1,1511,911,0,0
294,113,0,0,0,0,0,0,0,0,0,-1,1518,911,0,0
301,113,0,0,0,0,0,0,0,0,0,-1,1525,911,0,0
308,113,0,0,0,0,0,0,0,0,0,-1,1532,911,0,0
315,113,0,0,0,0,0,0,0,0,0,-1,1539,911,0,0
322,113,0,0,0,0,0,0,0,0,0,-1,1546,911,0,0
329,113,0,0,0,0,0,0,0,0,0,-1,1553,911,0,0
336,113,0,0,0,0,0,0,0,0,0,-1,1560,911,0,0
343,113,0,0,0,0,0,0,0,0,0,-1,1567,911,0,0
350,113,0,0,0,0,0,0,0,0,0,-1,1574,911,0,0
357,113,0,0,0,0,0,0,0,0,0,-1,1581,911,0,0
364,113,0,0,0,0,0,0,0,0,0,-1,1588,911,0,0
371,113,0,0,0,0,0,0,0,0,0,-1,1595,911,0,0
378,113,0,0,0,0,0,0,0,0,0,-1,1602,911,0,0
385,113,0,0,0,0,0,0,0,0,0,-1,1609,911,0,0
392,113,0,0,0,0,0,0,0,0,0,-1,1616,911,0,0
399,113,0,0,0,0,0,0,0,0,0,-1,1623,911,0,0
406,113,0,0,0,0,0,0,0,0,0,-1,1630,911,0,0
413,113,0,0,0,0,0,0,0,0,0,-1,1637,911,0,0
420,113,0,0,0,0,0,0,0,0,0,-1,1644,911,0,0
427,113,0,0,0,0,0,0,0,0,0,-1,1651,911,0,0
434,113,0,0,0,0,0,0,0,0,0,-1,1658,911,0,0
441,113,0,0,0,0,0,0,0,0,0,-1,1665,911,0,0
448,113,0,0,0,0,0,0,0,0,0,-1,1672,911,0,0
455,113,0,0,0,0,0,0,0,0,0,-1,1679,911,0,0
462,113,0,0,0,0,0,0,0,0,0,-1,1686,911,0,0
469,113,0,0,0,0,0,0,0,0,0,-1,1693,911,0,0
476,113,0,0,0,0,0,0,0,0,0,-1,1700,911,0,0
483,113,0,0,0,0,0,0,0,0,0,-1,1707,911,0,0
490,113,0,0,0,0,0,0,0,0,0,-1,1714,911,0,0
497,113,0,0,0,0,0,0,0,0,0,-1,1721,911,0,0
504,113,0,0,0,0,0,0,0,0,0,-1,1728,911,0,0
511,113,0,0,0,0,0,0,0,0,0,-1,1735,911,0,0
518,113,0,0,0,0,0,0,0,0,0,-1,1742,911,0,0
525,113,0,0,0,0,0,0,0,0,0,-1,1749,911,0,0
532,113,0,0,0,0,0,0,0,0,0,-1,1756,911,0,0
539,113,0,0,0,0,0,0,0,0,0,-1,1763,911,0,0
546,113,0,0,0,0,0,0,0,0,0,-1,1770,911,0,0
553,113,0,0,0,0,0,0,0,0,0,-1,1777,911,0,0
560,113,0,0,0,0,0,0,0,0,0,-1,1784,911,0,0
567,113,0,0,0,0,0,0,0,0,0,-1,1791,911,0,0
574,113,0,0,0,0,0,0,0,0,0,-1,1798,911,0,0
581,113,0,0,0,0,0,0,0,0,0,-1,1805,911,0,0
588,113,0,0,0,0,0,0,0,0,0,-1,1812,911,0,0
595,113,0,0,0,0,0,0,0,0,0,-1,1819,911,0,0
602,113,0,0,0,0,0,0,0,0,0,-1,1826,911,0,0
609,113,0,0,0,0,0,0,0,0,0,-1,1833,911,0,0
616,113,0,0,0,0,0,0,0,0,0,-1,1840,911,0,0
623,113,0,0,0,0,0,0,0,0,0,-1,1847,911,0,0
630,113,33.6891,2.7254,0.00934537,0.00963444,-0.00126538,0.0107635,0.0082163,-0.842263,0.00649528,0.0384978,1854,911,33.6891,-2.72542
637,113,33.6772,2.92975,0.00643751,0.00707646,-0.000794897,0.00761368,0.00590029,-0.976473,0.004612,0.0371359,1861,911,33.6772,-2.92978
644,113,33.6539,3.13666,0.00406791,0.00502166,-0.00048829,0.00522731,0.00386226,-1.17219,0.00313068,0.0376683,1868,911,33.6539,-3.13667
651,113,33.559,3.09283,0.00251541,0.00336503,-0.000402679,0.00352556,0.00235489,-1.19147,0.0020734,0.0409166,1875,911,33.5589,-3.09284
658,113,33.6337,2.94604,0.00154018,0.00215018,-0.000345564,0.00230609,0.00138427,-1.14696,0.00134032,0.0422011,1882,911,33.6336,-2.94604
665,113,33.6998,2.8869,0.00111741,0.00129632,-0.000320818,0.00153992,0.000873807,-0.921366,0.000891765,0.0385284,1889,911,33.6998,-2.88693
672,113,33.7378,2.81226,0.00103404,0.000705993,-0.000221815,0.00114589,0.000594143,-0.46704,0.000661729,0.0356134,1896,911,33.7379,-2.81227
679,113,33.6918,2.81885,0.00106922,0.000260106,-0.000163092,0.00110085,0.000228469,-0.191604,0.000670843,0.0305503,1903,911,33.6918,-2.81885
686,113,33.6675,2.88196,0.000942135,-0.000111583,-0.000202721,0.00097979,-0.000149238,-0.183655,0.0007082,0.0277045,1910,911,33.6674,-2.88193
693,113,33.7751,2.68927,0.000769507,-0.000323088,-0.000238354,0.000819241,-0.000372822,-0.205705,0.000704142,0.0456582,1917,911,33.7751,-2.68926
700,113,33.9041,2.31177,0,0,0,0,0,0,0,-1,1924,911,33.904,-2.31179
707,113,30.3574,3.52051,0,0,0,0,0,0,0,-1,1931,911,30.3574,-3.5205
714,113,30.2922,3.74927,0.000906114,-0.000148379,-0.000525838,0.00112351,-0.000365776,-0.39203,0.000896171,0.0199554,1938,911,30.2923,-3.74926
721,113,30.3046,4.03101,0.00112085,0.000280352,-0.000458747,0.00132274,7.84613e-05,-0.414585,0.00085687,0.018403,1945,911,30.3046,-4.031
728,113,30.3533,4.35968,0.00112435,0.00058539,-0.00027965,0.00124323,0.00046651,-0.401957,0.00072519,0.0183266,1952,911,30.3532,-4.35967
735,113,30.322,4.67694,0.00152917,0.00112,5.45869e-05,0.00153633,0.00111285,0.130372,0.000916281,0.0161433,1959,911,30.3221,-4.67692
742,113,30.3029,4.96002,0.00212961,0.00186416,0.000391015,0.00240981,0.00158396,0.621782,0.00141407,0.0120922,1966,911,30.3028,-4.96004
749,113,30.3096,5.21326,0.00334154,0.00283846,0.000944133,0.00406707,0.00211294,0.65521,0.00234872,0.00912691,1973,911,30.3096,-5.21325
756,113,30.2622,5.50189,0.00520439,0.00384271,0.00186058,0.00650479,0.00254232,0.61,0.00378526,0.013385,1980,911,30.2622,-5.50191
763,113,30.1719,5.86847,0.00766736,0.00484855,0.00310827,0.00967084,0.00284507,0.572544,0.00573896,0.027884,1987,911,30.1718,-5.86848
770,113,30.3866,6.14307,0.0108231,0.00576559,0.00462397,0.0135646,0.00302407,0.535177,0.00822254,0.0475872,1994,911,30.3866,-6.14306
777,113,30.7676,6.33783,0,0,0,0,0,0,0,-1,2001,911,30.7676,-6.3378
784,113,30.8447,6.56354,0,0,0,0,0,0,0,-1,2008,911,30.8447,-6.56352
791,113,30.309,7.24744,0,0,0,0,0,0,0,-1,2015,911,30.309,-7.24743
798,113,28.7312,7.58624,0,0,0,0,0,0,0,-1,2022,911,28.7312,-7.58625
805,113,0,0,0,0,0,0,0,0,0,-1,2029,911,0,0
812,113,0,0,0,0,0,0,0,0,0,-1,2036,911,0,0
-700,106,0,0,0,0,0,0,0,0,0,-1,524,918,0,0
-693,106,0,0,0,0,0,0,0,0,0,-1,531,918,0,0
-686,106,0,0,0,0,0,0,0,0,0,-1,538,918,0,0
-679,106,-21.9476,1.96094,0.0155781,0.0140311,0.0367421,0.0515548,-0.0219456,0.774873,0.0435682,0.0443386,545,918,-21.9476,-1.96092
-672,106,-22.3875,3.09863,0.00796945,-0.00512403,0.0283751,0.0305433,-0.0276979,0.672022,0.0336389,0.0462344,552,918,-22.3875,-3.09866
-665,106,-22.089,3.56628,0.00306288,-0.0138181,0.0219284,0.0181191,-0.0288743,0.601682,0.0273675,0.0460192,559,918,-22.089,-3.56626
-658,106,-21.8052,3.97485,0.000186645,-0.0166303,0.016914,0.0106669,-0.0271106,0.554723,0.022489,0.0458018,566,918,-21.8052,-3.97485
-651,106,-21.4589,3.9928,-0.00124304,-0.0161647,0.0130543,0.00633202,-0.0237398,0.525789,0.0183059,0.0462112,573,918,-21.4589,-3.99281
-644,106,-21.5795,3.4812,-0.00179523,-0.0140297,0.0101187,0.00391158,-0.0197365,0.513519,0.0146368,0.0405688,580,918,-21.5795,-3.4812
-637,106,-21.6793,3.24548,-0.00188128,-0.0112359,0.00786231,0.0025898,-0.015707,0.517066,0.0114328,0.0287724,587,918,-21.6793,-3.24548
-630,106,-21.8306,3.06189,-0.0023166,-0.0109725,0.00620302,0.000919085,-0.0142082,0.480802,0.00979289,0.0126268,594,918,-21.8306,-3.06191
-623,106,-21.9072,2.75885,-0.00248425,-0.00643071,0.00422809,0.0002084,-0.00912335,0.567073,0.00615288,0.0115354,601,918,-21.9072,-2.75888
-616,106,-21.9183,2.49969,-0.00237573,-0.00343985,0.00303262,0.000171147,-0.00598673,0.698559,0.00404941,0.0115796,608,918,-21.9183,-2.49972
-609,106,-21.9013,2.2749,-0.00204426,-0.00169667,0.00224255,0.000378802,-0.00411974,0.82407,0.00288107,0.0116984,615,918,-21.9013,-2.27491
-602,106,-21.9102,2.00958,-0.00220975,-0.000683254,0.00187415,0.000577103,-0.00347011,0.978769,0.00252783,0.0158823,622,918,-21.9102,-2.00959
-595,106,-22.0018,1.77863,-0.00246315,-0.000522458,0.00158916,0.000369184,-0.0033548,1.05949,0.0023692,0.019207,629,918,-22.0018,-1.7786
-588,106,-21.9843,1.5105,-0.00238847,-0.000458741,0.00132329,0.00021409,-0.0030613,1.10041,0.00211585,0.0212936,636,918,-21.9843,-1.51053
-581,106,-21.8468,1.22125,-0.00261843,-0.000481957,0.000712961,-0.000265887,-0.0028345,1.27654,0.00180757,0.0152926,643,918,-21.8468,-1.22124
-574,106,-21.9402,0.967224,-0.00266644,-0.000795828,6.78032e-06,-0.000795803,-0.00266647,1.56717,0.00158063,0.0313402,650,918,-21.9403,-0.967231
-567,106,-22.4253,0.866211,0,0,0,0,0,0,0,-1,657,918,-22.4253,-0.86623
-560,106,-24.1152,0.970154,-0.00211368,-0.0012997,-0.000698756,-0.00089805,-0.00251533,-1.04911,0.00147188,0.0446408,664,918,-24.1153,-0.970166
-553,106,-24.1459,1.11505,-0.00179135,-0.0015644,-0.00106867,-0.000603195,-0.00275256,-0.838289,0.00167067,0.034828,671,918,-24.1459,-1.11505
-546,106,-24.0671,1.19617,-0.00138046,-0.00172088,-0.00149335,-4.76503e-05,-0.00305369,-0.728654,0.0020201,0.0369093,678,918,-24.067,-1.1962
-539,106,-24.023,1.11945,-0.000799896,-0.00191851,-0.00198874,0.000706688,-0.00342509,-0.648321,0.00255179,0.0394916,685,918,-24.023,-1.11943
-532,106,-23.9764,0.975708,-0.000115441,-0.00226529,-0.0025372,0.00156515,-0.00394587,-0.585029,0.00327926,0.0405946,692,918,-23.9764,-0.975722
-525,106,-24.2549,0.912537,0.000705847,-0.00289666,-0.00326236,0.00263119,-0.004822,-0.533159,0.00436463,0.0385436,699,918,-24.255,-0.912529
-518,106,-24.2761,1.00189,0.00144909,-0.00390908,-0.00409468,0.00366326,-0.00612324,-0.495708,0.00570943,0.0414722,706,918,-24.2761,-1.0019
-511,106,0,0,0,0,0,0,0,0,0,-1,713,918,0,0
-504,106,0,0,0,0,0,0,0,0,0,-1,720,918,0,0
-497,106,0,0,0,0,0,0,0,0,0,-1,727,918,0,0
-490,106,0,0,0,0,0,0,0,0,0,-1,734,918,0,0
-483,106,0,0,0,0,0,0,0,0,0,-1,741,918,0,0
-476,106,0,0,0,0,0,0,0,0,0,-1,748,918,0,0
-469,106,0,0,0,0,0,0,0,0,0,-1,755,918,0,0
-462,106,0,0,0,0,0,0,0,0,0,-1,762,918,0,0
-455,106,0,0,0,0,0,0,0,0,0,-1,769,918,0,0
-448,106,0,0,0,0,0,0,0,0,0,-1,776,918,0,0
-441,106,0,0,0,0,0,0,0,0,0,-1,783,918,0,0
-434,106,0,0,0,0,0,0,0,0,0,-1,790,918,0,0
-427,106,0,0,0,0,0,0,0,0,0,-1,797,918,0,0
-420,106,0,0,0,0,0,0,0,0,0,-1,804,918,0,0
-413,106,0,0,0,0,0,0,0,0,0,-1,811,918,0,0
-406,106,0,0,0,0,0,0,0,0,0,-1,818,918,0,0
-399,106,0,0,0,0,0,0,0,0,0,-1,825,918,0,0
-392,106,0,0,0,0,0,0,0,0,0,-1,832,918,0,0
-385,106,0,0,0,0,0,0,0,0,0,-1,839,918,0,0
-378,106,0,0,0,0,0,0,0,0,0,-1,846,918,0,0
-371,106,0,0,0,0,0,0,0,0,0,-1,853,918,0,0
-364,106,0,0,0,0,0,0,0,0,0,-1,860,918,0,0
-357,106,0,0,0,0,0,0,0,0,0,-1,867,918,0,0
-350,106,0,0,0,0,0,0,0,0,0,-1,874,918,0,0
-343,106,0,0,0,0,0,0,0,0,0,-1,881,918,0,0
-336,106,0,0,0,0,0,0,0,0,0,-1,888,918,0,0
-329,106,0,0,0,0,0,0,0,0,0,-1,895,918,0,0
-322,106,0,0,0,0,0,0,0,0,0,-1,902,918,0,0
-315,106,0,0,0,0,0,0,0,0,0,-1,909,918,0,0
-308,106,0,0,0,0,0,0,0,0,0,-1,916,918,0,0
-301,106,0,0,0,0,0,0,0,0,0,-1,923,918,0,0
-294,106,0,0,0,0,0,0,0,0,0,-1,930,918,0,0
-287,106,0,0,0,0,0,0,0,0,0,-1,937,918,0,0
-280,106,0,0,0,0,0,0,0,0,0,-1,944,918,0,0
-273,106,0,0,0,0,0,0,0,0,0,-1,951,918,0,0
-266,106,0,0,0,0,0,0,0,0,0,-1,958,918,0,0
-259,106,0,0,0,0,0,0,0,0,0,-1,965,918,0,0
-252,106,0,0,0,0,0,0,0,0,0,-1,972,918,0,0
-245,106,0,0,0,0,0,0,0,0,0,-1,979,918,0,0
-238,106,0,0,0,0,0,0,0,0,0,-1,986,918,0,0
-231,106,0,0,0,0,0,0,0,0,0,-1,993,918,0,0
-224,106,0,0,0,0,0,0,0,0,0,-1,1000,918,0,0
-217,106,0,0,0,0,0,0,0,0,0,-1,1007,918,0,0
-210,106,0,0,0,0,0,0,0,0,0,-1,1014,918,0,0
-203,106,0,0,0,0,0,0,0,0,0,-1,1021,918,0,0
-196,106,0,0,0,0,0,0,0,0,0,-1,1028,918,0,0
-189,106,0,0,0,0,0,0,0,0,0,-1,1035,918,0,0
-182,106,0,0,0,0,0,0,0,0,0,-1,1042,918,0,0
-175,106,0,0,0,0,0,0,0,0,0,-1,1049,918,0,0
-168,106,0,0,0,0,0,0,0,0,0,-1,1056,918,0,0
-161,106,0,0,0,0,0,0,0,0,0,-1,1063,918,0,0
-154,106,0,0,0,0,0,0,0,0,0,-1,1070,918,0,0
-147,106,0,0,0,0,0,0,0,0,0,-1,1077,918,0,0
-140,106,0,0,0,0,0,0,0,0,0,-1,1084,918,0,0
-133,106,0,0,0,0,0,0,0,0,0,-1,1091,918,0,0
-126,106,0,0,0,0,0,0,0,0,0,-1,1098,918,0,0
-119,106,0,0,0,0,0,0,0,0,0,-1,1105,918,0,0
-112,106,0,0,0,0,0,0,0,0,0,-1,1112,918,0,0
-105,106,0,0,0,0,0,0,0,0,0,-1,1119,918,0,0
-98,106,0,0,0,0,0,0,0,0,0,-1,1126,918,0,0
-91,106,0,0,0,0,0,0,0,0,0,-1,1133,918,0,0
-84,106,0,0,0,0,0,0,0,0,0,-1,1140,918,0,0
-77,106,0,0,0,0,0,0,0,0,0,-1,1147,918,0,0
-70,106,0,0,0,0,0,0,0,0,0,-1,1154,918,0,0
-63,106,0,0,0,0,0,0,0,0,0,-1,1161,918,0,0
-56,106,0,0,0,0,0,0,0,0,0,-1,1168,918,0,0
-49,106,0,0,0,0,0,0,0,0,0,-1,1175,918,0,0
-42,106,0,0,0,0,0,0,0,0,0,-1,1182,918,0,0
-35,106,0,0,0,0,0,0,0,0,0,-1,1189,918,0,0
-28,106,0,0,0,0,0,0,0,0,0,-1,1196,918,0,0
-21,106,0,0,0,0,0,0,0,0,0,-1,1203,918,0,0
-14,106,0,0,0,0,0,0,0,0,0,-1,1210,918,0,0
-7,106,0,0,0,0,0,0,0,0,0,-1,1217,918,0,0
0,106,0,0,0,0,0,0,0,0,0,-1,1224,918,0,0
7,106,0,0,0,0,0,0,0,0,0,-1,1231,918,0,0
14,106,0,0,0,0,0,0,0,0,0,-1,1238,918,0,0
21,106,0,0,0,0,0,0,0,0,0,-1,1245,918,0,0
28,106,0,0,0,0,0,0,0,0,0,-1,1252,918,0,0
35,106,0,0,0,0,0,0,0,0,0,-1,1259,918,0,0
42,106,0,0,0,0,0,0,0,0,0,-1,1266,918,0,0
49,106,0,0,0,0,0,0,0,0,0,-1,1273,918,0,0
56,106,0,0,0,0,0,0,0,0,0,-1,1280,918,0,0
63,106,0,0,0,0,0,0,0,0,0,-1,1287,918,0,0
70,106,0,0,0,0,0,0,0,0,0,-1,1294,918,0,0
77,106,0,0,0,0,0,0,0,0,0,-1,1301,918,0,0
84,106,0,0,0,0,0,0,0,0,0,-1,1308,918,0,0
91,106,0,0,0,0,0,0,0,0,0,-1,1315,918,0,0
98,106,0,0,0,0,0,0,0,0,0,-1,1322,918,0,0
105,106,0,0,0,0,0,0,0,0,0,-1,1329,918,0,0
112,106,0,0,0,0,0,0,0,0,0,-1,1336,918,0,0
119,106,0,0,0,0,0,0,0,0,0,-1,1343,918,0,0
126,106,0,0,0,0,0,0,0,0,0,-1,1350,918,0,0
133,106,0,0,0,0,0,0,0,0,0,-1,1357,918,0,0
140,106,0,0,0,0,0,0,0,0,0,-1,1364,918,0,0
147,106,0,0,0,0,0,0,0,0,0,-1,1371,918,0,0
154,106,0,0,0,0,0,0,0,0,0,-1,1378,918,0,0
161,106,0,0,0,0,0,0,0,0,0,-1,1385,918,0,0
168,106,0,0,0,0,0,0,0,0,0,-1,1392,918,0,0
175,106,0,0,0,0,0,0,0,0,0,-1,1399,918,0,0
182,106,0,0,0,0,0,0,0,0,0,-1,1406,918,0,0
189,106,0,0,0,0,0,0,0,0,0,-1,1413,918,0,0
196,106,0,0,0,0,0,0,0,0,0,-1,1420,918,0,0
203,106,0,0,0,0,0,0,0,0,0,-1,1427,918,0,0
210,106,0,0,0,0,0,0,0,0,0,-1,1434,918,0,0
217,106,0,0,0,0,0,0,0,0,0,-1,1441,918,0,0
224,106,0,0,0,0,0,0,0,0,0,-1,1448,918,0,0
231,106,0,0,0,0,0,0,0,0,0,-1,1455,918,0,0
238,106,0,0,0,0,0,0,0,0,0,-1,1462,918,0,0
245,106,0,0,0,0,0,0,0,0,0,-1,1469,918,0,0
252,106,0,0,0,0,0,0,0,0,0,-1,1476,918,0,0
259,106,0,0,0,0,0,0,0,0,0,-1,1483,918,0,0
266,106,0,0,0,0,0,0,0,0,0,-1,1490,918,0,0
273,106,0,0,0,0,0,0,0,0,0,-1,1497,918,0,0
280,106,0,0,0,0,0,0,0,0,0,-1,1504,918,0,0
287,106,0,0,0,0,0,0,0,0,0,-1,1511,918,0,0
294,106,0,0,0,0,0,0,0,0,0,-1,1518,918,0,0
301,106,0,0,0,0,0,0,0,0,0,-1,1525,918,0,0
308,106,0,0,0,0,0,0,0,0,0,-1,1532,918,0,0
315,106,0,0,0,0,0,0,0,0,0,-1,1539,918,0,0
322,106,0,0,0,0,0,0,0,0,0,-1,1546,918,0,0
329,106,0,0,0,0,0,0,0,0,0,-1,1553,918,0,0
336,106,0,0,0,0,0,0,0,0,0,-1,1560,918,0,0
343,106,0,0,0,0,0,0,0,0,0,-1,1567,918,0,0
350,106,0,0,0,0,0,0,0,0,0,-1,1574,918,0,0
357,106,0,0,0,0,0,0,0,0,0,-1,1581,918,0,0
364,106,0,0,0,0,0,0,0,0,0,-1,1588,918,0,0
371,106,0,0,0,0,0,0,0,0,0,-1,1595,918,0,0
378,106,0,0,0,0,0,0,0,0,0,-1,1602,918,0,0
385,106,0,0,0,0,0,0,0,0,0,-1,1609,918,0,0
392,106,0,0,0,0,0,0,0,0,0,-1,1616,918,0,0
399,106,0,0,0,0,0,0,0,0,0,-1,1623,918,0,0
406,106,0,0,0,0,0,0,0,0,0,-1,1630,918,0,0
413,106,0,0,0,0,0,0,0,0,0,-1,1637,918,0,0
420,106,0,0,0,0,0,0,0,0,0,-1,1644,918,0,0
427,106,0,0,0,0,0,0,0,0,0,-1,1651,918,0,0
434,106,0,0,0,0,0,0,0,0,0,-1,1658,918,0,0
441,106,0,0,0,0,0,0,0,0,0,-1,1665,918,0,0
448,106,0,0,0,0,0,0,0,0,0,-1,1672,918,0,0
455,106,0,0,0,0,0,0,0,0,0,-1,1679,918,0,0
462,106,0,0,0,0,0,0,0,0,0,-1,1686,918,0,0
469,106,0,0,0,0,0,0,0,0,0,-1,1693,918,0,0
476,106,0,0,0,0,0,0,0,0,0,-1,1700,918,0,0
483,106,0,0,0,0,0,0,0,0,0,-1,1707,918,0,0
490,106,0,0,0,0,0,0,0,0,0,-1,1714,918,0,0
497,106,0,0,0,0,0,0,0,0,0,-1,1721,918,0,0
504,106,0,0,0,0,0,0,0,0,0,-1,1728,918,0,0
511,106,0,0,0,0,0,0,0,0,0,-1,1735,918,0,0
518,106,0,0,0,0,0,0,0,0,0,-1,1742,918,0,0
525,106,0,0,0,0,0,0,0,0,0,-1,1749,918,0,0
532,106,0,0,0,0,0,0,0,0,0,-1,1756,918,0,0
539,106,0,0,0,0,0,0,0,0,0,-1,1763,918,0,0
546,106,0,0,0,0,0,0,0,0,0,-1,1770,918,0,0
553,106,0,0,0,0,0,0,0,0,0,-1,1777,918,0,0
560,106,0,0,0,0,0,0,0,0,0,-1,1784,918,0,0
567,106,0,0,0,0,0,0,0,0,0,-1,1791,918,0,0
574,106,0,0,0,0,0,0,0,0,0,-1,1798,918,0,0
581,106,0,0,0,0,0,0,0,0,0,-1,1805,918,0,0
588,106,0,0,0,0,0,0,0,0,0,-1,1812,918,0,0
595,106,0,0,0,0,0,0,0,0,0,-1,1819,918,0,0
602,106,0,0,0,0,0,0,0,0,0,-1,1826,918,0,0
609,106,0,0,0,0,0,0,0,0,0,-1,1833,918,0,0
616,106,0,0,0,0,0,0,0,0,0,-1,1840,918,0,0
623,106,0,0,0,0,0,0,0,0,0,-1,1847,918,0,0
630,106,33.7759,2.7467,0.00991885,0.0105216,-0.000669704,0.0109546,0.00948583,-0.996831,0.00686605,0.0386664,1854,918,33.7759,-2.74671
637,106,33.7654,2.85181,0.0068996,0.00763791,-0.000349384,0.00777703,0.00676048,-1.19185,0.00488125,0.0374094,1861,918,33.7654,-2.85183
644,106,33.7167,2.87891,0.00440951,0.00540586,-0.000102185,0.00541623,0.00439914,-1.46964,0.00332407,0.037576,1868,918,33.7167,-2.87891
651,106,33.7135,2.71606,0.00275308,0.00360281,-6.34106e-05,0.00360752,0.00274838,-1.49672,0.00217592,0.0389121,1875,918,33.7135,-2.71608
658,106,33.6913,2.802,0.00161412,0.00227054,-1.9389e-05,0.00227111,0.00161354,-1.54129,0.00134939,0.0397482,1882,918,33.6912,-2.80199
665,106,33.7191,2.95459,0.0010367,0.00130586,5.98018e-06,0.00130599,0.00103657,1.54859,0.000796197,0.0403249,1889,918,33.7191,-2.9546
672,106,33.754,3.03772,0.00084716,0.000637302,8.4223e-05,0.000876781,0.000607681,0.338182,0.000518638,0.0389517,1896,918,33.7541,-3.03772
679,106,33.7321,2.83691,0.00082133,0.000154597,0.000142307,0.000850433,0.000125493,0.20173,0.000530099,0.0354729,1903,918,33.7321,-2.83691
686,106,33.6383,2.87573,0.000701885,-0.000233262,0.000101017,0.000712672,-0.00024405,0.106388,0.000574027,0.0332974,1910,918,33.6383,-2.87575
693,106,33.7635,2.6452,0.000509545,-0.00048733,5.6843e-05,0.000512776,-0.00049056,0.0567759,0.000579324,0.0305136,1917,918,33.7636,-2.6452
700,106,33.9271,2.25836,0,0,0,0,0,0,0,-1,1924,918,33.9272,-2.25838
707,106,30.5051,3.42212,0,0,0,0,0,0,0,-1,1931,918,30.5052,-3.42212
714,106,30.5996,3.72308,0.00053453,-0.000254332,-0.000326342,0.000652032,-0.000371833,-0.345606,0.000598462,0.0243772,1938,918,30.5996,-3.72309
721,106,30.6257,4.04028,0.000722219,0.000243074,-0.000298754,0.000865595,9.9699e-05,-0.447448,0.000546868,0.0207693,1945,918,30.6257,-4.0403
728,106,30.6959,4.37622,0.000754298,0.000609797,-0.00016738,0.000864355,0.00049974,-0.581651,0.000501064,0.0190201,1952,918,30.6959,-4.37623
735,106,30.6702,4.66956,0.00117104,0.00118874,0.000143809,0.00132397,0.00103581,0.816128,0.000803996,0.0167659,1959,918,30.6701,-4.66953
742,106,30.6252,4.93127,0.00170985,0.00199289,0.000450504,0.00232357,0.00137916,0.937586,0.00134932,0.011397,1966,918,30.6253,-4.93129
749,106,30.5992,5.19659,0.00282374,0.00315652,0.000946837,0.00395148,0.00202879,0.872376,0.00228166,0.00886857,1973,918,30.5992,-5.19657
756,106,30.5618,5.47034,0.00457587,0.00437503,0.00182304,0.00630125,0.00264965,0.757884,0.00365333,0.0113233,1980,918,30.5617,-5.47035
763,106,30.502,5.82892,0.00689903,0.0056913,0.00302683,0.00938165,0.00320869,0.686939,0.00550589,0.021382,1987,918,30.5019,-5.8289
770,106,30.4659,6.10632,0.00985339,0.00699295,0.00444361,0.0130913,0.00375507,0.629703,0.00778384,0.039618,1994,918,30.4659,-6.10632
777,106,30.5762,6.29681,0.0135823,0.00820008,0.00612412,0.0175805,0.00420188,0.578385,0.010601,0.0451786,2001,918,30.5761,-6.29684
784,106,30.9458,6.86658,0.0180792,0.00920928,0.00785567,0.0226653,0.00462312,0.528424,0.0138292,0.0474573,2008,918,30.9458,-6.86657
791,106,30.7073,7.4458,0.0231688,0.0100298,0.00905359,0.0277853,0.00541331,0.471538,0.0170087,0.048432,2015,918,30.7073,-7.4458
798,106,31.0391,7.60632,0,0,0,0,0,0,0,-1,2022,918,31.039,-7.60633
805,106,0,0,0,0,0,0,0,0,0,-1,2029,918,0,0
812,106,0,0,0,0,0,0,0,0,0,-1,2036,918,0,0
-700,99,0,0,0,0,0,0,0,0,0,-1,524,925,0,0
-693,99,0,0,0,0,0,0,0,0,0,-1,531,925,0,0
-686,99,0,0,0,0,0,0,0,0,0,-1,538,925,0,0
-679,99,-22.228,2.87262,0.0313716,0.0106022,0.0363704,0.0588108,-0.016837,0.646335,0.0458616,0.0432598,545,925,-22.228,-2.87262
-672,99,-22.189,3.42395,0.020615,-0.00413434,0.0271811,0.0381057,-0.0216251,0.571785,0.0349204,0.044647,552,925,-22.189,-3.42397
-665,99,-22.048,4.03931,0.0126122,-0.0110583,0.0200165,0.0240306,-0.0224767,0.518409,0.026856,0.0466956,559,925,-22.048,-4.03929
-658,99,-21.7403,4.50806,0.00701904,-0.0134116,0.0145392,0.0145729,-0.0209654,0.479163,0.0206284,0.0457287,566,925,-21.7403,-4.50804
-651,99,-21.3602,4.45135,0.00338354,-0.0131086,0.0105011,0.00848923,-0.0182143,0.452553,0.0157544,0.0477164,573,925,-21.3602,-4.45134
-644,99,-22.0095,3.63159,0.00117661,-0.0113987,0.00764171,0.00478493,-0.015007,0.441151,0.0119241,0.0440456,580,925,-22.0095,-3.63162
-637,99,-21.966,3.255,-0.000137932,-0.00894948,0.00562982,0.00260512,-0.0116925,0.453385,0.00879298,0.0275257,587,925,-21.966,-3.25502
-630,99,-22.1069,3.03204,-0.00158843,-0.00935058,0.00423711,0.000276437,-0.0112154,0.414613,0.00757079,0.0136551,594,925,-22.1069,-3.03204
-623,99,-22.1951,2.75812,-0.00244649,-0.005115,0.00253764,-0.000913718,-0.00664777,0.543366,0.00416085,0.00865295,601,925,-22.195,-2.7581
-616,99,-22.1959,2.50336,-0.00256307,-0.00249926,0.00183317,-0.000697709,-0.00436461,0.794099,0.00270731,0.00982351,608,925,-22.1959,-2.50338
-609,99,-22.1849,2.28046,-0.00248587,-0.00112114,0.00147143,-0.000181556,-0.00342545,1.00251,0.00222559,0.0112034,615,925,-22.1849,-2.28045
-602,99,-22.1784,2.04694,-0.00277072,-0.000294175,0.00138615,0.000326245,-0.00339114,1.14995,0.00237698,0.0133594,622,925,-22.1784,-2.04692
-595,99,-22.2583,1.82495,-0.00306322,-0.000170964,0.0013852,0.000385423,-0.00361961,1.18886,0.00255127,0.0167391,629,925,-22.2583,-1.82495
-588,99,-22.2458,1.5694,-0.00306647,-0.000106532,0.00120442,0.000321622,-0.00349463,1.22924,0.00244402,0.0176565,636,925,-22.2458,-1.56939
-581,99,-22.1456,1.26251,-0.00328133,-0.000108419,0.000648359,1.89544e-05,-0.0034087,1.37681,0.00227881,0.0124085,643,925,-22.1455,-1.26252
-574,99,-22.3967,0.994934,-0.00325776,-0.000354033,-2.8666e-05,-0.00035375,-0.00325805,-1.56093,0.00206424,0.0267976,650,925,-22.3967,-0.994925
-567,99,-23.0602,0.768433,0,0,0,0,0,0,0,-1,657,925,-23.0602,-0.768437
-560,99,-24.0922,0.982849,-0.00266828,-0.000762581,-0.000707043,-0.00052891,-0.00290195,-1.25161,0.00178465,0.0359216,664,925,-24.0921,-0.982871
-553,99,-24.0506,1.05365,-0.00223974,-0.00092223,-0.00107289,-0.000321996,-0.00283998,-1.06072,0.00179563,0.038387,671,925,-24.0506,-1.05366
-546,99,-23.9825,1.12775,-0.00163065,-0.00101393,-0.00151674,0.000225471,-0.00287006,-0.885684,0.00199278,0.042341,678,925,-23.9825,-1.12776
-539,99,-23.9189,1.10907,-0.00077326,-0.00114354,-0.00206376,0.00111365,-0.00303045,-0.740663,0.00247644,0.0422048,685,925,-23.9189,-1.10908
-532,99,-23.8867,1.14667,0.000302229,-0.00141124,-0.00272241,0.00229953,-0.00340854,-0.632955,0.00331622,0.0448343,692,925,-23.8867,-1.14669
-525,99,-24.1141,1.09515,0.00149535,-0.00187249,-0.003654,0.00383477,-0.00421191,-0.569481,0.00464745,0.0436474,699,925,-24.1141,-1.09518
-518,99,-24.1415,1.01196,0.0023173,-0.00252028,-0.004712,0.00519506,-0.00539804,-0.548273,0.00611631,0.0419865,706,925,-24.1415,-1.01195
-511,99,0,0,0,0,0,0,0,0,0,-1,713,925,0,0
-504,99,0,0,0,0,0,0,0,0,0,-1,720,925,0,0
-497,99,0,0,0,0,0,0,0,0,0,-1,727,925,0,0
-490,99,0,0,0,0,0,0,0,0,0,-1,734,925,0,0
-483,99,0,0,0,0,0,0,0,0,0,-1,741,925,0,0
-476,99,0,0,0,0,0,0,0,0,0,-1,748,925,0,0
-469,99,0,0,0,0,0,0,0,0,0,-1,755,925,0,0
-462,99,0,0,0,0,0,0,0,0,0,-1,762,925,0,0
-455,99,0,0,0,0,0,0,0,0,0,-1,769,925,0,0
-448,99,0,0,0,0,0,0,0,0,0,-1,776,925,0,0
-441,99,0,0,0,0,0,0,0,0,0,-1,783,925,0,0
-434,99,0,0,0,0,0,0,0,0,0,-1,790,925,0,0
-427,99,0,0,0,0,0,0,0,0,0,-1,797,925,0,0
-420,99,0,0,0,0,0,0,0,0,0,-1,804,925,0,0
-413,99,0,0,0,0,0,0,0,0,0,-1,811,925,0,0
-406,99,0,0,0,0,0,0,0,0,0,-1,818,925,0,0
-399,99,0,0,0,0,0,0,0,0,0,-1,825,925,0,0
-392,99,0,0,0,0,0,0,0,0,0,-1,832,925,0,0
-385,99,0,0,0,0,0,0,0,0,0,-1,839,925,0,0
-378,99,0,0,0,0,0,0,0,0,0,-1,846,925,0,0
-371,99,0,0,0,0,0,0,0,0,0,-1,853,925,0,0
-364,99,0,0,0,0,0,0,0,0,0,-1,860,925,0,0
-357,99,0,0,0,0,0,0,0,0,0,-1,867,925,0,0
-350,99,0,0,0,0,0,0,0,0,0,-1,874,925,0,0
-343,99,0,0,0,0,0,0,0,0,0,-1,881,925,0,0
-336,99,0,0,0,0,0,0,0,0,0,-1,888,925,0,0
-329,99,0,0,0,0,0,0,0,0,0,-1,895,925,0,0
-322,99,0,0,0,0,0,0,0,0,0,-1,902,925,0,0
-315,99,0,0,0,0,0,0,0,0,0,-1,909,925,0,0
-308,99,0,0,0,0,0,0,0,0,0,-1,916,925,0,0
-301,99,0,0,0,0,0,0,0,0,0,-1,923,925,0,0
-294,99,0,0,0,0,0,0,0,0,0,-1,930,925,0,0
-287,99,0,0,0,0,0,0,0,0,0,-1,937,925,0,0
-280,99,0,0,0,0,0,0,0,0,0,-1,944,925,0,0
-273,99,0,0,0,0,0,0,0,0,0,-1,951,925,0,0
-266,99,0,0,0,0,0,0,0,0,0,-1,958,925,0,0
-259,99,0,0,0,0,0,0,0,0,0,-1,965,925,0,0
-252,99,0,0,0,0,0,0,0,0,0,-1,972,925,0,0
-245,99,0,0,0,0,0,0,0,0,0,-1,979,925,0,0
-238,99,0,0,0,0,0,0,0,0,0,-1,986,925,0,0
-231,99,0,0,0,0,0,0,0,0,0,-1,993,925,0,0
-224,99,0,0,0,0,0,0,0,0,0,-1,1000,925,0,0
-217,99,0,0,0,0,0,0,0,0,0,-1,1007,925,0,0
-210,99,0,0,0,0,0,0,0,0,0,-1,1014,925,0,0
-203,99,0,0,0,0,0,0,0,0,0,-1,1021,925,0,0
-196,99,0,0,0,0,0,0,0,0,0,-1,1028,925,0,0
-189,99,0,0,0,0,0,0,0,0,0,-1,1035,925,0,0
-182,99,0,0,0,0,0,0,0,0,0,-1,1042,925,0,0
-175,99,0,0,0,0,0,0,0,0,0,-1,1049,925,0,0
-168,99,0,0,0,0,0,0,0,0,0,-1,1056,925,0,0
-161,99,0,0,0,0,0,0,0,0,0,-1,1063,925,0,0
-154,99,0,0,0,0,0,0,0,0,0,-1,1070,925,0,0
-147,99,0,0,0,0,0,0,0,0,0,-1,1077,925,0,0
-140,99,0,0,0,0,0,0,0,0,0,-1,1084,925,0,0
-133,99,0,0,0,0,0,0,0,0,0,-1,1091,925,0,0
-126,99,0,0,0,0,0,0,0,0,0,-1,1098,925,0,0
-119,99,0,0,0,0,0,0,0,0,0,-1,1105,925,0,0
-112,99,0,0,0,0,0,0,0,0,0,-1,1112,925,0,0
-105,99,0,0,0,0,0,0,0,0,0,-1,1119,925,0,0
-98,99,0,0,0,0,0,0,0,0,0,-1,1126,925,0,0
-91,99,0,0,0,0,0,0,0,0,0,-1,1133,925,0,0
-84,99,0,0,0,0,0,0,0,0,0,-1,1140,925,0,0
-77,99,0,0,0,0,0,0,0,0,0,-1,1147,925,0,0
-70,99,0,0,0,0,0,0,0,0,0,-1,1154,925,0,0
-63,99,0,0,0,0,0,0,0,0,0,-1,1161,925,0,0
-56,99,0,0,0,0,0,0,0,0,0,-1,1168,925,0,0
-49,99,0,0,0,0,0,0,0,0,0,-1,1175,925,0,0
-42,99,0,0,0,0,0,0,0,0,0,-1,1182,925,0,0
-35,99,0,0,0,0,0,0,0,0,0,-1,1189,925,0,0
-28,99,0,0,0,0,0,0,0,0,0,-1,1196,925,0,0
-21,99,0,0,0,0,0,0,0,0,0,-1,1203,925,0,0
-14,99,0,0,0,0,0,0,0,0,0,-1,1210,925,0,0
-7,99,0,0,0,0,0,0,0,0,0,-1,1217,925,0,0
0,99,0,0,0,0,0,0,0,0,0,-1,1224,925,0,0
7,99,0,0,0,0,0,0,0,0,0,-1,1231,925,0,0
14,99,0,0,0,0,0,0,0,0,0,-1,1238,925,0,0
21,99,0,0,0,0,0,0,0,0,0,-1,1245,925,0,0
28,99,0,0,0,0,0,0,0,0,0,-1,1252,925,0,0
35,99,0,0,0,0,0,0,0,0,0,-1,1259,925,0,0
42,99,0,0,0,0,0,0,0,0,0,-1,1266,925,0,0
49,99,0,0,0,0,0,0,0,0,0,-1,1273,925,0,0
56,99,0,0,0,0,0,0,0,0,0,-1,1280,925,0,0
63,99,0,0,0,0,0,0,0,0,0,-1,1287,925,0,0
70,99,0,0,0,0,0,0,0,0,0,-1,1294,925,0,0
77,99,0,0,0,0,0,0,0,0,0,-1,1301,925,0,0
84,99,0,0,0,0,0,0,0,0,0,-1,1308,925,0,0
91,99,0,0,0,0,0,0,0,0,0,-1,1315,925,0,0
98,99,0,0,0,0,0,0,0,0,0,-1,1322,925,0,0
105,99,0,0,0,0,0,0,0,0,0,-1,1329,925,0,0
112,99,0,0,0,0,0,0,0,0,0,-1,1336,925,0,0
119,99,0,0,0,0,0,0,0,0,0,-1,1343,925,0,0
126,99,0,0,0,0,0,0,0,0,0,-1,1350,925,0,0
133,99,0,0,0,0,0,0,0,0,0,-1,1357,925,0,0
140,99,0,0,0,0,0,0,0,0,0,-1,1364,925,0,0
147,99,0,0,0,0,0,0,0,0,0,-1,1371,925,0,0
154,99,0,0,0,0,0,0,0,0,0,-1,1378,925,0,0
161,99,0,0,0,0,0,0,0,0,0,-1,1385,925,0,0
168,99,0,0,0,0,0,0,0,0,0,-1,1392,925,0,0
175,99,0,0,0,0,0,0,0,0,0,-1,1399,925,0,0
182,99,0,0,0,0,0,0,0,0,0,-1,1406,925,0,0
189,99,0,0,0,0,0,0,0,0,0,-1,1413,925,0,0
196,99,0,0,0,0,0,0,0,0,0,-1,1420,925,0,0
203,99,0,0,0,0,0,0,0,0,0,-1,1427,925,0,0
210,99,0,0,0,0,0,0,0,0,0,-1,1434,925,0,0
217,99,0,0,0,0,0,0,0,0,0,-1,1441,925,0,0
224,99,0,0,0,0,0,0,0,0,0,-1,1448,925,0,0
231,99,0,0,0,0,0,0,0,0,0,-1,1455,925,0,0
238,99,0,0,0,0,0,0,0,0,0,-1,1462,925,0,0
245,99,0,0,0,0,0,0,0,0,0,-1,1469,925,0,0
252,99,0,0,0,0,0,0,0,0,0,-1,1476,925,0,0
259,99,0,0,0,0,0,0,0,0,0,-1,1483,925,0,0
266,99,0,0,0,0,0,0,0,0,0,-1,1490,925,0,0
273,99,0,0,0,0,0,0,0,0,0,-1,1497,925,0,0
280,99,0,0,0,0,0,0,0,0,0,-1,1504,925,0,0
287,99,0,0,0,0,0,0,0,0,0,-1,1511,925,0,0
294,99,0,0,0,0,0,0,0,0,0,-1,1518,925,0,0
301,99,0,0,0,0,0,0,0,0,0,-1,1525,925,0,0
308,99,0,0,0,0,0,0,0,0,0,-1,1532,925,0,0
315,99,0,0,0,0,0,0,0,0,0,-1,1539,925,0,0
322,99,0,0,0,0,0,0,0,0,0,-1,1546,925,0,0
329,99,0,0,0,0,0,0,0,0,0,-1,1553,925,0,0
336,99,0,0,0,0,0,0,0,0,0,-1,1560,925,0,0
343,99,0,0,0,0,0,0,0,0,0,-1,1567,925,0,0
350,99,0,0,0,0,0,0,0,0,0,-1,1574,925,0,0
357,99,0,0,0,0,0,0,0,0,0,-1,1581,925,0,0
364,99,0,0,0,0,0,0,0,0,0,-1,1588,925,0,0
371,99,0,0,0,0,0,0,0,0,0,-1,1595,925,0,0
378,99,0,0,0,0,0,0,0,0,0,-1,1602,925,0,0
385,99,0,0,0,0,0,0,0,0,0,-1,1609,925,0,0
392,99,0,0,0,0,0,0,0,0,0,-1,1616,925,0,0
399,99,0,0,0,0,0,0,0,0,0,-1,1623,925,0,0
406,99,0,0,0,0,0,0,0,0,0,-1,1630,925,0,0
413,99,0,0,0,0,0,0,0,0,0,-1,1637,925,0,0
420,99,0,0,0,0,0,0,0,0,0,-1,1644,925,0,0
427,99,0,0,0,0,0,0,0,0,0,-1,1651,925,0,0
434,99,0,0,0,0,0,0,0,0,0,-1,1658,925,0,0
441,99,0,0,0,0,0,0,0,0,0,-1,1665,925,0,0
448,99,0,0,0,0,0,0,0,0,0,-1,1672,925,0,0
455,99,0,0,0,0,0,0,0,0,0,-1,1679,925,0,0
462,99,0,0,0,0,0,0,0,0,0,-1,1686,925,0,0
469,99,0,0,0,0,0,0,0,0,0,-1,1693,925,0,0
476,99,0,0,0,0,0,0,0,0,0,-1,1700,925,0,0
483,99,0,0,0,0,0,0,0,0,0,-1,1707,925,0,0
490,99,0,0,0,0,0,0,0,0,0,-1,1714,925,0,0
497,99,0,0,0,0,0,0,0,0,0,-1,1721,925,0,0
504,99,0,0,0,0,0,0,0,0,0,-1,1728,925,0,0
511,99,0,0,0,0,0,0,0,0,0,-1,1735,925,0,0
518,99,0,0,0,0,0,0,0,0,0,-1,1742,925,0,0
525,99,0,0,0,0,0,0,0,0,0,-1,1749,925,0,0
532,99,0,0,0,0,0,0,0,0,0,-1,1756,925,0,0
539,99,0,0,0,0,0,0,0,0,0,-1,1763,925,0,0
546,99,0,0,0,0,0,0,0,0,0,-1,1770,925,0,0
553,99,0,0,0,0,0,0,0,0,0,-1,1777,925,0,0
560,99,0,0,0,0,0,0,0,0,0,-1,1784,925,0,0
567,99,0,0,0,0,0,0,0,0,0,-1,1791,925,0,0
574,99,0,0,0,0,0,0,0,0,0,-1,1798,925,0,0
581,99,0,0,0,0,0,0,0,0,0,-1,1805,925,0,0
588,99,0,0,0,0,0,0,0,0,0,-1,1812,925,0,0
595,99,0,0,0,0,0,0,0,0,0,-1,1819,925,0,0
602,99,0,0,0,0,0,0,0,0,0,-1,1826,925,0,0
609,99,0,0,0,0,0,0,0,0,0,-1,1833,925,0,0
616,99,0,0,0,0,0,0,0,0,0,-1,1840,925,0,0
623,99,0,0,0,0,0,0,0,0,0,-1,1847,925,0,0
630,99,0,0,0,0,0,0,0,0,0,-1,1854,925,0,0
637,99,33.6266,2.77643,0.0081339,0.00820788,5.3125e-06,0.00820826,0.00813352,1.49948,0.00544743,0.0418773,1861,925,33.6266,-2.7764
644,99,33.7035,2.82196,0.00527021,0.00572018,0.000198611,0.0057953,0.00519509,1.20919,0.00367982,0.0393393,1868,925,33.7035,-2.82195
651,99,33.7285,2.81165,0.00335573,0.00374614,0.000217909,0.00384349,0.00325838,1.15065,0.00239127,0.0386166,1875,925,33.7286,-2.81163
658,99,33.6786,2.94623,0.00195225,0.00231022,0.0002694,0.00245467,0.00180779,1.07861,0.00146909,0.0377383,1882,925,33.6786,-2.94625
665,99,33.6261,3.0553,0.00112846,0.00126697,0.00031686,0.00152205,0.000873376,0.892984,0.000881945,0.0386115,1889,925,33.6262,-3.05531
672,99,33.686,3.05493,0.000742472,0.000549274,0.000392674,0.00105025,0.000241492,0.664791,0.000635164,0.0410879,1896,925,33.6861,-3.05492
679,99,33.776,2.78497,0.00060348,5.52421e-05,0.000461004,0.000865706,-0.000206984,0.517174,0.00065709,0.0392389,1903,925,33.776,-2.785
686,99,33.6956,2.8175,0.000468537,-0.000313908,0.000415814,0.000648241,-0.000493611,0.40793,0.00066126,0.0317217,1910,925,33.6956,-2.81751
693,99,33.7006,2.7807,0.000259869,-0.000584059,0.000361652,0.000393644,-0.000717834,0.354292,0.000650747,0.0304036,1917,925,33.7006,-2.7807
700,99,33.7722,2.64008,0,0,0,0,0,0,0,-1,1924,925,33.7722,-2.64007
707,99,31.0208,3.43579,0,0,0,0,0,0,0,-1,1931,925,31.0207,-3.43577
714,99,30.9784,3.76422,0.000185488,-0.000277132,-0.000128774,0.000218918,-0.000310562,-0.253993,0.000307218,0.0258755,1938,925,30.9783,-3.7642
721,99,30.889,4.03839,0.000328682,0.00027333,-0.000141531,0.000445218,0.000156795,-0.688843,0.000260764,0.023805,1945,925,30.889,-4.0384
728,99,30.9713,4.36566,0.000381899,0.000698254,-7.32999e-05,0.000714412,0.000365741,-1.35382,0.000412505,0.0175747,1952,925,30.9714,-4.36565
735,99,30.9531,4.65857,0.000819704,0.00129942,0.000181831,0.00136055,0.000758573,1.24647,0.000787248,0.015058,1959,925,30.9532,-4.65856
742,99,30.9164,4.91602,0.00130567,0.00211875,0.000428438,0.00230283,0.00112159,1.16499,0.00132969,0.0124737,1966,925,30.9163,-4.91604
749,99,30.881,5.18268,0.00229069,0.00336136,0.000861651,0.00384043,0.00181161,1.06336,0.00221846,0.01078,1973,925,30.881,-5.18265
756,99,30.8516,5.4292,0.00388233,0.00470703,0.00168248,0.00602696,0.00256241,0.905572,0.00349263,0.012014,1980,925,30.8516,-5.42922
763,99,30.8287,5.69012,0.00602998,0.0062362,0.00284641,0.00898136,0.00328481,0.803503,0.00524734,0.0149225,1987,925,30.8288,-5.69012
770,99,30.7876,5.97693,0.008753,0.00782637,0.00420765,0.0125228,0.00405661,0.730563,0.00737792,0.0268311,1994,925,30.7876,-5.97695
777,99,30.8025,6.26056,0.0121693,0.00945609,0.00577561,0.0167455,0.00487989,0.670047,0.00994448,0.039428,2001,925,30.8024,-6.26054
784,99,31.1139,7.07281,0.0163989,0.0110831,0.00737789,0.021583,0.00589897,0.612511,0.0128808,0.0430415,2008,925,31.1139,-7.07284
791,99,30.9894,7.58923,0.0213431,0.0127728,0.00846283,0.0265438,0.00757209,0.551042,0.0157892,0.0489265,2015,925,30.9894,-7.58921
798,99,31.3113,7.33661,0.0266381,0.0147163,0.0083692,0.0309522,0.0104022,0.475951,0.0181876,0.048586,2022,925,31.3112,-7.33662
805,99,0,0,0,0,0,0,0,0,0,-1,2029,925,0,0
812,99,0,0,0,0,0,0,0,0,0,-1,2036,925,0,0
-700,92,0,0,0,0,0,0,0,0,0,-1,524,932,0,0
-693,92,0,0,0,0,0,0,0,0,0,-1,531,932,0,0
-686,92,-22.8234,4.23291,0.0596918,0.0244601,0.0475708,0.0928036,-0.00865169,0.608073,0.0649453,0.0421154,538,932,-22.8234,-4.23289
-679,92,-22.3082,3.91028,0.044239,0.00452239,0.0358215,0.0653384,-0.016577,0.532302,0.0500089,0.043712,545,932,-22.3082,-3.91025
-672,92,-22.0601,5.51105,0.0318923,-0.00536586,0.0266358,0.0457672,-0.0192408,0.480237,0.0385599,0.0478242,552,932,-22.0601,-5.51104
-665,92,-22.2848,5.19775,0,0,0,0,0,0,0,-1,559,932,-22.2848,-5.19773
-658,92,-21.8238,5.50104,0.0143767,-0.0108451,0.0134423,0.0201976,-0.016666,0.408651,0.0213157,0.0465004,566,932,-21.8238,-5.50106
-651,92,-21.8392,3.75818,0.00888477,-0.0101704,0.00918009,0.0125878,-0.0138735,0.383412,0.0152834,0.0491982,573,932,-21.8392,-3.75817
-644,92,-22.3254,3.44702,0.00510345,-0.00858217,0.00622837,0.00751357,-0.0109923,0.369213,0.0107471,0.0446211,580,932,-22.3254,-3.44702
-637,92,-22.3384,3.19287,0.00248494,-0.00629772,0.00424122,0.00419867,-0.00801145,0.384006,0.00716316,0.0238189,587,932,-22.3384,-3.1929
-630,92,-22.3773,2.96564,-0.000140039,-0.00715897,0.00286987,0.000883983,-0.00818299,0.342736,0.00577259,0.0117121,594,932,-22.3773,-2.96563
-623,92,-22.4232,2.74005,-0.00185264,-0.00339697,0.00125577,-0.00115063,-0.00409898,0.509749,0.00244124,0.00847811,601,932,-22.4232,-2.74007
-616,92,-22.4382,2.50293,-0.00235566,-0.00132001,0.0008506,-0.000842009,-0.00283366,1.05882,0.00168029,0.00795943,608,932,-22.4382,-2.50294
-609,92,-22.4562,2.27997,-0.00260973,-0.000368437,0.000747,-0.000142288,-0.00283588,1.27683,0.00184499,0.00911551,615,932,-22.4562,-2.27997
-602,92,-22.4307,2.03937,-0.00315003,0.000206333,0.000814181,0.000393409,-0.0033371,1.34494,0.0023668,0.0102496,622,932,-22.4307,-2.03939
-595,92,-22.3739,1.76392,-0.00360571,0.000252432,0.000989664,0.000491482,-0.00384476,1.33379,0.00274173,0.0178994,629,932,-22.3739,-1.76391
-588,92,-22.3771,1.55872,-0.00370723,0.00031346,0.000884129,0.000499287,-0.00389306,1.36363,0.0027768,0.0202966,636,932,-22.3771,-1.55872
-581,92,-22.1135,1.3338,0,0,0,0,0,0,0,-1,643,932,-22.1135,-1.33378
-574,92,-22.8604,1.10999,0,0,0,0,0,0,0,-1,650,932,-22.8603,-1.10996
-567,92,-23.6072,0.886169,0,0,0,0,0,0,0,-1,657,932,-23.6072,-0.886142
-560,92,-24.1007,0.936401,-0.00315577,-0.000151449,-0.000918427,0.000107071,-0.00341429,-1.29641,0.00231271,0.0360226,664,932,-24.1007,-0.936431
-553,92,-24.11,0.973206,-0.00262309,-0.000220996,-0.00128898,0.000339766,-0.00318386,-1.16045,0.00224441,0.0412747,671,932,-24.11,-0.973222
-546,92,-24.1509,0.962036,-0.00182163,-0.000250548,-0.00176219,0.000893259,-0.00296543,-0.995066,0.00233244,0.0408396,678,932,-24.1509,-0.962027
-539,92,-24.1194,1.1145,-0.000705764,-0.000318532,-0.00237933,0.00187504,-0.00289934,-0.825996,0.00277756,0.0402607,685,932,-24.1194,-1.1145
-532,92,-24.148,1.16077,0.000710934,-0.000507231,-0.00319167,0.00335112,-0.00314742,-0.691114,0.00375255,0.0442355,692,932,-24.148,-1.16079
-525,92,-24.0829,0.993042,0.002082,-0.000766226,-0.00441459,0.00529649,-0.00398072,-0.629372,0.00537413,0.0394439,699,932,-24.0829,-0.993054
-518,92,-24.093,1.05304,0.00271078,-0.00100552,-0.00585705,0.00699737,-0.00529211,-0.631795,0.00711806,0.0394038,706,932,-24.093,-1.05306
-511,92,0,0,0,0,0,0,0,0,0,-1,713,932,0,0
-504,92,0,0,0,0,0,0,0,0,0,-1,720,932,0,0
-497,92,0,0,0,0,0,0,0,0,0,-1,727,932,0,0
-490,92,0,0,0,0,0,0,0,0,0,-1,734,932,0,0
-483,92,0,0,0,0,0,0,0,0,0,-1,741,932,0,0
-476,92,0,0,0,0,0,0,0,0,0,-1,748,932,0,0
-469,92,0,0,0,0,0,0,0,0,0,-1,755,932,0,0
-462,92,0,0,0,0,0,0,0,0,0,-1,762,932,0,0
-455,92,0,0,0,0,0,0,0,0,0,-1,769,932,0,0
-448,92,0,0,0,0,0,0,0,0,0,-1,776,932,0,0
-441,92,0,0,0,0,0,0,0,0,0,-1,783,932,0,0
-434,92,0,0,0,0,0,0,0,0,0,-1,790,932,0,0
-427,92,0,0,0,0,0,0,0,0,0,-1,797,932,0,0
-420,92,0,0,0,0,0,0,0,0,0,-1,804,932,0,0
-413,92,0,0,0,0,0,0,0,0,0,-1,811,932,0,0
-406,92,0,0,0,0,0,0,0,0,0,-1,818,932,0,0
-399,92,0,0,0,0,0,0,0,0,0,-1,825,932,0,0
-392,92,0,0,0,0,0,0,0,0,0,-1,832,932,0,0
-385,92,0,0,0,0,0,0,0,0,0,-1,839,932,0,0
-378,92,0,0,0,0,0,0,0,0,0,-1,846,932,0,0
-371,92,0,0,0,0,0,0,0,0,0,-1,853,932,0,0
-364,92,0,0,0,0,0,0,0,0,0,-1,860,932,0,0
-357,92,0,0,0,0,0,0,0,0,0,-1,867,932,0,0
-350,92,0,0,0,0,0,0,0,0,0,-1,874,932,0,0
-343,92,0,0,0,0,0,0,0,0,0,-1,881,932,0,0
-336,92,0,0,0,0,0,0,0,0,0,-1,888,932,0,0
-329,92,0,0,0,0,0,0,0,0,0,-1,895,932,0,0
-322,92,0,0,0,0,0,0,0,0,0,-1,902,932,0,0
-315,92,0,0,0,0,0,0,0,0,0,-1,909,932,0,0
-308,92,0,0,0,0,0,0,0,0,0,-1,916,932,0,0
-301,92,0,0,0,0,0,0,0,0,0,-1,923,932,0,0
-294,92,0,0,0,0,0,0,0,0,0,-1,930,932,0,0
-287,92,0,0,0,0,0,0,0,0,0,-1,937,932,0,0
-280,92,0,0,0,0,0,0,0,0,0,-1,944,932,0,0
-273,92,0,0,0,0,0,0,0,0,0,-1,951,932,0,0
-266,92,0,0,0,0,0,0,0,0,0,-1,958,932,0,0
-259,92,0,0,0,0,0,0,0,0,0,-1,965,932,0,0
-252,92,0,0,0,0,0,0,0,0,0,-1,972,932,0,0
-245,92,0,0,0,0,0,0,0,0,0,-1,979,932,0,0
-238,92,0,0,0,0,0,0,0,0,0,-1,986,932,0,0
-231,92,0,0,0,0,0,0,0,0,0,-1,993,932,0,0
-224,92,0,0,0,0,0,0,0,0,0,-1,1000,932,0,0
-217,92,0,0,0,0,0,0,0,0,0,-1,1007,932,0,0
-210,92,0,0,0,0,0,0,0,0,0,-1,1014,932,0,0
-203,92,0,0,0,0,0,0,0,0,0,-1,1021,932,0,0
-196,92,0,0,0,0,0,0,0,0,0,-1,1028,932,0,0
-189,92,0,0,0,0,0,0,0,0,0,-1,1035,932,0,0
-182,92,0,0,0,0,0,0,0,0,0,-1,1042,932,0,0
-175,92,0,0,0,0,0,0,0,0,0,-1,1049,932,0,0
-168,92,0,0,0,0,0,0,0,0,0,-1,1056,932,0,0
-161,92,0,0,0,0,0,0,0,0,0,-1,1063,932,0,0
-154,92,0,0,0,0,0,0,0,0,0,-1,1070,932,0,0
-147,92,0,0,0,0,0,0,0,0,0,-1,1077,932,0,0
-140,92,0,0,0,0,0,0,0,0,0,-1,1084,932,0,0
-133,92,0,0,0,0,0,0,0,0,0,-1,1091,932,0,0
-126,92,0,0,0,0,0,0,0,0,0,-1,1098,932,0,0
-119,92,0,0,0,0,0,0,0,0,0,-1,1105,932,0,0
-112,92,0,0,0,0,0,0,0,0,0,-1,1112,932,0,0
-105,92,0,0,0,0,0,0,0,0,0,-1,1119,932,0,0
-98,92,0,0,0,0,0,0,0,0,0,-1,1126,932,0,0
-91,92,0,0,0,0,0,0,0,0,0,-1,1133,932,0,0
-84,92,0,0,0,0,0,0,0,0,0,-1,1140,932,0,0
-77,92,0,0,0,0,0,0,0,0,0,-1,1147,932,0,0
-70,92,0,0,0,0,0,0,0,0,0,-1,1154,932,0,0
-63,92,0,0,0,0,0,0,0,0,0,-1,1161,932,0,0
-56,92,0,0,0,0,0,0,0,0,0,-1,1168,932,0,0
-49,92,0,0,0,0,0,0,0,0,0,-1,1175,932,0,0
-42,92,0,0,0,0,0,0,0,0,0,-1,1182,932,0,0
-35,92,0,0,0,0,0,0,0,0,0,-1,1189,932,0,0
-28,92,0,0,0,0,0,0,0,0,0,-1,1196,932,0,0
-21,92,0,0,0,0,0,0,0,0,0,-1,1203,932,0,0
-14,92,0,0,0,0,0,0,0,0,0,-1,1210,932,0,0
-7,92,0,0,0,0,0,0,0,0,0,-1,1217,932,0,0
0,92,0,0,0,0,0,0,0,0,0,-1,1224,932,0,0
7,92,0,0,0,0,0,0,0,0,0,-1,1231,932,0,0
14,92,0,0,0,0,0,0,0,0,0,-1,1238,932,0,0
21,92,0,0,0,0,0,0,0,0,0,-1,1245,932,0,0
28,92,0,0,0,0,0,0,0,0,0,-1,1252,932,0,0
35,92,0,0,0,0,0,0,0,0,0,-1,1259,932,0,0
42,92,0,0,0,0,0,0,0,0,0,-1,1266,932,0,0
49,92,0,0,0,0,0,0,0,0,0,-1,1273,932,0,0
56,92,0,0,0,0,0,0,0,0,0,-1,1280,932,0,0
63,92,0,0,0,0,0,0,0,0,0,-1,1287,932,0,0
70,92,0,0,0,0,0,0,0,0,0,-1,1294,932,0,0
77,92,0,0,0,0,0,0,0,0,0,-1,1301,932,0,0
84,92,0,0,0,0,0,0,0,0,0,-1,1308,932,0,0
91,92,0,0,0,0,0,0,0,0,0,-1,1315,932,0,0
98,92,0,0,0,0,0,0,0,0,0,-1,1322,932,0,0
105,92,0,0,0,0,0,0,0,0,0,-1,1329,932,0,0
112,92,0,0,0,0,0,0,0,0,0,-1,1336,932,0,0
119,92,0,0,0,0,0,0,0,0,0,-1,1343,932,0,0
126,92,0,0,0,0,0,0,0,0,0,-1,1350,932,0,0
133,92,0,0,0,0,0,0,0,0,0,-1,1357,932,0,0
140,92,0,0,0,0,0,0,0,0,0,-1,1364,932,0,0
147,92,0,0,0,0,0,0,0,0,0,-1,1371,932,0,0
154,92,0,0,0,0,0,0,0,0,0,-1,1378,932,0,0
161,92,0,0,0,0,0,0,0,0,0,-1,1385,932,0,0
168,92,0,0,0,0,0,0,0,0,0,-1,1392,932,0,0
175,92,0,0,0,0,0,0,0,0,0,-1,1399,932,0,0
182,92,0,0,0,0,0,0,0,0,0,-1,1406,932,0,0
189,92,0,0,0,0,0,0,0,0,0,-1,1413,932,0,0
196,92,0,0,0,0,0,0,0,0,0,-1,1420,932,0,0
203,92,0,0,0,0,0,0,0,0,0,-1,1427,932,0,0
210,92,0,0,0,0,0,0,0,0,0,-1,1434,932,0,0
217,92,0,0,0,0,0,0,0,0,0,-1,1441,932,0,0
224,92,0,0,0,0,0,0,0,0,0,-1,1448,932,0,0
231,92,0,0,0,0,0,0,0,0,0,-1,1455,932,0,0
238,92,0,0,0,0,0,0,0,0,0,-1,1462,932,0,0
245,92,0,0,0,0,0,0,0,0,0,-1,1469,932,0,0
252,92,0,0,0,0,0,0,0,0,0,-1,1476,932,0,0
259,92,0,0,0,0,0,0,0,0,0,-1,1483,932,0,0
266,92,0,0,0,0,0,0,0,0,0,-1,1490,932,0,0
273,92,0,0,0,0,0,0,0,0,0,-1,1497,932,0,0
280,92,0,0,0,0,0,0,0,0,0,-1,1504,932,0,0
287,92,0,0,0,0,0,0,0,0,0,-1,1511,932,0,0
294,92,0,0,0,0,0,0,0,0,0,-1,1518,932,0,0
301,92,0,0,0,0,0,0,0,0,0,-1,1525,932,0,0
308,92,0,0,0,0,0,0,0,0,0,-1,1532,932,0,0
315,92,0,0,0,0,0,0,0,0,0,-1,1539,932,0,0
322,92,0,0,0,0,0,0,0,0,0,-1,1546,932,0,0
329,92,0,0,0,0,0,0,0,0,0,-1,1553,932,0,0
336,92,0,0,0,0,0,0,0,0,0,-1,1560,932,0,0
343,92,0,0,0,0,0,0,0,0,0,-1,1567,932,0,0
350,92,0,0,0,0,0,0,0,0,0,-1,1574,932,0,0
357,92,0,0,0,0,0,0,0,0,0,-1,1581,932,0,0
364,92,0,0,0,0,0,0,0,0,0,-1,1588,932,0,0
371,92,0,0,0,0,0,0,0,0,0,-1,1595,932,0,0
378,92,0,0,0,0,0,0,0,0,0,-1,1602,932,0,0
385,92,0,0,0,0,0,0,0,0,0,-1,1609,932,0,0
392,92,0,0,0,0,0,0,0,0,0,-1,1616,932,0,0
399,92,0,0,0,0,0,0,0,0,0,-1,1623,932,0,0
406,92,0,0,0,0,0,0,0,0,0,-1,1630,932,0,0
413,92,0,0,0,0,0,0,0,0,0,-1,1637,932,0,0
420,92,0,0,0,0,0,0,0,0,0,-1,1644,932,0,0
427,92,0,0,0,0,0,0,0,0,0,-1,1651,932,0,0
434,92,0,0,0,0,0,0,0,0,0,-1,1658,932,0,0
441,92,0,0,0,0,0,0,0,0,0,-1,1665,932,0,0
448,92,0,0,0,0,0,0,0,0,0,-1,1672,932,0,0
455,92,0,0,0,0,0,0,0,0,0,-1,1679,932,0,0
462,92,0,0,0,0,0,0,0,0,0,-1,1686,932,0,0
469,92,0,0,0,0,0,0,0,0,0,-1,1693,932,0,0
476,92,0,0,0,0,0,0,0,0,0,-1,1700,932,0,0
483,92,0,0,0,0,0,0,0,0,0,-1,1707,932,0,0
490,92,0,0,0,0,0,0,0,0,0,-1,1714,932,0,0
497,92,0,0,0,0,0,0,0,0,0,-1,1721,932,0,0
504,92,0,0,0,0,0,0,0,0,0,-1,1728,932,0,0
511,92,0,0,0,0,0,0,0,0,0,-1,1735,932,0,0
518,92,0,0,0,0,0,0,0,0,0,-1,1742,932,0,0
525,92,0,0,0,0,0,0,0,0,0,-1,1749,932,0,0
532,92,0,0,0,0,0,0,0,0,0,-1,1756,932,0,0
539,92,0,0,0,0,0,0,0,0,0,-1,1763,932,0,0
546,92,0,0,0,0,0,0,0,0,0,-1,1770,932,0,0
553,92,0,0,0,0,0,0,0,0,0,-1,1777,932,0,0
560,92,0,0,0,0,0,0,0,0,0,-1,1784,932,0,0
567,92,0,0,0,0,0,0,0,0,0,-1,1791,932,0,0
574,92,0,0,0,0,0,0,0,0,0,-1,1798,932,0,0
581,92,0,0,0,0,0,0,0,0,0,-1,1805,932,0,0
588,92,0,0,0,0,0,0,0,0,0,-1,1812,932,0,0
595,92,0,0,0,0,0,0,0,0,0,-1,1819,932,0,0
602,92,0,0,0,0,0,0,0,0,0,-1,1826,932,0,0
609,92,0,0,0,0,0,0,0,0,0,-1,1833,932,0,0
616,92,0,0,0,0,0,0,0,0,0,-1,1840,932,0,0
623,92,0,0,0,0,0,0,0,0,0,-1,1847,932,0,0
630,92,0,0,0,0,0,0,0,0,0,-1,1854,932,0,0
637,92,33.5476,2.75287,0.00903412,0.00851082,-0.000452026,0.00929476,0.00825018,-0.523041,0.00587933,0.0445437,1861,932,33.5476,-2.75288
644,92,33.8219,2.71967,0.00594232,0.00583084,9.87317e-06,0.00594319,0.00582997,0.0876583,0.00392493,0.0405096,1868,932,33.8218,-2.7197
651,92,33.8289,2.72961,0.00386943,0.00376417,0.00023063,0.00405336,0.00358024,0.673212,0.00255915,0.0384102,1875,932,33.8289,-2.72963
658,92,33.7548,2.81024,0.0022741,0.00228869,0.000436693,0.00271815,0.00184464,0.793747,0.00160236,0.0385108,1882,932,33.7547,-2.81027
665,92,33.3522,2.97931,0,0,0,0,0,0,0,-1,1889,932,33.3521,-2.97931
672,92,33.7621,2.86841,0.000653414,0.000468071,0.00072741,0.00129403,-0.000172546,0.72204,0.00092558,0.0423209,1896,932,33.7621,-2.8684
679,92,33.8656,2.75201,0.000383758,-2.99407e-05,0.000811722,0.00101457,-0.000660754,0.660639,0.000974413,0.0393161,1903,932,33.8656,-2.75202
686,92,33.7239,2.78552,0.000221127,-0.000379242,0.000754478,0.000732944,-0.00089106,0.596064,0.000939099,0.0296053,1910,932,33.7238,-2.78552
693,92,33.7068,2.85614,-1.2238e-06,-0.000666228,0.000677486,0.000420956,-0.00108841,0.557273,0.000899384,0.0259823,1917,932,33.7067,-2.85613
700,92,33.6727,2.90637,0,0,0,0,0,0,0,-1,1924,932,33.6727,-2.90637
707,92,32.9893,3.26874,0,0,0,0,0,0,0,-1,1931,932,32.9893,-3.26874
714,92,31.2715,3.78064,0,0,0,0,0,0,0,-1,1938,932,31.2715,-3.78063
721,92,31.2592,4.13916,-8.95307e-05,0.000303396,2.46963e-05,0.000304942,-9.10768e-05,1.50827,0.000239497,0.0273822,1945,932,31.2592,-4.13916
728,92,31.2345,4.44183,-9.3308e-06,0.000778397,2.51609e-05,0.0007792,-1.01337e-05,1.5389,0.000522878,0.0194382,1952,932,31.2345,-4.44181
735,92,31.2129,4.67548,0.000428487,0.00143194,0.000245137,0.00148863,0.000371803,1.34356,0.000894618,0.0164322,1959,932,31.2129,-4.67546
742,92,31.233,4.90491,0.000836367,0.00229306,0.00045576,0.00242391,0.000705525,1.29123,0.00143959,0.0172039,1966,932,31.233,-4.90489
749,92,31.189,5.17041,0.00164727,0.00365394,0.000838257,0.00395803,0.00134318,1.2228,0.00232415,0.0158818,1973,932,31.1889,-5.17042
756,92,31.1334,5.41577,0.00301357,0.00521179,0.00161729,0.0060681,0.00215726,1.08385,0.00355185,0.0144719,1980,932,31.1334,-5.4158
763,92,31.1298,5.65845,0.00492884,0.00705589,0.00275083,0.00894163,0.0030431,0.969858,0.00524946,0.0163303,1987,932,31.1297,-5.65847
770,92,31.1111,5.9248,0.00738748,0.00905886,0.00406245,0.0123707,0.00407566,0.886838,0.00727938,0.0250566,1994,932,31.1111,-5.92478
777,92,31.1764,6.39154,0.01047,0.0112465,0.00550904,0.016381,0.00533555,0.820576,0.00964717,0.0414517,2001,932,31.1763,-6.39151
784,92,31.2465,7.06677,0.0143759,0.0136379,0.00694428,0.020961,0.00705283,0.758854,0.0123157,0.0454334,2008,932,31.2464,-7.06676
791,92,31.2753,7.34656,0.0191434,0.0163541,0.00782186,0.025694,0.00980355,0.697174,0.0149725,0.0481516,2015,932,31.2752,-7.34658
798,92,31.395,7.30225,0.0245684,0.0196948,0.00742525,0.0299465,0.0143167,0.626846,0.0172952,0.0476193,2022,932,31.3951,-7.30222
805,92,0,0,0,0,0,0,0,0,0,-1,2029,932,0,0
812,92,0,0,0,0,0,0,0,0,0,-1,2036,932,0,0
-700,85,0,0,0,0,0,0,0,0,0,-1,524,939,0,0
-693,85,0,0,0,0,0,0,0,0,0,-1,531,939,0,0
-686,85,-22.0914,-0.99939,0,0,0,0,0,0,0,-1,538,939,-22.0914,0.999392
-679,85,-21.7476,5.59973,0,0,0,0,0,0,0,-1,545,939,-21.7476,-5.59974
-672,85,-22.1359,5.42529,0.0400375,-0.00777359,0.0271466,0.0523039,-0.02004,0.424399,0.0431302,0.0455478,552,939,-22.1358,-5.42528
-665,85,-22.4476,5.14294,0.0289969,-0.00922623,0.0195608,0.0372326,-0.017462,0.398507,0.0322583,0.0461407,559,939,-22.4476,-5.14293
-658,85,-22.6875,5.12592,0.0201042,-0.00877052,0.013491,0.0254265,-0.0140928,0.375763,0.0231271,0.0490244,566,939,-22.6875,-5.12594
-651,85,-22.457,3.21362,0,0,0,0,0,0,0,-1,573,939,-22.457,-3.21365
-644,85,-22.5278,3.18597,0.00827336,-0.00571295,0.00571246,0.01031,-0.00774955,0.34247,0.0104615,0.0349852,580,939,-22.5278,-3.18598
-637,85,-22.587,3.13342,0.00461151,-0.00346242,0.00353934,0.00594335,-0.00479425,0.359906,0.00621118,0.0167763,587,939,-22.587,-3.13341
-630,85,-22.636,2.91473,0.000999519,-0.00459207,0.00196851,0.00162301,-0.00521556,0.306735,0.00412586,0.0101133,594,939,-22.6361,-2.91474
-623,85,-22.681,2.68616,-0.00144714,-0.00143803,0.000264021,-0.00117853,-0.00170665,0.794024,0.0010089,0.00916228,601,939,-22.6811,-2.68617
-616,85,-22.6888,2.48627,-0.00224697,-4.45086e-05,-1.00882e-05,-4.44624e-05,-0.00224702,-1.56622,0.00148341,0.00897806,608,939,-22.6888,-2.48625
-609,85,-22.7003,2.27502,-0.00274657,0.000435018,-4.62369e-06,0.000435025,-0.00274658,-1.56934,0.00199196,0.0114731,615,939,-22.7003,-2.27501
-602,85,-22.6895,2.0448,-0.00350414,0.000706597,0.000107187,0.000709323,-0.00350687,1.54536,0.00260672,0.0158493,622,939,-22.6895,-2.04477
-595,85,-22.6643,1.82397,-0.0041115,0.000588639,0.000382173,0.000619511,-0.00414238,1.49019,0.00298956,0.0178216,629,939,-22.6643,-1.82399
-588,85,-22.6407,1.60083,-0.00431139,0.000620475,0.000343611,0.0006443,-0.00433522,1.50157,0.00312712,0.0170031,636,939,-22.6407,-1.60084
-581,85,-22.4018,1.34937,0,0,0,0,0,0,0,-1,643,939,-22.4018,-1.34938
-574,85,-23.1488,1.23242,0,0,0,0,0,0,0,-1,650,939,-23.1488,-1.23243
-567,85,-23.8959,1.11548,0,0,0,0,0,0,0,-1,657,939,-23.8958,-1.11548
-560,85,-24.1373,0.907288,-0.00362833,0.000196041,-0.00131322,0.000603557,-0.00403584,-1.2699,0.00291267,0.0337926,664,939,-24.1373,-0.907288
-553,85,-24.1879,1.04907,-0.00297495,0.000127834,-0.00168762,0.000868794,-0.00371591,-1.15708,0.00281197,0.0418312,671,939,-24.1878,-1.04907
-546,85,-24.316,1.05945,-0.00198775,5.88126e-05,-0.00219725,0.00145937,-0.00338831,-1.00332,0.00287172,0.0402408,678,939,-24.316,-1.05945
-539,85,-24.2668,1.17023,-0.000632289,-9.20317e-05,-0.00292115,0.00257145,-0.00329577,-0.831504,0.00339604,0.0377184,685,939,-24.2668,-1.17022
-532,85,-24.1635,1.15546,0.00107635,-0.000399485,-0.00400128,0.00440719,-0.00373032,-0.694213,0.00470361,0.0380135,692,939,-24.1635,-1.15548
-525,85,-24.1116,0.890442,0.00247936,-0.00076013,-0.00575508,0.00683829,-0.00511906,-0.648223,0.00692732,0.0349019,699,939,-24.1116,-0.890457
-518,85,-24.0784,1.00647,0.00274051,-0.00109842,-0.00807104,0.00911719,-0.0074751,-0.668656,0.00959519,0.0369519,706,939,-24.0784,-1.00647
-511,85,0,0,0,0,0,0,0,0,0,-1,713,939,0,0
-504,85,0,0,0,0,0,0,0,0,0,-1,720,939,0,0
-497,85,0,0,0,0,0,0,0,0,0,-1,727,939,0,0
-490,85,0,0,0,0,0,0,0,0,0,-1,734,939,0,0
-483,85,0,0,0,0,0,0,0,0,0,-1,741,939,0,0
-476,85,0,0,0,0,0,0,0,0,0,-1,748,939,0,0
-469,85,0,0,0,0,0,0,0,0,0,-1,755,939,0,0
-462,85,0,0,0,0,0,0,0,0,0,-1,762,939,0,0
-455,85,0,0,0,0,0,0,0,0,0,-1,769,939,0,0
-448,85,0,0,0,0,0,0,0,0,0,-1,776,939,0,0
-441,85,0,0,0,0,0,0,0,0,0,-1,783,939,0,0
-434,85,0,0,0,0,0,0,0,0,0,-1,790,939,0,0
-427,85,0,0,0,0,0,0,0,0,0,-1,797,939,0,0
-420,85,0,0,0,0,0,0,0,0,0,-1,804,939,0,0
-413,85,0,0,0,0,0,0,0,0,0,-1,811,939,0,0
-406,85,0,0,0,0,0,0,0,0,0,-1,818,939,0,0
-399,85,0,0,0,0,0,0,0,0,0,-1,825,939,0,0
-392,85,0,0,0,0,0,0,0,0,0,-1,832,939,0,0
-385,85,0,0,0,0,0,0,0,0,0,-1,839,939,0,0
-378,85,0,0,0,0,0,0,0,0,0,-1,846,939,0,0
-371,85,0,0,0,0,0,0,0,0,0,-1,853,939,0,0
-364,85,0,0,0,0,0,0,0,0,0,-1,860,939,0,0
-357,85,0,0,0,0,0,0,0,0,0,-1,867,939,0,0
-350,85,0,0,0,0,0,0,0,0,0,-1,874,939,0,0
-343,85,0,0,0,0,0,0,0,0,0,-1,881,939,0,0
-336,85,0,0,0,0,0,0,0,0,0,-1,888,939,0,0
-329,85,0,0,0,0,0,0,0,0,0,-1,895,939,0,0
-322,85,0,0,0,0,0,0,0,0,0,-1,902,939,0,0
-315,85,0,0,0,0,0,0,0,0,0,-1,909,939,0,0
-308,85,0,0,0,0,0,0,0,0,0,-1,916,939,0,0
-301,85,0,0,0,0,0,0,0,0,0,-1,923,939,0,0
-294,85,0,0,0,0,0,0,0,0,0,-1,930,939,0,0
-287,85,0,0,0,0,0,0,0,0,0,-1,937,939,0,0
-280,85,0,0,0,0,0,0,0,0,0,-1,944,939,0,0
-273,85,0,0,0,0,0,0,0,0,0,-1,951,939,0,0
-266,85,0,0,0,0,0,0,0,0,0,-1,958,939,0,0
-259,85,0,0,0,0,0,0,0,0,0,-1,965,939,0,0
-252,85,0,0,0,0,0,0,0,0,0,-1,972,939,0,0
-245,85,0,0,0,0,0,0,0,0,0,-1,979,939,0,0
-238,85,0,0,0,0,0,0,0,0,0,-1,986,939,0,0
-231,85,0,0,0,0,0,0,0,0,0,-1,993,939,0,0
-224,85,0,0,0,0,0,0,0,0,0,-1,1000,939,0,0
-217,85,0,0,0,0,0,0,0,0,0,-1,1007,939,0,0
-210,85,0,0,0,0,0,0,0,0,0,-1,1014,939,0,0
-203,85,0,0,0,0,0,0,0,0,0,-1,1021,939,0,0
-196,85,0,0,0,0,0,0,0,0,0,-1,1028,939,0,0
-189,85,0,0,0,0,0,0,0,0,0,-1,1035,939,0,0
-182,85,0,0,0,0,0,0,0,0,0,-1,1042,939,0,0
-175,85,0,0,0,0,0,0,0,0,0,-1,1049,939,0,0
-168,85,0,0,0,0,0,0,0,0,0,-1,1056,939,0,0
-161,85,0,0,0,0,0,0,0,0,0,-1,1063,939,0,0
-154,85,0,0,0,0,0,0,0,0,0,-1,1070,939,0,0
-147,85,0,0,0,0,0,0,0,0,0,-1,1077,939,0,0
-140,85,0,0,0,0,0,0,0,0,0,-1,1084,939,0,0
-133,85,0,0,0,0,0,0,0,0,0,-1,1091,939,0,0
-126,85,0,0,0,0,0,0,0,0,0,-1,1098,939,0,0
-119,85,0,0,0,0,0,0,0,0,0,-1,1105,939,0,0
-112,85,0,0,0,0,0,0,0,0,0,-1,1112,939,0,0
-105,85,0,0,0,0,0,0,0,0,0,-1,1119,939,0,0
-98,85,0,0,0,0,0,0,0,0,0,-1,1126,939,0,0
-91,85,0,0,0,0,0,0,0,0,0,-1,1133,939,0,0
-84,85,0,0,0,0,0,0,0,0,0,-1,1140,939,0,0
-77,85,0,0,0,0,0,0,0,0,0,-1,1147,939,0,0
-70,85,0,0,0,0,0,0,0,0,0,-1,1154,939,0,0
-63,85,0,0,0,0,0,0,0,0,0,-1,1161,939,0,0
-56,85,0,0,0,0,0,0,0,0,0,-1,1168,939,0,0
-49,85,0,0,0,0,0,0,0,0,0,-1,1175,939,0,0
-42,85,0,0,0,0,0,0,0,0,0,-1,1182,939,0,0
-35,85,0,0,0,0,0,0,0,0,0,-1,1189,939,0,0
-28,85,0,0,0,0,0,0,0,0,0,-1,1196,939,0,0
-21,85,0,0,0,0,0,0,0,0,0,-1,1203,939,0,0
-14,85,0,0,0,0,0,0,0,0,0,-1,1210,939,0,0
-7,85,0,0,0,0,0,0,0,0,0,-1,1217,939,0,0
0,85,0,0,0,0,0,0,0,0,0,-1,1224,939,0,0
7,85,0,0,0,0,0,0,0,0,0,-1,1231,939,0,0
14,85,0,0,0,0,0,0,0,0,0,-1,1238,939,0,0
21,85,0,0,0,0,0,0,0,0,0,-1,1245,939,0,0
28,85,0,0,0,0,0,0,0,0,0,-1,1252,939,0,0
35,85,0,0,0,0,0,0,0,0,0,-1,1259,939,0,0
42,85,0,0,0,0,0,0,0,0,0,-1,1266,939,0,0
49,85,0,0,0,0,0,0,0,0,0,-1,1273,939,0,0
56,85,0,0,0,0,0,0,0,0,0,-1,1280,939,0,0
63,85,0,0,0,0,0,0,0,0,0,-1,1287,939,0,0
70,85,0,0,0,0,0,0,0,0,0,-1,1294,939,0,0
77,85,0,0,0,0,0,0,0,0,0,-1,1301,939,0,0
84,85,0,0,0,0,0,0,0,0,0,-1,1308,939,0,0
91,85,0,0,0,0,0,0,0,0,0,-1,1315,939,0,0
98,85,0,0,0,0,0,0,0,0,0,-1,1322,939,0,0
105,85,0,0,0,0,0,0,0,0,0,-1,1329,939,0,0
112,85,0,0,0,0,0,0,0,0,0,-1,1336,939,0,0
119,85,0,0,0,0,0,0,0,0,0,-1,1343,939,0,0
126,85,0,0,0,0,0,0,0,0,0,-1,1350,939,0,0
133,85,0,0,0,0,0,0,0,0,0,-1,1357,939,0,0
140,85,0,0,0,0,0,0,0,0,0,-1,1364,939,0,0
147,85,0,0,0,0,0,0,0,0,0,-1,1371,939,0,0
154,85,0,0,0,0,0,0,0,0,0,-1,1378,939,0,0
161,85,0,0,0,0,0,0,0,0,0,-1,1385,939,0,0
168,85,0,0,0,0,0,0,0,0,0,-1,1392,939,0,0
175,85,0,0,0,0,0,0,0,0,0,-1,1399,939,0,0
182,85,0,0,0,0,0,0,0,0,0,-1,1406,939,0,0
189,85,0,0,0,0,0,0,0,0,0,-1,1413,939,0,0
196,85,0,0,0,0,0,0,0,0,0,-1,1420,939,0,0
203,85,0,0,0,0,0,0,0,0,0,-1,1427,939,0,0
210,85,0,0,0,0,0,0,0,0,0,-1,1434,939,0,0
217,85,0,0,0,0,0,0,0,0,0,-1,1441,939,0,0
224,85,0,0,0,0,0,0,0,0,0,-1,1448,939,0,0
231,85,0,0,0,0,0,0,0,0,0,-1,1455,939,0,0
238,85,0,0,0,0,0,0,0,0,0,-1,1462,939,0,0
245,85,0,0,0,0,0,0,0,0,0,-1,1469,939,0,0
252,85,0,0,0,0,0,0,0,0,0,-1,1476,939,0,0
259,85,0,0,0,0,0,0,0,0,0,-1,1483,939,0,0
266,85,0,0,0,0,0,0,0,0,0,-1,1490,939,0,0
273,85,0,0,0,0,0,0,0,0,0,-1,1497,939,0,0
280,85,0,0,0,0,0,0,0,0,0,-1,1504,939,0,0
287,85,0,0,0,0,0,0,0,0,0,-1,1511,939,0,0
294,85,0,0,0,0,0,0,0,0,0,-1,1518,939,0,0
301,85,0,0,0,0,0,0,0,0,0,-1,1525,939,0,0
308,85,0,0,0,0,0,0,0,0,0,-1,1532,939,0,0
315,85,0,0,0,0,0,0,0,0,0,-1,1539,939,0,0
322,85,0,0,0,0,0,0,0,0,0,-1,1546,939,0,0
329,85,0,0,0,0,0,0,0,0,0,-1,1553,939,0,0
336,85,0,0,0,0,0,0,0,0,0,-1,1560,939,0,0
343,85,0,0,0,0,0,0,0,0,0,-1,1567,939,0,0
350,85,0,0,0,0,0,0,0,0,0,-1,1574,939,0,0
357,85,0,0,0,0,0,0,0,0,0,-1,1581,939,0,0
364,85,0,0,0,0,0,0,0,0,0,-1,1588,939,0,0
371,85,0,0,0,0,0,0,0,0,0,-1,1595,939,0,0
378,85,0,0,0,0,0,0,0,0,0,-1,1602,939,0,0
385,85,0,0,0,0,0,0,0,0,0,-1,1609,939,0,0
392,85,0,0,0,0,0,0,0,0,0,-1,1616,939,0,0
399,85,0,0,0,0,0,0,0,0,0,-1,1623,939,0,0
406,85,0,0,0,0,0,0,0,0,0,-1,1630,939,0,0
413,85,0,0,0,0,0,0,0,0,0,-1,1637,939,0,0
420,85,0,0,0,0,0,0,0,0,0,-1,1644,939,0,0
427,85,0,0,0,0,0,0,0,0,0,-1,1651,939,0,0
434,85,0,0,0,0,0,0,0,0,0,-1,1658,939,0,0
441,85,0,0,0,0,0,0,0,0,0,-1,1665,939,0,0
448,85,0,0,0,0,0,0,0,0,0,-1,1672,939,0,0
455,85,0,0,0,0,0,0,0,0,0,-1,1679,939,0,0
462,85,0,0,0,0,0,0,0,0,0,-1,1686,939,0,0
469,85,0,0,0,0,0,0,0,0,0,-1,1693,939,0,0
476,85,0,0,0,0,0,0,0,0,0,-1,1700,939,0,0
483,85,0,0,0,0,0,0,0,0,0,-1,1707,939,0,0
490,85,0,0,0,0,0,0,0,0,0,-1,1714,939,0,0
497,85,0,0,0,0,0,0,0,0,0,-1,1721,939,0,0
504,85,0,0,0,0,0,0,0,0,0,-1,1728,939,0,0
511,85,0,0,0,0,0,0,0,0,0,-1,1735,939,0,0
518,85,0,0,0,0,0,0,0,0,0,-1,1742,939,0,0
525,85,0,0,0,0,0,0,0,0,0,-1,1749,939,0,0
532,85,0,0,0,0,0,0,0,0,0,-1,1756,939,0,0
539,85,0,0,0,0,0,0,0,0,0,-1,1763,939,0,0
546,85,0,0,0,0,0,0,0,0,0,-1,1770,939,0,0
553,85,0,0,0,0,0,0,0,0,0,-1,1777,939,0,0
560,85,0,0,0,0,0,0,0,0,0,-1,1784,939,0,0
567,85,0,0,0,0,0,0,0,0,0,-1,1791,939,0,0
574,85,0,0,0,0,0,0,0,0,0,-1,1798,939,0,0
581,85,0,0,0,0,0,0,0,0,0,-1,1805,939,0,0
588,85,0,0,0,0,0,0,0,0,0,-1,1812,939,0,0
595,85,0,0,0,0,0,0,0,0,0,-1,1819,939,0,0
602,85,0,0,0,0,0,0,0,0,0,-1,1826,939,0,0
609,85,0,0,0,0,0,0,0,0,0,-1,1833,939,0,0
616,85,0,0,0,0,0,0,0,0,0,-1,1840,939,0,0
623,85,0,0,0,0,0,0,0,0,0,-1,1847,939,0,0
630,85,0,0,0,0,0,0,0,0,0,-1,1854,939,0,0
637,85,33.7872,2.8963,0,0,0,0,0,0,0,-1,1861,939,33.7872,-2.89632
644,85,33.9187,2.66846,0.00672495,0.00577088,-0.000193039,0.00676253,0.0057333,-0.19226,0.00420745,0.0446955,1868,939,33.9188,-2.66844
651,85,33.949,2.49182,0.00444414,0.00360351,0.000246211,0.00451095,0.0035367,0.264946,0.00274089,0.041101,1875,939,33.9489,-2.49185
658,85,33.767,2.71869,0.00265557,0.00207898,0.000621135,0.00305206,0.0016825,0.56812,0.00176519,0.0409824,1882,939,33.767,-2.71869
665,85,33.5693,2.73901,0.00139999,0.000945459,0.000909014,0.00210972,0.000235732,0.662902,0.00133486,0.0419897,1889,939,33.5693,-2.73903
672,85,33.8239,2.60968,0.000615757,0.00014745,0.00111281,0.00151878,-0.000755571,0.681702,0.00133751,0.0427948,1896,939,33.8239,-2.6097
679,85,33.9193,2.68756,0.000193402,-0.00037567,0.00122173,0.00116329,-0.00134556,0.67099,0.00144976,0.0394127,1903,939,33.9194,-2.68756
686,85,33.7362,2.80524,-2.39102e-05,-0.000728443,0.00115767,0.000833902,-0.00158626,0.637704,0.00141961,0.0340465,1910,939,33.7362,-2.80521
693,85,33.703,2.82495,-0.000277441,-0.00103891,0.00105726,0.000465546,-0.0017819,0.612569,0.00136974,0.0285463,1917,939,33.7031,-2.82496
700,85,33.6775,2.89465,-0.000502659,-0.001018,0.000951108,0.000225066,-0.00174572,0.653117,0.00124563,0.0380539,1924,939,33.6775,-2.89468
707,85,33.6869,3.01544,0,0,0,0,0,0,0,-1,1931,939,33.6869,-3.01544
714,85,31.5015,3.82617,0,0,0,0,0,0,0,-1,1938,939,31.5014,-3.82617
721,85,31.5049,4.15399,-0.000518085,7.46836e-05,0.000271902,0.000180511,-0.000623913,1.19962,0.000487385,0.0254775,1945,939,31.5049,-4.15399
728,85,31.4833,4.49695,-0.000427089,0.000638574,0.000189661,0.000671322,-0.000459837,1.39981,0.000656869,0.0205118,1952,939,31.4832,-4.49694
735,85,31.4814,4.67627,-2.31702e-05,0.0013721,0.00031721,0.00144083,-9.19012e-05,1.35742,0.000992609,0.0199626,1959,939,31.4815,-4.67627
742,85,31.5248,4.91101,0.000292087,0.00231188,0.000446453,0.00240616,0.000197805,1.36267,0.00154241,0.0157427,1966,939,31.5248,-4.911
749,85,31.4709,5.16992,0.00090679,0.00382079,0.000702805,0.00398144,0.000746142,1.34608,0.00244385,0.0134144,1973,939,31.471,-5.16989
756,85,31.4082,5.40143,0.00197079,0.00560987,0.00132388,0.00604052,0.00154014,1.25629,0.00362441,0.0127714,1980,939,31.4082,-5.40142
763,85,31.3959,5.62836,0.00356627,0.00777689,0.00228726,0.00878026,0.0025629,1.1574,0.0052136,0.01314,1987,939,31.3959,-5.62833
770,85,31.3748,5.80927,0.00568555,0.010197,0.0034172,0.0120359,0.0038467,1.07712,0.00709807,0.0191356,1994,939,31.3748,-5.80925
777,85,31.4247,6.31079,0.00833221,0.0129268,0.00459942,0.0157708,0.00548828,1.01701,0.00924442,0.0406343,2001,939,31.4246,-6.31077
784,85,31.5502,6.95569,0.0117609,0.0160595,0.00570943,0.0200108,0.00780961,0.96542,0.0116456,0.0453859,2008,939,31.5501,-6.95568
791,85,31.6105,7.36938,0,0,0,0,0,0,0,-1,2015,939,31.6104,-7.36939
798,85,31.323,6.88574,0,0,0,0,0,0,0,-1,2022,939,31.3229,-6.88576
805,85,31.3491,6.67969,0,0,0,0,0,0,0,-1,2029,939,31.3492,-6.67967
812,85,0,0,0,0,0,0,0,0,0,-1,2036,939,0,0
-700,78,0,0,0,0,0,0,0,0,0,-1,524,946,0,0
-693,78,0,0,0,0,0,0,0,0,0,-1,531,946,0,0
-686,78,-22.6258,-0.363403,0,0,0,0,0,0,0,-1,538,946,-22.6258,0.363432
-679,78,-21.5362,0.210938,0,0,0,0,0,0,0,-1,545,946,-21.5362,-0.210937
-672,78,-22.2205,5.50653,0,0,0,0,0,0,0,-1,552,946,-22.2205,-5.50654
-665,78,-22.628,5.03607,0,0,0,0,0,0,0,-1,559,946,-22.628,-5.03605
-658,78,-22.8956,4.78259,0,0,0,0,0,0,0,-1,566,946,-22.8956,-4.78257
-651,78,-22.5959,3.66528,0.0168565,-0.00438285,0.00927223,0.0203347,-0.00786111,0.358882,0.0168015,0.0435647,573,946,-22.5959,-3.66527
-644,78,-22.705,3.31744,0.0106949,-0.00255753,0.00571145,0.0128167,-0.00467931,0.355695,0.0104591,0.0272874,580,946,-22.705,-3.31742
-637,78,-22.82,3.06677,0.00609631,-0.000320241,0.00326113,0.00746275,-0.00168668,0.396784,0.00562236,0.0135514,587,946,-22.82,-3.06676
-630,78,-22.9016,2.85474,0.00166918,-0.00162341,0.00136614,0.00216219,-0.00211642,0.346332,0.0024703,0.0123941,594,946,-22.9015,-2.85472
-623,78,-22.9351,2.63885,-0.00132312,0.00077762,-0.00051823,0.000898505,-0.00144401,-1.34163,0.00136462,0.0121585,601,946,-22.9351,-2.63884
-616,78,-22.9266,2.45227,-0.00225183,0.0013724,-0.000778167,0.00153241,-0.00241184,-1.36799,0.00229601,0.0108306,608,946,-22.9266,-2.45225
-609,78,-22.8925,2.26556,-0.00288061,0.00133983,-0.000751621,0.00146969,-0.00301047,-1.39971,0.00263712,0.0105251,615,946,-22.8925,-2.26557
-602,78,-22.9051,2.04077,-0.00375063,0.00127164,-0.000644238,0.00135297,-0.00383195,-1.44523,0.00310547,0.0145324,622,946,-22.9051,-2.04075
-595,78,-22.9017,1.79987,-0.00440616,0.000929218,-0.000343181,0.000951201,-0.00442814,-1.50683,0.00331497,0.0151945,629,946,-22.9017,-1.79985
-588,78,-22.8993,1.64685,-0.00470353,0.000889552,-0.000340861,0.000910248,-0.00472423,-1.51015,0.00349267,0.0132366,636,946,-22.8993,-1.64686
-581,78,-22.9785,1.47845,-0.00485983,0.000883077,-0.00071451,0.000970639,-0.0049474,-1.44886,0.00366491,0.0268219,643,946,-22.9785,-1.47848
-574,78,-23.4866,1.23804,-0.00462176,0.000773912,-0.00119051,0.00102491,-0.00487276,-1.36301,0.00363858,0.0319339,650,946,-23.4867,-1.23806
-567,78,-24.0814,1.08246,0,0,0,0,0,0,0,-1,657,946,-24.0814,-1.08246
-560,78,-24.1125,0.941162,-0.00388452,0.000521352,-0.0016582,0.00107569,-0.00443886,-1.24818,0.00337543,0.0302668,664,946,-24.1125,-0.941173
-553,78,-24.0583,1.09637,-0.00311313,0.000447685,-0.00195312,0.0013101,-0.00397555,-1.15498,0.00317838,0.0402596,671,946,-24.0583,-1.09639
-546,78,-24.1581,1.10675,-0.00194146,0.00032205,-0.00238178,0.00182729,-0.0034467,-1.00719,0.00309242,0.0397307,678,946,-24.1581,-1.10678
-539,78,-24.1384,1.09564,-0.000336994,3.36654e-05,-0.00303976,0.00289374,-0.00319707,-0.815845,0.00351798,0.0368708,685,946,-24.1384,-1.09566
-532,78,-24.0944,0.998169,0.00167949,-0.000501447,-0.00413606,0.00486642,-0.00368837,-0.656506,0.0049547,0.038503,692,946,-24.0944,-0.998188
-525,78,-23.9981,0.864685,0.0032029,-0.0011798,-0.00605108,0.0074472,-0.0054241,-0.611673,0.00746178,0.0379691,699,946,-23.9981,-0.864704
-518,78,-23.913,1.03027,0.00341734,-0.00199541,-0.00871849,0.00983985,-0.00841792,-0.634905,0.0105518,0.0404867,706,946,-23.913,-1.03024
-511,78,0,0,0,0,0,0,0,0,0,-1,713,946,0,0
-504,78,0,0,0,0,0,0,0,0,0,-1,720,946,0,0
-497,78,0,0,0,0,0,0,0,0,0,-1,727,946,0,0
-490,78,0,0,0,0,0,0,0,0,0,-1,734,946,0,0
-483,78,0,0,0,0,0,0,0,0,0,-1,741,946,0,0
-476,78,0,0,0,0,0,0,0,0,0,-1,748,946,0,0
-469,78,0,0,0,0,0,0,0,0,0,-1,755,946,0,0
-462,78,0,0,0,0,0,0,0,0,0,-1,762,946,0,0
-455,78,0,0,0,0,0,0,0,0,0,-1,769,946,0,0
-448,78,0,0,0,0,0,0,0,0,0,-1,776,946,0,0
-441,78,0,0,0,0,0,0,0,0,0,-1,783,946,0,0
-434,78,0,0,0,0,0,0,0,0,0,-1,790,946,0,0
-427,78,0,0,0,0,0,0,0,0,0,-1,797,946,0,0
-420,78,0,0,0,0,0,0,0,0,0,-1,804,946,0,0
-413,78,0,0,0,0,0,0,0,0,0,-1,811,946,0,0
-406,78,0,0,0,0,0,0,0,0,0,-1,818,946,0,0
-399,78,0,0,0,0,0,0,0,0,0,-1,825,946,0,0
-392,78,0,0,0,0,0,0,0,0,0,-1,832,946,0,0
-385,78,0,0,0,0,0,0,0,0,0,-1,839,946,0,0
-378,78,0,0,0,0,0,0,0,0,0,-1,846,946,0,0
-371,78,0,0,0,0,0,0,0,0,0,-1,853,946,0,0
-364,78,0,0,0,0,0,0,0,0,0,-1,860,946,0,0
-357,78,0,0,0,0,0,0,0,0,0,-1,867,946,0,0
-350,78,0,0,0,0,0,0,0,0,0,-1,874,946,0,0
-343,78,0,0,0,0,0,0,0,0,0,-1,881,946,0,0
-336,78,0,0,0,0,0,0,0,0,0,-1,888,946,0,0
-329,78,0,0,0,0,0,0,0,0,0,-1,895,946,0,0
-322,78,0,0,0,0,0,0,0,0,0,-1,902,946,0,0
-315,78,0,0,0,0,0,0,0,0,0,-1,909,946,0,0
-308,78,0,0,0,0,0,0,0,0,0,-1,916,946,0,0
-301,78,0,0,0,0,0,0,0,0,0,-1,923,946,0,0
-294,78,0,0,0,0,0,0,0,0,0,-1,930,946,0,0
-287,78,0,0,0,0,0,0,0,0,0,-1,937,946,0,0
-280,78,0,0,0,0,0,0,0,0,0,-1,944,946,0,0
-273,78,0,0,0,0,0,0,0,0,0,-1,951,946,0,0
-266,78,0,0,0,0,0,0,0,0,0,-1,958,946,0,0
-259,78,0,0,0,0,0,0,0,0,0,-1,965,946,0,0
-252,78,0,0,0,0,0,0,0,0,0,-1,972,946,0,0
-245,78,0,0,0,0,0,0,0,0,0,-1,979,946,0,0
-238,78,0,0,0,0,0,0,0,0,0,-1,986,946,0,0
-231,78,0,0,0,0,0,0,0,0,0,-1,993,946,0,0
-224,78,0,0,0,0,0,0,0,0,0,-1,1000,946,0,0
-217,78,0,0,0,0,0,0,0,0,0,-1,1007,946,0,0
-210,78,0,0,0,0,0,0,0,0,0,-1,1014,946,0,0
-203,78,0,0,0,0,0,0,0,0,0,-1,1021,946,0,0
-196,78,0,0,0,0,0,0,0,0,0,-1,1028,946,0,0
-189,78,0,0,0,0,0,0,0,0,0,-1,1035,946,0,0
-182,78,0,0,0,0,0,0,0,0,0,-1,1042,946,0,0
-175,78,0,0,0,0,0,0,0,0,0,-1,1049,946,0,0
-168,78,0,0,0,0,0,0,0,0,0,-1,1056,946,0,0
-161,78,0,0,0,0,0,0,0,0,0,-1,1063,946,0,0
-154,78,0,0,0,0,0,0,0,0,0,-1,1070,946,0,0
-147,78,0,0,0,0,0,0,0,0,0,-1,1077,946,0,0
-140,78,0,0,0,0,0,0,0,0,0,-1,1084,946,0,0
-133,78,0,0,0,0,0,0,0,0,0,-1,1091,946,0,0
-126,78,0,0,0,0,0,0,0,0,0,-1,1098,946,0,0
-119,78,0,0,0,0,0,0,0,0,0,-1,1105,946,0,0
-112,78,0,0,0,0,0,0,0,0,0,-1,1112,946,0,0
-105,78,0,0,0,0,0,0,0,0,0,-1,1119,946,0,0
-98,78,0,0,0,0,0,0,0,0,0,-1,1126,946,0,0
-91,78,0,0,0,0,0,0,0,0,0,-1,1133,946,0,0
-84,78,0,0,0,0,0,0,0,0,0,-1,1140,946,0,0
-77,78,0,0,0,0,0,0,0,0,0,-1,1147,946,0,0
-70,78,0,0,0,0,0,0,0,0,0,-1,1154,946,0,0
-63,78,0,0,0,0,0,0,0,0,0,-1,1161,946,0,0
-56,78,0,0,0,0,0,0,0,0,0,-1,1168,946,0,0
-49,78,0,0,0,0,0,0,0,0,0,-1,1175,946,0,0
-42,78,0,0,0,0,0,0,0,0,0,-1,1182,946,0,0
-35,78,0,0,0,0,0,0,0,0,0,-1,1189,946,0,0
-28,78,0,0,0,0,0,0,0,0,0,-1,1196,946,0,0
-21,78,0,0,0,0,0,0,0,0,0,-1,1203,946,0,0
-14,78,0,0,0,0,0,0,0,0,0,-1,1210,946,0,0
-7,78,0,0,0,0,0,0,0,0,0,-1,1217,946,0,0
0,78,0,0,0,0,0,0,0,0,0,-1,1224,946,0,0
7,78,0,0,0,0,0,0,0,0,0,-1,1231,946,0,0
14,78,0,0,0,0,0,0,0,0,0,-1,1238,946,0,0
21,78,0,0,0,0,0,0,0,0,0,-1,1245,946,0,0
28,78,0,0,0,0,0,0,0,0,0,-1,1252,946,0,0
35,78,0,0,0,0,0,0,0,0,0,-1,1259,946,0,0
42,78,0,0,0,0,0,0,0,0,0,-1,1266,946,0,0
49,78,0,0,0,0,0,0,0,0,0,-1,1273,946,0,0
56,78,0,0,0,0,0,0,0,0,0,-1,1280,946,0,0
63,78,0,0,0,0,0,0,0,0,0,-1,1287,946,0,0
70,78,0,0,0,0,0,0,0,0,0,-1,1294,946,0,0
77,78,0,0,0,0,0,0,0,0,0,-1,1301,946,0,0
84,78,0,0,0,0,0,0,0,0,0,-1,1308,946,0,0
91,78,0,0,0,0,0,0,0,0,0,-1,1315,946,0,0
98,78,0,0,0,0,0,0,0,0,0,-1,1322,946,0,0
105,78,0,0,0,0,0,0,0,0,0,-1,1329,946,0,0
112,78,0,0,0,0,0,0,0,0,0,-1,1336,946,0,0
119,78,0,0,0,0,0,0,0,0,0,-1,1343,946,0,0
126,78,0,0,0,0,0,0,0,0,0,-1,1350,946,0,0
133,78,0,0,0,0,0,0,0,0,0,-1,1357,946,0,0
140,78,0,0,0,0,0,0,0,0,0,-1,1364,946,0,0
147,78,0,0,0,0,0,0,0,0,0,-1,1371,946,0,0
154,78,0,0,0,0,0,0,0,0,0,-1,1378,946,0,0
161,78,0,0,0,0,0,0,0,0,0,-1,1385,946,0,0
168,78,0,0,0,0,0,0,0,0,0,-1,1392,946,0,0
175,78,0,0,0,0,0,0,0,0,0,-1,1399,946,0,0
182,78,0,0,0,0,0,0,0,0,0,-1,1406,946,0,0
189,78,0,0,0,0,0,0,0,0,0,-1,1413,946,0,0
196,78,0,0,0,0,0,0,0,0,0,-1,1420,946,0,0
203,78,0,0,0,0,0,0,0,0,0,-1,1427,946,0,0
210,78,0,0,0,0,0,0,0,0,0,-1,1434,946,0,0
217,78,0,0,0,0,0,0,0,0,0,-1,1441,946,0,0
224,78,0,0,0,0,0,0,0,0,0,-1,1448,946,0,0
231,78,0,0,0,0,0,0,0,0,0,-1,1455,946,0,0
238,78,0,0,0,0,0,0,0,0,0,-1,1462,946,0,0
245,78,0,0,0,0,0,0,0,0,0,-1,1469,946,0,0
252,78,0,0,0,0,0,0,0,0,0,-1,1476,946,0,0
259,78,0,0,0,0,0,0,0,0,0,-1,1483,946,0,0
266,78,0,0,0,0,0,0,0,0,0,-1,1490,946,0,0
273,78,0,0,0,0,0,0,0,0,0,-1,1497,946,0,0
280,78,0,0,0,0,0,0,0,0,0,-1,1504,946,0,0
287,78,0,0,0,0,0,0,0,0,0,-1,1511,946,0,0
294,78,0,0,0,0,0,0,0,0,0,-1,1518,946,0,0
301,78,0,0,0,0,0,0,0,0,0,-1,1525,946,0,0
308,78,0,0,0,0,0,0,0,0,0,-1,1532,946,0,0
315,78,0,0,0,0,0,0,0,0,0,-1,1539,946,0,0
322,78,0,0,0,0,0,0,0,0,0,-1,1546,946,0,0
329,78,0,0,0,0,0,0,0,0,0,-1,1553,946,0,0
336,78,0,0,0,0,0,0,0,0,0,-1,1560,946,0,0
343,78,0,0,0,0,0,0,0,0,0,-1,1567,946,0,0
350,78,0,0,0,0,0,0,0,0,0,-1,1574,946,0,0
357,78,0,0,0,0,0,0,0,0,0,-1,1581,946,0,0
364,78,0,0,0,0,0,0,0,0,0,-1,1588,946,0,0
371,78,0,0,0,0,0,0,0,0,0,-1,1595,946,0,0
378,78,0,0,0,0,0,0,0,0,0,-1,1602,946,0,0
385,78,0,0,0,0,0,0,0,0,0,-1,1609,946,0,0
392,78,0,0,0,0,0,0,0,0,0,-1,1616,946,0,0
399,78,0,0,0,0,0,0,0,0,0,-1,1623,946,0,0
406,78,0,0,0,0,0,0,0,0,0,-1,1630,946,0,0
413,78,0,0,0,0,0,0,0,0,0,-1,1637,946,0,0
420,78,0,0,0,0,0,0,0,0,0,-1,1644,946,0,0
427,78,0,0,0,0,0,0,0,0,0,-1,1651,946,0,0
434,78,0,0,0,0,0,0,0,0,0,-1,1658,946,0,0
441,78,0,0,0,0,0,0,0,0,0,-1,1665,946,0,0
448,78,0,0,0,0,0,0,0,0,0,-1,1672,946,0,0
455,78,0,0,0,0,0,0,0,0,0,-1,1679,946,0,0
462,78,0,0,0,0,0,0,0,0,0,-1,1686,946,0,0
469,78,0,0,0,0,0,0,0,0,0,-1,1693,946,0,0
476,78,0,0,0,0,0,0,0,0,0,-1,1700,946,0,0
483,78,0,0,0,0,0,0,0,0,0,-1,1707,946,0,0
490,78,0,0,0,0,0,0,0,0,0,-1,1714,946,0,0
497,78,0,0,0,0,0,0,0,0,0,-1,1721,946,0,0
504,78,0,0,0,0,0,0,0,0,0,-1,1728,946,0,0
511,78,0,0,0,0,0,0,0,0,0,-1,1735,946,0,0
518,78,0,0,0,0,0,0,0,0,0,-1,1742,946,0,0
525,78,0,0,0,0,0,0,0,0,0,-1,1749,946,0,0
532,78,0,0,0,0,0,0,0,0,0,-1,1756,946,0,0
539,78,0,0,0,0,0,0,0,0,0,-1,1763,946,0,0
546,78,0,0,0,0,0,0,0,0,0,-1,1770,946,0,0
553,78,0,0,0,0,0,0,0,0,0,-1,1777,946,0,0
560,78,0,0,0,0,0,0,0,0,0,-1,1784,946,0,0
567,78,0,0,0,0,0,0,0,0,0,-1,1791,946,0,0
574,78,0,0,0,0,0,0,0,0,0,-1,1798,946,0,0
581,78,0,0,0,0,0,0,0,0,0,-1,1805,946,0,0
588,78,0,0,0,0,0,0,0,0,0,-1,1812,946,0,0
595,78,0,0,0,0,0,0,0,0,0,-1,1819,946,0,0
602,78,0,0,0,0,0,0,0,0,0,-1,1826,946,0,0
609,78,0,0,0,0,0,0,0,0,0,-1,1833,946,0,0
616,78,0,0,0,0,0,0,0,0,0,-1,1840,946,0,0
623,78,0,0,0,0,0,0,0,0,0,-1,1847,946,0,0
630,78,0,0,0,0,0,0,0,0,0,-1,1854,946,0,0
637,78,33.7263,3.24768,0.0103807,0.00795747,-0.00157771,0.0111583,0.00717981,-0.457954,0.00653004,0.0431132,1861,946,33.7263,-3.24766
644,78,33.9073,2.65656,0.00698528,0.00493663,-0.000432415,0.00707281,0.0048491,-0.199726,0.00417621,0.0422623,1868,946,33.9074,-2.65656
651,78,33.9,2.49689,0.00463276,0.00270688,0.00025473,0.00466588,0.00267376,0.129305,0.00270341,0.0375942,1875,946,33.9001,-2.49686
658,78,33.719,2.72803,0.00280309,0.00119571,0.000814855,0.00314391,0.000854888,0.396149,0.00187703,0.0375306,1882,946,33.719,-2.72801
665,78,33.6555,2.6507,0.00146055,0.000129159,0.00126006,0.00221995,-0.000630242,0.542381,0.00172877,0.0405039,1889,946,33.6556,-2.65069
672,78,33.7279,2.59491,0.000538426,-0.000603083,0.00156302,0.00163164,-0.0016963,0.610339,0.00192151,0.0409275,1896,946,33.7279,-2.59489
679,78,33.7733,2.78204,-5.01899e-06,-0.0010237,0.00172135,0.00128077,-0.00230948,0.641555,0.002101,0.0386125,1903,946,33.7733,-2.78202
686,78,33.7114,2.82837,-0.000263034,-0.00127643,0.00167033,0.000975761,-0.00251522,0.638134,0.00207982,0.0369902,1910,946,33.7115,-2.82835
693,78,33.6895,2.79785,-0.000530378,-0.00151835,0.00155571,0.00060789,-0.00265662,0.631667,0.00200467,0.0310983,1917,946,33.6895,-2.79785
700,78,33.6573,2.81897,-0.000790017,-0.0014253,0.00140858,0.000336288,-0.0025516,0.674501,0.00182353,0.0284386,1924,946,33.6573,-2.81897
707,78,33.702,2.88696,0,0,0,0,0,0,0,-1,1931,946,33.702,-2.88693
714,78,31.6226,3.96033,0,0,0,0,0,0,0,-1,1938,946,31.6226,-3.96031
721,78,31.6917,4.18781,-0.00100916,-9.31156e-05,0.000612575,0.000213735,-0.00131602,1.10641,0.000956581,0.0250092,1945,946,31.6916,-4.18777
728,78,31.7582,4.505,-0.000923676,0.000593102,0.000444933,0.000713985,-0.00104456,1.30551,0.00102126,0.0243682,1952,946,31.7582,-4.50503
735,78,31.7604,4.71777,-0.000563022,0.00139157,0.000461609,0.0014951,-0.000666555,1.35016,0.00127822,0.0181019,1959,946,31.7604,-4.71776
742,78,31.7712,4.93903,-0.000356362,0.00237449,0.000493661,0.00246099,-0.000442862,1.39734,0.00180647,0.0149341,1966,946,31.7712,-4.93902
749,78,31.724,5.15723,6.5811e-05,0.00396293,0.000606169,0.00405504,-2.62975e-05,1.42,0.00271217,0.0132874,1973,946,31.724,-5.15725
756,78,31.707,5.34711,0.000823703,0.00587161,0.00103256,0.00607466,0.000620659,1.37663,0.00385956,0.0140322,1980,946,31.7071,-5.3471
763,78,31.6554,5.54755,0.00210763,0.008239,0.00176515,0.00871086,0.00163577,1.30959,0.00534606,0.0139201,1987,946,31.6554,-5.54752
770,78,31.5979,5.72845,0.00391958,0.010971,0.00265258,0.0118574,0.00303317,1.24829,0.00711284,0.0182156,1994,946,31.5979,-5.72848
777,78,31.6316,6.10706,0.00621037,0.0141206,0.00352295,0.0154621,0.00486886,1.20696,0.00912869,0.0369287,2001,946,31.6315,-6.10703
784,78,31.782,6.58276,0.00928796,0.0178691,0.00425471,0.019621,0.00753605,1.18019,0.0114292,0.0441236,2008,946,31.782,-6.58275
791,78,31.72,6.97449,0,0,0,0,0,0,0,-1,2015,946,31.72,-6.9745
798,78,31.291,6.34125,0,0,0,0,0,0,0,-1,2022,946,31.2911,-6.34125
805,78,31.4189,5.82782,0,0,0,0,0,0,0,-1,2029,946,31.4189,-5.82784
812,78,0,0,0,0,0,0,0,0,0,-1,2036,946,0,0
-700,71,0,0,0,0,0,0,0,0,0,-1,524,953,0,0
-693,71,0,0,0,0,0,0,0,0,0,-1,531,953,0,0
-686,71,-23.0081,0.361328,0,0,0,0,0,0,0,-1,538,953,-23.0081,-0.36131
-679,71,-21.6761,0.737366,0,0,0,0,0,0,0,-1,545,953,-21.6761,-0.737346
-672,71,-22.6492,5.76801,0,0,0,0,0,0,0,-1,552,953,-22.6493,-5.76798
-665,71,-22.7631,5.20404,0.040045,-0.0100377,0.0218034,0.0482069,-0.0181997,0.358194,0.0396231,0.0484397,559,953,-22.7631,-5.20401
-658,71,-23.049,4.88031,0,0,0,0,0,0,0,-1,566,953,-23.049,-4.88034
-651,71,-23.0224,4.16113,0.0194526,-0.0028615,0.00981155,0.0231531,-0.00656198,0.360659,0.0180254,0.0421263,573,953,-23.0224,-4.16111
-644,71,-23.0078,3.39191,0.0124031,-0.000516416,0.00592476,0.0147086,-0.00282201,0.371114,0.0108692,0.0320362,580,953,-23.0078,-3.39188
-637,71,-23.0742,3.00806,0.00706749,0.00205432,0.00317989,0.00860994,0.000511867,0.451627,0.00557717,0.0146435,587,953,-23.0742,-3.00807
-630,71,-23.1315,2.82941,0.00200305,0.000994949,0.000909145,0.00253852,0.000459474,0.532283,0.00156188,0.0135377,594,953,-23.1315,-2.82941
-623,71,-23.1602,2.62329,-0.00141177,0.0028299,-0.00120453,0.00314809,-0.00172996,-1.31254,0.00285574,0.0129098,601,953,-23.1602,-2.62331
-616,71,-23.1477,2.4057,-0.00242182,0.00287813,-0.00153485,0.00329053,-0.00283422,-1.30831,0.0035394,0.0132005,608,953,-23.1477,-2.40571
-609,71,-23.1036,2.23822,-0.00308672,0.00247439,-0.0015496,0.00287703,-0.00348937,-1.31658,0.00368131,0.0143387,615,953,-23.1036,-2.23825
-602,71,-23.0882,2.04187,-0.00397826,0.00214525,-0.00146914,0.00247948,-0.00431249,-1.3471,0.00396866,0.0154118,622,953,-23.0882,-2.04187
-595,71,-23.1238,1.83734,-0.00466317,0.0016546,-0.00115909,0.00186054,-0.0048691,-1.39496,0.0040127,0.0162024,629,953,-23.1238,-1.83734
-588,71,-23.1118,1.69354,-0.00504204,0.00156874,-0.00111815,0.00175275,-0.00522604,-1.4077,0.00419224,0.0183423,636,953,-23.1118,-1.69355
-581,71,-23.282,1.45624,-0.00515167,0.0015605,-0.00138545,0.00183523,-0.00542639,-1.37504,0.00436004,0.0316463,643,953,-23.2821,-1.45624
-574,71,-23.836,1.15381,-0.00488268,0.00146367,-0.00177116,0.00192451,-0.00534352,-1.31625,0.00434821,0.035033,650,953,-23.836,-1.15379
-567,71,-24.2751,0.866638,0,0,0,0,0,0,0,-1,657,953,-24.2751,-0.866634
-560,71,-24.0568,0.960999,-0.00420222,0.00139308,-0.00202669,0.00205004,-0.00485918,-1.25733,0.00409747,0.0269678,664,953,-24.0568,-0.960996
-553,71,-24.0235,1.12463,-0.0034057,0.00137346,-0.00219744,0.00223024,-0.00426247,-1.19903,0.00380929,0.0394453,671,953,-24.0235,-1.1246
-546,71,-24.0098,1.26599,-0.00216894,0.00126327,-0.0024894,0.00257076,-0.00347644,-1.08717,0.00350438,0.0388785,678,953,-24.0097,-1.26599
-539,71,-24.0317,1.12286,-0.000448696,0.000937978,-0.00301514,0.00333847,-0.00284919,-0.898409,0.00357617,0.0385712,685,953,-24.0317,-1.12288
-532,71,-24.1655,0.873535,0.00172294,0.000358108,-0.0040637,0.00516113,-0.00308008,-0.70221,0.00480836,0.0444039,692,953,-24.1655,-0.873553
-525,71,-23.9939,0.786011,0.00327386,-0.000321244,-0.00609021,0.00782625,-0.00487364,-0.641896,0.00739805,0.044282,699,953,-23.9939,-0.78601
-518,71,0,0,0,0,0,0,0,0,0,-1,706,953,0,0
-511,71,0,0,0,0,0,0,0,0,0,-1,713,953,0,0
-504,71,0,0,0,0,0,0,0,0,0,-1,720,953,0,0
-497,71,0,0,0,0,0,0,0,0,0,-1,727,953,0,0
-490,71,0,0,0,0,0,0,0,0,0,-1,734,953,0,0
-483,71,0,0,0,0,0,0,0,0,0,-1,741,953,0,0
-476,71,0,0,0,0,0,0,0,0,0,-1,748,953,0,0
-469,71,0,0,0,0,0,0,0,0,0,-1,755,953,0,0
-462,71,0,0,0,0,0,0,0,0,0,-1,762,953,0,0
-455,71,0,0,0,0,0,0,0,0,0,-1,769,953,0,0
-448,71,0,0,0,0,0,0,0,0,0,-1,776,953,0,0
-441,71,0,0,0,0,0,0,0,0,0,-1,783,953,0,0
-434,71,0,0,0,0,0,0,0,0,0,-1,790,953,0,0
-427,71,0,0,0,0,0,0,0,0,0,-1,797,953,0,0
-420,71,0,0,0,0,0,0,0,0,0,-1,804,953,0,0
-413,71,0,0,0,0,0,0,0,0,0,-1,811,953,0,0
-406,71,0,0,0,0,0,0,0,0,0,-1,818,953,0,0
-399,71,0,0,0,0,0,0,0,0,0,-1,825,953,0,0
-392,71,0,0,0,0,0,0,0,0,0,-1,832,953,0,0
-385,71,0,0,0,0,0,0,0,0,0,-1,839,953,0,0
-378,71,0,0,0,0,0,0,0,0,0,-1,846,953,0,0
-371,71,0,0,0,0,0,0,0,0,0,-1,853,953,0,0
-364,71,0,0,0,0,0,0,0,0,0,-1,860,953,0,0
-357,71,0,0,0,0,0,0,0,0,0,-1,867,953,0,0
-350,71,0,0,0,0,0,0,0,0,0,-1,874,953,0,0
-343,71,0,0,0,0,0,0,0,0,0,-1,881,953,0,0
-336,71,0,0,0,0,0,0,0,0,0,-1,888,953,0,0
-329,71,0,0,0,0,0,0,0,0,0,-1,895,953,0,0
-322,71,0,0,0,0,0,0,0,0,0,-1,902,953,0,0
-315,71,0,0,0,0,0,0,0,0,0,-1,909,953,0,0
-308,71,0,0,0,0,0,0,0,0,0,-1,916,953,0,0
-301,71,0,0,0,0,0,0,0,0,0,-1,923,953,0,0
-294,71,0,0,0,0,0,0,0,0,0,-1,930,953,0,0
-287,71,0,0,0,0,0,0,0,0,0,-1,937,953,0,0
-280,71,0,0,0,0,0,0,0,0,0,-1,944,953,0,0
-273,71,0,0,0,0,0,0,0,0,0,-1,951,953,0,0
-266,71,0,0,0,0,0,0,0,0,0,-1,958,953,0,0
-259,71,0,0,0,0,0,0,0,0,0,-1,965,953,0,0
-252,71,0,0,0,0,0,0,0,0,0,-1,972,953,0,0
-245,71,0,0,0,0,0,0,0,0,0,-1,979,953,0,0
-238,71,0,0,0,0,0,0,0,0,0,-1,986,953,0,0
-231,71,0,0,0,0,0,0,0,0,0,-1,993,953,0,0
-224,71,0,0,0,0,0,0,0,0,0,-1,1000,953,0,0
-217,71,0,0,0,0,0,0,0,0,0,-1,1007,953,0,0
-210,71,0,0,0,0,0,0,0,0,0,-1,1014,953,0,0
-203,71,0,0,0,0,0,0,0,0,0,-1,1021,953,0,0
-196,71,0,0,0,0,0,0,0,0,0,-1,1028,953,0,0
-189,71,0,0,0,0,0,0,0,0,0,-1,1035,953,0,0
-182,71,0,0,0,0,0,0,0,0,0,-1,1042,953,0,0
-175,71,0,0,0,0,0,0,0,0,0,-1,1049,953,0,0
-168,71,0,0,0,0,0,0,0,0,0,-1,1056,953,0,0
-161,71,0,0,0,0,0,0,0,0,0,-1,1063,953,0,0
-154,71,0,0,0,0,0,0,0,0,0,-1,1070,953,0,0
-147,71,0,0,0,0,0,0,0,0,0,-1,1077,953,0,0
-140,71,0,0,0,0,0,0,0,0,0,-1,1084,953,0,0
-133,71,0,0,0,0,0,0,0,0,0,-1,1091,953,0,0
-126,71,0,0,0,0,0,0,0,0,0,-1,1098,953,0,0
-119,71,0,0,0,0,0,0,0,0,0,-1,1105,953,0,0
-112,71,0,0,0,0,0,0,0,0,0,-1,1112,953,0,0
-105,71,0,0,0,0,0,0,0,0,0,-1,1119,953,0,0
-98,71,0,0,0,0,0,0,0,0,0,-1,1126,953,0,0
-91,71,0,0,0,0,0,0,0,0,0,-1,1133,953,0,0
-84,71,0,0,0,0,0,0,0,0,0,-1,1140,953,0,0
-77,71,0,0,0,0,0,0,0,0,0,-1,1147,953,0,0
-70,71,0,0,0,0,0,0,0,0,0,-1,1154,953,0,0
-63,71,0,0,0,0,0,0,0,0,0,-1,1161,953,0,0
-56,71,0,0,0,0,0,0,0,0,0,-1,1168,953,0,0
-49,71,0,0,0,0,0,0,0,0,0,-1,1175,953,0,0
-42,71,0,0,0,0,0,0,0,0,0,-1,1182,953,0,0
-35,71,0,0,0,0,0,0,0,0,0,-1,1189,953,0,0
-28,71,0,0,0,0,0,0,0,0,0,-1,1196,953,0,0
-21,71,0,0,0,0,0,0,0,0,0,-1,1203,953,0,0
-14,71,0,0,0,0,0,0,0,0,0,-1,1210,953,0,0
-7,71,0,0,0,0,0,0,0,0,0,-1,1217,953,0,0
0,71,0,0,0,0,0,0,0,0,0,-1,1224,953,0,0
7,71,0,0,0,0,0,0,0,0,0,-1,1231,953,0,0
14,71,0,0,0,0,0,0,0,0,0,-1,1238,953,0,0
21,71,0,0,0,0,0,0,0,0,0,-1,1245,953,0,0
28,71,0,0,0,0,0,0,0,0,0,-1,1252,953,0,0
35,71,0,0,0,0,0,0,0,0,0,-1,1259,953,0,0
42,71,0,0,0,0,0,0,0,0,0,-1,1266,953,0,0
49,71,0,0,0,0,0,0,0,0,0,-1,1273,953,0,0
56,71,0,0,0,0,0,0,0,0,0,-1,1280,953,0,0
63,71,0,0,0,0,0,0,0,0,0,-1,1287,953,0,0
70,71,0,0,0,0,0,0,0,0,0,-1,1294,953,0,0
77,71,0,0,0,0,0,0,0,0,0,-1,1301,953,0,0
84,71,0,0,0,0,0,0,0,0,0,-1,1308,953,0,0
91,71,0,0,0,0,0,0,0,0,0,-1,1315,953,0,0
98,71,0,0,0,0,0,0,0,0,0,-1,1322,953,0,0
105,71,0,0,0,0,0,0,0,0,0,-1,1329,953,0,0
112,71,0,0,0,0,0,0,0,0,0,-1,1336,953,0,0
119,71,0,0,0,0,0,0,0,0,0,-1,1343,953,0,0
126,71,0,0,0,0,0,0,0,0,0,-1,1350,953,0,0
133,71,0,0,0,0,0,0,0,0,0,-1,1357,953,0,0
140,71,0,0,0,0,0,0,0,0,0,-1,1364,953,0,0
147,71,0,0,0,0,0,0,0,0,0,-1,1371,953,0,0
154,71,0,0,0,0,0,0,0,0,0,-1,1378,953,0,0
161,71,0,0,0,0,0,0,0,0,0,-1,1385,953,0,0
168,71,0,0,0,0,0,0,0,0,0,-1,1392,953,0,0
175,71,0,0,0,0,0,0,0,0,0,-1,1399,953,0,0
182,71,0,0,0,0,0,0,0,0,0,-1,1406,953,0,0
189,71,0,0,0,0,0,0,0,0,0,-1,1413,953,0,0
196,71,0,0,0,0,0,0,0,0,0,-1,1420,953,0,0
203,71,0,0,0,0,0,0,0,0,0,-1,1427,953,0,0
210,71,0,0,0,0,0,0,0,0,0,-1,1434,953,0,0
217,71,0,0,0,0,0,0,0,0,0,-1,1441,953,0,0
224,71,0,0,0,0,0,0,0,0,0,-1,1448,953,0,0
231,71,0,0,0,0,0,0,0,0,0,-1,1455,953,0,0
238,71,0,0,0,0,0,0,0,0,0,-1,1462,953,0,0
245,71,0,0,0,0,0,0,0,0,0,-1,1469,953,0,0
252,71,0,0,0,0,0,0,0,0,0,-1,1476,953,0,0
259,71,0,0,0,0,0,0,0,0,0,-1,1483,953,0,0
266,71,0,0,0,0,0,0,0,0,0,-1,1490,953,0,0
273,71,0,0,0,0,0,0,0,0,0,-1,1497,953,0,0
280,71,0,0,0,0,0,0,0,0,0,-1,1504,953,0,0
287,71,0,0,0,0,0,0,0,0,0,-1,1511,953,0,0
294,71,0,0,0,0,0,0,0,0,0,-1,1518,953,0,0
301,71,0,0,0,0,0,0,0,0,0,-1,1525,953,0,0
308,71,0,0,0,0,0,0,0,0,0,-1,1532,953,0,0
315,71,0,0,0,0,0,0,0,0,0,-1,1539,953,0,0
322,71,0,0,0,0,0,0,0,0,0,-1,1546,953,0,0
329,71,0,0,0,0,0,0,0,0,0,-1,1553,953,0,0
336,71,0,0,0,0,0,0,0,0,0,-1,1560,953,0,0
343,71,0,0,0,0,0,0,0,0,0,-1,1567,953,0,0
350,71,0,0,0,0,0,0,0,0,0,-1,1574,953,0,0
357,71,0,0,0,0,0,0,0,0,0,-1,1581,953,0,0
364,71,0,0,0,0,0,0,0,0,0,-1,1588,953,0,0
371,71,0,0,0,0,0,0,0,0,0,-1,1595,953,0,0
378,71,0,0,0,0,0,0,0,0,0,-1,1602,953,0,0
385,71,0,0,0,0,0,0,0,0,0,-1,1609,953,0,0
392,71,0,0,0,0,0,0,0,0,0,-1,1616,953,0,0
399,71,0,0,0,0,0,0,0,0,0,-1,1623,953,0,0
406,71,0,0,0,0,0,0,0,0,0,-1,1630,953,0,0
413,71,0,0,0,0,0,0,0,0,0,-1,1637,953,0,0
420,71,0,0,0,0,0,0,0,0,0,-1,1644,953,0,0
427,71,0,0,0,0,0,0,0,0,0,-1,1651,953,0,0
434,71,0,0,0,0,0,0,0,0,0,-1,1658,953,0,0
441,71,0,0,0,0,0,0,0,0,0,-1,1665,953,0,0
448,71,0,0,0,0,0,0,0,0,0,-1,1672,953,0,0
455,71,0,0,0,0,0,0,0,0,0,-1,1679,953,0,0
462,71,0,0,0,0,0,0,0,0,0,-1,1686,953,0,0
469,71,0,0,0,0,0,0,0,0,0,-1,1693,953,0,0
476,71,0,0,0,0,0,0,0,0,0,-1,1700,953,0,0
483,71,0,0,0,0,0,0,0,0,0,-1,1707,953,0,0
490,71,0,0,0,0,0,0,0,0,0,-1,1714,953,0,0
497,71,0,0,0,0,0,0,0,0,0,-1,1721,953,0,0
504,71,0,0,0,0,0,0,0,0,0,-1,1728,953,0,0
511,71,0,0,0,0,0,0,0,0,0,-1,1735,953,0,0
518,71,0,0,0,0,0,0,0,0,0,-1,1742,953,0,0
525,71,0,0,0,0,0,0,0,0,0,-1,1749,953,0,0
532,71,0,0,0,0,0,0,0,0,0,-1,1756,953,0,0
539,71,0,0,0,0,0,0,0,0,0,-1,1763,953,0,0
546,71,0,0,0,0,0,0,0,0,0,-1,1770,953,0,0
553,71,0,0,0,0,0,0,0,0,0,-1,1777,953,0,0
560,71,0,0,0,0,0,0,0,0,0,-1,1784,953,0,0
567,71,0,0,0,0,0,0,0,0,0,-1,1791,953,0,0
574,71,0,0,0,0,0,0,0,0,0,-1,1798,953,0,0
581,71,0,0,0,0,0,0,0,0,0,-1,1805,953,0,0
588,71,0,0,0,0,0,0,0,0,0,-1,1812,953,0,0
595,71,0,0,0,0,0,0,0,0,0,-1,1819,953,0,0
602,71,0,0,0,0,0,0,0,0,0,-1,1826,953,0,0
609,71,0,0,0,0,0,0,0,0,0,-1,1833,953,0,0
616,71,0,0,0,0,0,0,0,0,0,-1,1840,953,0,0
623,71,0,0,0,0,0,0,0,0,0,-1,1847,953,0,0
630,71,0,0,0,0,0,0,0,0,0,-1,1854,953,0,0
637,71,33.6617,2.92688,0.0106785,0.00670989,-0.00204694,0.011545,0.00584333,-0.400469,0.0066657,0.0405023,1861,953,33.6617,-2.92687
644,71,33.7457,2.65277,0.00726082,0.00366576,-0.00059166,0.00735569,0.00357089,-0.158991,0.00424741,0.0396885,1868,953,33.7457,-2.65275
651,71,33.7898,2.67273,0.0048412,0.00151359,0.000294095,0.00486699,0.0014878,0.0874767,0.00287982,0.037333,1875,953,33.7898,-2.6727
658,71,33.7469,2.74152,0.00295948,0.000141332,0.000969432,0.00326075,-0.000159941,0.301311,0.00222906,0.0357069,1882,953,33.747,-2.74151
665,71,33.6807,2.76007,0.00151033,-0.000690766,0.00151535,0.00228261,-0.00146305,0.471329,0.00217974,0.0386504,1889,953,33.6807,-2.76009
672,71,33.6285,2.76257,0.000430071,-0.00118955,0.00189665,0.00168256,-0.00244204,0.58363,0.00239476,0.039539,1896,953,33.6285,-2.76255
679,71,33.6393,2.88171,-0.00025076,-0.00138512,0.0021241,0.00138058,-0.00301646,0.654931,0.00259653,0.038409,1903,953,33.6393,-2.88169
686,71,33.6317,2.80109,-0.000578805,-0.0014544,0.00211808,0.00114625,-0.00317946,0.683486,0.00258778,0.0365842,1910,953,33.6318,-2.8011
693,71,33.6436,2.6911,-0.000867447,-0.00155866,0.00201813,0.000834459,-0.00326056,0.700596,0.00249875,0.0335722,1917,953,33.6436,-2.69112
700,71,33.6652,2.72217,-0.00114983,-0.00136576,0.00185161,0.000596959,-0.00311255,0.756277,0.00229999,0.0352331,1924,953,33.6651,-2.72217
707,71,33.7229,2.77905,0,0,0,0,0,0,0,-1,1931,953,33.7229,-2.77904
714,71,32.2181,4.0658,0,0,0,0,0,0,0,-1,1938,953,32.2181,-4.06581
721,71,32.079,4.24023,-0.00162196,0.000123857,0.000977735,0.00056165,-0.00205975,1.14981,0.00159372,0.0351181,1945,953,32.0789,-4.24023
728,71,31.9738,4.52289,-0.00158048,0.000883467,0.000726912,0.00108193,-0.00177895,1.30427,0.00166799,0.0210894,1952,953,31.9738,-4.5229
735,71,31.9646,4.74866,-0.00130963,0.00169841,0.000650087,0.00183289,-0.00144411,1.36681,0.00189641,0.0151551,1959,953,31.9646,-4.74865
742,71,31.99,4.92993,-0.00126627,0.0026451,0.00058556,0.00273089,-0.00135205,1.42534,0.00240167,0.014977,1966,953,31.99,-4.92992
749,71,31.9832,5.11682,-0.00108444,0.00422282,0.000542274,0.00427766,-0.00113928,1.47001,0.00329779,0.016219,1973,953,31.9831,-5.11685
756,71,31.9607,5.31537,-0.000698695,0.00615666,0.000743468,0.00623637,-0.000778398,1.464,0.00443985,0.0155582,1980,953,31.9606,-5.31534
763,71,31.9219,5.53619,0.000156149,0.0086533,0.00118611,0.00881576,-6.31204e-06,1.43467,0.00587928,0.0163457,1987,953,31.9219,-5.53619
770,71,31.7888,5.69092,0.00153504,0.0116558,0.00177269,0.0119573,0.00123353,1.40232,0.00759382,0.0192606,1994,953,31.7888,-5.69092
777,71,31.757,5.992,0.00339928,0.0151939,0.00230313,0.0156277,0.0029655,1.38463,0.00958411,0.0358178,2001,953,31.757,-5.992
784,71,31.7745,6.32794,0.00613408,0.019538,0.00267326,0.0200515,0.0056206,1.38103,0.0119434,0.0448635,2008,953,31.7745,-6.32792
791,71,31.7228,6.6922,0,0,0,0,0,0,0,-1,2015,953,31.7227,-6.69223
798,71,31.061,5.61371,0,0,0,0,0,0,0,-1,2022,953,31.0611,-5.61369
805,71,31.5969,4.77124,0,0,0,0,0,0,0,-1,2029,953,31.5969,-4.77121
812,71,0,0,0,0,0,0,0,0,0,-1,2036,953,0,0
-700,64,0,0,0,0,0,0,0,0,0,-1,524,960,0,0
-693,64,0,0,0,0,0,0,0,0,0,-1,531,960,0,0
-686,64,-23.5074,0.808594,0.0894123,-0.0339415,0.0493899,0.106751,-0.0512798,0.337609,0.0930937,0.0455819,538,960,-23.5074,-0.80861
-679,64,-22.1548,1.52045,0.0723964,-0.0270672,0.0391879,0.0859808,-0.0406516,0.333686,0.0746563,0.0452639,545,960,-22.1548,-1.52042
-672,64,-22.2857,5.47638,0,0,0,0,0,0,0,-1,552,960,-22.2857,-5.47636
-665,64,-22.9995,5.17499,0,0,0,0,0,0,0,-1,559,960,-22.9994,-5.17501
-658,64,-23.2023,4.97809,0,0,0,0,0,0,0,-1,566,960,-23.2023,-4.97811
-651,64,-23.3773,3.91333,0.0218207,-0.00277529,0.0103628,0.0256047,-0.00655924,0.350104,0.019625,0.0420768,573,960,-23.3773,-3.91334
-644,64,-23.3158,3.27411,0.0142301,0.00041111,0.00636893,0.0167177,-0.00207643,0.372354,0.0118978,0.0314113,580,960,-23.3158,-3.27411
-637,64,-23.2969,2.91229,0.00837293,0.0036084,0.00343618,0.0101719,0.00180946,0.482294,0.0062658,0.0162637,587,960,-23.2969,-2.91229
-630,64,-23.3415,2.77618,0.00283131,0.00319048,0.000847331,0.00387705,0.00214474,0.889824,0.00224263,0.0133696,594,960,-23.3415,-2.77619
-623,64,-23.3464,2.61877,-0.000985789,0.00475246,-0.00149323,0.00511778,-0.00135111,-1.33086,0.00394021,0.0129239,601,960,-23.3465,-2.61875
-616,64,-23.34,2.39954,-0.00214693,0.00448103,-0.0019946,0.00503498,-0.00270088,-1.2999,0.00453356,0.0160783,608,960,-23.34,-2.39952
-609,64,-23.3076,2.25409,-0.00290181,0.00382938,-0.00216843,0.00446745,-0.00353987,-1.28462,0.00463336,0.0165409,615,960,-23.3076,-2.25406
-602,64,-23.2811,2.11298,-0.00387635,0.00329887,-0.00223456,0.00393787,-0.00451535,-1.29227,0.00488426,0.0166349,622,960,-23.2812,-2.11297
-595,64,-23.316,1.93372,-0.00461386,0.00263072,-0.00200106,0.00314669,-0.00512983,-1.31844,0.00482396,0.0170779,629,960,-23.316,-1.93374
-588,64,-23.1387,1.95306,0,0,0,0,0,0,0,-1,636,960,-23.1387,-1.95307
-581,64,-23.5456,1.46338,-0.00524755,0.00235799,-0.00223482,0.00296606,-0.00585562,-1.30514,0.00518347,0.0358378,643,960,-23.5456,-1.46336
-574,64,-23.9628,1.11572,-0.00498457,0.00223919,-0.00254745,0.00304717,-0.00579255,-1.26366,0.00518501,0.035407,650,960,-23.9628,-1.11575
-567,64,-24.0215,0.879211,-0.00479759,0.0022251,-0.00260894,0.00308824,-0.00566073,-1.25129,0.00512349,0.0251292,657,960,-24.0215,-0.879188
-560,64,-23.9872,0.962036,-0.00439046,0.00220591,-0.00261812,0.00311873,-0.00530328,-1.23532,0.00491667,0.0344103,664,960,-23.9872,-0.962043
-553,64,-24.0336,1.07867,-0.00361842,0.00214134,-0.00266702,0.0031866,-0.00466368,-1.19727,0.00455902,0.0394805,671,960,-24.0335,-1.07869
-546,64,-24.108,1.03778,-0.00238754,0.00193215,-0.00283607,0.00333716,-0.00379255,-1.11083,0.00411914,0.0418133,678,960,-24.108,-1.03777
-539,64,-24.4504,0.946899,0,0,0,0,0,0,0,-1,685,960,-24.4503,-0.946888
-532,64,-24.3671,1.00812,0.00154369,0.000763127,-0.00438531,0.00555605,-0.00324923,-0.741016,0.00514156,0.0446364,692,960,-24.3671,-1.00813
-525,64,-24.0253,0.680786,0.00303677,3.38149e-05,-0.00668686,0.00838865,-0.00531807,-0.674959,0.00797949,0.0461718,699,960,-24.0253,-0.680773
-518,64,0,0,0,0,0,0,0,0,0,-1,706,960,0,0
-511,64,0,0,0,0,0,0,0,0,0,-1,713,960,0,0
-504,64,0,0,0,0,0,0,0,0,0,-1,720,960,0,0
-497,64,0,0,0,0,0,0,0,0,0,-1,727,960,0,0
-490,64,0,0,0,0,0,0,0,0,0,-1,734,960,0,0
-483,64,0,0,0,0,0,0,0,0,0,-1,741,960,0,0
-476,64,0,0,0,0,0,0,0,0,0,-1,748,960,0,0
-469,64,0,0,0,0,0,0,0,0,0,-1,755,960,0,0
-462,64,0,0,0,0,0,0,0,0,0,-1,762,960,0,0
-455,64,0,0,0,0,0,0,0,0,0,-1,769,960,0,0
-448,64,0,0,0,0,0,0,0,0,0,-1,776,960,0,0
-441,64,0,0,0,0,0,0,0,0,0,-1,783,960,0,0
-434,64,0,0,0,0,0,0,0,0,0,-1,790,960,0,0
-427,64,0,0,0,0,0,0,0,0,0,-1,797,960,0,0
-420,64,0,0,0,0,0,0,0,0,0,-1,804,960,0,0
-413,64,0,0,0,0,0,0,0,0,0,-1,811,960,0,0
-406,64,0,0,0,0,0,0,0,0,0,-1,818,960,0,0
-399,64,0,0,0,0,0,0,0,0,0,-1,825,960,0,0
-392,64,0,0,0,0,0,0,0,0,0,-1,832,960,0,0
-385,64,0,0,0,0,0,0,0,0,0,-1,839,960,0,0
-378,64,0,0,0,0,0,0,0,0,0,-1,846,960,0,0
-371,64,0,0,0,0,0,0,0,0,0,-1,853,960,0,0
-364,64,0,0,0,0,0,0,0,0,0,-1,860,960,0,0
-357,64,0,0,0,0,0,0,0,0,0,-1,867,960,0,0
-350,64,0,0,0,0,0,0,0,0,0,-1,874,960,0,0
-343,64,0,0,0,0,0,0,0,0,0,-1,881,960,0,0
-336,64,0,0,0,0,0,0,0,0,0,-1,888,960,0,0
-329,64,0,0,0,0,0,0,0,0,0,-1,895,960,0,0
-322,64,0,0,0,0,0,0,0,0,0,-1,902,960,0,0
-315,64,0,0,0,0,0,0,0,0,0,-1,909,960,0,0
-308,64,0,0,0,0,0,0,0,0,0,-1,916,960,0,0
-301,64,0,0,0,0,0,0,0,0,0,-1,923,960,0,0
-294,64,0,0,0,0,0,0,0,0,0,-1,930,960,0,0
-287,64,0,0,0,0,0,0,0,0,0,-1,937,960,0,0
-280,64,0,0,0,0,0,0,0,0,0,-1,944,960,0,0
-273,64,0,0,0,0,0,0,0,0,0,-1,951,960,0,0
-266,64,0,0,0,0,0,0,0,0,0,-1,958,960,0,0
-259,64,0,0,0,0,0,0,0,0,0,-1,965,960,0,0
-252,64,0,0,0,0,0,0,0,0,0,-1,972,960,0,0
-245,64,0,0,0,0,0,0,0,0,0,-1,979,960,0,0
-238,64,0,0,0,0,0,0,0,0,0,-1,986,960,0,0
-231,64,0,0,0,0,0,0,0,0,0,-1,993,960,0,0
-224,64,0,0,0,0,0,0,0,0,0,-1,1000,960,0,0
-217,64,0,0,0,0,0,0,0,0,0,-1,1007,960,0,0
-210,64,0,0,0,0,0,0,0,0,0,-1,1014,960,0,0
-203,64,0,0,0,0,0,0,0,0,0,-1,1021,960,0,0
-196,64,0,0,0,0,0,0,0,0,0,-1,1028,960,0,0
-189,64,0,0,0,0,0,0,0,0,0,-1,1035,960,0,0
-182,64,0,0,0,0,0,0,0,0,0,-1,1042,960,0,0
-175,64,0,0,0,0,0,0,0,0,0,-1,1049,960,0,0
-168,64,0,0,0,0,0,0,0,0,0,-1,1056,960,0,0
-161,64,0,0,0,0,0,0,0,0,0,-1,1063,960,0,0
-154,64,0,0,0,0,0,0,0,0,0,-1,1070,960,0,0
-147,64,0,0,0,0,0,0,0,0,0,-1,1077,960,0,0
-140,64,0,0,0,0,0,0,0,0,0,-1,1084,960,0,0
-133,64,0,0,0,0,0,0,0,0,0,-1,1091,960,0,0
-126,64,0,0,0,0,0,0,0,0,0,-1,1098,960,0,0
-119,64,0,0,0,0,0,0,0,0,0,-1,1105,960,0,0
-112,64,0,0,0,0,0,0,0,0,0,-1,1112,960,0,0
-105,64,0,0,0,0,0,0,0,0,0,-1,1119,960,0,0
-98,64,0,0,0,0,0,0,0,0,0,-1,1126,960,0,0
-91,64,0,0,0,0,0,0,0,0,0,-1,1133,960,0,0
-84,64,0,0,0,0,0,0,0,0,0,-1,1140,960,0,0
-77,64,0,0,0,0,0,0,0,0,0,-1,1147,960,0,0
-70,64,0,0,0,0,0,0,0,0,0,-1,1154,960,0,0
-63,64,0,0,0,0,0,0,0,0,0,-1,1161,960,0,0
-56,64,0,0,0,0,0,0,0,0,0,-1,1168,960,0,0
-49,64,0,0,0,0,0,0,0,0,0,-1,1175,960,0,0
-42,64,0,0,0,0,0,0,0,0,0,-1,1182,960,0,0
-35,64,0,0,0,0,0,0,0,0,0,-1,1189,960,0,0
-28,64,0,0,0,0,0,0,0,0,0,-1,1196,960,0,0
-21,64,0,0,0,0,0,0,0,0,0,-1,1203,960,0,0
-14,64,0,0,0,0,0,0,0,0,0,-1,1210,960,0,0
-7,64,0,0,0,0,0,0,0,0,0,-1,1217,960,0,0
0,64,0,0,0,0,0,0,0,0,0,-1,1224,960,0,0
7,64,0,0,0,0,0,0,0,0,0,-1,1231,960,0,0
14,64,0,0,0,0,0,0,0,0,0,-1,1238,960,0,0
21,64,0,0,0,0,0,0,0,0,0,-1,1245,960,0,0
28,64,0,0,0,0,0,0,0,0,0,-1,1252,960,0,0
35,64,0,0,0,0,0,0,0,0,0,-1,1259,960,0,0
42,64,0,0,0,0,0,0,0,0,0,-1,1266,960,0,0
49,64,0,0,0,0,0,0,0,0,0,-1,1273,960,0,0
56,64,0,0,0,0,0,0,0,0,0,-1,1280,960,0,0
63,64,0,0,0,0,0,0,0,0,0,-1,1287,960,0,0
70,64,0,0,0,0,0,0,0,0,0,-1,1294,960,0,0
77,64,0,0,0,0,0,0,0,0,0,-1,1301,960,0,0
84,64,0,0,0,0,0,0,0,0,0,-1,1308,960,0,0
91,64,0,0,0,0,0,0,0,0,0,-1,1315,960,0,0
98,64,0,0,0,0,0,0,0,0,0,-1,1322,960,0,0
105,64,0,0,0,0,0,0,0,0,0,-1,1329,960,0,0
112,64,0,0,0,0,0,0,0,0,0,-1,1336,960,0,0
119,64,0,0,0,0,0,0,0,0,0,-1,1343,960,0,0
126,64,0,0,0,0,0,0,0,0,0,-1,1350,960,0,0
133,64,0,0,0,0,0,0,0,0,0,-1,1357,960,0,0
140,64,0,0,0,0,0,0,0,0,0,-1,1364,960,0,0
147,64,0,0,0,0,0,0,0,0,0,-1,1371,960,0,0
154,64,0,0,0,0,0,0,0,0,0,-1,1378,960,0,0
161,64,0,0,0,0,0,0,0,0,0,-1,1385,960,0,0
168,64,0,0,0,0,0,0,0,0,0,-1,1392,960,0,0
175,64,0,0,0,0,0,0,0,0,0,-1,1399,960,0,0
182,64,0,0,0,0,0,0,0,0,0,-1,1406,960,0,0
189,64,0,0,0,0,0,0,0,0,0,-1,1413,960,0,0
196,64,0,0,0,0,0,0,0,0,0,-1,1420,960,0,0
203,64,0,0,0,0,0,0,0,0,0,-1,1427,960,0,0
210,64,0,0,0,0,0,0,0,0,0,-1,1434,960,0,0
217,64,0,0,0,0,0,0,0,0,0,-1,1441,960,0,0
224,64,0,0,0,0,0,0,0,0,0,-1,1448,960,0,0
231,64,0,0,0,0,0,0,0,0,0,-1,1455,960,0,0
238,64,0,0,0,0,0,0,0,0,0,-1,1462,960,0,0
245,64,0,0,0,0,0,0,0,0,0,-1,1469,960,0,0
252,64,0,0,0,0,0,0,0,0,0,-1,1476,960,0,0
259,64,0,0,0,0,0,0,0,0,0,-1,1483,960,0,0
266,64,0,0,0,0,0,0,0,0,0,-1,1490,960,0,0
273,64,0,0,0,0,0,0,0,0,0,-1,1497,960,0,0
280,64,0,0,0,0,0,0,0,0,0,-1,1504,960,0,0
287,64,0,0,0,0,0,0,0,0,0,-1,1511,960,0,0
294,64,0,0,0,0,0,0,0,0,0,-1,1518,960,0,0
301,64,0,0,0,0,0,0,0,0,0,-1,1525,960,0,0
308,64,0,0,0,0,0,0,0,0,0,-1,1532,960,0,0
315,64,0,0,0,0,0,0,0,0,0,-1,1539,960,0,0
322,64,0,0,0,0,0,0,0,0,0,-1,1546,960,0,0
329,64,0,0,0,0,0,0,0,0,0,-1,1553,960,0,0
336,64,0,0,0,0,0,0,0,0,0,-1,1560,960,0,0
343,64,0,0,0,0,0,0,0,0,0,-1,1567,960,0,0
350,64,0,0,0,0,0,0,0,0,0,-1,1574,960,0,0
357,64,0,0,0,0,0,0,0,0,0,-1,1581,960,0,0
364,64,0,0,0,0,0,0,0,0,0,-1,1588,960,0,0
371,64,0,0,0,0,0,0,0,0,0,-1,1595,960,0,0
378,64,0,0,0,0,0,0,0,0,0,-1,1602,960,0,0
385,64,0,0,0,0,0,0,0,0,0,-1,1609,960,0,0
392,64,0,0,0,0,0,0,0,0,0,-1,1616,960,0,0
399,64,0,0,0,0,0,0,0,0,0,-1,1623,960,0,0
406,64,0,0,0,0,0,0,0,0,0,-1,1630,960,0,0
413,64,0,0,0,0,0,0,0,0,0,-1,1637,960,0,0
420,64,0,0,0,0,0,0,0,0,0,-1,1644,960,0,0
427,64,0,0,0,0,0,0,0,0,0,-1,1651,960,0,0
434,64,0,0,0,0,0,0,0,0,0,-1,1658,960,0,0
441,64,0,0,0,0,0,0,0,0,0,-1,1665,960,0,0
448,64,0,0,0,0,0,0,0,0,0,-1,1672,960,0,0
455,64,0,0,0,0,0,0,0,0,0,-1,1679,960,0,0
462,64,0,0,0,0,0,0,0,0,0,-1,1686,960,0,0
469,64,0,0,0,0,0,0,0,0,0,-1,1693,960,0,0
476,64,0,0,0,0,0,0,0,0,0,-1,1700,960,0,0
483,64,0,0,0,0,0,0,0,0,0,-1,1707,960,0,0
490,64,0,0,0,0,0,0,0,0,0,-1,1714,960,0,0
497,64,0,0,0,0,0,0,0,0,0,-1,1721,960,0,0
504,64,0,0,0,0,0,0,0,0,0,-1,1728,960,0,0
511,64,0,0,0,0,0,0,0,0,0,-1,1735,960,0,0
518,64,0,0,0,0,0,0,0,0,0,-1,1742,960,0,0
525,64,0,0,0,0,0,0,0,0,0,-1,1749,960,0,0
532,64,0,0,0,0,0,0,0,0,0,-1,1756,960,0,0
539,64,0,0,0,0,0,0,0,0,0,-1,1763,960,0,0
546,64,0,0,0,0,0,0,0,0,0,-1,1770,960,0,0
553,64,0,0,0,0,0,0,0,0,0,-1,1777,960,0,0
560,64,0,0,0,0,0,0,0,0,0,-1,1784,960,0,0
567,64,0,0,0,0,0,0,0,0,0,-1,1791,960,0,0
574,64,0,0,0,0,0,0,0,0,0,-1,1798,960,0,0
581,64,0,0,0,0,0,0,0,0,0,-1,1805,960,0,0
588,64,0,0,0,0,0,0,0,0,0,-1,1812,960,0,0
595,64,0,0,0,0,0,0,0,0,0,-1,1819,960,0,0
602,64,0,0,0,0,0,0,0,0,0,-1,1826,960,0,0
609,64,0,0,0,0,0,0,0,0,0,-1,1833,960,0,0
616,64,0,0,0,0,0,0,0,0,0,-1,1840,960,0,0
623,64,0,0,0,0,0,0,0,0,0,-1,1847,960,0,0
630,64,0,0,0,0,0,0,0,0,0,-1,1854,960,0,0
637,64,0,0,0,0,0,0,0,0,0,-1,1861,960,0,0
644,64,33.5331,2.74976,0.00781086,0.00326571,-0.000637838,0.00789867,0.0031779,-0.136814,0.00458921,0.0400404,1868,960,33.533,-2.74978
651,64,33.7175,2.83392,0.00525018,0.0012012,0.000381107,0.00528574,0.00116564,0.0930356,0.00320669,0.0382616,1875,960,33.7175,-2.83395
658,64,33.7758,2.86707,0.00326805,-8.52157e-05,0.00112109,0.00360833,-0.000425496,0.294689,0.0025592,0.0365525,1882,960,33.7757,-2.86708
665,64,33.7177,3.08862,0.00170198,-0.000778925,0.00172027,0.00258239,-0.00165933,0.47303,0.00246821,0.0407634,1889,960,33.7176,-3.08859
672,64,34.0891,2.14191,0,0,0,0,0,0,0,-1,1896,960,34.0891,-2.14192
679,64,33.656,2.87323,-0.000312641,-0.00122062,0.00244086,0.00171609,-0.00324935,0.693451,0.002912,0.0411775,1903,960,33.656,-2.87321
686,64,33.59,2.71564,-0.000701371,-0.00120449,0.00248885,0.0015486,-0.00345447,0.735032,0.00295756,0.0356935,1910,960,33.5899,-2.71566
693,64,33.6223,2.71222,-0.00100379,-0.00124612,0.00241601,0.0012941,-0.003544,0.760345,0.00289221,0.0339636,1917,960,33.6224,-2.71225
700,64,33.6829,2.79565,-0.00129317,-0.00103105,0.00224608,0.00108779,-0.00341201,0.81454,0.00271102,0.0322566,1924,960,33.6829,-2.79567
707,64,33.6322,3.03015,-0.00146163,-0.000692599,0.00195357,0.000913938,-0.00306817,0.88257,0.0024086,0.0446879,1931,960,33.6322,-3.03016
714,64,32.8922,4.21118,0,0,0,0,0,0,0,-1,1938,960,32.8922,-4.2112
721,64,32.3455,4.28021,-0.00187538,0.000472132,0.00135363,0.00109003,-0.00249328,1.14257,0.00212104,0.0346138,1945,960,32.3455,-4.28022
728,64,32.1548,4.55505,-0.00188044,0.00125761,0.00103725,0.00156947,-0.0021923,1.27873,0.00218176,0.0163909,1952,960,32.1548,-4.55506
735,64,32.1381,4.78809,-0.00170134,0.00206294,0.000890014,0.00226276,-0.00190116,1.34994,0.00240706,0.0207158,1959,960,32.1381,-4.78811
742,64,32.2095,4.92896,-0.00181191,0.00298085,0.000763975,0.00309968,-0.00193074,1.41649,0.00293034,0.0181413,1966,960,32.2095,-4.92895
749,64,32.1873,5.10126,-0.00187922,0.00453524,0.000599519,0.00459079,-0.00193477,1.4784,0.00387016,0.0132032,1973,960,32.1873,-5.10125
756,64,32.1675,5.31561,-0.0018948,0.00647973,0.000613313,0.00652441,-0.00193948,1.49808,0.00512004,0.0135842,1980,960,32.1675,-5.31562
763,64,32.168,5.53687,-0.00157295,0.00904565,0.000811121,0.00910726,-0.00163455,1.495,0.00668332,0.0150231,1987,960,32.1679,-5.53685
770,64,32.0437,5.66132,-0.000819387,0.012196,0.00115583,0.0122978,-0.000921234,1.48291,0.00852222,0.0157379,1994,960,32.0437,-5.66131
777,64,31.9967,5.8869,0.000292876,0.0158781,0.00144797,0.0160115,0.000159492,1.47894,0.0106216,0.0313702,2001,960,31.9968,-5.88691
784,64,32.0004,6.1308,0.0021376,0.020384,0.0016485,0.0205318,0.00198986,1.48141,0.0130751,0.0461083,2008,960,32.0004,-6.13081
791,64,31.9641,6.41772,0,0,0,0,0,0,0,-1,2015,960,31.9641,-6.41774
798,64,30.6353,5.0481,0,0,0,0,0,0,0,-1,2022,960,30.6352,-5.04812
805,64,31.1616,4.26563,0,0,0,0,0,0,0,-1,2029,960,31.1616,-4.26563
812,64,0,0,0,0,0,0,0,0,0,-1,2036,960,0,0
-700,57,0,0,0,0,0,0,0,0,0,-1,524,967,0,0
-693,57,0,0,0,0,0,0,0,0,0,-1,531,967,0,0
-686,57,-23.9245,1.21973,0.0898563,-0.0473063,0.0483,0.105158,-0.0626076,0.306794,0.0978922,0.0438423,538,967,-23.9245,-1.21973
-679,57,-22.9877,1.9071,0.0731161,-0.035869,0.0385824,0.0853921,-0.048145,0.308048,0.078091,0.0441555,545,967,-22.9877,-1.90713
-672,57,-22.525,5.48871,0,0,0,0,0,0,0,-1,552,967,-22.525,-5.4887
-665,57,-23.4188,5.11249,0,0,0,0,0,0,0,-1,559,967,-23.4188,-5.11246
-658,57,-24.3127,4.73621,0,0,0,0,0,0,0,-1,566,967,-24.3127,-4.73622
-651,57,-23.6456,3.64563,0.022753,-0.00361642,0.010957,0.0267116,-0.007575,0.346691,0.0207977,0.0436978,573,967,-23.6457,-3.64564
-644,57,-23.4963,3.0368,0.015022,0.000364557,0.00699371,0.0178236,-0.00243698,0.381005,0.0127724,0.0308595,580,967,-23.4964,-3.03678
-637,57,-23.4794,2.82184,0.00898242,0.00415454,0.00397191,0.0112164,0.00192056,0.512348,0.00692674,0.0172805,587,967,-23.4794,-2.82185
-630,57,-23.5312,2.70386,0.00330483,0.00445485,0.00116543,0.0051794,0.00258027,1.01457,0.00299033,0.0133109,594,967,-23.5312,-2.70386
-623,57,-23.5301,2.60059,-0.000651232,0.00587646,-0.00134565,0.00614298,-0.000917749,-1.37527,0.00443301,0.0121661,601,967,-23.5301,-2.6006
-616,57,-23.5188,2.43079,-0.00185893,0.00545583,-0.0020795,0.00600568,-0.00240877,-1.3123,0.00500385,0.0141692,608,967,-23.5188,-2.4308
-609,57,-23.5169,2.25049,-0.00262022,0.0046846,-0.0024878,0.00545138,-0.00338701,-1.27182,0.00514903,0.0145691,615,967,-23.5169,-2.2505
-602,57,-23.4937,2.13806,-0.00358924,0.00400766,-0.00278188,0.0049174,-0.00449898,-1.25473,0.00543834,0.0112331,622,967,-23.4937,-2.13806
-595,57,-23.4911,2.00586,-0.00433713,0.00314675,-0.00269968,0.00401896,-0.00520934,-1.2583,0.00534271,0.0129611,629,967,-23.4911,-2.00583
-588,57,-23.5424,1.88251,-0.00488717,0.00285562,-0.00274853,0.00373208,-0.00576363,-1.26211,0.00552401,0.0200199,636,967,-23.5424,-1.88251
-581,57,-23.7682,1.43298,-0.00507662,0.00269117,-0.00297669,0.00370067,-0.00608612,-1.24383,0.00570608,0.0282292,643,967,-23.7682,-1.43296
-574,57,-24.042,0.983826,-0.00487441,0.00252614,-0.00324256,0.00374585,-0.00609411,-1.21101,0.00573478,0.0278994,650,967,-24.042,-0.983797
-567,57,-24.0469,0.914795,-0.00474989,0.00247434,-0.00319614,0.00368537,-0.00596091,-1.20861,0.0056207,0.0332705,657,967,-24.0469,-0.914812
-560,57,-23.8131,1.08331,-0.00440945,0.00239695,-0.00306022,0.00357051,-0.00558301,-1.2046,0.00532719,0.0408582,664,967,-23.8131,-1.08329
-553,57,-23.7825,1.17517,-0.00370658,0.00220889,-0.00294217,0.00342304,-0.00492072,-1.17942,0.00484307,0.0409092,671,967,-23.7825,-1.17516
-546,57,-24.033,1.18573,-0.00254705,0.00181717,-0.00294576,0.003301,-0.00403088,-1.10418,0.00424005,0.0442961,678,967,-24.033,-1.18574
-539,57,-24.1887,1.24298,-0.000877926,0.00110236,-0.00327046,0.00352928,-0.00330484,-0.932388,0.00394639,0.0457593,685,967,-24.1887,-1.24299
-532,57,-24.3577,1.32928,0.00122626,0.000216174,-0.00445288,0.00520264,-0.00376021,-0.72893,0.00519699,0.0442244,692,967,-24.3577,-1.32926
-525,57,-24.2151,1.18964,0.00256969,-0.000667605,-0.00705754,0.00819183,-0.00628974,-0.672673,0.00838494,0.0451492,699,967,-24.2151,-1.18965
-518,57,0,0,0,0,0,0,0,0,0,-1,706,967,0,0
-511,57,0,0,0,0,0,0,0,0,0,-1,713,967,0,0
-504,57,0,0,0,0,0,0,0,0,0,-1,720,967,0,0
-497,57,0,0,0,0,0,0,0,0,0,-1,727,967,0,0
-490,57,0,0,0,0,0,0,0,0,0,-1,734,967,0,0
-483,57,0,0,0,0,0,0,0,0,0,-1,741,967,0,0
-476,57,0,0,0,0,0,0,0,0,0,-1,748,967,0,0
-469,57,0,0,0,0,0,0,0,0,0,-1,755,967,0,0
-462,57,0,0,0,0,0,0,0,0,0,-1,762,967,0,0
-455,57,0,0,0,0,0,0,0,0,0,-1,769,967,0,0
-448,57,0,0,0,0,0,0,0,0,0,-1,776,967,0,0
-441,57,0,0,0,0,0,0,0,0,0,-1,783,967,0,0
-434,57,0,0,0,0,0,0,0,0,0,-1,790,967,0,0
-427,57,0,0,0,0,0,0,0,0,0,-1,797,967,0,0
-420,57,0,0,0,0,0,0,0,0,0,-1,804,967,0,0
-413,57,0,0,0,0,0,0,0,0,0,-1,811,967,0,0
-406,57,0,0,0,0,0,0,0,0,0,-1,818,967,0,0
-399,57,0,0,0,0,0,0,0,0,0,-1,825,967,0,0
-392,57,0,0,0,0,0,0,0,0,0,-1,832,967,0,0
-385,57,0,0,0,0,0,0,0,0,0,-1,839,967,0,0
-378,57,0,0,0,0,0,0,0,0,0,-1,846,967,0,0
-371,57,0,0,0,0,0,0,0,0,0,-1,853,967,0,0
-364,57,0,0,0,0,0,0,0,0,0,-1,860,967,0,0
-357,57,0,0,0,0,0,0,0,0,0,-1,867,967,0,0
-350,57,0,0,0,0,0,0,0,0,0,-1,874,967,0,0
-343,57,0,0,0,0,0,0,0,0,0,-1,881,967,0,0
-336,57,0,0,0,0,0,0,0,0,0,-1,888,967,0,0
-329,57,0,0,0,0,0,0,0,0,0,-1,895,967,0,0
-322,57,0,0,0,0,0,0,0,0,0,-1,902,967,0,0
-315,57,0,0,0,0,0,0,0,0,0,-1,909,967,0,0
-308,57,0,0,0,0,0,0,0,0,0,-1,916,967,0,0
-301,57,0,0,0,0,0,0,0,0,0,-1,923,967,0,0
-294,57,0,0,0,0,0,0,0,0,0,-1,930,967,0,0
-287,57,0,0,0,0,0,0,0,0,0,-1,937,967,0,0
-280,57,0,0,0,0,0,0,0,0,0,-1,944,967,0,0
-273,57,0,0,0,0,0,0,0,0,0,-1,951,967,0,0
-266,57,0,0,0,0,0,0,0,0,0,-1,958,967,0,0
-259,57,0,0,0,0,0,0,0,0,0,-1,965,967,0,0
-252,57,0,0,0,0,0,0,0,0,0,-1,972,967,0,0
-245,57,0,0,0,0,0,0,0,0,0,-1,979,967,0,0
-238,57,0,0,0,0,0,0,0,0,0,-1,986,967,0,0
-231,57,0,0,0,0,0,0,0,0,0,-1,993,967,0,0
-224,57,0,0,0,0,0,0,0,0,0,-1,1000,967,0,0
-217,57,0,0,0,0,0,0,0,0,0,-1,1007,967,0,0
-210,57,0,0,0,0,0,0,0,0,0,-1,1014,967,0,0
-203,57,0,0,0,0,0,0,0,0,0,-1,1021,967,0,0
-196,57,0,0,0,0,0,0,0,0,0,-1,1028,967,0,0
-189,57,0,0,0,0,0,0,0,0,0,-1,1035,967,0,0
-182,57,0,0,0,0,0,0,0,0,0,-1,1042,967,0,0
-175,57,0,0,0,0,0,0,0,0,0,-1,1049,967,0,0
-168,57,0,0,0,0,0,0,0,0,0,-1,1056,967,0,0
-161,57,0,0,0,0,0,0,0,0,0,-1,1063,967,0,0
-154,57,0,0,0,0,0,0,0,0,0,-1,1070,967,0,0
-147,57,0,0,0,0,0,0,0,0,0,-1,1077,967,0,0
-140,57,0,0,0,0,0,0,0,0,0,-1,1084,967,0,0
-133,57,0,0,0,0,0,0,0,0,0,-1,1091,967,0,0
-126,57,0,0,0,0,0,0,0,0,0,-1,1098,967,0,0
-119,57,0,0,0,0,0,0,0,0,0,-1,1105,967,0,0
-112,57,0,0,0,0,0,0,0,0,0,-1,1112,967,0,0
-105,57,0,0,0,0,0,0,0,0,0,-1,1119,967,0,0
-98,57,0,0,0,0,0,0,0,0,0,-1,1126,967,0,0
-91,57,0,0,0,0,0,0,0,0,0,-1,1133,967,0,0
-84,57,0,0,0,0,0,0,0,0,0,-1,1140,967,0,0
-77,57,0,0,0,0,0,0,0,0,0,-1,1147,967,0,0
-70,57,0,0,0,0,0,0,0,0,0,-1,1154,967,0,0
-63,57,0,0,0,0,0,0,0,0,0,-1,1161,967,0,0
-56,57,0,0,0,0,0,0,0,0,0,-1,1168,967,0,0
-49,57,0,0,0,0,0,0,0,0,0,-1,1175,967,0,0
-42,57,0,0,0,0,0,0,0,0,0,-1,1182,967,0,0
-35,57,0,0,0,0,0,0,0,0,0,-1,1189,967,0,0
-28,57,0,0,0,0,0,0,0,0,0,-1,1196,967,0,0
-21,57,0,0,0,0,0,0,0,0,0,-1,1203,967,0,0
-14,57,0,0,0,0,0,0,0,0,0,-1,1210,967,0,0
-7,57,0,0,0,0,0,0,0,0,0,-1,1217,967,0,0
0,57,0,0,0,0,0,0,0,0,0,-1,1224,967,0,0
7,57,0,0,0,0,0,0,0,0,0,-1,1231,967,0,0
14,57,0,0,0,0,0,0,0,0,0,-1,1238,967,0,0
21,57,0,0,0,0,0,0,0,0,0,-1,1245,967,0,0
28,57,0,0,0,0,0,0,0,0,0,-1,1252,967,0,0
35,57,0,0,0,0,0,0,0,0,0,-1,1259,967,0,0
42,57,0,0,0,0,0,0,0,0,0,-1,1266,967,0,0
49,57,0,0,0,0,0,0,0,0,0,-1,1273,967,0,0
56,57,0,0,0,0,0,0,0,0,0,-1,1280,967,0,0
63,57,0,0,0,0,0,0,0,0,0,-1,1287,967,0,0
70,57,0,0,0,0,0,0,0,0,0,-1,1294,967,0,0
77,57,0,0,0,0,0,0,0,0,0,-1,1301,967,0,0
84,57,0,0,0,0,0,0,0,0,0,-1,1308,967,0,0
91,57,0,0,0,0,0,0,0,0,0,-1,1315,967,0,0
98,57,0,0,0,0,0,0,0,0,0,-1,1322,967,0,0
105,57,0,0,0,0,0,0,0,0,0,-1,1329,967,0,0
112,57,0,0,0,0,0,0,0,0,0,-1,1336,967,0,0
119,57,0,0,0,0,0,0,0,0,0,-1,1343,967,0,0
126,57,0,0,0,0,0,0,0,0,0,-1,1350,967,0,0
133,57,0,0,0,0,0,0,0,0,0,-1,1357,967,0,0
140,57,0,0,0,0,0,0,0,0,0,-1,1364,967,0,0
147,57,0,0,0,0,0,0,0,0,0,-1,1371,967,0,0
154,57,0,0,0,0,0,0,0,0,0,-1,1378,967,0,0
161,57,0,0,0,0,0,0,0,0,0,-1,1385,967,0,0
168,57,0,0,0,0,0,0,0,0,0,-1,1392,967,0,0
175,57,0,0,0,0,0,0,0,0,0,-1,1399,967,0,0
182,57,0,0,0,0,0,0,0,0,0,-1,1406,967,0,0
189,57,0,0,0,0,0,0,0,0,0,-1,1413,967,0,0
196,57,0,0,0,0,0,0,0,0,0,-1,1420,967,0,0
203,57,0,0,0,0,0,0,0,0,0,-1,1427,967,0,0
210,57,0,0,0,0,0,0,0,0,0,-1,1434,967,0,0
217,57,0,0,0,0,0,0,0,0,0,-1,1441,967,0,0
224,57,0,0,0,0,0,0,0,0,0,-1,1448,967,0,0
231,57,0,0,0,0,0,0,0,0,0,-1,1455,967,0,0
238,57,0,0,0,0,0,0,0,0,0,-1,1462,967,0,0
245,57,0,0,0,0,0,0,0,0,0,-1,1469,967,0,0
252,57,0,0,0,0,0,0,0,0,0,-1,1476,967,0,0
259,57,0,0,0,0,0,0,0,0,0,-1,1483,967,0,0
266,57,0,0,0,0,0,0,0,0,0,-1,1490,967,0,0
273,57,0,0,0,0,0,0,0,0,0,-1,1497,967,0,0
280,57,0,0,0,0,0,0,0,0,0,-1,1504,967,0,0
287,57,0,0,0,0,0,0,0,0,0,-1,1511,967,0,0
294,57,0,0,0,0,0,0,0,0,0,-1,1518,967,0,0
301,57,0,0,0,0,0,0,0,0,0,-1,1525,967,0,0
308,57,0,0,0,0,0,0,0,0,0,-1,1532,967,0,0
315,57,0,0,0,0,0,0,0,0,0,-1,1539,967,0,0
322,57,0,0,0,0,0,0,0,0,0,-1,1546,967,0,0
329,57,0,0,0,0,0,0,0,0,0,-1,1553,967,0,0
336,57,0,0,0,0,0,0,0,0,0,-1,1560,967,0,0
343,57,0,0,0,0,0,0,0,0,0,-1,1567,967,0,0
350,57,0,0,0,0,0,0,0,0,0,-1,1574,967,0,0
357,57,0,0,0,0,0,0,0,0,0,-1,1581,967,0,0
364,57,0,0,0,0,0,0,0,0,0,-1,1588,967,0,0
371,57,0,0,0,0,0,0,0,0,0,-1,1595,967,0,0
378,57,0,0,0,0,0,0,0,0,0,-1,1602,967,0,0
385,57,0,0,0,0,0,0,0,0,0,-1,1609,967,0,0
392,57,0,0,0,0,0,0,0,0,0,-1,1616,967,0,0
399,57,0,0,0,0,0,0,0,0,0,-1,1623,967,0,0
406,57,0,0,0,0,0,0,0,0,0,-1,1630,967,0,0
413,57,0,0,0,0,0,0,0,0,0,-1,1637,967,0,0
420,57,0,0,0,0,0,0,0,0,0,-1,1644,967,0,0
427,57,0,0,0,0,0,0,0,0,0,-1,1651,967,0,0
434,57,0,0,0,0,0,0,0,0,0,-1,1658,967,0,0
441,57,0,0,0,0,0,0,0,0,0,-1,1665,967,0,0
448,57,0,0,0,0,0,0,0,0,0,-1,1672,967,0,0
455,57,0,0,0,0,0,0,0,0,0,-1,1679,967,0,0
462,57,0,0,0,0,0,0,0,0,0,-1,1686,967,0,0
469,57,0,0,0,0,0,0,0,0,0,-1,1693,967,0,0
476,57,0,0,0,0,0,0,0,0,0,-1,1700,967,0,0
483,57,0,0,0,0,0,0,0,0,0,-1,1707,967,0,0
490,57,0,0,0,0,0,0,0,0,0,-1,1714,967,0,0
497,57,0,0,0,0,0,0,0,0,0,-1,1721,967,0,0
504,57,0,0,0,0,0,0,0,0,0,-1,1728,967,0,0
511,57,0,0,0,0,0,0,0,0,0,-1,1735,967,0,0
518,57,0,0,0,0,0,0,0,0,0,-1,1742,967,0,0
525,57,0,0,0,0,0,0,0,0,0,-1,1749,967,0,0
532,57,0,0,0,0,0,0,0,0,0,-1,1756,967,0,0
539,57,0,0,0,0,0,0,0,0,0,-1,1763,967,0,0
546,57,0,0,0,0,0,0,0,0,0,-1,1770,967,0,0
553,57,0,0,0,0,0,0,0,0,0,-1,1777,967,0,0
560,57,0,0,0,0,0,0,0,0,0,-1,1784,967,0,0
567,57,0,0,0,0,0,0,0,0,0,-1,1791,967,0,0
574,57,0,0,0,0,0,0,0,0,0,-1,1798,967,0,0
581,57,0,0,0,0,0,0,0,0,0,-1,1805,967,0,0
588,57,0,0,0,0,0,0,0,0,0,-1,1812,967,0,0
595,57,0,0,0,0,0,0,0,0,0,-1,1819,967,0,0
602,57,0,0,0,0,0,0,0,0,0,-1,1826,967,0,0
609,57,0,0,0,0,0,0,0,0,0,-1,1833,967,0,0
616,57,0,0,0,0,0,0,0,0,0,-1,1840,967,0,0
623,57,0,0,0,0,0,0,0,0,0,-1,1847,967,0,0
630,57,0,0,0,0,0,0,0,0,0,-1,1854,967,0,0
637,57,0,0,0,0,0,0,0,0,0,-1,1861,967,0,0
644,57,33.5811,2.81274,0.00846306,0.00297603,-0.00077391,0.00857012,0.00286897,-0.137472,0.00503722,0.0385427,1868,967,33.5811,-2.81273
651,57,33.7029,2.84357,0.00570661,0.000970016,0.000418861,0.00574336,0.000933261,0.0875258,0.00355885,0.033233,1875,967,33.7029,-2.84354
658,57,33.7623,2.86084,0.00359696,-0.000255266,0.00125053,0.00396731,-0.000625612,0.287923,0.00287618,0.0334011,1882,967,33.7623,-2.86083
665,57,34.0013,2.02472,0,0,0,0,0,0,0,-1,1889,967,34.0014,-2.02472
672,57,34.0016,2.32635,0.000633117,-0.00115728,0.00240623,0.00230527,-0.00282944,0.607314,0.00296967,0.0468267,1896,967,34.0015,-2.32637
679,57,33.7885,2.71948,-0.000253066,-0.00117638,0.00276144,0.00208504,-0.00351449,0.702574,0.00326782,0.0430254,1903,967,33.7885,-2.71948
686,57,33.6868,2.78552,-0.00070698,-0.0011203,0.00288,0.00197377,-0.00380105,0.749581,0.00338927,0.0380353,1910,967,33.6868,-2.78554
693,57,33.6774,2.80658,-0.00102195,-0.00112458,0.00284514,0.00177234,-0.00391887,0.776381,0.00336282,0.033198,1917,967,33.6773,-2.80659
700,57,33.6733,2.85559,-0.00131415,-0.000899956,0.00267715,0.00157809,-0.00379221,0.824,0.00318717,0.0262175,1924,967,33.6734,-2.8556
707,57,33.6493,2.99274,-0.00149781,-0.000540801,0.00239144,0.00141954,-0.00345815,0.884139,0.00289696,0.0477197,1931,967,33.6493,-2.99272
714,57,33.6306,3.30536,0,0,0,0,0,0,0,-1,1938,967,33.6306,-3.30535
721,57,32.4709,4.37415,0,0,0,0,0,0,0,-1,1945,967,32.471,-4.37413
728,57,32.3517,4.60107,-0.00207065,0.00142382,0.00141034,0.001922,-0.00256883,1.23124,0.00260173,0.0209435,1952,967,32.3517,-4.60105
735,57,32.4048,4.80426,-0.00198659,0.00224824,0.00118208,0.00255585,-0.0022942,1.31621,0.00280154,0.0233132,1959,967,32.4048,-4.80423
742,57,32.4449,4.93256,-0.00221419,0.00316789,0.000985462,0.00334265,-0.00238895,1.39528,0.00332438,0.0169902,1966,967,32.4449,-4.93254
749,57,32.4089,5.13153,-0.00247081,0.00469453,0.000718048,0.00476578,-0.00254206,1.4719,0.0042838,0.0130478,1973,967,32.4089,-5.13152
756,57,32.3704,5.29767,-0.00278167,0.00660644,0.000579451,0.00664207,-0.0028173,1.50939,0.00560821,0.010932,1980,967,32.3704,-5.29765
763,57,32.3412,5.4668,-0.00286249,0.00912993,0.000576225,0.00915756,-0.00289011,1.52289,0.00726269,0.0113261,1987,967,32.3412,-5.4668
770,57,32.2848,5.60461,-0.00257591,0.0122444,0.000738026,0.0122811,-0.00261257,1.52116,0.00918299,0.0110199,1994,967,32.2848,-5.60464
777,57,32.2775,5.79114,-0.0020043,0.0157941,0.000905116,0.01584,-0.00205021,1.52012,0.0113056,0.025852,2001,967,32.2775,-5.79116
784,57,32.342,6.05566,-0.000814541,0.0200456,0.00113781,0.0201074,-0.000876419,1.51647,0.0137064,0.0471878,2008,967,32.342,-6.05567
791,57,32.4236,6.33777,0,0,0,0,0,0,0,-1,2015,967,32.4236,-6.33777
798,57,30.3938,4.35864,0.00578327,0.0308785,-0.000331745,0.0308829,0.00577888,-1.55758,0.0189582,0.0483993,2022,967,30.3938,-4.35865
805,57,30.804,3.76361,0,0,0,0,0,0,0,-1,2029,967,30.804,-3.76359
812,57,0,0,0,0,0,0,0,0,0,-1,2036,967,0,0
-700,50,0,0,0,0,0,0,0,0,0,-1,524,974,0,0
-693,50,-25.4126,1.20758,0.104304,-0.0694919,0.0543222,0.119886,-0.085074,0.279345,0.118901,0.0451989,531,974,-25.4126,-1.20758
-686,50,-24.7284,1.61554,0.0882452,-0.0533749,0.0447857,0.10122,-0.0663493,0.281979,0.0974416,0.0461693,538,974,-24.7284,-1.61555
-679,50,-23.8657,2.22357,0.0724778,-0.039684,0.0360785,0.0830806,-0.0502869,0.285836,0.0777718,0.0494277,545,974,-23.8656,-2.22358
-672,50,-22.9891,2.79517,0,0,0,0,0,0,0,-1,552,974,-22.9891,-2.79514
-665,50,-23.9157,5.13837,0,0,0,0,0,0,0,-1,559,974,-23.9157,-5.13835
-658,50,-23.9764,3.61224,0,0,0,0,0,0,0,-1,566,974,-23.9764,-3.61227
-651,50,-23.7992,3.27057,0.0234531,-0.00389531,0.0108436,0.0272308,-0.00767295,0.335227,0.02118,0.0427715,573,974,-23.7992,-3.27058
-644,50,-23.5829,2.87866,0.0156966,0.000396468,0.00710666,0.0184882,-0.00239512,0.374296,0.0131965,0.0293728,580,974,-23.5829,-2.87868
-637,50,-23.6392,2.75256,0.0095809,0.00441825,0.00416694,0.0119013,0.00209788,0.508089,0.00733557,0.0160601,587,974,-23.6392,-2.75254
-630,50,-23.6664,2.66144,0.00389406,0.00524544,0.00129607,0.00603137,0.00310812,1.02568,0.00348276,0.0103698,594,974,-23.6664,-2.66146
-623,50,-23.6685,2.57422,-9.45881e-05,0.00641978,-0.00124404,0.00664927,-0.000324076,-1.38838,0.00454472,0.0108457,601,974,-23.6685,-2.57424
-616,50,-23.6816,2.44879,-0.00131061,0.00595742,-0.00218628,0.00656438,-0.00191757,-1.29999,0.00513618,0.0113076,608,974,-23.6816,-2.44877
-609,50,-23.6924,2.27228,-0.00206138,0.0051857,-0.00283286,0.00616163,-0.00303731,-1.23903,0.00541216,0.010682,615,974,-23.6925,-2.27226
-602,50,-23.6933,2.12183,-0.00300966,0.00446262,-0.00333697,0.00573588,-0.00428292,-1.20628,0.0058046,0.0113378,622,974,-23.6933,-2.12181
-595,50,-23.6625,2.0108,-0.00374371,0.0034563,-0.00341209,0.00481638,-0.00510379,-1.19149,0.00572821,0.0114285,629,974,-23.6625,-2.01081
-588,50,-23.7071,1.82251,-0.00430734,0.00313585,-0.00350575,0.00452703,-0.00569853,-1.19303,0.00591663,0.0137731,636,974,-23.7071,-1.82251
-581,50,-23.9214,1.31409,-0.00452322,0.0029486,-0.00369693,0.00446857,-0.00604319,-1.18072,0.00609162,0.0193822,643,974,-23.9214,-1.3141
-574,50,-24.0605,0.949951,-0.00441259,0.00273099,-0.00389223,0.00444192,-0.00612352,-1.15664,0.00612566,0.0253558,650,974,-24.0605,-0.94997
-567,50,-24.0274,0.903809,-0.00439513,0.00261495,-0.00369169,0.00420048,-0.00598066,-1.16513,0.00590796,0.0370102,657,974,-24.0274,-0.903796
-560,50,-23.8546,0.884888,-0.00417778,0.00243602,-0.00334678,0.00383407,-0.00557583,-1.1751,0.00546374,0.0429197,664,974,-23.8546,-0.88491
-553,50,-23.7977,0.871582,-0.00362953,0.00210569,-0.00297812,0.00337238,-0.00489622,-1.16865,0.00480082,0.0424057,671,974,-23.7977,-0.871559
-546,50,-23.8621,1.06921,-0.00264078,0.00151883,-0.00270798,0.00285352,-0.00397547,-1.11287,0.00396041,0.0412447,678,974,-23.8621,-1.06921
-539,50,-23.9745,1.37897,-0.0011349,0.000570084,-0.00279104,0.00263592,-0.00320073,-0.933618,0.00337505,0.0455245,685,974,-23.9746,-1.37894
-532,50,-24.3263,1.39349,0.000771096,-0.000499895,-0.003883,0.00407026,-0.00379905,-0.704287,0.00454425,0.0450364,692,974,-24.3263,-1.39352
-525,50,-24.265,1.08441,0.00196511,-0.00158889,-0.00659634,0.00701961,-0.00664339,-0.653826,0.00788934,0.0460934,699,974,-24.265,-1.08441
-518,50,0,0,0,0,0,0,0,0,0,-1,706,974,0,0
-511,50,0,0,0,0,0,0,0,0,0,-1,713,974,0,0
-504,50,0,0,0,0,0,0,0,0,0,-1,720,974,0,0
-497,50,0,0,0,0,0,0,0,0,0,-1,727,974,0,0
-490,50,0,0,0,0,0,0,0,0,0,-1,734,974,0,0
-483,50,0,0,0,0,0,0,0,0,0,-1,741,974,0,0
-476,50,0,0,0,0,0,0,0,0,0,-1,748,974,0,0
-469,50,0,0,0,0,0,0,0,0,0,-1,755,974,0,0
-462,50,0,0,0,0,0,0,0,0,0,-1,762,974,0,0
-455,50,0,0,0,0,0,0,0,0,0,-1,769,974,0,0
-448,50,0,0,0,0,0,0,0,0,0,-1,776,974,0,0
-441,50,0,0,0,0,0,0,0,0,0,-1,783,974,0,0
-434,50,0,0,0,0,0,0,0,0,0,-1,790,974,0,0
-427,50,0,0,0,0,0,0,0,0,0,-1,797,974,0,0
-420,50,0,0,0,0,0,0,0,0,0,-1,804,974,0,0
-413,50,0,0,0,0,0,0,0,0,0,-1,811,974,0,0
-406,50,0,0,0,0,0,0,0,0,0,-1,818,974,0,0
-399,50,0,0,0,0,0,0,0,0,0,-1,825,974,0,0
-392,50,0,0,0,0,0,0,0,0,0,-1,832,974,0,0
-385,50,0,0,0,0,0,0,0,0,0,-1,839,974,0,0
-378,50,0,0,0,0,0,0,0,0,0,-1,846,974,0,0
-371,50,0,0,0,0,0,0,0,0,0,-1,853,974,0,0
-364,50,0,0,0,0,0,0,0,0,0,-1,860,974,0,0
-357,50,0,0,0,0,0,0,0,0,0,-1,867,974,0,0
-350,50,0,0,0,0,0,0,0,0,0,-1,874,974,0,0
-343,50,0,0,0,0,0,0,0,0,0,-1,881,974,0,0
-336,50,0,0,0,0,0,0,0,0,0,-1,888,974,0,0
-329,50,0,0,0,0,0,0,0,0,0,-1,895,974,0,0
-322,50,0,0,0,0,0,0,0,0,0,-1,902,974,0,0
-315,50,0,0,0,0,0,0,0,0,0,-1,909,974,0,0
-308,50,0,0,0,0,0,0,0,0,0,-1,916,974,0,0
-301,50,0,0,0,0,0,0,0,0,0,-1,923,974,0,0
-294,50,0,0,0,0,0,0,0,0,0,-1,930,974,0,0
-287,50,0,0,0,0,0,0,0,0,0,-1,937,974,0,0
-280,50,0,0,0,0,0,0,0,0,0,-1,944,974,0,0
-273,50,0,0,0,0,0,0,0,0,0,-1,951,974,0,0
-266,50,0,0,0,0,0,0,0,0,0,-1,958,974,0,0
-259,50,0,0,0,0,0,0,0,0,0,-1,965,974,0,0
-252,50,0,0,0,0,0,0,0,0,0,-1,972,974,0,0
-245,50,0,0,0,0,0,0,0,0,0,-1,979,974,0,0
-238,50,0,0,0,0,0,0,0,0,0,-1,986,974,0,0
-231,50,0,0,0,0,0,0,0,0,0,-1,993,974,0,0
-224,50,0,0,0,0,0,0,0,0,0,-1,1000,974,0,0
-217,50,0,0,0,0,0,0,0,0,0,-1,1007,974,0,0
-210,50,0,0,0,0,0,0,0,0,0,-1,1014,974,0,0
-203,50,0,0,0,0,0,0,0,0,0,-1,1021,974,0,0
-196,50,0,0,0,0,0,0,0,0,0,-1,1028,974,0,0
-189,50,0,0,0,0,0,0,0,0,0,-1,1035,974,0,0
-182,50,0,0,0,0,0,0,0,0,0,-1,1042,974,0,0
-175,50,0,0,0,0,0,0,0,0,0,-1,1049,974,0,0
-168,50,0,0,0,0,0,0,0,0,0,-1,1056,974,0,0
-161,50,0,0,0,0,0,0,0,0,0,-1,1063,974,0,0
-154,50,0,0,0,0,0,0,0,0,0,-1,1070,974,0,0
-147,50,0,0,0,0,0,0,0,0,0,-1,1077,974,0,0
-140,50,0,0,0,0,0,0,0,0,0,-1,1084,974,0,0
-133,50,0,0,0,0,0,0,0,0,0,-1,1091,974,0,0
-126,50,0,0,0,0,0,0,0,0,0,-1,1098,974,0,0
-119,50,0,0,0,0,0,0,0,0,0,-1,1105,974,0,0
-112,50,0,0,0,0,0,0,0,0,0,-1,1112,974,0,0
-105,50,0,0,0,0,0,0,0,0,0,-1,1119,974,0,0
-98,50,0,0,0,0,0,0,0,0,0,-1,1126,974,0,0
-91,50,0,0,0,0,0,0,0,0,0,-1,1133,974,0,0
-84,50,0,0,0,0,0,0,0,0,0,-1,1140,974,0,0
-77,50,0,0,0,0,0,0,0,0,0,-1,1147,974,0,0
-70,50,0,0,0,0,0,0,0,0,0,-1,1154,974,0,0
-63,50,0,0,0,0,0,0,0,0,0,-1,1161,974,0,0
-56,50,0,0,0,0,0,0,0,0,0,-1,1168,974,0,0
-49,50,0,0,0,0,0,0,0,0,0,-1,1175,974,0,0
-42,50,0,0,0,0,0,0,0,0,0,-1,1182,974,0,0
-35,50,0,0,0,0,0,0,0,0,0,-1,1189,974,0,0
-28,50,0,0,0,0,0,0,0,0,0,-1,1196,974,0,0
-21,50,0,0,0,0,0,0,0,0,0,-1,1203,974,0,0
-14,50,0,0,0,0,0,0,0,0,0,-1,1210,974,0,0
-7,50,0,0,0,0,0,0,0,0,0,-1,1217,974,0,0
0,50,0,0,0,0,0,0,0,0,0,-1,1224,974,0,0
7,50,0,0,0,0,0,0,0,0,0,-1,1231,974,0,0
14,50,0,0,0,0,0,0,0,0,0,-1,1238,974,0,0
21,50,0,0,0,0,0,0,0,0,0,-1,1245,974,0,0
28,50,0,0,0,0,0,0,0,0,0,-1,1252,974,0,0
35,50,0,0,0,0,0,0,0,0,0,-1,1259,974,0,0
42,50,0,0,0,0,0,0,0,0,0,-1,1266,974,0,0
49,50,0,0,0,0,0,0,0,0,0,-1,1273,974,0,0
56,50,0,0,0,0,0,0,0,0,0,-1,1280,974,0,0
63,50,0,0,0,0,0,0,0,0,0,-1,1287,974,0,0
70,50,0,0,0,0,0,0,0,0,0,-1,1294,974,0,0
77,50,0,0,0,0,0,0,0,0,0,-1,1301,974,0,0
84,50,0,0,0,0,0,0,0,0,0,-1,1308,974,0,0
91,50,0,0,0,0,0,0,0,0,0,-1,1315,974,0,0
98,50,0,0,0,0,0,0,0,0,0,-1,1322,974,0,0
105,50,0,0,0,0,0,0,0,0,0,-1,1329,974,0,0
112,50,0,0,0,0,0,0,0,0,0,-1,1336,974,0,0
119,50,0,0,0,0,0,0,0,0,0,-1,1343,974,0,0
126,50,0,0,0,0,0,0,0,0,0,-1,1350,974,0,0
133,50,0,0,0,0,0,0,0,0,0,-1,1357,974,0,0
140,50,0,0,0,0,0,0,0,0,0,-1,1364,974,0,0
147,50,0,0,0,0,0,0,0,0,0,-1,1371,974,0,0
154,50,0,0,0,0,0,0,0,0,0,-1,1378,974,0,0
161,50,0,0,0,0,0,0,0,0,0,-1,1385,974,0,0
168,50,0,0,0,0,0,0,0,0,0,-1,1392,974,0,0
175,50,0,0,0,0,0,0,0,0,0,-1,1399,974,0,0
182,50,0,0,0,0,0,0,0,0,0,-1,1406,974,0,0
189,50,0,0,0,0,0,0,0,0,0,-1,1413,974,0,0
196,50,0,0,0,0,0,0,0,0,0,-1,1420,974,0,0
203,50,0,0,0,0,0,0,0,0,0,-1,1427,974,0,0
210,50,0,0,0,0,0,0,0,0,0,-1,1434,974,0,0
217,50,0,0,0,0,0,0,0,0,0,-1,1441,974,0,0
224,50,0,0,0,0,0,0,0,0,0,-1,1448,974,0,0
231,50,0,0,0,0,0,0,0,0,0,-1,1455,974,0,0
238,50,0,0,0,0,0,0,0,0,0,-1,1462,974,0,0
245,50,0,0,0,0,0,0,0,0,0,-1,1469,974,0,0
252,50,0,0,0,0,0,0,0,0,0,-1,1476,974,0,0
259,50,0,0,0,0,0,0,0,0,0,-1,1483,974,0,0
266,50,0,0,0,0,0,0,0,0,0,-1,1490,974,0,0
273,50,0,0,0,0,0,0,0,0,0,-1,1497,974,0,0
280,50,0,0,0,0,0,0,0,0,0,-1,1504,974,0,0
287,50,0,0,0,0,0,0,0,0,0,-1,1511,974,0,0
294,50,0,0,0,0,0,0,0,0,0,-1,1518,974,0,0
301,50,0,0,0,0,0,0,0,0,0,-1,1525,974,0,0
308,50,0,0,0,0,0,0,0,0,0,-1,1532,974,0,0
315,50,0,0,0,0,0,0,0,0,0,-1,1539,974,0,0
322,50,0,0,0,0,0,0,0,0,0,-1,1546,974,0,0
329,50,0,0,0,0,0,0,0,0,0,-1,1553,974,0,0
336,50,0,0,0,0,0,0,0,0,0,-1,1560,974,0,0
343,50,0,0,0,0,0,0,0,0,0,-1,1567,974,0,0
350,50,0,0,0,0,0,0,0,0,0,-1,1574,974,0,0
357,50,0,0,0,0,0,0,0,0,0,-1,1581,974,0,0
364,50,0,0,0,0,0,0,0,0,0,-1,1588,974,0,0
371,50,0,0,0,0,0,0,0,0,0,-1,1595,974,0,0
378,50,0,0,0,0,0,0,0,0,0,-1,1602,974,0,0
385,50,0,0,0,0,0,0,0,0,0,-1,1609,974,0,0
392,50,0,0,0,0,0,0,0,0,0,-1,1616,974,0,0
399,50,0,0,0,0,0,0,0,0,0,-1,1623,974,0,0
406,50,0,0,0,0,0,0,0,0,0,-1,1630,974,0,0
413,50,0,0,0,0,0,0,0,0,0,-1,1637,974,0,0
420,50,0,0,0,0,0,0,0,0,0,-1,1644,974,0,0
427,50,0,0,0,0,0,0,0,0,0,-1,1651,974,0,0
434,50,0,0,0,0,0,0,0,0,0,-1,1658,974,0,0
441,50,0,0,0,0,0,0,0,0,0,-1,1665,974,0,0
448,50,0,0,0,0,0,0,0,0,0,-1,1672,974,0,0
455,50,0,0,0,0,0,0,0,0,0,-1,1679,974,0,0
462,50,0,0,0,0,0,0,0,0,0,-1,1686,974,0,0
469,50,0,0,0,0,0,0,0,0,0,-1,1693,974,0,0
476,50,0,0,0,0,0,0,0,0,0,-1,1700,974,0,0
483,50,0,0,0,0,0,0,0,0,0,-1,1707,974,0,0
490,50,0,0,0,0,0,0,0,0,0,-1,1714,974,0,0
497,50,0,0,0,0,0,0,0,0,0,-1,1721,974,0,0
504,50,0,0,0,0,0,0,0,0,0,-1,1728,974,0,0
511,50,0,0,0,0,0,0,0,0,0,-1,1735,974,0,0
518,50,0,0,0,0,0,0,0,0,0,-1,1742,974,0,0
525,50,0,0,0,0,0,0,0,0,0,-1,1749,974,0,0
532,50,0,0,0,0,0,0,0,0,0,-1,1756,974,0,0
539,50,0,0,0,0,0,0,0,0,0,-1,1763,974,0,0
546,50,0,0,0,0,0,0,0,0,0,-1,1770,974,0,0
553,50,0,0,0,0,0,0,0,0,0,-1,1777,974,0,0
560,50,0,0,0,0,0,0,0,0,0,-1,1784,974,0,0
567,50,0,0,0,0,0,0,0,0,0,-1,1791,974,0,0
574,50,0,0,0,0,0,0,0,0,0,-1,1798,974,0,0
581,50,0,0,0,0,0,0,0,0,0,-1,1805,974,0,0
588,50,0,0,0,0,0,0,0,0,0,-1,1812,974,0,0
595,50,0,0,0,0,0,0,0,0,0,-1,1819,974,0,0
602,50,0,0,0,0,0,0,0,0,0,-1,1826,974,0,0
609,50,0,0,0,0,0,0,0,0,0,-1,1833,974,0,0
616,50,0,0,0,0,0,0,0,0,0,-1,1840,974,0,0
623,50,0,0,0,0,0,0,0,0,0,-1,1847,974,0,0
630,50,0,0,0,0,0,0,0,0,0,-1,1854,974,0,0
637,50,0,0,0,0,0,0,0,0,0,-1,1861,974,0,0
644,50,33.4955,2.80725,0.00876111,0.00216352,-0.000725889,0.00884003,0.0020846,-0.108297,0.00533599,0.0370146,1868,974,33.4955,-2.80727
651,50,33.5088,2.7821,0.00594064,0.000341708,0.000476741,0.00598094,0.000301404,0.0843396,0.00389072,0.0315985,1875,974,33.5088,-2.78213
658,50,33.6782,2.79315,0.0037904,-0.000736348,0.00129979,0.00413707,-0.00108302,0.260644,0.00318111,0.0362715,1882,974,33.6782,-2.79316
665,50,33.8159,2.55585,0.00212743,-0.00122324,0.00196598,0.00303508,-0.00213089,0.432524,0.00299777,0.0393425,1889,974,33.8159,-2.55585
672,50,33.8967,2.51099,0.000779678,-0.00136936,0.00248671,0.00241409,-0.00300377,0.581462,0.00313417,0.0411721,1896,974,33.8967,-2.511
679,50,33.7101,2.7829,-0.000163436,-0.00127608,0.00290301,0.00223608,-0.00367559,0.690728,0.00344667,0.0420341,1903,974,33.7101,-2.7829
686,50,33.6416,2.88763,-0.000660772,-0.00114096,0.0030929,0.00220134,-0.00400308,0.746662,0.00363212,0.0419188,1910,974,33.6416,-2.88761
693,50,33.6299,2.91217,-0.000977915,-0.00106566,0.00310643,0.00208495,-0.00412852,0.778337,0.00365145,0.0399216,1917,974,33.6299,-2.91215
700,50,33.6218,2.88318,-0.00125517,-0.000805009,0.00295373,0.0019322,-0.00399238,0.823426,0.00348881,0.0240102,1924,974,33.6218,-2.88316
707,50,33.6721,2.88074,-0.00145223,-0.000416643,0.00270763,0.00182226,-0.00369113,0.879875,0.00324354,0.0377129,1931,974,33.6721,-2.88072
714,50,33.6736,2.96051,0,0,0,0,0,0,0,-1,1938,974,33.6736,-2.9605
721,50,32.6359,4.35712,0,0,0,0,0,0,0,-1,1945,974,32.6359,-4.35709
728,50,32.5544,4.58435,-0.00217196,0.00152867,0.0017321,0.00221289,-0.00285618,1.19459,0.00293447,0.0223217,1952,974,32.5544,-4.58433
735,50,32.6091,4.77722,-0.00219143,0.00237081,0.00141907,0.00277618,-0.00259681,1.29254,0.00310267,0.019754,1959,974,32.6092,-4.7772
742,50,32.6327,4.9425,-0.00253024,0.00327523,0.0011635,0.00349973,-0.00275474,1.38019,0.00361955,0.0150965,1966,974,32.6327,-4.94249
749,50,32.6115,5.05652,-0.00296557,0.00475821,0.000844987,0.00484957,-0.00305693,1.46309,0.00460377,0.0155101,1973,974,32.6115,-5.05654
756,50,32.5675,5.22357,-0.00353638,0.00662425,0.000616541,0.00666153,-0.00357366,1.51041,0.00599826,0.0120976,1980,974,32.5675,-5.22358
763,50,32.5344,5.39978,-0.00398333,0.00910725,0.000504653,0.00912668,-0.00400276,1.53232,0.00777032,0.0118387,1987,974,32.5345,-5.39975
770,50,32.4899,5.54187,-0.00413028,0.0122424,0.000602872,0.0122645,-0.00415245,1.53404,0.00985651,0.0109731,1994,974,32.4898,-5.54185
777,50,32.4392,5.68658,-0.00403276,0.0157888,0.000814053,0.0158221,-0.00406614,1.52982,0.0121328,0.0212371,2001,974,32.4392,-5.68661
784,50,32.5924,5.97278,0,0,0,0,0,0,0,-1,2008,974,32.5925,-5.9728
791,50,29.9747,4.15491,0,0,0,0,0,0,0,-1,2015,974,29.9747,-4.15488
798,50,30.394,3.71399,0,0,0,0,0,0,0,-1,2022,974,30.3939,-3.714
805,50,30.5969,3.15503,0,0,0,0,0,0,0,-1,2029,974,30.597,-3.15501
812,50,0,0,0,0,0,0,0,0,0,-1,2036,974,0,0
-700,43,0,0,0,0,0,0,0,0,0,-1,524,981,0,0
-693,43,-25.3806,2.71014,0.0971645,-0.0736011,0.0491189,0.110285,-0.0867215,0.261022,0.114013,0.0438636,531,981,-25.3806,-2.71017
-686,43,-24.9829,2.79041,0.0838508,-0.0553679,0.0410226,0.0950395,-0.0665565,0.266267,0.0937793,0.0461644,538,981,-24.9829,-2.79041
-679,43,-24.6763,2.71545,0.0697676,-0.0404785,0.0333728,0.0790828,-0.0497937,0.272199,0.0750447,0.0477104,545,981,-24.6763,-2.71545
-672,43,-24.4026,2.40576,0,0,0,0,0,0,0,-1,552,981,-24.4026,-2.40577
-665,43,-24.814,2.45734,0,0,0,0,0,0,0,-1,559,981,-24.814,-2.45731
-658,43,-24.1467,3.0694,0.0329464,-0.00969341,0.0149075,0.0376414,-0.0143884,0.305105,0.0310233,0.0484406,566,981,-24.1467,-3.06942
-651,43,-23.8151,3.06775,0.0236083,-0.00353503,0.0105596,0.0272324,-0.00715915,0.33061,0.0209531,0.040659,573,981,-23.8151,-3.06774
-644,43,-23.7458,2.86218,0.0160381,0.000710954,0.00708365,0.0188104,-0.00206139,0.373047,0.0132809,0.0223117,580,981,-23.7458,-2.86219
-637,43,-23.796,2.72125,0.0100102,0.00467192,0.00426253,0.0123703,0.0023118,0.505673,0.00759449,0.015437,587,981,-23.796,-2.72128
-630,43,-23.7914,2.62701,0.00448539,0.00580589,0.00140543,0.00669844,0.00359284,1.00499,0.00387075,0.0131406,594,981,-23.7914,-2.62702
-623,43,-23.8032,2.52277,0.000610997,0.00673513,-0.00112047,0.00693369,0.000412434,-1.3954,0.0044913,0.0112401,601,981,-23.8032,-2.52279
-616,43,-23.8185,2.40112,-0.000634842,0.00622619,-0.00224414,0.00689501,-0.00130367,-1.28115,0.00508722,0.010174,608,981,-23.8185,-2.40112
-609,43,-23.8352,2.28339,-0.0013989,0.00550277,-0.00306736,0.00666896,-0.00256509,-1.20748,0.00550399,0.0124599,615,981,-23.8352,-2.28336
-602,43,-23.8116,2.16205,-0.00231021,0.00476197,-0.00372224,0.00635999,-0.00390822,-1.16528,0.00598442,0.0146882,622,981,-23.8116,-2.16206
-595,43,-23.8007,2.03101,-0.00299905,0.00367819,-0.00394674,0.00550901,-0.00482987,-1.13646,0.00597345,0.0134095,629,981,-23.8007,-2.031
-588,43,-23.8116,1.73529,-0.00352852,0.00335396,-0.00410092,0.00526619,-0.00544075,-1.13448,0.00618193,0.015633,636,981,-23.8116,-1.73532
-581,43,-23.9537,1.20795,-0.00375089,0.00316155,-0.00425427,0.0051866,-0.00577593,-1.12653,0.00633227,0.0206297,643,981,-23.9537,-1.20797
-574,43,-24.0494,0.945923,-0.00375902,0.00288761,-0.00436771,0.00505258,-0.00592399,-1.11061,0.00634398,0.0255703,650,981,-24.0494,-0.94594
-567,43,-24.0069,0.871033,-0.00389739,0.00270991,-0.00402155,0.00461077,-0.00579825,-1.12925,0.00602268,0.0354649,657,981,-24.0069,-0.871039
-560,43,-23.8719,0.764648,-0.00388005,0.00244902,-0.00348813,0.00399419,-0.00542522,-1.1538,0.00545917,0.0421061,664,981,-23.872,-0.764648
-553,43,-23.825,0.803955,-0.00359102,0.00201656,-0.00289182,0.00324065,-0.00481512,-1.17037,0.00468052,0.0427319,671,981,-23.825,-0.803956
-546,43,-23.7437,0.929321,-0.00289998,0.00130293,-0.00237036,0.00236924,-0.00396629,-1.14807,0.00369635,0.0437562,678,981,-23.7437,-0.929309
-539,43,-23.9805,1.31262,-0.00170461,0.000238156,-0.0022282,0.00169751,-0.00316396,-0.990953,0.00284902,0.0467432,685,981,-23.9804,-1.31263
-532,43,-24.4631,1.02264,-0.000142156,-0.000848676,-0.00321068,0.00273463,-0.00372547,-0.730605,0.00374434,0.0461753,692,981,-24.4632,-1.02265
-525,43,-24.347,0.740356,0.000838963,-0.00195654,-0.00593997,0.00554343,-0.006661,-0.669844,0.00705607,0.0461788,699,981,-24.347,-0.740339
-518,43,0,0,0,0,0,0,0,0,0,-1,706,981,0,0
-511,43,0,0,0,0,0,0,0,0,0,-1,713,981,0,0
-504,43,0,0,0,0,0,0,0,0,0,-1,720,981,0,0
-497,43,0,0,0,0,0,0,0,0,0,-1,727,981,0,0
-490,43,0,0,0,0,0,0,0,0,0,-1,734,981,0,0
-483,43,0,0,0,0,0,0,0,0,0,-1,741,981,0,0
-476,43,0,0,0,0,0,0,0,0,0,-1,748,981,0,0
-469,43,0,0,0,0,0,0,0,0,0,-1,755,981,0,0
-462,43,0,0,0,0,0,0,0,0,0,-1,762,981,0,0
-455,43,0,0,0,0,0,0,0,0,0,-1,769,981,0,0
-448,43,0,0,0,0,0,0,0,0,0,-1,776,981,0,0
-441,43,0,0,0,0,0,0,0,0,0,-1,783,981,0,0
-434,43,0,0,0,0,0,0,0,0,0,-1,790,981,0,0
-427,43,0,0,0,0,0,0,0,0,0,-1,797,981,0,0
-420,43,0,0,0,0,0,0,0,0,0,-1,804,981,0,0
-413,43,0,0,0,0,0,0,0,0,0,-1,811,981,0,0
-406,43,0,0,0,0,0,0,0,0,0,-1,818,981,0,0
-399,43,0,0,0,0,0,0,0,0,0,-1,825,981,0,0
-392,43,0,0,0,0,0,0,0,0,0,-1,832,981,0,0
-385,43,0,0,0,0,0,0,0,0,0,-1,839,981,0,0
-378,43,0,0,0,0,0,0,0,0,0,-1,846,981,0,0
-371,43,0,0,0,0,0,0,0,0,0,-1,853,981,0,0
-364,43,0,0,0,0,0,0,0,0,0,-1,860,981,0,0
-357,43,0,0,0,0,0,0,0,0,0,-1,867,981,0,0
-350,43,0,0,0,0,0,0,0,0,0,-1,874,981,0,0
-343,43,0,0,0,0,0,0,0,0,0,-1,881,981,0,0
-336,43,0,0,0,0,0,0,0,0,0,-1,888,981,0,0
-329,43,0,0,0,0,0,0,0,0,0,-1,895,981,0,0
-322,43,0,0,0,0,0,0,0,0,0,-1,902,981,0,0
-315,43,0,0,0,0,0,0,0,0,0,-1,909,981,0,0
-308,43,0,0,0,0,0,0,0,0,0,-1,916,981,0,0
-301,43,0,0,0,0,0,0,0,0,0,-1,923,981,0,0
-294,43,0,0,0,0,0,0,0,0,0,-1,930,981,0,0
-287,43,0,0,0,0,0,0,0,0,0,-1,937,981,0,0
-280,43,0,0,0,0,0,0,0,0,0,-1,944,981,0,0
-273,43,0,0,0,0,0,0,0,0,0,-1,951,981,0,0
-266,43,0,0,0,0,0,0,0,0,0,-1,958,981,0,0
-259,43,0,0,0,0,0,0,0,0,0,-1,965,981,0,0
-252,43,0,0,0,0,0,0,0,0,0,-1,972,981,0,0
-245,43,0,0,0,0,0,0,0,0,0,-1,979,981,0,0
-238,43,0,0,0,0,0,0,0,0,0,-1,986,981,0,0
-231,43,0,0,0,0,0,0,0,0,0,-1,993,981,0,0
-224,43,0,0,0,0,0,0,0,0,0,-1,1000,981,0,0
-217,43,0,0,0,0,0,0,0,0,0,-1,1007,981,0,0
-210,43,0,0,0,0,0,0,0,0,0,-1,1014,981,0,0
-203,43,0,0,0,0,0,0,0,0,0,-1,1021,981,0,0
-196,43,0,0,0,0,0,0,0,0,0,-1,1028,981,0,0
-189,43,0,0,0,0,0,0,0,0,0,-1,1035,981,0,0
-182,43,0,0,0,0,0,0,0,0,0,-1,1042,981,0,0
-175,43,0,0,0,0,0,0,0,0,0,-1,1049,981,0,0
-168,43,0,0,0,0,0,0,0,0,0,-1,1056,981,0,0
-161,43,0,0,0,0,0,0,0,0,0,-1,1063,981,0,0
-154,43,0,0,0,0,0,0,0,0,0,-1,1070,981,0,0
-147,43,0,0,0,0,0,0,0,0,0,-1,1077,981,0,0
-140,43,0,0,0,0,0,0,0,0,0,-1,1084,981,0,0
-133,43,0,0,0,0,0,0,0,0,0,-1,1091,981,0,0
-126,43,0,0,0,0,0,0,0,0,0,-1,1098,981,0,0
-119,43,0,0,0,0,0,0,0,0,0,-1,1105,981,0,0
-112,43,0,0,0,0,0,0,0,0,0,-1,1112,981,0,0
-105,43,0,0,0,0,0,0,0,0,0,-1,1119,981,0,0
-98,43,0,0,0,0,0,0,0,0,0,-1,1126,981,0,0
-91,43,0,0,0,0,0,0,0,0,0,-1,1133,981,0,0
-84,43,0,0,0,0,0,0,0,0,0,-1,1140,981,0,0
-77,43,0,0,0,0,0,0,0,0,0,-1,1147,981,0,0
-70,43,0,0,0,0,0,0,0,0,0,-1,1154,981,0,0
-63,43,0,0,0,0,0,0,0,0,0,-1,1161,981,0,0
-56,43,0,0,0,0,0,0,0,0,0,-1,1168,981,0,0
-49,43,0,0,0,0,0,0,0,0,0,-1,1175,981,0,0
-42,43,0,0,0,0,0,0,0,0,0,-1,1182,981,0,0
-35,43,0,0,0,0,0,0,0,0,0,-1,1189,981,0,0
-28,43,0,0,0,0,0,0,0,0,0,-1,1196,981,0,0
-21,43,0,0,0,0,0,0,0,0,0,-1,1203,981,0,0
-14,43,0,0,0,0,0,0,0,0,0,-1,1210,981,0,0
-7,43,0,0,0,0,0,0,0,0,0,-1,1217,981,0,0
0,43,0,0,0,0,0,0,0,0,0,-1,1224,981,0,0
7,43,0,0,0,0,0,0,0,0,0,-1,1231,981,0,0
14,43,0,0,0,0,0,0,0,0,0,-1,1238,981,0,0
21,43,0,0,0,0,0,0,0,0,0,-1,1245,981,0,0
28,43,0,0,0,0,0,0,0,0,0,-1,1252,981,0,0
35,43,0,0,0,0,0,0,0,0,0,-1,1259,981,0,0
42,43,0,0,0,0,0,0,0,0,0,-1,1266,981,0,0
49,43,0,0,0,0,0,0,0,0,0,-1,1273,981,0,0
56,43,0,0,0,0,0,0,0,0,0,-1,1280,981,0,0
63,43,0,0,0,0,0,0,0,0,0,-1,1287,981,0,0
70,43,0,0,0,0,0,0,0,0,0,-1,1294,981,0,0
77,43,0,0,0,0,0,0,0,0,0,-1,1301,981,0,0
84,43,0,0,0,0,0,0,0,0,0,-1,1308,981,0,0
91,43,0,0,0,0,0,0,0,0,0,-1,1315,981,0,0
98,43,0,0,0,0,0,0,0,0,0,-1,1322,981,0,0
105,43,0,0,0,0,0,0,0,0,0,-1,1329,981,0,0
112,43,0,0,0,0,0,0,0,0,0,-1,1336,981,0,0
119,43,0,0,0,0,0,0,0,0,0,-1,1343,981,0,0
126,43,0,0,0,0,0,0,0,0,0,-1,1350,981,0,0
133,43,0,0,0,0,0,0,0,0,0,-1,1357,981,0,0
140,43,0,0,0,0,0,0,0,0,0,-1,1364,981,0,0
147,43,0,0,0,0,0,0,0,0,0,-1,1371,981,0,0
154,43,0,0,0,0,0,0,0,0,0,-1,1378,981,0,0
161,43,0,0,0,0,0,0,0,0,0,-1,1385,981,0,0
168,43,0,0,0,0,0,0,0,0,0,-1,1392,981,0,0
175,43,0,0,0,0,0,0,0,0,0,-1,1399,981,0,0
182,43,0,0,0,0,0,0,0,0,0,-1,1406,981,0,0
189,43,0,0,0,0,0,0,0,0,0,-1,1413,981,0,0
196,43,0,0,0,0,0,0,0,0,0,-1,1420,981,0,0
203,43,0,0,0,0,0,0,0,0,0,-1,1427,981,0,0
210,43,0,0,0,0,0,0,0,0,0,-1,1434,981,0,0
217,43,0,0,0,0,0,0,0,0,0,-1,1441,981,0,0
224,43,0,0,0,0,0,0,0,0,0,-1,1448,981,0,0
231,43,0,0,0,0,0,0,0,0,0,-1,1455,981,0,0
238,43,0,0,0,0,0,0,0,0,0,-1,1462,981,0,0
245,43,0,0,0,0,0,0,0,0,0,-1,1469,981,0,0
252,43,0,0,0,0,0,0,0,0,0,-1,1476,981,0,0
259,43,0,0,0,0,0,0,0,0,0,-1,1483,981,0,0
266,43,0,0,0,0,0,0,0,0,0,-1,1490,981,0,0
273,43,0,0,0,0,0,0,0,0,0,-1,1497,981,0,0
280,43,0,0,0,0,0,0,0,0,0,-1,1504,981,0,0
287,43,0,0,0,0,0,0,0,0,0,-1,1511,981,0,0
294,43,0,0,0,0,0,0,0,0,0,-1,1518,981,0,0
301,43,0,0,0,0,0,0,0,0,0,-1,1525,981,0,0
308,43,0,0,0,0,0,0,0,0,0,-1,1532,981,0,0
315,43,0,0,0,0,0,0,0,0,0,-1,1539,981,0,0
322,43,0,0,0,0,0,0,0,0,0,-1,1546,981,0,0
329,43,0,0,0,0,0,0,0,0,0,-1,1553,981,0,0
336,43,0,0,0,0,0,0,0,0,0,-1,1560,981,0,0
343,43,0,0,0,0,0,0,0,0,0,-1,1567,981,0,0
350,43,0,0,0,0,0,0,0,0,0,-1,1574,981,0,0
357,43,0,0,0,0,0,0,0,0,0,-1,1581,981,0,0
364,43,0,0,0,0,0,0,0,0,0,-1,1588,981,0,0
371,43,0,0,0,0,0,0,0,0,0,-1,1595,981,0,0
378,43,0,0,0,0,0,0,0,0,0,-1,1602,981,0,0
385,43,0,0,0,0,0,0,0,0,0,-1,1609,981,0,0
392,43,0,0,0,0,0,0,0,0,0,-1,1616,981,0,0
399,43,0,0,0,0,0,0,0,0,0,-1,1623,981,0,0
406,43,0,0,0,0,0,0,0,0,0,-1,1630,981,0,0
413,43,0,0,0,0,0,0,0,0,0,-1,1637,981,0,0
420,43,0,0,0,0,0,0,0,0,0,-1,1644,981,0,0
427,43,0,0,0,0,0,0,0,0,0,-1,1651,981,0,0
434,43,0,0,0,0,0,0,0,0,0,-1,1658,981,0,0
441,43,0,0,0,0,0,0,0,0,0,-1,1665,981,0,0
448,43,0,0,0,0,0,0,0,0,0,-1,1672,981,0,0
455,43,0,0,0,0,0,0,0,0,0,-1,1679,981,0,0
462,43,0,0,0,0,0,0,0,0,0,-1,1686,981,0,0
469,43,0,0,0,0,0,0,0,0,0,-1,1693,981,0,0
476,43,0,0,0,0,0,0,0,0,0,-1,1700,981,0,0
483,43,0,0,0,0,0,0,0,0,0,-1,1707,981,0,0
490,43,0,0,0,0,0,0,0,0,0,-1,1714,981,0,0
497,43,0,0,0,0,0,0,0,0,0,-1,1721,981,0,0
504,43,0,0,0,0,0,0,0,0,0,-1,1728,981,0,0
511,43,0,0,0,0,0,0,0,0,0,-1,1735,981,0,0
518,43,0,0,0,0,0,0,0,0,0,-1,1742,981,0,0
525,43,0,0,0,0,0,0,0,0,0,-1,1749,981,0,0
532,43,0,0,0,0,0,0,0,0,0,-1,1756,981,0,0
539,43,0,0,0,0,0,0,0,0,0,-1,1763,981,0,0
546,43,0,0,0,0,0,0,0,0,0,-1,1770,981,0,0
553,43,0,0,0,0,0,0,0,0,0,-1,1777,981,0,0
560,43,0,0,0,0,0,0,0,0,0,-1,1784,981,0,0
567,43,0,0,0,0,0,0,0,0,0,-1,1791,981,0,0
574,43,0,0,0,0,0,0,0,0,0,-1,1798,981,0,0
581,43,0,0,0,0,0,0,0,0,0,-1,1805,981,0,0
588,43,0,0,0,0,0,0,0,0,0,-1,1812,981,0,0
595,43,0,0,0,0,0,0,0,0,0,-1,1819,981,0,0
602,43,0,0,0,0,0,0,0,0,0,-1,1826,981,0,0
609,43,0,0,0,0,0,0,0,0,0,-1,1833,981,0,0
616,43,0,0,0,0,0,0,0,0,0,-1,1840,981,0,0
623,43,0,0,0,0,0,0,0,0,0,-1,1847,981,0,0
630,43,0,0,0,0,0,0,0,0,0,-1,1854,981,0,0
637,43,0,0,0,0,0,0,0,0,0,-1,1861,981,0,0
644,43,33.4634,2.76392,0.0084677,0.00145202,-0.000762308,0.00854957,0.00137015,-0.106994,0.00530234,0.0381992,1868,981,33.4633,-2.76392
651,43,33.4929,2.73767,0.00581406,-0.00014791,0.000431696,0.00584516,-0.000179006,0.0719084,0.00395779,0.0372168,1875,981,33.4929,-2.73769
658,43,33.6888,2.67255,0.00376673,-0.00106504,0.00124307,0.00406778,-0.00136609,0.237607,0.00326394,0.0375264,1882,981,33.6888,-2.67257
665,43,33.8533,2.55048,0.00219182,-0.00143139,0.00189144,0.00299927,-0.00223884,0.403477,0.00303483,0.0378616,1889,981,33.8533,-2.55049
672,43,33.8379,2.57178,0.000909344,-0.00146296,0.00241425,0.00241309,-0.0029667,0.557061,0.0031115,0.0397204,1896,981,33.8379,-2.57177
679,43,33.6312,2.74438,-1.62998e-05,-0.00127065,0.00286784,0.00229215,-0.0035791,0.677747,0.0034168,0.0413825,1903,981,33.6312,-2.74438
686,43,33.5344,2.87524,-0.00050586,-0.00106831,0.00311262,0.00233821,-0.00391238,0.740345,0.00364673,0.0413846,1910,981,33.5344,-2.87526
693,43,33.5438,2.84021,-0.00079442,-0.000920375,0.00317228,0.0023155,-0.0040303,0.775473,0.00370807,0.039809,1917,981,33.5438,-2.84024
700,43,33.5876,2.823,-0.00104186,-0.000642275,0.00304623,0.00221071,-0.00389485,0.818145,0.00356947,0.0351262,1924,981,33.5876,-2.82298
707,43,33.673,2.80597,-0.00124588,-0.000242627,0.00286538,0.0021647,-0.00365321,0.872052,0.00339542,0.0312512,1931,981,33.6729,-2.80597
714,43,33.7074,2.8056,0,0,0,0,0,0,0,-1,1938,981,33.7074,-2.80561
721,43,32.9449,4.33759,0,0,0,0,0,0,0,-1,1945,981,32.9449,-4.33757
728,43,32.8452,4.55914,-0.00213544,0.00168299,0.00194327,0.002498,-0.00295045,1.17368,0.00314928,0.0213613,1952,981,32.8452,-4.55915
735,43,32.7664,4.7677,-0.00227052,0.00251862,0.00158348,0.00299483,-0.00274673,1.27866,0.00331592,0.0146551,1959,981,32.7664,-4.76771
742,43,32.7926,4.90729,-0.00277046,0.00340208,0.00131691,0.0036713,-0.00303969,1.36914,0.00388031,0.0159975,1966,981,32.7926,-4.9073
749,43,32.7753,5.02808,-0.00346458,0.00485087,0.000963198,0.00496098,-0.0035747,1.45697,0.00494969,0.0171967,1973,981,32.7752,-5.0281
756,43,32.7655,5.1582,-0.00436806,0.00660608,0.000603909,0.00663922,-0.00440119,1.51599,0.00641769,0.017027,1980,981,32.7655,-5.15821
763,43,32.7628,5.30792,-0.00532612,0.00880034,0.000234901,0.00880424,-0.00533002,1.55417,0.00824219,0.0200538,1987,981,32.7629,-5.30791
770,43,32.6848,5.51465,-0.00614333,0.0116565,1.16602e-05,0.0116565,-0.00614334,1.57014,0.0104398,0.0160525,1994,981,32.6849,-5.51464
777,43,32.5938,5.66455,-0.00681509,0.0147311,-0.000177412,0.0147325,-0.00681655,-1.56256,0.0127181,0.020498,2001,981,32.5937,-5.66453
784,43,32.4622,5.85913,-0.00722716,0.0181159,-0.000193548,0.0181174,-0.00722863,-1.56316,0.0150769,0.040569,2008,981,32.4621,-5.85913
791,43,32.3418,6.0459,0,0,0,0,0,0,0,-1,2015,981,32.3418,-6.04588
798,43,30.5012,2.97607,0,0,0,0,0,0,0,-1,2022,981,30.5012,-2.9761
805,43,31.8196,5.84082,0,0,0,0,0,0,0,-1,2029,981,31.8196,-5.8408
812,43,31.7224,6.03149,0,0,0,0,0,0,0,-1,2036,981,31.7225,-6.03146
-700,36,0,0,0,0,0,0,0,0,0,-1,524,988,0,0
-693,36,-25.6686,3.47479,0.0886378,-0.0919298,0.0452442,0.0993402,-0.102632,0.232277,0.116614,0.0462612,531,988,-25.6686,-3.4748
-686,36,-25.4489,3.29871,0.0779468,-0.0706142,0.0385023,0.0873325,-0.0799999,0.239105,0.0966403,0.0466786,538,988,-25.4489,-3.29873
-679,36,-25.2769,3.08386,0.0655979,-0.0525263,0.0317599,0.0735956,-0.0605241,0.24669,0.0775565,0.0465527,545,988,-25.2769,-3.08384
-672,36,-25.024,2.78802,0,0,0,0,0,0,0,-1,552,988,-25.024,-2.78801
-665,36,-24.6693,2.60535,0,0,0,0,0,0,0,-1,559,988,-24.6693,-2.60535
-658,36,-24.2451,2.74335,0.0317088,-0.0144915,0.0148194,0.0360537,-0.0188364,0.285198,0.0322063,0.047568,566,988,-24.2451,-2.74332
-651,36,-23.9232,2.85553,0.0229219,-0.00687289,0.0107451,0.0263927,-0.0103437,0.312431,0.021874,0.0378985,573,988,-23.9232,-2.85552
-644,36,-23.9182,2.73218,0.0157404,-0.0015345,0.0074077,0.0184819,-0.00427595,0.354452,0.0139665,0.0221224,580,988,-23.9182,-2.73216
-637,36,-23.9427,2.646,0.00997537,0.00307532,0.00460302,0.0122778,0.000772912,0.463804,0.0079401,0.017232,587,988,-23.9427,-2.64598
-630,36,-23.9263,2.59113,0.00484053,0.00545839,0.00168425,0.00686181,0.00343711,0.876102,0.00396167,0.01419,594,988,-23.9263,-2.5911
-623,36,-23.9424,2.48999,0.00125066,0.00634478,-0.000793944,0.00646565,0.00112978,-1.41971,0.00398755,0.012353,601,988,-23.9424,-2.48998
-616,36,-23.9548,2.38538,2.75827e-06,0.00599047,-0.00207922,0.00664166,-0.00064843,-1.26728,0.00465898,0.0105114,608,988,-23.9548,-2.3854
-609,36,-23.9492,2.29724,-0.000791894,0.00541748,-0.0030836,0.0066886,-0.00206302,-1.1798,0.00528276,0.0150794,615,988,-23.9492,-2.29723
-602,36,-23.9304,2.18329,-0.00166444,0.00472855,-0.00390567,0.00657902,-0.00351491,-1.12834,0.00591656,0.0184997,622,988,-23.9304,-2.18328
-595,36,-23.9119,2.06427,-0.00227519,0.00364312,-0.00427898,0.00588649,-0.00451856,-1.08792,0.00602464,0.0202661,629,988,-23.9119,-2.0643
-588,36,-23.9261,1.6236,-0.00272602,0.00330443,-0.00448865,0.00569657,-0.00511816,-1.08115,0.00624686,0.0227516,636,988,-23.9261,-1.62362
-581,36,-23.9725,1.0675,-0.00293367,0.00308569,-0.00459612,0.00556987,-0.00541785,-1.07528,0.00634397,0.0247042,643,988,-23.9725,-1.06749
-574,36,-24.0136,0.912354,-0.00305812,0.00274463,-0.00462371,0.00530189,-0.00561538,-1.0656,0.00630395,0.0261913,650,988,-24.0136,-0.912358
-567,36,-24.0261,0.864197,-0.00335696,0.00250972,-0.00416754,0.00467274,-0.00551997,-1.09205,0.00589154,0.0326766,657,988,-24.0261,-0.86417
-560,36,-23.9968,0.856934,-0.00356067,0.00218838,-0.00348899,0.00383447,-0.00520675,-1.12997,0.00523996,0.0406139,664,988,-23.9968,-0.856916
-553,36,-23.9488,0.91217,-0.00356505,0.00169421,-0.00272235,0.00284957,-0.0047204,-1.16944,0.00441479,0.0458172,671,988,-23.9488,-0.912157
-546,36,-23.9131,0.836365,-0.00322704,0.000915914,-0.00201724,0.00173585,-0.00404698,-1.18473,0.00342644,0.0466402,678,988,-23.9131,-0.836365
-539,36,-23.9702,0.916626,-0.00242305,-0.000165397,-0.00173211,0.000773252,-0.0033617,-1.07419,0.00253845,0.0460711,685,988,-23.9702,-0.916631
-532,36,-24.0565,0.98407,-0.0012893,-0.00115698,-0.00266532,0.001443,-0.00388928,-0.797807,0.00318476,0.0481279,692,988,-24.0565,-0.984043
-525,36,-24.3121,0.548096,-0.000609645,-0.00221378,-0.00537696,0.00402473,-0.00684816,-0.71136,0.00634763,0.0479004,699,988,-24.3121,-0.548066
-518,36,0,0,0,0,0,0,0,0,0,-1,706,988,0,0
-511,36,0,0,0,0,0,0,0,0,0,-1,713,988,0,0
-504,36,0,0,0,0,0,0,0,0,0,-1,720,988,0,0
-497,36,0,0,0,0,0,0,0,0,0,-1,727,988,0,0
-490,36,0,0,0,0,0,0,0,0,0,-1,734,988,0,0
-483,36,0,0,0,0,0,0,0,0,0,-1,741,988,0,0
-476,36,0,0,0,0,0,0,0,0,0,-1,748,988,0,0
-469,36,0,0,0,0,0,0,0,0,0,-1,755,988,0,0
-462,36,0,0,0,0,0,0,0,0,0,-1,762,988,0,0
-455,36,0,0,0,0,0,0,0,0,0,-1,769,988,0,0
-448,36,0,0,0,0,0,0,0,0,0,-1,776,988,0,0
-441,36,0,0,0,0,0,0,0,0,0,-1,783,988,0,0
-434,36,0,0,0,0,0,0,0,0,0,-1,790,988,0,0
-427,36,0,0,0,0,0,0,0,0,0,-1,797,988,0,0
-420,36,0,0,0,0,0,0,0,0,0,-1,804,988,0,0
-413,36,0,0,0,0,0,0,0,0,0,-1,811,988,0,0
-406,36,0,0,0,0,0,0,0,0,0,-1,818,988,0,0
-399,36,0,0,0,0,0,0,0,0,0,-1,825,988,0,0
-392,36,0,0,0,0,0,0,0,0,0,-1,832,988,0,0
-385,36,0,0,0,0,0,0,0,0,0,-1,839,988,0,0
-378,36,0,0,0,0,0,0,0,0,0,-1,846,988,0,0
-371,36,0,0,0,0,0,0,0,0,0,-1,853,988,0,0
-364,36,0,0,0,0,0,0,0,0,0,-1,860,988,0,0
-357,36,0,0,0,0,0,0,0,0,0,-1,867,988,0,0
-350,36,0,0,0,0,0,0,0,0,0,-1,874,988,0,0
-343,36,0,0,0,0,0,0,0,0,0,-1,881,988,0,0
-336,36,0,0,0,0,0,0,0,0,0,-1,888,988,0,0
-329,36,0,0,0,0,0,0,0,0,0,-1,895,988,0,0
-322,36,0,0,0,0,0,0,0,0,0,-1,902,988,0,0
-315,36,0,0,0,0,0,0,0,0,0,-1,909,988,0,0
-308,36,0,0,0,0,0,0,0,0,0,-1,916,988,0,0
-301,36,0,0,0,0,0,0,0,0,0,-1,923,988,0,0
-294,36,0,0,0,0,0,0,0,0,0,-1,930,988,0,0
-287,36,0,0,0,0,0,0,0,0,0,-1,937,988,0,0
-280,36,0,0,0,0,0,0,0,0,0,-1,944,988,0,0
-273,36,0,0,0,0,0,0,0,0,0,-1,951,988,0,0
-266,36,0,0,0,0,0,0,0,0,0,-1,958,988,0,0
-259,36,0,0,0,0,0,0,0,0,0,-1,965,988,0,0
-252,36,0,0,0,0,0,0,0,0,0,-1,972,988,0,0
-245,36,0,0,0,0,0,0,0,0,0,-1,979,988,0,0
-238,36,0,0,0,0,0,0,0,0,0,-1,986,988,0,0
-231,36,0,0,0,0,0,0,0,0,0,-1,993,988,0,0
-224,36,0,0,0,0,0,0,0,0,0,-1,1000,988,0,0
-217,36,0,0,0,0,0,0,0,0,0,-1,1007,988,0,0
-210,36,0,0,0,0,0,0,0,0,0,-1,1014,988,0,0
-203,36,0,0,0,0,0,0,0,0,0,-1,1021,988,0,0
-196,36,0,0,0,0,0,0,0,0,0,-1,1028,988,0,0
-189,36,0,0,0,0,0,0,0,0,0,-1,1035,988,0,0
-182,36,0,0,0,0,0,0,0,0,0,-1,1042,988,0,0
-175,36,0,0,0,0,0,0,0,0,0,-1,1049,988,0,0
-168,36,0,0,0,0,0,0,0,0,0,-1,1056,988,0,0
-161,36,0,0,0,0,0,0,0,0,0,-1,1063,988,0,0
-154,36,0,0,0,0,0,0,0,0,0,-1,1070,988,0,0
-147,36,0,0,0,0,0,0,0,0,0,-1,1077,988,0,0
-140,36,0,0,0,0,0,0,0,0,0,-1,1084,988,0,0
-133,36,0,0,0,0,0,0,0,0,0,-1,1091,988,0,0
-126,36,0,0,0,0,0,0,0,0,0,-1,1098,988,0,0
-119,36,0,0,0,0,0,0,0,0,0,-1,1105,988,0,0
-112,36,0,0,0,0,0,0,0,0,0,-1,1112,988,0,0
-105,36,0,0,0,0,0,0,0,0,0,-1,1119,988,0,0
-98,36,0,0,0,0,0,0,0,0,0,-1,1126,988,0,0
-91,36,0,0,0,0,0,0,0,0,0,-1,1133,988,0,0
-84,36,0,0,0,0,0,0,0,0,0,-1,1140,988,0,0
-77,36,0,0,0,0,0,0,0,0,0,-1,1147,988,0,0
-70,36,0,0,0,0,0,0,0,0,0,-1,1154,988,0,0
-63,36,0,0,0,0,0,0,0,0,0,-1,1161,988,0,0
-56,36,0,0,0,0,0,0,0,0,0,-1,1168,988,0,0
-49,36,0,0,0,0,0,0,0,0,0,-1,1175,988,0,0
-42,36,0,0,0,0,0,0,0,0,0,-1,1182,988,0,0
-35,36,0,0,0,0,0,0,0,0,0,-1,1189,988,0,0
-28,36,0,0,0,0,0,0,0,0,0,-1,1196,988,0,0
-21,36,0,0,0,0,0,0,0,0,0,-1,1203,988,0,0
-14,36,0,0,0,0,0,0,0,0,0,-1,1210,988,0,0
-7,36,0,0,0,0,0,0,0,0,0,-1,1217,988,0,0
0,36,0,0,0,0,0,0,0,0,0,-1,1224,988,0,0
7,36,0,0,0,0,0,0,0,0,0,-1,1231,988,0,0
14,36,0,0,0,0,0,0,0,0,0,-1,1238,988,0,0
21,36,0,0,0,0,0,0,0,0,0,-1,1245,988,0,0
28,36,0,0,0,0,0,0,0,0,0,-1,1252,988,0,0
35,36,0,0,0,0,0,0,0,0,0,-1,1259,988,0,0
42,36,0,0,0,0,0,0,0,0,0,-1,1266,988,0,0
49,36,0,0,0,0,0,0,0,0,0,-1,1273,988,0,0
56,36,0,0,0,0,0,0,0,0,0,-1,1280,988,0,0
63,36,0,0,0,0,0,0,0,0,0,-1,1287,988,0,0
70,36,0,0,0,0,0,0,0,0,0,-1,1294,988,0,0
77,36,0,0,0,0,0,0,0,0,0,-1,1301,988,0,0
84,36,0,0,0,0,0,0,0,0,0,-1,1308,988,0,0
91,36,0,0,0,0,0,0,0,0,0,-1,1315,988,0,0
98,36,0,0,0,0,0,0,0,0,0,-1,1322,988,0,0
105,36,0,0,0,0,0,0,0,0,0,-1,1329,988,0,0
112,36,0,0,0,0,0,0,0,0,0,-1,1336,988,0,0
119,36,0,0,0,0,0,0,0,0,0,-1,1343,988,0,0
126,36,0,0,0,0,0,0,0,0,0,-1,1350,988,0,0
133,36,0,0,0,0,0,0,0,0,0,-1,1357,988,0,0
140,36,0,0,0,0,0,0,0,0,0,-1,1364,988,0,0
147,36,0,0,0,0,0,0,0,0,0,-1,1371,988,0,0
154,36,0,0,0,0,0,0,0,0,0,-1,1378,988,0,0
161,36,0,0,0,0,0,0,0,0,0,-1,1385,988,0,0
168,36,0,0,0,0,0,0,0,0,0,-1,1392,988,0,0
175,36,0,0,0,0,0,0,0,0,0,-1,1399,988,0,0
182,36,0,0,0,0,0,0,0,0,0,-1,1406,988,0,0
189,36,0,0,0,0,0,0,0,0,0,-1,1413,988,0,0
196,36,0,0,0,0,0,0,0,0,0,-1,1420,988,0,0
203,36,0,0,0,0,0,0,0,0,0,-1,1427,988,0,0
210,36,0,0,0,0,0,0,0,0,0,-1,1434,988,0,0
217,36,0,0,0,0,0,0,0,0,0,-1,1441,988,0,0
224,36,0,0,0,0,0,0,0,0,0,-1,1448,988,0,0
231,36,0,0,0,0,0,0,0,0,0,-1,1455,988,0,0
238,36,0,0,0,0,0,0,0,0,0,-1,1462,988,0,0
245,36,0,0,0,0,0,0,0,0,0,-1,1469,988,0,0
252,36,0,0,0,0,0,0,0,0,0,-1,1476,988,0,0
259,36,0,0,0,0,0,0,0,0,0,-1,1483,988,0,0
266,36,0,0,0,0,0,0,0,0,0,-1,1490,988,0,0
273,36,0,0,0,0,0,0,0,0,0,-1,1497,988,0,0
280,36,0,0,0,0,0,0,0,0,0,-1,1504,988,0,0
287,36,0,0,0,0,0,0,0,0,0,-1,1511,988,0,0
294,36,0,0,0,0,0,0,0,0,0,-1,1518,988,0,0
301,36,0,0,0,0,0,0,0,0,0,-1,1525,988,0,0
308,36,0,0,0,0,0,0,0,0,0,-1,1532,988,0,0
315,36,0,0,0,0,0,0,0,0,0,-1,1539,988,0,0
322,36,0,0,0,0,0,0,0,0,0,-1,1546,988,0,0
329,36,0,0,0,0,0,0,0,0,0,-1,1553,988,0,0
336,36,0,0,0,0,0,0,0,0,0,-1,1560,988,0,0
343,36,0,0,0,0,0,0,0,0,0,-1,1567,988,0,0
350,36,0,0,0,0,0,0,0,0,0,-1,1574,988,0,0
357,36,0,0,0,0,0,0,0,0,0,-1,1581,988,0,0
364,36,0,0,0,0,0,0,0,0,0,-1,1588,988,0,0
371,36,0,0,0,0,0,0,0,0,0,-1,1595,988,0,0
378,36,0,0,0,0,0,0,0,0,0,-1,1602,988,0,0
385,36,0,0,0,0,0,0,0,0,0,-1,1609,988,0,0
392,36,0,0,0,0,0,0,0,0,0,-1,1616,988,0,0
399,36,0,0,0,0,0,0,0,0,0,-1,1623,988,0,0
406,36,0,0,0,0,0,0,0,0,0,-1,1630,988,0,0
413,36,0,0,0,0,0,0,0,0,0,-1,1637,988,0,0
420,36,0,0,0,0,0,0,0,0,0,-1,1644,988,0,0
427,36,0,0,0,0,0,0,0,0,0,-1,1651,988,0,0
434,36,0,0,0,0,0,0,0,0,0,-1,1658,988,0,0
441,36,0,0,0,0,0,0,0,0,0,-1,1665,988,0,0
448,36,0,0,0,0,0,0,0,0,0,-1,1672,988,0,0
455,36,0,0,0,0,0,0,0,0,0,-1,1679,988,0,0
462,36,0,0,0,0,0,0,0,0,0,-1,1686,988,0,0
469,36,0,0,0,0,0,0,0,0,0,-1,1693,988,0,0
476,36,0,0,0,0,0,0,0,0,0,-1,1700,988,0,0
483,36,0,0,0,0,0,0,0,0,0,-1,1707,988,0,0
490,36,0,0,0,0,0,0,0,0,0,-1,1714,988,0,0
497,36,0,0,0,0,0,0,0,0,0,-1,1721,988,0,0
504,36,0,0,0,0,0,0,0,0,0,-1,1728,988,0,0
511,36,0,0,0,0,0,0,0,0,0,-1,1735,988,0,0
518,36,0,0,0,0,0,0,0,0,0,-1,1742,988,0,0
525,36,0,0,0,0,0,0,0,0,0,-1,1749,988,0,0
532,36,0,0,0,0,0,0,0,0,0,-1,1756,988,0,0
539,36,0,0,0,0,0,0,0,0,0,-1,1763,988,0,0
546,36,0,0,0,0,0,0,0,0,0,-1,1770,988,0,0
553,36,0,0,0,0,0,0,0,0,0,-1,1777,988,0,0
560,36,0,0,0,0,0,0,0,0,0,-1,1784,988,0,0
567,36,0,0,0,0,0,0,0,0,0,-1,1791,988,0,0
574,36,0,0,0,0,0,0,0,0,0,-1,1798,988,0,0
581,36,0,0,0,0,0,0,0,0,0,-1,1805,988,0,0
588,36,0,0,0,0,0,0,0,0,0,-1,1812,988,0,0
595,36,0,0,0,0,0,0,0,0,0,-1,1819,988,0,0
602,36,0,0,0,0,0,0,0,0,0,-1,1826,988,0,0
609,36,0,0,0,0,0,0,0,0,0,-1,1833,988,0,0
616,36,0,0,0,0,0,0,0,0,0,-1,1840,988,0,0
623,36,0,0,0,0,0,0,0,0,0,-1,1847,988,0,0
630,36,0,0,0,0,0,0,0,0,0,-1,1854,988,0,0
637,36,0,0,0,0,0,0,0,0,0,-1,1861,988,0,0
644,36,33.5972,2.71057,0.00751533,0.000989809,-0.000522549,0.00755691,0.000948229,-0.0794034,0.00475349,0.0431703,1868,988,33.5972,-2.71057
651,36,33.5406,2.73962,0.00525681,-0.000454027,0.000558278,0.00531087,-0.000508091,0.09654,0.00372152,0.0419158,1875,988,33.5406,-2.73964
658,36,33.6753,2.66211,0.00347402,-0.00123929,0.00128026,0.00379932,-0.00156459,0.248825,0.00318518,0.0380711,1882,988,33.6753,-2.66211
665,36,33.8156,2.61304,0.0020948,-0.00151087,0.00185403,0.00287802,-0.00229408,0.399699,0.00299245,0.038625,1889,988,33.8156,-2.61306
672,36,33.8528,2.61938,0.000950513,-0.00141734,0.0023708,0.00241656,-0.00288339,0.553823,0.00306388,0.0412972,1896,988,33.8528,-2.61941
679,36,33.7683,2.64996,8.84726e-05,-0.0011018,0.00287443,0.00242873,-0.00344205,0.683318,0.00340629,0.0413934,1903,988,33.7683,-2.64994
686,36,33.5857,2.8252,-0.000387449,-0.000808246,0.00320519,0.00261424,-0.00380994,0.752624,0.00373036,0.0377726,1910,988,33.5857,-2.82518
693,36,33.5728,2.82452,-0.000654017,-0.000567908,0.0033482,0.00273751,-0.00395944,0.791827,0.00388788,0.0390323,1917,988,33.5727,-2.82453
700,36,33.5831,2.86182,-0.000884918,-0.000260416,0.00328864,0.00273077,-0.0038761,0.83273,0.00383353,0.0359057,1924,988,33.5831,-2.86179
707,36,33.641,2.81073,-0.00110239,0.000156439,0.00320612,0.00279434,-0.0037403,0.882324,0.00378593,0.0269142,1931,988,33.641,-2.81075
714,36,33.6799,3.09985,-0.00142688,0.000573541,0.00309055,0.0028217,-0.00367504,0.941896,0.00376167,0.0365902,1938,988,33.6799,-3.09988
721,36,33.2457,4.37415,0,0,0,0,0,0,0,-1,1945,988,33.2458,-4.37414
728,36,33.0608,4.59723,-0.00217753,0.00204371,0.00238602,0.00311866,-0.00325247,1.14751,0.00367865,0.0223319,1952,988,33.0608,-4.59723
735,36,32.915,4.79858,-0.0024179,0.00283754,0.00199118,0.00350675,-0.0030871,1.24657,0.00380953,0.017865,1959,988,32.915,-4.79861
742,36,32.9117,4.90558,-0.00303832,0.00365829,0.00168705,0.00405929,-0.00343932,1.33743,0.00433425,0.0149712,1966,988,32.9118,-4.90557
749,36,32.9253,5.04071,-0.00391052,0.00497589,0.00125216,0.00514896,-0.00408359,1.43345,0.00534223,0.0161996,1973,988,32.9253,-5.04068
756,36,32.9163,5.15735,-0.00502873,0.00651955,0.0007108,0.00656314,-0.00507232,1.50955,0.00673609,0.0145709,1980,988,32.9163,-5.15737
763,36,32.868,5.27722,-0.00632118,0.00832346,4.39244e-05,0.00832359,-0.00632131,1.5678,0.00848154,0.0165164,1987,988,32.868,-5.27725
770,36,32.7858,5.4389,-0.00762634,0.0107309,-0.000533157,0.0107464,-0.00764181,-1.54179,0.0106667,0.0142717,1994,988,32.7858,-5.43891
777,36,32.744,5.63971,-0.0088596,0.0132981,-0.00106017,0.0133487,-0.00891021,-1.52309,0.0129361,0.0230801,2001,988,32.744,-5.6397
784,36,32.3867,5.4472,-0.00997213,0.0158272,-0.00150738,0.015915,-0.0100599,-1.51263,0.0151231,0.0425785,2008,988,32.3867,-5.44718
791,36,31.7211,4.92004,0,0,0,0,0,0,0,-1,2015,988,31.721,-4.92003
798,36,31.3733,4.25311,0,0,0,0,0,0,0,-1,2022,988,31.3733,-4.25308
805,36,31.1072,3.58014,0,0,0,0,0,0,0,-1,2029,988,31.1071,-3.58013
812,36,30.8352,6.55548,0,0,0,0,0,0,0,-1,2036,988,30.8352,-6.55547
-700,29,0,0,0,0,0,0,0,0,0,-1,524,995,0,0
-693,29,-26.5469,3.91309,0,0,0,0,0,0,0,-1,531,995,-26.5469,-3.91308
-686,29,-26.0256,3.69495,0,0,0,0,0,0,0,-1,538,995,-26.0256,-3.69498
-679,29,-25.9271,3.48529,0,0,0,0,0,0,0,-1,545,995,-25.9271,-3.48532
-672,29,-25.6454,3.17023,0,0,0,0,0,0,0,-1,552,995,-25.6455,-3.17024
-665,29,-24.5247,2.75336,0,0,0,0,0,0,0,-1,559,995,-24.5247,-2.75339
-658,29,-23.363,1.38483,0,0,0,0,0,0,0,-1,566,995,-23.363,-1.38481
-651,29,-23.663,1.90924,0.0231111,-0.00754983,0.0100723,0.0261239,-0.0105626,0.290644,0.0218068,0.0411443,573,995,-23.6631,-1.90923
-644,29,-23.9548,2.36139,0.0161198,-0.00228114,0.00705233,0.0185117,-0.00467308,0.326995,0.0141583,0.0246487,580,995,-23.9548,-2.36138
-637,29,-24.0204,2.5329,0.0104531,0.00221068,0.00440607,0.012365,0.000298829,0.409395,0.00814553,0.0164993,587,995,-24.0204,-2.53287
-630,29,-24.0438,2.53333,0.00554681,0.0045944,0.00167255,0.00680963,0.00333158,0.64671,0.00393184,0.0126261,594,995,-24.0438,-2.5333
-623,29,-24.0524,2.47839,0.00211194,0.00562261,-0.000657843,0.00574183,0.00199271,-1.39151,0.00336635,0.0112937,601,995,-24.0525,-2.47837
-616,29,-24.0756,2.39484,0.000723061,0.00551554,-0.00202449,0.00625626,-1.76579e-05,-1.22005,0.00417674,0.0133666,608,995,-24.0756,-2.39481
-609,29,-24.0684,2.29419,-0.000193545,0.00507444,-0.00308647,0.00649806,-0.00161717,-1.13863,0.00495977,0.0211704,615,995,-24.0684,-2.29419
-602,29,-24.0305,2.20575,-0.00109206,0.00446031,-0.00394602,0.00650888,-0.00314063,-1.09195,0.00568316,0.0226503,622,995,-24.0305,-2.20574
-595,29,-23.9855,2.10358,-0.00162285,0.00335035,-0.00439426,0.00591278,-0.00418528,-1.04287,0.00585849,0.0205337,629,995,-23.9856,-2.10358
-588,29,-23.9549,1.62885,-0.00196082,0.00294977,-0.0046183,0.00572488,-0.00473594,-1.02972,0.00604855,0.0276136,636,995,-23.9549,-1.62882
-581,29,-23.9545,1.14954,-0.00212731,0.00266577,-0.00467556,0.00552321,-0.00498475,-1.02222,0.00606943,0.0379176,643,995,-23.9545,-1.14953
-574,29,-23.9807,0.913086,-0.00234127,0.00224356,-0.00462121,0.0051097,-0.00520741,-1.01565,0.00595668,0.0312682,650,995,-23.9807,-0.913076
-567,29,-23.9722,0.838745,-0.00277705,0.00193624,-0.00408163,0.00429272,-0.00513353,-1.04721,0.00544946,0.0308315,657,995,-23.9723,-0.838769
-560,29,-24.0301,0.863525,-0.00318521,0.00154979,-0.0032896,0.00323526,-0.00487068,-1.09731,0.00471161,0.0371003,664,995,-24.0301,-0.863516
-553,29,-24.0543,1.03979,-0.00347571,0.00100014,-0.00238282,0.00203118,-0.00450675,-1.16242,0.00386382,0.0438552,671,995,-24.0543,-1.03982
-546,29,-24.0798,0.935974,-0.00349147,0.000173142,-0.00151378,0.000717571,-0.0040359,-1.22555,0.00295894,0.0434486,678,995,-24.0799,-0.935953
-539,29,-24.0212,0.705933,-0.00308178,-0.000888892,-0.00110369,-0.000429595,-0.00354108,-1.17645,0.00223135,0.0425113,685,995,-24.0212,-0.705943
-532,29,-23.9957,0.926208,-0.00237573,-0.00175072,-0.00197612,-6.25423e-05,-0.00406391,-0.86382,0.00268867,0.0469213,692,995,-23.9958,-0.926238
-525,29,-23.9852,1.0896,-0.00197401,-0.00271001,-0.00456048,0.00223329,-0.00691732,-0.745139,0.005509,0.0462532,699,995,-23.9852,-1.08958
-518,29,0,0,0,0,0,0,0,0,0,-1,706,995,0,0
-511,29,0,0,0,0,0,0,0,0,0,-1,713,995,0,0
-504,29,0,0,0,0,0,0,0,0,0,-1,720,995,0,0
-497,29,0,0,0,0,0,0,0,0,0,-1,727,995,0,0
-490,29,0,0,0,0,0,0,0,0,0,-1,734,995,0,0
-483,29,0,0,0,0,0,0,0,0,0,-1,741,995,0,0
-476,29,0,0,0,0,0,0,0,0,0,-1,748,995,0,0
-469,29,0,0,0,0,0,0,0,0,0,-1,755,995,0,0
-462,29,0,0,0,0,0,0,0,0,0,-1,762,995,0,0
-455,29,0,0,0,0,0,0,0,0,0,-1,769,995,0,0
-448,29,0,0,0,0,0,0,0,0,0,-1,776,995,0,0
-441,29,0,0,0,0,0,0,0,0,0,-1,783,995,0,0
-434,29,0,0,0,0,0,0,0,0,0,-1,790,995,0,0
-427,29,0,0,0,0,0,0,0,0,0,-1,797,995,0,0
-420,29,0,0,0,0,0,0,0,0,0,-1,804,995,0,0
-413,29,0,0,0,0,0,0,0,0,0,-1,811,995,0,0
-406,29,0,0,0,0,0,0,0,0,0,-1,818,995,0,0
-399,29,0,0,0,0,0,0,0,0,0,-1,825,995,0,0
-392,29,0,0,0,0,0,0,0,0,0,-1,832,995,0,0
-385,29,0,0,0,0,0,0,0,0,0,-1,839,995,0,0
-378,29,0,0,0,0,0,0,0,0,0,-1,846,995,0,0
-371,29,0,0,0,0,0,0,0,0,0,-1,853,995,0,0
-364,29,0,0,0,0,0,0,0,0,0,-1,860,995,0,0
-357,29,0,0,0,0,0,0,0,0,0,-1,867,995,0,0
-350,29,0,0,0,0,0,0,0,0,0,-1,874,995,0,0
-343,29,0,0,0,0,0,0,0,0,0,-1,881,995,0,0
-336,29,0,0,0,0,0,0,0,0,0,-1,888,995,0,0
-329,29,0,0,0,0,0,0,0,0,0,-1,895,995,0,0
-322,29,0,0,0,0,0,0,0,0,0,-1,902,995,0,0
-315,29,0,0,0,0,0,0,0,0,0,-1,909,995,0,0
-308,29,0,0,0,0,0,0,0,0,0,-1,916,995,0,0
-301,29,0,0,0,0,0,0,0,0,0,-1,923,995,0,0
-294,29,0,0,0,0,0,0,0,0,0,-1,930,995,0,0
-287,29,0,0,0,0,0,0,0,0,0,-1,937,995,0,0
-280,29,0,0,0,0,0,0,0,0,0,-1,944,995,0,0
-273,29,0,0,0,0,0,0,0,0,0,-1,951,995,0,0
-266,29,0,0,0,0,0,0,0,0,0,-1,958,995,0,0
-259,29,0,0,0,0,0,0,0,0,0,-1,965,995,0,0
-252,29,0,0,0,0,0,0,0,0,0,-1,972,995,0,0
-245,29,0,0,0,0,0,0,0,0,0,-1,979,995,0,0
-238,29,0,0,0,0,0,0,0,0,0,-1,986,995,0,0
-231,29,0,0,0,0,0,0,0,0,0,-1,993,995,0,0
-224,29,0,0,0,0,0,0,0,0,0,-1,1000,995,0,0
-217,29,0,0,0,0,0,0,0,0,0,-1,1007,995,0,0
-210,29,0,0,0,0,0,0,0,0,0,-1,1014,995,0,0
-203,29,0,0,0,0,0,0,0,0,0,-1,1021,995,0,0
-196,29,0,0,0,0,0,0,0,0,0,-1,1028,995,0,0
-189,29,0,0,0,0,0,0,0,0,0,-1,1035,995,0,0
-182,29,0,0,0,0,0,0,0,0,0,-1,1042,995,0,0
-175,29,0,0,0,0,0,0,0,0,0,-1,1049,995,0,0
-168,29,0,0,0,0,0,0,0,0,0,-1,1056,995,0,0
-161,29,0,0,0,0,0,0,0,0,0,-1,1063,995,0,0
-154,29,0,0,0,0,0,0,0,0,0,-1,1070,995,0,0
-147,29,0,0,0,0,0,0,0,0,0,-1,1077,995,0,0
-140,29,0,0,0,0,0,0,0,0,0,-1,1084,995,0,0
-133,29,0,0,0,0,0,0,0,0,0,-1,1091,995,0,0
-126,29,0,0,0,0,0,0,0,0,0,-1,1098,995,0,0
-119,29,0,0,0,0,0,0,0,0,0,-1,1105,995,0,0
-112,29,0,0,0,0,0,0,0,0,0,-1,1112,995,0,0
-105,29,0,0,0,0,0,0,0,0,0,-1,1119,995,0,0
-98,29,0,0,0,0,0,0,0,0,0,-1,1126,995,0,0
-91,29,0,0,0,0,0,0,0,0,0,-1,1133,995,0,0
-84,29,0,0,0,0,0,0,0,0,0,-1,1140,995,0,0
-77,29,0,0,0,0,0,0,0,0,0,-1,1147,995,0,0
-70,29,0,0,0,0,0,0,0,0,0,-1,1154,995,0,0
-63,29,0,0,0,0,0,0,0,0,0,-1,1161,995,0,0
-56,29,0,0,0,0,0,0,0,0,0,-1,1168,995,0,0
-49,29,0,0,0,0,0,0,0,0,0,-1,1175,995,0,0
-42,29,0,0,0,0,0,0,0,0,0,-1,1182,995,0,0
-35,29,0,0,0,0,0,0,0,0,0,-1,1189,995,0,0
-28,29,0,0,0,0,0,0,0,0,0,-1,1196,995,0,0
-21,29,0,0,0,0,0,0,0,0,0,-1,1203,995,0,0
-14,29,0,0,0,0,0,0,0,0,0,-1,1210,995,0,0
-7,29,0,0,0,0,0,0,0,0,0,-1,1217,995,0,0
0,29,0,0,0,0,0,0,0,0,0,-1,1224,995,0,0
7,29,0,0,0,0,0,0,0,0,0,-1,1231,995,0,0
14,29,0,0,0,0,0,0,0,0,0,-1,1238,995,0,0
21,29,0,0,0,0,0,0,0,0,0,-1,1245,995,0,0
28,29,0,0,0,0,0,0,0,0,0,-1,1252,995,0,0
35,29,0,0,0,0,0,0,0,0,0,-1,1259,995,0,0
42,29,0,0,0,0,0,0,0,0,0,-1,1266,995,0,0
49,29,0,0,0,0,0,0,0,0,0,-1,1273,995,0,0
56,29,0,0,0,0,0,0,0,0,0,-1,1280,995,0,0
63,29,0,0,0,0,0,0,0,0,0,-1,1287,995,0,0
70,29,0,0,0,0,0,0,0,0,0,-1,1294,995,0,0
77,29,0,0,0,0,0,0,0,0,0,-1,1301,995,0,0
84,29,0,0,0,0,0,0,0,0,0,-1,1308,995,0,0
91,29,0,0,0,0,0,0,0,0,0,-1,1315,995,0,0
98,29,0,0,0,0,0,0,0,0,0,-1,1322,995,0,0
105,29,0,0,0,0,0,0,0,0,0,-1,1329,995,0,0
112,29,0,0,0,0,0,0,0,0,0,-1,1336,995,0,0
119,29,0,0,0,0,0,0,0,0,0,-1,1343,995,0,0
126,29,0,0,0,0,0,0,0,0,0,-1,1350,995,0,0
133,29,0,0,0,0,0,0,0,0,0,-1,1357,995,0,0
140,29,0,0,0,0,0,0,0,0,0,-1,1364,995,0,0
147,29,0,0,0,0,0,0,0,0,0,-1,1371,995,0,0
154,29,0,0,0,0,0,0,0,0,0,-1,1378,995,0,0
161,29,0,0,0,0,0,0,0,0,0,-1,1385,995,0,0
168,29,0,0,0,0,0,0,0,0,0,-1,1392,995,0,0
175,29,0,0,0,0,0,0,0,0,0,-1,1399,995,0,0
182,29,0,0,0,0,0,0,0,0,0,-1,1406,995,0,0
189,29,0,0,0,0,0,0,0,0,0,-1,1413,995,0,0
196,29,0,0,0,0,0,0,0,0,0,-1,1420,995,0,0
203,29,0,0,0,0,0,0,0,0,0,-1,1427,995,0,0
210,29,0,0,0,0,0,0,0,0,0,-1,1434,995,0,0
217,29,0,0,0,0,0,0,0,0,0,-1,1441,995,0,0
224,29,0,0,0,0,0,0,0,0,0,-1,1448,995,0,0
231,29,0,0,0,0,0,0,0,0,0,-1,1455,995,0,0
238,29,0,0,0,0,0,0,0,0,0,-1,1462,995,0,0
245,29,0,0,0,0,0,0,0,0,0,-1,1469,995,0,0
252,29,0,0,0,0,0,0,0,0,0,-1,1476,995,0,0
259,29,0,0,0,0,0,0,0,0,0,-1,1483,995,0,0
266,29,0,0,0,0,0,0,0,0,0,-1,1490,995,0,0
273,29,0,0,0,0,0,0,0,0,0,-1,1497,995,0,0
280,29,0,0,0,0,0,0,0,0,0,-1,1504,995,0,0
287,29,0,0,0,0,0,0,0,0,0,-1,1511,995,0,0
294,29,0,0,0,0,0,0,0,0,0,-1,1518,995,0,0
301,29,0,0,0,0,0,0,0,0,0,-1,1525,995,0,0
308,29,0,0,0,0,0,0,0,0,0,-1,1532,995,0,0
315,29,0,0,0,0,0,0,0,0,0,-1,1539,995,0,0
322,29,0,0,0,0,0,0,0,0,0,-1,1546,995,0,0
329,29,0,0,0,0,0,0,0,0,0,-1,1553,995,0,0
336,29,0,0,0,0,0,0,0,0,0,-1,1560,995,0,0
343,29,0,0,0,0,0,0,0,0,0,-1,1567,995,0,0
350,29,0,0,0,0,0,0,0,0,0,-1,1574,995,0,0
357,29,0,0,0,0,0,0,0,0,0,-1,1581,995,0,0
364,29,0,0,0,0,0,0,0,0,0,-1,1588,995,0,0
371,29,0,0,0,0,0,0,0,0,0,-1,1595,995,0,0
378,29,0,0,0,0,0,0,0,0,0,-1,1602,995,0,0
385,29,0,0,0,0,0,0,0,0,0,-1,1609,995,0,0
392,29,0,0,0,0,0,0,0,0,0,-1,1616,995,0,0
399,29,0,0,0,0,0,0,0,0,0,-1,1623,995,0,0
406,29,0,0,0,0,0,0,0,0,0,-1,1630,995,0,0
413,29,0,0,0,0,0,0,0,0,0,-1,1637,995,0,0
420,29,0,0,0,0,0,0,0,0,0,-1,1644,995,0,0
427,29,0,0,0,0,0,0,0,0,0,-1,1651,995,0,0
434,29,0,0,0,0,0,0,0,0,0,-1,1658,995,0,0
441,29,0,0,0,0,0,0,0,0,0,-1,1665,995,0,0
448,29,0,0,0,0,0,0,0,0,0,-1,1672,995,0,0
455,29,0,0,0,0,0,0,0,0,0,-1,1679,995,0,0
462,29,0,0,0,0,0,0,0,0,0,-1,1686,995,0,0
469,29,0,0,0,0,0,0,0,0,0,-1,1693,995,0,0
476,29,0,0,0,0,0,0,0,0,0,-1,1700,995,0,0
483,29,0,0,0,0,0,0,0,0,0,-1,1707,995,0,0
490,29,0,0,0,0,0,0,0,0,0,-1,1714,995,0,0
497,29,0,0,0,0,0,0,0,0,0,-1,1721,995,0,0
504,29,0,0,0,0,0,0,0,0,0,-1,1728,995,0,0
511,29,0,0,0,0,0,0,0,0,0,-1,1735,995,0,0
518,29,0,0,0,0,0,0,0,0,0,-1,1742,995,0,0
525,29,0,0,0,0,0,0,0,0,0,-1,1749,995,0,0
532,29,0,0,0,0,0,0,0,0,0,-1,1756,995,0,0
539,29,0,0,0,0,0,0,0,0,0,-1,1763,995,0,0
546,29,0,0,0,0,0,0,0,0,0,-1,1770,995,0,0
553,29,0,0,0,0,0,0,0,0,0,-1,1777,995,0,0
560,29,0,0,0,0,0,0,0,0,0,-1,1784,995,0,0
567,29,0,0,0,0,0,0,0,0,0,-1,1791,995,0,0
574,29,0,0,0,0,0,0,0,0,0,-1,1798,995,0,0
581,29,0,0,0,0,0,0,0,0,0,-1,1805,995,0,0
588,29,0,0,0,0,0,0,0,0,0,-1,1812,995,0,0
595,29,0,0,0,0,0,0,0,0,0,-1,1819,995,0,0
602,29,0,0,0,0,0,0,0,0,0,-1,1826,995,0,0
609,29,0,0,0,0,0,0,0,0,0,-1,1833,995,0,0
616,29,0,0,0,0,0,0,0,0,0,-1,1840,995,0,0
623,29,0,0,0,0,0,0,0,0,0,-1,1847,995,0,0
630,29,0,0,0,0,0,0,0,0,0,-1,1854,995,0,0
637,29,0,0,0,0,0,0,0,0,0,-1,1861,995,0,0
644,29,33.7258,2.76624,0.00671965,0.000603945,-0.00040659,0.00674656,0.000577032,-0.0660952,0.00431824,0.0430468,1868,995,33.7258,-2.76621
651,29,33.5432,2.83582,0.00481239,-0.000643752,0.000490296,0.00485609,-0.000687461,0.0889122,0.0034892,0.0431723,1875,995,33.5432,-2.83579
658,29,33.6206,2.72064,0.00325507,-0.00130988,0.00109461,0.00350397,-0.00155878,0.223586,0.00299403,0.0418253,1882,995,33.6205,-2.72067
665,29,33.8259,2.67999,0.00204205,-0.00150532,0.00158649,0.00264805,-0.00211132,0.364873,0.00275365,0.0413823,1889,995,33.8259,-2.67998
672,29,33.8452,2.73706,0.00103009,-0.00132038,0.00208153,0.00224525,-0.00253553,0.528407,0.00276188,0.0408317,1896,995,33.8452,-2.73707
679,29,33.6868,2.70813,0.000236358,-0.000916342,0.00262466,0.0023472,-0.00302719,0.677318,0.00311117,0.0399745,1903,995,33.6868,-2.70816
686,29,33.5765,2.92297,-0.000226525,-0.000558483,0.00303758,0.00264961,-0.00343461,0.758104,0.00352246,0.0374907,1910,995,33.5766,-2.92297
693,29,33.5625,3.02936,-0.000494288,-0.000252715,0.00327031,0.00289904,-0.00364604,0.803857,0.003787,0.0370362,1917,995,33.5625,-3.02934
700,29,33.5966,2.98328,-0.000717704,6.75287e-05,0.00328913,0.00298739,-0.00363757,0.844801,0.00383106,0.0332429,1924,995,33.5966,-2.9833
707,29,33.588,2.87451,-0.000936162,0.000492312,0.00331838,0.00317245,-0.0036163,0.891399,0.00392227,0.0237118,1931,995,33.588,-2.87449
714,29,33.6449,3.12445,-0.00127673,0.000908189,0.00330093,0.00329274,-0.00366128,0.945202,0.00401678,0.0344321,1938,995,33.6448,-3.12445
721,29,33.3225,4.35834,0,0,0,0,0,0,0,-1,1945,995,33.3226,-4.35836
728,29,33.1494,4.6366,-0.0021656,0.00229765,0.00266371,0.00354101,-0.00340896,1.13408,0.00401281,0.0246767,1952,995,33.1494,-4.63659
735,29,33.0454,4.85571,-0.00249518,0.00302306,0.00227336,0.00383898,-0.0033111,1.22621,0.00413185,0.0145223,1959,995,33.0454,-4.85573
742,29,33.048,4.93011,-0.00320039,0.00376853,0.00195023,0.00427717,-0.00370904,1.31567,0.00461473,0.0126372,1966,995,33.048,-4.93014
749,29,33.0366,5.03198,-0.00419491,0.00491799,0.00144627,0.00514201,-0.00441893,1.41712,0.00552527,0.0133309,1973,995,33.0366,-5.03199
756,29,33.0229,5.17303,-0.0054418,0.00622442,0.00074049,0.00627124,-0.00548861,1.50766,0.00679456,0.0123764,1980,995,33.023,-5.17305
763,29,32.998,5.25806,-0.0069298,0.00764358,-0.000212796,0.00764668,-0.0069329,-1.5562,0.00842089,0.0109898,1987,995,32.998,-5.25804
770,29,32.9365,5.33081,-0.00855155,0.00956037,-0.00117075,0.00963573,-0.00862692,-1.50651,0.0105493,0.0142798,1994,995,32.9366,-5.33081
777,29,32.8834,5.51263,-0.0101687,0.0116257,-0.00213208,0.0118324,-0.0103754,-1.47419,0.0128308,0.0249131,2001,995,32.8834,-5.51262
784,29,32.8842,5.61664,-0.0117463,0.0134328,-0.00314693,0.0138201,-0.0121337,-1.44832,0.0149949,0.0448511,2008,995,32.8842,-5.61664
791,29,32.8959,5.70056,0,0,0,0,0,0,0,-1,2015,995,32.8958,-5.70056
798,29,30.7615,3.56561,0,0,0,0,0,0,0,-1,2022,995,30.7614,-3.56564
805,29,28.2515,6.70581,0,0,0,0,0,0,0,-1,2029,995,28.2514,-6.70583
812,29,27.6099,7.26184,0,0,0,0,0,0,0,-1,2036,995,27.6099,-7.26186
-700,22,0,0,0,0,0,0,0,0,0,-1,524,1002,0,0
-693,22,-25.6223,0.599487,0,0,0,0,0,0,0,-1,531,1002,-25.6223,-0.599514
-686,22,-25.3984,0.585083,0,0,0,0,0,0,0,-1,538,1002,-25.3984,-0.585053
-679,22,-26.6318,3.80444,0,0,0,0,0,0,0,-1,545,1002,-26.6318,-3.80442
-672,22,-24.7266,0.91864,0.0476747,-0.0337832,0.0195045,0.052104,-0.0382126,0.223307,0.0523495,0.0478191,552,1002,-24.7266,-0.918646
-665,22,-24.3545,1.1673,0.038537,-0.0228319,0.0156962,0.0423186,-0.0266135,0.236416,0.0401408,0.0450154,559,1002,-24.3545,-1.1673
-658,22,-24.0084,1.422,0,0,0,0,0,0,0,-1,566,1002,-24.0083,-1.42199
-651,22,-23.6337,1.58081,0,0,0,0,0,0,0,-1,573,1002,-23.6337,-1.58078
-644,22,-23.9362,2.1756,0.0158045,-0.00224661,0.00663307,0.0179798,-0.00442187,0.31689,0.0137004,0.0255823,580,1002,-23.9362,-2.17558
-637,22,-24.0711,2.47522,0.0104864,0.00185527,0.00416107,0.0121658,0.000175962,0.383586,0.00805249,0.0176921,587,1002,-24.0711,-2.4752
-630,22,-24.1088,2.47437,0.00601293,0.00404773,0.00161225,0.00691841,0.00314225,0.511724,0.00399993,0.0123779,594,1002,-24.1088,-2.47438
-623,22,-24.1325,2.43622,0.00290395,0.00506748,-0.000581631,0.00521393,0.0027575,-1.32413,0.00301194,0.0100953,601,1002,-24.1325,-2.4362
-616,22,-24.1682,2.37024,0.00150814,0.00510035,-0.00202653,0.00601216,0.000596328,-1.14799,0.00382485,0.0164957,608,1002,-24.1682,-2.37025
-609,22,-24.1757,2.31342,0.000533544,0.00474606,-0.00313339,0.00641531,-0.0011357,-1.08131,0.00470139,0.0288344,615,1002,-24.1756,-2.31343
-602,22,-24.1408,2.23108,-0.000380525,0.00419942,-0.00405138,0.00656323,-0.00274434,-1.04263,0.00552244,0.029454,622,1002,-24.1408,-2.23107
-595,22,-24.0829,2.1228,-0.000865654,0.00309203,-0.00456121,0.00608515,-0.00385878,-0.990066,0.00578889,0.0240133,629,1002,-24.083,-2.12282
-588,22,-23.9973,1.5976,-0.00110206,0.00265584,-0.00478586,0.00591839,-0.0043646,-0.972455,0.00595943,0.0318699,636,1002,-23.9973,-1.59761
-581,22,-23.9581,1.18164,-0.00121673,0.00234563,-0.00479539,0.00567995,-0.00455105,-0.963219,0.00591885,0.0410458,643,1002,-23.9581,-1.18164
-574,22,-23.9799,0.861633,-0.00150411,0.00189761,-0.00466019,0.00515763,-0.00476413,-0.960376,0.00572983,0.0336319,650,1002,-23.9799,-0.861625
-567,22,-23.8932,0.75647,-0.00207348,0.00157144,-0.00403234,0.00417404,-0.00467608,-0.99764,0.00511236,0.0304324,657,1002,-23.8932,-0.756479
-560,22,-23.9747,0.742554,-0.0027001,0.00117159,-0.00311278,0.00290138,-0.00442989,-1.06358,0.00426327,0.0373802,664,1002,-23.9747,-0.742525
-553,22,-24.2195,1.0578,-0.00331576,0.000608971,-0.00203701,0.00147509,-0.00418187,-1.16877,0.00338838,0.0413356,671,1002,-24.2195,-1.05782
-546,22,-24.3191,1.24402,0,0,0,0,0,0,0,-1,678,1002,-24.3191,-1.24404
-539,22,-24.0739,0.763855,-0.0038265,-0.00124743,-0.000357144,-0.00119889,-0.00387504,-1.4357,0.00229081,0.0419281,685,1002,-24.0739,-0.763843
-532,22,-24.0811,0.908142,-0.00361937,-0.00195829,-0.00114101,-0.00137755,-0.00420011,-1.1,0.00247231,0.0434625,692,1002,-24.0811,-0.908172
-525,22,0,0,0,0,0,0,0,0,0,-1,699,1002,0,0
-518,22,0,0,0,0,0,0,0,0,0,-1,706,1002,0,0
-511,22,0,0,0,0,0,0,0,0,0,-1,713,1002,0,0
-504,22,0,0,0,0,0,0,0,0,0,-1,720,1002,0,0
-497,22,0,0,0,0,0,0,0,0,0,-1,727,1002,0,0
-490,22,0,0,0,0,0,0,0,0,0,-1,734,1002,0,0
-483,22,0,0,0,0,0,0,0,0,0,-1,741,1002,0,0
-476,22,0,0,0,0,0,0,0,0,0,-1,748,1002,0,0
-469,22,0,0,0,0,0,0,0,0,0,-1,755,1002,0,0
-462,22,0,0,0,0,0,0,0,0,0,-1,762,1002,0,0
-455,22,0,0,0,0,0,0,0,0,0,-1,769,1002,0,0
-448,22,0,0,0,0,0,0,0,0,0,-1,776,1002,0,0
-441,22,0,0,0,0,0,0,0,0,0,-1,783,1002,0,0
-434,22,0,0,0,0,0,0,0,0,0,-1,790,1002,0,0
-427,22,0,0,0,0,0,0,0,0,0,-1,797,1002,0,0
-420,22,0,0,0,0,0,0,0,0,0,-1,804,1002,0,0
-413,22,0,0,0,0,0,0,0,0,0,-1,811,1002,0,0
-406,22,0,0,0,0,0,0,0,0,0,-1,818,1002,0,0
-399,22,0,0,0,0,0,0,0,0,0,-1,825,1002,0,0
-392,22,0,0,0,0,0,0,0,0,0,-1,832,1002,0,0
-385,22,0,0,0,0,0,0,0,0,0,-1,839,1002,0,0
-378,22,0,0,0,0,0,0,0,0,0,-1,846,1002,0,0
-371,22,0,0,0,0,0,0,0,0,0,-1,853,1002,0,0
-364,22,0,0,0,0,0,0,0,0,0,-1,860,1002,0,0
-357,22,0,0,0,0,0,0,0,0,0,-1,867,1002,0,0
-350,22,0,0,0,0,0,0,0,0,0,-1,874,1002,0,0
-343,22,0,0,0,0,0,0,0,0,0,-1,881,1002,0,0
-336,22,0,0,0,0,0,0,0,0,0,-1,888,1002,0,0
-329,22,0,0,0,0,0,0,0,0,0,-1,895,1002,0,0
-322,22,0,0,0,0,0,0,0,0,0,-1,902,1002,0,0
-315,22,0,0,0,0,0,0,0,0,0,-1,909,1002,0,0
-308,22,0,0,0,0,0,0,0,0,0,-1,916,1002,0,0
-301,22,0,0,0,0,0,0,0,0,0,-1,923,1002,0,0
-294,22,0,0,0,0,0,0,0,0,0,-1,930,1002,0,0
-287,22,0,0,0,0,0,0,0,0,0,-1,937,1002,0,0
-280,22,0,0,0,0,0,0,0,0,0,-1,944,1002,0,0
-273,22,0,0,0,0,0,0,0,0,0,-1,951,1002,0,0
-266,22,0,0,0,0,0,0,0,0,0,-1,958,1002,0,0
-259,22,0,0,0,0,0,0,0,0,0,-1,965,1002,0,0
-252,22,0,0,0,0,0,0,0,0,0,-1,972,1002,0,0
-245,22,0,0,0,0,0,0,0,0,0,-1,979,1002,0,0
-238,22,0,0,0,0,0,0,0,0,0,-1,986,1002,0,0
-231,22,0,0,0,0,0,0,0,0,0,-1,993,1002,0,0
-224,22,0,0,0,0,0,0,0,0,0,-1,1000,1002,0,0
-217,22,0,0,0,0,0,0,0,0,0,-1,1007,1002,0,0
-210,22,0,0,0,0,0,0,0,0,0,-1,1014,1002,0,0
-203,22,0,0,0,0,0,0,0,0,0,-1,1021,1002,0,0
-196,22,0,0,0,0,0,0,0,0,0,-1,1028,1002,0,0
-189,22,0,0,0,0,0,0,0,0,0,-1,1035,1002,0,0
-182,22,0,0,0,0,0,0,0,0,0,-1,1042,1002,0,0
-175,22,0,0,0,0,0,0,0,0,0,-1,1049,1002,0,0
-168,22,0,0,0,0,0,0,0,0,0,-1,1056,1002,0,0
-161,22,0,0,0,0,0,0,0,0,0,-1,1063,1002,0,0
-154,22,0,0,0,0,0,0,0,0,0,-1,1070,1002,0,0
-147,22,0,0,0,0,0,0,0,0,0,-1,1077,1002,0,0
-140,22,0,0,0,0,0,0,0,0,0,-1,1084,1002,0,0
-133,22,0,0,0,0,0,0,0,0,0,-1,1091,1002,0,0
-126,22,0,0,0,0,0,0,0,0,0,-1,1098,1002,0,0
-119,22,0,0,0,0,0,0,0,0,0,-1,1105,1002,0,0
-112,22,0,0,0,0,0,0,0,0,0,-1,1112,1002,0,0
-105,22,0,0,0,0,0,0,0,0,0,-1,1119,1002,0,0
-98,22,0,0,0,0,0,0,0,0,0,-1,1126,1002,0,0
-91,22,0,0,0,0,0,0,0,0,0,-1,1133,1002,0,0
-84,22,0,0,0,0,0,0,0,0,0,-1,1140,1002,0,0
-77,22,0,0,0,0,0,0,0,0,0,-1,1147,1002,0,0
-70,22,0,0,0,0,0,0,0,0,0,-1,1154,1002,0,0
-63,22,0,0,0,0,0,0,0,0,0,-1,1161,1002,0,0
-56,22,0,0,0,0,0,0,0,0,0,-1,1168,1002,0,0
-49,22,0,0,0,0,0,0,0,0,0,-1,1175,1002,0,0
-42,22,0,0,0,0,0,0,0,0,0,-1,1182,1002,0,0
-35,22,0,0,0,0,0,0,0,0,0,-1,1189,1002,0,0
-28,22,0,0,0,0,0,0,0,0,0,-1,1196,1002,0,0
-21,22,0,0,0,0,0,0,0,0,0,-1,1203,1002,0,0
-14,22,0,0,0,0,0,0,0,0,0,-1,1210,1002,0,0
-7,22,0,0,0,0,0,0,0,0,0,-1,1217,1002,0,0
0,22,0,0,0,0,0,0,0,0,0,-1,1224,1002,0,0
7,22,0,0,0,0,0,0,0,0,0,-1,1231,1002,0,0
14,22,0,0,0,0,0,0,0,0,0,-1,1238,1002,0,0
21,22,0,0,0,0,0,0,0,0,0,-1,1245,1002,0,0
28,22,0,0,0,0,0,0,0,0,0,-1,1252,1002,0,0
35,22,0,0,0,0,0,0,0,0,0,-1,1259,1002,0,0
42,22,0,0,0,0,0,0,0,0,0,-1,1266,1002,0,0
49,22,0,0,0,0,0,0,0,0,0,-1,1273,1002,0,0
56,22,0,0,0,0,0,0,0,0,0,-1,1280,1002,0,0
63,22,0,0,0,0,0,0,0,0,0,-1,1287,1002,0,0
70,22,0,0,0,0,0,0,0,0,0,-1,1294,1002,0,0
77,22,0,0,0,0,0,0,0,0,0,-1,1301,1002,0,0
84,22,0,0,0,0,0,0,0,0,0,-1,1308,1002,0,0
91,22,0,0,0,0,0,0,0,0,0,-1,1315,1002,0,0
98,22,0,0,0,0,0,0,0,0,0,-1,1322,1002,0,0
105,22,0,0,0,0,0,0,0,0,0,-1,1329,1002,0,0
112,22,0,0,0,0,0,0,0,0,0,-1,1336,1002,0,0
119,22,0,0,0,0,0,0,0,0,0,-1,1343,1002,0,0
126,22,0,0,0,0,0,0,0,0,0,-1,1350,1002,0,0
133,22,0,0,0,0,0,0,0,0,0,-1,1357,1002,0,0
140,22,0,0,0,0,0,0,0,0,0,-1,1364,1002,0,0
147,22,0,0,0,0,0,0,0,0,0,-1,1371,1002,0,0
154,22,0,0,0,0,0,0,0,0,0,-1,1378,1002,0,0
161,22,0,0,0,0,0,0,0,0,0,-1,1385,1002,0,0
168,22,0,0,0,0,0,0,0,0,0,-1,1392,1002,0,0
175,22,0,0,0,0,0,0,0,0,0,-1,1399,1002,0,0
182,22,0,0,0,0,0,0,0,0,0,-1,1406,1002,0,0
189,22,0,0,0,0,0,0,0,0,0,-1,1413,1002,0,0
196,22,0,0,0,0,0,0,0,0,0,-1,1420,1002,0,0
203,22,0,0,0,0,0,0,0,0,0,-1,1427,1002,0,0
210,22,0,0,0,0,0,0,0,0,0,-1,1434,1002,0,0
217,22,0,0,0,0,0,0,0,0,0,-1,1441,1002,0,0
224,22,0,0,0,0,0,0,0,0,0,-1,1448,1002,0,0
231,22,0,0,0,0,0,0,0,0,0,-1,1455,1002,0,0
238,22,0,0,0,0,0,0,0,0,0,-1,1462,1002,0,0
245,22,0,0,0,0,0,0,0,0,0,-1,1469,1002,0,0
252,22,0,0,0,0,0,0,0,0,0,-1,1476,1002,0,0
259,22,0,0,0,0,0,0,0,0,0,-1,1483,1002,0,0
266,22,0,0,0,0,0,0,0,0,0,-1,1490,1002,0,0
273,22,0,0,0,0,0,0,0,0,0,-1,1497,1002,0,0
280,22,0,0,0,0,0,0,0,0,0,-1,1504,1002,0,0
287,22,0,0,0,0,0,0,0,0,0,-1,1511,1002,0,0
294,22,0,0,0,0,0,0,0,0,0,-1,1518,1002,0,0
301,22,0,0,0,0,0,0,0,0,0,-1,1525,1002,0,0
308,22,0,0,0,0,0,0,0,0,0,-1,1532,1002,0,0
315,22,0,0,0,0,0,0,0,0,0,-1,1539,1002,0,0
322,22,0,0,0,0,0,0,0,0,0,-1,1546,1002,0,0
329,22,0,0,0,0,0,0,0,0,0,-1,1553,1002,0,0
336,22,0,0,0,0,0,0,0,0,0,-1,1560,1002,0,0
343,22,0,0,0,0,0,0,0,0,0,-1,1567,1002,0,0
350,22,0,0,0,0,0,0,0,0,0,-1,1574,1002,0,0
357,22,0,0,0,0,0,0,0,0,0,-1,1581,1002,0,0
364,22,0,0,0,0,0,0,0,0,0,-1,1588,1002,0,0
371,22,0,0,0,0,0,0,0,0,0,-1,1595,1002,0,0
378,22,0,0,0,0,0,0,0,0,0,-1,1602,1002,0,0
385,22,0,0,0,0,0,0,0,0,0,-1,1609,1002,0,0
392,22,0,0,0,0,0,0,0,0,0,-1,1616,1002,0,0
399,22,0,0,0,0,0,0,0,0,0,-1,1623,1002,0,0
406,22,0,0,0,0,0,0,0,0,0,-1,1630,1002,0,0
413,22,0,0,0,0,0,0,0,0,0,-1,1637,1002,0,0
420,22,0,0,0,0,0,0,0,0,0,-1,1644,1002,0,0
427,22,0,0,0,0,0,0,0,0,0,-1,1651,1002,0,0
434,22,0,0,0,0,0,0,0,0,0,-1,1658,1002,0,0
441,22,0,0,0,0,0,0,0,0,0,-1,1665,1002,0,0
448,22,0,0,0,0,0,0,0,0,0,-1,1672,1002,0,0
455,22,0,0,0,0,0,0,0,0,0,-1,1679,1002,0,0
462,22,0,0,0,0,0,0,0,0,0,-1,1686,1002,0,0
469,22,0,0,0,0,0,0,0,0,0,-1,1693,1002,0,0
476,22,0,0,0,0,0,0,0,0,0,-1,1700,1002,0,0
483,22,0,0,0,0,0,0,0,0,0,-1,1707,1002,0,0
490,22,0,0,0,0,0,0,0,0,0,-1,1714,1002,0,0
497,22,0,0,0,0,0,0,0,0,0,-1,1721,1002,0,0
504,22,0,0,0,0,0,0,0,0,0,-1,1728,1002,0,0
511,22,0,0,0,0,0,0,0,0,0,-1,1735,1002,0,0
518,22,0,0,0,0,0,0,0,0,0,-1,1742,1002,0,0
525,22,0,0,0,0,0,0,0,0,0,-1,1749,1002,0,0
532,22,0,0,0,0,0,0,0,0,0,-1,1756,1002,0,0
539,22,0,0,0,0,0,0,0,0,0,-1,1763,1002,0,0
546,22,0,0,0,0,0,0,0,0,0,-1,1770,1002,0,0
553,22,0,0,0,0,0,0,0,0,0,-1,1777,1002,0,0
560,22,0,0,0,0,0,0,0,0,0,-1,1784,1002,0,0
567,22,0,0,0,0,0,0,0,0,0,-1,1791,1002,0,0
574,22,0,0,0,0,0,0,0,0,0,-1,1798,1002,0,0
581,22,0,0,0,0,0,0,0,0,0,-1,1805,1002,0,0
588,22,0,0,0,0,0,0,0,0,0,-1,1812,1002,0,0
595,22,0,0,0,0,0,0,0,0,0,-1,1819,1002,0,0
602,22,0,0,0,0,0,0,0,0,0,-1,1826,1002,0,0
609,22,0,0,0,0,0,0,0,0,0,-1,1833,1002,0,0
616,22,0,0,0,0,0,0,0,0,0,-1,1840,1002,0,0
623,22,0,0,0,0,0,0,0,0,0,-1,1847,1002,0,0
630,22,0,0,0,0,0,0,0,0,0,-1,1854,1002,0,0
637,22,0,0,0,0,0,0,0,0,0,-1,1861,1002,0,0
644,22,33.6394,2.83942,0.0054998,-0.000131757,-0.00033422,0.00551956,-0.000151522,-0.0590715,0.00373124,0.0397657,1868,1002,33.6394,-2.83941
651,22,33.5815,3.00812,0.00406194,-0.000958091,0.000299062,0.00407969,-0.000975844,0.0592943,0.00309676,0.0407262,1875,1002,33.5815,-3.00811
658,22,33.6237,2.9707,0.00280818,-0.00138067,0.000765706,0.00294376,-0.00151625,0.175249,0.00261859,0.0407455,1882,1002,33.6237,-2.97067
665,22,33.6075,2.88452,0.00180676,-0.0014449,0.00117839,0.0021889,-0.00182704,0.313585,0.00232174,0.0402843,1889,1002,33.6076,-2.88454
672,22,33.6797,2.9552,0.000964868,-0.00116126,0.00167877,0.00188885,-0.00208524,0.503147,0.00229538,0.0401176,1896,1002,33.6797,-2.95523
679,22,33.6265,2.94611,0.000267866,-0.000688282,0.00229108,0.00213022,-0.00255064,0.68254,0.00270613,0.038714,1903,1002,33.6264,-2.94612
686,22,33.6622,2.9884,-0.000164907,-0.000295035,0.00281748,0.00258826,-0.00304821,0.773854,0.00325783,0.0380399,1910,1002,33.6622,-2.98841
693,22,33.6184,3.11115,-0.000418018,5.49599e-05,0.00316216,0.00298946,-0.00335252,0.822722,0.00366355,0.0368713,1917,1002,33.6184,-3.11112
700,22,33.6553,2.94684,-0.000634876,0.000358112,0.00329217,0.00319101,-0.00346778,0.86024,0.00384556,0.0315341,1924,1002,33.6553,-2.94682
707,22,33.5972,2.92175,-0.000847861,0.000755483,0.00345365,0.00349929,-0.00359167,0.89944,0.00409408,0.0310969,1931,1002,33.5972,-2.92178
714,22,33.6064,2.9469,-0.00118199,0.00115768,0.00353894,0.00371513,-0.00373943,0.945025,0.0043039,0.0350008,1938,1002,33.6064,-2.94687
721,22,33.4672,3.74628,0,0,0,0,0,0,0,-1,1945,1002,33.4672,-3.74627
728,22,33.1721,4.46783,-0.00217877,0.00243152,0.00300755,0.00391571,-0.00366295,1.11237,0.00437636,0.0340648,1952,1002,33.1721,-4.46786
735,22,33.1741,4.91107,-0.00254911,0.00310458,0.00264227,0.00414718,-0.00359172,1.19496,0.00447189,0.0150034,1959,1002,33.1741,-4.91106
742,22,33.1837,4.97662,-0.00326099,0.00382451,0.0023194,0.00451623,-0.0039527,1.28096,0.00489315,0.0151497,1966,1002,33.1837,-4.97661
749,22,33.144,5.03271,-0.00425763,0.00489314,0.00177632,0.00522586,-0.00459035,1.38564,0.00567135,0.0115334,1973,1002,33.144,-5.03269
756,22,33.119,5.12189,-0.00549792,0.00603564,0.000974872,0.00611746,-0.00557974,1.48706,0.00675576,0.0164743,1980,1002,33.119,-5.12188
763,22,33.0721,5.23328,-0.00701394,0.00717355,-0.000132322,0.00717478,-0.00701518,-1.56147,0.00819275,0.0173826,1987,1002,33.0722,-5.23326
770,22,32.9934,5.28796,-0.0087216,0.00872292,-0.00130294,0.0088197,-0.00881837,-1.49665,0.0101833,0.0169632,1994,1002,32.9934,-5.28796
777,22,32.7841,5.30212,-0.0105051,0.0103623,-0.00250753,0.0106594,-0.0108022,-1.45287,0.0123909,0.0370569,2001,1002,32.784,-5.30214
784,22,32.6007,5.37549,0,0,0,0,0,0,0,-1,2008,1002,32.6007,-5.37549
791,22,33.7061,5.4342,0,0,0,0,0,0,0,-1,2015,1002,33.7061,-5.43422
798,22,33.6279,5.34918,0,0,0,0,0,0,0,-1,2022,1002,33.6279,-5.34921
805,22,32.6929,5.70526,0,0,0,0,0,0,0,-1,2029,1002,32.6929,-5.70527
812,22,27.8433,7.47241,0,0,0,0,0,0,0,-1,2036,1002,27.8433,-7.47242
-700,15,0,0,0,0,0,0,0,0,0,-1,524,1009,0,0
-693,15,-25.0091,2.81915,0,0,0,0,0,0,0,-1,531,1009,-25.0091,-2.81917
-686,15,-25.2054,1.27716,0,0,0,0,0,0,0,-1,538,1009,-25.2054,-1.27716
-679,15,-25.0079,1.17548,0.0510159,-0.04158,0.0209348,0.055529,-0.0460931,0.212331,0.0587558,0.0464546,545,1009,-25.0079,-1.17548
-672,15,-24.7017,1.37286,0.0433632,-0.0303701,0.0178806,0.0474705,-0.0344775,0.225791,0.0475105,0.0470911,552,1009,-24.7017,-1.37287
-665,15,-24.3315,1.28625,0.0354053,-0.0206327,0.014786,0.0390674,-0.0242948,0.242786,0.0369121,0.0444764,559,1009,-24.3315,-1.28625
-658,15,-23.8646,1.18719,0.0277601,-0.0126586,0.0118549,0.0309806,-0.015879,0.265256,0.0275188,0.0438291,566,1009,-23.8646,-1.18717
-651,15,-23.8966,1.98553,0,0,0,0,0,0,0,-1,573,1009,-23.8966,-1.98555
-644,15,-23.9858,2.2807,0.0149093,-0.00207337,0.00674681,0.0172634,-0.00442741,0.335705,0.0132339,0.0253025,580,1009,-23.9859,-2.28068
-637,15,-24.0578,2.44519,0.0100069,0.00159944,0.00428971,0.0118093,-0.000202909,0.39776,0.00794134,0.0204225,587,1009,-24.0578,-2.44519
-630,15,-24.1202,2.42975,0.00602907,0.00356735,0.00178644,0.00696763,0.00262879,0.483745,0.00406295,0.0132656,594,1009,-24.1202,-2.42976
-623,15,-24.1682,2.40234,0.0033151,0.00454135,-0.000368256,0.00464344,0.00321301,-1.30036,0.00274595,0.00929545,601,1009,-24.1682,-2.40234
-616,15,-24.2,2.35931,0.00206269,0.00466986,-0.00200052,0.00575404,0.000978514,-1.07416,0.00355503,0.0143143,608,1009,-24.2,-2.35934
-609,15,-24.1962,2.32721,0.00109149,0.00438154,-0.00318511,0.00632134,-0.000848317,-1.02377,0.00452359,0.0219163,615,1009,-24.1962,-2.3272
-602,15,-24.2682,2.32513,0,0,0,0,0,0,0,-1,622,1009,-24.2682,-2.32515
-595,15,-24.0521,1.77576,-0.000256246,0.00288137,-0.00470854,0.00627558,-0.00365045,-0.946206,0.00579722,0.0321986,629,1009,-24.0521,-1.77574
-588,15,-23.9445,1.23792,-0.000397967,0.00245668,-0.00493502,0.00616664,-0.00410792,-0.926169,0.00597158,0.0361853,636,1009,-23.9445,-1.23791
-581,15,-23.9984,0.865906,-0.000457779,0.00216615,-0.00492287,0.00594888,-0.00424051,-0.915623,0.00591034,0.0368712,643,1009,-23.9983,-0.865894
-574,15,-23.9847,0.835693,-0.000797488,0.0017459,-0.00472593,0.00536825,-0.00441984,-0.916829,0.00565999,0.0327497,650,1009,-23.9847,-0.835701
-567,15,-23.9004,0.707092,-0.0014502,0.00145104,-0.00403927,0.00429228,-0.00429143,-0.95779,0.00495581,0.0331188,657,1009,-23.9004,-0.707109
-560,15,-23.7407,0.580017,-0.00223421,0.00109804,-0.00302753,0.00288762,-0.00402379,-1.03694,0.00400824,0.0395189,664,1009,-23.7407,-0.579989
-553,15,-24.0855,0.798889,-0.00309599,0.000587653,-0.00181803,0.00133379,-0.00384213,-1.18135,0.00310308,0.0411912,671,1009,-24.0855,-0.798861
-546,15,-24.1249,0.757202,-0.00386898,-0.000205237,-0.000559374,-0.000121736,-0.00395248,-1.42261,0.00259536,0.0412995,678,1009,-24.1249,-0.75718
-539,15,-24.107,0.673462,-0.00432588,-0.00107849,0.000214858,-0.00106433,-0.00434003,1.50502,0.00261189,0.0434425,685,1009,-24.107,-0.673445
-532,15,-24.1684,0.737,-0.0044928,-0.00156752,-0.000469331,-0.00149407,-0.00456625,-1.41555,0.0026883,0.0427326,692,1009,-24.1684,-0.737004
-525,15,0,0,0,0,0,0,0,0,0,-1,699,1009,0,0
-518,15,0,0,0,0,0,0,0,0,0,-1,706,1009,0,0
-511,15,0,0,0,0,0,0,0,0,0,-1,713,1009,0,0
-504,15,0,0,0,0,0,0,0,0,0,-1,720,1009,0,0
-497,15,0,0,0,0,0,0,0,0,0,-1,727,1009,0,0
-490,15,0,0,0,0,0,0,0,0,0,-1,734,1009,0,0
-483,15,0,0,0,0,0,0,0,0,0,-1,741,1009,0,0
-476,15,0,0,0,0,0,0,0,0,0,-1,748,1009,0,0
-469,15,0,0,0,0,0,0,0,0,0,-1,755,1009,0,0
-462,15,0,0,0,0,0,0,0,0,0,-1,762,1009,0,0
-455,15,0,0,0,0,0,0,0,0,0,-1,769,1009,0,0
-448,15,0,0,0,0,0,0,0,0,0,-1,776,1009,0,0
-441,15,0,0,0,0,0,0,0,0,0,-1,783,1009,0,0
-434,15,0,0,0,0,0,0,0,0,0,-1,790,1009,0,0
-427,15,0,0,0,0,0,0,0,0,0,-1,797,1009,0,0
-420,15,0,0,0,0,0,0,0,0,0,-1,804,1009,0,0
-413,15,0,0,0,0,0,0,0,0,0,-1,811,1009,0,0
-406,15,0,0,0,0,0,0,0,0,0,-1,818,1009,0,0
-399,15,0,0,0,0,0,0,0,0,0,-1,825,1009,0,0
-392,15,0,0,0,0,0,0,0,0,0,-1,832,1009,0,0
-385,15,0,0,0,0,0,0,0,0,0,-1,839,1009,0,0
-378,15,0,0,0,0,0,0,0,0,0,-1,846,1009,0,0
-371,15,0,0,0,0,0,0,0,0,0,-1,853,1009,0,0
-364,15,0,0,0,0,0,0,0,0,0,-1,860,1009,0,0
-357,15,0,0,0,0,0,0,0,0,0,-1,867,1009,0,0
-350,15,0,0,0,0,0,0,0,0,0,-1,874,1009,0,0
-343,15,0,0,0,0,0,0,0,0,0,-1,881,1009,0,0
-336,15,0,0,0,0,0,0,0,0,0,-1,888,1009,0,0
-329,15,0,0,0,0,0,0,0,0,0,-1,895,1009,0,0
-322,15,0,0,0,0,0,0,0,0,0,-1,902,1009,0,0
-315,15,0,0,0,0,0,0,0,0,0,-1,909,1009,0,0
-308,15,0,0,0,0,0,0,0,0,0,-1,916,1009,0,0
-301,15,0,0,0,0,0,0,0,0,0,-1,923,1009,0,0
-294,15,0,0,0,0,0,0,0,0,0,-1,930,1009,0,0
-287,15,0,0,0,0,0,0,0,0,0,-1,937,1009,0,0
-280,15,0,0,0,0,0,0,0,0,0,-1,944,1009,0,0
-273,15,0,0,0,0,0,0,0,0,0,-1,951,1009,0,0
-266,15,0,0,0,0,0,0,0,0,0,-1,958,1009,0,0
-259,15,0,0,0,0,0,0,0,0,0,-1,965,1009,0,0
-252,15,0,0,0,0,0,0,0,0,0,-1,972,1009,0,0
-245,15,0,0,0,0,0,0,0,0,0,-1,979,1009,0,0
-238,15,0,0,0,0,0,0,0,0,0,-1,986,1009,0,0
-231,15,0,0,0,0,0,0,0,0,0,-1,993,1009,0,0
-224,15,0,0,0,0,0,0,0,0,0,-1,1000,1009,0,0
-217,15,0,0,0,0,0,0,0,0,0,-1,1007,1009,0,0
-210,15,0,0,0,0,0,0,0,0,0,-1,1014,1009,0,0
-203,15,0,0,0,0,0,0,0,0,0,-1,1021,1009,0,0
-196,15,0,0,0,0,0,0,0,0,0,-1,1028,1009,0,0
-189,15,0,0,0,0,0,0,0,0,0,-1,1035,1009,0,0
-182,15,0,0,0,0,0,0,0,0,0,-1,1042,1009,0,0
-175,15,0,0,0,0,0,0,0,0,0,-1,1049,1009,0,0
-168,15,0,0,0,0,0,0,0,0,0,-1,1056,1009,0,0
-161,15,0,0,0,0,0,0,0,0,0,-1,1063,1009,0,0
-154,15,0,0,0,0,0,0,0,0,0,-1,1070,1009,0,0
-147,15,0,0,0,0,0,0,0,0,0,-1,1077,1009,0,0
-140,15,0,0,0,0,0,0,0,0,0,-1,1084,1009,0,0
-133,15,0,0,0,0,0,0,0,0,0,-1,1091,1009,0,0
-126,15,0,0,0,0,0,0,0,0,0,-1,1098,1009,0,0
-119,15,0,0,0,0,0,0,0,0,0,-1,1105,1009,0,0
-112,15,0,0,0,0,0,0,0,0,0,-1,1112,1009,0,0
-105,15,0,0,0,0,0,0,0,0,0,-1,1119,1009,0,0
-98,15,0,0,0,0,0,0,0,0,0,-1,1126,1009,0,0
-91,15,0,0,0,0,0,0,0,0,0,-1,1133,1009,0,0
-84,15,0,0,0,0,0,0,0,0,0,-1,1140,1009,0,0
-77,15,0,0,0,0,0,0,0,0,0,-1,1147,1009,0,0
-70,15,0,0,0,0,0,0,0,0,0,-1,1154,1009,0,0
-63,15,0,0,0,0,0,0,0,0,0,-1,1161,1009,0,0
-56,15,0,0,0,0,0,0,0,0,0,-1,1168,1009,0,0
-49,15,0,0,0,0,0,0,0,0,0,-1,1175,1009,0,0
-42,15,0,0,0,0,0,0,0,0,0,-1,1182,1009,0,0
-35,15,0,0,0,0,0,0,0,0,0,-1,1189,1009,0,0
-28,15,0,0,0,0,0,0,0,0,0,-1,1196,1009,0,0
-21,15,0,0,0,0,0,0,0,0,0,-1,1203,1009,0,0
-14,15,0,0,0,0,0,0,0,0,0,-1,1210,1009,0,0
-7,15,0,0,0,0,0,0,0,0,0,-1,1217,1009,0,0
0,15,0,0,0,0,0,0,0,0,0,-1,1224,1009,0,0
7,15,0,0,0,0,0,0,0,0,0,-1,1231,1009,0,0
14,15,0,0,0,0,0,0,0,0,0,-1,1238,1009,0,0
21,15,0,0,0,0,0,0,0,0,0,-1,1245,1009,0,0
28,15,0,0,0,0,0,0,0,0,0,-1,1252,1009,0,0
35,15,0,0,0,0,0,0,0,0,0,-1,1259,1009,0,0
42,15,0,0,0,0,0,0,0,0,0,-1,1266,1009,0,0
49,15,0,0,0,0,0,0,0,0,0,-1,1273,1009,0,0
56,15,0,0,0,0,0,0,0,0,0,-1,1280,1009,0,0
63,15,0,0,0,0,0,0,0,0,0,-1,1287,1009,0,0
70,15,0,0,0,0,0,0,0,0,0,-1,1294,1009,0,0
77,15,0,0,0,0,0,0,0,0,0,-1,1301,1009,0,0
84,15,0,0,0,0,0,0,0,0,0,-1,1308,1009,0,0
91,15,0,0,0,0,0,0,0,0,0,-1,1315,1009,0,0
98,15,0,0,0,0,0,0,0,0,0,-1,1322,1009,0,0
105,15,0,0,0,0,0,0,0,0,0,-1,1329,1009,0,0
112,15,0,0,0,0,0,0,0,0,0,-1,1336,1009,0,0
119,15,0,0,0,0,0,0,0,0,0,-1,1343,1009,0,0
126,15,0,0,0,0,0,0,0,0,0,-1,1350,1009,0,0
133,15,0,0,0,0,0,0,0,0,0,-1,1357,1009,0,0
140,15,0,0,0,0,0,0,0,0,0,-1,1364,1009,0,0
147,15,0,0,0,0,0,0,0,0,0,-1,1371,1009,0,0
154,15,0,0,0,0,0,0,0,0,0,-1,1378,1009,0,0
161,15,0,0,0,0,0,0,0,0,0,-1,1385,1009,0,0
168,15,0,0,0,0,0,0,0,0,0,-1,1392,1009,0,0
175,15,0,0,0,0,0,0,0,0,0,-1,1399,1009,0,0
182,15,0,0,0,0,0,0,0,0,0,-1,1406,1009,0,0
189,15,0,0,0,0,0,0,0,0,0,-1,1413,1009,0,0
196,15,0,0,0,0,0,0,0,0,0,-1,1420,1009,0,0
203,15,0,0,0,0,0,0,0,0,0,-1,1427,1009,0,0
210,15,0,0,0,0,0,0,0,0,0,-1,1434,1009,0,0
217,15,0,0,0,0,0,0,0,0,0,-1,1441,1009,0,0
224,15,0,0,0,0,0,0,0,0,0,-1,1448,1009,0,0
231,15,0,0,0,0,0,0,0,0,0,-1,1455,1009,0,0
238,15,0,0,0,0,0,0,0,0,0,-1,1462,1009,0,0
245,15,0,0,0,0,0,0,0,0,0,-1,1469,1009,0,0
252,15,0,0,0,0,0,0,0,0,0,-1,1476,1009,0,0
259,15,0,0,0,0,0,0,0,0,0,-1,1483,1009,0,0
266,15,0,0,0,0,0,0,0,0,0,-1,1490,1009,0,0
273,15,0,0,0,0,0,0,0,0,0,-1,1497,1009,0,0
280,15,0,0,0,0,0,0,0,0,0,-1,1504,1009,0,0
287,15,0,0,0,0,0,0,0,0,0,-1,1511,1009,0,0
294,15,0,0,0,0,0,0,0,0,0,-1,1518,1009,0,0
301,15,0,0,0,0,0,0,0,0,0,-1,1525,1009,0,0
308,15,0,0,0,0,0,0,0,0,0,-1,1532,1009,0,0
315,15,0,0,0,0,0,0,0,0,0,-1,1539,1009,0,0
322,15,0,0,0,0,0,0,0,0,0,-1,1546,1009,0,0
329,15,0,0,0,0,0,0,0,0,0,-1,1553,1009,0,0
336,15,0,0,0,0,0,0,0,0,0,-1,1560,1009,0,0
343,15,0,0,0,0,0,0,0,0,0,-1,1567,1009,0,0
350,15,0,0,0,0,0,0,0,0,0,-1,1574,1009,0,0
357,15,0,0,0,0,0,0,0,0,0,-1,1581,1009,0,0
364,15,0,0,0,0,0,0,0,0,0,-1,1588,1009,0,0
371,15,0,0,0,0,0,0,0,0,0,-1,1595,1009,0,0
378,15,0,0,0,0,0,0,0,0,0,-1,1602,1009,0,0
385,15,0,0,0,0,0,0,0,0,0,-1,1609,1009,0,0
392,15,0,0,0,0,0,0,0,0,0,-1,1616,1009,0,0
399,15,0,0,0,0,0,0,0,0,0,-1,1623,1009,0,0
406,15,0,0,0,0,0,0,0,0,0,-1,1630,1009,0,0
413,15,0,0,0,0,0,0,0,0,0,-1,1637,1009,0,0
420,15,0,0,0,0,0,0,0,0,0,-1,1644,1009,0,0
427,15,0,0,0,0,0,0,0,0,0,-1,1651,1009,0,0
434,15,0,0,0,0,0,0,0,0,0,-1,1658,1009,0,0
441,15,0,0,0,0,0,0,0,0,0,-1,1665,1009,0,0
448,15,0,0,0,0,0,0,0,0,0,-1,1672,1009,0,0
455,15,0,0,0,0,0,0,0,0,0,-1,1679,1009,0,0
462,15,0,0,0,0,0,0,0,0,0,-1,1686,1009,0,0
469,15,0,0,0,0,0,0,0,0,0,-1,1693,1009,0,0
476,15,0,0,0,0,0,0,0,0,0,-1,1700,1009,0,0
483,15,0,0,0,0,0,0,0,0,0,-1,1707,1009,0,0
490,15,0,0,0,0,0,0,0,0,0,-1,1714,1009,0,0
497,15,0,0,0,0,0,0,0,0,0,-1,1721,1009,0,0
504,15,0,0,0,0,0,0,0,0,0,-1,1728,1009,0,0
511,15,0,0,0,0,0,0,0,0,0,-1,1735,1009,0,0
518,15,0,0,0,0,0,0,0,0,0,-1,1742,1009,0,0
525,15,0,0,0,0,0,0,0,0,0,-1,1749,1009,0,0
532,15,0,0,0,0,0,0,0,0,0,-1,1756,1009,0,0
539,15,0,0,0,0,0,0,0,0,0,-1,1763,1009,0,0
546,15,0,0,0,0,0,0,0,0,0,-1,1770,1009,0,0
553,15,0,0,0,0,0,0,0,0,0,-1,1777,1009,0,0
560,15,0,0,0,0,0,0,0,0,0,-1,1784,1009,0,0
567,15,0,0,0,0,0,0,0,0,0,-1,1791,1009,0,0
574,15,0,0,0,0,0,0,0,0,0,-1,1798,1009,0,0
581,15,0,0,0,0,0,0,0,0,0,-1,1805,1009,0,0
588,15,0,0,0,0,0,0,0,0,0,-1,1812,1009,0,0
595,15,0,0,0,0,0,0,0,0,0,-1,1819,1009,0,0
602,15,0,0,0,0,0,0,0,0,0,-1,1826,1009,0,0
609,15,0,0,0,0,0,0,0,0,0,-1,1833,1009,0,0
616,15,0,0,0,0,0,0,0,0,0,-1,1840,1009,0,0
623,15,0,0,0,0,0,0,0,0,0,-1,1847,1009,0,0
630,15,0,0,0,0,0,0,0,0,0,-1,1854,1009,0,0
637,15,0,0,0,0,0,0,0,0,0,-1,1861,1009,0,0
644,15,33.4982,2.79559,0.00467492,-2.68556e-05,-0.000922126,0.00484931,-0.000201238,-0.186902,0.00330199,0.0416567,1868,1009,33.4982,-2.79559
651,15,33.6234,3.02667,0.00354279,-0.000615372,-0.000276471,0.00356109,-0.000633674,-0.0661009,0.00261104,0.0392906,1875,1009,33.6234,-3.02667
658,15,33.6519,2.79419,0.0024826,-0.000935691,0.000247878,0.00250048,-0.000953572,0.0720132,0.00205978,0.0406217,1882,1009,33.6519,-2.79417
665,15,33.4924,2.74872,0.0016114,-0.000989189,0.00070933,0.0017923,-0.00117008,0.249696,0.00172286,0.042414,1889,1009,33.4924,-2.74873
672,15,33.5083,2.99176,0.000883227,-0.000716701,0.00129027,0.0016014,-0.00143487,0.507901,0.00175387,0.040409,1896,1009,33.5083,-2.99179
679,15,33.7332,2.8858,0.000240878,-0.000292525,0.00203688,0.00202844,-0.00208008,0.7203,0.00237212,0.0384789,1903,1009,33.7331,-2.88578
686,15,33.7837,2.73309,-0.000194867,5.14826e-05,0.00271551,0.00264661,-0.00278999,0.808063,0.00313919,0.0414174,1910,1009,33.7838,-2.73308
693,15,33.7131,2.77222,-0.000463484,0.000367296,0.00320595,0.00318465,-0.00328084,0.849823,0.00373299,0.0391034,1917,1009,33.7131,-2.77223
700,15,33.6831,2.83423,-0.000687458,0.000613964,0.00346518,0.003489,-0.0035625,0.87821,0.00407126,0.0309159,1924,1009,33.6831,-2.83423
707,15,33.6499,2.91498,-0.000900135,0.000939654,0.00374369,0.00387481,-0.00383529,0.905871,0.00445145,0.0301989,1931,1009,33.6499,-2.91496
714,15,33.6281,2.85596,-0.00122943,0.00130071,0.0039162,0.0041511,-0.00407982,0.941625,0.00475218,0.036225,1938,1009,33.628,-2.85598
721,15,33.4736,3.56738,0,0,0,0,0,0,0,-1,1945,1009,33.4736,-3.5674
728,15,33.0999,4.53333,-0.00229699,0.00242872,0.00349047,0.00428089,-0.00414916,1.08294,0.00486729,0.0402973,1952,1009,33.0999,-4.5333
735,15,33.2284,4.91101,-0.00264203,0.00307963,0.00314263,0.00446856,-0.00403095,1.15464,0.00490937,0.0159277,1959,1009,33.2284,-4.91101
742,15,33.2157,5.01678,-0.0032826,0.00383097,0.00279796,0.00479959,-0.00425122,1.23752,0.00522868,0.0208054,1966,1009,33.2157,-5.01681
749,15,33.2098,5.06439,-0.00417926,0.00494839,0.00218501,0.00544448,-0.00467536,1.34754,0.00584831,0.0127943,1973,1009,33.2099,-5.0644
756,15,33.2117,5.08026,-0.00523158,0.00612103,0.00125761,0.00625868,-0.00536922,1.46178,0.00671992,0.0137909,1980,1009,33.2116,-5.08025
763,15,33.1625,5.16016,-0.00650988,0.00728453,-3.24629e-05,0.00728461,-0.00650996,-1.56844,0.00796848,0.0133136,1987,1009,33.1624,-5.16019
770,15,33.0844,5.19513,-0.00796049,0.00886576,-0.00145271,0.00899026,-0.00808499,-1.4853,0.00986302,0.0179173,1994,1009,33.0843,-5.19514
777,15,32.824,5.25067,-0.00949751,0.0105448,-0.00297585,0.0109773,-0.00993003,-1.42646,0.0120759,0.0425597,2001,1009,32.8239,-5.25064
784,15,32.6149,5.34314,0,0,0,0,0,0,0,-1,2008,1009,32.6149,-5.34312
791,15,33.6758,5.28986,-0.0127778,0.012057,-0.00685528,0.0138236,-0.0145444,-1.31858,0.0163801,0.0460564,2015,1009,33.6758,-5.28987
798,15,33.3848,5.20673,-0.014334,0.010865,-0.0101262,0.0144299,-0.0178989,-1.2323,0.0187008,0.0442269,2022,1009,33.3848,-5.20674
805,15,32.9399,4.7406,0,0,0,0,0,0,0,-1,2029,1009,32.9399,-4.74061
812,15,31.8674,3.8775,0,0,0,0,0,0,0,-1,2036,1009,31.8675,-3.87752
-700,8,0,0,0,0,0,0,0,0,0,-1,524,1016,0,0
-693,8,-25.207,2.65106,0,0,0,0,0,0,0,-1,531,1016,-25.207,-2.65109
-686,8,-24.8822,1.64221,0,0,0,0,0,0,0,-1,538,1016,-24.8822,-1.64221
-679,8,-24.7603,1.62463,0.0428244,-0.0336355,0.0177014,0.0467236,-0.0375348,0.216816,0.0487429,0.045101,545,1016,-24.7603,-1.62466
-672,8,-24.5641,1.78143,0.0373129,-0.024851,0.0157179,0.0410611,-0.0285992,0.234096,0.0404324,0.0441358,552,1016,-24.5641,-1.78141
-665,8,-24.2142,1.70856,0.0310778,-0.0169008,0.0134538,0.0345929,-0.0204159,0.255558,0.032109,0.0448782,559,1016,-24.2142,-1.70857
-658,8,-24.0482,1.8399,0.0247955,-0.010266,0.0111312,0.0280308,-0.0135013,0.282863,0.0244628,0.036373,566,1016,-24.0482,-1.8399
-651,8,-23.9554,2.13971,0.0189439,-0.00517003,0.00890506,0.021876,-0.00810207,0.318076,0.0179064,0.0245979,573,1016,-23.9554,-2.13974
-644,8,-23.9128,2.27368,0.0138735,-0.00144787,0.00672969,0.0164096,-0.00398399,0.360396,0.0124815,0.0310768,580,1016,-23.9128,-2.2737
-637,8,-24.008,2.35425,0.00947247,0.00165423,0.00431611,0.0113866,-0.00025988,0.417419,0.00767914,0.0267023,587,1016,-24.008,-2.35425
-630,8,-24.1511,2.39069,0.0060792,0.00326072,0.0019,0.00703554,0.00230438,0.466313,0.00414174,0.0178396,594,1016,-24.1511,-2.39069
-623,8,-24.1665,2.39618,0.00376417,0.00405953,-0.000172768,0.00413913,0.00368456,-1.13903,0.00262107,0.0130971,601,1016,-24.1665,-2.3962
-616,8,-24.1815,2.35339,0.00254898,0.00417935,-0.0019883,0.00551308,0.00121525,-0.979944,0.00334472,0.0123195,608,1016,-24.1815,-2.35339
-609,8,-24.1707,2.30994,0.00153715,0.00385828,-0.00324026,0.00613954,-0.000744119,-0.957366,0.00436227,0.0150871,615,1016,-24.1707,-2.30993
-602,8,-24.1522,2.29596,0.000583022,0.00336645,-0.00426378,0.00645989,-0.00251042,-0.943149,0.00534372,0.0219096,622,1016,-24.1522,-2.29595
-595,8,-24.0196,1.58575,0,0,0,0,0,0,0,-1,629,1016,-24.0196,-1.58577
-588,8,-23.9227,0.758545,0,0,0,0,0,0,0,-1,636,1016,-23.9227,-0.758554
-581,8,-23.9733,0.846375,6.39326e-05,0.00172612,-0.00503647,0.00599961,-0.00420956,-0.867169,0.00592439,0.0289361,643,1016,-23.9733,-0.84636
-574,8,-23.9891,0.870605,-0.000320774,0.00135991,-0.0047851,0.0053779,-0.00433876,-0.87232,0.0056206,0.0360809,650,1016,-23.9891,-0.870631
-567,8,-23.9651,0.853394,-0.0010335,0.00113756,-0.00405495,0.00424977,-0.00414571,-0.916184,0.00484726,0.0399703,657,1016,-23.9651,-0.853366
-560,8,-23.8918,0.862915,-0.00192886,0.000911087,-0.00296628,0.00277975,-0.00379752,-1.00863,0.00381251,0.0404552,664,1016,-23.8918,-0.862921
-553,8,-23.9227,0.868164,-0.00296909,0.000589392,-0.00162984,0.00122305,-0.00360275,-1.2,0.00289689,0.0419055,671,1016,-23.9227,-0.868162
-546,8,-23.9825,0.681458,-0.00400098,5.08442e-05,-0.000185356,5.93059e-05,-0.00400944,-1.52518,0.00269295,0.043249,678,1016,-23.9825,-0.68144
-539,8,-24.064,1.08014,-0.00475458,-0.000443829,0.00080585,-0.00029811,-0.0049003,1.3919,0.00317217,0.0430046,685,1016,-24.064,-1.08013
-532,8,-23.9873,1.08868,-0.00521297,-0.000479104,0.000279643,-0.000462641,-0.00522943,1.512,0.00334276,0.0406081,692,1016,-23.9873,-1.08867
-525,8,0,0,0,0,0,0,0,0,0,-1,699,1016,0,0
-518,8,0,0,0,0,0,0,0,0,0,-1,706,1016,0,0
-511,8,0,0,0,0,0,0,0,0,0,-1,713,1016,0,0
-504,8,0,0,0,0,0,0,0,0,0,-1,720,1016,0,0
-497,8,0,0,0,0,0,0,0,0,0,-1,727,1016,0,0
-490,8,0,0,0,0,0,0,0,0,0,-1,734,1016,0,0
-483,8,0,0,0,0,0,0,0,0,0,-1,741,1016,0,0
-476,8,0,0,0,0,0,0,0,0,0,-1,748,1016,0,0
-469,8,0,0,0,0,0,0,0,0,0,-1,755,1016,0,0
-462,8,0,0,0,0,0,0,0,0,0,-1,762,1016,0,0
-455,8,0,0,0,0,0,0,0,0,0,-1,769,1016,0,0
-448,8,0,0,0,0,0,0,0,0,0,-1,776,1016,0,0
-441,8,0,0,0,0,0,0,0,0,0,-1,783,1016,0,0
-434,8,0,0,0,0,0,0,0,0,0,-1,790,1016,0,0
-427,8,0,0,0,0,0,0,0,0,0,-1,797,1016,0,0
-420,8,0,0,0,0,0,0,0,0,0,-1,804,1016,0,0
-413,8,0,0,0,0,0,0,0,0,0,-1,811,1016,0,0
-406,8,0,0,0,0,0,0,0,0,0,-1,818,1016,0,0
-399,8,0,0,0,0,0,0,0,0,0,-1,825,1016,0,0
-392,8,0,0,0,0,0,0,0,0,0,-1,832,1016,0,0
-385,8,0,0,0,0,0,0,0,0,0,-1,839,1016,0,0
-378,8,0,0,0,0,0,0,0,0,0,-1,846,1016,0,0
-371,8,0,0,0,0,0,0,0,0,0,-1,853,1016,0,0
-364,8,0,0,0,0,0,0,0,0,0,-1,860,1016,0,0
-357,8,0,0,0,0,0,0,0,0,0,-1,867,1016,0,0
-350,8,0,0,0,0,0,0,0,0,0,-1,874,1016,0,0
-343,8,0,0,0,0,0,0,0,0,0,-1,881,1016,0,0
-336,8,0,0,0,0,0,0,0,0,0,-1,888,1016,0,0
-329,8,0,0,0,0,0,0,0,0,0,-1,895,1016,0,0
-322,8,0,0,0,0,0,0,0,0,0,-1,902,1016,0,0
-315,8,0,0,0,0,0,0,0,0,0,-1,909,1016,0,0
-308,8,0,0,0,0,0,0,0,0,0,-1,916,1016,0,0
-301,8,0,0,0,0,0,0,0,0,0,-1,923,1016,0,0
-294,8,0,0,0,0,0,0,0,0,0,-1,930,1016,0,0
-287,8,0,0,0,0,0,0,0,0,0,-1,937,1016,0,0
-280,8,0,0,0,0,0,0,0,0,0,-1,944,1016,0,0
-273,8,0,0,0,0,0,0,0,0,0,-1,951,1016,0,0
-266,8,0,0,0,0,0,0,0,0,0,-1,958,1016,0,0
-259,8,0,0,0,0,0,0,0,0,0,-1,965,1016,0,0
-252,8,0,0,0,0,0,0,0,0,0,-1,972,1016,0,0
-245,8,0,0,0,0,0,0,0,0,0,-1,979,1016,0,0
-238,8,0,0,0,0,0,0,0,0,0,-1,986,1016,0,0
-231,8,0,0,0,0,0,0,0,0,0,-1,993,1016,0,0
-224,8,0,0,0,0,0,0,0,0,0,-1,1000,1016,0,0
-217,8,0,0,0,0,0,0,0,0,0,-1,1007,1016,0,0
-210,8,0,0,0,0,0,0,0,0,0,-1,1014,1016,0,0
-203,8,0,0,0,0,0,0,0,0,0,-1,1021,1016,0,0
-196,8,0,0,0,0,0,0,0,0,0,-1,1028,1016,0,0
-189,8,0,0,0,0,0,0,0,0,0,-1,1035,1016,0,0
-182,8,0,0,0,0,0,0,0,0,0,-1,1042,1016,0,0
-175,8,0,0,0,0,0,0,0,0,0,-1,1049,1016,0,0
-168,8,0,0,0,0,0,0,0,0,0,-1,1056,1016,0,0
-161,8,0,0,0,0,0,0,0,0,0,-1,1063,1016,0,0
-154,8,0,0,0,0,0,0,0,0,0,-1,1070,1016,0,0
-147,8,0,0,0,0,0,0,0,0,0,-1,1077,1016,0,0
-140,8,0,0,0,0,0,0,0,0,0,-1,1084,1016,0,0
-133,8,0,0,0,0,0,0,0,0,0,-1,1091,1016,0,0
-126,8,0,0,0,0,0,0,0,0,0,-1,1098,1016,0,0
-119,8,0,0,0,0,0,0,0,0,0,-1,1105,1016,0,0
-112,8,0,0,0,0,0,0,0,0,0,-1,1112,1016,0,0
-105,8,0,0,0,0,0,0,0,0,0,-1,1119,1016,0,0
-98,8,0,0,0,0,0,0,0,0,0,-1,1126,1016,0,0
-91,8,0,0,0,0,0,0,0,0,0,-1,1133,1016,0,0
-84,8,0,0,0,0,0,0,0,0,0,-1,1140,1016,0,0
-77,8,0,0,0,0,0,0,0,0,0,-1,1147,1016,0,0
-70,8,0,0,0,0,0,0,0,0,0,-1,1154,1016,0,0
-63,8,0,0,0,0,0,0,0,0,0,-1,1161,1016,0,0
-56,8,0,0,0,0,0,0,0,0,0,-1,1168,1016,0,0
-49,8,0,0,0,0,0,0,0,0,0,-1,1175,1016,0,0
-42,8,0,0,0,0,0,0,0,0,0,-1,1182,1016,0,0
-35,8,0,0,0,0,0,0,0,0,0,-1,1189,1016,0,0
-28,8,0,0,0,0,0,0,0,0,0,-1,1196,1016,0,0
-21,8,0,0,0,0,0,0,0,0,0,-1,1203,1016,0,0
-14,8,0,0,0,0,0,0,0,0,0,-1,1210,1016,0,0
-7,8,0,0,0,0,0,0,0,0,0,-1,1217,1016,0,0
0,8,0,0,0,0,0,0,0,0,0,-1,1224,1016,0,0
7,8,0,0,0,0,0,0,0,0,0,-1,1231,1016,0,0
14,8,0,0,0,0,0,0,0,0,0,-1,1238,1016,0,0
21,8,0,0,0,0,0,0,0,0,0,-1,1245,1016,0,0
28,8,0,0,0,0,0,0,0,0,0,-1,1252,1016,0,0
35,8,0,0,0,0,0,0,0,0,0,-1,1259,1016,0,0
42,8,0,0,0,0,0,0,0,0,0,-1,1266,1016,0,0
49,8,0,0,0,0,0,0,0,0,0,-1,1273,1016,0,0
56,8,0,0,0,0,0,0,0,0,0,-1,1280,1016,0,0
63,8,0,0,0,0,0,0,0,0,0,-1,1287,1016,0,0
70,8,0,0,0,0,0,0,0,0,0,-1,1294,1016,0,0
77,8,0,0,0,0,0,0,0,0,0,-1,1301,1016,0,0
84,8,0,0,0,0,0,0,0,0,0,-1,1308,1016,0,0
91,8,0,0,0,0,0,0,0,0,0,-1,1315,1016,0,0
98,8,0,0,0,0,0,0,0,0,0,-1,1322,1016,0,0
105,8,0,0,0,0,0,0,0,0,0,-1,1329,1016,0,0
112,8,0,0,0,0,0,0,0,0,0,-1,1336,1016,0,0
119,8,0,0,0,0,0,0,0,0,0,-1,1343,1016,0,0
126,8,0,0,0,0,0,0,0,0,0,-1,1350,1016,0,0
133,8,0,0,0,0,0,0,0,0,0,-1,1357,1016,0,0
140,8,0,0,0,0,0,0,0,0,0,-1,1364,1016,0,0
147,8,0,0,0,0,0,0,0,0,0,-1,1371,1016,0,0
154,8,0,0,0,0,0,0,0,0,0,-1,1378,1016,0,0
161,8,0,0,0,0,0,0,0,0,0,-1,1385,1016,0,0
168,8,0,0,0,0,0,0,0,0,0,-1,1392,1016,0,0
175,8,0,0,0,0,0,0,0,0,0,-1,1399,1016,0,0
182,8,0,0,0,0,0,0,0,0,0,-1,1406,1016,0,0
189,8,0,0,0,0,0,0,0,0,0,-1,1413,1016,0,0
196,8,0,0,0,0,0,0,0,0,0,-1,1420,1016,0,0
203,8,0,0,0,0,0,0,0,0,0,-1,1427,1016,0,0
210,8,0,0,0,0,0,0,0,0,0,-1,1434,1016,0,0
217,8,0,0,0,0,0,0,0,0,0,-1,1441,1016,0,0
224,8,0,0,0,0,0,0,0,0,0,-1,1448,1016,0,0
231,8,0,0,0,0,0,0,0,0,0,-1,1455,1016,0,0
238,8,0,0,0,0,0,0,0,0,0,-1,1462,1016,0,0
245,8,0,0,0,0,0,0,0,0,0,-1,1469,1016,0,0
252,8,0,0,0,0,0,0,0,0,0,-1,1476,1016,0,0
259,8,0,0,0,0,0,0,0,0,0,-1,1483,1016,0,0
266,8,0,0,0,0,0,0,0,0,0,-1,1490,1016,0,0
273,8,0,0,0,0,0,0,0,0,0,-1,1497,1016,0,0
280,8,0,0,0,0,0,0,0,0,0,-1,1504,1016,0,0
287,8,0,0,0,0,0,0,0,0,0,-1,1511,1016,0,0
294,8,0,0,0,0,0,0,0,0,0,-1,1518,1016,0,0
301,8,0,0,0,0,0,0,0,0,0,-1,1525,1016,0,0
308,8,0,0,0,0,0,0,0,0,0,-1,1532,1016,0,0
315,8,0,0,0,0,0,0,0,0,0,-1,1539,1016,0,0
322,8,0,0,0,0,0,0,0,0,0,-1,1546,1016,0,0
329,8,0,0,0,0,0,0,0,0,0,-1,1553,1016,0,0
336,8,0,0,0,0,0,0,0,0,0,-1,1560,1016,0,0
343,8,0,0,0,0,0,0,0,0,0,-1,1567,1016,0,0
350,8,0,0,0,0,0,0,0,0,0,-1,1574,1016,0,0
357,8,0,0,0,0,0,0,0,0,0,-1,1581,1016,0,0
364,8,0,0,0,0,0,0,0,0,0,-1,1588,1016,0,0
371,8,0,0,0,0,0,0,0,0,0,-1,1595,1016,0,0
378,8,0,0,0,0,0,0,0,0,0,-1,1602,1016,0,0
385,8,0,0,0,0,0,0,0,0,0,-1,1609,1016,0,0
392,8,0,0,0,0,0,0,0,0,0,-1,1616,1016,0,0
399,8,0,0,0,0,0,0,0,0,0,-1,1623,1016,0,0
406,8,0,0,0,0,0,0,0,0,0,-1,1630,1016,0,0
413,8,0,0,0,0,0,0,0,0,0,-1,1637,1016,0,0
420,8,0,0,0,0,0,0,0,0,0,-1,1644,1016,0,0
427,8,0,0,0,0,0,0,0,0,0,-1,1651,1016,0,0
434,8,0,0,0,0,0,0,0,0,0,-1,1658,1016,0,0
441,8,0,0,0,0,0,0,0,0,0,-1,1665,1016,0,0
448,8,0,0,0,0,0,0,0,0,0,-1,1672,1016,0,0
455,8,0,0,0,0,0,0,0,0,0,-1,1679,1016,0,0
462,8,0,0,0,0,0,0,0,0,0,-1,1686,1016,0,0
469,8,0,0,0,0,0,0,0,0,0,-1,1693,1016,0,0
476,8,0,0,0,0,0,0,0,0,0,-1,1700,1016,0,0
483,8,0,0,0,0,0,0,0,0,0,-1,1707,1016,0,0
490,8,0,0,0,0,0,0,0,0,0,-1,1714,1016,0,0
497,8,0,0,0,0,0,0,0,0,0,-1,1721,1016,0,0
504,8,0,0,0,0,0,0,0,0,0,-1,1728,1016,0,0
511,8,0,0,0,0,0,0,0,0,0,-1,1735,1016,0,0
518,8,0,0,0,0,0,0,0,0,0,-1,1742,1016,0,0
525,8,0,0,0,0,0,0,0,0,0,-1,1749,1016,0,0
532,8,0,0,0,0,0,0,0,0,0,-1,1756,1016,0,0
539,8,0,0,0,0,0,0,0,0,0,-1,1763,1016,0,0
546,8,0,0,0,0,0,0,0,0,0,-1,1770,1016,0,0
553,8,0,0,0,0,0,0,0,0,0,-1,1777,1016,0,0
560,8,0,0,0,0,0,0,0,0,0,-1,1784,1016,0,0
567,8,0,0,0,0,0,0,0,0,0,-1,1791,1016,0,0
574,8,0,0,0,0,0,0,0,0,0,-1,1798,1016,0,0
581,8,0,0,0,0,0,0,0,0,0,-1,1805,1016,0,0
588,8,0,0,0,0,0,0,0,0,0,-1,1812,1016,0,0
595,8,0,0,0,0,0,0,0,0,0,-1,1819,1016,0,0
602,8,0,0,0,0,0,0,0,0,0,-1,1826,1016,0,0
609,8,0,0,0,0,0,0,0,0,0,-1,1833,1016,0,0
616,8,0,0,0,0,0,0,0,0,0,-1,1840,1016,0,0
623,8,0,0,0,0,0,0,0,0,0,-1,1847,1016,0,0
630,8,0,0,0,0,0,0,0,0,0,-1,1854,1016,0,0
637,8,0,0,0,0,0,0,0,0,0,-1,1861,1016,0,0
644,8,33.4775,2.71552,0.00380872,0.000556425,-0.00173884,0.00456331,-0.000198168,-0.409438,0.00311037,0.0446793,1868,1016,33.4776,-2.71552
651,8,33.651,2.82971,0.00293547,-9.01835e-05,-0.000910666,0.00318842,-0.00034313,-0.27093,0.00224873,0.040066,1875,1016,33.651,-2.82972
658,8,33.5996,2.58356,0.0020639,-0.000457354,-0.000238856,0.00208633,-0.000479783,-0.093627,0.00157536,0.0402884,1882,1016,33.5996,-2.58357
665,8,33.465,2.62006,0.00133198,-0.00058076,0.000309912,0.00138094,-0.000629721,0.156686,0.00118755,0.0427327,1889,1016,33.465,-2.62006
672,8,33.525,2.76129,0.000727475,-0.000363405,0.000976666,0.00130069,-0.000936617,0.530736,0.0012974,0.0406461,1896,1016,33.525,-2.76129
679,8,33.6714,2.73395,0.000159268,-1.18058e-05,0.00183528,0.001911,-0.00176354,0.762112,0.00212207,0.0402735,1903,1016,33.6714,-2.73393
686,8,33.7555,2.54968,-0.000267447,0.0002748,0.00262683,0.00264446,-0.00263711,0.836823,0.00304932,0.0411871,1910,1016,33.7555,-2.54968
693,8,33.708,2.68323,-0.000547276,0.000531962,0.00323167,0.00326876,-0.00328407,0.868124,0.00378328,0.0366785,1917,1016,33.708,-2.68321
700,8,33.6769,2.79144,-0.000767209,0.000736355,0.00359123,0.00365365,-0.0036845,0.888577,0.0042367,0.0284419,1924,1016,33.6769,-2.79147
707,8,33.6758,2.87115,-0.000977979,0.00100312,0.0039484,0.00408333,-0.00405818,0.908299,0.00470051,0.0242516,1931,1016,33.6758,-2.87114
714,8,33.6595,2.8205,-0.00130946,0.00132812,0.00417984,0.00439228,-0.00437362,0.938211,0.005061,0.0308427,1938,1016,33.6595,-2.8205
721,8,33.6345,3.60486,0,0,0,0,0,0,0,-1,1945,1016,33.6345,-3.60486
728,8,33.2407,4.52423,-0.0024216,0.00233787,0.00383701,0.0044732,-0.00455693,1.06297,0.00521362,0.0365609,1952,1016,33.2407,-4.52422
735,8,33.1896,4.91992,-0.00273307,0.00298007,0.00350973,0.00464878,-0.00440178,1.12698,0.00522599,0.024312,1959,1016,33.1895,-4.91993
742,8,33.28,4.90302,-0.00326871,0.00379558,0.00314452,0.0049925,-0.00446563,1.20709,0.00546348,0.0280072,1966,1016,33.28,-4.903
749,8,33.2775,5.04974,-0.00400712,0.00501309,0.00246141,0.00564104,-0.00463507,1.32101,0.00594238,0.0209723,1973,1016,33.2775,-5.04973
756,8,33.2378,5.03906,-0.00480834,0.00631173,0.00142765,0.0064921,-0.0049887,1.44513,0.00664736,0.0169997,1980,1016,33.2378,-5.03909
763,8,33.2279,5.08508,-0.00575488,0.00763873,-6.36508e-06,0.00763873,-0.00575488,-1.57032,0.00775826,0.0133841,1987,1016,33.2279,-5.08509
770,8,33.1665,5.08954,-0.00681392,0.00942102,-0.00164499,0.00958602,-0.00697892,-1.47083,0.00960317,0.0165642,1994,1016,33.1665,-5.08952
777,8,32.9801,5.15436,-0.0079173,0.0113257,-0.00347577,0.0119343,-0.00852586,-1.39747,0.0118672,0.0283067,2001,1016,32.9801,-5.15434
784,8,33.1516,5.28278,-0.00915266,0.012776,-0.0054331,0.0140483,-0.010425,-1.34077,0.0141812,0.0449109,2008,1016,33.1516,-5.28277
791,8,33.3152,5.09467,-0.0105299,0.0133529,-0.00792974,0.015746,-0.012923,-1.2777,0.0165788,0.0456233,2015,1016,33.3151,-5.09468
798,8,33.1147,5.22333,-0.0119396,0.0124295,-0.0113655,0.0169075,-0.0164176,-1.19548,0.0192409,0.0445102,2022,1016,33.1148,-5.22335
805,8,32.7217,5.07025,0,0,0,0,0,0,0,-1,2029,1016,32.7216,-5.07027
812,8,31.9941,3.69354,0,0,0,0,0,0,0,-1,2036,1016,31.9942,-3.69353
-700,1,0,0,0,0,0,0,0,0,0,-1,524,1023,0,0
-693,1,-25.4175,2.47949,0.0320887,-0.0329023,0.01272,0.0344895,-0.0353032,0.186552,0.0402958,0.0424598,531,1023,-25.4175,-2.47951
-686,1,-25.201,2.44745,0.0363088,-0.0295917,0.0143483,0.0392973,-0.0325802,0.205346,0.0415588,0.0468949,538,1023,-25.201,-2.44743
-679,1,-24.6521,2.03925,0,0,0,0,0,0,0,-1,545,1023,-24.6521,-2.03926
-672,1,-24.5045,2.15656,0.0319006,-0.0178872,0.0135288,0.0353393,-0.0213259,0.248903,0.0330474,0.0456325,552,1023,-24.5045,-2.15657
-665,1,-24.3185,2.23053,0.0272819,-0.0120061,0.0120851,0.0307016,-0.0154259,0.275764,0.0271142,0.0430458,559,1023,-24.3185,-2.23053
-658,1,-24.1713,2.22693,0.0222408,-0.00697939,0.0103423,0.0255309,-0.0102695,0.307999,0.0212862,0.0325032,566,1023,-24.1713,-2.22691
-651,1,-24.0582,2.27954,0.0173169,-0.00311282,0.00849429,0.0203872,-0.00618315,0.346846,0.0160545,0.0186689,573,1023,-24.0582,-2.27951
-644,1,-23.9268,2.41382,0.0129414,-0.000299021,0.00658072,0.0156557,-0.00301333,0.391204,0.0115731,0.0312305,580,1023,-23.9268,-2.41379
-637,1,-24.0502,2.3537,0.00897203,0.00207623,0.00424002,0.0109891,5.91679e-05,0.444035,0.00730642,0.0264606,587,1023,-24.0503,-2.35368
-630,1,-24.2189,2.3548,0.00604336,0.00317382,0.0019635,0.00704044,0.00217674,0.469874,0.00416231,0.0234836,594,1023,-24.2189,-2.35479
-623,1,-24.1521,2.37787,0.00405205,0.00366788,8.90863e-06,0.00405226,0.00366767,0.0231723,0.00258287,0.012681,601,1023,-24.1521,-2.37789
-616,1,-24.1775,2.32751,0.00288337,0.00368694,-0.00188355,0.00521109,0.00135923,-0.89048,0.00312124,0.014838,608,1023,-24.1775,-2.32752
-609,1,-24.1716,2.35309,0.00183315,0.00327621,-0.00314684,0.00578318,-0.000673817,-0.898094,0.00409856,0.0160509,615,1023,-24.1716,-2.35308
-602,1,-24.1232,2.39166,0.000817947,0.00270481,-0.00419759,0.00606368,-0.00254092,-0.895939,0.00510476,0.0131751,622,1023,-24.1232,-2.39166
-595,1,-24.0462,2.35083,0,0,0,0,0,0,0,-1,629,1023,-24.0462,-2.3508
-588,1,-24.0649,1.73523,0,0,0,0,0,0,0,-1,636,1023,-24.0649,-1.73521
-581,1,-23.9653,0.905945,0.000346401,0.00112138,-0.0049652,0.00571419,-0.00424641,-0.82434,0.00577153,0.0259411,643,1023,-23.9653,-0.905939
-574,1,-23.9402,0.927734,-4.04648e-05,0.000806138,-0.00470187,0.00510372,-0.00433805,-0.830291,0.00545718,0.0356031,650,1023,-23.9403,-0.927747
-567,1,-23.8736,0.867981,-0.000754612,0.000666455,-0.00398685,0.00400559,-0.00409375,-0.873582,0.00467625,0.0425881,657,1023,-23.8736,-0.867992
-560,1,-23.7855,0.883118,-0.00166203,0.000591463,-0.00289413,0.00257044,-0.00364101,-0.971031,0.00360389,0.0425802,664,1023,-23.7855,-0.883124
-553,1,-23.9305,0.969666,-0.00272232,0.000507584,-0.00150794,0.00110214,-0.00331688,-1.19522,0.00265599,0.041294,671,1023,-23.9305,-0.969685
-546,1,-24.1362,0.991028,-0.00378864,0.000299569,5.46661e-05,0.000300299,-0.00378937,1.55743,0.00263206,0.0431092,678,1023,-24.1362,-0.991055
-539,1,-24.1568,1.26917,-0.0045557,0.000255661,0.00122172,0.00054811,-0.00484814,1.33584,0.00342943,0.0444081,685,1023,-24.1568,-1.26916
-532,1,-23.9586,1.349,-0.00495521,0.000730238,0.000866188,0.000859275,-0.00508425,1.42291,0.00370925,0.0416663,692,1023,-23.9586,-1.34901
-525,1,0,0,0,0,0,0,0,0,0,-1,699,1023,0,0
-518,1,0,0,0,0,0,0,0,0,0,-1,706,1023,0,0
-511,1,0,0,0,0,0,0,0,0,0,-1,713,1023,0,0
-504,1,0,0,0,0,0,0,0,0,0,-1,720,1023,0,0
-497,1,0,0,0,0,0,0,0,0,0,-1,727,1023,0,0
-490,1,0,0,0,0,0,0,0,0,0,-1,734,1023,0,0
-483,1,0,0,0,0,0,0,0,0,0,-1,741,1023,0,0
-476,1,0,0,0,0,0,0,0,0,0,-1,748,1023,0,0
-469,1,0,0,0,0,0,0,0,0,0,-1,755,1023,0,0
-462,1,0,0,0,0,0,0,0,0,0,-1,762,1023,0,0
-455,1,0,0,0,0,0,0,0,0,0,-1,769,1023,0,0
-448,1,0,0,0,0,0,0,0,0,0,-1,776,1023,0,0
-441,1,0,0,0,0,0,0,0,0,0,-1,783,1023,0,0
-434,1,0,0,0,0,0,0,0,0,0,-1,790,1023,0,0
-427,1,0,0,0,0,0,0,0,0,0,-1,797,1023,0,0
-420,1,0,0,0,0,0,0,0,0,0,-1,804,1023,0,0
-413,1,0,0,0,0,0,0,0,0,0,-1,811,1023,0,0
-406,1,0,0,0,0,0,0,0,0,0,-1,818,1023,0,0
-399,1,0,0,0,0,0,0,0,0,0,-1,825,1023,0,0
-392,1,0,0,0,0,0,0,0,0,0,-1,832,1023,0,0
-385,1,0,0,0,0,0,0,0,0,0,-1,839,1023,0,0
-378,1,0,0,0,0,0,0,0,0,0,-1,846,1023,0,0
-371,1,0,0,0,0,0,0,0,0,0,-1,853,1023,0,0
-364,1,0,0,0,0,0,0,0,0,0,-1,860,1023,0,0
-357,1,0,0,0,0,0,0,0,0,0,-1,867,1023,0,0
-350,1,0,0,0,0,0,0,0,0,0,-1,874,1023,0,0
-343,1,0,0,0,0,0,0,0,0,0,-1,881,1023,0,0
-336,1,0,0,0,0,0,0,0,0,0,-1,888,1023,0,0
-329,1,0,0,0,0,0,0,0,0,0,-1,895,1023,0,0
-322,1,0,0,0,0,0,0,0,0,0,-1,902,1023,0,0
-315,1,0,0,0,0,0,0,0,0,0,-1,909,1023,0,0
-308,1,0,0,0,0,0,0,0,0,0,-1,916,1023,0,0
-301,1,0,0,0,0,0,0,0,0,0,-1,923,1023,0,0
-294,1,0,0,0,0,0,0,0,0,0,-1,930,1023,0,0
-287,1,0,0,0,0,0,0,0,0,0,-1,937,1023,0,0
-280,1,0,0,0,0,0,0,0,0,0,-1,944,1023,0,0
-273,1,0,0,0,0,0,0,0,0,0,-1,951,1023,0,0
-266,1,0,0,0,0,0,0,0,0,0,-1,958,1023,0,0
-259,1,0,0,0,0,0,0,0,0,0,-1,965,1023,0,0
-252,1,0,0,0,0,0,0,0,0,0,-1,972,1023,0,0
-245,1,0,0,0,0,0,0,0,0,0,-1,979,1023,0,0
-238,1,0,0,0,0,0,0,0,0,0,-1,986,1023,0,0
-231,1,0,0,0,0,0,0,0,0,0,-1,993,1023,0,0
-224,1,0,0,0,0,0,0,0,0,0,-1,1000,1023,0,0
-217,1,0,0,0,0,0,0,0,0,0,-1,1007,1023,0,0
-210,1,0,0,0,0,0,0,0,0,0,-1,1014,1023,0,0
-203,1,0,0,0,0,0,0,0,0,0,-1,1021,1023,0,0
-196,1,0,0,0,0,0,0,0,0,0,-1,1028,1023,0,0
-189,1,0,0,0,0,0,0,0,0,0,-1,1035,1023,0,0
-182,1,0,0,0,0,0,0,0,0,0,-1,1042,1023,0,0
-175,1,0,0,0,0,0,0,0,0,0,-1,1049,1023,0,0
-168,1,0,0,0,0,0,0,0,0,0,-1,1056,1023,0,0
-161,1,0,0,0,0,0,0,0,0,0,-1,1063,1023,0,0
-154,1,0,0,0,0,0,0,0,0,0,-1,1070,1023,0,0
-147,1,0,0,0,0,0,0,0,0,0,-1,1077,1023,0,0
-140,1,0,0,0,0,0,0,0,0,0,-1,1084,1023,0,0
-133,1,0,0,0,0,0,0,0,0,0,-1,1091,1023,0,0
-126,1,0,0,0,0,0,0,0,0,0,-1,1098,1023,0,0
-119,1,0,0,0,0,0,0,0,0,0,-1,1105,1023,0,0
-112,1,0,0,0,0,0,0,0,0,0,-1,1112,1023,0,0
-105,1,0,0,0,0,0,0,0,0,0,-1,1119,1023,0,0
-98,1,0,0,0,0,0,0,0,0,0,-1,1126,1023,0,0
-91,1,0,0,0,0,0,0,0,0,0,-1,1133,1023,0,0
-84,1,0,0,0,0,0,0,0,0,0,-1,1140,1023,0,0
-77,1,0,0,0,0,0,0,0,0,0,-1,1147,1023,0,0
-70,1,0,0,0,0,0,0,0,0,0,-1,1154,1023,0,0
-63,1,0,0,0,0,0,0,0,0,0,-1,1161,1023,0,0
-56,1,0,0,0,0,0,0,0,0,0,-1,1168,1023,0,0
-49,1,0,0,0,0,0,0,0,0,0,-1,1175,1023,0,0
-42,1,0,0,0,0,0,0,0,0,0,-1,1182,1023,0,0
-35,1,0,0,0,0,0,0,0,0,0,-1,1189,1023,0,0
-28,1,0,0,0,0,0,0,0,0,0,-1,1196,1023,0,0
-21,1,0,0,0,0,0,0,0,0,0,-1,1203,1023,0,0
-14,1,0,0,0,0,0,0,0,0,0,-1,1210,1023,0,0
-7,1,0,0,0,0,0,0,0,0,0,-1,1217,1023,0,0
0,1,0,0,0,0,0,0,0,0,0,-1,1224,1023,0,0
7,1,0,0,0,0,0,0,0,0,0,-1,1231,1023,0,0
14,1,0,0,0,0,0,0,0,0,0,-1,1238,1023,0,0
21,1,0,0,0,0,0,0,0,0,0,-1,1245,1023,0,0
28,1,0,0,0,0,0,0,0,0,0,-1,1252,1023,0,0
35,1,0,0,0,0,0,0,0,0,0,-1,1259,1023,0,0
42,1,0,0,0,0,0,0,0,0,0,-1,1266,1023,0,0
49,1,0,0,0,0,0,0,0,0,0,-1,1273,1023,0,0
56,1,0,0,0,0,0,0,0,0,0,-1,1280,1023,0,0
63,1,0,0,0,0,0,0,0,0,0,-1,1287,1023,0,0
70,1,0,0,0,0,0,0,0,0,0,-1,1294,1023,0,0
77,1,0,0,0,0,0,0,0,0,0,-1,1301,1023,0,0
84,1,0,0,0,0,0,0,0,0,0,-1,1308,1023,0,0
91,1,0,0,0,0,0,0,0,0,0,-1,1315,1023,0,0
98,1,0,0,0,0,0,0,0,0,0,-1,1322,1023,0,0
105,1,0,0,0,0,0,0,0,0,0,-1,1329,1023,0,0
112,1,0,0,0,0,0,0,0,0,0,-1,1336,1023,0,0
119,1,0,0,0,0,0,0,0,0,0,-1,1343,1023,0,0
126,1,0,0,0,0,0,0,0,0,0,-1,1350,1023,0,0
133,1,0,0,0,0,0,0,0,0,0,-1,1357,1023,0,0
140,1,0,0,0,0,0,0,0,0,0,-1,1364,1023,0,0
147,1,0,0,0,0,0,0,0,0,0,-1,1371,1023,0,0
154,1,0,0,0,0,0,0,0,0,0,-1,1378,1023,0,0
161,1,0,0,0,0,0,0,0,0,0,-1,1385,1023,0,0
168,1,0,0,0,0,0,0,0,0,0,-1,1392,1023,0,0
175,1,0,0,0,0,0,0,0,0,0,-1,1399,1023,0,0
182,1,0,0,0,0,0,0,0,0,0,-1,1406,1023,0,0
189,1,0,0,0,0,0,0,0,0,0,-1,1413,1023,0,0
196,1,0,0,0,0,0,0,0,0,0,-1,1420,1023,0,0
203,1,0,0,0,0,0,0,0,0,0,-1,1427,1023,0,0
210,1,0,0,0,0,0,0,0,0,0,-1,1434,1023,0,0
217,1,0,0,0,0,0,0,0,0,0,-1,1441,1023,0,0
224,1,0,0,0,0,0,0,0,0,0,-1,1448,1023,0,0
231,1,0,0,0,0,0,0,0,0,0,-1,1455,1023,0,0
238,1,0,0,0,0,0,0,0,0,0,-1,1462,1023,0,0
245,1,0,0,0,0,0,0,0,0,0,-1,1469,1023,0,0
252,1,0,0,0,0,0,0,0,0,0,-1,1476,1023,0,0
259,1,0,0,0,0,0,0,0,0,0,-1,1483,1023,0,0
266,1,0,0,0,0,0,0,0,0,0,-1,1490,1023,0,0
273,1,0,0,0,0,0,0,0,0,0,-1,1497,1023,0,0
280,1,0,0,0,0,0,0,0,0,0,-1,1504,1023,0,0
287,1,0,0,0,0,0,0,0,0,0,-1,1511,1023,0,0
294,1,0,0,0,0,0,0,0,0,0,-1,1518,1023,0,0
301,1,0,0,0,0,0,0,0,0,0,-1,1525,1023,0,0
308,1,0,0,0,0,0,0,0,0,0,-1,1532,1023,0,0
315,1,0,0,0,0,0,0,0,0,0,-1,1539,1023,0,0
322,1,0,0,0,0,0,0,0,0,0,-1,1546,1023,0,0
329,1,0,0,0,0,0,0,0,0,0,-1,1553,1023,0,0
336,1,0,0,0,0,0,0,0,0,0,-1,1560,1023,0,0
343,1,0,0,0,0,0,0,0,0,0,-1,1567,1023,0,0
350,1,0,0,0,0,0,0,0,0,0,-1,1574,1023,0,0
357,1,0,0,0,0,0,0,0,0,0,-1,1581,1023,0,0
364,1,0,0,0,0,0,0,0,0,0,-1,1588,1023,0,0
371,1,0,0,0,0,0,0,0,0,0,-1,1595,1023,0,0
378,1,0,0,0,0,0,0,0,0,0,-1,1602,1023,0,0
385,1,0,0,0,0,0,0,0,0,0,-1,1609,1023,0,0
392,1,0,0,0,0,0,0,0,0,0,-1,1616,1023,0,0
399,1,0,0,0,0,0,0,0,0,0,-1,1623,1023,0,0
406,1,0,0,0,0,0,0,0,0,0,-1,1630,1023,0,0
413,1,0,0,0,0,0,0,0,0,0,-1,1637,1023,0,0
420,1,0,0,0,0,0,0,0,0,0,-1,1644,1023,0,0
427,1,0,0,0,0,0,0,0,0,0,-1,1651,1023,0,0
434,1,0,0,0,0,0,0,0,0,0,-1,1658,1023,0,0
441,1,0,0,0,0,0,0,0,0,0,-1,1665,1023,0,0
448,1,0,0,0,0,0,0,0,0,0,-1,1672,1023,0,0
455,1,0,0,0,0,0,0,0,0,0,-1,1679,1023,0,0
462,1,0,0,0,0,0,0,0,0,0,-1,1686,1023,0,0
469,1,0,0,0,0,0,0,0,0,0,-1,1693,1023,0,0
476,1,0,0,0,0,0,0,0,0,0,-1,1700,1023,0,0
483,1,0,0,0,0,0,0,0,0,0,-1,1707,1023,0,0
490,1,0,0,0,0,0,0,0,0,0,-1,1714,1023,0,0
497,1,0,0,0,0,0,0,0,0,0,-1,1721,1023,0,0
504,1,0,0,0,0,0,0,0,0,0,-1,1728,1023,0,0
511,1,0,0,0,0,0,0,0,0,0,-1,1735,1023,0,0
518,1,0,0,0,0,0,0,0,0,0,-1,1742,1023,0,0
525,1,0,0,0,0,0,0,0,0,0,-1,1749,1023,0,0
532,1,0,0,0,0,0,0,0,0,0,-1,1756,1023,0,0
539,1,0,0,0,0,0,0,0,0,0,-1,1763,1023,0,0
546,1,0,0,0,0,0,0,0,0,0,-1,1770,1023,0,0
553,1,0,0,0,0,0,0,0,0,0,-1,1777,1023,0,0
560,1,0,0,0,0,0,0,0,0,0,-1,1784,1023,0,0
567,1,0,0,0,0,0,0,0,0,0,-1,1791,1023,0,0
574,1,0,0,0,0,0,0,0,0,0,-1,1798,1023,0,0
581,1,0,0,0,0,0,0,0,0,0,-1,1805,1023,0,0
588,1,0,0,0,0,0,0,0,0,0,-1,1812,1023,0,0
595,1,0,0,0,0,0,0,0,0,0,-1,1819,1023,0,0
602,1,0,0,0,0,0,0,0,0,0,-1,1826,1023,0,0
609,1,0,0,0,0,0,0,0,0,0,-1,1833,1023,0,0
616,1,0,0,0,0,0,0,0,0,0,-1,1840,1023,0,0
623,1,0,0,0,0,0,0,0,0,0,-1,1847,1023,0,0
630,1,0,0,0,0,0,0,0,0,0,-1,1854,1023,0,0
637,1,0,0,0,0,0,0,0,0,0,-1,1861,1023,0,0
644,1,0,0,0,0,0,0,0,0,0,-1,1868,1023,0,0
651,1,33.6487,2.75775,0.00239526,-0.000209226,-0.00136896,0.00298243,-0.000796394,-0.405184,0.00230018,0.0398734,1875,1023,33.6486,-2.75773
658,1,33.6694,2.63544,0.0017235,-0.00050679,-0.000676476,0.00191265,-0.000695933,-0.272638,0.00155972,0.0404508,1882,1023,33.6694,-2.63546
665,1,33.703,2.60352,0.0011375,-0.000592227,-0.000117728,0.00114548,-0.000600203,-0.067646,0.00102413,0.0413631,1889,1023,33.703,-2.60353
672,1,33.7399,2.73041,0.000650928,-0.000356667,0.000583286,0.000917867,-0.000623606,0.429194,0.000895358,0.0408725,1896,1023,33.7399,-2.73041
679,1,33.6136,2.75354,0.000142555,4.37794e-06,0.00151838,0.00159341,-0.00144648,0.762663,0.00175577,0.0400162,1903,1023,33.6136,-2.75353
686,1,33.6547,2.62305,-0.000302868,0.000286724,0.00240678,0.0024167,-0.00243284,0.846337,0.00279989,0.0375068,1910,1023,33.6546,-2.62305
693,1,33.6904,2.76349,-0.000624246,0.000523851,0.003121,0.00312315,-0.00322355,0.876347,0.00366442,0.0324027,1917,1023,33.6904,-2.7635
700,1,33.6517,2.85553,-0.000873498,0.000710793,0.00358618,0.00359128,-0.00375398,0.894097,0.00424113,0.0269686,1924,1023,33.6517,-2.85554
707,1,33.6185,2.83472,-0.00110698,0.000938497,0.00402648,0.0040701,-0.00423858,0.90977,0.00479735,0.0252697,1931,1023,33.6185,-2.83472
714,1,33.6051,2.7785,-0.00145394,0.00124377,0.00431907,0.00441972,-0.00462988,0.93675,0.00522526,0.0302051,1938,1023,33.6052,-2.77852
721,1,33.7239,2.67975,0,0,0,0,0,0,0,-1,1945,1023,33.7239,-2.67976
728,1,33.4385,4.64142,0,0,0,0,0,0,0,-1,1952,1023,33.4385,-4.6414
735,1,33.1899,4.97406,-0.00287877,0.00278907,0.00377614,0.00467641,-0.00476612,1.1073,0.00545173,0.0229067,1959,1023,33.19,-4.97405
742,1,33.2388,4.99011,-0.00325814,0.00371427,0.00333961,0.00505576,-0.00459963,1.18883,0.00557661,0.0261453,1966,1023,33.2388,-4.99013
749,1,33.2146,5.04449,-0.00379082,0.0050764,0.00255326,0.00575904,-0.00447346,1.30955,0.00592326,0.0235059,1973,1023,33.2146,-5.04448
756,1,33.2368,5.0578,-0.00429236,0.0065723,0.00138126,0.00674516,-0.00446522,1.4463,0.00651678,0.0163214,1980,1023,33.2368,-5.05778
763,1,33.2267,5.05182,-0.00488524,0.00815174,-0.000212945,0.00815522,-0.00488871,-1.55447,0.00760922,0.013806,1987,1023,33.2267,-5.05185
770,1,33.2145,5.06305,-0.00553436,0.0102342,-0.00207532,0.0105028,-0.00580292,-1.4421,0.00954358,0.0146884,1994,1023,33.2145,-5.06306
777,1,33.0752,5.02362,-0.00618973,0.0124739,-0.00420676,0.0133782,-0.0070941,-1.35904,0.0120039,0.0192615,2001,1023,33.0752,-5.02363
784,1,33.0341,5.04681,-0.00707479,0.0143047,-0.00642072,0.0160847,-0.00885486,-1.30035,0.0145992,0.0389765,2008,1023,33.0341,-5.04681
791,1,33.1394,5.25812,-0.00826956,0.0152561,-0.00907475,0.0183497,-0.0113632,-1.24224,0.0173121,0.0450466,2015,1023,33.1395,-5.25809
798,1,33.001,5.63885,-0.00973588,0.0146425,-0.0124916,0.0199065,-0.0149999,-1.17197,0.0202195,0.0476204,2022,1023,33.0009,-5.63884
805,1,32.863,5.94702,0,0,0,0,0,0,0,-1,2029,1023,32.863,-5.94704
812,1,32.1587,3.5025,0,0,0,0,0,0,0,-1,2036,1023,32.1588,-3.50249
-700,-6,0,0,0,0,0,0,0,0,0,-1,524,1030,0,0
-693,-6,-25.5112,2.35254,0.0152525,-0.0143986,0.00414081,0.0158199,-0.014966,0.136181,0.0177766,0.0411543,531,1030,-25.5112,-2.35257
-686,-6,-25.3167,2.44714,0.0228839,-0.0142347,0.00819247,0.0246117,-0.0159624,0.207849,0.0236022,0.0443324,538,1030,-25.3167,-2.44714
-679,-6,-25.1092,2.45203,0.0251799,-0.0118697,0.010156,0.0277812,-0.014471,0.250745,0.0247945,0.0486068,545,1030,-25.1092,-2.45201
-672,-6,-24.8333,2.39355,0.024466,-0.00858689,0.0107043,0.0276298,-0.0117507,0.28738,0.0233443,0.0476078,552,1030,-24.8333,-2.39357
-665,-6,-24.4648,2.32886,0.0220634,-0.00518536,0.0103006,0.0255191,-0.00864097,0.323678,0.0205091,0.0432142,559,1030,-24.4648,-2.32884
-658,-6,-24.2845,2.29199,0.0187342,-0.00219508,0.00927034,0.0222498,-0.00571071,0.362478,0.0170584,0.0380364,566,1030,-24.2845,-2.29203
-651,-6,-24.1639,1.99573,0.0150801,6.18886e-05,0.00788197,0.0184573,-0.00331534,0.40481,0.0135459,0.0376662,573,1030,-24.1639,-1.99573
-644,-6,-23.9837,2.38147,0.0116403,0.00162284,0.00629408,0.0146754,-0.00141224,0.449316,0.0102867,0.0498483,580,1030,-23.9837,-2.38145
-637,-6,-24.0865,2.38196,0.00834031,0.00292616,0.00411003,0.0105547,0.000711792,0.494182,0.0068116,0.0291453,587,1030,-24.0866,-2.38201
-630,-6,-24.1603,2.3136,0.00587599,0.00336922,0.0019697,0.00695728,0.00228794,0.502044,0.00409447,0.017894,594,1030,-24.1603,-2.31362
-623,-6,-24.1121,2.33069,0.00419492,0.00345456,0.000138372,0.00421994,0.00342954,0.178857,0.00259034,0.0141734,601,1030,-24.1121,-2.33073
-616,-6,-24.1161,2.3335,0.00312209,0.00326136,-0.0017433,0.00493642,0.00144703,-0.805359,0.00293022,0.0154013,608,1030,-24.1161,-2.33354
-609,-6,-24.116,2.36243,0.002039,0.002729,-0.00300689,0.00541062,-0.000642624,-0.842516,0.00383926,0.017207,615,1030,-24.1161,-2.36238
-602,-6,-24.1031,2.43274,0.000972172,0.00205844,-0.00409266,0.00564385,-0.00261323,-0.851368,0.00487309,0.0125074,622,1030,-24.1031,-2.43269
-595,-6,-23.9624,2.40808,0,0,0,0,0,0,0,-1,629,1030,-23.9624,-2.40808
-588,-6,-23.9737,1.57141,0,0,0,0,0,0,0,-1,636,1030,-23.9737,-1.57143
-581,-6,-23.9781,0.895386,0.000433599,0.000479467,-0.00491049,0.00536708,-0.00445401,-0.787733,0.00567837,0.0215047,643,1030,-23.9781,-0.895434
-574,-6,-23.9474,0.89502,4.40775e-05,0.000163267,-0.00466832,0.00477237,-0.00456503,-0.791781,0.0053914,0.0306034,650,1030,-23.9474,-0.895
-567,-6,-23.8778,0.899048,-0.000667876,3.82958e-05,-0.00401003,0.00371076,-0.00434034,-0.82931,0.00465304,0.0400983,657,1030,-23.8778,-0.899024
-560,-6,-23.7908,0.949707,-0.00157231,1.78746e-06,-0.00296408,0.00228154,-0.00385205,-0.915168,0.00357972,0.0423788,664,1030,-23.7908,-0.94968
-553,-6,-23.8551,1.01074,-0.00262303,-2.23329e-05,-0.00158457,0.000727144,-0.0033725,-1.12899,0.00252585,0.0414565,671,1030,-23.8551,-1.01079
-546,-6,-24.0784,1.073,-0.00368269,-0.000154664,4.83848e-05,-0.000154,-0.00368336,1.55709,0.00240588,0.0406886,678,1030,-24.0784,-1.07301
-539,-6,-24.1188,1.17664,-0.00442145,-0.000106867,0.00137773,0.000295538,-0.00482385,1.28662,0.0033188,0.0452247,685,1030,-24.1189,-1.17666
-532,-6,-24.1136,1.25427,-0.00472463,0.000407547,0.0012052,0.000676476,-0.00499356,1.35125,0.00357592,0.0443112,692,1030,-24.1136,-1.25425
-525,-6,0,0,0,0,0,0,0,0,0,-1,699,1030,0,0
-518,-6,0,0,0,0,0,0,0,0,0,-1,706,1030,0,0
-511,-6,0,0,0,0,0,0,0,0,0,-1,713,1030,0,0
-504,-6,0,0,0,0,0,0,0,0,0,-1,720,1030,0,0
-497,-6,0,0,0,0,0,0,0,0,0,-1,727,1030,0,0
-490,-6,0,0,0,0,0,0,0,0,0,-1,734,1030,0,0
-483,-6,0,0,0,0,0,0,0,0,0,-1,741,1030,0,0
-476,-6,0,0,0,0,0,0,0,0,0,-1,748,1030,0,0
-469,-6,0,0,0,0,0,0,0,0,0,-1,755,1030,0,0
-462,-6,0,0,0,0,0,0,0,0,0,-1,762,1030,0,0
-455,-6,0,0,0,0,0,0,0,0,0,-1,769,1030,0,0
-448,-6,0,0,0,0,0,0,0,0,0,-1,776,1030,0,0
-441,-6,0,0,0,0,0,0,0,0,0,-1,783,1030,0,0
-434,-6,0,0,0,0,0,0,0,0,0,-1,790,1030,0,0
-427,-6,0,0,0,0,0,0,0,0,0,-1,797,1030,0,0
-420,-6,0,0,0,0,0,0,0,0,0,-1,804,1030,0,0
-413,-6,0,0,0,0,0,0,0,0,0,-1,811,1030,0,0
-406,-6,0,0,0,0,0,0,0,0,0,-1,818,1030,0,0
-399,-6,0,0,0,0,0,0,0,0,0,-1,825,1030,0,0
-392,-6,0,0,0,0,0,0,0,0,0,-1,832,1030,0,0
-385,-6,0,0,0,0,0,0,0,0,0,-1,839,1030,0,0
-378,-6,0,0,0,0,0,0,0,0,0,-1,846,1030,0,0
-371,-6,0,0,0,0,0,0,0,0,0,-1,853,1030,0,0
-364,-6,0,0,0,0,0,0,0,0,0,-1,860,1030,0,0
-357,-6,0,0,0,0,0,0,0,0,0,-1,867,1030,0,0
-350,-6,0,0,0,0,0,0,0,0,0,-1,874,1030,0,0
-343,-6,0,0,0,0,0,0,0,0,0,-1,881,1030,0,0
-336,-6,0,0,0,0,0,0,0,0,0,-1,888,1030,0,0
-329,-6,0,0,0,0,0,0,0,0,0,-1,895,1030,0,0
-322,-6,0,0,0,0,0,0,0,0,0,-1,902,1030,0,0
-315,-6,0,0,0,0,0,0,0,0,0,-1,909,1030,0,0
-308,-6,0,0,0,0,0,0,0,0,0,-1,916,1030,0,0
-301,-6,0,0,0,0,0,0,0,0,0,-1,923,1030,0,0
-294,-6,0,0,0,0,0,0,0,0,0,-1,930,1030,0,0
-287,-6,0,0,0,0,0,0,0,0,0,-1,937,1030,0,0
-280,-6,0,0,0,0,0,0,0,0,0,-1,944,1030,0,0
-273,-6,0,0,0,0,0,0,0,0,0,-1,951,1030,0,0
-266,-6,0,0,0,0,0,0,0,0,0,-1,958,1030,0,0
-259,-6,0,0,0,0,0,0,0,0,0,-1,965,1030,0,0
-252,-6,0,0,0,0,0,0,0,0,0,-1,972,1030,0,0
-245,-6,0,0,0,0,0,0,0,0,0,-1,979,1030,0,0
-238,-6,0,0,0,0,0,0,0,0,0,-1,986,1030,0,0
-231,-6,0,0,0,0,0,0,0,0,0,-1,993,1030,0,0
-224,-6,0,0,0,0,0,0,0,0,0,-1,1000,1030,0,0
-217,-6,0,0,0,0,0,0,0,0,0,-1,1007,1030,0,0
-210,-6,0,0,0,0,0,0,0,0,0,-1,1014,1030,0,0
-203,-6,0,0,0,0,0,0,0,0,0,-1,1021,1030,0,0
-196,-6,0,0,0,0,0,0,0,0,0,-1,1028,1030,0,0
-189,-6,0,0,0,0,0,0,0,0,0,-1,1035,1030,0,0
-182,-6,0,0,0,0,0,0,0,0,0,-1,1042,1030,0,0
-175,-6,0,0,0,0,0,0,0,0,0,-1,1049,1030,0,0
-168,-6,0,0,0,0,0,0,0,0,0,-1,1056,1030,0,0
-161,-6,0,0,0,0,0,0,0,0,0,-1,1063,1030,0,0
-154,-6,0,0,0,0,0,0,0,0,0,-1,1070,1030,0,0
-147,-6,0,0,0,0,0,0,0,0,0,-1,1077,1030,0,0
-140,-6,0,0,0,0,0,0,0,0,0,-1,1084,1030,0,0
-133,-6,0,0,0,0,0,0,0,0,0,-1,1091,1030,0,0
-126,-6,0,0,0,0,0,0,0,0,0,-1,1098,1030,0,0
-119,-6,0,0,0,0,0,0,0,0,0,-1,1105,1030,0,0
-112,-6,0,0,0,0,0,0,0,0,0,-1,1112,1030,0,0
-105,-6,0,0,0,0,0,0,0,0,0,-1,1119,1030,0,0
-98,-6,0,0,0,0,0,0,0,0,0,-1,1126,1030,0,0
-91,-6,0,0,0,0,0,0,0,0,0,-1,1133,1030,0,0
-84,-6,0,0,0,0,0,0,0,0,0,-1,1140,1030,0,0
-77,-6,0,0,0,0,0,0,0,0,0,-1,1147,1030,0,0
-70,-6,0,0,0,0,0,0,0,0,0,-1,1154,1030,0,0
-63,-6,0,0,0,0,0,0,0,0,0,-1,1161,1030,0,0
-56,-6,0,0,0,0,0,0,0,0,0,-1,1168,1030,0,0
-49,-6,0,0,0,0,0,0,0,0,0,-1,1175,1030,0,0
-42,-6,0,0,0,0,0,0,0,0,0,-1,1182,1030,0,0
-35,-6,0,0,0,0,0,0,0,0,0,-1,1189,1030,0,0
-28,-6,0,0,0,0,0,0,0,0,0,-1,1196,1030,0,0
-21,-6,0,0,0,0,0,0,0,0,0,-1,1203,1030,0,0
-14,-6,0,0,0,0,0,0,0,0,0,-1,1210,1030,0,0
-7,-6,0,0,0,0,0,0,0,0,0,-1,1217,1030,0,0
0,-6,0,0,0,0,0,0,0,0,0,-1,1224,1030,0,0
7,-6,0,0,0,0,0,0,0,0,0,-1,1231,1030,0,0
14,-6,0,0,0,0,0,0,0,0,0,-1,1238,1030,0,0
21,-6,0,0,0,0,0,0,0,0,0,-1,1245,1030,0,0
28,-6,0,0,0,0,0,0,0,0,0,-1,1252,1030,0,0
35,-6,0,0,0,0,0,0,0,0,0,-1,1259,1030,0,0
42,-6,0,0,0,0,0,0,0,0,0,-1,1266,1030,0,0
49,-6,0,0,0,0,0,0,0,0,0,-1,1273,1030,0,0
56,-6,0,0,0,0,0,0,0,0,0,-1,1280,1030,0,0
63,-6,0,0,0,0,0,0,0,0,0,-1,1287,1030,0,0
70,-6,0,0,0,0,0,0,0,0,0,-1,1294,1030,0,0
77,-6,0,0,0,0,0,0,0,0,0,-1,1301,1030,0,0
84,-6,0,0,0,0,0,0,0,0,0,-1,1308,1030,0,0
91,-6,0,0,0,0,0,0,0,0,0,-1,1315,1030,0,0
98,-6,0,0,0,0,0,0,0,0,0,-1,1322,1030,0,0
105,-6,0,0,0,0,0,0,0,0,0,-1,1329,1030,0,0
112,-6,0,0,0,0,0,0,0,0,0,-1,1336,1030,0,0
119,-6,0,0,0,0,0,0,0,0,0,-1,1343,1030,0,0
126,-6,0,0,0,0,0,0,0,0,0,-1,1350,1030,0,0
133,-6,0,0,0,0,0,0,0,0,0,-1,1357,1030,0,0
140,-6,0,0,0,0,0,0,0,0,0,-1,1364,1030,0,0
147,-6,0,0,0,0,0,0,0,0,0,-1,1371,1030,0,0
154,-6,0,0,0,0,0,0,0,0,0,-1,1378,1030,0,0
161,-6,0,0,0,0,0,0,0,0,0,-1,1385,1030,0,0
168,-6,0,0,0,0,0,0,0,0,0,-1,1392,1030,0,0
175,-6,0,0,0,0,0,0,0,0,0,-1,1399,1030,0,0
182,-6,0,0,0,0,0,0,0,0,0,-1,1406,1030,0,0
189,-6,0,0,0,0,0,0,0,0,0,-1,1413,1030,0,0
196,-6,0,0,0,0,0,0,0,0,0,-1,1420,1030,0,0
203,-6,0,0,0,0,0,0,0,0,0,-1,1427,1030,0,0
210,-6,0,0,0,0,0,0,0,0,0,-1,1434,1030,0,0
217,-6,0,0,0,0,0,0,0,0,0,-1,1441,1030,0,0
224,-6,0,0,0,0,0,0,0,0,0,-1,1448,1030,0,0
231,-6,0,0,0,0,0,0,0,0,0,-1,1455,1030,0,0
238,-6,0,0,0,0,0,0,0,0,0,-1,1462,1030,0,0
245,-6,0,0,0,0,0,0,0,0,0,-1,1469,1030,0,0
252,-6,0,0,0,0,0,0,0,0,0,-1,1476,1030,0,0
259,-6,0,0,0,0,0,0,0,0,0,-1,1483,1030,0,0
266,-6,0,0,0,0,0,0,0,0,0,-1,1490,1030,0,0
273,-6,0,0,0,0,0,0,0,0,0,-1,1497,1030,0,0
280,-6,0,0,0,0,0,0,0,0,0,-1,1504,1030,0,0
287,-6,0,0,0,0,0,0,0,0,0,-1,1511,1030,0,0
294,-6,0,0,0,0,0,0,0,0,0,-1,1518,1030,0,0
301,-6,0,0,0,0,0,0,0,0,0,-1,1525,1030,0,0
308,-6,0,0,0,0,0,0,0,0,0,-1,1532,1030,0,0
315,-6,0,0,0,0,0,0,0,0,0,-1,1539,1030,0,0
322,-6,0,0,0,0,0,0,0,0,0,-1,1546,1030,0,0
329,-6,0,0,0,0,0,0,0,0,0,-1,1553,1030,0,0
336,-6,0,0,0,0,0,0,0,0,0,-1,1560,1030,0,0
343,-6,0,0,0,0,0,0,0,0,0,-1,1567,1030,0,0
350,-6,0,0,0,0,0,0,0,0,0,-1,1574,1030,0,0
357,-6,0,0,0,0,0,0,0,0,0,-1,1581,1030,0,0
364,-6,0,0,0,0,0,0,0,0,0,-1,1588,1030,0,0
371,-6,0,0,0,0,0,0,0,0,0,-1,1595,1030,0,0
378,-6,0,0,0,0,0,0,0,0,0,-1,1602,1030,0,0
385,-6,0,0,0,0,0,0,0,0,0,-1,1609,1030,0,0
392,-6,0,0,0,0,0,0,0,0,0,-1,1616,1030,0,0
399,-6,0,0,0,0,0,0,0,0,0,-1,1623,1030,0,0
406,-6,0,0,0,0,0,0,0,0,0,-1,1630,1030,0,0
413,-6,0,0,0,0,0,0,0,0,0,-1,1637,1030,0,0
420,-6,0,0,0,0,0,0,0,0,0,-1,1644,1030,0,0
427,-6,0,0,0,0,0,0,0,0,0,-1,1651,1030,0,0
434,-6,0,0,0,0,0,0,0,0,0,-1,1658,1030,0,0
441,-6,0,0,0,0,0,0,0,0,0,-1,1665,1030,0,0
448,-6,0,0,0,0,0,0,0,0,0,-1,1672,1030,0,0
455,-6,0,0,0,0,0,0,0,0,0,-1,1679,1030,0,0
462,-6,0,0,0,0,0,0,0,0,0,-1,1686,1030,0,0
469,-6,0,0,0,0,0,0,0,0,0,-1,1693,1030,0,0
476,-6,0,0,0,0,0,0,0,0,0,-1,1700,1030,0,0
483,-6,0,0,0,0,0,0,0,0,0,-1,1707,1030,0,0
490,-6,0,0,0,0,0,0,0,0,0,-1,1714,1030,0,0
497,-6,0,0,0,0,0,0,0,0,0,-1,1721,1030,0,0
504,-6,0,0,0,0,0,0,0,0,0,-1,1728,1030,0,0
511,-6,0,0,0,0,0,0,0,0,0,-1,1735,1030,0,0
518,-6,0,0,0,0,0,0,0,0,0,-1,1742,1030,0,0
525,-6,0,0,0,0,0,0,0,0,0,-1,1749,1030,0,0
532,-6,0,0,0,0,0,0,0,0,0,-1,1756,1030,0,0
539,-6,0,0,0,0,0,0,0,0,0,-1,1763,1030,0,0
546,-6,0,0,0,0,0,0,0,0,0,-1,1770,1030,0,0
553,-6,0,0,0,0,0,0,0,0,0,-1,1777,1030,0,0
560,-6,0,0,0,0,0,0,0,0,0,-1,1784,1030,0,0
567,-6,0,0,0,0,0,0,0,0,0,-1,1791,1030,0,0
574,-6,0,0,0,0,0,0,0,0,0,-1,1798,1030,0,0
581,-6,0,0,0,0,0,0,0,0,0,-1,1805,1030,0,0
588,-6,0,0,0,0,0,0,0,0,0,-1,1812,1030,0,0
595,-6,0,0,0,0,0,0,0,0,0,-1,1819,1030,0,0
602,-6,0,0,0,0,0,0,0,0,0,-1,1826,1030,0,0
609,-6,0,0,0,0,0,0,0,0,0,-1,1833,1030,0,0
616,-6,0,0,0,0,0,0,0,0,0,-1,1840,1030,0,0
623,-6,0,0,0,0,0,0,0,0,0,-1,1847,1030,0,0
630,-6,0,0,0,0,0,0,0,0,0,-1,1854,1030,0,0
637,-6,0,0,0,0,0,0,0,0,0,-1,1861,1030,0,0
644,-6,0,0,0,0,0,0,0,0,0,-1,1868,1030,0,0
651,-6,33.6735,2.97412,0.00184439,-0.000116817,-0.00151594,0.00266924,-0.000941669,-0.498316,0.00216283,0.0383558,1875,1030,33.6735,-2.97411
658,-6,33.6603,2.72253,0.00129688,-0.000437435,-0.00085646,0.00164853,-0.000789083,-0.389596,0.00143622,0.0417943,1882,1030,33.6603,-2.72253
665,-6,33.7188,2.58032,0.000806372,-0.000546619,-0.000329946,0.000882545,-0.000622792,-0.226891,0.000873409,0.0443173,1889,1030,33.7188,-2.58036
672,-6,33.8461,2.68201,0.000408832,-0.000359482,0.0003685,0.000556999,-0.000507649,0.3823,0.000614895,0.0431181,1896,1030,33.8461,-2.68198
679,-6,33.7351,2.80334,-4.57769e-05,-3.93844e-05,0.00134354,0.00130097,-0.00138613,0.786588,0.00155165,0.0425108,1903,1030,33.7351,-2.80333
686,-6,33.6001,2.80408,-0.000498902,0.000202824,0.00229416,0.00217279,-0.00246887,0.861279,0.00268168,0.0367567,1910,1030,33.6001,-2.8041
693,-6,33.6161,2.83838,-0.000842282,0.000395558,0.0030842,0.00292233,-0.00336905,0.88442,0.00363538,0.0319497,1917,1030,33.6161,-2.83833
700,-6,33.6266,2.9187,-0.00111027,0.000551482,0.00363431,0.00344868,-0.00400747,0.897777,0.00430884,0.0281841,1924,1030,33.6266,-2.91865
707,-6,33.5844,2.85828,-0.00134855,0.00072733,0.00412624,0.00394417,-0.00456539,0.908615,0.00491736,0.0282668,1931,1030,33.5844,-2.85831
714,-6,33.6219,2.60596,-0.00169083,0.001006,0.00445527,0.00431244,-0.00499726,0.932344,0.0053798,0.039692,1938,1030,33.622,-2.60595
721,-6,33.1499,4.56067,0,0,0,0,0,0,0,-1,1945,1030,33.1499,-4.56064
728,-6,33.1608,4.9093,0,0,0,0,0,0,0,-1,1952,1030,33.1608,-4.90927
735,-6,33.2261,4.9502,-0.00300514,0.00247443,0.00401296,0.00459368,-0.00512439,1.08492,0.00561352,0.0234766,1959,1030,33.226,-4.95014
742,-6,33.2754,4.96558,-0.00323028,0.00347799,0.00353004,0.00499329,-0.00474558,1.16532,0.00562334,0.0206502,1966,1030,33.2754,-4.96562
749,-6,33.2147,5.04004,-0.00346296,0.00506999,0.00264074,0.00582111,-0.00421408,1.29368,0.00581853,0.0174693,1973,1030,33.2147,-5.04006
756,-6,33.2545,5.01355,-0.00356941,0.0068328,0.00136219,0.00700822,-0.00374483,1.44272,0.00630286,0.0147869,1980,1030,33.2545,-5.01352
763,-6,33.2092,4.95959,-0.00364765,0.00879358,-0.000384351,0.00880544,-0.00365951,-1.53994,0.00739824,0.0156029,1987,1030,33.2092,-4.95956
770,-6,33.1769,4.95581,-0.00365291,0.0113706,-0.00246715,0.0117653,-0.00404769,-1.41213,0.00948518,0.0141705,1994,1030,33.1769,-4.95579
777,-6,33.1348,4.97253,-0.00345255,0.0142807,-0.00494644,0.0155671,-0.00473897,-1.31636,0.0122668,0.0151977,2001,1030,33.1348,-4.97256
784,-6,33.0155,5.11633,-0.00336639,0.0170742,-0.00754775,0.0195591,-0.00585133,-1.25274,0.0153658,0.0362082,2008,1030,33.0155,-5.1163
791,-6,32.8209,5.38416,-0.00345371,0.0192607,-0.010598,0.0234374,-0.00763047,-1.19538,0.0186949,0.0472005,2015,1030,32.8209,-5.38413
798,-6,32.6079,4.75415,-0.00366274,0.020292,-0.0144371,0.0270732,-0.010444,-1.13167,0.0223586,0.0480995,2022,1030,32.6078,-4.75418
805,-6,32.491,3.99719,-0.00413315,0.0194262,-0.0192707,0.0302324,-0.0149393,-1.05973,0.0265734,0.0437041,2029,1030,32.4909,-3.99717
812,-6,32.2527,3.39392,-0.00551852,0.0154026,-0.0254106,0.0324215,-0.0225374,-0.980658,0.0319011,0.0413886,2036,1030,32.2527,-3.39396
-700,-13,0,0,0,0,0,0,0,0,0,-1,524,1037,0,0
-693,-13,-25.3074,2.59741,0,0,0,0,0,0,0,-1,531,1037,-25.3074,-2.59743
-686,-13,-20.022,-0.682983,0,0,0,0,0,0,0,-1,538,1037,-20.022,0.682942
-679,-13,-25.329,2.54541,0.0173371,-0.000669496,0.00657111,0.0194801,-0.00281244,0.315241,0.0140186,0.0466963,545,1037,-25.329,-2.54541
-672,-13,-25.208,2.42957,0.0185425,0.000197154,0.00812768,0.0216254,-0.00288566,0.362534,0.0154688,0.0483178,552,1037,-25.208,-2.42951
-665,-13,-24.7221,1.46509,0,0,0,0,0,0,0,-1,559,1037,-24.7221,-1.46513
-658,-13,-24.3439,1.64868,0.0158395,0.00249582,0.00805466,0.0196267,-0.00129135,0.439511,0.0135355,0.0463946,566,1037,-24.3439,-1.64865
-651,-13,-24.1869,1.75598,0.0132231,0.00322851,0.00706427,0.0168789,-0.000427349,0.47756,0.0113977,0.0424691,573,1037,-24.1869,-1.75604
-644,-13,-23.9799,2.09863,0.0105671,0.00356341,0.00579089,0.0138326,0.000297872,0.513459,0.00912407,0.0312266,580,1037,-23.9798,-2.09865
-637,-13,-24.0065,2.24475,0.0078223,0.0038473,0.00378316,0.0101083,0.00156133,0.543536,0.00628339,0.0214919,587,1037,-24.0065,-2.24472
-630,-13,-24.0743,2.21753,0.00570059,0.00363644,0.00177882,0.00672506,0.00261197,0.522531,0.00391482,0.0140232,594,1037,-24.0743,-2.21754
-623,-13,-24.0615,2.29834,0.00422271,0.00330012,8.80236e-05,0.00423103,0.00329179,0.0942756,0.00256557,0.0135712,601,1037,-24.0615,-2.29832
-616,-13,-24.0444,2.35767,0.00322364,0.00287396,-0.001715,0.00477269,0.00132491,-0.7346,0.00284492,0.0126901,608,1037,-24.0444,-2.35767
-609,-13,-24.0131,2.39197,0.00213503,0.00224812,-0.00295879,0.00515091,-0.000767759,-0.794952,0.00371639,0.0173847,615,1037,-24.0131,-2.39199
-602,-13,-24.0357,2.45789,0.00105954,0.00153823,-0.00405209,0.00535803,-0.00276027,-0.814898,0.00476642,0.0118596,622,1037,-24.0357,-2.45785
-595,-13,-23.9803,2.44568,0.000440829,0.000790553,-0.00470159,0.00532053,-0.00408915,-0.803986,0.00544816,0.0232504,629,1037,-23.9803,-2.44565
-588,-13,-23.955,0.852905,0,0,0,0,0,0,0,-1,636,1037,-23.955,-0.852881
-581,-13,-23.9462,0.859131,0.000435241,1.58879e-05,-0.0048689,0.00509898,-0.00464785,-0.763879,0.00562934,0.0156121,643,1037,-23.9462,-0.859162
-574,-13,-23.9272,0.914795,4.90558e-05,-0.000285291,-0.00465351,0.0045384,-0.00477463,-0.767444,0.00537746,0.0325433,650,1037,-23.9272,-0.914818
-567,-13,-23.9405,1.01941,-0.000644291,-0.00039785,-0.00405136,0.00353217,-0.00457431,-0.800601,0.00469315,0.0404583,657,1037,-23.9405,-1.01937
-560,-13,-23.9294,0.911133,-0.00151896,-0.000423712,-0.00304957,0.00212702,-0.00406969,-0.874238,0.0036358,0.0420916,664,1037,-23.9294,-0.911152
-553,-13,-23.9286,0.940796,-0.00252433,-0.000456431,-0.00167323,0.000476529,-0.00345729,-1.06215,0.00247902,0.0419206,671,1037,-23.9286,-0.9408
-546,-13,-23.9181,0.947266,-0.00354032,-0.000639317,3.8553e-05,-0.000638805,-0.00354083,1.55751,0.00217906,0.0393781,678,1037,-23.9181,-0.947312
-539,-13,-24.0057,0.901855,-0.00422855,-0.000713073,0.00155379,-0.000124768,-0.00481686,1.20885,0.00317047,0.0410465,685,1037,-24.0058,-0.901861
-532,-13,-24.0947,1.04724,-0.00444508,-0.00046574,0.00158448,8.80845e-05,-0.0049989,1.23454,0.00336235,0.0443458,692,1037,-24.0947,-1.04723
-525,-13,0,0,0,0,0,0,0,0,0,-1,699,1037,0,0
-518,-13,0,0,0,0,0,0,0,0,0,-1,706,1037,0,0
-511,-13,0,0,0,0,0,0,0,0,0,-1,713,1037,0,0
-504,-13,0,0,0,0,0,0,0,0,0,-1,720,1037,0,0
-497,-13,0,0,0,0,0,0,0,0,0,-1,727,1037,0,0
-490,-13,0,0,0,0,0,0,0,0,0,-1,734,1037,0,0
-483,-13,0,0,0,0,0,0,0,0,0,-1,741,1037,0,0
-476,-13,0,0,0,0,0,0,0,0,0,-1,748,1037,0,0
-469,-13,0,0,0,0,0,0,0,0,0,-1,755,1037,0,0
-462,-13,0,0,0,0,0,0,0,0,0,-1,762,1037,0,0
-455,-13,0,0,0,0,0,0,0,0,0,-1,769,1037,0,0
-448,-13,0,0,0,0,0,0,0,0,0,-1,776,1037,0,0
-441,-13,0,0,0,0,0,0,0,0,0,-1,783,1037,0,0
-434,-13,0,0,0,0,0,0,0,0,0,-1,790,1037,0,0
-427,-13,0,0,0,0,0,0,0,0,0,-1,797,1037,0,0
-420,-13,0,0,0,0,0,0,0,0,0,-1,804,1037,0,0
-413,-13,0,0,0,0,0,0,0,0,0,-1,811,1037,0,0
-406,-13,0,0,0,0,0,0,0,0,0,-1,818,1037,0,0
-399,-13,0,0,0,0,0,0,0,0,0,-1,825,1037,0,0
-392,-13,0,0,0,0,0,0,0,0,0,-1,832,1037,0,0
-385,-13,0,0,0,0,0,0,0,0,0,-1,839,1037,0,0
-378,-13,0,0,0,0,0,0,0,0,0,-1,846,1037,0,0
-371,-13,0,0,0,0,0,0,0,0,0,-1,853,1037,0,0
-364,-13,0,0,0,0,0,0,0,0,0,-1,860,1037,0,0
-357,-13,0,0,0,0,0,0,0,0,0,-1,867,1037,0,0
-350,-13,0,0,0,0,0,0,0,0,0,-1,874,1037,0,0
-343,-13,0,0,0,0,0,0,0,0,0,-1,881,1037,0,0
-336,-13,0,0,0,0,0,0,0,0,0,-1,888,1037,0,0
-329,-13,0,0,0,0,0,0,0,0,0,-1,895,1037,0,0
-322,-13,0,0,0,0,0,0,0,0,0,-1,902,1037,0,0
-315,-13,0,0,0,0,0,0,0,0,0,-1,909,1037,0,0
-308,-13,0,0,0,0,0,0,0,0,0,-1,916,1037,0,0
-301,-13,0,0,0,0,0,0,0,0,0,-1,923,1037,0,0
-294,-13,0,0,0,0,0,0,0,0,0,-1,930,1037,0,0
-287,-13,0,0,0,0,0,0,0,0,0,-1,937,1037,0,0
-280,-13,0,0,0,0,0,0,0,0,0,-1,944,1037,0,0
-273,-13,0,0,0,0,0,0,0,0,0,-1,951,1037,0,0
-266,-13,0,0,0,0,0,0,0,0,0,-1,958,1037,0,0
-259,-13,0,0,0,0,0,0,0,0,0,-1,965,1037,0,0
-252,-13,0,0,0,0,0,0,0,0,0,-1,972,1037,0,0
-245,-13,0,0,0,0,0,0,0,0,0,-1,979,1037,0,0
-238,-13,0,0,0,0,0,0,0,0,0,-1,986,1037,0,0
-231,-13,0,0,0,0,0,0,0,0,0,-1,993,1037,0,0
-224,-13,0,0,0,0,0,0,0,0,0,-1,1000,1037,0,0
-217,-13,0,0,0,0,0,0,0,0,0,-1,1007,1037,0,0
-210,-13,0,0,0,0,0,0,0,0,0,-1,1014,1037,0,0
-203,-13,0,0,0,0,0,0,0,0,0,-1,1021,1037,0,0
-196,-13,0,0,0,0,0,0,0,0,0,-1,1028,1037,0,0
-189,-13,0,0,0,0,0,0,0,0,0,-1,1035,1037,0,0
-182,-13,0,0,0,0,0,0,0,0,0,-1,1042,1037,0,0
-175,-13,0,0,0,0,0,0,0,0,0,-1,1049,1037,0,0
-168,-13,0,0,0,0,0,0,0,0,0,-1,1056,1037,0,0
-161,-13,0,0,0,0,0,0,0,0,0,-1,1063,1037,0,0
-154,-13,0,0,0,0,0,0,0,0,0,-1,1070,1037,0,0
-147,-13,0,0,0,0,0,0,0,0,0,-1,1077,1037,0,0
-140,-13,0,0,0,0,0,0,0,0,0,-1,1084,1037,0,0
-133,-13,0,0,0,0,0,0,0,0,0,-1,1091,1037,0,0
-126,-13,0,0,0,0,0,0,0,0,0,-1,1098,1037,0,0
-119,-13,0,0,0,0,0,0,0,0,0,-1,1105,1037,0,0
-112,-13,0,0,0,0,0,0,0,0,0,-1,1112,1037,0,0
-105,-13,0,0,0,0,0,0,0,0,0,-1,1119,1037,0,0
-98,-13,0,0,0,0,0,0,0,0,0,-1,1126,1037,0,0
-91,-13,0,0,0,0,0,0,0,0,0,-1,1133,1037,0,0
-84,-13,0,0,0,0,0,0,0,0,0,-1,1140,1037,0,0
-77,-13,0,0,0,0,0,0,0,0,0,-1,1147,1037,0,0
-70,-13,0,0,0,0,0,0,0,0,0,-1,1154,1037,0,0
-63,-13,0,0,0,0,0,0,0,0,0,-1,1161,1037,0,0
-56,-13,0,0,0,0,0,0,0,0,0,-1,1168,1037,0,0
-49,-13,0,0,0,0,0,0,0,0,0,-1,1175,1037,0,0
-42,-13,0,0,0,0,0,0,0,0,0,-1,1182,1037,0,0
-35,-13,0,0,0,0,0,0,0,0,0,-1,1189,1037,0,0
-28,-13,0,0,0,0,0,0,0,0,0,-1,1196,1037,0,0
-21,-13,0,0,0,0,0,0,0,0,0,-1,1203,1037,0,0
-14,-13,0,0,0,0,0,0,0,0,0,-1,1210,1037,0,0
-7,-13,0,0,0,0,0,0,0,0,0,-1,1217,1037,0,0
0,-13,0,0,0,0,0,0,0,0,0,-1,1224,1037,0,0
7,-13,0,0,0,0,0,0,0,0,0,-1,1231,1037,0,0
14,-13,0,0,0,0,0,0,0,0,0,-1,1238,1037,0,0
21,-13,0,0,0,0,0,0,0,0,0,-1,1245,1037,0,0
28,-13,0,0,0,0,0,0,0,0,0,-1,1252,1037,0,0
35,-13,0,0,0,0,0,0,0,0,0,-1,1259,1037,0,0
42,-13,0,0,0,0,0,0,0,0,0,-1,1266,1037,0,0
49,-13,0,0,0,0,0,0,0,0,0,-1,1273,1037,0,0
56,-13,0,0,0,0,0,0,0,0,0,-1,1280,1037,0,0
63,-13,0,0,0,0,0,0,0,0,0,-1,1287,1037,0,0
70,-13,0,0,0,0,0,0,0,0,0,-1,1294,1037,0,0
77,-13,0,0,0,0,0,0,0,0,0,-1,1301,1037,0,0
84,-13,0,0,0,0,0,0,0,0,0,-1,1308,1037,0,0
91,-13,0,0,0,0,0,0,0,0,0,-1,1315,1037,0,0
98,-13,0,0,0,0,0,0,0,0,0,-1,1322,1037,0,0
105,-13,0,0,0,0,0,0,0,0,0,-1,1329,1037,0,0
112,-13,0,0,0,0,0,0,0,0,0,-1,1336,1037,0,0
119,-13,0,0,0,0,0,0,0,0,0,-1,1343,1037,0,0
126,-13,0,0,0,0,0,0,0,0,0,-1,1350,1037,0,0
133,-13,0,0,0,0,0,0,0,0,0,-1,1357,1037,0,0
140,-13,0,0,0,0,0,0,0,0,0,-1,1364,1037,0,0
147,-13,0,0,0,0,0,0,0,0,0,-1,1371,1037,0,0
154,-13,0,0,0,0,0,0,0,0,0,-1,1378,1037,0,0
161,-13,0,0,0,0,0,0,0,0,0,-1,1385,1037,0,0
168,-13,0,0,0,0,0,0,0,0,0,-1,1392,1037,0,0
175,-13,0,0,0,0,0,0,0,0,0,-1,1399,1037,0,0
182,-13,0,0,0,0,0,0,0,0,0,-1,1406,1037,0,0
189,-13,0,0,0,0,0,0,0,0,0,-1,1413,1037,0,0
196,-13,0,0,0,0,0,0,0,0,0,-1,1420,1037,0,0
203,-13,0,0,0,0,0,0,0,0,0,-1,1427,1037,0,0
210,-13,0,0,0,0,0,0,0,0,0,-1,1434,1037,0,0
217,-13,0,0,0,0,0,0,0,0,0,-1,1441,1037,0,0
224,-13,0,0,0,0,0,0,0,0,0,-1,1448,1037,0,0
231,-13,0,0,0,0,0,0,0,0,0,-1,1455,1037,0,0
238,-13,0,0,0,0,0,0,0,0,0,-1,1462,1037,0,0
245,-13,0,0,0,0,0,0,0,0,0,-1,1469,1037,0,0
252,-13,0,0,0,0,0,0,0,0,0,-1,1476,1037,0,0
259,-13,0,0,0,0,0,0,0,0,0,-1,1483,1037,0,0
266,-13,0,0,0,0,0,0,0,0,0,-1,1490,1037,0,0
273,-13,0,0,0,0,0,0,0,0,0,-1,1497,1037,0,0
280,-13,0,0,0,0,0,0,0,0,0,-1,1504,1037,0,0
287,-13,0,0,0,0,0,0,0,0,0,-1,1511,1037,0,0
294,-13,0,0,0,0,0,0,0,0,0,-1,1518,1037,0,0
301,-13,0,0,0,0,0,0,0,0,0,-1,1525,1037,0,0
308,-13,0,0,0,0,0,0,0,0,0,-1,1532,1037,0,0
315,-13,0,0,0,0,0,0,0,0,0,-1,1539,1037,0,0
322,-13,0,0,0,0,0,0,0,0,0,-1,1546,1037,0,0
329,-13,0,0,0,0,0,0,0,0,0,-1,1553,1037,0,0
336,-13,0,0,0,0,0,0,0,0,0,-1,1560,1037,0,0
343,-13,0,0,0,0,0,0,0,0,0,-1,1567,1037,0,0
350,-13,0,0,0,0,0,0,0,0,0,-1,1574,1037,0,0
357,-13,0,0,0,0,0,0,0,0,0,-1,1581,1037,0,0
364,-13,0,0,0,0,0,0,0,0,0,-1,1588,1037,0,0
371,-13,0,0,0,0,0,0,0,0,0,-1,1595,1037,0,0
378,-13,0,0,0,0,0,0,0,0,0,-1,1602,1037,0,0
385,-13,0,0,0,0,0,0,0,0,0,-1,1609,1037,0,0
392,-13,0,0,0,0,0,0,0,0,0,-1,1616,1037,0,0
399,-13,0,0,0,0,0,0,0,0,0,-1,1623,1037,0,0
406,-13,0,0,0,0,0,0,0,0,0,-1,1630,1037,0,0
413,-13,0,0,0,0,0,0,0,0,0,-1,1637,1037,0,0
420,-13,0,0,0,0,0,0,0,0,0,-1,1644,1037,0,0
427,-13,0,0,0,0,0,0,0,0,0,-1,1651,1037,0,0
434,-13,0,0,0,0,0,0,0,0,0,-1,1658,1037,0,0
441,-13,0,0,0,0,0,0,0,0,0,-1,1665,1037,0,0
448,-13,0,0,0,0,0,0,0,0,0,-1,1672,1037,0,0
455,-13,0,0,0,0,0,0,0,0,0,-1,1679,1037,0,0
462,-13,0,0,0,0,0,0,0,0,0,-1,1686,1037,0,0
469,-13,0,0,0,0,0,0,0,0,0,-1,1693,1037,0,0
476,-13,0,0,0,0,0,0,0,0,0,-1,1700,1037,0,0
483,-13,0,0,0,0,0,0,0,0,0,-1,1707,1037,0,0
490,-13,0,0,0,0,0,0,0,0,0,-1,1714,1037,0,0
497,-13,0,0,0,0,0,0,0,0,0,-1,1721,1037,0,0
504,-13,0,0,0,0,0,0,0,0,0,-1,1728,1037,0,0
511,-13,0,0,0,0,0,0,0,0,0,-1,1735,1037,0,0
518,-13,0,0,0,0,0,0,0,0,0,-1,1742,1037,0,0
525,-13,0,0,0,0,0,0,0,0,0,-1,1749,1037,0,0
532,-13,0,0,0,0,0,0,0,0,0,-1,1756,1037,0,0
539,-13,0,0,0,0,0,0,0,0,0,-1,1763,1037,0,0
546,-13,0,0,0,0,0,0,0,0,0,-1,1770,1037,0,0
553,-13,0,0,0,0,0,0,0,0,0,-1,1777,1037,0,0
560,-13,0,0,0,0,0,0,0,0,0,-1,1784,1037,0,0
567,-13,0,0,0,0,0,0,0,0,0,-1,1791,1037,0,0
574,-13,0,0,0,0,0,0,0,0,0,-1,1798,1037,0,0
581,-13,0,0,0,0,0,0,0,0,0,-1,1805,1037,0,0
588,-13,0,0,0,0,0,0,0,0,0,-1,1812,1037,0,0
595,-13,0,0,0,0,0,0,0,0,0,-1,1819,1037,0,0
602,-13,0,0,0,0,0,0,0,0,0,-1,1826,1037,0,0
609,-13,0,0,0,0,0,0,0,0,0,-1,1833,1037,0,0
616,-13,0,0,0,0,0,0,0,0,0,-1,1840,1037,0,0
623,-13,0,0,0,0,0,0,0,0,0,-1,1847,1037,0,0
630,-13,0,0,0,0,0,0,0,0,0,-1,1854,1037,0,0
637,-13,0,0,0,0,0,0,0,0,0,-1,1861,1037,0,0
644,-13,0,0,0,0,0,0,0,0,0,-1,1868,1037,0,0
651,-13,33.6478,2.90759,0.00138121,0.000744367,-0.00116852,0.00227392,-0.000148344,-0.652378,0.00156774,0.0385815,1875,1037,33.6478,-2.90759
658,-13,33.5702,2.87939,0.000955304,0.000198309,-0.000618251,0.00130172,-0.000148104,-0.510725,0.000921157,0.0448496,1882,1037,33.5702,-2.87939
665,-13,33.5231,2.69092,0.000547965,-7.90208e-05,-0.000193768,0.000603015,-0.000134071,-0.276809,0.000453357,0.0468214,1889,1037,33.5231,-2.69087
672,-13,33.6899,2.69482,0.000226396,-6.09631e-05,0.000439422,0.000545032,-0.000379599,0.62739,0.000536677,0.0391513,1896,1037,33.6899,-2.69481
679,-13,33.7192,2.83386,-0.000178449,0.000120344,0.00138816,0.00136712,-0.00142523,0.839003,0.00161228,0.0398301,1903,1037,33.7193,-2.83385
686,-13,33.5648,2.8136,-0.000639783,0.000247743,0.00233978,0.00218547,-0.00257751,0.879115,0.00275301,0.0398334,1910,1037,33.5648,-2.81361
693,-13,33.5944,2.76758,-0.00100704,0.000341514,0.00314662,0.00288529,-0.00355081,0.890945,0.0037225,0.0354563,1917,1037,33.5944,-2.76763
700,-13,33.6204,2.83276,-0.00129578,0.000431255,0.00373728,0.00340348,-0.00426801,0.898933,0.0044385,0.0332069,1924,1037,33.6203,-2.83276
707,-13,33.6129,2.84314,-0.00154682,0.000528635,0.00423661,0.00385276,-0.00487095,0.905505,0.00504806,0.0310947,1931,1037,33.6129,-2.84308
714,-13,33.5979,2.88147,-0.00189139,0.000752339,0.00456828,0.00418615,-0.00532521,0.926231,0.0055045,0.0348355,1938,1037,33.5979,-2.88149
721,-13,33.3809,3.92542,-0.00245015,0.00109738,0.00462909,0.0042809,-0.00563367,0.968359,0.00574192,0.0458044,1945,1037,33.3809,-3.92537
728,-13,33.2816,5.02039,0,0,0,0,0,0,0,-1,1952,1037,33.2816,-5.02037
735,-13,33.2716,5.026,-0.00309091,0.00212042,0.0041681,0.00443029,-0.00540078,1.06475,0.00568518,0.021321,1959,1037,33.2716,-5.02599
742,-13,33.2496,5.01868,-0.00315482,0.00320201,0.00361903,0.00484021,-0.00479301,1.14573,0.00556176,0.013213,1966,1037,33.2497,-5.01871
749,-13,33.254,5.00366,-0.00306232,0.00502496,0.00261353,0.00579605,-0.00383341,1.2839,0.00559793,0.0181583,1973,1037,33.254,-5.0037
756,-13,33.2373,4.98743,-0.00275579,0.0070807,0.00123235,0.00723274,-0.00290784,1.44804,0.00602955,0.0139504,1980,1037,33.2372,-4.98747
763,-13,33.21,4.93848,-0.00232546,0.00943021,-0.000660855,0.00946724,-0.00236249,-1.51482,0.00722884,0.0182016,1987,1037,33.2099,-4.93853
770,-13,33.1769,4.91736,-0.00167039,0.0125348,-0.0029691,0.0131304,-0.002266,-1.37282,0.00959849,0.0164346,1994,1037,33.1769,-4.91733
777,-13,33.1238,4.88806,-0.000569219,0.0161929,-0.00578078,0.0179932,-0.0023695,-1.26889,0.0128583,0.0130249,2001,1037,33.1238,-4.88811
784,-13,33.0844,4.8468,0.000586573,0.0200645,-0.00875672,0.0234224,-0.00277131,-1.20463,0.0166159,0.0280179,2008,1037,33.0844,-4.84678
791,-13,32.8496,4.78516,0.00172772,0.0236093,-0.0121761,0.0290379,-0.00370094,-1.1514,0.0207028,0.045259,2015,1037,32.8497,-4.78519
798,-13,32.7205,4.63135,0.0029367,0.026471,-0.0163936,0.0348834,-0.0054757,-1.09668,0.0252793,0.0439191,2022,1037,32.7204,-4.63141
805,-13,32.6189,4.42651,0.0041047,0.0280609,-0.0215655,0.0407515,-0.00858591,-1.0389,0.030436,0.0411833,2029,1037,32.619,-4.42655
812,-13,32.4939,4.18701,0.00461126,0.0273252,-0.0279238,0.0461131,-0.0141767,-0.978538,0.0363998,0.0442442,2036,1037,32.4938,-4.18706
-700,-20,-19.3362,2.66138,0,0,0,0,0,0,0,-1,524,1044,-19.3363,-2.66138
-693,-20,-19.8549,-0.522339,0,0,0,0,0,0,0,-1,531,1044,-19.8548,0.522381
-686,-20,-20.6427,-0.533325,0,0,0,0,0,0,0,-1,538,1044,-20.6427,0.533298
-679,-20,-21.3615,0.00769043,0,0,0,0,0,0,0,-1,545,1044,-21.3615,-0.00769131
-672,-20,-25.5461,0.501709,0,0,0,0,0,0,0,-1,552,1044,-25.5461,-0.501688
-665,-20,-25.0433,1.11414,0.0136773,0.00746892,0.0073245,0.0185283,0.00261798,0.584966,0.0115786,0.0473097,559,1044,-25.0433,-1.1141
-658,-20,-24.468,1.4801,0.0128884,0.00691717,0.00717169,0.0176711,0.00213443,0.588158,0.0111376,0.0475168,566,1044,-24.468,-1.48012
-651,-20,-23.8488,2.08057,0.0112284,0.00627345,0.0064056,0.0156189,0.00188292,0.600875,0.00984519,0.0404474,573,1044,-23.8488,-2.08058
-644,-20,-23.8858,2.01807,0.00933434,0.00546161,0.00534357,0.0130816,0.00171438,0.611571,0.00820947,0.0274922,580,1044,-23.8858,-2.01802
-637,-20,-23.9395,2.07227,0.00710152,0.00479243,0.00341867,0.00955534,0.00233862,0.622553,0.00575142,0.0175634,587,1044,-23.9394,-2.07229
-630,-20,-23.9714,2.19629,0.00525112,0.00399338,0.00143033,0.00618473,0.00305977,0.578284,0.00357082,0.0143559,594,1044,-23.9714,-2.19628
-623,-20,-23.9899,2.29089,0.00391101,0.00327309,-0.000243748,0.00399349,0.00319062,-0.326263,0.00243915,0.0140728,601,1044,-23.9899,-2.29085
-616,-20,-23.987,2.35706,0.00292903,0.00265491,-0.00205171,0.00484825,0.000735687,-0.752045,0.00301699,0.0134653,608,1044,-23.987,-2.357
-609,-20,-23.9822,2.39563,0.00180539,0.00195978,-0.00332839,0.00521186,-0.0014467,-0.796993,0.00404401,0.0151679,615,1044,-23.9822,-2.39561
-602,-20,-23.9797,2.47253,0.00071401,0.00121989,-0.00444337,0.00541751,-0.00348361,-0.81383,0.00517934,0.0116588,622,1044,-23.9797,-2.47257
-595,-20,-23.9752,2.47314,2.16335e-05,0.000614665,-0.00510546,0.00543222,-0.00479592,-0.814405,0.00590902,0.0190122,629,1044,-23.9752,-2.47314
-588,-20,-23.9421,0.943359,0,0,0,0,0,0,0,-1,636,1044,-23.9421,-0.943416
-581,-20,-23.9094,0.883789,-1.31934e-05,-0.000102046,-0.00526483,0.00520739,-0.00532263,-0.781179,0.00607963,0.0212835,643,1044,-23.9094,-0.883818
-574,-20,-23.8771,1.10535,-0.000346843,-0.000327073,-0.00503689,0.00469994,-0.00537385,-0.786379,0.00582044,0.0370143,650,1044,-23.8771,-1.10532
-567,-20,-23.8665,1.27515,-0.000938032,-0.000380183,-0.00441417,0.00376386,-0.00508208,-0.816951,0.00512607,0.0441171,657,1044,-23.8664,-1.2751
-560,-20,-23.8797,1.11548,-0.00164276,-0.000335695,-0.00333937,0.00241349,-0.00439195,-0.88203,0.00398408,0.0433364,664,1044,-23.8797,-1.11549
-553,-20,-23.8552,0.914917,-0.0023954,-0.000286737,-0.00180738,0.000751356,-0.00343349,-1.04944,0.00257623,0.0426932,671,1044,-23.8552,-0.914932
-546,-20,-23.8727,0.885742,-0.00308179,-0.000382774,0.000184237,-0.000370256,-0.00309431,1.50296,0.0019512,0.0413244,678,1044,-23.8727,-0.88574
-539,-20,-23.9353,0.883789,-0.00339768,-0.000398018,0.00208583,0.000671229,-0.00446693,1.0971,0.00322506,0.0407057,685,1044,-23.9353,-0.883735
-532,-20,-23.9672,0.855347,-0.00327484,-0.00016834,0.00240171,0.00113862,-0.0045818,1.07243,0.00349643,0.042877,692,1044,-23.9672,-0.855369
-525,-20,0,0,0,0,0,0,0,0,0,-1,699,1044,0,0
-518,-20,0,0,0,0,0,0,0,0,0,-1,706,1044,0,0
-511,-20,0,0,0,0,0,0,0,0,0,-1,713,1044,0,0
-504,-20,0,0,0,0,0,0,0,0,0,-1,720,1044,0,0
-497,-20,0,0,0,0,0,0,0,0,0,-1,727,1044,0,0
-490,-20,0,0,0,0,0,0,0,0,0,-1,734,1044,0,0
-483,-20,0,0,0,0,0,0,0,0,0,-1,741,1044,0,0
-476,-20,0,0,0,0,0,0,0,0,0,-1,748,1044,0,0
-469,-20,0,0,0,0,0,0,0,0,0,-1,755,1044,0,0
-462,-20,0,0,0,0,0,0,0,0,0,-1,762,1044,0,0
-455,-20,0,0,0,0,0,0,0,0,0,-1,769,1044,0,0
-448,-20,0,0,0,0,0,0,0,0,0,-1,776,1044,0,0
-441,-20,0,0,0,0,0,0,0,0,0,-1,783,1044,0,0
-434,-20,0,0,0,0,0,0,0,0,0,-1,790,1044,0,0
-427,-20,0,0,0,0,0,0,0,0,0,-1,797,1044,0,0
-420,-20,0,0,0,0,0,0,0,0,0,-1,804,1044,0,0
-413,-20,0,0,0,0,0,0,0,0,0,-1,811,1044,0,0
-406,-20,0,0,0,0,0,0,0,0,0,-1,818,1044,0,0
-399,-20,0,0,0,0,0,0,0,0,0,-1,825,1044,0,0
-392,-20,0,0,0,0,0,0,0,0,0,-1,832,1044,0,0
-385,-20,0,0,0,0,0,0,0,0,0,-1,839,1044,0,0
-378,-20,0,0,0,0,0,0,0,0,0,-1,846,1044,0,0
-371,-20,0,0,0,0,0,0,0,0,0,-1,853,1044,0,0
-364,-20,0,0,0,0,0,0,0,0,0,-1,860,1044,0,0
-357,-20,0,0,0,0,0,0,0,0,0,-1,867,1044,0,0
-350,-20,0,0,0,0,0,0,0,0,0,-1,874,1044,0,0
-343,-20,0,0,0,0,0,0,0,0,0,-1,881,1044,0,0
-336,-20,0,0,0,0,0,0,0,0,0,-1,888,1044,0,0
-329,-20,0,0,0,0,0,0,0,0,0,-1,895,1044,0,0
-322,-20,0,0,0,0,0,0,0,0,0,-1,902,1044,0,0
-315,-20,0,0,0,0,0,0,0,0,0,-1,909,1044,0,0
-308,-20,0,0,0,0,0,0,0,0,0,-1,916,1044,0,0
-301,-20,0,0,0,0,0,0,0,0,0,-1,923,1044,0,0
-294,-20,0,0,0,0,0,0,0,0,0,-1,930,1044,0,0
-287,-20,0,0,0,0,0,0,0,0,0,-1,937,1044,0,0
-280,-20,0,0,0,0,0,0,0,0,0,-1,944,1044,0,0
-273,-20,0,0,0,0,0,0,0,0,0,-1,951,1044,0,0
-266,-20,0,0,0,0,0,0,0,0,0,-1,958,1044,0,0
-259,-20,0,0,0,0,0,0,0,0,0,-1,965,1044,0,0
-252,-20,0,0,0,0,0,0,0,0,0,-1,972,1044,0,0
-245,-20,0,0,0,0,0,0,0,0,0,-1,979,1044,0,0
-238,-20,0,0,0,0,0,0,0,0,0,-1,986,1044,0,0
-231,-20,0,0,0,0,0,0,0,0,0,-1,993,1044,0,0
-224,-20,0,0,0,0,0,0,0,0,0,-1,1000,1044,0,0
-217,-20,0,0,0,0,0,0,0,0,0,-1,1007,1044,0,0
-210,-20,0,0,0,0,0,0,0,0,0,-1,1014,1044,0,0
-203,-20,0,0,0,0,0,0,0,0,0,-1,1021,1044,0,0
-196,-20,0,0,0,0,0,0,0,0,0,-1,1028,1044,0,0
-189,-20,0,0,0,0,0,0,0,0,0,-1,1035,1044,0,0
-182,-20,0,0,0,0,0,0,0,0,0,-1,1042,1044,0,0
-175,-20,0,0,0,0,0,0,0,0,0,-1,1049,1044,0,0
-168,-20,0,0,0,0,0,0,0,0,0,-1,1056,1044,0,0
-161,-20,0,0,0,0,0,0,0,0,0,-1,1063,1044,0,0
-154,-20,0,0,0,0,0,0,0,0,0,-1,1070,1044,0,0
-147,-20,0,0,0,0,0,0,0,0,0,-1,1077,1044,0,0
-140,-20,0,0,0,0,0,0,0,0,0,-1,1084,1044,0,0
-133,-20,0,0,0,0,0,0,0,0,0,-1,1091,1044,0,0
-126,-20,0,0,0,0,0,0,0,0,0,-1,1098,1044,0,0
-119,-20,0,0,0,0,0,0,0,0,0,-1,1105,1044,0,0
-112,-20,0,0,0,0,0,0,0,0,0,-1,1112,1044,0,0
-105,-20,0,0,0,0,0,0,0,0,0,-1,1119,1044,0,0
-98,-20,0,0,0,0,0,0,0,0,0,-1,1126,1044,0,0
-91,-20,0,0,0,0,0,0,0,0,0,-1,1133,1044,0,0
-84,-20,0,0,0,0,0,0,0,0,0,-1,1140,1044,0,0
-77,-20,0,0,0,0,0,0,0,0,0,-1,1147,1044,0,0
-70,-20,0,0,0,0,0,0,0,0,0,-1,1154,1044,0,0
-63,-20,0,0,0,0,0,0,0,0,0,-1,1161,1044,0,0
-56,-20,0,0,0,0,0,0,0,0,0,-1,1168,1044,0,0
-49,-20,0,0,0,0,0,0,0,0,0,-1,1175,1044,0,0
-42,-20,0,0,0,0,0,0,0,0,0,-1,1182,1044,0,0
-35,-20,0,0,0,0,0,0,0,0,0,-1,1189,1044,0,0
-28,-20,0,0,0,0,0,0,0,0,0,-1,1196,1044,0,0
-21,-20,0,0,0,0,0,0,0,0,0,-1,1203,1044,0,0
-14,-20,0,0,0,0,0,0,0,0,0,-1,1210,1044,0,0
-7,-20,0,0,0,0,0,0,0,0,0,-1,1217,1044,0,0
0,-20,0,0,0,0,0,0,0,0,0,-1,1224,1044,0,0
7,-20,0,0,0,0,0,0,0,0,0,-1,1231,1044,0,0
14,-20,0,0,0,0,0,0,0,0,0,-1,1238,1044,0,0
21,-20,0,0,0,0,0,0,0,0,0,-1,1245,1044,0,0
28,-20,0,0,0,0,0,0,0,0,0,-1,1252,1044,0,0
35,-20,0,0,0,0,0,0,0,0,0,-1,1259,1044,0,0
42,-20,0,0,0,0,0,0,0,0,0,-1,1266,1044,0,0
49,-20,0,0,0,0,0,0,0,0,0,-1,1273,1044,0,0
56,-20,0,0,0,0,0,0,0,0,0,-1,1280,1044,0,0
63,-20,0,0,0,0,0,0,0,0,0,-1,1287,1044,0,0
70,-20,0,0,0,0,0,0,0,0,0,-1,1294,1044,0,0
77,-20,0,0,0,0,0,0,0,0,0,-1,1301,1044,0,0
84,-20,0,0,0,0,0,0,0,0,0,-1,1308,1044,0,0
91,-20,0,0,0,0,0,0,0,0,0,-1,1315,1044,0,0
98,-20,0,0,0,0,0,0,0,0,0,-1,1322,1044,0,0
105,-20,0,0,0,0,0,0,0,0,0,-1,1329,1044,0,0
112,-20,0,0,0,0,0,0,0,0,0,-1,1336,1044,0,0
119,-20,0,0,0,0,0,0,0,0,0,-1,1343,1044,0,0
126,-20,0,0,0,0,0,0,0,0,0,-1,1350,1044,0,0
133,-20,0,0,0,0,0,0,0,0,0,-1,1357,1044,0,0
140,-20,0,0,0,0,0,0,0,0,0,-1,1364,1044,0,0
147,-20,0,0,0,0,0,0,0,0,0,-1,1371,1044,0,0
154,-20,0,0,0,0,0,0,0,0,0,-1,1378,1044,0,0
161,-20,0,0,0,0,0,0,0,0,0,-1,1385,1044,0,0
168,-20,0,0,0,0,0,0,0,0,0,-1,1392,1044,0,0
175,-20,0,0,0,0,0,0,0,0,0,-1,1399,1044,0,0
182,-20,0,0,0,0,0,0,0,0,0,-1,1406,1044,0,0
189,-20,0,0,0,0,0,0,0,0,0,-1,1413,1044,0,0
196,-20,0,0,0,0,0,0,0,0,0,-1,1420,1044,0,0
203,-20,0,0,0,0,0,0,0,0,0,-1,1427,1044,0,0
210,-20,0,0,0,0,0,0,0,0,0,-1,1434,1044,0,0
217,-20,0,0,0,0,0,0,0,0,0,-1,1441,1044,0,0
224,-20,0,0,0,0,0,0,0,0,0,-1,1448,1044,0,0
231,-20,0,0,0,0,0,0,0,0,0,-1,1455,1044,0,0
238,-20,0,0,0,0,0,0,0,0,0,-1,1462,1044,0,0
245,-20,0,0,0,0,0,0,0,0,0,-1,1469,1044,0,0
252,-20,0,0,0,0,0,0,0,0,0,-1,1476,1044,0,0
259,-20,0,0,0,0,0,0,0,0,0,-1,1483,1044,0,0
266,-20,0,0,0,0,0,0,0,0,0,-1,1490,1044,0,0
273,-20,0,0,0,0,0,0,0,0,0,-1,1497,1044,0,0
280,-20,0,0,0,0,0,0,0,0,0,-1,1504,1044,0,0
287,-20,0,0,0,0,0,0,0,0,0,-1,1511,1044,0,0
294,-20,0,0,0,0,0,0,0,0,0,-1,1518,1044,0,0
301,-20,0,0,0,0,0,0,0,0,0,-1,1525,1044,0,0
308,-20,0,0,0,0,0,0,0,0,0,-1,1532,1044,0,0
315,-20,0,0,0,0,0,0,0,0,0,-1,1539,1044,0,0
322,-20,0,0,0,0,0,0,0,0,0,-1,1546,1044,0,0
329,-20,0,0,0,0,0,0,0,0,0,-1,1553,1044,0,0
336,-20,0,0,0,0,0,0,0,0,0,-1,1560,1044,0,0
343,-20,0,0,0,0,0,0,0,0,0,-1,1567,1044,0,0
350,-20,0,0,0,0,0,0,0,0,0,-1,1574,1044,0,0
357,-20,0,0,0,0,0,0,0,0,0,-1,1581,1044,0,0
364,-20,0,0,0,0,0,0,0,0,0,-1,1588,1044,0,0
371,-20,0,0,0,0,0,0,0,0,0,-1,1595,1044,0,0
378,-20,0,0,0,0,0,0,0,0,0,-1,1602,1044,0,0
385,-20,0,0,0,0,0,0,0,0,0,-1,1609,1044,0,0
392,-20,0,0,0,0,0,0,0,0,0,-1,1616,1044,0,0
399,-20,0,0,0,0,0,0,0,0,0,-1,1623,1044,0,0
406,-20,0,0,0,0,0,0,0,0,0,-1,1630,1044,0,0
413,-20,0,0,0,0,0,0,0,0,0,-1,1637,1044,0,0
420,-20,0,0,0,0,0,0,0,0,0,-1,1644,1044,0,0
427,-20,0,0,0,0,0,0,0,0,0,-1,1651,1044,0,0
434,-20,0,0,0,0,0,0,0,0,0,-1,1658,1044,0,0
441,-20,0,0,0,0,0,0,0,0,0,-1,1665,1044,0,0
448,-20,0,0,0,0,0,0,0,0,0,-1,1672,1044,0,0
455,-20,0,0,0,0,0,0,0,0,0,-1,1679,1044,0,0
462,-20,0,0,0,0,0,0,0,0,0,-1,1686,1044,0,0
469,-20,0,0,0,0,0,0,0,0,0,-1,1693,1044,0,0
476,-20,0,0,0,0,0,0,0,0,0,-1,1700,1044,0,0
483,-20,0,0,0,0,0,0,0,0,0,-1,1707,1044,0,0
490,-20,0,0,0,0,0,0,0,0,0,-1,1714,1044,0,0
497,-20,0,0,0,0,0,0,0,0,0,-1,1721,1044,0,0
504,-20,0,0,0,0,0,0,0,0,0,-1,1728,1044,0,0
511,-20,0,0,0,0,0,0,0,0,0,-1,1735,1044,0,0
518,-20,0,0,0,0,0,0,0,0,0,-1,1742,1044,0,0
525,-20,0,0,0,0,0,0,0,0,0,-1,1749,1044,0,0
532,-20,0,0,0,0,0,0,0,0,0,-1,1756,1044,0,0
539,-20,0,0,0,0,0,0,0,0,0,-1,1763,1044,0,0
546,-20,0,0,0,0,0,0,0,0,0,-1,1770,1044,0,0
553,-20,0,0,0,0,0,0,0,0,0,-1,1777,1044,0,0
560,-20,0,0,0,0,0,0,0,0,0,-1,1784,1044,0,0
567,-20,0,0,0,0,0,0,0,0,0,-1,1791,1044,0,0
574,-20,0,0,0,0,0,0,0,0,0,-1,1798,1044,0,0
581,-20,0,0,0,0,0,0,0,0,0,-1,1805,1044,0,0
588,-20,0,0,0,0,0,0,0,0,0,-1,1812,1044,0,0
595,-20,0,0,0,0,0,0,0,0,0,-1,1819,1044,0,0
602,-20,0,0,0,0,0,0,0,0,0,-1,1826,1044,0,0
609,-20,0,0,0,0,0,0,0,0,0,-1,1833,1044,0,0
616,-20,0,0,0,0,0,0,0,0,0,-1,1840,1044,0,0
623,-20,0,0,0,0,0,0,0,0,0,-1,1847,1044,0,0
630,-20,0,0,0,0,0,0,0,0,0,-1,1854,1044,0,0
637,-20,0,0,0,0,0,0,0,0,0,-1,1861,1044,0,0
644,-20,0,0,0,0,0,0,0,0,0,-1,1868,1044,0,0
651,-20,33.7142,2.76672,0.00129845,0.00200694,-0.000526673,0.00228742,0.00101797,-1.08145,0.0013233,0.0401819,1875,1044,33.7143,-2.76674
658,-20,33.5557,2.73376,0.000888765,0.0012029,-0.000112294,0.00123891,0.000852751,-1.26045,0.000732,0.0408003,1882,1044,33.5556,-2.73376
665,-20,33.5159,2.69971,0.000504187,0.000729034,0.000164388,0.000815765,0.000417457,1.08531,0.000471025,0.0412556,1889,1044,33.5159,-2.69972
672,-20,33.6044,2.7644,0.000218812,0.000536061,0.000672223,0.00106812,-0.000313249,0.901264,0.000836287,0.0268986,1896,1044,33.6044,-2.76442
679,-20,33.6036,2.82117,-0.000156643,0.000533994,0.00152198,0.00174934,-0.00137199,0.896953,0.00180648,0.0296574,1903,1044,33.6036,-2.82122
686,-20,33.6116,2.87683,-0.000630953,0.000497233,0.00241536,0.0024135,-0.00254722,0.900114,0.00286442,0.0403181,1910,1044,33.6115,-2.87681
693,-20,33.651,2.71423,-0.00102764,0.000446478,0.00318454,0.00297814,-0.00355931,0.899121,0.00377937,0.040197,1917,1044,33.651,-2.71419
700,-20,33.6322,2.78955,-0.00134456,0.000424232,0.00377192,0.00341405,-0.00433438,0.900552,0.00448406,0.0368777,1924,1044,33.6321,-2.78953
707,-20,33.585,2.77173,-0.00161416,0.000420864,0.00425167,0.00377508,-0.00496838,0.902849,0.00506369,0.0313357,1931,1044,33.585,-2.77177
714,-20,33.6183,2.95654,-0.00197391,0.000547508,0.00456056,0.0040184,-0.00544481,0.920249,0.00548424,0.0299858,1938,1044,33.6182,-2.95657
721,-20,33.615,3.32764,-0.0025204,0.000831897,0.00463929,0.00408855,-0.00577705,0.958748,0.00572365,0.034494,1945,1044,33.615,-3.3276
728,-20,33.4225,5.02954,0,0,0,0,0,0,0,-1,1952,1044,33.4225,-5.02953
735,-20,33.2979,5.05579,-0.00304055,0.00177969,0.00422454,0.00423326,-0.00549411,1.04462,0.0056318,0.0218023,1959,1044,33.2978,-5.05582
742,-20,33.2083,5.01819,-0.00295362,0.00291903,0.00363495,0.00465548,-0.00469008,1.12514,0.00539567,0.0171382,1966,1044,33.2082,-5.01824
749,-20,33.2407,4.99231,-0.00252841,0.00483481,0.00257111,0.00564373,-0.00333733,1.26598,0.00524191,0.0188937,1973,1044,33.2407,-4.99227
756,-20,33.2295,4.97339,-0.00179492,0.00716538,0.00114792,0.00731011,-0.00193964,1.44538,0.0056324,0.0141674,1980,1044,33.2295,-4.97336
763,-20,33.186,4.94336,-0.000794597,0.00990473,-0.000806933,0.00996525,-0.000855113,-1.49594,0.00694611,0.0190845,1987,1044,33.1861,-4.94341
770,-20,33.1392,4.93726,0.000606139,0.0135285,-0.00325117,0.0143003,-0.000165728,-1.3377,0.00958927,0.0172294,1994,1044,33.1391,-4.93725
777,-20,33.088,4.84802,0.00271314,0.017929,-0.00625863,0.0201726,0.000469629,-1.2266,0.0132946,0.0135068,2001,1044,33.0881,-4.84807
784,-20,33.0779,4.83215,0.00508735,0.0228905,-0.0094535,0.0269738,0.00100406,-1.16307,0.0176574,0.0192185,2008,1044,33.0779,-4.83221
791,-20,33.1577,4.7373,0.00761696,0.0278218,-0.0130507,0.0342233,0.00121544,-1.11477,0.0224214,0.0367926,2015,1044,33.1577,-4.73729
798,-20,32.8765,4.3905,0.0104154,0.0325946,-0.0174073,0.0421446,0.000865379,-1.06901,0.0278125,0.0420648,2022,1044,32.8764,-4.39046
805,-20,32.7898,4.20532,0.0133971,0.0367819,-0.0226305,0.0505621,-0.000383042,-1.02384,0.0338364,0.0429008,2029,1044,32.7897,-4.20531
812,-20,32.7307,3.9491,0.0159694,0.0395686,-0.0288711,0.0589583,-0.00342024,-0.97939,0.0404938,0.0474952,2036,1044,32.7308,-3.94912
-700,-27,-19.9379,-0.374512,0,0,0,0,0,0,0,-1,524,1051,-19.9379,0.374507
-693,-27,-20.5397,-0.351196,0,0,0,0,0,0,0,-1,531,1051,-20.5397,0.351231
-686,-27,-21.2606,-0.407349,0,0,0,0,0,0,0,-1,538,1051,-21.2606,0.407364
-679,-27,-22.0065,-0.2323,0,0,0,0,0,0,0,-1,545,1051,-22.0065,0.232358
-672,-27,-25.3766,0.553345,0,0,0,0,0,0,0,-1,552,1051,-25.3766,-0.553376
-665,-27,-24.8718,1.15454,0.00942269,0.0136128,0.00586568,0.0177463,0.00528913,0.956921,0.0105207,0.0474918,559,1051,-24.8718,-1.15456
-658,-27,-24.5005,1.49426,0.00972865,0.0115883,0.00594862,0.0166793,0.00463761,0.862925,0.00994105,0.0434836,566,1051,-24.5006,-1.49421
-651,-27,-23.7903,2.06604,0.00902406,0.00963678,0.00542176,0.0147608,0.00390001,0.813621,0.00883238,0.0352637,573,1051,-23.7903,-2.06605
-644,-27,-23.7991,1.95081,0.00792024,0.00768442,0.00461216,0.012416,0.00318866,0.772618,0.00744563,0.0170916,580,1051,-23.7991,-1.95082
-637,-27,-23.8579,2,0.0062399,0.00606185,0.00278794,0.00894024,0.00336151,0.769437,0.00521429,0.0142333,587,1051,-23.8579,-1.99996
-630,-27,-23.9096,2.18652,0.00466096,0.00463618,0.000818012,0.00546667,0.00383046,0.777823,0.00323983,0.0185317,594,1051,-23.9096,-2.18648
-623,-27,-23.9144,2.29749,0.00343386,0.0034706,-0.000842781,0.00429521,0.00260925,-0.796296,0.00249886,0.0153334,601,1051,-23.9144,-2.29751
-616,-27,-23.8858,2.38025,0.00242755,0.00259808,-0.00267367,0.00518785,-0.000162216,-0.801339,0.00351388,0.0131149,608,1051,-23.8858,-2.38028
-609,-27,-23.8978,2.45776,0.00125307,0.00182281,-0.00402582,0.00557383,-0.00249795,-0.82072,0.0047717,0.0144014,615,1051,-23.8978,-2.45773
-602,-27,-23.887,2.55432,0.000141828,0.00102049,-0.00520955,0.0058092,-0.00464688,-0.827465,0.00604924,0.0122708,622,1051,-23.887,-2.55435
-595,-27,-23.8882,2.9823,0,0,0,0,0,0,0,-1,629,1051,-23.8883,-2.98225
-588,-27,-23.9361,1.7981,-0.00079926,0.000171989,-0.00610569,0.00581134,-0.00643861,-0.825083,0.0070756,0.0176922,636,1051,-23.9361,-1.79814
-581,-27,-23.9214,0.966309,-0.000723376,-0.000100768,-0.00606386,0.00565978,-0.00648392,-0.811044,0.00701655,0.0212438,643,1051,-23.9214,-0.966367
-574,-27,-23.8678,1.15869,-0.00101439,-0.000239754,-0.00584242,0.00522817,-0.00648231,-0.818497,0.00677396,0.0351692,650,1051,-23.8678,-1.1587
-567,-27,-23.8025,1.24023,-0.00147879,-0.000234982,-0.00518332,0.00436361,-0.00607738,-0.845104,0.00605512,0.0443625,657,1051,-23.8025,-1.24025
-560,-27,-23.8522,1.36353,-0.00197504,-0.0001165,-0.0039984,0.0030592,-0.00515074,-0.899576,0.00479101,0.04603,664,1051,-23.8522,-1.36354
-553,-27,-23.7549,1.08533,-0.00242687,4.22281e-05,-0.00225459,0.00137814,-0.00376278,-1.03589,0.0030727,0.0439403,671,1051,-23.7549,-1.08536
-546,-27,-23.7885,0.907593,-0.00273972,0.000116655,7.53254e-05,0.00011864,-0.00274171,1.54445,0.00186861,0.0438634,678,1051,-23.7885,-0.907543
-539,-27,-23.9376,0.954102,-0.00270238,0.000302691,0.00236053,0.00159832,-0.003998,1.06882,0.00332858,0.0435703,685,1051,-23.9375,-0.954073
-532,-27,-23.9912,0.90686,-0.0024142,0.000775831,0.00279325,0.00239739,-0.00403575,1.04482,0.00375411,0.0426231,692,1051,-23.9912,-0.90684
-525,-27,0,0,0,0,0,0,0,0,0,-1,699,1051,0,0
-518,-27,0,0,0,0,0,0,0,0,0,-1,706,1051,0,0
-511,-27,0,0,0,0,0,0,0,0,0,-1,713,1051,0,0
-504,-27,0,0,0,0,0,0,0,0,0,-1,720,1051,0,0
-497,-27,0,0,0,0,0,0,0,0,0,-1,727,1051,0,0
-490,-27,0,0,0,0,0,0,0,0,0,-1,734,1051,0,0
-483,-27,0,0,0,0,0,0,0,0,0,-1,741,1051,0,0
-476,-27,0,0,0,0,0,0,0,0,0,-1,748,1051,0,0
-469,-27,0,0,0,0,0,0,0,0,0,-1,755,1051,0,0
-462,-27,0,0,0,0,0,0,0,0,0,-1,762,1051,0,0
-455,-27,0,0,0,0,0,0,0,0,0,-1,769,1051,0,0
-448,-27,0,0,0,0,0,0,0,0,0,-1,776,1051,0,0
-441,-27,0,0,0,0,0,0,0,0,0,-1,783,1051,0,0
-434,-27,0,0,0,0,0,0,0,0,0,-1,790,1051,0,0
-427,-27,0,0,0,0,0,0,0,0,0,-1,797,1051,0,0
-420,-27,0,0,0,0,0,0,0,0,0,-1,804,1051,0,0
-413,-27,0,0,0,0,0,0,0,0,0,-1,811,1051,0,0
-406,-27,0,0,0,0,0,0,0,0,0,-1,818,1051,0,0
-399,-27,0,0,0,0,0,0,0,0,0,-1,825,1051,0,0
-392,-27,0,0,0,0,0,0,0,0,0,-1,832,1051,0,0
-385,-27,0,0,0,0,0,0,0,0,0,-1,839,1051,0,0
-378,-27,0,0,0,0,0,0,0,0,0,-1,846,1051,0,0
-371,-27,0,0,0,0,0,0,0,0,0,-1,853,1051,0,0
-364,-27,0,0,0,0,0,0,0,0,0,-1,860,1051,0,0
-357,-27,0,0,0,0,0,0,0,0,0,-1,867,1051,0,0
-350,-27,0,0,0,0,0,0,0,0,0,-1,874,1051,0,0
-343,-27,0,0,0,0,0,0,0,0,0,-1,881,1051,0,0
-336,-27,0,0,0,0,0,0,0,0,0,-1,888,1051,0,0
-329,-27,0,0,0,0,0,0,0,0,0,-1,895,1051,0,0
-322,-27,0,0,0,0,0,0,0,0,0,-1,902,1051,0,0
-315,-27,0,0,0,0,0,0,0,0,0,-1,909,1051,0,0
-308,-27,0,0,0,0,0,0,0,0,0,-1,916,1051,0,0
-301,-27,0,0,0,0,0,0,0,0,0,-1,923,1051,0,0
-294,-27,0,0,0,0,0,0,0,0,0,-1,930,1051,0,0
-287,-27,0,0,0,0,0,0,0,0,0,-1,937,1051,0,0
-280,-27,0,0,0,0,0,0,0,0,0,-1,944,1051,0,0
-273,-27,0,0,0,0,0,0,0,0,0,-1,951,1051,0,0
-266,-27,0,0,0,0,0,0,0,0,0,-1,958,1051,0,0
-259,-27,0,0,0,0,0,0,0,0,0,-1,965,1051,0,0
-252,-27,0,0,0,0,0,0,0,0,0,-1,972,1051,0,0
-245,-27,0,0,0,0,0,0,0,0,0,-1,979,1051,0,0
-238,-27,0,0,0,0,0,0,0,0,0,-1,986,1051,0,0
-231,-27,0,0,0,0,0,0,0,0,0,-1,993,1051,0,0
-224,-27,0,0,0,0,0,0,0,0,0,-1,1000,1051,0,0
-217,-27,0,0,0,0,0,0,0,0,0,-1,1007,1051,0,0
-210,-27,0,0,0,0,0,0,0,0,0,-1,1014,1051,0,0
-203,-27,0,0,0,0,0,0,0,0,0,-1,1021,1051,0,0
-196,-27,0,0,0,0,0,0,0,0,0,-1,1028,1051,0,0
-189,-27,0,0,0,0,0,0,0,0,0,-1,1035,1051,0,0
-182,-27,0,0,0,0,0,0,0,0,0,-1,1042,1051,0,0
-175,-27,0,0,0,0,0,0,0,0,0,-1,1049,1051,0,0
-168,-27,0,0,0,0,0,0,0,0,0,-1,1056,1051,0,0
-161,-27,0,0,0,0,0,0,0,0,0,-1,1063,1051,0,0
-154,-27,0,0,0,0,0,0,0,0,0,-1,1070,1051,0,0
-147,-27,0,0,0,0,0,0,0,0,0,-1,1077,1051,0,0
-140,-27,0,0,0,0,0,0,0,0,0,-1,1084,1051,0,0
-133,-27,0,0,0,0,0,0,0,0,0,-1,1091,1051,0,0
-126,-27,0,0,0,0,0,0,0,0,0,-1,1098,1051,0,0
-119,-27,0,0,0,0,0,0,0,0,0,-1,1105,1051,0,0
-112,-27,0,0,0,0,0,0,0,0,0,-1,1112,1051,0,0
-105,-27,0,0,0,0,0,0,0,0,0,-1,1119,1051,0,0
-98,-27,0,0,0,0,0,0,0,0,0,-1,1126,1051,0,0
-91,-27,0,0,0,0,0,0,0,0,0,-1,1133,1051,0,0
-84,-27,0,0,0,0,0,0,0,0,0,-1,1140,1051,0,0
-77,-27,0,0,0,0,0,0,0,0,0,-1,1147,1051,0,0
-70,-27,0,0,0,0,0,0,0,0,0,-1,1154,1051,0,0
-63,-27,0,0,0,0,0,0,0,0,0,-1,1161,1051,0,0
-56,-27,0,0,0,0,0,0,0,0,0,-1,1168,1051,0,0
-49,-27,0,0,0,0,0,0,0,0,0,-1,1175,1051,0,0
-42,-27,0,0,0,0,0,0,0,0,0,-1,1182,1051,0,0
-35,-27,0,0,0,0,0,0,0,0,0,-1,1189,1051,0,0
-28,-27,0,0,0,0,0,0,0,0,0,-1,1196,1051,0,0
-21,-27,0,0,0,0,0,0,0,0,0,-1,1203,1051,0,0
-14,-27,0,0,0,0,0,0,0,0,0,-1,1210,1051,0,0
-7,-27,0,0,0,0,0,0,0,0,0,-1,1217,1051,0,0
0,-27,0,0,0,0,0,0,0,0,0,-1,1224,1051,0,0
7,-27,0,0,0,0,0,0,0,0,0,-1,1231,1051,0,0
14,-27,0,0,0,0,0,0,0,0,0,-1,1238,1051,0,0
21,-27,0,0,0,0,0,0,0,0,0,-1,1245,1051,0,0
28,-27,0,0,0,0,0,0,0,0,0,-1,1252,1051,0,0
35,-27,0,0,0,0,0,0,0,0,0,-1,1259,1051,0,0
42,-27,0,0,0,0,0,0,0,0,0,-1,1266,1051,0,0
49,-27,0,0,0,0,0,0,0,0,0,-1,1273,1051,0,0
56,-27,0,0,0,0,0,0,0,0,0,-1,1280,1051,0,0
63,-27,0,0,0,0,0,0,0,0,0,-1,1287,1051,0,0
70,-27,0,0,0,0,0,0,0,0,0,-1,1294,1051,0,0
77,-27,0,0,0,0,0,0,0,0,0,-1,1301,1051,0,0
84,-27,0,0,0,0,0,0,0,0,0,-1,1308,1051,0,0
91,-27,0,0,0,0,0,0,0,0,0,-1,1315,1051,0,0
98,-27,0,0,0,0,0,0,0,0,0,-1,1322,1051,0,0
105,-27,0,0,0,0,0,0,0,0,0,-1,1329,1051,0,0
112,-27,0,0,0,0,0,0,0,0,0,-1,1336,1051,0,0
119,-27,0,0,0,0,0,0,0,0,0,-1,1343,1051,0,0
126,-27,0,0,0,0,0,0,0,0,0,-1,1350,1051,0,0
133,-27,0,0,0,0,0,0,0,0,0,-1,1357,1051,0,0
140,-27,0,0,0,0,0,0,0,0,0,-1,1364,1051,0,0
147,-27,0,0,0,0,0,0,0,0,0,-1,1371,1051,0,0
154,-27,0,0,0,0,0,0,0,0,0,-1,1378,1051,0,0
161,-27,0,0,0,0,0,0,0,0,0,-1,1385,1051,0,0
168,-27,0,0,0,0,0,0,0,0,0,-1,1392,1051,0,0
175,-27,0,0,0,0,0,0,0,0,0,-1,1399,1051,0,0
182,-27,0,0,0,0,0,0,0,0,0,-1,1406,1051,0,0
189,-27,0,0,0,0,0,0,0,0,0,-1,1413,1051,0,0
196,-27,0,0,0,0,0,0,0,0,0,-1,1420,1051,0,0
203,-27,0,0,0,0,0,0,0,0,0,-1,1427,1051,0,0
210,-27,0,0,0,0,0,0,0,0,0,-1,1434,1051,0,0
217,-27,0,0,0,0,0,0,0,0,0,-1,1441,1051,0,0
224,-27,0,0,0,0,0,0,0,0,0,-1,1448,1051,0,0
231,-27,0,0,0,0,0,0,0,0,0,-1,1455,1051,0,0
238,-27,0,0,0,0,0,0,0,0,0,-1,1462,1051,0,0
245,-27,0,0,0,0,0,0,0,0,0,-1,1469,1051,0,0
252,-27,0,0,0,0,0,0,0,0,0,-1,1476,1051,0,0
259,-27,0,0,0,0,0,0,0,0,0,-1,1483,1051,0,0
266,-27,0,0,0,0,0,0,0,0,0,-1,1490,1051,0,0
273,-27,0,0,0,0,0,0,0,0,0,-1,1497,1051,0,0
280,-27,0,0,0,0,0,0,0,0,0,-1,1504,1051,0,0
287,-27,0,0,0,0,0,0,0,0,0,-1,1511,1051,0,0
294,-27,0,0,0,0,0,0,0,0,0,-1,1518,1051,0,0
301,-27,0,0,0,0,0,0,0,0,0,-1,1525,1051,0,0
308,-27,0,0,0,0,0,0,0,0,0,-1,1532,1051,0,0
315,-27,0,0,0,0,0,0,0,0,0,-1,1539,1051,0,0
322,-27,0,0,0,0,0,0,0,0,0,-1,1546,1051,0,0
329,-27,0,0,0,0,0,0,0,0,0,-1,1553,1051,0,0
336,-27,0,0,0,0,0,0,0,0,0,-1,1560,1051,0,0
343,-27,0,0,0,0,0,0,0,0,0,-1,1567,1051,0,0
350,-27,0,0,0,0,0,0,0,0,0,-1,1574,1051,0,0
357,-27,0,0,0,0,0,0,0,0,0,-1,1581,1051,0,0
364,-27,0,0,0,0,0,0,0,0,0,-1,1588,1051,0,0
371,-27,0,0,0,0,0,0,0,0,0,-1,1595,1051,0,0
378,-27,0,0,0,0,0,0,0,0,0,-1,1602,1051,0,0
385,-27,0,0,0,0,0,0,0,0,0,-1,1609,1051,0,0
392,-27,0,0,0,0,0,0,0,0,0,-1,1616,1051,0,0
399,-27,0,0,0,0,0,0,0,0,0,-1,1623,1051,0,0
406,-27,0,0,0,0,0,0,0,0,0,-1,1630,1051,0,0
413,-27,0,0,0,0,0,0,0,0,0,-1,1637,1051,0,0
420,-27,0,0,0,0,0,0,0,0,0,-1,1644,1051,0,0
427,-27,0,0,0,0,0,0,0,0,0,-1,1651,1051,0,0
434,-27,0,0,0,0,0,0,0,0,0,-1,1658,1051,0,0
441,-27,0,0,0,0,0,0,0,0,0,-1,1665,1051,0,0
448,-27,0,0,0,0,0,0,0,0,0,-1,1672,1051,0,0
455,-27,0,0,0,0,0,0,0,0,0,-1,1679,1051,0,0
462,-27,0,0,0,0,0,0,0,0,0,-1,1686,1051,0,0
469,-27,0,0,0,0,0,0,0,0,0,-1,1693,1051,0,0
476,-27,0,0,0,0,0,0,0,0,0,-1,1700,1051,0,0
483,-27,0,0,0,0,0,0,0,0,0,-1,1707,1051,0,0
490,-27,0,0,0,0,0,0,0,0,0,-1,1714,1051,0,0
497,-27,0,0,0,0,0,0,0,0,0,-1,1721,1051,0,0
504,-27,0,0,0,0,0,0,0,0,0,-1,1728,1051,0,0
511,-27,0,0,0,0,0,0,0,0,0,-1,1735,1051,0,0
518,-27,0,0,0,0,0,0,0,0,0,-1,1742,1051,0,0
525,-27,0,0,0,0,0,0,0,0,0,-1,1749,1051,0,0
532,-27,0,0,0,0,0,0,0,0,0,-1,1756,1051,0,0
539,-27,0,0,0,0,0,0,0,0,0,-1,1763,1051,0,0
546,-27,0,0,0,0,0,0,0,0,0,-1,1770,1051,0,0
553,-27,0,0,0,0,0,0,0,0,0,-1,1777,1051,0,0
560,-27,0,0,0,0,0,0,0,0,0,-1,1784,1051,0,0
567,-27,0,0,0,0,0,0,0,0,0,-1,1791,1051,0,0
574,-27,0,0,0,0,0,0,0,0,0,-1,1798,1051,0,0
581,-27,0,0,0,0,0,0,0,0,0,-1,1805,1051,0,0
588,-27,0,0,0,0,0,0,0,0,0,-1,1812,1051,0,0
595,-27,0,0,0,0,0,0,0,0,0,-1,1819,1051,0,0
602,-27,0,0,0,0,0,0,0,0,0,-1,1826,1051,0,0
609,-27,0,0,0,0,0,0,0,0,0,-1,1833,1051,0,0
616,-27,0,0,0,0,0,0,0,0,0,-1,1840,1051,0,0
623,-27,0,0,0,0,0,0,0,0,0,-1,1847,1051,0,0
630,-27,0,0,0,0,0,0,0,0,0,-1,1854,1051,0,0
637,-27,0,0,0,0,0,0,0,0,0,-1,1861,1051,0,0
644,-27,0,0,0,0,0,0,0,0,0,-1,1868,1051,0,0
651,-27,33.7517,3.1156,0.00151729,0.00346742,0.000119629,0.00347473,0.00150998,1.50976,0.00201186,0.0416635,1875,1051,33.7516,-3.11562
658,-27,33.6677,2.87891,0.00105327,0.00243059,0.000347735,0.0025134,0.000970451,1.337,0.00146361,0.0394843,1882,1051,33.6677,-2.87888
665,-27,33.6697,2.81958,0.000642281,0.00176642,0.000459232,0.00193017,0.00047853,1.22827,0.00116063,0.037456,1889,1051,33.6697,-2.81954
672,-27,33.7118,2.82288,0.000357982,0.00132628,0.000844145,0.00181526,-0.000130998,1.04577,0.00125612,0.0293506,1896,1051,33.7118,-2.82283
679,-27,33.6637,2.91382,-4.55914e-05,0.00107875,0.00160582,0.00221796,-0.0011848,0.953773,0.00199454,0.0285618,1903,1051,33.6637,-2.91377
686,-27,33.6555,3.03015,-0.000594667,0.000811553,0.00245929,0.00266626,-0.00244938,0.924634,0.0029544,0.041402,1910,1051,33.6555,-3.03013
693,-27,33.7207,2.849,-0.00106272,0.000556314,0.00320946,0.00305677,-0.00356318,0.908936,0.00382575,0.0419308,1917,1051,33.7207,-2.84897
700,-27,33.6577,2.78625,-0.00145169,0.000365707,0.00380595,0.00336994,-0.00445592,0.902583,0.00453274,0.0369139,1924,1051,33.6577,-2.78629
707,-27,33.5592,2.7948,-0.00177625,0.000224113,0.00427268,0.00361211,-0.00516425,0.900372,0.00509338,0.024292,1931,1051,33.5592,-2.7948
714,-27,33.6259,2.89648,-0.00217799,0.000238195,0.00457123,0.00375828,-0.00569808,0.914586,0.00549778,0.0242462,1938,1051,33.6258,-2.89648
721,-27,33.679,3.28235,-0.00272723,0.000446603,0.00467396,0.0037957,-0.00607633,0.949053,0.00575009,0.033283,1945,1051,33.679,-3.28232
728,-27,33.4808,5.06567,0,0,0,0,0,0,0,-1,1952,1051,33.4808,-5.06568
735,-27,33.2567,5.09521,-0.00317892,0.00128668,0.00428491,0.00388563,-0.00577788,1.02558,0.00561477,0.0237984,1959,1051,33.2567,-5.09527
742,-27,33.1523,5.06738,-0.00289312,0.0024286,0.00366217,0.00429452,-0.00475903,1.09957,0.00522936,0.0169921,1966,1051,33.1523,-5.06739
749,-27,33.1753,5.00354,-0.00201895,0.00432035,0.0025026,0.00518922,-0.00288783,1.23663,0.00472596,0.0126258,1973,1051,33.1753,-5.00359
756,-27,33.1709,4.95044,-0.000718193,0.00672114,0.000994324,0.00685174,-0.000848799,1.44019,0.00487545,0.012157,1980,1051,33.1709,-4.95048
763,-27,33.1442,4.87451,0.000948157,0.00954175,-0.00101196,0.0096593,0.0008306,-1.45515,0.0061813,0.0133809,1987,1051,33.1442,-4.87453
770,-27,33.0942,4.8125,0.00326426,0.0133086,-0.00359406,0.0144621,0.00211072,-1.26022,0.00902054,0.0155397,1994,1051,33.0943,-4.81249
777,-27,33.0575,4.79907,0.00660069,0.0179006,-0.00675936,0.0210603,0.00344094,-1.13351,0.0130454,0.0178163,2001,1051,33.0575,-4.79905
784,-27,33.0613,4.84595,0.0104154,0.0232132,-0.0101118,0.0287807,0.00484789,-1.0675,0.0177927,0.0266423,2008,1051,33.0613,-4.84601
791,-27,33.2363,4.91113,0.0144988,0.0286269,-0.0137932,0.0370597,0.00606601,-1.02205,0.0229532,0.0437,2015,1051,33.2364,-4.91117
798,-27,33.5664,4.96338,0.0190304,0.0342036,-0.0181373,0.0462771,0.0069569,-0.983484,0.0288137,0.0468813,2022,1051,33.5663,-4.96339
805,-27,32.9744,4.00537,0,0,0,0,0,0,0,-1,2029,1051,32.9745,-4.00543
812,-27,32.9473,3.73645,0,0,0,0,0,0,0,-1,2036,1051,32.9473,-3.73649
-700,-34,-23.813,3.37354,0,0,0,0,0,0,0,-1,524,1058,-23.813,-3.37353
-693,-34,-21.1505,-0.109131,0,0,0,0,0,0,0,-1,531,1058,-21.1504,0.109114
-686,-34,-22.1105,-0.974487,0,0,0,0,0,0,0,-1,538,1058,-22.1105,0.974495
-679,-34,-22.6623,-0.503418,0,0,0,0,0,0,0,-1,545,1058,-22.6623,0.503408
-672,-34,-23.2843,0.10022,0.00235993,0.0240384,0.00318636,0.024497,0.00190129,1.42784,0.0157359,0.0415601,552,1058,-23.2843,-0.10023
-665,-34,-24.0889,1.06958,0.0048276,0.0208049,0.00439294,0.021933,0.00369942,1.31941,0.0135582,0.0427315,559,1058,-24.0889,-1.06956
-658,-34,-23.7787,1.82397,0.00597158,0.0175525,0.00476461,0.0192608,0.00426332,1.22654,0.0116817,0.0429021,566,1058,-23.7787,-1.82395
-651,-34,-23.6618,1.85327,0.00611101,0.0143422,0.00451706,0.0163374,0.0041158,1.15486,0.00981177,0.0296334,573,1058,-23.6618,-1.85329
-644,-34,-23.7504,1.8678,0.00580459,0.0111373,0.00398216,0.0132633,0.00367854,1.0804,0.0079066,0.0143611,580,1058,-23.7504,-1.8678
-637,-34,-23.7825,1.94092,0.00477091,0.0083846,0.0023259,0.009523,0.00363251,1.11563,0.00554939,0.0159651,587,1058,-23.7825,-1.94097
-630,-34,-23.7986,2.12366,0.00361447,0.00604267,0.000433216,0.00611764,0.0035395,1.39943,0.00354653,0.0175418,594,1058,-23.7986,-2.12364
-623,-34,-23.764,2.25867,0.002644,0.00414493,-0.00115992,0.00477599,0.00201293,-1.07253,0.00276873,0.0134618,601,1058,-23.764,-2.25873
-616,-34,-23.7233,2.41394,0.00172633,0.00279462,-0.00291377,0.0052228,-0.000701844,-0.87605,0.00373784,0.0192699,608,1058,-23.7233,-2.41394
-609,-34,-23.7328,2.51892,0.00063046,0.00170971,-0.00429981,0.00550362,-0.00316345,-0.847821,0.00506437,0.0191275,615,1058,-23.7328,-2.51897
-602,-34,-23.7667,2.58496,-0.000387229,0.000737072,-0.00550506,0.00570861,-0.00535877,-0.836279,0.00639082,0.0154133,622,1058,-23.7667,-2.58502
-595,-34,-23.8341,2.9126,0,0,0,0,0,0,0,-1,629,1058,-23.8341,-2.91262
-588,-34,-23.9097,1.79395,-0.00136441,-0.000174305,-0.00637092,0.00562929,-0.007168,-0.831964,0.0074063,0.0237331,636,1058,-23.9097,-1.79396
-581,-34,-23.9152,0.93396,-0.00126767,-0.000454466,-0.00632114,0.00547313,-0.00719527,-0.817516,0.0073366,0.0233161,643,1058,-23.9151,-0.933997
-574,-34,-23.879,0.923462,-0.00150378,-0.000603558,-0.00611722,0.00508009,-0.00718743,-0.822123,0.0071174,0.035719,650,1058,-23.879,-0.923468
-567,-34,-23.8026,0.936279,-0.00183444,-0.000617494,-0.0054708,0.00427857,-0.0067305,-0.840782,0.00640842,0.0423123,657,1058,-23.8025,-0.936313
-560,-34,-23.902,0.939575,-0.00211971,-0.000521041,-0.00428514,0.00303868,-0.00567943,-0.877607,0.00510979,0.0432664,664,1058,-23.902,-0.939607
-553,-34,-23.8333,0.764282,-0.00226287,-0.000382501,-0.00251334,0.00136075,-0.00400613,-0.964379,0.0032216,0.0433912,671,1058,-23.8333,-0.764317
-546,-34,-23.8846,0.785156,-0.00217965,-0.000320055,-0.000115492,-0.00031291,-0.00218679,-1.50901,0.00136556,0.0432148,678,1058,-23.8846,-0.785178
-539,-34,-23.9424,0.948486,-0.00177276,-0.000208854,0.00225247,0.00139353,-0.00337515,0.952467,0.00283133,0.0443111,685,1058,-23.9425,-0.948454
-532,-34,-23.992,0.711304,-0.00125251,0.000107047,0.00260371,0.00211826,-0.00326372,0.913088,0.00313066,0.0441238,692,1058,-23.992,-0.711296
-525,-34,0,0,0,0,0,0,0,0,0,-1,699,1058,0,0
-518,-34,0,0,0,0,0,0,0,0,0,-1,706,1058,0,0
-511,-34,0,0,0,0,0,0,0,0,0,-1,713,1058,0,0
-504,-34,0,0,0,0,0,0,0,0,0,-1,720,1058,0,0
-497,-34,0,0,0,0,0,0,0,0,0,-1,727,1058,0,0
-490,-34,0,0,0,0,0,0,0,0,0,-1,734,1058,0,0
-483,-34,0,0,0,0,0,0,0,0,0,-1,741,1058,0,0
-476,-34,0,0,0,0,0,0,0,0,0,-1,748,1058,0,0
-469,-34,0,0,0,0,0,0,0,0,0,-1,755,1058,0,0
-462,-34,0,0,0,0,0,0,0,0,0,-1,762,1058,0,0
-455,-34,0,0,0,0,0,0,0,0,0,-1,769,1058,0,0
-448,-34,0,0,0,0,0,0,0,0,0,-1,776,1058,0,0
-441,-34,0,0,0,0,0,0,0,0,0,-1,783,1058,0,0
-434,-34,0,0,0,0,0,0,0,0,0,-1,790,1058,0,0
-427,-34,0,0,0,0,0,0,0,0,0,-1,797,1058,0,0
-420,-34,0,0,0,0,0,0,0,0,0,-1,804,1058,0,0
-413,-34,0,0,0,0,0,0,0,0,0,-1,811,1058,0,0
-406,-34,0,0,0,0,0,0,0,0,0,-1,818,1058,0,0
-399,-34,0,0,0,0,0,0,0,0,0,-1,825,1058,0,0
-392,-34,0,0,0,0,0,0,0,0,0,-1,832,1058,0,0
-385,-34,0,0,0,0,0,0,0,0,0,-1,839,1058,0,0
-378,-34,0,0,0,0,0,0,0,0,0,-1,846,1058,0,0
-371,-34,0,0,0,0,0,0,0,0,0,-1,853,1058,0,0
-364,-34,0,0,0,0,0,0,0,0,0,-1,860,1058,0,0
-357,-34,0,0,0,0,0,0,0,0,0,-1,867,1058,0,0
-350,-34,0,0,0,0,0,0,0,0,0,-1,874,1058,0,0
-343,-34,0,0,0,0,0,0,0,0,0,-1,881,1058,0,0
-336,-34,0,0,0,0,0,0,0,0,0,-1,888,1058,0,0
-329,-34,0,0,0,0,0,0,0,0,0,-1,895,1058,0,0
-322,-34,0,0,0,0,0,0,0,0,0,-1,902,1058,0,0
-315,-34,0,0,0,0,0,0,0,0,0,-1,909,1058,0,0
-308,-34,0,0,0,0,0,0,0,0,0,-1,916,1058,0,0
-301,-34,0,0,0,0,0,0,0,0,0,-1,923,1058,0,0
-294,-34,0,0,0,0,0,0,0,0,0,-1,930,1058,0,0
-287,-34,0,0,0,0,0,0,0,0,0,-1,937,1058,0,0
-280,-34,0,0,0,0,0,0,0,0,0,-1,944,1058,0,0
-273,-34,0,0,0,0,0,0,0,0,0,-1,951,1058,0,0
-266,-34,0,0,0,0,0,0,0,0,0,-1,958,1058,0,0
-259,-34,0,0,0,0,0,0,0,0,0,-1,965,1058,0,0
-252,-34,0,0,0,0,0,0,0,0,0,-1,972,1058,0,0
-245,-34,0,0,0,0,0,0,0,0,0,-1,979,1058,0,0
-238,-34,0,0,0,0,0,0,0,0,0,-1,986,1058,0,0
-231,-34,0,0,0,0,0,0,0,0,0,-1,993,1058,0,0
-224,-34,0,0,0,0,0,0,0,0,0,-1,1000,1058,0,0
-217,-34,0,0,0,0,0,0,0,0,0,-1,1007,1058,0,0
-210,-34,0,0,0,0,0,0,0,0,0,-1,1014,1058,0,0
-203,-34,0,0,0,0,0,0,0,0,0,-1,1021,1058,0,0
-196,-34,0,0,0,0,0,0,0,0,0,-1,1028,1058,0,0
-189,-34,0,0,0,0,0,0,0,0,0,-1,1035,1058,0,0
-182,-34,0,0,0,0,0,0,0,0,0,-1,1042,1058,0,0
-175,-34,0,0,0,0,0,0,0,0,0,-1,1049,1058,0,0
-168,-34,0,0,0,0,0,0,0,0,0,-1,1056,1058,0,0
-161,-34,0,0,0,0,0,0,0,0,0,-1,1063,1058,0,0
-154,-34,0,0,0,0,0,0,0,0,0,-1,1070,1058,0,0
-147,-34,0,0,0,0,0,0,0,0,0,-1,1077,1058,0,0
-140,-34,0,0,0,0,0,0,0,0,0,-1,1084,1058,0,0
-133,-34,0,0,0,0,0,0,0,0,0,-1,1091,1058,0,0
-126,-34,0,0,0,0,0,0,0,0,0,-1,1098,1058,0,0
-119,-34,0,0,0,0,0,0,0,0,0,-1,1105,1058,0,0
-112,-34,0,0,0,0,0,0,0,0,0,-1,1112,1058,0,0
-105,-34,0,0,0,0,0,0,0,0,0,-1,1119,1058,0,0
-98,-34,0,0,0,0,0,0,0,0,0,-1,1126,1058,0,0
-91,-34,0,0,0,0,0,0,0,0,0,-1,1133,1058,0,0
-84,-34,0,0,0,0,0,0,0,0,0,-1,1140,1058,0,0
-77,-34,0,0,0,0,0,0,0,0,0,-1,1147,1058,0,0
-70,-34,0,0,0,0,0,0,0,0,0,-1,1154,1058,0,0
-63,-34,0,0,0,0,0,0,0,0,0,-1,1161,1058,0,0
-56,-34,0,0,0,0,0,0,0,0,0,-1,1168,1058,0,0
-49,-34,0,0,0,0,0,0,0,0,0,-1,1175,1058,0,0
-42,-34,0,0,0,0,0,0,0,0,0,-1,1182,1058,0,0
-35,-34,0,0,0,0,0,0,0,0,0,-1,1189,1058,0,0
-28,-34,0,0,0,0,0,0,0,0,0,-1,1196,1058,0,0
-21,-34,0,0,0,0,0,0,0,0,0,-1,1203,1058,0,0
-14,-34,0,0,0,0,0,0,0,0,0,-1,1210,1058,0,0
-7,-34,0,0,0,0,0,0,0,0,0,-1,1217,1058,0,0
0,-34,0,0,0,0,0,0,0,0,0,-1,1224,1058,0,0
7,-34,0,0,0,0,0,0,0,0,0,-1,1231,1058,0,0
14,-34,0,0,0,0,0,0,0,0,0,-1,1238,1058,0,0
21,-34,0,0,0,0,0,0,0,0,0,-1,1245,1058,0,0
28,-34,0,0,0,0,0,0,0,0,0,-1,1252,1058,0,0
35,-34,0,0,0,0,0,0,0,0,0,-1,1259,1058,0,0
42,-34,0,0,0,0,0,0,0,0,0,-1,1266,1058,0,0
49,-34,0,0,0,0,0,0,0,0,0,-1,1273,1058,0,0
56,-34,0,0,0,0,0,0,0,0,0,-1,1280,1058,0,0
63,-34,0,0,0,0,0,0,0,0,0,-1,1287,1058,0,0
70,-34,0,0,0,0,0,0,0,0,0,-1,1294,1058,0,0
77,-34,0,0,0,0,0,0,0,0,0,-1,1301,1058,0,0
84,-34,0,0,0,0,0,0,0,0,0,-1,1308,1058,0,0
91,-34,0,0,0,0,0,0,0,0,0,-1,1315,1058,0,0
98,-34,0,0,0,0,0,0,0,0,0,-1,1322,1058,0,0
105,-34,0,0,0,0,0,0,0,0,0,-1,1329,1058,0,0
112,-34,0,0,0,0,0,0,0,0,0,-1,1336,1058,0,0
119,-34,0,0,0,0,0,0,0,0,0,-1,1343,1058,0,0
126,-34,0,0,0,0,0,0,0,0,0,-1,1350,1058,0,0
133,-34,0,0,0,0,0,0,0,0,0,-1,1357,1058,0,0
140,-34,0,0,0,0,0,0,0,0,0,-1,1364,1058,0,0
147,-34,0,0,0,0,0,0,0,0,0,-1,1371,1058,0,0
154,-34,0,0,0,0,0,0,0,0,0,-1,1378,1058,0,0
161,-34,0,0,0,0,0,0,0,0,0,-1,1385,1058,0,0
168,-34,0,0,0,0,0,0,0,0,0,-1,1392,1058,0,0
175,-34,0,0,0,0,0,0,0,0,0,-1,1399,1058,0,0
182,-34,0,0,0,0,0,0,0,0,0,-1,1406,1058,0,0
189,-34,0,0,0,0,0,0,0,0,0,-1,1413,1058,0,0
196,-34,0,0,0,0,0,0,0,0,0,-1,1420,1058,0,0
203,-34,0,0,0,0,0,0,0,0,0,-1,1427,1058,0,0
210,-34,0,0,0,0,0,0,0,0,0,-1,1434,1058,0,0
217,-34,0,0,0,0,0,0,0,0,0,-1,1441,1058,0,0
224,-34,0,0,0,0,0,0,0,0,0,-1,1448,1058,0,0
231,-34,0,0,0,0,0,0,0,0,0,-1,1455,1058,0,0
238,-34,0,0,0,0,0,0,0,0,0,-1,1462,1058,0,0
245,-34,0,0,0,0,0,0,0,0,0,-1,1469,1058,0,0
252,-34,0,0,0,0,0,0,0,0,0,-1,1476,1058,0,0
259,-34,0,0,0,0,0,0,0,0,0,-1,1483,1058,0,0
266,-34,0,0,0,0,0,0,0,0,0,-1,1490,1058,0,0
273,-34,0,0,0,0,0,0,0,0,0,-1,1497,1058,0,0
280,-34,0,0,0,0,0,0,0,0,0,-1,1504,1058,0,0
287,-34,0,0,0,0,0,0,0,0,0,-1,1511,1058,0,0
294,-34,0,0,0,0,0,0,0,0,0,-1,1518,1058,0,0
301,-34,0,0,0,0,0,0,0,0,0,-1,1525,1058,0,0
308,-34,0,0,0,0,0,0,0,0,0,-1,1532,1058,0,0
315,-34,0,0,0,0,0,0,0,0,0,-1,1539,1058,0,0
322,-34,0,0,0,0,0,0,0,0,0,-1,1546,1058,0,0
329,-34,0,0,0,0,0,0,0,0,0,-1,1553,1058,0,0
336,-34,0,0,0,0,0,0,0,0,0,-1,1560,1058,0,0
343,-34,0,0,0,0,0,0,0,0,0,-1,1567,1058,0,0
350,-34,0,0,0,0,0,0,0,0,0,-1,1574,1058,0,0
357,-34,0,0,0,0,0,0,0,0,0,-1,1581,1058,0,0
364,-34,0,0,0,0,0,0,0,0,0,-1,1588,1058,0,0
371,-34,0,0,0,0,0,0,0,0,0,-1,1595,1058,0,0
378,-34,0,0,0,0,0,0,0,0,0,-1,1602,1058,0,0
385,-34,0,0,0,0,0,0,0,0,0,-1,1609,1058,0,0
392,-34,0,0,0,0,0,0,0,0,0,-1,1616,1058,0,0
399,-34,0,0,0,0,0,0,0,0,0,-1,1623,1058,0,0
406,-34,0,0,0,0,0,0,0,0,0,-1,1630,1058,0,0
413,-34,0,0,0,0,0,0,0,0,0,-1,1637,1058,0,0
420,-34,0,0,0,0,0,0,0,0,0,-1,1644,1058,0,0
427,-34,0,0,0,0,0,0,0,0,0,-1,1651,1058,0,0
434,-34,0,0,0,0,0,0,0,0,0,-1,1658,1058,0,0
441,-34,0,0,0,0,0,0,0,0,0,-1,1665,1058,0,0
448,-34,0,0,0,0,0,0,0,0,0,-1,1672,1058,0,0
455,-34,0,0,0,0,0,0,0,0,0,-1,1679,1058,0,0
462,-34,0,0,0,0,0,0,0,0,0,-1,1686,1058,0,0
469,-34,0,0,0,0,0,0,0,0,0,-1,1693,1058,0,0
476,-34,0,0,0,0,0,0,0,0,0,-1,1700,1058,0,0
483,-34,0,0,0,0,0,0,0,0,0,-1,1707,1058,0,0
490,-34,0,0,0,0,0,0,0,0,0,-1,1714,1058,0,0
497,-34,0,0,0,0,0,0,0,0,0,-1,1721,1058,0,0
504,-34,0,0,0,0,0,0,0,0,0,-1,1728,1058,0,0
511,-34,0,0,0,0,0,0,0,0,0,-1,1735,1058,0,0
518,-34,0,0,0,0,0,0,0,0,0,-1,1742,1058,0,0
525,-34,0,0,0,0,0,0,0,0,0,-1,1749,1058,0,0
532,-34,0,0,0,0,0,0,0,0,0,-1,1756,1058,0,0
539,-34,0,0,0,0,0,0,0,0,0,-1,1763,1058,0,0
546,-34,0,0,0,0,0,0,0,0,0,-1,1770,1058,0,0
553,-34,0,0,0,0,0,0,0,0,0,-1,1777,1058,0,0
560,-34,0,0,0,0,0,0,0,0,0,-1,1784,1058,0,0
567,-34,0,0,0,0,0,0,0,0,0,-1,1791,1058,0,0
574,-34,0,0,0,0,0,0,0,0,0,-1,1798,1058,0,0
581,-34,0,0,0,0,0,0,0,0,0,-1,1805,1058,0,0
588,-34,0,0,0,0,0,0,0,0,0,-1,1812,1058,0,0
595,-34,0,0,0,0,0,0,0,0,0,-1,1819,1058,0,0
602,-34,0,0,0,0,0,0,0,0,0,-1,1826,1058,0,0
609,-34,0,0,0,0,0,0,0,0,0,-1,1833,1058,0,0
616,-34,0,0,0,0,0,0,0,0,0,-1,1840,1058,0,0
623,-34,0,0,0,0,0,0,0,0,0,-1,1847,1058,0,0
630,-34,0,0,0,0,0,0,0,0,0,-1,1854,1058,0,0
637,-34,0,0,0,0,0,0,0,0,0,-1,1861,1058,0,0
644,-34,0,0,0,0,0,0,0,0,0,-1,1868,1058,0,0
651,-34,33.6224,3.0033,0.00162661,0.00475181,0.00040261,0.00480284,0.00157558,1.44471,0.00282705,0.0406749,1875,1058,33.6224,-3.00335
658,-34,33.6853,2.87183,0.00114394,0.00349787,0.000551535,0.00362069,0.00102112,1.35169,0.0021556,0.0425435,1882,1058,33.6853,-2.87186
665,-34,33.7625,2.81189,0.000721039,0.00263918,0.000594127,0.00280829,0.000551924,1.29349,0.00171803,0.0415975,1889,1058,33.7624,-2.81188
672,-34,33.7896,2.75891,0.000441783,0.001972,0.000939052,0.00241817,-4.39375e-06,1.12724,0.00161358,0.0378772,1896,1058,33.7896,-2.75886
679,-34,33.6147,2.88049,1.91576e-05,0.0014747,0.00165275,0.00255282,-0.00105896,0.992794,0.00214389,0.0364302,1903,1058,33.6147,-2.88052
686,-34,33.5059,3.05835,-0.000586866,0.000977711,0.00246378,0.00278041,-0.00238957,0.939122,0.00298773,0.0423638,1910,1058,33.5059,-3.05836
693,-34,33.5673,2.94287,-0.00110068,0.000530569,0.00317659,0.00299458,-0.00356468,0.911064,0.00379176,0.0420303,1917,1058,33.5673,-2.94291
700,-34,33.6196,2.83582,-0.00152775,0.00019048,0.00375003,0.00317854,-0.00451582,0.898003,0.00446465,0.0360697,1924,1058,33.6196,-2.83578
707,-34,33.5547,2.80994,-0.00189006,-6.88384e-05,0.00417879,0.0032974,-0.0052563,0.892678,0.00498147,0.0244956,1931,1058,33.5547,-2.80998
714,-34,33.5896,2.90454,-0.00232294,-0.00014896,0.00444983,0.00334472,-0.00581662,0.905191,0.0053531,0.0221003,1938,1058,33.5896,-2.90453
721,-34,33.7097,3.78967,0,0,0,0,0,0,0,-1,1945,1058,33.7097,-3.78969
728,-34,33.4426,4.64661,-0.00325586,0.000269926,0.00447302,0.00331491,-0.00630084,0.97311,0.00564017,0.0374222,1952,1058,33.4426,-4.64662
735,-34,33.1071,5.13806,-0.003194,0.000749273,0.00417926,0.00339863,-0.00584336,1.0058,0.00539773,0.0169836,1959,1058,33.1071,-5.13803
742,-34,33.0557,5.0686,-0.00271356,0.00186843,0.00353771,0.00379217,-0.00463731,1.07274,0.00487491,0.0143424,1966,1058,33.0557,-5.06857
749,-34,33.0796,4.99768,-0.0014641,0.00371841,0.00236277,0.00463391,-0.00237959,1.20114,0.00411838,0.0122057,1973,1058,33.0796,-4.99769
756,-34,33.1063,4.92383,0.000307575,0.0059209,0.000931693,0.0060715,0.000156975,1.41054,0.00399637,0.0100561,1980,1058,33.1063,-4.92384
763,-34,33.0574,4.84082,0.00256883,0.00854443,-0.00096972,0.00869785,0.00241541,-1.41388,0.00518451,0.0110053,1987,1058,33.0574,-4.84085
770,-34,32.9949,4.77795,0.00568426,0.0120841,-0.00347446,0.0136077,0.00416069,-1.15754,0.00805159,0.0167322,1994,1058,32.9949,-4.77795
777,-34,32.95,4.7395,0.0101028,0.0163195,-0.00647816,0.0203964,0.00602586,-1.00908,0.0120999,0.0188541,2001,1058,32.9499,-4.73946
784,-34,32.9467,4.6687,0.0151954,0.0211864,-0.00961525,0.028262,0.00811987,-0.936402,0.016802,0.035767,2008,1058,32.9466,-4.66875
791,-34,33.2231,4.53149,0.0206642,0.0260906,-0.0129798,0.0366377,0.0101171,-0.888431,0.0218481,0.046134,2015,1058,33.223,-4.53153
798,-34,33.6086,3.98206,0.0267663,0.0311672,-0.0168527,0.0459625,0.011971,-0.850315,0.0275329,0.0484609,2022,1058,33.6086,-3.9821
805,-34,33.9482,3.55225,0.0333585,0.0362247,-0.021236,0.0560759,0.0135074,-0.81909,0.0337936,0.0458722,2029,1058,33.9482,-3.55223
812,-34,34.2607,3.25781,0.0397357,0.0408306,-0.0260691,0.0663579,0.0142083,-0.795897,0.0403453,0.047795,2036,1058,34.2608,-3.25776
-700,-41,-23.1397,2.89807,-0.0354843,0.0471669,-0.0159147,0.0501254,-0.0384428,-1.387,0.0512829,0.0483884,524,1065,-23.1397,-2.89809
-693,-41,-23.7506,2.90271,0,0,0,0,0,0,0,-1,531,1065,-23.7506,-2.90266
-686,-41,-23.9731,3.50085,0,0,0,0,0,0,0,-1,538,1065,-23.9731,-3.50091
-679,-41,-24.7158,-0.330078,0,0,0,0,0,0,0,-1,545,1065,-24.7158,0.330078
-672,-41,-24.4207,0.156372,-0.00278409,0.0343322,0.00239051,0.0344856,-0.00293742,1.50674,0.0240294,0.0464316,552,1065,-24.4207,-0.156347
-665,-41,-24.1398,0.665161,0.000260384,0.0294172,0.00364693,0.0298664,-0.000188852,1.44823,0.0199742,0.0410348,559,1065,-24.1398,-0.665206
-658,-41,-23.7886,1.16382,0.00213489,0.0244553,0.00413424,0.0251964,0.00139375,1.39341,0.0163528,0.0404961,566,1065,-23.7887,-1.16387
-651,-41,-23.4452,1.64917,0.0030495,0.0196499,0.0040295,0.0205763,0.0021231,1.34482,0.0130675,0.0300252,573,1065,-23.4452,-1.64917
-644,-41,-23.6297,1.83264,0.00351883,0.0149329,0.00366949,0.0160108,0.00244092,1.28508,0.00996042,0.0154039,580,1065,-23.6297,-1.83266
-637,-41,-23.6628,1.93311,0.00311207,0.0109021,0.00213783,0.0114502,0.00256395,1.31981,0.00693859,0.0167829,587,1065,-23.6628,-1.9331
-630,-41,-23.6769,2.07764,0.00239432,0.00733907,0.000208429,0.00734784,0.00238555,1.52874,0.00432835,0.0139753,594,1065,-23.6769,-2.07768
-623,-41,-23.6189,2.22864,0.0016999,0.00473029,-0.00136909,0.00525721,0.00117299,-1.2034,0.0031866,0.012172,601,1065,-23.6189,-2.22865
-616,-41,-23.5954,2.41199,0.00092569,0.00291172,-0.00304588,0.00512237,-0.00128496,-0.942975,0.00391418,0.0157891,608,1065,-23.5954,-2.41201
-609,-41,-23.5646,2.55664,-9.55811e-05,0.00160564,-0.00448688,0.00532182,-0.00381177,-0.879075,0.00529725,0.0210142,615,1065,-23.5647,-2.55664
-602,-41,-23.6136,2.62817,-0.00104606,0.000448592,-0.00571777,0.00546766,-0.00606514,-0.850381,0.00666144,0.0129681,622,1065,-23.6136,-2.62813
-595,-41,-23.7415,2.71313,0,0,0,0,0,0,0,-1,629,1065,-23.7414,-2.71316
-588,-41,-23.8428,1.73523,-0.00205887,-0.000532909,-0.00657376,0.005322,-0.00791378,-0.843172,0.00769036,0.028529,636,1065,-23.8428,-1.73527
-581,-41,-23.8876,0.996094,-0.00191858,-0.000826473,-0.00650758,0.00515793,-0.00790298,-0.827255,0.00759603,0.034855,643,1065,-23.8876,-0.996131
-574,-41,-23.7053,0.960083,-0.00208971,-0.00101076,-0.00629716,0.00476999,-0.00787046,-0.828128,0.00737078,0.0373252,650,1065,-23.7053,-0.960099
-567,-41,-23.7052,0.904907,-0.00226627,-0.00106889,-0.00563456,0.0039987,-0.00733385,-0.838326,0.00663663,0.0404992,657,1065,-23.7052,-0.904864
-560,-41,-23.8154,0.825928,-0.00230683,-0.00101563,-0.00441048,0.00279625,-0.0061187,-0.858072,0.00526485,0.0395759,664,1065,-23.8155,-0.825913
-553,-41,-23.8771,0.626587,-0.00208538,-0.000908057,-0.00256094,0.001131,-0.00412444,-0.898366,0.00319409,0.0424168,671,1065,-23.8771,-0.62653
-546,-41,-23.967,0.671509,-0.00150445,-0.000850321,-2.01919e-05,-0.000849698,-0.00150507,-1.53997,0.000871362,0.0409689,678,1065,-23.967,-0.671528
-539,-41,-24.0313,0.901367,-0.000604699,-0.000793388,0.00250488,0.00180761,-0.0032057,0.766575,0.00293171,0.0404866,685,1065,-24.0313,-0.901362
-532,-41,-23.8558,0.789429,0.000288738,-0.000581428,0.00285071,0.00273738,-0.00303007,0.709671,0.00333126,0.0399005,692,1065,-23.8558,-0.7894
-525,-41,0,0,0,0,0,0,0,0,0,-1,699,1065,0,0
-518,-41,0,0,0,0,0,0,0,0,0,-1,706,1065,0,0
-511,-41,0,0,0,0,0,0,0,0,0,-1,713,1065,0,0
-504,-41,0,0,0,0,0,0,0,0,0,-1,720,1065,0,0
-497,-41,0,0,0,0,0,0,0,0,0,-1,727,1065,0,0
-490,-41,0,0,0,0,0,0,0,0,0,-1,734,1065,0,0
-483,-41,0,0,0,0,0,0,0,0,0,-1,741,1065,0,0
-476,-41,0,0,0,0,0,0,0,0,0,-1,748,1065,0,0
-469,-41,0,0,0,0,0,0,0,0,0,-1,755,1065,0,0
-462,-41,0,0,0,0,0,0,0,0,0,-1,762,1065,0,0
-455,-41,0,0,0,0,0,0,0,0,0,-1,769,1065,0,0
-448,-41,0,0,0,0,0,0,0,0,0,-1,776,1065,0,0
-441,-41,0,0,0,0,0,0,0,0,0,-1,783,1065,0,0
-434,-41,0,0,0,0,0,0,0,0,0,-1,790,1065,0,0
-427,-41,0,0,0,0,0,0,0,0,0,-1,797,1065,0,0
-420,-41,0,0,0,0,0,0,0,0,0,-1,804,1065,0,0
-413,-41,0,0,0,0,0,0,0,0,0,-1,811,1065,0,0
-406,-41,0,0,0,0,0,0,0,0,0,-1,818,1065,0,0
-399,-41,0,0,0,0,0,0,0,0,0,-1,825,1065,0,0
-392,-41,0,0,0,0,0,0,0,0,0,-1,832,1065,0,0
-385,-41,0,0,0,0,0,0,0,0,0,-1,839,1065,0,0
-378,-41,0,0,0,0,0,0,0,0,0,-1,846,1065,0,0
-371,-41,0,0,0,0,0,0,0,0,0,-1,853,1065,0,0
-364,-41,0,0,0,0,0,0,0,0,0,-1,860,1065,0,0
-357,-41,0,0,0,0,0,0,0,0,0,-1,867,1065,0,0
-350,-41,0,0,0,0,0,0,0,0,0,-1,874,1065,0,0
-343,-41,0,0,0,0,0,0,0,0,0,-1,881,1065,0,0
-336,-41,0,0,0,0,0,0,0,0,0,-1,888,1065,0,0
-329,-41,0,0,0,0,0,0,0,0,0,-1,895,1065,0,0
-322,-41,0,0,0,0,0,0,0,0,0,-1,902,1065,0,0
-315,-41,0,0,0,0,0,0,0,0,0,-1,909,1065,0,0
-308,-41,0,0,0,0,0,0,0,0,0,-1,916,1065,0,0
-301,-41,0,0,0,0,0,0,0,0,0,-1,923,1065,0,0
-294,-41,0,0,0,0,0,0,0,0,0,-1,930,1065,0,0
-287,-41,0,0,0,0,0,0,0,0,0,-1,937,1065,0,0
-280,-41,0,0,0,0,0,0,0,0,0,-1,944,1065,0,0
-273,-41,0,0,0,0,0,0,0,0,0,-1,951,1065,0,0
-266,-41,0,0,0,0,0,0,0,0,0,-1,958,1065,0,0
-259,-41,0,0,0,0,0,0,0,0,0,-1,965,1065,0,0
-252,-41,0,0,0,0,0,0,0,0,0,-1,972,1065,0,0
-245,-41,0,0,0,0,0,0,0,0,0,-1,979,1065,0,0
-238,-41,0,0,0,0,0,0,0,0,0,-1,986,1065,0,0
-231,-41,0,0,0,0,0,0,0,0,0,-1,993,1065,0,0
-224,-41,0,0,0,0,0,0,0,0,0,-1,1000,1065,0,0
-217,-41,0,0,0,0,0,0,0,0,0,-1,1007,1065,0,0
-210,-41,0,0,0,0,0,0,0,0,0,-1,1014,1065,0,0
-203,-41,0,0,0,0,0,0,0,0,0,-1,1021,1065,0,0
-196,-41,0,0,0,0,0,0,0,0,0,-1,1028,1065,0,0
-189,-41,0,0,0,0,0,0,0,0,0,-1,1035,1065,0,0
-182,-41,0,0,0,0,0,0,0,0,0,-1,1042,1065,0,0
-175,-41,0,0,0,0,0,0,0,0,0,-1,1049,1065,0,0
-168,-41,0,0,0,0,0,0,0,0,0,-1,1056,1065,0,0
-161,-41,0,0,0,0,0,0,0,0,0,-1,1063,1065,0,0
-154,-41,0,0,0,0,0,0,0,0,0,-1,1070,1065,0,0
-147,-41,0,0,0,0,0,0,0,0,0,-1,1077,1065,0,0
-140,-41,0,0,0,0,0,0,0,0,0,-1,1084,1065,0,0
-133,-41,0,0,0,0,0,0,0,0,0,-1,1091,1065,0,0
-126,-41,0,0,0,0,0,0,0,0,0,-1,1098,1065,0,0
-119,-41,0,0,0,0,0,0,0,0,0,-1,1105,1065,0,0
-112,-41,0,0,0,0,0,0,0,0,0,-1,1112,1065,0,0
-105,-41,0,0,0,0,0,0,0,0,0,-1,1119,1065,0,0
-98,-41,0,0,0,0,0,0,0,0,0,-1,1126,1065,0,0
-91,-41,0,0,0,0,0,0,0,0,0,-1,1133,1065,0,0
-84,-41,0,0,0,0,0,0,0,0,0,-1,1140,1065,0,0
-77,-41,0,0,0,0,0,0,0,0,0,-1,1147,1065,0,0
-70,-41,0,0,0,0,0,0,0,0,0,-1,1154,1065,0,0
-63,-41,0,0,0,0,0,0,0,0,0,-1,1161,1065,0,0
-56,-41,0,0,0,0,0,0,0,0,0,-1,1168,1065,0,0
-49,-41,0,0,0,0,0,0,0,0,0,-1,1175,1065,0,0
-42,-41,0,0,0,0,0,0,0,0,0,-1,1182,1065,0,0
-35,-41,0,0,0,0,0,0,0,0,0,-1,1189,1065,0,0
-28,-41,0,0,0,0,0,0,0,0,0,-1,1196,1065,0,0
-21,-41,0,0,0,0,0,0,0,0,0,-1,1203,1065,0,0
-14,-41,0,0,0,0,0,0,0,0,0,-1,1210,1065,0,0
-7,-41,0,0,0,0,0,0,0,0,0,-1,1217,1065,0,0
0,-41,0,0,0,0,0,0,0,0,0,-1,1224,1065,0,0
7,-41,0,0,0,0,0,0,0,0,0,-1,1231,1065,0,0
14,-41,0,0,0,0,0,0,0,0,0,-1,1238,1065,0,0
21,-41,0,0,0,0,0,0,0,0,0,-1,1245,1065,0,0
28,-41,0,0,0,0,0,0,0,0,0,-1,1252,1065,0,0
35,-41,0,0,0,0,0,0,0,0,0,-1,1259,1065,0,0
42,-41,0,0,0,0,0,0,0,0,0,-1,1266,1065,0,0
49,-41,0,0,0,0,0,0,0,0,0,-1,1273,1065,0,0
56,-41,0,0,0,0,0,0,0,0,0,-1,1280,1065,0,0
63,-41,0,0,0,0,0,0,0,0,0,-1,1287,1065,0,0
70,-41,0,0,0,0,0,0,0,0,0,-1,1294,1065,0,0
77,-41,0,0,0,0,0,0,0,0,0,-1,1301,1065,0,0
84,-41,0,0,0,0,0,0,0,0,0,-1,1308,1065,0,0
91,-41,0,0,0,0,0,0,0,0,0,-1,1315,1065,0,0
98,-41,0,0,0,0,0,0,0,0,0,-1,1322,1065,0,0
105,-41,0,0,0,0,0,0,0,0,0,-1,1329,1065,0,0
112,-41,0,0,0,0,0,0,0,0,0,-1,1336,1065,0,0
119,-41,0,0,0,0,0,0,0,0,0,-1,1343,1065,0,0
126,-41,0,0,0,0,0,0,0,0,0,-1,1350,1065,0,0
133,-41,0,0,0,0,0,0,0,0,0,-1,1357,1065,0,0
140,-41,0,0,0,0,0,0,0,0,0,-1,1364,1065,0,0
147,-41,0,0,0,0,0,0,0,0,0,-1,1371,1065,0,0
154,-41,0,0,0,0,0,0,0,0,0,-1,1378,1065,0,0
161,-41,0,0,0,0,0,0,0,0,0,-1,1385,1065,0,0
168,-41,0,0,0,0,0,0,0,0,0,-1,1392,1065,0,0
175,-41,0,0,0,0,0,0,0,0,0,-1,1399,1065,0,0
182,-41,0,0,0,0,0,0,0,0,0,-1,1406,1065,0,0
189,-41,0,0,0,0,0,0,0,0,0,-1,1413,1065,0,0
196,-41,0,0,0,0,0,0,0,0,0,-1,1420,1065,0,0
203,-41,0,0,0,0,0,0,0,0,0,-1,1427,1065,0,0
210,-41,0,0,0,0,0,0,0,0,0,-1,1434,1065,0,0
217,-41,0,0,0,0,0,0,0,0,0,-1,1441,1065,0,0
224,-41,0,0,0,0,0,0,0,0,0,-1,1448,1065,0,0
231,-41,0,0,0,0,0,0,0,0,0,-1,1455,1065,0,0
238,-41,0,0,0,0,0,0,0,0,0,-1,1462,1065,0,0
245,-41,0,0,0,0,0,0,0,0,0,-1,1469,1065,0,0
252,-41,0,0,0,0,0,0,0,0,0,-1,1476,1065,0,0
259,-41,0,0,0,0,0,0,0,0,0,-1,1483,1065,0,0
266,-41,0,0,0,0,0,0,0,0,0,-1,1490,1065,0,0
273,-41,0,0,0,0,0,0,0,0,0,-1,1497,1065,0,0
280,-41,0,0,0,0,0,0,0,0,0,-1,1504,1065,0,0
287,-41,0,0,0,0,0,0,0,0,0,-1,1511,1065,0,0
294,-41,0,0,0,0,0,0,0,0,0,-1,1518,1065,0,0
301,-41,0,0,0,0,0,0,0,0,0,-1,1525,1065,0,0
308,-41,0,0,0,0,0,0,0,0,0,-1,1532,1065,0,0
315,-41,0,0,0,0,0,0,0,0,0,-1,1539,1065,0,0
322,-41,0,0,0,0,0,0,0,0,0,-1,1546,1065,0,0
329,-41,0,0,0,0,0,0,0,0,0,-1,1553,1065,0,0
336,-41,0,0,0,0,0,0,0,0,0,-1,1560,1065,0,0
343,-41,0,0,0,0,0,0,0,0,0,-1,1567,1065,0,0
350,-41,0,0,0,0,0,0,0,0,0,-1,1574,1065,0,0
357,-41,0,0,0,0,0,0,0,0,0,-1,1581,1065,0,0
364,-41,0,0,0,0,0,0,0,0,0,-1,1588,1065,0,0
371,-41,0,0,0,0,0,0,0,0,0,-1,1595,1065,0,0
378,-41,0,0,0,0,0,0,0,0,0,-1,1602,1065,0,0
385,-41,0,0,0,0,0,0,0,0,0,-1,1609,1065,0,0
392,-41,0,0,0,0,0,0,0,0,0,-1,1616,1065,0,0
399,-41,0,0,0,0,0,0,0,0,0,-1,1623,1065,0,0
406,-41,0,0,0,0,0,0,0,0,0,-1,1630,1065,0,0
413,-41,0,0,0,0,0,0,0,0,0,-1,1637,1065,0,0
420,-41,0,0,0,0,0,0,0,0,0,-1,1644,1065,0,0
427,-41,0,0,0,0,0,0,0,0,0,-1,1651,1065,0,0
434,-41,0,0,0,0,0,0,0,0,0,-1,1658,1065,0,0
441,-41,0,0,0,0,0,0,0,0,0,-1,1665,1065,0,0
448,-41,0,0,0,0,0,0,0,0,0,-1,1672,1065,0,0
455,-41,0,0,0,0,0,0,0,0,0,-1,1679,1065,0,0
462,-41,0,0,0,0,0,0,0,0,0,-1,1686,1065,0,0
469,-41,0,0,0,0,0,0,0,0,0,-1,1693,1065,0,0
476,-41,0,0,0,0,0,0,0,0,0,-1,1700,1065,0,0
483,-41,0,0,0,0,0,0,0,0,0,-1,1707,1065,0,0
490,-41,0,0,0,0,0,0,0,0,0,-1,1714,1065,0,0
497,-41,0,0,0,0,0,0,0,0,0,-1,1721,1065,0,0
504,-41,0,0,0,0,0,0,0,0,0,-1,1728,1065,0,0
511,-41,0,0,0,0,0,0,0,0,0,-1,1735,1065,0,0
518,-41,0,0,0,0,0,0,0,0,0,-1,1742,1065,0,0
525,-41,0,0,0,0,0,0,0,0,0,-1,1749,1065,0,0
532,-41,0,0,0,0,0,0,0,0,0,-1,1756,1065,0,0
539,-41,0,0,0,0,0,0,0,0,0,-1,1763,1065,0,0
546,-41,0,0,0,0,0,0,0,0,0,-1,1770,1065,0,0
553,-41,0,0,0,0,0,0,0,0,0,-1,1777,1065,0,0
560,-41,0,0,0,0,0,0,0,0,0,-1,1784,1065,0,0
567,-41,0,0,0,0,0,0,0,0,0,-1,1791,1065,0,0
574,-41,0,0,0,0,0,0,0,0,0,-1,1798,1065,0,0
581,-41,0,0,0,0,0,0,0,0,0,-1,1805,1065,0,0
588,-41,0,0,0,0,0,0,0,0,0,-1,1812,1065,0,0
595,-41,0,0,0,0,0,0,0,0,0,-1,1819,1065,0,0
602,-41,0,0,0,0,0,0,0,0,0,-1,1826,1065,0,0
609,-41,0,0,0,0,0,0,0,0,0,-1,1833,1065,0,0
616,-41,0,0,0,0,0,0,0,0,0,-1,1840,1065,0,0
623,-41,0,0,0,0,0,0,0,0,0,-1,1847,1065,0,0
630,-41,0,0,0,0,0,0,0,0,0,-1,1854,1065,0,0
637,-41,0,0,0,0,0,0,0,0,0,-1,1861,1065,0,0
644,-41,0,0,0,0,0,0,0,0,0,-1,1868,1065,0,0
651,-41,33.5006,2.79834,0.00187672,0.00520653,0.00100926,0.00548855,0.00159471,1.29832,0.00326017,0.0361731,1875,1065,33.5006,-2.79838
658,-41,33.6027,2.78955,0.00131688,0.00384615,0.00100298,0.0041956,0.000967433,1.23554,0.00253684,0.0403947,1882,1065,33.6026,-2.78954
665,-41,33.7085,2.80725,0.000835404,0.002883,0.000920279,0.00323582,0.000482585,1.2047,0.0020157,0.041132,1889,1065,33.7085,-2.80726
672,-41,33.7343,2.77673,0.000533137,0.0021058,0.00117271,0.0027314,-9.24679e-05,1.08073,0.00185253,0.0408606,1896,1065,33.7342,-2.77669
679,-41,33.5994,2.86353,7.39926e-05,0.00147155,0.00177868,0.00268379,-0.00113825,0.972568,0.00226599,0.0402071,1903,1065,33.5993,-2.86357
686,-41,33.4208,3.04639,-0.000590189,0.000851388,0.00249105,0.00272383,-0.00246264,0.926228,0.00299568,0.0432068,1910,1065,33.4208,-3.04634
693,-41,33.4646,2.96729,-0.00113714,0.000301653,0.0031158,0.00278003,-0.00361552,0.898854,0.00370296,0.0460651,1917,1065,33.4646,-2.96727
700,-41,33.5737,2.87354,-0.00159019,-0.000110356,0.00362366,0.00284815,-0.0045487,0.886109,0.00430803,0.0401518,1924,1065,33.5737,-2.8735
707,-41,33.5648,2.74475,-0.00198837,-0.000430517,0.00399446,0.00286026,-0.00527914,0.88169,0.00476795,0.0295846,1931,1065,33.5648,-2.74476
714,-41,33.5618,2.84656,-0.00244631,-0.000564666,0.00422829,0.00282621,-0.00583718,0.894868,0.00510152,0.0200083,1938,1065,33.5618,-2.8465
721,-41,33.6482,4.2229,0,0,0,0,0,0,0,-1,1945,1065,33.6482,-4.22285
728,-41,33.2434,5.02405,-0.0032933,-0.000181489,0.00428066,0.00281726,-0.00629205,0.959712,0.0053853,0.0457019,1952,1065,33.2434,-5.02408
735,-41,33.0035,5.13586,-0.00316295,0.000276859,0.00398247,0.00289494,-0.00578104,0.989235,0.00510063,0.0175865,1959,1065,33.0035,-5.13581
742,-41,32.9551,5.04932,-0.00247155,0.00136409,0.00336586,0.00332016,-0.00442762,1.04435,0.00448839,0.0144035,1966,1065,32.955,-5.04927
749,-41,32.9792,4.97925,-0.000818244,0.00313943,0.00224923,0.00415639,-0.00183521,1.14616,0.00354473,0.012808,1973,1065,32.9793,-4.97929
756,-41,33.0165,4.90161,0.00141926,0.0052421,0.000918205,0.00545121,0.00121015,1.34688,0.00330544,0.0127167,1980,1065,33.0165,-4.90164
763,-41,32.9608,4.81042,0.00427767,0.00776799,-0.000853525,0.00796553,0.00408013,-1.34336,0.00459936,0.0106331,1987,1065,32.9608,-4.81038
770,-41,32.8904,4.73755,0.00823,0.0111957,-0.00323804,0.0132742,0.00615142,-1.00012,0.00767073,0.012281,1994,1065,32.8904,-4.73755
777,-41,32.8445,4.63757,0.013765,0.0152483,-0.00603212,0.0205842,0.00842913,-0.846567,0.011949,0.0141535,2001,1065,32.8445,-4.63755
784,-41,32.8296,4.46741,0.0201261,0.0198098,-0.00891964,0.028889,0.0110469,-0.776533,0.0168322,0.0253356,2008,1065,32.8296,-4.46737
791,-41,32.8977,4.26624,0.0269799,0.0243845,-0.0119764,0.0377287,0.0136356,-0.731431,0.0220598,0.0453494,2015,1065,32.8977,-4.26626
798,-41,33.5911,3.2627,0.0346598,0.0291116,-0.0154323,0.0475654,0.016206,-0.696468,0.0279226,0.0450969,2022,1065,33.5911,-3.26269
805,-41,33.9155,2.92078,0.0429999,0.0338387,-0.0192442,0.0582011,0.0186375,-0.668559,0.0343188,0.0422617,2029,1065,33.9154,-2.92084
812,-41,34.2844,2.69824,0.0512263,0.0381958,-0.0232767,0.0688824,0.0205397,-0.648939,0.0408348,0.0491636,2036,1065,34.2844,-2.69826
-700,-48,-22.4002,2.33252,0,0,0,0,0,0,0,-1,524,1072,-22.4002,-2.33258
-693,-48,-23.2723,2.56897,0,0,0,0,0,0,0,-1,531,1072,-23.2723,-2.56892
-686,-48,-23.6807,2.67273,-0.0194239,0.0583406,-0.00634098,0.0588543,-0.0199375,-1.48997,0.0473039,0.0434857,538,1072,-23.6807,-2.67269
-679,-48,-24.1365,2.84485,-0.0121324,0.0521734,-0.00216689,0.0522464,-0.0122054,-1.53715,0.0395325,0.045472,545,1072,-24.1366,-2.84489
-672,-48,-24.1862,-0.182617,0,0,0,0,0,0,0,-1,552,1072,-24.1862,0.182616
-665,-48,-23.9243,0.33374,0,0,0,0,0,0,0,-1,559,1072,-23.9243,-0.333729
-658,-48,-23.5502,0.880005,-0.00041134,0.0311745,0.00321163,0.0314978,-0.000734587,1.47048,0.0212476,0.0480676,566,1072,-23.5502,-0.880042
-651,-48,-23.3229,1.38306,0.00110101,0.024613,0.0034015,0.0250952,0.000618798,1.42997,0.0165278,0.0356776,573,1072,-23.3229,-1.38306
-644,-48,-23.4224,1.81213,0.0021102,0.0183541,0.00327217,0.0189884,0.00147583,1.3793,0.0121968,0.0178257,580,1072,-23.4224,-1.81215
-637,-48,-23.4294,1.88757,0.00224445,0.0131587,0.00203816,0.0135269,0.00187626,1.39207,0.00846211,0.0172031,587,1072,-23.4295,-1.88759
-630,-48,-23.4325,2.04016,0.00175765,0.00823939,2.83769e-05,0.00823951,0.00175753,1.56642,0.00501098,0.0177627,594,1072,-23.4325,-2.04016
-623,-48,-23.4885,2.21069,0.00110083,0.00521407,-0.00158088,0.00575145,0.00056345,-1.24312,0.00366097,0.0106752,601,1072,-23.4886,-2.21071
-616,-48,-23.4843,2.37488,0.00031228,0.0030902,-0.00326086,0.00524558,-0.00184311,-0.986735,0.0042469,0.00995046,608,1072,-23.4843,-2.37482
-609,-48,-23.4616,2.53174,-0.000712369,0.00169431,-0.00474586,0.00538701,-0.00440507,-0.909559,0.00566293,0.0116308,615,1072,-23.4616,-2.5317
-602,-48,-23.4842,2.64478,-0.00161704,0.000468999,-0.00594486,0.00546165,-0.00660969,-0.872239,0.00697989,0.0116632,622,1072,-23.4842,-2.64478
-595,-48,-23.6586,2.75598,0,0,0,0,0,0,0,-1,629,1072,-23.6586,-2.75596
-588,-48,-23.7245,1.80493,0,0,0,0,0,0,0,-1,636,1072,-23.7246,-1.80495
-581,-48,-23.7905,0.854004,0,0,0,0,0,0,0,-1,643,1072,-23.7905,-0.853949
-574,-48,-23.688,1.05847,-0.00257737,-0.00108397,-0.00645891,0.00467125,-0.0083326,-0.842947,0.00760633,0.0399037,650,1072,-23.688,-1.05853
-567,-48,-23.6085,1.07727,-0.00262769,-0.00120549,-0.00576798,0.00389506,-0.00772824,-0.846731,0.00683127,0.0390056,657,1072,-23.6085,-1.07726
-560,-48,-23.8391,0.995483,-0.00246922,-0.00122546,-0.00450798,0.00270333,-0.00639801,-0.853941,0.00539705,0.0399305,664,1072,-23.8391,-0.995503
-553,-48,-23.8585,0.760986,-0.00195412,-0.00119246,-0.00260121,0.00105564,-0.00420223,-0.858084,0.00321173,0.0430019,671,1072,-23.8585,-0.760943
-546,-48,-24.0118,0.601074,-0.000967351,-0.00117972,2.93129e-05,-0.000963379,-0.00118369,0.134674,0.000726905,0.0413686,678,1072,-24.0119,-0.60105
-539,-48,-24.1069,0.682129,0.000360473,-0.00114341,0.00262952,0.00234345,-0.00312639,0.646134,0.00316878,0.0393587,685,1072,-24.1069,-0.68215
-532,-48,-23.9955,0.851196,0.00153941,-0.000931623,0.00289635,0.00345276,-0.00284498,0.583796,0.00364164,0.0383995,692,1072,-23.9955,-0.851202
-525,-48,0,0,0,0,0,0,0,0,0,-1,699,1072,0,0
-518,-48,0,0,0,0,0,0,0,0,0,-1,706,1072,0,0
-511,-48,0,0,0,0,0,0,0,0,0,-1,713,1072,0,0
-504,-48,0,0,0,0,0,0,0,0,0,-1,720,1072,0,0
-497,-48,0,0,0,0,0,0,0,0,0,-1,727,1072,0,0
-490,-48,0,0,0,0,0,0,0,0,0,-1,734,1072,0,0
-483,-48,0,0,0,0,0,0,0,0,0,-1,741,1072,0,0
-476,-48,0,0,0,0,0,0,0,0,0,-1,748,1072,0,0
-469,-48,0,0,0,0,0,0,0,0,0,-1,755,1072,0,0
-462,-48,0,0,0,0,0,0,0,0,0,-1,762,1072,0,0
-455,-48,0,0,0,0,0,0,0,0,0,-1,769,1072,0,0
-448,-48,0,0,0,0,0,0,0,0,0,-1,776,1072,0,0
-441,-48,0,0,0,0,0,0,0,0,0,-1,783,1072,0,0
-434,-48,0,0,0,0,0,0,0,0,0,-1,790,1072,0,0
-427,-48,0,0,0,0,0,0,0,0,0,-1,797,1072,0,0
-420,-48,0,0,0,0,0,0,0,0,0,-1,804,1072,0,0
-413,-48,0,0,0,0,0,0,0,0,0,-1,811,1072,0,0
-406,-48,0,0,0,0,0,0,0,0,0,-1,818,1072,0,0
-399,-48,0,0,0,0,0,0,0,0,0,-1,825,1072,0,0
-392,-48,0,0,0,0,0,0,0,0,0,-1,832,1072,0,0
-385,-48,0,0,0,0,0,0,0,0,0,-1,839,1072,0,0
-378,-48,0,0,0,0,0,0,0,0,0,-1,846,1072,0,0
-371,-48,0,0,0,0,0,0,0,0,0,-1,853,1072,0,0
-364,-48,0,0,0,0,0,0,0,0,0,-1,860,1072,0,0
-357,-48,0,0,0,0,0,0,0,0,0,-1,867,1072,0,0
-350,-48,0,0,0,0,0,0,0,0,0,-1,874,1072,0,0
-343,-48,0,0,0,0,0,0,0,0,0,-1,881,1072,0,0
-336,-48,0,0,0,0,0,0,0,0,0,-1,888,1072,0,0
-329,-48,0,0,0,0,0,0,0,0,0,-1,895,1072,0,0
-322,-48,0,0,0,0,0,0,0,0,0,-1,902,1072,0,0
-315,-48,0,0,0,0,0,0,0,0,0,-1,909,1072,0,0
-308,-48,0,0,0,0,0,0,0,0,0,-1,916,1072,0,0
-301,-48,0,0,0,0,0,0,0,0,0,-1,923,1072,0,0
-294,-48,0,0,0,0,0,0,0,0,0,-1,930,1072,0,0
-287,-48,0,0,0,0,0,0,0,0,0,-1,937,1072,0,0
-280,-48,0,0,0,0,0,0,0,0,0,-1,944,1072,0,0
-273,-48,0,0,0,0,0,0,0,0,0,-1,951,1072,0,0
-266,-48,0,0,0,0,0,0,0,0,0,-1,958,1072,0,0
-259,-48,0,0,0,0,0,0,0,0,0,-1,965,1072,0,0
-252,-48,0,0,0,0,0,0,0,0,0,-1,972,1072,0,0
-245,-48,0,0,0,0,0,0,0,0,0,-1,979,1072,0,0
-238,-48,0,0,0,0,0,0,0,0,0,-1,986,1072,0,0
-231,-48,0,0,0,0,0,0,0,0,0,-1,993,1072,0,0
-224,-48,0,0,0,0,0,0,0,0,0,-1,1000,1072,0,0
-217,-48,0,0,0,0,0,0,0,0,0,-1,1007,1072,0,0
-210,-48,0,0,0,0,0,0,0,0,0,-1,1014,1072,0,0
-203,-48,0,0,0,0,0,0,0,0,0,-1,1021,1072,0,0
-196,-48,0,0,0,0,0,0,0,0,0,-1,1028,1072,0,0
-189,-48,0,0,0,0,0,0,0,0,0,-1,1035,1072,0,0
-182,-48,0,0,0,0,0,0,0,0,0,-1,1042,1072,0,0
-175,-48,0,0,0,0,0,0,0,0,0,-1,1049,1072,0,0
-168,-48,0,0,0,0,0,0,0,0,0,-1,1056,1072,0,0
-161,-48,0,0,0,0,0,0,0,0,0,-1,1063,1072,0,0
-154,-48,0,0,0,0,0,0,0,0,0,-1,1070,1072,0,0
-147,-48,0,0,0,0,0,0,0,0,0,-1,1077,1072,0,0
-140,-48,0,0,0,0,0,0,0,0,0,-1,1084,1072,0,0
-133,-48,0,0,0,0,0,0,0,0,0,-1,1091,1072,0,0
-126,-48,0,0,0,0,0,0,0,0,0,-1,1098,1072,0,0
-119,-48,0,0,0,0,0,0,0,0,0,-1,1105,1072,0,0
-112,-48,0,0,0,0,0,0,0,0,0,-1,1112,1072,0,0
-105,-48,0,0,0,0,0,0,0,0,0,-1,1119,1072,0,0
-98,-48,0,0,0,0,0,0,0,0,0,-1,1126,1072,0,0
-91,-48,0,0,0,0,0,0,0,0,0,-1,1133,1072,0,0
-84,-48,0,0,0,0,0,0,0,0,0,-1,1140,1072,0,0
-77,-48,0,0,0,0,0,0,0,0,0,-1,1147,1072,0,0
-70,-48,0,0,0,0,0,0,0,0,0,-1,1154,1072,0,0
-63,-48,0,0,0,0,0,0,0,0,0,-1,1161,1072,0,0
-56,-48,0,0,0,0,0,0,0,0,0,-1,1168,1072,0,0
-49,-48,0,0,0,0,0,0,0,0,0,-1,1175,1072,0,0
-42,-48,0,0,0,0,0,0,0,0,0,-1,1182,1072,0,0
-35,-48,0,0,0,0,0,0,0,0,0,-1,1189,1072,0,0
-28,-48,0,0,0,0,0,0,0,0,0,-1,1196,1072,0,0
-21,-48,0,0,0,0,0,0,0,0,0,-1,1203,1072,0,0
-14,-48,0,0,0,0,0,0,0,0,0,-1,1210,1072,0,0
-7,-48,0,0,0,0,0,0,0,0,0,-1,1217,1072,0,0
0,-48,0,0,0,0,0,0,0,0,0,-1,1224,1072,0,0
7,-48,0,0,0,0,0,0,0,0,0,-1,1231,1072,0,0
14,-48,0,0,0,0,0,0,0,0,0,-1,1238,1072,0,0
21,-48,0,0,0,0,0,0,0,0,0,-1,1245,1072,0,0
28,-48,0,0,0,0,0,0,0,0,0,-1,1252,1072,0,0
35,-48,0,0,0,0,0,0,0,0,0,-1,1259,1072,0,0
42,-48,0,0,0,0,0,0,0,0,0,-1,1266,1072,0,0
49,-48,0,0,0,0,0,0,0,0,0,-1,1273,1072,0,0
56,-48,0,0,0,0,0,0,0,0,0,-1,1280,1072,0,0
63,-48,0,0,0,0,0,0,0,0,0,-1,1287,1072,0,0
70,-48,0,0,0,0,0,0,0,0,0,-1,1294,1072,0,0
77,-48,0,0,0,0,0,0,0,0,0,-1,1301,1072,0,0
84,-48,0,0,0,0,0,0,0,0,0,-1,1308,1072,0,0
91,-48,0,0,0,0,0,0,0,0,0,-1,1315,1072,0,0
98,-48,0,0,0,0,0,0,0,0,0,-1,1322,1072,0,0
105,-48,0,0,0,0,0,0,0,0,0,-1,1329,1072,0,0
112,-48,0,0,0,0,0,0,0,0,0,-1,1336,1072,0,0
119,-48,0,0,0,0,0,0,0,0,0,-1,1343,1072,0,0
126,-48,0,0,0,0,0,0,0,0,0,-1,1350,1072,0,0
133,-48,0,0,0,0,0,0,0,0,0,-1,1357,1072,0,0
140,-48,0,0,0,0,0,0,0,0,0,-1,1364,1072,0,0
147,-48,0,0,0,0,0,0,0,0,0,-1,1371,1072,0,0
154,-48,0,0,0,0,0,0,0,0,0,-1,1378,1072,0,0
161,-48,0,0,0,0,0,0,0,0,0,-1,1385,1072,0,0
168,-48,0,0,0,0,0,0,0,0,0,-1,1392,1072,0,0
175,-48,0,0,0,0,0,0,0,0,0,-1,1399,1072,0,0
182,-48,0,0,0,0,0,0,0,0,0,-1,1406,1072,0,0
189,-48,0,0,0,0,0,0,0,0,0,-1,1413,1072,0,0
196,-48,0,0,0,0,0,0,0,0,0,-1,1420,1072,0,0
203,-48,0,0,0,0,0,0,0,0,0,-1,1427,1072,0,0
210,-48,0,0,0,0,0,0,0,0,0,-1,1434,1072,0,0
217,-48,0,0,0,0,0,0,0,0,0,-1,1441,1072,0,0
224,-48,0,0,0,0,0,0,0,0,0,-1,1448,1072,0,0
231,-48,0,0,0,0,0,0,0,0,0,-1,1455,1072,0,0
238,-48,0,0,0,0,0,0,0,0,0,-1,1462,1072,0,0
245,-48,0,0,0,0,0,0,0,0,0,-1,1469,1072,0,0
252,-48,0,0,0,0,0,0,0,0,0,-1,1476,1072,0,0
259,-48,0,0,0,0,0,0,0,0,0,-1,1483,1072,0,0
266,-48,0,0,0,0,0,0,0,0,0,-1,1490,1072,0,0
273,-48,0,0,0,0,0,0,0,0,0,-1,1497,1072,0,0
280,-48,0,0,0,0,0,0,0,0,0,-1,1504,1072,0,0
287,-48,0,0,0,0,0,0,0,0,0,-1,1511,1072,0,0
294,-48,0,0,0,0,0,0,0,0,0,-1,1518,1072,0,0
301,-48,0,0,0,0,0,0,0,0,0,-1,1525,1072,0,0
308,-48,0,0,0,0,0,0,0,0,0,-1,1532,1072,0,0
315,-48,0,0,0,0,0,0,0,0,0,-1,1539,1072,0,0
322,-48,0,0,0,0,0,0,0,0,0,-1,1546,1072,0,0
329,-48,0,0,0,0,0,0,0,0,0,-1,1553,1072,0,0
336,-48,0,0,0,0,0,0,0,0,0,-1,1560,1072,0,0
343,-48,0,0,0,0,0,0,0,0,0,-1,1567,1072,0,0
350,-48,0,0,0,0,0,0,0,0,0,-1,1574,1072,0,0
357,-48,0,0,0,0,0,0,0,0,0,-1,1581,1072,0,0
364,-48,0,0,0,0,0,0,0,0,0,-1,1588,1072,0,0
371,-48,0,0,0,0,0,0,0,0,0,-1,1595,1072,0,0
378,-48,0,0,0,0,0,0,0,0,0,-1,1602,1072,0,0
385,-48,0,0,0,0,0,0,0,0,0,-1,1609,1072,0,0
392,-48,0,0,0,0,0,0,0,0,0,-1,1616,1072,0,0
399,-48,0,0,0,0,0,0,0,0,0,-1,1623,1072,0,0
406,-48,0,0,0,0,0,0,0,0,0,-1,1630,1072,0,0
413,-48,0,0,0,0,0,0,0,0,0,-1,1637,1072,0,0
420,-48,0,0,0,0,0,0,0,0,0,-1,1644,1072,0,0
427,-48,0,0,0,0,0,0,0,0,0,-1,1651,1072,0,0
434,-48,0,0,0,0,0,0,0,0,0,-1,1658,1072,0,0
441,-48,0,0,0,0,0,0,0,0,0,-1,1665,1072,0,0
448,-48,0,0,0,0,0,0,0,0,0,-1,1672,1072,0,0
455,-48,0,0,0,0,0,0,0,0,0,-1,1679,1072,0,0
462,-48,0,0,0,0,0,0,0,0,0,-1,1686,1072,0,0
469,-48,0,0,0,0,0,0,0,0,0,-1,1693,1072,0,0
476,-48,0,0,0,0,0,0,0,0,0,-1,1700,1072,0,0
483,-48,0,0,0,0,0,0,0,0,0,-1,1707,1072,0,0
490,-48,0,0,0,0,0,0,0,0,0,-1,1714,1072,0,0
497,-48,0,0,0,0,0,0,0,0,0,-1,1721,1072,0,0
504,-48,0,0,0,0,0,0,0,0,0,-1,1728,1072,0,0
511,-48,0,0,0,0,0,0,0,0,0,-1,1735,1072,0,0
518,-48,0,0,0,0,0,0,0,0,0,-1,1742,1072,0,0
525,-48,0,0,0,0,0,0,0,0,0,-1,1749,1072,0,0
532,-48,0,0,0,0,0,0,0,0,0,-1,1756,1072,0,0
539,-48,0,0,0,0,0,0,0,0,0,-1,1763,1072,0,0
546,-48,0,0,0,0,0,0,0,0,0,-1,1770,1072,0,0
553,-48,0,0,0,0,0,0,0,0,0,-1,1777,1072,0,0
560,-48,0,0,0,0,0,0,0,0,0,-1,1784,1072,0,0
567,-48,0,0,0,0,0,0,0,0,0,-1,1791,1072,0,0
574,-48,0,0,0,0,0,0,0,0,0,-1,1798,1072,0,0
581,-48,0,0,0,0,0,0,0,0,0,-1,1805,1072,0,0
588,-48,0,0,0,0,0,0,0,0,0,-1,1812,1072,0,0
595,-48,0,0,0,0,0,0,0,0,0,-1,1819,1072,0,0
602,-48,0,0,0,0,0,0,0,0,0,-1,1826,1072,0,0
609,-48,0,0,0,0,0,0,0,0,0,-1,1833,1072,0,0
616,-48,0,0,0,0,0,0,0,0,0,-1,1840,1072,0,0
623,-48,0,0,0,0,0,0,0,0,0,-1,1847,1072,0,0
630,-48,0,0,0,0,0,0,0,0,0,-1,1854,1072,0,0
637,-48,0,0,0,0,0,0,0,0,0,-1,1861,1072,0,0
644,-48,0,0,0,0,0,0,0,0,0,-1,1868,1072,0,0
651,-48,33.4869,2.74756,0.00200494,0.0054539,0.0020147,0.00638137,0.00107746,1.13937,0.00394446,0.0325614,1875,1072,33.487,-2.74757
658,-48,33.5551,2.88635,0.00145209,0.00419696,0.00171708,0.00502269,0.000626359,1.12255,0.00316043,0.0374478,1882,1072,33.555,-2.88635
665,-48,33.5815,2.88574,0.000951463,0.00324143,0.00142241,0.00392244,0.000270456,1.12428,0.00252963,0.0408427,1889,1072,33.5816,-2.88572
672,-48,33.5559,2.79724,0.00063905,0.00242165,0.00150302,0.00327777,-0.00021707,1.05303,0.00226101,0.0402359,1896,1072,33.5559,-2.79725
679,-48,33.5074,2.81995,0.000153431,0.00167761,0.00192971,0.00299026,-0.00115922,0.97346,0.00247223,0.0397599,1903,1072,33.5074,-2.81995
686,-48,33.4905,2.85962,-0.000545431,0.000952059,0.00248904,0.00280253,-0.0023959,0.931501,0.00300438,0.0412956,1910,1072,33.4904,-2.85958
693,-48,33.47,2.9043,-0.00110924,0.000307287,0.00298826,0.00267007,-0.00347202,0.901759,0.0035562,0.0421919,1917,1072,33.47,-2.90433
700,-48,33.5519,2.89954,-0.00156906,-0.000178948,0.00339703,0.00259341,-0.00434141,0.886309,0.00404599,0.0372937,1924,1072,33.5519,-2.89957
707,-48,33.6279,2.78625,-0.00198915,-0.000564137,0.00370135,0.00249266,-0.00504595,0.880485,0.00443485,0.0298874,1931,1072,33.6279,-2.78622
714,-48,33.5775,2.91382,-0.00246109,-0.000774458,0.00389832,0.00237072,-0.00560627,0.891921,0.00473011,0.0315363,1938,1072,33.5775,-2.91386
721,-48,33.516,3.21631,0,0,0,0,0,0,0,-1,1945,1072,33.516,-3.21625
728,-48,33.0022,5.2865,0,0,0,0,0,0,0,-1,1952,1072,33.0022,-5.28644
735,-48,32.9138,5.203,-0.00308695,-5.81502e-05,0.00368886,0.00241507,-0.00556016,0.980175,0.00472234,0.018075,1959,1072,32.9138,-5.20302
742,-48,32.8179,5.09106,-0.00229218,0.000987383,0.00314794,0.00289702,-0.00420182,1.02551,0.00412153,0.0143098,1966,1072,32.8178,-5.09108
749,-48,32.864,4.97302,-0.000387691,0.00266271,0.00216614,0.00378674,-0.00151172,1.09214,0.00315166,0.0126607,1973,1072,32.864,-4.97303
756,-48,32.8705,4.8761,0.0021612,0.00458105,0.00100616,0.00494474,0.00179751,1.22394,0.00289008,0.0118482,1980,1072,32.8704,-4.87613
763,-48,32.8331,4.77551,0.00541667,0.00689865,-0.000523398,0.00706486,0.00525046,-1.26331,0.00423665,0.0119173,1987,1072,32.8332,-4.77549
770,-48,32.8296,4.67688,0.00993564,0.0100864,-0.00263616,0.0126483,0.00737379,-0.799693,0.00733593,0.0126702,1994,1072,32.8295,-4.67689
777,-48,32.7495,4.56213,0.0162143,0.0137348,-0.00501409,0.0201396,0.00980943,-0.664201,0.0116289,0.0117611,2001,1072,32.7495,-4.56218
784,-48,32.7284,4.39331,0.0233904,0.0176914,-0.00740931,0.0284793,0.0126026,-0.601825,0.0164787,0.0237292,2008,1072,32.7284,-4.3933
791,-48,32.9156,3.37146,0.0311554,0.0215574,-0.00988954,0.0373488,0.0153639,-0.559505,0.021676,0.038879,2015,1072,32.9156,-3.37146
798,-48,33.709,2.45471,0.0398958,0.0253992,-0.0126196,0.0472005,0.0180944,-0.524718,0.0274973,0.0462458,2022,1072,33.7091,-2.45467
805,-48,34.238,2.13074,0.0494513,0.029021,-0.015518,0.0578145,0.0206578,-0.494312,0.0338293,0.045239,2029,1072,34.238,-2.13071
812,-48,34.3123,2.0802,0.0590504,0.0320279,-0.0183859,0.0683557,0.0227226,-0.468525,0.0401973,0.0463967,2036,1072,34.3124,-2.08024
-700,-55,-21.8559,2.01929,0,0,0,0,0,0,0,-1,524,1079,-21.8559,-2.01923
-693,-55,-22.5183,2.17175,-0.0334578,0.0743119,-0.0147229,0.076287,-0.0354329,-1.43744,0.0659234,0.0460534,531,1079,-22.5183,-2.17176
-686,-55,-22.9576,2.14929,-0.0234772,0.0680735,-0.00816637,0.0687963,-0.0242,-1.48252,0.0557113,0.0453678,538,1079,-22.9576,-2.14929
-679,-55,-23.5156,2.27722,-0.0159677,0.0602433,-0.00361404,0.0604143,-0.0161387,-1.52352,0.0465969,0.0496289,545,1079,-23.5156,-2.27722
-672,-55,-24.053,2.54016,-0.0102945,0.0517655,-0.000504445,0.0517696,-0.0102986,-1.56267,0.0384089,0.0479535,552,1079,-24.053,-2.5402
-665,-55,-23.6413,2.34668,0,0,0,0,0,0,0,-1,559,1079,-23.6413,-2.34667
-658,-55,-23.4065,0.694214,-0.00308848,0.0349715,0.00256351,0.0351434,-0.00326036,1.50384,0.0245879,0.0494848,566,1079,-23.4065,-0.694252
-651,-55,-23.3323,1.16235,-0.00111263,0.0273706,0.00294237,0.0276714,-0.00141341,1.46893,0.0189363,0.0374884,573,1079,-23.3323,-1.16237
-644,-55,-23.2917,1.7301,0.000369806,0.0202175,0.00296322,0.0206505,-6.31511e-05,1.42571,0.0137881,0.0187743,580,1079,-23.2917,-1.7301
-637,-55,-23.2919,1.85242,0.000953744,0.0143554,0.00190641,0.0146213,0.000687829,1.43221,0.00952654,0.0149894,587,1079,-23.2919,-1.85245
-630,-55,-23.278,2.02014,0.000759006,0.00866203,-0.00012625,0.00866405,0.00075699,-1.55483,0.00554096,0.0164719,594,1079,-23.278,-2.02013
-623,-55,-23.3336,2.21631,0.00023257,0.0054188,-0.00173016,0.00594301,-0.000291637,-1.27661,0.00406271,0.0145087,601,1079,-23.3336,-2.21634
-616,-55,-23.3405,2.36292,-0.000472528,0.00309481,-0.00334326,0.00510045,-0.00247817,-1.03045,0.00446197,0.0137352,608,1079,-23.3405,-2.36287
-609,-55,-23.3232,2.53357,-0.00140385,0.00164666,-0.00485298,0.00520843,-0.00496562,-0.937657,0.00587455,0.0143612,615,1079,-23.3232,-2.53355
-602,-55,-23.325,2.67554,-0.00221428,0.000401889,-0.00601205,0.00524651,-0.00705891,-0.892517,0.00713018,0.0134781,622,1079,-23.325,-2.67553
-595,-55,-23.1566,2.9209,0,0,0,0,0,0,0,-1,629,1079,-23.1566,-2.9209
-588,-55,-23.4111,1.94409,0,0,0,0,0,0,0,-1,636,1079,-23.411,-1.94415
-581,-55,-23.6655,0.967407,0,0,0,0,0,0,0,-1,643,1079,-23.6655,-0.967401
-574,-55,-23.7413,1.09229,-0.00300838,-0.00123115,-0.0064612,0.00440226,-0.00864179,-0.853735,0.00766243,0.0406118,650,1079,-23.7413,-1.09231
-567,-55,-23.7634,1.08276,-0.00291682,-0.00142161,-0.00578156,0.00366048,-0.00799891,-0.849696,0.00688514,0.0399279,657,1079,-23.7634,-1.08274
-560,-55,-23.9197,1.09399,-0.00255253,-0.00152511,-0.00455323,0.0025433,-0.00662094,-0.841572,0.00546278,0.0412092,664,1079,-23.9197,-1.09404
-553,-55,-23.8473,0.956055,-0.0017539,-0.00158224,-0.00269914,0.00103244,-0.00436858,-0.801292,0.00331064,0.0418062,671,1079,-23.8473,-0.956061
-546,-55,-23.812,0.727051,-0.000363121,-0.00163998,-0.000140419,-0.000347862,-0.00165524,-0.108248,0.00100776,0.0396837,678,1079,-23.812,-0.727038
-539,-55,-24.0983,0.6604,0.00139684,-0.00164146,0.00237446,0.00269654,-0.00294116,0.500817,0.00325595,0.0387853,685,1079,-24.0983,-0.660374
-532,-55,-24.1087,0.878906,0.00283184,-0.00146899,0.00245183,0.00394267,-0.00257983,0.425399,0.00379307,0.0382285,692,1079,-24.1087,-0.878849
-525,-55,0,0,0,0,0,0,0,0,0,-1,699,1079,0,0
-518,-55,0,0,0,0,0,0,0,0,0,-1,706,1079,0,0
-511,-55,0,0,0,0,0,0,0,0,0,-1,713,1079,0,0
-504,-55,0,0,0,0,0,0,0,0,0,-1,720,1079,0,0
-497,-55,0,0,0,0,0,0,0,0,0,-1,727,1079,0,0
-490,-55,0,0,0,0,0,0,0,0,0,-1,734,1079,0,0
-483,-55,0,0,0,0,0,0,0,0,0,-1,741,1079,0,0
-476,-55,0,0,0,0,0,0,0,0,0,-1,748,1079,0,0
-469,-55,0,0,0,0,0,0,0,0,0,-1,755,1079,0,0
-462,-55,0,0,0,0,0,0,0,0,0,-1,762,1079,0,0
-455,-55,0,0,0,0,0,0,0,0,0,-1,769,1079,0,0
-448,-55,0,0,0,0,0,0,0,0,0,-1,776,1079,0,0
-441,-55,0,0,0,0,0,0,0,0,0,-1,783,1079,0,0
-434,-55,0,0,0,0,0,0,0,0,0,-1,790,1079,0,0
-427,-55,0,0,0,0,0,0,0,0,0,-1,797,1079,0,0
-420,-55,0,0,0,0,0,0,0,0,0,-1,804,1079,0,0
-413,-55,0,0,0,0,0,0,0,0,0,-1,811,1079,0,0
-406,-55,0,0,0,0,0,0,0,0,0,-1,818,1079,0,0
-399,-55,0,0,0,0,0,0,0,0,0,-1,825,1079,0,0
-392,-55,0,0,0,0,0,0,0,0,0,-1,832,1079,0,0
-385,-55,0,0,0,0,0,0,0,0,0,-1,839,1079,0,0
-378,-55,0,0,0,0,0,0,0,0,0,-1,846,1079,0,0
-371,-55,0,0,0,0,0,0,0,0,0,-1,853,1079,0,0
-364,-55,0,0,0,0,0,0,0,0,0,-1,860,1079,0,0
-357,-55,0,0,0,0,0,0,0,0,0,-1,867,1079,0,0
-350,-55,0,0,0,0,0,0,0,0,0,-1,874,1079,0,0
-343,-55,0,0,0,0,0,0,0,0,0,-1,881,1079,0,0
-336,-55,0,0,0,0,0,0,0,0,0,-1,888,1079,0,0
-329,-55,0,0,0,0,0,0,0,0,0,-1,895,1079,0,0
-322,-55,0,0,0,0,0,0,0,0,0,-1,902,1079,0,0
-315,-55,0,0,0,0,0,0,0,0,0,-1,909,1079,0,0
-308,-55,0,0,0,0,0,0,0,0,0,-1,916,1079,0,0
-301,-55,0,0,0,0,0,0,0,0,0,-1,923,1079,0,0
-294,-55,0,0,0,0,0,0,0,0,0,-1,930,1079,0,0
-287,-55,0,0,0,0,0,0,0,0,0,-1,937,1079,0,0
-280,-55,0,0,0,0,0,0,0,0,0,-1,944,1079,0,0
-273,-55,0,0,0,0,0,0,0,0,0,-1,951,1079,0,0
-266,-55,0,0,0,0,0,0,0,0,0,-1,958,1079,0,0
-259,-55,0,0,0,0,0,0,0,0,0,-1,965,1079,0,0
-252,-55,0,0,0,0,0,0,0,0,0,-1,972,1079,0,0
-245,-55,0,0,0,0,0,0,0,0,0,-1,979,1079,0,0
-238,-55,0,0,0,0,0,0,0,0,0,-1,986,1079,0,0
-231,-55,0,0,0,0,0,0,0,0,0,-1,993,1079,0,0
-224,-55,0,0,0,0,0,0,0,0,0,-1,1000,1079,0,0
-217,-55,0,0,0,0,0,0,0,0,0,-1,1007,1079,0,0
-210,-55,0,0,0,0,0,0,0,0,0,-1,1014,1079,0,0
-203,-55,0,0,0,0,0,0,0,0,0,-1,1021,1079,0,0
-196,-55,0,0,0,0,0,0,0,0,0,-1,1028,1079,0,0
-189,-55,0,0,0,0,0,0,0,0,0,-1,1035,1079,0,0
-182,-55,0,0,0,0,0,0,0,0,0,-1,1042,1079,0,0
-175,-55,0,0,0,0,0,0,0,0,0,-1,1049,1079,0,0
-168,-55,0,0,0,0,0,0,0,0,0,-1,1056,1079,0,0
-161,-55,0,0,0,0,0,0,0,0,0,-1,1063,1079,0,0
-154,-55,0,0,0,0,0,0,0,0,0,-1,1070,1079,0,0
-147,-55,0,0,0,0,0,0,0,0,0,-1,1077,1079,0,0
-140,-55,0,0,0,0,0,0,0,0,0,-1,1084,1079,0,0
-133,-55,0,0,0,0,0,0,0,0,0,-1,1091,1079,0,0
-126,-55,0,0,0,0,0,0,0,0,0,-1,1098,1079,0,0
-119,-55,0,0,0,0,0,0,0,0,0,-1,1105,1079,0,0
-112,-55,0,0,0,0,0,0,0,0,0,-1,1112,1079,0,0
-105,-55,0,0,0,0,0,0,0,0,0,-1,1119,1079,0,0
-98,-55,0,0,0,0,0,0,0,0,0,-1,1126,1079,0,0
-91,-55,0,0,0,0,0,0,0,0,0,-1,1133,1079,0,0
-84,-55,0,0,0,0,0,0,0,0,0,-1,1140,1079,0,0
-77,-55,0,0,0,0,0,0,0,0,0,-1,1147,1079,0,0
-70,-55,0,0,0,0,0,0,0,0,0,-1,1154,1079,0,0
-63,-55,0,0,0,0,0,0,0,0,0,-1,1161,1079,0,0
-56,-55,0,0,0,0,0,0,0,0,0,-1,1168,1079,0,0
-49,-55,0,0,0,0,0,0,0,0,0,-1,1175,1079,0,0
-42,-55,0,0,0,0,0,0,0,0,0,-1,1182,1079,0,0
-35,-55,0,0,0,0,0,0,0,0,0,-1,1189,1079,0,0
-28,-55,0,0,0,0,0,0,0,0,0,-1,1196,1079,0,0
-21,-55,0,0,0,0,0,0,0,0,0,-1,1203,1079,0,0
-14,-55,0,0,0,0,0,0,0,0,0,-1,1210,1079,0,0
-7,-55,0,0,0,0,0,0,0,0,0,-1,1217,1079,0,0
0,-55,0,0,0,0,0,0,0,0,0,-1,1224,1079,0,0
7,-55,0,0,0,0,0,0,0,0,0,-1,1231,1079,0,0
14,-55,0,0,0,0,0,0,0,0,0,-1,1238,1079,0,0
21,-55,0,0,0,0,0,0,0,0,0,-1,1245,1079,0,0
28,-55,0,0,0,0,0,0,0,0,0,-1,1252,1079,0,0
35,-55,0,0,0,0,0,0,0,0,0,-1,1259,1079,0,0
42,-55,0,0,0,0,0,0,0,0,0,-1,1266,1079,0,0
49,-55,0,0,0,0,0,0,0,0,0,-1,1273,1079,0,0
56,-55,0,0,0,0,0,0,0,0,0,-1,1280,1079,0,0
63,-55,0,0,0,0,0,0,0,0,0,-1,1287,1079,0,0
70,-55,0,0,0,0,0,0,0,0,0,-1,1294,1079,0,0
77,-55,0,0,0,0,0,0,0,0,0,-1,1301,1079,0,0
84,-55,0,0,0,0,0,0,0,0,0,-1,1308,1079,0,0
91,-55,0,0,0,0,0,0,0,0,0,-1,1315,1079,0,0
98,-55,0,0,0,0,0,0,0,0,0,-1,1322,1079,0,0
105,-55,0,0,0,0,0,0,0,0,0,-1,1329,1079,0,0
112,-55,0,0,0,0,0,0,0,0,0,-1,1336,1079,0,0
119,-55,0,0,0,0,0,0,0,0,0,-1,1343,1079,0,0
126,-55,0,0,0,0,0,0,0,0,0,-1,1350,1079,0,0
133,-55,0,0,0,0,0,0,0,0,0,-1,1357,1079,0,0
140,-55,0,0,0,0,0,0,0,0,0,-1,1364,1079,0,0
147,-55,0,0,0,0,0,0,0,0,0,-1,1371,1079,0,0
154,-55,0,0,0,0,0,0,0,0,0,-1,1378,1079,0,0
161,-55,0,0,0,0,0,0,0,0,0,-1,1385,1079,0,0
168,-55,0,0,0,0,0,0,0,0,0,-1,1392,1079,0,0
175,-55,0,0,0,0,0,0,0,0,0,-1,1399,1079,0,0
182,-55,0,0,0,0,0,0,0,0,0,-1,1406,1079,0,0
189,-55,0,0,0,0,0,0,0,0,0,-1,1413,1079,0,0
196,-55,0,0,0,0,0,0,0,0,0,-1,1420,1079,0,0
203,-55,0,0,0,0,0,0,0,0,0,-1,1427,1079,0,0
210,-55,0,0,0,0,0,0,0,0,0,-1,1434,1079,0,0
217,-55,0,0,0,0,0,0,0,0,0,-1,1441,1079,0,0
224,-55,0,0,0,0,0,0,0,0,0,-1,1448,1079,0,0
231,-55,0,0,0,0,0,0,0,0,0,-1,1455,1079,0,0
238,-55,0,0,0,0,0,0,0,0,0,-1,1462,1079,0,0
245,-55,0,0,0,0,0,0,0,0,0,-1,1469,1079,0,0
252,-55,0,0,0,0,0,0,0,0,0,-1,1476,1079,0,0
259,-55,0,0,0,0,0,0,0,0,0,-1,1483,1079,0,0
266,-55,0,0,0,0,0,0,0,0,0,-1,1490,1079,0,0
273,-55,0,0,0,0,0,0,0,0,0,-1,1497,1079,0,0
280,-55,0,0,0,0,0,0,0,0,0,-1,1504,1079,0,0
287,-55,0,0,0,0,0,0,0,0,0,-1,1511,1079,0,0
294,-55,0,0,0,0,0,0,0,0,0,-1,1518,1079,0,0
301,-55,0,0,0,0,0,0,0,0,0,-1,1525,1079,0,0
308,-55,0,0,0,0,0,0,0,0,0,-1,1532,1079,0,0
315,-55,0,0,0,0,0,0,0,0,0,-1,1539,1079,0,0
322,-55,0,0,0,0,0,0,0,0,0,-1,1546,1079,0,0
329,-55,0,0,0,0,0,0,0,0,0,-1,1553,1079,0,0
336,-55,0,0,0,0,0,0,0,0,0,-1,1560,1079,0,0
343,-55,0,0,0,0,0,0,0,0,0,-1,1567,1079,0,0
350,-55,0,0,0,0,0,0,0,0,0,-1,1574,1079,0,0
357,-55,0,0,0,0,0,0,0,0,0,-1,1581,1079,0,0
364,-55,0,0,0,0,0,0,0,0,0,-1,1588,1079,0,0
371,-55,0,0,0,0,0,0,0,0,0,-1,1595,1079,0,0
378,-55,0,0,0,0,0,0,0,0,0,-1,1602,1079,0,0
385,-55,0,0,0,0,0,0,0,0,0,-1,1609,1079,0,0
392,-55,0,0,0,0,0,0,0,0,0,-1,1616,1079,0,0
399,-55,0,0,0,0,0,0,0,0,0,-1,1623,1079,0,0
406,-55,0,0,0,0,0,0,0,0,0,-1,1630,1079,0,0
413,-55,0,0,0,0,0,0,0,0,0,-1,1637,1079,0,0
420,-55,0,0,0,0,0,0,0,0,0,-1,1644,1079,0,0
427,-55,0,0,0,0,0,0,0,0,0,-1,1651,1079,0,0
434,-55,0,0,0,0,0,0,0,0,0,-1,1658,1079,0,0
441,-55,0,0,0,0,0,0,0,0,0,-1,1665,1079,0,0
448,-55,0,0,0,0,0,0,0,0,0,-1,1672,1079,0,0
455,-55,0,0,0,0,0,0,0,0,0,-1,1679,1079,0,0
462,-55,0,0,0,0,0,0,0,0,0,-1,1686,1079,0,0
469,-55,0,0,0,0,0,0,0,0,0,-1,1693,1079,0,0
476,-55,0,0,0,0,0,0,0,0,0,-1,1700,1079,0,0
483,-55,0,0,0,0,0,0,0,0,0,-1,1707,1079,0,0
490,-55,0,0,0,0,0,0,0,0,0,-1,1714,1079,0,0
497,-55,0,0,0,0,0,0,0,0,0,-1,1721,1079,0,0
504,-55,0,0,0,0,0,0,0,0,0,-1,1728,1079,0,0
511,-55,0,0,0,0,0,0,0,0,0,-1,1735,1079,0,0
518,-55,0,0,0,0,0,0,0,0,0,-1,1742,1079,0,0
525,-55,0,0,0,0,0,0,0,0,0,-1,1749,1079,0,0
532,-55,0,0,0,0,0,0,0,0,0,-1,1756,1079,0,0
539,-55,0,0,0,0,0,0,0,0,0,-1,1763,1079,0,0
546,-55,0,0,0,0,0,0,0,0,0,-1,1770,1079,0,0
553,-55,0,0,0,0,0,0,0,0,0,-1,1777,1079,0,0
560,-55,0,0,0,0,0,0,0,0,0,-1,1784,1079,0,0
567,-55,0,0,0,0,0,0,0,0,0,-1,1791,1079,0,0
574,-55,0,0,0,0,0,0,0,0,0,-1,1798,1079,0,0
581,-55,0,0,0,0,0,0,0,0,0,-1,1805,1079,0,0
588,-55,0,0,0,0,0,0,0,0,0,-1,1812,1079,0,0
595,-55,0,0,0,0,0,0,0,0,0,-1,1819,1079,0,0
602,-55,0,0,0,0,0,0,0,0,0,-1,1826,1079,0,0
609,-55,0,0,0,0,0,0,0,0,0,-1,1833,1079,0,0
616,-55,0,0,0,0,0,0,0,0,0,-1,1840,1079,0,0
623,-55,0,0,0,0,0,0,0,0,0,-1,1847,1079,0,0
630,-55,0,0,0,0,0,0,0,0,0,-1,1854,1079,0,0
637,-55,0,0,0,0,0,0,0,0,0,-1,1861,1079,0,0
644,-55,0,0,0,0,0,0,0,0,0,-1,1868,1079,0,0
651,-55,33.6154,2.7334,0.00285039,0.00611833,0.00270663,0.00764596,0.00132276,1.05696,0.0047186,0.0344352,1875,1079,33.6153,-2.7334
658,-55,33.5847,2.95825,0.00206568,0.00494925,0.00220438,0.00614148,0.000873453,1.07501,0.00383646,0.0327454,1882,1079,33.5847,-2.95827
665,-55,33.6002,2.95117,0.00139803,0.00397441,0.00179032,0.00489182,0.000480615,1.09726,0.0031134,0.0375719,1889,1079,33.6002,-2.95123
672,-55,33.611,2.90161,0.000966047,0.00306281,0.00175647,0.00405999,-3.11241e-05,1.05446,0.00271709,0.039079,1896,1079,33.611,-2.90166
679,-55,33.6285,2.83057,0.000363653,0.00215174,0.00205442,0.00349823,-0.000982831,0.990629,0.00271962,0.0384802,1903,1079,33.6285,-2.83061
686,-55,33.5765,2.73755,-0.0004156,0.00127688,0.00249744,0.00306755,-0.00220627,0.948749,0.00305835,0.0399248,1910,1079,33.5765,-2.73752
693,-55,33.5817,2.89233,-0.00102401,0.000506946,0.00290001,0.0027408,-0.00325786,0.914434,0.00346762,0.0391392,1917,1079,33.5816,-2.89231
700,-55,33.6034,2.9082,-0.00152999,-7.32736e-05,0.00322557,0.00250515,-0.00410842,0.89644,0.00385556,0.0355226,1924,1079,33.6034,-2.90823
707,-55,33.6262,2.81628,-0.0019896,-0.000535672,0.00348042,0.00229289,-0.00481817,0.888354,0.00419098,0.0293931,1931,1079,33.6262,-2.8163
714,-55,33.592,2.97925,-0.00247374,-0.000842824,0.00365361,0.00208523,-0.00540179,0.895194,0.00446176,0.0403291,1938,1079,33.5921,-2.97919
721,-55,33.5828,3.25061,0,0,0,0,0,0,0,-1,1945,1079,33.5828,-3.25064
728,-55,32.8353,5.3418,0,0,0,0,0,0,0,-1,1952,1079,32.8353,-5.34176
735,-55,32.7469,5.22241,-0.0030315,-0.000269693,0.00347011,0.00208419,-0.00538537,0.974763,0.00445073,0.0182971,1959,1079,32.747,-5.22241
742,-55,32.7294,5.1106,-0.0021546,0.000695885,0.00300145,0.0025933,-0.00405202,1.00706,0.00386736,0.0179183,1966,1079,32.7294,-5.11056
749,-55,32.7574,4.98047,-3.34232e-05,0.00216227,0.00213413,0.00346438,-0.00133553,1.02296,0.00286064,0.0127668,1973,1079,32.7574,-4.98046
756,-55,32.7247,4.86938,0.00281611,0.00377028,0.00114528,0.00453387,0.00205251,0.982751,0.00262153,0.0111117,1980,1079,32.7247,-4.86938
763,-55,32.7135,4.76648,0.00644852,0.00572087,-0.000118654,0.00646738,0.00570201,-0.157627,0.00408046,0.0144058,1987,1079,32.7135,-4.76649
770,-55,32.7245,4.6272,0.0115222,0.00841721,-0.00191654,0.0124361,0.00750325,-0.444981,0.00723094,0.0160583,1994,1079,32.7245,-4.6272
777,-55,32.671,4.51758,0.0184596,0.0112778,-0.00380787,0.0201027,0.00963476,-0.407359,0.0116096,0.0132802,2001,1079,32.671,-4.51762
784,-55,32.6442,4.3219,0.0263277,0.014204,-0.00563651,0.0285433,0.0119884,-0.374529,0.0165496,0.0294842,2008,1079,32.6442,-4.32193
791,-55,32.8336,1.14917,0,0,0,0,0,0,0,-1,2015,1079,32.8337,-1.14921
798,-55,33.7505,1.40308,0.0445416,0.0192666,-0.0093209,0.0476071,0.016201,-0.317746,0.0279494,0.0483436,2022,1079,33.7505,-1.40309
805,-55,34.3386,1.52466,0.0550696,0.0211624,-0.0111544,0.0584099,0.017822,-0.290967,0.0345663,0.0495455,2029,1079,34.3386,-1.52464
812,-55,34.6978,1.45801,0.0656727,0.0221869,-0.0126944,0.0691072,0.0187524,-0.264227,0.0412663,0.0467619,2036,1079,34.6978,-1.45796
-700,-62,-22.3362,1.62805,0,0,0,0,0,0,0,-1,524,1086,-22.3363,-1.62807
-693,-62,-21.9558,1.97949,-0.0356363,0.0845619,-0.0157703,0.0865965,-0.0376709,-1.44249,0.0735761,0.0473727,531,1086,-21.9559,-1.97955
-686,-62,-22.3774,2.00293,-0.0258802,0.0763673,-0.00919762,0.0771881,-0.026701,-1.48179,0.0622966,0.0486504,538,1086,-22.3775,-2.00291
-679,-62,-22.543,2.07727,-0.018386,0.0667987,-0.00459437,0.0670458,-0.0186331,-1.51707,0.0520325,0.0465049,545,1086,-22.543,-2.07726
-672,-62,-22.5573,2.16553,-0.0126117,0.0568279,-0.00142428,0.0568571,-0.0126409,-1.5503,0.042746,0.045906,552,1086,-22.5572,-2.16556
-665,-62,-22.6526,1.95984,0,0,0,0,0,0,0,-1,559,1086,-22.6527,-1.95981
-658,-62,-23.0807,1.63464,0,0,0,0,0,0,0,-1,566,1086,-23.0807,-1.63469
-651,-62,-23.1369,1.48926,-0.00279376,0.0293368,0.00228886,0.0294991,-0.00295599,1.50004,0.0207218,0.0371342,573,1086,-23.1369,-1.48927
-644,-62,-23.1335,1.65991,-0.00103144,0.021508,0.00241486,0.0217638,-0.00128726,1.46525,0.0149568,0.0129863,580,1086,-23.1336,-1.65996
-637,-62,-23.1494,1.8512,-0.000131675,0.0151444,0.0015535,0.0153008,-0.000288057,1.47047,0.0102979,0.0112896,587,1086,-23.1493,-1.85125
-630,-62,-23.1623,2.02979,-0.000145375,0.00884019,-0.000462692,0.00886395,-0.000169137,-1.51948,0.00596648,0.012136,594,1086,-23.1623,-2.02975
-623,-62,-23.1745,2.21838,-0.000558818,0.00546831,-0.00199138,0.00606684,-0.00115734,-1.27883,0.00448044,0.0136375,601,1086,-23.1745,-2.2184
-616,-62,-23.1636,2.38855,-0.00114452,0.00301714,-0.00346731,0.00498008,-0.00310746,-1.05566,0.00471088,0.0139663,608,1086,-23.1636,-2.38852
-609,-62,-23.1387,2.53723,-0.00195707,0.00156408,-0.00492269,0.00503155,-0.00542454,-0.957133,0.00603825,0.0141051,615,1086,-23.1387,-2.53722
-602,-62,-23.1095,2.71167,-0.0026425,0.0002965,-0.00598695,0.00499165,-0.00733766,-0.905744,0.00716116,0.0148857,622,1086,-23.1095,-2.7117
-595,-62,-22.9631,3.05383,0,0,0,0,0,0,0,-1,629,1086,-22.9631,-3.05379
-588,-62,-23.3018,2.20496,0,0,0,0,0,0,0,-1,636,1086,-23.3018,-2.20498
-581,-62,-23.6405,1.3562,0,0,0,0,0,0,0,-1,643,1086,-23.6405,-1.35617
-574,-62,-23.8011,1.05432,-0.00316893,-0.00146458,-0.00634388,0.00408411,-0.00871762,-0.852164,0.00755073,0.0362015,650,1086,-23.8012,-1.05431
-567,-62,-23.8804,0.931152,-0.00294841,-0.00175366,-0.00571139,0.00339151,-0.00809358,-0.837506,0.00681364,0.0398867,657,1086,-23.8804,-0.931113
-560,-62,-23.9468,1.05432,-0.00240688,-0.00199199,-0.00457094,0.00237621,-0.00677508,-0.808074,0.00548319,0.0388438,664,1086,-23.9468,-1.05427
-553,-62,-23.7807,1.12537,-0.00137986,-0.00221698,-0.00285251,0.00108464,-0.00468148,-0.712552,0.00353838,0.0357376,671,1086,-23.7807,-1.12534
-546,-62,-23.7765,0.867554,0.00035754,-0.00247301,-0.000478921,0.000436376,-0.00255184,-0.163149,0.00186379,0.0323509,678,1086,-23.7765,-0.867559
-539,-62,-23.9548,0.876343,0.00257044,-0.00267942,0.00186135,0.0031634,-0.00327239,0.308405,0.00371589,0.0383138,685,1086,-23.9548,-0.876304
-532,-62,-23.9754,1.12878,0.00434746,-0.00276573,0.00171248,0.00473827,-0.00315653,0.224366,0.00458846,0.0404206,692,1086,-23.9754,-1.12884
-525,-62,0,0,0,0,0,0,0,0,0,-1,699,1086,0,0
-518,-62,0,0,0,0,0,0,0,0,0,-1,706,1086,0,0
-511,-62,0,0,0,0,0,0,0,0,0,-1,713,1086,0,0
-504,-62,0,0,0,0,0,0,0,0,0,-1,720,1086,0,0
-497,-62,0,0,0,0,0,0,0,0,0,-1,727,1086,0,0
-490,-62,0,0,0,0,0,0,0,0,0,-1,734,1086,0,0
-483,-62,0,0,0,0,0,0,0,0,0,-1,741,1086,0,0
-476,-62,0,0,0,0,0,0,0,0,0,-1,748,1086,0,0
-469,-62,0,0,0,0,0,0,0,0,0,-1,755,1086,0,0
-462,-62,0,0,0,0,0,0,0,0,0,-1,762,1086,0,0
-455,-62,0,0,0,0,0,0,0,0,0,-1,769,1086,0,0
-448,-62,0,0,0,0,0,0,0,0,0,-1,776,1086,0,0
-441,-62,0,0,0,0,0,0,0,0,0,-1,783,1086,0,0
-434,-62,0,0,0,0,0,0,0,0,0,-1,790,1086,0,0
-427,-62,0,0,0,0,0,0,0,0,0,-1,797,1086,0,0
-420,-62,0,0,0,0,0,0,0,0,0,-1,804,1086,0,0
-413,-62,0,0,0,0,0,0,0,0,0,-1,811,1086,0,0
-406,-62,0,0,0,0,0,0,0,0,0,-1,818,1086,0,0
-399,-62,0,0,0,0,0,0,0,0,0,-1,825,1086,0,0
-392,-62,0,0,0,0,0,0,0,0,0,-1,832,1086,0,0
-385,-62,0,0,0,0,0,0,0,0,0,-1,839,1086,0,0
-378,-62,0,0,0,0,0,0,0,0,0,-1,846,1086,0,0
-371,-62,0,0,0,0,0,0,0,0,0,-1,853,1086,0,0
-364,-62,0,0,0,0,0,0,0,0,0,-1,860,1086,0,0
-357,-62,0,0,0,0,0,0,0,0,0,-1,867,1086,0,0
-350,-62,0,0,0,0,0,0,0,0,0,-1,874,1086,0,0
-343,-62,0,0,0,0,0,0,0,0,0,-1,881,1086,0,0
-336,-62,0,0,0,0,0,0,0,0,0,-1,888,1086,0,0
-329,-62,0,0,0,0,0,0,0,0,0,-1,895,1086,0,0
-322,-62,0,0,0,0,0,0,0,0,0,-1,902,1086,0,0
-315,-62,0,0,0,0,0,0,0,0,0,-1,909,1086,0,0
-308,-62,0,0,0,0,0,0,0,0,0,-1,916,1086,0,0
-301,-62,0,0,0,0,0,0,0,0,0,-1,923,1086,0,0
-294,-62,0,0,0,0,0,0,0,0,0,-1,930,1086,0,0
-287,-62,0,0,0,0,0,0,0,0,0,-1,937,1086,0,0
-280,-62,0,0,0,0,0,0,0,0,0,-1,944,1086,0,0
-273,-62,0,0,0,0,0,0,0,0,0,-1,951,1086,0,0
-266,-62,0,0,0,0,0,0,0,0,0,-1,958,1086,0,0
-259,-62,0,0,0,0,0,0,0,0,0,-1,965,1086,0,0
-252,-62,0,0,0,0,0,0,0,0,0,-1,972,1086,0,0
-245,-62,0,0,0,0,0,0,0,0,0,-1,979,1086,0,0
-238,-62,0,0,0,0,0,0,0,0,0,-1,986,1086,0,0
-231,-62,0,0,0,0,0,0,0,0,0,-1,993,1086,0,0
-224,-62,0,0,0,0,0,0,0,0,0,-1,1000,1086,0,0
-217,-62,0,0,0,0,0,0,0,0,0,-1,1007,1086,0,0
-210,-62,0,0,0,0,0,0,0,0,0,-1,1014,1086,0,0
-203,-62,0,0,0,0,0,0,0,0,0,-1,1021,1086,0,0
-196,-62,0,0,0,0,0,0,0,0,0,-1,1028,1086,0,0
-189,-62,0,0,0,0,0,0,0,0,0,-1,1035,1086,0,0
-182,-62,0,0,0,0,0,0,0,0,0,-1,1042,1086,0,0
-175,-62,0,0,0,0,0,0,0,0,0,-1,1049,1086,0,0
-168,-62,0,0,0,0,0,0,0,0,0,-1,1056,1086,0,0
-161,-62,0,0,0,0,0,0,0,0,0,-1,1063,1086,0,0
-154,-62,0,0,0,0,0,0,0,0,0,-1,1070,1086,0,0
-147,-62,0,0,0,0,0,0,0,0,0,-1,1077,1086,0,0
-140,-62,0,0,0,0,0,0,0,0,0,-1,1084,1086,0,0
-133,-62,0,0,0,0,0,0,0,0,0,-1,1091,1086,0,0
-126,-62,0,0,0,0,0,0,0,0,0,-1,1098,1086,0,0
-119,-62,0,0,0,0,0,0,0,0,0,-1,1105,1086,0,0
-112,-62,0,0,0,0,0,0,0,0,0,-1,1112,1086,0,0
-105,-62,0,0,0,0,0,0,0,0,0,-1,1119,1086,0,0
-98,-62,0,0,0,0,0,0,0,0,0,-1,1126,1086,0,0
-91,-62,0,0,0,0,0,0,0,0,0,-1,1133,1086,0,0
-84,-62,0,0,0,0,0,0,0,0,0,-1,1140,1086,0,0
-77,-62,0,0,0,0,0,0,0,0,0,-1,1147,1086,0,0
-70,-62,0,0,0,0,0,0,0,0,0,-1,1154,1086,0,0
-63,-62,0,0,0,0,0,0,0,0,0,-1,1161,1086,0,0
-56,-62,0,0,0,0,0,0,0,0,0,-1,1168,1086,0,0
-49,-62,0,0,0,0,0,0,0,0,0,-1,1175,1086,0,0
-42,-62,0,0,0,0,0,0,0,0,0,-1,1182,1086,0,0
-35,-62,0,0,0,0,0,0,0,0,0,-1,1189,1086,0,0
-28,-62,0,0,0,0,0,0,0,0,0,-1,1196,1086,0,0
-21,-62,0,0,0,0,0,0,0,0,0,-1,1203,1086,0,0
-14,-62,0,0,0,0,0,0,0,0,0,-1,1210,1086,0,0
-7,-62,0,0,0,0,0,0,0,0,0,-1,1217,1086,0,0
0,-62,0,0,0,0,0,0,0,0,0,-1,1224,1086,0,0
7,-62,0,0,0,0,0,0,0,0,0,-1,1231,1086,0,0
14,-62,0,0,0,0,0,0,0,0,0,-1,1238,1086,0,0
21,-62,0,0,0,0,0,0,0,0,0,-1,1245,1086,0,0
28,-62,0,0,0,0,0,0,0,0,0,-1,1252,1086,0,0
35,-62,0,0,0,0,0,0,0,0,0,-1,1259,1086,0,0
42,-62,0,0,0,0,0,0,0,0,0,-1,1266,1086,0,0
49,-62,0,0,0,0,0,0,0,0,0,-1,1273,1086,0,0
56,-62,0,0,0,0,0,0,0,0,0,-1,1280,1086,0,0
63,-62,0,0,0,0,0,0,0,0,0,-1,1287,1086,0,0
70,-62,0,0,0,0,0,0,0,0,0,-1,1294,1086,0,0
77,-62,0,0,0,0,0,0,0,0,0,-1,1301,1086,0,0
84,-62,0,0,0,0,0,0,0,0,0,-1,1308,1086,0,0
91,-62,0,0,0,0,0,0,0,0,0,-1,1315,1086,0,0
98,-62,0,0,0,0,0,0,0,0,0,-1,1322,1086,0,0
105,-62,0,0,0,0,0,0,0,0,0,-1,1329,1086,0,0
112,-62,0,0,0,0,0,0,0,0,0,-1,1336,1086,0,0
119,-62,0,0,0,0,0,0,0,0,0,-1,1343,1086,0,0
126,-62,0,0,0,0,0,0,0,0,0,-1,1350,1086,0,0
133,-62,0,0,0,0,0,0,0,0,0,-1,1357,1086,0,0
140,-62,0,0,0,0,0,0,0,0,0,-1,1364,1086,0,0
147,-62,0,0,0,0,0,0,0,0,0,-1,1371,1086,0,0
154,-62,0,0,0,0,0,0,0,0,0,-1,1378,1086,0,0
161,-62,0,0,0,0,0,0,0,0,0,-1,1385,1086,0,0
168,-62,0,0,0,0,0,0,0,0,0,-1,1392,1086,0,0
175,-62,0,0,0,0,0,0,0,0,0,-1,1399,1086,0,0
182,-62,0,0,0,0,0,0,0,0,0,-1,1406,1086,0,0
189,-62,0,0,0,0,0,0,0,0,0,-1,1413,1086,0,0
196,-62,0,0,0,0,0,0,0,0,0,-1,1420,1086,0,0
203,-62,0,0,0,0,0,0,0,0,0,-1,1427,1086,0,0
210,-62,0,0,0,0,0,0,0,0,0,-1,1434,1086,0,0
217,-62,0,0,0,0,0,0,0,0,0,-1,1441,1086,0,0
224,-62,0,0,0,0,0,0,0,0,0,-1,1448,1086,0,0
231,-62,0,0,0,0,0,0,0,0,0,-1,1455,1086,0,0
238,-62,0,0,0,0,0,0,0,0,0,-1,1462,1086,0,0
245,-62,0,0,0,0,0,0,0,0,0,-1,1469,1086,0,0
252,-62,0,0,0,0,0,0,0,0,0,-1,1476,1086,0,0
259,-62,0,0,0,0,0,0,0,0,0,-1,1483,1086,0,0
266,-62,0,0,0,0,0,0,0,0,0,-1,1490,1086,0,0
273,-62,0,0,0,0,0,0,0,0,0,-1,1497,1086,0,0
280,-62,0,0,0,0,0,0,0,0,0,-1,1504,1086,0,0
287,-62,0,0,0,0,0,0,0,0,0,-1,1511,1086,0,0
294,-62,0,0,0,0,0,0,0,0,0,-1,1518,1086,0,0
301,-62,0,0,0,0,0,0,0,0,0,-1,1525,1086,0,0
308,-62,0,0,0,0,0,0,0,0,0,-1,1532,1086,0,0
315,-62,0,0,0,0,0,0,0,0,0,-1,1539,1086,0,0
322,-62,0,0,0,0,0,0,0,0,0,-1,1546,1086,0,0
329,-62,0,0,0,0,0,0,0,0,0,-1,1553,1086,0,0
336,-62,0,0,0,0,0,0,0,0,0,-1,1560,1086,0,0
343,-62,0,0,0,0,0,0,0,0,0,-1,1567,1086,0,0
350,-62,0,0,0,0,0,0,0,0,0,-1,1574,1086,0,0
357,-62,0,0,0,0,0,0,0,0,0,-1,1581,1086,0,0
364,-62,0,0,0,0,0,0,0,0,0,-1,1588,1086,0,0
371,-62,0,0,0,0,0,0,0,0,0,-1,1595,1086,0,0
378,-62,0,0,0,0,0,0,0,0,0,-1,1602,1086,0,0
385,-62,0,0,0,0,0,0,0,0,0,-1,1609,1086,0,0
392,-62,0,0,0,0,0,0,0,0,0,-1,1616,1086,0,0
399,-62,0,0,0,0,0,0,0,0,0,-1,1623,1086,0,0
406,-62,0,0,0,0,0,0,0,0,0,-1,1630,1086,0,0
413,-62,0,0,0,0,0,0,0,0,0,-1,1637,1086,0,0
420,-62,0,0,0,0,0,0,0,0,0,-1,1644,1086,0,0
427,-62,0,0,0,0,0,0,0,0,0,-1,1651,1086,0,0
434,-62,0,0,0,0,0,0,0,0,0,-1,1658,1086,0,0
441,-62,0,0,0,0,0,0,0,0,0,-1,1665,1086,0,0
448,-62,0,0,0,0,0,0,0,0,0,-1,1672,1086,0,0
455,-62,0,0,0,0,0,0,0,0,0,-1,1679,1086,0,0
462,-62,0,0,0,0,0,0,0,0,0,-1,1686,1086,0,0
469,-62,0,0,0,0,0,0,0,0,0,-1,1693,1086,0,0
476,-62,0,0,0,0,0,0,0,0,0,-1,1700,1086,0,0
483,-62,0,0,0,0,0,0,0,0,0,-1,1707,1086,0,0
490,-62,0,0,0,0,0,0,0,0,0,-1,1714,1086,0,0
497,-62,0,0,0,0,0,0,0,0,0,-1,1721,1086,0,0
504,-62,0,0,0,0,0,0,0,0,0,-1,1728,1086,0,0
511,-62,0,0,0,0,0,0,0,0,0,-1,1735,1086,0,0
518,-62,0,0,0,0,0,0,0,0,0,-1,1742,1086,0,0
525,-62,0,0,0,0,0,0,0,0,0,-1,1749,1086,0,0
532,-62,0,0,0,0,0,0,0,0,0,-1,1756,1086,0,0
539,-62,0,0,0,0,0,0,0,0,0,-1,1763,1086,0,0
546,-62,0,0,0,0,0,0,0,0,0,-1,1770,1086,0,0
553,-62,0,0,0,0,0,0,0,0,0,-1,1777,1086,0,0
560,-62,0,0,0,0,0,0,0,0,0,-1,1784,1086,0,0
567,-62,0,0,0,0,0,0,0,0,0,-1,1791,1086,0,0
574,-62,0,0,0,0,0,0,0,0,0,-1,1798,1086,0,0
581,-62,0,0,0,0,0,0,0,0,0,-1,1805,1086,0,0
588,-62,0,0,0,0,0,0,0,0,0,-1,1812,1086,0,0
595,-62,0,0,0,0,0,0,0,0,0,-1,1819,1086,0,0
602,-62,0,0,0,0,0,0,0,0,0,-1,1826,1086,0,0
609,-62,0,0,0,0,0,0,0,0,0,-1,1833,1086,0,0
616,-62,0,0,0,0,0,0,0,0,0,-1,1840,1086,0,0
623,-62,0,0,0,0,0,0,0,0,0,-1,1847,1086,0,0
630,-62,0,0,0,0,0,0,0,0,0,-1,1854,1086,0,0
637,-62,0,0,0,0,0,0,0,0,0,-1,1861,1086,0,0
644,-62,0,0,0,0,0,0,0,0,0,-1,1868,1086,0,0
651,-62,33.5961,2.5708,0.00386028,0.00643181,0.00321406,0.00860775,0.00168434,0.975671,0.00526759,0.0404487,1875,1086,33.5961,-2.57078
658,-62,33.5543,2.77942,0.00279498,0.00535072,0.00255978,0.00693387,0.00121183,1.01691,0.00427626,0.0383208,1882,1086,33.5543,-2.77941
665,-62,33.5881,2.90417,0.00192709,0.00437418,0.00207341,0.00555814,0.000743127,1.05196,0.00348423,0.0382068,1889,1086,33.5881,-2.9042
672,-62,33.5767,2.86609,0.00134498,0.00340002,0.00196028,0.00458575,0.000159246,1.0268,0.00300549,0.0382625,1896,1086,33.5767,-2.86607
679,-62,33.6248,2.75049,0.000609376,0.00236778,0.00216238,0.00382287,-0.000845711,0.978485,0.00287229,0.0385696,1903,1086,33.6248,-2.7505
686,-62,33.7043,2.67688,-0.00024523,0.00139503,0.00250811,0.0032137,-0.0020639,0.943414,0.00307103,0.0398874,1910,1086,33.7044,-2.67693
693,-62,33.5941,2.86584,-0.000882829,0.000550792,0.00282495,0.00274845,-0.00308049,0.909647,0.00336716,0.0391759,1917,1086,33.5942,-2.86582
700,-62,33.6228,2.87952,-0.00142282,-6.85525e-05,0.00306969,0.0023978,-0.00388917,0.893953,0.00366367,0.0336843,1924,1086,33.6227,-2.87954
707,-62,33.5817,2.81616,-0.00191309,-0.00055831,0.00327552,0.00210913,-0.00458053,0.887362,0.00394916,0.0254035,1931,1086,33.5817,-2.81621
714,-62,33.6191,2.90527,-0.0024005,-0.000931061,0.00342629,0.0018384,-0.00516996,0.891017,0.0041959,0.0346824,1938,1086,33.6192,-2.90522
721,-62,33.7385,3.21973,0,0,0,0,0,0,0,-1,1945,1086,33.7385,-3.21968
728,-62,32.6638,5.4425,0,0,0,0,0,0,0,-1,1952,1086,32.6638,-5.44255
735,-62,32.6338,5.25378,-0.00285386,-0.000429168,0.00320876,0.00178864,-0.00507166,0.96602,0.0041092,0.0213577,1959,1086,32.6338,-5.25383
742,-62,32.6033,5.13684,-0.00189842,0.000431508,0.0028201,0.00231779,-0.0037847,0.981269,0.00355704,0.0200471,1966,1086,32.6033,-5.13687
749,-62,32.5883,4.96362,0.000365671,0.00165296,0.00211828,0.00322322,-0.0012046,0.932891,0.00264347,0.0163969,1973,1086,32.5883,-4.96362
756,-62,32.5356,4.89514,0.00345321,0.00291559,0.00133027,0.00454156,0.00182724,0.685705,0.00263869,0.0140217,1980,1086,32.5356,-4.89508
763,-62,32.5513,4.75562,0.00745282,0.00447363,0.000354069,0.00749432,0.00443213,0.116682,0.00435088,0.014391,1987,1086,32.5513,-4.75567
770,-62,32.5735,4.59644,0.0130451,0.00658156,-0.0010445,0.0132097,0.00641696,-0.156302,0.00762763,0.0125203,1994,1086,32.5734,-4.59644
777,-62,32.5112,4.43872,0.0205273,0.00857345,-0.00234746,0.0209717,0.00812899,-0.187122,0.0122096,0.0138344,2001,1086,32.5112,-4.4387
784,-62,32.4382,4.29102,0.0289874,0.0104267,-0.00351199,0.0296297,0.00978439,-0.180889,0.0174323,0.0271976,2008,1086,32.4382,-4.291
791,-62,33.2097,0.928589,0,0,0,0,0,0,0,-1,2015,1086,33.2098,-0.928576
798,-62,33.7996,0.970581,0.0488468,0.0127571,-0.00542799,0.0496455,0.0119584,-0.146098,0.0299184,0.0466419,2022,1086,33.7996,-0.970579
805,-62,34.2793,0.909546,0.0603937,0.0128692,-0.00604625,0.0611508,0.0121121,-0.12458,0.0373896,0.0468038,2029,1086,34.2794,-0.909497
812,-62,34.6963,0.843994,0,0,0,0,0,0,0,-1,2036,1086,34.6962,-0.844028
-700,-69,-22.321,0.994385,0,0,0,0,0,0,0,-1,524,1093,-22.321,-0.994419
-693,-69,-22.2378,1.48181,-0.0303372,0.0883367,-0.0149923,0.0902015,-0.0322019,-1.44705,0.0732664,0.0470078,531,1093,-22.2378,-1.4818
-686,-69,-22.2574,1.76306,-0.0225059,0.0792616,-0.00887569,0.0800299,-0.0232742,-1.48445,0.0625712,0.045816,538,1093,-22.2574,-1.76304
-679,-69,-22.3968,1.99658,0,0,0,0,0,0,0,-1,545,1093,-22.3968,-1.9966
-672,-69,-22.3286,2.31824,0,0,0,0,0,0,0,-1,552,1093,-22.3286,-2.31826
-665,-69,-22.6866,1.62659,0,0,0,0,0,0,0,-1,559,1093,-22.6866,-1.62656
-658,-69,-22.8038,1.64136,-0.0050202,0.0386437,0.0014219,0.03869,-0.00506645,1.53828,0.0276374,0.0463643,566,1093,-22.8038,-1.64142
-651,-69,-22.8803,1.58594,-0.00303507,0.0299972,0.00190095,0.0301062,-0.00314411,1.5135,0.0211967,0.03233,573,1093,-22.8803,-1.58596
-644,-69,-22.9272,1.65222,-0.00143434,0.0219809,0.00203246,0.022156,-0.00160945,1.48485,0.0153353,0.0103551,580,1093,-22.9272,-1.65222
-637,-69,-22.9515,1.85718,-0.000594513,0.0155786,0.00132029,0.0156857,-0.000701586,1.48988,0.0106987,0.012349,587,1093,-22.9515,-1.85721
-630,-69,-22.9642,2.02319,-0.000627758,0.00886884,-0.000699644,0.00892011,-0.000679026,-1.49765,0.00618551,0.013487,594,1093,-22.9642,-2.02321
-623,-69,-22.9606,2.20325,-0.00099898,0.00547432,-0.00214376,0.00611989,-0.00164455,-1.2783,0.0047245,0.0132428,601,1093,-22.9606,-2.20328
-616,-69,-22.9423,2.36365,-0.00145693,0.00297037,-0.0034723,0.00487462,-0.00336118,-1.06917,0.00478163,0.0141564,608,1093,-22.9423,-2.36367
-609,-69,-22.942,2.52344,-0.00213327,0.00152603,-0.004843,0.00487347,-0.00548071,-0.966007,0.00598142,0.0134947,615,1093,-22.9419,-2.52339
-602,-69,-22.9308,2.74438,-0.0027069,0.000231047,-0.00579401,0.00473941,-0.00721525,-0.909549,0.00695119,0.0174747,622,1093,-22.9308,-2.74435
-595,-69,-22.8056,3.23755,0,0,0,0,0,0,0,-1,629,1093,-22.8056,-3.2376
-588,-69,-23.2117,2.4386,-0.00344482,-0.000819012,-0.00635191,0.00435425,-0.00861809,-0.88731,0.00762325,0.0389695,636,1093,-23.2117,-2.43861
-581,-69,-23.6823,1.51501,-0.00311206,-0.00123973,-0.00620537,0.0040997,-0.00845149,-0.860265,0.00739019,0.047102,643,1093,-23.6823,-1.51504
-574,-69,-23.8464,0.643311,0,0,0,0,0,0,0,-1,650,1093,-23.8464,-0.643371
-567,-69,-23.8657,0.906616,-0.00269172,-0.00192417,-0.00543724,0.00314282,-0.00775871,-0.820631,0.00647934,0.0379546,657,1093,-23.8657,-0.906605
-560,-69,-23.9628,0.99353,-0.00207032,-0.00224393,-0.00440687,0.0022506,-0.00656485,-0.77555,0.00528887,0.0381942,664,1093,-23.9628,-0.993523
-553,-69,-23.9246,1.06848,-0.000985404,-0.00258325,-0.00289574,0.0012196,-0.00478825,-0.650799,0.00366694,0.0369028,671,1093,-23.9246,-1.06845
-546,-69,-23.8583,0.966064,0.000827162,-0.00298349,-0.00085214,0.00100904,-0.00316536,-0.210279,0.00251499,0.0368194,678,1093,-23.8583,-0.966097
-539,-69,-23.8582,1.14063,0.00320098,-0.00337184,0.00112572,0.00338844,-0.00355929,0.165005,0.00401168,0.0413059,685,1093,-23.8582,-1.14068
-532,-69,-23.7049,1.29248,0.00517035,-0.00373383,0.000637647,0.00521578,-0.00377926,0.0711283,0.00521532,0.0414902,692,1093,-23.7049,-1.2925
-525,-69,0,0,0,0,0,0,0,0,0,-1,699,1093,0,0
-518,-69,0,0,0,0,0,0,0,0,0,-1,706,1093,0,0
-511,-69,0,0,0,0,0,0,0,0,0,-1,713,1093,0,0
-504,-69,0,0,0,0,0,0,0,0,0,-1,720,1093,0,0
-497,-69,0,0,0,0,0,0,0,0,0,-1,727,1093,0,0
-490,-69,0,0,0,0,0,0,0,0,0,-1,734,1093,0,0
-483,-69,0,0,0,0,0,0,0,0,0,-1,741,1093,0,0
-476,-69,0,0,0,0,0,0,0,0,0,-1,748,1093,0,0
-469,-69,0,0,0,0,0,0,0,0,0,-1,755,1093,0,0
-462,-69,0,0,0,0,0,0,0,0,0,-1,762,1093,0,0
-455,-69,0,0,0,0,0,0,0,0,0,-1,769,1093,0,0
-448,-69,0,0,0,0,0,0,0,0,0,-1,776,1093,0,0
-441,-69,0,0,0,0,0,0,0,0,0,-1,783,1093,0,0
-434,-69,0,0,0,0,0,0,0,0,0,-1,790,1093,0,0
-427,-69,0,0,0,0,0,0,0,0,0,-1,797,1093,0,0
-420,-69,0,0,0,0,0,0,0,0,0,-1,804,1093,0,0
-413,-69,0,0,0,0,0,0,0,0,0,-1,811,1093,0,0
-406,-69,0,0,0,0,0,0,0,0,0,-1,818,1093,0,0
-399,-69,0,0,0,0,0,0,0,0,0,-1,825,1093,0,0
-392,-69,0,0,0,0,0,0,0,0,0,-1,832,1093,0,0
-385,-69,0,0,0,0,0,0,0,0,0,-1,839,1093,0,0
-378,-69,0,0,0,0,0,0,0,0,0,-1,846,1093,0,0
-371,-69,0,0,0,0,0,0,0,0,0,-1,853,1093,0,0
-364,-69,0,0,0,0,0,0,0,0,0,-1,860,1093,0,0
-357,-69,0,0,0,0,0,0,0,0,0,-1,867,1093,0,0
-350,-69,0,0,0,0,0,0,0,0,0,-1,874,1093,0,0
-343,-69,0,0,0,0,0,0,0,0,0,-1,881,1093,0,0
-336,-69,0,0,0,0,0,0,0,0,0,-1,888,1093,0,0
-329,-69,0,0,0,0,0,0,0,0,0,-1,895,1093,0,0
-322,-69,0,0,0,0,0,0,0,0,0,-1,902,1093,0,0
-315,-69,0,0,0,0,0,0,0,0,0,-1,909,1093,0,0
-308,-69,0,0,0,0,0,0,0,0,0,-1,916,1093,0,0
-301,-69,0,0,0,0,0,0,0,0,0,-1,923,1093,0,0
-294,-69,0,0,0,0,0,0,0,0,0,-1,930,1093,0,0
-287,-69,0,0,0,0,0,0,0,0,0,-1,937,1093,0,0
-280,-69,0,0,0,0,0,0,0,0,0,-1,944,1093,0,0
-273,-69,0,0,0,0,0,0,0,0,0,-1,951,1093,0,0
-266,-69,0,0,0,0,0,0,0,0,0,-1,958,1093,0,0
-259,-69,0,0,0,0,0,0,0,0,0,-1,965,1093,0,0
-252,-69,0,0,0,0,0,0,0,0,0,-1,972,1093,0,0
-245,-69,0,0,0,0,0,0,0,0,0,-1,979,1093,0,0
-238,-69,0,0,0,0,0,0,0,0,0,-1,986,1093,0,0
-231,-69,0,0,0,0,0,0,0,0,0,-1,993,1093,0,0
-224,-69,0,0,0,0,0,0,0,0,0,-1,1000,1093,0,0
-217,-69,0,0,0,0,0,0,0,0,0,-1,1007,1093,0,0
-210,-69,0,0,0,0,0,0,0,0,0,-1,1014,1093,0,0
-203,-69,0,0,0,0,0,0,0,0,0,-1,1021,1093,0,0
-196,-69,0,0,0,0,0,0,0,0,0,-1,1028,1093,0,0
-189,-69,0,0,0,0,0,0,0,0,0,-1,1035,1093,0,0
-182,-69,0,0,0,0,0,0,0,0,0,-1,1042,1093,0,0
-175,-69,0,0,0,0,0,0,0,0,0,-1,1049,1093,0,0
-168,-69,0,0,0,0,0,0,0,0,0,-1,1056,1093,0,0
-161,-69,0,0,0,0,0,0,0,0,0,-1,1063,1093,0,0
-154,-69,0,0,0,0,0,0,0,0,0,-1,1070,1093,0,0
-147,-69,0,0,0,0,0,0,0,0,0,-1,1077,1093,0,0
-140,-69,0,0,0,0,0,0,0,0,0,-1,1084,1093,0,0
-133,-69,0,0,0,0,0,0,0,0,0,-1,1091,1093,0,0
-126,-69,0,0,0,0,0,0,0,0,0,-1,1098,1093,0,0
-119,-69,0,0,0,0,0,0,0,0,0,-1,1105,1093,0,0
-112,-69,0,0,0,0,0,0,0,0,0,-1,1112,1093,0,0
-105,-69,0,0,0,0,0,0,0,0,0,-1,1119,1093,0,0
-98,-69,0,0,0,0,0,0,0,0,0,-1,1126,1093,0,0
-91,-69,0,0,0,0,0,0,0,0,0,-1,1133,1093,0,0
-84,-69,0,0,0,0,0,0,0,0,0,-1,1140,1093,0,0
-77,-69,0,0,0,0,0,0,0,0,0,-1,1147,1093,0,0
-70,-69,0,0,0,0,0,0,0,0,0,-1,1154,1093,0,0
-63,-69,0,0,0,0,0,0,0,0,0,-1,1161,1093,0,0
-56,-69,0,0,0,0,0,0,0,0,0,-1,1168,1093,0,0
-49,-69,0,0,0,0,0,0,0,0,0,-1,1175,1093,0,0
-42,-69,0,0,0,0,0,0,0,0,0,-1,1182,1093,0,0
-35,-69,0,0,0,0,0,0,0,0,0,-1,1189,1093,0,0
-28,-69,0,0,0,0,0,0,0,0,0,-1,1196,1093,0,0
-21,-69,0,0,0,0,0,0,0,0,0,-1,1203,1093,0,0
-14,-69,0,0,0,0,0,0,0,0,0,-1,1210,1093,0,0
-7,-69,0,0,0,0,0,0,0,0,0,-1,1217,1093,0,0
0,-69,0,0,0,0,0,0,0,0,0,-1,1224,1093,0,0
7,-69,0,0,0,0,0,0,0,0,0,-1,1231,1093,0,0
14,-69,0,0,0,0,0,0,0,0,0,-1,1238,1093,0,0
21,-69,0,0,0,0,0,0,0,0,0,-1,1245,1093,0,0
28,-69,0,0,0,0,0,0,0,0,0,-1,1252,1093,0,0
35,-69,0,0,0,0,0,0,0,0,0,-1,1259,1093,0,0
42,-69,0,0,0,0,0,0,0,0,0,-1,1266,1093,0,0
49,-69,0,0,0,0,0,0,0,0,0,-1,1273,1093,0,0
56,-69,0,0,0,0,0,0,0,0,0,-1,1280,1093,0,0
63,-69,0,0,0,0,0,0,0,0,0,-1,1287,1093,0,0
70,-69,0,0,0,0,0,0,0,0,0,-1,1294,1093,0,0
77,-69,0,0,0,0,0,0,0,0,0,-1,1301,1093,0,0
84,-69,0,0,0,0,0,0,0,0,0,-1,1308,1093,0,0
91,-69,0,0,0,0,0,0,0,0,0,-1,1315,1093,0,0
98,-69,0,0,0,0,0,0,0,0,0,-1,1322,1093,0,0
105,-69,0,0,0,0,0,0,0,0,0,-1,1329,1093,0,0
112,-69,0,0,0,0,0,0,0,0,0,-1,1336,1093,0,0
119,-69,0,0,0,0,0,0,0,0,0,-1,1343,1093,0,0
126,-69,0,0,0,0,0,0,0,0,0,-1,1350,1093,0,0
133,-69,0,0,0,0,0,0,0,0,0,-1,1357,1093,0,0
140,-69,0,0,0,0,0,0,0,0,0,-1,1364,1093,0,0
147,-69,0,0,0,0,0,0,0,0,0,-1,1371,1093,0,0
154,-69,0,0,0,0,0,0,0,0,0,-1,1378,1093,0,0
161,-69,0,0,0,0,0,0,0,0,0,-1,1385,1093,0,0
168,-69,0,0,0,0,0,0,0,0,0,-1,1392,1093,0,0
175,-69,0,0,0,0,0,0,0,0,0,-1,1399,1093,0,0
182,-69,0,0,0,0,0,0,0,0,0,-1,1406,1093,0,0
189,-69,0,0,0,0,0,0,0,0,0,-1,1413,1093,0,0
196,-69,0,0,0,0,0,0,0,0,0,-1,1420,1093,0,0
203,-69,0,0,0,0,0,0,0,0,0,-1,1427,1093,0,0
210,-69,0,0,0,0,0,0,0,0,0,-1,1434,1093,0,0
217,-69,0,0,0,0,0,0,0,0,0,-1,1441,1093,0,0
224,-69,0,0,0,0,0,0,0,0,0,-1,1448,1093,0,0
231,-69,0,0,0,0,0,0,0,0,0,-1,1455,1093,0,0
238,-69,0,0,0,0,0,0,0,0,0,-1,1462,1093,0,0
245,-69,0,0,0,0,0,0,0,0,0,-1,1469,1093,0,0
252,-69,0,0,0,0,0,0,0,0,0,-1,1476,1093,0,0
259,-69,0,0,0,0,0,0,0,0,0,-1,1483,1093,0,0
266,-69,0,0,0,0,0,0,0,0,0,-1,1490,1093,0,0
273,-69,0,0,0,0,0,0,0,0,0,-1,1497,1093,0,0
280,-69,0,0,0,0,0,0,0,0,0,-1,1504,1093,0,0
287,-69,0,0,0,0,0,0,0,0,0,-1,1511,1093,0,0
294,-69,0,0,0,0,0,0,0,0,0,-1,1518,1093,0,0
301,-69,0,0,0,0,0,0,0,0,0,-1,1525,1093,0,0
308,-69,0,0,0,0,0,0,0,0,0,-1,1532,1093,0,0
315,-69,0,0,0,0,0,0,0,0,0,-1,1539,1093,0,0
322,-69,0,0,0,0,0,0,0,0,0,-1,1546,1093,0,0
329,-69,0,0,0,0,0,0,0,0,0,-1,1553,1093,0,0
336,-69,0,0,0,0,0,0,0,0,0,-1,1560,1093,0,0
343,-69,0,0,0,0,0,0,0,0,0,-1,1567,1093,0,0
350,-69,0,0,0,0,0,0,0,0,0,-1,1574,1093,0,0
357,-69,0,0,0,0,0,0,0,0,0,-1,1581,1093,0,0
364,-69,0,0,0,0,0,0,0,0,0,-1,1588,1093,0,0
371,-69,0,0,0,0,0,0,0,0,0,-1,1595,1093,0,0
378,-69,0,0,0,0,0,0,0,0,0,-1,1602,1093,0,0
385,-69,0,0,0,0,0,0,0,0,0,-1,1609,1093,0,0
392,-69,0,0,0,0,0,0,0,0,0,-1,1616,1093,0,0
399,-69,0,0,0,0,0,0,0,0,0,-1,1623,1093,0,0
406,-69,0,0,0,0,0,0,0,0,0,-1,1630,1093,0,0
413,-69,0,0,0,0,0,0,0,0,0,-1,1637,1093,0,0
420,-69,0,0,0,0,0,0,0,0,0,-1,1644,1093,0,0
427,-69,0,0,0,0,0,0,0,0,0,-1,1651,1093,0,0
434,-69,0,0,0,0,0,0,0,0,0,-1,1658,1093,0,0
441,-69,0,0,0,0,0,0,0,0,0,-1,1665,1093,0,0
448,-69,0,0,0,0,0,0,0,0,0,-1,1672,1093,0,0
455,-69,0,0,0,0,0,0,0,0,0,-1,1679,1093,0,0
462,-69,0,0,0,0,0,0,0,0,0,-1,1686,1093,0,0
469,-69,0,0,0,0,0,0,0,0,0,-1,1693,1093,0,0
476,-69,0,0,0,0,0,0,0,0,0,-1,1700,1093,0,0
483,-69,0,0,0,0,0,0,0,0,0,-1,1707,1093,0,0
490,-69,0,0,0,0,0,0,0,0,0,-1,1714,1093,0,0
497,-69,0,0,0,0,0,0,0,0,0,-1,1721,1093,0,0
504,-69,0,0,0,0,0,0,0,0,0,-1,1728,1093,0,0
511,-69,0,0,0,0,0,0,0,0,0,-1,1735,1093,0,0
518,-69,0,0,0,0,0,0,0,0,0,-1,1742,1093,0,0
525,-69,0,0,0,0,0,0,0,0,0,-1,1749,1093,0,0
532,-69,0,0,0,0,0,0,0,0,0,-1,1756,1093,0,0
539,-69,0,0,0,0,0,0,0,0,0,-1,1763,1093,0,0
546,-69,0,0,0,0,0,0,0,0,0,-1,1770,1093,0,0
553,-69,0,0,0,0,0,0,0,0,0,-1,1777,1093,0,0
560,-69,0,0,0,0,0,0,0,0,0,-1,1784,1093,0,0
567,-69,0,0,0,0,0,0,0,0,0,-1,1791,1093,0,0
574,-69,0,0,0,0,0,0,0,0,0,-1,1798,1093,0,0
581,-69,0,0,0,0,0,0,0,0,0,-1,1805,1093,0,0
588,-69,0,0,0,0,0,0,0,0,0,-1,1812,1093,0,0
595,-69,0,0,0,0,0,0,0,0,0,-1,1819,1093,0,0
602,-69,0,0,0,0,0,0,0,0,0,-1,1826,1093,0,0
609,-69,0,0,0,0,0,0,0,0,0,-1,1833,1093,0,0
616,-69,0,0,0,0,0,0,0,0,0,-1,1840,1093,0,0
623,-69,0,0,0,0,0,0,0,0,0,-1,1847,1093,0,0
630,-69,0,0,0,0,0,0,0,0,0,-1,1854,1093,0,0
637,-69,0,0,0,0,0,0,0,0,0,-1,1861,1093,0,0
644,-69,0,0,0,0,0,0,0,0,0,-1,1868,1093,0,0
651,-69,33.2937,3.0896,0,0,0,0,0,0,0,-1,1875,1093,33.2937,-3.08961
658,-69,33.4912,2.42883,0.00355103,0.00507683,0.0024959,0.00692381,0.00170404,0.93372,0.00416571,0.0445594,1882,1093,33.4911,-2.42878
665,-69,33.5391,2.68604,0.00250115,0.00418888,0.002081,0.0055906,0.00109943,0.978021,0.00342001,0.0410344,1889,1093,33.539,-2.68598
672,-69,33.4237,2.82556,0.00177501,0.00323149,0.00194764,0.00458258,0.000423919,0.964306,0.00292401,0.0377492,1896,1093,33.4237,-2.8255
679,-69,33.5591,2.7583,0.000914291,0.00215348,0.00206767,0.00369239,-0.000624619,0.93097,0.00269405,0.036687,1903,1093,33.5591,-2.75834
686,-69,33.6708,2.71277,6.25264e-06,0.00114877,0.00230017,0.00294756,-0.00179253,0.907113,0.00276364,0.0379982,1910,1093,33.6708,-2.71271
693,-69,33.6149,2.79224,-0.000641648,0.000287391,0.00250504,0.00237061,-0.00272487,0.877074,0.00294425,0.0372265,1917,1093,33.6149,-2.79227
700,-69,33.5857,2.82458,-0.00119803,-0.000324812,0.00265183,0.00192612,-0.00344896,0.866988,0.00314454,0.0307696,1924,1093,33.5857,-2.82458
707,-69,33.571,2.77612,-0.00170098,-0.000799659,0.00280511,0.00159077,-0.0040914,0.865046,0.00338484,0.0229524,1931,1093,33.5711,-2.77618
714,-69,33.6533,2.89526,-0.00219105,-0.00118631,0.00293089,0.00128495,-0.00466231,0.870275,0.0036135,0.0287874,1938,1093,33.6533,-2.89521
721,-69,33.8143,3.1853,0,0,0,0,0,0,0,-1,1945,1093,33.8143,-3.1853
728,-69,32.2672,5.52698,0,0,0,0,0,0,0,-1,1952,1093,32.2672,-5.52693
735,-69,32.4229,5.33508,-0.00253382,-0.000703949,0.00268263,0.00121548,-0.00445324,0.949742,0.00344619,0.024405,1959,1093,32.4228,-5.33506
742,-69,32.427,5.18164,-0.00154074,7.44892e-05,0.00241074,0.00180929,-0.00327555,0.947026,0.00297614,0.0186915,1966,1093,32.427,-5.18165
749,-69,32.3304,5.00195,0.000775873,0.00111774,0.00190828,0.00286273,-0.000969117,0.830066,0.0023006,0.0203261,1973,1093,32.3305,-5.00198
756,-69,32.3691,4.89233,0.00399211,0.00203717,0.00135223,0.00468317,0.00134611,0.472447,0.00278408,0.0150543,1980,1093,32.3691,-4.89234
763,-69,32.3669,4.72961,0.00824042,0.00314227,0.000699097,0.00833455,0.00304814,0.133837,0.00486945,0.0156362,1987,1093,32.3669,-4.72956
770,-69,32.3453,4.59497,0.0141721,0.00455704,-0.000243621,0.0141783,0.00455087,-0.0253159,0.00835889,0.0165813,1994,1093,32.3453,-4.59501
777,-69,32.292,4.44678,0.0219296,0.00557279,-0.000971547,0.0219871,0.00551529,-0.0591201,0.0132092,0.0219199,2001,1093,32.2919,-4.44679
784,-69,32.3403,4.14722,0.0306937,0.00619089,-0.0015296,0.0307889,0.00609577,-0.0621041,0.0188259,0.0335685,2008,1093,32.3403,-4.14719
791,-69,33.4097,0.417114,0,0,0,0,0,0,0,-1,2015,1093,33.4097,-0.417115
798,-69,33.813,0.373901,0.0515164,0.00516679,-0.00183942,0.0515893,0.00509391,-0.0396027,0.0328269,0.0473727,2022,1093,33.8131,-0.373907
805,-69,34.1943,0.321167,0.0636522,0.00295286,-0.00136005,0.0636826,0.0029224,-0.0223914,0.0415152,0.047455,2029,1093,34.1944,-0.321125
812,-69,34.7686,0.285278,0.0760282,-0.000981981,-5.44587e-05,0.0760283,-0.000982016,-0.000707161,0.051016,0.0473785,2036,1093,34.7685,-0.285278
-700,-76,0,0,0,0,0,0,0,0,0,-1,524,1100,0,0
-693,-76,-22.1094,0.909668,-0.0249624,0.0908908,-0.0138828,0.0925311,-0.0266027,-1.45318,0.0722074,0.0441093,531,1100,-22.1094,-0.909629
-686,-76,-22.0507,1.53076,-0.0191609,0.0809117,-0.00816421,0.0815734,-0.0198226,-1.48993,0.0620543,0.0476975,538,1100,-22.0506,-1.53075
-679,-76,-22.1569,1.66345,-0.0144458,0.0699341,-0.00423005,0.0701457,-0.0146573,-1.52083,0.0523382,0.0459333,545,1100,-22.1569,-1.66341
-672,-76,-22.1241,1.78137,-0.0106068,0.0589445,-0.00155153,0.0589791,-0.0106414,-1.5485,0.0433046,0.0465875,552,1100,-22.1242,-1.78141
-665,-76,-22.3541,1.19385,0,0,0,0,0,0,0,-1,559,1100,-22.3541,-1.19382
-658,-76,-22.4917,1.3269,-0.00519109,0.038723,0.00116222,0.0387537,-0.00522183,1.54436,0.0277407,0.0449495,566,1100,-22.4917,-1.32695
-651,-76,-22.6014,1.47937,-0.00341198,0.0300122,0.00158776,0.0300874,-0.00348723,1.52344,0.021316,0.0273535,573,1100,-22.6014,-1.47935
-644,-76,-22.6675,1.63782,-0.00193122,0.0220242,0.00168672,0.0221424,-0.0020494,1.50085,0.01549,0.010371,580,1100,-22.6675,-1.63781
-637,-76,-22.7351,1.81726,-0.00104887,0.0156779,0.00113845,0.0157551,-0.001126,1.50315,0.0108981,0.0138489,587,1100,-22.7351,-1.81727
-630,-76,-22.7606,1.9906,-0.00103317,0.00869245,-0.000860306,0.00876796,-0.00110868,-1.48324,0.00624775,0.0148477,594,1100,-22.7605,-1.9906
-623,-76,-22.7531,2.19043,-0.00130911,0.00542351,-0.00218634,0.00607119,-0.00195679,-1.28279,0.0048336,0.0144913,601,1100,-22.7531,-2.19049
-616,-76,-22.7586,2.38257,-0.00159398,0.00292827,-0.00336219,0.00471893,-0.00338465,-1.08142,0.0046997,0.0127168,608,1100,-22.7586,-2.38261
-609,-76,-22.7498,2.56897,-0.00208841,0.00150733,-0.00462506,0.00467167,-0.00525275,-0.970772,0.00573314,0.013566,615,1100,-22.7498,-2.56903
-602,-76,-22.7296,2.75793,-0.00252344,0.000255958,-0.00543015,0.00447142,-0.00673889,-0.910671,0.00651626,0.0180197,622,1100,-22.7295,-2.75791
-595,-76,-22.5034,3.42261,0,0,0,0,0,0,0,-1,629,1100,-22.5033,-3.42256
-588,-76,-23.0289,2.46838,-0.00316288,-0.000715967,-0.00584194,0.00402925,-0.0079081,-0.88862,0.00701226,0.0417066,636,1100,-23.0289,-2.46837
-581,-76,-23.5834,1.25952,-0.00278289,-0.00111438,-0.00565959,0.00377211,-0.00766938,-0.858574,0.00673227,0.0460907,643,1100,-23.5834,-1.25951
-574,-76,-24.0151,0.100586,0,0,0,0,0,0,0,-1,650,1100,-24.0151,-0.100587
-567,-76,-23.7999,1.12988,0,0,0,0,0,0,0,-1,657,1100,-23.7998,-1.12994
-560,-76,-23.8915,1.06799,-0.00159907,-0.00203854,-0.00396364,0.00215092,-0.00578854,-0.757708,0.00474151,0.0413786,664,1100,-23.8915,-1.06803
-553,-76,-23.9568,1.06323,-0.000528036,-0.00236647,-0.0026369,0.00134527,-0.00423978,-0.617686,0.00336579,0.0417221,671,1100,-23.9568,-1.06321
-546,-76,-23.8729,0.730103,0.00123544,-0.00275941,-0.000909558,0.00143278,-0.00295675,-0.213653,0.00258471,0.0415216,678,1100,-23.8729,-0.730132
-539,-76,-23.9625,1.04285,0.0036592,-0.00317893,0.000723208,0.00373485,-0.00325458,0.104225,0.00403853,0.0430461,685,1100,-23.9624,-1.04279
-532,-76,-23.6947,1.21582,0.00581851,-0.00367571,-2.55329e-05,0.00581857,-0.00367578,-0.00268929,0.00552791,0.0416435,692,1100,-23.6947,-1.21587
-525,-76,0,0,0,0,0,0,0,0,0,-1,699,1100,0,0
-518,-76,0,0,0,0,0,0,0,0,0,-1,706,1100,0,0
-511,-76,0,0,0,0,0,0,0,0,0,-1,713,1100,0,0
-504,-76,0,0,0,0,0,0,0,0,0,-1,720,1100,0,0
-497,-76,0,0,0,0,0,0,0,0,0,-1,727,1100,0,0
-490,-76,0,0,0,0,0,0,0,0,0,-1,734,1100,0,0
-483,-76,0,0,0,0,0,0,0,0,0,-1,741,1100,0,0
-476,-76,0,0,0,0,0,0,0,0,0,-1,748,1100,0,0
-469,-76,0,0,0,0,0,0,0,0,0,-1,755,1100,0,0
-462,-76,0,0,0,0,0,0,0,0,0,-1,762,1100,0,0
-455,-76,0,0,0,0,0,0,0,0,0,-1,769,1100,0,0
-448,-76,0,0,0,0,0,0,0,0,0,-1,776,1100,0,0
-441,-76,0,0,0,0,0,0,0,0,0,-1,783,1100,0,0
-434,-76,0,0,0,0,0,0,0,0,0,-1,790,1100,0,0
-427,-76,0,0,0,0,0,0,0,0,0,-1,797,1100,0,0
-420,-76,0,0,0,0,0,0,0,0,0,-1,804,1100,0,0
-413,-76,0,0,0,0,0,0,0,0,0,-1,811,1100,0,0
-406,-76,0,0,0,0,0,0,0,0,0,-1,818,1100,0,0
-399,-76,0,0,0,0,0,0,0,0,0,-1,825,1100,0,0
-392,-76,0,0,0,0,0,0,0,0,0,-1,832,1100,0,0
-385,-76,0,0,0,0,0,0,0,0,0,-1,839,1100,0,0
-378,-76,0,0,0,0,0,0,0,0,0,-1,846,1100,0,0
-371,-76,0,0,0,0,0,0,0,0,0,-1,853,1100,0,0
-364,-76,0,0,0,0,0,0,0,0,0,-1,860,1100,0,0
-357,-76,0,0,0,0,0,0,0,0,0,-1,867,1100,0,0
-350,-76,0,0,0,0,0,0,0,0,0,-1,874,1100,0,0
-343,-76,0,0,0,0,0,0,0,0,0,-1,881,1100,0,0
-336,-76,0,0,0,0,0,0,0,0,0,-1,888,1100,0,0
-329,-76,0,0,0,0,0,0,0,0,0,-1,895,1100,0,0
-322,-76,0,0,0,0,0,0,0,0,0,-1,902,1100,0,0
-315,-76,0,0,0,0,0,0,0,0,0,-1,909,1100,0,0
-308,-76,0,0,0,0,0,0,0,0,0,-1,916,1100,0,0
-301,-76,0,0,0,0,0,0,0,0,0,-1,923,1100,0,0
-294,-76,0,0,0,0,0,0,0,0,0,-1,930,1100,0,0
-287,-76,0,0,0,0,0,0,0,0,0,-1,937,1100,0,0
-280,-76,0,0,0,0,0,0,0,0,0,-1,944,1100,0,0
-273,-76,0,0,0,0,0,0,0,0,0,-1,951,1100,0,0
-266,-76,0,0,0,0,0,0,0,0,0,-1,958,1100,0,0
-259,-76,0,0,0,0,0,0,0,0,0,-1,965,1100,0,0
-252,-76,0,0,0,0,0,0,0,0,0,-1,972,1100,0,0
-245,-76,0,0,0,0,0,0,0,0,0,-1,979,1100,0,0
-238,-76,0,0,0,0,0,0,0,0,0,-1,986,1100,0,0
-231,-76,0,0,0,0,0,0,0,0,0,-1,993,1100,0,0
-224,-76,0,0,0,0,0,0,0,0,0,-1,1000,1100,0,0
-217,-76,0,0,0,0,0,0,0,0,0,-1,1007,1100,0,0
-210,-76,0,0,0,0,0,0,0,0,0,-1,1014,1100,0,0
-203,-76,0,0,0,0,0,0,0,0,0,-1,1021,1100,0,0
-196,-76,0,0,0,0,0,0,0,0,0,-1,1028,1100,0,0
-189,-76,0,0,0,0,0,0,0,0,0,-1,1035,1100,0,0
-182,-76,0,0,0,0,0,0,0,0,0,-1,1042,1100,0,0
-175,-76,0,0,0,0,0,0,0,0,0,-1,1049,1100,0,0
-168,-76,0,0,0,0,0,0,0,0,0,-1,1056,1100,0,0
-161,-76,0,0,0,0,0,0,0,0,0,-1,1063,1100,0,0
-154,-76,0,0,0,0,0,0,0,0,0,-1,1070,1100,0,0
-147,-76,0,0,0,0,0,0,0,0,0,-1,1077,1100,0,0
-140,-76,0,0,0,0,0,0,0,0,0,-1,1084,1100,0,0
-133,-76,0,0,0,0,0,0,0,0,0,-1,1091,1100,0,0
-126,-76,0,0,0,0,0,0,0,0,0,-1,1098,1100,0,0
-119,-76,0,0,0,0,0,0,0,0,0,-1,1105,1100,0,0
-112,-76,0,0,0,0,0,0,0,0,0,-1,1112,1100,0,0
-105,-76,0,0,0,0,0,0,0,0,0,-1,1119,1100,0,0
-98,-76,0,0,0,0,0,0,0,0,0,-1,1126,1100,0,0
-91,-76,0,0,0,0,0,0,0,0,0,-1,1133,1100,0,0
-84,-76,0,0,0,0,0,0,0,0,0,-1,1140,1100,0,0
-77,-76,0,0,0,0,0,0,0,0,0,-1,1147,1100,0,0
-70,-76,0,0,0,0,0,0,0,0,0,-1,1154,1100,0,0
-63,-76,0,0,0,0,0,0,0,0,0,-1,1161,1100,0,0
-56,-76,0,0,0,0,0,0,0,0,0,-1,1168,1100,0,0
-49,-76,0,0,0,0,0,0,0,0,0,-1,1175,1100,0,0
-42,-76,0,0,0,0,0,0,0,0,0,-1,1182,1100,0,0
-35,-76,0,0,0,0,0,0,0,0,0,-1,1189,1100,0,0
-28,-76,0,0,0,0,0,0,0,0,0,-1,1196,1100,0,0
-21,-76,0,0,0,0,0,0,0,0,0,-1,1203,1100,0,0
-14,-76,0,0,0,0,0,0,0,0,0,-1,1210,1100,0,0
-7,-76,0,0,0,0,0,0,0,0,0,-1,1217,1100,0,0
0,-76,0,0,0,0,0,0,0,0,0,-1,1224,1100,0,0
7,-76,0,0,0,0,0,0,0,0,0,-1,1231,1100,0,0
14,-76,0,0,0,0,0,0,0,0,0,-1,1238,1100,0,0
21,-76,0,0,0,0,0,0,0,0,0,-1,1245,1100,0,0
28,-76,0,0,0,0,0,0,0,0,0,-1,1252,1100,0,0
35,-76,0,0,0,0,0,0,0,0,0,-1,1259,1100,0,0
42,-76,0,0,0,0,0,0,0,0,0,-1,1266,1100,0,0
49,-76,0,0,0,0,0,0,0,0,0,-1,1273,1100,0,0
56,-76,0,0,0,0,0,0,0,0,0,-1,1280,1100,0,0
63,-76,0,0,0,0,0,0,0,0,0,-1,1287,1100,0,0
70,-76,0,0,0,0,0,0,0,0,0,-1,1294,1100,0,0
77,-76,0,0,0,0,0,0,0,0,0,-1,1301,1100,0,0
84,-76,0,0,0,0,0,0,0,0,0,-1,1308,1100,0,0
91,-76,0,0,0,0,0,0,0,0,0,-1,1315,1100,0,0
98,-76,0,0,0,0,0,0,0,0,0,-1,1322,1100,0,0
105,-76,0,0,0,0,0,0,0,0,0,-1,1329,1100,0,0
112,-76,0,0,0,0,0,0,0,0,0,-1,1336,1100,0,0
119,-76,0,0,0,0,0,0,0,0,0,-1,1343,1100,0,0
126,-76,0,0,0,0,0,0,0,0,0,-1,1350,1100,0,0
133,-76,0,0,0,0,0,0,0,0,0,-1,1357,1100,0,0
140,-76,0,0,0,0,0,0,0,0,0,-1,1364,1100,0,0
147,-76,0,0,0,0,0,0,0,0,0,-1,1371,1100,0,0
154,-76,0,0,0,0,0,0,0,0,0,-1,1378,1100,0,0
161,-76,0,0,0,0,0,0,0,0,0,-1,1385,1100,0,0
168,-76,0,0,0,0,0,0,0,0,0,-1,1392,1100,0,0
175,-76,0,0,0,0,0,0,0,0,0,-1,1399,1100,0,0
182,-76,0,0,0,0,0,0,0,0,0,-1,1406,1100,0,0
189,-76,0,0,0,0,0,0,0,0,0,-1,1413,1100,0,0
196,-76,0,0,0,0,0,0,0,0,0,-1,1420,1100,0,0
203,-76,0,0,0,0,0,0,0,0,0,-1,1427,1100,0,0
210,-76,0,0,0,0,0,0,0,0,0,-1,1434,1100,0,0
217,-76,0,0,0,0,0,0,0,0,0,-1,1441,1100,0,0
224,-76,0,0,0,0,0,0,0,0,0,-1,1448,1100,0,0
231,-76,0,0,0,0,0,0,0,0,0,-1,1455,1100,0,0
238,-76,0,0,0,0,0,0,0,0,0,-1,1462,1100,0,0
245,-76,0,0,0,0,0,0,0,0,0,-1,1469,1100,0,0
252,-76,0,0,0,0,0,0,0,0,0,-1,1476,1100,0,0
259,-76,0,0,0,0,0,0,0,0,0,-1,1483,1100,0,0
266,-76,0,0,0,0,0,0,0,0,0,-1,1490,1100,0,0
273,-76,0,0,0,0,0,0,0,0,0,-1,1497,1100,0,0
280,-76,0,0,0,0,0,0,0,0,0,-1,1504,1100,0,0
287,-76,0,0,0,0,0,0,0,0,0,-1,1511,1100,0,0
294,-76,0,0,0,0,0,0,0,0,0,-1,1518,1100,0,0
301,-76,0,0,0,0,0,0,0,0,0,-1,1525,1100,0,0
308,-76,0,0,0,0,0,0,0,0,0,-1,1532,1100,0,0
315,-76,0,0,0,0,0,0,0,0,0,-1,1539,1100,0,0
322,-76,0,0,0,0,0,0,0,0,0,-1,1546,1100,0,0
329,-76,0,0,0,0,0,0,0,0,0,-1,1553,1100,0,0
336,-76,0,0,0,0,0,0,0,0,0,-1,1560,1100,0,0
343,-76,0,0,0,0,0,0,0,0,0,-1,1567,1100,0,0
350,-76,0,0,0,0,0,0,0,0,0,-1,1574,1100,0,0
357,-76,0,0,0,0,0,0,0,0,0,-1,1581,1100,0,0
364,-76,0,0,0,0,0,0,0,0,0,-1,1588,1100,0,0
371,-76,0,0,0,0,0,0,0,0,0,-1,1595,1100,0,0
378,-76,0,0,0,0,0,0,0,0,0,-1,1602,1100,0,0
385,-76,0,0,0,0,0,0,0,0,0,-1,1609,1100,0,0
392,-76,0,0,0,0,0,0,0,0,0,-1,1616,1100,0,0
399,-76,0,0,0,0,0,0,0,0,0,-1,1623,1100,0,0
406,-76,0,0,0,0,0,0,0,0,0,-1,1630,1100,0,0
413,-76,0,0,0,0,0,0,0,0,0,-1,1637,1100,0,0
420,-76,0,0,0,0,0,0,0,0,0,-1,1644,1100,0,0
427,-76,0,0,0,0,0,0,0,0,0,-1,1651,1100,0,0
434,-76,0,0,0,0,0,0,0,0,0,-1,1658,1100,0,0
441,-76,0,0,0,0,0,0,0,0,0,-1,1665,1100,0,0
448,-76,0,0,0,0,0,0,0,0,0,-1,1672,1100,0,0
455,-76,0,0,0,0,0,0,0,0,0,-1,1679,1100,0,0
462,-76,0,0,0,0,0,0,0,0,0,-1,1686,1100,0,0
469,-76,0,0,0,0,0,0,0,0,0,-1,1693,1100,0,0
476,-76,0,0,0,0,0,0,0,0,0,-1,1700,1100,0,0
483,-76,0,0,0,0,0,0,0,0,0,-1,1707,1100,0,0
490,-76,0,0,0,0,0,0,0,0,0,-1,1714,1100,0,0
497,-76,0,0,0,0,0,0,0,0,0,-1,1721,1100,0,0
504,-76,0,0,0,0,0,0,0,0,0,-1,1728,1100,0,0
511,-76,0,0,0,0,0,0,0,0,0,-1,1735,1100,0,0
518,-76,0,0,0,0,0,0,0,0,0,-1,1742,1100,0,0
525,-76,0,0,0,0,0,0,0,0,0,-1,1749,1100,0,0
532,-76,0,0,0,0,0,0,0,0,0,-1,1756,1100,0,0
539,-76,0,0,0,0,0,0,0,0,0,-1,1763,1100,0,0
546,-76,0,0,0,0,0,0,0,0,0,-1,1770,1100,0,0
553,-76,0,0,0,0,0,0,0,0,0,-1,1777,1100,0,0
560,-76,0,0,0,0,0,0,0,0,0,-1,1784,1100,0,0
567,-76,0,0,0,0,0,0,0,0,0,-1,1791,1100,0,0
574,-76,0,0,0,0,0,0,0,0,0,-1,1798,1100,0,0
581,-76,0,0,0,0,0,0,0,0,0,-1,1805,1100,0,0
588,-76,0,0,0,0,0,0,0,0,0,-1,1812,1100,0,0
595,-76,0,0,0,0,0,0,0,0,0,-1,1819,1100,0,0
602,-76,0,0,0,0,0,0,0,0,0,-1,1826,1100,0,0
609,-76,0,0,0,0,0,0,0,0,0,-1,1833,1100,0,0
616,-76,0,0,0,0,0,0,0,0,0,-1,1840,1100,0,0
623,-76,0,0,0,0,0,0,0,0,0,-1,1847,1100,0,0
630,-76,0,0,0,0,0,0,0,0,0,-1,1854,1100,0,0
637,-76,0,0,0,0,0,0,0,0,0,-1,1861,1100,0,0
644,-76,0,0,0,0,0,0,0,0,0,-1,1868,1100,0,0
651,-76,33.46,3.02576,0,0,0,0,0,0,0,-1,1875,1100,33.46,-3.02579
658,-76,33.4061,3.16895,0,0,0,0,0,0,0,-1,1882,1100,33.4061,-3.16894
665,-76,33.4662,2.6488,0.00303768,0.00379722,0.00191067,0.0053655,0.00146941,0.883502,0.00320164,0.0384833,1889,1100,33.4662,-2.64875
672,-76,33.4148,2.85547,0.00216967,0.00281618,0.00184177,0.00436284,0.000623001,0.87227,0.00272474,0.0379909,1896,1100,33.4148,-2.85551
679,-76,33.5864,2.70178,0.00118242,0.0017488,0.00197928,0.00346505,-0.000533834,0.856455,0.00250699,0.0368928,1903,1100,33.5864,-2.70182
686,-76,33.7086,2.69434,0.000227939,0.000791119,0.00217509,0.00270277,-0.00168371,0.849771,0.00255522,0.0346477,1910,1100,33.7086,-2.69428
693,-76,33.6818,2.80017,-0.0004302,-3.68922e-06,0.00232916,0.00212196,-0.00255585,0.83105,0.0027046,0.0368444,1917,1100,33.6818,-2.80015
700,-76,33.6232,2.828,-0.00100579,-0.000553146,0.00242108,0.00165216,-0.0032111,0.832003,0.00285549,0.0333441,1924,1100,33.6231,-2.82802
707,-76,33.5803,2.79724,-0.00151987,-0.000975169,0.00254125,0.00130828,-0.00380332,0.83878,0.00306613,0.0241113,1931,1100,33.5803,-2.79723
714,-76,33.6655,3.04102,-0.0020075,-0.00131615,0.0026578,0.00101835,-0.00434201,0.850066,0.00328713,0.0425483,1938,1100,33.6655,-3.04107
721,-76,32.7463,5.3855,0,0,0,0,0,0,0,-1,1945,1100,32.7464,-5.38552
728,-76,32.4814,5.44263,-0.00252902,-0.001193,0.00263257,0.000854996,-0.00457701,0.90965,0.00337266,0.0361412,1952,1100,32.4814,-5.4426
735,-76,32.041,5.38696,-0.002278,-0.000803018,0.00234846,0.000921022,-0.00400204,0.937538,0.00302218,0.0285759,1959,1100,32.041,-5.38692
742,-76,32.2197,5.19543,-0.00128067,-9.14189e-05,0.00217086,0.00156478,-0.00293687,0.919075,0.00263897,0.0192932,1966,1100,32.2198,-5.19544
749,-76,32.1681,5.00232,0.00102547,0.000805018,0.0018501,0.00276863,-0.000938137,0.755644,0.00222538,0.0191982,1973,1100,32.1681,-5.00231
756,-76,32.2084,4.87463,0.00428611,0.00137993,0.00150742,0.00492677,0.000739268,0.401874,0.00306793,0.0151207,1980,1100,32.2084,-4.87465
763,-76,32.2021,4.69421,0.00869786,0.00199086,0.00118172,0.00889998,0.00178874,0.169398,0.00543607,0.0159754,1987,1100,32.2021,-4.69421
770,-76,32.1212,4.5647,0.0148203,0.00267742,0.000710554,0.0148617,0.00263599,0.0582511,0.00915653,0.0168016,1994,1100,32.1212,-4.56465
777,-76,32.058,4.49768,0.0226134,0.00268276,0.000562577,0.0226293,0.0026669,0.0281968,0.0142805,0.0217073,2001,1100,32.058,-4.49769
784,-76,32.2299,4.13098,0.03145,0.00202027,0.000668085,0.0314651,0.00200512,0.0226855,0.0203413,0.0330669,2008,1100,32.2299,-4.13095
791,-76,32.8954,3.78601,0.041396,0.0003395,0.00115733,0.0414286,0.000306902,0.0281589,0.0275173,0.0405831,2015,1100,32.8953,-3.78598
798,-76,33.45,3.82581,0.0527177,-0.00271859,0.00210261,0.0527973,-0.00279822,0.037856,0.0361671,0.0435166,2022,1100,33.4499,-3.82576
805,-76,34.4243,-0.333374,0.0651062,-0.0075984,0.00373135,0.0652972,-0.0077894,0.051143,0.0463466,0.0477932,2029,1100,34.4243,0.333319
812,-76,34.7288,-0.120239,0.0777206,-0.0148985,0.00639416,0.07816,-0.0153378,0.0686034,0.0579004,0.0480644,2036,1100,34.7287,0.120203
-700,-83,0,0,0,0,0,0,0,0,0,-1,524,1107,0,0
-693,-83,-21.7731,0.654419,-0.0177004,0.0873328,-0.0131195,0.0889468,-0.0193144,-1.44839,0.0666751,0.0456752,531,1107,-21.7731,-0.654408
-686,-83,-21.709,1.0813,-0.0138287,0.0775056,-0.00764313,0.0781408,-0.0144638,-1.48788,0.0575245,0.0465261,538,1107,-21.709,-1.08134
-679,-83,-21.8355,1.19141,-0.0105908,0.066793,-0.00398265,0.0669974,-0.0107952,-1.51951,0.0486641,0.0441608,545,1107,-21.8355,-1.19135
-672,-83,-21.8683,1.19275,-0.00788291,0.0561579,-0.00155385,0.0561956,-0.00792059,-1.54655,0.0403638,0.0424858,552,1107,-21.8683,-1.19281
-665,-83,-21.8408,0.898438,-0.00568892,0.0460628,-2.14421e-05,0.0460628,-0.00568893,-1.57038,0.0327699,0.044625,559,1107,-21.8408,-0.898472
-658,-83,-22.2126,0.937866,-0.00397568,0.036792,0.000825228,0.0368087,-0.00399238,1.55057,0.0259724,0.0419689,566,1107,-22.2126,-0.937917
-651,-83,-22.4525,1.19739,-0.00265051,0.028514,0.00118323,0.0285589,-0.00269536,1.5329,0.0199984,0.0293908,573,1107,-22.4525,-1.19738
-644,-83,-22.4413,1.55139,-0.00154705,0.0210331,0.00125537,0.0211026,-0.00161663,1.51543,0.0146371,0.0141112,580,1107,-22.4413,-1.5514
-637,-83,-22.5034,1.78406,-0.000842766,0.0150661,0.000919195,0.015119,-0.0008957,1.51327,0.0103908,0.0112251,587,1107,-22.5034,-1.78403
-630,-83,-22.549,2.01428,-0.000985652,0.00816562,-0.000940652,0.00826131,-0.00108134,-1.46942,0.0059011,0.0161411,594,1107,-22.549,-2.0143
-623,-83,-22.5555,2.19958,-0.00130303,0.00515264,-0.0020525,0.00574994,-0.00190034,-1.28761,0.00459951,0.0154551,601,1107,-22.5555,-2.19957
-616,-83,-22.565,2.38184,-0.0014947,0.00271783,-0.00300104,0.00427797,-0.00305485,-1.09138,0.0042532,0.0128847,608,1107,-22.565,-2.38179
-609,-83,-22.5454,2.56836,-0.00186551,0.00128414,-0.00410941,0.00411014,-0.00469152,-0.968379,0.00508534,0.0137661,615,1107,-22.5454,-2.56841
-602,-83,-22.5524,2.77917,-0.00222977,1.83732e-05,-0.00472774,0.00375384,-0.00596524,-0.902112,0.00565952,0.0159564,622,1107,-22.5524,-2.77923
-595,-83,-22.2083,3.31482,0,0,0,0,0,0,0,-1,629,1107,-22.2083,-3.31482
-588,-83,-22.8475,2.46021,0,0,0,0,0,0,0,-1,636,1107,-22.8475,-2.46024
-581,-83,-23.4868,1.60571,0,0,0,0,0,0,0,-1,643,1107,-23.4868,-1.60566
-574,-83,-23.8087,0.637939,-0.00212684,-0.00156737,-0.0046518,0.0028131,-0.00650731,-0.81543,0.00552024,0.0367039,650,1107,-23.8087,-0.637976
-567,-83,-23.8062,0.88562,-0.0017336,-0.00184593,-0.00418716,0.00239776,-0.0059773,-0.778692,0.00498039,0.0440681,657,1107,-23.8062,-0.885663
-560,-83,-23.8309,1.07898,-0.00105153,-0.00207678,-0.00344533,0.0019191,-0.00504742,-0.711546,0.0041551,0.0442356,664,1107,-23.8308,-1.07895
-553,-83,-23.7838,1.01123,0,0,0,0,0,0,0,-1,671,1107,-23.7838,-1.01125
-546,-83,-23.8732,1.07288,0.00165222,-0.00242762,-0.00131511,0.00203939,-0.0028148,-0.286316,0.00281446,0.0401268,678,1107,-23.8732,-1.07282
-539,-83,-23.8772,1.0625,0.0040913,-0.00255852,-0.000309952,0.00410572,-0.00257294,-0.0464762,0.00388963,0.0405381,685,1107,-23.8772,-1.0625
-532,-83,-23.7803,1.06982,0.0064846,-0.00274676,-0.00143909,0.00670374,-0.0029659,-0.151116,0.00572011,0.0428607,692,1107,-23.7803,-1.06985
-525,-83,0,0,0,0,0,0,0,0,0,-1,699,1107,0,0
-518,-83,0,0,0,0,0,0,0,0,0,-1,706,1107,0,0
-511,-83,0,0,0,0,0,0,0,0,0,-1,713,1107,0,0
-504,-83,0,0,0,0,0,0,0,0,0,-1,720,1107,0,0
-497,-83,0,0,0,0,0,0,0,0,0,-1,727,1107,0,0
-490,-83,0,0,0,0,0,0,0,0,0,-1,734,1107,0,0
-483,-83,0,0,0,0,0,0,0,0,0,-1,741,1107,0,0
-476,-83,0,0,0,0,0,0,0,0,0,-1,748,1107,0,0
-469,-83,0,0,0,0,0,0,0,0,0,-1,755,1107,0,0
-462,-83,0,0,0,0,0,0,0,0,0,-1,762,1107,0,0
-455,-83,0,0,0,0,0,0,0,0,0,-1,769,1107,0,0
-448,-83,0,0,0,0,0,0,0,0,0,-1,776,1107,0,0
-441,-83,0,0,0,0,0,0,0,0,0,-1,783,1107,0,0
-434,-83,0,0,0,0,0,0,0,0,0,-1,790,1107,0,0
-427,-83,0,0,0,0,0,0,0,0,0,-1,797,1107,0,0
-420,-83,0,0,0,0,0,0,0,0,0,-1,804,1107,0,0
-413,-83,0,0,0,0,0,0,0,0,0,-1,811,1107,0,0
-406,-83,0,0,0,0,0,0,0,0,0,-1,818,1107,0,0
-399,-83,0,0,0,0,0,0,0,0,0,-1,825,1107,0,0
-392,-83,0,0,0,0,0,0,0,0,0,-1,832,1107,0,0
-385,-83,0,0,0,0,0,0,0,0,0,-1,839,1107,0,0
-378,-83,0,0,0,0,0,0,0,0,0,-1,846,1107,0,0
-371,-83,0,0,0,0,0,0,0,0,0,-1,853,1107,0,0
-364,-83,0,0,0,0,0,0,0,0,0,-1,860,1107,0,0
-357,-83,0,0,0,0,0,0,0,0,0,-1,867,1107,0,0
-350,-83,0,0,0,0,0,0,0,0,0,-1,874,1107,0,0
-343,-83,0,0,0,0,0,0,0,0,0,-1,881,1107,0,0
-336,-83,0,0,0,0,0,0,0,0,0,-1,888,1107,0,0
-329,-83,0,0,0,0,0,0,0,0,0,-1,895,1107,0,0
-322,-83,0,0,0,0,0,0,0,0,0,-1,902,1107,0,0
-315,-83,0,0,0,0,0,0,0,0,0,-1,909,1107,0,0
-308,-83,0,0,0,0,0,0,0,0,0,-1,916,1107,0,0
-301,-83,0,0,0,0,0,0,0,0,0,-1,923,1107,0,0
-294,-83,0,0,0,0,0,0,0,0,0,-1,930,1107,0,0
-287,-83,0,0,0,0,0,0,0,0,0,-1,937,1107,0,0
-280,-83,0,0,0,0,0,0,0,0,0,-1,944,1107,0,0
-273,-83,0,0,0,0,0,0,0,0,0,-1,951,1107,0,0
-266,-83,0,0,0,0,0,0,0,0,0,-1,958,1107,0,0
-259,-83,0,0,0,0,0,0,0,0,0,-1,965,1107,0,0
-252,-83,0,0,0,0,0,0,0,0,0,-1,972,1107,0,0
-245,-83,0,0,0,0,0,0,0,0,0,-1,979,1107,0,0
-238,-83,0,0,0,0,0,0,0,0,0,-1,986,1107,0,0
-231,-83,0,0,0,0,0,0,0,0,0,-1,993,1107,0,0
-224,-83,0,0,0,0,0,0,0,0,0,-1,1000,1107,0,0
-217,-83,0,0,0,0,0,0,0,0,0,-1,1007,1107,0,0
-210,-83,0,0,0,0,0,0,0,0,0,-1,1014,1107,0,0
-203,-83,0,0,0,0,0,0,0,0,0,-1,1021,1107,0,0
-196,-83,0,0,0,0,0,0,0,0,0,-1,1028,1107,0,0
-189,-83,0,0,0,0,0,0,0,0,0,-1,1035,1107,0,0
-182,-83,0,0,0,0,0,0,0,0,0,-1,1042,1107,0,0
-175,-83,0,0,0,0,0,0,0,0,0,-1,1049,1107,0,0
-168,-83,0,0,0,0,0,0,0,0,0,-1,1056,1107,0,0
-161,-83,0,0,0,0,0,0,0,0,0,-1,1063,1107,0,0
-154,-83,0,0,0,0,0,0,0,0,0,-1,1070,1107,0,0
-147,-83,0,0,0,0,0,0,0,0,0,-1,1077,1107,0,0
-140,-83,0,0,0,0,0,0,0,0,0,-1,1084,1107,0,0
-133,-83,0,0,0,0,0,0,0,0,0,-1,1091,1107,0,0
-126,-83,0,0,0,0,0,0,0,0,0,-1,1098,1107,0,0
-119,-83,0,0,0,0,0,0,0,0,0,-1,1105,1107,0,0
-112,-83,0,0,0,0,0,0,0,0,0,-1,1112,1107,0,0
-105,-83,0,0,0,0,0,0,0,0,0,-1,1119,1107,0,0
-98,-83,0,0,0,0,0,0,0,0,0,-1,1126,1107,0,0
-91,-83,0,0,0,0,0,0,0,0,0,-1,1133,1107,0,0
-84,-83,0,0,0,0,0,0,0,0,0,-1,1140,1107,0,0
-77,-83,0,0,0,0,0,0,0,0,0,-1,1147,1107,0,0
-70,-83,0,0,0,0,0,0,0,0,0,-1,1154,1107,0,0
-63,-83,0,0,0,0,0,0,0,0,0,-1,1161,1107,0,0
-56,-83,0,0,0,0,0,0,0,0,0,-1,1168,1107,0,0
-49,-83,0,0,0,0,0,0,0,0,0,-1,1175,1107,0,0
-42,-83,0,0,0,0,0,0,0,0,0,-1,1182,1107,0,0
-35,-83,0,0,0,0,0,0,0,0,0,-1,1189,1107,0,0
-28,-83,0,0,0,0,0,0,0,0,0,-1,1196,1107,0,0
-21,-83,0,0,0,0,0,0,0,0,0,-1,1203,1107,0,0
-14,-83,0,0,0,0,0,0,0,0,0,-1,1210,1107,0,0
-7,-83,0,0,0,0,0,0,0,0,0,-1,1217,1107,0,0
0,-83,0,0,0,0,0,0,0,0,0,-1,1224,1107,0,0
7,-83,0,0,0,0,0,0,0,0,0,-1,1231,1107,0,0
14,-83,0,0,0,0,0,0,0,0,0,-1,1238,1107,0,0
21,-83,0,0,0,0,0,0,0,0,0,-1,1245,1107,0,0
28,-83,0,0,0,0,0,0,0,0,0,-1,1252,1107,0,0
35,-83,0,0,0,0,0,0,0,0,0,-1,1259,1107,0,0
42,-83,0,0,0,0,0,0,0,0,0,-1,1266,1107,0,0
49,-83,0,0,0,0,0,0,0,0,0,-1,1273,1107,0,0
56,-83,0,0,0,0,0,0,0,0,0,-1,1280,1107,0,0
63,-83,0,0,0,0,0,0,0,0,0,-1,1287,1107,0,0
70,-83,0,0,0,0,0,0,0,0,0,-1,1294,1107,0,0
77,-83,0,0,0,0,0,0,0,0,0,-1,1301,1107,0,0
84,-83,0,0,0,0,0,0,0,0,0,-1,1308,1107,0,0
91,-83,0,0,0,0,0,0,0,0,0,-1,1315,1107,0,0
98,-83,0,0,0,0,0,0,0,0,0,-1,1322,1107,0,0
105,-83,0,0,0,0,0,0,0,0,0,-1,1329,1107,0,0
112,-83,0,0,0,0,0,0,0,0,0,-1,1336,1107,0,0
119,-83,0,0,0,0,0,0,0,0,0,-1,1343,1107,0,0
126,-83,0,0,0,0,0,0,0,0,0,-1,1350,1107,0,0
133,-83,0,0,0,0,0,0,0,0,0,-1,1357,1107,0,0
140,-83,0,0,0,0,0,0,0,0,0,-1,1364,1107,0,0
147,-83,0,0,0,0,0,0,0,0,0,-1,1371,1107,0,0
154,-83,0,0,0,0,0,0,0,0,0,-1,1378,1107,0,0
161,-83,0,0,0,0,0,0,0,0,0,-1,1385,1107,0,0
168,-83,0,0,0,0,0,0,0,0,0,-1,1392,1107,0,0
175,-83,0,0,0,0,0,0,0,0,0,-1,1399,1107,0,0
182,-83,0,0,0,0,0,0,0,0,0,-1,1406,1107,0,0
189,-83,0,0,0,0,0,0,0,0,0,-1,1413,1107,0,0
196,-83,0,0,0,0,0,0,0,0,0,-1,1420,1107,0,0
203,-83,0,0,0,0,0,0,0,0,0,-1,1427,1107,0,0
210,-83,0,0,0,0,0,0,0,0,0,-1,1434,1107,0,0
217,-83,0,0,0,0,0,0,0,0,0,-1,1441,1107,0,0
224,-83,0,0,0,0,0,0,0,0,0,-1,1448,1107,0,0
231,-83,0,0,0,0,0,0,0,0,0,-1,1455,1107,0,0
238,-83,0,0,0,0,0,0,0,0,0,-1,1462,1107,0,0
245,-83,0,0,0,0,0,0,0,0,0,-1,1469,1107,0,0
252,-83,0,0,0,0,0,0,0,0,0,-1,1476,1107,0,0
259,-83,0,0,0,0,0,0,0,0,0,-1,1483,1107,0,0
266,-83,0,0,0,0,0,0,0,0,0,-1,1490,1107,0,0
273,-83,0,0,0,0,0,0,0,0,0,-1,1497,1107,0,0
280,-83,0,0,0,0,0,0,0,0,0,-1,1504,1107,0,0
287,-83,0,0,0,0,0,0,0,0,0,-1,1511,1107,0,0
294,-83,0,0,0,0,0,0,0,0,0,-1,1518,1107,0,0
301,-83,0,0,0,0,0,0,0,0,0,-1,1525,1107,0,0
308,-83,0,0,0,0,0,0,0,0,0,-1,1532,1107,0,0
315,-83,0,0,0,0,0,0,0,0,0,-1,1539,1107,0,0
322,-83,0,0,0,0,0,0,0,0,0,-1,1546,1107,0,0
329,-83,0,0,0,0,0,0,0,0,0,-1,1553,1107,0,0
336,-83,0,0,0,0,0,0,0,0,0,-1,1560,1107,0,0
343,-83,0,0,0,0,0,0,0,0,0,-1,1567,1107,0,0
350,-83,0,0,0,0,0,0,0,0,0,-1,1574,1107,0,0
357,-83,0,0,0,0,0,0,0,0,0,-1,1581,1107,0,0
364,-83,0,0,0,0,0,0,0,0,0,-1,1588,1107,0,0
371,-83,0,0,0,0,0,0,0,0,0,-1,1595,1107,0,0
378,-83,0,0,0,0,0,0,0,0,0,-1,1602,1107,0,0
385,-83,0,0,0,0,0,0,0,0,0,-1,1609,1107,0,0
392,-83,0,0,0,0,0,0,0,0,0,-1,1616,1107,0,0
399,-83,0,0,0,0,0,0,0,0,0,-1,1623,1107,0,0
406,-83,0,0,0,0,0,0,0,0,0,-1,1630,1107,0,0
413,-83,0,0,0,0,0,0,0,0,0,-1,1637,1107,0,0
420,-83,0,0,0,0,0,0,0,0,0,-1,1644,1107,0,0
427,-83,0,0,0,0,0,0,0,0,0,-1,1651,1107,0,0
434,-83,0,0,0,0,0,0,0,0,0,-1,1658,1107,0,0
441,-83,0,0,0,0,0,0,0,0,0,-1,1665,1107,0,0
448,-83,0,0,0,0,0,0,0,0,0,-1,1672,1107,0,0
455,-83,0,0,0,0,0,0,0,0,0,-1,1679,1107,0,0
462,-83,0,0,0,0,0,0,0,0,0,-1,1686,1107,0,0
469,-83,0,0,0,0,0,0,0,0,0,-1,1693,1107,0,0
476,-83,0,0,0,0,0,0,0,0,0,-1,1700,1107,0,0
483,-83,0,0,0,0,0,0,0,0,0,-1,1707,1107,0,0
490,-83,0,0,0,0,0,0,0,0,0,-1,1714,1107,0,0
497,-83,0,0,0,0,0,0,0,0,0,-1,1721,1107,0,0
504,-83,0,0,0,0,0,0,0,0,0,-1,1728,1107,0,0
511,-83,0,0,0,0,0,0,0,0,0,-1,1735,1107,0,0
518,-83,0,0,0,0,0,0,0,0,0,-1,1742,1107,0,0
525,-83,0,0,0,0,0,0,0,0,0,-1,1749,1107,0,0
532,-83,0,0,0,0,0,0,0,0,0,-1,1756,1107,0,0
539,-83,0,0,0,0,0,0,0,0,0,-1,1763,1107,0,0
546,-83,0,0,0,0,0,0,0,0,0,-1,1770,1107,0,0
553,-83,0,0,0,0,0,0,0,0,0,-1,1777,1107,0,0
560,-83,0,0,0,0,0,0,0,0,0,-1,1784,1107,0,0
567,-83,0,0,0,0,0,0,0,0,0,-1,1791,1107,0,0
574,-83,0,0,0,0,0,0,0,0,0,-1,1798,1107,0,0
581,-83,0,0,0,0,0,0,0,0,0,-1,1805,1107,0,0
588,-83,0,0,0,0,0,0,0,0,0,-1,1812,1107,0,0
595,-83,0,0,0,0,0,0,0,0,0,-1,1819,1107,0,0
602,-83,0,0,0,0,0,0,0,0,0,-1,1826,1107,0,0
609,-83,0,0,0,0,0,0,0,0,0,-1,1833,1107,0,0
616,-83,0,0,0,0,0,0,0,0,0,-1,1840,1107,0,0
623,-83,0,0,0,0,0,0,0,0,0,-1,1847,1107,0,0
630,-83,0,0,0,0,0,0,0,0,0,-1,1854,1107,0,0
637,-83,0,0,0,0,0,0,0,0,0,-1,1861,1107,0,0
644,-83,33.5686,2.87231,0.00736855,0.00600928,0.00252061,0.00929954,0.00407828,0.653714,0.00538259,0.0352721,1868,1107,33.5686,-2.8723
651,-83,33.5675,2.953,0.00557784,0.00488976,0.00223812,0.0074982,0.00296939,0.709136,0.00436019,0.0420277,1875,1107,33.5675,-2.95304
658,-83,33.6353,2.87085,0.00424287,0.00394847,0.00190824,0.00600958,0.00218176,0.746905,0.00351275,0.0453209,1882,1107,33.6352,-2.8708
665,-83,33.5718,2.62354,0.00313712,0.00304433,0.00170858,0.00479994,0.00138152,0.771824,0.00285321,0.0414929,1889,1107,33.5718,-2.6235
672,-83,33.5165,2.60876,0.00229447,0.00208237,0.00166325,0.00385505,0.000521789,0.753561,0.00241497,0.0395616,1896,1107,33.5164,-2.60879
679,-83,33.6118,2.66589,0.00131235,0.00111596,0.00179495,0.00301179,-0.000583482,0.758072,0.00222797,0.0377499,1903,1107,33.6118,-2.66585
686,-83,33.6836,2.73621,0.000392433,0.000293431,0.00194741,0.00229097,-0.00160511,0.772691,0.00226099,0.0321155,1910,1107,33.6837,-2.73616
693,-83,33.6771,2.79272,-0.00023357,-0.000352703,0.00206125,0.00176898,-0.00235525,0.770953,0.00238913,0.0338092,1917,1107,33.6772,-2.79268
700,-83,33.6302,2.78809,-0.000779703,-0.000779215,0.00211496,0.0013355,-0.00289442,0.785456,0.00249682,0.0321195,1924,1107,33.6302,-2.78805
707,-83,33.5729,2.79163,-0.0012933,-0.00109251,0.00221527,0.00102464,-0.00341044,0.808042,0.00268125,0.0229504,1931,1107,33.5729,-2.79169
714,-83,33.5521,2.78369,0,0,0,0,0,0,0,-1,1938,1107,33.5521,-2.78372
721,-83,32.0358,5.71777,0,0,0,0,0,0,0,-1,1945,1107,32.0357,-5.7178
728,-83,32.0327,5.55334,-0.00226755,-0.00112693,0.00227821,0.000651271,-0.00404575,0.908045,0.00293841,0.0270005,1952,1107,32.0328,-5.55339
735,-83,31.877,5.36719,-0.00201639,-0.000735751,0.00199083,0.000715201,-0.00346734,0.940991,0.00258318,0.0296719,1959,1107,31.877,-5.3672
742,-83,32.0161,5.19922,-0.00105995,-9.85264e-05,0.00187974,0.001361,-0.00251947,0.910582,0.00227343,0.0182993,1966,1107,32.0161,-5.19921
749,-83,32.0487,5.02747,0.00114519,0.00062216,0.00168576,0.0025896,-0.000822245,0.708445,0.00205603,0.0132865,1973,1107,32.0487,-5.02742
756,-83,32.0696,4.86694,0.00431983,0.000866154,0.00150898,0.00488624,0.00029974,0.359087,0.00316232,0.0145322,1980,1107,32.0696,-4.86692
763,-83,32.0469,4.67896,0.00871349,0.00101825,0.00141574,0.00896569,0.000766047,0.176289,0.00573884,0.0120815,1987,1107,32.0469,-4.67893
770,-83,31.9637,4.54968,0.0147301,0.0010461,0.0012878,0.0148503,0.000925959,0.0930214,0.0096064,0.0148362,1994,1107,31.9637,-4.54965
777,-83,31.8983,4.42261,0.0221794,0.000250642,0.00153007,0.0222857,0.000144399,0.0693267,0.0148092,0.0164323,2001,1107,31.8983,-4.42262
784,-83,31.9225,4.2854,0.0306687,-0.00137693,0.00209118,0.0308046,-0.00151282,0.0648896,0.0210588,0.0252013,2008,1107,31.9225,-4.28542
791,-83,32.434,4.19312,0.0402931,-0.0042496,0.00313277,0.0405123,-0.00446885,0.0698734,0.0286144,0.040279,2015,1107,32.434,-4.19311
798,-83,32.7944,4.15002,0.0512577,-0.00877499,0.00476268,0.0516332,-0.00915049,0.0786789,0.0378429,0.045878,2022,1107,32.7946,-4.15006
805,-83,33.137,4.08118,0.0632144,-0.0154493,0.00724076,0.0638754,-0.0161103,0.0910278,0.0488474,0.0484952,2029,1107,33.1368,-4.08121
812,-83,33.6072,3.97302,0.0753308,-0.0249341,0.0109476,0.0765122,-0.0261155,0.107499,0.0615875,0.0496413,2036,1107,33.6072,-3.97296
-700,-90,0,0,0,0,0,0,0,0,0,-1,524,1114,0,0
-693,-90,-21.4266,0.563599,-0.00824154,0.0778026,-0.0116111,0.0793419,-0.00978084,-1.43899,0.0564381,0.046663,531,1114,-21.4267,-0.563586
-686,-90,-21.1813,0.915771,-0.00614263,0.0696249,-0.00695403,0.0702579,-0.00677559,-1.48003,0.0492527,0.043148,538,1114,-21.1813,-0.915754
-679,-90,-21.5913,0.404541,0,0,0,0,0,0,0,-1,545,1114,-21.5913,-0.404552
-672,-90,-21.5241,0.709473,-0.0030044,0.0509902,-0.00189461,0.0510566,-0.0030708,-1.53576,0.0351062,0.0422536,552,1114,-21.5241,-0.709464
-665,-90,-23.0631,-0.46228,-0.00190281,0.0419973,-0.000641187,0.0420066,-0.00191217,-1.55619,0.0286631,0.0460942,559,1114,-23.0631,0.462323
-658,-90,-22.6733,0.177734,-0.00110095,0.0336709,5.29482e-05,0.0336709,-0.00110103,1.56927,0.0228231,0.042706,566,1114,-22.6733,-0.17774
-651,-90,-22.2349,0.980835,-0.000518061,0.0261826,0.000371338,0.0261877,-0.000523224,1.55689,0.0176355,0.0296208,573,1114,-22.2349,-0.980849
-644,-90,-22.2734,1.45496,-5.94764e-05,0.0194654,0.000474419,0.0194769,-7.09966e-05,1.54652,0.0130083,0.0133196,580,1114,-22.2734,-1.45498
-637,-90,-22.2847,1.75525,0.000209933,0.0141292,0.000404616,0.0141409,0.000198181,1.54176,0.00936191,0.0112449,587,1114,-22.2846,-1.75522
-630,-90,-22.2948,1.97815,-0.000302438,0.00745513,-0.00120527,0.00763807,-0.000485382,-1.42016,0.00526131,0.0114951,594,1114,-22.2948,-1.97813
-623,-90,-22.3021,2.18701,-0.000812019,0.00474102,-0.00199791,0.00538513,-0.00145613,-1.25892,0.00416127,0.00994935,601,1114,-22.3021,-2.187
-616,-90,-22.3077,2.4198,-0.00102663,0.00237533,-0.0026291,0.00380573,-0.00245703,-1.07252,0.00364364,0.00993275,608,1114,-22.3077,-2.41983
-609,-90,-22.3143,2.59619,-0.00134123,0.000951014,-0.00349519,0.0034832,-0.00387341,-0.943831,0.00424933,0.0138195,615,1114,-22.3143,-2.59623
-602,-90,-22.3711,2.79089,-0.00168486,-0.000339752,-0.00389161,0.002937,-0.00496161,-0.870964,0.00460993,0.0144207,622,1114,-22.3711,-2.79092
-595,-90,-21.8047,3.27576,0,0,0,0,0,0,0,-1,629,1114,-21.8048,-3.27572
-588,-90,-22.5304,2.81445,0,0,0,0,0,0,0,-1,636,1114,-22.5304,-2.8144
-581,-90,-23.2561,2.35315,0,0,0,0,0,0,0,-1,643,1114,-23.2561,-2.35309
-574,-90,-23.8298,0.833008,-0.00141009,-0.00186803,-0.00377594,0.00214382,-0.00542194,-0.755116,0.00450269,0.0353591,650,1114,-23.8297,-0.832981
-567,-90,-23.864,0.90918,-0.000979646,-0.00210794,-0.00344825,0.0019503,-0.00503788,-0.704315,0.00416383,0.0360125,657,1114,-23.864,-0.909197
-560,-90,-23.908,0.956665,-0.000302257,-0.00226455,-0.00295821,0.00183327,-0.00440007,-0.625272,0.00369913,0.0389515,664,1114,-23.908,-0.956665
-553,-90,-23.721,1.04639,0.000659833,-0.00232072,-0.00239721,0.00199224,-0.00365313,-0.507297,0.00330604,0.0419969,671,1114,-23.721,-1.04645
-546,-90,-23.7822,1.15833,0.00216778,-0.00224254,-0.00185925,0.00284698,-0.00292174,-0.350248,0.00333067,0.0430291,678,1114,-23.7822,-1.15829
-539,-90,-23.9016,1.14966,0.00454044,-0.00207687,-0.00155236,0.00488651,-0.00242294,-0.219345,0.00429927,0.0400548,685,1114,-23.9016,-1.14961
-532,-90,-23.7537,0.999146,0.00722035,-0.00194758,-0.00309207,0.00816573,-0.00289296,-0.296717,0.00662223,0.0415589,692,1114,-23.7536,-0.999194
-525,-90,0,0,0,0,0,0,0,0,0,-1,699,1114,0,0
-518,-90,0,0,0,0,0,0,0,0,0,-1,706,1114,0,0
-511,-90,0,0,0,0,0,0,0,0,0,-1,713,1114,0,0
-504,-90,0,0,0,0,0,0,0,0,0,-1,720,1114,0,0
-497,-90,0,0,0,0,0,0,0,0,0,-1,727,1114,0,0
-490,-90,0,0,0,0,0,0,0,0,0,-1,734,1114,0,0
-483,-90,0,0,0,0,0,0,0,0,0,-1,741,1114,0,0
-476,-90,0,0,0,0,0,0,0,0,0,-1,748,1114,0,0
-469,-90,0,0,0,0,0,0,0,0,0,-1,755,1114,0,0
-462,-90,0,0,0,0,0,0,0,0,0,-1,762,1114,0,0
-455,-90,0,0,0,0,0,0,0,0,0,-1,769,1114,0,0
-448,-90,0,0,0,0,0,0,0,0,0,-1,776,1114,0,0
-441,-90,0,0,0,0,0,0,0,0,0,-1,783,1114,0,0
-434,-90,0,0,0,0,0,0,0,0,0,-1,790,1114,0,0
-427,-90,0,0,0,0,0,0,0,0,0,-1,797,1114,0,0
-420,-90,0,0,0,0,0,0,0,0,0,-1,804,1114,0,0
-413,-90,0,0,0,0,0,0,0,0,0,-1,811,1114,0,0
-406,-90,0,0,0,0,0,0,0,0,0,-1,818,1114,0,0
-399,-90,0,0,0,0,0,0,0,0,0,-1,825,1114,0,0
-392,-90,0,0,0,0,0,0,0,0,0,-1,832,1114,0,0
-385,-90,0,0,0,0,0,0,0,0,0,-1,839,1114,0,0
-378,-90,0,0,0,0,0,0,0,0,0,-1,846,1114,0,0
-371,-90,0,0,0,0,0,0,0,0,0,-1,853,1114,0,0
-364,-90,0,0,0,0,0,0,0,0,0,-1,860,1114,0,0
-357,-90,0,0,0,0,0,0,0,0,0,-1,867,1114,0,0
-350,-90,0,0,0,0,0,0,0,0,0,-1,874,1114,0,0
-343,-90,0,0,0,0,0,0,0,0,0,-1,881,1114,0,0
-336,-90,0,0,0,0,0,0,0,0,0,-1,888,1114,0,0
-329,-90,0,0,0,0,0,0,0,0,0,-1,895,1114,0,0
-322,-90,0,0,0,0,0,0,0,0,0,-1,902,1114,0,0
-315,-90,0,0,0,0,0,0,0,0,0,-1,909,1114,0,0
-308,-90,0,0,0,0,0,0,0,0,0,-1,916,1114,0,0
-301,-90,0,0,0,0,0,0,0,0,0,-1,923,1114,0,0
-294,-90,0,0,0,0,0,0,0,0,0,-1,930,1114,0,0
-287,-90,0,0,0,0,0,0,0,0,0,-1,937,1114,0,0
-280,-90,0,0,0,0,0,0,0,0,0,-1,944,1114,0,0
-273,-90,0,0,0,0,0,0,0,0,0,-1,951,1114,0,0
-266,-90,0,0,0,0,0,0,0,0,0,-1,958,1114,0,0
-259,-90,0,0,0,0,0,0,0,0,0,-1,965,1114,0,0
-252,-90,0,0,0,0,0,0,0,0,0,-1,972,1114,0,0
-245,-90,0,0,0,0,0,0,0,0,0,-1,979,1114,0,0
-238,-90,0,0,0,0,0,0,0,0,0,-1,986,1114,0,0
-231,-90,0,0,0,0,0,0,0,0,0,-1,993,1114,0,0
-224,-90,0,0,0,0,0,0,0,0,0,-1,1000,1114,0,0
-217,-90,0,0,0,0,0,0,0,0,0,-1,1007,1114,0,0
-210,-90,0,0,0,0,0,0,0,0,0,-1,1014,1114,0,0
-203,-90,0,0,0,0,0,0,0,0,0,-1,1021,1114,0,0
-196,-90,0,0,0,0,0,0,0,0,0,-1,1028,1114,0,0
-189,-90,0,0,0,0,0,0,0,0,0,-1,1035,1114,0,0
-182,-90,0,0,0,0,0,0,0,0,0,-1,1042,1114,0,0
-175,-90,0,0,0,0,0,0,0,0,0,-1,1049,1114,0,0
-168,-90,0,0,0,0,0,0,0,0,0,-1,1056,1114,0,0
-161,-90,0,0,0,0,0,0,0,0,0,-1,1063,1114,0,0
-154,-90,0,0,0,0,0,0,0,0,0,-1,1070,1114,0,0
-147,-90,0,0,0,0,0,0,0,0,0,-1,1077,1114,0,0
-140,-90,0,0,0,0,0,0,0,0,0,-1,1084,1114,0,0
-133,-90,0,0,0,0,0,0,0,0,0,-1,1091,1114,0,0
-126,-90,0,0,0,0,0,0,0,0,0,-1,1098,1114,0,0
-119,-90,0,0,0,0,0,0,0,0,0,-1,1105,1114,0,0
-112,-90,0,0,0,0,0,0,0,0,0,-1,1112,1114,0,0
-105,-90,0,0,0,0,0,0,0,0,0,-1,1119,1114,0,0
-98,-90,0,0,0,0,0,0,0,0,0,-1,1126,1114,0,0
-91,-90,0,0,0,0,0,0,0,0,0,-1,1133,1114,0,0
-84,-90,0,0,0,0,0,0,0,0,0,-1,1140,1114,0,0
-77,-90,0,0,0,0,0,0,0,0,0,-1,1147,1114,0,0
-70,-90,0,0,0,0,0,0,0,0,0,-1,1154,1114,0,0
-63,-90,0,0,0,0,0,0,0,0,0,-1,1161,1114,0,0
-56,-90,0,0,0,0,0,0,0,0,0,-1,1168,1114,0,0
-49,-90,0,0,0,0,0,0,0,0,0,-1,1175,1114,0,0
-42,-90,0,0,0,0,0,0,0,0,0,-1,1182,1114,0,0
-35,-90,0,0,0,0,0,0,0,0,0,-1,1189,1114,0,0
-28,-90,0,0,0,0,0,0,0,0,0,-1,1196,1114,0,0
-21,-90,0,0,0,0,0,0,0,0,0,-1,1203,1114,0,0
-14,-90,0,0,0,0,0,0,0,0,0,-1,1210,1114,0,0
-7,-90,0,0,0,0,0,0,0,0,0,-1,1217,1114,0,0
0,-90,0,0,0,0,0,0,0,0,0,-1,1224,1114,0,0
7,-90,0,0,0,0,0,0,0,0,0,-1,1231,1114,0,0
14,-90,0,0,0,0,0,0,0,0,0,-1,1238,1114,0,0
21,-90,0,0,0,0,0,0,0,0,0,-1,1245,1114,0,0
28,-90,0,0,0,0,0,0,0,0,0,-1,1252,1114,0,0
35,-90,0,0,0,0,0,0,0,0,0,-1,1259,1114,0,0
42,-90,0,0,0,0,0,0,0,0,0,-1,1266,1114,0,0
49,-90,0,0,0,0,0,0,0,0,0,-1,1273,1114,0,0
56,-90,0,0,0,0,0,0,0,0,0,-1,1280,1114,0,0
63,-90,0,0,0,0,0,0,0,0,0,-1,1287,1114,0,0
70,-90,0,0,0,0,0,0,0,0,0,-1,1294,1114,0,0
77,-90,0,0,0,0,0,0,0,0,0,-1,1301,1114,0,0
84,-90,0,0,0,0,0,0,0,0,0,-1,1308,1114,0,0
91,-90,0,0,0,0,0,0,0,0,0,-1,1315,1114,0,0
98,-90,0,0,0,0,0,0,0,0,0,-1,1322,1114,0,0
105,-90,0,0,0,0,0,0,0,0,0,-1,1329,1114,0,0
112,-90,0,0,0,0,0,0,0,0,0,-1,1336,1114,0,0
119,-90,0,0,0,0,0,0,0,0,0,-1,1343,1114,0,0
126,-90,0,0,0,0,0,0,0,0,0,-1,1350,1114,0,0
133,-90,0,0,0,0,0,0,0,0,0,-1,1357,1114,0,0
140,-90,0,0,0,0,0,0,0,0,0,-1,1364,1114,0,0
147,-90,0,0,0,0,0,0,0,0,0,-1,1371,1114,0,0
154,-90,0,0,0,0,0,0,0,0,0,-1,1378,1114,0,0
161,-90,0,0,0,0,0,0,0,0,0,-1,1385,1114,0,0
168,-90,0,0,0,0,0,0,0,0,0,-1,1392,1114,0,0
175,-90,0,0,0,0,0,0,0,0,0,-1,1399,1114,0,0
182,-90,0,0,0,0,0,0,0,0,0,-1,1406,1114,0,0
189,-90,0,0,0,0,0,0,0,0,0,-1,1413,1114,0,0
196,-90,0,0,0,0,0,0,0,0,0,-1,1420,1114,0,0
203,-90,0,0,0,0,0,0,0,0,0,-1,1427,1114,0,0
210,-90,0,0,0,0,0,0,0,0,0,-1,1434,1114,0,0
217,-90,0,0,0,0,0,0,0,0,0,-1,1441,1114,0,0
224,-90,0,0,0,0,0,0,0,0,0,-1,1448,1114,0,0
231,-90,0,0,0,0,0,0,0,0,0,-1,1455,1114,0,0
238,-90,0,0,0,0,0,0,0,0,0,-1,1462,1114,0,0
245,-90,0,0,0,0,0,0,0,0,0,-1,1469,1114,0,0
252,-90,0,0,0,0,0,0,0,0,0,-1,1476,1114,0,0
259,-90,0,0,0,0,0,0,0,0,0,-1,1483,1114,0,0
266,-90,0,0,0,0,0,0,0,0,0,-1,1490,1114,0,0
273,-90,0,0,0,0,0,0,0,0,0,-1,1497,1114,0,0
280,-90,0,0,0,0,0,0,0,0,0,-1,1504,1114,0,0
287,-90,0,0,0,0,0,0,0,0,0,-1,1511,1114,0,0
294,-90,0,0,0,0,0,0,0,0,0,-1,1518,1114,0,0
301,-90,0,0,0,0,0,0,0,0,0,-1,1525,1114,0,0
308,-90,0,0,0,0,0,0,0,0,0,-1,1532,1114,0,0
315,-90,0,0,0,0,0,0,0,0,0,-1,1539,1114,0,0
322,-90,0,0,0,0,0,0,0,0,0,-1,1546,1114,0,0
329,-90,0,0,0,0,0,0,0,0,0,-1,1553,1114,0,0
336,-90,0,0,0,0,0,0,0,0,0,-1,1560,1114,0,0
343,-90,0,0,0,0,0,0,0,0,0,-1,1567,1114,0,0
350,-90,0,0,0,0,0,0,0,0,0,-1,1574,1114,0,0
357,-90,0,0,0,0,0,0,0,0,0,-1,1581,1114,0,0
364,-90,0,0,0,0,0,0,0,0,0,-1,1588,1114,0,0
371,-90,0,0,0,0,0,0,0,0,0,-1,1595,1114,0,0
378,-90,0,0,0,0,0,0,0,0,0,-1,1602,1114,0,0
385,-90,0,0,0,0,0,0,0,0,0,-1,1609,1114,0,0
392,-90,0,0,0,0,0,0,0,0,0,-1,1616,1114,0,0
399,-90,0,0,0,0,0,0,0,0,0,-1,1623,1114,0,0
406,-90,0,0,0,0,0,0,0,0,0,-1,1630,1114,0,0
413,-90,0,0,0,0,0,0,0,0,0,-1,1637,1114,0,0
420,-90,0,0,0,0,0,0,0,0,0,-1,1644,1114,0,0
427,-90,0,0,0,0,0,0,0,0,0,-1,1651,1114,0,0
434,-90,0,0,0,0,0,0,0,0,0,-1,1658,1114,0,0
441,-90,0,0,0,0,0,0,0,0,0,-1,1665,1114,0,0
448,-90,0,0,0,0,0,0,0,0,0,-1,1672,1114,0,0
455,-90,0,0,0,0,0,0,0,0,0,-1,1679,1114,0,0
462,-90,0,0,0,0,0,0,0,0,0,-1,1686,1114,0,0
469,-90,0,0,0,0,0,0,0,0,0,-1,1693,1114,0,0
476,-90,0,0,0,0,0,0,0,0,0,-1,1700,1114,0,0
483,-90,0,0,0,0,0,0,0,0,0,-1,1707,1114,0,0
490,-90,0,0,0,0,0,0,0,0,0,-1,1714,1114,0,0
497,-90,0,0,0,0,0,0,0,0,0,-1,1721,1114,0,0
504,-90,0,0,0,0,0,0,0,0,0,-1,1728,1114,0,0
511,-90,0,0,0,0,0,0,0,0,0,-1,1735,1114,0,0
518,-90,0,0,0,0,0,0,0,0,0,-1,1742,1114,0,0
525,-90,0,0,0,0,0,0,0,0,0,-1,1749,1114,0,0
532,-90,0,0,0,0,0,0,0,0,0,-1,1756,1114,0,0
539,-90,0,0,0,0,0,0,0,0,0,-1,1763,1114,0,0
546,-90,0,0,0,0,0,0,0,0,0,-1,1770,1114,0,0
553,-90,0,0,0,0,0,0,0,0,0,-1,1777,1114,0,0
560,-90,0,0,0,0,0,0,0,0,0,-1,1784,1114,0,0
567,-90,0,0,0,0,0,0,0,0,0,-1,1791,1114,0,0
574,-90,0,0,0,0,0,0,0,0,0,-1,1798,1114,0,0
581,-90,0,0,0,0,0,0,0,0,0,-1,1805,1114,0,0
588,-90,0,0,0,0,0,0,0,0,0,-1,1812,1114,0,0
595,-90,0,0,0,0,0,0,0,0,0,-1,1819,1114,0,0
602,-90,0,0,0,0,0,0,0,0,0,-1,1826,1114,0,0
609,-90,0,0,0,0,0,0,0,0,0,-1,1833,1114,0,0
616,-90,0,0,0,0,0,0,0,0,0,-1,1840,1114,0,0
623,-90,0,0,0,0,0,0,0,0,0,-1,1847,1114,0,0
630,-90,0,0,0,0,0,0,0,0,0,-1,1854,1114,0,0
637,-90,0,0,0,0,0,0,0,0,0,-1,1861,1114,0,0
644,-90,33.496,2.80798,0.00703426,0.00452733,0.00175749,0.00793949,0.0036221,0.475629,0.00458972,0.0357402,1868,1114,33.496,-2.80795
651,-90,33.6158,2.93274,0.00541991,0.00363894,0.00157797,0.00634132,0.00271754,0.528512,0.00367361,0.0416368,1875,1114,33.6158,-2.9327
658,-90,33.7366,2.87769,0.00421117,0.0028759,0.00136778,0.00506556,0.00202151,0.55835,0.00294439,0.0441279,1882,1114,33.7366,-2.87769
665,-90,33.7109,2.63867,0.00317879,0.00209948,0.00127452,0.0040232,0.00125507,0.585135,0.00237692,0.0433329,1889,1114,33.711,-2.63872
672,-90,33.6052,2.57129,0.0023525,0.00128868,0.00129413,0.00321977,0.00042141,0.590414,0.00202074,0.0424163,1896,1114,33.6053,-2.57134
679,-90,33.5779,2.62927,0.00139637,0.000534211,0.00142929,0.00245817,-0.000527593,0.638935,0.00184003,0.0378644,1903,1114,33.5779,-2.62929
686,-90,33.6394,2.75781,0.000531496,-9.58754e-05,0.00154507,0.0017944,-0.00135878,0.685247,0.00182627,0.0317971,1910,1114,33.6394,-2.75782
693,-90,33.6188,2.7334,-4.93335e-05,-0.00056579,0.0016268,0.0013396,-0.00195473,0.706688,0.001913,0.0328126,1917,1114,33.6188,-2.73337
700,-90,33.6008,2.74915,-0.000558352,-0.000857825,0.00164665,0.000945357,-0.00236153,0.740056,0.00196673,0.0309376,1924,1114,33.6008,-2.74913
707,-90,33.547,2.75977,-0.00104521,-0.00104675,0.00174443,0.000698451,-0.00279041,0.785178,0.00213158,0.0228736,1931,1114,33.547,-2.75973
714,-90,33.55,2.74976,0,0,0,0,0,0,0,-1,1938,1114,33.55,-2.74977
721,-90,31.845,5.74268,0,0,0,0,0,0,0,-1,1945,1114,31.8449,-5.74273
728,-90,31.8557,5.61633,-0.0019343,-0.000902825,0.00180716,0.000460745,-0.00329787,0.924396,0.00236715,0.0219118,1952,1114,31.8557,-5.61636
735,-90,31.7701,5.41455,-0.00167019,-0.000527071,0.00153408,0.000538465,-0.00273573,0.96372,0.00202729,0.0250725,1959,1114,31.7701,-5.41455
742,-90,31.8156,5.1991,-0.000754822,2.91881e-05,0.00149962,0.00118719,-0.00191283,0.913239,0.00180607,0.0211599,1966,1114,31.8156,-5.19912
749,-90,31.9471,4.95764,0.00126694,0.000562037,0.00144687,0.00240367,-0.000574684,0.665926,0.00182443,0.0142913,1973,1114,31.9471,-4.95758
756,-90,31.9204,4.80591,0.00421292,0.000477367,0.00145957,0.00471557,-2.52875e-05,0.331664,0.00315218,0.0144144,1980,1114,31.9204,-4.80595
763,-90,31.8668,4.64966,0.00839711,0.000157878,0.0016234,0.00870543,-0.000150447,0.18769,0.00585442,0.0124331,1987,1114,31.8669,-4.6497
770,-90,31.8342,4.50061,0.0139707,-0.000441619,0.00184801,0.0142039,-0.000674805,0.125519,0.00970204,0.0154974,1994,1114,31.8342,-4.50065
777,-90,31.7955,4.37732,0.0207154,-0.00189577,0.00243887,0.0209754,-0.00215584,0.106233,0.0147548,0.0144551,2001,1114,31.7955,-4.37733
784,-90,31.7748,4.28528,0.0284696,-0.0042949,0.00340196,0.0288191,-0.0046444,0.102376,0.0209333,0.0267141,2008,1114,31.7748,-4.28527
791,-90,32.2869,4.43164,0.0372995,-0.00804889,0.00489179,0.0378211,-0.00857058,0.106243,0.0285037,0.0413704,2015,1114,32.2868,-4.43163
798,-90,32.9189,4.45435,0.0473309,-0.0135592,0.00705124,0.0481368,-0.0143651,0.113796,0.0378007,0.0451028,2022,1114,32.9191,-4.45436
805,-90,32.6663,4.3175,0,0,0,0,0,0,0,-1,2029,1114,32.6663,-4.31756
812,-90,33.2075,4.28113,0,0,0,0,0,0,0,-1,2036,1114,33.2075,-4.28114
-700,-97,0,0,0,0,0,0,0,0,0,-1,524,1121,0,0
-693,-97,-20.802,0.243042,1.43878e-05,0.0647143,-0.00941829,0.0660574,-0.00132874,-1.42914,0.0444878,0.047318,531,1121,-20.802,-0.243033
-686,-97,-24.0114,-3.11133,0.000155956,0.0586452,-0.00604096,0.0592626,-0.000461457,-1.46895,0.0396631,0.0481176,538,1121,-24.0114,3.11139
-679,-97,-23.4705,-1.77502,0.000368722,0.0513626,-0.0038662,0.051654,7.72644e-05,-1.49555,0.0344103,0.0460644,545,1121,-23.4705,1.77498
-672,-97,-23.0775,-0.681274,0.000612766,0.0437793,-0.00245998,0.043919,0.000473028,-1.51405,0.0291229,0.0439321,552,1121,-23.0775,0.68132
-665,-97,-22.8482,-0.0588379,0.000793531,0.0363555,-0.00157722,0.0364254,0.000723716,-1.52656,0.024046,0.046976,559,1121,-22.8482,0.0588015
-658,-97,-22.3367,0.454102,0.000881496,0.0293723,-0.00107456,0.0294128,0.000841024,-1.53315,0.0193343,0.0432347,566,1121,-22.3367,-0.454119
-651,-97,-22.0835,1.06824,0.000925987,0.0229826,-0.000800327,0.0230116,0.000896987,-1.53457,0.015051,0.0300545,573,1121,-22.0835,-1.06825
-644,-97,-22.0522,1.46472,0.000929774,0.0172511,-0.000657281,0.0172775,0.000903348,-1.53061,0.0112293,0.0113299,580,1121,-22.0522,-1.46468
-637,-97,-22.0381,1.72864,0.000899279,0.0127271,-0.000468885,0.0127456,0.000880721,-1.53124,0.00821926,0.0116823,587,1121,-22.0381,-1.72858
-630,-97,-22.0522,1.94849,0.000251133,0.00658365,-0.00176113,0.00704048,-0.000205698,-1.31699,0.0047637,0.00963694,594,1121,-22.0522,-1.94852
-623,-97,-22.0654,2.18579,-0.000306683,0.00425465,-0.0021731,0.00512419,-0.00117623,-1.19017,0.00386828,0.011342,601,1121,-22.0654,-2.18574
-616,-97,-22.0692,2.42993,-0.000401787,0.00209727,-0.00244971,0.00359772,-0.00190224,-1.02123,0.0032253,0.0143341,608,1121,-22.0692,-2.42991
-609,-97,-22.1299,2.64355,-0.000580738,0.000818102,-0.00297601,0.00317577,-0.00293841,-0.900814,0.00353091,0.0182847,615,1121,-22.1299,-2.64355
-602,-97,-22.1683,2.82385,-0.000853215,-0.000344259,-0.00307944,0.0024912,-0.00368867,-0.826623,0.00359021,0.0167823,622,1121,-22.1683,-2.82389
-595,-97,-22.0527,3.07788,-0.00123104,-0.000761786,-0.00308704,0.00209953,-0.00409235,-0.823327,0.00363607,0.0162113,629,1121,-22.0528,-3.07787
-588,-97,-22.1019,3.12939,-0.00132408,-0.00110616,-0.00297392,0.0017608,-0.00419103,-0.80371,0.00353049,0.0387071,636,1121,-22.1019,-3.12938
-581,-97,-22.879,2.84851,0,0,0,0,0,0,0,-1,643,1121,-22.879,-2.84847
-574,-97,-23.8204,0.819946,-0.000448489,-0.0015189,-0.00287877,0.0019444,-0.0039118,-0.69349,0.00344409,0.0379674,650,1121,-23.8204,-0.819912
-567,-97,-23.8782,0.948608,-2.65959e-05,-0.0016559,-0.00268002,0.00195985,-0.00364234,-0.63785,0.00328269,0.0345903,657,1121,-23.8782,-0.948558
-560,-97,-23.8365,1.15942,0.000577426,-0.00170945,-0.00241572,0.00210666,-0.00323868,-0.564355,0.00310912,0.038399,664,1121,-23.8365,-1.15937
-553,-97,-23.6707,1.36804,0.00137174,-0.00166786,-0.0022128,0.00253639,-0.00283251,-0.484484,0.0031013,0.0450227,671,1121,-23.6707,-1.36803
-546,-97,-23.6079,1.33533,0.00261432,-0.00151095,-0.0022096,0.00357439,-0.00247103,-0.409892,0.00350965,0.0458607,678,1121,-23.6079,-1.33535
-539,-97,-23.8291,1.09131,0.00473425,-0.00129338,-0.00256147,0.00567571,-0.00223484,-0.352221,0.00470898,0.040534,685,1121,-23.8291,-1.09127
-532,-97,-23.7808,0.981812,0.00746454,-0.0011909,-0.00453641,0.00940644,-0.0031328,-0.404468,0.00753552,0.0400861,692,1121,-23.7808,-0.981758
-525,-97,0,0,0,0,0,0,0,0,0,-1,699,1121,0,0
-518,-97,0,0,0,0,0,0,0,0,0,-1,706,1121,0,0
-511,-97,0,0,0,0,0,0,0,0,0,-1,713,1121,0,0
-504,-97,0,0,0,0,0,0,0,0,0,-1,720,1121,0,0
-497,-97,0,0,0,0,0,0,0,0,0,-1,727,1121,0,0
-490,-97,0,0,0,0,0,0,0,0,0,-1,734,1121,0,0
-483,-97,0,0,0,0,0,0,0,0,0,-1,741,1121,0,0
-476,-97,0,0,0,0,0,0,0,0,0,-1,748,1121,0,0
-469,-97,0,0,0,0,0,0,0,0,0,-1,755,1121,0,0
-462,-97,0,0,0,0,0,0,0,0,0,-1,762,1121,0,0
-455,-97,0,0,0,0,0,0,0,0,0,-1,769,1121,0,0
-448,-97,0,0,0,0,0,0,0,0,0,-1,776,1121,0,0
-441,-97,0,0,0,0,0,0,0,0,0,-1,783,1121,0,0
-434,-97,0,0,0,0,0,0,0,0,0,-1,790,1121,0,0
-427,-97,0,0,0,0,0,0,0,0,0,-1,797,1121,0,0
-420,-97,0,0,0,0,0,0,0,0,0,-1,804,1121,0,0
-413,-97,0,0,0,0,0,0,0,0,0,-1,811,1121,0,0
-406,-97,0,0,0,0,0,0,0,0,0,-1,818,1121,0,0
-399,-97,0,0,0,0,0,0,0,0,0,-1,825,1121,0,0
-392,-97,0,0,0,0,0,0,0,0,0,-1,832,1121,0,0
-385,-97,0,0,0,0,0,0,0,0,0,-1,839,1121,0,0
-378,-97,0,0,0,0,0,0,0,0,0,-1,846,1121,0,0
-371,-97,0,0,0,0,0,0,0,0,0,-1,853,1121,0,0
-364,-97,0,0,0,0,0,0,0,0,0,-1,860,1121,0,0
-357,-97,0,0,0,0,0,0,0,0,0,-1,867,1121,0,0
-350,-97,0,0,0,0,0,0,0,0,0,-1,874,1121,0,0
-343,-97,0,0,0,0,0,0,0,0,0,-1,881,1121,0,0
-336,-97,0,0,0,0,0,0,0,0,0,-1,888,1121,0,0
-329,-97,0,0,0,0,0,0,0,0,0,-1,895,1121,0,0
-322,-97,0,0,0,0,0,0,0,0,0,-1,902,1121,0,0
-315,-97,0,0,0,0,0,0,0,0,0,-1,909,1121,0,0
-308,-97,0,0,0,0,0,0,0,0,0,-1,916,1121,0,0
-301,-97,0,0,0,0,0,0,0,0,0,-1,923,1121,0,0
-294,-97,0,0,0,0,0,0,0,0,0,-1,930,1121,0,0
-287,-97,0,0,0,0,0,0,0,0,0,-1,937,1121,0,0
-280,-97,0,0,0,0,0,0,0,0,0,-1,944,1121,0,0
-273,-97,0,0,0,0,0,0,0,0,0,-1,951,1121,0,0
-266,-97,0,0,0,0,0,0,0,0,0,-1,958,1121,0,0
-259,-97,0,0,0,0,0,0,0,0,0,-1,965,1121,0,0
-252,-97,0,0,0,0,0,0,0,0,0,-1,972,1121,0,0
-245,-97,0,0,0,0,0,0,0,0,0,-1,979,1121,0,0
-238,-97,0,0,0,0,0,0,0,0,0,-1,986,1121,0,0
-231,-97,0,0,0,0,0,0,0,0,0,-1,993,1121,0,0
-224,-97,0,0,0,0,0,0,0,0,0,-1,1000,1121,0,0
-217,-97,0,0,0,0,0,0,0,0,0,-1,1007,1121,0,0
-210,-97,0,0,0,0,0,0,0,0,0,-1,1014,1121,0,0
-203,-97,0,0,0,0,0,0,0,0,0,-1,1021,1121,0,0
-196,-97,0,0,0,0,0,0,0,0,0,-1,1028,1121,0,0
-189,-97,0,0,0,0,0,0,0,0,0,-1,1035,1121,0,0
-182,-97,0,0,0,0,0,0,0,0,0,-1,1042,1121,0,0
-175,-97,0,0,0,0,0,0,0,0,0,-1,1049,1121,0,0
-168,-97,0,0,0,0,0,0,0,0,0,-1,1056,1121,0,0
-161,-97,0,0,0,0,0,0,0,0,0,-1,1063,1121,0,0
-154,-97,0,0,0,0,0,0,0,0,0,-1,1070,1121,0,0
-147,-97,0,0,0,0,0,0,0,0,0,-1,1077,1121,0,0
-140,-97,0,0,0,0,0,0,0,0,0,-1,1084,1121,0,0
-133,-97,0,0,0,0,0,0,0,0,0,-1,1091,1121,0,0
-126,-97,0,0,0,0,0,0,0,0,0,-1,1098,1121,0,0
-119,-97,0,0,0,0,0,0,0,0,0,-1,1105,1121,0,0
-112,-97,0,0,0,0,0,0,0,0,0,-1,1112,1121,0,0
-105,-97,0,0,0,0,0,0,0,0,0,-1,1119,1121,0,0
-98,-97,0,0,0,0,0,0,0,0,0,-1,1126,1121,0,0
-91,-97,0,0,0,0,0,0,0,0,0,-1,1133,1121,0,0
-84,-97,0,0,0,0,0,0,0,0,0,-1,1140,1121,0,0
-77,-97,0,0,0,0,0,0,0,0,0,-1,1147,1121,0,0
-70,-97,0,0,0,0,0,0,0,0,0,-1,1154,1121,0,0
-63,-97,0,0,0,0,0,0,0,0,0,-1,1161,1121,0,0
-56,-97,0,0,0,0,0,0,0,0,0,-1,1168,1121,0,0
-49,-97,0,0,0,0,0,0,0,0,0,-1,1175,1121,0,0
-42,-97,0,0,0,0,0,0,0,0,0,-1,1182,1121,0,0
-35,-97,0,0,0,0,0,0,0,0,0,-1,1189,1121,0,0
-28,-97,0,0,0,0,0,0,0,0,0,-1,1196,1121,0,0
-21,-97,0,0,0,0,0,0,0,0,0,-1,1203,1121,0,0
-14,-97,0,0,0,0,0,0,0,0,0,-1,1210,1121,0,0
-7,-97,0,0,0,0,0,0,0,0,0,-1,1217,1121,0,0
0,-97,0,0,0,0,0,0,0,0,0,-1,1224,1121,0,0
7,-97,0,0,0,0,0,0,0,0,0,-1,1231,1121,0,0
14,-97,0,0,0,0,0,0,0,0,0,-1,1238,1121,0,0
21,-97,0,0,0,0,0,0,0,0,0,-1,1245,1121,0,0
28,-97,0,0,0,0,0,0,0,0,0,-1,1252,1121,0,0
35,-97,0,0,0,0,0,0,0,0,0,-1,1259,1121,0,0
42,-97,0,0,0,0,0,0,0,0,0,-1,1266,1121,0,0
49,-97,0,0,0,0,0,0,0,0,0,-1,1273,1121,0,0
56,-97,0,0,0,0,0,0,0,0,0,-1,1280,1121,0,0
63,-97,0,0,0,0,0,0,0,0,0,-1,1287,1121,0,0
70,-97,0,0,0,0,0,0,0,0,0,-1,1294,1121,0,0
77,-97,0,0,0,0,0,0,0,0,0,-1,1301,1121,0,0
84,-97,0,0,0,0,0,0,0,0,0,-1,1308,1121,0,0
91,-97,0,0,0,0,0,0,0,0,0,-1,1315,1121,0,0
98,-97,0,0,0,0,0,0,0,0,0,-1,1322,1121,0,0
105,-97,0,0,0,0,0,0,0,0,0,-1,1329,1121,0,0
112,-97,0,0,0,0,0,0,0,0,0,-1,1336,1121,0,0
119,-97,0,0,0,0,0,0,0,0,0,-1,1343,1121,0,0
126,-97,0,0,0,0,0,0,0,0,0,-1,1350,1121,0,0
133,-97,0,0,0,0,0,0,0,0,0,-1,1357,1121,0,0
140,-97,0,0,0,0,0,0,0,0,0,-1,1364,1121,0,0
147,-97,0,0,0,0,0,0,0,0,0,-1,1371,1121,0,0
154,-97,0,0,0,0,0,0,0,0,0,-1,1378,1121,0,0
161,-97,0,0,0,0,0,0,0,0,0,-1,1385,1121,0,0
168,-97,0,0,0,0,0,0,0,0,0,-1,1392,1121,0,0
175,-97,0,0,0,0,0,0,0,0,0,-1,1399,1121,0,0
182,-97,0,0,0,0,0,0,0,0,0,-1,1406,1121,0,0
189,-97,0,0,0,0,0,0,0,0,0,-1,1413,1121,0,0
196,-97,0,0,0,0,0,0,0,0,0,-1,1420,1121,0,0
203,-97,0,0,0,0,0,0,0,0,0,-1,1427,1121,0,0
210,-97,0,0,0,0,0,0,0,0,0,-1,1434,1121,0,0
217,-97,0,0,0,0,0,0,0,0,0,-1,1441,1121,0,0
224,-97,0,0,0,0,0,0,0,0,0,-1,1448,1121,0,0
231,-97,0,0,0,0,0,0,0,0,0,-1,1455,1121,0,0
238,-97,0,0,0,0,0,0,0,0,0,-1,1462,1121,0,0
245,-97,0,0,0,0,0,0,0,0,0,-1,1469,1121,0,0
252,-97,0,0,0,0,0,0,0,0,0,-1,1476,1121,0,0
259,-97,0,0,0,0,0,0,0,0,0,-1,1483,1121,0,0
266,-97,0,0,0,0,0,0,0,0,0,-1,1490,1121,0,0
273,-97,0,0,0,0,0,0,0,0,0,-1,1497,1121,0,0
280,-97,0,0,0,0,0,0,0,0,0,-1,1504,1121,0,0
287,-97,0,0,0,0,0,0,0,0,0,-1,1511,1121,0,0
294,-97,0,0,0,0,0,0,0,0,0,-1,1518,1121,0,0
301,-97,0,0,0,0,0,0,0,0,0,-1,1525,1121,0,0
308,-97,0,0,0,0,0,0,0,0,0,-1,1532,1121,0,0
315,-97,0,0,0,0,0,0,0,0,0,-1,1539,1121,0,0
322,-97,0,0,0,0,0,0,0,0,0,-1,1546,1121,0,0
329,-97,0,0,0,0,0,0,0,0,0,-1,1553,1121,0,0
336,-97,0,0,0,0,0,0,0,0,0,-1,1560,1121,0,0
343,-97,0,0,0,0,0,0,0,0,0,-1,1567,1121,0,0
350,-97,0,0,0,0,0,0,0,0,0,-1,1574,1121,0,0
357,-97,0,0,0,0,0,0,0,0,0,-1,1581,1121,0,0
364,-97,0,0,0,0,0,0,0,0,0,-1,1588,1121,0,0
371,-97,0,0,0,0,0,0,0,0,0,-1,1595,1121,0,0
378,-97,0,0,0,0,0,0,0,0,0,-1,1602,1121,0,0
385,-97,0,0,0,0,0,0,0,0,0,-1,1609,1121,0,0
392,-97,0,0,0,0,0,0,0,0,0,-1,1616,1121,0,0
399,-97,0,0,0,0,0,0,0,0,0,-1,1623,1121,0,0
406,-97,0,0,0,0,0,0,0,0,0,-1,1630,1121,0,0
413,-97,0,0,0,0,0,0,0,0,0,-1,1637,1121,0,0
420,-97,0,0,0,0,0,0,0,0,0,-1,1644,1121,0,0
427,-97,0,0,0,0,0,0,0,0,0,-1,1651,1121,0,0
434,-97,0,0,0,0,0,0,0,0,0,-1,1658,1121,0,0
441,-97,0,0,0,0,0,0,0,0,0,-1,1665,1121,0,0
448,-97,0,0,0,0,0,0,0,0,0,-1,1672,1121,0,0
455,-97,0,0,0,0,0,0,0,0,0,-1,1679,1121,0,0
462,-97,0,0,0,0,0,0,0,0,0,-1,1686,1121,0,0
469,-97,0,0,0,0,0,0,0,0,0,-1,1693,1121,0,0
476,-97,0,0,0,0,0,0,0,0,0,-1,1700,1121,0,0
483,-97,0,0,0,0,0,0,0,0,0,-1,1707,1121,0,0
490,-97,0,0,0,0,0,0,0,0,0,-1,1714,1121,0,0
497,-97,0,0,0,0,0,0,0,0,0,-1,1721,1121,0,0
504,-97,0,0,0,0,0,0,0,0,0,-1,1728,1121,0,0
511,-97,0,0,0,0,0,0,0,0,0,-1,1735,1121,0,0
518,-97,0,0,0,0,0,0,0,0,0,-1,1742,1121,0,0
525,-97,0,0,0,0,0,0,0,0,0,-1,1749,1121,0,0
532,-97,0,0,0,0,0,0,0,0,0,-1,1756,1121,0,0
539,-97,0,0,0,0,0,0,0,0,0,-1,1763,1121,0,0
546,-97,0,0,0,0,0,0,0,0,0,-1,1770,1121,0,0
553,-97,0,0,0,0,0,0,0,0,0,-1,1777,1121,0,0
560,-97,0,0,0,0,0,0,0,0,0,-1,1784,1121,0,0
567,-97,0,0,0,0,0,0,0,0,0,-1,1791,1121,0,0
574,-97,0,0,0,0,0,0,0,0,0,-1,1798,1121,0,0
581,-97,0,0,0,0,0,0,0,0,0,-1,1805,1121,0,0
588,-97,0,0,0,0,0,0,0,0,0,-1,1812,1121,0,0
595,-97,0,0,0,0,0,0,0,0,0,-1,1819,1121,0,0
602,-97,0,0,0,0,0,0,0,0,0,-1,1826,1121,0,0
609,-97,0,0,0,0,0,0,0,0,0,-1,1833,1121,0,0
616,-97,0,0,0,0,0,0,0,0,0,-1,1840,1121,0,0
623,-97,0,0,0,0,0,0,0,0,0,-1,1847,1121,0,0
630,-97,0,0,0,0,0,0,0,0,0,-1,1854,1121,0,0
637,-97,0,0,0,0,0,0,0,0,0,-1,1861,1121,0,0
644,-97,33.5249,2.76172,0.00613922,0.00307634,0.000931193,0.0064001,0.00281545,0.273159,0.00370399,0.0395204,1868,1121,33.5249,-2.76176
651,-97,33.5348,2.87378,0.00483578,0.00250577,0.000878498,0.00512989,0.00221167,0.323051,0.00297109,0.0397739,1875,1121,33.5347,-2.87383
658,-97,33.624,2.86719,0.00385553,0.00194351,0.000803933,0.00414862,0.00165042,0.349602,0.00241182,0.0400886,1882,1121,33.624,-2.86715
665,-97,33.6857,2.7627,0.0029875,0.00131708,0.000835584,0.00333372,0.000970859,0.392811,0.00197986,0.0408995,1889,1121,33.6857,-2.76268
672,-97,33.6418,2.68396,0.00226898,0.000656522,0.000947216,0.00270663,0.000218877,0.432815,0.00173606,0.0417589,1896,1121,33.6418,-2.68401
679,-97,33.5341,2.80713,0.00138501,8.01128e-05,0.00112092,0.00202954,-0.000564417,0.521834,0.00157524,0.0409213,1903,1121,33.5341,-2.80715
686,-97,33.5602,2.87463,0.000578772,-0.000392394,0.00124755,0.00143191,-0.00124553,0.599805,0.00154707,0.0338395,1910,1121,33.5602,-2.87466
693,-97,33.578,2.72095,3.77901e-05,-0.000713311,0.00132494,0.00103937,-0.0017149,0.647297,0.00160604,0.0315237,1917,1121,33.5781,-2.72094
700,-97,33.5691,2.75525,-0.000447014,-0.000897685,0.00134281,0.000689238,-0.00203394,0.702268,0.00163487,0.0281645,1924,1121,33.569,-2.75519
707,-97,33.54,2.78247,-0.000919783,-0.000992052,0.00145502,0.000499548,-0.00241138,0.772983,0.0017974,0.0223633,1931,1121,33.5401,-2.78251
714,-97,33.5576,2.77136,0,0,0,0,0,0,0,-1,1938,1121,33.5576,-2.77137
721,-97,31.7446,5.69067,0,0,0,0,0,0,0,-1,1945,1121,31.7446,-5.69062
728,-97,31.7216,5.60754,-0.00178485,-0.000691934,0.00155534,0.000410156,-0.00288694,0.954333,0.0020749,0.0195047,1952,1121,31.7215,-5.6076
735,-97,31.6741,5.40405,-0.00154432,-0.000334477,0.00130363,0.000497743,-0.00237654,1.00263,0.00177371,0.0207054,1959,1121,31.6741,-5.40407
742,-97,31.6664,5.20007,-0.00074635,0.000131719,0.00133631,0.00109927,-0.0017139,0.944114,0.00163705,0.0162977,1966,1121,31.6664,-5.20011
749,-97,31.7007,5.00171,0.00102329,0.000544912,0.00140803,0.00221231,-0.000644103,0.701264,0.00173001,0.0177762,1973,1121,31.7007,-5.00169
756,-97,31.6813,4.8175,0.00370777,0.000246095,0.00157121,0.00431455,-0.000360693,0.368547,0.00300383,0.0147553,1980,1121,31.6812,-4.81755
763,-97,31.6453,4.64624,0.00761895,-0.000401166,0.0019308,0.00805958,-0.000841786,0.224364,0.0056745,0.0124796,1987,1121,31.6453,-4.64626
770,-97,31.655,4.49487,0.0126832,-0.0014082,0.00241715,0.0130863,-0.00181129,0.165243,0.00938639,0.0109555,1994,1121,31.6551,-4.49493
777,-97,31.6603,4.33411,0.0187042,-0.00324135,0.00325454,0.0191767,-0.00371383,0.144168,0.0141854,0.0153971,2001,1121,31.6602,-4.33415
784,-97,31.6448,4.15698,0.0256869,-0.00608439,0.00451024,0.0263148,-0.00671225,0.13832,0.0201567,0.035982,2008,1121,31.6447,-4.15692
791,-97,31.6675,3.98865,0.0336746,-0.0103212,0.00632852,0.0345668,-0.0112134,0.140061,0.0275537,0.0456343,2015,1121,31.6675,-3.98866
798,-97,31.7034,3.79028,0.0427602,-0.0163211,0.00885934,0.0440601,-0.017621,0.145684,0.0366859,0.0479929,2022,1121,31.7034,-3.79026
805,-97,31.7454,3.61121,0.0525268,-0.0245111,0.0123657,0.054463,-0.0264473,0.155318,0.0476379,0.0462741,2029,1121,31.7454,-3.61117
812,-97,31.9902,3.57104,0.0621891,-0.0354018,0.0172053,0.0651336,-0.0383463,0.169494,0.0604077,0.0497096,2036,1121,31.9902,-3.5711
-700,-104,0,0,0,0,0,0,0,0,0,-1,524,1128,0,0
-693,-104,-20.3552,-0.0714111,0,0,0,0,0,0,0,-1,531,1128,-20.3552,0.0714573
-686,-104,-22.9523,-2.69873,0,0,0,0,0,0,0,-1,538,1128,-22.9524,2.69877
-679,-104,-22.6733,-1.55334,0.00628697,0.0405028,-0.00401898,0.0409686,0.00582124,-1.45543,0.0255936,0.0454003,545,1128,-22.6733,1.55333
-672,-104,-22.5589,-0.583008,0.00537359,0.0351724,-0.00305185,0.0354818,0.00506424,-1.46978,0.0221602,0.0474052,552,1128,-22.5589,0.583042
-665,-104,-23.2625,0.0574951,0.00456077,0.0297176,-0.00244592,0.0299532,0.00432517,-1.47477,0.0186946,0.0457653,559,1128,-23.2625,-0.057552
-658,-104,-21.9354,0.969238,0,0,0,0,0,0,0,-1,566,1128,-21.9354,-0.969217
-651,-104,-21.8755,1.21899,0.00313734,0.0193492,-0.0018549,0.0195588,0.00292782,-1.45832,0.0121811,0.0365174,573,1128,-21.8755,-1.21901
-644,-104,-21.8166,1.46094,0.00257868,0.0147411,-0.00165614,0.0149626,0.0023572,-1.43785,0.00928957,0.0148762,580,1128,-21.8166,-1.46095
-637,-104,-21.7762,1.71338,0.00212063,0.0111077,-0.0012986,0.0112916,0.00193675,-1.43013,0.00697239,0.0109071,587,1128,-21.7762,-1.71334
-630,-104,-21.7983,1.90161,0.00118475,0.00571814,-0.00232775,0.00670049,0.000202396,-1.17145,0.00440108,0.0131662,594,1128,-21.7983,-1.90163
-623,-104,-21.8287,2.1543,0.000499774,0.00380559,-0.00244533,0.00510425,-0.00079888,-1.0826,0.003698,0.0152059,601,1128,-21.8286,-2.15427
-616,-104,-21.9427,2.43774,0.000457143,0.00188749,-0.0024798,0.00375319,-0.00140855,-0.925788,0.00308091,0.0171288,608,1128,-21.9427,-2.43776
-609,-104,-22.0333,2.57849,0.000385823,0.000748001,-0.00270551,0.00327848,-0.00214465,-0.818815,0.00315377,0.0214192,615,1128,-22.0333,-2.57844
-602,-104,-21.8962,2.84009,0.000184976,-0.000233164,-0.0025393,0.00252379,-0.00257198,-0.744324,0.00294209,0.018018,622,1128,-21.8962,-2.84005
-595,-104,-21.7891,3.1427,-0.000147942,-0.000496333,-0.00234894,0.00203326,-0.00267753,-0.748386,0.00272824,0.0166467,629,1128,-21.7891,-3.14264
-588,-104,-21.8765,3.21729,-0.000241447,-0.00066656,-0.00220039,0.00175663,-0.00266464,-0.737248,0.0025705,0.0465673,636,1128,-21.8765,-3.21734
-581,-104,-22.3499,2.90039,0,0,0,0,0,0,0,-1,643,1128,-22.3499,-2.90044
-574,-104,-23.7877,0.862549,0,0,0,0,0,0,0,-1,650,1128,-23.7876,-0.862607
-567,-104,-23.8166,1.08521,0.00108914,-0.000735374,-0.00219902,0.00255762,-0.00220385,-0.588778,0.00275157,0.0359847,657,1128,-23.8166,-1.08523
-560,-104,-23.8506,1.33105,0.00159614,-0.000617775,-0.00212434,0.00288463,-0.00190627,-0.545213,0.00278518,0.0413951,664,1128,-23.8506,-1.33101
-553,-104,-23.8747,1.33582,0.00221399,-0.000423451,-0.00220328,0.00346304,-0.0016725,-0.51573,0.00302448,0.0483975,671,1128,-23.8747,-1.33581
-546,-104,-23.7468,1.1731,0.00319607,-0.000175514,-0.00261776,0.00462389,-0.00160333,-0.499331,0.00373361,0.0471921,678,1128,-23.7468,-1.17304
-539,-104,-23.8505,1.07092,0.00505971,5.13797e-05,-0.0035107,0.00686784,-0.00175675,-0.475601,0.0052628,0.0373786,685,1128,-23.8505,-1.07097
-532,-104,-23.8368,1.04602,0.00790273,3.241e-05,-0.00591008,0.0110679,-0.00313275,-0.491684,0.00861485,0.0381313,692,1128,-23.8368,-1.04603
-525,-104,-23.7652,0.879272,0.010078,0.000998219,-0.00961898,0.0161746,-0.0050984,-0.564911,0.0128249,0.0382434,699,1128,-23.7652,-0.879299
-518,-104,0,0,0,0,0,0,0,0,0,-1,706,1128,0,0
-511,-104,0,0,0,0,0,0,0,0,0,-1,713,1128,0,0
-504,-104,0,0,0,0,0,0,0,0,0,-1,720,1128,0,0
-497,-104,0,0,0,0,0,0,0,0,0,-1,727,1128,0,0
-490,-104,0,0,0,0,0,0,0,0,0,-1,734,1128,0,0
-483,-104,0,0,0,0,0,0,0,0,0,-1,741,1128,0,0
-476,-104,0,0,0,0,0,0,0,0,0,-1,748,1128,0,0
-469,-104,0,0,0,0,0,0,0,0,0,-1,755,1128,0,0
-462,-104,0,0,0,0,0,0,0,0,0,-1,762,1128,0,0
-455,-104,0,0,0,0,0,0,0,0,0,-1,769,1128,0,0
-448,-104,0,0,0,0,0,0,0,0,0,-1,776,1128,0,0
-441,-104,0,0,0,0,0,0,0,0,0,-1,783,1128,0,0
-434,-104,0,0,0,0,0,0,0,0,0,-1,790,1128,0,0
-427,-104,0,0,0,0,0,0,0,0,0,-1,797,1128,0,0
-420,-104,0,0,0,0,0,0,0,0,0,-1,804,1128,0,0
-413,-104,0,0,0,0,0,0,0,0,0,-1,811,1128,0,0
-406,-104,0,0,0,0,0,0,0,0,0,-1,818,1128,0,0
-399,-104,0,0,0,0,0,0,0,0,0,-1,825,1128,0,0
-392,-104,0,0,0,0,0,0,0,0,0,-1,832,1128,0,0
-385,-104,0,0,0,0,0,0,0,0,0,-1,839,1128,0,0
-378,-104,0,0,0,0,0,0,0,0,0,-1,846,1128,0,0
-371,-104,0,0,0,0,0,0,0,0,0,-1,853,1128,0,0
-364,-104,0,0,0,0,0,0,0,0,0,-1,860,1128,0,0
-357,-104,0,0,0,0,0,0,0,0,0,-1,867,1128,0,0
-350,-104,0,0,0,0,0,0,0,0,0,-1,874,1128,0,0
-343,-104,0,0,0,0,0,0,0,0,0,-1,881,1128,0,0
-336,-104,0,0,0,0,0,0,0,0,0,-1,888,1128,0,0
-329,-104,0,0,0,0,0,0,0,0,0,-1,895,1128,0,0
-322,-104,0,0,0,0,0,0,0,0,0,-1,902,1128,0,0
-315,-104,0,0,0,0,0,0,0,0,0,-1,909,1128,0,0
-308,-104,0,0,0,0,0,0,0,0,0,-1,916,1128,0,0
-301,-104,0,0,0,0,0,0,0,0,0,-1,923,1128,0,0
-294,-104,0,0,0,0,0,0,0,0,0,-1,930,1128,0,0
-287,-104,0,0,0,0,0,0,0,0,0,-1,937,1128,0,0
-280,-104,0,0,0,0,0,0,0,0,0,-1,944,1128,0,0
-273,-104,0,0,0,0,0,0,0,0,0,-1,951,1128,0,0
-266,-104,0,0,0,0,0,0,0,0,0,-1,958,1128,0,0
-259,-104,0,0,0,0,0,0,0,0,0,-1,965,1128,0,0
-252,-104,0,0,0,0,0,0,0,0,0,-1,972,1128,0,0
-245,-104,0,0,0,0,0,0,0,0,0,-1,979,1128,0,0
-238,-104,0,0,0,0,0,0,0,0,0,-1,986,1128,0,0
-231,-104,0,0,0,0,0,0,0,0,0,-1,993,1128,0,0
-224,-104,0,0,0,0,0,0,0,0,0,-1,1000,1128,0,0
-217,-104,0,0,0,0,0,0,0,0,0,-1,1007,1128,0,0
-210,-104,0,0,0,0,0,0,0,0,0,-1,1014,1128,0,0
-203,-104,0,0,0,0,0,0,0,0,0,-1,1021,1128,0,0
-196,-104,0,0,0,0,0,0,0,0,0,-1,1028,1128,0,0
-189,-104,0,0,0,0,0,0,0,0,0,-1,1035,1128,0,0
-182,-104,0,0,0,0,0,0,0,0,0,-1,1042,1128,0,0
-175,-104,0,0,0,0,0,0,0,0,0,-1,1049,1128,0,0
-168,-104,0,0,0,0,0,0,0,0,0,-1,1056,1128,0,0
-161,-104,0,0,0,0,0,0,0,0,0,-1,1063,1128,0,0
-154,-104,0,0,0,0,0,0,0,0,0,-1,1070,1128,0,0
-147,-104,0,0,0,0,0,0,0,0,0,-1,1077,1128,0,0
-140,-104,0,0,0,0,0,0,0,0,0,-1,1084,1128,0,0
-133,-104,0,0,0,0,0,0,0,0,0,-1,1091,1128,0,0
-126,-104,0,0,0,0,0,0,0,0,0,-1,1098,1128,0,0
-119,-104,0,0,0,0,0,0,0,0,0,-1,1105,1128,0,0
-112,-104,0,0,0,0,0,0,0,0,0,-1,1112,1128,0,0
-105,-104,0,0,0,0,0,0,0,0,0,-1,1119,1128,0,0
-98,-104,0,0,0,0,0,0,0,0,0,-1,1126,1128,0,0
-91,-104,0,0,0,0,0,0,0,0,0,-1,1133,1128,0,0
-84,-104,0,0,0,0,0,0,0,0,0,-1,1140,1128,0,0
-77,-104,0,0,0,0,0,0,0,0,0,-1,1147,1128,0,0
-70,-104,0,0,0,0,0,0,0,0,0,-1,1154,1128,0,0
-63,-104,0,0,0,0,0,0,0,0,0,-1,1161,1128,0,0
-56,-104,0,0,0,0,0,0,0,0,0,-1,1168,1128,0,0
-49,-104,0,0,0,0,0,0,0,0,0,-1,1175,1128,0,0
-42,-104,0,0,0,0,0,0,0,0,0,-1,1182,1128,0,0
-35,-104,0,0,0,0,0,0,0,0,0,-1,1189,1128,0,0
-28,-104,0,0,0,0,0,0,0,0,0,-1,1196,1128,0,0
-21,-104,0,0,0,0,0,0,0,0,0,-1,1203,1128,0,0
-14,-104,0,0,0,0,0,0,0,0,0,-1,1210,1128,0,0
-7,-104,0,0,0,0,0,0,0,0,0,-1,1217,1128,0,0
0,-104,0,0,0,0,0,0,0,0,0,-1,1224,1128,0,0
7,-104,0,0,0,0,0,0,0,0,0,-1,1231,1128,0,0
14,-104,0,0,0,0,0,0,0,0,0,-1,1238,1128,0,0
21,-104,0,0,0,0,0,0,0,0,0,-1,1245,1128,0,0
28,-104,0,0,0,0,0,0,0,0,0,-1,1252,1128,0,0
35,-104,0,0,0,0,0,0,0,0,0,-1,1259,1128,0,0
42,-104,0,0,0,0,0,0,0,0,0,-1,1266,1128,0,0
49,-104,0,0,0,0,0,0,0,0,0,-1,1273,1128,0,0
56,-104,0,0,0,0,0,0,0,0,0,-1,1280,1128,0,0
63,-104,0,0,0,0,0,0,0,0,0,-1,1287,1128,0,0
70,-104,0,0,0,0,0,0,0,0,0,-1,1294,1128,0,0
77,-104,0,0,0,0,0,0,0,0,0,-1,1301,1128,0,0
84,-104,0,0,0,0,0,0,0,0,0,-1,1308,1128,0,0
91,-104,0,0,0,0,0,0,0,0,0,-1,1315,1128,0,0
98,-104,0,0,0,0,0,0,0,0,0,-1,1322,1128,0,0
105,-104,0,0,0,0,0,0,0,0,0,-1,1329,1128,0,0
112,-104,0,0,0,0,0,0,0,0,0,-1,1336,1128,0,0
119,-104,0,0,0,0,0,0,0,0,0,-1,1343,1128,0,0
126,-104,0,0,0,0,0,0,0,0,0,-1,1350,1128,0,0
133,-104,0,0,0,0,0,0,0,0,0,-1,1357,1128,0,0
140,-104,0,0,0,0,0,0,0,0,0,-1,1364,1128,0,0
147,-104,0,0,0,0,0,0,0,0,0,-1,1371,1128,0,0
154,-104,0,0,0,0,0,0,0,0,0,-1,1378,1128,0,0
161,-104,0,0,0,0,0,0,0,0,0,-1,1385,1128,0,0
168,-104,0,0,0,0,0,0,0,0,0,-1,1392,1128,0,0
175,-104,0,0,0,0,0,0,0,0,0,-1,1399,1128,0,0
182,-104,0,0,0,0,0,0,0,0,0,-1,1406,1128,0,0
189,-104,0,0,0,0,0,0,0,0,0,-1,1413,1128,0,0
196,-104,0,0,0,0,0,0,0,0,0,-1,1420,1128,0,0
203,-104,0,0,0,0,0,0,0,0,0,-1,1427,1128,0,0
210,-104,0,0,0,0,0,0,0,0,0,-1,1434,1128,0,0
217,-104,0,0,0,0,0,0,0,0,0,-1,1441,1128,0,0
224,-104,0,0,0,0,0,0,0,0,0,-1,1448,1128,0,0
231,-104,0,0,0,0,0,0,0,0,0,-1,1455,1128,0,0
238,-104,0,0,0,0,0,0,0,0,0,-1,1462,1128,0,0
245,-104,0,0,0,0,0,0,0,0,0,-1,1469,1128,0,0
252,-104,0,0,0,0,0,0,0,0,0,-1,1476,1128,0,0
259,-104,0,0,0,0,0,0,0,0,0,-1,1483,1128,0,0
266,-104,0,0,0,0,0,0,0,0,0,-1,1490,1128,0,0
273,-104,0,0,0,0,0,0,0,0,0,-1,1497,1128,0,0
280,-104,0,0,0,0,0,0,0,0,0,-1,1504,1128,0,0
287,-104,0,0,0,0,0,0,0,0,0,-1,1511,1128,0,0
294,-104,0,0,0,0,0,0,0,0,0,-1,1518,1128,0,0
301,-104,0,0,0,0,0,0,0,0,0,-1,1525,1128,0,0
308,-104,0,0,0,0,0,0,0,0,0,-1,1532,1128,0,0
315,-104,0,0,0,0,0,0,0,0,0,-1,1539,1128,0,0
322,-104,0,0,0,0,0,0,0,0,0,-1,1546,1128,0,0
329,-104,0,0,0,0,0,0,0,0,0,-1,1553,1128,0,0
336,-104,0,0,0,0,0,0,0,0,0,-1,1560,1128,0,0
343,-104,0,0,0,0,0,0,0,0,0,-1,1567,1128,0,0
350,-104,0,0,0,0,0,0,0,0,0,-1,1574,1128,0,0
357,-104,0,0,0,0,0,0,0,0,0,-1,1581,1128,0,0
364,-104,0,0,0,0,0,0,0,0,0,-1,1588,1128,0,0
371,-104,0,0,0,0,0,0,0,0,0,-1,1595,1128,0,0
378,-104,0,0,0,0,0,0,0,0,0,-1,1602,1128,0,0
385,-104,0,0,0,0,0,0,0,0,0,-1,1609,1128,0,0
392,-104,0,0,0,0,0,0,0,0,0,-1,1616,1128,0,0
399,-104,0,0,0,0,0,0,0,0,0,-1,1623,1128,0,0
406,-104,0,0,0,0,0,0,0,0,0,-1,1630,1128,0,0
413,-104,0,0,0,0,0,0,0,0,0,-1,1637,1128,0,0
420,-104,0,0,0,0,0,0,0,0,0,-1,1644,1128,0,0
427,-104,0,0,0,0,0,0,0,0,0,-1,1651,1128,0,0
434,-104,0,0,0,0,0,0,0,0,0,-1,1658,1128,0,0
441,-104,0,0,0,0,0,0,0,0,0,-1,1665,1128,0,0
448,-104,0,0,0,0,0,0,0,0,0,-1,1672,1128,0,0
455,-104,0,0,0,0,0,0,0,0,0,-1,1679,1128,0,0
462,-104,0,0,0,0,0,0,0,0,0,-1,1686,1128,0,0
469,-104,0,0,0,0,0,0,0,0,0,-1,1693,1128,0,0
476,-104,0,0,0,0,0,0,0,0,0,-1,1700,1128,0,0
483,-104,0,0,0,0,0,0,0,0,0,-1,1707,1128,0,0
490,-104,0,0,0,0,0,0,0,0,0,-1,1714,1128,0,0
497,-104,0,0,0,0,0,0,0,0,0,-1,1721,1128,0,0
504,-104,0,0,0,0,0,0,0,0,0,-1,1728,1128,0,0
511,-104,0,0,0,0,0,0,0,0,0,-1,1735,1128,0,0
518,-104,0,0,0,0,0,0,0,0,0,-1,1742,1128,0,0
525,-104,0,0,0,0,0,0,0,0,0,-1,1749,1128,0,0
532,-104,0,0,0,0,0,0,0,0,0,-1,1756,1128,0,0
539,-104,0,0,0,0,0,0,0,0,0,-1,1763,1128,0,0
546,-104,0,0,0,0,0,0,0,0,0,-1,1770,1128,0,0
553,-104,0,0,0,0,0,0,0,0,0,-1,1777,1128,0,0
560,-104,0,0,0,0,0,0,0,0,0,-1,1784,1128,0,0
567,-104,0,0,0,0,0,0,0,0,0,-1,1791,1128,0,0
574,-104,0,0,0,0,0,0,0,0,0,-1,1798,1128,0,0
581,-104,0,0,0,0,0,0,0,0,0,-1,1805,1128,0,0
588,-104,0,0,0,0,0,0,0,0,0,-1,1812,1128,0,0
595,-104,0,0,0,0,0,0,0,0,0,-1,1819,1128,0,0
602,-104,0,0,0,0,0,0,0,0,0,-1,1826,1128,0,0
609,-104,0,0,0,0,0,0,0,0,0,-1,1833,1128,0,0
616,-104,0,0,0,0,0,0,0,0,0,-1,1840,1128,0,0
623,-104,0,0,0,0,0,0,0,0,0,-1,1847,1128,0,0
630,-104,0,0,0,0,0,0,0,0,0,-1,1854,1128,0,0
637,-104,0,0,0,0,0,0,0,0,0,-1,1861,1128,0,0
644,-104,33.4097,2.95178,0.00523988,0.0011199,0.000500189,0.00529974,0.00106004,0.119101,0.00323817,0.038691,1868,1128,33.4096,-2.95174
651,-104,33.5321,2.90222,0.00423184,0.00101678,0.000502745,0.00430862,0.000939999,0.151554,0.002616,0.0380999,1875,1128,33.5322,-2.90219
658,-104,33.7203,2.77649,0.00346898,0.000767637,0.000494301,0.00355659,0.000680029,0.175414,0.00218003,0.042293,1882,1128,33.7204,-2.77647
665,-104,33.7395,2.62561,0.00277048,0.000391075,0.000578243,0.00290356,0.000257994,0.226209,0.0018557,0.0441214,1889,1128,33.7395,-2.62561
672,-104,33.6827,2.56543,0.00219024,-3.01714e-05,0.0007106,0.00239818,-0.000238112,0.284678,0.00168378,0.0443786,1896,1128,33.6828,-2.56543
679,-104,33.5299,2.82568,0.00140516,-0.000395514,0.0008665,0.00175439,-0.000744749,0.383125,0.00148161,0.0414446,1903,1128,33.5299,-2.82566
686,-104,33.4648,3.01611,0.000660409,-0.000692986,0.000975975,0.00117133,-0.00120391,0.482272,0.00137139,0.0366187,1910,1128,33.4649,-3.01608
693,-104,33.5149,2.78333,0.000161896,-0.000847028,0.00103198,0.000806116,-0.00149125,0.558063,0.0013459,0.0326456,1917,1128,33.5149,-2.78331
700,-104,33.5457,2.76355,-0.000291883,-0.000922737,0.00104614,0.000485349,-0.00169997,0.638975,0.00132506,0.0276782,1924,1128,33.5456,-2.76351
707,-104,33.5546,2.8125,-0.000752936,-0.000944291,0.0011718,0.000327085,-0.00202431,0.744663,0.00147074,0.0356545,1931,1128,33.5546,-2.81244
714,-104,32.4445,4.27258,0,0,0,0,0,0,0,-1,1938,1128,32.4445,-4.27264
721,-104,31.6766,5.74487,-0.00153779,-0.000776385,0.00146945,0.000360875,-0.00267505,0.912151,0.00191503,0.0416304,1945,1128,31.6767,-5.74488
728,-104,31.5826,5.56799,-0.00165095,-0.000518392,0.00133691,0.000367225,-0.00253657,0.985729,0.0018258,0.0220224,1952,1128,31.5827,-5.56799
735,-104,31.5719,5.32886,-0.00145721,-0.000179345,0.00113918,0.000487849,-0.00212441,1.04097,0.00160381,0.023154,1959,1128,31.5719,-5.3288
742,-104,31.504,5.19019,-0.000817495,0.000198012,0.00126835,0.00105646,-0.00167595,0.975792,0.00159102,0.0152992,1966,1128,31.504,-5.1902
749,-104,31.4633,5.04089,0.000603202,0.000530654,0.00146317,0.00203055,-0.000896691,0.773005,0.00173179,0.0170566,1973,1128,31.4632,-5.04094
756,-104,31.4392,4.85022,0.00293903,0.000126416,0.00177711,0.00379896,-0.000733515,0.450678,0.00280925,0.0169149,1980,1128,31.4392,-4.8502
763,-104,31.4296,4.65564,0.00643207,-0.000701524,0.0023114,0.00711552,-0.00138497,0.287495,0.00526639,0.015439,1987,1128,31.4296,-4.65558
770,-104,31.4427,4.47607,0.0107759,-0.00189988,0.00300395,0.0114517,-0.00257573,0.221302,0.00862229,0.0130537,1994,1128,31.4428,-4.4761
777,-104,31.4175,4.26575,0.0158696,-0.00385896,0.0040156,0.0166556,-0.00464499,0.1933,0.0129332,0.0208086,2001,1128,31.4175,-4.26569
784,-104,31.3741,4.13708,0.0218421,-0.00682611,0.00545768,0.0228459,-0.00782996,0.1819,0.0184044,0.0392378,2008,1128,31.3741,-4.13703
791,-104,31.3683,4.04395,0,0,0,0,0,0,0,-1,2015,1128,31.3682,-4.04391
798,-104,31.5288,3.651,0,0,0,0,0,0,0,-1,2022,1128,31.5289,-3.65104
805,-104,31.4421,3.55945,0.0448519,-0.0250046,0.013717,0.0474488,-0.0276015,0.187107,0.0438325,0.045343,2029,1128,31.4422,-3.55948
812,-104,31.7219,3.59558,0.0530532,-0.0352795,0.0185033,0.0567725,-0.0389988,0.198366,0.0556101,0.0454145,2036,1128,31.7219,-3.59552
-700,-111,0,0,0,0,0,0,0,0,0,-1,524,1135,0,0
-693,-111,-22.6289,-3.53455,0,0,0,0,0,0,0,-1,531,1135,-22.6289,3.53454
-686,-111,-22.2963,-2.37097,0.0138485,0.0327112,-0.00547895,0.0341872,0.0123725,-1.30766,0.0199873,0.0498376,538,1135,-22.2963,2.37102
-679,-111,-21.9839,-1.16956,0.0117964,0.0300301,-0.0046448,0.0311451,0.0106814,-1.3352,0.0182749,0.0454669,545,1135,-21.9839,1.1696
-672,-111,-22.0353,-0.579956,0.0100034,0.0267066,-0.00410504,0.0276609,0.00904902,-1.34237,0.0162851,0.0458355,552,1135,-22.0354,0.579956
-665,-111,-21.1849,2.68628,0,0,0,0,0,0,0,-1,559,1135,-21.1848,-2.68628
-658,-111,-21.4593,2.24951,0.00686921,0.0193943,-0.00342253,0.0202685,0.00599501,-1.32072,0.012023,0.0441861,566,1135,-21.4593,-2.24956
-651,-111,-21.5474,1.60486,0.00551845,0.0157257,-0.00313603,0.0166123,0.00463194,-1.2953,0.00989893,0.0347222,573,1135,-21.5474,-1.6049
-644,-111,-21.5355,1.49268,0.00438032,0.0122897,-0.00279129,0.0131756,0.00349447,-1.26349,0.0078815,0.0231185,580,1135,-21.5355,-1.49269
-637,-111,-21.5585,1.70618,0.00342204,0.00957955,-0.00224581,0.0103116,0.00268996,-1.25569,0.00617621,0.00976803,587,1135,-21.5585,-1.70621
-630,-111,-21.5629,1.8844,0.00219314,0.00509435,-0.00288577,0.00687359,0.000413901,-1.01829,0.00445085,0.016745,594,1135,-21.5629,-1.88446
-623,-111,-21.5766,2.12305,0.00135077,0.00358904,-0.0026165,0.0053157,-0.000375892,-0.987485,0.00367551,0.0143931,601,1135,-21.5766,-2.12309
-616,-111,-21.6838,2.38806,0.00128133,0.00192331,-0.00238736,0.00401116,-0.00080652,-0.852225,0.00297955,0.0144384,608,1135,-21.6838,-2.38804
-609,-111,-21.8152,2.604,0.00125833,0.000900198,-0.00231053,0.00339672,-0.00123819,-0.746725,0.00277101,0.0212059,615,1135,-21.8152,-2.60398
-602,-111,-21.7272,2.84473,0.00108797,9.00296e-05,-0.00192712,0.00257967,-0.00140167,-0.65872,0.00233192,0.0223526,622,1135,-21.7272,-2.84478
-595,-111,-21.6102,3.1394,0.000764723,-4.33651e-05,-0.00159146,0.00200263,-0.00128127,-0.661083,0.00191115,0.0142517,629,1135,-21.6102,-3.13944
-588,-111,-21.5623,3.32178,0,0,0,0,0,0,0,-1,636,1135,-21.5623,-3.32172
-581,-111,-21.0555,3.14551,0,0,0,0,0,0,0,-1,643,1135,-21.0555,-3.14548
-574,-111,-23.8508,1.078,0,0,0,0,0,0,0,-1,650,1135,-23.8508,-1.07803
-567,-111,-23.7982,1.17786,0.00205772,0.000309973,-0.00173527,0.00312674,-0.000759043,-0.552138,0.00237823,0.0368088,657,1135,-23.7982,-1.17789
-560,-111,-23.7169,1.16724,0.00249466,0.000580437,-0.0018268,0.00359989,-0.000524793,-0.544095,0.00259262,0.0380367,664,1135,-23.7169,-1.16726
-553,-111,-23.7276,1.1322,0.00299812,0.000940091,-0.00212923,0.00433395,-0.000395742,-0.560307,0.00302984,0.0458502,671,1135,-23.7276,-1.13215
-546,-111,-23.7236,1.13379,0.0038212,0.0013431,-0.00284644,0.00568658,-0.000522275,-0.580118,0.00397659,0.0422969,678,1135,-23.7236,-1.13378
-539,-111,-23.7838,1.14075,0.00552028,0.00177122,-0.00408907,0.00814402,-0.000852515,-0.570479,0.00573468,0.0375717,685,1135,-23.7838,-1.14078
-532,-111,-23.9002,1.1001,0.00855442,0.00197017,-0.00662194,0.0126574,-0.00213286,-0.554714,0.00923174,0.0383964,692,1135,-23.9002,-1.10005
-525,-111,-23.7908,0.750977,0.0111029,0.00292514,-0.0101673,0.0179728,-0.00394468,-0.594214,0.0134904,0.0392246,699,1135,-23.7909,-0.751015
-518,-111,0,0,0,0,0,0,0,0,0,-1,706,1135,0,0
-511,-111,0,0,0,0,0,0,0,0,0,-1,713,1135,0,0
-504,-111,0,0,0,0,0,0,0,0,0,-1,720,1135,0,0
-497,-111,0,0,0,0,0,0,0,0,0,-1,727,1135,0,0
-490,-111,0,0,0,0,0,0,0,0,0,-1,734,1135,0,0
-483,-111,0,0,0,0,0,0,0,0,0,-1,741,1135,0,0
-476,-111,0,0,0,0,0,0,0,0,0,-1,748,1135,0,0
-469,-111,0,0,0,0,0,0,0,0,0,-1,755,1135,0,0
-462,-111,0,0,0,0,0,0,0,0,0,-1,762,1135,0,0
-455,-111,0,0,0,0,0,0,0,0,0,-1,769,1135,0,0
-448,-111,0,0,0,0,0,0,0,0,0,-1,776,1135,0,0
-441,-111,0,0,0,0,0,0,0,0,0,-1,783,1135,0,0
-434,-111,0,0,0,0,0,0,0,0,0,-1,790,1135,0,0
-427,-111,0,0,0,0,0,0,0,0,0,-1,797,1135,0,0
-420,-111,0,0,0,0,0,0,0,0,0,-1,804,1135,0,0
-413,-111,0,0,0,0,0,0,0,0,0,-1,811,1135,0,0
-406,-111,0,0,0,0,0,0,0,0,0,-1,818,1135,0,0
-399,-111,0,0,0,0,0,0,0,0,0,-1,825,1135,0,0
-392,-111,0,0,0,0,0,0,0,0,0,-1,832,1135,0,0
-385,-111,0,0,0,0,0,0,0,0,0,-1,839,1135,0,0
-378,-111,0,0,0,0,0,0,0,0,0,-1,846,1135,0,0
-371,-111,0,0,0,0,0,0,0,0,0,-1,853,1135,0,0
-364,-111,0,0,0,0,0,0,0,0,0,-1,860,1135,0,0
-357,-111,0,0,0,0,0,0,0,0,0,-1,867,1135,0,0
-350,-111,0,0,0,0,0,0,0,0,0,-1,874,1135,0,0
-343,-111,0,0,0,0,0,0,0,0,0,-1,881,1135,0,0
-336,-111,0,0,0,0,0,0,0,0,0,-1,888,1135,0,0
-329,-111,0,0,0,0,0,0,0,0,0,-1,895,1135,0,0
-322,-111,0,0,0,0,0,0,0,0,0,-1,902,1135,0,0
-315,-111,0,0,0,0,0,0,0,0,0,-1,909,1135,0,0
-308,-111,0,0,0,0,0,0,0,0,0,-1,916,1135,0,0
-301,-111,0,0,0,0,0,0,0,0,0,-1,923,1135,0,0
-294,-111,0,0,0,0,0,0,0,0,0,-1,930,1135,0,0
-287,-111,0,0,0,0,0,0,0,0,0,-1,937,1135,0,0
-280,-111,0,0,0,0,0,0,0,0,0,-1,944,1135,0,0
-273,-111,0,0,0,0,0,0,0,0,0,-1,951,1135,0,0
-266,-111,0,0,0,0,0,0,0,0,0,-1,958,1135,0,0
-259,-111,0,0,0,0,0,0,0,0,0,-1,965,1135,0,0
-252,-111,0,0,0,0,0,0,0,0,0,-1,972,1135,0,0
-245,-111,0,0,0,0,0,0,0,0,0,-1,979,1135,0,0
-238,-111,0,0,0,0,0,0,0,0,0,-1,986,1135,0,0
-231,-111,0,0,0,0,0,0,0,0,0,-1,993,1135,0,0
-224,-111,0,0,0,0,0,0,0,0,0,-1,1000,1135,0,0
-217,-111,0,0,0,0,0,0,0,0,0,-1,1007,1135,0,0
-210,-111,0,0,0,0,0,0,0,0,0,-1,1014,1135,0,0
-203,-111,0,0,0,0,0,0,0,0,0,-1,1021,1135,0,0
-196,-111,0,0,0,0,0,0,0,0,0,-1,1028,1135,0,0
-189,-111,0,0,0,0,0,0,0,0,0,-1,1035,1135,0,0
-182,-111,0,0,0,0,0,0,0,0,0,-1,1042,1135,0,0
-175,-111,0,0,0,0,0,0,0,0,0,-1,1049,1135,0,0
-168,-111,0,0,0,0,0,0,0,0,0,-1,1056,1135,0,0
-161,-111,0,0,0,0,0,0,0,0,0,-1,1063,1135,0,0
-154,-111,0,0,0,0,0,0,0,0,0,-1,1070,1135,0,0
-147,-111,0,0,0,0,0,0,0,0,0,-1,1077,1135,0,0
-140,-111,0,0,0,0,0,0,0,0,0,-1,1084,1135,0,0
-133,-111,0,0,0,0,0,0,0,0,0,-1,1091,1135,0,0
-126,-111,0,0,0,0,0,0,0,0,0,-1,1098,1135,0,0
-119,-111,0,0,0,0,0,0,0,0,0,-1,1105,1135,0,0
-112,-111,0,0,0,0,0,0,0,0,0,-1,1112,1135,0,0
-105,-111,0,0,0,0,0,0,0,0,0,-1,1119,1135,0,0
-98,-111,0,0,0,0,0,0,0,0,0,-1,1126,1135,0,0
-91,-111,0,0,0,0,0,0,0,0,0,-1,1133,1135,0,0
-84,-111,0,0,0,0,0,0,0,0,0,-1,1140,1135,0,0
-77,-111,0,0,0,0,0,0,0,0,0,-1,1147,1135,0,0
-70,-111,0,0,0,0,0,0,0,0,0,-1,1154,1135,0,0
-63,-111,0,0,0,0,0,0,0,0,0,-1,1161,1135,0,0
-56,-111,0,0,0,0,0,0,0,0,0,-1,1168,1135,0,0
-49,-111,0,0,0,0,0,0,0,0,0,-1,1175,1135,0,0
-42,-111,0,0,0,0,0,0,0,0,0,-1,1182,1135,0,0
-35,-111,0,0,0,0,0,0,0,0,0,-1,1189,1135,0,0
-28,-111,0,0,0,0,0,0,0,0,0,-1,1196,1135,0,0
-21,-111,0,0,0,0,0,0,0,0,0,-1,1203,1135,0,0
-14,-111,0,0,0,0,0,0,0,0,0,-1,1210,1135,0,0
-7,-111,0,0,0,0,0,0,0,0,0,-1,1217,1135,0,0
0,-111,0,0,0,0,0,0,0,0,0,-1,1224,1135,0,0
7,-111,0,0,0,0,0,0,0,0,0,-1,1231,1135,0,0
14,-111,0,0,0,0,0,0,0,0,0,-1,1238,1135,0,0
21,-111,0,0,0,0,0,0,0,0,0,-1,1245,1135,0,0
28,-111,0,0,0,0,0,0,0,0,0,-1,1252,1135,0,0
35,-111,0,0,0,0,0,0,0,0,0,-1,1259,1135,0,0
42,-111,0,0,0,0,0,0,0,0,0,-1,1266,1135,0,0
49,-111,0,0,0,0,0,0,0,0,0,-1,1273,1135,0,0
56,-111,0,0,0,0,0,0,0,0,0,-1,1280,1135,0,0
63,-111,0,0,0,0,0,0,0,0,0,-1,1287,1135,0,0
70,-111,0,0,0,0,0,0,0,0,0,-1,1294,1135,0,0
77,-111,0,0,0,0,0,0,0,0,0,-1,1301,1135,0,0
84,-111,0,0,0,0,0,0,0,0,0,-1,1308,1135,0,0
91,-111,0,0,0,0,0,0,0,0,0,-1,1315,1135,0,0
98,-111,0,0,0,0,0,0,0,0,0,-1,1322,1135,0,0
105,-111,0,0,0,0,0,0,0,0,0,-1,1329,1135,0,0
112,-111,0,0,0,0,0,0,0,0,0,-1,1336,1135,0,0
119,-111,0,0,0,0,0,0,0,0,0,-1,1343,1135,0,0
126,-111,0,0,0,0,0,0,0,0,0,-1,1350,1135,0,0
133,-111,0,0,0,0,0,0,0,0,0,-1,1357,1135,0,0
140,-111,0,0,0,0,0,0,0,0,0,-1,1364,1135,0,0
147,-111,0,0,0,0,0,0,0,0,0,-1,1371,1135,0,0
154,-111,0,0,0,0,0,0,0,0,0,-1,1378,1135,0,0
161,-111,0,0,0,0,0,0,0,0,0,-1,1385,1135,0,0
168,-111,0,0,0,0,0,0,0,0,0,-1,1392,1135,0,0
175,-111,0,0,0,0,0,0,0,0,0,-1,1399,1135,0,0
182,-111,0,0,0,0,0,0,0,0,0,-1,1406,1135,0,0
189,-111,0,0,0,0,0,0,0,0,0,-1,1413,1135,0,0
196,-111,0,0,0,0,0,0,0,0,0,-1,1420,1135,0,0
203,-111,0,0,0,0,0,0,0,0,0,-1,1427,1135,0,0
210,-111,0,0,0,0,0,0,0,0,0,-1,1434,1135,0,0
217,-111,0,0,0,0,0,0,0,0,0,-1,1441,1135,0,0
224,-111,0,0,0,0,0,0,0,0,0,-1,1448,1135,0,0
231,-111,0,0,0,0,0,0,0,0,0,-1,1455,1135,0,0
238,-111,0,0,0,0,0,0,0,0,0,-1,1462,1135,0,0
245,-111,0,0,0,0,0,0,0,0,0,-1,1469,1135,0,0
252,-111,0,0,0,0,0,0,0,0,0,-1,1476,1135,0,0
259,-111,0,0,0,0,0,0,0,0,0,-1,1483,1135,0,0
266,-111,0,0,0,0,0,0,0,0,0,-1,1490,1135,0,0
273,-111,0,0,0,0,0,0,0,0,0,-1,1497,1135,0,0
280,-111,0,0,0,0,0,0,0,0,0,-1,1504,1135,0,0
287,-111,0,0,0,0,0,0,0,0,0,-1,1511,1135,0,0
294,-111,0,0,0,0,0,0,0,0,0,-1,1518,1135,0,0
301,-111,0,0,0,0,0,0,0,0,0,-1,1525,1135,0,0
308,-111,0,0,0,0,0,0,0,0,0,-1,1532,1135,0,0
315,-111,0,0,0,0,0,0,0,0,0,-1,1539,1135,0,0
322,-111,0,0,0,0,0,0,0,0,0,-1,1546,1135,0,0
329,-111,0,0,0,0,0,0,0,0,0,-1,1553,1135,0,0
336,-111,0,0,0,0,0,0,0,0,0,-1,1560,1135,0,0
343,-111,0,0,0,0,0,0,0,0,0,-1,1567,1135,0,0
350,-111,0,0,0,0,0,0,0,0,0,-1,1574,1135,0,0
357,-111,0,0,0,0,0,0,0,0,0,-1,1581,1135,0,0
364,-111,0,0,0,0,0,0,0,0,0,-1,1588,1135,0,0
371,-111,0,0,0,0,0,0,0,0,0,-1,1595,1135,0,0
378,-111,0,0,0,0,0,0,0,0,0,-1,1602,1135,0,0
385,-111,0,0,0,0,0,0,0,0,0,-1,1609,1135,0,0
392,-111,0,0,0,0,0,0,0,0,0,-1,1616,1135,0,0
399,-111,0,0,0,0,0,0,0,0,0,-1,1623,1135,0,0
406,-111,0,0,0,0,0,0,0,0,0,-1,1630,1135,0,0
413,-111,0,0,0,0,0,0,0,0,0,-1,1637,1135,0,0
420,-111,0,0,0,0,0,0,0,0,0,-1,1644,1135,0,0
427,-111,0,0,0,0,0,0,0,0,0,-1,1651,1135,0,0
434,-111,0,0,0,0,0,0,0,0,0,-1,1658,1135,0,0
441,-111,0,0,0,0,0,0,0,0,0,-1,1665,1135,0,0
448,-111,0,0,0,0,0,0,0,0,0,-1,1672,1135,0,0
455,-111,0,0,0,0,0,0,0,0,0,-1,1679,1135,0,0
462,-111,0,0,0,0,0,0,0,0,0,-1,1686,1135,0,0
469,-111,0,0,0,0,0,0,0,0,0,-1,1693,1135,0,0
476,-111,0,0,0,0,0,0,0,0,0,-1,1700,1135,0,0
483,-111,0,0,0,0,0,0,0,0,0,-1,1707,1135,0,0
490,-111,0,0,0,0,0,0,0,0,0,-1,1714,1135,0,0
497,-111,0,0,0,0,0,0,0,0,0,-1,1721,1135,0,0
504,-111,0,0,0,0,0,0,0,0,0,-1,1728,1135,0,0
511,-111,0,0,0,0,0,0,0,0,0,-1,1735,1135,0,0
518,-111,0,0,0,0,0,0,0,0,0,-1,1742,1135,0,0
525,-111,0,0,0,0,0,0,0,0,0,-1,1749,1135,0,0
532,-111,0,0,0,0,0,0,0,0,0,-1,1756,1135,0,0
539,-111,0,0,0,0,0,0,0,0,0,-1,1763,1135,0,0
546,-111,0,0,0,0,0,0,0,0,0,-1,1770,1135,0,0
553,-111,0,0,0,0,0,0,0,0,0,-1,1777,1135,0,0
560,-111,0,0,0,0,0,0,0,0,0,-1,1784,1135,0,0
567,-111,0,0,0,0,0,0,0,0,0,-1,1791,1135,0,0
574,-111,0,0,0,0,0,0,0,0,0,-1,1798,1135,0,0
581,-111,0,0,0,0,0,0,0,0,0,-1,1805,1135,0,0
588,-111,0,0,0,0,0,0,0,0,0,-1,1812,1135,0,0
595,-111,0,0,0,0,0,0,0,0,0,-1,1819,1135,0,0
602,-111,0,0,0,0,0,0,0,0,0,-1,1826,1135,0,0
609,-111,0,0,0,0,0,0,0,0,0,-1,1833,1135,0,0
616,-111,0,0,0,0,0,0,0,0,0,-1,1840,1135,0,0
623,-111,0,0,0,0,0,0,0,0,0,-1,1847,1135,0,0
630,-111,0,0,0,0,0,0,0,0,0,-1,1854,1135,0,0
637,-111,0,0,0,0,0,0,0,0,0,-1,1861,1135,0,0
644,-111,33.3466,3.0321,0.00432402,-0.00128994,4.94707e-05,0.00432446,-0.00129038,0.00881116,0.00339583,0.0400093,1868,1135,33.3465,-3.03212
651,-111,33.5028,3.05054,0.00363056,-0.000853473,0.000130053,0.00363433,-0.000857242,0.0289712,0.00275348,0.0400801,1875,1135,33.5029,-3.05049
658,-111,33.6636,2.64917,0.00309936,-0.000698209,0.00019514,0.00310936,-0.000708211,0.0512057,0.0023449,0.0440205,1882,1135,33.6635,-2.64911
665,-111,33.8015,2.41602,0.00258871,-0.000719808,0.000322614,0.00261988,-0.000750973,0.0963014,0.00204344,0.0447304,1889,1135,33.8015,-2.41606
672,-111,33.6107,2.5498,0.00215709,-0.000821229,0.000463168,0.00222746,-0.000891595,0.150771,0.00185502,0.0426391,1896,1135,33.6107,-2.5498
679,-111,33.3927,2.94678,0.00146505,-0.000926118,0.000589741,0.00160258,-0.00106366,0.229123,0.0015498,0.0405717,1903,1135,33.3927,-2.94673
686,-111,33.3811,3.02734,0.000768113,-0.00102898,0.00067482,0.000993295,-0.00125417,0.322074,0.00130048,0.0387024,1910,1135,33.3811,-3.02733
693,-111,33.4745,2.89136,0.000298889,-0.000997236,0.000704583,0.000608126,-0.00130647,0.413579,0.00112964,0.0358289,1917,1135,33.4745,-2.89133
700,-111,33.559,2.77124,-0.000112706,-0.000962051,0.000724257,0.000302202,-0.00137696,0.520235,0.00103354,0.0284695,1924,1135,33.559,-2.77125
707,-111,33.338,3.23376,0,0,0,0,0,0,0,-1,1931,1135,33.338,-3.23379
714,-111,32.2178,4.57288,0,0,0,0,0,0,0,-1,1938,1135,32.2177,-4.57284
721,-111,31.3651,5.78296,-0.00141317,-0.000617919,0.00120964,0.000257775,-0.00228886,0.944191,0.00161869,0.0192132,1945,1135,31.3651,-5.78296
728,-111,31.3553,5.57422,-0.00153798,-0.000361438,0.00110392,0.000301175,-0.0022006,1.0302,0.00157707,0.0190068,1952,1135,31.3553,-5.57421
735,-111,31.3212,5.37378,-0.00140815,-5.9158e-05,0.000970781,0.000448445,-0.00191576,1.08901,0.00144996,0.018666,1959,1135,31.3211,-5.37372
742,-111,31.2705,5.22742,-0.000921873,0.000265911,0.00115747,0.000972954,-0.00162892,1.02243,0.00151802,0.0123455,1966,1135,31.2705,-5.22746
749,-111,31.2699,5.05713,0.000181901,0.000568173,0.00140976,0.00179796,-0.00104789,0.853474,0.00166197,0.0146337,1973,1135,31.2699,-5.05715
756,-111,31.2532,4.83887,0.00216006,0.00021253,0.00178399,0.00321874,-0.000846153,0.535578,0.00247654,0.016227,1980,1135,31.2531,-4.83885
763,-111,31.2467,4.63062,0.0051971,-0.000604202,0.00237707,0.00604668,-0.00145378,0.343258,0.00459306,0.0138892,1987,1135,31.2467,-4.6306
770,-111,31.2594,4.43591,0.00884005,-0.00178315,0.00312542,0.00969135,-0.00263445,0.265929,0.00749501,0.0111134,1994,1135,31.2594,-4.4359
777,-111,31.1718,4.19324,0.0130588,-0.00367217,0.00416596,0.0140387,-0.00465209,0.231022,0.0112356,0.0229057,2001,1135,31.1718,-4.19323
784,-111,31.0492,3.81836,0.0179945,-0.00653744,0.00563786,0.0192282,-0.00777109,0.215418,0.016049,0.0396767,2008,1135,31.0492,-3.81842
791,-111,31.5868,3.09949,0.0235928,-0.0106862,0.00766237,0.0252276,-0.012321,0.210203,0.0221015,0.0447127,2015,1135,31.5868,-3.09945
798,-111,31.697,2.95154,0.0299695,-0.0164027,0.0103936,0.0321926,-0.0186257,0.210707,0.0296864,0.0456424,2022,1135,31.6969,-2.95153
805,-111,32.0286,2.8418,0,0,0,0,0,0,0,-1,2029,1135,32.0285,-2.84183
812,-111,31.3711,2.995,0,0,0,0,0,0,0,-1,2036,1135,31.3711,-2.99495
-700,-118,0,0,0,0,0,0,0,0,0,-1,524,1142,0,0
-693,-118,-22.548,-3.17346,0.0219929,0.0197248,-0.00643976,0.0273977,0.01432,-0.698242,0.0158235,0.0488543,531,1142,-22.548,3.17341
-686,-118,-21.6588,-1.96631,0.0188662,0.0205659,-0.00614634,0.0259209,0.0135112,-0.854097,0.0149699,0.049968,538,1142,-21.6588,1.96628
-679,-118,-21.2726,-0.755249,0.0161304,0.0199812,-0.00584774,0.0242124,0.0118993,-0.944436,0.0139797,0.0441172,545,1142,-21.2726,0.755233
-672,-118,-21.3303,-0.421387,0.0137156,0.0185824,-0.00553504,0.0221953,0.0101027,-0.992498,0.0128316,0.0446835,552,1142,-21.3303,0.421369
-665,-118,-21.6359,1.43237,0,0,0,0,0,0,0,-1,559,1142,-21.636,-1.43243
-658,-118,-21.639,1.42334,0.00947913,0.0145085,-0.00476135,0.0173784,0.00660919,-1.02835,0.0101288,0.04407,566,1142,-21.639,-1.42333
-651,-118,-21.3987,1.41772,0.00761486,0.0121452,-0.00428633,0.0147281,0.00503199,-1.02848,0.00864424,0.0367092,573,1142,-21.3987,-1.41769
-644,-118,-21.2452,1.479,0.00602239,0.00980513,-0.00371096,0.0120789,0.00374861,-1.02108,0.00713903,0.0264409,580,1142,-21.2452,-1.47906
-637,-118,-21.2877,1.69727,0.00461333,0.00799515,-0.00295097,0.00970533,0.00290315,-1.04556,0.00575212,0.0150476,587,1142,-21.2877,-1.69727
-630,-118,-21.2989,1.89941,0.00314889,0.00448393,-0.00316236,0.00704846,0.000584363,-0.889413,0.0045168,0.0193425,594,1142,-21.2989,-1.89947
-623,-118,-21.2992,2.146,0.00214966,0.00332616,-0.00254405,0.00534909,0.000126733,-0.899014,0.00352457,0.0164167,601,1142,-21.2992,-2.14604
-616,-118,-21.3405,2.38049,0.00197302,0.00192562,-0.0020725,0.00402195,-0.000123313,-0.779682,0.00272334,0.0149596,608,1142,-21.3405,-2.38048
-609,-118,-21.4498,2.54431,0.00189038,0.00103262,-0.00174385,0.00325731,-0.000334312,-0.664822,0.00229112,0.0233552,615,1142,-21.4498,-2.54434
-602,-118,-21.4166,2.89014,0.00168729,0.000393289,-0.00124749,0.00244558,-0.000365001,-0.546173,0.00176468,0.0227031,622,1142,-21.4166,-2.89019
-595,-118,-21.4658,3.08728,0.00133143,0.000341578,-0.000912061,0.0018742,-0.00020119,-0.536809,0.00132164,0.0184644,629,1142,-21.4657,-3.08731
-588,-118,-21.1836,3.40613,0.00118323,0.000468191,-0.00082457,0.00172445,-7.303e-05,-0.580838,0.00117474,0.0402536,636,1142,-21.1836,-3.40612
-581,-118,-20.9181,3.61792,0,0,0,0,0,0,0,-1,643,1142,-20.9181,-3.61792
-574,-118,-23.8779,1.18262,0,0,0,0,0,0,0,-1,650,1142,-23.8779,-1.18264
-567,-118,-23.835,1.22363,0.00265172,0.00105318,-0.00138712,0.00345337,0.000251536,-0.524027,0.00222315,0.0408662,657,1142,-23.835,-1.22369
-560,-118,-23.7231,1.05371,0.00305451,0.00140407,-0.00161363,0.00404169,0.00041689,-0.549033,0.00256681,0.035686,664,1142,-23.7232,-1.05368
-553,-118,-23.696,1.06323,0.00351521,0.00185838,-0.00208704,0.00493224,0.000441356,-0.596468,0.00315136,0.0375081,671,1142,-23.696,-1.06325
-546,-118,-23.648,1.11548,0.00428281,0.00235957,-0.00303201,0.00650204,0.000140334,-0.631838,0.00428868,0.0389788,678,1142,-23.648,-1.11549
-539,-118,-23.6777,1.21106,0.00590269,0.00295254,-0.00452292,0.009185,-0.000329765,-0.62777,0.00623616,0.0421125,685,1142,-23.6776,-1.21101
-532,-118,-23.8871,1.24683,0.00911447,0.00338756,-0.00706471,0.013874,-0.00137194,-0.592857,0.00973889,0.0418053,692,1142,-23.8871,-1.24681
-525,-118,-23.8955,0.845337,0.0120306,0.00435912,-0.0103546,0.0192371,-0.00284732,-0.608014,0.0138716,0.0418123,699,1142,-23.8955,-0.845321
-518,-118,0,0,0,0,0,0,0,0,0,-1,706,1142,0,0
-511,-118,0,0,0,0,0,0,0,0,0,-1,713,1142,0,0
-504,-118,0,0,0,0,0,0,0,0,0,-1,720,1142,0,0
-497,-118,0,0,0,0,0,0,0,0,0,-1,727,1142,0,0
-490,-118,0,0,0,0,0,0,0,0,0,-1,734,1142,0,0
-483,-118,0,0,0,0,0,0,0,0,0,-1,741,1142,0,0
-476,-118,0,0,0,0,0,0,0,0,0,-1,748,1142,0,0
-469,-118,0,0,0,0,0,0,0,0,0,-1,755,1142,0,0
-462,-118,0,0,0,0,0,0,0,0,0,-1,762,1142,0,0
-455,-118,0,0,0,0,0,0,0,0,0,-1,769,1142,0,0
-448,-118,0,0,0,0,0,0,0,0,0,-1,776,1142,0,0
-441,-118,0,0,0,0,0,0,0,0,0,-1,783,1142,0,0
-434,-118,0,0,0,0,0,0,0,0,0,-1,790,1142,0,0
-427,-118,0,0,0,0,0,0,0,0,0,-1,797,1142,0,0
-420,-118,0,0,0,0,0,0,0,0,0,-1,804,1142,0,0
-413,-118,0,0,0,0,0,0,0,0,0,-1,811,1142,0,0
-406,-118,0,0,0,0,0,0,0,0,0,-1,818,1142,0,0
-399,-118,0,0,0,0,0,0,0,0,0,-1,825,1142,0,0
-392,-118,0,0,0,0,0,0,0,0,0,-1,832,1142,0,0
-385,-118,0,0,0,0,0,0,0,0,0,-1,839,1142,0,0
-378,-118,0,0,0,0,0,0,0,0,0,-1,846,1142,0,0
-371,-118,0,0,0,0,0,0,0,0,0,-1,853,1142,0,0
-364,-118,0,0,0,0,0,0,0,0,0,-1,860,1142,0,0
-357,-118,0,0,0,0,0,0,0,0,0,-1,867,1142,0,0
-350,-118,0,0,0,0,0,0,0,0,0,-1,874,1142,0,0
-343,-118,0,0,0,0,0,0,0,0,0,-1,881,1142,0,0
-336,-118,0,0,0,0,0,0,0,0,0,-1,888,1142,0,0
-329,-118,0,0,0,0,0,0,0,0,0,-1,895,1142,0,0
-322,-118,0,0,0,0,0,0,0,0,0,-1,902,1142,0,0
-315,-118,0,0,0,0,0,0,0,0,0,-1,909,1142,0,0
-308,-118,0,0,0,0,0,0,0,0,0,-1,916,1142,0,0
-301,-118,0,0,0,0,0,0,0,0,0,-1,923,1142,0,0
-294,-118,0,0,0,0,0,0,0,0,0,-1,930,1142,0,0
-287,-118,0,0,0,0,0,0,0,0,0,-1,937,1142,0,0
-280,-118,0,0,0,0,0,0,0,0,0,-1,944,1142,0,0
-273,-118,0,0,0,0,0,0,0,0,0,-1,951,1142,0,0
-266,-118,0,0,0,0,0,0,0,0,0,-1,958,1142,0,0
-259,-118,0,0,0,0,0,0,0,0,0,-1,965,1142,0,0
-252,-118,0,0,0,0,0,0,0,0,0,-1,972,1142,0,0
-245,-118,0,0,0,0,0,0,0,0,0,-1,979,1142,0,0
-238,-118,0,0,0,0,0,0,0,0,0,-1,986,1142,0,0
-231,-118,0,0,0,0,0,0,0,0,0,-1,993,1142,0,0
-224,-118,0,0,0,0,0,0,0,0,0,-1,1000,1142,0,0
-217,-118,0,0,0,0,0,0,0,0,0,-1,1007,1142,0,0
-210,-118,0,0,0,0,0,0,0,0,0,-1,1014,1142,0,0
-203,-118,0,0,0,0,0,0,0,0,0,-1,1021,1142,0,0
-196,-118,0,0,0,0,0,0,0,0,0,-1,1028,1142,0,0
-189,-118,0,0,0,0,0,0,0,0,0,-1,1035,1142,0,0
-182,-118,0,0,0,0,0,0,0,0,0,-1,1042,1142,0,0
-175,-118,0,0,0,0,0,0,0,0,0,-1,1049,1142,0,0
-168,-118,0,0,0,0,0,0,0,0,0,-1,1056,1142,0,0
-161,-118,0,0,0,0,0,0,0,0,0,-1,1063,1142,0,0
-154,-118,0,0,0,0,0,0,0,0,0,-1,1070,1142,0,0
-147,-118,0,0,0,0,0,0,0,0,0,-1,1077,1142,0,0
-140,-118,0,0,0,0,0,0,0,0,0,-1,1084,1142,0,0
-133,-118,0,0,0,0,0,0,0,0,0,-1,1091,1142,0,0
-126,-118,0,0,0,0,0,0,0,0,0,-1,1098,1142,0,0
-119,-118,0,0,0,0,0,0,0,0,0,-1,1105,1142,0,0
-112,-118,0,0,0,0,0,0,0,0,0,-1,1112,1142,0,0
-105,-118,0,0,0,0,0,0,0,0,0,-1,1119,1142,0,0
-98,-118,0,0,0,0,0,0,0,0,0,-1,1126,1142,0,0
-91,-118,0,0,0,0,0,0,0,0,0,-1,1133,1142,0,0
-84,-118,0,0,0,0,0,0,0,0,0,-1,1140,1142,0,0
-77,-118,0,0,0,0,0,0,0,0,0,-1,1147,1142,0,0
-70,-118,0,0,0,0,0,0,0,0,0,-1,1154,1142,0,0
-63,-118,0,0,0,0,0,0,0,0,0,-1,1161,1142,0,0
-56,-118,0,0,0,0,0,0,0,0,0,-1,1168,1142,0,0
-49,-118,0,0,0,0,0,0,0,0,0,-1,1175,1142,0,0
-42,-118,0,0,0,0,0,0,0,0,0,-1,1182,1142,0,0
-35,-118,0,0,0,0,0,0,0,0,0,-1,1189,1142,0,0
-28,-118,0,0,0,0,0,0,0,0,0,-1,1196,1142,0,0
-21,-118,0,0,0,0,0,0,0,0,0,-1,1203,1142,0,0
-14,-118,0,0,0,0,0,0,0,0,0,-1,1210,1142,0,0
-7,-118,0,0,0,0,0,0,0,0,0,-1,1217,1142,0,0
0,-118,0,0,0,0,0,0,0,0,0,-1,1224,1142,0,0
7,-118,0,0,0,0,0,0,0,0,0,-1,1231,1142,0,0
14,-118,0,0,0,0,0,0,0,0,0,-1,1238,1142,0,0
21,-118,0,0,0,0,0,0,0,0,0,-1,1245,1142,0,0
28,-118,0,0,0,0,0,0,0,0,0,-1,1252,1142,0,0
35,-118,0,0,0,0,0,0,0,0,0,-1,1259,1142,0,0
42,-118,0,0,0,0,0,0,0,0,0,-1,1266,1142,0,0
49,-118,0,0,0,0,0,0,0,0,0,-1,1273,1142,0,0
56,-118,0,0,0,0,0,0,0,0,0,-1,1280,1142,0,0
63,-118,0,0,0,0,0,0,0,0,0,-1,1287,1142,0,0
70,-118,0,0,0,0,0,0,0,0,0,-1,1294,1142,0,0
77,-118,0,0,0,0,0,0,0,0,0,-1,1301,1142,0,0
84,-118,0,0,0,0,0,0,0,0,0,-1,1308,1142,0,0
91,-118,0,0,0,0,0,0,0,0,0,-1,1315,1142,0,0
98,-118,0,0,0,0,0,0,0,0,0,-1,1322,1142,0,0
105,-118,0,0,0,0,0,0,0,0,0,-1,1329,1142,0,0
112,-118,0,0,0,0,0,0,0,0,0,-1,1336,1142,0,0
119,-118,0,0,0,0,0,0,0,0,0,-1,1343,1142,0,0
126,-118,0,0,0,0,0,0,0,0,0,-1,1350,1142,0,0
133,-118,0,0,0,0,0,0,0,0,0,-1,1357,1142,0,0
140,-118,0,0,0,0,0,0,0,0,0,-1,1364,1142,0,0
147,-118,0,0,0,0,0,0,0,0,0,-1,1371,1142,0,0
154,-118,0,0,0,0,0,0,0,0,0,-1,1378,1142,0,0
161,-118,0,0,0,0,0,0,0,0,0,-1,1385,1142,0,0
168,-118,0,0,0,0,0,0,0,0,0,-1,1392,1142,0,0
175,-118,0,0,0,0,0,0,0,0,0,-1,1399,1142,0,0
182,-118,0,0,0,0,0,0,0,0,0,-1,1406,1142,0,0
189,-118,0,0,0,0,0,0,0,0,0,-1,1413,1142,0,0
196,-118,0,0,0,0,0,0,0,0,0,-1,1420,1142,0,0
203,-118,0,0,0,0,0,0,0,0,0,-1,1427,1142,0,0
210,-118,0,0,0,0,0,0,0,0,0,-1,1434,1142,0,0
217,-118,0,0,0,0,0,0,0,0,0,-1,1441,1142,0,0
224,-118,0,0,0,0,0,0,0,0,0,-1,1448,1142,0,0
231,-118,0,0,0,0,0,0,0,0,0,-1,1455,1142,0,0
238,-118,0,0,0,0,0,0,0,0,0,-1,1462,1142,0,0
245,-118,0,0,0,0,0,0,0,0,0,-1,1469,1142,0,0
252,-118,0,0,0,0,0,0,0,0,0,-1,1476,1142,0,0
259,-118,0,0,0,0,0,0,0,0,0,-1,1483,1142,0,0
266,-118,0,0,0,0,0,0,0,0,0,-1,1490,1142,0,0
273,-118,0,0,0,0,0,0,0,0,0,-1,1497,1142,0,0
280,-118,0,0,0,0,0,0,0,0,0,-1,1504,1142,0,0
287,-118,0,0,0,0,0,0,0,0,0,-1,1511,1142,0,0
294,-118,0,0,0,0,0,0,0,0,0,-1,1518,1142,0,0
301,-118,0,0,0,0,0,0,0,0,0,-1,1525,1142,0,0
308,-118,0,0,0,0,0,0,0,0,0,-1,1532,1142,0,0
315,-118,0,0,0,0,0,0,0,0,0,-1,1539,1142,0,0
322,-118,0,0,0,0,0,0,0,0,0,-1,1546,1142,0,0
329,-118,0,0,0,0,0,0,0,0,0,-1,1553,1142,0,0
336,-118,0,0,0,0,0,0,0,0,0,-1,1560,1142,0,0
343,-118,0,0,0,0,0,0,0,0,0,-1,1567,1142,0,0
350,-118,0,0,0,0,0,0,0,0,0,-1,1574,1142,0,0
357,-118,0,0,0,0,0,0,0,0,0,-1,1581,1142,0,0
364,-118,0,0,0,0,0,0,0,0,0,-1,1588,1142,0,0
371,-118,0,0,0,0,0,0,0,0,0,-1,1595,1142,0,0
378,-118,0,0,0,0,0,0,0,0,0,-1,1602,1142,0,0
385,-118,0,0,0,0,0,0,0,0,0,-1,1609,1142,0,0
392,-118,0,0,0,0,0,0,0,0,0,-1,1616,1142,0,0
399,-118,0,0,0,0,0,0,0,0,0,-1,1623,1142,0,0
406,-118,0,0,0,0,0,0,0,0,0,-1,1630,1142,0,0
413,-118,0,0,0,0,0,0,0,0,0,-1,1637,1142,0,0
420,-118,0,0,0,0,0,0,0,0,0,-1,1644,1142,0,0
427,-118,0,0,0,0,0,0,0,0,0,-1,1651,1142,0,0
434,-118,0,0,0,0,0,0,0,0,0,-1,1658,1142,0,0
441,-118,0,0,0,0,0,0,0,0,0,-1,1665,1142,0,0
448,-118,0,0,0,0,0,0,0,0,0,-1,1672,1142,0,0
455,-118,0,0,0,0,0,0,0,0,0,-1,1679,1142,0,0
462,-118,0,0,0,0,0,0,0,0,0,-1,1686,1142,0,0
469,-118,0,0,0,0,0,0,0,0,0,-1,1693,1142,0,0
476,-118,0,0,0,0,0,0,0,0,0,-1,1700,1142,0,0
483,-118,0,0,0,0,0,0,0,0,0,-1,1707,1142,0,0
490,-118,0,0,0,0,0,0,0,0,0,-1,1714,1142,0,0
497,-118,0,0,0,0,0,0,0,0,0,-1,1721,1142,0,0
504,-118,0,0,0,0,0,0,0,0,0,-1,1728,1142,0,0
511,-118,0,0,0,0,0,0,0,0,0,-1,1735,1142,0,0
518,-118,0,0,0,0,0,0,0,0,0,-1,1742,1142,0,0
525,-118,0,0,0,0,0,0,0,0,0,-1,1749,1142,0,0
532,-118,0,0,0,0,0,0,0,0,0,-1,1756,1142,0,0
539,-118,0,0,0,0,0,0,0,0,0,-1,1763,1142,0,0
546,-118,0,0,0,0,0,0,0,0,0,-1,1770,1142,0,0
553,-118,0,0,0,0,0,0,0,0,0,-1,1777,1142,0,0
560,-118,0,0,0,0,0,0,0,0,0,-1,1784,1142,0,0
567,-118,0,0,0,0,0,0,0,0,0,-1,1791,1142,0,0
574,-118,0,0,0,0,0,0,0,0,0,-1,1798,1142,0,0
581,-118,0,0,0,0,0,0,0,0,0,-1,1805,1142,0,0
588,-118,0,0,0,0,0,0,0,0,0,-1,1812,1142,0,0
595,-118,0,0,0,0,0,0,0,0,0,-1,1819,1142,0,0
602,-118,0,0,0,0,0,0,0,0,0,-1,1826,1142,0,0
609,-118,0,0,0,0,0,0,0,0,0,-1,1833,1142,0,0
616,-118,0,0,0,0,0,0,0,0,0,-1,1840,1142,0,0
623,-118,0,0,0,0,0,0,0,0,0,-1,1847,1142,0,0
630,-118,0,0,0,0,0,0,0,0,0,-1,1854,1142,0,0
637,-118,0,0,0,0,0,0,0,0,0,-1,1861,1142,0,0
644,-118,33.2776,3.19263,0.00327993,-0.00327622,-0.000362624,0.00329993,-0.00329621,-0.0550865,0.00380828,0.0421838,1868,1142,33.2776,-3.19265
651,-118,33.3718,3.21167,0.002949,-0.00247302,-0.000274089,0.00296282,-0.00248684,-0.0503799,0.00315036,0.0410571,1875,1142,33.3718,-3.21162
658,-118,33.2926,2.55664,0.00269363,-0.00198821,-0.000183437,0.0027008,-0.00199539,-0.0391007,0.00272152,0.0431903,1882,1142,33.2926,-2.55666
665,-118,33.5018,2.39185,0.00242007,-0.00167305,-4.70124e-05,0.00242061,-0.00167359,-0.0114837,0.00237687,0.0425585,1889,1142,33.5018,-2.39182
672,-118,33.4385,2.59167,0.00218903,-0.00146504,5.96763e-05,0.00219001,-0.00146602,0.0163256,0.00212456,0.0414886,1896,1142,33.4385,-2.59165
679,-118,33.4066,2.96777,0.00158874,-0.00132414,0.000153741,0.00159683,-0.00133224,0.0525848,0.0016934,0.039074,1903,1142,33.4067,-2.96781
686,-118,33.4945,3.08777,0.000914925,-0.00125227,0.000227748,0.0009386,-0.00127594,0.103582,0.0012835,0.0362944,1910,1142,33.4945,-3.08775
693,-118,33.5232,2.90625,0.000448541,-0.00107242,0.000245717,0.000487252,-0.00111113,0.156259,0.000945971,0.0356583,1917,1142,33.5232,-2.90629
700,-118,33.5704,2.83179,6.81051e-05,-0.000963894,0.000287924,0.000143,-0.00103879,0.254479,0.000744782,0.0229838,1924,1142,33.5704,-2.8318
707,-118,33.6023,2.8634,0,0,0,0,0,0,0,-1,1931,1142,33.6023,-2.86335
714,-118,31.2012,6.06177,0,0,0,0,0,0,0,-1,1938,1142,31.2012,-6.06171
721,-118,31.1111,5.849,-0.00134997,-0.000462591,0.00087489,7.46849e-05,-0.00188725,1.02007,0.00128378,0.0142211,1945,1142,31.1111,-5.84895
728,-118,31.1151,5.62793,-0.0014897,-0.000200759,0.00083087,0.000206287,-0.00189674,1.11526,0.00133857,0.0156793,1952,1142,31.1151,-5.62796
735,-118,31.066,5.42834,-0.00143459,4.91511e-05,0.000786568,0.000388513,-0.00177395,1.16348,0.00133117,0.0158074,1959,1142,31.0661,-5.42835
742,-118,31.0574,5.24475,-0.00108894,0.000314428,0.00104315,0.000869929,-0.00164444,1.08147,0.00147445,0.0221603,1966,1142,31.0574,-5.2448
749,-118,31.0579,5.00598,-0.000249923,0.000569275,0.00135253,0.00157286,-0.00125351,0.932428,0.00163528,0.0206231,1973,1142,31.0579,-5.006
756,-118,31.0697,4.81506,0.00136981,0.000202946,0.00177499,0.00265479,-0.00108204,0.626613,0.00222024,0.0176061,1980,1142,31.0697,-4.81501
763,-118,31.0741,4.59143,0.00389049,-0.000575711,0.00236831,0.00491248,-0.0015977,0.407387,0.0039177,0.0102405,1987,1142,31.0741,-4.5914
770,-118,31.0291,4.40112,0.00674067,-0.0017559,0.00309985,0.00775137,-0.00276661,0.315181,0.00629578,0.0124178,1994,1142,31.0291,-4.40107
777,-118,30.9597,4.19153,0.00998485,-0.00361324,0.00405205,0.0111007,-0.00472913,0.268727,0.00938291,0.0262131,2001,1142,30.9598,-4.19159
784,-118,31.205,3.66248,0.0136959,-0.00642328,0.00538207,0.0150452,-0.00777255,0.245634,0.013395,0.0420905,2008,1142,31.205,-3.66249
791,-118,31.5242,3.11743,0.0177596,-0.0104821,0.00720457,0.0194913,-0.0122138,0.23589,0.018465,0.0469615,2015,1142,31.5241,-3.1174
798,-118,31.615,2.89673,0.0223108,-0.0160663,0.0096533,0.0246022,-0.0183576,0.233053,0.02489,0.0479187,2022,1142,31.6151,-2.89668
805,-118,31.8027,2.69885,0,0,0,0,0,0,0,-1,2029,1142,31.8026,-2.69886
812,-118,30.572,2.13721,0,0,0,0,0,0,0,-1,2036,1142,30.572,-2.13718
-700,-125,0,0,0,0,0,0,0,0,0,-1,524,1149,0,0
-693,-125,-21.7214,-2.25049,0,0,0,0,0,0,0,-1,531,1149,-21.7214,2.25053
-686,-125,-20.9023,-1.27197,0,0,0,0,0,0,0,-1,538,1149,-20.9023,1.27198
-679,-125,-20.3321,-0.178101,0.0189707,0.0107127,-0.00738471,0.0233024,0.00638105,-0.530485,0.0139048,0.0425198,545,1149,-20.3321,0.178129
-672,-125,-20.3622,0.489258,0.0163955,0.0111812,-0.00696118,0.0212217,0.00635493,-0.60622,0.0125766,0.0429273,552,1149,-20.3622,-0.48929
-665,-125,-20.4,1.13538,0,0,0,0,0,0,0,-1,559,1149,-20.4,-1.1354
-658,-125,-21.364,1.13586,0,0,0,0,0,0,0,-1,566,1149,-21.3639,-1.13582
-651,-125,-21.1611,1.31604,0.00949808,0.00890997,-0.00491103,0.0141239,0.00428419,-0.755496,0.00836204,0.0396439,573,1149,-21.1612,-1.31601
-644,-125,-20.9879,1.47461,0.00757859,0.00753003,-0.00408366,0.011638,0.00347058,-0.782426,0.00689922,0.0251474,580,1149,-20.9878,-1.47461
-637,-125,-21.0112,1.6676,0.00582583,0.00651444,-0.00311322,0.00930234,0.00303793,-0.840472,0.00547733,0.0130015,587,1149,-21.0111,-1.66764
-630,-125,-21.0217,1.90125,0.00425024,0.00387159,-0.00288865,0.00695577,0.00116607,-0.752675,0.0043015,0.0145132,594,1149,-21.0217,-1.90122
-623,-125,-21.0331,2.15991,0.00306167,0.00296044,-0.00197432,0.00498602,0.00103609,-0.772582,0.00303813,0.0136853,601,1149,-21.0331,-2.15993
-616,-125,-21.0317,2.37769,0.00269687,0.0017502,-0.00130081,0.00360778,0.000839287,-0.610906,0.00217996,0.0144512,608,1149,-21.0317,-2.37763
-609,-125,-21.1456,2.5459,0.00256048,0.000968191,-0.000826795,0.00291213,0.000616539,-0.402141,0.00177203,0.0252672,615,1149,-21.1457,-2.54595
-602,-125,-21.188,2.88342,0.00234431,0.00048249,-0.00033591,0.00240306,0.000423739,-0.17315,0.00148114,0.0225885,622,1149,-21.188,-2.88337
-595,-125,-21.1987,3.15918,0.00192426,0.000489564,-8.21386e-05,0.00192895,0.000484876,-0.0570031,0.00115867,0.0208843,629,1149,-21.1987,-3.15917
-588,-125,-20.9174,3.50171,0.0016597,0.000694299,-0.000102047,0.00167037,0.00068363,-0.10417,0.000969668,0.0335535,636,1149,-20.9174,-3.50174
-581,-125,-20.6314,3.86389,0,0,0,0,0,0,0,-1,643,1149,-20.6314,-3.86393
-574,-125,-23.8031,1.1449,0,0,0,0,0,0,0,-1,650,1149,-23.8031,-1.14494
-567,-125,-23.8006,1.12622,0.00319681,0.00133263,-0.000874995,0.00354316,0.000986279,-0.376907,0.00211158,0.0413702,657,1149,-23.8006,-1.12623
-560,-125,-23.7935,0.967651,0.00356937,0.00170774,-0.00121532,0.00416938,0.00110773,-0.458599,0.00249375,0.0380941,664,1149,-23.7935,-0.967643
-553,-125,-23.8152,0.923462,0.00398559,0.00218287,-0.00184408,0.00513681,0.00103165,-0.55808,0.00313771,0.0386323,671,1149,-23.8152,-0.923489
-546,-125,-23.7382,1.06897,0.00468531,0.00266947,-0.00301727,0.00685855,0.000496225,-0.6242,0.00441626,0.0409453,678,1149,-23.7382,-1.06892
-539,-125,-23.766,1.11328,0.00615373,0.00321773,-0.00477539,0.00968166,-0.000310205,-0.636278,0.00656029,0.0437565,685,1149,-23.766,-1.11327
-532,-125,-23.7004,1.1886,0,0,0,0,0,0,0,-1,692,1149,-23.7005,-1.18856
-525,-125,-23.5613,0.755127,0,0,0,0,0,0,0,-1,699,1149,-23.5613,-0.75515
-518,-125,0,0,0,0,0,0,0,0,0,-1,706,1149,0,0
-511,-125,0,0,0,0,0,0,0,0,0,-1,713,1149,0,0
-504,-125,0,0,0,0,0,0,0,0,0,-1,720,1149,0,0
-497,-125,0,0,0,0,0,0,0,0,0,-1,727,1149,0,0
-490,-125,0,0,0,0,0,0,0,0,0,-1,734,1149,0,0
-483,-125,0,0,0,0,0,0,0,0,0,-1,741,1149,0,0
-476,-125,0,0,0,0,0,0,0,0,0,-1,748,1149,0,0
-469,-125,0,0,0,0,0,0,0,0,0,-1,755,1149,0,0
-462,-125,0,0,0,0,0,0,0,0,0,-1,762,1149,0,0
-455,-125,0,0,0,0,0,0,0,0,0,-1,769,1149,0,0
-448,-125,0,0,0,0,0,0,0,0,0,-1,776,1149,0,0
-441,-125,0,0,0,0,0,0,0,0,0,-1,783,1149,0,0
-434,-125,0,0,0,0,0,0,0,0,0,-1,790,1149,0,0
-427,-125,0,0,0,0,0,0,0,0,0,-1,797,1149,0,0
-420,-125,0,0,0,0,0,0,0,0,0,-1,804,1149,0,0
-413,-125,0,0,0,0,0,0,0,0,0,-1,811,1149,0,0
-406,-125,0,0,0,0,0,0,0,0,0,-1,818,1149,0,0
-399,-125,0,0,0,0,0,0,0,0,0,-1,825,1149,0,0
-392,-125,0,0,0,0,0,0,0,0,0,-1,832,1149,0,0
-385,-125,0,0,0,0,0,0,0,0,0,-1,839,1149,0,0
-378,-125,0,0,0,0,0,0,0,0,0,-1,846,1149,0,0
-371,-125,0,0,0,0,0,0,0,0,0,-1,853,1149,0,0
-364,-125,0,0,0,0,0,0,0,0,0,-1,860,1149,0,0
-357,-125,0,0,0,0,0,0,0,0,0,-1,867,1149,0,0
-350,-125,0,0,0,0,0,0,0,0,0,-1,874,1149,0,0
-343,-125,0,0,0,0,0,0,0,0,0,-1,881,1149,0,0
-336,-125,0,0,0,0,0,0,0,0,0,-1,888,1149,0,0
-329,-125,0,0,0,0,0,0,0,0,0,-1,895,1149,0,0
-322,-125,0,0,0,0,0,0,0,0,0,-1,902,1149,0,0
-315,-125,0,0,0,0,0,0,0,0,0,-1,909,1149,0,0
-308,-125,0,0,0,0,0,0,0,0,0,-1,916,1149,0,0
-301,-125,0,0,0,0,0,0,0,0,0,-1,923,1149,0,0
-294,-125,0,0,0,0,0,0,0,0,0,-1,930,1149,0,0
-287,-125,0,0,0,0,0,0,0,0,0,-1,937,1149,0,0
-280,-125,0,0,0,0,0,0,0,0,0,-1,944,1149,0,0
-273,-125,0,0,0,0,0,0,0,0,0,-1,951,1149,0,0
-266,-125,0,0,0,0,0,0,0,0,0,-1,958,1149,0,0
-259,-125,0,0,0,0,0,0,0,0,0,-1,965,1149,0,0
-252,-125,0,0,0,0,0,0,0,0,0,-1,972,1149,0,0
-245,-125,0,0,0,0,0,0,0,0,0,-1,979,1149,0,0
-238,-125,0,0,0,0,0,0,0,0,0,-1,986,1149,0,0
-231,-125,0,0,0,0,0,0,0,0,0,-1,993,1149,0,0
-224,-125,0,0,0,0,0,0,0,0,0,-1,1000,1149,0,0
-217,-125,0,0,0,0,0,0,0,0,0,-1,1007,1149,0,0
-210,-125,0,0,0,0,0,0,0,0,0,-1,1014,1149,0,0
-203,-125,0,0,0,0,0,0,0,0,0,-1,1021,1149,0,0
-196,-125,0,0,0,0,0,0,0,0,0,-1,1028,1149,0,0
-189,-125,0,0,0,0,0,0,0,0,0,-1,1035,1149,0,0
-182,-125,0,0,0,0,0,0,0,0,0,-1,1042,1149,0,0
-175,-125,0,0,0,0,0,0,0,0,0,-1,1049,1149,0,0
-168,-125,0,0,0,0,0,0,0,0,0,-1,1056,1149,0,0
-161,-125,0,0,0,0,0,0,0,0,0,-1,1063,1149,0,0
-154,-125,0,0,0,0,0,0,0,0,0,-1,1070,1149,0,0
-147,-125,0,0,0,0,0,0,0,0,0,-1,1077,1149,0,0
-140,-125,0,0,0,0,0,0,0,0,0,-1,1084,1149,0,0
-133,-125,0,0,0,0,0,0,0,0,0,-1,1091,1149,0,0
-126,-125,0,0,0,0,0,0,0,0,0,-1,1098,1149,0,0
-119,-125,0,0,0,0,0,0,0,0,0,-1,1105,1149,0,0
-112,-125,0,0,0,0,0,0,0,0,0,-1,1112,1149,0,0
-105,-125,0,0,0,0,0,0,0,0,0,-1,1119,1149,0,0
-98,-125,0,0,0,0,0,0,0,0,0,-1,1126,1149,0,0
-91,-125,0,0,0,0,0,0,0,0,0,-1,1133,1149,0,0
-84,-125,0,0,0,0,0,0,0,0,0,-1,1140,1149,0,0
-77,-125,0,0,0,0,0,0,0,0,0,-1,1147,1149,0,0
-70,-125,0,0,0,0,0,0,0,0,0,-1,1154,1149,0,0
-63,-125,0,0,0,0,0,0,0,0,0,-1,1161,1149,0,0
-56,-125,0,0,0,0,0,0,0,0,0,-1,1168,1149,0,0
-49,-125,0,0,0,0,0,0,0,0,0,-1,1175,1149,0,0
-42,-125,0,0,0,0,0,0,0,0,0,-1,1182,1149,0,0
-35,-125,0,0,0,0,0,0,0,0,0,-1,1189,1149,0,0
-28,-125,0,0,0,0,0,0,0,0,0,-1,1196,1149,0,0
-21,-125,0,0,0,0,0,0,0,0,0,-1,1203,1149,0,0
-14,-125,0,0,0,0,0,0,0,0,0,-1,1210,1149,0,0
-7,-125,0,0,0,0,0,0,0,0,0,-1,1217,1149,0,0
0,-125,0,0,0,0,0,0,0,0,0,-1,1224,1149,0,0
7,-125,0,0,0,0,0,0,0,0,0,-1,1231,1149,0,0
14,-125,0,0,0,0,0,0,0,0,0,-1,1238,1149,0,0
21,-125,0,0,0,0,0,0,0,0,0,-1,1245,1149,0,0
28,-125,0,0,0,0,0,0,0,0,0,-1,1252,1149,0,0
35,-125,0,0,0,0,0,0,0,0,0,-1,1259,1149,0,0
42,-125,0,0,0,0,0,0,0,0,0,-1,1266,1149,0,0
49,-125,0,0,0,0,0,0,0,0,0,-1,1273,1149,0,0
56,-125,0,0,0,0,0,0,0,0,0,-1,1280,1149,0,0
63,-125,0,0,0,0,0,0,0,0,0,-1,1287,1149,0,0
70,-125,0,0,0,0,0,0,0,0,0,-1,1294,1149,0,0
77,-125,0,0,0,0,0,0,0,0,0,-1,1301,1149,0,0
84,-125,0,0,0,0,0,0,0,0,0,-1,1308,1149,0,0
91,-125,0,0,0,0,0,0,0,0,0,-1,1315,1149,0,0
98,-125,0,0,0,0,0,0,0,0,0,-1,1322,1149,0,0
105,-125,0,0,0,0,0,0,0,0,0,-1,1329,1149,0,0
112,-125,0,0,0,0,0,0,0,0,0,-1,1336,1149,0,0
119,-125,0,0,0,0,0,0,0,0,0,-1,1343,1149,0,0
126,-125,0,0,0,0,0,0,0,0,0,-1,1350,1149,0,0
133,-125,0,0,0,0,0,0,0,0,0,-1,1357,1149,0,0
140,-125,0,0,0,0,0,0,0,0,0,-1,1364,1149,0,0
147,-125,0,0,0,0,0,0,0,0,0,-1,1371,1149,0,0
154,-125,0,0,0,0,0,0,0,0,0,-1,1378,1149,0,0
161,-125,0,0,0,0,0,0,0,0,0,-1,1385,1149,0,0
168,-125,0,0,0,0,0,0,0,0,0,-1,1392,1149,0,0
175,-125,0,0,0,0,0,0,0,0,0,-1,1399,1149,0,0
182,-125,0,0,0,0,0,0,0,0,0,-1,1406,1149,0,0
189,-125,0,0,0,0,0,0,0,0,0,-1,1413,1149,0,0
196,-125,0,0,0,0,0,0,0,0,0,-1,1420,1149,0,0
203,-125,0,0,0,0,0,0,0,0,0,-1,1427,1149,0,0
210,-125,0,0,0,0,0,0,0,0,0,-1,1434,1149,0,0
217,-125,0,0,0,0,0,0,0,0,0,-1,1441,1149,0,0
224,-125,0,0,0,0,0,0,0,0,0,-1,1448,1149,0,0
231,-125,0,0,0,0,0,0,0,0,0,-1,1455,1149,0,0
238,-125,0,0,0,0,0,0,0,0,0,-1,1462,1149,0,0
245,-125,0,0,0,0,0,0,0,0,0,-1,1469,1149,0,0
252,-125,0,0,0,0,0,0,0,0,0,-1,1476,1149,0,0
259,-125,0,0,0,0,0,0,0,0,0,-1,1483,1149,0,0
266,-125,0,0,0,0,0,0,0,0,0,-1,1490,1149,0,0
273,-125,0,0,0,0,0,0,0,0,0,-1,1497,1149,0,0
280,-125,0,0,0,0,0,0,0,0,0,-1,1504,1149,0,0
287,-125,0,0,0,0,0,0,0,0,0,-1,1511,1149,0,0
294,-125,0,0,0,0,0,0,0,0,0,-1,1518,1149,0,0
301,-125,0,0,0,0,0,0,0,0,0,-1,1525,1149,0,0
308,-125,0,0,0,0,0,0,0,0,0,-1,1532,1149,0,0
315,-125,0,0,0,0,0,0,0,0,0,-1,1539,1149,0,0
322,-125,0,0,0,0,0,0,0,0,0,-1,1546,1149,0,0
329,-125,0,0,0,0,0,0,0,0,0,-1,1553,1149,0,0
336,-125,0,0,0,0,0,0,0,0,0,-1,1560,1149,0,0
343,-125,0,0,0,0,0,0,0,0,0,-1,1567,1149,0,0
350,-125,0,0,0,0,0,0,0,0,0,-1,1574,1149,0,0
357,-125,0,0,0,0,0,0,0,0,0,-1,1581,1149,0,0
364,-125,0,0,0,0,0,0,0,0,0,-1,1588,1149,0,0
371,-125,0,0,0,0,0,0,0,0,0,-1,1595,1149,0,0
378,-125,0,0,0,0,0,0,0,0,0,-1,1602,1149,0,0
385,-125,0,0,0,0,0,0,0,0,0,-1,1609,1149,0,0
392,-125,0,0,0,0,0,0,0,0,0,-1,1616,1149,0,0
399,-125,0,0,0,0,0,0,0,0,0,-1,1623,1149,0,0
406,-125,0,0,0,0,0,0,0,0,0,-1,1630,1149,0,0
413,-125,0,0,0,0,0,0,0,0,0,-1,1637,1149,0,0
420,-125,0,0,0,0,0,0,0,0,0,-1,1644,1149,0,0
427,-125,0,0,0,0,0,0,0,0,0,-1,1651,1149,0,0
434,-125,0,0,0,0,0,0,0,0,0,-1,1658,1149,0,0
441,-125,0,0,0,0,0,0,0,0,0,-1,1665,1149,0,0
448,-125,0,0,0,0,0,0,0,0,0,-1,1672,1149,0,0
455,-125,0,0,0,0,0,0,0,0,0,-1,1679,1149,0,0
462,-125,0,0,0,0,0,0,0,0,0,-1,1686,1149,0,0
469,-125,0,0,0,0,0,0,0,0,0,-1,1693,1149,0,0
476,-125,0,0,0,0,0,0,0,0,0,-1,1700,1149,0,0
483,-125,0,0,0,0,0,0,0,0,0,-1,1707,1149,0,0
490,-125,0,0,0,0,0,0,0,0,0,-1,1714,1149,0,0
497,-125,0,0,0,0,0,0,0,0,0,-1,1721,1149,0,0
504,-125,0,0,0,0,0,0,0,0,0,-1,1728,1149,0,0
511,-125,0,0,0,0,0,0,0,0,0,-1,1735,1149,0,0
518,-125,0,0,0,0,0,0,0,0,0,-1,1742,1149,0,0
525,-125,0,0,0,0,0,0,0,0,0,-1,1749,1149,0,0
532,-125,0,0,0,0,0,0,0,0,0,-1,1756,1149,0,0
539,-125,0,0,0,0,0,0,0,0,0,-1,1763,1149,0,0
546,-125,0,0,0,0,0,0,0,0,0,-1,1770,1149,0,0
553,-125,0,0,0,0,0,0,0,0,0,-1,1777,1149,0,0
560,-125,0,0,0,0,0,0,0,0,0,-1,1784,1149,0,0
567,-125,0,0,0,0,0,0,0,0,0,-1,1791,1149,0,0
574,-125,0,0,0,0,0,0,0,0,0,-1,1798,1149,0,0
581,-125,0,0,0,0,0,0,0,0,0,-1,1805,1149,0,0
588,-125,0,0,0,0,0,0,0,0,0,-1,1812,1149,0,0
595,-125,0,0,0,0,0,0,0,0,0,-1,1819,1149,0,0
602,-125,0,0,0,0,0,0,0,0,0,-1,1826,1149,0,0
609,-125,0,0,0,0,0,0,0,0,0,-1,1833,1149,0,0
616,-125,0,0,0,0,0,0,0,0,0,-1,1840,1149,0,0
623,-125,0,0,0,0,0,0,0,0,0,-1,1847,1149,0,0
630,-125,0,0,0,0,0,0,0,0,0,-1,1854,1149,0,0
637,-125,0,0,0,0,0,0,0,0,0,-1,1861,1149,0,0
644,-125,33.3579,3.13062,0.002304,-0.00397501,-0.000663258,0.00237329,-0.0040443,-0.1041,0.00374683,0.043158,1868,1149,33.3578,-3.13065
651,-125,33.4255,3.12573,0.00229715,-0.00304098,-0.000628011,0.00237004,-0.00311387,-0.115545,0.00317583,0.0424806,1875,1149,33.4256,-3.12574
658,-125,33.1951,2.75964,0.00230562,-0.00239734,-0.000560202,0.00237143,-0.00246315,-0.116937,0.00279141,0.0434445,1882,1149,33.1951,-2.75962
665,-125,33.3195,2.63403,0.0022671,-0.00188417,-0.000466502,0.00231887,-0.00193594,-0.110539,0.00245983,0.0447846,1889,1149,33.3194,-2.63397
672,-125,33.3655,2.62451,0.00219733,-0.0015003,-0.000407674,0.00224174,-0.00154471,-0.108516,0.00219842,0.0430362,1896,1149,33.3655,-2.62446
679,-125,33.5043,2.8573,0.00162073,-0.00122217,-0.000327154,0.00165789,-0.00125933,-0.113108,0.00168949,0.0372473,1903,1149,33.5043,-2.85734
686,-125,33.5856,2.97034,0.000913317,-0.00106587,-0.000245682,0.000943358,-0.00109591,-0.121673,0.00117847,0.0366313,1910,1149,33.5856,-2.97028
693,-125,33.5293,2.87317,0.000413739,-0.000823323,-0.000216553,0.000450552,-0.000860136,-0.168386,0.000768944,0.0350498,1917,1149,33.5292,-2.87317
700,-125,33.5574,2.87048,3.34658e-05,-0.000709797,-0.0001363,5.76722e-05,-0.000734004,-0.175764,0.000509649,0.0173704,1924,1149,33.5574,-2.8705
707,-125,33.6844,2.99207,0,0,0,0,0,0,0,-1,1931,1149,33.6844,-2.99206
714,-125,30.8328,6.12158,0,0,0,0,0,0,0,-1,1938,1149,30.8327,-6.1216
721,-125,30.8474,5.89197,-0.00150374,-0.000174816,0.000559941,2.96547e-05,-0.00170821,1.22068,0.00114882,0.0222031,1945,1149,30.8474,-5.89202
728,-125,30.8555,5.6748,-0.0016713,9.55703e-05,0.00058623,0.000272382,-0.00184811,1.27786,0.00133218,0.0169685,1952,1149,30.8555,-5.67483
735,-125,30.8359,5.46033,-0.00169234,0.000291796,0.00064213,0.000481477,-0.00188202,1.28357,0.00144222,0.0191373,1959,1149,30.836,-5.46036
742,-125,30.8572,5.22791,-0.00144843,0.000495178,0.000969258,0.000895913,-0.00184917,1.17875,0.00161641,0.0234447,1966,1149,30.8572,-5.22794
749,-125,30.8455,5.0271,-0.000824317,0.000734693,0.00132396,0.00149158,-0.00158121,1.05146,0.00177433,0.0260624,1973,1149,30.8455,-5.02714
756,-125,30.8281,4.8158,0.000447331,0.000368857,0.0017964,0.00220492,-0.00138874,0.774479,0.00209256,0.0206363,1980,1149,30.8281,-4.81577
763,-125,30.8304,4.58728,0.00238791,-0.000381286,0.0023947,0.00376949,-0.00176286,0.523283,0.00326339,0.0120967,1987,1149,30.8304,-4.58728
770,-125,30.7896,4.36243,0.00441759,-0.00156811,0.00311152,0.005742,-0.00289252,0.402417,0.00507482,0.0147602,1994,1149,30.7895,-4.36237
777,-125,30.7626,4.18164,0.00664457,-0.00343707,0.00398451,0.00802918,-0.00482168,0.334445,0.00749609,0.0264763,2001,1149,30.7626,-4.18167
784,-125,30.8951,3.95447,0.0090405,-0.00631305,0.00518546,0.0106277,-0.00790029,0.297038,0.0107357,0.045081,2008,1149,30.8952,-3.95449
791,-125,31.0428,3.71814,0,0,0,0,0,0,0,-1,2015,1149,31.0429,-3.71813
798,-125,31.4136,2.62781,0,0,0,0,0,0,0,-1,2022,1149,31.4135,-2.62785
805,-125,28.4961,4.27747,0,0,0,0,0,0,0,-1,2029,1149,28.4961,-4.27741
812,-125,29.6338,1.49927,0,0,0,0,0,0,0,-1,2036,1149,29.6338,-1.49928
-700,-132,0,0,0,0,0,0,0,0,0,-1,524,1156,0,0
-693,-132,-19.8336,-0.756714,0,0,0,0,0,0,0,-1,531,1156,-19.8337,0.756707
-686,-132,-19.5274,-0.126221,0.0236801,0.000606688,-0.00986914,0.0273254,-0.00303869,-0.353827,0.0193097,0.0499446,538,1156,-19.5274,0.12623
-679,-132,-19.2275,0.453857,0.0211457,0.00370172,-0.00961252,0.0254035,-0.000556029,-0.416965,0.017124,0.0467271,545,1156,-19.2275,-0.453815
-672,-132,-19.2296,1.02698,0.0186571,0.00548901,-0.00888037,0.0231279,0.00101816,-0.466407,0.0150907,0.0413294,552,1156,-19.2296,-1.02692
-665,-132,-21.3444,1.52332,0,0,0,0,0,0,0,-1,559,1156,-21.3444,-1.52331
-658,-132,-21.2889,1.53003,0.0138,0.00652955,-0.00676493,0.0178446,0.00248499,-0.538854,0.0111606,0.0466108,566,1156,-21.2889,-1.53005
-651,-132,-20.9424,1.42102,0.0114244,0.00620597,-0.00560101,0.0149941,0.00263623,-0.567422,0.00924349,0.0428924,573,1156,-20.9425,-1.42102
-644,-132,-20.7481,1.43372,0.00924029,0.00556263,-0.00443809,0.0122054,0.00259751,-0.588999,0.00742414,0.0215885,580,1156,-20.7481,-1.43376
-637,-132,-20.7507,1.66492,0.00716955,0.00516484,-0.00322426,0.00954366,0.00279073,-0.634695,0.00566611,0.0116024,587,1156,-20.7507,-1.66487
-630,-132,-20.7615,1.9093,0.00545812,0.0032708,-0.00258426,0.00717062,0.00155831,-0.585225,0.00435492,0.0104134,594,1156,-20.7615,-1.90936
-623,-132,-20.775,2.17029,0.0039995,0.00258741,-0.00139333,0.00485547,0.00173145,-0.550888,0.00284148,0.0156363,601,1156,-20.775,-2.17028
-616,-132,-20.7836,2.38354,0.00334044,0.00155931,-0.000501665,0.00347202,0.00142773,-0.256502,0.00201508,0.0206644,608,1156,-20.7836,-2.38352
-609,-132,-20.7131,2.60181,0.00306993,0.000885573,5.78242e-05,0.00307146,0.000884043,0.0264473,0.00182575,0.0224161,615,1156,-20.7131,-2.60177
-602,-132,-20.8674,2.81934,0.0028241,0.000553944,0.000489825,0.00292528,0.000452765,0.203696,0.00181816,0.0210739,622,1156,-20.8674,-2.81939
-595,-132,-20.9186,3.14404,0.00231419,0.00064699,0.000628885,0.0025248,0.000436375,0.323162,0.00155825,0.027225,629,1156,-20.9186,-3.14398
-588,-132,-20.7653,3.54358,0.00189237,0.000911791,0.000517562,0.002115,0.000689161,0.406226,0.00124554,0.0232557,636,1156,-20.7653,-3.5436
-581,-132,-20.4666,3.99121,0,0,0,0,0,0,0,-1,643,1156,-20.4666,-3.99116
-574,-132,-23.6975,0.989868,0,0,0,0,0,0,0,-1,650,1156,-23.6975,-0.989847
-567,-132,-23.7534,0.954468,0.00349271,0.00152447,-0.000388834,0.00356675,0.00145044,-0.18814,0.00207119,0.0455037,657,1156,-23.7534,-0.954459
-560,-132,-23.7891,0.920532,0.00385504,0.00189703,-0.000787011,0.00413215,0.00161992,-0.338554,0.00240417,0.036645,664,1156,-23.7891,-0.920521
-553,-132,-23.7477,0.748657,0.00426502,0.00235576,-0.00149439,0.00508367,0.00153712,-0.501163,0.00301052,0.0394511,671,1156,-23.7477,-0.748658
-546,-132,-23.8627,1.08264,0.00495745,0.00276841,-0.00278598,0.00685619,0.000869662,-0.598227,0.00431025,0.0419665,678,1156,-23.8627,-1.08266
-539,-132,-23.8212,1.01538,0.00630142,0.00316318,-0.00467831,0.00966675,-0.000202144,-0.623592,0.00651292,0.0429059,685,1156,-23.8212,-1.01534
-532,-132,-23.7775,0.927734,0.00939653,0.00327037,-0.0071919,0.0141505,-0.00148358,-0.584079,0.00996505,0.0408591,692,1156,-23.7776,-0.927761
-525,-132,-23.6046,0.803223,0.0129373,0.0032579,-0.00991113,0.0191272,-0.00293206,-0.558273,0.0138328,0.0385865,699,1156,-23.6045,-0.803201
-518,-132,0,0,0,0,0,0,0,0,0,-1,706,1156,0,0
-511,-132,0,0,0,0,0,0,0,0,0,-1,713,1156,0,0
-504,-132,0,0,0,0,0,0,0,0,0,-1,720,1156,0,0
-497,-132,0,0,0,0,0,0,0,0,0,-1,727,1156,0,0
-490,-132,0,0,0,0,0,0,0,0,0,-1,734,1156,0,0
-483,-132,0,0,0,0,0,0,0,0,0,-1,741,1156,0,0
-476,-132,0,0,0,0,0,0,0,0,0,-1,748,1156,0,0
-469,-132,0,0,0,0,0,0,0,0,0,-1,755,1156,0,0
-462,-132,0,0,0,0,0,0,0,0,0,-1,762,1156,0,0
-455,-132,0,0,0,0,0,0,0,0,0,-1,769,1156,0,0
-448,-132,0,0,0,0,0,0,0,0,0,-1,776,1156,0,0
-441,-132,0,0,0,0,0,0,0,0,0,-1,783,1156,0,0
-434,-132,0,0,0,0,0,0,0,0,0,-1,790,1156,0,0
-427,-132,0,0,0,0,0,0,0,0,0,-1,797,1156,0,0
-420,-132,0,0,0,0,0,0,0,0,0,-1,804,1156,0,0
-413,-132,0,0,0,0,0,0,0,0,0,-1,811,1156,0,0
-406,-132,0,0,0,0,0,0,0,0,0,-1,818,1156,0,0
-399,-132,0,0,0,0,0,0,0,0,0,-1,825,1156,0,0
-392,-132,0,0,0,0,0,0,0,0,0,-1,832,1156,0,0
-385,-132,0,0,0,0,0,0,0,0,0,-1,839,1156,0,0
-378,-132,0,0,0,0,0,0,0,0,0,-1,846,1156,0,0
-371,-132,0,0,0,0,0,0,0,0,0,-1,853,1156,0,0
-364,-132,0,0,0,0,0,0,0,0,0,-1,860,1156,0,0
-357,-132,0,0,0,0,0,0,0,0,0,-1,867,1156,0,0
-350,-132,0,0,0,0,0,0,0,0,0,-1,874,1156,0,0
-343,-132,0,0,0,0,0,0,0,0,0,-1,881,1156,0,0
-336,-132,0,0,0,0,0,0,0,0,0,-1,888,1156,0,0
-329,-132,0,0,0,0,0,0,0,0,0,-1,895,1156,0,0
-322,-132,0,0,0,0,0,0,0,0,0,-1,902,1156,0,0
-315,-132,0,0,0,0,0,0,0,0,0,-1,909,1156,0,0
-308,-132,0,0,0,0,0,0,0,0,0,-1,916,1156,0,0
-301,-132,0,0,0,0,0,0,0,0,0,-1,923,1156,0,0
-294,-132,0,0,0,0,0,0,0,0,0,-1,930,1156,0,0
-287,-132,0,0,0,0,0,0,0,0,0,-1,937,1156,0,0
-280,-132,0,0,0,0,0,0,0,0,0,-1,944,1156,0,0
-273,-132,0,0,0,0,0,0,0,0,0,-1,951,1156,0,0
-266,-132,0,0,0,0,0,0,0,0,0,-1,958,1156,0,0
-259,-132,0,0,0,0,0,0,0,0,0,-1,965,1156,0,0
-252,-132,0,0,0,0,0,0,0,0,0,-1,972,1156,0,0
-245,-132,0,0,0,0,0,0,0,0,0,-1,979,1156,0,0
-238,-132,0,0,0,0,0,0,0,0,0,-1,986,1156,0,0
-231,-132,0,0,0,0,0,0,0,0,0,-1,993,1156,0,0
-224,-132,0,0,0,0,0,0,0,0,0,-1,1000,1156,0,0
-217,-132,0,0,0,0,0,0,0,0,0,-1,1007,1156,0,0
-210,-132,0,0,0,0,0,0,0,0,0,-1,1014,1156,0,0
-203,-132,0,0,0,0,0,0,0,0,0,-1,1021,1156,0,0
-196,-132,0,0,0,0,0,0,0,0,0,-1,1028,1156,0,0
-189,-132,0,0,0,0,0,0,0,0,0,-1,1035,1156,0,0
-182,-132,0,0,0,0,0,0,0,0,0,-1,1042,1156,0,0
-175,-132,0,0,0,0,0,0,0,0,0,-1,1049,1156,0,0
-168,-132,0,0,0,0,0,0,0,0,0,-1,1056,1156,0,0
-161,-132,0,0,0,0,0,0,0,0,0,-1,1063,1156,0,0
-154,-132,0,0,0,0,0,0,0,0,0,-1,1070,1156,0,0
-147,-132,0,0,0,0,0,0,0,0,0,-1,1077,1156,0,0
-140,-132,0,0,0,0,0,0,0,0,0,-1,1084,1156,0,0
-133,-132,0,0,0,0,0,0,0,0,0,-1,1091,1156,0,0
-126,-132,0,0,0,0,0,0,0,0,0,-1,1098,1156,0,0
-119,-132,0,0,0,0,0,0,0,0,0,-1,1105,1156,0,0
-112,-132,0,0,0,0,0,0,0,0,0,-1,1112,1156,0,0
-105,-132,0,0,0,0,0,0,0,0,0,-1,1119,1156,0,0
-98,-132,0,0,0,0,0,0,0,0,0,-1,1126,1156,0,0
-91,-132,0,0,0,0,0,0,0,0,0,-1,1133,1156,0,0
-84,-132,0,0,0,0,0,0,0,0,0,-1,1140,1156,0,0
-77,-132,0,0,0,0,0,0,0,0,0,-1,1147,1156,0,0
-70,-132,0,0,0,0,0,0,0,0,0,-1,1154,1156,0,0
-63,-132,0,0,0,0,0,0,0,0,0,-1,1161,1156,0,0
-56,-132,0,0,0,0,0,0,0,0,0,-1,1168,1156,0,0
-49,-132,0,0,0,0,0,0,0,0,0,-1,1175,1156,0,0
-42,-132,0,0,0,0,0,0,0,0,0,-1,1182,1156,0,0
-35,-132,0,0,0,0,0,0,0,0,0,-1,1189,1156,0,0
-28,-132,0,0,0,0,0,0,0,0,0,-1,1196,1156,0,0
-21,-132,0,0,0,0,0,0,0,0,0,-1,1203,1156,0,0
-14,-132,0,0,0,0,0,0,0,0,0,-1,1210,1156,0,0
-7,-132,0,0,0,0,0,0,0,0,0,-1,1217,1156,0,0
0,-132,0,0,0,0,0,0,0,0,0,-1,1224,1156,0,0
7,-132,0,0,0,0,0,0,0,0,0,-1,1231,1156,0,0
14,-132,0,0,0,0,0,0,0,0,0,-1,1238,1156,0,0
21,-132,0,0,0,0,0,0,0,0,0,-1,1245,1156,0,0
28,-132,0,0,0,0,0,0,0,0,0,-1,1252,1156,0,0
35,-132,0,0,0,0,0,0,0,0,0,-1,1259,1156,0,0
42,-132,0,0,0,0,0,0,0,0,0,-1,1266,1156,0,0
49,-132,0,0,0,0,0,0,0,0,0,-1,1273,1156,0,0
56,-132,0,0,0,0,0,0,0,0,0,-1,1280,1156,0,0
63,-132,0,0,0,0,0,0,0,0,0,-1,1287,1156,0,0
70,-132,0,0,0,0,0,0,0,0,0,-1,1294,1156,0,0
77,-132,0,0,0,0,0,0,0,0,0,-1,1301,1156,0,0
84,-132,0,0,0,0,0,0,0,0,0,-1,1308,1156,0,0
91,-132,0,0,0,0,0,0,0,0,0,-1,1315,1156,0,0
98,-132,0,0,0,0,0,0,0,0,0,-1,1322,1156,0,0
105,-132,0,0,0,0,0,0,0,0,0,-1,1329,1156,0,0
112,-132,0,0,0,0,0,0,0,0,0,-1,1336,1156,0,0
119,-132,0,0,0,0,0,0,0,0,0,-1,1343,1156,0,0
126,-132,0,0,0,0,0,0,0,0,0,-1,1350,1156,0,0
133,-132,0,0,0,0,0,0,0,0,0,-1,1357,1156,0,0
140,-132,0,0,0,0,0,0,0,0,0,-1,1364,1156,0,0
147,-132,0,0,0,0,0,0,0,0,0,-1,1371,1156,0,0
154,-132,0,0,0,0,0,0,0,0,0,-1,1378,1156,0,0
161,-132,0,0,0,0,0,0,0,0,0,-1,1385,1156,0,0
168,-132,0,0,0,0,0,0,0,0,0,-1,1392,1156,0,0
175,-132,0,0,0,0,0,0,0,0,0,-1,1399,1156,0,0
182,-132,0,0,0,0,0,0,0,0,0,-1,1406,1156,0,0
189,-132,0,0,0,0,0,0,0,0,0,-1,1413,1156,0,0
196,-132,0,0,0,0,0,0,0,0,0,-1,1420,1156,0,0
203,-132,0,0,0,0,0,0,0,0,0,-1,1427,1156,0,0
210,-132,0,0,0,0,0,0,0,0,0,-1,1434,1156,0,0
217,-132,0,0,0,0,0,0,0,0,0,-1,1441,1156,0,0
224,-132,0,0,0,0,0,0,0,0,0,-1,1448,1156,0,0
231,-132,0,0,0,0,0,0,0,0,0,-1,1455,1156,0,0
238,-132,0,0,0,0,0,0,0,0,0,-1,1462,1156,0,0
245,-132,0,0,0,0,0,0,0,0,0,-1,1469,1156,0,0
252,-132,0,0,0,0,0,0,0,0,0,-1,1476,1156,0,0
259,-132,0,0,0,0,0,0,0,0,0,-1,1483,1156,0,0
266,-132,0,0,0,0,0,0,0,0,0,-1,1490,1156,0,0
273,-132,0,0,0,0,0,0,0,0,0,-1,1497,1156,0,0
280,-132,0,0,0,0,0,0,0,0,0,-1,1504,1156,0,0
287,-132,0,0,0,0,0,0,0,0,0,-1,1511,1156,0,0
294,-132,0,0,0,0,0,0,0,0,0,-1,1518,1156,0,0
301,-132,0,0,0,0,0,0,0,0,0,-1,1525,1156,0,0
308,-132,0,0,0,0,0,0,0,0,0,-1,1532,1156,0,0
315,-132,0,0,0,0,0,0,0,0,0,-1,1539,1156,0,0
322,-132,0,0,0,0,0,0,0,0,0,-1,1546,1156,0,0
329,-132,0,0,0,0,0,0,0,0,0,-1,1553,1156,0,0
336,-132,0,0,0,0,0,0,0,0,0,-1,1560,1156,0,0
343,-132,0,0,0,0,0,0,0,0,0,-1,1567,1156,0,0
350,-132,0,0,0,0,0,0,0,0,0,-1,1574,1156,0,0
357,-132,0,0,0,0,0,0,0,0,0,-1,1581,1156,0,0
364,-132,0,0,0,0,0,0,0,0,0,-1,1588,1156,0,0
371,-132,0,0,0,0,0,0,0,0,0,-1,1595,1156,0,0
378,-132,0,0,0,0,0,0,0,0,0,-1,1602,1156,0,0
385,-132,0,0,0,0,0,0,0,0,0,-1,1609,1156,0,0
392,-132,0,0,0,0,0,0,0,0,0,-1,1616,1156,0,0
399,-132,0,0,0,0,0,0,0,0,0,-1,1623,1156,0,0
406,-132,0,0,0,0,0,0,0,0,0,-1,1630,1156,0,0
413,-132,0,0,0,0,0,0,0,0,0,-1,1637,1156,0,0
420,-132,0,0,0,0,0,0,0,0,0,-1,1644,1156,0,0
427,-132,0,0,0,0,0,0,0,0,0,-1,1651,1156,0,0
434,-132,0,0,0,0,0,0,0,0,0,-1,1658,1156,0,0
441,-132,0,0,0,0,0,0,0,0,0,-1,1665,1156,0,0
448,-132,0,0,0,0,0,0,0,0,0,-1,1672,1156,0,0
455,-132,0,0,0,0,0,0,0,0,0,-1,1679,1156,0,0
462,-132,0,0,0,0,0,0,0,0,0,-1,1686,1156,0,0
469,-132,0,0,0,0,0,0,0,0,0,-1,1693,1156,0,0
476,-132,0,0,0,0,0,0,0,0,0,-1,1700,1156,0,0
483,-132,0,0,0,0,0,0,0,0,0,-1,1707,1156,0,0
490,-132,0,0,0,0,0,0,0,0,0,-1,1714,1156,0,0
497,-132,0,0,0,0,0,0,0,0,0,-1,1721,1156,0,0
504,-132,0,0,0,0,0,0,0,0,0,-1,1728,1156,0,0
511,-132,0,0,0,0,0,0,0,0,0,-1,1735,1156,0,0
518,-132,0,0,0,0,0,0,0,0,0,-1,1742,1156,0,0
525,-132,0,0,0,0,0,0,0,0,0,-1,1749,1156,0,0
532,-132,0,0,0,0,0,0,0,0,0,-1,1756,1156,0,0
539,-132,0,0,0,0,0,0,0,0,0,-1,1763,1156,0,0
546,-132,0,0,0,0,0,0,0,0,0,-1,1770,1156,0,0
553,-132,0,0,0,0,0,0,0,0,0,-1,1777,1156,0,0
560,-132,0,0,0,0,0,0,0,0,0,-1,1784,1156,0,0
567,-132,0,0,0,0,0,0,0,0,0,-1,1791,1156,0,0
574,-132,0,0,0,0,0,0,0,0,0,-1,1798,1156,0,0
581,-132,0,0,0,0,0,0,0,0,0,-1,1805,1156,0,0
588,-132,0,0,0,0,0,0,0,0,0,-1,1812,1156,0,0
595,-132,0,0,0,0,0,0,0,0,0,-1,1819,1156,0,0
602,-132,0,0,0,0,0,0,0,0,0,-1,1826,1156,0,0
609,-132,0,0,0,0,0,0,0,0,0,-1,1833,1156,0,0
616,-132,0,0,0,0,0,0,0,0,0,-1,1840,1156,0,0
623,-132,0,0,0,0,0,0,0,0,0,-1,1847,1156,0,0
630,-132,0,0,0,0,0,0,0,0,0,-1,1854,1156,0,0
637,-132,0,0,0,0,0,0,0,0,0,-1,1861,1156,0,0
644,-132,33.6199,2.94055,0.00131309,-0.00342905,-0.000812477,0.00144843,-0.00356439,-0.165062,0.00297886,0.0434076,1868,1156,33.6199,-2.94054
651,-132,33.2169,2.95557,0.00159994,-0.00262916,-0.000779746,0.00173913,-0.00276834,-0.176641,0.0026249,0.0425779,1875,1156,33.2169,-2.95561
658,-132,33.3201,3.05823,0.00186891,-0.00201314,-0.000732268,0.00200244,-0.00214668,-0.180375,0.00239598,0.0403786,1882,1156,33.32,-3.05819
665,-132,33.3671,3.05933,0.0020845,-0.00148239,-0.000691758,0.00221396,-0.00161185,-0.185006,0.00221793,0.0397007,1889,1156,33.3671,-3.05938
672,-132,33.3743,2.99451,0.002161,-0.00109575,-0.000663072,0.00229082,-0.00122557,-0.193349,0.00206101,0.0393211,1896,1156,33.3743,-2.99447
679,-132,33.5615,2.92712,0.00162107,-0.000811687,-0.000585438,0.00175463,-0.000945239,-0.224286,0.00158194,0.0389111,1903,1156,33.5615,-2.9271
686,-132,33.6116,2.9137,0.000904764,-0.000696923,-0.000480912,0.00103807,-0.000830224,-0.270396,0.00108088,0.0365766,1910,1156,33.6116,-2.91367
693,-132,33.5231,2.92456,0.000375902,-0.000481948,-0.0004263,0.000551716,-0.000657762,-0.391165,0.000699186,0.0303093,1917,1156,33.523,-2.92462
700,-132,33.5651,2.88293,5.49518e-07,-0.000412573,-0.000305966,0.000163154,-0.000575177,-0.488485,0.000447854,0.0353023,1924,1156,33.5651,-2.88297
707,-132,33.6418,2.86731,0,0,0,0,0,0,0,-1,1931,1156,33.6419,-2.86729
714,-132,30.5138,6.10718,0,0,0,0,0,0,0,-1,1938,1156,30.5138,-6.10721
721,-132,30.6157,5.8927,-0.00159743,4.71607e-05,0.000405422,0.000141673,-0.00169195,1.34177,0.00117803,0.0275211,1945,1156,30.6157,-5.89265
728,-132,30.6288,5.672,-0.00180064,0.000306078,0.000477605,0.000409296,-0.00190386,1.35795,0.0014254,0.0191507,1952,1156,30.6288,-5.67199
735,-132,30.5862,5.46326,-0.00190715,0.000451761,0.000604721,0.00059775,-0.00205314,1.33391,0.00160554,0.0209382,1959,1156,30.5862,-5.46331
742,-132,30.6052,5.20874,-0.00177074,0.000615695,0.00097731,0.000964847,-0.00211989,1.22767,0.00182211,0.0194475,1966,1156,30.6052,-5.2087
749,-132,30.5994,5.02197,-0.00140631,0.000852399,0.00138653,0.00151131,-0.00206522,1.12716,0.00207315,0.0234072,1973,1156,30.5994,-5.02191
756,-132,30.592,4.79736,-0.000628815,0.000615152,0.00194387,0.00203413,-0.00204779,0.940237,0.0023567,0.0213806,1980,1156,30.592,-4.79736
763,-132,30.5791,4.59009,0.000549765,0.000163796,0.00256731,0.00293133,-0.00221777,0.747884,0.00298234,0.0135068,1987,1156,30.5791,-4.59006
770,-132,30.583,4.39856,0.00159172,-0.000718867,0.00331916,0.0039509,-0.00307805,0.617922,0.00406858,0.0133216,1994,1156,30.583,-4.39853
777,-132,30.6031,4.17664,0.00259334,-0.00214883,0.00418172,0.00502943,-0.00458491,0.527493,0.00555282,0.0215917,2001,1156,30.6031,-4.17668
784,-132,30.6804,3.96716,0.00341479,-0.00441871,0.00532073,0.00610493,-0.00710885,0.468115,0.00763632,0.0442387,2008,1156,30.6804,-3.96715
791,-132,30.7723,3.75549,0,0,0,0,0,0,0,-1,2015,1156,30.7723,-3.75548
798,-132,28.2893,4.19385,0.00426314,-0.0126614,0.00875396,0.00797632,-0.0163746,0.401169,0.014335,0.0487627,2022,1156,28.2893,-4.1938
805,-132,28.5967,4.65149,0.00433528,-0.0192891,0.0113193,0.00888321,-0.0238371,0.382045,0.0195376,0.0479268,2029,1156,28.5966,-4.65153
812,-132,28.8782,5.01746,0,0,0,0,0,0,0,-1,2036,1156,28.8781,-5.01749
-700,-139,0,0,0,0,0,0,0,0,0,-1,524,1163,0,0
-693,-139,-19.2154,-0.545654,0.0273416,-0.0108858,-0.011173,0.0303676,-0.0139119,-0.264492,0.0261466,0.0462219,531,1163,-19.2154,0.545698
-686,-139,-18.7906,0.410278,0.0250489,-0.00482914,-0.0126378,0.0296774,-0.00945765,-0.351072,0.0235785,0.0496124,538,1163,-18.7907,-0.410318
-679,-139,-18.2377,1.13245,0,0,0,0,0,0,0,-1,545,1163,-18.2377,-1.13245
-672,-139,-20.6559,2.06873,0,0,0,0,0,0,0,-1,552,1163,-20.6559,-2.06877
-665,-139,-21.2968,1.81384,0,0,0,0,0,0,0,-1,559,1163,-21.2968,-1.81388
-658,-139,-21.0705,1.71704,0.0154741,0.00386598,-0.008416,0.0198933,-0.000553279,-0.483527,0.0134504,0.0455711,566,1163,-21.0705,-1.7171
-651,-139,-20.6224,1.36877,0.0129232,0.00410528,-0.00677263,0.0165955,0.000432931,-0.496861,0.0109222,0.0425636,573,1163,-20.6224,-1.36877
-644,-139,-20.4799,1.37305,0.0105,0.00397263,-0.00518481,0.0133628,0.00110982,-0.504495,0.0085626,0.0223129,580,1163,-20.4799,-1.37303
-637,-139,-20.4688,1.64233,0.0081118,0.00401163,-0.00371524,0.010305,0.00181838,-0.533284,0.00635127,0.012482,587,1163,-20.4688,-1.64239
-630,-139,-20.4837,1.90747,0.00622321,0.00274452,-0.00274388,0.00773259,0.00123514,-0.502911,0.00479665,0.0101641,594,1163,-20.4837,-1.90742
-623,-139,-20.494,2.16064,0.00439185,0.00231298,-0.0013711,0.00507298,0.00163185,-0.461063,0.00299033,0.0153682,601,1163,-20.4939,-2.16064
-616,-139,-20.4822,2.37952,0.00330878,0.00152887,-0.000399984,0.00339453,0.00144312,-0.211196,0.00196714,0.0166453,608,1163,-20.4822,-2.37947
-609,-139,-20.3998,2.6604,0.00278579,0.00103465,0.000115013,0.00279331,0.00102713,0.0653051,0.00163143,0.028774,615,1163,-20.3999,-2.66041
-602,-139,-20.5978,2.90686,0.00243471,0.000857083,0.00043244,0.00254547,0.000746324,0.250736,0.00151095,0.0251523,622,1163,-20.5978,-2.90686
-595,-139,-20.6563,3.19885,0.00184019,0.00103427,0.000463439,0.00205136,0.000823106,0.427547,0.00119203,0.0261085,629,1163,-20.6563,-3.19884
-588,-139,-20.5314,3.52344,0.00132525,0.00136349,0.000295194,0.00164018,0.00104855,0.817739,0.000959128,0.023024,636,1163,-20.5314,-3.52341
-581,-139,-20.087,3.95837,0,0,0,0,0,0,0,-1,643,1163,-20.087,-3.95831
-574,-139,-20.5872,0.547607,0,0,0,0,0,0,0,-1,650,1163,-20.5872,-0.547586
-567,-139,-23.7463,0.98584,0,0,0,0,0,0,0,-1,657,1163,-23.7463,-0.985886
-560,-139,-23.7751,1.03003,0.0033863,0.0023235,-0.000993127,0.00398126,0.00172854,-0.539742,0.00230521,0.0364886,664,1163,-23.7752,-1.02997
-553,-139,-23.8118,1.16248,0.00390868,0.0027366,-0.00159461,0.00502154,0.00162375,-0.609303,0.00295888,0.0397137,671,1163,-23.8118,-1.16242
-546,-139,-23.9562,1.11182,0.00482675,0.00303018,-0.00266045,0.00673647,0.00112046,-0.622585,0.004168,0.0417092,678,1163,-23.9562,-1.11182
-539,-139,-23.8444,0.93103,0.006378,0.00322391,-0.00417099,0.00926012,0.000341786,-0.604656,0.0060627,0.0429728,685,1163,-23.8444,-0.931078
-532,-139,-23.7211,0.758423,0.00955312,0.0030762,-0.00613554,0.0132524,-0.000623102,-0.542571,0.0090498,0.0403503,692,1163,-23.7211,-0.758362
-525,-139,-23.4406,0.608643,0.0133131,0.00271878,-0.00839024,0.0179384,-0.00190657,-0.503823,0.0126425,0.0396315,699,1163,-23.4406,-0.6087
-518,-139,0,0,0,0,0,0,0,0,0,-1,706,1163,0,0
-511,-139,0,0,0,0,0,0,0,0,0,-1,713,1163,0,0
-504,-139,0,0,0,0,0,0,0,0,0,-1,720,1163,0,0
-497,-139,0,0,0,0,0,0,0,0,0,-1,727,1163,0,0
-490,-139,0,0,0,0,0,0,0,0,0,-1,734,1163,0,0
-483,-139,0,0,0,0,0,0,0,0,0,-1,741,1163,0,0
-476,-139,0,0,0,0,0,0,0,0,0,-1,748,1163,0,0
-469,-139,0,0,0,0,0,0,0,0,0,-1,755,1163,0,0
-462,-139,0,0,0,0,0,0,0,0,0,-1,762,1163,0,0
-455,-139,0,0,0,0,0,0,0,0,0,-1,769,1163,0,0
-448,-139,0,0,0,0,0,0,0,0,0,-1,776,1163,0,0
-441,-139,0,0,0,0,0,0,0,0,0,-1,783,1163,0,0
-434,-139,0,0,0,0,0,0,0,0,0,-1,790,1163,0,0
-427,-139,0,0,0,0,0,0,0,0,0,-1,797,1163,0,0
-420,-139,0,0,0,0,0,0,0,0,0,-1,804,1163,0,0
-413,-139,0,0,0,0,0,0,0,0,0,-1,811,1163,0,0
-406,-139,0,0,0,0,0,0,0,0,0,-1,818,1163,0,0
-399,-139,0,0,0,0,0,0,0,0,0,-1,825,1163,0,0
-392,-139,0,0,0,0,0,0,0,0,0,-1,832,1163,0,0
-385,-139,0,0,0,0,0,0,0,0,0,-1,839,1163,0,0
-378,-139,0,0,0,0,0,0,0,0,0,-1,846,1163,0,0
-371,-139,0,0,0,0,0,0,0,0,0,-1,853,1163,0,0
-364,-139,0,0,0,0,0,0,0,0,0,-1,860,1163,0,0
-357,-139,0,0,0,0,0,0,0,0,0,-1,867,1163,0,0
-350,-139,0,0,0,0,0,0,0,0,0,-1,874,1163,0,0
-343,-139,0,0,0,0,0,0,0,0,0,-1,881,1163,0,0
-336,-139,0,0,0,0,0,0,0,0,0,-1,888,1163,0,0
-329,-139,0,0,0,0,0,0,0,0,0,-1,895,1163,0,0
-322,-139,0,0,0,0,0,0,0,0,0,-1,902,1163,0,0
-315,-139,0,0,0,0,0,0,0,0,0,-1,909,1163,0,0
-308,-139,0,0,0,0,0,0,0,0,0,-1,916,1163,0,0
-301,-139,0,0,0,0,0,0,0,0,0,-1,923,1163,0,0
-294,-139,0,0,0,0,0,0,0,0,0,-1,930,1163,0,0
-287,-139,0,0,0,0,0,0,0,0,0,-1,937,1163,0,0
-280,-139,0,0,0,0,0,0,0,0,0,-1,944,1163,0,0
-273,-139,0,0,0,0,0,0,0,0,0,-1,951,1163,0,0
-266,-139,0,0,0,0,0,0,0,0,0,-1,958,1163,0,0
-259,-139,0,0,0,0,0,0,0,0,0,-1,965,1163,0,0
-252,-139,0,0,0,0,0,0,0,0,0,-1,972,1163,0,0
-245,-139,0,0,0,0,0,0,0,0,0,-1,979,1163,0,0
-238,-139,0,0,0,0,0,0,0,0,0,-1,986,1163,0,0
-231,-139,0,0,0,0,0,0,0,0,0,-1,993,1163,0,0
-224,-139,0,0,0,0,0,0,0,0,0,-1,1000,1163,0,0
-217,-139,0,0,0,0,0,0,0,0,0,-1,1007,1163,0,0
-210,-139,0,0,0,0,0,0,0,0,0,-1,1014,1163,0,0
-203,-139,0,0,0,0,0,0,0,0,0,-1,1021,1163,0,0
-196,-139,0,0,0,0,0,0,0,0,0,-1,1028,1163,0,0
-189,-139,0,0,0,0,0,0,0,0,0,-1,1035,1163,0,0
-182,-139,0,0,0,0,0,0,0,0,0,-1,1042,1163,0,0
-175,-139,0,0,0,0,0,0,0,0,0,-1,1049,1163,0,0
-168,-139,0,0,0,0,0,0,0,0,0,-1,1056,1163,0,0
-161,-139,0,0,0,0,0,0,0,0,0,-1,1063,1163,0,0
-154,-139,0,0,0,0,0,0,0,0,0,-1,1070,1163,0,0
-147,-139,0,0,0,0,0,0,0,0,0,-1,1077,1163,0,0
-140,-139,0,0,0,0,0,0,0,0,0,-1,1084,1163,0,0
-133,-139,0,0,0,0,0,0,0,0,0,-1,1091,1163,0,0
-126,-139,0,0,0,0,0,0,0,0,0,-1,1098,1163,0,0
-119,-139,0,0,0,0,0,0,0,0,0,-1,1105,1163,0,0
-112,-139,0,0,0,0,0,0,0,0,0,-1,1112,1163,0,0
-105,-139,0,0,0,0,0,0,0,0,0,-1,1119,1163,0,0
-98,-139,0,0,0,0,0,0,0,0,0,-1,1126,1163,0,0
-91,-139,0,0,0,0,0,0,0,0,0,-1,1133,1163,0,0
-84,-139,0,0,0,0,0,0,0,0,0,-1,1140,1163,0,0
-77,-139,0,0,0,0,0,0,0,0,0,-1,1147,1163,0,0
-70,-139,0,0,0,0,0,0,0,0,0,-1,1154,1163,0,0
-63,-139,0,0,0,0,0,0,0,0,0,-1,1161,1163,0,0
-56,-139,0,0,0,0,0,0,0,0,0,-1,1168,1163,0,0
-49,-139,0,0,0,0,0,0,0,0,0,-1,1175,1163,0,0
-42,-139,0,0,0,0,0,0,0,0,0,-1,1182,1163,0,0
-35,-139,0,0,0,0,0,0,0,0,0,-1,1189,1163,0,0
-28,-139,0,0,0,0,0,0,0,0,0,-1,1196,1163,0,0
-21,-139,0,0,0,0,0,0,0,0,0,-1,1203,1163,0,0
-14,-139,0,0,0,0,0,0,0,0,0,-1,1210,1163,0,0
-7,-139,0,0,0,0,0,0,0,0,0,-1,1217,1163,0,0
0,-139,0,0,0,0,0,0,0,0,0,-1,1224,1163,0,0
7,-139,0,0,0,0,0,0,0,0,0,-1,1231,1163,0,0
14,-139,0,0,0,0,0,0,0,0,0,-1,1238,1163,0,0
21,-139,0,0,0,0,0,0,0,0,0,-1,1245,1163,0,0
28,-139,0,0,0,0,0,0,0,0,0,-1,1252,1163,0,0
35,-139,0,0,0,0,0,0,0,0,0,-1,1259,1163,0,0
42,-139,0,0,0,0,0,0,0,0,0,-1,1266,1163,0,0
49,-139,0,0,0,0,0,0,0,0,0,-1,1273,1163,0,0
56,-139,0,0,0,0,0,0,0,0,0,-1,1280,1163,0,0
63,-139,0,0,0,0,0,0,0,0,0,-1,1287,1163,0,0
70,-139,0,0,0,0,0,0,0,0,0,-1,1294,1163,0,0
77,-139,0,0,0,0,0,0,0,0,0,-1,1301,1163,0,0
84,-139,0,0,0,0,0,0,0,0,0,-1,1308,1163,0,0
91,-139,0,0,0,0,0,0,0,0,0,-1,1315,1163,0,0
98,-139,0,0,0,0,0,0,0,0,0,-1,1322,1163,0,0
105,-139,0,0,0,0,0,0,0,0,0,-1,1329,1163,0,0
112,-139,0,0,0,0,0,0,0,0,0,-1,1336,1163,0,0
119,-139,0,0,0,0,0,0,0,0,0,-1,1343,1163,0,0
126,-139,0,0,0,0,0,0,0,0,0,-1,1350,1163,0,0
133,-139,0,0,0,0,0,0,0,0,0,-1,1357,1163,0,0
140,-139,0,0,0,0,0,0,0,0,0,-1,1364,1163,0,0
147,-139,0,0,0,0,0,0,0,0,0,-1,1371,1163,0,0
154,-139,0,0,0,0,0,0,0,0,0,-1,1378,1163,0,0
161,-139,0,0,0,0,0,0,0,0,0,-1,1385,1163,0,0
168,-139,0,0,0,0,0,0,0,0,0,-1,1392,1163,0,0
175,-139,0,0,0,0,0,0,0,0,0,-1,1399,1163,0,0
182,-139,0,0,0,0,0,0,0,0,0,-1,1406,1163,0,0
189,-139,0,0,0,0,0,0,0,0,0,-1,1413,1163,0,0
196,-139,0,0,0,0,0,0,0,0,0,-1,1420,1163,0,0
203,-139,0,0,0,0,0,0,0,0,0,-1,1427,1163,0,0
210,-139,0,0,0,0,0,0,0,0,0,-1,1434,1163,0,0
217,-139,0,0,0,0,0,0,0,0,0,-1,1441,1163,0,0
224,-139,0,0,0,0,0,0,0,0,0,-1,1448,1163,0,0
231,-139,0,0,0,0,0,0,0,0,0,-1,1455,1163,0,0
238,-139,0,0,0,0,0,0,0,0,0,-1,1462,1163,0,0
245,-139,0,0,0,0,0,0,0,0,0,-1,1469,1163,0,0
252,-139,0,0,0,0,0,0,0,0,0,-1,1476,1163,0,0
259,-139,0,0,0,0,0,0,0,0,0,-1,1483,1163,0,0
266,-139,0,0,0,0,0,0,0,0,0,-1,1490,1163,0,0
273,-139,0,0,0,0,0,0,0,0,0,-1,1497,1163,0,0
280,-139,0,0,0,0,0,0,0,0,0,-1,1504,1163,0,0
287,-139,0,0,0,0,0,0,0,0,0,-1,1511,1163,0,0
294,-139,0,0,0,0,0,0,0,0,0,-1,1518,1163,0,0
301,-139,0,0,0,0,0,0,0,0,0,-1,1525,1163,0,0
308,-139,0,0,0,0,0,0,0,0,0,-1,1532,1163,0,0
315,-139,0,0,0,0,0,0,0,0,0,-1,1539,1163,0,0
322,-139,0,0,0,0,0,0,0,0,0,-1,1546,1163,0,0
329,-139,0,0,0,0,0,0,0,0,0,-1,1553,1163,0,0
336,-139,0,0,0,0,0,0,0,0,0,-1,1560,1163,0,0
343,-139,0,0,0,0,0,0,0,0,0,-1,1567,1163,0,0
350,-139,0,0,0,0,0,0,0,0,0,-1,1574,1163,0,0
357,-139,0,0,0,0,0,0,0,0,0,-1,1581,1163,0,0
364,-139,0,0,0,0,0,0,0,0,0,-1,1588,1163,0,0
371,-139,0,0,0,0,0,0,0,0,0,-1,1595,1163,0,0
378,-139,0,0,0,0,0,0,0,0,0,-1,1602,1163,0,0
385,-139,0,0,0,0,0,0,0,0,0,-1,1609,1163,0,0
392,-139,0,0,0,0,0,0,0,0,0,-1,1616,1163,0,0
399,-139,0,0,0,0,0,0,0,0,0,-1,1623,1163,0,0
406,-139,0,0,0,0,0,0,0,0,0,-1,1630,1163,0,0
413,-139,0,0,0,0,0,0,0,0,0,-1,1637,1163,0,0
420,-139,0,0,0,0,0,0,0,0,0,-1,1644,1163,0,0
427,-139,0,0,0,0,0,0,0,0,0,-1,1651,1163,0,0
434,-139,0,0,0,0,0,0,0,0,0,-1,1658,1163,0,0
441,-139,0,0,0,0,0,0,0,0,0,-1,1665,1163,0,0
448,-139,0,0,0,0,0,0,0,0,0,-1,1672,1163,0,0
455,-139,0,0,0,0,0,0,0,0,0,-1,1679,1163,0,0
462,-139,0,0,0,0,0,0,0,0,0,-1,1686,1163,0,0
469,-139,0,0,0,0,0,0,0,0,0,-1,1693,1163,0,0
476,-139,0,0,0,0,0,0,0,0,0,-1,1700,1163,0,0
483,-139,0,0,0,0,0,0,0,0,0,-1,1707,1163,0,0
490,-139,0,0,0,0,0,0,0,0,0,-1,1714,1163,0,0
497,-139,0,0,0,0,0,0,0,0,0,-1,1721,1163,0,0
504,-139,0,0,0,0,0,0,0,0,0,-1,1728,1163,0,0
511,-139,0,0,0,0,0,0,0,0,0,-1,1735,1163,0,0
518,-139,0,0,0,0,0,0,0,0,0,-1,1742,1163,0,0
525,-139,0,0,0,0,0,0,0,0,0,-1,1749,1163,0,0
532,-139,0,0,0,0,0,0,0,0,0,-1,1756,1163,0,0
539,-139,0,0,0,0,0,0,0,0,0,-1,1763,1163,0,0
546,-139,0,0,0,0,0,0,0,0,0,-1,1770,1163,0,0
553,-139,0,0,0,0,0,0,0,0,0,-1,1777,1163,0,0
560,-139,0,0,0,0,0,0,0,0,0,-1,1784,1163,0,0
567,-139,0,0,0,0,0,0,0,0,0,-1,1791,1163,0,0
574,-139,0,0,0,0,0,0,0,0,0,-1,1798,1163,0,0
581,-139,0,0,0,0,0,0,0,0,0,-1,1805,1163,0,0
588,-139,0,0,0,0,0,0,0,0,0,-1,1812,1163,0,0
595,-139,0,0,0,0,0,0,0,0,0,-1,1819,1163,0,0
602,-139,0,0,0,0,0,0,0,0,0,-1,1826,1163,0,0
609,-139,0,0,0,0,0,0,0,0,0,-1,1833,1163,0,0
616,-139,0,0,0,0,0,0,0,0,0,-1,1840,1163,0,0
623,-139,0,0,0,0,0,0,0,0,0,-1,1847,1163,0,0
630,-139,0,0,0,0,0,0,0,0,0,-1,1854,1163,0,0
637,-139,0,0,0,0,0,0,0,0,0,-1,1861,1163,0,0
644,-139,33.5198,2.84985,0.000479067,-0.00321626,-0.000663219,0.000594493,-0.00333168,-0.172313,0.00244351,0.0422999,1868,1163,33.5198,-2.84988
651,-139,33.4143,3.06079,0.00102073,-0.00241053,-0.000720015,0.0011657,-0.0025555,-0.198677,0.00219781,0.0400803,1875,1163,33.4143,-3.06074
658,-139,33.468,3.15601,0.00153311,-0.00171619,-0.000775298,0.00170862,-0.0018917,-0.222625,0.00207954,0.0383472,1882,1163,33.468,-3.15599
665,-139,33.4902,3.10339,0.00197461,-0.00113586,-0.000824713,0.00217975,-0.00134099,-0.243789,0.00205184,0.0348748,1889,1163,33.4903,-3.10339
672,-139,33.5731,3.09692,0.00215585,-0.000762662,-0.000822678,0.00237178,-0.000978586,-0.256675,0.0019893,0.0360214,1896,1163,33.5731,-3.09693
679,-139,33.713,2.90381,0.00159397,-0.000515071,-0.000713637,0.00181275,-0.00073385,-0.297472,0.00151362,0.0354073,1903,1163,33.713,-2.90381
686,-139,33.5936,2.94263,0.000831004,-0.000473969,-0.000553417,0.00103409,-0.000677058,-0.351714,0.000995076,0.0323147,1910,1163,33.5936,-2.94259
693,-139,33.5071,2.87915,0.000259503,-0.000310526,-0.000452457,0.000509233,-0.000560255,-0.504331,0.000617703,0.0238581,1917,1163,33.5071,-2.87913
700,-139,33.6091,2.89893,0,0,0,0,0,0,0,-1,1924,1163,33.6091,-2.89899
707,-139,30.7896,6.61157,0,0,0,0,0,0,0,-1,1931,1163,30.7896,-6.61157
714,-139,30.434,6.18884,-0.0012653,-0.000141745,0.000245567,-9.0418e-05,-0.00131662,1.36475,0.000849216,0.0444109,1938,1163,30.434,-6.18879
721,-139,30.3942,5.84839,-0.00180131,5.81207e-05,0.000453277,0.000162732,-0.00190592,1.34398,0.00132818,0.025606,1945,1163,30.3941,-5.8484
728,-139,30.3682,5.66565,-0.00206087,0.000292672,0.000587591,0.000431216,-0.00219942,1.33924,0.00162915,0.0275776,1952,1163,30.3682,-5.66567
735,-139,30.3097,5.51648,-0.00225082,0.000394393,0.000795366,0.000615125,-0.00247156,1.30009,0.00188648,0.0210814,1959,1163,30.3097,-5.51649
742,-139,30.3323,5.19543,-0.00213767,0.000482854,0.00122248,0.000964584,-0.0026194,1.19542,0.00214148,0.0215956,1966,1163,30.3323,-5.19539
749,-139,30.3231,4.97375,-0.00183684,0.000575589,0.00168126,0.00143857,-0.00269982,1.09657,0.00242601,0.0184822,1973,1163,30.3231,-4.97377
756,-139,30.3196,4.78796,-0.00126066,0.000345296,0.00224401,0.00192567,-0.00284103,0.957215,0.00276892,0.0102824,1980,1163,30.3196,-4.788
763,-139,30.326,4.57434,-0.000469784,-4.51996e-05,0.00286098,0.00261135,-0.00312634,0.822432,0.0033171,0.0102689,1987,1163,30.326,-4.57431
770,-139,30.343,4.36621,9.84275e-05,-0.000925433,0.00361885,0.00324138,-0.00406839,0.715133,0.00422929,0.0117523,1994,1163,30.343,-4.36615
777,-139,30.3884,4.2218,0.000478268,-0.00226865,0.0044448,0.00375697,-0.00554735,0.63555,0.0054049,0.0224456,2001,1163,30.3884,-4.22177
784,-139,30.4999,4.04041,0.00044822,-0.00430096,0.00547619,0.00404249,-0.00789523,0.580823,0.00701088,0.0423377,2008,1163,30.4998,-4.04037
791,-139,30.6344,3.82764,0,0,0,0,0,0,0,-1,2015,1163,30.6343,-3.82766
798,-139,29.1475,4.31897,-0.00110309,-0.0110849,0.00824836,0.00354677,-0.0157348,0.513325,0.0118504,0.0477445,2022,1163,29.1474,-4.31897
805,-139,28.6792,4.74438,-0.00253499,-0.0160562,0.0101076,0.00286458,-0.0214557,0.490638,0.0153481,0.0480446,2029,1163,28.6792,-4.74433
812,-139,0,0,0,0,0,0,0,0,0,-1,2036,1163,0,0
-700,-146,0,0,0,0,0,0,0,0,0,-1,524,1170,0,0
-693,-146,-18.7496,-0.0541992,0.0276538,-0.0165785,-0.0138413,0.031628,-0.0205527,-0.279604,0.0303519,0.0411744,531,1170,-18.7496,0.0541936
-686,-146,-18.2213,0.704102,0.0261034,-0.00865613,-0.0145827,0.0314109,-0.0139636,-0.349056,0.0268348,0.048083,538,1170,-18.2213,-0.70415
-679,-146,-20.0676,1.94666,0,0,0,0,0,0,0,-1,545,1170,-20.0676,-1.94671
-672,-146,-20.3512,1.85132,0.0218993,-0.000111679,-0.0120464,0.0272105,-0.00542297,-0.415262,0.0201922,0.043753,552,1170,-20.3512,-1.85134
-665,-146,-20.6105,1.73816,0.01934,0.00200025,-0.0101483,0.0240175,-0.00267732,-0.4319,0.0169747,0.0458536,559,1170,-20.6105,-1.73818
-658,-146,-20.4545,1.44421,0.016681,0.00317139,-0.008207,0.0205555,-0.000703116,-0.441077,0.013944,0.046233,566,1170,-20.4545,-1.44422
-651,-146,-20.3094,1.26672,0.0139391,0.00369027,-0.00632952,0.0169586,0.00067083,-0.445112,0.0110889,0.038197,573,1170,-20.3094,-1.26675
-644,-146,-20.1716,1.31787,0.0112929,0.00375008,-0.00462166,0.0134867,0.00155632,-0.443179,0.00851985,0.0203202,580,1170,-20.1716,-1.31786
-637,-146,-20.1738,1.60999,0.0086605,0.00389653,-0.00318867,0.0102587,0.00229838,-0.464604,0.00621626,0.0109585,587,1170,-20.1738,-1.60995
-630,-146,-20.1966,1.89697,0.00665498,0.00303281,-0.00216606,0.00766734,0.00202045,-0.437208,0.00458882,0.0102965,594,1170,-20.1966,-1.89702
-623,-146,-20.2192,2.16113,0.00447685,0.00244246,-0.000972615,0.00486702,0.0020523,-0.381499,0.00282144,0.0129869,601,1170,-20.2192,-2.16114
-616,-146,-20.2537,2.40271,0.00298341,0.00173552,-0.000209844,0.00301775,0.00170118,-0.162217,0.00174701,0.0191958,608,1170,-20.2536,-2.40276
-609,-146,-20.1345,2.70215,0.0022383,0.00121286,9.3492e-05,0.00224676,0.0012044,0.0901815,0.00129829,0.0197794,615,1170,-20.1344,-2.7021
-602,-146,-19.8845,3.0083,0,0,0,0,0,0,0,-1,622,1170,-19.8845,-3.00825
-595,-146,-20.4327,3.24634,0,0,0,0,0,0,0,-1,629,1170,-20.4327,-3.24636
-588,-146,-20.4526,3.4469,0,0,0,0,0,0,0,-1,636,1170,-20.4526,-3.44691
-581,-146,-19.5173,3.92969,0,0,0,0,0,0,0,-1,643,1170,-19.5173,-3.92965
-574,-146,-17.9915,3.79114,0,0,0,0,0,0,0,-1,650,1170,-17.9915,-3.79118
-567,-146,-23.6929,0.721313,0,0,0,0,0,0,0,-1,657,1170,-23.6929,-0.721281
-560,-146,-23.7502,0.970825,0.00260939,0.00249612,-0.00122634,0.0037804,0.00132511,-0.762323,0.00221489,0.0378692,664,1170,-23.7502,-0.970801
-553,-146,-23.7447,1.22571,0.00320575,0.00283347,-0.00169999,0.00472977,0.00130946,-0.730867,0.00281992,0.0378182,671,1170,-23.7447,-1.22575
-546,-146,-23.7497,1.23267,0.00430859,0.00300193,-0.00248551,0.00622521,0.00108531,-0.656878,0.00383984,0.0431609,678,1170,-23.7497,-1.23267
-539,-146,-23.6801,0.778687,0,0,0,0,0,0,0,-1,685,1170,-23.6801,-0.778677
-532,-146,-23.6603,0.692261,0.0092561,0.00273316,-0.0048161,0.0118112,0.000178103,-0.487768,0.00781541,0.0407634,692,1170,-23.6603,-0.692291
-525,-146,-23.4614,0.711304,0.0132001,0.00215494,-0.00643778,0.0161595,-0.000804461,-0.430885,0.0110509,0.042743,699,1170,-23.4614,-0.711322
-518,-146,0,0,0,0,0,0,0,0,0,-1,706,1170,0,0
-511,-146,0,0,0,0,0,0,0,0,0,-1,713,1170,0,0
-504,-146,0,0,0,0,0,0,0,0,0,-1,720,1170,0,0
-497,-146,0,0,0,0,0,0,0,0,0,-1,727,1170,0,0
-490,-146,0,0,0,0,0,0,0,0,0,-1,734,1170,0,0
-483,-146,0,0,0,0,0,0,0,0,0,-1,741,1170,0,0
-476,-146,0,0,0,0,0,0,0,0,0,-1,748,1170,0,0
-469,-146,0,0,0,0,0,0,0,0,0,-1,755,1170,0,0
-462,-146,0,0,0,0,0,0,0,0,0,-1,762,1170,0,0
-455,-146,0,0,0,0,0,0,0,0,0,-1,769,1170,0,0
-448,-146,0,0,0,0,0,0,0,0,0,-1,776,1170,0,0
-441,-146,0,0,0,0,0,0,0,0,0,-1,783,1170,0,0
-434,-146,0,0,0,0,0,0,0,0,0,-1,790,1170,0,0
-427,-146,0,0,0,0,0,0,0,0,0,-1,797,1170,0,0
-420,-146,0,0,0,0,0,0,0,0,0,-1,804,1170,0,0
-413,-146,0,0,0,0,0,0,0,0,0,-1,811,1170,0,0
-406,-146,0,0,0,0,0,0,0,0,0,-1,818,1170,0,0
-399,-146,0,0,0,0,0,0,0,0,0,-1,825,1170,0,0
-392,-146,0,0,0,0,0,0,0,0,0,-1,832,1170,0,0
-385,-146,0,0,0,0,0,0,0,0,0,-1,839,1170,0,0
-378,-146,0,0,0,0,0,0,0,0,0,-1,846,1170,0,0
-371,-146,0,0,0,0,0,0,0,0,0,-1,853,1170,0,0
-364,-146,0,0,0,0,0,0,0,0,0,-1,860,1170,0,0
-357,-146,0,0,0,0,0,0,0,0,0,-1,867,1170,0,0
-350,-146,0,0,0,0,0,0,0,0,0,-1,874,1170,0,0
-343,-146,0,0,0,0,0,0,0,0,0,-1,881,1170,0,0
-336,-146,0,0,0,0,0,0,0,0,0,-1,888,1170,0,0
-329,-146,0,0,0,0,0,0,0,0,0,-1,895,1170,0,0
-322,-146,0,0,0,0,0,0,0,0,0,-1,902,1170,0,0
-315,-146,0,0,0,0,0,0,0,0,0,-1,909,1170,0,0
-308,-146,0,0,0,0,0,0,0,0,0,-1,916,1170,0,0
-301,-146,0,0,0,0,0,0,0,0,0,-1,923,1170,0,0
-294,-146,0,0,0,0,0,0,0,0,0,-1,930,1170,0,0
-287,-146,0,0,0,0,0,0,0,0,0,-1,937,1170,0,0
-280,-146,0,0,0,0,0,0,0,0,0,-1,944,1170,0,0
-273,-146,0,0,0,0,0,0,0,0,0,-1,951,1170,0,0
-266,-146,0,0,0,0,0,0,0,0,0,-1,958,1170,0,0
-259,-146,0,0,0,0,0,0,0,0,0,-1,965,1170,0,0
-252,-146,0,0,0,0,0,0,0,0,0,-1,972,1170,0,0
-245,-146,0,0,0,0,0,0,0,0,0,-1,979,1170,0,0
-238,-146,0,0,0,0,0,0,0,0,0,-1,986,1170,0,0
-231,-146,0,0,0,0,0,0,0,0,0,-1,993,1170,0,0
-224,-146,0,0,0,0,0,0,0,0,0,-1,1000,1170,0,0
-217,-146,0,0,0,0,0,0,0,0,0,-1,1007,1170,0,0
-210,-146,0,0,0,0,0,0,0,0,0,-1,1014,1170,0,0
-203,-146,0,0,0,0,0,0,0,0,0,-1,1021,1170,0,0
-196,-146,0,0,0,0,0,0,0,0,0,-1,1028,1170,0,0
-189,-146,0,0,0,0,0,0,0,0,0,-1,1035,1170,0,0
-182,-146,0,0,0,0,0,0,0,0,0,-1,1042,1170,0,0
-175,-146,0,0,0,0,0,0,0,0,0,-1,1049,1170,0,0
-168,-146,0,0,0,0,0,0,0,0,0,-1,1056,1170,0,0
-161,-146,0,0,0,0,0,0,0,0,0,-1,1063,1170,0,0
-154,-146,0,0,0,0,0,0,0,0,0,-1,1070,1170,0,0
-147,-146,0,0,0,0,0,0,0,0,0,-1,1077,1170,0,0
-140,-146,0,0,0,0,0,0,0,0,0,-1,1084,1170,0,0
-133,-146,0,0,0,0,0,0,0,0,0,-1,1091,1170,0,0
-126,-146,0,0,0,0,0,0,0,0,0,-1,1098,1170,0,0
-119,-146,0,0,0,0,0,0,0,0,0,-1,1105,1170,0,0
-112,-146,0,0,0,0,0,0,0,0,0,-1,1112,1170,0,0
-105,-146,0,0,0,0,0,0,0,0,0,-1,1119,1170,0,0
-98,-146,0,0,0,0,0,0,0,0,0,-1,1126,1170,0,0
-91,-146,0,0,0,0,0,0,0,0,0,-1,1133,1170,0,0
-84,-146,0,0,0,0,0,0,0,0,0,-1,1140,1170,0,0
-77,-146,0,0,0,0,0,0,0,0,0,-1,1147,1170,0,0
-70,-146,0,0,0,0,0,0,0,0,0,-1,1154,1170,0,0
-63,-146,0,0,0,0,0,0,0,0,0,-1,1161,1170,0,0
-56,-146,0,0,0,0,0,0,0,0,0,-1,1168,1170,0,0
-49,-146,0,0,0,0,0,0,0,0,0,-1,1175,1170,0,0
-42,-146,0,0,0,0,0,0,0,0,0,-1,1182,1170,0,0
-35,-146,0,0,0,0,0,0,0,0,0,-1,1189,1170,0,0
-28,-146,0,0,0,0,0,0,0,0,0,-1,1196,1170,0,0
-21,-146,0,0,0,0,0,0,0,0,0,-1,1203,1170,0,0
-14,-146,0,0,0,0,0,0,0,0,0,-1,1210,1170,0,0
-7,-146,0,0,0,0,0,0,0,0,0,-1,1217,1170,0,0
0,-146,0,0,0,0,0,0,0,0,0,-1,1224,1170,0,0
7,-146,0,0,0,0,0,0,0,0,0,-1,1231,1170,0,0
14,-146,0,0,0,0,0,0,0,0,0,-1,1238,1170,0,0
21,-146,0,0,0,0,0,0,0,0,0,-1,1245,1170,0,0
28,-146,0,0,0,0,0,0,0,0,0,-1,1252,1170,0,0
35,-146,0,0,0,0,0,0,0,0,0,-1,1259,1170,0,0
42,-146,0,0,0,0,0,0,0,0,0,-1,1266,1170,0,0
49,-146,0,0,0,0,0,0,0,0,0,-1,1273,1170,0,0
56,-146,0,0,0,0,0,0,0,0,0,-1,1280,1170,0,0
63,-146,0,0,0,0,0,0,0,0,0,-1,1287,1170,0,0
70,-146,0,0,0,0,0,0,0,0,0,-1,1294,1170,0,0
77,-146,0,0,0,0,0,0,0,0,0,-1,1301,1170,0,0
84,-146,0,0,0,0,0,0,0,0,0,-1,1308,1170,0,0
91,-146,0,0,0,0,0,0,0,0,0,-1,1315,1170,0,0
98,-146,0,0,0,0,0,0,0,0,0,-1,1322,1170,0,0
105,-146,0,0,0,0,0,0,0,0,0,-1,1329,1170,0,0
112,-146,0,0,0,0,0,0,0,0,0,-1,1336,1170,0,0
119,-146,0,0,0,0,0,0,0,0,0,-1,1343,1170,0,0
126,-146,0,0,0,0,0,0,0,0,0,-1,1350,1170,0,0
133,-146,0,0,0,0,0,0,0,0,0,-1,1357,1170,0,0
140,-146,0,0,0,0,0,0,0,0,0,-1,1364,1170,0,0
147,-146,0,0,0,0,0,0,0,0,0,-1,1371,1170,0,0
154,-146,0,0,0,0,0,0,0,0,0,-1,1378,1170,0,0
161,-146,0,0,0,0,0,0,0,0,0,-1,1385,1170,0,0
168,-146,0,0,0,0,0,0,0,0,0,-1,1392,1170,0,0
175,-146,0,0,0,0,0,0,0,0,0,-1,1399,1170,0,0
182,-146,0,0,0,0,0,0,0,0,0,-1,1406,1170,0,0
189,-146,0,0,0,0,0,0,0,0,0,-1,1413,1170,0,0
196,-146,0,0,0,0,0,0,0,0,0,-1,1420,1170,0,0
203,-146,0,0,0,0,0,0,0,0,0,-1,1427,1170,0,0
210,-146,0,0,0,0,0,0,0,0,0,-1,1434,1170,0,0
217,-146,0,0,0,0,0,0,0,0,0,-1,1441,1170,0,0
224,-146,0,0,0,0,0,0,0,0,0,-1,1448,1170,0,0
231,-146,0,0,0,0,0,0,0,0,0,-1,1455,1170,0,0
238,-146,0,0,0,0,0,0,0,0,0,-1,1462,1170,0,0
245,-146,0,0,0,0,0,0,0,0,0,-1,1469,1170,0,0
252,-146,0,0,0,0,0,0,0,0,0,-1,1476,1170,0,0
259,-146,0,0,0,0,0,0,0,0,0,-1,1483,1170,0,0
266,-146,0,0,0,0,0,0,0,0,0,-1,1490,1170,0,0
273,-146,0,0,0,0,0,0,0,0,0,-1,1497,1170,0,0
280,-146,0,0,0,0,0,0,0,0,0,-1,1504,1170,0,0
287,-146,0,0,0,0,0,0,0,0,0,-1,1511,1170,0,0
294,-146,0,0,0,0,0,0,0,0,0,-1,1518,1170,0,0
301,-146,0,0,0,0,0,0,0,0,0,-1,1525,1170,0,0
308,-146,0,0,0,0,0,0,0,0,0,-1,1532,1170,0,0
315,-146,0,0,0,0,0,0,0,0,0,-1,1539,1170,0,0
322,-146,0,0,0,0,0,0,0,0,0,-1,1546,1170,0,0
329,-146,0,0,0,0,0,0,0,0,0,-1,1553,1170,0,0
336,-146,0,0,0,0,0,0,0,0,0,-1,1560,1170,0,0
343,-146,0,0,0,0,0,0,0,0,0,-1,1567,1170,0,0
350,-146,0,0,0,0,0,0,0,0,0,-1,1574,1170,0,0
357,-146,0,0,0,0,0,0,0,0,0,-1,1581,1170,0,0
364,-146,0,0,0,0,0,0,0,0,0,-1,1588,1170,0,0
371,-146,0,0,0,0,0,0,0,0,0,-1,1595,1170,0,0
378,-146,0,0,0,0,0,0,0,0,0,-1,1602,1170,0,0
385,-146,0,0,0,0,0,0,0,0,0,-1,1609,1170,0,0
392,-146,0,0,0,0,0,0,0,0,0,-1,1616,1170,0,0
399,-146,0,0,0,0,0,0,0,0,0,-1,1623,1170,0,0
406,-146,0,0,0,0,0,0,0,0,0,-1,1630,1170,0,0
413,-146,0,0,0,0,0,0,0,0,0,-1,1637,1170,0,0
420,-146,0,0,0,0,0,0,0,0,0,-1,1644,1170,0,0
427,-146,0,0,0,0,0,0,0,0,0,-1,1651,1170,0,0
434,-146,0,0,0,0,0,0,0,0,0,-1,1658,1170,0,0
441,-146,0,0,0,0,0,0,0,0,0,-1,1665,1170,0,0
448,-146,0,0,0,0,0,0,0,0,0,-1,1672,1170,0,0
455,-146,0,0,0,0,0,0,0,0,0,-1,1679,1170,0,0
462,-146,0,0,0,0,0,0,0,0,0,-1,1686,1170,0,0
469,-146,0,0,0,0,0,0,0,0,0,-1,1693,1170,0,0
476,-146,0,0,0,0,0,0,0,0,0,-1,1700,1170,0,0
483,-146,0,0,0,0,0,0,0,0,0,-1,1707,1170,0,0
490,-146,0,0,0,0,0,0,0,0,0,-1,1714,1170,0,0
497,-146,0,0,0,0,0,0,0,0,0,-1,1721,1170,0,0
504,-146,0,0,0,0,0,0,0,0,0,-1,1728,1170,0,0
511,-146,0,0,0,0,0,0,0,0,0,-1,1735,1170,0,0
518,-146,0,0,0,0,0,0,0,0,0,-1,1742,1170,0,0
525,-146,0,0,0,0,0,0,0,0,0,-1,1749,1170,0,0
532,-146,0,0,0,0,0,0,0,0,0,-1,1756,1170,0,0
539,-146,0,0,0,0,0,0,0,0,0,-1,1763,1170,0,0
546,-146,0,0,0,0,0,0,0,0,0,-1,1770,1170,0,0
553,-146,0,0,0,0,0,0,0,0,0,-1,1777,1170,0,0
560,-146,0,0,0,0,0,0,0,0,0,-1,1784,1170,0,0
567,-146,0,0,0,0,0,0,0,0,0,-1,1791,1170,0,0
574,-146,0,0,0,0,0,0,0,0,0,-1,1798,1170,0,0
581,-146,0,0,0,0,0,0,0,0,0,-1,1805,1170,0,0
588,-146,0,0,0,0,0,0,0,0,0,-1,1812,1170,0,0
595,-146,0,0,0,0,0,0,0,0,0,-1,1819,1170,0,0
602,-146,0,0,0,0,0,0,0,0,0,-1,1826,1170,0,0
609,-146,0,0,0,0,0,0,0,0,0,-1,1833,1170,0,0
616,-146,0,0,0,0,0,0,0,0,0,-1,1840,1170,0,0
623,-146,0,0,0,0,0,0,0,0,0,-1,1847,1170,0,0
630,-146,0,0,0,0,0,0,0,0,0,-1,1854,1170,0,0
637,-146,33.6567,2.64856,-0.00121979,-0.00378847,-0.000403479,-0.00115791,-0.00385036,-0.152195,0.0022811,0.0417731,1861,1170,33.6567,-2.64856
644,-146,33.631,2.73547,-0.000312697,-0.00294859,-0.00054294,-0.000205243,-0.00305604,-0.195387,0.00197251,0.0410152,1868,1170,33.631,-2.73549
651,-146,33.5693,2.88306,0.000487385,-0.00207051,-0.000771454,0.000702039,-0.00228516,-0.271383,0.00180359,0.0380845,1875,1170,33.5693,-2.8831
658,-146,33.5303,2.91809,0.00125937,-0.00127485,-0.000975169,0.00159117,-0.00160665,-0.327964,0.00184627,0.0377981,1882,1170,33.5303,-2.91813
665,-146,33.4911,2.87805,0.00191538,-0.000644723,-0.00113698,0.00234742,-0.00107676,-0.363136,0.00202182,0.0365021,1889,1170,33.4911,-2.87806
672,-146,33.5068,2.88428,0.0021757,-0.000302944,-0.00115048,0.00262739,-0.000754633,-0.374119,0.00204997,0.0358296,1896,1170,33.5068,-2.88432
679,-146,33.5659,2.84045,0.00157916,-0.000123255,-0.000979797,0.00202585,-0.000569953,-0.427756,0.00157531,0.0303222,1903,1170,33.5659,-2.84041
686,-146,33.4778,2.81372,0.000780422,-0.000159206,-0.000754141,0.00119912,-0.000577904,-0.506826,0.00104665,0.0226467,1910,1170,33.4778,-2.81372
693,-146,33.5498,2.7937,0.000181638,-5.76675e-05,-0.000594795,0.000668696,-0.000544725,-0.68614,0.000701786,0.0170621,1917,1170,33.5497,-2.79368
700,-146,33.6852,2.64758,0,0,0,0,0,0,0,-1,1924,1170,33.6852,-2.64758
707,-146,29.9441,6.94653,0,0,0,0,0,0,0,-1,1931,1170,29.9441,-6.94652
714,-146,30.2544,6.19238,0,0,0,0,0,0,0,-1,1938,1170,30.2544,-6.19238
721,-146,30.1193,5.74292,0,0,0,0,0,0,0,-1,1945,1170,30.1193,-5.74291
728,-146,30.3698,5.526,-0.00225646,0.00028354,0.00067783,0.000453107,-0.00242602,1.32567,0.00178763,0.0375328,1952,1170,30.3698,-5.52601
735,-146,30.1021,5.50244,-0.00252277,0.000323957,0.000975021,0.000625885,-0.0028247,1.2705,0.00212275,0.0193706,1959,1170,30.102,-5.50238
742,-146,30.1006,5.22461,-0.00240794,0.000298655,0.00144718,0.000926703,-0.00303599,1.16134,0.00239346,0.0168494,1966,1170,30.1006,-5.22457
749,-146,30.0746,5.01257,-0.00214964,0.00014082,0.00195104,0.00125791,-0.00326673,1.0508,0.00269676,0.0144554,1973,1170,30.0746,-5.01254
756,-146,30.0779,4.77869,-0.00171544,-0.000522541,0.00258224,0.00153124,-0.00376922,0.898898,0.00314984,0.0109672,1980,1170,30.0778,-4.77869
763,-146,30.0718,4.54077,-0.00117784,-0.00150308,0.00329536,0.00195892,-0.00463983,0.760744,0.00391319,0.0102415,1987,1170,30.0717,-4.54075
770,-146,30.0824,4.3125,-0.00093452,-0.00315642,0.00417567,0.00227546,-0.0063664,0.655383,0.00517237,0.0112378,1994,1170,30.0824,-4.31249
777,-146,30.126,4.19641,-0.000991057,-0.00550109,0.00513515,0.00236239,-0.00885454,0.578508,0.0068281,0.0205614,2001,1170,30.1259,-4.19636
784,-146,30.0073,4.29956,-0.00162286,-0.00881095,0.00630356,0.00203927,-0.0124731,0.526303,0.00907187,0.039075,2008,1170,30.0073,-4.29956
791,-146,29.7201,4.27039,-0.00299731,-0.013284,0.00768798,0.00110915,-0.0173905,0.490585,0.0119805,0.043957,2015,1170,29.7201,-4.27038
798,-146,30.0527,4.48914,0,0,0,0,0,0,0,-1,2022,1170,30.0527,-4.48909
805,-146,28.5586,4.76367,0,0,0,0,0,0,0,-1,2029,1170,28.5587,-4.76367
812,-146,0,0,0,0,0,0,0,0,0,-1,2036,1170,0,0
-700,-153,0,0,0,0,0,0,0,0,0,-1,524,1177,0,0
-693,-153,0,0,0,0,0,0,0,0,0,-1,531,1177,0,0
-686,-153,-20.1606,1.94482,0,0,0,0,0,0,0,-1,538,1177,-20.1606,-1.94486
-679,-153,-20.0095,1.69299,0,0,0,0,0,0,0,-1,545,1177,-20.0095,-1.693
-672,-153,-20.2098,1.62952,0.0227004,-0.000683921,-0.0105373,0.0267481,-0.00473157,-0.366747,0.0196005,0.0458937,552,1177,-20.2098,-1.62957
-665,-153,-20.118,1.5011,0.0199387,0.00206233,-0.00879554,0.0235405,-0.00153953,-0.388678,0.0162312,0.0459167,559,1177,-20.118,-1.50108
-658,-153,-20.1136,1.17651,0,0,0,0,0,0,0,-1,566,1177,-20.1136,-1.1765
-651,-153,-19.9797,1.17358,0.0142976,0.00424819,-0.00517541,0.0164862,0.00205954,-0.400086,0.0103727,0.0483573,573,1177,-19.9797,-1.17364
-644,-153,-19.8827,1.24585,0.0115415,0.0043268,-0.00359035,0.0130237,0.00284458,-0.391519,0.00790671,0.0276908,580,1177,-19.8827,-1.24582
-637,-153,-19.873,1.59644,0.00868141,0.00439381,-0.00245405,0.00979618,0.00327905,-0.426387,0.0057579,0.0113155,587,1177,-19.873,-1.59648
-630,-153,-19.9007,1.89368,0.00666502,0.00379888,-0.00152234,0.0073227,0.0031412,-0.407798,0.00424196,0.0101865,594,1177,-19.9007,-1.89371
-623,-153,-19.9252,2.16077,0.00436843,0.00278751,-0.000645358,0.00459842,0.00255752,-0.342341,0.00266048,0.010515,601,1177,-19.9251,-2.1608
-616,-153,-19.9482,2.41736,0.0025836,0.00201798,-0.000114985,0.00260608,0.0019955,-0.193085,0.00157385,0.0134408,608,1177,-19.9483,-2.4174
-609,-153,-19.8931,2.69141,0.00159561,0.0013343,-1.89499e-05,0.00159698,0.00133293,-0.0720163,0.000988463,0.018646,615,1177,-19.8931,-2.69141
-602,-153,-19.8087,3.00977,0,0,0,0,0,0,0,-1,622,1177,-19.8087,-3.00976
-595,-153,-20.1113,3.2981,0,0,0,0,0,0,0,-1,629,1177,-20.1113,-3.2981
-588,-153,-20.344,3.59119,0,0,0,0,0,0,0,-1,636,1177,-20.344,-3.59118
-581,-153,-19.528,3.72144,0,0,0,0,0,0,0,-1,643,1177,-19.528,-3.72146
-574,-153,-19.5124,3.94141,0,0,0,0,0,0,0,-1,650,1177,-19.5124,-3.94147
-567,-153,-23.7414,0.754272,0,0,0,0,0,0,0,-1,657,1177,-23.7414,-0.754301
-560,-153,-23.7184,0.875854,0.00182722,0.00220409,-0.00157606,0.00360294,0.000428374,-0.844896,0.00227266,0.038874,664,1177,-23.7184,-0.875831
-553,-153,-23.6837,1.01563,0.00247199,0.00242623,-0.00192797,0.00437721,0.000521004,-0.779465,0.00276091,0.0373536,671,1177,-23.6837,-1.01568
-546,-153,-23.6063,1.18872,0.00370715,0.00244896,-0.00243857,0.00559646,0.000559647,-0.659161,0.00355912,0.0415947,678,1177,-23.6063,-1.18874
-539,-153,-23.8517,1.11157,0.00555843,0.00235867,-0.00302783,0.00738307,0.000534025,-0.542347,0.00475405,0.0437391,685,1177,-23.8517,-1.11154
-532,-153,-23.7534,0.787354,0.00870853,0.00205527,-0.00365706,0.0103256,0.000438164,-0.416339,0.00674246,0.0446273,692,1177,-23.7534,-0.787345
-525,-153,-23.5509,0.781616,0.0127414,0.00148395,-0.00461425,0.014391,-0.000165641,-0.343339,0.00964969,0.0423917,699,1177,-23.5509,-0.78163
-518,-153,0,0,0,0,0,0,0,0,0,-1,706,1177,0,0
-511,-153,0,0,0,0,0,0,0,0,0,-1,713,1177,0,0
-504,-153,0,0,0,0,0,0,0,0,0,-1,720,1177,0,0
-497,-153,0,0,0,0,0,0,0,0,0,-1,727,1177,0,0
-490,-153,0,0,0,0,0,0,0,0,0,-1,734,1177,0,0
-483,-153,0,0,0,0,0,0,0,0,0,-1,741,1177,0,0
-476,-153,0,0,0,0,0,0,0,0,0,-1,748,1177,0,0
-469,-153,0,0,0,0,0,0,0,0,0,-1,755,1177,0,0
-462,-153,0,0,0,0,0,0,0,0,0,-1,762,1177,0,0
-455,-153,0,0,0,0,0,0,0,0,0,-1,769,1177,0,0
-448,-153,0,0,0,0,0,0,0,0,0,-1,776,1177,0,0
-441,-153,0,0,0,0,0,0,0,0,0,-1,783,1177,0,0
-434,-153,0,0,0,0,0,0,0,0,0,-1,790,1177,0,0
-427,-153,0,0,0,0,0,0,0,0,0,-1,797,1177,0,0
-420,-153,0,0,0,0,0,0,0,0,0,-1,804,1177,0,0
-413,-153,0,0,0,0,0,0,0,0,0,-1,811,1177,0,0
-406,-153,0,0,0,0,0,0,0,0,0,-1,818,1177,0,0
-399,-153,0,0,0,0,0,0,0,0,0,-1,825,1177,0,0
-392,-153,0,0,0,0,0,0,0,0,0,-1,832,1177,0,0
-385,-153,0,0,0,0,0,0,0,0,0,-1,839,1177,0,0
-378,-153,0,0,0,0,0,0,0,0,0,-1,846,1177,0,0
-371,-153,0,0,0,0,0,0,0,0,0,-1,853,1177,0,0
-364,-153,0,0,0,0,0,0,0,0,0,-1,860,1177,0,0
-357,-153,0,0,0,0,0,0,0,0,0,-1,867,1177,0,0
-350,-153,0,0,0,0,0,0,0,0,0,-1,874,1177,0,0
-343,-153,0,0,0,0,0,0,0,0,0,-1,881,1177,0,0
-336,-153,0,0,0,0,0,0,0,0,0,-1,888,1177,0,0
-329,-153,0,0,0,0,0,0,0,0,0,-1,895,1177,0,0
-322,-153,0,0,0,0,0,0,0,0,0,-1,902,1177,0,0
-315,-153,0,0,0,0,0,0,0,0,0,-1,909,1177,0,0
-308,-153,0,0,0,0,0,0,0,0,0,-1,916,1177,0,0
-301,-153,0,0,0,0,0,0,0,0,0,-1,923,1177,0,0
-294,-153,0,0,0,0,0,0,0,0,0,-1,930,1177,0,0
-287,-153,0,0,0,0,0,0,0,0,0,-1,937,1177,0,0
-280,-153,0,0,0,0,0,0,0,0,0,-1,944,1177,0,0
-273,-153,0,0,0,0,0,0,0,0,0,-1,951,1177,0,0
-266,-153,0,0,0,0,0,0,0,0,0,-1,958,1177,0,0
-259,-153,0,0,0,0,0,0,0,0,0,-1,965,1177,0,0
-252,-153,0,0,0,0,0,0,0,0,0,-1,972,1177,0,0
-245,-153,0,0,0,0,0,0,0,0,0,-1,979,1177,0,0
-238,-153,0,0,0,0,0,0,0,0,0,-1,986,1177,0,0
-231,-153,0,0,0,0,0,0,0,0,0,-1,993,1177,0,0
-224,-153,0,0,0,0,0,0,0,0,0,-1,1000,1177,0,0
-217,-153,0,0,0,0,0,0,0,0,0,-1,1007,1177,0,0
-210,-153,0,0,0,0,0,0,0,0,0,-1,1014,1177,0,0
-203,-153,0,0,0,0,0,0,0,0,0,-1,1021,1177,0,0
-196,-153,0,0,0,0,0,0,0,0,0,-1,1028,1177,0,0
-189,-153,0,0,0,0,0,0,0,0,0,-1,1035,1177,0,0
-182,-153,0,0,0,0,0,0,0,0,0,-1,1042,1177,0,0
-175,-153,0,0,0,0,0,0,0,0,0,-1,1049,1177,0,0
-168,-153,0,0,0,0,0,0,0,0,0,-1,1056,1177,0,0
-161,-153,0,0,0,0,0,0,0,0,0,-1,1063,1177,0,0
-154,-153,0,0,0,0,0,0,0,0,0,-1,1070,1177,0,0
-147,-153,0,0,0,0,0,0,0,0,0,-1,1077,1177,0,0
-140,-153,0,0,0,0,0,0,0,0,0,-1,1084,1177,0,0
-133,-153,0,0,0,0,0,0,0,0,0,-1,1091,1177,0,0
-126,-153,0,0,0,0,0,0,0,0,0,-1,1098,1177,0,0
-119,-153,0,0,0,0,0,0,0,0,0,-1,1105,1177,0,0
-112,-153,0,0,0,0,0,0,0,0,0,-1,1112,1177,0,0
-105,-153,0,0,0,0,0,0,0,0,0,-1,1119,1177,0,0
-98,-153,0,0,0,0,0,0,0,0,0,-1,1126,1177,0,0
-91,-153,0,0,0,0,0,0,0,0,0,-1,1133,1177,0,0
-84,-153,0,0,0,0,0,0,0,0,0,-1,1140,1177,0,0
-77,-153,0,0,0,0,0,0,0,0,0,-1,1147,1177,0,0
-70,-153,0,0,0,0,0,0,0,0,0,-1,1154,1177,0,0
-63,-153,0,0,0,0,0,0,0,0,0,-1,1161,1177,0,0
-56,-153,0,0,0,0,0,0,0,0,0,-1,1168,1177,0,0
-49,-153,0,0,0,0,0,0,0,0,0,-1,1175,1177,0,0
-42,-153,0,0,0,0,0,0,0,0,0,-1,1182,1177,0,0
-35,-153,0,0,0,0,0,0,0,0,0,-1,1189,1177,0,0
-28,-153,0,0,0,0,0,0,0,0,0,-1,1196,1177,0,0
-21,-153,0,0,0,0,0,0,0,0,0,-1,1203,1177,0,0
-14,-153,0,0,0,0,0,0,0,0,0,-1,1210,1177,0,0
-7,-153,0,0,0,0,0,0,0,0,0,-1,1217,1177,0,0
0,-153,0,0,0,0,0,0,0,0,0,-1,1224,1177,0,0
7,-153,0,0,0,0,0,0,0,0,0,-1,1231,1177,0,0
14,-153,0,0,0,0,0,0,0,0,0,-1,1238,1177,0,0
21,-153,0,0,0,0,0,0,0,0,0,-1,1245,1177,0,0
28,-153,0,0,0,0,0,0,0,0,0,-1,1252,1177,0,0
35,-153,0,0,0,0,0,0,0,0,0,-1,1259,1177,0,0
42,-153,0,0,0,0,0,0,0,0,0,-1,1266,1177,0,0
49,-153,0,0,0,0,0,0,0,0,0,-1,1273,1177,0,0
56,-153,0,0,0,0,0,0,0,0,0,-1,1280,1177,0,0
63,-153,0,0,0,0,0,0,0,0,0,-1,1287,1177,0,0
70,-153,0,0,0,0,0,0,0,0,0,-1,1294,1177,0,0
77,-153,0,0,0,0,0,0,0,0,0,-1,1301,1177,0,0
84,-153,0,0,0,0,0,0,0,0,0,-1,1308,1177,0,0
91,-153,0,0,0,0,0,0,0,0,0,-1,1315,1177,0,0
98,-153,0,0,0,0,0,0,0,0,0,-1,1322,1177,0,0
105,-153,0,0,0,0,0,0,0,0,0,-1,1329,1177,0,0
112,-153,0,0,0,0,0,0,0,0,0,-1,1336,1177,0,0
119,-153,0,0,0,0,0,0,0,0,0,-1,1343,1177,0,0
126,-153,0,0,0,0,0,0,0,0,0,-1,1350,1177,0,0
133,-153,0,0,0,0,0,0,0,0,0,-1,1357,1177,0,0
140,-153,0,0,0,0,0,0,0,0,0,-1,1364,1177,0,0
147,-153,0,0,0,0,0,0,0,0,0,-1,1371,1177,0,0
154,-153,0,0,0,0,0,0,0,0,0,-1,1378,1177,0,0
161,-153,0,0,0,0,0,0,0,0,0,-1,1385,1177,0,0
168,-153,0,0,0,0,0,0,0,0,0,-1,1392,1177,0,0
175,-153,0,0,0,0,0,0,0,0,0,-1,1399,1177,0,0
182,-153,0,0,0,0,0,0,0,0,0,-1,1406,1177,0,0
189,-153,0,0,0,0,0,0,0,0,0,-1,1413,1177,0,0
196,-153,0,0,0,0,0,0,0,0,0,-1,1420,1177,0,0
203,-153,0,0,0,0,0,0,0,0,0,-1,1427,1177,0,0
210,-153,0,0,0,0,0,0,0,0,0,-1,1434,1177,0,0
217,-153,0,0,0,0,0,0,0,0,0,-1,1441,1177,0,0
224,-153,0,0,0,0,0,0,0,0,0,-1,1448,1177,0,0
231,-153,0,0,0,0,0,0,0,0,0,-1,1455,1177,0,0
238,-153,0,0,0,0,0,0,0,0,0,-1,1462,1177,0,0
245,-153,0,0,0,0,0,0,0,0,0,-1,1469,1177,0,0
252,-153,0,0,0,0,0,0,0,0,0,-1,1476,1177,0,0
259,-153,0,0,0,0,0,0,0,0,0,-1,1483,1177,0,0
266,-153,0,0,0,0,0,0,0,0,0,-1,1490,1177,0,0
273,-153,0,0,0,0,0,0,0,0,0,-1,1497,1177,0,0
280,-153,0,0,0,0,0,0,0,0,0,-1,1504,1177,0,0
287,-153,0,0,0,0,0,0,0,0,0,-1,1511,1177,0,0
294,-153,0,0,0,0,0,0,0,0,0,-1,1518,1177,0,0
301,-153,0,0,0,0,0,0,0,0,0,-1,1525,1177,0,0
308,-153,0,0,0,0,0,0,0,0,0,-1,1532,1177,0,0
315,-153,0,0,0,0,0,0,0,0,0,-1,1539,1177,0,0
322,-153,0,0,0,0,0,0,0,0,0,-1,1546,1177,0,0
329,-153,0,0,0,0,0,0,0,0,0,-1,1553,1177,0,0
336,-153,0,0,0,0,0,0,0,0,0,-1,1560,1177,0,0
343,-153,0,0,0,0,0,0,0,0,0,-1,1567,1177,0,0
350,-153,0,0,0,0,0,0,0,0,0,-1,1574,1177,0,0
357,-153,0,0,0,0,0,0,0,0,0,-1,1581,1177,0,0
364,-153,0,0,0,0,0,0,0,0,0,-1,1588,1177,0,0
371,-153,0,0,0,0,0,0,0,0,0,-1,1595,1177,0,0
378,-153,0,0,0,0,0,0,0,0,0,-1,1602,1177,0,0
385,-153,0,0,0,0,0,0,0,0,0,-1,1609,1177,0,0
392,-153,0,0,0,0,0,0,0,0,0,-1,1616,1177,0,0
399,-153,0,0,0,0,0,0,0,0,0,-1,1623,1177,0,0
406,-153,0,0,0,0,0,0,0,0,0,-1,1630,1177,0,0
413,-153,0,0,0,0,0,0,0,0,0,-1,1637,1177,0,0
420,-153,0,0,0,0,0,0,0,0,0,-1,1644,1177,0,0
427,-153,0,0,0,0,0,0,0,0,0,-1,1651,1177,0,0
434,-153,0,0,0,0,0,0,0,0,0,-1,1658,1177,0,0
441,-153,0,0,0,0,0,0,0,0,0,-1,1665,1177,0,0
448,-153,0,0,0,0,0,0,0,0,0,-1,1672,1177,0,0
455,-153,0,0,0,0,0,0,0,0,0,-1,1679,1177,0,0
462,-153,0,0,0,0,0,0,0,0,0,-1,1686,1177,0,0
469,-153,0,0,0,0,0,0,0,0,0,-1,1693,1177,0,0
476,-153,0,0,0,0,0,0,0,0,0,-1,1700,1177,0,0
483,-153,0,0,0,0,0,0,0,0,0,-1,1707,1177,0,0
490,-153,0,0,0,0,0,0,0,0,0,-1,1714,1177,0,0
497,-153,0,0,0,0,0,0,0,0,0,-1,1721,1177,0,0
504,-153,0,0,0,0,0,0,0,0,0,-1,1728,1177,0,0
511,-153,0,0,0,0,0,0,0,0,0,-1,1735,1177,0,0
518,-153,0,0,0,0,0,0,0,0,0,-1,1742,1177,0,0
525,-153,0,0,0,0,0,0,0,0,0,-1,1749,1177,0,0
532,-153,0,0,0,0,0,0,0,0,0,-1,1756,1177,0,0
539,-153,0,0,0,0,0,0,0,0,0,-1,1763,1177,0,0
546,-153,0,0,0,0,0,0,0,0,0,-1,1770,1177,0,0
553,-153,0,0,0,0,0,0,0,0,0,-1,1777,1177,0,0
560,-153,0,0,0,0,0,0,0,0,0,-1,1784,1177,0,0
567,-153,0,0,0,0,0,0,0,0,0,-1,1791,1177,0,0
574,-153,0,0,0,0,0,0,0,0,0,-1,1798,1177,0,0
581,-153,0,0,0,0,0,0,0,0,0,-1,1805,1177,0,0
588,-153,0,0,0,0,0,0,0,0,0,-1,1812,1177,0,0
595,-153,0,0,0,0,0,0,0,0,0,-1,1819,1177,0,0
602,-153,0,0,0,0,0,0,0,0,0,-1,1826,1177,0,0
609,-153,0,0,0,0,0,0,0,0,0,-1,1833,1177,0,0
616,-153,0,0,0,0,0,0,0,0,0,-1,1840,1177,0,0
623,-153,0,0,0,0,0,0,0,0,0,-1,1847,1177,0,0
630,-153,0,0,0,0,0,0,0,0,0,-1,1854,1177,0,0
637,-153,33.5758,2.78015,-0.00145253,-0.0031291,-0.000187625,-0.00143179,-0.00314984,-0.110095,0.00182106,0.0431251,1861,1177,33.5758,-2.78019
644,-153,33.5944,2.86365,-0.00048512,-0.00230011,-0.000542092,-0.000335538,-0.00244969,-0.269235,0.00153356,0.040901,1868,1177,33.5944,-2.86361
651,-153,33.5619,2.83545,0.000438713,-0.00136194,-0.000918384,0.000824473,-0.0017477,-0.397663,0.00151659,0.0325684,1875,1177,33.5618,-2.83549
658,-153,33.5406,2.79443,0.00137045,-0.000503054,-0.00123806,0.00198621,-0.00111881,-0.461533,0.00181585,0.0358449,1882,1177,33.5407,-2.79442
665,-153,33.5226,2.77832,0.00214578,0.000132713,-0.0014693,0.00292024,-0.000641748,-0.485089,0.00219228,0.0389443,1889,1177,33.5225,-2.77838
672,-153,33.4849,2.83801,0.00240867,0.000389391,-0.00145361,0.00316888,-0.000370818,-0.481861,0.00224642,0.0373929,1896,1177,33.4848,-2.83807
679,-153,33.45,2.81787,0.00175498,0.000450342,-0.00120082,0.00246923,-0.000263903,-0.536584,0.0017408,0.0284234,1903,1177,33.4499,-2.81786
686,-153,33.507,2.82544,0.000926988,0.000297933,-0.000916941,0.00158185,-0.000356925,-0.620178,0.00119149,0.0184454,1910,1177,33.507,-2.82542
693,-153,33.6018,2.77063,0.000311124,0.000304826,-0.000709951,0.00101793,-0.000401982,-0.78318,0.000845108,0.0297661,1917,1177,33.6018,-2.77058
700,-153,33.7019,2.64648,0,0,0,0,0,0,0,-1,1924,1177,33.7019,-2.64644
707,-153,29.6483,6.6842,0,0,0,0,0,0,0,-1,1931,1177,29.6483,-6.68415
714,-153,30.0966,5.9884,0,0,0,0,0,0,0,-1,1938,1177,30.0966,-5.98845
721,-153,30.0962,5.79016,-0.00186652,0.000202229,0.000485553,0.000310523,-0.00197481,1.35135,0.00143132,0.0368249,1945,1177,30.0962,-5.7901
728,-153,30.2627,5.52893,-0.00229487,0.000231159,0.000788519,0.000457093,-0.0025208,1.29174,0.0018518,0.0450029,1952,1177,30.2627,-5.52888
735,-153,29.8837,5.4502,-0.00260125,0.000226655,0.00115241,0.000636793,-0.00301138,1.22888,0.00225009,0.0213083,1959,1177,29.8837,-5.45015
742,-153,29.8805,5.24341,-0.00244084,0.000129337,0.00165831,0.000942206,-0.00325371,1.11504,0.0025421,0.0139188,1966,1177,29.8805,-5.24344
749,-153,29.8734,5.00403,-0.00214179,-0.000281249,0.00220386,0.00118064,-0.00360368,0.985108,0.00287789,0.0141765,1973,1177,29.8734,-5.00405
756,-153,29.8599,4.77637,-0.00176296,-0.00137889,0.00291386,0.00134926,-0.00449111,0.818303,0.00353083,0.0101385,1980,1177,29.8599,-4.77635
763,-153,29.8398,4.53308,-0.00134975,-0.00292197,0.00372476,0.00167095,-0.00594267,0.6814,0.0046206,0.0100735,1987,1177,29.8399,-4.53308
770,-153,29.8473,4.30554,-0.00127124,-0.00533417,0.00472918,0.00184433,-0.00844975,0.582535,0.00633803,0.0105045,1994,1177,29.8473,-4.30559
777,-153,29.8608,4.12952,-0.0015989,-0.00873123,0.00583852,0.00167641,-0.0120065,0.511237,0.0086177,0.0224096,2001,1177,29.8609,-4.12953
784,-153,29.7847,4.31018,-0.00269675,-0.0134216,0.00716,0.000886281,-0.0170046,0.463986,0.0116431,0.0412041,2008,1177,29.7847,-4.31017
791,-153,29.7042,4.40173,-0.00473302,-0.0196427,0.00864396,-0.000773279,-0.0236024,0.429564,0.0154836,0.0433712,2015,1177,29.7042,-4.40175
798,-153,29.3423,4.72192,-0.00750436,-0.0275085,0.0100937,-0.00329642,-0.0317164,0.394979,0.0201356,0.0447572,2022,1177,29.3424,-4.72192
805,-153,28.5842,4.84802,0,0,0,0,0,0,0,-1,2029,1177,28.5843,-4.84807
812,-153,0,0,0,0,0,0,0,0,0,-1,2036,1177,0,0
-700,-160,0,0,0,0,0,0,0,0,0,-1,524,1184,0,0
-693,-160,0,0,0,0,0,0,0,0,0,-1,531,1184,0,0
-686,-160,-19.9998,1.80664,0.0251775,-0.000544467,-0.0128336,0.0304854,-0.00585229,-0.392166,0.0225292,0.0469551,538,1184,-19.9998,-1.80667
-679,-160,-20.0652,1.63184,0.0243483,0.00387348,-0.0114743,0.0294883,-0.00126652,-0.421153,0.0200944,0.0496791,545,1184,-20.0652,-1.63186
-672,-160,-19.9733,1.43176,0.0224834,0.00627953,-0.00951196,0.0268762,0.00188672,-0.43264,0.0173228,0.0453987,552,1184,-19.9733,-1.43179
-665,-160,-19.6784,1.15613,0.0201202,0.00734092,-0.00739451,0.0235033,0.00395784,-0.429085,0.0145304,0.0451179,559,1184,-19.6784,-1.15616
-658,-160,-19.4184,0.907227,0,0,0,0,0,0,0,-1,566,1184,-19.4184,-0.907181
-651,-160,-19.6867,1.08655,0,0,0,0,0,0,0,-1,573,1184,-19.6867,-1.0865
-644,-160,-19.6078,1.07178,0.0119023,0.0062072,-0.00216945,0.0126345,0.00547494,-0.325527,0.00731614,0.0358048,580,1184,-19.6079,-1.0718
-637,-160,-19.588,1.58594,0.00898737,0.00558129,-0.00124467,0.00939372,0.00517494,-0.315566,0.00543283,0.0134183,587,1184,-19.588,-1.58593
-630,-160,-19.6269,1.84912,0.0069318,0.00449604,-0.00057662,0.00706141,0.00436644,-0.221097,0.0041148,0.00892175,594,1184,-19.6269,-1.84914
-623,-160,-19.67,2.10889,0.00439517,0.00306297,-7.49816e-05,0.00439937,0.00305876,-0.0560482,0.00260375,0.0118181,601,1184,-19.6701,-2.10893
-616,-160,-19.6771,2.39075,0.00226198,0.0021367,0.000117195,0.00233222,0.00206645,0.539968,0.00147423,0.010314,608,1184,-19.6771,-2.39078
-609,-160,-19.6573,2.72119,0.00100556,0.00128219,-6.26313e-05,0.00129571,0.000992038,-1.3582,0.000782479,0.0130175,615,1184,-19.6573,-2.72113
-602,-160,-19.6041,3.10217,0.000311554,0.00115398,-0.000247493,0.00122131,0.000244224,-1.30518,0.000746238,0.0285733,622,1184,-19.6041,-3.10216
-595,-160,-19.6515,3.43762,-0.000478876,0.00123467,-0.000512944,0.00137648,-0.000620687,-1.30107,0.00118027,0.0395825,629,1184,-19.6515,-3.43757
-588,-160,-19.89,3.78259,0,0,0,0,0,0,0,-1,636,1184,-19.89,-3.78258
-581,-160,-19.231,3.64734,0,0,0,0,0,0,0,-1,643,1184,-19.231,-3.64733
-574,-160,-18.3255,4.10474,0,0,0,0,0,0,0,-1,650,1184,-18.3255,-4.10476
-567,-160,-23.7053,0.784058,0,0,0,0,0,0,0,-1,657,1184,-23.7053,-0.784028
-560,-160,-23.6795,0.824585,0.000973364,0.00152391,-0.00190068,0.00316915,-0.000671875,-0.857313,0.0023687,0.0400098,664,1184,-23.6795,-0.824644
-553,-160,-23.636,0.852905,0.00164035,0.00163031,-0.00215571,0.00379104,-0.000520384,-0.784234,0.00271748,0.0387171,671,1184,-23.636,-0.852894
-546,-160,-23.6363,0.867065,0.00292119,0.00155425,-0.00243723,0.00476897,-0.000293535,-0.648695,0.00328154,0.0396703,678,1184,-23.6363,-0.867108
-539,-160,-23.8569,0.835938,0.00479027,0.0014378,-0.00267004,0.00626664,-3.85654e-05,-0.505095,0.00419067,0.0429078,685,1184,-23.857,-0.8359
-532,-160,-23.7808,0.796143,0.00781765,0.00129384,-0.00281045,0.00886139,0.00025009,-0.355594,0.00582602,0.0471882,692,1184,-23.7808,-0.796104
-525,-160,-23.4528,0.714355,0.0119173,0.000953751,-0.00319993,0.012783,8.81348e-05,-0.264188,0.00849275,0.0445948,699,1184,-23.4527,-0.714415
-518,-160,-23.4481,0.726196,0.0153082,0.000838352,-0.00426755,0.0164731,-0.00032649,-0.266462,0.0110925,0.0408636,706,1184,-23.4481,-0.72617
-511,-160,0,0,0,0,0,0,0,0,0,-1,713,1184,0,0
-504,-160,0,0,0,0,0,0,0,0,0,-1,720,1184,0,0
-497,-160,0,0,0,0,0,0,0,0,0,-1,727,1184,0,0
-490,-160,0,0,0,0,0,0,0,0,0,-1,734,1184,0,0
-483,-160,0,0,0,0,0,0,0,0,0,-1,741,1184,0,0
-476,-160,0,0,0,0,0,0,0,0,0,-1,748,1184,0,0
-469,-160,0,0,0,0,0,0,0,0,0,-1,755,1184,0,0
-462,-160,0,0,0,0,0,0,0,0,0,-1,762,1184,0,0
-455,-160,0,0,0,0,0,0,0,0,0,-1,769,1184,0,0
-448,-160,0,0,0,0,0,0,0,0,0,-1,776,1184,0,0
-441,-160,0,0,0,0,0,0,0,0,0,-1,783,1184,0,0
-434,-160,0,0,0,0,0,0,0,0,0,-1,790,1184,0,0
-427,-160,0,0,0,0,0,0,0,0,0,-1,797,1184,0,0
-420,-160,0,0,0,0,0,0,0,0,0,-1,804,1184,0,0
-413,-160,0,0,0,0,0,0,0,0,0,-1,811,1184,0,0
-406,-160,0,0,0,0,0,0,0,0,0,-1,818,1184,0,0
-399,-160,0,0,0,0,0,0,0,0,0,-1,825,1184,0,0
-392,-160,0,0,0,0,0,0,0,0,0,-1,832,1184,0,0
-385,-160,0,0,0,0,0,0,0,0,0,-1,839,1184,0,0
-378,-160,0,0,0,0,0,0,0,0,0,-1,846,1184,0,0
-371,-160,0,0,0,0,0,0,0,0,0,-1,853,1184,0,0
-364,-160,0,0,0,0,0,0,0,0,0,-1,860,1184,0,0
-357,-160,0,0,0,0,0,0,0,0,0,-1,867,1184,0,0
-350,-160,0,0,0,0,0,0,0,0,0,-1,874,1184,0,0
-343,-160,0,0,0,0,0,0,0,0,0,-1,881,1184,0,0
-336,-160,0,0,0,0,0,0,0,0,0,-1,888,1184,0,0
-329,-160,0,0,0,0,0,0,0,0,0,-1,895,1184,0,0
-322,-160,0,0,0,0,0,0,0,0,0,-1,902,1184,0,0
-315,-160,0,0,0,0,0,0,0,0,0,-1,909,1184,0,0
-308,-160,0,0,0,0,0,0,0,0,0,-1,916,1184,0,0
-301,-160,0,0,0,0,0,0,0,0,0,-1,923,1184,0,0
-294,-160,0,0,0,0,0,0,0,0,0,-1,930,1184,0,0
-287,-160,0,0,0,0,0,0,0,0,0,-1,937,1184,0,0
-280,-160,0,0,0,0,0,0,0,0,0,-1,944,1184,0,0
-273,-160,0,0,0,0,0,0,0,0,0,-1,951,1184,0,0
-266,-160,0,0,0,0,0,0,0,0,0,-1,958,1184,0,0
-259,-160,0,0,0,0,0,0,0,0,0,-1,965,1184,0,0
-252,-160,0,0,0,0,0,0,0,0,0,-1,972,1184,0,0
-245,-160,0,0,0,0,0,0,0,0,0,-1,979,1184,0,0
-238,-160,0,0,0,0,0,0,0,0,0,-1,986,1184,0,0
-231,-160,0,0,0,0,0,0,0,0,0,-1,993,1184,0,0
-224,-160,0,0,0,0,0,0,0,0,0,-1,1000,1184,0,0
-217,-160,0,0,0,0,0,0,0,0,0,-1,1007,1184,0,0
-210,-160,0,0,0,0,0,0,0,0,0,-1,1014,1184,0,0
-203,-160,0,0,0,0,0,0,0,0,0,-1,1021,1184,0,0
-196,-160,0,0,0,0,0,0,0,0,0,-1,1028,1184,0,0
-189,-160,0,0,0,0,0,0,0,0,0,-1,1035,1184,0,0
-182,-160,0,0,0,0,0,0,0,0,0,-1,1042,1184,0,0
-175,-160,0,0,0,0,0,0,0,0,0,-1,1049,1184,0,0
-168,-160,0,0,0,0,0,0,0,0,0,-1,1056,1184,0,0
-161,-160,0,0,0,0,0,0,0,0,0,-1,1063,1184,0,0
-154,-160,0,0,0,0,0,0,0,0,0,-1,1070,1184,0,0
-147,-160,0,0,0,0,0,0,0,0,0,-1,1077,1184,0,0
-140,-160,0,0,0,0,0,0,0,0,0,-1,1084,1184,0,0
-133,-160,0,0,0,0,0,0,0,0,0,-1,1091,1184,0,0
-126,-160,0,0,0,0,0,0,0,0,0,-1,1098,1184,0,0
-119,-160,0,0,0,0,0,0,0,0,0,-1,1105,1184,0,0
-112,-160,0,0,0,0,0,0,0,0,0,-1,1112,1184,0,0
-105,-160,0,0,0,0,0,0,0,0,0,-1,1119,1184,0,0
-98,-160,0,0,0,0,0,0,0,0,0,-1,1126,1184,0,0
-91,-160,0,0,0,0,0,0,0,0,0,-1,1133,1184,0,0
-84,-160,0,0,0,0,0,0,0,0,0,-1,1140,1184,0,0
-77,-160,0,0,0,0,0,0,0,0,0,-1,1147,1184,0,0
-70,-160,0,0,0,0,0,0,0,0,0,-1,1154,1184,0,0
-63,-160,0,0,0,0,0,0,0,0,0,-1,1161,1184,0,0
-56,-160,0,0,0,0,0,0,0,0,0,-1,1168,1184,0,0
-49,-160,0,0,0,0,0,0,0,0,0,-1,1175,1184,0,0
-42,-160,0,0,0,0,0,0,0,0,0,-1,1182,1184,0,0
-35,-160,0,0,0,0,0,0,0,0,0,-1,1189,1184,0,0
-28,-160,0,0,0,0,0,0,0,0,0,-1,1196,1184,0,0
-21,-160,0,0,0,0,0,0,0,0,0,-1,1203,1184,0,0
-14,-160,0,0,0,0,0,0,0,0,0,-1,1210,1184,0,0
-7,-160,0,0,0,0,0,0,0,0,0,-1,1217,1184,0,0
0,-160,0,0,0,0,0,0,0,0,0,-1,1224,1184,0,0
7,-160,0,0,0,0,0,0,0,0,0,-1,1231,1184,0,0
14,-160,0,0,0,0,0,0,0,0,0,-1,1238,1184,0,0
21,-160,0,0,0,0,0,0,0,0,0,-1,1245,1184,0,0
28,-160,0,0,0,0,0,0,0,0,0,-1,1252,1184,0,0
35,-160,0,0,0,0,0,0,0,0,0,-1,1259,1184,0,0
42,-160,0,0,0,0,0,0,0,0,0,-1,1266,1184,0,0
49,-160,0,0,0,0,0,0,0,0,0,-1,1273,1184,0,0
56,-160,0,0,0,0,0,0,0,0,0,-1,1280,1184,0,0
63,-160,0,0,0,0,0,0,0,0,0,-1,1287,1184,0,0
70,-160,0,0,0,0,0,0,0,0,0,-1,1294,1184,0,0
77,-160,0,0,0,0,0,0,0,0,0,-1,1301,1184,0,0
84,-160,0,0,0,0,0,0,0,0,0,-1,1308,1184,0,0
91,-160,0,0,0,0,0,0,0,0,0,-1,1315,1184,0,0
98,-160,0,0,0,0,0,0,0,0,0,-1,1322,1184,0,0
105,-160,0,0,0,0,0,0,0,0,0,-1,1329,1184,0,0
112,-160,0,0,0,0,0,0,0,0,0,-1,1336,1184,0,0
119,-160,0,0,0,0,0,0,0,0,0,-1,1343,1184,0,0
126,-160,0,0,0,0,0,0,0,0,0,-1,1350,1184,0,0
133,-160,0,0,0,0,0,0,0,0,0,-1,1357,1184,0,0
140,-160,0,0,0,0,0,0,0,0,0,-1,1364,1184,0,0
147,-160,0,0,0,0,0,0,0,0,0,-1,1371,1184,0,0
154,-160,0,0,0,0,0,0,0,0,0,-1,1378,1184,0,0
161,-160,0,0,0,0,0,0,0,0,0,-1,1385,1184,0,0
168,-160,0,0,0,0,0,0,0,0,0,-1,1392,1184,0,0
175,-160,0,0,0,0,0,0,0,0,0,-1,1399,1184,0,0
182,-160,0,0,0,0,0,0,0,0,0,-1,1406,1184,0,0
189,-160,0,0,0,0,0,0,0,0,0,-1,1413,1184,0,0
196,-160,0,0,0,0,0,0,0,0,0,-1,1420,1184,0,0
203,-160,0,0,0,0,0,0,0,0,0,-1,1427,1184,0,0
210,-160,0,0,0,0,0,0,0,0,0,-1,1434,1184,0,0
217,-160,0,0,0,0,0,0,0,0,0,-1,1441,1184,0,0
224,-160,0,0,0,0,0,0,0,0,0,-1,1448,1184,0,0
231,-160,0,0,0,0,0,0,0,0,0,-1,1455,1184,0,0
238,-160,0,0,0,0,0,0,0,0,0,-1,1462,1184,0,0
245,-160,0,0,0,0,0,0,0,0,0,-1,1469,1184,0,0
252,-160,0,0,0,0,0,0,0,0,0,-1,1476,1184,0,0
259,-160,0,0,0,0,0,0,0,0,0,-1,1483,1184,0,0
266,-160,0,0,0,0,0,0,0,0,0,-1,1490,1184,0,0
273,-160,0,0,0,0,0,0,0,0,0,-1,1497,1184,0,0
280,-160,0,0,0,0,0,0,0,0,0,-1,1504,1184,0,0
287,-160,0,0,0,0,0,0,0,0,0,-1,1511,1184,0,0
294,-160,0,0,0,0,0,0,0,0,0,-1,1518,1184,0,0
301,-160,0,0,0,0,0,0,0,0,0,-1,1525,1184,0,0
308,-160,0,0,0,0,0,0,0,0,0,-1,1532,1184,0,0
315,-160,0,0,0,0,0,0,0,0,0,-1,1539,1184,0,0
322,-160,0,0,0,0,0,0,0,0,0,-1,1546,1184,0,0
329,-160,0,0,0,0,0,0,0,0,0,-1,1553,1184,0,0
336,-160,0,0,0,0,0,0,0,0,0,-1,1560,1184,0,0
343,-160,0,0,0,0,0,0,0,0,0,-1,1567,1184,0,0
350,-160,0,0,0,0,0,0,0,0,0,-1,1574,1184,0,0
357,-160,0,0,0,0,0,0,0,0,0,-1,1581,1184,0,0
364,-160,0,0,0,0,0,0,0,0,0,-1,1588,1184,0,0
371,-160,0,0,0,0,0,0,0,0,0,-1,1595,1184,0,0
378,-160,0,0,0,0,0,0,0,0,0,-1,1602,1184,0,0
385,-160,0,0,0,0,0,0,0,0,0,-1,1609,1184,0,0
392,-160,0,0,0,0,0,0,0,0,0,-1,1616,1184,0,0
399,-160,0,0,0,0,0,0,0,0,0,-1,1623,1184,0,0
406,-160,0,0,0,0,0,0,0,0,0,-1,1630,1184,0,0
413,-160,0,0,0,0,0,0,0,0,0,-1,1637,1184,0,0
420,-160,0,0,0,0,0,0,0,0,0,-1,1644,1184,0,0
427,-160,0,0,0,0,0,0,0,0,0,-1,1651,1184,0,0
434,-160,0,0,0,0,0,0,0,0,0,-1,1658,1184,0,0
441,-160,0,0,0,0,0,0,0,0,0,-1,1665,1184,0,0
448,-160,0,0,0,0,0,0,0,0,0,-1,1672,1184,0,0
455,-160,0,0,0,0,0,0,0,0,0,-1,1679,1184,0,0
462,-160,0,0,0,0,0,0,0,0,0,-1,1686,1184,0,0
469,-160,0,0,0,0,0,0,0,0,0,-1,1693,1184,0,0
476,-160,0,0,0,0,0,0,0,0,0,-1,1700,1184,0,0
483,-160,0,0,0,0,0,0,0,0,0,-1,1707,1184,0,0
490,-160,0,0,0,0,0,0,0,0,0,-1,1714,1184,0,0
497,-160,0,0,0,0,0,0,0,0,0,-1,1721,1184,0,0
504,-160,0,0,0,0,0,0,0,0,0,-1,1728,1184,0,0
511,-160,0,0,0,0,0,0,0,0,0,-1,1735,1184,0,0
518,-160,0,0,0,0,0,0,0,0,0,-1,1742,1184,0,0
525,-160,0,0,0,0,0,0,0,0,0,-1,1749,1184,0,0
532,-160,0,0,0,0,0,0,0,0,0,-1,1756,1184,0,0
539,-160,0,0,0,0,0,0,0,0,0,-1,1763,1184,0,0
546,-160,0,0,0,0,0,0,0,0,0,-1,1770,1184,0,0
553,-160,0,0,0,0,0,0,0,0,0,-1,1777,1184,0,0
560,-160,0,0,0,0,0,0,0,0,0,-1,1784,1184,0,0
567,-160,0,0,0,0,0,0,0,0,0,-1,1791,1184,0,0
574,-160,0,0,0,0,0,0,0,0,0,-1,1798,1184,0,0
581,-160,0,0,0,0,0,0,0,0,0,-1,1805,1184,0,0
588,-160,0,0,0,0,0,0,0,0,0,-1,1812,1184,0,0
595,-160,0,0,0,0,0,0,0,0,0,-1,1819,1184,0,0
602,-160,0,0,0,0,0,0,0,0,0,-1,1826,1184,0,0
609,-160,0,0,0,0,0,0,0,0,0,-1,1833,1184,0,0
616,-160,0,0,0,0,0,0,0,0,0,-1,1840,1184,0,0
623,-160,0,0,0,0,0,0,0,0,0,-1,1847,1184,0,0
630,-160,0,0,0,0,0,0,0,0,0,-1,1854,1184,0,0
637,-160,33.4493,3.30811,-0.00156203,-0.00238677,0.000608526,-0.00123932,-0.00270949,0.487615,0.00156621,0.0461795,1861,1184,33.4493,-3.30813
644,-160,33.4879,3.22363,-0.000549062,-0.00152028,-0.000221742,-0.00050083,-0.00156851,-0.214177,0.00092508,0.0440624,1868,1184,33.4879,-3.22366
651,-160,33.3807,2.9115,0.000497528,-0.000481213,-0.000989847,0.00111237,-0.00109605,-0.555823,0.00127504,0.0389466,1875,1184,33.3807,-2.91154
658,-160,33.4291,2.73035,0.00158607,0.000440171,-0.00162763,0.00273865,-0.000712411,-0.616165,0.00210383,0.039076,1882,1184,33.4291,-2.73029
665,-160,33.5968,2.78064,0.00244805,0.00104031,-0.00204288,0.00390492,-0.000416556,-0.619493,0.00275266,0.0384045,1889,1184,33.5968,-2.78059
672,-160,33.5065,2.7876,0.00269617,0.00116338,-0.00204077,0.0041097,-0.000250154,-0.605775,0.00282688,0.0333883,1896,1184,33.5064,-2.78754
679,-160,33.453,2.80994,0.0020038,0.00107661,-0.0017194,0.00332101,-0.000240593,-0.653717,0.00229841,0.0258321,1903,1184,33.453,-2.80999
686,-160,33.5499,2.80334,0.00117512,0.000790093,-0.00137305,0.00236909,-0.000403875,-0.715748,0.00172981,0.0178251,1910,1184,33.5499,-2.80331
693,-160,33.6115,2.77905,0,0,0,0,0,0,0,-1,1917,1184,33.6115,-2.779
700,-160,32.9253,2.62695,0,0,0,0,0,0,0,-1,1924,1184,32.9253,-2.62691
707,-160,24.5115,6.27405,0,0,0,0,0,0,0,-1,1931,1184,24.5115,-6.27401
714,-160,29.8635,5.76489,0,0,0,0,0,0,0,-1,1938,1184,29.8635,-5.76488
721,-160,29.9148,5.68665,0,0,0,0,0,0,0,-1,1945,1184,29.9148,-5.68666
728,-160,29.6726,5.72278,0,0,0,0,0,0,0,-1,1952,1184,29.6726,-5.7228
735,-160,29.6726,5.49146,-0.00245621,0.000143729,0.00126303,0.000656261,-0.00296874,1.1853,0.00223034,0.0166296,1959,1184,29.6726,-5.49151
742,-160,29.6294,5.23376,-0.00217174,0.000121418,0.00184599,0.00114793,-0.00319825,1.0633,0.00260068,0.0146978,1966,1184,29.6294,-5.23382
749,-160,29.635,4.97949,-0.00171267,-0.000311969,0.00252882,0.00161169,-0.00363632,0.920486,0.00310419,0.0162521,1973,1184,29.635,-4.97945
756,-160,29.6305,4.77185,-0.00122258,-0.00149133,0.00342524,0.00207092,-0.00478483,0.765793,0.00406023,0.0105099,1980,1184,29.6305,-4.77179
763,-160,29.5924,4.54858,-0.000683645,-0.0031361,0.0044819,0.00273674,-0.00655649,0.651868,0.00551445,0.0107991,1987,1184,29.5924,-4.54856
770,-160,29.5381,4.29163,-0.000466417,-0.00574588,0.00579746,0.003264,-0.00947629,0.571761,0.00764153,0.0193009,1994,1184,29.5381,-4.29163
777,-160,29.5093,4.1665,-0.000706406,-0.00953879,0.00729236,0.00340273,-0.0136479,0.513138,0.0104197,0.0319952,2001,1184,29.5093,-4.16646
784,-160,29.5192,4.08508,-0.0018502,-0.0148799,0.00905778,0.0027923,-0.0195224,0.473632,0.0140386,0.0428961,2008,1184,29.5191,-4.0851
791,-160,29.6686,4.5271,-0.00409339,-0.022121,0.0109833,0.00110128,-0.0273157,0.441784,0.0185884,0.0454322,2015,1184,29.6686,-4.52707
798,-160,29.5476,4.6637,-0.00734957,-0.0315437,0.0127799,-0.00184937,-0.0370439,0.406419,0.0241032,0.0439648,2022,1184,29.5475,-4.66366
805,-160,29.4028,4.83997,0,0,0,0,0,0,0,-1,2029,1184,29.4028,-4.83994
812,-160,0,0,0,0,0,0,0,0,0,-1,2036,1184,0,0
-700,-167,0,0,0,0,0,0,0,0,0,-1,524,1191,0,0
-693,-167,0,0,0,0,0,0,0,0,0,-1,531,1191,0,0
-686,-167,-19.8432,1.6521,0.0227861,0.0192782,-0.0137473,0.0348909,0.00717339,-0.721949,0.0212765,0.0443714,538,1191,-19.8432,-1.65208
-679,-167,-19.7938,1.4873,0.0231545,0.0216853,-0.0111656,0.0336096,0.0112301,-0.752548,0.0197572,0.0441302,545,1191,-19.7938,-1.4873
-672,-167,-19.7509,1.39441,0.0219394,0.0217009,-0.00842809,0.0302491,0.0133912,-0.778323,0.0175025,0.0432967,552,1191,-19.7509,-1.39447
-665,-167,-19.3722,1.03601,0.0199379,0.0202626,-0.00587025,0.0259728,0.0142278,-0.799223,0.0150182,0.0448405,559,1191,-19.3722,-1.03597
-658,-167,-19.3618,-1.32666,0.0175306,0.0179469,-0.00366508,0.0214097,0.0140678,-0.813763,0.0125626,0.0473069,566,1191,-19.3618,1.32663
-651,-167,-19.4319,0.0510254,0.0148428,0.015164,-0.00189514,0.0169054,0.0131015,-0.827666,0.0102406,0.0468151,573,1191,-19.432,-0.0510464
-644,-167,-19.3348,1.07776,0.0120476,0.0122681,-0.000601118,0.012769,0.0115467,-0.876118,0.00813589,0.036902,580,1191,-19.3348,-1.07778
-637,-167,-19.2936,1.58362,0.00915387,0.00980225,0.000115502,0.00982222,0.00913391,1.39967,0.00633119,0.0156475,587,1191,-19.2936,-1.58366
-630,-167,-19.3475,1.83252,0.00712,0.00725677,0.000562425,0.00775495,0.00662182,0.845897,0.00483671,0.00872083,594,1191,-19.3475,-1.83251
-623,-167,-19.3682,2.09326,0.00443982,0.00455799,0.000716617,0.00521795,0.00377986,0.826531,0.00311207,0.0113884,601,1191,-19.3682,-2.09326
-616,-167,-19.3616,2.38916,0.0019967,0.00270195,0.000609356,0.00305335,0.0016453,1.0477,0.00176463,0.0147792,608,1191,-19.3616,-2.38917
-609,-167,-19.3738,2.70776,0.000468959,0.00123906,0.000113529,0.00125545,0.000452571,1.42744,0.000734181,0.014462,615,1191,-19.3739,-2.70771
-602,-167,-19.4084,2.95886,-0.000403641,0.000937236,-0.000330158,0.00101412,-0.000480526,-1.342,0.000881075,0.0153885,622,1191,-19.4084,-2.95886
-595,-167,-19.3723,3.25488,-0.00129553,0.000926619,-0.000738707,0.00114978,-0.00151869,-1.27742,0.00154554,0.0273127,629,1191,-19.3722,-3.25489
-588,-167,-19.4651,3.51819,-0.00196037,0.00104061,-0.00110477,0.00140345,-0.00232321,-1.25347,0.00217332,0.0279185,636,1191,-19.4651,-3.5182
-581,-167,-19.486,3.69983,0,0,0,0,0,0,0,-1,643,1191,-19.486,-3.69985
-574,-167,-18.9896,1.51196,0,0,0,0,0,0,0,-1,650,1191,-18.9896,-1.51199
-567,-167,-23.5213,0.881104,0,0,0,0,0,0,0,-1,657,1191,-23.5213,-0.881152
-560,-167,-23.5735,0.878052,6.94929e-05,0.000759745,-0.00206049,0.00250382,-0.00167458,-0.868376,0.00242818,0.0446898,664,1191,-23.5736,-0.87807
-553,-167,-23.6081,0.820923,0.000738359,0.000734595,-0.0022273,0.00296378,-0.00149083,-0.784976,0.00261832,0.0383012,671,1191,-23.6081,-0.820904
-546,-167,-23.6536,0.85791,0.00197328,0.000565563,-0.00233744,0.00371054,-0.00117169,-0.639154,0.00294306,0.0345088,678,1191,-23.6535,-0.85788
-539,-167,-23.6594,0.929321,0.00375052,0.000417959,-0.00231747,0.00493856,-0.000770081,-0.473713,0.00357681,0.0383408,685,1191,-23.6594,-0.929328
-532,-167,-23.6168,0.819946,0.00651729,0.000377491,-0.00211809,0.00717708,-0.0002823,-0.301976,0.00488154,0.0441939,692,1191,-23.6168,-0.819892
-525,-167,-23.4974,0.554443,0.010527,0.000243076,-0.0019656,0.0108898,-0.00011981,-0.182563,0.00730016,0.0445717,699,1191,-23.4975,-0.554442
-518,-167,-23.4445,0.49292,0.0140432,0.000269128,-0.00253542,0.014495,-0.000182746,-0.176373,0.00972485,0.0422294,706,1191,-23.4445,-0.492905
-511,-167,0,0,0,0,0,0,0,0,0,-1,713,1191,0,0
-504,-167,0,0,0,0,0,0,0,0,0,-1,720,1191,0,0
-497,-167,0,0,0,0,0,0,0,0,0,-1,727,1191,0,0
-490,-167,0,0,0,0,0,0,0,0,0,-1,734,1191,0,0
-483,-167,0,0,0,0,0,0,0,0,0,-1,741,1191,0,0
-476,-167,0,0,0,0,0,0,0,0,0,-1,748,1191,0,0
-469,-167,0,0,0,0,0,0,0,0,0,-1,755,1191,0,0
-462,-167,0,0,0,0,0,0,0,0,0,-1,762,1191,0,0
-455,-167,0,0,0,0,0,0,0,0,0,-1,769,1191,0,0
-448,-167,0,0,0,0,0,0,0,0,0,-1,776,1191,0,0
-441,-167,0,0,0,0,0,0,0,0,0,-1,783,1191,0,0
-434,-167,0,0,0,0,0,0,0,0,0,-1,790,1191,0,0
-427,-167,0,0,0,0,0,0,0,0,0,-1,797,1191,0,0
-420,-167,0,0,0,0,0,0,0,0,0,-1,804,1191,0,0
-413,-167,0,0,0,0,0,0,0,0,0,-1,811,1191,0,0
-406,-167,0,0,0,0,0,0,0,0,0,-1,818,1191,0,0
-399,-167,0,0,0,0,0,0,0,0,0,-1,825,1191,0,0
-392,-167,0,0,0,0,0,0,0,0,0,-1,832,1191,0,0
-385,-167,0,0,0,0,0,0,0,0,0,-1,839,1191,0,0
-378,-167,0,0,0,0,0,0,0,0,0,-1,846,1191,0,0
-371,-167,0,0,0,0,0,0,0,0,0,-1,853,1191,0,0
-364,-167,0,0,0,0,0,0,0,0,0,-1,860,1191,0,0
-357,-167,0,0,0,0,0,0,0,0,0,-1,867,1191,0,0
-350,-167,0,0,0,0,0,0,0,0,0,-1,874,1191,0,0
-343,-167,0,0,0,0,0,0,0,0,0,-1,881,1191,0,0
-336,-167,0,0,0,0,0,0,0,0,0,-1,888,1191,0,0
-329,-167,0,0,0,0,0,0,0,0,0,-1,895,1191,0,0
-322,-167,0,0,0,0,0,0,0,0,0,-1,902,1191,0,0
-315,-167,0,0,0,0,0,0,0,0,0,-1,909,1191,0,0
-308,-167,0,0,0,0,0,0,0,0,0,-1,916,1191,0,0
-301,-167,0,0,0,0,0,0,0,0,0,-1,923,1191,0,0
-294,-167,0,0,0,0,0,0,0,0,0,-1,930,1191,0,0
-287,-167,0,0,0,0,0,0,0,0,0,-1,937,1191,0,0
-280,-167,0,0,0,0,0,0,0,0,0,-1,944,1191,0,0
-273,-167,0,0,0,0,0,0,0,0,0,-1,951,1191,0,0
-266,-167,0,0,0,0,0,0,0,0,0,-1,958,1191,0,0
-259,-167,0,0,0,0,0,0,0,0,0,-1,965,1191,0,0
-252,-167,0,0,0,0,0,0,0,0,0,-1,972,1191,0,0
-245,-167,0,0,0,0,0,0,0,0,0,-1,979,1191,0,0
-238,-167,0,0,0,0,0,0,0,0,0,-1,986,1191,0,0
-231,-167,0,0,0,0,0,0,0,0,0,-1,993,1191,0,0
-224,-167,0,0,0,0,0,0,0,0,0,-1,1000,1191,0,0
-217,-167,0,0,0,0,0,0,0,0,0,-1,1007,1191,0,0
-210,-167,0,0,0,0,0,0,0,0,0,-1,1014,1191,0,0
-203,-167,0,0,0,0,0,0,0,0,0,-1,1021,1191,0,0
-196,-167,0,0,0,0,0,0,0,0,0,-1,1028,1191,0,0
-189,-167,0,0,0,0,0,0,0,0,0,-1,1035,1191,0,0
-182,-167,0,0,0,0,0,0,0,0,0,-1,1042,1191,0,0
-175,-167,0,0,0,0,0,0,0,0,0,-1,1049,1191,0,0
-168,-167,0,0,0,0,0,0,0,0,0,-1,1056,1191,0,0
-161,-167,0,0,0,0,0,0,0,0,0,-1,1063,1191,0,0
-154,-167,0,0,0,0,0,0,0,0,0,-1,1070,1191,0,0
-147,-167,0,0,0,0,0,0,0,0,0,-1,1077,1191,0,0
-140,-167,0,0,0,0,0,0,0,0,0,-1,1084,1191,0,0
-133,-167,0,0,0,0,0,0,0,0,0,-1,1091,1191,0,0
-126,-167,0,0,0,0,0,0,0,0,0,-1,1098,1191,0,0
-119,-167,0,0,0,0,0,0,0,0,0,-1,1105,1191,0,0
-112,-167,0,0,0,0,0,0,0,0,0,-1,1112,1191,0,0
-105,-167,0,0,0,0,0,0,0,0,0,-1,1119,1191,0,0
-98,-167,0,0,0,0,0,0,0,0,0,-1,1126,1191,0,0
-91,-167,0,0,0,0,0,0,0,0,0,-1,1133,1191,0,0
-84,-167,0,0,0,0,0,0,0,0,0,-1,1140,1191,0,0
-77,-167,0,0,0,0,0,0,0,0,0,-1,1147,1191,0,0
-70,-167,0,0,0,0,0,0,0,0,0,-1,1154,1191,0,0
-63,-167,0,0,0,0,0,0,0,0,0,-1,1161,1191,0,0
-56,-167,0,0,0,0,0,0,0,0,0,-1,1168,1191,0,0
-49,-167,0,0,0,0,0,0,0,0,0,-1,1175,1191,0,0
-42,-167,0,0,0,0,0,0,0,0,0,-1,1182,1191,0,0
-35,-167,0,0,0,0,0,0,0,0,0,-1,1189,1191,0,0
-28,-167,0,0,0,0,0,0,0,0,0,-1,1196,1191,0,0
-21,-167,0,0,0,0,0,0,0,0,0,-1,1203,1191,0,0
-14,-167,0,0,0,0,0,0,0,0,0,-1,1210,1191,0,0
-7,-167,0,0,0,0,0,0,0,0,0,-1,1217,1191,0,0
0,-167,0,0,0,0,0,0,0,0,0,-1,1224,1191,0,0
7,-167,0,0,0,0,0,0,0,0,0,-1,1231,1191,0,0
14,-167,0,0,0,0,0,0,0,0,0,-1,1238,1191,0,0
21,-167,0,0,0,0,0,0,0,0,0,-1,1245,1191,0,0
28,-167,0,0,0,0,0,0,0,0,0,-1,1252,1191,0,0
35,-167,0,0,0,0,0,0,0,0,0,-1,1259,1191,0,0
42,-167,0,0,0,0,0,0,0,0,0,-1,1266,1191,0,0
49,-167,0,0,0,0,0,0,0,0,0,-1,1273,1191,0,0
56,-167,0,0,0,0,0,0,0,0,0,-1,1280,1191,0,0
63,-167,0,0,0,0,0,0,0,0,0,-1,1287,1191,0,0
70,-167,0,0,0,0,0,0,0,0,0,-1,1294,1191,0,0
77,-167,0,0,0,0,0,0,0,0,0,-1,1301,1191,0,0
84,-167,0,0,0,0,0,0,0,0,0,-1,1308,1191,0,0
91,-167,0,0,0,0,0,0,0,0,0,-1,1315,1191,0,0
98,-167,0,0,0,0,0,0,0,0,0,-1,1322,1191,0,0
105,-167,0,0,0,0,0,0,0,0,0,-1,1329,1191,0,0
112,-167,0,0,0,0,0,0,0,0,0,-1,1336,1191,0,0
119,-167,0,0,0,0,0,0,0,0,0,-1,1343,1191,0,0
126,-167,0,0,0,0,0,0,0,0,0,-1,1350,1191,0,0
133,-167,0,0,0,0,0,0,0,0,0,-1,1357,1191,0,0
140,-167,0,0,0,0,0,0,0,0,0,-1,1364,1191,0,0
147,-167,0,0,0,0,0,0,0,0,0,-1,1371,1191,0,0
154,-167,0,0,0,0,0,0,0,0,0,-1,1378,1191,0,0
161,-167,0,0,0,0,0,0,0,0,0,-1,1385,1191,0,0
168,-167,0,0,0,0,0,0,0,0,0,-1,1392,1191,0,0
175,-167,0,0,0,0,0,0,0,0,0,-1,1399,1191,0,0
182,-167,0,0,0,0,0,0,0,0,0,-1,1406,1191,0,0
189,-167,0,0,0,0,0,0,0,0,0,-1,1413,1191,0,0
196,-167,0,0,0,0,0,0,0,0,0,-1,1420,1191,0,0
203,-167,0,0,0,0,0,0,0,0,0,-1,1427,1191,0,0
210,-167,0,0,0,0,0,0,0,0,0,-1,1434,1191,0,0
217,-167,0,0,0,0,0,0,0,0,0,-1,1441,1191,0,0
224,-167,0,0,0,0,0,0,0,0,0,-1,1448,1191,0,0
231,-167,0,0,0,0,0,0,0,0,0,-1,1455,1191,0,0
238,-167,0,0,0,0,0,0,0,0,0,-1,1462,1191,0,0
245,-167,0,0,0,0,0,0,0,0,0,-1,1469,1191,0,0
252,-167,0,0,0,0,0,0,0,0,0,-1,1476,1191,0,0
259,-167,0,0,0,0,0,0,0,0,0,-1,1483,1191,0,0
266,-167,0,0,0,0,0,0,0,0,0,-1,1490,1191,0,0
273,-167,0,0,0,0,0,0,0,0,0,-1,1497,1191,0,0
280,-167,0,0,0,0,0,0,0,0,0,-1,1504,1191,0,0
287,-167,0,0,0,0,0,0,0,0,0,-1,1511,1191,0,0
294,-167,0,0,0,0,0,0,0,0,0,-1,1518,1191,0,0
301,-167,0,0,0,0,0,0,0,0,0,-1,1525,1191,0,0
308,-167,0,0,0,0,0,0,0,0,0,-1,1532,1191,0,0
315,-167,0,0,0,0,0,0,0,0,0,-1,1539,1191,0,0
322,-167,0,0,0,0,0,0,0,0,0,-1,1546,1191,0,0
329,-167,0,0,0,0,0,0,0,0,0,-1,1553,1191,0,0
336,-167,0,0,0,0,0,0,0,0,0,-1,1560,1191,0,0
343,-167,0,0,0,0,0,0,0,0,0,-1,1567,1191,0,0
350,-167,0,0,0,0,0,0,0,0,0,-1,1574,1191,0,0
357,-167,0,0,0,0,0,0,0,0,0,-1,1581,1191,0,0
364,-167,0,0,0,0,0,0,0,0,0,-1,1588,1191,0,0
371,-167,0,0,0,0,0,0,0,0,0,-1,1595,1191,0,0
378,-167,0,0,0,0,0,0,0,0,0,-1,1602,1191,0,0
385,-167,0,0,0,0,0,0,0,0,0,-1,1609,1191,0,0
392,-167,0,0,0,0,0,0,0,0,0,-1,1616,1191,0,0
399,-167,0,0,0,0,0,0,0,0,0,-1,1623,1191,0,0
406,-167,0,0,0,0,0,0,0,0,0,-1,1630,1191,0,0
413,-167,0,0,0,0,0,0,0,0,0,-1,1637,1191,0,0
420,-167,0,0,0,0,0,0,0,0,0,-1,1644,1191,0,0
427,-167,0,0,0,0,0,0,0,0,0,-1,1651,1191,0,0
434,-167,0,0,0,0,0,0,0,0,0,-1,1658,1191,0,0
441,-167,0,0,0,0,0,0,0,0,0,-1,1665,1191,0,0
448,-167,0,0,0,0,0,0,0,0,0,-1,1672,1191,0,0
455,-167,0,0,0,0,0,0,0,0,0,-1,1679,1191,0,0
462,-167,0,0,0,0,0,0,0,0,0,-1,1686,1191,0,0
469,-167,0,0,0,0,0,0,0,0,0,-1,1693,1191,0,0
476,-167,0,0,0,0,0,0,0,0,0,-1,1700,1191,0,0
483,-167,0,0,0,0,0,0,0,0,0,-1,1707,1191,0,0
490,-167,0,0,0,0,0,0,0,0,0,-1,1714,1191,0,0
497,-167,0,0,0,0,0,0,0,0,0,-1,1721,1191,0,0
504,-167,0,0,0,0,0,0,0,0,0,-1,1728,1191,0,0
511,-167,0,0,0,0,0,0,0,0,0,-1,1735,1191,0,0
518,-167,0,0,0,0,0,0,0,0,0,-1,1742,1191,0,0
525,-167,0,0,0,0,0,0,0,0,0,-1,1749,1191,0,0
532,-167,0,0,0,0,0,0,0,0,0,-1,1756,1191,0,0
539,-167,0,0,0,0,0,0,0,0,0,-1,1763,1191,0,0
546,-167,0,0,0,0,0,0,0,0,0,-1,1770,1191,0,0
553,-167,0,0,0,0,0,0,0,0,0,-1,1777,1191,0,0
560,-167,0,0,0,0,0,0,0,0,0,-1,1784,1191,0,0
567,-167,0,0,0,0,0,0,0,0,0,-1,1791,1191,0,0
574,-167,0,0,0,0,0,0,0,0,0,-1,1798,1191,0,0
581,-167,0,0,0,0,0,0,0,0,0,-1,1805,1191,0,0
588,-167,0,0,0,0,0,0,0,0,0,-1,1812,1191,0,0
595,-167,0,0,0,0,0,0,0,0,0,-1,1819,1191,0,0
602,-167,0,0,0,0,0,0,0,0,0,-1,1826,1191,0,0
609,-167,0,0,0,0,0,0,0,0,0,-1,1833,1191,0,0
616,-167,0,0,0,0,0,0,0,0,0,-1,1840,1191,0,0
623,-167,0,0,0,0,0,0,0,0,0,-1,1847,1191,0,0
630,-167,0,0,0,0,0,0,0,0,0,-1,1854,1191,0,0
637,-167,33.3137,3.40393,-0.00127031,-0.00178645,0.00137237,-0.000131951,-0.00292481,0.692461,0.00190741,0.0464551,1861,1191,33.3138,-3.40395
644,-167,33.4248,3.34668,-0.000278821,-0.000776724,-6.96631e-05,-0.000269258,-0.000786287,-0.136424,0.000461415,0.0452252,1868,1191,33.4248,-3.34672
651,-167,33.1619,3.00757,0.00082477,0.000420854,-0.00140665,0.00204389,-0.000798265,-0.714099,0.00169263,0.042271,1875,1191,33.1618,-3.00752
658,-167,33.2307,2.90808,0.00196387,0.00140851,-0.00246965,0.0041714,-0.000799025,-0.729415,0.003082,0.041685,1882,1191,33.2307,-2.90811
665,-167,33.5785,2.86548,0.00279931,0.00196794,-0.00307434,0.00548594,-0.000718696,-0.7182,0.00391889,0.0349744,1889,1191,33.5784,-2.86544
672,-167,33.4839,2.80835,0.00295105,0.00195934,-0.00304229,0.00553763,-0.000627247,-0.704615,0.00391761,0.0262603,1896,1191,33.4839,-2.80829
679,-167,33.4855,2.79333,0.00221371,0.00174812,-0.00260853,0.00459981,-0.000637983,-0.740894,0.00329982,0.0221256,1903,1191,33.4855,-2.79339
686,-167,33.5522,2.80188,0.00139325,0.00135391,-0.00215931,0.00353298,-0.000785816,-0.780844,0.00265629,0.0317085,1910,1191,33.5522,-2.80186
693,-167,33.5743,2.83057,0,0,0,0,0,0,0,-1,1917,1191,33.5743,-2.83052
700,-167,28.0459,2.70508,0,0,0,0,0,0,0,-1,1924,1191,28.0459,-2.70513
707,-167,29.4708,7.10168,0,0,0,0,0,0,0,-1,1931,1191,29.4708,-7.10172
714,-167,29.6906,6.30847,-0.000759014,0.000554635,-0.000377803,0.00065554,-0.000859918,-1.30981,0.000877599,0.0468944,1938,1191,29.6906,-6.3085
721,-167,29.8373,5.74036,-0.00150828,0.000412776,0.000216948,0.000436971,-0.00153248,1.45973,0.00119426,0.0386528,1945,1191,29.8373,-5.74032
728,-167,29.6248,5.6604,-0.002074,-2.0537e-05,0.000938633,0.000343849,-0.00243838,1.20049,0.00175149,0.0291894,1952,1191,29.6248,-5.66045
735,-167,29.3907,5.52954,-0.0023556,0.000108837,0.00146648,0.000792061,-0.00303882,1.1348,0.00233512,0.0149897,1959,1191,29.3908,-5.52959
742,-167,29.3604,5.2677,-0.00197278,0.000213753,0.00221233,0.00158821,-0.00334723,1.01488,0.00290917,0.0152018,1966,1191,29.3603,-5.2677
749,-167,29.3661,4.99451,-0.00140083,-0.000177029,0.00315875,0.00242855,-0.0040064,0.881071,0.00375226,0.0139623,1973,1191,29.3661,-4.99454
756,-167,29.3833,4.76965,-0.000855901,-0.0012935,0.00441523,0.00334595,-0.00549535,0.760641,0.00515456,0.0104116,1980,1191,29.3833,-4.76967
763,-167,29.3337,4.52222,-0.000256947,-0.00278188,0.0059646,0.00457733,-0.00761616,0.681107,0.00711242,0.0114015,1987,1191,29.3337,-4.52219
770,-167,29.2606,4.36157,2.91749e-05,-0.00529043,0.00788764,0.0056934,-0.0109547,0.62278,0.00977045,0.0242756,1994,1191,29.2606,-4.36155
777,-167,29.4153,4.29138,-0.000163586,-0.00907667,0.0101333,0.00644982,-0.0156901,0.578231,0.0131483,0.0409669,2001,1191,29.4153,-4.29138
784,-167,29.5723,4.17188,0,0,0,0,0,0,0,-1,2008,1191,29.5723,-4.17184
791,-167,29.635,4.65771,0,0,0,0,0,0,0,-1,2015,1191,29.635,-4.65777
798,-167,29.3799,5.16638,-0.00668974,-0.0321361,0.0183356,0.00290462,-0.0417305,0.482086,0.0288373,0.0455367,2022,1191,29.38,-5.16643
805,-167,29.1565,5.06311,-0.0114578,-0.0453298,0.0206614,-0.0016782,-0.0551094,0.442081,0.0361932,0.0495389,2029,1191,29.1564,-5.06311
812,-167,0,0,0,0,0,0,0,0,0,-1,2036,1191,0,0
-700,-174,0,0,0,0,0,0,0,0,0,-1,524,1198,0,0
-693,-174,0,0,0,0,0,0,0,0,0,-1,531,1198,0,0
-686,-174,-19.6816,1.4353,0.0187635,0.0457564,-0.0154178,0.0527505,0.0117694,-1.14492,0.0319742,0.0445534,538,1198,-19.6816,-1.43531
-679,-174,-20.1678,1.28918,0.0205609,0.0460647,-0.0117865,0.0506775,0.0159482,-1.19776,0.0299209,0.0450168,545,1198,-20.1678,-1.28913
-672,-174,-19.3827,1.49011,0.0201375,0.0431448,-0.00839459,0.0458821,0.0174003,-1.2556,0.0267463,0.0431553,552,1198,-19.3827,-1.49014
-665,-174,-18.9373,0.675781,0,0,0,0,0,0,0,-1,559,1198,-18.9372,-0.675801
-658,-174,-19.515,-1.07227,0.0165218,0.0328637,-0.00305223,0.0334152,0.0159704,-1.39205,0.0192985,0.0428735,566,1198,-19.515,1.07233
-651,-174,-19.7118,0.10437,0.0140744,0.0269126,-0.00121053,0.0270257,0.0139612,-1.4776,0.0156062,0.0421818,573,1198,-19.7118,-0.104362
-644,-174,-19.3799,1.04663,0.011457,0.021091,7.23216e-05,0.0210915,0.0114564,1.56329,0.0121923,0.0406212,580,1198,-19.3799,-1.04664
-637,-174,-18.9537,1.57971,0.00877172,0.0159561,0.000758327,0.0160353,0.00869254,1.46677,0.00926889,0.0215982,587,1198,-18.9537,-1.57973
-630,-174,-19.0346,1.84033,0.00685397,0.0113914,0.00114403,0.0116636,0.00658185,1.33727,0.0067525,0.0114281,594,1198,-19.0346,-1.84028
-623,-174,-19.0636,2.10986,0.00418317,0.00699019,0.00114152,0.0073958,0.00377756,1.22939,0.0042703,0.0134128,601,1198,-19.0636,-2.10983
-616,-174,-19.0588,2.40845,0.00163263,0.00372182,0.000961732,0.00409712,0.00125733,1.19873,0.00242357,0.0200758,608,1198,-19.0588,-2.40843
-609,-174,-19.079,2.71313,-4.5739e-05,0.00132264,0.000281577,0.00137832,-0.000101415,1.37559,0.000954481,0.0222965,615,1198,-19.079,-2.71308
-602,-174,-19.1248,2.96301,-0.00102931,0.000800906,-0.000380656,0.00087692,-0.00110532,-1.3737,0.00114698,0.014552,622,1198,-19.1248,-2.96297
-595,-174,-19.1341,3.27539,-0.00199453,0.000716959,-0.000925892,0.00100296,-0.00228053,-1.2712,0.00194296,0.018809,629,1198,-19.1341,-3.27534
-588,-174,-19.3321,3.48706,-0.00265145,0.000716015,-0.00133037,0.00117817,-0.0031136,-1.23645,0.00256047,0.0232159,636,1198,-19.3321,-3.48705
-581,-174,-19.2533,3.81396,-0.00224174,0.00054112,-0.00185137,0.00146565,-0.00316627,-1.10765,0.00273366,0.0282843,643,1198,-19.2533,-3.81394
-574,-174,-19.2676,4.27258,0,0,0,0,0,0,0,-1,650,1198,-19.2676,-4.27262
-567,-174,-20.5081,1.77661,0,0,0,0,0,0,0,-1,657,1198,-20.5081,-1.77664
-560,-174,-23.6605,0.950928,0,0,0,0,0,0,0,-1,664,1198,-23.6604,-0.950932
-553,-174,-23.6479,0.935303,6.40237e-05,-0.000113271,-0.00221742,0.00219457,-0.00224381,-0.76542,0.00256255,0.0373594,671,1198,-23.6479,-0.935318
-546,-174,-23.6556,0.922729,0.00116856,-0.00040503,-0.00218585,0.0027049,-0.00194137,-0.612643,0.00269457,0.0291855,678,1198,-23.6556,-0.922741
-539,-174,-23.6707,0.946045,0.00271419,-0.000658204,-0.00198107,0.00362951,-0.00157353,-0.432817,0.00308116,0.0345244,685,1198,-23.6707,-0.946052
-532,-174,-23.7148,0.894409,0.00502015,-0.000744069,-0.00152604,0.00539923,-0.00112315,-0.24348,0.00402643,0.0440214,692,1198,-23.7148,-0.894374
-525,-174,-23.66,0.695557,0.0085215,-0.000818919,-0.00091705,0.00861069,-0.000908104,-0.0969474,0.00606586,0.0431397,699,1198,-23.66,-0.695599
-518,-174,-23.4614,0.565063,0.0119839,-0.000682532,-0.00086056,0.0120421,-0.000740731,-0.0675268,0.008286,0.0417756,706,1198,-23.4614,-0.565039
-511,-174,0,0,0,0,0,0,0,0,0,-1,713,1198,0,0
-504,-174,0,0,0,0,0,0,0,0,0,-1,720,1198,0,0
-497,-174,0,0,0,0,0,0,0,0,0,-1,727,1198,0,0
-490,-174,0,0,0,0,0,0,0,0,0,-1,734,1198,0,0
-483,-174,0,0,0,0,0,0,0,0,0,-1,741,1198,0,0
-476,-174,0,0,0,0,0,0,0,0,0,-1,748,1198,0,0
-469,-174,0,0,0,0,0,0,0,0,0,-1,755,1198,0,0
-462,-174,0,0,0,0,0,0,0,0,0,-1,762,1198,0,0
-455,-174,0,0,0,0,0,0,0,0,0,-1,769,1198,0,0
-448,-174,0,0,0,0,0,0,0,0,0,-1,776,1198,0,0
-441,-174,0,0,0,0,0,0,0,0,0,-1,783,1198,0,0
-434,-174,0,0,0,0,0,0,0,0,0,-1,790,1198,0,0
-427,-174,0,0,0,0,0,0,0,0,0,-1,797,1198,0,0
-420,-174,0,0,0,0,0,0,0,0,0,-1,804,1198,0,0
-413,-174,0,0,0,0,0,0,0,0,0,-1,811,1198,0,0
-406,-174,0,0,0,0,0,0,0,0,0,-1,818,1198,0,0
-399,-174,0,0,0,0,0,0,0,0,0,-1,825,1198,0,0
-392,-174,0,0,0,0,0,0,0,0,0,-1,832,1198,0,0
-385,-174,0,0,0,0,0,0,0,0,0,-1,839,1198,0,0
-378,-174,0,0,0,0,0,0,0,0,0,-1,846,1198,0,0
-371,-174,0,0,0,0,0,0,0,0,0,-1,853,1198,0,0
-364,-174,0,0,0,0,0,0,0,0,0,-1,860,1198,0,0
-357,-174,0,0,0,0,0,0,0,0,0,-1,867,1198,0,0
-350,-174,0,0,0,0,0,0,0,0,0,-1,874,1198,0,0
-343,-174,0,0,0,0,0,0,0,0,0,-1,881,1198,0,0
-336,-174,0,0,0,0,0,0,0,0,0,-1,888,1198,0,0
-329,-174,0,0,0,0,0,0,0,0,0,-1,895,1198,0,0
-322,-174,0,0,0,0,0,0,0,0,0,-1,902,1198,0,0
-315,-174,0,0,0,0,0,0,0,0,0,-1,909,1198,0,0
-308,-174,0,0,0,0,0,0,0,0,0,-1,916,1198,0,0
-301,-174,0,0,0,0,0,0,0,0,0,-1,923,1198,0,0
-294,-174,0,0,0,0,0,0,0,0,0,-1,930,1198,0,0
-287,-174,0,0,0,0,0,0,0,0,0,-1,937,1198,0,0
-280,-174,0,0,0,0,0,0,0,0,0,-1,944,1198,0,0
-273,-174,0,0,0,0,0,0,0,0,0,-1,951,1198,0,0
-266,-174,0,0,0,0,0,0,0,0,0,-1,958,1198,0,0
-259,-174,0,0,0,0,0,0,0,0,0,-1,965,1198,0,0
-252,-174,0,0,0,0,0,0,0,0,0,-1,972,1198,0,0
-245,-174,0,0,0,0,0,0,0,0,0,-1,979,1198,0,0
-238,-174,0,0,0,0,0,0,0,0,0,-1,986,1198,0,0
-231,-174,0,0,0,0,0,0,0,0,0,-1,993,1198,0,0
-224,-174,0,0,0,0,0,0,0,0,0,-1,1000,1198,0,0
-217,-174,0,0,0,0,0,0,0,0,0,-1,1007,1198,0,0
-210,-174,0,0,0,0,0,0,0,0,0,-1,1014,1198,0,0
-203,-174,0,0,0,0,0,0,0,0,0,-1,1021,1198,0,0
-196,-174,0,0,0,0,0,0,0,0,0,-1,1028,1198,0,0
-189,-174,0,0,0,0,0,0,0,0,0,-1,1035,1198,0,0
-182,-174,0,0,0,0,0,0,0,0,0,-1,1042,1198,0,0
-175,-174,0,0,0,0,0,0,0,0,0,-1,1049,1198,0,0
-168,-174,0,0,0,0,0,0,0,0,0,-1,1056,1198,0,0
-161,-174,0,0,0,0,0,0,0,0,0,-1,1063,1198,0,0
-154,-174,0,0,0,0,0,0,0,0,0,-1,1070,1198,0,0
-147,-174,0,0,0,0,0,0,0,0,0,-1,1077,1198,0,0
-140,-174,0,0,0,0,0,0,0,0,0,-1,1084,1198,0,0
-133,-174,0,0,0,0,0,0,0,0,0,-1,1091,1198,0,0
-126,-174,0,0,0,0,0,0,0,0,0,-1,1098,1198,0,0
-119,-174,0,0,0,0,0,0,0,0,0,-1,1105,1198,0,0
-112,-174,0,0,0,0,0,0,0,0,0,-1,1112,1198,0,0
-105,-174,0,0,0,0,0,0,0,0,0,-1,1119,1198,0,0
-98,-174,0,0,0,0,0,0,0,0,0,-1,1126,1198,0,0
-91,-174,0,0,0,0,0,0,0,0,0,-1,1133,1198,0,0
-84,-174,0,0,0,0,0,0,0,0,0,-1,1140,1198,0,0
-77,-174,0,0,0,0,0,0,0,0,0,-1,1147,1198,0,0
-70,-174,0,0,0,0,0,0,0,0,0,-1,1154,1198,0,0
-63,-174,0,0,0,0,0,0,0,0,0,-1,1161,1198,0,0
-56,-174,0,0,0,0,0,0,0,0,0,-1,1168,1198,0,0
-49,-174,0,0,0,0,0,0,0,0,0,-1,1175,1198,0,0
-42,-174,0,0,0,0,0,0,0,0,0,-1,1182,1198,0,0
-35,-174,0,0,0,0,0,0,0,0,0,-1,1189,1198,0,0
-28,-174,0,0,0,0,0,0,0,0,0,-1,1196,1198,0,0
-21,-174,0,0,0,0,0,0,0,0,0,-1,1203,1198,0,0
-14,-174,0,0,0,0,0,0,0,0,0,-1,1210,1198,0,0
-7,-174,0,0,0,0,0,0,0,0,0,-1,1217,1198,0,0
0,-174,0,0,0,0,0,0,0,0,0,-1,1224,1198,0,0
7,-174,0,0,0,0,0,0,0,0,0,-1,1231,1198,0,0
14,-174,0,0,0,0,0,0,0,0,0,-1,1238,1198,0,0
21,-174,0,0,0,0,0,0,0,0,0,-1,1245,1198,0,0
28,-174,0,0,0,0,0,0,0,0,0,-1,1252,1198,0,0
35,-174,0,0,0,0,0,0,0,0,0,-1,1259,1198,0,0
42,-174,0,0,0,0,0,0,0,0,0,-1,1266,1198,0,0
49,-174,0,0,0,0,0,0,0,0,0,-1,1273,1198,0,0
56,-174,0,0,0,0,0,0,0,0,0,-1,1280,1198,0,0
63,-174,0,0,0,0,0,0,0,0,0,-1,1287,1198,0,0
70,-174,0,0,0,0,0,0,0,0,0,-1,1294,1198,0,0
77,-174,0,0,0,0,0,0,0,0,0,-1,1301,1198,0,0
84,-174,0,0,0,0,0,0,0,0,0,-1,1308,1198,0,0
91,-174,0,0,0,0,0,0,0,0,0,-1,1315,1198,0,0
98,-174,0,0,0,0,0,0,0,0,0,-1,1322,1198,0,0
105,-174,0,0,0,0,0,0,0,0,0,-1,1329,1198,0,0
112,-174,0,0,0,0,0,0,0,0,0,-1,1336,1198,0,0
119,-174,0,0,0,0,0,0,0,0,0,-1,1343,1198,0,0
126,-174,0,0,0,0,0,0,0,0,0,-1,1350,1198,0,0
133,-174,0,0,0,0,0,0,0,0,0,-1,1357,1198,0,0
140,-174,0,0,0,0,0,0,0,0,0,-1,1364,1198,0,0
147,-174,0,0,0,0,0,0,0,0,0,-1,1371,1198,0,0
154,-174,0,0,0,0,0,0,0,0,0,-1,1378,1198,0,0
161,-174,0,0,0,0,0,0,0,0,0,-1,1385,1198,0,0
168,-174,0,0,0,0,0,0,0,0,0,-1,1392,1198,0,0
175,-174,0,0,0,0,0,0,0,0,0,-1,1399,1198,0,0
182,-174,0,0,0,0,0,0,0,0,0,-1,1406,1198,0,0
189,-174,0,0,0,0,0,0,0,0,0,-1,1413,1198,0,0
196,-174,0,0,0,0,0,0,0,0,0,-1,1420,1198,0,0
203,-174,0,0,0,0,0,0,0,0,0,-1,1427,1198,0,0
210,-174,0,0,0,0,0,0,0,0,0,-1,1434,1198,0,0
217,-174,0,0,0,0,0,0,0,0,0,-1,1441,1198,0,0
224,-174,0,0,0,0,0,0,0,0,0,-1,1448,1198,0,0
231,-174,0,0,0,0,0,0,0,0,0,-1,1455,1198,0,0
238,-174,0,0,0,0,0,0,0,0,0,-1,1462,1198,0,0
245,-174,0,0,0,0,0,0,0,0,0,-1,1469,1198,0,0
252,-174,0,0,0,0,0,0,0,0,0,-1,1476,1198,0,0
259,-174,0,0,0,0,0,0,0,0,0,-1,1483,1198,0,0
266,-174,0,0,0,0,0,0,0,0,0,-1,1490,1198,0,0
273,-174,0,0,0,0,0,0,0,0,0,-1,1497,1198,0,0
280,-174,0,0,0,0,0,0,0,0,0,-1,1504,1198,0,0
287,-174,0,0,0,0,0,0,0,0,0,-1,1511,1198,0,0
294,-174,0,0,0,0,0,0,0,0,0,-1,1518,1198,0,0
301,-174,0,0,0,0,0,0,0,0,0,-1,1525,1198,0,0
308,-174,0,0,0,0,0,0,0,0,0,-1,1532,1198,0,0
315,-174,0,0,0,0,0,0,0,0,0,-1,1539,1198,0,0
322,-174,0,0,0,0,0,0,0,0,0,-1,1546,1198,0,0
329,-174,0,0,0,0,0,0,0,0,0,-1,1553,1198,0,0
336,-174,0,0,0,0,0,0,0,0,0,-1,1560,1198,0,0
343,-174,0,0,0,0,0,0,0,0,0,-1,1567,1198,0,0
350,-174,0,0,0,0,0,0,0,0,0,-1,1574,1198,0,0
357,-174,0,0,0,0,0,0,0,0,0,-1,1581,1198,0,0
364,-174,0,0,0,0,0,0,0,0,0,-1,1588,1198,0,0
371,-174,0,0,0,0,0,0,0,0,0,-1,1595,1198,0,0
378,-174,0,0,0,0,0,0,0,0,0,-1,1602,1198,0,0
385,-174,0,0,0,0,0,0,0,0,0,-1,1609,1198,0,0
392,-174,0,0,0,0,0,0,0,0,0,-1,1616,1198,0,0
399,-174,0,0,0,0,0,0,0,0,0,-1,1623,1198,0,0
406,-174,0,0,0,0,0,0,0,0,0,-1,1630,1198,0,0
413,-174,0,0,0,0,0,0,0,0,0,-1,1637,1198,0,0
420,-174,0,0,0,0,0,0,0,0,0,-1,1644,1198,0,0
427,-174,0,0,0,0,0,0,0,0,0,-1,1651,1198,0,0
434,-174,0,0,0,0,0,0,0,0,0,-1,1658,1198,0,0
441,-174,0,0,0,0,0,0,0,0,0,-1,1665,1198,0,0
448,-174,0,0,0,0,0,0,0,0,0,-1,1672,1198,0,0
455,-174,0,0,0,0,0,0,0,0,0,-1,1679,1198,0,0
462,-174,0,0,0,0,0,0,0,0,0,-1,1686,1198,0,0
469,-174,0,0,0,0,0,0,0,0,0,-1,1693,1198,0,0
476,-174,0,0,0,0,0,0,0,0,0,-1,1700,1198,0,0
483,-174,0,0,0,0,0,0,0,0,0,-1,1707,1198,0,0
490,-174,0,0,0,0,0,0,0,0,0,-1,1714,1198,0,0
497,-174,0,0,0,0,0,0,0,0,0,-1,1721,1198,0,0
504,-174,0,0,0,0,0,0,0,0,0,-1,1728,1198,0,0
511,-174,0,0,0,0,0,0,0,0,0,-1,1735,1198,0,0
518,-174,0,0,0,0,0,0,0,0,0,-1,1742,1198,0,0
525,-174,0,0,0,0,0,0,0,0,0,-1,1749,1198,0,0
532,-174,0,0,0,0,0,0,0,0,0,-1,1756,1198,0,0
539,-174,0,0,0,0,0,0,0,0,0,-1,1763,1198,0,0
546,-174,0,0,0,0,0,0,0,0,0,-1,1770,1198,0,0
553,-174,0,0,0,0,0,0,0,0,0,-1,1777,1198,0,0
560,-174,0,0,0,0,0,0,0,0,0,-1,1784,1198,0,0
567,-174,0,0,0,0,0,0,0,0,0,-1,1791,1198,0,0
574,-174,0,0,0,0,0,0,0,0,0,-1,1798,1198,0,0
581,-174,0,0,0,0,0,0,0,0,0,-1,1805,1198,0,0
588,-174,0,0,0,0,0,0,0,0,0,-1,1812,1198,0,0
595,-174,0,0,0,0,0,0,0,0,0,-1,1819,1198,0,0
602,-174,0,0,0,0,0,0,0,0,0,-1,1826,1198,0,0
609,-174,0,0,0,0,0,0,0,0,0,-1,1833,1198,0,0
616,-174,0,0,0,0,0,0,0,0,0,-1,1840,1198,0,0
623,-174,0,0,0,0,0,0,0,0,0,-1,1847,1198,0,0
630,-174,0,0,0,0,0,0,0,0,0,-1,1854,1198,0,0
637,-174,33.3583,3.32117,-0.000624187,-0.00101206,0.00152823,0.000722364,-0.00235861,0.722285,0.00186054,0.0414645,1861,1198,33.3582,-3.32121
644,-174,33.4355,3.25146,0.000263104,0.000179226,-0.000264667,0.000489135,-4.68046e-05,-0.706822,0.000342758,0.0423031,1868,1198,33.4355,-3.25149
651,-174,32.9142,3.06567,0,0,0,0,0,0,0,-1,1875,1198,32.9142,-3.06569
658,-174,33.3644,2.94519,0.00234365,0.00244121,-0.00313721,0.00553001,-0.000745154,-0.793173,0.00395851,0.041657,1882,1198,33.3644,-2.94518
665,-174,33.4709,2.89771,0.00304435,0.00286136,-0.00373282,0.00668679,-0.000781085,-0.773145,0.00473973,0.0345747,1889,1198,33.471,-2.89774
672,-174,33.4801,2.80725,0.00305978,0.00267438,-0.00359839,0.00647063,-0.000736467,-0.758648,0.00457903,0.0253842,1896,1198,33.48,-2.80727
679,-174,33.4989,2.77795,0.00230883,0.00232856,-0.00306559,0.0053843,-0.000746913,-0.787007,0.00386265,0.022346,1903,1198,33.4989,-2.77789
686,-174,33.5975,2.81897,0,0,0,0,0,0,0,-1,1910,1198,33.5975,-2.81892
693,-174,33.079,2.89392,0,0,0,0,0,0,0,-1,1917,1198,33.0789,-2.89392
700,-174,25.4004,6.11792,0,0,0,0,0,0,0,-1,1924,1198,25.4004,-6.11797
707,-174,29.5327,6.3468,0,0,0,0,0,0,0,-1,1931,1198,29.5327,-6.34677
714,-174,29.5709,6.24585,-0.000603628,0.000686561,-0.000508408,0.000862823,-0.000779889,-1.23707,0.000948823,0.0392798,1938,1198,29.5709,-6.24582
721,-174,29.5615,5.8678,-0.00136566,0.000432825,0.000234556,0.000462912,-0.00139574,1.44322,0.00111724,0.0336923,1945,1198,29.5615,-5.86784
728,-174,29.2493,5.74548,-0.00194297,-0.00017761,0.00112146,0.000366873,-0.00248745,1.11881,0.00179315,0.0223027,1952,1198,29.2493,-5.74552
735,-174,29.1321,5.53308,-0.00213628,7.40708e-05,0.00168656,0.0009853,-0.00304751,1.07544,0.00242769,0.0118588,1959,1198,29.1321,-5.53309
742,-174,29.106,5.24744,-0.00157369,0.000308984,0.00252944,0.00206657,-0.00333128,0.963534,0.00314483,0.019155,1966,1198,29.106,-5.24745
749,-174,29.1046,4.99304,-0.000798883,-6.06719e-05,0.00365538,0.00324419,-0.00410374,0.835716,0.00425199,0.0176244,1973,1198,29.1046,-4.99303
756,-174,29.111,4.75378,-6.36246e-05,-0.00113602,0.00513851,0.00456659,-0.00576623,0.733412,0.00597904,0.0104821,1980,1198,29.111,-4.7538
763,-174,29.0923,4.50037,0.000775382,-0.00254009,0.00702555,0.00633612,-0.00810083,0.669538,0.00835591,0.0124226,1987,1198,29.0923,-4.50042
770,-174,29.1108,4.23779,0.00135552,-0.00502693,0.00940384,0.00809486,-0.0117663,0.621819,0.011532,0.0263763,1994,1198,29.1108,-4.23782
777,-174,29.1786,3.97314,0.00148204,-0.00889997,0.0122686,0.00961266,-0.0170306,0.585263,0.01558,0.0486487,2001,1198,29.1786,-3.9732
784,-174,29.2831,3.70276,0,0,0,0,0,0,0,-1,2008,1198,29.2831,-3.7027
791,-174,29.8765,5.94678,0,0,0,0,0,0,0,-1,2015,1198,29.8765,-5.94673
798,-174,29.407,5.71143,-0.00369796,-0.0331115,0.0230759,0.00895927,-0.0457687,0.501693,0.0338959,0.0459172,2022,1198,29.4069,-5.71148
805,-174,29.1477,5.76831,-0.00786393,-0.0472918,0.0264404,0.00540296,-0.0605587,0.465059,0.0422886,0.0465262,2029,1198,29.1477,-5.76833
812,-174,0,0,0,0,0,0,0,0,0,-1,2036,1198,0,0
-700,-181,0,0,0,0,0,0,0,0,0,-1,524,1205,0,0
-693,-181,0,0,0,0,0,0,0,0,0,-1,531,1205,0,0
-686,-181,-19.5351,1.26416,0.01765,0.0796784,-0.0180276,0.0845373,0.0127911,-1.30753,0.0526153,0.0461894,538,1205,-19.5351,-1.26417
-679,-181,-19.6426,1.32544,0.0197936,0.0781296,-0.0137789,0.0812204,0.0167028,-1.35014,0.0495272,0.0449376,545,1205,-19.6427,-1.32545
-672,-181,-19.1837,1.26819,0.0194424,0.0718443,-0.00996027,0.0736736,0.0176131,-1.38916,0.0444242,0.0473314,552,1205,-19.1837,-1.26817
-665,-181,-19.4194,-2.25,0,0,0,0,0,0,0,-1,559,1205,-19.4195,2.24999
-658,-181,-19.6545,-1.01428,0.0158292,0.053392,-0.00405402,0.0538245,0.0153966,-1.4645,0.0320099,0.0461537,566,1205,-19.6545,1.01433
-651,-181,-20.0229,0.278442,0.0134316,0.0433346,-0.00198923,0.0434664,0.0132998,-1.50466,0.0257174,0.0452107,573,1205,-20.0229,-0.278495
-644,-181,-19.0995,1.01392,0.0108981,0.033643,-0.000495725,0.0336538,0.0108873,-1.54902,0.0198294,0.0410791,580,1205,-19.0995,-1.01387
-637,-181,-18.6535,1.55188,0.00833329,0.0250152,0.000402341,0.0250249,0.00832359,1.5467,0.0147155,0.023827,587,1205,-18.6535,-1.55185
-630,-181,-18.7429,1.8418,0.00648968,0.0177054,0.000952258,0.0177856,0.0064094,1.48669,0.0104011,0.0121552,594,1205,-18.7429,-1.84176
-623,-181,-18.7962,2.11584,0.00390477,0.0109986,0.0010186,0.0111419,0.00376141,1.43097,0.00654494,0.0144996,601,1205,-18.7962,-2.11588
-616,-181,-18.782,2.41064,0.0013806,0.00561836,0.00102864,0.00585484,0.00114412,1.34482,0.00358327,0.0149891,608,1205,-18.782,-2.4106
-609,-181,-18.7946,2.72949,-0.000359054,0.00164828,0.000325038,0.0016996,-0.000410374,1.4142,0.00129177,0.0145023,615,1205,-18.7946,-2.72945
-602,-181,-18.793,3.02222,-0.00140758,0.000606695,-0.00050127,0.000724545,-0.00152543,-1.33989,0.00132617,0.0121601,622,1205,-18.793,-3.02226
-595,-181,-18.8519,3.26208,-0.00242553,0.000412136,-0.00118487,0.000841815,-0.0028552,-1.22291,0.0022375,0.017547,629,1205,-18.8519,-3.26214
-588,-181,-18.9703,3.5968,-0.00306881,0.000259123,-0.00161743,0.000915686,-0.00372537,-1.18519,0.00283848,0.0208035,636,1205,-18.9703,-3.59681
-581,-181,-18.9127,3.98962,-0.00265934,-1.72146e-05,-0.00215098,0.00118599,-0.00386254,-1.06078,0.00304826,0.0221305,643,1205,-18.9127,-3.98965
-574,-181,-18.9567,4.3363,0,0,0,0,0,0,0,-1,650,1205,-18.9567,-4.33635
-567,-181,-19.9649,2.53906,0,0,0,0,0,0,0,-1,657,1205,-19.9649,-2.5391
-560,-181,-23.7693,1.00269,0,0,0,0,0,0,0,-1,664,1205,-23.7693,-1.00265
-553,-181,-23.6879,0.941528,-0.000461207,-0.001118,-0.00229291,0.00152671,-0.00310591,-0.71427,0.00272595,0.042343,671,1205,-23.6879,-0.941523
-546,-181,-23.6108,0.860596,0.000438644,-0.0014862,-0.00216763,0.00184791,-0.00289546,-0.576473,0.00276076,0.0345385,678,1205,-23.6108,-0.860538
-539,-181,-23.6711,0.969238,0.00163341,-0.00181235,-0.00188302,0.0024628,-0.00264173,-0.414889,0.00294771,0.0381299,685,1205,-23.6711,-0.969211
-532,-181,-23.7036,1.03394,0.00331254,-0.00195575,-0.00134957,0.00363814,-0.00228134,-0.236735,0.00344741,0.0437541,692,1205,-23.7036,-1.03387
-525,-181,-23.5868,0.843628,0.00594615,-0.00203664,-0.000572218,0.00598696,-0.00207745,-0.0711963,0.00483493,0.041755,699,1205,-23.5868,-0.843653
-518,-181,-23.5864,0.866577,0.00878875,-0.00196442,-0.000142145,0.00879063,-0.0019663,-0.0132158,0.006614,0.0402626,706,1205,-23.5864,-0.86661
-511,-181,0,0,0,0,0,0,0,0,0,-1,713,1205,0,0
-504,-181,0,0,0,0,0,0,0,0,0,-1,720,1205,0,0
-497,-181,0,0,0,0,0,0,0,0,0,-1,727,1205,0,0
-490,-181,0,0,0,0,0,0,0,0,0,-1,734,1205,0,0
-483,-181,0,0,0,0,0,0,0,0,0,-1,741,1205,0,0
-476,-181,0,0,0,0,0,0,0,0,0,-1,748,1205,0,0
-469,-181,0,0,0,0,0,0,0,0,0,-1,755,1205,0,0
-462,-181,0,0,0,0,0,0,0,0,0,-1,762,1205,0,0
-455,-181,0,0,0,0,0,0,0,0,0,-1,769,1205,0,0
-448,-181,0,0,0,0,0,0,0,0,0,-1,776,1205,0,0
-441,-181,0,0,0,0,0,0,0,0,0,-1,783,1205,0,0
-434,-181,0,0,0,0,0,0,0,0,0,-1,790,1205,0,0
-427,-181,0,0,0,0,0,0,0,0,0,-1,797,1205,0,0
-420,-181,0,0,0,0,0,0,0,0,0,-1,804,1205,0,0
-413,-181,0,0,0,0,0,0,0,0,0,-1,811,1205,0,0
-406,-181,0,0,0,0,0,0,0,0,0,-1,818,1205,0,0
-399,-181,0,0,0,0,0,0,0,0,0,-1,825,1205,0,0
-392,-181,0,0,0,0,0,0,0,0,0,-1,832,1205,0,0
-385,-181,0,0,0,0,0,0,0,0,0,-1,839,1205,0,0
-378,-181,0,0,0,0,0,0,0,0,0,-1,846,1205,0,0
-371,-181,0,0,0,0,0,0,0,0,0,-1,853,1205,0,0
-364,-181,0,0,0,0,0,0,0,0,0,-1,860,1205,0,0
-357,-181,0,0,0,0,0,0,0,0,0,-1,867,1205,0,0
-350,-181,0,0,0,0,0,0,0,0,0,-1,874,1205,0,0
-343,-181,0,0,0,0,0,0,0,0,0,-1,881,1205,0,0
-336,-181,0,0,0,0,0,0,0,0,0,-1,888,1205,0,0
-329,-181,0,0,0,0,0,0,0,0,0,-1,895,1205,0,0
-322,-181,0,0,0,0,0,0,0,0,0,-1,902,1205,0,0
-315,-181,0,0,0,0,0,0,0,0,0,-1,909,1205,0,0
-308,-181,0,0,0,0,0,0,0,0,0,-1,916,1205,0,0
-301,-181,0,0,0,0,0,0,0,0,0,-1,923,1205,0,0
-294,-181,0,0,0,0,0,0,0,0,0,-1,930,1205,0,0
-287,-181,0,0,0,0,0,0,0,0,0,-1,937,1205,0,0
-280,-181,0,0,0,0,0,0,0,0,0,-1,944,1205,0,0
-273,-181,0,0,0,0,0,0,0,0,0,-1,951,1205,0,0
-266,-181,0,0,0,0,0,0,0,0,0,-1,958,1205,0,0
-259,-181,0,0,0,0,0,0,0,0,0,-1,965,1205,0,0
-252,-181,0,0,0,0,0,0,0,0,0,-1,972,1205,0,0
-245,-181,0,0,0,0,0,0,0,0,0,-1,979,1205,0,0
-238,-181,0,0,0,0,0,0,0,0,0,-1,986,1205,0,0
-231,-181,0,0,0,0,0,0,0,0,0,-1,993,1205,0,0
-224,-181,0,0,0,0,0,0,0,0,0,-1,1000,1205,0,0
-217,-181,0,0,0,0,0,0,0,0,0,-1,1007,1205,0,0
-210,-181,0,0,0,0,0,0,0,0,0,-1,1014,1205,0,0
-203,-181,0,0,0,0,0,0,0,0,0,-1,1021,1205,0,0
-196,-181,0,0,0,0,0,0,0,0,0,-1,1028,1205,0,0
-189,-181,0,0,0,0,0,0,0,0,0,-1,1035,1205,0,0
-182,-181,0,0,0,0,0,0,0,0,0,-1,1042,1205,0,0
-175,-181,0,0,0,0,0,0,0,0,0,-1,1049,1205,0,0
-168,-181,0,0,0,0,0,0,0,0,0,-1,1056,1205,0,0
-161,-181,0,0,0,0,0,0,0,0,0,-1,1063,1205,0,0
-154,-181,0,0,0,0,0,0,0,0,0,-1,1070,1205,0,0
-147,-181,0,0,0,0,0,0,0,0,0,-1,1077,1205,0,0
-140,-181,0,0,0,0,0,0,0,0,0,-1,1084,1205,0,0
-133,-181,0,0,0,0,0,0,0,0,0,-1,1091,1205,0,0
-126,-181,0,0,0,0,0,0,0,0,0,-1,1098,1205,0,0
-119,-181,0,0,0,0,0,0,0,0,0,-1,1105,1205,0,0
-112,-181,0,0,0,0,0,0,0,0,0,-1,1112,1205,0,0
-105,-181,0,0,0,0,0,0,0,0,0,-1,1119,1205,0,0
-98,-181,0,0,0,0,0,0,0,0,0,-1,1126,1205,0,0
-91,-181,0,0,0,0,0,0,0,0,0,-1,1133,1205,0,0
-84,-181,0,0,0,0,0,0,0,0,0,-1,1140,1205,0,0
-77,-181,0,0,0,0,0,0,0,0,0,-1,1147,1205,0,0
-70,-181,0,0,0,0,0,0,0,0,0,-1,1154,1205,0,0
-63,-181,0,0,0,0,0,0,0,0,0,-1,1161,1205,0,0
-56,-181,0,0,0,0,0,0,0,0,0,-1,1168,1205,0,0
-49,-181,0,0,0,0,0,0,0,0,0,-1,1175,1205,0,0
-42,-181,0,0,0,0,0,0,0,0,0,-1,1182,1205,0,0
-35,-181,0,0,0,0,0,0,0,0,0,-1,1189,1205,0,0
-28,-181,0,0,0,0,0,0,0,0,0,-1,1196,1205,0,0
-21,-181,0,0,0,0,0,0,0,0,0,-1,1203,1205,0,0
-14,-181,0,0,0,0,0,0,0,0,0,-1,1210,1205,0,0
-7,-181,0,0,0,0,0,0,0,0,0,-1,1217,1205,0,0
0,-181,0,0,0,0,0,0,0,0,0,-1,1224,1205,0,0
7,-181,0,0,0,0,0,0,0,0,0,-1,1231,1205,0,0
14,-181,0,0,0,0,0,0,0,0,0,-1,1238,1205,0,0
21,-181,0,0,0,0,0,0,0,0,0,-1,1245,1205,0,0
28,-181,0,0,0,0,0,0,0,0,0,-1,1252,1205,0,0
35,-181,0,0,0,0,0,0,0,0,0,-1,1259,1205,0,0
42,-181,0,0,0,0,0,0,0,0,0,-1,1266,1205,0,0
49,-181,0,0,0,0,0,0,0,0,0,-1,1273,1205,0,0
56,-181,0,0,0,0,0,0,0,0,0,-1,1280,1205,0,0
63,-181,0,0,0,0,0,0,0,0,0,-1,1287,1205,0,0
70,-181,0,0,0,0,0,0,0,0,0,-1,1294,1205,0,0
77,-181,0,0,0,0,0,0,0,0,0,-1,1301,1205,0,0
84,-181,0,0,0,0,0,0,0,0,0,-1,1308,1205,0,0
91,-181,0,0,0,0,0,0,0,0,0,-1,1315,1205,0,0
98,-181,0,0,0,0,0,0,0,0,0,-1,1322,1205,0,0
105,-181,0,0,0,0,0,0,0,0,0,-1,1329,1205,0,0
112,-181,0,0,0,0,0,0,0,0,0,-1,1336,1205,0,0
119,-181,0,0,0,0,0,0,0,0,0,-1,1343,1205,0,0
126,-181,0,0,0,0,0,0,0,0,0,-1,1350,1205,0,0
133,-181,0,0,0,0,0,0,0,0,0,-1,1357,1205,0,0
140,-181,0,0,0,0,0,0,0,0,0,-1,1364,1205,0,0
147,-181,0,0,0,0,0,0,0,0,0,-1,1371,1205,0,0
154,-181,0,0,0,0,0,0,0,0,0,-1,1378,1205,0,0
161,-181,0,0,0,0,0,0,0,0,0,-1,1385,1205,0,0
168,-181,0,0,0,0,0,0,0,0,0,-1,1392,1205,0,0
175,-181,0,0,0,0,0,0,0,0,0,-1,1399,1205,0,0
182,-181,0,0,0,0,0,0,0,0,0,-1,1406,1205,0,0
189,-181,0,0,0,0,0,0,0,0,0,-1,1413,1205,0,0
196,-181,0,0,0,0,0,0,0,0,0,-1,1420,1205,0,0
203,-181,0,0,0,0,0,0,0,0,0,-1,1427,1205,0,0
210,-181,0,0,0,0,0,0,0,0,0,-1,1434,1205,0,0
217,-181,0,0,0,0,0,0,0,0,0,-1,1441,1205,0,0
224,-181,0,0,0,0,0,0,0,0,0,-1,1448,1205,0,0
231,-181,0,0,0,0,0,0,0,0,0,-1,1455,1205,0,0
238,-181,0,0,0,0,0,0,0,0,0,-1,1462,1205,0,0
245,-181,0,0,0,0,0,0,0,0,0,-1,1469,1205,0,0
252,-181,0,0,0,0,0,0,0,0,0,-1,1476,1205,0,0
259,-181,0,0,0,0,0,0,0,0,0,-1,1483,1205,0,0
266,-181,0,0,0,0,0,0,0,0,0,-1,1490,1205,0,0
273,-181,0,0,0,0,0,0,0,0,0,-1,1497,1205,0,0
280,-181,0,0,0,0,0,0,0,0,0,-1,1504,1205,0,0
287,-181,0,0,0,0,0,0,0,0,0,-1,1511,1205,0,0
294,-181,0,0,0,0,0,0,0,0,0,-1,1518,1205,0,0
301,-181,0,0,0,0,0,0,0,0,0,-1,1525,1205,0,0
308,-181,0,0,0,0,0,0,0,0,0,-1,1532,1205,0,0
315,-181,0,0,0,0,0,0,0,0,0,-1,1539,1205,0,0
322,-181,0,0,0,0,0,0,0,0,0,-1,1546,1205,0,0
329,-181,0,0,0,0,0,0,0,0,0,-1,1553,1205,0,0
336,-181,0,0,0,0,0,0,0,0,0,-1,1560,1205,0,0
343,-181,0,0,0,0,0,0,0,0,0,-1,1567,1205,0,0
350,-181,0,0,0,0,0,0,0,0,0,-1,1574,1205,0,0
357,-181,0,0,0,0,0,0,0,0,0,-1,1581,1205,0,0
364,-181,0,0,0,0,0,0,0,0,0,-1,1588,1205,0,0
371,-181,0,0,0,0,0,0,0,0,0,-1,1595,1205,0,0
378,-181,0,0,0,0,0,0,0,0,0,-1,1602,1205,0,0
385,-181,0,0,0,0,0,0,0,0,0,-1,1609,1205,0,0
392,-181,0,0,0,0,0,0,0,0,0,-1,1616,1205,0,0
399,-181,0,0,0,0,0,0,0,0,0,-1,1623,1205,0,0
406,-181,0,0,0,0,0,0,0,0,0,-1,1630,1205,0,0
413,-181,0,0,0,0,0,0,0,0,0,-1,1637,1205,0,0
420,-181,0,0,0,0,0,0,0,0,0,-1,1644,1205,0,0
427,-181,0,0,0,0,0,0,0,0,0,-1,1651,1205,0,0
434,-181,0,0,0,0,0,0,0,0,0,-1,1658,1205,0,0
441,-181,0,0,0,0,0,0,0,0,0,-1,1665,1205,0,0
448,-181,0,0,0,0,0,0,0,0,0,-1,1672,1205,0,0
455,-181,0,0,0,0,0,0,0,0,0,-1,1679,1205,0,0
462,-181,0,0,0,0,0,0,0,0,0,-1,1686,1205,0,0
469,-181,0,0,0,0,0,0,0,0,0,-1,1693,1205,0,0
476,-181,0,0,0,0,0,0,0,0,0,-1,1700,1205,0,0
483,-181,0,0,0,0,0,0,0,0,0,-1,1707,1205,0,0
490,-181,0,0,0,0,0,0,0,0,0,-1,1714,1205,0,0
497,-181,0,0,0,0,0,0,0,0,0,-1,1721,1205,0,0
504,-181,0,0,0,0,0,0,0,0,0,-1,1728,1205,0,0
511,-181,0,0,0,0,0,0,0,0,0,-1,1735,1205,0,0
518,-181,0,0,0,0,0,0,0,0,0,-1,1742,1205,0,0
525,-181,0,0,0,0,0,0,0,0,0,-1,1749,1205,0,0
532,-181,0,0,0,0,0,0,0,0,0,-1,1756,1205,0,0
539,-181,0,0,0,0,0,0,0,0,0,-1,1763,1205,0,0
546,-181,0,0,0,0,0,0,0,0,0,-1,1770,1205,0,0
553,-181,0,0,0,0,0,0,0,0,0,-1,1777,1205,0,0
560,-181,0,0,0,0,0,0,0,0,0,-1,1784,1205,0,0
567,-181,0,0,0,0,0,0,0,0,0,-1,1791,1205,0,0
574,-181,0,0,0,0,0,0,0,0,0,-1,1798,1205,0,0
581,-181,0,0,0,0,0,0,0,0,0,-1,1805,1205,0,0
588,-181,0,0,0,0,0,0,0,0,0,-1,1812,1205,0,0
595,-181,0,0,0,0,0,0,0,0,0,-1,1819,1205,0,0
602,-181,0,0,0,0,0,0,0,0,0,-1,1826,1205,0,0
609,-181,0,0,0,0,0,0,0,0,0,-1,1833,1205,0,0
616,-181,0,0,0,0,0,0,0,0,0,-1,1840,1205,0,0
623,-181,0,0,0,0,0,0,0,0,0,-1,1847,1205,0,0
630,-181,33.5245,3.04297,-0.000323875,-0.00122256,0.00404876,0.0033004,-0.00484684,0.730133,0.00473197,0.0381758,1854,1205,33.5245,-3.04301
637,-181,33.5325,3.01184,-2.15549e-05,7.82237e-06,0.00174448,0.00173768,-0.00175141,0.789608,0.00201443,0.0379127,1861,1205,33.5324,-3.01188
644,-181,33.4933,2.8446,0.000696591,0.00140866,-0.000474657,0.00164597,0.000459279,-1.10718,0.000980746,0.040726,1868,1205,33.4933,-2.84465
651,-181,33.5208,2.8269,0.00162764,0.00283915,-0.00248455,0.00479073,-0.000323933,-0.904969,0.00330709,0.0396783,1875,1205,33.5208,-2.8269
658,-181,33.4417,2.85229,0.00257053,0.0036662,-0.00380076,0.0069584,-0.000721677,-0.856974,0.00489725,0.0361933,1882,1205,33.4416,-2.85228
665,-181,33.4349,2.86719,0.00317265,0.00390171,-0.00434792,0.00790036,-0.000825996,-0.82722,0.00556272,0.0334832,1889,1205,33.4349,-2.86723
672,-181,33.491,2.80347,0.00311716,0.00351609,-0.0041187,0.00744015,-0.000806904,-0.809594,0.00524978,0.0245549,1896,1205,33.4909,-2.80353
679,-181,33.5372,2.77844,0.00242777,0.00302125,-0.00351643,0.00625343,-0.000804414,-0.827492,0.00446133,0.0302262,1903,1205,33.5373,-2.77839
686,-181,33.6271,2.77637,0,0,0,0,0,0,0,-1,1910,1205,33.627,-2.77634
693,-181,32.2418,3.51746,0,0,0,0,0,0,0,-1,1917,1205,32.2418,-3.51742
700,-181,29.2026,6.62378,0,0,0,0,0,0,0,-1,1924,1205,29.2026,-6.62382
707,-181,29.2711,6.38428,0.000525275,0.00118379,-0.00134879,0.00224293,-0.000533869,-0.905113,0.0017014,0.0489585,1931,1205,29.2711,-6.38431
714,-181,29.3427,6.14771,-0.000297024,0.000809075,-0.000649791,0.00110931,-0.000597258,-1.13797,0.000999961,0.0345969,1938,1205,29.3427,-6.14769
721,-181,29.1639,5.9342,-0.0010493,0.000408085,0.000233296,0.00044452,-0.00108574,1.41587,0.000908982,0.0260996,1945,1205,29.1639,-5.93423
728,-181,28.8683,5.78552,-0.00158314,-0.000396543,0.00125857,0.000401565,-0.00238125,1.00565,0.00173689,0.0134372,1952,1205,28.8683,-5.78547
735,-181,28.8789,5.52869,-0.0016045,3.85242e-05,0.00182519,0.00121856,-0.00278454,0.996866,0.00236941,0.0109813,1959,1205,28.8789,-5.52874
742,-181,28.861,5.26587,-0.000755608,0.000458257,0.00275669,0.00267404,-0.00297139,0.893753,0.0032609,0.0161522,1966,1205,28.861,-5.26585
749,-181,28.8396,4.99121,0.000354934,0.000222375,0.00402294,0.00431214,-0.00373483,0.777161,0.00464991,0.0157757,1973,1205,28.8396,-4.99119
756,-181,28.8507,4.72839,0.00144435,-0.000636034,0.0056765,0.00617518,-0.00536686,0.694781,0.00666925,0.0115439,1980,1205,28.8507,-4.72835
763,-181,28.8737,4.47949,0.00271675,-0.0017612,0.00784822,0.00863913,-0.00768357,0.646447,0.0094293,0.0125693,1987,1205,28.8737,-4.47948
770,-181,28.8569,4.1416,0.00381457,-0.00394966,0.0106431,0.0112615,-0.0113966,0.610519,0.0130817,0.0297584,1994,1205,28.8569,-4.14166
777,-181,28.8622,3.71973,0,0,0,0,0,0,0,-1,2001,1205,28.8622,-3.71973
784,-181,28.9097,-2.1322,0,0,0,0,0,0,0,-1,2008,1205,28.9097,2.13222
791,-181,29.9255,6.0813,0,0,0,0,0,0,0,-1,2015,1205,29.9255,-6.08128
798,-181,29.4253,6.14636,0,0,0,0,0,0,0,-1,2022,1205,29.4253,-6.14633
805,-181,0,0,0,0,0,0,0,0,0,-1,2029,1205,0,0
812,-181,0,0,0,0,0,0,0,0,0,-1,2036,1205,0,0
-700,-188,0,0,0,0,0,0,0,0,0,-1,524,1212,0,0
-693,-188,0,0,0,0,0,0,0,0,0,-1,531,1212,0,0
-686,-188,0,0,0,0,0,0,0,0,0,-1,538,1212,0,0
-679,-188,-19.1698,1.16211,0.018757,0.115674,-0.017153,0.11862,0.0158107,-1.40069,0.0743722,0.0463012,545,1212,-19.1698,-1.16211
-672,-188,-19.0651,0.672607,0.0184889,0.104899,-0.0123135,0.106619,0.0167684,-1.43198,0.0662016,0.0484671,552,1212,-19.0651,-0.672626
-665,-188,-19.7045,-2.10571,0,0,0,0,0,0,0,-1,559,1212,-19.7044,2.10572
-658,-188,-19.8604,-0.855225,0,0,0,0,0,0,0,-1,566,1212,-19.8604,0.855164
-651,-188,-20.2897,0.576782,0,0,0,0,0,0,0,-1,573,1212,-20.2897,-0.576742
-644,-188,-18.3705,1.16431,0.0101878,0.047906,-0.000752912,0.0479211,0.0101728,-1.55085,0.0291542,0.0414288,580,1212,-18.3705,-1.16434
-637,-188,-18.4113,1.52087,0.00777469,0.035458,0.000389228,0.0354635,0.00776922,1.55674,0.0215251,0.0223661,587,1212,-18.4112,-1.52084
-630,-188,-18.4566,1.83276,0.00601756,0.0250887,0.00107098,0.0251486,0.0059576,1.51487,0.0151749,0.0105172,594,1212,-18.4566,-1.83282
-623,-188,-18.4663,2.13269,0.00359197,0.0159618,0.00114009,0.016066,0.00348777,1.47965,0.00975808,0.0107416,601,1212,-18.4663,-2.13275
-616,-188,-18.4575,2.42712,0.00121131,0.00819126,0.00128818,0.00842142,0.000981157,1.394,0.00531748,0.0107903,608,1212,-18.4575,-2.42714
-609,-188,-18.4518,2.75171,-0.000420071,0.00227596,0.000565888,0.00238992,-0.000534032,1.37207,0.00179793,0.0135217,615,1212,-18.4518,-2.75175
-602,-188,-18.4522,3.08496,-0.00138337,0.000566685,-0.000460064,0.000669775,-0.00148646,-1.35036,0.00127432,0.016006,622,1212,-18.4522,-3.085
-595,-188,-18.476,3.34705,-0.00234361,0.000272515,-0.00129406,0.000804459,-0.00287556,-1.18079,0.002234,0.0133838,629,1212,-18.476,-3.34704
-588,-188,-18.5147,3.6333,-0.00291081,-4.25655e-06,-0.00172085,0.000794873,-0.00370994,-1.13605,0.00277644,0.0157663,636,1212,-18.5147,-3.63325
-581,-188,-18.5584,3.94055,-0.00247293,-0.000363364,-0.00219182,0.00101427,-0.00385056,-1.00966,0.00296356,0.0172616,643,1212,-18.5584,-3.94058
-574,-188,-18.8326,4.00818,-0.0017062,-0.000774723,-0.00228571,0.00109221,-0.00357313,-0.885903,0.00281763,0.0498586,650,1212,-18.8326,-4.00817
-567,-188,-19.1288,4.00391,0,0,0,0,0,0,0,-1,657,1212,-19.1288,-4.00391
-560,-188,-20.7341,2.02588,0,0,0,0,0,0,0,-1,664,1212,-20.7341,-2.02588
-553,-188,-23.6664,0.859497,0,0,0,0,0,0,0,-1,671,1212,-23.6664,-0.859495
-546,-188,-23.5839,0.889893,0.000381643,-0.00202079,-0.00189569,0.00142465,-0.0030638,-0.502998,0.00264839,0.0433385,678,1212,-23.5839,-0.889922
-539,-188,-23.6552,0.979858,0.00120437,-0.00233908,-0.00165853,0.00185952,-0.00299423,-0.376206,0.00282773,0.0378492,685,1212,-23.6552,-0.979852
-532,-188,-23.6575,0.987915,0.00222596,-0.00250614,-0.0012507,0.00253618,-0.00281636,-0.243133,0.0030917,0.0410291,692,1212,-23.6575,-0.987971
-525,-188,-23.6373,0.937134,0.00384537,-0.00264186,-0.000615584,0.00390327,-0.00269975,-0.0937765,0.0038333,0.0407505,699,1212,-23.6372,-0.937093
-518,-188,-23.6831,1.06177,0.00555075,-0.00282398,-0.000108047,0.00555215,-0.00282537,-0.0128986,0.00492142,0.0427876,706,1212,-23.6831,-1.06179
-511,-188,-23.6201,1.17651,0.00921977,-0.00245299,0.00151554,0.00941333,-0.00264655,0.12703,0.00731902,0.0392046,713,1212,-23.6201,-1.17657
-504,-188,0,0,0,0,0,0,0,0,0,-1,720,1212,0,0
-497,-188,0,0,0,0,0,0,0,0,0,-1,727,1212,0,0
-490,-188,0,0,0,0,0,0,0,0,0,-1,734,1212,0,0
-483,-188,0,0,0,0,0,0,0,0,0,-1,741,1212,0,0
-476,-188,0,0,0,0,0,0,0,0,0,-1,748,1212,0,0
-469,-188,0,0,0,0,0,0,0,0,0,-1,755,1212,0,0
-462,-188,0,0,0,0,0,0,0,0,0,-1,762,1212,0,0
-455,-188,0,0,0,0,0,0,0,0,0,-1,769,1212,0,0
-448,-188,0,0,0,0,0,0,0,0,0,-1,776,1212,0,0
-441,-188,0,0,0,0,0,0,0,0,0,-1,783,1212,0,0
-434,-188,0,0,0,0,0,0,0,0,0,-1,790,1212,0,0
-427,-188,0,0,0,0,0,0,0,0,0,-1,797,1212,0,0
-420,-188,0,0,0,0,0,0,0,0,0,-1,804,1212,0,0
-413,-188,0,0,0,0,0,0,0,0,0,-1,811,1212,0,0
-406,-188,0,0,0,0,0,0,0,0,0,-1,818,1212,0,0
-399,-188,0,0,0,0,0,0,0,0,0,-1,825,1212,0,0
-392,-188,0,0,0,0,0,0,0,0,0,-1,832,1212,0,0
-385,-188,0,0,0,0,0,0,0,0,0,-1,839,1212,0,0
-378,-188,0,0,0,0,0,0,0,0,0,-1,846,1212,0,0
-371,-188,0,0,0,0,0,0,0,0,0,-1,853,1212,0,0
-364,-188,0,0,0,0,0,0,0,0,0,-1,860,1212,0,0
-357,-188,0,0,0,0,0,0,0,0,0,-1,867,1212,0,0
-350,-188,0,0,0,0,0,0,0,0,0,-1,874,1212,0,0
-343,-188,0,0,0,0,0,0,0,0,0,-1,881,1212,0,0
-336,-188,0,0,0,0,0,0,0,0,0,-1,888,1212,0,0
-329,-188,0,0,0,0,0,0,0,0,0,-1,895,1212,0,0
-322,-188,0,0,0,0,0,0,0,0,0,-1,902,1212,0,0
-315,-188,0,0,0,0,0,0,0,0,0,-1,909,1212,0,0
-308,-188,0,0,0,0,0,0,0,0,0,-1,916,1212,0,0
-301,-188,0,0,0,0,0,0,0,0,0,-1,923,1212,0,0
-294,-188,0,0,0,0,0,0,0,0,0,-1,930,1212,0,0
-287,-188,0,0,0,0,0,0,0,0,0,-1,937,1212,0,0
-280,-188,0,0,0,0,0,0,0,0,0,-1,944,1212,0,0
-273,-188,0,0,0,0,0,0,0,0,0,-1,951,1212,0,0
-266,-188,0,0,0,0,0,0,0,0,0,-1,958,1212,0,0
-259,-188,0,0,0,0,0,0,0,0,0,-1,965,1212,0,0
-252,-188,0,0,0,0,0,0,0,0,0,-1,972,1212,0,0
-245,-188,0,0,0,0,0,0,0,0,0,-1,979,1212,0,0
-238,-188,0,0,0,0,0,0,0,0,0,-1,986,1212,0,0
-231,-188,0,0,0,0,0,0,0,0,0,-1,993,1212,0,0
-224,-188,0,0,0,0,0,0,0,0,0,-1,1000,1212,0,0
-217,-188,0,0,0,0,0,0,0,0,0,-1,1007,1212,0,0
-210,-188,0,0,0,0,0,0,0,0,0,-1,1014,1212,0,0
-203,-188,0,0,0,0,0,0,0,0,0,-1,1021,1212,0,0
-196,-188,0,0,0,0,0,0,0,0,0,-1,1028,1212,0,0
-189,-188,0,0,0,0,0,0,0,0,0,-1,1035,1212,0,0
-182,-188,0,0,0,0,0,0,0,0,0,-1,1042,1212,0,0
-175,-188,0,0,0,0,0,0,0,0,0,-1,1049,1212,0,0
-168,-188,0,0,0,0,0,0,0,0,0,-1,1056,1212,0,0
-161,-188,0,0,0,0,0,0,0,0,0,-1,1063,1212,0,0
-154,-188,0,0,0,0,0,0,0,0,0,-1,1070,1212,0,0
-147,-188,0,0,0,0,0,0,0,0,0,-1,1077,1212,0,0
-140,-188,0,0,0,0,0,0,0,0,0,-1,1084,1212,0,0
-133,-188,0,0,0,0,0,0,0,0,0,-1,1091,1212,0,0
-126,-188,0,0,0,0,0,0,0,0,0,-1,1098,1212,0,0
-119,-188,0,0,0,0,0,0,0,0,0,-1,1105,1212,0,0
-112,-188,0,0,0,0,0,0,0,0,0,-1,1112,1212,0,0
-105,-188,0,0,0,0,0,0,0,0,0,-1,1119,1212,0,0
-98,-188,0,0,0,0,0,0,0,0,0,-1,1126,1212,0,0
-91,-188,0,0,0,0,0,0,0,0,0,-1,1133,1212,0,0
-84,-188,0,0,0,0,0,0,0,0,0,-1,1140,1212,0,0
-77,-188,0,0,0,0,0,0,0,0,0,-1,1147,1212,0,0
-70,-188,0,0,0,0,0,0,0,0,0,-1,1154,1212,0,0
-63,-188,0,0,0,0,0,0,0,0,0,-1,1161,1212,0,0
-56,-188,0,0,0,0,0,0,0,0,0,-1,1168,1212,0,0
-49,-188,0,0,0,0,0,0,0,0,0,-1,1175,1212,0,0
-42,-188,0,0,0,0,0,0,0,0,0,-1,1182,1212,0,0
-35,-188,0,0,0,0,0,0,0,0,0,-1,1189,1212,0,0
-28,-188,0,0,0,0,0,0,0,0,0,-1,1196,1212,0,0
-21,-188,0,0,0,0,0,0,0,0,0,-1,1203,1212,0,0
-14,-188,0,0,0,0,0,0,0,0,0,-1,1210,1212,0,0
-7,-188,0,0,0,0,0,0,0,0,0,-1,1217,1212,0,0
0,-188,0,0,0,0,0,0,0,0,0,-1,1224,1212,0,0
7,-188,0,0,0,0,0,0,0,0,0,-1,1231,1212,0,0
14,-188,0,0,0,0,0,0,0,0,0,-1,1238,1212,0,0
21,-188,0,0,0,0,0,0,0,0,0,-1,1245,1212,0,0
28,-188,0,0,0,0,0,0,0,0,0,-1,1252,1212,0,0
35,-188,0,0,0,0,0,0,0,0,0,-1,1259,1212,0,0
42,-188,0,0,0,0,0,0,0,0,0,-1,1266,1212,0,0
49,-188,0,0,0,0,0,0,0,0,0,-1,1273,1212,0,0
56,-188,0,0,0,0,0,0,0,0,0,-1,1280,1212,0,0
63,-188,0,0,0,0,0,0,0,0,0,-1,1287,1212,0,0
70,-188,0,0,0,0,0,0,0,0,0,-1,1294,1212,0,0
77,-188,0,0,0,0,0,0,0,0,0,-1,1301,1212,0,0
84,-188,0,0,0,0,0,0,0,0,0,-1,1308,1212,0,0
91,-188,0,0,0,0,0,0,0,0,0,-1,1315,1212,0,0
98,-188,0,0,0,0,0,0,0,0,0,-1,1322,1212,0,0
105,-188,0,0,0,0,0,0,0,0,0,-1,1329,1212,0,0
112,-188,0,0,0,0,0,0,0,0,0,-1,1336,1212,0,0
119,-188,0,0,0,0,0,0,0,0,0,-1,1343,1212,0,0
126,-188,0,0,0,0,0,0,0,0,0,-1,1350,1212,0,0
133,-188,0,0,0,0,0,0,0,0,0,-1,1357,1212,0,0
140,-188,0,0,0,0,0,0,0,0,0,-1,1364,1212,0,0
147,-188,0,0,0,0,0,0,0,0,0,-1,1371,1212,0,0
154,-188,0,0,0,0,0,0,0,0,0,-1,1378,1212,0,0
161,-188,0,0,0,0,0,0,0,0,0,-1,1385,1212,0,0
168,-188,0,0,0,0,0,0,0,0,0,-1,1392,1212,0,0
175,-188,0,0,0,0,0,0,0,0,0,-1,1399,1212,0,0
182,-188,0,0,0,0,0,0,0,0,0,-1,1406,1212,0,0
189,-188,0,0,0,0,0,0,0,0,0,-1,1413,1212,0,0
196,-188,0,0,0,0,0,0,0,0,0,-1,1420,1212,0,0
203,-188,0,0,0,0,0,0,0,0,0,-1,1427,1212,0,0
210,-188,0,0,0,0,0,0,0,0,0,-1,1434,1212,0,0
217,-188,0,0,0,0,0,0,0,0,0,-1,1441,1212,0,0
224,-188,0,0,0,0,0,0,0,0,0,-1,1448,1212,0,0
231,-188,0,0,0,0,0,0,0,0,0,-1,1455,1212,0,0
238,-188,0,0,0,0,0,0,0,0,0,-1,1462,1212,0,0
245,-188,0,0,0,0,0,0,0,0,0,-1,1469,1212,0,0
252,-188,0,0,0,0,0,0,0,0,0,-1,1476,1212,0,0
259,-188,0,0,0,0,0,0,0,0,0,-1,1483,1212,0,0
266,-188,0,0,0,0,0,0,0,0,0,-1,1490,1212,0,0
273,-188,0,0,0,0,0,0,0,0,0,-1,1497,1212,0,0
280,-188,0,0,0,0,0,0,0,0,0,-1,1504,1212,0,0
287,-188,0,0,0,0,0,0,0,0,0,-1,1511,1212,0,0
294,-188,0,0,0,0,0,0,0,0,0,-1,1518,1212,0,0
301,-188,0,0,0,0,0,0,0,0,0,-1,1525,1212,0,0
308,-188,0,0,0,0,0,0,0,0,0,-1,1532,1212,0,0
315,-188,0,0,0,0,0,0,0,0,0,-1,1539,1212,0,0
322,-188,0,0,0,0,0,0,0,0,0,-1,1546,1212,0,0
329,-188,0,0,0,0,0,0,0,0,0,-1,1553,1212,0,0
336,-188,0,0,0,0,0,0,0,0,0,-1,1560,1212,0,0
343,-188,0,0,0,0,0,0,0,0,0,-1,1567,1212,0,0
350,-188,0,0,0,0,0,0,0,0,0,-1,1574,1212,0,0
357,-188,0,0,0,0,0,0,0,0,0,-1,1581,1212,0,0
364,-188,0,0,0,0,0,0,0,0,0,-1,1588,1212,0,0
371,-188,0,0,0,0,0,0,0,0,0,-1,1595,1212,0,0
378,-188,0,0,0,0,0,0,0,0,0,-1,1602,1212,0,0
385,-188,0,0,0,0,0,0,0,0,0,-1,1609,1212,0,0
392,-188,0,0,0,0,0,0,0,0,0,-1,1616,1212,0,0
399,-188,0,0,0,0,0,0,0,0,0,-1,1623,1212,0,0
406,-188,0,0,0,0,0,0,0,0,0,-1,1630,1212,0,0
413,-188,0,0,0,0,0,0,0,0,0,-1,1637,1212,0,0
420,-188,0,0,0,0,0,0,0,0,0,-1,1644,1212,0,0
427,-188,0,0,0,0,0,0,0,0,0,-1,1651,1212,0,0
434,-188,0,0,0,0,0,0,0,0,0,-1,1658,1212,0,0
441,-188,0,0,0,0,0,0,0,0,0,-1,1665,1212,0,0
448,-188,0,0,0,0,0,0,0,0,0,-1,1672,1212,0,0
455,-188,0,0,0,0,0,0,0,0,0,-1,1679,1212,0,0
462,-188,0,0,0,0,0,0,0,0,0,-1,1686,1212,0,0
469,-188,0,0,0,0,0,0,0,0,0,-1,1693,1212,0,0
476,-188,0,0,0,0,0,0,0,0,0,-1,1700,1212,0,0
483,-188,0,0,0,0,0,0,0,0,0,-1,1707,1212,0,0
490,-188,0,0,0,0,0,0,0,0,0,-1,1714,1212,0,0
497,-188,0,0,0,0,0,0,0,0,0,-1,1721,1212,0,0
504,-188,0,0,0,0,0,0,0,0,0,-1,1728,1212,0,0
511,-188,0,0,0,0,0,0,0,0,0,-1,1735,1212,0,0
518,-188,0,0,0,0,0,0,0,0,0,-1,1742,1212,0,0
525,-188,0,0,0,0,0,0,0,0,0,-1,1749,1212,0,0
532,-188,0,0,0,0,0,0,0,0,0,-1,1756,1212,0,0
539,-188,0,0,0,0,0,0,0,0,0,-1,1763,1212,0,0
546,-188,0,0,0,0,0,0,0,0,0,-1,1770,1212,0,0
553,-188,0,0,0,0,0,0,0,0,0,-1,1777,1212,0,0
560,-188,0,0,0,0,0,0,0,0,0,-1,1784,1212,0,0
567,-188,0,0,0,0,0,0,0,0,0,-1,1791,1212,0,0
574,-188,0,0,0,0,0,0,0,0,0,-1,1798,1212,0,0
581,-188,0,0,0,0,0,0,0,0,0,-1,1805,1212,0,0
588,-188,0,0,0,0,0,0,0,0,0,-1,1812,1212,0,0
595,-188,0,0,0,0,0,0,0,0,0,-1,1819,1212,0,0
602,-188,0,0,0,0,0,0,0,0,0,-1,1826,1212,0,0
609,-188,0,0,0,0,0,0,0,0,0,-1,1833,1212,0,0
616,-188,0,0,0,0,0,0,0,0,0,-1,1840,1212,0,0
623,-188,0,0,0,0,0,0,0,0,0,-1,1847,1212,0,0
630,-188,33.6038,2.797,0.000839718,-0.000492298,0.00427767,0.00450291,-0.00415549,0.708171,0.00500028,0.0403881,1854,1212,33.6038,-2.79694
637,-188,33.6213,2.8761,0.000896328,0.000887959,0.00171786,0.00261001,-0.000825724,0.78418,0.00207087,0.0404311,1861,1212,33.6213,-2.87606
644,-188,33.5176,2.84924,0.00139179,0.00253252,-0.000918026,0.00304294,0.000881377,-1.06336,0.00180792,0.0369315,1868,1212,33.5175,-2.84928
651,-188,33.401,2.88818,0.00215545,0.00402216,-0.00319992,0.00642207,-0.000244464,-0.927301,0.00436515,0.0309799,1875,1212,33.401,-2.88813
658,-188,33.4191,2.83203,0.00294628,0.00469693,-0.00451624,0.00842189,-0.000778681,-0.88112,0.00589134,0.0306114,1882,1212,33.4191,-2.83207
665,-188,33.4033,2.83447,0.00341583,0.0047614,-0.00496789,0.00910186,-0.000924628,-0.852702,0.00639842,0.0304139,1889,1212,33.4034,-2.83445
672,-188,33.4564,2.79858,0.00329438,0.00422877,-0.00465747,0.00844242,-0.000919272,-0.835386,0.00595839,0.0255828,1896,1212,33.4564,-2.7986
679,-188,33.4948,2.64734,0.00269172,0.00364792,-0.00402935,0.00722743,-0.000887797,-0.844449,0.00513984,0.0493942,1903,1212,33.4948,-2.64731
686,-188,33.5475,2.51599,0,0,0,0,0,0,0,-1,1910,1212,33.5475,-2.51598
693,-188,33.1926,2.64099,0,0,0,0,0,0,0,-1,1917,1212,33.1926,-2.64105
700,-188,29.1465,6.6781,0,0,0,0,0,0,0,-1,1924,1212,29.1465,-6.67811
707,-188,28.8575,6.47498,0.000926455,0.00141815,-0.0016298,0.00282054,-0.000475938,-0.860256,0.00205744,0.0247369,1931,1212,28.8576,-6.47499
714,-188,28.8402,6.28247,9.58761e-05,0.000916902,-0.000812062,0.00141631,-0.000403537,-1.01942,0.0011036,0.0218065,1938,1212,28.8402,-6.28249
721,-188,28.6888,6.05188,-0.000668932,0.000385212,0.000218373,0.000428659,-0.000712379,1.3744,0.000665532,0.0190962,1945,1212,28.6889,-6.05184
728,-188,28.5894,5.79211,-0.00115318,-0.000599526,0.00135249,0.000504174,-0.00225688,0.886344,0.00169778,0.0092715,1952,1212,28.5894,-5.79213
735,-188,28.5944,5.53552,-0.0010116,5.0309e-05,0.00191539,0.00150698,-0.00246826,0.920605,0.00231737,0.0121194,1959,1212,28.5944,-5.53555
742,-188,28.5909,5.26392,5.56923e-05,0.00065998,0.00299156,0.00336461,-0.00264894,0.835727,0.00348011,0.0141374,1966,1212,28.591,-5.26396
749,-188,28.5856,4.99194,0.00138863,0.000626642,0.00446509,0.00548895,-0.00347368,0.742838,0.005218,0.0137746,1973,1212,28.5856,-4.99197
756,-188,28.5905,4.71375,0.00268683,9.02413e-05,0.00633825,0.00785839,-0.00508131,0.684378,0.00752787,0.0124226,1980,1212,28.5905,-4.71375
763,-188,28.6165,4.448,0.00426583,-0.000644515,0.00888016,0.011024,-0.00740265,0.650528,0.0107069,0.0151872,1987,1212,28.6164,-4.44799
770,-188,28.5797,4.20947,0.00576333,-0.0023603,0.0122094,0.0145689,-0.0111658,0.624818,0.0149012,0.0267353,1994,1212,28.5797,-4.20944
777,-188,28.547,3.96252,0,0,0,0,0,0,0,-1,2001,1212,28.547,-3.96256
784,-188,30.3651,-1.73242,0,0,0,0,0,0,0,-1,2008,1212,30.3652,1.73237
791,-188,30.2924,0.557983,0.00675994,-0.0173665,0.0274625,0.0246919,-0.0352985,0.578454,0.0348154,0.048026,2015,1212,30.2924,-0.55796
798,-188,30.3997,2.57263,0.00557331,-0.0274075,0.0337326,0.0266305,-0.0484647,0.558052,0.0439629,0.0467424,2022,1212,30.3998,-2.57257
805,-188,0,0,0,0,0,0,0,0,0,-1,2029,1212,0,0
812,-188,0,0,0,0,0,0,0,0,0,-1,2036,1212,0,0
-700,-195,0,0,0,0,0,0,0,0,0,-1,524,1219,0,0
-693,-195,0,0,0,0,0,0,0,0,0,-1,531,1219,0,0
-686,-195,0,0,0,0,0,0,0,0,0,-1,538,1219,0,0
-679,-195,-18.8264,0.443726,0.0177007,0.153508,-0.0205399,0.156547,0.0146621,-1.42393,0.0998367,0.043421,545,1219,-18.8264,-0.443752
-672,-195,-18.1837,0.0222168,0.0177988,0.137174,-0.0140609,0.138808,0.016165,-1.45512,0.0876484,0.0465908,552,1219,-18.1836,-0.0222517
-665,-195,-19.0536,2.76282,0.0165195,0.118,-0.00893519,0.118781,0.0157387,-1.48364,0.0744973,0.0476564,559,1219,-19.0537,-2.76281
-658,-195,-20.0486,-0.714233,0,0,0,0,0,0,0,-1,566,1219,-20.0487,0.714199
-651,-195,-17.9073,0.917236,0.0123953,0.0788658,-0.00199223,0.0789254,0.0123356,-1.54086,0.0490252,0.0450549,573,1219,-17.9073,-0.917201
-644,-195,-17.9083,1.21631,0.0100842,0.0609116,8.61566e-05,0.0609118,0.0100841,1.5691,0.0376988,0.0425481,580,1219,-17.9083,-1.21635
-637,-195,-18.0159,1.53174,0.00780478,0.0450178,0.00133526,0.0450656,0.00775693,1.53498,0.0278209,0.0224623,587,1219,-18.0159,-1.53178
-630,-195,-18.1282,1.8269,0.00605203,0.0319859,0.00197256,0.0321351,0.00590285,1.49531,0.019752,0.00828477,594,1219,-18.1283,-1.82695
-623,-195,-18.1375,2.13513,0.00372415,0.0208889,0.00188757,0.021094,0.00351902,1.46255,0.0130488,0.00802369,601,1219,-18.1375,-2.13515
-616,-195,-18.1396,2.43616,0.0014457,0.0111434,0.00199973,0.0115396,0.00104953,1.37522,0.00736817,0.00974704,608,1219,-18.1396,-2.4361
-609,-195,-18.1462,2.76111,-0.000156839,0.00327399,0.00112393,0.0036094,-0.000492244,1.28079,0.00258601,0.0179216,615,1219,-18.1463,-2.76111
-602,-195,-18.1609,3.08643,-0.00107626,0.000677409,-0.000182989,0.0006963,-0.00109515,-1.46793,0.0010428,0.0219663,622,1219,-18.1609,-3.08638
-595,-195,-18.1912,3.36743,-0.00199705,0.000287772,-0.00121391,0.000812295,-0.00252158,-1.16293,0.00200737,0.0151935,629,1219,-18.1912,-3.36742
-588,-195,-18.1777,3.66248,-0.00250416,-9.46525e-05,-0.00163899,0.000734731,-0.00333355,-1.10233,0.00250347,0.012103,636,1219,-18.1777,-3.66245
-581,-195,-18.2395,3.87866,-0.00208614,-0.0005176,-0.00203591,0.000879877,-0.00348362,-0.969248,0.00266458,0.0200234,643,1219,-18.2395,-3.87866
-574,-195,-18.5693,3.80542,-0.00136516,-0.000974684,-0.00200565,0.000845207,-0.00318505,-0.833917,0.00245411,0.0427149,650,1219,-18.5693,-3.80543
-567,-195,-18.883,3.70557,0,0,0,0,0,0,0,-1,657,1219,-18.883,-3.70562
-560,-195,-19.3478,2.00366,0,0,0,0,0,0,0,-1,664,1219,-19.3478,-2.00368
-553,-195,-23.4409,0.98291,0,0,0,0,0,0,0,-1,671,1219,-23.4408,-0.982928
-546,-195,-23.4998,0.985229,0.00042983,-0.00206045,-0.00170833,0.00129864,-0.00292925,-0.470481,0.00250076,0.049671,678,1219,-23.4998,-0.985261
-539,-195,-23.634,1.01062,0.00096327,-0.00228431,-0.00161691,0.00163101,-0.00295205,-0.391638,0.00268242,0.0385779,685,1219,-23.634,-1.01062
-532,-195,-23.6454,0.803955,0.00150914,-0.00236517,-0.00143125,0.00198052,-0.00283656,-0.31816,0.00279574,0.0338995,692,1219,-23.6455,-0.803905
-525,-195,-23.6074,0.725464,0.00237147,-0.00240863,-0.00105014,0.002592,-0.00262916,-0.206994,0.00301446,0.0391838,699,1219,-23.6074,-0.725474
-518,-195,-23.6571,1.09143,0.00301567,-0.00259833,-0.000575409,0.00307404,-0.0026567,-0.101095,0.00331157,0.0422619,706,1219,-23.6571,-1.09138
-511,-195,-23.6656,1.24597,0.00547227,-0.00236437,0.00131332,0.00568651,-0.00257861,0.161703,0.00488303,0.0403764,713,1219,-23.6656,-1.24602
-504,-195,0,0,0,0,0,0,0,0,0,-1,720,1219,0,0
-497,-195,0,0,0,0,0,0,0,0,0,-1,727,1219,0,0
-490,-195,0,0,0,0,0,0,0,0,0,-1,734,1219,0,0
-483,-195,0,0,0,0,0,0,0,0,0,-1,741,1219,0,0
-476,-195,0,0,0,0,0,0,0,0,0,-1,748,1219,0,0
-469,-195,0,0,0,0,0,0,0,0,0,-1,755,1219,0,0
-462,-195,0,0,0,0,0,0,0,0,0,-1,762,1219,0,0
-455,-195,0,0,0,0,0,0,0,0,0,-1,769,1219,0,0
-448,-195,0,0,0,0,0,0,0,0,0,-1,776,1219,0,0
-441,-195,0,0,0,0,0,0,0,0,0,-1,783,1219,0,0
-434,-195,0,0,0,0,0,0,0,0,0,-1,790,1219,0,0
-427,-195,0,0,0,0,0,0,0,0,0,-1,797,1219,0,0
-420,-195,0,0,0,0,0,0,0,0,0,-1,804,1219,0,0
-413,-195,0,0,0,0,0,0,0,0,0,-1,811,1219,0,0
-406,-195,0,0,0,0,0,0,0,0,0,-1,818,1219,0,0
-399,-195,0,0,0,0,0,0,0,0,0,-1,825,1219,0,0
-392,-195,0,0,0,0,0,0,0,0,0,-1,832,1219,0,0
-385,-195,0,0,0,0,0,0,0,0,0,-1,839,1219,0,0
-378,-195,0,0,0,0,0,0,0,0,0,-1,846,1219,0,0
-371,-195,0,0,0,0,0,0,0,0,0,-1,853,1219,0,0
-364,-195,0,0,0,0,0,0,0,0,0,-1,860,1219,0,0
-357,-195,0,0,0,0,0,0,0,0,0,-1,867,1219,0,0
-350,-195,0,0,0,0,0,0,0,0,0,-1,874,1219,0,0
-343,-195,0,0,0,0,0,0,0,0,0,-1,881,1219,0,0
-336,-195,0,0,0,0,0,0,0,0,0,-1,888,1219,0,0
-329,-195,0,0,0,0,0,0,0,0,0,-1,895,1219,0,0
-322,-195,0,0,0,0,0,0,0,0,0,-1,902,1219,0,0
-315,-195,0,0,0,0,0,0,0,0,0,-1,909,1219,0,0
-308,-195,0,0,0,0,0,0,0,0,0,-1,916,1219,0,0
-301,-195,0,0,0,0,0,0,0,0,0,-1,923,1219,0,0
-294,-195,0,0,0,0,0,0,0,0,0,-1,930,1219,0,0
-287,-195,0,0,0,0,0,0,0,0,0,-1,937,1219,0,0
-280,-195,0,0,0,0,0,0,0,0,0,-1,944,1219,0,0
-273,-195,0,0,0,0,0,0,0,0,0,-1,951,1219,0,0
-266,-195,0,0,0,0,0,0,0,0,0,-1,958,1219,0,0
-259,-195,0,0,0,0,0,0,0,0,0,-1,965,1219,0,0
-252,-195,0,0,0,0,0,0,0,0,0,-1,972,1219,0,0
-245,-195,0,0,0,0,0,0,0,0,0,-1,979,1219,0,0
-238,-195,0,0,0,0,0,0,0,0,0,-1,986,1219,0,0
-231,-195,0,0,0,0,0,0,0,0,0,-1,993,1219,0,0
-224,-195,0,0,0,0,0,0,0,0,0,-1,1000,1219,0,0
-217,-195,0,0,0,0,0,0,0,0,0,-1,1007,1219,0,0
-210,-195,0,0,0,0,0,0,0,0,0,-1,1014,1219,0,0
-203,-195,0,0,0,0,0,0,0,0,0,-1,1021,1219,0,0
-196,-195,0,0,0,0,0,0,0,0,0,-1,1028,1219,0,0
-189,-195,0,0,0,0,0,0,0,0,0,-1,1035,1219,0,0
-182,-195,0,0,0,0,0,0,0,0,0,-1,1042,1219,0,0
-175,-195,0,0,0,0,0,0,0,0,0,-1,1049,1219,0,0
-168,-195,0,0,0,0,0,0,0,0,0,-1,1056,1219,0,0
-161,-195,0,0,0,0,0,0,0,0,0,-1,1063,1219,0,0
-154,-195,0,0,0,0,0,0,0,0,0,-1,1070,1219,0,0
-147,-195,0,0,0,0,0,0,0,0,0,-1,1077,1219,0,0
-140,-195,0,0,0,0,0,0,0,0,0,-1,1084,1219,0,0
-133,-195,0,0,0,0,0,0,0,0,0,-1,1091,1219,0,0
-126,-195,0,0,0,0,0,0,0,0,0,-1,1098,1219,0,0
-119,-195,0,0,0,0,0,0,0,0,0,-1,1105,1219,0,0
-112,-195,0,0,0,0,0,0,0,0,0,-1,1112,1219,0,0
-105,-195,0,0,0,0,0,0,0,0,0,-1,1119,1219,0,0
-98,-195,0,0,0,0,0,0,0,0,0,-1,1126,1219,0,0
-91,-195,0,0,0,0,0,0,0,0,0,-1,1133,1219,0,0
-84,-195,0,0,0,0,0,0,0,0,0,-1,1140,1219,0,0
-77,-195,0,0,0,0,0,0,0,0,0,-1,1147,1219,0,0
-70,-195,0,0,0,0,0,0,0,0,0,-1,1154,1219,0,0
-63,-195,0,0,0,0,0,0,0,0,0,-1,1161,1219,0,0
-56,-195,0,0,0,0,0,0,0,0,0,-1,1168,1219,0,0
-49,-195,0,0,0,0,0,0,0,0,0,-1,1175,1219,0,0
-42,-195,0,0,0,0,0,0,0,0,0,-1,1182,1219,0,0
-35,-195,0,0,0,0,0,0,0,0,0,-1,1189,1219,0,0
-28,-195,0,0,0,0,0,0,0,0,0,-1,1196,1219,0,0
-21,-195,0,0,0,0,0,0,0,0,0,-1,1203,1219,0,0
-14,-195,0,0,0,0,0,0,0,0,0,-1,1210,1219,0,0
-7,-195,0,0,0,0,0,0,0,0,0,-1,1217,1219,0,0
0,-195,0,0,0,0,0,0,0,0,0,-1,1224,1219,0,0
7,-195,0,0,0,0,0,0,0,0,0,-1,1231,1219,0,0
14,-195,0,0,0,0,0,0,0,0,0,-1,1238,1219,0,0
21,-195,0,0,0,0,0,0,0,0,0,-1,1245,1219,0,0
28,-195,0,0,0,0,0,0,0,0,0,-1,1252,1219,0,0
35,-195,0,0,0,0,0,0,0,0,0,-1,1259,1219,0,0
42,-195,0,0,0,0,0,0,0,0,0,-1,1266,1219,0,0
49,-195,0,0,0,0,0,0,0,0,0,-1,1273,1219,0,0
56,-195,0,0,0,0,0,0,0,0,0,-1,1280,1219,0,0
63,-195,0,0,0,0,0,0,0,0,0,-1,1287,1219,0,0
70,-195,0,0,0,0,0,0,0,0,0,-1,1294,1219,0,0
77,-195,0,0,0,0,0,0,0,0,0,-1,1301,1219,0,0
84,-195,0,0,0,0,0,0,0,0,0,-1,1308,1219,0,0
91,-195,0,0,0,0,0,0,0,0,0,-1,1315,1219,0,0
98,-195,0,0,0,0,0,0,0,0,0,-1,1322,1219,0,0
105,-195,0,0,0,0,0,0,0,0,0,-1,1329,1219,0,0
112,-195,0,0,0,0,0,0,0,0,0,-1,1336,1219,0,0
119,-195,0,0,0,0,0,0,0,0,0,-1,1343,1219,0,0
126,-195,0,0,0,0,0,0,0,0,0,-1,1350,1219,0,0
133,-195,0,0,0,0,0,0,0,0,0,-1,1357,1219,0,0
140,-195,0,0,0,0,0,0,0,0,0,-1,1364,1219,0,0
147,-195,0,0,0,0,0,0,0,0,0,-1,1371,1219,0,0
154,-195,0,0,0,0,0,0,0,0,0,-1,1378,1219,0,0
161,-195,0,0,0,0,0,0,0,0,0,-1,1385,1219,0,0
168,-195,0,0,0,0,0,0,0,0,0,-1,1392,1219,0,0
175,-195,0,0,0,0,0,0,0,0,0,-1,1399,1219,0,0
182,-195,0,0,0,0,0,0,0,0,0,-1,1406,1219,0,0
189,-195,0,0,0,0,0,0,0,0,0,-1,1413,1219,0,0
196,-195,0,0,0,0,0,0,0,0,0,-1,1420,1219,0,0
203,-195,0,0,0,0,0,0,0,0,0,-1,1427,1219,0,0
210,-195,0,0,0,0,0,0,0,0,0,-1,1434,1219,0,0
217,-195,0,0,0,0,0,0,0,0,0,-1,1441,1219,0,0
224,-195,0,0,0,0,0,0,0,0,0,-1,1448,1219,0,0
231,-195,0,0,0,0,0,0,0,0,0,-1,1455,1219,0,0
238,-195,0,0,0,0,0,0,0,0,0,-1,1462,1219,0,0
245,-195,0,0,0,0,0,0,0,0,0,-1,1469,1219,0,0
252,-195,0,0,0,0,0,0,0,0,0,-1,1476,1219,0,0
259,-195,0,0,0,0,0,0,0,0,0,-1,1483,1219,0,0
266,-195,0,0,0,0,0,0,0,0,0,-1,1490,1219,0,0
273,-195,0,0,0,0,0,0,0,0,0,-1,1497,1219,0,0
280,-195,0,0,0,0,0,0,0,0,0,-1,1504,1219,0,0
287,-195,0,0,0,0,0,0,0,0,0,-1,1511,1219,0,0
294,-195,0,0,0,0,0,0,0,0,0,-1,1518,1219,0,0
301,-195,0,0,0,0,0,0,0,0,0,-1,1525,1219,0,0
308,-195,0,0,0,0,0,0,0,0,0,-1,1532,1219,0,0
315,-195,0,0,0,0,0,0,0,0,0,-1,1539,1219,0,0
322,-195,0,0,0,0,0,0,0,0,0,-1,1546,1219,0,0
329,-195,0,0,0,0,0,0,0,0,0,-1,1553,1219,0,0
336,-195,0,0,0,0,0,0,0,0,0,-1,1560,1219,0,0
343,-195,0,0,0,0,0,0,0,0,0,-1,1567,1219,0,0
350,-195,0,0,0,0,0,0,0,0,0,-1,1574,1219,0,0
357,-195,0,0,0,0,0,0,0,0,0,-1,1581,1219,0,0
364,-195,0,0,0,0,0,0,0,0,0,-1,1588,1219,0,0
371,-195,0,0,0,0,0,0,0,0,0,-1,1595,1219,0,0
378,-195,0,0,0,0,0,0,0,0,0,-1,1602,1219,0,0
385,-195,0,0,0,0,0,0,0,0,0,-1,1609,1219,0,0
392,-195,0,0,0,0,0,0,0,0,0,-1,1616,1219,0,0
399,-195,0,0,0,0,0,0,0,0,0,-1,1623,1219,0,0
406,-195,0,0,0,0,0,0,0,0,0,-1,1630,1219,0,0
413,-195,0,0,0,0,0,0,0,0,0,-1,1637,1219,0,0
420,-195,0,0,0,0,0,0,0,0,0,-1,1644,1219,0,0
427,-195,0,0,0,0,0,0,0,0,0,-1,1651,1219,0,0
434,-195,0,0,0,0,0,0,0,0,0,-1,1658,1219,0,0
441,-195,0,0,0,0,0,0,0,0,0,-1,1665,1219,0,0
448,-195,0,0,0,0,0,0,0,0,0,-1,1672,1219,0,0
455,-195,0,0,0,0,0,0,0,0,0,-1,1679,1219,0,0
462,-195,0,0,0,0,0,0,0,0,0,-1,1686,1219,0,0
469,-195,0,0,0,0,0,0,0,0,0,-1,1693,1219,0,0
476,-195,0,0,0,0,0,0,0,0,0,-1,1700,1219,0,0
483,-195,0,0,0,0,0,0,0,0,0,-1,1707,1219,0,0
490,-195,0,0,0,0,0,0,0,0,0,-1,1714,1219,0,0
497,-195,0,0,0,0,0,0,0,0,0,-1,1721,1219,0,0
504,-195,0,0,0,0,0,0,0,0,0,-1,1728,1219,0,0
511,-195,0,0,0,0,0,0,0,0,0,-1,1735,1219,0,0
518,-195,0,0,0,0,0,0,0,0,0,-1,1742,1219,0,0
525,-195,0,0,0,0,0,0,0,0,0,-1,1749,1219,0,0
532,-195,0,0,0,0,0,0,0,0,0,-1,1756,1219,0,0
539,-195,0,0,0,0,0,0,0,0,0,-1,1763,1219,0,0
546,-195,0,0,0,0,0,0,0,0,0,-1,1770,1219,0,0
553,-195,0,0,0,0,0,0,0,0,0,-1,1777,1219,0,0
560,-195,0,0,0,0,0,0,0,0,0,-1,1784,1219,0,0
567,-195,0,0,0,0,0,0,0,0,0,-1,1791,1219,0,0
574,-195,0,0,0,0,0,0,0,0,0,-1,1798,1219,0,0
581,-195,0,0,0,0,0,0,0,0,0,-1,1805,1219,0,0
588,-195,0,0,0,0,0,0,0,0,0,-1,1812,1219,0,0
595,-195,0,0,0,0,0,0,0,0,0,-1,1819,1219,0,0
602,-195,0,0,0,0,0,0,0,0,0,-1,1826,1219,0,0
609,-195,0,0,0,0,0,0,0,0,0,-1,1833,1219,0,0
616,-195,0,0,0,0,0,0,0,0,0,-1,1840,1219,0,0
623,-195,0,0,0,0,0,0,0,0,0,-1,1847,1219,0,0
630,-195,33.6162,2.72021,0.00125605,-0.000332407,0.00430783,0.00484226,-0.00391861,0.694238,0.00506745,0.0387034,1854,1219,33.6162,-2.7202
637,-195,33.652,2.86011,0.00125053,0.000940234,0.00136627,0.00247043,-0.000279674,0.728863,0.00174766,0.0377319,1861,1219,33.652,-2.86015
644,-195,33.5713,2.91821,0.0016249,0.00260137,-0.00160528,0.00379102,0.000435248,-0.933024,0.00239548,0.0339749,1868,1219,33.5713,-2.91817
651,-195,33.4847,2.85315,0.00228547,0.00403181,-0.00398252,0.00723576,-0.000918481,-0.893316,0.00515734,0.0261614,1875,1219,33.4848,-2.85315
658,-195,33.4473,2.84387,0.00296786,0.00461978,-0.00518604,0.00904522,-0.00145758,-0.864368,0.00657013,0.0236614,1882,1219,33.4473,-2.84387
665,-195,33.4661,2.83533,0.00335929,0.00466928,-0.00551015,0.00956323,-0.00153466,-0.844556,0.0069438,0.0230418,1889,1219,33.4661,-2.83528
672,-195,33.5378,2.75647,0.00324639,0.00418213,-0.00515258,0.00888804,-0.00145952,-0.830675,0.006467,0.0353523,1896,1219,33.5378,-2.75648
679,-195,33.5742,2.61755,0.0027844,0.00367994,-0.00454385,0.00779803,-0.00133369,-0.834511,0.00569554,0.0486873,1903,1219,33.5742,-2.61758
686,-195,33.6467,2.49377,0,0,0,0,0,0,0,-1,1910,1219,33.6467,-2.49379
693,-195,24.4368,5.68298,0,0,0,0,0,0,0,-1,1917,1219,24.4368,-5.68293
700,-195,28.618,6.92444,0,0,0,0,0,0,0,-1,1924,1219,28.618,-6.92449
707,-195,28.3751,6.69543,0.00134812,0.00143827,-0.00190335,0.00329708,-0.00051069,-0.797236,0.00238656,0.0268481,1931,1219,28.3751,-6.69544
714,-195,28.3477,6.30554,0.000530487,0.000872427,-0.000944789,0.00166159,-0.000258677,-0.87491,0.00120326,0.0273493,1938,1219,28.3477,-6.30558
721,-195,28.3308,6.07239,-0.00020369,0.000293345,0.000244665,0.000393571,-0.000303916,1.182,0.000403802,0.0140567,1945,1219,28.3308,-6.07242
728,-195,28.3286,5.81519,-0.000615575,-0.000767518,0.0014708,0.000781209,-0.0021643,0.759595,0.00176198,0.00975957,1952,1219,28.3286,-5.81523
735,-195,28.3302,5.53516,-0.000335455,0.000143393,0.00203282,0.00195084,-0.0021429,0.844018,0.00236439,0.0117756,1959,1219,28.3303,-5.53512
742,-195,28.3264,5.26294,0.000893613,0.000940208,0.00324575,0.00416274,-0.00232892,0.788987,0.00379748,0.0143164,1966,1219,28.3265,-5.26292
749,-195,28.3087,4.99194,0.00247803,0.00117109,0.0048833,0.00675139,-0.00310227,0.718885,0.00581759,0.0138906,1973,1219,28.3087,-4.99197
756,-195,28.3098,4.72314,0.00411898,0.00106015,0.00694332,0.00969934,-0.0045202,0.676993,0.00838921,0.0130094,1980,1219,28.3098,-4.72312
763,-195,28.319,4.4541,0.0061652,0.000856039,0.00982987,0.0136926,-0.00667138,0.653518,0.0119878,0.0159485,1987,1219,28.3189,-4.45414
770,-195,28.3873,4.33936,0.00830458,-0.00015912,0.0136887,0.0184006,-0.0102552,0.635483,0.0167657,0.0304076,1994,1219,28.3873,-4.33941
777,-195,28.5369,4.34106,0,0,0,0,0,0,0,-1,2001,1219,28.5369,-4.34107
784,-195,31.0382,-0.31543,0,0,0,0,0,0,0,-1,2008,1219,31.0382,0.315474
791,-195,31.1947,1.42822,0.0121809,-0.0121887,0.0320715,0.0343043,-0.0343121,0.603856,0.0396157,0.0487388,2015,1219,31.1947,-1.42817
798,-195,31.2837,3.00916,0.0123199,-0.0209317,0.0399839,0.0389968,-0.0476086,0.588366,0.050084,0.044555,2022,1219,31.2836,-3.00916
805,-195,0,0,0,0,0,0,0,0,0,-1,2029,1219,0,0
812,-195,0,0,0,0,0,0,0,0,0,-1,2036,1219,0,0
-700,-202,0,0,0,0,0,0,0,0,0,-1,524,1226,0,0
-693,-202,0,0,0,0,0,0,0,0,0,-1,531,1226,0,0
-686,-202,0,0,0,0,0,0,0,0,0,-1,538,1226,0,0
-679,-202,-18.5682,-0.411987,0.0152476,0.188432,-0.0231462,0.191473,0.0122075,-1.4402,0.12378,0.044606,545,1226,-18.5683,0.412036
-672,-202,-19.4642,1.75488,0.015889,0.166,-0.014721,0.16743,0.0144589,-1.47396,0.107126,0.0459987,552,1226,-19.4642,-1.75485
-665,-202,-18.7865,1.22168,0.0150791,0.14138,-0.00839833,0.141936,0.0145231,-1.50469,0.090174,0.0477157,559,1226,-18.7865,-1.22166
-658,-202,-17.8507,0.770508,0,0,0,0,0,0,0,-1,566,1226,-17.8507,-0.770538
-651,-202,-17.5431,0.826782,0.0117452,0.0935667,-0.000401788,0.0935687,0.0117433,-1.56589,0.0588565,0.048594,573,1226,-17.5431,-0.826835
-644,-202,-17.5087,1.17688,0.00976674,0.0723054,0.00178357,0.0723563,0.00971592,1.54231,0.0453472,0.0464466,580,1226,-17.5087,-1.1769
-637,-202,-17.6426,1.48108,0.00780774,0.0535942,0.00297765,0.0537871,0.00761491,1.50613,0.0336085,0.0327615,587,1226,-17.6427,-1.4811
-630,-202,-17.7693,1.79419,0.00613659,0.0383596,0.00344148,0.0387231,0.00577313,1.46558,0.0241224,0.013939,594,1226,-17.7693,-1.79418
-623,-202,-17.8063,2.1145,0.00403607,0.0256417,0.00310105,0.026078,0.00359979,1.43103,0.0163183,0.00831784,601,1226,-17.8063,-2.1145
-616,-202,-17.8175,2.42297,0.00195587,0.0140798,0.00312395,0.0148374,0.00119827,1.33288,0.00951734,0.00862797,608,1226,-17.8175,-2.42291
-609,-202,-17.7885,2.73926,0.000506829,0.004371,0.00206057,0.00526361,-0.000385783,1.16201,0.00364448,0.0211553,615,1226,-17.7884,-2.73931
-602,-202,-17.8394,3.04224,-0.000387128,0.000684994,0.000484561,0.00087154,-0.000573674,1.20331,0.000840281,0.021378,622,1226,-17.8394,-3.04221
-595,-202,-17.9017,3.34631,-0.00129229,0.000164874,-0.000832676,0.000542719,-0.00167014,-1.14481,0.00133172,0.0162516,629,1226,-17.9017,-3.34632
-588,-202,-17.8286,3.68433,-0.00170538,-0.000318027,-0.00131826,0.000477928,-0.00250134,-1.02759,0.00184759,0.00893692,636,1226,-17.8286,-3.68434
-581,-202,-17.809,3.88574,-0.00131126,-0.000763116,-0.00167486,0.000659951,-0.00273433,-0.866499,0.0020781,0.0269809,643,1226,-17.809,-3.88578
-574,-202,-18.0976,3.94446,-0.00062413,-0.00120169,-0.00156406,0.000677583,-0.0025034,-0.694109,0.00193476,0.0382252,650,1226,-18.0976,-3.94443
-567,-202,-18.3624,4.0354,0,0,0,0,0,0,0,-1,657,1226,-18.3624,-4.0354
-560,-202,-10.929,2.73096,0,0,0,0,0,0,0,-1,664,1226,-10.929,-2.73092
-553,-202,-22.8293,0.539673,0,0,0,0,0,0,0,-1,671,1226,-22.8293,-0.539668
-546,-202,-23.3994,0.918335,0,0,0,0,0,0,0,-1,678,1226,-23.3994,-0.918325
-539,-202,-23.6996,1.17822,0.00113231,-0.00213024,-0.00151775,0.00172917,-0.00272711,-0.374682,0.00259425,0.0414394,685,1226,-23.6997,-1.1782
-532,-202,-23.624,0.964844,0.00130565,-0.00212075,-0.00155466,0.00190589,-0.00272099,-0.36846,0.00268511,0.0280081,692,1226,-23.624,-0.964871
-525,-202,-23.6069,0.897705,0.00164406,-0.00203428,-0.00148348,0.00216778,-0.002558,-0.339377,0.00273153,0.0347005,699,1226,-23.6068,-0.897668
-518,-202,-23.6826,1.23315,0.00159437,-0.00200415,-0.00131819,0.00202557,-0.00243535,-0.316145,0.00257913,0.0398817,706,1226,-23.6826,-1.23321
-511,-202,-23.7037,1.29053,0.00278762,-0.00169544,0.000252212,0.00280177,-0.00170959,0.0560231,0.00262995,0.0393459,713,1226,-23.7038,-1.29047
-504,-202,0,0,0,0,0,0,0,0,0,-1,720,1226,0,0
-497,-202,0,0,0,0,0,0,0,0,0,-1,727,1226,0,0
-490,-202,0,0,0,0,0,0,0,0,0,-1,734,1226,0,0
-483,-202,0,0,0,0,0,0,0,0,0,-1,741,1226,0,0
-476,-202,0,0,0,0,0,0,0,0,0,-1,748,1226,0,0
-469,-202,0,0,0,0,0,0,0,0,0,-1,755,1226,0,0
-462,-202,0,0,0,0,0,0,0,0,0,-1,762,1226,0,0
-455,-202,0,0,0,0,0,0,0,0,0,-1,769,1226,0,0
-448,-202,0,0,0,0,0,0,0,0,0,-1,776,1226,0,0
-441,-202,0,0,0,0,0,0,0,0,0,-1,783,1226,0,0
-434,-202,0,0,0,0,0,0,0,0,0,-1,790,1226,0,0
-427,-202,0,0,0,0,0,0,0,0,0,-1,797,1226,0,0
-420,-202,0,0,0,0,0,0,0,0,0,-1,804,1226,0,0
-413,-202,0,0,0,0,0,0,0,0,0,-1,811,1226,0,0
-406,-202,0,0,0,0,0,0,0,0,0,-1,818,1226,0,0
-399,-202,0,0,0,0,0,0,0,0,0,-1,825,1226,0,0
-392,-202,0,0,0,0,0,0,0,0,0,-1,832,1226,0,0
-385,-202,0,0,0,0,0,0,0,0,0,-1,839,1226,0,0
-378,-202,0,0,0,0,0,0,0,0,0,-1,846,1226,0,0
-371,-202,0,0,0,0,0,0,0,0,0,-1,853,1226,0,0
-364,-202,0,0,0,0,0,0,0,0,0,-1,860,1226,0,0
-357,-202,0,0,0,0,0,0,0,0,0,-1,867,1226,0,0
-350,-202,0,0,0,0,0,0,0,0,0,-1,874,1226,0,0
-343,-202,0,0,0,0,0,0,0,0,0,-1,881,1226,0,0
-336,-202,0,0,0,0,0,0,0,0,0,-1,888,1226,0,0
-329,-202,0,0,0,0,0,0,0,0,0,-1,895,1226,0,0
-322,-202,0,0,0,0,0,0,0,0,0,-1,902,1226,0,0
-315,-202,0,0,0,0,0,0,0,0,0,-1,909,1226,0,0
-308,-202,0,0,0,0,0,0,0,0,0,-1,916,1226,0,0
-301,-202,0,0,0,0,0,0,0,0,0,-1,923,1226,0,0
-294,-202,0,0,0,0,0,0,0,0,0,-1,930,1226,0,0
-287,-202,0,0,0,0,0,0,0,0,0,-1,937,1226,0,0
-280,-202,0,0,0,0,0,0,0,0,0,-1,944,1226,0,0
-273,-202,0,0,0,0,0,0,0,0,0,-1,951,1226,0,0
-266,-202,0,0,0,0,0,0,0,0,0,-1,958,1226,0,0
-259,-202,0,0,0,0,0,0,0,0,0,-1,965,1226,0,0
-252,-202,0,0,0,0,0,0,0,0,0,-1,972,1226,0,0
-245,-202,0,0,0,0,0,0,0,0,0,-1,979,1226,0,0
-238,-202,0,0,0,0,0,0,0,0,0,-1,986,1226,0,0
-231,-202,0,0,0,0,0,0,0,0,0,-1,993,1226,0,0
-224,-202,0,0,0,0,0,0,0,0,0,-1,1000,1226,0,0
-217,-202,0,0,0,0,0,0,0,0,0,-1,1007,1226,0,0
-210,-202,0,0,0,0,0,0,0,0,0,-1,1014,1226,0,0
-203,-202,0,0,0,0,0,0,0,0,0,-1,1021,1226,0,0
-196,-202,0,0,0,0,0,0,0,0,0,-1,1028,1226,0,0
-189,-202,0,0,0,0,0,0,0,0,0,-1,1035,1226,0,0
-182,-202,0,0,0,0,0,0,0,0,0,-1,1042,1226,0,0
-175,-202,0,0,0,0,0,0,0,0,0,-1,1049,1226,0,0
-168,-202,0,0,0,0,0,0,0,0,0,-1,1056,1226,0,0
-161,-202,0,0,0,0,0,0,0,0,0,-1,1063,1226,0,0
-154,-202,0,0,0,0,0,0,0,0,0,-1,1070,1226,0,0
-147,-202,0,0,0,0,0,0,0,0,0,-1,1077,1226,0,0
-140,-202,0,0,0,0,0,0,0,0,0,-1,1084,1226,0,0
-133,-202,0,0,0,0,0,0,0,0,0,-1,1091,1226,0,0
-126,-202,0,0,0,0,0,0,0,0,0,-1,1098,1226,0,0
-119,-202,0,0,0,0,0,0,0,0,0,-1,1105,1226,0,0
-112,-202,0,0,0,0,0,0,0,0,0,-1,1112,1226,0,0
-105,-202,0,0,0,0,0,0,0,0,0,-1,1119,1226,0,0
-98,-202,0,0,0,0,0,0,0,0,0,-1,1126,1226,0,0
-91,-202,0,0,0,0,0,0,0,0,0,-1,1133,1226,0,0
-84,-202,0,0,0,0,0,0,0,0,0,-1,1140,1226,0,0
-77,-202,0,0,0,0,0,0,0,0,0,-1,1147,1226,0,0
-70,-202,0,0,0,0,0,0,0,0,0,-1,1154,1226,0,0
-63,-202,0,0,0,0,0,0,0,0,0,-1,1161,1226,0,0
-56,-202,0,0,0,0,0,0,0,0,0,-1,1168,1226,0,0
-49,-202,0,0,0,0,0,0,0,0,0,-1,1175,1226,0,0
-42,-202,0,0,0,0,0,0,0,0,0,-1,1182,1226,0,0
-35,-202,0,0,0,0,0,0,0,0,0,-1,1189,1226,0,0
-28,-202,0,0,0,0,0,0,0,0,0,-1,1196,1226,0,0
-21,-202,0,0,0,0,0,0,0,0,0,-1,1203,1226,0,0
-14,-202,0,0,0,0,0,0,0,0,0,-1,1210,1226,0,0
-7,-202,0,0,0,0,0,0,0,0,0,-1,1217,1226,0,0
0,-202,0,0,0,0,0,0,0,0,0,-1,1224,1226,0,0
7,-202,0,0,0,0,0,0,0,0,0,-1,1231,1226,0,0
14,-202,0,0,0,0,0,0,0,0,0,-1,1238,1226,0,0
21,-202,0,0,0,0,0,0,0,0,0,-1,1245,1226,0,0
28,-202,0,0,0,0,0,0,0,0,0,-1,1252,1226,0,0
35,-202,0,0,0,0,0,0,0,0,0,-1,1259,1226,0,0
42,-202,0,0,0,0,0,0,0,0,0,-1,1266,1226,0,0
49,-202,0,0,0,0,0,0,0,0,0,-1,1273,1226,0,0
56,-202,0,0,0,0,0,0,0,0,0,-1,1280,1226,0,0
63,-202,0,0,0,0,0,0,0,0,0,-1,1287,1226,0,0
70,-202,0,0,0,0,0,0,0,0,0,-1,1294,1226,0,0
77,-202,0,0,0,0,0,0,0,0,0,-1,1301,1226,0,0
84,-202,0,0,0,0,0,0,0,0,0,-1,1308,1226,0,0
91,-202,0,0,0,0,0,0,0,0,0,-1,1315,1226,0,0
98,-202,0,0,0,0,0,0,0,0,0,-1,1322,1226,0,0
105,-202,0,0,0,0,0,0,0,0,0,-1,1329,1226,0,0
112,-202,0,0,0,0,0,0,0,0,0,-1,1336,1226,0,0
119,-202,0,0,0,0,0,0,0,0,0,-1,1343,1226,0,0
126,-202,0,0,0,0,0,0,0,0,0,-1,1350,1226,0,0
133,-202,0,0,0,0,0,0,0,0,0,-1,1357,1226,0,0
140,-202,0,0,0,0,0,0,0,0,0,-1,1364,1226,0,0
147,-202,0,0,0,0,0,0,0,0,0,-1,1371,1226,0,0
154,-202,0,0,0,0,0,0,0,0,0,-1,1378,1226,0,0
161,-202,0,0,0,0,0,0,0,0,0,-1,1385,1226,0,0
168,-202,0,0,0,0,0,0,0,0,0,-1,1392,1226,0,0
175,-202,0,0,0,0,0,0,0,0,0,-1,1399,1226,0,0
182,-202,0,0,0,0,0,0,0,0,0,-1,1406,1226,0,0
189,-202,0,0,0,0,0,0,0,0,0,-1,1413,1226,0,0
196,-202,0,0,0,0,0,0,0,0,0,-1,1420,1226,0,0
203,-202,0,0,0,0,0,0,0,0,0,-1,1427,1226,0,0
210,-202,0,0,0,0,0,0,0,0,0,-1,1434,1226,0,0
217,-202,0,0,0,0,0,0,0,0,0,-1,1441,1226,0,0
224,-202,0,0,0,0,0,0,0,0,0,-1,1448,1226,0,0
231,-202,0,0,0,0,0,0,0,0,0,-1,1455,1226,0,0
238,-202,0,0,0,0,0,0,0,0,0,-1,1462,1226,0,0
245,-202,0,0,0,0,0,0,0,0,0,-1,1469,1226,0,0
252,-202,0,0,0,0,0,0,0,0,0,-1,1476,1226,0,0
259,-202,0,0,0,0,0,0,0,0,0,-1,1483,1226,0,0
266,-202,0,0,0,0,0,0,0,0,0,-1,1490,1226,0,0
273,-202,0,0,0,0,0,0,0,0,0,-1,1497,1226,0,0
280,-202,0,0,0,0,0,0,0,0,0,-1,1504,1226,0,0
287,-202,0,0,0,0,0,0,0,0,0,-1,1511,1226,0,0
294,-202,0,0,0,0,0,0,0,0,0,-1,1518,1226,0,0
301,-202,0,0,0,0,0,0,0,0,0,-1,1525,1226,0,0
308,-202,0,0,0,0,0,0,0,0,0,-1,1532,1226,0,0
315,-202,0,0,0,0,0,0,0,0,0,-1,1539,1226,0,0
322,-202,0,0,0,0,0,0,0,0,0,-1,1546,1226,0,0
329,-202,0,0,0,0,0,0,0,0,0,-1,1553,1226,0,0
336,-202,0,0,0,0,0,0,0,0,0,-1,1560,1226,0,0
343,-202,0,0,0,0,0,0,0,0,0,-1,1567,1226,0,0
350,-202,0,0,0,0,0,0,0,0,0,-1,1574,1226,0,0
357,-202,0,0,0,0,0,0,0,0,0,-1,1581,1226,0,0
364,-202,0,0,0,0,0,0,0,0,0,-1,1588,1226,0,0
371,-202,0,0,0,0,0,0,0,0,0,-1,1595,1226,0,0
378,-202,0,0,0,0,0,0,0,0,0,-1,1602,1226,0,0
385,-202,0,0,0,0,0,0,0,0,0,-1,1609,1226,0,0
392,-202,0,0,0,0,0,0,0,0,0,-1,1616,1226,0,0
399,-202,0,0,0,0,0,0,0,0,0,-1,1623,1226,0,0
406,-202,0,0,0,0,0,0,0,0,0,-1,1630,1226,0,0
413,-202,0,0,0,0,0,0,0,0,0,-1,1637,1226,0,0
420,-202,0,0,0,0,0,0,0,0,0,-1,1644,1226,0,0
427,-202,0,0,0,0,0,0,0,0,0,-1,1651,1226,0,0
434,-202,0,0,0,0,0,0,0,0,0,-1,1658,1226,0,0
441,-202,0,0,0,0,0,0,0,0,0,-1,1665,1226,0,0
448,-202,0,0,0,0,0,0,0,0,0,-1,1672,1226,0,0
455,-202,0,0,0,0,0,0,0,0,0,-1,1679,1226,0,0
462,-202,0,0,0,0,0,0,0,0,0,-1,1686,1226,0,0
469,-202,0,0,0,0,0,0,0,0,0,-1,1693,1226,0,0
476,-202,0,0,0,0,0,0,0,0,0,-1,1700,1226,0,0
483,-202,0,0,0,0,0,0,0,0,0,-1,1707,1226,0,0
490,-202,0,0,0,0,0,0,0,0,0,-1,1714,1226,0,0
497,-202,0,0,0,0,0,0,0,0,0,-1,1721,1226,0,0
504,-202,0,0,0,0,0,0,0,0,0,-1,1728,1226,0,0
511,-202,0,0,0,0,0,0,0,0,0,-1,1735,1226,0,0
518,-202,0,0,0,0,0,0,0,0,0,-1,1742,1226,0,0
525,-202,0,0,0,0,0,0,0,0,0,-1,1749,1226,0,0
532,-202,0,0,0,0,0,0,0,0,0,-1,1756,1226,0,0
539,-202,0,0,0,0,0,0,0,0,0,-1,1763,1226,0,0
546,-202,0,0,0,0,0,0,0,0,0,-1,1770,1226,0,0
553,-202,0,0,0,0,0,0,0,0,0,-1,1777,1226,0,0
560,-202,0,0,0,0,0,0,0,0,0,-1,1784,1226,0,0
567,-202,0,0,0,0,0,0,0,0,0,-1,1791,1226,0,0
574,-202,0,0,0,0,0,0,0,0,0,-1,1798,1226,0,0
581,-202,0,0,0,0,0,0,0,0,0,-1,1805,1226,0,0
588,-202,0,0,0,0,0,0,0,0,0,-1,1812,1226,0,0
595,-202,0,0,0,0,0,0,0,0,0,-1,1819,1226,0,0
602,-202,0,0,0,0,0,0,0,0,0,-1,1826,1226,0,0
609,-202,0,0,0,0,0,0,0,0,0,-1,1833,1226,0,0
616,-202,0,0,0,0,0,0,0,0,0,-1,1840,1226,0,0
623,-202,0,0,0,0,0,0,0,0,0,-1,1847,1226,0,0
630,-202,33.5089,2.84583,0.00188085,-2.03183e-05,0.00343316,0.0044926,-0.00263207,0.65034,0.00415992,0.0371915,1854,1226,33.5089,-2.84578
637,-202,33.5807,2.94458,0.00173438,0.0011781,0.0010558,0.00254806,0.000364411,0.656604,0.00159121,0.0357303,1861,1226,33.5806,-2.94453
644,-202,33.61,2.98657,0.0019618,0.00279656,-0.00140724,0.00384701,0.000911345,-0.929564,0.00232131,0.032597,1868,1226,33.61,-2.98652
651,-202,33.5793,2.88403,0.00250533,0.00410126,-0.00341769,0.00681291,-0.000206321,-0.900084,0.00461225,0.026231,1875,1226,33.5793,-2.88404
658,-202,33.5087,2.83411,0.00306701,0.00457799,-0.00447103,0.00835691,-0.000711913,-0.869095,0.0058231,0.0220856,1882,1226,33.5087,-2.83408
665,-202,33.5406,2.80481,0.00335219,0.00459066,-0.00483074,0.00884169,-0.000898845,-0.849144,0.00621577,0.020286,1889,1226,33.5407,-2.80484
672,-202,33.7292,2.74011,0.0032279,0.00416558,-0.00465465,0.00837494,-0.000981458,-0.835591,0.00593754,0.0417507,1896,1226,33.7292,-2.74013
679,-202,33.9542,2.66931,0,0,0,0,0,0,0,-1,1903,1226,33.9542,-2.66935
686,-202,33.175,3.12439,0,0,0,0,0,0,0,-1,1910,1226,33.175,-3.1244
693,-202,27.9022,7.36707,0,0,0,0,0,0,0,-1,1917,1226,27.9022,-7.3671
700,-202,27.9357,7.00159,0.00211364,0.00230446,-0.00289982,0.00511044,-0.000692336,-0.801843,0.00365963,0.041053,1924,1226,27.9357,-7.00155
707,-202,28.0083,6.58521,0.0017888,0.00149757,-0.00217631,0.00382437,-0.000537994,-0.751994,0.00274653,0.033383,1931,1226,28.0083,-6.58526
714,-202,28.0476,6.29553,0.000993684,0.000889624,-0.00118464,0.00212744,-0.000244133,-0.763452,0.00150628,0.0197403,1938,1226,28.0476,-6.29555
721,-202,28.0745,6.0625,0.000325778,0.000288838,0.000162103,0.00047046,0.000144156,0.728673,0.000278323,0.0127172,1945,1226,28.0744,-6.06252
728,-202,28.0668,5.81262,1.39862e-05,-0.00078354,0.00145896,0.00112769,-0.00189725,0.651996,0.00176519,0.0104165,1952,1226,28.0668,-5.81262
735,-202,28.0626,5.53857,0.000436511,0.000388473,0.00204028,0.00245291,-0.00162793,0.779512,0.00237207,0.0107842,1959,1226,28.0626,-5.53852
742,-202,28.0698,5.26904,0.00177342,0.00136928,0.00340332,0.00498066,-0.00183797,0.755746,0.00407373,0.0110075,1966,1226,28.0698,-5.26899
749,-202,28.0476,5.00073,0.0034789,0.00187111,0.0051498,0.00788717,-0.00253716,0.707972,0.00627714,0.0106115,1973,1226,28.0476,-5.00073
756,-202,28.0479,4.73621,0.00531407,0.00223728,0.00737031,0.0113048,-0.00375347,0.682511,0.00905096,0.0107673,1980,1226,28.0479,-4.73617
763,-202,28.066,4.49219,0.00769327,0.00266488,0.0105444,0.0160191,-0.00566095,0.668364,0.0129845,0.0166514,1987,1226,28.0661,-4.49225
770,-202,28.219,4.45911,0.010302,0.00255539,0.0148736,0.0217983,-0.00894091,0.658019,0.0182575,0.0429099,1994,1226,28.219,-4.45912
777,-202,28.4208,4.4303,0,0,0,0,0,0,0,-1,2001,1226,28.4208,-4.4303
784,-202,32.0826,2.12793,0,0,0,0,0,0,0,-1,2008,1226,32.0827,-2.12797
791,-202,32.0925,1.91309,0,0,0,0,0,0,0,-1,2015,1226,32.0926,-1.91306
798,-202,32.2556,3.56335,0,0,0,0,0,0,0,-1,2022,1226,32.2556,-3.56332
805,-202,0,0,0,0,0,0,0,0,0,-1,2029,1226,0,0
812,-202,0,0,0,0,0,0,0,0,0,-1,2036,1226,0,0
-700,-209,0,0,0,0,0,0,0,0,0,-1,524,1233,0,0
-693,-209,0,0,0,0,0,0,0,0,0,-1,531,1233,0,0
-686,-209,0,0,0,0,0,0,0,0,0,-1,538,1233,0,0
-679,-209,-18.3172,-1.27051,0,0,0,0,0,0,0,-1,545,1233,-18.3172,1.27057
-672,-209,-17.829,-1.49268,0,0,0,0,0,0,0,-1,552,1233,-17.829,1.49264
-665,-209,-18.5807,-0.593384,0,0,0,0,0,0,0,-1,559,1233,-18.5808,0.593438
-658,-209,-17.143,-0.00390625,0,0,0,0,0,0,0,-1,566,1233,-17.143,0.00386527
-651,-209,-17.0311,0.772705,0,0,0,0,0,0,0,-1,573,1233,-17.031,-0.772646
-644,-209,-17.2232,1.11707,0.00784921,0.0821701,0.00421043,0.0824078,0.00761145,1.51438,0.0525854,0.0499178,580,1233,-17.2232,-1.11703
-637,-209,-17.3658,1.3811,0.00644664,0.0611886,0.00524481,0.0616866,0.00594866,1.47613,0.0392919,0.0420339,587,1233,-17.3658,-1.38113
-630,-209,-17.4087,1.72656,0.00520797,0.0440916,0.00542201,0.0448335,0.00446607,1.43481,0.0285171,0.0222012,594,1233,-17.4087,-1.72661
-623,-209,-17.4733,2.09875,0.00359387,0.0299616,0.00475483,0.0307929,0.00276265,1.39773,0.0196725,0.0113135,601,1233,-17.4733,-2.09876
-616,-209,-17.4956,2.42859,0.00200484,0.0167271,0.00465137,0.0180735,0.000658414,1.28903,0.0118357,0.0120133,608,1233,-17.4956,-2.42865
-609,-209,-17.4871,2.7373,0.00101068,0.00545953,0.00339968,0.00729785,-0.000827634,1.0751,0.00516327,0.0144797,615,1233,-17.4871,-2.73731
-602,-209,-17.503,3.05676,0.000339621,0.000708003,0.00153836,0.00207316,-0.00102554,0.84498,0.0018228,0.0170679,622,1233,-17.503,-3.05676
-595,-209,-17.512,3.37341,-0.000439118,7.3328e-05,-0.000192475,0.000137568,-0.000503358,-1.24866,0.00038961,0.0124796,629,1233,-17.512,-3.37341
-588,-209,-17.4699,3.70496,-0.000748125,-0.000536812,-0.000811415,0.000175796,-0.00146073,-0.85014,0.0010374,0.0133435,636,1233,-17.4699,-3.70496
-581,-209,-17.332,4.03748,-0.000350493,-0.00102812,-0.00111601,0.000477003,-0.00185561,-0.638024,0.00142298,0.0271922,643,1233,-17.3321,-4.03752
-574,-209,-17.5603,4.28369,0.000292878,-0.0014783,-0.000924159,0.000687265,-0.00187268,-0.403354,0.0015299,0.035365,650,1233,-17.5603,-4.28373
-567,-209,-17.7876,4.37512,0,0,0,0,0,0,0,-1,657,1233,-17.7876,-4.37512
-560,-209,-13.9294,4.16626,0,0,0,0,0,0,0,-1,664,1233,-13.9294,-4.16621
-553,-209,-22.7542,0.748779,0,0,0,0,0,0,0,-1,671,1233,-22.7541,-0.748796
-546,-209,-24.1713,1.46802,0,0,0,0,0,0,0,-1,678,1233,-24.1713,-1.46804
-539,-209,-23.8566,1.25146,0,0,0,0,0,0,0,-1,685,1233,-23.8566,-1.25145
-532,-209,-23.5419,1.03491,0,0,0,0,0,0,0,-1,692,1233,-23.5419,-1.03487
-525,-209,-23.6821,1.08752,0.00149768,-0.00151028,-0.00193579,0.00244508,-0.00245767,-0.45514,0.00283061,0.0326946,699,1233,-23.6821,-1.08756
-518,-209,-23.6461,1.11279,0.00102301,-0.00123085,-0.0021625,0.0023346,-0.00254244,-0.545197,0.00281661,0.0403007,706,1233,-23.646,-1.11283
-511,-209,-23.6323,1.07532,0.000959326,-0.000846361,-0.00120146,0.00155936,-0.00144639,-0.463183,0.00173578,0.0400864,713,1233,-23.6323,-1.07528
-504,-209,0,0,0,0,0,0,0,0,0,-1,720,1233,0,0
-497,-209,0,0,0,0,0,0,0,0,0,-1,727,1233,0,0
-490,-209,0,0,0,0,0,0,0,0,0,-1,734,1233,0,0
-483,-209,0,0,0,0,0,0,0,0,0,-1,741,1233,0,0
-476,-209,0,0,0,0,0,0,0,0,0,-1,748,1233,0,0
-469,-209,0,0,0,0,0,0,0,0,0,-1,755,1233,0,0
-462,-209,0,0,0,0,0,0,0,0,0,-1,762,1233,0,0
-455,-209,0,0,0,0,0,0,0,0,0,-1,769,1233,0,0
-448,-209,0,0,0,0,0,0,0,0,0,-1,776,1233,0,0
-441,-209,0,0,0,0,0,0,0,0,0,-1,783,1233,0,0
-434,-209,0,0,0,0,0,0,0,0,0,-1,790,1233,0,0
-427,-209,0,0,0,0,0,0,0,0,0,-1,797,1233,0,0
-420,-209,0,0,0,0,0,0,0,0,0,-1,804,1233,0,0
-413,-209,0,0,0,0,0,0,0,0,0,-1,811,1233,0,0
-406,-209,0,0,0,0,0,0,0,0,0,-1,818,1233,0,0
-399,-209,0,0,0,0,0,0,0,0,0,-1,825,1233,0,0
-392,-209,0,0,0,0,0,0,0,0,0,-1,832,1233,0,0
-385,-209,0,0,0,0,0,0,0,0,0,-1,839,1233,0,0
-378,-209,0,0,0,0,0,0,0,0,0,-1,846,1233,0,0
-371,-209,0,0,0,0,0,0,0,0,0,-1,853,1233,0,0
-364,-209,0,0,0,0,0,0,0,0,0,-1,860,1233,0,0
-357,-209,0,0,0,0,0,0,0,0,0,-1,867,1233,0,0
-350,-209,0,0,0,0,0,0,0,0,0,-1,874,1233,0,0
-343,-209,0,0,0,0,0,0,0,0,0,-1,881,1233,0,0
-336,-209,0,0,0,0,0,0,0,0,0,-1,888,1233,0,0
-329,-209,0,0,0,0,0,0,0,0,0,-1,895,1233,0,0
-322,-209,0,0,0,0,0,0,0,0,0,-1,902,1233,0,0
-315,-209,0,0,0,0,0,0,0,0,0,-1,909,1233,0,0
-308,-209,0,0,0,0,0,0,0,0,0,-1,916,1233,0,0
-301,-209,0,0,0,0,0,0,0,0,0,-1,923,1233,0,0
-294,-209,0,0,0,0,0,0,0,0,0,-1,930,1233,0,0
-287,-209,0,0,0,0,0,0,0,0,0,-1,937,1233,0,0
-280,-209,0,0,0,0,0,0,0,0,0,-1,944,1233,0,0
-273,-209,0,0,0,0,0,0,0,0,0,-1,951,1233,0,0
-266,-209,0,0,0,0,0,0,0,0,0,-1,958,1233,0,0
-259,-209,0,0,0,0,0,0,0,0,0,-1,965,1233,0,0
-252,-209,0,0,0,0,0,0,0,0,0,-1,972,1233,0,0
-245,-209,0,0,0,0,0,0,0,0,0,-1,979,1233,0,0
-238,-209,0,0,0,0,0,0,0,0,0,-1,986,1233,0,0
-231,-209,0,0,0,0,0,0,0,0,0,-1,993,1233,0,0
-224,-209,0,0,0,0,0,0,0,0,0,-1,1000,1233,0,0
-217,-209,0,0,0,0,0,0,0,0,0,-1,1007,1233,0,0
-210,-209,0,0,0,0,0,0,0,0,0,-1,1014,1233,0,0
-203,-209,0,0,0,0,0,0,0,0,0,-1,1021,1233,0,0
-196,-209,0,0,0,0,0,0,0,0,0,-1,1028,1233,0,0
-189,-209,0,0,0,0,0,0,0,0,0,-1,1035,1233,0,0
-182,-209,0,0,0,0,0,0,0,0,0,-1,1042,1233,0,0
-175,-209,0,0,0,0,0,0,0,0,0,-1,1049,1233,0,0
-168,-209,0,0,0,0,0,0,0,0,0,-1,1056,1233,0,0
-161,-209,0,0,0,0,0,0,0,0,0,-1,1063,1233,0,0
-154,-209,0,0,0,0,0,0,0,0,0,-1,1070,1233,0,0
-147,-209,0,0,0,0,0,0,0,0,0,-1,1077,1233,0,0
-140,-209,0,0,0,0,0,0,0,0,0,-1,1084,1233,0,0
-133,-209,0,0,0,0,0,0,0,0,0,-1,1091,1233,0,0
-126,-209,0,0,0,0,0,0,0,0,0,-1,1098,1233,0,0
-119,-209,0,0,0,0,0,0,0,0,0,-1,1105,1233,0,0
-112,-209,0,0,0,0,0,0,0,0,0,-1,1112,1233,0,0
-105,-209,0,0,0,0,0,0,0,0,0,-1,1119,1233,0,0
-98,-209,0,0,0,0,0,0,0,0,0,-1,1126,1233,0,0
-91,-209,0,0,0,0,0,0,0,0,0,-1,1133,1233,0,0
-84,-209,0,0,0,0,0,0,0,0,0,-1,1140,1233,0,0
-77,-209,0,0,0,0,0,0,0,0,0,-1,1147,1233,0,0
-70,-209,0,0,0,0,0,0,0,0,0,-1,1154,1233,0,0
-63,-209,0,0,0,0,0,0,0,0,0,-1,1161,1233,0,0
-56,-209,0,0,0,0,0,0,0,0,0,-1,1168,1233,0,0
-49,-209,0,0,0,0,0,0,0,0,0,-1,1175,1233,0,0
-42,-209,0,0,0,0,0,0,0,0,0,-1,1182,1233,0,0
-35,-209,0,0,0,0,0,0,0,0,0,-1,1189,1233,0,0
-28,-209,0,0,0,0,0,0,0,0,0,-1,1196,1233,0,0
-21,-209,0,0,0,0,0,0,0,0,0,-1,1203,1233,0,0
-14,-209,0,0,0,0,0,0,0,0,0,-1,1210,1233,0,0
-7,-209,0,0,0,0,0,0,0,0,0,-1,1217,1233,0,0
0,-209,0,0,0,0,0,0,0,0,0,-1,1224,1233,0,0
7,-209,0,0,0,0,0,0,0,0,0,-1,1231,1233,0,0
14,-209,0,0,0,0,0,0,0,0,0,-1,1238,1233,0,0
21,-209,0,0,0,0,0,0,0,0,0,-1,1245,1233,0,0
28,-209,0,0,0,0,0,0,0,0,0,-1,1252,1233,0,0
35,-209,0,0,0,0,0,0,0,0,0,-1,1259,1233,0,0
42,-209,0,0,0,0,0,0,0,0,0,-1,1266,1233,0,0
49,-209,0,0,0,0,0,0,0,0,0,-1,1273,1233,0,0
56,-209,0,0,0,0,0,0,0,0,0,-1,1280,1233,0,0
63,-209,0,0,0,0,0,0,0,0,0,-1,1287,1233,0,0
70,-209,0,0,0,0,0,0,0,0,0,-1,1294,1233,0,0
77,-209,0,0,0,0,0,0,0,0,0,-1,1301,1233,0,0
84,-209,0,0,0,0,0,0,0,0,0,-1,1308,1233,0,0
91,-209,0,0,0,0,0,0,0,0,0,-1,1315,1233,0,0
98,-209,0,0,0,0,0,0,0,0,0,-1,1322,1233,0,0
105,-209,0,0,0,0,0,0,0,0,0,-1,1329,1233,0,0
112,-209,0,0,0,0,0,0,0,0,0,-1,1336,1233,0,0
119,-209,0,0,0,0,0,0,0,0,0,-1,1343,1233,0,0
126,-209,0,0,0,0,0,0,0,0,0,-1,1350,1233,0,0
133,-209,0,0,0,0,0,0,0,0,0,-1,1357,1233,0,0
140,-209,0,0,0,0,0,0,0,0,0,-1,1364,1233,0,0
147,-209,0,0,0,0,0,0,0,0,0,-1,1371,1233,0,0
154,-209,0,0,0,0,0,0,0,0,0,-1,1378,1233,0,0
161,-209,0,0,0,0,0,0,0,0,0,-1,1385,1233,0,0
168,-209,0,0,0,0,0,0,0,0,0,-1,1392,1233,0,0
175,-209,0,0,0,0,0,0,0,0,0,-1,1399,1233,0,0
182,-209,0,0,0,0,0,0,0,0,0,-1,1406,1233,0,0
189,-209,0,0,0,0,0,0,0,0,0,-1,1413,1233,0,0
196,-209,0,0,0,0,0,0,0,0,0,-1,1420,1233,0,0
203,-209,0,0,0,0,0,0,0,0,0,-1,1427,1233,0,0
210,-209,0,0,0,0,0,0,0,0,0,-1,1434,1233,0,0
217,-209,0,0,0,0,0,0,0,0,0,-1,1441,1233,0,0
224,-209,0,0,0,0,0,0,0,0,0,-1,1448,1233,0,0
231,-209,0,0,0,0,0,0,0,0,0,-1,1455,1233,0,0
238,-209,0,0,0,0,0,0,0,0,0,-1,1462,1233,0,0
245,-209,0,0,0,0,0,0,0,0,0,-1,1469,1233,0,0
252,-209,0,0,0,0,0,0,0,0,0,-1,1476,1233,0,0
259,-209,0,0,0,0,0,0,0,0,0,-1,1483,1233,0,0
266,-209,0,0,0,0,0,0,0,0,0,-1,1490,1233,0,0
273,-209,0,0,0,0,0,0,0,0,0,-1,1497,1233,0,0
280,-209,0,0,0,0,0,0,0,0,0,-1,1504,1233,0,0
287,-209,0,0,0,0,0,0,0,0,0,-1,1511,1233,0,0
294,-209,0,0,0,0,0,0,0,0,0,-1,1518,1233,0,0
301,-209,0,0,0,0,0,0,0,0,0,-1,1525,1233,0,0
308,-209,0,0,0,0,0,0,0,0,0,-1,1532,1233,0,0
315,-209,0,0,0,0,0,0,0,0,0,-1,1539,1233,0,0
322,-209,0,0,0,0,0,0,0,0,0,-1,1546,1233,0,0
329,-209,0,0,0,0,0,0,0,0,0,-1,1553,1233,0,0
336,-209,0,0,0,0,0,0,0,0,0,-1,1560,1233,0,0
343,-209,0,0,0,0,0,0,0,0,0,-1,1567,1233,0,0
350,-209,0,0,0,0,0,0,0,0,0,-1,1574,1233,0,0
357,-209,0,0,0,0,0,0,0,0,0,-1,1581,1233,0,0
364,-209,0,0,0,0,0,0,0,0,0,-1,1588,1233,0,0
371,-209,0,0,0,0,0,0,0,0,0,-1,1595,1233,0,0
378,-209,0,0,0,0,0,0,0,0,0,-1,1602,1233,0,0
385,-209,0,0,0,0,0,0,0,0,0,-1,1609,1233,0,0
392,-209,0,0,0,0,0,0,0,0,0,-1,1616,1233,0,0
399,-209,0,0,0,0,0,0,0,0,0,-1,1623,1233,0,0
406,-209,0,0,0,0,0,0,0,0,0,-1,1630,1233,0,0
413,-209,0,0,0,0,0,0,0,0,0,-1,1637,1233,0,0
420,-209,0,0,0,0,0,0,0,0,0,-1,1644,1233,0,0
427,-209,0,0,0,0,0,0,0,0,0,-1,1651,1233,0,0
434,-209,0,0,0,0,0,0,0,0,0,-1,1658,1233,0,0
441,-209,0,0,0,0,0,0,0,0,0,-1,1665,1233,0,0
448,-209,0,0,0,0,0,0,0,0,0,-1,1672,1233,0,0
455,-209,0,0,0,0,0,0,0,0,0,-1,1679,1233,0,0
462,-209,0,0,0,0,0,0,0,0,0,-1,1686,1233,0,0
469,-209,0,0,0,0,0,0,0,0,0,-1,1693,1233,0,0
476,-209,0,0,0,0,0,0,0,0,0,-1,1700,1233,0,0
483,-209,0,0,0,0,0,0,0,0,0,-1,1707,1233,0,0
490,-209,0,0,0,0,0,0,0,0,0,-1,1714,1233,0,0
497,-209,0,0,0,0,0,0,0,0,0,-1,1721,1233,0,0
504,-209,0,0,0,0,0,0,0,0,0,-1,1728,1233,0,0
511,-209,0,0,0,0,0,0,0,0,0,-1,1735,1233,0,0
518,-209,0,0,0,0,0,0,0,0,0,-1,1742,1233,0,0
525,-209,0,0,0,0,0,0,0,0,0,-1,1749,1233,0,0
532,-209,0,0,0,0,0,0,0,0,0,-1,1756,1233,0,0
539,-209,0,0,0,0,0,0,0,0,0,-1,1763,1233,0,0
546,-209,0,0,0,0,0,0,0,0,0,-1,1770,1233,0,0
553,-209,0,0,0,0,0,0,0,0,0,-1,1777,1233,0,0
560,-209,0,0,0,0,0,0,0,0,0,-1,1784,1233,0,0
567,-209,0,0,0,0,0,0,0,0,0,-1,1791,1233,0,0
574,-209,0,0,0,0,0,0,0,0,0,-1,1798,1233,0,0
581,-209,0,0,0,0,0,0,0,0,0,-1,1805,1233,0,0
588,-209,0,0,0,0,0,0,0,0,0,-1,1812,1233,0,0
595,-209,0,0,0,0,0,0,0,0,0,-1,1819,1233,0,0
602,-209,0,0,0,0,0,0,0,0,0,-1,1826,1233,0,0
609,-209,0,0,0,0,0,0,0,0,0,-1,1833,1233,0,0
616,-209,0,0,0,0,0,0,0,0,0,-1,1840,1233,0,0
623,-209,33.4268,2.68994,0.0026156,0.000261797,0.00296931,0.00463274,-0.00175535,0.596718,0.00381084,0.0344999,1847,1233,33.4268,-2.68994
630,-209,33.4797,2.77014,0.00199937,0.000969371,0.00242127,0.0039598,-0.00099106,0.680611,0.00302483,0.0375544,1854,1233,33.4797,-2.77014
637,-209,33.5382,2.87561,0.00190558,0.00221448,0.00124958,0.00331912,0.000800941,0.846889,0.00199996,0.0375075,1861,1233,33.5383,-2.87565
644,-209,33.5605,2.88916,0.00214726,0.00373738,-0.000268,0.00378133,0.0021033,-1.40824,0.00218775,0.0305907,1868,1233,33.5606,-2.88914
651,-209,33.5133,2.84509,0.00266276,0.00479972,-0.00180404,0.00582795,0.00163453,-1.05276,0.0034712,0.0243004,1875,1233,33.5132,-2.84511
658,-209,33.5054,2.82019,0.00314182,0.0050689,-0.00277651,0.00704431,0.00116641,-0.952413,0.00435973,0.0215168,1882,1233,33.5054,-2.82024
665,-209,33.6215,2.77234,0.00334374,0.00495073,-0.00326836,0.00751292,0.000781559,-0.905928,0.00476948,0.0350213,1889,1233,33.6215,-2.77233
672,-209,33.6869,1.96936,0.00320139,0.00449592,-0.00336446,0.00727481,0.000422497,-0.880429,0.00471536,0.0475531,1896,1233,33.6869,-1.96931
679,-209,33.9595,1.56067,0,0,0,0,0,0,0,-1,1903,1233,33.9595,-1.56072
686,-209,33.3711,3.89856,0,0,0,0,0,0,0,-1,1910,1233,33.3711,-3.89855
693,-209,27.5339,7.4978,0,0,0,0,0,0,0,-1,1917,1233,27.5339,-7.49784
700,-209,27.6238,7.04688,0.00232336,0.00267131,-0.00280082,0.00530355,-0.000308891,-0.816416,0.00364303,0.0360341,1924,1233,27.6238,-7.04687
707,-209,27.7421,6.63599,0.00200059,0.00164732,-0.00224227,0.00407317,-0.000425266,-0.746092,0.00286774,0.028337,1931,1233,27.7421,-6.63596
714,-209,27.7797,6.36719,0.00120052,0.000983543,-0.00132598,0.00242244,-0.000238377,-0.74458,0.0017,0.0144166,1938,1233,27.7797,-6.36714
721,-209,27.7871,6.08057,0.000590138,0.000356508,0.000127403,0.000646173,0.000300472,0.414364,0.000373373,0.0128408,1945,1233,27.7871,-6.08053
728,-209,27.8016,5.8252,0.000359424,-0.000679915,0.00142849,0.00135983,-0.00168032,0.610945,0.00175848,0.0128331,1952,1233,27.8016,-5.82523
735,-209,27.7937,5.55396,0.000876546,0.000694681,0.00200598,0.00279365,-0.00122243,0.762748,0.0023771,0.0132573,1959,1233,27.7936,-5.55398
742,-209,27.7938,5.27991,0.00225006,0.00184741,0.00345332,0.00550792,-0.00141046,0.756282,0.00422139,0.0117319,1966,1233,27.7938,-5.27989
749,-209,27.7667,5.00745,0.00410283,0.00264828,0.0052555,0.00868114,-0.00193003,0.716643,0.00652659,0.0104197,1973,1233,27.7667,-5.0075
756,-209,27.7487,4.74084,0.00617465,0.00353127,0.0075968,0.0125639,-0.00285796,0.69927,0.00947338,0.0104867,1980,1233,27.7487,-4.7409
763,-209,27.7358,4.51648,0.00893895,0.00465526,0.0110343,0.0180374,-0.00444319,0.689537,0.0137475,0.0180246,1987,1233,27.7359,-4.5165
770,-209,28.0459,4.34717,0.0120763,0.00557068,0.0158434,0.0249974,-0.00735041,0.68415,0.0195805,0.0448688,1994,1233,28.0459,-4.34713
777,-209,28.4105,4.14014,0,0,0,0,0,0,0,-1,2001,1233,28.4105,-4.14018
784,-209,33.1157,1.27417,0.0177011,0.00531358,0.0307051,0.0428309,-0.0198162,0.685875,0.0369739,0.0426354,2008,1233,33.1157,-1.2742
791,-209,33.3862,2.44897,0.0199884,0.00376728,0.0407823,0.0534588,-0.0297031,0.687241,0.0486621,0.0396374,2015,1233,33.3862,-2.44901
798,-209,33.571,3.74683,0,0,0,0,0,0,0,-1,2022,1233,33.5712,-3.74686
805,-209,0,0,0,0,0,0,0,0,0,-1,2029,1233,0,0
812,-209,0,0,0,0,0,0,0,0,0,-1,2036,1233,0,0
-700,-216,0,0,0,0,0,0,0,0,0,-1,524,1240,0,0
-693,-216,0,0,0,0,0,0,0,0,0,-1,531,1240,0,0
-686,-216,0,0,0,0,0,0,0,0,0,-1,538,1240,0,0
-679,-216,-18.0161,-2.1073,0,0,0,0,0,0,0,-1,545,1240,-18.0161,2.10728
-672,-216,-18.8132,-2.58643,0.00851722,0.220078,-0.0145002,0.221068,0.00752801,-1.50268,0.144934,0.0491575,552,1240,-18.8132,2.58643
-665,-216,-18.4999,-3.02393,0.00902679,0.183598,-0.00540365,0.183765,0.00885968,-1.53988,0.119666,0.0479717,559,1240,-18.4999,3.0239
-658,-216,-18.313,-3.7688,0.00876234,0.149468,0.000822398,0.149473,0.00875754,1.56495,0.0968615,0.0496424,566,1240,-18.313,3.76875
-651,-216,-18.3746,-4.60718,0,0,0,0,0,0,0,-1,573,1240,-18.3746,4.60713
-644,-216,-16.9431,1.0188,0,0,0,0,0,0,0,-1,580,1240,-16.9431,-1.01878
-637,-216,-17.0662,1.3158,0,0,0,0,0,0,0,-1,587,1240,-17.0662,-1.31577
-630,-216,-17.1395,1.61414,0.00513465,0.0486925,0.00788218,0.050075,0.00375218,1.39717,0.0322056,0.0282637,594,1240,-17.1395,-1.6141
-623,-216,-17.1267,2.08752,0.00382063,0.0332648,0.00681917,0.0347674,0.00231802,1.35391,0.0224455,0.0125039,601,1240,-17.1267,-2.08758
-616,-216,-17.1671,2.43652,0.00254979,0.0186496,0.00651344,0.0209547,0.000244706,1.23065,0.013889,0.0136246,608,1240,-17.1671,-2.43649
-609,-216,-17.1832,2.74902,0.00182941,0.00629826,0.00503719,0.00957436,-0.00144669,0.994152,0.00691576,0.0134123,615,1240,-17.1832,-2.74902
-602,-216,-17.1838,3.04089,0.00125828,0.000723407,0.00283909,0.0038425,-0.00186081,0.738437,0.00335842,0.0136556,622,1240,-17.1838,-3.04094
-595,-216,-17.1591,3.3562,0.000532608,2.2074e-05,0.000599982,0.000929368,-0.000374687,0.584269,0.000775267,0.019021,629,1240,-17.1591,-3.35614
-588,-216,-17.1235,3.69714,0.000293605,-0.000590798,-0.000217938,0.000344393,-0.000641586,-0.228955,0.000577811,0.0204206,636,1240,-17.1235,-3.69709
-581,-216,-17.1219,4.05188,0.000705357,-0.00106712,-0.000449674,0.000812912,-0.00117467,-0.234774,0.00115385,0.0216084,643,1240,-17.1219,-4.05186
-574,-216,-17.1039,4.57764,0.00132673,-0.00150286,-0.000177284,0.0013378,-0.00151392,-0.0623289,0.00164749,0.035383,650,1240,-17.104,-4.57761
-567,-216,-17.3087,5.05627,0,0,0,0,0,0,0,-1,657,1240,-17.3087,-5.05633
-560,-216,-16.5087,5.4574,0,0,0,0,0,0,0,-1,664,1240,-16.5087,-5.45746
-553,-216,-16.2355,1.22351,0,0,0,0,0,0,0,-1,671,1240,-16.2356,-1.22356
-546,-216,-24.2183,1.4646,0,0,0,0,0,0,0,-1,678,1240,-24.2183,-1.46457
-539,-216,-23.8931,1.31848,0,0,0,0,0,0,0,-1,685,1240,-23.8931,-1.31847
-532,-216,-23.5934,1.2417,0,0,0,0,0,0,0,-1,692,1240,-23.5934,-1.24165
-525,-216,-23.5472,1.03674,0.00178604,-0.000693757,-0.00244629,0.00328871,-0.00219643,-0.550843,0.00318771,0.0413608,699,1240,-23.5472,-1.03679
-518,-216,-23.6091,1.04492,0.00100239,-0.000215621,-0.0031441,0.00359593,-0.00280916,-0.689734,0.00370726,0.0405832,706,1240,-23.6091,-1.04493
-511,-216,-23.5992,0.915894,-0.000140345,0.000154329,-0.00311014,0.00312062,-0.00310664,-0.809067,0.00359531,0.0414292,713,1240,-23.5992,-0.915919
-504,-216,-23.4973,0.831421,0.000808846,0.000889861,0.00112826,0.00197834,-0.000279637,0.803342,0.00142131,0.0415347,720,1240,-23.4973,-0.831405
-497,-216,0,0,0,0,0,0,0,0,0,-1,727,1240,0,0
-490,-216,0,0,0,0,0,0,0,0,0,-1,734,1240,0,0
-483,-216,0,0,0,0,0,0,0,0,0,-1,741,1240,0,0
-476,-216,0,0,0,0,0,0,0,0,0,-1,748,1240,0,0
-469,-216,0,0,0,0,0,0,0,0,0,-1,755,1240,0,0
-462,-216,0,0,0,0,0,0,0,0,0,-1,762,1240,0,0
-455,-216,0,0,0,0,0,0,0,0,0,-1,769,1240,0,0
-448,-216,0,0,0,0,0,0,0,0,0,-1,776,1240,0,0
-441,-216,0,0,0,0,0,0,0,0,0,-1,783,1240,0,0
-434,-216,0,0,0,0,0,0,0,0,0,-1,790,1240,0,0
-427,-216,0,0,0,0,0,0,0,0,0,-1,797,1240,0,0
-420,-216,0,0,0,0,0,0,0,0,0,-1,804,1240,0,0
-413,-216,0,0,0,0,0,0,0,0,0,-1,811,1240,0,0
-406,-216,0,0,0,0,0,0,0,0,0,-1,818,1240,0,0
-399,-216,0,0,0,0,0,0,0,0,0,-1,825,1240,0,0
-392,-216,0,0,0,0,0,0,0,0,0,-1,832,1240,0,0
-385,-216,0,0,0,0,0,0,0,0,0,-1,839,1240,0,0
-378,-216,0,0,0,0,0,0,0,0,0,-1,846,1240,0,0
-371,-216,0,0,0,0,0,0,0,0,0,-1,853,1240,0,0
-364,-216,0,0,0,0,0,0,0,0,0,-1,860,1240,0,0
-357,-216,0,0,0,0,0,0,0,0,0,-1,867,1240,0,0
-350,-216,0,0,0,0,0,0,0,0,0,-1,874,1240,0,0
-343,-216,0,0,0,0,0,0,0,0,0,-1,881,1240,0,0
-336,-216,0,0,0,0,0,0,0,0,0,-1,888,1240,0,0
-329,-216,0,0,0,0,0,0,0,0,0,-1,895,1240,0,0
-322,-216,0,0,0,0,0,0,0,0,0,-1,902,1240,0,0
-315,-216,0,0,0,0,0,0,0,0,0,-1,909,1240,0,0
-308,-216,0,0,0,0,0,0,0,0,0,-1,916,1240,0,0
-301,-216,0,0,0,0,0,0,0,0,0,-1,923,1240,0,0
-294,-216,0,0,0,0,0,0,0,0,0,-1,930,1240,0,0
-287,-216,0,0,0,0,0,0,0,0,0,-1,937,1240,0,0
-280,-216,0,0,0,0,0,0,0,0,0,-1,944,1240,0,0
-273,-216,0,0,0,0,0,0,0,0,0,-1,951,1240,0,0
-266,-216,0,0,0,0,0,0,0,0,0,-1,958,1240,0,0
-259,-216,0,0,0,0,0,0,0,0,0,-1,965,1240,0,0
-252,-216,0,0,0,0,0,0,0,0,0,-1,972,1240,0,0
-245,-216,0,0,0,0,0,0,0,0,0,-1,979,1240,0,0
-238,-216,0,0,0,0,0,0,0,0,0,-1,986,1240,0,0
-231,-216,0,0,0,0,0,0,0,0,0,-1,993,1240,0,0
-224,-216,0,0,0,0,0,0,0,0,0,-1,1000,1240,0,0
-217,-216,0,0,0,0,0,0,0,0,0,-1,1007,1240,0,0
-210,-216,0,0,0,0,0,0,0,0,0,-1,1014,1240,0,0
-203,-216,0,0,0,0,0,0,0,0,0,-1,1021,1240,0,0
-196,-216,0,0,0,0,0,0,0,0,0,-1,1028,1240,0,0
-189,-216,0,0,0,0,0,0,0,0,0,-1,1035,1240,0,0
-182,-216,0,0,0,0,0,0,0,0,0,-1,1042,1240,0,0
-175,-216,0,0,0,0,0,0,0,0,0,-1,1049,1240,0,0
-168,-216,0,0,0,0,0,0,0,0,0,-1,1056,1240,0,0
-161,-216,0,0,0,0,0,0,0,0,0,-1,1063,1240,0,0
-154,-216,0,0,0,0,0,0,0,0,0,-1,1070,1240,0,0
-147,-216,0,0,0,0,0,0,0,0,0,-1,1077,1240,0,0
-140,-216,0,0,0,0,0,0,0,0,0,-1,1084,1240,0,0
-133,-216,0,0,0,0,0,0,0,0,0,-1,1091,1240,0,0
-126,-216,0,0,0,0,0,0,0,0,0,-1,1098,1240,0,0
-119,-216,0,0,0,0,0,0,0,0,0,-1,1105,1240,0,0
-112,-216,0,0,0,0,0,0,0,0,0,-1,1112,1240,0,0
-105,-216,0,0,0,0,0,0,0,0,0,-1,1119,1240,0,0
-98,-216,0,0,0,0,0,0,0,0,0,-1,1126,1240,0,0
-91,-216,0,0,0,0,0,0,0,0,0,-1,1133,1240,0,0
-84,-216,0,0,0,0,0,0,0,0,0,-1,1140,1240,0,0
-77,-216,0,0,0,0,0,0,0,0,0,-1,1147,1240,0,0
-70,-216,0,0,0,0,0,0,0,0,0,-1,1154,1240,0,0
-63,-216,0,0,0,0,0,0,0,0,0,-1,1161,1240,0,0
-56,-216,0,0,0,0,0,0,0,0,0,-1,1168,1240,0,0
-49,-216,0,0,0,0,0,0,0,0,0,-1,1175,1240,0,0
-42,-216,0,0,0,0,0,0,0,0,0,-1,1182,1240,0,0
-35,-216,0,0,0,0,0,0,0,0,0,-1,1189,1240,0,0
-28,-216,0,0,0,0,0,0,0,0,0,-1,1196,1240,0,0
-21,-216,0,0,0,0,0,0,0,0,0,-1,1203,1240,0,0
-14,-216,0,0,0,0,0,0,0,0,0,-1,1210,1240,0,0
-7,-216,0,0,0,0,0,0,0,0,0,-1,1217,1240,0,0
0,-216,0,0,0,0,0,0,0,0,0,-1,1224,1240,0,0
7,-216,0,0,0,0,0,0,0,0,0,-1,1231,1240,0,0
14,-216,0,0,0,0,0,0,0,0,0,-1,1238,1240,0,0
21,-216,0,0,0,0,0,0,0,0,0,-1,1245,1240,0,0
28,-216,0,0,0,0,0,0,0,0,0,-1,1252,1240,0,0
35,-216,0,0,0,0,0,0,0,0,0,-1,1259,1240,0,0
42,-216,0,0,0,0,0,0,0,0,0,-1,1266,1240,0,0
49,-216,0,0,0,0,0,0,0,0,0,-1,1273,1240,0,0
56,-216,0,0,0,0,0,0,0,0,0,-1,1280,1240,0,0
63,-216,0,0,0,0,0,0,0,0,0,-1,1287,1240,0,0
70,-216,0,0,0,0,0,0,0,0,0,-1,1294,1240,0,0
77,-216,0,0,0,0,0,0,0,0,0,-1,1301,1240,0,0
84,-216,0,0,0,0,0,0,0,0,0,-1,1308,1240,0,0
91,-216,0,0,0,0,0,0,0,0,0,-1,1315,1240,0,0
98,-216,0,0,0,0,0,0,0,0,0,-1,1322,1240,0,0
105,-216,0,0,0,0,0,0,0,0,0,-1,1329,1240,0,0
112,-216,0,0,0,0,0,0,0,0,0,-1,1336,1240,0,0
119,-216,0,0,0,0,0,0,0,0,0,-1,1343,1240,0,0
126,-216,0,0,0,0,0,0,0,0,0,-1,1350,1240,0,0
133,-216,0,0,0,0,0,0,0,0,0,-1,1357,1240,0,0
140,-216,0,0,0,0,0,0,0,0,0,-1,1364,1240,0,0
147,-216,0,0,0,0,0,0,0,0,0,-1,1371,1240,0,0
154,-216,0,0,0,0,0,0,0,0,0,-1,1378,1240,0,0
161,-216,0,0,0,0,0,0,0,0,0,-1,1385,1240,0,0
168,-216,0,0,0,0,0,0,0,0,0,-1,1392,1240,0,0
175,-216,0,0,0,0,0,0,0,0,0,-1,1399,1240,0,0
182,-216,0,0,0,0,0,0,0,0,0,-1,1406,1240,0,0
189,-216,0,0,0,0,0,0,0,0,0,-1,1413,1240,0,0
196,-216,0,0,0,0,0,0,0,0,0,-1,1420,1240,0,0
203,-216,0,0,0,0,0,0,0,0,0,-1,1427,1240,0,0
210,-216,0,0,0,0,0,0,0,0,0,-1,1434,1240,0,0
217,-216,0,0,0,0,0,0,0,0,0,-1,1441,1240,0,0
224,-216,0,0,0,0,0,0,0,0,0,-1,1448,1240,0,0
231,-216,0,0,0,0,0,0,0,0,0,-1,1455,1240,0,0
238,-216,0,0,0,0,0,0,0,0,0,-1,1462,1240,0,0
245,-216,0,0,0,0,0,0,0,0,0,-1,1469,1240,0,0
252,-216,0,0,0,0,0,0,0,0,0,-1,1476,1240,0,0
259,-216,0,0,0,0,0,0,0,0,0,-1,1483,1240,0,0
266,-216,0,0,0,0,0,0,0,0,0,-1,1490,1240,0,0
273,-216,0,0,0,0,0,0,0,0,0,-1,1497,1240,0,0
280,-216,0,0,0,0,0,0,0,0,0,-1,1504,1240,0,0
287,-216,0,0,0,0,0,0,0,0,0,-1,1511,1240,0,0
294,-216,0,0,0,0,0,0,0,0,0,-1,1518,1240,0,0
301,-216,0,0,0,0,0,0,0,0,0,-1,1525,1240,0,0
308,-216,0,0,0,0,0,0,0,0,0,-1,1532,1240,0,0
315,-216,0,0,0,0,0,0,0,0,0,-1,1539,1240,0,0
322,-216,0,0,0,0,0,0,0,0,0,-1,1546,1240,0,0
329,-216,0,0,0,0,0,0,0,0,0,-1,1553,1240,0,0
336,-216,0,0,0,0,0,0,0,0,0,-1,1560,1240,0,0
343,-216,0,0,0,0,0,0,0,0,0,-1,1567,1240,0,0
350,-216,0,0,0,0,0,0,0,0,0,-1,1574,1240,0,0
357,-216,0,0,0,0,0,0,0,0,0,-1,1581,1240,0,0
364,-216,0,0,0,0,0,0,0,0,0,-1,1588,1240,0,0
371,-216,0,0,0,0,0,0,0,0,0,-1,1595,1240,0,0
378,-216,0,0,0,0,0,0,0,0,0,-1,1602,1240,0,0
385,-216,0,0,0,0,0,0,0,0,0,-1,1609,1240,0,0
392,-216,0,0,0,0,0,0,0,0,0,-1,1616,1240,0,0
399,-216,0,0,0,0,0,0,0,0,0,-1,1623,1240,0,0
406,-216,0,0,0,0,0,0,0,0,0,-1,1630,1240,0,0
413,-216,0,0,0,0,0,0,0,0,0,-1,1637,1240,0,0
420,-216,0,0,0,0,0,0,0,0,0,-1,1644,1240,0,0
427,-216,0,0,0,0,0,0,0,0,0,-1,1651,1240,0,0
434,-216,0,0,0,0,0,0,0,0,0,-1,1658,1240,0,0
441,-216,0,0,0,0,0,0,0,0,0,-1,1665,1240,0,0
448,-216,0,0,0,0,0,0,0,0,0,-1,1672,1240,0,0
455,-216,0,0,0,0,0,0,0,0,0,-1,1679,1240,0,0
462,-216,0,0,0,0,0,0,0,0,0,-1,1686,1240,0,0
469,-216,0,0,0,0,0,0,0,0,0,-1,1693,1240,0,0
476,-216,0,0,0,0,0,0,0,0,0,-1,1700,1240,0,0
483,-216,0,0,0,0,0,0,0,0,0,-1,1707,1240,0,0
490,-216,0,0,0,0,0,0,0,0,0,-1,1714,1240,0,0
497,-216,0,0,0,0,0,0,0,0,0,-1,1721,1240,0,0
504,-216,0,0,0,0,0,0,0,0,0,-1,1728,1240,0,0
511,-216,0,0,0,0,0,0,0,0,0,-1,1735,1240,0,0
518,-216,0,0,0,0,0,0,0,0,0,-1,1742,1240,0,0
525,-216,0,0,0,0,0,0,0,0,0,-1,1749,1240,0,0
532,-216,0,0,0,0,0,0,0,0,0,-1,1756,1240,0,0
539,-216,0,0,0,0,0,0,0,0,0,-1,1763,1240,0,0
546,-216,0,0,0,0,0,0,0,0,0,-1,1770,1240,0,0
553,-216,0,0,0,0,0,0,0,0,0,-1,1777,1240,0,0
560,-216,0,0,0,0,0,0,0,0,0,-1,1784,1240,0,0
567,-216,0,0,0,0,0,0,0,0,0,-1,1791,1240,0,0
574,-216,0,0,0,0,0,0,0,0,0,-1,1798,1240,0,0
581,-216,0,0,0,0,0,0,0,0,0,-1,1805,1240,0,0
588,-216,0,0,0,0,0,0,0,0,0,-1,1812,1240,0,0
595,-216,0,0,0,0,0,0,0,0,0,-1,1819,1240,0,0
602,-216,0,0,0,0,0,0,0,0,0,-1,1826,1240,0,0
609,-216,0,0,0,0,0,0,0,0,0,-1,1833,1240,0,0
616,-216,0,0,0,0,0,0,0,0,0,-1,1840,1240,0,0
623,-216,33.3597,2.77637,0.00216263,0.00135718,0.00142954,0.00324508,0.000274721,0.648099,0.00207788,0.0392475,1847,1240,33.3598,-2.77639
630,-216,33.4406,2.8363,0.00174198,0.00225203,0.00212233,0.0041346,-0.000140593,0.845193,0.00280444,0.0387554,1854,1240,33.4406,-2.83634
637,-216,33.5123,2.88977,0.00173845,0.00365238,0.00205112,0.00495879,0.000432038,1.00367,0.00317167,0.0348083,1861,1240,33.5123,-2.88978
644,-216,33.4951,2.85864,0.00202546,0.00500169,0.00125015,0.00545712,0.00157003,1.22144,0.00324395,0.0258457,1868,1240,33.4951,-2.85861
651,-216,33.5173,2.81104,0.00253817,0.00571304,4.36548e-06,0.00571304,0.00253816,1.56942,0.00330525,0.0223357,1875,1240,33.5173,-2.81102
658,-216,33.5452,2.88879,0.00297194,0.00570649,-0.000939376,0.00599809,0.00268034,-1.26981,0.00346951,0.0348625,1882,1240,33.5452,-2.88875
665,-216,33.778,2.7959,0.00312712,0.00540643,-0.00154789,0.00618896,0.00234459,-1.10272,0.003608,0.0470771,1889,1240,33.778,-2.79589
672,-216,33.6252,1.42712,0.00301575,0.00488701,-0.00186689,0.0060396,0.00186315,-1.01769,0.00357121,0.0448912,1896,1240,33.6253,-1.42709
679,-216,34.1827,0.948608,0,0,0,0,0,0,0,-1,1903,1240,34.1828,-0.94862
686,-216,21.5172,6.19458,0,0,0,0,0,0,0,-1,1910,1240,21.5172,-6.19453
693,-216,27.4917,7.32153,0,0,0,0,0,0,0,-1,1917,1240,27.4917,-7.32148
700,-216,27.4274,7.0531,0.00243405,0.00307529,-0.0026487,0.00542271,8.66316e-05,-0.845629,0.00358661,0.0332202,1924,1240,27.4274,-7.05311
707,-216,27.4883,6.68567,0.00212935,0.00183969,-0.00224746,0.00423664,-0.000267603,-0.753223,0.00291772,0.0237349,1931,1240,27.4882,-6.68563
714,-216,27.5275,6.3783,0.00133856,0.0011188,-0.0013932,0.0026262,-0.00016885,-0.746045,0.00180971,0.0132044,1938,1240,27.5275,-6.37835
721,-216,27.522,6.1012,0.000810063,0.000497071,8.57869e-05,0.000832034,0.0004751,0.25072,0.000481987,0.0130471,1945,1240,27.522,-6.10121
728,-216,27.5393,5.82385,0.000660303,-0.000420104,0.00131363,0.00154047,-0.00130027,0.590324,0.00164205,0.0119186,1952,1240,27.5393,-5.82389
735,-216,27.5428,5.55872,0.00122386,0.0010784,0.00187316,0.0030257,-0.000723437,0.765994,0.00229658,0.0117941,1959,1240,27.5429,-5.55874
742,-216,27.5012,5.29968,0.00255189,0.00234716,0.00334908,0.00580017,-0.000901114,0.77012,0.0041995,0.0126167,1966,1240,27.5013,-5.29968
749,-216,27.4666,5.01331,0.00442798,0.00344663,0.00513835,0.00909903,-0.00122442,0.737796,0.00651264,0.0103656,1973,1240,27.4665,-5.01327
756,-216,27.437,4.7301,0.00665117,0.00484075,0.00752493,0.0133251,-0.00183322,0.725538,0.00955331,0.0108649,1980,1240,27.437,-4.73006
763,-216,27.4316,4.49353,0.00964758,0.00669454,0.0111217,0.0193903,-0.00304821,0.719404,0.0140536,0.0166598,1987,1240,27.4316,-4.49348
770,-216,27.6702,4.33289,0.0130881,0.00872846,0.0162867,0.0273402,-0.00552366,0.718873,0.0203199,0.0384676,1994,1240,27.6701,-4.33295
777,-216,27.9615,4.16809,0,0,0,0,0,0,0,-1,2001,1240,27.9616,-4.16811
784,-216,34.2477,0.234985,0.0194201,0.0122424,0.0329072,0.0489336,-0.0172711,0.731083,0.0396536,0.0467858,2008,1240,34.2477,-0.234953
791,-216,33.7146,2.08618,0.0219427,0.0135959,0.0445249,0.0624893,-0.0269508,0.738669,0.0529796,0.0434253,2015,1240,33.7147,-2.08616
798,-216,0,0,0,0,0,0,0,0,0,-1,2022,1240,0,0
805,-216,0,0,0,0,0,0,0,0,0,-1,2029,1240,0,0
812,-216,0,0,0,0,0,0,0,0,0,-1,2036,1240,0,0
-700,-223,0,0,0,0,0,0,0,0,0,-1,524,1247,0,0
-693,-223,0,0,0,0,0,0,0,0,0,-1,531,1247,0,0
-686,-223,0,0,0,0,0,0,0,0,0,-1,538,1247,0,0
-679,-223,0,0,0,0,0,0,0,0,0,-1,545,1247,0,0
-672,-223,-18.6293,-4.96985,0.0048839,0.246063,-0.0137657,0.246847,0.00410074,-1.51397,0.163215,0.0469789,552,1247,-18.6293,4.96991
-665,-223,-18.6064,-5.65613,0.00667788,0.202462,-0.0025725,0.202496,0.00664409,-1.55766,0.132838,0.0457362,559,1247,-18.6064,5.65613
-658,-223,-18.7298,-6.79553,0.00738451,0.162979,0.00481941,0.163128,0.00723537,1.53986,0.106422,0.0472318,566,1247,-18.7298,6.79556
-651,-223,-18.8353,-7.65417,0,0,0,0,0,0,0,-1,573,1247,-18.8352,7.65417
-644,-223,-16.9489,0.765503,0,0,0,0,0,0,0,-1,580,1247,-16.9489,-0.765541
-637,-223,-16.8862,1.21606,0,0,0,0,0,0,0,-1,587,1247,-16.8862,-1.21612
-630,-223,-16.8229,1.64258,0.00566995,0.0520652,0.0115716,0.0547912,0.00294401,1.33944,0.0355867,0.0407529,594,1247,-16.8229,-1.64257
-623,-223,-16.8347,2.07507,0.00456156,0.0357398,0.00993717,0.0386376,0.00166371,1.28705,0.0252221,0.0216367,601,1247,-16.8347,-2.07508
-616,-223,-16.8518,2.4303,0.00348253,0.0201857,0.00919865,0.0242584,-0.000590233,1.15398,0.0163726,0.0157494,608,1247,-16.8518,-2.43026
-609,-223,-16.8482,2.73645,0.00294098,0.00720925,0.00725369,0.0126362,-0.00248601,0.928468,0.00936349,0.0116509,615,1247,-16.8482,-2.73644
-602,-223,-16.8591,3.02563,0.0023727,0.00101458,0.00451972,0.00626408,-0.00287681,0.710834,0.00539692,0.0142751,622,1247,-16.8591,-3.02569
-595,-223,-16.8324,3.38232,0.00158915,0.000254931,0.00162982,0.00268311,-0.000839026,0.591143,0.00212438,0.0211272,629,1247,-16.8324,-3.38236
-588,-223,-16.8207,3.7356,0.00133518,-0.000289893,0.000455307,0.00145405,-0.000408765,0.255378,0.00113053,0.0226752,636,1247,-16.8207,-3.73559
-581,-223,-16.8806,4.04553,0.00178885,-0.000680287,0.000257129,0.00181534,-0.00070678,0.10267,0.0015023,0.0197267,643,1247,-16.8806,-4.04552
-574,-223,-16.8484,4.39722,0.00241864,-0.00103718,0.000590753,0.00251684,-0.00113538,0.164715,0.00215831,0.0189451,650,1247,-16.8485,-4.39719
-567,-223,-16.5758,4.92151,0.00291987,-0.00139072,0.00040964,0.00295846,-0.0014293,0.0939109,0.00258404,0.0325872,657,1247,-16.5758,-4.92156
-560,-223,-16.3915,5.47083,0,0,0,0,0,0,0,-1,664,1247,-16.3915,-5.47077
-553,-223,-11.4025,4.14722,0,0,0,0,0,0,0,-1,671,1247,-11.4025,-4.14719
-546,-223,-22.487,0.0671387,0,0,0,0,0,0,0,-1,678,1247,-22.487,-0.0671366
-539,-223,-23.9063,1.41016,0,0,0,0,0,0,0,-1,685,1247,-23.9063,-1.41022
-532,-223,-23.5433,1.28284,0,0,0,0,0,0,0,-1,692,1247,-23.5434,-1.28285
-525,-223,-23.4827,0.928467,0,0,0,0,0,0,0,-1,699,1247,-23.4827,-0.928519
-518,-223,-23.5641,0.975586,0.00127301,0.00123351,-0.00411729,0.0053706,-0.00286408,-0.783,0.00482715,0.0465231,706,1247,-23.5641,-0.975557
-511,-223,-23.5647,0.936523,-0.000427905,0.00187,-0.00508509,0.00593432,-0.00449223,-0.896505,0.00603893,0.0387946,713,1247,-23.5647,-0.936558
-504,-223,-23.6135,1.04224,-0.00105247,0.00276231,-0.00273199,0.00418687,-0.00247704,-1.09015,0.00388939,0.0393322,720,1247,-23.6135,-1.04225
-497,-223,0,0,0,0,0,0,0,0,0,-1,727,1247,0,0
-490,-223,0,0,0,0,0,0,0,0,0,-1,734,1247,0,0
-483,-223,0,0,0,0,0,0,0,0,0,-1,741,1247,0,0
-476,-223,0,0,0,0,0,0,0,0,0,-1,748,1247,0,0
-469,-223,0,0,0,0,0,0,0,0,0,-1,755,1247,0,0
-462,-223,0,0,0,0,0,0,0,0,0,-1,762,1247,0,0
-455,-223,0,0,0,0,0,0,0,0,0,-1,769,1247,0,0
-448,-223,0,0,0,0,0,0,0,0,0,-1,776,1247,0,0
-441,-223,0,0,0,0,0,0,0,0,0,-1,783,1247,0,0
-434,-223,0,0,0,0,0,0,0,0,0,-1,790,1247,0,0
-427,-223,0,0,0,0,0,0,0,0,0,-1,797,1247,0,0
-420,-223,0,0,0,0,0,0,0,0,0,-1,804,1247,0,0
-413,-223,0,0,0,0,0,0,0,0,0,-1,811,1247,0,0
-406,-223,0,0,0,0,0,0,0,0,0,-1,818,1247,0,0
-399,-223,0,0,0,0,0,0,0,0,0,-1,825,1247,0,0
-392,-223,0,0,0,0,0,0,0,0,0,-1,832,1247,0,0
-385,-223,0,0,0,0,0,0,0,0,0,-1,839,1247,0,0
-378,-223,0,0,0,0,0,0,0,0,0,-1,846,1247,0,0
-371,-223,0,0,0,0,0,0,0,0,0,-1,853,1247,0,0
-364,-223,0,0,0,0,0,0,0,0,0,-1,860,1247,0,0
-357,-223,0,0,0,0,0,0,0,0,0,-1,867,1247,0,0
-350,-223,0,0,0,0,0,0,0,0,0,-1,874,1247,0,0
-343,-223,0,0,0,0,0,0,0,0,0,-1,881,1247,0,0
-336,-223,0,0,0,0,0,0,0,0,0,-1,888,1247,0,0
-329,-223,0,0,0,0,0,0,0,0,0,-1,895,1247,0,0
-322,-223,0,0,0,0,0,0,0,0,0,-1,902,1247,0,0
-315,-223,0,0,0,0,0,0,0,0,0,-1,909,1247,0,0
-308,-223,0,0,0,0,0,0,0,0,0,-1,916,1247,0,0
-301,-223,0,0,0,0,0,0,0,0,0,-1,923,1247,0,0
-294,-223,0,0,0,0,0,0,0,0,0,-1,930,1247,0,0
-287,-223,0,0,0,0,0,0,0,0,0,-1,937,1247,0,0
-280,-223,0,0,0,0,0,0,0,0,0,-1,944,1247,0,0
-273,-223,0,0,0,0,0,0,0,0,0,-1,951,1247,0,0
-266,-223,0,0,0,0,0,0,0,0,0,-1,958,1247,0,0
-259,-223,0,0,0,0,0,0,0,0,0,-1,965,1247,0,0
-252,-223,0,0,0,0,0,0,0,0,0,-1,972,1247,0,0
-245,-223,0,0,0,0,0,0,0,0,0,-1,979,1247,0,0
-238,-223,0,0,0,0,0,0,0,0,0,-1,986,1247,0,0
-231,-223,0,0,0,0,0,0,0,0,0,-1,993,1247,0,0
-224,-223,0,0,0,0,0,0,0,0,0,-1,1000,1247,0,0
-217,-223,0,0,0,0,0,0,0,0,0,-1,1007,1247,0,0
-210,-223,0,0,0,0,0,0,0,0,0,-1,1014,1247,0,0
-203,-223,0,0,0,0,0,0,0,0,0,-1,1021,1247,0,0
-196,-223,0,0,0,0,0,0,0,0,0,-1,1028,1247,0,0
-189,-223,0,0,0,0,0,0,0,0,0,-1,1035,1247,0,0
-182,-223,0,0,0,0,0,0,0,0,0,-1,1042,1247,0,0
-175,-223,0,0,0,0,0,0,0,0,0,-1,1049,1247,0,0
-168,-223,0,0,0,0,0,0,0,0,0,-1,1056,1247,0,0
-161,-223,0,0,0,0,0,0,0,0,0,-1,1063,1247,0,0
-154,-223,0,0,0,0,0,0,0,0,0,-1,1070,1247,0,0
-147,-223,0,0,0,0,0,0,0,0,0,-1,1077,1247,0,0
-140,-223,0,0,0,0,0,0,0,0,0,-1,1084,1247,0,0
-133,-223,0,0,0,0,0,0,0,0,0,-1,1091,1247,0,0
-126,-223,0,0,0,0,0,0,0,0,0,-1,1098,1247,0,0
-119,-223,0,0,0,0,0,0,0,0,0,-1,1105,1247,0,0
-112,-223,0,0,0,0,0,0,0,0,0,-1,1112,1247,0,0
-105,-223,0,0,0,0,0,0,0,0,0,-1,1119,1247,0,0
-98,-223,0,0,0,0,0,0,0,0,0,-1,1126,1247,0,0
-91,-223,0,0,0,0,0,0,0,0,0,-1,1133,1247,0,0
-84,-223,0,0,0,0,0,0,0,0,0,-1,1140,1247,0,0
-77,-223,0,0,0,0,0,0,0,0,0,-1,1147,1247,0,0
-70,-223,0,0,0,0,0,0,0,0,0,-1,1154,1247,0,0
-63,-223,0,0,0,0,0,0,0,0,0,-1,1161,1247,0,0
-56,-223,0,0,0,0,0,0,0,0,0,-1,1168,1247,0,0
-49,-223,0,0,0,0,0,0,0,0,0,-1,1175,1247,0,0
-42,-223,0,0,0,0,0,0,0,0,0,-1,1182,1247,0,0
-35,-223,0,0,0,0,0,0,0,0,0,-1,1189,1247,0,0
-28,-223,0,0,0,0,0,0,0,0,0,-1,1196,1247,0,0
-21,-223,0,0,0,0,0,0,0,0,0,-1,1203,1247,0,0
-14,-223,0,0,0,0,0,0,0,0,0,-1,1210,1247,0,0
-7,-223,0,0,0,0,0,0,0,0,0,-1,1217,1247,0,0
0,-223,0,0,0,0,0,0,0,0,0,-1,1224,1247,0,0
7,-223,0,0,0,0,0,0,0,0,0,-1,1231,1247,0,0
14,-223,0,0,0,0,0,0,0,0,0,-1,1238,1247,0,0
21,-223,0,0,0,0,0,0,0,0,0,-1,1245,1247,0,0
28,-223,0,0,0,0,0,0,0,0,0,-1,1252,1247,0,0
35,-223,0,0,0,0,0,0,0,0,0,-1,1259,1247,0,0
42,-223,0,0,0,0,0,0,0,0,0,-1,1266,1247,0,0
49,-223,0,0,0,0,0,0,0,0,0,-1,1273,1247,0,0
56,-223,0,0,0,0,0,0,0,0,0,-1,1280,1247,0,0
63,-223,0,0,0,0,0,0,0,0,0,-1,1287,1247,0,0
70,-223,0,0,0,0,0,0,0,0,0,-1,1294,1247,0,0
77,-223,0,0,0,0,0,0,0,0,0,-1,1301,1247,0,0
84,-223,0,0,0,0,0,0,0,0,0,-1,1308,1247,0,0
91,-223,0,0,0,0,0,0,0,0,0,-1,1315,1247,0,0
98,-223,0,0,0,0,0,0,0,0,0,-1,1322,1247,0,0
105,-223,0,0,0,0,0,0,0,0,0,-1,1329,1247,0,0
112,-223,0,0,0,0,0,0,0,0,0,-1,1336,1247,0,0
119,-223,0,0,0,0,0,0,0,0,0,-1,1343,1247,0,0
126,-223,0,0,0,0,0,0,0,0,0,-1,1350,1247,0,0
133,-223,0,0,0,0,0,0,0,0,0,-1,1357,1247,0,0
140,-223,0,0,0,0,0,0,0,0,0,-1,1364,1247,0,0
147,-223,0,0,0,0,0,0,0,0,0,-1,1371,1247,0,0
154,-223,0,0,0,0,0,0,0,0,0,-1,1378,1247,0,0
161,-223,0,0,0,0,0,0,0,0,0,-1,1385,1247,0,0
168,-223,0,0,0,0,0,0,0,0,0,-1,1392,1247,0,0
175,-223,0,0,0,0,0,0,0,0,0,-1,1399,1247,0,0
182,-223,0,0,0,0,0,0,0,0,0,-1,1406,1247,0,0
189,-223,0,0,0,0,0,0,0,0,0,-1,1413,1247,0,0
196,-223,0,0,0,0,0,0,0,0,0,-1,1420,1247,0,0
203,-223,0,0,0,0,0,0,0,0,0,-1,1427,1247,0,0
210,-223,0,0,0,0,0,0,0,0,0,-1,1434,1247,0,0
217,-223,0,0,0,0,0,0,0,0,0,-1,1441,1247,0,0
224,-223,0,0,0,0,0,0,0,0,0,-1,1448,1247,0,0
231,-223,0,0,0,0,0,0,0,0,0,-1,1455,1247,0,0
238,-223,0,0,0,0,0,0,0,0,0,-1,1462,1247,0,0
245,-223,0,0,0,0,0,0,0,0,0,-1,1469,1247,0,0
252,-223,0,0,0,0,0,0,0,0,0,-1,1476,1247,0,0
259,-223,0,0,0,0,0,0,0,0,0,-1,1483,1247,0,0
266,-223,0,0,0,0,0,0,0,0,0,-1,1490,1247,0,0
273,-223,0,0,0,0,0,0,0,0,0,-1,1497,1247,0,0
280,-223,0,0,0,0,0,0,0,0,0,-1,1504,1247,0,0
287,-223,0,0,0,0,0,0,0,0,0,-1,1511,1247,0,0
294,-223,0,0,0,0,0,0,0,0,0,-1,1518,1247,0,0
301,-223,0,0,0,0,0,0,0,0,0,-1,1525,1247,0,0
308,-223,0,0,0,0,0,0,0,0,0,-1,1532,1247,0,0
315,-223,0,0,0,0,0,0,0,0,0,-1,1539,1247,0,0
322,-223,0,0,0,0,0,0,0,0,0,-1,1546,1247,0,0
329,-223,0,0,0,0,0,0,0,0,0,-1,1553,1247,0,0
336,-223,0,0,0,0,0,0,0,0,0,-1,1560,1247,0,0
343,-223,0,0,0,0,0,0,0,0,0,-1,1567,1247,0,0
350,-223,0,0,0,0,0,0,0,0,0,-1,1574,1247,0,0
357,-223,0,0,0,0,0,0,0,0,0,-1,1581,1247,0,0
364,-223,0,0,0,0,0,0,0,0,0,-1,1588,1247,0,0
371,-223,0,0,0,0,0,0,0,0,0,-1,1595,1247,0,0
378,-223,0,0,0,0,0,0,0,0,0,-1,1602,1247,0,0
385,-223,0,0,0,0,0,0,0,0,0,-1,1609,1247,0,0
392,-223,0,0,0,0,0,0,0,0,0,-1,1616,1247,0,0
399,-223,0,0,0,0,0,0,0,0,0,-1,1623,1247,0,0
406,-223,0,0,0,0,0,0,0,0,0,-1,1630,1247,0,0
413,-223,0,0,0,0,0,0,0,0,0,-1,1637,1247,0,0
420,-223,0,0,0,0,0,0,0,0,0,-1,1644,1247,0,0
427,-223,0,0,0,0,0,0,0,0,0,-1,1651,1247,0,0
434,-223,0,0,0,0,0,0,0,0,0,-1,1658,1247,0,0
441,-223,0,0,0,0,0,0,0,0,0,-1,1665,1247,0,0
448,-223,0,0,0,0,0,0,0,0,0,-1,1672,1247,0,0
455,-223,0,0,0,0,0,0,0,0,0,-1,1679,1247,0,0
462,-223,0,0,0,0,0,0,0,0,0,-1,1686,1247,0,0
469,-223,0,0,0,0,0,0,0,0,0,-1,1693,1247,0,0
476,-223,0,0,0,0,0,0,0,0,0,-1,1700,1247,0,0
483,-223,0,0,0,0,0,0,0,0,0,-1,1707,1247,0,0
490,-223,0,0,0,0,0,0,0,0,0,-1,1714,1247,0,0
497,-223,0,0,0,0,0,0,0,0,0,-1,1721,1247,0,0
504,-223,0,0,0,0,0,0,0,0,0,-1,1728,1247,0,0
511,-223,0,0,0,0,0,0,0,0,0,-1,1735,1247,0,0
518,-223,0,0,0,0,0,0,0,0,0,-1,1742,1247,0,0
525,-223,0,0,0,0,0,0,0,0,0,-1,1749,1247,0,0
532,-223,0,0,0,0,0,0,0,0,0,-1,1756,1247,0,0
539,-223,0,0,0,0,0,0,0,0,0,-1,1763,1247,0,0
546,-223,0,0,0,0,0,0,0,0,0,-1,1770,1247,0,0
553,-223,0,0,0,0,0,0,0,0,0,-1,1777,1247,0,0
560,-223,0,0,0,0,0,0,0,0,0,-1,1784,1247,0,0
567,-223,0,0,0,0,0,0,0,0,0,-1,1791,1247,0,0
574,-223,0,0,0,0,0,0,0,0,0,-1,1798,1247,0,0
581,-223,0,0,0,0,0,0,0,0,0,-1,1805,1247,0,0
588,-223,0,0,0,0,0,0,0,0,0,-1,1812,1247,0,0
595,-223,0,0,0,0,0,0,0,0,0,-1,1819,1247,0,0
602,-223,0,0,0,0,0,0,0,0,0,-1,1826,1247,0,0
609,-223,0,0,0,0,0,0,0,0,0,-1,1833,1247,0,0
616,-223,0,0,0,0,0,0,0,0,0,-1,1840,1247,0,0
623,-223,33.3844,3.00403,0.00165863,0.00199316,0.000547611,0.00239849,0.00125331,0.93362,0.00138524,0.0397866,1847,1247,33.3844,-3.00401
630,-223,33.4359,2.88831,0.00155137,0.00331159,0.00261687,0.00519238,-0.000329421,0.947617,0.00357646,0.036467,1854,1247,33.4359,-2.88837
637,-223,33.4719,2.87097,0.0017239,0.00500026,0.00375833,0.00746192,-0.000737759,0.990923,0.00523788,0.029918,1861,1247,33.472,-2.87101
644,-223,33.4609,2.81799,0.00205204,0.0061242,0.00354804,0.00817887,-2.62773e-06,1.04589,0.00545345,0.0221438,1868,1247,33.4609,-2.81801
651,-223,33.4695,2.78198,0.00250811,0.00646357,0.00245066,0.00763499,0.00133669,1.1249,0.00470811,0.0284368,1875,1247,33.4694,-2.78199
658,-223,33.6626,2.9856,0,0,0,0,0,0,0,-1,1882,1247,33.6626,-2.98557
665,-223,33.8893,2.82947,0,0,0,0,0,0,0,-1,1889,1247,33.8893,-2.82947
672,-223,33.4954,1.1886,0,0,0,0,0,0,0,-1,1896,1247,33.4953,-1.18857
679,-223,33.6674,2.83313,0,0,0,0,0,0,0,-1,1903,1247,33.6673,-2.83317
686,-223,27.2253,7.43616,0,0,0,0,0,0,0,-1,1910,1247,27.2253,-7.43611
693,-223,27.2489,7.23914,0.00243905,0.003643,-0.00185709,0.00499325,0.00108881,-0.94213,0.00303178,0.0378445,1917,1247,27.2489,-7.23912
700,-223,27.2344,6.98279,0.00239609,0.00335175,-0.00214546,0.00507195,0.00067589,-0.894967,0.00318004,0.0179892,1924,1247,27.2344,-6.98274
707,-223,27.2115,6.68335,0.00210149,0.00193432,-0.00196442,0.0039841,5.17129e-05,-0.764136,0.002639,0.015208,1931,1247,27.2115,-6.68339
714,-223,27.235,6.39099,0.00135058,0.00119144,-0.00126797,0.00254147,5.52274e-07,-0.754062,0.00169413,0.0113411,1938,1247,27.2349,-6.391
721,-223,27.2343,6.11035,0.000913537,0.000607028,0.000153677,0.000977316,0.000543249,0.393386,0.000565426,0.0131402,1945,1247,27.2342,-6.11029
728,-223,27.2338,5.82434,0.000812317,-0.0001789,0.00125141,0.00166268,-0.00102927,0.596854,0.00156847,0.0157877,1952,1247,27.2338,-5.82432
735,-223,27.2219,5.5575,0.00135664,0.00135382,0.00178526,0.00314049,-0.000430033,0.785003,0.00225074,0.0153717,1959,1247,27.2219,-5.55752
742,-223,27.1787,5.29248,0.00255621,0.00266393,0.00323671,0.00584723,-0.000627087,0.793718,0.00412311,0.0127476,1966,1247,27.1787,-5.29243
749,-223,27.1606,4.97998,0.00437906,0.00404413,0.00498148,0.00919589,-0.000772703,0.768596,0.00640372,0.0114149,1973,1247,27.1606,-4.97996
756,-223,27.1443,4.69861,0.00673936,0.00606746,0.00741492,0.0138259,-0.00101911,0.76276,0.00957509,0.0146321,1980,1247,27.1443,-4.69857
763,-223,27.1582,4.474,0.00993752,0.00880303,0.0111663,0.020551,-0.00181046,0.76002,0.0143423,0.018681,1987,1247,27.1582,-4.47403
770,-223,27.4093,4.30603,0.0136629,0.0122541,0.016756,0.0297293,-0.00381229,0.764391,0.0212048,0.0403159,1994,1247,27.4093,-4.30604
777,-223,27.6586,4.1355,0,0,0,0,0,0,0,-1,2001,1247,27.6585,-4.13544
784,-223,35.2153,-0.78125,0,0,0,0,0,0,0,-1,2008,1247,35.2153,0.781238
791,-223,34.1216,1.6897,0,0,0,0,0,0,0,-1,2015,1247,34.1215,-1.68966
798,-223,0,0,0,0,0,0,0,0,0,-1,2022,1247,0,0
805,-223,0,0,0,0,0,0,0,0,0,-1,2029,1247,0,0
812,-223,0,0,0,0,0,0,0,0,0,-1,2036,1247,0,0
-700,-230,0,0,0,0,0,0,0,0,0,-1,524,1254,0,0
-693,-230,0,0,0,0,0,0,0,0,0,-1,531,1254,0,0
-686,-230,0,0,0,0,0,0,0,0,0,-1,538,1254,0,0
-679,-230,0,0,0,0,0,0,0,0,0,-1,545,1254,0,0
-672,-230,-18.3433,-7.2019,0.000923471,0.267445,-0.0123752,0.268019,0.000350103,-1.5245,0.178562,0.0460933,552,1254,-18.3433,7.20185
-665,-230,-18.5062,-8.38147,0.00437655,0.216467,0.00126583,0.216475,0.00436899,1.56483,0.142883,0.0458068,559,1254,-18.5061,8.38147
-658,-230,-18.6453,-9.5553,0.00633708,0.171996,0.0101341,0.172613,0.00571943,1.50992,0.113217,0.0485573,566,1254,-18.6453,9.55526
-651,-230,-18.7478,-10.7177,0,0,0,0,0,0,0,-1,573,1254,-18.7478,10.7176
-644,-230,-18.671,1.75781,0,0,0,0,0,0,0,-1,580,1254,-18.671,-1.75784
-637,-230,-16.3749,1.32996,0,0,0,0,0,0,0,-1,587,1254,-16.3749,-1.32997
-630,-230,-16.577,1.74792,0.00675527,0.0546855,0.0164329,0.0597784,0.00166237,1.27026,0.0393099,0.0479666,594,1254,-16.5769,-1.74792
-623,-230,-16.4994,2.07397,0.00581092,0.0381061,0.0140824,0.0433842,0.000532869,1.2122,0.0287468,0.0293564,601,1254,-16.4994,-2.07391
-616,-230,-16.5176,2.40942,0.00486805,0.0222867,0.0127042,0.0289803,-0.00182551,1.08588,0.0199565,0.0170635,608,1254,-16.5177,-2.40941
-609,-230,-16.5186,2.72461,0.00437867,0.00925173,0.0101766,0.0172794,-0.00364899,0.902899,0.012909,0.0123528,615,1254,-16.5186,-2.72467
-602,-230,-16.5264,3.04431,0.00367686,0.00255722,0.00676246,0.00990263,-0.00366855,0.7441,0.0081062,0.0112054,622,1254,-16.5264,-3.04434
-595,-230,-16.5372,3.40381,0.00268344,0.00136131,0.00300066,0.00509499,-0.00105025,0.676977,0.00379549,0.0177542,629,1254,-16.5372,-3.40384
-588,-230,-16.5535,3.76172,0.00227554,0.000539673,0.00123028,0.00291323,-9.80204e-05,0.478204,0.00197564,0.0249971,636,1254,-16.5535,-3.76175
-581,-230,-16.5475,4.06934,0.00270142,-1.51198e-05,0.000896456,0.00297058,-0.000284281,0.291686,0.00208163,0.0232737,643,1254,-16.5475,-4.0693
-574,-230,-16.5425,4.38696,0.00332192,-0.000398671,0.00122444,0.00368872,-0.000765469,0.291057,0.00275004,0.0174101,650,1254,-16.5425,-4.387
-567,-230,-16.333,4.80615,0.00376768,-0.000656705,0.000928417,0.0039546,-0.000843628,0.198679,0.00295798,0.0304572,657,1254,-16.333,-4.80613
-560,-230,-16.0359,5.27258,0,0,0,0,0,0,0,-1,664,1254,-16.0359,-5.27259
-553,-230,-13.1939,4.9718,0,0,0,0,0,0,0,-1,671,1254,-13.1939,-4.97175
-546,-230,-15.23,0.453979,0,0,0,0,0,0,0,-1,678,1254,-15.23,-0.453996
-539,-230,-21.9315,0.356079,0,0,0,0,0,0,0,-1,685,1254,-21.9315,-0.356091
-532,-230,-21.1644,1.52966,0,0,0,0,0,0,0,-1,692,1254,-21.1644,-1.52969
-525,-230,-23.6381,1.32495,0,0,0,0,0,0,0,-1,699,1254,-23.6381,-1.325
-518,-230,-23.5602,1.09595,0.00132048,0.00266878,-0.00528639,0.00732382,-0.00333457,-0.848819,0.00629566,0.0484985,706,1254,-23.5602,-1.09599
-511,-230,-23.5723,0.885132,-0.000365491,0.00368322,-0.00692134,0.00887017,-0.00555245,-0.92767,0.00840002,0.0379478,713,1254,-23.5723,-0.885177
-504,-230,-23.6343,1.0321,-0.00178058,0.00514864,-0.00650023,0.00904994,-0.00568188,-1.03025,0.00857919,0.0374504,720,1254,-23.6343,-1.03212
-497,-230,0,0,0,0,0,0,0,0,0,-1,727,1254,0,0
-490,-230,0,0,0,0,0,0,0,0,0,-1,734,1254,0,0
-483,-230,0,0,0,0,0,0,0,0,0,-1,741,1254,0,0
-476,-230,0,0,0,0,0,0,0,0,0,-1,748,1254,0,0
-469,-230,0,0,0,0,0,0,0,0,0,-1,755,1254,0,0
-462,-230,0,0,0,0,0,0,0,0,0,-1,762,1254,0,0
-455,-230,0,0,0,0,0,0,0,0,0,-1,769,1254,0,0
-448,-230,0,0,0,0,0,0,0,0,0,-1,776,1254,0,0
-441,-230,0,0,0,0,0,0,0,0,0,-1,783,1254,0,0
-434,-230,0,0,0,0,0,0,0,0,0,-1,790,1254,0,0
-427,-230,0,0,0,0,0,0,0,0,0,-1,797,1254,0,0
-420,-230,0,0,0,0,0,0,0,0,0,-1,804,1254,0,0
-413,-230,0,0,0,0,0,0,0,0,0,-1,811,1254,0,0
-406,-230,0,0,0,0,0,0,0,0,0,-1,818,1254,0,0
-399,-230,0,0,0,0,0,0,0,0,0,-1,825,1254,0,0
-392,-230,0,0,0,0,0,0,0,0,0,-1,832,1254,0,0
-385,-230,0,0,0,0,0,0,0,0,0,-1,839,1254,0,0
-378,-230,0,0,0,0,0,0,0,0,0,-1,846,1254,0,0
-371,-230,0,0,0,0,0,0,0,0,0,-1,853,1254,0,0
-364,-230,0,0,0,0,0,0,0,0,0,-1,860,1254,0,0
-357,-230,0,0,0,0,0,0,0,0,0,-1,867,1254,0,0
-350,-230,0,0,0,0,0,0,0,0,0,-1,874,1254,0,0
-343,-230,0,0,0,0,0,0,0,0,0,-1,881,1254,0,0
-336,-230,0,0,0,0,0,0,0,0,0,-1,888,1254,0,0
-329,-230,0,0,0,0,0,0,0,0,0,-1,895,1254,0,0
-322,-230,0,0,0,0,0,0,0,0,0,-1,902,1254,0,0
-315,-230,0,0,0,0,0,0,0,0,0,-1,909,1254,0,0
-308,-230,0,0,0,0,0,0,0,0,0,-1,916,1254,0,0
-301,-230,0,0,0,0,0,0,0,0,0,-1,923,1254,0,0
-294,-230,0,0,0,0,0,0,0,0,0,-1,930,1254,0,0
-287,-230,0,0,0,0,0,0,0,0,0,-1,937,1254,0,0
-280,-230,0,0,0,0,0,0,0,0,0,-1,944,1254,0,0
-273,-230,0,0,0,0,0,0,0,0,0,-1,951,1254,0,0
-266,-230,0,0,0,0,0,0,0,0,0,-1,958,1254,0,0
-259,-230,0,0,0,0,0,0,0,0,0,-1,965,1254,0,0
-252,-230,0,0,0,0,0,0,0,0,0,-1,972,1254,0,0
-245,-230,0,0,0,0,0,0,0,0,0,-1,979,1254,0,0
-238,-230,0,0,0,0,0,0,0,0,0,-1,986,1254,0,0
-231,-230,0,0,0,0,0,0,0,0,0,-1,993,1254,0,0
-224,-230,0,0,0,0,0,0,0,0,0,-1,1000,1254,0,0
-217,-230,0,0,0,0,0,0,0,0,0,-1,1007,1254,0,0
-210,-230,0,0,0,0,0,0,0,0,0,-1,1014,1254,0,0
-203,-230,0,0,0,0,0,0,0,0,0,-1,1021,1254,0,0
-196,-230,0,0,0,0,0,0,0,0,0,-1,1028,1254,0,0
-189,-230,0,0,0,0,0,0,0,0,0,-1,1035,1254,0,0
-182,-230,0,0,0,0,0,0,0,0,0,-1,1042,1254,0,0
-175,-230,0,0,0,0,0,0,0,0,0,-1,1049,1254,0,0
-168,-230,0,0,0,0,0,0,0,0,0,-1,1056,1254,0,0
-161,-230,0,0,0,0,0,0,0,0,0,-1,1063,1254,0,0
-154,-230,0,0,0,0,0,0,0,0,0,-1,1070,1254,0,0
-147,-230,0,0,0,0,0,0,0,0,0,-1,1077,1254,0,0
-140,-230,0,0,0,0,0,0,0,0,0,-1,1084,1254,0,0
-133,-230,0,0,0,0,0,0,0,0,0,-1,1091,1254,0,0
-126,-230,0,0,0,0,0,0,0,0,0,-1,1098,1254,0,0
-119,-230,0,0,0,0,0,0,0,0,0,-1,1105,1254,0,0
-112,-230,0,0,0,0,0,0,0,0,0,-1,1112,1254,0,0
-105,-230,0,0,0,0,0,0,0,0,0,-1,1119,1254,0,0
-98,-230,0,0,0,0,0,0,0,0,0,-1,1126,1254,0,0
-91,-230,0,0,0,0,0,0,0,0,0,-1,1133,1254,0,0
-84,-230,0,0,0,0,0,0,0,0,0,-1,1140,1254,0,0
-77,-230,0,0,0,0,0,0,0,0,0,-1,1147,1254,0,0
-70,-230,0,0,0,0,0,0,0,0,0,-1,1154,1254,0,0
-63,-230,0,0,0,0,0,0,0,0,0,-1,1161,1254,0,0
-56,-230,0,0,0,0,0,0,0,0,0,-1,1168,1254,0,0
-49,-230,0,0,0,0,0,0,0,0,0,-1,1175,1254,0,0
-42,-230,0,0,0,0,0,0,0,0,0,-1,1182,1254,0,0
-35,-230,0,0,0,0,0,0,0,0,0,-1,1189,1254,0,0
-28,-230,0,0,0,0,0,0,0,0,0,-1,1196,1254,0,0
-21,-230,0,0,0,0,0,0,0,0,0,-1,1203,1254,0,0
-14,-230,0,0,0,0,0,0,0,0,0,-1,1210,1254,0,0
-7,-230,0,0,0,0,0,0,0,0,0,-1,1217,1254,0,0
0,-230,0,0,0,0,0,0,0,0,0,-1,1224,1254,0,0
7,-230,0,0,0,0,0,0,0,0,0,-1,1231,1254,0,0
14,-230,0,0,0,0,0,0,0,0,0,-1,1238,1254,0,0
21,-230,0,0,0,0,0,0,0,0,0,-1,1245,1254,0,0
28,-230,0,0,0,0,0,0,0,0,0,-1,1252,1254,0,0
35,-230,0,0,0,0,0,0,0,0,0,-1,1259,1254,0,0
42,-230,0,0,0,0,0,0,0,0,0,-1,1266,1254,0,0
49,-230,0,0,0,0,0,0,0,0,0,-1,1273,1254,0,0
56,-230,0,0,0,0,0,0,0,0,0,-1,1280,1254,0,0
63,-230,0,0,0,0,0,0,0,0,0,-1,1287,1254,0,0
70,-230,0,0,0,0,0,0,0,0,0,-1,1294,1254,0,0
77,-230,0,0,0,0,0,0,0,0,0,-1,1301,1254,0,0
84,-230,0,0,0,0,0,0,0,0,0,-1,1308,1254,0,0
91,-230,0,0,0,0,0,0,0,0,0,-1,1315,1254,0,0
98,-230,0,0,0,0,0,0,0,0,0,-1,1322,1254,0,0
105,-230,0,0,0,0,0,0,0,0,0,-1,1329,1254,0,0
112,-230,0,0,0,0,0,0,0,0,0,-1,1336,1254,0,0
119,-230,0,0,0,0,0,0,0,0,0,-1,1343,1254,0,0
126,-230,0,0,0,0,0,0,0,0,0,-1,1350,1254,0,0
133,-230,0,0,0,0,0,0,0,0,0,-1,1357,1254,0,0
140,-230,0,0,0,0,0,0,0,0,0,-1,1364,1254,0,0
147,-230,0,0,0,0,0,0,0,0,0,-1,1371,1254,0,0
154,-230,0,0,0,0,0,0,0,0,0,-1,1378,1254,0,0
161,-230,0,0,0,0,0,0,0,0,0,-1,1385,1254,0,0
168,-230,0,0,0,0,0,0,0,0,0,-1,1392,1254,0,0
175,-230,0,0,0,0,0,0,0,0,0,-1,1399,1254,0,0
182,-230,0,0,0,0,0,0,0,0,0,-1,1406,1254,0,0
189,-230,0,0,0,0,0,0,0,0,0,-1,1413,1254,0,0
196,-230,0,0,0,0,0,0,0,0,0,-1,1420,1254,0,0
203,-230,0,0,0,0,0,0,0,0,0,-1,1427,1254,0,0
210,-230,0,0,0,0,0,0,0,0,0,-1,1434,1254,0,0
217,-230,0,0,0,0,0,0,0,0,0,-1,1441,1254,0,0
224,-230,0,0,0,0,0,0,0,0,0,-1,1448,1254,0,0
231,-230,0,0,0,0,0,0,0,0,0,-1,1455,1254,0,0
238,-230,0,0,0,0,0,0,0,0,0,-1,1462,1254,0,0
245,-230,0,0,0,0,0,0,0,0,0,-1,1469,1254,0,0
252,-230,0,0,0,0,0,0,0,0,0,-1,1476,1254,0,0
259,-230,0,0,0,0,0,0,0,0,0,-1,1483,1254,0,0
266,-230,0,0,0,0,0,0,0,0,0,-1,1490,1254,0,0
273,-230,0,0,0,0,0,0,0,0,0,-1,1497,1254,0,0
280,-230,0,0,0,0,0,0,0,0,0,-1,1504,1254,0,0
287,-230,0,0,0,0,0,0,0,0,0,-1,1511,1254,0,0
294,-230,0,0,0,0,0,0,0,0,0,-1,1518,1254,0,0
301,-230,0,0,0,0,0,0,0,0,0,-1,1525,1254,0,0
308,-230,0,0,0,0,0,0,0,0,0,-1,1532,1254,0,0
315,-230,0,0,0,0,0,0,0,0,0,-1,1539,1254,0,0
322,-230,0,0,0,0,0,0,0,0,0,-1,1546,1254,0,0
329,-230,0,0,0,0,0,0,0,0,0,-1,1553,1254,0,0
336,-230,0,0,0,0,0,0,0,0,0,-1,1560,1254,0,0
343,-230,0,0,0,0,0,0,0,0,0,-1,1567,1254,0,0
350,-230,0,0,0,0,0,0,0,0,0,-1,1574,1254,0,0
357,-230,0,0,0,0,0,0,0,0,0,-1,1581,1254,0,0
364,-230,0,0,0,0,0,0,0,0,0,-1,1588,1254,0,0
371,-230,0,0,0,0,0,0,0,0,0,-1,1595,1254,0,0
378,-230,0,0,0,0,0,0,0,0,0,-1,1602,1254,0,0
385,-230,0,0,0,0,0,0,0,0,0,-1,1609,1254,0,0
392,-230,0,0,0,0,0,0,0,0,0,-1,1616,1254,0,0
399,-230,0,0,0,0,0,0,0,0,0,-1,1623,1254,0,0
406,-230,0,0,0,0,0,0,0,0,0,-1,1630,1254,0,0
413,-230,0,0,0,0,0,0,0,0,0,-1,1637,1254,0,0
420,-230,0,0,0,0,0,0,0,0,0,-1,1644,1254,0,0
427,-230,0,0,0,0,0,0,0,0,0,-1,1651,1254,0,0
434,-230,0,0,0,0,0,0,0,0,0,-1,1658,1254,0,0
441,-230,0,0,0,0,0,0,0,0,0,-1,1665,1254,0,0
448,-230,0,0,0,0,0,0,0,0,0,-1,1672,1254,0,0
455,-230,0,0,0,0,0,0,0,0,0,-1,1679,1254,0,0
462,-230,0,0,0,0,0,0,0,0,0,-1,1686,1254,0,0
469,-230,0,0,0,0,0,0,0,0,0,-1,1693,1254,0,0
476,-230,0,0,0,0,0,0,0,0,0,-1,1700,1254,0,0
483,-230,0,0,0,0,0,0,0,0,0,-1,1707,1254,0,0
490,-230,0,0,0,0,0,0,0,0,0,-1,1714,1254,0,0
497,-230,0,0,0,0,0,0,0,0,0,-1,1721,1254,0,0
504,-230,0,0,0,0,0,0,0,0,0,-1,1728,1254,0,0
511,-230,0,0,0,0,0,0,0,0,0,-1,1735,1254,0,0
518,-230,0,0,0,0,0,0,0,0,0,-1,1742,1254,0,0
525,-230,0,0,0,0,0,0,0,0,0,-1,1749,1254,0,0
532,-230,0,0,0,0,0,0,0,0,0,-1,1756,1254,0,0
539,-230,0,0,0,0,0,0,0,0,0,-1,1763,1254,0,0
546,-230,0,0,0,0,0,0,0,0,0,-1,1770,1254,0,0
553,-230,0,0,0,0,0,0,0,0,0,-1,1777,1254,0,0
560,-230,0,0,0,0,0,0,0,0,0,-1,1784,1254,0,0
567,-230,0,0,0,0,0,0,0,0,0,-1,1791,1254,0,0
574,-230,0,0,0,0,0,0,0,0,0,-1,1798,1254,0,0
581,-230,0,0,0,0,0,0,0,0,0,-1,1805,1254,0,0
588,-230,0,0,0,0,0,0,0,0,0,-1,1812,1254,0,0
595,-230,0,0,0,0,0,0,0,0,0,-1,1819,1254,0,0
602,-230,0,0,0,0,0,0,0,0,0,-1,1826,1254,0,0
609,-230,0,0,0,0,0,0,0,0,0,-1,1833,1254,0,0
616,-230,33.524,2.85071,0.00154989,0.00285719,-0.00508555,0.00733092,-0.00292385,-0.849313,0.00610012,0.0370582,1840,1254,33.524,-2.85075
623,-230,33.588,2.86572,0.00139139,0.00282789,0.00119237,0.00350163,0.000717649,1.05648,0.00213578,0.0370655,1847,1254,33.588,-2.8657
630,-230,33.5444,2.90295,0.00157462,0.00470815,0.00470012,0.00809577,-0.001813,0.946279,0.00609211,0.0316143,1854,1254,33.5444,-2.90299
637,-230,33.4518,2.91248,0.00190048,0.00661945,0.00692462,0.0115755,-0.00305561,0.949598,0.00891191,0.0258055,1861,1254,33.4518,-2.91249
644,-230,33.3691,2.76208,0.00222079,0.00734743,0.00698667,0.0122262,-0.00265795,0.961218,0.00916613,0.02053,1868,1254,33.3691,-2.76205
651,-230,33.2107,2.52661,0.00258212,0.00724095,0.00581979,0.0111802,-0.00135713,0.975762,0.00794457,0.0417187,1875,1254,33.2107,-2.52665
658,-230,33.4764,3.24646,0,0,0,0,0,0,0,-1,1882,1254,33.4764,-3.24645
665,-230,33.9193,2.95813,0,0,0,0,0,0,0,-1,1889,1254,33.9193,-2.95816
672,-230,34.3622,2.66992,0,0,0,0,0,0,0,-1,1896,1254,34.3622,-2.66986
679,-230,27.9967,2.37708,0,0,0,0,0,0,0,-1,1903,1254,27.9967,-2.3771
686,-230,26.8125,7.3645,0,0,0,0,0,0,0,-1,1910,1254,26.8125,-7.36453
693,-230,26.8674,7.21472,0.00236963,0.00346348,-0.000597137,0.00372631,0.0021068,-1.15617,0.00215751,0.0331879,1917,1254,26.8674,-7.21468
700,-230,26.9305,7.01831,0.0023801,0.00333176,-0.00134899,0.00428638,0.00142548,-0.954951,0.00252057,0.011158,1924,1254,26.9306,-7.01833
707,-230,26.9214,6.7196,0.00209793,0.00180613,-0.00149586,0.00345499,0.000449065,-0.736783,0.00216919,0.00963307,1931,1254,26.9214,-6.71961
714,-230,26.9132,6.4071,0.00133453,0.00110966,-0.00105545,0.00228352,0.000160671,-0.732335,0.00147172,0.0125057,1938,1254,26.9132,-6.40712
721,-230,26.9189,6.10876,0.000922308,0.000606383,0.00022485,0.00103914,0.000489555,0.479189,0.000600278,0.0119157,1945,1254,26.9189,-6.10879
728,-230,26.9089,5.84253,0.000796955,-1.52642e-05,0.00114989,0.00161034,-0.000828648,0.615649,0.00143205,0.0136664,1952,1254,26.909,-5.8425
735,-230,26.8944,5.57324,0.00121529,0.0014709,0.00165271,0.00300074,-0.000314551,0.823986,0.00211316,0.0141475,1959,1254,26.8945,-5.57328
742,-230,26.8752,5.28186,0.0021989,0.00277416,0.00303363,0.00553376,-0.000560699,0.832664,0.00388957,0.0106165,1966,1254,26.8753,-5.28182
749,-230,26.8766,4.95996,0.00388742,0.00434943,0.00468383,0.00880795,-0.000571104,0.810038,0.00607129,0.0106639,1973,1254,26.8766,-4.95999
756,-230,26.871,4.68689,0.00630244,0.00686904,0.00705995,0.0136514,-0.000479893,0.805451,0.00926503,0.0160331,1980,1254,26.8709,-4.68687
763,-230,26.915,4.39319,0.00962854,0.0103704,0.0108165,0.0208223,-0.00082337,0.802537,0.014164,0.0311798,1987,1254,26.9151,-4.39322
770,-230,27.4835,4.26184,0.0136275,0.0151576,0.0166142,0.0310244,-0.00223922,0.808405,0.0214683,0.0455284,1994,1254,27.4836,-4.26189
777,-230,27.9958,4.15942,0,0,0,0,0,0,0,-1,2001,1254,27.9959,-4.15946
784,-230,30.9982,4.07373,0,0,0,0,0,0,0,-1,2008,1254,30.9981,-4.07375
791,-230,31.9327,5.41675,0,0,0,0,0,0,0,-1,2015,1254,31.9328,-5.41679
798,-230,0,0,0,0,0,0,0,0,0,-1,2022,1254,0,0
805,-230,0,0,0,0,0,0,0,0,0,-1,2029,1254,0,0
812,-230,0,0,0,0,0,0,0,0,0,-1,2036,1254,0,0
-700,-237,0,0,0,0,0,0,0,0,0,-1,524,1261,0,0
-693,-237,0,0,0,0,0,0,0,0,0,-1,531,1261,0,0
-686,-237,0,0,0,0,0,0,0,0,0,-1,538,1261,0,0
-679,-237,0,0,0,0,0,0,0,0,0,-1,545,1261,0,0
-672,-237,-18.2366,-9.8479,-0.00305266,0.282668,-0.00717149,0.282848,-0.00323254,-1.54572,0.189652,0.0464021,552,1261,-18.2367,9.84786
-665,-237,-18.3698,-11.0854,0.00277947,0.224701,0.00880322,0.225049,0.00243081,1.53121,0.149229,0.0494849,559,1261,-18.3698,11.0855
-658,-237,-18.4816,-12.2872,0,0,0,0,0,0,0,-1,566,1261,-18.4816,12.2872
-651,-237,-18.5006,-0.585571,0.00875565,0.136233,0.0241552,0.140656,0.00433205,1.38967,0.0923607,0.0485665,573,1261,-18.5006,0.585594
-644,-237,-18.5191,1.15417,0.0097897,0.10369,0.0259584,0.110389,0.00309145,1.31827,0.0725838,0.0477016,580,1261,-18.5191,-1.15418
-637,-237,-16.1157,1.41199,0,0,0,0,0,0,0,-1,587,1261,-16.1157,-1.41203
-630,-237,-16.1284,1.71399,0.00955079,0.0564162,0.0231054,0.0658917,7.5262e-05,1.18161,0.0439027,0.0460424,594,1261,-16.1284,-1.71396
-623,-237,-16.1245,2.06189,0.00858776,0.0401122,0.0197113,0.0495885,-0.000888513,1.12266,0.0333591,0.029989,601,1261,-16.1245,-2.06187
-616,-237,-16.1557,2.4043,0.00752143,0.0245468,0.0173069,0.0353213,-0.00325305,1.01396,0.0247034,0.0151457,608,1261,-16.1557,-2.40434
-609,-237,-16.1785,2.73108,0.00687418,0.0118162,0.0139582,0.0235204,-0.00482998,0.873006,0.0175137,0.0167911,615,1261,-16.1785,-2.73114
-602,-237,-16.1874,3.06689,0.00576835,0.00475758,0.00968472,0.0149609,-0.00443493,0.75933,0.011735,0.0117369,622,1261,-16.1875,-3.06684
-595,-237,-16.2125,3.41455,0.00424393,0.00285015,0.00487793,0.0084745,-0.00138042,0.714445,0.00616157,0.0145495,629,1261,-16.2125,-3.41453
-588,-237,-16.2154,3.74756,0.00332031,0.0014665,0.00224095,0.00481848,-3.16722e-05,0.589301,0.00322293,0.0259096,636,1261,-16.2154,-3.7475
-581,-237,-16.1917,4.05603,0.00340941,0.000509453,0.00152516,0.00406384,-0.000144977,0.405331,0.00275882,0.0251904,643,1261,-16.1917,-4.05608
-574,-237,-16.2112,4.39819,0.0039248,-6.96193e-05,0.00173756,0.00457485,-0.000719663,0.357993,0.00331592,0.0155106,650,1261,-16.2112,-4.39814
-567,-237,-16.1313,4.7821,0.00440347,-0.000239071,0.00132736,0.00475618,-0.000591781,0.259722,0.00338534,0.0200311,657,1261,-16.1313,-4.78212
-560,-237,-15.7699,5.29114,0.00444061,0.000303836,0.000707458,0.00455825,0.000186194,0.16478,0.00297871,0.0431067,664,1261,-15.7699,-5.29113
-553,-237,-15.3758,5.67017,0,0,0,0,0,0,0,-1,671,1261,-15.3758,-5.67021
-546,-237,-11.192,1.14014,0,0,0,0,0,0,0,-1,678,1261,-11.192,-1.14011
-539,-237,-16.512,1.53455,0,0,0,0,0,0,0,-1,685,1261,-16.512,-1.53457
-532,-237,-22.1423,1.43213,0,0,0,0,0,0,0,-1,692,1261,-22.1423,-1.43207
-525,-237,-23.6599,1.71167,0,0,0,0,0,0,0,-1,699,1261,-23.6599,-1.71169
-518,-237,-23.5507,1.22913,0.00102611,0.00377799,-0.00646264,0.00900954,-0.00420544,-0.890286,0.00779592,0.0470546,706,1261,-23.5507,-1.22918
-511,-237,-23.5278,0.952148,-0.000405317,0.00521101,-0.00853967,0.0113924,-0.00658669,-0.944248,0.0105031,0.0415291,713,1261,-23.5278,-0.952195
-504,-237,-23.6754,0.973267,-0.00183676,0.00722976,-0.00951266,0.0132341,-0.0078411,-1.00775,0.0122999,0.0414593,720,1261,-23.6754,-0.97327
-497,-237,-23.6244,0.950317,-0.00328254,0.00928623,-0.0083185,0.0134273,-0.00742365,-1.10889,0.0122035,0.0456491,727,1261,-23.6244,-0.950338
-490,-237,0,0,0,0,0,0,0,0,0,-1,734,1261,0,0
-483,-237,0,0,0,0,0,0,0,0,0,-1,741,1261,0,0
-476,-237,0,0,0,0,0,0,0,0,0,-1,748,1261,0,0
-469,-237,0,0,0,0,0,0,0,0,0,-1,755,1261,0,0
-462,-237,0,0,0,0,0,0,0,0,0,-1,762,1261,0,0
-455,-237,0,0,0,0,0,0,0,0,0,-1,769,1261,0,0
-448,-237,0,0,0,0,0,0,0,0,0,-1,776,1261,0,0
-441,-237,0,0,0,0,0,0,0,0,0,-1,783,1261,0,0
-434,-237,0,0,0,0,0,0,0,0,0,-1,790,1261,0,0
-427,-237,0,0,0,0,0,0,0,0,0,-1,797,1261,0,0
-420,-237,0,0,0,0,0,0,0,0,0,-1,804,1261,0,0
-413,-237,0,0,0,0,0,0,0,0,0,-1,811,1261,0,0
-406,-237,0,0,0,0,0,0,0,0,0,-1,818,1261,0,0
-399,-237,0,0,0,0,0,0,0,0,0,-1,825,1261,0,0
-392,-237,0,0,0,0,0,0,0,0,0,-1,832,1261,0,0
-385,-237,0,0,0,0,0,0,0,0,0,-1,839,1261,0,0
-378,-237,0,0,0,0,0,0,0,0,0,-1,846,1261,0,0
-371,-237,0,0,0,0,0,0,0,0,0,-1,853,1261,0,0
-364,-237,0,0,0,0,0,0,0,0,0,-1,860,1261,0,0
-357,-237,0,0,0,0,0,0,0,0,0,-1,867,1261,0,0
-350,-237,0,0,0,0,0,0,0,0,0,-1,874,1261,0,0
-343,-237,0,0,0,0,0,0,0,0,0,-1,881,1261,0,0
-336,-237,0,0,0,0,0,0,0,0,0,-1,888,1261,0,0
-329,-237,0,0,0,0,0,0,0,0,0,-1,895,1261,0,0
-322,-237,0,0,0,0,0,0,0,0,0,-1,902,1261,0,0
-315,-237,0,0,0,0,0,0,0,0,0,-1,909,1261,0,0
-308,-237,0,0,0,0,0,0,0,0,0,-1,916,1261,0,0
-301,-237,0,0,0,0,0,0,0,0,0,-1,923,1261,0,0
-294,-237,0,0,0,0,0,0,0,0,0,-1,930,1261,0,0
-287,-237,0,0,0,0,0,0,0,0,0,-1,937,1261,0,0
-280,-237,0,0,0,0,0,0,0,0,0,-1,944,1261,0,0
-273,-237,0,0,0,0,0,0,0,0,0,-1,951,1261,0,0
-266,-237,0,0,0,0,0,0,0,0,0,-1,958,1261,0,0
-259,-237,0,0,0,0,0,0,0,0,0,-1,965,1261,0,0
-252,-237,0,0,0,0,0,0,0,0,0,-1,972,1261,0,0
-245,-237,0,0,0,0,0,0,0,0,0,-1,979,1261,0,0
-238,-237,0,0,0,0,0,0,0,0,0,-1,986,1261,0,0
-231,-237,0,0,0,0,0,0,0,0,0,-1,993,1261,0,0
-224,-237,0,0,0,0,0,0,0,0,0,-1,1000,1261,0,0
-217,-237,0,0,0,0,0,0,0,0,0,-1,1007,1261,0,0
-210,-237,0,0,0,0,0,0,0,0,0,-1,1014,1261,0,0
-203,-237,0,0,0,0,0,0,0,0,0,-1,1021,1261,0,0
-196,-237,0,0,0,0,0,0,0,0,0,-1,1028,1261,0,0
-189,-237,0,0,0,0,0,0,0,0,0,-1,1035,1261,0,0
-182,-237,0,0,0,0,0,0,0,0,0,-1,1042,1261,0,0
-175,-237,0,0,0,0,0,0,0,0,0,-1,1049,1261,0,0
-168,-237,0,0,0,0,0,0,0,0,0,-1,1056,1261,0,0
-161,-237,0,0,0,0,0,0,0,0,0,-1,1063,1261,0,0
-154,-237,0,0,0,0,0,0,0,0,0,-1,1070,1261,0,0
-147,-237,0,0,0,0,0,0,0,0,0,-1,1077,1261,0,0
-140,-237,0,0,0,0,0,0,0,0,0,-1,1084,1261,0,0
-133,-237,0,0,0,0,0,0,0,0,0,-1,1091,1261,0,0
-126,-237,0,0,0,0,0,0,0,0,0,-1,1098,1261,0,0
-119,-237,0,0,0,0,0,0,0,0,0,-1,1105,1261,0,0
-112,-237,0,0,0,0,0,0,0,0,0,-1,1112,1261,0,0
-105,-237,0,0,0,0,0,0,0,0,0,-1,1119,1261,0,0
-98,-237,0,0,0,0,0,0,0,0,0,-1,1126,1261,0,0
-91,-237,0,0,0,0,0,0,0,0,0,-1,1133,1261,0,0
-84,-237,0,0,0,0,0,0,0,0,0,-1,1140,1261,0,0
-77,-237,0,0,0,0,0,0,0,0,0,-1,1147,1261,0,0
-70,-237,0,0,0,0,0,0,0,0,0,-1,1154,1261,0,0
-63,-237,0,0,0,0,0,0,0,0,0,-1,1161,1261,0,0
-56,-237,0,0,0,0,0,0,0,0,0,-1,1168,1261,0,0
-49,-237,0,0,0,0,0,0,0,0,0,-1,1175,1261,0,0
-42,-237,0,0,0,0,0,0,0,0,0,-1,1182,1261,0,0
-35,-237,0,0,0,0,0,0,0,0,0,-1,1189,1261,0,0
-28,-237,0,0,0,0,0,0,0,0,0,-1,1196,1261,0,0
-21,-237,0,0,0,0,0,0,0,0,0,-1,1203,1261,0,0
-14,-237,0,0,0,0,0,0,0,0,0,-1,1210,1261,0,0
-7,-237,0,0,0,0,0,0,0,0,0,-1,1217,1261,0,0
0,-237,0,0,0,0,0,0,0,0,0,-1,1224,1261,0,0
7,-237,0,0,0,0,0,0,0,0,0,-1,1231,1261,0,0
14,-237,0,0,0,0,0,0,0,0,0,-1,1238,1261,0,0
21,-237,0,0,0,0,0,0,0,0,0,-1,1245,1261,0,0
28,-237,0,0,0,0,0,0,0,0,0,-1,1252,1261,0,0
35,-237,0,0,0,0,0,0,0,0,0,-1,1259,1261,0,0
42,-237,0,0,0,0,0,0,0,0,0,-1,1266,1261,0,0
49,-237,0,0,0,0,0,0,0,0,0,-1,1273,1261,0,0
56,-237,0,0,0,0,0,0,0,0,0,-1,1280,1261,0,0
63,-237,0,0,0,0,0,0,0,0,0,-1,1287,1261,0,0
70,-237,0,0,0,0,0,0,0,0,0,-1,1294,1261,0,0
77,-237,0,0,0,0,0,0,0,0,0,-1,1301,1261,0,0
84,-237,0,0,0,0,0,0,0,0,0,-1,1308,1261,0,0
91,-237,0,0,0,0,0,0,0,0,0,-1,1315,1261,0,0
98,-237,0,0,0,0,0,0,0,0,0,-1,1322,1261,0,0
105,-237,0,0,0,0,0,0,0,0,0,-1,1329,1261,0,0
112,-237,0,0,0,0,0,0,0,0,0,-1,1336,1261,0,0
119,-237,0,0,0,0,0,0,0,0,0,-1,1343,1261,0,0
126,-237,0,0,0,0,0,0,0,0,0,-1,1350,1261,0,0
133,-237,0,0,0,0,0,0,0,0,0,-1,1357,1261,0,0
140,-237,0,0,0,0,0,0,0,0,0,-1,1364,1261,0,0
147,-237,0,0,0,0,0,0,0,0,0,-1,1371,1261,0,0
154,-237,0,0,0,0,0,0,0,0,0,-1,1378,1261,0,0
161,-237,0,0,0,0,0,0,0,0,0,-1,1385,1261,0,0
168,-237,0,0,0,0,0,0,0,0,0,-1,1392,1261,0,0
175,-237,0,0,0,0,0,0,0,0,0,-1,1399,1261,0,0
182,-237,0,0,0,0,0,0,0,0,0,-1,1406,1261,0,0
189,-237,0,0,0,0,0,0,0,0,0,-1,1413,1261,0,0
196,-237,0,0,0,0,0,0,0,0,0,-1,1420,1261,0,0
203,-237,0,0,0,0,0,0,0,0,0,-1,1427,1261,0,0
210,-237,0,0,0,0,0,0,0,0,0,-1,1434,1261,0,0
217,-237,0,0,0,0,0,0,0,0,0,-1,1441,1261,0,0
224,-237,0,0,0,0,0,0,0,0,0,-1,1448,1261,0,0
231,-237,0,0,0,0,0,0,0,0,0,-1,1455,1261,0,0
238,-237,0,0,0,0,0,0,0,0,0,-1,1462,1261,0,0
245,-237,0,0,0,0,0,0,0,0,0,-1,1469,1261,0,0
252,-237,0,0,0,0,0,0,0,0,0,-1,1476,1261,0,0
259,-237,0,0,0,0,0,0,0,0,0,-1,1483,1261,0,0
266,-237,0,0,0,0,0,0,0,0,0,-1,1490,1261,0,0
273,-237,0,0,0,0,0,0,0,0,0,-1,1497,1261,0,0
280,-237,0,0,0,0,0,0,0,0,0,-1,1504,1261,0,0
287,-237,0,0,0,0,0,0,0,0,0,-1,1511,1261,0,0
294,-237,0,0,0,0,0,0,0,0,0,-1,1518,1261,0,0
301,-237,0,0,0,0,0,0,0,0,0,-1,1525,1261,0,0
308,-237,0,0,0,0,0,0,0,0,0,-1,1532,1261,0,0
315,-237,0,0,0,0,0,0,0,0,0,-1,1539,1261,0,0
322,-237,0,0,0,0,0,0,0,0,0,-1,1546,1261,0,0
329,-237,0,0,0,0,0,0,0,0,0,-1,1553,1261,0,0
336,-237,0,0,0,0,0,0,0,0,0,-1,1560,1261,0,0
343,-237,0,0,0,0,0,0,0,0,0,-1,1567,1261,0,0
350,-237,0,0,0,0,0,0,0,0,0,-1,1574,1261,0,0
357,-237,0,0,0,0,0,0,0,0,0,-1,1581,1261,0,0
364,-237,0,0,0,0,0,0,0,0,0,-1,1588,1261,0,0
371,-237,0,0,0,0,0,0,0,0,0,-1,1595,1261,0,0
378,-237,0,0,0,0,0,0,0,0,0,-1,1602,1261,0,0
385,-237,0,0,0,0,0,0,0,0,0,-1,1609,1261,0,0
392,-237,0,0,0,0,0,0,0,0,0,-1,1616,1261,0,0
399,-237,0,0,0,0,0,0,0,0,0,-1,1623,1261,0,0
406,-237,0,0,0,0,0,0,0,0,0,-1,1630,1261,0,0
413,-237,0,0,0,0,0,0,0,0,0,-1,1637,1261,0,0
420,-237,0,0,0,0,0,0,0,0,0,-1,1644,1261,0,0
427,-237,0,0,0,0,0,0,0,0,0,-1,1651,1261,0,0
434,-237,0,0,0,0,0,0,0,0,0,-1,1658,1261,0,0
441,-237,0,0,0,0,0,0,0,0,0,-1,1665,1261,0,0
448,-237,0,0,0,0,0,0,0,0,0,-1,1672,1261,0,0
455,-237,0,0,0,0,0,0,0,0,0,-1,1679,1261,0,0
462,-237,0,0,0,0,0,0,0,0,0,-1,1686,1261,0,0
469,-237,0,0,0,0,0,0,0,0,0,-1,1693,1261,0,0
476,-237,0,0,0,0,0,0,0,0,0,-1,1700,1261,0,0
483,-237,0,0,0,0,0,0,0,0,0,-1,1707,1261,0,0
490,-237,0,0,0,0,0,0,0,0,0,-1,1714,1261,0,0
497,-237,0,0,0,0,0,0,0,0,0,-1,1721,1261,0,0
504,-237,0,0,0,0,0,0,0,0,0,-1,1728,1261,0,0
511,-237,0,0,0,0,0,0,0,0,0,-1,1735,1261,0,0
518,-237,0,0,0,0,0,0,0,0,0,-1,1742,1261,0,0
525,-237,0,0,0,0,0,0,0,0,0,-1,1749,1261,0,0
532,-237,0,0,0,0,0,0,0,0,0,-1,1756,1261,0,0
539,-237,0,0,0,0,0,0,0,0,0,-1,1763,1261,0,0
546,-237,0,0,0,0,0,0,0,0,0,-1,1770,1261,0,0
553,-237,0,0,0,0,0,0,0,0,0,-1,1777,1261,0,0
560,-237,0,0,0,0,0,0,0,0,0,-1,1784,1261,0,0
567,-237,0,0,0,0,0,0,0,0,0,-1,1791,1261,0,0
574,-237,0,0,0,0,0,0,0,0,0,-1,1798,1261,0,0
581,-237,0,0,0,0,0,0,0,0,0,-1,1805,1261,0,0
588,-237,0,0,0,0,0,0,0,0,0,-1,1812,1261,0,0
595,-237,0,0,0,0,0,0,0,0,0,-1,1819,1261,0,0
602,-237,0,0,0,0,0,0,0,0,0,-1,1826,1261,0,0
609,-237,0,0,0,0,0,0,0,0,0,-1,1833,1261,0,0
616,-237,33.509,2.70581,0.00109688,0.00347994,-0.00423388,0.00668676,-0.00210994,-0.922564,0.00530297,0.0368082,1840,1261,33.509,-2.70585
623,-237,33.5538,2.68042,0.00165231,0.00457253,0.00285907,0.00632275,-9.79148e-05,1.02148,0.00424818,0.0331534,1847,1261,33.5538,-2.68046
630,-237,33.4835,2.83105,0.00226325,0.00697187,0.00780579,0.0127707,-0.00353554,0.931865,0.00990491,0.0265733,1854,1261,33.4835,-2.83108
637,-237,33.3939,2.81958,0.00273651,0.00868143,0.0105669,0.016686,-0.00526807,0.922504,0.0132343,0.0207804,1861,1261,33.3939,-2.81955
644,-237,33.2482,2.70862,0,0,0,0,0,0,0,-1,1868,1261,33.2481,-2.70861
651,-237,33.0768,2.30908,0,0,0,0,0,0,0,-1,1875,1261,33.0768,-2.30907
658,-237,33.7821,3.27649,0,0,0,0,0,0,0,-1,1882,1261,33.7821,-3.27653
665,-237,34.2228,2.99243,0,0,0,0,0,0,0,-1,1889,1261,34.2228,-2.99241
672,-237,34.6635,2.70825,0,0,0,0,0,0,0,-1,1896,1261,34.6635,-2.7083
679,-237,23.1501,7.37488,0,0,0,0,0,0,0,-1,1903,1261,23.1502,-7.37493
686,-237,27.0151,7.89136,0,0,0,0,0,0,0,-1,1910,1261,27.0151,-7.8914
693,-237,26.5822,7.31189,0.00238066,0.00323442,0.000597111,0.00354155,0.00207353,1.09573,0.00205465,0.033872,1917,1261,26.5821,-7.31193
700,-237,26.6172,7.03101,0.00238335,0.00321814,-0.000648128,0.00357165,0.00202985,-1.07147,0.0020685,0.0103577,1924,1261,26.6171,-7.031
707,-237,26.6355,6.73315,0.00204835,0.0016292,-0.00111447,0.00297278,0.000704769,-0.69246,0.0017937,0.00916751,1931,1261,26.6355,-6.73311
714,-237,26.6217,6.4165,0.00123844,0.00102903,-0.000929879,0.00206949,0.000197977,-0.729334,0.00131863,0.0129532,1938,1261,26.6217,-6.4165
721,-237,26.5841,6.12378,0.000820578,0.000642697,0.000188616,0.000940172,0.000523103,0.565087,0.000543958,0.0150816,1945,1261,26.5841,-6.12383
728,-237,26.613,5.85168,0.00064416,0.000228914,0.000951003,0.00140994,-0.000536867,0.677924,0.00116105,0.0149905,1952,1261,26.613,-5.85166
735,-237,26.6082,5.55383,0.0009131,0.00162252,0.00142736,0.00273858,-0.000202964,0.907185,0.001897,0.0198815,1959,1261,26.6082,-5.55388
742,-237,26.5986,5.26855,0.00167931,0.00290692,0.00268888,0.00505116,-0.000464941,0.897613,0.00353264,0.0147394,1966,1261,26.5987,-5.26857
749,-237,26.5669,5.01331,0.00313725,0.00451997,0.00416847,0.00805402,-0.000396806,0.867577,0.00550639,0.0104154,1973,1261,26.567,-5.01329
756,-237,26.5232,4.7168,0.00536041,0.00713095,0.00631449,0.0126219,-0.00013056,0.855043,0.00845847,0.0167077,1980,1261,26.5232,-4.7168
763,-237,26.4818,4.33789,0.00846949,0.0108829,0.0097611,0.0195116,-0.000159195,0.846899,0.0130611,0.0319976,1987,1261,26.4818,-4.33792
770,-237,27.3527,4.10583,0,0,0,0,0,0,0,-1,1994,1261,27.3527,-4.10583
777,-237,27.0784,2.77271,0,0,0,0,0,0,0,-1,2001,1261,27.0783,-2.77266
784,-237,31.3258,4.6687,0,0,0,0,0,0,0,-1,2008,1261,31.3258,-4.66869
791,-237,32.3025,6.03235,0,0,0,0,0,0,0,-1,2015,1261,32.3025,-6.03229
798,-237,0,0,0,0,0,0,0,0,0,-1,2022,1261,0,0
805,-237,0,0,0,0,0,0,0,0,0,-1,2029,1261,0,0
812,-237,0,0,0,0,0,0,0,0,0,-1,2036,1261,0,0
-700,-244,0,0,0,0,0,0,0,0,0,-1,524,1268,0,0
-693,-244,0,0,0,0,0,0,0,0,0,-1,531,1268,0,0
-686,-244,0,0,0,0,0,0,0,0,0,-1,538,1268,0,0
-679,-244,0,0,0,0,0,0,0,0,0,-1,545,1268,0,0
-672,-244,-18.2361,-12.5953,0,0,0,0,0,0,0,-1,552,1268,-18.2362,12.5953
-665,-244,-18.2213,-13.8329,0,0,0,0,0,0,0,-1,559,1268,-18.2213,13.8328
-658,-244,-18.4462,-2.58411,0.00730436,0.168876,0.0317664,0.174898,0.00128318,1.38347,0.116173,0.044736,566,1268,-18.4462,2.58411
-651,-244,-18.4518,-0.824707,0.010731,0.129823,0.0361767,0.139951,0.000602916,1.29782,0.0931003,0.0432641,573,1268,-18.4519,0.824748
-644,-244,-18.29,0.781738,0.0123338,0.0989462,0.0365346,0.112299,-0.00101867,1.2204,0.0752076,0.0463794,580,1268,-18.2901,-0.781769
-637,-244,-18.1083,2.46167,0.012707,0.0744763,0.0342797,0.0897323,-0.00254897,1.15207,0.060689,0.0497549,587,1268,-18.1083,-2.46172
-630,-244,-15.8358,1.61755,0,0,0,0,0,0,0,-1,594,1268,-15.8358,-1.61758
-623,-244,-15.9338,1.94812,0.0109748,0.0398956,0.0254858,0.0547376,-0.00386717,1.04345,0.0378467,0.0312486,601,1268,-15.9338,-1.94817
-616,-244,-15.8145,2.41626,0.00961798,0.0251988,0.0217971,0.0405558,-0.005739,0.957027,0.0291392,0.0174421,608,1268,-15.8145,-2.41624
-609,-244,-15.8303,2.75378,0.00878916,0.0132286,0.0174342,0.0285838,-0.00656605,0.848718,0.0215801,0.0143258,615,1268,-15.8303,-2.75373
-602,-244,-15.8377,3.07996,0.00738174,0.00623744,0.0122657,0.0190886,-0.00546947,0.762092,0.0148877,0.0144094,622,1268,-15.8377,-3.0799
-595,-244,-15.8476,3.43323,0.00545076,0.00385405,0.00652472,0.0112258,-0.00192098,0.724521,0.00819954,0.01558,629,1268,-15.8476,-3.43317
-588,-244,-15.8392,3.75806,0.00414443,0.00207925,0.0031272,0.0064051,-0.000181431,0.625936,0.00433181,0.0201313,636,1268,-15.8392,-3.75808
-581,-244,-15.8393,4.07727,0.00405899,0.000802058,0.00204365,0.00504365,-0.000182601,0.448992,0.00342493,0.0177757,643,1268,-15.8393,-4.07732
-574,-244,-15.8663,4.4292,0.00465848,-3.66369e-05,0.0021618,0.00550222,-0.00088038,0.372114,0.00399408,0.0125412,650,1268,-15.8663,-4.4292
-567,-244,-15.8563,4.77698,0.00520036,-0.00024809,0.00164639,0.00565922,-0.000706948,0.271807,0.00402919,0.0101853,657,1268,-15.8562,-4.77696
-560,-244,-15.7963,5.13892,0.00520019,0.000461652,0.000912404,0.0053698,0.00029204,0.183798,0.0034866,0.0261844,664,1268,-15.7963,-5.13887
-553,-244,-15.6829,5.52563,0,0,0,0,0,0,0,-1,671,1268,-15.6829,-5.52562
-546,-244,-11.2686,4.41772,0,0,0,0,0,0,0,-1,678,1268,-11.2686,-4.41767
-539,-244,-12.8706,0.3302,0,0,0,0,0,0,0,-1,685,1268,-12.8706,-0.330156
-532,-244,-18.1502,0.816528,0,0,0,0,0,0,0,-1,692,1268,-18.1502,-0.816514
-525,-244,-23.6832,1.63928,0,0,0,0,0,0,0,-1,699,1268,-23.6832,-1.63926
-518,-244,-23.4661,1.14355,0.000347971,0.00464279,-0.00755183,0.0103466,-0.00535583,-0.92392,0.00921716,0.0456552,706,1268,-23.4661,-1.1435
-511,-244,-23.3124,0.819092,-0.000942483,0.00668608,-0.00988303,0.0134653,-0.00772174,-0.969563,0.0123813,0.0477573,713,1268,-23.3124,-0.819115
-504,-244,-23.3902,0.846313,-0.00227418,0.00955128,-0.0113841,0.0164665,-0.00918945,-1.02492,0.0150098,0.0477012,720,1268,-23.3902,-0.846304
-497,-244,-23.4858,0.854492,-0.00403555,0.0122701,-0.0120175,0.0186393,-0.0104048,-1.08344,0.0169918,0.0459107,727,1268,-23.4858,-0.854486
-490,-244,0,0,0,0,0,0,0,0,0,-1,734,1268,0,0
-483,-244,0,0,0,0,0,0,0,0,0,-1,741,1268,0,0
-476,-244,0,0,0,0,0,0,0,0,0,-1,748,1268,0,0
-469,-244,0,0,0,0,0,0,0,0,0,-1,755,1268,0,0
-462,-244,0,0,0,0,0,0,0,0,0,-1,762,1268,0,0
-455,-244,0,0,0,0,0,0,0,0,0,-1,769,1268,0,0
-448,-244,0,0,0,0,0,0,0,0,0,-1,776,1268,0,0
-441,-244,0,0,0,0,0,0,0,0,0,-1,783,1268,0,0
-434,-244,0,0,0,0,0,0,0,0,0,-1,790,1268,0,0
-427,-244,0,0,0,0,0,0,0,0,0,-1,797,1268,0,0
-420,-244,0,0,0,0,0,0,0,0,0,-1,804,1268,0,0
-413,-244,0,0,0,0,0,0,0,0,0,-1,811,1268,0,0
-406,-244,0,0,0,0,0,0,0,0,0,-1,818,1268,0,0
-399,-244,0,0,0,0,0,0,0,0,0,-1,825,1268,0,0
-392,-244,0,0,0,0,0,0,0,0,0,-1,832,1268,0,0
-385,-244,0,0,0,0,0,0,0,0,0,-1,839,1268,0,0
-378,-244,0,0,0,0,0,0,0,0,0,-1,846,1268,0,0
-371,-244,0,0,0,0,0,0,0,0,0,-1,853,1268,0,0
-364,-244,0,0,0,0,0,0,0,0,0,-1,860,1268,0,0
-357,-244,0,0,0,0,0,0,0,0,0,-1,867,1268,0,0
-350,-244,0,0,0,0,0,0,0,0,0,-1,874,1268,0,0
-343,-244,0,0,0,0,0,0,0,0,0,-1,881,1268,0,0
-336,-244,0,0,0,0,0,0,0,0,0,-1,888,1268,0,0
-329,-244,0,0,0,0,0,0,0,0,0,-1,895,1268,0,0
-322,-244,0,0,0,0,0,0,0,0,0,-1,902,1268,0,0
-315,-244,0,0,0,0,0,0,0,0,0,-1,909,1268,0,0
-308,-244,0,0,0,0,0,0,0,0,0,-1,916,1268,0,0
-301,-244,0,0,0,0,0,0,0,0,0,-1,923,1268,0,0
-294,-244,0,0,0,0,0,0,0,0,0,-1,930,1268,0,0
-287,-244,0,0,0,0,0,0,0,0,0,-1,937,1268,0,0
-280,-244,0,0,0,0,0,0,0,0,0,-1,944,1268,0,0
-273,-244,0,0,0,0,0,0,0,0,0,-1,951,1268,0,0
-266,-244,0,0,0,0,0,0,0,0,0,-1,958,1268,0,0
-259,-244,0,0,0,0,0,0,0,0,0,-1,965,1268,0,0
-252,-244,0,0,0,0,0,0,0,0,0,-1,972,1268,0,0
-245,-244,0,0,0,0,0,0,0,0,0,-1,979,1268,0,0
-238,-244,0,0,0,0,0,0,0,0,0,-1,986,1268,0,0
-231,-244,0,0,0,0,0,0,0,0,0,-1,993,1268,0,0
-224,-244,0,0,0,0,0,0,0,0,0,-1,1000,1268,0,0
-217,-244,0,0,0,0,0,0,0,0,0,-1,1007,1268,0,0
-210,-244,0,0,0,0,0,0,0,0,0,-1,1014,1268,0,0
-203,-244,0,0,0,0,0,0,0,0,0,-1,1021,1268,0,0
-196,-244,0,0,0,0,0,0,0,0,0,-1,1028,1268,0,0
-189,-244,0,0,0,0,0,0,0,0,0,-1,1035,1268,0,0
-182,-244,0,0,0,0,0,0,0,0,0,-1,1042,1268,0,0
-175,-244,0,0,0,0,0,0,0,0,0,-1,1049,1268,0,0
-168,-244,0,0,0,0,0,0,0,0,0,-1,1056,1268,0,0
-161,-244,0,0,0,0,0,0,0,0,0,-1,1063,1268,0,0
-154,-244,0,0,0,0,0,0,0,0,0,-1,1070,1268,0,0
-147,-244,0,0,0,0,0,0,0,0,0,-1,1077,1268,0,0
-140,-244,0,0,0,0,0,0,0,0,0,-1,1084,1268,0,0
-133,-244,0,0,0,0,0,0,0,0,0,-1,1091,1268,0,0
-126,-244,0,0,0,0,0,0,0,0,0,-1,1098,1268,0,0
-119,-244,0,0,0,0,0,0,0,0,0,-1,1105,1268,0,0
-112,-244,0,0,0,0,0,0,0,0,0,-1,1112,1268,0,0
-105,-244,0,0,0,0,0,0,0,0,0,-1,1119,1268,0,0
-98,-244,0,0,0,0,0,0,0,0,0,-1,1126,1268,0,0
-91,-244,0,0,0,0,0,0,0,0,0,-1,1133,1268,0,0
-84,-244,0,0,0,0,0,0,0,0,0,-1,1140,1268,0,0
-77,-244,0,0,0,0,0,0,0,0,0,-1,1147,1268,0,0
-70,-244,0,0,0,0,0,0,0,0,0,-1,1154,1268,0,0
-63,-244,0,0,0,0,0,0,0,0,0,-1,1161,1268,0,0
-56,-244,0,0,0,0,0,0,0,0,0,-1,1168,1268,0,0
-49,-244,0,0,0,0,0,0,0,0,0,-1,1175,1268,0,0
-42,-244,0,0,0,0,0,0,0,0,0,-1,1182,1268,0,0
-35,-244,0,0,0,0,0,0,0,0,0,-1,1189,1268,0,0
-28,-244,0,0,0,0,0,0,0,0,0,-1,1196,1268,0,0
-21,-244,0,0,0,0,0,0,0,0,0,-1,1203,1268,0,0
-14,-244,0,0,0,0,0,0,0,0,0,-1,1210,1268,0,0
-7,-244,0,0,0,0,0,0,0,0,0,-1,1217,1268,0,0
0,-244,0,0,0,0,0,0,0,0,0,-1,1224,1268,0,0
7,-244,0,0,0,0,0,0,0,0,0,-1,1231,1268,0,0
14,-244,0,0,0,0,0,0,0,0,0,-1,1238,1268,0,0
21,-244,0,0,0,0,0,0,0,0,0,-1,1245,1268,0,0
28,-244,0,0,0,0,0,0,0,0,0,-1,1252,1268,0,0
35,-244,0,0,0,0,0,0,0,0,0,-1,1259,1268,0,0
42,-244,0,0,0,0,0,0,0,0,0,-1,1266,1268,0,0
49,-244,0,0,0,0,0,0,0,0,0,-1,1273,1268,0,0
56,-244,0,0,0,0,0,0,0,0,0,-1,1280,1268,0,0
63,-244,0,0,0,0,0,0,0,0,0,-1,1287,1268,0,0
70,-244,0,0,0,0,0,0,0,0,0,-1,1294,1268,0,0
77,-244,0,0,0,0,0,0,0,0,0,-1,1301,1268,0,0
84,-244,0,0,0,0,0,0,0,0,0,-1,1308,1268,0,0
91,-244,0,0,0,0,0,0,0,0,0,-1,1315,1268,0,0
98,-244,0,0,0,0,0,0,0,0,0,-1,1322,1268,0,0
105,-244,0,0,0,0,0,0,0,0,0,-1,1329,1268,0,0
112,-244,0,0,0,0,0,0,0,0,0,-1,1336,1268,0,0
119,-244,0,0,0,0,0,0,0,0,0,-1,1343,1268,0,0
126,-244,0,0,0,0,0,0,0,0,0,-1,1350,1268,0,0
133,-244,0,0,0,0,0,0,0,0,0,-1,1357,1268,0,0
140,-244,0,0,0,0,0,0,0,0,0,-1,1364,1268,0,0
147,-244,0,0,0,0,0,0,0,0,0,-1,1371,1268,0,0
154,-244,0,0,0,0,0,0,0,0,0,-1,1378,1268,0,0
161,-244,0,0,0,0,0,0,0,0,0,-1,1385,1268,0,0
168,-244,0,0,0,0,0,0,0,0,0,-1,1392,1268,0,0
175,-244,0,0,0,0,0,0,0,0,0,-1,1399,1268,0,0
182,-244,0,0,0,0,0,0,0,0,0,-1,1406,1268,0,0
189,-244,0,0,0,0,0,0,0,0,0,-1,1413,1268,0,0
196,-244,0,0,0,0,0,0,0,0,0,-1,1420,1268,0,0
203,-244,0,0,0,0,0,0,0,0,0,-1,1427,1268,0,0
210,-244,0,0,0,0,0,0,0,0,0,-1,1434,1268,0,0
217,-244,0,0,0,0,0,0,0,0,0,-1,1441,1268,0,0
224,-244,0,0,0,0,0,0,0,0,0,-1,1448,1268,0,0
231,-244,0,0,0,0,0,0,0,0,0,-1,1455,1268,0,0
238,-244,0,0,0,0,0,0,0,0,0,-1,1462,1268,0,0
245,-244,0,0,0,0,0,0,0,0,0,-1,1469,1268,0,0
252,-244,0,0,0,0,0,0,0,0,0,-1,1476,1268,0,0
259,-244,0,0,0,0,0,0,0,0,0,-1,1483,1268,0,0
266,-244,0,0,0,0,0,0,0,0,0,-1,1490,1268,0,0
273,-244,0,0,0,0,0,0,0,0,0,-1,1497,1268,0,0
280,-244,0,0,0,0,0,0,0,0,0,-1,1504,1268,0,0
287,-244,0,0,0,0,0,0,0,0,0,-1,1511,1268,0,0
294,-244,0,0,0,0,0,0,0,0,0,-1,1518,1268,0,0
301,-244,0,0,0,0,0,0,0,0,0,-1,1525,1268,0,0
308,-244,0,0,0,0,0,0,0,0,0,-1,1532,1268,0,0
315,-244,0,0,0,0,0,0,0,0,0,-1,1539,1268,0,0
322,-244,0,0,0,0,0,0,0,0,0,-1,1546,1268,0,0
329,-244,0,0,0,0,0,0,0,0,0,-1,1553,1268,0,0
336,-244,0,0,0,0,0,0,0,0,0,-1,1560,1268,0,0
343,-244,0,0,0,0,0,0,0,0,0,-1,1567,1268,0,0
350,-244,0,0,0,0,0,0,0,0,0,-1,1574,1268,0,0
357,-244,0,0,0,0,0,0,0,0,0,-1,1581,1268,0,0
364,-244,0,0,0,0,0,0,0,0,0,-1,1588,1268,0,0
371,-244,0,0,0,0,0,0,0,0,0,-1,1595,1268,0,0
378,-244,0,0,0,0,0,0,0,0,0,-1,1602,1268,0,0
385,-244,0,0,0,0,0,0,0,0,0,-1,1609,1268,0,0
392,-244,0,0,0,0,0,0,0,0,0,-1,1616,1268,0,0
399,-244,0,0,0,0,0,0,0,0,0,-1,1623,1268,0,0
406,-244,0,0,0,0,0,0,0,0,0,-1,1630,1268,0,0
413,-244,0,0,0,0,0,0,0,0,0,-1,1637,1268,0,0
420,-244,0,0,0,0,0,0,0,0,0,-1,1644,1268,0,0
427,-244,0,0,0,0,0,0,0,0,0,-1,1651,1268,0,0
434,-244,0,0,0,0,0,0,0,0,0,-1,1658,1268,0,0
441,-244,0,0,0,0,0,0,0,0,0,-1,1665,1268,0,0
448,-244,0,0,0,0,0,0,0,0,0,-1,1672,1268,0,0
455,-244,0,0,0,0,0,0,0,0,0,-1,1679,1268,0,0
462,-244,0,0,0,0,0,0,0,0,0,-1,1686,1268,0,0
469,-244,0,0,0,0,0,0,0,0,0,-1,1693,1268,0,0
476,-244,0,0,0,0,0,0,0,0,0,-1,1700,1268,0,0
483,-244,0,0,0,0,0,0,0,0,0,-1,1707,1268,0,0
490,-244,0,0,0,0,0,0,0,0,0,-1,1714,1268,0,0
497,-244,0,0,0,0,0,0,0,0,0,-1,1721,1268,0,0
504,-244,0,0,0,0,0,0,0,0,0,-1,1728,1268,0,0
511,-244,0,0,0,0,0,0,0,0,0,-1,1735,1268,0,0
518,-244,0,0,0,0,0,0,0,0,0,-1,1742,1268,0,0
525,-244,0,0,0,0,0,0,0,0,0,-1,1749,1268,0,0
532,-244,0,0,0,0,0,0,0,0,0,-1,1756,1268,0,0
539,-244,0,0,0,0,0,0,0,0,0,-1,1763,1268,0,0
546,-244,0,0,0,0,0,0,0,0,0,-1,1770,1268,0,0
553,-244,0,0,0,0,0,0,0,0,0,-1,1777,1268,0,0
560,-244,0,0,0,0,0,0,0,0,0,-1,1784,1268,0,0
567,-244,0,0,0,0,0,0,0,0,0,-1,1791,1268,0,0
574,-244,0,0,0,0,0,0,0,0,0,-1,1798,1268,0,0
581,-244,0,0,0,0,0,0,0,0,0,-1,1805,1268,0,0
588,-244,0,0,0,0,0,0,0,0,0,-1,1812,1268,0,0
595,-244,0,0,0,0,0,0,0,0,0,-1,1819,1268,0,0
602,-244,0,0,0,0,0,0,0,0,0,-1,1826,1268,0,0
609,-244,0,0,0,0,0,0,0,0,0,-1,1833,1268,0,0
616,-244,33.4589,2.65527,0.00106132,0.00606158,-0.00232511,0.00697565,0.000147241,-1.19622,0.00460214,0.0338065,1840,1268,33.4588,-2.65526
623,-244,33.4366,2.69287,0.00216207,0.00798225,0.00585015,0.0116061,-0.00146182,1.0162,0.00826789,0.0278646,1847,1268,33.4367,-2.69293
630,-244,33.4755,2.86987,0.00301469,0.0103583,0.0119095,0.0191491,-0.00577616,0.934929,0.0150652,0.0256077,1854,1268,33.4754,-2.86992
637,-244,33.537,2.96155,0.00342159,0.0111728,0.0144927,0.0222992,-0.00770481,0.916049,0.0179929,0.0387002,1861,1268,33.537,-2.96155
644,-244,33.4634,2.95569,0.00347243,0.0104036,0.0139552,0.0213172,-0.00744109,0.907105,0.0172358,0.0466995,1868,1268,33.4633,-2.95569
651,-244,33.2791,2.86389,0,0,0,0,0,0,0,-1,1875,1268,33.2791,-2.8639
658,-244,33.5228,5.87671,0,0,0,0,0,0,0,-1,1882,1268,33.5228,-5.87674
665,-244,34.527,2.97107,0,0,0,0,0,0,0,-1,1889,1268,34.5269,-2.97104
672,-244,32.224,3.6123,0,0,0,0,0,0,0,-1,1896,1268,32.224,-3.6123
679,-244,26.4554,7.72754,0,0,0,0,0,0,0,-1,1903,1268,26.4554,-7.72749
686,-244,26.4486,7.72717,0.00242236,0.00368252,0.00410372,0.00720426,-0.00109937,0.861573,0.00520812,0.0477336,1910,1268,26.4486,-7.7272
693,-244,26.2977,7.40698,0.00229801,0.00297315,0.00188438,0.00454996,0.0007212,0.874028,0.00282377,0.0184311,1917,1268,26.2977,-7.40696
700,-244,26.3167,7.03687,0.00224634,0.00297958,0.000167543,0.00301605,0.00220987,1.35647,0.00180309,0.00878107,1924,1268,26.3167,-7.03687
707,-244,26.3455,6.73523,0.00184379,0.00141831,-0.00062504,0.00229131,0.0009708,-0.621366,0.00132801,0.00993476,1931,1268,26.3454,-6.73522
714,-244,26.3594,6.43164,0.00101831,0.000932898,-0.000704133,0.00168103,0.000270176,-0.755111,0.00104236,0.0125141,1938,1268,26.3593,-6.43166
721,-244,26.3076,6.15393,0.000584646,0.000675711,0.000205312,0.00084048,0.000419878,0.894518,0.000485251,0.0155787,1945,1268,26.3076,-6.15391
728,-244,26.3076,5.8468,0.000341576,0.00046066,0.0007835,0.00118688,-0.000384641,0.823323,0.000945903,0.0198887,1952,1268,26.3076,-5.84681
735,-244,26.2883,5.51123,0.000462483,0.00171192,0.00119825,0.00243852,-0.00026412,1.02569,0.00172049,0.0242542,1959,1268,26.2883,-5.51118
742,-244,26.2523,5.27368,0.000985793,0.00305275,0.00224021,0.00448638,-0.000447839,1.00152,0.00315083,0.0163209,1966,1268,26.2523,-5.27368
749,-244,26.1683,5.07019,0.00214134,0.00483145,0.00338737,0.00713104,-0.000158249,0.974392,0.00480764,0.0239504,1973,1268,26.1683,-5.07023
756,-244,26.0273,4.81909,0.0040873,0.00771005,0.005105,0.0113155,0.000481835,0.955881,0.0073883,0.0326248,1980,1268,26.0273,-4.81906
763,-244,26.056,4.30005,0.00688808,0.0120686,0.00793905,0.0178293,0.00112742,0.943089,0.0115288,0.044336,1987,1268,26.0561,-4.30011
770,-244,26.3062,3.65881,0,0,0,0,0,0,0,-1,1994,1268,26.3062,-3.65886
777,-244,25.7045,3.07898,0,0,0,0,0,0,0,-1,2001,1268,25.7045,-3.07899
784,-244,31.7908,5.20081,0,0,0,0,0,0,0,-1,2008,1268,31.7907,-5.20083
791,-244,0,0,0,0,0,0,0,0,0,-1,2015,1268,0,0
798,-244,0,0,0,0,0,0,0,0,0,-1,2022,1268,0,0
805,-244,0,0,0,0,0,0,0,0,0,-1,2029,1268,0,0
812,-244,0,0,0,0,0,0,0,0,0,-1,2036,1268,0,0
-700,-251,0,0,0,0,0,0,0,0,0,-1,524,1275,0,0
-693,-251,0,0,0,0,0,0,0,0,0,-1,531,1275,0,0
-686,-251,0,0,0,0,0,0,0,0,0,-1,538,1275,0,0
-679,-251,0,0,0,0,0,0,0,0,0,-1,545,1275,0,0
-672,-251,0,0,0,0,0,0,0,0,0,-1,552,1275,0,0
-665,-251,-16.6669,-4.16028,-0.000280842,0.207098,0.032858,0.21218,-0.00536247,1.41736,0.143274,0.0400558,559,1275,-16.6669,4.16034
-658,-251,-17.6858,-2.50256,0.00897885,0.157467,0.0450933,0.170089,-0.0036424,1.29789,0.114626,0.0405605,566,1275,-17.6858,2.50259
-651,-251,-18.3102,-0.889893,0.0138823,0.120635,0.0488421,0.139609,-0.00509167,1.20026,0.0948158,0.0435586,573,1275,-18.3102,0.889874
-644,-251,-18.4481,1.09619,0.0160316,0.0925969,0.0477128,0.115487,-0.00685824,1.12349,0.079376,0.0449589,580,1275,-18.4481,-1.09619
-637,-251,-17.7736,2.19275,0.0164369,0.0708004,0.0437329,0.0951105,-0.00787316,1.06345,0.0661877,0.0443834,587,1275,-17.7736,-2.19272
-630,-251,-15.8861,1.3175,0,0,0,0,0,0,0,-1,594,1275,-15.8861,-1.31746
-623,-251,-15.6973,1.86145,0.0141222,0.0398517,0.0317101,0.0612073,-0.00723343,0.978103,0.0434174,0.03782,601,1275,-15.6973,-1.86139
-616,-251,-15.5031,2.41333,0.012306,0.0261918,0.0266943,0.0468313,-0.00833352,0.912624,0.0343374,0.0203186,608,1275,-15.5031,-2.41331
-609,-251,-15.5063,2.73499,0.0111244,0.0151955,0.021288,0.034545,-0.00822512,0.833063,0.0262056,0.0182659,615,1275,-15.5063,-2.73503
-602,-251,-15.4976,3.07251,0.0093013,0.00831718,0.0151519,0.0239691,-0.00635065,0.769166,0.018464,0.0135237,622,1275,-15.4976,-3.07256
-595,-251,-15.4923,3.42004,0.00683318,0.00533556,0.00841534,0.014533,-0.00236422,0.741024,0.0105653,0.0126263,629,1275,-15.4923,-3.42001
-588,-251,-15.4834,3.75122,0.00497728,0.00305601,0.00416178,0.00828786,-0.000254564,0.671973,0.00561202,0.0144496,636,1275,-15.4834,-3.75126
-581,-251,-15.501,4.10779,0.00450983,0.00140126,0.00256013,0.00595056,-3.94629e-05,0.512582,0.00398026,0.0135667,643,1275,-15.501,-4.10773
-574,-251,-15.5123,4.4751,0.00513488,0.000282669,0.00257239,0.00624476,-0.000827213,0.407328,0.00446453,0.0118025,650,1275,-15.5122,-4.47514
-567,-251,-15.5228,4.80676,0.00579902,-4.04001e-05,0.00200666,0.0064221,-0.000663488,0.30107,0.00451883,0.0102178,657,1275,-15.5228,-4.80681
-560,-251,-15.4844,5.17578,0.00593571,0.000825369,0.00123706,0.00621942,0.000541662,0.22544,0.00397804,0.0229397,664,1275,-15.4844,-5.17576
-553,-251,-15.3616,5.55273,0,0,0,0,0,0,0,-1,671,1275,-15.3616,-5.55268
-546,-251,-12.995,4.5675,0,0,0,0,0,0,0,-1,678,1275,-12.995,-4.56745
-539,-251,-10.7916,0.366333,0,0,0,0,0,0,0,-1,685,1275,-10.7916,-0.366282
-532,-251,-10.7391,-0.00769043,0,0,0,0,0,0,0,-1,692,1275,-10.7391,0.00773227
-525,-251,-23.9663,1.95471,0,0,0,0,0,0,0,-1,699,1275,-23.9663,-1.95474
-518,-251,-23.3412,1.24683,0,0,0,0,0,0,0,-1,706,1275,-23.3412,-1.24682
-511,-251,-22.7161,0.53894,0,0,0,0,0,0,0,-1,713,1275,-22.7161,-0.538896
-504,-251,-23.0891,0.614746,0,0,0,0,0,0,0,-1,720,1275,-23.0891,-0.614784
-497,-251,-23.2995,0.725586,0,0,0,0,0,0,0,-1,727,1275,-23.2995,-0.72553
-490,-251,0,0,0,0,0,0,0,0,0,-1,734,1275,0,0
-483,-251,0,0,0,0,0,0,0,0,0,-1,741,1275,0,0
-476,-251,0,0,0,0,0,0,0,0,0,-1,748,1275,0,0
-469,-251,0,0,0,0,0,0,0,0,0,-1,755,1275,0,0
-462,-251,0,0,0,0,0,0,0,0,0,-1,762,1275,0,0
-455,-251,0,0,0,0,0,0,0,0,0,-1,769,1275,0,0
-448,-251,0,0,0,0,0,0,0,0,0,-1,776,1275,0,0
-441,-251,0,0,0,0,0,0,0,0,0,-1,783,1275,0,0
-434,-251,0,0,0,0,0,0,0,0,0,-1,790,1275,0,0
-427,-251,0,0,0,0,0,0,0,0,0,-1,797,1275,0,0
-420,-251,0,0,0,0,0,0,0,0,0,-1,804,1275,0,0
-413,-251,0,0,0,0,0,0,0,0,0,-1,811,1275,0,0
-406,-251,0,0,0,0,0,0,0,0,0,-1,818,1275,0,0
-399,-251,0,0,0,0,0,0,0,0,0,-1,825,1275,0,0
-392,-251,0,0,0,0,0,0,0,0,0,-1,832,1275,0,0
-385,-251,0,0,0,0,0,0,0,0,0,-1,839,1275,0,0
-378,-251,0,0,0,0,0,0,0,0,0,-1,846,1275,0,0
-371,-251,0,0,0,0,0,0,0,0,0,-1,853,1275,0,0
-364,-251,0,0,0,0,0,0,0,0,0,-1,860,1275,0,0
-357,-251,0,0,0,0,0,0,0,0,0,-1,867,1275,0,0
-350,-251,0,0,0,0,0,0,0,0,0,-1,874,1275,0,0
-343,-251,0,0,0,0,0,0,0,0,0,-1,881,1275,0,0
-336,-251,0,0,0,0,0,0,0,0,0,-1,888,1275,0,0
-329,-251,0,0,0,0,0,0,0,0,0,-1,895,1275,0,0
-322,-251,0,0,0,0,0,0,0,0,0,-1,902,1275,0,0
-315,-251,0,0,0,0,0,0,0,0,0,-1,909,1275,0,0
-308,-251,0,0,0,0,0,0,0,0,0,-1,916,1275,0,0
-301,-251,0,0,0,0,0,0,0,0,0,-1,923,1275,0,0
-294,-251,0,0,0,0,0,0,0,0,0,-1,930,1275,0,0
-287,-251,0,0,0,0,0,0,0,0,0,-1,937,1275,0,0
-280,-251,0,0,0,0,0,0,0,0,0,-1,944,1275,0,0
-273,-251,0,0,0,0,0,0,0,0,0,-1,951,1275,0,0
-266,-251,0,0,0,0,0,0,0,0,0,-1,958,1275,0,0
-259,-251,0,0,0,0,0,0,0,0,0,-1,965,1275,0,0
-252,-251,0,0,0,0,0,0,0,0,0,-1,972,1275,0,0
-245,-251,0,0,0,0,0,0,0,0,0,-1,979,1275,0,0
-238,-251,0,0,0,0,0,0,0,0,0,-1,986,1275,0,0
-231,-251,0,0,0,0,0,0,0,0,0,-1,993,1275,0,0
-224,-251,0,0,0,0,0,0,0,0,0,-1,1000,1275,0,0
-217,-251,0,0,0,0,0,0,0,0,0,-1,1007,1275,0,0
-210,-251,0,0,0,0,0,0,0,0,0,-1,1014,1275,0,0
-203,-251,0,0,0,0,0,0,0,0,0,-1,1021,1275,0,0
-196,-251,0,0,0,0,0,0,0,0,0,-1,1028,1275,0,0
-189,-251,0,0,0,0,0,0,0,0,0,-1,1035,1275,0,0
-182,-251,0,0,0,0,0,0,0,0,0,-1,1042,1275,0,0
-175,-251,0,0,0,0,0,0,0,0,0,-1,1049,1275,0,0
-168,-251,0,0,0,0,0,0,0,0,0,-1,1056,1275,0,0
-161,-251,0,0,0,0,0,0,0,0,0,-1,1063,1275,0,0
-154,-251,0,0,0,0,0,0,0,0,0,-1,1070,1275,0,0
-147,-251,0,0,0,0,0,0,0,0,0,-1,1077,1275,0,0
-140,-251,0,0,0,0,0,0,0,0,0,-1,1084,1275,0,0
-133,-251,0,0,0,0,0,0,0,0,0,-1,1091,1275,0,0
-126,-251,0,0,0,0,0,0,0,0,0,-1,1098,1275,0,0
-119,-251,0,0,0,0,0,0,0,0,0,-1,1105,1275,0,0
-112,-251,0,0,0,0,0,0,0,0,0,-1,1112,1275,0,0
-105,-251,0,0,0,0,0,0,0,0,0,-1,1119,1275,0,0
-98,-251,0,0,0,0,0,0,0,0,0,-1,1126,1275,0,0
-91,-251,0,0,0,0,0,0,0,0,0,-1,1133,1275,0,0
-84,-251,0,0,0,0,0,0,0,0,0,-1,1140,1275,0,0
-77,-251,0,0,0,0,0,0,0,0,0,-1,1147,1275,0,0
-70,-251,0,0,0,0,0,0,0,0,0,-1,1154,1275,0,0
-63,-251,0,0,0,0,0,0,0,0,0,-1,1161,1275,0,0
-56,-251,0,0,0,0,0,0,0,0,0,-1,1168,1275,0,0
-49,-251,0,0,0,0,0,0,0,0,0,-1,1175,1275,0,0
-42,-251,0,0,0,0,0,0,0,0,0,-1,1182,1275,0,0
-35,-251,0,0,0,0,0,0,0,0,0,-1,1189,1275,0,0
-28,-251,0,0,0,0,0,0,0,0,0,-1,1196,1275,0,0
-21,-251,0,0,0,0,0,0,0,0,0,-1,1203,1275,0,0
-14,-251,0,0,0,0,0,0,0,0,0,-1,1210,1275,0,0
-7,-251,0,0,0,0,0,0,0,0,0,-1,1217,1275,0,0
0,-251,0,0,0,0,0,0,0,0,0,-1,1224,1275,0,0
7,-251,0,0,0,0,0,0,0,0,0,-1,1231,1275,0,0
14,-251,0,0,0,0,0,0,0,0,0,-1,1238,1275,0,0
21,-251,0,0,0,0,0,0,0,0,0,-1,1245,1275,0,0
28,-251,0,0,0,0,0,0,0,0,0,-1,1252,1275,0,0
35,-251,0,0,0,0,0,0,0,0,0,-1,1259,1275,0,0
42,-251,0,0,0,0,0,0,0,0,0,-1,1266,1275,0,0
49,-251,0,0,0,0,0,0,0,0,0,-1,1273,1275,0,0
56,-251,0,0,0,0,0,0,0,0,0,-1,1280,1275,0,0
63,-251,0,0,0,0,0,0,0,0,0,-1,1287,1275,0,0
70,-251,0,0,0,0,0,0,0,0,0,-1,1294,1275,0,0
77,-251,0,0,0,0,0,0,0,0,0,-1,1301,1275,0,0
84,-251,0,0,0,0,0,0,0,0,0,-1,1308,1275,0,0
91,-251,0,0,0,0,0,0,0,0,0,-1,1315,1275,0,0
98,-251,0,0,0,0,0,0,0,0,0,-1,1322,1275,0,0
105,-251,0,0,0,0,0,0,0,0,0,-1,1329,1275,0,0
112,-251,0,0,0,0,0,0,0,0,0,-1,1336,1275,0,0
119,-251,0,0,0,0,0,0,0,0,0,-1,1343,1275,0,0
126,-251,0,0,0,0,0,0,0,0,0,-1,1350,1275,0,0
133,-251,0,0,0,0,0,0,0,0,0,-1,1357,1275,0,0
140,-251,0,0,0,0,0,0,0,0,0,-1,1364,1275,0,0
147,-251,0,0,0,0,0,0,0,0,0,-1,1371,1275,0,0
154,-251,0,0,0,0,0,0,0,0,0,-1,1378,1275,0,0
161,-251,0,0,0,0,0,0,0,0,0,-1,1385,1275,0,0
168,-251,0,0,0,0,0,0,0,0,0,-1,1392,1275,0,0
175,-251,0,0,0,0,0,0,0,0,0,-1,1399,1275,0,0
182,-251,0,0,0,0,0,0,0,0,0,-1,1406,1275,0,0
189,-251,0,0,0,0,0,0,0,0,0,-1,1413,1275,0,0
196,-251,0,0,0,0,0,0,0,0,0,-1,1420,1275,0,0
203,-251,0,0,0,0,0,0,0,0,0,-1,1427,1275,0,0
210,-251,0,0,0,0,0,0,0,0,0,-1,1434,1275,0,0
217,-251,0,0,0,0,0,0,0,0,0,-1,1441,1275,0,0
224,-251,0,0,0,0,0,0,0,0,0,-1,1448,1275,0,0
231,-251,0,0,0,0,0,0,0,0,0,-1,1455,1275,0,0
238,-251,0,0,0,0,0,0,0,0,0,-1,1462,1275,0,0
245,-251,0,0,0,0,0,0,0,0,0,-1,1469,1275,0,0
252,-251,0,0,0,0,0,0,0,0,0,-1,1476,1275,0,0
259,-251,0,0,0,0,0,0,0,0,0,-1,1483,1275,0,0
266,-251,0,0,0,0,0,0,0,0,0,-1,1490,1275,0,0
273,-251,0,0,0,0,0,0,0,0,0,-1,1497,1275,0,0
280,-251,0,0,0,0,0,0,0,0,0,-1,1504,1275,0,0
287,-251,0,0,0,0,0,0,0,0,0,-1,1511,1275,0,0
294,-251,0,0,0,0,0,0,0,0,0,-1,1518,1275,0,0
301,-251,0,0,0,0,0,0,0,0,0,-1,1525,1275,0,0
308,-251,0,0,0,0,0,0,0,0,0,-1,1532,1275,0,0
315,-251,0,0,0,0,0,0,0,0,0,-1,1539,1275,0,0
322,-251,0,0,0,0,0,0,0,0,0,-1,1546,1275,0,0
329,-251,0,0,0,0,0,0,0,0,0,-1,1553,1275,0,0
336,-251,0,0,0,0,0,0,0,0,0,-1,1560,1275,0,0
343,-251,0,0,0,0,0,0,0,0,0,-1,1567,1275,0,0
350,-251,0,0,0,0,0,0,0,0,0,-1,1574,1275,0,0
357,-251,0,0,0,0,0,0,0,0,0,-1,1581,1275,0,0
364,-251,0,0,0,0,0,0,0,0,0,-1,1588,1275,0,0
371,-251,0,0,0,0,0,0,0,0,0,-1,1595,1275,0,0
378,-251,0,0,0,0,0,0,0,0,0,-1,1602,1275,0,0
385,-251,0,0,0,0,0,0,0,0,0,-1,1609,1275,0,0
392,-251,0,0,0,0,0,0,0,0,0,-1,1616,1275,0,0
399,-251,0,0,0,0,0,0,0,0,0,-1,1623,1275,0,0
406,-251,0,0,0,0,0,0,0,0,0,-1,1630,1275,0,0
413,-251,0,0,0,0,0,0,0,0,0,-1,1637,1275,0,0
420,-251,0,0,0,0,0,0,0,0,0,-1,1644,1275,0,0
427,-251,0,0,0,0,0,0,0,0,0,-1,1651,1275,0,0
434,-251,0,0,0,0,0,0,0,0,0,-1,1658,1275,0,0
441,-251,0,0,0,0,0,0,0,0,0,-1,1665,1275,0,0
448,-251,0,0,0,0,0,0,0,0,0,-1,1672,1275,0,0
455,-251,0,0,0,0,0,0,0,0,0,-1,1679,1275,0,0
462,-251,0,0,0,0,0,0,0,0,0,-1,1686,1275,0,0
469,-251,0,0,0,0,0,0,0,0,0,-1,1693,1275,0,0
476,-251,0,0,0,0,0,0,0,0,0,-1,1700,1275,0,0
483,-251,0,0,0,0,0,0,0,0,0,-1,1707,1275,0,0
490,-251,0,0,0,0,0,0,0,0,0,-1,1714,1275,0,0
497,-251,0,0,0,0,0,0,0,0,0,-1,1721,1275,0,0
504,-251,0,0,0,0,0,0,0,0,0,-1,1728,1275,0,0
511,-251,0,0,0,0,0,0,0,0,0,-1,1735,1275,0,0
518,-251,0,0,0,0,0,0,0,0,0,-1,1742,1275,0,0
525,-251,0,0,0,0,0,0,0,0,0,-1,1749,1275,0,0
532,-251,0,0,0,0,0,0,0,0,0,-1,1756,1275,0,0
539,-251,0,0,0,0,0,0,0,0,0,-1,1763,1275,0,0
546,-251,0,0,0,0,0,0,0,0,0,-1,1770,1275,0,0
553,-251,0,0,0,0,0,0,0,0,0,-1,1777,1275,0,0
560,-251,0,0,0,0,0,0,0,0,0,-1,1784,1275,0,0
567,-251,0,0,0,0,0,0,0,0,0,-1,1791,1275,0,0
574,-251,0,0,0,0,0,0,0,0,0,-1,1798,1275,0,0
581,-251,0,0,0,0,0,0,0,0,0,-1,1805,1275,0,0
588,-251,0,0,0,0,0,0,0,0,0,-1,1812,1275,0,0
595,-251,0,0,0,0,0,0,0,0,0,-1,1819,1275,0,0
602,-251,0,0,0,0,0,0,0,0,0,-1,1826,1275,0,0
609,-251,33.358,2.88123,-0.000358434,0.00715701,-0.00882001,0.0129864,-0.00618784,-0.986776,0.0112998,0.0283698,1833,1275,33.358,-2.88119
616,-251,33.4202,2.78564,0.00164558,0.0105753,0.00101099,0.0106883,0.00153255,1.45946,0.00667361,0.0265825,1840,1275,33.4202,-2.7856
623,-251,33.4136,2.81665,0.003077,0.0128086,0.00995908,0.019027,-0.00314138,1.01263,0.0138511,0.024612,1847,1275,33.4135,-2.81666
630,-251,33.4973,2.88391,0.00384333,0.0144747,0.0162536,0.0262598,-0.00794171,0.94344,0.0206687,0.0360064,1854,1275,33.4973,-2.88392
637,-251,33.6975,3.03394,0.00395401,0.0139939,0.0180421,0.0277014,-0.00975346,0.921084,0.0224369,0.0405331,1861,1275,33.6976,-3.03399
644,-251,33.7175,3.87146,0.00375252,0.0123462,0.016985,0.0255694,-0.00947068,0.909289,0.02093,0.0414552,1868,1275,33.7175,-3.87144
651,-251,33.5105,4.79431,0.0035497,0.0106278,0.0149647,0.0224663,-0.00828879,0.901511,0.0183746,0.0451652,1875,1275,33.5105,-4.79427
658,-251,33.4642,5.83972,0.00341894,0.0091088,0.0129879,0.0195597,-0.00703195,0.893218,0.0159105,0.0490129,1882,1275,33.4643,-5.83973
665,-251,33.6829,6.76099,0,0,0,0,0,0,0,-1,1889,1275,33.6829,-6.76097
672,-251,26.0721,4.53064,0,0,0,0,0,0,0,-1,1896,1275,26.0721,-4.53063
679,-251,25.8551,7.78284,0,0,0,0,0,0,0,-1,1903,1275,25.8551,-7.78287
686,-251,25.9631,7.64966,0.00211363,0.00354365,0.00583608,0.00870835,-0.00305107,0.846352,0.00704633,0.0438089,1910,1275,25.9632,-7.6497
693,-251,26.0385,7.38318,0.00194933,0.00261001,0.00320951,0.00550614,-0.000946796,0.83668,0.00402366,0.011488,1917,1275,26.0385,-7.38322
700,-251,26.0289,7.05151,0.00184722,0.00256375,0.00108807,0.00335103,0.00105995,0.944441,0.00197776,0.00859861,1924,1275,26.029,-7.05152
707,-251,26.0507,6.7406,0.00140287,0.00108755,1.13233e-05,0.00140327,0.00108714,0.0358489,0.000849967,0.0108574,1931,1275,26.0507,-6.7406
714,-251,26.0474,6.44751,0.000609707,0.000707243,-0.000299005,0.000961431,0.00035552,-0.866237,0.000561322,0.0131868,1938,1275,26.0474,-6.44747
721,-251,25.9856,6.15381,0.000190293,0.000558491,0.000361839,0.000780372,-3.15876e-05,1.02072,0.000531091,0.0155069,1945,1275,25.9856,-6.15377
728,-251,25.9768,5.85571,-0.000131028,0.000506225,0.000749503,0.00100202,-0.00062682,0.986383,0.00094869,0.0174205,1952,1275,25.9768,-5.85573
735,-251,25.9749,5.52112,-0.000167348,0.00159186,0.00106669,0.00209484,-0.000670325,1.13018,0.00166559,0.0158214,1959,1275,25.9748,-5.52116
742,-251,25.9308,5.30896,0.000142656,0.0029472,0.00187314,0.0038848,-0.000794948,1.10671,0.00289151,0.0173768,1966,1275,25.9308,-5.30891
749,-251,25.7523,5.14709,0.0010358,0.00484527,0.00270324,0.00624743,-0.000366355,1.09231,0.00429229,0.0342633,1973,1275,25.7523,-5.14705
756,-251,25.5803,4.82703,0.00273617,0.00793181,0.00397381,0.0100816,0.000586378,1.0749,0.00653438,0.0494494,1980,1275,25.5803,-4.82699
763,-251,25.5641,4.34937,0.00531389,0.012838,0.00620723,0.0163342,0.00181764,1.05783,0.010337,0.0485051,1987,1275,25.5641,-4.34938
770,-251,25.9749,3.75854,0,0,0,0,0,0,0,-1,1994,1275,25.9749,-3.75852
777,-251,31.5731,4.33252,0,0,0,0,0,0,0,-1,2001,1275,31.5731,-4.33251
784,-251,32.0776,5.78247,0,0,0,0,0,0,0,-1,2008,1275,32.0776,-5.78247
791,-251,0,0,0,0,0,0,0,0,0,-1,2015,1275,0,0
798,-251,0,0,0,0,0,0,0,0,0,-1,2022,1275,0,0
805,-251,0,0,0,0,0,0,0,0,0,-1,2029,1275,0,0
812,-251,0,0,0,0,0,0,0,0,0,-1,2036,1275,0,0
-700,-258,0,0,0,0,0,0,0,0,0,-1,524,1282,0,0
-693,-258,0,0,0,0,0,0,0,0,0,-1,531,1282,0,0
-686,-258,0,0,0,0,0,0,0,0,0,-1,538,1282,0,0
-679,-258,0,0,0,0,0,0,0,0,0,-1,545,1282,0,0
-672,-258,0,0,0,0,0,0,0,0,0,-1,552,1282,0,0
-665,-258,-16.0674,-4.2583,0.00123098,0.189821,0.048655,0.201634,-0.0105818,1.33262,0.138085,0.0411398,559,1282,-16.0674,4.25826
-658,-258,-16.9529,-2.6991,0.0133005,0.142306,0.0620547,0.16731,-0.0117031,1.18777,0.115639,0.045168,566,1282,-16.9529,2.69915
-651,-258,-17.6362,-0.893677,0.0191987,0.109388,0.0643815,0.142897,-0.0143102,1.0909,0.100375,0.0499762,573,1282,-17.6362,0.893737
-644,-258,-18.0355,1.09949,0.0213396,0.0855493,0.0608275,0.122225,-0.0153356,1.02822,0.0870464,0.0488836,580,1282,-18.0354,-1.09943
-637,-258,-18.5416,2.98352,0.0213134,0.0672181,0.0544046,0.103314,-0.0147823,0.985012,0.0742951,0.04483,587,1282,-18.5416,-2.98357
-630,-258,-15.7276,1.24341,0,0,0,0,0,0,0,-1,594,1282,-15.7276,-1.24342
-623,-258,-15.5085,1.81018,0,0,0,0,0,0,0,-1,601,1282,-15.5085,-1.81015
-616,-258,-15.2894,2.37683,0,0,0,0,0,0,0,-1,608,1282,-15.2894,-2.37687
-609,-258,-15.1453,2.73303,0.0136056,0.0176421,0.0250176,0.0407228,-0.00947499,0.825648,0.0307966,0.0155219,615,1282,-15.1453,-2.733
-602,-258,-15.1306,3.09045,0.0112568,0.0108648,0.0179253,0.0289872,-0.00686562,0.779931,0.0219738,0.0128382,622,1282,-15.1306,-3.09051
-595,-258,-15.1471,3.4259,0.00817839,0.00721616,0.0102675,0.0179761,-0.0025815,0.761986,0.0129307,0.0108337,629,1282,-15.1471,-3.42596
-588,-258,-15.1446,3.7688,0.00565557,0.00438229,0.00516953,0.0102275,-0.000189654,0.72413,0.00688243,0.0118558,636,1282,-15.1446,-3.76877
-581,-258,-15.1565,4.12085,0.0045751,0.00232276,0.00290841,0.00656776,0.000330095,0.600681,0.00427273,0.0146193,643,1282,-15.1565,-4.12083
-574,-258,-15.1552,4.47498,0.00500374,0.000964866,0.00272291,0.00637435,-0.000405735,0.466331,0.00439106,0.0144943,650,1282,-15.1551,-4.47492
-567,-258,-15.208,4.823,0.00567273,0.000428388,0.00212395,0.00642501,-0.000323897,0.340404,0.00439529,0.0134663,657,1282,-15.208,-4.82301
-560,-258,-15.1819,5.15198,0.00603311,0.00126738,0.00141657,0.00642238,0.000878118,0.268176,0.00402097,0.0273982,664,1282,-15.182,-5.15192
-553,-258,-15.0895,5.49768,0,0,0,0,0,0,0,-1,671,1282,-15.0895,-5.49768
-546,-258,-14.2231,5.92029,0,0,0,0,0,0,0,-1,678,1282,-14.2231,-5.92028
-539,-258,-10.2228,4.05823,0,0,0,0,0,0,0,-1,685,1282,-10.2228,-4.05823
-532,-258,-10.2173,-0.353882,0,0,0,0,0,0,0,-1,692,1282,-10.2173,0.353836
-525,-258,-21.6813,0.309937,0,0,0,0,0,0,0,-1,699,1282,-21.6813,-0.309884
-518,-258,-23.5491,1.54407,0,0,0,0,0,0,0,-1,706,1282,-23.5491,-1.54401
-511,-258,-21.2615,0.331787,0,0,0,0,0,0,0,-1,713,1282,-21.2615,-0.331818
-504,-258,-21.2349,0.4823,0,0,0,0,0,0,0,-1,720,1282,-21.2349,-0.482245
-497,-258,-17.8047,0.730469,0,0,0,0,0,0,0,-1,727,1282,-17.8048,-0.730489
-490,-258,-15.4346,0.632935,0,0,0,0,0,0,0,-1,734,1282,-15.4346,-0.632917
-483,-258,0,0,0,0,0,0,0,0,0,-1,741,1282,0,0
-476,-258,0,0,0,0,0,0,0,0,0,-1,748,1282,0,0
-469,-258,0,0,0,0,0,0,0,0,0,-1,755,1282,0,0
-462,-258,0,0,0,0,0,0,0,0,0,-1,762,1282,0,0
-455,-258,0,0,0,0,0,0,0,0,0,-1,769,1282,0,0
-448,-258,0,0,0,0,0,0,0,0,0,-1,776,1282,0,0
-441,-258,0,0,0,0,0,0,0,0,0,-1,783,1282,0,0
-434,-258,0,0,0,0,0,0,0,0,0,-1,790,1282,0,0
-427,-258,0,0,0,0,0,0,0,0,0,-1,797,1282,0,0
-420,-258,0,0,0,0,0,0,0,0,0,-1,804,1282,0,0
-413,-258,0,0,0,0,0,0,0,0,0,-1,811,1282,0,0
-406,-258,0,0,0,0,0,0,0,0,0,-1,818,1282,0,0
-399,-258,0,0,0,0,0,0,0,0,0,-1,825,1282,0,0
-392,-258,0,0,0,0,0,0,0,0,0,-1,832,1282,0,0
-385,-258,0,0,0,0,0,0,0,0,0,-1,839,1282,0,0
-378,-258,0,0,0,0,0,0,0,0,0,-1,846,1282,0,0
-371,-258,0,0,0,0,0,0,0,0,0,-1,853,1282,0,0
-364,-258,0,0,0,0,0,0,0,0,0,-1,860,1282,0,0
-357,-258,0,0,0,0,0,0,0,0,0,-1,867,1282,0,0
-350,-258,0,0,0,0,0,0,0,0,0,-1,874,1282,0,0
-343,-258,0,0,0,0,0,0,0,0,0,-1,881,1282,0,0
-336,-258,0,0,0,0,0,0,0,0,0,-1,888,1282,0,0
-329,-258,0,0,0,0,0,0,0,0,0,-1,895,1282,0,0
-322,-258,0,0,0,0,0,0,0,0,0,-1,902,1282,0,0
-315,-258,0,0,0,0,0,0,0,0,0,-1,909,1282,0,0
-308,-258,0,0,0,0,0,0,0,0,0,-1,916,1282,0,0
-301,-258,0,0,0,0,0,0,0,0,0,-1,923,1282,0,0
-294,-258,0,0,0,0,0,0,0,0,0,-1,930,1282,0,0
-287,-258,0,0,0,0,0,0,0,0,0,-1,937,1282,0,0
-280,-258,0,0,0,0,0,0,0,0,0,-1,944,1282,0,0
-273,-258,0,0,0,0,0,0,0,0,0,-1,951,1282,0,0
-266,-258,0,0,0,0,0,0,0,0,0,-1,958,1282,0,0
-259,-258,0,0,0,0,0,0,0,0,0,-1,965,1282,0,0
-252,-258,0,0,0,0,0,0,0,0,0,-1,972,1282,0,0
-245,-258,0,0,0,0,0,0,0,0,0,-1,979,1282,0,0
-238,-258,0,0,0,0,0,0,0,0,0,-1,986,1282,0,0
-231,-258,0,0,0,0,0,0,0,0,0,-1,993,1282,0,0
-224,-258,0,0,0,0,0,0,0,0,0,-1,1000,1282,0,0
-217,-258,0,0,0,0,0,0,0,0,0,-1,1007,1282,0,0
-210,-258,0,0,0,0,0,0,0,0,0,-1,1014,1282,0,0
-203,-258,0,0,0,0,0,0,0,0,0,-1,1021,1282,0,0
-196,-258,0,0,0,0,0,0,0,0,0,-1,1028,1282,0,0
-189,-258,0,0,0,0,0,0,0,0,0,-1,1035,1282,0,0
-182,-258,0,0,0,0,0,0,0,0,0,-1,1042,1282,0,0
-175,-258,0,0,0,0,0,0,0,0,0,-1,1049,1282,0,0
-168,-258,0,0,0,0,0,0,0,0,0,-1,1056,1282,0,0
-161,-258,0,0,0,0,0,0,0,0,0,-1,1063,1282,0,0
-154,-258,0,0,0,0,0,0,0,0,0,-1,1070,1282,0,0
-147,-258,0,0,0,0,0,0,0,0,0,-1,1077,1282,0,0
-140,-258,0,0,0,0,0,0,0,0,0,-1,1084,1282,0,0
-133,-258,0,0,0,0,0,0,0,0,0,-1,1091,1282,0,0
-126,-258,0,0,0,0,0,0,0,0,0,-1,1098,1282,0,0
-119,-258,0,0,0,0,0,0,0,0,0,-1,1105,1282,0,0
-112,-258,0,0,0,0,0,0,0,0,0,-1,1112,1282,0,0
-105,-258,0,0,0,0,0,0,0,0,0,-1,1119,1282,0,0
-98,-258,0,0,0,0,0,0,0,0,0,-1,1126,1282,0,0
-91,-258,0,0,0,0,0,0,0,0,0,-1,1133,1282,0,0
-84,-258,0,0,0,0,0,0,0,0,0,-1,1140,1282,0,0
-77,-258,0,0,0,0,0,0,0,0,0,-1,1147,1282,0,0
-70,-258,0,0,0,0,0,0,0,0,0,-1,1154,1282,0,0
-63,-258,0,0,0,0,0,0,0,0,0,-1,1161,1282,0,0
-56,-258,0,0,0,0,0,0,0,0,0,-1,1168,1282,0,0
-49,-258,0,0,0,0,0,0,0,0,0,-1,1175,1282,0,0
-42,-258,0,0,0,0,0,0,0,0,0,-1,1182,1282,0,0
-35,-258,0,0,0,0,0,0,0,0,0,-1,1189,1282,0,0
-28,-258,0,0,0,0,0,0,0,0,0,-1,1196,1282,0,0
-21,-258,0,0,0,0,0,0,0,0,0,-1,1203,1282,0,0
-14,-258,0,0,0,0,0,0,0,0,0,-1,1210,1282,0,0
-7,-258,0,0,0,0,0,0,0,0,0,-1,1217,1282,0,0
0,-258,0,0,0,0,0,0,0,0,0,-1,1224,1282,0,0
7,-258,0,0,0,0,0,0,0,0,0,-1,1231,1282,0,0
14,-258,0,0,0,0,0,0,0,0,0,-1,1238,1282,0,0
21,-258,0,0,0,0,0,0,0,0,0,-1,1245,1282,0,0
28,-258,0,0,0,0,0,0,0,0,0,-1,1252,1282,0,0
35,-258,0,0,0,0,0,0,0,0,0,-1,1259,1282,0,0
42,-258,0,0,0,0,0,0,0,0,0,-1,1266,1282,0,0
49,-258,0,0,0,0,0,0,0,0,0,-1,1273,1282,0,0
56,-258,0,0,0,0,0,0,0,0,0,-1,1280,1282,0,0
63,-258,0,0,0,0,0,0,0,0,0,-1,1287,1282,0,0
70,-258,0,0,0,0,0,0,0,0,0,-1,1294,1282,0,0
77,-258,0,0,0,0,0,0,0,0,0,-1,1301,1282,0,0
84,-258,0,0,0,0,0,0,0,0,0,-1,1308,1282,0,0
91,-258,0,0,0,0,0,0,0,0,0,-1,1315,1282,0,0
98,-258,0,0,0,0,0,0,0,0,0,-1,1322,1282,0,0
105,-258,0,0,0,0,0,0,0,0,0,-1,1329,1282,0,0
112,-258,0,0,0,0,0,0,0,0,0,-1,1336,1282,0,0
119,-258,0,0,0,0,0,0,0,0,0,-1,1343,1282,0,0
126,-258,0,0,0,0,0,0,0,0,0,-1,1350,1282,0,0
133,-258,0,0,0,0,0,0,0,0,0,-1,1357,1282,0,0
140,-258,0,0,0,0,0,0,0,0,0,-1,1364,1282,0,0
147,-258,0,0,0,0,0,0,0,0,0,-1,1371,1282,0,0
154,-258,0,0,0,0,0,0,0,0,0,-1,1378,1282,0,0
161,-258,0,0,0,0,0,0,0,0,0,-1,1385,1282,0,0
168,-258,0,0,0,0,0,0,0,0,0,-1,1392,1282,0,0
175,-258,0,0,0,0,0,0,0,0,0,-1,1399,1282,0,0
182,-258,0,0,0,0,0,0,0,0,0,-1,1406,1282,0,0
189,-258,0,0,0,0,0,0,0,0,0,-1,1413,1282,0,0
196,-258,0,0,0,0,0,0,0,0,0,-1,1420,1282,0,0
203,-258,0,0,0,0,0,0,0,0,0,-1,1427,1282,0,0
210,-258,0,0,0,0,0,0,0,0,0,-1,1434,1282,0,0
217,-258,0,0,0,0,0,0,0,0,0,-1,1441,1282,0,0
224,-258,0,0,0,0,0,0,0,0,0,-1,1448,1282,0,0
231,-258,0,0,0,0,0,0,0,0,0,-1,1455,1282,0,0
238,-258,0,0,0,0,0,0,0,0,0,-1,1462,1282,0,0
245,-258,0,0,0,0,0,0,0,0,0,-1,1469,1282,0,0
252,-258,0,0,0,0,0,0,0,0,0,-1,1476,1282,0,0
259,-258,0,0,0,0,0,0,0,0,0,-1,1483,1282,0,0
266,-258,0,0,0,0,0,0,0,0,0,-1,1490,1282,0,0
273,-258,0,0,0,0,0,0,0,0,0,-1,1497,1282,0,0
280,-258,0,0,0,0,0,0,0,0,0,-1,1504,1282,0,0
287,-258,0,0,0,0,0,0,0,0,0,-1,1511,1282,0,0
294,-258,0,0,0,0,0,0,0,0,0,-1,1518,1282,0,0
301,-258,0,0,0,0,0,0,0,0,0,-1,1525,1282,0,0
308,-258,0,0,0,0,0,0,0,0,0,-1,1532,1282,0,0
315,-258,0,0,0,0,0,0,0,0,0,-1,1539,1282,0,0
322,-258,0,0,0,0,0,0,0,0,0,-1,1546,1282,0,0
329,-258,0,0,0,0,0,0,0,0,0,-1,1553,1282,0,0
336,-258,0,0,0,0,0,0,0,0,0,-1,1560,1282,0,0
343,-258,0,0,0,0,0,0,0,0,0,-1,1567,1282,0,0
350,-258,0,0,0,0,0,0,0,0,0,-1,1574,1282,0,0
357,-258,0,0,0,0,0,0,0,0,0,-1,1581,1282,0,0
364,-258,0,0,0,0,0,0,0,0,0,-1,1588,1282,0,0
371,-258,0,0,0,0,0,0,0,0,0,-1,1595,1282,0,0
378,-258,0,0,0,0,0,0,0,0,0,-1,1602,1282,0,0
385,-258,0,0,0,0,0,0,0,0,0,-1,1609,1282,0,0
392,-258,0,0,0,0,0,0,0,0,0,-1,1616,1282,0,0
399,-258,0,0,0,0,0,0,0,0,0,-1,1623,1282,0,0
406,-258,0,0,0,0,0,0,0,0,0,-1,1630,1282,0,0
413,-258,0,0,0,0,0,0,0,0,0,-1,1637,1282,0,0
420,-258,0,0,0,0,0,0,0,0,0,-1,1644,1282,0,0
427,-258,0,0,0,0,0,0,0,0,0,-1,1651,1282,0,0
434,-258,0,0,0,0,0,0,0,0,0,-1,1658,1282,0,0
441,-258,0,0,0,0,0,0,0,0,0,-1,1665,1282,0,0
448,-258,0,0,0,0,0,0,0,0,0,-1,1672,1282,0,0
455,-258,0,0,0,0,0,0,0,0,0,-1,1679,1282,0,0
462,-258,0,0,0,0,0,0,0,0,0,-1,1686,1282,0,0
469,-258,0,0,0,0,0,0,0,0,0,-1,1693,1282,0,0
476,-258,0,0,0,0,0,0,0,0,0,-1,1700,1282,0,0
483,-258,0,0,0,0,0,0,0,0,0,-1,1707,1282,0,0
490,-258,0,0,0,0,0,0,0,0,0,-1,1714,1282,0,0
497,-258,0,0,0,0,0,0,0,0,0,-1,1721,1282,0,0
504,-258,0,0,0,0,0,0,0,0,0,-1,1728,1282,0,0
511,-258,0,0,0,0,0,0,0,0,0,-1,1735,1282,0,0
518,-258,0,0,0,0,0,0,0,0,0,-1,1742,1282,0,0
525,-258,0,0,0,0,0,0,0,0,0,-1,1749,1282,0,0
532,-258,0,0,0,0,0,0,0,0,0,-1,1756,1282,0,0
539,-258,0,0,0,0,0,0,0,0,0,-1,1763,1282,0,0
546,-258,0,0,0,0,0,0,0,0,0,-1,1770,1282,0,0
553,-258,0,0,0,0,0,0,0,0,0,-1,1777,1282,0,0
560,-258,0,0,0,0,0,0,0,0,0,-1,1784,1282,0,0
567,-258,0,0,0,0,0,0,0,0,0,-1,1791,1282,0,0
574,-258,0,0,0,0,0,0,0,0,0,-1,1798,1282,0,0
581,-258,0,0,0,0,0,0,0,0,0,-1,1805,1282,0,0
588,-258,0,0,0,0,0,0,0,0,0,-1,1812,1282,0,0
595,-258,0,0,0,0,0,0,0,0,0,-1,1819,1282,0,0
602,-258,0,0,0,0,0,0,0,0,0,-1,1826,1282,0,0
609,-258,33.4028,2.83704,0.0001913,0.0125138,-0.00541446,0.0145548,-0.00184973,-1.21031,0.0103749,0.0245579,1833,1282,33.4029,-2.83706
616,-258,33.3837,2.86523,0.00280079,0.0165431,0.00521582,0.0182985,0.00104538,1.24615,0.0118659,0.0242986,1840,1282,33.3837,-2.86524
623,-258,33.3365,2.82007,0.00435959,0.018546,0.0142997,0.0274151,-0.00450955,1.01563,0.0199505,0.0355638,1847,1282,33.3365,-2.82003
630,-258,33.3383,2.65027,0.00486218,0.0188866,0.0198707,0.0329461,-0.00919724,0.955023,0.0255868,0.0442638,1854,1282,33.3383,-2.65032
637,-258,33.5187,3.06982,0.00463017,0.0169991,0.0206928,0.0324118,-0.0107826,0.930608,0.0259596,0.0434089,1861,1282,33.5187,-3.06984
644,-258,33.5104,3.79541,0.00415773,0.0144576,0.0192329,0.0292181,-0.0106028,0.916213,0.0238132,0.0444335,1868,1282,33.5104,-3.79537
651,-258,33.5499,4.50354,0.00371736,0.0120855,0.017012,0.0254204,-0.00961756,0.905979,0.0209038,0.0475151,1875,1282,33.5499,-4.50354
658,-258,33.4734,5.80151,0.00344314,0.0101383,0.0149248,0.0220864,-0.00850492,0.895721,0.0182329,0.0481486,1882,1282,33.4734,-5.80147
665,-258,33.1113,7.05457,0,0,0,0,0,0,0,-1,1889,1282,33.1113,-7.05452
672,-258,22.703,2.80957,0,0,0,0,0,0,0,-1,1896,1282,22.703,-2.80962
679,-258,25.4813,8.06384,0,0,0,0,0,0,0,-1,1903,1282,25.4813,-8.06386
686,-258,25.6498,7.72803,0.00172779,0.00315216,0.00715732,0.00963264,-0.00475269,0.834987,0.00846317,0.0463139,1910,1282,25.6498,-7.72802
693,-258,25.7615,7.3772,0.00150613,0.00199721,0.00414979,0.00590872,-0.00240537,0.814948,0.00494015,0.0112868,1917,1282,25.7615,-7.37722
700,-258,25.7299,7.05054,0.00134511,0.00192552,0.00174157,0.0034009,-0.000130269,0.867957,0.00231191,0.00884529,1924,1282,25.7298,-7.05055
707,-258,25.7408,6.73755,0.000884803,0.000655917,0.000501762,0.00128501,0.000255712,0.673275,0.000785434,0.0101395,1931,1282,25.7409,-6.7375
714,-258,25.735,6.4491,0.00016591,0.00041936,5.59719e-05,0.00043117,0.000154099,1.36284,0.000252288,0.0103963,1938,1282,25.735,-6.44915
721,-258,25.7117,6.13855,-0.000229784,0.000374468,0.000507002,0.000662538,-0.000517854,1.0541,0.000683204,0.0133176,1945,1282,25.7117,-6.1385
728,-258,25.6814,5.86963,-0.000604132,0.000439898,0.000745474,0.000827955,-0.000992189,1.09084,0.00105229,0.013184,1952,1282,25.6814,-5.86958
735,-258,25.6808,5.56982,-0.000763046,0.00133717,0.000950545,0.00170349,-0.00112936,1.20296,0.00164671,0.014732,1959,1282,25.6808,-5.56984
742,-258,25.6642,5.30139,-0.000585833,0.00251107,0.00152646,0.00313697,-0.00121173,1.18167,0.00259144,0.0179335,1966,1282,25.6642,-5.30137
749,-258,25.5175,5.09094,0.000154953,0.00416752,0.00207201,0.0050454,-0.000722929,1.17004,0.00362866,0.0366357,1973,1282,25.5174,-5.09093
756,-258,25.3529,4.74524,0.00169056,0.00691135,0.00292014,0.00821777,0.000384146,1.15012,0.00535506,0.0466786,1980,1282,25.3529,-4.74528
763,-258,25.2129,4.36353,0,0,0,0,0,0,0,-1,1987,1282,25.2129,-4.36347
770,-258,25.4838,3.77942,0,0,0,0,0,0,0,-1,1994,1282,25.4837,-3.77937
777,-258,31.912,4.83093,0,0,0,0,0,0,0,-1,2001,1282,31.912,-4.8309
784,-258,32.6525,6.43091,0,0,0,0,0,0,0,-1,2008,1282,32.6525,-6.43091
791,-258,0,0,0,0,0,0,0,0,0,-1,2015,1282,0,0
798,-258,0,0,0,0,0,0,0,0,0,-1,2022,1282,0,0
805,-258,0,0,0,0,0,0,0,0,0,-1,2029,1282,0,0
812,-258,0,0,0,0,0,0,0,0,0,-1,2036,1282,0,0
-700,-265,0,0,0,0,0,0,0,0,0,-1,524,1289,0,0
-693,-265,0,0,0,0,0,0,0,0,0,-1,531,1289,0,0
-686,-265,0,0,0,0,0,0,0,0,0,-1,538,1289,0,0
-679,-265,0,0,0,0,0,0,0,0,0,-1,545,1289,0,0
-672,-265,0,0,0,0,0,0,0,0,0,-1,552,1289,0,0
-665,-265,-15.6186,-4.98816,0,0,0,0,0,0,0,-1,559,1289,-15.6186,4.98822
-658,-265,-16.6535,-3.27991,0,0,0,0,0,0,0,-1,566,1289,-16.6535,3.27986
-651,-265,-16.8848,-1.04126,0.0277872,0.0961133,0.0828831,0.151598,-0.0276975,0.980881,0.111451,0.0487943,573,1289,-16.8848,1.04131
-644,-265,-17.0265,1.20618,0.0291416,0.0781914,0.0755651,0.133112,-0.0257788,0.942312,0.0984654,0.0477449,580,1289,-17.0265,-1.20622
-637,-265,-17.1495,3.34912,0.0279563,0.0642126,0.0658132,0.114349,-0.0221798,0.91979,0.0846005,0.0476684,587,1289,-17.1495,-3.34908
-630,-265,-17.3344,5.50085,0,0,0,0,0,0,0,-1,594,1289,-17.3344,-5.5009
-623,-265,-15.3612,1.74475,0,0,0,0,0,0,0,-1,601,1289,-15.3612,-1.7448
-616,-265,-14.7694,2.23425,0,0,0,0,0,0,0,-1,608,1289,-14.7694,-2.23421
-609,-265,-14.7468,2.6853,0.0162632,0.0206638,0.0285427,0.0470909,-0.0101639,0.823866,0.0352734,0.0165409,615,1289,-14.7468,-2.68528
-602,-265,-14.771,3.10107,0.0132587,0.0138489,0.0205132,0.0340691,-0.00696156,0.79259,0.0253539,0.0135881,622,1289,-14.771,-3.10112
-595,-265,-14.7997,3.44629,0.00951302,0.0094089,0.0120022,0.0214633,-0.00254139,0.783229,0.0152269,0.0112144,629,1289,-14.7997,-3.44624
-588,-265,-14.8128,3.77539,0.00629188,0.00591117,0.00607901,0.0121835,1.95354e-05,0.769747,0.00811584,0.0105561,636,1289,-14.8128,-3.77539
-581,-265,-14.8187,4.12769,0.0045657,0.00333384,0.00310308,0.00711339,0.000786146,0.687427,0.00450314,0.0129243,643,1289,-14.8187,-4.1277
-574,-265,-14.8474,4.50916,0.00471895,0.00161952,0.00265526,0.00624365,9.48168e-05,0.521247,0.00413119,0.0142374,650,1289,-14.8473,-4.50913
-567,-265,-14.9019,4.87,0.00527785,0.000698754,0.00204679,0.00605936,-8.27543e-05,0.364737,0.00406744,0.0198234,657,1289,-14.9018,-4.86994
-560,-265,-14.89,5.1842,0.00583346,0.00117213,0.00148904,0.00626852,0.000737069,0.284263,0.00395628,0.0213672,664,1289,-14.89,-5.18422
-553,-265,-14.7466,5.57068,0.0057222,0.00141278,0.000634701,0.00581374,0.00132124,0.143231,0.00351908,0.0381362,671,1289,-14.7466,-5.57069
-546,-265,-14.589,6.05029,0,0,0,0,0,0,0,-1,678,1289,-14.589,-6.05035
-539,-265,-13.7668,6.39917,0,0,0,0,0,0,0,-1,685,1289,-13.7668,-6.39915
-532,-265,-8.53998,3.41467,0,0,0,0,0,0,0,-1,692,1289,-8.53996,-3.41473
-525,-265,-12.1317,0.514648,0,0,0,0,0,0,0,-1,699,1289,-12.1317,-0.514634
-518,-265,-20.9868,-0.344238,0,0,0,0,0,0,0,-1,706,1289,-20.9868,0.344242
-511,-265,-20.9741,-0.0380859,0,0,0,0,0,0,0,-1,713,1289,-20.9741,0.0380649
-504,-265,-20.9614,0.268066,0,0,0,0,0,0,0,-1,720,1289,-20.9613,-0.268112
-497,-265,-18.689,-0.278442,0,0,0,0,0,0,0,-1,727,1289,-18.689,0.278423
-490,-265,-15.1696,0.492676,0,0,0,0,0,0,0,-1,734,1289,-15.1696,-0.492688
-483,-265,0,0,0,0,0,0,0,0,0,-1,741,1289,0,0
-476,-265,0,0,0,0,0,0,0,0,0,-1,748,1289,0,0
-469,-265,0,0,0,0,0,0,0,0,0,-1,755,1289,0,0
-462,-265,0,0,0,0,0,0,0,0,0,-1,762,1289,0,0
-455,-265,0,0,0,0,0,0,0,0,0,-1,769,1289,0,0
-448,-265,0,0,0,0,0,0,0,0,0,-1,776,1289,0,0
-441,-265,0,0,0,0,0,0,0,0,0,-1,783,1289,0,0
-434,-265,0,0,0,0,0,0,0,0,0,-1,790,1289,0,0
-427,-265,0,0,0,0,0,0,0,0,0,-1,797,1289,0,0
-420,-265,0,0,0,0,0,0,0,0,0,-1,804,1289,0,0
-413,-265,0,0,0,0,0,0,0,0,0,-1,811,1289,0,0
-406,-265,0,0,0,0,0,0,0,0,0,-1,818,1289,0,0
-399,-265,0,0,0,0,0,0,0,0,0,-1,825,1289,0,0
-392,-265,0,0,0,0,0,0,0,0,0,-1,832,1289,0,0
-385,-265,0,0,0,0,0,0,0,0,0,-1,839,1289,0,0
-378,-265,0,0,0,0,0,0,0,0,0,-1,846,1289,0,0
-371,-265,0,0,0,0,0,0,0,0,0,-1,853,1289,0,0
-364,-265,0,0,0,0,0,0,0,0,0,-1,860,1289,0,0
-357,-265,0,0,0,0,0,0,0,0,0,-1,867,1289,0,0
-350,-265,0,0,0,0,0,0,0,0,0,-1,874,1289,0,0
-343,-265,0,0,0,0,0,0,0,0,0,-1,881,1289,0,0
-336,-265,0,0,0,0,0,0,0,0,0,-1,888,1289,0,0
-329,-265,0,0,0,0,0,0,0,0,0,-1,895,1289,0,0
-322,-265,0,0,0,0,0,0,0,0,0,-1,902,1289,0,0
-315,-265,0,0,0,0,0,0,0,0,0,-1,909,1289,0,0
-308,-265,0,0,0,0,0,0,0,0,0,-1,916,1289,0,0
-301,-265,0,0,0,0,0,0,0,0,0,-1,923,1289,0,0
-294,-265,0,0,0,0,0,0,0,0,0,-1,930,1289,0,0
-287,-265,0,0,0,0,0,0,0,0,0,-1,937,1289,0,0
-280,-265,0,0,0,0,0,0,0,0,0,-1,944,1289,0,0
-273,-265,0,0,0,0,0,0,0,0,0,-1,951,1289,0,0
-266,-265,0,0,0,0,0,0,0,0,0,-1,958,1289,0,0
-259,-265,0,0,0,0,0,0,0,0,0,-1,965,1289,0,0
-252,-265,0,0,0,0,0,0,0,0,0,-1,972,1289,0,0
-245,-265,0,0,0,0,0,0,0,0,0,-1,979,1289,0,0
-238,-265,0,0,0,0,0,0,0,0,0,-1,986,1289,0,0
-231,-265,0,0,0,0,0,0,0,0,0,-1,993,1289,0,0
-224,-265,0,0,0,0,0,0,0,0,0,-1,1000,1289,0,0
-217,-265,0,0,0,0,0,0,0,0,0,-1,1007,1289,0,0
-210,-265,0,0,0,0,0,0,0,0,0,-1,1014,1289,0,0
-203,-265,0,0,0,0,0,0,0,0,0,-1,1021,1289,0,0
-196,-265,0,0,0,0,0,0,0,0,0,-1,1028,1289,0,0
-189,-265,0,0,0,0,0,0,0,0,0,-1,1035,1289,0,0
-182,-265,0,0,0,0,0,0,0,0,0,-1,1042,1289,0,0
-175,-265,0,0,0,0,0,0,0,0,0,-1,1049,1289,0,0
-168,-265,0,0,0,0,0,0,0,0,0,-1,1056,1289,0,0
-161,-265,0,0,0,0,0,0,0,0,0,-1,1063,1289,0,0
-154,-265,0,0,0,0,0,0,0,0,0,-1,1070,1289,0,0
-147,-265,0,0,0,0,0,0,0,0,0,-1,1077,1289,0,0
-140,-265,0,0,0,0,0,0,0,0,0,-1,1084,1289,0,0
-133,-265,0,0,0,0,0,0,0,0,0,-1,1091,1289,0,0
-126,-265,0,0,0,0,0,0,0,0,0,-1,1098,1289,0,0
-119,-265,0,0,0,0,0,0,0,0,0,-1,1105,1289,0,0
-112,-265,0,0,0,0,0,0,0,0,0,-1,1112,1289,0,0
-105,-265,0,0,0,0,0,0,0,0,0,-1,1119,1289,0,0
-98,-265,0,0,0,0,0,0,0,0,0,-1,1126,1289,0,0
-91,-265,0,0,0,0,0,0,0,0,0,-1,1133,1289,0,0
-84,-265,0,0,0,0,0,0,0,0,0,-1,1140,1289,0,0
-77,-265,0,0,0,0,0,0,0,0,0,-1,1147,1289,0,0
-70,-265,0,0,0,0,0,0,0,0,0,-1,1154,1289,0,0
-63,-265,0,0,0,0,0,0,0,0,0,-1,1161,1289,0,0
-56,-265,0,0,0,0,0,0,0,0,0,-1,1168,1289,0,0
-49,-265,0,0,0,0,0,0,0,0,0,-1,1175,1289,0,0
-42,-265,0,0,0,0,0,0,0,0,0,-1,1182,1289,0,0
-35,-265,0,0,0,0,0,0,0,0,0,-1,1189,1289,0,0
-28,-265,0,0,0,0,0,0,0,0,0,-1,1196,1289,0,0
-21,-265,0,0,0,0,0,0,0,0,0,-1,1203,1289,0,0
-14,-265,0,0,0,0,0,0,0,0,0,-1,1210,1289,0,0
-7,-265,0,0,0,0,0,0,0,0,0,-1,1217,1289,0,0
0,-265,0,0,0,0,0,0,0,0,0,-1,1224,1289,0,0
7,-265,0,0,0,0,0,0,0,0,0,-1,1231,1289,0,0
14,-265,0,0,0,0,0,0,0,0,0,-1,1238,1289,0,0
21,-265,0,0,0,0,0,0,0,0,0,-1,1245,1289,0,0
28,-265,0,0,0,0,0,0,0,0,0,-1,1252,1289,0,0
35,-265,0,0,0,0,0,0,0,0,0,-1,1259,1289,0,0
42,-265,0,0,0,0,0,0,0,0,0,-1,1266,1289,0,0
49,-265,0,0,0,0,0,0,0,0,0,-1,1273,1289,0,0
56,-265,0,0,0,0,0,0,0,0,0,-1,1280,1289,0,0
63,-265,0,0,0,0,0,0,0,0,0,-1,1287,1289,0,0
70,-265,0,0,0,0,0,0,0,0,0,-1,1294,1289,0,0
77,-265,0,0,0,0,0,0,0,0,0,-1,1301,1289,0,0
84,-265,0,0,0,0,0,0,0,0,0,-1,1308,1289,0,0
91,-265,0,0,0,0,0,0,0,0,0,-1,1315,1289,0,0
98,-265,0,0,0,0,0,0,0,0,0,-1,1322,1289,0,0
105,-265,0,0,0,0,0,0,0,0,0,-1,1329,1289,0,0
112,-265,0,0,0,0,0,0,0,0,0,-1,1336,1289,0,0
119,-265,0,0,0,0,0,0,0,0,0,-1,1343,1289,0,0
126,-265,0,0,0,0,0,0,0,0,0,-1,1350,1289,0,0
133,-265,0,0,0,0,0,0,0,0,0,-1,1357,1289,0,0
140,-265,0,0,0,0,0,0,0,0,0,-1,1364,1289,0,0
147,-265,0,0,0,0,0,0,0,0,0,-1,1371,1289,0,0
154,-265,0,0,0,0,0,0,0,0,0,-1,1378,1289,0,0
161,-265,0,0,0,0,0,0,0,0,0,-1,1385,1289,0,0
168,-265,0,0,0,0,0,0,0,0,0,-1,1392,1289,0,0
175,-265,0,0,0,0,0,0,0,0,0,-1,1399,1289,0,0
182,-265,0,0,0,0,0,0,0,0,0,-1,1406,1289,0,0
189,-265,0,0,0,0,0,0,0,0,0,-1,1413,1289,0,0
196,-265,0,0,0,0,0,0,0,0,0,-1,1420,1289,0,0
203,-265,0,0,0,0,0,0,0,0,0,-1,1427,1289,0,0
210,-265,0,0,0,0,0,0,0,0,0,-1,1434,1289,0,0
217,-265,0,0,0,0,0,0,0,0,0,-1,1441,1289,0,0
224,-265,0,0,0,0,0,0,0,0,0,-1,1448,1289,0,0
231,-265,0,0,0,0,0,0,0,0,0,-1,1455,1289,0,0
238,-265,0,0,0,0,0,0,0,0,0,-1,1462,1289,0,0
245,-265,0,0,0,0,0,0,0,0,0,-1,1469,1289,0,0
252,-265,0,0,0,0,0,0,0,0,0,-1,1476,1289,0,0
259,-265,0,0,0,0,0,0,0,0,0,-1,1483,1289,0,0
266,-265,0,0,0,0,0,0,0,0,0,-1,1490,1289,0,0
273,-265,0,0,0,0,0,0,0,0,0,-1,1497,1289,0,0
280,-265,0,0,0,0,0,0,0,0,0,-1,1504,1289,0,0
287,-265,0,0,0,0,0,0,0,0,0,-1,1511,1289,0,0
294,-265,0,0,0,0,0,0,0,0,0,-1,1518,1289,0,0
301,-265,0,0,0,0,0,0,0,0,0,-1,1525,1289,0,0
308,-265,0,0,0,0,0,0,0,0,0,-1,1532,1289,0,0
315,-265,0,0,0,0,0,0,0,0,0,-1,1539,1289,0,0
322,-265,0,0,0,0,0,0,0,0,0,-1,1546,1289,0,0
329,-265,0,0,0,0,0,0,0,0,0,-1,1553,1289,0,0
336,-265,0,0,0,0,0,0,0,0,0,-1,1560,1289,0,0
343,-265,0,0,0,0,0,0,0,0,0,-1,1567,1289,0,0
350,-265,0,0,0,0,0,0,0,0,0,-1,1574,1289,0,0
357,-265,0,0,0,0,0,0,0,0,0,-1,1581,1289,0,0
364,-265,0,0,0,0,0,0,0,0,0,-1,1588,1289,0,0
371,-265,0,0,0,0,0,0,0,0,0,-1,1595,1289,0,0
378,-265,0,0,0,0,0,0,0,0,0,-1,1602,1289,0,0
385,-265,0,0,0,0,0,0,0,0,0,-1,1609,1289,0,0
392,-265,0,0,0,0,0,0,0,0,0,-1,1616,1289,0,0
399,-265,0,0,0,0,0,0,0,0,0,-1,1623,1289,0,0
406,-265,0,0,0,0,0,0,0,0,0,-1,1630,1289,0,0
413,-265,0,0,0,0,0,0,0,0,0,-1,1637,1289,0,0
420,-265,0,0,0,0,0,0,0,0,0,-1,1644,1289,0,0
427,-265,0,0,0,0,0,0,0,0,0,-1,1651,1289,0,0
434,-265,0,0,0,0,0,0,0,0,0,-1,1658,1289,0,0
441,-265,0,0,0,0,0,0,0,0,0,-1,1665,1289,0,0
448,-265,0,0,0,0,0,0,0,0,0,-1,1672,1289,0,0
455,-265,0,0,0,0,0,0,0,0,0,-1,1679,1289,0,0
462,-265,0,0,0,0,0,0,0,0,0,-1,1686,1289,0,0
469,-265,0,0,0,0,0,0,0,0,0,-1,1693,1289,0,0
476,-265,0,0,0,0,0,0,0,0,0,-1,1700,1289,0,0
483,-265,0,0,0,0,0,0,0,0,0,-1,1707,1289,0,0
490,-265,0,0,0,0,0,0,0,0,0,-1,1714,1289,0,0
497,-265,0,0,0,0,0,0,0,0,0,-1,1721,1289,0,0
504,-265,0,0,0,0,0,0,0,0,0,-1,1728,1289,0,0
511,-265,0,0,0,0,0,0,0,0,0,-1,1735,1289,0,0
518,-265,0,0,0,0,0,0,0,0,0,-1,1742,1289,0,0
525,-265,0,0,0,0,0,0,0,0,0,-1,1749,1289,0,0
532,-265,0,0,0,0,0,0,0,0,0,-1,1756,1289,0,0
539,-265,0,0,0,0,0,0,0,0,0,-1,1763,1289,0,0
546,-265,0,0,0,0,0,0,0,0,0,-1,1770,1289,0,0
553,-265,0,0,0,0,0,0,0,0,0,-1,1777,1289,0,0
560,-265,0,0,0,0,0,0,0,0,0,-1,1784,1289,0,0
567,-265,0,0,0,0,0,0,0,0,0,-1,1791,1289,0,0
574,-265,0,0,0,0,0,0,0,0,0,-1,1798,1289,0,0
581,-265,0,0,0,0,0,0,0,0,0,-1,1805,1289,0,0
588,-265,0,0,0,0,0,0,0,0,0,-1,1812,1289,0,0
595,-265,0,0,0,0,0,0,0,0,0,-1,1819,1289,0,0
602,-265,33.4596,2.82324,-0.00219863,0.0131057,-0.0106768,0.0185893,-0.00768228,-1.09632,0.0155976,0.025421,1826,1289,33.4595,-2.82328
609,-265,33.3856,2.77234,0.00183092,0.0196454,-0.00138095,0.0197518,0.0017245,-1.49389,0.0126323,0.0264559,1833,1289,33.3856,-2.77233
616,-265,33.3507,2.76355,0.00480243,0.0238937,0.00938844,0.0277369,0.000959178,1.18225,0.01818,0.0324583,1840,1289,33.3507,-2.76357
623,-265,33.2802,2.60706,0.00614388,0.0249915,0.0175813,0.0355153,-0.00437996,1.03142,0.0252638,0.0435915,1847,1289,33.2801,-2.60705
630,-265,33.2533,2.57751,0.00616427,0.023559,0.0218315,0.0383618,-0.00863853,0.974955,0.0288878,0.0438488,1854,1289,33.2533,-2.57756
637,-265,33.053,2.80566,0.00551681,0.02029,0.0220268,0.0361358,-0.0103289,0.947179,0.0281719,0.0441329,1861,1289,33.053,-2.80569
644,-265,33.1637,3.47656,0.00471296,0.016793,0.0204861,0.0321109,-0.010605,0.928753,0.0256828,0.0458106,1868,1289,33.1637,-3.47662
651,-265,33.3232,4.08496,0,0,0,0,0,0,0,-1,1875,1289,33.3232,-4.08492
658,-265,32.8265,6.18896,0,0,0,0,0,0,0,-1,1882,1289,32.8266,-6.18894
665,-265,29.0533,4.85559,0,0,0,0,0,0,0,-1,1889,1289,29.0534,-4.85554
672,-265,20.0045,6.62671,0,0,0,0,0,0,0,-1,1896,1289,20.0045,-6.62668
679,-265,25.3096,8.0481,0,0,0,0,0,0,0,-1,1903,1289,25.3096,-8.0481
686,-265,25.386,7.7074,0.00137988,0.00267015,0.00828046,0.0103306,-0.00628054,0.824275,0.00968498,0.0270709,1910,1289,25.3859,-7.70743
693,-265,25.437,7.38696,0.00110006,0.0013418,0.00493953,0.00616194,-0.00372008,0.797631,0.00576315,0.0102443,1917,1289,25.4371,-7.38692
700,-265,25.4276,7.0614,0.000888549,0.00128102,0.00233052,0.00342355,-0.00125398,0.827401,0.00279573,0.0107888,1924,1289,25.4276,-7.06135
707,-265,25.4374,6.7345,0.000445951,0.000302418,0.000969051,0.00134589,-0.00059752,0.748436,0.00114942,0.00996785,1931,1289,25.4374,-6.73445
714,-265,25.4252,6.44885,-0.000184131,0.000208777,0.000414671,0.000471176,-0.00044653,1.00662,0.000529902,0.0099706,1938,1289,25.4252,-6.44884
721,-265,25.3977,6.15149,-0.000581029,0.000248854,0.000641872,0.000598227,-0.000930402,1.07234,0.000889473,0.0103993,1945,1289,25.3977,-6.15154
728,-265,25.3644,5.87024,-0.00101931,0.000380877,0.000744796,0.000702964,-0.00134139,1.16263,0.00119934,0.0129217,1952,1289,25.3643,-5.87027
735,-265,25.3643,5.578,-0.00136259,0.000904607,0.000828909,0.00117534,-0.00163332,1.25511,0.00162875,0.0161448,1959,1289,25.3643,-5.57802
742,-265,25.3829,5.26831,-0.00146134,0.0016518,0.0010611,0.00197907,-0.0017886,1.27163,0.00217619,0.0203627,1966,1289,25.383,-5.2683
749,-265,25.3345,4.98071,-0.00107117,0.00267454,0.00118839,0.00301976,-0.00141639,1.28808,0.00261638,0.0450853,1973,1289,25.3345,-4.98069
756,-265,25.2587,4.75073,-5.41878e-05,0.00439619,0.00137884,0.00478876,-0.00044676,1.29342,0.00335137,0.0477175,1980,1289,25.2586,-4.75069
763,-265,25.6399,4.09961,0,0,0,0,0,0,0,-1,1987,1289,25.6399,-4.0996
770,-265,26.0203,3.4718,0,0,0,0,0,0,0,-1,1994,1289,26.0203,-3.47181
777,-265,32.1664,5.3457,0,0,0,0,0,0,0,-1,2001,1289,32.1664,-5.34568
784,-265,0,0,0,0,0,0,0,0,0,-1,2008,1289,0,0
791,-265,0,0,0,0,0,0,0,0,0,-1,2015,1289,0,0
798,-265,0,0,0,0,0,0,0,0,0,-1,2022,1289,0,0
805,-265,0,0,0,0,0,0,0,0,0,-1,2029,1289,0,0
812,-265,0,0,0,0,0,0,0,0,0,-1,2036,1289,0,0
-700,-272,0,0,0,0,0,0,0,0,0,-1,524,1296,0,0
-693,-272,0,0,0,0,0,0,0,0,0,-1,531,1296,0,0
-686,-272,0,0,0,0,0,0,0,0,0,-1,538,1296,0,0
-679,-272,0,0,0,0,0,0,0,0,0,-1,545,1296,0,0
-672,-272,0,0,0,0,0,0,0,0,0,-1,552,1296,0,0
-665,-272,0,0,0,0,0,0,0,0,0,-1,559,1296,0,0
-658,-272,-15.9061,-3.52649,0,0,0,0,0,0,0,-1,566,1296,-15.9061,3.52651
-651,-272,-16.0692,-1.27673,0.0390049,0.0881311,0.101154,0.167661,-0.0405251,0.904508,0.127449,0.0434344,573,1296,-16.0692,1.27676
-644,-272,-15.9752,1.13306,0.0389971,0.0746199,0.090217,0.148767,-0.0351499,0.882859,0.112736,0.044651,580,1296,-15.9751,-1.13303
-637,-272,-15.9136,3.66968,0.0359384,0.0635378,0.0771126,0.128076,-0.0285995,0.873939,0.0963425,0.0490962,587,1296,-15.9136,-3.66967
-630,-272,-16.3851,5.32837,0,0,0,0,0,0,0,-1,594,1296,-16.3851,-5.32839
-623,-272,-14.1803,1.9458,0,0,0,0,0,0,0,-1,601,1296,-14.1803,-1.94574
-616,-272,-14.2697,2.22852,0,0,0,0,0,0,0,-1,608,1296,-14.2697,-2.22852
-609,-272,-14.3909,2.78687,0.0190228,0.0237315,0.0317651,0.0532295,-0.0104751,0.822389,0.0394444,0.0232314,615,1296,-14.3909,-2.78684
-602,-272,-14.4385,3.09924,0.0152372,0.016985,0.0227576,0.0388855,-0.00666321,0.804589,0.0284064,0.014156,622,1296,-14.4385,-3.09927
-595,-272,-14.4612,3.45044,0.0108041,0.0116498,0.013485,0.0247185,-0.00226471,0.801072,0.0172835,0.0110699,629,1296,-14.4612,-3.45046
-588,-272,-14.4657,3.78552,0.006925,0.00739569,0.00684974,0.0140141,0.000306561,0.80257,0.00924226,0.0101359,636,1296,-14.4657,-3.78555
-581,-272,-14.4673,4.13245,0.00455668,0.00420944,0.00322384,0.00761157,0.00115455,0.758497,0.00473667,0.00953851,643,1296,-14.4673,-4.13239
-574,-272,-14.511,4.51013,0.00437344,0.00209191,0.00247884,0.00596141,0.000503946,0.569746,0.0038174,0.0147644,650,1296,-14.511,-4.51014
-567,-272,-14.5304,4.87427,0.00472564,0.000786754,0.00181138,0.00543197,8.04171e-05,0.371808,0.00359481,0.0208783,657,1296,-14.5304,-4.87427
-560,-272,-14.5214,5.19946,0.0053488,0.000840791,0.00137358,0.00573436,0.000455238,0.27365,0.00368055,0.0202603,664,1296,-14.5214,-5.19947
-553,-272,-14.4465,5.52039,0.00561851,0.00109869,0.000720157,0.00573048,0.000986722,0.154246,0.00353759,0.0172958,671,1296,-14.4465,-5.5204
-546,-272,-14.3223,5.99451,0.00549604,0.00157364,-0.000417013,0.00553989,0.0015298,-0.104756,0.00330358,0.0286503,678,1296,-14.3223,-5.99448
-539,-272,-14.4163,6.5105,0,0,0,0,0,0,0,-1,685,1296,-14.4163,-6.51055
-532,-272,-10.5572,4.53943,0,0,0,0,0,0,0,-1,692,1296,-10.5572,-4.53943
-525,-272,-11.9599,0.0393066,0,0,0,0,0,0,0,-1,699,1296,-11.9599,-0.0393577
-518,-272,-21.1357,-1.41382,0,0,0,0,0,0,0,-1,706,1296,-21.1357,1.41379
-511,-272,-20.4377,-0.649536,0,0,0,0,0,0,0,-1,713,1296,-20.4377,0.649546
-504,-272,-19.7397,0.114746,0,0,0,0,0,0,0,-1,720,1296,-19.7397,-0.114701
-497,-272,-19.2225,1.71301,0,0,0,0,0,0,0,-1,727,1296,-19.2225,-1.71302
-490,-272,-20.1948,2.4032,0,0,0,0,0,0,0,-1,734,1296,-20.1948,-2.40322
-483,-272,-15.3736,0.792603,0,0,0,0,0,0,0,-1,741,1296,-15.3736,-0.79263
-476,-272,0,0,0,0,0,0,0,0,0,-1,748,1296,0,0
-469,-272,0,0,0,0,0,0,0,0,0,-1,755,1296,0,0
-462,-272,0,0,0,0,0,0,0,0,0,-1,762,1296,0,0
-455,-272,0,0,0,0,0,0,0,0,0,-1,769,1296,0,0
-448,-272,0,0,0,0,0,0,0,0,0,-1,776,1296,0,0
-441,-272,0,0,0,0,0,0,0,0,0,-1,783,1296,0,0
-434,-272,0,0,0,0,0,0,0,0,0,-1,790,1296,0,0
-427,-272,0,0,0,0,0,0,0,0,0,-1,797,1296,0,0
-420,-272,0,0,0,0,0,0,0,0,0,-1,804,1296,0,0
-413,-272,0,0,0,0,0,0,0,0,0,-1,811,1296,0,0
-406,-272,0,0,0,0,0,0,0,0,0,-1,818,1296,0,0
-399,-272,0,0,0,0,0,0,0,0,0,-1,825,1296,0,0
-392,-272,0,0,0,0,0,0,0,0,0,-1,832,1296,0,0
-385,-272,0,0,0,0,0,0,0,0,0,-1,839,1296,0,0
-378,-272,0,0,0,0,0,0,0,0,0,-1,846,1296,0,0
-371,-272,0,0,0,0,0,0,0,0,0,-1,853,1296,0,0
-364,-272,0,0,0,0,0,0,0,0,0,-1,860,1296,0,0
-357,-272,0,0,0,0,0,0,0,0,0,-1,867,1296,0,0
-350,-272,0,0,0,0,0,0,0,0,0,-1,874,1296,0,0
-343,-272,0,0,0,0,0,0,0,0,0,-1,881,1296,0,0
-336,-272,0,0,0,0,0,0,0,0,0,-1,888,1296,0,0
-329,-272,0,0,0,0,0,0,0,0,0,-1,895,1296,0,0
-322,-272,0,0,0,0,0,0,0,0,0,-1,902,1296,0,0
-315,-272,0,0,0,0,0,0,0,0,0,-1,909,1296,0,0
-308,-272,0,0,0,0,0,0,0,0,0,-1,916,1296,0,0
-301,-272,0,0,0,0,0,0,0,0,0,-1,923,1296,0,0
-294,-272,0,0,0,0,0,0,0,0,0,-1,930,1296,0,0
-287,-272,0,0,0,0,0,0,0,0,0,-1,937,1296,0,0
-280,-272,0,0,0,0,0,0,0,0,0,-1,944,1296,0,0
-273,-272,0,0,0,0,0,0,0,0,0,-1,951,1296,0,0
-266,-272,0,0,0,0,0,0,0,0,0,-1,958,1296,0,0
-259,-272,0,0,0,0,0,0,0,0,0,-1,965,1296,0,0
-252,-272,0,0,0,0,0,0,0,0,0,-1,972,1296,0,0
-245,-272,0,0,0,0,0,0,0,0,0,-1,979,1296,0,0
-238,-272,0,0,0,0,0,0,0,0,0,-1,986,1296,0,0
-231,-272,0,0,0,0,0,0,0,0,0,-1,993,1296,0,0
-224,-272,0,0,0,0,0,0,0,0,0,-1,1000,1296,0,0
-217,-272,0,0,0,0,0,0,0,0,0,-1,1007,1296,0,0
-210,-272,0,0,0,0,0,0,0,0,0,-1,1014,1296,0,0
-203,-272,0,0,0,0,0,0,0,0,0,-1,1021,1296,0,0
-196,-272,0,0,0,0,0,0,0,0,0,-1,1028,1296,0,0
-189,-272,0,0,0,0,0,0,0,0,0,-1,1035,1296,0,0
-182,-272,0,0,0,0,0,0,0,0,0,-1,1042,1296,0,0
-175,-272,0,0,0,0,0,0,0,0,0,-1,1049,1296,0,0
-168,-272,0,0,0,0,0,0,0,0,0,-1,1056,1296,0,0
-161,-272,0,0,0,0,0,0,0,0,0,-1,1063,1296,0,0
-154,-272,0,0,0,0,0,0,0,0,0,-1,1070,1296,0,0
-147,-272,0,0,0,0,0,0,0,0,0,-1,1077,1296,0,0
-140,-272,0,0,0,0,0,0,0,0,0,-1,1084,1296,0,0
-133,-272,0,0,0,0,0,0,0,0,0,-1,1091,1296,0,0
-126,-272,0,0,0,0,0,0,0,0,0,-1,1098,1296,0,0
-119,-272,0,0,0,0,0,0,0,0,0,-1,1105,1296,0,0
-112,-272,0,0,0,0,0,0,0,0,0,-1,1112,1296,0,0
-105,-272,0,0,0,0,0,0,0,0,0,-1,1119,1296,0,0
-98,-272,0,0,0,0,0,0,0,0,0,-1,1126,1296,0,0
-91,-272,0,0,0,0,0,0,0,0,0,-1,1133,1296,0,0
-84,-272,0,0,0,0,0,0,0,0,0,-1,1140,1296,0,0
-77,-272,0,0,0,0,0,0,0,0,0,-1,1147,1296,0,0
-70,-272,0,0,0,0,0,0,0,0,0,-1,1154,1296,0,0
-63,-272,0,0,0,0,0,0,0,0,0,-1,1161,1296,0,0
-56,-272,0,0,0,0,0,0,0,0,0,-1,1168,1296,0,0
-49,-272,0,0,0,0,0,0,0,0,0,-1,1175,1296,0,0
-42,-272,0,0,0,0,0,0,0,0,0,-1,1182,1296,0,0
-35,-272,0,0,0,0,0,0,0,0,0,-1,1189,1296,0,0
-28,-272,0,0,0,0,0,0,0,0,0,-1,1196,1296,0,0
-21,-272,0,0,0,0,0,0,0,0,0,-1,1203,1296,0,0
-14,-272,0,0,0,0,0,0,0,0,0,-1,1210,1296,0,0
-7,-272,0,0,0,0,0,0,0,0,0,-1,1217,1296,0,0
0,-272,0,0,0,0,0,0,0,0,0,-1,1224,1296,0,0
7,-272,0,0,0,0,0,0,0,0,0,-1,1231,1296,0,0
14,-272,0,0,0,0,0,0,0,0,0,-1,1238,1296,0,0
21,-272,0,0,0,0,0,0,0,0,0,-1,1245,1296,0,0
28,-272,0,0,0,0,0,0,0,0,0,-1,1252,1296,0,0
35,-272,0,0,0,0,0,0,0,0,0,-1,1259,1296,0,0
42,-272,0,0,0,0,0,0,0,0,0,-1,1266,1296,0,0
49,-272,0,0,0,0,0,0,0,0,0,-1,1273,1296,0,0
56,-272,0,0,0,0,0,0,0,0,0,-1,1280,1296,0,0
63,-272,0,0,0,0,0,0,0,0,0,-1,1287,1296,0,0
70,-272,0,0,0,0,0,0,0,0,0,-1,1294,1296,0,0
77,-272,0,0,0,0,0,0,0,0,0,-1,1301,1296,0,0
84,-272,0,0,0,0,0,0,0,0,0,-1,1308,1296,0,0
91,-272,0,0,0,0,0,0,0,0,0,-1,1315,1296,0,0
98,-272,0,0,0,0,0,0,0,0,0,-1,1322,1296,0,0
105,-272,0,0,0,0,0,0,0,0,0,-1,1329,1296,0,0
112,-272,0,0,0,0,0,0,0,0,0,-1,1336,1296,0,0
119,-272,0,0,0,0,0,0,0,0,0,-1,1343,1296,0,0
126,-272,0,0,0,0,0,0,0,0,0,-1,1350,1296,0,0
133,-272,0,0,0,0,0,0,0,0,0,-1,1357,1296,0,0
140,-272,0,0,0,0,0,0,0,0,0,-1,1364,1296,0,0
147,-272,0,0,0,0,0,0,0,0,0,-1,1371,1296,0,0
154,-272,0,0,0,0,0,0,0,0,0,-1,1378,1296,0,0
161,-272,0,0,0,0,0,0,0,0,0,-1,1385,1296,0,0
168,-272,0,0,0,0,0,0,0,0,0,-1,1392,1296,0,0
175,-272,0,0,0,0,0,0,0,0,0,-1,1399,1296,0,0
182,-272,0,0,0,0,0,0,0,0,0,-1,1406,1296,0,0
189,-272,0,0,0,0,0,0,0,0,0,-1,1413,1296,0,0
196,-272,0,0,0,0,0,0,0,0,0,-1,1420,1296,0,0
203,-272,0,0,0,0,0,0,0,0,0,-1,1427,1296,0,0
210,-272,0,0,0,0,0,0,0,0,0,-1,1434,1296,0,0
217,-272,0,0,0,0,0,0,0,0,0,-1,1441,1296,0,0
224,-272,0,0,0,0,0,0,0,0,0,-1,1448,1296,0,0
231,-272,0,0,0,0,0,0,0,0,0,-1,1455,1296,0,0
238,-272,0,0,0,0,0,0,0,0,0,-1,1462,1296,0,0
245,-272,0,0,0,0,0,0,0,0,0,-1,1469,1296,0,0
252,-272,0,0,0,0,0,0,0,0,0,-1,1476,1296,0,0
259,-272,0,0,0,0,0,0,0,0,0,-1,1483,1296,0,0
266,-272,0,0,0,0,0,0,0,0,0,-1,1490,1296,0,0
273,-272,0,0,0,0,0,0,0,0,0,-1,1497,1296,0,0
280,-272,0,0,0,0,0,0,0,0,0,-1,1504,1296,0,0
287,-272,0,0,0,0,0,0,0,0,0,-1,1511,1296,0,0
294,-272,0,0,0,0,0,0,0,0,0,-1,1518,1296,0,0
301,-272,0,0,0,0,0,0,0,0,0,-1,1525,1296,0,0
308,-272,0,0,0,0,0,0,0,0,0,-1,1532,1296,0,0
315,-272,0,0,0,0,0,0,0,0,0,-1,1539,1296,0,0
322,-272,0,0,0,0,0,0,0,0,0,-1,1546,1296,0,0
329,-272,0,0,0,0,0,0,0,0,0,-1,1553,1296,0,0
336,-272,0,0,0,0,0,0,0,0,0,-1,1560,1296,0,0
343,-272,0,0,0,0,0,0,0,0,0,-1,1567,1296,0,0
350,-272,0,0,0,0,0,0,0,0,0,-1,1574,1296,0,0
357,-272,0,0,0,0,0,0,0,0,0,-1,1581,1296,0,0
364,-272,0,0,0,0,0,0,0,0,0,-1,1588,1296,0,0
371,-272,0,0,0,0,0,0,0,0,0,-1,1595,1296,0,0
378,-272,0,0,0,0,0,0,0,0,0,-1,1602,1296,0,0
385,-272,0,0,0,0,0,0,0,0,0,-1,1609,1296,0,0
392,-272,0,0,0,0,0,0,0,0,0,-1,1616,1296,0,0
399,-272,0,0,0,0,0,0,0,0,0,-1,1623,1296,0,0
406,-272,0,0,0,0,0,0,0,0,0,-1,1630,1296,0,0
413,-272,0,0,0,0,0,0,0,0,0,-1,1637,1296,0,0
420,-272,0,0,0,0,0,0,0,0,0,-1,1644,1296,0,0
427,-272,0,0,0,0,0,0,0,0,0,-1,1651,1296,0,0
434,-272,0,0,0,0,0,0,0,0,0,-1,1658,1296,0,0
441,-272,0,0,0,0,0,0,0,0,0,-1,1665,1296,0,0
448,-272,0,0,0,0,0,0,0,0,0,-1,1672,1296,0,0
455,-272,0,0,0,0,0,0,0,0,0,-1,1679,1296,0,0
462,-272,0,0,0,0,0,0,0,0,0,-1,1686,1296,0,0
469,-272,0,0,0,0,0,0,0,0,0,-1,1693,1296,0,0
476,-272,0,0,0,0,0,0,0,0,0,-1,1700,1296,0,0
483,-272,0,0,0,0,0,0,0,0,0,-1,1707,1296,0,0
490,-272,0,0,0,0,0,0,0,0,0,-1,1714,1296,0,0
497,-272,0,0,0,0,0,0,0,0,0,-1,1721,1296,0,0
504,-272,0,0,0,0,0,0,0,0,0,-1,1728,1296,0,0
511,-272,0,0,0,0,0,0,0,0,0,-1,1735,1296,0,0
518,-272,0,0,0,0,0,0,0,0,0,-1,1742,1296,0,0
525,-272,0,0,0,0,0,0,0,0,0,-1,1749,1296,0,0
532,-272,0,0,0,0,0,0,0,0,0,-1,1756,1296,0,0
539,-272,0,0,0,0,0,0,0,0,0,-1,1763,1296,0,0
546,-272,0,0,0,0,0,0,0,0,0,-1,1770,1296,0,0
553,-272,0,0,0,0,0,0,0,0,0,-1,1777,1296,0,0
560,-272,0,0,0,0,0,0,0,0,0,-1,1784,1296,0,0
567,-272,0,0,0,0,0,0,0,0,0,-1,1791,1296,0,0
574,-272,0,0,0,0,0,0,0,0,0,-1,1798,1296,0,0
581,-272,0,0,0,0,0,0,0,0,0,-1,1805,1296,0,0
588,-272,0,0,0,0,0,0,0,0,0,-1,1812,1296,0,0
595,-272,0,0,0,0,0,0,0,0,0,-1,1819,1296,0,0
602,-272,33.4127,2.80481,0.00040911,0.0216057,-0.00655182,0.0234674,-0.00145254,-1.29395,0.0161509,0.0314182,1826,1296,33.4127,-2.80485
609,-272,33.3204,2.66797,0.00515511,0.0288469,0.00321974,0.0292767,0.00472534,1.4381,0.0181489,0.0365265,1833,1296,33.3205,-2.66794
616,-272,33.3146,2.52405,0.00785368,0.0320799,0.0124517,0.0373384,0.00259518,1.17121,0.0240739,0.0427245,1840,1296,33.3146,-2.524
623,-272,33.2078,2.39185,0,0,0,0,0,0,0,-1,1847,1296,33.2078,-2.39189
630,-272,33.1935,1.82434,0.00782551,0.0283119,0.0211778,0.0415937,-0.00545623,1.01065,0.0297153,0.042431,1854,1296,33.1935,-1.82436
637,-272,33.3079,2.57617,0.00662669,0.0237911,0.021463,0.0383242,-0.00790641,0.97559,0.0285522,0.0443124,1861,1296,33.3078,-2.57621
644,-272,32.7687,3.09229,0,0,0,0,0,0,0,-1,1868,1296,32.7686,-3.09233
651,-272,29.3049,4.17993,0,0,0,0,0,0,0,-1,1875,1296,29.305,-4.17988
658,-272,28.5599,4.35059,0,0,0,0,0,0,0,-1,1882,1296,28.5599,-4.35054
665,-272,22.0238,4.14417,0,0,0,0,0,0,0,-1,1889,1296,22.0238,-4.14421
672,-272,22.661,7.21765,0,0,0,0,0,0,0,-1,1896,1296,22.661,-7.21761
679,-272,25.0851,8.02515,0,0,0,0,0,0,0,-1,1903,1296,25.085,-8.02515
686,-272,25.1002,7.70764,0.0011021,0.00235773,0.00903166,0.0107834,-0.00732354,0.820099,0.0105174,0.0179226,1910,1296,25.1002,-7.70762
693,-272,25.1215,7.3949,0.000797045,0.000885373,0.00541923,0.00626062,-0.0045782,0.789473,0.00628287,0.0120148,1917,1296,25.1215,-7.39486
700,-272,25.1215,7.07788,0.000566841,0.000788093,0.00270879,0.00338852,-0.00203358,0.805807,0.00316287,0.0117507,1924,1296,25.1215,-7.07794
707,-272,25.1228,6.74878,0.000161845,6.04916e-05,0.00129538,0.00140754,-0.00118521,0.765848,0.00149876,0.0106448,1931,1296,25.1228,-6.74879
714,-272,25.1105,6.44031,-0.000394978,4.08918e-05,0.000695886,0.00055217,-0.000906257,0.937149,0.000850255,0.0109587,1938,1296,25.1105,-6.44025
721,-272,25.0836,6.16492,-0.00081555,0.000116931,0.000751658,0.000535207,-0.00123383,1.063,0.00104756,0.0125163,1945,1296,25.0836,-6.16491
728,-272,25.0631,5.85498,-0.00131529,0.000251644,0.000785067,0.000577299,-0.00164094,1.17759,0.00132887,0.0137456,1952,1296,25.0631,-5.85498
735,-272,25.0505,5.5614,-0.00170349,0.00045182,0.000688676,0.000653077,-0.00190474,1.28648,0.00153457,0.0139259,1959,1296,25.0505,-5.56136
742,-272,25.0011,5.24878,-0.00178533,0.000785727,0.000417506,0.000851825,-0.00185143,1.41378,0.00159589,0.0262161,1966,1296,25.0011,-5.24879
749,-272,25.0782,4.98291,-0.00136252,0.00114582,-0.000158885,0.00115584,-0.00137254,-1.50779,0.00146155,0.0499834,1973,1296,25.0782,-4.98289
756,-272,25.011,4.78137,0,0,0,0,0,0,0,-1,1980,1296,25.011,-4.78136
763,-272,25.4053,4.14624,0,0,0,0,0,0,0,-1,1987,1296,25.4052,-4.14628
770,-272,25.9485,3.67749,0,0,0,0,0,0,0,-1,1994,1296,25.9485,-3.67744
777,-272,32.3619,6.13257,0,0,0,0,0,0,0,-1,2001,1296,32.362,-6.1326
784,-272,0,0,0,0,0,0,0,0,0,-1,2008,1296,0,0
791,-272,0,0,0,0,0,0,0,0,0,-1,2015,1296,0,0
798,-272,0,0,0,0,0,0,0,0,0,-1,2022,1296,0,0
805,-272,0,0,0,0,0,0,0,0,0,-1,2029,1296,0,0
812,-272,0,0,0,0,0,0,0,0,0,-1,2036,1296,0,0
-700,-279,0,0,0,0,0,0,0,0,0,-1,524,1303,0,0
-693,-279,0,0,0,0,0,0,0,0,0,-1,531,1303,0,0
-686,-279,0,0,0,0,0,0,0,0,0,-1,538,1303,0,0
-679,-279,0,0,0,0,0,0,0,0,0,-1,545,1303,0,0
-672,-279,0,0,0,0,0,0,0,0,0,-1,552,1303,0,0
-665,-279,0,0,0,0,0,0,0,0,0,-1,559,1303,0,0
-658,-279,-15.1192,-4.15027,0,0,0,0,0,0,0,-1,566,1303,-15.1192,4.15022
-651,-279,-15.0158,-1.78174,0.0540846,0.0905112,0.117695,0.191394,-0.0467983,0.862164,0.145722,0.0463667,573,1303,-15.0158,1.7817
-644,-279,-15.0483,0.823364,0.0516564,0.0791549,0.103424,0.16974,-0.0389283,0.851481,0.128123,0.0428876,580,1303,-15.0483,-0.823407
-637,-279,-14.8973,3.24683,0.0458399,0.0683496,0.0874955,0.145311,-0.0311217,0.849364,0.108743,0.0476506,587,1303,-14.8973,-3.24688
-630,-279,-14.7678,5.64355,0,0,0,0,0,0,0,-1,594,1303,-14.7678,-5.64355
-623,-279,-14.3563,1.76624,0,0,0,0,0,0,0,-1,601,1303,-14.3563,-1.76629
-616,-279,-14.4594,2.13171,0.0265874,0.0365833,0.0458937,0.0777504,-0.0145797,0.839636,0.057315,0.0450677,608,1303,-14.4594,-2.13172
-609,-279,-14.3549,2.6781,0.022063,0.0273362,0.034834,0.0596332,-0.010234,0.823172,0.0435694,0.0387619,615,1303,-14.3548,-2.67815
-602,-279,-14.0987,3.08862,0.017334,0.0202364,0.0248465,0.0436741,-0.00610366,0.814568,0.0313493,0.0139065,622,1303,-14.0987,-3.08858
-595,-279,-14.105,3.45374,0.0121443,0.0139266,0.0148327,0.0278949,-0.00182401,0.815403,0.0192335,0.0104683,629,1303,-14.105,-3.45377
-588,-279,-14.0956,3.81213,0.00758968,0.00885193,0.00756922,0.0158163,0.000625318,0.826992,0.0103421,0.01054,636,1303,-14.0956,-3.8121
-581,-279,-14.1173,4.13696,0.00459088,0.00501088,0.00340695,0.00821429,0.00138747,0.816179,0.0050773,0.0118176,643,1303,-14.1173,-4.13695
-574,-279,-14.1501,4.47693,0.00402606,0.00254537,0.00238283,0.00578091,0.000790522,0.634776,0.00361932,0.0125814,650,1303,-14.1501,-4.47697
-567,-279,-14.155,4.83911,0.00405449,0.000938634,0.00160052,0.00473012,0.000263,0.399441,0.00306951,0.0161992,657,1303,-14.155,-4.83909
-560,-279,-14.1445,5.19922,0.00454846,0.000521491,0.00111977,0.00483888,0.000231066,0.25377,0.00315173,0.015996,664,1303,-14.1444,-5.19923
-553,-279,-14.1265,5.56006,0.00512359,0.00071696,0.000601806,0.0052043,0.00063625,0.133316,0.0032781,0.0122566,671,1303,-14.1265,-5.56001
-546,-279,-14.116,5.91809,0.00543773,0.00120218,-0.000301962,0.00545915,0.00118076,-0.0708149,0.00331666,0.0174502,678,1303,-14.116,-5.91805
-539,-279,-14.2337,6.30884,0,0,0,0,0,0,0,-1,685,1303,-14.2337,-6.30882
-532,-279,-13.3938,6.72986,0,0,0,0,0,0,0,-1,692,1303,-13.3938,-6.7299
-525,-279,-11.7063,-0.539185,0,0,0,0,0,0,0,-1,699,1303,-11.7063,0.539166
-518,-279,-16.8138,1.11963,0,0,0,0,0,0,0,-1,706,1303,-16.8138,-1.11968
-511,-279,-20.1063,-1.37915,0,0,0,0,0,0,0,-1,713,1303,-20.1062,1.37918
-504,-279,-18.3766,1.04578,0,0,0,0,0,0,0,-1,720,1303,-18.3767,-1.04577
-497,-279,-19.0046,2.08911,0,0,0,0,0,0,0,-1,727,1303,-19.0046,-2.08905
-490,-279,-20.0176,2.55188,0,0,0,0,0,0,0,-1,734,1303,-20.0176,-2.55183
-483,-279,-20.8064,2.99792,0,0,0,0,0,0,0,-1,741,1303,-20.8064,-2.99797
-476,-279,0,0,0,0,0,0,0,0,0,-1,748,1303,0,0
-469,-279,0,0,0,0,0,0,0,0,0,-1,755,1303,0,0
-462,-279,0,0,0,0,0,0,0,0,0,-1,762,1303,0,0
-455,-279,0,0,0,0,0,0,0,0,0,-1,769,1303,0,0
-448,-279,0,0,0,0,0,0,0,0,0,-1,776,1303,0,0
-441,-279,0,0,0,0,0,0,0,0,0,-1,783,1303,0,0
-434,-279,0,0,0,0,0,0,0,0,0,-1,790,1303,0,0
-427,-279,0,0,0,0,0,0,0,0,0,-1,797,1303,0,0
-420,-279,0,0,0,0,0,0,0,0,0,-1,804,1303,0,0
-413,-279,0,0,0,0,0,0,0,0,0,-1,811,1303,0,0
-406,-279,0,0,0,0,0,0,0,0,0,-1,818,1303,0,0
-399,-279,0,0,0,0,0,0,0,0,0,-1,825,1303,0,0
-392,-279,0,0,0,0,0,0,0,0,0,-1,832,1303,0,0
-385,-279,0,0,0,0,0,0,0,0,0,-1,839,1303,0,0
-378,-279,0,0,0,0,0,0,0,0,0,-1,846,1303,0,0
-371,-279,0,0,0,0,0,0,0,0,0,-1,853,1303,0,0
-364,-279,0,0,0,0,0,0,0,0,0,-1,860,1303,0,0
-357,-279,0,0,0,0,0,0,0,0,0,-1,867,1303,0,0
-350,-279,0,0,0,0,0,0,0,0,0,-1,874,1303,0,0
-343,-279,0,0,0,0,0,0,0,0,0,-1,881,1303,0,0
-336,-279,0,0,0,0,0,0,0,0,0,-1,888,1303,0,0
-329,-279,0,0,0,0,0,0,0,0,0,-1,895,1303,0,0
-322,-279,0,0,0,0,0,0,0,0,0,-1,902,1303,0,0
-315,-279,0,0,0,0,0,0,0,0,0,-1,909,1303,0,0
-308,-279,0,0,0,0,0,0,0,0,0,-1,916,1303,0,0
-301,-279,0,0,0,0,0,0,0,0,0,-1,923,1303,0,0
-294,-279,0,0,0,0,0,0,0,0,0,-1,930,1303,0,0
-287,-279,0,0,0,0,0,0,0,0,0,-1,937,1303,0,0
-280,-279,0,0,0,0,0,0,0,0,0,-1,944,1303,0,0
-273,-279,0,0,0,0,0,0,0,0,0,-1,951,1303,0,0
-266,-279,0,0,0,0,0,0,0,0,0,-1,958,1303,0,0
-259,-279,0,0,0,0,0,0,0,0,0,-1,965,1303,0,0
-252,-279,0,0,0,0,0,0,0,0,0,-1,972,1303,0,0
-245,-279,0,0,0,0,0,0,0,0,0,-1,979,1303,0,0
-238,-279,0,0,0,0,0,0,0,0,0,-1,986,1303,0,0
-231,-279,0,0,0,0,0,0,0,0,0,-1,993,1303,0,0
-224,-279,0,0,0,0,0,0,0,0,0,-1,1000,1303,0,0
-217,-279,0,0,0,0,0,0,0,0,0,-1,1007,1303,0,0
-210,-279,0,0,0,0,0,0,0,0,0,-1,1014,1303,0,0
-203,-279,0,0,0,0,0,0,0,0,0,-1,1021,1303,0,0
-196,-279,0,0,0,0,0,0,0,0,0,-1,1028,1303,0,0
-189,-279,0,0,0,0,0,0,0,0,0,-1,1035,1303,0,0
-182,-279,0,0,0,0,0,0,0,0,0,-1,1042,1303,0,0
-175,-279,0,0,0,0,0,0,0,0,0,-1,1049,1303,0,0
-168,-279,0,0,0,0,0,0,0,0,0,-1,1056,1303,0,0
-161,-279,0,0,0,0,0,0,0,0,0,-1,1063,1303,0,0
-154,-279,0,0,0,0,0,0,0,0,0,-1,1070,1303,0,0
-147,-279,0,0,0,0,0,0,0,0,0,-1,1077,1303,0,0
-140,-279,0,0,0,0,0,0,0,0,0,-1,1084,1303,0,0
-133,-279,0,0,0,0,0,0,0,0,0,-1,1091,1303,0,0
-126,-279,0,0,0,0,0,0,0,0,0,-1,1098,1303,0,0
-119,-279,0,0,0,0,0,0,0,0,0,-1,1105,1303,0,0
-112,-279,0,0,0,0,0,0,0,0,0,-1,1112,1303,0,0
-105,-279,0,0,0,0,0,0,0,0,0,-1,1119,1303,0,0
-98,-279,0,0,0,0,0,0,0,0,0,-1,1126,1303,0,0
-91,-279,0,0,0,0,0,0,0,0,0,-1,1133,1303,0,0
-84,-279,0,0,0,0,0,0,0,0,0,-1,1140,1303,0,0
-77,-279,0,0,0,0,0,0,0,0,0,-1,1147,1303,0,0
-70,-279,0,0,0,0,0,0,0,0,0,-1,1154,1303,0,0
-63,-279,0,0,0,0,0,0,0,0,0,-1,1161,1303,0,0
-56,-279,0,0,0,0,0,0,0,0,0,-1,1168,1303,0,0
-49,-279,0,0,0,0,0,0,0,0,0,-1,1175,1303,0,0
-42,-279,0,0,0,0,0,0,0,0,0,-1,1182,1303,0,0
-35,-279,0,0,0,0,0,0,0,0,0,-1,1189,1303,0,0
-28,-279,0,0,0,0,0,0,0,0,0,-1,1196,1303,0,0
-21,-279,0,0,0,0,0,0,0,0,0,-1,1203,1303,0,0
-14,-279,0,0,0,0,0,0,0,0,0,-1,1210,1303,0,0
-7,-279,0,0,0,0,0,0,0,0,0,-1,1217,1303,0,0
0,-279,0,0,0,0,0,0,0,0,0,-1,1224,1303,0,0
7,-279,0,0,0,0,0,0,0,0,0,-1,1231,1303,0,0
14,-279,0,0,0,0,0,0,0,0,0,-1,1238,1303,0,0
21,-279,0,0,0,0,0,0,0,0,0,-1,1245,1303,0,0
28,-279,0,0,0,0,0,0,0,0,0,-1,1252,1303,0,0
35,-279,0,0,0,0,0,0,0,0,0,-1,1259,1303,0,0
42,-279,0,0,0,0,0,0,0,0,0,-1,1266,1303,0,0
49,-279,0,0,0,0,0,0,0,0,0,-1,1273,1303,0,0
56,-279,0,0,0,0,0,0,0,0,0,-1,1280,1303,0,0
63,-279,0,0,0,0,0,0,0,0,0,-1,1287,1303,0,0
70,-279,0,0,0,0,0,0,0,0,0,-1,1294,1303,0,0
77,-279,0,0,0,0,0,0,0,0,0,-1,1301,1303,0,0
84,-279,0,0,0,0,0,0,0,0,0,-1,1308,1303,0,0
91,-279,0,0,0,0,0,0,0,0,0,-1,1315,1303,0,0
98,-279,0,0,0,0,0,0,0,0,0,-1,1322,1303,0,0
105,-279,0,0,0,0,0,0,0,0,0,-1,1329,1303,0,0
112,-279,0,0,0,0,0,0,0,0,0,-1,1336,1303,0,0
119,-279,0,0,0,0,0,0,0,0,0,-1,1343,1303,0,0
126,-279,0,0,0,0,0,0,0,0,0,-1,1350,1303,0,0
133,-279,0,0,0,0,0,0,0,0,0,-1,1357,1303,0,0
140,-279,0,0,0,0,0,0,0,0,0,-1,1364,1303,0,0
147,-279,0,0,0,0,0,0,0,0,0,-1,1371,1303,0,0
154,-279,0,0,0,0,0,0,0,0,0,-1,1378,1303,0,0
161,-279,0,0,0,0,0,0,0,0,0,-1,1385,1303,0,0
168,-279,0,0,0,0,0,0,0,0,0,-1,1392,1303,0,0
175,-279,0,0,0,0,0,0,0,0,0,-1,1399,1303,0,0
182,-279,0,0,0,0,0,0,0,0,0,-1,1406,1303,0,0
189,-279,0,0,0,0,0,0,0,0,0,-1,1413,1303,0,0
196,-279,0,0,0,0,0,0,0,0,0,-1,1420,1303,0,0
203,-279,0,0,0,0,0,0,0,0,0,-1,1427,1303,0,0
210,-279,0,0,0,0,0,0,0,0,0,-1,1434,1303,0,0
217,-279,0,0,0,0,0,0,0,0,0,-1,1441,1303,0,0
224,-279,0,0,0,0,0,0,0,0,0,-1,1448,1303,0,0
231,-279,0,0,0,0,0,0,0,0,0,-1,1455,1303,0,0
238,-279,0,0,0,0,0,0,0,0,0,-1,1462,1303,0,0
245,-279,0,0,0,0,0,0,0,0,0,-1,1469,1303,0,0
252,-279,0,0,0,0,0,0,0,0,0,-1,1476,1303,0,0
259,-279,0,0,0,0,0,0,0,0,0,-1,1483,1303,0,0
266,-279,0,0,0,0,0,0,0,0,0,-1,1490,1303,0,0
273,-279,0,0,0,0,0,0,0,0,0,-1,1497,1303,0,0
280,-279,0,0,0,0,0,0,0,0,0,-1,1504,1303,0,0
287,-279,0,0,0,0,0,0,0,0,0,-1,1511,1303,0,0
294,-279,0,0,0,0,0,0,0,0,0,-1,1518,1303,0,0
301,-279,0,0,0,0,0,0,0,0,0,-1,1525,1303,0,0
308,-279,0,0,0,0,0,0,0,0,0,-1,1532,1303,0,0
315,-279,0,0,0,0,0,0,0,0,0,-1,1539,1303,0,0
322,-279,0,0,0,0,0,0,0,0,0,-1,1546,1303,0,0
329,-279,0,0,0,0,0,0,0,0,0,-1,1553,1303,0,0
336,-279,0,0,0,0,0,0,0,0,0,-1,1560,1303,0,0
343,-279,0,0,0,0,0,0,0,0,0,-1,1567,1303,0,0
350,-279,0,0,0,0,0,0,0,0,0,-1,1574,1303,0,0
357,-279,0,0,0,0,0,0,0,0,0,-1,1581,1303,0,0
364,-279,0,0,0,0,0,0,0,0,0,-1,1588,1303,0,0
371,-279,0,0,0,0,0,0,0,0,0,-1,1595,1303,0,0
378,-279,0,0,0,0,0,0,0,0,0,-1,1602,1303,0,0
385,-279,0,0,0,0,0,0,0,0,0,-1,1609,1303,0,0
392,-279,0,0,0,0,0,0,0,0,0,-1,1616,1303,0,0
399,-279,0,0,0,0,0,0,0,0,0,-1,1623,1303,0,0
406,-279,0,0,0,0,0,0,0,0,0,-1,1630,1303,0,0
413,-279,0,0,0,0,0,0,0,0,0,-1,1637,1303,0,0
420,-279,0,0,0,0,0,0,0,0,0,-1,1644,1303,0,0
427,-279,0,0,0,0,0,0,0,0,0,-1,1651,1303,0,0
434,-279,0,0,0,0,0,0,0,0,0,-1,1658,1303,0,0
441,-279,0,0,0,0,0,0,0,0,0,-1,1665,1303,0,0
448,-279,0,0,0,0,0,0,0,0,0,-1,1672,1303,0,0
455,-279,0,0,0,0,0,0,0,0,0,-1,1679,1303,0,0
462,-279,0,0,0,0,0,0,0,0,0,-1,1686,1303,0,0
469,-279,0,0,0,0,0,0,0,0,0,-1,1693,1303,0,0
476,-279,0,0,0,0,0,0,0,0,0,-1,1700,1303,0,0
483,-279,0,0,0,0,0,0,0,0,0,-1,1707,1303,0,0
490,-279,0,0,0,0,0,0,0,0,0,-1,1714,1303,0,0
497,-279,0,0,0,0,0,0,0,0,0,-1,1721,1303,0,0
504,-279,0,0,0,0,0,0,0,0,0,-1,1728,1303,0,0
511,-279,0,0,0,0,0,0,0,0,0,-1,1735,1303,0,0
518,-279,0,0,0,0,0,0,0,0,0,-1,1742,1303,0,0
525,-279,0,0,0,0,0,0,0,0,0,-1,1749,1303,0,0
532,-279,0,0,0,0,0,0,0,0,0,-1,1756,1303,0,0
539,-279,0,0,0,0,0,0,0,0,0,-1,1763,1303,0,0
546,-279,0,0,0,0,0,0,0,0,0,-1,1770,1303,0,0
553,-279,0,0,0,0,0,0,0,0,0,-1,1777,1303,0,0
560,-279,0,0,0,0,0,0,0,0,0,-1,1784,1303,0,0
567,-279,0,0,0,0,0,0,0,0,0,-1,1791,1303,0,0
574,-279,0,0,0,0,0,0,0,0,0,-1,1798,1303,0,0
581,-279,0,0,0,0,0,0,0,0,0,-1,1805,1303,0,0
588,-279,0,0,0,0,0,0,0,0,0,-1,1812,1303,0,0
595,-279,0,0,0,0,0,0,0,0,0,-1,1819,1303,0,0
602,-279,33.3975,2.77454,0,0,0,0,0,0,0,-1,1826,1303,33.3975,-2.77451
609,-279,33.2136,2.56213,0,0,0,0,0,0,0,-1,1833,1303,33.2136,-2.56219
616,-279,32.9918,0.14978,0,0,0,0,0,0,0,-1,1840,1303,32.9919,-0.149806
623,-279,33.1991,0.714111,0.0104371,0.0359539,0.016004,0.0436627,0.00272828,1.12191,0.028243,0.0455261,1847,1303,33.1991,-0.714071
630,-279,33.3896,1.27905,0.0092346,0.0314786,0.0180437,0.0415526,-0.000839449,1.06159,0.0279858,0.0414099,1854,1303,33.3897,-1.27905
637,-279,33.3652,2.19373,0.00749037,0.0260152,0.0192097,0.038079,-0.0045734,1.01004,0.0270397,0.0474699,1861,1303,33.3653,-2.19375
644,-279,33.5021,3.40234,0,0,0,0,0,0,0,-1,1868,1303,33.5021,-3.40237
651,-279,27.979,3.85693,0,0,0,0,0,0,0,-1,1875,1303,27.979,-3.85695
658,-279,21.5076,7.65649,0,0,0,0,0,0,0,-1,1882,1303,21.5076,-7.65648
665,-279,18.9794,6.09607,0,0,0,0,0,0,0,-1,1889,1303,18.9793,-6.09601
672,-279,23.5206,8.32507,0,0,0,0,0,0,0,-1,1896,1303,23.5206,-8.32512
679,-279,24.6489,8.14111,0,0,0,0,0,0,0,-1,1903,1303,24.6489,-8.14107
686,-279,24.761,7.67175,0.000926016,0.00215165,0.00800404,0.00956629,-0.00648863,0.823605,0.00932591,0.0232435,1910,1303,24.761,-7.67173
693,-279,24.7737,7.37341,0.000608741,0.000667248,0.00449065,0.00512874,-0.00385276,0.788655,0.00520288,0.0168676,1917,1303,24.7737,-7.37336
700,-279,24.8005,7.09766,0.000337731,0.000512545,0.00218599,0.00261288,-0.0017626,0.80538,0.00254203,0.011307,1924,1303,24.8005,-7.0977
707,-279,24.7965,6.77588,-7.28819e-05,-1.64921e-05,0.00112413,0.0010798,-0.00116918,0.797936,0.00129879,0.00824661,1931,1303,24.7965,-6.77585
714,-279,24.7858,6.45764,-0.000620882,-4.48869e-05,0.000770774,0.000489937,-0.00115571,0.96419,0.000975686,0.00991095,1938,1303,24.7858,-6.45766
721,-279,24.7964,6.15369,-0.00111741,-8.41555e-06,0.000886655,0.000482851,-0.00160868,1.06484,0.00126452,0.012457,1945,1303,24.7964,-6.15363
728,-279,24.7909,5.85181,-0.00171652,7.90246e-05,0.000969852,0.000502846,-0.00214034,1.15881,0.00162072,0.0128033,1952,1303,24.7909,-5.85184
735,-279,24.7638,5.57336,-0.00224293,0.0002349,0.000894689,0.000524179,-0.00253221,1.25808,0.00188729,0.014253,1959,1303,24.7638,-5.57333
742,-279,24.6593,5.29761,-0.00250422,0.000524922,0.000630442,0.000650894,-0.00263019,1.37358,0.00200594,0.0319992,1966,1303,24.6593,-5.29761
749,-279,24.7161,4.97839,0,0,0,0,0,0,0,-1,1973,1303,24.7161,-4.97843
756,-279,23.2091,4.43433,0,0,0,0,0,0,0,-1,1980,1303,23.2092,-4.43432
763,-279,27.1613,3.46265,0,0,0,0,0,0,0,-1,1987,1303,27.1613,-3.4627
770,-279,21.5828,3.54199,0,0,0,0,0,0,0,-1,1994,1303,21.5827,-3.54198
777,-279,32.5369,6.99609,0,0,0,0,0,0,0,-1,2001,1303,32.5369,-6.99608
784,-279,0,0,0,0,0,0,0,0,0,-1,2008,1303,0,0
791,-279,0,0,0,0,0,0,0,0,0,-1,2015,1303,0,0
798,-279,0,0,0,0,0,0,0,0,0,-1,2022,1303,0,0
805,-279,0,0,0,0,0,0,0,0,0,-1,2029,1303,0,0
812,-279,0,0,0,0,0,0,0,0,0,-1,2036,1303,0,0
-700,-286,0,0,0,0,0,0,0,0,0,-1,524,1310,0,0
-693,-286,0,0,0,0,0,0,0,0,0,-1,531,1310,0,0
-686,-286,0,0,0,0,0,0,0,0,0,-1,538,1310,0,0
-679,-286,0,0,0,0,0,0,0,0,0,-1,545,1310,0,0
-672,-286,0,0,0,0,0,0,0,0,0,-1,552,1310,0,0
-665,-286,0,0,0,0,0,0,0,0,0,-1,559,1310,0,0
-658,-286,-14.1937,-4.05469,0,0,0,0,0,0,0,-1,566,1310,-14.1937,4.05469
-651,-286,-14.2874,-2.479,0.0732749,0.106202,0.129857,0.220635,-0.041158,0.848452,0.162555,0.0499269,573,1310,-14.2874,2.47905
-644,-286,-14.0515,0.0181885,0.0671325,0.0933543,0.113312,0.194312,-0.0338249,0.842995,0.142164,0.0487406,580,1310,-14.0514,-0.018166
-637,-286,-13.5577,2.46802,0.0574096,0.0790311,0.0957303,0.164559,-0.0281185,0.841625,0.12018,0.0475741,587,1310,-13.5577,-2.46797
-630,-286,-13.1637,5.17957,0,0,0,0,0,0,0,-1,594,1310,-13.1637,-5.17959
-623,-286,-15.4005,-0.336914,0,0,0,0,0,0,0,-1,601,1310,-15.4005,0.336962
-616,-286,-14.7553,0.670166,0.0310317,0.0408031,0.049921,0.0860769,-0.0142421,0.834177,0.0626737,0.0482491,608,1310,-14.7553,-0.67014
-609,-286,-14.0797,1.92627,0.0251265,0.0309218,0.0375308,0.0656666,-0.00961834,0.823925,0.0473109,0.0448773,615,1310,-14.0796,-1.92626
-602,-286,-13.7709,3.03735,0.0193735,0.0232234,0.0266283,0.0479963,-0.00539929,0.821481,0.0339407,0.0173442,622,1310,-13.7709,-3.03731
-595,-286,-13.7614,3.44507,0.0134184,0.015964,0.015928,0.03067,-0.00128751,0.825268,0.020889,0.0115417,629,1310,-13.7613,-3.44503
-588,-286,-13.7458,3.8125,0.00825633,0.0101229,0.0081747,0.0174174,0.000961833,0.842237,0.0113047,0.0116937,636,1310,-13.7458,-3.8125
-581,-286,-13.7383,4.14111,0.00475635,0.00572376,0.0036552,0.00892712,0.00155299,0.851183,0.00550723,0.0129282,643,1310,-13.7383,-4.14107
-574,-286,-13.7771,4.48364,0.00391811,0.00304112,0.00242689,0.0059458,0.00101343,0.696022,0.00367296,0.0131379,650,1310,-13.7771,-4.48363
-567,-286,-13.7951,4.8562,0.00368639,0.00125894,0.0015673,0.00445497,0.000490352,0.455928,0.00282077,0.0131258,657,1310,-13.7951,-4.85623
-560,-286,-13.7983,5.22546,0.00398428,0.000395246,0.00101619,0.00425203,0.0001275,0.257626,0.00279316,0.0135823,664,1310,-13.7983,-5.22545
-553,-286,-13.7722,5.58154,0.00470799,0.000446788,0.000632529,0.0047999,0.000354878,0.144295,0.00308844,0.0105633,671,1310,-13.7722,-5.58149
-546,-286,-13.7754,5.97058,0.00539047,0.000832963,-8.36092e-06,0.00539049,0.000832948,-0.00183453,0.0033507,0.015119,678,1310,-13.7754,-5.97057
-539,-286,-13.7977,6.38208,0.00603899,0.00125023,-0.00106369,0.00626463,0.00102459,-0.20903,0.00388024,0.0360644,685,1310,-13.7978,-6.38203
-532,-286,-13.7345,6.79858,0,0,0,0,0,0,0,-1,692,1310,-13.7345,-6.79855
-525,-286,-11.4528,-1.11768,0,0,0,0,0,0,0,-1,699,1310,-11.4528,1.11769
-518,-286,-11.0701,1.37329,0,0,0,0,0,0,0,-1,706,1310,-11.0701,-1.37332
-511,-286,-17.7545,-0.0791016,0,0,0,0,0,0,0,-1,713,1310,-17.7544,0.0791606
-504,-286,-18.0455,1.29602,0,0,0,0,0,0,0,-1,720,1310,-18.0455,-1.29601
-497,-286,-18.3367,2.67114,0,0,0,0,0,0,0,-1,727,1310,-18.3366,-2.67118
-490,-286,-19.5795,2.47266,0,0,0,0,0,0,0,-1,734,1310,-19.5795,-2.4727
-483,-286,-19.7277,2.74744,0,0,0,0,0,0,0,-1,741,1310,-19.7277,-2.74747
-476,-286,-20.0391,3.06177,0,0,0,0,0,0,0,-1,748,1310,-20.0391,-3.06178
-469,-286,0,0,0,0,0,0,0,0,0,-1,755,1310,0,0
-462,-286,0,0,0,0,0,0,0,0,0,-1,762,1310,0,0
-455,-286,0,0,0,0,0,0,0,0,0,-1,769,1310,0,0
-448,-286,0,0,0,0,0,0,0,0,0,-1,776,1310,0,0
-441,-286,0,0,0,0,0,0,0,0,0,-1,783,1310,0,0
-434,-286,0,0,0,0,0,0,0,0,0,-1,790,1310,0,0
-427,-286,0,0,0,0,0,0,0,0,0,-1,797,1310,0,0
-420,-286,0,0,0,0,0,0,0,0,0,-1,804,1310,0,0
-413,-286,0,0,0,0,0,0,0,0,0,-1,811,1310,0,0
-406,-286,0,0,0,0,0,0,0,0,0,-1,818,1310,0,0
-399,-286,0,0,0,0,0,0,0,0,0,-1,825,1310,0,0
-392,-286,0,0,0,0,0,0,0,0,0,-1,832,1310,0,0
-385,-286,0,0,0,0,0,0,0,0,0,-1,839,1310,0,0
-378,-286,0,0,0,0,0,0,0,0,0,-1,846,1310,0,0
-371,-286,0,0,0,0,0,0,0,0,0,-1,853,1310,0,0
-364,-286,0,0,0,0,0,0,0,0,0,-1,860,1310,0,0
-357,-286,0,0,0,0,0,0,0,0,0,-1,867,1310,0,0
-350,-286,0,0,0,0,0,0,0,0,0,-1,874,1310,0,0
-343,-286,0,0,0,0,0,0,0,0,0,-1,881,1310,0,0
-336,-286,0,0,0,0,0,0,0,0,0,-1,888,1310,0,0
-329,-286,0,0,0,0,0,0,0,0,0,-1,895,1310,0,0
-322,-286,0,0,0,0,0,0,0,0,0,-1,902,1310,0,0
-315,-286,0,0,0,0,0,0,0,0,0,-1,909,1310,0,0
-308,-286,0,0,0,0,0,0,0,0,0,-1,916,1310,0,0
-301,-286,0,0,0,0,0,0,0,0,0,-1,923,1310,0,0
-294,-286,0,0,0,0,0,0,0,0,0,-1,930,1310,0,0
-287,-286,0,0,0,0,0,0,0,0,0,-1,937,1310,0,0
-280,-286,0,0,0,0,0,0,0,0,0,-1,944,1310,0,0
-273,-286,0,0,0,0,0,0,0,0,0,-1,951,1310,0,0
-266,-286,0,0,0,0,0,0,0,0,0,-1,958,1310,0,0
-259,-286,0,0,0,0,0,0,0,0,0,-1,965,1310,0,0
-252,-286,0,0,0,0,0,0,0,0,0,-1,972,1310,0,0
-245,-286,0,0,0,0,0,0,0,0,0,-1,979,1310,0,0
-238,-286,0,0,0,0,0,0,0,0,0,-1,986,1310,0,0
-231,-286,0,0,0,0,0,0,0,0,0,-1,993,1310,0,0
-224,-286,0,0,0,0,0,0,0,0,0,-1,1000,1310,0,0
-217,-286,0,0,0,0,0,0,0,0,0,-1,1007,1310,0,0
-210,-286,0,0,0,0,0,0,0,0,0,-1,1014,1310,0,0
-203,-286,0,0,0,0,0,0,0,0,0,-1,1021,1310,0,0
-196,-286,0,0,0,0,0,0,0,0,0,-1,1028,1310,0,0
-189,-286,0,0,0,0,0,0,0,0,0,-1,1035,1310,0,0
-182,-286,0,0,0,0,0,0,0,0,0,-1,1042,1310,0,0
-175,-286,0,0,0,0,0,0,0,0,0,-1,1049,1310,0,0
-168,-286,0,0,0,0,0,0,0,0,0,-1,1056,1310,0,0
-161,-286,0,0,0,0,0,0,0,0,0,-1,1063,1310,0,0
-154,-286,0,0,0,0,0,0,0,0,0,-1,1070,1310,0,0
-147,-286,0,0,0,0,0,0,0,0,0,-1,1077,1310,0,0
-140,-286,0,0,0,0,0,0,0,0,0,-1,1084,1310,0,0
-133,-286,0,0,0,0,0,0,0,0,0,-1,1091,1310,0,0
-126,-286,0,0,0,0,0,0,0,0,0,-1,1098,1310,0,0
-119,-286,0,0,0,0,0,0,0,0,0,-1,1105,1310,0,0
-112,-286,0,0,0,0,0,0,0,0,0,-1,1112,1310,0,0
-105,-286,0,0,0,0,0,0,0,0,0,-1,1119,1310,0,0
-98,-286,0,0,0,0,0,0,0,0,0,-1,1126,1310,0,0
-91,-286,0,0,0,0,0,0,0,0,0,-1,1133,1310,0,0
-84,-286,0,0,0,0,0,0,0,0,0,-1,1140,1310,0,0
-77,-286,0,0,0,0,0,0,0,0,0,-1,1147,1310,0,0
-70,-286,0,0,0,0,0,0,0,0,0,-1,1154,1310,0,0
-63,-286,0,0,0,0,0,0,0,0,0,-1,1161,1310,0,0
-56,-286,0,0,0,0,0,0,0,0,0,-1,1168,1310,0,0
-49,-286,0,0,0,0,0,0,0,0,0,-1,1175,1310,0,0
-42,-286,0,0,0,0,0,0,0,0,0,-1,1182,1310,0,0
-35,-286,0,0,0,0,0,0,0,0,0,-1,1189,1310,0,0
-28,-286,0,0,0,0,0,0,0,0,0,-1,1196,1310,0,0
-21,-286,0,0,0,0,0,0,0,0,0,-1,1203,1310,0,0
-14,-286,0,0,0,0,0,0,0,0,0,-1,1210,1310,0,0
-7,-286,0,0,0,0,0,0,0,0,0,-1,1217,1310,0,0
0,-286,0,0,0,0,0,0,0,0,0,-1,1224,1310,0,0
7,-286,0,0,0,0,0,0,0,0,0,-1,1231,1310,0,0
14,-286,0,0,0,0,0,0,0,0,0,-1,1238,1310,0,0
21,-286,0,0,0,0,0,0,0,0,0,-1,1245,1310,0,0
28,-286,0,0,0,0,0,0,0,0,0,-1,1252,1310,0,0
35,-286,0,0,0,0,0,0,0,0,0,-1,1259,1310,0,0
42,-286,0,0,0,0,0,0,0,0,0,-1,1266,1310,0,0
49,-286,0,0,0,0,0,0,0,0,0,-1,1273,1310,0,0
56,-286,0,0,0,0,0,0,0,0,0,-1,1280,1310,0,0
63,-286,0,0,0,0,0,0,0,0,0,-1,1287,1310,0,0
70,-286,0,0,0,0,0,0,0,0,0,-1,1294,1310,0,0
77,-286,0,0,0,0,0,0,0,0,0,-1,1301,1310,0,0
84,-286,0,0,0,0,0,0,0,0,0,-1,1308,1310,0,0
91,-286,0,0,0,0,0,0,0,0,0,-1,1315,1310,0,0
98,-286,0,0,0,0,0,0,0,0,0,-1,1322,1310,0,0
105,-286,0,0,0,0,0,0,0,0,0,-1,1329,1310,0,0
112,-286,0,0,0,0,0,0,0,0,0,-1,1336,1310,0,0
119,-286,0,0,0,0,0,0,0,0,0,-1,1343,1310,0,0
126,-286,0,0,0,0,0,0,0,0,0,-1,1350,1310,0,0
133,-286,0,0,0,0,0,0,0,0,0,-1,1357,1310,0,0
140,-286,0,0,0,0,0,0,0,0,0,-1,1364,1310,0,0
147,-286,0,0,0,0,0,0,0,0,0,-1,1371,1310,0,0
154,-286,0,0,0,0,0,0,0,0,0,-1,1378,1310,0,0
161,-286,0,0,0,0,0,0,0,0,0,-1,1385,1310,0,0
168,-286,0,0,0,0,0,0,0,0,0,-1,1392,1310,0,0
175,-286,0,0,0,0,0,0,0,0,0,-1,1399,1310,0,0
182,-286,0,0,0,0,0,0,0,0,0,-1,1406,1310,0,0
189,-286,0,0,0,0,0,0,0,0,0,-1,1413,1310,0,0
196,-286,0,0,0,0,0,0,0,0,0,-1,1420,1310,0,0
203,-286,0,0,0,0,0,0,0,0,0,-1,1427,1310,0,0
210,-286,0,0,0,0,0,0,0,0,0,-1,1434,1310,0,0
217,-286,0,0,0,0,0,0,0,0,0,-1,1441,1310,0,0
224,-286,0,0,0,0,0,0,0,0,0,-1,1448,1310,0,0
231,-286,0,0,0,0,0,0,0,0,0,-1,1455,1310,0,0
238,-286,0,0,0,0,0,0,0,0,0,-1,1462,1310,0,0
245,-286,0,0,0,0,0,0,0,0,0,-1,1469,1310,0,0
252,-286,0,0,0,0,0,0,0,0,0,-1,1476,1310,0,0
259,-286,0,0,0,0,0,0,0,0,0,-1,1483,1310,0,0
266,-286,0,0,0,0,0,0,0,0,0,-1,1490,1310,0,0
273,-286,0,0,0,0,0,0,0,0,0,-1,1497,1310,0,0
280,-286,0,0,0,0,0,0,0,0,0,-1,1504,1310,0,0
287,-286,0,0,0,0,0,0,0,0,0,-1,1511,1310,0,0
294,-286,0,0,0,0,0,0,0,0,0,-1,1518,1310,0,0
301,-286,0,0,0,0,0,0,0,0,0,-1,1525,1310,0,0
308,-286,0,0,0,0,0,0,0,0,0,-1,1532,1310,0,0
315,-286,0,0,0,0,0,0,0,0,0,-1,1539,1310,0,0
322,-286,0,0,0,0,0,0,0,0,0,-1,1546,1310,0,0
329,-286,0,0,0,0,0,0,0,0,0,-1,1553,1310,0,0
336,-286,0,0,0,0,0,0,0,0,0,-1,1560,1310,0,0
343,-286,0,0,0,0,0,0,0,0,0,-1,1567,1310,0,0
350,-286,0,0,0,0,0,0,0,0,0,-1,1574,1310,0,0
357,-286,0,0,0,0,0,0,0,0,0,-1,1581,1310,0,0
364,-286,0,0,0,0,0,0,0,0,0,-1,1588,1310,0,0
371,-286,0,0,0,0,0,0,0,0,0,-1,1595,1310,0,0
378,-286,0,0,0,0,0,0,0,0,0,-1,1602,1310,0,0
385,-286,0,0,0,0,0,0,0,0,0,-1,1609,1310,0,0
392,-286,0,0,0,0,0,0,0,0,0,-1,1616,1310,0,0
399,-286,0,0,0,0,0,0,0,0,0,-1,1623,1310,0,0
406,-286,0,0,0,0,0,0,0,0,0,-1,1630,1310,0,0
413,-286,0,0,0,0,0,0,0,0,0,-1,1637,1310,0,0
420,-286,0,0,0,0,0,0,0,0,0,-1,1644,1310,0,0
427,-286,0,0,0,0,0,0,0,0,0,-1,1651,1310,0,0
434,-286,0,0,0,0,0,0,0,0,0,-1,1658,1310,0,0
441,-286,0,0,0,0,0,0,0,0,0,-1,1665,1310,0,0
448,-286,0,0,0,0,0,0,0,0,0,-1,1672,1310,0,0
455,-286,0,0,0,0,0,0,0,0,0,-1,1679,1310,0,0
462,-286,0,0,0,0,0,0,0,0,0,-1,1686,1310,0,0
469,-286,0,0,0,0,0,0,0,0,0,-1,1693,1310,0,0
476,-286,0,0,0,0,0,0,0,0,0,-1,1700,1310,0,0
483,-286,0,0,0,0,0,0,0,0,0,-1,1707,1310,0,0
490,-286,0,0,0,0,0,0,0,0,0,-1,1714,1310,0,0
497,-286,0,0,0,0,0,0,0,0,0,-1,1721,1310,0,0
504,-286,0,0,0,0,0,0,0,0,0,-1,1728,1310,0,0
511,-286,0,0,0,0,0,0,0,0,0,-1,1735,1310,0,0
518,-286,0,0,0,0,0,0,0,0,0,-1,1742,1310,0,0
525,-286,0,0,0,0,0,0,0,0,0,-1,1749,1310,0,0
532,-286,0,0,0,0,0,0,0,0,0,-1,1756,1310,0,0
539,-286,0,0,0,0,0,0,0,0,0,-1,1763,1310,0,0
546,-286,0,0,0,0,0,0,0,0,0,-1,1770,1310,0,0
553,-286,0,0,0,0,0,0,0,0,0,-1,1777,1310,0,0
560,-286,0,0,0,0,0,0,0,0,0,-1,1784,1310,0,0
567,-286,0,0,0,0,0,0,0,0,0,-1,1791,1310,0,0
574,-286,0,0,0,0,0,0,0,0,0,-1,1798,1310,0,0
581,-286,0,0,0,0,0,0,0,0,0,-1,1805,1310,0,0
588,-286,0,0,0,0,0,0,0,0,0,-1,1812,1310,0,0
595,-286,33.5936,2.89209,0,0,0,0,0,0,0,-1,1819,1310,33.5936,-2.89215
602,-286,33.5477,2.72778,0,0,0,0,0,0,0,-1,1826,1310,33.5477,-2.72777
609,-286,32.4821,-1.61731,0,0,0,0,0,0,0,-1,1833,1310,32.482,1.61733
616,-286,32.8175,-0.775879,0,0,0,0,0,0,0,-1,1840,1310,32.8175,0.77588
623,-286,33.2549,0.27124,0.0105512,0.0366593,0.0101529,0.0401428,0.00706777,1.24028,0.0247447,0.0471976,1847,1310,33.2549,-0.271298
630,-286,33.6013,0.894165,0.00934821,0.0317583,0.0133252,0.0379634,0.00314309,1.13499,0.024329,0.0472134,1854,1310,33.6013,-0.894144
637,-286,33.8982,1.37842,0,0,0,0,0,0,0,-1,1861,1310,33.8982,-1.37836
644,-286,25.6433,1.33862,0,0,0,0,0,0,0,-1,1868,1310,25.6433,-1.33858
651,-286,25.2507,1.88245,0,0,0,0,0,0,0,-1,1875,1310,25.2508,-1.88245
658,-286,25.3597,8.27942,0,0,0,0,0,0,0,-1,1882,1310,25.3598,-8.27941
665,-286,24.9838,8.03101,0,0,0,0,0,0,0,-1,1889,1310,24.9837,-8.03104
672,-286,24.4067,8.52209,0,0,0,0,0,0,0,-1,1896,1310,24.4068,-8.52205
679,-286,24.4111,8.08997,0.00169589,0.00500057,0.0100698,0.0135527,-0.00685627,0.866718,0.0119927,0.0351157,1903,1310,24.4112,-8.08992
686,-286,24.4512,7.69519,0.00075194,0.00174581,0.00675161,0.00801875,-0.00552099,0.822133,0.00786139,0.0224386,1910,1310,24.4511,-7.69513
693,-286,24.4453,7.39087,0.000399016,0.000399775,0.00353636,0.00393575,-0.00313696,0.785452,0.00409211,0.0168374,1917,1310,24.4453,-7.39082
700,-286,24.4658,7.09216,9.99289e-05,0.000244141,0.00170071,0.00187428,-0.00153021,0.806584,0.00196892,0.0112218,1924,1310,24.4658,-7.0922
707,-286,24.4746,6.79578,-0.000280809,-9.15757e-05,0.000969051,0.000787468,-0.00115985,0.834063,0.00113112,0.00809723,1931,1310,24.4746,-6.79575
714,-286,24.4689,6.48987,-0.000799932,-0.000154955,0.000849529,0.000431236,-0.00138612,0.966801,0.00109647,0.0083666,1938,1310,24.4689,-6.4899
721,-286,24.4861,6.17358,-0.0013979,-0.000178757,0.0010441,0.000420691,-0.00199735,1.04962,0.0014917,0.0109778,1945,1310,24.4861,-6.17363
728,-286,24.4694,5.85547,-0.00212807,-0.000160307,0.00119717,0.000405407,-0.00269378,1.12936,0.00194512,0.0137678,1952,1310,24.4694,-5.85546
735,-286,24.4934,5.54163,-0.0028612,-6.98945e-05,0.0011667,0.000353528,-0.00328462,1.22266,0.0023166,0.0188615,1959,1310,24.4934,-5.54162
742,-286,24.4961,5.27063,-0.00344858,0.000136488,0.000954758,0.000374899,-0.00368699,1.32609,0.00259202,0.0417451,1966,1310,24.496,-5.27062
749,-286,24.662,4.9574,0,0,0,0,0,0,0,-1,1973,1310,24.662,-4.95735
756,-286,24.8226,4.43481,0,0,0,0,0,0,0,-1,1980,1310,24.8227,-4.43479
763,-286,20.6671,3.99683,0,0,0,0,0,0,0,-1,1987,1310,20.6671,-3.99683
770,-286,23.9147,4.45679,0,0,0,0,0,0,0,-1,1994,1310,23.9146,-4.45675
777,-286,0,0,0,0,0,0,0,0,0,-1,2001,1310,0,0
784,-286,0,0,0,0,0,0,0,0,0,-1,2008,1310,0,0
791,-286,0,0,0,0,0,0,0,0,0,-1,2015,1310,0,0
798,-286,0,0,0,0,0,0,0,0,0,-1,2022,1310,0,0
805,-286,0,0,0,0,0,0,0,0,0,-1,2029,1310,0,0
812,-286,0,0,0,0,0,0,0,0,0,-1,2036,1310,0,0
-700,-293,0,0,0,0,0,0,0,0,0,-1,524,1317,0,0
-693,-293,0,0,0,0,0,0,0,0,0,-1,531,1317,0,0
-686,-293,0,0,0,0,0,0,0,0,0,-1,538,1317,0,0
-679,-293,0,0,0,0,0,0,0,0,0,-1,545,1317,0,0
-672,-293,0,0,0,0,0,0,0,0,0,-1,552,1317,0,0
-665,-293,0,0,0,0,0,0,0,0,0,-1,559,1317,0,0
-658,-293,0,0,0,0,0,0,0,0,0,-1,566,1317,0,0
-651,-293,-13.5461,-3.19849,0,0,0,0,0,0,0,-1,573,1317,-13.5461,3.19844
-644,-293,-13.1549,-0.612427,0,0,0,0,0,0,0,-1,580,1317,-13.1549,0.612477
-637,-293,-12.0031,1.33484,0,0,0,0,0,0,0,-1,587,1317,-12.0031,-1.33488
-630,-293,-10.762,3.84583,0,0,0,0,0,0,0,-1,594,1317,-10.762,-3.84577
-623,-293,-13.7504,-0.531128,0,0,0,0,0,0,0,-1,601,1317,-13.7504,0.531156
-616,-293,-13.0383,1.86841,0,0,0,0,0,0,0,-1,608,1317,-13.0383,-1.86842
-609,-293,-13.1331,2.49109,0.0283733,0.0348475,0.0396473,0.0713896,-0.00816882,0.826131,0.0505366,0.0466689,615,1317,-13.1331,-2.49107
-602,-293,-13.3058,2.92188,0.0215592,0.0259422,0.0280738,0.0519098,-0.00440851,0.82435,0.0361657,0.0362482,622,1317,-13.3058,-2.92184
-595,-293,-13.4249,3.43091,0.0147653,0.0176999,0.0167271,0.0330239,-0.000558784,0.829146,0.0222046,0.0170286,629,1317,-13.4249,-3.43086
-588,-293,-13.4116,3.78931,0.00897281,0.0111204,0.00863027,0.0187434,0.00134979,0.847292,0.0120709,0.0149782,636,1317,-13.4115,-3.78933
-581,-293,-13.3954,4.14648,0.00500044,0.00623187,0.00386484,0.00952973,0.00170258,0.86439,0.00586854,0.0161138,643,1317,-13.3954,-4.14649
-574,-293,-13.4138,4.52002,0.00387858,0.00341154,0.00244929,0.00610546,0.00118466,0.737871,0.00373852,0.0147789,650,1317,-13.4138,-4.52007
-567,-293,-13.4424,4.88464,0.00338031,0.00150295,0.00150121,0.00421216,0.000671104,0.505998,0.00261329,0.0159142,657,1317,-13.4424,-4.8847
-560,-293,-13.4471,5.23901,0.00341721,0.000209768,0.000849569,0.00362834,-1.36369e-06,0.243581,0.00241935,0.0166676,664,1317,-13.4471,-5.23898
-553,-293,-13.4163,5.58728,0.0041139,4.31513e-05,0.000626945,0.00420827,-5.12181e-05,0.149401,0.00282274,0.0113219,671,1317,-13.4163,-5.58725
-546,-293,-13.4264,5.97961,0.00504108,0.000128879,0.000361304,0.00506751,0.000102446,0.0730286,0.00334472,0.0106149,678,1317,-13.4264,-5.97956
-539,-293,-13.4082,6.35474,0.00620187,0.000251879,-0.000123153,0.00620442,0.00024933,-0.0206862,0.00405572,0.0293442,685,1317,-13.4082,-6.3548
-532,-293,-13.3622,6.66028,0,0,0,0,0,0,0,-1,692,1317,-13.3622,-6.66023
-525,-293,-8.20642,3.62256,0,0,0,0,0,0,0,-1,699,1317,-8.20639,-3.6226
-518,-293,-10.1053,0.314209,0,0,0,0,0,0,0,-1,706,1317,-10.1053,-0.314234
-511,-293,-11.6276,0.235352,0,0,0,0,0,0,0,-1,713,1317,-11.6276,-0.235372
-504,-293,-17.9086,1.25427,0,0,0,0,0,0,0,-1,720,1317,-17.9086,-1.25423
-497,-293,-18.8006,1.62122,0,0,0,0,0,0,0,-1,727,1317,-18.8006,-1.62119
-490,-293,-18.8961,1.99255,0,0,0,0,0,0,0,-1,734,1317,-18.8961,-1.99251
-483,-293,-19.0831,2.35498,0,0,0,0,0,0,0,-1,741,1317,-19.0831,-2.35497
-476,-293,-19.5228,2.61243,0,0,0,0,0,0,0,-1,748,1317,-19.5228,-2.61237
-469,-293,0,0,0,0,0,0,0,0,0,-1,755,1317,0,0
-462,-293,0,0,0,0,0,0,0,0,0,-1,762,1317,0,0
-455,-293,0,0,0,0,0,0,0,0,0,-1,769,1317,0,0
-448,-293,0,0,0,0,0,0,0,0,0,-1,776,1317,0,0
-441,-293,0,0,0,0,0,0,0,0,0,-1,783,1317,0,0
-434,-293,0,0,0,0,0,0,0,0,0,-1,790,1317,0,0
-427,-293,0,0,0,0,0,0,0,0,0,-1,797,1317,0,0
-420,-293,0,0,0,0,0,0,0,0,0,-1,804,1317,0,0
-413,-293,0,0,0,0,0,0,0,0,0,-1,811,1317,0,0
-406,-293,0,0,0,0,0,0,0,0,0,-1,818,1317,0,0
-399,-293,0,0,0,0,0,0,0,0,0,-1,825,1317,0,0
-392,-293,0,0,0,0,0,0,0,0,0,-1,832,1317,0,0
-385,-293,0,0,0,0,0,0,0,0,0,-1,839,1317,0,0
-378,-293,0,0,0,0,0,0,0,0,0,-1,846,1317,0,0
-371,-293,0,0,0,0,0,0,0,0,0,-1,853,1317,0,0
-364,-293,0,0,0,0,0,0,0,0,0,-1,860,1317,0,0
-357,-293,0,0,0,0,0,0,0,0,0,-1,867,1317,0,0
-350,-293,0,0,0,0,0,0,0,0,0,-1,874,1317,0,0
-343,-293,0,0,0,0,0,0,0,0,0,-1,881,1317,0,0
-336,-293,0,0,0,0,0,0,0,0,0,-1,888,1317,0,0
-329,-293,0,0,0,0,0,0,0,0,0,-1,895,1317,0,0
-322,-293,0,0,0,0,0,0,0,0,0,-1,902,1317,0,0
-315,-293,0,0,0,0,0,0,0,0,0,-1,909,1317,0,0
-308,-293,0,0,0,0,0,0,0,0,0,-1,916,1317,0,0
-301,-293,0,0,0,0,0,0,0,0,0,-1,923,1317,0,0
-294,-293,0,0,0,0,0,0,0,0,0,-1,930,1317,0,0
-287,-293,0,0,0,0,0,0,0,0,0,-1,937,1317,0,0
-280,-293,0,0,0,0,0,0,0,0,0,-1,944,1317,0,0
-273,-293,0,0,0,0,0,0,0,0,0,-1,951,1317,0,0
-266,-293,0,0,0,0,0,0,0,0,0,-1,958,1317,0,0
-259,-293,0,0,0,0,0,0,0,0,0,-1,965,1317,0,0
-252,-293,0,0,0,0,0,0,0,0,0,-1,972,1317,0,0
-245,-293,0,0,0,0,0,0,0,0,0,-1,979,1317,0,0
-238,-293,0,0,0,0,0,0,0,0,0,-1,986,1317,0,0
-231,-293,0,0,0,0,0,0,0,0,0,-1,993,1317,0,0
-224,-293,0,0,0,0,0,0,0,0,0,-1,1000,1317,0,0
-217,-293,0,0,0,0,0,0,0,0,0,-1,1007,1317,0,0
-210,-293,0,0,0,0,0,0,0,0,0,-1,1014,1317,0,0
-203,-293,0,0,0,0,0,0,0,0,0,-1,1021,1317,0,0
-196,-293,0,0,0,0,0,0,0,0,0,-1,1028,1317,0,0
-189,-293,0,0,0,0,0,0,0,0,0,-1,1035,1317,0,0
-182,-293,0,0,0,0,0,0,0,0,0,-1,1042,1317,0,0
-175,-293,0,0,0,0,0,0,0,0,0,-1,1049,1317,0,0
-168,-293,0,0,0,0,0,0,0,0,0,-1,1056,1317,0,0
-161,-293,0,0,0,0,0,0,0,0,0,-1,1063,1317,0,0
-154,-293,0,0,0,0,0,0,0,0,0,-1,1070,1317,0,0
-147,-293,0,0,0,0,0,0,0,0,0,-1,1077,1317,0,0
-140,-293,0,0,0,0,0,0,0,0,0,-1,1084,1317,0,0
-133,-293,0,0,0,0,0,0,0,0,0,-1,1091,1317,0,0
-126,-293,0,0,0,0,0,0,0,0,0,-1,1098,1317,0,0
-119,-293,0,0,0,0,0,0,0,0,0,-1,1105,1317,0,0
-112,-293,0,0,0,0,0,0,0,0,0,-1,1112,1317,0,0
-105,-293,0,0,0,0,0,0,0,0,0,-1,1119,1317,0,0
-98,-293,0,0,0,0,0,0,0,0,0,-1,1126,1317,0,0
-91,-293,0,0,0,0,0,0,0,0,0,-1,1133,1317,0,0
-84,-293,0,0,0,0,0,0,0,0,0,-1,1140,1317,0,0
-77,-293,0,0,0,0,0,0,0,0,0,-1,1147,1317,0,0
-70,-293,0,0,0,0,0,0,0,0,0,-1,1154,1317,0,0
-63,-293,0,0,0,0,0,0,0,0,0,-1,1161,1317,0,0
-56,-293,0,0,0,0,0,0,0,0,0,-1,1168,1317,0,0
-49,-293,0,0,0,0,0,0,0,0,0,-1,1175,1317,0,0
-42,-293,0,0,0,0,0,0,0,0,0,-1,1182,1317,0,0
-35,-293,0,0,0,0,0,0,0,0,0,-1,1189,1317,0,0
-28,-293,0,0,0,0,0,0,0,0,0,-1,1196,1317,0,0
-21,-293,0,0,0,0,0,0,0,0,0,-1,1203,1317,0,0
-14,-293,0,0,0,0,0,0,0,0,0,-1,1210,1317,0,0
-7,-293,0,0,0,0,0,0,0,0,0,-1,1217,1317,0,0
0,-293,0,0,0,0,0,0,0,0,0,-1,1224,1317,0,0
7,-293,0,0,0,0,0,0,0,0,0,-1,1231,1317,0,0
14,-293,0,0,0,0,0,0,0,0,0,-1,1238,1317,0,0
21,-293,0,0,0,0,0,0,0,0,0,-1,1245,1317,0,0
28,-293,0,0,0,0,0,0,0,0,0,-1,1252,1317,0,0
35,-293,0,0,0,0,0,0,0,0,0,-1,1259,1317,0,0
42,-293,0,0,0,0,0,0,0,0,0,-1,1266,1317,0,0
49,-293,0,0,0,0,0,0,0,0,0,-1,1273,1317,0,0
56,-293,0,0,0,0,0,0,0,0,0,-1,1280,1317,0,0
63,-293,0,0,0,0,0,0,0,0,0,-1,1287,1317,0,0
70,-293,0,0,0,0,0,0,0,0,0,-1,1294,1317,0,0
77,-293,0,0,0,0,0,0,0,0,0,-1,1301,1317,0,0
84,-293,0,0,0,0,0,0,0,0,0,-1,1308,1317,0,0
91,-293,0,0,0,0,0,0,0,0,0,-1,1315,1317,0,0
98,-293,0,0,0,0,0,0,0,0,0,-1,1322,1317,0,0
105,-293,0,0,0,0,0,0,0,0,0,-1,1329,1317,0,0
112,-293,0,0,0,0,0,0,0,0,0,-1,1336,1317,0,0
119,-293,0,0,0,0,0,0,0,0,0,-1,1343,1317,0,0
126,-293,0,0,0,0,0,0,0,0,0,-1,1350,1317,0,0
133,-293,0,0,0,0,0,0,0,0,0,-1,1357,1317,0,0
140,-293,0,0,0,0,0,0,0,0,0,-1,1364,1317,0,0
147,-293,0,0,0,0,0,0,0,0,0,-1,1371,1317,0,0
154,-293,0,0,0,0,0,0,0,0,0,-1,1378,1317,0,0
161,-293,0,0,0,0,0,0,0,0,0,-1,1385,1317,0,0
168,-293,0,0,0,0,0,0,0,0,0,-1,1392,1317,0,0
175,-293,0,0,0,0,0,0,0,0,0,-1,1399,1317,0,0
182,-293,0,0,0,0,0,0,0,0,0,-1,1406,1317,0,0
189,-293,0,0,0,0,0,0,0,0,0,-1,1413,1317,0,0
196,-293,0,0,0,0,0,0,0,0,0,-1,1420,1317,0,0
203,-293,0,0,0,0,0,0,0,0,0,-1,1427,1317,0,0
210,-293,0,0,0,0,0,0,0,0,0,-1,1434,1317,0,0
217,-293,0,0,0,0,0,0,0,0,0,-1,1441,1317,0,0
224,-293,0,0,0,0,0,0,0,0,0,-1,1448,1317,0,0
231,-293,0,0,0,0,0,0,0,0,0,-1,1455,1317,0,0
238,-293,0,0,0,0,0,0,0,0,0,-1,1462,1317,0,0
245,-293,0,0,0,0,0,0,0,0,0,-1,1469,1317,0,0
252,-293,0,0,0,0,0,0,0,0,0,-1,1476,1317,0,0
259,-293,0,0,0,0,0,0,0,0,0,-1,1483,1317,0,0
266,-293,0,0,0,0,0,0,0,0,0,-1,1490,1317,0,0
273,-293,0,0,0,0,0,0,0,0,0,-1,1497,1317,0,0
280,-293,0,0,0,0,0,0,0,0,0,-1,1504,1317,0,0
287,-293,0,0,0,0,0,0,0,0,0,-1,1511,1317,0,0
294,-293,0,0,0,0,0,0,0,0,0,-1,1518,1317,0,0
301,-293,0,0,0,0,0,0,0,0,0,-1,1525,1317,0,0
308,-293,0,0,0,0,0,0,0,0,0,-1,1532,1317,0,0
315,-293,0,0,0,0,0,0,0,0,0,-1,1539,1317,0,0
322,-293,0,0,0,0,0,0,0,0,0,-1,1546,1317,0,0
329,-293,0,0,0,0,0,0,0,0,0,-1,1553,1317,0,0
336,-293,0,0,0,0,0,0,0,0,0,-1,1560,1317,0,0
343,-293,0,0,0,0,0,0,0,0,0,-1,1567,1317,0,0
350,-293,0,0,0,0,0,0,0,0,0,-1,1574,1317,0,0
357,-293,0,0,0,0,0,0,0,0,0,-1,1581,1317,0,0
364,-293,0,0,0,0,0,0,0,0,0,-1,1588,1317,0,0
371,-293,0,0,0,0,0,0,0,0,0,-1,1595,1317,0,0
378,-293,0,0,0,0,0,0,0,0,0,-1,1602,1317,0,0
385,-293,0,0,0,0,0,0,0,0,0,-1,1609,1317,0,0
392,-293,0,0,0,0,0,0,0,0,0,-1,1616,1317,0,0
399,-293,0,0,0,0,0,0,0,0,0,-1,1623,1317,0,0
406,-293,0,0,0,0,0,0,0,0,0,-1,1630,1317,0,0
413,-293,0,0,0,0,0,0,0,0,0,-1,1637,1317,0,0
420,-293,0,0,0,0,0,0,0,0,0,-1,1644,1317,0,0
427,-293,0,0,0,0,0,0,0,0,0,-1,1651,1317,0,0
434,-293,0,0,0,0,0,0,0,0,0,-1,1658,1317,0,0
441,-293,0,0,0,0,0,0,0,0,0,-1,1665,1317,0,0
448,-293,0,0,0,0,0,0,0,0,0,-1,1672,1317,0,0
455,-293,0,0,0,0,0,0,0,0,0,-1,1679,1317,0,0
462,-293,0,0,0,0,0,0,0,0,0,-1,1686,1317,0,0
469,-293,0,0,0,0,0,0,0,0,0,-1,1693,1317,0,0
476,-293,0,0,0,0,0,0,0,0,0,-1,1700,1317,0,0
483,-293,0,0,0,0,0,0,0,0,0,-1,1707,1317,0,0
490,-293,0,0,0,0,0,0,0,0,0,-1,1714,1317,0,0
497,-293,0,0,0,0,0,0,0,0,0,-1,1721,1317,0,0
504,-293,0,0,0,0,0,0,0,0,0,-1,1728,1317,0,0
511,-293,0,0,0,0,0,0,0,0,0,-1,1735,1317,0,0
518,-293,0,0,0,0,0,0,0,0,0,-1,1742,1317,0,0
525,-293,0,0,0,0,0,0,0,0,0,-1,1749,1317,0,0
532,-293,0,0,0,0,0,0,0,0,0,-1,1756,1317,0,0
539,-293,0,0,0,0,0,0,0,0,0,-1,1763,1317,0,0
546,-293,0,0,0,0,0,0,0,0,0,-1,1770,1317,0,0
553,-293,0,0,0,0,0,0,0,0,0,-1,1777,1317,0,0
560,-293,0,0,0,0,0,0,0,0,0,-1,1784,1317,0,0
567,-293,0,0,0,0,0,0,0,0,0,-1,1791,1317,0,0
574,-293,0,0,0,0,0,0,0,0,0,-1,1798,1317,0,0
581,-293,0,0,0,0,0,0,0,0,0,-1,1805,1317,0,0
588,-293,0,0,0,0,0,0,0,0,0,-1,1812,1317,0,0
595,-293,33.7988,2.87524,0,0,0,0,0,0,0,-1,1819,1317,33.7988,-2.87527
602,-293,33.6992,2.6864,0,0,0,0,0,0,0,-1,1826,1317,33.6993,-2.6864
609,-293,32.9208,3.12866,0,0,0,0,0,0,0,-1,1833,1317,32.9208,-3.12862
616,-293,32.4554,-1.12378,0,0,0,0,0,0,0,-1,1840,1317,32.4554,1.12378
623,-293,33.0533,-0.120117,0,0,0,0,0,0,0,-1,1847,1317,33.0533,0.120091
630,-293,33.8192,0.529419,0,0,0,0,0,0,0,-1,1854,1317,33.8193,-0.529456
637,-293,30.8379,3.60046,0,0,0,0,0,0,0,-1,1861,1317,30.8379,-3.60043
644,-293,24.4565,0.520752,0,0,0,0,0,0,0,-1,1868,1317,24.4566,-0.520709
651,-293,25.3932,8.35547,0,0,0,0,0,0,0,-1,1875,1317,25.3932,-8.35544
658,-293,24.937,8.2793,0,0,0,0,0,0,0,-1,1882,1317,24.937,-8.2793
665,-293,24.4369,8.63818,0,0,0,0,0,0,0,-1,1889,1317,24.4368,-8.63821
672,-293,24.2336,8.40967,0.0025371,0.00757375,0.011292,0.0166248,-0.00651399,0.895112,0.0137778,0.0246734,1896,1317,24.2337,-8.40964
679,-293,24.1729,8.04602,0.00134822,0.00446035,0.00832669,0.0113751,-0.00556655,0.877771,0.00997107,0.0136799,1903,1317,24.1728,-8.04596
686,-293,24.1868,7.71729,0.000434274,0.00143501,0.00522921,0.00618774,-0.00431845,0.833097,0.00609767,0.016228,1910,1317,24.1868,-7.71732
693,-293,24.1608,7.41309,0.000129077,0.000249097,0.00260632,0.0027961,-0.00241792,0.796908,0.00301295,0.0124034,1917,1317,24.1608,-7.41303
700,-293,24.1461,7.09546,-0.000114109,4.51466e-05,0.00133886,0.00130675,-0.00137571,0.8151,0.00154889,0.0101042,1924,1317,24.1462,-7.09542
707,-293,24.1506,6.80286,-0.000433541,-0.000214373,0.000931961,0.000614424,-0.00126234,0.843922,0.00110486,0.00988117,1931,1317,24.1506,-6.80285
714,-293,24.1517,6.49988,-0.000897121,-0.000334501,0.00101183,0.0004344,-0.00166602,0.920984,0.00128029,0.00706275,1938,1317,24.1517,-6.49987
721,-293,24.1615,6.1731,-0.00147842,-0.000424793,0.00126591,0.000419552,-0.00232276,0.982574,0.00170565,0.00902913,1945,1317,24.1615,-6.17307
728,-293,24.1528,5.83582,-0.00220841,-0.000481391,0.00147337,0.000362869,-0.00305267,1.05046,0.00216623,0.0122814,1952,1317,24.1528,-5.83577
735,-293,24.174,5.50818,-0.00292133,-0.000455114,0.00146475,0.000226469,-0.00360292,1.13527,0.00248088,0.0213972,1959,1317,24.174,-5.50821
742,-293,24.1683,5.2135,-0.00346445,-0.000338322,0.00128347,0.000121104,-0.00392388,1.22705,0.0026572,0.0454168,1966,1317,24.1683,-5.21354
749,-293,24.6078,4.82751,0,0,0,0,0,0,0,-1,1973,1317,24.6078,-4.82754
756,-293,24.978,3.9718,0,0,0,0,0,0,0,-1,1980,1317,24.978,-3.97186
763,-293,26.6713,4.74097,0,0,0,0,0,0,0,-1,1987,1317,26.6713,-4.74098
770,-293,24.1349,4.69153,0,0,0,0,0,0,0,-1,1994,1317,24.1348,-4.69159
777,-293,0,0,0,0,0,0,0,0,0,-1,2001,1317,0,0
784,-293,0,0,0,0,0,0,0,0,0,-1,2008,1317,0,0
791,-293,0,0,0,0,0,0,0,0,0,-1,2015,1317,0,0
798,-293,0,0,0,0,0,0,0,0,0,-1,2022,1317,0,0
805,-293,0,0,0,0,0,0,0,0,0,-1,2029,1317,0,0
812,-293,0,0,0,0,0,0,0,0,0,-1,2036,1317,0,0
-700,-300,0,0,0,0,0,0,0,0,0,-1,524,1324,0,0
-693,-300,0,0,0,0,0,0,0,0,0,-1,531,1324,0,0
-686,-300,0,0,0,0,0,0,0,0,0,-1,538,1324,0,0
-679,-300,0,0,0,0,0,0,0,0,0,-1,545,1324,0,0
-672,-300,0,0,0,0,0,0,0,0,0,-1,552,1324,0,0
-665,-300,0,0,0,0,0,0,0,0,0,-1,559,1324,0,0
-658,-300,0,0,0,0,0,0,0,0,0,-1,566,1324,0,0
-651,-300,-12.8325,-3.73962,0,0,0,0,0,0,0,-1,573,1324,-12.8325,3.73965
-644,-300,-12.8171,-1.46387,0,0,0,0,0,0,0,-1,580,1324,-12.8171,1.46384
-637,-300,-12.7684,0.752197,0,0,0,0,0,0,0,-1,587,1324,-12.7684,-0.75222
-630,-300,-14.537,-1.28357,0,0,0,0,0,0,0,-1,594,1324,-14.537,1.28357
-623,-300,-12.9712,0.512817,0,0,0,0,0,0,0,-1,601,1324,-12.9712,-0.512776
-616,-300,-12.7494,1.52637,0,0,0,0,0,0,0,-1,608,1324,-12.7494,-1.52632
-609,-300,-12.8188,2.59595,0,0,0,0,0,0,0,-1,615,1324,-12.8188,-2.59591
-602,-300,-12.9393,2.83862,0,0,0,0,0,0,0,-1,622,1324,-12.9393,-2.83866
-595,-300,-13.09,3.43079,0.0155208,0.0188326,0.0168462,0.0341041,0.000249278,0.834388,0.0226534,0.0256826,629,1324,-13.09,-3.43083
-588,-300,-13.0529,3.81396,0.00927619,0.0115448,0.00859726,0.0190823,0.00173874,0.850989,0.0121834,0.0195248,636,1324,-13.0528,-3.814
-581,-300,-13.0602,4.17871,0.00510729,0.00637017,0.00390951,0.00969891,0.00177855,0.865463,0.00596218,0.018904,643,1324,-13.0602,-4.17869
-574,-300,-13.062,4.55408,0.00391722,0.00358086,0.00246291,0.00621769,0.0012804,0.751308,0.0037911,0.0148744,650,1324,-13.062,-4.55409
-567,-300,-13.0643,4.89783,0.0033464,0.00169301,0.00152878,0.00425769,0.000781717,0.53754,0.0026171,0.0162573,657,1324,-13.0643,-4.89783
-560,-300,-13.0793,5.245,0.00322098,0.000120549,0.000846815,0.00343719,-9.56624e-05,0.249982,0.00232401,0.014779,664,1324,-13.0793,-5.24503
-553,-300,-13.0667,5.60242,0.0038485,-0.000206986,0.000804677,0.00400232,-0.000360813,0.188887,0.00279626,0.0100626,671,1324,-13.0667,-5.60241
-546,-300,-13.076,5.98071,0.00490487,-0.000451605,0.000900069,0.00505207,-0.000598802,0.162105,0.00358436,0.0085814,678,1324,-13.076,-5.98067
-539,-300,-13.044,6.3573,0.0063583,-0.000775211,0.00107305,0.00651622,-0.000933129,0.146118,0.00468626,0.0181364,685,1324,-13.044,-6.35734
-532,-300,-12.9922,6.69641,0,0,0,0,0,0,0,-1,692,1324,-12.9922,-6.69647
-525,-300,-13.5115,6.27783,0,0,0,0,0,0,0,-1,699,1324,-13.5115,-6.2778
-518,-300,-9.8349,-0.537109,0,0,0,0,0,0,0,-1,706,1324,-9.83487,0.537068
-511,-300,-12.8644,0.081665,0,0,0,0,0,0,0,-1,713,1324,-12.8644,-0.0817016
-504,-300,-13.4829,-0.165527,0,0,0,0,0,0,0,-1,720,1324,-13.4829,0.165544
-497,-300,-18.1063,0.956543,0,0,0,0,0,0,0,-1,727,1324,-18.1063,-0.9565
-490,-300,-18.2293,1.53625,0,0,0,0,0,0,0,-1,734,1324,-18.2293,-1.53626
-483,-300,-18.3522,1.61084,0,0,0,0,0,0,0,-1,741,1324,-18.3522,-1.6108
-476,-300,-18.7489,1.96387,0,0,0,0,0,0,0,-1,748,1324,-18.7489,-1.96387
-469,-300,0,0,0,0,0,0,0,0,0,-1,755,1324,0,0
-462,-300,0,0,0,0,0,0,0,0,0,-1,762,1324,0,0
-455,-300,0,0,0,0,0,0,0,0,0,-1,769,1324,0,0
-448,-300,0,0,0,0,0,0,0,0,0,-1,776,1324,0,0
-441,-300,0,0,0,0,0,0,0,0,0,-1,783,1324,0,0
-434,-300,0,0,0,0,0,0,0,0,0,-1,790,1324,0,0
-427,-300,0,0,0,0,0,0,0,0,0,-1,797,1324,0,0
-420,-300,0,0,0,0,0,0,0,0,0,-1,804,1324,0,0
-413,-300,0,0,0,0,0,0,0,0,0,-1,811,1324,0,0
-406,-300,0,0,0,0,0,0,0,0,0,-1,818,1324,0,0
-399,-300,0,0,0,0,0,0,0,0,0,-1,825,1324,0,0
-392,-300,0,0,0,0,0,0,0,0,0,-1,832,1324,0,0
-385,-300,0,0,0,0,0,0,0,0,0,-1,839,1324,0,0
-378,-300,0,0,0,0,0,0,0,0,0,-1,846,1324,0,0
-371,-300,0,0,0,0,0,0,0,0,0,-1,853,1324,0,0
-364,-300,0,0,0,0,0,0,0,0,0,-1,860,1324,0,0
-357,-300,0,0,0,0,0,0,0,0,0,-1,867,1324,0,0
-350,-300,0,0,0,0,0,0,0,0,0,-1,874,1324,0,0
-343,-300,0,0,0,0,0,0,0,0,0,-1,881,1324,0,0
-336,-300,0,0,0,0,0,0,0,0,0,-1,888,1324,0,0
-329,-300,0,0,0,0,0,0,0,0,0,-1,895,1324,0,0
-322,-300,0,0,0,0,0,0,0,0,0,-1,902,1324,0,0
-315,-300,0,0,0,0,0,0,0,0,0,-1,909,1324,0,0
-308,-300,0,0,0,0,0,0,0,0,0,-1,916,1324,0,0
-301,-300,0,0,0,0,0,0,0,0,0,-1,923,1324,0,0
-294,-300,0,0,0,0,0,0,0,0,0,-1,930,1324,0,0
-287,-300,0,0,0,0,0,0,0,0,0,-1,937,1324,0,0
-280,-300,0,0,0,0,0,0,0,0,0,-1,944,1324,0,0
-273,-300,0,0,0,0,0,0,0,0,0,-1,951,1324,0,0
-266,-300,0,0,0,0,0,0,0,0,0,-1,958,1324,0,0
-259,-300,0,0,0,0,0,0,0,0,0,-1,965,1324,0,0
-252,-300,0,0,0,0,0,0,0,0,0,-1,972,1324,0,0
-245,-300,0,0,0,0,0,0,0,0,0,-1,979,1324,0,0
-238,-300,0,0,0,0,0,0,0,0,0,-1,986,1324,0,0
-231,-300,0,0,0,0,0,0,0,0,0,-1,993,1324,0,0
-224,-300,0,0,0,0,0,0,0,0,0,-1,1000,1324,0,0
-217,-300,0,0,0,0,0,0,0,0,0,-1,1007,1324,0,0
-210,-300,0,0,0,0,0,0,0,0,0,-1,1014,1324,0,0
-203,-300,0,0,0,0,0,0,0,0,0,-1,1021,1324,0,0
-196,-300,0,0,0,0,0,0,0,0,0,-1,1028,1324,0,0
-189,-300,0,0,0,0,0,0,0,0,0,-1,1035,1324,0,0
-182,-300,0,0,0,0,0,0,0,0,0,-1,1042,1324,0,0
-175,-300,0,0,0,0,0,0,0,0,0,-1,1049,1324,0,0
-168,-300,0,0,0,0,0,0,0,0,0,-1,1056,1324,0,0
-161,-300,0,0,0,0,0,0,0,0,0,-1,1063,1324,0,0
-154,-300,0,0,0,0,0,0,0,0,0,-1,1070,1324,0,0
-147,-300,0,0,0,0,0,0,0,0,0,-1,1077,1324,0,0
-140,-300,0,0,0,0,0,0,0,0,0,-1,1084,1324,0,0
-133,-300,0,0,0,0,0,0,0,0,0,-1,1091,1324,0,0
-126,-300,0,0,0,0,0,0,0,0,0,-1,1098,1324,0,0
-119,-300,0,0,0,0,0,0,0,0,0,-1,1105,1324,0,0
-112,-300,0,0,0,0,0,0,0,0,0,-1,1112,1324,0,0
-105,-300,0,0,0,0,0,0,0,0,0,-1,1119,1324,0,0
-98,-300,0,0,0,0,0,0,0,0,0,-1,1126,1324,0,0
-91,-300,0,0,0,0,0,0,0,0,0,-1,1133,1324,0,0
-84,-300,0,0,0,0,0,0,0,0,0,-1,1140,1324,0,0
-77,-300,0,0,0,0,0,0,0,0,0,-1,1147,1324,0,0
-70,-300,0,0,0,0,0,0,0,0,0,-1,1154,1324,0,0
-63,-300,0,0,0,0,0,0,0,0,0,-1,1161,1324,0,0
-56,-300,0,0,0,0,0,0,0,0,0,-1,1168,1324,0,0
-49,-300,0,0,0,0,0,0,0,0,0,-1,1175,1324,0,0
-42,-300,0,0,0,0,0,0,0,0,0,-1,1182,1324,0,0
-35,-300,0,0,0,0,0,0,0,0,0,-1,1189,1324,0,0
-28,-300,0,0,0,0,0,0,0,0,0,-1,1196,1324,0,0
-21,-300,0,0,0,0,0,0,0,0,0,-1,1203,1324,0,0
-14,-300,0,0,0,0,0,0,0,0,0,-1,1210,1324,0,0
-7,-300,0,0,0,0,0,0,0,0,0,-1,1217,1324,0,0
0,-300,0,0,0,0,0,0,0,0,0,-1,1224,1324,0,0
7,-300,0,0,0,0,0,0,0,0,0,-1,1231,1324,0,0
14,-300,0,0,0,0,0,0,0,0,0,-1,1238,1324,0,0
21,-300,0,0,0,0,0,0,0,0,0,-1,1245,1324,0,0
28,-300,0,0,0,0,0,0,0,0,0,-1,1252,1324,0,0
35,-300,0,0,0,0,0,0,0,0,0,-1,1259,1324,0,0
42,-300,0,0,0,0,0,0,0,0,0,-1,1266,1324,0,0
49,-300,0,0,0,0,0,0,0,0,0,-1,1273,1324,0,0
56,-300,0,0,0,0,0,0,0,0,0,-1,1280,1324,0,0
63,-300,0,0,0,0,0,0,0,0,0,-1,1287,1324,0,0
70,-300,0,0,0,0,0,0,0,0,0,-1,1294,1324,0,0
77,-300,0,0,0,0,0,0,0,0,0,-1,1301,1324,0,0
84,-300,0,0,0,0,0,0,0,0,0,-1,1308,1324,0,0
91,-300,0,0,0,0,0,0,0,0,0,-1,1315,1324,0,0
98,-300,0,0,0,0,0,0,0,0,0,-1,1322,1324,0,0
105,-300,0,0,0,0,0,0,0,0,0,-1,1329,1324,0,0
112,-300,0,0,0,0,0,0,0,0,0,-1,1336,1324,0,0
119,-300,0,0,0,0,0,0,0,0,0,-1,1343,1324,0,0
126,-300,0,0,0,0,0,0,0,0,0,-1,1350,1324,0,0
133,-300,0,0,0,0,0,0,0,0,0,-1,1357,1324,0,0
140,-300,0,0,0,0,0,0,0,0,0,-1,1364,1324,0,0
147,-300,0,0,0,0,0,0,0,0,0,-1,1371,1324,0,0
154,-300,0,0,0,0,0,0,0,0,0,-1,1378,1324,0,0
161,-300,0,0,0,0,0,0,0,0,0,-1,1385,1324,0,0
168,-300,0,0,0,0,0,0,0,0,0,-1,1392,1324,0,0
175,-300,0,0,0,0,0,0,0,0,0,-1,1399,1324,0,0
182,-300,0,0,0,0,0,0,0,0,0,-1,1406,1324,0,0
189,-300,0,0,0,0,0,0,0,0,0,-1,1413,1324,0,0
196,-300,0,0,0,0,0,0,0,0,0,-1,1420,1324,0,0
203,-300,0,0,0,0,0,0,0,0,0,-1,1427,1324,0,0
210,-300,0,0,0,0,0,0,0,0,0,-1,1434,1324,0,0
217,-300,0,0,0,0,0,0,0,0,0,-1,1441,1324,0,0
224,-300,0,0,0,0,0,0,0,0,0,-1,1448,1324,0,0
231,-300,0,0,0,0,0,0,0,0,0,-1,1455,1324,0,0
238,-300,0,0,0,0,0,0,0,0,0,-1,1462,1324,0,0
245,-300,0,0,0,0,0,0,0,0,0,-1,1469,1324,0,0
252,-300,0,0,0,0,0,0,0,0,0,-1,1476,1324,0,0
259,-300,0,0,0,0,0,0,0,0,0,-1,1483,1324,0,0
266,-300,0,0,0,0,0,0,0,0,0,-1,1490,1324,0,0
273,-300,0,0,0,0,0,0,0,0,0,-1,1497,1324,0,0
280,-300,0,0,0,0,0,0,0,0,0,-1,1504,1324,0,0
287,-300,0,0,0,0,0,0,0,0,0,-1,1511,1324,0,0
294,-300,0,0,0,0,0,0,0,0,0,-1,1518,1324,0,0
301,-300,0,0,0,0,0,0,0,0,0,-1,1525,1324,0,0
308,-300,0,0,0,0,0,0,0,0,0,-1,1532,1324,0,0
315,-300,0,0,0,0,0,0,0,0,0,-1,1539,1324,0,0
322,-300,0,0,0,0,0,0,0,0,0,-1,1546,1324,0,0
329,-300,0,0,0,0,0,0,0,0,0,-1,1553,1324,0,0
336,-300,0,0,0,0,0,0,0,0,0,-1,1560,1324,0,0
343,-300,0,0,0,0,0,0,0,0,0,-1,1567,1324,0,0
350,-300,0,0,0,0,0,0,0,0,0,-1,1574,1324,0,0
357,-300,0,0,0,0,0,0,0,0,0,-1,1581,1324,0,0
364,-300,0,0,0,0,0,0,0,0,0,-1,1588,1324,0,0
371,-300,0,0,0,0,0,0,0,0,0,-1,1595,1324,0,0
378,-300,0,0,0,0,0,0,0,0,0,-1,1602,1324,0,0
385,-300,0,0,0,0,0,0,0,0,0,-1,1609,1324,0,0
392,-300,0,0,0,0,0,0,0,0,0,-1,1616,1324,0,0
399,-300,0,0,0,0,0,0,0,0,0,-1,1623,1324,0,0
406,-300,0,0,0,0,0,0,0,0,0,-1,1630,1324,0,0
413,-300,0,0,0,0,0,0,0,0,0,-1,1637,1324,0,0
420,-300,0,0,0,0,0,0,0,0,0,-1,1644,1324,0,0
427,-300,0,0,0,0,0,0,0,0,0,-1,1651,1324,0,0
434,-300,0,0,0,0,0,0,0,0,0,-1,1658,1324,0,0
441,-300,0,0,0,0,0,0,0,0,0,-1,1665,1324,0,0
448,-300,0,0,0,0,0,0,0,0,0,-1,1672,1324,0,0
455,-300,0,0,0,0,0,0,0,0,0,-1,1679,1324,0,0
462,-300,0,0,0,0,0,0,0,0,0,-1,1686,1324,0,0
469,-300,0,0,0,0,0,0,0,0,0,-1,1693,1324,0,0
476,-300,0,0,0,0,0,0,0,0,0,-1,1700,1324,0,0
483,-300,0,0,0,0,0,0,0,0,0,-1,1707,1324,0,0
490,-300,0,0,0,0,0,0,0,0,0,-1,1714,1324,0,0
497,-300,0,0,0,0,0,0,0,0,0,-1,1721,1324,0,0
504,-300,0,0,0,0,0,0,0,0,0,-1,1728,1324,0,0
511,-300,0,0,0,0,0,0,0,0,0,-1,1735,1324,0,0
518,-300,0,0,0,0,0,0,0,0,0,-1,1742,1324,0,0
525,-300,0,0,0,0,0,0,0,0,0,-1,1749,1324,0,0
532,-300,0,0,0,0,0,0,0,0,0,-1,1756,1324,0,0
539,-300,0,0,0,0,0,0,0,0,0,-1,1763,1324,0,0
546,-300,0,0,0,0,0,0,0,0,0,-1,1770,1324,0,0
553,-300,0,0,0,0,0,0,0,0,0,-1,1777,1324,0,0
560,-300,0,0,0,0,0,0,0,0,0,-1,1784,1324,0,0
567,-300,0,0,0,0,0,0,0,0,0,-1,1791,1324,0,0
574,-300,0,0,0,0,0,0,0,0,0,-1,1798,1324,0,0
581,-300,0,0,0,0,0,0,0,0,0,-1,1805,1324,0,0
588,-300,32.8744,2.54578,0,0,0,0,0,0,0,-1,1812,1324,32.8744,-2.54581
595,-300,33.1139,2.44067,0,0,0,0,0,0,0,-1,1819,1324,33.1139,-2.44067
602,-300,33.3518,2.42175,0,0,0,0,0,0,0,-1,1826,1324,33.3518,-2.42172
609,-300,33.1218,2.5199,0,0,0,0,0,0,0,-1,1833,1324,33.1218,-2.51989
616,-300,34.0889,4.3385,0,0,0,0,0,0,0,-1,1840,1324,34.0889,-4.33852
623,-300,34.2854,4.69263,0,0,0,0,0,0,0,-1,1847,1324,34.2855,-4.6926
630,-300,34.4613,4.74854,0,0,0,0,0,0,0,-1,1854,1324,34.4614,-4.74855
637,-300,31.1719,4.6366,0,0,0,0,0,0,0,-1,1861,1324,31.1718,-4.63665
644,-300,22.9836,3.44934,0,0,0,0,0,0,0,-1,1868,1324,22.9836,-3.4493
651,-300,24.2531,8.57971,0,0,0,0,0,0,0,-1,1875,1324,24.2531,-8.57967
658,-300,24.5569,9.03821,0,0,0,0,0,0,0,-1,1882,1324,24.5568,-9.03822
665,-300,24.1125,8.74597,0.00295788,0.0105856,0.0121528,0.0195089,-0.00596542,0.937444,0.0153849,0.0476926,1889,1324,24.1125,-8.74593
672,-300,23.8517,8.42896,0.00216264,0.00741812,0.00973623,0.014875,-0.00529422,0.917204,0.0120747,0.0150041,1896,1324,23.8516,-8.4289
679,-300,23.8428,8.06677,0.00102319,0.0041427,0.00674202,0.00950304,-0.00433715,0.899072,0.00817407,0.0118643,1903,1324,23.8427,-8.06682
686,-300,23.8787,7.75146,0.000254844,0.00128412,0.00395941,0.0047622,-0.00322323,0.850025,0.00463884,0.0122751,1910,1324,23.8787,-7.75142
693,-300,23.8451,7.43872,3.70701e-05,0.000164928,0.00189683,0.0019989,-0.00179691,0.802243,0.00219255,0.0107822,1917,1324,23.8451,-7.43875
700,-300,23.8301,7.10498,-0.000165382,-0.000168988,0.00106223,0.000895044,-0.00122941,0.784549,0.00123161,0.011392,1924,1324,23.8301,-7.10492
707,-300,23.8425,6.7854,-0.000441571,-0.000350433,0.000902539,0.000507686,-0.00129969,0.810622,0.00107637,0.00776822,1931,1324,23.8425,-6.78543
714,-300,23.8423,6.48706,-0.000894249,-0.000483399,0.00113752,0.000467095,-0.00184474,0.874731,0.00141153,0.00945342,1938,1324,23.8423,-6.48703
721,-300,23.844,6.17444,-0.00151911,-0.000602167,0.00146294,0.000472454,-0.00259373,0.937247,0.00190626,0.0117994,1945,1324,23.844,-6.17446
728,-300,23.8588,5.83435,-0.00231446,-0.000707933,0.00174012,0.000405371,-0.00342777,1.00163,0.00243159,0.0131744,1952,1324,23.8588,-5.8344
735,-300,23.7538,5.67786,-0.00307675,-0.000730823,0.00177575,0.000224384,-0.00403196,1.07728,0.0027658,0.024161,1959,1324,23.7537,-5.67781
742,-300,24.0033,5.34473,0,0,0,0,0,0,0,-1,1966,1324,24.0033,-5.34476
749,-300,24.1088,4.5304,0,0,0,0,0,0,0,-1,1973,1324,24.1088,-4.53036
756,-300,22.1423,3.45642,0,0,0,0,0,0,0,-1,1980,1324,22.1423,-3.45638
763,-300,22.6136,5.1571,0,0,0,0,0,0,0,-1,1987,1324,22.6136,-5.15706
770,-300,24.859,4.77979,0,0,0,0,0,0,0,-1,1994,1324,24.859,-4.77972
777,-300,0,0,0,0,0,0,0,0,0,-1,2001,1324,0,0
784,-300,0,0,0,0,0,0,0,0,0,-1,2008,1324,0,0
791,-300,0,0,0,0,0,0,0,0,0,-1,2015,1324,0,0
798,-300,0,0,0,0,0,0,0,0,0,-1,2022,1324,0,0
805,-300,0,0,0,0,0,0,0,0,0,-1,2029,1324,0,0
812,-300,0,0,0,0,0,0,0,0,0,-1,2036,1324,0,0
-700,-307,0,0,0,0,0,0,0,0,0,-1,524,1331,0,0
-693,-307,0,0,0,0,0,0,0,0,0,-1,531,1331,0,0
-686,-307,0,0,0,0,0,0,0,0,0,-1,538,1331,0,0
-679,-307,0,0,0,0,0,0,0,0,0,-1,545,1331,0,0
-672,-307,0,0,0,0,0,0,0,0,0,-1,552,1331,0,0
-665,-307,0,0,0,0,0,0,0,0,0,-1,559,1331,0,0
-658,-307,0,0,0,0,0,0,0,0,0,-1,566,1331,0,0
-651,-307,-12.0636,-4.25879,0,0,0,0,0,0,0,-1,573,1331,-12.0636,4.25881
-644,-307,-12.1006,-2.35498,0,0,0,0,0,0,0,-1,580,1331,-12.1006,2.35504
-637,-307,-12.0287,-0.730347,0,0,0,0,0,0,0,-1,587,1331,-12.0287,0.730306
-630,-307,-12.0005,0.767212,0,0,0,0,0,0,0,-1,594,1331,-12.0005,-0.767266
-623,-307,-12.2128,2.93811,0,0,0,0,0,0,0,-1,601,1331,-12.2128,-2.93813
-616,-307,-12.1651,1.83911,0,0,0,0,0,0,0,-1,608,1331,-12.1651,-1.83913
-609,-307,-12.2767,1.83228,0,0,0,0,0,0,0,-1,615,1331,-12.2768,-1.83224
-602,-307,-12.6801,3.00598,0,0,0,0,0,0,0,-1,622,1331,-12.6801,-3.00593
-595,-307,-12.7564,3.44934,0.0152913,0.0194193,0.0163852,0.03387,0.000840569,0.848051,0.0223051,0.0309562,629,1331,-12.7564,-3.44933
-588,-307,-12.6904,3.84814,0.00878724,0.0114179,0.00809722,0.0183059,0.00189921,0.865915,0.0116227,0.0191612,636,1331,-12.6903,-3.84818
-581,-307,-12.6779,4.19006,0.00467776,0.00603127,0.00363806,0.00905499,0.00165404,0.877357,0.00556782,0.0158769,643,1331,-12.6779,-4.19005
-574,-307,-12.6921,4.53601,0.00354821,0.00340635,0.00226221,0.0057406,0.00121395,0.769726,0.00349345,0.0125636,650,1331,-12.6921,-4.53606
-567,-307,-12.7023,4.89624,0.00307199,0.00167104,0.00140692,0.00394317,0.000799872,0.554423,0.00240687,0.0126655,657,1331,-12.7023,-4.89628
-560,-307,-12.6931,5.2583,0.00298811,6.87911e-05,0.000716736,0.00315458,-9.76846e-05,0.228223,0.00213636,0.0138181,664,1331,-12.6931,-5.25826
-553,-307,-12.7059,5.60986,0.00363658,-0.00019478,0.000698489,0.00375995,-0.000318148,0.174818,0.00261913,0.0110172,671,1331,-12.7059,-5.60986
-546,-307,-12.7056,5.97681,0.00474433,-0.000433149,0.000803267,0.00486609,-0.000554909,0.150436,0.00344396,0.00995011,678,1331,-12.7056,-5.97675
-539,-307,-12.6807,6.36597,0.00625772,-0.000704709,0.00100881,0.00640094,-0.000847932,0.14103,0.0045762,0.0140478,685,1331,-12.6807,-6.36599
-532,-307,-12.6473,6.61401,0.00843069,-0.00093015,0.0013126,0.00861127,-0.00111072,0.136711,0.00614464,0.0490386,692,1331,-12.6473,-6.61405
-525,-307,-12.8708,6.83276,0,0,0,0,0,0,0,-1,699,1331,-12.8708,-6.83272
-518,-307,-9.77777,-1.56653,0,0,0,0,0,0,0,-1,706,1331,-9.77777,1.56651
-511,-307,-12.5226,0.26709,0,0,0,0,0,0,0,-1,713,1331,-12.5226,-0.267038
-504,-307,-12.5913,-0.308105,0,0,0,0,0,0,0,-1,720,1331,-12.5913,0.308124
-497,-307,-13.8586,-0.115845,0,0,0,0,0,0,0,-1,727,1331,-13.8587,0.115861
-490,-307,-17.9429,0.982178,0,0,0,0,0,0,0,-1,734,1331,-17.9429,-0.982198
-483,-307,-18.1066,0.927612,0,0,0,0,0,0,0,-1,741,1331,-18.1066,-0.927609
-476,-307,-18.1288,1.1228,0,0,0,0,0,0,0,-1,748,1331,-18.1289,-1.12286
-469,-307,-18.2028,0.798584,0,0,0,0,0,0,0,-1,755,1331,-18.2027,-0.798546
-462,-307,0,0,0,0,0,0,0,0,0,-1,762,1331,0,0
-455,-307,0,0,0,0,0,0,0,0,0,-1,769,1331,0,0
-448,-307,0,0,0,0,0,0,0,0,0,-1,776,1331,0,0
-441,-307,0,0,0,0,0,0,0,0,0,-1,783,1331,0,0
-434,-307,0,0,0,0,0,0,0,0,0,-1,790,1331,0,0
-427,-307,0,0,0,0,0,0,0,0,0,-1,797,1331,0,0
-420,-307,0,0,0,0,0,0,0,0,0,-1,804,1331,0,0
-413,-307,0,0,0,0,0,0,0,0,0,-1,811,1331,0,0
-406,-307,0,0,0,0,0,0,0,0,0,-1,818,1331,0,0
-399,-307,0,0,0,0,0,0,0,0,0,-1,825,1331,0,0
-392,-307,0,0,0,0,0,0,0,0,0,-1,832,1331,0,0
-385,-307,0,0,0,0,0,0,0,0,0,-1,839,1331,0,0
-378,-307,0,0,0,0,0,0,0,0,0,-1,846,1331,0,0
-371,-307,0,0,0,0,0,0,0,0,0,-1,853,1331,0,0
-364,-307,0,0,0,0,0,0,0,0,0,-1,860,1331,0,0
-357,-307,0,0,0,0,0,0,0,0,0,-1,867,1331,0,0
-350,-307,0,0,0,0,0,0,0,0,0,-1,874,1331,0,0
-343,-307,0,0,0,0,0,0,0,0,0,-1,881,1331,0,0
-336,-307,0,0,0,0,0,0,0,0,0,-1,888,1331,0,0
-329,-307,0,0,0,0,0,0,0,0,0,-1,895,1331,0,0
-322,-307,0,0,0,0,0,0,0,0,0,-1,902,1331,0,0
-315,-307,0,0,0,0,0,0,0,0,0,-1,909,1331,0,0
-308,-307,0,0,0,0,0,0,0,0,0,-1,916,1331,0,0
-301,-307,0,0,0,0,0,0,0,0,0,-1,923,1331,0,0
-294,-307,0,0,0,0,0,0,0,0,0,-1,930,1331,0,0
-287,-307,0,0,0,0,0,0,0,0,0,-1,937,1331,0,0
-280,-307,0,0,0,0,0,0,0,0,0,-1,944,1331,0,0
-273,-307,0,0,0,0,0,0,0,0,0,-1,951,1331,0,0
-266,-307,0,0,0,0,0,0,0,0,0,-1,958,1331,0,0
-259,-307,0,0,0,0,0,0,0,0,0,-1,965,1331,0,0
-252,-307,0,0,0,0,0,0,0,0,0,-1,972,1331,0,0
-245,-307,0,0,0,0,0,0,0,0,0,-1,979,1331,0,0
-238,-307,0,0,0,0,0,0,0,0,0,-1,986,1331,0,0
-231,-307,0,0,0,0,0,0,0,0,0,-1,993,1331,0,0
-224,-307,0,0,0,0,0,0,0,0,0,-1,1000,1331,0,0
-217,-307,0,0,0,0,0,0,0,0,0,-1,1007,1331,0,0
-210,-307,0,0,0,0,0,0,0,0,0,-1,1014,1331,0,0
-203,-307,0,0,0,0,0,0,0,0,0,-1,1021,1331,0,0
-196,-307,0,0,0,0,0,0,0,0,0,-1,1028,1331,0,0
-189,-307,0,0,0,0,0,0,0,0,0,-1,1035,1331,0,0
-182,-307,0,0,0,0,0,0,0,0,0,-1,1042,1331,0,0
-175,-307,0,0,0,0,0,0,0,0,0,-1,1049,1331,0,0
-168,-307,0,0,0,0,0,0,0,0,0,-1,1056,1331,0,0
-161,-307,0,0,0,0,0,0,0,0,0,-1,1063,1331,0,0
-154,-307,0,0,0,0,0,0,0,0,0,-1,1070,1331,0,0
-147,-307,0,0,0,0,0,0,0,0,0,-1,1077,1331,0,0
-140,-307,0,0,0,0,0,0,0,0,0,-1,1084,1331,0,0
-133,-307,0,0,0,0,0,0,0,0,0,-1,1091,1331,0,0
-126,-307,0,0,0,0,0,0,0,0,0,-1,1098,1331,0,0
-119,-307,0,0,0,0,0,0,0,0,0,-1,1105,1331,0,0
-112,-307,0,0,0,0,0,0,0,0,0,-1,1112,1331,0,0
-105,-307,0,0,0,0,0,0,0,0,0,-1,1119,1331,0,0
-98,-307,0,0,0,0,0,0,0,0,0,-1,1126,1331,0,0
-91,-307,0,0,0,0,0,0,0,0,0,-1,1133,1331,0,0
-84,-307,0,0,0,0,0,0,0,0,0,-1,1140,1331,0,0
-77,-307,0,0,0,0,0,0,0,0,0,-1,1147,1331,0,0
-70,-307,0,0,0,0,0,0,0,0,0,-1,1154,1331,0,0
-63,-307,0,0,0,0,0,0,0,0,0,-1,1161,1331,0,0
-56,-307,0,0,0,0,0,0,0,0,0,-1,1168,1331,0,0
-49,-307,0,0,0,0,0,0,0,0,0,-1,1175,1331,0,0
-42,-307,0,0,0,0,0,0,0,0,0,-1,1182,1331,0,0
-35,-307,0,0,0,0,0,0,0,0,0,-1,1189,1331,0,0
-28,-307,0,0,0,0,0,0,0,0,0,-1,1196,1331,0,0
-21,-307,0,0,0,0,0,0,0,0,0,-1,1203,1331,0,0
-14,-307,0,0,0,0,0,0,0,0,0,-1,1210,1331,0,0
-7,-307,0,0,0,0,0,0,0,0,0,-1,1217,1331,0,0
0,-307,0,0,0,0,0,0,0,0,0,-1,1224,1331,0,0
7,-307,0,0,0,0,0,0,0,0,0,-1,1231,1331,0,0
14,-307,0,0,0,0,0,0,0,0,0,-1,1238,1331,0,0
21,-307,0,0,0,0,0,0,0,0,0,-1,1245,1331,0,0
28,-307,0,0,0,0,0,0,0,0,0,-1,1252,1331,0,0
35,-307,0,0,0,0,0,0,0,0,0,-1,1259,1331,0,0
42,-307,0,0,0,0,0,0,0,0,0,-1,1266,1331,0,0
49,-307,0,0,0,0,0,0,0,0,0,-1,1273,1331,0,0
56,-307,0,0,0,0,0,0,0,0,0,-1,1280,1331,0,0
63,-307,0,0,0,0,0,0,0,0,0,-1,1287,1331,0,0
70,-307,0,0,0,0,0,0,0,0,0,-1,1294,1331,0,0
77,-307,0,0,0,0,0,0,0,0,0,-1,1301,1331,0,0
84,-307,0,0,0,0,0,0,0,0,0,-1,1308,1331,0,0
91,-307,0,0,0,0,0,0,0,0,0,-1,1315,1331,0,0
98,-307,0,0,0,0,0,0,0,0,0,-1,1322,1331,0,0
105,-307,0,0,0,0,0,0,0,0,0,-1,1329,1331,0,0
112,-307,0,0,0,0,0,0,0,0,0,-1,1336,1331,0,0
119,-307,0,0,0,0,0,0,0,0,0,-1,1343,1331,0,0
126,-307,0,0,0,0,0,0,0,0,0,-1,1350,1331,0,0
133,-307,0,0,0,0,0,0,0,0,0,-1,1357,1331,0,0
140,-307,0,0,0,0,0,0,0,0,0,-1,1364,1331,0,0
147,-307,0,0,0,0,0,0,0,0,0,-1,1371,1331,0,0
154,-307,0,0,0,0,0,0,0,0,0,-1,1378,1331,0,0
161,-307,0,0,0,0,0,0,0,0,0,-1,1385,1331,0,0
168,-307,0,0,0,0,0,0,0,0,0,-1,1392,1331,0,0
175,-307,0,0,0,0,0,0,0,0,0,-1,1399,1331,0,0
182,-307,0,0,0,0,0,0,0,0,0,-1,1406,1331,0,0
189,-307,0,0,0,0,0,0,0,0,0,-1,1413,1331,0,0
196,-307,0,0,0,0,0,0,0,0,0,-1,1420,1331,0,0
203,-307,0,0,0,0,0,0,0,0,0,-1,1427,1331,0,0
210,-307,0,0,0,0,0,0,0,0,0,-1,1434,1331,0,0
217,-307,0,0,0,0,0,0,0,0,0,-1,1441,1331,0,0
224,-307,0,0,0,0,0,0,0,0,0,-1,1448,1331,0,0
231,-307,0,0,0,0,0,0,0,0,0,-1,1455,1331,0,0
238,-307,0,0,0,0,0,0,0,0,0,-1,1462,1331,0,0
245,-307,0,0,0,0,0,0,0,0,0,-1,1469,1331,0,0
252,-307,0,0,0,0,0,0,0,0,0,-1,1476,1331,0,0
259,-307,0,0,0,0,0,0,0,0,0,-1,1483,1331,0,0
266,-307,0,0,0,0,0,0,0,0,0,-1,1490,1331,0,0
273,-307,0,0,0,0,0,0,0,0,0,-1,1497,1331,0,0
280,-307,0,0,0,0,0,0,0,0,0,-1,1504,1331,0,0
287,-307,0,0,0,0,0,0,0,0,0,-1,1511,1331,0,0
294,-307,0,0,0,0,0,0,0,0,0,-1,1518,1331,0,0
301,-307,0,0,0,0,0,0,0,0,0,-1,1525,1331,0,0
308,-307,0,0,0,0,0,0,0,0,0,-1,1532,1331,0,0
315,-307,0,0,0,0,0,0,0,0,0,-1,1539,1331,0,0
322,-307,0,0,0,0,0,0,0,0,0,-1,1546,1331,0,0
329,-307,0,0,0,0,0,0,0,0,0,-1,1553,1331,0,0
336,-307,0,0,0,0,0,0,0,0,0,-1,1560,1331,0,0
343,-307,0,0,0,0,0,0,0,0,0,-1,1567,1331,0,0
350,-307,0,0,0,0,0,0,0,0,0,-1,1574,1331,0,0
357,-307,0,0,0,0,0,0,0,0,0,-1,1581,1331,0,0
364,-307,0,0,0,0,0,0,0,0,0,-1,1588,1331,0,0
371,-307,0,0,0,0,0,0,0,0,0,-1,1595,1331,0,0
378,-307,0,0,0,0,0,0,0,0,0,-1,1602,1331,0,0
385,-307,0,0,0,0,0,0,0,0,0,-1,1609,1331,0,0
392,-307,0,0,0,0,0,0,0,0,0,-1,1616,1331,0,0
399,-307,0,0,0,0,0,0,0,0,0,-1,1623,1331,0,0
406,-307,0,0,0,0,0,0,0,0,0,-1,1630,1331,0,0
413,-307,0,0,0,0,0,0,0,0,0,-1,1637,1331,0,0
420,-307,0,0,0,0,0,0,0,0,0,-1,1644,1331,0,0
427,-307,0,0,0,0,0,0,0,0,0,-1,1651,1331,0,0
434,-307,0,0,0,0,0,0,0,0,0,-1,1658,1331,0,0
441,-307,0,0,0,0,0,0,0,0,0,-1,1665,1331,0,0
448,-307,0,0,0,0,0,0,0,0,0,-1,1672,1331,0,0
455,-307,0,0,0,0,0,0,0,0,0,-1,1679,1331,0,0
462,-307,0,0,0,0,0,0,0,0,0,-1,1686,1331,0,0
469,-307,0,0,0,0,0,0,0,0,0,-1,1693,1331,0,0
476,-307,0,0,0,0,0,0,0,0,0,-1,1700,1331,0,0
483,-307,0,0,0,0,0,0,0,0,0,-1,1707,1331,0,0
490,-307,0,0,0,0,0,0,0,0,0,-1,1714,1331,0,0
497,-307,0,0,0,0,0,0,0,0,0,-1,1721,1331,0,0
504,-307,0,0,0,0,0,0,0,0,0,-1,1728,1331,0,0
511,-307,0,0,0,0,0,0,0,0,0,-1,1735,1331,0,0
518,-307,0,0,0,0,0,0,0,0,0,-1,1742,1331,0,0
525,-307,0,0,0,0,0,0,0,0,0,-1,1749,1331,0,0
532,-307,0,0,0,0,0,0,0,0,0,-1,1756,1331,0,0
539,-307,0,0,0,0,0,0,0,0,0,-1,1763,1331,0,0
546,-307,0,0,0,0,0,0,0,0,0,-1,1770,1331,0,0
553,-307,0,0,0,0,0,0,0,0,0,-1,1777,1331,0,0
560,-307,0,0,0,0,0,0,0,0,0,-1,1784,1331,0,0
567,-307,0,0,0,0,0,0,0,0,0,-1,1791,1331,0,0
574,-307,0,0,0,0,0,0,0,0,0,-1,1798,1331,0,0
581,-307,0,0,0,0,0,0,0,0,0,-1,1805,1331,0,0
588,-307,32.9219,2.33228,0,0,0,0,0,0,0,-1,1812,1331,32.9219,-2.33224
595,-307,33.2151,2.43311,0,0,0,0,0,0,0,-1,1819,1331,33.215,-2.43313
602,-307,33.8081,2.30762,0,0,0,0,0,0,0,-1,1826,1331,33.808,-2.30764
609,-307,34.14,2.04761,0,0,0,0,0,0,0,-1,1833,1331,34.1401,-2.04762
616,-307,29.0903,4.995,0,0,0,0,0,0,0,-1,1840,1331,29.0903,-4.99501
623,-307,34.3135,5.20447,0,0,0,0,0,0,0,-1,1847,1331,34.3135,-5.20448
630,-307,29.8225,5.08826,0,0,0,0,0,0,0,-1,1854,1331,29.8225,-5.0883
637,-307,24.6407,4.09106,0,0,0,0,0,0,0,-1,1861,1331,24.6407,-4.09103
644,-307,22.6885,5.80408,0,0,0,0,0,0,0,-1,1868,1331,22.6884,-5.80408
651,-307,17.5013,5.80078,0,0,0,0,0,0,0,-1,1875,1331,17.5014,-5.80072
658,-307,23.7391,9.14844,0,0,0,0,0,0,0,-1,1882,1331,23.7392,-9.14843
665,-307,23.5948,8.74744,0.00249334,0.00983787,0.00934717,0.0162083,-0.00387705,0.972573,0.0123032,0.0287738,1889,1331,23.5949,-8.74749
672,-307,23.5554,8.42969,0.00163458,0.0063877,0.00688191,0.0112918,-0.00326957,0.951654,0.00882208,0.0111504,1896,1331,23.5554,-8.42975
679,-307,23.5323,8.08997,0.000576103,0.00320454,0.0042749,0.00636267,-0.00258203,0.934526,0.00531577,0.00988444,1903,1331,23.5323,-8.08994
686,-307,23.5316,7.76794,-1.71124e-05,0.000771639,0.00222341,0.00263538,-0.00188086,0.873172,0.00261955,0.00899709,1910,1331,23.5316,-7.76789
693,-307,23.5244,7.44214,-0.00011843,-9.11403e-05,0.00102092,0.000916228,-0.0011258,0.79208,0.00118103,0.0104655,1917,1331,23.5244,-7.4421
700,-307,23.5295,7.09705,-0.000253985,-0.000354489,0.000777734,0.000475118,-0.00108359,0.753136,0.000922495,0.0121583,1924,1331,23.5295,-7.09706
707,-307,23.5259,6.7699,-0.000462949,-0.000467509,0.000904211,0.000438985,-0.00136944,0.784137,0.00108919,0.0127453,1931,1331,23.5259,-6.76995
714,-307,23.517,6.49072,-0.000859503,-0.000618309,0.00126073,0.000527581,-0.00200539,0.833081,0.00154315,0.0112283,1938,1331,23.517,-6.49071
721,-307,23.5393,6.19238,-0.00149414,-0.000778493,0.00168993,0.000591081,-0.00286371,0.889727,0.00213364,0.0143724,1945,1331,23.5393,-6.19241
728,-307,23.5242,5.99475,-0.00232158,-0.000958662,0.00207792,0.000546692,-0.00382693,0.943848,0.00275168,0.0321716,1952,1331,23.5242,-5.99479
735,-307,23.3403,5.81384,-0.00309383,-0.00107332,0.00221077,0.000347094,-0.00451424,0.999715,0.00313161,0.0425783,1959,1331,23.3403,-5.8138
742,-307,23.3789,5.65051,-0.0037186,-0.00123021,0.00218123,3.6733e-05,-0.00498554,1.04459,0.003336,0.0453202,1966,1331,23.3789,-5.65047
749,-307,23.5275,5.36401,0,0,0,0,0,0,0,-1,1973,1331,23.5275,-5.36396
756,-307,22.4415,2.98438,0,0,0,0,0,0,0,-1,1980,1331,22.4415,-2.98441
763,-307,18.7522,3.55298,0,0,0,0,0,0,0,-1,1987,1331,18.7522,-3.55301
770,-307,0,0,0,0,0,0,0,0,0,-1,1994,1331,0,0
777,-307,0,0,0,0,0,0,0,0,0,-1,2001,1331,0,0
784,-307,0,0,0,0,0,0,0,0,0,-1,2008,1331,0,0
791,-307,0,0,0,0,0,0,0,0,0,-1,2015,1331,0,0
798,-307,0,0,0,0,0,0,0,0,0,-1,2022,1331,0,0
805,-307,0,0,0,0,0,0,0,0,0,-1,2029,1331,0,0
812,-307,0,0,0,0,0,0,0,0,0,-1,2036,1331,0,0
-700,-314,0,0,0,0,0,0,0,0,0,-1,524,1338,0,0
-693,-314,0,0,0,0,0,0,0,0,0,-1,531,1338,0,0
-686,-314,0,0,0,0,0,0,0,0,0,-1,538,1338,0,0
-679,-314,0,0,0,0,0,0,0,0,0,-1,545,1338,0,0
-672,-314,0,0,0,0,0,0,0,0,0,-1,552,1338,0,0
-665,-314,0,0,0,0,0,0,0,0,0,-1,559,1338,0,0
-658,-314,0,0,0,0,0,0,0,0,0,-1,566,1338,0,0
-651,-314,0,0,0,0,0,0,0,0,0,-1,573,1338,0,0
-644,-314,-11.4816,-3.58264,0,0,0,0,0,0,0,-1,580,1338,-11.4816,3.5826
-637,-314,-11.3976,-1.95752,0,0,0,0,0,0,0,-1,587,1338,-11.3976,1.95747
-630,-314,-13.2771,2.98938,0,0,0,0,0,0,0,-1,594,1338,-13.2771,-2.98943
-623,-314,-13.3542,3.00903,0,0,0,0,0,0,0,-1,601,1338,-13.3542,-3.00907
-616,-314,-9.93311,1.15088,0,0,0,0,0,0,0,-1,608,1338,-9.93308,-1.15093
-609,-314,-9.4361,2.86292,0,0,0,0,0,0,0,-1,615,1338,-9.43612,-2.86286
-602,-314,-11.8027,2.42798,0,0,0,0,0,0,0,-1,622,1338,-11.8027,-2.42802
-595,-314,-12.486,3.39343,0,0,0,0,0,0,0,-1,629,1338,-12.486,-3.39348
-588,-314,-12.3543,3.79919,0.00814208,0.0106953,0.00705742,0.0165907,0.00224676,0.874877,0.0103928,0.0231702,636,1338,-12.3543,-3.79915
-581,-314,-12.2982,4.17566,0.00394584,0.00526964,0.00304673,0.00772554,0.00148993,0.89236,0.00473255,0.0125026,643,1338,-12.2982,-4.17563
-574,-314,-12.3438,4.51563,0.00293861,0.00292758,0.00181502,0.00474812,0.00111806,0.783879,0.00286636,0.0123795,650,1338,-12.3437,-4.51566
-567,-314,-12.3406,4.90247,0.00258773,0.00143194,0.00109461,0.00324763,0.000772045,0.542521,0.00195912,0.0139844,657,1338,-12.3406,-4.90241
-560,-314,-12.3,5.28333,0.00259994,-4.40286e-05,0.000498977,0.00269097,-0.000135063,0.180457,0.00184065,0.0153783,664,1338,-12.3001,-5.28328
-553,-314,-12.3094,5.6322,0.00330144,-0.000212455,0.000561623,0.00338902,-0.000300035,0.154696,0.00236571,0.0181138,671,1338,-12.3095,-5.6322
-546,-314,-12.3605,5.98828,0.00444859,-0.00040288,0.00072957,0.00455593,-0.000510219,0.146078,0.00322086,0.0172589,678,1338,-12.3605,-5.98822
-539,-314,-12.3458,6.37085,0.00596436,-0.000593575,0.00100374,0.00611455,-0.000743764,0.148528,0.00434556,0.016233,685,1338,-12.3458,-6.37089
-532,-314,-12.1221,6.76721,0.00804216,-0.000735548,0.00139685,0.00825909,-0.000952477,0.154068,0.00584946,0.0445148,692,1338,-12.1221,-6.76725
-525,-314,-12.1929,7.04016,0,0,0,0,0,0,0,-1,699,1338,-12.1929,-7.0401
-518,-314,-8.52753,4.70032,0,0,0,0,0,0,0,-1,706,1338,-8.52755,-4.70034
-511,-314,-11.8597,0.384888,0,0,0,0,0,0,0,-1,713,1338,-11.8597,-0.384927
-504,-314,-11.4322,-0.187378,0,0,0,0,0,0,0,-1,720,1338,-11.4322,0.187381
-497,-314,-11.0047,-0.759644,0,0,0,0,0,0,0,-1,727,1338,-11.0047,0.759689
-490,-314,-18.5143,0.471069,0,0,0,0,0,0,0,-1,734,1338,-18.5143,-0.47103
-483,-314,-17.8528,0.577271,0,0,0,0,0,0,0,-1,741,1338,-17.8528,-0.577327
-476,-314,-17.714,0.665405,0,0,0,0,0,0,0,-1,748,1338,-17.714,-0.665388
-469,-314,-17.7246,0.794678,0,0,0,0,0,0,0,-1,755,1338,-17.7246,-0.794645
-462,-314,0,0,0,0,0,0,0,0,0,-1,762,1338,0,0
-455,-314,0,0,0,0,0,0,0,0,0,-1,769,1338,0,0
-448,-314,0,0,0,0,0,0,0,0,0,-1,776,1338,0,0
-441,-314,0,0,0,0,0,0,0,0,0,-1,783,1338,0,0
-434,-314,0,0,0,0,0,0,0,0,0,-1,790,1338,0,0
-427,-314,0,0,0,0,0,0,0,0,0,-1,797,1338,0,0
-420,-314,0,0,0,0,0,0,0,0,0,-1,804,1338,0,0
-413,-314,0,0,0,0,0,0,0,0,0,-1,811,1338,0,0
-406,-314,0,0,0,0,0,0,0,0,0,-1,818,1338,0,0
-399,-314,0,0,0,0,0,0,0,0,0,-1,825,1338,0,0
-392,-314,0,0,0,0,0,0,0,0,0,-1,832,1338,0,0
-385,-314,0,0,0,0,0,0,0,0,0,-1,839,1338,0,0
-378,-314,0,0,0,0,0,0,0,0,0,-1,846,1338,0,0
-371,-314,0,0,0,0,0,0,0,0,0,-1,853,1338,0,0
-364,-314,0,0,0,0,0,0,0,0,0,-1,860,1338,0,0
-357,-314,0,0,0,0,0,0,0,0,0,-1,867,1338,0,0
-350,-314,0,0,0,0,0,0,0,0,0,-1,874,1338,0,0
-343,-314,0,0,0,0,0,0,0,0,0,-1,881,1338,0,0
-336,-314,0,0,0,0,0,0,0,0,0,-1,888,1338,0,0
-329,-314,0,0,0,0,0,0,0,0,0,-1,895,1338,0,0
-322,-314,0,0,0,0,0,0,0,0,0,-1,902,1338,0,0
-315,-314,0,0,0,0,0,0,0,0,0,-1,909,1338,0,0
-308,-314,0,0,0,0,0,0,0,0,0,-1,916,1338,0,0
-301,-314,0,0,0,0,0,0,0,0,0,-1,923,1338,0,0
-294,-314,0,0,0,0,0,0,0,0,0,-1,930,1338,0,0
-287,-314,0,0,0,0,0,0,0,0,0,-1,937,1338,0,0
-280,-314,0,0,0,0,0,0,0,0,0,-1,944,1338,0,0
-273,-314,0,0,0,0,0,0,0,0,0,-1,951,1338,0,0
-266,-314,0,0,0,0,0,0,0,0,0,-1,958,1338,0,0
-259,-314,0,0,0,0,0,0,0,0,0,-1,965,1338,0,0
-252,-314,0,0,0,0,0,0,0,0,0,-1,972,1338,0,0
-245,-314,0,0,0,0,0,0,0,0,0,-1,979,1338,0,0
-238,-314,0,0,0,0,0,0,0,0,0,-1,986,1338,0,0
-231,-314,0,0,0,0,0,0,0,0,0,-1,993,1338,0,0
-224,-314,0,0,0,0,0,0,0,0,0,-1,1000,1338,0,0
-217,-314,0,0,0,0,0,0,0,0,0,-1,1007,1338,0,0
-210,-314,0,0,0,0,0,0,0,0,0,-1,1014,1338,0,0
-203,-314,0,0,0,0,0,0,0,0,0,-1,1021,1338,0,0
-196,-314,0,0,0,0,0,0,0,0,0,-1,1028,1338,0,0
-189,-314,0,0,0,0,0,0,0,0,0,-1,1035,1338,0,0
-182,-314,0,0,0,0,0,0,0,0,0,-1,1042,1338,0,0
-175,-314,0,0,0,0,0,0,0,0,0,-1,1049,1338,0,0
-168,-314,0,0,0,0,0,0,0,0,0,-1,1056,1338,0,0
-161,-314,0,0,0,0,0,0,0,0,0,-1,1063,1338,0,0
-154,-314,0,0,0,0,0,0,0,0,0,-1,1070,1338,0,0
-147,-314,0,0,0,0,0,0,0,0,0,-1,1077,1338,0,0
-140,-314,0,0,0,0,0,0,0,0,0,-1,1084,1338,0,0
-133,-314,0,0,0,0,0,0,0,0,0,-1,1091,1338,0,0
-126,-314,0,0,0,0,0,0,0,0,0,-1,1098,1338,0,0
-119,-314,0,0,0,0,0,0,0,0,0,-1,1105,1338,0,0
-112,-314,0,0,0,0,0,0,0,0,0,-1,1112,1338,0,0
-105,-314,0,0,0,0,0,0,0,0,0,-1,1119,1338,0,0
-98,-314,0,0,0,0,0,0,0,0,0,-1,1126,1338,0,0
-91,-314,0,0,0,0,0,0,0,0,0,-1,1133,1338,0,0
-84,-314,0,0,0,0,0,0,0,0,0,-1,1140,1338,0,0
-77,-314,0,0,0,0,0,0,0,0,0,-1,1147,1338,0,0
-70,-314,0,0,0,0,0,0,0,0,0,-1,1154,1338,0,0
-63,-314,0,0,0,0,0,0,0,0,0,-1,1161,1338,0,0
-56,-314,0,0,0,0,0,0,0,0,0,-1,1168,1338,0,0
-49,-314,0,0,0,0,0,0,0,0,0,-1,1175,1338,0,0
-42,-314,0,0,0,0,0,0,0,0,0,-1,1182,1338,0,0
-35,-314,0,0,0,0,0,0,0,0,0,-1,1189,1338,0,0
-28,-314,0,0,0,0,0,0,0,0,0,-1,1196,1338,0,0
-21,-314,0,0,0,0,0,0,0,0,0,-1,1203,1338,0,0
-14,-314,0,0,0,0,0,0,0,0,0,-1,1210,1338,0,0
-7,-314,0,0,0,0,0,0,0,0,0,-1,1217,1338,0,0
0,-314,0,0,0,0,0,0,0,0,0,-1,1224,1338,0,0
7,-314,0,0,0,0,0,0,0,0,0,-1,1231,1338,0,0
14,-314,0,0,0,0,0,0,0,0,0,-1,1238,1338,0,0
21,-314,0,0,0,0,0,0,0,0,0,-1,1245,1338,0,0
28,-314,0,0,0,0,0,0,0,0,0,-1,1252,1338,0,0
35,-314,0,0,0,0,0,0,0,0,0,-1,1259,1338,0,0
42,-314,0,0,0,0,0,0,0,0,0,-1,1266,1338,0,0
49,-314,0,0,0,0,0,0,0,0,0,-1,1273,1338,0,0
56,-314,0,0,0,0,0,0,0,0,0,-1,1280,1338,0,0
63,-314,0,0,0,0,0,0,0,0,0,-1,1287,1338,0,0
70,-314,0,0,0,0,0,0,0,0,0,-1,1294,1338,0,0
77,-314,0,0,0,0,0,0,0,0,0,-1,1301,1338,0,0
84,-314,0,0,0,0,0,0,0,0,0,-1,1308,1338,0,0
91,-314,0,0,0,0,0,0,0,0,0,-1,1315,1338,0,0
98,-314,0,0,0,0,0,0,0,0,0,-1,1322,1338,0,0
105,-314,0,0,0,0,0,0,0,0,0,-1,1329,1338,0,0
112,-314,0,0,0,0,0,0,0,0,0,-1,1336,1338,0,0
119,-314,0,0,0,0,0,0,0,0,0,-1,1343,1338,0,0
126,-314,0,0,0,0,0,0,0,0,0,-1,1350,1338,0,0
133,-314,0,0,0,0,0,0,0,0,0,-1,1357,1338,0,0
140,-314,0,0,0,0,0,0,0,0,0,-1,1364,1338,0,0
147,-314,0,0,0,0,0,0,0,0,0,-1,1371,1338,0,0
154,-314,0,0,0,0,0,0,0,0,0,-1,1378,1338,0,0
161,-314,0,0,0,0,0,0,0,0,0,-1,1385,1338,0,0
168,-314,0,0,0,0,0,0,0,0,0,-1,1392,1338,0,0
175,-314,0,0,0,0,0,0,0,0,0,-1,1399,1338,0,0
182,-314,0,0,0,0,0,0,0,0,0,-1,1406,1338,0,0
189,-314,0,0,0,0,0,0,0,0,0,-1,1413,1338,0,0
196,-314,0,0,0,0,0,0,0,0,0,-1,1420,1338,0,0
203,-314,0,0,0,0,0,0,0,0,0,-1,1427,1338,0,0
210,-314,0,0,0,0,0,0,0,0,0,-1,1434,1338,0,0
217,-314,0,0,0,0,0,0,0,0,0,-1,1441,1338,0,0
224,-314,0,0,0,0,0,0,0,0,0,-1,1448,1338,0,0
231,-314,0,0,0,0,0,0,0,0,0,-1,1455,1338,0,0
238,-314,0,0,0,0,0,0,0,0,0,-1,1462,1338,0,0
245,-314,0,0,0,0,0,0,0,0,0,-1,1469,1338,0,0
252,-314,0,0,0,0,0,0,0,0,0,-1,1476,1338,0,0
259,-314,0,0,0,0,0,0,0,0,0,-1,1483,1338,0,0
266,-314,0,0,0,0,0,0,0,0,0,-1,1490,1338,0,0
273,-314,0,0,0,0,0,0,0,0,0,-1,1497,1338,0,0
280,-314,0,0,0,0,0,0,0,0,0,-1,1504,1338,0,0
287,-314,0,0,0,0,0,0,0,0,0,-1,1511,1338,0,0
294,-314,0,0,0,0,0,0,0,0,0,-1,1518,1338,0,0
301,-314,0,0,0,0,0,0,0,0,0,-1,1525,1338,0,0
308,-314,0,0,0,0,0,0,0,0,0,-1,1532,1338,0,0
315,-314,0,0,0,0,0,0,0,0,0,-1,1539,1338,0,0
322,-314,0,0,0,0,0,0,0,0,0,-1,1546,1338,0,0
329,-314,0,0,0,0,0,0,0,0,0,-1,1553,1338,0,0
336,-314,0,0,0,0,0,0,0,0,0,-1,1560,1338,0,0
343,-314,0,0,0,0,0,0,0,0,0,-1,1567,1338,0,0
350,-314,0,0,0,0,0,0,0,0,0,-1,1574,1338,0,0
357,-314,0,0,0,0,0,0,0,0,0,-1,1581,1338,0,0
364,-314,0,0,0,0,0,0,0,0,0,-1,1588,1338,0,0
371,-314,0,0,0,0,0,0,0,0,0,-1,1595,1338,0,0
378,-314,0,0,0,0,0,0,0,0,0,-1,1602,1338,0,0
385,-314,0,0,0,0,0,0,0,0,0,-1,1609,1338,0,0
392,-314,0,0,0,0,0,0,0,0,0,-1,1616,1338,0,0
399,-314,0,0,0,0,0,0,0,0,0,-1,1623,1338,0,0
406,-314,0,0,0,0,0,0,0,0,0,-1,1630,1338,0,0
413,-314,0,0,0,0,0,0,0,0,0,-1,1637,1338,0,0
420,-314,0,0,0,0,0,0,0,0,0,-1,1644,1338,0,0
427,-314,0,0,0,0,0,0,0,0,0,-1,1651,1338,0,0
434,-314,0,0,0,0,0,0,0,0,0,-1,1658,1338,0,0
441,-314,0,0,0,0,0,0,0,0,0,-1,1665,1338,0,0
448,-314,0,0,0,0,0,0,0,0,0,-1,1672,1338,0,0
455,-314,0,0,0,0,0,0,0,0,0,-1,1679,1338,0,0
462,-314,0,0,0,0,0,0,0,0,0,-1,1686,1338,0,0
469,-314,0,0,0,0,0,0,0,0,0,-1,1693,1338,0,0
476,-314,0,0,0,0,0,0,0,0,0,-1,1700,1338,0,0
483,-314,0,0,0,0,0,0,0,0,0,-1,1707,1338,0,0
490,-314,0,0,0,0,0,0,0,0,0,-1,1714,1338,0,0
497,-314,0,0,0,0,0,0,0,0,0,-1,1721,1338,0,0
504,-314,0,0,0,0,0,0,0,0,0,-1,1728,1338,0,0
511,-314,0,0,0,0,0,0,0,0,0,-1,1735,1338,0,0
518,-314,0,0,0,0,0,0,0,0,0,-1,1742,1338,0,0
525,-314,0,0,0,0,0,0,0,0,0,-1,1749,1338,0,0
532,-314,0,0,0,0,0,0,0,0,0,-1,1756,1338,0,0
539,-314,0,0,0,0,0,0,0,0,0,-1,1763,1338,0,0
546,-314,0,0,0,0,0,0,0,0,0,-1,1770,1338,0,0
553,-314,0,0,0,0,0,0,0,0,0,-1,1777,1338,0,0
560,-314,0,0,0,0,0,0,0,0,0,-1,1784,1338,0,0
567,-314,0,0,0,0,0,0,0,0,0,-1,1791,1338,0,0
574,-314,0,0,0,0,0,0,0,0,0,-1,1798,1338,0,0
581,-314,31.9978,2.33118,0,0,0,0,0,0,0,-1,1805,1338,31.9978,-2.33118
588,-314,32.7034,2.53955,0,0,0,0,0,0,0,-1,1812,1338,32.7034,-2.53956
595,-314,33.454,2.56445,0,0,0,0,0,0,0,-1,1819,1338,33.454,-2.56441
602,-314,34.1021,2.52161,0,0,0,0,0,0,0,-1,1826,1338,34.102,-2.52164
609,-314,34.3234,2.42566,0,0,0,0,0,0,0,-1,1833,1338,34.3233,-2.42568
616,-314,34.6188,2.30396,0,0,0,0,0,0,0,-1,1840,1338,34.6188,-2.30395
623,-314,29.139,5.73169,0,0,0,0,0,0,0,-1,1847,1338,29.139,-5.73172
630,-314,29.4308,6.23206,0,0,0,0,0,0,0,-1,1854,1338,29.4308,-6.23202
637,-314,22.1349,5.16418,0,0,0,0,0,0,0,-1,1861,1338,22.1349,-5.16414
644,-314,18.7517,6.2605,0,0,0,0,0,0,0,-1,1868,1338,18.7517,-6.26053
651,-314,23.1317,8.005,0,0,0,0,0,0,0,-1,1875,1338,23.1317,-8.00506
658,-314,23.2461,9.09778,0,0,0,0,0,0,0,-1,1882,1338,23.2461,-9.09776
665,-314,23.2124,8.76318,0.00172276,0.00777073,0.00598029,0.0114481,-0.00195462,1.01948,0.00836013,0.0209733,1889,1338,23.2124,-8.76321
672,-314,23.2251,8.47119,0.000922363,0.00451495,0.00390684,0.00701866,-0.00158135,1.00088,0.00528568,0.0127431,1896,1338,23.2252,-8.47118
679,-314,23.2247,8.11499,9.97113e-05,0.00190062,0.00204171,0.00323162,-0.00123129,0.993083,0.00266154,0.0103277,1903,1338,23.2248,-8.11495
686,-314,23.1924,7.76782,-0.000214844,0.000168852,0.000907928,0.00090498,-0.000950972,0.889518,0.00107164,0.0112456,1910,1338,23.1924,-7.76779
693,-314,23.1874,7.45422,-0.000140262,-0.000296649,0.000499284,0.000286914,-0.000723825,0.707723,0.000601449,0.0112334,1917,1338,23.1874,-7.45418
700,-314,23.1969,7.10962,-0.000150659,-0.000422008,0.000666981,0.000394307,-0.000966974,0.685059,0.000808786,0.0127135,1924,1338,23.1969,-7.10958
707,-314,23.201,6.78723,-0.000266059,-0.000524301,0.000956001,0.000569501,-0.00135986,0.718273,0.00114465,0.0122464,1931,1338,23.201,-6.78722
714,-314,23.1979,6.50806,-0.000597092,-0.000712075,0.00133891,0.000685556,-0.00199472,0.763942,0.00160781,0.0100685,1938,1338,23.1978,-6.50802
721,-314,23.1753,6.2196,-0.00123066,-0.000939329,0.00188302,0.00080365,-0.00297364,0.824,0.00229765,0.0209892,1945,1338,23.1753,-6.21956
728,-314,23.3463,6.15222,0,0,0,0,0,0,0,-1,1952,1338,23.3463,-6.15228
735,-314,23.0548,5.83411,0,0,0,0,0,0,0,-1,1959,1338,23.0548,-5.83405
742,-314,23.3965,5.55737,0,0,0,0,0,0,0,-1,1966,1338,23.3965,-5.55735
749,-314,23.7141,5.3291,0,0,0,0,0,0,0,-1,1973,1338,23.7141,-5.32911
756,-314,22.6415,3.70679,0,0,0,0,0,0,0,-1,1980,1338,22.6415,-3.70679
763,-314,19.2207,4.07239,0,0,0,0,0,0,0,-1,1987,1338,19.2206,-4.07239
770,-314,0,0,0,0,0,0,0,0,0,-1,1994,1338,0,0
777,-314,0,0,0,0,0,0,0,0,0,-1,2001,1338,0,0
784,-314,0,0,0,0,0,0,0,0,0,-1,2008,1338,0,0
791,-314,0,0,0,0,0,0,0,0,0,-1,2015,1338,0,0
798,-314,0,0,0,0,0,0,0,0,0,-1,2022,1338,0,0
805,-314,0,0,0,0,0,0,0,0,0,-1,2029,1338,0,0
812,-314,0,0,0,0,0,0,0,0,0,-1,2036,1338,0,0
-700,-321,0,0,0,0,0,0,0,0,0,-1,524,1345,0,0
-693,-321,0,0,0,0,0,0,0,0,0,-1,531,1345,0,0
-686,-321,0,0,0,0,0,0,0,0,0,-1,538,1345,0,0
-679,-321,0,0,0,0,0,0,0,0,0,-1,545,1345,0,0
-672,-321,0,0,0,0,0,0,0,0,0,-1,552,1345,0,0
-665,-321,0,0,0,0,0,0,0,0,0,-1,559,1345,0,0
-658,-321,0,0,0,0,0,0,0,0,0,-1,566,1345,0,0
-651,-321,0,0,0,0,0,0,0,0,0,-1,573,1345,0,0
-644,-321,-10.9585,-1.48376,0,0,0,0,0,0,0,-1,580,1345,-10.9585,1.48374
-637,-321,-13.3991,3.59241,0,0,0,0,0,0,0,-1,587,1345,-13.3991,-3.59236
-630,-321,-13.2958,3.65039,0,0,0,0,0,0,0,-1,594,1345,-13.2958,-3.65042
-623,-321,-13.2242,3.14148,0,0,0,0,0,0,0,-1,601,1345,-13.2243,-3.14146
-616,-321,-11.6754,3.13794,0,0,0,0,0,0,0,-1,608,1345,-11.6754,-3.13789
-609,-321,-7.95209,1.14758,0,0,0,0,0,0,0,-1,615,1345,-7.95208,-1.14757
-602,-321,-8.85791,2.50049,0,0,0,0,0,0,0,-1,622,1345,-8.85791,-2.50048
-595,-321,-12.3428,3.33081,0,0,0,0,0,0,0,-1,629,1345,-12.3428,-3.33081
-588,-321,-12.0417,3.745,0.00716193,0.00936033,0.00583167,0.0141955,0.00232677,0.878549,0.00879131,0.0326295,636,1345,-12.0417,-3.74504
-581,-321,-11.9583,4.18787,0.0030922,0.00414321,0.002246,0.00592436,0.00131105,0.900318,0.00359319,0.0122858,643,1345,-11.9583,-4.18781
-574,-321,-11.9786,4.54553,0.00219278,0.00214281,0.00120049,0.00336854,0.000967048,0.774994,0.00200274,0.014106,650,1345,-11.9786,-4.54557
-567,-321,-11.9773,4.90527,0.00194778,0.000946017,0.000649243,0.0022669,0.000626899,0.456843,0.00135166,0.0200726,657,1345,-11.9773,-4.90522
-560,-321,-11.8862,5.29529,0.00206059,-0.00027888,0.000207263,0.00207881,-0.0002971,0.0876836,0.00149478,0.0248802,664,1345,-11.8862,-5.29528
-553,-321,-11.9142,5.6377,0.00281945,-0.000307389,0.000388469,0.00286699,-0.000354929,0.121771,0.00203995,0.0268223,671,1345,-11.9142,-5.63768
-546,-321,-12.0297,6.02039,0.00399575,-0.000388166,0.000651415,0.0040905,-0.000482913,0.144436,0.0029014,0.0247348,678,1345,-12.0297,-6.02035
-539,-321,-12.0202,6.38806,0.00550628,-0.00044761,0.00102084,0.00567644,-0.000617776,0.165174,0.00400613,0.0220811,685,1345,-12.0202,-6.38806
-532,-321,-11.8907,6.74622,0.00749007,-0.000460299,0.00152206,0.0077715,-0.000741728,0.182835,0.00544511,0.0251816,692,1345,-11.8907,-6.74624
-525,-321,-11.9343,7.13367,0,0,0,0,0,0,0,-1,699,1345,-11.9342,-7.13364
-518,-321,-10.3564,6.75696,0,0,0,0,0,0,0,-1,706,1345,-10.3564,-6.75694
-511,-321,-9.3302,5.29297,0,0,0,0,0,0,0,-1,713,1345,-9.33023,-5.29294
-504,-321,-10.4713,0.0145264,0,0,0,0,0,0,0,-1,720,1345,-10.4713,-0.0145296
-497,-321,-9.96771,0.313599,0,0,0,0,0,0,0,-1,727,1345,-9.96769,-0.313618
-490,-321,-10.7631,0.973511,0,0,0,0,0,0,0,-1,734,1345,-10.7631,-0.97353
-483,-321,-17.5908,0.2323,0,0,0,0,0,0,0,-1,741,1345,-17.5908,-0.232355
-476,-321,-17.2915,0.297363,0,0,0,0,0,0,0,-1,748,1345,-17.2915,-0.297342
-469,-321,-17.2441,0.478027,0,0,0,0,0,0,0,-1,755,1345,-17.2441,-0.477994
-462,-321,-17.1672,0.526489,0,0,0,0,0,0,0,-1,762,1345,-17.1672,-0.526533
-455,-321,0,0,0,0,0,0,0,0,0,-1,769,1345,0,0
-448,-321,0,0,0,0,0,0,0,0,0,-1,776,1345,0,0
-441,-321,0,0,0,0,0,0,0,0,0,-1,783,1345,0,0
-434,-321,0,0,0,0,0,0,0,0,0,-1,790,1345,0,0
-427,-321,0,0,0,0,0,0,0,0,0,-1,797,1345,0,0
-420,-321,0,0,0,0,0,0,0,0,0,-1,804,1345,0,0
-413,-321,0,0,0,0,0,0,0,0,0,-1,811,1345,0,0
-406,-321,0,0,0,0,0,0,0,0,0,-1,818,1345,0,0
-399,-321,0,0,0,0,0,0,0,0,0,-1,825,1345,0,0
-392,-321,0,0,0,0,0,0,0,0,0,-1,832,1345,0,0
-385,-321,0,0,0,0,0,0,0,0,0,-1,839,1345,0,0
-378,-321,0,0,0,0,0,0,0,0,0,-1,846,1345,0,0
-371,-321,0,0,0,0,0,0,0,0,0,-1,853,1345,0,0
-364,-321,0,0,0,0,0,0,0,0,0,-1,860,1345,0,0
-357,-321,0,0,0,0,0,0,0,0,0,-1,867,1345,0,0
-350,-321,0,0,0,0,0,0,0,0,0,-1,874,1345,0,0
-343,-321,0,0,0,0,0,0,0,0,0,-1,881,1345,0,0
-336,-321,0,0,0,0,0,0,0,0,0,-1,888,1345,0,0
-329,-321,0,0,0,0,0,0,0,0,0,-1,895,1345,0,0
-322,-321,0,0,0,0,0,0,0,0,0,-1,902,1345,0,0
-315,-321,0,0,0,0,0,0,0,0,0,-1,909,1345,0,0
-308,-321,0,0,0,0,0,0,0,0,0,-1,916,1345,0,0
-301,-321,0,0,0,0,0,0,0,0,0,-1,923,1345,0,0
-294,-321,0,0,0,0,0,0,0,0,0,-1,930,1345,0,0
-287,-321,0,0,0,0,0,0,0,0,0,-1,937,1345,0,0
-280,-321,0,0,0,0,0,0,0,0,0,-1,944,1345,0,0
-273,-321,0,0,0,0,0,0,0,0,0,-1,951,1345,0,0
-266,-321,0,0,0,0,0,0,0,0,0,-1,958,1345,0,0
-259,-321,0,0,0,0,0,0,0,0,0,-1,965,1345,0,0
-252,-321,0,0,0,0,0,0,0,0,0,-1,972,1345,0,0
-245,-321,0,0,0,0,0,0,0,0,0,-1,979,1345,0,0
-238,-321,0,0,0,0,0,0,0,0,0,-1,986,1345,0,0
-231,-321,0,0,0,0,0,0,0,0,0,-1,993,1345,0,0
-224,-321,0,0,0,0,0,0,0,0,0,-1,1000,1345,0,0
-217,-321,0,0,0,0,0,0,0,0,0,-1,1007,1345,0,0
-210,-321,0,0,0,0,0,0,0,0,0,-1,1014,1345,0,0
-203,-321,0,0,0,0,0,0,0,0,0,-1,1021,1345,0,0
-196,-321,0,0,0,0,0,0,0,0,0,-1,1028,1345,0,0
-189,-321,0,0,0,0,0,0,0,0,0,-1,1035,1345,0,0
-182,-321,0,0,0,0,0,0,0,0,0,-1,1042,1345,0,0
-175,-321,0,0,0,0,0,0,0,0,0,-1,1049,1345,0,0
-168,-321,0,0,0,0,0,0,0,0,0,-1,1056,1345,0,0
-161,-321,0,0,0,0,0,0,0,0,0,-1,1063,1345,0,0
-154,-321,0,0,0,0,0,0,0,0,0,-1,1070,1345,0,0
-147,-321,0,0,0,0,0,0,0,0,0,-1,1077,1345,0,0
-140,-321,0,0,0,0,0,0,0,0,0,-1,1084,1345,0,0
-133,-321,0,0,0,0,0,0,0,0,0,-1,1091,1345,0,0
-126,-321,0,0,0,0,0,0,0,0,0,-1,1098,1345,0,0
-119,-321,0,0,0,0,0,0,0,0,0,-1,1105,1345,0,0
-112,-321,0,0,0,0,0,0,0,0,0,-1,1112,1345,0,0
-105,-321,0,0,0,0,0,0,0,0,0,-1,1119,1345,0,0
-98,-321,0,0,0,0,0,0,0,0,0,-1,1126,1345,0,0
-91,-321,0,0,0,0,0,0,0,0,0,-1,1133,1345,0,0
-84,-321,0,0,0,0,0,0,0,0,0,-1,1140,1345,0,0
-77,-321,0,0,0,0,0,0,0,0,0,-1,1147,1345,0,0
-70,-321,0,0,0,0,0,0,0,0,0,-1,1154,1345,0,0
-63,-321,0,0,0,0,0,0,0,0,0,-1,1161,1345,0,0
-56,-321,0,0,0,0,0,0,0,0,0,-1,1168,1345,0,0
-49,-321,0,0,0,0,0,0,0,0,0,-1,1175,1345,0,0
-42,-321,0,0,0,0,0,0,0,0,0,-1,1182,1345,0,0
-35,-321,0,0,0,0,0,0,0,0,0,-1,1189,1345,0,0
-28,-321,0,0,0,0,0,0,0,0,0,-1,1196,1345,0,0
-21,-321,0,0,0,0,0,0,0,0,0,-1,1203,1345,0,0
-14,-321,0,0,0,0,0,0,0,0,0,-1,1210,1345,0,0
-7,-321,0,0,0,0,0,0,0,0,0,-1,1217,1345,0,0
0,-321,0,0,0,0,0,0,0,0,0,-1,1224,1345,0,0
7,-321,0,0,0,0,0,0,0,0,0,-1,1231,1345,0,0
14,-321,0,0,0,0,0,0,0,0,0,-1,1238,1345,0,0
21,-321,0,0,0,0,0,0,0,0,0,-1,1245,1345,0,0
28,-321,0,0,0,0,0,0,0,0,0,-1,1252,1345,0,0
35,-321,0,0,0,0,0,0,0,0,0,-1,1259,1345,0,0
42,-321,0,0,0,0,0,0,0,0,0,-1,1266,1345,0,0
49,-321,0,0,0,0,0,0,0,0,0,-1,1273,1345,0,0
56,-321,0,0,0,0,0,0,0,0,0,-1,1280,1345,0,0
63,-321,0,0,0,0,0,0,0,0,0,-1,1287,1345,0,0
70,-321,0,0,0,0,0,0,0,0,0,-1,1294,1345,0,0
77,-321,0,0,0,0,0,0,0,0,0,-1,1301,1345,0,0
84,-321,0,0,0,0,0,0,0,0,0,-1,1308,1345,0,0
91,-321,0,0,0,0,0,0,0,0,0,-1,1315,1345,0,0
98,-321,0,0,0,0,0,0,0,0,0,-1,1322,1345,0,0
105,-321,0,0,0,0,0,0,0,0,0,-1,1329,1345,0,0
112,-321,0,0,0,0,0,0,0,0,0,-1,1336,1345,0,0
119,-321,0,0,0,0,0,0,0,0,0,-1,1343,1345,0,0
126,-321,0,0,0,0,0,0,0,0,0,-1,1350,1345,0,0
133,-321,0,0,0,0,0,0,0,0,0,-1,1357,1345,0,0
140,-321,0,0,0,0,0,0,0,0,0,-1,1364,1345,0,0
147,-321,0,0,0,0,0,0,0,0,0,-1,1371,1345,0,0
154,-321,0,0,0,0,0,0,0,0,0,-1,1378,1345,0,0
161,-321,0,0,0,0,0,0,0,0,0,-1,1385,1345,0,0
168,-321,0,0,0,0,0,0,0,0,0,-1,1392,1345,0,0
175,-321,0,0,0,0,0,0,0,0,0,-1,1399,1345,0,0
182,-321,0,0,0,0,0,0,0,0,0,-1,1406,1345,0,0
189,-321,0,0,0,0,0,0,0,0,0,-1,1413,1345,0,0
196,-321,0,0,0,0,0,0,0,0,0,-1,1420,1345,0,0
203,-321,0,0,0,0,0,0,0,0,0,-1,1427,1345,0,0
210,-321,0,0,0,0,0,0,0,0,0,-1,1434,1345,0,0
217,-321,0,0,0,0,0,0,0,0,0,-1,1441,1345,0,0
224,-321,0,0,0,0,0,0,0,0,0,-1,1448,1345,0,0
231,-321,0,0,0,0,0,0,0,0,0,-1,1455,1345,0,0
238,-321,0,0,0,0,0,0,0,0,0,-1,1462,1345,0,0
245,-321,0,0,0,0,0,0,0,0,0,-1,1469,1345,0,0
252,-321,0,0,0,0,0,0,0,0,0,-1,1476,1345,0,0
259,-321,0,0,0,0,0,0,0,0,0,-1,1483,1345,0,0
266,-321,0,0,0,0,0,0,0,0,0,-1,1490,1345,0,0
273,-321,0,0,0,0,0,0,0,0,0,-1,1497,1345,0,0
280,-321,0,0,0,0,0,0,0,0,0,-1,1504,1345,0,0
287,-321,0,0,0,0,0,0,0,0,0,-1,1511,1345,0,0
294,-321,0,0,0,0,0,0,0,0,0,-1,1518,1345,0,0
301,-321,0,0,0,0,0,0,0,0,0,-1,1525,1345,0,0
308,-321,0,0,0,0,0,0,0,0,0,-1,1532,1345,0,0
315,-321,0,0,0,0,0,0,0,0,0,-1,1539,1345,0,0
322,-321,0,0,0,0,0,0,0,0,0,-1,1546,1345,0,0
329,-321,0,0,0,0,0,0,0,0,0,-1,1553,1345,0,0
336,-321,0,0,0,0,0,0,0,0,0,-1,1560,1345,0,0
343,-321,0,0,0,0,0,0,0,0,0,-1,1567,1345,0,0
350,-321,0,0,0,0,0,0,0,0,0,-1,1574,1345,0,0
357,-321,0,0,0,0,0,0,0,0,0,-1,1581,1345,0,0
364,-321,0,0,0,0,0,0,0,0,0,-1,1588,1345,0,0
371,-321,0,0,0,0,0,0,0,0,0,-1,1595,1345,0,0
378,-321,0,0,0,0,0,0,0,0,0,-1,1602,1345,0,0
385,-321,0,0,0,0,0,0,0,0,0,-1,1609,1345,0,0
392,-321,0,0,0,0,0,0,0,0,0,-1,1616,1345,0,0
399,-321,0,0,0,0,0,0,0,0,0,-1,1623,1345,0,0
406,-321,0,0,0,0,0,0,0,0,0,-1,1630,1345,0,0
413,-321,0,0,0,0,0,0,0,0,0,-1,1637,1345,0,0
420,-321,0,0,0,0,0,0,0,0,0,-1,1644,1345,0,0
427,-321,0,0,0,0,0,0,0,0,0,-1,1651,1345,0,0
434,-321,0,0,0,0,0,0,0,0,0,-1,1658,1345,0,0
441,-321,0,0,0,0,0,0,0,0,0,-1,1665,1345,0,0
448,-321,0,0,0,0,0,0,0,0,0,-1,1672,1345,0,0
455,-321,0,0,0,0,0,0,0,0,0,-1,1679,1345,0,0
462,-321,0,0,0,0,0,0,0,0,0,-1,1686,1345,0,0
469,-321,0,0,0,0,0,0,0,0,0,-1,1693,1345,0,0
476,-321,0,0,0,0,0,0,0,0,0,-1,1700,1345,0,0
483,-321,0,0,0,0,0,0,0,0,0,-1,1707,1345,0,0
490,-321,0,0,0,0,0,0,0,0,0,-1,1714,1345,0,0
497,-321,0,0,0,0,0,0,0,0,0,-1,1721,1345,0,0
504,-321,0,0,0,0,0,0,0,0,0,-1,1728,1345,0,0
511,-321,0,0,0,0,0,0,0,0,0,-1,1735,1345,0,0
518,-321,0,0,0,0,0,0,0,0,0,-1,1742,1345,0,0
525,-321,0,0,0,0,0,0,0,0,0,-1,1749,1345,0,0
532,-321,0,0,0,0,0,0,0,0,0,-1,1756,1345,0,0
539,-321,0,0,0,0,0,0,0,0,0,-1,1763,1345,0,0
546,-321,0,0,0,0,0,0,0,0,0,-1,1770,1345,0,0
553,-321,0,0,0,0,0,0,0,0,0,-1,1777,1345,0,0
560,-321,0,0,0,0,0,0,0,0,0,-1,1784,1345,0,0
567,-321,0,0,0,0,0,0,0,0,0,-1,1791,1345,0,0
574,-321,0,0,0,0,0,0,0,0,0,-1,1798,1345,0,0
581,-321,31.8264,2.52063,0,0,0,0,0,0,0,-1,1805,1345,31.8264,-2.52066
588,-321,32.4471,2.33936,0,0,0,0,0,0,0,-1,1812,1345,32.4472,-2.33931
595,-321,33.5621,2.35559,0,0,0,0,0,0,0,-1,1819,1345,33.5622,-2.35563
602,-321,34.4805,2.45544,0,0,0,0,0,0,0,-1,1826,1345,34.4804,-2.45542
609,-321,34.6582,2.39026,0,0,0,0,0,0,0,-1,1833,1345,34.6582,-2.39025
616,-321,28.2644,6.06323,0,0,0,0,0,0,0,-1,1840,1345,28.2645,-6.06326
623,-321,29.0143,6.19641,0,0,0,0,0,0,0,-1,1847,1345,29.0142,-6.19642
630,-321,23.6674,4.34106,0,0,0,0,0,0,0,-1,1854,1345,23.6674,-4.34112
637,-321,21.7925,6.79224,0,0,0,0,0,0,0,-1,1861,1345,21.7925,-6.7922
644,-321,16.8844,6.71973,0,0,0,0,0,0,0,-1,1868,1345,16.8844,-6.71971
651,-321,23.2467,8.70581,0,0,0,0,0,0,0,-1,1875,1345,23.2467,-8.7058
658,-321,22.8267,9.08862,0,0,0,0,0,0,0,-1,1882,1345,22.8267,-9.08867
665,-321,22.8622,8.78247,0.00144158,0.00490729,0.00372347,0.00728137,-0.00093251,1.00319,0.00519307,0.0179137,1889,1345,22.8622,-8.7825
672,-321,22.8966,8.45959,0.000694178,0.00252862,0.00219157,0.00398717,-0.000764368,0.983584,0.00294614,0.0132037,1896,1345,22.8966,-8.45957
679,-321,22.8949,8.12646,0.000101432,0.000819795,0.000996301,0.00151968,-0.000598456,0.958404,0.00126087,0.0115866,1903,1345,22.8949,-8.1265
686,-321,22.8607,7.79395,-3.8688e-05,-0.000161051,0.000456553,0.000360765,-0.000560503,0.718791,0.000536045,0.0119003,1910,1345,22.8607,-7.79392
693,-321,22.8605,7.48303,0.000102211,-0.000347546,0.000395797,0.000332553,-0.000577888,0.527056,0.000531967,0.0124095,1917,1345,22.8605,-7.48301
700,-321,22.8655,7.13232,0.000161474,-0.000427278,0.000636354,0.000568242,-0.000834047,0.568758,0.000814446,0.011636,1924,1345,22.8655,-7.13231
707,-321,22.8789,6.80505,5.60499e-05,-0.000551393,0.000954097,0.000753602,-0.00124895,0.631303,0.0011679,0.0129588,1931,1345,22.8789,-6.80505
714,-321,22.8793,6.49512,-0.000273968,-0.000765667,0.00137366,0.000875665,-0.0019153,0.696848,0.00164821,0.0123362,1938,1345,22.8792,-6.49513
721,-321,22.8409,6.17615,-0.00100348,-0.00104602,0.00205359,0.00102896,-0.00307845,0.780219,0.00246786,0.0325515,1945,1345,22.8409,-6.17615
728,-321,22.8613,5.89612,0,0,0,0,0,0,0,-1,1952,1345,22.8613,-5.89609
735,-321,22.0081,5.65479,0,0,0,0,0,0,0,-1,1959,1345,22.008,-5.65481
742,-321,23.3423,5.49609,0,0,0,0,0,0,0,-1,1966,1345,23.3423,-5.49609
749,-321,21.9312,5.54041,0,0,0,0,0,0,0,-1,1973,1345,21.9312,-5.54043
756,-321,19.6251,4.98315,0,0,0,0,0,0,0,-1,1980,1345,19.6251,-4.98311
763,-321,19.6747,4.61438,0,0,0,0,0,0,0,-1,1987,1345,19.6747,-4.61436
770,-321,0,0,0,0,0,0,0,0,0,-1,1994,1345,0,0
777,-321,0,0,0,0,0,0,0,0,0,-1,2001,1345,0,0
784,-321,0,0,0,0,0,0,0,0,0,-1,2008,1345,0,0
791,-321,0,0,0,0,0,0,0,0,0,-1,2015,1345,0,0
798,-321,0,0,0,0,0,0,0,0,0,-1,2022,1345,0,0
805,-321,0,0,0,0,0,0,0,0,0,-1,2029,1345,0,0
812,-321,0,0,0,0,0,0,0,0,0,-1,2036,1345,0,0
-700,-328,0,0,0,0,0,0,0,0,0,-1,524,1352,0,0
-693,-328,0,0,0,0,0,0,0,0,0,-1,531,1352,0,0
-686,-328,0,0,0,0,0,0,0,0,0,-1,538,1352,0,0
-679,-328,0,0,0,0,0,0,0,0,0,-1,545,1352,0,0
-672,-328,0,0,0,0,0,0,0,0,0,-1,552,1352,0,0
-665,-328,0,0,0,0,0,0,0,0,0,-1,559,1352,0,0
-658,-328,0,0,0,0,0,0,0,0,0,-1,566,1352,0,0
-651,-328,0,0,0,0,0,0,0,0,0,-1,573,1352,0,0
-644,-328,0,0,0,0,0,0,0,0,0,-1,580,1352,0,0
-637,-328,-12.0695,1.02014,0,0,0,0,0,0,0,-1,587,1352,-12.0694,-1.02017
-630,-328,-13.3971,4.54578,0,0,0,0,0,0,0,-1,594,1352,-13.3971,-4.54572
-623,-328,-10.7739,4.55042,0,0,0,0,0,0,0,-1,601,1352,-10.7739,-4.55041
-616,-328,-8.22198,-0.25708,0,0,0,0,0,0,0,-1,608,1352,-8.22201,0.257067
-609,-328,-7.87439,0.192871,0,0,0,0,0,0,0,-1,615,1352,-7.87441,-0.192822
-602,-328,-7.63062,1.31665,0,0,0,0,0,0,0,-1,622,1352,-7.63064,-1.3166
-595,-328,-9.42639,2.93494,0,0,0,0,0,0,0,-1,629,1352,-9.42638,-2.93499
-588,-328,-11.7881,3.50464,0,0,0,0,0,0,0,-1,636,1352,-11.7881,-3.50461
-581,-328,-11.6188,4.16797,0.00233628,0.0025894,0.00150168,0.00396984,0.000955834,0.827439,0.00239247,0.0193855,643,1352,-11.6189,-4.16799
-574,-328,-11.5975,4.56934,0.0015091,0.00100867,0.000612287,0.00192032,0.000597442,0.591424,0.00113476,0.013387,650,1352,-11.5976,-4.56931
-567,-328,-11.6153,4.92175,0.0013364,0.000184023,0.000197605,0.00136934,0.00015108,0.165192,0.000866932,0.0177108,657,1352,-11.6153,-4.92174
-560,-328,-11.4905,5.31653,0.00152623,-0.000682128,-0.000103349,0.00153105,-0.000686954,-0.0466631,0.00131111,0.0260901,664,1352,-11.4905,-5.31649
-553,-328,-11.5292,5.68091,0.00232477,-0.000526915,0.000160902,0.00233382,-0.000535965,0.0561859,0.00176192,0.0286107,671,1352,-11.5292,-5.68087
-546,-328,-11.6462,6.05396,0.00357323,-0.000454372,0.000528458,0.00364142,-0.000522556,0.128316,0.00261923,0.025602,678,1352,-11.6462,-6.05393
-539,-328,-11.6537,6.41541,0.00511484,-0.000367795,0.000996658,0.00529039,-0.000543351,0.174356,0.00372129,0.021378,685,1352,-11.6537,-6.41537
-532,-328,-11.6232,6.76538,0.00709352,-0.000269315,0.00161713,0.00743305,-0.000608837,0.206947,0.00517027,0.0171776,692,1352,-11.6232,-6.76533
-525,-328,-11.5892,7.18127,0.00957257,-0.000239397,0.00238555,0.0101218,-0.000788645,0.226295,0.00702553,0.0203685,699,1352,-11.5892,-7.18127
-518,-328,-11.6378,7.63342,0,0,0,0,0,0,0,-1,706,1352,-11.6378,-7.6334
-511,-328,-9.39868,7.16113,0,0,0,0,0,0,0,-1,713,1352,-9.39869,-7.16113
-504,-328,-8.60626,-0.905762,0,0,0,0,0,0,0,-1,720,1352,-8.60623,0.905787
-497,-328,-9.29102,-0.0517578,0,0,0,0,0,0,0,-1,727,1352,-9.29104,0.0518175
-490,-328,-10.0663,0.882813,0,0,0,0,0,0,0,-1,734,1352,-10.0663,-0.882795
-483,-328,-10.8181,1.72375,0,0,0,0,0,0,0,-1,741,1352,-10.8181,-1.72374
-476,-328,-16.8951,-0.150757,0,0,0,0,0,0,0,-1,748,1352,-16.8951,0.150795
-469,-328,-16.8412,0.00158691,0,0,0,0,0,0,0,-1,755,1352,-16.8412,-0.00161515
-462,-328,-16.3546,-0.203491,0,0,0,0,0,0,0,-1,762,1352,-16.3545,0.203532
-455,-328,0,0,0,0,0,0,0,0,0,-1,769,1352,0,0
-448,-328,0,0,0,0,0,0,0,0,0,-1,776,1352,0,0
-441,-328,0,0,0,0,0,0,0,0,0,-1,783,1352,0,0
-434,-328,0,0,0,0,0,0,0,0,0,-1,790,1352,0,0
-427,-328,0,0,0,0,0,0,0,0,0,-1,797,1352,0,0
-420,-328,0,0,0,0,0,0,0,0,0,-1,804,1352,0,0
-413,-328,0,0,0,0,0,0,0,0,0,-1,811,1352,0,0
-406,-328,0,0,0,0,0,0,0,0,0,-1,818,1352,0,0
-399,-328,0,0,0,0,0,0,0,0,0,-1,825,1352,0,0
-392,-328,0,0,0,0,0,0,0,0,0,-1,832,1352,0,0
-385,-328,0,0,0,0,0,0,0,0,0,-1,839,1352,0,0
-378,-328,0,0,0,0,0,0,0,0,0,-1,846,1352,0,0
-371,-328,0,0,0,0,0,0,0,0,0,-1,853,1352,0,0
-364,-328,0,0,0,0,0,0,0,0,0,-1,860,1352,0,0
-357,-328,0,0,0,0,0,0,0,0,0,-1,867,1352,0,0
-350,-328,0,0,0,0,0,0,0,0,0,-1,874,1352,0,0
-343,-328,0,0,0,0,0,0,0,0,0,-1,881,1352,0,0
-336,-328,0,0,0,0,0,0,0,0,0,-1,888,1352,0,0
-329,-328,0,0,0,0,0,0,0,0,0,-1,895,1352,0,0
-322,-328,0,0,0,0,0,0,0,0,0,-1,902,1352,0,0
-315,-328,0,0,0,0,0,0,0,0,0,-1,909,1352,0,0
-308,-328,0,0,0,0,0,0,0,0,0,-1,916,1352,0,0
-301,-328,0,0,0,0,0,0,0,0,0,-1,923,1352,0,0
-294,-328,0,0,0,0,0,0,0,0,0,-1,930,1352,0,0
-287,-328,0,0,0,0,0,0,0,0,0,-1,937,1352,0,0
-280,-328,0,0,0,0,0,0,0,0,0,-1,944,1352,0,0
-273,-328,0,0,0,0,0,0,0,0,0,-1,951,1352,0,0
-266,-328,0,0,0,0,0,0,0,0,0,-1,958,1352,0,0
-259,-328,0,0,0,0,0,0,0,0,0,-1,965,1352,0,0
-252,-328,0,0,0,0,0,0,0,0,0,-1,972,1352,0,0
-245,-328,0,0,0,0,0,0,0,0,0,-1,979,1352,0,0
-238,-328,0,0,0,0,0,0,0,0,0,-1,986,1352,0,0
-231,-328,0,0,0,0,0,0,0,0,0,-1,993,1352,0,0
-224,-328,0,0,0,0,0,0,0,0,0,-1,1000,1352,0,0
-217,-328,0,0,0,0,0,0,0,0,0,-1,1007,1352,0,0
-210,-328,0,0,0,0,0,0,0,0,0,-1,1014,1352,0,0
-203,-328,0,0,0,0,0,0,0,0,0,-1,1021,1352,0,0
-196,-328,0,0,0,0,0,0,0,0,0,-1,1028,1352,0,0
-189,-328,0,0,0,0,0,0,0,0,0,-1,1035,1352,0,0
-182,-328,0,0,0,0,0,0,0,0,0,-1,1042,1352,0,0
-175,-328,0,0,0,0,0,0,0,0,0,-1,1049,1352,0,0
-168,-328,0,0,0,0,0,0,0,0,0,-1,1056,1352,0,0
-161,-328,0,0,0,0,0,0,0,0,0,-1,1063,1352,0,0
-154,-328,0,0,0,0,0,0,0,0,0,-1,1070,1352,0,0
-147,-328,0,0,0,0,0,0,0,0,0,-1,1077,1352,0,0
-140,-328,0,0,0,0,0,0,0,0,0,-1,1084,1352,0,0
-133,-328,0,0,0,0,0,0,0,0,0,-1,1091,1352,0,0
-126,-328,0,0,0,0,0,0,0,0,0,-1,1098,1352,0,0
-119,-328,0,0,0,0,0,0,0,0,0,-1,1105,1352,0,0
-112,-328,0,0,0,0,0,0,0,0,0,-1,1112,1352,0,0
-105,-328,0,0,0,0,0,0,0,0,0,-1,1119,1352,0,0
-98,-328,0,0,0,0,0,0,0,0,0,-1,1126,1352,0,0
-91,-328,0,0,0,0,0,0,0,0,0,-1,1133,1352,0,0
-84,-328,0,0,0,0,0,0,0,0,0,-1,1140,1352,0,0
-77,-328,0,0,0,0,0,0,0,0,0,-1,1147,1352,0,0
-70,-328,0,0,0,0,0,0,0,0,0,-1,1154,1352,0,0
-63,-328,0,0,0,0,0,0,0,0,0,-1,1161,1352,0,0
-56,-328,0,0,0,0,0,0,0,0,0,-1,1168,1352,0,0
-49,-328,0,0,0,0,0,0,0,0,0,-1,1175,1352,0,0
-42,-328,0,0,0,0,0,0,0,0,0,-1,1182,1352,0,0
-35,-328,0,0,0,0,0,0,0,0,0,-1,1189,1352,0,0
-28,-328,0,0,0,0,0,0,0,0,0,-1,1196,1352,0,0
-21,-328,0,0,0,0,0,0,0,0,0,-1,1203,1352,0,0
-14,-328,0,0,0,0,0,0,0,0,0,-1,1210,1352,0,0
-7,-328,0,0,0,0,0,0,0,0,0,-1,1217,1352,0,0
0,-328,0,0,0,0,0,0,0,0,0,-1,1224,1352,0,0
7,-328,0,0,0,0,0,0,0,0,0,-1,1231,1352,0,0
14,-328,0,0,0,0,0,0,0,0,0,-1,1238,1352,0,0
21,-328,0,0,0,0,0,0,0,0,0,-1,1245,1352,0,0
28,-328,0,0,0,0,0,0,0,0,0,-1,1252,1352,0,0
35,-328,0,0,0,0,0,0,0,0,0,-1,1259,1352,0,0
42,-328,0,0,0,0,0,0,0,0,0,-1,1266,1352,0,0
49,-328,0,0,0,0,0,0,0,0,0,-1,1273,1352,0,0
56,-328,0,0,0,0,0,0,0,0,0,-1,1280,1352,0,0
63,-328,0,0,0,0,0,0,0,0,0,-1,1287,1352,0,0
70,-328,0,0,0,0,0,0,0,0,0,-1,1294,1352,0,0
77,-328,0,0,0,0,0,0,0,0,0,-1,1301,1352,0,0
84,-328,0,0,0,0,0,0,0,0,0,-1,1308,1352,0,0
91,-328,0,0,0,0,0,0,0,0,0,-1,1315,1352,0,0
98,-328,0,0,0,0,0,0,0,0,0,-1,1322,1352,0,0
105,-328,0,0,0,0,0,0,0,0,0,-1,1329,1352,0,0
112,-328,0,0,0,0,0,0,0,0,0,-1,1336,1352,0,0
119,-328,0,0,0,0,0,0,0,0,0,-1,1343,1352,0,0
126,-328,0,0,0,0,0,0,0,0,0,-1,1350,1352,0,0
133,-328,0,0,0,0,0,0,0,0,0,-1,1357,1352,0,0
140,-328,0,0,0,0,0,0,0,0,0,-1,1364,1352,0,0
147,-328,0,0,0,0,0,0,0,0,0,-1,1371,1352,0,0
154,-328,0,0,0,0,0,0,0,0,0,-1,1378,1352,0,0
161,-328,0,0,0,0,0,0,0,0,0,-1,1385,1352,0,0
168,-328,0,0,0,0,0,0,0,0,0,-1,1392,1352,0,0
175,-328,0,0,0,0,0,0,0,0,0,-1,1399,1352,0,0
182,-328,0,0,0,0,0,0,0,0,0,-1,1406,1352,0,0
189,-328,0,0,0,0,0,0,0,0,0,-1,1413,1352,0,0
196,-328,0,0,0,0,0,0,0,0,0,-1,1420,1352,0,0
203,-328,0,0,0,0,0,0,0,0,0,-1,1427,1352,0,0
210,-328,0,0,0,0,0,0,0,0,0,-1,1434,1352,0,0
217,-328,0,0,0,0,0,0,0,0,0,-1,1441,1352,0,0
224,-328,0,0,0,0,0,0,0,0,0,-1,1448,1352,0,0
231,-328,0,0,0,0,0,0,0,0,0,-1,1455,1352,0,0
238,-328,0,0,0,0,0,0,0,0,0,-1,1462,1352,0,0
245,-328,0,0,0,0,0,0,0,0,0,-1,1469,1352,0,0
252,-328,0,0,0,0,0,0,0,0,0,-1,1476,1352,0,0
259,-328,0,0,0,0,0,0,0,0,0,-1,1483,1352,0,0
266,-328,0,0,0,0,0,0,0,0,0,-1,1490,1352,0,0
273,-328,0,0,0,0,0,0,0,0,0,-1,1497,1352,0,0
280,-328,0,0,0,0,0,0,0,0,0,-1,1504,1352,0,0
287,-328,0,0,0,0,0,0,0,0,0,-1,1511,1352,0,0
294,-328,0,0,0,0,0,0,0,0,0,-1,1518,1352,0,0
301,-328,0,0,0,0,0,0,0,0,0,-1,1525,1352,0,0
308,-328,0,0,0,0,0,0,0,0,0,-1,1532,1352,0,0
315,-328,0,0,0,0,0,0,0,0,0,-1,1539,1352,0,0
322,-328,0,0,0,0,0,0,0,0,0,-1,1546,1352,0,0
329,-328,0,0,0,0,0,0,0,0,0,-1,1553,1352,0,0
336,-328,0,0,0,0,0,0,0,0,0,-1,1560,1352,0,0
343,-328,0,0,0,0,0,0,0,0,0,-1,1567,1352,0,0
350,-328,0,0,0,0,0,0,0,0,0,-1,1574,1352,0,0
357,-328,0,0,0,0,0,0,0,0,0,-1,1581,1352,0,0
364,-328,0,0,0,0,0,0,0,0,0,-1,1588,1352,0,0
371,-328,0,0,0,0,0,0,0,0,0,-1,1595,1352,0,0
378,-328,0,0,0,0,0,0,0,0,0,-1,1602,1352,0,0
385,-328,0,0,0,0,0,0,0,0,0,-1,1609,1352,0,0
392,-328,0,0,0,0,0,0,0,0,0,-1,1616,1352,0,0
399,-328,0,0,0,0,0,0,0,0,0,-1,1623,1352,0,0
406,-328,0,0,0,0,0,0,0,0,0,-1,1630,1352,0,0
413,-328,0,0,0,0,0,0,0,0,0,-1,1637,1352,0,0
420,-328,0,0,0,0,0,0,0,0,0,-1,1644,1352,0,0
427,-328,0,0,0,0,0,0,0,0,0,-1,1651,1352,0,0
434,-328,0,0,0,0,0,0,0,0,0,-1,1658,1352,0,0
441,-328,0,0,0,0,0,0,0,0,0,-1,1665,1352,0,0
448,-328,0,0,0,0,0,0,0,0,0,-1,1672,1352,0,0
455,-328,0,0,0,0,0,0,0,0,0,-1,1679,1352,0,0
462,-328,0,0,0,0,0,0,0,0,0,-1,1686,1352,0,0
469,-328,0,0,0,0,0,0,0,0,0,-1,1693,1352,0,0
476,-328,0,0,0,0,0,0,0,0,0,-1,1700,1352,0,0
483,-328,0,0,0,0,0,0,0,0,0,-1,1707,1352,0,0
490,-328,0,0,0,0,0,0,0,0,0,-1,1714,1352,0,0
497,-328,0,0,0,0,0,0,0,0,0,-1,1721,1352,0,0
504,-328,0,0,0,0,0,0,0,0,0,-1,1728,1352,0,0
511,-328,0,0,0,0,0,0,0,0,0,-1,1735,1352,0,0
518,-328,0,0,0,0,0,0,0,0,0,-1,1742,1352,0,0
525,-328,0,0,0,0,0,0,0,0,0,-1,1749,1352,0,0
532,-328,0,0,0,0,0,0,0,0,0,-1,1756,1352,0,0
539,-328,0,0,0,0,0,0,0,0,0,-1,1763,1352,0,0
546,-328,0,0,0,0,0,0,0,0,0,-1,1770,1352,0,0
553,-328,0,0,0,0,0,0,0,0,0,-1,1777,1352,0,0
560,-328,0,0,0,0,0,0,0,0,0,-1,1784,1352,0,0
567,-328,0,0,0,0,0,0,0,0,0,-1,1791,1352,0,0
574,-328,31.9554,1.745,0,0,0,0,0,0,0,-1,1798,1352,31.9554,-1.74503
581,-328,32.1003,1.69702,0,0,0,0,0,0,0,-1,1805,1352,32.1004,-1.69701
588,-328,32.543,1.9082,0,0,0,0,0,0,0,-1,1812,1352,32.543,-1.90825
595,-328,33.3828,2.23499,0,0,0,0,0,0,0,-1,1819,1352,33.3829,-2.23499
602,-328,34.788,2.2085,0,0,0,0,0,0,0,-1,1826,1352,34.7879,-2.20846
609,-328,31.068,4.38977,0,0,0,0,0,0,0,-1,1833,1352,31.068,-4.38972
616,-328,27.9624,6.56165,0,0,0,0,0,0,0,-1,1840,1352,27.9624,-6.56162
623,-328,26.8594,6.41528,0,0,0,0,0,0,0,-1,1847,1352,26.8593,-6.41528
630,-328,22.0211,5.026,0,0,0,0,0,0,0,-1,1854,1352,22.0212,-5.02603
637,-328,21.15,5.53699,0,0,0,0,0,0,0,-1,1861,1352,21.15,-5.53704
644,-328,16.9579,6.3396,0,0,0,0,0,0,0,-1,1868,1352,16.9579,-6.33959
651,-328,22.7172,9.474,0,0,0,0,0,0,0,-1,1875,1352,22.7171,-9.47406
658,-328,22.5696,9.14355,0.00188692,0.00463995,0.00311075,0.00666513,-0.000138262,0.993699,0.00449022,0.0319859,1882,1352,22.5696,-9.14358
665,-328,22.5712,8.78381,0.000836945,0.00244681,0.00180951,0.00362234,-0.000338586,0.994674,0.0025353,0.0132267,1889,1352,22.5712,-8.78376
672,-328,22.547,8.4646,0.000440477,0.0011396,0.000969361,0.0018205,-0.000240424,0.958447,0.00130124,0.0110976,1896,1352,22.547,-8.46465
679,-328,22.556,8.12268,0.000173666,0.000189859,0.000390039,0.000571886,-0.000208361,0.795776,0.000466489,0.0130827,1903,1352,22.556,-8.1227
686,-328,22.5405,7.79138,0.000220506,-0.000263016,0.000276875,0.000346316,-0.000388826,0.4265,0.000424671,0.0125472,1910,1352,22.5405,-7.79133
693,-328,22.5448,7.47131,0.000383523,-0.000332911,0.000371588,0.000541443,-0.00049083,0.401858,0.000596222,0.00928177,1917,1352,22.5448,-7.47134
700,-328,22.5311,7.13586,0.000441315,-0.000415435,0.000612992,0.000760779,-0.0007349,0.480429,0.000863574,0.0127552,1924,1352,22.5311,-7.13587
707,-328,22.5389,6.80432,0.000332568,-0.000567368,0.000931303,0.00091691,-0.00115171,0.560356,0.00119688,0.0150447,1931,1352,22.5389,-6.80438
714,-328,22.5588,6.48328,-1.22978e-05,-0.000798524,0.00136002,0.00101029,-0.00182111,0.644708,0.0016569,0.0145793,1938,1352,22.5589,-6.48329
721,-328,22.3964,6.19067,-0.000815842,-0.00111437,0.00211651,0.00115666,-0.00308688,0.750194,0.00253309,0.0402882,1945,1352,22.3963,-6.19066
728,-328,22.4719,5.74866,0,0,0,0,0,0,0,-1,1952,1352,22.4719,-5.74861
735,-328,20.8927,5.23523,0,0,0,0,0,0,0,-1,1959,1352,20.8927,-5.23528
742,-328,20.3547,4.11316,0,0,0,0,0,0,0,-1,1966,1352,20.3547,-4.11321
749,-328,20.0669,5.66321,0,0,0,0,0,0,0,-1,1973,1352,20.0669,-5.66319
756,-328,19.9543,5.50464,0,0,0,0,0,0,0,-1,1980,1352,19.9543,-5.50463
763,-328,0,0,0,0,0,0,0,0,0,-1,1987,1352,0,0
770,-328,0,0,0,0,0,0,0,0,0,-1,1994,1352,0,0
777,-328,0,0,0,0,0,0,0,0,0,-1,2001,1352,0,0
784,-328,0,0,0,0,0,0,0,0,0,-1,2008,1352,0,0
791,-328,0,0,0,0,0,0,0,0,0,-1,2015,1352,0,0
798,-328,0,0,0,0,0,0,0,0,0,-1,2022,1352,0,0
805,-328,0,0,0,0,0,0,0,0,0,-1,2029,1352,0,0
812,-328,0,0,0,0,0,0,0,0,0,-1,2036,1352,0,0
-700,-335,0,0,0,0,0,0,0,0,0,-1,524,1359,0,0
-693,-335,0,0,0,0,0,0,0,0,0,-1,531,1359,0,0
-686,-335,0,0,0,0,0,0,0,0,0,-1,538,1359,0,0
-679,-335,0,0,0,0,0,0,0,0,0,-1,545,1359,0,0
-672,-335,0,0,0,0,0,0,0,0,0,-1,552,1359,0,0
-665,-335,0,0,0,0,0,0,0,0,0,-1,559,1359,0,0
-658,-335,0,0,0,0,0,0,0,0,0,-1,566,1359,0,0
-651,-335,0,0,0,0,0,0,0,0,0,-1,573,1359,0,0
-644,-335,0,0,0,0,0,0,0,0,0,-1,580,1359,0,0
-637,-335,-9.64746,3.53809,0,0,0,0,0,0,0,-1,587,1359,-9.64744,-3.53803
-630,-335,-6.07397,-2.99902,0,0,0,0,0,0,0,-1,594,1359,-6.07397,2.99902
-623,-335,-8.43304,1.09509,0,0,0,0,0,0,0,-1,601,1359,-8.43301,-1.09507
-616,-335,-7.80927,-0.485352,0,0,0,0,0,0,0,-1,608,1359,-7.80926,0.485291
-609,-335,-7.12256,-2.03601,0,0,0,0,0,0,0,-1,615,1359,-7.12253,2.03601
-602,-335,-9.39935,2.25146,0,0,0,0,0,0,0,-1,622,1359,-9.39935,-2.25145
-595,-335,-9.54767,3.01917,0,0,0,0,0,0,0,-1,629,1359,-9.54768,-3.01911
-588,-335,-11.3472,3.63184,0,0,0,0,0,0,0,-1,636,1359,-11.3472,-3.63182
-581,-335,-11.2321,4.21899,0.00284405,-0.000695161,0.000373366,0.00288301,-0.00073412,0.103969,0.00220778,0.0316783,643,1359,-11.2321,-4.21897
-574,-335,-11.2365,4.55908,0.0018887,-0.0010765,-0.000202915,0.00190252,-0.00109032,-0.0680095,0.001749,0.0119505,650,1359,-11.2365,-4.55909
-567,-335,-11.2252,4.91736,0.00157305,-0.00108358,-0.000392809,0.00162991,-0.00114045,-0.143763,0.00160777,0.0154935,657,1359,-11.2252,-4.91735
-560,-335,-11.1676,5.26196,0.00163504,-0.00117851,-0.000448046,0.00170466,-0.00124813,-0.154168,0.00171158,0.0250238,664,1359,-11.1676,-5.26194
-553,-335,-11.196,5.67346,0.00225415,-0.000770535,-8.28244e-05,0.00225642,-0.000772802,-0.0273555,0.00181749,0.0278563,671,1359,-11.196,-5.67349
-546,-335,-11.2595,6.07349,0.00329594,-0.000524064,0.000399848,0.00333734,-0.000565468,0.103182,0.00243537,0.0234692,678,1359,-11.2594,-6.07353
-539,-335,-11.2786,6.42126,0.00460394,-0.000288446,0.000983622,0.0047943,-0.000478798,0.191159,0.00336716,0.0192566,685,1359,-11.2786,-6.42122
-532,-335,-11.2767,6.79028,0.0062998,-7.88563e-05,0.00172633,0.00673705,-0.000516103,0.248064,0.00467291,0.0155029,692,1359,-11.2768,-6.79027
-525,-335,-11.2159,7.17249,0.00845517,7.75697e-05,0.00265243,0.00922433,-0.000691596,0.282244,0.00639257,0.0111049,699,1359,-11.2159,-7.17244
-518,-335,-11.1769,7.49829,0.0113483,-0.000260689,0.0038869,0.0125296,-0.0014419,0.295027,0.00887282,0.0310952,706,1359,-11.1769,-7.49829
-511,-335,-11.1202,7.7959,0,0,0,0,0,0,0,-1,713,1359,-11.1202,-7.79584
-504,-335,-9.35767,5.99695,0,0,0,0,0,0,0,-1,720,1359,-9.35767,-5.99694
-497,-335,-8.75024,-0.650513,0,0,0,0,0,0,0,-1,727,1359,-8.75024,0.650521
-490,-335,-9.51971,0.417603,0,0,0,0,0,0,0,-1,734,1359,-9.51974,-0.41765
-483,-335,-10.2883,1.29224,0,0,0,0,0,0,0,-1,741,1359,-10.2883,-1.2922
-476,-335,-11.9938,-0.173462,0,0,0,0,0,0,0,-1,748,1359,-11.9938,0.173429
-469,-335,-12.8704,-0.204102,0,0,0,0,0,0,0,-1,755,1359,-12.8704,0.204117
-462,-335,-13.486,0.0218506,0,0,0,0,0,0,0,-1,762,1359,-13.4859,-0.0217908
-455,-335,-14.1504,0.549561,0,0,0,0,0,0,0,-1,769,1359,-14.1504,-0.549583
-448,-335,0,0,0,0,0,0,0,0,0,-1,776,1359,0,0
-441,-335,0,0,0,0,0,0,0,0,0,-1,783,1359,0,0
-434,-335,0,0,0,0,0,0,0,0,0,-1,790,1359,0,0
-427,-335,0,0,0,0,0,0,0,0,0,-1,797,1359,0,0
-420,-335,0,0,0,0,0,0,0,0,0,-1,804,1359,0,0
-413,-335,0,0,0,0,0,0,0,0,0,-1,811,1359,0,0
-406,-335,0,0,0,0,0,0,0,0,0,-1,818,1359,0,0
-399,-335,0,0,0,0,0,0,0,0,0,-1,825,1359,0,0
-392,-335,0,0,0,0,0,0,0,0,0,-1,832,1359,0,0
-385,-335,0,0,0,0,0,0,0,0,0,-1,839,1359,0,0
-378,-335,0,0,0,0,0,0,0,0,0,-1,846,1359,0,0
-371,-335,0,0,0,0,0,0,0,0,0,-1,853,1359,0,0
-364,-335,0,0,0,0,0,0,0,0,0,-1,860,1359,0,0
-357,-335,0,0,0,0,0,0,0,0,0,-1,867,1359,0,0
-350,-335,0,0,0,0,0,0,0,0,0,-1,874,1359,0,0
-343,-335,0,0,0,0,0,0,0,0,0,-1,881,1359,0,0
-336,-335,0,0,0,0,0,0,0,0,0,-1,888,1359,0,0
-329,-335,0,0,0,0,0,0,0,0,0,-1,895,1359,0,0
-322,-335,0,0,0,0,0,0,0,0,0,-1,902,1359,0,0
-315,-335,0,0,0,0,0,0,0,0,0,-1,909,1359,0,0
-308,-335,0,0,0,0,0,0,0,0,0,-1,916,1359,0,0
-301,-335,0,0,0,0,0,0,0,0,0,-1,923,1359,0,0
-294,-335,0,0,0,0,0,0,0,0,0,-1,930,1359,0,0
-287,-335,0,0,0,0,0,0,0,0,0,-1,937,1359,0,0
-280,-335,0,0,0,0,0,0,0,0,0,-1,944,1359,0,0
-273,-335,0,0,0,0,0,0,0,0,0,-1,951,1359,0,0
-266,-335,0,0,0,0,0,0,0,0,0,-1,958,1359,0,0
-259,-335,0,0,0,0,0,0,0,0,0,-1,965,1359,0,0
-252,-335,0,0,0,0,0,0,0,0,0,-1,972,1359,0,0
-245,-335,0,0,0,0,0,0,0,0,0,-1,979,1359,0,0
-238,-335,0,0,0,0,0,0,0,0,0,-1,986,1359,0,0
-231,-335,0,0,0,0,0,0,0,0,0,-1,993,1359,0,0
-224,-335,0,0,0,0,0,0,0,0,0,-1,1000,1359,0,0
-217,-335,0,0,0,0,0,0,0,0,0,-1,1007,1359,0,0
-210,-335,0,0,0,0,0,0,0,0,0,-1,1014,1359,0,0
-203,-335,0,0,0,0,0,0,0,0,0,-1,1021,1359,0,0
-196,-335,0,0,0,0,0,0,0,0,0,-1,1028,1359,0,0
-189,-335,0,0,0,0,0,0,0,0,0,-1,1035,1359,0,0
-182,-335,0,0,0,0,0,0,0,0,0,-1,1042,1359,0,0
-175,-335,0,0,0,0,0,0,0,0,0,-1,1049,1359,0,0
-168,-335,0,0,0,0,0,0,0,0,0,-1,1056,1359,0,0
-161,-335,0,0,0,0,0,0,0,0,0,-1,1063,1359,0,0
-154,-335,0,0,0,0,0,0,0,0,0,-1,1070,1359,0,0
-147,-335,0,0,0,0,0,0,0,0,0,-1,1077,1359,0,0
-140,-335,0,0,0,0,0,0,0,0,0,-1,1084,1359,0,0
-133,-335,0,0,0,0,0,0,0,0,0,-1,1091,1359,0,0
-126,-335,0,0,0,0,0,0,0,0,0,-1,1098,1359,0,0
-119,-335,0,0,0,0,0,0,0,0,0,-1,1105,1359,0,0
-112,-335,0,0,0,0,0,0,0,0,0,-1,1112,1359,0,0
-105,-335,0,0,0,0,0,0,0,0,0,-1,1119,1359,0,0
-98,-335,0,0,0,0,0,0,0,0,0,-1,1126,1359,0,0
-91,-335,0,0,0,0,0,0,0,0,0,-1,1133,1359,0,0
-84,-335,0,0,0,0,0,0,0,0,0,-1,1140,1359,0,0
-77,-335,0,0,0,0,0,0,0,0,0,-1,1147,1359,0,0
-70,-335,0,0,0,0,0,0,0,0,0,-1,1154,1359,0,0
-63,-335,0,0,0,0,0,0,0,0,0,-1,1161,1359,0,0
-56,-335,0,0,0,0,0,0,0,0,0,-1,1168,1359,0,0
-49,-335,0,0,0,0,0,0,0,0,0,-1,1175,1359,0,0
-42,-335,0,0,0,0,0,0,0,0,0,-1,1182,1359,0,0
-35,-335,0,0,0,0,0,0,0,0,0,-1,1189,1359,0,0
-28,-335,0,0,0,0,0,0,0,0,0,-1,1196,1359,0,0
-21,-335,0,0,0,0,0,0,0,0,0,-1,1203,1359,0,0
-14,-335,0,0,0,0,0,0,0,0,0,-1,1210,1359,0,0
-7,-335,0,0,0,0,0,0,0,0,0,-1,1217,1359,0,0
0,-335,0,0,0,0,0,0,0,0,0,-1,1224,1359,0,0
7,-335,0,0,0,0,0,0,0,0,0,-1,1231,1359,0,0
14,-335,0,0,0,0,0,0,0,0,0,-1,1238,1359,0,0
21,-335,0,0,0,0,0,0,0,0,0,-1,1245,1359,0,0
28,-335,0,0,0,0,0,0,0,0,0,-1,1252,1359,0,0
35,-335,0,0,0,0,0,0,0,0,0,-1,1259,1359,0,0
42,-335,0,0,0,0,0,0,0,0,0,-1,1266,1359,0,0
49,-335,0,0,0,0,0,0,0,0,0,-1,1273,1359,0,0
56,-335,0,0,0,0,0,0,0,0,0,-1,1280,1359,0,0
63,-335,0,0,0,0,0,0,0,0,0,-1,1287,1359,0,0
70,-335,0,0,0,0,0,0,0,0,0,-1,1294,1359,0,0
77,-335,0,0,0,0,0,0,0,0,0,-1,1301,1359,0,0
84,-335,0,0,0,0,0,0,0,0,0,-1,1308,1359,0,0
91,-335,0,0,0,0,0,0,0,0,0,-1,1315,1359,0,0
98,-335,0,0,0,0,0,0,0,0,0,-1,1322,1359,0,0
105,-335,0,0,0,0,0,0,0,0,0,-1,1329,1359,0,0
112,-335,0,0,0,0,0,0,0,0,0,-1,1336,1359,0,0
119,-335,0,0,0,0,0,0,0,0,0,-1,1343,1359,0,0
126,-335,0,0,0,0,0,0,0,0,0,-1,1350,1359,0,0
133,-335,0,0,0,0,0,0,0,0,0,-1,1357,1359,0,0
140,-335,0,0,0,0,0,0,0,0,0,-1,1364,1359,0,0
147,-335,0,0,0,0,0,0,0,0,0,-1,1371,1359,0,0
154,-335,0,0,0,0,0,0,0,0,0,-1,1378,1359,0,0
161,-335,0,0,0,0,0,0,0,0,0,-1,1385,1359,0,0
168,-335,0,0,0,0,0,0,0,0,0,-1,1392,1359,0,0
175,-335,0,0,0,0,0,0,0,0,0,-1,1399,1359,0,0
182,-335,0,0,0,0,0,0,0,0,0,-1,1406,1359,0,0
189,-335,0,0,0,0,0,0,0,0,0,-1,1413,1359,0,0
196,-335,0,0,0,0,0,0,0,0,0,-1,1420,1359,0,0
203,-335,0,0,0,0,0,0,0,0,0,-1,1427,1359,0,0
210,-335,0,0,0,0,0,0,0,0,0,-1,1434,1359,0,0
217,-335,0,0,0,0,0,0,0,0,0,-1,1441,1359,0,0
224,-335,0,0,0,0,0,0,0,0,0,-1,1448,1359,0,0
231,-335,0,0,0,0,0,0,0,0,0,-1,1455,1359,0,0
238,-335,0,0,0,0,0,0,0,0,0,-1,1462,1359,0,0
245,-335,0,0,0,0,0,0,0,0,0,-1,1469,1359,0,0
252,-335,0,0,0,0,0,0,0,0,0,-1,1476,1359,0,0
259,-335,0,0,0,0,0,0,0,0,0,-1,1483,1359,0,0
266,-335,0,0,0,0,0,0,0,0,0,-1,1490,1359,0,0
273,-335,0,0,0,0,0,0,0,0,0,-1,1497,1359,0,0
280,-335,0,0,0,0,0,0,0,0,0,-1,1504,1359,0,0
287,-335,0,0,0,0,0,0,0,0,0,-1,1511,1359,0,0
294,-335,0,0,0,0,0,0,0,0,0,-1,1518,1359,0,0
301,-335,0,0,0,0,0,0,0,0,0,-1,1525,1359,0,0
308,-335,0,0,0,0,0,0,0,0,0,-1,1532,1359,0,0
315,-335,0,0,0,0,0,0,0,0,0,-1,1539,1359,0,0
322,-335,0,0,0,0,0,0,0,0,0,-1,1546,1359,0,0
329,-335,0,0,0,0,0,0,0,0,0,-1,1553,1359,0,0
336,-335,0,0,0,0,0,0,0,0,0,-1,1560,1359,0,0
343,-335,0,0,0,0,0,0,0,0,0,-1,1567,1359,0,0
350,-335,0,0,0,0,0,0,0,0,0,-1,1574,1359,0,0
357,-335,0,0,0,0,0,0,0,0,0,-1,1581,1359,0,0
364,-335,0,0,0,0,0,0,0,0,0,-1,1588,1359,0,0
371,-335,0,0,0,0,0,0,0,0,0,-1,1595,1359,0,0
378,-335,0,0,0,0,0,0,0,0,0,-1,1602,1359,0,0
385,-335,0,0,0,0,0,0,0,0,0,-1,1609,1359,0,0
392,-335,0,0,0,0,0,0,0,0,0,-1,1616,1359,0,0
399,-335,0,0,0,0,0,0,0,0,0,-1,1623,1359,0,0
406,-335,0,0,0,0,0,0,0,0,0,-1,1630,1359,0,0
413,-335,0,0,0,0,0,0,0,0,0,-1,1637,1359,0,0
420,-335,0,0,0,0,0,0,0,0,0,-1,1644,1359,0,0
427,-335,0,0,0,0,0,0,0,0,0,-1,1651,1359,0,0
434,-335,0,0,0,0,0,0,0,0,0,-1,1658,1359,0,0
441,-335,0,0,0,0,0,0,0,0,0,-1,1665,1359,0,0
448,-335,0,0,0,0,0,0,0,0,0,-1,1672,1359,0,0
455,-335,0,0,0,0,0,0,0,0,0,-1,1679,1359,0,0
462,-335,0,0,0,0,0,0,0,0,0,-1,1686,1359,0,0
469,-335,0,0,0,0,0,0,0,0,0,-1,1693,1359,0,0
476,-335,0,0,0,0,0,0,0,0,0,-1,1700,1359,0,0
483,-335,0,0,0,0,0,0,0,0,0,-1,1707,1359,0,0
490,-335,0,0,0,0,0,0,0,0,0,-1,1714,1359,0,0
497,-335,0,0,0,0,0,0,0,0,0,-1,1721,1359,0,0
504,-335,0,0,0,0,0,0,0,0,0,-1,1728,1359,0,0
511,-335,0,0,0,0,0,0,0,0,0,-1,1735,1359,0,0
518,-335,0,0,0,0,0,0,0,0,0,-1,1742,1359,0,0
525,-335,0,0,0,0,0,0,0,0,0,-1,1749,1359,0,0
532,-335,0,0,0,0,0,0,0,0,0,-1,1756,1359,0,0
539,-335,0,0,0,0,0,0,0,0,0,-1,1763,1359,0,0
546,-335,0,0,0,0,0,0,0,0,0,-1,1770,1359,0,0
553,-335,0,0,0,0,0,0,0,0,0,-1,1777,1359,0,0
560,-335,0,0,0,0,0,0,0,0,0,-1,1784,1359,0,0
567,-335,0,0,0,0,0,0,0,0,0,-1,1791,1359,0,0
574,-335,30.9767,0.832153,0,0,0,0,0,0,0,-1,1798,1359,30.9767,-0.832144
581,-335,31.9026,1.24219,0,0,0,0,0,0,0,-1,1805,1359,31.9026,-1.24223
588,-335,32.7272,1.53796,0,0,0,0,0,0,0,-1,1812,1359,32.7272,-1.53795
595,-335,33.5898,1.82422,0,0,0,0,0,0,0,-1,1819,1359,33.5899,-1.82424
602,-335,32.7783,3.3717,0,0,0,0,0,0,0,-1,1826,1359,32.7783,-3.37167
609,-335,30.826,4.40063,0,0,0,0,0,0,0,-1,1833,1359,30.826,-4.40063
616,-335,28.298,5.98853,0,0,0,0,0,0,0,-1,1840,1359,28.298,-5.98849
623,-335,26.6051,6.54333,0,0,0,0,0,0,0,-1,1847,1359,26.6051,-6.54339
630,-335,19.1707,1.00952,0,0,0,0,0,0,0,-1,1854,1359,19.1707,-1.00953
637,-335,18.2009,6.65454,0,0,0,0,0,0,0,-1,1861,1359,18.2009,-6.6546
644,-335,22.3838,9.7041,0,0,0,0,0,0,0,-1,1868,1359,22.3838,-9.70415
651,-335,22.2798,9.422,0.00239358,0.00303114,0.000510985,0.00331463,0.00211009,1.06428,0.00193736,0.0379742,1875,1359,22.2798,-9.42205
658,-335,22.2181,9.18457,0.00100001,0.00149208,0.000267133,0.00160921,0.000882877,1.15755,0.000930544,0.019865,1882,1359,22.2182,-9.1846
665,-335,22.2289,8.81421,0.000485644,0.000654826,0.000105805,0.000705698,0.000434772,1.12262,0.000411079,0.0138339,1889,1359,22.2289,-8.81416
672,-335,22.2136,8.47876,0.000402879,0.000196817,1.80575e-05,0.000404449,0.000195247,0.0867506,0.000233555,0.0158232,1896,1359,22.2136,-8.47872
679,-335,22.2329,8.15552,0.00042016,-0.000126392,-2.11319e-05,0.000420976,-0.000127208,-0.0385873,0.000331296,0.0130737,1903,1359,22.233,-8.15555
686,-335,22.2385,7.80896,0.000583825,-0.000306725,0.000129488,0.000602271,-0.000325171,0.1415,0.000543367,0.0106748,1910,1359,22.2385,-7.809
693,-335,22.2125,7.46765,0.000793985,-0.000336069,0.000304457,0.000870791,-0.000412875,0.247116,0.00075668,0.0100657,1917,1359,22.2125,-7.46767
700,-335,22.1921,7.14612,0.000928893,-0.000421356,0.000531623,0.00111308,-0.000605543,0.333519,0.00100657,0.0109691,1924,1359,22.1921,-7.14611
707,-335,22.1902,6.8241,0.00088989,-0.000608432,0.000842971,0.00126849,-0.000987031,0.422126,0.0013056,0.0144492,1931,1359,22.1901,-6.82411
714,-335,22.223,6.40283,0.000631652,-0.000857688,0.0012786,0.00136663,-0.00159267,0.521706,0.00171021,0.0276841,1938,1359,22.2231,-6.40288
721,-335,22.2032,5.91833,0,0,0,0,0,0,0,-1,1945,1359,22.2032,-5.91829
728,-335,20.8126,5.21167,0,0,0,0,0,0,0,-1,1952,1359,20.8127,-5.21172
735,-335,20.2725,5.34729,0,0,0,0,0,0,0,-1,1959,1359,20.2724,-5.34734
742,-335,19.8624,4.72229,0,0,0,0,0,0,0,-1,1966,1359,19.8624,-4.72225
749,-335,20.5887,6.05322,0,0,0,0,0,0,0,-1,1973,1359,20.5887,-6.05322
756,-335,20.7832,6.00452,0,0,0,0,0,0,0,-1,1980,1359,20.7832,-6.00447
763,-335,0,0,0,0,0,0,0,0,0,-1,1987,1359,0,0
770,-335,0,0,0,0,0,0,0,0,0,-1,1994,1359,0,0
777,-335,0,0,0,0,0,0,0,0,0,-1,2001,1359,0,0
784,-335,0,0,0,0,0,0,0,0,0,-1,2008,1359,0,0
791,-335,0,0,0,0,0,0,0,0,0,-1,2015,1359,0,0
798,-335,0,0,0,0,0,0,0,0,0,-1,2022,1359,0,0
805,-335,0,0,0,0,0,0,0,0,0,-1,2029,1359,0,0
812,-335,0,0,0,0,0,0,0,0,0,-1,2036,1359,0,0
-700,-342,0,0,0,0,0,0,0,0,0,-1,524,1366,0,0
-693,-342,0,0,0,0,0,0,0,0,0,-1,531,1366,0,0
-686,-342,0,0,0,0,0,0,0,0,0,-1,538,1366,0,0
-679,-342,0,0,0,0,0,0,0,0,0,-1,545,1366,0,0
-672,-342,0,0,0,0,0,0,0,0,0,-1,552,1366,0,0
-665,-342,0,0,0,0,0,0,0,0,0,-1,559,1366,0,0
-658,-342,0,0,0,0,0,0,0,0,0,-1,566,1366,0,0
-651,-342,0,0,0,0,0,0,0,0,0,-1,573,1366,0,0
-644,-342,0,0,0,0,0,0,0,0,0,-1,580,1366,0,0
-637,-342,-8.67786,-4.58557,0,0,0,0,0,0,0,-1,587,1366,-8.67788,4.5856
-630,-342,-8.60132,2.71777,0,0,0,0,0,0,0,-1,594,1366,-8.60135,-2.71779
-623,-342,-8.41168,0.662476,0,0,0,0,0,0,0,-1,601,1366,-8.41168,-0.662442
-616,-342,-6.625,-1.28015,0,0,0,0,0,0,0,-1,608,1366,-6.62499,1.28011
-609,-342,-7.83154,0.674561,0,0,0,0,0,0,0,-1,615,1366,-7.83155,-0.674598
-602,-342,-9.65765,2.25195,0,0,0,0,0,0,0,-1,622,1366,-9.65767,-2.25192
-595,-342,-9.47687,3.00671,0,0,0,0,0,0,0,-1,629,1366,-9.47686,-3.00668
-588,-342,-9.78467,3.57727,0,0,0,0,0,0,0,-1,636,1366,-9.78468,-3.57723
-581,-342,-10.9191,4.08264,0,0,0,0,0,0,0,-1,643,1366,-10.9191,-4.08264
-574,-342,-10.8952,4.55981,0.000787251,-0.00326136,-0.00160705,0.0013476,-0.00382171,-0.335499,0.00309635,0.014034,650,1366,-10.8952,-4.5598
-567,-342,-10.8362,4.92249,0.000880687,-0.00241721,-0.00131315,0.00133967,-0.0028762,-0.336258,0.00248734,0.0163838,657,1366,-10.8362,-4.92245
-560,-342,-10.9009,5.28064,0.001258,-0.00176337,-0.000943622,0.0015285,-0.00203386,-0.279167,0.00206361,0.0261185,664,1366,-10.9009,-5.28062
-553,-342,-10.9609,5.66345,0.00195163,-0.00113534,-0.000429567,0.00201029,-0.001194,-0.13572,0.0018699,0.0297441,671,1366,-10.9609,-5.66347
-546,-342,-10.951,5.99402,0.00296438,-0.000694435,0.000180211,0.00297323,-0.00070329,0.0490956,0.00225347,0.0275622,678,1366,-10.9511,-5.99403
-539,-342,-10.9124,6.40625,0.00420515,-0.000285175,0.000872976,0.0043689,-0.000448922,0.185418,0.00307319,0.0228586,685,1366,-10.9124,-6.40631
-532,-342,-10.9185,6.8158,0.00578833,6.4289e-05,0.0017058,0.00625811,-0.000405492,0.268741,0.0043136,0.0177457,692,1366,-10.9185,-6.81578
-525,-342,-10.8564,7.18799,0.00779008,0.000378013,0.00272158,0.00868206,-0.000513964,0.31671,0.00596675,0.0122854,699,1366,-10.8564,-7.18798
-518,-342,-10.8039,7.5686,0.0105288,0.000291126,0.00411149,0.0119756,-0.00115562,0.338346,0.00839548,0.0216698,706,1366,-10.8039,-7.56862
-511,-342,-10.8148,7.9491,0,0,0,0,0,0,0,-1,713,1366,-10.8148,-7.94912
-504,-342,-8.95709,6.5719,0,0,0,0,0,0,0,-1,720,1366,-8.95707,-6.57192
-497,-342,-8.26587,-0.943604,0,0,0,0,0,0,0,-1,727,1366,-8.26586,0.943543
-490,-342,-9.07153,-0.0227051,0,0,0,0,0,0,0,-1,734,1366,-9.07155,0.0227087
-483,-342,-9.87726,0.898071,0,0,0,0,0,0,0,-1,741,1366,-9.87724,-0.898125
-476,-342,-11.6371,-0.736328,0,0,0,0,0,0,0,-1,748,1366,-11.6371,0.736281
-469,-342,-12.6245,-0.987549,0,0,0,0,0,0,0,-1,755,1366,-12.6245,0.987553
-462,-342,-13.0912,-0.533203,0,0,0,0,0,0,0,-1,762,1366,-13.0912,0.533224
-455,-342,-13.7612,0.122925,0,0,0,0,0,0,0,-1,769,1366,-13.7612,-0.122896
-448,-342,-14.5278,0.826904,0,0,0,0,0,0,0,-1,776,1366,-14.5277,-0.826861
-441,-342,0,0,0,0,0,0,0,0,0,-1,783,1366,0,0
-434,-342,0,0,0,0,0,0,0,0,0,-1,790,1366,0,0
-427,-342,0,0,0,0,0,0,0,0,0,-1,797,1366,0,0
-420,-342,0,0,0,0,0,0,0,0,0,-1,804,1366,0,0
-413,-342,0,0,0,0,0,0,0,0,0,-1,811,1366,0,0
-406,-342,0,0,0,0,0,0,0,0,0,-1,818,1366,0,0
-399,-342,0,0,0,0,0,0,0,0,0,-1,825,1366,0,0
-392,-342,0,0,0,0,0,0,0,0,0,-1,832,1366,0,0
-385,-342,0,0,0,0,0,0,0,0,0,-1,839,1366,0,0
-378,-342,0,0,0,0,0,0,0,0,0,-1,846,1366,0,0
-371,-342,0,0,0,0,0,0,0,0,0,-1,853,1366,0,0
-364,-342,0,0,0,0,0,0,0,0,0,-1,860,1366,0,0
-357,-342,0,0,0,0,0,0,0,0,0,-1,867,1366,0,0
-350,-342,0,0,0,0,0,0,0,0,0,-1,874,1366,0,0
-343,-342,0,0,0,0,0,0,0,0,0,-1,881,1366,0,0
-336,-342,0,0,0,0,0,0,0,0,0,-1,888,1366,0,0
-329,-342,0,0,0,0,0,0,0,0,0,-1,895,1366,0,0
-322,-342,0,0,0,0,0,0,0,0,0,-1,902,1366,0,0
-315,-342,0,0,0,0,0,0,0,0,0,-1,909,1366,0,0
-308,-342,0,0,0,0,0,0,0,0,0,-1,916,1366,0,0
-301,-342,0,0,0,0,0,0,0,0,0,-1,923,1366,0,0
-294,-342,0,0,0,0,0,0,0,0,0,-1,930,1366,0,0
-287,-342,0,0,0,0,0,0,0,0,0,-1,937,1366,0,0
-280,-342,0,0,0,0,0,0,0,0,0,-1,944,1366,0,0
-273,-342,0,0,0,0,0,0,0,0,0,-1,951,1366,0,0
-266,-342,0,0,0,0,0,0,0,0,0,-1,958,1366,0,0
-259,-342,0,0,0,0,0,0,0,0,0,-1,965,1366,0,0
-252,-342,0,0,0,0,0,0,0,0,0,-1,972,1366,0,0
-245,-342,0,0,0,0,0,0,0,0,0,-1,979,1366,0,0
-238,-342,0,0,0,0,0,0,0,0,0,-1,986,1366,0,0
-231,-342,0,0,0,0,0,0,0,0,0,-1,993,1366,0,0
-224,-342,0,0,0,0,0,0,0,0,0,-1,1000,1366,0,0
-217,-342,0,0,0,0,0,0,0,0,0,-1,1007,1366,0,0
-210,-342,0,0,0,0,0,0,0,0,0,-1,1014,1366,0,0
-203,-342,0,0,0,0,0,0,0,0,0,-1,1021,1366,0,0
-196,-342,0,0,0,0,0,0,0,0,0,-1,1028,1366,0,0
-189,-342,0,0,0,0,0,0,0,0,0,-1,1035,1366,0,0
-182,-342,0,0,0,0,0,0,0,0,0,-1,1042,1366,0,0
-175,-342,0,0,0,0,0,0,0,0,0,-1,1049,1366,0,0
-168,-342,0,0,0,0,0,0,0,0,0,-1,1056,1366,0,0
-161,-342,0,0,0,0,0,0,0,0,0,-1,1063,1366,0,0
-154,-342,0,0,0,0,0,0,0,0,0,-1,1070,1366,0,0
-147,-342,0,0,0,0,0,0,0,0,0,-1,1077,1366,0,0
-140,-342,0,0,0,0,0,0,0,0,0,-1,1084,1366,0,0
-133,-342,0,0,0,0,0,0,0,0,0,-1,1091,1366,0,0
-126,-342,0,0,0,0,0,0,0,0,0,-1,1098,1366,0,0
-119,-342,0,0,0,0,0,0,0,0,0,-1,1105,1366,0,0
-112,-342,0,0,0,0,0,0,0,0,0,-1,1112,1366,0,0
-105,-342,0,0,0,0,0,0,0,0,0,-1,1119,1366,0,0
-98,-342,0,0,0,0,0,0,0,0,0,-1,1126,1366,0,0
-91,-342,0,0,0,0,0,0,0,0,0,-1,1133,1366,0,0
-84,-342,0,0,0,0,0,0,0,0,0,-1,1140,1366,0,0
-77,-342,0,0,0,0,0,0,0,0,0,-1,1147,1366,0,0
-70,-342,0,0,0,0,0,0,0,0,0,-1,1154,1366,0,0
-63,-342,0,0,0,0,0,0,0,0,0,-1,1161,1366,0,0
-56,-342,0,0,0,0,0,0,0,0,0,-1,1168,1366,0,0
-49,-342,0,0,0,0,0,0,0,0,0,-1,1175,1366,0,0
-42,-342,0,0,0,0,0,0,0,0,0,-1,1182,1366,0,0
-35,-342,0,0,0,0,0,0,0,0,0,-1,1189,1366,0,0
-28,-342,0,0,0,0,0,0,0,0,0,-1,1196,1366,0,0
-21,-342,0,0,0,0,0,0,0,0,0,-1,1203,1366,0,0
-14,-342,0,0,0,0,0,0,0,0,0,-1,1210,1366,0,0
-7,-342,0,0,0,0,0,0,0,0,0,-1,1217,1366,0,0
0,-342,0,0,0,0,0,0,0,0,0,-1,1224,1366,0,0
7,-342,0,0,0,0,0,0,0,0,0,-1,1231,1366,0,0
14,-342,0,0,0,0,0,0,0,0,0,-1,1238,1366,0,0
21,-342,0,0,0,0,0,0,0,0,0,-1,1245,1366,0,0
28,-342,0,0,0,0,0,0,0,0,0,-1,1252,1366,0,0
35,-342,0,0,0,0,0,0,0,0,0,-1,1259,1366,0,0
42,-342,0,0,0,0,0,0,0,0,0,-1,1266,1366,0,0
49,-342,0,0,0,0,0,0,0,0,0,-1,1273,1366,0,0
56,-342,0,0,0,0,0,0,0,0,0,-1,1280,1366,0,0
63,-342,0,0,0,0,0,0,0,0,0,-1,1287,1366,0,0
70,-342,0,0,0,0,0,0,0,0,0,-1,1294,1366,0,0
77,-342,0,0,0,0,0,0,0,0,0,-1,1301,1366,0,0
84,-342,0,0,0,0,0,0,0,0,0,-1,1308,1366,0,0
91,-342,0,0,0,0,0,0,0,0,0,-1,1315,1366,0,0
98,-342,0,0,0,0,0,0,0,0,0,-1,1322,1366,0,0
105,-342,0,0,0,0,0,0,0,0,0,-1,1329,1366,0,0
112,-342,0,0,0,0,0,0,0,0,0,-1,1336,1366,0,0
119,-342,0,0,0,0,0,0,0,0,0,-1,1343,1366,0,0
126,-342,0,0,0,0,0,0,0,0,0,-1,1350,1366,0,0
133,-342,0,0,0,0,0,0,0,0,0,-1,1357,1366,0,0
140,-342,0,0,0,0,0,0,0,0,0,-1,1364,1366,0,0
147,-342,0,0,0,0,0,0,0,0,0,-1,1371,1366,0,0
154,-342,0,0,0,0,0,0,0,0,0,-1,1378,1366,0,0
161,-342,0,0,0,0,0,0,0,0,0,-1,1385,1366,0,0
168,-342,0,0,0,0,0,0,0,0,0,-1,1392,1366,0,0
175,-342,0,0,0,0,0,0,0,0,0,-1,1399,1366,0,0
182,-342,0,0,0,0,0,0,0,0,0,-1,1406,1366,0,0
189,-342,0,0,0,0,0,0,0,0,0,-1,1413,1366,0,0
196,-342,0,0,0,0,0,0,0,0,0,-1,1420,1366,0,0
203,-342,0,0,0,0,0,0,0,0,0,-1,1427,1366,0,0
210,-342,0,0,0,0,0,0,0,0,0,-1,1434,1366,0,0
217,-342,0,0,0,0,0,0,0,0,0,-1,1441,1366,0,0
224,-342,0,0,0,0,0,0,0,0,0,-1,1448,1366,0,0
231,-342,0,0,0,0,0,0,0,0,0,-1,1455,1366,0,0
238,-342,0,0,0,0,0,0,0,0,0,-1,1462,1366,0,0
245,-342,0,0,0,0,0,0,0,0,0,-1,1469,1366,0,0
252,-342,0,0,0,0,0,0,0,0,0,-1,1476,1366,0,0
259,-342,0,0,0,0,0,0,0,0,0,-1,1483,1366,0,0
266,-342,0,0,0,0,0,0,0,0,0,-1,1490,1366,0,0
273,-342,0,0,0,0,0,0,0,0,0,-1,1497,1366,0,0
280,-342,0,0,0,0,0,0,0,0,0,-1,1504,1366,0,0
287,-342,0,0,0,0,0,0,0,0,0,-1,1511,1366,0,0
294,-342,0,0,0,0,0,0,0,0,0,-1,1518,1366,0,0
301,-342,0,0,0,0,0,0,0,0,0,-1,1525,1366,0,0
308,-342,0,0,0,0,0,0,0,0,0,-1,1532,1366,0,0
315,-342,0,0,0,0,0,0,0,0,0,-1,1539,1366,0,0
322,-342,0,0,0,0,0,0,0,0,0,-1,1546,1366,0,0
329,-342,0,0,0,0,0,0,0,0,0,-1,1553,1366,0,0
336,-342,0,0,0,0,0,0,0,0,0,-1,1560,1366,0,0
343,-342,0,0,0,0,0,0,0,0,0,-1,1567,1366,0,0
350,-342,0,0,0,0,0,0,0,0,0,-1,1574,1366,0,0
357,-342,0,0,0,0,0,0,0,0,0,-1,1581,1366,0,0
364,-342,0,0,0,0,0,0,0,0,0,-1,1588,1366,0,0
371,-342,0,0,0,0,0,0,0,0,0,-1,1595,1366,0,0
378,-342,0,0,0,0,0,0,0,0,0,-1,1602,1366,0,0
385,-342,0,0,0,0,0,0,0,0,0,-1,1609,1366,0,0
392,-342,0,0,0,0,0,0,0,0,0,-1,1616,1366,0,0
399,-342,0,0,0,0,0,0,0,0,0,-1,1623,1366,0,0
406,-342,0,0,0,0,0,0,0,0,0,-1,1630,1366,0,0
413,-342,0,0,0,0,0,0,0,0,0,-1,1637,1366,0,0
420,-342,0,0,0,0,0,0,0,0,0,-1,1644,1366,0,0
427,-342,0,0,0,0,0,0,0,0,0,-1,1651,1366,0,0
434,-342,0,0,0,0,0,0,0,0,0,-1,1658,1366,0,0
441,-342,0,0,0,0,0,0,0,0,0,-1,1665,1366,0,0
448,-342,0,0,0,0,0,0,0,0,0,-1,1672,1366,0,0
455,-342,0,0,0,0,0,0,0,0,0,-1,1679,1366,0,0
462,-342,0,0,0,0,0,0,0,0,0,-1,1686,1366,0,0
469,-342,0,0,0,0,0,0,0,0,0,-1,1693,1366,0,0
476,-342,0,0,0,0,0,0,0,0,0,-1,1700,1366,0,0
483,-342,0,0,0,0,0,0,0,0,0,-1,1707,1366,0,0
490,-342,0,0,0,0,0,0,0,0,0,-1,1714,1366,0,0
497,-342,0,0,0,0,0,0,0,0,0,-1,1721,1366,0,0
504,-342,0,0,0,0,0,0,0,0,0,-1,1728,1366,0,0
511,-342,0,0,0,0,0,0,0,0,0,-1,1735,1366,0,0
518,-342,0,0,0,0,0,0,0,0,0,-1,1742,1366,0,0
525,-342,0,0,0,0,0,0,0,0,0,-1,1749,1366,0,0
532,-342,0,0,0,0,0,0,0,0,0,-1,1756,1366,0,0
539,-342,0,0,0,0,0,0,0,0,0,-1,1763,1366,0,0
546,-342,0,0,0,0,0,0,0,0,0,-1,1770,1366,0,0
553,-342,0,0,0,0,0,0,0,0,0,-1,1777,1366,0,0
560,-342,0,0,0,0,0,0,0,0,0,-1,1784,1366,0,0
567,-342,28.2039,-0.0966797,0,0,0,0,0,0,0,-1,1791,1366,28.2039,0.0966707
574,-342,30.8965,-0.213501,0,0,0,0,0,0,0,-1,1798,1366,30.8965,0.213487
581,-342,31.8226,1.00745,0,0,0,0,0,0,0,-1,1805,1366,31.8226,-1.00744
588,-342,32.8438,1.17224,0,0,0,0,0,0,0,-1,1812,1366,32.8438,-1.17219
595,-342,32.9098,4.32629,0,0,0,0,0,0,0,-1,1819,1366,32.9098,-4.32627
602,-342,31.0818,5.28552,0,0,0,0,0,0,0,-1,1826,1366,31.0818,-5.28547
609,-342,29.3829,5.81714,0,0,0,0,0,0,0,-1,1833,1366,29.3829,-5.81711
616,-342,27.7058,6.33801,0,0,0,0,0,0,0,-1,1840,1366,27.7058,-6.33796
623,-342,26.0299,6.86865,0,0,0,0,0,0,0,-1,1847,1366,26.0299,-6.86863
630,-342,17.3431,0.773071,0,0,0,0,0,0,0,-1,1854,1366,17.3432,-0.773095
637,-342,16.196,6.76172,0,0,0,0,0,0,0,-1,1861,1366,16.1961,-6.76174
644,-342,21.7122,9.91699,0,0,0,0,0,0,0,-1,1868,1366,21.7122,-9.91703
651,-342,21.9032,9.60779,0.000332528,0.000432985,-0.00152596,0.00190954,-0.00114403,-0.80185,0.00178135,0.0316095,1875,1366,21.9032,-9.60775
658,-342,21.8881,9.15869,7.59391e-05,0.000108302,-0.00087054,0.000962811,-0.00077857,-0.794691,0.00100726,0.0197549,1882,1366,21.888,-9.15868
665,-342,21.9052,8.79236,0.000175668,-5.42625e-05,-0.000481334,0.000555576,-0.00043417,-0.668171,0.000572861,0.0167131,1889,1366,21.9051,-8.79236
672,-342,21.8926,8.48303,0.000402472,-0.000161074,-0.000227878,0.000483087,-0.000241688,-0.340021,0.000426115,0.0128954,1896,1366,21.8926,-8.48304
679,-342,21.8882,8.16113,0.000662276,-0.000254866,-2.83221e-05,0.00066315,-0.00025574,-0.0308416,0.000547627,0.0122386,1903,1366,21.8881,-8.1611
686,-342,21.917,7.8363,0.000916174,-0.000398778,0.000192326,0.000943727,-0.00042633,0.142291,0.000809586,0.0104703,1910,1366,21.917,-7.83632
693,-342,21.8728,7.4856,0.00115989,-0.000488702,0.000369582,0.00123895,-0.000567763,0.210745,0.00106683,0.0118295,1917,1366,21.8729,-7.48554
700,-342,21.8345,7.15845,0.00137567,-0.00060848,0.000567048,0.00152629,-0.000759102,0.259629,0.00134403,0.0137415,1924,1366,21.8345,-7.15842
707,-342,21.8667,6.80994,0.00138834,-0.000878788,0.000854909,0.00167458,-0.00116503,0.323085,0.00164822,0.01319,1931,1366,21.8667,-6.80997
714,-342,21.8809,6.50452,0.00118445,-0.00120599,0.00128329,0.0017429,-0.00176444,0.410459,0.00202498,0.0470758,1938,1366,21.8808,-6.50449
721,-342,21.6903,5.98108,0,0,0,0,0,0,0,-1,1945,1366,21.6903,-5.9811
728,-342,19.8912,5.26636,0,0,0,0,0,0,0,-1,1952,1366,19.8913,-5.26636
735,-342,19.481,4.41968,0,0,0,0,0,0,0,-1,1959,1366,19.4809,-4.41962
742,-342,19.309,2.66943,0,0,0,0,0,0,0,-1,1966,1366,19.3089,-2.66948
749,-342,21.0934,6.47729,0,0,0,0,0,0,0,-1,1973,1366,21.0934,-6.4773
756,-342,0,0,0,0,0,0,0,0,0,-1,1980,1366,0,0
763,-342,0,0,0,0,0,0,0,0,0,-1,1987,1366,0,0
770,-342,0,0,0,0,0,0,0,0,0,-1,1994,1366,0,0
777,-342,0,0,0,0,0,0,0,0,0,-1,2001,1366,0,0
784,-342,0,0,0,0,0,0,0,0,0,-1,2008,1366,0,0
791,-342,0,0,0,0,0,0,0,0,0,-1,2015,1366,0,0
798,-342,0,0,0,0,0,0,0,0,0,-1,2022,1366,0,0
805,-342,0,0,0,0,0,0,0,0,0,-1,2029,1366,0,0
812,-342,0,0,0,0,0,0,0,0,0,-1,2036,1366,0,0
-700,-349,0,0,0,0,0,0,0,0,0,-1,524,1373,0,0
-693,-349,0,0,0,0,0,0,0,0,0,-1,531,1373,0,0
-686,-349,0,0,0,0,0,0,0,0,0,-1,538,1373,0,0
-679,-349,0,0,0,0,0,0,0,0,0,-1,545,1373,0,0
-672,-349,0,0,0,0,0,0,0,0,0,-1,552,1373,0,0
-665,-349,0,0,0,0,0,0,0,0,0,-1,559,1373,0,0
-658,-349,0,0,0,0,0,0,0,0,0,-1,566,1373,0,0
-651,-349,0,0,0,0,0,0,0,0,0,-1,573,1373,0,0
-644,-349,0,0,0,0,0,0,0,0,0,-1,580,1373,0,0
-637,-349,0,0,0,0,0,0,0,0,0,-1,587,1373,0,0
-630,-349,-7.64117,-5.06177,0,0,0,0,0,0,0,-1,594,1373,-7.64118,5.0618
-623,-349,-8.63507,0.51123,0,0,0,0,0,0,0,-1,601,1373,-8.63505,-0.511275
-616,-349,-5.2066,-0.188232,0,0,0,0,0,0,0,-1,608,1373,-5.20659,0.188211
-609,-349,-7.12073,1.37048,0,0,0,0,0,0,0,-1,615,1373,-7.12072,-1.37044
-602,-349,-9.00623,3.39587,0,0,0,0,0,0,0,-1,622,1373,-9.0062,-3.39591
-595,-349,-9.50568,2.96912,0,0,0,0,0,0,0,-1,629,1373,-9.50569,-2.96906
-588,-349,-8.60046,3.56042,0,0,0,0,0,0,0,-1,636,1373,-8.60046,-3.56047
-581,-349,-10.4503,4.17151,0,0,0,0,0,0,0,-1,643,1373,-10.4503,-4.17149
-574,-349,-10.4704,4.51917,0.0012792,-0.00418503,-0.00200947,0.0019386,-0.00484443,-0.317078,0.0040342,0.0286918,650,1373,-10.4704,-4.51922
-567,-349,-10.501,4.95959,0.00103487,-0.00316641,-0.00176323,0.0016768,-0.00380834,-0.349148,0.00324557,0.0173914,657,1373,-10.5011,-4.95961
-560,-349,-10.5395,5.33008,0.00117504,-0.00235289,-0.00139121,0.00165764,-0.00283549,-0.333901,0.00262365,0.0215691,664,1373,-10.5395,-5.33011
-553,-349,-10.5988,5.65637,0.00168713,-0.00160434,-0.000851888,0.00189454,-0.00181176,-0.238827,0.00214001,0.0282525,671,1373,-10.5988,-5.65632
-546,-349,-10.5828,5.97937,0.00257569,-0.000957929,-0.000142125,0.00258139,-0.000963636,-0.0401345,0.00211657,0.0302777,678,1373,-10.5828,-5.97932
-539,-349,-10.5508,6.39746,0.00372631,-0.000380583,0.000659924,0.00382974,-0.000484019,0.155474,0.00272885,0.0234061,685,1373,-10.5508,-6.39746
-532,-349,-10.553,6.80786,0.00522662,0.00012003,0.00160627,0.00568985,-0.000343201,0.28077,0.00391266,0.0169853,692,1373,-10.553,-6.80789
-525,-349,-10.5136,7.19153,0.0071134,0.000577885,0.00272059,0.00809768,-0.0004064,0.34714,0.00553889,0.012969,699,1373,-10.5136,-7.1915
-518,-349,-10.4964,7.59973,0.00973777,0.00072689,0.00424483,0.0114224,-0.00095779,0.377812,0.00795348,0.0157925,706,1373,-10.4964,-7.59973
-511,-349,-10.4586,8.01746,0,0,0,0,0,0,0,-1,713,1373,-10.4586,-8.01741
-504,-349,-9.60516,7.88831,0,0,0,0,0,0,0,-1,720,1373,-9.60519,-7.88825
-497,-349,-7.9339,5.58789,0,0,0,0,0,0,0,-1,727,1373,-7.93388,-5.58785
-490,-349,-8.73969,-0.503784,0,0,0,0,0,0,0,-1,734,1373,-8.73966,0.503752
-483,-349,-5.66974,3.7395,0,0,0,0,0,0,0,-1,741,1373,-5.66975,-3.73949
-476,-349,-10.8496,1.15759,0,0,0,0,0,0,0,-1,748,1373,-10.8496,-1.15756
-469,-349,-12.3314,-1.74878,0,0,0,0,0,0,0,-1,755,1373,-12.3314,1.74882
-462,-349,-12.6559,-0.995361,0,0,0,0,0,0,0,-1,762,1373,-12.656,0.995351
-455,-349,-13.2897,-0.234253,0,0,0,0,0,0,0,-1,769,1373,-13.2897,0.234261
-448,-349,-14.045,0.712891,0,0,0,0,0,0,0,-1,776,1373,-14.045,-0.712838
-441,-349,0,0,0,0,0,0,0,0,0,-1,783,1373,0,0
-434,-349,0,0,0,0,0,0,0,0,0,-1,790,1373,0,0
-427,-349,0,0,0,0,0,0,0,0,0,-1,797,1373,0,0
-420,-349,0,0,0,0,0,0,0,0,0,-1,804,1373,0,0
-413,-349,0,0,0,0,0,0,0,0,0,-1,811,1373,0,0
-406,-349,0,0,0,0,0,0,0,0,0,-1,818,1373,0,0
-399,-349,0,0,0,0,0,0,0,0,0,-1,825,1373,0,0
-392,-349,0,0,0,0,0,0,0,0,0,-1,832,1373,0,0
-385,-349,0,0,0,0,0,0,0,0,0,-1,839,1373,0,0
-378,-349,0,0,0,0,0,0,0,0,0,-1,846,1373,0,0
-371,-349,0,0,0,0,0,0,0,0,0,-1,853,1373,0,0
-364,-349,0,0,0,0,0,0,0,0,0,-1,860,1373,0,0
-357,-349,0,0,0,0,0,0,0,0,0,-1,867,1373,0,0
-350,-349,0,0,0,0,0,0,0,0,0,-1,874,1373,0,0
-343,-349,0,0,0,0,0,0,0,0,0,-1,881,1373,0,0
-336,-349,0,0,0,0,0,0,0,0,0,-1,888,1373,0,0
-329,-349,0,0,0,0,0,0,0,0,0,-1,895,1373,0,0
-322,-349,0,0,0,0,0,0,0,0,0,-1,902,1373,0,0
-315,-349,0,0,0,0,0,0,0,0,0,-1,909,1373,0,0
-308,-349,0,0,0,0,0,0,0,0,0,-1,916,1373,0,0
-301,-349,0,0,0,0,0,0,0,0,0,-1,923,1373,0,0
-294,-349,0,0,0,0,0,0,0,0,0,-1,930,1373,0,0
-287,-349,0,0,0,0,0,0,0,0,0,-1,937,1373,0,0
-280,-349,0,0,0,0,0,0,0,0,0,-1,944,1373,0,0
-273,-349,0,0,0,0,0,0,0,0,0,-1,951,1373,0,0
-266,-349,0,0,0,0,0,0,0,0,0,-1,958,1373,0,0
-259,-349,0,0,0,0,0,0,0,0,0,-1,965,1373,0,0
-252,-349,0,0,0,0,0,0,0,0,0,-1,972,1373,0,0
-245,-349,0,0,0,0,0,0,0,0,0,-1,979,1373,0,0
-238,-349,0,0,0,0,0,0,0,0,0,-1,986,1373,0,0
-231,-349,0,0,0,0,0,0,0,0,0,-1,993,1373,0,0
-224,-349,0,0,0,0,0,0,0,0,0,-1,1000,1373,0,0
-217,-349,0,0,0,0,0,0,0,0,0,-1,1007,1373,0,0
-210,-349,0,0,0,0,0,0,0,0,0,-1,1014,1373,0,0
-203,-349,0,0,0,0,0,0,0,0,0,-1,1021,1373,0,0
-196,-349,0,0,0,0,0,0,0,0,0,-1,1028,1373,0,0
-189,-349,0,0,0,0,0,0,0,0,0,-1,1035,1373,0,0
-182,-349,0,0,0,0,0,0,0,0,0,-1,1042,1373,0,0
-175,-349,0,0,0,0,0,0,0,0,0,-1,1049,1373,0,0
-168,-349,0,0,0,0,0,0,0,0,0,-1,1056,1373,0,0
-161,-349,0,0,0,0,0,0,0,0,0,-1,1063,1373,0,0
-154,-349,0,0,0,0,0,0,0,0,0,-1,1070,1373,0,0
-147,-349,0,0,0,0,0,0,0,0,0,-1,1077,1373,0,0
-140,-349,0,0,0,0,0,0,0,0,0,-1,1084,1373,0,0
-133,-349,0,0,0,0,0,0,0,0,0,-1,1091,1373,0,0
-126,-349,0,0,0,0,0,0,0,0,0,-1,1098,1373,0,0
-119,-349,0,0,0,0,0,0,0,0,0,-1,1105,1373,0,0
-112,-349,0,0,0,0,0,0,0,0,0,-1,1112,1373,0,0
-105,-349,0,0,0,0,0,0,0,0,0,-1,1119,1373,0,0
-98,-349,0,0,0,0,0,0,0,0,0,-1,1126,1373,0,0
-91,-349,0,0,0,0,0,0,0,0,0,-1,1133,1373,0,0
-84,-349,0,0,0,0,0,0,0,0,0,-1,1140,1373,0,0
-77,-349,0,0,0,0,0,0,0,0,0,-1,1147,1373,0,0
-70,-349,0,0,0,0,0,0,0,0,0,-1,1154,1373,0,0
-63,-349,0,0,0,0,0,0,0,0,0,-1,1161,1373,0,0
-56,-349,0,0,0,0,0,0,0,0,0,-1,1168,1373,0,0
-49,-349,0,0,0,0,0,0,0,0,0,-1,1175,1373,0,0
-42,-349,0,0,0,0,0,0,0,0,0,-1,1182,1373,0,0
-35,-349,0,0,0,0,0,0,0,0,0,-1,1189,1373,0,0
-28,-349,0,0,0,0,0,0,0,0,0,-1,1196,1373,0,0
-21,-349,0,0,0,0,0,0,0,0,0,-1,1203,1373,0,0
-14,-349,0,0,0,0,0,0,0,0,0,-1,1210,1373,0,0
-7,-349,0,0,0,0,0,0,0,0,0,-1,1217,1373,0,0
0,-349,0,0,0,0,0,0,0,0,0,-1,1224,1373,0,0
7,-349,0,0,0,0,0,0,0,0,0,-1,1231,1373,0,0
14,-349,0,0,0,0,0,0,0,0,0,-1,1238,1373,0,0
21,-349,0,0,0,0,0,0,0,0,0,-1,1245,1373,0,0
28,-349,0,0,0,0,0,0,0,0,0,-1,1252,1373,0,0
35,-349,0,0,0,0,0,0,0,0,0,-1,1259,1373,0,0
42,-349,0,0,0,0,0,0,0,0,0,-1,1266,1373,0,0
49,-349,0,0,0,0,0,0,0,0,0,-1,1273,1373,0,0
56,-349,0,0,0,0,0,0,0,0,0,-1,1280,1373,0,0
63,-349,0,0,0,0,0,0,0,0,0,-1,1287,1373,0,0
70,-349,0,0,0,0,0,0,0,0,0,-1,1294,1373,0,0
77,-349,0,0,0,0,0,0,0,0,0,-1,1301,1373,0,0
84,-349,0,0,0,0,0,0,0,0,0,-1,1308,1373,0,0
91,-349,0,0,0,0,0,0,0,0,0,-1,1315,1373,0,0
98,-349,0,0,0,0,0,0,0,0,0,-1,1322,1373,0,0
105,-349,0,0,0,0,0,0,0,0,0,-1,1329,1373,0,0
112,-349,0,0,0,0,0,0,0,0,0,-1,1336,1373,0,0
119,-349,0,0,0,0,0,0,0,0,0,-1,1343,1373,0,0
126,-349,0,0,0,0,0,0,0,0,0,-1,1350,1373,0,0
133,-349,0,0,0,0,0,0,0,0,0,-1,1357,1373,0,0
140,-349,0,0,0,0,0,0,0,0,0,-1,1364,1373,0,0
147,-349,0,0,0,0,0,0,0,0,0,-1,1371,1373,0,0
154,-349,0,0,0,0,0,0,0,0,0,-1,1378,1373,0,0
161,-349,0,0,0,0,0,0,0,0,0,-1,1385,1373,0,0
168,-349,0,0,0,0,0,0,0,0,0,-1,1392,1373,0,0
175,-349,0,0,0,0,0,0,0,0,0,-1,1399,1373,0,0
182,-349,0,0,0,0,0,0,0,0,0,-1,1406,1373,0,0
189,-349,0,0,0,0,0,0,0,0,0,-1,1413,1373,0,0
196,-349,0,0,0,0,0,0,0,0,0,-1,1420,1373,0,0
203,-349,0,0,0,0,0,0,0,0,0,-1,1427,1373,0,0
210,-349,0,0,0,0,0,0,0,0,0,-1,1434,1373,0,0
217,-349,0,0,0,0,0,0,0,0,0,-1,1441,1373,0,0
224,-349,0,0,0,0,0,0,0,0,0,-1,1448,1373,0,0
231,-349,0,0,0,0,0,0,0,0,0,-1,1455,1373,0,0
238,-349,0,0,0,0,0,0,0,0,0,-1,1462,1373,0,0
245,-349,0,0,0,0,0,0,0,0,0,-1,1469,1373,0,0
252,-349,0,0,0,0,0,0,0,0,0,-1,1476,1373,0,0
259,-349,0,0,0,0,0,0,0,0,0,-1,1483,1373,0,0
266,-349,0,0,0,0,0,0,0,0,0,-1,1490,1373,0,0
273,-349,0,0,0,0,0,0,0,0,0,-1,1497,1373,0,0
280,-349,0,0,0,0,0,0,0,0,0,-1,1504,1373,0,0
287,-349,0,0,0,0,0,0,0,0,0,-1,1511,1373,0,0
294,-349,0,0,0,0,0,0,0,0,0,-1,1518,1373,0,0
301,-349,0,0,0,0,0,0,0,0,0,-1,1525,1373,0,0
308,-349,0,0,0,0,0,0,0,0,0,-1,1532,1373,0,0
315,-349,0,0,0,0,0,0,0,0,0,-1,1539,1373,0,0
322,-349,0,0,0,0,0,0,0,0,0,-1,1546,1373,0,0
329,-349,0,0,0,0,0,0,0,0,0,-1,1553,1373,0,0
336,-349,0,0,0,0,0,0,0,0,0,-1,1560,1373,0,0
343,-349,0,0,0,0,0,0,0,0,0,-1,1567,1373,0,0
350,-349,0,0,0,0,0,0,0,0,0,-1,1574,1373,0,0
357,-349,0,0,0,0,0,0,0,0,0,-1,1581,1373,0,0
364,-349,0,0,0,0,0,0,0,0,0,-1,1588,1373,0,0
371,-349,0,0,0,0,0,0,0,0,0,-1,1595,1373,0,0
378,-349,0,0,0,0,0,0,0,0,0,-1,1602,1373,0,0
385,-349,0,0,0,0,0,0,0,0,0,-1,1609,1373,0,0
392,-349,0,0,0,0,0,0,0,0,0,-1,1616,1373,0,0
399,-349,0,0,0,0,0,0,0,0,0,-1,1623,1373,0,0
406,-349,0,0,0,0,0,0,0,0,0,-1,1630,1373,0,0
413,-349,0,0,0,0,0,0,0,0,0,-1,1637,1373,0,0
420,-349,0,0,0,0,0,0,0,0,0,-1,1644,1373,0,0
427,-349,0,0,0,0,0,0,0,0,0,-1,1651,1373,0,0
434,-349,0,0,0,0,0,0,0,0,0,-1,1658,1373,0,0
441,-349,0,0,0,0,0,0,0,0,0,-1,1665,1373,0,0
448,-349,0,0,0,0,0,0,0,0,0,-1,1672,1373,0,0
455,-349,0,0,0,0,0,0,0,0,0,-1,1679,1373,0,0
462,-349,0,0,0,0,0,0,0,0,0,-1,1686,1373,0,0
469,-349,0,0,0,0,0,0,0,0,0,-1,1693,1373,0,0
476,-349,0,0,0,0,0,0,0,0,0,-1,1700,1373,0,0
483,-349,0,0,0,0,0,0,0,0,0,-1,1707,1373,0,0
490,-349,0,0,0,0,0,0,0,0,0,-1,1714,1373,0,0
497,-349,0,0,0,0,0,0,0,0,0,-1,1721,1373,0,0
504,-349,0,0,0,0,0,0,0,0,0,-1,1728,1373,0,0
511,-349,0,0,0,0,0,0,0,0,0,-1,1735,1373,0,0
518,-349,0,0,0,0,0,0,0,0,0,-1,1742,1373,0,0
525,-349,0,0,0,0,0,0,0,0,0,-1,1749,1373,0,0
532,-349,0,0,0,0,0,0,0,0,0,-1,1756,1373,0,0
539,-349,0,0,0,0,0,0,0,0,0,-1,1763,1373,0,0
546,-349,0,0,0,0,0,0,0,0,0,-1,1770,1373,0,0
553,-349,0,0,0,0,0,0,0,0,0,-1,1777,1373,0,0
560,-349,27.868,-1.07703,0,0,0,0,0,0,0,-1,1784,1373,27.8681,1.07708
567,-349,29.2839,-0.350586,0,0,0,0,0,0,0,-1,1791,1373,29.284,0.350552
574,-349,30.7375,0.364746,0,0,0,0,0,0,0,-1,1798,1373,30.7376,-0.364747
581,-349,31.9235,0.910522,0,0,0,0,0,0,0,-1,1805,1373,31.9235,-0.910533
588,-349,33.0247,1.43933,0,0,0,0,0,0,0,-1,1812,1373,33.0247,-1.43931
595,-349,32.3793,4.93115,0,0,0,0,0,0,0,-1,1819,1373,32.3793,-4.9312
602,-349,30.6421,5.56592,0,0,0,0,0,0,0,-1,1826,1373,30.6421,-5.56589
609,-349,28.8674,6.13806,0,0,0,0,0,0,0,-1,1833,1373,28.8674,-6.13809
616,-349,27.1451,6.68274,0,0,0,0,0,0,0,-1,1840,1373,27.1451,-6.6828
623,-349,18.8478,2.75769,0,0,0,0,0,0,0,-1,1847,1373,18.8478,-2.75774
630,-349,15.4948,6.47644,0,0,0,0,0,0,0,-1,1854,1373,15.4947,-6.4765
637,-349,16.5161,6.92639,0,0,0,0,0,0,0,-1,1861,1373,16.5161,-6.92636
644,-349,21.6578,9.8114,0,0,0,0,0,0,0,-1,1868,1373,21.6579,-9.81143
651,-349,21.6473,9.46802,0.000899547,0.000413696,-0.00156963,0.00224494,-0.000931697,-0.708624,0.00188555,0.0283073,1875,1373,21.6473,-9.46806
658,-349,21.5245,9.1272,0.000651603,0.00014309,-0.000934013,0.00136535,-0.000570655,-0.652508,0.00114871,0.0253092,1882,1373,21.5245,-9.12724
665,-349,21.5479,8.79211,0.000687622,-2.23313e-05,-0.000511938,0.000955613,-0.000290323,-0.482258,0.000752749,0.0194444,1889,1373,21.5478,-8.7921
672,-349,21.5533,8.46997,0.000847059,-0.000139465,-0.000204782,0.000887879,-0.000180284,-0.196752,0.00066027,0.0149597,1896,1373,21.5534,-8.47002
679,-349,21.5446,8.17078,0.00107549,-0.000266325,3.85981e-05,0.0010766,-0.000267434,0.028734,0.000821516,0.0143513,1903,1373,21.5445,-8.17083
686,-349,21.5848,7.85632,0.00133123,-0.000427614,0.000278658,0.00137432,-0.000470707,0.153429,0.00110699,0.0125308,1910,1373,21.5848,-7.85631
693,-349,21.5435,7.4978,0.00162272,-0.000552335,0.000455252,0.00171416,-0.000643778,0.198224,0.00140733,0.014726,1917,1373,21.5434,-7.4978
700,-349,21.5104,7.16663,0.00193522,-0.000677232,0.000618688,0.00207433,-0.000816344,0.221171,0.00172081,0.0170413,1924,1373,21.5103,-7.16664
707,-349,21.5837,6.80322,0.00199806,-0.00101912,0.000880699,0.00223631,-0.00125738,0.264207,0.00204331,0.0304679,1931,1373,21.5837,-6.80317
714,-349,21.6877,6.67505,0,0,0,0,0,0,0,-1,1938,1373,21.6877,-6.67507
721,-349,19.6688,5.93604,0,0,0,0,0,0,0,-1,1945,1373,19.6688,-5.93606
728,-349,18.6333,3.73218,0,0,0,0,0,0,0,-1,1952,1373,18.6333,-3.73214
735,-349,18.1918,3.39954,0,0,0,0,0,0,0,-1,1959,1373,18.1918,-3.3995
742,-349,20.7345,2.07483,0,0,0,0,0,0,0,-1,1966,1373,20.7345,-2.07485
749,-349,21.9037,1.45789,0,0,0,0,0,0,0,-1,1973,1373,21.9037,-1.45788
756,-349,0,0,0,0,0,0,0,0,0,-1,1980,1373,0,0
763,-349,0,0,0,0,0,0,0,0,0,-1,1987,1373,0,0
770,-349,0,0,0,0,0,0,0,0,0,-1,1994,1373,0,0
777,-349,0,0,0,0,0,0,0,0,0,-1,2001,1373,0,0
784,-349,0,0,0,0,0,0,0,0,0,-1,2008,1373,0,0
791,-349,0,0,0,0,0,0,0,0,0,-1,2015,1373,0,0
798,-349,0,0,0,0,0,0,0,0,0,-1,2022,1373,0,0
805,-349,0,0,0,0,0,0,0,0,0,-1,2029,1373,0,0
812,-349,0,0,0,0,0,0,0,0,0,-1,2036,1373,0,0
-700,-356,0,0,0,0,0,0,0,0,0,-1,524,1380,0,0
-693,-356,0,0,0,0,0,0,0,0,0,-1,531,1380,0,0
-686,-356,0,0,0,0,0,0,0,0,0,-1,538,1380,0,0
-679,-356,0,0,0,0,0,0,0,0,0,-1,545,1380,0,0
-672,-356,0,0,0,0,0,0,0,0,0,-1,552,1380,0,0
-665,-356,0,0,0,0,0,0,0,0,0,-1,559,1380,0,0
-658,-356,0,0,0,0,0,0,0,0,0,-1,566,1380,0,0
-651,-356,0,0,0,0,0,0,0,0,0,-1,573,1380,0,0
-644,-356,0,0,0,0,0,0,0,0,0,-1,580,1380,0,0
-637,-356,0,0,0,0,0,0,0,0,0,-1,587,1380,0,0
-630,-356,-8.23126,-5.01917,0,0,0,0,0,0,0,-1,594,1380,-8.23124,5.0192
-623,-356,-0.263855,-0.675781,0,0,0,0,0,0,0,-1,601,1380,-0.263835,0.675841
-616,-356,-8.26532,-3.43945,0,0,0,0,0,0,0,-1,608,1380,-8.2653,3.43948
-609,-356,-4.88483,0.734497,0,0,0,0,0,0,0,-1,615,1380,-4.88485,-0.734532
-602,-356,-9.06635,2.4021,0,0,0,0,0,0,0,-1,622,1380,-9.06634,-2.40206
-595,-356,-8.45703,3.61853,0,0,0,0,0,0,0,-1,629,1380,-8.45706,-3.61848
-588,-356,-9.31738,4.14258,0,0,0,0,0,0,0,-1,636,1380,-9.31736,-4.14255
-581,-356,-10.0898,4.50696,0,0,0,0,0,0,0,-1,643,1380,-10.0898,-4.50691
-574,-356,-9.8988,4.71936,0.00186909,-0.0055293,-0.0025654,0.0026716,-0.0063318,-0.303176,0.00533938,0.0379581,650,1380,-9.89883,-4.71934
-567,-356,-10.1541,4.92224,0.00135685,-0.00414065,-0.00228423,0.00218208,-0.00496588,-0.346682,0.00422991,0.0181403,657,1380,-10.1541,-4.92229
-560,-356,-10.1232,5.34094,0.00126237,-0.00306794,-0.00188035,0.00196489,-0.00377047,-0.357557,0.00336556,0.0180642,664,1380,-10.1232,-5.34094
-553,-356,-10.1362,5.67908,0.00157579,-0.00210533,-0.00128749,0.00198141,-0.00251094,-0.305199,0.00259966,0.0214582,671,1380,-10.1362,-5.67912
-546,-356,-10.183,6.03125,0.00228689,-0.00128485,-0.000513822,0.00235933,-0.0013573,-0.140075,0.00217164,0.0230054,678,1380,-10.183,-6.0312
-539,-356,-10.1703,6.44055,0.00328532,-0.000564587,0.000365129,0.00331964,-0.000598911,0.0937276,0.00243738,0.0156907,685,1380,-10.1704,-6.4405
-532,-356,-10.1633,6.81628,0.00463089,5.75184e-05,0.00138582,0.00501805,-0.000329635,0.272423,0.00346048,0.0151043,692,1380,-10.1633,-6.81629
-525,-356,-10.165,7.19287,0.00630154,0.000584535,0.00251699,0.00725174,-0.00036567,0.360976,0.00496088,0.0120219,699,1380,-10.165,-7.19293
-518,-356,-10.154,7.58936,0.00853463,0.000742242,0.00390746,0.0101565,-0.00087959,0.393421,0.0070824,0.0119982,706,1380,-10.154,-7.58935
-511,-356,-9.966,8.03589,0.0113428,0.000775323,0.00527801,0.0135273,-0.00140923,0.392429,0.00952277,0.035455,713,1380,-9.966,-8.03588
-504,-356,-9.77411,8.57983,0,0,0,0,0,0,0,-1,720,1380,-9.77413,-8.5798
-497,-356,-5.68604,4.96387,0,0,0,0,0,0,0,-1,727,1380,-5.68605,-4.96385
-490,-356,-7.95288,5.5625,0,0,0,0,0,0,0,-1,734,1380,-7.95285,-5.56246
-483,-356,-7.2627,4.07446,0,0,0,0,0,0,0,-1,741,1380,-7.2627,-4.07441
-476,-356,-5.1936,4.16016,0,0,0,0,0,0,0,-1,748,1380,-5.1936,-4.16012
-469,-356,-10.0883,0.536011,0,0,0,0,0,0,0,-1,755,1380,-10.0883,-0.535989
-462,-356,-12.3481,-0.215698,0,0,0,0,0,0,0,-1,762,1380,-12.3481,0.215641
-455,-356,-13.1367,-0.264648,0,0,0,0,0,0,0,-1,769,1380,-13.1367,0.264647
-448,-356,-13.9116,-0.310181,0,0,0,0,0,0,0,-1,776,1380,-13.9115,0.310207
-441,-356,-13.1602,3.05603,0,0,0,0,0,0,0,-1,783,1380,-13.1602,-3.05609
-434,-356,0,0,0,0,0,0,0,0,0,-1,790,1380,0,0
-427,-356,0,0,0,0,0,0,0,0,0,-1,797,1380,0,0
-420,-356,0,0,0,0,0,0,0,0,0,-1,804,1380,0,0
-413,-356,0,0,0,0,0,0,0,0,0,-1,811,1380,0,0
-406,-356,0,0,0,0,0,0,0,0,0,-1,818,1380,0,0
-399,-356,0,0,0,0,0,0,0,0,0,-1,825,1380,0,0
-392,-356,0,0,0,0,0,0,0,0,0,-1,832,1380,0,0
-385,-356,0,0,0,0,0,0,0,0,0,-1,839,1380,0,0
-378,-356,0,0,0,0,0,0,0,0,0,-1,846,1380,0,0
-371,-356,0,0,0,0,0,0,0,0,0,-1,853,1380,0,0
-364,-356,0,0,0,0,0,0,0,0,0,-1,860,1380,0,0
-357,-356,0,0,0,0,0,0,0,0,0,-1,867,1380,0,0
-350,-356,0,0,0,0,0,0,0,0,0,-1,874,1380,0,0
-343,-356,0,0,0,0,0,0,0,0,0,-1,881,1380,0,0
-336,-356,0,0,0,0,0,0,0,0,0,-1,888,1380,0,0
-329,-356,0,0,0,0,0,0,0,0,0,-1,895,1380,0,0
-322,-356,0,0,0,0,0,0,0,0,0,-1,902,1380,0,0
-315,-356,0,0,0,0,0,0,0,0,0,-1,909,1380,0,0
-308,-356,0,0,0,0,0,0,0,0,0,-1,916,1380,0,0
-301,-356,0,0,0,0,0,0,0,0,0,-1,923,1380,0,0
-294,-356,0,0,0,0,0,0,0,0,0,-1,930,1380,0,0
-287,-356,0,0,0,0,0,0,0,0,0,-1,937,1380,0,0
-280,-356,0,0,0,0,0,0,0,0,0,-1,944,1380,0,0
-273,-356,0,0,0,0,0,0,0,0,0,-1,951,1380,0,0
-266,-356,0,0,0,0,0,0,0,0,0,-1,958,1380,0,0
-259,-356,0,0,0,0,0,0,0,0,0,-1,965,1380,0,0
-252,-356,0,0,0,0,0,0,0,0,0,-1,972,1380,0,0
-245,-356,0,0,0,0,0,0,0,0,0,-1,979,1380,0,0
-238,-356,0,0,0,0,0,0,0,0,0,-1,986,1380,0,0
-231,-356,0,0,0,0,0,0,0,0,0,-1,993,1380,0,0
-224,-356,0,0,0,0,0,0,0,0,0,-1,1000,1380,0,0
-217,-356,0,0,0,0,0,0,0,0,0,-1,1007,1380,0,0
-210,-356,0,0,0,0,0,0,0,0,0,-1,1014,1380,0,0
-203,-356,0,0,0,0,0,0,0,0,0,-1,1021,1380,0,0
-196,-356,0,0,0,0,0,0,0,0,0,-1,1028,1380,0,0
-189,-356,0,0,0,0,0,0,0,0,0,-1,1035,1380,0,0
-182,-356,0,0,0,0,0,0,0,0,0,-1,1042,1380,0,0
-175,-356,0,0,0,0,0,0,0,0,0,-1,1049,1380,0,0
-168,-356,0,0,0,0,0,0,0,0,0,-1,1056,1380,0,0
-161,-356,0,0,0,0,0,0,0,0,0,-1,1063,1380,0,0
-154,-356,0,0,0,0,0,0,0,0,0,-1,1070,1380,0,0
-147,-356,0,0,0,0,0,0,0,0,0,-1,1077,1380,0,0
-140,-356,0,0,0,0,0,0,0,0,0,-1,1084,1380,0,0
-133,-356,0,0,0,0,0,0,0,0,0,-1,1091,1380,0,0
-126,-356,0,0,0,0,0,0,0,0,0,-1,1098,1380,0,0
-119,-356,0,0,0,0,0,0,0,0,0,-1,1105,1380,0,0
-112,-356,0,0,0,0,0,0,0,0,0,-1,1112,1380,0,0
-105,-356,0,0,0,0,0,0,0,0,0,-1,1119,1380,0,0
-98,-356,0,0,0,0,0,0,0,0,0,-1,1126,1380,0,0
-91,-356,0,0,0,0,0,0,0,0,0,-1,1133,1380,0,0
-84,-356,0,0,0,0,0,0,0,0,0,-1,1140,1380,0,0
-77,-356,0,0,0,0,0,0,0,0,0,-1,1147,1380,0,0
-70,-356,0,0,0,0,0,0,0,0,0,-1,1154,1380,0,0
-63,-356,0,0,0,0,0,0,0,0,0,-1,1161,1380,0,0
-56,-356,0,0,0,0,0,0,0,0,0,-1,1168,1380,0,0
-49,-356,0,0,0,0,0,0,0,0,0,-1,1175,1380,0,0
-42,-356,0,0,0,0,0,0,0,0,0,-1,1182,1380,0,0
-35,-356,0,0,0,0,0,0,0,0,0,-1,1189,1380,0,0
-28,-356,0,0,0,0,0,0,0,0,0,-1,1196,1380,0,0
-21,-356,0,0,0,0,0,0,0,0,0,-1,1203,1380,0,0
-14,-356,0,0,0,0,0,0,0,0,0,-1,1210,1380,0,0
-7,-356,0,0,0,0,0,0,0,0,0,-1,1217,1380,0,0
0,-356,0,0,0,0,0,0,0,0,0,-1,1224,1380,0,0
7,-356,0,0,0,0,0,0,0,0,0,-1,1231,1380,0,0
14,-356,0,0,0,0,0,0,0,0,0,-1,1238,1380,0,0
21,-356,0,0,0,0,0,0,0,0,0,-1,1245,1380,0,0
28,-356,0,0,0,0,0,0,0,0,0,-1,1252,1380,0,0
35,-356,0,0,0,0,0,0,0,0,0,-1,1259,1380,0,0
42,-356,0,0,0,0,0,0,0,0,0,-1,1266,1380,0,0
49,-356,0,0,0,0,0,0,0,0,0,-1,1273,1380,0,0
56,-356,0,0,0,0,0,0,0,0,0,-1,1280,1380,0,0
63,-356,0,0,0,0,0,0,0,0,0,-1,1287,1380,0,0
70,-356,0,0,0,0,0,0,0,0,0,-1,1294,1380,0,0
77,-356,0,0,0,0,0,0,0,0,0,-1,1301,1380,0,0
84,-356,0,0,0,0,0,0,0,0,0,-1,1308,1380,0,0
91,-356,0,0,0,0,0,0,0,0,0,-1,1315,1380,0,0
98,-356,0,0,0,0,0,0,0,0,0,-1,1322,1380,0,0
105,-356,0,0,0,0,0,0,0,0,0,-1,1329,1380,0,0
112,-356,0,0,0,0,0,0,0,0,0,-1,1336,1380,0,0
119,-356,0,0,0,0,0,0,0,0,0,-1,1343,1380,0,0
126,-356,0,0,0,0,0,0,0,0,0,-1,1350,1380,0,0
133,-356,0,0,0,0,0,0,0,0,0,-1,1357,1380,0,0
140,-356,0,0,0,0,0,0,0,0,0,-1,1364,1380,0,0
147,-356,0,0,0,0,0,0,0,0,0,-1,1371,1380,0,0
154,-356,0,0,0,0,0,0,0,0,0,-1,1378,1380,0,0
161,-356,0,0,0,0,0,0,0,0,0,-1,1385,1380,0,0
168,-356,0,0,0,0,0,0,0,0,0,-1,1392,1380,0,0
175,-356,0,0,0,0,0,0,0,0,0,-1,1399,1380,0,0
182,-356,0,0,0,0,0,0,0,0,0,-1,1406,1380,0,0
189,-356,0,0,0,0,0,0,0,0,0,-1,1413,1380,0,0
196,-356,0,0,0,0,0,0,0,0,0,-1,1420,1380,0,0
203,-356,0,0,0,0,0,0,0,0,0,-1,1427,1380,0,0
210,-356,0,0,0,0,0,0,0,0,0,-1,1434,1380,0,0
217,-356,0,0,0,0,0,0,0,0,0,-1,1441,1380,0,0
224,-356,0,0,0,0,0,0,0,0,0,-1,1448,1380,0,0
231,-356,0,0,0,0,0,0,0,0,0,-1,1455,1380,0,0
238,-356,0,0,0,0,0,0,0,0,0,-1,1462,1380,0,0
245,-356,0,0,0,0,0,0,0,0,0,-1,1469,1380,0,0
252,-356,0,0,0,0,0,0,0,0,0,-1,1476,1380,0,0
259,-356,0,0,0,0,0,0,0,0,0,-1,1483,1380,0,0
266,-356,0,0,0,0,0,0,0,0,0,-1,1490,1380,0,0
273,-356,0,0,0,0,0,0,0,0,0,-1,1497,1380,0,0
280,-356,0,0,0,0,0,0,0,0,0,-1,1504,1380,0,0
287,-356,0,0,0,0,0,0,0,0,0,-1,1511,1380,0,0
294,-356,0,0,0,0,0,0,0,0,0,-1,1518,1380,0,0
301,-356,0,0,0,0,0,0,0,0,0,-1,1525,1380,0,0
308,-356,0,0,0,0,0,0,0,0,0,-1,1532,1380,0,0
315,-356,0,0,0,0,0,0,0,0,0,-1,1539,1380,0,0
322,-356,0,0,0,0,0,0,0,0,0,-1,1546,1380,0,0
329,-356,0,0,0,0,0,0,0,0,0,-1,1553,1380,0,0
336,-356,0,0,0,0,0,0,0,0,0,-1,1560,1380,0,0
343,-356,0,0,0,0,0,0,0,0,0,-1,1567,1380,0,0
350,-356,0,0,0,0,0,0,0,0,0,-1,1574,1380,0,0
357,-356,0,0,0,0,0,0,0,0,0,-1,1581,1380,0,0
364,-356,0,0,0,0,0,0,0,0,0,-1,1588,1380,0,0
371,-356,0,0,0,0,0,0,0,0,0,-1,1595,1380,0,0
378,-356,0,0,0,0,0,0,0,0,0,-1,1602,1380,0,0
385,-356,0,0,0,0,0,0,0,0,0,-1,1609,1380,0,0
392,-356,0,0,0,0,0,0,0,0,0,-1,1616,1380,0,0
399,-356,0,0,0,0,0,0,0,0,0,-1,1623,1380,0,0
406,-356,0,0,0,0,0,0,0,0,0,-1,1630,1380,0,0
413,-356,0,0,0,0,0,0,0,0,0,-1,1637,1380,0,0
420,-356,0,0,0,0,0,0,0,0,0,-1,1644,1380,0,0
427,-356,0,0,0,0,0,0,0,0,0,-1,1651,1380,0,0
434,-356,0,0,0,0,0,0,0,0,0,-1,1658,1380,0,0
441,-356,0,0,0,0,0,0,0,0,0,-1,1665,1380,0,0
448,-356,0,0,0,0,0,0,0,0,0,-1,1672,1380,0,0
455,-356,0,0,0,0,0,0,0,0,0,-1,1679,1380,0,0
462,-356,0,0,0,0,0,0,0,0,0,-1,1686,1380,0,0
469,-356,0,0,0,0,0,0,0,0,0,-1,1693,1380,0,0
476,-356,0,0,0,0,0,0,0,0,0,-1,1700,1380,0,0
483,-356,0,0,0,0,0,0,0,0,0,-1,1707,1380,0,0
490,-356,0,0,0,0,0,0,0,0,0,-1,1714,1380,0,0
497,-356,0,0,0,0,0,0,0,0,0,-1,1721,1380,0,0
504,-356,0,0,0,0,0,0,0,0,0,-1,1728,1380,0,0
511,-356,0,0,0,0,0,0,0,0,0,-1,1735,1380,0,0
518,-356,0,0,0,0,0,0,0,0,0,-1,1742,1380,0,0
525,-356,0,0,0,0,0,0,0,0,0,-1,1749,1380,0,0
532,-356,0,0,0,0,0,0,0,0,0,-1,1756,1380,0,0
539,-356,0,0,0,0,0,0,0,0,0,-1,1763,1380,0,0
546,-356,0,0,0,0,0,0,0,0,0,-1,1770,1380,0,0
553,-356,0,0,0,0,0,0,0,0,0,-1,1777,1380,0,0
560,-356,27.4741,2.35632,0,0,0,0,0,0,0,-1,1784,1380,27.4741,-2.35628
567,-356,30.0057,-0.38623,0,0,0,0,0,0,0,-1,1791,1380,30.0058,0.386207
574,-356,31.3999,0.269043,0,0,0,0,0,0,0,-1,1798,1380,31.3999,-0.26906
581,-356,31.9545,0.788452,0,0,0,0,0,0,0,-1,1805,1380,31.9545,-0.788436
588,-356,32.496,1.32678,0,0,0,0,0,0,0,-1,1812,1380,32.496,-1.32676
595,-356,32.0834,5.86084,0,0,0,0,0,0,0,-1,1819,1380,32.0834,-5.86079
602,-356,30.1604,6.07104,0,0,0,0,0,0,0,-1,1826,1380,30.1604,-6.07104
609,-356,28.3435,6.48901,0,0,0,0,0,0,0,-1,1833,1380,28.3435,-6.48899
616,-356,26.9358,6.80872,0,0,0,0,0,0,0,-1,1840,1380,26.9358,-6.80877
623,-356,16.1803,1.07532,0,0,0,0,0,0,0,-1,1847,1380,16.1803,-1.07529
630,-356,16.4138,6.91553,0,0,0,0,0,0,0,-1,1854,1380,16.4138,-6.9155
637,-356,21.1799,10.6039,0,0,0,0,0,0,0,-1,1861,1380,21.18,-10.6039
644,-356,21.1937,9.96655,0.00228336,0.000739999,-0.00238866,0.0040219,-0.000998538,-0.62916,0.00306875,0.0410134,1868,1380,21.1938,-9.96652
651,-356,21.2755,9.46924,0.00161954,0.000448584,-0.00162247,0.00275894,-0.000690818,-0.612242,0.00210765,0.0170564,1875,1380,21.2755,-9.46922
658,-356,21.2251,9.11743,0.00131667,0.000217727,-0.00102113,0.00192677,-0.000392379,-0.538567,0.00143332,0.0140399,1882,1380,21.2251,-9.1174
665,-356,21.2344,8.82324,0.00122478,4.55131e-05,-0.000577473,0.00146046,-0.000190167,-0.387489,0.00104283,0.013561,1889,1380,21.2343,-8.82322
672,-356,21.21,8.53467,0.0012359,-7.47393e-05,-0.000218534,0.00127137,-0.000110217,-0.16094,0.000886609,0.0151224,1896,1380,21.21,-8.53472
679,-356,21.1958,8.19373,0.00134559,-0.00021,7.38187e-05,0.00134909,-0.000213495,0.0473121,0.000978352,0.0170186,1903,1380,21.1958,-8.19372
686,-356,21.2109,7.85107,0.00152956,-0.000359723,0.000333787,0.00158679,-0.00041696,0.169827,0.00122082,0.0154611,1910,1380,21.2109,-7.85112
693,-356,21.2417,7.50415,0.00180838,-0.000469972,0.000509942,0.0019173,-0.0005789,0.210446,0.00150866,0.0135406,1917,1380,21.2417,-7.50421
700,-356,21.2289,7.15955,0.00218865,-0.000541138,0.000634776,0.00232904,-0.000681526,0.217659,0.00182285,0.0205457,1924,1380,21.2289,-7.15959
707,-356,21.3372,6.65173,0,0,0,0,0,0,0,-1,1931,1380,21.3372,-6.6517
714,-356,19.6907,5.82129,0,0,0,0,0,0,0,-1,1938,1380,19.6907,-5.82132
721,-356,17.2948,4.1958,0,0,0,0,0,0,0,-1,1945,1380,17.2948,-4.19584
728,-356,19.1846,2.31519,0,0,0,0,0,0,0,-1,1952,1380,19.1846,-2.31514
735,-356,20.0731,2.50842,0,0,0,0,0,0,0,-1,1959,1380,20.0731,-2.50844
742,-356,21.0111,2.43762,0,0,0,0,0,0,0,-1,1966,1380,21.0112,-2.43762
749,-356,22.1411,1.83276,0,0,0,0,0,0,0,-1,1973,1380,22.1411,-1.83275
756,-356,0,0,0,0,0,0,0,0,0,-1,1980,1380,0,0
763,-356,0,0,0,0,0,0,0,0,0,-1,1987,1380,0,0
770,-356,0,0,0,0,0,0,0,0,0,-1,1994,1380,0,0
777,-356,0,0,0,0,0,0,0,0,0,-1,2001,1380,0,0
784,-356,0,0,0,0,0,0,0,0,0,-1,2008,1380,0,0
791,-356,0,0,0,0,0,0,0,0,0,-1,2015,1380,0,0
798,-356,0,0,0,0,0,0,0,0,0,-1,2022,1380,0,0
805,-356,0,0,0,0,0,0,0,0,0,-1,2029,1380,0,0
812,-356,0,0,0,0,0,0,0,0,0,-1,2036,1380,0,0
-700,-363,0,0,0,0,0,0,0,0,0,-1,524,1387,0,0
-693,-363,0,0,0,0,0,0,0,0,0,-1,531,1387,0,0
-686,-363,0,0,0,0,0,0,0,0,0,-1,538,1387,0,0
-679,-363,0,0,0,0,0,0,0,0,0,-1,545,1387,0,0
-672,-363,0,0,0,0,0,0,0,0,0,-1,552,1387,0,0
-665,-363,0,0,0,0,0,0,0,0,0,-1,559,1387,0,0
-658,-363,0,0,0,0,0,0,0,0,0,-1,566,1387,0,0
-651,-363,0,0,0,0,0,0,0,0,0,-1,573,1387,0,0
-644,-363,0,0,0,0,0,0,0,0,0,-1,580,1387,0,0
-637,-363,0,0,0,0,0,0,0,0,0,-1,587,1387,0,0
-630,-363,0,0,0,0,0,0,0,0,0,-1,594,1387,0,0
-623,-363,-9.67566,-5.91846,0,0,0,0,0,0,0,-1,601,1387,-9.67563,5.91847
-616,-363,-9.02985,-2.98083,0,0,0,0,0,0,0,-1,608,1387,-9.02987,2.98079
-609,-363,-4.90265,0.195679,0,0,0,0,0,0,0,-1,615,1387,-4.90263,-0.195721
-602,-363,-9.65009,3.5321,0,0,0,0,0,0,0,-1,622,1387,-9.65007,-3.53211
-595,-363,-8.00256,3.48853,0,0,0,0,0,0,0,-1,629,1387,-8.00256,-3.48855
-588,-363,-9.94183,4.15503,0,0,0,0,0,0,0,-1,636,1387,-9.94186,-4.15499
-581,-363,-9.72321,4.61829,0,0,0,0,0,0,0,-1,643,1387,-9.72321,-4.61825
-574,-363,-9.57495,4.92505,0.00271346,-0.0071912,-0.00327329,0.00369746,-0.0081752,-0.292021,0.00701531,0.0398293,650,1387,-9.57492,-4.92504
-567,-363,-9.77344,4.98608,0.00175254,-0.00533473,-0.00298547,0.00284252,-0.00642471,-0.350058,0.00548206,0.0297801,657,1387,-9.77346,-4.98613
-560,-363,-9.76331,5.32458,0.0013064,-0.00394251,-0.00255854,0.00234717,-0.00498328,-0.386341,0.0043225,0.0132543,664,1387,-9.7633,-5.3246
-553,-363,-9.76483,5.71204,0.00135512,-0.00272795,-0.00190204,0.00210386,-0.00347669,-0.37502,0.00325427,0.0137307,671,1387,-9.76483,-5.71201
-546,-363,-9.76801,6.0592,0.00186551,-0.00170345,-0.00104215,0.00214754,-0.00198548,-0.264289,0.00238681,0.0137591,678,1387,-9.76799,-6.05924
-539,-363,-9.72748,6.42529,0.00273425,-0.000817145,-4.8201e-05,0.0027349,-0.000817799,-0.0135691,0.00214839,0.0153714,685,1387,-9.72746,-6.42528
-532,-363,-9.77728,6.83582,0.00398609,-5.11262e-05,0.00109415,0.00426355,-0.00032859,0.248353,0.00295799,0.0131742,692,1387,-9.77726,-6.8358
-525,-363,-9.78815,7.21252,0.00555397,0.000585772,0.00232024,0.00646902,-0.000329284,0.375652,0.00442653,0.0105027,699,1387,-9.78818,-7.21251
-518,-363,-9.78668,7.57922,0.00756736,0.000836801,0.00366989,0.00918136,-0.000777199,0.414335,0.00639573,0.00969183,706,1387,-9.78665,-7.57919
-511,-363,-9.72229,7.98108,0.00998055,0.000775318,0.00486526,0.0120753,-0.00131944,0.406566,0.00852413,0.0194108,713,1387,-9.72228,-7.98111
-504,-363,-9.61633,8.42639,0,0,0,0,0,0,0,-1,720,1387,-9.61633,-8.42633
-497,-363,-7.18842,7.29944,0,0,0,0,0,0,0,-1,727,1387,-7.18839,-7.29945
-490,-363,-5.42413,4.6958,0,0,0,0,0,0,0,-1,734,1387,-5.42412,-4.69583
-483,-363,-6.28375,4.1394,0,0,0,0,0,0,0,-1,741,1387,-6.28374,-4.13944
-476,-363,-5.83807,4.31018,0,0,0,0,0,0,0,-1,748,1387,-5.8381,-4.31013
-469,-363,-10.7125,0.697754,0,0,0,0,0,0,0,-1,755,1387,-10.7125,-0.697811
-462,-363,-9.55951,-0.0830078,0,0,0,0,0,0,0,-1,762,1387,-9.55949,0.0830163
-455,-363,-13.1008,-0.290894,0,0,0,0,0,0,0,-1,769,1387,-13.1008,0.290921
-448,-363,-11.7324,2.46606,0,0,0,0,0,0,0,-1,776,1387,-11.7324,-2.46605
-441,-363,-12.4464,2.5354,0,0,0,0,0,0,0,-1,783,1387,-12.4463,-2.53537
-434,-363,-13.6918,2.14661,0,0,0,0,0,0,0,-1,790,1387,-13.6918,-2.14662
-427,-363,0,0,0,0,0,0,0,0,0,-1,797,1387,0,0
-420,-363,0,0,0,0,0,0,0,0,0,-1,804,1387,0,0
-413,-363,0,0,0,0,0,0,0,0,0,-1,811,1387,0,0
-406,-363,0,0,0,0,0,0,0,0,0,-1,818,1387,0,0
-399,-363,0,0,0,0,0,0,0,0,0,-1,825,1387,0,0
-392,-363,0,0,0,0,0,0,0,0,0,-1,832,1387,0,0
-385,-363,0,0,0,0,0,0,0,0,0,-1,839,1387,0,0
-378,-363,0,0,0,0,0,0,0,0,0,-1,846,1387,0,0
-371,-363,0,0,0,0,0,0,0,0,0,-1,853,1387,0,0
-364,-363,0,0,0,0,0,0,0,0,0,-1,860,1387,0,0
-357,-363,0,0,0,0,0,0,0,0,0,-1,867,1387,0,0
-350,-363,0,0,0,0,0,0,0,0,0,-1,874,1387,0,0
-343,-363,0,0,0,0,0,0,0,0,0,-1,881,1387,0,0
-336,-363,0,0,0,0,0,0,0,0,0,-1,888,1387,0,0
-329,-363,0,0,0,0,0,0,0,0,0,-1,895,1387,0,0
-322,-363,0,0,0,0,0,0,0,0,0,-1,902,1387,0,0
-315,-363,0,0,0,0,0,0,0,0,0,-1,909,1387,0,0
-308,-363,0,0,0,0,0,0,0,0,0,-1,916,1387,0,0
-301,-363,0,0,0,0,0,0,0,0,0,-1,923,1387,0,0
-294,-363,0,0,0,0,0,0,0,0,0,-1,930,1387,0,0
-287,-363,0,0,0,0,0,0,0,0,0,-1,937,1387,0,0
-280,-363,0,0,0,0,0,0,0,0,0,-1,944,1387,0,0
-273,-363,0,0,0,0,0,0,0,0,0,-1,951,1387,0,0
-266,-363,0,0,0,0,0,0,0,0,0,-1,958,1387,0,0
-259,-363,0,0,0,0,0,0,0,0,0,-1,965,1387,0,0
-252,-363,0,0,0,0,0,0,0,0,0,-1,972,1387,0,0
-245,-363,0,0,0,0,0,0,0,0,0,-1,979,1387,0,0
-238,-363,0,0,0,0,0,0,0,0,0,-1,986,1387,0,0
-231,-363,0,0,0,0,0,0,0,0,0,-1,993,1387,0,0
-224,-363,0,0,0,0,0,0,0,0,0,-1,1000,1387,0,0
-217,-363,0,0,0,0,0,0,0,0,0,-1,1007,1387,0,0
-210,-363,0,0,0,0,0,0,0,0,0,-1,1014,1387,0,0
-203,-363,0,0,0,0,0,0,0,0,0,-1,1021,1387,0,0
-196,-363,0,0,0,0,0,0,0,0,0,-1,1028,1387,0,0
-189,-363,0,0,0,0,0,0,0,0,0,-1,1035,1387,0,0
-182,-363,0,0,0,0,0,0,0,0,0,-1,1042,1387,0,0
-175,-363,0,0,0,0,0,0,0,0,0,-1,1049,1387,0,0
-168,-363,0,0,0,0,0,0,0,0,0,-1,1056,1387,0,0
-161,-363,0,0,0,0,0,0,0,0,0,-1,1063,1387,0,0
-154,-363,0,0,0,0,0,0,0,0,0,-1,1070,1387,0,0
-147,-363,0,0,0,0,0,0,0,0,0,-1,1077,1387,0,0
-140,-363,0,0,0,0,0,0,0,0,0,-1,1084,1387,0,0
-133,-363,0,0,0,0,0,0,0,0,0,-1,1091,1387,0,0
-126,-363,0,0,0,0,0,0,0,0,0,-1,1098,1387,0,0
-119,-363,0,0,0,0,0,0,0,0,0,-1,1105,1387,0,0
-112,-363,0,0,0,0,0,0,0,0,0,-1,1112,1387,0,0
-105,-363,0,0,0,0,0,0,0,0,0,-1,1119,1387,0,0
-98,-363,0,0,0,0,0,0,0,0,0,-1,1126,1387,0,0
-91,-363,0,0,0,0,0,0,0,0,0,-1,1133,1387,0,0
-84,-363,0,0,0,0,0,0,0,0,0,-1,1140,1387,0,0
-77,-363,0,0,0,0,0,0,0,0,0,-1,1147,1387,0,0
-70,-363,0,0,0,0,0,0,0,0,0,-1,1154,1387,0,0
-63,-363,0,0,0,0,0,0,0,0,0,-1,1161,1387,0,0
-56,-363,0,0,0,0,0,0,0,0,0,-1,1168,1387,0,0
-49,-363,0,0,0,0,0,0,0,0,0,-1,1175,1387,0,0
-42,-363,0,0,0,0,0,0,0,0,0,-1,1182,1387,0,0
-35,-363,0,0,0,0,0,0,0,0,0,-1,1189,1387,0,0
-28,-363,0,0,0,0,0,0,0,0,0,-1,1196,1387,0,0
-21,-363,0,0,0,0,0,0,0,0,0,-1,1203,1387,0,0
-14,-363,0,0,0,0,0,0,0,0,0,-1,1210,1387,0,0
-7,-363,0,0,0,0,0,0,0,0,0,-1,1217,1387,0,0
0,-363,0,0,0,0,0,0,0,0,0,-1,1224,1387,0,0
7,-363,0,0,0,0,0,0,0,0,0,-1,1231,1387,0,0
14,-363,0,0,0,0,0,0,0,0,0,-1,1238,1387,0,0
21,-363,0,0,0,0,0,0,0,0,0,-1,1245,1387,0,0
28,-363,0,0,0,0,0,0,0,0,0,-1,1252,1387,0,0
35,-363,0,0,0,0,0,0,0,0,0,-1,1259,1387,0,0
42,-363,0,0,0,0,0,0,0,0,0,-1,1266,1387,0,0
49,-363,0,0,0,0,0,0,0,0,0,-1,1273,1387,0,0
56,-363,0,0,0,0,0,0,0,0,0,-1,1280,1387,0,0
63,-363,0,0,0,0,0,0,0,0,0,-1,1287,1387,0,0
70,-363,0,0,0,0,0,0,0,0,0,-1,1294,1387,0,0
77,-363,0,0,0,0,0,0,0,0,0,-1,1301,1387,0,0
84,-363,0,0,0,0,0,0,0,0,0,-1,1308,1387,0,0
91,-363,0,0,0,0,0,0,0,0,0,-1,1315,1387,0,0
98,-363,0,0,0,0,0,0,0,0,0,-1,1322,1387,0,0
105,-363,0,0,0,0,0,0,0,0,0,-1,1329,1387,0,0
112,-363,0,0,0,0,0,0,0,0,0,-1,1336,1387,0,0
119,-363,0,0,0,0,0,0,0,0,0,-1,1343,1387,0,0
126,-363,0,0,0,0,0,0,0,0,0,-1,1350,1387,0,0
133,-363,0,0,0,0,0,0,0,0,0,-1,1357,1387,0,0
140,-363,0,0,0,0,0,0,0,0,0,-1,1364,1387,0,0
147,-363,0,0,0,0,0,0,0,0,0,-1,1371,1387,0,0
154,-363,0,0,0,0,0,0,0,0,0,-1,1378,1387,0,0
161,-363,0,0,0,0,0,0,0,0,0,-1,1385,1387,0,0
168,-363,0,0,0,0,0,0,0,0,0,-1,1392,1387,0,0
175,-363,0,0,0,0,0,0,0,0,0,-1,1399,1387,0,0
182,-363,0,0,0,0,0,0,0,0,0,-1,1406,1387,0,0
189,-363,0,0,0,0,0,0,0,0,0,-1,1413,1387,0,0
196,-363,0,0,0,0,0,0,0,0,0,-1,1420,1387,0,0
203,-363,0,0,0,0,0,0,0,0,0,-1,1427,1387,0,0
210,-363,0,0,0,0,0,0,0,0,0,-1,1434,1387,0,0
217,-363,0,0,0,0,0,0,0,0,0,-1,1441,1387,0,0
224,-363,0,0,0,0,0,0,0,0,0,-1,1448,1387,0,0
231,-363,0,0,0,0,0,0,0,0,0,-1,1455,1387,0,0
238,-363,0,0,0,0,0,0,0,0,0,-1,1462,1387,0,0
245,-363,0,0,0,0,0,0,0,0,0,-1,1469,1387,0,0
252,-363,0,0,0,0,0,0,0,0,0,-1,1476,1387,0,0
259,-363,0,0,0,0,0,0,0,0,0,-1,1483,1387,0,0
266,-363,0,0,0,0,0,0,0,0,0,-1,1490,1387,0,0
273,-363,0,0,0,0,0,0,0,0,0,-1,1497,1387,0,0
280,-363,0,0,0,0,0,0,0,0,0,-1,1504,1387,0,0
287,-363,0,0,0,0,0,0,0,0,0,-1,1511,1387,0,0
294,-363,0,0,0,0,0,0,0,0,0,-1,1518,1387,0,0
301,-363,0,0,0,0,0,0,0,0,0,-1,1525,1387,0,0
308,-363,0,0,0,0,0,0,0,0,0,-1,1532,1387,0,0
315,-363,0,0,0,0,0,0,0,0,0,-1,1539,1387,0,0
322,-363,0,0,0,0,0,0,0,0,0,-1,1546,1387,0,0
329,-363,0,0,0,0,0,0,0,0,0,-1,1553,1387,0,0
336,-363,0,0,0,0,0,0,0,0,0,-1,1560,1387,0,0
343,-363,0,0,0,0,0,0,0,0,0,-1,1567,1387,0,0
350,-363,0,0,0,0,0,0,0,0,0,-1,1574,1387,0,0
357,-363,0,0,0,0,0,0,0,0,0,-1,1581,1387,0,0
364,-363,0,0,0,0,0,0,0,0,0,-1,1588,1387,0,0
371,-363,0,0,0,0,0,0,0,0,0,-1,1595,1387,0,0
378,-363,0,0,0,0,0,0,0,0,0,-1,1602,1387,0,0
385,-363,0,0,0,0,0,0,0,0,0,-1,1609,1387,0,0
392,-363,0,0,0,0,0,0,0,0,0,-1,1616,1387,0,0
399,-363,0,0,0,0,0,0,0,0,0,-1,1623,1387,0,0
406,-363,0,0,0,0,0,0,0,0,0,-1,1630,1387,0,0
413,-363,0,0,0,0,0,0,0,0,0,-1,1637,1387,0,0
420,-363,0,0,0,0,0,0,0,0,0,-1,1644,1387,0,0
427,-363,0,0,0,0,0,0,0,0,0,-1,1651,1387,0,0
434,-363,0,0,0,0,0,0,0,0,0,-1,1658,1387,0,0
441,-363,0,0,0,0,0,0,0,0,0,-1,1665,1387,0,0
448,-363,0,0,0,0,0,0,0,0,0,-1,1672,1387,0,0
455,-363,0,0,0,0,0,0,0,0,0,-1,1679,1387,0,0
462,-363,0,0,0,0,0,0,0,0,0,-1,1686,1387,0,0
469,-363,0,0,0,0,0,0,0,0,0,-1,1693,1387,0,0
476,-363,0,0,0,0,0,0,0,0,0,-1,1700,1387,0,0
483,-363,0,0,0,0,0,0,0,0,0,-1,1707,1387,0,0
490,-363,0,0,0,0,0,0,0,0,0,-1,1714,1387,0,0
497,-363,0,0,0,0,0,0,0,0,0,-1,1721,1387,0,0
504,-363,0,0,0,0,0,0,0,0,0,-1,1728,1387,0,0
511,-363,0,0,0,0,0,0,0,0,0,-1,1735,1387,0,0
518,-363,0,0,0,0,0,0,0,0,0,-1,1742,1387,0,0
525,-363,0,0,0,0,0,0,0,0,0,-1,1749,1387,0,0
532,-363,0,0,0,0,0,0,0,0,0,-1,1756,1387,0,0
539,-363,0,0,0,0,0,0,0,0,0,-1,1763,1387,0,0
546,-363,0,0,0,0,0,0,0,0,0,-1,1770,1387,0,0
553,-363,26.4719,2.09753,0,0,0,0,0,0,0,-1,1777,1387,26.472,-2.09757
560,-363,27.1924,2.3584,0,0,0,0,0,0,0,-1,1784,1387,27.1924,-2.35836
567,-363,27.807,2.3446,0,0,0,0,0,0,0,-1,1791,1387,27.807,-2.34464
574,-363,32.0331,0.156006,0,0,0,0,0,0,0,-1,1798,1387,32.0331,-0.155952
581,-363,31.9629,1.03845,0,0,0,0,0,0,0,-1,1805,1387,31.9629,-1.03847
588,-363,32.5608,6.72131,0,0,0,0,0,0,0,-1,1812,1387,32.5608,-6.72131
595,-363,31.4688,6.95435,0,0,0,0,0,0,0,-1,1819,1387,31.4688,-6.95431
602,-363,25.7437,5.33667,0,0,0,0,0,0,0,-1,1826,1387,25.7437,-5.33667
609,-363,27.7048,7.06885,0,0,0,0,0,0,0,-1,1833,1387,27.7048,-7.06882
616,-363,16.229,1.08704,0,0,0,0,0,0,0,-1,1840,1387,16.229,-1.08706
623,-363,15.7283,7.16663,0,0,0,0,0,0,0,-1,1847,1387,15.7282,-7.16665
630,-363,18.3192,9.27844,0,0,0,0,0,0,0,-1,1854,1387,18.3192,-9.27843
637,-363,20.882,10.3015,0,0,0,0,0,0,0,-1,1861,1387,20.882,-10.3015
644,-363,20.8943,9.87183,0.00190406,0.000710143,-0.00205301,0.00344514,-0.000830937,-0.643913,0.00261807,0.013957,1868,1387,20.8942,-9.87178
651,-363,20.9153,9.48865,0.00156348,0.00046812,-0.00146253,0.00257751,-0.000545909,-0.606243,0.00192627,0.0116395,1875,1387,20.9153,-9.48865
658,-363,20.9159,9.15833,0.00145475,0.000257031,-0.000967021,0.00199333,-0.000281545,-0.508159,0.00143199,0.011809,1882,1387,20.9159,-9.15827
665,-363,20.899,8.86621,0.0013993,7.28219e-05,-0.000528243,0.00158396,-0.000111834,-0.336289,0.00109516,0.0120362,1889,1387,20.899,-8.86622
672,-363,20.8789,8.55371,0.00140072,-6.4441e-05,-0.000149972,0.00141591,-7.96344e-05,-0.100964,0.000971573,0.0129685,1896,1387,20.8789,-8.55374
679,-363,20.8557,8.20081,0.00152369,-0.00021149,0.000165218,0.00153928,-0.000227081,0.09409,0.00110965,0.0145876,1903,1387,20.8557,-8.20086
686,-363,20.8737,7.8479,0.00174968,-0.000364598,0.000430394,0.00183394,-0.000448853,0.193319,0.0013965,0.0149518,1910,1387,20.8737,-7.84786
693,-363,20.8901,7.48779,0.00212945,-0.000492886,0.000608794,0.0022639,-0.000627329,0.217347,0.00175613,0.0135332,1917,1387,20.8901,-7.48785
700,-363,20.9999,7.13733,0.00270231,-0.000536298,0.000695051,0.00284518,-0.000679164,0.202723,0.00215908,0.0220677,1924,1387,20.9998,-7.13733
707,-363,21.1938,6.82532,0,0,0,0,0,0,0,-1,1931,1387,21.1938,-6.82527
714,-363,16.5782,5.3147,0,0,0,0,0,0,0,-1,1938,1387,16.5783,-5.31472
721,-363,14.4045,4.51685,0,0,0,0,0,0,0,-1,1945,1387,14.4045,-4.51685
728,-363,19.9756,0.853027,0,0,0,0,0,0,0,-1,1952,1387,19.9756,-0.853059
735,-363,21.4297,1.2981,0,0,0,0,0,0,0,-1,1959,1387,21.4297,-1.29811
742,-363,21.3621,2.79663,0,0,0,0,0,0,0,-1,1966,1387,21.362,-2.7966
749,-363,0,0,0,0,0,0,0,0,0,-1,1973,1387,0,0
756,-363,0,0,0,0,0,0,0,0,0,-1,1980,1387,0,0
763,-363,0,0,0,0,0,0,0,0,0,-1,1987,1387,0,0
770,-363,0,0,0,0,0,0,0,0,0,-1,1994,1387,0,0
777,-363,0,0,0,0,0,0,0,0,0,-1,2001,1387,0,0
784,-363,0,0,0,0,0,0,0,0,0,-1,2008,1387,0,0
791,-363,0,0,0,0,0,0,0,0,0,-1,2015,1387,0,0
798,-363,0,0,0,0,0,0,0,0,0,-1,2022,1387,0,0
805,-363,0,0,0,0,0,0,0,0,0,-1,2029,1387,0,0
812,-363,0,0,0,0,0,0,0,0,0,-1,2036,1387,0,0
-700,-370,0,0,0,0,0,0,0,0,0,-1,524,1394,0,0
-693,-370,0,0,0,0,0,0,0,0,0,-1,531,1394,0,0
-686,-370,0,0,0,0,0,0,0,0,0,-1,538,1394,0,0
-679,-370,0,0,0,0,0,0,0,0,0,-1,545,1394,0,0
-672,-370,0,0,0,0,0,0,0,0,0,-1,552,1394,0,0
-665,-370,0,0,0,0,0,0,0,0,0,-1,559,1394,0,0
-658,-370,0,0,0,0,0,0,0,0,0,-1,566,1394,0,0
-651,-370,0,0,0,0,0,0,0,0,0,-1,573,1394,0,0
-644,-370,0,0,0,0,0,0,0,0,0,-1,580,1394,0,0
-637,-370,0,0,0,0,0,0,0,0,0,-1,587,1394,0,0
-630,-370,0,0,0,0,0,0,0,0,0,-1,594,1394,0,0
-623,-370,-10.1758,-7.10486,0,0,0,0,0,0,0,-1,601,1394,-10.1758,7.10483
-616,-370,-8.85925,-1.61475,0,0,0,0,0,0,0,-1,608,1394,-8.85925,1.61476
-609,-370,-5.39325,0.0421143,0,0,0,0,0,0,0,-1,615,1394,-5.39328,-0.0421372
-602,-370,-12.3151,3.44592,0,0,0,0,0,0,0,-1,622,1394,-12.3151,-3.44595
-595,-370,-7.53284,5.44214,0,0,0,0,0,0,0,-1,629,1394,-7.53284,-5.44216
-588,-370,-8.12195,3.45691,0,0,0,0,0,0,0,-1,636,1394,-8.12197,-3.45693
-581,-370,-9.40216,4.34741,0,0,0,0,0,0,0,-1,643,1394,-9.40215,-4.34736
-574,-370,-9.26453,4.92444,0.0043194,-0.00876301,-0.00373782,0.00531203,-0.00975564,-0.259572,0.00882452,0.0441702,650,1394,-9.26452,-4.92443
-567,-370,-9.2851,5.12061,0.00257368,-0.00640876,-0.0035419,0.00380226,-0.00763734,-0.333884,0.00672724,0.0374791,657,1394,-9.28513,-5.12066
-560,-370,-9.43018,5.32239,0.00155022,-0.00469852,-0.00316848,0.00287567,-0.00602398,-0.396203,0.00524429,0.0192118,664,1394,-9.43015,-5.32237
-553,-370,-9.39374,5.70605,0.00117321,-0.00326286,-0.00252197,0.00231375,-0.0044034,-0.424715,0.00394021,0.0103973,671,1394,-9.39375,-5.70607
-546,-370,-9.36261,6.06995,0.00136369,-0.00207981,-0.00165725,0.00203169,-0.00274781,-0.383156,0.00276975,0.0137082,678,1394,-9.36262,-6.06994
-539,-370,-9.32623,6.47266,0.00202047,-0.001089,-0.000631252,0.00214374,-0.00121226,-0.192842,0.00196231,0.0173638,685,1394,-9.32624,-6.47271
-532,-370,-9.40222,6.88745,0.00312474,-0.000244156,0.000549341,0.00321205,-0.00033147,0.157625,0.00225998,0.018703,692,1394,-9.40224,-6.88749
-525,-370,-9.41217,7.23169,0.00456073,0.000440822,0.00179382,0.0052323,-0.000230745,0.358225,0.0035676,0.0151338,699,1394,-9.41214,-7.23169
-518,-370,-9.39789,7.55908,0.00634905,0.000760962,0.00304757,0.00768954,-0.000579528,0.414386,0.00533005,0.0113779,706,1394,-9.39787,-7.55904
-511,-370,-9.37811,7.94312,0.00849576,0.000660553,0.00414037,0.0102782,-0.00112187,0.406518,0.00725505,0.0145955,713,1394,-9.37809,-7.94306
-504,-370,-9.26843,8.39502,0.0108278,0.000506466,0.00509808,0.0129213,-0.00158703,0.389649,0.009189,0.0357212,720,1394,-9.2684,-8.39506
-497,-370,-9.1142,8.80286,0,0,0,0,0,0,0,-1,727,1394,-9.11421,-8.80282
-490,-370,-5.30695,4.5271,0,0,0,0,0,0,0,-1,734,1394,-5.30698,-4.52704
-483,-370,-6.02997,4.59253,0,0,0,0,0,0,0,-1,741,1394,-6.02994,-4.5925
-476,-370,-6.75293,4.65796,0,0,0,0,0,0,0,-1,748,1394,-6.7529,-4.65795
-469,-370,-10.584,1.14294,0,0,0,0,0,0,0,-1,755,1394,-10.584,-1.14293
-462,-370,-9.54462,0.387207,0,0,0,0,0,0,0,-1,762,1394,-9.5446,-0.387176
-455,-370,-8.50525,-0.36853,0,0,0,0,0,0,0,-1,769,1394,-8.50523,0.368582
-448,-370,-10.9543,2.28833,0,0,0,0,0,0,0,-1,776,1394,-10.9543,-2.28835
-441,-370,-11.8699,1.8313,0,0,0,0,0,0,0,-1,783,1394,-11.8699,-1.83127
-434,-370,-12.7855,1.37415,0,0,0,0,0,0,0,-1,790,1394,-12.7855,-1.37419
-427,-370,0,0,0,0,0,0,0,0,0,-1,797,1394,0,0
-420,-370,0,0,0,0,0,0,0,0,0,-1,804,1394,0,0
-413,-370,0,0,0,0,0,0,0,0,0,-1,811,1394,0,0
-406,-370,0,0,0,0,0,0,0,0,0,-1,818,1394,0,0
-399,-370,0,0,0,0,0,0,0,0,0,-1,825,1394,0,0
-392,-370,0,0,0,0,0,0,0,0,0,-1,832,1394,0,0
-385,-370,0,0,0,0,0,0,0,0,0,-1,839,1394,0,0
-378,-370,0,0,0,0,0,0,0,0,0,-1,846,1394,0,0
-371,-370,0,0,0,0,0,0,0,0,0,-1,853,1394,0,0
-364,-370,0,0,0,0,0,0,0,0,0,-1,860,1394,0,0
-357,-370,0,0,0,0,0,0,0,0,0,-1,867,1394,0,0
-350,-370,0,0,0,0,0,0,0,0,0,-1,874,1394,0,0
-343,-370,0,0,0,0,0,0,0,0,0,-1,881,1394,0,0
-336,-370,0,0,0,0,0,0,0,0,0,-1,888,1394,0,0
-329,-370,0,0,0,0,0,0,0,0,0,-1,895,1394,0,0
-322,-370,0,0,0,0,0,0,0,0,0,-1,902,1394,0,0
-315,-370,0,0,0,0,0,0,0,0,0,-1,909,1394,0,0
-308,-370,0,0,0,0,0,0,0,0,0,-1,916,1394,0,0
-301,-370,0,0,0,0,0,0,0,0,0,-1,923,1394,0,0
-294,-370,0,0,0,0,0,0,0,0,0,-1,930,1394,0,0
-287,-370,0,0,0,0,0,0,0,0,0,-1,937,1394,0,0
-280,-370,0,0,0,0,0,0,0,0,0,-1,944,1394,0,0
-273,-370,0,0,0,0,0,0,0,0,0,-1,951,1394,0,0
-266,-370,0,0,0,0,0,0,0,0,0,-1,958,1394,0,0
-259,-370,0,0,0,0,0,0,0,0,0,-1,965,1394,0,0
-252,-370,0,0,0,0,0,0,0,0,0,-1,972,1394,0,0
-245,-370,0,0,0,0,0,0,0,0,0,-1,979,1394,0,0
-238,-370,0,0,0,0,0,0,0,0,0,-1,986,1394,0,0
-231,-370,0,0,0,0,0,0,0,0,0,-1,993,1394,0,0
-224,-370,0,0,0,0,0,0,0,0,0,-1,1000,1394,0,0
-217,-370,0,0,0,0,0,0,0,0,0,-1,1007,1394,0,0
-210,-370,0,0,0,0,0,0,0,0,0,-1,1014,1394,0,0
-203,-370,0,0,0,0,0,0,0,0,0,-1,1021,1394,0,0
-196,-370,0,0,0,0,0,0,0,0,0,-1,1028,1394,0,0
-189,-370,0,0,0,0,0,0,0,0,0,-1,1035,1394,0,0
-182,-370,0,0,0,0,0,0,0,0,0,-1,1042,1394,0,0
-175,-370,0,0,0,0,0,0,0,0,0,-1,1049,1394,0,0
-168,-370,0,0,0,0,0,0,0,0,0,-1,1056,1394,0,0
-161,-370,0,0,0,0,0,0,0,0,0,-1,1063,1394,0,0
-154,-370,0,0,0,0,0,0,0,0,0,-1,1070,1394,0,0
-147,-370,0,0,0,0,0,0,0,0,0,-1,1077,1394,0,0
-140,-370,0,0,0,0,0,0,0,0,0,-1,1084,1394,0,0
-133,-370,0,0,0,0,0,0,0,0,0,-1,1091,1394,0,0
-126,-370,0,0,0,0,0,0,0,0,0,-1,1098,1394,0,0
-119,-370,0,0,0,0,0,0,0,0,0,-1,1105,1394,0,0
-112,-370,0,0,0,0,0,0,0,0,0,-1,1112,1394,0,0
-105,-370,0,0,0,0,0,0,0,0,0,-1,1119,1394,0,0
-98,-370,0,0,0,0,0,0,0,0,0,-1,1126,1394,0,0
-91,-370,0,0,0,0,0,0,0,0,0,-1,1133,1394,0,0
-84,-370,0,0,0,0,0,0,0,0,0,-1,1140,1394,0,0
-77,-370,0,0,0,0,0,0,0,0,0,-1,1147,1394,0,0
-70,-370,0,0,0,0,0,0,0,0,0,-1,1154,1394,0,0
-63,-370,0,0,0,0,0,0,0,0,0,-1,1161,1394,0,0
-56,-370,0,0,0,0,0,0,0,0,0,-1,1168,1394,0,0
-49,-370,0,0,0,0,0,0,0,0,0,-1,1175,1394,0,0
-42,-370,0,0,0,0,0,0,0,0,0,-1,1182,1394,0,0
-35,-370,0,0,0,0,0,0,0,0,0,-1,1189,1394,0,0
-28,-370,0,0,0,0,0,0,0,0,0,-1,1196,1394,0,0
-21,-370,0,0,0,0,0,0,0,0,0,-1,1203,1394,0,0
-14,-370,0,0,0,0,0,0,0,0,0,-1,1210,1394,0,0
-7,-370,0,0,0,0,0,0,0,0,0,-1,1217,1394,0,0
0,-370,0,0,0,0,0,0,0,0,0,-1,1224,1394,0,0
7,-370,0,0,0,0,0,0,0,0,0,-1,1231,1394,0,0
14,-370,0,0,0,0,0,0,0,0,0,-1,1238,1394,0,0
21,-370,0,0,0,0,0,0,0,0,0,-1,1245,1394,0,0
28,-370,0,0,0,0,0,0,0,0,0,-1,1252,1394,0,0
35,-370,0,0,0,0,0,0,0,0,0,-1,1259,1394,0,0
42,-370,0,0,0,0,0,0,0,0,0,-1,1266,1394,0,0
49,-370,0,0,0,0,0,0,0,0,0,-1,1273,1394,0,0
56,-370,0,0,0,0,0,0,0,0,0,-1,1280,1394,0,0
63,-370,0,0,0,0,0,0,0,0,0,-1,1287,1394,0,0
70,-370,0,0,0,0,0,0,0,0,0,-1,1294,1394,0,0
77,-370,0,0,0,0,0,0,0,0,0,-1,1301,1394,0,0
84,-370,0,0,0,0,0,0,0,0,0,-1,1308,1394,0,0
91,-370,0,0,0,0,0,0,0,0,0,-1,1315,1394,0,0
98,-370,0,0,0,0,0,0,0,0,0,-1,1322,1394,0,0
105,-370,0,0,0,0,0,0,0,0,0,-1,1329,1394,0,0
112,-370,0,0,0,0,0,0,0,0,0,-1,1336,1394,0,0
119,-370,0,0,0,0,0,0,0,0,0,-1,1343,1394,0,0
126,-370,0,0,0,0,0,0,0,0,0,-1,1350,1394,0,0
133,-370,0,0,0,0,0,0,0,0,0,-1,1357,1394,0,0
140,-370,0,0,0,0,0,0,0,0,0,-1,1364,1394,0,0
147,-370,0,0,0,0,0,0,0,0,0,-1,1371,1394,0,0
154,-370,0,0,0,0,0,0,0,0,0,-1,1378,1394,0,0
161,-370,0,0,0,0,0,0,0,0,0,-1,1385,1394,0,0
168,-370,0,0,0,0,0,0,0,0,0,-1,1392,1394,0,0
175,-370,0,0,0,0,0,0,0,0,0,-1,1399,1394,0,0
182,-370,0,0,0,0,0,0,0,0,0,-1,1406,1394,0,0
189,-370,0,0,0,0,0,0,0,0,0,-1,1413,1394,0,0
196,-370,0,0,0,0,0,0,0,0,0,-1,1420,1394,0,0
203,-370,0,0,0,0,0,0,0,0,0,-1,1427,1394,0,0
210,-370,0,0,0,0,0,0,0,0,0,-1,1434,1394,0,0
217,-370,0,0,0,0,0,0,0,0,0,-1,1441,1394,0,0
224,-370,0,0,0,0,0,0,0,0,0,-1,1448,1394,0,0
231,-370,0,0,0,0,0,0,0,0,0,-1,1455,1394,0,0
238,-370,0,0,0,0,0,0,0,0,0,-1,1462,1394,0,0
245,-370,0,0,0,0,0,0,0,0,0,-1,1469,1394,0,0
252,-370,0,0,0,0,0,0,0,0,0,-1,1476,1394,0,0
259,-370,0,0,0,0,0,0,0,0,0,-1,1483,1394,0,0
266,-370,0,0,0,0,0,0,0,0,0,-1,1490,1394,0,0
273,-370,0,0,0,0,0,0,0,0,0,-1,1497,1394,0,0
280,-370,0,0,0,0,0,0,0,0,0,-1,1504,1394,0,0
287,-370,0,0,0,0,0,0,0,0,0,-1,1511,1394,0,0
294,-370,0,0,0,0,0,0,0,0,0,-1,1518,1394,0,0
301,-370,0,0,0,0,0,0,0,0,0,-1,1525,1394,0,0
308,-370,0,0,0,0,0,0,0,0,0,-1,1532,1394,0,0
315,-370,0,0,0,0,0,0,0,0,0,-1,1539,1394,0,0
322,-370,0,0,0,0,0,0,0,0,0,-1,1546,1394,0,0
329,-370,0,0,0,0,0,0,0,0,0,-1,1553,1394,0,0
336,-370,0,0,0,0,0,0,0,0,0,-1,1560,1394,0,0
343,-370,0,0,0,0,0,0,0,0,0,-1,1567,1394,0,0
350,-370,0,0,0,0,0,0,0,0,0,-1,1574,1394,0,0
357,-370,0,0,0,0,0,0,0,0,0,-1,1581,1394,0,0
364,-370,0,0,0,0,0,0,0,0,0,-1,1588,1394,0,0
371,-370,0,0,0,0,0,0,0,0,0,-1,1595,1394,0,0
378,-370,0,0,0,0,0,0,0,0,0,-1,1602,1394,0,0
385,-370,0,0,0,0,0,0,0,0,0,-1,1609,1394,0,0
392,-370,0,0,0,0,0,0,0,0,0,-1,1616,1394,0,0
399,-370,0,0,0,0,0,0,0,0,0,-1,1623,1394,0,0
406,-370,0,0,0,0,0,0,0,0,0,-1,1630,1394,0,0
413,-370,0,0,0,0,0,0,0,0,0,-1,1637,1394,0,0
420,-370,0,0,0,0,0,0,0,0,0,-1,1644,1394,0,0
427,-370,0,0,0,0,0,0,0,0,0,-1,1651,1394,0,0
434,-370,0,0,0,0,0,0,0,0,0,-1,1658,1394,0,0
441,-370,0,0,0,0,0,0,0,0,0,-1,1665,1394,0,0
448,-370,0,0,0,0,0,0,0,0,0,-1,1672,1394,0,0
455,-370,0,0,0,0,0,0,0,0,0,-1,1679,1394,0,0
462,-370,0,0,0,0,0,0,0,0,0,-1,1686,1394,0,0
469,-370,0,0,0,0,0,0,0,0,0,-1,1693,1394,0,0
476,-370,0,0,0,0,0,0,0,0,0,-1,1700,1394,0,0
483,-370,0,0,0,0,0,0,0,0,0,-1,1707,1394,0,0
490,-370,0,0,0,0,0,0,0,0,0,-1,1714,1394,0,0
497,-370,0,0,0,0,0,0,0,0,0,-1,1721,1394,0,0
504,-370,0,0,0,0,0,0,0,0,0,-1,1728,1394,0,0
511,-370,0,0,0,0,0,0,0,0,0,-1,1735,1394,0,0
518,-370,0,0,0,0,0,0,0,0,0,-1,1742,1394,0,0
525,-370,0,0,0,0,0,0,0,0,0,-1,1749,1394,0,0
532,-370,0,0,0,0,0,0,0,0,0,-1,1756,1394,0,0
539,-370,0,0,0,0,0,0,0,0,0,-1,1763,1394,0,0
546,-370,27.4949,2.81201,0,0,0,0,0,0,0,-1,1770,1394,27.4948,-2.81198
553,-370,26.5985,1.99329,0,0,0,0,0,0,0,-1,1777,1394,26.5985,-1.99327
560,-370,27.1606,2.1084,0,0,0,0,0,0,0,-1,1784,1394,27.1606,-2.10838
567,-370,27.619,2.3833,0,0,0,0,0,0,0,-1,1791,1394,27.619,-2.38327
574,-370,28.0094,2.6936,0,0,0,0,0,0,0,-1,1798,1394,28.0094,-2.69357
581,-370,26.7473,2.29626,0,0,0,0,0,0,0,-1,1805,1394,26.7473,-2.29625
588,-370,32.1333,7.8728,0,0,0,0,0,0,0,-1,1812,1394,32.1333,-7.87275
595,-370,25.793,4.5271,0,0,0,0,0,0,0,-1,1819,1394,25.793,-4.52711
602,-370,25.1077,5.34937,0,0,0,0,0,0,0,-1,1826,1394,25.1077,-5.34932
609,-370,16.712,0.993286,0,0,0,0,0,0,0,-1,1833,1394,16.7121,-0.99323
616,-370,16.7764,7.23315,0,0,0,0,0,0,0,-1,1840,1394,16.7764,-7.23313
623,-370,17.6625,8.94263,0,0,0,0,0,0,0,-1,1847,1394,17.6624,-8.94258
630,-370,20.0834,10.8774,0,0,0,0,0,0,0,-1,1854,1394,20.0833,-10.8774
637,-370,20.3505,10.3225,0.0017762,0.000630752,-0.00205181,0.00333372,-0.000926763,-0.649296,0.00258733,0.0473742,1861,1394,20.3505,-10.3225
644,-370,20.5573,9.85242,0.00162611,0.0005775,-0.0016113,0.00279626,-0.000592652,-0.628105,0.00208992,0.012795,1868,1394,20.5572,-9.85238
651,-370,20.5743,9.51208,0.0014798,0.000387447,-0.00116692,0.00222203,-0.000354787,-0.566517,0.00161268,0.0122816,1875,1394,20.5743,-9.51203
658,-370,20.5778,9.19458,0.00148315,0.000212708,-0.000777632,0.00185203,-0.000156172,-0.442928,0.0012899,0.0123411,1882,1394,20.5777,-9.19458
665,-370,20.5568,8.87061,0.00147343,4.36165e-05,-0.00036911,0.00156309,-4.60473e-05,-0.238303,0.00105774,0.0134908,1889,1394,20.5568,-8.87063
672,-370,20.5372,8.53967,0.00149702,-9.00045e-05,5.20967e-06,0.00149703,-9.00216e-05,0.00328262,0.00102934,0.0146395,1896,1394,20.5372,-8.53966
679,-370,20.5251,8.19653,0.00163476,-0.00025318,0.000339337,0.0016939,-0.000312319,0.172547,0.00124649,0.0138878,1903,1394,20.5251,-8.19648
686,-370,20.5311,7.84595,0.00187849,-0.000450181,0.00064358,0.00204452,-0.000616211,0.252474,0.00160826,0.0137872,1910,1394,20.5312,-7.84597
693,-370,20.5277,7.48694,0.00233438,-0.000622881,0.000834644,0.00255368,-0.000842184,0.256943,0.00204192,0.0119729,1917,1394,20.5277,-7.48698
700,-370,20.6572,7.11206,0.00304207,-0.000738757,0.000946292,0.00326569,-0.000962376,0.232053,0.00255897,0.0254571,1924,1394,20.6572,-7.11207
707,-370,20.9177,6.66577,0,0,0,0,0,0,0,-1,1931,1394,20.9177,-6.66574
714,-370,16.9116,5.93018,0,0,0,0,0,0,0,-1,1938,1394,16.9116,-5.93014
721,-370,17.2007,4.69153,0,0,0,0,0,0,0,-1,1945,1394,17.2007,-4.69158
728,-370,20.5315,-0.313354,0,0,0,0,0,0,0,-1,1952,1394,20.5315,0.313332
735,-370,22.3652,0.233398,0,0,0,0,0,0,0,-1,1959,1394,22.3652,-0.233355
742,-370,24.1989,0.780029,0,0,0,0,0,0,0,-1,1966,1394,24.1989,-0.780041
749,-370,0,0,0,0,0,0,0,0,0,-1,1973,1394,0,0
756,-370,0,0,0,0,0,0,0,0,0,-1,1980,1394,0,0
763,-370,0,0,0,0,0,0,0,0,0,-1,1987,1394,0,0
770,-370,0,0,0,0,0,0,0,0,0,-1,1994,1394,0,0
777,-370,0,0,0,0,0,0,0,0,0,-1,2001,1394,0,0
784,-370,0,0,0,0,0,0,0,0,0,-1,2008,1394,0,0
791,-370,0,0,0,0,0,0,0,0,0,-1,2015,1394,0,0
798,-370,0,0,0,0,0,0,0,0,0,-1,2022,1394,0,0
805,-370,0,0,0,0,0,0,0,0,0,-1,2029,1394,0,0
812,-370,0,0,0,0,0,0,0,0,0,-1,2036,1394,0,0
-700,-377,0,0,0,0,0,0,0,0,0,-1,524,1401,0,0
-693,-377,0,0,0,0,0,0,0,0,0,-1,531,1401,0,0
-686,-377,0,0,0,0,0,0,0,0,0,-1,538,1401,0,0
-679,-377,0,0,0,0,0,0,0,0,0,-1,545,1401,0,0
-672,-377,0,0,0,0,0,0,0,0,0,-1,552,1401,0,0
-665,-377,0,0,0,0,0,0,0,0,0,-1,559,1401,0,0
-658,-377,0,0,0,0,0,0,0,0,0,-1,566,1401,0,0
-651,-377,0,0,0,0,0,0,0,0,0,-1,573,1401,0,0
-644,-377,0,0,0,0,0,0,0,0,0,-1,580,1401,0,0
-637,-377,0,0,0,0,0,0,0,0,0,-1,587,1401,0,0
-630,-377,0,0,0,0,0,0,0,0,0,-1,594,1401,0,0
-623,-377,0,0,0,0,0,0,0,0,0,-1,601,1401,0,0
-616,-377,-9.43915,-2.4906,0,0,0,0,0,0,0,-1,608,1401,-9.43915,2.49062
-609,-377,-7.2821,-1.35278,0,0,0,0,0,0,0,-1,615,1401,-7.28208,1.35279
-602,-377,-14.9736,3.98279,0,0,0,0,0,0,0,-1,622,1401,-14.9737,-3.98276
-595,-377,-6.9082,1.18201,0,0,0,0,0,0,0,-1,629,1401,-6.90822,-1.18204
-588,-377,-9.32385,4.25415,0,0,0,0,0,0,0,-1,636,1401,-9.32383,-4.25418
-581,-377,-9.12329,4.78198,0,0,0,0,0,0,0,-1,643,1401,-9.12326,-4.78202
-574,-377,-9.0578,5.07458,0.00579357,-0.0101408,-0.00405047,0.00676407,-0.0111113,-0.23517,0.0104216,0.0469741,650,1401,-9.05777,-5.07456
-567,-377,-8.95319,5.29626,0.00305854,-0.00729432,-0.00396023,0.00439969,-0.00863548,-0.326532,0.00765716,0.0382256,657,1401,-8.95316,-5.29626
-560,-377,-9.10858,5.38879,0.00136727,-0.00528609,-0.00364916,0.00297852,-0.00689734,-0.415796,0.00584955,0.0331897,664,1401,-9.1086,-5.3888
-553,-377,-8.99677,5.67419,0.000553225,-0.00366517,-0.00302938,0.00213535,-0.00524729,-0.481297,0.00438678,0.0126595,671,1401,-8.99676,-5.67413
-546,-377,-9.0025,6.11169,0.000466014,-0.00236434,-0.00219465,0.0016622,-0.00356052,-0.499032,0.00308102,0.0155961,678,1401,-9.00252,-6.11167
-539,-377,-8.9668,6.47668,0.00100245,-0.00131789,-0.00117417,0.00149294,-0.00180838,-0.395699,0.00190891,0.0213779,685,1401,-8.96681,-6.47665
-532,-377,-9.04102,6.84741,0.00206749,-0.00044235,-3.74395e-06,0.00206749,-0.000442356,-0.0014917,0.00154701,0.0201573,692,1401,-9.04099,-6.84742
-525,-377,-8.98328,7.22754,0.0034896,0.00024182,0.00119943,0.00388454,-0.000153115,0.318088,0.00264221,0.0201118,699,1401,-8.98329,-7.22751
-518,-377,-9.01056,7.57568,0.00516406,0.000589891,0.00229848,0.00611947,-0.00036552,0.393942,0.00420679,0.013453,706,1401,-9.01058,-7.57563
-511,-377,-9.03204,7.95361,0.00721007,0.000487501,0.00329764,0.00855757,-0.000860002,0.387921,0.00601225,0.012475,713,1401,-9.03203,-7.95356
-504,-377,-9.04053,8.35315,0.00940038,0.000292986,0.00415172,0.0110089,-0.00131554,0.369628,0.00781478,0.0137027,720,1401,-9.04052,-8.35317
-497,-377,-8.64856,8.77991,0.0115166,-0.0003451,0.00479379,0.0132118,-0.00204022,0.339884,0.00956075,0.0425712,727,1401,-8.64855,-8.77988
-490,-377,-8.08325,9.35669,0,0,0,0,0,0,0,-1,734,1401,-8.08324,-9.35665
-483,-377,-5.6524,5.07324,0,0,0,0,0,0,0,-1,741,1401,-5.6524,-5.07325
-476,-377,-6.11682,5.10535,0,0,0,0,0,0,0,-1,748,1401,-6.11681,-5.10537
-469,-377,-10.3211,1.9281,0,0,0,0,0,0,0,-1,755,1401,-10.3211,-1.92808
-462,-377,-9.2204,1.0022,0,0,0,0,0,0,0,-1,762,1401,-9.22039,-1.00218
-455,-377,-8.11969,0.0762939,0,0,0,0,0,0,0,-1,769,1401,-8.11968,-0.0762759
-448,-377,-9.05334,0.877319,0,0,0,0,0,0,0,-1,776,1401,-9.05332,-0.877324
-441,-377,-11.212,0.763428,0,0,0,0,0,0,0,-1,783,1401,-11.212,-0.763415
-434,-377,-11.0984,0.996216,0,0,0,0,0,0,0,-1,790,1401,-11.0984,-0.996265
-427,-377,-11.1733,1.25732,0,0,0,0,0,0,0,-1,797,1401,-11.1733,-1.25732
-420,-377,0,0,0,0,0,0,0,0,0,-1,804,1401,0,0
-413,-377,0,0,0,0,0,0,0,0,0,-1,811,1401,0,0
-406,-377,0,0,0,0,0,0,0,0,0,-1,818,1401,0,0
-399,-377,0,0,0,0,0,0,0,0,0,-1,825,1401,0,0
-392,-377,0,0,0,0,0,0,0,0,0,-1,832,1401,0,0
-385,-377,0,0,0,0,0,0,0,0,0,-1,839,1401,0,0
-378,-377,0,0,0,0,0,0,0,0,0,-1,846,1401,0,0
-371,-377,0,0,0,0,0,0,0,0,0,-1,853,1401,0,0
-364,-377,0,0,0,0,0,0,0,0,0,-1,860,1401,0,0
-357,-377,0,0,0,0,0,0,0,0,0,-1,867,1401,0,0
-350,-377,0,0,0,0,0,0,0,0,0,-1,874,1401,0,0
-343,-377,0,0,0,0,0,0,0,0,0,-1,881,1401,0,0
-336,-377,0,0,0,0,0,0,0,0,0,-1,888,1401,0,0
-329,-377,0,0,0,0,0,0,0,0,0,-1,895,1401,0,0
-322,-377,0,0,0,0,0,0,0,0,0,-1,902,1401,0,0
-315,-377,0,0,0,0,0,0,0,0,0,-1,909,1401,0,0
-308,-377,0,0,0,0,0,0,0,0,0,-1,916,1401,0,0
-301,-377,0,0,0,0,0,0,0,0,0,-1,923,1401,0,0
-294,-377,0,0,0,0,0,0,0,0,0,-1,930,1401,0,0
-287,-377,0,0,0,0,0,0,0,0,0,-1,937,1401,0,0
-280,-377,0,0,0,0,0,0,0,0,0,-1,944,1401,0,0
-273,-377,0,0,0,0,0,0,0,0,0,-1,951,1401,0,0
-266,-377,0,0,0,0,0,0,0,0,0,-1,958,1401,0,0
-259,-377,0,0,0,0,0,0,0,0,0,-1,965,1401,0,0
-252,-377,0,0,0,0,0,0,0,0,0,-1,972,1401,0,0
-245,-377,0,0,0,0,0,0,0,0,0,-1,979,1401,0,0
-238,-377,0,0,0,0,0,0,0,0,0,-1,986,1401,0,0
-231,-377,0,0,0,0,0,0,0,0,0,-1,993,1401,0,0
-224,-377,0,0,0,0,0,0,0,0,0,-1,1000,1401,0,0
-217,-377,0,0,0,0,0,0,0,0,0,-1,1007,1401,0,0
-210,-377,0,0,0,0,0,0,0,0,0,-1,1014,1401,0,0
-203,-377,0,0,0,0,0,0,0,0,0,-1,1021,1401,0,0
-196,-377,0,0,0,0,0,0,0,0,0,-1,1028,1401,0,0
-189,-377,0,0,0,0,0,0,0,0,0,-1,1035,1401,0,0
-182,-377,0,0,0,0,0,0,0,0,0,-1,1042,1401,0,0
-175,-377,0,0,0,0,0,0,0,0,0,-1,1049,1401,0,0
-168,-377,0,0,0,0,0,0,0,0,0,-1,1056,1401,0,0
-161,-377,0,0,0,0,0,0,0,0,0,-1,1063,1401,0,0
-154,-377,0,0,0,0,0,0,0,0,0,-1,1070,1401,0,0
-147,-377,0,0,0,0,0,0,0,0,0,-1,1077,1401,0,0
-140,-377,0,0,0,0,0,0,0,0,0,-1,1084,1401,0,0
-133,-377,0,0,0,0,0,0,0,0,0,-1,1091,1401,0,0
-126,-377,0,0,0,0,0,0,0,0,0,-1,1098,1401,0,0
-119,-377,0,0,0,0,0,0,0,0,0,-1,1105,1401,0,0
-112,-377,0,0,0,0,0,0,0,0,0,-1,1112,1401,0,0
-105,-377,0,0,0,0,0,0,0,0,0,-1,1119,1401,0,0
-98,-377,0,0,0,0,0,0,0,0,0,-1,1126,1401,0,0
-91,-377,0,0,0,0,0,0,0,0,0,-1,1133,1401,0,0
-84,-377,0,0,0,0,0,0,0,0,0,-1,1140,1401,0,0
-77,-377,0,0,0,0,0,0,0,0,0,-1,1147,1401,0,0
-70,-377,0,0,0,0,0,0,0,0,0,-1,1154,1401,0,0
-63,-377,0,0,0,0,0,0,0,0,0,-1,1161,1401,0,0
-56,-377,0,0,0,0,0,0,0,0,0,-1,1168,1401,0,0
-49,-377,0,0,0,0,0,0,0,0,0,-1,1175,1401,0,0
-42,-377,0,0,0,0,0,0,0,0,0,-1,1182,1401,0,0
-35,-377,0,0,0,0,0,0,0,0,0,-1,1189,1401,0,0
-28,-377,0,0,0,0,0,0,0,0,0,-1,1196,1401,0,0
-21,-377,0,0,0,0,0,0,0,0,0,-1,1203,1401,0,0
-14,-377,0,0,0,0,0,0,0,0,0,-1,1210,1401,0,0
-7,-377,0,0,0,0,0,0,0,0,0,-1,1217,1401,0,0
0,-377,0,0,0,0,0,0,0,0,0,-1,1224,1401,0,0
7,-377,0,0,0,0,0,0,0,0,0,-1,1231,1401,0,0
14,-377,0,0,0,0,0,0,0,0,0,-1,1238,1401,0,0
21,-377,0,0,0,0,0,0,0,0,0,-1,1245,1401,0,0
28,-377,0,0,0,0,0,0,0,0,0,-1,1252,1401,0,0
35,-377,0,0,0,0,0,0,0,0,0,-1,1259,1401,0,0
42,-377,0,0,0,0,0,0,0,0,0,-1,1266,1401,0,0
49,-377,0,0,0,0,0,0,0,0,0,-1,1273,1401,0,0
56,-377,0,0,0,0,0,0,0,0,0,-1,1280,1401,0,0
63,-377,0,0,0,0,0,0,0,0,0,-1,1287,1401,0,0
70,-377,0,0,0,0,0,0,0,0,0,-1,1294,1401,0,0
77,-377,0,0,0,0,0,0,0,0,0,-1,1301,1401,0,0
84,-377,0,0,0,0,0,0,0,0,0,-1,1308,1401,0,0
91,-377,0,0,0,0,0,0,0,0,0,-1,1315,1401,0,0
98,-377,0,0,0,0,0,0,0,0,0,-1,1322,1401,0,0
105,-377,0,0,0,0,0,0,0,0,0,-1,1329,1401,0,0
112,-377,0,0,0,0,0,0,0,0,0,-1,1336,1401,0,0
119,-377,0,0,0,0,0,0,0,0,0,-1,1343,1401,0,0
126,-377,0,0,0,0,0,0,0,0,0,-1,1350,1401,0,0
133,-377,0,0,0,0,0,0,0,0,0,-1,1357,1401,0,0
140,-377,0,0,0,0,0,0,0,0,0,-1,1364,1401,0,0
147,-377,0,0,0,0,0,0,0,0,0,-1,1371,1401,0,0
154,-377,0,0,0,0,0,0,0,0,0,-1,1378,1401,0,0
161,-377,0,0,0,0,0,0,0,0,0,-1,1385,1401,0,0
168,-377,0,0,0,0,0,0,0,0,0,-1,1392,1401,0,0
175,-377,0,0,0,0,0,0,0,0,0,-1,1399,1401,0,0
182,-377,0,0,0,0,0,0,0,0,0,-1,1406,1401,0,0
189,-377,0,0,0,0,0,0,0,0,0,-1,1413,1401,0,0
196,-377,0,0,0,0,0,0,0,0,0,-1,1420,1401,0,0
203,-377,0,0,0,0,0,0,0,0,0,-1,1427,1401,0,0
210,-377,0,0,0,0,0,0,0,0,0,-1,1434,1401,0,0
217,-377,0,0,0,0,0,0,0,0,0,-1,1441,1401,0,0
224,-377,0,0,0,0,0,0,0,0,0,-1,1448,1401,0,0
231,-377,0,0,0,0,0,0,0,0,0,-1,1455,1401,0,0
238,-377,0,0,0,0,0,0,0,0,0,-1,1462,1401,0,0
245,-377,0,0,0,0,0,0,0,0,0,-1,1469,1401,0,0
252,-377,0,0,0,0,0,0,0,0,0,-1,1476,1401,0,0
259,-377,0,0,0,0,0,0,0,0,0,-1,1483,1401,0,0
266,-377,0,0,0,0,0,0,0,0,0,-1,1490,1401,0,0
273,-377,0,0,0,0,0,0,0,0,0,-1,1497,1401,0,0
280,-377,0,0,0,0,0,0,0,0,0,-1,1504,1401,0,0
287,-377,0,0,0,0,0,0,0,0,0,-1,1511,1401,0,0
294,-377,0,0,0,0,0,0,0,0,0,-1,1518,1401,0,0
301,-377,0,0,0,0,0,0,0,0,0,-1,1525,1401,0,0
308,-377,0,0,0,0,0,0,0,0,0,-1,1532,1401,0,0
315,-377,0,0,0,0,0,0,0,0,0,-1,1539,1401,0,0
322,-377,0,0,0,0,0,0,0,0,0,-1,1546,1401,0,0
329,-377,0,0,0,0,0,0,0,0,0,-1,1553,1401,0,0
336,-377,0,0,0,0,0,0,0,0,0,-1,1560,1401,0,0
343,-377,0,0,0,0,0,0,0,0,0,-1,1567,1401,0,0
350,-377,0,0,0,0,0,0,0,0,0,-1,1574,1401,0,0
357,-377,0,0,0,0,0,0,0,0,0,-1,1581,1401,0,0
364,-377,0,0,0,0,0,0,0,0,0,-1,1588,1401,0,0
371,-377,0,0,0,0,0,0,0,0,0,-1,1595,1401,0,0
378,-377,0,0,0,0,0,0,0,0,0,-1,1602,1401,0,0
385,-377,0,0,0,0,0,0,0,0,0,-1,1609,1401,0,0
392,-377,0,0,0,0,0,0,0,0,0,-1,1616,1401,0,0
399,-377,0,0,0,0,0,0,0,0,0,-1,1623,1401,0,0
406,-377,0,0,0,0,0,0,0,0,0,-1,1630,1401,0,0
413,-377,0,0,0,0,0,0,0,0,0,-1,1637,1401,0,0
420,-377,0,0,0,0,0,0,0,0,0,-1,1644,1401,0,0
427,-377,0,0,0,0,0,0,0,0,0,-1,1651,1401,0,0
434,-377,0,0,0,0,0,0,0,0,0,-1,1658,1401,0,0
441,-377,0,0,0,0,0,0,0,0,0,-1,1665,1401,0,0
448,-377,0,0,0,0,0,0,0,0,0,-1,1672,1401,0,0
455,-377,0,0,0,0,0,0,0,0,0,-1,1679,1401,0,0
462,-377,0,0,0,0,0,0,0,0,0,-1,1686,1401,0,0
469,-377,0,0,0,0,0,0,0,0,0,-1,1693,1401,0,0
476,-377,0,0,0,0,0,0,0,0,0,-1,1700,1401,0,0
483,-377,0,0,0,0,0,0,0,0,0,-1,1707,1401,0,0
490,-377,0,0,0,0,0,0,0,0,0,-1,1714,1401,0,0
497,-377,0,0,0,0,0,0,0,0,0,-1,1721,1401,0,0
504,-377,0,0,0,0,0,0,0,0,0,-1,1728,1401,0,0
511,-377,0,0,0,0,0,0,0,0,0,-1,1735,1401,0,0
518,-377,0,0,0,0,0,0,0,0,0,-1,1742,1401,0,0
525,-377,0,0,0,0,0,0,0,0,0,-1,1749,1401,0,0
532,-377,0,0,0,0,0,0,0,0,0,-1,1756,1401,0,0
539,-377,0,0,0,0,0,0,0,0,0,-1,1763,1401,0,0
546,-377,27.8485,2.34094,0,0,0,0,0,0,0,-1,1770,1401,27.8486,-2.34091
553,-377,27.2189,2.42493,0,0,0,0,0,0,0,-1,1777,1401,27.2188,-2.42498
560,-377,26.9808,1.78674,0,0,0,0,0,0,0,-1,1784,1401,26.9808,-1.78676
567,-377,27.4503,2.03894,0,0,0,0,0,0,0,-1,1791,1401,27.4503,-2.03893
574,-377,27.812,2.3855,0,0,0,0,0,0,0,-1,1798,1401,27.812,-2.38552
581,-377,26.3328,2.77588,0,0,0,0,0,0,0,-1,1805,1401,26.3328,-2.77582
588,-377,25.882,4.35217,0,0,0,0,0,0,0,-1,1812,1401,25.8819,-4.3522
595,-377,25.5392,5.11804,0,0,0,0,0,0,0,-1,1819,1401,25.5392,-5.11808
602,-377,24.816,5.79126,0,0,0,0,0,0,0,-1,1826,1401,24.816,-5.79124
609,-377,15.0223,4.76135,0,0,0,0,0,0,0,-1,1833,1401,15.0224,-4.76129
616,-377,14.1842,5.78992,0,0,0,0,0,0,0,-1,1840,1401,14.1842,-5.78987
623,-377,15.8248,8.76721,0,0,0,0,0,0,0,-1,1847,1401,15.8248,-8.76725
630,-377,19.9829,10.7753,0,0,0,0,0,0,0,-1,1854,1401,19.9829,-10.7753
637,-377,20.1587,10.2458,0.00132435,0.000446993,-0.00146819,0.002418,-0.000646656,-0.640226,0.0018653,0.0216313,1861,1401,20.1587,-10.2458
644,-377,20.2163,9.86194,0.00135758,0.000414886,-0.00118333,0.00215998,-0.000387515,-0.595869,0.00158503,0.0114951,1868,1401,20.2163,-9.86191
651,-377,20.2227,9.5072,0.00136054,0.000279043,-0.000846902,0.0018246,-0.000185024,-0.501274,0.00128253,0.0123262,1875,1401,20.2226,-9.50723
658,-377,20.2195,9.18982,0.00144961,0.000148825,-0.000541062,0.00164524,-4.68076e-05,-0.346947,0.00111276,0.0137997,1882,1401,20.2195,-9.18986
665,-377,20.2268,8.85876,0.00148284,6.0492e-06,-0.000167042,0.0015015,-1.26094e-05,-0.111239,0.00100523,0.0166387,1889,1401,20.2268,-8.85874
672,-377,20.2159,8.52698,0.00153053,-0.000116321,0.000196904,0.00155374,-0.000139536,0.11736,0.00108534,0.0173973,1896,1401,20.2159,-8.52695
679,-377,20.1522,8.20715,0.00167497,-0.000287641,0.000548547,0.00181788,-0.000430553,0.254862,0.00137805,0.0175699,1903,1401,20.1522,-8.2072
686,-377,20.1766,7.87,0.00191832,-0.000525449,0.000901468,0.00221487,-0.000822,0.317814,0.00181377,0.0148199,1910,1401,20.1767,-7.87001
693,-377,20.2247,7.50781,0.00242694,-0.000738996,0.00111964,0.00278288,-0.00109494,0.307806,0.00230848,0.0128622,1917,1401,20.2247,-7.50781
700,-377,20.1603,7.18689,0.00323893,-0.000944405,0.00129427,0.00360698,-0.00131245,0.277055,0.00294141,0.0359068,1924,1401,20.1603,-7.18689
707,-377,20.2289,6.74731,0,0,0,0,0,0,0,-1,1931,1401,20.2288,-6.74734
714,-377,16.5369,5.45959,0,0,0,0,0,0,0,-1,1938,1401,16.5369,-5.4596
721,-377,17.0913,5.42529,0,0,0,0,0,0,0,-1,1945,1401,17.0914,-5.42529
728,-377,14.5396,2.79724,0,0,0,0,0,0,0,-1,1952,1401,14.5396,-2.7972
735,-377,23.2977,-0.991089,0,0,0,0,0,0,0,-1,1959,1401,23.2978,0.991076
742,-377,0,0,0,0,0,0,0,0,0,-1,1966,1401,0,0
749,-377,0,0,0,0,0,0,0,0,0,-1,1973,1401,0,0
756,-377,0,0,0,0,0,0,0,0,0,-1,1980,1401,0,0
763,-377,0,0,0,0,0,0,0,0,0,-1,1987,1401,0,0
770,-377,0,0,0,0,0,0,0,0,0,-1,1994,1401,0,0
777,-377,0,0,0,0,0,0,0,0,0,-1,2001,1401,0,0
784,-377,0,0,0,0,0,0,0,0,0,-1,2008,1401,0,0
791,-377,0,0,0,0,0,0,0,0,0,-1,2015,1401,0,0
798,-377,0,0,0,0,0,0,0,0,0,-1,2022,1401,0,0
805,-377,0,0,0,0,0,0,0,0,0,-1,2029,1401,0,0
812,-377,0,0,0,0,0,0,0,0,0,-1,2036,1401,0,0
-700,-384,0,0,0,0,0,0,0,0,0,-1,524,1408,0,0
-693,-384,0,0,0,0,0,0,0,0,0,-1,531,1408,0,0
-686,-384,0,0,0,0,0,0,0,0,0,-1,538,1408,0,0
-679,-384,0,0,0,0,0,0,0,0,0,-1,545,1408,0,0
-672,-384,0,0,0,0,0,0,0,0,0,-1,552,1408,0,0
-665,-384,0,0,0,0,0,0,0,0,0,-1,559,1408,0,0
-658,-384,0,0,0,0,0,0,0,0,0,-1,566,1408,0,0
-651,-384,0,0,0,0,0,0,0,0,0,-1,573,1408,0,0
-644,-384,0,0,0,0,0,0,0,0,0,-1,580,1408,0,0
-637,-384,0,0,0,0,0,0,0,0,0,-1,587,1408,0,0
-630,-384,0,0,0,0,0,0,0,0,0,-1,594,1408,0,0
-623,-384,0,0,0,0,0,0,0,0,0,-1,601,1408,0,0
-616,-384,-10.019,-3.36646,0,0,0,0,0,0,0,-1,608,1408,-10.019,3.36648
-609,-384,-7.72357,-2.3418,0,0,0,0,0,0,0,-1,615,1408,-7.72358,2.34182
-602,-384,-11.7632,-2.85156,0,0,0,0,0,0,0,-1,622,1408,-11.7632,2.85157
-595,-384,-10.2217,2.8855,0,0,0,0,0,0,0,-1,629,1408,-10.2218,-2.88548
-588,-384,-9.64539,3.34167,0,0,0,0,0,0,0,-1,636,1408,-9.64537,-3.34165
-581,-384,-9.61896,4.8844,0,0,0,0,0,0,0,-1,643,1408,-9.61897,-4.88436
-574,-384,-9.39069,5.18359,0.00749903,-0.0110505,-0.00370054,0.00821002,-0.0117615,-0.189818,0.0115912,0.0484757,650,1408,-9.39068,-5.18355
-567,-384,-8.80249,5.38159,0.00359287,-0.00782408,-0.00382096,0.00475363,-0.00898484,-0.294929,0.00805633,0.0428045,657,1408,-8.80247,-5.38162
-560,-384,-8.5556,5.41577,0.0011671,-0.00559002,-0.00363726,0.00275285,-0.00717576,-0.411128,0.00591884,0.0432237,664,1408,-8.5556,-5.41573
-553,-384,-8.64374,5.70862,-0.000100175,-0.00384274,-0.00310158,0.00165091,-0.00559382,-0.513965,0.00438438,0.0249403,671,1408,-8.64371,-5.70857
-546,-384,-8.63074,6.11462,-0.000464443,-0.0024739,-0.00236595,0.00110128,-0.00403962,-0.584606,0.00312553,0.0145883,678,1408,-8.63072,-6.11468
-539,-384,-8.65924,6.45789,-4.12227e-05,-0.00141797,-0.00142154,0.000849847,-0.00230904,-0.559916,0.00188753,0.0167804,685,1408,-8.65924,-6.45791
-532,-384,-8.65143,6.78796,0.000964571,-0.000556474,-0.000349892,0.0010412,-0.000633101,-0.215597,0.000976181,0.0217292,692,1408,-8.65142,-6.78794
-525,-384,-8.61737,7.22595,0.00234822,0.00010204,0.000733325,0.00256643,-0.000116174,0.289224,0.00175097,0.0212526,699,1408,-8.61737,-7.22598
-518,-384,-8.65265,7.59753,0.0038599,0.000447878,0.00161201,0.00450102,-0.000193245,0.378537,0.00306713,0.0128866,706,1408,-8.65268,-7.59748
-511,-384,-8.68524,7.98657,0.00574228,0.000332332,0.00244842,0.00668581,-0.000611207,0.367828,0.00467428,0.0107039,713,1408,-8.68526,-7.9866
-504,-384,-8.67999,8.38708,0.00778631,0.000125408,0.0031791,0.00893371,-0.00102199,0.34637,0.00632406,0.0118868,720,1408,-8.67999,-8.38713
-497,-384,-8.62671,8.81006,0.0096819,-0.000479286,0.00364494,0.0108542,-0.00165153,0.311162,0.00784478,0.0247784,727,1408,-8.62668,-8.81006
-490,-384,-8.32892,9.35449,0,0,0,0,0,0,0,-1,734,1408,-8.32891,-9.35451
-483,-384,-6.26471,7.61194,0,0,0,0,0,0,0,-1,741,1408,-6.26469,-7.61191
-476,-384,-6.02734,5.67761,0,0,0,0,0,0,0,-1,748,1408,-6.02736,-5.6776
-469,-384,-10.206,2.63721,0,0,0,0,0,0,0,-1,755,1408,-10.206,-2.6372
-462,-384,-9.04291,1.43542,0,0,0,0,0,0,0,-1,762,1408,-9.04293,-1.43545
-455,-384,-7.87988,0.233765,0,0,0,0,0,0,0,-1,769,1408,-7.87986,-0.233709
-448,-384,-9.35529,7.19226,0,0,0,0,0,0,0,-1,776,1408,-9.35531,-7.19226
-441,-384,-10.4697,1.79004,0,0,0,0,0,0,0,-1,783,1408,-10.4697,-1.79003
-434,-384,-10.6449,0.552246,0,0,0,0,0,0,0,-1,790,1408,-10.6449,-0.552216
-427,-384,-10.968,1.10583,0,0,0,0,0,0,0,-1,797,1408,-10.968,-1.10588
-420,-384,-12.5607,4.54858,0,0,0,0,0,0,0,-1,804,1408,-12.5607,-4.54859
-413,-384,0,0,0,0,0,0,0,0,0,-1,811,1408,0,0
-406,-384,0,0,0,0,0,0,0,0,0,-1,818,1408,0,0
-399,-384,0,0,0,0,0,0,0,0,0,-1,825,1408,0,0
-392,-384,0,0,0,0,0,0,0,0,0,-1,832,1408,0,0
-385,-384,0,0,0,0,0,0,0,0,0,-1,839,1408,0,0
-378,-384,0,0,0,0,0,0,0,0,0,-1,846,1408,0,0
-371,-384,0,0,0,0,0,0,0,0,0,-1,853,1408,0,0
-364,-384,0,0,0,0,0,0,0,0,0,-1,860,1408,0,0
-357,-384,0,0,0,0,0,0,0,0,0,-1,867,1408,0,0
-350,-384,0,0,0,0,0,0,0,0,0,-1,874,1408,0,0
-343,-384,0,0,0,0,0,0,0,0,0,-1,881,1408,0,0
-336,-384,0,0,0,0,0,0,0,0,0,-1,888,1408,0,0
-329,-384,0,0,0,0,0,0,0,0,0,-1,895,1408,0,0
-322,-384,0,0,0,0,0,0,0,0,0,-1,902,1408,0,0
-315,-384,0,0,0,0,0,0,0,0,0,-1,909,1408,0,0
-308,-384,0,0,0,0,0,0,0,0,0,-1,916,1408,0,0
-301,-384,0,0,0,0,0,0,0,0,0,-1,923,1408,0,0
-294,-384,0,0,0,0,0,0,0,0,0,-1,930,1408,0,0
-287,-384,0,0,0,0,0,0,0,0,0,-1,937,1408,0,0
-280,-384,0,0,0,0,0,0,0,0,0,-1,944,1408,0,0
-273,-384,0,0,0,0,0,0,0,0,0,-1,951,1408,0,0
-266,-384,0,0,0,0,0,0,0,0,0,-1,958,1408,0,0
-259,-384,0,0,0,0,0,0,0,0,0,-1,965,1408,0,0
-252,-384,0,0,0,0,0,0,0,0,0,-1,972,1408,0,0
-245,-384,0,0,0,0,0,0,0,0,0,-1,979,1408,0,0
-238,-384,0,0,0,0,0,0,0,0,0,-1,986,1408,0,0
-231,-384,0,0,0,0,0,0,0,0,0,-1,993,1408,0,0
-224,-384,0,0,0,0,0,0,0,0,0,-1,1000,1408,0,0
-217,-384,0,0,0,0,0,0,0,0,0,-1,1007,1408,0,0
-210,-384,0,0,0,0,0,0,0,0,0,-1,1014,1408,0,0
-203,-384,0,0,0,0,0,0,0,0,0,-1,1021,1408,0,0
-196,-384,0,0,0,0,0,0,0,0,0,-1,1028,1408,0,0
-189,-384,0,0,0,0,0,0,0,0,0,-1,1035,1408,0,0
-182,-384,0,0,0,0,0,0,0,0,0,-1,1042,1408,0,0
-175,-384,0,0,0,0,0,0,0,0,0,-1,1049,1408,0,0
-168,-384,0,0,0,0,0,0,0,0,0,-1,1056,1408,0,0
-161,-384,0,0,0,0,0,0,0,0,0,-1,1063,1408,0,0
-154,-384,0,0,0,0,0,0,0,0,0,-1,1070,1408,0,0
-147,-384,0,0,0,0,0,0,0,0,0,-1,1077,1408,0,0
-140,-384,0,0,0,0,0,0,0,0,0,-1,1084,1408,0,0
-133,-384,0,0,0,0,0,0,0,0,0,-1,1091,1408,0,0
-126,-384,0,0,0,0,0,0,0,0,0,-1,1098,1408,0,0
-119,-384,0,0,0,0,0,0,0,0,0,-1,1105,1408,0,0
-112,-384,0,0,0,0,0,0,0,0,0,-1,1112,1408,0,0
-105,-384,0,0,0,0,0,0,0,0,0,-1,1119,1408,0,0
-98,-384,0,0,0,0,0,0,0,0,0,-1,1126,1408,0,0
-91,-384,0,0,0,0,0,0,0,0,0,-1,1133,1408,0,0
-84,-384,0,0,0,0,0,0,0,0,0,-1,1140,1408,0,0
-77,-384,0,0,0,0,0,0,0,0,0,-1,1147,1408,0,0
-70,-384,0,0,0,0,0,0,0,0,0,-1,1154,1408,0,0
-63,-384,0,0,0,0,0,0,0,0,0,-1,1161,1408,0,0
-56,-384,0,0,0,0,0,0,0,0,0,-1,1168,1408,0,0
-49,-384,0,0,0,0,0,0,0,0,0,-1,1175,1408,0,0
-42,-384,0,0,0,0,0,0,0,0,0,-1,1182,1408,0,0
-35,-384,0,0,0,0,0,0,0,0,0,-1,1189,1408,0,0
-28,-384,0,0,0,0,0,0,0,0,0,-1,1196,1408,0,0
-21,-384,0,0,0,0,0,0,0,0,0,-1,1203,1408,0,0
-14,-384,0,0,0,0,0,0,0,0,0,-1,1210,1408,0,0
-7,-384,0,0,0,0,0,0,0,0,0,-1,1217,1408,0,0
0,-384,0,0,0,0,0,0,0,0,0,-1,1224,1408,0,0
7,-384,0,0,0,0,0,0,0,0,0,-1,1231,1408,0,0
14,-384,0,0,0,0,0,0,0,0,0,-1,1238,1408,0,0
21,-384,0,0,0,0,0,0,0,0,0,-1,1245,1408,0,0
28,-384,0,0,0,0,0,0,0,0,0,-1,1252,1408,0,0
35,-384,0,0,0,0,0,0,0,0,0,-1,1259,1408,0,0
42,-384,0,0,0,0,0,0,0,0,0,-1,1266,1408,0,0
49,-384,0,0,0,0,0,0,0,0,0,-1,1273,1408,0,0
56,-384,0,0,0,0,0,0,0,0,0,-1,1280,1408,0,0
63,-384,0,0,0,0,0,0,0,0,0,-1,1287,1408,0,0
70,-384,0,0,0,0,0,0,0,0,0,-1,1294,1408,0,0
77,-384,0,0,0,0,0,0,0,0,0,-1,1301,1408,0,0
84,-384,0,0,0,0,0,0,0,0,0,-1,1308,1408,0,0
91,-384,0,0,0,0,0,0,0,0,0,-1,1315,1408,0,0
98,-384,0,0,0,0,0,0,0,0,0,-1,1322,1408,0,0
105,-384,0,0,0,0,0,0,0,0,0,-1,1329,1408,0,0
112,-384,0,0,0,0,0,0,0,0,0,-1,1336,1408,0,0
119,-384,0,0,0,0,0,0,0,0,0,-1,1343,1408,0,0
126,-384,0,0,0,0,0,0,0,0,0,-1,1350,1408,0,0
133,-384,0,0,0,0,0,0,0,0,0,-1,1357,1408,0,0
140,-384,0,0,0,0,0,0,0,0,0,-1,1364,1408,0,0
147,-384,0,0,0,0,0,0,0,0,0,-1,1371,1408,0,0
154,-384,0,0,0,0,0,0,0,0,0,-1,1378,1408,0,0
161,-384,0,0,0,0,0,0,0,0,0,-1,1385,1408,0,0
168,-384,0,0,0,0,0,0,0,0,0,-1,1392,1408,0,0
175,-384,0,0,0,0,0,0,0,0,0,-1,1399,1408,0,0
182,-384,0,0,0,0,0,0,0,0,0,-1,1406,1408,0,0
189,-384,0,0,0,0,0,0,0,0,0,-1,1413,1408,0,0
196,-384,0,0,0,0,0,0,0,0,0,-1,1420,1408,0,0
203,-384,0,0,0,0,0,0,0,0,0,-1,1427,1408,0,0
210,-384,0,0,0,0,0,0,0,0,0,-1,1434,1408,0,0
217,-384,0,0,0,0,0,0,0,0,0,-1,1441,1408,0,0
224,-384,0,0,0,0,0,0,0,0,0,-1,1448,1408,0,0
231,-384,0,0,0,0,0,0,0,0,0,-1,1455,1408,0,0
238,-384,0,0,0,0,0,0,0,0,0,-1,1462,1408,0,0
245,-384,0,0,0,0,0,0,0,0,0,-1,1469,1408,0,0
252,-384,0,0,0,0,0,0,0,0,0,-1,1476,1408,0,0
259,-384,0,0,0,0,0,0,0,0,0,-1,1483,1408,0,0
266,-384,0,0,0,0,0,0,0,0,0,-1,1490,1408,0,0
273,-384,0,0,0,0,0,0,0,0,0,-1,1497,1408,0,0
280,-384,0,0,0,0,0,0,0,0,0,-1,1504,1408,0,0
287,-384,0,0,0,0,0,0,0,0,0,-1,1511,1408,0,0
294,-384,0,0,0,0,0,0,0,0,0,-1,1518,1408,0,0
301,-384,0,0,0,0,0,0,0,0,0,-1,1525,1408,0,0
308,-384,0,0,0,0,0,0,0,0,0,-1,1532,1408,0,0
315,-384,0,0,0,0,0,0,0,0,0,-1,1539,1408,0,0
322,-384,0,0,0,0,0,0,0,0,0,-1,1546,1408,0,0
329,-384,0,0,0,0,0,0,0,0,0,-1,1553,1408,0,0
336,-384,0,0,0,0,0,0,0,0,0,-1,1560,1408,0,0
343,-384,0,0,0,0,0,0,0,0,0,-1,1567,1408,0,0
350,-384,0,0,0,0,0,0,0,0,0,-1,1574,1408,0,0
357,-384,0,0,0,0,0,0,0,0,0,-1,1581,1408,0,0
364,-384,0,0,0,0,0,0,0,0,0,-1,1588,1408,0,0
371,-384,0,0,0,0,0,0,0,0,0,-1,1595,1408,0,0
378,-384,0,0,0,0,0,0,0,0,0,-1,1602,1408,0,0
385,-384,0,0,0,0,0,0,0,0,0,-1,1609,1408,0,0
392,-384,0,0,0,0,0,0,0,0,0,-1,1616,1408,0,0
399,-384,0,0,0,0,0,0,0,0,0,-1,1623,1408,0,0
406,-384,0,0,0,0,0,0,0,0,0,-1,1630,1408,0,0
413,-384,0,0,0,0,0,0,0,0,0,-1,1637,1408,0,0
420,-384,0,0,0,0,0,0,0,0,0,-1,1644,1408,0,0
427,-384,0,0,0,0,0,0,0,0,0,-1,1651,1408,0,0
434,-384,0,0,0,0,0,0,0,0,0,-1,1658,1408,0,0
441,-384,0,0,0,0,0,0,0,0,0,-1,1665,1408,0,0
448,-384,0,0,0,0,0,0,0,0,0,-1,1672,1408,0,0
455,-384,0,0,0,0,0,0,0,0,0,-1,1679,1408,0,0
462,-384,0,0,0,0,0,0,0,0,0,-1,1686,1408,0,0
469,-384,0,0,0,0,0,0,0,0,0,-1,1693,1408,0,0
476,-384,0,0,0,0,0,0,0,0,0,-1,1700,1408,0,0
483,-384,0,0,0,0,0,0,0,0,0,-1,1707,1408,0,0
490,-384,0,0,0,0,0,0,0,0,0,-1,1714,1408,0,0
497,-384,0,0,0,0,0,0,0,0,0,-1,1721,1408,0,0
504,-384,0,0,0,0,0,0,0,0,0,-1,1728,1408,0,0
511,-384,0,0,0,0,0,0,0,0,0,-1,1735,1408,0,0
518,-384,0,0,0,0,0,0,0,0,0,-1,1742,1408,0,0
525,-384,0,0,0,0,0,0,0,0,0,-1,1749,1408,0,0
532,-384,0,0,0,0,0,0,0,0,0,-1,1756,1408,0,0
539,-384,27.6886,2.85803,0,0,0,0,0,0,0,-1,1763,1408,27.6886,-2.85807
546,-384,27.5044,2.9425,0,0,0,0,0,0,0,-1,1770,1408,27.5044,-2.94255
553,-384,27.3052,2.78394,0,0,0,0,0,0,0,-1,1777,1408,27.3051,-2.78394
560,-384,26.833,3.19812,0,0,0,0,0,0,0,-1,1784,1408,26.833,-3.19816
567,-384,32.4751,6.03601,0,0,0,0,0,0,0,-1,1791,1408,32.4751,-6.03605
574,-384,25.8635,3.7915,0,0,0,0,0,0,0,-1,1798,1408,25.8636,-3.79148
581,-384,25.819,3.91846,0,0,0,0,0,0,0,-1,1805,1408,25.8189,-3.91848
588,-384,23.3721,4.25439,0,0,0,0,0,0,0,-1,1812,1408,23.3721,-4.25442
595,-384,24.981,5.59595,0,0,0,0,0,0,0,-1,1819,1408,24.981,-5.59598
602,-384,20.6605,4.17261,0,0,0,0,0,0,0,-1,1826,1408,20.6606,-4.17265
609,-384,14.158,5.49475,0,0,0,0,0,0,0,-1,1833,1408,14.158,-5.49474
616,-384,14.7997,7.6908,0,0,0,0,0,0,0,-1,1840,1408,14.7996,-7.69079
623,-384,16.4293,9.58899,0,0,0,0,0,0,0,-1,1847,1408,16.4294,-9.58901
630,-384,19.8693,10.6156,0,0,0,0,0,0,0,-1,1854,1408,19.8693,-10.6156
637,-384,19.899,10.2356,0.000998556,0.000347054,-0.00105874,0.00178053,-0.000434919,-0.636156,0.00135545,0.0169276,1861,1408,19.8991,-10.2357
644,-384,19.8737,9.90222,0.00113675,0.000297799,-0.000829009,0.00164637,-0.000211819,-0.551181,0.00117457,0.0152661,1868,1408,19.8737,-9.90227
651,-384,19.8761,9.51062,0.00122278,0.000185903,-0.000526468,0.00144322,-3.45408e-05,-0.396542,0.000973867,0.0145805,1875,1408,19.8762,-9.51065
658,-384,19.8718,9.18408,0.00135078,8.16634e-05,-0.000240802,0.00139494,3.75097e-05,-0.181346,0.00091771,0.0149374,1882,1408,19.8719,-9.18405
665,-384,19.8805,8.88586,0.0013977,-4.47866e-05,0.000138969,0.00141097,-5.80528e-05,0.0951734,0.000960583,0.0166262,1889,1408,19.8805,-8.88587
672,-384,19.8854,8.5238,0.00146007,-0.000161593,0.000518436,0.00161164,-0.000313166,0.28444,0.0011926,0.0151193,1896,1408,19.8853,-8.5238
679,-384,19.8444,8.17456,0.00160131,-0.000345946,0.00090546,0.00195727,-0.000701908,0.374569,0.00159128,0.0154136,1903,1408,19.8444,-8.17456
686,-384,19.8473,7.86804,0.00184232,-0.000631998,0.00131861,0.00241328,-0.00120296,0.408628,0.00212646,0.012636,1910,1408,19.8473,-7.86808
693,-384,19.8856,7.53381,0.00241737,-0.000888783,0.00156165,0.00303837,-0.00150978,0.378483,0.00267485,0.0189247,1917,1408,19.8856,-7.53382
700,-384,19.6141,6.9397,0,0,0,0,0,0,0,-1,1924,1408,19.6142,-6.93967
707,-384,17.0566,6.62842,0,0,0,0,0,0,0,-1,1931,1408,17.0567,-6.62848
714,-384,16.038,5.0282,0,0,0,0,0,0,0,-1,1938,1408,16.038,-5.02819
721,-384,13.8843,2.8717,0,0,0,0,0,0,0,-1,1945,1408,13.8843,-2.87171
728,-384,15.4409,6.25745,0,0,0,0,0,0,0,-1,1952,1408,15.4409,-6.2574
735,-384,16.7598,6.71289,0,0,0,0,0,0,0,-1,1959,1408,16.7598,-6.71287
742,-384,0,0,0,0,0,0,0,0,0,-1,1966,1408,0,0
749,-384,0,0,0,0,0,0,0,0,0,-1,1973,1408,0,0
756,-384,0,0,0,0,0,0,0,0,0,-1,1980,1408,0,0
763,-384,0,0,0,0,0,0,0,0,0,-1,1987,1408,0,0
770,-384,0,0,0,0,0,0,0,0,0,-1,1994,1408,0,0
777,-384,0,0,0,0,0,0,0,0,0,-1,2001,1408,0,0
784,-384,0,0,0,0,0,0,0,0,0,-1,2008,1408,0,0
791,-384,0,0,0,0,0,0,0,0,0,-1,2015,1408,0,0
798,-384,0,0,0,0,0,0,0,0,0,-1,2022,1408,0,0
805,-384,0,0,0,0,0,0,0,0,0,-1,2029,1408,0,0
812,-384,0,0,0,0,0,0,0,0,0,-1,2036,1408,0,0
-700,-391,0,0,0,0,0,0,0,0,0,-1,524,1415,0,0
-693,-391,0,0,0,0,0,0,0,0,0,-1,531,1415,0,0
-686,-391,0,0,0,0,0,0,0,0,0,-1,538,1415,0,0
-679,-391,0,0,0,0,0,0,0,0,0,-1,545,1415,0,0
-672,-391,0,0,0,0,0,0,0,0,0,-1,552,1415,0,0
-665,-391,0,0,0,0,0,0,0,0,0,-1,559,1415,0,0
-658,-391,0,0,0,0,0,0,0,0,0,-1,566,1415,0,0
-651,-391,0,0,0,0,0,0,0,0,0,-1,573,1415,0,0
-644,-391,0,0,0,0,0,0,0,0,0,-1,580,1415,0,0
-637,-391,0,0,0,0,0,0,0,0,0,-1,587,1415,0,0
-630,-391,0,0,0,0,0,0,0,0,0,-1,594,1415,0,0
-623,-391,0,0,0,0,0,0,0,0,0,-1,601,1415,0,0
-616,-391,0,0,0,0,0,0,0,0,0,-1,608,1415,0,0
-609,-391,-7.71753,-3.69763,0,0,0,0,0,0,0,-1,615,1415,-7.71751,3.69759
-602,-391,-13.9493,-4.12805,0,0,0,0,0,0,0,-1,622,1415,-13.9493,4.12803
-595,-391,-10.8315,1.76172,0,0,0,0,0,0,0,-1,629,1415,-10.8315,-1.76171
-588,-391,-10.0066,2.41711,0,0,0,0,0,0,0,-1,636,1415,-10.0066,-2.41707
-581,-391,-9.3053,3.11084,0,0,0,0,0,0,0,-1,643,1415,-9.30531,-3.11081
-574,-391,-9.44281,5.2395,0,0,0,0,0,0,0,-1,650,1415,-9.44282,-5.2395
-567,-391,-8.43488,5.32422,0,0,0,0,0,0,0,-1,657,1415,-8.43489,-5.32417
-560,-391,-8.30951,5.86511,0,0,0,0,0,0,0,-1,664,1415,-8.30952,-5.8651
-553,-391,-8.22058,5.71985,-0.0011204,-0.00385468,-0.00311141,0.000910985,-0.00588606,-0.578397,0.0042603,0.0402056,671,1415,-8.22058,-5.71981
-546,-391,-8.27045,6.10266,-0.00171201,-0.00244644,-0.0024915,0.000439192,-0.00459764,-0.712232,0.00322149,0.0139184,678,1415,-8.27046,-6.10263
-539,-391,-8.25671,6.46924,-0.00134092,-0.00140934,-0.00161982,0.000245051,-0.00299531,-0.77484,0.00208337,0.0138425,685,1415,-8.25673,-6.46926
-532,-391,-8.23657,6.85864,-0.000347364,-0.000581578,-0.000637983,0.000184171,-0.00111311,-0.69463,0.000810471,0.0237162,692,1415,-8.2366,-6.85862
-525,-391,-8.23364,7.25891,0.00103858,4.57837e-05,0.000348747,0.00114884,-6.44774e-05,0.306219,0.000788269,0.022879,699,1415,-8.23362,-7.25886
-518,-391,-8.30042,7.61719,0.00243845,0.000392,0.00106797,0.00289426,-6.38133e-05,0.403397,0.00195113,0.0146427,706,1415,-8.30043,-7.61724
-511,-391,-8.2998,8.00159,0.00418651,0.000265552,0.00178241,0.00487565,-0.000423581,0.368928,0.00340043,0.0129488,713,1415,-8.29978,-8.0016
-504,-391,-8.28778,8.39221,0.00608666,5.65001e-05,0.00242401,0.00694024,-0.000797077,0.338576,0.00491411,0.0115765,720,1415,-8.28776,-8.39227
-497,-391,-8.2832,8.76917,0.00778902,-0.000503091,0.00277426,0.00863157,-0.00134565,0.294854,0.0062514,0.0114081,727,1415,-8.28323,-8.76919
-490,-391,-8.23138,9.22302,0.0088687,-0.00173586,0.00264776,0.00949304,-0.0023602,0.231569,0.00724473,0.033663,734,1415,-8.23137,-9.22298
-483,-391,-8.08539,9.78223,0,0,0,0,0,0,0,-1,741,1415,-8.08541,-9.78225
-476,-391,-6.05731,6.85303,0,0,0,0,0,0,0,-1,748,1415,-6.05728,-6.85304
-469,-391,-3.88953,5.0979,0,0,0,0,0,0,0,-1,755,1415,-3.88955,-5.09794
-462,-391,-8.67688,2.03125,0,0,0,0,0,0,0,-1,762,1415,-8.67685,-2.03121
-455,-391,-8.65576,6.46997,0,0,0,0,0,0,0,-1,769,1415,-8.65579,-6.46999
-448,-391,-8.39618,4.38403,0,0,0,0,0,0,0,-1,776,1415,-8.39617,-4.38405
-441,-391,-9.77704,2.5946,0,0,0,0,0,0,0,-1,783,1415,-9.77702,-2.5946
-434,-391,-11.5403,2.12878,0,0,0,0,0,0,0,-1,790,1415,-11.5403,-2.12881
-427,-391,-10.5311,2.50403,0,0,0,0,0,0,0,-1,797,1415,-10.5311,-2.504
-420,-391,-14.7087,1.24365,0,0,0,0,0,0,0,-1,804,1415,-14.7088,-1.24365
-413,-391,0,0,0,0,0,0,0,0,0,-1,811,1415,0,0
-406,-391,0,0,0,0,0,0,0,0,0,-1,818,1415,0,0
-399,-391,0,0,0,0,0,0,0,0,0,-1,825,1415,0,0
-392,-391,0,0,0,0,0,0,0,0,0,-1,832,1415,0,0
-385,-391,0,0,0,0,0,0,0,0,0,-1,839,1415,0,0
-378,-391,0,0,0,0,0,0,0,0,0,-1,846,1415,0,0
-371,-391,0,0,0,0,0,0,0,0,0,-1,853,1415,0,0
-364,-391,0,0,0,0,0,0,0,0,0,-1,860,1415,0,0
-357,-391,0,0,0,0,0,0,0,0,0,-1,867,1415,0,0
-350,-391,0,0,0,0,0,0,0,0,0,-1,874,1415,0,0
-343,-391,0,0,0,0,0,0,0,0,0,-1,881,1415,0,0
-336,-391,0,0,0,0,0,0,0,0,0,-1,888,1415,0,0
-329,-391,0,0,0,0,0,0,0,0,0,-1,895,1415,0,0
-322,-391,0,0,0,0,0,0,0,0,0,-1,902,1415,0,0
-315,-391,0,0,0,0,0,0,0,0,0,-1,909,1415,0,0
-308,-391,0,0,0,0,0,0,0,0,0,-1,916,1415,0,0
-301,-391,0,0,0,0,0,0,0,0,0,-1,923,1415,0,0
-294,-391,0,0,0,0,0,0,0,0,0,-1,930,1415,0,0
-287,-391,0,0,0,0,0,0,0,0,0,-1,937,1415,0,0
-280,-391,0,0,0,0,0,0,0,0,0,-1,944,1415,0,0
-273,-391,0,0,0,0,0,0,0,0,0,-1,951,1415,0,0
-266,-391,0,0,0,0,0,0,0,0,0,-1,958,1415,0,0
-259,-391,0,0,0,0,0,0,0,0,0,-1,965,1415,0,0
-252,-391,0,0,0,0,0,0,0,0,0,-1,972,1415,0,0
-245,-391,0,0,0,0,0,0,0,0,0,-1,979,1415,0,0
-238,-391,0,0,0,0,0,0,0,0,0,-1,986,1415,0,0
-231,-391,0,0,0,0,0,0,0,0,0,-1,993,1415,0,0
-224,-391,0,0,0,0,0,0,0,0,0,-1,1000,1415,0,0
-217,-391,0,0,0,0,0,0,0,0,0,-1,1007,1415,0,0
-210,-391,0,0,0,0,0,0,0,0,0,-1,1014,1415,0,0
-203,-391,0,0,0,0,0,0,0,0,0,-1,1021,1415,0,0
-196,-391,0,0,0,0,0,0,0,0,0,-1,1028,1415,0,0
-189,-391,0,0,0,0,0,0,0,0,0,-1,1035,1415,0,0
-182,-391,0,0,0,0,0,0,0,0,0,-1,1042,1415,0,0
-175,-391,0,0,0,0,0,0,0,0,0,-1,1049,1415,0,0
-168,-391,0,0,0,0,0,0,0,0,0,-1,1056,1415,0,0
-161,-391,0,0,0,0,0,0,0,0,0,-1,1063,1415,0,0
-154,-391,0,0,0,0,0,0,0,0,0,-1,1070,1415,0,0
-147,-391,0,0,0,0,0,0,0,0,0,-1,1077,1415,0,0
-140,-391,0,0,0,0,0,0,0,0,0,-1,1084,1415,0,0
-133,-391,0,0,0,0,0,0,0,0,0,-1,1091,1415,0,0
-126,-391,0,0,0,0,0,0,0,0,0,-1,1098,1415,0,0
-119,-391,0,0,0,0,0,0,0,0,0,-1,1105,1415,0,0
-112,-391,0,0,0,0,0,0,0,0,0,-1,1112,1415,0,0
-105,-391,0,0,0,0,0,0,0,0,0,-1,1119,1415,0,0
-98,-391,0,0,0,0,0,0,0,0,0,-1,1126,1415,0,0
-91,-391,0,0,0,0,0,0,0,0,0,-1,1133,1415,0,0
-84,-391,0,0,0,0,0,0,0,0,0,-1,1140,1415,0,0
-77,-391,0,0,0,0,0,0,0,0,0,-1,1147,1415,0,0
-70,-391,0,0,0,0,0,0,0,0,0,-1,1154,1415,0,0
-63,-391,0,0,0,0,0,0,0,0,0,-1,1161,1415,0,0
-56,-391,0,0,0,0,0,0,0,0,0,-1,1168,1415,0,0
-49,-391,0,0,0,0,0,0,0,0,0,-1,1175,1415,0,0
-42,-391,0,0,0,0,0,0,0,0,0,-1,1182,1415,0,0
-35,-391,0,0,0,0,0,0,0,0,0,-1,1189,1415,0,0
-28,-391,0,0,0,0,0,0,0,0,0,-1,1196,1415,0,0
-21,-391,0,0,0,0,0,0,0,0,0,-1,1203,1415,0,0
-14,-391,0,0,0,0,0,0,0,0,0,-1,1210,1415,0,0
-7,-391,0,0,0,0,0,0,0,0,0,-1,1217,1415,0,0
0,-391,0,0,0,0,0,0,0,0,0,-1,1224,1415,0,0
7,-391,0,0,0,0,0,0,0,0,0,-1,1231,1415,0,0
14,-391,0,0,0,0,0,0,0,0,0,-1,1238,1415,0,0
21,-391,0,0,0,0,0,0,0,0,0,-1,1245,1415,0,0
28,-391,0,0,0,0,0,0,0,0,0,-1,1252,1415,0,0
35,-391,0,0,0,0,0,0,0,0,0,-1,1259,1415,0,0
42,-391,0,0,0,0,0,0,0,0,0,-1,1266,1415,0,0
49,-391,0,0,0,0,0,0,0,0,0,-1,1273,1415,0,0
56,-391,0,0,0,0,0,0,0,0,0,-1,1280,1415,0,0
63,-391,0,0,0,0,0,0,0,0,0,-1,1287,1415,0,0
70,-391,0,0,0,0,0,0,0,0,0,-1,1294,1415,0,0
77,-391,0,0,0,0,0,0,0,0,0,-1,1301,1415,0,0
84,-391,0,0,0,0,0,0,0,0,0,-1,1308,1415,0,0
91,-391,0,0,0,0,0,0,0,0,0,-1,1315,1415,0,0
98,-391,0,0,0,0,0,0,0,0,0,-1,1322,1415,0,0
105,-391,0,0,0,0,0,0,0,0,0,-1,1329,1415,0,0
112,-391,0,0,0,0,0,0,0,0,0,-1,1336,1415,0,0
119,-391,0,0,0,0,0,0,0,0,0,-1,1343,1415,0,0
126,-391,0,0,0,0,0,0,0,0,0,-1,1350,1415,0,0
133,-391,0,0,0,0,0,0,0,0,0,-1,1357,1415,0,0
140,-391,0,0,0,0,0,0,0,0,0,-1,1364,1415,0,0
147,-391,0,0,0,0,0,0,0,0,0,-1,1371,1415,0,0
154,-391,0,0,0,0,0,0,0,0,0,-1,1378,1415,0,0
161,-391,0,0,0,0,0,0,0,0,0,-1,1385,1415,0,0
168,-391,0,0,0,0,0,0,0,0,0,-1,1392,1415,0,0
175,-391,0,0,0,0,0,0,0,0,0,-1,1399,1415,0,0
182,-391,0,0,0,0,0,0,0,0,0,-1,1406,1415,0,0
189,-391,0,0,0,0,0,0,0,0,0,-1,1413,1415,0,0
196,-391,0,0,0,0,0,0,0,0,0,-1,1420,1415,0,0
203,-391,0,0,0,0,0,0,0,0,0,-1,1427,1415,0,0
210,-391,0,0,0,0,0,0,0,0,0,-1,1434,1415,0,0
217,-391,0,0,0,0,0,0,0,0,0,-1,1441,1415,0,0
224,-391,0,0,0,0,0,0,0,0,0,-1,1448,1415,0,0
231,-391,0,0,0,0,0,0,0,0,0,-1,1455,1415,0,0
238,-391,0,0,0,0,0,0,0,0,0,-1,1462,1415,0,0
245,-391,0,0,0,0,0,0,0,0,0,-1,1469,1415,0,0
252,-391,0,0,0,0,0,0,0,0,0,-1,1476,1415,0,0
259,-391,0,0,0,0,0,0,0,0,0,-1,1483,1415,0,0
266,-391,0,0,0,0,0,0,0,0,0,-1,1490,1415,0,0
273,-391,0,0,0,0,0,0,0,0,0,-1,1497,1415,0,0
280,-391,0,0,0,0,0,0,0,0,0,-1,1504,1415,0,0
287,-391,0,0,0,0,0,0,0,0,0,-1,1511,1415,0,0
294,-391,0,0,0,0,0,0,0,0,0,-1,1518,1415,0,0
301,-391,0,0,0,0,0,0,0,0,0,-1,1525,1415,0,0
308,-391,0,0,0,0,0,0,0,0,0,-1,1532,1415,0,0
315,-391,0,0,0,0,0,0,0,0,0,-1,1539,1415,0,0
322,-391,0,0,0,0,0,0,0,0,0,-1,1546,1415,0,0
329,-391,0,0,0,0,0,0,0,0,0,-1,1553,1415,0,0
336,-391,0,0,0,0,0,0,0,0,0,-1,1560,1415,0,0
343,-391,0,0,0,0,0,0,0,0,0,-1,1567,1415,0,0
350,-391,0,0,0,0,0,0,0,0,0,-1,1574,1415,0,0
357,-391,0,0,0,0,0,0,0,0,0,-1,1581,1415,0,0
364,-391,0,0,0,0,0,0,0,0,0,-1,1588,1415,0,0
371,-391,0,0,0,0,0,0,0,0,0,-1,1595,1415,0,0
378,-391,0,0,0,0,0,0,0,0,0,-1,1602,1415,0,0
385,-391,0,0,0,0,0,0,0,0,0,-1,1609,1415,0,0
392,-391,0,0,0,0,0,0,0,0,0,-1,1616,1415,0,0
399,-391,0,0,0,0,0,0,0,0,0,-1,1623,1415,0,0
406,-391,0,0,0,0,0,0,0,0,0,-1,1630,1415,0,0
413,-391,0,0,0,0,0,0,0,0,0,-1,1637,1415,0,0
420,-391,0,0,0,0,0,0,0,0,0,-1,1644,1415,0,0
427,-391,0,0,0,0,0,0,0,0,0,-1,1651,1415,0,0
434,-391,0,0,0,0,0,0,0,0,0,-1,1658,1415,0,0
441,-391,0,0,0,0,0,0,0,0,0,-1,1665,1415,0,0
448,-391,0,0,0,0,0,0,0,0,0,-1,1672,1415,0,0
455,-391,0,0,0,0,0,0,0,0,0,-1,1679,1415,0,0
462,-391,0,0,0,0,0,0,0,0,0,-1,1686,1415,0,0
469,-391,0,0,0,0,0,0,0,0,0,-1,1693,1415,0,0
476,-391,0,0,0,0,0,0,0,0,0,-1,1700,1415,0,0
483,-391,0,0,0,0,0,0,0,0,0,-1,1707,1415,0,0
490,-391,0,0,0,0,0,0,0,0,0,-1,1714,1415,0,0
497,-391,0,0,0,0,0,0,0,0,0,-1,1721,1415,0,0
504,-391,0,0,0,0,0,0,0,0,0,-1,1728,1415,0,0
511,-391,0,0,0,0,0,0,0,0,0,-1,1735,1415,0,0
518,-391,0,0,0,0,0,0,0,0,0,-1,1742,1415,0,0
525,-391,0,0,0,0,0,0,0,0,0,-1,1749,1415,0,0
532,-391,28.5959,3.02356,0,0,0,0,0,0,0,-1,1756,1415,28.596,-3.02358
539,-391,27.5881,3.25012,0,0,0,0,0,0,0,-1,1763,1415,27.5882,-3.25016
546,-391,27.2837,3.28064,0,0,0,0,0,0,0,-1,1770,1415,27.2837,-3.28064
553,-391,32.5952,5.04553,0,0,0,0,0,0,0,-1,1777,1415,32.5952,-5.04551
560,-391,31.2947,5.67017,0,0,0,0,0,0,0,-1,1784,1415,31.2947,-5.67011
567,-391,30.1473,6.17603,0,0,0,0,0,0,0,-1,1791,1415,30.1473,-6.17602
574,-391,27.5656,5.6842,0,0,0,0,0,0,0,-1,1798,1415,27.5655,-5.68422
581,-391,25.8883,5.76123,0,0,0,0,0,0,0,-1,1805,1415,25.8883,-5.76124
588,-391,24.2717,5.47986,0,0,0,0,0,0,0,-1,1812,1415,24.2717,-5.47982
595,-391,22.8827,6.1991,0,0,0,0,0,0,0,-1,1819,1415,22.8827,-6.19909
602,-391,15.1635,5.69849,0,0,0,0,0,0,0,-1,1826,1415,15.1635,-5.69847
609,-391,14.8285,7.50476,0,0,0,0,0,0,0,-1,1833,1415,14.8285,-7.50479
616,-391,19.3031,11.2925,0,0,0,0,0,0,0,-1,1840,1415,19.303,-11.2925
623,-391,19.5272,10.8943,0,0,0,0,0,0,0,-1,1847,1415,19.5273,-10.8943
630,-391,19.611,10.5251,0.000426632,0.000698604,-0.000823443,0.00139721,-0.000271978,-0.867231,0.00103413,0.0262649,1854,1415,19.611,-10.5251
637,-391,19.5581,10.231,0.000804917,0.000423392,-0.000746705,0.00138484,-0.000156533,-0.660337,0.000979584,0.0159384,1861,1415,19.5581,-10.231
644,-391,19.5291,9.90381,0.000970945,0.000297534,-0.000542293,0.00127256,-4.08117e-06,-0.507578,0.000849737,0.0162204,1868,1415,19.5291,-9.90385
651,-391,19.5245,9.55957,0.00107471,0.000163114,-0.000261337,0.00114432,9.35085e-05,-0.2603,0.000733698,0.0160978,1875,1415,19.5245,-9.55958
658,-391,19.5394,9.20996,0.0011904,4.31904e-05,1.63328e-05,0.00119064,4.2958e-05,0.0142331,0.000779832,0.0161528,1882,1415,19.5394,-9.20991
665,-391,19.5426,8.89941,0.00120175,-9.08135e-05,0.000412783,0.00132233,-0.000211388,0.284196,0.000959807,0.013545,1889,1415,19.5426,-8.89939
672,-391,19.5352,8.54089,0.00120354,-0.000224942,0.000834806,0.00158795,-0.000609356,0.431537,0.00130988,0.0120023,1896,1415,19.5351,-8.54086
679,-391,19.5211,8.18945,0.00126114,-0.000432221,0.00129085,0.00195821,-0.00112929,0.49514,0.00180386,0.0112056,1903,1415,19.5212,-8.18949
686,-391,19.5314,7.89417,0.00138243,-0.000766333,0.00182104,0.0024224,-0.0018063,0.518888,0.00245006,0.0136755,1910,1415,19.5314,-7.89418
693,-391,19.519,7.68994,0.00181759,-0.00105025,0.00218679,0.00299866,-0.00223132,0.495205,0.00303035,0.0326548,1917,1415,19.519,-7.68996
700,-391,19.5521,7.47144,0,0,0,0,0,0,0,-1,1924,1415,19.5521,-7.47148
707,-391,12.9524,5.96851,0,0,0,0,0,0,0,-1,1931,1415,12.9524,-5.96849
714,-391,15.6875,7.67896,0,0,0,0,0,0,0,-1,1938,1415,15.6875,-7.67893
721,-391,14.1808,8.08435,0,0,0,0,0,0,0,-1,1945,1415,14.1808,-8.08439
728,-391,13.8102,7.28174,0,0,0,0,0,0,0,-1,1952,1415,13.8102,-7.28174
735,-391,0,0,0,0,0,0,0,0,0,-1,1959,1415,0,0
742,-391,0,0,0,0,0,0,0,0,0,-1,1966,1415,0,0
749,-391,0,0,0,0,0,0,0,0,0,-1,1973,1415,0,0
756,-391,0,0,0,0,0,0,0,0,0,-1,1980,1415,0,0
763,-391,0,0,0,0,0,0,0,0,0,-1,1987,1415,0,0
770,-391,0,0,0,0,0,0,0,0,0,-1,1994,1415,0,0
777,-391,0,0,0,0,0,0,0,0,0,-1,2001,1415,0,0
784,-391,0,0,0,0,0,0,0,0,0,-1,2008,1415,0,0
791,-391,0,0,0,0,0,0,0,0,0,-1,2015,1415,0,0
798,-391,0,0,0,0,0,0,0,0,0,-1,2022,1415,0,0
805,-391,0,0,0,0,0,0,0,0,0,-1,2029,1415,0,0
812,-391,0,0,0,0,0,0,0,0,0,-1,2036,1415,0,0
-700,-398,0,0,0,0,0,0,0,0,0,-1,524,1422,0,0
-693,-398,0,0,0,0,0,0,0,0,0,-1,531,1422,0,0
-686,-398,0,0,0,0,0,0,0,0,0,-1,538,1422,0,0
-679,-398,0,0,0,0,0,0,0,0,0,-1,545,1422,0,0
-672,-398,0,0,0,0,0,0,0,0,0,-1,552,1422,0,0
-665,-398,0,0,0,0,0,0,0,0,0,-1,559,1422,0,0
-658,-398,0,0,0,0,0,0,0,0,0,-1,566,1422,0,0
-651,-398,0,0,0,0,0,0,0,0,0,-1,573,1422,0,0
-644,-398,0,0,0,0,0,0,0,0,0,-1,580,1422,0,0
-637,-398,0,0,0,0,0,0,0,0,0,-1,587,1422,0,0
-630,-398,0,0,0,0,0,0,0,0,0,-1,594,1422,0,0
-623,-398,0,0,0,0,0,0,0,0,0,-1,601,1422,0,0
-616,-398,0,0,0,0,0,0,0,0,0,-1,608,1422,0,0
-609,-398,-7.47125,-4.05322,0,0,0,0,0,0,0,-1,615,1422,-7.47128,4.05317
-602,-398,-4.58868,-2.77026,0,0,0,0,0,0,0,-1,622,1422,-4.58869,2.77023
-595,-398,-12.2224,-1.82007,0,0,0,0,0,0,0,-1,629,1422,-12.2224,1.82006
-588,-398,-10.6939,1.32336,0,0,0,0,0,0,0,-1,636,1422,-10.6939,-1.32337
-581,-398,-9.76556,2.42517,0,0,0,0,0,0,0,-1,643,1422,-9.76554,-2.42513
-574,-398,-7.70233,3.64734,0,0,0,0,0,0,0,-1,650,1422,-7.70235,-3.6473
-567,-398,-7.86566,4.96912,0,0,0,0,0,0,0,-1,657,1422,-7.86564,-4.96917
-560,-398,-7.73486,5.4231,0,0,0,0,0,0,0,-1,664,1422,-7.73484,-5.42309
-553,-398,-7.76318,5.83484,-0.00276247,-0.00355231,-0.00297062,-0.000160638,-0.00615414,-0.719315,0.00405028,0.0476833,671,1422,-7.76316,-5.83487
-546,-398,-7.91827,6.10938,-0.00347352,-0.00216451,-0.00251141,-0.000223721,-0.0054143,-0.912869,0.00353732,0.0222789,678,1422,-7.91827,-6.10934
-539,-398,-7.87518,6.5199,-0.00306368,-0.00120867,-0.00174572,-0.000159364,-0.00411299,-1.02959,0.00269045,0.0127159,685,1422,-7.87516,-6.51994
-532,-398,-7.86444,6.88586,-0.00201212,-0.000476663,-0.000884879,-7.28891e-05,-0.0024159,-1.14271,0.00158686,0.0197558,692,1422,-7.86446,-6.88586
-525,-398,-7.86279,7.26599,-0.000553088,7.2646e-05,-4.85476e-06,7.26837e-05,-0.000553125,-1.56304,0.000395212,0.0191115,699,1422,-7.86278,-7.26599
-518,-398,-7.88654,7.63623,0.000831288,0.000386497,0.000587817,0.00123737,-1.95886e-05,0.60455,0.000831522,0.01804,706,1422,-7.88655,-7.6362
-511,-398,-7.8847,8.00061,0.00252036,0.000232128,0.00120182,0.00303557,-0.000283084,0.404995,0.00212437,0.0138165,713,1422,-7.88468,-8.00059
-504,-398,-7.88239,8.38892,0.0043491,7.58796e-06,0.00176384,0.00497536,-0.000618671,0.341171,0.00354119,0.0138293,720,1422,-7.88236,-8.38896
-497,-398,-7.90521,8.76013,0.00596626,-0.000478872,0.00205098,0.00656357,-0.00107618,0.283393,0.00477504,0.0104093,727,1422,-7.90519,-8.76019
-490,-398,-7.90906,9.14197,0.00683908,-0.00163584,0.00188698,0.00724024,-0.00203699,0.209473,0.00563003,0.0137485,734,1422,-7.90909,-9.14193
-483,-398,-7.74231,9.66016,0.00653117,-0.0030788,0.00126075,0.00669381,-0.00324145,0.1283,0.00585042,0.0382474,741,1422,-7.74233,-9.66019
-476,-398,-7.70605,9.96521,0,0,0,0,0,0,0,-1,748,1422,-7.70604,-9.96527
-469,-398,-7.71942,9.82959,0,0,0,0,0,0,0,-1,755,1422,-7.71944,-9.82958
-462,-398,-8.96606,8.74841,0,0,0,0,0,0,0,-1,762,1422,-8.96605,-8.74837
-455,-398,-8.08331,6.75024,0,0,0,0,0,0,0,-1,769,1422,-8.08333,-6.75022
-448,-398,-7.4505,5.25293,0,0,0,0,0,0,0,-1,776,1422,-7.4505,-5.25291
-441,-398,-7.61639,3.32141,0,0,0,0,0,0,0,-1,783,1422,-7.61637,-3.32145
-434,-398,-10.7618,3.297,0,0,0,0,0,0,0,-1,790,1422,-10.7618,-3.29704
-427,-398,-11.9061,2.24939,0,0,0,0,0,0,0,-1,797,1422,-11.9061,-2.24941
-420,-398,-13.467,2.32788,0,0,0,0,0,0,0,-1,804,1422,-13.467,-2.32787
-413,-398,-14.7983,2.15515,0,0,0,0,0,0,0,-1,811,1422,-14.7983,-2.15516
-406,-398,0,0,0,0,0,0,0,0,0,-1,818,1422,0,0
-399,-398,0,0,0,0,0,0,0,0,0,-1,825,1422,0,0
-392,-398,0,0,0,0,0,0,0,0,0,-1,832,1422,0,0
-385,-398,0,0,0,0,0,0,0,0,0,-1,839,1422,0,0
-378,-398,0,0,0,0,0,0,0,0,0,-1,846,1422,0,0
-371,-398,0,0,0,0,0,0,0,0,0,-1,853,1422,0,0
-364,-398,0,0,0,0,0,0,0,0,0,-1,860,1422,0,0
-357,-398,0,0,0,0,0,0,0,0,0,-1,867,1422,0,0
-350,-398,0,0,0,0,0,0,0,0,0,-1,874,1422,0,0
-343,-398,0,0,0,0,0,0,0,0,0,-1,881,1422,0,0
-336,-398,0,0,0,0,0,0,0,0,0,-1,888,1422,0,0
-329,-398,0,0,0,0,0,0,0,0,0,-1,895,1422,0,0
-322,-398,0,0,0,0,0,0,0,0,0,-1,902,1422,0,0
-315,-398,0,0,0,0,0,0,0,0,0,-1,909,1422,0,0
-308,-398,0,0,0,0,0,0,0,0,0,-1,916,1422,0,0
-301,-398,0,0,0,0,0,0,0,0,0,-1,923,1422,0,0
-294,-398,0,0,0,0,0,0,0,0,0,-1,930,1422,0,0
-287,-398,0,0,0,0,0,0,0,0,0,-1,937,1422,0,0
-280,-398,0,0,0,0,0,0,0,0,0,-1,944,1422,0,0
-273,-398,0,0,0,0,0,0,0,0,0,-1,951,1422,0,0
-266,-398,0,0,0,0,0,0,0,0,0,-1,958,1422,0,0
-259,-398,0,0,0,0,0,0,0,0,0,-1,965,1422,0,0
-252,-398,0,0,0,0,0,0,0,0,0,-1,972,1422,0,0
-245,-398,0,0,0,0,0,0,0,0,0,-1,979,1422,0,0
-238,-398,0,0,0,0,0,0,0,0,0,-1,986,1422,0,0
-231,-398,0,0,0,0,0,0,0,0,0,-1,993,1422,0,0
-224,-398,0,0,0,0,0,0,0,0,0,-1,1000,1422,0,0
-217,-398,0,0,0,0,0,0,0,0,0,-1,1007,1422,0,0
-210,-398,0,0,0,0,0,0,0,0,0,-1,1014,1422,0,0
-203,-398,0,0,0,0,0,0,0,0,0,-1,1021,1422,0,0
-196,-398,0,0,0,0,0,0,0,0,0,-1,1028,1422,0,0
-189,-398,0,0,0,0,0,0,0,0,0,-1,1035,1422,0,0
-182,-398,0,0,0,0,0,0,0,0,0,-1,1042,1422,0,0
-175,-398,0,0,0,0,0,0,0,0,0,-1,1049,1422,0,0
-168,-398,0,0,0,0,0,0,0,0,0,-1,1056,1422,0,0
-161,-398,0,0,0,0,0,0,0,0,0,-1,1063,1422,0,0
-154,-398,0,0,0,0,0,0,0,0,0,-1,1070,1422,0,0
-147,-398,0,0,0,0,0,0,0,0,0,-1,1077,1422,0,0
-140,-398,0,0,0,0,0,0,0,0,0,-1,1084,1422,0,0
-133,-398,0,0,0,0,0,0,0,0,0,-1,1091,1422,0,0
-126,-398,0,0,0,0,0,0,0,0,0,-1,1098,1422,0,0
-119,-398,0,0,0,0,0,0,0,0,0,-1,1105,1422,0,0
-112,-398,0,0,0,0,0,0,0,0,0,-1,1112,1422,0,0
-105,-398,0,0,0,0,0,0,0,0,0,-1,1119,1422,0,0
-98,-398,0,0,0,0,0,0,0,0,0,-1,1126,1422,0,0
-91,-398,0,0,0,0,0,0,0,0,0,-1,1133,1422,0,0
-84,-398,0,0,0,0,0,0,0,0,0,-1,1140,1422,0,0
-77,-398,0,0,0,0,0,0,0,0,0,-1,1147,1422,0,0
-70,-398,0,0,0,0,0,0,0,0,0,-1,1154,1422,0,0
-63,-398,0,0,0,0,0,0,0,0,0,-1,1161,1422,0,0
-56,-398,0,0,0,0,0,0,0,0,0,-1,1168,1422,0,0
-49,-398,0,0,0,0,0,0,0,0,0,-1,1175,1422,0,0
-42,-398,0,0,0,0,0,0,0,0,0,-1,1182,1422,0,0
-35,-398,0,0,0,0,0,0,0,0,0,-1,1189,1422,0,0
-28,-398,0,0,0,0,0,0,0,0,0,-1,1196,1422,0,0
-21,-398,0,0,0,0,0,0,0,0,0,-1,1203,1422,0,0
-14,-398,0,0,0,0,0,0,0,0,0,-1,1210,1422,0,0
-7,-398,0,0,0,0,0,0,0,0,0,-1,1217,1422,0,0
0,-398,0,0,0,0,0,0,0,0,0,-1,1224,1422,0,0
7,-398,0,0,0,0,0,0,0,0,0,-1,1231,1422,0,0
14,-398,0,0,0,0,0,0,0,0,0,-1,1238,1422,0,0
21,-398,0,0,0,0,0,0,0,0,0,-1,1245,1422,0,0
28,-398,0,0,0,0,0,0,0,0,0,-1,1252,1422,0,0
35,-398,0,0,0,0,0,0,0,0,0,-1,1259,1422,0,0
42,-398,0,0,0,0,0,0,0,0,0,-1,1266,1422,0,0
49,-398,0,0,0,0,0,0,0,0,0,-1,1273,1422,0,0
56,-398,0,0,0,0,0,0,0,0,0,-1,1280,1422,0,0
63,-398,0,0,0,0,0,0,0,0,0,-1,1287,1422,0,0
70,-398,0,0,0,0,0,0,0,0,0,-1,1294,1422,0,0
77,-398,0,0,0,0,0,0,0,0,0,-1,1301,1422,0,0
84,-398,0,0,0,0,0,0,0,0,0,-1,1308,1422,0,0
91,-398,0,0,0,0,0,0,0,0,0,-1,1315,1422,0,0
98,-398,0,0,0,0,0,0,0,0,0,-1,1322,1422,0,0
105,-398,0,0,0,0,0,0,0,0,0,-1,1329,1422,0,0
112,-398,0,0,0,0,0,0,0,0,0,-1,1336,1422,0,0
119,-398,0,0,0,0,0,0,0,0,0,-1,1343,1422,0,0
126,-398,0,0,0,0,0,0,0,0,0,-1,1350,1422,0,0
133,-398,0,0,0,0,0,0,0,0,0,-1,1357,1422,0,0
140,-398,0,0,0,0,0,0,0,0,0,-1,1364,1422,0,0
147,-398,0,0,0,0,0,0,0,0,0,-1,1371,1422,0,0
154,-398,0,0,0,0,0,0,0,0,0,-1,1378,1422,0,0
161,-398,0,0,0,0,0,0,0,0,0,-1,1385,1422,0,0
168,-398,0,0,0,0,0,0,0,0,0,-1,1392,1422,0,0
175,-398,0,0,0,0,0,0,0,0,0,-1,1399,1422,0,0
182,-398,0,0,0,0,0,0,0,0,0,-1,1406,1422,0,0
189,-398,0,0,0,0,0,0,0,0,0,-1,1413,1422,0,0
196,-398,0,0,0,0,0,0,0,0,0,-1,1420,1422,0,0
203,-398,0,0,0,0,0,0,0,0,0,-1,1427,1422,0,0
210,-398,0,0,0,0,0,0,0,0,0,-1,1434,1422,0,0
217,-398,0,0,0,0,0,0,0,0,0,-1,1441,1422,0,0
224,-398,0,0,0,0,0,0,0,0,0,-1,1448,1422,0,0
231,-398,0,0,0,0,0,0,0,0,0,-1,1455,1422,0,0
238,-398,0,0,0,0,0,0,0,0,0,-1,1462,1422,0,0
245,-398,0,0,0,0,0,0,0,0,0,-1,1469,1422,0,0
252,-398,0,0,0,0,0,0,0,0,0,-1,1476,1422,0,0
259,-398,0,0,0,0,0,0,0,0,0,-1,1483,1422,0,0
266,-398,0,0,0,0,0,0,0,0,0,-1,1490,1422,0,0
273,-398,0,0,0,0,0,0,0,0,0,-1,1497,1422,0,0
280,-398,0,0,0,0,0,0,0,0,0,-1,1504,1422,0,0
287,-398,0,0,0,0,0,0,0,0,0,-1,1511,1422,0,0
294,-398,0,0,0,0,0,0,0,0,0,-1,1518,1422,0,0
301,-398,0,0,0,0,0,0,0,0,0,-1,1525,1422,0,0
308,-398,0,0,0,0,0,0,0,0,0,-1,1532,1422,0,0
315,-398,0,0,0,0,0,0,0,0,0,-1,1539,1422,0,0
322,-398,0,0,0,0,0,0,0,0,0,-1,1546,1422,0,0
329,-398,0,0,0,0,0,0,0,0,0,-1,1553,1422,0,0
336,-398,0,0,0,0,0,0,0,0,0,-1,1560,1422,0,0
343,-398,0,0,0,0,0,0,0,0,0,-1,1567,1422,0,0
350,-398,0,0,0,0,0,0,0,0,0,-1,1574,1422,0,0
357,-398,0,0,0,0,0,0,0,0,0,-1,1581,1422,0,0
364,-398,0,0,0,0,0,0,0,0,0,-1,1588,1422,0,0
371,-398,0,0,0,0,0,0,0,0,0,-1,1595,1422,0,0
378,-398,0,0,0,0,0,0,0,0,0,-1,1602,1422,0,0
385,-398,0,0,0,0,0,0,0,0,0,-1,1609,1422,0,0
392,-398,0,0,0,0,0,0,0,0,0,-1,1616,1422,0,0
399,-398,0,0,0,0,0,0,0,0,0,-1,1623,1422,0,0
406,-398,0,0,0,0,0,0,0,0,0,-1,1630,1422,0,0
413,-398,0,0,0,0,0,0,0,0,0,-1,1637,1422,0,0
420,-398,0,0,0,0,0,0,0,0,0,-1,1644,1422,0,0
427,-398,0,0,0,0,0,0,0,0,0,-1,1651,1422,0,0
434,-398,0,0,0,0,0,0,0,0,0,-1,1658,1422,0,0
441,-398,0,0,0,0,0,0,0,0,0,-1,1665,1422,0,0
448,-398,0,0,0,0,0,0,0,0,0,-1,1672,1422,0,0
455,-398,0,0,0,0,0,0,0,0,0,-1,1679,1422,0,0
462,-398,0,0,0,0,0,0,0,0,0,-1,1686,1422,0,0
469,-398,0,0,0,0,0,0,0,0,0,-1,1693,1422,0,0
476,-398,0,0,0,0,0,0,0,0,0,-1,1700,1422,0,0
483,-398,0,0,0,0,0,0,0,0,0,-1,1707,1422,0,0
490,-398,0,0,0,0,0,0,0,0,0,-1,1714,1422,0,0
497,-398,0,0,0,0,0,0,0,0,0,-1,1721,1422,0,0
504,-398,0,0,0,0,0,0,0,0,0,-1,1728,1422,0,0
511,-398,0,0,0,0,0,0,0,0,0,-1,1735,1422,0,0
518,-398,0,0,0,0,0,0,0,0,0,-1,1742,1422,0,0
525,-398,0,0,0,0,0,0,0,0,0,-1,1749,1422,0,0
532,-398,28.4558,3.84094,0,0,0,0,0,0,0,-1,1756,1422,28.4558,-3.8409
539,-398,27.0594,3.33887,0,0,0,0,0,0,0,-1,1763,1422,27.0595,-3.3389
546,-398,31.6873,5.58582,0,0,0,0,0,0,0,-1,1770,1422,31.6872,-5.58585
553,-398,30.4392,5.92383,0,0,0,0,0,0,0,-1,1777,1422,30.4392,-5.92386
560,-398,29.1621,6.30469,0,0,0,0,0,0,0,-1,1784,1422,29.1621,-6.30469
567,-398,27.8411,6.55029,0,0,0,0,0,0,0,-1,1791,1422,27.8411,-6.55033
574,-398,26.411,6.8916,0,0,0,0,0,0,0,-1,1798,1422,26.411,-6.8916
581,-398,24.75,7.11145,0,0,0,0,0,0,0,-1,1805,1422,24.7499,-7.11142
588,-398,23.1649,7.67969,0,0,0,0,0,0,0,-1,1812,1422,23.1649,-7.67975
595,-398,21.4253,7.86023,0,0,0,0,0,0,0,-1,1819,1422,21.4253,-7.86029
602,-398,19.6857,8.04077,0,0,0,0,0,0,0,-1,1826,1422,19.6856,-8.04083
609,-398,19.2219,11.8488,0,0,0,0,0,0,0,-1,1833,1422,19.2219,-11.8488
616,-398,19.2437,11.2892,-0.000899339,0.00114848,-0.000297161,0.00119073,-0.000941589,-1.42957,0.00123389,0.0406916,1840,1422,19.2436,-11.2892
623,-398,19.2144,10.9281,-0.000232282,0.000763807,-0.000414266,0.000913578,-0.000382053,-1.22388,0.000768729,0.0185222,1847,1422,19.2144,-10.9281
630,-398,19.2335,10.578,0.00030644,0.000498311,-0.000441503,0.000854181,-4.94301e-05,-0.892381,0.000586625,0.0124496,1854,1422,19.2336,-10.578
637,-398,19.2227,10.2428,0.000575411,0.00027059,-0.000353936,0.000808357,3.76442e-05,-0.582089,0.000526805,0.0136396,1861,1422,19.2226,-10.2428
644,-398,19.1168,9.9303,0.000656087,0.00014061,-0.000157457,0.000700378,9.63188e-05,-0.274205,0.000438354,0.018691,1868,1422,19.1168,-9.93025
651,-398,19.1284,9.63086,0.000682282,4.4795e-05,0.000106404,0.000699573,2.75039e-05,0.161096,0.00045749,0.0256842,1875,1422,19.1284,-9.63084
658,-398,19.2141,9.25488,0.000702025,-2.78787e-05,0.000379468,0.000863558,-0.000189411,0.402448,0.000648135,0.0218913,1882,1422,19.2141,-9.25486
665,-398,19.2086,8.89978,0.000619543,-9.01898e-05,0.000773712,0.00111589,-0.000586534,0.570384,0.000998606,0.0149856,1889,1422,19.2087,-8.89978
672,-398,19.182,8.55237,0.000525417,-0.000168136,0.00121536,0.00144251,-0.00108523,0.646427,0.00146424,0.0127824,1896,1422,19.1821,-8.55238
679,-398,19.1545,8.21082,0.000486872,-0.000315617,0.00170502,0.00183722,-0.00166597,0.669835,0.00202337,0.0122911,1903,1422,19.1546,-8.21087
686,-398,19.2004,7.91125,0.000490612,-0.000603457,0.00231253,0.00231993,-0.00243278,0.669257,0.00274424,0.0206418,1910,1422,19.2004,-7.91129
693,-398,19.1176,7.89404,0,0,0,0,0,0,0,-1,1917,1422,19.1175,-7.89405
700,-398,14.0787,6.53918,0,0,0,0,0,0,0,-1,1924,1422,14.0787,-6.53921
707,-398,10.9731,5.479,0,0,0,0,0,0,0,-1,1931,1422,10.9732,-5.47896
714,-398,11.7313,6.17346,0,0,0,0,0,0,0,-1,1938,1422,11.7313,-6.17348
721,-398,13.9371,8.05103,0,0,0,0,0,0,0,-1,1945,1422,13.9372,-8.05102
728,-398,14.786,7.0282,0,0,0,0,0,0,0,-1,1952,1422,14.786,-7.0282
735,-398,0,0,0,0,0,0,0,0,0,-1,1959,1422,0,0
742,-398,0,0,0,0,0,0,0,0,0,-1,1966,1422,0,0
749,-398,0,0,0,0,0,0,0,0,0,-1,1973,1422,0,0
756,-398,0,0,0,0,0,0,0,0,0,-1,1980,1422,0,0
763,-398,0,0,0,0,0,0,0,0,0,-1,1987,1422,0,0
770,-398,0,0,0,0,0,0,0,0,0,-1,1994,1422,0,0
777,-398,0,0,0,0,0,0,0,0,0,-1,2001,1422,0,0
784,-398,0,0,0,0,0,0,0,0,0,-1,2008,1422,0,0
791,-398,0,0,0,0,0,0,0,0,0,-1,2015,1422,0,0
798,-398,0,0,0,0,0,0,0,0,0,-1,2022,1422,0,0
805,-398,0,0,0,0,0,0,0,0,0,-1,2029,1422,0,0
812,-398,0,0,0,0,0,0,0,0,0,-1,2036,1422,0,0
-700,-405,0,0,0,0,0,0,0,0,0,-1,524,1429,0,0
-693,-405,0,0,0,0,0,0,0,0,0,-1,531,1429,0,0
-686,-405,0,0,0,0,0,0,0,0,0,-1,538,1429,0,0
-679,-405,0,0,0,0,0,0,0,0,0,-1,545,1429,0,0
-672,-405,0,0,0,0,0,0,0,0,0,-1,552,1429,0,0
-665,-405,0,0,0,0,0,0,0,0,0,-1,559,1429,0,0
-658,-405,0,0,0,0,0,0,0,0,0,-1,566,1429,0,0
-651,-405,0,0,0,0,0,0,0,0,0,-1,573,1429,0,0
-644,-405,0,0,0,0,0,0,0,0,0,-1,580,1429,0,0
-637,-405,0,0,0,0,0,0,0,0,0,-1,587,1429,0,0
-630,-405,0,0,0,0,0,0,0,0,0,-1,594,1429,0,0
-623,-405,0,0,0,0,0,0,0,0,0,-1,601,1429,0,0
-616,-405,0,0,0,0,0,0,0,0,0,-1,608,1429,0,0
-609,-405,0,0,0,0,0,0,0,0,0,-1,615,1429,0,0
-602,-405,-5.80988,-3.46594,0,0,0,0,0,0,0,-1,622,1429,-5.80987,3.46592
-595,-405,-9.35413,2.01477,0,0,0,0,0,0,0,-1,629,1429,-9.35411,-2.01476
-588,-405,-7.35693,0.507202,0,0,0,0,0,0,0,-1,636,1429,-7.35696,-0.507187
-581,-405,-10.1284,1.62927,0,0,0,0,0,0,0,-1,643,1429,-10.1284,-1.62922
-574,-405,-9.32074,3.05896,0,0,0,0,0,0,0,-1,650,1429,-9.32077,-3.0589
-567,-405,-6.98328,4.33203,0,0,0,0,0,0,0,-1,657,1429,-6.98327,-4.33206
-560,-405,-7.16016,4.98108,0,0,0,0,0,0,0,-1,664,1429,-7.16016,-4.98108
-553,-405,-7.45813,5.66919,0,0,0,0,0,0,0,-1,671,1429,-7.45813,-5.66916
-546,-405,-7.4903,6.07947,-0.00470767,-0.00113857,-0.00143658,-0.00063218,-0.00521405,-1.2319,0.00328564,0.0331406,678,1429,-7.49029,-6.07947
-539,-405,-7.51031,6.48254,-0.00422055,-0.000365594,-0.000886263,-0.000171602,-0.00441454,-1.35531,0.00288753,0.0122903,685,1429,-7.51029,-6.48251
-532,-405,-7.50616,6.87354,-0.00313493,0.000157866,-0.000289556,0.000183135,-0.0031602,-1.48375,0.00217042,0.0148188,692,1429,-7.50614,-6.87351
-525,-405,-7.52069,7.27014,-0.0016647,0.000517261,0.000329952,0.000566064,-0.00171351,1.42395,0.00137056,0.0133426,699,1429,-7.52071,-7.27009
-518,-405,-7.51398,7.65393,-0.000359356,0.000687596,0.00066684,0.00101188,-0.000683643,1.11816,0.000985008,0.0145854,706,1429,-7.51397,-7.65387
-511,-405,-7.52228,8.01501,0.00117548,0.000419833,0.00102924,0.00189405,-0.000298742,0.60949,0.00137316,0.0154213,713,1429,-7.5223,-8.01496
-504,-405,-7.5108,8.37646,0.00281496,9.12851e-05,0.00134589,0.0033678,-0.000461563,0.389754,0.00241381,0.0177358,720,1429,-7.5108,-8.37648
-497,-405,-7.51239,8.76746,0.0042604,-0.000413733,0.00143936,0.00466808,-0.000821411,0.276008,0.00341891,0.0141495,727,1429,-7.51237,-8.76749
-490,-405,-7.53973,9.15247,0.00495822,-0.00151742,0.0011819,0.00516719,-0.00172639,0.175001,0.00414198,0.0111816,734,1429,-7.53973,-9.15253
-483,-405,-7.49414,9.58545,0.0045597,-0.00288725,0.000359868,0.00457705,-0.0029046,0.0481746,0.00435536,0.0149533,741,1429,-7.49415,-9.58541
-476,-405,-7.44025,9.97217,0.00373756,-0.00498609,-0.000749412,0.00380147,-0.00505,-0.0850752,0.00512732,0.0381551,748,1429,-7.44027,-9.97215
-469,-405,-7.59369,10.0725,0.00208883,-0.00778987,-0.00239926,0.00264071,-0.00834175,-0.226089,0.00661938,0.0476813,755,1429,-7.59366,-10.0725
-462,-405,-7.65436,10.3448,0,0,0,0,0,0,0,-1,762,1429,-7.65437,-10.3449
-455,-405,-8.41785,9.10986,0,0,0,0,0,0,0,-1,769,1429,-8.41783,-9.10982
-448,-405,-8.4649,6.82813,0,0,0,0,0,0,0,-1,776,1429,-8.46492,-6.82817
-441,-405,-6.6712,4.23767,0,0,0,0,0,0,0,-1,783,1429,-6.67121,-4.23764
-434,-405,-9.62549,3.94189,0,0,0,0,0,0,0,-1,790,1429,-9.62546,-3.94191
-427,-405,-10.9764,3.73926,0,0,0,0,0,0,0,-1,797,1429,-10.9764,-3.73923
-420,-405,-12.1187,3.68506,0,0,0,0,0,0,0,-1,804,1429,-12.1187,-3.68512
-413,-405,-13.5353,3.75659,0,0,0,0,0,0,0,-1,811,1429,-13.5353,-3.75655
-406,-405,-14.7374,3.99817,0,0,0,0,0,0,0,-1,818,1429,-14.7374,-3.99814
-399,-405,0,0,0,0,0,0,0,0,0,-1,825,1429,0,0
-392,-405,0,0,0,0,0,0,0,0,0,-1,832,1429,0,0
-385,-405,0,0,0,0,0,0,0,0,0,-1,839,1429,0,0
-378,-405,0,0,0,0,0,0,0,0,0,-1,846,1429,0,0
-371,-405,0,0,0,0,0,0,0,0,0,-1,853,1429,0,0
-364,-405,0,0,0,0,0,0,0,0,0,-1,860,1429,0,0
-357,-405,0,0,0,0,0,0,0,0,0,-1,867,1429,0,0
-350,-405,0,0,0,0,0,0,0,0,0,-1,874,1429,0,0
-343,-405,0,0,0,0,0,0,0,0,0,-1,881,1429,0,0
-336,-405,0,0,0,0,0,0,0,0,0,-1,888,1429,0,0
-329,-405,0,0,0,0,0,0,0,0,0,-1,895,1429,0,0
-322,-405,0,0,0,0,0,0,0,0,0,-1,902,1429,0,0
-315,-405,0,0,0,0,0,0,0,0,0,-1,909,1429,0,0
-308,-405,0,0,0,0,0,0,0,0,0,-1,916,1429,0,0
-301,-405,0,0,0,0,0,0,0,0,0,-1,923,1429,0,0
-294,-405,0,0,0,0,0,0,0,0,0,-1,930,1429,0,0
-287,-405,0,0,0,0,0,0,0,0,0,-1,937,1429,0,0
-280,-405,0,0,0,0,0,0,0,0,0,-1,944,1429,0,0
-273,-405,0,0,0,0,0,0,0,0,0,-1,951,1429,0,0
-266,-405,0,0,0,0,0,0,0,0,0,-1,958,1429,0,0
-259,-405,0,0,0,0,0,0,0,0,0,-1,965,1429,0,0
-252,-405,0,0,0,0,0,0,0,0,0,-1,972,1429,0,0
-245,-405,0,0,0,0,0,0,0,0,0,-1,979,1429,0,0
-238,-405,0,0,0,0,0,0,0,0,0,-1,986,1429,0,0
-231,-405,0,0,0,0,0,0,0,0,0,-1,993,1429,0,0
-224,-405,0,0,0,0,0,0,0,0,0,-1,1000,1429,0,0
-217,-405,0,0,0,0,0,0,0,0,0,-1,1007,1429,0,0
-210,-405,0,0,0,0,0,0,0,0,0,-1,1014,1429,0,0
-203,-405,0,0,0,0,0,0,0,0,0,-1,1021,1429,0,0
-196,-405,0,0,0,0,0,0,0,0,0,-1,1028,1429,0,0
-189,-405,0,0,0,0,0,0,0,0,0,-1,1035,1429,0,0
-182,-405,0,0,0,0,0,0,0,0,0,-1,1042,1429,0,0
-175,-405,0,0,0,0,0,0,0,0,0,-1,1049,1429,0,0
-168,-405,0,0,0,0,0,0,0,0,0,-1,1056,1429,0,0
-161,-405,0,0,0,0,0,0,0,0,0,-1,1063,1429,0,0
-154,-405,0,0,0,0,0,0,0,0,0,-1,1070,1429,0,0
-147,-405,0,0,0,0,0,0,0,0,0,-1,1077,1429,0,0
-140,-405,0,0,0,0,0,0,0,0,0,-1,1084,1429,0,0
-133,-405,0,0,0,0,0,0,0,0,0,-1,1091,1429,0,0
-126,-405,0,0,0,0,0,0,0,0,0,-1,1098,1429,0,0
-119,-405,0,0,0,0,0,0,0,0,0,-1,1105,1429,0,0
-112,-405,0,0,0,0,0,0,0,0,0,-1,1112,1429,0,0
-105,-405,0,0,0,0,0,0,0,0,0,-1,1119,1429,0,0
-98,-405,0,0,0,0,0,0,0,0,0,-1,1126,1429,0,0
-91,-405,0,0,0,0,0,0,0,0,0,-1,1133,1429,0,0
-84,-405,0,0,0,0,0,0,0,0,0,-1,1140,1429,0,0
-77,-405,0,0,0,0,0,0,0,0,0,-1,1147,1429,0,0
-70,-405,0,0,0,0,0,0,0,0,0,-1,1154,1429,0,0
-63,-405,0,0,0,0,0,0,0,0,0,-1,1161,1429,0,0
-56,-405,0,0,0,0,0,0,0,0,0,-1,1168,1429,0,0
-49,-405,0,0,0,0,0,0,0,0,0,-1,1175,1429,0,0
-42,-405,0,0,0,0,0,0,0,0,0,-1,1182,1429,0,0
-35,-405,0,0,0,0,0,0,0,0,0,-1,1189,1429,0,0
-28,-405,0,0,0,0,0,0,0,0,0,-1,1196,1429,0,0
-21,-405,0,0,0,0,0,0,0,0,0,-1,1203,1429,0,0
-14,-405,0,0,0,0,0,0,0,0,0,-1,1210,1429,0,0
-7,-405,0,0,0,0,0,0,0,0,0,-1,1217,1429,0,0
0,-405,0,0,0,0,0,0,0,0,0,-1,1224,1429,0,0
7,-405,0,0,0,0,0,0,0,0,0,-1,1231,1429,0,0
14,-405,0,0,0,0,0,0,0,0,0,-1,1238,1429,0,0
21,-405,0,0,0,0,0,0,0,0,0,-1,1245,1429,0,0
28,-405,0,0,0,0,0,0,0,0,0,-1,1252,1429,0,0
35,-405,0,0,0,0,0,0,0,0,0,-1,1259,1429,0,0
42,-405,0,0,0,0,0,0,0,0,0,-1,1266,1429,0,0
49,-405,0,0,0,0,0,0,0,0,0,-1,1273,1429,0,0
56,-405,0,0,0,0,0,0,0,0,0,-1,1280,1429,0,0
63,-405,0,0,0,0,0,0,0,0,0,-1,1287,1429,0,0
70,-405,0,0,0,0,0,0,0,0,0,-1,1294,1429,0,0
77,-405,0,0,0,0,0,0,0,0,0,-1,1301,1429,0,0
84,-405,0,0,0,0,0,0,0,0,0,-1,1308,1429,0,0
91,-405,0,0,0,0,0,0,0,0,0,-1,1315,1429,0,0
98,-405,0,0,0,0,0,0,0,0,0,-1,1322,1429,0,0
105,-405,0,0,0,0,0,0,0,0,0,-1,1329,1429,0,0
112,-405,0,0,0,0,0,0,0,0,0,-1,1336,1429,0,0
119,-405,0,0,0,0,0,0,0,0,0,-1,1343,1429,0,0
126,-405,0,0,0,0,0,0,0,0,0,-1,1350,1429,0,0
133,-405,0,0,0,0,0,0,0,0,0,-1,1357,1429,0,0
140,-405,0,0,0,0,0,0,0,0,0,-1,1364,1429,0,0
147,-405,0,0,0,0,0,0,0,0,0,-1,1371,1429,0,0
154,-405,0,0,0,0,0,0,0,0,0,-1,1378,1429,0,0
161,-405,0,0,0,0,0,0,0,0,0,-1,1385,1429,0,0
168,-405,0,0,0,0,0,0,0,0,0,-1,1392,1429,0,0
175,-405,0,0,0,0,0,0,0,0,0,-1,1399,1429,0,0
182,-405,0,0,0,0,0,0,0,0,0,-1,1406,1429,0,0
189,-405,0,0,0,0,0,0,0,0,0,-1,1413,1429,0,0
196,-405,0,0,0,0,0,0,0,0,0,-1,1420,1429,0,0
203,-405,0,0,0,0,0,0,0,0,0,-1,1427,1429,0,0
210,-405,0,0,0,0,0,0,0,0,0,-1,1434,1429,0,0
217,-405,0,0,0,0,0,0,0,0,0,-1,1441,1429,0,0
224,-405,0,0,0,0,0,0,0,0,0,-1,1448,1429,0,0
231,-405,0,0,0,0,0,0,0,0,0,-1,1455,1429,0,0
238,-405,0,0,0,0,0,0,0,0,0,-1,1462,1429,0,0
245,-405,0,0,0,0,0,0,0,0,0,-1,1469,1429,0,0
252,-405,0,0,0,0,0,0,0,0,0,-1,1476,1429,0,0
259,-405,0,0,0,0,0,0,0,0,0,-1,1483,1429,0,0
266,-405,0,0,0,0,0,0,0,0,0,-1,1490,1429,0,0
273,-405,0,0,0,0,0,0,0,0,0,-1,1497,1429,0,0
280,-405,0,0,0,0,0,0,0,0,0,-1,1504,1429,0,0
287,-405,0,0,0,0,0,0,0,0,0,-1,1511,1429,0,0
294,-405,0,0,0,0,0,0,0,0,0,-1,1518,1429,0,0
301,-405,0,0,0,0,0,0,0,0,0,-1,1525,1429,0,0
308,-405,0,0,0,0,0,0,0,0,0,-1,1532,1429,0,0
315,-405,0,0,0,0,0,0,0,0,0,-1,1539,1429,0,0
322,-405,0,0,0,0,0,0,0,0,0,-1,1546,1429,0,0
329,-405,0,0,0,0,0,0,0,0,0,-1,1553,1429,0,0
336,-405,0,0,0,0,0,0,0,0,0,-1,1560,1429,0,0
343,-405,0,0,0,0,0,0,0,0,0,-1,1567,1429,0,0
350,-405,0,0,0,0,0,0,0,0,0,-1,1574,1429,0,0
357,-405,0,0,0,0,0,0,0,0,0,-1,1581,1429,0,0
364,-405,0,0,0,0,0,0,0,0,0,-1,1588,1429,0,0
371,-405,0,0,0,0,0,0,0,0,0,-1,1595,1429,0,0
378,-405,0,0,0,0,0,0,0,0,0,-1,1602,1429,0,0
385,-405,0,0,0,0,0,0,0,0,0,-1,1609,1429,0,0
392,-405,0,0,0,0,0,0,0,0,0,-1,1616,1429,0,0
399,-405,0,0,0,0,0,0,0,0,0,-1,1623,1429,0,0
406,-405,0,0,0,0,0,0,0,0,0,-1,1630,1429,0,0
413,-405,0,0,0,0,0,0,0,0,0,-1,1637,1429,0,0
420,-405,0,0,0,0,0,0,0,0,0,-1,1644,1429,0,0
427,-405,0,0,0,0,0,0,0,0,0,-1,1651,1429,0,0
434,-405,0,0,0,0,0,0,0,0,0,-1,1658,1429,0,0
441,-405,0,0,0,0,0,0,0,0,0,-1,1665,1429,0,0
448,-405,0,0,0,0,0,0,0,0,0,-1,1672,1429,0,0
455,-405,0,0,0,0,0,0,0,0,0,-1,1679,1429,0,0
462,-405,0,0,0,0,0,0,0,0,0,-1,1686,1429,0,0
469,-405,0,0,0,0,0,0,0,0,0,-1,1693,1429,0,0
476,-405,0,0,0,0,0,0,0,0,0,-1,1700,1429,0,0
483,-405,0,0,0,0,0,0,0,0,0,-1,1707,1429,0,0
490,-405,0,0,0,0,0,0,0,0,0,-1,1714,1429,0,0
497,-405,0,0,0,0,0,0,0,0,0,-1,1721,1429,0,0
504,-405,0,0,0,0,0,0,0,0,0,-1,1728,1429,0,0
511,-405,0,0,0,0,0,0,0,0,0,-1,1735,1429,0,0
518,-405,0,0,0,0,0,0,0,0,0,-1,1742,1429,0,0
525,-405,31.1563,-1.40942,0,0,0,0,0,0,0,-1,1749,1429,31.1563,1.40937
532,-405,28.156,4.8783,0,0,0,0,0,0,0,-1,1756,1429,28.1561,-4.87833
539,-405,26.5133,3.02454,0,0,0,0,0,0,0,-1,1763,1429,26.5133,-3.0246
546,-405,29.5735,6.53052,0,0,0,0,0,0,0,-1,1770,1429,29.5735,-6.53049
553,-405,28.2911,6.70654,0,0,0,0,0,0,0,-1,1777,1429,28.2912,-6.70656
560,-405,26.9299,7.08472,0,0,0,0,0,0,0,-1,1784,1429,26.9299,-7.08469
567,-405,25.804,7.14661,0,0,0,0,0,0,0,-1,1791,1429,25.8039,-7.14665
574,-405,25.1151,8.07971,0,0,0,0,0,0,0,-1,1798,1429,25.1151,-8.07965
581,-405,23.5055,8.505,0,0,0,0,0,0,0,-1,1805,1429,23.5054,-8.50501
588,-405,21.7491,8.98254,0,0,0,0,0,0,0,-1,1812,1429,21.7491,-8.98254
595,-405,20.0408,9.31152,0,0,0,0,0,0,0,-1,1819,1429,20.0407,-9.31153
602,-405,18.7764,11.9268,0,0,0,0,0,0,0,-1,1826,1429,18.7763,-11.9268
609,-405,18.8734,11.6979,-0.00209536,0.00169791,0.00054626,0.00177501,-0.00217246,1.43058,0.00228292,0.0370385,1833,1429,18.8734,-11.6979
616,-405,18.856,11.3555,-0.00104393,0.00109047,1.11829e-05,0.00109052,-0.00104399,1.56556,0.00123246,0.0156375,1840,1429,18.8559,-11.3555
623,-405,18.848,10.9709,-0.000364844,0.000624654,-0.000119483,0.000638877,-0.000379068,-1.45231,0.000594057,0.0104363,1847,1429,18.8481,-10.9709
630,-405,18.8577,10.6023,0.000151902,0.000351992,-0.000186862,0.000463906,3.99878e-05,-1.03118,0.00029684,0.0109842,1854,1429,18.8576,-10.6023
637,-405,18.8534,10.2531,0.000372468,0.000148145,-8.89762e-05,0.000403474,0.000117139,-0.335317,0.000239676,0.0115101,1861,1429,18.8534,-10.2531
644,-405,18.7543,9.98621,0.000426895,9.77733e-06,0.000105624,0.000452116,-1.54439e-05,0.234395,0.000306688,0.0285801,1868,1429,18.7543,-9.98616
651,-405,18.7262,9.68384,0.000409908,-6.09323e-05,0.000367074,0.000610568,-0.000261593,0.500266,0.000516804,0.03136,1875,1429,18.7262,-9.68388
658,-405,18.8138,9.24939,0.000339185,-9.50151e-05,0.000666299,0.00082286,-0.000578691,0.627907,0.000813269,0.0234365,1882,1429,18.8138,-9.24936
665,-405,18.8496,8.8877,0.000149482,-0.00010087,0.00108785,0.00111933,-0.00107072,0.728116,0.00126453,0.018767,1889,1429,18.8496,-8.88768
672,-405,18.8538,8.57056,-8.33106e-05,-0.000129681,0.00158828,0.00148195,-0.00169494,0.7781,0.00183555,0.0220822,1896,1429,18.8537,-8.57054
679,-405,18.8722,8.23486,-0.00029301,-0.00022475,0.00215936,0.00190075,-0.00241851,0.7933,0.00249969,0.0213657,1903,1429,18.8722,-8.23486
686,-405,18.6854,7.79077,-0.000524183,-0.000478459,0.00291056,0.00240933,-0.00341197,0.789326,0.0033775,0.042287,1910,1429,18.6854,-7.79077
693,-405,18.4551,7.5647,0,0,0,0,0,0,0,-1,1917,1429,18.4551,-7.5647
700,-405,9.1958,4.02026,0,0,0,0,0,0,0,-1,1924,1429,9.19579,-4.02025
707,-405,7.40308,3.83191,0,0,0,0,0,0,0,-1,1931,1429,7.40311,-3.83194
714,-405,7.33252,3.47388,0,0,0,0,0,0,0,-1,1938,1429,7.33255,-3.47383
721,-405,9.23523,0.993896,0,0,0,0,0,0,0,-1,1945,1429,9.23523,-0.993884
728,-405,0,0,0,0,0,0,0,0,0,-1,1952,1429,0,0
735,-405,0,0,0,0,0,0,0,0,0,-1,1959,1429,0,0
742,-405,0,0,0,0,0,0,0,0,0,-1,1966,1429,0,0
749,-405,0,0,0,0,0,0,0,0,0,-1,1973,1429,0,0
756,-405,0,0,0,0,0,0,0,0,0,-1,1980,1429,0,0
763,-405,0,0,0,0,0,0,0,0,0,-1,1987,1429,0,0
770,-405,0,0,0,0,0,0,0,0,0,-1,1994,1429,0,0
777,-405,0,0,0,0,0,0,0,0,0,-1,2001,1429,0,0
784,-405,0,0,0,0,0,0,0,0,0,-1,2008,1429,0,0
791,-405,0,0,0,0,0,0,0,0,0,-1,2015,1429,0,0
798,-405,0,0,0,0,0,0,0,0,0,-1,2022,1429,0,0
805,-405,0,0,0,0,0,0,0,0,0,-1,2029,1429,0,0
812,-405,0,0,0,0,0,0,0,0,0,-1,2036,1429,0,0
-700,-412,0,0,0,0,0,0,0,0,0,-1,524,1436,0,0
-693,-412,0,0,0,0,0,0,0,0,0,-1,531,1436,0,0
-686,-412,0,0,0,0,0,0,0,0,0,-1,538,1436,0,0
-679,-412,0,0,0,0,0,0,0,0,0,-1,545,1436,0,0
-672,-412,0,0,0,0,0,0,0,0,0,-1,552,1436,0,0
-665,-412,0,0,0,0,0,0,0,0,0,-1,559,1436,0,0
-658,-412,0,0,0,0,0,0,0,0,0,-1,566,1436,0,0
-651,-412,0,0,0,0,0,0,0,0,0,-1,573,1436,0,0
-644,-412,0,0,0,0,0,0,0,0,0,-1,580,1436,0,0
-637,-412,0,0,0,0,0,0,0,0,0,-1,587,1436,0,0
-630,-412,0,0,0,0,0,0,0,0,0,-1,594,1436,0,0
-623,-412,0,0,0,0,0,0,0,0,0,-1,601,1436,0,0
-616,-412,0,0,0,0,0,0,0,0,0,-1,608,1436,0,0
-609,-412,0,0,0,0,0,0,0,0,0,-1,615,1436,0,0
-602,-412,-3.72766,-3.50012,0,0,0,0,0,0,0,-1,622,1436,-3.72764,3.50017
-595,-412,-10.3706,0.65564,0,0,0,0,0,0,0,-1,629,1436,-10.3706,-0.655672
-588,-412,-8.17957,1.94934,0,0,0,0,0,0,0,-1,636,1436,-8.17956,-1.94939
-581,-412,-6.60065,-0.0554199,0,0,0,0,0,0,0,-1,643,1436,-6.60063,0.0554733
-574,-412,-8.34131,5.25012,0,0,0,0,0,0,0,-1,650,1436,-8.34129,-5.25012
-567,-412,-7.50354,3.65454,0,0,0,0,0,0,0,-1,657,1436,-7.50356,-3.65452
-560,-412,-5.49805,5.2561,0,0,0,0,0,0,0,-1,664,1436,-5.49802,-5.25609
-553,-412,-6.65112,6.1615,0,0,0,0,0,0,0,-1,671,1436,-6.6511,-6.16152
-546,-412,-6.8335,6.2616,-0.00635151,0.000113854,-0.000154064,0.000117523,-0.00635518,-1.54699,0.0042765,0.0467181,678,1436,-6.83347,-6.26154
-539,-412,-7.09045,6.43359,-0.00572918,0.000606761,0.000104869,0.000608497,-0.00573092,1.55425,0.00403875,0.0203627,685,1436,-7.09048,-6.43363
-532,-412,-7.11908,6.88953,-0.00454176,0.00085811,0.000390256,0.000886168,-0.00456982,1.49902,0.00338087,0.013238,692,1436,-7.11909,-6.88949
-525,-412,-7.14178,7.28284,-0.00297334,0.0010007,0.000743507,0.00113525,-0.00310789,1.39177,0.00253649,0.0140032,699,1436,-7.14176,-7.28283
-518,-412,-7.14532,7.65442,-0.00163354,0.00102227,0.000865077,0.00127919,-0.00189047,1.2821,0.00184131,0.0156239,706,1436,-7.1453,-7.65442
-511,-412,-7.16602,8.02112,-0.000125274,0.00067906,0.00103117,0.00138371,-0.000829928,0.971331,0.00129131,0.0192827,713,1436,-7.166,-8.02116
-504,-412,-7.16388,8.39307,0.00145754,0.00029337,0.00117466,0.00218643,-0.000435516,0.555363,0.0016224,0.0196532,720,1436,-7.16385,-8.39309
-497,-412,-7.15454,8.80322,0.00285232,-0.000195641,0.00115971,0.0032434,-0.000586719,0.325244,0.00238205,0.0147844,727,1436,-7.15455,-8.80324
-490,-412,-7.15845,9.19312,0.00351049,-0.00120722,0.000899104,0.00367603,-0.00137276,0.182081,0.00301434,0.0116545,734,1436,-7.15846,-9.19311
-483,-412,-7.15887,9.56299,0.00318112,-0.00245381,5.87973e-05,0.00318173,-0.00245443,0.0104329,0.00326306,0.00887749,741,1436,-7.1589,-9.56296
-476,-412,-7.04718,10.0585,0.00249277,-0.00433287,-0.00098978,0.0026334,-0.0044735,-0.141137,0.00414876,0.0196994,748,1436,-7.04718,-10.0585
-469,-412,-7.08264,10.3536,0.0010222,-0.00686135,-0.00246963,0.00173195,-0.0075711,-0.279849,0.00571291,0.0349843,755,1436,-7.08265,-10.3536
-462,-412,-7.19373,10.3655,-0.00160009,-0.0108441,-0.00508186,0.000647273,-0.0130915,-0.416375,0.00895122,0.0474862,762,1436,-7.1937,-10.3655
-455,-412,-7.46948,10.6099,0,0,0,0,0,0,0,-1,769,1436,-7.46951,-10.6099
-448,-412,-7.38086,8.78186,0,0,0,0,0,0,0,-1,776,1436,-7.38088,-8.78183
-441,-412,-8.79523,9.05286,0,0,0,0,0,0,0,-1,783,1436,-8.79521,-9.0529
-434,-412,-10.6305,8.03577,0,0,0,0,0,0,0,-1,790,1436,-10.6305,-8.0358
-427,-412,-10.0004,5.15271,0,0,0,0,0,0,0,-1,797,1436,-10.0004,-5.15266
-420,-412,-10.4468,4.9043,0,0,0,0,0,0,0,-1,804,1436,-10.4468,-4.90429
-413,-412,-11.5704,4.97766,0,0,0,0,0,0,0,-1,811,1436,-11.5704,-4.97771
-406,-412,-13.1968,5.70093,0,0,0,0,0,0,0,-1,818,1436,-13.1968,-5.70096
-399,-412,-10.5506,0.771973,0,0,0,0,0,0,0,-1,825,1436,-10.5506,-0.771954
-392,-412,0,0,0,0,0,0,0,0,0,-1,832,1436,0,0
-385,-412,0,0,0,0,0,0,0,0,0,-1,839,1436,0,0
-378,-412,0,0,0,0,0,0,0,0,0,-1,846,1436,0,0
-371,-412,0,0,0,0,0,0,0,0,0,-1,853,1436,0,0
-364,-412,0,0,0,0,0,0,0,0,0,-1,860,1436,0,0
-357,-412,0,0,0,0,0,0,0,0,0,-1,867,1436,0,0
-350,-412,0,0,0,0,0,0,0,0,0,-1,874,1436,0,0
-343,-412,0,0,0,0,0,0,0,0,0,-1,881,1436,0,0
-336,-412,0,0,0,0,0,0,0,0,0,-1,888,1436,0,0
-329,-412,0,0,0,0,0,0,0,0,0,-1,895,1436,0,0
-322,-412,0,0,0,0,0,0,0,0,0,-1,902,1436,0,0
-315,-412,0,0,0,0,0,0,0,0,0,-1,909,1436,0,0
-308,-412,0,0,0,0,0,0,0,0,0,-1,916,1436,0,0
-301,-412,0,0,0,0,0,0,0,0,0,-1,923,1436,0,0
-294,-412,0,0,0,0,0,0,0,0,0,-1,930,1436,0,0
-287,-412,0,0,0,0,0,0,0,0,0,-1,937,1436,0,0
-280,-412,0,0,0,0,0,0,0,0,0,-1,944,1436,0,0
-273,-412,0,0,0,0,0,0,0,0,0,-1,951,1436,0,0
-266,-412,0,0,0,0,0,0,0,0,0,-1,958,1436,0,0
-259,-412,0,0,0,0,0,0,0,0,0,-1,965,1436,0,0
-252,-412,0,0,0,0,0,0,0,0,0,-1,972,1436,0,0
-245,-412,0,0,0,0,0,0,0,0,0,-1,979,1436,0,0
-238,-412,0,0,0,0,0,0,0,0,0,-1,986,1436,0,0
-231,-412,0,0,0,0,0,0,0,0,0,-1,993,1436,0,0
-224,-412,0,0,0,0,0,0,0,0,0,-1,1000,1436,0,0
-217,-412,0,0,0,0,0,0,0,0,0,-1,1007,1436,0,0
-210,-412,0,0,0,0,0,0,0,0,0,-1,1014,1436,0,0
-203,-412,0,0,0,0,0,0,0,0,0,-1,1021,1436,0,0
-196,-412,0,0,0,0,0,0,0,0,0,-1,1028,1436,0,0
-189,-412,0,0,0,0,0,0,0,0,0,-1,1035,1436,0,0
-182,-412,0,0,0,0,0,0,0,0,0,-1,1042,1436,0,0
-175,-412,0,0,0,0,0,0,0,0,0,-1,1049,1436,0,0
-168,-412,0,0,0,0,0,0,0,0,0,-1,1056,1436,0,0
-161,-412,0,0,0,0,0,0,0,0,0,-1,1063,1436,0,0
-154,-412,0,0,0,0,0,0,0,0,0,-1,1070,1436,0,0
-147,-412,0,0,0,0,0,0,0,0,0,-1,1077,1436,0,0
-140,-412,0,0,0,0,0,0,0,0,0,-1,1084,1436,0,0
-133,-412,0,0,0,0,0,0,0,0,0,-1,1091,1436,0,0
-126,-412,0,0,0,0,0,0,0,0,0,-1,1098,1436,0,0
-119,-412,0,0,0,0,0,0,0,0,0,-1,1105,1436,0,0
-112,-412,0,0,0,0,0,0,0,0,0,-1,1112,1436,0,0
-105,-412,0,0,0,0,0,0,0,0,0,-1,1119,1436,0,0
-98,-412,0,0,0,0,0,0,0,0,0,-1,1126,1436,0,0
-91,-412,0,0,0,0,0,0,0,0,0,-1,1133,1436,0,0
-84,-412,0,0,0,0,0,0,0,0,0,-1,1140,1436,0,0
-77,-412,0,0,0,0,0,0,0,0,0,-1,1147,1436,0,0
-70,-412,0,0,0,0,0,0,0,0,0,-1,1154,1436,0,0
-63,-412,0,0,0,0,0,0,0,0,0,-1,1161,1436,0,0
-56,-412,0,0,0,0,0,0,0,0,0,-1,1168,1436,0,0
-49,-412,0,0,0,0,0,0,0,0,0,-1,1175,1436,0,0
-42,-412,0,0,0,0,0,0,0,0,0,-1,1182,1436,0,0
-35,-412,0,0,0,0,0,0,0,0,0,-1,1189,1436,0,0
-28,-412,0,0,0,0,0,0,0,0,0,-1,1196,1436,0,0
-21,-412,0,0,0,0,0,0,0,0,0,-1,1203,1436,0,0
-14,-412,0,0,0,0,0,0,0,0,0,-1,1210,1436,0,0
-7,-412,0,0,0,0,0,0,0,0,0,-1,1217,1436,0,0
0,-412,0,0,0,0,0,0,0,0,0,-1,1224,1436,0,0
7,-412,0,0,0,0,0,0,0,0,0,-1,1231,1436,0,0
14,-412,0,0,0,0,0,0,0,0,0,-1,1238,1436,0,0
21,-412,0,0,0,0,0,0,0,0,0,-1,1245,1436,0,0
28,-412,0,0,0,0,0,0,0,0,0,-1,1252,1436,0,0
35,-412,0,0,0,0,0,0,0,0,0,-1,1259,1436,0,0
42,-412,0,0,0,0,0,0,0,0,0,-1,1266,1436,0,0
49,-412,0,0,0,0,0,0,0,0,0,-1,1273,1436,0,0
56,-412,0,0,0,0,0,0,0,0,0,-1,1280,1436,0,0
63,-412,0,0,0,0,0,0,0,0,0,-1,1287,1436,0,0
70,-412,0,0,0,0,0,0,0,0,0,-1,1294,1436,0,0
77,-412,0,0,0,0,0,0,0,0,0,-1,1301,1436,0,0
84,-412,0,0,0,0,0,0,0,0,0,-1,1308,1436,0,0
91,-412,0,0,0,0,0,0,0,0,0,-1,1315,1436,0,0
98,-412,0,0,0,0,0,0,0,0,0,-1,1322,1436,0,0
105,-412,0,0,0,0,0,0,0,0,0,-1,1329,1436,0,0
112,-412,0,0,0,0,0,0,0,0,0,-1,1336,1436,0,0
119,-412,0,0,0,0,0,0,0,0,0,-1,1343,1436,0,0
126,-412,0,0,0,0,0,0,0,0,0,-1,1350,1436,0,0
133,-412,0,0,0,0,0,0,0,0,0,-1,1357,1436,0,0
140,-412,0,0,0,0,0,0,0,0,0,-1,1364,1436,0,0
147,-412,0,0,0,0,0,0,0,0,0,-1,1371,1436,0,0
154,-412,0,0,0,0,0,0,0,0,0,-1,1378,1436,0,0
161,-412,0,0,0,0,0,0,0,0,0,-1,1385,1436,0,0
168,-412,0,0,0,0,0,0,0,0,0,-1,1392,1436,0,0
175,-412,0,0,0,0,0,0,0,0,0,-1,1399,1436,0,0
182,-412,0,0,0,0,0,0,0,0,0,-1,1406,1436,0,0
189,-412,0,0,0,0,0,0,0,0,0,-1,1413,1436,0,0
196,-412,0,0,0,0,0,0,0,0,0,-1,1420,1436,0,0
203,-412,0,0,0,0,0,0,0,0,0,-1,1427,1436,0,0
210,-412,0,0,0,0,0,0,0,0,0,-1,1434,1436,0,0
217,-412,0,0,0,0,0,0,0,0,0,-1,1441,1436,0,0
224,-412,0,0,0,0,0,0,0,0,0,-1,1448,1436,0,0
231,-412,0,0,0,0,0,0,0,0,0,-1,1455,1436,0,0
238,-412,0,0,0,0,0,0,0,0,0,-1,1462,1436,0,0
245,-412,0,0,0,0,0,0,0,0,0,-1,1469,1436,0,0
252,-412,0,0,0,0,0,0,0,0,0,-1,1476,1436,0,0
259,-412,0,0,0,0,0,0,0,0,0,-1,1483,1436,0,0
266,-412,0,0,0,0,0,0,0,0,0,-1,1490,1436,0,0
273,-412,0,0,0,0,0,0,0,0,0,-1,1497,1436,0,0
280,-412,0,0,0,0,0,0,0,0,0,-1,1504,1436,0,0
287,-412,0,0,0,0,0,0,0,0,0,-1,1511,1436,0,0
294,-412,0,0,0,0,0,0,0,0,0,-1,1518,1436,0,0
301,-412,0,0,0,0,0,0,0,0,0,-1,1525,1436,0,0
308,-412,0,0,0,0,0,0,0,0,0,-1,1532,1436,0,0
315,-412,0,0,0,0,0,0,0,0,0,-1,1539,1436,0,0
322,-412,0,0,0,0,0,0,0,0,0,-1,1546,1436,0,0
329,-412,0,0,0,0,0,0,0,0,0,-1,1553,1436,0,0
336,-412,0,0,0,0,0,0,0,0,0,-1,1560,1436,0,0
343,-412,0,0,0,0,0,0,0,0,0,-1,1567,1436,0,0
350,-412,0,0,0,0,0,0,0,0,0,-1,1574,1436,0,0
357,-412,0,0,0,0,0,0,0,0,0,-1,1581,1436,0,0
364,-412,0,0,0,0,0,0,0,0,0,-1,1588,1436,0,0
371,-412,0,0,0,0,0,0,0,0,0,-1,1595,1436,0,0
378,-412,0,0,0,0,0,0,0,0,0,-1,1602,1436,0,0
385,-412,0,0,0,0,0,0,0,0,0,-1,1609,1436,0,0
392,-412,0,0,0,0,0,0,0,0,0,-1,1616,1436,0,0
399,-412,0,0,0,0,0,0,0,0,0,-1,1623,1436,0,0
406,-412,0,0,0,0,0,0,0,0,0,-1,1630,1436,0,0
413,-412,0,0,0,0,0,0,0,0,0,-1,1637,1436,0,0
420,-412,0,0,0,0,0,0,0,0,0,-1,1644,1436,0,0
427,-412,0,0,0,0,0,0,0,0,0,-1,1651,1436,0,0
434,-412,0,0,0,0,0,0,0,0,0,-1,1658,1436,0,0
441,-412,0,0,0,0,0,0,0,0,0,-1,1665,1436,0,0
448,-412,0,0,0,0,0,0,0,0,0,-1,1672,1436,0,0
455,-412,0,0,0,0,0,0,0,0,0,-1,1679,1436,0,0
462,-412,0,0,0,0,0,0,0,0,0,-1,1686,1436,0,0
469,-412,0,0,0,0,0,0,0,0,0,-1,1693,1436,0,0
476,-412,0,0,0,0,0,0,0,0,0,-1,1700,1436,0,0
483,-412,0,0,0,0,0,0,0,0,0,-1,1707,1436,0,0
490,-412,0,0,0,0,0,0,0,0,0,-1,1714,1436,0,0
497,-412,0,0,0,0,0,0,0,0,0,-1,1721,1436,0,0
504,-412,0,0,0,0,0,0,0,0,0,-1,1728,1436,0,0
511,-412,0,0,0,0,0,0,0,0,0,-1,1735,1436,0,0
518,-412,30.1038,-2.43384,0,0,0,0,0,0,0,-1,1742,1436,30.1038,2.43383
525,-412,29.5283,-1.42493,0,0,0,0,0,0,0,-1,1749,1436,29.5283,1.42495
532,-412,28.8533,-0.386597,0,0,0,0,0,0,0,-1,1756,1436,28.8533,0.386632
539,-412,25.8654,2.74683,0,0,0,0,0,0,0,-1,1763,1436,25.8654,-2.74685
546,-412,25.4265,2.4342,0,0,0,0,0,0,0,-1,1770,1436,25.4265,-2.4342
553,-412,26.3595,7.49255,0,0,0,0,0,0,0,-1,1777,1436,26.3595,-7.4925
560,-412,24.9116,7.94324,0,0,0,0,0,0,0,-1,1784,1436,24.9116,-7.94327
567,-412,23.668,7.94531,0,0,0,0,0,0,0,-1,1791,1436,23.6679,-7.94534
574,-412,23.0142,9.17236,0,0,0,0,0,0,0,-1,1798,1436,23.0141,-9.17235
581,-412,22.2615,10.0349,0,0,0,0,0,0,0,-1,1805,1436,22.2615,-10.0349
588,-412,19.9309,10.0831,0,0,0,0,0,0,0,-1,1812,1436,19.931,-10.0832
595,-412,19.1809,12.3738,0,0,0,0,0,0,0,-1,1819,1436,19.1809,-12.3737
602,-412,18.797,12.0098,-0.0039037,0.00242601,0.00125845,0.00266703,-0.00414472,1.38156,0.00396349,0.0344271,1826,1436,18.7969,-12.0097
609,-412,18.5437,11.6588,-0.00210633,0.00163366,0.00062376,0.00173495,-0.00220762,1.40982,0.00228169,0.0113868,1833,1436,18.5437,-11.6588
616,-412,18.5437,11.3114,-0.00117071,0.00103673,0.000220432,0.00105853,-0.00119251,1.47223,0.0013004,0.00839449,1840,1436,18.5437,-11.3113
623,-412,18.5177,10.9731,-0.000545771,0.000557127,0.000107273,0.000567464,-0.000556108,1.47473,0.000648706,0.00940142,1847,1436,18.5177,-10.9732
630,-412,18.5209,10.6091,-7.12398e-05,0.000280334,4.74371e-05,0.000286622,-7.75279e-05,1.43901,0.000221494,0.0117913,1854,1436,18.5209,-10.6091
637,-412,18.5115,10.2644,9.94536e-05,9.25524e-05,0.000178862,0.000274898,-8.28919e-05,0.775753,0.000216258,0.0138723,1861,1436,18.5115,-10.2645
644,-412,18.5167,9.90442,0.0001255,-5.63096e-05,0.000391732,0.000436736,-0.000367546,0.671387,0.000464925,0.0152577,1868,1436,18.5167,-9.90442
651,-412,18.5392,9.54797,7.35976e-05,-0.000118682,0.000669491,0.000653817,-0.000698901,0.714085,0.000781136,0.0256738,1875,1436,18.5392,-9.54801
658,-412,18.498,9.20898,-7.72396e-05,-0.000132527,0.00101029,0.000905787,-0.00111555,0.77172,0.00116912,0.0170367,1882,1436,18.4981,-9.20897
665,-412,18.516,8.90161,-0.000360753,-0.000101464,0.00146239,0.00123702,-0.00169923,0.829609,0.00170223,0.0220447,1889,1436,18.516,-8.90164
672,-412,18.5408,8.58472,-0.000711956,-0.000103545,0.00201839,0.00163344,-0.00244894,0.860194,0.00237259,0.02671,1896,1436,18.5408,-8.58469
679,-412,18.5645,8.23181,-0.0010677,-0.000166554,0.00265742,0.00207822,-0.00331248,0.869376,0.0031394,0.038151,1903,1436,18.5644,-8.23185
686,-412,18.4917,7.80396,0,0,0,0,0,0,0,-1,1910,1436,18.4918,-7.80398
693,-412,11.9346,6.02344,0,0,0,0,0,0,0,-1,1917,1436,11.9346,-6.02343
700,-412,8.82764,5.8844,0,0,0,0,0,0,0,-1,1924,1436,8.82761,-5.88444
707,-412,6.59998,1.68994,0,0,0,0,0,0,0,-1,1931,1436,6.60002,-1.68995
714,-412,4.77283,-2.39832,0,0,0,0,0,0,0,-1,1938,1436,4.77288,2.39835
721,-412,0,0,0,0,0,0,0,0,0,-1,1945,1436,0,0
728,-412,0,0,0,0,0,0,0,0,0,-1,1952,1436,0,0
735,-412,0,0,0,0,0,0,0,0,0,-1,1959,1436,0,0
742,-412,0,0,0,0,0,0,0,0,0,-1,1966,1436,0,0
749,-412,0,0,0,0,0,0,0,0,0,-1,1973,1436,0,0
756,-412,0,0,0,0,0,0,0,0,0,-1,1980,1436,0,0
763,-412,0,0,0,0,0,0,0,0,0,-1,1987,1436,0,0
770,-412,0,0,0,0,0,0,0,0,0,-1,1994,1436,0,0
777,-412,0,0,0,0,0,0,0,0,0,-1,2001,1436,0,0
784,-412,0,0,0,0,0,0,0,0,0,-1,2008,1436,0,0
791,-412,0,0,0,0,0,0,0,0,0,-1,2015,1436,0,0
798,-412,0,0,0,0,0,0,0,0,0,-1,2022,1436,0,0
805,-412,0,0,0,0,0,0,0,0,0,-1,2029,1436,0,0
812,-412,0,0,0,0,0,0,0,0,0,-1,2036,1436,0,0
-700,-419,0,0,0,0,0,0,0,0,0,-1,524,1443,0,0
-693,-419,0,0,0,0,0,0,0,0,0,-1,531,1443,0,0
-686,-419,0,0,0,0,0,0,0,0,0,-1,538,1443,0,0
-679,-419,0,0,0,0,0,0,0,0,0,-1,545,1443,0,0
-672,-419,0,0,0,0,0,0,0,0,0,-1,552,1443,0,0
-665,-419,0,0,0,0,0,0,0,0,0,-1,559,1443,0,0
-658,-419,0,0,0,0,0,0,0,0,0,-1,566,1443,0,0
-651,-419,0,0,0,0,0,0,0,0,0,-1,573,1443,0,0
-644,-419,0,0,0,0,0,0,0,0,0,-1,580,1443,0,0
-637,-419,0,0,0,0,0,0,0,0,0,-1,587,1443,0,0
-630,-419,0,0,0,0,0,0,0,0,0,-1,594,1443,0,0
-623,-419,0,0,0,0,0,0,0,0,0,-1,601,1443,0,0
-616,-419,0,0,0,0,0,0,0,0,0,-1,608,1443,0,0
-609,-419,0,0,0,0,0,0,0,0,0,-1,615,1443,0,0
-602,-419,0,0,0,0,0,0,0,0,0,-1,622,1443,0,0
-595,-419,-11.4904,-0.622681,0,0,0,0,0,0,0,-1,629,1443,-11.4903,0.622714
-588,-419,-9.09369,0.742432,0,0,0,0,0,0,0,-1,636,1443,-9.09366,-0.742482
-581,-419,-6.39172,2.14673,0,0,0,0,0,0,0,-1,643,1443,-6.39175,-2.14668
-574,-419,-4.09772,3.54773,0,0,0,0,0,0,0,-1,650,1443,-4.09772,-3.54767
-567,-419,-6.14038,3.22498,0,0,0,0,0,0,0,-1,657,1443,-6.14037,-3.22497
-560,-419,-4.52814,5.22253,0,0,0,0,0,0,0,-1,664,1443,-4.52816,-5.22251
-553,-419,-5.08331,6.11829,0,0,0,0,0,0,0,-1,671,1443,-5.08331,-6.1183
-546,-419,-6.24811,6.33765,0,0,0,0,0,0,0,-1,678,1443,-6.2481,-6.33765
-539,-419,-6.47809,6.46277,-0.00728712,0.00185434,0.00164297,0.00214066,-0.00757344,1.39826,0.00589356,0.0407585,685,1443,-6.47811,-6.46273
-532,-419,-6.73779,6.88586,-0.00586993,0.00174289,0.00151051,0.00203165,-0.00615869,1.38191,0.00492474,0.0183702,692,1443,-6.7378,-6.88592
-525,-419,-6.75256,7.29309,-0.0041094,0.00160533,0.0015211,0.00198499,-0.00448905,1.3262,0.00382985,0.0129554,699,1443,-6.75254,-7.29305
-518,-419,-6.74908,7.6698,-0.002634,0.00144814,0.00138901,0.00187594,-0.0030618,1.27203,0.00287808,0.0177146,706,1443,-6.74909,-7.66981
-511,-419,-6.75085,8.04504,-0.00109559,0.00101309,0.00132083,0.00164879,-0.00173129,1.12223,0.00195168,0.0203405,713,1443,-6.75087,-8.04505
-504,-419,-6.78424,8.42737,0.000458555,0.00056739,0.00126841,0.00178255,-0.000756605,0.806836,0.00150534,0.0202223,720,1443,-6.78424,-8.42742
-497,-419,-6.776,8.81128,0.00182987,9.70282e-05,0.00113991,0.00239526,-0.000468363,0.460439,0.0017737,0.0143091,727,1443,-6.77601,-8.81125
-490,-419,-6.77179,9.19763,0.00248132,-0.000811704,0.000861744,0.00269319,-0.00102358,0.241087,0.00221687,0.0110738,734,1443,-6.77176,-9.19765
-483,-419,-6.77545,9.57056,0.00224943,-0.00191705,1.38261e-05,0.00224948,-0.0019171,0.00331837,0.00240812,0.00959108,741,1443,-6.77546,-9.5706
-476,-419,-6.7663,9.95679,0.00173612,-0.00354446,-0.00094315,0.00189952,-0.00370786,-0.171544,0.00329306,0.0110759,748,1443,-6.76632,-9.95677
-469,-419,-6.7063,10.4154,0.000522317,-0.00573424,-0.00220702,0.00122249,-0.00643441,-0.307206,0.00474984,0.0193395,755,1443,-6.70628,-10.4154
-462,-419,-6.67676,10.7253,-0.0016487,-0.0090002,-0.00431543,0.000344239,-0.0109931,-0.432638,0.00744616,0.0438463,762,1443,-6.67676,-10.7253
-455,-419,-6.57458,11.0011,0,0,0,0,0,0,0,-1,769,1443,-6.57458,-11.0011
-448,-419,-7.15277,9.36511,0,0,0,0,0,0,0,-1,776,1443,-7.15276,-9.36511
-441,-419,-7.65527,8.75574,0,0,0,0,0,0,0,-1,783,1443,-7.65525,-8.75568
-434,-419,-6.75922,7.50049,0,0,0,0,0,0,0,-1,790,1443,-6.75921,-7.50055
-427,-419,-8.23193,7.89404,0,0,0,0,0,0,0,-1,797,1443,-8.23193,-7.89404
-420,-419,-8.74091,6.36597,0,0,0,0,0,0,0,-1,804,1443,-8.74089,-6.366
-413,-419,-9.88391,6.53955,0,0,0,0,0,0,0,-1,811,1443,-9.8839,-6.53955
-406,-419,-10.3372,2.75195,0,0,0,0,0,0,0,-1,818,1443,-10.3372,-2.75201
-399,-419,-11.5999,1.40002,0,0,0,0,0,0,0,-1,825,1443,-11.5999,-1.39998
-392,-419,0,0,0,0,0,0,0,0,0,-1,832,1443,0,0
-385,-419,0,0,0,0,0,0,0,0,0,-1,839,1443,0,0
-378,-419,0,0,0,0,0,0,0,0,0,-1,846,1443,0,0
-371,-419,0,0,0,0,0,0,0,0,0,-1,853,1443,0,0
-364,-419,0,0,0,0,0,0,0,0,0,-1,860,1443,0,0
-357,-419,0,0,0,0,0,0,0,0,0,-1,867,1443,0,0
-350,-419,0,0,0,0,0,0,0,0,0,-1,874,1443,0,0
-343,-419,0,0,0,0,0,0,0,0,0,-1,881,1443,0,0
-336,-419,0,0,0,0,0,0,0,0,0,-1,888,1443,0,0
-329,-419,0,0,0,0,0,0,0,0,0,-1,895,1443,0,0
-322,-419,0,0,0,0,0,0,0,0,0,-1,902,1443,0,0
-315,-419,0,0,0,0,0,0,0,0,0,-1,909,1443,0,0
-308,-419,0,0,0,0,0,0,0,0,0,-1,916,1443,0,0
-301,-419,0,0,0,0,0,0,0,0,0,-1,923,1443,0,0
-294,-419,0,0,0,0,0,0,0,0,0,-1,930,1443,0,0
-287,-419,0,0,0,0,0,0,0,0,0,-1,937,1443,0,0
-280,-419,0,0,0,0,0,0,0,0,0,-1,944,1443,0,0
-273,-419,0,0,0,0,0,0,0,0,0,-1,951,1443,0,0
-266,-419,0,0,0,0,0,0,0,0,0,-1,958,1443,0,0
-259,-419,0,0,0,0,0,0,0,0,0,-1,965,1443,0,0
-252,-419,0,0,0,0,0,0,0,0,0,-1,972,1443,0,0
-245,-419,0,0,0,0,0,0,0,0,0,-1,979,1443,0,0
-238,-419,0,0,0,0,0,0,0,0,0,-1,986,1443,0,0
-231,-419,0,0,0,0,0,0,0,0,0,-1,993,1443,0,0
-224,-419,0,0,0,0,0,0,0,0,0,-1,1000,1443,0,0
-217,-419,0,0,0,0,0,0,0,0,0,-1,1007,1443,0,0
-210,-419,0,0,0,0,0,0,0,0,0,-1,1014,1443,0,0
-203,-419,0,0,0,0,0,0,0,0,0,-1,1021,1443,0,0
-196,-419,0,0,0,0,0,0,0,0,0,-1,1028,1443,0,0
-189,-419,0,0,0,0,0,0,0,0,0,-1,1035,1443,0,0
-182,-419,0,0,0,0,0,0,0,0,0,-1,1042,1443,0,0
-175,-419,0,0,0,0,0,0,0,0,0,-1,1049,1443,0,0
-168,-419,0,0,0,0,0,0,0,0,0,-1,1056,1443,0,0
-161,-419,0,0,0,0,0,0,0,0,0,-1,1063,1443,0,0
-154,-419,0,0,0,0,0,0,0,0,0,-1,1070,1443,0,0
-147,-419,0,0,0,0,0,0,0,0,0,-1,1077,1443,0,0
-140,-419,0,0,0,0,0,0,0,0,0,-1,1084,1443,0,0
-133,-419,0,0,0,0,0,0,0,0,0,-1,1091,1443,0,0
-126,-419,0,0,0,0,0,0,0,0,0,-1,1098,1443,0,0
-119,-419,0,0,0,0,0,0,0,0,0,-1,1105,1443,0,0
-112,-419,0,0,0,0,0,0,0,0,0,-1,1112,1443,0,0
-105,-419,0,0,0,0,0,0,0,0,0,-1,1119,1443,0,0
-98,-419,0,0,0,0,0,0,0,0,0,-1,1126,1443,0,0
-91,-419,0,0,0,0,0,0,0,0,0,-1,1133,1443,0,0
-84,-419,0,0,0,0,0,0,0,0,0,-1,1140,1443,0,0
-77,-419,0,0,0,0,0,0,0,0,0,-1,1147,1443,0,0
-70,-419,0,0,0,0,0,0,0,0,0,-1,1154,1443,0,0
-63,-419,0,0,0,0,0,0,0,0,0,-1,1161,1443,0,0
-56,-419,0,0,0,0,0,0,0,0,0,-1,1168,1443,0,0
-49,-419,0,0,0,0,0,0,0,0,0,-1,1175,1443,0,0
-42,-419,0,0,0,0,0,0,0,0,0,-1,1182,1443,0,0
-35,-419,0,0,0,0,0,0,0,0,0,-1,1189,1443,0,0
-28,-419,0,0,0,0,0,0,0,0,0,-1,1196,1443,0,0
-21,-419,0,0,0,0,0,0,0,0,0,-1,1203,1443,0,0
-14,-419,0,0,0,0,0,0,0,0,0,-1,1210,1443,0,0
-7,-419,0,0,0,0,0,0,0,0,0,-1,1217,1443,0,0
0,-419,0,0,0,0,0,0,0,0,0,-1,1224,1443,0,0
7,-419,0,0,0,0,0,0,0,0,0,-1,1231,1443,0,0
14,-419,0,0,0,0,0,0,0,0,0,-1,1238,1443,0,0
21,-419,0,0,0,0,0,0,0,0,0,-1,1245,1443,0,0
28,-419,0,0,0,0,0,0,0,0,0,-1,1252,1443,0,0
35,-419,0,0,0,0,0,0,0,0,0,-1,1259,1443,0,0
42,-419,0,0,0,0,0,0,0,0,0,-1,1266,1443,0,0
49,-419,0,0,0,0,0,0,0,0,0,-1,1273,1443,0,0
56,-419,0,0,0,0,0,0,0,0,0,-1,1280,1443,0,0
63,-419,0,0,0,0,0,0,0,0,0,-1,1287,1443,0,0
70,-419,0,0,0,0,0,0,0,0,0,-1,1294,1443,0,0
77,-419,0,0,0,0,0,0,0,0,0,-1,1301,1443,0,0
84,-419,0,0,0,0,0,0,0,0,0,-1,1308,1443,0,0
91,-419,0,0,0,0,0,0,0,0,0,-1,1315,1443,0,0
98,-419,0,0,0,0,0,0,0,0,0,-1,1322,1443,0,0
105,-419,0,0,0,0,0,0,0,0,0,-1,1329,1443,0,0
112,-419,0,0,0,0,0,0,0,0,0,-1,1336,1443,0,0
119,-419,0,0,0,0,0,0,0,0,0,-1,1343,1443,0,0
126,-419,0,0,0,0,0,0,0,0,0,-1,1350,1443,0,0
133,-419,0,0,0,0,0,0,0,0,0,-1,1357,1443,0,0
140,-419,0,0,0,0,0,0,0,0,0,-1,1364,1443,0,0
147,-419,0,0,0,0,0,0,0,0,0,-1,1371,1443,0,0
154,-419,0,0,0,0,0,0,0,0,0,-1,1378,1443,0,0
161,-419,0,0,0,0,0,0,0,0,0,-1,1385,1443,0,0
168,-419,0,0,0,0,0,0,0,0,0,-1,1392,1443,0,0
175,-419,0,0,0,0,0,0,0,0,0,-1,1399,1443,0,0
182,-419,0,0,0,0,0,0,0,0,0,-1,1406,1443,0,0
189,-419,0,0,0,0,0,0,0,0,0,-1,1413,1443,0,0
196,-419,0,0,0,0,0,0,0,0,0,-1,1420,1443,0,0
203,-419,0,0,0,0,0,0,0,0,0,-1,1427,1443,0,0
210,-419,0,0,0,0,0,0,0,0,0,-1,1434,1443,0,0
217,-419,0,0,0,0,0,0,0,0,0,-1,1441,1443,0,0
224,-419,0,0,0,0,0,0,0,0,0,-1,1448,1443,0,0
231,-419,0,0,0,0,0,0,0,0,0,-1,1455,1443,0,0
238,-419,0,0,0,0,0,0,0,0,0,-1,1462,1443,0,0
245,-419,0,0,0,0,0,0,0,0,0,-1,1469,1443,0,0
252,-419,0,0,0,0,0,0,0,0,0,-1,1476,1443,0,0
259,-419,0,0,0,0,0,0,0,0,0,-1,1483,1443,0,0
266,-419,0,0,0,0,0,0,0,0,0,-1,1490,1443,0,0
273,-419,0,0,0,0,0,0,0,0,0,-1,1497,1443,0,0
280,-419,0,0,0,0,0,0,0,0,0,-1,1504,1443,0,0
287,-419,0,0,0,0,0,0,0,0,0,-1,1511,1443,0,0
294,-419,0,0,0,0,0,0,0,0,0,-1,1518,1443,0,0
301,-419,0,0,0,0,0,0,0,0,0,-1,1525,1443,0,0
308,-419,0,0,0,0,0,0,0,0,0,-1,1532,1443,0,0
315,-419,0,0,0,0,0,0,0,0,0,-1,1539,1443,0,0
322,-419,0,0,0,0,0,0,0,0,0,-1,1546,1443,0,0
329,-419,0,0,0,0,0,0,0,0,0,-1,1553,1443,0,0
336,-419,0,0,0,0,0,0,0,0,0,-1,1560,1443,0,0
343,-419,0,0,0,0,0,0,0,0,0,-1,1567,1443,0,0
350,-419,0,0,0,0,0,0,0,0,0,-1,1574,1443,0,0
357,-419,0,0,0,0,0,0,0,0,0,-1,1581,1443,0,0
364,-419,0,0,0,0,0,0,0,0,0,-1,1588,1443,0,0
371,-419,0,0,0,0,0,0,0,0,0,-1,1595,1443,0,0
378,-419,0,0,0,0,0,0,0,0,0,-1,1602,1443,0,0
385,-419,0,0,0,0,0,0,0,0,0,-1,1609,1443,0,0
392,-419,0,0,0,0,0,0,0,0,0,-1,1616,1443,0,0
399,-419,0,0,0,0,0,0,0,0,0,-1,1623,1443,0,0
406,-419,0,0,0,0,0,0,0,0,0,-1,1630,1443,0,0
413,-419,0,0,0,0,0,0,0,0,0,-1,1637,1443,0,0
420,-419,0,0,0,0,0,0,0,0,0,-1,1644,1443,0,0
427,-419,0,0,0,0,0,0,0,0,0,-1,1651,1443,0,0
434,-419,0,0,0,0,0,0,0,0,0,-1,1658,1443,0,0
441,-419,0,0,0,0,0,0,0,0,0,-1,1665,1443,0,0
448,-419,0,0,0,0,0,0,0,0,0,-1,1672,1443,0,0
455,-419,0,0,0,0,0,0,0,0,0,-1,1679,1443,0,0
462,-419,0,0,0,0,0,0,0,0,0,-1,1686,1443,0,0
469,-419,0,0,0,0,0,0,0,0,0,-1,1693,1443,0,0
476,-419,0,0,0,0,0,0,0,0,0,-1,1700,1443,0,0
483,-419,0,0,0,0,0,0,0,0,0,-1,1707,1443,0,0
490,-419,0,0,0,0,0,0,0,0,0,-1,1714,1443,0,0
497,-419,0,0,0,0,0,0,0,0,0,-1,1721,1443,0,0
504,-419,0,0,0,0,0,0,0,0,0,-1,1728,1443,0,0
511,-419,20.3005,3.7959,0,0,0,0,0,0,0,-1,1735,1443,20.3005,-3.79584
518,-419,21.3154,2.03027,0,0,0,0,0,0,0,-1,1742,1443,21.3155,-2.03029
525,-419,28.3439,-1.24475,0,0,0,0,0,0,0,-1,1749,1443,28.3438,1.24471
532,-419,27.5902,-0.272583,0,0,0,0,0,0,0,-1,1756,1443,27.5902,0.272526
539,-419,26.5278,1.60583,0,0,0,0,0,0,0,-1,1763,1443,26.5279,-1.60579
546,-419,24.9509,2.77539,0,0,0,0,0,0,0,-1,1770,1443,24.9509,-2.77537
553,-419,24.118,3.75525,0,0,0,0,0,0,0,-1,1777,1443,24.1181,-3.75526
560,-419,11.8199,8.26343,0,0,0,0,0,0,0,-1,1784,1443,11.82,-8.26341
567,-419,21.5143,8.74719,0,0,0,0,0,0,0,-1,1791,1443,21.5143,-8.74722
574,-419,19.5886,6.46155,0,0,0,0,0,0,0,-1,1798,1443,19.5886,-6.46157
581,-419,20.7926,11.4265,0,0,0,0,0,0,0,-1,1805,1443,20.7926,-11.4265
588,-419,19.4242,12.5363,0,0,0,0,0,0,0,-1,1812,1443,19.4242,-12.5362
595,-419,18.2036,12.4042,0,0,0,0,0,0,0,-1,1819,1443,18.2036,-12.4042
602,-419,18.2136,12.0112,-0.00343892,0.00227338,0.000994295,0.0024415,-0.00360704,1.40329,0.00351367,0.0177504,1826,1443,18.2137,-12.0113
609,-419,18.1921,11.6686,-0.00189563,0.0015835,0.000508155,0.0016562,-0.00196833,1.42869,0.00209521,0.0111875,1833,1443,18.1921,-11.6686
616,-419,18.1782,11.3357,-0.00107527,0.00103566,0.00023491,0.00106148,-0.00110109,1.4613,0.00124863,0.0115508,1840,1443,18.1782,-11.3357
623,-419,18.1744,10.995,-0.000520513,0.00054556,0.000180115,0.000575169,-0.000550121,1.40787,0.00064974,0.00983021,1847,1443,18.1744,-10.995
630,-419,18.1853,10.6415,-0.000113332,0.000249959,0.000167956,0.000315709,-0.000179081,1.19767,0.000289275,0.0122783,1854,1443,18.1853,-10.6415
637,-419,18.1694,10.2993,-1.68053e-05,5.3993e-05,0.000363905,0.000384216,-0.000347029,0.833884,0.000422366,0.012992,1861,1443,18.1694,-10.2993
644,-419,18.1626,9.95667,-5.8234e-05,-0.000114596,0.000632399,0.000546612,-0.000719442,0.763132,0.000733223,0.0117213,1868,1443,18.1626,-9.95666
651,-419,18.1759,9.60254,-0.000199448,-0.000189375,0.000968775,0.000774376,-0.0011632,0.787998,0.00112614,0.0114742,1875,1443,18.1759,-9.60253
658,-419,18.1555,9.2489,-0.000493421,-0.000205297,0.00140705,0.00106505,-0.00176376,0.836413,0.00164974,0.0129094,1882,1443,18.1555,-9.24891
665,-419,18.1658,8.92664,-0.000950778,-0.000157945,0.00194609,0.00143169,-0.00254042,0.885873,0.00232289,0.0200428,1889,1443,18.1658,-8.9266
672,-419,18.2273,8.57629,-0.00152436,-0.000154004,0.00262109,0.00186999,-0.00354835,0.913242,0.00317791,0.0269966,1896,1443,18.2273,-8.57629
679,-419,18.3516,8.26721,0,0,0,0,0,0,0,-1,1903,1443,18.3516,-8.26716
686,-419,17.4127,8.03076,0,0,0,0,0,0,0,-1,1910,1443,17.4127,-8.03071
693,-419,8.76086,5.60535,0,0,0,0,0,0,0,-1,1917,1443,8.76091,-5.6054
700,-419,11.0498,4.85156,0,0,0,0,0,0,0,-1,1924,1443,11.0498,-4.85153
707,-419,9.5752,1.80042,0,0,0,0,0,0,0,-1,1931,1443,9.57523,-1.80037
714,-419,5.77576,-1.25061,0,0,0,0,0,0,0,-1,1938,1443,5.7757,1.25056
721,-419,0,0,0,0,0,0,0,0,0,-1,1945,1443,0,0
728,-419,0,0,0,0,0,0,0,0,0,-1,1952,1443,0,0
735,-419,0,0,0,0,0,0,0,0,0,-1,1959,1443,0,0
742,-419,0,0,0,0,0,0,0,0,0,-1,1966,1443,0,0
749,-419,0,0,0,0,0,0,0,0,0,-1,1973,1443,0,0
756,-419,0,0,0,0,0,0,0,0,0,-1,1980,1443,0,0
763,-419,0,0,0,0,0,0,0,0,0,-1,1987,1443,0,0
770,-419,0,0,0,0,0,0,0,0,0,-1,1994,1443,0,0
777,-419,0,0,0,0,0,0,0,0,0,-1,2001,1443,0,0
784,-419,0,0,0,0,0,0,0,0,0,-1,2008,1443,0,0
791,-419,0,0,0,0,0,0,0,0,0,-1,2015,1443,0,0
798,-419,0,0,0,0,0,0,0,0,0,-1,2022,1443,0,0
805,-419,0,0,0,0,0,0,0,0,0,-1,2029,1443,0,0
812,-419,0,0,0,0,0,0,0,0,0,-1,2036,1443,0,0
-700,-426,0,0,0,0,0,0,0,0,0,-1,524,1450,0,0
-693,-426,0,0,0,0,0,0,0,0,0,-1,531,1450,0,0
-686,-426,0,0,0,0,0,0,0,0,0,-1,538,1450,0,0
-679,-426,0,0,0,0,0,0,0,0,0,-1,545,1450,0,0
-672,-426,0,0,0,0,0,0,0,0,0,-1,552,1450,0,0
-665,-426,0,0,0,0,0,0,0,0,0,-1,559,1450,0,0
-658,-426,0,0,0,0,0,0,0,0,0,-1,566,1450,0,0
-651,-426,0,0,0,0,0,0,0,0,0,-1,573,1450,0,0
-644,-426,0,0,0,0,0,0,0,0,0,-1,580,1450,0,0
-637,-426,0,0,0,0,0,0,0,0,0,-1,587,1450,0,0
-630,-426,0,0,0,0,0,0,0,0,0,-1,594,1450,0,0
-623,-426,0,0,0,0,0,0,0,0,0,-1,601,1450,0,0
-616,-426,0,0,0,0,0,0,0,0,0,-1,608,1450,0,0
-609,-426,0,0,0,0,0,0,0,0,0,-1,615,1450,0,0
-602,-426,0,0,0,0,0,0,0,0,0,-1,622,1450,0,0
-595,-426,0,0,0,0,0,0,0,0,0,-1,629,1450,0,0
-588,-426,-10.184,-0.554321,0,0,0,0,0,0,0,-1,636,1450,-10.184,0.554321
-581,-426,-7.3349,1.48157,0,0,0,0,0,0,0,-1,643,1450,-7.33491,-1.48152
-574,-426,-5.02856,2.89319,0,0,0,0,0,0,0,-1,650,1450,-5.02858,-2.89319
-567,-426,-3.04797,1.72644,0,0,0,0,0,0,0,-1,657,1450,-3.04797,-1.72639
-560,-426,-5.55682,3.44397,0,0,0,0,0,0,0,-1,664,1450,-5.55684,-3.44399
-553,-426,-4.67017,6.66614,0,0,0,0,0,0,0,-1,671,1450,-4.67015,-6.66619
-546,-426,-5.44092,5.62268,0,0,0,0,0,0,0,-1,678,1450,-5.44094,-5.62264
-539,-426,-5.79181,6.35706,-0.00858479,0.00348311,0.00381676,0.00458892,-0.0096906,1.28879,0.00841785,0.0433397,685,1450,-5.79182,-6.35709
-532,-426,-6.23737,6.89111,-0.00685519,0.0028508,0.00311036,0.00376199,-0.00776639,1.28582,0.00678844,0.0364651,692,1450,-6.23734,-6.89105
-525,-426,-6.38519,7.26685,-0.00487633,0.00232696,0.00265651,0.00320068,-0.00575006,1.25304,0.00523712,0.0166385,699,1450,-6.3852,-7.26679
-518,-426,-6.35382,7.68506,-0.00323939,0.00192491,0.00219396,0.00273112,-0.0040456,1.21865,0.003937,0.0167131,706,1450,-6.35383,-7.68501
-511,-426,-6.34985,8.07239,-0.00170377,0.001365,0.00182893,0.00221794,-0.00255671,1.13442,0.00275896,0.0159007,713,1450,-6.34983,-8.07237
-504,-426,-6.3916,8.44263,-0.000232119,0.000835,0.00153359,0.0019252,-0.00132232,0.952806,0.0018857,0.0155517,720,1450,-6.39157,-8.44265
-497,-426,-6.38538,8.81079,0.00107213,0.000370063,0.00126295,0.00203193,-0.000589733,0.649846,0.00158812,0.0126376,727,1450,-6.38538,-8.81075
-490,-426,-6.38593,9.19324,0.00170117,-0.000439748,0.00094192,0.00205658,-0.000795155,0.360805,0.00169929,0.0118654,734,1450,-6.3859,-9.19323
-483,-426,-6.39691,9.57764,0.00155635,-0.00141104,7.9765e-05,0.00155849,-0.00141318,0.0268547,0.00171638,0.011419,741,1450,-6.39691,-9.57765
-476,-426,-6.40308,9.94873,0.00119511,-0.00281007,-0.000813576,0.00135407,-0.00296902,-0.192946,0.00255333,0.00935032,748,1450,-6.40309,-9.94869
-469,-426,-6.41333,10.3127,0.000213637,-0.00470241,-0.00192718,0.000879057,-0.00536783,-0.332465,0.0039047,0.00792219,755,1450,-6.41335,-10.3127
-462,-426,-6.28143,10.8243,-0.0015593,-0.00735716,-0.00365184,0.000204362,-0.00912082,-0.449915,0.0061498,0.0238729,762,1450,-6.28142,-10.8243
-455,-426,-6.11108,11.4017,0,0,0,0,0,0,0,-1,769,1450,-6.1111,-11.4018
-448,-426,-6.40594,9.99841,0,0,0,0,0,0,0,-1,776,1450,-6.40596,-9.99836
-441,-426,-6.24744,9.5603,0,0,0,0,0,0,0,-1,783,1450,-6.24742,-9.56026
-434,-426,-8.6073,10.1146,0,0,0,0,0,0,0,-1,790,1450,-8.60727,-10.1146
-427,-426,-5.90222,8.90906,0,0,0,0,0,0,0,-1,797,1450,-5.9022,-8.90905
-420,-426,-5.33765,7.95044,0,0,0,0,0,0,0,-1,804,1450,-5.33766,-7.95041
-413,-426,-10.1148,5.0415,0,0,0,0,0,0,0,-1,811,1450,-10.1148,-5.04152
-406,-426,-11.4199,3.6438,0,0,0,0,0,0,0,-1,818,1450,-11.4198,-3.64382
-399,-426,-12.7595,2.29004,0,0,0,0,0,0,0,-1,825,1450,-12.7595,-2.29003
-392,-426,-12.4147,0.537354,0,0,0,0,0,0,0,-1,832,1450,-12.4147,-0.53731
-385,-426,0,0,0,0,0,0,0,0,0,-1,839,1450,0,0
-378,-426,0,0,0,0,0,0,0,0,0,-1,846,1450,0,0
-371,-426,0,0,0,0,0,0,0,0,0,-1,853,1450,0,0
-364,-426,0,0,0,0,0,0,0,0,0,-1,860,1450,0,0
-357,-426,0,0,0,0,0,0,0,0,0,-1,867,1450,0,0
-350,-426,0,0,0,0,0,0,0,0,0,-1,874,1450,0,0
-343,-426,0,0,0,0,0,0,0,0,0,-1,881,1450,0,0
-336,-426,0,0,0,0,0,0,0,0,0,-1,888,1450,0,0
-329,-426,0,0,0,0,0,0,0,0,0,-1,895,1450,0,0
-322,-426,0,0,0,0,0,0,0,0,0,-1,902,1450,0,0
-315,-426,0,0,0,0,0,0,0,0,0,-1,909,1450,0,0
-308,-426,0,0,0,0,0,0,0,0,0,-1,916,1450,0,0
-301,-426,0,0,0,0,0,0,0,0,0,-1,923,1450,0,0
-294,-426,0,0,0,0,0,0,0,0,0,-1,930,1450,0,0
-287,-426,0,0,0,0,0,0,0,0,0,-1,937,1450,0,0
-280,-426,0,0,0,0,0,0,0,0,0,-1,944,1450,0,0
-273,-426,0,0,0,0,0,0,0,0,0,-1,951,1450,0,0
-266,-426,0,0,0,0,0,0,0,0,0,-1,958,1450,0,0
-259,-426,0,0,0,0,0,0,0,0,0,-1,965,1450,0,0
-252,-426,0,0,0,0,0,0,0,0,0,-1,972,1450,0,0
-245,-426,0,0,0,0,0,0,0,0,0,-1,979,1450,0,0
-238,-426,0,0,0,0,0,0,0,0,0,-1,986,1450,0,0
-231,-426,0,0,0,0,0,0,0,0,0,-1,993,1450,0,0
-224,-426,0,0,0,0,0,0,0,0,0,-1,1000,1450,0,0
-217,-426,0,0,0,0,0,0,0,0,0,-1,1007,1450,0,0
-210,-426,0,0,0,0,0,0,0,0,0,-1,1014,1450,0,0
-203,-426,0,0,0,0,0,0,0,0,0,-1,1021,1450,0,0
-196,-426,0,0,0,0,0,0,0,0,0,-1,1028,1450,0,0
-189,-426,0,0,0,0,0,0,0,0,0,-1,1035,1450,0,0
-182,-426,0,0,0,0,0,0,0,0,0,-1,1042,1450,0,0
-175,-426,0,0,0,0,0,0,0,0,0,-1,1049,1450,0,0
-168,-426,0,0,0,0,0,0,0,0,0,-1,1056,1450,0,0
-161,-426,0,0,0,0,0,0,0,0,0,-1,1063,1450,0,0
-154,-426,0,0,0,0,0,0,0,0,0,-1,1070,1450,0,0
-147,-426,0,0,0,0,0,0,0,0,0,-1,1077,1450,0,0
-140,-426,0,0,0,0,0,0,0,0,0,-1,1084,1450,0,0
-133,-426,0,0,0,0,0,0,0,0,0,-1,1091,1450,0,0
-126,-426,0,0,0,0,0,0,0,0,0,-1,1098,1450,0,0
-119,-426,0,0,0,0,0,0,0,0,0,-1,1105,1450,0,0
-112,-426,0,0,0,0,0,0,0,0,0,-1,1112,1450,0,0
-105,-426,0,0,0,0,0,0,0,0,0,-1,1119,1450,0,0
-98,-426,0,0,0,0,0,0,0,0,0,-1,1126,1450,0,0
-91,-426,0,0,0,0,0,0,0,0,0,-1,1133,1450,0,0
-84,-426,0,0,0,0,0,0,0,0,0,-1,1140,1450,0,0
-77,-426,0,0,0,0,0,0,0,0,0,-1,1147,1450,0,0
-70,-426,0,0,0,0,0,0,0,0,0,-1,1154,1450,0,0
-63,-426,0,0,0,0,0,0,0,0,0,-1,1161,1450,0,0
-56,-426,0,0,0,0,0,0,0,0,0,-1,1168,1450,0,0
-49,-426,0,0,0,0,0,0,0,0,0,-1,1175,1450,0,0
-42,-426,0,0,0,0,0,0,0,0,0,-1,1182,1450,0,0
-35,-426,0,0,0,0,0,0,0,0,0,-1,1189,1450,0,0
-28,-426,0,0,0,0,0,0,0,0,0,-1,1196,1450,0,0
-21,-426,0,0,0,0,0,0,0,0,0,-1,1203,1450,0,0
-14,-426,0,0,0,0,0,0,0,0,0,-1,1210,1450,0,0
-7,-426,0,0,0,0,0,0,0,0,0,-1,1217,1450,0,0
0,-426,0,0,0,0,0,0,0,0,0,-1,1224,1450,0,0
7,-426,0,0,0,0,0,0,0,0,0,-1,1231,1450,0,0
14,-426,0,0,0,0,0,0,0,0,0,-1,1238,1450,0,0
21,-426,0,0,0,0,0,0,0,0,0,-1,1245,1450,0,0
28,-426,0,0,0,0,0,0,0,0,0,-1,1252,1450,0,0
35,-426,0,0,0,0,0,0,0,0,0,-1,1259,1450,0,0
42,-426,0,0,0,0,0,0,0,0,0,-1,1266,1450,0,0
49,-426,0,0,0,0,0,0,0,0,0,-1,1273,1450,0,0
56,-426,0,0,0,0,0,0,0,0,0,-1,1280,1450,0,0
63,-426,0,0,0,0,0,0,0,0,0,-1,1287,1450,0,0
70,-426,0,0,0,0,0,0,0,0,0,-1,1294,1450,0,0
77,-426,0,0,0,0,0,0,0,0,0,-1,1301,1450,0,0
84,-426,0,0,0,0,0,0,0,0,0,-1,1308,1450,0,0
91,-426,0,0,0,0,0,0,0,0,0,-1,1315,1450,0,0
98,-426,0,0,0,0,0,0,0,0,0,-1,1322,1450,0,0
105,-426,0,0,0,0,0,0,0,0,0,-1,1329,1450,0,0
112,-426,0,0,0,0,0,0,0,0,0,-1,1336,1450,0,0
119,-426,0,0,0,0,0,0,0,0,0,-1,1343,1450,0,0
126,-426,0,0,0,0,0,0,0,0,0,-1,1350,1450,0,0
133,-426,0,0,0,0,0,0,0,0,0,-1,1357,1450,0,0
140,-426,0,0,0,0,0,0,0,0,0,-1,1364,1450,0,0
147,-426,0,0,0,0,0,0,0,0,0,-1,1371,1450,0,0
154,-426,0,0,0,0,0,0,0,0,0,-1,1378,1450,0,0
161,-426,0,0,0,0,0,0,0,0,0,-1,1385,1450,0,0
168,-426,0,0,0,0,0,0,0,0,0,-1,1392,1450,0,0
175,-426,0,0,0,0,0,0,0,0,0,-1,1399,1450,0,0
182,-426,0,0,0,0,0,0,0,0,0,-1,1406,1450,0,0
189,-426,0,0,0,0,0,0,0,0,0,-1,1413,1450,0,0
196,-426,0,0,0,0,0,0,0,0,0,-1,1420,1450,0,0
203,-426,0,0,0,0,0,0,0,0,0,-1,1427,1450,0,0
210,-426,0,0,0,0,0,0,0,0,0,-1,1434,1450,0,0
217,-426,0,0,0,0,0,0,0,0,0,-1,1441,1450,0,0
224,-426,0,0,0,0,0,0,0,0,0,-1,1448,1450,0,0
231,-426,0,0,0,0,0,0,0,0,0,-1,1455,1450,0,0
238,-426,0,0,0,0,0,0,0,0,0,-1,1462,1450,0,0
245,-426,0,0,0,0,0,0,0,0,0,-1,1469,1450,0,0
252,-426,0,0,0,0,0,0,0,0,0,-1,1476,1450,0,0
259,-426,0,0,0,0,0,0,0,0,0,-1,1483,1450,0,0
266,-426,0,0,0,0,0,0,0,0,0,-1,1490,1450,0,0
273,-426,0,0,0,0,0,0,0,0,0,-1,1497,1450,0,0
280,-426,0,0,0,0,0,0,0,0,0,-1,1504,1450,0,0
287,-426,0,0,0,0,0,0,0,0,0,-1,1511,1450,0,0
294,-426,0,0,0,0,0,0,0,0,0,-1,1518,1450,0,0
301,-426,0,0,0,0,0,0,0,0,0,-1,1525,1450,0,0
308,-426,0,0,0,0,0,0,0,0,0,-1,1532,1450,0,0
315,-426,0,0,0,0,0,0,0,0,0,-1,1539,1450,0,0
322,-426,0,0,0,0,0,0,0,0,0,-1,1546,1450,0,0
329,-426,0,0,0,0,0,0,0,0,0,-1,1553,1450,0,0
336,-426,0,0,0,0,0,0,0,0,0,-1,1560,1450,0,0
343,-426,0,0,0,0,0,0,0,0,0,-1,1567,1450,0,0
350,-426,0,0,0,0,0,0,0,0,0,-1,1574,1450,0,0
357,-426,0,0,0,0,0,0,0,0,0,-1,1581,1450,0,0
364,-426,0,0,0,0,0,0,0,0,0,-1,1588,1450,0,0
371,-426,0,0,0,0,0,0,0,0,0,-1,1595,1450,0,0
378,-426,0,0,0,0,0,0,0,0,0,-1,1602,1450,0,0
385,-426,0,0,0,0,0,0,0,0,0,-1,1609,1450,0,0
392,-426,0,0,0,0,0,0,0,0,0,-1,1616,1450,0,0
399,-426,0,0,0,0,0,0,0,0,0,-1,1623,1450,0,0
406,-426,0,0,0,0,0,0,0,0,0,-1,1630,1450,0,0
413,-426,0,0,0,0,0,0,0,0,0,-1,1637,1450,0,0
420,-426,0,0,0,0,0,0,0,0,0,-1,1644,1450,0,0
427,-426,0,0,0,0,0,0,0,0,0,-1,1651,1450,0,0
434,-426,0,0,0,0,0,0,0,0,0,-1,1658,1450,0,0
441,-426,0,0,0,0,0,0,0,0,0,-1,1665,1450,0,0
448,-426,0,0,0,0,0,0,0,0,0,-1,1672,1450,0,0
455,-426,0,0,0,0,0,0,0,0,0,-1,1679,1450,0,0
462,-426,0,0,0,0,0,0,0,0,0,-1,1686,1450,0,0
469,-426,0,0,0,0,0,0,0,0,0,-1,1693,1450,0,0
476,-426,0,0,0,0,0,0,0,0,0,-1,1700,1450,0,0
483,-426,0,0,0,0,0,0,0,0,0,-1,1707,1450,0,0
490,-426,0,0,0,0,0,0,0,0,0,-1,1714,1450,0,0
497,-426,0,0,0,0,0,0,0,0,0,-1,1721,1450,0,0
504,-426,20.6873,3.38367,0,0,0,0,0,0,0,-1,1728,1450,20.6873,-3.38361
511,-426,19.6676,3.53748,0,0,0,0,0,0,0,-1,1735,1450,19.6676,-3.53749
518,-426,18.6853,3.32288,0,0,0,0,0,0,0,-1,1742,1450,18.6853,-3.3229
525,-426,18.9552,2.71033,0,0,0,0,0,0,0,-1,1749,1450,18.9552,-2.71034
532,-426,19.4333,2.70764,0,0,0,0,0,0,0,-1,1756,1450,19.4334,-2.70764
539,-426,25.1482,2.56287,0,0,0,0,0,0,0,-1,1763,1450,25.1482,-2.56286
546,-426,24.1136,3.75659,0,0,0,0,0,0,0,-1,1770,1450,24.1136,-3.7566
553,-426,23.0791,4.95032,0,0,0,0,0,0,0,-1,1777,1450,23.0791,-4.95034
560,-426,12.9688,11.8289,0,0,0,0,0,0,0,-1,1784,1450,12.9688,-11.8288
567,-426,13.6388,11.5623,0,0,0,0,0,0,0,-1,1791,1450,13.6388,-11.5623
574,-426,14.3943,11.0286,0,0,0,0,0,0,0,-1,1798,1450,14.3942,-11.0285
581,-426,16.3879,11.4653,0,0,0,0,0,0,0,-1,1805,1450,16.3879,-11.4653
588,-426,18.1212,12.5547,0,0,0,0,0,0,0,-1,1812,1450,18.1212,-12.5547
595,-426,17.7695,12.369,0,0,0,0,0,0,0,-1,1819,1450,17.7696,-12.369
602,-426,17.8121,12.0099,-0.00298999,0.00222862,0.000882694,0.00237388,-0.00313524,1.4077,0.0031908,0.0182277,1826,1450,17.8121,-12.0099
609,-426,17.8376,11.6594,-0.00170734,0.00155912,0.00048718,0.00163023,-0.00177845,1.42585,0.00196862,0.0124575,1833,1450,17.8376,-11.6594
616,-426,17.8383,11.3203,-0.00100738,0.000999928,0.000312801,0.00104754,-0.001055,1.41974,0.0012139,0.0145949,1840,1450,17.8383,-11.3204
623,-426,17.8319,10.9882,-0.000532042,0.0004666,0.000292386,0.000545908,-0.000611349,1.30593,0.000668499,0.011559,1847,1450,17.8319,-10.9882
630,-426,17.8367,10.6503,-0.000190064,0.00012402,0.000306118,0.000311028,-0.000377072,1.0224,0.000397884,0.0115863,1854,1450,17.8367,-10.6502
637,-426,17.8363,10.298,-0.000156202,-0.0001113,0.000533834,0.000400555,-0.000668057,0.806414,0.000623374,0.0121395,1861,1450,17.8363,-10.298
644,-426,17.8088,9.96497,-0.000254309,-0.000312456,0.000833438,0.000550563,-0.00111733,0.767963,0.000981314,0.0119151,1868,1450,17.8088,-9.96501
651,-426,17.7865,9.62134,-0.000473643,-0.000410168,0.00120431,0.000762827,-0.00164664,0.798572,0.00142196,0.0115061,1875,1450,17.7865,-9.62139
658,-426,17.8108,9.24023,-0.000900487,-0.000433082,0.00173261,0.00108151,-0.00241508,0.852436,0.00206712,0.0114727,1882,1450,17.8108,-9.24023
665,-426,17.8495,8.85608,-0.0015234,-0.000356978,0.0023565,0.00148741,-0.00336778,0.906706,0.00287237,0.0191247,1889,1450,17.8495,-8.85609
672,-426,17.4858,8.60449,0,0,0,0,0,0,0,-1,1896,1450,17.4859,-8.60444
679,-426,17.1522,8.15784,0,0,0,0,0,0,0,-1,1903,1450,17.1522,-8.15784
686,-426,13.5326,8.03711,0,0,0,0,0,0,0,-1,1910,1450,13.5326,-8.03717
693,-426,11.8607,6.45215,0,0,0,0,0,0,0,-1,1917,1450,11.8607,-6.45215
700,-426,9.24304,2.95447,0,0,0,0,0,0,0,-1,1924,1450,9.24305,-2.95442
707,-426,8.44519,-1.21448,0,0,0,0,0,0,0,-1,1931,1450,8.44514,1.21454
714,-426,0,0,0,0,0,0,0,0,0,-1,1938,1450,0,0
721,-426,0,0,0,0,0,0,0,0,0,-1,1945,1450,0,0
728,-426,0,0,0,0,0,0,0,0,0,-1,1952,1450,0,0
735,-426,0,0,0,0,0,0,0,0,0,-1,1959,1450,0,0
742,-426,0,0,0,0,0,0,0,0,0,-1,1966,1450,0,0
749,-426,0,0,0,0,0,0,0,0,0,-1,1973,1450,0,0
756,-426,0,0,0,0,0,0,0,0,0,-1,1980,1450,0,0
763,-426,0,0,0,0,0,0,0,0,0,-1,1987,1450,0,0
770,-426,0,0,0,0,0,0,0,0,0,-1,1994,1450,0,0
777,-426,0,0,0,0,0,0,0,0,0,-1,2001,1450,0,0
784,-426,0,0,0,0,0,0,0,0,0,-1,2008,1450,0,0
791,-426,0,0,0,0,0,0,0,0,0,-1,2015,1450,0,0
798,-426,0,0,0,0,0,0,0,0,0,-1,2022,1450,0,0
805,-426,0,0,0,0,0,0,0,0,0,-1,2029,1450,0,0
812,-426,0,0,0,0,0,0,0,0,0,-1,2036,1450,0,0
-700,-433,0,0,0,0,0,0,0,0,0,-1,524,1457,0,0
-693,-433,0,0,0,0,0,0,0,0,0,-1,531,1457,0,0
-686,-433,0,0,0,0,0,0,0,0,0,-1,538,1457,0,0
-679,-433,0,0,0,0,0,0,0,0,0,-1,545,1457,0,0
-672,-433,0,0,0,0,0,0,0,0,0,-1,552,1457,0,0
-665,-433,0,0,0,0,0,0,0,0,0,-1,559,1457,0,0
-658,-433,0,0,0,0,0,0,0,0,0,-1,566,1457,0,0
-651,-433,0,0,0,0,0,0,0,0,0,-1,573,1457,0,0
-644,-433,0,0,0,0,0,0,0,0,0,-1,580,1457,0,0
-637,-433,0,0,0,0,0,0,0,0,0,-1,587,1457,0,0
-630,-433,0,0,0,0,0,0,0,0,0,-1,594,1457,0,0
-623,-433,0,0,0,0,0,0,0,0,0,-1,601,1457,0,0
-616,-433,0,0,0,0,0,0,0,0,0,-1,608,1457,0,0
-609,-433,0,0,0,0,0,0,0,0,0,-1,615,1457,0,0
-602,-433,0,0,0,0,0,0,0,0,0,-1,622,1457,0,0
-595,-433,0,0,0,0,0,0,0,0,0,-1,629,1457,0,0
-588,-433,-10.3756,-0.467041,0,0,0,0,0,0,0,-1,636,1457,-10.3756,0.467081
-581,-433,-8.12201,0.884033,0,0,0,0,0,0,0,-1,643,1457,-8.12204,-0.884056
-574,-433,-5.86847,2.23523,0,0,0,0,0,0,0,-1,650,1457,-5.86844,-2.23519
-567,-433,-5.42255,1.16833,0,0,0,0,0,0,0,-1,657,1457,-5.42254,-1.1683
-560,-433,-6.84027,1.86414,0,0,0,0,0,0,0,-1,664,1457,-6.84026,-1.86412
-553,-433,-5.74017,1.79163,0,0,0,0,0,0,0,-1,671,1457,-5.74015,-1.79166
-546,-433,-5.62531,5.53894,0,0,0,0,0,0,0,-1,678,1457,-5.62531,-5.53891
-539,-433,-5.7088,6.26941,-0.00892401,0.00552878,0.00669729,0.00815503,-0.0115503,1.19709,0.011433,0.0459017,685,1457,-5.70881,-6.26944
-532,-433,-5.74115,6.9176,-0.00684047,0.00418709,0.00520034,0.00625258,-0.00890596,1.19272,0.00879636,0.0411171,692,1457,-5.74116,-6.91755
-525,-433,-5.94904,7.32617,-0.00470668,0.00317333,0.00411222,0.00492841,-0.00646175,1.16741,0.00659595,0.0288607,699,1457,-5.94903,-7.32622
-518,-433,-5.97516,7.69714,-0.00300837,0.00246417,0.0032133,0.00394838,-0.00449259,1.13809,0.00487677,0.0160586,706,1457,-5.97519,-7.69719
-511,-433,-5.98785,8.08606,-0.00161854,0.00176586,0.00246838,0.00306639,-0.00291907,1.08588,0.00345606,0.0157001,713,1457,-5.98785,-8.08605
-504,-433,-5.99615,8.46863,-0.000380263,0.00113574,0.00186847,0.00239411,-0.00163864,0.978094,0.00234188,0.0128917,720,1457,-5.99614,-8.46857
-497,-433,-5.99847,8.823,0.000707757,0.000660361,0.00142647,0.00211073,-0.00074261,0.777092,0.00170933,0.0130807,727,1457,-5.9985,-8.82302
-490,-433,-6.0235,9.18518,0.00120477,-5.48418e-05,0.00104257,0.001793,-0.00064307,0.513687,0.00145776,0.0143943,734,1457,-6.02347,-9.18516
-483,-433,-6.02612,9.58997,0.0010552,-0.000908495,0.000179398,0.00107145,-0.000924749,0.0903606,0.00115355,0.0152195,741,1457,-6.02612,-9.58994
-476,-433,-6.03003,9.97583,0.00074753,-0.00212422,-0.000647856,0.000886919,-0.00226361,-0.211922,0.00187595,0.01077,748,1457,-6.03004,-9.97582
-469,-433,-6.05042,10.3444,-9.09339e-05,-0.00381039,-0.00162005,0.000515743,-0.00441707,-0.358315,0.00313082,0.0101668,755,1457,-6.05041,-10.3444
-462,-433,-6.06915,10.7252,-0.00155621,-0.00599779,-0.00300916,-3.70899e-05,-0.00751691,-0.467507,0.00499896,0.0107617,762,1457,-6.06917,-10.7252
-455,-433,-5.84088,11.2722,-0.00385158,-0.00896244,-0.00505729,-0.000740766,-0.0120733,-0.55146,0.00781363,0.0379101,769,1457,-5.84088,-11.2722
-448,-433,-5.48853,11.8196,0,0,0,0,0,0,0,-1,776,1457,-5.48854,-11.8196
-441,-433,-6.41437,11.1592,0,0,0,0,0,0,0,-1,783,1457,-6.41437,-11.1592
-434,-433,-7.56805,11.3579,0,0,0,0,0,0,0,-1,790,1457,-7.56803,-11.3579
-427,-433,-7.43207,11.0886,0,0,0,0,0,0,0,-1,797,1457,-7.43208,-11.0886
-420,-433,-5.74658,9.49121,0,0,0,0,0,0,0,-1,804,1457,-5.7466,-9.49119
-413,-433,-3.63074,5.5813,0,0,0,0,0,0,0,-1,811,1457,-3.63072,-5.58129
-406,-433,-12.3472,4.69373,0,0,0,0,0,0,0,-1,818,1457,-12.3472,-4.69374
-399,-433,-12.055,2.83594,0,0,0,0,0,0,0,-1,825,1457,-12.055,-2.83594
-392,-433,-12.9772,1.6228,0,0,0,0,0,0,0,-1,832,1457,-12.9772,-1.62282
-385,-433,-13.7999,0.514771,0,0,0,0,0,0,0,-1,839,1457,-13.7999,-0.514788
-378,-433,0,0,0,0,0,0,0,0,0,-1,846,1457,0,0
-371,-433,0,0,0,0,0,0,0,0,0,-1,853,1457,0,0
-364,-433,0,0,0,0,0,0,0,0,0,-1,860,1457,0,0
-357,-433,0,0,0,0,0,0,0,0,0,-1,867,1457,0,0
-350,-433,0,0,0,0,0,0,0,0,0,-1,874,1457,0,0
-343,-433,0,0,0,0,0,0,0,0,0,-1,881,1457,0,0
-336,-433,0,0,0,0,0,0,0,0,0,-1,888,1457,0,0
-329,-433,0,0,0,0,0,0,0,0,0,-1,895,1457,0,0
-322,-433,0,0,0,0,0,0,0,0,0,-1,902,1457,0,0
-315,-433,0,0,0,0,0,0,0,0,0,-1,909,1457,0,0
-308,-433,0,0,0,0,0,0,0,0,0,-1,916,1457,0,0
-301,-433,0,0,0,0,0,0,0,0,0,-1,923,1457,0,0
-294,-433,0,0,0,0,0,0,0,0,0,-1,930,1457,0,0
-287,-433,0,0,0,0,0,0,0,0,0,-1,937,1457,0,0
-280,-433,0,0,0,0,0,0,0,0,0,-1,944,1457,0,0
-273,-433,0,0,0,0,0,0,0,0,0,-1,951,1457,0,0
-266,-433,0,0,0,0,0,0,0,0,0,-1,958,1457,0,0
-259,-433,0,0,0,0,0,0,0,0,0,-1,965,1457,0,0
-252,-433,0,0,0,0,0,0,0,0,0,-1,972,1457,0,0
-245,-433,0,0,0,0,0,0,0,0,0,-1,979,1457,0,0
-238,-433,0,0,0,0,0,0,0,0,0,-1,986,1457,0,0
-231,-433,0,0,0,0,0,0,0,0,0,-1,993,1457,0,0
-224,-433,0,0,0,0,0,0,0,0,0,-1,1000,1457,0,0
-217,-433,0,0,0,0,0,0,0,0,0,-1,1007,1457,0,0
-210,-433,0,0,0,0,0,0,0,0,0,-1,1014,1457,0,0
-203,-433,0,0,0,0,0,0,0,0,0,-1,1021,1457,0,0
-196,-433,0,0,0,0,0,0,0,0,0,-1,1028,1457,0,0
-189,-433,0,0,0,0,0,0,0,0,0,-1,1035,1457,0,0
-182,-433,0,0,0,0,0,0,0,0,0,-1,1042,1457,0,0
-175,-433,0,0,0,0,0,0,0,0,0,-1,1049,1457,0,0
-168,-433,0,0,0,0,0,0,0,0,0,-1,1056,1457,0,0
-161,-433,0,0,0,0,0,0,0,0,0,-1,1063,1457,0,0
-154,-433,0,0,0,0,0,0,0,0,0,-1,1070,1457,0,0
-147,-433,0,0,0,0,0,0,0,0,0,-1,1077,1457,0,0
-140,-433,0,0,0,0,0,0,0,0,0,-1,1084,1457,0,0
-133,-433,0,0,0,0,0,0,0,0,0,-1,1091,1457,0,0
-126,-433,0,0,0,0,0,0,0,0,0,-1,1098,1457,0,0
-119,-433,0,0,0,0,0,0,0,0,0,-1,1105,1457,0,0
-112,-433,0,0,0,0,0,0,0,0,0,-1,1112,1457,0,0
-105,-433,0,0,0,0,0,0,0,0,0,-1,1119,1457,0,0
-98,-433,0,0,0,0,0,0,0,0,0,-1,1126,1457,0,0
-91,-433,0,0,0,0,0,0,0,0,0,-1,1133,1457,0,0
-84,-433,0,0,0,0,0,0,0,0,0,-1,1140,1457,0,0
-77,-433,0,0,0,0,0,0,0,0,0,-1,1147,1457,0,0
-70,-433,0,0,0,0,0,0,0,0,0,-1,1154,1457,0,0
-63,-433,0,0,0,0,0,0,0,0,0,-1,1161,1457,0,0
-56,-433,0,0,0,0,0,0,0,0,0,-1,1168,1457,0,0
-49,-433,0,0,0,0,0,0,0,0,0,-1,1175,1457,0,0
-42,-433,0,0,0,0,0,0,0,0,0,-1,1182,1457,0,0
-35,-433,0,0,0,0,0,0,0,0,0,-1,1189,1457,0,0
-28,-433,0,0,0,0,0,0,0,0,0,-1,1196,1457,0,0
-21,-433,0,0,0,0,0,0,0,0,0,-1,1203,1457,0,0
-14,-433,0,0,0,0,0,0,0,0,0,-1,1210,1457,0,0
-7,-433,0,0,0,0,0,0,0,0,0,-1,1217,1457,0,0
0,-433,0,0,0,0,0,0,0,0,0,-1,1224,1457,0,0
7,-433,0,0,0,0,0,0,0,0,0,-1,1231,1457,0,0
14,-433,0,0,0,0,0,0,0,0,0,-1,1238,1457,0,0
21,-433,0,0,0,0,0,0,0,0,0,-1,1245,1457,0,0
28,-433,0,0,0,0,0,0,0,0,0,-1,1252,1457,0,0
35,-433,0,0,0,0,0,0,0,0,0,-1,1259,1457,0,0
42,-433,0,0,0,0,0,0,0,0,0,-1,1266,1457,0,0
49,-433,0,0,0,0,0,0,0,0,0,-1,1273,1457,0,0
56,-433,0,0,0,0,0,0,0,0,0,-1,1280,1457,0,0
63,-433,0,0,0,0,0,0,0,0,0,-1,1287,1457,0,0
70,-433,0,0,0,0,0,0,0,0,0,-1,1294,1457,0,0
77,-433,0,0,0,0,0,0,0,0,0,-1,1301,1457,0,0
84,-433,0,0,0,0,0,0,0,0,0,-1,1308,1457,0,0
91,-433,0,0,0,0,0,0,0,0,0,-1,1315,1457,0,0
98,-433,0,0,0,0,0,0,0,0,0,-1,1322,1457,0,0
105,-433,0,0,0,0,0,0,0,0,0,-1,1329,1457,0,0
112,-433,0,0,0,0,0,0,0,0,0,-1,1336,1457,0,0
119,-433,0,0,0,0,0,0,0,0,0,-1,1343,1457,0,0
126,-433,0,0,0,0,0,0,0,0,0,-1,1350,1457,0,0
133,-433,0,0,0,0,0,0,0,0,0,-1,1357,1457,0,0
140,-433,0,0,0,0,0,0,0,0,0,-1,1364,1457,0,0
147,-433,0,0,0,0,0,0,0,0,0,-1,1371,1457,0,0
154,-433,0,0,0,0,0,0,0,0,0,-1,1378,1457,0,0
161,-433,0,0,0,0,0,0,0,0,0,-1,1385,1457,0,0
168,-433,0,0,0,0,0,0,0,0,0,-1,1392,1457,0,0
175,-433,0,0,0,0,0,0,0,0,0,-1,1399,1457,0,0
182,-433,0,0,0,0,0,0,0,0,0,-1,1406,1457,0,0
189,-433,0,0,0,0,0,0,0,0,0,-1,1413,1457,0,0
196,-433,0,0,0,0,0,0,0,0,0,-1,1420,1457,0,0
203,-433,0,0,0,0,0,0,0,0,0,-1,1427,1457,0,0
210,-433,0,0,0,0,0,0,0,0,0,-1,1434,1457,0,0
217,-433,0,0,0,0,0,0,0,0,0,-1,1441,1457,0,0
224,-433,0,0,0,0,0,0,0,0,0,-1,1448,1457,0,0
231,-433,0,0,0,0,0,0,0,0,0,-1,1455,1457,0,0
238,-433,0,0,0,0,0,0,0,0,0,-1,1462,1457,0,0
245,-433,0,0,0,0,0,0,0,0,0,-1,1469,1457,0,0
252,-433,0,0,0,0,0,0,0,0,0,-1,1476,1457,0,0
259,-433,0,0,0,0,0,0,0,0,0,-1,1483,1457,0,0
266,-433,0,0,0,0,0,0,0,0,0,-1,1490,1457,0,0
273,-433,0,0,0,0,0,0,0,0,0,-1,1497,1457,0,0
280,-433,0,0,0,0,0,0,0,0,0,-1,1504,1457,0,0
287,-433,0,0,0,0,0,0,0,0,0,-1,1511,1457,0,0
294,-433,0,0,0,0,0,0,0,0,0,-1,1518,1457,0,0
301,-433,0,0,0,0,0,0,0,0,0,-1,1525,1457,0,0
308,-433,0,0,0,0,0,0,0,0,0,-1,1532,1457,0,0
315,-433,0,0,0,0,0,0,0,0,0,-1,1539,1457,0,0
322,-433,0,0,0,0,0,0,0,0,0,-1,1546,1457,0,0
329,-433,0,0,0,0,0,0,0,0,0,-1,1553,1457,0,0
336,-433,0,0,0,0,0,0,0,0,0,-1,1560,1457,0,0
343,-433,0,0,0,0,0,0,0,0,0,-1,1567,1457,0,0
350,-433,0,0,0,0,0,0,0,0,0,-1,1574,1457,0,0
357,-433,0,0,0,0,0,0,0,0,0,-1,1581,1457,0,0
364,-433,0,0,0,0,0,0,0,0,0,-1,1588,1457,0,0
371,-433,0,0,0,0,0,0,0,0,0,-1,1595,1457,0,0
378,-433,0,0,0,0,0,0,0,0,0,-1,1602,1457,0,0
385,-433,0,0,0,0,0,0,0,0,0,-1,1609,1457,0,0
392,-433,0,0,0,0,0,0,0,0,0,-1,1616,1457,0,0
399,-433,0,0,0,0,0,0,0,0,0,-1,1623,1457,0,0
406,-433,0,0,0,0,0,0,0,0,0,-1,1630,1457,0,0
413,-433,0,0,0,0,0,0,0,0,0,-1,1637,1457,0,0
420,-433,0,0,0,0,0,0,0,0,0,-1,1644,1457,0,0
427,-433,0,0,0,0,0,0,0,0,0,-1,1651,1457,0,0
434,-433,0,0,0,0,0,0,0,0,0,-1,1658,1457,0,0
441,-433,0,0,0,0,0,0,0,0,0,-1,1665,1457,0,0
448,-433,0,0,0,0,0,0,0,0,0,-1,1672,1457,0,0
455,-433,0,0,0,0,0,0,0,0,0,-1,1679,1457,0,0
462,-433,0,0,0,0,0,0,0,0,0,-1,1686,1457,0,0
469,-433,0,0,0,0,0,0,0,0,0,-1,1693,1457,0,0
476,-433,0,0,0,0,0,0,0,0,0,-1,1700,1457,0,0
483,-433,0,0,0,0,0,0,0,0,0,-1,1707,1457,0,0
490,-433,0,0,0,0,0,0,0,0,0,-1,1714,1457,0,0
497,-433,0,0,0,0,0,0,0,0,0,-1,1721,1457,0,0
504,-433,19.9058,3.03662,0,0,0,0,0,0,0,-1,1728,1457,19.9058,-3.03656
511,-433,19.0145,3.07837,0,0,0,0,0,0,0,-1,1735,1457,19.0146,-3.07834
518,-433,18.071,3.06433,0,0,0,0,0,0,0,-1,1742,1457,18.071,-3.06432
525,-433,17.2048,3.37085,0,0,0,0,0,0,0,-1,1749,1457,17.2049,-3.37083
532,-433,16.5637,3.36646,0,0,0,0,0,0,0,-1,1756,1457,16.5637,-3.36643
539,-433,15.9193,3.30396,0,0,0,0,0,0,0,-1,1763,1457,15.9193,-3.30394
546,-433,23.1903,4.81775,0,0,0,0,0,0,0,-1,1770,1457,23.1903,-4.81775
553,-433,13.9674,11.5781,0,0,0,0,0,0,0,-1,1777,1457,13.9674,-11.5781
560,-433,13.9855,11.7341,0,0,0,0,0,0,0,-1,1784,1457,13.9855,-11.7341
567,-433,13.9264,11.3364,0,0,0,0,0,0,0,-1,1791,1457,13.9263,-11.3364
574,-433,15.5305,12.3673,0,0,0,0,0,0,0,-1,1798,1457,15.5305,-12.3673
581,-433,16.6405,12.1898,0,0,0,0,0,0,0,-1,1805,1457,16.6405,-12.1898
588,-433,17.311,12.8096,0,0,0,0,0,0,0,-1,1812,1457,17.3111,-12.8095
595,-433,17.5073,12.4098,-0.00374167,0.00277038,0.00105392,0.0029367,-0.00390799,1.41428,0.00396503,0.0277982,1819,1457,17.5074,-12.4098
602,-433,17.5126,12.0276,-0.00235289,0.00210183,0.000634561,0.00219046,-0.00244151,1.43203,0.00267558,0.0208777,1826,1457,17.5126,-12.0276
609,-433,17.5261,11.6617,-0.00128905,0.00146593,0.00035525,0.001511,-0.00133412,1.4446,0.00164369,0.0161031,1833,1457,17.5261,-11.6617
616,-433,17.5245,11.3273,-0.000677172,0.000898422,0.000295653,0.000952073,-0.000730823,1.39128,0.000974415,0.0140197,1840,1457,17.5245,-11.3272
623,-433,17.4922,10.9857,-0.00025658,0.000329317,0.00033952,0.000484802,-0.000412065,1.14135,0.000518374,0.010456,1847,1457,17.4922,-10.9857
630,-433,17.484,10.6506,2.48724e-05,-7.11225e-05,0.000422329,0.000401923,-0.000448173,0.728816,0.000491045,0.0125528,1854,1457,17.4839,-10.6506
637,-433,17.4978,10.3049,-9.78486e-06,-0.000371213,0.000713981,0.000545998,-0.000926995,0.661448,0.000859863,0.0142702,1861,1457,17.4978,-10.3049
644,-433,17.4821,9.99695,-0.000180417,-0.000633861,0.00107888,0.000695305,-0.00150958,0.681832,0.00130161,0.0142982,1868,1457,17.4821,-9.99697
651,-433,17.4664,9.63269,-0.000486782,-0.000788752,0.00151361,0.00088336,-0.00215889,0.735687,0.00180717,0.0109506,1875,1457,17.4665,-9.63264
658,-433,17.4608,9.23218,-0.00108006,-0.000863651,0.00216593,0.00119677,-0.00314048,0.810356,0.00258658,0.0172566,1882,1457,17.4608,-9.23215
665,-433,17.3661,8.89551,-0.00191288,-0.000803935,0.00291491,0.00160877,-0.00432558,0.879385,0.00354386,0.0272763,1889,1457,17.3661,-8.89547
672,-433,17.3689,9.22534,0,0,0,0,0,0,0,-1,1896,1457,17.3689,-9.22534
679,-433,17.2969,9.6355,0,0,0,0,0,0,0,-1,1903,1457,17.2968,-9.63548
686,-433,13.6356,8.61694,0,0,0,0,0,0,0,-1,1910,1457,13.6356,-8.61694
693,-433,13.4081,8.39624,0,0,0,0,0,0,0,-1,1917,1457,13.4081,-8.39624
700,-433,7.16809,-1.5166,0,0,0,0,0,0,0,-1,1924,1457,7.16806,1.51656
707,-433,8.68359,-2.82202,0,0,0,0,0,0,0,-1,1931,1457,8.68359,2.82197
714,-433,0,0,0,0,0,0,0,0,0,-1,1938,1457,0,0
721,-433,0,0,0,0,0,0,0,0,0,-1,1945,1457,0,0
728,-433,0,0,0,0,0,0,0,0,0,-1,1952,1457,0,0
735,-433,0,0,0,0,0,0,0,0,0,-1,1959,1457,0,0
742,-433,0,0,0,0,0,0,0,0,0,-1,1966,1457,0,0
749,-433,0,0,0,0,0,0,0,0,0,-1,1973,1457,0,0
756,-433,0,0,0,0,0,0,0,0,0,-1,1980,1457,0,0
763,-433,0,0,0,0,0,0,0,0,0,-1,1987,1457,0,0
770,-433,0,0,0,0,0,0,0,0,0,-1,1994,1457,0,0
777,-433,0,0,0,0,0,0,0,0,0,-1,2001,1457,0,0
784,-433,0,0,0,0,0,0,0,0,0,-1,2008,1457,0,0
791,-433,0,0,0,0,0,0,0,0,0,-1,2015,1457,0,0
798,-433,0,0,0,0,0,0,0,0,0,-1,2022,1457,0,0
805,-433,0,0,0,0,0,0,0,0,0,-1,2029,1457,0,0
812,-433,0,0,0,0,0,0,0,0,0,-1,2036,1457,0,0
-700,-440,0,0,0,0,0,0,0,0,0,-1,524,1464,0,0
-693,-440,0,0,0,0,0,0,0,0,0,-1,531,1464,0,0
-686,-440,0,0,0,0,0,0,0,0,0,-1,538,1464,0,0
-679,-440,0,0,0,0,0,0,0,0,0,-1,545,1464,0,0
-672,-440,0,0,0,0,0,0,0,0,0,-1,552,1464,0,0
-665,-440,0,0,0,0,0,0,0,0,0,-1,559,1464,0,0
-658,-440,0,0,0,0,0,0,0,0,0,-1,566,1464,0,0
-651,-440,0,0,0,0,0,0,0,0,0,-1,573,1464,0,0
-644,-440,0,0,0,0,0,0,0,0,0,-1,580,1464,0,0
-637,-440,0,0,0,0,0,0,0,0,0,-1,587,1464,0,0
-630,-440,0,0,0,0,0,0,0,0,0,-1,594,1464,0,0
-623,-440,0,0,0,0,0,0,0,0,0,-1,601,1464,0,0
-616,-440,0,0,0,0,0,0,0,0,0,-1,608,1464,0,0
-609,-440,0,0,0,0,0,0,0,0,0,-1,615,1464,0,0
-602,-440,0,0,0,0,0,0,0,0,0,-1,622,1464,0,0
-595,-440,0,0,0,0,0,0,0,0,0,-1,629,1464,0,0
-588,-440,0,0,0,0,0,0,0,0,0,-1,636,1464,0,0
-581,-440,-8.97278,0.254517,0,0,0,0,0,0,0,-1,643,1464,-8.97276,-0.254526
-574,-440,-7.00818,-0.918579,0,0,0,0,0,0,0,-1,650,1464,-7.00817,0.918538
-567,-440,-6.12152,-0.0766602,0,0,0,0,0,0,0,-1,657,1464,-6.12151,0.0767097
-560,-440,-5.46747,0.82251,0,0,0,0,0,0,0,-1,664,1464,-5.46748,-0.822551
-553,-440,-6.84729,0.0831299,0,0,0,0,0,0,0,-1,671,1464,-6.84732,-0.083136
-546,-440,-5.63446,-0.153198,0,0,0,0,0,0,0,-1,678,1464,-5.63447,0.153147
-539,-440,-5.56702,6.10718,0,0,0,0,0,0,0,-1,685,1464,-5.567,-6.10717
-532,-440,-5.526,6.80798,-0.00615843,0.00573008,0.00748206,0.00934174,-0.00977009,1.12108,0.0110351,0.0465937,692,1464,-5.52598,-6.80801
-525,-440,-5.6236,7.354,-0.00354493,0.00416474,0.00559647,0.00710551,-0.0064857,1.08698,0.00784961,0.0316682,699,1464,-5.62361,-7.35396
-518,-440,-5.62299,7.65466,-0.00162309,0.00309953,0.00418826,0.00554627,-0.00406983,1.04208,0.00557362,0.0173381,706,1464,-5.623,-7.65461
-511,-440,-5.578,8.06726,-0.000401388,0.00223715,0.00302144,0.00421479,-0.00237902,0.991241,0.0038558,0.0153389,713,1464,-5.578,-8.06726
-504,-440,-5.61005,8.48352,0.000493133,0.0014658,0.0021198,0.00315434,-0.00119541,0.898158,0.00259483,0.0179307,720,1464,-5.61004,-8.48352
-497,-440,-5.64166,8.84998,0.00123521,0.00093303,0.00153409,0.00262563,-0.00045739,0.736313,0.00192112,0.019906,727,1464,-5.64167,-8.84998
-490,-440,-5.64923,9.12976,0.00150538,0.000284641,0.00111711,0.002168,-0.000377974,0.535367,0.0015864,0.0203784,734,1464,-5.64922,-9.12974
-483,-440,-5.64685,9.526,0.00125782,-0.000480075,0.000309655,0.00131135,-0.0005336,0.171163,0.00109628,0.0192769,741,1464,-5.64686,-9.52602
-476,-440,-5.64178,9.94348,0.000889184,-0.0015546,-0.000418208,0.000958771,-0.00162419,-0.164883,0.00150768,0.0137017,748,1464,-5.64176,-9.94354
-469,-440,-5.66156,10.356,0.000111762,-0.00307619,-0.00125522,0.00054666,-0.00351109,-0.333529,0.00254261,0.0120363,755,1464,-5.66155,-10.3559
-462,-440,-5.69037,10.7501,-0.00105472,-0.00486129,-0.00232026,4.30113e-05,-0.00595902,-0.441902,0.0039871,0.0141487,762,1464,-5.69038,-10.7501
-455,-440,-5.58588,11.1881,-0.00278164,-0.00734161,-0.00391681,-0.000529543,-0.0095937,-0.52182,0.0062268,0.0245404,769,1464,-5.58585,-11.1881
-448,-440,-5.24542,11.6958,0,0,0,0,0,0,0,-1,776,1464,-5.24542,-11.6958
-441,-440,-5.85626,11.418,-0.00833104,-0.0158379,-0.00975525,-0.00163204,-0.0225369,-0.601749,0.0145112,0.0440435,783,1464,-5.85625,-11.4179
-434,-440,-6.61432,11.8342,-0.0131973,-0.0224554,-0.0145647,-0.00254373,-0.0331089,-0.631533,0.0212755,0.0437628,790,1464,-6.61433,-11.8342
-427,-440,-6.86523,12.2803,0,0,0,0,0,0,0,-1,797,1464,-6.86521,-12.2803
-420,-440,-3.84052,9.66321,0,0,0,0,0,0,0,-1,804,1464,-3.84054,-9.66322
-413,-440,-3.46796,5.72278,0,0,0,0,0,0,0,-1,811,1464,-3.46797,-5.72276
-406,-440,-5.2887,5.20264,0,0,0,0,0,0,0,-1,818,1464,-5.2887,-5.20261
-399,-440,-12.7318,3.94421,0,0,0,0,0,0,0,-1,825,1464,-12.7318,-3.94419
-392,-440,-13.5565,2.51855,0,0,0,0,0,0,0,-1,832,1464,-13.5565,-2.51861
-385,-440,-14.6741,1.39795,0,0,0,0,0,0,0,-1,839,1464,-14.6741,-1.39801
-378,-440,-15.8063,0.293457,0,0,0,0,0,0,0,-1,846,1464,-15.8063,-0.293412
-371,-440,0,0,0,0,0,0,0,0,0,-1,853,1464,0,0
-364,-440,0,0,0,0,0,0,0,0,0,-1,860,1464,0,0
-357,-440,0,0,0,0,0,0,0,0,0,-1,867,1464,0,0
-350,-440,0,0,0,0,0,0,0,0,0,-1,874,1464,0,0
-343,-440,0,0,0,0,0,0,0,0,0,-1,881,1464,0,0
-336,-440,0,0,0,0,0,0,0,0,0,-1,888,1464,0,0
-329,-440,0,0,0,0,0,0,0,0,0,-1,895,1464,0,0
-322,-440,0,0,0,0,0,0,0,0,0,-1,902,1464,0,0
-315,-440,0,0,0,0,0,0,0,0,0,-1,909,1464,0,0
-308,-440,0,0,0,0,0,0,0,0,0,-1,916,1464,0,0
-301,-440,0,0,0,0,0,0,0,0,0,-1,923,1464,0,0
-294,-440,0,0,0,0,0,0,0,0,0,-1,930,1464,0,0
-287,-440,0,0,0,0,0,0,0,0,0,-1,937,1464,0,0
-280,-440,0,0,0,0,0,0,0,0,0,-1,944,1464,0,0
-273,-440,0,0,0,0,0,0,0,0,0,-1,951,1464,0,0
-266,-440,0,0,0,0,0,0,0,0,0,-1,958,1464,0,0
-259,-440,0,0,0,0,0,0,0,0,0,-1,965,1464,0,0
-252,-440,0,0,0,0,0,0,0,0,0,-1,972,1464,0,0
-245,-440,0,0,0,0,0,0,0,0,0,-1,979,1464,0,0
-238,-440,0,0,0,0,0,0,0,0,0,-1,986,1464,0,0
-231,-440,0,0,0,0,0,0,0,0,0,-1,993,1464,0,0
-224,-440,0,0,0,0,0,0,0,0,0,-1,1000,1464,0,0
-217,-440,0,0,0,0,0,0,0,0,0,-1,1007,1464,0,0
-210,-440,0,0,0,0,0,0,0,0,0,-1,1014,1464,0,0
-203,-440,0,0,0,0,0,0,0,0,0,-1,1021,1464,0,0
-196,-440,0,0,0,0,0,0,0,0,0,-1,1028,1464,0,0
-189,-440,0,0,0,0,0,0,0,0,0,-1,1035,1464,0,0
-182,-440,0,0,0,0,0,0,0,0,0,-1,1042,1464,0,0
-175,-440,0,0,0,0,0,0,0,0,0,-1,1049,1464,0,0
-168,-440,0,0,0,0,0,0,0,0,0,-1,1056,1464,0,0
-161,-440,0,0,0,0,0,0,0,0,0,-1,1063,1464,0,0
-154,-440,0,0,0,0,0,0,0,0,0,-1,1070,1464,0,0
-147,-440,0,0,0,0,0,0,0,0,0,-1,1077,1464,0,0
-140,-440,0,0,0,0,0,0,0,0,0,-1,1084,1464,0,0
-133,-440,0,0,0,0,0,0,0,0,0,-1,1091,1464,0,0
-126,-440,0,0,0,0,0,0,0,0,0,-1,1098,1464,0,0
-119,-440,0,0,0,0,0,0,0,0,0,-1,1105,1464,0,0
-112,-440,0,0,0,0,0,0,0,0,0,-1,1112,1464,0,0
-105,-440,0,0,0,0,0,0,0,0,0,-1,1119,1464,0,0
-98,-440,0,0,0,0,0,0,0,0,0,-1,1126,1464,0,0
-91,-440,0,0,0,0,0,0,0,0,0,-1,1133,1464,0,0
-84,-440,0,0,0,0,0,0,0,0,0,-1,1140,1464,0,0
-77,-440,0,0,0,0,0,0,0,0,0,-1,1147,1464,0,0
-70,-440,0,0,0,0,0,0,0,0,0,-1,1154,1464,0,0
-63,-440,0,0,0,0,0,0,0,0,0,-1,1161,1464,0,0
-56,-440,0,0,0,0,0,0,0,0,0,-1,1168,1464,0,0
-49,-440,0,0,0,0,0,0,0,0,0,-1,1175,1464,0,0
-42,-440,0,0,0,0,0,0,0,0,0,-1,1182,1464,0,0
-35,-440,0,0,0,0,0,0,0,0,0,-1,1189,1464,0,0
-28,-440,0,0,0,0,0,0,0,0,0,-1,1196,1464,0,0
-21,-440,0,0,0,0,0,0,0,0,0,-1,1203,1464,0,0
-14,-440,0,0,0,0,0,0,0,0,0,-1,1210,1464,0,0
-7,-440,0,0,0,0,0,0,0,0,0,-1,1217,1464,0,0
0,-440,0,0,0,0,0,0,0,0,0,-1,1224,1464,0,0
7,-440,0,0,0,0,0,0,0,0,0,-1,1231,1464,0,0
14,-440,0,0,0,0,0,0,0,0,0,-1,1238,1464,0,0
21,-440,0,0,0,0,0,0,0,0,0,-1,1245,1464,0,0
28,-440,0,0,0,0,0,0,0,0,0,-1,1252,1464,0,0
35,-440,0,0,0,0,0,0,0,0,0,-1,1259,1464,0,0
42,-440,0,0,0,0,0,0,0,0,0,-1,1266,1464,0,0
49,-440,0,0,0,0,0,0,0,0,0,-1,1273,1464,0,0
56,-440,0,0,0,0,0,0,0,0,0,-1,1280,1464,0,0
63,-440,0,0,0,0,0,0,0,0,0,-1,1287,1464,0,0
70,-440,0,0,0,0,0,0,0,0,0,-1,1294,1464,0,0
77,-440,0,0,0,0,0,0,0,0,0,-1,1301,1464,0,0
84,-440,0,0,0,0,0,0,0,0,0,-1,1308,1464,0,0
91,-440,0,0,0,0,0,0,0,0,0,-1,1315,1464,0,0
98,-440,0,0,0,0,0,0,0,0,0,-1,1322,1464,0,0
105,-440,0,0,0,0,0,0,0,0,0,-1,1329,1464,0,0
112,-440,0,0,0,0,0,0,0,0,0,-1,1336,1464,0,0
119,-440,0,0,0,0,0,0,0,0,0,-1,1343,1464,0,0
126,-440,0,0,0,0,0,0,0,0,0,-1,1350,1464,0,0
133,-440,0,0,0,0,0,0,0,0,0,-1,1357,1464,0,0
140,-440,0,0,0,0,0,0,0,0,0,-1,1364,1464,0,0
147,-440,0,0,0,0,0,0,0,0,0,-1,1371,1464,0,0
154,-440,0,0,0,0,0,0,0,0,0,-1,1378,1464,0,0
161,-440,0,0,0,0,0,0,0,0,0,-1,1385,1464,0,0
168,-440,0,0,0,0,0,0,0,0,0,-1,1392,1464,0,0
175,-440,0,0,0,0,0,0,0,0,0,-1,1399,1464,0,0
182,-440,0,0,0,0,0,0,0,0,0,-1,1406,1464,0,0
189,-440,0,0,0,0,0,0,0,0,0,-1,1413,1464,0,0
196,-440,0,0,0,0,0,0,0,0,0,-1,1420,1464,0,0
203,-440,0,0,0,0,0,0,0,0,0,-1,1427,1464,0,0
210,-440,0,0,0,0,0,0,0,0,0,-1,1434,1464,0,0
217,-440,0,0,0,0,0,0,0,0,0,-1,1441,1464,0,0
224,-440,0,0,0,0,0,0,0,0,0,-1,1448,1464,0,0
231,-440,0,0,0,0,0,0,0,0,0,-1,1455,1464,0,0
238,-440,0,0,0,0,0,0,0,0,0,-1,1462,1464,0,0
245,-440,0,0,0,0,0,0,0,0,0,-1,1469,1464,0,0
252,-440,0,0,0,0,0,0,0,0,0,-1,1476,1464,0,0
259,-440,0,0,0,0,0,0,0,0,0,-1,1483,1464,0,0
266,-440,0,0,0,0,0,0,0,0,0,-1,1490,1464,0,0
273,-440,0,0,0,0,0,0,0,0,0,-1,1497,1464,0,0
280,-440,0,0,0,0,0,0,0,0,0,-1,1504,1464,0,0
287,-440,0,0,0,0,0,0,0,0,0,-1,1511,1464,0,0
294,-440,0,0,0,0,0,0,0,0,0,-1,1518,1464,0,0
301,-440,0,0,0,0,0,0,0,0,0,-1,1525,1464,0,0
308,-440,0,0,0,0,0,0,0,0,0,-1,1532,1464,0,0
315,-440,0,0,0,0,0,0,0,0,0,-1,1539,1464,0,0
322,-440,0,0,0,0,0,0,0,0,0,-1,1546,1464,0,0
329,-440,0,0,0,0,0,0,0,0,0,-1,1553,1464,0,0
336,-440,0,0,0,0,0,0,0,0,0,-1,1560,1464,0,0
343,-440,0,0,0,0,0,0,0,0,0,-1,1567,1464,0,0
350,-440,0,0,0,0,0,0,0,0,0,-1,1574,1464,0,0
357,-440,0,0,0,0,0,0,0,0,0,-1,1581,1464,0,0
364,-440,0,0,0,0,0,0,0,0,0,-1,1588,1464,0,0
371,-440,0,0,0,0,0,0,0,0,0,-1,1595,1464,0,0
378,-440,0,0,0,0,0,0,0,0,0,-1,1602,1464,0,0
385,-440,0,0,0,0,0,0,0,0,0,-1,1609,1464,0,0
392,-440,0,0,0,0,0,0,0,0,0,-1,1616,1464,0,0
399,-440,0,0,0,0,0,0,0,0,0,-1,1623,1464,0,0
406,-440,0,0,0,0,0,0,0,0,0,-1,1630,1464,0,0
413,-440,0,0,0,0,0,0,0,0,0,-1,1637,1464,0,0
420,-440,0,0,0,0,0,0,0,0,0,-1,1644,1464,0,0
427,-440,0,0,0,0,0,0,0,0,0,-1,1651,1464,0,0
434,-440,0,0,0,0,0,0,0,0,0,-1,1658,1464,0,0
441,-440,0,0,0,0,0,0,0,0,0,-1,1665,1464,0,0
448,-440,0,0,0,0,0,0,0,0,0,-1,1672,1464,0,0
455,-440,0,0,0,0,0,0,0,0,0,-1,1679,1464,0,0
462,-440,0,0,0,0,0,0,0,0,0,-1,1686,1464,0,0
469,-440,0,0,0,0,0,0,0,0,0,-1,1693,1464,0,0
476,-440,0,0,0,0,0,0,0,0,0,-1,1700,1464,0,0
483,-440,0,0,0,0,0,0,0,0,0,-1,1707,1464,0,0
490,-440,0,0,0,0,0,0,0,0,0,-1,1714,1464,0,0
497,-440,16.965,-0.528442,0,0,0,0,0,0,0,-1,1721,1464,16.965,0.528492
504,-440,15.8052,0.670166,0,0,0,0,0,0,0,-1,1728,1464,15.8052,-0.670145
511,-440,17.5754,2.77832,0,0,0,0,0,0,0,-1,1735,1464,17.5754,-2.77826
518,-440,16.9017,3.07861,0,0,0,0,0,0,0,-1,1742,1464,16.9018,-3.07859
525,-440,18.4495,12.0867,0,0,0,0,0,0,0,-1,1749,1464,18.4495,-12.0867
532,-440,15.4319,3.64392,0,0,0,0,0,0,0,-1,1756,1464,15.4318,-3.64391
539,-440,14.8214,3.41321,0,0,0,0,0,0,0,-1,1763,1464,14.8214,-3.4132
546,-440,14.8651,10.7683,0,0,0,0,0,0,0,-1,1770,1464,14.8651,-10.7683
553,-440,15.1213,11.4121,0,0,0,0,0,0,0,-1,1777,1464,15.1213,-11.4121
560,-440,17.4325,12.5394,0,0,0,0,0,0,0,-1,1784,1464,17.4325,-12.5394
567,-440,16.9025,12.4249,0,0,0,0,0,0,0,-1,1791,1464,16.9025,-12.425
574,-440,17.5042,13.5045,0,0,0,0,0,0,0,-1,1798,1464,17.5041,-13.5045
581,-440,16.9995,13.2336,0,0,0,0,0,0,0,-1,1805,1464,16.9995,-13.2336
588,-440,17.1278,12.786,-0.00441972,0.00266301,0.00172062,0.00305888,-0.00481559,1.34466,0.00458388,0.0432459,1812,1464,17.1278,-12.786
595,-440,17.1393,12.3987,-0.0028101,0.00234611,0.000835335,0.00247806,-0.00294205,1.41413,0.00313312,0.0197697,1819,1464,17.1393,-12.3987
602,-440,17.1879,12.0167,-0.00163608,0.00182038,0.000443684,0.00187643,-0.00169212,1.44515,0.00206122,0.0177948,1826,1464,17.1878,-12.0167
609,-440,17.1816,11.6729,-0.000782665,0.00126528,0.000243618,0.00129386,-0.000811246,1.45401,0.00122599,0.0156567,1833,1464,17.1816,-11.6729
616,-440,17.1599,11.3641,-0.000266037,0.000747209,0.000256188,0.0008083,-0.000327128,1.33671,0.000674876,0.0169967,1840,1464,17.1599,-11.3642
623,-440,17.1708,11.0095,8.19846e-05,0.000206197,0.000346799,0.000496406,-0.000208225,0.874001,0.000418007,0.0127577,1847,1464,17.1708,-11.0096
630,-440,17.1471,10.6315,0.000274781,-0.000199656,0.00049843,0.000589563,-0.000514439,0.563294,0.000637888,0.0108392,1854,1464,17.1471,-10.6315
637,-440,17.1521,10.3174,0.000150199,-0.000518322,0.000851239,0.000730454,-0.00109858,0.59831,0.0010631,0.0148767,1861,1464,17.1521,-10.3173
644,-440,17.1515,10.0045,-0.000130022,-0.000802293,0.00128699,0.000864008,-0.00179632,0.657662,0.00156707,0.0135183,1868,1464,17.1515,-10.0045
651,-440,17.1669,9.62683,-0.000582988,-0.00100927,0.00182217,0.00103847,-0.00263073,0.727177,0.00218389,0.0153239,1875,1464,17.1668,-9.62677
658,-440,17.0475,9.30591,-0.00141701,-0.00115464,0.00264383,0.00136126,-0.00393291,0.810187,0.00317452,0.0307174,1882,1464,17.0475,-9.30591
665,-440,16.9973,8.95898,-0.00258132,-0.00116924,0.00360147,0.00179474,-0.0055453,0.882192,0.00441834,0.045966,1889,1464,16.9974,-8.95894
672,-440,17.176,8.53174,0,0,0,0,0,0,0,-1,1896,1464,17.176,-8.53179
679,-440,16.0343,9.21448,0,0,0,0,0,0,0,-1,1903,1464,16.0343,-9.21444
686,-440,15.2556,8.44177,0,0,0,0,0,0,0,-1,1910,1464,15.2556,-8.44177
693,-440,9.88635,2.89795,0,0,0,0,0,0,0,-1,1917,1464,9.88638,-2.89798
700,-440,7.07825,-2.62061,0,0,0,0,0,0,0,-1,1924,1464,7.07829,2.62057
707,-440,0,0,0,0,0,0,0,0,0,-1,1931,1464,0,0
714,-440,0,0,0,0,0,0,0,0,0,-1,1938,1464,0,0
721,-440,0,0,0,0,0,0,0,0,0,-1,1945,1464,0,0
728,-440,0,0,0,0,0,0,0,0,0,-1,1952,1464,0,0
735,-440,0,0,0,0,0,0,0,0,0,-1,1959,1464,0,0
742,-440,0,0,0,0,0,0,0,0,0,-1,1966,1464,0,0
749,-440,0,0,0,0,0,0,0,0,0,-1,1973,1464,0,0
756,-440,0,0,0,0,0,0,0,0,0,-1,1980,1464,0,0
763,-440,0,0,0,0,0,0,0,0,0,-1,1987,1464,0,0
770,-440,0,0,0,0,0,0,0,0,0,-1,1994,1464,0,0
777,-440,0,0,0,0,0,0,0,0,0,-1,2001,1464,0,0
784,-440,0,0,0,0,0,0,0,0,0,-1,2008,1464,0,0
791,-440,0,0,0,0,0,0,0,0,0,-1,2015,1464,0,0
798,-440,0,0,0,0,0,0,0,0,0,-1,2022,1464,0,0
805,-440,0,0,0,0,0,0,0,0,0,-1,2029,1464,0,0
812,-440,0,0,0,0,0,0,0,0,0,-1,2036,1464,0,0
-700,-447,0,0,0,0,0,0,0,0,0,-1,524,1471,0,0
-693,-447,0,0,0,0,0,0,0,0,0,-1,531,1471,0,0
-686,-447,0,0,0,0,0,0,0,0,0,-1,538,1471,0,0
-679,-447,0,0,0,0,0,0,0,0,0,-1,545,1471,0,0
-672,-447,0,0,0,0,0,0,0,0,0,-1,552,1471,0,0
-665,-447,0,0,0,0,0,0,0,0,0,-1,559,1471,0,0
-658,-447,0,0,0,0,0,0,0,0,0,-1,566,1471,0,0
-651,-447,0,0,0,0,0,0,0,0,0,-1,573,1471,0,0
-644,-447,0,0,0,0,0,0,0,0,0,-1,580,1471,0,0
-637,-447,0,0,0,0,0,0,0,0,0,-1,587,1471,0,0
-630,-447,0,0,0,0,0,0,0,0,0,-1,594,1471,0,0
-623,-447,0,0,0,0,0,0,0,0,0,-1,601,1471,0,0
-616,-447,0,0,0,0,0,0,0,0,0,-1,608,1471,0,0
-609,-447,0,0,0,0,0,0,0,0,0,-1,615,1471,0,0
-602,-447,0,0,0,0,0,0,0,0,0,-1,622,1471,0,0
-595,-447,0,0,0,0,0,0,0,0,0,-1,629,1471,0,0
-588,-447,0,0,0,0,0,0,0,0,0,-1,636,1471,0,0
-581,-447,-7.06482,-1.50476,0,0,0,0,0,0,0,-1,643,1471,-7.0648,1.50474
-574,-447,-6.88092,-0.00585938,0,0,0,0,0,0,0,-1,650,1471,-6.88095,0.00589852
-567,-447,-6.8205,-1.32178,0,0,0,0,0,0,0,-1,657,1471,-6.82047,1.32172
-560,-447,-8.85748,2.80774,0,0,0,0,0,0,0,-1,664,1471,-8.85748,-2.80775
-553,-447,-7.60486,3.26794,0,0,0,0,0,0,0,-1,671,1471,-7.60487,-3.26799
-546,-447,-3.94501,1.8656,0,0,0,0,0,0,0,-1,678,1471,-3.945,-1.86554
-539,-447,-5.35492,4.50024,0,0,0,0,0,0,0,-1,685,1471,-5.35492,-4.50018
-532,-447,-5.34528,6.75879,0,0,0,0,0,0,0,-1,692,1471,-5.34528,-6.75883
-525,-447,-5.0813,7.4668,-0.00191392,0.00559908,0.00737072,0.0101154,-0.00643019,1.02107,0.00963123,0.0419524,699,1471,-5.08129,-7.46678
-518,-447,-5.23645,7.65503,-0.000403457,0.00407449,0.00531642,0.00760417,-0.00393314,0.984698,0.00677253,0.0349016,706,1471,-5.23647,-7.65506
-511,-447,-5.20691,8.04834,0.000412887,0.00292631,0.00371487,0.00559128,-0.00225208,0.948502,0.00466315,0.0172851,713,1471,-5.2069,-8.04838
-504,-447,-5.22137,8.48145,0.000937231,0.00191293,0.00250044,0.00397266,-0.0011225,0.88174,0.0030913,0.0190552,720,1471,-5.22136,-8.4814
-497,-447,-5.28986,8.88489,0.00139771,0.00122634,0.00172245,0.00303661,-0.00041256,0.760547,0.00217501,0.0220532,727,1471,-5.28985,-8.88491
-490,-447,-5.27637,9.18384,0.00156225,0.00057743,0.00122456,0.00238969,-0.000250012,0.594235,0.00168267,0.022118,734,1471,-5.27637,-9.18387
-483,-447,-5.26605,9.51343,0.00134547,-0.000153203,0.000451138,0.0014708,-0.000278527,0.270962,0.00108535,0.0212523,741,1471,-5.26604,-9.51348
-476,-447,-5.25195,9.91003,0.00103672,-0.00112894,-0.000219511,0.00105874,-0.00115097,-0.100005,0.00127615,0.0140094,748,1471,-5.25196,-9.91003
-469,-447,-5.26544,10.3472,0.000427093,-0.00252054,-0.00097981,0.000723068,-0.00281652,-0.293358,0.00215944,0.0121069,755,1471,-5.26547,-10.3471
-462,-447,-5.29822,10.7625,-0.00039466,-0.00397193,-0.00180452,0.000357471,-0.00472406,-0.394909,0.00327504,0.0122221,762,1471,-5.29821,-10.7625
-455,-447,-5.31689,11.1262,-0.00157478,-0.00603444,-0.00304661,-2.91623e-05,-0.00758005,-0.469488,0.00504367,0.0155126,769,1471,-5.31691,-11.1262
-448,-447,-5.18018,11.5619,-0.00298361,-0.00900141,-0.00480887,-0.000319884,-0.0116651,-0.505848,0.00767235,0.0283721,776,1471,-5.18019,-11.5619
-441,-447,-5.20831,11.9082,-0.00507548,-0.0127692,-0.00744434,-0.000542801,-0.0173018,-0.54692,0.0113579,0.0383001,783,1471,-5.20834,-11.9083
-434,-447,-5.638,12.0176,-0.00817609,-0.0181518,-0.0110362,-0.00105291,-0.025275,-0.57316,0.0165102,0.0433642,790,1471,-5.63803,-12.0176
-427,-447,-4.96271,11.6378,0,0,0,0,0,0,0,-1,797,1471,-4.96272,-11.6378
-420,-447,-5.44659,10.1879,0,0,0,0,0,0,0,-1,804,1471,-5.44662,-10.1879
-413,-447,-4.27393,6.59705,0,0,0,0,0,0,0,-1,811,1471,-4.27392,-6.59707
-406,-447,-1.04279,6.18591,0,0,0,0,0,0,0,-1,818,1471,-1.04276,-6.18586
-399,-447,0.0134888,0.687622,0,0,0,0,0,0,0,-1,825,1471,0.0134841,-0.68767
-392,-447,-14.0646,3.76147,0,0,0,0,0,0,0,-1,832,1471,-14.0646,-3.7615
-385,-447,-15.1695,2.61865,0,0,0,0,0,0,0,-1,839,1471,-15.1695,-2.61871
-378,-447,-15.9424,1.49316,0,0,0,0,0,0,0,-1,846,1471,-15.9424,-1.49313
-371,-447,-17.3655,0.73291,0,0,0,0,0,0,0,-1,853,1471,-17.3655,-0.732946
-364,-447,0,0,0,0,0,0,0,0,0,-1,860,1471,0,0
-357,-447,0,0,0,0,0,0,0,0,0,-1,867,1471,0,0
-350,-447,0,0,0,0,0,0,0,0,0,-1,874,1471,0,0
-343,-447,0,0,0,0,0,0,0,0,0,-1,881,1471,0,0
-336,-447,0,0,0,0,0,0,0,0,0,-1,888,1471,0,0
-329,-447,0,0,0,0,0,0,0,0,0,-1,895,1471,0,0
-322,-447,0,0,0,0,0,0,0,0,0,-1,902,1471,0,0
-315,-447,0,0,0,0,0,0,0,0,0,-1,909,1471,0,0
-308,-447,0,0,0,0,0,0,0,0,0,-1,916,1471,0,0
-301,-447,0,0,0,0,0,0,0,0,0,-1,923,1471,0,0
-294,-447,0,0,0,0,0,0,0,0,0,-1,930,1471,0,0
-287,-447,0,0,0,0,0,0,0,0,0,-1,937,1471,0,0
-280,-447,0,0,0,0,0,0,0,0,0,-1,944,1471,0,0
-273,-447,0,0,0,0,0,0,0,0,0,-1,951,1471,0,0
-266,-447,0,0,0,0,0,0,0,0,0,-1,958,1471,0,0
-259,-447,0,0,0,0,0,0,0,0,0,-1,965,1471,0,0
-252,-447,0,0,0,0,0,0,0,0,0,-1,972,1471,0,0
-245,-447,0,0,0,0,0,0,0,0,0,-1,979,1471,0,0
-238,-447,0,0,0,0,0,0,0,0,0,-1,986,1471,0,0
-231,-447,0,0,0,0,0,0,0,0,0,-1,993,1471,0,0
-224,-447,0,0,0,0,0,0,0,0,0,-1,1000,1471,0,0
-217,-447,0,0,0,0,0,0,0,0,0,-1,1007,1471,0,0
-210,-447,0,0,0,0,0,0,0,0,0,-1,1014,1471,0,0
-203,-447,0,0,0,0,0,0,0,0,0,-1,1021,1471,0,0
-196,-447,0,0,0,0,0,0,0,0,0,-1,1028,1471,0,0
-189,-447,0,0,0,0,0,0,0,0,0,-1,1035,1471,0,0
-182,-447,0,0,0,0,0,0,0,0,0,-1,1042,1471,0,0
-175,-447,0,0,0,0,0,0,0,0,0,-1,1049,1471,0,0
-168,-447,0,0,0,0,0,0,0,0,0,-1,1056,1471,0,0
-161,-447,0,0,0,0,0,0,0,0,0,-1,1063,1471,0,0
-154,-447,0,0,0,0,0,0,0,0,0,-1,1070,1471,0,0
-147,-447,0,0,0,0,0,0,0,0,0,-1,1077,1471,0,0
-140,-447,0,0,0,0,0,0,0,0,0,-1,1084,1471,0,0
-133,-447,0,0,0,0,0,0,0,0,0,-1,1091,1471,0,0
-126,-447,0,0,0,0,0,0,0,0,0,-1,1098,1471,0,0
-119,-447,0,0,0,0,0,0,0,0,0,-1,1105,1471,0,0
-112,-447,0,0,0,0,0,0,0,0,0,-1,1112,1471,0,0
-105,-447,0,0,0,0,0,0,0,0,0,-1,1119,1471,0,0
-98,-447,0,0,0,0,0,0,0,0,0,-1,1126,1471,0,0
-91,-447,0,0,0,0,0,0,0,0,0,-1,1133,1471,0,0
-84,-447,0,0,0,0,0,0,0,0,0,-1,1140,1471,0,0
-77,-447,0,0,0,0,0,0,0,0,0,-1,1147,1471,0,0
-70,-447,0,0,0,0,0,0,0,0,0,-1,1154,1471,0,0
-63,-447,0,0,0,0,0,0,0,0,0,-1,1161,1471,0,0
-56,-447,0,0,0,0,0,0,0,0,0,-1,1168,1471,0,0
-49,-447,0,0,0,0,0,0,0,0,0,-1,1175,1471,0,0
-42,-447,0,0,0,0,0,0,0,0,0,-1,1182,1471,0,0
-35,-447,0,0,0,0,0,0,0,0,0,-1,1189,1471,0,0
-28,-447,0,0,0,0,0,0,0,0,0,-1,1196,1471,0,0
-21,-447,0,0,0,0,0,0,0,0,0,-1,1203,1471,0,0
-14,-447,0,0,0,0,0,0,0,0,0,-1,1210,1471,0,0
-7,-447,0,0,0,0,0,0,0,0,0,-1,1217,1471,0,0
0,-447,0,0,0,0,0,0,0,0,0,-1,1224,1471,0,0
7,-447,0,0,0,0,0,0,0,0,0,-1,1231,1471,0,0
14,-447,0,0,0,0,0,0,0,0,0,-1,1238,1471,0,0
21,-447,0,0,0,0,0,0,0,0,0,-1,1245,1471,0,0
28,-447,0,0,0,0,0,0,0,0,0,-1,1252,1471,0,0
35,-447,0,0,0,0,0,0,0,0,0,-1,1259,1471,0,0
42,-447,0,0,0,0,0,0,0,0,0,-1,1266,1471,0,0
49,-447,0,0,0,0,0,0,0,0,0,-1,1273,1471,0,0
56,-447,0,0,0,0,0,0,0,0,0,-1,1280,1471,0,0
63,-447,0,0,0,0,0,0,0,0,0,-1,1287,1471,0,0
70,-447,0,0,0,0,0,0,0,0,0,-1,1294,1471,0,0
77,-447,0,0,0,0,0,0,0,0,0,-1,1301,1471,0,0
84,-447,0,0,0,0,0,0,0,0,0,-1,1308,1471,0,0
91,-447,0,0,0,0,0,0,0,0,0,-1,1315,1471,0,0
98,-447,0,0,0,0,0,0,0,0,0,-1,1322,1471,0,0
105,-447,0,0,0,0,0,0,0,0,0,-1,1329,1471,0,0
112,-447,0,0,0,0,0,0,0,0,0,-1,1336,1471,0,0
119,-447,0,0,0,0,0,0,0,0,0,-1,1343,1471,0,0
126,-447,0,0,0,0,0,0,0,0,0,-1,1350,1471,0,0
133,-447,0,0,0,0,0,0,0,0,0,-1,1357,1471,0,0
140,-447,0,0,0,0,0,0,0,0,0,-1,1364,1471,0,0
147,-447,0,0,0,0,0,0,0,0,0,-1,1371,1471,0,0
154,-447,0,0,0,0,0,0,0,0,0,-1,1378,1471,0,0
161,-447,0,0,0,0,0,0,0,0,0,-1,1385,1471,0,0
168,-447,0,0,0,0,0,0,0,0,0,-1,1392,1471,0,0
175,-447,0,0,0,0,0,0,0,0,0,-1,1399,1471,0,0
182,-447,0,0,0,0,0,0,0,0,0,-1,1406,1471,0,0
189,-447,0,0,0,0,0,0,0,0,0,-1,1413,1471,0,0
196,-447,0,0,0,0,0,0,0,0,0,-1,1420,1471,0,0
203,-447,0,0,0,0,0,0,0,0,0,-1,1427,1471,0,0
210,-447,0,0,0,0,0,0,0,0,0,-1,1434,1471,0,0
217,-447,0,0,0,0,0,0,0,0,0,-1,1441,1471,0,0
224,-447,0,0,0,0,0,0,0,0,0,-1,1448,1471,0,0
231,-447,0,0,0,0,0,0,0,0,0,-1,1455,1471,0,0
238,-447,0,0,0,0,0,0,0,0,0,-1,1462,1471,0,0
245,-447,0,0,0,0,0,0,0,0,0,-1,1469,1471,0,0
252,-447,0,0,0,0,0,0,0,0,0,-1,1476,1471,0,0
259,-447,0,0,0,0,0,0,0,0,0,-1,1483,1471,0,0
266,-447,0,0,0,0,0,0,0,0,0,-1,1490,1471,0,0
273,-447,0,0,0,0,0,0,0,0,0,-1,1497,1471,0,0
280,-447,0,0,0,0,0,0,0,0,0,-1,1504,1471,0,0
287,-447,0,0,0,0,0,0,0,0,0,-1,1511,1471,0,0
294,-447,0,0,0,0,0,0,0,0,0,-1,1518,1471,0,0
301,-447,0,0,0,0,0,0,0,0,0,-1,1525,1471,0,0
308,-447,0,0,0,0,0,0,0,0,0,-1,1532,1471,0,0
315,-447,0,0,0,0,0,0,0,0,0,-1,1539,1471,0,0
322,-447,0,0,0,0,0,0,0,0,0,-1,1546,1471,0,0
329,-447,0,0,0,0,0,0,0,0,0,-1,1553,1471,0,0
336,-447,0,0,0,0,0,0,0,0,0,-1,1560,1471,0,0
343,-447,0,0,0,0,0,0,0,0,0,-1,1567,1471,0,0
350,-447,0,0,0,0,0,0,0,0,0,-1,1574,1471,0,0
357,-447,0,0,0,0,0,0,0,0,0,-1,1581,1471,0,0
364,-447,0,0,0,0,0,0,0,0,0,-1,1588,1471,0,0
371,-447,0,0,0,0,0,0,0,0,0,-1,1595,1471,0,0
378,-447,0,0,0,0,0,0,0,0,0,-1,1602,1471,0,0
385,-447,0,0,0,0,0,0,0,0,0,-1,1609,1471,0,0
392,-447,0,0,0,0,0,0,0,0,0,-1,1616,1471,0,0
399,-447,0,0,0,0,0,0,0,0,0,-1,1623,1471,0,0
406,-447,0,0,0,0,0,0,0,0,0,-1,1630,1471,0,0
413,-447,0,0,0,0,0,0,0,0,0,-1,1637,1471,0,0
420,-447,0,0,0,0,0,0,0,0,0,-1,1644,1471,0,0
427,-447,0,0,0,0,0,0,0,0,0,-1,1651,1471,0,0
434,-447,0,0,0,0,0,0,0,0,0,-1,1658,1471,0,0
441,-447,0,0,0,0,0,0,0,0,0,-1,1665,1471,0,0
448,-447,0,0,0,0,0,0,0,0,0,-1,1672,1471,0,0
455,-447,0,0,0,0,0,0,0,0,0,-1,1679,1471,0,0
462,-447,0,0,0,0,0,0,0,0,0,-1,1686,1471,0,0
469,-447,0,0,0,0,0,0,0,0,0,-1,1693,1471,0,0
476,-447,0,0,0,0,0,0,0,0,0,-1,1700,1471,0,0
483,-447,0,0,0,0,0,0,0,0,0,-1,1707,1471,0,0
490,-447,18.2214,-0.810303,0,0,0,0,0,0,0,-1,1714,1471,18.2215,0.810307
497,-447,17.0237,0.352417,0,0,0,0,0,0,0,-1,1721,1471,17.0237,-0.352442
504,-447,15.8998,1.53479,0,0,0,0,0,0,0,-1,1728,1471,15.8997,-1.53478
511,-447,14.7201,2.76111,0,0,0,0,0,0,0,-1,1735,1471,14.7201,-2.76107
518,-447,17.7618,13.2864,0,0,0,0,0,0,0,-1,1742,1471,17.7619,-13.2863
525,-447,17.1191,11.9014,0,0,0,0,0,0,0,-1,1749,1471,17.1191,-11.9013
532,-447,16.3959,10.0455,0,0,0,0,0,0,0,-1,1756,1471,16.3959,-10.0456
539,-447,14.1699,10.0204,0,0,0,0,0,0,0,-1,1763,1471,14.1699,-10.0204
546,-447,16.3715,11.8046,0,0,0,0,0,0,0,-1,1770,1471,16.3714,-11.8046
553,-447,17.5106,13.4012,0,0,0,0,0,0,0,-1,1777,1471,17.5107,-13.4012
560,-447,17.0187,13.168,0,0,0,0,0,0,0,-1,1784,1471,17.0187,-13.168
567,-447,17.1959,13.6714,0,0,0,0,0,0,0,-1,1791,1471,17.196,-13.6714
574,-447,17.0226,13.3715,-0.00823385,0.00219128,0.00490058,0.00413319,-0.0101758,1.19352,0.00850327,0.0445371,1798,1471,17.0226,-13.3714
581,-447,16.7484,13.1996,-0.0055945,0.00210002,0.00306175,0.00316964,-0.00666412,1.2347,0.00579578,0.0263569,1805,1471,16.7485,-13.1995
588,-447,16.8275,12.7296,-0.00344366,0.00214332,0.00151599,0.00252817,-0.00382851,1.32219,0.00369554,0.0168622,1812,1471,16.8275,-12.7296
595,-447,16.8353,12.3649,-0.00197804,0.00196252,0.000656271,0.00206895,-0.00208447,1.41003,0.00239798,0.0124358,1819,1471,16.8354,-12.3649
602,-447,16.8248,12.004,-0.000985364,0.00155333,0.000278463,0.00158352,-0.00101555,1.46282,0.00151247,0.0107516,1826,1471,16.8248,-12.0041
609,-447,16.8215,11.6626,-0.00031035,0.00106972,0.000123715,0.00108073,-0.000321353,1.4821,0.000848144,0.0119922,1833,1471,16.8216,-11.6626
616,-447,16.8298,11.3312,0.000125275,0.000592731,0.000173544,0.000650116,6.78909e-05,1.25145,0.000412646,0.0139808,1840,1471,16.8299,-11.3311
623,-447,16.8258,11.0135,0.000408065,7.81681e-05,0.000295908,0.000581892,-9.56597e-05,0.531133,0.000423432,0.0150506,1847,1471,16.8258,-11.0135
630,-447,16.8159,10.6626,0.00051402,-0.000343805,0.000512675,0.000753539,-0.000583325,0.437062,0.000773922,0.00902917,1854,1471,16.8159,-10.6626
637,-447,16.8231,10.309,0.000313333,-0.00069075,0.000919298,0.000858743,-0.00123616,0.535471,0.00121602,0.00951775,1861,1471,16.8231,-10.309
644,-447,16.8268,9.9729,-5.88643e-05,-0.00100447,0.00142025,0.000965209,-0.00202855,0.624716,0.00176441,0.0106413,1868,1471,16.8268,-9.97291
651,-447,16.8336,9.62585,-0.000657525,-0.00128325,0.00206747,0.00112062,-0.0030614,0.710304,0.00249965,0.0357782,1875,1471,16.8336,-9.62589
658,-447,16.4609,9.43616,-0.00174489,-0.00152782,0.00308343,0.00144899,-0.00472169,0.802991,0.00372592,0.0465757,1882,1471,16.461,-9.43615
665,-447,16.1584,8.8877,0,0,0,0,0,0,0,-1,1889,1471,16.1584,-8.88773
672,-447,15.9619,9.39587,0,0,0,0,0,0,0,-1,1896,1471,15.9619,-9.3959
679,-447,14.844,7.4248,0,0,0,0,0,0,0,-1,1903,1471,14.844,-7.42477
686,-447,9.81079,4.30859,0,0,0,0,0,0,0,-1,1910,1471,9.8108,-4.30864
693,-447,10.48,2.08643,0,0,0,0,0,0,0,-1,1917,1471,10.48,-2.08642
700,-447,0,0,0,0,0,0,0,0,0,-1,1924,1471,0,0
707,-447,0,0,0,0,0,0,0,0,0,-1,1931,1471,0,0
714,-447,0,0,0,0,0,0,0,0,0,-1,1938,1471,0,0
721,-447,0,0,0,0,0,0,0,0,0,-1,1945,1471,0,0
728,-447,0,0,0,0,0,0,0,0,0,-1,1952,1471,0,0
735,-447,0,0,0,0,0,0,0,0,0,-1,1959,1471,0,0
742,-447,0,0,0,0,0,0,0,0,0,-1,1966,1471,0,0
749,-447,0,0,0,0,0,0,0,0,0,-1,1973,1471,0,0
756,-447,0,0,0,0,0,0,0,0,0,-1,1980,1471,0,0
763,-447,0,0,0,0,0,0,0,0,0,-1,1987,1471,0,0
770,-447,0,0,0,0,0,0,0,0,0,-1,1994,1471,0,0
777,-447,0,0,0,0,0,0,0,0,0,-1,2001,1471,0,0
784,-447,0,0,0,0,0,0,0,0,0,-1,2008,1471,0,0
791,-447,0,0,0,0,0,0,0,0,0,-1,2015,1471,0,0
798,-447,0,0,0,0,0,0,0,0,0,-1,2022,1471,0,0
805,-447,0,0,0,0,0,0,0,0,0,-1,2029,1471,0,0
812,-447,0,0,0,0,0,0,0,0,0,-1,2036,1471,0,0
-700,-454,0,0,0,0,0,0,0,0,0,-1,524,1478,0,0
-693,-454,0,0,0,0,0,0,0,0,0,-1,531,1478,0,0
-686,-454,0,0,0,0,0,0,0,0,0,-1,538,1478,0,0
-679,-454,0,0,0,0,0,0,0,0,0,-1,545,1478,0,0
-672,-454,0,0,0,0,0,0,0,0,0,-1,552,1478,0,0
-665,-454,0,0,0,0,0,0,0,0,0,-1,559,1478,0,0
-658,-454,0,0,0,0,0,0,0,0,0,-1,566,1478,0,0
-651,-454,0,0,0,0,0,0,0,0,0,-1,573,1478,0,0
-644,-454,0,0,0,0,0,0,0,0,0,-1,580,1478,0,0
-637,-454,0,0,0,0,0,0,0,0,0,-1,587,1478,0,0
-630,-454,0,0,0,0,0,0,0,0,0,-1,594,1478,0,0
-623,-454,0,0,0,0,0,0,0,0,0,-1,601,1478,0,0
-616,-454,0,0,0,0,0,0,0,0,0,-1,608,1478,0,0
-609,-454,0,0,0,0,0,0,0,0,0,-1,615,1478,0,0
-602,-454,0,0,0,0,0,0,0,0,0,-1,622,1478,0,0
-595,-454,0,0,0,0,0,0,0,0,0,-1,629,1478,0,0
-588,-454,0,0,0,0,0,0,0,0,0,-1,636,1478,0,0
-581,-454,0,0,0,0,0,0,0,0,0,-1,643,1478,0,0
-574,-454,-8.4881,-0.465942,0,0,0,0,0,0,0,-1,650,1478,-8.4881,0.465885
-567,-454,-8.10046,0.922974,0,0,0,0,0,0,0,-1,657,1478,-8.10047,-0.923034
-560,-454,-10.656,3.51172,0,0,0,0,0,0,0,-1,664,1478,-10.656,-3.51176
-553,-454,-9.01129,3.95251,0,0,0,0,0,0,0,-1,671,1478,-9.0113,-3.95256
-546,-454,-9.61896,6.05237,0,0,0,0,0,0,0,-1,678,1478,-9.61897,-6.05239
-539,-454,-7.72589,4.96533,0,0,0,0,0,0,0,-1,685,1478,-7.72592,-4.96532
-532,-454,-5.5614,6.01172,0,0,0,0,0,0,0,-1,692,1478,-5.5614,-6.01171
-525,-454,-5.20825,7.01074,0.000450479,0.00693522,0.00901211,0.0132705,-0.00588479,0.958078,0.01133,0.0462731,699,1478,-5.20824,-7.01073
-518,-454,-4.85114,7.96948,0.00118396,0.00485923,0.00614537,0.00943584,-0.00339264,0.93068,0.00767557,0.0428338,706,1478,-4.85113,-7.96947
-511,-454,-4.90906,8.02393,0.00134468,0.00338869,0.00403051,0.00652476,-0.00179138,0.909565,0.00505392,0.0288071,713,1478,-4.90907,-8.02395
-504,-454,-4.85779,8.4469,0.00133153,0.00213879,0.00247656,0.00424439,-0.000774072,0.866178,0.0031198,0.0155567,720,1478,-4.85779,-8.44692
-497,-454,-4.87714,8.8595,0.00139263,0.00131849,0.00150632,0.00286233,-0.000151212,0.773096,0.00196057,0.017316,727,1478,-4.87712,-8.85953
-490,-454,-4.88281,9.23914,0.00140089,0.000709851,0.000957529,0.00207333,3.74097e-05,0.612246,0.00136992,0.0162402,734,1478,-4.8828,-9.23913
-483,-454,-4.90851,9.59998,0.00119289,4.94586e-05,0.00028408,0.00125958,-1.723e-05,0.230578,0.000845523,0.0158823,741,1478,-4.90848,-9.60003
-476,-454,-4.93066,9.94421,0.000935086,-0.000791225,-0.000270769,0.000976559,-0.000832698,-0.151987,0.00104568,0.0131837,748,1478,-4.93065,-9.9442
-469,-454,-4.92883,10.3411,0.000500412,-0.00203219,-0.000898138,0.000786583,-0.00231836,-0.308457,0.00186394,0.00974322,755,1478,-4.92882,-10.341
-462,-454,-4.95007,10.7325,1.97104e-05,-0.00318955,-0.00145982,0.000584393,-0.00375424,-0.369089,0.00271864,0.00997454,762,1478,-4.95005,-10.7326
-455,-454,-4.95856,11.0945,-0.000641383,-0.00487363,-0.00232499,0.000386304,-0.00590132,-0.416197,0.0040691,0.011191,769,1478,-4.95858,-11.0944
-448,-454,-4.92761,11.4733,-0.00132571,-0.00716355,-0.00352313,0.000330586,-0.00881984,-0.439458,0.00599313,0.014218,776,1478,-4.92763,-11.4733
-441,-454,-4.70007,11.9663,-0.00232075,-0.0100876,-0.00531089,0.000375074,-0.0127834,-0.469712,0.00865001,0.0275692,783,1478,-4.7001,-11.9663
-434,-454,-4.64429,12.2604,-0.0040247,-0.0142815,-0.0078196,0.000198197,-0.0185044,-0.495164,0.0124029,0.0389178,790,1478,-4.6443,-12.2603
-427,-454,-4.62189,12.0557,-0.00613251,-0.0197234,-0.010963,-2.96421e-05,-0.0258262,-0.507955,0.0172076,0.0493712,797,1478,-4.62187,-12.0557
-420,-454,-4.55554,12.1727,0,0,0,0,0,0,0,-1,804,1478,-4.55553,-12.1727
-413,-454,-4.54706,11.8824,0,0,0,0,0,0,0,-1,811,1478,-4.54707,-11.8825
-406,-454,-2.38208,10.0308,0,0,0,0,0,0,0,-1,818,1478,-2.38209,-10.0308
-399,-454,-1.21033,6.95447,0,0,0,0,0,0,0,-1,825,1478,-1.21035,-6.95452
-392,-454,0.0967407,0.985474,0,0,0,0,0,0,0,-1,832,1478,0.0967364,-0.985529
-385,-454,2.38629,3.297,0,0,0,0,0,0,0,-1,839,1478,2.38629,-3.29702
-378,-454,-15.9756,2.83997,0,0,0,0,0,0,0,-1,846,1478,-15.9756,-2.83994
-371,-454,-17.2753,2.01453,0,0,0,0,0,0,0,-1,853,1478,-17.2753,-2.01455
-364,-454,1.08124,0.819458,0,0,0,0,0,0,0,-1,860,1478,1.08124,-0.819513
-357,-454,0,0,0,0,0,0,0,0,0,-1,867,1478,0,0
-350,-454,0,0,0,0,0,0,0,0,0,-1,874,1478,0,0
-343,-454,0,0,0,0,0,0,0,0,0,-1,881,1478,0,0
-336,-454,0,0,0,0,0,0,0,0,0,-1,888,1478,0,0
-329,-454,0,0,0,0,0,0,0,0,0,-1,895,1478,0,0
-322,-454,0,0,0,0,0,0,0,0,0,-1,902,1478,0,0
-315,-454,0,0,0,0,0,0,0,0,0,-1,909,1478,0,0
-308,-454,0,0,0,0,0,0,0,0,0,-1,916,1478,0,0
-301,-454,0,0,0,0,0,0,0,0,0,-1,923,1478,0,0
-294,-454,0,0,0,0,0,0,0,0,0,-1,930,1478,0,0
-287,-454,0,0,0,0,0,0,0,0,0,-1,937,1478,0,0
-280,-454,0,0,0,0,0,0,0,0,0,-1,944,1478,0,0
-273,-454,0,0,0,0,0,0,0,0,0,-1,951,1478,0,0
-266,-454,0,0,0,0,0,0,0,0,0,-1,958,1478,0,0
-259,-454,0,0,0,0,0,0,0,0,0,-1,965,1478,0,0
-252,-454,0,0,0,0,0,0,0,0,0,-1,972,1478,0,0
-245,-454,0,0,0,0,0,0,0,0,0,-1,979,1478,0,0
-238,-454,0,0,0,0,0,0,0,0,0,-1,986,1478,0,0
-231,-454,0,0,0,0,0,0,0,0,0,-1,993,1478,0,0
-224,-454,0,0,0,0,0,0,0,0,0,-1,1000,1478,0,0
-217,-454,0,0,0,0,0,0,0,0,0,-1,1007,1478,0,0
-210,-454,0,0,0,0,0,0,0,0,0,-1,1014,1478,0,0
-203,-454,0,0,0,0,0,0,0,0,0,-1,1021,1478,0,0
-196,-454,0,0,0,0,0,0,0,0,0,-1,1028,1478,0,0
-189,-454,0,0,0,0,0,0,0,0,0,-1,1035,1478,0,0
-182,-454,0,0,0,0,0,0,0,0,0,-1,1042,1478,0,0
-175,-454,0,0,0,0,0,0,0,0,0,-1,1049,1478,0,0
-168,-454,0,0,0,0,0,0,0,0,0,-1,1056,1478,0,0
-161,-454,0,0,0,0,0,0,0,0,0,-1,1063,1478,0,0
-154,-454,0,0,0,0,0,0,0,0,0,-1,1070,1478,0,0
-147,-454,0,0,0,0,0,0,0,0,0,-1,1077,1478,0,0
-140,-454,0,0,0,0,0,0,0,0,0,-1,1084,1478,0,0
-133,-454,0,0,0,0,0,0,0,0,0,-1,1091,1478,0,0
-126,-454,0,0,0,0,0,0,0,0,0,-1,1098,1478,0,0
-119,-454,0,0,0,0,0,0,0,0,0,-1,1105,1478,0,0
-112,-454,0,0,0,0,0,0,0,0,0,-1,1112,1478,0,0
-105,-454,0,0,0,0,0,0,0,0,0,-1,1119,1478,0,0
-98,-454,0,0,0,0,0,0,0,0,0,-1,1126,1478,0,0
-91,-454,0,0,0,0,0,0,0,0,0,-1,1133,1478,0,0
-84,-454,0,0,0,0,0,0,0,0,0,-1,1140,1478,0,0
-77,-454,0,0,0,0,0,0,0,0,0,-1,1147,1478,0,0
-70,-454,0,0,0,0,0,0,0,0,0,-1,1154,1478,0,0
-63,-454,0,0,0,0,0,0,0,0,0,-1,1161,1478,0,0
-56,-454,0,0,0,0,0,0,0,0,0,-1,1168,1478,0,0
-49,-454,0,0,0,0,0,0,0,0,0,-1,1175,1478,0,0
-42,-454,0,0,0,0,0,0,0,0,0,-1,1182,1478,0,0
-35,-454,0,0,0,0,0,0,0,0,0,-1,1189,1478,0,0
-28,-454,0,0,0,0,0,0,0,0,0,-1,1196,1478,0,0
-21,-454,0,0,0,0,0,0,0,0,0,-1,1203,1478,0,0
-14,-454,0,0,0,0,0,0,0,0,0,-1,1210,1478,0,0
-7,-454,0,0,0,0,0,0,0,0,0,-1,1217,1478,0,0
0,-454,0,0,0,0,0,0,0,0,0,-1,1224,1478,0,0
7,-454,0,0,0,0,0,0,0,0,0,-1,1231,1478,0,0
14,-454,0,0,0,0,0,0,0,0,0,-1,1238,1478,0,0
21,-454,0,0,0,0,0,0,0,0,0,-1,1245,1478,0,0
28,-454,0,0,0,0,0,0,0,0,0,-1,1252,1478,0,0
35,-454,0,0,0,0,0,0,0,0,0,-1,1259,1478,0,0
42,-454,0,0,0,0,0,0,0,0,0,-1,1266,1478,0,0
49,-454,0,0,0,0,0,0,0,0,0,-1,1273,1478,0,0
56,-454,0,0,0,0,0,0,0,0,0,-1,1280,1478,0,0
63,-454,0,0,0,0,0,0,0,0,0,-1,1287,1478,0,0
70,-454,0,0,0,0,0,0,0,0,0,-1,1294,1478,0,0
77,-454,0,0,0,0,0,0,0,0,0,-1,1301,1478,0,0
84,-454,0,0,0,0,0,0,0,0,0,-1,1308,1478,0,0
91,-454,0,0,0,0,0,0,0,0,0,-1,1315,1478,0,0
98,-454,0,0,0,0,0,0,0,0,0,-1,1322,1478,0,0
105,-454,0,0,0,0,0,0,0,0,0,-1,1329,1478,0,0
112,-454,0,0,0,0,0,0,0,0,0,-1,1336,1478,0,0
119,-454,0,0,0,0,0,0,0,0,0,-1,1343,1478,0,0
126,-454,0,0,0,0,0,0,0,0,0,-1,1350,1478,0,0
133,-454,0,0,0,0,0,0,0,0,0,-1,1357,1478,0,0
140,-454,0,0,0,0,0,0,0,0,0,-1,1364,1478,0,0
147,-454,0,0,0,0,0,0,0,0,0,-1,1371,1478,0,0
154,-454,0,0,0,0,0,0,0,0,0,-1,1378,1478,0,0
161,-454,0,0,0,0,0,0,0,0,0,-1,1385,1478,0,0
168,-454,0,0,0,0,0,0,0,0,0,-1,1392,1478,0,0
175,-454,0,0,0,0,0,0,0,0,0,-1,1399,1478,0,0
182,-454,0,0,0,0,0,0,0,0,0,-1,1406,1478,0,0
189,-454,0,0,0,0,0,0,0,0,0,-1,1413,1478,0,0
196,-454,0,0,0,0,0,0,0,0,0,-1,1420,1478,0,0
203,-454,0,0,0,0,0,0,0,0,0,-1,1427,1478,0,0
210,-454,0,0,0,0,0,0,0,0,0,-1,1434,1478,0,0
217,-454,0,0,0,0,0,0,0,0,0,-1,1441,1478,0,0
224,-454,0,0,0,0,0,0,0,0,0,-1,1448,1478,0,0
231,-454,0,0,0,0,0,0,0,0,0,-1,1455,1478,0,0
238,-454,0,0,0,0,0,0,0,0,0,-1,1462,1478,0,0
245,-454,0,0,0,0,0,0,0,0,0,-1,1469,1478,0,0
252,-454,0,0,0,0,0,0,0,0,0,-1,1476,1478,0,0
259,-454,0,0,0,0,0,0,0,0,0,-1,1483,1478,0,0
266,-454,0,0,0,0,0,0,0,0,0,-1,1490,1478,0,0
273,-454,0,0,0,0,0,0,0,0,0,-1,1497,1478,0,0
280,-454,0,0,0,0,0,0,0,0,0,-1,1504,1478,0,0
287,-454,0,0,0,0,0,0,0,0,0,-1,1511,1478,0,0
294,-454,0,0,0,0,0,0,0,0,0,-1,1518,1478,0,0
301,-454,0,0,0,0,0,0,0,0,0,-1,1525,1478,0,0
308,-454,0,0,0,0,0,0,0,0,0,-1,1532,1478,0,0
315,-454,0,0,0,0,0,0,0,0,0,-1,1539,1478,0,0
322,-454,0,0,0,0,0,0,0,0,0,-1,1546,1478,0,0
329,-454,0,0,0,0,0,0,0,0,0,-1,1553,1478,0,0
336,-454,0,0,0,0,0,0,0,0,0,-1,1560,1478,0,0
343,-454,0,0,0,0,0,0,0,0,0,-1,1567,1478,0,0
350,-454,0,0,0,0,0,0,0,0,0,-1,1574,1478,0,0
357,-454,0,0,0,0,0,0,0,0,0,-1,1581,1478,0,0
364,-454,0,0,0,0,0,0,0,0,0,-1,1588,1478,0,0
371,-454,0,0,0,0,0,0,0,0,0,-1,1595,1478,0,0
378,-454,0,0,0,0,0,0,0,0,0,-1,1602,1478,0,0
385,-454,0,0,0,0,0,0,0,0,0,-1,1609,1478,0,0
392,-454,0,0,0,0,0,0,0,0,0,-1,1616,1478,0,0
399,-454,0,0,0,0,0,0,0,0,0,-1,1623,1478,0,0
406,-454,0,0,0,0,0,0,0,0,0,-1,1630,1478,0,0
413,-454,0,0,0,0,0,0,0,0,0,-1,1637,1478,0,0
420,-454,0,0,0,0,0,0,0,0,0,-1,1644,1478,0,0
427,-454,0,0,0,0,0,0,0,0,0,-1,1651,1478,0,0
434,-454,0,0,0,0,0,0,0,0,0,-1,1658,1478,0,0
441,-454,0,0,0,0,0,0,0,0,0,-1,1665,1478,0,0
448,-454,0,0,0,0,0,0,0,0,0,-1,1672,1478,0,0
455,-454,0,0,0,0,0,0,0,0,0,-1,1679,1478,0,0
462,-454,0,0,0,0,0,0,0,0,0,-1,1686,1478,0,0
469,-454,0,0,0,0,0,0,0,0,0,-1,1693,1478,0,0
476,-454,0,0,0,0,0,0,0,0,0,-1,1700,1478,0,0
483,-454,14.2399,3.97498,0,0,0,0,0,0,0,-1,1707,1478,14.2399,-3.97502
490,-454,18.1821,-0.175781,0,0,0,0,0,0,0,-1,1714,1478,18.1821,0.175822
497,-454,16.8854,1.01208,0,0,0,0,0,0,0,-1,1721,1478,16.8854,-1.01209
504,-454,15.587,2.05994,0,0,0,0,0,0,0,-1,1728,1478,15.5871,-2.05998
511,-454,17.0273,14.5258,0,0,0,0,0,0,0,-1,1735,1478,17.0273,-14.5258
518,-454,16.4158,13.1039,0,0,0,0,0,0,0,-1,1742,1478,16.4157,-13.1038
525,-454,15.7842,11.6628,0,0,0,0,0,0,0,-1,1749,1478,15.7841,-11.6629
532,-454,15.1094,10.2476,0,0,0,0,0,0,0,-1,1756,1478,15.1094,-10.2475
539,-454,13.7905,10.9373,0,0,0,0,0,0,0,-1,1763,1478,13.7906,-10.9372
546,-454,16.2002,13.2458,0,0,0,0,0,0,0,-1,1770,1478,16.2002,-13.2459
553,-454,15.6747,12.1868,0,0,0,0,0,0,0,-1,1777,1478,15.6747,-12.1868
560,-454,16.6252,14.3473,0,0,0,0,0,0,0,-1,1784,1478,16.6252,-14.3473
567,-454,16.6536,13.8201,-0.0100694,0.00117667,0.00679635,0.00437458,-0.0132673,1.131,0.0106081,0.0472241,1791,1478,16.6535,-13.82
574,-454,16.5114,13.3933,-0.00694228,0.00135021,0.00456915,0.00337393,-0.008966,1.15385,0.00736428,0.0221129,1798,1478,16.5114,-13.3933
581,-454,16.4835,13.0695,-0.00465781,0.00149,0.00286873,0.00262068,-0.00578848,1.19535,0.00496853,0.0150769,1805,1478,16.4835,-13.0695
588,-454,16.5096,12.7141,-0.00269496,0.0016698,0.00138132,0.00207021,-0.00309537,1.28865,0.00300187,0.0133568,1812,1478,16.5096,-12.7141
595,-454,16.4855,12.3654,-0.00131378,0.00161412,0.000516487,0.00170256,-0.00140222,1.40121,0.00179534,0.0124647,1819,1478,16.4854,-12.3653
602,-454,16.4773,12.024,-0.000425064,0.00133113,9.74051e-05,0.00133652,-0.000430449,1.51556,0.00106393,0.00852075,1826,1478,16.4773,-12.0241
609,-454,16.4749,11.6906,0.000157236,0.000936204,-8.68241e-05,0.000945764,0.000147676,-1.46113,0.000587504,0.0107204,1833,1478,16.4748,-11.6905
616,-454,16.4829,11.3494,0.000579432,0.000512788,-7.84856e-05,0.000631376,0.000460843,-0.584647,0.000377151,0.0141713,1840,1478,16.4829,-11.3493
623,-454,16.4908,10.9993,0.000864957,4.07677e-05,7.11206e-06,0.000865018,4.07064e-05,0.00862831,0.0005636,0.0117256,1847,1478,16.4909,-10.9993
630,-454,16.4939,10.6649,0.000946934,-0.000393688,0.00023038,0.000985419,-0.000432173,0.165522,0.000838966,0.0104678,1854,1478,16.4939,-10.665
637,-454,16.4728,10.3369,0.000726053,-0.000785055,0.000635363,0.000957691,-0.00101669,0.3496,0.00114008,0.00984249,1861,1478,16.4728,-10.3369
644,-454,16.5305,9.97546,0.000314726,-0.00119806,0.00118086,0.000960675,-0.00184401,0.500548,0.00164584,0.0203971,1868,1478,16.5306,-9.97547
651,-454,16.6234,9.56799,0,0,0,0,0,0,0,-1,1875,1478,16.6234,-9.56804
658,-454,16.1398,9.3208,0,0,0,0,0,0,0,-1,1882,1478,16.1397,-9.32083
665,-454,16.2633,8.72766,0,0,0,0,0,0,0,-1,1889,1478,16.2633,-8.72772
672,-454,16.5476,6.41931,0,0,0,0,0,0,0,-1,1896,1478,16.5476,-6.41929
679,-454,14.2161,5.45007,0,0,0,0,0,0,0,-1,1903,1478,14.2161,-5.45013
686,-454,10.3767,2.12842,0,0,0,0,0,0,0,-1,1910,1478,10.3767,-2.12839
693,-454,11.1857,1.48486,0,0,0,0,0,0,0,-1,1917,1478,11.1857,-1.48487
700,-454,0,0,0,0,0,0,0,0,0,-1,1924,1478,0,0
707,-454,0,0,0,0,0,0,0,0,0,-1,1931,1478,0,0
714,-454,0,0,0,0,0,0,0,0,0,-1,1938,1478,0,0
721,-454,0,0,0,0,0,0,0,0,0,-1,1945,1478,0,0
728,-454,0,0,0,0,0,0,0,0,0,-1,1952,1478,0,0
735,-454,0,0,0,0,0,0,0,0,0,-1,1959,1478,0,0
742,-454,0,0,0,0,0,0,0,0,0,-1,1966,1478,0,0
749,-454,0,0,0,0,0,0,0,0,0,-1,1973,1478,0,0
756,-454,0,0,0,0,0,0,0,0,0,-1,1980,1478,0,0
763,-454,0,0,0,0,0,0,0,0,0,-1,1987,1478,0,0
770,-454,0,0,0,0,0,0,0,0,0,-1,1994,1478,0,0
777,-454,0,0,0,0,0,0,0,0,0,-1,2001,1478,0,0
784,-454,0,0,0,0,0,0,0,0,0,-1,2008,1478,0,0
791,-454,0,0,0,0,0,0,0,0,0,-1,2015,1478,0,0
798,-454,0,0,0,0,0,0,0,0,0,-1,2022,1478,0,0
805,-454,0,0,0,0,0,0,0,0,0,-1,2029,1478,0,0
812,-454,0,0,0,0,0,0,0,0,0,-1,2036,1478,0,0
-700,-461,0,0,0,0,0,0,0,0,0,-1,524,1485,0,0
-693,-461,0,0,0,0,0,0,0,0,0,-1,531,1485,0,0
-686,-461,0,0,0,0,0,0,0,0,0,-1,538,1485,0,0
-679,-461,0,0,0,0,0,0,0,0,0,-1,545,1485,0,0
-672,-461,0,0,0,0,0,0,0,0,0,-1,552,1485,0,0
-665,-461,0,0,0,0,0,0,0,0,0,-1,559,1485,0,0
-658,-461,0,0,0,0,0,0,0,0,0,-1,566,1485,0,0
-651,-461,0,0,0,0,0,0,0,0,0,-1,573,1485,0,0
-644,-461,0,0,0,0,0,0,0,0,0,-1,580,1485,0,0
-637,-461,0,0,0,0,0,0,0,0,0,-1,587,1485,0,0
-630,-461,0,0,0,0,0,0,0,0,0,-1,594,1485,0,0
-623,-461,0,0,0,0,0,0,0,0,0,-1,601,1485,0,0
-616,-461,0,0,0,0,0,0,0,0,0,-1,608,1485,0,0
-609,-461,0,0,0,0,0,0,0,0,0,-1,615,1485,0,0
-602,-461,0,0,0,0,0,0,0,0,0,-1,622,1485,0,0
-595,-461,0,0,0,0,0,0,0,0,0,-1,629,1485,0,0
-588,-461,0,0,0,0,0,0,0,0,0,-1,636,1485,0,0
-581,-461,0,0,0,0,0,0,0,0,0,-1,643,1485,0,0
-574,-461,0,0,0,0,0,0,0,0,0,-1,650,1485,0,0
-567,-461,-9.69031,0.513306,0,0,0,0,0,0,0,-1,657,1485,-9.69032,-0.513305
-560,-461,-7.28815,1.54004,0,0,0,0,0,0,0,-1,664,1485,-7.28817,-1.54005
-553,-461,-11.9607,5.27783,0,0,0,0,0,0,0,-1,671,1485,-11.9607,-5.27778
-546,-461,-11.4215,4.44666,0,0,0,0,0,0,0,-1,678,1485,-11.4215,-4.4467
-539,-461,-9.36493,5.23438,0,0,0,0,0,0,0,-1,685,1485,-9.3649,-5.23432
-532,-461,-5.896,5.31201,0,0,0,0,0,0,0,-1,692,1485,-5.89598,-5.31197
-525,-461,-5.05414,6.68933,0,0,0,0,0,0,0,-1,699,1485,-5.05415,-6.68933
-518,-461,-4.80896,7.7843,0,0,0,0,0,0,0,-1,706,1485,-4.80897,-7.78433
-511,-461,-4.35583,8.23596,0,0,0,0,0,0,0,-1,713,1485,-4.35583,-8.23598
-504,-461,-4.52472,8.42981,0.00191942,0.00246075,0.00226424,0.00447045,-9.02785e-05,0.844886,0.00301084,0.0159894,720,1485,-4.52471,-8.42984
-497,-461,-4.49658,8.87085,0.0015308,0.00155644,0.00117598,0.00271967,0.000367572,0.790849,0.00170386,0.0106889,727,1485,-4.49657,-8.87082
-490,-461,-4.51678,9.24377,0.00133555,0.000999757,0.000625209,0.00181502,0.000520294,0.65422,0.00107923,0.0119248,734,1485,-4.51676,-9.2438
-483,-461,-4.52722,9.60889,0.00108874,0.000419652,0.000107471,0.00110558,0.000402813,0.155416,0.000646091,0.0124697,741,1485,-4.52723,-9.60891
-476,-461,-4.54651,9.98474,0.000841304,-0.000291127,-0.000299589,0.000915677,-0.0003655,-0.243331,0.000762083,0.0109882,748,1485,-4.54654,-9.98479
-469,-461,-4.55737,10.3661,0.000541086,-0.00139509,-0.000776138,0.000813799,-0.0016678,-0.337895,0.00146076,0.0124572,755,1485,-4.55735,-10.366
-462,-461,-4.56818,10.7277,0.000338602,-0.0023344,-0.00109992,0.000733014,-0.00272882,-0.3443,0.0021065,0.0177964,762,1485,-4.5682,-10.7277
-455,-461,-4.59271,11.1129,8.29016e-05,-0.00372643,-0.00164933,0.000697768,-0.00434129,-0.356838,0.00315263,0.0223315,769,1485,-4.59272,-11.1129
-448,-461,-4.55005,11.4788,-9.65238e-05,-0.00549605,-0.00240988,0.000822587,-0.00641516,-0.364363,0.00457568,0.0187479,776,1485,-4.55002,-11.4788
-441,-461,-4.5235,11.8817,-0.000278679,-0.00773109,-0.00350497,0.00111072,-0.00912049,-0.377407,0.00648237,0.0163426,783,1485,-4.52352,-11.8818
-434,-461,-4.30511,12.2682,-0.000828822,-0.0108603,-0.00507783,0.00129281,-0.0129819,-0.395775,0.00911615,0.0236917,790,1485,-4.30509,-12.2681
-427,-461,-4.25677,12.4895,-0.0015851,-0.0147933,-0.0070534,0.00147333,-0.0178517,-0.409142,0.0124214,0.0355585,797,1485,-4.25679,-12.4895
-420,-461,-4.37445,12.4194,-0.00217022,-0.0195923,-0.00926767,0.0018377,-0.0236002,-0.408174,0.0163804,0.0494539,804,1485,-4.37445,-12.4194
-413,-461,-4.43738,12.3955,0,0,0,0,0,0,0,-1,811,1485,-4.43737,-12.3956
-406,-461,-4.95618,12.4502,0,0,0,0,0,0,0,-1,818,1485,-4.95617,-12.4502
-399,-461,-1.93439,9.82849,0,0,0,0,0,0,0,-1,825,1485,-1.9344,-9.82846
-392,-461,-0.357544,5.55225,0,0,0,0,0,0,0,-1,832,1485,-0.357536,-5.55228
-385,-461,1.71509,3.35254,0,0,0,0,0,0,0,-1,839,1485,1.71511,-3.35255
-378,-461,1.95996,3.01111,0,0,0,0,0,0,0,-1,846,1485,1.95993,-3.01111
-371,-461,0.702881,2.33459,0,0,0,0,0,0,0,-1,853,1485,0.702859,-2.33459
-364,-461,-1.93097,2.56458,0,0,0,0,0,0,0,-1,860,1485,-1.93095,-2.56456
-357,-461,-2.41516,3.49487,0,0,0,0,0,0,0,-1,867,1485,-2.41517,-3.49487
-350,-461,0,0,0,0,0,0,0,0,0,-1,874,1485,0,0
-343,-461,0,0,0,0,0,0,0,0,0,-1,881,1485,0,0
-336,-461,0,0,0,0,0,0,0,0,0,-1,888,1485,0,0
-329,-461,0,0,0,0,0,0,0,0,0,-1,895,1485,0,0
-322,-461,0,0,0,0,0,0,0,0,0,-1,902,1485,0,0
-315,-461,0,0,0,0,0,0,0,0,0,-1,909,1485,0,0
-308,-461,0,0,0,0,0,0,0,0,0,-1,916,1485,0,0
-301,-461,0,0,0,0,0,0,0,0,0,-1,923,1485,0,0
-294,-461,0,0,0,0,0,0,0,0,0,-1,930,1485,0,0
-287,-461,0,0,0,0,0,0,0,0,0,-1,937,1485,0,0
-280,-461,0,0,0,0,0,0,0,0,0,-1,944,1485,0,0
-273,-461,0,0,0,0,0,0,0,0,0,-1,951,1485,0,0
-266,-461,0,0,0,0,0,0,0,0,0,-1,958,1485,0,0
-259,-461,0,0,0,0,0,0,0,0,0,-1,965,1485,0,0
-252,-461,0,0,0,0,0,0,0,0,0,-1,972,1485,0,0
-245,-461,0,0,0,0,0,0,0,0,0,-1,979,1485,0,0
-238,-461,0,0,0,0,0,0,0,0,0,-1,986,1485,0,0
-231,-461,0,0,0,0,0,0,0,0,0,-1,993,1485,0,0
-224,-461,0,0,0,0,0,0,0,0,0,-1,1000,1485,0,0
-217,-461,0,0,0,0,0,0,0,0,0,-1,1007,1485,0,0
-210,-461,0,0,0,0,0,0,0,0,0,-1,1014,1485,0,0
-203,-461,0,0,0,0,0,0,0,0,0,-1,1021,1485,0,0
-196,-461,0,0,0,0,0,0,0,0,0,-1,1028,1485,0,0
-189,-461,0,0,0,0,0,0,0,0,0,-1,1035,1485,0,0
-182,-461,0,0,0,0,0,0,0,0,0,-1,1042,1485,0,0
-175,-461,0,0,0,0,0,0,0,0,0,-1,1049,1485,0,0
-168,-461,0,0,0,0,0,0,0,0,0,-1,1056,1485,0,0
-161,-461,0,0,0,0,0,0,0,0,0,-1,1063,1485,0,0
-154,-461,0,0,0,0,0,0,0,0,0,-1,1070,1485,0,0
-147,-461,0,0,0,0,0,0,0,0,0,-1,1077,1485,0,0
-140,-461,0,0,0,0,0,0,0,0,0,-1,1084,1485,0,0
-133,-461,0,0,0,0,0,0,0,0,0,-1,1091,1485,0,0
-126,-461,0,0,0,0,0,0,0,0,0,-1,1098,1485,0,0
-119,-461,0,0,0,0,0,0,0,0,0,-1,1105,1485,0,0
-112,-461,0,0,0,0,0,0,0,0,0,-1,1112,1485,0,0
-105,-461,0,0,0,0,0,0,0,0,0,-1,1119,1485,0,0
-98,-461,0,0,0,0,0,0,0,0,0,-1,1126,1485,0,0
-91,-461,0,0,0,0,0,0,0,0,0,-1,1133,1485,0,0
-84,-461,0,0,0,0,0,0,0,0,0,-1,1140,1485,0,0
-77,-461,0,0,0,0,0,0,0,0,0,-1,1147,1485,0,0
-70,-461,0,0,0,0,0,0,0,0,0,-1,1154,1485,0,0
-63,-461,0,0,0,0,0,0,0,0,0,-1,1161,1485,0,0
-56,-461,0,0,0,0,0,0,0,0,0,-1,1168,1485,0,0
-49,-461,0,0,0,0,0,0,0,0,0,-1,1175,1485,0,0
-42,-461,0,0,0,0,0,0,0,0,0,-1,1182,1485,0,0
-35,-461,0,0,0,0,0,0,0,0,0,-1,1189,1485,0,0
-28,-461,0,0,0,0,0,0,0,0,0,-1,1196,1485,0,0
-21,-461,0,0,0,0,0,0,0,0,0,-1,1203,1485,0,0
-14,-461,0,0,0,0,0,0,0,0,0,-1,1210,1485,0,0
-7,-461,0,0,0,0,0,0,0,0,0,-1,1217,1485,0,0
0,-461,0,0,0,0,0,0,0,0,0,-1,1224,1485,0,0
7,-461,0,0,0,0,0,0,0,0,0,-1,1231,1485,0,0
14,-461,0,0,0,0,0,0,0,0,0,-1,1238,1485,0,0
21,-461,0,0,0,0,0,0,0,0,0,-1,1245,1485,0,0
28,-461,0,0,0,0,0,0,0,0,0,-1,1252,1485,0,0
35,-461,0,0,0,0,0,0,0,0,0,-1,1259,1485,0,0
42,-461,0,0,0,0,0,0,0,0,0,-1,1266,1485,0,0
49,-461,0,0,0,0,0,0,0,0,0,-1,1273,1485,0,0
56,-461,0,0,0,0,0,0,0,0,0,-1,1280,1485,0,0
63,-461,0,0,0,0,0,0,0,0,0,-1,1287,1485,0,0
70,-461,0,0,0,0,0,0,0,0,0,-1,1294,1485,0,0
77,-461,0,0,0,0,0,0,0,0,0,-1,1301,1485,0,0
84,-461,0,0,0,0,0,0,0,0,0,-1,1308,1485,0,0
91,-461,0,0,0,0,0,0,0,0,0,-1,1315,1485,0,0
98,-461,0,0,0,0,0,0,0,0,0,-1,1322,1485,0,0
105,-461,0,0,0,0,0,0,0,0,0,-1,1329,1485,0,0
112,-461,0,0,0,0,0,0,0,0,0,-1,1336,1485,0,0
119,-461,0,0,0,0,0,0,0,0,0,-1,1343,1485,0,0
126,-461,0,0,0,0,0,0,0,0,0,-1,1350,1485,0,0
133,-461,0,0,0,0,0,0,0,0,0,-1,1357,1485,0,0
140,-461,0,0,0,0,0,0,0,0,0,-1,1364,1485,0,0
147,-461,0,0,0,0,0,0,0,0,0,-1,1371,1485,0,0
154,-461,0,0,0,0,0,0,0,0,0,-1,1378,1485,0,0
161,-461,0,0,0,0,0,0,0,0,0,-1,1385,1485,0,0
168,-461,0,0,0,0,0,0,0,0,0,-1,1392,1485,0,0
175,-461,0,0,0,0,0,0,0,0,0,-1,1399,1485,0,0
182,-461,0,0,0,0,0,0,0,0,0,-1,1406,1485,0,0
189,-461,0,0,0,0,0,0,0,0,0,-1,1413,1485,0,0
196,-461,0,0,0,0,0,0,0,0,0,-1,1420,1485,0,0
203,-461,0,0,0,0,0,0,0,0,0,-1,1427,1485,0,0
210,-461,0,0,0,0,0,0,0,0,0,-1,1434,1485,0,0
217,-461,0,0,0,0,0,0,0,0,0,-1,1441,1485,0,0
224,-461,0,0,0,0,0,0,0,0,0,-1,1448,1485,0,0
231,-461,0,0,0,0,0,0,0,0,0,-1,1455,1485,0,0
238,-461,0,0,0,0,0,0,0,0,0,-1,1462,1485,0,0
245,-461,0,0,0,0,0,0,0,0,0,-1,1469,1485,0,0
252,-461,0,0,0,0,0,0,0,0,0,-1,1476,1485,0,0
259,-461,0,0,0,0,0,0,0,0,0,-1,1483,1485,0,0
266,-461,0,0,0,0,0,0,0,0,0,-1,1490,1485,0,0
273,-461,0,0,0,0,0,0,0,0,0,-1,1497,1485,0,0
280,-461,0,0,0,0,0,0,0,0,0,-1,1504,1485,0,0
287,-461,0,0,0,0,0,0,0,0,0,-1,1511,1485,0,0
294,-461,0,0,0,0,0,0,0,0,0,-1,1518,1485,0,0
301,-461,0,0,0,0,0,0,0,0,0,-1,1525,1485,0,0
308,-461,0,0,0,0,0,0,0,0,0,-1,1532,1485,0,0
315,-461,0,0,0,0,0,0,0,0,0,-1,1539,1485,0,0
322,-461,0,0,0,0,0,0,0,0,0,-1,1546,1485,0,0
329,-461,0,0,0,0,0,0,0,0,0,-1,1553,1485,0,0
336,-461,0,0,0,0,0,0,0,0,0,-1,1560,1485,0,0
343,-461,0,0,0,0,0,0,0,0,0,-1,1567,1485,0,0
350,-461,0,0,0,0,0,0,0,0,0,-1,1574,1485,0,0
357,-461,0,0,0,0,0,0,0,0,0,-1,1581,1485,0,0
364,-461,0,0,0,0,0,0,0,0,0,-1,1588,1485,0,0
371,-461,0,0,0,0,0,0,0,0,0,-1,1595,1485,0,0
378,-461,0,0,0,0,0,0,0,0,0,-1,1602,1485,0,0
385,-461,0,0,0,0,0,0,0,0,0,-1,1609,1485,0,0
392,-461,0,0,0,0,0,0,0,0,0,-1,1616,1485,0,0
399,-461,0,0,0,0,0,0,0,0,0,-1,1623,1485,0,0
406,-461,0,0,0,0,0,0,0,0,0,-1,1630,1485,0,0
413,-461,0,0,0,0,0,0,0,0,0,-1,1637,1485,0,0
420,-461,0,0,0,0,0,0,0,0,0,-1,1644,1485,0,0
427,-461,0,0,0,0,0,0,0,0,0,-1,1651,1485,0,0
434,-461,0,0,0,0,0,0,0,0,0,-1,1658,1485,0,0
441,-461,0,0,0,0,0,0,0,0,0,-1,1665,1485,0,0
448,-461,0,0,0,0,0,0,0,0,0,-1,1672,1485,0,0
455,-461,0,0,0,0,0,0,0,0,0,-1,1679,1485,0,0
462,-461,0,0,0,0,0,0,0,0,0,-1,1686,1485,0,0
469,-461,0,0,0,0,0,0,0,0,0,-1,1693,1485,0,0
476,-461,14.1906,0.690552,0,0,0,0,0,0,0,-1,1700,1485,14.1906,-0.690525
483,-461,10.6361,3.09106,0,0,0,0,0,0,0,-1,1707,1485,10.6361,-3.091
490,-461,17.9972,0.665894,0,0,0,0,0,0,0,-1,1714,1485,17.9972,-0.665876
497,-461,16.6829,1.87732,0,0,0,0,0,0,0,-1,1721,1485,16.6828,-1.87736
504,-461,15.3884,3.09216,0,0,0,0,0,0,0,-1,1728,1485,15.3885,-3.09212
511,-461,15.4292,14.3512,0,0,0,0,0,0,0,-1,1735,1485,15.4292,-14.3512
518,-461,14.8081,10.0085,0,0,0,0,0,0,0,-1,1742,1485,14.8081,-10.0086
525,-461,14.0022,10.8033,0,0,0,0,0,0,0,-1,1749,1485,14.0022,-10.8033
532,-461,17.1704,14.077,0,0,0,0,0,0,0,-1,1756,1485,17.1704,-14.077
539,-461,16.8231,13.2952,0,0,0,0,0,0,0,-1,1763,1485,16.8231,-13.2952
546,-461,16.2106,14.1372,0,0,0,0,0,0,0,-1,1770,1485,16.2106,-14.1372
553,-461,16.0562,14.4449,0,0,0,0,0,0,0,-1,1777,1485,16.0562,-14.445
560,-461,16.179,14.1194,0,0,0,0,0,0,0,-1,1784,1485,16.1789,-14.1193
567,-461,16.1769,13.6641,-0.00845852,0.000304336,0.00616507,0.0034863,-0.0116405,1.09433,0.00914664,0.0213414,1791,1485,16.1768,-13.6641
574,-461,16.1753,13.3596,-0.0057824,0.000684952,0.00412643,0.0026938,-0.00779125,1.11774,0.00628749,0.0180635,1798,1485,16.1753,-13.3597
581,-461,16.1816,13.0332,-0.00379886,0.000959543,0.00256616,0.00207974,-0.00491906,1.1592,0.00415012,0.0148186,1805,1485,16.1816,-13.0332
588,-461,16.1649,12.7328,-0.00200483,0.0012235,0.00114961,0.00159104,-0.00237236,1.26136,0.00230304,0.011427,1812,1485,16.1649,-12.7328
595,-461,16.1382,12.3954,-0.000707856,0.0012531,0.000311878,0.00130151,-0.000756263,1.41681,0.00120188,0.00939962,1819,1485,16.1381,-12.3954
602,-461,16.142,12.0382,9.73958e-05,0.00106254,-0.000110583,0.00107505,8.48877e-05,-1.45816,0.000690147,0.0092479,1826,1485,16.1419,-12.0382
609,-461,16.1399,11.6768,0.000607339,0.00074086,-0.000296437,0.000977961,0.000370238,-0.896155,0.000570148,0.0108269,1833,1485,16.1399,-11.6767
616,-461,16.1509,11.3385,0.00102001,0.000366249,-0.000306704,0.00114137,0.00024489,-0.376783,0.000693839,0.0134596,1840,1485,16.1509,-11.3385
623,-461,16.146,11.0125,0.00131704,-5.80072e-05,-0.000233448,0.00135559,-9.65598e-05,-0.163667,0.000937575,0.0132044,1847,1485,16.146,-11.0125
630,-461,16.1349,10.6775,0.00140473,-0.000504333,2.28243e-05,0.001405,-0.000504606,0.0119535,0.00114264,0.0120355,1854,1485,16.1348,-10.6775
637,-461,16.1394,10.3495,0.00125242,-0.000949992,0.000447371,0.00133982,-0.0010374,0.192944,0.00137619,0.0124471,1861,1485,16.1394,-10.3495
644,-461,16.2197,10.0734,0.00089502,-0.00147682,0.00105179,0.00129424,-0.00187604,0.362763,0.00184061,0.0282605,1868,1485,16.2197,-10.0734
651,-461,16.3575,9.71912,0,0,0,0,0,0,0,-1,1875,1485,16.3576,-9.71914
658,-461,15.8162,9.15674,0,0,0,0,0,0,0,-1,1882,1485,15.8162,-9.15673
665,-461,15.9641,8.5802,0,0,0,0,0,0,0,-1,1889,1485,15.9641,-8.5802
672,-461,14.4877,6.89429,0,0,0,0,0,0,0,-1,1896,1485,14.4876,-6.89431
679,-461,10.0535,2.16321,0,0,0,0,0,0,0,-1,1903,1485,10.0535,-2.16317
686,-461,10.8195,1.84192,0,0,0,0,0,0,0,-1,1910,1485,10.8194,-1.84195
693,-461,0,0,0,0,0,0,0,0,0,-1,1917,1485,0,0
700,-461,0,0,0,0,0,0,0,0,0,-1,1924,1485,0,0
707,-461,0,0,0,0,0,0,0,0,0,-1,1931,1485,0,0
714,-461,0,0,0,0,0,0,0,0,0,-1,1938,1485,0,0
721,-461,0,0,0,0,0,0,0,0,0,-1,1945,1485,0,0
728,-461,0,0,0,0,0,0,0,0,0,-1,1952,1485,0,0
735,-461,0,0,0,0,0,0,0,0,0,-1,1959,1485,0,0
742,-461,0,0,0,0,0,0,0,0,0,-1,1966,1485,0,0
749,-461,0,0,0,0,0,0,0,0,0,-1,1973,1485,0,0
756,-461,0,0,0,0,0,0,0,0,0,-1,1980,1485,0,0
763,-461,0,0,0,0,0,0,0,0,0,-1,1987,1485,0,0
770,-461,0,0,0,0,0,0,0,0,0,-1,1994,1485,0,0
777,-461,0,0,0,0,0,0,0,0,0,-1,2001,1485,0,0
784,-461,0,0,0,0,0,0,0,0,0,-1,2008,1485,0,0
791,-461,0,0,0,0,0,0,0,0,0,-1,2015,1485,0,0
798,-461,0,0,0,0,0,0,0,0,0,-1,2022,1485,0,0
805,-461,0,0,0,0,0,0,0,0,0,-1,2029,1485,0,0
812,-461,0,0,0,0,0,0,0,0,0,-1,2036,1485,0,0
-700,-468,0,0,0,0,0,0,0,0,0,-1,524,1492,0,0
-693,-468,0,0,0,0,0,0,0,0,0,-1,531,1492,0,0
-686,-468,0,0,0,0,0,0,0,0,0,-1,538,1492,0,0
-679,-468,0,0,0,0,0,0,0,0,0,-1,545,1492,0,0
-672,-468,0,0,0,0,0,0,0,0,0,-1,552,1492,0,0
-665,-468,0,0,0,0,0,0,0,0,0,-1,559,1492,0,0
-658,-468,0,0,0,0,0,0,0,0,0,-1,566,1492,0,0
-651,-468,0,0,0,0,0,0,0,0,0,-1,573,1492,0,0
-644,-468,0,0,0,0,0,0,0,0,0,-1,580,1492,0,0
-637,-468,0,0,0,0,0,0,0,0,0,-1,587,1492,0,0
-630,-468,0,0,0,0,0,0,0,0,0,-1,594,1492,0,0
-623,-468,0,0,0,0,0,0,0,0,0,-1,601,1492,0,0
-616,-468,0,0,0,0,0,0,0,0,0,-1,608,1492,0,0
-609,-468,0,0,0,0,0,0,0,0,0,-1,615,1492,0,0
-602,-468,0,0,0,0,0,0,0,0,0,-1,622,1492,0,0
-595,-468,0,0,0,0,0,0,0,0,0,-1,629,1492,0,0
-588,-468,0,0,0,0,0,0,0,0,0,-1,636,1492,0,0
-581,-468,0,0,0,0,0,0,0,0,0,-1,643,1492,0,0
-574,-468,0,0,0,0,0,0,0,0,0,-1,650,1492,0,0
-567,-468,-11.2603,1.8042,0,0,0,0,0,0,0,-1,657,1492,-11.2603,-1.80424
-560,-468,-8.77441,2.23694,0,0,0,0,0,0,0,-1,664,1492,-8.77443,-2.23692
-553,-468,-5.94061,9.26318,0,0,0,0,0,0,0,-1,671,1492,-5.94062,-9.26322
-546,-468,-10.47,5.43237,0,0,0,0,0,0,0,-1,678,1492,-10.47,-5.4324
-539,-468,-10.2468,5.45203,0,0,0,0,0,0,0,-1,685,1492,-10.2468,-5.45197
-532,-468,-5.95966,6.32239,0,0,0,0,0,0,0,-1,692,1492,-5.95968,-6.3224
-525,-468,-5.32617,6.96826,0,0,0,0,0,0,0,-1,699,1492,-5.32617,-6.96822
-518,-468,-4.84656,7.50391,0,0,0,0,0,0,0,-1,706,1492,-4.84654,-7.50391
-511,-468,-4.35022,8.07153,0,0,0,0,0,0,0,-1,713,1492,-4.35022,-8.07151
-504,-468,-4.07837,8.48425,0.00237063,0.00283276,0.00195718,0.00457247,0.000630924,0.844157,0.00286129,0.0226126,720,1492,-4.07837,-8.48423
-497,-468,-4.14197,8.87451,0.00137745,0.00179651,0.000747445,0.00236323,0.000810718,0.922055,0.00138664,0.0115013,727,1492,-4.14195,-8.87448
-490,-468,-4.12036,9.26563,0.000869437,0.00124052,0.000193746,0.00132324,0.00078672,1.16729,0.000768512,0.00769822,734,1492,-4.12037,-9.26559
-483,-468,-4.13354,9.62439,0.000549849,0.000715744,-0.000151227,0.000805278,0.000460314,-1.03624,0.000466515,0.00835074,741,1492,-4.13352,-9.62435
-476,-468,-4.14697,10.0066,0.000317565,0.000124506,-0.000395992,0.000628623,-0.000186553,-0.665846,0.000493171,0.00931936,748,1492,-4.14698,-10.0066
-469,-468,-4.14954,10.3809,0.000165191,-0.000832251,-0.000715161,0.000538353,-0.00120541,-0.480924,0.00103102,0.0130917,755,1492,-4.14952,-10.3809
-462,-468,-4.14716,10.7566,0.000245602,-0.00158139,-0.000830423,0.000566641,-0.00190243,-0.368899,0.00149344,0.0227793,762,1492,-4.14716,-10.7566
-455,-468,-4.17383,11.109,0.000372516,-0.00270055,-0.00111235,0.000732891,-0.00306092,-0.313305,0.00232376,0.0230201,769,1492,-4.17382,-11.109
-448,-468,-4.18195,11.483,0.000592691,-0.00401375,-0.00153023,0.00105469,-0.00447575,-0.293212,0.00339052,0.0147465,776,1492,-4.18196,-11.483
-441,-468,-4.18372,11.8601,0.00102451,-0.00567127,-0.00210024,0.00162876,-0.00627552,-0.280138,0.00481923,0.013398,783,1492,-4.18372,-11.8601
-434,-468,-4.15936,12.2684,0.0013302,-0.0078172,-0.00293986,0.00219355,-0.00868055,-0.28564,0.00664011,0.0149082,790,1492,-4.15939,-12.2684
-427,-468,-4.08765,12.6365,0.00148337,-0.0104412,-0.00402924,0.00271717,-0.011675,-0.297145,0.00882956,0.0251569,797,1492,-4.08765,-12.6364
-420,-468,-4.01697,12.9539,0.00181706,-0.0134836,-0.00508759,0.00335428,-0.0150209,-0.293429,0.0112992,0.0403086,804,1492,-4.01696,-12.9538
-413,-468,-3.78552,13.3112,0,0,0,0,0,0,0,-1,811,1492,-3.78553,-13.3112
-406,-468,-2.2356,9.396,0,0,0,0,0,0,0,-1,818,1492,-2.2356,-9.396
-399,-468,-0.940369,8.1936,0,0,0,0,0,0,0,-1,825,1492,-0.940365,-8.19357
-392,-468,-0.35144,8.14673,0,0,0,0,0,0,0,-1,832,1492,-0.351449,-8.14674
-385,-468,0.465759,5.35864,0,0,0,0,0,0,0,-1,839,1492,0.465732,-5.35864
-378,-468,1.99835,3.25391,0,0,0,0,0,0,0,-1,846,1492,1.99837,-3.2539
-371,-468,-0.31842,3.1532,0,0,0,0,0,0,0,-1,853,1492,-0.318441,-3.15324
-364,-468,-0.966736,2.14563,0,0,0,0,0,0,0,-1,860,1492,-0.966735,-2.14557
-357,-468,-3.06787,3.22742,0,0,0,0,0,0,0,-1,867,1492,-3.06784,-3.2274
-350,-468,-3.18658,4.12659,0,0,0,0,0,0,0,-1,874,1492,-3.18659,-4.12658
-343,-468,0,0,0,0,0,0,0,0,0,-1,881,1492,0,0
-336,-468,0,0,0,0,0,0,0,0,0,-1,888,1492,0,0
-329,-468,0,0,0,0,0,0,0,0,0,-1,895,1492,0,0
-322,-468,0,0,0,0,0,0,0,0,0,-1,902,1492,0,0
-315,-468,0,0,0,0,0,0,0,0,0,-1,909,1492,0,0
-308,-468,0,0,0,0,0,0,0,0,0,-1,916,1492,0,0
-301,-468,0,0,0,0,0,0,0,0,0,-1,923,1492,0,0
-294,-468,0,0,0,0,0,0,0,0,0,-1,930,1492,0,0
-287,-468,0,0,0,0,0,0,0,0,0,-1,937,1492,0,0
-280,-468,0,0,0,0,0,0,0,0,0,-1,944,1492,0,0
-273,-468,0,0,0,0,0,0,0,0,0,-1,951,1492,0,0
-266,-468,0,0,0,0,0,0,0,0,0,-1,958,1492,0,0
-259,-468,0,0,0,0,0,0,0,0,0,-1,965,1492,0,0
-252,-468,0,0,0,0,0,0,0,0,0,-1,972,1492,0,0
-245,-468,0,0,0,0,0,0,0,0,0,-1,979,1492,0,0
-238,-468,0,0,0,0,0,0,0,0,0,-1,986,1492,0,0
-231,-468,0,0,0,0,0,0,0,0,0,-1,993,1492,0,0
-224,-468,0,0,0,0,0,0,0,0,0,-1,1000,1492,0,0
-217,-468,0,0,0,0,0,0,0,0,0,-1,1007,1492,0,0
-210,-468,0,0,0,0,0,0,0,0,0,-1,1014,1492,0,0
-203,-468,0,0,0,0,0,0,0,0,0,-1,1021,1492,0,0
-196,-468,0,0,0,0,0,0,0,0,0,-1,1028,1492,0,0
-189,-468,0,0,0,0,0,0,0,0,0,-1,1035,1492,0,0
-182,-468,0,0,0,0,0,0,0,0,0,-1,1042,1492,0,0
-175,-468,0,0,0,0,0,0,0,0,0,-1,1049,1492,0,0
-168,-468,0,0,0,0,0,0,0,0,0,-1,1056,1492,0,0
-161,-468,0,0,0,0,0,0,0,0,0,-1,1063,1492,0,0
-154,-468,0,0,0,0,0,0,0,0,0,-1,1070,1492,0,0
-147,-468,0,0,0,0,0,0,0,0,0,-1,1077,1492,0,0
-140,-468,0,0,0,0,0,0,0,0,0,-1,1084,1492,0,0
-133,-468,0,0,0,0,0,0,0,0,0,-1,1091,1492,0,0
-126,-468,0,0,0,0,0,0,0,0,0,-1,1098,1492,0,0
-119,-468,0,0,0,0,0,0,0,0,0,-1,1105,1492,0,0
-112,-468,0,0,0,0,0,0,0,0,0,-1,1112,1492,0,0
-105,-468,0,0,0,0,0,0,0,0,0,-1,1119,1492,0,0
-98,-468,0,0,0,0,0,0,0,0,0,-1,1126,1492,0,0
-91,-468,0,0,0,0,0,0,0,0,0,-1,1133,1492,0,0
-84,-468,0,0,0,0,0,0,0,0,0,-1,1140,1492,0,0
-77,-468,0,0,0,0,0,0,0,0,0,-1,1147,1492,0,0
-70,-468,0,0,0,0,0,0,0,0,0,-1,1154,1492,0,0
-63,-468,0,0,0,0,0,0,0,0,0,-1,1161,1492,0,0
-56,-468,0,0,0,0,0,0,0,0,0,-1,1168,1492,0,0
-49,-468,0,0,0,0,0,0,0,0,0,-1,1175,1492,0,0
-42,-468,0,0,0,0,0,0,0,0,0,-1,1182,1492,0,0
-35,-468,0,0,0,0,0,0,0,0,0,-1,1189,1492,0,0
-28,-468,0,0,0,0,0,0,0,0,0,-1,1196,1492,0,0
-21,-468,0,0,0,0,0,0,0,0,0,-1,1203,1492,0,0
-14,-468,0,0,0,0,0,0,0,0,0,-1,1210,1492,0,0
-7,-468,0,0,0,0,0,0,0,0,0,-1,1217,1492,0,0
0,-468,0,0,0,0,0,0,0,0,0,-1,1224,1492,0,0
7,-468,0,0,0,0,0,0,0,0,0,-1,1231,1492,0,0
14,-468,0,0,0,0,0,0,0,0,0,-1,1238,1492,0,0
21,-468,0,0,0,0,0,0,0,0,0,-1,1245,1492,0,0
28,-468,0,0,0,0,0,0,0,0,0,-1,1252,1492,0,0
35,-468,0,0,0,0,0,0,0,0,0,-1,1259,1492,0,0
42,-468,0,0,0,0,0,0,0,0,0,-1,1266,1492,0,0
49,-468,0,0,0,0,0,0,0,0,0,-1,1273,1492,0,0
56,-468,0,0,0,0,0,0,0,0,0,-1,1280,1492,0,0
63,-468,0,0,0,0,0,0,0,0,0,-1,1287,1492,0,0
70,-468,0,0,0,0,0,0,0,0,0,-1,1294,1492,0,0
77,-468,0,0,0,0,0,0,0,0,0,-1,1301,1492,0,0
84,-468,0,0,0,0,0,0,0,0,0,-1,1308,1492,0,0
91,-468,0,0,0,0,0,0,0,0,0,-1,1315,1492,0,0
98,-468,0,0,0,0,0,0,0,0,0,-1,1322,1492,0,0
105,-468,0,0,0,0,0,0,0,0,0,-1,1329,1492,0,0
112,-468,0,0,0,0,0,0,0,0,0,-1,1336,1492,0,0
119,-468,0,0,0,0,0,0,0,0,0,-1,1343,1492,0,0
126,-468,0,0,0,0,0,0,0,0,0,-1,1350,1492,0,0
133,-468,0,0,0,0,0,0,0,0,0,-1,1357,1492,0,0
140,-468,0,0,0,0,0,0,0,0,0,-1,1364,1492,0,0
147,-468,0,0,0,0,0,0,0,0,0,-1,1371,1492,0,0
154,-468,0,0,0,0,0,0,0,0,0,-1,1378,1492,0,0
161,-468,0,0,0,0,0,0,0,0,0,-1,1385,1492,0,0
168,-468,0,0,0,0,0,0,0,0,0,-1,1392,1492,0,0
175,-468,0,0,0,0,0,0,0,0,0,-1,1399,1492,0,0
182,-468,0,0,0,0,0,0,0,0,0,-1,1406,1492,0,0
189,-468,0,0,0,0,0,0,0,0,0,-1,1413,1492,0,0
196,-468,0,0,0,0,0,0,0,0,0,-1,1420,1492,0,0
203,-468,0,0,0,0,0,0,0,0,0,-1,1427,1492,0,0
210,-468,0,0,0,0,0,0,0,0,0,-1,1434,1492,0,0
217,-468,0,0,0,0,0,0,0,0,0,-1,1441,1492,0,0
224,-468,0,0,0,0,0,0,0,0,0,-1,1448,1492,0,0
231,-468,0,0,0,0,0,0,0,0,0,-1,1455,1492,0,0
238,-468,0,0,0,0,0,0,0,0,0,-1,1462,1492,0,0
245,-468,0,0,0,0,0,0,0,0,0,-1,1469,1492,0,0
252,-468,0,0,0,0,0,0,0,0,0,-1,1476,1492,0,0
259,-468,0,0,0,0,0,0,0,0,0,-1,1483,1492,0,0
266,-468,0,0,0,0,0,0,0,0,0,-1,1490,1492,0,0
273,-468,0,0,0,0,0,0,0,0,0,-1,1497,1492,0,0
280,-468,0,0,0,0,0,0,0,0,0,-1,1504,1492,0,0
287,-468,0,0,0,0,0,0,0,0,0,-1,1511,1492,0,0
294,-468,0,0,0,0,0,0,0,0,0,-1,1518,1492,0,0
301,-468,0,0,0,0,0,0,0,0,0,-1,1525,1492,0,0
308,-468,0,0,0,0,0,0,0,0,0,-1,1532,1492,0,0
315,-468,0,0,0,0,0,0,0,0,0,-1,1539,1492,0,0
322,-468,0,0,0,0,0,0,0,0,0,-1,1546,1492,0,0
329,-468,0,0,0,0,0,0,0,0,0,-1,1553,1492,0,0
336,-468,0,0,0,0,0,0,0,0,0,-1,1560,1492,0,0
343,-468,0,0,0,0,0,0,0,0,0,-1,1567,1492,0,0
350,-468,0,0,0,0,0,0,0,0,0,-1,1574,1492,0,0
357,-468,0,0,0,0,0,0,0,0,0,-1,1581,1492,0,0
364,-468,0,0,0,0,0,0,0,0,0,-1,1588,1492,0,0
371,-468,0,0,0,0,0,0,0,0,0,-1,1595,1492,0,0
378,-468,0,0,0,0,0,0,0,0,0,-1,1602,1492,0,0
385,-468,0,0,0,0,0,0,0,0,0,-1,1609,1492,0,0
392,-468,0,0,0,0,0,0,0,0,0,-1,1616,1492,0,0
399,-468,0,0,0,0,0,0,0,0,0,-1,1623,1492,0,0
406,-468,0,0,0,0,0,0,0,0,0,-1,1630,1492,0,0
413,-468,0,0,0,0,0,0,0,0,0,-1,1637,1492,0,0
420,-468,0,0,0,0,0,0,0,0,0,-1,1644,1492,0,0
427,-468,0,0,0,0,0,0,0,0,0,-1,1651,1492,0,0
434,-468,0,0,0,0,0,0,0,0,0,-1,1658,1492,0,0
441,-468,0,0,0,0,0,0,0,0,0,-1,1665,1492,0,0
448,-468,0,0,0,0,0,0,0,0,0,-1,1672,1492,0,0
455,-468,0,0,0,0,0,0,0,0,0,-1,1679,1492,0,0
462,-468,0,0,0,0,0,0,0,0,0,-1,1686,1492,0,0
469,-468,15.6879,1.2677,0,0,0,0,0,0,0,-1,1693,1492,15.6879,-1.26772
476,-468,14.9318,1.61865,0,0,0,0,0,0,0,-1,1700,1492,14.9318,-1.61869
483,-468,11.265,4.64795,0,0,0,0,0,0,0,-1,1707,1492,11.265,-4.64798
490,-468,12.1316,3.51624,0,0,0,0,0,0,0,-1,1714,1492,12.1316,-3.51628
497,-468,16.5355,3.14587,0,0,0,0,0,0,0,-1,1721,1492,16.5356,-3.14583
504,-468,15.0642,4.10437,0,0,0,0,0,0,0,-1,1728,1492,15.0643,-4.10431
511,-468,15.6877,9.4801,0,0,0,0,0,0,0,-1,1735,1492,15.6878,-9.48007
518,-468,13.759,11.0887,0,0,0,0,0,0,0,-1,1742,1492,13.759,-11.0887
525,-468,16.6531,14.2238,0,0,0,0,0,0,0,-1,1749,1492,16.653,-14.2237
532,-468,16.4189,14.9822,0,0,0,0,0,0,0,-1,1756,1492,16.4189,-14.9821
539,-468,16.34,14.7013,0,0,0,0,0,0,0,-1,1763,1492,16.34,-14.7013
546,-468,16.0009,14.744,0,0,0,0,0,0,0,-1,1770,1492,16.0008,-14.744
553,-468,15.9825,14.3568,-0.0137619,-0.00255173,0.0112587,0.00441994,-0.0207336,1.01636,0.0155071,0.0434655,1777,1492,15.9825,-14.3569
560,-468,15.855,14.0513,-0.00983485,-0.0012275,0.00786044,0.0034303,-0.0144927,1.03586,0.0109852,0.0287303,1784,1492,15.855,-14.0513
567,-468,15.8223,13.7472,-0.0068118,-0.000215385,0.00534146,0.00276409,-0.00979128,1.06198,0.00761791,0.0174459,1791,1492,15.8222,-13.7472
574,-468,15.8464,13.3776,-0.00454722,0.00023306,0.0035347,0.00210988,-0.00642404,1.08268,0.00513263,0.0150343,1798,1492,15.8464,-13.3775
581,-468,15.8466,13.0453,-0.00282651,0.000580151,0.00212892,0.00160329,-0.00384965,1.1228,0.00323607,0.0154907,1805,1492,15.8466,-13.0453
588,-468,15.8253,12.7223,-0.00120679,0.000876648,0.000808707,0.00115371,-0.00148385,1.24073,0.00152677,0.0129092,1812,1492,15.8253,-12.7223
595,-468,15.8164,12.3922,-1.33235e-05,0.000951722,2.07707e-05,0.000952169,-1.37703e-05,1.54929,0.000639419,0.0109788,1819,1492,15.8164,-12.3922
602,-468,15.8124,12.0436,0.000713212,0.000826258,-0.000394646,0.00116841,0.000371062,-0.856527,0.000689383,0.00937568,1826,1492,15.8124,-12.0436
609,-468,15.8013,11.6886,0.00116044,0.000574261,-0.000588692,0.00152497,0.000209734,-0.55443,0.000954445,0.00927446,1833,1492,15.8012,-11.6887
616,-468,15.7943,11.3485,0.0015501,0.000259885,-0.000630984,0.00180738,2.60508e-06,-0.387165,0.00120405,0.00907549,1840,1492,15.7943,-11.3485
623,-468,15.7844,11.0275,0.00184922,-9.35351e-05,-0.000586659,0.00201263,-0.000256945,-0.271658,0.00143509,0.00999099,1847,1492,15.7844,-11.0275
630,-468,15.7942,10.6699,0.00191704,-0.000529732,-0.000325779,0.00195968,-0.000572365,-0.130126,0.00153327,0.0105031,1854,1492,15.7942,-10.6699
637,-468,15.7963,10.3135,0.00177825,-0.000961335,8.57809e-05,0.00178093,-0.000964018,0.0312709,0.00160802,0.0145316,1861,1492,15.7962,-10.3135
644,-468,15.8862,10.0969,0.0014245,-0.00155601,0.000708317,0.00158427,-0.00171578,0.221846,0.00190579,0.0428758,1868,1492,15.8862,-10.0969
651,-468,16.1023,9.78186,0,0,0,0,0,0,0,-1,1875,1492,16.1022,-9.78189
658,-468,15.4266,8.95715,0,0,0,0,0,0,0,-1,1882,1492,15.4266,-8.95714
665,-468,15.4673,8.59546,0,0,0,0,0,0,0,-1,1889,1492,15.4672,-8.59548
672,-468,9.96814,3.61133,0,0,0,0,0,0,0,-1,1896,1492,9.96817,-3.61139
679,-468,11.2191,1.91968,0,0,0,0,0,0,0,-1,1903,1492,11.2191,-1.91965
686,-468,11.9252,1.42285,0,0,0,0,0,0,0,-1,1910,1492,11.9252,-1.42291
693,-468,0,0,0,0,0,0,0,0,0,-1,1917,1492,0,0
700,-468,0,0,0,0,0,0,0,0,0,-1,1924,1492,0,0
707,-468,0,0,0,0,0,0,0,0,0,-1,1931,1492,0,0
714,-468,0,0,0,0,0,0,0,0,0,-1,1938,1492,0,0
721,-468,0,0,0,0,0,0,0,0,0,-1,1945,1492,0,0
728,-468,0,0,0,0,0,0,0,0,0,-1,1952,1492,0,0
735,-468,0,0,0,0,0,0,0,0,0,-1,1959,1492,0,0
742,-468,0,0,0,0,0,0,0,0,0,-1,1966,1492,0,0
749,-468,0,0,0,0,0,0,0,0,0,-1,1973,1492,0,0
756,-468,0,0,0,0,0,0,0,0,0,-1,1980,1492,0,0
763,-468,0,0,0,0,0,0,0,0,0,-1,1987,1492,0,0
770,-468,0,0,0,0,0,0,0,0,0,-1,1994,1492,0,0
777,-468,0,0,0,0,0,0,0,0,0,-1,2001,1492,0,0
784,-468,0,0,0,0,0,0,0,0,0,-1,2008,1492,0,0
791,-468,0,0,0,0,0,0,0,0,0,-1,2015,1492,0,0
798,-468,0,0,0,0,0,0,0,0,0,-1,2022,1492,0,0
805,-468,0,0,0,0,0,0,0,0,0,-1,2029,1492,0,0
812,-468,0,0,0,0,0,0,0,0,0,-1,2036,1492,0,0
-700,-475,0,0,0,0,0,0,0,0,0,-1,524,1499,0,0
-693,-475,0,0,0,0,0,0,0,0,0,-1,531,1499,0,0
-686,-475,0,0,0,0,0,0,0,0,0,-1,538,1499,0,0
-679,-475,0,0,0,0,0,0,0,0,0,-1,545,1499,0,0
-672,-475,0,0,0,0,0,0,0,0,0,-1,552,1499,0,0
-665,-475,0,0,0,0,0,0,0,0,0,-1,559,1499,0,0
-658,-475,0,0,0,0,0,0,0,0,0,-1,566,1499,0,0
-651,-475,0,0,0,0,0,0,0,0,0,-1,573,1499,0,0
-644,-475,0,0,0,0,0,0,0,0,0,-1,580,1499,0,0
-637,-475,0,0,0,0,0,0,0,0,0,-1,587,1499,0,0
-630,-475,0,0,0,0,0,0,0,0,0,-1,594,1499,0,0
-623,-475,0,0,0,0,0,0,0,0,0,-1,601,1499,0,0
-616,-475,0,0,0,0,0,0,0,0,0,-1,608,1499,0,0
-609,-475,0,0,0,0,0,0,0,0,0,-1,615,1499,0,0
-602,-475,0,0,0,0,0,0,0,0,0,-1,622,1499,0,0
-595,-475,0,0,0,0,0,0,0,0,0,-1,629,1499,0,0
-588,-475,0,0,0,0,0,0,0,0,0,-1,636,1499,0,0
-581,-475,0,0,0,0,0,0,0,0,0,-1,643,1499,0,0
-574,-475,0,0,0,0,0,0,0,0,0,-1,650,1499,0,0
-567,-475,0,0,0,0,0,0,0,0,0,-1,657,1499,0,0
-560,-475,-9.42731,9.29517,0,0,0,0,0,0,0,-1,664,1499,-9.42731,-9.29519
-553,-475,-8.15131,8.78369,0,0,0,0,0,0,0,-1,671,1499,-8.15131,-8.78367
-546,-475,-8.41254,8.20654,0,0,0,0,0,0,0,-1,678,1499,-8.41251,-8.20655
-539,-475,-2.83905,4.99597,0,0,0,0,0,0,0,-1,685,1499,-2.83904,-4.99598
-532,-475,-2.53473,6.19373,0,0,0,0,0,0,0,-1,692,1499,-2.5347,-6.1937
-525,-475,-5.40747,6.68445,0,0,0,0,0,0,0,-1,699,1499,-5.4075,-6.68445
-518,-475,-5.17316,7.38416,0,0,0,0,0,0,0,-1,706,1499,-5.17318,-7.38419
-511,-475,-3.93854,8.16626,0,0,0,0,0,0,0,-1,713,1499,-3.93852,-8.16631
-504,-475,-3.78357,8.64526,0.00316371,0.00326934,0.00167751,0.00489487,0.00153818,0.801135,0.00289033,0.0320017,720,1499,-3.78355,-8.64528
-497,-475,-3.76355,8.96948,0.00143738,0.00205008,0.000390386,0.00223997,0.00124749,1.11808,0.00129604,0.0203059,727,1499,-3.76353,-8.96943
-490,-475,-3.74884,9.26392,0.000547576,0.00143419,-0.00013527,0.00145437,0.000527397,-1.42271,0.000850178,0.00908112,734,1499,-3.74882,-9.26397
-483,-475,-3.75958,9.65833,4.53583e-05,0.000884373,-0.000356488,0.00101538,-8.56523e-05,-1.21861,0.000707204,0.0084605,741,1499,-3.75959,-9.65833
-476,-475,-3.76794,10.0248,-0.00025366,0.000350072,-0.000496181,0.000628998,-0.000532586,-1.05868,0.00067141,0.0099724,748,1499,-3.76792,-10.0248
-469,-475,-3.74854,10.3993,-0.000334637,-0.000489535,-0.000709583,0.000301711,-0.00112588,-0.731039,0.000868801,0.0120498,755,1499,-3.74851,-10.3993
-462,-475,-3.73383,10.7656,-7.33489e-05,-0.00110735,-0.000697992,0.00027826,-0.00145896,-0.466638,0.00107744,0.0173954,762,1499,-3.73382,-10.7657
-455,-475,-3.78302,11.1343,0.000309306,-0.00199747,-0.000800979,0.000560151,-0.00224831,-0.303499,0.00171634,0.0151262,769,1499,-3.783,-11.1343
-448,-475,-3.82123,11.5217,0.000756858,-0.00292271,-0.000982595,0.00100281,-0.00316866,-0.24527,0.00251428,0.0124129,776,1499,-3.82121,-11.5217
-441,-475,-3.82892,11.8954,0.00155851,-0.00410692,-0.001188,0.00179754,-0.00434595,-0.198553,0.00364725,0.0156967,783,1499,-3.82895,-11.8954
-434,-475,-3.81372,12.2467,0.00238293,-0.00544739,-0.00151473,0.00266573,-0.00573019,-0.184576,0.00495385,0.0106812,790,1499,-3.81374,-12.2467
-427,-475,-3.77246,12.6488,0.00310829,-0.00692393,-0.00192085,0.00346349,-0.00727913,-0.182855,0.00633133,0.0196433,797,1499,-3.77246,-12.6488
-420,-475,-3.66846,13.0114,0.00400743,-0.00852831,-0.00210655,0.00435195,-0.00887283,-0.162113,0.00778262,0.0334175,804,1499,-3.66848,-13.0113
-413,-475,-3.42285,13.437,0,0,0,0,0,0,0,-1,811,1499,-3.42283,-13.437
-406,-475,-2.56116,12.4956,0,0,0,0,0,0,0,-1,818,1499,-2.56116,-12.4956
-399,-475,-1.39667,6.1615,0,0,0,0,0,0,0,-1,825,1499,-1.39664,-6.16155
-392,-475,0.217163,8.61389,0,0,0,0,0,0,0,-1,832,1499,0.217167,-8.6139
-385,-475,1.18372,2.73999,0,0,0,0,0,0,0,-1,839,1499,1.18372,-2.73995
-378,-475,1.31409,2.90149,0,0,0,0,0,0,0,-1,846,1499,1.31411,-2.90151
-371,-475,2.3476,3.31116,0,0,0,0,0,0,0,-1,853,1499,2.34761,-3.31121
-364,-475,1.04462,9.05823,0,0,0,0,0,0,0,-1,860,1499,1.04461,-9.05825
-357,-475,-0.262756,7.97205,0,0,0,0,0,0,0,-1,867,1499,-0.262784,-7.97205
-350,-475,-2.77173,4.35486,0,0,0,0,0,0,0,-1,874,1499,-2.77175,-4.35491
-343,-475,-6.81641,-1.95203,0,0,0,0,0,0,0,-1,881,1499,-6.81643,1.95198
-336,-475,0,0,0,0,0,0,0,0,0,-1,888,1499,0,0
-329,-475,0,0,0,0,0,0,0,0,0,-1,895,1499,0,0
-322,-475,0,0,0,0,0,0,0,0,0,-1,902,1499,0,0
-315,-475,0,0,0,0,0,0,0,0,0,-1,909,1499,0,0
-308,-475,0,0,0,0,0,0,0,0,0,-1,916,1499,0,0
-301,-475,0,0,0,0,0,0,0,0,0,-1,923,1499,0,0
-294,-475,0,0,0,0,0,0,0,0,0,-1,930,1499,0,0
-287,-475,0,0,0,0,0,0,0,0,0,-1,937,1499,0,0
-280,-475,0,0,0,0,0,0,0,0,0,-1,944,1499,0,0
-273,-475,0,0,0,0,0,0,0,0,0,-1,951,1499,0,0
-266,-475,0,0,0,0,0,0,0,0,0,-1,958,1499,0,0
-259,-475,0,0,0,0,0,0,0,0,0,-1,965,1499,0,0
-252,-475,0,0,0,0,0,0,0,0,0,-1,972,1499,0,0
-245,-475,0,0,0,0,0,0,0,0,0,-1,979,1499,0,0
-238,-475,0,0,0,0,0,0,0,0,0,-1,986,1499,0,0
-231,-475,0,0,0,0,0,0,0,0,0,-1,993,1499,0,0
-224,-475,0,0,0,0,0,0,0,0,0,-1,1000,1499,0,0
-217,-475,0,0,0,0,0,0,0,0,0,-1,1007,1499,0,0
-210,-475,0,0,0,0,0,0,0,0,0,-1,1014,1499,0,0
-203,-475,0,0,0,0,0,0,0,0,0,-1,1021,1499,0,0
-196,-475,0,0,0,0,0,0,0,0,0,-1,1028,1499,0,0
-189,-475,0,0,0,0,0,0,0,0,0,-1,1035,1499,0,0
-182,-475,0,0,0,0,0,0,0,0,0,-1,1042,1499,0,0
-175,-475,0,0,0,0,0,0,0,0,0,-1,1049,1499,0,0
-168,-475,0,0,0,0,0,0,0,0,0,-1,1056,1499,0,0
-161,-475,0,0,0,0,0,0,0,0,0,-1,1063,1499,0,0
-154,-475,0,0,0,0,0,0,0,0,0,-1,1070,1499,0,0
-147,-475,0,0,0,0,0,0,0,0,0,-1,1077,1499,0,0
-140,-475,0,0,0,0,0,0,0,0,0,-1,1084,1499,0,0
-133,-475,0,0,0,0,0,0,0,0,0,-1,1091,1499,0,0
-126,-475,0,0,0,0,0,0,0,0,0,-1,1098,1499,0,0
-119,-475,0,0,0,0,0,0,0,0,0,-1,1105,1499,0,0
-112,-475,0,0,0,0,0,0,0,0,0,-1,1112,1499,0,0
-105,-475,0,0,0,0,0,0,0,0,0,-1,1119,1499,0,0
-98,-475,0,0,0,0,0,0,0,0,0,-1,1126,1499,0,0
-91,-475,0,0,0,0,0,0,0,0,0,-1,1133,1499,0,0
-84,-475,0,0,0,0,0,0,0,0,0,-1,1140,1499,0,0
-77,-475,0,0,0,0,0,0,0,0,0,-1,1147,1499,0,0
-70,-475,0,0,0,0,0,0,0,0,0,-1,1154,1499,0,0
-63,-475,0,0,0,0,0,0,0,0,0,-1,1161,1499,0,0
-56,-475,0,0,0,0,0,0,0,0,0,-1,1168,1499,0,0
-49,-475,0,0,0,0,0,0,0,0,0,-1,1175,1499,0,0
-42,-475,0,0,0,0,0,0,0,0,0,-1,1182,1499,0,0
-35,-475,0,0,0,0,0,0,0,0,0,-1,1189,1499,0,0
-28,-475,0,0,0,0,0,0,0,0,0,-1,1196,1499,0,0
-21,-475,0,0,0,0,0,0,0,0,0,-1,1203,1499,0,0
-14,-475,0,0,0,0,0,0,0,0,0,-1,1210,1499,0,0
-7,-475,0,0,0,0,0,0,0,0,0,-1,1217,1499,0,0
0,-475,0,0,0,0,0,0,0,0,0,-1,1224,1499,0,0
7,-475,0,0,0,0,0,0,0,0,0,-1,1231,1499,0,0
14,-475,0,0,0,0,0,0,0,0,0,-1,1238,1499,0,0
21,-475,0,0,0,0,0,0,0,0,0,-1,1245,1499,0,0
28,-475,0,0,0,0,0,0,0,0,0,-1,1252,1499,0,0
35,-475,0,0,0,0,0,0,0,0,0,-1,1259,1499,0,0
42,-475,0,0,0,0,0,0,0,0,0,-1,1266,1499,0,0
49,-475,0,0,0,0,0,0,0,0,0,-1,1273,1499,0,0
56,-475,0,0,0,0,0,0,0,0,0,-1,1280,1499,0,0
63,-475,0,0,0,0,0,0,0,0,0,-1,1287,1499,0,0
70,-475,0,0,0,0,0,0,0,0,0,-1,1294,1499,0,0
77,-475,0,0,0,0,0,0,0,0,0,-1,1301,1499,0,0
84,-475,0,0,0,0,0,0,0,0,0,-1,1308,1499,0,0
91,-475,0,0,0,0,0,0,0,0,0,-1,1315,1499,0,0
98,-475,0,0,0,0,0,0,0,0,0,-1,1322,1499,0,0
105,-475,0,0,0,0,0,0,0,0,0,-1,1329,1499,0,0
112,-475,0,0,0,0,0,0,0,0,0,-1,1336,1499,0,0
119,-475,0,0,0,0,0,0,0,0,0,-1,1343,1499,0,0
126,-475,0,0,0,0,0,0,0,0,0,-1,1350,1499,0,0
133,-475,0,0,0,0,0,0,0,0,0,-1,1357,1499,0,0
140,-475,0,0,0,0,0,0,0,0,0,-1,1364,1499,0,0
147,-475,0,0,0,0,0,0,0,0,0,-1,1371,1499,0,0
154,-475,0,0,0,0,0,0,0,0,0,-1,1378,1499,0,0
161,-475,0,0,0,0,0,0,0,0,0,-1,1385,1499,0,0
168,-475,0,0,0,0,0,0,0,0,0,-1,1392,1499,0,0
175,-475,0,0,0,0,0,0,0,0,0,-1,1399,1499,0,0
182,-475,0,0,0,0,0,0,0,0,0,-1,1406,1499,0,0
189,-475,0,0,0,0,0,0,0,0,0,-1,1413,1499,0,0
196,-475,0,0,0,0,0,0,0,0,0,-1,1420,1499,0,0
203,-475,0,0,0,0,0,0,0,0,0,-1,1427,1499,0,0
210,-475,0,0,0,0,0,0,0,0,0,-1,1434,1499,0,0
217,-475,0,0,0,0,0,0,0,0,0,-1,1441,1499,0,0
224,-475,0,0,0,0,0,0,0,0,0,-1,1448,1499,0,0
231,-475,0,0,0,0,0,0,0,0,0,-1,1455,1499,0,0
238,-475,0,0,0,0,0,0,0,0,0,-1,1462,1499,0,0
245,-475,0,0,0,0,0,0,0,0,0,-1,1469,1499,0,0
252,-475,0,0,0,0,0,0,0,0,0,-1,1476,1499,0,0
259,-475,0,0,0,0,0,0,0,0,0,-1,1483,1499,0,0
266,-475,0,0,0,0,0,0,0,0,0,-1,1490,1499,0,0
273,-475,0,0,0,0,0,0,0,0,0,-1,1497,1499,0,0
280,-475,0,0,0,0,0,0,0,0,0,-1,1504,1499,0,0
287,-475,0,0,0,0,0,0,0,0,0,-1,1511,1499,0,0
294,-475,0,0,0,0,0,0,0,0,0,-1,1518,1499,0,0
301,-475,0,0,0,0,0,0,0,0,0,-1,1525,1499,0,0
308,-475,0,0,0,0,0,0,0,0,0,-1,1532,1499,0,0
315,-475,0,0,0,0,0,0,0,0,0,-1,1539,1499,0,0
322,-475,0,0,0,0,0,0,0,0,0,-1,1546,1499,0,0
329,-475,0,0,0,0,0,0,0,0,0,-1,1553,1499,0,0
336,-475,0,0,0,0,0,0,0,0,0,-1,1560,1499,0,0
343,-475,0,0,0,0,0,0,0,0,0,-1,1567,1499,0,0
350,-475,0,0,0,0,0,0,0,0,0,-1,1574,1499,0,0
357,-475,0,0,0,0,0,0,0,0,0,-1,1581,1499,0,0
364,-475,0,0,0,0,0,0,0,0,0,-1,1588,1499,0,0
371,-475,0,0,0,0,0,0,0,0,0,-1,1595,1499,0,0
378,-475,0,0,0,0,0,0,0,0,0,-1,1602,1499,0,0
385,-475,0,0,0,0,0,0,0,0,0,-1,1609,1499,0,0
392,-475,0,0,0,0,0,0,0,0,0,-1,1616,1499,0,0
399,-475,0,0,0,0,0,0,0,0,0,-1,1623,1499,0,0
406,-475,0,0,0,0,0,0,0,0,0,-1,1630,1499,0,0
413,-475,0,0,0,0,0,0,0,0,0,-1,1637,1499,0,0
420,-475,0,0,0,0,0,0,0,0,0,-1,1644,1499,0,0
427,-475,0,0,0,0,0,0,0,0,0,-1,1651,1499,0,0
434,-475,0,0,0,0,0,0,0,0,0,-1,1658,1499,0,0
441,-475,0,0,0,0,0,0,0,0,0,-1,1665,1499,0,0
448,-475,0,0,0,0,0,0,0,0,0,-1,1672,1499,0,0
455,-475,0,0,0,0,0,0,0,0,0,-1,1679,1499,0,0
462,-475,12.6372,0.275391,0,0,0,0,0,0,0,-1,1686,1499,12.6372,-0.27536
469,-475,15.6437,2.28296,0,0,0,0,0,0,0,-1,1693,1499,15.6437,-2.28293
476,-475,15.3302,2.71436,0,0,0,0,0,0,0,-1,1700,1499,15.3303,-2.7143
483,-475,10.7461,5.91479,0,0,0,0,0,0,0,-1,1707,1499,10.7461,-5.91476
490,-475,11.9305,4.4364,0,0,0,0,0,0,0,-1,1714,1499,11.9305,-4.43644
497,-475,15.3451,4.3479,0,0,0,0,0,0,0,-1,1721,1499,15.3451,-4.34789
504,-475,16.9646,7.71265,0,0,0,0,0,0,0,-1,1728,1499,16.9646,-7.71265
511,-475,18.941,12.7572,0,0,0,0,0,0,0,-1,1735,1499,18.941,-12.7572
518,-475,17.0021,13.8564,0,0,0,0,0,0,0,-1,1742,1499,17.0021,-13.8564
525,-475,16.5259,14.5837,0,0,0,0,0,0,0,-1,1749,1499,16.5259,-14.5838
532,-475,16.0991,14.7366,-0.025561,-0.00887904,0.0243701,0.00853794,-0.0429779,0.950281,0.0318813,0.0466237,1756,1499,16.0991,-14.7366
539,-475,15.8593,14.7432,-0.0197475,-0.00632748,0.0182276,0.00638594,-0.0324609,0.961762,0.0240535,0.0484422,1763,1499,15.8593,-14.7432
546,-475,15.6233,14.6351,-0.0150185,-0.00420518,0.0134795,0.00491156,-0.0241353,0.976126,0.0179527,0.0431035,1770,1499,15.6233,-14.6352
553,-475,15.6294,14.3901,-0.0110747,-0.0026692,0.0095892,0.00359779,-0.0173417,0.991931,0.0129284,0.0249284,1777,1499,15.6294,-14.3902
560,-475,15.4131,14.145,-0.00789821,-0.00144845,0.00667903,0.0027435,-0.0120902,1.01031,0.00911331,0.0197604,1784,1499,15.413,-14.145
567,-475,15.5156,13.734,-0.00543523,-0.000568622,0.00452505,0.00213588,-0.00813973,1.03209,0.00626109,0.014563,1791,1499,15.5156,-13.734
574,-475,15.5076,13.3724,-0.00354565,-7.19815e-05,0.00291336,0.00158298,-0.00520061,1.05419,0.00409795,0.0144477,1798,1499,15.5076,-13.3724
581,-475,15.4954,13.051,-0.00206286,0.000333861,0.00164212,0.00116839,-0.00289739,1.10061,0.00241709,0.0125585,1805,1499,15.4953,-13.051
588,-475,15.4821,12.7333,-0.000617663,0.000655551,0.000416251,0.000779558,-0.00074167,1.28125,0.000878372,0.0106524,1812,1499,15.4821,-12.7333
595,-475,15.4814,12.3964,0.000478055,0.000777408,-0.000336141,0.000995691,0.000259772,-0.994859,0.00059637,0.0113767,1819,1499,15.4815,-12.3964
602,-475,15.4774,12.0416,0.00116445,0.000727999,-0.000775886,0.00175222,0.000140233,-0.64831,0.00112432,0.0130681,1826,1499,15.4775,-12.0416
609,-475,15.4674,11.7224,0.00160976,0.000565856,-0.0010192,0.00223288,-5.72653e-05,-0.548749,0.00150804,0.0116194,1833,1499,15.4674,-11.7224
616,-475,15.4432,11.3995,0.00204645,0.000332363,-0.00113781,0.00261388,-0.000235069,-0.462612,0.001826,0.0104661,1840,1499,15.4432,-11.3995
623,-475,15.4429,11.0436,0.002437,7.81394e-05,-0.00117282,0.00292087,-0.000405729,-0.391294,0.00209562,0.0106131,1847,1499,15.4429,-11.0436
630,-475,15.4742,10.6978,0.00260615,-0.000316139,-0.000971391,0.00289958,-0.000609573,-0.29336,0.00216504,0.0135371,1854,1499,15.4743,-10.6978
637,-475,15.5061,10.3373,0.00262124,-0.000715959,-0.00062853,0.00273569,-0.000830412,-0.180122,0.00215462,0.0264505,1861,1499,15.5061,-10.3373
644,-475,15.4792,10.2268,0,0,0,0,0,0,0,-1,1868,1499,15.4792,-10.2268
651,-475,11.7965,7.57593,0,0,0,0,0,0,0,-1,1875,1499,11.7965,-7.5759
658,-475,14.6708,8.80322,0,0,0,0,0,0,0,-1,1882,1499,14.6708,-8.8032
665,-475,9.33435,5.43335,0,0,0,0,0,0,0,-1,1889,1499,9.33439,-5.43332
672,-475,9.38635,1.10474,0,0,0,0,0,0,0,-1,1896,1499,9.38629,-1.10475
679,-475,12.2594,1.31079,0,0,0,0,0,0,0,-1,1903,1499,12.2594,-1.31077
686,-475,0,0,0,0,0,0,0,0,0,-1,1910,1499,0,0
693,-475,0,0,0,0,0,0,0,0,0,-1,1917,1499,0,0
700,-475,0,0,0,0,0,0,0,0,0,-1,1924,1499,0,0
707,-475,0,0,0,0,0,0,0,0,0,-1,1931,1499,0,0
714,-475,0,0,0,0,0,0,0,0,0,-1,1938,1499,0,0
721,-475,0,0,0,0,0,0,0,0,0,-1,1945,1499,0,0
728,-475,0,0,0,0,0,0,0,0,0,-1,1952,1499,0,0
735,-475,0,0,0,0,0,0,0,0,0,-1,1959,1499,0,0
742,-475,0,0,0,0,0,0,0,0,0,-1,1966,1499,0,0
749,-475,0,0,0,0,0,0,0,0,0,-1,1973,1499,0,0
756,-475,0,0,0,0,0,0,0,0,0,-1,1980,1499,0,0
763,-475,0,0,0,0,0,0,0,0,0,-1,1987,1499,0,0
770,-475,0,0,0,0,0,0,0,0,0,-1,1994,1499,0,0
777,-475,0,0,0,0,0,0,0,0,0,-1,2001,1499,0,0
784,-475,0,0,0,0,0,0,0,0,0,-1,2008,1499,0,0
791,-475,0,0,0,0,0,0,0,0,0,-1,2015,1499,0,0
798,-475,0,0,0,0,0,0,0,0,0,-1,2022,1499,0,0
805,-475,0,0,0,0,0,0,0,0,0,-1,2029,1499,0,0
812,-475,0,0,0,0,0,0,0,0,0,-1,2036,1499,0,0
-700,-482,0,0,0,0,0,0,0,0,0,-1,524,1506,0,0
-693,-482,0,0,0,0,0,0,0,0,0,-1,531,1506,0,0
-686,-482,0,0,0,0,0,0,0,0,0,-1,538,1506,0,0
-679,-482,0,0,0,0,0,0,0,0,0,-1,545,1506,0,0
-672,-482,0,0,0,0,0,0,0,0,0,-1,552,1506,0,0
-665,-482,0,0,0,0,0,0,0,0,0,-1,559,1506,0,0
-658,-482,0,0,0,0,0,0,0,0,0,-1,566,1506,0,0
-651,-482,0,0,0,0,0,0,0,0,0,-1,573,1506,0,0
-644,-482,0,0,0,0,0,0,0,0,0,-1,580,1506,0,0
-637,-482,0,0,0,0,0,0,0,0,0,-1,587,1506,0,0
-630,-482,0,0,0,0,0,0,0,0,0,-1,594,1506,0,0
-623,-482,0,0,0,0,0,0,0,0,0,-1,601,1506,0,0
-616,-482,0,0,0,0,0,0,0,0,0,-1,608,1506,0,0
-609,-482,0,0,0,0,0,0,0,0,0,-1,615,1506,0,0
-602,-482,0,0,0,0,0,0,0,0,0,-1,622,1506,0,0
-595,-482,0,0,0,0,0,0,0,0,0,-1,629,1506,0,0
-588,-482,0,0,0,0,0,0,0,0,0,-1,636,1506,0,0
-581,-482,0,0,0,0,0,0,0,0,0,-1,643,1506,0,0
-574,-482,0,0,0,0,0,0,0,0,0,-1,650,1506,0,0
-567,-482,0,0,0,0,0,0,0,0,0,-1,657,1506,0,0
-560,-482,0,0,0,0,0,0,0,0,0,-1,664,1506,0,0
-553,-482,-9.06055,9.34314,0,0,0,0,0,0,0,-1,671,1506,-9.06056,-9.34312
-546,-482,-4.08624,8.34241,0,0,0,0,0,0,0,-1,678,1506,-4.08624,-8.3424
-539,-482,-2.17645,4.54761,0,0,0,0,0,0,0,-1,685,1506,-2.17647,-4.54759
-532,-482,-2.0426,5.69983,0,0,0,0,0,0,0,-1,692,1506,-2.04262,-5.69985
-525,-482,-1.93561,7.00574,0,0,0,0,0,0,0,-1,699,1506,-1.93563,-7.00578
-518,-482,-5.84131,7.11353,0,0,0,0,0,0,0,-1,706,1506,-5.84128,-7.11348
-511,-482,-3.91052,8.27942,0,0,0,0,0,0,0,-1,713,1506,-3.91052,-8.27946
-504,-482,-3.68854,8.73035,0.00407584,0.00401185,0.00112448,0.00516878,0.00291891,0.771176,0.00299252,0.0461995,720,1506,-3.68853,-8.73031
-497,-482,-3.36115,8.98706,0.00140813,0.00254316,-0.000142526,0.00256078,0.00139051,-1.44777,0.00148029,0.0310738,727,1506,-3.36112,-8.98705
-490,-482,-3.39374,9.25317,4.93864e-05,0.00177648,-0.000577815,0.00195197,-0.000126097,-1.27595,0.00134531,0.0185911,734,1506,-3.39371,-9.25313
-483,-482,-3.38739,9.66199,-0.000674077,0.00113022,-0.000627901,0.00132722,-0.000871079,-1.26678,0.00127827,0.00904472,741,1506,-3.3874,-9.66203
-476,-482,-3.39514,10.0292,-0.00102388,0.000585498,-0.000654538,0.000818087,-0.00125646,-1.22936,0.00120662,0.00997173,748,1506,-3.39512,-10.0292
-469,-482,-3.40173,10.4053,-0.00101796,-0.000181682,-0.000753455,0.000261882,-0.00146153,-1.03872,0.00107236,0.0112676,755,1506,-3.40171,-10.4053
-462,-482,-3.40796,10.7759,-0.000587547,-0.000732864,-0.000632491,-2.35541e-05,-0.00129686,-0.72821,0.000856827,0.0126935,762,1506,-3.40796,-10.7759
-455,-482,-3.4267,11.1343,1.18467e-05,-0.00145632,-0.000589827,0.00021945,-0.00166392,-0.338432,0.0011892,0.0131434,769,1506,-3.42672,-11.1343
-448,-482,-3.43585,11.5249,0.000614358,-0.00208945,-0.000591644,0.000738153,-0.00221325,-0.206263,0.00177351,0.0132627,776,1506,-3.43583,-11.5249
-441,-482,-3.45868,11.8981,0.00164759,-0.00292179,-0.000532063,0.00170873,-0.00298293,-0.114402,0.00274183,0.0132024,783,1506,-3.45868,-11.8981
-434,-482,-3.45477,12.262,0.00278363,-0.00365514,-0.00050368,0.0028228,-0.0036943,-0.077597,0.00377385,0.0159541,790,1506,-3.4548,-12.2619
-427,-482,-3.45367,12.6349,0.00382424,-0.00432819,-0.000477153,0.00385207,-0.00435602,-0.0582637,0.00474192,0.0173958,797,1506,-3.45365,-12.6349
-420,-482,-3.37646,13.1431,0.00498094,-0.00491052,-0.000177612,0.00498413,-0.00491371,-0.0179484,0.00571457,0.0347872,804,1506,-3.37645,-13.143
-413,-482,-3.14404,13.5751,0,0,0,0,0,0,0,-1,811,1506,-3.14403,-13.5751
-406,-482,-2.51373,12.7556,0,0,0,0,0,0,0,-1,818,1506,-2.51376,-12.7556
-399,-482,-1.3822,9.22595,0,0,0,0,0,0,0,-1,825,1506,-1.38221,-9.22598
-392,-482,-1.06836,9.22729,0,0,0,0,0,0,0,-1,832,1506,-1.06835,-9.2273
-385,-482,0.0647583,8.90649,0,0,0,0,0,0,0,-1,839,1506,0.0647778,-8.90644
-378,-482,0.215698,5.96948,0,0,0,0,0,0,0,-1,846,1506,0.215681,-5.9695
-371,-482,-0.10907,8.10437,0,0,0,0,0,0,0,-1,853,1506,-0.109063,-8.10433
-364,-482,-0.154968,10.5032,0,0,0,0,0,0,0,-1,860,1506,-0.154976,-10.5032
-357,-482,2.14807,4.60144,0,0,0,0,0,0,0,-1,867,1506,2.14807,-4.60144
-350,-482,-7.5813,-1.45935,0,0,0,0,0,0,0,-1,874,1506,-7.58133,1.45937
-343,-482,-7.19983,-1.26416,0,0,0,0,0,0,0,-1,881,1506,-7.19981,1.26414
-336,-482,-6.78491,-1.18127,0,0,0,0,0,0,0,-1,888,1506,-6.78488,1.18125
-329,-482,0,0,0,0,0,0,0,0,0,-1,895,1506,0,0
-322,-482,0,0,0,0,0,0,0,0,0,-1,902,1506,0,0
-315,-482,0,0,0,0,0,0,0,0,0,-1,909,1506,0,0
-308,-482,0,0,0,0,0,0,0,0,0,-1,916,1506,0,0
-301,-482,0,0,0,0,0,0,0,0,0,-1,923,1506,0,0
-294,-482,0,0,0,0,0,0,0,0,0,-1,930,1506,0,0
-287,-482,0,0,0,0,0,0,0,0,0,-1,937,1506,0,0
-280,-482,0,0,0,0,0,0,0,0,0,-1,944,1506,0,0
-273,-482,0,0,0,0,0,0,0,0,0,-1,951,1506,0,0
-266,-482,0,0,0,0,0,0,0,0,0,-1,958,1506,0,0
-259,-482,0,0,0,0,0,0,0,0,0,-1,965,1506,0,0
-252,-482,0,0,0,0,0,0,0,0,0,-1,972,1506,0,0
-245,-482,0,0,0,0,0,0,0,0,0,-1,979,1506,0,0
-238,-482,0,0,0,0,0,0,0,0,0,-1,986,1506,0,0
-231,-482,0,0,0,0,0,0,0,0,0,-1,993,1506,0,0
-224,-482,0,0,0,0,0,0,0,0,0,-1,1000,1506,0,0
-217,-482,0,0,0,0,0,0,0,0,0,-1,1007,1506,0,0
-210,-482,0,0,0,0,0,0,0,0,0,-1,1014,1506,0,0
-203,-482,0,0,0,0,0,0,0,0,0,-1,1021,1506,0,0
-196,-482,0,0,0,0,0,0,0,0,0,-1,1028,1506,0,0
-189,-482,0,0,0,0,0,0,0,0,0,-1,1035,1506,0,0
-182,-482,0,0,0,0,0,0,0,0,0,-1,1042,1506,0,0
-175,-482,0,0,0,0,0,0,0,0,0,-1,1049,1506,0,0
-168,-482,0,0,0,0,0,0,0,0,0,-1,1056,1506,0,0
-161,-482,0,0,0,0,0,0,0,0,0,-1,1063,1506,0,0
-154,-482,0,0,0,0,0,0,0,0,0,-1,1070,1506,0,0
-147,-482,0,0,0,0,0,0,0,0,0,-1,1077,1506,0,0
-140,-482,0,0,0,0,0,0,0,0,0,-1,1084,1506,0,0
-133,-482,0,0,0,0,0,0,0,0,0,-1,1091,1506,0,0
-126,-482,0,0,0,0,0,0,0,0,0,-1,1098,1506,0,0
-119,-482,0,0,0,0,0,0,0,0,0,-1,1105,1506,0,0
-112,-482,0,0,0,0,0,0,0,0,0,-1,1112,1506,0,0
-105,-482,0,0,0,0,0,0,0,0,0,-1,1119,1506,0,0
-98,-482,0,0,0,0,0,0,0,0,0,-1,1126,1506,0,0
-91,-482,0,0,0,0,0,0,0,0,0,-1,1133,1506,0,0
-84,-482,0,0,0,0,0,0,0,0,0,-1,1140,1506,0,0
-77,-482,0,0,0,0,0,0,0,0,0,-1,1147,1506,0,0
-70,-482,0,0,0,0,0,0,0,0,0,-1,1154,1506,0,0
-63,-482,0,0,0,0,0,0,0,0,0,-1,1161,1506,0,0
-56,-482,0,0,0,0,0,0,0,0,0,-1,1168,1506,0,0
-49,-482,0,0,0,0,0,0,0,0,0,-1,1175,1506,0,0
-42,-482,0,0,0,0,0,0,0,0,0,-1,1182,1506,0,0
-35,-482,0,0,0,0,0,0,0,0,0,-1,1189,1506,0,0
-28,-482,0,0,0,0,0,0,0,0,0,-1,1196,1506,0,0
-21,-482,0,0,0,0,0,0,0,0,0,-1,1203,1506,0,0
-14,-482,0,0,0,0,0,0,0,0,0,-1,1210,1506,0,0
-7,-482,0,0,0,0,0,0,0,0,0,-1,1217,1506,0,0
0,-482,0,0,0,0,0,0,0,0,0,-1,1224,1506,0,0
7,-482,0,0,0,0,0,0,0,0,0,-1,1231,1506,0,0
14,-482,0,0,0,0,0,0,0,0,0,-1,1238,1506,0,0
21,-482,0,0,0,0,0,0,0,0,0,-1,1245,1506,0,0
28,-482,0,0,0,0,0,0,0,0,0,-1,1252,1506,0,0
35,-482,0,0,0,0,0,0,0,0,0,-1,1259,1506,0,0
42,-482,0,0,0,0,0,0,0,0,0,-1,1266,1506,0,0
49,-482,0,0,0,0,0,0,0,0,0,-1,1273,1506,0,0
56,-482,0,0,0,0,0,0,0,0,0,-1,1280,1506,0,0
63,-482,0,0,0,0,0,0,0,0,0,-1,1287,1506,0,0
70,-482,0,0,0,0,0,0,0,0,0,-1,1294,1506,0,0
77,-482,0,0,0,0,0,0,0,0,0,-1,1301,1506,0,0
84,-482,0,0,0,0,0,0,0,0,0,-1,1308,1506,0,0
91,-482,0,0,0,0,0,0,0,0,0,-1,1315,1506,0,0
98,-482,0,0,0,0,0,0,0,0,0,-1,1322,1506,0,0
105,-482,0,0,0,0,0,0,0,0,0,-1,1329,1506,0,0
112,-482,0,0,0,0,0,0,0,0,0,-1,1336,1506,0,0
119,-482,0,0,0,0,0,0,0,0,0,-1,1343,1506,0,0
126,-482,0,0,0,0,0,0,0,0,0,-1,1350,1506,0,0
133,-482,0,0,0,0,0,0,0,0,0,-1,1357,1506,0,0
140,-482,0,0,0,0,0,0,0,0,0,-1,1364,1506,0,0
147,-482,0,0,0,0,0,0,0,0,0,-1,1371,1506,0,0
154,-482,0,0,0,0,0,0,0,0,0,-1,1378,1506,0,0
161,-482,0,0,0,0,0,0,0,0,0,-1,1385,1506,0,0
168,-482,0,0,0,0,0,0,0,0,0,-1,1392,1506,0,0
175,-482,0,0,0,0,0,0,0,0,0,-1,1399,1506,0,0
182,-482,0,0,0,0,0,0,0,0,0,-1,1406,1506,0,0
189,-482,0,0,0,0,0,0,0,0,0,-1,1413,1506,0,0
196,-482,0,0,0,0,0,0,0,0,0,-1,1420,1506,0,0
203,-482,0,0,0,0,0,0,0,0,0,-1,1427,1506,0,0
210,-482,0,0,0,0,0,0,0,0,0,-1,1434,1506,0,0
217,-482,0,0,0,0,0,0,0,0,0,-1,1441,1506,0,0
224,-482,0,0,0,0,0,0,0,0,0,-1,1448,1506,0,0
231,-482,0,0,0,0,0,0,0,0,0,-1,1455,1506,0,0
238,-482,0,0,0,0,0,0,0,0,0,-1,1462,1506,0,0
245,-482,0,0,0,0,0,0,0,0,0,-1,1469,1506,0,0
252,-482,0,0,0,0,0,0,0,0,0,-1,1476,1506,0,0
259,-482,0,0,0,0,0,0,0,0,0,-1,1483,1506,0,0
266,-482,0,0,0,0,0,0,0,0,0,-1,1490,1506,0,0
273,-482,0,0,0,0,0,0,0,0,0,-1,1497,1506,0,0
280,-482,0,0,0,0,0,0,0,0,0,-1,1504,1506,0,0
287,-482,0,0,0,0,0,0,0,0,0,-1,1511,1506,0,0
294,-482,0,0,0,0,0,0,0,0,0,-1,1518,1506,0,0
301,-482,0,0,0,0,0,0,0,0,0,-1,1525,1506,0,0
308,-482,0,0,0,0,0,0,0,0,0,-1,1532,1506,0,0
315,-482,0,0,0,0,0,0,0,0,0,-1,1539,1506,0,0
322,-482,0,0,0,0,0,0,0,0,0,-1,1546,1506,0,0
329,-482,0,0,0,0,0,0,0,0,0,-1,1553,1506,0,0
336,-482,0,0,0,0,0,0,0,0,0,-1,1560,1506,0,0
343,-482,0,0,0,0,0,0,0,0,0,-1,1567,1506,0,0
350,-482,0,0,0,0,0,0,0,0,0,-1,1574,1506,0,0
357,-482,0,0,0,0,0,0,0,0,0,-1,1581,1506,0,0
364,-482,0,0,0,0,0,0,0,0,0,-1,1588,1506,0,0
371,-482,0,0,0,0,0,0,0,0,0,-1,1595,1506,0,0
378,-482,0,0,0,0,0,0,0,0,0,-1,1602,1506,0,0
385,-482,0,0,0,0,0,0,0,0,0,-1,1609,1506,0,0
392,-482,0,0,0,0,0,0,0,0,0,-1,1616,1506,0,0
399,-482,0,0,0,0,0,0,0,0,0,-1,1623,1506,0,0
406,-482,0,0,0,0,0,0,0,0,0,-1,1630,1506,0,0
413,-482,0,0,0,0,0,0,0,0,0,-1,1637,1506,0,0
420,-482,0,0,0,0,0,0,0,0,0,-1,1644,1506,0,0
427,-482,0,0,0,0,0,0,0,0,0,-1,1651,1506,0,0
434,-482,0,0,0,0,0,0,0,0,0,-1,1658,1506,0,0
441,-482,0,0,0,0,0,0,0,0,0,-1,1665,1506,0,0
448,-482,4.24146,1.55383,0,0,0,0,0,0,0,-1,1672,1506,4.24149,-1.55381
455,-482,12.4122,1.09729,0,0,0,0,0,0,0,-1,1679,1506,12.4122,-1.09734
462,-482,15.0673,3.13135,0,0,0,0,0,0,0,-1,1686,1506,15.0672,-3.13134
469,-482,15.3793,3.46301,0,0,0,0,0,0,0,-1,1693,1506,15.3793,-3.46307
476,-482,8.69751,9.18738,0,0,0,0,0,0,0,-1,1700,1506,8.69753,-9.18739
483,-482,10.0902,7.17432,0,0,0,0,0,0,0,-1,1707,1506,10.0902,-7.1743
490,-482,11.6289,5.4928,0,0,0,0,0,0,0,-1,1714,1506,11.6289,-5.49283
497,-482,15.9539,7.40222,0,0,0,0,0,0,0,-1,1721,1506,15.9538,-7.40219
504,-482,20.4233,12.006,0,0,0,0,0,0,0,-1,1728,1506,20.4233,-12.006
511,-482,18.4937,12.9175,0,0,0,0,0,0,0,-1,1735,1506,18.4936,-12.9174
518,-482,16.6002,13.9679,0,0,0,0,0,0,0,-1,1742,1506,16.6003,-13.9679
525,-482,16.047,14.2063,0,0,0,0,0,0,0,-1,1749,1506,16.047,-14.2064
532,-482,15.7836,14.5604,-0.019616,-0.00753028,0.0198565,0.00718252,-0.0343288,0.933109,0.0256179,0.0433739,1756,1506,15.7835,-14.5604
539,-482,15.4141,14.8882,-0.0152415,-0.00546184,0.014914,0.00534345,-0.0260468,0.943811,0.0193926,0.0333636,1763,1506,15.414,-14.8881
546,-482,15.238,14.7484,-0.0116458,-0.00375857,0.0110948,0.00407262,-0.019477,0.956158,0.0145337,0.018797,1770,1506,15.238,-14.7484
553,-482,15.1716,14.3904,-0.00856512,-0.00245521,0.00785951,0.0029222,-0.0139425,0.97076,0.0104068,0.0167329,1777,1506,15.1716,-14.3904
560,-482,15.1227,14.099,-0.00605806,-0.00140539,0.00545948,0.00220273,-0.00966618,0.986803,0.00729015,0.013347,1784,1506,15.1226,-14.099
567,-482,15.1689,13.7474,-0.0040906,-0.00070454,0.00366999,0.00164411,-0.00643925,1.00151,0.00493306,0.0152115,1791,1506,15.1689,-13.7474
574,-482,15.1729,13.3984,-0.00252934,-0.000199991,0.00224647,0.00116576,-0.00389509,1.02455,0.00306025,0.0138405,1798,1506,15.1728,-13.3985
581,-482,15.1525,13.0754,-0.00125955,0.000224693,0.00110591,0.000814409,-0.00184927,1.08091,0.00157609,0.0103915,1805,1506,15.1525,-13.0755
588,-482,15.1442,12.7567,9.0246e-06,0.000542479,-1.42133e-05,0.000542857,8.64614e-06,-1.54418,0.000359057,0.0112058,1812,1506,15.1442,-12.7567
595,-482,15.1396,12.3738,0.00100607,0.000692238,-0.000734358,0.00160009,9.822e-05,-0.680141,0.00103554,0.0171696,1819,1506,15.1397,-12.3738
602,-482,15.1525,12.0074,0.00166691,0.000710368,-0.00122088,0.00249986,-0.000122581,-0.598714,0.0017089,0.0212238,1826,1506,15.1524,-12.0074
609,-482,15.1334,11.724,0.00213024,0.000642964,-0.00155493,0.00311021,-0.000337005,-0.562352,0.00219445,0.0156918,1833,1506,15.1334,-11.724
616,-482,15.1029,11.3983,0.00264007,0.000513284,-0.00180824,0.00367442,-0.000521064,-0.519592,0.0026405,0.0109055,1840,1506,15.1029,-11.3983
623,-482,15.0999,11.0563,0.00317065,0.000405346,-0.00200549,0.00422392,-0.000647922,-0.483598,0.00305491,0.0114447,1847,1506,15.0998,-11.0563
630,-482,15.1801,10.7587,0.00350019,0.000113825,-0.00196604,0.00440166,-0.000787637,-0.429914,0.00322916,0.0236516,1854,1506,15.1801,-10.7586
637,-482,15.2861,10.5568,0.00376248,-0.000181011,-0.0018088,0.00446646,-0.000884997,-0.371162,0.00331229,0.047546,1861,1506,15.2862,-10.5568
644,-482,15.3683,10.3707,0,0,0,0,0,0,0,-1,1868,1506,15.3683,-10.3708
651,-482,4.03845,7.05273,0,0,0,0,0,0,0,-1,1875,1506,4.03843,-7.05279
658,-482,10.0278,5.87903,0,0,0,0,0,0,0,-1,1882,1506,10.0279,-5.87902
665,-482,8.15198,3.22229,0,0,0,0,0,0,0,-1,1889,1506,8.15199,-3.22232
672,-482,9.87415,1.3147,0,0,0,0,0,0,0,-1,1896,1506,9.87416,-1.31473
679,-482,0,0,0,0,0,0,0,0,0,-1,1903,1506,0,0
686,-482,0,0,0,0,0,0,0,0,0,-1,1910,1506,0,0
693,-482,0,0,0,0,0,0,0,0,0,-1,1917,1506,0,0
700,-482,0,0,0,0,0,0,0,0,0,-1,1924,1506,0,0
707,-482,0,0,0,0,0,0,0,0,0,-1,1931,1506,0,0
714,-482,0,0,0,0,0,0,0,0,0,-1,1938,1506,0,0
721,-482,0,0,0,0,0,0,0,0,0,-1,1945,1506,0,0
728,-482,0,0,0,0,0,0,0,0,0,-1,1952,1506,0,0
735,-482,0,0,0,0,0,0,0,0,0,-1,1959,1506,0,0
742,-482,0,0,0,0,0,0,0,0,0,-1,1966,1506,0,0
749,-482,0,0,0,0,0,0,0,0,0,-1,1973,1506,0,0
756,-482,0,0,0,0,0,0,0,0,0,-1,1980,1506,0,0
763,-482,0,0,0,0,0,0,0,0,0,-1,1987,1506,0,0
770,-482,0,0,0,0,0,0,0,0,0,-1,1994,1506,0,0
777,-482,0,0,0,0,0,0,0,0,0,-1,2001,1506,0,0
784,-482,0,0,0,0,0,0,0,0,0,-1,2008,1506,0,0
791,-482,0,0,0,0,0,0,0,0,0,-1,2015,1506,0,0
798,-482,0,0,0,0,0,0,0,0,0,-1,2022,1506,0,0
805,-482,0,0,0,0,0,0,0,0,0,-1,2029,1506,0,0
812,-482,0,0,0,0,0,0,0,0,0,-1,2036,1506,0,0
-700,-489,0,0,0,0,0,0,0,0,0,-1,524,1513,0,0
-693,-489,0,0,0,0,0,0,0,0,0,-1,531,1513,0,0
-686,-489,0,0,0,0,0,0,0,0,0,-1,538,1513,0,0
-679,-489,0,0,0,0,0,0,0,0,0,-1,545,1513,0,0
-672,-489,0,0,0,0,0,0,0,0,0,-1,552,1513,0,0
-665,-489,0,0,0,0,0,0,0,0,0,-1,559,1513,0,0
-658,-489,0,0,0,0,0,0,0,0,0,-1,566,1513,0,0
-651,-489,0,0,0,0,0,0,0,0,0,-1,573,1513,0,0
-644,-489,0,0,0,0,0,0,0,0,0,-1,580,1513,0,0
-637,-489,0,0,0,0,0,0,0,0,0,-1,587,1513,0,0
-630,-489,0,0,0,0,0,0,0,0,0,-1,594,1513,0,0
-623,-489,0,0,0,0,0,0,0,0,0,-1,601,1513,0,0
-616,-489,0,0,0,0,0,0,0,0,0,-1,608,1513,0,0
-609,-489,0,0,0,0,0,0,0,0,0,-1,615,1513,0,0
-602,-489,0,0,0,0,0,0,0,0,0,-1,622,1513,0,0
-595,-489,0,0,0,0,0,0,0,0,0,-1,629,1513,0,0
-588,-489,0,0,0,0,0,0,0,0,0,-1,636,1513,0,0
-581,-489,0,0,0,0,0,0,0,0,0,-1,643,1513,0,0
-574,-489,0,0,0,0,0,0,0,0,0,-1,650,1513,0,0
-567,-489,0,0,0,0,0,0,0,0,0,-1,657,1513,0,0
-560,-489,0,0,0,0,0,0,0,0,0,-1,664,1513,0,0
-553,-489,-9.42206,8.5116,0,0,0,0,0,0,0,-1,671,1513,-9.42205,-8.51158
-546,-489,-7.80951,8.18506,0,0,0,0,0,0,0,-1,678,1513,-7.8095,-8.18503
-539,-489,-1.65436,3.87146,0,0,0,0,0,0,0,-1,685,1513,-1.65433,-3.87147
-532,-489,-1.6662,5.01526,0,0,0,0,0,0,0,-1,692,1513,-1.66622,-5.01527
-525,-489,-1.73792,6.09827,0,0,0,0,0,0,0,-1,699,1513,-1.73792,-6.09825
-518,-489,-1.77515,7.2085,0,0,0,0,0,0,0,-1,706,1513,-1.77513,-7.20853
-511,-489,-3.76416,8.51294,0,0,0,0,0,0,0,-1,713,1513,-3.76418,-8.51298
-504,-489,-3.53735,8.7937,0.00415037,0.00510292,0.000100733,0.00511345,0.00413983,1.46658,0.00313523,0.0484644,720,1513,-3.53735,-8.79371
-497,-489,-2.8584,8.93127,0.000623036,0.00330414,-0.000925427,0.00359254,0.000334632,-1.26869,0.00229164,0.0420884,727,1513,-2.85839,-8.93123
-490,-489,-2.91742,9.27502,-0.00107502,0.00230371,-0.00114233,0.00265367,-0.00142498,-1.27351,0.00239016,0.027364,734,1513,-2.91741,-9.27508
-483,-489,-3.02802,9.62915,-0.00184829,0.00150082,-0.00093995,0.00174659,-0.00209406,-1.31505,0.00222042,0.0133861,741,1513,-3.028,-9.62914
-476,-489,-3.03497,10.0225,-0.00214915,0.000908133,-0.000828625,0.00111827,-0.00235929,-1.32243,0.00204995,0.0100132,748,1513,-3.03498,-10.0224
-469,-489,-3.04474,10.3877,-0.002015,0.000182311,-0.000812486,0.000450102,-0.00228279,-1.25241,0.00169197,0.0109421,755,1513,-3.04475,-10.3877
-462,-489,-3.05731,10.7748,-0.0014049,-0.00034071,-0.000610494,-6.29732e-05,-0.00168263,-1.14384,0.00110137,0.0162755,762,1513,-3.0573,-10.7748
-455,-489,-3.07794,11.1495,-0.000595328,-0.000948098,-0.000465667,-0.00027376,-0.00126967,-0.604358,0.000771553,0.0196358,769,1513,-3.07796,-11.1496
-448,-489,-3.07953,11.506,0.000139463,-0.00138281,-0.000347644,0.000215097,-0.00145844,-0.214224,0.00105135,0.0171362,776,1513,-3.07954,-11.5059
-441,-489,-3.07794,11.885,0.00133638,-0.00198245,-0.0001172,0.00134051,-0.00198658,-0.0352552,0.00193293,0.0151027,783,1513,-3.07796,-11.885
-434,-489,-3.12061,12.2545,0.00268255,-0.00229688,0.000141926,0.00268659,-0.00230093,0.0284717,0.00288241,0.018068,790,1513,-3.12058,-12.2545
-427,-489,-3.14252,12.6266,0.00391582,-0.00247224,0.000434464,0.00394523,-0.00250165,0.067597,0.00375309,0.018891,797,1513,-3.14251,-12.6265
-420,-489,-3.15613,13.0873,0.00518483,-0.00246605,0.000985832,0.00530981,-0.00259103,0.126108,0.00465071,0.0198952,804,1513,-3.1561,-13.0873
-413,-489,-2.77576,13.3955,0.00668907,-0.00218034,0.00192071,0.00708715,-0.00257841,0.20436,0.00577925,0.0434896,811,1513,-2.77575,-13.3955
-406,-489,-2.61023,13.9991,0,0,0,0,0,0,0,-1,818,1513,-2.61022,-13.9991
-399,-489,-1.41241,9.10718,0,0,0,0,0,0,0,-1,825,1513,-1.41244,-9.10722
-392,-489,-1.0368,9.30469,0,0,0,0,0,0,0,-1,832,1513,-1.03682,-9.30466
-385,-489,-1.75165,10.6559,0,0,0,0,0,0,0,-1,839,1513,-1.75165,-10.6559
-378,-489,-0.401428,9.87048,0,0,0,0,0,0,0,-1,846,1513,-0.401415,-9.87047
-371,-489,-1.11633,10.6606,0,0,0,0,0,0,0,-1,853,1513,-1.11633,-10.6606
-364,-489,-0.503113,8.98486,0,0,0,0,0,0,0,-1,860,1513,-0.503097,-8.98482
-357,-489,-0.609924,10.9606,0,0,0,0,0,0,0,-1,867,1513,-0.609947,-10.9605
-350,-489,-7.94659,-0.358887,0,0,0,0,0,0,0,-1,874,1513,-7.94657,0.358912
-343,-489,-7.49323,-0.437866,0,0,0,0,0,0,0,-1,881,1513,-7.49322,0.437823
-336,-489,-7.02332,-0.53125,0,0,0,0,0,0,0,-1,888,1513,-7.0233,0.531295
-329,-489,-6.70221,-0.242432,0,0,0,0,0,0,0,-1,895,1513,-6.70221,0.2424
-322,-489,0,0,0,0,0,0,0,0,0,-1,902,1513,0,0
-315,-489,0,0,0,0,0,0,0,0,0,-1,909,1513,0,0
-308,-489,0,0,0,0,0,0,0,0,0,-1,916,1513,0,0
-301,-489,0,0,0,0,0,0,0,0,0,-1,923,1513,0,0
-294,-489,0,0,0,0,0,0,0,0,0,-1,930,1513,0,0
-287,-489,0,0,0,0,0,0,0,0,0,-1,937,1513,0,0
-280,-489,0,0,0,0,0,0,0,0,0,-1,944,1513,0,0
-273,-489,0,0,0,0,0,0,0,0,0,-1,951,1513,0,0
-266,-489,0,0,0,0,0,0,0,0,0,-1,958,1513,0,0
-259,-489,0,0,0,0,0,0,0,0,0,-1,965,1513,0,0
-252,-489,0,0,0,0,0,0,0,0,0,-1,972,1513,0,0
-245,-489,0,0,0,0,0,0,0,0,0,-1,979,1513,0,0
-238,-489,0,0,0,0,0,0,0,0,0,-1,986,1513,0,0
-231,-489,0,0,0,0,0,0,0,0,0,-1,993,1513,0,0
-224,-489,0,0,0,0,0,0,0,0,0,-1,1000,1513,0,0
-217,-489,0,0,0,0,0,0,0,0,0,-1,1007,1513,0,0
-210,-489,0,0,0,0,0,0,0,0,0,-1,1014,1513,0,0
-203,-489,0,0,0,0,0,0,0,0,0,-1,1021,1513,0,0
-196,-489,0,0,0,0,0,0,0,0,0,-1,1028,1513,0,0
-189,-489,0,0,0,0,0,0,0,0,0,-1,1035,1513,0,0
-182,-489,0,0,0,0,0,0,0,0,0,-1,1042,1513,0,0
-175,-489,0,0,0,0,0,0,0,0,0,-1,1049,1513,0,0
-168,-489,0,0,0,0,0,0,0,0,0,-1,1056,1513,0,0
-161,-489,0,0,0,0,0,0,0,0,0,-1,1063,1513,0,0
-154,-489,0,0,0,0,0,0,0,0,0,-1,1070,1513,0,0
-147,-489,0,0,0,0,0,0,0,0,0,-1,1077,1513,0,0
-140,-489,0,0,0,0,0,0,0,0,0,-1,1084,1513,0,0
-133,-489,0,0,0,0,0,0,0,0,0,-1,1091,1513,0,0
-126,-489,0,0,0,0,0,0,0,0,0,-1,1098,1513,0,0
-119,-489,0,0,0,0,0,0,0,0,0,-1,1105,1513,0,0
-112,-489,0,0,0,0,0,0,0,0,0,-1,1112,1513,0,0
-105,-489,0,0,0,0,0,0,0,0,0,-1,1119,1513,0,0
-98,-489,0,0,0,0,0,0,0,0,0,-1,1126,1513,0,0
-91,-489,0,0,0,0,0,0,0,0,0,-1,1133,1513,0,0
-84,-489,0,0,0,0,0,0,0,0,0,-1,1140,1513,0,0
-77,-489,0,0,0,0,0,0,0,0,0,-1,1147,1513,0,0
-70,-489,0,0,0,0,0,0,0,0,0,-1,1154,1513,0,0
-63,-489,0,0,0,0,0,0,0,0,0,-1,1161,1513,0,0
-56,-489,0,0,0,0,0,0,0,0,0,-1,1168,1513,0,0
-49,-489,0,0,0,0,0,0,0,0,0,-1,1175,1513,0,0
-42,-489,0,0,0,0,0,0,0,0,0,-1,1182,1513,0,0
-35,-489,0,0,0,0,0,0,0,0,0,-1,1189,1513,0,0
-28,-489,0,0,0,0,0,0,0,0,0,-1,1196,1513,0,0
-21,-489,0,0,0,0,0,0,0,0,0,-1,1203,1513,0,0
-14,-489,0,0,0,0,0,0,0,0,0,-1,1210,1513,0,0
-7,-489,0,0,0,0,0,0,0,0,0,-1,1217,1513,0,0
0,-489,0,0,0,0,0,0,0,0,0,-1,1224,1513,0,0
7,-489,0,0,0,0,0,0,0,0,0,-1,1231,1513,0,0
14,-489,0,0,0,0,0,0,0,0,0,-1,1238,1513,0,0
21,-489,0,0,0,0,0,0,0,0,0,-1,1245,1513,0,0
28,-489,0,0,0,0,0,0,0,0,0,-1,1252,1513,0,0
35,-489,0,0,0,0,0,0,0,0,0,-1,1259,1513,0,0
42,-489,0,0,0,0,0,0,0,0,0,-1,1266,1513,0,0
49,-489,0,0,0,0,0,0,0,0,0,-1,1273,1513,0,0
56,-489,0,0,0,0,0,0,0,0,0,-1,1280,1513,0,0
63,-489,0,0,0,0,0,0,0,0,0,-1,1287,1513,0,0
70,-489,0,0,0,0,0,0,0,0,0,-1,1294,1513,0,0
77,-489,0,0,0,0,0,0,0,0,0,-1,1301,1513,0,0
84,-489,0,0,0,0,0,0,0,0,0,-1,1308,1513,0,0
91,-489,0,0,0,0,0,0,0,0,0,-1,1315,1513,0,0
98,-489,0,0,0,0,0,0,0,0,0,-1,1322,1513,0,0
105,-489,0,0,0,0,0,0,0,0,0,-1,1329,1513,0,0
112,-489,0,0,0,0,0,0,0,0,0,-1,1336,1513,0,0
119,-489,0,0,0,0,0,0,0,0,0,-1,1343,1513,0,0
126,-489,0,0,0,0,0,0,0,0,0,-1,1350,1513,0,0
133,-489,0,0,0,0,0,0,0,0,0,-1,1357,1513,0,0
140,-489,0,0,0,0,0,0,0,0,0,-1,1364,1513,0,0
147,-489,0,0,0,0,0,0,0,0,0,-1,1371,1513,0,0
154,-489,0,0,0,0,0,0,0,0,0,-1,1378,1513,0,0
161,-489,0,0,0,0,0,0,0,0,0,-1,1385,1513,0,0
168,-489,0,0,0,0,0,0,0,0,0,-1,1392,1513,0,0
175,-489,0,0,0,0,0,0,0,0,0,-1,1399,1513,0,0
182,-489,0,0,0,0,0,0,0,0,0,-1,1406,1513,0,0
189,-489,0,0,0,0,0,0,0,0,0,-1,1413,1513,0,0
196,-489,0,0,0,0,0,0,0,0,0,-1,1420,1513,0,0
203,-489,0,0,0,0,0,0,0,0,0,-1,1427,1513,0,0
210,-489,0,0,0,0,0,0,0,0,0,-1,1434,1513,0,0
217,-489,0,0,0,0,0,0,0,0,0,-1,1441,1513,0,0
224,-489,0,0,0,0,0,0,0,0,0,-1,1448,1513,0,0
231,-489,0,0,0,0,0,0,0,0,0,-1,1455,1513,0,0
238,-489,0,0,0,0,0,0,0,0,0,-1,1462,1513,0,0
245,-489,0,0,0,0,0,0,0,0,0,-1,1469,1513,0,0
252,-489,0,0,0,0,0,0,0,0,0,-1,1476,1513,0,0
259,-489,0,0,0,0,0,0,0,0,0,-1,1483,1513,0,0
266,-489,0,0,0,0,0,0,0,0,0,-1,1490,1513,0,0
273,-489,0,0,0,0,0,0,0,0,0,-1,1497,1513,0,0
280,-489,0,0,0,0,0,0,0,0,0,-1,1504,1513,0,0
287,-489,0,0,0,0,0,0,0,0,0,-1,1511,1513,0,0
294,-489,0,0,0,0,0,0,0,0,0,-1,1518,1513,0,0
301,-489,0,0,0,0,0,0,0,0,0,-1,1525,1513,0,0
308,-489,0,0,0,0,0,0,0,0,0,-1,1532,1513,0,0
315,-489,0,0,0,0,0,0,0,0,0,-1,1539,1513,0,0
322,-489,0,0,0,0,0,0,0,0,0,-1,1546,1513,0,0
329,-489,0,0,0,0,0,0,0,0,0,-1,1553,1513,0,0
336,-489,0,0,0,0,0,0,0,0,0,-1,1560,1513,0,0
343,-489,0,0,0,0,0,0,0,0,0,-1,1567,1513,0,0
350,-489,0,0,0,0,0,0,0,0,0,-1,1574,1513,0,0
357,-489,0,0,0,0,0,0,0,0,0,-1,1581,1513,0,0
364,-489,0,0,0,0,0,0,0,0,0,-1,1588,1513,0,0
371,-489,0,0,0,0,0,0,0,0,0,-1,1595,1513,0,0
378,-489,0,0,0,0,0,0,0,0,0,-1,1602,1513,0,0
385,-489,0,0,0,0,0,0,0,0,0,-1,1609,1513,0,0
392,-489,0,0,0,0,0,0,0,0,0,-1,1616,1513,0,0
399,-489,0,0,0,0,0,0,0,0,0,-1,1623,1513,0,0
406,-489,0,0,0,0,0,0,0,0,0,-1,1630,1513,0,0
413,-489,0,0,0,0,0,0,0,0,0,-1,1637,1513,0,0
420,-489,0,0,0,0,0,0,0,0,0,-1,1644,1513,0,0
427,-489,0,0,0,0,0,0,0,0,0,-1,1651,1513,0,0
434,-489,0,0,0,0,0,0,0,0,0,-1,1658,1513,0,0
441,-489,11.4602,2.56787,0,0,0,0,0,0,0,-1,1665,1513,11.4602,-2.56786
448,-489,12.4425,1.72351,0,0,0,0,0,0,0,-1,1672,1513,12.4425,-1.72349
455,-489,12.5575,1.37463,0,0,0,0,0,0,0,-1,1679,1513,12.5575,-1.37469
462,-489,14.9784,3.84888,0,0,0,0,0,0,0,-1,1686,1513,14.9784,-3.84892
469,-489,15.1367,4.53101,0,0,0,0,0,0,0,-1,1693,1513,15.1368,-4.531
476,-489,15.5536,5.09338,0,0,0,0,0,0,0,-1,1700,1513,15.5536,-5.09339
483,-489,8.96912,8.37805,0,0,0,0,0,0,0,-1,1707,1513,8.96909,-8.37809
490,-489,10.5366,7.49561,0,0,0,0,0,0,0,-1,1714,1513,10.5367,-7.49558
497,-489,14.6051,11.8397,0,0,0,0,0,0,0,-1,1721,1513,14.6051,-11.8397
504,-489,16.7527,14.1735,0,0,0,0,0,0,0,-1,1728,1513,16.7527,-14.1735
511,-489,16.9827,16.6233,0,0,0,0,0,0,0,-1,1735,1513,16.9827,-16.6233
518,-489,16.4751,14.3682,0,0,0,0,0,0,0,-1,1742,1513,16.4751,-14.3682
525,-489,15.3163,15.257,0,0,0,0,0,0,0,-1,1749,1513,15.3163,-15.2569
532,-489,15.1947,15.046,-0.0146788,-0.00612875,0.0157235,0.00589057,-0.0266981,0.918133,0.0200528,0.0414863,1756,1513,15.1947,-15.046
539,-489,14.9089,15.0363,-0.0113716,-0.00437825,0.0118043,0.0044364,-0.0201863,0.929392,0.0151544,0.0195692,1763,1513,14.909,-15.0363
546,-489,14.8207,14.8082,-0.00868349,-0.0030851,0.00881683,0.00336622,-0.0151348,0.939107,0.0113791,0.0128321,1770,1513,14.8206,-14.8082
553,-489,14.8103,14.4525,-0.00631359,-0.00203611,0.00618787,0.0023722,-0.0107219,0.951788,0.00805594,0.0150783,1777,1513,14.8103,-14.4525
560,-489,14.8246,14.0885,-0.00435494,-0.00117475,0.00425698,0.00177941,-0.0073091,0.964137,0.00556158,0.0135501,1784,1513,14.8246,-14.0885
567,-489,14.8373,13.7537,-0.00279774,-0.000665361,0.00281028,0.00127418,-0.00473728,0.966704,0.00365766,0.0146859,1791,1513,14.8373,-13.7536
574,-489,14.8107,13.446,-0.00150498,-0.000185078,0.00156792,0.000856117,-0.00254617,0.984598,0.0020435,0.0144681,1798,1513,14.8107,-13.446
581,-489,14.8163,13.1202,-0.000408948,0.000228397,0.000551485,0.000546661,-0.000727211,1.04738,0.000737929,0.0108218,1805,1513,14.8163,-13.1202
588,-489,14.814,12.7798,0.0006953,0.000518466,-0.000457248,0.0010726,0.000141165,-0.689893,0.000672966,0.0139642,1812,1513,14.8139,-12.7798
595,-489,14.8093,12.3977,0.00159762,0.000680836,-0.00115065,0.00237782,-9.93625e-05,-0.595844,0.00161935,0.0206935,1819,1513,14.8093,-12.3978
602,-489,14.8214,12.0186,0.00224637,0.000761704,-0.00170383,0.00336256,-0.000354486,-0.579956,0.00236872,0.0253755,1826,1513,14.8214,-12.0185
609,-489,14.7974,11.743,0.00275521,0.00080165,-0.00217542,0.00416308,-0.000606217,-0.574384,0.00299796,0.0167203,1833,1513,14.7974,-11.743
616,-489,14.791,11.3932,0.00337826,0.000810084,-0.00266261,0.00505025,-0.0008619,-0.560718,0.00368786,0.0117762,1840,1513,14.791,-11.3932
623,-489,14.7825,11.0283,0.00409258,0.000913998,-0.00314607,0.006028,-0.00102142,-0.551512,0.00439885,0.0194752,1847,1513,14.7824,-11.0284
630,-489,14.7896,10.6484,0.00463966,0.000829458,-0.00345306,0.0066783,-0.00120918,-0.533319,0.00490519,0.0452268,1854,1513,14.7895,-10.6484
637,-489,15.0513,10.6504,0,0,0,0,0,0,0,-1,1861,1513,15.0513,-10.6504
644,-489,9.67578,8.45874,0,0,0,0,0,0,0,-1,1868,1513,9.67576,-8.45879
651,-489,6.13818,6.85095,0,0,0,0,0,0,0,-1,1875,1513,6.13823,-6.85097
658,-489,5.43848,7.75513,0,0,0,0,0,0,0,-1,1882,1513,5.43844,-7.75509
665,-489,5.48438,8.59912,0,0,0,0,0,0,0,-1,1889,1513,5.48434,-8.59907
672,-489,0,0,0,0,0,0,0,0,0,-1,1896,1513,0,0
679,-489,0,0,0,0,0,0,0,0,0,-1,1903,1513,0,0
686,-489,0,0,0,0,0,0,0,0,0,-1,1910,1513,0,0
693,-489,0,0,0,0,0,0,0,0,0,-1,1917,1513,0,0
700,-489,0,0,0,0,0,0,0,0,0,-1,1924,1513,0,0
707,-489,0,0,0,0,0,0,0,0,0,-1,1931,1513,0,0
714,-489,0,0,0,0,0,0,0,0,0,-1,1938,1513,0,0
721,-489,0,0,0,0,0,0,0,0,0,-1,1945,1513,0,0
728,-489,0,0,0,0,0,0,0,0,0,-1,1952,1513,0,0
735,-489,0,0,0,0,0,0,0,0,0,-1,1959,1513,0,0
742,-489,0,0,0,0,0,0,0,0,0,-1,1966,1513,0,0
749,-489,0,0,0,0,0,0,0,0,0,-1,1973,1513,0,0
756,-489,0,0,0,0,0,0,0,0,0,-1,1980,1513,0,0
763,-489,0,0,0,0,0,0,0,0,0,-1,1987,1513,0,0
770,-489,0,0,0,0,0,0,0,0,0,-1,1994,1513,0,0
777,-489,0,0,0,0,0,0,0,0,0,-1,2001,1513,0,0
784,-489,0,0,0,0,0,0,0,0,0,-1,2008,1513,0,0
791,-489,0,0,0,0,0,0,0,0,0,-1,2015,1513,0,0
798,-489,0,0,0,0,0,0,0,0,0,-1,2022,1513,0,0
805,-489,0,0,0,0,0,0,0,0,0,-1,2029,1513,0,0
812,-489,0,0,0,0,0,0,0,0,0,-1,2036,1513,0,0
-700,-496,0,0,0,0,0,0,0,0,0,-1,524,1520,0,0
-693,-496,0,0,0,0,0,0,0,0,0,-1,531,1520,0,0
-686,-496,0,0,0,0,0,0,0,0,0,-1,538,1520,0,0
-679,-496,0,0,0,0,0,0,0,0,0,-1,545,1520,0,0
-672,-496,0,0,0,0,0,0,0,0,0,-1,552,1520,0,0
-665,-496,0,0,0,0,0,0,0,0,0,-1,559,1520,0,0
-658,-496,0,0,0,0,0,0,0,0,0,-1,566,1520,0,0
-651,-496,0,0,0,0,0,0,0,0,0,-1,573,1520,0,0
-644,-496,0,0,0,0,0,0,0,0,0,-1,580,1520,0,0
-637,-496,0,0,0,0,0,0,0,0,0,-1,587,1520,0,0
-630,-496,0,0,0,0,0,0,0,0,0,-1,594,1520,0,0
-623,-496,0,0,0,0,0,0,0,0,0,-1,601,1520,0,0
-616,-496,0,0,0,0,0,0,0,0,0,-1,608,1520,0,0
-609,-496,0,0,0,0,0,0,0,0,0,-1,615,1520,0,0
-602,-496,0,0,0,0,0,0,0,0,0,-1,622,1520,0,0
-595,-496,0,0,0,0,0,0,0,0,0,-1,629,1520,0,0
-588,-496,0,0,0,0,0,0,0,0,0,-1,636,1520,0,0
-581,-496,0,0,0,0,0,0,0,0,0,-1,643,1520,0,0
-574,-496,0,0,0,0,0,0,0,0,0,-1,650,1520,0,0
-567,-496,0,0,0,0,0,0,0,0,0,-1,657,1520,0,0
-560,-496,0,0,0,0,0,0,0,0,0,-1,664,1520,0,0
-553,-496,0,0,0,0,0,0,0,0,0,-1,671,1520,0,0
-546,-496,-8.09711,7.94836,0,0,0,0,0,0,0,-1,678,1520,-8.09712,-7.94842
-539,-496,-4.26093,4.82874,0,0,0,0,0,0,0,-1,685,1520,-4.26095,-4.82876
-532,-496,-1.13727,4.18726,0,0,0,0,0,0,0,-1,692,1520,-1.13727,-4.18729
-525,-496,-1.54633,5.07117,0,0,0,0,0,0,0,-1,699,1520,-1.54633,-5.07113
-518,-496,-1.87695,6.16077,0,0,0,0,0,0,0,-1,706,1520,-1.87693,-6.16081
-511,-496,-2.01764,7.34973,0,0,0,0,0,0,0,-1,713,1520,-2.01764,-7.34972
-504,-496,-3.39886,8.7959,0,0,0,0,0,0,0,-1,720,1520,-3.39887,-8.79589
-497,-496,-2.17474,8.54041,-0.000548216,0.00451021,-0.00154722,0.00494593,-0.000983933,-1.29629,0.0036695,0.0464775,727,1520,-2.17473,-8.54035
-490,-496,-2.4256,9.3855,-0.00247712,0.00313511,-0.00153722,0.00352858,-0.00287059,-1.32022,0.00370107,0.0393817,734,1520,-2.42557,-9.38548
-483,-496,-2.62469,9.73413,-0.00308444,0.00216944,-0.00115725,0.00241305,-0.00332804,-1.36332,0.00332862,0.0226424,741,1520,-2.62468,-9.7341
-476,-496,-2.69379,10.0393,-0.0030242,0.00156707,-0.000860523,0.00172306,-0.00318019,-1.39148,0.00287226,0.0119826,748,1520,-2.69376,-10.0393
-469,-496,-2.6944,10.4121,-0.002535,0.00090796,-0.000717054,0.00105133,-0.00267837,-1.37346,0.00222059,0.0105856,755,1520,-2.69439,-10.4121
-462,-496,-2.70947,10.7859,-0.00161064,0.000427685,-0.000447738,0.000521699,-0.00170465,-1.36383,0.00134451,0.0161475,762,1520,-2.70945,-10.7859
-455,-496,-2.74237,11.1563,-0.00051896,-7.53258e-05,-0.000225862,1.94271e-05,-0.000613713,-1.17358,0.000415769,0.0208897,769,1520,-2.74237,-11.1563
-448,-496,-2.72388,11.5369,0.000372947,-0.000376135,-2.89466e-05,0.000374064,-0.000377252,-0.038566,0.000433774,0.0185422,776,1520,-2.72388,-11.5368
-441,-496,-2.69421,11.9135,0.00168467,-0.000840817,0.000301947,0.00172027,-0.000876416,0.117356,0.00152536,0.0139631,783,1520,-2.6942,-11.9135
-434,-496,-2.74219,12.2688,0.00312613,-0.000917888,0.000700768,0.00324412,-0.00103588,0.166808,0.00257836,0.013043,790,1520,-2.74222,-12.2689
-427,-496,-2.7713,12.6346,0.00440225,-0.000851295,0.00115203,0.00464377,-0.00109282,0.206656,0.00351717,0.0167671,797,1520,-2.77129,-12.6347
-420,-496,-2.75134,13.0057,0.00561436,-0.000604388,0.00181595,0.00610581,-0.00109583,0.264294,0.00448071,0.0173891,804,1520,-2.75134,-13.0057
-413,-496,-2.67841,13.4036,0.00697273,-7.11092e-05,0.00282901,0.00796824,-0.00106663,0.338363,0.00570106,0.0225969,811,1520,-2.67842,-13.4036
-406,-496,-2.52136,13.9487,0,0,0,0,0,0,0,-1,818,1520,-2.52136,-13.9487
-399,-496,-2.31921,14.5232,0,0,0,0,0,0,0,-1,825,1520,-2.31924,-14.5232
-392,-496,-1.49786,12.387,0,0,0,0,0,0,0,-1,832,1520,-1.49788,-12.387
-385,-496,-1.72437,11.4985,0,0,0,0,0,0,0,-1,839,1520,-1.72436,-11.4985
-378,-496,-1.45532,14.0719,0,0,0,0,0,0,0,-1,846,1520,-1.45533,-14.0719
-371,-496,0.0877075,12.5299,0,0,0,0,0,0,0,-1,853,1520,0.0876896,-12.5299
-364,-496,0.0881348,10.6422,0,0,0,0,0,0,0,-1,860,1520,0.0881368,-10.6423
-357,-496,0.323792,7.56812,0,0,0,0,0,0,0,-1,867,1520,0.323782,-7.56806
-350,-496,2.1535,7.18945,0,0,0,0,0,0,0,-1,874,1520,2.15348,-7.1894
-343,-496,-7.56244,0.335327,0,0,0,0,0,0,0,-1,881,1520,-7.56242,-0.335322
-336,-496,-3.99249,6.02222,0,0,0,0,0,0,0,-1,888,1520,-3.99246,-6.0222
-329,-496,-6.93689,-0.100342,0,0,0,0,0,0,0,-1,895,1520,-6.93686,0.1003
-322,-496,-6.17505,0.494385,0,0,0,0,0,0,0,-1,902,1520,-6.17507,-0.49437
-315,-496,-4.31854,3.10205,0,0,0,0,0,0,0,-1,909,1520,-4.31852,-3.10209
-308,-496,0,0,0,0,0,0,0,0,0,-1,916,1520,0,0
-301,-496,0,0,0,0,0,0,0,0,0,-1,923,1520,0,0
-294,-496,0,0,0,0,0,0,0,0,0,-1,930,1520,0,0
-287,-496,0,0,0,0,0,0,0,0,0,-1,937,1520,0,0
-280,-496,0,0,0,0,0,0,0,0,0,-1,944,1520,0,0
-273,-496,0,0,0,0,0,0,0,0,0,-1,951,1520,0,0
-266,-496,0,0,0,0,0,0,0,0,0,-1,958,1520,0,0
-259,-496,0,0,0,0,0,0,0,0,0,-1,965,1520,0,0
-252,-496,0,0,0,0,0,0,0,0,0,-1,972,1520,0,0
-245,-496,0,0,0,0,0,0,0,0,0,-1,979,1520,0,0
-238,-496,0,0,0,0,0,0,0,0,0,-1,986,1520,0,0
-231,-496,0,0,0,0,0,0,0,0,0,-1,993,1520,0,0
-224,-496,0,0,0,0,0,0,0,0,0,-1,1000,1520,0,0
-217,-496,0,0,0,0,0,0,0,0,0,-1,1007,1520,0,0
-210,-496,0,0,0,0,0,0,0,0,0,-1,1014,1520,0,0
-203,-496,0,0,0,0,0,0,0,0,0,-1,1021,1520,0,0
-196,-496,0,0,0,0,0,0,0,0,0,-1,1028,1520,0,0
-189,-496,0,0,0,0,0,0,0,0,0,-1,1035,1520,0,0
-182,-496,0,0,0,0,0,0,0,0,0,-1,1042,1520,0,0
-175,-496,0,0,0,0,0,0,0,0,0,-1,1049,1520,0,0
-168,-496,0,0,0,0,0,0,0,0,0,-1,1056,1520,0,0
-161,-496,0,0,0,0,0,0,0,0,0,-1,1063,1520,0,0
-154,-496,0,0,0,0,0,0,0,0,0,-1,1070,1520,0,0
-147,-496,0,0,0,0,0,0,0,0,0,-1,1077,1520,0,0
-140,-496,0,0,0,0,0,0,0,0,0,-1,1084,1520,0,0
-133,-496,0,0,0,0,0,0,0,0,0,-1,1091,1520,0,0
-126,-496,0,0,0,0,0,0,0,0,0,-1,1098,1520,0,0
-119,-496,0,0,0,0,0,0,0,0,0,-1,1105,1520,0,0
-112,-496,0,0,0,0,0,0,0,0,0,-1,1112,1520,0,0
-105,-496,0,0,0,0,0,0,0,0,0,-1,1119,1520,0,0
-98,-496,0,0,0,0,0,0,0,0,0,-1,1126,1520,0,0
-91,-496,0,0,0,0,0,0,0,0,0,-1,1133,1520,0,0
-84,-496,0,0,0,0,0,0,0,0,0,-1,1140,1520,0,0
-77,-496,0,0,0,0,0,0,0,0,0,-1,1147,1520,0,0
-70,-496,0,0,0,0,0,0,0,0,0,-1,1154,1520,0,0
-63,-496,0,0,0,0,0,0,0,0,0,-1,1161,1520,0,0
-56,-496,0,0,0,0,0,0,0,0,0,-1,1168,1520,0,0
-49,-496,0,0,0,0,0,0,0,0,0,-1,1175,1520,0,0
-42,-496,0,0,0,0,0,0,0,0,0,-1,1182,1520,0,0
-35,-496,0,0,0,0,0,0,0,0,0,-1,1189,1520,0,0
-28,-496,0,0,0,0,0,0,0,0,0,-1,1196,1520,0,0
-21,-496,0,0,0,0,0,0,0,0,0,-1,1203,1520,0,0
-14,-496,0,0,0,0,0,0,0,0,0,-1,1210,1520,0,0
-7,-496,0,0,0,0,0,0,0,0,0,-1,1217,1520,0,0
0,-496,0,0,0,0,0,0,0,0,0,-1,1224,1520,0,0
7,-496,0,0,0,0,0,0,0,0,0,-1,1231,1520,0,0
14,-496,0,0,0,0,0,0,0,0,0,-1,1238,1520,0,0
21,-496,0,0,0,0,0,0,0,0,0,-1,1245,1520,0,0
28,-496,0,0,0,0,0,0,0,0,0,-1,1252,1520,0,0
35,-496,0,0,0,0,0,0,0,0,0,-1,1259,1520,0,0
42,-496,0,0,0,0,0,0,0,0,0,-1,1266,1520,0,0
49,-496,0,0,0,0,0,0,0,0,0,-1,1273,1520,0,0
56,-496,0,0,0,0,0,0,0,0,0,-1,1280,1520,0,0
63,-496,0,0,0,0,0,0,0,0,0,-1,1287,1520,0,0
70,-496,0,0,0,0,0,0,0,0,0,-1,1294,1520,0,0
77,-496,0,0,0,0,0,0,0,0,0,-1,1301,1520,0,0
84,-496,0,0,0,0,0,0,0,0,0,-1,1308,1520,0,0
91,-496,0,0,0,0,0,0,0,0,0,-1,1315,1520,0,0
98,-496,0,0,0,0,0,0,0,0,0,-1,1322,1520,0,0
105,-496,0,0,0,0,0,0,0,0,0,-1,1329,1520,0,0
112,-496,0,0,0,0,0,0,0,0,0,-1,1336,1520,0,0
119,-496,0,0,0,0,0,0,0,0,0,-1,1343,1520,0,0
126,-496,0,0,0,0,0,0,0,0,0,-1,1350,1520,0,0
133,-496,0,0,0,0,0,0,0,0,0,-1,1357,1520,0,0
140,-496,0,0,0,0,0,0,0,0,0,-1,1364,1520,0,0
147,-496,0,0,0,0,0,0,0,0,0,-1,1371,1520,0,0
154,-496,0,0,0,0,0,0,0,0,0,-1,1378,1520,0,0
161,-496,0,0,0,0,0,0,0,0,0,-1,1385,1520,0,0
168,-496,0,0,0,0,0,0,0,0,0,-1,1392,1520,0,0
175,-496,0,0,0,0,0,0,0,0,0,-1,1399,1520,0,0
182,-496,0,0,0,0,0,0,0,0,0,-1,1406,1520,0,0
189,-496,0,0,0,0,0,0,0,0,0,-1,1413,1520,0,0
196,-496,0,0,0,0,0,0,0,0,0,-1,1420,1520,0,0
203,-496,0,0,0,0,0,0,0,0,0,-1,1427,1520,0,0
210,-496,0,0,0,0,0,0,0,0,0,-1,1434,1520,0,0
217,-496,0,0,0,0,0,0,0,0,0,-1,1441,1520,0,0
224,-496,0,0,0,0,0,0,0,0,0,-1,1448,1520,0,0
231,-496,0,0,0,0,0,0,0,0,0,-1,1455,1520,0,0
238,-496,0,0,0,0,0,0,0,0,0,-1,1462,1520,0,0
245,-496,0,0,0,0,0,0,0,0,0,-1,1469,1520,0,0
252,-496,0,0,0,0,0,0,0,0,0,-1,1476,1520,0,0
259,-496,0,0,0,0,0,0,0,0,0,-1,1483,1520,0,0
266,-496,0,0,0,0,0,0,0,0,0,-1,1490,1520,0,0
273,-496,0,0,0,0,0,0,0,0,0,-1,1497,1520,0,0
280,-496,0,0,0,0,0,0,0,0,0,-1,1504,1520,0,0
287,-496,0,0,0,0,0,0,0,0,0,-1,1511,1520,0,0
294,-496,0,0,0,0,0,0,0,0,0,-1,1518,1520,0,0
301,-496,0,0,0,0,0,0,0,0,0,-1,1525,1520,0,0
308,-496,0,0,0,0,0,0,0,0,0,-1,1532,1520,0,0
315,-496,0,0,0,0,0,0,0,0,0,-1,1539,1520,0,0
322,-496,0,0,0,0,0,0,0,0,0,-1,1546,1520,0,0
329,-496,0,0,0,0,0,0,0,0,0,-1,1553,1520,0,0
336,-496,0,0,0,0,0,0,0,0,0,-1,1560,1520,0,0
343,-496,0,0,0,0,0,0,0,0,0,-1,1567,1520,0,0
350,-496,0,0,0,0,0,0,0,0,0,-1,1574,1520,0,0
357,-496,0,0,0,0,0,0,0,0,0,-1,1581,1520,0,0
364,-496,0,0,0,0,0,0,0,0,0,-1,1588,1520,0,0
371,-496,0,0,0,0,0,0,0,0,0,-1,1595,1520,0,0
378,-496,0,0,0,0,0,0,0,0,0,-1,1602,1520,0,0
385,-496,0,0,0,0,0,0,0,0,0,-1,1609,1520,0,0
392,-496,0,0,0,0,0,0,0,0,0,-1,1616,1520,0,0
399,-496,0,0,0,0,0,0,0,0,0,-1,1623,1520,0,0
406,-496,0,0,0,0,0,0,0,0,0,-1,1630,1520,0,0
413,-496,0,0,0,0,0,0,0,0,0,-1,1637,1520,0,0
420,-496,0,0,0,0,0,0,0,0,0,-1,1644,1520,0,0
427,-496,0,0,0,0,0,0,0,0,0,-1,1651,1520,0,0
434,-496,11.0457,3.37732,0,0,0,0,0,0,0,-1,1658,1520,11.0456,-3.37736
441,-496,11.788,2.75488,0,0,0,0,0,0,0,-1,1665,1520,11.7879,-2.75485
448,-496,12.2146,2.18494,0,0,0,0,0,0,0,-1,1672,1520,12.2146,-2.18489
455,-496,12.3489,1.65173,0,0,0,0,0,0,0,-1,1679,1520,12.3489,-1.65178
462,-496,12.1912,1.32361,0,0,0,0,0,0,0,-1,1686,1520,12.1911,-1.32357
469,-496,14.8138,5.77954,0,0,0,0,0,0,0,-1,1693,1520,14.8138,-5.77958
476,-496,15.2449,6.27942,0,0,0,0,0,0,0,-1,1700,1520,15.2449,-6.27936
483,-496,9.19812,6.88367,0,0,0,0,0,0,0,-1,1707,1520,9.19812,-6.88361
490,-496,10.2123,7.97144,0,0,0,0,0,0,0,-1,1714,1520,10.2122,-7.97145
497,-496,13.9297,12.2981,0,0,0,0,0,0,0,-1,1721,1520,13.9297,-12.2982
504,-496,17.1724,16.4556,0,0,0,0,0,0,0,-1,1728,1520,17.1724,-16.4556
511,-496,16.2574,16.6536,0,0,0,0,0,0,0,-1,1735,1520,16.2575,-16.6536
518,-496,15.7047,15.7339,0,0,0,0,0,0,0,-1,1742,1520,15.7047,-15.7339
525,-496,14.2896,15.6134,0,0,0,0,0,0,0,-1,1749,1520,14.2895,-15.6133
532,-496,14.511,15.3773,-0.0105148,-0.00469846,0.0121231,0.00486043,-0.0200737,0.903117,0.0152628,0.0358243,1756,1520,14.511,-15.3774
539,-496,14.4949,15.1288,-0.00812426,-0.00331005,0.00911531,0.00371063,-0.0151449,0.914488,0.0115342,0.0160928,1763,1520,14.4949,-15.1288
546,-496,14.4446,14.7791,-0.0061635,-0.00236071,0.00680402,0.00280259,-0.0113268,0.921648,0.00863829,0.0109616,1770,1520,14.4445,-14.7791
553,-496,14.4771,14.4187,-0.00438483,-0.00154162,0.00467964,0.00192758,-0.00785404,0.932861,0.00598297,0.0156883,1777,1520,14.477,-14.4187
560,-496,14.4976,14.087,-0.00289683,-0.000861152,0.00315028,0.00143164,-0.00518962,0.941652,0.00402279,0.0151043,1784,1520,14.4975,-14.0871
567,-496,14.4921,13.7455,-0.00169962,-0.000539209,0.00200598,0.00096879,-0.00320762,0.926175,0.00252409,0.0117765,1791,1520,14.4921,-13.7455
574,-496,14.4833,13.4077,-0.000644786,-9.60694e-05,0.000920828,0.000590404,-0.00133126,0.930184,0.00113662,0.0121221,1798,1520,14.4833,-13.4077
581,-496,14.4802,13.1022,0.000296931,0.000300595,1.01683e-05,0.000309095,0.000288431,0.874522,0.000199532,0.0131359,1805,1520,14.4802,-13.1022
588,-496,14.4817,12.7838,0.00124252,0.000557375,-0.000891552,0.00185505,-5.51558e-05,-0.601974,0.00125549,0.0166441,1812,1520,14.4817,-12.7838
595,-496,14.4695,12.4452,0.00205417,0.000739629,-0.00157455,0.00310313,-0.000309328,-0.587675,0.00217919,0.0177581,1819,1520,14.4695,-12.4451
602,-496,14.4771,12.0861,0.00271897,0.000906647,-0.0022317,0.00422147,-0.000595846,-0.592546,0.0030325,0.0182523,1826,1520,14.4771,-12.086
609,-496,14.4818,11.7633,0.00331917,0.00110593,-0.00290966,0.00532554,-0.000900441,-0.603682,0.00388544,0.0153662,1833,1520,14.4818,-11.7633
616,-496,14.4965,11.3508,0.00412573,0.00133251,-0.00369188,0.00667634,-0.0012181,-0.604571,0.00490758,0.0198492,1840,1520,14.4964,-11.3508
623,-496,14.4247,10.9677,0.00513443,0.00176198,-0.00458006,0.00832881,-0.0014324,-0.609015,0.00608646,0.0333673,1847,1520,14.4247,-10.9676
630,-496,14.4553,10.5614,0,0,0,0,0,0,0,-1,1854,1520,14.4553,-10.5614
637,-496,12.0918,9.79541,0,0,0,0,0,0,0,-1,1861,1520,12.0917,-9.79537
644,-496,12.4537,10.087,0,0,0,0,0,0,0,-1,1868,1520,12.4537,-10.0871
651,-496,8.18506,5.47803,0,0,0,0,0,0,0,-1,1875,1520,8.18505,-5.47806
658,-496,7.79993,4.02563,0,0,0,0,0,0,0,-1,1882,1520,7.79997,-4.02568
665,-496,5.47583,7.90625,0,0,0,0,0,0,0,-1,1889,1520,5.47581,-7.90628
672,-496,0,0,0,0,0,0,0,0,0,-1,1896,1520,0,0
679,-496,0,0,0,0,0,0,0,0,0,-1,1903,1520,0,0
686,-496,0,0,0,0,0,0,0,0,0,-1,1910,1520,0,0
693,-496,0,0,0,0,0,0,0,0,0,-1,1917,1520,0,0
700,-496,0,0,0,0,0,0,0,0,0,-1,1924,1520,0,0
707,-496,0,0,0,0,0,0,0,0,0,-1,1931,1520,0,0
714,-496,0,0,0,0,0,0,0,0,0,-1,1938,1520,0,0
721,-496,0,0,0,0,0,0,0,0,0,-1,1945,1520,0,0
728,-496,0,0,0,0,0,0,0,0,0,-1,1952,1520,0,0
735,-496,0,0,0,0,0,0,0,0,0,-1,1959,1520,0,0
742,-496,0,0,0,0,0,0,0,0,0,-1,1966,1520,0,0
749,-496,0,0,0,0,0,0,0,0,0,-1,1973,1520,0,0
756,-496,0,0,0,0,0,0,0,0,0,-1,1980,1520,0,0
763,-496,0,0,0,0,0,0,0,0,0,-1,1987,1520,0,0
770,-496,0,0,0,0,0,0,0,0,0,-1,1994,1520,0,0
777,-496,0,0,0,0,0,0,0,0,0,-1,2001,1520,0,0
784,-496,0,0,0,0,0,0,0,0,0,-1,2008,1520,0,0
791,-496,0,0,0,0,0,0,0,0,0,-1,2015,1520,0,0
798,-496,0,0,0,0,0,0,0,0,0,-1,2022,1520,0,0
805,-496,0,0,0,0,0,0,0,0,0,-1,2029,1520,0,0
812,-496,0,0,0,0,0,0,0,0,0,-1,2036,1520,0,0
-700,-503,0,0,0,0,0,0,0,0,0,-1,524,1527,0,0
-693,-503,0,0,0,0,0,0,0,0,0,-1,531,1527,0,0
-686,-503,0,0,0,0,0,0,0,0,0,-1,538,1527,0,0
-679,-503,0,0,0,0,0,0,0,0,0,-1,545,1527,0,0
-672,-503,0,0,0,0,0,0,0,0,0,-1,552,1527,0,0
-665,-503,0,0,0,0,0,0,0,0,0,-1,559,1527,0,0
-658,-503,0,0,0,0,0,0,0,0,0,-1,566,1527,0,0
-651,-503,0,0,0,0,0,0,0,0,0,-1,573,1527,0,0
-644,-503,0,0,0,0,0,0,0,0,0,-1,580,1527,0,0
-637,-503,0,0,0,0,0,0,0,0,0,-1,587,1527,0,0
-630,-503,0,0,0,0,0,0,0,0,0,-1,594,1527,0,0
-623,-503,0,0,0,0,0,0,0,0,0,-1,601,1527,0,0
-616,-503,0,0,0,0,0,0,0,0,0,-1,608,1527,0,0
-609,-503,0,0,0,0,0,0,0,0,0,-1,615,1527,0,0
-602,-503,0,0,0,0,0,0,0,0,0,-1,622,1527,0,0
-595,-503,0,0,0,0,0,0,0,0,0,-1,629,1527,0,0
-588,-503,0,0,0,0,0,0,0,0,0,-1,636,1527,0,0
-581,-503,0,0,0,0,0,0,0,0,0,-1,643,1527,0,0
-574,-503,0,0,0,0,0,0,0,0,0,-1,650,1527,0,0
-567,-503,0,0,0,0,0,0,0,0,0,-1,657,1527,0,0
-560,-503,0,0,0,0,0,0,0,0,0,-1,664,1527,0,0
-553,-503,0,0,0,0,0,0,0,0,0,-1,671,1527,0,0
-546,-503,0,0,0,0,0,0,0,0,0,-1,678,1527,0,0
-539,-503,3.50177,4.26428,0,0,0,0,0,0,0,-1,685,1527,3.50177,-4.26424
-532,-503,-3.82953,4.00415,0,0,0,0,0,0,0,-1,692,1527,-3.8295,-4.00421
-525,-503,-1.63501,4.09216,0,0,0,0,0,0,0,-1,699,1527,-1.63501,-4.09222
-518,-503,-1.88989,5.06055,0,0,0,0,0,0,0,-1,706,1527,-1.88991,-5.0605
-511,-503,-1.88251,6.47034,0,0,0,0,0,0,0,-1,713,1527,-1.88248,-6.47038
-504,-503,-2.2038,8.09888,0,0,0,0,0,0,0,-1,720,1527,-2.20382,-8.09893
-497,-503,-1.30005,9.07166,0,0,0,0,0,0,0,-1,727,1527,-1.30007,-9.0717
-490,-503,-1.65137,9.52869,-0.00444116,0.0044501,-0.0015531,0.00471358,-0.00470464,-1.40275,0.00543762,0.0478773,734,1527,-1.65134,-9.52866
-483,-503,-2.12097,9.82019,-0.00481435,0.00326569,-0.00111272,0.00341613,-0.00496479,-1.43642,0.00486618,0.0417225,741,1527,-2.12097,-9.82023
-476,-503,-2.25861,10.1366,-0.00437551,0.00256983,-0.000695602,0.00263882,-0.00444449,-1.47195,0.0041336,0.0220316,748,1527,-2.25862,-10.1365
-469,-503,-2.33691,10.4374,-0.00358843,0.00193431,-0.000445901,0.00197008,-0.0036242,-1.49075,0.00327658,0.0108917,755,1527,-2.33693,-10.4374
-462,-503,-2.35181,10.8171,-0.0024455,0.00140388,-0.000149597,0.00140969,-0.00245131,-1.53201,0.00225602,0.0117275,762,1527,-2.35179,-10.8172
-455,-503,-2.37122,11.1842,-0.00117194,0.000912872,0.000108294,0.000918482,-0.00117755,1.51904,0.00121322,0.0170147,769,1527,-2.37119,-11.1843
-448,-503,-2.33368,11.5548,-0.00019967,0.000621901,0.000330914,0.000738609,-0.000316377,1.23173,0.000625145,0.0155099,776,1527,-2.3337,-11.5548
-441,-503,-2.31311,11.9316,0.00114624,0.000162829,0.000687407,0.0014997,-0.000190629,0.474936,0.00106902,0.0126573,783,1527,-2.31312,-11.9316
-434,-503,-2.35254,12.27,0.00261775,0.000148958,0.00113464,0.00306,-0.000293292,0.371658,0.00214446,0.0103997,790,1527,-2.35252,-12.27
-427,-503,-2.37299,12.6221,0.00391367,0.000259237,0.00163512,0.00453846,-0.000365557,0.364988,0.00315456,0.0156099,797,1527,-2.37296,-12.622
-420,-503,-2.3446,12.9669,0.00508484,0.000540261,0.0022772,0.00602953,-0.000404428,0.393239,0.00416105,0.016748,804,1527,-2.34459,-12.967
-413,-503,-2.33984,13.3459,0.00633506,0.0011056,0.00321286,0.0078627,-0.000422045,0.443839,0.00538799,0.014274,811,1527,-2.33982,-13.3459
-406,-503,-2.35492,13.7288,0.00759753,0.00192319,0.00438785,0.00998556,-0.000464844,0.498408,0.00681727,0.02052,818,1527,-2.35493,-13.7287
-399,-503,-2.23657,14.236,0.00920628,0.00324434,0.00571968,0.0126752,-0.000224569,0.545175,0.00852597,0.031777,825,1527,-2.23656,-14.2359
-392,-503,-1.97247,14.8737,0,0,0,0,0,0,0,-1,832,1527,-1.97247,-14.8737
-385,-503,-2.00403,14.1218,0,0,0,0,0,0,0,-1,839,1527,-2.00403,-14.1218
-378,-503,-2.07043,13.8632,0,0,0,0,0,0,0,-1,846,1527,-2.07043,-13.8631
-371,-503,-1.67285,13.8081,0,0,0,0,0,0,0,-1,853,1527,-1.67285,-13.8081
-364,-503,0.181396,12.3768,0,0,0,0,0,0,0,-1,860,1527,0.18138,-12.3768
-357,-503,0.558533,9.25452,0,0,0,0,0,0,0,-1,867,1527,0.558542,-9.25446
-350,-503,0.219971,6.84827,0,0,0,0,0,0,0,-1,874,1527,0.21996,-6.84831
-343,-503,-3.5802,4.43274,0,0,0,0,0,0,0,-1,881,1527,-3.58018,-4.43276
-336,-503,-3.2384,6.40637,0,0,0,0,0,0,0,-1,888,1527,-3.2384,-6.40643
-329,-503,-1.70691,11.886,0,0,0,0,0,0,0,-1,895,1527,-1.70689,-11.886
-322,-503,-3.31317,8.81519,0,0,0,0,0,0,0,-1,902,1527,-3.31315,-8.81524
-315,-503,-3.90265,7.73853,0,0,0,0,0,0,0,-1,909,1527,-3.90264,-7.73854
-308,-503,-1.78809,7.47388,0,0,0,0,0,0,0,-1,916,1527,-1.78808,-7.47385
-301,-503,0,0,0,0,0,0,0,0,0,-1,923,1527,0,0
-294,-503,0,0,0,0,0,0,0,0,0,-1,930,1527,0,0
-287,-503,0,0,0,0,0,0,0,0,0,-1,937,1527,0,0
-280,-503,0,0,0,0,0,0,0,0,0,-1,944,1527,0,0
-273,-503,0,0,0,0,0,0,0,0,0,-1,951,1527,0,0
-266,-503,0,0,0,0,0,0,0,0,0,-1,958,1527,0,0
-259,-503,0,0,0,0,0,0,0,0,0,-1,965,1527,0,0
-252,-503,0,0,0,0,0,0,0,0,0,-1,972,1527,0,0
-245,-503,0,0,0,0,0,0,0,0,0,-1,979,1527,0,0
-238,-503,0,0,0,0,0,0,0,0,0,-1,986,1527,0,0
-231,-503,0,0,0,0,0,0,0,0,0,-1,993,1527,0,0
-224,-503,0,0,0,0,0,0,0,0,0,-1,1000,1527,0,0
-217,-503,0,0,0,0,0,0,0,0,0,-1,1007,1527,0,0
-210,-503,0,0,0,0,0,0,0,0,0,-1,1014,1527,0,0
-203,-503,0,0,0,0,0,0,0,0,0,-1,1021,1527,0,0
-196,-503,0,0,0,0,0,0,0,0,0,-1,1028,1527,0,0
-189,-503,0,0,0,0,0,0,0,0,0,-1,1035,1527,0,0
-182,-503,0,0,0,0,0,0,0,0,0,-1,1042,1527,0,0
-175,-503,0,0,0,0,0,0,0,0,0,-1,1049,1527,0,0
-168,-503,0,0,0,0,0,0,0,0,0,-1,1056,1527,0,0
-161,-503,0,0,0,0,0,0,0,0,0,-1,1063,1527,0,0
-154,-503,0,0,0,0,0,0,0,0,0,-1,1070,1527,0,0
-147,-503,0,0,0,0,0,0,0,0,0,-1,1077,1527,0,0
-140,-503,0,0,0,0,0,0,0,0,0,-1,1084,1527,0,0
-133,-503,0,0,0,0,0,0,0,0,0,-1,1091,1527,0,0
-126,-503,0,0,0,0,0,0,0,0,0,-1,1098,1527,0,0
-119,-503,0,0,0,0,0,0,0,0,0,-1,1105,1527,0,0
-112,-503,0,0,0,0,0,0,0,0,0,-1,1112,1527,0,0
-105,-503,0,0,0,0,0,0,0,0,0,-1,1119,1527,0,0
-98,-503,0,0,0,0,0,0,0,0,0,-1,1126,1527,0,0
-91,-503,0,0,0,0,0,0,0,0,0,-1,1133,1527,0,0
-84,-503,0,0,0,0,0,0,0,0,0,-1,1140,1527,0,0
-77,-503,0,0,0,0,0,0,0,0,0,-1,1147,1527,0,0
-70,-503,0,0,0,0,0,0,0,0,0,-1,1154,1527,0,0
-63,-503,0,0,0,0,0,0,0,0,0,-1,1161,1527,0,0
-56,-503,0,0,0,0,0,0,0,0,0,-1,1168,1527,0,0
-49,-503,0,0,0,0,0,0,0,0,0,-1,1175,1527,0,0
-42,-503,0,0,0,0,0,0,0,0,0,-1,1182,1527,0,0
-35,-503,0,0,0,0,0,0,0,0,0,-1,1189,1527,0,0
-28,-503,0,0,0,0,0,0,0,0,0,-1,1196,1527,0,0
-21,-503,0,0,0,0,0,0,0,0,0,-1,1203,1527,0,0
-14,-503,0,0,0,0,0,0,0,0,0,-1,1210,1527,0,0
-7,-503,0,0,0,0,0,0,0,0,0,-1,1217,1527,0,0
0,-503,0,0,0,0,0,0,0,0,0,-1,1224,1527,0,0
7,-503,0,0,0,0,0,0,0,0,0,-1,1231,1527,0,0
14,-503,0,0,0,0,0,0,0,0,0,-1,1238,1527,0,0
21,-503,0,0,0,0,0,0,0,0,0,-1,1245,1527,0,0
28,-503,0,0,0,0,0,0,0,0,0,-1,1252,1527,0,0
35,-503,0,0,0,0,0,0,0,0,0,-1,1259,1527,0,0
42,-503,0,0,0,0,0,0,0,0,0,-1,1266,1527,0,0
49,-503,0,0,0,0,0,0,0,0,0,-1,1273,1527,0,0
56,-503,0,0,0,0,0,0,0,0,0,-1,1280,1527,0,0
63,-503,0,0,0,0,0,0,0,0,0,-1,1287,1527,0,0
70,-503,0,0,0,0,0,0,0,0,0,-1,1294,1527,0,0
77,-503,0,0,0,0,0,0,0,0,0,-1,1301,1527,0,0
84,-503,0,0,0,0,0,0,0,0,0,-1,1308,1527,0,0
91,-503,0,0,0,0,0,0,0,0,0,-1,1315,1527,0,0
98,-503,0,0,0,0,0,0,0,0,0,-1,1322,1527,0,0
105,-503,0,0,0,0,0,0,0,0,0,-1,1329,1527,0,0
112,-503,0,0,0,0,0,0,0,0,0,-1,1336,1527,0,0
119,-503,0,0,0,0,0,0,0,0,0,-1,1343,1527,0,0
126,-503,0,0,0,0,0,0,0,0,0,-1,1350,1527,0,0
133,-503,0,0,0,0,0,0,0,0,0,-1,1357,1527,0,0
140,-503,0,0,0,0,0,0,0,0,0,-1,1364,1527,0,0
147,-503,0,0,0,0,0,0,0,0,0,-1,1371,1527,0,0
154,-503,0,0,0,0,0,0,0,0,0,-1,1378,1527,0,0
161,-503,0,0,0,0,0,0,0,0,0,-1,1385,1527,0,0
168,-503,0,0,0,0,0,0,0,0,0,-1,1392,1527,0,0
175,-503,0,0,0,0,0,0,0,0,0,-1,1399,1527,0,0
182,-503,0,0,0,0,0,0,0,0,0,-1,1406,1527,0,0
189,-503,0,0,0,0,0,0,0,0,0,-1,1413,1527,0,0
196,-503,0,0,0,0,0,0,0,0,0,-1,1420,1527,0,0
203,-503,0,0,0,0,0,0,0,0,0,-1,1427,1527,0,0
210,-503,0,0,0,0,0,0,0,0,0,-1,1434,1527,0,0
217,-503,0,0,0,0,0,0,0,0,0,-1,1441,1527,0,0
224,-503,0,0,0,0,0,0,0,0,0,-1,1448,1527,0,0
231,-503,0,0,0,0,0,0,0,0,0,-1,1455,1527,0,0
238,-503,0,0,0,0,0,0,0,0,0,-1,1462,1527,0,0
245,-503,0,0,0,0,0,0,0,0,0,-1,1469,1527,0,0
252,-503,0,0,0,0,0,0,0,0,0,-1,1476,1527,0,0
259,-503,0,0,0,0,0,0,0,0,0,-1,1483,1527,0,0
266,-503,0,0,0,0,0,0,0,0,0,-1,1490,1527,0,0
273,-503,0,0,0,0,0,0,0,0,0,-1,1497,1527,0,0
280,-503,0,0,0,0,0,0,0,0,0,-1,1504,1527,0,0
287,-503,0,0,0,0,0,0,0,0,0,-1,1511,1527,0,0
294,-503,0,0,0,0,0,0,0,0,0,-1,1518,1527,0,0
301,-503,0,0,0,0,0,0,0,0,0,-1,1525,1527,0,0
308,-503,0,0,0,0,0,0,0,0,0,-1,1532,1527,0,0
315,-503,0,0,0,0,0,0,0,0,0,-1,1539,1527,0,0
322,-503,0,0,0,0,0,0,0,0,0,-1,1546,1527,0,0
329,-503,0,0,0,0,0,0,0,0,0,-1,1553,1527,0,0
336,-503,0,0,0,0,0,0,0,0,0,-1,1560,1527,0,0
343,-503,0,0,0,0,0,0,0,0,0,-1,1567,1527,0,0
350,-503,0,0,0,0,0,0,0,0,0,-1,1574,1527,0,0
357,-503,0,0,0,0,0,0,0,0,0,-1,1581,1527,0,0
364,-503,0,0,0,0,0,0,0,0,0,-1,1588,1527,0,0
371,-503,0,0,0,0,0,0,0,0,0,-1,1595,1527,0,0
378,-503,0,0,0,0,0,0,0,0,0,-1,1602,1527,0,0
385,-503,0,0,0,0,0,0,0,0,0,-1,1609,1527,0,0
392,-503,0,0,0,0,0,0,0,0,0,-1,1616,1527,0,0
399,-503,0,0,0,0,0,0,0,0,0,-1,1623,1527,0,0
406,-503,0,0,0,0,0,0,0,0,0,-1,1630,1527,0,0
413,-503,0,0,0,0,0,0,0,0,0,-1,1637,1527,0,0
420,-503,0,0,0,0,0,0,0,0,0,-1,1644,1527,0,0
427,-503,10.5968,4.9856,0,0,0,0,0,0,0,-1,1651,1527,10.5969,-4.98563
434,-503,11.4329,3.97217,0,0,0,0,0,0,0,-1,1658,1527,11.4328,-3.97222
441,-503,12.0957,2.96509,0,0,0,0,0,0,0,-1,1665,1527,12.0957,-2.96512
448,-503,12.3259,2.53894,0,0,0,0,0,0,0,-1,1672,1527,12.326,-2.53895
455,-503,12.1669,2.18762,0,0,0,0,0,0,0,-1,1679,1527,12.1668,-2.18767
462,-503,11.59,2.60791,0,0,0,0,0,0,0,-1,1686,1527,11.5899,-2.60794
469,-503,11.1625,1.61853,0,0,0,0,0,0,0,-1,1693,1527,11.1625,-1.61856
476,-503,9.07703,5.81042,0,0,0,0,0,0,0,-1,1700,1527,9.07699,-5.81047
483,-503,9.74414,6.92432,0,0,0,0,0,0,0,-1,1707,1527,9.74417,-6.9243
490,-503,10.5033,10.1071,0,0,0,0,0,0,0,-1,1714,1527,10.5032,-10.107
497,-503,14.3765,15.5327,0,0,0,0,0,0,0,-1,1721,1527,14.3764,-15.5328
504,-503,16.4092,16.8391,0,0,0,0,0,0,0,-1,1728,1527,16.4092,-16.8391
511,-503,15.6528,16.4819,0,0,0,0,0,0,0,-1,1735,1527,15.6528,-16.482
518,-503,15.0498,15.9657,0,0,0,0,0,0,0,-1,1742,1527,15.0498,-15.9657
525,-503,13.8619,15.8054,0,0,0,0,0,0,0,-1,1749,1527,13.8619,-15.8054
532,-503,14.1086,15.4468,-0.00727946,-0.00339985,0.0091965,0.0040592,-0.0147385,0.889339,0.0114218,0.0184992,1756,1527,14.1087,-15.4468
539,-503,14.1378,15.1071,-0.00553278,-0.00233937,0.0068507,0.00309823,-0.0109704,0.89989,0.00853587,0.0131546,1763,1527,14.1378,-15.1071
546,-503,14.1298,14.7615,-0.00407507,-0.00168721,0.00504043,0.00229876,-0.00806104,0.90169,0.00628208,0.0118106,1770,1527,14.1298,-14.7614
553,-503,14.1459,14.4407,-0.0027178,-0.00107699,0.00331338,0.00151604,-0.00531083,0.906759,0.0041395,0.0142211,1777,1527,14.1459,-14.4407
560,-503,14.1567,14.114,-0.00157407,-0.00056954,0.00210651,0.00109375,-0.00323736,0.902431,0.00260066,0.0140873,1784,1527,14.1568,-14.114
567,-503,14.1604,13.7521,-0.000644259,-0.00041742,0.00120859,0.000683059,-0.00174474,0.832183,0.00144567,0.0114358,1791,1527,14.1604,-13.752
574,-503,14.1495,13.4005,0.000231536,-1.04773e-05,0.000247723,0.000386228,-0.000165169,0.558205,0.000326765,0.0119819,1798,1527,14.1495,-13.4005
581,-503,14.1432,13.0874,0.00104713,0.000373416,-0.000575165,0.00137682,4.37231e-05,-0.520491,0.000903659,0.0133742,1805,1527,14.1432,-13.0874
588,-503,14.1382,12.7771,0.00183603,0.000602843,-0.00136895,0.00272084,-0.000281965,-0.573798,0.00191481,0.0165291,1812,1527,14.1382,-12.7771
595,-503,14.1246,12.4399,0.00253518,0.000828921,-0.00204257,0.00389563,-0.000531528,-0.587573,0.00279119,0.0127774,1819,1527,14.1247,-12.44
602,-503,14.1614,12.0898,0.00320318,0.00112327,-0.00282354,0.0051722,-0.00084574,-0.608949,0.00376187,0.0178867,1826,1527,14.1614,-12.0899
609,-503,14.2235,11.7144,0.00394295,0.00152511,-0.0037581,0.00668179,-0.00121373,-0.629784,0.00490937,0.0319451,1833,1527,14.2235,-11.7144
616,-503,14.0996,11.5701,0.00497775,0.00205758,-0.00493089,0.00866018,-0.00162486,-0.641456,0.00638437,0.0280363,1840,1527,14.0996,-11.5701
623,-503,14.2157,10.6908,0.00636511,0.00290783,-0.00637456,0.0112413,-0.00196832,-0.652993,0.00822912,0.0380331,1847,1527,14.2157,-10.6908
630,-503,14.4084,9.82642,0,0,0,0,0,0,0,-1,1854,1527,14.4084,-9.82641
637,-503,14.5564,9.20496,0,0,0,0,0,0,0,-1,1861,1527,14.5564,-9.2049
644,-503,11.4802,7.57214,0,0,0,0,0,0,0,-1,1868,1527,11.4802,-7.57215
651,-503,11.5718,6.5448,0,0,0,0,0,0,0,-1,1875,1527,11.5718,-6.54476
658,-503,8.25635,3.10498,0,0,0,0,0,0,0,-1,1882,1527,8.2563,-3.10493
665,-503,0,0,0,0,0,0,0,0,0,-1,1889,1527,0,0
672,-503,0,0,0,0,0,0,0,0,0,-1,1896,1527,0,0
679,-503,0,0,0,0,0,0,0,0,0,-1,1903,1527,0,0
686,-503,0,0,0,0,0,0,0,0,0,-1,1910,1527,0,0
693,-503,0,0,0,0,0,0,0,0,0,-1,1917,1527,0,0
700,-503,0,0,0,0,0,0,0,0,0,-1,1924,1527,0,0
707,-503,0,0,0,0,0,0,0,0,0,-1,1931,1527,0,0
714,-503,0,0,0,0,0,0,0,0,0,-1,1938,1527,0,0
721,-503,0,0,0,0,0,0,0,0,0,-1,1945,1527,0,0
728,-503,0,0,0,0,0,0,0,0,0,-1,1952,1527,0,0
735,-503,0,0,0,0,0,0,0,0,0,-1,1959,1527,0,0
742,-503,0,0,0,0,0,0,0,0,0,-1,1966,1527,0,0
749,-503,0,0,0,0,0,0,0,0,0,-1,1973,1527,0,0
756,-503,0,0,0,0,0,0,0,0,0,-1,1980,1527,0,0
763,-503,0,0,0,0,0,0,0,0,0,-1,1987,1527,0,0
770,-503,0,0,0,0,0,0,0,0,0,-1,1994,1527,0,0
777,-503,0,0,0,0,0,0,0,0,0,-1,2001,1527,0,0
784,-503,0,0,0,0,0,0,0,0,0,-1,2008,1527,0,0
791,-503,0,0,0,0,0,0,0,0,0,-1,2015,1527,0,0
798,-503,0,0,0,0,0,0,0,0,0,-1,2022,1527,0,0
805,-503,0,0,0,0,0,0,0,0,0,-1,2029,1527,0,0
812,-503,0,0,0,0,0,0,0,0,0,-1,2036,1527,0,0
-700,-510,0,0,0,0,0,0,0,0,0,-1,524,1534,0,0
-693,-510,0,0,0,0,0,0,0,0,0,-1,531,1534,0,0
-686,-510,0,0,0,0,0,0,0,0,0,-1,538,1534,0,0
-679,-510,0,0,0,0,0,0,0,0,0,-1,545,1534,0,0
-672,-510,0,0,0,0,0,0,0,0,0,-1,552,1534,0,0
-665,-510,0,0,0,0,0,0,0,0,0,-1,559,1534,0,0
-658,-510,0,0,0,0,0,0,0,0,0,-1,566,1534,0,0
-651,-510,0,0,0,0,0,0,0,0,0,-1,573,1534,0,0
-644,-510,0,0,0,0,0,0,0,0,0,-1,580,1534,0,0
-637,-510,0,0,0,0,0,0,0,0,0,-1,587,1534,0,0
-630,-510,0,0,0,0,0,0,0,0,0,-1,594,1534,0,0
-623,-510,0,0,0,0,0,0,0,0,0,-1,601,1534,0,0
-616,-510,0,0,0,0,0,0,0,0,0,-1,608,1534,0,0
-609,-510,0,0,0,0,0,0,0,0,0,-1,615,1534,0,0
-602,-510,0,0,0,0,0,0,0,0,0,-1,622,1534,0,0
-595,-510,0,0,0,0,0,0,0,0,0,-1,629,1534,0,0
-588,-510,0,0,0,0,0,0,0,0,0,-1,636,1534,0,0
-581,-510,0,0,0,0,0,0,0,0,0,-1,643,1534,0,0
-574,-510,0,0,0,0,0,0,0,0,0,-1,650,1534,0,0
-567,-510,0,0,0,0,0,0,0,0,0,-1,657,1534,0,0
-560,-510,0,0,0,0,0,0,0,0,0,-1,664,1534,0,0
-553,-510,0,0,0,0,0,0,0,0,0,-1,671,1534,0,0
-546,-510,0,0,0,0,0,0,0,0,0,-1,678,1534,0,0
-539,-510,0,0,0,0,0,0,0,0,0,-1,685,1534,0,0
-532,-510,-4.01874,4.18665,0,0,0,0,0,0,0,-1,692,1534,-4.01874,-4.18659
-525,-510,-2.77411,0.316772,0,0,0,0,0,0,0,-1,699,1534,-2.77409,-0.3168
-518,-510,-2.04974,3.14453,0,0,0,0,0,0,0,-1,706,1534,-2.04975,-3.14454
-511,-510,-1.39673,6.12695,0,0,0,0,0,0,0,-1,713,1534,-1.3967,-6.12692
-504,-510,-1.59497,8.94751,0,0,0,0,0,0,0,-1,720,1534,-1.59499,-8.94753
-497,-510,-1.44312,9.79285,0,0,0,0,0,0,0,-1,727,1534,-1.44309,-9.7928
-490,-510,-1.01813,9.7948,0,0,0,0,0,0,0,-1,734,1534,-1.01811,-9.79484
-483,-510,-1.5202,9.73438,-0.00670848,0.00446774,-0.00106461,0.00456825,-0.00680899,-1.47667,0.00661098,0.0415452,741,1534,-1.52017,-9.73438
-476,-510,-1.7359,10.0516,-0.00572673,0.0035791,-0.000517719,0.00360782,-0.00575545,-1.51539,0.00545308,0.0313248,748,1534,-1.73593,-10.0517
-469,-510,-1.96228,10.4581,-0.00455422,0.0029538,-9.04346e-05,0.00295489,-0.00455531,-1.55875,0.00436871,0.0130655,755,1534,-1.96227,-10.4582
-462,-510,-1.97174,10.8096,-0.00327313,0.0023386,0.000190989,0.00234509,-0.00327962,1.53681,0.00326234,0.0112548,762,1534,-1.97177,-10.8095
-455,-510,-1.98218,11.1849,-0.00195944,0.00181477,0.000421841,0.00186135,-0.00200602,1.46083,0.00223334,0.0130529,769,1534,-1.9822,-11.185
-448,-510,-1.9483,11.562,-0.0010273,0.00148537,0.000620387,0.0016302,-0.00117213,1.34146,0.00162511,0.0121645,776,1534,-1.9483,-11.562
-441,-510,-1.95679,11.9163,0.00022297,0.00101035,0.000949939,0.00164495,-0.000411628,0.981843,0.00125652,0.0131584,783,1534,-1.95679,-11.9163
-434,-510,-2.00739,12.2665,0.00160297,0.00102557,0.00139215,0.00273604,-0.0001075,0.68316,0.00186089,0.0138973,790,1534,-2.0074,-12.2665
-427,-510,-2.02478,12.6166,0.00283646,0.00115225,0.00188783,0.00406149,-7.27789e-05,0.575608,0.00273224,0.0205879,797,1534,-2.02479,-12.6166
-420,-510,-2.00757,12.9775,0.00392385,0.00145296,0.00244945,0.00543179,-5.49783e-05,0.551828,0.00363965,0.0211129,804,1534,-2.00756,-12.9775
-413,-510,-2.00476,13.3641,0.00505816,0.00204478,0.00325423,0.00713757,-3.46343e-05,0.568595,0.00476997,0.0111698,811,1534,-2.00474,-13.3641
-406,-510,-2.01886,13.7157,0.00619366,0.00291626,0.00426603,0.0091249,-1.49789e-05,0.602023,0.00608827,0.010567,818,1534,-2.01886,-13.7157
-399,-510,-2.01385,14.0663,0.00754083,0.00423486,0.0053474,0.0114849,0.000290791,0.635497,0.00756153,0.0128278,825,1534,-2.01387,-14.0662
-392,-510,-1.88416,14.5925,0.00898951,0.00639433,0.00645171,0.0142728,0.00111101,0.686161,0.00916735,0.0335713,832,1534,-1.88416,-14.5926
-385,-510,-1.66797,15.1705,0,0,0,0,0,0,0,-1,839,1534,-1.66798,-15.1706
-378,-510,-1.78308,13.8044,0,0,0,0,0,0,0,-1,846,1534,-1.78309,-13.8044
-371,-510,-1.74982,13.8027,0,0,0,0,0,0,0,-1,853,1534,-1.74981,-13.8028
-364,-510,-1.3479,13.7771,0,0,0,0,0,0,0,-1,860,1534,-1.34791,-13.7771
-357,-510,-0.254395,8.89575,0,0,0,0,0,0,0,-1,867,1534,-0.254397,-8.89569
-350,-510,0.471191,6.06458,0,0,0,0,0,0,0,-1,874,1534,0.47118,-6.06453
-343,-510,-2.94617,5.00989,0,0,0,0,0,0,0,-1,881,1534,-2.94615,-5.00992
-336,-510,-1.92963,11.3776,0,0,0,0,0,0,0,-1,888,1534,-1.92962,-11.3775
-329,-510,-4.87781,20.6893,0,0,0,0,0,0,0,-1,895,1534,-4.87782,-20.6894
-322,-510,-0.251526,11.973,0,0,0,0,0,0,0,-1,902,1534,-0.251497,-11.9731
-315,-510,-1.73047,10.9796,0,0,0,0,0,0,0,-1,909,1534,-1.73049,-10.9796
-308,-510,-2.05328,9.72034,0,0,0,0,0,0,0,-1,916,1534,-2.05327,-9.72036
-301,-510,-1.85437,11.5869,0,0,0,0,0,0,0,-1,923,1534,-1.85437,-11.5869
-294,-510,0,0,0,0,0,0,0,0,0,-1,930,1534,0,0
-287,-510,0,0,0,0,0,0,0,0,0,-1,937,1534,0,0
-280,-510,0,0,0,0,0,0,0,0,0,-1,944,1534,0,0
-273,-510,0,0,0,0,0,0,0,0,0,-1,951,1534,0,0
-266,-510,0,0,0,0,0,0,0,0,0,-1,958,1534,0,0
-259,-510,0,0,0,0,0,0,0,0,0,-1,965,1534,0,0
-252,-510,0,0,0,0,0,0,0,0,0,-1,972,1534,0,0
-245,-510,0,0,0,0,0,0,0,0,0,-1,979,1534,0,0
-238,-510,0,0,0,0,0,0,0,0,0,-1,986,1534,0,0
-231,-510,0,0,0,0,0,0,0,0,0,-1,993,1534,0,0
-224,-510,0,0,0,0,0,0,0,0,0,-1,1000,1534,0,0
-217,-510,0,0,0,0,0,0,0,0,0,-1,1007,1534,0,0
-210,-510,0,0,0,0,0,0,0,0,0,-1,1014,1534,0,0
-203,-510,0,0,0,0,0,0,0,0,0,-1,1021,1534,0,0
-196,-510,0,0,0,0,0,0,0,0,0,-1,1028,1534,0,0
-189,-510,0,0,0,0,0,0,0,0,0,-1,1035,1534,0,0
-182,-510,0,0,0,0,0,0,0,0,0,-1,1042,1534,0,0
-175,-510,0,0,0,0,0,0,0,0,0,-1,1049,1534,0,0
-168,-510,0,0,0,0,0,0,0,0,0,-1,1056,1534,0,0
-161,-510,0,0,0,0,0,0,0,0,0,-1,1063,1534,0,0
-154,-510,0,0,0,0,0,0,0,0,0,-1,1070,1534,0,0
-147,-510,0,0,0,0,0,0,0,0,0,-1,1077,1534,0,0
-140,-510,0,0,0,0,0,0,0,0,0,-1,1084,1534,0,0
-133,-510,0,0,0,0,0,0,0,0,0,-1,1091,1534,0,0
-126,-510,0,0,0,0,0,0,0,0,0,-1,1098,1534,0,0
-119,-510,0,0,0,0,0,0,0,0,0,-1,1105,1534,0,0
-112,-510,0,0,0,0,0,0,0,0,0,-1,1112,1534,0,0
-105,-510,0,0,0,0,0,0,0,0,0,-1,1119,1534,0,0
-98,-510,0,0,0,0,0,0,0,0,0,-1,1126,1534,0,0
-91,-510,0,0,0,0,0,0,0,0,0,-1,1133,1534,0,0
-84,-510,0,0,0,0,0,0,0,0,0,-1,1140,1534,0,0
-77,-510,0,0,0,0,0,0,0,0,0,-1,1147,1534,0,0
-70,-510,0,0,0,0,0,0,0,0,0,-1,1154,1534,0,0
-63,-510,0,0,0,0,0,0,0,0,0,-1,1161,1534,0,0
-56,-510,0,0,0,0,0,0,0,0,0,-1,1168,1534,0,0
-49,-510,0,0,0,0,0,0,0,0,0,-1,1175,1534,0,0
-42,-510,0,0,0,0,0,0,0,0,0,-1,1182,1534,0,0
-35,-510,0,0,0,0,0,0,0,0,0,-1,1189,1534,0,0
-28,-510,0,0,0,0,0,0,0,0,0,-1,1196,1534,0,0
-21,-510,0,0,0,0,0,0,0,0,0,-1,1203,1534,0,0
-14,-510,0,0,0,0,0,0,0,0,0,-1,1210,1534,0,0
-7,-510,0,0,0,0,0,0,0,0,0,-1,1217,1534,0,0
0,-510,0,0,0,0,0,0,0,0,0,-1,1224,1534,0,0
7,-510,0,0,0,0,0,0,0,0,0,-1,1231,1534,0,0
14,-510,0,0,0,0,0,0,0,0,0,-1,1238,1534,0,0
21,-510,0,0,0,0,0,0,0,0,0,-1,1245,1534,0,0
28,-510,0,0,0,0,0,0,0,0,0,-1,1252,1534,0,0
35,-510,0,0,0,0,0,0,0,0,0,-1,1259,1534,0,0
42,-510,0,0,0,0,0,0,0,0,0,-1,1266,1534,0,0
49,-510,0,0,0,0,0,0,0,0,0,-1,1273,1534,0,0
56,-510,0,0,0,0,0,0,0,0,0,-1,1280,1534,0,0
63,-510,0,0,0,0,0,0,0,0,0,-1,1287,1534,0,0
70,-510,0,0,0,0,0,0,0,0,0,-1,1294,1534,0,0
77,-510,0,0,0,0,0,0,0,0,0,-1,1301,1534,0,0
84,-510,0,0,0,0,0,0,0,0,0,-1,1308,1534,0,0
91,-510,0,0,0,0,0,0,0,0,0,-1,1315,1534,0,0
98,-510,0,0,0,0,0,0,0,0,0,-1,1322,1534,0,0
105,-510,0,0,0,0,0,0,0,0,0,-1,1329,1534,0,0
112,-510,0,0,0,0,0,0,0,0,0,-1,1336,1534,0,0
119,-510,0,0,0,0,0,0,0,0,0,-1,1343,1534,0,0
126,-510,0,0,0,0,0,0,0,0,0,-1,1350,1534,0,0
133,-510,0,0,0,0,0,0,0,0,0,-1,1357,1534,0,0
140,-510,0,0,0,0,0,0,0,0,0,-1,1364,1534,0,0
147,-510,0,0,0,0,0,0,0,0,0,-1,1371,1534,0,0
154,-510,0,0,0,0,0,0,0,0,0,-1,1378,1534,0,0
161,-510,0,0,0,0,0,0,0,0,0,-1,1385,1534,0,0
168,-510,0,0,0,0,0,0,0,0,0,-1,1392,1534,0,0
175,-510,0,0,0,0,0,0,0,0,0,-1,1399,1534,0,0
182,-510,0,0,0,0,0,0,0,0,0,-1,1406,1534,0,0
189,-510,0,0,0,0,0,0,0,0,0,-1,1413,1534,0,0
196,-510,0,0,0,0,0,0,0,0,0,-1,1420,1534,0,0
203,-510,0,0,0,0,0,0,0,0,0,-1,1427,1534,0,0
210,-510,0,0,0,0,0,0,0,0,0,-1,1434,1534,0,0
217,-510,0,0,0,0,0,0,0,0,0,-1,1441,1534,0,0
224,-510,0,0,0,0,0,0,0,0,0,-1,1448,1534,0,0
231,-510,0,0,0,0,0,0,0,0,0,-1,1455,1534,0,0
238,-510,0,0,0,0,0,0,0,0,0,-1,1462,1534,0,0
245,-510,0,0,0,0,0,0,0,0,0,-1,1469,1534,0,0
252,-510,0,0,0,0,0,0,0,0,0,-1,1476,1534,0,0
259,-510,0,0,0,0,0,0,0,0,0,-1,1483,1534,0,0
266,-510,0,0,0,0,0,0,0,0,0,-1,1490,1534,0,0
273,-510,0,0,0,0,0,0,0,0,0,-1,1497,1534,0,0
280,-510,0,0,0,0,0,0,0,0,0,-1,1504,1534,0,0
287,-510,0,0,0,0,0,0,0,0,0,-1,1511,1534,0,0
294,-510,0,0,0,0,0,0,0,0,0,-1,1518,1534,0,0
301,-510,0,0,0,0,0,0,0,0,0,-1,1525,1534,0,0
308,-510,0,0,0,0,0,0,0,0,0,-1,1532,1534,0,0
315,-510,0,0,0,0,0,0,0,0,0,-1,1539,1534,0,0
322,-510,0,0,0,0,0,0,0,0,0,-1,1546,1534,0,0
329,-510,0,0,0,0,0,0,0,0,0,-1,1553,1534,0,0
336,-510,0,0,0,0,0,0,0,0,0,-1,1560,1534,0,0
343,-510,0,0,0,0,0,0,0,0,0,-1,1567,1534,0,0
350,-510,0,0,0,0,0,0,0,0,0,-1,1574,1534,0,0
357,-510,0,0,0,0,0,0,0,0,0,-1,1581,1534,0,0
364,-510,0,0,0,0,0,0,0,0,0,-1,1588,1534,0,0
371,-510,0,0,0,0,0,0,0,0,0,-1,1595,1534,0,0
378,-510,0,0,0,0,0,0,0,0,0,-1,1602,1534,0,0
385,-510,0,0,0,0,0,0,0,0,0,-1,1609,1534,0,0
392,-510,0,0,0,0,0,0,0,0,0,-1,1616,1534,0,0
399,-510,0,0,0,0,0,0,0,0,0,-1,1623,1534,0,0
406,-510,0,0,0,0,0,0,0,0,0,-1,1630,1534,0,0
413,-510,0,0,0,0,0,0,0,0,0,-1,1637,1534,0,0
420,-510,13.1918,5.99402,0,0,0,0,0,0,0,-1,1644,1534,13.1917,-5.994
427,-510,10.9799,5.12341,0,0,0,0,0,0,0,-1,1651,1534,10.9798,-5.12337
434,-510,11.8219,4.07898,0,0,0,0,0,0,0,-1,1658,1534,11.8219,-4.07895
441,-510,12.6812,3.02991,0,0,0,0,0,0,0,-1,1665,1534,12.6811,-3.0299
448,-510,13.2379,2.2804,0,0,0,0,0,0,0,-1,1672,1534,13.2379,-2.28037
455,-510,9.76892,2.20642,0,0,0,0,0,0,0,-1,1679,1534,9.76894,-2.20647
462,-510,9.84692,2.49182,0,0,0,0,0,0,0,-1,1686,1534,9.84695,-2.49185
469,-510,16.6072,7.26941,0,0,0,0,0,0,0,-1,1693,1534,16.6072,-7.26945
476,-510,15.9199,7.8645,0,0,0,0,0,0,0,-1,1700,1534,15.9199,-7.86455
483,-510,13.0833,8.10938,0,0,0,0,0,0,0,-1,1707,1534,13.0833,-8.10932
490,-510,13.0841,15.3286,0,0,0,0,0,0,0,-1,1714,1534,13.0841,-15.3286
497,-510,14.5189,16.1906,0,0,0,0,0,0,0,-1,1721,1534,14.5189,-16.1906
504,-510,14.238,16.3108,0,0,0,0,0,0,0,-1,1728,1534,14.2381,-16.3108
511,-510,14.988,16.4482,0,0,0,0,0,0,0,-1,1735,1534,14.988,-16.4483
518,-510,13.913,16.3488,0,0,0,0,0,0,0,-1,1742,1534,13.913,-16.3488
525,-510,13.7875,15.847,-0.00601514,-0.00587683,0.0107186,0.00477283,-0.0166648,0.788624,0.0129963,0.0310037,1749,1534,13.7875,-15.8471
532,-510,13.8092,15.4362,-0.00482501,-0.00232532,0.00678784,0.00332679,-0.0104771,0.876443,0.00831846,0.0134896,1756,1534,13.8092,-15.4361
539,-510,13.8488,15.0646,-0.00353694,-0.0015663,0.00498273,0.0025276,-0.00763084,0.883012,0.00610669,0.0124926,1763,1534,13.8487,-15.0646
546,-510,13.8187,14.7828,-0.00245655,-0.00118799,0.00359163,0.00182494,-0.00546948,0.872796,0.00438315,0.0125439,1770,1534,13.8187,-14.7828
553,-510,13.8228,14.4568,-0.00143041,-0.000782599,0.00221798,0.00113501,-0.00334801,0.857903,0.00269134,0.0132133,1777,1534,13.8227,-14.4568
560,-510,13.8231,14.1011,-0.00055629,-0.000445182,0.00129232,0.000792782,-0.00179425,0.806879,0.00153048,0.0135127,1784,1534,13.8231,-14.1011
567,-510,13.813,13.7627,0.000174991,-0.000433666,0.000596736,0.00054052,-0.000799195,0.549595,0.000778276,0.0124268,1791,1534,13.813,-13.7627
574,-510,13.807,13.4261,0.00093155,-4.90259e-05,-0.000273764,0.0010028,-0.00012028,-0.254625,0.000712023,0.0133457,1798,1534,13.807,-13.4262
581,-510,13.804,13.1257,0.00167992,0.000335051,-0.00104397,0.00224927,-0.000234305,-0.499286,0.00158341,0.0126025,1805,1534,13.804,-13.1257
588,-510,13.798,12.8033,0.00236679,0.000545644,-0.00175655,0.00343476,-0.000522319,-0.546273,0.00248233,0.0130537,1812,1534,13.7979,-12.8033
595,-510,13.8661,12.3873,0.00299069,0.000844613,-0.00244832,0.00459079,-0.000755488,-0.578868,0.00334095,0.017835,1819,1534,13.8661,-12.3873
602,-510,13.8308,11.9731,0.00365577,0.00129865,-0.00337659,0.00605357,-0.00109915,-0.617489,0.0044476,0.0471419,1826,1534,13.8308,-11.9731
609,-510,13.9879,11.6885,0,0,0,0,0,0,0,-1,1833,1534,13.9879,-11.6885
616,-510,13.7885,11.7072,0,0,0,0,0,0,0,-1,1840,1534,13.7885,-11.7072
623,-510,14.0238,10.4948,0,0,0,0,0,0,0,-1,1847,1534,14.0238,-10.4948
630,-510,13.7461,9.30334,0,0,0,0,0,0,0,-1,1854,1534,13.7461,-9.30335
637,-510,11.0155,7.38464,0,0,0,0,0,0,0,-1,1861,1534,11.0155,-7.38463
644,-510,11.5809,7.17126,0,0,0,0,0,0,0,-1,1868,1534,11.5809,-7.17123
651,-510,8.70471,3.5061,0,0,0,0,0,0,0,-1,1875,1534,8.70475,-3.50611
658,-510,0,0,0,0,0,0,0,0,0,-1,1882,1534,0,0
665,-510,0,0,0,0,0,0,0,0,0,-1,1889,1534,0,0
672,-510,0,0,0,0,0,0,0,0,0,-1,1896,1534,0,0
679,-510,0,0,0,0,0,0,0,0,0,-1,1903,1534,0,0
686,-510,0,0,0,0,0,0,0,0,0,-1,1910,1534,0,0
693,-510,0,0,0,0,0,0,0,0,0,-1,1917,1534,0,0
700,-510,0,0,0,0,0,0,0,0,0,-1,1924,1534,0,0
707,-510,0,0,0,0,0,0,0,0,0,-1,1931,1534,0,0
714,-510,0,0,0,0,0,0,0,0,0,-1,1938,1534,0,0
721,-510,0,0,0,0,0,0,0,0,0,-1,1945,1534,0,0
728,-510,0,0,0,0,0,0,0,0,0,-1,1952,1534,0,0
735,-510,0,0,0,0,0,0,0,0,0,-1,1959,1534,0,0
742,-510,0,0,0,0,0,0,0,0,0,-1,1966,1534,0,0
749,-510,0,0,0,0,0,0,0,0,0,-1,1973,1534,0,0
756,-510,0,0,0,0,0,0,0,0,0,-1,1980,1534,0,0
763,-510,0,0,0,0,0,0,0,0,0,-1,1987,1534,0,0
770,-510,0,0,0,0,0,0,0,0,0,-1,1994,1534,0,0
777,-510,0,0,0,0,0,0,0,0,0,-1,2001,1534,0,0
784,-510,0,0,0,0,0,0,0,0,0,-1,2008,1534,0,0
791,-510,0,0,0,0,0,0,0,0,0,-1,2015,1534,0,0
798,-510,0,0,0,0,0,0,0,0,0,-1,2022,1534,0,0
805,-510,0,0,0,0,0,0,0,0,0,-1,2029,1534,0,0
812,-510,0,0,0,0,0,0,0,0,0,-1,2036,1534,0,0
-700,-517,0,0,0,0,0,0,0,0,0,-1,524,1541,0,0
-693,-517,0,0,0,0,0,0,0,0,0,-1,531,1541,0,0
-686,-517,0,0,0,0,0,0,0,0,0,-1,538,1541,0,0
-679,-517,0,0,0,0,0,0,0,0,0,-1,545,1541,0,0
-672,-517,0,0,0,0,0,0,0,0,0,-1,552,1541,0,0
-665,-517,0,0,0,0,0,0,0,0,0,-1,559,1541,0,0
-658,-517,0,0,0,0,0,0,0,0,0,-1,566,1541,0,0
-651,-517,0,0,0,0,0,0,0,0,0,-1,573,1541,0,0
-644,-517,0,0,0,0,0,0,0,0,0,-1,580,1541,0,0
-637,-517,0,0,0,0,0,0,0,0,0,-1,587,1541,0,0
-630,-517,0,0,0,0,0,0,0,0,0,-1,594,1541,0,0
-623,-517,0,0,0,0,0,0,0,0,0,-1,601,1541,0,0
-616,-517,0,0,0,0,0,0,0,0,0,-1,608,1541,0,0
-609,-517,0,0,0,0,0,0,0,0,0,-1,615,1541,0,0
-602,-517,0,0,0,0,0,0,0,0,0,-1,622,1541,0,0
-595,-517,0,0,0,0,0,0,0,0,0,-1,629,1541,0,0
-588,-517,0,0,0,0,0,0,0,0,0,-1,636,1541,0,0
-581,-517,0,0,0,0,0,0,0,0,0,-1,643,1541,0,0
-574,-517,0,0,0,0,0,0,0,0,0,-1,650,1541,0,0
-567,-517,0,0,0,0,0,0,0,0,0,-1,657,1541,0,0
-560,-517,0,0,0,0,0,0,0,0,0,-1,664,1541,0,0
-553,-517,0,0,0,0,0,0,0,0,0,-1,671,1541,0,0
-546,-517,0,0,0,0,0,0,0,0,0,-1,678,1541,0,0
-539,-517,0,0,0,0,0,0,0,0,0,-1,685,1541,0,0
-532,-517,0,0,0,0,0,0,0,0,0,-1,692,1541,0,0
-525,-517,-3.62903,4.3606,0,0,0,0,0,0,0,-1,699,1541,-3.62904,-4.36056
-518,-517,-1.664,2.27209,0,0,0,0,0,0,0,-1,706,1541,-1.66399,-2.27207
-511,-517,-0.999146,5.52063,0,0,0,0,0,0,0,-1,713,1541,-0.999126,-5.52059
-504,-517,-0.883362,4.79858,0,0,0,0,0,0,0,-1,720,1541,-0.88337,-4.79854
-497,-517,-1.95294,9.60901,0,0,0,0,0,0,0,-1,727,1541,-1.95291,-9.60901
-490,-517,-0.771423,9.41064,0,0,0,0,0,0,0,-1,734,1541,-0.771428,-9.41068
-483,-517,-1.01062,9.64368,-0.00789554,0.00645452,4.99817e-05,0.0064547,-0.00789571,1.56731,0.00829912,0.0417508,741,1541,-1.01062,-9.64363
-476,-517,-1.32684,10.0071,-0.00643702,0.00518892,0.000460442,0.00520713,-0.00645523,1.53127,0.00674611,0.0371937,748,1541,-1.32681,-10.0071
-469,-517,-1.53107,10.465,-0.00501935,0.00422579,0.000708848,0.00427982,-0.00507339,1.49472,0.00540655,0.0172551,755,1541,-1.53109,-10.465
-462,-517,-1.61627,10.8143,-0.00361771,0.00347035,0.000826876,0.00356554,-0.00371289,1.45619,0.00420249,0.0176811,762,1541,-1.61625,-10.8144
-455,-517,-1.60583,11.1993,-0.00226544,0.00284835,0.000933564,0.00301345,-0.00243054,1.39576,0.00314909,0.0140648,769,1541,-1.60583,-11.1994
-448,-517,-1.5946,11.5723,-0.00136465,0.00240555,0.00100566,0.00265703,-0.00161613,1.32576,0.00249139,0.0132677,776,1541,-1.5946,-11.5722
-441,-517,-1.62225,11.929,-0.000221299,0.00186059,0.00120373,0.00241104,-0.000771747,1.1419,0.00191711,0.0119766,783,1541,-1.62228,-11.929
-434,-517,-1.62994,12.2792,0.00102795,0.0018307,0.00153324,0.00301423,-0.000155579,0.913416,0.00206331,0.0147647,790,1541,-1.62992,-12.2792
-427,-517,-1.63739,12.6429,0.00214523,0.00191115,0.00192542,0.00395716,9.9215e-05,0.755043,0.00260567,0.0137433,797,1541,-1.63742,-12.6429
-420,-517,-1.68286,13.0217,0.00307769,0.00217493,0.00231793,0.00498778,0.000264835,0.689235,0.00324052,0.0199183,804,1541,-1.68284,-13.0217
-413,-517,-1.66327,13.3689,0.00400264,0.00272969,0.00291781,0.00635258,0.000379745,0.678013,0.00411432,0.010582,811,1541,-1.66325,-13.3689
-406,-517,-1.66309,13.7131,0.0049023,0.00358529,0.00371311,0.00801484,0.000472749,0.697638,0.00519282,0.010224,818,1541,-1.66307,-13.7131
-399,-517,-1.65527,14.077,0.00584695,0.00480551,0.00451126,0.00986743,0.000785017,0.727939,0.00633286,0.0103345,825,1541,-1.65528,-14.077
-392,-517,-1.6416,14.4524,0.00684443,0.00666755,0.00533385,0.0120906,0.00142141,0.777108,0.00763084,0.0133425,832,1541,-1.64162,-14.4524
-385,-517,-1.56287,14.9956,0.00805778,0.00788413,0.00371467,0.0116866,0.00425527,0.773714,0.00682984,0.0277183,839,1541,-1.56287,-14.9956
-378,-517,-1.46613,15.6082,0,0,0,0,0,0,0,-1,846,1541,-1.46614,-15.6082
-371,-517,-1.37585,13.2646,0,0,0,0,0,0,0,-1,853,1541,-1.37586,-13.2647
-364,-517,-1.26245,12.6289,0,0,0,0,0,0,0,-1,860,1541,-1.26243,-12.6289
-357,-517,-1.23889,12.979,0,0,0,0,0,0,0,-1,867,1541,-1.23891,-12.979
-350,-517,0.722412,10.0829,0,0,0,0,0,0,0,-1,874,1541,0.722399,-10.0828
-343,-517,-4.67834,14.4569,0,0,0,0,0,0,0,-1,881,1541,-4.67837,-14.4569
-336,-517,-4.32434,16.3674,0,0,0,0,0,0,0,-1,888,1541,-4.32433,-16.3674
-329,-517,-3.86652,19.4402,0,0,0,0,0,0,0,-1,895,1541,-3.86649,-19.4402
-322,-517,-4.21246,19.5819,0,0,0,0,0,0,0,-1,902,1541,-4.21244,-19.5819
-315,-517,-0.987976,7.29749,0,0,0,0,0,0,0,-1,909,1541,-0.987993,-7.29743
-308,-517,3.27911,17.621,0,0,0,0,0,0,0,-1,916,1541,3.27913,-17.621
-301,-517,-1.69141,8.87488,0,0,0,0,0,0,0,-1,923,1541,-1.69141,-8.87485
-294,-517,-1.72583,9.92566,0,0,0,0,0,0,0,-1,930,1541,-1.72584,-9.92571
-287,-517,-3.09045,12.1472,0,0,0,0,0,0,0,-1,937,1541,-3.09043,-12.1472
-280,-517,0,0,0,0,0,0,0,0,0,-1,944,1541,0,0
-273,-517,0,0,0,0,0,0,0,0,0,-1,951,1541,0,0
-266,-517,0,0,0,0,0,0,0,0,0,-1,958,1541,0,0
-259,-517,0,0,0,0,0,0,0,0,0,-1,965,1541,0,0
-252,-517,0,0,0,0,0,0,0,0,0,-1,972,1541,0,0
-245,-517,0,0,0,0,0,0,0,0,0,-1,979,1541,0,0
-238,-517,0,0,0,0,0,0,0,0,0,-1,986,1541,0,0
-231,-517,0,0,0,0,0,0,0,0,0,-1,993,1541,0,0
-224,-517,0,0,0,0,0,0,0,0,0,-1,1000,1541,0,0
-217,-517,0,0,0,0,0,0,0,0,0,-1,1007,1541,0,0
-210,-517,0,0,0,0,0,0,0,0,0,-1,1014,1541,0,0
-203,-517,0,0,0,0,0,0,0,0,0,-1,1021,1541,0,0
-196,-517,0,0,0,0,0,0,0,0,0,-1,1028,1541,0,0
-189,-517,0,0,0,0,0,0,0,0,0,-1,1035,1541,0,0
-182,-517,0,0,0,0,0,0,0,0,0,-1,1042,1541,0,0
-175,-517,0,0,0,0,0,0,0,0,0,-1,1049,1541,0,0
-168,-517,0,0,0,0,0,0,0,0,0,-1,1056,1541,0,0
-161,-517,0,0,0,0,0,0,0,0,0,-1,1063,1541,0,0
-154,-517,0,0,0,0,0,0,0,0,0,-1,1070,1541,0,0
-147,-517,0,0,0,0,0,0,0,0,0,-1,1077,1541,0,0
-140,-517,0,0,0,0,0,0,0,0,0,-1,1084,1541,0,0
-133,-517,0,0,0,0,0,0,0,0,0,-1,1091,1541,0,0
-126,-517,0,0,0,0,0,0,0,0,0,-1,1098,1541,0,0
-119,-517,0,0,0,0,0,0,0,0,0,-1,1105,1541,0,0
-112,-517,0,0,0,0,0,0,0,0,0,-1,1112,1541,0,0
-105,-517,0,0,0,0,0,0,0,0,0,-1,1119,1541,0,0
-98,-517,0,0,0,0,0,0,0,0,0,-1,1126,1541,0,0
-91,-517,0,0,0,0,0,0,0,0,0,-1,1133,1541,0,0
-84,-517,0,0,0,0,0,0,0,0,0,-1,1140,1541,0,0
-77,-517,0,0,0,0,0,0,0,0,0,-1,1147,1541,0,0
-70,-517,0,0,0,0,0,0,0,0,0,-1,1154,1541,0,0
-63,-517,0,0,0,0,0,0,0,0,0,-1,1161,1541,0,0
-56,-517,0,0,0,0,0,0,0,0,0,-1,1168,1541,0,0
-49,-517,0,0,0,0,0,0,0,0,0,-1,1175,1541,0,0
-42,-517,0,0,0,0,0,0,0,0,0,-1,1182,1541,0,0
-35,-517,0,0,0,0,0,0,0,0,0,-1,1189,1541,0,0
-28,-517,0,0,0,0,0,0,0,0,0,-1,1196,1541,0,0
-21,-517,0,0,0,0,0,0,0,0,0,-1,1203,1541,0,0
-14,-517,0,0,0,0,0,0,0,0,0,-1,1210,1541,0,0
-7,-517,0,0,0,0,0,0,0,0,0,-1,1217,1541,0,0
0,-517,0,0,0,0,0,0,0,0,0,-1,1224,1541,0,0
7,-517,0,0,0,0,0,0,0,0,0,-1,1231,1541,0,0
14,-517,0,0,0,0,0,0,0,0,0,-1,1238,1541,0,0
21,-517,0,0,0,0,0,0,0,0,0,-1,1245,1541,0,0
28,-517,0,0,0,0,0,0,0,0,0,-1,1252,1541,0,0
35,-517,0,0,0,0,0,0,0,0,0,-1,1259,1541,0,0
42,-517,0,0,0,0,0,0,0,0,0,-1,1266,1541,0,0
49,-517,0,0,0,0,0,0,0,0,0,-1,1273,1541,0,0
56,-517,0,0,0,0,0,0,0,0,0,-1,1280,1541,0,0
63,-517,0,0,0,0,0,0,0,0,0,-1,1287,1541,0,0
70,-517,0,0,0,0,0,0,0,0,0,-1,1294,1541,0,0
77,-517,0,0,0,0,0,0,0,0,0,-1,1301,1541,0,0
84,-517,0,0,0,0,0,0,0,0,0,-1,1308,1541,0,0
91,-517,0,0,0,0,0,0,0,0,0,-1,1315,1541,0,0
98,-517,0,0,0,0,0,0,0,0,0,-1,1322,1541,0,0
105,-517,0,0,0,0,0,0,0,0,0,-1,1329,1541,0,0
112,-517,0,0,0,0,0,0,0,0,0,-1,1336,1541,0,0
119,-517,0,0,0,0,0,0,0,0,0,-1,1343,1541,0,0
126,-517,0,0,0,0,0,0,0,0,0,-1,1350,1541,0,0
133,-517,0,0,0,0,0,0,0,0,0,-1,1357,1541,0,0
140,-517,0,0,0,0,0,0,0,0,0,-1,1364,1541,0,0
147,-517,0,0,0,0,0,0,0,0,0,-1,1371,1541,0,0
154,-517,0,0,0,0,0,0,0,0,0,-1,1378,1541,0,0
161,-517,0,0,0,0,0,0,0,0,0,-1,1385,1541,0,0
168,-517,0,0,0,0,0,0,0,0,0,-1,1392,1541,0,0
175,-517,0,0,0,0,0,0,0,0,0,-1,1399,1541,0,0
182,-517,0,0,0,0,0,0,0,0,0,-1,1406,1541,0,0
189,-517,0,0,0,0,0,0,0,0,0,-1,1413,1541,0,0
196,-517,0,0,0,0,0,0,0,0,0,-1,1420,1541,0,0
203,-517,0,0,0,0,0,0,0,0,0,-1,1427,1541,0,0
210,-517,0,0,0,0,0,0,0,0,0,-1,1434,1541,0,0
217,-517,0,0,0,0,0,0,0,0,0,-1,1441,1541,0,0
224,-517,0,0,0,0,0,0,0,0,0,-1,1448,1541,0,0
231,-517,0,0,0,0,0,0,0,0,0,-1,1455,1541,0,0
238,-517,0,0,0,0,0,0,0,0,0,-1,1462,1541,0,0
245,-517,0,0,0,0,0,0,0,0,0,-1,1469,1541,0,0
252,-517,0,0,0,0,0,0,0,0,0,-1,1476,1541,0,0
259,-517,0,0,0,0,0,0,0,0,0,-1,1483,1541,0,0
266,-517,0,0,0,0,0,0,0,0,0,-1,1490,1541,0,0
273,-517,0,0,0,0,0,0,0,0,0,-1,1497,1541,0,0
280,-517,0,0,0,0,0,0,0,0,0,-1,1504,1541,0,0
287,-517,0,0,0,0,0,0,0,0,0,-1,1511,1541,0,0
294,-517,0,0,0,0,0,0,0,0,0,-1,1518,1541,0,0
301,-517,0,0,0,0,0,0,0,0,0,-1,1525,1541,0,0
308,-517,0,0,0,0,0,0,0,0,0,-1,1532,1541,0,0
315,-517,0,0,0,0,0,0,0,0,0,-1,1539,1541,0,0
322,-517,0,0,0,0,0,0,0,0,0,-1,1546,1541,0,0
329,-517,0,0,0,0,0,0,0,0,0,-1,1553,1541,0,0
336,-517,0,0,0,0,0,0,0,0,0,-1,1560,1541,0,0
343,-517,0,0,0,0,0,0,0,0,0,-1,1567,1541,0,0
350,-517,0,0,0,0,0,0,0,0,0,-1,1574,1541,0,0
357,-517,0,0,0,0,0,0,0,0,0,-1,1581,1541,0,0
364,-517,0,0,0,0,0,0,0,0,0,-1,1588,1541,0,0
371,-517,0,0,0,0,0,0,0,0,0,-1,1595,1541,0,0
378,-517,0,0,0,0,0,0,0,0,0,-1,1602,1541,0,0
385,-517,0,0,0,0,0,0,0,0,0,-1,1609,1541,0,0
392,-517,0,0,0,0,0,0,0,0,0,-1,1616,1541,0,0
399,-517,0,0,0,0,0,0,0,0,0,-1,1623,1541,0,0
406,-517,13.1395,7.01978,0,0,0,0,0,0,0,-1,1630,1541,13.1396,-7.01981
413,-517,12.8859,6.31592,0,0,0,0,0,0,0,-1,1637,1541,12.8858,-6.31588
420,-517,12.4789,6.20337,0,0,0,0,0,0,0,-1,1644,1541,12.4789,-6.20333
427,-517,11.647,4.66516,0,0,0,0,0,0,0,-1,1651,1541,11.647,-4.66519
434,-517,12.3719,3.92773,0,0,0,0,0,0,0,-1,1658,1541,12.3719,-3.92776
441,-517,13.146,3.14124,0,0,0,0,0,0,0,-1,1665,1541,13.146,-3.14121
448,-517,13.8861,2.36682,0,0,0,0,0,0,0,-1,1672,1541,13.8861,-2.36684
455,-517,13.6012,4.06335,0,0,0,0,0,0,0,-1,1679,1541,13.6012,-4.06335
462,-517,14.8956,7.0752,0,0,0,0,0,0,0,-1,1686,1541,14.8956,-7.07525
469,-517,13.6292,6.87744,0,0,0,0,0,0,0,-1,1693,1541,13.6292,-6.87739
476,-517,14.2998,12.3209,0,0,0,0,0,0,0,-1,1700,1541,14.2998,-12.321
483,-517,14.3672,12.9915,0,0,0,0,0,0,0,-1,1707,1541,14.3672,-12.9915
490,-517,14.1068,16.4156,0,0,0,0,0,0,0,-1,1714,1541,14.1068,-16.4157
497,-517,13.9869,16.3938,-0.00999399,-0.0344988,0.0345164,0.0143801,-0.0588729,0.614849,0.0448177,0.0481317,1721,1541,13.9869,-16.3938
504,-517,13.7407,16.4053,-0.0081642,-0.0226863,0.0246812,0.0103019,-0.0411524,0.642338,0.0314366,0.0474931,1728,1541,13.7407,-16.4053
511,-517,13.1798,16.7207,0,0,0,0,0,0,0,-1,1735,1541,13.1798,-16.7207
518,-517,13.3546,16.2207,-0.00493205,-0.00885071,0.0121302,0.00539604,-0.0191788,0.705327,0.0149136,0.0446568,1742,1541,13.3546,-16.2207
525,-517,13.4126,15.7581,-0.00381826,-0.00435743,0.00791557,0.00383232,-0.012008,0.768376,0.00954283,0.0151401,1749,1541,13.4126,-15.758
532,-517,13.5156,15.375,-0.00301199,-0.00143959,0.00479239,0.00263066,-0.00708224,0.8667,0.00580075,0.0102457,1756,1541,13.5157,-15.375
539,-517,13.5413,15.0466,-0.00207623,-0.000949307,0.00349489,0.00202725,-0.00505279,0.865323,0.00421023,0.0120627,1763,1541,13.5413,-15.0467
546,-517,13.5116,14.7709,-0.0013064,-0.000824279,0.0025231,0.00146925,-0.00359993,0.833024,0.00301164,0.0134678,1770,1541,13.5116,-14.7708
553,-517,13.4913,14.4534,-0.000564475,-0.000637551,0.0015315,0.000930924,-0.00213295,0.773472,0.00181374,0.0167687,1777,1541,13.4914,-14.4534
560,-517,13.4971,14.1166,8.54886e-05,-0.00050063,0.000906436,0.000745062,-0.0011602,0.629047,0.00110868,0.0168257,1784,1541,13.4971,-14.1166
567,-517,13.4897,13.7876,0.000673618,-0.000646167,0.000416609,0.000794123,-0.000766672,0.281569,0.000901172,0.0131952,1791,1541,13.4898,-13.7876
574,-517,13.4845,13.4474,0.00136852,-0.000320824,-0.000358592,0.00144149,-0.000393789,-0.200738,0.00111567,0.0136855,1798,1541,13.4845,-13.4474
581,-517,13.4678,13.1185,0.00211114,2.17267e-05,-0.00107696,0.00256685,-0.000433985,-0.400299,0.00187274,0.0158161,1805,1541,13.4678,-13.1186
588,-517,13.4773,12.7758,0.00276975,0.000153468,-0.0017145,0.00361816,-0.000694948,-0.459518,0.00267403,0.0168019,1812,1541,13.4773,-12.7757
595,-517,13.5292,12.4862,0.00337546,0.000479294,-0.00244116,0.00476572,-0.000910969,-0.517698,0.00352031,0.0351591,1819,1541,13.5292,-12.4862
602,-517,13.5027,11.8103,0,0,0,0,0,0,0,-1,1826,1541,13.5026,-11.8103
609,-517,12.6417,10.8751,0,0,0,0,0,0,0,-1,1833,1541,12.6417,-10.8751
616,-517,14.205,10.3193,0,0,0,0,0,0,0,-1,1840,1541,14.205,-10.3194
623,-517,12.578,10.0779,0,0,0,0,0,0,0,-1,1847,1541,12.578,-10.0779
630,-517,11.7035,7.47815,0,0,0,0,0,0,0,-1,1854,1541,11.7035,-7.47812
637,-517,11.5172,5.79822,0,0,0,0,0,0,0,-1,1861,1541,11.5173,-5.79825
644,-517,11.4232,3.30579,0,0,0,0,0,0,0,-1,1868,1541,11.4232,-3.30574
651,-517,0,0,0,0,0,0,0,0,0,-1,1875,1541,0,0
658,-517,0,0,0,0,0,0,0,0,0,-1,1882,1541,0,0
665,-517,0,0,0,0,0,0,0,0,0,-1,1889,1541,0,0
672,-517,0,0,0,0,0,0,0,0,0,-1,1896,1541,0,0
679,-517,0,0,0,0,0,0,0,0,0,-1,1903,1541,0,0
686,-517,0,0,0,0,0,0,0,0,0,-1,1910,1541,0,0
693,-517,0,0,0,0,0,0,0,0,0,-1,1917,1541,0,0
700,-517,0,0,0,0,0,0,0,0,0,-1,1924,1541,0,0
707,-517,0,0,0,0,0,0,0,0,0,-1,1931,1541,0,0
714,-517,0,0,0,0,0,0,0,0,0,-1,1938,1541,0,0
721,-517,0,0,0,0,0,0,0,0,0,-1,1945,1541,0,0
728,-517,0,0,0,0,0,0,0,0,0,-1,1952,1541,0,0
735,-517,0,0,0,0,0,0,0,0,0,-1,1959,1541,0,0
742,-517,0,0,0,0,0,0,0,0,0,-1,1966,1541,0,0
749,-517,0,0,0,0,0,0,0,0,0,-1,1973,1541,0,0
756,-517,0,0,0,0,0,0,0,0,0,-1,1980,1541,0,0
763,-517,0,0,0,0,0,0,0,0,0,-1,1987,1541,0,0
770,-517,0,0,0,0,0,0,0,0,0,-1,1994,1541,0,0
777,-517,0,0,0,0,0,0,0,0,0,-1,2001,1541,0,0
784,-517,0,0,0,0,0,0,0,0,0,-1,2008,1541,0,0
791,-517,0,0,0,0,0,0,0,0,0,-1,2015,1541,0,0
798,-517,0,0,0,0,0,0,0,0,0,-1,2022,1541,0,0
805,-517,0,0,0,0,0,0,0,0,0,-1,2029,1541,0,0
812,-517,0,0,0,0,0,0,0,0,0,-1,2036,1541,0,0
-700,-524,0,0,0,0,0,0,0,0,0,-1,524,1548,0,0
-693,-524,0,0,0,0,0,0,0,0,0,-1,531,1548,0,0
-686,-524,0,0,0,0,0,0,0,0,0,-1,538,1548,0,0
-679,-524,0,0,0,0,0,0,0,0,0,-1,545,1548,0,0
-672,-524,0,0,0,0,0,0,0,0,0,-1,552,1548,0,0
-665,-524,0,0,0,0,0,0,0,0,0,-1,559,1548,0,0
-658,-524,0,0,0,0,0,0,0,0,0,-1,566,1548,0,0
-651,-524,0,0,0,0,0,0,0,0,0,-1,573,1548,0,0
-644,-524,0,0,0,0,0,0,0,0,0,-1,580,1548,0,0
-637,-524,0,0,0,0,0,0,0,0,0,-1,587,1548,0,0
-630,-524,0,0,0,0,0,0,0,0,0,-1,594,1548,0,0
-623,-524,0,0,0,0,0,0,0,0,0,-1,601,1548,0,0
-616,-524,0,0,0,0,0,0,0,0,0,-1,608,1548,0,0
-609,-524,0,0,0,0,0,0,0,0,0,-1,615,1548,0,0
-602,-524,0,0,0,0,0,0,0,0,0,-1,622,1548,0,0
-595,-524,0,0,0,0,0,0,0,0,0,-1,629,1548,0,0
-588,-524,0,0,0,0,0,0,0,0,0,-1,636,1548,0,0
-581,-524,0,0,0,0,0,0,0,0,0,-1,643,1548,0,0
-574,-524,0,0,0,0,0,0,0,0,0,-1,650,1548,0,0
-567,-524,0,0,0,0,0,0,0,0,0,-1,657,1548,0,0
-560,-524,0,0,0,0,0,0,0,0,0,-1,664,1548,0,0
-553,-524,0,0,0,0,0,0,0,0,0,-1,671,1548,0,0
-546,-524,0,0,0,0,0,0,0,0,0,-1,678,1548,0,0
-539,-524,0,0,0,0,0,0,0,0,0,-1,685,1548,0,0
-532,-524,0,0,0,0,0,0,0,0,0,-1,692,1548,0,0
-525,-524,-0.215515,3.97131,0,0,0,0,0,0,0,-1,699,1548,-0.215501,-3.97136
-518,-524,-0.806274,4.35632,0,0,0,0,0,0,0,-1,706,1548,-0.806259,-4.35633
-511,-524,-1.08301,4.29004,0,0,0,0,0,0,0,-1,713,1548,-1.08301,-4.29006
-504,-524,-1.28821,3.98145,0,0,0,0,0,0,0,-1,720,1548,-1.28822,-3.98151
-497,-524,-0.420349,8.55383,0,0,0,0,0,0,0,-1,727,1548,-0.420322,-8.55384
-490,-524,-0.482727,9.06616,0,0,0,0,0,0,0,-1,734,1548,-0.482748,-9.0661
-483,-524,-0.708801,9.56201,0,0,0,0,0,0,0,-1,741,1548,-0.708815,-9.562
-476,-524,-1.23914,9.9491,-0.00657614,0.00753699,0.00198824,0.00781174,-0.00685089,1.43348,0.00847153,0.0438423,748,1548,-1.23917,-9.94905
-469,-524,-1.20074,10.5519,-0.00495548,0.00614219,0.00195292,0.00647583,-0.00528912,1.40159,0.006804,0.0338538,755,1548,-1.20076,-10.5519
-462,-524,-1.22076,10.9556,-0.00356938,0.00513173,0.00176496,0.00547611,-0.00391376,1.3781,0.0054462,0.0273289,762,1548,-1.22078,-10.9555
-455,-524,-1.27832,11.2406,-0.00230568,0.00427967,0.00163731,0.00466429,-0.0026903,1.34007,0.00429686,0.0197753,769,1548,-1.27832,-11.2406
-448,-524,-1.26007,11.5933,-0.00153864,0.00356621,0.00147835,0.00396343,-0.00193586,1.30831,0.00347236,0.0132811,776,1548,-1.26008,-11.5933
-441,-524,-1.27832,11.9441,-0.000593912,0.00280336,0.00144909,0.00333748,-0.00112804,1.21765,0.0026813,0.0112725,783,1548,-1.27834,-11.9441
-434,-524,-1.25769,12.2771,0.00044142,0.00255053,0.00157903,0.00339477,-0.000402823,1.07981,0.00240871,0.0130241,790,1548,-1.25768,-12.2771
-427,-524,-1.25934,12.6543,0.0013857,0.00241144,0.00180005,0.00377026,2.68829e-05,0.924181,0.00250459,0.0127586,797,1548,-1.25931,-12.6542
-420,-524,-1.28912,13.0367,0.0021437,0.00247349,0.0019853,0.00430073,0.000316462,0.826831,0.0027677,0.0103727,804,1548,-1.28912,-13.0367
-413,-524,-1.28949,13.3763,0.00288149,0.00282445,0.00236843,0.00522158,0.00048437,0.779378,0.00333135,0.00983623,811,1548,-1.28948,-13.3763
-406,-524,-1.29846,13.7231,0.00362165,0.00350161,0.00296141,0.00652365,0.000599615,0.775266,0.00416365,0.0103925,818,1548,-1.29845,-13.7231
-399,-524,-1.30249,14.0845,0.00427606,0.00446302,0.00351808,0.00788887,0.000850212,0.79868,0.00499999,0.00873457,825,1548,-1.30249,-14.0845
-392,-524,-1.29614,14.4359,0.00501203,0.00588062,0.00411481,0.00958399,0.00130866,0.837976,0.00600086,0.00989152,832,1548,-1.29613,-14.436
-385,-524,-1.30493,14.8059,0.00607881,0.00683707,0.00259994,0.00908537,0.0038305,0.857799,0.00526688,0.0128407,839,1548,-1.30495,-14.8059
-378,-524,-1.25104,15.3578,0.00738489,0.0122306,-0.00123291,0.0125262,0.00708924,-1.33544,0.00725295,0.0354465,846,1548,-1.25101,-15.3578
-371,-524,-1.17731,15.8948,0,0,0,0,0,0,0,-1,853,1548,-1.17734,-15.8948
-364,-524,-0.712097,14.9871,0,0,0,0,0,0,0,-1,860,1548,-0.712116,-14.9871
-357,-524,-1.34052,14.7448,0,0,0,0,0,0,0,-1,867,1548,-1.34054,-14.7447
-350,-524,-2.63245,12.7522,0,0,0,0,0,0,0,-1,874,1548,-2.63245,-12.7522
-343,-524,-3.11719,14.8851,0,0,0,0,0,0,0,-1,881,1548,-3.11718,-14.8851
-336,-524,-3.10358,16.642,0,0,0,0,0,0,0,-1,888,1548,-3.10361,-16.6419
-329,-524,-3.09003,18.3987,0,0,0,0,0,0,0,-1,895,1548,-3.09003,-18.3987
-322,-524,-2.88702,18.4606,0,0,0,0,0,0,0,-1,902,1548,-2.88699,-18.4606
-315,-524,-1.90839,19.4824,0,0,0,0,0,0,0,-1,909,1548,-1.90838,-19.4824
-308,-524,-2.36938,19.3059,0,0,0,0,0,0,0,-1,916,1548,-2.3694,-19.3058
-301,-524,2.72394,17.7618,0,0,0,0,0,0,0,-1,923,1548,2.72396,-17.7619
-294,-524,-1.52515,9.05408,0,0,0,0,0,0,0,-1,930,1548,-1.52512,-9.05411
-287,-524,-0.962219,10.3199,0,0,0,0,0,0,0,-1,937,1548,-0.962241,-10.32
-280,-524,-1.36255,10.3859,0,0,0,0,0,0,0,-1,944,1548,-1.36253,-10.3859
-273,-524,0,0,0,0,0,0,0,0,0,-1,951,1548,0,0
-266,-524,0,0,0,0,0,0,0,0,0,-1,958,1548,0,0
-259,-524,0,0,0,0,0,0,0,0,0,-1,965,1548,0,0
-252,-524,0,0,0,0,0,0,0,0,0,-1,972,1548,0,0
-245,-524,0,0,0,0,0,0,0,0,0,-1,979,1548,0,0
-238,-524,0,0,0,0,0,0,0,0,0,-1,986,1548,0,0
-231,-524,0,0,0,0,0,0,0,0,0,-1,993,1548,0,0
-224,-524,0,0,0,0,0,0,0,0,0,-1,1000,1548,0,0
-217,-524,0,0,0,0,0,0,0,0,0,-1,1007,1548,0,0
-210,-524,0,0,0,0,0,0,0,0,0,-1,1014,1548,0,0
-203,-524,0,0,0,0,0,0,0,0,0,-1,1021,1548,0,0
-196,-524,0,0,0,0,0,0,0,0,0,-1,1028,1548,0,0
-189,-524,0,0,0,0,0,0,0,0,0,-1,1035,1548,0,0
-182,-524,0,0,0,0,0,0,0,0,0,-1,1042,1548,0,0
-175,-524,0,0,0,0,0,0,0,0,0,-1,1049,1548,0,0
-168,-524,0,0,0,0,0,0,0,0,0,-1,1056,1548,0,0
-161,-524,0,0,0,0,0,0,0,0,0,-1,1063,1548,0,0
-154,-524,0,0,0,0,0,0,0,0,0,-1,1070,1548,0,0
-147,-524,0,0,0,0,0,0,0,0,0,-1,1077,1548,0,0
-140,-524,0,0,0,0,0,0,0,0,0,-1,1084,1548,0,0
-133,-524,0,0,0,0,0,0,0,0,0,-1,1091,1548,0,0
-126,-524,0,0,0,0,0,0,0,0,0,-1,1098,1548,0,0
-119,-524,0,0,0,0,0,0,0,0,0,-1,1105,1548,0,0
-112,-524,0,0,0,0,0,0,0,0,0,-1,1112,1548,0,0
-105,-524,0,0,0,0,0,0,0,0,0,-1,1119,1548,0,0
-98,-524,0,0,0,0,0,0,0,0,0,-1,1126,1548,0,0
-91,-524,0,0,0,0,0,0,0,0,0,-1,1133,1548,0,0
-84,-524,0,0,0,0,0,0,0,0,0,-1,1140,1548,0,0
-77,-524,0,0,0,0,0,0,0,0,0,-1,1147,1548,0,0
-70,-524,0,0,0,0,0,0,0,0,0,-1,1154,1548,0,0
-63,-524,0,0,0,0,0,0,0,0,0,-1,1161,1548,0,0
-56,-524,0,0,0,0,0,0,0,0,0,-1,1168,1548,0,0
-49,-524,0,0,0,0,0,0,0,0,0,-1,1175,1548,0,0
-42,-524,0,0,0,0,0,0,0,0,0,-1,1182,1548,0,0
-35,-524,0,0,0,0,0,0,0,0,0,-1,1189,1548,0,0
-28,-524,0,0,0,0,0,0,0,0,0,-1,1196,1548,0,0
-21,-524,0,0,0,0,0,0,0,0,0,-1,1203,1548,0,0
-14,-524,0,0,0,0,0,0,0,0,0,-1,1210,1548,0,0
-7,-524,0,0,0,0,0,0,0,0,0,-1,1217,1548,0,0
0,-524,0,0,0,0,0,0,0,0,0,-1,1224,1548,0,0
7,-524,0,0,0,0,0,0,0,0,0,-1,1231,1548,0,0
14,-524,0,0,0,0,0,0,0,0,0,-1,1238,1548,0,0
21,-524,0,0,0,0,0,0,0,0,0,-1,1245,1548,0,0
28,-524,0,0,0,0,0,0,0,0,0,-1,1252,1548,0,0
35,-524,0,0,0,0,0,0,0,0,0,-1,1259,1548,0,0
42,-524,0,0,0,0,0,0,0,0,0,-1,1266,1548,0,0
49,-524,0,0,0,0,0,0,0,0,0,-1,1273,1548,0,0
56,-524,0,0,0,0,0,0,0,0,0,-1,1280,1548,0,0
63,-524,0,0,0,0,0,0,0,0,0,-1,1287,1548,0,0
70,-524,0,0,0,0,0,0,0,0,0,-1,1294,1548,0,0
77,-524,0,0,0,0,0,0,0,0,0,-1,1301,1548,0,0
84,-524,0,0,0,0,0,0,0,0,0,-1,1308,1548,0,0
91,-524,0,0,0,0,0,0,0,0,0,-1,1315,1548,0,0
98,-524,0,0,0,0,0,0,0,0,0,-1,1322,1548,0,0
105,-524,0,0,0,0,0,0,0,0,0,-1,1329,1548,0,0
112,-524,0,0,0,0,0,0,0,0,0,-1,1336,1548,0,0
119,-524,0,0,0,0,0,0,0,0,0,-1,1343,1548,0,0
126,-524,0,0,0,0,0,0,0,0,0,-1,1350,1548,0,0
133,-524,0,0,0,0,0,0,0,0,0,-1,1357,1548,0,0
140,-524,0,0,0,0,0,0,0,0,0,-1,1364,1548,0,0
147,-524,0,0,0,0,0,0,0,0,0,-1,1371,1548,0,0
154,-524,0,0,0,0,0,0,0,0,0,-1,1378,1548,0,0
161,-524,0,0,0,0,0,0,0,0,0,-1,1385,1548,0,0
168,-524,0,0,0,0,0,0,0,0,0,-1,1392,1548,0,0
175,-524,0,0,0,0,0,0,0,0,0,-1,1399,1548,0,0
182,-524,0,0,0,0,0,0,0,0,0,-1,1406,1548,0,0
189,-524,0,0,0,0,0,0,0,0,0,-1,1413,1548,0,0
196,-524,0,0,0,0,0,0,0,0,0,-1,1420,1548,0,0
203,-524,0,0,0,0,0,0,0,0,0,-1,1427,1548,0,0
210,-524,0,0,0,0,0,0,0,0,0,-1,1434,1548,0,0
217,-524,0,0,0,0,0,0,0,0,0,-1,1441,1548,0,0
224,-524,0,0,0,0,0,0,0,0,0,-1,1448,1548,0,0
231,-524,0,0,0,0,0,0,0,0,0,-1,1455,1548,0,0
238,-524,0,0,0,0,0,0,0,0,0,-1,1462,1548,0,0
245,-524,0,0,0,0,0,0,0,0,0,-1,1469,1548,0,0
252,-524,0,0,0,0,0,0,0,0,0,-1,1476,1548,0,0
259,-524,0,0,0,0,0,0,0,0,0,-1,1483,1548,0,0
266,-524,0,0,0,0,0,0,0,0,0,-1,1490,1548,0,0
273,-524,0,0,0,0,0,0,0,0,0,-1,1497,1548,0,0
280,-524,0,0,0,0,0,0,0,0,0,-1,1504,1548,0,0
287,-524,0,0,0,0,0,0,0,0,0,-1,1511,1548,0,0
294,-524,0,0,0,0,0,0,0,0,0,-1,1518,1548,0,0
301,-524,0,0,0,0,0,0,0,0,0,-1,1525,1548,0,0
308,-524,0,0,0,0,0,0,0,0,0,-1,1532,1548,0,0
315,-524,0,0,0,0,0,0,0,0,0,-1,1539,1548,0,0
322,-524,0,0,0,0,0,0,0,0,0,-1,1546,1548,0,0
329,-524,0,0,0,0,0,0,0,0,0,-1,1553,1548,0,0
336,-524,0,0,0,0,0,0,0,0,0,-1,1560,1548,0,0
343,-524,0,0,0,0,0,0,0,0,0,-1,1567,1548,0,0
350,-524,0,0,0,0,0,0,0,0,0,-1,1574,1548,0,0
357,-524,0,0,0,0,0,0,0,0,0,-1,1581,1548,0,0
364,-524,0,0,0,0,0,0,0,0,0,-1,1588,1548,0,0
371,-524,0,0,0,0,0,0,0,0,0,-1,1595,1548,0,0
378,-524,0,0,0,0,0,0,0,0,0,-1,1602,1548,0,0
385,-524,0,0,0,0,0,0,0,0,0,-1,1609,1548,0,0
392,-524,0,0,0,0,0,0,0,0,0,-1,1616,1548,0,0
399,-524,8.81848,5.05774,0,0,0,0,0,0,0,-1,1623,1548,8.81843,-5.05769
406,-524,8.64294,6.06799,0,0,0,0,0,0,0,-1,1630,1548,8.6429,-6.06805
413,-524,11.677,6.41858,0,0,0,0,0,0,0,-1,1637,1548,11.677,-6.41864
420,-524,11.4913,6.36401,0,0,0,0,0,0,0,-1,1644,1548,11.4913,-6.36402
427,-524,7.68335,6.17249,0,0,0,0,0,0,0,-1,1651,1548,7.68341,-6.17245
434,-524,10.432,11.6801,0,0,0,0,0,0,0,-1,1658,1548,10.432,-11.68
441,-524,8.78552,4.12305,0,0,0,0,0,0,0,-1,1665,1548,8.78553,-4.12301
448,-524,14.1854,4.78674,0,0,0,0,0,0,0,-1,1672,1548,14.1854,-4.78674
455,-524,12.4784,3.65576,0,0,0,0,0,0,0,-1,1679,1548,12.4784,-3.65572
462,-524,14.7551,9.29395,0,0,0,0,0,0,0,-1,1686,1548,14.7552,-9.29397
469,-524,13.6931,12.1787,0,0,0,0,0,0,0,-1,1693,1548,13.6932,-12.1787
476,-524,13.8254,13.4066,-0.0110275,-0.0763265,0.0626195,0.026943,-0.114297,0.54509,0.0865878,0.0479258,1700,1548,13.8254,-13.4066
483,-524,13.8025,14.4807,0,0,0,0,0,0,0,-1,1707,1548,13.8025,-14.4807
490,-524,13.5695,15.5215,0,0,0,0,0,0,0,-1,1714,1548,13.5695,-15.5215
497,-524,13.2295,16.568,-0.00689672,-0.0269827,0.0266112,0.0115035,-0.045383,0.604963,0.0347308,0.0447947,1721,1548,13.2295,-16.568
504,-524,13.1378,16.6169,-0.00539442,-0.017779,0.0190154,0.00841155,-0.0315849,0.62799,0.0243497,0.0297311,1728,1548,13.1378,-16.6169
511,-524,13.0868,16.436,-0.0040362,-0.0111234,0.0132538,0.00613957,-0.0212991,0.654772,0.0166281,0.0271806,1735,1548,13.0868,-16.4361
518,-524,13.1779,16.0221,-0.00304822,-0.00684258,0.00920441,0.0044525,-0.0143433,0.683763,0.0113415,0.0203527,1742,1548,13.1779,-16.0221
525,-524,13.1719,15.7285,-0.00226142,-0.00318909,0.00583597,0.00312912,-0.00857963,0.745742,0.00699994,0.0142224,1749,1548,13.1719,-15.7285
532,-524,13.2048,15.3956,-0.00170075,-0.000850209,0.0033535,0.00210488,-0.00465584,0.848469,0.00399485,0.00995959,1756,1548,13.2049,-15.3957
539,-524,13.2012,15.0559,-0.00099744,-0.00055735,0.00239704,0.00162972,-0.00318451,0.831169,0.0028274,0.0110212,1763,1548,13.2011,-15.0558
546,-524,13.1703,14.7504,-0.00044449,-0.000619761,0.00171864,0.00118875,-0.002253,0.759925,0.00201851,0.0146207,1770,1548,13.1703,-14.7503
553,-524,13.1692,14.4456,8.02821e-05,-0.000618118,0.00103403,0.000822488,-0.00136032,0.622558,0.00127294,0.0234282,1777,1548,13.1692,-14.4455
560,-524,13.1847,14.1398,0.000554028,-0.000669507,0.000650056,0.000834916,-0.000950395,0.407866,0.00103147,0.0323853,1784,1548,13.1847,-14.1397
567,-524,13.1753,13.8048,0.00103638,-0.00095626,0.000319224,0.00108627,-0.00100615,0.155034,0.00120836,0.0178968,1791,1548,13.1753,-13.8048
574,-524,13.1722,13.4626,0.00169176,-0.000712013,-0.000378436,0.00174993,-0.000770184,-0.152521,0.00149119,0.0128168,1798,1548,13.1722,-13.4627
581,-524,13.1638,13.1124,0.00244569,-0.000443522,-0.00104891,0.00278633,-0.000784161,-0.31401,0.00216677,0.0144098,1805,1548,13.1638,-13.1124
588,-524,13.2026,12.7593,0.00309836,-0.000454406,-0.00160797,0.00371804,-0.00107409,-0.367839,0.00290371,0.0192904,1812,1548,13.2026,-12.7593
595,-524,13.2511,12.2982,0,0,0,0,0,0,0,-1,1819,1548,13.2511,-12.2982
602,-524,12.6965,11.2931,0,0,0,0,0,0,0,-1,1826,1548,12.6966,-11.2931
609,-524,13.0056,10.5138,0,0,0,0,0,0,0,-1,1833,1548,13.0056,-10.5138
616,-524,11.6941,8.65515,0,0,0,0,0,0,0,-1,1840,1548,11.6941,-8.65514
623,-524,9.38452,5.15356,0,0,0,0,0,0,0,-1,1847,1548,9.38456,-5.15359
630,-524,11.0541,3.57434,0,0,0,0,0,0,0,-1,1854,1548,11.0541,-3.57438
637,-524,11.6067,3.20728,0,0,0,0,0,0,0,-1,1861,1548,11.6067,-3.20724
644,-524,12.2134,0.727173,0,0,0,0,0,0,0,-1,1868,1548,12.2134,-0.727222
651,-524,0,0,0,0,0,0,0,0,0,-1,1875,1548,0,0
658,-524,0,0,0,0,0,0,0,0,0,-1,1882,1548,0,0
665,-524,0,0,0,0,0,0,0,0,0,-1,1889,1548,0,0
672,-524,0,0,0,0,0,0,0,0,0,-1,1896,1548,0,0
679,-524,0,0,0,0,0,0,0,0,0,-1,1903,1548,0,0
686,-524,0,0,0,0,0,0,0,0,0,-1,1910,1548,0,0
693,-524,0,0,0,0,0,0,0,0,0,-1,1917,1548,0,0
700,-524,0,0,0,0,0,0,0,0,0,-1,1924,1548,0,0
707,-524,0,0,0,0,0,0,0,0,0,-1,1931,1548,0,0
714,-524,0,0,0,0,0,0,0,0,0,-1,1938,1548,0,0
721,-524,0,0,0,0,0,0,0,0,0,-1,1945,1548,0,0
728,-524,0,0,0,0,0,0,0,0,0,-1,1952,1548,0,0
735,-524,0,0,0,0,0,0,0,0,0,-1,1959,1548,0,0
742,-524,0,0,0,0,0,0,0,0,0,-1,1966,1548,0,0
749,-524,0,0,0,0,0,0,0,0,0,-1,1973,1548,0,0
756,-524,0,0,0,0,0,0,0,0,0,-1,1980,1548,0,0
763,-524,0,0,0,0,0,0,0,0,0,-1,1987,1548,0,0
770,-524,0,0,0,0,0,0,0,0,0,-1,1994,1548,0,0
777,-524,0,0,0,0,0,0,0,0,0,-1,2001,1548,0,0
784,-524,0,0,0,0,0,0,0,0,0,-1,2008,1548,0,0
791,-524,0,0,0,0,0,0,0,0,0,-1,2015,1548,0,0
798,-524,0,0,0,0,0,0,0,0,0,-1,2022,1548,0,0
805,-524,0,0,0,0,0,0,0,0,0,-1,2029,1548,0,0
812,-524,0,0,0,0,0,0,0,0,0,-1,2036,1548,0,0
-700,-531,0,0,0,0,0,0,0,0,0,-1,524,1555,0,0
-693,-531,0,0,0,0,0,0,0,0,0,-1,531,1555,0,0
-686,-531,0,0,0,0,0,0,0,0,0,-1,538,1555,0,0
-679,-531,0,0,0,0,0,0,0,0,0,-1,545,1555,0,0
-672,-531,0,0,0,0,0,0,0,0,0,-1,552,1555,0,0
-665,-531,0,0,0,0,0,0,0,0,0,-1,559,1555,0,0
-658,-531,0,0,0,0,0,0,0,0,0,-1,566,1555,0,0
-651,-531,0,0,0,0,0,0,0,0,0,-1,573,1555,0,0
-644,-531,0,0,0,0,0,0,0,0,0,-1,580,1555,0,0
-637,-531,0,0,0,0,0,0,0,0,0,-1,587,1555,0,0
-630,-531,0,0,0,0,0,0,0,0,0,-1,594,1555,0,0
-623,-531,0,0,0,0,0,0,0,0,0,-1,601,1555,0,0
-616,-531,0,0,0,0,0,0,0,0,0,-1,608,1555,0,0
-609,-531,0,0,0,0,0,0,0,0,0,-1,615,1555,0,0
-602,-531,0,0,0,0,0,0,0,0,0,-1,622,1555,0,0
-595,-531,0,0,0,0,0,0,0,0,0,-1,629,1555,0,0
-588,-531,0,0,0,0,0,0,0,0,0,-1,636,1555,0,0
-581,-531,0,0,0,0,0,0,0,0,0,-1,643,1555,0,0
-574,-531,0,0,0,0,0,0,0,0,0,-1,650,1555,0,0
-567,-531,0,0,0,0,0,0,0,0,0,-1,657,1555,0,0
-560,-531,0,0,0,0,0,0,0,0,0,-1,664,1555,0,0
-553,-531,0,0,0,0,0,0,0,0,0,-1,671,1555,0,0
-546,-531,0,0,0,0,0,0,0,0,0,-1,678,1555,0,0
-539,-531,0,0,0,0,0,0,0,0,0,-1,685,1555,0,0
-532,-531,0,0,0,0,0,0,0,0,0,-1,692,1555,0,0
-525,-531,0,0,0,0,0,0,0,0,0,-1,699,1555,0,0
-518,-531,-1.63983,4.03821,0,0,0,0,0,0,0,-1,706,1555,-1.63982,-4.03821
-511,-531,-2.9682,8.07483,0,0,0,0,0,0,0,-1,713,1555,-2.9682,-8.07479
-504,-531,-2.95978,0.557861,0,0,0,0,0,0,0,-1,720,1555,-2.95978,-0.557917
-497,-531,-2.46039,8.07422,0,0,0,0,0,0,0,-1,727,1555,-2.46039,-8.07423
-490,-531,-0.423462,7.92065,0,0,0,0,0,0,0,-1,734,1555,-0.42344,-7.92066
-483,-531,-0.192383,8.67261,0,0,0,0,0,0,0,-1,741,1555,-0.192401,-8.67255
-476,-531,-0.822815,9.96497,0,0,0,0,0,0,0,-1,748,1555,-0.822823,-9.96497
-469,-531,-0.94043,10.4518,-0.0042247,0.0089293,0.00372084,0.00990886,-0.00520426,1.31337,0.00886537,0.0416422,755,1555,-0.940452,-10.4517
-462,-531,-0.878174,11.0286,-0.00298459,0.00750492,0.00311898,0.00836225,-0.00384192,1.30255,0.00720539,0.0377578,762,1555,-0.878157,-11.0285
-455,-531,-0.943237,11.3961,-0.00193847,0.00623968,0.00267705,0.00703805,-0.00273684,1.28097,0.00582281,0.0299879,769,1555,-0.943263,-11.3961
-448,-531,-0.860352,11.6073,-0.0013923,0.00508507,0.00222358,0.00577492,-0.00208215,1.26997,0.00470032,0.0153378,776,1555,-0.86035,-11.6073
-441,-531,-0.915894,11.9547,-0.000713798,0.00396248,0.00191112,0.00464416,-0.00139547,1.22818,0.00365126,0.0122762,783,1555,-0.915888,-11.9548
-434,-531,-0.903137,12.3174,5.47227e-05,0.00333844,0.00179885,0.00413206,-0.000738897,1.1553,0.00303118,0.0124829,790,1555,-0.903136,-12.3173
-427,-531,-0.910156,12.6774,0.000789032,0.00285661,0.00181633,0.00391274,-0.0002671,1.04412,0.00270193,0.0141032,797,1555,-0.910175,-12.6774
-420,-531,-0.925232,13.0508,0.00135813,0.00262492,0.00178403,0.00388466,9.83878e-05,0.955975,0.00255761,0.0119397,804,1555,-0.925236,-13.0508
-413,-531,-0.950623,13.3916,0.00191411,0.00269951,0.00194929,0.00429526,0.000318352,0.884797,0.00276351,0.00990011,811,1555,-0.950607,-13.3916
-406,-531,-0.966675,13.7301,0.00251526,0.00314209,0.00234684,0.00519635,0.000460996,0.85178,0.00332125,0.0110786,818,1555,-0.966677,-13.7301
-399,-531,-0.947632,14.0762,0.00291259,0.00380842,0.00268673,0.00608431,0.000636698,0.867996,0.00386151,0.0124429,825,1555,-0.947618,-14.0762
-392,-531,-0.952759,14.4304,0.00344842,0.00478188,0.00308388,0.00727028,0.000960019,0.891859,0.00456065,0.0164434,832,1555,-0.95277,-14.4304
-385,-531,-1.00159,14.7825,0.00439978,0.00548894,0.00171063,0.00673958,0.00314914,0.939501,0.00389388,0.014299,839,1555,-1.00156,-14.7824
-378,-531,-0.993408,15.1008,0.00557307,0.00948154,-0.00146408,0.00996914,0.00508547,-1.24931,0.00575608,0.0136144,846,1555,-0.993391,-15.1008
-371,-531,-0.902527,15.5325,0.00663701,0.0125401,-0.00431405,0.0148157,0.00436145,-1.08541,0.00879163,0.0251939,853,1555,-0.90254,-15.5324
-364,-531,-0.703064,16.1705,0,0,0,0,0,0,0,-1,860,1555,-0.70305,-16.1705
-357,-531,-0.836182,16.3333,0,0,0,0,0,0,0,-1,867,1555,-0.836176,-16.3333
-350,-531,-1.289,16.9926,0,0,0,0,0,0,0,-1,874,1555,-1.28899,-16.9926
-343,-531,-1.82574,15.983,0,0,0,0,0,0,0,-1,881,1555,-1.82573,-15.983
-336,-531,-2.05994,16.856,0.0162081,0.0461438,-0.043196,0.0768917,-0.0145398,-0.95218,0.0567322,0.0461778,888,1555,-2.05996,-16.856
-329,-531,-2.3324,17.6653,0.0194284,0.0565287,-0.054457,0.0955083,-0.0195512,-0.949553,0.0710911,0.0487539,895,1555,-2.33242,-17.6653
-322,-531,-2.71924,18.2878,0,0,0,0,0,0,0,-1,902,1555,-2.71924,-18.2879
-315,-531,-1.26715,19.2592,0,0,0,0,0,0,0,-1,909,1555,-1.26717,-19.2592
-308,-531,-1.66455,19.0624,0,0,0,0,0,0,0,-1,916,1555,-1.66455,-19.0623
-301,-531,-2.02405,18.8912,0,0,0,0,0,0,0,-1,923,1555,-2.02407,-18.8913
-294,-531,-1.3244,8.1825,0,0,0,0,0,0,0,-1,930,1555,-1.3244,-8.18251
-287,-531,-1.78192,10.1661,0,0,0,0,0,0,0,-1,937,1555,-1.78192,-10.1661
-280,-531,-2.14508,10.3945,0,0,0,0,0,0,0,-1,944,1555,-2.14506,-10.3945
-273,-531,-2.50818,10.6229,0,0,0,0,0,0,0,-1,951,1555,-2.5082,-10.6229
-266,-531,-4.97742,17.9215,0,0,0,0,0,0,0,-1,958,1555,-4.97744,-17.9215
-259,-531,0,0,0,0,0,0,0,0,0,-1,965,1555,0,0
-252,-531,0,0,0,0,0,0,0,0,0,-1,972,1555,0,0
-245,-531,0,0,0,0,0,0,0,0,0,-1,979,1555,0,0
-238,-531,0,0,0,0,0,0,0,0,0,-1,986,1555,0,0
-231,-531,0,0,0,0,0,0,0,0,0,-1,993,1555,0,0
-224,-531,0,0,0,0,0,0,0,0,0,-1,1000,1555,0,0
-217,-531,0,0,0,0,0,0,0,0,0,-1,1007,1555,0,0
-210,-531,0,0,0,0,0,0,0,0,0,-1,1014,1555,0,0
-203,-531,0,0,0,0,0,0,0,0,0,-1,1021,1555,0,0
-196,-531,0,0,0,0,0,0,0,0,0,-1,1028,1555,0,0
-189,-531,0,0,0,0,0,0,0,0,0,-1,1035,1555,0,0
-182,-531,0,0,0,0,0,0,0,0,0,-1,1042,1555,0,0
-175,-531,0,0,0,0,0,0,0,0,0,-1,1049,1555,0,0
-168,-531,0,0,0,0,0,0,0,0,0,-1,1056,1555,0,0
-161,-531,0,0,0,0,0,0,0,0,0,-1,1063,1555,0,0
-154,-531,0,0,0,0,0,0,0,0,0,-1,1070,1555,0,0
-147,-531,0,0,0,0,0,0,0,0,0,-1,1077,1555,0,0
-140,-531,0,0,0,0,0,0,0,0,0,-1,1084,1555,0,0
-133,-531,0,0,0,0,0,0,0,0,0,-1,1091,1555,0,0
-126,-531,0,0,0,0,0,0,0,0,0,-1,1098,1555,0,0
-119,-531,0,0,0,0,0,0,0,0,0,-1,1105,1555,0,0
-112,-531,0,0,0,0,0,0,0,0,0,-1,1112,1555,0,0
-105,-531,0,0,0,0,0,0,0,0,0,-1,1119,1555,0,0
-98,-531,0,0,0,0,0,0,0,0,0,-1,1126,1555,0,0
-91,-531,0,0,0,0,0,0,0,0,0,-1,1133,1555,0,0
-84,-531,0,0,0,0,0,0,0,0,0,-1,1140,1555,0,0
-77,-531,0,0,0,0,0,0,0,0,0,-1,1147,1555,0,0
-70,-531,0,0,0,0,0,0,0,0,0,-1,1154,1555,0,0
-63,-531,0,0,0,0,0,0,0,0,0,-1,1161,1555,0,0
-56,-531,0,0,0,0,0,0,0,0,0,-1,1168,1555,0,0
-49,-531,0,0,0,0,0,0,0,0,0,-1,1175,1555,0,0
-42,-531,0,0,0,0,0,0,0,0,0,-1,1182,1555,0,0
-35,-531,0,0,0,0,0,0,0,0,0,-1,1189,1555,0,0
-28,-531,0,0,0,0,0,0,0,0,0,-1,1196,1555,0,0
-21,-531,0,0,0,0,0,0,0,0,0,-1,1203,1555,0,0
-14,-531,0,0,0,0,0,0,0,0,0,-1,1210,1555,0,0
-7,-531,0,0,0,0,0,0,0,0,0,-1,1217,1555,0,0
0,-531,0,0,0,0,0,0,0,0,0,-1,1224,1555,0,0
7,-531,0,0,0,0,0,0,0,0,0,-1,1231,1555,0,0
14,-531,0,0,0,0,0,0,0,0,0,-1,1238,1555,0,0
21,-531,0,0,0,0,0,0,0,0,0,-1,1245,1555,0,0
28,-531,0,0,0,0,0,0,0,0,0,-1,1252,1555,0,0
35,-531,0,0,0,0,0,0,0,0,0,-1,1259,1555,0,0
42,-531,0,0,0,0,0,0,0,0,0,-1,1266,1555,0,0
49,-531,0,0,0,0,0,0,0,0,0,-1,1273,1555,0,0
56,-531,0,0,0,0,0,0,0,0,0,-1,1280,1555,0,0
63,-531,0,0,0,0,0,0,0,0,0,-1,1287,1555,0,0
70,-531,0,0,0,0,0,0,0,0,0,-1,1294,1555,0,0
77,-531,0,0,0,0,0,0,0,0,0,-1,1301,1555,0,0
84,-531,0,0,0,0,0,0,0,0,0,-1,1308,1555,0,0
91,-531,0,0,0,0,0,0,0,0,0,-1,1315,1555,0,0
98,-531,0,0,0,0,0,0,0,0,0,-1,1322,1555,0,0
105,-531,0,0,0,0,0,0,0,0,0,-1,1329,1555,0,0
112,-531,0,0,0,0,0,0,0,0,0,-1,1336,1555,0,0
119,-531,0,0,0,0,0,0,0,0,0,-1,1343,1555,0,0
126,-531,0,0,0,0,0,0,0,0,0,-1,1350,1555,0,0
133,-531,0,0,0,0,0,0,0,0,0,-1,1357,1555,0,0
140,-531,0,0,0,0,0,0,0,0,0,-1,1364,1555,0,0
147,-531,0,0,0,0,0,0,0,0,0,-1,1371,1555,0,0
154,-531,0,0,0,0,0,0,0,0,0,-1,1378,1555,0,0
161,-531,0,0,0,0,0,0,0,0,0,-1,1385,1555,0,0
168,-531,0,0,0,0,0,0,0,0,0,-1,1392,1555,0,0
175,-531,0,0,0,0,0,0,0,0,0,-1,1399,1555,0,0
182,-531,0,0,0,0,0,0,0,0,0,-1,1406,1555,0,0
189,-531,0,0,0,0,0,0,0,0,0,-1,1413,1555,0,0
196,-531,0,0,0,0,0,0,0,0,0,-1,1420,1555,0,0
203,-531,0,0,0,0,0,0,0,0,0,-1,1427,1555,0,0
210,-531,0,0,0,0,0,0,0,0,0,-1,1434,1555,0,0
217,-531,0,0,0,0,0,0,0,0,0,-1,1441,1555,0,0
224,-531,0,0,0,0,0,0,0,0,0,-1,1448,1555,0,0
231,-531,0,0,0,0,0,0,0,0,0,-1,1455,1555,0,0
238,-531,0,0,0,0,0,0,0,0,0,-1,1462,1555,0,0
245,-531,0,0,0,0,0,0,0,0,0,-1,1469,1555,0,0
252,-531,0,0,0,0,0,0,0,0,0,-1,1476,1555,0,0
259,-531,0,0,0,0,0,0,0,0,0,-1,1483,1555,0,0
266,-531,0,0,0,0,0,0,0,0,0,-1,1490,1555,0,0
273,-531,0,0,0,0,0,0,0,0,0,-1,1497,1555,0,0
280,-531,0,0,0,0,0,0,0,0,0,-1,1504,1555,0,0
287,-531,0,0,0,0,0,0,0,0,0,-1,1511,1555,0,0
294,-531,0,0,0,0,0,0,0,0,0,-1,1518,1555,0,0
301,-531,0,0,0,0,0,0,0,0,0,-1,1525,1555,0,0
308,-531,0,0,0,0,0,0,0,0,0,-1,1532,1555,0,0
315,-531,0,0,0,0,0,0,0,0,0,-1,1539,1555,0,0
322,-531,0,0,0,0,0,0,0,0,0,-1,1546,1555,0,0
329,-531,0,0,0,0,0,0,0,0,0,-1,1553,1555,0,0
336,-531,0,0,0,0,0,0,0,0,0,-1,1560,1555,0,0
343,-531,0,0,0,0,0,0,0,0,0,-1,1567,1555,0,0
350,-531,0,0,0,0,0,0,0,0,0,-1,1574,1555,0,0
357,-531,0,0,0,0,0,0,0,0,0,-1,1581,1555,0,0
364,-531,0,0,0,0,0,0,0,0,0,-1,1588,1555,0,0
371,-531,0,0,0,0,0,0,0,0,0,-1,1595,1555,0,0
378,-531,0,0,0,0,0,0,0,0,0,-1,1602,1555,0,0
385,-531,3.48169,1.78625,0,0,0,0,0,0,0,-1,1609,1555,3.48165,-1.78624
392,-531,10.8781,9.09204,0,0,0,0,0,0,0,-1,1616,1555,10.8781,-9.09205
399,-531,8.26306,5.29602,0,0,0,0,0,0,0,-1,1623,1555,8.26302,-5.29607
406,-531,8.26147,5.42712,0,0,0,0,0,0,0,-1,1630,1555,8.26145,-5.42716
413,-531,8.20618,5.75012,0,0,0,0,0,0,0,-1,1637,1555,8.20619,-5.75017
420,-531,7.64868,7.09558,0,0,0,0,0,0,0,-1,1644,1555,7.64867,-7.09564
427,-531,9.93054,11.8412,0,0,0,0,0,0,0,-1,1651,1555,9.93059,-11.8412
434,-531,10.244,11.7072,0,0,0,0,0,0,0,-1,1658,1555,10.244,-11.7071
441,-531,11.4528,12.9397,0,0,0,0,0,0,0,-1,1665,1555,11.4528,-12.9397
448,-531,8.70752,11.1261,0,0,0,0,0,0,0,-1,1672,1555,8.70751,-11.126
455,-531,14.4877,9.67065,0,0,0,0,0,0,0,-1,1679,1555,14.4876,-9.67066
462,-531,13.5253,12.2002,0,0,0,0,0,0,0,-1,1686,1555,13.5252,-12.2002
469,-531,13.4401,13.3324,-0.0108884,-0.0732726,0.0587699,0.0244541,-0.108615,0.541427,0.0817892,0.0465025,1693,1555,13.44,-13.3324
476,-531,13.316,14.5055,-0.00861671,-0.0562567,0.0466661,0.0199572,-0.0848306,0.549418,0.0642478,0.0459232,1700,1555,13.316,-14.5055
483,-531,13.2378,15.97,0,0,0,0,0,0,0,-1,1707,1555,13.2378,-15.9699
490,-531,13.4723,16.4135,0,0,0,0,0,0,0,-1,1714,1555,13.4724,-16.4134
497,-531,13.168,16.7878,0,0,0,0,0,0,0,-1,1721,1555,13.168,-16.7879
504,-531,12.8024,16.7273,-0.00321922,-0.0136427,0.0142126,0.00670707,-0.023569,0.609661,0.0183613,0.0174114,1728,1555,12.8023,-16.7273
511,-531,12.842,16.371,-0.00220788,-0.00857992,0.00982966,0.0049392,-0.015727,0.628679,0.0124617,0.0147841,1735,1555,12.842,-16.371
518,-531,12.8596,16.0277,-0.00152072,-0.00525955,0.0067027,0.00356837,-0.0103486,0.649402,0.00834681,0.015708,1742,1555,12.8596,-16.0277
525,-531,12.8651,15.7437,-0.000981863,-0.00238093,0.00407673,0.00245491,-0.0058177,0.70043,0.00490597,0.0137689,1749,1555,12.8651,-15.7437
532,-531,12.9015,15.415,-0.00061978,-0.000600368,0.00218402,0.00157397,-0.00279411,0.78762,0.0025545,0.0101211,1756,1555,12.9015,-15.415
539,-531,12.8877,15.0817,-0.000130515,-0.000495451,0.00154228,0.00124005,-0.00186602,0.726517,0.00180539,0.0116799,1763,1555,12.8877,-15.0817
546,-531,12.8409,14.7367,0.000201551,-0.000737905,0.00116058,0.000983853,-0.00152021,0.593106,0.00145673,0.0154223,1770,1555,12.841,-14.7367
553,-531,12.8806,14.436,0.000489376,-0.000939083,0.000823903,0.000865532,-0.00131524,0.42829,0.00126796,0.0300205,1777,1555,12.8806,-14.4361
560,-531,12.8625,14.1532,0.000756064,-0.00121089,0.000732771,0.000999038,-0.00145386,0.320174,0.00142427,0.0344587,1784,1555,12.8625,-14.1532
567,-531,12.7935,13.8285,0.00110666,-0.00165109,0.000605841,0.00123388,-0.00177832,0.206991,0.00174854,0.0195276,1791,1555,12.7935,-13.8284
574,-531,12.8212,13.4733,0.00170276,-0.00151675,3.5537e-05,0.00170315,-0.00151715,0.0110362,0.00186027,0.0132092,1798,1555,12.8211,-13.4733
581,-531,12.8485,13.1111,0.00246592,-0.00134648,-0.000539087,0.00254068,-0.00142124,-0.137805,0.00231765,0.0132846,1805,1555,12.8485,-13.1111
588,-531,12.9043,12.7233,0.00319694,-0.0015779,-0.000995207,0.00339606,-0.00177703,-0.197476,0.00303505,0.0217865,1812,1555,12.9043,-12.7233
595,-531,12.9956,12.3815,0,0,0,0,0,0,0,-1,1819,1555,12.9956,-12.3814
602,-531,13.3896,11.8712,0,0,0,0,0,0,0,-1,1826,1555,13.3897,-11.8712
609,-531,10.9072,8.50903,0,0,0,0,0,0,0,-1,1833,1555,10.9073,-8.50902
616,-531,10.5723,7.17859,0,0,0,0,0,0,0,-1,1840,1555,10.5723,-7.17855
623,-531,10.0674,5.08984,0,0,0,0,0,0,0,-1,1847,1555,10.0674,-5.08981
630,-531,11.672,3.18909,0,0,0,0,0,0,0,-1,1854,1555,11.672,-3.18904
637,-531,13.2546,1.38965,0,0,0,0,0,0,0,-1,1861,1555,13.2547,-1.3896
644,-531,0,0,0,0,0,0,0,0,0,-1,1868,1555,0,0
651,-531,0,0,0,0,0,0,0,0,0,-1,1875,1555,0,0
658,-531,0,0,0,0,0,0,0,0,0,-1,1882,1555,0,0
665,-531,0,0,0,0,0,0,0,0,0,-1,1889,1555,0,0
672,-531,0,0,0,0,0,0,0,0,0,-1,1896,1555,0,0
679,-531,0,0,0,0,0,0,0,0,0,-1,1903,1555,0,0
686,-531,0,0,0,0,0,0,0,0,0,-1,1910,1555,0,0
693,-531,0,0,0,0,0,0,0,0,0,-1,1917,1555,0,0
700,-531,0,0,0,0,0,0,0,0,0,-1,1924,1555,0,0
707,-531,0,0,0,0,0,0,0,0,0,-1,1931,1555,0,0
714,-531,0,0,0,0,0,0,0,0,0,-1,1938,1555,0,0
721,-531,0,0,0,0,0,0,0,0,0,-1,1945,1555,0,0
728,-531,0,0,0,0,0,0,0,0,0,-1,1952,1555,0,0
735,-531,0,0,0,0,0,0,0,0,0,-1,1959,1555,0,0
742,-531,0,0,0,0,0,0,0,0,0,-1,1966,1555,0,0
749,-531,0,0,0,0,0,0,0,0,0,-1,1973,1555,0,0
756,-531,0,0,0,0,0,0,0,0,0,-1,1980,1555,0,0
763,-531,0,0,0,0,0,0,0,0,0,-1,1987,1555,0,0
770,-531,0,0,0,0,0,0,0,0,0,-1,1994,1555,0,0
777,-531,0,0,0,0,0,0,0,0,0,-1,2001,1555,0,0
784,-531,0,0,0,0,0,0,0,0,0,-1,2008,1555,0,0
791,-531,0,0,0,0,0,0,0,0,0,-1,2015,1555,0,0
798,-531,0,0,0,0,0,0,0,0,0,-1,2022,1555,0,0
805,-531,0,0,0,0,0,0,0,0,0,-1,2029,1555,0,0
812,-531,0,0,0,0,0,0,0,0,0,-1,2036,1555,0,0
-700,-538,0,0,0,0,0,0,0,0,0,-1,524,1562,0,0
-693,-538,0,0,0,0,0,0,0,0,0,-1,531,1562,0,0
-686,-538,0,0,0,0,0,0,0,0,0,-1,538,1562,0,0
-679,-538,0,0,0,0,0,0,0,0,0,-1,545,1562,0,0
-672,-538,0,0,0,0,0,0,0,0,0,-1,552,1562,0,0
-665,-538,0,0,0,0,0,0,0,0,0,-1,559,1562,0,0
-658,-538,0,0,0,0,0,0,0,0,0,-1,566,1562,0,0
-651,-538,0,0,0,0,0,0,0,0,0,-1,573,1562,0,0
-644,-538,0,0,0,0,0,0,0,0,0,-1,580,1562,0,0
-637,-538,0,0,0,0,0,0,0,0,0,-1,587,1562,0,0
-630,-538,0,0,0,0,0,0,0,0,0,-1,594,1562,0,0
-623,-538,0,0,0,0,0,0,0,0,0,-1,601,1562,0,0
-616,-538,0,0,0,0,0,0,0,0,0,-1,608,1562,0,0
-609,-538,0,0,0,0,0,0,0,0,0,-1,615,1562,0,0
-602,-538,0,0,0,0,0,0,0,0,0,-1,622,1562,0,0
-595,-538,0,0,0,0,0,0,0,0,0,-1,629,1562,0,0
-588,-538,0,0,0,0,0,0,0,0,0,-1,636,1562,0,0
-581,-538,0,0,0,0,0,0,0,0,0,-1,643,1562,0,0
-574,-538,0,0,0,0,0,0,0,0,0,-1,650,1562,0,0
-567,-538,0,0,0,0,0,0,0,0,0,-1,657,1562,0,0
-560,-538,0,0,0,0,0,0,0,0,0,-1,664,1562,0,0
-553,-538,0,0,0,0,0,0,0,0,0,-1,671,1562,0,0
-546,-538,0,0,0,0,0,0,0,0,0,-1,678,1562,0,0
-539,-538,0,0,0,0,0,0,0,0,0,-1,685,1562,0,0
-532,-538,0,0,0,0,0,0,0,0,0,-1,692,1562,0,0
-525,-538,0,0,0,0,0,0,0,0,0,-1,699,1562,0,0
-518,-538,0,0,0,0,0,0,0,0,0,-1,706,1562,0,0
-511,-538,-2.6582,-1.54321,0,0,0,0,0,0,0,-1,713,1562,-2.65821,1.54327
-504,-538,-2.66455,-0.71167,0,0,0,0,0,0,0,-1,720,1562,-2.66456,0.711667
-497,-538,-0.763855,6.77747,0,0,0,0,0,0,0,-1,727,1562,-0.76385,-6.77743
-490,-538,-2.70453,8.01465,0,0,0,0,0,0,0,-1,734,1562,-2.70451,-8.0147
-483,-538,-0.933533,7.84644,0,0,0,0,0,0,0,-1,741,1562,-0.933548,-7.84638
-476,-538,-0.43866,8.38074,0,0,0,0,0,0,0,-1,748,1562,-0.438631,-8.38068
-469,-538,-0.381775,10.6013,0,0,0,0,0,0,0,-1,755,1562,-0.381771,-10.6013
-462,-538,-0.460693,11.0835,-0.00190638,0.0107934,0.00510992,0.0125941,-0.00370711,1.23199,0.00986669,0.0426968,762,1562,-0.460716,-11.0835
-455,-538,-0.637939,11.4429,-0.00121664,0.00891512,0.00422042,0.0104428,-0.00274432,1.22349,0.00803442,0.0387765,769,1562,-0.637924,-11.4429
-448,-538,-0.470337,11.6586,-0.000968002,0.00712508,0.00333408,0.00832168,-0.00216461,1.22621,0.00639267,0.0180379,776,1562,-0.47033,-11.6585
-441,-538,-0.519348,12.0289,-0.000633056,0.00550731,0.00262869,0.00647892,-0.00160466,1.21676,0.00494178,0.0182548,783,1562,-0.519376,-12.0289
-434,-538,-0.553223,12.3298,-0.000187498,0.00437393,0.00219612,0.00525938,-0.00107295,1.18754,0.00391325,0.0128962,790,1562,-0.553212,-12.3298
-427,-538,-0.572205,12.7128,0.000311832,0.00345444,0.00195498,0.00439131,-0.000625036,1.12391,0.00315658,0.0144907,797,1562,-0.57221,-12.7128
-420,-538,-0.608887,13.085,0.000692244,0.00286751,0.00168047,0.0037816,-0.00022185,1.07261,0.00259818,0.0184232,804,1562,-0.608866,-13.0849
-413,-538,-0.634827,13.4258,0.00108745,0.00262326,0.00162021,0.00364833,6.23773e-05,1.0067,0.00241169,0.018133,811,1562,-0.634831,-13.4258
-406,-538,-0.61261,13.7333,0.00158672,0.00279241,0.00182557,0.0041121,0.000267036,0.944872,0.00265687,0.0139415,818,1562,-0.612617,-13.7333
-399,-538,-0.600647,14.0841,0.0017959,0.00314308,0.00198053,0.00456143,0.00037755,0.949315,0.00292324,0.0128498,825,1562,-0.600658,-14.0842
-392,-538,-0.587708,14.4415,0.0022128,0.00368899,0.0022193,0.00528971,0.000612078,0.945934,0.00334119,0.0142748,832,1562,-0.58768,-14.4416
-385,-538,-0.624207,14.7927,0.00308554,0.00416372,0.00104263,0.00479838,0.00245088,1.024,0.00277056,0.0127184,839,1562,-0.624179,-14.7927
-378,-538,-0.619568,15.1362,0.00416664,0.00698098,-0.00149095,0.00762395,0.00352368,-1.16365,0.00440588,0.0104111,846,1562,-0.619547,-15.1362
-371,-538,-0.641357,15.4419,0.0051102,0.00911617,-0.00379581,0.0114051,0.00282131,-1.02817,0.00685915,0.0124234,853,1562,-0.641344,-15.4419
-364,-538,-0.585999,15.8519,0.00619621,0.0118423,-0.00720628,0.0167588,0.00127975,-0.972085,0.0107713,0.0137152,860,1562,-0.586001,-15.8519
-357,-538,-0.537964,16.2488,0.00764125,0.0153722,-0.0119273,0.0240448,-0.00103129,-0.942102,0.0163844,0.0293852,867,1562,-0.537934,-16.2488
-350,-538,-0.745239,16.6036,0.00952353,0.019659,-0.017538,0.0328467,-0.00366419,-0.926046,0.0232158,0.0407767,874,1562,-0.745224,-16.6036
-343,-538,-0.847168,16.9811,0,0,0,0,0,0,0,-1,881,1562,-0.847164,-16.9811
-336,-538,-1.20569,17.0275,0.0137946,0.0312824,-0.0321302,0.0558373,-0.0107602,-0.918251,0.0412817,0.0438764,888,1562,-1.20569,-17.0275
-329,-538,-0.5578,15.9014,0.016565,0.0381887,-0.0398491,0.0686666,-0.0139129,-0.917869,0.0510513,0.0471894,895,1562,-0.557814,-15.9014
-322,-538,-0.890015,15.5166,0,0,0,0,0,0,0,-1,902,1562,-0.890016,-15.5166
-315,-538,1.88379,19.6062,0,0,0,0,0,0,0,-1,909,1562,1.88378,-19.6062
-308,-538,-0.564453,18.6516,0,0,0,0,0,0,0,-1,916,1562,-0.564434,-18.6517
-301,-538,-0.452393,18.5101,0,0,0,0,0,0,0,-1,923,1562,-0.452367,-18.5102
-294,-538,1.23138,14.0757,0,0,0,0,0,0,0,-1,930,1562,1.23137,-14.0757
-287,-538,-2.60419,10.2361,0,0,0,0,0,0,0,-1,937,1562,-2.6042,-10.2361
-280,-538,-2.93475,10.5106,0,0,0,0,0,0,0,-1,944,1562,-2.93475,-10.5106
-273,-538,-3.26532,10.785,0,0,0,0,0,0,0,-1,951,1562,-3.26531,-10.785
-266,-538,-5.03412,15.9951,0,0,0,0,0,0,0,-1,958,1562,-5.03409,-15.9951
-259,-538,-5.89642,16.5184,0,0,0,0,0,0,0,-1,965,1562,-5.89644,-16.5184
-252,-538,0,0,0,0,0,0,0,0,0,-1,972,1562,0,0
-245,-538,0,0,0,0,0,0,0,0,0,-1,979,1562,0,0
-238,-538,0,0,0,0,0,0,0,0,0,-1,986,1562,0,0
-231,-538,0,0,0,0,0,0,0,0,0,-1,993,1562,0,0
-224,-538,0,0,0,0,0,0,0,0,0,-1,1000,1562,0,0
-217,-538,0,0,0,0,0,0,0,0,0,-1,1007,1562,0,0
-210,-538,0,0,0,0,0,0,0,0,0,-1,1014,1562,0,0
-203,-538,0,0,0,0,0,0,0,0,0,-1,1021,1562,0,0
-196,-538,0,0,0,0,0,0,0,0,0,-1,1028,1562,0,0
-189,-538,0,0,0,0,0,0,0,0,0,-1,1035,1562,0,0
-182,-538,0,0,0,0,0,0,0,0,0,-1,1042,1562,0,0
-175,-538,0,0,0,0,0,0,0,0,0,-1,1049,1562,0,0
-168,-538,0,0,0,0,0,0,0,0,0,-1,1056,1562,0,0
-161,-538,0,0,0,0,0,0,0,0,0,-1,1063,1562,0,0
-154,-538,0,0,0,0,0,0,0,0,0,-1,1070,1562,0,0
-147,-538,0,0,0,0,0,0,0,0,0,-1,1077,1562,0,0
-140,-538,0,0,0,0,0,0,0,0,0,-1,1084,1562,0,0
-133,-538,0,0,0,0,0,0,0,0,0,-1,1091,1562,0,0
-126,-538,0,0,0,0,0,0,0,0,0,-1,1098,1562,0,0
-119,-538,0,0,0,0,0,0,0,0,0,-1,1105,1562,0,0
-112,-538,0,0,0,0,0,0,0,0,0,-1,1112,1562,0,0
-105,-538,0,0,0,0,0,0,0,0,0,-1,1119,1562,0,0
-98,-538,0,0,0,0,0,0,0,0,0,-1,1126,1562,0,0
-91,-538,0,0,0,0,0,0,0,0,0,-1,1133,1562,0,0
-84,-538,0,0,0,0,0,0,0,0,0,-1,1140,1562,0,0
-77,-538,0,0,0,0,0,0,0,0,0,-1,1147,1562,0,0
-70,-538,0,0,0,0,0,0,0,0,0,-1,1154,1562,0,0
-63,-538,0,0,0,0,0,0,0,0,0,-1,1161,1562,0,0
-56,-538,0,0,0,0,0,0,0,0,0,-1,1168,1562,0,0
-49,-538,0,0,0,0,0,0,0,0,0,-1,1175,1562,0,0
-42,-538,0,0,0,0,0,0,0,0,0,-1,1182,1562,0,0
-35,-538,0,0,0,0,0,0,0,0,0,-1,1189,1562,0,0
-28,-538,0,0,0,0,0,0,0,0,0,-1,1196,1562,0,0
-21,-538,0,0,0,0,0,0,0,0,0,-1,1203,1562,0,0
-14,-538,0,0,0,0,0,0,0,0,0,-1,1210,1562,0,0
-7,-538,0,0,0,0,0,0,0,0,0,-1,1217,1562,0,0
0,-538,0,0,0,0,0,0,0,0,0,-1,1224,1562,0,0
7,-538,0,0,0,0,0,0,0,0,0,-1,1231,1562,0,0
14,-538,0,0,0,0,0,0,0,0,0,-1,1238,1562,0,0
21,-538,0,0,0,0,0,0,0,0,0,-1,1245,1562,0,0
28,-538,0,0,0,0,0,0,0,0,0,-1,1252,1562,0,0
35,-538,0,0,0,0,0,0,0,0,0,-1,1259,1562,0,0
42,-538,0,0,0,0,0,0,0,0,0,-1,1266,1562,0,0
49,-538,0,0,0,0,0,0,0,0,0,-1,1273,1562,0,0
56,-538,0,0,0,0,0,0,0,0,0,-1,1280,1562,0,0
63,-538,0,0,0,0,0,0,0,0,0,-1,1287,1562,0,0
70,-538,0,0,0,0,0,0,0,0,0,-1,1294,1562,0,0
77,-538,0,0,0,0,0,0,0,0,0,-1,1301,1562,0,0
84,-538,0,0,0,0,0,0,0,0,0,-1,1308,1562,0,0
91,-538,0,0,0,0,0,0,0,0,0,-1,1315,1562,0,0
98,-538,0,0,0,0,0,0,0,0,0,-1,1322,1562,0,0
105,-538,0,0,0,0,0,0,0,0,0,-1,1329,1562,0,0
112,-538,0,0,0,0,0,0,0,0,0,-1,1336,1562,0,0
119,-538,0,0,0,0,0,0,0,0,0,-1,1343,1562,0,0
126,-538,0,0,0,0,0,0,0,0,0,-1,1350,1562,0,0
133,-538,0,0,0,0,0,0,0,0,0,-1,1357,1562,0,0
140,-538,0,0,0,0,0,0,0,0,0,-1,1364,1562,0,0
147,-538,0,0,0,0,0,0,0,0,0,-1,1371,1562,0,0
154,-538,0,0,0,0,0,0,0,0,0,-1,1378,1562,0,0
161,-538,0,0,0,0,0,0,0,0,0,-1,1385,1562,0,0
168,-538,0,0,0,0,0,0,0,0,0,-1,1392,1562,0,0
175,-538,0,0,0,0,0,0,0,0,0,-1,1399,1562,0,0
182,-538,0,0,0,0,0,0,0,0,0,-1,1406,1562,0,0
189,-538,0,0,0,0,0,0,0,0,0,-1,1413,1562,0,0
196,-538,0,0,0,0,0,0,0,0,0,-1,1420,1562,0,0
203,-538,0,0,0,0,0,0,0,0,0,-1,1427,1562,0,0
210,-538,0,0,0,0,0,0,0,0,0,-1,1434,1562,0,0
217,-538,0,0,0,0,0,0,0,0,0,-1,1441,1562,0,0
224,-538,0,0,0,0,0,0,0,0,0,-1,1448,1562,0,0
231,-538,0,0,0,0,0,0,0,0,0,-1,1455,1562,0,0
238,-538,0,0,0,0,0,0,0,0,0,-1,1462,1562,0,0
245,-538,0,0,0,0,0,0,0,0,0,-1,1469,1562,0,0
252,-538,0,0,0,0,0,0,0,0,0,-1,1476,1562,0,0
259,-538,0,0,0,0,0,0,0,0,0,-1,1483,1562,0,0
266,-538,0,0,0,0,0,0,0,0,0,-1,1490,1562,0,0
273,-538,0,0,0,0,0,0,0,0,0,-1,1497,1562,0,0
280,-538,0,0,0,0,0,0,0,0,0,-1,1504,1562,0,0
287,-538,0,0,0,0,0,0,0,0,0,-1,1511,1562,0,0
294,-538,0,0,0,0,0,0,0,0,0,-1,1518,1562,0,0
301,-538,0,0,0,0,0,0,0,0,0,-1,1525,1562,0,0
308,-538,0,0,0,0,0,0,0,0,0,-1,1532,1562,0,0
315,-538,0,0,0,0,0,0,0,0,0,-1,1539,1562,0,0
322,-538,0,0,0,0,0,0,0,0,0,-1,1546,1562,0,0
329,-538,0,0,0,0,0,0,0,0,0,-1,1553,1562,0,0
336,-538,0,0,0,0,0,0,0,0,0,-1,1560,1562,0,0
343,-538,0,0,0,0,0,0,0,0,0,-1,1567,1562,0,0
350,-538,0,0,0,0,0,0,0,0,0,-1,1574,1562,0,0
357,-538,0,0,0,0,0,0,0,0,0,-1,1581,1562,0,0
364,-538,0,0,0,0,0,0,0,0,0,-1,1588,1562,0,0
371,-538,0,0,0,0,0,0,0,0,0,-1,1595,1562,0,0
378,-538,9.65479,5.82434,0,0,0,0,0,0,0,-1,1602,1562,9.6548,-5.82439
385,-538,10.5449,7.9502,0,0,0,0,0,0,0,-1,1609,1562,10.5449,-7.95014
392,-538,8.20361,7.07214,0,0,0,0,0,0,0,-1,1616,1562,8.20362,-7.07211
399,-538,7.85425,4.70508,0,0,0,0,0,0,0,-1,1623,1562,7.85425,-4.70512
406,-538,7.77734,4.96094,0,0,0,0,0,0,0,-1,1630,1562,7.77729,-4.96097
413,-538,13.0446,13.1765,0,0,0,0,0,0,0,-1,1637,1562,13.0446,-13.1765
420,-538,9.96216,12.7653,0,0,0,0,0,0,0,-1,1644,1562,9.96221,-12.7653
427,-538,10.1732,14.5863,0,0,0,0,0,0,0,-1,1651,1562,10.1732,-14.5863
434,-538,9.64331,14.7745,0,0,0,0,0,0,0,-1,1658,1562,9.64326,-14.7746
441,-538,14.1735,21.8336,0,0,0,0,0,0,0,-1,1665,1562,14.1734,-21.8337
448,-538,14.4327,19.8633,0,0,0,0,0,0,0,-1,1672,1562,14.4327,-19.8633
455,-538,12.2625,16.6758,0,0,0,0,0,0,0,-1,1679,1562,12.2625,-16.6758
462,-538,14.1053,17.2085,0,0,0,0,0,0,0,-1,1686,1562,14.1054,-17.2084
469,-538,12.7552,14.8778,0,0,0,0,0,0,0,-1,1693,1562,12.7552,-14.8778
476,-538,12.6573,15.8064,0,0,0,0,0,0,0,-1,1700,1562,12.6574,-15.8064
483,-538,12.7175,17.3428,-0.00506586,-0.0297188,0.0260095,0.0113902,-0.0461749,0.564114,0.0351997,0.0422218,1707,1562,12.7175,-17.3427
490,-538,12.5028,17.2911,-0.00382229,-0.0213581,0.0196189,0.00889881,-0.0340792,0.575257,0.0261945,0.0237657,1714,1562,12.5028,-17.2911
497,-538,12.5,17.051,-0.00276409,-0.0150205,0.0144612,0.00681378,-0.0245983,0.584985,0.0190801,0.0167524,1721,1562,12.5,-17.051
504,-538,12.5441,16.6835,-0.00170773,-0.0098796,0.0101463,0.00514442,-0.0167317,0.593981,0.0132076,0.0106047,1728,1562,12.5441,-16.6835
511,-538,12.5336,16.3726,-0.000961143,-0.00620787,0.00691486,0.00381125,-0.0109803,0.604095,0.00886793,0.0100525,1735,1562,12.5336,-16.3726
518,-538,12.5359,16.0618,-0.000490341,-0.00374368,0.00457196,0.0027357,-0.00696973,0.614485,0.00577844,0.0110516,1742,1562,12.5358,-16.0618
525,-538,12.5258,15.7427,-0.000139107,-0.00161521,0.00261984,0.00184466,-0.00359897,0.648099,0.00319682,0.0113322,1749,1562,12.5257,-15.7427
532,-538,12.5594,15.4202,7.07071e-05,-0.000424604,0.00130317,0.00114954,-0.00150344,0.691497,0.00153624,0.0123342,1756,1562,12.5594,-15.4202
539,-538,12.5553,15.1075,0.000374151,-0.000543835,0.000968736,0.00098713,-0.00115681,0.564161,0.0012391,0.0154888,1763,1562,12.5553,-15.1076
546,-538,12.5258,14.7659,0.000504275,-0.00100656,0.000897758,0.000922153,-0.00142444,0.435643,0.00136511,0.0175383,1770,1562,12.5258,-14.7659
553,-538,12.5762,14.4064,0.00056198,-0.00148365,0.000961328,0.000942839,-0.00186451,0.377209,0.00164968,0.0274405,1777,1562,12.5761,-14.4064
560,-538,12.521,14.1479,0.000619645,-0.0020742,0.00122535,0.00109362,-0.00254818,0.369085,0.00215777,0.0289967,1784,1562,12.521,-14.148
567,-538,12.4335,13.8569,0.000837887,-0.00275367,0.00135974,0.0012946,-0.00321038,0.324042,0.0026782,0.0213859,1791,1562,12.4334,-13.8569
574,-538,12.4746,13.4731,0.00136202,-0.00284351,0.000987485,0.00158234,-0.00306383,0.219522,0.00272755,0.0151504,1798,1562,12.4747,-13.4731
581,-538,12.522,13.1146,0.00211696,-0.00292697,0.000568788,0.00218031,-0.00299031,0.110911,0.00299744,0.0183587,1805,1562,12.522,-13.1146
588,-538,12.5983,12.8014,0.00301303,-0.00339507,0.000121948,0.00301535,-0.00339739,0.0190211,0.00370459,0.037034,1812,1562,12.5983,-12.8014
595,-538,12.7006,12.4127,0,0,0,0,0,0,0,-1,1819,1562,12.7006,-12.4127
602,-538,10.314,8.94238,0,0,0,0,0,0,0,-1,1826,1562,10.314,-8.94238
609,-538,10.1046,7.05713,0,0,0,0,0,0,0,-1,1833,1562,10.1046,-7.05719
616,-538,9.92249,5.43506,0,0,0,0,0,0,0,-1,1840,1562,9.92254,-5.43507
623,-538,11.1711,4.31604,0,0,0,0,0,0,0,-1,1847,1562,11.1711,-4.316
630,-538,12.6112,2.61633,0,0,0,0,0,0,0,-1,1854,1562,12.6112,-2.61637
637,-538,0,0,0,0,0,0,0,0,0,-1,1861,1562,0,0
644,-538,0,0,0,0,0,0,0,0,0,-1,1868,1562,0,0
651,-538,0,0,0,0,0,0,0,0,0,-1,1875,1562,0,0
658,-538,0,0,0,0,0,0,0,0,0,-1,1882,1562,0,0
665,-538,0,0,0,0,0,0,0,0,0,-1,1889,1562,0,0
672,-538,0,0,0,0,0,0,0,0,0,-1,1896,1562,0,0
679,-538,0,0,0,0,0,0,0,0,0,-1,1903,1562,0,0
686,-538,0,0,0,0,0,0,0,0,0,-1,1910,1562,0,0
693,-538,0,0,0,0,0,0,0,0,0,-1,1917,1562,0,0
700,-538,0,0,0,0,0,0,0,0,0,-1,1924,1562,0,0
707,-538,0,0,0,0,0,0,0,0,0,-1,1931,1562,0,0
714,-538,0,0,0,0,0,0,0,0,0,-1,1938,1562,0,0
721,-538,0,0,0,0,0,0,0,0,0,-1,1945,1562,0,0
728,-538,0,0,0,0,0,0,0,0,0,-1,1952,1562,0,0
735,-538,0,0,0,0,0,0,0,0,0,-1,1959,1562,0,0
742,-538,0,0,0,0,0,0,0,0,0,-1,1966,1562,0,0
749,-538,0,0,0,0,0,0,0,0,0,-1,1973,1562,0,0
756,-538,0,0,0,0,0,0,0,0,0,-1,1980,1562,0,0
763,-538,0,0,0,0,0,0,0,0,0,-1,1987,1562,0,0
770,-538,0,0,0,0,0,0,0,0,0,-1,1994,1562,0,0
777,-538,0,0,0,0,0,0,0,0,0,-1,2001,1562,0,0
784,-538,0,0,0,0,0,0,0,0,0,-1,2008,1562,0,0
791,-538,0,0,0,0,0,0,0,0,0,-1,2015,1562,0,0
798,-538,0,0,0,0,0,0,0,0,0,-1,2022,1562,0,0
805,-538,0,0,0,0,0,0,0,0,0,-1,2029,1562,0,0
812,-538,0,0,0,0,0,0,0,0,0,-1,2036,1562,0,0
-700,-545,0,0,0,0,0,0,0,0,0,-1,524,1569,0,0
-693,-545,0,0,0,0,0,0,0,0,0,-1,531,1569,0,0
-686,-545,0,0,0,0,0,0,0,0,0,-1,538,1569,0,0
-679,-545,0,0,0,0,0,0,0,0,0,-1,545,1569,0,0
-672,-545,0,0,0,0,0,0,0,0,0,-1,552,1569,0,0
-665,-545,0,0,0,0,0,0,0,0,0,-1,559,1569,0,0
-658,-545,0,0,0,0,0,0,0,0,0,-1,566,1569,0,0
-651,-545,0,0,0,0,0,0,0,0,0,-1,573,1569,0,0
-644,-545,0,0,0,0,0,0,0,0,0,-1,580,1569,0,0
-637,-545,0,0,0,0,0,0,0,0,0,-1,587,1569,0,0
-630,-545,0,0,0,0,0,0,0,0,0,-1,594,1569,0,0
-623,-545,0,0,0,0,0,0,0,0,0,-1,601,1569,0,0
-616,-545,0,0,0,0,0,0,0,0,0,-1,608,1569,0,0
-609,-545,0,0,0,0,0,0,0,0,0,-1,615,1569,0,0
-602,-545,0,0,0,0,0,0,0,0,0,-1,622,1569,0,0
-595,-545,0,0,0,0,0,0,0,0,0,-1,629,1569,0,0
-588,-545,0,0,0,0,0,0,0,0,0,-1,636,1569,0,0
-581,-545,0,0,0,0,0,0,0,0,0,-1,643,1569,0,0
-574,-545,0,0,0,0,0,0,0,0,0,-1,650,1569,0,0
-567,-545,0,0,0,0,0,0,0,0,0,-1,657,1569,0,0
-560,-545,0,0,0,0,0,0,0,0,0,-1,664,1569,0,0
-553,-545,0,0,0,0,0,0,0,0,0,-1,671,1569,0,0
-546,-545,0,0,0,0,0,0,0,0,0,-1,678,1569,0,0
-539,-545,0,0,0,0,0,0,0,0,0,-1,685,1569,0,0
-532,-545,0,0,0,0,0,0,0,0,0,-1,692,1569,0,0
-525,-545,0,0,0,0,0,0,0,0,0,-1,699,1569,0,0
-518,-545,0,0,0,0,0,0,0,0,0,-1,706,1569,0,0
-511,-545,0,0,0,0,0,0,0,0,0,-1,713,1569,0,0
-504,-545,-3.55237,-2.5354,0,0,0,0,0,0,0,-1,720,1569,-3.55236,2.53545
-497,-545,2.26575,5.69214,0,0,0,0,0,0,0,-1,727,1569,2.26573,-5.6922
-490,-545,-2.17334,7.81396,0,0,0,0,0,0,0,-1,734,1569,-2.17334,-7.81399
-483,-545,-1.88336,5.8446,0,0,0,0,0,0,0,-1,741,1569,-1.88334,-5.84466
-476,-545,-1.13147,6.5741,0,0,0,0,0,0,0,-1,748,1569,-1.13149,-6.57405
-469,-545,0.500305,8.22754,0,0,0,0,0,0,0,-1,755,1569,0.500333,-8.22759
-462,-545,-0.0134888,11.0964,0,0,0,0,0,0,0,-1,762,1569,-0.0134741,-11.0964
-455,-545,-0.682922,11.2274,0.000116869,0.0125076,0.00636491,0.0151945,-0.00257002,1.17135,0.0110861,0.0464219,769,1569,-0.682938,-11.2275
-448,-545,0.0301514,11.4149,-6.49848e-05,0.00981594,0.00489825,0.0118326,-0.0020816,1.18024,0.00866598,0.0304732,776,1569,0.0301485,-11.4149
-441,-545,-0.0883179,12.0419,-0.000273682,0.00751946,0.00370496,0.00899968,-0.00175391,1.1907,0.00666184,0.0218964,783,1569,-0.0883041,-12.0419
-434,-545,-0.251526,12.3722,-0.000307991,0.00568192,0.00289526,0.00685257,-0.00147865,1.18656,0.00513276,0.0181486,790,1569,-0.251551,-12.3722
-427,-545,-0.248718,12.7238,-0.00014985,0.00419928,0.00235316,0.00522879,-0.00117936,1.15839,0.00393829,0.0179052,797,1569,-0.248701,-12.7237
-420,-545,-0.236084,13.0646,-1.89789e-05,0.00319494,0.00182595,0.00402035,-0.000844391,1.14624,0.00300155,0.0241213,804,1569,-0.236103,-13.0645
-413,-545,-0.253357,13.4086,0.000184651,0.00260286,0.00153878,0.00335074,-0.000563226,1.1184,0.00244331,0.0221818,811,1569,-0.253373,-13.4085
-406,-545,-0.230957,13.7417,0.000577648,0.00248423,0.00155059,0.00335113,-0.000289254,1.06101,0.00233648,0.0154979,818,1569,-0.230941,-13.7417
-399,-545,-0.231873,14.085,0.000647529,0.00253341,0.00153465,0.00339166,-0.000210723,1.06088,0.00233452,0.0112998,825,1569,-0.231892,-14.0849
-392,-545,-0.24231,14.4252,0.00101579,0.00271047,0.00162555,0.00369626,2.99932e-05,1.02565,0.00245424,0.0114079,832,1569,-0.2423,-14.4252
-385,-545,-0.238892,14.7891,0.0018537,0.0030051,0.000652025,0.0032992,0.00155959,1.14705,0.00190574,0.0100018,839,1569,-0.238901,-14.789
-378,-545,-0.269958,15.1326,0.00289337,0.0049016,-0.00130691,0.00554559,0.00224938,-1.11296,0.00322071,0.0119412,846,1569,-0.269961,-15.1325
-371,-545,-0.286865,15.4761,0.00378254,0.00637583,-0.00315051,0.00848609,0.00167228,-0.980617,0.00519055,0.0144956,853,1569,-0.286836,-15.4761
-364,-545,-0.276794,15.8104,0.00478766,0.00827014,-0.0057651,0.0125512,0.000506582,-0.932058,0.00820383,0.00927374,860,1569,-0.276797,-15.8105
-357,-545,-0.224976,16.2062,0.00619804,0.0105228,-0.00923408,0.0178443,-0.00112347,-0.900413,0.0122878,0.0130669,867,1569,-0.224967,-16.2062
-350,-545,-0.210754,16.5681,0.00786491,0.0132744,-0.0132213,0.0240648,-0.00292553,-0.886292,0.017102,0.0195466,874,1569,-0.210759,-16.5681
-343,-545,-0.221497,16.8835,0.00956999,0.0166524,-0.0180246,0.0314803,-0.00525792,-0.882396,0.0229413,0.0285036,881,1569,-0.221522,-16.8835
-336,-545,-0.215881,16.9244,0.0114158,0.0208481,-0.0230331,0.0396429,-0.00737904,-0.88638,0.0292007,0.0385443,888,1569,-0.215904,-16.9245
-329,-545,-0.178589,16.7373,0.0136363,0.0253633,-0.02809,0.0481953,-0.00919564,-0.888291,0.0355936,0.0479216,895,1569,-0.178574,-16.7373
-322,-545,-0.00817871,16.7802,0,0,0,0,0,0,0,-1,902,1569,-0.0081896,-16.7802
-315,-545,1.57739,18.9076,0,0,0,0,0,0,0,-1,909,1569,1.57737,-18.9076
-308,-545,1.64972,19.1172,0,0,0,0,0,0,0,-1,916,1569,1.64975,-19.1172
-301,-545,1.52191,17.5009,0,0,0,0,0,0,0,-1,923,1569,1.52192,-17.5008
-294,-545,-2.69287,8.42102,0,0,0,0,0,0,0,-1,930,1569,-2.69287,-8.42097
-287,-545,-3.47784,9.96021,0,0,0,0,0,0,0,-1,937,1569,-3.47785,-9.96021
-280,-545,-3.7879,10.5448,0,0,0,0,0,0,0,-1,944,1569,-3.78793,-10.5448
-273,-545,-5.10333,12.864,0,0,0,0,0,0,0,-1,951,1569,-5.10331,-12.864
-266,-545,-5.78955,13.3704,0,0,0,0,0,0,0,-1,958,1569,-5.78952,-13.3703
-259,-545,-6.32184,13.8101,0,0,0,0,0,0,0,-1,965,1569,-6.32182,-13.81
-252,-545,0.369263,7.54053,0,0,0,0,0,0,0,-1,972,1569,0.369276,-7.54056
-245,-545,-0.236633,6.65564,0,0,0,0,0,0,0,-1,979,1569,-0.236605,-6.65566
-238,-545,0,0,0,0,0,0,0,0,0,-1,986,1569,0,0
-231,-545,0,0,0,0,0,0,0,0,0,-1,993,1569,0,0
-224,-545,0,0,0,0,0,0,0,0,0,-1,1000,1569,0,0
-217,-545,0,0,0,0,0,0,0,0,0,-1,1007,1569,0,0
-210,-545,0,0,0,0,0,0,0,0,0,-1,1014,1569,0,0
-203,-545,0,0,0,0,0,0,0,0,0,-1,1021,1569,0,0
-196,-545,0,0,0,0,0,0,0,0,0,-1,1028,1569,0,0
-189,-545,0,0,0,0,0,0,0,0,0,-1,1035,1569,0,0
-182,-545,0,0,0,0,0,0,0,0,0,-1,1042,1569,0,0
-175,-545,0,0,0,0,0,0,0,0,0,-1,1049,1569,0,0
-168,-545,0,0,0,0,0,0,0,0,0,-1,1056,1569,0,0
-161,-545,0,0,0,0,0,0,0,0,0,-1,1063,1569,0,0
-154,-545,0,0,0,0,0,0,0,0,0,-1,1070,1569,0,0
-147,-545,0,0,0,0,0,0,0,0,0,-1,1077,1569,0,0
-140,-545,0,0,0,0,0,0,0,0,0,-1,1084,1569,0,0
-133,-545,0,0,0,0,0,0,0,0,0,-1,1091,1569,0,0
-126,-545,0,0,0,0,0,0,0,0,0,-1,1098,1569,0,0
-119,-545,0,0,0,0,0,0,0,0,0,-1,1105,1569,0,0
-112,-545,0,0,0,0,0,0,0,0,0,-1,1112,1569,0,0
-105,-545,0,0,0,0,0,0,0,0,0,-1,1119,1569,0,0
-98,-545,0,0,0,0,0,0,0,0,0,-1,1126,1569,0,0
-91,-545,0,0,0,0,0,0,0,0,0,-1,1133,1569,0,0
-84,-545,0,0,0,0,0,0,0,0,0,-1,1140,1569,0,0
-77,-545,0,0,0,0,0,0,0,0,0,-1,1147,1569,0,0
-70,-545,0,0,0,0,0,0,0,0,0,-1,1154,1569,0,0
-63,-545,0,0,0,0,0,0,0,0,0,-1,1161,1569,0,0
-56,-545,0,0,0,0,0,0,0,0,0,-1,1168,1569,0,0
-49,-545,0,0,0,0,0,0,0,0,0,-1,1175,1569,0,0
-42,-545,0,0,0,0,0,0,0,0,0,-1,1182,1569,0,0
-35,-545,0,0,0,0,0,0,0,0,0,-1,1189,1569,0,0
-28,-545,0,0,0,0,0,0,0,0,0,-1,1196,1569,0,0
-21,-545,0,0,0,0,0,0,0,0,0,-1,1203,1569,0,0
-14,-545,0,0,0,0,0,0,0,0,0,-1,1210,1569,0,0
-7,-545,0,0,0,0,0,0,0,0,0,-1,1217,1569,0,0
0,-545,0,0,0,0,0,0,0,0,0,-1,1224,1569,0,0
7,-545,0,0,0,0,0,0,0,0,0,-1,1231,1569,0,0
14,-545,0,0,0,0,0,0,0,0,0,-1,1238,1569,0,0
21,-545,0,0,0,0,0,0,0,0,0,-1,1245,1569,0,0
28,-545,0,0,0,0,0,0,0,0,0,-1,1252,1569,0,0
35,-545,0,0,0,0,0,0,0,0,0,-1,1259,1569,0,0
42,-545,0,0,0,0,0,0,0,0,0,-1,1266,1569,0,0
49,-545,0,0,0,0,0,0,0,0,0,-1,1273,1569,0,0
56,-545,0,0,0,0,0,0,0,0,0,-1,1280,1569,0,0
63,-545,0,0,0,0,0,0,0,0,0,-1,1287,1569,0,0
70,-545,0,0,0,0,0,0,0,0,0,-1,1294,1569,0,0
77,-545,0,0,0,0,0,0,0,0,0,-1,1301,1569,0,0
84,-545,0,0,0,0,0,0,0,0,0,-1,1308,1569,0,0
91,-545,0,0,0,0,0,0,0,0,0,-1,1315,1569,0,0
98,-545,0,0,0,0,0,0,0,0,0,-1,1322,1569,0,0
105,-545,0,0,0,0,0,0,0,0,0,-1,1329,1569,0,0
112,-545,0,0,0,0,0,0,0,0,0,-1,1336,1569,0,0
119,-545,0,0,0,0,0,0,0,0,0,-1,1343,1569,0,0
126,-545,0,0,0,0,0,0,0,0,0,-1,1350,1569,0,0
133,-545,0,0,0,0,0,0,0,0,0,-1,1357,1569,0,0
140,-545,0,0,0,0,0,0,0,0,0,-1,1364,1569,0,0
147,-545,0,0,0,0,0,0,0,0,0,-1,1371,1569,0,0
154,-545,0,0,0,0,0,0,0,0,0,-1,1378,1569,0,0
161,-545,0,0,0,0,0,0,0,0,0,-1,1385,1569,0,0
168,-545,0,0,0,0,0,0,0,0,0,-1,1392,1569,0,0
175,-545,0,0,0,0,0,0,0,0,0,-1,1399,1569,0,0
182,-545,0,0,0,0,0,0,0,0,0,-1,1406,1569,0,0
189,-545,0,0,0,0,0,0,0,0,0,-1,1413,1569,0,0
196,-545,0,0,0,0,0,0,0,0,0,-1,1420,1569,0,0
203,-545,0,0,0,0,0,0,0,0,0,-1,1427,1569,0,0
210,-545,0,0,0,0,0,0,0,0,0,-1,1434,1569,0,0
217,-545,0,0,0,0,0,0,0,0,0,-1,1441,1569,0,0
224,-545,0,0,0,0,0,0,0,0,0,-1,1448,1569,0,0
231,-545,0,0,0,0,0,0,0,0,0,-1,1455,1569,0,0
238,-545,0,0,0,0,0,0,0,0,0,-1,1462,1569,0,0
245,-545,0,0,0,0,0,0,0,0,0,-1,1469,1569,0,0
252,-545,0,0,0,0,0,0,0,0,0,-1,1476,1569,0,0
259,-545,0,0,0,0,0,0,0,0,0,-1,1483,1569,0,0
266,-545,0,0,0,0,0,0,0,0,0,-1,1490,1569,0,0
273,-545,0,0,0,0,0,0,0,0,0,-1,1497,1569,0,0
280,-545,0,0,0,0,0,0,0,0,0,-1,1504,1569,0,0
287,-545,0,0,0,0,0,0,0,0,0,-1,1511,1569,0,0
294,-545,0,0,0,0,0,0,0,0,0,-1,1518,1569,0,0
301,-545,0,0,0,0,0,0,0,0,0,-1,1525,1569,0,0
308,-545,0,0,0,0,0,0,0,0,0,-1,1532,1569,0,0
315,-545,0,0,0,0,0,0,0,0,0,-1,1539,1569,0,0
322,-545,0,0,0,0,0,0,0,0,0,-1,1546,1569,0,0
329,-545,0,0,0,0,0,0,0,0,0,-1,1553,1569,0,0
336,-545,0,0,0,0,0,0,0,0,0,-1,1560,1569,0,0
343,-545,0,0,0,0,0,0,0,0,0,-1,1567,1569,0,0
350,-545,0,0,0,0,0,0,0,0,0,-1,1574,1569,0,0
357,-545,0,0,0,0,0,0,0,0,0,-1,1581,1569,0,0
364,-545,7.19495,4.88098,0,0,0,0,0,0,0,-1,1588,1569,7.19497,-4.88095
371,-545,7.82324,3.84302,0,0,0,0,0,0,0,-1,1595,1569,7.82324,-3.84307
378,-545,7.65674,5.52673,0,0,0,0,0,0,0,-1,1602,1569,7.6567,-5.52667
385,-545,8.58447,1.16125,0,0,0,0,0,0,0,-1,1609,1569,8.5845,-1.1612
392,-545,12.5654,3.89526,0,0,0,0,0,0,0,-1,1616,1569,12.5655,-3.89532
399,-545,11.5869,5.6333,0,0,0,0,0,0,0,-1,1623,1569,11.5869,-5.63326
406,-545,11.234,6.36414,0,0,0,0,0,0,0,-1,1630,1569,11.234,-6.3641
413,-545,12.1521,13.4817,0,0,0,0,0,0,0,-1,1637,1569,12.1521,-13.4817
420,-545,11.1954,13.6047,0,0,0,0,0,0,0,-1,1644,1569,11.1954,-13.6047
427,-545,9.61072,14.9135,0,0,0,0,0,0,0,-1,1651,1569,9.61076,-14.9134
434,-545,13.1598,23.9921,0,0,0,0,0,0,0,-1,1658,1569,13.1598,-23.992
441,-545,13.6445,21.76,0,0,0,0,0,0,0,-1,1665,1569,13.6445,-21.76
448,-545,10.5491,17.8861,0,0,0,0,0,0,0,-1,1672,1569,10.549,-17.8861
455,-545,12.7369,18.9723,0,0,0,0,0,0,0,-1,1679,1569,12.737,-18.9723
462,-545,13.1785,17.927,0,0,0,0,0,0,0,-1,1686,1569,13.1784,-17.927
469,-545,12.2815,18.3466,0,0,0,0,0,0,0,-1,1693,1569,12.2815,-18.3466
476,-545,12.1871,18.1238,0,0,0,0,0,0,0,-1,1700,1569,12.1872,-18.1237
483,-545,12.2736,17.6191,-0.00364704,-0.0203124,0.0182911,0.00812003,-0.0320794,0.571665,0.0245448,0.0254697,1707,1569,12.2736,-17.6191
490,-545,12.1947,17.3193,-0.00258811,-0.0147197,0.0138386,0.00645569,-0.0237635,0.578847,0.0183762,0.0147054,1714,1569,12.1947,-17.3193
497,-545,12.21,17.0162,-0.00168273,-0.0103638,0.0101245,0.00499245,-0.017039,0.582891,0.0133386,0.0178312,1721,1569,12.21,-17.0162
504,-545,12.2638,16.6895,-0.000792553,-0.00670069,0.00699454,0.00384615,-0.0113394,0.585591,0.00911622,0.0161403,1728,1569,12.2638,-16.6895
511,-545,12.2404,16.3774,-0.00024359,-0.00418583,0.00470384,0.00288543,-0.00731485,0.58699,0.0060714,0.0118605,1735,1569,12.2404,-16.3774
518,-545,12.2311,16.0708,8.28892e-05,-0.00244928,0.0030066,0.0020791,-0.0044455,0.586116,0.00384868,0.0131183,1742,1569,12.2311,-16.0707
525,-545,12.2095,15.7587,0.000310003,-0.00100463,0.00163113,0.00141128,-0.0021059,0.593861,0.0020438,0.0131612,1749,1569,12.2095,-15.7587
532,-545,12.2188,15.439,0.000430403,-0.000384212,0.000822492,0.000940915,-0.000894723,0.555493,0.00105992,0.0131252,1756,1569,12.2188,-15.439
539,-545,12.2122,15.1326,0.000608732,-0.000744834,0.000742544,0.000936641,-0.00107274,0.415848,0.00116101,0.016488,1763,1569,12.2122,-15.1326
546,-545,12.1918,14.7882,0.000602379,-0.00144622,0.000935527,0.000965307,-0.00180915,0.370066,0.00162634,0.0190889,1770,1569,12.1917,-14.7883
553,-545,12.2231,14.3979,0.000489608,-0.00224918,0.00138091,0.00106499,-0.00282457,0.394793,0.00232097,0.0269177,1777,1569,12.2231,-14.398
560,-545,12.2297,14.0344,0.000376232,-0.00325033,0.00200842,0.00126882,-0.00414292,0.418207,0.00326805,0.0270548,1784,1569,12.2297,-14.0344
567,-545,12.0972,13.851,0.000487163,-0.00426432,0.00243076,0.00151035,-0.00528752,0.398422,0.00412176,0.0483267,1791,1569,12.0971,-13.8509
574,-545,12.0111,13.5236,0.000950701,-0.00472997,0.00233264,0.00178578,-0.00556505,0.343784,0.00442703,0.0427834,1798,1569,12.0111,-13.5235
581,-545,12.041,13.161,0,0,0,0,0,0,0,-1,1805,1569,12.0411,-13.161
588,-545,12.3287,12.8245,0,0,0,0,0,0,0,-1,1812,1569,12.3287,-12.8244
595,-545,10.2859,9.11218,0,0,0,0,0,0,0,-1,1819,1569,10.2858,-9.11215
602,-545,8.82117,6.32214,0,0,0,0,0,0,0,-1,1826,1569,8.82121,-6.32217
609,-545,10.2406,5.22351,0,0,0,0,0,0,0,-1,1833,1569,10.2406,-5.22353
616,-545,11.701,3.93188,0,0,0,0,0,0,0,-1,1840,1569,11.701,-3.93191
623,-545,13.2139,2.32043,0,0,0,0,0,0,0,-1,1847,1569,13.2139,-2.32042
630,-545,0,0,0,0,0,0,0,0,0,-1,1854,1569,0,0
637,-545,0,0,0,0,0,0,0,0,0,-1,1861,1569,0,0
644,-545,0,0,0,0,0,0,0,0,0,-1,1868,1569,0,0
651,-545,0,0,0,0,0,0,0,0,0,-1,1875,1569,0,0
658,-545,0,0,0,0,0,0,0,0,0,-1,1882,1569,0,0
665,-545,0,0,0,0,0,0,0,0,0,-1,1889,1569,0,0
672,-545,0,0,0,0,0,0,0,0,0,-1,1896,1569,0,0
679,-545,0,0,0,0,0,0,0,0,0,-1,1903,1569,0,0
686,-545,0,0,0,0,0,0,0,0,0,-1,1910,1569,0,0
693,-545,0,0,0,0,0,0,0,0,0,-1,1917,1569,0,0
700,-545,0,0,0,0,0,0,0,0,0,-1,1924,1569,0,0
707,-545,0,0,0,0,0,0,0,0,0,-1,1931,1569,0,0
714,-545,0,0,0,0,0,0,0,0,0,-1,1938,1569,0,0
721,-545,0,0,0,0,0,0,0,0,0,-1,1945,1569,0,0
728,-545,0,0,0,0,0,0,0,0,0,-1,1952,1569,0,0
735,-545,0,0,0,0,0,0,0,0,0,-1,1959,1569,0,0
742,-545,0,0,0,0,0,0,0,0,0,-1,1966,1569,0,0
749,-545,0,0,0,0,0,0,0,0,0,-1,1973,1569,0,0
756,-545,0,0,0,0,0,0,0,0,0,-1,1980,1569,0,0
763,-545,0,0,0,0,0,0,0,0,0,-1,1987,1569,0,0
770,-545,0,0,0,0,0,0,0,0,0,-1,1994,1569,0,0
777,-545,0,0,0,0,0,0,0,0,0,-1,2001,1569,0,0
784,-545,0,0,0,0,0,0,0,0,0,-1,2008,1569,0,0
791,-545,0,0,0,0,0,0,0,0,0,-1,2015,1569,0,0
798,-545,0,0,0,0,0,0,0,0,0,-1,2022,1569,0,0
805,-545,0,0,0,0,0,0,0,0,0,-1,2029,1569,0,0
812,-545,0,0,0,0,0,0,0,0,0,-1,2036,1569,0,0
-700,-552,0,0,0,0,0,0,0,0,0,-1,524,1576,0,0
-693,-552,0,0,0,0,0,0,0,0,0,-1,531,1576,0,0
-686,-552,0,0,0,0,0,0,0,0,0,-1,538,1576,0,0
-679,-552,0,0,0,0,0,0,0,0,0,-1,545,1576,0,0
-672,-552,0,0,0,0,0,0,0,0,0,-1,552,1576,0,0
-665,-552,0,0,0,0,0,0,0,0,0,-1,559,1576,0,0
-658,-552,0,0,0,0,0,0,0,0,0,-1,566,1576,0,0
-651,-552,0,0,0,0,0,0,0,0,0,-1,573,1576,0,0
-644,-552,0,0,0,0,0,0,0,0,0,-1,580,1576,0,0
-637,-552,0,0,0,0,0,0,0,0,0,-1,587,1576,0,0
-630,-552,0,0,0,0,0,0,0,0,0,-1,594,1576,0,0
-623,-552,0,0,0,0,0,0,0,0,0,-1,601,1576,0,0
-616,-552,0,0,0,0,0,0,0,0,0,-1,608,1576,0,0
-609,-552,0,0,0,0,0,0,0,0,0,-1,615,1576,0,0
-602,-552,0,0,0,0,0,0,0,0,0,-1,622,1576,0,0
-595,-552,0,0,0,0,0,0,0,0,0,-1,629,1576,0,0
-588,-552,0,0,0,0,0,0,0,0,0,-1,636,1576,0,0
-581,-552,0,0,0,0,0,0,0,0,0,-1,643,1576,0,0
-574,-552,0,0,0,0,0,0,0,0,0,-1,650,1576,0,0
-567,-552,0,0,0,0,0,0,0,0,0,-1,657,1576,0,0
-560,-552,0,0,0,0,0,0,0,0,0,-1,664,1576,0,0
-553,-552,0,0,0,0,0,0,0,0,0,-1,671,1576,0,0
-546,-552,0,0,0,0,0,0,0,0,0,-1,678,1576,0,0
-539,-552,0,0,0,0,0,0,0,0,0,-1,685,1576,0,0
-532,-552,0,0,0,0,0,0,0,0,0,-1,692,1576,0,0
-525,-552,0,0,0,0,0,0,0,0,0,-1,699,1576,0,0
-518,-552,0,0,0,0,0,0,0,0,0,-1,706,1576,0,0
-511,-552,0,0,0,0,0,0,0,0,0,-1,713,1576,0,0
-504,-552,0,0,0,0,0,0,0,0,0,-1,720,1576,0,0
-497,-552,1.51282,3.96924,0,0,0,0,0,0,0,-1,727,1576,1.5128,-3.96924
-490,-552,-3.82312,6.32104,0,0,0,0,0,0,0,-1,734,1576,-3.82314,-6.3211
-483,-552,-3.50586,6.47986,0,0,0,0,0,0,0,-1,741,1576,-3.50587,-6.47983
-476,-552,-1.95129,4.43054,0,0,0,0,0,0,0,-1,748,1576,-1.95128,-4.43054
-469,-552,-1.40491,7.9895,0,0,0,0,0,0,0,-1,755,1576,-1.40491,-7.98947
-462,-552,0.258972,6.98975,0,0,0,0,0,0,0,-1,762,1576,0.258987,-6.98975
-455,-552,-0.5755,11.1865,0,0,0,0,0,0,0,-1,769,1576,-0.575487,-11.1865
-448,-552,0.497803,10.9978,0.000966233,0.0131135,0.00675797,0.0161261,-0.00204634,1.15146,0.0114937,0.0461125,776,1576,0.497811,-10.9977
-441,-552,0.377014,11.7374,8.1312e-05,0.00994631,0.00504867,0.012072,-0.00204442,1.17228,0.00880894,0.0385614,783,1576,0.376989,-11.7374
-434,-552,0.253357,12.3879,-0.000414393,0.00719518,0.0038049,0.00877126,-0.00199047,1.17809,0.00661163,0.0257543,790,1576,0.253363,-12.3879
-427,-552,0.088562,12.6656,-0.000537917,0.00502209,0.00291243,0.00626834,-0.00178416,1.16647,0.00488349,0.0212182,797,1576,0.0885469,-12.6657
-420,-552,0.14386,13.0562,-0.000577935,0.00354761,0.00211705,0.00444066,-0.00147099,1.17161,0.00355374,0.0193664,804,1576,0.14386,-13.0561
-413,-552,0.141724,13.401,-0.000488043,0.00259447,0.00160291,0.0032769,-0.00117047,1.16829,0.00266196,0.0155864,811,1576,0.141736,-13.401
-406,-552,0.106018,13.7517,-0.000141417,0.00218385,0.00142592,0.00286104,-0.000818611,1.12742,0.00223087,0.0120744,818,1576,0.106003,-13.7517
-399,-552,0.105408,14.094,-0.000146943,0.00195728,0.00126571,0.00255106,-0.000740721,1.13215,0.00199401,0.012865,825,1576,0.105397,-14.0939
-392,-552,0.0753174,14.4275,0.000199527,0.001835,0.00123758,0.0025006,-0.000466078,1.07735,0.00184219,0.0141869,832,1576,0.0753248,-14.4275
-385,-552,0.0626831,14.7961,0.000968957,0.0020057,0.000486825,0.00219846,0.000776198,1.19378,0.00128742,0.0134731,839,1576,0.0627005,-14.7962
-378,-552,0.05896,15.1255,0.00192237,0.00320543,-0.000949516,0.00370982,0.00141797,-1.08249,0.00216159,0.0146825,846,1576,0.0589329,-15.1254
-371,-552,0.0544434,15.4749,0.00272037,0.00422098,-0.00239186,0.00597746,0.000963893,-0.937382,0.0037057,0.0177001,853,1576,0.0544542,-15.4749
-364,-552,0.0864868,15.8174,0.00357593,0.00554835,-0.00433669,0.00900955,0.000114724,-0.897202,0.00596849,0.0134684,860,1576,0.0864859,-15.8173
-357,-552,0.0884399,16.1388,0.00481883,0.0069668,-0.0068169,0.0127938,-0.00100816,-0.86353,0.00888434,0.00942095,867,1576,0.0884445,-16.1388
-350,-552,0.0895996,16.4939,0.00626801,0.0087019,-0.00956034,0.0171224,-0.00215253,-0.848703,0.012196,0.0100362,874,1576,0.0896086,-16.4938
-343,-552,0.0757446,16.8258,0.00768104,0.010822,-0.0127331,0.0220812,-0.00357809,-0.846758,0.016047,0.0108089,881,1576,0.0757608,-16.8258
-336,-552,0.138184,17.0916,0.00914904,0.013521,-0.0158623,0.0273473,-0.00467722,-0.853872,0.019974,0.0188937,888,1576,0.138175,-17.0915
-329,-552,0.152283,17.33,0.0109046,0.0163976,-0.0190179,0.0328663,-0.00556412,-0.85711,0.0239817,0.0387595,895,1576,0.152263,-17.33
-322,-552,0.338623,17.8201,0,0,0,0,0,0,0,-1,902,1576,0.338604,-17.8201
-315,-552,1.25183,18.1838,0,0,0,0,0,0,0,-1,909,1576,1.2518,-18.1838
-308,-552,0.325684,18.7362,0,0,0,0,0,0,0,-1,916,1576,0.325705,-18.7362
-301,-552,1.39453,18.4995,0,0,0,0,0,0,0,-1,923,1576,1.3945,-18.4995
-294,-552,0.842163,13.7863,0,0,0,0,0,0,0,-1,930,1576,0.842149,-13.7863
-287,-552,-0.663757,13.3474,0,0,0,0,0,0,0,-1,937,1576,-0.663744,-13.3474
-280,-552,-5.47241,8.96765,0,0,0,0,0,0,0,-1,944,1576,-5.47239,-8.96766
-273,-552,1.64587,10.6685,0,0,0,0,0,0,0,-1,951,1576,1.6459,-10.6685
-266,-552,-1.32678,8.05688,0,0,0,0,0,0,0,-1,958,1576,-1.32677,-8.05683
-259,-552,-5.54321,8.31213,0,0,0,0,0,0,0,-1,965,1576,-5.54324,-8.31214
-252,-552,-1.93445,7.81543,0,0,0,0,0,0,0,-1,972,1576,-1.93445,-7.81546
-245,-552,-2.53613,6.92212,0,0,0,0,0,0,0,-1,979,1576,-2.53614,-6.92216
-238,-552,-6.5365,2.81885,0,0,0,0,0,0,0,-1,986,1576,-6.53649,-2.8188
-231,-552,-4.32239,4.34583,0,0,0,0,0,0,0,-1,993,1576,-4.32239,-4.34587
-224,-552,0,0,0,0,0,0,0,0,0,-1,1000,1576,0,0
-217,-552,0,0,0,0,0,0,0,0,0,-1,1007,1576,0,0
-210,-552,0,0,0,0,0,0,0,0,0,-1,1014,1576,0,0
-203,-552,0,0,0,0,0,0,0,0,0,-1,1021,1576,0,0
-196,-552,0,0,0,0,0,0,0,0,0,-1,1028,1576,0,0
-189,-552,0,0,0,0,0,0,0,0,0,-1,1035,1576,0,0
-182,-552,0,0,0,0,0,0,0,0,0,-1,1042,1576,0,0
-175,-552,0,0,0,0,0,0,0,0,0,-1,1049,1576,0,0
-168,-552,0,0,0,0,0,0,0,0,0,-1,1056,1576,0,0
-161,-552,0,0,0,0,0,0,0,0,0,-1,1063,1576,0,0
-154,-552,0,0,0,0,0,0,0,0,0,-1,1070,1576,0,0
-147,-552,0,0,0,0,0,0,0,0,0,-1,1077,1576,0,0
-140,-552,0,0,0,0,0,0,0,0,0,-1,1084,1576,0,0
-133,-552,0,0,0,0,0,0,0,0,0,-1,1091,1576,0,0
-126,-552,0,0,0,0,0,0,0,0,0,-1,1098,1576,0,0
-119,-552,0,0,0,0,0,0,0,0,0,-1,1105,1576,0,0
-112,-552,0,0,0,0,0,0,0,0,0,-1,1112,1576,0,0
-105,-552,0,0,0,0,0,0,0,0,0,-1,1119,1576,0,0
-98,-552,0,0,0,0,0,0,0,0,0,-1,1126,1576,0,0
-91,-552,0,0,0,0,0,0,0,0,0,-1,1133,1576,0,0
-84,-552,0,0,0,0,0,0,0,0,0,-1,1140,1576,0,0
-77,-552,0,0,0,0,0,0,0,0,0,-1,1147,1576,0,0
-70,-552,0,0,0,0,0,0,0,0,0,-1,1154,1576,0,0
-63,-552,0,0,0,0,0,0,0,0,0,-1,1161,1576,0,0
-56,-552,0,0,0,0,0,0,0,0,0,-1,1168,1576,0,0
-49,-552,0,0,0,0,0,0,0,0,0,-1,1175,1576,0,0
-42,-552,0,0,0,0,0,0,0,0,0,-1,1182,1576,0,0
-35,-552,0,0,0,0,0,0,0,0,0,-1,1189,1576,0,0
-28,-552,0,0,0,0,0,0,0,0,0,-1,1196,1576,0,0
-21,-552,0,0,0,0,0,0,0,0,0,-1,1203,1576,0,0
-14,-552,0,0,0,0,0,0,0,0,0,-1,1210,1576,0,0
-7,-552,0,0,0,0,0,0,0,0,0,-1,1217,1576,0,0
0,-552,0,0,0,0,0,0,0,0,0,-1,1224,1576,0,0
7,-552,0,0,0,0,0,0,0,0,0,-1,1231,1576,0,0
14,-552,0,0,0,0,0,0,0,0,0,-1,1238,1576,0,0
21,-552,0,0,0,0,0,0,0,0,0,-1,1245,1576,0,0
28,-552,0,0,0,0,0,0,0,0,0,-1,1252,1576,0,0
35,-552,0,0,0,0,0,0,0,0,0,-1,1259,1576,0,0
42,-552,0,0,0,0,0,0,0,0,0,-1,1266,1576,0,0
49,-552,0,0,0,0,0,0,0,0,0,-1,1273,1576,0,0
56,-552,0,0,0,0,0,0,0,0,0,-1,1280,1576,0,0
63,-552,0,0,0,0,0,0,0,0,0,-1,1287,1576,0,0
70,-552,0,0,0,0,0,0,0,0,0,-1,1294,1576,0,0
77,-552,0,0,0,0,0,0,0,0,0,-1,1301,1576,0,0
84,-552,0,0,0,0,0,0,0,0,0,-1,1308,1576,0,0
91,-552,0,0,0,0,0,0,0,0,0,-1,1315,1576,0,0
98,-552,0,0,0,0,0,0,0,0,0,-1,1322,1576,0,0
105,-552,0,0,0,0,0,0,0,0,0,-1,1329,1576,0,0
112,-552,0,0,0,0,0,0,0,0,0,-1,1336,1576,0,0
119,-552,0,0,0,0,0,0,0,0,0,-1,1343,1576,0,0
126,-552,0,0,0,0,0,0,0,0,0,-1,1350,1576,0,0
133,-552,0,0,0,0,0,0,0,0,0,-1,1357,1576,0,0
140,-552,0,0,0,0,0,0,0,0,0,-1,1364,1576,0,0
147,-552,0,0,0,0,0,0,0,0,0,-1,1371,1576,0,0
154,-552,0,0,0,0,0,0,0,0,0,-1,1378,1576,0,0
161,-552,0,0,0,0,0,0,0,0,0,-1,1385,1576,0,0
168,-552,0,0,0,0,0,0,0,0,0,-1,1392,1576,0,0
175,-552,0,0,0,0,0,0,0,0,0,-1,1399,1576,0,0
182,-552,0,0,0,0,0,0,0,0,0,-1,1406,1576,0,0
189,-552,0,0,0,0,0,0,0,0,0,-1,1413,1576,0,0
196,-552,0,0,0,0,0,0,0,0,0,-1,1420,1576,0,0
203,-552,0,0,0,0,0,0,0,0,0,-1,1427,1576,0,0
210,-552,0,0,0,0,0,0,0,0,0,-1,1434,1576,0,0
217,-552,0,0,0,0,0,0,0,0,0,-1,1441,1576,0,0
224,-552,0,0,0,0,0,0,0,0,0,-1,1448,1576,0,0
231,-552,0,0,0,0,0,0,0,0,0,-1,1455,1576,0,0
238,-552,0,0,0,0,0,0,0,0,0,-1,1462,1576,0,0
245,-552,0,0,0,0,0,0,0,0,0,-1,1469,1576,0,0
252,-552,0,0,0,0,0,0,0,0,0,-1,1476,1576,0,0
259,-552,0,0,0,0,0,0,0,0,0,-1,1483,1576,0,0
266,-552,0,0,0,0,0,0,0,0,0,-1,1490,1576,0,0
273,-552,0,0,0,0,0,0,0,0,0,-1,1497,1576,0,0
280,-552,0,0,0,0,0,0,0,0,0,-1,1504,1576,0,0
287,-552,0,0,0,0,0,0,0,0,0,-1,1511,1576,0,0
294,-552,0,0,0,0,0,0,0,0,0,-1,1518,1576,0,0
301,-552,0,0,0,0,0,0,0,0,0,-1,1525,1576,0,0
308,-552,0,0,0,0,0,0,0,0,0,-1,1532,1576,0,0
315,-552,0,0,0,0,0,0,0,0,0,-1,1539,1576,0,0
322,-552,0,0,0,0,0,0,0,0,0,-1,1546,1576,0,0
329,-552,0,0,0,0,0,0,0,0,0,-1,1553,1576,0,0
336,-552,0,0,0,0,0,0,0,0,0,-1,1560,1576,0,0
343,-552,0,0,0,0,0,0,0,0,0,-1,1567,1576,0,0
350,-552,4.97876,4.09888,0,0,0,0,0,0,0,-1,1574,1576,4.97875,-4.09883
357,-552,5.18469,4.10706,0,0,0,0,0,0,0,-1,1581,1576,5.1847,-4.10702
364,-552,5.80872,5.07031,0,0,0,0,0,0,0,-1,1588,1576,5.80874,-5.07037
371,-552,7.10657,5.64783,0,0,0,0,0,0,0,-1,1595,1576,7.10651,-5.64786
378,-552,6.44446,4.91492,0,0,0,0,0,0,0,-1,1602,1576,6.44448,-4.91496
385,-552,12.8276,3.16504,0,0,0,0,0,0,0,-1,1609,1576,12.8276,-3.16503
392,-552,12.1301,4.3363,0,0,0,0,0,0,0,-1,1616,1576,12.1302,-4.33631
399,-552,11.3486,5.6012,0,0,0,0,0,0,0,-1,1623,1576,11.3486,-5.60115
406,-552,10.7863,6.42542,0,0,0,0,0,0,0,-1,1630,1576,10.7863,-6.42536
413,-552,8.39307,10.365,0,0,0,0,0,0,0,-1,1637,1576,8.3931,-10.365
420,-552,10.2306,12.7225,0,0,0,0,0,0,0,-1,1644,1576,10.2305,-12.7226
427,-552,9.73267,14.783,0,0,0,0,0,0,0,-1,1651,1576,9.73269,-14.783
434,-552,12.0377,20.1364,0,0,0,0,0,0,0,-1,1658,1576,12.0377,-20.1364
441,-552,10.7095,18.3574,0,0,0,0,0,0,0,-1,1665,1576,10.7095,-18.3574
448,-552,12.5988,19.3571,0,0,0,0,0,0,0,-1,1672,1576,12.5988,-19.3571
455,-552,12.4104,18.8485,0,0,0,0,0,0,0,-1,1679,1576,12.4104,-18.8485
462,-552,12.2537,18.469,0,0,0,0,0,0,0,-1,1686,1576,12.2537,-18.469
469,-552,12.0267,18.2157,-0.00497293,-0.0216919,0.020078,0.00841628,-0.0350811,0.588137,0.0266398,0.0496469,1693,1576,12.0267,-18.2156
476,-552,11.8604,17.973,-0.00365419,-0.0173372,0.0160525,0.00695388,-0.0279453,0.583956,0.0213294,0.0295824,1700,1576,11.8604,-17.9731
483,-552,11.9604,17.5803,-0.00257591,-0.0132716,0.0125076,0.00567917,-0.0215266,0.583377,0.0165718,0.0196604,1707,1576,11.9605,-17.5804
490,-552,11.9269,17.3019,-0.00173262,-0.0096786,0.00945735,0.00455236,-0.0159636,0.586544,0.0124407,0.0146748,1714,1576,11.9269,-17.3019
497,-552,11.9722,16.9907,-0.000984406,-0.00679216,0.0068076,0.00351279,-0.0112894,0.583801,0.00893051,0.0221845,1721,1576,11.9722,-16.9907
504,-552,11.9678,16.6765,-0.000255616,-0.00427264,0.00457914,0.00273614,-0.00726439,0.578722,0.00596785,0.023497,1728,1576,11.9678,-16.6765
511,-552,11.9467,16.3646,0.000127024,-0.00268574,0.00302283,0.00205462,-0.00461334,0.567665,0.00394309,0.0167821,1735,1576,11.9466,-16.3646
518,-552,11.9429,16.0542,0.00033892,-0.00155783,0.00184939,0.00146892,-0.00268783,0.548479,0.00243405,0.0148122,1742,1576,11.9428,-16.0542
525,-552,11.9183,15.7462,0.000471555,-0.000729545,0.000971713,0.00101332,-0.00127131,0.508612,0.00132183,0.0140987,1749,1576,11.9184,-15.7462
532,-552,11.9149,15.4396,0.000545286,-0.000641879,0.000614559,0.000806117,-0.00090271,0.401379,0.000987117,0.0135127,1756,1576,11.9149,-15.4396
539,-552,11.8914,15.1188,0.000647809,-0.00124478,0.000761885,0.000916398,-0.00151337,0.338929,0.00141687,0.0176547,1763,1576,11.8913,-15.1188
546,-552,11.8817,14.7783,0.000572123,-0.00217545,0.00119161,0.00101691,-0.00262024,0.357251,0.00216685,0.0223908,1770,1576,11.8818,-14.7783
553,-552,11.9163,14.3938,0.000374809,-0.00330759,0.00200453,0.0012554,-0.00418819,0.413922,0.00329139,0.025918,1777,1576,11.9163,-14.3938
560,-552,11.8629,14.1442,0.000172906,-0.00475939,0.00301054,0.00159845,-0.00618493,0.442237,0.00474668,0.0495982,1784,1576,11.8629,-14.1441
567,-552,11.9984,13.6262,0,0,0,0,0,0,0,-1,1791,1576,11.9985,-13.6262
574,-552,11.9689,13.4098,0,0,0,0,0,0,0,-1,1798,1576,11.9689,-13.4097
581,-552,9.74841,9.98645,0,0,0,0,0,0,0,-1,1805,1576,9.74847,-9.9864
588,-552,10.5619,9.34924,0,0,0,0,0,0,0,-1,1812,1576,10.5619,-9.34921
595,-552,5.36194,6.62744,0,0,0,0,0,0,0,-1,1819,1576,5.36193,-6.62742
602,-552,10.6863,4.31616,0,0,0,0,0,0,0,-1,1826,1576,10.6862,-4.31619
609,-552,12.146,3.18286,0,0,0,0,0,0,0,-1,1833,1576,12.1459,-3.18281
616,-552,13.8762,2.08167,0,0,0,0,0,0,0,-1,1840,1576,13.8763,-2.08167
623,-552,0,0,0,0,0,0,0,0,0,-1,1847,1576,0,0
630,-552,0,0,0,0,0,0,0,0,0,-1,1854,1576,0,0
637,-552,0,0,0,0,0,0,0,0,0,-1,1861,1576,0,0
644,-552,0,0,0,0,0,0,0,0,0,-1,1868,1576,0,0
651,-552,0,0,0,0,0,0,0,0,0,-1,1875,1576,0,0
658,-552,0,0,0,0,0,0,0,0,0,-1,1882,1576,0,0
665,-552,0,0,0,0,0,0,0,0,0,-1,1889,1576,0,0
672,-552,0,0,0,0,0,0,0,0,0,-1,1896,1576,0,0
679,-552,0,0,0,0,0,0,0,0,0,-1,1903,1576,0,0
686,-552,0,0,0,0,0,0,0,0,0,-1,1910,1576,0,0
693,-552,0,0,0,0,0,0,0,0,0,-1,1917,1576,0,0
700,-552,0,0,0,0,0,0,0,0,0,-1,1924,1576,0,0
707,-552,0,0,0,0,0,0,0,0,0,-1,1931,1576,0,0
714,-552,0,0,0,0,0,0,0,0,0,-1,1938,1576,0,0
721,-552,0,0,0,0,0,0,0,0,0,-1,1945,1576,0,0
728,-552,0,0,0,0,0,0,0,0,0,-1,1952,1576,0,0
735,-552,0,0,0,0,0,0,0,0,0,-1,1959,1576,0,0
742,-552,0,0,0,0,0,0,0,0,0,-1,1966,1576,0,0
749,-552,0,0,0,0,0,0,0,0,0,-1,1973,1576,0,0
756,-552,0,0,0,0,0,0,0,0,0,-1,1980,1576,0,0
763,-552,0,0,0,0,0,0,0,0,0,-1,1987,1576,0,0
770,-552,0,0,0,0,0,0,0,0,0,-1,1994,1576,0,0
777,-552,0,0,0,0,0,0,0,0,0,-1,2001,1576,0,0
784,-552,0,0,0,0,0,0,0,0,0,-1,2008,1576,0,0
791,-552,0,0,0,0,0,0,0,0,0,-1,2015,1576,0,0
798,-552,0,0,0,0,0,0,0,0,0,-1,2022,1576,0,0
805,-552,0,0,0,0,0,0,0,0,0,-1,2029,1576,0,0
812,-552,0,0,0,0,0,0,0,0,0,-1,2036,1576,0,0
-700,-559,0,0,0,0,0,0,0,0,0,-1,524,1583,0,0
-693,-559,0,0,0,0,0,0,0,0,0,-1,531,1583,0,0
-686,-559,0,0,0,0,0,0,0,0,0,-1,538,1583,0,0
-679,-559,0,0,0,0,0,0,0,0,0,-1,545,1583,0,0
-672,-559,0,0,0,0,0,0,0,0,0,-1,552,1583,0,0
-665,-559,0,0,0,0,0,0,0,0,0,-1,559,1583,0,0
-658,-559,0,0,0,0,0,0,0,0,0,-1,566,1583,0,0
-651,-559,0,0,0,0,0,0,0,0,0,-1,573,1583,0,0
-644,-559,0,0,0,0,0,0,0,0,0,-1,580,1583,0,0
-637,-559,0,0,0,0,0,0,0,0,0,-1,587,1583,0,0
-630,-559,0,0,0,0,0,0,0,0,0,-1,594,1583,0,0
-623,-559,0,0,0,0,0,0,0,0,0,-1,601,1583,0,0
-616,-559,0,0,0,0,0,0,0,0,0,-1,608,1583,0,0
-609,-559,0,0,0,0,0,0,0,0,0,-1,615,1583,0,0
-602,-559,0,0,0,0,0,0,0,0,0,-1,622,1583,0,0
-595,-559,0,0,0,0,0,0,0,0,0,-1,629,1583,0,0
-588,-559,0,0,0,0,0,0,0,0,0,-1,636,1583,0,0
-581,-559,0,0,0,0,0,0,0,0,0,-1,643,1583,0,0
-574,-559,0,0,0,0,0,0,0,0,0,-1,650,1583,0,0
-567,-559,0,0,0,0,0,0,0,0,0,-1,657,1583,0,0
-560,-559,0,0,0,0,0,0,0,0,0,-1,664,1583,0,0
-553,-559,0,0,0,0,0,0,0,0,0,-1,671,1583,0,0
-546,-559,0,0,0,0,0,0,0,0,0,-1,678,1583,0,0
-539,-559,0,0,0,0,0,0,0,0,0,-1,685,1583,0,0
-532,-559,0,0,0,0,0,0,0,0,0,-1,692,1583,0,0
-525,-559,0,0,0,0,0,0,0,0,0,-1,699,1583,0,0
-518,-559,0,0,0,0,0,0,0,0,0,-1,706,1583,0,0
-511,-559,0,0,0,0,0,0,0,0,0,-1,713,1583,0,0
-504,-559,0,0,0,0,0,0,0,0,0,-1,720,1583,0,0
-497,-559,0,0,0,0,0,0,0,0,0,-1,727,1583,0,0
-490,-559,-5.49835,4.47424,0,0,0,0,0,0,0,-1,734,1583,-5.49833,-4.4743
-483,-559,-5.24078,4.74561,0,0,0,0,0,0,0,-1,741,1583,-5.24079,-4.74563
-476,-559,-4.98022,4.99316,0,0,0,0,0,0,0,-1,748,1583,-4.98024,-4.99321
-469,-559,-4.6424,5.38062,0,0,0,0,0,0,0,-1,755,1583,-4.64237,-5.38058
-462,-559,-0.161865,6.49438,0,0,0,0,0,0,0,-1,762,1583,-0.161835,-6.49444
-455,-559,1.08826,7.02527,0,0,0,0,0,0,0,-1,769,1583,1.08823,-7.02529
-448,-559,0.919739,10.6443,0,0,0,0,0,0,0,-1,776,1583,0.919742,-10.6442
-441,-559,1.15649,11.7766,0,0,0,0,0,0,0,-1,783,1583,1.15649,-11.7766
-434,-559,0.803284,12.2391,-0.000480273,0.00904341,0.00507272,0.0112391,-0.00267599,1.1623,0.0085259,0.0409385,790,1583,0.803283,-12.2391
-427,-559,0.520569,12.8015,-0.000932141,0.00604364,0.00373257,0.00766432,-0.00255282,1.16116,0.00614001,0.029212,797,1583,0.520543,-12.8015
-420,-559,0.425293,13.0503,-0.00115757,0.00402959,0.00260841,0.00511438,-0.00224237,1.17667,0.00435397,0.032057,804,1583,0.425296,-13.0503
-413,-559,0.468018,13.4034,-0.00118589,0.00268356,0.00183133,0.00341284,-0.00191517,1.19182,0.00311637,0.0145453,811,1583,0.468035,-13.4035
-406,-559,0.447998,13.7711,-0.000881832,0.00194539,0.00143948,0.0025493,-0.00148574,1.17356,0.00235645,0.00950389,818,1583,0.448003,-13.7712
-399,-559,0.442444,14.1234,-0.000928401,0.0014417,0.00113643,0.00189854,-0.00138525,1.18857,0.0019036,0.0118193,825,1583,0.442429,-14.1235
-392,-559,0.412964,14.4507,-0.00058233,0.00106114,0.000996983,0.00153139,-0.00105258,1.13007,0.00150037,0.0149047,832,1583,0.412988,-14.4506
-385,-559,0.393433,14.8013,0.000119879,0.00113189,0.000458798,0.00130892,-5.71509e-05,1.20254,0.000892274,0.0159048,839,1583,0.393433,-14.8012
-378,-559,0.411621,15.1335,0.000994424,0.00181698,-0.00052463,0.00207232,0.000739079,-1.11783,0.00121274,0.014216,846,1583,0.411619,-15.1335
-371,-559,0.408752,15.4753,0.00172425,0.00252166,-0.001639,0.00380976,0.000436157,-0.904711,0.00240766,0.0210031,853,1583,0.40876,-15.4754
-364,-559,0.426941,15.8026,0.00246592,0.00347937,-0.00305017,0.00606462,-0.000119335,-0.867711,0.00408344,0.0196157,860,1583,0.42691,-15.8027
-357,-559,0.415771,16.1298,0.0035658,0.00438149,-0.00479384,0.0087848,-0.00083751,-0.827834,0.00615473,0.0121959,867,1583,0.415768,-16.1298
-350,-559,0.416504,16.4637,0.00484098,0.00549233,-0.00663936,0.011814,-0.00148069,-0.809905,0.00841311,0.0102185,874,1583,0.416517,-16.4637
-343,-559,0.412354,16.793,0.00602669,0.00686084,-0.00866858,0.0151224,-0.00223484,-0.809436,0.0109031,0.0101802,881,1583,0.412323,-16.793
-336,-559,0.383484,17.0945,0.00719866,0.00865286,-0.0105656,0.0185163,-0.00266478,-0.819753,0.0133216,0.0135633,888,1583,0.383489,-17.0945
-329,-559,0.439514,17.5337,0.00857212,0.0105048,-0.0124241,0.0220001,-0.0029232,-0.82421,0.0157319,0.0225279,895,1583,0.439492,-17.5337
-322,-559,0.650879,18.0782,0,0,0,0,0,0,0,-1,902,1583,0.650862,-18.0782
-315,-559,0.244019,18.2434,0,0,0,0,0,0,0,-1,909,1583,0.243997,-18.2435
-308,-559,0.599487,18.5758,0,0,0,0,0,0,0,-1,916,1583,0.599514,-18.5758
-301,-559,0.955017,18.9081,0,0,0,0,0,0,0,-1,923,1583,0.95503,-18.9081
-294,-559,0.945129,18.5165,0,0,0,0,0,0,0,-1,930,1583,0.945117,-18.5165
-287,-559,-0.11792,15.4912,0,0,0,0,0,0,0,-1,937,1583,-0.117939,-15.4912
-280,-559,0.191467,13.5093,0,0,0,0,0,0,0,-1,944,1583,0.191441,-13.5093
-273,-559,2.12836,10.3059,0,0,0,0,0,0,0,-1,951,1583,2.12839,-10.3059
-266,-559,-0.597046,6.68933,0,0,0,0,0,0,0,-1,958,1583,-0.597031,-6.68937
-259,-559,-7.00311,8.62756,0,0,0,0,0,0,0,-1,965,1583,-7.00312,-8.6275
-252,-559,-9.4483,2.87805,0,0,0,0,0,0,0,-1,972,1583,-9.44829,-2.87805
-245,-559,-4.80804,7.1803,0,0,0,0,0,0,0,-1,979,1583,-4.80804,-7.18027
-238,-559,-8.45764,2.54858,0,0,0,0,0,0,0,-1,986,1583,-8.45763,-2.54862
-231,-559,-5.86914,4.34021,0,0,0,0,0,0,0,-1,993,1583,-5.86914,-4.34019
-224,-559,-3.30505,6.22864,0,0,0,0,0,0,0,-1,1000,1583,-3.30505,-6.22859
-217,-559,0,0,0,0,0,0,0,0,0,-1,1007,1583,0,0
-210,-559,0,0,0,0,0,0,0,0,0,-1,1014,1583,0,0
-203,-559,0,0,0,0,0,0,0,0,0,-1,1021,1583,0,0
-196,-559,0,0,0,0,0,0,0,0,0,-1,1028,1583,0,0
-189,-559,0,0,0,0,0,0,0,0,0,-1,1035,1583,0,0
-182,-559,0,0,0,0,0,0,0,0,0,-1,1042,1583,0,0
-175,-559,0,0,0,0,0,0,0,0,0,-1,1049,1583,0,0
-168,-559,0,0,0,0,0,0,0,0,0,-1,1056,1583,0,0
-161,-559,0,0,0,0,0,0,0,0,0,-1,1063,1583,0,0
-154,-559,0,0,0,0,0,0,0,0,0,-1,1070,1583,0,0
-147,-559,0,0,0,0,0,0,0,0,0,-1,1077,1583,0,0
-140,-559,0,0,0,0,0,0,0,0,0,-1,1084,1583,0,0
-133,-559,0,0,0,0,0,0,0,0,0,-1,1091,1583,0,0
-126,-559,0,0,0,0,0,0,0,0,0,-1,1098,1583,0,0
-119,-559,0,0,0,0,0,0,0,0,0,-1,1105,1583,0,0
-112,-559,0,0,0,0,0,0,0,0,0,-1,1112,1583,0,0
-105,-559,0,0,0,0,0,0,0,0,0,-1,1119,1583,0,0
-98,-559,0,0,0,0,0,0,0,0,0,-1,1126,1583,0,0
-91,-559,0,0,0,0,0,0,0,0,0,-1,1133,1583,0,0
-84,-559,0,0,0,0,0,0,0,0,0,-1,1140,1583,0,0
-77,-559,0,0,0,0,0,0,0,0,0,-1,1147,1583,0,0
-70,-559,0,0,0,0,0,0,0,0,0,-1,1154,1583,0,0
-63,-559,0,0,0,0,0,0,0,0,0,-1,1161,1583,0,0
-56,-559,0,0,0,0,0,0,0,0,0,-1,1168,1583,0,0
-49,-559,0,0,0,0,0,0,0,0,0,-1,1175,1583,0,0
-42,-559,0,0,0,0,0,0,0,0,0,-1,1182,1583,0,0
-35,-559,0,0,0,0,0,0,0,0,0,-1,1189,1583,0,0
-28,-559,0,0,0,0,0,0,0,0,0,-1,1196,1583,0,0
-21,-559,0,0,0,0,0,0,0,0,0,-1,1203,1583,0,0
-14,-559,0,0,0,0,0,0,0,0,0,-1,1210,1583,0,0
-7,-559,0,0,0,0,0,0,0,0,0,-1,1217,1583,0,0
0,-559,0,0,0,0,0,0,0,0,0,-1,1224,1583,0,0
7,-559,0,0,0,0,0,0,0,0,0,-1,1231,1583,0,0
14,-559,0,0,0,0,0,0,0,0,0,-1,1238,1583,0,0
21,-559,0,0,0,0,0,0,0,0,0,-1,1245,1583,0,0
28,-559,0,0,0,0,0,0,0,0,0,-1,1252,1583,0,0
35,-559,0,0,0,0,0,0,0,0,0,-1,1259,1583,0,0
42,-559,0,0,0,0,0,0,0,0,0,-1,1266,1583,0,0
49,-559,0,0,0,0,0,0,0,0,0,-1,1273,1583,0,0
56,-559,0,0,0,0,0,0,0,0,0,-1,1280,1583,0,0
63,-559,0,0,0,0,0,0,0,0,0,-1,1287,1583,0,0
70,-559,0,0,0,0,0,0,0,0,0,-1,1294,1583,0,0
77,-559,0,0,0,0,0,0,0,0,0,-1,1301,1583,0,0
84,-559,0,0,0,0,0,0,0,0,0,-1,1308,1583,0,0
91,-559,0,0,0,0,0,0,0,0,0,-1,1315,1583,0,0
98,-559,0,0,0,0,0,0,0,0,0,-1,1322,1583,0,0
105,-559,0,0,0,0,0,0,0,0,0,-1,1329,1583,0,0
112,-559,0,0,0,0,0,0,0,0,0,-1,1336,1583,0,0
119,-559,0,0,0,0,0,0,0,0,0,-1,1343,1583,0,0
126,-559,0,0,0,0,0,0,0,0,0,-1,1350,1583,0,0
133,-559,0,0,0,0,0,0,0,0,0,-1,1357,1583,0,0
140,-559,0,0,0,0,0,0,0,0,0,-1,1364,1583,0,0
147,-559,0,0,0,0,0,0,0,0,0,-1,1371,1583,0,0
154,-559,0,0,0,0,0,0,0,0,0,-1,1378,1583,0,0
161,-559,0,0,0,0,0,0,0,0,0,-1,1385,1583,0,0
168,-559,0,0,0,0,0,0,0,0,0,-1,1392,1583,0,0
175,-559,0,0,0,0,0,0,0,0,0,-1,1399,1583,0,0
182,-559,0,0,0,0,0,0,0,0,0,-1,1406,1583,0,0
189,-559,0,0,0,0,0,0,0,0,0,-1,1413,1583,0,0
196,-559,0,0,0,0,0,0,0,0,0,-1,1420,1583,0,0
203,-559,0,0,0,0,0,0,0,0,0,-1,1427,1583,0,0
210,-559,0,0,0,0,0,0,0,0,0,-1,1434,1583,0,0
217,-559,0,0,0,0,0,0,0,0,0,-1,1441,1583,0,0
224,-559,0,0,0,0,0,0,0,0,0,-1,1448,1583,0,0
231,-559,0,0,0,0,0,0,0,0,0,-1,1455,1583,0,0
238,-559,0,0,0,0,0,0,0,0,0,-1,1462,1583,0,0
245,-559,0,0,0,0,0,0,0,0,0,-1,1469,1583,0,0
252,-559,0,0,0,0,0,0,0,0,0,-1,1476,1583,0,0
259,-559,0,0,0,0,0,0,0,0,0,-1,1483,1583,0,0
266,-559,0,0,0,0,0,0,0,0,0,-1,1490,1583,0,0
273,-559,0,0,0,0,0,0,0,0,0,-1,1497,1583,0,0
280,-559,0,0,0,0,0,0,0,0,0,-1,1504,1583,0,0
287,-559,0,0,0,0,0,0,0,0,0,-1,1511,1583,0,0
294,-559,0,0,0,0,0,0,0,0,0,-1,1518,1583,0,0
301,-559,0,0,0,0,0,0,0,0,0,-1,1525,1583,0,0
308,-559,0,0,0,0,0,0,0,0,0,-1,1532,1583,0,0
315,-559,0,0,0,0,0,0,0,0,0,-1,1539,1583,0,0
322,-559,0,0,0,0,0,0,0,0,0,-1,1546,1583,0,0
329,-559,0,0,0,0,0,0,0,0,0,-1,1553,1583,0,0
336,-559,5.97668,3.09827,0,0,0,0,0,0,0,-1,1560,1583,5.97667,-3.09824
343,-559,5.44824,2.88696,0,0,0,0,0,0,0,-1,1567,1583,5.44819,-2.88693
350,-559,4.69775,3.27051,0,0,0,0,0,0,0,-1,1574,1583,4.69771,-3.27048
357,-559,3.88025,3.60999,0,0,0,0,0,0,0,-1,1581,1583,3.88027,-3.60998
364,-559,5.00928,5.32605,0,0,0,0,0,0,0,-1,1588,1583,5.00928,-5.32607
371,-559,1.84436,2.52441,0,0,0,0,0,0,0,-1,1595,1583,1.84441,-2.52447
378,-559,6.34753,1.53137,0,0,0,0,0,0,0,-1,1602,1583,6.34752,-1.53139
385,-559,6.95911,1.48181,0,0,0,0,0,0,0,-1,1609,1583,6.95916,-1.48175
392,-559,11.6949,4.77734,0,0,0,0,0,0,0,-1,1616,1583,11.6949,-4.77731
399,-559,11.1104,5.56909,0,0,0,0,0,0,0,-1,1623,1583,11.1103,-5.56905
406,-559,10.3385,6.48657,0,0,0,0,0,0,0,-1,1630,1583,10.3385,-6.48661
413,-559,9.76147,6.97571,0,0,0,0,0,0,0,-1,1637,1583,9.76143,-6.97574
420,-559,7.77124,10.5851,0,0,0,0,0,0,0,-1,1644,1583,7.77128,-10.585
427,-559,10.1022,12.5565,0,0,0,0,0,0,0,-1,1651,1583,10.1021,-12.5565
434,-559,9.62769,14.6309,0,0,0,0,0,0,0,-1,1658,1583,9.62771,-14.6309
441,-559,12.7729,19.7036,0,0,0,0,0,0,0,-1,1665,1583,12.773,-19.7036
448,-559,12.0137,18.7714,0,0,0,0,0,0,0,-1,1672,1583,12.0136,-18.7714
455,-559,12.0839,18.7246,0,0,0,0,0,0,0,-1,1679,1583,12.0839,-18.7247
462,-559,11.399,18.7673,0,0,0,0,0,0,0,-1,1686,1583,11.3991,-18.7674
469,-559,11.4867,18.3373,-0.00359562,-0.0130048,0.0132769,0.00578555,-0.022386,0.615127,0.0171804,0.0279886,1693,1583,11.4866,-18.3373
476,-559,11.5796,17.9561,-0.00257229,-0.0105693,0.0105874,0.00474653,-0.0178881,0.604846,0.0137828,0.0129119,1700,1583,11.5796,-17.9561
483,-559,11.6404,17.6018,-0.00172938,-0.00817108,0.00822929,0.00388691,-0.0137874,0.598868,0.0107246,0.0124609,1707,1583,11.6404,-17.6018
490,-559,11.6229,17.2961,-0.00105877,-0.00595162,0.00615069,0.00311416,-0.0101246,0.596116,0.00799262,0.0153241,1714,1583,11.6229,-17.2961
497,-559,11.6399,16.9968,-0.000438892,-0.00409649,0.00425741,0.00236589,-0.00690126,0.582536,0.00555988,0.0188444,1721,1583,11.6398,-16.9969
504,-559,11.6365,16.6923,0.000156508,-0.00242231,0.00269995,0.00185914,-0.00412495,0.562628,0.0035365,0.0226907,1728,1583,11.6365,-16.6922
511,-559,11.6329,16.3732,0.000418288,-0.00154296,0.00170121,0.00140127,-0.00252594,0.523945,0.00229816,0.0189177,1735,1583,11.6329,-16.3731
518,-559,11.6531,16.0507,0.000558964,-0.000893536,0.00093911,0.00101988,-0.00135445,0.456262,0.00137535,0.0132797,1742,1583,11.653,-16.0506
525,-559,11.6343,15.7335,0.000633632,-0.000584821,0.000476783,0.000798019,-0.000749208,0.332022,0.000893441,0.0119269,1749,1583,11.6343,-15.7335
532,-559,11.6052,15.4323,0.000692086,-0.000954919,0.000502669,0.00083338,-0.00109621,0.274017,0.00111749,0.0131909,1756,1583,11.6052,-15.4322
539,-559,11.5752,15.139,0.000740786,-0.00179321,0.000857869,0.00100389,-0.00205631,0.297592,0.0018013,0.0188164,1763,1583,11.5751,-15.139
546,-559,11.5562,14.8138,0.000619204,-0.00295652,0.00151256,0.0011732,-0.00351051,0.351089,0.00281414,0.0173648,1770,1583,11.5562,-14.8139
553,-559,11.6923,14.4047,0.00037364,-0.00444631,0.00268137,0.0015689,-0.00564157,0.419327,0.00437873,0.0239383,1777,1583,11.6923,-14.4047
560,-559,11.6571,14.2604,0.000121178,-0.00643224,0.00408257,0.00207937,-0.00839043,0.447233,0.00640035,0.0476789,1784,1583,11.6571,-14.2604
567,-559,11.5518,13.8861,0,0,0,0,0,0,0,-1,1791,1583,11.5518,-13.8861
574,-559,10.5109,10.7317,0,0,0,0,0,0,0,-1,1798,1583,10.5108,-10.7317
581,-559,5.97095,5.96179,0,0,0,0,0,0,0,-1,1805,1583,5.97093,-5.96181
588,-559,5.79102,5.89954,0,0,0,0,0,0,0,-1,1812,1583,5.79098,-5.89949
595,-559,5.79089,6.24231,0,0,0,0,0,0,0,-1,1819,1583,5.7909,-6.24227
602,-559,12.478,2.35669,0,0,0,0,0,0,0,-1,1826,1583,12.4781,-2.35675
609,-559,14.0479,1.22681,0,0,0,0,0,0,0,-1,1833,1583,14.0479,-1.22681
616,-559,0,0,0,0,0,0,0,0,0,-1,1840,1583,0,0
623,-559,0,0,0,0,0,0,0,0,0,-1,1847,1583,0,0
630,-559,0,0,0,0,0,0,0,0,0,-1,1854,1583,0,0
637,-559,0,0,0,0,0,0,0,0,0,-1,1861,1583,0,0
644,-559,0,0,0,0,0,0,0,0,0,-1,1868,1583,0,0
651,-559,0,0,0,0,0,0,0,0,0,-1,1875,1583,0,0
658,-559,0,0,0,0,0,0,0,0,0,-1,1882,1583,0,0
665,-559,0,0,0,0,0,0,0,0,0,-1,1889,1583,0,0
672,-559,0,0,0,0,0,0,0,0,0,-1,1896,1583,0,0
679,-559,0,0,0,0,0,0,0,0,0,-1,1903,1583,0,0
686,-559,0,0,0,0,0,0,0,0,0,-1,1910,1583,0,0
693,-559,0,0,0,0,0,0,0,0,0,-1,1917,1583,0,0
700,-559,0,0,0,0,0,0,0,0,0,-1,1924,1583,0,0
707,-559,0,0,0,0,0,0,0,0,0,-1,1931,1583,0,0
714,-559,0,0,0,0,0,0,0,0,0,-1,1938,1583,0,0
721,-559,0,0,0,0,0,0,0,0,0,-1,1945,1583,0,0
728,-559,0,0,0,0,0,0,0,0,0,-1,1952,1583,0,0
735,-559,0,0,0,0,0,0,0,0,0,-1,1959,1583,0,0
742,-559,0,0,0,0,0,0,0,0,0,-1,1966,1583,0,0
749,-559,0,0,0,0,0,0,0,0,0,-1,1973,1583,0,0
756,-559,0,0,0,0,0,0,0,0,0,-1,1980,1583,0,0
763,-559,0,0,0,0,0,0,0,0,0,-1,1987,1583,0,0
770,-559,0,0,0,0,0,0,0,0,0,-1,1994,1583,0,0
777,-559,0,0,0,0,0,0,0,0,0,-1,2001,1583,0,0
784,-559,0,0,0,0,0,0,0,0,0,-1,2008,1583,0,0
791,-559,0,0,0,0,0,0,0,0,0,-1,2015,1583,0,0
798,-559,0,0,0,0,0,0,0,0,0,-1,2022,1583,0,0
805,-559,0,0,0,0,0,0,0,0,0,-1,2029,1583,0,0
812,-559,0,0,0,0,0,0,0,0,0,-1,2036,1583,0,0
-700,-566,0,0,0,0,0,0,0,0,0,-1,524,1590,0,0
-693,-566,0,0,0,0,0,0,0,0,0,-1,531,1590,0,0
-686,-566,0,0,0,0,0,0,0,0,0,-1,538,1590,0,0
-679,-566,0,0,0,0,0,0,0,0,0,-1,545,1590,0,0
-672,-566,0,0,0,0,0,0,0,0,0,-1,552,1590,0,0
-665,-566,0,0,0,0,0,0,0,0,0,-1,559,1590,0,0
-658,-566,0,0,0,0,0,0,0,0,0,-1,566,1590,0,0
-651,-566,0,0,0,0,0,0,0,0,0,-1,573,1590,0,0
-644,-566,0,0,0,0,0,0,0,0,0,-1,580,1590,0,0
-637,-566,0,0,0,0,0,0,0,0,0,-1,587,1590,0,0
-630,-566,0,0,0,0,0,0,0,0,0,-1,594,1590,0,0
-623,-566,0,0,0,0,0,0,0,0,0,-1,601,1590,0,0
-616,-566,0,0,0,0,0,0,0,0,0,-1,608,1590,0,0
-609,-566,0,0,0,0,0,0,0,0,0,-1,615,1590,0,0
-602,-566,0,0,0,0,0,0,0,0,0,-1,622,1590,0,0
-595,-566,0,0,0,0,0,0,0,0,0,-1,629,1590,0,0
-588,-566,0,0,0,0,0,0,0,0,0,-1,636,1590,0,0
-581,-566,0,0,0,0,0,0,0,0,0,-1,643,1590,0,0
-574,-566,0,0,0,0,0,0,0,0,0,-1,650,1590,0,0
-567,-566,0,0,0,0,0,0,0,0,0,-1,657,1590,0,0
-560,-566,0,0,0,0,0,0,0,0,0,-1,664,1590,0,0
-553,-566,0,0,0,0,0,0,0,0,0,-1,671,1590,0,0
-546,-566,0,0,0,0,0,0,0,0,0,-1,678,1590,0,0
-539,-566,0,0,0,0,0,0,0,0,0,-1,685,1590,0,0
-532,-566,0,0,0,0,0,0,0,0,0,-1,692,1590,0,0
-525,-566,0,0,0,0,0,0,0,0,0,-1,699,1590,0,0
-518,-566,0,0,0,0,0,0,0,0,0,-1,706,1590,0,0
-511,-566,0,0,0,0,0,0,0,0,0,-1,713,1590,0,0
-504,-566,0,0,0,0,0,0,0,0,0,-1,720,1590,0,0
-497,-566,0,0,0,0,0,0,0,0,0,-1,727,1590,0,0
-490,-566,0,0,0,0,0,0,0,0,0,-1,734,1590,0,0
-483,-566,-7.17084,2.78613,0,0,0,0,0,0,0,-1,741,1590,-7.17083,-2.78618
-476,-566,-7.13971,2.87183,0,0,0,0,0,0,0,-1,748,1590,-7.13971,-2.87184
-469,-566,-6.43829,3.2998,0,0,0,0,0,0,0,-1,755,1590,-6.43829,-3.2998
-462,-566,-0.459106,3.89343,0,0,0,0,0,0,0,-1,762,1590,-0.459095,-3.89341
-455,-566,0.280212,4.74023,0,0,0,0,0,0,0,-1,769,1590,0.280207,-4.74023
-448,-566,0.436951,5.51306,0,0,0,0,0,0,0,-1,776,1590,0.436971,-5.51301
-441,-566,1.09808,10.748,0,0,0,0,0,0,0,-1,783,1590,1.09811,-10.748
-434,-566,1.22552,12.2001,0,0,0,0,0,0,0,-1,790,1590,1.22552,-12.2001
-427,-566,0.497192,12.7213,-0.00138548,0.00711899,0.00480227,0.00928106,-0.00354755,1.14776,0.0076492,0.043767,797,1590,0.497185,-12.7213
-420,-566,0.551086,13.2465,-0.00178759,0.00455133,0.00328911,0.00594956,-0.00318582,1.16884,0.00535416,0.0479339,804,1590,0.551107,-13.2464
-413,-566,0.782776,13.4082,-0.00189316,0.00285183,0.00226822,0.00376165,-0.00280297,1.18933,0.00380353,0.0228521,811,1590,0.782801,-13.4082
-406,-566,0.785706,13.7686,-0.00161175,0.00175753,0.00165272,0.00243287,-0.00228709,1.18288,0.0027255,0.0103295,818,1590,0.785709,-13.7686
-399,-566,0.772583,14.1154,-0.00166918,0.00098417,0.00121624,0.0014573,-0.00214231,1.1998,0.00209074,0.00914905,825,1590,0.772586,-14.1154
-392,-566,0.769836,14.4495,-0.00130168,0.00038593,0.000978725,0.000834375,-0.00175012,1.14115,0.00152306,0.0114551,832,1590,0.769866,-14.4494
-385,-566,0.7854,14.8004,-0.000661792,0.000370254,0.000633372,0.000671202,-0.000962739,1.12723,0.000948348,0.0142987,839,1590,0.785379,-14.8005
-378,-566,0.768677,15.1589,0.000135785,0.000684957,1.86024e-05,0.000685586,0.000135155,1.53697,0.00041933,0.0145262,846,1590,0.76865,-15.1589
-371,-566,0.731445,15.5066,0.000808542,0.00117082,-0.000845425,0.0018543,0.000125071,-0.890933,0.00119669,0.0202406,853,1590,0.731451,-15.5066
-364,-566,0.735046,15.8287,0.00146057,0.00187871,-0.00184963,0.00353105,-0.000191766,-0.841676,0.00242049,0.0217392,860,1590,0.735027,-15.8287
-357,-566,0.733398,16.1414,0.0024323,0.00245793,-0.00305062,0.00549576,-0.000605526,-0.787499,0.00388146,0.0179904,867,1590,0.733415,-16.1413
-350,-566,0.781067,16.4738,0.00354354,0.00320196,-0.00427858,0.00765474,-0.000909236,-0.76545,0.00543166,0.020183,874,1590,0.781062,-16.4737
-343,-566,0.780579,16.7561,0.00452769,0.00412009,-0.00555382,0.00988145,-0.00123367,-0.767059,0.00703501,0.024043,881,1590,0.780555,-16.7561
-336,-566,0.673523,17.0781,0.00547872,0.00537223,-0.00663013,0.0120558,-0.00120487,-0.781383,0.00846746,0.0239283,888,1590,0.673536,-17.0782
-329,-566,0.739685,17.3741,0.00655041,0.00663208,-0.00767274,0.0142641,-0.00108161,-0.788059,0.00988967,0.0170481,895,1590,0.739712,-17.3741
-322,-566,0.821289,17.78,0.00753878,0.00785034,-0.00893444,0.0166304,-0.00124124,-0.794115,0.011523,0.0229336,902,1590,0.821318,-17.78
-315,-566,1.05792,18.1622,0,0,0,0,0,0,0,-1,909,1590,1.0579,-18.1622
-308,-566,0.897949,18.4044,0.00918399,0.00920924,-0.0111189,0.0203155,-0.00192224,-0.785966,0.0142277,0.0382371,916,1590,0.897979,-18.4044
-301,-566,1.19287,18.7305,0.00992838,0.00924022,-0.0120761,0.0216653,-0.00249672,-0.771156,0.0153437,0.046448,923,1590,1.19287,-18.7305
-294,-566,0.959534,19.3691,0,0,0,0,0,0,0,-1,930,1590,0.959516,-19.3692
-287,-566,0.852112,19.8521,0,0,0,0,0,0,0,-1,937,1590,0.852095,-19.852
-280,-566,1.59406,17.8762,0,0,0,0,0,0,0,-1,944,1590,1.59405,-17.8762
-273,-566,0.49762,11.2427,0,0,0,0,0,0,0,-1,951,1590,0.497591,-11.2426
-266,-566,0.392151,6.90295,0,0,0,0,0,0,0,-1,958,1590,0.392151,-6.90294
-259,-566,0.343628,6.47437,0,0,0,0,0,0,0,-1,965,1590,0.34363,-6.47438
-252,-566,-7.68311,1.01343,0,0,0,0,0,0,0,-1,972,1590,-7.68308,-1.01348
-245,-566,-11.1835,1.97522,0,0,0,0,0,0,0,-1,979,1590,-11.1835,-1.97527
-238,-566,-10.4883,2.40491,0,0,0,0,0,0,0,-1,986,1590,-10.4883,-2.40487
-231,-566,-7.41827,4.22803,0,0,0,0,0,0,0,-1,993,1590,-7.41827,-4.22803
-224,-566,-4.67188,6.30859,0,0,0,0,0,0,0,-1,1000,1590,-4.67185,-6.30853
-217,-566,-2.82867,7.52527,0,0,0,0,0,0,0,-1,1007,1590,-2.82869,-7.52531
-210,-566,-1.03436,8.67737,0,0,0,0,0,0,0,-1,1014,1590,-1.03439,-8.67733
-203,-566,0,0,0,0,0,0,0,0,0,-1,1021,1590,0,0
-196,-566,0,0,0,0,0,0,0,0,0,-1,1028,1590,0,0
-189,-566,0,0,0,0,0,0,0,0,0,-1,1035,1590,0,0
-182,-566,0,0,0,0,0,0,0,0,0,-1,1042,1590,0,0
-175,-566,0,0,0,0,0,0,0,0,0,-1,1049,1590,0,0
-168,-566,0,0,0,0,0,0,0,0,0,-1,1056,1590,0,0
-161,-566,0,0,0,0,0,0,0,0,0,-1,1063,1590,0,0
-154,-566,0,0,0,0,0,0,0,0,0,-1,1070,1590,0,0
-147,-566,0,0,0,0,0,0,0,0,0,-1,1077,1590,0,0
-140,-566,0,0,0,0,0,0,0,0,0,-1,1084,1590,0,0
-133,-566,0,0,0,0,0,0,0,0,0,-1,1091,1590,0,0
-126,-566,0,0,0,0,0,0,0,0,0,-1,1098,1590,0,0
-119,-566,0,0,0,0,0,0,0,0,0,-1,1105,1590,0,0
-112,-566,0,0,0,0,0,0,0,0,0,-1,1112,1590,0,0
-105,-566,0,0,0,0,0,0,0,0,0,-1,1119,1590,0,0
-98,-566,0,0,0,0,0,0,0,0,0,-1,1126,1590,0,0
-91,-566,0,0,0,0,0,0,0,0,0,-1,1133,1590,0,0
-84,-566,0,0,0,0,0,0,0,0,0,-1,1140,1590,0,0
-77,-566,0,0,0,0,0,0,0,0,0,-1,1147,1590,0,0
-70,-566,0,0,0,0,0,0,0,0,0,-1,1154,1590,0,0
-63,-566,0,0,0,0,0,0,0,0,0,-1,1161,1590,0,0
-56,-566,0,0,0,0,0,0,0,0,0,-1,1168,1590,0,0
-49,-566,0,0,0,0,0,0,0,0,0,-1,1175,1590,0,0
-42,-566,0,0,0,0,0,0,0,0,0,-1,1182,1590,0,0
-35,-566,0,0,0,0,0,0,0,0,0,-1,1189,1590,0,0
-28,-566,0,0,0,0,0,0,0,0,0,-1,1196,1590,0,0
-21,-566,0,0,0,0,0,0,0,0,0,-1,1203,1590,0,0
-14,-566,0,0,0,0,0,0,0,0,0,-1,1210,1590,0,0
-7,-566,0,0,0,0,0,0,0,0,0,-1,1217,1590,0,0
0,-566,0,0,0,0,0,0,0,0,0,-1,1224,1590,0,0
7,-566,0,0,0,0,0,0,0,0,0,-1,1231,1590,0,0
14,-566,0,0,0,0,0,0,0,0,0,-1,1238,1590,0,0
21,-566,0,0,0,0,0,0,0,0,0,-1,1245,1590,0,0
28,-566,0,0,0,0,0,0,0,0,0,-1,1252,1590,0,0
35,-566,0,0,0,0,0,0,0,0,0,-1,1259,1590,0,0
42,-566,0,0,0,0,0,0,0,0,0,-1,1266,1590,0,0
49,-566,0,0,0,0,0,0,0,0,0,-1,1273,1590,0,0
56,-566,0,0,0,0,0,0,0,0,0,-1,1280,1590,0,0
63,-566,0,0,0,0,0,0,0,0,0,-1,1287,1590,0,0
70,-566,0,0,0,0,0,0,0,0,0,-1,1294,1590,0,0
77,-566,0,0,0,0,0,0,0,0,0,-1,1301,1590,0,0
84,-566,0,0,0,0,0,0,0,0,0,-1,1308,1590,0,0
91,-566,0,0,0,0,0,0,0,0,0,-1,1315,1590,0,0
98,-566,0,0,0,0,0,0,0,0,0,-1,1322,1590,0,0
105,-566,0,0,0,0,0,0,0,0,0,-1,1329,1590,0,0
112,-566,0,0,0,0,0,0,0,0,0,-1,1336,1590,0,0
119,-566,0,0,0,0,0,0,0,0,0,-1,1343,1590,0,0
126,-566,0,0,0,0,0,0,0,0,0,-1,1350,1590,0,0
133,-566,0,0,0,0,0,0,0,0,0,-1,1357,1590,0,0
140,-566,0,0,0,0,0,0,0,0,0,-1,1364,1590,0,0
147,-566,0,0,0,0,0,0,0,0,0,-1,1371,1590,0,0
154,-566,0,0,0,0,0,0,0,0,0,-1,1378,1590,0,0
161,-566,0,0,0,0,0,0,0,0,0,-1,1385,1590,0,0
168,-566,0,0,0,0,0,0,0,0,0,-1,1392,1590,0,0
175,-566,0,0,0,0,0,0,0,0,0,-1,1399,1590,0,0
182,-566,0,0,0,0,0,0,0,0,0,-1,1406,1590,0,0
189,-566,0,0,0,0,0,0,0,0,0,-1,1413,1590,0,0
196,-566,0,0,0,0,0,0,0,0,0,-1,1420,1590,0,0
203,-566,0,0,0,0,0,0,0,0,0,-1,1427,1590,0,0
210,-566,0,0,0,0,0,0,0,0,0,-1,1434,1590,0,0
217,-566,0,0,0,0,0,0,0,0,0,-1,1441,1590,0,0
224,-566,0,0,0,0,0,0,0,0,0,-1,1448,1590,0,0
231,-566,0,0,0,0,0,0,0,0,0,-1,1455,1590,0,0
238,-566,0,0,0,0,0,0,0,0,0,-1,1462,1590,0,0
245,-566,0,0,0,0,0,0,0,0,0,-1,1469,1590,0,0
252,-566,0,0,0,0,0,0,0,0,0,-1,1476,1590,0,0
259,-566,0,0,0,0,0,0,0,0,0,-1,1483,1590,0,0
266,-566,0,0,0,0,0,0,0,0,0,-1,1490,1590,0,0
273,-566,0,0,0,0,0,0,0,0,0,-1,1497,1590,0,0
280,-566,0,0,0,0,0,0,0,0,0,-1,1504,1590,0,0
287,-566,0,0,0,0,0,0,0,0,0,-1,1511,1590,0,0
294,-566,0,0,0,0,0,0,0,0,0,-1,1518,1590,0,0
301,-566,0,0,0,0,0,0,0,0,0,-1,1525,1590,0,0
308,-566,0,0,0,0,0,0,0,0,0,-1,1532,1590,0,0
315,-566,0,0,0,0,0,0,0,0,0,-1,1539,1590,0,0
322,-566,6.07983,4.44873,0,0,0,0,0,0,0,-1,1546,1590,6.07983,-4.44873
329,-566,5.77026,3.47534,0,0,0,0,0,0,0,-1,1553,1590,5.77026,-3.47535
336,-566,5.41138,2.62915,0,0,0,0,0,0,0,-1,1560,1590,5.41138,-2.62909
343,-566,4.81873,1.79089,0,0,0,0,0,0,0,-1,1567,1590,4.81878,-1.79095
350,-566,4.41663,2.44214,0,0,0,0,0,0,0,-1,1574,1590,4.41666,-2.44214
357,-566,6.34058,5.18579,0,0,0,0,0,0,0,-1,1581,1590,6.34059,-5.1858
364,-566,6.06262,4.20251,0,0,0,0,0,0,0,-1,1588,1590,6.06259,-4.20246
371,-566,5.78455,3.21912,0,0,0,0,0,0,0,-1,1595,1590,5.7846,-3.21912
378,-566,5.7439,0.695557,0,0,0,0,0,0,0,-1,1602,1590,5.74392,-0.695531
385,-566,5.67615,-0.573975,0,0,0,0,0,0,0,-1,1609,1590,5.67612,0.573956
392,-566,5.78638,1.82434,0,0,0,0,0,0,0,-1,1616,1590,5.78637,-1.82439
399,-566,5.36621,1.7373,0,0,0,0,0,0,0,-1,1623,1590,5.36627,-1.7373
406,-566,4.30359,5.26868,0,0,0,0,0,0,0,-1,1630,1590,4.30364,-5.26867
413,-566,4.27124,5.79492,0,0,0,0,0,0,0,-1,1637,1590,4.27123,-5.7949
420,-566,7.19812,8.25146,0,0,0,0,0,0,0,-1,1644,1590,7.19817,-8.25149
427,-566,10.455,10.6842,0,0,0,0,0,0,0,-1,1651,1590,10.455,-10.6842
434,-566,9.18567,14.3304,0,0,0,0,0,0,0,-1,1658,1590,9.18571,-14.3305
441,-566,11.7643,18.9731,0,0,0,0,0,0,0,-1,1665,1590,11.7643,-18.9731
448,-566,11.5643,18.9102,-0.00533877,-0.0134428,0.0154101,0.00654318,-0.0253248,0.656836,0.0194349,0.0434291,1672,1590,11.5643,-18.9101
455,-566,11.2611,18.9039,-0.0044539,-0.0112458,0.0129892,0.00557591,-0.0212756,0.657537,0.0163622,0.0386777,1679,1590,11.2611,-18.9039
462,-566,11.2139,18.6273,-0.00345154,-0.00884113,0.010619,0.00480921,-0.0171019,0.661135,0.0132974,0.0230252,1686,1590,11.2139,-18.6273
469,-566,11.2548,18.2102,-0.00250319,-0.00717296,0.00850057,0.00397733,-0.0136535,0.651366,0.0106779,0.0138455,1693,1590,11.2547,-18.2103
476,-566,11.3068,17.8893,-0.00173171,-0.00596983,0.00669908,0.00317547,-0.010877,0.632217,0.00850968,0.0101365,1700,1590,11.3068,-17.8893
483,-566,11.3115,17.5929,-0.00107452,-0.00463983,0.00511476,0.00255934,-0.00827369,0.617715,0.00653808,0.00956887,1707,1590,11.3115,-17.5929
490,-566,11.3019,17.2827,-0.00053507,-0.00333511,0.00368828,0.00200996,-0.00588015,0.604005,0.00473451,0.0107186,1714,1590,11.3019,-17.2827
497,-566,11.3223,16.9742,-1.31326e-05,-0.00217811,0.00231729,0.00146204,-0.00365327,0.566892,0.00304231,0.0145019,1721,1590,11.3223,-16.9743
504,-566,11.3368,16.6963,0.000479234,-0.00110444,0.00124047,0.00115906,-0.00178426,0.501333,0.00171206,0.0191792,1728,1590,11.3368,-16.6963
511,-566,11.3322,16.3949,0.000668934,-0.000721311,0.000633562,0.000914341,-0.000966718,0.369549,0.00108617,0.0181801,1735,1590,11.3321,-16.3948
518,-566,11.3219,16.0808,0.000788852,-0.000405345,0.000163792,0.000810909,-0.000427402,0.133864,0.000726279,0.0112625,1742,1590,11.3219,-16.0808
525,-566,11.2889,15.7505,0.000853046,-0.000485217,1.85722e-05,0.000853304,-0.000485475,0.0138743,0.000782609,0.0105382,1749,1590,11.289,-15.7504
532,-566,11.2695,15.4385,0.000935004,-0.00119985,0.000342996,0.000988758,-0.0012536,0.155454,0.00129763,0.0135161,1756,1590,11.2695,-15.4385
539,-566,11.2767,15.1078,0.000952637,-0.00224569,0.000889384,0.00118332,-0.00247637,0.253778,0.00215644,0.0187276,1763,1590,11.2767,-15.1077
546,-566,11.3367,14.7318,0.000808681,-0.00361934,0.00177595,0.00143295,-0.00424361,0.338023,0.00340865,0.0216728,1770,1590,11.3366,-14.7318
553,-566,11.3727,14.5764,0.000568605,-0.00548834,0.00332811,0.00203991,-0.00695965,0.416251,0.00544855,0.0360455,1777,1590,11.3727,-14.5764
560,-566,11.2712,14.6469,0.000267058,-0.00805857,0.00519269,0.00275954,-0.0105511,0.447519,0.00811189,0.0468834,1784,1590,11.2712,-14.6468
567,-566,11.324,14.6078,0,0,0,0,0,0,0,-1,1791,1590,11.3239,-14.6078
574,-566,7.99548,3.14514,0,0,0,0,0,0,0,-1,1798,1590,7.99543,-3.14511
581,-566,2.54102,5.1311,0,0,0,0,0,0,0,-1,1805,1590,2.54099,-5.13111
588,-566,-1.91321,8.39197,0,0,0,0,0,0,0,-1,1812,1590,-1.91316,-8.39199
595,-566,9.0271,4.66467,0,0,0,0,0,0,0,-1,1819,1590,9.02705,-4.66468
602,-566,9.953,3.54895,0,0,0,0,0,0,0,-1,1826,1590,9.953,-3.54898
609,-566,0,0,0,0,0,0,0,0,0,-1,1833,1590,0,0
616,-566,0,0,0,0,0,0,0,0,0,-1,1840,1590,0,0
623,-566,0,0,0,0,0,0,0,0,0,-1,1847,1590,0,0
630,-566,0,0,0,0,0,0,0,0,0,-1,1854,1590,0,0
637,-566,0,0,0,0,0,0,0,0,0,-1,1861,1590,0,0
644,-566,0,0,0,0,0,0,0,0,0,-1,1868,1590,0,0
651,-566,0,0,0,0,0,0,0,0,0,-1,1875,1590,0,0
658,-566,0,0,0,0,0,0,0,0,0,-1,1882,1590,0,0
665,-566,0,0,0,0,0,0,0,0,0,-1,1889,1590,0,0
672,-566,0,0,0,0,0,0,0,0,0,-1,1896,1590,0,0
679,-566,0,0,0,0,0,0,0,0,0,-1,1903,1590,0,0
686,-566,0,0,0,0,0,0,0,0,0,-1,1910,1590,0,0
693,-566,0,0,0,0,0,0,0,0,0,-1,1917,1590,0,0
700,-566,0,0,0,0,0,0,0,0,0,-1,1924,1590,0,0
707,-566,0,0,0,0,0,0,0,0,0,-1,1931,1590,0,0
714,-566,0,0,0,0,0,0,0,0,0,-1,1938,1590,0,0
721,-566,0,0,0,0,0,0,0,0,0,-1,1945,1590,0,0
728,-566,0,0,0,0,0,0,0,0,0,-1,1952,1590,0,0
735,-566,0,0,0,0,0,0,0,0,0,-1,1959,1590,0,0
742,-566,0,0,0,0,0,0,0,0,0,-1,1966,1590,0,0
749,-566,0,0,0,0,0,0,0,0,0,-1,1973,1590,0,0
756,-566,0,0,0,0,0,0,0,0,0,-1,1980,1590,0,0
763,-566,0,0,0,0,0,0,0,0,0,-1,1987,1590,0,0
770,-566,0,0,0,0,0,0,0,0,0,-1,1994,1590,0,0
777,-566,0,0,0,0,0,0,0,0,0,-1,2001,1590,0,0
784,-566,0,0,0,0,0,0,0,0,0,-1,2008,1590,0,0
791,-566,0,0,0,0,0,0,0,0,0,-1,2015,1590,0,0
798,-566,0,0,0,0,0,0,0,0,0,-1,2022,1590,0,0
805,-566,0,0,0,0,0,0,0,0,0,-1,2029,1590,0,0
812,-566,0,0,0,0,0,0,0,0,0,-1,2036,1590,0,0
-700,-573,0,0,0,0,0,0,0,0,0,-1,524,1597,0,0
-693,-573,0,0,0,0,0,0,0,0,0,-1,531,1597,0,0
-686,-573,0,0,0,0,0,0,0,0,0,-1,538,1597,0,0
-679,-573,0,0,0,0,0,0,0,0,0,-1,545,1597,0,0
-672,-573,0,0,0,0,0,0,0,0,0,-1,552,1597,0,0
-665,-573,0,0,0,0,0,0,0,0,0,-1,559,1597,0,0
-658,-573,0,0,0,0,0,0,0,0,0,-1,566,1597,0,0
-651,-573,0,0,0,0,0,0,0,0,0,-1,573,1597,0,0
-644,-573,0,0,0,0,0,0,0,0,0,-1,580,1597,0,0
-637,-573,0,0,0,0,0,0,0,0,0,-1,587,1597,0,0
-630,-573,0,0,0,0,0,0,0,0,0,-1,594,1597,0,0
-623,-573,0,0,0,0,0,0,0,0,0,-1,601,1597,0,0
-616,-573,0,0,0,0,0,0,0,0,0,-1,608,1597,0,0
-609,-573,0,0,0,0,0,0,0,0,0,-1,615,1597,0,0
-602,-573,0,0,0,0,0,0,0,0,0,-1,622,1597,0,0
-595,-573,0,0,0,0,0,0,0,0,0,-1,629,1597,0,0
-588,-573,0,0,0,0,0,0,0,0,0,-1,636,1597,0,0
-581,-573,0,0,0,0,0,0,0,0,0,-1,643,1597,0,0
-574,-573,0,0,0,0,0,0,0,0,0,-1,650,1597,0,0
-567,-573,0,0,0,0,0,0,0,0,0,-1,657,1597,0,0
-560,-573,0,0,0,0,0,0,0,0,0,-1,664,1597,0,0
-553,-573,0,0,0,0,0,0,0,0,0,-1,671,1597,0,0
-546,-573,0,0,0,0,0,0,0,0,0,-1,678,1597,0,0
-539,-573,0,0,0,0,0,0,0,0,0,-1,685,1597,0,0
-532,-573,0,0,0,0,0,0,0,0,0,-1,692,1597,0,0
-525,-573,0,0,0,0,0,0,0,0,0,-1,699,1597,0,0
-518,-573,0,0,0,0,0,0,0,0,0,-1,706,1597,0,0
-511,-573,0,0,0,0,0,0,0,0,0,-1,713,1597,0,0
-504,-573,0,0,0,0,0,0,0,0,0,-1,720,1597,0,0
-497,-573,0,0,0,0,0,0,0,0,0,-1,727,1597,0,0
-490,-573,0,0,0,0,0,0,0,0,0,-1,734,1597,0,0
-483,-573,0,0,0,0,0,0,0,0,0,-1,741,1597,0,0
-476,-573,-9.3327,0.972778,0,0,0,0,0,0,0,-1,748,1597,-9.33268,-0.972776
-469,-573,-1.41681,1.13379,0,0,0,0,0,0,0,-1,755,1597,-1.41681,-1.13382
-462,-573,-0.748535,2.02588,0,0,0,0,0,0,0,-1,762,1597,-0.748533,-2.02584
-455,-573,-0.112976,2.70703,0,0,0,0,0,0,0,-1,769,1597,-0.112988,-2.70697
-448,-573,-1.26172,3.33252,0,0,0,0,0,0,0,-1,776,1597,-1.26173,-3.33248
-441,-573,0.108582,5.06726,0,0,0,0,0,0,0,-1,783,1597,0.108584,-5.06721
-434,-573,1.61768,7.05444,0,0,0,0,0,0,0,-1,790,1597,1.61767,-7.05446
-427,-573,0.351196,12.6554,0,0,0,0,0,0,0,-1,797,1597,0.351225,-12.6553
-420,-573,0.816589,13.114,0,0,0,0,0,0,0,-1,804,1597,0.816584,-13.114
-413,-573,1.25067,13.3652,-0.00273218,0.00308051,0.00282806,0.00422938,-0.00388105,1.18492,0.004684,0.0495666,811,1597,1.25068,-13.3653
-406,-573,1.1488,13.7201,-0.00244364,0.0016345,0.0019799,0.00243758,-0.00324672,1.18546,0.0032929,0.0223049,818,1597,1.14883,-13.72
-399,-573,1.10956,14.1176,-0.00245587,0.000595889,0.00140763,0.001146,-0.00300598,1.19824,0.00247603,0.0113098,825,1597,1.10957,-14.1175
-392,-573,1.12787,14.4786,-0.0020207,-0.000185106,0.00106976,0.000306617,-0.00251242,1.13994,0.00178595,0.0106725,832,1597,1.12786,-14.4786
-385,-573,1.13342,14.8224,-0.00140944,-0.000276605,0.000880129,0.000203618,-0.00188966,1.07132,0.00133284,0.0126699,839,1597,1.13343,-14.8223
-378,-573,1.10724,15.1571,-0.000666568,-0.000221526,0.000546862,0.000146355,-0.00103445,0.978621,0.000743236,0.0152584,846,1597,1.10724,-15.157
-371,-573,1.09576,15.524,-2.76092e-05,0.000107754,-0.000135575,0.000191603,-0.000111458,-1.01691,0.000177,0.01612,853,1597,1.09578,-15.5241
-364,-573,1.06018,15.8496,0.000569553,0.000645541,-0.000840203,0.00144861,-0.000233515,-0.807993,0.00105225,0.0185349,860,1597,1.06015,-15.8497
-357,-573,1.06824,16.1505,0.00143804,0.00102895,-0.00164913,0.00289527,-0.00042827,-0.723698,0.00208763,0.0216813,867,1597,1.06826,-16.1506
-350,-573,1.09961,16.4794,0.00241461,0.00156102,-0.0024629,0.00448742,-0.000511787,-0.699605,0.00317599,0.0167945,874,1597,1.09963,-16.4794
-343,-573,1.12225,16.7875,0.00324141,0.00221304,-0.00325528,0.00602287,-0.000568412,-0.707068,0.0042175,0.0211198,881,1597,1.12223,-16.7874
-336,-573,1.07458,17.1273,0.00402801,0.0031375,-0.0038454,0.00745385,-0.000288337,-0.72776,0.00506808,0.0171572,888,1597,1.07459,-17.1274
-329,-573,1.06042,17.4585,0.00488198,0.00408102,-0.00437535,0.00887514,8.7867e-05,-0.73976,0.00588769,0.0172546,895,1597,1.06042,-17.4585
-322,-573,1.0799,17.7784,0.00562774,0.00493399,-0.00520935,0.0105017,5.998e-05,-0.752154,0.00698126,0.0138154,902,1597,1.07988,-17.7784
-315,-573,1.19141,18.2002,0.00626596,0.00507435,-0.00615281,0.0118517,-0.000511434,-0.737131,0.00807704,0.0270263,909,1597,1.19141,-18.2003
-308,-573,1.20996,18.4252,0.00682459,0.0054818,-0.00672999,0.0129166,-0.000610204,-0.735682,0.0088215,0.0405827,916,1597,1.20999,-18.4252
-301,-573,1.33356,18.6592,0.00734895,0.0051905,-0.00740787,0.0137558,-0.00121635,-0.713064,0.0096017,0.0348015,923,1597,1.33354,-18.6592
-294,-573,1.19135,19.0664,0.00788585,0.00404083,-0.00821621,0.0144015,-0.0024748,-0.670471,0.0105234,0.0357405,930,1597,1.19136,-19.0664
-287,-573,1.08075,19.5842,0.00833421,0.00245904,-0.0093183,0.015167,-0.00437375,-0.632704,0.0118416,0.0469882,937,1597,1.08077,-19.5842
-280,-573,0.96344,20.0912,0,0,0,0,0,0,0,-1,944,1597,0.963418,-20.0912
-273,-573,0.99762,18.5568,0,0,0,0,0,0,0,-1,951,1597,0.997625,-18.5567
-266,-573,1.31116,7.1814,0,0,0,0,0,0,0,-1,958,1597,1.31118,-7.18142
-259,-573,1.2514,6.70959,0,0,0,0,0,0,0,-1,965,1597,1.25137,-6.70965
-252,-573,2.07874,5.27161,0,0,0,0,0,0,0,-1,972,1597,2.07875,-5.27157
-245,-573,-10.2592,1.09827,0,0,0,0,0,0,0,-1,979,1597,-10.2592,-1.09823
-238,-573,-11.5463,4.44141,0,0,0,0,0,0,0,-1,986,1597,-11.5463,-4.44146
-231,-573,-9.23431,4.14539,0,0,0,0,0,0,0,-1,993,1597,-9.23431,-4.14534
-224,-573,-6.70044,7.40857,0,0,0,0,0,0,0,-1,1000,1597,-6.70045,-7.40851
-217,-573,-4.25824,8.59119,0,0,0,0,0,0,0,-1,1007,1597,-4.25824,-8.59122
-210,-573,-2.39661,9.73914,0,0,0,0,0,0,0,-1,1014,1597,-2.39658,-9.73915
-203,-573,-0.557373,10.9005,0,0,0,0,0,0,0,-1,1021,1597,-0.557387,-10.9006
-196,-573,-1.65344,9.02246,0,0,0,0,0,0,0,-1,1028,1597,-1.65349,-9.02241
-189,-573,-6.12915,6.66882,0,0,0,0,0,0,0,-1,1035,1597,-6.12913,-6.66884
-182,-573,0,0,0,0,0,0,0,0,0,-1,1042,1597,0,0
-175,-573,0,0,0,0,0,0,0,0,0,-1,1049,1597,0,0
-168,-573,0,0,0,0,0,0,0,0,0,-1,1056,1597,0,0
-161,-573,0,0,0,0,0,0,0,0,0,-1,1063,1597,0,0
-154,-573,0,0,0,0,0,0,0,0,0,-1,1070,1597,0,0
-147,-573,0,0,0,0,0,0,0,0,0,-1,1077,1597,0,0
-140,-573,0,0,0,0,0,0,0,0,0,-1,1084,1597,0,0
-133,-573,0,0,0,0,0,0,0,0,0,-1,1091,1597,0,0
-126,-573,0,0,0,0,0,0,0,0,0,-1,1098,1597,0,0
-119,-573,0,0,0,0,0,0,0,0,0,-1,1105,1597,0,0
-112,-573,0,0,0,0,0,0,0,0,0,-1,1112,1597,0,0
-105,-573,0,0,0,0,0,0,0,0,0,-1,1119,1597,0,0
-98,-573,0,0,0,0,0,0,0,0,0,-1,1126,1597,0,0
-91,-573,0,0,0,0,0,0,0,0,0,-1,1133,1597,0,0
-84,-573,0,0,0,0,0,0,0,0,0,-1,1140,1597,0,0
-77,-573,0,0,0,0,0,0,0,0,0,-1,1147,1597,0,0
-70,-573,0,0,0,0,0,0,0,0,0,-1,1154,1597,0,0
-63,-573,0,0,0,0,0,0,0,0,0,-1,1161,1597,0,0
-56,-573,0,0,0,0,0,0,0,0,0,-1,1168,1597,0,0
-49,-573,0,0,0,0,0,0,0,0,0,-1,1175,1597,0,0
-42,-573,0,0,0,0,0,0,0,0,0,-1,1182,1597,0,0
-35,-573,0,0,0,0,0,0,0,0,0,-1,1189,1597,0,0
-28,-573,0,0,0,0,0,0,0,0,0,-1,1196,1597,0,0
-21,-573,0,0,0,0,0,0,0,0,0,-1,1203,1597,0,0
-14,-573,0,0,0,0,0,0,0,0,0,-1,1210,1597,0,0
-7,-573,0,0,0,0,0,0,0,0,0,-1,1217,1597,0,0
0,-573,0,0,0,0,0,0,0,0,0,-1,1224,1597,0,0
7,-573,0,0,0,0,0,0,0,0,0,-1,1231,1597,0,0
14,-573,0,0,0,0,0,0,0,0,0,-1,1238,1597,0,0
21,-573,0,0,0,0,0,0,0,0,0,-1,1245,1597,0,0
28,-573,0,0,0,0,0,0,0,0,0,-1,1252,1597,0,0
35,-573,0,0,0,0,0,0,0,0,0,-1,1259,1597,0,0
42,-573,0,0,0,0,0,0,0,0,0,-1,1266,1597,0,0
49,-573,0,0,0,0,0,0,0,0,0,-1,1273,1597,0,0
56,-573,0,0,0,0,0,0,0,0,0,-1,1280,1597,0,0
63,-573,0,0,0,0,0,0,0,0,0,-1,1287,1597,0,0
70,-573,0,0,0,0,0,0,0,0,0,-1,1294,1597,0,0
77,-573,0,0,0,0,0,0,0,0,0,-1,1301,1597,0,0
84,-573,0,0,0,0,0,0,0,0,0,-1,1308,1597,0,0
91,-573,0,0,0,0,0,0,0,0,0,-1,1315,1597,0,0
98,-573,0,0,0,0,0,0,0,0,0,-1,1322,1597,0,0
105,-573,0,0,0,0,0,0,0,0,0,-1,1329,1597,0,0
112,-573,0,0,0,0,0,0,0,0,0,-1,1336,1597,0,0
119,-573,0,0,0,0,0,0,0,0,0,-1,1343,1597,0,0
126,-573,0,0,0,0,0,0,0,0,0,-1,1350,1597,0,0
133,-573,0,0,0,0,0,0,0,0,0,-1,1357,1597,0,0
140,-573,0,0,0,0,0,0,0,0,0,-1,1364,1597,0,0
147,-573,0,0,0,0,0,0,0,0,0,-1,1371,1597,0,0
154,-573,0,0,0,0,0,0,0,0,0,-1,1378,1597,0,0
161,-573,0,0,0,0,0,0,0,0,0,-1,1385,1597,0,0
168,-573,0,0,0,0,0,0,0,0,0,-1,1392,1597,0,0
175,-573,0,0,0,0,0,0,0,0,0,-1,1399,1597,0,0
182,-573,0,0,0,0,0,0,0,0,0,-1,1406,1597,0,0
189,-573,0,0,0,0,0,0,0,0,0,-1,1413,1597,0,0
196,-573,0,0,0,0,0,0,0,0,0,-1,1420,1597,0,0
203,-573,0,0,0,0,0,0,0,0,0,-1,1427,1597,0,0
210,-573,0,0,0,0,0,0,0,0,0,-1,1434,1597,0,0
217,-573,0,0,0,0,0,0,0,0,0,-1,1441,1597,0,0
224,-573,0,0,0,0,0,0,0,0,0,-1,1448,1597,0,0
231,-573,0,0,0,0,0,0,0,0,0,-1,1455,1597,0,0
238,-573,0,0,0,0,0,0,0,0,0,-1,1462,1597,0,0
245,-573,0,0,0,0,0,0,0,0,0,-1,1469,1597,0,0
252,-573,0,0,0,0,0,0,0,0,0,-1,1476,1597,0,0
259,-573,0,0,0,0,0,0,0,0,0,-1,1483,1597,0,0
266,-573,0,0,0,0,0,0,0,0,0,-1,1490,1597,0,0
273,-573,0,0,0,0,0,0,0,0,0,-1,1497,1597,0,0
280,-573,0,0,0,0,0,0,0,0,0,-1,1504,1597,0,0
287,-573,0,0,0,0,0,0,0,0,0,-1,1511,1597,0,0
294,-573,0,0,0,0,0,0,0,0,0,-1,1518,1597,0,0
301,-573,0,0,0,0,0,0,0,0,0,-1,1525,1597,0,0
308,-573,5.93042,9.71143,0,0,0,0,0,0,0,-1,1532,1597,5.93046,-9.71144
315,-573,4.34204,11.719,0,0,0,0,0,0,0,-1,1539,1597,4.34205,-11.719
322,-573,10.3269,7.77563,0,0,0,0,0,0,0,-1,1546,1597,10.327,-7.77565
329,-573,4.99573,3.80273,0,0,0,0,0,0,0,-1,1553,1597,4.9957,-3.80273
336,-573,4.85693,2.53455,0,0,0,0,0,0,0,-1,1560,1597,4.8569,-2.53459
343,-573,5.5946,2.15894,0,0,0,0,0,0,0,-1,1567,1597,5.59456,-2.1589
350,-573,2.53748,1.56433,0,0,0,0,0,0,0,-1,1574,1597,2.53753,-1.5643
357,-573,7.40247,4.03613,0,0,0,0,0,0,0,-1,1581,1597,7.40244,-4.03614
364,-573,7.14551,3.02087,0,0,0,0,0,0,0,-1,1588,1597,7.14556,-3.02084
371,-573,6.88867,2.00549,0,0,0,0,0,0,0,-1,1595,1597,6.88868,-2.00553
378,-573,8.62012,6.09106,0,0,0,0,0,0,0,-1,1602,1597,8.62012,-6.09103
385,-573,6.54346,-0.951904,0,0,0,0,0,0,0,-1,1609,1597,6.54349,0.951901
392,-573,6.41833,-2.18225,0,0,0,0,0,0,0,-1,1616,1597,6.41831,2.18228
399,-573,4.26282,4.73657,0,0,0,0,0,0,0,-1,1623,1597,4.26285,-4.73652
406,-573,6.82715,10.823,0,0,0,0,0,0,0,-1,1630,1597,6.82719,-10.823
413,-573,8.90552,13.1737,0,0,0,0,0,0,0,-1,1637,1597,8.90553,-13.1737
420,-573,12.1307,19.4896,0,0,0,0,0,0,0,-1,1644,1597,12.1308,-19.4897
427,-573,12.7413,20.0559,0,0,0,0,0,0,0,-1,1651,1597,12.7413,-20.0559
434,-573,11.2618,19.494,0,0,0,0,0,0,0,-1,1658,1597,11.2618,-19.4941
441,-573,11.1798,19.3846,-0.00443834,-0.0088452,0.0115642,0.00513051,-0.018414,0.691257,0.0142964,0.0393851,1665,1597,11.1798,-19.3847
448,-573,10.9946,19.2098,-0.00368833,-0.0071702,0.00999502,0.00471624,-0.0155748,0.699173,0.0122614,0.0272614,1672,1597,10.9947,-19.2099
455,-573,10.9382,18.8435,-0.00301832,-0.00588376,0.00827571,0.00394777,-0.0128499,0.699686,0.0101419,0.0204211,1679,1597,10.9382,-18.8436
462,-573,10.9612,18.4695,-0.00226036,-0.0043562,0.00657134,0.00334609,-0.00996265,0.70633,0.00799407,0.0181895,1686,1597,10.9611,-18.4695
469,-573,10.9847,18.1851,-0.00153178,-0.00350894,0.00509854,0.00267314,-0.00771386,0.689639,0.00622788,0.0150385,1693,1597,10.9848,-18.185
476,-573,11.0278,17.8947,-0.000926865,-0.00301248,0.00383741,0.00200691,-0.00594625,0.652728,0.00477582,0.0147018,1700,1597,11.0279,-17.8947
483,-573,11.0319,17.6041,-0.000391,-0.00232204,0.00272532,0.00153478,-0.00424781,0.615158,0.0034589,0.0113733,1707,1597,11.0319,-17.6041
490,-573,11.027,17.3029,5.69605e-05,-0.00159907,0.00171957,0.00113748,-0.0026796,0.561018,0.00226295,0.0105753,1714,1597,11.027,-17.3028
497,-573,11.0266,16.983,0.000497361,-0.000890307,0.000708899,0.000795466,-0.00118841,0.398069,0.00115286,0.0161036,1721,1597,11.0267,-16.9831
504,-573,11.0286,16.6869,0.000888531,-0.000223395,-1.53586e-05,0.000888743,-0.000223608,-0.0138091,0.00067941,0.0172927,1728,1597,11.0286,-16.6869
511,-573,11.0286,16.3639,0.00100493,-0.000156804,-0.000334862,0.00109454,-0.000246414,-0.261475,0.000824202,0.0172681,1735,1597,11.0286,-16.3639
518,-573,10.9948,16.0802,0.00109748,-4.88552e-05,-0.000574851,0.00133608,-0.00028746,-0.393433,0.0010004,0.0129248,1742,1597,10.9948,-16.0802
525,-573,10.9557,15.7736,0.0011501,-0.000404126,-0.000445542,0.00126876,-0.000522788,-0.260289,0.00106382,0.0155803,1749,1597,10.9557,-15.7735
532,-573,10.9667,15.4401,0.00125812,-0.0013757,0.000156751,0.00126742,-0.00138499,0.0592358,0.00153187,0.0156478,1756,1597,10.9667,-15.4401
539,-573,10.9745,15.1373,0.00124575,-0.00263052,0.000928463,0.00145667,-0.00284143,0.223374,0.00252407,0.0242722,1763,1597,10.9744,-15.1373
546,-573,10.7477,14.7366,0,0,0,0,0,0,0,-1,1770,1597,10.7476,-14.7365
553,-573,10.4579,14.6328,0,0,0,0,0,0,0,-1,1777,1597,10.4579,-14.6328
560,-573,10.7023,14.885,0,0,0,0,0,0,0,-1,1784,1597,10.7023,-14.885
567,-573,4.99597,2.77759,0,0,0,0,0,0,0,-1,1791,1597,4.99596,-2.7776
574,-573,0.83374,5.7041,0,0,0,0,0,0,0,-1,1798,1597,0.833718,-5.70405
581,-573,-0.224854,7.41602,0,0,0,0,0,0,0,-1,1805,1597,-0.224904,-7.41596
588,-573,-0.134033,7.67065,0,0,0,0,0,0,0,-1,1812,1597,-0.134037,-7.67063
595,-573,-0.0825195,8.35083,0,0,0,0,0,0,0,-1,1819,1597,-0.0824684,-8.35088
602,-573,0,0,0,0,0,0,0,0,0,-1,1826,1597,0,0
609,-573,0,0,0,0,0,0,0,0,0,-1,1833,1597,0,0
616,-573,0,0,0,0,0,0,0,0,0,-1,1840,1597,0,0
623,-573,0,0,0,0,0,0,0,0,0,-1,1847,1597,0,0
630,-573,0,0,0,0,0,0,0,0,0,-1,1854,1597,0,0
637,-573,0,0,0,0,0,0,0,0,0,-1,1861,1597,0,0
644,-573,0,0,0,0,0,0,0,0,0,-1,1868,1597,0,0
651,-573,0,0,0,0,0,0,0,0,0,-1,1875,1597,0,0
658,-573,0,0,0,0,0,0,0,0,0,-1,1882,1597,0,0
665,-573,0,0,0,0,0,0,0,0,0,-1,1889,1597,0,0
672,-573,0,0,0,0,0,0,0,0,0,-1,1896,1597,0,0
679,-573,0,0,0,0,0,0,0,0,0,-1,1903,1597,0,0
686,-573,0,0,0,0,0,0,0,0,0,-1,1910,1597,0,0
693,-573,0,0,0,0,0,0,0,0,0,-1,1917,1597,0,0
700,-573,0,0,0,0,0,0,0,0,0,-1,1924,1597,0,0
707,-573,0,0,0,0,0,0,0,0,0,-1,1931,1597,0,0
714,-573,0,0,0,0,0,0,0,0,0,-1,1938,1597,0,0
721,-573,0,0,0,0,0,0,0,0,0,-1,1945,1597,0,0
728,-573,0,0,0,0,0,0,0,0,0,-1,1952,1597,0,0
735,-573,0,0,0,0,0,0,0,0,0,-1,1959,1597,0,0
742,-573,0,0,0,0,0,0,0,0,0,-1,1966,1597,0,0
749,-573,0,0,0,0,0,0,0,0,0,-1,1973,1597,0,0
756,-573,0,0,0,0,0,0,0,0,0,-1,1980,1597,0,0
763,-573,0,0,0,0,0,0,0,0,0,-1,1987,1597,0,0
770,-573,0,0,0,0,0,0,0,0,0,-1,1994,1597,0,0
777,-573,0,0,0,0,0,0,0,0,0,-1,2001,1597,0,0
784,-573,0,0,0,0,0,0,0,0,0,-1,2008,1597,0,0
791,-573,0,0,0,0,0,0,0,0,0,-1,2015,1597,0,0
798,-573,0,0,0,0,0,0,0,0,0,-1,2022,1597,0,0
805,-573,0,0,0,0,0,0,0,0,0,-1,2029,1597,0,0
812,-573,0,0,0,0,0,0,0,0,0,-1,2036,1597,0,0
-700,-580,0,0,0,0,0,0,0,0,0,-1,524,1604,0,0
-693,-580,0,0,0,0,0,0,0,0,0,-1,531,1604,0,0
-686,-580,0,0,0,0,0,0,0,0,0,-1,538,1604,0,0
-679,-580,0,0,0,0,0,0,0,0,0,-1,545,1604,0,0
-672,-580,0,0,0,0,0,0,0,0,0,-1,552,1604,0,0
-665,-580,0,0,0,0,0,0,0,0,0,-1,559,1604,0,0
-658,-580,0,0,0,0,0,0,0,0,0,-1,566,1604,0,0
-651,-580,0,0,0,0,0,0,0,0,0,-1,573,1604,0,0
-644,-580,0,0,0,0,0,0,0,0,0,-1,580,1604,0,0
-637,-580,0,0,0,0,0,0,0,0,0,-1,587,1604,0,0
-630,-580,0,0,0,0,0,0,0,0,0,-1,594,1604,0,0
-623,-580,0,0,0,0,0,0,0,0,0,-1,601,1604,0,0
-616,-580,0,0,0,0,0,0,0,0,0,-1,608,1604,0,0
-609,-580,0,0,0,0,0,0,0,0,0,-1,615,1604,0,0
-602,-580,0,0,0,0,0,0,0,0,0,-1,622,1604,0,0
-595,-580,0,0,0,0,0,0,0,0,0,-1,629,1604,0,0
-588,-580,0,0,0,0,0,0,0,0,0,-1,636,1604,0,0
-581,-580,0,0,0,0,0,0,0,0,0,-1,643,1604,0,0
-574,-580,0,0,0,0,0,0,0,0,0,-1,650,1604,0,0
-567,-580,0,0,0,0,0,0,0,0,0,-1,657,1604,0,0
-560,-580,0,0,0,0,0,0,0,0,0,-1,664,1604,0,0
-553,-580,0,0,0,0,0,0,0,0,0,-1,671,1604,0,0
-546,-580,0,0,0,0,0,0,0,0,0,-1,678,1604,0,0
-539,-580,0,0,0,0,0,0,0,0,0,-1,685,1604,0,0
-532,-580,0,0,0,0,0,0,0,0,0,-1,692,1604,0,0
-525,-580,0,0,0,0,0,0,0,0,0,-1,699,1604,0,0
-518,-580,0,0,0,0,0,0,0,0,0,-1,706,1604,0,0
-511,-580,0,0,0,0,0,0,0,0,0,-1,713,1604,0,0
-504,-580,0,0,0,0,0,0,0,0,0,-1,720,1604,0,0
-497,-580,0,0,0,0,0,0,0,0,0,-1,727,1604,0,0
-490,-580,0,0,0,0,0,0,0,0,0,-1,734,1604,0,0
-483,-580,0,0,0,0,0,0,0,0,0,-1,741,1604,0,0
-476,-580,0,0,0,0,0,0,0,0,0,-1,748,1604,0,0
-469,-580,-1.69189,-0.38916,0,0,0,0,0,0,0,-1,755,1604,-1.69192,0.389188
-462,-580,-0.859863,0.675293,0,0,0,0,0,0,0,-1,762,1604,-0.859834,-0.675245
-455,-580,-0.730164,0.651978,0,0,0,0,0,0,0,-1,769,1604,-0.730153,-0.651957
-448,-580,-3.31891,2.07544,0,0,0,0,0,0,0,-1,776,1604,-3.3189,-2.07539
-441,-580,-1.63843,3.9469,0,0,0,0,0,0,0,-1,783,1604,-1.63842,-3.94695
-434,-580,0.23291,5.97876,0,0,0,0,0,0,0,-1,790,1604,0.232901,-5.97878
-427,-580,1.62756,8.05493,0,0,0,0,0,0,0,-1,797,1604,1.62758,-8.05488
-420,-580,0.986572,11.2383,0,0,0,0,0,0,0,-1,804,1604,0.986544,-11.2382
-413,-580,1.6532,13.3745,0,0,0,0,0,0,0,-1,811,1604,1.65317,-13.3745
-406,-580,1.48981,13.8086,-0.00346174,0.00163734,0.00246665,0.00263527,-0.00445967,1.18636,0.00414116,0.0460288,818,1604,1.48983,-13.8086
-399,-580,1.45538,14.1346,-0.00336352,0.000322104,0.0017589,0.00102678,-0.0040682,1.18974,0.00311139,0.0206641,825,1604,1.45536,-14.1347
-392,-580,1.45435,14.5027,-0.00276967,-0.000623968,0.00131068,-3.03879e-06,-0.0033906,1.12837,0.00225939,0.0122662,832,1604,1.45433,-14.5027
-385,-580,1.47137,14.8439,-0.00212021,-0.000797267,0.00123617,-5.67164e-05,-0.00286076,1.03106,0.00188855,0.0116335,839,1604,1.47138,-14.8438
-378,-580,1.4527,15.1775,-0.0013905,-0.000920914,0.00109181,-3.89381e-05,-0.00227248,0.89131,0.00150217,0.0153136,846,1604,1.45271,-15.1775
-371,-580,1.42401,15.5428,-0.000752649,-0.000710446,0.000517251,-0.000213866,-0.00124923,0.805785,0.000771476,0.0136982,853,1604,1.424,-15.5429
-364,-580,1.39453,15.8574,-0.000172211,-0.000296401,4.52814e-06,-0.000172046,-0.000296566,0.0363968,0.000171954,0.0184501,860,1604,1.39452,-15.8574
-357,-580,1.41107,16.1569,0.000616864,-3.07938e-05,-0.000547409,0.000929056,-0.000342986,-0.518301,0.000759952,0.013836,867,1604,1.41108,-16.1569
-350,-580,1.42871,16.5131,0.00148574,0.000380952,-0.00111426,0.00217702,-0.000310326,-0.555278,0.00156508,0.0109183,874,1604,1.42869,-16.5131
-343,-580,1.42804,16.8092,0.00219823,0.000878595,-0.00162441,0.00329171,-0.000214888,-0.592483,0.0022695,0.0109993,881,1604,1.42806,-16.8092
-336,-580,1.41797,17.0947,0.00287011,0.00159122,-0.00196102,0.0042933,0.000168028,-0.627796,0.00280787,0.0189808,888,1604,1.41796,-17.0947
-329,-580,1.40558,17.4692,0.00355649,0.00235843,-0.00223114,0.00526762,0.000647307,-0.654248,0.0033171,0.0180342,895,1604,1.40561,-17.4693
-322,-580,1.40546,17.7936,0.00412006,0.00303482,-0.00280153,0.00643104,0.000723844,-0.689739,0.0040676,0.0192703,902,1604,1.40548,-17.7935
-315,-580,1.41028,18.0967,0.00458847,0.00301548,-0.00353555,0.00742395,0.000179998,-0.675953,0.00489041,0.0179382,909,1604,1.4103,-18.0967
-308,-580,1.56586,18.4854,0,0,0,0,0,0,0,-1,916,1604,1.56583,-18.4854
-301,-580,1.54089,18.6686,0.00538327,0.0028325,-0.00453484,0.00881866,-0.000602888,-0.648318,0.00609002,0.0223734,923,1604,1.54087,-18.6686
-294,-580,1.4519,18.9222,0.00578299,0.00175811,-0.00522069,0.00936568,-0.00182458,-0.601437,0.00693249,0.0254566,930,1604,1.45188,-18.9223
-287,-580,1.43671,19.3668,0.0062713,0.000414022,-0.00616527,0.0101682,-0.00348285,-0.563665,0.0081904,0.0399479,937,1604,1.4367,-19.3668
-280,-580,1.43964,19.9077,0,0,0,0,0,0,0,-1,944,1604,1.43961,-19.9077
-273,-580,1.46112,20.4172,0,0,0,0,0,0,0,-1,951,1604,1.46114,-20.4173
-266,-580,0.315002,19.1315,0,0,0,0,0,0,0,-1,958,1604,0.315029,-19.1314
-259,-580,1.31091,9.11536,0,0,0,0,0,0,0,-1,965,1604,1.31092,-9.11539
-252,-580,1.07629,7.74097,0,0,0,0,0,0,0,-1,972,1604,1.07627,-7.74101
-245,-580,3.80304,9.16028,0,0,0,0,0,0,0,-1,979,1604,3.80306,-9.16034
-238,-580,-10.3588,1.57556,0,0,0,0,0,0,0,-1,986,1604,-10.3588,-1.5755
-231,-580,-10.576,6.43787,0,0,0,0,0,0,0,-1,993,1604,-10.576,-6.43783
-224,-580,-8.27435,7.58972,0,0,0,0,0,0,0,-1,1000,1604,-8.27435,-7.5897
-217,-580,-5.85632,9.51221,0,0,0,0,0,0,0,-1,1007,1604,-5.85632,-9.5122
-210,-580,-3.6684,11.1569,0,0,0,0,0,0,0,-1,1014,1604,-3.66839,-11.1569
-203,-580,-1.92474,12.7845,0,0,0,0,0,0,0,-1,1021,1604,-1.92477,-12.7845
-196,-580,-2.28552,10.3289,0,0,0,0,0,0,0,-1,1028,1604,-2.28552,-10.3288
-189,-580,-4.58252,7.59058,0,0,0,0,0,0,0,-1,1035,1604,-4.58256,-7.59057
-182,-580,-5.45874,7.65942,0,0,0,0,0,0,0,-1,1042,1604,-5.45876,-7.65939
-175,-580,-6.38977,7.55005,0,0,0,0,0,0,0,-1,1049,1604,-6.38981,-7.5501
-168,-580,0,0,0,0,0,0,0,0,0,-1,1056,1604,0,0
-161,-580,0,0,0,0,0,0,0,0,0,-1,1063,1604,0,0
-154,-580,0,0,0,0,0,0,0,0,0,-1,1070,1604,0,0
-147,-580,0,0,0,0,0,0,0,0,0,-1,1077,1604,0,0
-140,-580,0,0,0,0,0,0,0,0,0,-1,1084,1604,0,0
-133,-580,0,0,0,0,0,0,0,0,0,-1,1091,1604,0,0
-126,-580,0,0,0,0,0,0,0,0,0,-1,1098,1604,0,0
-119,-580,0,0,0,0,0,0,0,0,0,-1,1105,1604,0,0
-112,-580,0,0,0,0,0,0,0,0,0,-1,1112,1604,0,0
-105,-580,0,0,0,0,0,0,0,0,0,-1,1119,1604,0,0
-98,-580,0,0,0,0,0,0,0,0,0,-1,1126,1604,0,0
-91,-580,0,0,0,0,0,0,0,0,0,-1,1133,1604,0,0
-84,-580,0,0,0,0,0,0,0,0,0,-1,1140,1604,0,0
-77,-580,0,0,0,0,0,0,0,0,0,-1,1147,1604,0,0
-70,-580,0,0,0,0,0,0,0,0,0,-1,1154,1604,0,0
-63,-580,0,0,0,0,0,0,0,0,0,-1,1161,1604,0,0
-56,-580,0,0,0,0,0,0,0,0,0,-1,1168,1604,0,0
-49,-580,0,0,0,0,0,0,0,0,0,-1,1175,1604,0,0
-42,-580,0,0,0,0,0,0,0,0,0,-1,1182,1604,0,0
-35,-580,0,0,0,0,0,0,0,0,0,-1,1189,1604,0,0
-28,-580,0,0,0,0,0,0,0,0,0,-1,1196,1604,0,0
-21,-580,0,0,0,0,0,0,0,0,0,-1,1203,1604,0,0
-14,-580,0,0,0,0,0,0,0,0,0,-1,1210,1604,0,0
-7,-580,0,0,0,0,0,0,0,0,0,-1,1217,1604,0,0
0,-580,0,0,0,0,0,0,0,0,0,-1,1224,1604,0,0
7,-580,0,0,0,0,0,0,0,0,0,-1,1231,1604,0,0
14,-580,0,0,0,0,0,0,0,0,0,-1,1238,1604,0,0
21,-580,0,0,0,0,0,0,0,0,0,-1,1245,1604,0,0
28,-580,0,0,0,0,0,0,0,0,0,-1,1252,1604,0,0
35,-580,0,0,0,0,0,0,0,0,0,-1,1259,1604,0,0
42,-580,0,0,0,0,0,0,0,0,0,-1,1266,1604,0,0
49,-580,0,0,0,0,0,0,0,0,0,-1,1273,1604,0,0
56,-580,0,0,0,0,0,0,0,0,0,-1,1280,1604,0,0
63,-580,0,0,0,0,0,0,0,0,0,-1,1287,1604,0,0
70,-580,0,0,0,0,0,0,0,0,0,-1,1294,1604,0,0
77,-580,0,0,0,0,0,0,0,0,0,-1,1301,1604,0,0
84,-580,0,0,0,0,0,0,0,0,0,-1,1308,1604,0,0
91,-580,0,0,0,0,0,0,0,0,0,-1,1315,1604,0,0
98,-580,0,0,0,0,0,0,0,0,0,-1,1322,1604,0,0
105,-580,0,0,0,0,0,0,0,0,0,-1,1329,1604,0,0
112,-580,0,0,0,0,0,0,0,0,0,-1,1336,1604,0,0
119,-580,0,0,0,0,0,0,0,0,0,-1,1343,1604,0,0
126,-580,0,0,0,0,0,0,0,0,0,-1,1350,1604,0,0
133,-580,0,0,0,0,0,0,0,0,0,-1,1357,1604,0,0
140,-580,0,0,0,0,0,0,0,0,0,-1,1364,1604,0,0
147,-580,0,0,0,0,0,0,0,0,0,-1,1371,1604,0,0
154,-580,0,0,0,0,0,0,0,0,0,-1,1378,1604,0,0
161,-580,0,0,0,0,0,0,0,0,0,-1,1385,1604,0,0
168,-580,0,0,0,0,0,0,0,0,0,-1,1392,1604,0,0
175,-580,0,0,0,0,0,0,0,0,0,-1,1399,1604,0,0
182,-580,0,0,0,0,0,0,0,0,0,-1,1406,1604,0,0
189,-580,0,0,0,0,0,0,0,0,0,-1,1413,1604,0,0
196,-580,0,0,0,0,0,0,0,0,0,-1,1420,1604,0,0
203,-580,0,0,0,0,0,0,0,0,0,-1,1427,1604,0,0
210,-580,0,0,0,0,0,0,0,0,0,-1,1434,1604,0,0
217,-580,0,0,0,0,0,0,0,0,0,-1,1441,1604,0,0
224,-580,0,0,0,0,0,0,0,0,0,-1,1448,1604,0,0
231,-580,0,0,0,0,0,0,0,0,0,-1,1455,1604,0,0
238,-580,0,0,0,0,0,0,0,0,0,-1,1462,1604,0,0
245,-580,0,0,0,0,0,0,0,0,0,-1,1469,1604,0,0
252,-580,0,0,0,0,0,0,0,0,0,-1,1476,1604,0,0
259,-580,0,0,0,0,0,0,0,0,0,-1,1483,1604,0,0
266,-580,0,0,0,0,0,0,0,0,0,-1,1490,1604,0,0
273,-580,0,0,0,0,0,0,0,0,0,-1,1497,1604,0,0
280,-580,0,0,0,0,0,0,0,0,0,-1,1504,1604,0,0
287,-580,0,0,0,0,0,0,0,0,0,-1,1511,1604,0,0
294,-580,4.0437,0.177368,0,0,0,0,0,0,0,-1,1518,1604,4.04369,-0.177371
301,-580,7.55164,8.05798,0,0,0,0,0,0,0,-1,1525,1604,7.55158,-8.05802
308,-580,5.9126,9.99341,0,0,0,0,0,0,0,-1,1532,1604,5.91255,-9.99337
315,-580,4.27356,11.9287,0,0,0,0,0,0,0,-1,1539,1604,4.27352,-11.9287
322,-580,10.2366,7.50281,0,0,0,0,0,0,0,-1,1546,1604,10.2366,-7.50282
329,-580,10.5962,8.69641,0,0,0,0,0,0,0,-1,1553,1604,10.5962,-8.69642
336,-580,3.66431,1.58862,0,0,0,0,0,0,0,-1,1560,1604,3.6643,-1.58864
343,-580,3.32227,1.39636,0,0,0,0,0,0,0,-1,1567,1604,3.32222,-1.39633
350,-580,8.71277,4.0564,0,0,0,0,0,0,0,-1,1574,1604,8.71271,-4.05638
357,-580,8.52332,3.08154,0,0,0,0,0,0,0,-1,1581,1604,8.52332,-3.08157
364,-580,8.25818,2.07605,0,0,0,0,0,0,0,-1,1588,1604,8.25812,-2.07608
371,-580,7.42114,7.14282,0,0,0,0,0,0,0,-1,1595,1604,7.42119,-7.14281
378,-580,7.9718,6.6731,0,0,0,0,0,0,0,-1,1602,1604,7.9718,-6.67307
385,-580,8.52246,6.20337,0,0,0,0,0,0,0,-1,1609,1604,8.52241,-6.20334
392,-580,6.5498,-2.15625,0,0,0,0,0,0,0,-1,1616,1604,6.54984,2.15626
399,-580,6.52625,10.7247,0,0,0,0,0,0,0,-1,1623,1604,6.52628,-10.7248
406,-580,10.9541,19.5543,0,0,0,0,0,0,0,-1,1630,1604,10.9541,-19.5543
413,-580,10.9078,19.6472,0,0,0,0,0,0,0,-1,1637,1604,10.9078,-19.6473
420,-580,10.8986,20.3052,0,0,0,0,0,0,0,-1,1644,1604,10.8986,-20.3052
427,-580,11.4907,20.002,0,0,0,0,0,0,0,-1,1651,1604,11.4907,-20.002
434,-580,11.1301,19.8789,0,0,0,0,0,0,0,-1,1658,1604,11.1301,-19.8789
441,-580,10.6711,19.3154,-0.00317401,-0.00416804,0.00728688,0.00363278,-0.0109748,0.751347,0.00878163,0.0128926,1665,1604,10.6711,-19.3154
448,-580,10.7103,19.0326,-0.00266009,-0.00303106,0.00608192,0.00323917,-0.00893033,0.770154,0.00727766,0.0118358,1672,1604,10.7103,-19.0326
455,-580,10.7333,18.7621,-0.00217482,-0.0022048,0.00479327,0.00260348,-0.0069831,0.783834,0.00572411,0.017585,1679,1604,10.7333,-18.762
462,-580,10.6924,18.4646,-0.001562,-0.00122364,0.0035332,0.00214443,-0.00493007,0.809322,0.00418868,0.0203739,1686,1604,10.6924,-18.4646
469,-580,10.7069,18.1765,-0.000923661,-0.0008461,0.00246975,0.00158518,-0.00335494,0.793249,0.00291254,0.0185761,1693,1604,10.707,-18.1765
476,-580,10.7241,17.8853,-0.000352098,-0.000787621,0.00158089,0.00102596,-0.00216568,0.716956,0.00188145,0.0156707,1700,1604,10.7241,-17.8852
483,-580,10.7164,17.6016,0.000187181,-0.000535211,0.000809716,0.000712609,-0.00106064,0.575605,0.00103034,0.0132738,1707,1604,10.7164,-17.6015
490,-580,10.7042,17.3082,0.000656849,-0.000260919,0.00013284,0.00067569,-0.00027976,0.140891,0.000567197,0.0149459,1714,1604,10.7042,-17.3082
497,-580,10.7076,16.9941,0.00111492,8.08608e-05,-0.000573722,0.00137021,-0.000174429,-0.418664,0.000976819,0.0120587,1721,1604,10.7077,-16.9942
504,-580,10.7006,16.6726,0.00149433,0.000390358,-0.000993517,0.0020789,-0.000194215,-0.531837,0.001455,0.0171222,1728,1604,10.7005,-16.6727
511,-580,10.7015,16.3602,0.00162245,0.000201401,-0.00108094,0.00220548,-0.000381626,-0.494646,0.00161265,0.01664,1735,1604,10.7015,-16.3602
518,-580,10.6853,16.0748,0.00176107,0.00013995,-0.00113972,0.00234907,-0.000448049,-0.4763,0.00173479,0.0144861,1742,1604,10.6853,-16.0749
525,-580,10.6649,15.793,0.0018679,-0.000446684,-0.000783402,0.00210812,-0.000686905,-0.297536,0.00168181,0.0166883,1749,1604,10.6649,-15.7929
532,-580,10.6594,15.4645,0.00204026,-0.00140821,-9.84279e-05,0.00204306,-0.00141101,-0.0285116,0.00200531,0.0206326,1756,1604,10.6594,-15.4645
539,-580,10.7013,15.2419,0.00197803,-0.00288952,0.000902695,0.00214005,-0.00305153,0.177587,0.00301272,0.0330609,1763,1604,10.7014,-15.2419
546,-580,11.1152,14.8379,0,0,0,0,0,0,0,-1,1770,1604,11.1152,-14.8379
553,-580,9.42676,14.5714,0,0,0,0,0,0,0,-1,1777,1604,9.42671,-14.5714
560,-580,7.09021,6.49438,0,0,0,0,0,0,0,-1,1784,1604,7.09016,-6.4944
567,-580,3.87708,4.0647,0,0,0,0,0,0,0,-1,1791,1604,3.87711,-4.06471
574,-580,2.31653,5.62952,0,0,0,0,0,0,0,-1,1798,1604,2.31654,-5.62947
581,-580,1.60876,6.67664,0,0,0,0,0,0,0,-1,1805,1604,1.60873,-6.67667
588,-580,1.38684,7.14441,0,0,0,0,0,0,0,-1,1812,1604,1.38689,-7.14443
595,-580,0,0,0,0,0,0,0,0,0,-1,1819,1604,0,0
602,-580,0,0,0,0,0,0,0,0,0,-1,1826,1604,0,0
609,-580,0,0,0,0,0,0,0,0,0,-1,1833,1604,0,0
616,-580,0,0,0,0,0,0,0,0,0,-1,1840,1604,0,0
623,-580,0,0,0,0,0,0,0,0,0,-1,1847,1604,0,0
630,-580,0,0,0,0,0,0,0,0,0,-1,1854,1604,0,0
637,-580,0,0,0,0,0,0,0,0,0,-1,1861,1604,0,0
644,-580,0,0,0,0,0,0,0,0,0,-1,1868,1604,0,0
651,-580,0,0,0,0,0,0,0,0,0,-1,1875,1604,0,0
658,-580,0,0,0,0,0,0,0,0,0,-1,1882,1604,0,0
665,-580,0,0,0,0,0,0,0,0,0,-1,1889,1604,0,0
672,-580,0,0,0,0,0,0,0,0,0,-1,1896,1604,0,0
679,-580,0,0,0,0,0,0,0,0,0,-1,1903,1604,0,0
686,-580,0,0,0,0,0,0,0,0,0,-1,1910,1604,0,0
693,-580,0,0,0,0,0,0,0,0,0,-1,1917,1604,0,0
700,-580,0,0,0,0,0,0,0,0,0,-1,1924,1604,0,0
707,-580,0,0,0,0,0,0,0,0,0,-1,1931,1604,0,0
714,-580,0,0,0,0,0,0,0,0,0,-1,1938,1604,0,0
721,-580,0,0,0,0,0,0,0,0,0,-1,1945,1604,0,0
728,-580,0,0,0,0,0,0,0,0,0,-1,1952,1604,0,0
735,-580,0,0,0,0,0,0,0,0,0,-1,1959,1604,0,0
742,-580,0,0,0,0,0,0,0,0,0,-1,1966,1604,0,0
749,-580,0,0,0,0,0,0,0,0,0,-1,1973,1604,0,0
756,-580,0,0,0,0,0,0,0,0,0,-1,1980,1604,0,0
763,-580,0,0,0,0,0,0,0,0,0,-1,1987,1604,0,0
770,-580,0,0,0,0,0,0,0,0,0,-1,1994,1604,0,0
777,-580,0,0,0,0,0,0,0,0,0,-1,2001,1604,0,0
784,-580,0,0,0,0,0,0,0,0,0,-1,2008,1604,0,0
791,-580,0,0,0,0,0,0,0,0,0,-1,2015,1604,0,0
798,-580,0,0,0,0,0,0,0,0,0,-1,2022,1604,0,0
805,-580,0,0,0,0,0,0,0,0,0,-1,2029,1604,0,0
812,-580,0,0,0,0,0,0,0,0,0,-1,2036,1604,0,0
-700,-587,0,0,0,0,0,0,0,0,0,-1,524,1611,0,0
-693,-587,0,0,0,0,0,0,0,0,0,-1,531,1611,0,0
-686,-587,0,0,0,0,0,0,0,0,0,-1,538,1611,0,0
-679,-587,0,0,0,0,0,0,0,0,0,-1,545,1611,0,0
-672,-587,0,0,0,0,0,0,0,0,0,-1,552,1611,0,0
-665,-587,0,0,0,0,0,0,0,0,0,-1,559,1611,0,0
-658,-587,0,0,0,0,0,0,0,0,0,-1,566,1611,0,0
-651,-587,0,0,0,0,0,0,0,0,0,-1,573,1611,0,0
-644,-587,0,0,0,0,0,0,0,0,0,-1,580,1611,0,0
-637,-587,0,0,0,0,0,0,0,0,0,-1,587,1611,0,0
-630,-587,0,0,0,0,0,0,0,0,0,-1,594,1611,0,0
-623,-587,0,0,0,0,0,0,0,0,0,-1,601,1611,0,0
-616,-587,0,0,0,0,0,0,0,0,0,-1,608,1611,0,0
-609,-587,0,0,0,0,0,0,0,0,0,-1,615,1611,0,0
-602,-587,0,0,0,0,0,0,0,0,0,-1,622,1611,0,0
-595,-587,0,0,0,0,0,0,0,0,0,-1,629,1611,0,0
-588,-587,0,0,0,0,0,0,0,0,0,-1,636,1611,0,0
-581,-587,0,0,0,0,0,0,0,0,0,-1,643,1611,0,0
-574,-587,0,0,0,0,0,0,0,0,0,-1,650,1611,0,0
-567,-587,0,0,0,0,0,0,0,0,0,-1,657,1611,0,0
-560,-587,0,0,0,0,0,0,0,0,0,-1,664,1611,0,0
-553,-587,0,0,0,0,0,0,0,0,0,-1,671,1611,0,0
-546,-587,0,0,0,0,0,0,0,0,0,-1,678,1611,0,0
-539,-587,0,0,0,0,0,0,0,0,0,-1,685,1611,0,0
-532,-587,0,0,0,0,0,0,0,0,0,-1,692,1611,0,0
-525,-587,0,0,0,0,0,0,0,0,0,-1,699,1611,0,0
-518,-587,0,0,0,0,0,0,0,0,0,-1,706,1611,0,0
-511,-587,0,0,0,0,0,0,0,0,0,-1,713,1611,0,0
-504,-587,0,0,0,0,0,0,0,0,0,-1,720,1611,0,0
-497,-587,0,0,0,0,0,0,0,0,0,-1,727,1611,0,0
-490,-587,0,0,0,0,0,0,0,0,0,-1,734,1611,0,0
-483,-587,0,0,0,0,0,0,0,0,0,-1,741,1611,0,0
-476,-587,0,0,0,0,0,0,0,0,0,-1,748,1611,0,0
-469,-587,0,0,0,0,0,0,0,0,0,-1,755,1611,0,0
-462,-587,-0.714355,-0.418457,0,0,0,0,0,0,0,-1,762,1611,-0.714359,0.418483
-455,-587,-0.619812,-0.522461,0,0,0,0,0,0,0,-1,769,1611,-0.619802,0.522515
-448,-587,-0.461731,-0.686523,0,0,0,0,0,0,0,-1,776,1611,-0.461739,0.686559
-441,-587,-3.56555,2.72253,0,0,0,0,0,0,0,-1,783,1611,-3.56555,-2.72259
-434,-587,-1.77319,4.76318,0,0,0,0,0,0,0,-1,790,1611,-1.77318,-4.76323
-427,-587,0.0346069,6.92944,0,0,0,0,0,0,0,-1,797,1611,0.034587,-6.92941
-420,-587,-0.647156,10.1157,0,0,0,0,0,0,0,-1,804,1611,-0.647128,-10.1158
-413,-587,2.13971,10.3901,0,0,0,0,0,0,0,-1,811,1611,2.13971,-10.3902
-406,-587,1.84302,13.7816,0,0,0,0,0,0,0,-1,818,1611,1.84301,-13.7816
-399,-587,1.86816,14.1385,-0.00441377,-1.81436e-05,0.00215338,0.00086096,-0.00529287,1.1832,0.00384781,0.0397133,825,1611,1.86819,-14.1386
-392,-587,1.87482,14.4392,-0.00359986,-0.00105253,0.00162973,-0.000257798,-0.00439459,1.11708,0.00284769,0.0288287,832,1611,1.87482,-14.4393
-385,-587,1.75031,14.8231,-0.00285943,-0.0012975,0.00168309,-0.00022301,-0.00393392,1.00262,0.00255153,0.0166573,839,1611,1.75031,-14.8231
-378,-587,1.74542,15.2012,-0.00210642,-0.0012257,0.00163246,2.47528e-05,-0.00335687,0.917139,0.00224621,0.0133922,846,1611,1.74541,-15.2012
-371,-587,1.72528,15.5623,-0.00140961,-0.0011544,0.00112834,-0.000146466,-0.00241754,0.841705,0.00156516,0.0130605,853,1611,1.72529,-15.5622
-364,-587,1.72858,15.8772,-0.000768,-0.000939164,0.000743792,-0.000104883,-0.00160228,0.728119,0.001035,0.0159003,860,1611,1.72858,-15.8772
-357,-587,1.72345,16.1665,1.99772e-05,-0.000889937,0.000363546,0.000147387,-0.00101735,0.337089,0.000732321,0.0161175,867,1611,1.72345,-16.1665
-350,-587,1.71228,16.5073,0.000869117,-0.000720559,-6.15744e-05,0.000871498,-0.000722941,-0.0386568,0.000921881,0.00967436,874,1611,1.71229,-16.5073
-343,-587,1.69781,16.8345,0.00156418,-0.000504736,-0.000411314,0.00164295,-0.000583509,-0.189224,0.00133307,0.0120958,881,1611,1.69781,-16.8345
-336,-587,1.6817,17.1169,0.0022122,-0.000115433,-0.000624062,0.00236896,-0.000272193,-0.246101,0.00167741,0.0125191,888,1611,1.68173,-17.117
-329,-587,1.69189,17.4601,0.00281674,0.00037608,-0.00077521,0.00304215,0.000150673,-0.282967,0.00197979,0.0149032,895,1611,1.69192,-17.4601
-322,-587,1.73181,17.7916,0.0032706,0.000820262,-0.00120246,0.0037621,0.00032876,-0.388023,0.00240598,0.0171324,902,1611,1.73184,-17.7916
-315,-587,1.70795,18.0732,0.00362716,0.000689944,-0.00179177,0.00447528,-0.000158178,-0.442097,0.00303762,0.0142488,909,1611,1.70796,-18.0732
-308,-587,1.69116,18.3895,0.00392621,0.000748312,-0.00218749,0.00504094,-0.000366414,-0.471292,0.00348918,0.0144675,916,1611,1.69115,-18.3895
-301,-587,1.75,18.6917,0.0042101,0.000417869,-0.00268076,0.00559753,-0.000969566,-0.477592,0.00409333,0.0129789,923,1611,1.75001,-18.6917
-294,-587,1.81012,19.0243,0.0045144,-0.000446501,-0.00330294,0.00616457,-0.00209667,-0.463333,0.00495863,0.0188171,930,1611,1.81011,-19.0243
-287,-587,1.7475,19.4117,0.00495683,-0.00143224,-0.00409924,0.0069593,-0.00343471,-0.454403,0.00611491,0.0315185,937,1611,1.74749,-19.4117
-280,-587,1.55103,19.7544,0,0,0,0,0,0,0,-1,944,1611,1.55105,-19.7544
-273,-587,1.19348,19.7052,0.00568863,-0.00481233,-0.00569863,0.00818682,-0.00731052,-0.413153,0.00895216,0.0462515,951,1611,1.19349,-19.7052
-266,-587,1.27283,19.4863,0.00671258,-0.00788842,-0.00747456,0.00986035,-0.0110362,-0.398589,0.012071,0.0491264,958,1611,1.27283,-19.4864
-259,-587,1.92242,19.6223,0,0,0,0,0,0,0,-1,965,1611,1.92245,-19.6223
-252,-587,1.30188,10.3103,0,0,0,0,0,0,0,-1,972,1611,1.30188,-10.3104
-245,-587,2.97797,12.0387,0,0,0,0,0,0,0,-1,979,1611,2.97798,-12.0387
-238,-587,2.87799,9.53821,0,0,0,0,0,0,0,-1,986,1611,2.87797,-9.53823
-231,-587,2.49548,9.14465,0,0,0,0,0,0,0,-1,993,1611,2.49551,-9.14468
-224,-587,-9.72528,9.21069,0,0,0,0,0,0,0,-1,1000,1611,-9.72529,-9.21072
-217,-587,-7.07495,10.7847,0,0,0,0,0,0,0,-1,1007,1611,-7.07495,-10.7847
-210,-587,-4.72308,12.5889,0,0,0,0,0,0,0,-1,1014,1611,-4.72307,-12.5888
-203,-587,-3.2583,13.7289,0,0,0,0,0,0,0,-1,1021,1611,-3.25828,-13.7289
-196,-587,-1.953,14.8145,0,0,0,0,0,0,0,-1,1028,1611,-1.95302,-14.8144
-189,-587,-3.04138,8.66638,0,0,0,0,0,0,0,-1,1035,1611,-3.04136,-8.66635
-182,-587,-3.97095,9.7146,0,0,0,0,0,0,0,-1,1042,1611,-3.97093,-9.71461
-175,-587,-4.80969,8.37878,0,0,0,0,0,0,0,-1,1049,1611,-4.80964,-8.37883
-168,-587,-5.91394,8.72546,0,0,0,0,0,0,0,-1,1056,1611,-5.91398,-8.72542
-161,-587,-7.06946,8.88501,0,0,0,0,0,0,0,-1,1063,1611,-7.06947,-8.885
-154,-587,-2.24731,6.56519,0,0,0,0,0,0,0,-1,1070,1611,-2.24728,-6.56517
-147,-587,0,0,0,0,0,0,0,0,0,-1,1077,1611,0,0
-140,-587,0,0,0,0,0,0,0,0,0,-1,1084,1611,0,0
-133,-587,0,0,0,0,0,0,0,0,0,-1,1091,1611,0,0
-126,-587,0,0,0,0,0,0,0,0,0,-1,1098,1611,0,0
-119,-587,0,0,0,0,0,0,0,0,0,-1,1105,1611,0,0
-112,-587,0,0,0,0,0,0,0,0,0,-1,1112,1611,0,0
-105,-587,0,0,0,0,0,0,0,0,0,-1,1119,1611,0,0
-98,-587,0,0,0,0,0,0,0,0,0,-1,1126,1611,0,0
-91,-587,0,0,0,0,0,0,0,0,0,-1,1133,1611,0,0
-84,-587,0,0,0,0,0,0,0,0,0,-1,1140,1611,0,0
-77,-587,0,0,0,0,0,0,0,0,0,-1,1147,1611,0,0
-70,-587,0,0,0,0,0,0,0,0,0,-1,1154,1611,0,0
-63,-587,0,0,0,0,0,0,0,0,0,-1,1161,1611,0,0
-56,-587,0,0,0,0,0,0,0,0,0,-1,1168,1611,0,0
-49,-587,0,0,0,0,0,0,0,0,0,-1,1175,1611,0,0
-42,-587,0,0,0,0,0,0,0,0,0,-1,1182,1611,0,0
-35,-587,0,0,0,0,0,0,0,0,0,-1,1189,1611,0,0
-28,-587,0,0,0,0,0,0,0,0,0,-1,1196,1611,0,0
-21,-587,0,0,0,0,0,0,0,0,0,-1,1203,1611,0,0
-14,-587,0,0,0,0,0,0,0,0,0,-1,1210,1611,0,0
-7,-587,0,0,0,0,0,0,0,0,0,-1,1217,1611,0,0
0,-587,0,0,0,0,0,0,0,0,0,-1,1224,1611,0,0
7,-587,0,0,0,0,0,0,0,0,0,-1,1231,1611,0,0
14,-587,0,0,0,0,0,0,0,0,0,-1,1238,1611,0,0
21,-587,0,0,0,0,0,0,0,0,0,-1,1245,1611,0,0
28,-587,0,0,0,0,0,0,0,0,0,-1,1252,1611,0,0
35,-587,0,0,0,0,0,0,0,0,0,-1,1259,1611,0,0
42,-587,0,0,0,0,0,0,0,0,0,-1,1266,1611,0,0
49,-587,0,0,0,0,0,0,0,0,0,-1,1273,1611,0,0
56,-587,0,0,0,0,0,0,0,0,0,-1,1280,1611,0,0
63,-587,0,0,0,0,0,0,0,0,0,-1,1287,1611,0,0
70,-587,0,0,0,0,0,0,0,0,0,-1,1294,1611,0,0
77,-587,0,0,0,0,0,0,0,0,0,-1,1301,1611,0,0
84,-587,0,0,0,0,0,0,0,0,0,-1,1308,1611,0,0
91,-587,0,0,0,0,0,0,0,0,0,-1,1315,1611,0,0
98,-587,0,0,0,0,0,0,0,0,0,-1,1322,1611,0,0
105,-587,0,0,0,0,0,0,0,0,0,-1,1329,1611,0,0
112,-587,0,0,0,0,0,0,0,0,0,-1,1336,1611,0,0
119,-587,0,0,0,0,0,0,0,0,0,-1,1343,1611,0,0
126,-587,0,0,0,0,0,0,0,0,0,-1,1350,1611,0,0
133,-587,0,0,0,0,0,0,0,0,0,-1,1357,1611,0,0
140,-587,0,0,0,0,0,0,0,0,0,-1,1364,1611,0,0
147,-587,0,0,0,0,0,0,0,0,0,-1,1371,1611,0,0
154,-587,0,0,0,0,0,0,0,0,0,-1,1378,1611,0,0
161,-587,0,0,0,0,0,0,0,0,0,-1,1385,1611,0,0
168,-587,0,0,0,0,0,0,0,0,0,-1,1392,1611,0,0
175,-587,0,0,0,0,0,0,0,0,0,-1,1399,1611,0,0
182,-587,0,0,0,0,0,0,0,0,0,-1,1406,1611,0,0
189,-587,0,0,0,0,0,0,0,0,0,-1,1413,1611,0,0
196,-587,0,0,0,0,0,0,0,0,0,-1,1420,1611,0,0
203,-587,0,0,0,0,0,0,0,0,0,-1,1427,1611,0,0
210,-587,0,0,0,0,0,0,0,0,0,-1,1434,1611,0,0
217,-587,0,0,0,0,0,0,0,0,0,-1,1441,1611,0,0
224,-587,0,0,0,0,0,0,0,0,0,-1,1448,1611,0,0
231,-587,0,0,0,0,0,0,0,0,0,-1,1455,1611,0,0
238,-587,0,0,0,0,0,0,0,0,0,-1,1462,1611,0,0
245,-587,0,0,0,0,0,0,0,0,0,-1,1469,1611,0,0
252,-587,0,0,0,0,0,0,0,0,0,-1,1476,1611,0,0
259,-587,0,0,0,0,0,0,0,0,0,-1,1483,1611,0,0
266,-587,0,0,0,0,0,0,0,0,0,-1,1490,1611,0,0
273,-587,10.2936,6.35083,0,0,0,0,0,0,0,-1,1497,1611,10.2936,-6.35087
280,-587,2.09204,1.1217,0,0,0,0,0,0,0,-1,1504,1611,2.092,-1.12176
287,-587,3.2865,0.671509,0,0,0,0,0,0,0,-1,1511,1611,3.28656,-0.671538
294,-587,4.24646,1.58765,0,0,0,0,0,0,0,-1,1518,1611,4.24648,-1.58761
301,-587,7.60474,8.37085,0,0,0,0,0,0,0,-1,1525,1611,7.60478,-8.37084
308,-587,5.99316,10.2291,0,0,0,0,0,0,0,-1,1532,1611,5.99315,-10.2291
315,-587,4.34558,12.3289,0,0,0,0,0,0,0,-1,1539,1611,4.34556,-12.3288
322,-587,10.4526,6.38245,0,0,0,0,0,0,0,-1,1546,1611,10.4526,-6.38245
329,-587,10.7738,8.42444,0,0,0,0,0,0,0,-1,1553,1611,10.7738,-8.42438
336,-587,7.5531,5.96619,0,0,0,0,0,0,0,-1,1560,1611,7.55311,-5.96617
343,-587,9.57495,4.38391,0,0,0,0,0,0,0,-1,1567,1611,9.57494,-4.38397
350,-587,9.50378,3.45093,0,0,0,0,0,0,0,-1,1574,1611,9.50376,-3.4509
357,-587,9.40027,2.50806,0,0,0,0,0,0,0,-1,1581,1611,9.40022,-2.50803
364,-587,9.26477,1.34131,0,0,0,0,0,0,0,-1,1588,1611,9.26479,-1.34126
371,-587,6.98926,7.87561,0,0,0,0,0,0,0,-1,1595,1611,6.98928,-7.87564
378,-587,9.25146,13.8358,0,0,0,0,0,0,0,-1,1602,1611,9.2515,-13.8359
385,-587,7.17224,7.03772,0,0,0,0,0,0,0,-1,1609,1611,7.1722,-7.03778
392,-587,5.3916,8.21436,0,0,0,0,0,0,0,-1,1616,1611,5.39157,-8.21437
399,-587,10.4991,20.4373,0,0,0,0,0,0,0,-1,1623,1611,10.4991,-20.4372
406,-587,10.5892,20.049,-0.000743203,-0.0065059,0.00681998,0.00377912,-0.0110282,0.585529,0.00888395,0.0456193,1630,1611,10.5892,-20.0489
413,-587,10.5349,20.0923,-0.00142124,-0.00553205,0.00684086,0.00366633,-0.0106196,0.639458,0.00856746,0.0362164,1637,1611,10.535,-20.0923
420,-587,10.5056,20.224,-0.00173876,-0.0041668,0.00633537,0.00349786,-0.00940342,0.690733,0.00770429,0.0335778,1644,1611,10.5056,-20.224
427,-587,10.5106,19.9304,-0.00190555,-0.00296594,0.00567256,0.00326154,-0.00813304,0.7388,0.00677611,0.0266849,1651,1611,10.5106,-19.9304
434,-587,10.4286,19.5906,-0.00196265,-0.0021226,0.00484449,0.00280252,-0.00688777,0.777144,0.00575803,0.0159324,1658,1611,10.4286,-19.5906
441,-587,10.4089,19.2883,-0.00188844,-0.00110312,0.00415864,0.00268136,-0.00567291,0.832469,0.00492534,0.017385,1665,1611,10.4089,-19.2883
448,-587,10.4219,19.0613,-0.00157566,-0.000240065,0.00325855,0.00241842,-0.00423414,0.886467,0.00388825,0.0147665,1672,1611,10.4219,-19.0612
455,-587,10.4564,18.7827,-0.0012851,0.000344852,0.00230597,0.00197562,-0.00291587,0.955258,0.00284144,0.0139093,1679,1611,10.4565,-18.7827
462,-587,10.4274,18.4707,-0.000840826,0.000991721,0.00138365,0.00173498,-0.00158408,1.07786,0.00191692,0.0168607,1686,1611,10.4274,-18.4707
469,-587,10.4231,18.1825,-0.000334321,0.00108018,0.000637804,0.0013253,-0.000579434,1.20389,0.00112745,0.0151309,1693,1611,10.4231,-18.1825
476,-587,10.4183,17.9008,0.000148839,0.000835106,5.04233e-05,0.000838791,0.000145154,1.49784,0.000517639,0.0106012,1700,1611,10.4183,-17.9008
483,-587,10.3861,17.6046,0.000642096,0.000741342,-0.000448743,0.0011432,0.00024024,-0.840465,0.000696012,0.0131574,1707,1611,10.3861,-17.6046
490,-587,10.3854,17.2942,0.0010976,0.000624047,-0.000864805,0.00175746,-3.58107e-05,-0.651777,0.00118375,0.01557,1714,1611,10.3854,-17.2942
497,-587,10.3983,16.9843,0.00155449,0.000626199,-0.00133152,0.00250044,-0.000319754,-0.617692,0.00178313,0.0124572,1721,1611,10.3983,-16.9842
504,-587,10.3876,16.7018,0.00193355,0.000589484,-0.00153701,0.00293903,-0.000415992,-0.579305,0.00211172,0.0122273,1728,1611,10.3876,-16.7017
511,-587,10.3685,16.4138,0.0021234,0.000182264,-0.00151705,0.00295379,-0.000648125,-0.500822,0.00221704,0.0135654,1735,1611,10.3685,-16.4138
518,-587,10.3834,16.1058,0.00238315,-4.75966e-06,-0.00154084,0.00313848,-0.000760088,-0.455782,0.00238638,0.0131334,1742,1611,10.3834,-16.1058
525,-587,10.3969,15.8033,0.00264855,-0.000474328,-0.00130204,0.00312019,-0.000945967,-0.347529,0.00245692,0.0172981,1749,1611,10.3968,-15.8033
532,-587,10.4225,15.4685,0.00300807,-0.00121793,-0.00083696,0.00316779,-0.00137765,-0.18857,0.0026913,0.0324833,1756,1611,10.4225,-15.4685
539,-587,10.535,15.2129,0,0,0,0,0,0,0,-1,1763,1611,10.535,-15.2128
546,-587,9.57629,12.9152,0,0,0,0,0,0,0,-1,1770,1611,9.57624,-12.9152
553,-587,7.5813,8.45068,0,0,0,0,0,0,0,-1,1777,1611,7.58125,-8.45068
560,-587,4.21179,5.23547,0,0,0,0,0,0,0,-1,1784,1611,4.21185,-5.23553
567,-587,4.03711,5.46387,0,0,0,0,0,0,0,-1,1791,1611,4.03715,-5.46382
574,-587,3.83142,5.68884,0,0,0,0,0,0,0,-1,1798,1611,3.83141,-5.68881
581,-587,3.47168,6.00977,0,0,0,0,0,0,0,-1,1805,1611,3.47167,-6.00983
588,-587,0,0,0,0,0,0,0,0,0,-1,1812,1611,0,0
595,-587,0,0,0,0,0,0,0,0,0,-1,1819,1611,0,0
602,-587,0,0,0,0,0,0,0,0,0,-1,1826,1611,0,0
609,-587,0,0,0,0,0,0,0,0,0,-1,1833,1611,0,0
616,-587,0,0,0,0,0,0,0,0,0,-1,1840,1611,0,0
623,-587,0,0,0,0,0,0,0,0,0,-1,1847,1611,0,0
630,-587,0,0,0,0,0,0,0,0,0,-1,1854,1611,0,0
637,-587,0,0,0,0,0,0,0,0,0,-1,1861,1611,0,0
644,-587,0,0,0,0,0,0,0,0,0,-1,1868,1611,0,0
651,-587,0,0,0,0,0,0,0,0,0,-1,1875,1611,0,0
658,-587,0,0,0,0,0,0,0,0,0,-1,1882,1611,0,0
665,-587,0,0,0,0,0,0,0,0,0,-1,1889,1611,0,0
672,-587,0,0,0,0,0,0,0,0,0,-1,1896,1611,0,0
679,-587,0,0,0,0,0,0,0,0,0,-1,1903,1611,0,0
686,-587,0,0,0,0,0,0,0,0,0,-1,1910,1611,0,0
693,-587,0,0,0,0,0,0,0,0,0,-1,1917,1611,0,0
700,-587,0,0,0,0,0,0,0,0,0,-1,1924,1611,0,0
707,-587,0,0,0,0,0,0,0,0,0,-1,1931,1611,0,0
714,-587,0,0,0,0,0,0,0,0,0,-1,1938,1611,0,0
721,-587,0,0,0,0,0,0,0,0,0,-1,1945,1611,0,0
728,-587,0,0,0,0,0,0,0,0,0,-1,1952,1611,0,0
735,-587,0,0,0,0,0,0,0,0,0,-1,1959,1611,0,0
742,-587,0,0,0,0,0,0,0,0,0,-1,1966,1611,0,0
749,-587,0,0,0,0,0,0,0,0,0,-1,1973,1611,0,0
756,-587,0,0,0,0,0,0,0,0,0,-1,1980,1611,0,0
763,-587,0,0,0,0,0,0,0,0,0,-1,1987,1611,0,0
770,-587,0,0,0,0,0,0,0,0,0,-1,1994,1611,0,0
777,-587,0,0,0,0,0,0,0,0,0,-1,2001,1611,0,0
784,-587,0,0,0,0,0,0,0,0,0,-1,2008,1611,0,0
791,-587,0,0,0,0,0,0,0,0,0,-1,2015,1611,0,0
798,-587,0,0,0,0,0,0,0,0,0,-1,2022,1611,0,0
805,-587,0,0,0,0,0,0,0,0,0,-1,2029,1611,0,0
812,-587,0,0,0,0,0,0,0,0,0,-1,2036,1611,0,0
-700,-594,0,0,0,0,0,0,0,0,0,-1,524,1618,0,0
-693,-594,0,0,0,0,0,0,0,0,0,-1,531,1618,0,0
-686,-594,0,0,0,0,0,0,0,0,0,-1,538,1618,0,0
-679,-594,0,0,0,0,0,0,0,0,0,-1,545,1618,0,0
-672,-594,0,0,0,0,0,0,0,0,0,-1,552,1618,0,0
-665,-594,0,0,0,0,0,0,0,0,0,-1,559,1618,0,0
-658,-594,0,0,0,0,0,0,0,0,0,-1,566,1618,0,0
-651,-594,0,0,0,0,0,0,0,0,0,-1,573,1618,0,0
-644,-594,0,0,0,0,0,0,0,0,0,-1,580,1618,0,0
-637,-594,0,0,0,0,0,0,0,0,0,-1,587,1618,0,0
-630,-594,0,0,0,0,0,0,0,0,0,-1,594,1618,0,0
-623,-594,0,0,0,0,0,0,0,0,0,-1,601,1618,0,0
-616,-594,0,0,0,0,0,0,0,0,0,-1,608,1618,0,0
-609,-594,0,0,0,0,0,0,0,0,0,-1,615,1618,0,0
-602,-594,0,0,0,0,0,0,0,0,0,-1,622,1618,0,0
-595,-594,0,0,0,0,0,0,0,0,0,-1,629,1618,0,0
-588,-594,0,0,0,0,0,0,0,0,0,-1,636,1618,0,0
-581,-594,0,0,0,0,0,0,0,0,0,-1,643,1618,0,0
-574,-594,0,0,0,0,0,0,0,0,0,-1,650,1618,0,0
-567,-594,0,0,0,0,0,0,0,0,0,-1,657,1618,0,0
-560,-594,0,0,0,0,0,0,0,0,0,-1,664,1618,0,0
-553,-594,0,0,0,0,0,0,0,0,0,-1,671,1618,0,0
-546,-594,0,0,0,0,0,0,0,0,0,-1,678,1618,0,0
-539,-594,0,0,0,0,0,0,0,0,0,-1,685,1618,0,0
-532,-594,0,0,0,0,0,0,0,0,0,-1,692,1618,0,0
-525,-594,0,0,0,0,0,0,0,0,0,-1,699,1618,0,0
-518,-594,0,0,0,0,0,0,0,0,0,-1,706,1618,0,0
-511,-594,0,0,0,0,0,0,0,0,0,-1,713,1618,0,0
-504,-594,0,0,0,0,0,0,0,0,0,-1,720,1618,0,0
-497,-594,0,0,0,0,0,0,0,0,0,-1,727,1618,0,0
-490,-594,0,0,0,0,0,0,0,0,0,-1,734,1618,0,0
-483,-594,0,0,0,0,0,0,0,0,0,-1,741,1618,0,0
-476,-594,0,0,0,0,0,0,0,0,0,-1,748,1618,0,0
-469,-594,0,0,0,0,0,0,0,0,0,-1,755,1618,0,0
-462,-594,0,0,0,0,0,0,0,0,0,-1,762,1618,0,0
-455,-594,-0.509216,-1.58411,0,0,0,0,0,0,0,-1,769,1618,-0.509245,1.58415
-448,-594,-7.71887,-0.0559082,0,0,0,0,0,0,0,-1,776,1618,-7.71885,0.055939
-441,-594,-5.78473,1.18298,0,0,0,0,0,0,0,-1,783,1618,-5.78474,-1.18295
-434,-594,-3.93628,3.06213,0,0,0,0,0,0,0,-1,790,1618,-3.93631,-3.06208
-427,-594,-3.97693,6.77759,0,0,0,0,0,0,0,-1,797,1618,-3.97695,-6.77764
-420,-594,-2.53046,7.71606,0,0,0,0,0,0,0,-1,804,1618,-2.53047,-7.71609
-413,-594,-0.860413,8.00391,0,0,0,0,0,0,0,-1,811,1618,-0.860423,-8.00389
-406,-594,2.55188,11.9194,0,0,0,0,0,0,0,-1,818,1618,2.55189,-11.9195
-399,-594,2.25165,14.1256,0,0,0,0,0,0,0,-1,825,1618,2.25165,-14.1256
-392,-594,2.3476,14.3672,-0.00479466,-0.00158872,0.00196506,-0.000655751,-0.00572763,1.12753,0.00361969,0.0448116,832,1618,2.34762,-14.3671
-385,-594,2.13306,14.8959,-0.00353272,-0.00182627,0.00178712,-0.000699145,-0.00465985,1.00811,0.00290173,0.0276943,839,1618,2.13309,-14.8958
-378,-594,2.03516,15.1976,-0.00251683,-0.00154824,0.00157842,-0.00038149,-0.00368357,0.934251,0.00233895,0.0121874,846,1618,2.03514,-15.1977
-371,-594,2.04712,15.5533,-0.00178708,-0.0015253,0.001196,-0.000453052,-0.00285933,0.839901,0.00177459,0.0108552,853,1618,2.0471,-15.5534
-364,-594,2.05859,15.8597,-0.00115702,-0.00137278,0.00101043,-0.000248728,-0.00228108,0.732218,0.00144496,0.0100347,860,1618,2.05859,-15.8598
-357,-594,2.04828,16.1675,-0.000497558,-0.00135078,0.000902597,7.41672e-05,-0.00192251,0.564633,0.0013071,0.00990685,867,1618,2.04827,-16.1675
-350,-594,2.0202,16.5356,0.000177864,-0.00121729,0.0007304,0.000490287,-0.00152971,0.404191,0.00121662,0.0145938,874,1618,2.02023,-16.5356
-343,-594,2.00372,16.8864,0.000701434,-0.00105201,0.000643856,0.000912458,-0.00126303,0.316718,0.00126145,0.0169096,881,1618,2.00371,-16.8864
-336,-594,1.97888,17.1649,0.00119404,-0.000755707,0.000633797,0.00138196,-0.000943622,0.288234,0.0013506,0.0142203,888,1618,1.97885,-17.1649
-329,-594,1.99554,17.4821,0.0016084,-0.000288708,0.000655868,0.00181307,-0.000493374,0.302479,0.0014024,0.0141286,895,1618,1.99552,-17.482
-322,-594,2.05615,17.8101,0.00189338,0.000136629,0.000401175,0.00198066,4.93522e-05,0.214216,0.0013043,0.015264,902,1618,2.05615,-17.81
-315,-594,2.04596,18.0859,0.00213063,8.63109e-05,-6.13454e-05,0.00213247,8.44719e-05,-0.0299718,0.00139434,0.015212,909,1618,2.04597,-18.086
-308,-594,2.02765,18.3672,0.002368,0.000162293,-0.000441,0.0024529,7.73895e-05,-0.190198,0.00161009,0.0142382,916,1618,2.02762,-18.3672
-301,-594,2.01556,18.6638,0.00262696,-4.71334e-05,-0.000936795,0.00292249,-0.000342655,-0.305579,0.00207201,0.0110686,923,1618,2.01555,-18.6639
-294,-594,2.04126,18.9457,0.00293538,-0.000702581,-0.00157789,0.00352439,-0.00129159,-0.357271,0.0028784,0.0109846,930,1618,2.04127,-18.9457
-287,-594,2.0304,19.2271,0.00343932,-0.00143728,-0.00231497,0.00436322,-0.00236118,-0.379728,0.00393927,0.0166979,937,1618,2.03039,-19.2271
-280,-594,2.09393,19.5522,0.0041134,-0.00257558,-0.00318983,0.00539067,-0.00385284,-0.380866,0.0053613,0.0208412,944,1618,2.09394,-19.5522
-273,-594,2.07629,19.8474,0.00485029,-0.00393854,-0.00433194,0.00662649,-0.00571475,-0.389119,0.0071317,0.0311,951,1618,2.0763,-19.8474
-266,-594,2.06409,20.1012,0.0058263,-0.0062711,-0.00542374,0.00790187,-0.00834667,-0.365488,0.00938227,0.0419873,958,1618,2.06411,-20.1012
-259,-594,2.09991,20.3492,0,0,0,0,0,0,0,-1,965,1618,2.09989,-20.3492
-252,-594,2.4101,20.2759,0,0,0,0,0,0,0,-1,972,1618,2.41008,-20.2759
-245,-594,2.42236,20.5052,0,0,0,0,0,0,0,-1,979,1618,2.42238,-20.5053
-238,-594,2.48499,13.0104,0,0,0,0,0,0,0,-1,986,1618,2.48501,-13.0104
-231,-594,1.93774,9.35388,0,0,0,0,0,0,0,-1,993,1618,1.93776,-9.35393
-224,-594,1.81824,8.62744,0,0,0,0,0,0,0,-1,1000,1618,1.81822,-8.62745
-217,-594,-8.24066,12.0752,0,0,0,0,0,0,0,-1,1007,1618,-8.24068,-12.0751
-210,-594,-5.61438,14.2119,0,0,0,0,0,0,0,-1,1014,1618,-5.6144,-14.212
-203,-594,-3.94507,15.5768,0,0,0,0,0,0,0,-1,1021,1618,-3.94506,-15.5768
-196,-594,2.78613,10.5815,0,0,0,0,0,0,0,-1,1028,1618,2.78612,-10.5815
-189,-594,2.60913,9.48865,0,0,0,0,0,0,0,-1,1035,1618,2.6091,-9.48871
-182,-594,1.2395,9.38806,0,0,0,0,0,0,0,-1,1042,1618,1.23951,-9.38804
-175,-594,0.234863,8.73792,0,0,0,0,0,0,0,-1,1049,1618,0.234812,-8.73786
-168,-594,-0.495483,8.46289,0,0,0,0,0,0,0,-1,1056,1618,-0.495513,-8.46285
-161,-594,-1.39734,8.28699,0,0,0,0,0,0,0,-1,1063,1618,-1.39729,-8.28699
-154,-594,-0.000854492,7.68445,0,0,0,0,0,0,0,-1,1070,1618,-0.000805755,-7.6845
-147,-594,0.348267,9.3385,0,0,0,0,0,0,0,-1,1077,1618,0.348237,-9.33849
-140,-594,0.675171,11.5884,0,0,0,0,0,0,0,-1,1084,1618,0.675204,-11.5884
-133,-594,0,0,0,0,0,0,0,0,0,-1,1091,1618,0,0
-126,-594,0,0,0,0,0,0,0,0,0,-1,1098,1618,0,0
-119,-594,0,0,0,0,0,0,0,0,0,-1,1105,1618,0,0
-112,-594,0,0,0,0,0,0,0,0,0,-1,1112,1618,0,0
-105,-594,0,0,0,0,0,0,0,0,0,-1,1119,1618,0,0
-98,-594,0,0,0,0,0,0,0,0,0,-1,1126,1618,0,0
-91,-594,0,0,0,0,0,0,0,0,0,-1,1133,1618,0,0
-84,-594,0,0,0,0,0,0,0,0,0,-1,1140,1618,0,0
-77,-594,0,0,0,0,0,0,0,0,0,-1,1147,1618,0,0
-70,-594,0,0,0,0,0,0,0,0,0,-1,1154,1618,0,0
-63,-594,0,0,0,0,0,0,0,0,0,-1,1161,1618,0,0
-56,-594,0,0,0,0,0,0,0,0,0,-1,1168,1618,0,0
-49,-594,0,0,0,0,0,0,0,0,0,-1,1175,1618,0,0
-42,-594,0,0,0,0,0,0,0,0,0,-1,1182,1618,0,0
-35,-594,0,0,0,0,0,0,0,0,0,-1,1189,1618,0,0
-28,-594,0,0,0,0,0,0,0,0,0,-1,1196,1618,0,0
-21,-594,0,0,0,0,0,0,0,0,0,-1,1203,1618,0,0
-14,-594,0,0,0,0,0,0,0,0,0,-1,1210,1618,0,0
-7,-594,0,0,0,0,0,0,0,0,0,-1,1217,1618,0,0
0,-594,0,0,0,0,0,0,0,0,0,-1,1224,1618,0,0
7,-594,0,0,0,0,0,0,0,0,0,-1,1231,1618,0,0
14,-594,0,0,0,0,0,0,0,0,0,-1,1238,1618,0,0
21,-594,0,0,0,0,0,0,0,0,0,-1,1245,1618,0,0
28,-594,0,0,0,0,0,0,0,0,0,-1,1252,1618,0,0
35,-594,0,0,0,0,0,0,0,0,0,-1,1259,1618,0,0
42,-594,0,0,0,0,0,0,0,0,0,-1,1266,1618,0,0
49,-594,0,0,0,0,0,0,0,0,0,-1,1273,1618,0,0
56,-594,0,0,0,0,0,0,0,0,0,-1,1280,1618,0,0
63,-594,0,0,0,0,0,0,0,0,0,-1,1287,1618,0,0
70,-594,0,0,0,0,0,0,0,0,0,-1,1294,1618,0,0
77,-594,0,0,0,0,0,0,0,0,0,-1,1301,1618,0,0
84,-594,0,0,0,0,0,0,0,0,0,-1,1308,1618,0,0
91,-594,0,0,0,0,0,0,0,0,0,-1,1315,1618,0,0
98,-594,0,0,0,0,0,0,0,0,0,-1,1322,1618,0,0
105,-594,0,0,0,0,0,0,0,0,0,-1,1329,1618,0,0
112,-594,0,0,0,0,0,0,0,0,0,-1,1336,1618,0,0
119,-594,0,0,0,0,0,0,0,0,0,-1,1343,1618,0,0
126,-594,0,0,0,0,0,0,0,0,0,-1,1350,1618,0,0
133,-594,0,0,0,0,0,0,0,0,0,-1,1357,1618,0,0
140,-594,0,0,0,0,0,0,0,0,0,-1,1364,1618,0,0
147,-594,0,0,0,0,0,0,0,0,0,-1,1371,1618,0,0
154,-594,0,0,0,0,0,0,0,0,0,-1,1378,1618,0,0
161,-594,0,0,0,0,0,0,0,0,0,-1,1385,1618,0,0
168,-594,0,0,0,0,0,0,0,0,0,-1,1392,1618,0,0
175,-594,0,0,0,0,0,0,0,0,0,-1,1399,1618,0,0
182,-594,0,0,0,0,0,0,0,0,0,-1,1406,1618,0,0
189,-594,0,0,0,0,0,0,0,0,0,-1,1413,1618,0,0
196,-594,0,0,0,0,0,0,0,0,0,-1,1420,1618,0,0
203,-594,0,0,0,0,0,0,0,0,0,-1,1427,1618,0,0
210,-594,0,0,0,0,0,0,0,0,0,-1,1434,1618,0,0
217,-594,0,0,0,0,0,0,0,0,0,-1,1441,1618,0,0
224,-594,0,0,0,0,0,0,0,0,0,-1,1448,1618,0,0
231,-594,0,0,0,0,0,0,0,0,0,-1,1455,1618,0,0
238,-594,0,0,0,0,0,0,0,0,0,-1,1462,1618,0,0
245,-594,0,0,0,0,0,0,0,0,0,-1,1469,1618,0,0
252,-594,3.03674,1.20996,0,0,0,0,0,0,0,-1,1476,1618,3.0368,-1.20999
259,-594,4.79834,1.53113,0,0,0,0,0,0,0,-1,1483,1618,4.79837,-1.53118
266,-594,3.71606,2.68152,0,0,0,0,0,0,0,-1,1490,1618,3.71609,-2.68149
273,-594,9.7655,6.33557,0,0,0,0,0,0,0,-1,1497,1618,9.76555,-6.33554
280,-594,3.13281,0.911255,0,0,0,0,0,0,0,-1,1504,1618,3.13277,-0.911207
287,-594,4.42749,1.51563,0,0,0,0,0,0,0,-1,1511,1618,4.42747,-1.51564
294,-594,5.36475,3.34937,0,0,0,0,0,0,0,-1,1518,1618,5.36475,-3.3494
301,-594,7.97144,9.04333,0,0,0,0,0,0,0,-1,1525,1618,7.9714,-9.04328
308,-594,6.30347,10.4633,0,0,0,0,0,0,0,-1,1532,1618,6.30351,-10.4633
315,-594,4.62012,11.934,0,0,0,0,0,0,0,-1,1539,1618,4.62006,-11.934
322,-594,2.91528,13.3134,0,0,0,0,0,0,0,-1,1546,1618,2.91523,-13.3133
329,-594,4.19861,9.77258,0,0,0,0,0,0,0,-1,1553,1618,4.19865,-9.77264
336,-594,10.1353,4.66528,0,0,0,0,0,0,0,-1,1560,1618,10.1353,-4.66533
343,-594,10.5729,3.71228,0,0,0,0,0,0,0,-1,1567,1618,10.5729,-3.71232
350,-594,10.219,2.98792,0,0,0,0,0,0,0,-1,1574,1618,10.219,-2.98797
357,-594,9.83154,1.96326,0,0,0,0,0,0,0,-1,1581,1618,9.8315,-1.96321
364,-594,9.74939,0.700562,0,0,0,0,0,0,0,-1,1588,1618,9.74939,-0.700615
371,-594,8.54297,14.3988,0,0,0,0,0,0,0,-1,1595,1618,8.54296,-14.3989
378,-594,8.9137,16.3073,0,0,0,0,0,0,0,-1,1602,1618,8.91369,-16.3072
385,-594,9.58142,21.5156,0,0,0,0,0,0,0,-1,1609,1618,9.58145,-21.5157
392,-594,9.9082,21.1145,0,0,0,0,0,0,0,-1,1616,1618,9.90816,-21.1145
399,-594,10.1471,20.7788,0.00148736,-0.0028757,0.00343187,0.00337238,-0.00476072,0.502281,0.0047184,0.0443146,1623,1618,10.1471,-20.7788
406,-594,10.2014,20.583,0.000566604,-0.00328217,0.00420208,0.00326398,-0.00597955,0.570671,0.00541298,0.0275837,1630,1618,10.2014,-20.5831
413,-594,10.1803,20.382,-7.08867e-05,-0.00326209,0.00447985,0.00308904,-0.00642201,0.614317,0.00560247,0.0201588,1637,1618,10.1803,-20.3819
420,-594,10.1691,20.0894,-0.000479288,-0.00263603,0.00430428,0.00287965,-0.00599497,0.662657,0.00522794,0.0174997,1644,1618,10.169,-20.0893
427,-594,10.1595,19.8668,-0.000820385,-0.00208605,0.00400656,0.00260302,-0.00550945,0.707071,0.00478288,0.0127486,1651,1618,10.1596,-19.8668
434,-594,10.1487,19.5944,-0.00093937,-0.00150485,0.0034373,0.0022268,-0.00467102,0.744362,0.00406495,0.016579,1658,1618,10.1486,-19.5943
441,-594,10.1322,19.3254,-0.000900386,-0.000747481,0.0029441,0.00212116,-0.00376903,0.798379,0.00344478,0.0155509,1665,1618,10.1322,-19.3254
448,-594,10.1637,19.0781,-0.000722371,-6.75228e-05,0.00226264,0.00189126,-0.00268115,0.857254,0.00265298,0.0153589,1672,1618,10.1637,-19.0781
455,-594,10.1389,18.7699,-0.000542189,0.000430271,0.00151504,0.00153519,-0.00164711,0.940674,0.00183768,0.0122661,1679,1618,10.139,-18.77
462,-594,10.1216,18.4673,-0.000188986,0.000974348,0.000764782,0.00135353,-0.000568167,1.11051,0.00113996,0.0137439,1686,1618,10.1216,-18.4673
469,-594,10.1259,18.2113,0.0002599,0.00108727,0.000128987,0.00110691,0.000240257,1.41967,0.00067232,0.0116895,1693,1618,10.1259,-18.2113
476,-594,10.1371,17.9231,0.000721866,0.000930798,-0.000400879,0.0012406,0.000412065,-0.912859,0.000729589,0.011737,1700,1618,10.1371,-17.9231
483,-594,10.1133,17.609,0.00121951,0.000903321,-0.000892427,0.00196773,0.000155092,-0.697733,0.0012633,0.0146349,1707,1618,10.1133,-17.609
490,-594,10.1024,17.3005,0.00169334,0.000808919,-0.00131815,0.00264147,-0.000139218,-0.623559,0.00180918,0.0129702,1714,1618,10.1024,-17.3005
497,-594,10.0999,16.9908,0.00217217,0.000843969,-0.00178892,0.00341628,-0.000400135,-0.607667,0.00242194,0.00976983,1721,1618,10.0998,-16.9908
504,-594,10.1057,16.7051,0.00256782,0.000788677,-0.0020094,0.00387575,-0.000519261,-0.577014,0.00277318,0.00978895,1728,1618,10.1057,-16.7051
511,-594,10.1047,16.4147,0.00283185,0.000412625,-0.00208702,0.00403446,-0.000789984,-0.52276,0.00298798,0.0130147,1735,1618,10.1047,-16.4146
518,-594,10.0935,16.0874,0.00321552,0.000301998,-0.00225371,0.00444229,-0.000924773,-0.498483,0.00331309,0.0163838,1742,1618,10.0936,-16.0874
525,-594,10.1284,15.7263,0.0036309,-0.000145401,-0.00213313,0.00459149,-0.001106,-0.423122,0.0034886,0.0278383,1749,1618,10.1284,-15.7263
532,-594,10.2268,15.3562,0.00415816,-0.00101878,-0.00174914,0.00469374,-0.00155435,-0.297129,0.00375606,0.0446163,1756,1618,10.2268,-15.3562
539,-594,10.343,14.9763,0,0,0,0,0,0,0,-1,1763,1618,10.343,-14.9763
546,-594,7.48645,8.54785,0,0,0,0,0,0,0,-1,1770,1618,7.48639,-8.54789
553,-594,3.69714,5.68762,0,0,0,0,0,0,0,-1,1777,1618,3.69715,-5.68764
560,-594,6.06616,4.44482,0,0,0,0,0,0,0,-1,1784,1618,6.06621,-4.44477
567,-594,5.97266,4.73303,0,0,0,0,0,0,0,-1,1791,1618,5.97271,-4.73309
574,-594,5.9906,4.96326,0,0,0,0,0,0,0,-1,1798,1618,5.99065,-4.96326
581,-594,0,0,0,0,0,0,0,0,0,-1,1805,1618,0,0
588,-594,0,0,0,0,0,0,0,0,0,-1,1812,1618,0,0
595,-594,0,0,0,0,0,0,0,0,0,-1,1819,1618,0,0
602,-594,0,0,0,0,0,0,0,0,0,-1,1826,1618,0,0
609,-594,0,0,0,0,0,0,0,0,0,-1,1833,1618,0,0
616,-594,0,0,0,0,0,0,0,0,0,-1,1840,1618,0,0
623,-594,0,0,0,0,0,0,0,0,0,-1,1847,1618,0,0
630,-594,0,0,0,0,0,0,0,0,0,-1,1854,1618,0,0
637,-594,0,0,0,0,0,0,0,0,0,-1,1861,1618,0,0
644,-594,0,0,0,0,0,0,0,0,0,-1,1868,1618,0,0
651,-594,0,0,0,0,0,0,0,0,0,-1,1875,1618,0,0
658,-594,0,0,0,0,0,0,0,0,0,-1,1882,1618,0,0
665,-594,0,0,0,0,0,0,0,0,0,-1,1889,1618,0,0
672,-594,0,0,0,0,0,0,0,0,0,-1,1896,1618,0,0
679,-594,0,0,0,0,0,0,0,0,0,-1,1903,1618,0,0
686,-594,0,0,0,0,0,0,0,0,0,-1,1910,1618,0,0
693,-594,0,0,0,0,0,0,0,0,0,-1,1917,1618,0,0
700,-594,0,0,0,0,0,0,0,0,0,-1,1924,1618,0,0
707,-594,0,0,0,0,0,0,0,0,0,-1,1931,1618,0,0
714,-594,0,0,0,0,0,0,0,0,0,-1,1938,1618,0,0
721,-594,0,0,0,0,0,0,0,0,0,-1,1945,1618,0,0
728,-594,0,0,0,0,0,0,0,0,0,-1,1952,1618,0,0
735,-594,0,0,0,0,0,0,0,0,0,-1,1959,1618,0,0
742,-594,0,0,0,0,0,0,0,0,0,-1,1966,1618,0,0
749,-594,0,0,0,0,0,0,0,0,0,-1,1973,1618,0,0
756,-594,0,0,0,0,0,0,0,0,0,-1,1980,1618,0,0
763,-594,0,0,0,0,0,0,0,0,0,-1,1987,1618,0,0
770,-594,0,0,0,0,0,0,0,0,0,-1,1994,1618,0,0
777,-594,0,0,0,0,0,0,0,0,0,-1,2001,1618,0,0
784,-594,0,0,0,0,0,0,0,0,0,-1,2008,1618,0,0
791,-594,0,0,0,0,0,0,0,0,0,-1,2015,1618,0,0
798,-594,0,0,0,0,0,0,0,0,0,-1,2022,1618,0,0
805,-594,0,0,0,0,0,0,0,0,0,-1,2029,1618,0,0
812,-594,0,0,0,0,0,0,0,0,0,-1,2036,1618,0,0
-700,-601,0,0,0,0,0,0,0,0,0,-1,524,1625,0,0
-693,-601,0,0,0,0,0,0,0,0,0,-1,531,1625,0,0
-686,-601,0,0,0,0,0,0,0,0,0,-1,538,1625,0,0
-679,-601,0,0,0,0,0,0,0,0,0,-1,545,1625,0,0
-672,-601,0,0,0,0,0,0,0,0,0,-1,552,1625,0,0
-665,-601,0,0,0,0,0,0,0,0,0,-1,559,1625,0,0
-658,-601,0,0,0,0,0,0,0,0,0,-1,566,1625,0,0
-651,-601,0,0,0,0,0,0,0,0,0,-1,573,1625,0,0
-644,-601,0,0,0,0,0,0,0,0,0,-1,580,1625,0,0
-637,-601,0,0,0,0,0,0,0,0,0,-1,587,1625,0,0
-630,-601,0,0,0,0,0,0,0,0,0,-1,594,1625,0,0
-623,-601,0,0,0,0,0,0,0,0,0,-1,601,1625,0,0
-616,-601,0,0,0,0,0,0,0,0,0,-1,608,1625,0,0
-609,-601,0,0,0,0,0,0,0,0,0,-1,615,1625,0,0
-602,-601,0,0,0,0,0,0,0,0,0,-1,622,1625,0,0
-595,-601,0,0,0,0,0,0,0,0,0,-1,629,1625,0,0
-588,-601,0,0,0,0,0,0,0,0,0,-1,636,1625,0,0
-581,-601,0,0,0,0,0,0,0,0,0,-1,643,1625,0,0
-574,-601,0,0,0,0,0,0,0,0,0,-1,650,1625,0,0
-567,-601,0,0,0,0,0,0,0,0,0,-1,657,1625,0,0
-560,-601,0,0,0,0,0,0,0,0,0,-1,664,1625,0,0
-553,-601,0,0,0,0,0,0,0,0,0,-1,671,1625,0,0
-546,-601,0,0,0,0,0,0,0,0,0,-1,678,1625,0,0
-539,-601,0,0,0,0,0,0,0,0,0,-1,685,1625,0,0
-532,-601,0,0,0,0,0,0,0,0,0,-1,692,1625,0,0
-525,-601,0,0,0,0,0,0,0,0,0,-1,699,1625,0,0
-518,-601,0,0,0,0,0,0,0,0,0,-1,706,1625,0,0
-511,-601,0,0,0,0,0,0,0,0,0,-1,713,1625,0,0
-504,-601,0,0,0,0,0,0,0,0,0,-1,720,1625,0,0
-497,-601,0,0,0,0,0,0,0,0,0,-1,727,1625,0,0
-490,-601,0,0,0,0,0,0,0,0,0,-1,734,1625,0,0
-483,-601,0,0,0,0,0,0,0,0,0,-1,741,1625,0,0
-476,-601,0,0,0,0,0,0,0,0,0,-1,748,1625,0,0
-469,-601,0,0,0,0,0,0,0,0,0,-1,755,1625,0,0
-462,-601,0,0,0,0,0,0,0,0,0,-1,762,1625,0,0
-455,-601,0,0,0,0,0,0,0,0,0,-1,769,1625,0,0
-448,-601,-7.07623,2.7616,0,0,0,0,0,0,0,-1,776,1625,-7.07626,-2.76161
-441,-601,-6.06689,3.33447,0,0,0,0,0,0,0,-1,783,1625,-6.06691,-3.33448
-434,-601,-5.02655,3.8468,0,0,0,0,0,0,0,-1,790,1625,-5.02657,-3.84674
-427,-601,-5.78601,4.2406,0,0,0,0,0,0,0,-1,797,1625,-5.786,-4.24058
-420,-601,-5.5191,5.60364,0,0,0,0,0,0,0,-1,804,1625,-5.51907,-5.60368
-413,-601,-4.30756,5.86047,0,0,0,0,0,0,0,-1,811,1625,-4.30757,-5.86046
-406,-601,-1.67493,7.20422,0,0,0,0,0,0,0,-1,818,1625,-1.67493,-7.20428
-399,-601,2.20404,13.4525,0,0,0,0,0,0,0,-1,825,1625,2.20402,-13.4525
-392,-601,2.79388,14.274,0,0,0,0,0,0,0,-1,832,1625,2.79386,-14.2741
-385,-601,2.40277,14.9939,-0.00428734,-0.00243268,0.00201405,-0.00114273,-0.00557729,1.00114,0.00340187,0.0424628,839,1625,2.40274,-14.9939
-378,-601,2.35596,15.2756,-0.00307837,-0.00233128,0.00166829,-0.000995226,-0.00441443,0.895536,0.00267368,0.031927,846,1625,2.35598,-15.2757
-371,-601,2.34924,15.5305,-0.0021854,-0.00232459,0.0012878,-0.000965316,-0.00354467,0.758402,0.00211605,0.0162613,853,1625,2.34925,-15.5306
-364,-601,2.36011,15.844,-0.00141118,-0.00213105,0.00111575,-0.000598748,-0.00294348,0.629371,0.00179631,0.0108002,860,1625,2.36013,-15.844
-357,-601,2.34039,16.1626,-0.000715748,-0.00198308,0.00107022,-0.000105668,-0.00259316,0.518107,0.00169465,0.00967537,867,1625,2.34038,-16.1626
-350,-601,2.35895,16.5679,-3.54717e-05,-0.00171731,0.000926357,0.000374723,-0.0021275,0.416853,0.00155833,0.0205992,874,1625,2.35896,-16.5679
-343,-601,2.32587,16.9325,0.000502284,-0.00143383,0.000869269,0.00083529,-0.00176683,0.365842,0.00153409,0.0221827,881,1625,2.32586,-16.9325
-336,-601,2.28717,17.2098,0.0010023,-0.00107559,0.000855755,0.00130936,-0.00138265,0.344506,0.00155442,0.0178146,888,1625,2.28716,-17.2099
-329,-601,2.30548,17.5017,0.00137189,-0.000497149,0.000866769,0.00171197,-0.000837234,0.373902,0.00150039,0.0148102,895,1625,2.3055,-17.5017
-322,-601,2.33636,17.8042,0.00158243,1.16404e-05,0.000675615,0.00183304,-0.000238968,0.3552,0.00130897,0.0117992,902,1625,2.33634,-17.8041
-315,-601,2.33801,18.0892,0.00173665,0.00010189,0.000289201,0.0017863,5.22366e-05,0.170035,0.00117384,0.0114609,909,1625,2.33803,-18.0892
-308,-601,2.32159,18.3743,0.0019022,0.000218253,-7.54674e-05,0.00190557,0.000214878,-0.0446964,0.00120516,0.0115503,916,1625,2.32162,-18.3743
-301,-601,2.32562,18.662,0.00210047,0.00011688,-0.000516242,0.00222679,-9.4322e-06,-0.239961,0.00148768,0.0100195,923,1625,2.32565,-18.662
-294,-601,2.32581,18.9641,0.00236318,-0.000378037,-0.00106354,0.00272741,-0.000742275,-0.329956,0.00210969,0.00935527,930,1625,2.3258,-18.9641
-287,-601,2.3233,19.2571,0.00278611,-0.000936086,-0.0016369,0.00340354,-0.00155352,-0.360696,0.00292765,0.00918843,937,1625,2.32333,-19.257
-280,-601,2.34204,19.5553,0.00336879,-0.00181653,-0.00232411,0.004258,-0.00270574,-0.365417,0.00405367,0.0108794,944,1625,2.34207,-19.5553
-273,-601,2.34998,19.8741,0.0040471,-0.00300778,-0.0031277,0.00523403,-0.00419472,-0.362702,0.0054547,0.0131578,951,1625,2.34995,-19.8742
-266,-601,2.38574,20.1544,0.0049637,-0.00472279,-0.00375808,0.00625072,-0.00600981,-0.329949,0.00707908,0.0172162,958,1625,2.38572,-20.1544
-259,-601,2.43231,20.3029,0.00606164,-0.00646902,-0.0042223,0.00735158,-0.00775897,-0.296502,0.00872513,0.0281439,965,1625,2.43231,-20.3029
-252,-601,2.54492,20.4486,0.00725289,-0.00822798,-0.00437879,0.0084056,-0.00938069,-0.25741,0.0102741,0.043281,972,1625,2.54495,-20.4486
-245,-601,2.54987,20.6991,0.0087383,-0.010197,-0.00448775,0.00974807,-0.0112067,-0.22132,0.012108,0.0450714,979,1625,2.54989,-20.6991
-238,-601,2.56238,20.9,0,0,0,0,0,0,0,-1,986,1625,2.56238,-20.9
-231,-601,2.66772,13.7051,0,0,0,0,0,0,0,-1,993,1625,2.6677,-13.7051
-224,-601,-0.0305176,9.13684,0,0,0,0,0,0,0,-1,1000,1625,-0.030498,-9.13681
-217,-601,3.39429,10.3898,0,0,0,0,0,0,0,-1,1007,1625,3.39431,-10.3898
-210,-601,-6.53699,15.7931,0,0,0,0,0,0,0,-1,1014,1625,-6.53697,-15.7931
-203,-601,2.69348,15.9099,0,0,0,0,0,0,0,-1,1021,1625,2.69351,-15.91
-196,-601,2.66992,16.1815,0,0,0,0,0,0,0,-1,1028,1625,2.66995,-16.1815
-189,-601,2.849,16.6105,0,0,0,0,0,0,0,-1,1035,1625,2.84902,-16.6104
-182,-601,1.82153,13.9752,0,0,0,0,0,0,0,-1,1042,1625,1.82155,-13.9752
-175,-601,0.544922,9.28687,0,0,0,0,0,0,0,-1,1049,1625,0.544879,-9.28685
-168,-601,-0.247559,8.97461,0,0,0,0,0,0,0,-1,1056,1625,-0.247598,-8.97466
-161,-601,-1.16833,8.80078,0,0,0,0,0,0,0,-1,1063,1625,-1.16837,-8.80081
-154,-601,1.12756,7.94861,0,0,0,0,0,0,0,-1,1070,1625,1.12762,-7.94855
-147,-601,1.35352,9.55432,0,0,0,0,0,0,0,-1,1077,1625,1.35351,-9.55429
-140,-601,1.72437,11.1498,0,0,0,0,0,0,0,-1,1084,1625,1.72432,-11.1498
-133,-601,2.13281,12.8347,0,0,0,0,0,0,0,-1,1091,1625,2.13287,-12.8348
-126,-601,3.09534,15.427,0,0,0,0,0,0,0,-1,1098,1625,3.0953,-15.4271
-119,-601,1.22485,9.43457,0,0,0,0,0,0,0,-1,1105,1625,1.22489,-9.43456
-112,-601,0,0,0,0,0,0,0,0,0,-1,1112,1625,0,0
-105,-601,0,0,0,0,0,0,0,0,0,-1,1119,1625,0,0
-98,-601,0,0,0,0,0,0,0,0,0,-1,1126,1625,0,0
-91,-601,0,0,0,0,0,0,0,0,0,-1,1133,1625,0,0
-84,-601,0,0,0,0,0,0,0,0,0,-1,1140,1625,0,0
-77,-601,0,0,0,0,0,0,0,0,0,-1,1147,1625,0,0
-70,-601,0,0,0,0,0,0,0,0,0,-1,1154,1625,0,0
-63,-601,0,0,0,0,0,0,0,0,0,-1,1161,1625,0,0
-56,-601,0,0,0,0,0,0,0,0,0,-1,1168,1625,0,0
-49,-601,0,0,0,0,0,0,0,0,0,-1,1175,1625,0,0
-42,-601,0,0,0,0,0,0,0,0,0,-1,1182,1625,0,0
-35,-601,0,0,0,0,0,0,0,0,0,-1,1189,1625,0,0
-28,-601,0,0,0,0,0,0,0,0,0,-1,1196,1625,0,0
-21,-601,0,0,0,0,0,0,0,0,0,-1,1203,1625,0,0
-14,-601,0,0,0,0,0,0,0,0,0,-1,1210,1625,0,0
-7,-601,0,0,0,0,0,0,0,0,0,-1,1217,1625,0,0
0,-601,0,0,0,0,0,0,0,0,0,-1,1224,1625,0,0
7,-601,0,0,0,0,0,0,0,0,0,-1,1231,1625,0,0
14,-601,0,0,0,0,0,0,0,0,0,-1,1238,1625,0,0
21,-601,0,0,0,0,0,0,0,0,0,-1,1245,1625,0,0
28,-601,0,0,0,0,0,0,0,0,0,-1,1252,1625,0,0
35,-601,0,0,0,0,0,0,0,0,0,-1,1259,1625,0,0
42,-601,0,0,0,0,0,0,0,0,0,-1,1266,1625,0,0
49,-601,0,0,0,0,0,0,0,0,0,-1,1273,1625,0,0
56,-601,0,0,0,0,0,0,0,0,0,-1,1280,1625,0,0
63,-601,0,0,0,0,0,0,0,0,0,-1,1287,1625,0,0
70,-601,0,0,0,0,0,0,0,0,0,-1,1294,1625,0,0
77,-601,0,0,0,0,0,0,0,0,0,-1,1301,1625,0,0
84,-601,0,0,0,0,0,0,0,0,0,-1,1308,1625,0,0
91,-601,0,0,0,0,0,0,0,0,0,-1,1315,1625,0,0
98,-601,0,0,0,0,0,0,0,0,0,-1,1322,1625,0,0
105,-601,0,0,0,0,0,0,0,0,0,-1,1329,1625,0,0
112,-601,0,0,0,0,0,0,0,0,0,-1,1336,1625,0,0
119,-601,0,0,0,0,0,0,0,0,0,-1,1343,1625,0,0
126,-601,0,0,0,0,0,0,0,0,0,-1,1350,1625,0,0
133,-601,0,0,0,0,0,0,0,0,0,-1,1357,1625,0,0
140,-601,0,0,0,0,0,0,0,0,0,-1,1364,1625,0,0
147,-601,0,0,0,0,0,0,0,0,0,-1,1371,1625,0,0
154,-601,0,0,0,0,0,0,0,0,0,-1,1378,1625,0,0
161,-601,0,0,0,0,0,0,0,0,0,-1,1385,1625,0,0
168,-601,0,0,0,0,0,0,0,0,0,-1,1392,1625,0,0
175,-601,0,0,0,0,0,0,0,0,0,-1,1399,1625,0,0
182,-601,0,0,0,0,0,0,0,0,0,-1,1406,1625,0,0
189,-601,0,0,0,0,0,0,0,0,0,-1,1413,1625,0,0
196,-601,0,0,0,0,0,0,0,0,0,-1,1420,1625,0,0
203,-601,0,0,0,0,0,0,0,0,0,-1,1427,1625,0,0
210,-601,0,0,0,0,0,0,0,0,0,-1,1434,1625,0,0
217,-601,0,0,0,0,0,0,0,0,0,-1,1441,1625,0,0
224,-601,0,0,0,0,0,0,0,0,0,-1,1448,1625,0,0
231,-601,-0.0371094,0.525879,0,0,0,0,0,0,0,-1,1455,1625,-0.0371518,-0.525824
238,-601,2.03369,-1.32861,0,0,0,0,0,0,0,-1,1462,1625,2.03364,1.32858
245,-601,2.71375,2.44983,0,0,0,0,0,0,0,-1,1469,1625,2.71371,-2.44979
252,-601,4.66943,2.28381,0,0,0,0,0,0,0,-1,1476,1625,4.66947,-2.28376
259,-601,6.42712,2.61987,0,0,0,0,0,0,0,-1,1483,1625,6.42711,-2.61985
266,-601,6.75317,1.68701,0,0,0,0,0,0,0,-1,1490,1625,6.75323,-1.687
273,-601,5.4314,2.92053,0,0,0,0,0,0,0,-1,1497,1625,5.43144,-2.92051
280,-601,4.64722,1.17786,0,0,0,0,0,0,0,-1,1504,1625,4.64722,-1.1779
287,-601,5.32532,2.6217,0,0,0,0,0,0,0,-1,1511,1625,5.32535,-2.62171
294,-601,5.97693,4.22693,0,0,0,0,0,0,0,-1,1518,1625,5.97697,-4.22694
301,-601,7.28162,9.50024,0,0,0,0,0,0,0,-1,1525,1625,7.28162,-9.50025
308,-601,6.53528,10.3927,0,0,0,0,0,0,0,-1,1532,1625,6.53529,-10.3927
315,-601,4.88013,11.7184,0,0,0,0,0,0,0,-1,1539,1625,4.88015,-11.7184
322,-601,3.38098,12.7864,0,0,0,0,0,0,0,-1,1546,1625,3.38104,-12.7864
329,-601,1.8772,13.8768,0,0,0,0,0,0,0,-1,1553,1625,1.87716,-13.8768
336,-601,4.67847,9.53308,0,0,0,0,0,0,0,-1,1560,1625,4.67848,-9.53309
343,-601,11.1404,3.14575,0,0,0,0,0,0,0,-1,1567,1625,11.1404,-3.1458
350,-601,10.9462,2.37769,0,0,0,0,0,0,0,-1,1574,1625,10.9461,-2.37764
357,-601,10.7518,1.6095,0,0,0,0,0,0,0,-1,1581,1625,10.7518,-1.60948
364,-601,5.33643,9.74426,0,0,0,0,0,0,0,-1,1588,1625,5.33637,-9.74429
371,-601,8.46387,16.2725,0,0,0,0,0,0,0,-1,1595,1625,8.46385,-16.2725
378,-601,9.65015,21.7461,0,0,0,0,0,0,0,-1,1602,1625,9.65013,-21.7461
385,-601,9.64587,21.5077,0.00300037,0.00371587,-0.00103366,0.00445194,0.0022643,-0.951997,0.00257046,0.0495863,1609,1625,9.64583,-21.5077
392,-601,9.68176,21.1245,0.00266916,0.00117094,0.000210075,0.00269805,0.00114204,0.136705,0.00156382,0.0417134,1616,1625,9.68171,-21.1245
399,-601,9.75208,20.8699,0.0019777,-0.000409343,0.00163476,0.00280827,-0.00123991,0.47008,0.00239497,0.0218148,1623,1625,9.75205,-20.8698
406,-601,9.83777,20.6267,0.00121715,-0.00124618,0.00240751,0.00268976,-0.00271879,0.548959,0.00312264,0.0128376,1630,1625,9.83772,-20.6267
413,-601,9.85217,20.3682,0.000610708,-0.00176638,0.00285151,0.00251146,-0.00366713,0.587941,0.00358795,0.0113445,1637,1625,9.85212,-20.3681
420,-601,9.84399,20.1279,0.000183956,-0.00159595,0.00289788,0.00232546,-0.00373745,0.636417,0.00353192,0.010453,1644,1625,9.84397,-20.1279
427,-601,9.85144,19.8684,-0.000223741,-0.00140241,0.0028347,0.00208224,-0.00370839,0.682908,0.00338688,0.0148876,1651,1625,9.85145,-19.8685
434,-601,9.88416,19.5884,-0.000389174,-0.0010526,0.00247705,0.00177827,-0.00322005,0.718837,0.00292553,0.0154963,1658,1625,9.88421,-19.5883
441,-601,9.89172,19.3177,-0.000347929,-0.000513379,0.00212193,0.00169289,-0.0025542,0.765915,0.00246881,0.0166452,1665,1625,9.89174,-19.3178
448,-601,9.90051,19.0653,-0.000235306,-4.10782e-06,0.00159374,0.00147822,-0.00171763,0.821602,0.00184685,0.0148642,1672,1625,9.90053,-19.0653
455,-601,9.88269,18.7552,-9.78293e-05,0.000391161,0.000994249,0.00117054,-0.000877203,0.905961,0.0011863,0.0137784,1679,1625,9.88266,-18.7552
462,-601,9.84863,18.468,0.000226777,0.000807379,0.000369573,0.000987034,4.71215e-05,1.11832,0.000642892,0.0118741,1686,1625,9.84862,-18.468
469,-601,9.86206,18.2197,0.000680168,0.000915013,-0.000200653,0.00103008,0.000565105,-1.05013,0.000595651,0.0112365,1693,1625,9.86207,-18.2198
476,-601,9.85254,17.9303,0.00118827,0.000838562,-0.000719161,0.00175353,0.000273302,-0.666145,0.0010894,0.0138382,1700,1625,9.85257,-17.9303
483,-601,9.81006,17.6277,0.00176098,0.000883564,-0.00125628,0.00265296,-8.4081e-06,-0.617412,0.00177145,0.0170786,1707,1625,9.81005,-17.6277
490,-601,9.80554,17.3307,0.0023314,0.000842342,-0.00175613,0.00349431,-0.000320563,-0.584903,0.00244341,0.0119268,1714,1625,9.80558,-17.3307
497,-601,9.82434,17.0133,0.00292515,0.000958966,-0.00230515,0.00444809,-0.00056397,-0.583837,0.00317015,0.00939179,1721,1625,9.82428,-17.0134
504,-601,9.84143,16.6863,0.00344121,0.000971017,-0.00263754,0.00511851,-0.000706286,-0.566424,0.00367049,0.0163125,1728,1625,9.84143,-16.6863
511,-601,9.79541,16.441,0.00385032,0.000715342,-0.00290725,0.00558573,-0.00102007,-0.538155,0.0041063,0.0288061,1735,1625,9.79546,-16.4411
518,-601,9.81885,16.0344,0.00444768,0.000760961,-0.00332192,0.00640342,-0.00119478,-0.532097,0.00471791,0.0410339,1742,1625,9.81879,-16.0344
525,-601,9.84753,15.614,0,0,0,0,0,0,0,-1,1749,1625,9.8475,-15.614
532,-601,10.0001,15.2794,0,0,0,0,0,0,0,-1,1756,1625,10.0001,-15.2794
539,-601,7.77112,11.4299,0,0,0,0,0,0,0,-1,1763,1625,7.77116,-11.4299
546,-601,6.56873,3.62354,0,0,0,0,0,0,0,-1,1770,1625,6.56867,-3.62352
553,-601,7.03015,4.25049,0,0,0,0,0,0,0,-1,1777,1625,7.03011,-4.25048
560,-601,7.50745,4.83374,0,0,0,0,0,0,0,-1,1784,1625,7.50744,-4.83376
567,-601,7.82043,3.83301,0,0,0,0,0,0,0,-1,1791,1625,7.82041,-3.83303
574,-601,0,0,0,0,0,0,0,0,0,-1,1798,1625,0,0
581,-601,0,0,0,0,0,0,0,0,0,-1,1805,1625,0,0
588,-601,0,0,0,0,0,0,0,0,0,-1,1812,1625,0,0
595,-601,0,0,0,0,0,0,0,0,0,-1,1819,1625,0,0
602,-601,0,0,0,0,0,0,0,0,0,-1,1826,1625,0,0
609,-601,0,0,0,0,0,0,0,0,0,-1,1833,1625,0,0
616,-601,0,0,0,0,0,0,0,0,0,-1,1840,1625,0,0
623,-601,0,0,0,0,0,0,0,0,0,-1,1847,1625,0,0
630,-601,0,0,0,0,0,0,0,0,0,-1,1854,1625,0,0
637,-601,0,0,0,0,0,0,0,0,0,-1,1861,1625,0,0
644,-601,0,0,0,0,0,0,0,0,0,-1,1868,1625,0,0
651,-601,0,0,0,0,0,0,0,0,0,-1,1875,1625,0,0
658,-601,0,0,0,0,0,0,0,0,0,-1,1882,1625,0,0
665,-601,0,0,0,0,0,0,0,0,0,-1,1889,1625,0,0
672,-601,0,0,0,0,0,0,0,0,0,-1,1896,1625,0,0
679,-601,0,0,0,0,0,0,0,0,0,-1,1903,1625,0,0
686,-601,0,0,0,0,0,0,0,0,0,-1,1910,1625,0,0
693,-601,0,0,0,0,0,0,0,0,0,-1,1917,1625,0,0
700,-601,0,0,0,0,0,0,0,0,0,-1,1924,1625,0,0
707,-601,0,0,0,0,0,0,0,0,0,-1,1931,1625,0,0
714,-601,0,0,0,0,0,0,0,0,0,-1,1938,1625,0,0
721,-601,0,0,0,0,0,0,0,0,0,-1,1945,1625,0,0
728,-601,0,0,0,0,0,0,0,0,0,-1,1952,1625,0,0
735,-601,0,0,0,0,0,0,0,0,0,-1,1959,1625,0,0
742,-601,0,0,0,0,0,0,0,0,0,-1,1966,1625,0,0
749,-601,0,0,0,0,0,0,0,0,0,-1,1973,1625,0,0
756,-601,0,0,0,0,0,0,0,0,0,-1,1980,1625,0,0
763,-601,0,0,0,0,0,0,0,0,0,-1,1987,1625,0,0
770,-601,0,0,0,0,0,0,0,0,0,-1,1994,1625,0,0
777,-601,0,0,0,0,0,0,0,0,0,-1,2001,1625,0,0
784,-601,0,0,0,0,0,0,0,0,0,-1,2008,1625,0,0
791,-601,0,0,0,0,0,0,0,0,0,-1,2015,1625,0,0
798,-601,0,0,0,0,0,0,0,0,0,-1,2022,1625,0,0
805,-601,0,0,0,0,0,0,0,0,0,-1,2029,1625,0,0
812,-601,0,0,0,0,0,0,0,0,0,-1,2036,1625,0,0
-700,-608,0,0,0,0,0,0,0,0,0,-1,524,1632,0,0
-693,-608,0,0,0,0,0,0,0,0,0,-1,531,1632,0,0
-686,-608,0,0,0,0,0,0,0,0,0,-1,538,1632,0,0
-679,-608,0,0,0,0,0,0,0,0,0,-1,545,1632,0,0
-672,-608,0,0,0,0,0,0,0,0,0,-1,552,1632,0,0
-665,-608,0,0,0,0,0,0,0,0,0,-1,559,1632,0,0
-658,-608,0,0,0,0,0,0,0,0,0,-1,566,1632,0,0
-651,-608,0,0,0,0,0,0,0,0,0,-1,573,1632,0,0
-644,-608,0,0,0,0,0,0,0,0,0,-1,580,1632,0,0
-637,-608,0,0,0,0,0,0,0,0,0,-1,587,1632,0,0
-630,-608,0,0,0,0,0,0,0,0,0,-1,594,1632,0,0
-623,-608,0,0,0,0,0,0,0,0,0,-1,601,1632,0,0
-616,-608,0,0,0,0,0,0,0,0,0,-1,608,1632,0,0
-609,-608,0,0,0,0,0,0,0,0,0,-1,615,1632,0,0
-602,-608,0,0,0,0,0,0,0,0,0,-1,622,1632,0,0
-595,-608,0,0,0,0,0,0,0,0,0,-1,629,1632,0,0
-588,-608,0,0,0,0,0,0,0,0,0,-1,636,1632,0,0
-581,-608,0,0,0,0,0,0,0,0,0,-1,643,1632,0,0
-574,-608,0,0,0,0,0,0,0,0,0,-1,650,1632,0,0
-567,-608,0,0,0,0,0,0,0,0,0,-1,657,1632,0,0
-560,-608,0,0,0,0,0,0,0,0,0,-1,664,1632,0,0
-553,-608,0,0,0,0,0,0,0,0,0,-1,671,1632,0,0
-546,-608,0,0,0,0,0,0,0,0,0,-1,678,1632,0,0
-539,-608,0,0,0,0,0,0,0,0,0,-1,685,1632,0,0
-532,-608,0,0,0,0,0,0,0,0,0,-1,692,1632,0,0
-525,-608,0,0,0,0,0,0,0,0,0,-1,699,1632,0,0
-518,-608,0,0,0,0,0,0,0,0,0,-1,706,1632,0,0
-511,-608,0,0,0,0,0,0,0,0,0,-1,713,1632,0,0
-504,-608,0,0,0,0,0,0,0,0,0,-1,720,1632,0,0
-497,-608,0,0,0,0,0,0,0,0,0,-1,727,1632,0,0
-490,-608,0,0,0,0,0,0,0,0,0,-1,734,1632,0,0
-483,-608,0,0,0,0,0,0,0,0,0,-1,741,1632,0,0
-476,-608,0,0,0,0,0,0,0,0,0,-1,748,1632,0,0
-469,-608,0,0,0,0,0,0,0,0,0,-1,755,1632,0,0
-462,-608,0,0,0,0,0,0,0,0,0,-1,762,1632,0,0
-455,-608,0,0,0,0,0,0,0,0,0,-1,769,1632,0,0
-448,-608,0,0,0,0,0,0,0,0,0,-1,776,1632,0,0
-441,-608,-7.34601,2.78052,0,0,0,0,0,0,0,-1,783,1632,-7.346,-2.78056
-434,-608,-6.34558,3.27405,0,0,0,0,0,0,0,-1,790,1632,-6.34555,-3.27406
-427,-608,-7.74335,4.17688,0,0,0,0,0,0,0,-1,797,1632,-7.74334,-4.17693
-420,-608,-6.82794,4.34839,0,0,0,0,0,0,0,-1,804,1632,-6.82794,-4.34838
-413,-608,-5.41919,5.66138,0,0,0,0,0,0,0,-1,811,1632,-5.41917,-5.66133
-406,-608,-4.79681,4.98999,0,0,0,0,0,0,0,-1,818,1632,-4.79684,-4.98997
-399,-608,-2.60645,6.34167,0,0,0,0,0,0,0,-1,825,1632,-2.60643,-6.34169
-392,-608,2.83026,14.5476,0,0,0,0,0,0,0,-1,832,1632,2.83029,-14.5476
-385,-608,2.75513,15.0491,0,0,0,0,0,0,0,-1,839,1632,2.75513,-15.0491
-378,-608,2.67682,15.3217,0,0,0,0,0,0,0,-1,846,1632,2.6768,-15.3217
-371,-608,2.61346,15.4471,0,0,0,0,0,0,0,-1,853,1632,2.61345,-15.4471
-364,-608,2.7229,15.7548,-0.00148395,-0.00310561,0.00132261,-0.000743408,-0.00384615,0.510418,0.00235573,0.0227441,860,1632,2.7229,-15.7548
-357,-608,2.66571,16.1118,-0.000762793,-0.00287057,0.00125195,-0.000180204,-0.00345315,0.435542,0.00224445,0.0170512,867,1632,2.66569,-16.1118
-350,-608,2.67554,16.5378,-9.33705e-05,-0.00246831,0.00105057,0.00030465,-0.00286633,0.362152,0.00202011,0.0198712,874,1632,2.67553,-16.5379
-343,-608,2.65411,16.8979,0.00044716,-0.0020739,0.000942259,0.000760412,-0.00238715,0.320953,0.00189642,0.0239515,881,1632,2.65413,-16.898
-336,-608,2.63971,17.2007,0.000937914,-0.00166529,0.000858099,0.00119532,-0.00192269,0.29143,0.00181644,0.015626,888,1632,2.63973,-17.2007
-329,-608,2.61584,17.514,0.00125499,-0.000998319,0.000816177,0.00151956,-0.00126289,0.313466,0.00160872,0.0136451,895,1632,2.61586,-17.5141
-322,-608,2.61273,17.8043,0.0013924,-0.000414607,0.000678323,0.00161869,-0.0006409,0.321996,0.00134468,0.0133406,902,1632,2.61272,-17.8043
-315,-608,2.63928,18.0962,0.0014677,-0.000174164,0.000376745,0.00155002,-0.000256485,0.215125,0.0011286,0.0117493,909,1632,2.63929,-18.0962
-308,-608,2.62408,18.39,0.00156476,1.16454e-06,4.59907e-05,0.00156611,-1.87079e-07,0.0293796,0.00104414,0.0127852,916,1632,2.6241,-18.3901
-301,-608,2.61652,18.6763,0.00170645,2.6262e-05,-0.000317292,0.00176437,-3.16595e-05,-0.180562,0.00118694,0.0108429,923,1632,2.61651,-18.6763
-294,-608,2.62189,18.9568,0.001928,-0.000292657,-0.000742821,0.00215357,-0.000518222,-0.294812,0.00163604,0.0101356,930,1632,2.62188,-18.9568
-287,-608,2.61353,19.259,0.00227332,-0.00067024,-0.00115059,0.00266969,-0.00106661,-0.331762,0.00222235,0.0096521,937,1632,2.61352,-19.259
-280,-608,2.62158,19.5338,0.00276048,-0.00130132,-0.00161951,0.00332715,-0.00186799,-0.336587,0.00303859,0.00808709,944,1632,2.62158,-19.5338
-273,-608,2.61292,19.8257,0.00336333,-0.0021836,-0.00213269,0.0040885,-0.00290877,-0.327763,0.00405897,0.00941894,951,1632,2.61292,-19.8257
-266,-608,2.62903,20.1261,0.00416615,-0.00338,-0.00246843,0.00490188,-0.00411572,-0.289669,0.0052129,0.00998771,958,1632,2.62904,-20.1261
-259,-608,2.67773,20.3933,0.00510645,-0.00452072,-0.0026607,0.00579286,-0.00520713,-0.252475,0.00635385,0.0122712,965,1632,2.67772,-20.3933
-252,-608,2.7298,20.6365,0.00616735,-0.00567043,-0.00260231,0.00671416,-0.00621724,-0.207112,0.00746779,0.0233239,972,1632,2.72978,-20.6365
-245,-608,2.81848,20.9868,0.00744378,-0.0068452,-0.00243613,0.0078477,-0.00724912,-0.164308,0.00871844,0.0349281,979,1632,2.8185,-20.9868
-238,-608,2.92352,21.2926,0.00917789,-0.00803244,-0.0020386,0.00941607,-0.00827062,-0.116308,0.0102185,0.0473805,986,1632,2.92351,-21.2926
-231,-608,3.03687,21.4459,0,0,0,0,0,0,0,-1,993,1632,3.03684,-21.4459
-224,-608,2.51642,15.3452,0,0,0,0,0,0,0,-1,1000,1632,2.5164,-15.3452
-217,-608,1.04419,12.8451,0,0,0,0,0,0,0,-1,1007,1632,1.04418,-12.8451
-210,-608,2.75903,15.9414,0,0,0,0,0,0,0,-1,1014,1632,2.75903,-15.9414
-203,-608,2.76776,16.217,0,0,0,0,0,0,0,-1,1021,1632,2.76773,-16.217
-196,-608,1.53955,18.6058,0,0,0,0,0,0,0,-1,1028,1632,1.53959,-18.6058
-189,-608,1.37634,19.119,0,0,0,0,0,0,0,-1,1035,1632,1.37634,-19.1191
-182,-608,2.89221,16.7092,0,0,0,0,0,0,0,-1,1042,1632,2.89224,-16.7093
-175,-608,0.219116,15.1643,0,0,0,0,0,0,0,-1,1049,1632,0.219173,-15.1644
-168,-608,0.000366211,9.48645,0,0,0,0,0,0,0,-1,1056,1632,0.000317105,-9.48648
-161,-608,2.27832,15.4423,0,0,0,0,0,0,0,-1,1063,1632,2.27826,-15.4423
-154,-608,1.3999,16.4037,0,0,0,0,0,0,0,-1,1070,1632,1.39987,-16.4037
-147,-608,2.4386,9.50317,0,0,0,0,0,0,0,-1,1077,1632,2.43858,-9.50313
-140,-608,2.60132,10.8401,0,0,0,0,0,0,0,-1,1084,1632,2.60134,-10.8401
-133,-608,3.2312,12.4738,0,0,0,0,0,0,0,-1,1091,1632,3.23116,-12.4738
-126,-608,3.76465,13.9644,0,0,0,0,0,0,0,-1,1098,1632,3.76466,-13.9644
-119,-608,4.28906,15.4196,0,0,0,0,0,0,0,-1,1105,1632,4.28911,-15.4195
-112,-608,0.745117,10.5587,0,0,0,0,0,0,0,-1,1112,1632,0.745145,-10.5587
-105,-608,-0.252319,1.42419,0,0,0,0,0,0,0,-1,1119,1632,-0.252331,-1.42418
-98,-608,-2.8595,3.0863,0,0,0,0,0,0,0,-1,1126,1632,-2.85948,-3.08625
-91,-608,-3.71948,1.73608,0,0,0,0,0,0,0,-1,1133,1632,-3.7195,-1.73607
-84,-608,0,0,0,0,0,0,0,0,0,-1,1140,1632,0,0
-77,-608,0,0,0,0,0,0,0,0,0,-1,1147,1632,0,0
-70,-608,0,0,0,0,0,0,0,0,0,-1,1154,1632,0,0
-63,-608,0,0,0,0,0,0,0,0,0,-1,1161,1632,0,0
-56,-608,0,0,0,0,0,0,0,0,0,-1,1168,1632,0,0
-49,-608,0,0,0,0,0,0,0,0,0,-1,1175,1632,0,0
-42,-608,0,0,0,0,0,0,0,0,0,-1,1182,1632,0,0
-35,-608,0,0,0,0,0,0,0,0,0,-1,1189,1632,0,0
-28,-608,0,0,0,0,0,0,0,0,0,-1,1196,1632,0,0
-21,-608,0,0,0,0,0,0,0,0,0,-1,1203,1632,0,0
-14,-608,0,0,0,0,0,0,0,0,0,-1,1210,1632,0,0
-7,-608,0,0,0,0,0,0,0,0,0,-1,1217,1632,0,0
0,-608,0,0,0,0,0,0,0,0,0,-1,1224,1632,0,0
7,-608,0,0,0,0,0,0,0,0,0,-1,1231,1632,0,0
14,-608,0,0,0,0,0,0,0,0,0,-1,1238,1632,0,0
21,-608,0,0,0,0,0,0,0,0,0,-1,1245,1632,0,0
28,-608,0,0,0,0,0,0,0,0,0,-1,1252,1632,0,0
35,-608,0,0,0,0,0,0,0,0,0,-1,1259,1632,0,0
42,-608,0,0,0,0,0,0,0,0,0,-1,1266,1632,0,0
49,-608,0,0,0,0,0,0,0,0,0,-1,1273,1632,0,0
56,-608,0,0,0,0,0,0,0,0,0,-1,1280,1632,0,0
63,-608,0,0,0,0,0,0,0,0,0,-1,1287,1632,0,0
70,-608,0,0,0,0,0,0,0,0,0,-1,1294,1632,0,0
77,-608,0,0,0,0,0,0,0,0,0,-1,1301,1632,0,0
84,-608,0,0,0,0,0,0,0,0,0,-1,1308,1632,0,0
91,-608,0,0,0,0,0,0,0,0,0,-1,1315,1632,0,0
98,-608,0,0,0,0,0,0,0,0,0,-1,1322,1632,0,0
105,-608,0,0,0,0,0,0,0,0,0,-1,1329,1632,0,0
112,-608,0,0,0,0,0,0,0,0,0,-1,1336,1632,0,0
119,-608,0,0,0,0,0,0,0,0,0,-1,1343,1632,0,0
126,-608,0,0,0,0,0,0,0,0,0,-1,1350,1632,0,0
133,-608,0,0,0,0,0,0,0,0,0,-1,1357,1632,0,0
140,-608,0,0,0,0,0,0,0,0,0,-1,1364,1632,0,0
147,-608,0,0,0,0,0,0,0,0,0,-1,1371,1632,0,0
154,-608,0,0,0,0,0,0,0,0,0,-1,1378,1632,0,0
161,-608,0,0,0,0,0,0,0,0,0,-1,1385,1632,0,0
168,-608,0,0,0,0,0,0,0,0,0,-1,1392,1632,0,0
175,-608,0,0,0,0,0,0,0,0,0,-1,1399,1632,0,0
182,-608,0,0,0,0,0,0,0,0,0,-1,1406,1632,0,0
189,-608,0,0,0,0,0,0,0,0,0,-1,1413,1632,0,0
196,-608,0,0,0,0,0,0,0,0,0,-1,1420,1632,0,0
203,-608,0,0,0,0,0,0,0,0,0,-1,1427,1632,0,0
210,-608,5.7157,-0.333008,0,0,0,0,0,0,0,-1,1434,1632,5.71566,0.333004
217,-608,4.49402,-0.831787,0,0,0,0,0,0,0,-1,1441,1632,4.49396,0.831738
224,-608,4.18018,-1.11792,0,0,0,0,0,0,0,-1,1448,1632,4.1802,1.11796
231,-608,0.361816,0.825195,0,0,0,0,0,0,0,-1,1455,1632,0.36185,-0.825226
238,-608,2.85388,-0.28833,0,0,0,0,0,0,0,-1,1462,1632,2.85391,0.288282
245,-608,3.87537,4.02173,0,0,0,0,0,0,0,-1,1469,1632,3.87538,-4.02168
252,-608,5.66956,3.5282,0,0,0,0,0,0,0,-1,1476,1632,5.6696,-3.52815
259,-608,7.47437,3.07178,0,0,0,0,0,0,0,-1,1483,1632,7.4744,-3.07172
266,-608,9.46936,2.34766,0,0,0,0,0,0,0,-1,1490,1632,9.46932,-2.34764
273,-608,6.03003,3.34241,0,0,0,0,0,0,0,-1,1497,1632,6.02997,-3.34245
280,-608,5.72461,2.0769,0,0,0,0,0,0,0,-1,1504,1632,5.72457,-2.07688
287,-608,6.20581,3.59338,0,0,0,0,0,0,0,-1,1511,1632,6.20585,-3.59341
294,-608,6.94922,5.17151,0,0,0,0,0,0,0,-1,1518,1632,6.94925,-5.17151
301,-608,7.60083,6.68018,0,0,0,0,0,0,0,-1,1525,1632,7.60086,-6.68013
308,-608,7.64746,9.93848,0,0,0,0,0,0,0,-1,1532,1632,7.64745,-9.93842
315,-608,5.30688,11.2054,0,0,0,0,0,0,0,-1,1539,1632,5.30694,-11.2054
322,-608,5.32617,13.7581,0,0,0,0,0,0,0,-1,1546,1632,5.32613,-13.758
329,-608,7.12231,13.9607,0,0,0,0,0,0,0,-1,1553,1632,7.12231,-13.9607
336,-608,5.48633,7.82446,0,0,0,0,0,0,0,-1,1560,1632,5.48634,-7.82446
343,-608,5.47192,5.61047,0,0,0,0,0,0,0,-1,1567,1632,5.47192,-5.61045
350,-608,11.6957,1.71387,0,0,0,0,0,0,0,-1,1574,1632,11.6957,-1.71388
357,-608,3.77002,5.10046,0,0,0,0,0,0,0,-1,1581,1632,3.77002,-5.10043
364,-608,5.6925,11.2163,0,0,0,0,0,0,0,-1,1588,1632,5.69255,-11.2163
371,-608,9.74597,22.1228,0,0,0,0,0,0,0,-1,1595,1632,9.74603,-22.1228
378,-608,9.68738,21.9419,0.00264398,0.00737777,-0.0014481,0.00778562,0.00223613,-1.29627,0.00462873,0.0441491,1602,1632,9.68739,-21.9419
385,-608,9.63599,21.5189,0.00258147,0.00473468,-0.00136743,0.00539846,0.00191769,-1.11888,0.00316006,0.0336252,1609,1632,9.63595,-21.5189
392,-608,9.50159,21.1926,0.00242346,0.00239511,-0.000530597,0.00294007,0.0018785,-0.77204,0.00171915,0.0239157,1616,1632,9.5016,-21.1926
399,-608,9.53137,20.9103,0.00196396,0.000892259,0.000585326,0.00222168,0.000634547,0.414748,0.0013214,0.0109109,1623,1632,9.53142,-20.9103
406,-608,9.5625,20.6444,0.00134869,-8.34523e-05,0.00127612,0.00209591,-0.000830676,0.529723,0.00174151,0.00861825,1630,1632,9.56253,-20.6444
413,-608,9.55054,20.3899,0.000812794,-0.000852915,0.00176596,0.00193244,-0.00197257,0.565057,0.0022546,0.00944364,1637,1632,9.55053,-20.3899
420,-608,9.55518,20.1311,0.000451232,-0.0009153,0.00190847,0.00179506,-0.00225912,0.613498,0.00234579,0.016935,1644,1632,9.55515,-20.1312
427,-608,9.57983,19.8606,7.04311e-05,-0.000892588,0.00197231,0.00161916,-0.00244132,0.665673,0.00236028,0.019001,1651,1632,9.57981,-19.8606
434,-608,9.59229,19.5603,-7.64438e-05,-0.000673167,0.00174991,0.00140036,-0.00214997,0.70096,0.00206496,0.0152691,1658,1632,9.59223,-19.5603
441,-608,9.5802,19.311,3.28087e-05,-0.000268993,0.00146947,0.0013591,-0.00159529,0.734232,0.00170754,0.0132593,1665,1632,9.58014,-19.3111
448,-608,9.59851,19.0674,0.000149498,0.000131903,0.00104256,0.00118329,-0.000901893,0.781179,0.00120753,0.0149131,1672,1632,9.59856,-19.0674
455,-608,9.61475,18.76,0.000305881,0.000462947,0.00055495,0.000944893,-0.000176065,0.855689,0.000696079,0.011649,1679,1632,9.61478,-18.76
462,-608,9.58203,18.4877,0.000651844,0.000782692,3.05164e-05,0.00078946,0.000645077,1.35258,0.00048539,0.0109989,1686,1632,9.58201,-18.4877
469,-608,9.55713,18.218,0.00115199,0.000896572,-0.000489909,0.00153056,0.000518,-0.657896,0.000898916,0.00878546,1693,1632,9.55708,-18.218
476,-608,9.54993,17.9292,0.00174912,0.00090824,-0.00100996,0.00242265,0.000234704,-0.588161,0.00154283,0.00952405,1700,1632,9.54987,-17.9292
483,-608,9.54102,17.6324,0.00243841,0.00103777,-0.00161254,0.00349614,-1.99602e-05,-0.580539,0.00233744,0.00891033,1707,1632,9.54101,-17.6325
490,-608,9.56177,17.342,0.00314632,0.00105133,-0.0022134,0.00454758,-0.000349925,-0.564388,0.00315484,0.0083319,1714,1632,9.56176,-17.3421
497,-608,9.57446,17.0231,0.00391806,0.00126773,-0.00287108,0.00575504,-0.000569252,-0.569187,0.00403983,0.0159667,1721,1632,9.57448,-17.0231
504,-608,9.53748,16.7299,0.00463761,0.00138315,-0.00336262,0.00674603,-0.000725274,-0.560049,0.00475757,0.0379519,1728,1632,9.53748,-16.7298
511,-608,9.30994,16.4775,0,0,0,0,0,0,0,-1,1735,1632,9.30999,-16.4775
518,-608,9.61633,15.9026,0,0,0,0,0,0,0,-1,1742,1632,9.61634,-15.9026
525,-608,10.2451,14.9852,0,0,0,0,0,0,0,-1,1749,1632,10.2451,-14.9853
532,-608,8.27917,11.6693,0,0,0,0,0,0,0,-1,1756,1632,8.27919,-11.6694
539,-608,9.40796,1.43457,0,0,0,0,0,0,0,-1,1763,1632,9.40801,-1.43463
546,-608,9.94031,2.1134,0,0,0,0,0,0,0,-1,1770,1632,9.94031,-2.11346
553,-608,10.363,2.81335,0,0,0,0,0,0,0,-1,1777,1632,10.3631,-2.81333
560,-608,9.23999,4.5636,0,0,0,0,0,0,0,-1,1784,1632,9.24,-4.56354
567,-608,0,0,0,0,0,0,0,0,0,-1,1791,1632,0,0
574,-608,0,0,0,0,0,0,0,0,0,-1,1798,1632,0,0
581,-608,0,0,0,0,0,0,0,0,0,-1,1805,1632,0,0
588,-608,0,0,0,0,0,0,0,0,0,-1,1812,1632,0,0
595,-608,0,0,0,0,0,0,0,0,0,-1,1819,1632,0,0
602,-608,0,0,0,0,0,0,0,0,0,-1,1826,1632,0,0
609,-608,0,0,0,0,0,0,0,0,0,-1,1833,1632,0,0
616,-608,0,0,0,0,0,0,0,0,0,-1,1840,1632,0,0
623,-608,0,0,0,0,0,0,0,0,0,-1,1847,1632,0,0
630,-608,0,0,0,0,0,0,0,0,0,-1,1854,1632,0,0
637,-608,0,0,0,0,0,0,0,0,0,-1,1861,1632,0,0
644,-608,0,0,0,0,0,0,0,0,0,-1,1868,1632,0,0
651,-608,0,0,0,0,0,0,0,0,0,-1,1875,1632,0,0
658,-608,0,0,0,0,0,0,0,0,0,-1,1882,1632,0,0
665,-608,0,0,0,0,0,0,0,0,0,-1,1889,1632,0,0
672,-608,0,0,0,0,0,0,0,0,0,-1,1896,1632,0,0
679,-608,0,0,0,0,0,0,0,0,0,-1,1903,1632,0,0
686,-608,0,0,0,0,0,0,0,0,0,-1,1910,1632,0,0
693,-608,0,0,0,0,0,0,0,0,0,-1,1917,1632,0,0
700,-608,0,0,0,0,0,0,0,0,0,-1,1924,1632,0,0
707,-608,0,0,0,0,0,0,0,0,0,-1,1931,1632,0,0
714,-608,0,0,0,0,0,0,0,0,0,-1,1938,1632,0,0
721,-608,0,0,0,0,0,0,0,0,0,-1,1945,1632,0,0
728,-608,0,0,0,0,0,0,0,0,0,-1,1952,1632,0,0
735,-608,0,0,0,0,0,0,0,0,0,-1,1959,1632,0,0
742,-608,0,0,0,0,0,0,0,0,0,-1,1966,1632,0,0
749,-608,0,0,0,0,0,0,0,0,0,-1,1973,1632,0,0
756,-608,0,0,0,0,0,0,0,0,0,-1,1980,1632,0,0
763,-608,0,0,0,0,0,0,0,0,0,-1,1987,1632,0,0
770,-608,0,0,0,0,0,0,0,0,0,-1,1994,1632,0,0
777,-608,0,0,0,0,0,0,0,0,0,-1,2001,1632,0,0
784,-608,0,0,0,0,0,0,0,0,0,-1,2008,1632,0,0
791,-608,0,0,0,0,0,0,0,0,0,-1,2015,1632,0,0
798,-608,0,0,0,0,0,0,0,0,0,-1,2022,1632,0,0
805,-608,0,0,0,0,0,0,0,0,0,-1,2029,1632,0,0
812,-608,0,0,0,0,0,0,0,0,0,-1,2036,1632,0,0
-700,-615,0,0,0,0,0,0,0,0,0,-1,524,1639,0,0
-693,-615,0,0,0,0,0,0,0,0,0,-1,531,1639,0,0
-686,-615,0,0,0,0,0,0,0,0,0,-1,538,1639,0,0
-679,-615,0,0,0,0,0,0,0,0,0,-1,545,1639,0,0
-672,-615,0,0,0,0,0,0,0,0,0,-1,552,1639,0,0
-665,-615,0,0,0,0,0,0,0,0,0,-1,559,1639,0,0
-658,-615,0,0,0,0,0,0,0,0,0,-1,566,1639,0,0
-651,-615,0,0,0,0,0,0,0,0,0,-1,573,1639,0,0
-644,-615,0,0,0,0,0,0,0,0,0,-1,580,1639,0,0
-637,-615,0,0,0,0,0,0,0,0,0,-1,587,1639,0,0
-630,-615,0,0,0,0,0,0,0,0,0,-1,594,1639,0,0
-623,-615,0,0,0,0,0,0,0,0,0,-1,601,1639,0,0
-616,-615,0,0,0,0,0,0,0,0,0,-1,608,1639,0,0
-609,-615,0,0,0,0,0,0,0,0,0,-1,615,1639,0,0
-602,-615,0,0,0,0,0,0,0,0,0,-1,622,1639,0,0
-595,-615,0,0,0,0,0,0,0,0,0,-1,629,1639,0,0
-588,-615,0,0,0,0,0,0,0,0,0,-1,636,1639,0,0
-581,-615,0,0,0,0,0,0,0,0,0,-1,643,1639,0,0
-574,-615,0,0,0,0,0,0,0,0,0,-1,650,1639,0,0
-567,-615,0,0,0,0,0,0,0,0,0,-1,657,1639,0,0
-560,-615,0,0,0,0,0,0,0,0,0,-1,664,1639,0,0
-553,-615,0,0,0,0,0,0,0,0,0,-1,671,1639,0,0
-546,-615,0,0,0,0,0,0,0,0,0,-1,678,1639,0,0
-539,-615,0,0,0,0,0,0,0,0,0,-1,685,1639,0,0
-532,-615,0,0,0,0,0,0,0,0,0,-1,692,1639,0,0
-525,-615,0,0,0,0,0,0,0,0,0,-1,699,1639,0,0
-518,-615,0,0,0,0,0,0,0,0,0,-1,706,1639,0,0
-511,-615,0,0,0,0,0,0,0,0,0,-1,713,1639,0,0
-504,-615,0,0,0,0,0,0,0,0,0,-1,720,1639,0,0
-497,-615,0,0,0,0,0,0,0,0,0,-1,727,1639,0,0
-490,-615,0,0,0,0,0,0,0,0,0,-1,734,1639,0,0
-483,-615,0,0,0,0,0,0,0,0,0,-1,741,1639,0,0
-476,-615,0,0,0,0,0,0,0,0,0,-1,748,1639,0,0
-469,-615,0,0,0,0,0,0,0,0,0,-1,755,1639,0,0
-462,-615,0,0,0,0,0,0,0,0,0,-1,762,1639,0,0
-455,-615,0,0,0,0,0,0,0,0,0,-1,769,1639,0,0
-448,-615,0,0,0,0,0,0,0,0,0,-1,776,1639,0,0
-441,-615,0,0,0,0,0,0,0,0,0,-1,783,1639,0,0
-434,-615,-7.64508,2.98596,0,0,0,0,0,0,0,-1,790,1639,-7.64505,-2.98594
-427,-615,-9.0011,2.89404,0,0,0,0,0,0,0,-1,797,1639,-9.00107,-2.89399
-420,-615,-8.07568,3.0752,0,0,0,0,0,0,0,-1,804,1639,-8.07569,-3.07514
-413,-615,-7.09149,3.396,0,0,0,0,0,0,0,-1,811,1639,-7.09147,-3.39599
-406,-615,-6.21368,3.7312,0,0,0,0,0,0,0,-1,818,1639,-6.21366,-3.73114
-399,-615,-4.84875,3.91907,0,0,0,0,0,0,0,-1,825,1639,-4.84877,-3.91901
-392,-615,1.7395,13.3127,0,0,0,0,0,0,0,-1,832,1639,1.73953,-13.3128
-385,-615,3.42297,14.9401,0,0,0,0,0,0,0,-1,839,1639,3.42296,-14.94
-378,-615,3.93677,15.6934,0,0,0,0,0,0,0,-1,846,1639,3.93678,-15.6934
-371,-615,3.24432,15.2798,0,0,0,0,0,0,0,-1,853,1639,3.24432,-15.2798
-364,-615,3.03314,15.8368,-0.00128181,-0.00418689,0.00164109,-0.000542765,-0.00492594,0.423135,0.00311882,0.0350794,860,1639,3.03314,-15.8368
-357,-615,3.04645,16.3446,-0.000534885,-0.00385086,0.00152451,5.94719e-05,-0.00444522,0.371741,0.0029835,0.0329778,867,1639,3.04644,-16.3446
-350,-615,2.96204,16.6462,0.000108898,-0.00332438,0.00123647,0.000507847,-0.00372332,0.312106,0.00266766,0.0335807,874,1639,2.96204,-16.6463
-343,-615,2.90588,16.8517,0.000656246,-0.00282205,0.00105929,0.000953452,-0.00311926,0.273538,0.00245971,0.0200997,881,1639,2.90588,-16.8517
-336,-615,2.94281,17.1802,0.00110998,-0.00236024,0.000885946,0.00132307,-0.00257334,0.236045,0.00228787,0.0105816,888,1639,2.94279,-17.1801
-329,-615,2.92133,17.4928,0.0013463,-0.00162016,0.000776799,0.0015374,-0.00181126,0.241222,0.00193551,0.0102596,895,1639,2.92132,-17.4928
-322,-615,2.91376,17.8103,0.00139347,-0.000963374,0.000688522,0.00157987,-0.00114977,0.264388,0.00158247,0.0104982,902,1639,2.91378,-17.8102
-315,-615,2.94098,18.1316,0.00137271,-0.000565962,0.000469282,0.00148033,-0.000673584,0.225434,0.00127231,0.0118447,909,1639,2.94098,-18.1316
-308,-615,2.92059,18.4187,0.00138552,-0.000311856,0.000177568,0.0014039,-0.000330233,0.103126,0.00106324,0.0182203,916,1639,2.92059,-18.4187
-301,-615,2.91589,18.6891,0.001452,-0.000149201,-0.000110147,0.00145954,-0.000156742,-0.0683609,0.00102926,0.011952,923,1639,2.91588,-18.6891
-294,-615,2.90778,18.9685,0.0016113,-0.000291814,-0.000429556,0.00170376,-0.000384277,-0.212019,0.00128326,0.00964609,930,1639,2.90778,-18.9685
-287,-615,2.883,19.2648,0.00185679,-0.000509848,-0.000711062,0.00205399,-0.000707056,-0.270543,0.00165611,0.00759334,937,1639,2.883,-19.2648
-280,-615,2.89142,19.5441,0.00222714,-0.000924899,-0.00102242,0.00252973,-0.00122749,-0.287744,0.00221224,0.0088215,944,1639,2.89142,-19.5441
-273,-615,2.88837,19.8303,0.0027395,-0.00151824,-0.0013311,0.00312139,-0.00190012,-0.279393,0.00292762,0.0103363,951,1639,2.88836,-19.8303
-266,-615,2.89117,20.1067,0.00341455,-0.00234677,-0.00149232,0.00377815,-0.00271037,-0.238991,0.00376302,0.0102629,958,1639,2.89118,-20.1067
-259,-615,2.92725,20.3789,0.00418269,-0.00307946,-0.00152914,0.00449153,-0.0033883,-0.199293,0.00456426,0.0110097,965,1639,2.92724,-20.3789
-252,-615,2.94177,20.6483,0.00507173,-0.00377663,-0.00138138,0.00528237,-0.00398727,-0.151321,0.00536921,0.0113289,972,1639,2.9418,-20.6483
-245,-615,2.99347,20.9478,0.0061167,-0.00444441,-0.00112242,0.00623467,-0.00456239,-0.10472,0.00625856,0.0162724,979,1639,2.99344,-20.9478
-238,-615,3.02026,21.2424,0.00751867,-0.00509122,-0.000707881,0.00755829,-0.00513083,-0.0559029,0.00737062,0.0269594,986,1639,3.02029,-21.2424
-231,-615,3.16553,21.4346,0.00934306,-0.00593113,-5.61083e-06,0.00934306,-0.00593114,-0.00036734,0.00889159,0.0429112,993,1639,3.16555,-21.4346
-224,-615,3.2937,21.8173,0,0,0,0,0,0,0,-1,1000,1639,3.29368,-21.8173
-217,-615,3.63776,21.5924,0,0,0,0,0,0,0,-1,1007,1639,3.63778,-21.5924
-210,-615,2.48901,18.9324,0,0,0,0,0,0,0,-1,1014,1639,2.48902,-18.9323
-203,-615,2.13684,18.6173,0,0,0,0,0,0,0,-1,1021,1639,2.13683,-18.6173
-196,-615,4.27161,21.3264,0,0,0,0,0,0,0,-1,1028,1639,4.27165,-21.3264
-189,-615,1.8269,19.6761,0,0,0,0,0,0,0,-1,1035,1639,1.82691,-19.6761
-182,-615,1.63489,20.2278,0,0,0,0,0,0,0,-1,1042,1639,1.63492,-20.2277
-175,-615,-0.609985,13.8434,0,0,0,0,0,0,0,-1,1049,1639,-0.610016,-13.8434
-168,-615,3.85754,15.472,0,0,0,0,0,0,0,-1,1056,1639,3.85757,-15.472
-161,-615,2.15601,20.8517,0,0,0,0,0,0,0,-1,1063,1639,2.15602,-20.8516
-154,-615,1.3385,21.5508,0,0,0,0,0,0,0,-1,1070,1639,1.33852,-21.5507
-147,-615,1.52502,17.3442,0,0,0,0,0,0,0,-1,1077,1639,1.52501,-17.3442
-140,-615,3.73401,10.2349,0,0,0,0,0,0,0,-1,1084,1639,3.73402,-10.2348
-133,-615,2.6178,17.45,0,0,0,0,0,0,0,-1,1091,1639,2.61776,-17.4499
-126,-615,4.43408,12.5017,0,0,0,0,0,0,0,-1,1098,1639,4.43403,-12.5018
-119,-615,4.82983,13.9279,0,0,0,0,0,0,0,-1,1105,1639,4.82986,-13.9278
-112,-615,3.65698,14.4874,0,0,0,0,0,0,0,-1,1112,1639,3.65695,-14.4875
-105,-615,0.958496,2.45398,0,0,0,0,0,0,0,-1,1119,1639,0.958452,-2.45398
-98,-615,-0.647705,2.12109,0,0,0,0,0,0,0,-1,1126,1639,-0.647756,-2.12105
-91,-615,-3.07983,2.97375,0,0,0,0,0,0,0,-1,1133,1639,-3.07989,-2.97376
-84,-615,-2.46509,0.703247,0,0,0,0,0,0,0,-1,1140,1639,-2.46505,-0.703273
-77,-615,-3.17859,1.23755,0,0,0,0,0,0,0,-1,1147,1639,-3.17865,-1.23752
-70,-615,-4.03943,1.43335,0,0,0,0,0,0,0,-1,1154,1639,-4.03942,-1.43339
-63,-615,-4.8877,1.45544,0,0,0,0,0,0,0,-1,1161,1639,-4.88766,-1.45549
-56,-615,0,0,0,0,0,0,0,0,0,-1,1168,1639,0,0
-49,-615,0,0,0,0,0,0,0,0,0,-1,1175,1639,0,0
-42,-615,0,0,0,0,0,0,0,0,0,-1,1182,1639,0,0
-35,-615,0,0,0,0,0,0,0,0,0,-1,1189,1639,0,0
-28,-615,0,0,0,0,0,0,0,0,0,-1,1196,1639,0,0
-21,-615,0,0,0,0,0,0,0,0,0,-1,1203,1639,0,0
-14,-615,0,0,0,0,0,0,0,0,0,-1,1210,1639,0,0
-7,-615,0,0,0,0,0,0,0,0,0,-1,1217,1639,0,0
0,-615,0,0,0,0,0,0,0,0,0,-1,1224,1639,0,0
7,-615,0,0,0,0,0,0,0,0,0,-1,1231,1639,0,0
14,-615,0,0,0,0,0,0,0,0,0,-1,1238,1639,0,0
21,-615,0,0,0,0,0,0,0,0,0,-1,1245,1639,0,0
28,-615,0,0,0,0,0,0,0,0,0,-1,1252,1639,0,0
35,-615,0,0,0,0,0,0,0,0,0,-1,1259,1639,0,0
42,-615,0,0,0,0,0,0,0,0,0,-1,1266,1639,0,0
49,-615,0,0,0,0,0,0,0,0,0,-1,1273,1639,0,0
56,-615,0,0,0,0,0,0,0,0,0,-1,1280,1639,0,0
63,-615,0,0,0,0,0,0,0,0,0,-1,1287,1639,0,0
70,-615,0,0,0,0,0,0,0,0,0,-1,1294,1639,0,0
77,-615,0,0,0,0,0,0,0,0,0,-1,1301,1639,0,0
84,-615,0,0,0,0,0,0,0,0,0,-1,1308,1639,0,0
91,-615,0,0,0,0,0,0,0,0,0,-1,1315,1639,0,0
98,-615,0,0,0,0,0,0,0,0,0,-1,1322,1639,0,0
105,-615,0,0,0,0,0,0,0,0,0,-1,1329,1639,0,0
112,-615,0,0,0,0,0,0,0,0,0,-1,1336,1639,0,0
119,-615,0,0,0,0,0,0,0,0,0,-1,1343,1639,0,0
126,-615,0,0,0,0,0,0,0,0,0,-1,1350,1639,0,0
133,-615,0,0,0,0,0,0,0,0,0,-1,1357,1639,0,0
140,-615,0,0,0,0,0,0,0,0,0,-1,1364,1639,0,0
147,-615,0,0,0,0,0,0,0,0,0,-1,1371,1639,0,0
154,-615,0,0,0,0,0,0,0,0,0,-1,1378,1639,0,0
161,-615,0,0,0,0,0,0,0,0,0,-1,1385,1639,0,0
168,-615,0,0,0,0,0,0,0,0,0,-1,1392,1639,0,0
175,-615,5.39648,-2.00879,0,0,0,0,0,0,0,-1,1399,1639,5.3965,2.00881
182,-615,5.65393,-1.51025,0,0,0,0,0,0,0,-1,1406,1639,5.65388,1.51028
189,-615,5.58972,-1.35608,0,0,0,0,0,0,0,-1,1413,1639,5.58967,1.35607
196,-615,5.49915,-0.693604,0,0,0,0,0,0,0,-1,1420,1639,5.4991,0.693602
203,-615,5.33411,-0.226685,0,0,0,0,0,0,0,-1,1427,1639,5.33414,0.226689
210,-615,5.60278,0.108276,0,0,0,0,0,0,0,-1,1434,1639,5.60284,-0.10831
217,-615,6.26331,-0.307373,0,0,0,0,0,0,0,-1,1441,1639,6.26331,0.307372
224,-615,5.45422,-0.333984,0,0,0,0,0,0,0,-1,1448,1639,5.45422,0.333992
231,-615,4.92542,1.80298,0,0,0,0,0,0,0,-1,1455,1639,4.92537,-1.80297
238,-615,4.76355,1.96729,0,0,0,0,0,0,0,-1,1462,1639,4.76357,-1.96734
245,-615,4.08643,3.15906,0,0,0,0,0,0,0,-1,1469,1639,4.08638,-3.159
252,-615,6.37805,3.73889,0,0,0,0,0,0,0,-1,1476,1639,6.37806,-3.73891
259,-615,8.35974,3.16443,0,0,0,0,0,0,0,-1,1483,1639,8.35975,-3.16444
266,-615,10.3414,2.58997,0,0,0,0,0,0,0,-1,1490,1639,10.3414,-2.58996
273,-615,6.57043,1.84766,0,0,0,0,0,0,0,-1,1497,1639,6.5704,-1.84771
280,-615,7.10449,3.23438,0,0,0,0,0,0,0,-1,1504,1639,7.10447,-3.23435
287,-615,7.35779,4.68542,0,0,0,0,0,0,0,-1,1511,1639,7.35776,-4.68546
294,-615,7.63733,6.29114,0,0,0,0,0,0,0,-1,1518,1639,7.63735,-6.29109
301,-615,8.47925,11.452,0,0,0,0,0,0,0,-1,1525,1639,8.47922,-11.452
308,-615,6.8114,10.9059,0,0,0,0,0,0,0,-1,1532,1639,6.81137,-10.9058
315,-615,5.1427,14.7251,0,0,0,0,0,0,0,-1,1539,1639,5.14269,-14.7251
322,-615,7.17981,17.6864,0,0,0,0,0,0,0,-1,1546,1639,7.17985,-17.6864
329,-615,7.62134,20.4354,0,0,0,0,0,0,0,-1,1553,1639,7.62139,-20.4354
336,-615,6.45007,14.1138,0,0,0,0,0,0,0,-1,1560,1639,6.45011,-14.1138
343,-615,2.40491,6.50134,0,0,0,0,0,0,0,-1,1567,1639,2.40489,-6.50137
350,-615,6.4458,15.4594,0,0,0,0,0,0,0,-1,1574,1639,6.44578,-15.4593
357,-615,9.03479,23.192,0,0,0,0,0,0,0,-1,1581,1639,9.03476,-23.192
364,-615,9.23315,22.4889,0,0,0,0,0,0,0,-1,1588,1639,9.23311,-22.4889
371,-615,9.05823,22.2147,0.0021003,0.00940973,-0.00138332,0.00966276,0.00184726,-1.38988,0.0059229,0.0479675,1595,1639,9.05822,-22.2148
378,-615,9.30212,21.6501,0.00218724,0.00706419,-0.00126632,0.00737339,0.00187804,-1.33131,0.00442449,0.021023,1602,1639,9.30215,-21.6502
385,-615,9.27991,21.421,0.00215118,0.00492968,-0.00136251,0.00548631,0.00159455,-1.18296,0.00325876,0.0130262,1609,1639,9.2799,-21.4211
392,-615,9.28137,21.1501,0.00209935,0.00291211,-0.000846875,0.00344506,0.0015664,-1.0091,0.00199173,0.0112562,1616,1639,9.28135,-21.1502
399,-615,9.29504,20.8918,0.00179024,0.00157354,-8.90979e-06,0.00179061,0.00157318,-0.0410234,0.00112827,0.0113995,1623,1639,9.29506,-20.8919
406,-615,9.29895,20.6488,0.00129489,0.000608853,0.000559285,0.00160796,0.000295775,0.510323,0.00098825,0.0109555,1630,1639,9.29897,-20.6488
413,-615,9.29663,20.4067,0.000835353,-0.000246534,0.00102116,0.00145,-0.00086118,0.541823,0.00134872,0.0120422,1637,1639,9.29669,-20.4067
420,-615,9.30176,20.1372,0.000511867,-0.000451753,0.00121076,0.00133316,-0.00127305,0.596034,0.00150483,0.0128036,1644,1639,9.30178,-20.1373
427,-615,9.32642,19.8605,0.00016629,-0.000507723,0.00133168,0.00120294,-0.00154438,0.661466,0.00159024,0.0142406,1651,1639,9.32647,-19.8604
434,-615,9.32727,19.5925,5.06081e-05,-0.000359865,0.00119768,0.00106051,-0.00136976,0.700541,0.0014069,0.0138566,1658,1639,9.32724,-19.5925
441,-615,9.32263,19.313,0.000237615,-4.7752e-05,0.000960861,0.00106633,-0.000876466,0.711689,0.00112346,0.013922,1665,1639,9.32263,-19.3129
448,-615,9.32727,19.0441,0.000382623,0.000284375,0.000607968,0.000943448,-0.00027645,0.745086,0.000738568,0.013978,1672,1639,9.3273,-19.0441
455,-615,9.33655,18.7749,0.000591647,0.000585527,0.000212146,0.000800755,0.000376418,0.778186,0.000462592,0.0129109,1679,1639,9.33651,-18.7748
462,-615,9.31042,18.5205,0.00100516,0.000849955,-0.000228313,0.0011687,0.000686417,-0.621574,0.000678171,0.0136589,1686,1639,9.31042,-18.5205
469,-615,9.27881,18.2356,0.00161622,0.00101821,-0.000716038,0.00209318,0.000541255,-0.587613,0.00125457,0.01198,1693,1639,9.27876,-18.2356
476,-615,9.28027,17.926,0.00240028,0.0011672,-0.00126615,0.00319202,0.000375461,-0.558825,0.00201455,0.0111814,1700,1639,9.28027,-17.9261
483,-615,9.30457,17.6064,0.00331254,0.00145108,-0.00197061,0.00456117,0.000202461,-0.564775,0.00297559,0.0155665,1707,1639,9.30453,-17.6064
490,-615,9.32056,17.3158,0.00425928,0.00154216,-0.00269908,0.00592243,-0.00012099,-0.55224,0.00398923,0.0189213,1714,1639,9.32061,-17.3158
497,-615,9.28149,17.059,0.00537793,0.00191342,-0.00354177,0.00758837,-0.000297014,-0.557956,0.00516077,0.0299292,1721,1639,9.28151,-17.059
504,-615,9.30273,16.7117,0,0,0,0,0,0,0,-1,1728,1639,9.30277,-16.7116
511,-615,9.2926,16.1355,0,0,0,0,0,0,0,-1,1735,1639,9.2926,-16.1355
518,-615,12.5851,10.1218,0,0,0,0,0,0,0,-1,1742,1639,12.5851,-10.1219
525,-615,4.37524,3.90491,0,0,0,0,0,0,0,-1,1749,1639,4.37518,-3.90495
532,-615,7.3645,0.848145,0,0,0,0,0,0,0,-1,1756,1639,7.36451,-0.848093
539,-615,12.8112,-0.0476074,0,0,0,0,0,0,0,-1,1763,1639,12.8111,0.0475553
546,-615,8.33813,2.94556,0,0,0,0,0,0,0,-1,1770,1639,8.33813,-2.9455
553,-615,5.82532,-2.04199,0,0,0,0,0,0,0,-1,1777,1639,5.82534,2.04195
560,-615,0,0,0,0,0,0,0,0,0,-1,1784,1639,0,0
567,-615,0,0,0,0,0,0,0,0,0,-1,1791,1639,0,0
574,-615,0,0,0,0,0,0,0,0,0,-1,1798,1639,0,0
581,-615,0,0,0,0,0,0,0,0,0,-1,1805,1639,0,0
588,-615,0,0,0,0,0,0,0,0,0,-1,1812,1639,0,0
595,-615,0,0,0,0,0,0,0,0,0,-1,1819,1639,0,0
602,-615,0,0,0,0,0,0,0,0,0,-1,1826,1639,0,0
609,-615,0,0,0,0,0,0,0,0,0,-1,1833,1639,0,0
616,-615,0,0,0,0,0,0,0,0,0,-1,1840,1639,0,0
623,-615,0,0,0,0,0,0,0,0,0,-1,1847,1639,0,0
630,-615,0,0,0,0,0,0,0,0,0,-1,1854,1639,0,0
637,-615,0,0,0,0,0,0,0,0,0,-1,1861,1639,0,0
644,-615,0,0,0,0,0,0,0,0,0,-1,1868,1639,0,0
651,-615,0,0,0,0,0,0,0,0,0,-1,1875,1639,0,0
658,-615,0,0,0,0,0,0,0,0,0,-1,1882,1639,0,0
665,-615,0,0,0,0,0,0,0,0,0,-1,1889,1639,0,0
672,-615,0,0,0,0,0,0,0,0,0,-1,1896,1639,0,0
679,-615,0,0,0,0,0,0,0,0,0,-1,1903,1639,0,0
686,-615,0,0,0,0,0,0,0,0,0,-1,1910,1639,0,0
693,-615,0,0,0,0,0,0,0,0,0,-1,1917,1639,0,0
700,-615,0,0,0,0,0,0,0,0,0,-1,1924,1639,0,0
707,-615,0,0,0,0,0,0,0,0,0,-1,1931,1639,0,0
714,-615,0,0,0,0,0,0,0,0,0,-1,1938,1639,0,0
721,-615,0,0,0,0,0,0,0,0,0,-1,1945,1639,0,0
728,-615,0,0,0,0,0,0,0,0,0,-1,1952,1639,0,0
735,-615,0,0,0,0,0,0,0,0,0,-1,1959,1639,0,0
742,-615,0,0,0,0,0,0,0,0,0,-1,1966,1639,0,0
749,-615,0,0,0,0,0,0,0,0,0,-1,1973,1639,0,0
756,-615,0,0,0,0,0,0,0,0,0,-1,1980,1639,0,0
763,-615,0,0,0,0,0,0,0,0,0,-1,1987,1639,0,0
770,-615,0,0,0,0,0,0,0,0,0,-1,1994,1639,0,0
777,-615,0,0,0,0,0,0,0,0,0,-1,2001,1639,0,0
784,-615,0,0,0,0,0,0,0,0,0,-1,2008,1639,0,0
791,-615,0,0,0,0,0,0,0,0,0,-1,2015,1639,0,0
798,-615,0,0,0,0,0,0,0,0,0,-1,2022,1639,0,0
805,-615,0,0,0,0,0,0,0,0,0,-1,2029,1639,0,0
812,-615,0,0,0,0,0,0,0,0,0,-1,2036,1639,0,0
-700,-622,0,0,0,0,0,0,0,0,0,-1,524,1646,0,0
-693,-622,0,0,0,0,0,0,0,0,0,-1,531,1646,0,0
-686,-622,0,0,0,0,0,0,0,0,0,-1,538,1646,0,0
-679,-622,0,0,0,0,0,0,0,0,0,-1,545,1646,0,0
-672,-622,0,0,0,0,0,0,0,0,0,-1,552,1646,0,0
-665,-622,0,0,0,0,0,0,0,0,0,-1,559,1646,0,0
-658,-622,0,0,0,0,0,0,0,0,0,-1,566,1646,0,0
-651,-622,0,0,0,0,0,0,0,0,0,-1,573,1646,0,0
-644,-622,0,0,0,0,0,0,0,0,0,-1,580,1646,0,0
-637,-622,0,0,0,0,0,0,0,0,0,-1,587,1646,0,0
-630,-622,0,0,0,0,0,0,0,0,0,-1,594,1646,0,0
-623,-622,0,0,0,0,0,0,0,0,0,-1,601,1646,0,0
-616,-622,0,0,0,0,0,0,0,0,0,-1,608,1646,0,0
-609,-622,0,0,0,0,0,0,0,0,0,-1,615,1646,0,0
-602,-622,0,0,0,0,0,0,0,0,0,-1,622,1646,0,0
-595,-622,0,0,0,0,0,0,0,0,0,-1,629,1646,0,0
-588,-622,0,0,0,0,0,0,0,0,0,-1,636,1646,0,0
-581,-622,0,0,0,0,0,0,0,0,0,-1,643,1646,0,0
-574,-622,0,0,0,0,0,0,0,0,0,-1,650,1646,0,0
-567,-622,0,0,0,0,0,0,0,0,0,-1,657,1646,0,0
-560,-622,0,0,0,0,0,0,0,0,0,-1,664,1646,0,0
-553,-622,0,0,0,0,0,0,0,0,0,-1,671,1646,0,0
-546,-622,0,0,0,0,0,0,0,0,0,-1,678,1646,0,0
-539,-622,0,0,0,0,0,0,0,0,0,-1,685,1646,0,0
-532,-622,0,0,0,0,0,0,0,0,0,-1,692,1646,0,0
-525,-622,0,0,0,0,0,0,0,0,0,-1,699,1646,0,0
-518,-622,0,0,0,0,0,0,0,0,0,-1,706,1646,0,0
-511,-622,0,0,0,0,0,0,0,0,0,-1,713,1646,0,0
-504,-622,0,0,0,0,0,0,0,0,0,-1,720,1646,0,0
-497,-622,0,0,0,0,0,0,0,0,0,-1,727,1646,0,0
-490,-622,0,0,0,0,0,0,0,0,0,-1,734,1646,0,0
-483,-622,0,0,0,0,0,0,0,0,0,-1,741,1646,0,0
-476,-622,0,0,0,0,0,0,0,0,0,-1,748,1646,0,0
-469,-622,0,0,0,0,0,0,0,0,0,-1,755,1646,0,0
-462,-622,0,0,0,0,0,0,0,0,0,-1,762,1646,0,0
-455,-622,0,0,0,0,0,0,0,0,0,-1,769,1646,0,0
-448,-622,0,0,0,0,0,0,0,0,0,-1,776,1646,0,0
-441,-622,0,0,0,0,0,0,0,0,0,-1,783,1646,0,0
-434,-622,0,0,0,0,0,0,0,0,0,-1,790,1646,0,0
-427,-622,-7.62891,3.48096,0,0,0,0,0,0,0,-1,797,1646,-7.62892,-3.48092
-420,-622,-9.35791,1.77185,0,0,0,0,0,0,0,-1,804,1646,-9.35789,-1.77183
-413,-622,-8.46075,1.96777,0,0,0,0,0,0,0,-1,811,1646,-8.46074,-1.96774
-406,-622,-4.44318,2.16858,0,0,0,0,0,0,0,-1,818,1646,-4.44315,-2.16859
-399,-622,-7.06976,1.51001,0,0,0,0,0,0,0,-1,825,1646,-7.06976,-1.51005
-392,-622,3.89551,5.85376,0,0,0,0,0,0,0,-1,832,1646,3.8955,-5.85379
-385,-622,2.00543,14.0448,0,0,0,0,0,0,0,-1,839,1646,2.00544,-14.0448
-378,-622,1.49036,15.3436,0,0,0,0,0,0,0,-1,846,1646,1.49033,-15.3436
-371,-622,3.31866,14.9263,0,0,0,0,0,0,0,-1,853,1646,3.31865,-14.9262
-364,-622,3.12762,15.6516,0,0,0,0,0,0,0,-1,860,1646,3.12765,-15.6517
-357,-622,2.93665,16.3771,0,0,0,0,0,0,0,-1,867,1646,2.93664,-16.3771
-350,-622,3.1723,16.7667,0.00194143,-0.00564613,0.0011216,0.00210375,-0.00580846,0.143726,0.00473209,0.0482518,874,1646,3.17233,-16.7667
-343,-622,3.13702,16.9115,0.00240194,-0.00497235,0.00088683,0.00250709,-0.0050775,0.118018,0.004462,0.0261341,881,1646,3.137,-16.9115
-336,-622,3.22498,17.1898,0.00267966,-0.00432795,0.000664173,0.00274205,-0.00439034,0.0936675,0.00415438,0.00951385,888,1646,3.22499,-17.1898
-329,-622,3.20526,17.4863,0.00267558,-0.00341161,0.000511993,0.00271835,-0.00345437,0.0833296,0.00357226,0.00857129,895,1646,3.20524,-17.4864
-322,-622,3.20093,17.806,0.00244709,-0.00254781,0.000493846,0.00249545,-0.00259617,0.0976109,0.00293984,0.00979042,902,1646,3.20093,-17.806
-315,-622,3.21002,18.1305,0.00213643,-0.00185891,0.000369148,0.00217025,-0.00189273,0.0913639,0.00234759,0.0130927,909,1646,3.21,-18.1305
-308,-622,3.20752,18.4037,0.00186944,-0.00137083,0.00014007,0.00187548,-0.00137687,0.0431205,0.00188509,0.0134948,916,1646,3.2075,-18.4037
-301,-622,3.19843,18.6746,0.00167559,-0.000919261,-5.15318e-05,0.00167661,-0.000920284,-0.0198488,0.00152037,0.0123948,923,1646,3.1984,-18.6746
-294,-622,3.18304,18.9613,0.00160912,-0.000749743,-0.000254677,0.00163631,-0.000776927,-0.106333,0.00142242,0.00925248,930,1646,3.18304,-18.9613
-287,-622,3.17438,19.2577,0.00162088,-0.00069428,-0.000413925,0.00169266,-0.000766059,-0.171705,0.00145276,0.00790376,937,1646,3.17438,-19.2577
-280,-622,3.17596,19.5431,0.00176699,-0.000817674,-0.000598159,0.00189871,-0.000949392,-0.216745,0.00167452,0.00893077,944,1646,3.17597,-19.5431
-273,-622,3.19501,19.7941,0.00210773,-0.00108729,-0.000756575,0.00227783,-0.00125739,-0.221151,0.00206921,0.0127378,951,1646,3.19498,-19.7941
-266,-622,3.18121,20.078,0.00261903,-0.00156828,-0.000801939,0.00276736,-0.00171661,-0.182897,0.00261241,0.0119018,958,1646,3.18121,-20.078
-259,-622,3.18762,20.3669,0.00322633,-0.00200231,-0.000763834,0.00333564,-0.00211161,-0.14213,0.00317133,0.0112181,965,1646,3.18764,-20.3669
-252,-622,3.19476,20.6143,0.00402095,-0.00241942,-0.000621384,0.00408035,-0.00247882,-0.0953113,0.00382438,0.0116681,972,1646,3.19477,-20.6143
-245,-622,3.229,20.8922,0.00491714,-0.00277227,-0.00036583,0.0049345,-0.00278964,-0.047433,0.00451648,0.00847665,979,1646,3.22901,-20.8922
-238,-622,3.23962,21.1652,0.00602684,-0.00310708,-3.71824e-05,0.00602699,-0.00310723,-0.00407071,0.0053627,0.0101107,986,1646,3.23965,-21.1651
-231,-622,3.28058,21.4409,0.00748957,-0.00352806,0.000559568,0.00751791,-0.0035564,0.0506149,0.0065287,0.0160836,993,1646,3.28055,-21.4409
-224,-622,3.35565,21.616,0.00902615,-0.00355405,0.00132625,0.00916445,-0.00369235,0.103902,0.0076437,0.028139,1000,1646,3.35562,-21.6159
-217,-622,3.52393,21.7087,0.0106359,-0.00336789,0.00321955,0.0113406,-0.00407262,0.215492,0.00922271,0.0418763,1007,1646,3.52393,-21.7088
-210,-622,3.33624,22.3884,0,0,0,0,0,0,0,-1,1014,1646,3.33624,-22.3884
-203,-622,4.21375,20.9574,0,0,0,0,0,0,0,-1,1021,1646,4.21375,-20.9574
-196,-622,4.18518,21.2491,0,0,0,0,0,0,0,-1,1028,1646,4.18521,-21.2491
-189,-622,2.87659,22.8259,0,0,0,0,0,0,0,-1,1035,1646,2.8766,-22.8259
-182,-622,2.21411,20.6752,0,0,0,0,0,0,0,-1,1042,1646,2.21416,-20.6751
-175,-622,2.56091,11.0195,0,0,0,0,0,0,0,-1,1049,1646,2.56095,-11.0195
-168,-622,4.42639,22.1844,0,0,0,0,0,0,0,-1,1056,1646,4.42636,-22.1845
-161,-622,1.8446,22.1914,0,0,0,0,0,0,0,-1,1063,1646,1.84456,-22.1914
-154,-622,2.15845,22.1631,0,0,0,0,0,0,0,-1,1070,1646,2.15839,-22.1631
-147,-622,2.47217,22.1348,0,0,0,0,0,0,0,-1,1077,1646,2.47222,-22.1348
-140,-622,3.27515,16.0353,0,0,0,0,0,0,0,-1,1084,1646,3.27519,-16.0353
-133,-622,3.09644,17.677,0,0,0,0,0,0,0,-1,1091,1646,3.09638,-17.677
-126,-622,3.5061,19.5251,0,0,0,0,0,0,0,-1,1098,1646,3.50616,-19.5252
-119,-622,4.06384,13.1715,0,0,0,0,0,0,0,-1,1105,1646,4.06379,-13.1716
-112,-622,4.33276,14.6605,0,0,0,0,0,0,0,-1,1112,1646,4.33281,-14.6605
-105,-622,0.306519,4.38159,0,0,0,0,0,0,0,-1,1119,1646,0.306536,-4.38159
-98,-622,-0.510376,3.5033,0,0,0,0,0,0,0,-1,1126,1646,-0.510393,-3.50324
-91,-622,-1.146,0.975952,0,0,0,0,0,0,0,-1,1133,1646,-1.14599,-0.97597
-84,-622,-2.04895,1.31787,0,0,0,0,0,0,0,-1,1140,1646,-2.0489,-1.31781
-77,-622,-1.80627,0.332275,0,0,0,0,0,0,0,-1,1147,1646,-1.80622,-0.33223
-70,-622,-3.65588,2.28149,0,0,0,0,0,0,0,-1,1154,1646,-3.65589,-2.28155
-63,-622,-2.49683,1.27087,0,0,0,0,0,0,0,-1,1161,1646,-2.49679,-1.27093
-56,-622,-2.44238,-0.575562,0,0,0,0,0,0,0,-1,1168,1646,-2.44242,0.575508
-49,-622,-2.41089,1.38818,0,0,0,0,0,0,0,-1,1175,1646,-2.41088,-1.38815
-42,-622,-2.71497,2.85242,0,0,0,0,0,0,0,-1,1182,1646,-2.71491,-2.85247
-35,-622,-3.0177,4.25842,0,0,0,0,0,0,0,-1,1189,1646,-3.01773,-4.25838
-28,-622,-0.896606,0.678833,0,0,0,0,0,0,0,-1,1196,1646,-0.89661,-0.678835
-21,-622,-4.38635,19.0129,0,0,0,0,0,0,0,-1,1203,1646,-4.38639,-19.0129
-14,-622,7.68481,37.1093,0,0,0,0,0,0,0,-1,1210,1646,7.6848,-37.1092
-7,-622,8.1936,36.9535,0,0,0,0,0,0,0,-1,1217,1646,8.19366,-36.9535
0,-622,0,0,0,0,0,0,0,0,0,-1,1224,1646,0,0
7,-622,0,0,0,0,0,0,0,0,0,-1,1231,1646,0,0
14,-622,0,0,0,0,0,0,0,0,0,-1,1238,1646,0,0
21,-622,0,0,0,0,0,0,0,0,0,-1,1245,1646,0,0
28,-622,0,0,0,0,0,0,0,0,0,-1,1252,1646,0,0
35,-622,0,0,0,0,0,0,0,0,0,-1,1259,1646,0,0
42,-622,0,0,0,0,0,0,0,0,0,-1,1266,1646,0,0
49,-622,0,0,0,0,0,0,0,0,0,-1,1273,1646,0,0
56,-622,0,0,0,0,0,0,0,0,0,-1,1280,1646,0,0
63,-622,0,0,0,0,0,0,0,0,0,-1,1287,1646,0,0
70,-622,0,0,0,0,0,0,0,0,0,-1,1294,1646,0,0
77,-622,0,0,0,0,0,0,0,0,0,-1,1301,1646,0,0
84,-622,0,0,0,0,0,0,0,0,0,-1,1308,1646,0,0
91,-622,0,0,0,0,0,0,0,0,0,-1,1315,1646,0,0
98,-622,0,0,0,0,0,0,0,0,0,-1,1322,1646,0,0
105,-622,0,0,0,0,0,0,0,0,0,-1,1329,1646,0,0
112,-622,0,0,0,0,0,0,0,0,0,-1,1336,1646,0,0
119,-622,0,0,0,0,0,0,0,0,0,-1,1343,1646,0,0
126,-622,0.770386,29.425,-0.116415,0.187131,-0.0669381,0.201237,-0.13052,-1.36311,0.192985,0.0443211,1350,1646,0.770366,-29.4251
133,-622,-0.0516357,29.4658,-0.109174,0.203161,-0.067701,0.217204,-0.123218,-1.36627,0.199024,0.04725,1357,1646,-0.0516292,-29.4658
140,-622,-0.767212,29.266,-0.103792,0.214011,-0.0719081,0.229525,-0.119305,-1.35832,0.204721,0.0498112,1364,1646,-0.767192,-29.266
147,-622,-1.29919,29.333,0,0,0,0,0,0,0,-1,1371,1646,-1.29922,-29.333
154,-622,5.66565,32.3445,0,0,0,0,0,0,0,-1,1378,1646,5.66559,-32.3445
161,-622,10.6884,6.46448,0,0,0,0,0,0,0,-1,1385,1646,10.6883,-6.46442
168,-622,12.2402,5.18091,0,0,0,0,0,0,0,-1,1392,1646,12.2403,-5.1809
175,-622,5.64355,-1.77075,0,0,0,0,0,0,0,-1,1399,1646,5.64351,1.77077
182,-622,5.88586,-1.32251,0,0,0,0,0,0,0,-1,1406,1646,5.88587,1.32256
189,-622,5.97986,-1.18005,0,0,0,0,0,0,0,-1,1413,1646,5.97986,1.18003
196,-622,5.85022,-0.244507,0,0,0,0,0,0,0,-1,1420,1646,5.85026,0.244478
203,-622,5.25159,0.138794,0,0,0,0,0,0,0,-1,1427,1646,5.25162,-0.138822
210,-622,6.66833,0.0397949,0,0,0,0,0,0,0,-1,1434,1646,6.6684,-0.0398278
217,-622,6.12061,0.0506592,0,0,0,0,0,0,0,-1,1441,1646,6.12058,-0.0507181
224,-622,5.57275,0.0616455,0,0,0,0,0,0,0,-1,1448,1646,5.57276,-0.0616084
231,-622,5.31348,1.3949,0,0,0,0,0,0,0,-1,1455,1646,5.31342,-1.39495
238,-622,3.76477,2.90686,0,0,0,0,0,0,0,-1,1462,1646,3.7648,-2.90686
245,-622,5.13794,2.67993,0,0,0,0,0,0,0,-1,1469,1646,5.13796,-2.67992
252,-622,6.66528,2.53992,0,0,0,0,0,0,0,-1,1476,1646,6.66522,-2.53991
259,-622,8.93787,3.31458,0,0,0,0,0,0,0,-1,1483,1646,8.93791,-3.31454
266,-622,5.72644,3.11926,0,0,0,0,0,0,0,-1,1490,1646,5.72647,-3.1192
273,-622,7.28076,3.61218,0,0,0,0,0,0,0,-1,1497,1646,7.28071,-3.61212
280,-622,8.43127,4.4447,0,0,0,0,0,0,0,-1,1504,1646,8.43123,-4.44467
287,-622,8.60315,5.94617,0,0,0,0,0,0,0,-1,1511,1646,8.60319,-5.94622
294,-622,7.62756,11.5143,0,0,0,0,0,0,0,-1,1518,1646,7.62762,-11.5143
301,-622,7.36548,11.6569,0,0,0,0,0,0,0,-1,1525,1646,7.36549,-11.6569
308,-622,7.10339,11.7994,0,0,0,0,0,0,0,-1,1532,1646,7.10335,-11.7995
315,-622,8.28687,16.5842,0,0,0,0,0,0,0,-1,1539,1646,8.28689,-16.5843
322,-622,7.43689,20.5786,0,0,0,0,0,0,0,-1,1546,1646,7.43685,-20.5786
329,-622,10.0476,22.9749,0,0,0,0,0,0,0,-1,1553,1646,10.0476,-22.9748
336,-622,9.99463,23.3147,0,0,0,0,0,0,0,-1,1560,1646,9.99468,-23.3147
343,-622,9.07434,22.6173,0,0,0,0,0,0,0,-1,1567,1646,9.07433,-22.6173
350,-622,8.87695,23.3026,0,0,0,0,0,0,0,-1,1574,1646,8.877,-23.3026
357,-622,8.9209,22.7681,0.000684898,0.0120268,0.000188394,0.01203,0.00068177,1.55419,0.00780265,0.0480898,1581,1646,8.92084,-22.768
364,-622,9.00598,22.2205,0.00126796,0.00982781,-0.00064132,0.0098756,0.00122018,-1.49643,0.00621705,0.0354584,1588,1646,9.00601,-22.2204
371,-622,9.06824,21.8463,0.00164582,0.00804327,-0.000978206,0.0081895,0.00149959,-1.42241,0.0050348,0.0203722,1595,1646,9.06829,-21.8463
378,-622,9.04565,21.608,0.00174828,0.00627422,-0.00102358,0.00649494,0.00152756,-1.35841,0.00392124,0.011621,1602,1646,9.04568,-21.608
385,-622,9.03735,21.3573,0.00177974,0.00462878,-0.00125804,0.00510476,0.00130376,-1.20909,0.00306253,0.0100966,1609,1646,9.0373,-21.3573
392,-622,9.02698,21.1373,0.00178651,0.00292469,-0.000960204,0.00347178,0.00123942,-1.05291,0.00203157,0.011127,1616,1646,9.02698,-21.1374
399,-622,9.02478,20.8994,0.00160287,0.00178379,-0.000357518,0.00206211,0.00132454,-0.909307,0.00120653,0.0110689,1623,1646,9.0248,-20.8995
406,-622,9.02417,20.6335,0.00122329,0.000897564,9.2408e-05,0.00124768,0.000873175,0.25805,0.000739279,0.0140159,1630,1646,9.02419,-20.6335
413,-622,9.03247,20.3743,0.00083774,5.48988e-05,0.000509063,0.00108847,-0.000195829,0.457653,0.000798962,0.0159358,1637,1646,9.0325,-20.3743
420,-622,9.03906,20.1191,0.000568516,-0.000205515,0.000716515,0.000995856,-0.000632855,0.537779,0.000948089,0.0154876,1644,1646,9.03904,-20.1191
427,-622,9.04578,19.8672,0.000277953,-0.000250294,0.00085389,0.000907636,-0.000879977,0.635406,0.00103212,0.0118275,1651,1646,9.04583,-19.8672
434,-622,9.05859,19.6224,0.000195401,-0.000117835,0.000786476,0.000840702,-0.000763135,0.687114,0.000926337,0.0126216,1658,1646,9.05861,-19.6225
441,-622,9.05249,19.3334,0.000452564,0.000147332,0.000584827,0.000904361,-0.000304465,0.657765,0.000725998,0.0151379,1665,1646,9.05248,-19.3334
448,-622,9.0271,19.0725,0.000618463,0.000453473,0.000306001,0.000852894,0.000219042,0.653733,0.000511463,0.0144996,1672,1646,9.02704,-19.0725
455,-622,9.00708,18.7788,0.000867331,0.000775733,7.28512e-06,0.000867907,0.000775157,0.0788727,0.0005503,0.0160122,1679,1646,9.00708,-18.7788
462,-622,9.02014,18.511,0.00133642,0.00102974,-0.000343371,0.00155913,0.000807025,-0.575397,0.000900353,0.0169211,1686,1646,9.02011,-18.511
469,-622,9.00037,18.2368,0.00205686,0.00132281,-0.000796384,0.00256672,0.000812942,-0.569471,0.00151472,0.0172643,1693,1646,9.00036,-18.2368
476,-622,9.04346,17.9442,0.00304531,0.00167258,-0.00137063,0.00389183,0.000826062,-0.553269,0.00236773,0.0181358,1700,1646,9.04346,-17.9442
483,-622,9.00708,17.6556,0.00422055,0.00218909,-0.00219074,0.00561958,0.000790065,-0.568326,0.00351277,0.0249599,1707,1646,9.00706,-17.6556
490,-622,9.1394,17.3947,0.00547246,0.00245893,-0.00309343,0.00740657,0.000524818,-0.558766,0.0047724,0.0319106,1714,1646,9.13937,-17.3946
497,-622,9.1709,17.075,0.00705155,0.00309366,-0.00420676,0.00972159,0.000423617,-0.565545,0.00634457,0.0481735,1721,1646,9.17086,-17.075
504,-622,9.17371,16.63,0,0,0,0,0,0,0,-1,1728,1646,9.17376,-16.6299
511,-622,5.29004,4.14587,0,0,0,0,0,0,0,-1,1735,1646,5.29008,-4.14589
518,-622,5.6001,1.55359,0,0,0,0,0,0,0,-1,1742,1646,5.60015,-1.5536
525,-622,5.83093,2.01807,0,0,0,0,0,0,0,-1,1749,1646,5.83097,-2.01802
532,-622,5.44202,0.57373,0,0,0,0,0,0,0,-1,1756,1646,5.44196,-0.573705
539,-622,9.32129,1.06116,0,0,0,0,0,0,0,-1,1763,1646,9.32131,-1.0612
546,-622,6.50977,-3.45618,0,0,0,0,0,0,0,-1,1770,1646,6.50981,3.4562
553,-622,0,0,0,0,0,0,0,0,0,-1,1777,1646,0,0
560,-622,0,0,0,0,0,0,0,0,0,-1,1784,1646,0,0
567,-622,0,0,0,0,0,0,0,0,0,-1,1791,1646,0,0
574,-622,0,0,0,0,0,0,0,0,0,-1,1798,1646,0,0
581,-622,0,0,0,0,0,0,0,0,0,-1,1805,1646,0,0
588,-622,0,0,0,0,0,0,0,0,0,-1,1812,1646,0,0
595,-622,0,0,0,0,0,0,0,0,0,-1,1819,1646,0,0
602,-622,0,0,0,0,0,0,0,0,0,-1,1826,1646,0,0
609,-622,0,0,0,0,0,0,0,0,0,-1,1833,1646,0,0
616,-622,0,0,0,0,0,0,0,0,0,-1,1840,1646,0,0
623,-622,0,0,0,0,0,0,0,0,0,-1,1847,1646,0,0
630,-622,0,0,0,0,0,0,0,0,0,-1,1854,1646,0,0
637,-622,0,0,0,0,0,0,0,0,0,-1,1861,1646,0,0
644,-622,0,0,0,0,0,0,0,0,0,-1,1868,1646,0,0
651,-622,0,0,0,0,0,0,0,0,0,-1,1875,1646,0,0
658,-622,0,0,0,0,0,0,0,0,0,-1,1882,1646,0,0
665,-622,0,0,0,0,0,0,0,0,0,-1,1889,1646,0,0
672,-622,0,0,0,0,0,0,0,0,0,-1,1896,1646,0,0
679,-622,0,0,0,0,0,0,0,0,0,-1,1903,1646,0,0
686,-622,0,0,0,0,0,0,0,0,0,-1,1910,1646,0,0
693,-622,0,0,0,0,0,0,0,0,0,-1,1917,1646,0,0
700,-622,0,0,0,0,0,0,0,0,0,-1,1924,1646,0,0
707,-622,0,0,0,0,0,0,0,0,0,-1,1931,1646,0,0
714,-622,0,0,0,0,0,0,0,0,0,-1,1938,1646,0,0
721,-622,0,0,0,0,0,0,0,0,0,-1,1945,1646,0,0
728,-622,0,0,0,0,0,0,0,0,0,-1,1952,1646,0,0
735,-622,0,0,0,0,0,0,0,0,0,-1,1959,1646,0,0
742,-622,0,0,0,0,0,0,0,0,0,-1,1966,1646,0,0
749,-622,0,0,0,0,0,0,0,0,0,-1,1973,1646,0,0
756,-622,0,0,0,0,0,0,0,0,0,-1,1980,1646,0,0
763,-622,0,0,0,0,0,0,0,0,0,-1,1987,1646,0,0
770,-622,0,0,0,0,0,0,0,0,0,-1,1994,1646,0,0
777,-622,0,0,0,0,0,0,0,0,0,-1,2001,1646,0,0
784,-622,0,0,0,0,0,0,0,0,0,-1,2008,1646,0,0
791,-622,0,0,0,0,0,0,0,0,0,-1,2015,1646,0,0
798,-622,0,0,0,0,0,0,0,0,0,-1,2022,1646,0,0
805,-622,0,0,0,0,0,0,0,0,0,-1,2029,1646,0,0
812,-622,0,0,0,0,0,0,0,0,0,-1,2036,1646,0,0
-700,-629,0,0,0,0,0,0,0,0,0,-1,524,1653,0,0
-693,-629,0,0,0,0,0,0,0,0,0,-1,531,1653,0,0
-686,-629,0,0,0,0,0,0,0,0,0,-1,538,1653,0,0
-679,-629,0,0,0,0,0,0,0,0,0,-1,545,1653,0,0
-672,-629,0,0,0,0,0,0,0,0,0,-1,552,1653,0,0
-665,-629,0,0,0,0,0,0,0,0,0,-1,559,1653,0,0
-658,-629,0,0,0,0,0,0,0,0,0,-1,566,1653,0,0
-651,-629,0,0,0,0,0,0,0,0,0,-1,573,1653,0,0
-644,-629,0,0,0,0,0,0,0,0,0,-1,580,1653,0,0
-637,-629,0,0,0,0,0,0,0,0,0,-1,587,1653,0,0
-630,-629,0,0,0,0,0,0,0,0,0,-1,594,1653,0,0
-623,-629,0,0,0,0,0,0,0,0,0,-1,601,1653,0,0
-616,-629,0,0,0,0,0,0,0,0,0,-1,608,1653,0,0
-609,-629,0,0,0,0,0,0,0,0,0,-1,615,1653,0,0
-602,-629,0,0,0,0,0,0,0,0,0,-1,622,1653,0,0
-595,-629,0,0,0,0,0,0,0,0,0,-1,629,1653,0,0
-588,-629,0,0,0,0,0,0,0,0,0,-1,636,1653,0,0
-581,-629,0,0,0,0,0,0,0,0,0,-1,643,1653,0,0
-574,-629,0,0,0,0,0,0,0,0,0,-1,650,1653,0,0
-567,-629,0,0,0,0,0,0,0,0,0,-1,657,1653,0,0
-560,-629,0,0,0,0,0,0,0,0,0,-1,664,1653,0,0
-553,-629,0,0,0,0,0,0,0,0,0,-1,671,1653,0,0
-546,-629,0,0,0,0,0,0,0,0,0,-1,678,1653,0,0
-539,-629,0,0,0,0,0,0,0,0,0,-1,685,1653,0,0
-532,-629,0,0,0,0,0,0,0,0,0,-1,692,1653,0,0
-525,-629,0,0,0,0,0,0,0,0,0,-1,699,1653,0,0
-518,-629,0,0,0,0,0,0,0,0,0,-1,706,1653,0,0
-511,-629,0,0,0,0,0,0,0,0,0,-1,713,1653,0,0
-504,-629,0,0,0,0,0,0,0,0,0,-1,720,1653,0,0
-497,-629,0,0,0,0,0,0,0,0,0,-1,727,1653,0,0
-490,-629,0,0,0,0,0,0,0,0,0,-1,734,1653,0,0
-483,-629,0,0,0,0,0,0,0,0,0,-1,741,1653,0,0
-476,-629,0,0,0,0,0,0,0,0,0,-1,748,1653,0,0
-469,-629,0,0,0,0,0,0,0,0,0,-1,755,1653,0,0
-462,-629,0,0,0,0,0,0,0,0,0,-1,762,1653,0,0
-455,-629,0,0,0,0,0,0,0,0,0,-1,769,1653,0,0
-448,-629,0,0,0,0,0,0,0,0,0,-1,776,1653,0,0
-441,-629,0,0,0,0,0,0,0,0,0,-1,783,1653,0,0
-434,-629,0,0,0,0,0,0,0,0,0,-1,790,1653,0,0
-427,-629,0,0,0,0,0,0,0,0,0,-1,797,1653,0,0
-420,-629,-3.87103,3.37634,0,0,0,0,0,0,0,-1,804,1653,-3.87101,-3.37633
-413,-629,-5.69751,1.33582,0,0,0,0,0,0,0,-1,811,1653,-5.69754,-1.3358
-406,-629,2.85406,6.01501,0,0,0,0,0,0,0,-1,818,1653,2.85405,-6.01507
-399,-629,-0.455627,10.8687,0,0,0,0,0,0,0,-1,825,1653,-0.455625,-10.8687
-392,-629,1.15369,11.1295,0,0,0,0,0,0,0,-1,832,1653,1.1537,-11.1295
-385,-629,1.81976,11.6935,0,0,0,0,0,0,0,-1,839,1653,1.81975,-11.6935
-378,-629,2.19452,14.7941,0,0,0,0,0,0,0,-1,846,1653,2.19451,-14.7941
-371,-629,1.51514,12.7848,0,0,0,0,0,0,0,-1,853,1653,1.51513,-12.7848
-364,-629,3.1748,15.5487,0,0,0,0,0,0,0,-1,860,1653,3.17482,-15.5487
-357,-629,1.56226,16.9664,0,0,0,0,0,0,0,-1,867,1653,1.56224,-16.9664
-350,-629,3.24841,16.7188,0,0,0,0,0,0,0,-1,874,1653,3.2484,-16.7187
-343,-629,3.42694,16.973,0.00743861,-0.00907199,-0.000856788,0.00748295,-0.00911634,-0.0517081,0.00959906,0.0427348,881,1653,3.42697,-16.9731
-336,-629,3.51611,17.1785,0.00736363,-0.00800212,-0.00106881,0.00743761,-0.00807611,-0.0691144,0.00895938,0.0189413,888,1653,3.51611,-17.1784
-329,-629,3.53729,17.4915,0.00686708,-0.0067248,-0.00119312,0.00697102,-0.00682874,-0.0868964,0.00796744,0.0118455,895,1653,3.53731,-17.4915
-322,-629,3.51929,17.7996,0.00610849,-0.00546344,-0.00105859,0.00620453,-0.00555948,-0.0904781,0.00679536,0.0113757,902,1653,3.51928,-17.7996
-315,-629,3.49261,18.0962,0.00523863,-0.00431966,-0.000985777,0.00533923,-0.00442027,-0.101707,0.00564297,0.0149304,909,1653,3.49263,-18.0961
-308,-629,3.49335,18.3915,0.00440439,-0.0034455,-0.00102153,0.00453515,-0.00357625,-0.127309,0.00469402,0.0120941,916,1653,3.49335,-18.3915
-301,-629,3.50824,18.6953,0.00364051,-0.00257453,-0.000974344,0.00378968,-0.0027237,-0.151918,0.00377725,0.00998919,923,1653,3.50821,-18.6953
-294,-629,3.48993,18.9855,0.00303931,-0.00197784,-0.000916979,0.00320166,-0.00214018,-0.175224,0.00310434,0.010837,930,1653,3.48992,-18.9854
-287,-629,3.48578,19.2649,0.00253476,-0.00154642,-0.000816668,0.00269211,-0.00170377,-0.190345,0.00255925,0.00941739,937,1653,3.48578,-19.2649
-280,-629,3.48584,19.5527,0.00220024,-0.00129833,-0.000753795,0.00235574,-0.00145383,-0.203435,0.00221991,0.00984308,944,1653,3.48582,-19.5527
-273,-629,3.48438,19.8096,0.00213827,-0.00120088,-0.000671039,0.00226808,-0.00133069,-0.191081,0.00210111,0.0127816,951,1653,3.48437,-19.8095
-266,-629,3.47125,20.0891,0.00230746,-0.00131354,-0.00053837,0.00238581,-0.00139189,-0.144516,0.00220608,0.0129512,958,1653,3.47128,-20.0891
-259,-629,3.47003,20.3881,0.00257892,-0.0013899,-0.000359684,0.00261125,-0.00142224,-0.089654,0.00236222,0.0143462,965,1653,3.47001,-20.3881
-252,-629,3.47864,20.6172,0.00312123,-0.00153697,-0.000166435,0.00312717,-0.0015429,-0.0356688,0.0027475,0.0113624,972,1653,3.47865,-20.6171
-245,-629,3.49841,20.8909,0.00386514,-0.0017131,3.89183e-05,0.00386542,-0.00171338,0.00697634,0.00329983,0.00806707,979,1653,3.49838,-20.8909
-238,-629,3.50018,21.1467,0.00474529,-0.00184304,0.000298916,0.00475883,-0.00185657,0.0452467,0.00394002,0.00991915,986,1653,3.50019,-21.1468
-231,-629,3.4895,21.4001,0.00589411,-0.0020077,0.000784738,0.00597129,-0.00208488,0.0980352,0.00482827,0.0112986,993,1653,3.4895,-21.4002
-224,-629,3.55176,21.6996,0.00710347,-0.00195285,0.00135709,0.00730246,-0.00215184,0.145591,0.00572208,0.0131567,1000,1653,3.55174,-21.6996
-217,-629,3.53522,21.9088,0.00834755,-0.00170363,0.00273647,0.00904426,-0.00240035,0.249308,0.00696881,0.0220273,1007,1653,3.5352,-21.9089
-210,-629,3.52686,22.1929,0.00944977,-0.000880534,0.00412945,0.0108976,-0.00232834,0.337213,0.00815275,0.0464317,1014,1653,3.52687,-22.1929
-203,-629,3.6095,22.8422,0,0,0,0,0,0,0,-1,1021,1653,3.60951,-22.8422
-196,-629,3.95715,22.8064,0,0,0,0,0,0,0,-1,1028,1653,3.9572,-22.8064
-189,-629,3.89404,22.8743,0,0,0,0,0,0,0,-1,1035,1653,3.89406,-22.8742
-182,-629,4.30164,23.1561,0,0,0,0,0,0,0,-1,1042,1653,4.30167,-23.1562
-175,-629,3.29102,19.1411,0,0,0,0,0,0,0,-1,1049,1653,3.29096,-19.1411
-168,-629,5.26416,21.5598,0,0,0,0,0,0,0,-1,1056,1653,5.26419,-21.5598
-161,-629,4.46521,24.0233,0,0,0,0,0,0,0,-1,1063,1653,4.46527,-24.0233
-154,-629,3.01709,22.7504,0,0,0,0,0,0,0,-1,1070,1653,3.01708,-22.7504
-147,-629,2.98315,22.8896,0,0,0,0,0,0,0,-1,1077,1653,2.98312,-22.8896
-140,-629,2.34851,19.2911,0,0,0,0,0,0,0,-1,1084,1653,2.34853,-19.2911
-133,-629,3.41248,17.6686,0,0,0,0,0,0,0,-1,1091,1653,3.41243,-17.6686
-126,-629,4.01025,19.5328,0,0,0,0,0,0,0,-1,1098,1653,4.01022,-19.5328
-119,-629,4.94177,13.5525,0,0,0,0,0,0,0,-1,1105,1653,4.94172,-13.5525
-112,-629,5.63123,15.9187,0,0,0,0,0,0,0,-1,1112,1653,5.63118,-15.9187
-105,-629,2.15881,4.38342,0,0,0,0,0,0,0,-1,1119,1653,2.15878,-4.38347
-98,-629,0.825806,4.19385,0,0,0,0,0,0,0,-1,1126,1653,0.825779,-4.1939
-91,-629,-0.452271,3.64465,0,0,0,0,0,0,0,-1,1133,1653,-0.452278,-3.6446
-84,-629,-2.6084,0.466797,0,0,0,0,0,0,0,-1,1140,1653,-2.6084,-0.466786
-77,-629,-3.50903,2.10706,0,0,0,0,0,0,0,-1,1147,1653,-3.509,-2.10707
-70,-629,-1.20886,2.52502,0,0,0,0,0,0,0,-1,1154,1653,-1.20886,-2.525
-63,-629,-0.960693,4.30212,0,0,0,0,0,0,0,-1,1161,1653,-0.960691,-4.30215
-56,-629,-1.31934,5.64343,0,0,0,0,0,0,0,-1,1168,1653,-1.31928,-5.6434
-49,-629,-2.15662,2.57458,0,0,0,0,0,0,0,-1,1175,1653,-2.15656,-2.57459
-42,-629,-2.46326,3.91467,0,0,0,0,0,0,0,-1,1182,1653,-2.4633,-3.91466
-35,-629,-2.67261,5.24292,0,0,0,0,0,0,0,-1,1189,1653,-2.67257,-5.24298
-28,-629,-0.402954,-0.866577,0,0,0,0,0,0,0,-1,1196,1653,-0.402943,0.866612
-21,-629,10.063,9.59705,0,0,0,0,0,0,0,-1,1203,1653,10.063,-9.59708
-14,-629,6.89185,36.3739,0,0,0,0,0,0,0,-1,1210,1653,6.8919,-36.3739
-7,-629,7.3186,36.1936,0,0,0,0,0,0,0,-1,1217,1653,7.31856,-36.1936
0,-629,7.74573,35.668,0,0,0,0,0,0,0,-1,1224,1653,7.74571,-35.668
7,-629,7.77527,35.209,0.0155886,0.14313,0.0463351,0.158186,0.000532597,1.25662,0.10528,0.0432446,1231,1653,7.77529,-35.209
14,-629,7.56604,35.0222,0.0226738,0.128628,0.0443578,0.144747,0.00655548,1.22226,0.0943886,0.0434082,1238,1653,7.56604,-35.0222
21,-629,8.06592,34.8676,0.0269792,0.107333,0.0372185,0.121923,0.0123893,1.1972,0.0774829,0.0442305,1245,1653,8.06587,-34.8676
28,-629,8.56812,35.6827,0.034908,0.0879745,0.0323343,0.103269,0.019614,1.12898,0.0633284,0.0439962,1252,1653,8.56813,-35.6827
35,-629,8.35657,36.1954,0,0,0,0,0,0,0,-1,1259,1653,8.35659,-36.1954
42,-629,5.56897,31.2883,0,0,0,0,0,0,0,-1,1266,1653,5.56902,-31.2883
49,-629,5.90674,31.4402,0.0386265,0.0232358,0.011546,0.0448066,0.0170557,0.491456,0.0261136,0.0457731,1273,1653,5.90673,-31.4401
56,-629,6.24634,31.7052,0.0212601,0.0137312,0.00162624,0.0215964,0.013395,0.203892,0.0125883,0.0451299,1280,1653,6.24639,-31.7053
63,-629,6.5802,32.0131,0.00339336,0.0136776,-0.00848788,0.0184595,-0.0013885,-1.05774,0.0127943,0.0454944,1287,1653,6.58017,-32.013
70,-629,6.87158,32.296,0,0,0,0,0,0,0,-1,1294,1653,6.87159,-32.296
77,-629,2.26355,23.3586,0,0,0,0,0,0,0,-1,1301,1653,2.2636,-23.3586
84,-629,2.224,24.0627,0,0,0,0,0,0,0,-1,1308,1653,2.22394,-24.0628
91,-629,5.32434,27.7411,0,0,0,0,0,0,0,-1,1315,1653,5.32434,-27.7411
98,-629,4.43408,27.8539,0,0,0,0,0,0,0,-1,1322,1653,4.43414,-27.8539
105,-629,3.61072,27.9503,-0.0857417,0.109362,-0.0429257,0.118389,-0.0947684,-1.36353,0.123318,0.0489109,1329,1653,3.61067,-27.9503
112,-629,2.88733,28.0408,-0.0991281,0.130896,-0.0443297,0.139144,-0.107376,-1.38685,0.142721,0.047657,1336,1653,2.88738,-28.0408
119,-629,2.32971,28.0902,0,0,0,0,0,0,0,-1,1343,1653,2.32968,-28.0902
126,-629,1.74292,28.3029,-0.111655,0.164119,-0.0432458,0.170742,-0.118278,-1.41884,0.16778,0.0445783,1350,1653,1.74292,-28.3028
133,-629,1.03613,28.3336,-0.1076,0.178302,-0.043328,0.184724,-0.114022,-1.42365,0.174084,0.0489551,1357,1653,1.03608,-28.3336
140,-629,0.243896,28.151,-0.104284,0.18756,-0.0466443,0.194833,-0.111558,-1.4161,0.17906,0.048755,1364,1653,0.2439,-28.151
147,-629,6.87573,29.7317,0,0,0,0,0,0,0,-1,1371,1653,6.87569,-29.7317
154,-629,10.8354,22.9854,0,0,0,0,0,0,0,-1,1378,1653,10.8355,-22.9854
161,-629,10.5461,6.83752,0,0,0,0,0,0,0,-1,1385,1653,10.5461,-6.83758
168,-629,12.0059,5.56348,0,0,0,0,0,0,0,-1,1392,1653,12.0059,-5.56352
175,-629,5.84485,-1.78845,0,0,0,0,0,0,0,-1,1399,1653,5.84479,1.7884
182,-629,5.99036,-1.27783,0,0,0,0,0,0,0,-1,1406,1653,5.99041,1.27778
189,-629,5.97668,-0.748535,0,0,0,0,0,0,0,-1,1413,1653,5.97671,0.748544
196,-629,4.52869,9.24695,0,0,0,0,0,0,0,-1,1420,1653,4.52869,-9.2469
203,-629,3.75085,6.88037,0,0,0,0,0,0,0,-1,1427,1653,3.75087,-6.88032
210,-629,3.5907,6.52637,0,0,0,0,0,0,0,-1,1434,1653,3.59067,-6.52642
217,-629,2.4585,4.84448,0,0,0,0,0,0,0,-1,1441,1653,2.45855,-4.84448
224,-629,1.31982,3.68481,0,0,0,0,0,0,0,-1,1448,1653,1.31986,-3.68487
231,-629,3.63025,1.73499,0,0,0,0,0,0,0,-1,1455,1653,3.6303,-1.735
238,-629,4.26428,2.11255,0,0,0,0,0,0,0,-1,1462,1653,4.26429,-2.11253
245,-629,5.61816,1.95361,0,0,0,0,0,0,0,-1,1469,1653,5.61815,-1.95359
252,-629,7.27136,2.18982,0,0,0,0,0,0,0,-1,1476,1653,7.27131,-2.18985
259,-629,8.67334,2.18628,0,0,0,0,0,0,0,-1,1483,1653,8.6733,-2.18633
266,-629,6.86475,3.72058,0,0,0,0,0,0,0,-1,1490,1653,6.86479,-3.72063
273,-629,7.9021,3.8717,0,0,0,0,0,0,0,-1,1497,1653,7.90205,-3.87171
280,-629,9.70837,4.39087,0,0,0,0,0,0,0,-1,1504,1653,9.7084,-4.39082
287,-629,9.82947,7.19348,0,0,0,0,0,0,0,-1,1511,1653,9.8295,-7.19347
294,-629,6.56555,11.6359,0,0,0,0,0,0,0,-1,1518,1653,6.5656,-11.6358
301,-629,6.93835,15.6102,0,0,0,0,0,0,0,-1,1525,1653,6.93835,-15.6103
308,-629,6.08264,12.1423,0,0,0,0,0,0,0,-1,1532,1653,6.08263,-12.1423
315,-629,6.82043,18.2764,0,0,0,0,0,0,0,-1,1539,1653,6.82049,-18.2764
322,-629,9.35242,22.941,0,0,0,0,0,0,0,-1,1546,1653,9.35236,-22.9411
329,-629,9.34021,22.9905,-0.00229545,0.0111343,0.00763791,0.0145893,-0.00575049,1.14599,0.0121072,0.0445777,1553,1653,9.3402,-22.9905
336,-629,9.24805,23.1353,-0.00156562,0.011147,0.00532538,0.013083,-0.00350162,1.22211,0.0100937,0.044088,1560,1653,9.24801,-23.1352
343,-629,8.77563,22.703,-0.000724267,0.0110345,0.00316237,0.011831,-0.00152079,1.32405,0.00844006,0.0455443,1567,1653,8.77564,-22.703
350,-629,8.76404,22.5319,7.86178e-05,0.0105335,0.00166124,0.0107911,-0.000178997,1.41695,0.0072545,0.0295491,1574,1653,8.764,-22.5318
357,-629,8.80591,22.2668,0.000626202,0.00929798,0.000545668,0.00933218,0.000592001,1.5082,0.00603381,0.0170311,1581,1653,8.80594,-22.2669
364,-629,8.78625,22.0327,0.00104942,0.00781247,-0.000237744,0.00782082,0.00104108,-1.5357,0.00490383,0.0144639,1588,1653,8.78627,-22.0327
371,-629,8.77466,21.8197,0.00130669,0.00652039,-0.000609273,0.00659064,0.00123644,-1.456,0.0040451,0.0114615,1595,1653,8.77464,-21.8197
378,-629,8.77576,21.5885,0.00137249,0.00517708,-0.000723931,0.00531017,0.00123939,-1.38898,0.00320781,0.0104783,1602,1653,8.77576,-21.5885
385,-629,8.78992,21.35,0.00141576,0.00392078,-0.00101008,0.00427732,0.00105922,-1.23147,0.00257223,0.0122922,1609,1653,8.78996,-21.3499
392,-629,8.77881,21.1348,0.00143654,0.00249339,-0.000862041,0.00297608,0.00095385,-1.06036,0.00175476,0.010844,1616,1653,8.77876,-21.1348
399,-629,8.77539,20.8964,0.00127659,0.00149996,-0.000416383,0.00181938,0.000957172,-0.916428,0.00105089,0.0108951,1623,1653,8.77542,-20.8964
406,-629,8.76892,20.626,0.000946551,0.000728758,-6.14046e-05,0.00096267,0.000712638,-0.256718,0.000576793,0.0143894,1630,1653,8.76896,-20.626
413,-629,8.76929,20.3918,0.000606764,-1.39465e-05,0.000290753,0.000721683,-0.000128865,0.3764,0.000529332,0.0234915,1637,1653,8.76927,-20.3918
420,-629,8.76355,20.1454,0.000378505,-0.000253954,0.000488035,0.000643808,-0.000519257,0.497927,0.000672778,0.0213135,1644,1653,8.76351,-20.1453
427,-629,8.77454,19.8864,0.000142884,-0.0002018,0.000612714,0.000607033,-0.000665948,0.648302,0.000735218,0.0126202,1651,1653,8.77453,-19.8864
434,-629,8.7821,19.623,9.16633e-05,-7.51723e-06,0.000586838,0.000631003,-0.000546857,0.743246,0.000680616,0.0101801,1658,1653,8.78216,-19.623
441,-629,8.79846,19.3513,0.000421092,0.000289572,0.00040107,0.000761757,-5.10935e-05,0.704141,0.000525698,0.0153299,1665,1653,8.79842,-19.3513
448,-629,8.76465,19.0671,0.000637585,0.000663286,0.000168101,0.000819028,0.000481844,0.823547,0.000475318,0.0154159,1672,1653,8.7646,-19.0672
455,-629,8.73462,18.7815,0.000982555,0.00112309,-5.8062e-05,0.00114398,0.00096167,-1.22552,0.000709731,0.0148835,1679,1653,8.73462,-18.7814
462,-629,8.73877,18.5358,0.00155627,0.00145714,-0.000326898,0.00183734,0.00117607,-0.710159,0.00107458,0.0179603,1686,1653,8.73873,-18.5358
469,-629,8.7384,18.2299,0.00245912,0.00196501,-0.000752691,0.00300427,0.00141987,-0.626822,0.00173538,0.0199525,1693,1653,8.73835,-18.2299
476,-629,8.78772,17.9797,0.00376493,0.00261228,-0.00137113,0.00467594,0.00170127,-0.586444,0.00273282,0.027767,1700,1653,8.7877,-17.9798
483,-629,8.68933,17.6479,0.00534359,0.00348038,-0.00234879,0.00693878,0.00188519,-0.596598,0.00414298,0.0391157,1707,1653,8.68929,-17.648
490,-629,9.15405,17.3707,0.00706944,0.00401763,-0.00348215,0.00934534,0.00174173,-0.578896,0.00573845,0.0449791,1714,1653,9.15409,-17.3707
497,-629,9.04944,17.1353,0,0,0,0,0,0,0,-1,1721,1653,9.04939,-17.1353
504,-629,7.89453,15.5316,0,0,0,0,0,0,0,-1,1728,1653,7.89447,-15.5316
511,-629,6.29138,3.40295,0,0,0,0,0,0,0,-1,1735,1653,6.29137,-3.403
518,-629,5.84387,1.41858,0,0,0,0,0,0,0,-1,1742,1653,5.84391,-1.4186
525,-629,6.4729,1.02319,0,0,0,0,0,0,0,-1,1749,1653,6.47284,-1.02316
532,-629,6.86511,0.903687,0,0,0,0,0,0,0,-1,1756,1653,6.86514,-0.903691
539,-629,6.60803,0.746704,0,0,0,0,0,0,0,-1,1763,1653,6.60809,-0.746691
546,-629,0,0,0,0,0,0,0,0,0,-1,1770,1653,0,0
553,-629,0,0,0,0,0,0,0,0,0,-1,1777,1653,0,0
560,-629,0,0,0,0,0,0,0,0,0,-1,1784,1653,0,0
567,-629,0,0,0,0,0,0,0,0,0,-1,1791,1653,0,0
574,-629,0,0,0,0,0,0,0,0,0,-1,1798,1653,0,0
581,-629,0,0,0,0,0,0,0,0,0,-1,1805,1653,0,0
588,-629,0,0,0,0,0,0,0,0,0,-1,1812,1653,0,0
595,-629,0,0,0,0,0,0,0,0,0,-1,1819,1653,0,0
602,-629,0,0,0,0,0,0,0,0,0,-1,1826,1653,0,0
609,-629,0,0,0,0,0,0,0,0,0,-1,1833,1653,0,0
616,-629,0,0,0,0,0,0,0,0,0,-1,1840,1653,0,0
623,-629,0,0,0,0,0,0,0,0,0,-1,1847,1653,0,0
630,-629,0,0,0,0,0,0,0,0,0,-1,1854,1653,0,0
637,-629,0,0,0,0,0,0,0,0,0,-1,1861,1653,0,0
644,-629,0,0,0,0,0,0,0,0,0,-1,1868,1653,0,0
651,-629,0,0,0,0,0,0,0,0,0,-1,1875,1653,0,0
658,-629,0,0,0,0,0,0,0,0,0,-1,1882,1653,0,0
665,-629,0,0,0,0,0,0,0,0,0,-1,1889,1653,0,0
672,-629,0,0,0,0,0,0,0,0,0,-1,1896,1653,0,0
679,-629,0,0,0,0,0,0,0,0,0,-1,1903,1653,0,0
686,-629,0,0,0,0,0,0,0,0,0,-1,1910,1653,0,0
693,-629,0,0,0,0,0,0,0,0,0,-1,1917,1653,0,0
700,-629,0,0,0,0,0,0,0,0,0,-1,1924,1653,0,0
707,-629,0,0,0,0,0,0,0,0,0,-1,1931,1653,0,0
714,-629,0,0,0,0,0,0,0,0,0,-1,1938,1653,0,0
721,-629,0,0,0,0,0,0,0,0,0,-1,1945,1653,0,0
728,-629,0,0,0,0,0,0,0,0,0,-1,1952,1653,0,0
735,-629,0,0,0,0,0,0,0,0,0,-1,1959,1653,0,0
742,-629,0,0,0,0,0,0,0,0,0,-1,1966,1653,0,0
749,-629,0,0,0,0,0,0,0,0,0,-1,1973,1653,0,0
756,-629,0,0,0,0,0,0,0,0,0,-1,1980,1653,0,0
763,-629,0,0,0,0,0,0,0,0,0,-1,1987,1653,0,0
770,-629,0,0,0,0,0,0,0,0,0,-1,1994,1653,0,0
777,-629,0,0,0,0,0,0,0,0,0,-1,2001,1653,0,0
784,-629,0,0,0,0,0,0,0,0,0,-1,2008,1653,0,0
791,-629,0,0,0,0,0,0,0,0,0,-1,2015,1653,0,0
798,-629,0,0,0,0,0,0,0,0,0,-1,2022,1653,0,0
805,-629,0,0,0,0,0,0,0,0,0,-1,2029,1653,0,0
812,-629,0,0,0,0,0,0,0,0,0,-1,2036,1653,0,0
-700,-636,0,0,0,0,0,0,0,0,0,-1,524,1660,0,0
-693,-636,0,0,0,0,0,0,0,0,0,-1,531,1660,0,0
-686,-636,0,0,0,0,0,0,0,0,0,-1,538,1660,0,0
-679,-636,0,0,0,0,0,0,0,0,0,-1,545,1660,0,0
-672,-636,0,0,0,0,0,0,0,0,0,-1,552,1660,0,0
-665,-636,0,0,0,0,0,0,0,0,0,-1,559,1660,0,0
-658,-636,0,0,0,0,0,0,0,0,0,-1,566,1660,0,0
-651,-636,0,0,0,0,0,0,0,0,0,-1,573,1660,0,0
-644,-636,0,0,0,0,0,0,0,0,0,-1,580,1660,0,0
-637,-636,0,0,0,0,0,0,0,0,0,-1,587,1660,0,0
-630,-636,0,0,0,0,0,0,0,0,0,-1,594,1660,0,0
-623,-636,0,0,0,0,0,0,0,0,0,-1,601,1660,0,0
-616,-636,0,0,0,0,0,0,0,0,0,-1,608,1660,0,0
-609,-636,0,0,0,0,0,0,0,0,0,-1,615,1660,0,0
-602,-636,0,0,0,0,0,0,0,0,0,-1,622,1660,0,0
-595,-636,0,0,0,0,0,0,0,0,0,-1,629,1660,0,0
-588,-636,0,0,0,0,0,0,0,0,0,-1,636,1660,0,0
-581,-636,0,0,0,0,0,0,0,0,0,-1,643,1660,0,0
-574,-636,0,0,0,0,0,0,0,0,0,-1,650,1660,0,0
-567,-636,0,0,0,0,0,0,0,0,0,-1,657,1660,0,0
-560,-636,0,0,0,0,0,0,0,0,0,-1,664,1660,0,0
-553,-636,0,0,0,0,0,0,0,0,0,-1,671,1660,0,0
-546,-636,0,0,0,0,0,0,0,0,0,-1,678,1660,0,0
-539,-636,0,0,0,0,0,0,0,0,0,-1,685,1660,0,0
-532,-636,0,0,0,0,0,0,0,0,0,-1,692,1660,0,0
-525,-636,0,0,0,0,0,0,0,0,0,-1,699,1660,0,0
-518,-636,0,0,0,0,0,0,0,0,0,-1,706,1660,0,0
-511,-636,0,0,0,0,0,0,0,0,0,-1,713,1660,0,0
-504,-636,0,0,0,0,0,0,0,0,0,-1,720,1660,0,0
-497,-636,0,0,0,0,0,0,0,0,0,-1,727,1660,0,0
-490,-636,0,0,0,0,0,0,0,0,0,-1,734,1660,0,0
-483,-636,0,0,0,0,0,0,0,0,0,-1,741,1660,0,0
-476,-636,0,0,0,0,0,0,0,0,0,-1,748,1660,0,0
-469,-636,0,0,0,0,0,0,0,0,0,-1,755,1660,0,0
-462,-636,0,0,0,0,0,0,0,0,0,-1,762,1660,0,0
-455,-636,0,0,0,0,0,0,0,0,0,-1,769,1660,0,0
-448,-636,0,0,0,0,0,0,0,0,0,-1,776,1660,0,0
-441,-636,0,0,0,0,0,0,0,0,0,-1,783,1660,0,0
-434,-636,0,0,0,0,0,0,0,0,0,-1,790,1660,0,0
-427,-636,0,0,0,0,0,0,0,0,0,-1,797,1660,0,0
-420,-636,0,0,0,0,0,0,0,0,0,-1,804,1660,0,0
-413,-636,0,0,0,0,0,0,0,0,0,-1,811,1660,0,0
-406,-636,-0.591125,10.6943,0,0,0,0,0,0,0,-1,818,1660,-0.59115,-10.6943
-399,-636,0.0766602,11.2408,0,0,0,0,0,0,0,-1,825,1660,0.076685,-11.2409
-392,-636,0.75946,11.9233,0,0,0,0,0,0,0,-1,832,1660,0.759481,-11.9233
-385,-636,1.68878,12.517,0,0,0,0,0,0,0,-1,839,1660,1.6888,-12.5169
-378,-636,2.22107,13.0013,0,0,0,0,0,0,0,-1,846,1660,2.22107,-13.0014
-371,-636,2.52185,11.9684,0,0,0,0,0,0,0,-1,853,1660,2.52184,-11.9684
-364,-636,0.864136,14.8948,0,0,0,0,0,0,0,-1,860,1660,0.86413,-14.8948
-357,-636,4.55682,15.8809,0,0,0,0,0,0,0,-1,867,1660,4.55681,-15.8808
-350,-636,2.63104,14.4946,0,0,0,0,0,0,0,-1,874,1660,2.63102,-14.4946
-343,-636,3.77679,17.0549,0,0,0,0,0,0,0,-1,881,1660,3.77676,-17.055
-336,-636,3.65369,17.2286,0.0123033,-0.0122761,-0.00272254,0.0126012,-0.0125741,-0.109005,0.014535,0.0344773,888,1660,3.6537,-17.2287
-329,-636,3.82202,17.4978,0.0111444,-0.0104347,-0.00269964,0.011477,-0.0107673,-0.122588,0.0128449,0.0187981,895,1660,3.82201,-17.4977
-322,-636,3.83093,17.8079,0.00975872,-0.00858983,-0.00234506,0.0100537,-0.0088848,-0.125127,0.0109411,0.0115454,902,1660,3.83091,-17.8079
-315,-636,3.78815,18.0912,0.00826708,-0.00687068,-0.00203747,0.00853652,-0.00714011,-0.131479,0.00906287,0.0122635,909,1660,3.78813,-18.0912
-308,-636,3.77936,18.3994,0.00683229,-0.00551821,-0.00186464,0.00710767,-0.00579359,-0.146624,0.00746141,0.0113245,916,1660,3.77934,-18.3994
-301,-636,3.79529,18.707,0.00550242,-0.00417632,-0.00162251,0.00576717,-0.00444107,-0.161747,0.00591028,0.0106658,923,1660,3.79527,-18.707
-294,-636,3.78186,19.0085,0.00438711,-0.00313317,-0.00137092,0.00462923,-0.00337529,-0.174808,0.00464028,0.0130788,930,1660,3.78184,-19.0085
-287,-636,3.76123,19.2789,0.00341033,-0.00233722,-0.00110321,0.00361481,-0.0025417,-0.18327,0.00357242,0.01201,937,1660,3.76121,-19.2789
-280,-636,3.76764,19.5613,0.002654,-0.00175929,-0.000899926,0.00283045,-0.00193575,-0.193617,0.00276788,0.0114997,944,1660,3.76766,-19.5613
-273,-636,3.75525,19.8298,0.00224382,-0.0013613,-0.000689372,0.00237115,-0.00148863,-0.182639,0.00224778,0.0119309,951,1660,3.75523,-19.8298
-266,-636,3.75104,20.1168,0.00210633,-0.00118493,-0.00048157,0.00217534,-0.00125395,-0.142343,0.00200358,0.0128698,958,1660,3.75101,-20.1168
-259,-636,3.7583,20.4199,0.00203192,-0.000963259,-0.000236399,0.00205046,-0.000981802,-0.0782807,0.00178655,0.0146308,965,1660,3.75832,-20.42
-252,-636,3.75525,20.6521,0.00227531,-0.000890203,4.82311e-06,0.00227531,-0.00089021,0.00152364,0.00188503,0.0113827,972,1660,3.75523,-20.6521
-245,-636,3.75977,20.9078,0.00279216,-0.000943719,0.000222821,0.00280541,-0.000956962,0.059363,0.0022579,0.0100947,979,1660,3.75978,-20.9078
-238,-636,3.77484,21.1644,0.00349258,-0.000987475,0.000419923,0.0035316,-0.0010265,0.0926561,0.00276093,0.0110487,986,1660,3.77482,-21.1644
-231,-636,3.77222,21.4114,0.00441957,-0.00105921,0.000818748,0.00453931,-0.00117895,0.145214,0.00348628,0.0104339,993,1660,3.77219,-21.4114
-224,-636,3.78119,21.651,0.00542771,-0.000975679,0.00127806,0.00567337,-0.00122134,0.189901,0.00424829,0.00843943,1000,1660,3.78121,-21.651
-217,-636,3.76965,21.9232,0.00643971,-0.000740671,0.00231002,0.00711867,-0.00141963,0.28587,0.00528296,0.0124274,1007,1660,3.76968,-21.9232
-210,-636,3.77985,22.1528,0.00732593,-0.000158586,0.00329747,0.00857143,-0.00140409,0.36115,0.00623524,0.0205144,1014,1660,3.77987,-22.1529
-203,-636,3.78772,22.4382,0.00827345,6.79218e-05,0.00405604,0.00993992,-0.00159855,0.389835,0.00721871,0.027929,1021,1660,3.78772,-22.4383
-196,-636,3.94238,22.6178,0.00928303,0.000437932,0.0048767,0.0114439,-0.00172292,0.417099,0.00826365,0.0303951,1028,1660,3.94244,-22.6177
-189,-636,3.95862,22.7964,0.010263,0.00111659,0.00588738,0.0131447,-0.00176509,0.455186,0.00940688,0.0303125,1035,1660,3.9586,-22.7964
-182,-636,4.25757,22.9663,0.0109558,0.00168214,0.00694919,0.0146731,-0.00203517,0.491197,0.0105262,0.0447158,1042,1660,4.25752,-22.9663
-175,-636,4.34973,23.4419,0,0,0,0,0,0,0,-1,1049,1660,4.34967,-23.4419
-168,-636,5.05798,23.5729,0,0,0,0,0,0,0,-1,1056,1660,5.058,-23.5729
-161,-636,4.46716,23.9067,0,0,0,0,0,0,0,-1,1063,1660,4.46714,-23.9068
-154,-636,4.41345,24.0493,0,0,0,0,0,0,0,-1,1070,1660,4.41346,-24.0494
-147,-636,3.30981,23.3022,0,0,0,0,0,0,0,-1,1077,1660,3.30983,-23.3022
-140,-636,4.10107,20.2935,0,0,0,0,0,0,0,-1,1084,1660,4.10111,-20.2934
-133,-636,4.68311,18.0922,0,0,0,0,0,0,0,-1,1091,1660,4.68316,-18.0921
-126,-636,3.79028,18.2225,0,0,0,0,0,0,0,-1,1098,1660,3.79025,-18.2226
-119,-636,1.8667,13.8916,0,0,0,0,0,0,0,-1,1105,1660,1.86668,-13.8916
-112,-636,-1.24963,9.7998,0,0,0,0,0,0,0,-1,1112,1660,-1.24968,-9.79978
-105,-636,3.51624,4.72791,0,0,0,0,0,0,0,-1,1119,1660,3.51618,-4.7279
-98,-636,1.54504,5.11914,0,0,0,0,0,0,0,-1,1126,1660,1.54503,-5.11912
-91,-636,-1.87964,-2.25012,0,0,0,0,0,0,0,-1,1133,1660,-1.87966,2.25016
-84,-636,-2.84143,0.133667,0,0,0,0,0,0,0,-1,1140,1660,-2.84144,-0.133701
-77,-636,-3.57349,2.45935,0,0,0,0,0,0,0,-1,1147,1660,-3.57345,-2.45939
-70,-636,-4.23682,4.82312,0,0,0,0,0,0,0,-1,1154,1660,-4.23681,-4.82307
-63,-636,-2.21033,6.97168,0,0,0,0,0,0,0,-1,1161,1660,-2.21034,-6.97165
-56,-636,-2.51917,8.80359,0,0,0,0,0,0,0,-1,1168,1660,-2.51916,-8.80361
-49,-636,-3.13,10.4113,0,0,0,0,0,0,0,-1,1175,1660,-3.12996,-10.4112
-42,-636,-2.27771,4.90173,0,0,0,0,0,0,0,-1,1182,1660,-2.27775,-4.90173
-35,-636,-2.27698,5.89685,0,0,0,0,0,0,0,-1,1189,1660,-2.27695,-5.89686
-28,-636,-1.70654,4.83936,0,0,0,0,0,0,0,-1,1196,1660,-1.70656,-4.8393
-21,-636,1.80078,23.11,0,0,0,0,0,0,0,-1,1203,1660,1.80073,-23.11
-14,-636,6.06653,35.6886,0,0,0,0,0,0,0,-1,1210,1660,6.06656,-35.6886
-7,-636,6.42151,35.4603,0,0,0,0,0,0,0,-1,1217,1660,6.42152,-35.4603
0,-636,6.73303,35.1873,0.00319714,0.161327,0.0389272,0.170391,-0.00586615,1.34204,0.115599,0.0421246,1224,1660,6.73302,-35.1872
7,-636,6.93982,34.6085,0.00944543,0.156862,0.0378064,0.165993,0.000315137,1.33383,0.110557,0.041984,1231,1660,6.93977,-34.6085
14,-636,6.96716,34.2122,0.0172429,0.144485,0.0350042,0.153479,0.00824901,1.3193,0.0996836,0.0420812,1238,1660,6.96715,-34.2122
21,-636,7.32617,34.2301,0.0248096,0.12859,0.0301782,0.136728,0.0166722,1.30742,0.086134,0.0423057,1245,1660,7.32623,-34.2301
28,-636,7.68079,34.53,0.0352283,0.112299,0.0263451,0.120444,0.0270835,1.27096,0.0729631,0.0453429,1252,1660,7.68083,-34.53
35,-636,7.19495,34.8069,0,0,0,0,0,0,0,-1,1259,1660,7.19497,-34.8068
42,-636,7.41931,35.1379,0,0,0,0,0,0,0,-1,1266,1660,7.41932,-35.1379
49,-636,6.40088,31.812,0.044989,0.0545416,0.0110559,0.0618088,0.0377218,0.989295,0.0359736,0.0469691,1273,1660,6.40089,-31.812
56,-636,6.71387,32.1079,0.033466,0.0431696,0.00396376,0.0445829,0.0320527,1.2283,0.0265498,0.0446975,1280,1660,6.71382,-32.1079
63,-636,7.05176,32.4148,0.0209388,0.0386318,-0.00342522,0.0392718,0.0202989,-1.38609,0.0226779,0.0434332,1287,1660,7.0518,-32.4148
70,-636,7.38562,32.8037,0,0,0,0,0,0,0,-1,1294,1660,7.38568,-32.8037
77,-636,3.72803,22.8187,0,0,0,0,0,0,0,-1,1301,1660,3.72809,-22.8188
84,-636,8.302,26.3674,0,0,0,0,0,0,0,-1,1308,1660,8.30199,-26.3675
91,-636,7.51086,26.4417,0,0,0,0,0,0,0,-1,1315,1660,7.51088,-26.4416
98,-636,5.93518,27.441,0,0,0,0,0,0,0,-1,1322,1660,5.93514,-27.441
105,-636,4.32703,27.5298,-0.0738069,0.095124,-0.026301,0.0991241,-0.077807,-1.41986,0.102398,0.0485633,1329,1660,4.32698,-27.5297
112,-636,3.53955,27.1284,-0.0885324,0.112532,-0.0267454,0.116029,-0.0920293,-1.44079,0.120389,0.0473954,1336,1660,3.53954,-27.1284
119,-636,2.68225,26.4666,0,0,0,0,0,0,0,-1,1343,1660,2.6823,-26.4665
126,-636,2.67188,27.2625,0,0,0,0,0,0,0,-1,1350,1660,2.67188,-27.2624
133,-636,10.2936,30.1536,0,0,0,0,0,0,0,-1,1357,1660,10.2936,-30.1536
140,-636,7.36914,29.9067,0,0,0,0,0,0,0,-1,1364,1660,7.36908,-29.9068
147,-636,6.77661,28.9088,0,0,0,0,0,0,0,-1,1371,1660,6.77666,-28.9088
154,-636,6.17761,27.8953,0,0,0,0,0,0,0,-1,1378,1660,6.17759,-27.8953
161,-636,10.2961,7.13025,0,0,0,0,0,0,0,-1,1385,1660,10.2961,-7.13021
168,-636,11.7659,5.83899,0,0,0,0,0,0,0,-1,1392,1660,11.7658,-5.83899
175,-636,5.94592,-1.72888,0,0,0,0,0,0,0,-1,1399,1660,5.94598,1.72886
182,-636,5.93994,-1.11938,0,0,0,0,0,0,0,-1,1406,1660,5.93998,1.11936
189,-636,5.32544,11.9595,0,0,0,0,0,0,0,-1,1413,1660,5.32542,-11.9595
196,-636,5.3623,9.38025,0,0,0,0,0,0,0,-1,1420,1660,5.36225,-9.38027
203,-636,5.18542,9.02429,0,0,0,0,0,0,0,-1,1427,1660,5.18547,-9.0243
210,-636,4.09167,7.17041,0,0,0,0,0,0,0,-1,1434,1660,4.09173,-7.17041
217,-636,2.94897,5.28992,0,0,0,0,0,0,0,-1,1441,1660,2.94899,-5.28991
224,-636,1.49194,3.63916,0,0,0,0,0,0,0,-1,1448,1660,1.49197,-3.63918
231,-636,0.17749,2.24854,0,0,0,0,0,0,0,-1,1455,1660,0.177501,-2.24855
238,-636,-0.764648,1.00598,0,0,0,0,0,0,0,-1,1462,1660,-0.764704,-1.00595
245,-636,6.21204,1.18005,0,0,0,0,0,0,0,-1,1469,1660,6.21206,-1.18001
252,-636,7.70251,0.865723,0,0,0,0,0,0,0,-1,1476,1660,7.7025,-0.865692
259,-636,9.03601,0.787231,0,0,0,0,0,0,0,-1,1483,1660,9.03598,-0.787243
266,-636,10.1071,3.24109,0,0,0,0,0,0,0,-1,1490,1660,10.1071,-3.24103
273,-636,8.48535,5.02466,0,0,0,0,0,0,0,-1,1497,1660,8.48533,-5.02472
280,-636,8.81384,5.66992,0,0,0,0,0,0,0,-1,1504,1660,8.81381,-5.66998
287,-636,6.08606,11.49,0,0,0,0,0,0,0,-1,1511,1660,6.08606,-11.49
294,-636,6.69592,15.9669,0,0,0,0,0,0,0,-1,1518,1660,6.69595,-15.9669
301,-636,8.25903,23.0582,0,0,0,0,0,0,0,-1,1525,1660,8.25903,-23.0583
308,-636,8.72522,24.3986,0,0,0,0,0,0,0,-1,1532,1660,8.72528,-24.3986
315,-636,8.45593,23.7875,0,0,0,0,0,0,0,-1,1539,1660,8.45588,-23.7874
322,-636,8.35864,23.2651,0,0,0,0,0,0,0,-1,1546,1660,8.35862,-23.2652
329,-636,8.56689,23.0691,-0.00107122,0.00747626,0.00577107,0.0103838,-0.00397871,1.10411,0.00856262,0.0274273,1553,1660,8.56693,-23.0691
336,-636,8.53198,22.9022,-0.000730396,0.00762414,0.00430604,0.00944617,-0.00255243,1.17051,0.00729858,0.0213383,1560,1660,8.53197,-22.9022
343,-636,8.49792,22.7651,-0.000278425,0.00773135,0.00276346,0.00859224,-0.00113932,1.2688,0.00614325,0.0208624,1567,1660,8.49789,-22.7651
350,-636,8.49841,22.5168,0.00016455,0.00756369,0.00163965,0.00791076,-0.000182517,1.3622,0.00533572,0.0120688,1574,1660,8.49843,-22.5169
357,-636,8.52844,22.2815,0.000499073,0.00689545,0.000739353,0.0069798,0.000414724,1.4572,0.0045213,0.0109461,1581,1660,8.52838,-22.2815
364,-636,8.54028,22.0658,0.000765353,0.00585821,7.68779e-05,0.00585937,0.000764193,1.55571,0.00367807,0.0117268,1588,1660,8.54029,-22.0657
371,-636,8.52698,21.8445,0.000899352,0.00490273,-0.000253393,0.0049187,0.000883378,-1.50784,0.00302794,0.0098545,1595,1660,8.52703,-21.8445
378,-636,8.54309,21.5984,0.00091667,0.00385502,-0.000360765,0.00389866,0.000873024,-1.4504,0.0023625,0.00993184,1602,1660,8.54315,-21.5984
385,-636,8.55542,21.3552,0.000961978,0.00289998,-0.000625791,0.00308449,0.000777473,-1.28408,0.00185238,0.015059,1609,1660,8.55538,-21.3552
392,-636,8.52905,21.1135,0.000953996,0.00172217,-0.000530649,0.00199315,0.000683017,-1.09866,0.00116958,0.0156996,1616,1660,8.52906,-21.1136
399,-636,8.51685,20.8842,0.000791656,0.000852549,-0.000181711,0.00100635,0.000637859,-0.868404,0.000587912,0.0119288,1623,1660,8.51689,-20.8842
406,-636,8.5387,20.6399,0.000507139,0.000216426,9.81794e-05,0.00053719,0.000186376,0.297025,0.000314953,0.0143463,1630,1660,8.53864,-20.6399
413,-636,8.53882,20.3851,0.000219592,-0.000368429,0.0003809,0.000406754,-0.000555592,0.456718,0.000557821,0.0229771,1637,1660,8.53878,-20.3851
420,-636,8.51758,20.1423,4.18848e-05,-0.000533365,0.000551297,0.000376077,-0.000867557,0.54496,0.000736465,0.0229915,1644,1660,8.51753,-20.1423
427,-636,8.50952,19.8904,-0.000113678,-0.000310288,0.000633598,0.000429197,-0.000853162,0.708435,0.000753737,0.0133843,1651,1660,8.50949,-19.8904
434,-636,8.50928,19.6141,-0.000107906,2.0392e-05,0.000613275,0.000572864,-0.000660378,0.837509,0.00071261,0.0109063,1658,1660,8.5093,-19.6142
441,-636,8.5304,19.3342,0.000328611,0.000411949,0.000403413,0.00077584,-3.52792e-05,0.836861,0.000529378,0.0113853,1665,1660,8.53034,-19.3342
448,-636,8.54272,19.0737,0.000641684,0.000941889,0.000151524,0.00100507,0.000578502,1.17574,0.000582484,0.0134391,1672,1660,8.54268,-19.0737
455,-636,8.51086,18.8043,0.00111271,0.00166079,-4.36691e-05,0.00166425,0.00110926,-1.49178,0.000978455,0.0141924,1679,1660,8.51083,-18.8043
462,-636,8.46985,18.5067,0.00183966,0.00214761,-0.000232613,0.00227259,0.00171468,-1.07776,0.00136757,0.0191737,1686,1660,8.46989,-18.5068
469,-636,8.4436,18.2021,0.00298535,0.00297618,-0.000623529,0.00360431,0.00235722,-0.781722,0.0021136,0.0291121,1693,1660,8.44366,-18.2021
476,-636,8.4353,18.0542,0.00471353,0.00402474,-0.0012717,0.00568664,0.00305163,-0.653162,0.00328612,0.0420094,1700,1660,8.43524,-18.0541
483,-636,8.39661,17.5714,0.00682772,0.00540729,-0.0024127,0.00863256,0.00360245,-0.642259,0.00500668,0.0488711,1707,1660,8.39666,-17.5714
490,-636,8.37329,17.0693,0,0,0,0,0,0,0,-1,1714,1660,8.37333,-17.0694
497,-636,8.91895,15.2521,0,0,0,0,0,0,0,-1,1721,1660,8.91892,-15.2521
504,-636,8.73218,14.8545,0,0,0,0,0,0,0,-1,1728,1660,8.73218,-14.8544
511,-636,5.65466,9.23218,0,0,0,0,0,0,0,-1,1735,1660,5.65461,-9.23216
518,-636,6.72791,1.07605,0,0,0,0,0,0,0,-1,1742,1660,6.7279,-1.0761
525,-636,7.04309,0.93335,0,0,0,0,0,0,0,-1,1749,1660,7.04308,-0.933298
532,-636,0,0,0,0,0,0,0,0,0,-1,1756,1660,0,0
539,-636,0,0,0,0,0,0,0,0,0,-1,1763,1660,0,0
546,-636,0,0,0,0,0,0,0,0,0,-1,1770,1660,0,0
553,-636,0,0,0,0,0,0,0,0,0,-1,1777,1660,0,0
560,-636,0,0,0,0,0,0,0,0,0,-1,1784,1660,0,0
567,-636,0,0,0,0,0,0,0,0,0,-1,1791,1660,0,0
574,-636,0,0,0,0,0,0,0,0,0,-1,1798,1660,0,0
581,-636,0,0,0,0,0,0,0,0,0,-1,1805,1660,0,0
588,-636,0,0,0,0,0,0,0,0,0,-1,1812,1660,0,0
595,-636,0,0,0,0,0,0,0,0,0,-1,1819,1660,0,0
602,-636,0,0,0,0,0,0,0,0,0,-1,1826,1660,0,0
609,-636,0,0,0,0,0,0,0,0,0,-1,1833,1660,0,0
616,-636,0,0,0,0,0,0,0,0,0,-1,1840,1660,0,0
623,-636,0,0,0,0,0,0,0,0,0,-1,1847,1660,0,0
630,-636,0,0,0,0,0,0,0,0,0,-1,1854,1660,0,0
637,-636,0,0,0,0,0,0,0,0,0,-1,1861,1660,0,0
644,-636,0,0,0,0,0,0,0,0,0,-1,1868,1660,0,0
651,-636,0,0,0,0,0,0,0,0,0,-1,1875,1660,0,0
658,-636,0,0,0,0,0,0,0,0,0,-1,1882,1660,0,0
665,-636,0,0,0,0,0,0,0,0,0,-1,1889,1660,0,0
672,-636,0,0,0,0,0,0,0,0,0,-1,1896,1660,0,0
679,-636,0,0,0,0,0,0,0,0,0,-1,1903,1660,0,0
686,-636,0,0,0,0,0,0,0,0,0,-1,1910,1660,0,0
693,-636,0,0,0,0,0,0,0,0,0,-1,1917,1660,0,0
700,-636,0,0,0,0,0,0,0,0,0,-1,1924,1660,0,0
707,-636,0,0,0,0,0,0,0,0,0,-1,1931,1660,0,0
714,-636,0,0,0,0,0,0,0,0,0,-1,1938,1660,0,0
721,-636,0,0,0,0,0,0,0,0,0,-1,1945,1660,0,0
728,-636,0,0,0,0,0,0,0,0,0,-1,1952,1660,0,0
735,-636,0,0,0,0,0,0,0,0,0,-1,1959,1660,0,0
742,-636,0,0,0,0,0,0,0,0,0,-1,1966,1660,0,0
749,-636,0,0,0,0,0,0,0,0,0,-1,1973,1660,0,0
756,-636,0,0,0,0,0,0,0,0,0,-1,1980,1660,0,0
763,-636,0,0,0,0,0,0,0,0,0,-1,1987,1660,0,0
770,-636,0,0,0,0,0,0,0,0,0,-1,1994,1660,0,0
777,-636,0,0,0,0,0,0,0,0,0,-1,2001,1660,0,0
784,-636,0,0,0,0,0,0,0,0,0,-1,2008,1660,0,0
791,-636,0,0,0,0,0,0,0,0,0,-1,2015,1660,0,0
798,-636,0,0,0,0,0,0,0,0,0,-1,2022,1660,0,0
805,-636,0,0,0,0,0,0,0,0,0,-1,2029,1660,0,0
812,-636,0,0,0,0,0,0,0,0,0,-1,2036,1660,0,0
-700,-643,0,0,0,0,0,0,0,0,0,-1,524,1667,0,0
-693,-643,0,0,0,0,0,0,0,0,0,-1,531,1667,0,0
-686,-643,0,0,0,0,0,0,0,0,0,-1,538,1667,0,0
-679,-643,0,0,0,0,0,0,0,0,0,-1,545,1667,0,0
-672,-643,0,0,0,0,0,0,0,0,0,-1,552,1667,0,0
-665,-643,0,0,0,0,0,0,0,0,0,-1,559,1667,0,0
-658,-643,0,0,0,0,0,0,0,0,0,-1,566,1667,0,0
-651,-643,0,0,0,0,0,0,0,0,0,-1,573,1667,0,0
-644,-643,0,0,0,0,0,0,0,0,0,-1,580,1667,0,0
-637,-643,0,0,0,0,0,0,0,0,0,-1,587,1667,0,0
-630,-643,0,0,0,0,0,0,0,0,0,-1,594,1667,0,0
-623,-643,0,0,0,0,0,0,0,0,0,-1,601,1667,0,0
-616,-643,0,0,0,0,0,0,0,0,0,-1,608,1667,0,0
-609,-643,0,0,0,0,0,0,0,0,0,-1,615,1667,0,0
-602,-643,0,0,0,0,0,0,0,0,0,-1,622,1667,0,0
-595,-643,0,0,0,0,0,0,0,0,0,-1,629,1667,0,0
-588,-643,0,0,0,0,0,0,0,0,0,-1,636,1667,0,0
-581,-643,0,0,0,0,0,0,0,0,0,-1,643,1667,0,0
-574,-643,0,0,0,0,0,0,0,0,0,-1,650,1667,0,0
-567,-643,0,0,0,0,0,0,0,0,0,-1,657,1667,0,0
-560,-643,0,0,0,0,0,0,0,0,0,-1,664,1667,0,0
-553,-643,0,0,0,0,0,0,0,0,0,-1,671,1667,0,0
-546,-643,0,0,0,0,0,0,0,0,0,-1,678,1667,0,0
-539,-643,0,0,0,0,0,0,0,0,0,-1,685,1667,0,0
-532,-643,0,0,0,0,0,0,0,0,0,-1,692,1667,0,0
-525,-643,0,0,0,0,0,0,0,0,0,-1,699,1667,0,0
-518,-643,0,0,0,0,0,0,0,0,0,-1,706,1667,0,0
-511,-643,0,0,0,0,0,0,0,0,0,-1,713,1667,0,0
-504,-643,0,0,0,0,0,0,0,0,0,-1,720,1667,0,0
-497,-643,0,0,0,0,0,0,0,0,0,-1,727,1667,0,0
-490,-643,0,0,0,0,0,0,0,0,0,-1,734,1667,0,0
-483,-643,0,0,0,0,0,0,0,0,0,-1,741,1667,0,0
-476,-643,0,0,0,0,0,0,0,0,0,-1,748,1667,0,0
-469,-643,0,0,0,0,0,0,0,0,0,-1,755,1667,0,0
-462,-643,0,0,0,0,0,0,0,0,0,-1,762,1667,0,0
-455,-643,0,0,0,0,0,0,0,0,0,-1,769,1667,0,0
-448,-643,0,0,0,0,0,0,0,0,0,-1,776,1667,0,0
-441,-643,0,0,0,0,0,0,0,0,0,-1,783,1667,0,0
-434,-643,0,0,0,0,0,0,0,0,0,-1,790,1667,0,0
-427,-643,0,0,0,0,0,0,0,0,0,-1,797,1667,0,0
-420,-643,0,0,0,0,0,0,0,0,0,-1,804,1667,0,0
-413,-643,0,0,0,0,0,0,0,0,0,-1,811,1667,0,0
-406,-643,0,0,0,0,0,0,0,0,0,-1,818,1667,0,0
-399,-643,0.589417,11.6465,0,0,0,0,0,0,0,-1,825,1667,0.58939,-11.6465
-392,-643,0.865295,12.6523,0,0,0,0,0,0,0,-1,832,1667,0.865315,-12.6523
-385,-643,1.72968,13.2692,0,0,0,0,0,0,0,-1,839,1667,1.72967,-13.2692
-378,-643,2.66522,13.8193,0,0,0,0,0,0,0,-1,846,1667,2.66524,-13.8193
-371,-643,0.466125,3.35095,0,0,0,0,0,0,0,-1,853,1667,0.466148,-3.351
-364,-643,1.69513,9.922,0,0,0,0,0,0,0,-1,860,1667,1.69511,-9.92205
-357,-643,1.14227,10.8429,0,0,0,0,0,0,0,-1,867,1667,1.14228,-10.8429
-350,-643,2.50061,9.96948,0,0,0,0,0,0,0,-1,874,1667,2.50059,-9.96954
-343,-643,2.61505,6.17407,0,0,0,0,0,0,0,-1,881,1667,2.61504,-6.17412
-336,-643,3.71423,17.3414,0,0,0,0,0,0,0,-1,888,1667,3.71424,-17.3415
-329,-643,4.12708,17.5933,0.0179467,-0.0160578,-0.00526363,0.0187428,-0.0168539,-0.150113,0.0205615,0.0398277,895,1667,4.12706,-17.5932
-322,-643,4.12445,17.8286,0.0155382,-0.0133151,-0.00469354,0.0162825,-0.0140594,-0.157269,0.0175336,0.0262236,902,1667,4.12445,-17.8287
-315,-643,4.0672,18.0958,0.0130378,-0.0107952,-0.00406665,0.0137126,-0.01147,-0.164435,0.0145584,0.0167853,909,1667,4.06717,-18.0958
-308,-643,4.06659,18.3922,0.0106157,-0.0086491,-0.00348964,0.0112283,-0.00926173,-0.173787,0.0118481,0.0126984,916,1667,4.06658,-18.3922
-301,-643,4.08325,18.7032,0.00837363,-0.006572,-0.00285037,0.00889878,-0.00709716,-0.182199,0.00925477,0.0143017,923,1667,4.08324,-18.7032
-294,-643,4.05804,18.9872,0.00645284,-0.00486143,-0.00221835,0.00687223,-0.00528083,-0.186853,0.0070366,0.0118917,930,1667,4.05807,-18.9872
-287,-643,4.0387,19.2642,0.00476882,-0.00349439,-0.0016151,0.00507328,-0.00379885,-0.186325,0.00513992,0.00978891,937,1667,4.03869,-19.2641
-280,-643,4.02643,19.5576,0.00341074,-0.00242365,-0.00113203,0.00362268,-0.0026356,-0.185083,0.00362817,0.0134111,944,1667,4.02642,-19.5576
-273,-643,4.02026,19.8387,0.00252053,-0.00160062,-0.000694804,0.00263451,-0.00171461,-0.162608,0.00252962,0.012274,951,1667,4.02026,-19.8387
-266,-643,4.00824,20.093,0.00199405,-0.00106177,-0.000346692,0.00203289,-0.00110061,-0.111564,0.00183562,0.0112159,958,1667,4.00821,-20.093
-259,-643,4.01251,20.3706,0.00150286,-0.000482502,-3.38788e-06,0.00150287,-0.000482507,-0.00170642,0.00119565,0.010553,965,1667,4.01249,-20.3706
-252,-643,4.01123,20.6465,0.00142519,-0.00017899,0.000309655,0.00148289,-0.000236688,0.184216,0.0010762,0.0126172,972,1667,4.01126,-20.6465
-245,-643,4.01495,20.9104,0.00175358,-0.000149455,0.000531119,0.00189177,-0.000287649,0.254551,0.00136719,0.0120172,979,1667,4.01495,-20.9104
-238,-643,4.04779,21.1587,0.00234123,-0.000185686,0.0006216,0.00248586,-0.000330316,0.228607,0.00177761,0.0148788,986,1667,4.04777,-21.1587
-231,-643,4.02466,21.415,0.00311739,-0.000267108,0.000882915,0.00333387,-0.000483588,0.240444,0.00240007,0.0112394,993,1667,4.02467,-21.4151
-224,-643,4.02032,21.6368,0.00399761,-0.000228203,0.00119444,0.00431186,-0.000542445,0.257259,0.00307139,0.00898104,1000,1667,4.0203,-21.6369
-217,-643,4.01746,21.8446,0.00484128,-0.000108723,0.00187606,0.00547195,-0.000739397,0.324302,0.00391776,0.00795622,1007,1667,4.01747,-21.8447
-210,-643,4.01642,22.1029,0.00557142,0.000189012,0.00251408,0.00656304,-0.000802604,0.375692,0.00466596,0.010421,1014,1667,4.01642,-22.1029
-203,-643,4.01587,22.3969,0.00635791,0.000342163,0.00310017,0.00766957,-0.000969495,0.400254,0.00546495,0.0132207,1021,1667,4.01592,-22.3968
-196,-643,4.03394,22.6263,0.00714206,0.000566837,0.00373846,0.00883285,-0.00112396,0.424739,0.00629674,0.0128669,1028,1667,4.03393,-22.6264
-189,-643,4.13342,22.8196,0.0078537,0.00101691,0.00449511,0.0100826,-0.00121195,0.460314,0.00715996,0.0142472,1035,1667,4.13339,-22.8196
-182,-643,4.19495,23.0211,0.00838466,0.00158703,0.00531353,0.0112934,-0.00132174,0.500865,0.00800598,0.0229255,1042,1667,4.19498,-23.0212
-175,-643,4.3363,23.2908,0.00871249,0.00232308,0.00625349,0.0125401,-0.00150448,0.549246,0.008904,0.0350009,1049,1667,4.33626,-23.2908
-168,-643,4.73511,23.5278,0.00876311,0.00326661,0.00718476,0.0137073,-0.00167758,0.602729,0.00974564,0.0379451,1056,1667,4.73515,-23.5278
-161,-643,4.41467,23.7869,0.00861681,0.00456349,0.00792349,0.0147687,-0.00158842,0.660193,0.0104157,0.0433387,1063,1667,4.41472,-23.7868
-154,-643,4.43762,23.795,0.00836249,0.00556647,0.00854047,0.0156186,-0.00168966,0.704272,0.0110189,0.0479287,1070,1667,4.4376,-23.795
-147,-643,4.37708,23.8308,0,0,0,0,0,0,0,-1,1077,1667,4.37706,-23.8308
-140,-643,4.30322,22.9166,0,0,0,0,0,0,0,-1,1084,1667,4.30327,-22.9167
-133,-643,3.66748,21.6034,0,0,0,0,0,0,0,-1,1091,1667,3.66743,-21.6034
-126,-643,3.13904,17.689,0,0,0,0,0,0,0,-1,1098,1667,3.13909,-17.689
-119,-643,3.76282,14.1458,0,0,0,0,0,0,0,-1,1105,1667,3.76283,-14.1458
-112,-643,3.81458,16.2069,0,0,0,0,0,0,0,-1,1112,1667,3.81463,-16.2069
-105,-643,-2.23413,10.0996,0,0,0,0,0,0,0,-1,1119,1667,-2.23415,-10.0996
-98,-643,3.11035,4.68066,0,0,0,0,0,0,0,-1,1126,1667,3.11041,-4.68071
-91,-643,-1.74146,-2.5885,0,0,0,0,0,0,0,-1,1133,1667,-1.74146,2.58856
-84,-643,-3.07446,-0.199341,0,0,0,0,0,0,0,-1,1140,1667,-3.07449,0.199383
-77,-643,-3.63794,2.81165,0,0,0,0,0,0,0,-1,1147,1667,-3.63791,-2.8117
-70,-643,-3.36938,4.45203,0,0,0,0,0,0,0,-1,1154,1667,-3.36941,-4.452
-63,-643,-3.67822,6.26855,0,0,0,0,0,0,0,-1,1161,1667,-3.67823,-6.26856
-56,-643,-3.95142,8.1073,0,0,0,0,0,0,0,-1,1168,1667,-3.95139,-8.10732
-49,-643,-4.23535,9.90552,0,0,0,0,0,0,0,-1,1175,1667,-4.23537,-9.90557
-42,-643,-4.25195,10.7059,0,0,0,0,0,0,0,-1,1182,1667,-4.25192,-10.706
-35,-643,-4.10986,11.6588,0,0,0,0,0,0,0,-1,1189,1667,-4.10982,-11.6589
-28,-643,-1.38513,5.604,0,0,0,0,0,0,0,-1,1196,1667,-1.3851,-5.60403
-21,-643,1.61011,23.1276,0,0,0,0,0,0,0,-1,1203,1667,1.61011,-23.1275
-14,-643,1.96753,24.4852,0,0,0,0,0,0,0,-1,1210,1667,1.96749,-24.4852
-7,-643,7.00183,33.4347,0,0,0,0,0,0,0,-1,1217,1667,7.00181,-33.4347
0,-643,6.4115,33.8132,-0.000228482,0.161437,0.0322987,0.167651,-0.0064425,1.38073,0.113976,0.0451483,1224,1667,6.41151,-33.8133
7,-643,6.47864,33.5061,0.00569058,0.159339,0.0304511,0.165154,-0.00012435,1.38211,0.110144,0.04129,1231,1667,6.47862,-33.5062
14,-643,6.53955,33.4054,0.0131482,0.150061,0.02755,0.155397,0.00781243,1.37949,0.101094,0.0413362,1238,1667,6.53959,-33.4054
21,-643,6.55042,33.413,0.0220094,0.139018,0.0245436,0.143958,0.0170697,1.37219,0.0908184,0.0431995,1245,1667,6.55036,-33.4129
28,-643,6.63586,33.4415,0.0331084,0.126053,0.0217276,0.130881,0.02828,1.35212,0.0795216,0.0448951,1252,1667,6.63585,-33.4415
35,-643,6.7771,33.5553,0.0412821,0.109912,0.0179976,0.114346,0.0368488,1.32928,0.0673935,0.0445463,1259,1667,6.77712,-33.5553
42,-643,6.98694,33.8701,0.0459578,0.0926564,0.0145334,0.09681,0.0418042,1.29242,0.0560662,0.0458705,1266,1667,6.98696,-33.8701
49,-643,7.16797,34.1729,0,0,0,0,0,0,0,-1,1273,1667,7.168,-34.1729
56,-643,7.25696,32.4824,0.0392538,0.0636295,0.00586738,0.0649683,0.037915,1.34646,0.0376838,0.0441493,1280,1667,7.25693,-32.4825
63,-643,7.85596,32.5551,0.0305831,0.055574,0.000523896,0.055585,0.0305722,1.54985,0.0321455,0.0439954,1287,1667,7.85601,-32.5551
70,-643,8.33948,32.928,0.0188146,0.0481533,-0.00308689,0.0484746,0.0184934,-1.46709,0.0282476,0.0464789,1294,1667,8.3395,-32.928
77,-643,9.01355,33.317,0,0,0,0,0,0,0,-1,1301,1667,9.01355,-33.317
84,-643,8.30786,26.5042,-0.0121708,0.0558355,-0.010641,0.0574616,-0.013797,-1.41915,0.0436399,0.0480162,1308,1667,8.30784,-26.5042
91,-643,7.51636,26.4452,-0.0286762,0.0625135,-0.0125228,0.0642019,-0.0303647,-1.43677,0.0557509,0.0489044,1315,1667,7.5163,-26.4452
98,-643,6.39197,26.9247,-0.0452456,0.0698109,-0.0136606,0.0714106,-0.0468453,-1.45423,0.0687644,0.0469038,1322,1667,6.39197,-26.9246
105,-643,5.04675,27.0039,-0.0619785,0.0814554,-0.0138934,0.0827887,-0.0633118,-1.47512,0.0846007,0.0448771,1329,1667,5.04671,-27.0039
112,-643,3.90881,26.7798,-0.0770834,0.0947852,-0.0135817,0.0958518,-0.0781501,-1.49242,0.100633,0.0491598,1336,1667,3.90883,-26.7797
119,-643,2.79944,26.5341,0,0,0,0,0,0,0,-1,1343,1667,2.79939,-26.5341
126,-643,9.49915,29.0029,-0.0950784,0.11565,-0.0117027,0.116298,-0.0957263,-1.51549,0.122604,0.0469927,1350,1667,9.49916,-29.003
133,-643,9.23267,28.7653,-0.0956142,0.125841,-0.010618,0.126349,-0.0961221,-1.523,0.128838,0.0486421,1357,1667,9.2327,-28.7653
140,-643,8.55811,28.9022,0,0,0,0,0,0,0,-1,1364,1667,8.55805,-28.9023
147,-643,6.7854,28.0486,-0.0945061,0.133125,-0.0152866,0.134147,-0.0955281,-1.50404,0.133226,0.0412881,1371,1667,6.78544,-28.0486
154,-643,6.14673,27.1798,0,0,0,0,0,0,0,-1,1378,1667,6.14669,-27.1798
161,-643,5.57935,26.2754,0,0,0,0,0,0,0,-1,1385,1667,5.57931,-26.2754
168,-643,10.5563,10.9818,0,0,0,0,0,0,0,-1,1392,1667,10.5562,-10.9819
175,-643,5.88525,-1.1698,0,0,0,0,0,0,0,-1,1399,1667,5.88526,1.16977
182,-643,5.80945,-0.418701,0,0,0,0,0,0,0,-1,1406,1667,5.80949,0.418712
189,-643,5.42297,12.9208,0,0,0,0,0,0,0,-1,1413,1667,5.42298,-12.9208
196,-643,5.51953,11.2415,0,0,0,0,0,0,0,-1,1420,1667,5.51948,-11.2414
203,-643,5.60828,9.82153,0,0,0,0,0,0,0,-1,1427,1667,5.60833,-9.82148
210,-643,4.73218,7.58728,0,0,0,0,0,0,0,-1,1434,1667,4.73222,-7.58728
217,-643,3.8031,5.28955,0,0,0,0,0,0,0,-1,1441,1667,3.80305,-5.28955
224,-643,2.96436,2.97095,0,0,0,0,0,0,0,-1,1448,1667,2.96432,-2.97095
231,-643,2.13403,1.08472,0,0,0,0,0,0,0,-1,1455,1667,2.13403,-1.08467
238,-643,1.18152,-0.261963,0,0,0,0,0,0,0,-1,1462,1667,1.18152,0.26192
245,-643,-0.157471,-1.79016,0,0,0,0,0,0,0,-1,1469,1667,-0.157517,1.7901
252,-643,8.08789,0.0202637,0,0,0,0,0,0,0,-1,1476,1667,8.08791,-0.0203056
259,-643,9.02979,-0.46936,0,0,0,0,0,0,0,-1,1483,1667,9.02974,0.46933
266,-643,4.55066,5.17554,0,0,0,0,0,0,0,-1,1490,1667,4.55063,-5.17556
273,-643,4.34363,6.56836,0,0,0,0,0,0,0,-1,1497,1667,4.34363,-6.5684
280,-643,5.75854,14.5217,0,0,0,0,0,0,0,-1,1504,1667,5.75854,-14.5218
287,-643,6.81299,21.0212,0,0,0,0,0,0,0,-1,1511,1667,6.81297,-21.0212
294,-643,7.63232,24.1489,0,0,0,0,0,0,0,-1,1518,1667,7.63234,-24.149
301,-643,8.38806,24.0145,0,0,0,0,0,0,0,-1,1525,1667,8.388,-24.0145
308,-643,8.29712,23.8522,0.000399799,0.00315614,0.00564064,0.00758453,-0.00402859,0.905215,0.00680881,0.0432267,1532,1667,8.29715,-23.8521
315,-643,8.20911,23.5793,-0.000246809,0.0036941,0.0056435,0.00770125,-0.00425397,0.953359,0.00699735,0.0419887,1539,1667,8.20912,-23.5793
322,-643,8.23486,23.3159,-0.000350207,0.00450981,0.0050258,0.00766224,-0.00350264,1.01058,0.00659348,0.0220171,1546,1667,8.23484,-23.3159
329,-643,8.25464,23.0952,-0.000284291,0.00513847,0.0042961,0.00750725,-0.00265308,1.06689,0.00608514,0.012468,1553,1667,8.25463,-23.0952
336,-643,8.23254,22.943,-0.000226534,0.00525113,0.00338949,0.00687003,-0.00184543,1.12521,0.00530329,0.0107949,1560,1667,8.23252,-22.943
343,-643,8.24829,22.7789,-6.9363e-05,0.00534309,0.00235029,0.00622121,-0.000947484,1.21323,0.0044967,0.0128919,1567,1667,8.24834,-22.7789
350,-643,8.2782,22.5095,0.000119001,0.00521678,0.0015597,0.00565612,-0.000320337,1.29623,0.00388194,0.0127502,1574,1667,8.2782,-22.5095
357,-643,8.28137,22.2898,0.000299941,0.00487905,0.000828947,0.00502449,0.000154498,1.39711,0.00329937,0.0112709,1581,1667,8.28136,-22.2898
364,-643,8.29248,22.079,0.000451233,0.00412676,0.00026108,0.00414522,0.000432781,1.50024,0.00263111,0.0100599,1588,1667,8.29247,-22.0789
371,-643,8.29626,21.8663,0.000490728,0.00337817,-3.99238e-05,0.00337872,0.000490176,-1.55697,0.00210817,0.00805522,1595,1667,8.29622,-21.8663
378,-643,8.31812,21.6384,0.00047527,0.00252875,-0.000138497,0.00253805,0.000465972,-1.50376,0.00156008,0.0100571,1602,1667,8.3181,-21.6384
385,-643,8.33105,21.384,0.000533586,0.00181613,-0.000371871,0.00191616,0.000433564,-1.30804,0.00116024,0.0158711,1609,1667,8.33109,-21.384
392,-643,8.28186,21.1362,0.000503207,0.000863838,-0.000297871,0.00103172,0.000335326,-1.05757,0.000607701,0.0164686,1616,1667,8.2818,-21.1362
399,-643,8.25793,20.9036,0.000341784,0.000108867,-1.60442e-05,0.000342884,0.000107767,-0.0684528,0.000202464,0.0142488,1623,1667,8.25794,-20.9035
406,-643,8.29846,20.6609,0.000104939,-0.000402621,0.000220956,0.00018765,-0.000485332,0.358183,0.000401017,0.0125845,1630,1667,8.29843,-20.6608
413,-643,8.31958,20.3999,-0.000131808,-0.000833877,0.000473591,0.00010666,-0.00107234,0.466469,0.000752972,0.0180573,1637,1667,8.31955,-20.3998
420,-643,8.28601,20.1624,-0.000271825,-0.000925241,0.000669927,0.000146813,-0.00134388,0.558528,0.000948651,0.0175408,1644,1667,8.28597,-20.1623
427,-643,8.28308,19.91,-0.000350955,-0.000536519,0.000755988,0.000317923,-0.0012054,0.724339,0.000927908,0.0147694,1651,1667,8.2831,-19.91
434,-643,8.27869,19.6368,-0.000279974,-6.02737e-05,0.000783001,0.000620545,-0.000960793,0.85509,0.000920003,0.0151379,1658,1667,8.27874,-19.6368
441,-643,8.27588,19.3523,0.000232409,0.000434732,0.000592477,0.000934622,-0.000267481,0.869954,0.000728792,0.0155472,1665,1667,8.27584,-19.3523
448,-643,8.20544,19.0636,0.000628859,0.00115838,0.000348615,0.00133138,0.000455864,1.11016,0.000781297,0.0215941,1672,1667,8.20549,-19.0636
455,-643,8.11682,18.7363,0.00123502,0.00222249,0.000198872,0.00226104,0.00119647,1.37934,0.00130615,0.0306984,1679,1667,8.11688,-18.7364
462,-643,7.95361,18.5408,0.00212354,0.00304677,5.98112e-05,0.00305063,0.00211969,1.50637,0.0018053,0.0437634,1686,1667,7.95363,-18.5407
469,-643,7.94788,18.1891,0.00352345,0.0044051,-0.000348692,0.00452634,0.00340221,-1.23618,0.00272137,0.0481311,1693,1667,7.94789,-18.189
476,-643,8.04773,17.7305,0.00572386,0.00587845,-0.00105184,0.00685583,0.00474648,-0.822075,0.00405465,0.049062,1700,1667,8.04769,-17.7305
483,-643,8.23657,17.451,0,0,0,0,0,0,0,-1,1707,1667,8.23658,-17.451
490,-643,7.37793,16.0599,0,0,0,0,0,0,0,-1,1714,1667,7.37788,-16.0599
497,-643,7.80237,15.9058,0,0,0,0,0,0,0,-1,1721,1667,7.80238,-15.9057
504,-643,7.45313,15.6337,0,0,0,0,0,0,0,-1,1728,1667,7.45312,-15.6336
511,-643,7.15686,15.3853,0,0,0,0,0,0,0,-1,1735,1667,7.15681,-15.3853
518,-643,7.40564,0.922607,0,0,0,0,0,0,0,-1,1742,1667,7.4057,-0.922598
525,-643,0,0,0,0,0,0,0,0,0,-1,1749,1667,0,0
532,-643,0,0,0,0,0,0,0,0,0,-1,1756,1667,0,0
539,-643,0,0,0,0,0,0,0,0,0,-1,1763,1667,0,0
546,-643,0,0,0,0,0,0,0,0,0,-1,1770,1667,0,0
553,-643,0,0,0,0,0,0,0,0,0,-1,1777,1667,0,0
560,-643,0,0,0,0,0,0,0,0,0,-1,1784,1667,0,0
567,-643,0,0,0,0,0,0,0,0,0,-1,1791,1667,0,0
574,-643,0,0,0,0,0,0,0,0,0,-1,1798,1667,0,0
581,-643,0,0,0,0,0,0,0,0,0,-1,1805,1667,0,0
588,-643,0,0,0,0,0,0,0,0,0,-1,1812,1667,0,0
595,-643,0,0,0,0,0,0,0,0,0,-1,1819,1667,0,0
602,-643,0,0,0,0,0,0,0,0,0,-1,1826,1667,0,0
609,-643,0,0,0,0,0,0,0,0,0,-1,1833,1667,0,0
616,-643,0,0,0,0,0,0,0,0,0,-1,1840,1667,0,0
623,-643,0,0,0,0,0,0,0,0,0,-1,1847,1667,0,0
630,-643,0,0,0,0,0,0,0,0,0,-1,1854,1667,0,0
637,-643,0,0,0,0,0,0,0,0,0,-1,1861,1667,0,0
644,-643,0,0,0,0,0,0,0,0,0,-1,1868,1667,0,0
651,-643,0,0,0,0,0,0,0,0,0,-1,1875,1667,0,0
658,-643,0,0,0,0,0,0,0,0,0,-1,1882,1667,0,0
665,-643,0,0,0,0,0,0,0,0,0,-1,1889,1667,0,0
672,-643,0,0,0,0,0,0,0,0,0,-1,1896,1667,0,0
679,-643,0,0,0,0,0,0,0,0,0,-1,1903,1667,0,0
686,-643,0,0,0,0,0,0,0,0,0,-1,1910,1667,0,0
693,-643,0,0,0,0,0,0,0,0,0,-1,1917,1667,0,0
700,-643,0,0,0,0,0,0,0,0,0,-1,1924,1667,0,0
707,-643,0,0,0,0,0,0,0,0,0,-1,1931,1667,0,0
714,-643,0,0,0,0,0,0,0,0,0,-1,1938,1667,0,0
721,-643,0,0,0,0,0,0,0,0,0,-1,1945,1667,0,0
728,-643,0,0,0,0,0,0,0,0,0,-1,1952,1667,0,0
735,-643,0,0,0,0,0,0,0,0,0,-1,1959,1667,0,0
742,-643,0,0,0,0,0,0,0,0,0,-1,1966,1667,0,0
749,-643,0,0,0,0,0,0,0,0,0,-1,1973,1667,0,0
756,-643,0,0,0,0,0,0,0,0,0,-1,1980,1667,0,0
763,-643,0,0,0,0,0,0,0,0,0,-1,1987,1667,0,0
770,-643,0,0,0,0,0,0,0,0,0,-1,1994,1667,0,0
777,-643,0,0,0,0,0,0,0,0,0,-1,2001,1667,0,0
784,-643,0,0,0,0,0,0,0,0,0,-1,2008,1667,0,0
791,-643,0,0,0,0,0,0,0,0,0,-1,2015,1667,0,0
798,-643,0,0,0,0,0,0,0,0,0,-1,2022,1667,0,0
805,-643,0,0,0,0,0,0,0,0,0,-1,2029,1667,0,0
812,-643,0,0,0,0,0,0,0,0,0,-1,2036,1667,0,0
-700,-650,0,0,0,0,0,0,0,0,0,-1,524,1674,0,0
-693,-650,0,0,0,0,0,0,0,0,0,-1,531,1674,0,0
-686,-650,0,0,0,0,0,0,0,0,0,-1,538,1674,0,0
-679,-650,0,0,0,0,0,0,0,0,0,-1,545,1674,0,0
-672,-650,0,0,0,0,0,0,0,0,0,-1,552,1674,0,0
-665,-650,0,0,0,0,0,0,0,0,0,-1,559,1674,0,0
-658,-650,0,0,0,0,0,0,0,0,0,-1,566,1674,0,0
-651,-650,0,0,0,0,0,0,0,0,0,-1,573,1674,0,0
-644,-650,0,0,0,0,0,0,0,0,0,-1,580,1674,0,0
-637,-650,0,0,0,0,0,0,0,0,0,-1,587,1674,0,0
-630,-650,0,0,0,0,0,0,0,0,0,-1,594,1674,0,0
-623,-650,0,0,0,0,0,0,0,0,0,-1,601,1674,0,0
-616,-650,0,0,0,0,0,0,0,0,0,-1,608,1674,0,0
-609,-650,0,0,0,0,0,0,0,0,0,-1,615,1674,0,0
-602,-650,0,0,0,0,0,0,0,0,0,-1,622,1674,0,0
-595,-650,0,0,0,0,0,0,0,0,0,-1,629,1674,0,0
-588,-650,0,0,0,0,0,0,0,0,0,-1,636,1674,0,0
-581,-650,0,0,0,0,0,0,0,0,0,-1,643,1674,0,0
-574,-650,0,0,0,0,0,0,0,0,0,-1,650,1674,0,0
-567,-650,0,0,0,0,0,0,0,0,0,-1,657,1674,0,0
-560,-650,0,0,0,0,0,0,0,0,0,-1,664,1674,0,0
-553,-650,0,0,0,0,0,0,0,0,0,-1,671,1674,0,0
-546,-650,0,0,0,0,0,0,0,0,0,-1,678,1674,0,0
-539,-650,0,0,0,0,0,0,0,0,0,-1,685,1674,0,0
-532,-650,0,0,0,0,0,0,0,0,0,-1,692,1674,0,0
-525,-650,0,0,0,0,0,0,0,0,0,-1,699,1674,0,0
-518,-650,0,0,0,0,0,0,0,0,0,-1,706,1674,0,0
-511,-650,0,0,0,0,0,0,0,0,0,-1,713,1674,0,0
-504,-650,0,0,0,0,0,0,0,0,0,-1,720,1674,0,0
-497,-650,0,0,0,0,0,0,0,0,0,-1,727,1674,0,0
-490,-650,0,0,0,0,0,0,0,0,0,-1,734,1674,0,0
-483,-650,0,0,0,0,0,0,0,0,0,-1,741,1674,0,0
-476,-650,0,0,0,0,0,0,0,0,0,-1,748,1674,0,0
-469,-650,0,0,0,0,0,0,0,0,0,-1,755,1674,0,0
-462,-650,0,0,0,0,0,0,0,0,0,-1,762,1674,0,0
-455,-650,0,0,0,0,0,0,0,0,0,-1,769,1674,0,0
-448,-650,0,0,0,0,0,0,0,0,0,-1,776,1674,0,0
-441,-650,0,0,0,0,0,0,0,0,0,-1,783,1674,0,0
-434,-650,0,0,0,0,0,0,0,0,0,-1,790,1674,0,0
-427,-650,0,0,0,0,0,0,0,0,0,-1,797,1674,0,0
-420,-650,0,0,0,0,0,0,0,0,0,-1,804,1674,0,0
-413,-650,0,0,0,0,0,0,0,0,0,-1,811,1674,0,0
-406,-650,0,0,0,0,0,0,0,0,0,-1,818,1674,0,0
-399,-650,0,0,0,0,0,0,0,0,0,-1,825,1674,0,0
-392,-650,5.44415,6.85669,0,0,0,0,0,0,0,-1,832,1674,5.44414,-6.85674
-385,-650,1.74451,14.0183,0,0,0,0,0,0,0,-1,839,1674,1.74453,-14.0183
-378,-650,0.997986,4.11108,0,0,0,0,0,0,0,-1,846,1674,0.998006,-4.11113
-371,-650,-1.80096,3.78625,0,0,0,0,0,0,0,-1,853,1674,-1.80094,-3.78625
-364,-650,-2.95679,2.57507,0,0,0,0,0,0,0,-1,860,1674,-2.95681,-2.57506
-357,-650,1.97833,10.8362,0,0,0,0,0,0,0,-1,867,1674,1.97835,-10.8362
-350,-650,-5.30243,0.159912,0,0,0,0,0,0,0,-1,874,1674,-5.30244,-0.159866
-343,-650,-6.21338,-1.4425,0,0,0,0,0,0,0,-1,881,1674,-6.21341,1.44248
-336,-650,4.12695,15.7001,0,0,0,0,0,0,0,-1,888,1674,4.12697,-15.7
-329,-650,4.42059,17.6652,0,0,0,0,0,0,0,-1,895,1674,4.42057,-17.6651
-322,-650,4.20416,17.9675,0.0241986,-0.0202047,-0.00832209,0.0257071,-0.0217132,-0.179316,0.0274104,0.0416935,902,1674,4.20413,-17.9675
-315,-650,4.31049,18.0944,0.0201619,-0.016472,-0.00716888,0.0215148,-0.0178249,-0.186526,0.0227461,0.0383614,909,1674,4.31046,-18.0943
-308,-650,4.33002,18.3679,0.0162394,-0.0131572,-0.00601517,0.0174226,-0.0143404,-0.194225,0.0183671,0.0222258,916,1674,4.33004,-18.3679
-301,-650,4.34546,18.6923,0.0126426,-0.0100539,-0.00485656,0.0136381,-0.0110494,-0.202186,0.0142794,0.0119797,923,1674,4.34546,-18.6922
-294,-650,4.32471,18.9897,0.009548,-0.0074512,-0.00375802,0.0103417,-0.00824493,-0.208149,0.0107537,0.00966493,930,1674,4.32468,-18.9897
-287,-650,4.31464,19.275,0.00687691,-0.00534843,-0.00276348,0.00747256,-0.00594408,-0.212295,0.00776284,0.0121938,937,1674,4.31466,-19.275
-280,-650,4.29968,19.5605,0.004706,-0.00364262,-0.00197929,0.00515148,-0.0040881,-0.221382,0.00534623,0.0140007,944,1674,4.29968,-19.5605
-273,-650,4.29791,19.8536,0.00317154,-0.00227666,-0.00131439,0.00347206,-0.00257719,-0.224777,0.00350525,0.0135234,951,1674,4.29789,-19.8536
-266,-650,4.26776,20.1017,0.00213982,-0.00126317,-0.000816478,0.00232557,-0.00144893,-0.223703,0.00219871,0.0109724,958,1674,4.26777,-20.1017
-259,-650,4.25488,20.3513,0.00112924,-0.000200508,-0.000365233,0.00122295,-0.00029422,-0.251163,0.000929038,0.0130402,965,1674,4.25491,-20.3513
-252,-650,4.25464,20.6255,0.000663376,0.00040102,6.17345e-05,0.000677177,0.00038722,0.219933,0.00039231,0.01203,972,1674,4.25466,-20.6255
-245,-650,4.26984,20.8754,0.000772126,0.000566043,0.000338484,0.00102291,0.000315264,0.637645,0.000604884,0.0113182,979,1674,4.26987,-20.8754
-238,-650,4.26587,21.146,0.00125672,0.000572804,0.000368262,0.00141731,0.000412216,0.411208,0.00084181,0.0128572,986,1674,4.26586,-21.146
-231,-650,4.24176,21.422,0.00190697,0.000495885,0.000554009,0.00209849,0.000304368,0.332832,0.00130938,0.017621,993,1674,4.24174,-21.422
-224,-650,4.24896,21.6576,0.00268324,0.000500513,0.00080185,0.00294615,0.000237611,0.316826,0.00188988,0.0143456,1000,1674,4.24898,-21.6576
-217,-650,4.26178,21.8666,0.00338862,0.000493628,0.00132977,0.00390671,-2.44642e-05,0.371517,0.00261267,0.00932358,1007,1674,4.26176,-21.8666
-210,-650,4.25818,22.1088,0.00400589,0.000590554,0.00182921,0.00480065,-0.000204205,0.409875,0.00327063,0.00911151,1014,1674,4.25818,-22.1088
-203,-650,4.27222,22.3542,0.00469052,0.000609403,0.00230908,0.00573147,-0.00043155,0.423527,0.00397265,0.0133748,1021,1674,4.2722,-22.3543
-196,-650,4.2926,22.556,0.00533248,0.000652813,0.00282861,0.0066636,-0.000678303,0.439844,0.0046849,0.0122433,1028,1674,4.29258,-22.5561
-189,-650,4.30408,22.7783,0.00589087,0.000876839,0.00340607,0.00761309,-0.000845386,0.468144,0.00537938,0.0104965,1035,1674,4.3041,-22.7784
-182,-650,4.34717,23.0342,0.00633894,0.00131325,0.00401797,0.00856514,-0.000912947,0.505954,0.00603746,0.0102331,1042,1674,4.34711,-23.0342
-175,-650,4.37451,23.2365,0.00665416,0.00192469,0.00469882,0.00954974,-0.000970882,0.552271,0.00671356,0.0149013,1049,1674,4.37445,-23.2365
-168,-650,4.39783,23.4625,0.00671271,0.00275732,0.00536025,0.0104485,-0.000978434,0.608668,0.00731364,0.0194794,1056,1674,4.39785,-23.4626
-161,-650,4.43018,23.691,0.00663651,0.00389127,0.00589488,0.0113165,-0.000788687,0.671012,0.00782048,0.0277785,1063,1674,4.43023,-23.691
-154,-650,4.48999,23.8572,0.00652982,0.00492074,0.00632066,0.0120969,-0.000646381,0.722095,0.00828849,0.0321481,1070,1674,4.49002,-23.8571
-147,-650,4.54907,23.9237,0.00615414,0.00601685,0.00658288,0.0126687,-0.000497739,0.780184,0.00861653,0.0448409,1077,1674,4.54909,-23.9237
-140,-650,4.66992,24.0865,0,0,0,0,0,0,0,-1,1084,1674,4.66991,-24.0865
-133,-650,4.31848,24.8572,0,0,0,0,0,0,0,-1,1091,1674,4.31843,-24.8572
-126,-650,4.65466,22.729,0,0,0,0,0,0,0,-1,1098,1674,4.65463,-22.729
-119,-650,5.16663,20.6232,0,0,0,0,0,0,0,-1,1105,1674,5.16665,-20.6232
-112,-650,3.86292,14.4513,0,0,0,0,0,0,0,-1,1112,1674,3.8629,-14.4513
-105,-650,4.9259,12.0626,0,0,0,0,0,0,0,-1,1119,1674,4.92591,-12.0626
-98,-650,3.3761,6.78003,0,0,0,0,0,0,0,-1,1126,1674,3.37611,-6.78009
-91,-650,3.66809,7.04443,0,0,0,0,0,0,0,-1,1133,1674,3.66806,-7.04439
-84,-650,-3.82666,-1.59521,0,0,0,0,0,0,0,-1,1140,1674,-3.82661,1.59517
-77,-650,-4.70557,1.90198,0,0,0,0,0,0,0,-1,1147,1674,-4.7056,-1.90194
-70,-650,-4.88171,3.81653,0,0,0,0,0,0,0,-1,1154,1674,-4.88176,-3.81651
-63,-650,-5.14612,5.56543,0,0,0,0,0,0,0,-1,1161,1674,-5.14612,-5.56547
-56,-650,-5.38367,7.41101,0,0,0,0,0,0,0,-1,1168,1674,-5.38361,-7.41102
-49,-650,-5.11316,8.23706,0,0,0,0,0,0,0,-1,1175,1674,-5.11317,-8.23708
-42,-650,-4.99487,9.6792,0,0,0,0,0,0,0,-1,1182,1674,-4.99484,-9.67921
-35,-650,-4.77771,11.3369,0,0,0,0,0,0,0,-1,1189,1674,-4.77769,-11.3369
-28,-650,-4.1936,13.1501,0,0,0,0,0,0,0,-1,1196,1674,-4.19358,-13.1501
-21,-650,2.76013,22.0143,0,0,0,0,0,0,0,-1,1203,1674,2.76016,-22.0143
-14,-650,6.71301,32.0518,0,0,0,0,0,0,0,-1,1210,1674,6.713,-32.0518
-7,-650,6.54016,32.2906,-0.00396613,0.148151,0.0281016,0.153176,-0.00899154,1.39384,0.105243,0.0481514,1217,1674,6.54014,-32.2906
0,-650,6.33374,32.3389,-0.000942288,0.151116,0.0267432,0.155682,-0.00550863,1.40168,0.105672,0.0430251,1224,1674,6.33369,-32.3389
7,-650,6.25208,32.3964,0.00397467,0.150721,0.0245699,0.154725,-2.98172e-05,1.40923,0.10316,0.0412742,1231,1674,6.25207,-32.3964
14,-650,6.20398,32.4911,0.0104372,0.144519,0.0217941,0.147973,0.00698372,1.41364,0.0964048,0.0403781,1238,1674,6.20398,-32.4911
21,-650,6.06506,32.208,0.0193092,0.137606,0.0200621,0.140916,0.0159994,1.40729,0.089091,0.0424391,1245,1674,6.06501,-32.208
28,-650,6.32043,32.29,0,0,0,0,0,0,0,-1,1252,1674,6.32048,-32.2901
35,-650,6.63159,32.4177,0.0377876,0.115021,0.015324,0.11795,0.0348582,1.38191,0.0699707,0.0471635,1259,1674,6.6316,-32.4177
42,-650,6.724,32.7205,0.0428566,0.100567,0.0129693,0.103348,0.040076,1.35959,0.0601668,0.043902,1266,1674,6.72399,-32.7204
49,-650,7.07068,32.5983,0.0445459,0.0861555,0.0104183,0.0886183,0.0420831,1.33867,0.0511853,0.0420238,1273,1674,7.07065,-32.5983
56,-650,7.67395,32.5643,0.0405692,0.0736328,0.00708523,0.0750871,0.0391149,1.36835,0.0433642,0.045951,1280,1674,7.67389,-32.5644
63,-650,8.37366,32.5963,0.0348363,0.0639821,0.00335412,0.0643631,0.0344553,1.45769,0.0371909,0.0463256,1287,1674,8.37363,-32.5963
70,-650,9.07275,32.6393,0.025812,0.0549924,0.000895674,0.0550199,0.0257845,1.54014,0.0317865,0.0496095,1294,1674,9.07274,-32.6393
77,-650,9.72241,32.7219,0,0,0,0,0,0,0,-1,1301,1674,9.72237,-32.7219
84,-650,8.27136,26.6139,-0.00211029,0.0541187,-0.00388669,0.0543861,-0.00237767,-1.50211,0.0370754,0.0478322,1308,1674,8.27133,-26.6139
91,-650,7.54504,26.5321,-0.018001,0.0564519,-0.0050174,0.0567885,-0.0183376,-1.50381,0.0452282,0.0473077,1315,1674,7.54509,-26.5321
98,-650,6.65686,26.4563,-0.0339351,0.0601008,-0.00556845,0.0604294,-0.0342637,-1.51185,0.0553624,0.0457825,1322,1674,6.65689,-26.4563
105,-650,5.65417,26.5132,-0.050216,0.0679686,-0.00533378,0.0682089,-0.0504562,-1.52579,0.0687664,0.0468051,1329,1674,5.65415,-26.5132
112,-650,4.61829,26.5913,0,0,0,0,0,0,0,-1,1336,1674,4.6183,-26.5913
119,-650,9.76624,27.0138,-0.0763257,0.0868842,-0.00372521,0.0869691,-0.0764107,-1.54799,0.094393,0.0442223,1343,1674,9.76626,-27.0138
126,-650,8.62817,27.3872,-0.0836492,0.09364,-0.0030966,0.0936941,-0.0837033,-1.55334,0.102475,0.0454683,1350,1674,8.62819,-27.3872
133,-650,8.40161,27.6409,-0.085651,0.102067,-0.0022364,0.102093,-0.0856777,-1.55888,0.108548,0.0498983,1357,1674,8.40163,-27.6408
140,-650,7.3429,26.7578,0,0,0,0,0,0,0,-1,1364,1674,7.34289,-26.7579
147,-650,6.62598,26.9521,0,0,0,0,0,0,0,-1,1371,1674,6.62596,-26.9522
154,-650,5.61963,25.6437,0,0,0,0,0,0,0,-1,1378,1674,5.61963,-25.6437
161,-650,1.92163,18.5155,0,0,0,0,0,0,0,-1,1385,1674,1.92164,-18.5155
168,-650,11.2113,7.87231,0,0,0,0,0,0,0,-1,1392,1674,11.2113,-7.87236
175,-650,5.62537,-0.230713,0,0,0,0,0,0,0,-1,1399,1674,5.62538,0.230745
182,-650,5.56006,0.421631,0,0,0,0,0,0,0,-1,1406,1674,5.56,-0.421652
189,-650,4.81543,11.0654,0,0,0,0,0,0,0,-1,1413,1674,4.81542,-11.0654
196,-650,5.39575,11.9077,0,0,0,0,0,0,0,-1,1420,1674,5.39575,-11.9078
203,-650,3.93628,11.8215,0,0,0,0,0,0,0,-1,1427,1674,3.93624,-11.8216
210,-650,5.40955,8.08594,0,0,0,0,0,0,0,-1,1434,1674,5.40958,-8.086
217,-650,5.12451,4.69739,0,0,0,0,0,0,0,-1,1441,1674,5.12451,-4.69738
224,-650,4.79041,1.45813,0,0,0,0,0,0,0,-1,1448,1674,4.79046,-1.45816
231,-650,4.04102,-0.642212,0,0,0,0,0,0,0,-1,1455,1674,4.04101,0.642209
238,-650,3.23022,-1.43396,0,0,0,0,0,0,0,-1,1462,1674,3.23023,1.43394
245,-650,1.65894,-2.55042,0,0,0,0,0,0,0,-1,1469,1674,1.65889,2.55036
252,-650,8.75342,0.355103,0,0,0,0,0,0,0,-1,1476,1674,8.75337,-0.355147
259,-650,5.61255,3.17566,0,0,0,0,0,0,0,-1,1483,1674,5.61257,-3.17572
266,-650,4.00403,6.10229,0,0,0,0,0,0,0,-1,1490,1674,4.00401,-6.10225
273,-650,5.4093,14.3718,0,0,0,0,0,0,0,-1,1497,1674,5.40929,-14.3718
280,-650,7.69751,24.6681,0,0,0,0,0,0,0,-1,1504,1674,7.69752,-24.6681
287,-650,7.83313,24.1876,0,0,0,0,0,0,0,-1,1511,1674,7.83312,-24.1876
294,-650,7.81995,24.0603,0.0026721,0.00127745,0.00308276,0.00513542,-0.00118587,0.674169,0.00387979,0.0432372,1518,1674,7.81996,-24.0603
301,-650,7.91602,23.7645,0.00177145,0.00137564,0.00368178,0.00526064,-0.00211355,0.758547,0.00438482,0.0329442,1525,1674,7.916,-23.7645
308,-650,7.98169,23.6951,0.00105197,0.0021225,0.00375925,0.0053844,-0.00220993,0.856115,0.00451047,0.0233614,1532,1674,7.9817,-23.695
315,-650,8.00818,23.5909,0.000384671,0.00256285,0.00383649,0.00546184,-0.00251432,0.923698,0.00470868,0.0156751,1539,1674,8.00819,-23.591
322,-650,8.01428,23.3772,0.000158589,0.00308207,0.00350987,0.00542242,-0.00218176,0.982708,0.00452122,0.0117576,1546,1674,8.01425,-23.3772
329,-650,8.03442,23.1073,8.34097e-05,0.00343169,0.00306326,0.00524845,-0.00173334,1.03548,0.00419778,0.0152646,1553,1674,8.03442,-23.1073
336,-650,8.03845,22.9362,7.94269e-06,0.00343889,0.00250974,0.00476343,-0.00131659,1.08519,0.00369355,0.0138484,1560,1674,8.03842,-22.9362
343,-650,8.03967,22.7527,1.27358e-05,0.00341661,0.00183691,0.00421884,-0.000789491,1.15904,0.00310932,0.0146916,1567,1674,8.03966,-22.7527
350,-650,8.05896,22.4983,5.83954e-05,0.00322011,0.00131083,0.00369288,-0.000414376,1.22465,0.00261103,0.0169173,1574,1674,8.05898,-22.4983
357,-650,8.05701,22.2615,0.000143799,0.00293737,0.000789236,0.00314492,-6.37546e-05,1.31364,0.00211819,0.0134217,1581,1674,8.05697,-22.2614
364,-650,8.05542,22.0706,0.000214434,0.00227242,0.00039231,0.00234467,0.000142185,1.38867,0.00151794,0.00898254,1588,1674,8.05541,-22.0706
371,-650,8.0592,21.8665,0.000178002,0.00162018,0.000198463,0.00164699,0.000151189,1.43651,0.00105123,0.0108046,1595,1674,8.05924,-21.8665
378,-650,8.06543,21.6276,0.000123497,0.000874545,0.000177998,0.000914595,8.34473e-05,1.34948,0.000583905,0.0121305,1602,1674,8.06538,-21.6276
385,-650,8.07043,21.3774,0.000173361,0.00033239,4.15854e-05,0.000342608,0.000163143,1.32986,0.00019788,0.0133927,1609,1674,8.07041,-21.3774
392,-650,8.04956,21.1448,9.31281e-05,-0.000440955,0.000159558,0.000137165,-0.000484992,0.269291,0.000377451,0.0174456,1616,1674,8.04951,-21.1448
399,-650,8.04602,20.9182,-8.79546e-05,-0.00110075,0.000423744,6.59486e-05,-0.00125466,0.348384,0.000859264,0.0163023,1623,1674,8.04607,-20.9182
406,-650,8.05066,20.6858,-0.000280592,-0.00147034,0.000640821,-1.09372e-06,-0.00174983,0.411283,0.00116619,0.0139977,1630,1674,8.05062,-20.6858
413,-650,8.07043,20.4376,-0.000485374,-0.00171134,0.000854845,-4.6451e-05,-0.00215027,0.474352,0.00141828,0.0143476,1637,1674,8.07047,-20.4376
420,-650,8.04651,20.1674,-0.000627399,-0.00165697,0.00107614,5.07423e-05,-0.00233511,0.562303,0.00157393,0.0147639,1644,1674,8.04645,-20.1674
427,-650,8.04956,19.9086,-0.00059111,-0.00106389,0.00113921,0.000335982,-0.00199098,0.683099,0.00145233,0.0142627,1651,1674,8.04951,-19.9086
434,-650,8.0376,19.672,-0.00041824,-0.000387507,0.00118032,0.000777542,-0.00158329,0.791907,0.00138924,0.0174668,1658,1674,8.03755,-19.6719
441,-650,7.97595,19.4596,0.000210099,0.000284547,0.000969837,0.00121787,-0.000723228,0.80458,0.00113276,0.0298741,1665,1674,7.97597,-19.4596
448,-650,7.85474,19.2753,0.000744973,0.0013254,0.000664152,0.00175998,0.000310396,0.99138,0.00108476,0.0479831,1672,1674,7.85468,-19.2753
455,-650,7.58228,18.7755,0,0,0,0,0,0,0,-1,1679,1674,7.58227,-18.7756
462,-650,7.31409,18.6479,0,0,0,0,0,0,0,-1,1686,1674,7.31409,-18.648
469,-650,7.47241,18.2216,0,0,0,0,0,0,0,-1,1693,1674,7.47238,-18.2215
476,-650,7.6333,17.7002,0,0,0,0,0,0,0,-1,1700,1674,7.63332,-17.7002
483,-650,7.04602,17.5234,0,0,0,0,0,0,0,-1,1707,1674,7.04605,-17.5234
490,-650,6.9187,16.9877,0,0,0,0,0,0,0,-1,1714,1674,6.91868,-16.9877
497,-650,6.7218,16.5629,0,0,0,0,0,0,0,-1,1721,1674,6.72184,-16.5629
504,-650,6.26428,16.3641,0,0,0,0,0,0,0,-1,1728,1674,6.26426,-16.3642
511,-650,5.89343,16.0664,0,0,0,0,0,0,0,-1,1735,1674,5.89342,-16.0665
518,-650,0,0,0,0,0,0,0,0,0,-1,1742,1674,0,0
525,-650,0,0,0,0,0,0,0,0,0,-1,1749,1674,0,0
532,-650,0,0,0,0,0,0,0,0,0,-1,1756,1674,0,0
539,-650,0,0,0,0,0,0,0,0,0,-1,1763,1674,0,0
546,-650,0,0,0,0,0,0,0,0,0,-1,1770,1674,0,0
553,-650,0,0,0,0,0,0,0,0,0,-1,1777,1674,0,0
560,-650,0,0,0,0,0,0,0,0,0,-1,1784,1674,0,0
567,-650,0,0,0,0,0,0,0,0,0,-1,1791,1674,0,0
574,-650,0,0,0,0,0,0,0,0,0,-1,1798,1674,0,0
581,-650,0,0,0,0,0,0,0,0,0,-1,1805,1674,0,0
588,-650,0,0,0,0,0,0,0,0,0,-1,1812,1674,0,0
595,-650,0,0,0,0,0,0,0,0,0,-1,1819,1674,0,0
602,-650,0,0,0,0,0,0,0,0,0,-1,1826,1674,0,0
609,-650,0,0,0,0,0,0,0,0,0,-1,1833,1674,0,0
616,-650,0,0,0,0,0,0,0,0,0,-1,1840,1674,0,0
623,-650,0,0,0,0,0,0,0,0,0,-1,1847,1674,0,0
630,-650,0,0,0,0,0,0,0,0,0,-1,1854,1674,0,0
637,-650,0,0,0,0,0,0,0,0,0,-1,1861,1674,0,0
644,-650,0,0,0,0,0,0,0,0,0,-1,1868,1674,0,0
651,-650,0,0,0,0,0,0,0,0,0,-1,1875,1674,0,0
658,-650,0,0,0,0,0,0,0,0,0,-1,1882,1674,0,0
665,-650,0,0,0,0,0,0,0,0,0,-1,1889,1674,0,0
672,-650,0,0,0,0,0,0,0,0,0,-1,1896,1674,0,0
679,-650,0,0,0,0,0,0,0,0,0,-1,1903,1674,0,0
686,-650,0,0,0,0,0,0,0,0,0,-1,1910,1674,0,0
693,-650,0,0,0,0,0,0,0,0,0,-1,1917,1674,0,0
700,-650,0,0,0,0,0,0,0,0,0,-1,1924,1674,0,0
707,-650,0,0,0,0,0,0,0,0,0,-1,1931,1674,0,0
714,-650,0,0,0,0,0,0,0,0,0,-1,1938,1674,0,0
721,-650,0,0,0,0,0,0,0,0,0,-1,1945,1674,0,0
728,-650,0,0,0,0,0,0,0,0,0,-1,1952,1674,0,0
735,-650,0,0,0,0,0,0,0,0,0,-1,1959,1674,0,0
742,-650,0,0,0,0,0,0,0,0,0,-1,1966,1674,0,0
749,-650,0,0,0,0,0,0,0,0,0,-1,1973,1674,0,0
756,-650,0,0,0,0,0,0,0,0,0,-1,1980,1674,0,0
763,-650,0,0,0,0,0,0,0,0,0,-1,1987,1674,0,0
770,-650,0,0,0,0,0,0,0,0,0,-1,1994,1674,0,0
777,-650,0,0,0,0,0,0,0,0,0,-1,2001,1674,0,0
784,-650,0,0,0,0,0,0,0,0,0,-1,2008,1674,0,0
791,-650,0,0,0,0,0,0,0,0,0,-1,2015,1674,0,0
798,-650,0,0,0,0,0,0,0,0,0,-1,2022,1674,0,0
805,-650,0,0,0,0,0,0,0,0,0,-1,2029,1674,0,0
812,-650,0,0,0,0,0,0,0,0,0,-1,2036,1674,0,0
-700,-657,0,0,0,0,0,0,0,0,0,-1,524,1681,0,0
-693,-657,0,0,0,0,0,0,0,0,0,-1,531,1681,0,0
-686,-657,0,0,0,0,0,0,0,0,0,-1,538,1681,0,0
-679,-657,0,0,0,0,0,0,0,0,0,-1,545,1681,0,0
-672,-657,0,0,0,0,0,0,0,0,0,-1,552,1681,0,0
-665,-657,0,0,0,0,0,0,0,0,0,-1,559,1681,0,0
-658,-657,0,0,0,0,0,0,0,0,0,-1,566,1681,0,0
-651,-657,0,0,0,0,0,0,0,0,0,-1,573,1681,0,0
-644,-657,0,0,0,0,0,0,0,0,0,-1,580,1681,0,0
-637,-657,0,0,0,0,0,0,0,0,0,-1,587,1681,0,0
-630,-657,0,0,0,0,0,0,0,0,0,-1,594,1681,0,0
-623,-657,0,0,0,0,0,0,0,0,0,-1,601,1681,0,0
-616,-657,0,0,0,0,0,0,0,0,0,-1,608,1681,0,0
-609,-657,0,0,0,0,0,0,0,0,0,-1,615,1681,0,0
-602,-657,0,0,0,0,0,0,0,0,0,-1,622,1681,0,0
-595,-657,0,0,0,0,0,0,0,0,0,-1,629,1681,0,0
-588,-657,0,0,0,0,0,0,0,0,0,-1,636,1681,0,0
-581,-657,0,0,0,0,0,0,0,0,0,-1,643,1681,0,0
-574,-657,0,0,0,0,0,0,0,0,0,-1,650,1681,0,0
-567,-657,0,0,0,0,0,0,0,0,0,-1,657,1681,0,0
-560,-657,0,0,0,0,0,0,0,0,0,-1,664,1681,0,0
-553,-657,0,0,0,0,0,0,0,0,0,-1,671,1681,0,0
-546,-657,0,0,0,0,0,0,0,0,0,-1,678,1681,0,0
-539,-657,0,0,0,0,0,0,0,0,0,-1,685,1681,0,0
-532,-657,0,0,0,0,0,0,0,0,0,-1,692,1681,0,0
-525,-657,0,0,0,0,0,0,0,0,0,-1,699,1681,0,0
-518,-657,0,0,0,0,0,0,0,0,0,-1,706,1681,0,0
-511,-657,0,0,0,0,0,0,0,0,0,-1,713,1681,0,0
-504,-657,0,0,0,0,0,0,0,0,0,-1,720,1681,0,0
-497,-657,0,0,0,0,0,0,0,0,0,-1,727,1681,0,0
-490,-657,0,0,0,0,0,0,0,0,0,-1,734,1681,0,0
-483,-657,0,0,0,0,0,0,0,0,0,-1,741,1681,0,0
-476,-657,0,0,0,0,0,0,0,0,0,-1,748,1681,0,0
-469,-657,0,0,0,0,0,0,0,0,0,-1,755,1681,0,0
-462,-657,0,0,0,0,0,0,0,0,0,-1,762,1681,0,0
-455,-657,0,0,0,0,0,0,0,0,0,-1,769,1681,0,0
-448,-657,0,0,0,0,0,0,0,0,0,-1,776,1681,0,0
-441,-657,0,0,0,0,0,0,0,0,0,-1,783,1681,0,0
-434,-657,0,0,0,0,0,0,0,0,0,-1,790,1681,0,0
-427,-657,0,0,0,0,0,0,0,0,0,-1,797,1681,0,0
-420,-657,0,0,0,0,0,0,0,0,0,-1,804,1681,0,0
-413,-657,0,0,0,0,0,0,0,0,0,-1,811,1681,0,0
-406,-657,0,0,0,0,0,0,0,0,0,-1,818,1681,0,0
-399,-657,0,0,0,0,0,0,0,0,0,-1,825,1681,0,0
-392,-657,0,0,0,0,0,0,0,0,0,-1,832,1681,0,0
-385,-657,1.09814,6.18896,0,0,0,0,0,0,0,-1,839,1681,1.09814,-6.18894
-378,-657,0.31488,4.46753,0,0,0,0,0,0,0,-1,846,1681,0.31487,-4.46755
-371,-657,-0.519043,2.69421,0,0,0,0,0,0,0,-1,853,1681,-0.519064,-2.69422
-364,-657,-3.42017,4.18323,0,0,0,0,0,0,0,-1,860,1681,-3.42019,-4.18319
-357,-657,-4.41913,2.97168,0,0,0,0,0,0,0,-1,867,1681,-4.41913,-2.97165
-350,-657,-5.42291,1.70276,0,0,0,0,0,0,0,-1,874,1681,-5.42291,-1.70277
-343,-657,-6.51294,0.397339,0,0,0,0,0,0,0,-1,881,1681,-6.51295,-0.397335
-336,-657,2.4696,15.2997,0,0,0,0,0,0,0,-1,888,1681,2.46961,-15.2996
-329,-657,3.76318,16.5731,0,0,0,0,0,0,0,-1,895,1681,3.76317,-16.5731
-322,-657,4.35059,17.9835,0,0,0,0,0,0,0,-1,902,1681,4.35061,-17.9835
-315,-657,4.5813,18.0658,0.0303318,-0.0243981,-0.0116792,0.0327199,-0.0267862,-0.201695,0.0344128,0.0426967,909,1681,4.5813,-18.0658
-308,-657,4.59656,18.3398,0.024332,-0.0194631,-0.00972613,0.0263948,-0.021526,-0.208996,0.0277146,0.0373757,916,1681,4.59653,-18.3398
-301,-657,4.59564,18.673,0.0188282,-0.0149573,-0.00783208,0.0205555,-0.0166846,-0.217068,0.0215393,0.0300203,923,1681,4.59563,-18.673
-294,-657,4.58368,19.0177,0.0140508,-0.0111395,-0.00607095,0.0154376,-0.0125262,-0.224575,0.0161741,0.0179762,930,1681,4.58368,-19.0177
-287,-657,4.57776,19.3046,0.00995009,-0.00798243,-0.00450337,0.0110175,-0.00904982,-0.232726,0.0116044,0.0129051,937,1681,4.57779,-19.3046
-280,-657,4.5592,19.572,0.00664014,-0.0053625,-0.00330999,0.00749242,-0.00621478,-0.252014,0.00792531,0.0142055,944,1681,4.55923,-19.5721
-273,-657,4.55237,19.853,0.00420973,-0.00322406,-0.00236721,0.00489954,-0.00391386,-0.283548,0.00509902,0.0103759,951,1681,4.55234,-19.853
-266,-657,4.52124,20.1257,0.0025006,-0.00150322,-0.00168046,0.00311242,-0.00211504,-0.349162,0.00303633,0.0146592,958,1681,4.52127,-20.1257
-259,-657,4.49689,20.3793,0.000824643,0.000253474,-0.00107677,0.00165305,-0.000574936,-0.655771,0.00133559,0.0177441,965,1681,4.49691,-20.3793
-252,-657,4.48706,20.6343,-0.000119591,0.0012501,-0.000473664,0.00139794,-0.000267435,-1.26825,0.00103271,0.0118907,972,1681,4.48706,-20.6342
-245,-657,4.52246,20.9028,-0.000263835,0.00161242,-9.26268e-05,0.00161698,-0.000268397,-1.52159,0.00117769,0.0136464,979,1681,4.52246,-20.9028
-238,-657,4.50757,21.1497,0.000119365,0.00169937,-9.13195e-05,0.00170463,0.000114104,-1.51325,0.00110036,0.0186354,986,1681,4.50755,-21.1497
-231,-657,4.48828,21.4077,0.000652892,0.00164448,6.12078e-05,0.00164825,0.000649128,1.50938,0.00095874,0.020267,993,1681,4.48827,-21.4077
-224,-657,4.4967,21.671,0.00134725,0.00163291,0.000292357,0.00181546,0.0011647,1.01262,0.00106206,0.0166125,1000,1681,4.49673,-21.671
-217,-657,4.51862,21.9009,0.00195466,0.00150499,0.000745104,0.00250812,0.000951541,0.638867,0.00146204,0.0105818,1007,1681,4.51861,-21.9009
-210,-657,4.51416,22.1322,0.00250962,0.00142511,0.00118567,0.00327115,0.000663582,0.570928,0.00199667,0.0104731,1014,1681,4.51416,-22.1322
-203,-657,4.5083,22.3627,0.0031442,0.00126203,0.00160071,0.00405997,0.000346259,0.519653,0.00259893,0.0123284,1021,1681,4.50836,-22.3627
-196,-657,4.53455,22.5798,0.00371542,0.00107801,0.00204372,0.00482895,-3.55167e-05,0.498885,0.0032312,0.0129787,1028,1681,4.53453,-22.5799
-189,-657,4.55774,22.7974,0.00420487,0.0010337,0.00248752,0.00556917,-0.000330601,0.501659,0.00382774,0.0099113,1035,1681,4.55768,-22.7974
-182,-657,4.54834,23.0216,0.00464106,0.00127262,0.00294052,0.00634554,-0.000431857,0.525323,0.00438141,0.00803289,1042,1681,4.54828,-23.0216
-175,-657,4.57349,23.2162,0.00498876,0.00168366,0.00342717,0.007141,-0.000468576,0.560749,0.00492429,0.00976739,1049,1681,4.57349,-23.2162
-168,-657,4.5719,23.4208,0.00510084,0.00232757,0.0038837,0.00783802,-0.000409613,0.613931,0.0053671,0.0116944,1056,1681,4.57184,-23.4208
-161,-657,4.57056,23.6443,0.0050996,0.00328677,0.00425158,0.00854031,-0.000153948,0.680373,0.00574555,0.0112517,1063,1681,4.5706,-23.6443
-154,-657,4.6156,23.8337,0.00508001,0.00425769,0.00456605,0.00925338,8.4321e-05,0.740496,0.006141,0.0119021,1070,1681,4.61559,-23.8338
-147,-657,4.64148,23.994,0.00488416,0.00514371,0.00478778,0.00980347,0.000224395,0.798948,0.00646215,0.0175312,1077,1681,4.64154,-23.994
-140,-657,4.61145,24.2286,0.00467834,0.00614435,0.0048846,0.0103506,0.000472049,0.859875,0.00674858,0.0269607,1084,1681,4.61143,-24.2287
-133,-657,4.58289,24.6124,0.00449978,0.00725305,0.00501288,0.0110749,0.000677947,0.919404,0.00716797,0.0396325,1091,1681,4.58294,-24.6124
-126,-657,4.80151,24.9235,0,0,0,0,0,0,0,-1,1098,1681,4.80151,-24.9235
-119,-657,4.9624,25.1567,0,0,0,0,0,0,0,-1,1105,1681,4.96237,-25.1568
-112,-657,4.6051,21.3439,0,0,0,0,0,0,0,-1,1112,1681,4.60512,-21.3438
-105,-657,3.82434,14.4906,0,0,0,0,0,0,0,-1,1119,1681,3.8244,-14.4906
-98,-657,3.78662,8.16785,0,0,0,0,0,0,0,-1,1126,1681,3.78663,-8.16786
-91,-657,3.6521,16.6017,0,0,0,0,0,0,0,-1,1133,1681,3.65215,-16.6017
-84,-657,4.08008,10.4579,0,0,0,0,0,0,0,-1,1140,1681,4.08006,-10.4579
-77,-657,-5.29846,0.396606,0,0,0,0,0,0,0,-1,1147,1681,-5.29842,-0.396573
-70,-657,-4.14893,2.14575,0,0,0,0,0,0,0,-1,1154,1681,-4.14893,-2.1458
-63,-657,-4.1239,3.177,0,0,0,0,0,0,0,-1,1161,1681,-4.12391,-3.17698
-56,-657,-6.40576,5.73987,0,0,0,0,0,0,0,-1,1168,1681,-6.40577,-5.7399
-49,-657,-5.98462,7.54053,0,0,0,0,0,0,0,-1,1175,1681,-5.98466,-7.5405
-42,-657,-5.71948,9.28955,0,0,0,0,0,0,0,-1,1182,1681,-5.71951,-9.2895
-35,-657,-5.44556,11.015,0,0,0,0,0,0,0,-1,1189,1681,-5.44555,-11.015
-28,-657,-1.3446,8.92847,0,0,0,0,0,0,0,-1,1196,1681,-1.34459,-8.92848
-21,-657,6.48914,30.5104,0,0,0,0,0,0,0,-1,1203,1681,6.48911,-30.5104
-14,-657,6.32983,30.8307,-0.00441585,0.131717,0.0247306,0.13607,-0.00876934,1.39655,0.0937733,0.0469926,1210,1681,6.32983,-30.8307
-7,-657,6.1134,31.1642,-0.0031687,0.133728,0.0234028,0.137618,-0.00705891,1.40607,0.0941867,0.0452515,1217,1681,6.11346,-31.1642
0,-657,6.01233,31.3354,-0.00076877,0.136464,0.021797,0.139843,-0.00414764,1.41701,0.0946417,0.0443196,1224,1681,6.01234,-31.3354
7,-657,5.89551,31.3193,0.00328328,0.136831,0.019642,0.13966,0.000454307,1.42775,0.0929557,0.0436268,1231,1681,5.89554,-31.3193
14,-657,5.84961,31.3563,0.00864025,0.132961,0.0171371,0.13528,0.00632123,1.43629,0.088155,0.0409023,1238,1681,5.84963,-31.3564
21,-657,5.61255,30.4757,0.0168715,0.129226,0.0163144,0.131547,0.0145505,1.42948,0.0832728,0.0426638,1245,1681,5.61254,-30.4757
28,-657,6.31628,31.382,0,0,0,0,0,0,0,-1,1252,1681,6.31626,-31.3819
35,-657,6.57703,31.3958,0.0335173,0.112364,0.0129872,0.114448,0.0314332,1.41168,0.0682768,0.0444407,1259,1681,6.57705,-31.3958
42,-657,6.87646,31.535,0.0385314,0.100464,0.0114335,0.102507,0.036488,1.39395,0.0599955,0.0437386,1266,1681,6.87643,-31.535
49,-657,7.25403,31.6992,0.0409194,0.0880498,0.00974906,0.0899868,0.0389824,1.37466,0.0521082,0.0438752,1273,1681,7.25401,-31.6992
56,-657,8.07605,32.646,0.0390434,0.0763007,0.00761477,0.0777969,0.0375472,1.37678,0.0449251,0.0459778,1280,1681,8.07609,-32.646
63,-657,8.99133,32.7686,0.0354503,0.0663041,0.00515756,0.0671434,0.034611,1.40948,0.0387714,0.0487741,1287,1681,8.99131,-32.7686
70,-657,9.65833,32.5463,0.0286712,0.0566878,0.00357897,0.0571378,0.0282212,1.44573,0.0329893,0.0492795,1294,1681,9.65838,-32.5463
77,-657,10.2383,32.6488,0.018017,0.051856,0.00215859,0.0519931,0.0178798,1.50735,0.0305021,0.0492622,1301,1681,10.2382,-32.6488
84,-657,10.8352,32.7661,0,0,0,0,0,0,0,-1,1308,1681,10.8352,-32.7661
91,-657,6.90955,26.4808,-0.00966349,0.0495373,0.000129476,0.0495376,-0.00966377,1.56861,0.0366732,0.0453087,1315,1681,6.9096,-26.4809
98,-657,6.66101,26.4899,-0.0242437,0.0504963,-6.01319e-05,0.0504964,-0.0242438,-1.56999,0.0440296,0.0450898,1322,1681,6.66104,-26.4899
105,-657,6.08997,26.5411,-0.0392387,0.0553093,0.000382239,0.0553109,-0.0392402,1.56675,0.0548513,0.0467282,1329,1681,6.09001,-26.5411
112,-657,5.60571,26.6614,0,0,0,0,0,0,0,-1,1336,1681,5.60568,-26.6614
119,-657,8.88025,26.358,-0.0635941,0.0689738,0.00208084,0.0690064,-0.0636267,1.55511,0.0765968,0.0470859,1343,1681,8.88021,-26.3581
126,-657,8.13867,26.5525,-0.0715162,0.0738072,0.00236719,0.0738458,-0.0715548,1.55451,0.0839505,0.0464867,1350,1681,8.1387,-26.5525
133,-657,7.47668,26.6895,-0.0746615,0.0806405,0.00321396,0.080707,-0.074728,1.55011,0.0897625,0.0475819,1357,1681,7.47669,-26.6894
140,-657,6.90942,26.531,-0.0762701,0.0856849,0.00199117,0.0857093,-0.0762946,1.5585,0.0935856,0.0468257,1364,1681,6.90937,-26.531
147,-657,6.27441,26.3605,-0.0763596,0.0882382,-0.000677582,0.088241,-0.0763624,-1.56668,0.0951163,0.0455535,1371,1681,6.27446,-26.3604
154,-657,5.33484,25.5435,0,0,0,0,0,0,0,-1,1378,1681,5.33486,-25.5434
161,-657,4.2926,24.9226,0,0,0,0,0,0,0,-1,1385,1681,4.29264,-24.9226
168,-657,5.21643,0.70105,0,0,0,0,0,0,0,-1,1392,1681,5.21648,-0.7011
175,-657,5.52771,0.649048,0,0,0,0,0,0,0,-1,1399,1681,5.52774,-0.649019
182,-657,5.73999,1.02612,0,0,0,0,0,0,0,-1,1406,1681,5.73995,-1.02611
189,-657,5.92126,1.44116,0,0,0,0,0,0,0,-1,1413,1681,5.92126,-1.44115
196,-657,4.92834,9.59021,0,0,0,0,0,0,0,-1,1420,1681,4.9284,-9.59018
203,-657,6.26343,5.16492,0,0,0,0,0,0,0,-1,1427,1681,6.26345,-5.16488
210,-657,3.9856,5.28088,0,0,0,0,0,0,0,-1,1434,1681,3.98555,-5.28084
217,-657,3.95178,5.2843,0,0,0,0,0,0,0,-1,1441,1681,3.95174,-5.28431
224,-657,6.66736,-0.250244,0,0,0,0,0,0,0,-1,1448,1681,6.66737,0.250229
231,-657,6.85498,-1.70752,0,0,0,0,0,0,0,-1,1455,1681,6.855,1.70758
238,-657,5.34143,-2.89819,0,0,0,0,0,0,0,-1,1462,1681,5.34143,2.89813
245,-657,8.66003,-0.102783,0,0,0,0,0,0,0,-1,1469,1681,8.66,0.102824
252,-657,4.78955,0.623779,0,0,0,0,0,0,0,-1,1476,1681,4.7895,-0.623826
259,-657,2.61523,4.31909,0,0,0,0,0,0,0,-1,1483,1681,2.61523,-4.31908
266,-657,5.35437,11.4742,0,0,0,0,0,0,0,-1,1490,1681,5.35441,-11.4742
273,-657,7.71338,24.5474,0,0,0,0,0,0,0,-1,1497,1681,7.71342,-24.5474
280,-657,7.63782,24.5115,0.00449241,0.000245188,0.000706729,0.00460692,0.000130678,0.160633,0.00302866,0.0471856,1504,1681,7.63787,-24.5115
287,-657,7.73401,24.2336,0.00344613,0.000691791,0.00158592,0.00416938,-3.14533e-05,0.427866,0.00279013,0.0322732,1511,1681,7.73397,-24.2337
294,-657,7.78186,24.0781,0.00249742,0.000669895,0.00200723,0.00378909,-0.000621779,0.571799,0.00275679,0.0240563,1518,1681,7.78186,-24.0781
301,-657,7.73755,23.944,0.001852,0.000881357,0.00232784,0.00374457,-0.00101122,0.682628,0.00289297,0.0166995,1525,1681,7.7375,-23.9439
308,-657,7.7793,23.7501,0.00128085,0.00136616,0.00239583,0.00371972,-0.00107271,0.794299,0.00290419,0.012475,1532,1681,7.77928,-23.7501
315,-657,7.8197,23.5483,0.000757963,0.00162282,0.00248308,0.00371084,-0.00133006,0.871609,0.00301662,0.0109476,1539,1681,7.81974,-23.5483
322,-657,7.83679,23.3374,0.000514075,0.00191391,0.00231852,0.00363586,-0.00120787,0.931989,0.00291128,0.012948,1546,1681,7.83674,-23.3374
329,-657,7.84192,23.1146,0.000376334,0.00203613,0.00205192,0.00341963,-0.00100716,0.977566,0.00267933,0.0185727,1553,1681,7.84195,-23.1146
336,-657,7.83044,22.9105,0.000219927,0.00193676,0.00175922,0.00303582,-0.000879138,1.01238,0.00237187,0.0168871,1560,1681,7.83049,-22.9105
343,-657,7.84949,22.725,0.000102256,0.0017919,0.0013819,0.00256676,-0.0006726,1.05976,0.00197395,0.0145064,1567,1681,7.84954,-22.725
350,-657,7.85266,22.4885,1.93758e-05,0.00145892,0.001103,0.00205622,-0.000577928,1.07448,0.00159866,0.0160374,1574,1681,7.85271,-22.4885
357,-657,7.85083,22.261,-8.04364e-06,0.00111679,0.000801362,0.0015334,-0.000424654,1.09137,0.00118936,0.0146279,1581,1681,7.85078,-22.261
364,-657,7.84216,22.0765,-4.90636e-05,0.000445271,0.000599758,0.000846796,-0.000450589,0.98085,0.000760599,0.0106309,1588,1681,7.84212,-22.0765
371,-657,7.8385,21.8829,-0.000194471,-0.000189145,0.000542622,0.00035082,-0.000734436,0.787852,0.000639488,0.0145936,1595,1681,7.83852,-21.8829
378,-657,7.82446,21.6415,-0.000321311,-0.000922823,0.000633484,7.91864e-05,-0.00132332,0.56377,0.000909759,0.0139988,1602,1681,7.82441,-21.6415
385,-657,7.79651,21.3798,-0.000302353,-0.00137568,0.000625737,-1.46651e-05,-0.00166337,0.430939,0.00110406,0.0121091,1609,1681,7.79655,-21.3797
392,-657,7.79248,21.1388,-0.000443538,-0.00202544,0.000813599,-9.97884e-05,-0.00236919,0.399755,0.00154727,0.0130462,1616,1681,7.79246,-21.1388
399,-657,7.8269,20.9098,-0.000634974,-0.00264653,0.00106525,-0.000175713,-0.00310579,0.407053,0.00201451,0.0131176,1623,1681,7.82689,-20.9098
406,-657,7.83167,20.6849,-0.000743948,-0.00287032,0.00124445,-0.000170365,-0.0034439,0.431893,0.0022413,0.0137425,1630,1681,7.8317,-20.6849
413,-657,7.82983,20.4224,-0.000866135,-0.00292782,0.0014115,-0.000149132,-0.00364483,0.470005,0.00238173,0.0135517,1637,1681,7.82984,-20.4223
420,-657,7.82739,20.0989,-0.000951379,-0.0027114,0.00164433,3.3617e-05,-0.00369639,0.539702,0.00247554,0.0151333,1644,1681,7.8274,-20.0989
427,-657,7.79651,19.8068,-0.000729063,-0.00185724,0.00166616,0.000465904,-0.00305221,0.622176,0.00220656,0.0201865,1651,1681,7.79646,-19.8068
434,-657,7.87695,19.6171,-0.000363328,-0.000889868,0.00169856,0.00109224,-0.00234544,0.708512,0.00202823,0.0302828,1658,1681,7.87693,-19.617
441,-657,8.0354,19.4503,0,0,0,0,0,0,0,-1,1665,1681,8.03536,-19.4503
448,-657,7.48706,19.5122,0,0,0,0,0,0,0,-1,1672,1681,7.48703,-19.5122
455,-657,5.12244,16.671,0,0,0,0,0,0,0,-1,1679,1681,5.12248,-16.6711
462,-657,6.51733,15.4801,0,0,0,0,0,0,0,-1,1686,1681,6.51737,-15.4801
469,-657,7.38184,17.5225,0,0,0,0,0,0,0,-1,1693,1681,7.38188,-17.5224
476,-657,7.34668,19.126,0,0,0,0,0,0,0,-1,1700,1681,7.34674,-19.1259
483,-657,6.54016,18.3916,0,0,0,0,0,0,0,-1,1707,1681,6.5401,-18.3916
490,-657,6.27075,17.7283,0,0,0,0,0,0,0,-1,1714,1681,6.2707,-17.7283
497,-657,5.48621,17.2727,0,0,0,0,0,0,0,-1,1721,1681,5.48618,-17.2728
504,-657,0,0,0,0,0,0,0,0,0,-1,1728,1681,0,0
511,-657,0,0,0,0,0,0,0,0,0,-1,1735,1681,0,0
518,-657,0,0,0,0,0,0,0,0,0,-1,1742,1681,0,0
525,-657,0,0,0,0,0,0,0,0,0,-1,1749,1681,0,0
532,-657,0,0,0,0,0,0,0,0,0,-1,1756,1681,0,0
539,-657,0,0,0,0,0,0,0,0,0,-1,1763,1681,0,0
546,-657,0,0,0,0,0,0,0,0,0,-1,1770,1681,0,0
553,-657,0,0,0,0,0,0,0,0,0,-1,1777,1681,0,0
560,-657,0,0,0,0,0,0,0,0,0,-1,1784,1681,0,0
567,-657,0,0,0,0,0,0,0,0,0,-1,1791,1681,0,0
574,-657,0,0,0,0,0,0,0,0,0,-1,1798,1681,0,0
581,-657,0,0,0,0,0,0,0,0,0,-1,1805,1681,0,0
588,-657,0,0,0,0,0,0,0,0,0,-1,1812,1681,0,0
595,-657,0,0,0,0,0,0,0,0,0,-1,1819,1681,0,0
602,-657,0,0,0,0,0,0,0,0,0,-1,1826,1681,0,0
609,-657,0,0,0,0,0,0,0,0,0,-1,1833,1681,0,0
616,-657,0,0,0,0,0,0,0,0,0,-1,1840,1681,0,0
623,-657,0,0,0,0,0,0,0,0,0,-1,1847,1681,0,0
630,-657,0,0,0,0,0,0,0,0,0,-1,1854,1681,0,0
637,-657,0,0,0,0,0,0,0,0,0,-1,1861,1681,0,0
644,-657,0,0,0,0,0,0,0,0,0,-1,1868,1681,0,0
651,-657,0,0,0,0,0,0,0,0,0,-1,1875,1681,0,0
658,-657,0,0,0,0,0,0,0,0,0,-1,1882,1681,0,0
665,-657,0,0,0,0,0,0,0,0,0,-1,1889,1681,0,0
672,-657,0,0,0,0,0,0,0,0,0,-1,1896,1681,0,0
679,-657,0,0,0,0,0,0,0,0,0,-1,1903,1681,0,0
686,-657,0,0,0,0,0,0,0,0,0,-1,1910,1681,0,0
693,-657,0,0,0,0,0,0,0,0,0,-1,1917,1681,0,0
700,-657,0,0,0,0,0,0,0,0,0,-1,1924,1681,0,0
707,-657,0,0,0,0,0,0,0,0,0,-1,1931,1681,0,0
714,-657,0,0,0,0,0,0,0,0,0,-1,1938,1681,0,0
721,-657,0,0,0,0,0,0,0,0,0,-1,1945,1681,0,0
728,-657,0,0,0,0,0,0,0,0,0,-1,1952,1681,0,0
735,-657,0,0,0,0,0,0,0,0,0,-1,1959,1681,0,0
742,-657,0,0,0,0,0,0,0,0,0,-1,1966,1681,0,0
749,-657,0,0,0,0,0,0,0,0,0,-1,1973,1681,0,0
756,-657,0,0,0,0,0,0,0,0,0,-1,1980,1681,0,0
763,-657,0,0,0,0,0,0,0,0,0,-1,1987,1681,0,0
770,-657,0,0,0,0,0,0,0,0,0,-1,1994,1681,0,0
777,-657,0,0,0,0,0,0,0,0,0,-1,2001,1681,0,0
784,-657,0,0,0,0,0,0,0,0,0,-1,2008,1681,0,0
791,-657,0,0,0,0,0,0,0,0,0,-1,2015,1681,0,0
798,-657,0,0,0,0,0,0,0,0,0,-1,2022,1681,0,0
805,-657,0,0,0,0,0,0,0,0,0,-1,2029,1681,0,0
812,-657,0,0,0,0,0,0,0,0,0,-1,2036,1681,0,0
-700,-664,0,0,0,0,0,0,0,0,0,-1,524,1688,0,0
-693,-664,0,0,0,0,0,0,0,0,0,-1,531,1688,0,0
-686,-664,0,0,0,0,0,0,0,0,0,-1,538,1688,0,0
-679,-664,0,0,0,0,0,0,0,0,0,-1,545,1688,0,0
-672,-664,0,0,0,0,0,0,0,0,0,-1,552,1688,0,0
-665,-664,0,0,0,0,0,0,0,0,0,-1,559,1688,0,0
-658,-664,0,0,0,0,0,0,0,0,0,-1,566,1688,0,0
-651,-664,0,0,0,0,0,0,0,0,0,-1,573,1688,0,0
-644,-664,0,0,0,0,0,0,0,0,0,-1,580,1688,0,0
-637,-664,0,0,0,0,0,0,0,0,0,-1,587,1688,0,0
-630,-664,0,0,0,0,0,0,0,0,0,-1,594,1688,0,0
-623,-664,0,0,0,0,0,0,0,0,0,-1,601,1688,0,0
-616,-664,0,0,0,0,0,0,0,0,0,-1,608,1688,0,0
-609,-664,0,0,0,0,0,0,0,0,0,-1,615,1688,0,0
-602,-664,0,0,0,0,0,0,0,0,0,-1,622,1688,0,0
-595,-664,0,0,0,0,0,0,0,0,0,-1,629,1688,0,0
-588,-664,0,0,0,0,0,0,0,0,0,-1,636,1688,0,0
-581,-664,0,0,0,0,0,0,0,0,0,-1,643,1688,0,0
-574,-664,0,0,0,0,0,0,0,0,0,-1,650,1688,0,0
-567,-664,0,0,0,0,0,0,0,0,0,-1,657,1688,0,0
-560,-664,0,0,0,0,0,0,0,0,0,-1,664,1688,0,0
-553,-664,0,0,0,0,0,0,0,0,0,-1,671,1688,0,0
-546,-664,0,0,0,0,0,0,0,0,0,-1,678,1688,0,0
-539,-664,0,0,0,0,0,0,0,0,0,-1,685,1688,0,0
-532,-664,0,0,0,0,0,0,0,0,0,-1,692,1688,0,0
-525,-664,0,0,0,0,0,0,0,0,0,-1,699,1688,0,0
-518,-664,0,0,0,0,0,0,0,0,0,-1,706,1688,0,0
-511,-664,0,0,0,0,0,0,0,0,0,-1,713,1688,0,0
-504,-664,0,0,0,0,0,0,0,0,0,-1,720,1688,0,0
-497,-664,0,0,0,0,0,0,0,0,0,-1,727,1688,0,0
-490,-664,0,0,0,0,0,0,0,0,0,-1,734,1688,0,0
-483,-664,0,0,0,0,0,0,0,0,0,-1,741,1688,0,0
-476,-664,0,0,0,0,0,0,0,0,0,-1,748,1688,0,0
-469,-664,0,0,0,0,0,0,0,0,0,-1,755,1688,0,0
-462,-664,0,0,0,0,0,0,0,0,0,-1,762,1688,0,0
-455,-664,0,0,0,0,0,0,0,0,0,-1,769,1688,0,0
-448,-664,0,0,0,0,0,0,0,0,0,-1,776,1688,0,0
-441,-664,0,0,0,0,0,0,0,0,0,-1,783,1688,0,0
-434,-664,0,0,0,0,0,0,0,0,0,-1,790,1688,0,0
-427,-664,0,0,0,0,0,0,0,0,0,-1,797,1688,0,0
-420,-664,0,0,0,0,0,0,0,0,0,-1,804,1688,0,0
-413,-664,0,0,0,0,0,0,0,0,0,-1,811,1688,0,0
-406,-664,0,0,0,0,0,0,0,0,0,-1,818,1688,0,0
-399,-664,0,0,0,0,0,0,0,0,0,-1,825,1688,0,0
-392,-664,0,0,0,0,0,0,0,0,0,-1,832,1688,0,0
-385,-664,0,0,0,0,0,0,0,0,0,-1,839,1688,0,0
-378,-664,0,0,0,0,0,0,0,0,0,-1,846,1688,0,0
-371,-664,-1.61676,5.92737,0,0,0,0,0,0,0,-1,853,1688,-1.61675,-5.92735
-364,-664,-3.901,5.87024,0,0,0,0,0,0,0,-1,860,1688,-3.90097,-5.87027
-357,-664,-4.81012,4.53479,0,0,0,0,0,0,0,-1,867,1688,-4.81012,-4.5348
-350,-664,-5.7193,3.19934,0,0,0,0,0,0,0,-1,874,1688,-5.71927,-3.19932
-343,-664,2.42603,15.0261,0,0,0,0,0,0,0,-1,881,1688,2.42605,-15.0261
-336,-664,2.86487,15.2523,0,0,0,0,0,0,0,-1,888,1688,2.86489,-15.2524
-329,-664,3.44025,15.37,0,0,0,0,0,0,0,-1,895,1688,3.44027,-15.37
-322,-664,4.0293,17.2854,0,0,0,0,0,0,0,-1,902,1688,4.02932,-17.2854
-315,-664,4.86664,18.0215,0,0,0,0,0,0,0,-1,909,1688,4.86663,-18.0215
-308,-664,4.82312,18.7596,0,0,0,0,0,0,0,-1,916,1688,4.82314,-18.7597
-301,-664,4.82233,18.5792,0,0,0,0,0,0,0,-1,923,1688,4.82231,-18.5793
-294,-664,4.7998,18.9747,0.0202975,-0.0160767,-0.00930565,0.02254,-0.0183192,-0.236467,0.0236319,0.0464776,930,1688,4.79978,-18.9748
-287,-664,4.92194,19.3214,0.0143016,-0.0115226,-0.00691548,0.0160369,-0.0132578,-0.245853,0.0169387,0.0332427,937,1688,4.92194,-19.3214
-280,-664,4.7937,19.5823,0.00944123,-0.00769851,-0.00511068,0.0108494,-0.0091067,-0.268867,0.0115363,0.0239767,944,1688,4.79368,-19.5823
-273,-664,4.80109,19.8273,0.00580467,-0.00458225,-0.00374827,0.00701601,-0.0057936,-0.312581,0.00740685,0.0172443,951,1688,4.8011,-19.8273
-266,-664,4.77515,20.104,0.00320596,-0.00203369,-0.00276926,0.00439826,-0.00322599,-0.40656,0.00441917,0.0223332,958,1688,4.77514,-20.1041
-259,-664,4.76819,20.376,0.000695373,0.000527206,-0.00194715,0.00256025,-0.00133768,-0.76382,0.00228707,0.0182422,965,1688,4.7682,-20.376
-252,-664,4.77509,20.6561,-0.000823822,0.0019065,-0.00109494,0.00229136,-0.00120868,-1.2328,0.00205272,0.0157951,972,1688,4.7751,-20.6561
-245,-664,4.75635,20.9508,-0.00126185,0.0024187,-0.000558614,0.00250162,-0.00134476,-1.42344,0.00225394,0.0192427,979,1688,4.75633,-20.9508
-238,-664,4.77209,21.1808,-0.000962184,0.00253803,-0.000585651,0.00263342,-0.00105757,-1.40933,0.00219479,0.0218898,986,1688,4.77207,-21.1808
-231,-664,4.75952,21.3794,-0.000533621,0.00249998,-0.000465984,0.00256994,-0.000603586,-1.42176,0.00194595,0.0200746,993,1688,4.75952,-21.3794
-224,-664,4.74725,21.6531,0.000112006,0.0024839,-0.00023623,0.0025072,8.87077e-05,-1.47249,0.00164269,0.0147705,1000,1688,4.74725,-21.6531
-217,-664,4.75818,21.9026,0.000644032,0.00226975,0.000171054,0.00228756,0.000626229,1.46709,0.00136505,0.011191,1007,1688,4.75817,-21.9026
-210,-664,4.7464,22.1359,0.00114774,0.00207639,0.00060171,0.0023721,0.00085203,1.11401,0.00138752,0.0114284,1014,1688,4.74642,-22.1359
-203,-664,4.7511,22.3772,0.00174303,0.00180276,0.00100584,0.00277917,0.000766615,0.800241,0.00165743,0.0127467,1021,1688,4.75107,-22.3772
-196,-664,4.76978,22.5927,0.00226702,0.00147926,0.00142786,0.00335433,0.000391942,0.650819,0.0021177,0.0133085,1028,1688,4.76975,-22.5927
-189,-664,4.76855,22.8064,0.00272639,0.00127518,0.00180373,0.003945,5.65764e-05,0.594163,0.00261134,0.00983219,1035,1688,4.76851,-22.8064
-182,-664,4.76123,23.0128,0.0031577,0.00135423,0.00215606,0.004593,-8.10716e-05,0.587336,0.00308938,0.00904257,1042,1688,4.76122,-23.0129
-175,-664,4.77307,23.1892,0.00350955,0.00159157,0.00252107,0.00524786,-0.000146745,0.603654,0.0035485,0.0115513,1049,1688,4.77308,-23.1892
-168,-664,4.78906,23.3894,0.00366946,0.00205079,0.00284587,0.00581884,-9.85847e-05,0.646861,0.0039125,0.0129815,1056,1688,4.78904,-23.3894
-161,-664,4.78308,23.6117,0.00373571,0.00278731,0.00307504,0.0063729,0.000150128,0.708896,0.00419945,0.00975146,1063,1688,4.78306,-23.6117
-154,-664,4.8125,23.8024,0.00380532,0.00363701,0.00324961,0.00697187,0.000470459,0.772453,0.0044993,0.009213,1070,1688,4.81254,-23.8024
-147,-664,4.81738,23.9857,0.00376103,0.00441825,0.00335389,0.00745959,0.000719694,0.834232,0.00475136,0.00975544,1077,1688,4.81742,-23.9857
-140,-664,4.8446,24.1813,0.00368872,0.00524022,0.00338185,0.00793415,0.000994785,0.89814,0.004991,0.0102922,1084,1688,4.84459,-24.1812
-133,-664,4.84985,24.3948,0.00368364,0.00611308,0.00342348,0.00853095,0.00126576,0.95588,0.00531585,0.0118964,1091,1688,4.8499,-24.3947
-126,-664,4.97546,24.7244,0.00383371,0.00729588,0.00355134,0.00951557,0.00161402,1.01218,0.00588002,0.023378,1098,1688,4.97545,-24.7244
-119,-664,4.98047,24.9287,0.00414198,0.00828577,0.00369342,0.0104488,0.001979,1.04101,0.00640884,0.0393879,1105,1688,4.98051,-24.9287
-112,-664,5.12708,24.938,0,0,0,0,0,0,0,-1,1112,1688,5.1271,-24.938
-105,-664,4.48108,21.4276,0,0,0,0,0,0,0,-1,1119,1688,4.48104,-21.4276
-98,-664,4.98584,19.8645,0,0,0,0,0,0,0,-1,1126,1688,4.98586,-19.8645
-91,-664,4.74963,24.3629,0,0,0,0,0,0,0,-1,1133,1688,4.74969,-24.363
-84,-664,3.48389,16.6913,0,0,0,0,0,0,0,-1,1140,1688,3.4839,-16.6913
-77,-664,4.52014,11.2122,0,0,0,0,0,0,0,-1,1147,1688,4.5202,-11.2122
-70,-664,4.20374,8.24524,0,0,0,0,0,0,0,-1,1154,1688,4.20379,-8.24519
-63,-664,-4.677,2.40503,0,0,0,0,0,0,0,-1,1161,1688,-4.67702,-2.40498
-56,-664,-4.66504,3.32727,0,0,0,0,0,0,0,-1,1168,1688,-4.6651,-3.32724
-49,-664,-2.54297,3.31848,0,0,0,0,0,0,0,-1,1175,1688,-2.54297,-3.31852
-42,-664,-0.359253,4.38684,0,0,0,0,0,0,0,-1,1182,1688,-0.359261,-4.38685
-35,-664,-0.705566,3.55017,0,0,0,0,0,0,0,-1,1189,1688,-0.705567,-3.55023
-28,-664,-1.54236,10.2538,0,0,0,0,0,0,0,-1,1196,1688,-1.54236,-10.2538
-21,-664,5.79749,29.1941,0,0,0,0,0,0,0,-1,1203,1688,5.79749,-29.1941
-14,-664,5.91626,29.6753,-0.00336394,0.115592,0.0199768,0.118857,-0.00662912,1.40878,0.0815377,0.0443282,1210,1688,5.91628,-29.6753
-7,-664,5.70837,30.0627,-0.00233054,0.117582,0.0188534,0.120476,-0.00522492,1.41846,0.0821146,0.04758,1217,1688,5.70831,-30.0628
0,-664,5.69263,30.2244,-0.000313017,0.120014,0.0173204,0.122458,-0.00275657,1.43064,0.0825727,0.0478276,1224,1688,5.69264,-30.2244
7,-664,5.78101,29.9397,0.00302785,0.1207,0.0154124,0.122685,0.00104268,1.4427,0.0814449,0.0461047,1231,1688,5.78095,-29.9398
14,-664,5.59229,30.3531,0.00734528,0.118472,0.0132832,0.120038,0.00577958,1.45347,0.07817,0.0451621,1238,1688,5.59224,-30.3531
21,-664,6.18982,30.8018,0,0,0,0,0,0,0,-1,1245,1688,6.18982,-30.8018
28,-664,6.28271,30.453,0,0,0,0,0,0,0,-1,1252,1688,6.28275,-30.453
35,-664,6.49414,30.4189,0,0,0,0,0,0,0,-1,1259,1688,6.49419,-30.4189
42,-664,6.67761,29.962,0,0,0,0,0,0,0,-1,1266,1688,6.67757,-29.9621
49,-664,7.3418,30.4213,0,0,0,0,0,0,0,-1,1273,1688,7.34181,-30.4213
56,-664,7.95776,27.5785,0,0,0,0,0,0,0,-1,1280,1688,7.95774,-27.5785
63,-664,8.23877,27.1299,0,0,0,0,0,0,0,-1,1287,1688,8.23879,-27.1299
70,-664,7.60913,27.5001,0.0286425,0.0547803,0.00522538,0.0557862,0.0276366,1.38061,0.0322086,0.0496682,1294,1688,7.60913,-27.5001
77,-664,10.7998,32.5479,0.0201504,0.0484893,0.00451284,0.0491906,0.0194491,1.41663,0.0286066,0.0431531,1301,1688,10.7998,-32.5479
84,-664,6.97339,26.2985,0.00895719,0.0449789,0.0037259,0.0453602,0.00857583,1.4688,0.0278256,0.0437053,1308,1688,6.97338,-26.2985
91,-664,6.98328,26.4044,-0.0034792,0.0423018,0.00344078,0.042559,-0.00373636,1.4962,0.0296966,0.0419265,1315,1688,6.98325,-26.4044
98,-664,6.80957,26.5273,-0.0162573,0.0413775,0.00345869,0.0415843,-0.0164641,1.51107,0.0345445,0.0484762,1322,1688,6.80955,-26.5274
105,-664,6.61633,26.6472,0,0,0,0,0,0,0,-1,1329,1688,6.61636,-26.6472
112,-664,7.04114,27.2886,0,0,0,0,0,0,0,-1,1336,1688,7.0412,-27.2886
119,-664,6.53174,27.4276,0,0,0,0,0,0,0,-1,1343,1688,6.53172,-27.4276
126,-664,7.22144,25.6191,0,0,0,0,0,0,0,-1,1350,1688,7.22148,-25.6191
133,-664,6.90247,26.1499,0,0,0,0,0,0,0,-1,1357,1688,6.90245,-26.1499
140,-664,6.41479,26.3579,-0.065171,0.066037,0.00591686,0.0663033,-0.0654373,1.52582,0.076061,0.0471474,1364,1688,6.41477,-26.3579
147,-664,5.7406,26.3191,-0.0658182,0.0685356,0.00413609,0.0686628,-0.0659454,1.54005,0.0777214,0.0482911,1371,1688,5.74065,-26.3191
154,-664,4.76721,26.2594,0,0,0,0,0,0,0,-1,1378,1688,4.76723,-26.2594
161,-664,4.60132,1.56238,0,0,0,0,0,0,0,-1,1385,1688,4.60134,-1.56233
168,-664,5.172,1.25488,0,0,0,0,0,0,0,-1,1392,1688,5.17203,-1.25484
175,-664,5.58313,1.16467,0,0,0,0,0,0,0,-1,1399,1688,5.58317,-1.16466
182,-664,5.74268,1.41113,0,0,0,0,0,0,0,-1,1406,1688,5.74263,-1.41115
189,-664,5.87744,1.87061,0,0,0,0,0,0,0,-1,1413,1688,5.87745,-1.87065
196,-664,6.7594,5.97473,0,0,0,0,0,0,0,-1,1420,1688,6.75943,-5.97478
203,-664,5.38452,5.22034,0,0,0,0,0,0,0,-1,1427,1688,5.38453,-5.2203
210,-664,5.25549,6.45715,0,0,0,0,0,0,0,-1,1434,1688,5.25549,-6.45721
217,-664,5.72009,6.73975,0,0,0,0,0,0,0,-1,1441,1688,5.72014,-6.73972
224,-664,5.05725,7.42908,0,0,0,0,0,0,0,-1,1448,1688,5.05723,-7.42912
231,-664,5.13318,7.60864,0,0,0,0,0,0,0,-1,1455,1688,5.13313,-7.60862
238,-664,4.23193,6.45471,0,0,0,0,0,0,0,-1,1462,1688,4.23197,-6.45476
245,-664,4.42004,6.80896,0,0,0,0,0,0,0,-1,1469,1688,4.4201,-6.80901
252,-664,3.67346,6.85461,0,0,0,0,0,0,0,-1,1476,1688,3.6734,-6.85462
259,-664,4.55823,11.7435,0,0,0,0,0,0,0,-1,1483,1688,4.55826,-11.7435
266,-664,7.36499,24.2617,0,0,0,0,0,0,0,-1,1490,1688,7.36502,-24.2617
273,-664,7.53174,24.4526,0,0,0,0,0,0,0,-1,1497,1688,7.53174,-24.4527
280,-664,7.50439,24.3451,0.00350599,-0.000492101,0.000576124,0.00358735,-0.000573465,0.140298,0.00260386,0.0261784,1504,1688,7.50445,-24.3451
287,-664,7.48328,24.1989,0.00284711,5.21852e-05,0.00103297,0.00318744,-0.000288144,0.318268,0.00222723,0.0194726,1511,1688,7.48333,-24.1989
294,-664,7.53467,24.0597,0.00219689,0.000196593,0.00126149,0.00280661,-0.000413122,0.450221,0.00202289,0.0150068,1518,1688,7.53462,-24.0596
301,-664,7.58459,23.9133,0.00171421,0.000441926,0.00143073,0.00264385,-0.000487709,0.576209,0.00194562,0.010735,1525,1688,7.58459,-23.9133
308,-664,7.61389,23.723,0.00126666,0.000791087,0.00147202,0.00251998,-0.000462227,0.705321,0.00185337,0.0107371,1532,1688,7.61394,-23.723
315,-664,7.62195,23.533,0.000880637,0.000919061,0.00153857,0.00243854,-0.000638838,0.791641,0.00187527,0.0111868,1539,1688,7.62198,-23.5329
322,-664,7.63135,23.3573,0.000658846,0.00104183,0.00145405,0.00231694,-0.000616264,0.850869,0.00178585,0.0137629,1546,1688,7.63135,-23.3573
329,-664,7.61157,23.1619,0.000502789,0.000942125,0.00129908,0.00203998,-0.000595069,0.869153,0.00159577,0.0168521,1553,1688,7.61152,-23.1618
336,-664,7.61438,22.9338,0.000325975,0.000697154,0.00114794,0.00167441,-0.000651281,0.865541,0.00138537,0.014845,1560,1688,7.61444,-22.9338
343,-664,7.62305,22.7208,0.000149319,0.000360832,0.000974557,0.00123535,-0.000725202,0.839445,0.00114463,0.0112794,1567,1688,7.62301,-22.7208
350,-664,7.62878,22.5133,-8.94023e-06,-0.000196799,0.00088872,0.000790801,-0.00099654,0.732748,0.0010342,0.0125189,1574,1688,7.62878,-22.5134
357,-664,7.62659,22.2913,-0.000111386,-0.000689236,0.000773185,0.000425094,-0.00122572,0.606591,0.000989754,0.0133977,1581,1688,7.62655,-22.2913
364,-664,7.62244,22.0704,-0.000239937,-0.00144575,0.000753268,0.000121992,-0.00180768,0.447909,0.00124777,0.0115063,1588,1688,7.62239,-22.0704
371,-664,7.62769,21.8612,-0.0004865,-0.00214426,0.00084423,-0.000132263,-0.0024985,0.397286,0.00162338,0.0134993,1595,1688,7.62767,-21.8612
378,-664,7.61353,21.63,-0.000705222,-0.00294624,0.00106349,-0.000280882,-0.00337057,0.379649,0.00215952,0.01198,1602,1688,7.61357,-21.6301
385,-664,7.57678,21.3944,-0.00074778,-0.00335807,0.0012068,-0.000275351,-0.0038305,0.373134,0.00246701,0.0126398,1609,1688,7.57679,-21.3944
392,-664,7.54504,21.1693,-0.000976666,-0.00386878,0.00150144,-0.00033816,-0.00450728,0.402093,0.00289872,0.0170668,1616,1688,7.54498,-21.1693
399,-664,7.57239,20.91,-0.00122649,-0.00445777,0.00179781,-0.000425026,-0.00525924,0.419357,0.00337342,0.0140398,1623,1688,7.57235,-20.91
406,-664,7.59375,20.6642,-0.00129517,-0.00454038,0.00198454,-0.000354334,-0.00548122,0.442701,0.00354195,0.0152639,1630,1688,7.59372,-20.6641
413,-664,7.61499,20.3805,-0.00137333,-0.00439107,0.00212605,-0.000275135,-0.00548927,0.476793,0.00357134,0.0172766,1637,1688,7.61496,-20.3805
420,-664,7.61401,20.0919,-0.0014489,-0.00395977,0.00240139,5.42216e-06,-0.00541409,0.54454,0.0036112,0.033512,1644,1688,7.614,-20.0919
427,-664,7.453,19.9601,-0.00100102,-0.00281871,0.00238418,0.000641666,-0.00446139,0.603301,0.0032096,0.0492023,1651,1688,7.45302,-19.9601
434,-664,7.64819,19.423,-0.000329932,-0.00163242,0.00239758,0.00150328,-0.00346563,0.652785,0.00294243,0.0488747,1658,1688,7.64822,-19.423
441,-664,7.98071,19.0251,0,0,0,0,0,0,0,-1,1665,1688,7.98067,-19.0251
448,-664,8.00732,18.0154,0,0,0,0,0,0,0,-1,1672,1688,8.0073,-18.0154
455,-664,7.53198,11.3838,0,0,0,0,0,0,0,-1,1679,1688,7.53195,-11.3838
462,-664,4.3147,4.25439,0,0,0,0,0,0,0,-1,1686,1688,4.31467,-4.25435
469,-664,6.05469,7.49341,0,0,0,0,0,0,0,-1,1693,1688,6.05474,-7.49339
476,-664,9.76514,11.5648,0,0,0,0,0,0,0,-1,1700,1688,9.76511,-11.5648
483,-664,8.41895,10.9768,0,0,0,0,0,0,0,-1,1707,1688,8.41897,-10.9769
490,-664,3.90771,13.2842,0,0,0,0,0,0,0,-1,1714,1688,3.90776,-13.2841
497,-664,0,0,0,0,0,0,0,0,0,-1,1721,1688,0,0
504,-664,0,0,0,0,0,0,0,0,0,-1,1728,1688,0,0
511,-664,0,0,0,0,0,0,0,0,0,-1,1735,1688,0,0
518,-664,0,0,0,0,0,0,0,0,0,-1,1742,1688,0,0
525,-664,0,0,0,0,0,0,0,0,0,-1,1749,1688,0,0
532,-664,0,0,0,0,0,0,0,0,0,-1,1756,1688,0,0
539,-664,0,0,0,0,0,0,0,0,0,-1,1763,1688,0,0
546,-664,0,0,0,0,0,0,0,0,0,-1,1770,1688,0,0
553,-664,0,0,0,0,0,0,0,0,0,-1,1777,1688,0,0
560,-664,0,0,0,0,0,0,0,0,0,-1,1784,1688,0,0
567,-664,0,0,0,0,0,0,0,0,0,-1,1791,1688,0,0
574,-664,0,0,0,0,0,0,0,0,0,-1,1798,1688,0,0
581,-664,0,0,0,0,0,0,0,0,0,-1,1805,1688,0,0
588,-664,0,0,0,0,0,0,0,0,0,-1,1812,1688,0,0
595,-664,0,0,0,0,0,0,0,0,0,-1,1819,1688,0,0
602,-664,0,0,0,0,0,0,0,0,0,-1,1826,1688,0,0
609,-664,0,0,0,0,0,0,0,0,0,-1,1833,1688,0,0
616,-664,0,0,0,0,0,0,0,0,0,-1,1840,1688,0,0
623,-664,0,0,0,0,0,0,0,0,0,-1,1847,1688,0,0
630,-664,0,0,0,0,0,0,0,0,0,-1,1854,1688,0,0
637,-664,0,0,0,0,0,0,0,0,0,-1,1861,1688,0,0
644,-664,0,0,0,0,0,0,0,0,0,-1,1868,1688,0,0
651,-664,0,0,0,0,0,0,0,0,0,-1,1875,1688,0,0
658,-664,0,0,0,0,0,0,0,0,0,-1,1882,1688,0,0
665,-664,0,0,0,0,0,0,0,0,0,-1,1889,1688,0,0
672,-664,0,0,0,0,0,0,0,0,0,-1,1896,1688,0,0
679,-664,0,0,0,0,0,0,0,0,0,-1,1903,1688,0,0
686,-664,0,0,0,0,0,0,0,0,0,-1,1910,1688,0,0
693,-664,0,0,0,0,0,0,0,0,0,-1,1917,1688,0,0
700,-664,0,0,0,0,0,0,0,0,0,-1,1924,1688,0,0
707,-664,0,0,0,0,0,0,0,0,0,-1,1931,1688,0,0
714,-664,0,0,0,0,0,0,0,0,0,-1,1938,1688,0,0
721,-664,0,0,0,0,0,0,0,0,0,-1,1945,1688,0,0
728,-664,0,0,0,0,0,0,0,0,0,-1,1952,1688,0,0
735,-664,0,0,0,0,0,0,0,0,0,-1,1959,1688,0,0
742,-664,0,0,0,0,0,0,0,0,0,-1,1966,1688,0,0
749,-664,0,0,0,0,0,0,0,0,0,-1,1973,1688,0,0
756,-664,0,0,0,0,0,0,0,0,0,-1,1980,1688,0,0
763,-664,0,0,0,0,0,0,0,0,0,-1,1987,1688,0,0
770,-664,0,0,0,0,0,0,0,0,0,-1,1994,1688,0,0
777,-664,0,0,0,0,0,0,0,0,0,-1,2001,1688,0,0
784,-664,0,0,0,0,0,0,0,0,0,-1,2008,1688,0,0
791,-664,0,0,0,0,0,0,0,0,0,-1,2015,1688,0,0
798,-664,0,0,0,0,0,0,0,0,0,-1,2022,1688,0,0
805,-664,0,0,0,0,0,0,0,0,0,-1,2029,1688,0,0
812,-664,0,0,0,0,0,0,0,0,0,-1,2036,1688,0,0
-700,-671,0,0,0,0,0,0,0,0,0,-1,524,1695,0,0
-693,-671,0,0,0,0,0,0,0,0,0,-1,531,1695,0,0
-686,-671,0,0,0,0,0,0,0,0,0,-1,538,1695,0,0
-679,-671,0,0,0,0,0,0,0,0,0,-1,545,1695,0,0
-672,-671,0,0,0,0,0,0,0,0,0,-1,552,1695,0,0
-665,-671,0,0,0,0,0,0,0,0,0,-1,559,1695,0,0
-658,-671,0,0,0,0,0,0,0,0,0,-1,566,1695,0,0
-651,-671,0,0,0,0,0,0,0,0,0,-1,573,1695,0,0
-644,-671,0,0,0,0,0,0,0,0,0,-1,580,1695,0,0
-637,-671,0,0,0,0,0,0,0,0,0,-1,587,1695,0,0
-630,-671,0,0,0,0,0,0,0,0,0,-1,594,1695,0,0
-623,-671,0,0,0,0,0,0,0,0,0,-1,601,1695,0,0
-616,-671,0,0,0,0,0,0,0,0,0,-1,608,1695,0,0
-609,-671,0,0,0,0,0,0,0,0,0,-1,615,1695,0,0
-602,-671,0,0,0,0,0,0,0,0,0,-1,622,1695,0,0
-595,-671,0,0,0,0,0,0,0,0,0,-1,629,1695,0,0
-588,-671,0,0,0,0,0,0,0,0,0,-1,636,1695,0,0
-581,-671,0,0,0,0,0,0,0,0,0,-1,643,1695,0,0
-574,-671,0,0,0,0,0,0,0,0,0,-1,650,1695,0,0
-567,-671,0,0,0,0,0,0,0,0,0,-1,657,1695,0,0
-560,-671,0,0,0,0,0,0,0,0,0,-1,664,1695,0,0
-553,-671,0,0,0,0,0,0,0,0,0,-1,671,1695,0,0
-546,-671,0,0,0,0,0,0,0,0,0,-1,678,1695,0,0
-539,-671,0,0,0,0,0,0,0,0,0,-1,685,1695,0,0
-532,-671,0,0,0,0,0,0,0,0,0,-1,692,1695,0,0
-525,-671,0,0,0,0,0,0,0,0,0,-1,699,1695,0,0
-518,-671,0,0,0,0,0,0,0,0,0,-1,706,1695,0,0
-511,-671,0,0,0,0,0,0,0,0,0,-1,713,1695,0,0
-504,-671,0,0,0,0,0,0,0,0,0,-1,720,1695,0,0
-497,-671,0,0,0,0,0,0,0,0,0,-1,727,1695,0,0
-490,-671,0,0,0,0,0,0,0,0,0,-1,734,1695,0,0
-483,-671,0,0,0,0,0,0,0,0,0,-1,741,1695,0,0
-476,-671,0,0,0,0,0,0,0,0,0,-1,748,1695,0,0
-469,-671,0,0,0,0,0,0,0,0,0,-1,755,1695,0,0
-462,-671,0,0,0,0,0,0,0,0,0,-1,762,1695,0,0
-455,-671,0,0,0,0,0,0,0,0,0,-1,769,1695,0,0
-448,-671,0,0,0,0,0,0,0,0,0,-1,776,1695,0,0
-441,-671,0,0,0,0,0,0,0,0,0,-1,783,1695,0,0
-434,-671,0,0,0,0,0,0,0,0,0,-1,790,1695,0,0
-427,-671,0,0,0,0,0,0,0,0,0,-1,797,1695,0,0
-420,-671,0,0,0,0,0,0,0,0,0,-1,804,1695,0,0
-413,-671,0,0,0,0,0,0,0,0,0,-1,811,1695,0,0
-406,-671,0,0,0,0,0,0,0,0,0,-1,818,1695,0,0
-399,-671,0,0,0,0,0,0,0,0,0,-1,825,1695,0,0
-392,-671,0,0,0,0,0,0,0,0,0,-1,832,1695,0,0
-385,-671,0,0,0,0,0,0,0,0,0,-1,839,1695,0,0
-378,-671,0,0,0,0,0,0,0,0,0,-1,846,1695,0,0
-371,-671,0,0,0,0,0,0,0,0,0,-1,853,1695,0,0
-364,-671,-4.18738,7.51416,0,0,0,0,0,0,0,-1,860,1695,-4.18739,-7.51419
-357,-671,-5.02393,6.07129,0,0,0,0,0,0,0,-1,867,1695,-5.0239,-6.07135
-350,-671,-5.72333,4.58386,0,0,0,0,0,0,0,-1,874,1695,-5.72333,-4.58386
-343,-671,-6.4884,3.11353,0,0,0,0,0,0,0,-1,881,1695,-6.48839,-3.11349
-336,-671,3.0163,15.2433,0,0,0,0,0,0,0,-1,888,1695,3.01632,-15.2433
-329,-671,3.9389,15.3644,0,0,0,0,0,0,0,-1,895,1695,3.93891,-15.3643
-322,-671,3.91541,19.5708,0,0,0,0,0,0,0,-1,902,1695,3.91543,-19.5708
-315,-671,4.52441,19.6648,0.0623514,-0.0485242,-0.0266294,0.0684154,-0.0545882,-0.223901,0.0711656,0.0497263,909,1695,4.52441,-19.6648
-308,-671,5.07489,19.746,0.0498532,-0.0386252,-0.0219771,0.0550114,-0.0437834,-0.230533,0.0571618,0.0461658,916,1695,5.0749,-19.7459
-301,-671,5.58893,19.8263,0,0,0,0,0,0,0,-1,923,1695,5.58892,-19.8263
-294,-671,5.01788,18.86,0,0,0,0,0,0,0,-1,930,1695,5.01791,-18.86
-287,-671,5.17169,19.1906,0.0201034,-0.0159903,-0.0101956,0.0227843,-0.0186712,-0.257125,0.0239736,0.0479068,937,1695,5.17172,-19.1906
-280,-671,5.20062,19.5983,0.0132877,-0.0105845,-0.00755498,0.0154778,-0.0127746,-0.282148,0.0163364,0.0410565,944,1695,5.20065,-19.5983
-273,-671,5.11053,19.8411,0.00806518,-0.00614445,-0.00560878,0.0100123,-0.00809153,-0.334132,0.0104718,0.0346105,951,1695,5.11053,-19.8411
-266,-671,5.16174,20.2029,0.00431228,-0.00248367,-0.00420771,0.00632273,-0.00449413,-0.445732,0.00627479,0.0252052,958,1695,5.16173,-20.2028
-259,-671,5.03613,20.4341,0.000754136,0.00111636,-0.0030736,0.00401418,-0.00214368,-0.814827,0.0036095,0.023946,965,1695,5.03612,-20.4341
-252,-671,5.00055,20.6759,-0.00146092,0.0029609,-0.00188237,0.00365368,-0.00215371,-1.21814,0.00338998,0.0176164,972,1695,5.00052,-20.6758
-245,-671,4.99811,20.9391,-0.00224702,0.00366217,-0.00113487,0.00387263,-0.00245748,-1.38743,0.00368501,0.0197713,979,1695,4.99812,-20.9391
-238,-671,5.02783,21.173,-0.00203799,0.00381683,-0.00117502,0.00404384,-0.002265,-1.37995,0.00369036,0.0198699,986,1695,5.02781,-21.1729
-231,-671,5.00464,21.3967,-0.00166228,0.00390257,-0.000985767,0.00407203,-0.00183174,-1.40055,0.00348939,0.0159122,993,1695,5.00466,-21.3968
-224,-671,4.97186,21.6414,-0.00100465,0.00386428,-0.000671723,0.00395525,-0.00109562,-1.43618,0.00306796,0.0129508,1000,1695,4.97184,-21.6413
-217,-671,4.97668,21.8751,-0.000484298,0.00351983,-0.000218499,0.00353171,-0.000496186,-1.51644,0.0025361,0.0123941,1007,1695,4.97666,-21.8751
-210,-671,4.97833,22.1248,4.32277e-05,0.00316483,0.000296811,0.0031928,1.52567e-05,1.47684,0.00212347,0.0114868,1014,1695,4.97835,-22.1247
-203,-671,4.98779,22.3633,0.000679876,0.00270716,0.000776583,0.00297044,0.000416588,1.24392,0.00185707,0.0181668,1021,1695,4.98781,-22.3632
-196,-671,4.97217,22.5885,0.00122856,0.00216887,0.00124938,0.00303363,0.000363796,0.965358,0.00191272,0.0155416,1028,1695,4.97215,-22.5885
-189,-671,4.97986,22.8379,0.00171788,0.00172767,0.00161515,0.00333794,0.000107614,0.786914,0.0021903,0.0116315,1035,1695,4.97982,-22.8378
-182,-671,4.95862,23.019,0.00217915,0.00154196,0.00189838,0.00378549,-6.43748e-05,0.70226,0.00254539,0.00912414,1042,1695,4.95862,-23.0191
-175,-671,4.95923,23.191,0.00254227,0.00150851,0.00217272,0.00425875,-0.000207967,0.668622,0.00291096,0.0119702,1049,1695,4.95928,-23.191
-168,-671,4.96655,23.3887,0.00271665,0.00169973,0.00237051,0.00463262,-0.000216242,0.679752,0.00316296,0.0132867,1056,1695,4.96655,-23.3887
-161,-671,4.97095,23.6134,0.00277699,0.00215535,0.00243765,0.00492356,8.78843e-06,0.721987,0.00327945,0.00927887,1063,1695,4.97096,-23.6134
-154,-671,4.99072,23.7994,0.00282836,0.00281095,0.0024341,0.00525377,0.000385536,0.783611,0.00338134,0.00838495,1070,1695,4.99076,-23.7994
-147,-671,5.00708,23.9949,0.00279449,0.00347698,0.00235842,0.00551871,0.00075276,0.857246,0.00345566,0.0089222,1077,1695,5.00708,-23.9949
-140,-671,5.03308,24.1812,0.00270933,0.00414805,0.00226069,0.00580108,0.0010563,0.939434,0.00356779,0.0100961,1084,1695,5.03313,-24.1812
-133,-671,5.04468,24.3455,0.00271386,0.00481326,0.00219661,0.0061981,0.00132902,1.00829,0.00376801,0.0132217,1091,1695,5.04466,-24.3455
-126,-671,5.08875,24.5873,0.00297395,0.00588187,0.00236835,0.00720695,0.00164887,1.06069,0.00436021,0.0177781,1098,1695,5.08874,-24.5872
-119,-671,5.10046,24.869,0.00334584,0.00661062,0.00252576,0.00798558,0.00197088,1.07228,0.00480348,0.0311528,1105,1695,5.10049,-24.8691
-112,-671,5.09729,25.0918,0.00393246,0.00726878,0.00249084,0.00859846,0.00260278,1.08045,0.00509152,0.0442317,1112,1695,5.09732,-25.0917
-105,-671,5.00879,25.1609,0,0,0,0,0,0,0,-1,1119,1695,5.00876,-25.1608
-98,-671,5.12085,25.1075,0,0,0,0,0,0,0,-1,1126,1695,5.12086,-25.1076
-91,-671,5.25232,25.1049,0,0,0,0,0,0,0,-1,1133,1695,5.2523,-25.1049
-84,-671,4.97632,24.9094,0,0,0,0,0,0,0,-1,1140,1695,4.97634,-24.9094
-77,-671,4.31763,16.489,0,0,0,0,0,0,0,-1,1147,1695,4.31757,-16.489
-70,-671,3.06067,10.7737,0,0,0,0,0,0,0,-1,1154,1695,3.0607,-10.7737
-63,-671,2.94592,6.90198,0,0,0,0,0,0,0,-1,1161,1695,2.94594,-6.90198
-56,-671,-3.07678,2.87976,0,0,0,0,0,0,0,-1,1168,1695,-3.07675,-2.87979
-49,-671,-1.05957,4.76917,0,0,0,0,0,0,0,-1,1175,1695,-1.05958,-4.76921
-42,-671,0.539307,3.7865,0,0,0,0,0,0,0,-1,1182,1695,0.539266,-3.78648
-35,-671,-0.272461,0.347534,0,0,0,0,0,0,0,-1,1189,1695,-0.272434,-0.347569
-28,-671,-10.4878,17.2009,0,0,0,0,0,0,0,-1,1196,1695,-10.4878,-17.2009
-21,-671,5.25415,28.8508,0,0,0,0,0,0,0,-1,1203,1695,5.25416,-28.8508
-14,-671,5.76001,28.9102,0,0,0,0,0,0,0,-1,1210,1695,5.76001,-28.9101
-7,-671,5.23853,28.8973,0,0,0,0,0,0,0,-1,1217,1695,5.23858,-28.8974
0,-671,5.34387,29.03,0,0,0,0,0,0,0,-1,1224,1695,5.34392,-29.03
7,-671,6.27222,30.2355,0,0,0,0,0,0,0,-1,1231,1695,6.27227,-30.2354
14,-671,6.04272,29.9845,0,0,0,0,0,0,0,-1,1238,1695,6.04273,-29.9845
21,-671,6.1366,29.8429,0.0125745,0.102662,0.010408,0.103849,0.0113877,1.45726,0.0657663,0.0491642,1245,1695,6.13662,-29.8429
28,-671,6.2146,29.5634,0.0193134,0.0998368,0.00989056,0.101034,0.0181163,1.45035,0.0622028,0.0483917,1252,1695,6.21465,-29.5634
35,-671,6.37866,29.4752,0.0244019,0.0940948,0.00899603,0.0952373,0.0232594,1.44447,0.0573333,0.0467267,1259,1695,6.37862,-29.4752
42,-671,6.48413,29.2483,0.0285036,0.0864046,0.00844245,0.0876105,0.0272977,1.42892,0.0517652,0.0461462,1266,1695,6.48417,-29.2483
49,-671,6.45227,29.3929,0,0,0,0,0,0,0,-1,1273,1695,6.45229,-29.3929
56,-671,7.64441,27.6104,0,0,0,0,0,0,0,-1,1280,1695,7.64446,-27.6104
63,-671,6.93335,27.9421,0,0,0,0,0,0,0,-1,1287,1695,6.93341,-27.9421
70,-671,7.27954,27.7744,0,0,0,0,0,0,0,-1,1294,1695,7.27954,-27.7744
77,-671,7.05872,27.7539,0,0,0,0,0,0,0,-1,1301,1695,7.05872,-27.7539
84,-671,6.60669,26.8838,0.011063,0.0389675,0.00542246,0.0399842,0.0100463,1.38546,0.0240182,0.0472137,1308,1695,6.60665,-26.8838
91,-671,6.72766,26.6221,0.000778752,0.0351562,0.00533788,0.0359659,-3.10019e-05,1.42024,0.0239876,0.0447243,1315,1695,6.72766,-26.6221
98,-671,6.75073,26.6754,-0.00995692,0.0330346,0.00545745,0.0337166,-0.0106389,1.44648,0.0267391,0.0443235,1322,1695,6.75074,-26.6754
105,-671,7.07642,27.0226,-0.0209915,0.033774,0.00593202,0.0344092,-0.0216267,1.46413,0.0326317,0.0458014,1329,1695,7.07645,-27.0226
112,-671,7.03809,27.3009,-0.0310504,0.0365271,0.00648874,0.0371445,-0.0316678,1.47593,0.0397707,0.0445751,1336,1695,7.03804,-27.3008
119,-671,6.83374,27.5934,0,0,0,0,0,0,0,-1,1343,1695,6.83379,-27.5934
126,-671,6.90845,26.7291,0,0,0,0,0,0,0,-1,1350,1695,6.90845,-26.7291
133,-671,6.64709,26.3669,-0.0513831,0.0454827,0.00809909,0.0461552,-0.0520556,1.48795,0.0567361,0.0486332,1357,1695,6.64705,-26.367
140,-671,5.96594,26.4642,-0.0536014,0.0490142,0.00807028,0.049645,-0.0542322,1.49279,0.059993,0.0467748,1364,1695,5.966,-26.4642
147,-671,5.33875,26.5579,-0.0545371,0.0511538,0.00702312,0.0516185,-0.0550018,1.50473,0.0615675,0.04508,1371,1695,5.3388,-26.5578
154,-671,4.69934,26.6561,0,0,0,0,0,0,0,-1,1378,1695,4.69929,-26.6561
161,-671,4.49292,4.91272,0,0,0,0,0,0,0,-1,1385,1695,4.49297,-4.91273
168,-671,5.17639,6.1416,0,0,0,0,0,0,0,-1,1392,1695,5.1764,-6.14164
175,-671,5.6731,1.64685,0,0,0,0,0,0,0,-1,1399,1695,5.67313,-1.64691
182,-671,5.56812,1.71692,0,0,0,0,0,0,0,-1,1406,1695,5.56809,-1.71686
189,-671,6.98315,6.36169,0,0,0,0,0,0,0,-1,1413,1695,6.98312,-6.36175
196,-671,5.38123,5.69775,0,0,0,0,0,0,0,-1,1420,1695,5.38125,-5.69769
203,-671,5.95117,8.11658,0,0,0,0,0,0,0,-1,1427,1695,5.9512,-8.11662
210,-671,4.73596,8.39624,0,0,0,0,0,0,0,-1,1434,1695,4.736,-8.39618
217,-671,5.37097,11.863,0,0,0,0,0,0,0,-1,1441,1695,5.37094,-11.863
224,-671,5.08167,13.6694,0,0,0,0,0,0,0,-1,1448,1695,5.08165,-13.6695
231,-671,5.66663,15.3348,0,0,0,0,0,0,0,-1,1455,1695,5.66667,-15.3349
238,-671,6.32959,16.2036,0,0,0,0,0,0,0,-1,1462,1695,6.32961,-16.2037
245,-671,7.42578,23.207,0,0,0,0,0,0,0,-1,1469,1695,7.42582,-23.2071
252,-671,7.30725,24.6885,0,0,0,0,0,0,0,-1,1476,1695,7.30731,-24.6884
259,-671,7.26111,24.496,0,0,0,0,0,0,0,-1,1483,1695,7.26106,-24.496
266,-671,7.31946,24.6758,0.00299501,-0.00111504,0.00048384,0.0030512,-0.00117123,0.115616,0.00251707,0.0353314,1490,1695,7.31943,-24.6758
273,-671,7.35168,24.5701,0.0028621,-0.000978212,0.000321366,0.0028888,-0.00100492,0.0829138,0.0023341,0.0126938,1497,1695,7.3517,-24.57
280,-671,7.34802,24.4164,0.00260758,-0.00081547,0.000521597,0.00268529,-0.000893186,0.147907,0.00215066,0.00897444,1504,1695,7.34802,-24.4164
287,-671,7.35083,24.2114,0.00218576,-0.000267325,0.000712371,0.00237762,-0.00045919,0.26309,0.00175825,0.0103602,1511,1695,7.35081,-24.2115
294,-671,7.35693,24.0302,0.00175366,2.25216e-05,0.000779584,0.00205297,-0.000276797,0.366591,0.00146963,0.0110897,1518,1695,7.35691,-24.0301
301,-671,7.38623,23.8868,0.00140132,0.000298318,0.000821128,0.00183896,-0.000139325,0.489681,0.00127496,0.0105095,1525,1695,7.38628,-23.8869
308,-671,7.40125,23.7247,0.00107427,0.000563641,0.000811219,0.0016694,-3.14922e-05,0.632941,0.00112358,0.0112945,1532,1695,7.40121,-23.7247
315,-671,7.41223,23.5475,0.000836746,0.000567907,0.000823659,0.00153688,-0.000132229,0.704512,0.00107139,0.0124001,1539,1695,7.41222,-23.5475
322,-671,7.40955,23.3793,0.000653034,0.000494273,0.000787511,0.00136516,-0.000217848,0.735168,0.000990736,0.0141134,1546,1695,7.40953,-23.3792
329,-671,7.37585,23.1937,0.000498161,0.000180087,0.000694804,0.0010519,-0.000373649,0.672889,0.000853527,0.0135287,1553,1695,7.3759,-23.1937
336,-671,7.39465,22.9607,0.000321627,-0.000254493,0.000620326,0.000717514,-0.00065038,0.568029,0.000790071,0.011215,1560,1695,7.3947,-22.9606
343,-671,7.41663,22.7289,9.8234e-05,-0.000842988,0.000598843,0.000389258,-0.00113401,0.452366,0.000913827,0.0102713,1567,1695,7.41665,-22.7288
350,-671,7.41064,22.5438,-0.000122581,-0.00169823,0.000671922,0.00012504,-0.00194585,0.353083,0.00134086,0.0103302,1574,1695,7.41063,-22.5438
357,-671,7.39783,22.3021,-0.000275506,-0.00241713,0.000715972,-5.8198e-05,-0.00263444,0.294678,0.00173722,0.0104876,1581,1695,7.39787,-22.3022
364,-671,7.39209,22.0703,-0.000468026,-0.00332785,0.000861767,-0.00022842,-0.00356745,0.271191,0.00230594,0.0130488,1588,1695,7.3921,-22.0703
371,-671,7.38953,21.8567,-0.000797619,-0.00416601,0.00110541,-0.000467256,-0.00449637,0.290411,0.00285461,0.0145991,1595,1695,7.38958,-21.8567
378,-671,7.38904,21.6188,-0.00108254,-0.00506864,0.00145497,-0.000607965,-0.00554322,0.315297,0.00351042,0.0116033,1602,1695,7.38905,-21.6188
385,-671,7.35303,21.376,-0.00116232,-0.00548447,0.00177104,-0.000529329,-0.00611747,0.343264,0.00391382,0.0136662,1609,1695,7.35307,-21.376
392,-671,7.29932,21.2167,-0.00145,-0.00589432,0.00221708,-0.000533147,-0.00681118,0.392127,0.00437392,0.0222878,1616,1695,7.29935,-21.2167
399,-671,7.26196,20.913,-0.00171874,-0.00647379,0.0026126,-0.000563801,-0.00762873,0.416235,0.00490869,0.0225878,1623,1695,7.26199,-20.913
406,-671,7.3219,20.6029,-0.00168905,-0.00640296,0.00285726,-0.000342069,-0.00774994,0.440528,0.00505646,0.0364046,1630,1695,7.32195,-20.6028
413,-671,7.35291,20.495,-0.00168727,-0.0060511,0.00302964,-0.000135621,-0.00760275,0.473324,0.0050239,0.047711,1637,1695,7.35295,-20.495
420,-671,7.47095,20.438,0,0,0,0,0,0,0,-1,1644,1695,7.47096,-20.4379
427,-671,7.18433,20.2469,0,0,0,0,0,0,0,-1,1651,1695,7.18436,-20.2469
434,-671,7.37781,19.4556,0,0,0,0,0,0,0,-1,1658,1695,7.37781,-19.4556
441,-671,7.30176,18.4912,0,0,0,0,0,0,0,-1,1665,1695,7.30178,-18.4912
448,-671,7.42114,17.9861,0,0,0,0,0,0,0,-1,1672,1695,7.42119,-17.9861
455,-671,3.40137,9.28076,0,0,0,0,0,0,0,-1,1679,1695,3.40135,-9.28082
462,-671,5.86255,4.47961,0,0,0,0,0,0,0,-1,1686,1695,5.8625,-4.4796
469,-671,3.71301,3.76978,0,0,0,0,0,0,0,-1,1693,1695,3.71297,-3.76974
476,-671,3.75574,3.18848,0,0,0,0,0,0,0,-1,1700,1695,3.7558,-3.18847
483,-671,7.81824,12.1041,0,0,0,0,0,0,0,-1,1707,1695,7.81826,-12.1041
490,-671,0,0,0,0,0,0,0,0,0,-1,1714,1695,0,0
497,-671,0,0,0,0,0,0,0,0,0,-1,1721,1695,0,0
504,-671,0,0,0,0,0,0,0,0,0,-1,1728,1695,0,0
511,-671,0,0,0,0,0,0,0,0,0,-1,1735,1695,0,0
518,-671,0,0,0,0,0,0,0,0,0,-1,1742,1695,0,0
525,-671,0,0,0,0,0,0,0,0,0,-1,1749,1695,0,0
532,-671,0,0,0,0,0,0,0,0,0,-1,1756,1695,0,0
539,-671,0,0,0,0,0,0,0,0,0,-1,1763,1695,0,0
546,-671,0,0,0,0,0,0,0,0,0,-1,1770,1695,0,0
553,-671,0,0,0,0,0,0,0,0,0,-1,1777,1695,0,0
560,-671,0,0,0,0,0,0,0,0,0,-1,1784,1695,0,0
567,-671,0,0,0,0,0,0,0,0,0,-1,1791,1695,0,0
574,-671,0,0,0,0,0,0,0,0,0,-1,1798,1695,0,0
581,-671,0,0,0,0,0,0,0,0,0,-1,1805,1695,0,0
588,-671,0,0,0,0,0,0,0,0,0,-1,1812,1695,0,0
595,-671,0,0,0,0,0,0,0,0,0,-1,1819,1695,0,0
602,-671,0,0,0,0,0,0,0,0,0,-1,1826,1695,0,0
609,-671,0,0,0,0,0,0,0,0,0,-1,1833,1695,0,0
616,-671,0,0,0,0,0,0,0,0,0,-1,1840,1695,0,0
623,-671,0,0,0,0,0,0,0,0,0,-1,1847,1695,0,0
630,-671,0,0,0,0,0,0,0,0,0,-1,1854,1695,0,0
637,-671,0,0,0,0,0,0,0,0,0,-1,1861,1695,0,0
644,-671,0,0,0,0,0,0,0,0,0,-1,1868,1695,0,0
651,-671,0,0,0,0,0,0,0,0,0,-1,1875,1695,0,0
658,-671,0,0,0,0,0,0,0,0,0,-1,1882,1695,0,0
665,-671,0,0,0,0,0,0,0,0,0,-1,1889,1695,0,0
672,-671,0,0,0,0,0,0,0,0,0,-1,1896,1695,0,0
679,-671,0,0,0,0,0,0,0,0,0,-1,1903,1695,0,0
686,-671,0,0,0,0,0,0,0,0,0,-1,1910,1695,0,0
693,-671,0,0,0,0,0,0,0,0,0,-1,1917,1695,0,0
700,-671,0,0,0,0,0,0,0,0,0,-1,1924,1695,0,0
707,-671,0,0,0,0,0,0,0,0,0,-1,1931,1695,0,0
714,-671,0,0,0,0,0,0,0,0,0,-1,1938,1695,0,0
721,-671,0,0,0,0,0,0,0,0,0,-1,1945,1695,0,0
728,-671,0,0,0,0,0,0,0,0,0,-1,1952,1695,0,0
735,-671,0,0,0,0,0,0,0,0,0,-1,1959,1695,0,0
742,-671,0,0,0,0,0,0,0,0,0,-1,1966,1695,0,0
749,-671,0,0,0,0,0,0,0,0,0,-1,1973,1695,0,0
756,-671,0,0,0,0,0,0,0,0,0,-1,1980,1695,0,0
763,-671,0,0,0,0,0,0,0,0,0,-1,1987,1695,0,0
770,-671,0,0,0,0,0,0,0,0,0,-1,1994,1695,0,0
777,-671,0,0,0,0,0,0,0,0,0,-1,2001,1695,0,0
784,-671,0,0,0,0,0,0,0,0,0,-1,2008,1695,0,0
791,-671,0,0,0,0,0,0,0,0,0,-1,2015,1695,0,0
798,-671,0,0,0,0,0,0,0,0,0,-1,2022,1695,0,0
805,-671,0,0,0,0,0,0,0,0,0,-1,2029,1695,0,0
812,-671,0,0,0,0,0,0,0,0,0,-1,2036,1695,0,0
-700,-678,0,0,0,0,0,0,0,0,0,-1,524,1702,0,0
-693,-678,0,0,0,0,0,0,0,0,0,-1,531,1702,0,0
-686,-678,0,0,0,0,0,0,0,0,0,-1,538,1702,0,0
-679,-678,0,0,0,0,0,0,0,0,0,-1,545,1702,0,0
-672,-678,0,0,0,0,0,0,0,0,0,-1,552,1702,0,0
-665,-678,0,0,0,0,0,0,0,0,0,-1,559,1702,0,0
-658,-678,0,0,0,0,0,0,0,0,0,-1,566,1702,0,0
-651,-678,0,0,0,0,0,0,0,0,0,-1,573,1702,0,0
-644,-678,0,0,0,0,0,0,0,0,0,-1,580,1702,0,0
-637,-678,0,0,0,0,0,0,0,0,0,-1,587,1702,0,0
-630,-678,0,0,0,0,0,0,0,0,0,-1,594,1702,0,0
-623,-678,0,0,0,0,0,0,0,0,0,-1,601,1702,0,0
-616,-678,0,0,0,0,0,0,0,0,0,-1,608,1702,0,0
-609,-678,0,0,0,0,0,0,0,0,0,-1,615,1702,0,0
-602,-678,0,0,0,0,0,0,0,0,0,-1,622,1702,0,0
-595,-678,0,0,0,0,0,0,0,0,0,-1,629,1702,0,0
-588,-678,0,0,0,0,0,0,0,0,0,-1,636,1702,0,0
-581,-678,0,0,0,0,0,0,0,0,0,-1,643,1702,0,0
-574,-678,0,0,0,0,0,0,0,0,0,-1,650,1702,0,0
-567,-678,0,0,0,0,0,0,0,0,0,-1,657,1702,0,0
-560,-678,0,0,0,0,0,0,0,0,0,-1,664,1702,0,0
-553,-678,0,0,0,0,0,0,0,0,0,-1,671,1702,0,0
-546,-678,0,0,0,0,0,0,0,0,0,-1,678,1702,0,0
-539,-678,0,0,0,0,0,0,0,0,0,-1,685,1702,0,0
-532,-678,0,0,0,0,0,0,0,0,0,-1,692,1702,0,0
-525,-678,0,0,0,0,0,0,0,0,0,-1,699,1702,0,0
-518,-678,0,0,0,0,0,0,0,0,0,-1,706,1702,0,0
-511,-678,0,0,0,0,0,0,0,0,0,-1,713,1702,0,0
-504,-678,0,0,0,0,0,0,0,0,0,-1,720,1702,0,0
-497,-678,0,0,0,0,0,0,0,0,0,-1,727,1702,0,0
-490,-678,0,0,0,0,0,0,0,0,0,-1,734,1702,0,0
-483,-678,0,0,0,0,0,0,0,0,0,-1,741,1702,0,0
-476,-678,0,0,0,0,0,0,0,0,0,-1,748,1702,0,0
-469,-678,0,0,0,0,0,0,0,0,0,-1,755,1702,0,0
-462,-678,0,0,0,0,0,0,0,0,0,-1,762,1702,0,0
-455,-678,0,0,0,0,0,0,0,0,0,-1,769,1702,0,0
-448,-678,0,0,0,0,0,0,0,0,0,-1,776,1702,0,0
-441,-678,0,0,0,0,0,0,0,0,0,-1,783,1702,0,0
-434,-678,0,0,0,0,0,0,0,0,0,-1,790,1702,0,0
-427,-678,0,0,0,0,0,0,0,0,0,-1,797,1702,0,0
-420,-678,0,0,0,0,0,0,0,0,0,-1,804,1702,0,0
-413,-678,0,0,0,0,0,0,0,0,0,-1,811,1702,0,0
-406,-678,0,0,0,0,0,0,0,0,0,-1,818,1702,0,0
-399,-678,0,0,0,0,0,0,0,0,0,-1,825,1702,0,0
-392,-678,0,0,0,0,0,0,0,0,0,-1,832,1702,0,0
-385,-678,0,0,0,0,0,0,0,0,0,-1,839,1702,0,0
-378,-678,0,0,0,0,0,0,0,0,0,-1,846,1702,0,0
-371,-678,0,0,0,0,0,0,0,0,0,-1,853,1702,0,0
-364,-678,0,0,0,0,0,0,0,0,0,-1,860,1702,0,0
-357,-678,0,0,0,0,0,0,0,0,0,-1,867,1702,0,0
-350,-678,-5.79944,6.11865,0,0,0,0,0,0,0,-1,874,1702,-5.79942,-6.11864
-343,-678,-6.44891,4.52759,0,0,0,0,0,0,0,-1,881,1702,-6.4489,-4.52758
-336,-678,-6.91888,2.99438,0,0,0,0,0,0,0,-1,888,1702,-6.9189,-2.99435
-329,-678,-7.14575,1.29761,0,0,0,0,0,0,0,-1,895,1702,-7.14577,-1.29755
-322,-678,3.78455,20.3917,0,0,0,0,0,0,0,-1,902,1702,3.78457,-20.3917
-315,-678,4.74634,20.5468,0.0850876,-0.0652848,-0.0376635,0.0939936,-0.0741908,-0.232198,0.0973255,0.0487895,909,1702,4.74632,-20.5467
-308,-678,5.70428,20.3296,0.0681187,-0.0520436,-0.03117,0.075723,-0.0596479,-0.239287,0.0783399,0.0483166,916,1702,5.70429,-20.3296
-301,-678,6.60962,19.6086,0.0526415,-0.0403168,-0.0251443,0.059007,-0.0466822,-0.247946,0.0611578,0.0484428,923,1702,6.60964,-19.6087
-294,-678,7.62878,18.7716,0,0,0,0,0,0,0,-1,930,1702,7.62878,-18.7717
-287,-678,5.46606,19.0669,0,0,0,0,0,0,0,-1,937,1702,5.46607,-19.0669
-280,-678,5.58014,19.6459,0.0182804,-0.0140682,-0.0108681,0.0215926,-0.0173803,-0.29582,0.0225448,0.0468519,944,1702,5.58011,-19.6459
-273,-678,5.26624,19.828,0.0110896,-0.00789646,-0.00818841,0.0141333,-0.0109401,-0.355873,0.0145152,0.0415254,951,1702,5.26625,-19.828
-266,-678,5.29596,20.1642,0.00590536,-0.0027716,-0.00621192,0.00914384,-0.00601009,-0.480569,0.00881126,0.0345408,958,1702,5.29596,-20.1642
-259,-678,5.2334,20.4559,0.0010164,0.00219977,-0.00463757,0.00628325,-0.00306708,-0.848848,0.00550383,0.0248422,965,1702,5.23341,-20.456
-252,-678,5.18384,20.661,-0.00205131,0.00459367,-0.00296441,0.0057239,-0.00318154,-1.20654,0.00521093,0.0189212,972,1702,5.18385,-20.6611
-245,-678,5.23035,20.9191,-0.00324406,0.00550288,-0.00190993,0.00590174,-0.00364291,-1.36492,0.0055618,0.0188535,979,1702,5.23034,-20.919
-238,-678,5.23798,21.1624,-0.00312037,0.00566557,-0.00192114,0.00606728,-0.00352208,-1.36467,0.00560105,0.0152037,986,1702,5.238,-21.1624
-231,-678,5.216,21.4337,-0.00280471,0.00580849,-0.00163304,0.00610771,-0.00310394,-1.38957,0.00541178,0.0123212,993,1702,5.21603,-21.4337
-224,-678,5.19653,21.6564,-0.0021368,0.00568573,-0.00120468,0.00586705,-0.00231812,-1.42141,0.00487152,0.0124091,1000,1702,5.19655,-21.6564
-217,-678,5.19415,21.8844,-0.00162643,0.00513939,-0.000663992,0.00520394,-0.00169098,-1.47389,0.00414944,0.0136321,1007,1702,5.19414,-21.8844
-210,-678,5.20215,22.1521,-0.00107326,0.00454377,-2.12858e-05,0.00454385,-0.00107334,-1.56701,0.00344324,0.0140762,1014,1702,5.20217,-22.1521
-203,-678,5.16772,22.349,-0.000379299,0.00382608,0.000577696,0.00390399,-0.000457215,1.43673,0.00276768,0.0184632,1021,1702,5.16772,-22.349
-196,-678,5.14502,22.5665,0.000212121,0.00302967,0.00114977,0.00343931,-0.000197517,1.22854,0.00236147,0.0177179,1028,1702,5.14505,-22.5665
-189,-678,5.1532,22.8176,0.000770344,0.00232862,0.00155692,0.00329048,-0.000191514,1.0174,0.00226019,0.00968565,1035,1702,5.15322,-22.8177
-182,-678,5.17761,23.0154,0.00130546,0.00187464,0.00183416,0.00344615,-0.000266051,0.862365,0.00239106,0.00906787,1042,1702,5.17763,-23.0153
-175,-678,5.17896,23.2241,0.0017201,0.00158538,0.00210457,0.00375839,-0.000452903,0.769401,0.0026694,0.01077,1049,1702,5.1789,-23.2241
-168,-678,5.18152,23.4357,0.00198173,0.0015221,0.00226324,0.00402679,-0.000522955,0.7348,0.00287475,0.0105681,1056,1702,5.18147,-23.4356
-161,-678,5.17932,23.6271,0.00211068,0.00171479,0.00225354,0.00417495,-0.000349478,0.741592,0.00290681,0.00879475,1063,1702,5.17937,-23.6271
-154,-678,5.18066,23.8142,0.00220373,0.00219955,0.00215399,0.00435563,4.76472e-05,0.784913,0.002888,0.00792057,1070,1702,5.18066,-23.8142
-147,-678,5.18469,23.996,0.00222844,0.00278303,0.00197329,0.00449842,0.000513053,0.855203,0.0028434,0.00961293,1077,1702,5.18465,-23.996
-140,-678,5.2085,24.1864,0.00217184,0.00332533,0.00180449,0.004643,0.000854165,0.940076,0.00285355,0.0115914,1084,1702,5.20844,-24.1863
-133,-678,5.23193,24.3662,0.00220804,0.00379774,0.00167185,0.00485408,0.00115171,1.0073,0.00292863,0.0127816,1091,1702,5.23193,-24.3662
-126,-678,5.23254,24.5481,0.00247825,0.00453248,0.00174624,0.00553127,0.00147945,1.05124,0.00330659,0.010501,1098,1702,5.23256,-24.548
-119,-678,5.26575,24.8425,0.00280471,0.00504931,0.00180802,0.00605503,0.00179899,1.06316,0.00359053,0.0223482,1105,1702,5.26574,-24.8425
-112,-678,5.22766,25.0496,0.00329528,0.00549081,0.0017789,0.00648339,0.00230269,1.06185,0.00379517,0.0334223,1112,1702,5.22768,-25.0495
-105,-678,5.33069,25.1577,0.00387997,0.00579893,0.00194243,0.00700593,0.00267298,1.0148,0.00408255,0.035416,1119,1702,5.3307,-25.1578
-98,-678,5.31689,25.1393,0.00440501,0.0062698,0.00215183,0.00768256,0.00299226,0.989839,0.00447149,0.0226766,1126,1702,5.31686,-25.1393
-91,-678,5.35571,25.2355,0.00497778,0.00688967,0.00231972,0.0084427,0.00342475,0.980843,0.00490324,0.0229612,1133,1702,5.35577,-25.2355
-84,-678,5.39685,25.3778,0,0,0,0,0,0,0,-1,1140,1702,5.3969,-25.3778
-77,-678,5.73706,26.1392,0,0,0,0,0,0,0,-1,1147,1702,5.73701,-26.1391
-70,-678,4.75891,19.6552,0,0,0,0,0,0,0,-1,1154,1702,4.75895,-19.6551
-63,-678,3.41687,11.0365,0,0,0,0,0,0,0,-1,1161,1702,3.41682,-11.0365
-56,-678,1.72388,6.13159,0,0,0,0,0,0,0,-1,1168,1702,1.72388,-6.13157
-49,-678,-0.241699,5.29895,0,0,0,0,0,0,0,-1,1175,1702,-0.241682,-5.29897
-42,-678,0.297119,3.90649,0,0,0,0,0,0,0,-1,1182,1702,0.297139,-3.90655
-35,-678,0.498413,3.64038,0,0,0,0,0,0,0,-1,1189,1702,0.498471,-3.64038
-28,-678,0.132446,3.55994,0,0,0,0,0,0,0,-1,1196,1702,0.132432,-3.55993
-21,-678,5.64758,26.3915,0,0,0,0,0,0,0,-1,1203,1702,5.6476,-26.3915
-14,-678,5.58228,27.8564,0,0,0,0,0,0,0,-1,1210,1702,5.58233,-27.8565
-7,-678,5.85205,26.5776,0,0,0,0,0,0,0,-1,1217,1702,5.852,-26.5776
0,-678,6.74194,28.7433,0,0,0,0,0,0,0,-1,1224,1702,6.74198,-28.7433
7,-678,6.56641,28.6459,0,0,0,0,0,0,0,-1,1231,1702,6.56637,-28.6459
14,-678,6.67786,28.5367,0.00541278,0.0863918,0.00746673,0.0870745,0.00473005,1.47961,0.056539,0.0438058,1238,1702,6.67791,-28.5368
21,-678,6.65784,28.629,0.0106163,0.087315,0.00809996,0.0881611,0.00977026,1.46672,0.0558032,0.0457298,1245,1702,6.65785,-28.629
28,-678,6.45789,28.5841,0.0159862,0.0856674,0.00785691,0.0865423,0.0151113,1.4599,0.0533756,0.0456849,1252,1702,6.4579,-28.584
35,-678,6.42798,28.4485,0.0200302,0.0814958,0.00731385,0.0823541,0.0191719,1.45398,0.0497589,0.0430036,1259,1702,6.42796,-28.4485
42,-678,6.41211,28.2432,0.0234702,0.0754797,0.00705959,0.0764209,0.022529,1.43825,0.0453432,0.0438407,1266,1702,6.41208,-28.2432
49,-678,6.35266,28.0992,0.0257943,0.0682368,0.00681854,0.0693053,0.0247258,1.41535,0.040557,0.0439153,1273,1702,6.35267,-28.0993
56,-678,7.21472,27.6475,0.0263776,0.0603559,0.00665534,0.061613,0.0251205,1.38411,0.0357737,0.0462338,1280,1702,7.21471,-27.6475
63,-678,6.83411,27.7406,0.0258338,0.0525378,0.00639793,0.0539915,0.0243801,1.34737,0.0312207,0.0478422,1287,1702,6.83414,-27.7406
70,-678,6.76025,27.491,0.0233456,0.0442954,0.00625979,0.0460233,0.0216177,1.30147,0.0265878,0.044727,1294,1702,6.7602,-27.491
77,-678,6.77222,27.3987,0.0185841,0.037497,0.00634377,0.0394277,0.0166533,1.27535,0.0228549,0.0446362,1301,1702,6.77226,-27.3987
84,-678,6.49109,27.2458,0.0116793,0.0324002,0.00626637,0.0341479,0.00993167,1.29881,0.0202821,0.0469002,1308,1702,6.49109,-27.2459
91,-678,6.56067,26.8591,0.00355467,0.0279544,0.00641808,0.0295396,0.00196945,1.32865,0.0190705,0.0462767,1315,1702,6.56066,-26.8592
98,-678,6.64954,26.7264,-0.00510414,0.0250983,0.00667847,0.0265092,-0.006515,1.3626,0.0201978,0.0446863,1322,1702,6.6496,-26.7264
105,-678,6.71436,26.8101,-0.013968,0.0245641,0.0072349,0.0258777,-0.0152817,1.39118,0.0240245,0.042988,1329,1702,6.71433,-26.8101
112,-678,6.96399,26.9637,-0.0221559,0.025811,0.00785941,0.027066,-0.0234108,1.41246,0.0291683,0.0430904,1336,1702,6.96398,-26.9637
119,-678,6.92957,26.8002,0,0,0,0,0,0,0,-1,1343,1702,6.92953,-26.8001
126,-678,6.81323,26.7053,-0.0363527,0.0280632,0.00873156,0.0292257,-0.0375153,1.43843,0.0386319,0.0461366,1350,1702,6.81319,-26.7054
133,-678,6.38867,26.5887,-0.040383,0.0307601,0.00994587,0.0321243,-0.0417473,1.43448,0.0427703,0.0481721,1357,1702,6.38873,-26.5888
140,-678,5.68066,26.7023,-0.0425527,0.0333316,0.0106076,0.0347865,-0.0440076,1.43449,0.0455955,0.0486695,1364,1702,5.68069,-26.7023
147,-678,6.86975,27.1392,0,0,0,0,0,0,0,-1,1371,1702,6.8697,-27.1392
154,-678,7.24695,26.5175,0,0,0,0,0,0,0,-1,1378,1702,7.24692,-26.5174
161,-678,3.44202,4.53992,0,0,0,0,0,0,0,-1,1385,1702,3.442,-4.53996
168,-678,4.21863,5.25781,0,0,0,0,0,0,0,-1,1392,1702,4.21865,-5.25781
175,-678,5.21899,5.9635,0,0,0,0,0,0,0,-1,1399,1702,5.21894,-5.96346
182,-678,7.31262,6.75122,0,0,0,0,0,0,0,-1,1406,1702,7.3126,-6.75123
189,-678,5.96021,6.36853,0,0,0,0,0,0,0,-1,1413,1702,5.96018,-6.36851
196,-678,5.01599,8.15771,0,0,0,0,0,0,0,-1,1420,1702,5.01596,-8.15767
203,-678,4.64771,13.0559,0,0,0,0,0,0,0,-1,1427,1702,4.64766,-13.0559
210,-678,5.6532,18.5957,0,0,0,0,0,0,0,-1,1434,1702,5.65318,-18.5958
217,-678,6.88049,23.4835,0,0,0,0,0,0,0,-1,1441,1702,6.88047,-23.4835
224,-678,7.1615,25.6598,0,0,0,0,0,0,0,-1,1448,1702,7.16152,-25.6598
231,-678,7.0498,25.391,0,0,0,0,0,0,0,-1,1455,1702,7.04978,-25.3909
238,-678,7.11218,25.3112,0,0,0,0,0,0,0,-1,1462,1702,7.11212,-25.3111
245,-678,7.12183,25.2026,0,0,0,0,0,0,0,-1,1469,1702,7.12182,-25.2026
252,-678,7.15808,25.0166,0.00211207,-0.00133573,0.000858996,0.00231423,-0.00153789,0.231138,0.00223903,0.0311499,1476,1702,7.1581,-25.0166
259,-678,7.16992,24.9219,0.00215249,-0.00108702,0.000700988,0.00229767,-0.0012322,0.204219,0.00206868,0.0171734,1483,1702,7.16989,-24.9219
266,-678,7.19543,24.7621,0.00211367,-0.000937295,0.000510788,0.00219691,-0.00102054,0.161552,0.00189853,0.0105575,1490,1702,7.19541,-24.7621
273,-678,7.19971,24.6088,0.00203341,-0.000764748,0.000306388,0.00206656,-0.000797903,0.107795,0.00170701,0.0106124,1497,1702,7.19971,-24.6088
280,-678,7.18518,24.4514,0.0018896,-0.000566572,0.000298742,0.00192542,-0.000602385,0.119312,0.00152461,0.0113034,1504,1702,7.18522,-24.4514
287,-678,7.18994,24.2633,0.00162676,-0.000115892,0.000334421,0.00168873,-0.000177865,0.183235,0.00118955,0.0110657,1511,1702,7.18989,-24.2633
294,-678,7.19653,24.0602,0.00134326,0.000192883,0.000307174,0.00142014,0.000116,0.245254,0.00091056,0.0116535,1518,1702,7.19656,-24.0602
301,-678,7.19849,23.8831,0.00107166,0.000391467,0.000285284,0.00117547,0.000287657,0.348987,0.000707529,0.0113852,1525,1702,7.19848,-23.8831
308,-678,7.20496,23.7178,0.000824738,0.000477425,0.00028206,0.000982313,0.00031985,0.509466,0.000578523,0.0129842,1532,1702,7.20495,-23.7178
315,-678,7.19739,23.5348,0.000708736,0.000277136,0.000282752,0.00084863,0.000137242,0.459446,0.000526008,0.0140399,1539,1702,7.19743,-23.5347
322,-678,7.17297,23.3694,0.000591246,-5.9203e-07,0.000270152,0.000696014,-0.00010536,0.369956,0.000502823,0.0174054,1546,1702,7.17297,-23.3694
329,-678,7.17346,23.1636,0.000463467,-0.000541157,0.000227448,0.000512563,-0.000590252,0.212591,0.000637237,0.0157846,1553,1702,7.17347,-23.1636
336,-678,7.17957,22.9427,0.000321087,-0.00118313,0.000206137,0.000348825,-0.00121087,0.133755,0.000945223,0.0127313,1560,1702,7.17955,-22.9427
343,-678,7.18433,22.7461,9.73122e-05,-0.00202472,0.000294981,0.000137554,-0.00206496,0.135585,0.00142471,0.0116166,1567,1702,7.18429,-22.7461
350,-678,7.19714,22.5406,-0.000140383,-0.00316923,0.000482309,-6.5435e-05,-0.00324418,0.15416,0.00214131,0.0112572,1574,1702,7.19712,-22.5406
357,-678,7.1936,22.3171,-0.000311181,-0.00411814,0.000644651,-0.000204981,-0.00422434,0.163273,0.00275045,0.00915868,1581,1702,7.1936,-22.3172
364,-678,7.17493,22.1007,-0.000546277,-0.00518962,0.000923738,-0.000369258,-0.00536664,0.189337,0.00346125,0.0114534,1588,1702,7.17492,-22.1007
371,-678,7.17078,21.8693,-0.000953545,-0.00619256,0.00130625,-0.000645919,-0.00650019,0.231289,0.004135,0.0122376,1595,1702,7.17076,-21.8692
378,-678,7.15906,21.6062,-0.0013364,-0.00725457,0.00179627,-0.000833871,-0.00775709,0.272788,0.00491707,0.0145327,1602,1702,7.15903,-21.6062
385,-678,7.13379,21.4011,-0.00150754,-0.00775165,0.00232409,-0.000737472,-0.00852172,0.319957,0.00545197,0.0195848,1609,1702,7.13381,-21.4011
392,-678,7.08557,21.2697,-0.00191812,-0.00811178,0.00298821,-0.000711491,-0.00931841,0.383775,0.00598922,0.0364507,1616,1702,7.08553,-21.2696
399,-678,6.92505,21.1631,-0.00228305,-0.00878173,0.00358496,-0.000693988,-0.0103708,0.417233,0.00669453,0.0466124,1623,1702,6.92508,-21.163
406,-678,6.8667,20.8816,0,0,0,0,0,0,0,-1,1630,1702,6.86675,-20.8816
413,-678,7.1593,20.5057,0,0,0,0,0,0,0,-1,1637,1702,7.15927,-20.5057
420,-678,6.60071,17.4585,0,0,0,0,0,0,0,-1,1644,1702,6.60066,-17.4585
427,-678,4.57483,10.1555,0,0,0,0,0,0,0,-1,1651,1702,4.57485,-10.1555
434,-678,7.04639,19.2208,0,0,0,0,0,0,0,-1,1658,1702,7.04643,-19.2208
441,-678,6.96533,18.611,0,0,0,0,0,0,0,-1,1665,1702,6.96532,-18.6109
448,-678,3.25525,9.74719,0,0,0,0,0,0,0,-1,1672,1702,3.25522,-9.7472
455,-678,5.44678,5.54297,0,0,0,0,0,0,0,-1,1679,1702,5.44676,-5.54294
462,-678,3.86792,2.87402,0,0,0,0,0,0,0,-1,1686,1702,3.86796,-2.87406
469,-678,2.26587,1.98755,0,0,0,0,0,0,0,-1,1693,1702,2.26592,-1.98755
476,-678,0,0,0,0,0,0,0,0,0,-1,1700,1702,0,0
483,-678,0,0,0,0,0,0,0,0,0,-1,1707,1702,0,0
490,-678,0,0,0,0,0,0,0,0,0,-1,1714,1702,0,0
497,-678,0,0,0,0,0,0,0,0,0,-1,1721,1702,0,0
504,-678,0,0,0,0,0,0,0,0,0,-1,1728,1702,0,0
511,-678,0,0,0,0,0,0,0,0,0,-1,1735,1702,0,0
518,-678,0,0,0,0,0,0,0,0,0,-1,1742,1702,0,0
525,-678,0,0,0,0,0,0,0,0,0,-1,1749,1702,0,0
532,-678,0,0,0,0,0,0,0,0,0,-1,1756,1702,0,0
539,-678,0,0,0,0,0,0,0,0,0,-1,1763,1702,0,0
546,-678,0,0,0,0,0,0,0,0,0,-1,1770,1702,0,0
553,-678,0,0,0,0,0,0,0,0,0,-1,1777,1702,0,0
560,-678,0,0,0,0,0,0,0,0,0,-1,1784,1702,0,0
567,-678,0,0,0,0,0,0,0,0,0,-1,1791,1702,0,0
574,-678,0,0,0,0,0,0,0,0,0,-1,1798,1702,0,0
581,-678,0,0,0,0,0,0,0,0,0,-1,1805,1702,0,0
588,-678,0,0,0,0,0,0,0,0,0,-1,1812,1702,0,0
595,-678,0,0,0,0,0,0,0,0,0,-1,1819,1702,0,0
602,-678,0,0,0,0,0,0,0,0,0,-1,1826,1702,0,0
609,-678,0,0,0,0,0,0,0,0,0,-1,1833,1702,0,0
616,-678,0,0,0,0,0,0,0,0,0,-1,1840,1702,0,0
623,-678,0,0,0,0,0,0,0,0,0,-1,1847,1702,0,0
630,-678,0,0,0,0,0,0,0,0,0,-1,1854,1702,0,0
637,-678,0,0,0,0,0,0,0,0,0,-1,1861,1702,0,0
644,-678,0,0,0,0,0,0,0,0,0,-1,1868,1702,0,0
651,-678,0,0,0,0,0,0,0,0,0,-1,1875,1702,0,0
658,-678,0,0,0,0,0,0,0,0,0,-1,1882,1702,0,0
665,-678,0,0,0,0,0,0,0,0,0,-1,1889,1702,0,0
672,-678,0,0,0,0,0,0,0,0,0,-1,1896,1702,0,0
679,-678,0,0,0,0,0,0,0,0,0,-1,1903,1702,0,0
686,-678,0,0,0,0,0,0,0,0,0,-1,1910,1702,0,0
693,-678,0,0,0,0,0,0,0,0,0,-1,1917,1702,0,0
700,-678,0,0,0,0,0,0,0,0,0,-1,1924,1702,0,0
707,-678,0,0,0,0,0,0,0,0,0,-1,1931,1702,0,0
714,-678,0,0,0,0,0,0,0,0,0,-1,1938,1702,0,0
721,-678,0,0,0,0,0,0,0,0,0,-1,1945,1702,0,0
728,-678,0,0,0,0,0,0,0,0,0,-1,1952,1702,0,0
735,-678,0,0,0,0,0,0,0,0,0,-1,1959,1702,0,0
742,-678,0,0,0,0,0,0,0,0,0,-1,1966,1702,0,0
749,-678,0,0,0,0,0,0,0,0,0,-1,1973,1702,0,0
756,-678,0,0,0,0,0,0,0,0,0,-1,1980,1702,0,0
763,-678,0,0,0,0,0,0,0,0,0,-1,1987,1702,0,0
770,-678,0,0,0,0,0,0,0,0,0,-1,1994,1702,0,0
777,-678,0,0,0,0,0,0,0,0,0,-1,2001,1702,0,0
784,-678,0,0,0,0,0,0,0,0,0,-1,2008,1702,0,0
791,-678,0,0,0,0,0,0,0,0,0,-1,2015,1702,0,0
798,-678,0,0,0,0,0,0,0,0,0,-1,2022,1702,0,0
805,-678,0,0,0,0,0,0,0,0,0,-1,2029,1702,0,0
812,-678,0,0,0,0,0,0,0,0,0,-1,2036,1702,0,0
-700,-685,0,0,0,0,0,0,0,0,0,-1,524,1709,0,0
-693,-685,0,0,0,0,0,0,0,0,0,-1,531,1709,0,0
-686,-685,0,0,0,0,0,0,0,0,0,-1,538,1709,0,0
-679,-685,0,0,0,0,0,0,0,0,0,-1,545,1709,0,0
-672,-685,0,0,0,0,0,0,0,0,0,-1,552,1709,0,0
-665,-685,0,0,0,0,0,0,0,0,0,-1,559,1709,0,0
-658,-685,0,0,0,0,0,0,0,0,0,-1,566,1709,0,0
-651,-685,0,0,0,0,0,0,0,0,0,-1,573,1709,0,0
-644,-685,0,0,0,0,0,0,0,0,0,-1,580,1709,0,0
-637,-685,0,0,0,0,0,0,0,0,0,-1,587,1709,0,0
-630,-685,0,0,0,0,0,0,0,0,0,-1,594,1709,0,0
-623,-685,0,0,0,0,0,0,0,0,0,-1,601,1709,0,0
-616,-685,0,0,0,0,0,0,0,0,0,-1,608,1709,0,0
-609,-685,0,0,0,0,0,0,0,0,0,-1,615,1709,0,0
-602,-685,0,0,0,0,0,0,0,0,0,-1,622,1709,0,0
-595,-685,0,0,0,0,0,0,0,0,0,-1,629,1709,0,0
-588,-685,0,0,0,0,0,0,0,0,0,-1,636,1709,0,0
-581,-685,0,0,0,0,0,0,0,0,0,-1,643,1709,0,0
-574,-685,0,0,0,0,0,0,0,0,0,-1,650,1709,0,0
-567,-685,0,0,0,0,0,0,0,0,0,-1,657,1709,0,0
-560,-685,0,0,0,0,0,0,0,0,0,-1,664,1709,0,0
-553,-685,0,0,0,0,0,0,0,0,0,-1,671,1709,0,0
-546,-685,0,0,0,0,0,0,0,0,0,-1,678,1709,0,0
-539,-685,0,0,0,0,0,0,0,0,0,-1,685,1709,0,0
-532,-685,0,0,0,0,0,0,0,0,0,-1,692,1709,0,0
-525,-685,0,0,0,0,0,0,0,0,0,-1,699,1709,0,0
-518,-685,0,0,0,0,0,0,0,0,0,-1,706,1709,0,0
-511,-685,0,0,0,0,0,0,0,0,0,-1,713,1709,0,0
-504,-685,0,0,0,0,0,0,0,0,0,-1,720,1709,0,0
-497,-685,0,0,0,0,0,0,0,0,0,-1,727,1709,0,0
-490,-685,0,0,0,0,0,0,0,0,0,-1,734,1709,0,0
-483,-685,0,0,0,0,0,0,0,0,0,-1,741,1709,0,0
-476,-685,0,0,0,0,0,0,0,0,0,-1,748,1709,0,0
-469,-685,0,0,0,0,0,0,0,0,0,-1,755,1709,0,0
-462,-685,0,0,0,0,0,0,0,0,0,-1,762,1709,0,0
-455,-685,0,0,0,0,0,0,0,0,0,-1,769,1709,0,0
-448,-685,0,0,0,0,0,0,0,0,0,-1,776,1709,0,0
-441,-685,0,0,0,0,0,0,0,0,0,-1,783,1709,0,0
-434,-685,0,0,0,0,0,0,0,0,0,-1,790,1709,0,0
-427,-685,0,0,0,0,0,0,0,0,0,-1,797,1709,0,0
-420,-685,0,0,0,0,0,0,0,0,0,-1,804,1709,0,0
-413,-685,0,0,0,0,0,0,0,0,0,-1,811,1709,0,0
-406,-685,0,0,0,0,0,0,0,0,0,-1,818,1709,0,0
-399,-685,0,0,0,0,0,0,0,0,0,-1,825,1709,0,0
-392,-685,0,0,0,0,0,0,0,0,0,-1,832,1709,0,0
-385,-685,0,0,0,0,0,0,0,0,0,-1,839,1709,0,0
-378,-685,0,0,0,0,0,0,0,0,0,-1,846,1709,0,0
-371,-685,0,0,0,0,0,0,0,0,0,-1,853,1709,0,0
-364,-685,0,0,0,0,0,0,0,0,0,-1,860,1709,0,0
-357,-685,0,0,0,0,0,0,0,0,0,-1,867,1709,0,0
-350,-685,0,0,0,0,0,0,0,0,0,-1,874,1709,0,0
-343,-685,-5.98505,6.56335,0,0,0,0,0,0,0,-1,881,1709,-5.98505,-6.56329
-336,-685,-6.51312,5.10571,0,0,0,0,0,0,0,-1,888,1709,-6.51311,-5.10575
-329,-685,-6.81384,3.34106,0,0,0,0,0,0,0,-1,895,1709,-6.81385,-3.341
-322,-685,3.83191,16.7219,0,0,0,0,0,0,0,-1,902,1709,3.8319,-16.7219
-315,-685,5.15784,21.4388,0,0,0,0,0,0,0,-1,909,1709,5.15783,-21.4389
-308,-685,6.36969,21.0303,0,0,0,0,0,0,0,-1,916,1709,6.36968,-21.0302
-301,-685,7.71271,20.1454,0,0,0,0,0,0,0,-1,923,1709,7.71272,-20.1454
-294,-685,9.35236,19.2286,0,0,0,0,0,0,0,-1,930,1709,9.35238,-19.2287
-287,-685,5.65894,19.5393,0,0,0,0,0,0,0,-1,937,1709,5.65893,-19.5393
-280,-685,5.47211,19.7286,0.0245712,-0.0183585,-0.0152743,0.029451,-0.0232383,-0.309233,0.0304906,0.0480676,944,1709,5.47209,-19.7286
-273,-685,5.45819,19.7932,0.0149158,-0.00987539,-0.0116987,0.0195645,-0.0145242,-0.378242,0.0197527,0.0469177,951,1709,5.45821,-19.7932
-266,-685,5.64117,20.1285,0.00790142,-0.00276681,-0.00897255,0.0130057,-0.00787106,-0.517218,0.0121741,0.0423439,958,1709,5.64119,-20.1286
-259,-685,5.55438,20.5428,0.00134791,0.00399675,-0.00681919,0.00961895,-0.00427429,-0.881314,0.00821672,0.0418458,965,1709,5.55437,-20.5429
-252,-685,5.54169,20.6892,-0.00277008,0.00702218,-0.00447477,0.00875897,-0.00450687,-1.20056,0.00778908,0.0384222,972,1709,5.54169,-20.6892
-245,-685,5.58539,20.8679,-0.00441984,0.00813225,-0.00299047,0.0088083,-0.00509589,-1.34847,0.00812241,0.0352489,979,1709,5.58542,-20.8679
-238,-685,5.53162,21.1448,-0.00434186,0.00822902,-0.00291672,0.00887279,-0.00498563,-1.35356,0.0081054,0.0258911,986,1709,5.53162,-21.1447
-231,-685,5.46759,21.4532,-0.0040159,0.00839798,-0.0024251,0.00885491,-0.00447284,-1.38456,0.00783219,0.0162531,993,1709,5.46758,-21.4533
-224,-685,5.45343,21.6823,-0.00325742,0.00807084,-0.0017887,0.00834656,-0.00353314,-1.41785,0.00704392,0.0144306,1000,1709,5.45342,-21.6823
-217,-685,5.4325,21.9055,-0.00267958,0.00718961,-0.00106459,0.00730314,-0.00279311,-1.46455,0.00601982,0.0115253,1007,1709,5.43249,-21.9055
-210,-685,5.41852,22.1904,-0.00202916,0.00623324,-0.000206382,0.0062384,-0.00203431,-1.54584,0.00497759,0.0153074,1014,1709,5.41855,-22.1904
-203,-685,5.40186,22.4121,-0.00121569,0.00514603,0.000581608,0.00519877,-0.00126843,1.48037,0.00395701,0.0156941,1021,1709,5.40181,-22.4121
-196,-685,5.38916,22.5989,-0.000480119,0.00403124,0.00133307,0.00439571,-0.000844584,1.30392,0.0032488,0.0130002,1028,1709,5.38919,-22.5988
-189,-685,5.37573,22.7856,0.00022808,0.00302934,0.00182169,0.0039266,-0.000669182,1.11313,0.00286695,0.00844738,1035,1709,5.37574,-22.7856
-182,-685,5.39124,23.0023,0.000865077,0.00229214,0.00211736,0.00381297,-0.000655749,0.947918,0.0027864,0.0124765,1042,1709,5.39126,-23.0023
-175,-685,5.39783,23.2155,0.00132717,0.00175092,0.00241105,0.00395938,-0.000881291,0.829223,0.00297715,0.0137681,1049,1709,5.39781,-23.2154
-168,-685,5.39514,23.4333,0.00166994,0.00145322,0.00255158,0.00411546,-0.000992303,0.764177,0.00312733,0.0109398,1056,1709,5.39514,-23.4334
-161,-685,5.38989,23.6316,0.00183674,0.00141518,0.0024596,0.00409457,-0.000842652,0.742654,0.00304966,0.0112782,1063,1709,5.38985,-23.6316
-154,-685,5.39563,23.8291,0.00192386,0.0017512,0.00224525,0.00408443,-0.000409378,0.766182,0.00286917,0.00983574,1070,1709,5.39569,-23.8291
-147,-685,5.38538,24.0109,0.00193211,0.00230009,0.00193517,0.00405999,0.000172206,0.832794,0.00265112,0.00893424,1077,1709,5.38533,-24.0109
-140,-685,5.39026,24.1777,0.0018101,0.0027767,0.00166996,0.00403189,0.000554913,0.926253,0.00252337,0.0114108,1084,1709,5.39025,-24.1777
-133,-685,5.41187,24.3583,0.00176733,0.00313232,0.0014499,0.00405233,0.000847328,1.00537,0.00246808,0.0112605,1091,1709,5.41184,-24.3583
-126,-685,5.42126,24.5322,0.00192081,0.00360208,0.0013908,0.00438656,0.00113633,1.05723,0.00262878,0.00986102,1098,1709,5.42126,-24.5322
-119,-685,5.42847,24.6858,0.00210359,0.00399221,0.00134555,0.00469175,0.00140405,1.09136,0.0027806,0.0130401,1105,1709,5.42849,-24.6858
-112,-685,5.43909,24.8577,0.00245052,0.00430132,0.0013002,0.00497181,0.00178003,1.09468,0.0029088,0.0121779,1112,1709,5.43907,-24.8576
-105,-685,5.42688,25.0193,0.00287911,0.00444493,0.00138329,0.0052515,0.00207255,1.04291,0.0030543,0.0111955,1119,1709,5.42687,-25.0193
-98,-685,5.49231,25.1416,0.00329022,0.0046695,0.00150676,0.00563694,0.00232277,1.00002,0.00327123,0.0146729,1126,1709,5.49229,-25.1416
-91,-685,5.49109,25.2433,0.00382399,0.00500453,0.00165578,0.00617211,0.00265641,0.95662,0.00357496,0.0186157,1133,1709,5.49105,-25.2433
-84,-685,5.45093,25.3492,0.00445616,0.00514597,0.00171562,0.00655101,0.00305112,0.884595,0.00378519,0.0232874,1140,1709,5.45091,-25.3493
-77,-685,5.63428,25.7162,0.00502512,0.00526156,0.00151389,0.00666184,0.00362483,0.824365,0.0038512,0.0368967,1147,1709,5.63426,-25.7162
-70,-685,5.98877,26.252,0,0,0,0,0,0,0,-1,1154,1709,5.98881,-26.2519
-63,-685,5.71216,26.3203,0,0,0,0,0,0,0,-1,1161,1709,5.71213,-26.3203
-56,-685,3.93909,15.8704,0,0,0,0,0,0,0,-1,1168,1709,3.93905,-15.8704
-49,-685,3.07471,9.86011,0,0,0,0,0,0,0,-1,1175,1709,3.07467,-9.86009
-42,-685,2.70618,7.54504,0,0,0,0,0,0,0,-1,1182,1709,2.7062,-7.54504
-35,-685,2.95264,7.91516,0,0,0,0,0,0,0,-1,1189,1709,2.95262,-7.91517
-28,-685,5.80042,26.4719,0,0,0,0,0,0,0,-1,1196,1709,5.80041,-26.4719
-21,-685,5.79272,26.3854,-0.0014789,0.061419,0.00814854,0.0624575,-0.00251741,1.44403,0.0425024,0.046071,1203,1709,5.79267,-26.3853
-14,-685,5.90283,26.3915,-0.00106576,0.0642967,0.00781559,0.0652182,-0.00198731,1.45343,0.0441561,0.0280917,1210,1709,5.90286,-26.3915
-7,-685,5.86487,26.5061,-0.000477857,0.067329,0.0072669,0.068099,-0.00124791,1.46522,0.045821,0.0409704,1217,1709,5.86483,-26.5061
0,-685,5.80151,26.6232,0.000675984,0.0701417,0.00645031,0.0707356,8.21128e-05,1.47899,0.0471297,0.0459314,1224,1709,5.80157,-26.6232
7,-685,6.83997,27.0654,0,0,0,0,0,0,0,-1,1231,1709,6.84,-27.0654
14,-685,6.47644,27.3737,0,0,0,0,0,0,0,-1,1238,1709,6.47639,-27.3737
21,-685,6.79932,27.3047,0,0,0,0,0,0,0,-1,1245,1709,6.79928,-27.3047
28,-685,6.19836,27.3914,0.0129798,0.0730603,0.00573332,0.0736025,0.0124376,1.4765,0.0454928,0.041521,1252,1709,6.19834,-27.3913
35,-685,6.32349,27.4041,0.0161492,0.0700879,0.00550764,0.0706446,0.0155926,1.47007,0.0428551,0.0426424,1259,1709,6.32354,-27.4041
42,-685,6.39209,27.3013,0.0189567,0.0654017,0.00553368,0.0660519,0.0183065,1.45383,0.0393774,0.046486,1266,1709,6.39206,-27.3012
49,-685,6.43884,26.9447,0.0209176,0.0594596,0.00559513,0.0602554,0.0201218,1.42951,0.0354222,0.0479597,1273,1709,6.43886,-26.9447
56,-685,6.39392,26.5311,0.0216891,0.0527985,0.00581824,0.053851,0.0206365,1.39183,0.0313723,0.0430125,1280,1709,6.3939,-26.5312
63,-685,6.28931,26.9634,0.0215204,0.0458525,0.00599739,0.0472504,0.0201224,1.3418,0.0273798,0.045812,1287,1709,6.28925,-26.9634
70,-685,6.50012,27.1395,0.0198436,0.0384305,0.00613203,0.0402712,0.0180029,1.27917,0.023294,0.0452578,1294,1709,6.50016,-27.1396
77,-685,6.5083,27.1876,0.0165141,0.0319022,0.006481,0.0342681,0.0141482,1.22078,0.0198846,0.0434468,1301,1709,6.50829,-27.1876
84,-685,6.52722,27.1586,0.0114299,0.0266499,0.00665242,0.0291477,0.00893211,1.21162,0.0172436,0.0447598,1308,1709,6.52718,-27.1586
91,-685,6.61255,27.1401,0.00530353,0.0218886,0.00692853,0.0244022,0.00279003,1.22279,0.0154224,0.0434653,1315,1709,6.61256,-27.1401
98,-685,6.57751,26.8401,-0.00137075,0.0185512,0.00725282,0.0209119,-0.00373148,1.25612,0.0153372,0.0399704,1322,1709,6.5775,-26.8401
105,-685,6.5697,26.6389,-0.00813148,0.0170209,0.00780787,0.0192475,-0.0103581,1.29299,0.0173478,0.0423244,1329,1709,6.56974,-26.6389
112,-685,6.60913,26.6913,-0.0144306,0.017031,0.00840841,0.0191373,-0.0165368,1.32536,0.0206147,0.0428789,1336,1709,6.60911,-26.6912
119,-685,6.71277,26.7426,-0.0200964,0.0175676,0.00932085,0.019748,-0.0222768,1.341,0.0242777,0.040303,1343,1709,6.71273,-26.7425
126,-685,6.69812,26.6382,-0.0260863,0.0170105,0.00929259,0.0189288,-0.0280046,1.36722,0.0272653,0.0455101,1350,1709,6.69817,-26.6382
133,-685,6.74646,26.5413,0,0,0,0,0,0,0,-1,1357,1709,6.74645,-26.5413
140,-685,6.71313,27.0359,0,0,0,0,0,0,0,-1,1364,1709,6.71316,-27.0359
147,-685,6.73804,26.9174,0,0,0,0,0,0,0,-1,1371,1709,6.73801,-26.9174
154,-685,6.70166,26.7542,0,0,0,0,0,0,0,-1,1378,1709,6.7016,-26.7542
161,-685,6.95081,26.6073,0,0,0,0,0,0,0,-1,1385,1709,6.95078,-26.6073
168,-685,4.37524,10.8778,0,0,0,0,0,0,0,-1,1392,1709,4.37525,-10.8778
175,-685,3.97522,8.94324,0,0,0,0,0,0,0,-1,1399,1709,3.97519,-8.94328
182,-685,3.98218,9.19739,0,0,0,0,0,0,0,-1,1406,1709,3.98221,-9.1974
189,-685,4.53479,15.2343,0,0,0,0,0,0,0,-1,1413,1709,4.53474,-15.2343
196,-685,6.87231,26.2422,0,0,0,0,0,0,0,-1,1420,1709,6.87236,-26.2422
203,-685,6.84668,26.0518,0,0,0,0,0,0,0,-1,1427,1709,6.84672,-26.0518
210,-685,6.91833,25.795,0,0,0,0,0,0,0,-1,1434,1709,6.91833,-25.795
217,-685,7.11877,25.7599,0,0,0,0,0,0,0,-1,1441,1709,7.11879,-25.7599
224,-685,7.00928,25.6119,0.000558254,-0.00143863,0.00181378,0.00163024,-0.00251062,0.533794,0.00240867,0.0263473,1448,1709,7.00922,-25.612
231,-685,6.93335,25.4474,0.000698767,-0.00106492,0.00143543,0.00150159,-0.00186774,0.50995,0.00194911,0.0182265,1455,1709,6.93339,-25.4474
238,-685,6.94519,25.2986,0.000897018,-0.00093068,0.00121311,0.00150197,-0.00153563,0.462591,0.0017538,0.0184845,1462,1709,6.94517,-25.2986
245,-685,6.9646,25.1541,0.00109798,-0.000897189,0.000918819,0.00145664,-0.00125585,0.37216,0.00156749,0.0185669,1469,1709,6.96461,-25.1541
252,-685,6.97998,25.0436,0.00132316,-0.000999743,0.000685623,0.00151043,-0.00118701,0.266634,0.0015611,0.0127153,1476,1709,6.97999,-25.0435
259,-685,7.00696,24.9302,0.00143561,-0.000832682,0.000505047,0.00154298,-0.000940051,0.209474,0.0014476,0.00995163,1483,1709,7.0069,-24.9301
266,-685,7.03369,24.7737,0.00146749,-0.000673869,0.000299602,0.00150862,-0.000714997,0.136423,0.00131078,0.0113201,1490,1709,7.03369,-24.7737
273,-685,7.03174,24.6027,0.0014443,-0.000444034,9.39169e-05,0.00144896,-0.000448693,0.0495723,0.00114522,0.0138453,1497,1709,7.03169,-24.6027
280,-685,7.02014,24.4279,0.00139013,-0.00019757,-7.55912e-05,0.00139372,-0.000201161,-0.0474675,0.00100295,0.015658,1504,1709,7.02019,-24.4278
287,-685,7.02258,24.2732,0.00126129,0.000152718,-0.000156699,0.00128301,0.000130994,-0.137757,0.000815194,0.0114528,1511,1709,7.02256,-24.2731
294,-685,7.02075,24.0939,0.00110203,0.000486209,-0.000249161,0.00119021,0.000398026,-0.340162,0.000699618,0.0102487,1518,1709,7.02073,-24.0938
301,-685,7.02783,23.9072,0.000874568,0.000598314,-0.00030314,0.00106957,0.000403315,-0.571626,0.000623704,0.012539,1525,1709,7.0278,-23.9072
308,-685,7.02344,23.7238,0.000686926,0.000567692,-0.00031199,0.000944944,0.000309675,-0.690993,0.000556254,0.0138407,1532,1709,7.02343,-23.7238
315,-685,7.00684,23.5272,0.000670672,0.000206264,-0.000328389,0.000840659,3.6277e-05,-0.47766,0.000548747,0.0120819,1539,1709,7.00689,-23.5272
322,-685,6.96484,23.3296,0.000591979,-0.000224657,-0.000310891,0.000696863,-0.000329542,-0.325377,0.000605112,0.0197792,1546,1709,6.9649,-23.3296
329,-685,6.97241,23.1371,0.00048406,-0.000985451,-0.000288097,0.000538523,-0.00103991,-0.186839,0.00092651,0.0192609,1553,1709,6.97243,-23.1371
336,-685,6.99487,22.9219,0.000367113,-0.00185129,-0.000233786,0.000391483,-0.00187566,-0.103864,0.00139931,0.0136682,1560,1709,6.99487,-22.9219
343,-685,6.97729,22.7386,0.000124618,-0.0029853,-2.39152e-06,0.00012462,-0.0029853,-0.000768998,0.00203301,0.0122491,1567,1709,6.97728,-22.7387
350,-685,6.98425,22.5256,-0.000159337,-0.00449192,0.000350744,-0.000131126,-0.00452013,0.0802585,0.00297068,0.0119501,1574,1709,6.98419,-22.5256
357,-685,6.98865,22.3167,-0.000383181,-0.00579316,0.000703704,-0.000293145,-0.0058832,0.127254,0.00382816,0.00960772,1581,1709,6.98862,-22.3166
364,-685,6.97888,22.0983,-0.000702874,-0.00717696,0.00120502,-0.000485858,-0.00739397,0.178183,0.00477561,0.00943476,1588,1709,6.97891,-22.0983
371,-685,6.98608,21.8606,-0.00124467,-0.00854387,0.00184254,-0.000805927,-0.00898261,0.233764,0.00573866,0.0155769,1595,1709,6.98613,-21.8605
378,-685,6.90735,21.6533,-0.00179406,-0.00997539,0.00258572,-0.00104536,-0.0107241,0.281845,0.00682767,0.0248814,1602,1709,6.90741,-21.6533
385,-685,6.88782,21.3914,-0.0020909,-0.0107379,0.00333305,-0.000955292,-0.0118735,0.328375,0.00761726,0.0476606,1609,1709,6.88779,-21.3914
392,-685,6.64697,21.3972,-0.00258041,-0.0112738,0.00425194,-0.000846571,-0.0130076,0.387191,0.00840376,0.0455075,1616,1709,6.647,-21.3973
399,-685,6.65747,21.3936,-0.00299881,-0.0121825,0.00520551,-0.000649298,-0.014532,0.423977,0.00947897,0.0466922,1623,1709,6.65742,-21.3935
406,-685,6.54346,21.2206,0,0,0,0,0,0,0,-1,1630,1709,6.54341,-21.2206
413,-685,6.13098,16.2029,0,0,0,0,0,0,0,-1,1637,1709,6.13099,-16.2029
420,-685,4.84631,10.3781,0,0,0,0,0,0,0,-1,1644,1709,4.84634,-10.378
427,-685,6.05151,9.21155,0,0,0,0,0,0,0,-1,1651,1709,6.05156,-9.21156
434,-685,4.87769,8.91418,0,0,0,0,0,0,0,-1,1658,1709,4.87768,-8.91413
441,-685,5.62,8.75549,0,0,0,0,0,0,0,-1,1665,1709,5.61996,-8.75545
448,-685,6.4043,8.58972,0,0,0,0,0,0,0,-1,1672,1709,6.40435,-8.58971
455,-685,2.31958,4.09802,0,0,0,0,0,0,0,-1,1679,1709,2.31957,-4.09803
462,-685,0,0,0,0,0,0,0,0,0,-1,1686,1709,0,0
469,-685,0,0,0,0,0,0,0,0,0,-1,1693,1709,0,0
476,-685,0,0,0,0,0,0,0,0,0,-1,1700,1709,0,0
483,-685,0,0,0,0,0,0,0,0,0,-1,1707,1709,0,0
490,-685,0,0,0,0,0,0,0,0,0,-1,1714,1709,0,0
497,-685,0,0,0,0,0,0,0,0,0,-1,1721,1709,0,0
504,-685,0,0,0,0,0,0,0,0,0,-1,1728,1709,0,0
511,-685,0,0,0,0,0,0,0,0,0,-1,1735,1709,0,0
518,-685,0,0,0,0,0,0,0,0,0,-1,1742,1709,0,0
525,-685,0,0,0,0,0,0,0,0,0,-1,1749,1709,0,0
532,-685,0,0,0,0,0,0,0,0,0,-1,1756,1709,0,0
539,-685,0,0,0,0,0,0,0,0,0,-1,1763,1709,0,0
546,-685,0,0,0,0,0,0,0,0,0,-1,1770,1709,0,0
553,-685,0,0,0,0,0,0,0,0,0,-1,1777,1709,0,0
560,-685,0,0,0,0,0,0,0,0,0,-1,1784,1709,0,0
567,-685,0,0,0,0,0,0,0,0,0,-1,1791,1709,0,0
574,-685,0,0,0,0,0,0,0,0,0,-1,1798,1709,0,0
581,-685,0,0,0,0,0,0,0,0,0,-1,1805,1709,0,0
588,-685,0,0,0,0,0,0,0,0,0,-1,1812,1709,0,0
595,-685,0,0,0,0,0,0,0,0,0,-1,1819,1709,0,0
602,-685,0,0,0,0,0,0,0,0,0,-1,1826,1709,0,0
609,-685,0,0,0,0,0,0,0,0,0,-1,1833,1709,0,0
616,-685,0,0,0,0,0,0,0,0,0,-1,1840,1709,0,0
623,-685,0,0,0,0,0,0,0,0,0,-1,1847,1709,0,0
630,-685,0,0,0,0,0,0,0,0,0,-1,1854,1709,0,0
637,-685,0,0,0,0,0,0,0,0,0,-1,1861,1709,0,0
644,-685,0,0,0,0,0,0,0,0,0,-1,1868,1709,0,0
651,-685,0,0,0,0,0,0,0,0,0,-1,1875,1709,0,0
658,-685,0,0,0,0,0,0,0,0,0,-1,1882,1709,0,0
665,-685,0,0,0,0,0,0,0,0,0,-1,1889,1709,0,0
672,-685,0,0,0,0,0,0,0,0,0,-1,1896,1709,0,0
679,-685,0,0,0,0,0,0,0,0,0,-1,1903,1709,0,0
686,-685,0,0,0,0,0,0,0,0,0,-1,1910,1709,0,0
693,-685,0,0,0,0,0,0,0,0,0,-1,1917,1709,0,0
700,-685,0,0,0,0,0,0,0,0,0,-1,1924,1709,0,0
707,-685,0,0,0,0,0,0,0,0,0,-1,1931,1709,0,0
714,-685,0,0,0,0,0,0,0,0,0,-1,1938,1709,0,0
721,-685,0,0,0,0,0,0,0,0,0,-1,1945,1709,0,0
728,-685,0,0,0,0,0,0,0,0,0,-1,1952,1709,0,0
735,-685,0,0,0,0,0,0,0,0,0,-1,1959,1709,0,0
742,-685,0,0,0,0,0,0,0,0,0,-1,1966,1709,0,0
749,-685,0,0,0,0,0,0,0,0,0,-1,1973,1709,0,0
756,-685,0,0,0,0,0,0,0,0,0,-1,1980,1709,0,0
763,-685,0,0,0,0,0,0,0,0,0,-1,1987,1709,0,0
770,-685,0,0,0,0,0,0,0,0,0,-1,1994,1709,0,0
777,-685,0,0,0,0,0,0,0,0,0,-1,2001,1709,0,0
784,-685,0,0,0,0,0,0,0,0,0,-1,2008,1709,0,0
791,-685,0,0,0,0,0,0,0,0,0,-1,2015,1709,0,0
798,-685,0,0,0,0,0,0,0,0,0,-1,2022,1709,0,0
805,-685,0,0,0,0,0,0,0,0,0,-1,2029,1709,0,0
812,-685,0,0,0,0,0,0,0,0,0,-1,2036,1709,0,0
-700,-692,0,0,0,0,0,0,0,0,0,-1,524,1716,0,0
-693,-692,0,0,0,0,0,0,0,0,0,-1,531,1716,0,0
-686,-692,0,0,0,0,0,0,0,0,0,-1,538,1716,0,0
-679,-692,0,0,0,0,0,0,0,0,0,-1,545,1716,0,0
-672,-692,0,0,0,0,0,0,0,0,0,-1,552,1716,0,0
-665,-692,0,0,0,0,0,0,0,0,0,-1,559,1716,0,0
-658,-692,0,0,0,0,0,0,0,0,0,-1,566,1716,0,0
-651,-692,0,0,0,0,0,0,0,0,0,-1,573,1716,0,0
-644,-692,0,0,0,0,0,0,0,0,0,-1,580,1716,0,0
-637,-692,0,0,0,0,0,0,0,0,0,-1,587,1716,0,0
-630,-692,0,0,0,0,0,0,0,0,0,-1,594,1716,0,0
-623,-692,0,0,0,0,0,0,0,0,0,-1,601,1716,0,0
-616,-692,0,0,0,0,0,0,0,0,0,-1,608,1716,0,0
-609,-692,0,0,0,0,0,0,0,0,0,-1,615,1716,0,0
-602,-692,0,0,0,0,0,0,0,0,0,-1,622,1716,0,0
-595,-692,0,0,0,0,0,0,0,0,0,-1,629,1716,0,0
-588,-692,0,0,0,0,0,0,0,0,0,-1,636,1716,0,0
-581,-692,0,0,0,0,0,0,0,0,0,-1,643,1716,0,0
-574,-692,0,0,0,0,0,0,0,0,0,-1,650,1716,0,0
-567,-692,0,0,0,0,0,0,0,0,0,-1,657,1716,0,0
-560,-692,0,0,0,0,0,0,0,0,0,-1,664,1716,0,0
-553,-692,0,0,0,0,0,0,0,0,0,-1,671,1716,0,0
-546,-692,0,0,0,0,0,0,0,0,0,-1,678,1716,0,0
-539,-692,0,0,0,0,0,0,0,0,0,-1,685,1716,0,0
-532,-692,0,0,0,0,0,0,0,0,0,-1,692,1716,0,0
-525,-692,0,0,0,0,0,0,0,0,0,-1,699,1716,0,0
-518,-692,0,0,0,0,0,0,0,0,0,-1,706,1716,0,0
-511,-692,0,0,0,0,0,0,0,0,0,-1,713,1716,0,0
-504,-692,0,0,0,0,0,0,0,0,0,-1,720,1716,0,0
-497,-692,0,0,0,0,0,0,0,0,0,-1,727,1716,0,0
-490,-692,0,0,0,0,0,0,0,0,0,-1,734,1716,0,0
-483,-692,0,0,0,0,0,0,0,0,0,-1,741,1716,0,0
-476,-692,0,0,0,0,0,0,0,0,0,-1,748,1716,0,0
-469,-692,0,0,0,0,0,0,0,0,0,-1,755,1716,0,0
-462,-692,0,0,0,0,0,0,0,0,0,-1,762,1716,0,0
-455,-692,0,0,0,0,0,0,0,0,0,-1,769,1716,0,0
-448,-692,0,0,0,0,0,0,0,0,0,-1,776,1716,0,0
-441,-692,0,0,0,0,0,0,0,0,0,-1,783,1716,0,0
-434,-692,0,0,0,0,0,0,0,0,0,-1,790,1716,0,0
-427,-692,0,0,0,0,0,0,0,0,0,-1,797,1716,0,0
-420,-692,0,0,0,0,0,0,0,0,0,-1,804,1716,0,0
-413,-692,0,0,0,0,0,0,0,0,0,-1,811,1716,0,0
-406,-692,0,0,0,0,0,0,0,0,0,-1,818,1716,0,0
-399,-692,0,0,0,0,0,0,0,0,0,-1,825,1716,0,0
-392,-692,0,0,0,0,0,0,0,0,0,-1,832,1716,0,0
-385,-692,0,0,0,0,0,0,0,0,0,-1,839,1716,0,0
-378,-692,0,0,0,0,0,0,0,0,0,-1,846,1716,0,0
-371,-692,0,0,0,0,0,0,0,0,0,-1,853,1716,0,0
-364,-692,0,0,0,0,0,0,0,0,0,-1,860,1716,0,0
-357,-692,0,0,0,0,0,0,0,0,0,-1,867,1716,0,0
-350,-692,0,0,0,0,0,0,0,0,0,-1,874,1716,0,0
-343,-692,0,0,0,0,0,0,0,0,0,-1,881,1716,0,0
-336,-692,0,0,0,0,0,0,0,0,0,-1,888,1716,0,0
-329,-692,3.03107,4.10266,0,0,0,0,0,0,0,-1,895,1716,3.03105,-4.10267
-322,-692,4.43713,18.5242,0,0,0,0,0,0,0,-1,902,1716,4.43711,-18.5241
-315,-692,5.38965,17.975,0,0,0,0,0,0,0,-1,909,1716,5.38963,-17.975
-308,-692,5.86938,17.4392,0,0,0,0,0,0,0,-1,916,1716,5.86937,-17.4392
-301,-692,8.65558,20.7662,0,0,0,0,0,0,0,-1,923,1716,8.65556,-20.7663
-294,-692,6.66138,19.0796,0,0,0,0,0,0,0,-1,930,1716,6.66141,-19.0796
-287,-692,7.20709,21.7152,0,0,0,0,0,0,0,-1,937,1716,7.20711,-21.7153
-280,-692,5.50165,19.7401,0,0,0,0,0,0,0,-1,944,1716,5.50164,-19.7401
-273,-692,5.64038,19.7555,0,0,0,0,0,0,0,-1,951,1716,5.64039,-19.7554
-266,-692,6.13049,20.3552,0,0,0,0,0,0,0,-1,958,1716,6.13052,-20.3553
-259,-692,5.896,20.6162,0,0,0,0,0,0,0,-1,965,1716,5.89597,-20.6163
-252,-692,6.28864,20.724,0,0,0,0,0,0,0,-1,972,1716,6.28863,-20.724
-245,-692,6.98065,20.6471,0,0,0,0,0,0,0,-1,979,1716,6.98064,-20.6471
-238,-692,5.86157,21.017,-0.00612229,0.00877671,-0.00483594,0.0102087,-0.00755431,-1.2829,0.0102936,0.0457586,986,1716,5.8616,-21.017
-231,-692,5.80194,21.3654,-0.00574357,0.00862545,-0.00406495,0.00969569,-0.00681382,-1.31335,0.00958005,0.0373674,993,1716,5.80194,-21.3654
-224,-692,5.67358,21.7062,-0.00488768,0.0077912,-0.0031631,0.00853651,-0.00563299,-1.33939,0.00823782,0.0186503,1000,1716,5.67358,-21.7062
-217,-692,5.65283,21.9108,-0.00422097,0.00639735,-0.00216771,0.00682283,-0.00464645,-1.37698,0.00666142,0.0127808,1007,1716,5.65281,-21.9108
-210,-692,5.651,22.1499,-0.00343083,0.00505519,-0.000994515,0.00517018,-0.00354583,-1.45568,0.00506124,0.0136846,1014,1716,5.65099,-22.1499
-203,-692,5.63818,22.3914,-0.00244058,0.00371664,8.63217e-05,0.00371785,-0.00244179,1.55678,0.00358162,0.0154366,1021,1716,5.63818,-22.3914
-196,-692,5.61023,22.6362,-0.00150702,0.00257335,0.00111775,0.00285947,-0.00179315,1.32019,0.00270961,0.0173383,1028,1716,5.61022,-22.6362
-189,-692,5.57922,22.778,-0.000588396,0.00166354,0.00180262,0.00266295,-0.00158781,1.06456,0.00248021,0.00871493,1035,1716,5.57924,-22.778
-182,-692,5.58313,23.0005,0.000212406,0.00107346,0.00222917,0.0029133,-0.00162743,0.88079,0.0026564,0.0129863,1042,1716,5.58308,-23.0005
-175,-692,5.57764,23.2317,0.000777804,0.000679032,0.002646,0.00337488,-0.00191804,0.776067,0.00309421,0.0151835,1049,1716,5.5777,-23.2317
-168,-692,5.58704,23.4346,0.00125627,0.000519961,0.00285787,0.0037696,-0.00199337,0.72134,0.00337952,0.0118533,1056,1716,5.58708,-23.4346
-161,-692,5.59558,23.6306,0.00151882,0.000578044,0.00275743,0.0038457,-0.00174884,0.700917,0.00330476,0.0137652,1063,1716,5.59555,-23.6306
-154,-692,5.58936,23.8391,0.00165168,0.00101676,0.00248848,0.00384287,-0.00117443,0.721955,0.00303023,0.0142134,1070,1716,5.58932,-23.8391
-147,-692,5.58154,24.0236,0.00170845,0.00183283,0.00211589,0.00388744,-0.000346172,0.80009,0.00271439,0.0129274,1077,1716,5.58156,-24.0236
-140,-692,5.57397,24.1848,0.00156163,0.00239896,0.00179199,0.00382054,0.000140051,0.900156,0.00250165,0.00989098,1084,1716,5.57396,-24.1848
-133,-692,5.59045,24.3641,0.00145178,0.00268907,0.00147891,0.00367351,0.00046733,0.983494,0.00230905,0.00952377,1091,1716,5.59045,-24.3642
-126,-692,5.59546,24.52,0.00150221,0.00294328,0.00127884,0.0036906,0.000754895,1.04195,0.00225136,0.00804037,1098,1716,5.5955,-24.52
-119,-692,5.57971,24.6788,0.001552,0.00329682,0.00113368,0.00385491,0.00099391,1.11334,0.00231101,0.0115083,1105,1716,5.57967,-24.6789
-112,-692,5.57849,24.85,0.00178294,0.00357721,0.00106588,0.00407326,0.00128689,1.13522,0.00240423,0.0105683,1112,1716,5.57855,-24.85
-105,-692,5.58215,25.0155,0.00209859,0.00368149,0.00109343,0.00423984,0.00154024,1.09867,0.00247819,0.015252,1119,1716,5.5821,-25.0155
-98,-692,5.65393,25.1522,0.00241781,0.00384279,0.00117098,0.004501,0.0017596,1.05871,0.00261918,0.0169778,1126,1716,5.65389,-25.1522
-91,-692,5.64197,25.2681,0.00283623,0.00406772,0.00126704,0.00486071,0.00204324,1.01158,0.00281817,0.0184235,1133,1716,5.64201,-25.268
-84,-692,5.62366,25.3972,0.0033158,0.00417304,0.00130735,0.00512024,0.0023686,0.943803,0.00295893,0.0197025,1140,1716,5.62369,-25.3972
-77,-692,5.64429,25.5721,0.00376075,0.00430771,0.00116177,0.00522776,0.0028407,0.900993,0.00302203,0.0153363,1147,1716,5.6443,-25.5721
-70,-692,5.70923,25.7906,0.00418706,0.00423567,0.000813851,0.00502557,0.00339715,0.800325,0.00296081,0.027936,1154,1716,5.70919,-25.7906
-63,-692,5.74097,25.9148,0.00356575,0.00796639,0.00203951,0.00876623,0.00276591,1.19705,0.00517475,0.0463199,1161,1716,5.74099,-25.9148
-56,-692,5.80469,26.0016,0,0,0,0,0,0,0,-1,1168,1716,5.80469,-26.0016
-49,-692,5.65063,26.1396,0,0,0,0,0,0,0,-1,1175,1716,5.65065,-26.1396
-42,-692,5.74841,26.3235,0,0,0,0,0,0,0,-1,1182,1716,5.74846,-26.3235
-35,-692,5.81946,26.391,0,0,0,0,0,0,0,-1,1189,1716,5.81943,-26.391
-28,-692,5.83582,26.4347,-0.000775112,0.0396607,0.00574313,0.0404606,-0.00157499,1.43241,0.0275138,0.0459521,1196,1716,5.8358,-26.4347
-21,-692,5.90491,26.3621,-0.00119436,0.043638,0.00547378,0.0442966,-0.001853,1.45105,0.0301677,0.030955,1203,1716,5.90493,-26.362
-14,-692,5.91089,26.407,-0.000931072,0.0471288,0.00525099,0.0476958,-0.0014981,1.46323,0.0323082,0.0162805,1210,1716,5.91089,-26.407
-7,-692,5.91101,26.5266,-0.000526504,0.0505861,0.004824,0.0510374,-0.000977805,1.47751,0.0343555,0.0155441,1217,1716,5.91096,-26.5266
0,-692,5.90686,26.6102,0.000346536,0.0538902,0.00419596,0.054217,1.97161e-05,1.49306,0.0361381,0.0178226,1224,1716,5.9068,-26.6103
7,-692,5.96057,26.6766,0.00165016,0.0560297,0.0036983,0.0562801,0.0013998,1.5032,0.0370623,0.0220775,1231,1716,5.96053,-26.6766
14,-692,6.10779,26.5837,0,0,0,0,0,0,0,-1,1238,1716,6.10781,-26.5838
21,-692,6.15881,26.8108,0.00659124,0.0592914,0.00412037,0.0596116,0.00627103,1.49324,0.0378244,0.0263905,1245,1716,6.15884,-26.8108
28,-692,6.15051,26.8134,0.00989173,0.0592104,0.00426923,0.0595773,0.00952489,1.48508,0.0369547,0.0279504,1252,1716,6.15057,-26.8133
35,-692,6.17053,26.8654,0.012308,0.0572621,0.00423384,0.0576574,0.0119127,1.47771,0.0351469,0.0265821,1259,1716,6.17052,-26.8654
42,-692,6.21973,26.9359,0.0145194,0.0537764,0.00440983,0.0542656,0.0140301,1.4603,0.0325252,0.0233355,1266,1716,6.21969,-26.9359
49,-692,6.27124,26.9128,0.0160965,0.0490856,0.00463345,0.049724,0.015458,1.43387,0.0293848,0.0270278,1273,1716,6.27129,-26.9129
56,-692,6.29553,26.9022,0.0168817,0.0437032,0.00505782,0.0446253,0.0159596,1.39047,0.0261102,0.0321338,1280,1716,6.29548,-26.9022
63,-692,6.29065,26.9297,0.016962,0.0378937,0.00547099,0.0392374,0.0156183,1.32996,0.0228102,0.0307173,1287,1716,6.29063,-26.9297
70,-692,6.32373,27.0333,0.0159158,0.0315874,0.00574456,0.0334676,0.0140357,1.25449,0.0194061,0.0274831,1294,1716,6.3237,-27.0333
77,-692,6.39587,27.079,0.0136735,0.0259113,0.00615255,0.0284697,0.0111152,1.17673,0.016568,0.030969,1301,1716,6.39589,-27.079
84,-692,6.44568,26.9993,0.0101134,0.0211718,0.00635843,0.0240689,0.00721635,1.14328,0.0142626,0.0384934,1308,1716,6.44564,-26.9992
91,-692,6.46545,26.9296,0.00569824,0.0168388,0.00656806,0.0198805,0.00265646,1.13709,0.0124629,0.0359193,1315,1716,6.46545,-26.9295
98,-692,6.47205,26.8447,0.000845019,0.0136669,0.00680161,0.0166027,-0.00209081,1.16332,0.0118272,0.0305319,1322,1716,6.47205,-26.8447
105,-692,6.46143,26.7893,-0.00401775,0.0118899,0.00715037,0.0146315,-0.0067593,1.20467,0.0126257,0.038168,1329,1716,6.46148,-26.7893
112,-692,6.4425,26.7941,-0.00855699,0.011367,0.00746568,0.013854,-0.011044,1.24923,0.0144054,0.0394939,1336,1716,6.44247,-26.7941
119,-692,6.45313,26.7783,-0.0126782,0.011326,0.00801097,0.013754,-0.0151061,1.27652,0.0166685,0.0312575,1343,1716,6.45307,-26.7783
126,-692,6.55212,26.6943,-0.0173296,0.0104615,0.00776947,0.0124861,-0.0193542,1.31588,0.018525,0.0325745,1350,1716,6.55215,-26.6944
133,-692,6.60852,26.6282,-0.020116,0.0113431,0.00864511,0.0135622,-0.0223351,1.31952,0.0209306,0.0261081,1357,1716,6.60848,-26.6281
140,-692,6.57922,26.6776,-0.0214305,0.0124182,0.00936803,0.0148379,-0.0238502,1.31802,0.0225377,0.0288424,1364,1716,6.57921,-26.6776
147,-692,6.5824,26.7244,-0.0219699,0.0128681,0.0093426,0.0152154,-0.0243171,1.32465,0.0230249,0.0328073,1371,1716,6.5824,-26.7244
154,-692,6.57275,26.6403,-0.0216834,0.0127857,0.00915167,0.0150648,-0.0239625,1.32672,0.0227268,0.0302567,1378,1716,6.5727,-26.6402
161,-692,6.74207,26.5446,-0.0206129,0.0119393,0.00876565,0.0141496,-0.0228233,1.32379,0.0215412,0.0404492,1385,1716,6.74213,-26.5446
168,-692,6.68567,26.4548,0,0,0,0,0,0,0,-1,1392,1716,6.6857,-26.4549
175,-692,6.76086,26.3378,0,0,0,0,0,0,0,-1,1399,1716,6.76081,-26.3378
182,-692,6.71973,26.2174,0,0,0,0,0,0,0,-1,1406,1716,6.71977,-26.2174
189,-692,6.73608,26.1356,0,0,0,0,0,0,0,-1,1413,1716,6.7361,-26.1356
196,-692,6.75427,26.0477,-0.00325871,0.00132396,0.00176576,0.00192539,-0.00386014,1.24251,0.00340197,0.0353665,1420,1716,6.75429,-26.0477
203,-692,6.74487,25.9502,0.00164079,-0.000350644,0.00153154,0.00247184,-0.00118169,0.497161,0.00215276,0.0220277,1427,1716,6.74488,-25.9502
210,-692,6.776,25.8214,0.00113657,-0.000789524,0.0014846,0.00194313,-0.00159609,0.497672,0.00204664,0.0181387,1434,1716,6.77604,-25.8215
217,-692,6.77185,25.6951,0.000588733,-0.00111556,0.00129171,0.00128406,-0.00181088,0.493815,0.00179547,0.0165078,1441,1716,6.77186,-25.695
224,-692,6.78076,25.5927,0.000462057,-0.00114046,0.001192,0.00109707,-0.00177548,0.489487,0.00167381,0.0128103,1448,1716,6.78082,-25.5927
231,-692,6.79456,25.4771,0.00052146,-0.000920225,0.000949332,0.000992609,-0.00139137,0.46068,0.0013828,0.0112668,1455,1716,6.7945,-25.477
238,-692,6.80542,25.2986,0.000656917,-0.000805903,0.000795963,0.00100649,-0.00115547,0.413819,0.0012492,0.0183943,1462,1716,6.8054,-25.2986
245,-692,6.82947,25.1495,0.000820816,-0.000730008,0.000583799,0.00101602,-0.000925207,0.322674,0.00112117,0.0209384,1469,1716,6.82948,-25.1495
252,-692,6.84314,25.0446,0.000999031,-0.000717295,0.00037112,0.00107584,-0.000794105,0.204086,0.00108369,0.0167693,1476,1716,6.84315,-25.0445
259,-692,6.8446,24.9272,0.00110033,-0.000542426,0.000176289,0.00111903,-0.000561132,0.10571,0.000987709,0.00912845,1483,1716,6.84455,-24.9273
266,-692,6.84045,24.7744,0.00112466,-0.000313153,-5.27428e-05,0.0011266,-0.000315085,-0.0366169,0.000875207,0.00955233,1490,1716,6.84049,-24.7744
273,-692,6.83789,24.5969,0.00109537,2.20151e-05,-0.000264273,0.00115691,-3.95237e-05,-0.228784,0.000784781,0.0142878,1497,1716,6.83794,-24.5969
280,-692,6.85693,24.4204,0.00103876,0.000335947,-0.000485212,0.00128645,8.82564e-05,-0.471997,0.00082978,0.0138667,1504,1716,6.85688,-24.4204
287,-692,6.85718,24.2728,0.000934208,0.000648103,-0.000595664,0.00140376,0.000178554,-0.667552,0.000882362,0.0107162,1511,1716,6.85722,-24.2729
294,-692,6.85132,24.1089,0.00081471,0.0010239,-0.000707928,0.00163492,0.000203693,-0.858742,0.00102879,0.0103386,1518,1716,6.85129,-24.1089
301,-692,6.85974,23.9359,0.000571307,0.00106159,-0.00073307,0.00158942,4.34765e-05,-0.946755,0.00104542,0.0135513,1525,1716,6.85978,-23.9359
308,-692,6.83691,23.7549,0.000388043,0.000929569,-0.000689503,0.00139957,-8.19549e-05,-0.972494,0.000961528,0.0165663,1532,1716,6.83694,-23.7549
315,-692,6.82886,23.5426,0.000444903,0.000416946,-0.00069149,0.00112256,-0.000260706,-0.775292,0.000848726,0.0150095,1539,1716,6.82892,-23.5427
322,-692,6.77905,23.3107,0.000395046,-0.000185806,-0.000619175,0.000788524,-0.000579284,-0.566106,0.000792778,0.0196209,1546,1716,6.77907,-23.3107
329,-692,6.77393,23.1262,0.000315989,-0.00120829,-0.000517196,0.000474908,-0.0013672,-0.298114,0.00110435,0.0171018,1553,1716,6.77387,-23.1262
336,-692,6.78784,22.9391,0.000263397,-0.00238436,-0.000388922,0.000319343,-0.0024403,-0.142868,0.0017431,0.0122982,1560,1716,6.78783,-22.9391
343,-692,6.80603,22.7455,5.73383e-05,-0.00392738,-2.69712e-05,5.75208e-05,-0.00392757,-0.00676824,0.00263776,0.013372,1567,1716,6.80605,-22.7454
350,-692,6.80127,22.5385,-0.000209661,-0.00594975,0.000489126,-0.00016828,-0.00599113,0.0844014,0.00393919,0.0136462,1574,1716,6.80132,-22.5384
357,-692,6.77258,22.3101,-0.000404999,-0.00780786,0.00103389,-0.000263317,-0.00794954,0.136189,0.00521414,0.0172974,1581,1716,6.77254,-22.3101
364,-692,6.76929,22.0876,-0.000727746,-0.00973991,0.00176915,-0.000392891,-0.0100748,0.187061,0.00658945,0.0238352,1588,1716,6.76931,-22.0876
371,-692,6.88293,21.9458,-0.00134388,-0.0117637,0.00270325,-0.000684313,-0.0124232,0.239314,0.00806374,0.0370198,1595,1716,6.88298,-21.9458
378,-692,6.7467,21.795,-0.00203946,-0.0138589,0.00374129,-0.000954749,-0.0149436,0.282192,0.00965992,0.0464468,1602,1716,6.74668,-21.7951
385,-692,6.70825,21.4935,0,0,0,0,0,0,0,-1,1609,1716,6.70827,-21.4935
392,-692,5.99121,21.327,0,0,0,0,0,0,0,-1,1616,1716,5.99126,-21.327
399,-692,6.448,21.5812,0,0,0,0,0,0,0,-1,1623,1716,6.44798,-21.5811
406,-692,4.73633,10.6808,0,0,0,0,0,0,0,-1,1630,1716,4.73637,-10.6808
413,-692,4.25085,10.5685,0,0,0,0,0,0,0,-1,1637,1716,4.2508,-10.5685
420,-692,5.48901,10.4845,0,0,0,0,0,0,0,-1,1644,1716,5.48906,-10.4845
427,-692,3.79578,8.60339,0,0,0,0,0,0,0,-1,1651,1716,3.79577,-8.6034
434,-692,4.78516,8.64636,0,0,0,0,0,0,0,-1,1658,1716,4.78512,-8.64634
441,-692,5.8208,8.74036,0,0,0,0,0,0,0,-1,1665,1716,5.82084,-8.7404
448,-692,6.73792,8.51013,0,0,0,0,0,0,0,-1,1672,1716,6.73793,-8.5101
455,-692,0,0,0,0,0,0,0,0,0,-1,1679,1716,0,0
462,-692,0,0,0,0,0,0,0,0,0,-1,1686,1716,0,0
469,-692,0,0,0,0,0,0,0,0,0,-1,1693,1716,0,0
476,-692,0,0,0,0,0,0,0,0,0,-1,1700,1716,0,0
483,-692,0,0,0,0,0,0,0,0,0,-1,1707,1716,0,0
490,-692,0,0,0,0,0,0,0,0,0,-1,1714,1716,0,0
497,-692,0,0,0,0,0,0,0,0,0,-1,1721,1716,0,0
504,-692,0,0,0,0,0,0,0,0,0,-1,1728,1716,0,0
511,-692,0,0,0,0,0,0,0,0,0,-1,1735,1716,0,0
518,-692,0,0,0,0,0,0,0,0,0,-1,1742,1716,0,0
525,-692,0,0,0,0,0,0,0,0,0,-1,1749,1716,0,0
532,-692,0,0,0,0,0,0,0,0,0,-1,1756,1716,0,0
539,-692,0,0,0,0,0,0,0,0,0,-1,1763,1716,0,0
546,-692,0,0,0,0,0,0,0,0,0,-1,1770,1716,0,0
553,-692,0,0,0,0,0,0,0,0,0,-1,1777,1716,0,0
560,-692,0,0,0,0,0,0,0,0,0,-1,1784,1716,0,0
567,-692,0,0,0,0,0,0,0,0,0,-1,1791,1716,0,0
574,-692,0,0,0,0,0,0,0,0,0,-1,1798,1716,0,0
581,-692,0,0,0,0,0,0,0,0,0,-1,1805,1716,0,0
588,-692,0,0,0,0,0,0,0,0,0,-1,1812,1716,0,0
595,-692,0,0,0,0,0,0,0,0,0,-1,1819,1716,0,0
602,-692,0,0,0,0,0,0,0,0,0,-1,1826,1716,0,0
609,-692,0,0,0,0,0,0,0,0,0,-1,1833,1716,0,0
616,-692,0,0,0,0,0,0,0,0,0,-1,1840,1716,0,0
623,-692,0,0,0,0,0,0,0,0,0,-1,1847,1716,0,0
630,-692,0,0,0,0,0,0,0,0,0,-1,1854,1716,0,0
637,-692,0,0,0,0,0,0,0,0,0,-1,1861,1716,0,0
644,-692,0,0,0,0,0,0,0,0,0,-1,1868,1716,0,0
651,-692,0,0,0,0,0,0,0,0,0,-1,1875,1716,0,0
658,-692,0,0,0,0,0,0,0,0,0,-1,1882,1716,0,0
665,-692,0,0,0,0,0,0,0,0,0,-1,1889,1716,0,0
672,-692,0,0,0,0,0,0,0,0,0,-1,1896,1716,0,0
679,-692,0,0,0,0,0,0,0,0,0,-1,1903,1716,0,0
686,-692,0,0,0,0,0,0,0,0,0,-1,1910,1716,0,0
693,-692,0,0,0,0,0,0,0,0,0,-1,1917,1716,0,0
700,-692,0,0,0,0,0,0,0,0,0,-1,1924,1716,0,0
707,-692,0,0,0,0,0,0,0,0,0,-1,1931,1716,0,0
714,-692,0,0,0,0,0,0,0,0,0,-1,1938,1716,0,0
721,-692,0,0,0,0,0,0,0,0,0,-1,1945,1716,0,0
728,-692,0,0,0,0,0,0,0,0,0,-1,1952,1716,0,0
735,-692,0,0,0,0,0,0,0,0,0,-1,1959,1716,0,0
742,-692,0,0,0,0,0,0,0,0,0,-1,1966,1716,0,0
749,-692,0,0,0,0,0,0,0,0,0,-1,1973,1716,0,0
756,-692,0,0,0,0,0,0,0,0,0,-1,1980,1716,0,0
763,-692,0,0,0,0,0,0,0,0,0,-1,1987,1716,0,0
770,-692,0,0,0,0,0,0,0,0,0,-1,1994,1716,0,0
777,-692,0,0,0,0,0,0,0,0,0,-1,2001,1716,0,0
784,-692,0,0,0,0,0,0,0,0,0,-1,2008,1716,0,0
791,-692,0,0,0,0,0,0,0,0,0,-1,2015,1716,0,0
798,-692,0,0,0,0,0,0,0,0,0,-1,2022,1716,0,0
805,-692,0,0,0,0,0,0,0,0,0,-1,2029,1716,0,0
812,-692,0,0,0,0,0,0,0,0,0,-1,2036,1716,0,0
-700,-699,0,0,0,0,0,0,0,0,0,-1,524,1723,0,0
-693,-699,0,0,0,0,0,0,0,0,0,-1,531,1723,0,0
-686,-699,0,0,0,0,0,0,0,0,0,-1,538,1723,0,0
-679,-699,0,0,0,0,0,0,0,0,0,-1,545,1723,0,0
-672,-699,0,0,0,0,0,0,0,0,0,-1,552,1723,0,0
-665,-699,0,0,0,0,0,0,0,0,0,-1,559,1723,0,0
-658,-699,0,0,0,0,0,0,0,0,0,-1,566,1723,0,0
-651,-699,0,0,0,0,0,0,0,0,0,-1,573,1723,0,0
-644,-699,0,0,0,0,0,0,0,0,0,-1,580,1723,0,0
-637,-699,0,0,0,0,0,0,0,0,0,-1,587,1723,0,0
-630,-699,0,0,0,0,0,0,0,0,0,-1,594,1723,0,0
-623,-699,0,0,0,0,0,0,0,0,0,-1,601,1723,0,0
-616,-699,0,0,0,0,0,0,0,0,0,-1,608,1723,0,0
-609,-699,0,0,0,0,0,0,0,0,0,-1,615,1723,0,0
-602,-699,0,0,0,0,0,0,0,0,0,-1,622,1723,0,0
-595,-699,0,0,0,0,0,0,0,0,0,-1,629,1723,0,0
-588,-699,0,0,0,0,0,0,0,0,0,-1,636,1723,0,0
-581,-699,0,0,0,0,0,0,0,0,0,-1,643,1723,0,0
-574,-699,0,0,0,0,0,0,0,0,0,-1,650,1723,0,0
-567,-699,0,0,0,0,0,0,0,0,0,-1,657,1723,0,0
-560,-699,0,0,0,0,0,0,0,0,0,-1,664,1723,0,0
-553,-699,0,0,0,0,0,0,0,0,0,-1,671,1723,0,0
-546,-699,0,0,0,0,0,0,0,0,0,-1,678,1723,0,0
-539,-699,0,0,0,0,0,0,0,0,0,-1,685,1723,0,0
-532,-699,0,0,0,0,0,0,0,0,0,-1,692,1723,0,0
-525,-699,0,0,0,0,0,0,0,0,0,-1,699,1723,0,0
-518,-699,0,0,0,0,0,0,0,0,0,-1,706,1723,0,0
-511,-699,0,0,0,0,0,0,0,0,0,-1,713,1723,0,0
-504,-699,0,0,0,0,0,0,0,0,0,-1,720,1723,0,0
-497,-699,0,0,0,0,0,0,0,0,0,-1,727,1723,0,0
-490,-699,0,0,0,0,0,0,0,0,0,-1,734,1723,0,0
-483,-699,0,0,0,0,0,0,0,0,0,-1,741,1723,0,0
-476,-699,0,0,0,0,0,0,0,0,0,-1,748,1723,0,0
-469,-699,0,0,0,0,0,0,0,0,0,-1,755,1723,0,0
-462,-699,0,0,0,0,0,0,0,0,0,-1,762,1723,0,0
-455,-699,0,0,0,0,0,0,0,0,0,-1,769,1723,0,0
-448,-699,0,0,0,0,0,0,0,0,0,-1,776,1723,0,0
-441,-699,0,0,0,0,0,0,0,0,0,-1,783,1723,0,0
-434,-699,0,0,0,0,0,0,0,0,0,-1,790,1723,0,0
-427,-699,0,0,0,0,0,0,0,0,0,-1,797,1723,0,0
-420,-699,0,0,0,0,0,0,0,0,0,-1,804,1723,0,0
-413,-699,0,0,0,0,0,0,0,0,0,-1,811,1723,0,0
-406,-699,0,0,0,0,0,0,0,0,0,-1,818,1723,0,0
-399,-699,0,0,0,0,0,0,0,0,0,-1,825,1723,0,0
-392,-699,0,0,0,0,0,0,0,0,0,-1,832,1723,0,0
-385,-699,0,0,0,0,0,0,0,0,0,-1,839,1723,0,0
-378,-699,0,0,0,0,0,0,0,0,0,-1,846,1723,0,0
-371,-699,0,0,0,0,0,0,0,0,0,-1,853,1723,0,0
-364,-699,0,0,0,0,0,0,0,0,0,-1,860,1723,0,0
-357,-699,0,0,0,0,0,0,0,0,0,-1,867,1723,0,0
-350,-699,0,0,0,0,0,0,0,0,0,-1,874,1723,0,0
-343,-699,0,0,0,0,0,0,0,0,0,-1,881,1723,0,0
-336,-699,0,0,0,0,0,0,0,0,0,-1,888,1723,0,0
-329,-699,0,0,0,0,0,0,0,0,0,-1,895,1723,0,0
-322,-699,0,0,0,0,0,0,0,0,0,-1,902,1723,0,0
-315,-699,6.20001,19.5193,0,0,0,0,0,0,0,-1,909,1723,6.20001,-19.5193
-308,-699,6.98151,18.9218,0,0,0,0,0,0,0,-1,916,1723,6.98151,-18.9217
-301,-699,4.72729,12.8752,0,0,0,0,0,0,0,-1,923,1723,4.72732,-12.8752
-294,-699,6.90332,19.8601,0,0,0,0,0,0,0,-1,930,1723,6.90332,-19.8601
-287,-699,7.85419,23.2396,0,0,0,0,0,0,0,-1,937,1723,7.8542,-23.2397
-280,-699,7.68732,22.1196,0,0,0,0,0,0,0,-1,944,1723,7.68733,-22.1196
-273,-699,6.86334,20.8342,0,0,0,0,0,0,0,-1,951,1723,6.86336,-20.8342
-266,-699,6.71625,20.5359,0,0,0,0,0,0,0,-1,958,1723,6.71626,-20.5359
-259,-699,5.39758,14.5466,0,0,0,0,0,0,0,-1,965,1723,5.39759,-14.5466
-252,-699,7.2879,20.5737,0,0,0,0,0,0,0,-1,972,1723,7.2879,-20.5738
-245,-699,6.37988,20.4355,0,0,0,0,0,0,0,-1,979,1723,6.37985,-20.4356
-238,-699,6.13354,20.9385,0,0,0,0,0,0,0,-1,986,1723,6.13352,-20.9384
-231,-699,6.16455,21.1677,-0.007982,0.00511479,-0.00746182,0.00849415,-0.0113614,-1.14554,0.0115034,0.0433637,993,1723,6.16456,-21.1678
-224,-699,6.1394,21.4117,-0.00694231,0.00375926,-0.00623456,0.00662435,-0.0098074,-1.14003,0.00954602,0.0380285,1000,1723,6.13939,-21.4118
-217,-699,5.91785,21.8782,-0.00612928,0.00195782,-0.00480681,0.00419565,-0.00836711,-1.13508,0.00738519,0.0262786,1007,1723,5.91783,-21.8782
-210,-699,5.9126,22.1305,-0.00514221,0.000428221,-0.00316356,0.00185792,-0.00657191,-1.14634,0.00511434,0.018125,1014,1723,5.9126,-22.1305
-203,-699,5.849,22.3607,-0.00388228,-0.000908908,-0.00161232,-0.000202464,-0.00458873,-1.15784,0.00299395,0.0211071,1021,1723,5.84899,-22.3607
-196,-699,5.82776,22.5636,-0.00263636,-0.00167288,-7.94339e-05,-0.00166638,-0.00264287,-1.48909,0.00154309,0.0178784,1028,1723,5.82779,-22.5636
-189,-699,5.80566,22.8005,-0.00140139,-0.00203832,0.00101702,-0.000654141,-0.00278557,0.633665,0.00168195,0.00905854,1035,1723,5.8057,-22.8005
-182,-699,5.78394,23.0096,-0.000362149,-0.00201127,0.00177656,0.000771877,-0.0031453,0.568126,0.00239597,0.0117301,1042,1723,5.78399,-23.0096
-175,-699,5.78992,23.2338,0.000352034,-0.00183137,0.0024908,0.00197987,-0.0034592,0.57886,0.00317873,0.0143922,1049,1723,5.78994,-23.2337
-168,-699,5.81433,23.4368,0.00100137,-0.0014553,0.00292484,0.00294533,-0.00339926,0.586598,0.00366618,0.0150647,1056,1723,5.81436,-23.4367
-161,-699,5.7959,23.6259,0.00138118,-0.000959452,0.00294183,0.00337694,-0.00295521,0.596086,0.00365857,0.0131436,1063,1723,5.79591,-23.6258
-154,-699,5.76636,23.8334,0.00156207,-0.000143948,0.00271519,0.0035551,-0.00213697,0.633199,0.00332014,0.0135973,1070,1723,5.76633,-23.8334
-147,-699,5.7605,24.0104,0.00167608,0.00131928,0.00242707,0.0039313,-0.000935931,0.748712,0.00298221,0.0151878,1077,1723,5.76056,-24.0104
-140,-699,5.74805,24.1686,0.00152489,0.00221535,0.00213045,0.00402836,-0.000288128,0.865722,0.00278659,0.010025,1084,1723,5.74801,-24.1686
-133,-699,5.75122,24.36,0.00128952,0.0024701,0.00170144,0.00368073,7.88776e-05,0.952369,0.00242796,0.00875783,1091,1723,5.75119,-24.36
-126,-699,5.74695,24.517,0.0011636,0.00251985,0.00132071,0.00332635,0.000357098,1.02258,0.00210864,0.0115034,1098,1723,5.74698,-24.5169
-119,-699,5.74341,24.679,0.0010652,0.00286302,0.00106434,0.00335725,0.000570968,1.13607,0.00207421,0.016731,1105,1723,5.74345,-24.6789
-112,-699,5.72864,24.8497,0.00116809,0.00313576,0.000966035,0.00353075,0.0007731,1.18266,0.00214313,0.0109661,1112,1723,5.72863,-24.8498
-105,-699,5.73621,25.0198,0.00135809,0.00321172,0.000933243,0.00360018,0.000969638,1.17637,0.00215103,0.0119781,1119,1723,5.73624,-25.0198
-98,-699,5.79858,25.1633,0.00158017,0.00332023,0.000964419,0.00374906,0.00115133,1.15239,0.00221757,0.014633,1126,1723,5.79854,-25.1633
-91,-699,5.81042,25.2838,0.00188319,0.00344725,0.00100022,0.00393486,0.00139557,1.11719,0.00230356,0.020154,1133,1723,5.81043,-25.2838
-84,-699,5.7832,25.4366,0.00222601,0.00351079,0.00102407,0.00407727,0.00165952,1.06552,0.00236754,0.0222659,1140,1723,5.78318,-25.4367
-77,-699,5.80371,25.5568,0.0025768,0.0036173,0.000922877,0.00415647,0.00203764,1.04206,0.00239989,0.0156449,1147,1723,5.8037,-25.5567
-70,-699,5.80347,25.6803,0.00293276,0.00357154,0.000679887,0.00400332,0.00250098,1.00499,0.00233517,0.0172145,1154,1723,5.80343,-25.6803
-63,-699,5.80896,25.8126,0.00272659,0.00546291,0.00128157,0.00596939,0.0022201,1.19443,0.00348392,0.0146404,1161,1723,5.80895,-25.8126
-56,-699,5.80176,25.9287,0.00212637,0.00867002,0.00219841,0.00934,0.00145639,1.27498,0.00580245,0.0104394,1168,1723,5.80181,-25.9287
-49,-699,5.79285,26.0996,0.00149883,0.0122359,0.00281176,0.0129277,0.000807066,1.32956,0.00836241,0.0217884,1175,1723,5.79285,-26.0996
-42,-699,5.84277,26.196,0.00100657,0.0157639,0.00334773,0.0164879,0.000282642,1.35783,0.0108989,0.0256401,1182,1723,5.84281,-26.196
-35,-699,5.8656,26.2372,0.00053779,0.0200493,0.00393087,0.0208114,-0.000224367,1.37928,0.0139497,0.0238887,1189,1723,5.86566,-26.2372
-28,-699,5.91455,26.3361,3.32528e-05,0.0244483,0.00356013,0.0249568,-0.000475284,1.42891,0.0167985,0.0192706,1196,1723,5.91458,-26.3361
-21,-699,5.93262,26.3531,-0.000357537,0.0278523,0.0032996,0.0282331,-0.000738339,1.4559,0.019073,0.0135216,1203,1723,5.93256,-26.3532
-14,-699,5.94397,26.4403,-0.000256441,0.031207,0.0031565,0.0315205,-0.000569983,1.47179,0.0212062,0.0120393,1210,1723,5.94399,-26.4403
-7,-699,5.9574,26.5427,-6.14891e-05,0.0346017,0.00281915,0.0348295,-0.000289274,1.49017,0.0233167,0.0086532,1217,1723,5.95739,-26.5428
0,-699,5.97571,26.6016,0.000555775,0.0378492,0.00233928,0.0379953,0.000409614,1.5084,0.0251948,0.00972847,1224,1723,5.97572,-26.6015
7,-699,5.98596,26.6674,0.00142004,0.0402737,0.00206839,0.0403835,0.00131023,1.51776,0.0264964,0.0149158,1231,1723,5.98591,-26.6673
14,-699,6.03857,26.723,0.00233869,0.042017,0.00177246,0.042096,0.00225967,1.52624,0.027342,0.0171193,1238,1723,6.03857,-26.723
21,-699,6.09082,26.7448,0.0049491,0.0442154,0.00273262,0.0444047,0.00475984,1.50165,0.028151,0.0171643,1245,1723,6.09077,-26.7448
28,-699,6.09351,26.7898,0.00732859,0.0446022,0.0029786,0.0448387,0.00709207,1.49155,0.0278313,0.0162968,1252,1723,6.09348,-26.7898
35,-699,6.14233,26.8384,0.0091333,0.0436014,0.00309502,0.0438771,0.00885759,1.48195,0.0267915,0.0139036,1259,1723,6.14232,-26.8384
42,-699,6.17822,26.8644,0.0108827,0.0413031,0.00337914,0.0416739,0.0105119,1.46149,0.0250257,0.0122521,1266,1723,6.17819,-26.8644
49,-699,6.19739,26.8866,0.0122342,0.0379012,0.00371497,0.0384281,0.0117073,1.42991,0.0227439,0.0142565,1273,1723,6.19741,-26.8866
56,-699,6.25,26.9038,0.01305,0.0338966,0.00423789,0.0347252,0.0122214,1.37771,0.0203395,0.0147599,1280,1723,6.24994,-26.9038
63,-699,6.26794,26.9005,0.0134082,0.0294693,0.00474886,0.0307683,0.0121091,1.30378,0.0178978,0.0122663,1287,1723,6.26789,-26.9005
70,-699,6.25305,26.9169,0.0129535,0.0245317,0.00507381,0.0264405,0.0110447,1.21097,0.0153342,0.0106528,1294,1723,6.25304,-26.9168
77,-699,6.26233,26.9294,0.0116813,0.0198769,0.00544366,0.0225927,0.00896551,1.10803,0.0131361,0.0112494,1301,1723,6.26232,-26.9294
84,-699,6.27917,26.8971,0.00943913,0.0158079,0.00560831,0.0190728,0.00617423,1.0436,0.0112375,0.0141996,1308,1723,6.2792,-26.8971
91,-699,6.32605,26.8701,0.00644734,0.0120799,0.00573451,0.0156524,0.00287488,1.01365,0.00962087,0.0135476,1315,1723,6.32602,-26.8701
98,-699,6.36743,26.8636,0.00312465,0.00912593,0.00591673,0.0127594,-0.000508827,1.02007,0.00868085,0.0118427,1322,1723,6.36744,-26.8636
105,-699,6.37366,26.8613,-0.000249606,0.0071923,0.00610597,0.0106218,-0.00367906,1.05905,0.00857478,0.0161513,1329,1723,6.37371,-26.8613
112,-699,6.3656,26.83,-0.00342044,0.00617236,0.00620153,0.00921589,-0.00646397,1.11456,0.00909912,0.0215431,1336,1723,6.36566,-26.83
119,-699,6.38,26.8052,-0.00635527,0.00552153,0.00648225,0.00837427,-0.00920801,1.15622,0.0101549,0.0162947,1343,1723,6.38002,-26.8052
126,-699,6.45105,26.7494,-0.00986558,0.00426124,0.00613016,0.0065504,-0.0121547,1.21341,0.0109598,0.0179612,1350,1723,6.45107,-26.7493
133,-699,6.50024,26.714,-0.0120172,0.00444911,0.00674278,0.00685786,-0.0144259,1.22769,0.0125445,0.01602,1357,1723,6.50027,-26.714
140,-699,6.50781,26.6692,-0.0130038,0.0048869,0.00726639,0.00746629,-0.0155832,1.22969,0.0135799,0.0165698,1364,1723,6.50786,-26.6692
147,-699,6.50232,26.6289,-0.0133981,0.00497255,0.00719477,0.00745491,-0.0158805,1.23856,0.0137623,0.0137981,1371,1723,6.50226,-26.6289
154,-699,6.49353,26.5685,-0.0131858,0.00486283,0.00696652,0.00723898,-0.0155619,1.24209,0.0134533,0.0146743,1378,1723,6.49356,-26.5685
161,-699,6.54773,26.4755,-0.0124282,0.0043153,0.00647134,0.00652488,-0.0146378,1.24177,0.012514,0.0109401,1385,1723,6.54772,-26.4755
168,-699,6.5968,26.4113,-0.0114899,0.00348314,0.00567341,0.00539001,-0.0133967,1.24655,0.0111701,0.0120799,1392,1723,6.59674,-26.4113
175,-699,6.63953,26.3472,-0.00956459,0.00255879,0.0046774,0.00415361,-0.0111594,1.24219,0.0091442,0.0137016,1399,1723,6.63952,-26.3472
182,-699,6.62439,26.2438,-0.00736786,0.00114444,0.00381496,0.00260394,-0.00882737,1.2054,0.00691822,0.0146209,1406,1723,6.6244,-26.2438
189,-699,6.61292,26.1498,-0.00447409,0.000164477,0.00253342,0.00127991,-0.00558953,1.15605,0.00421822,0.0167357,1413,1723,6.61288,-26.1498
196,-699,6.61548,26.048,-0.00104614,0.000220022,0.00151916,0.00123274,-0.00205885,0.98282,0.00192025,0.0160528,1420,1723,6.61546,-26.048
203,-699,6.62659,25.9543,0.00118641,-2.15506e-05,0.00101059,0.00175976,-0.000594894,0.516053,0.00141382,0.0133011,1427,1723,6.62654,-25.9544
210,-699,6.64063,25.8486,0.000837056,-0.000320333,0.000954941,0.00137496,-0.00085824,0.512988,0.00130079,0.0136584,1434,1723,6.64057,-25.8486
217,-699,6.64893,25.7362,0.000459259,-0.000543352,0.000781674,0.000886566,-0.000970659,0.500273,0.00107264,0.0144556,1441,1723,6.64893,-25.7362
224,-699,6.66663,25.6013,0.000380698,-0.000567517,0.000656727,0.000716571,-0.00090339,0.472754,0.000937356,0.0157759,1448,1723,6.66664,-25.6013
231,-699,6.69189,25.4742,0.000416651,-0.000475286,0.000459794,0.000611228,-0.000669863,0.40033,0.000739896,0.0119407,1455,1723,6.69184,-25.4743
238,-699,6.68787,25.3345,0.00053821,-0.000421772,0.000323874,0.000637257,-0.00052082,0.296789,0.000669741,0.0109078,1462,1723,6.68786,-25.3345
245,-699,6.68884,25.2009,0.000706147,-0.00035955,0.000136684,0.000723398,-0.000376801,0.12555,0.000645622,0.0125895,1469,1723,6.68885,-25.201
252,-699,6.68274,25.0826,0.000864503,-0.000305528,-7.62028e-05,0.000869445,-0.00031047,-0.0647643,0.000706246,0.0103101,1476,1723,6.68277,-25.0827
259,-699,6.68311,24.9319,0.000965828,-0.000159464,-0.000281976,0.00103253,-0.000226168,-0.232288,0.000774826,0.0100237,1483,1723,6.68313,-24.9318
266,-699,6.67334,24.7594,0.000986628,0.0001247,-0.000529325,0.00123824,-0.000126916,-0.443735,0.000870889,0.0116633,1490,1723,6.67336,-24.7593
273,-699,6.67627,24.5892,0.000948588,0.000568277,-0.000740038,0.00152251,-5.6455e-06,-0.659642,0.00101689,0.0114104,1497,1723,6.6763,-24.5892
280,-699,6.69446,24.4296,0.000870516,0.000963067,-0.000969514,0.00188741,-5.38263e-05,-0.809245,0.00127659,0.0121813,1504,1723,6.69446,-24.4296
287,-699,6.68652,24.2555,0.000757464,0.00126611,-0.00106526,0.00210698,-8.34056e-05,-0.902577,0.00143327,0.0106374,1511,1723,6.68647,-24.2554
294,-699,6.68018,24.092,0.000646136,0.00171225,-0.00117166,0.00246641,-0.000108026,-0.998883,0.00168144,0.0106757,1518,1723,6.68023,-24.0921
301,-699,6.68359,23.924,0.000358436,0.00170338,-0.00114471,0.00235853,-0.000296713,-1.05097,0.00168001,0.0126748,1525,1723,6.68355,-23.9239
308,-699,6.67847,23.7404,0.000148056,0.00149538,-0.00102797,0.00205076,-0.000407325,-1.07546,0.00152124,0.017265,1532,1723,6.67841,-23.7403
315,-699,6.69128,23.545,0.000238147,0.000851178,-0.000992253,0.00158318,-0.000493854,-0.935203,0.00125294,0.0192237,1539,1723,6.69125,-23.545
322,-699,6.65991,23.3673,0.000184792,7.31843e-05,-0.000838331,0.000969175,-0.000711198,-0.752164,0.000973967,0.0198427,1546,1723,6.65988,-23.3673
329,-699,6.62256,23.1652,0.000131189,-0.00126694,-0.000637647,0.00037832,-0.00151407,-0.369743,0.0011563,0.0161901,1553,1723,6.62251,-23.1652
336,-699,6.61572,22.9553,0.000163531,-0.00287296,-0.000429691,0.000223165,-0.0029326,-0.137902,0.00203354,0.0151558,1560,1723,6.61574,-22.9554
343,-699,6.6842,22.766,2.16902e-05,-0.00498447,6.2318e-05,2.24656e-05,-0.00498525,0.0124457,0.00333101,0.0195885,1567,1723,6.68417,-22.766
350,-699,6.6355,22.5657,-0.000192182,-0.00772533,0.000756103,-0.000117041,-0.00780047,0.0990535,0.00516174,0.030303,1574,1723,6.63548,-22.5657
357,-699,6.54504,22.4537,-0.000300123,-0.0103926,0.0015146,-7.77226e-05,-0.010615,0.145795,0.0070509,0.0405111,1581,1723,6.54499,-22.4538
364,-699,6.87329,22.4241,-0.000530846,-0.0131569,0.00249989,-5.3898e-05,-0.0136339,0.188522,0.00907132,0.0437048,1588,1723,6.87328,-22.424
371,-699,7.38538,22.2997,0,0,0,0,0,0,0,-1,1595,1723,7.38535,-22.2997
378,-699,6.66077,21.8571,0,0,0,0,0,0,0,-1,1602,1723,6.66071,-21.8571
385,-699,5.66467,21.4453,0,0,0,0,0,0,0,-1,1609,1723,5.6647,-21.4453
392,-699,5.21069,16.861,0,0,0,0,0,0,0,-1,1616,1723,5.21066,-16.8609
399,-699,3.91516,9.81726,0,0,0,0,0,0,0,-1,1623,1723,3.9152,-9.81721
406,-699,5.50757,21.6672,0,0,0,0,0,0,0,-1,1630,1723,5.50755,-21.6672
413,-699,9.31396,23.2781,0,0,0,0,0,0,0,-1,1637,1723,9.31396,-23.278
420,-699,2.15076,7.65527,0,0,0,0,0,0,0,-1,1644,1723,2.15079,-7.65522
427,-699,3.36328,8.2428,0,0,0,0,0,0,0,-1,1651,1723,3.36332,-8.24283
434,-699,4.66455,8.90222,0,0,0,0,0,0,0,-1,1658,1723,4.66456,-8.90223
441,-699,0,0,0,0,0,0,0,0,0,-1,1665,1723,0,0
448,-699,0,0,0,0,0,0,0,0,0,-1,1672,1723,0,0
455,-699,0,0,0,0,0,0,0,0,0,-1,1679,1723,0,0
462,-699,0,0,0,0,0,0,0,0,0,-1,1686,1723,0,0
469,-699,0,0,0,0,0,0,0,0,0,-1,1693,1723,0,0
476,-699,0,0,0,0,0,0,0,0,0,-1,1700,1723,0,0
483,-699,0,0,0,0,0,0,0,0,0,-1,1707,1723,0,0
490,-699,0,0,0,0,0,0,0,0,0,-1,1714,1723,0,0
497,-699,0,0,0,0,0,0,0,0,0,-1,1721,1723,0,0
504,-699,0,0,0,0,0,0,0,0,0,-1,1728,1723,0,0
511,-699,0,0,0,0,0,0,0,0,0,-1,1735,1723,0,0
518,-699,0,0,0,0,0,0,0,0,0,-1,1742,1723,0,0
525,-699,0,0,0,0,0,0,0,0,0,-1,1749,1723,0,0
532,-699,0,0,0,0,0,0,0,0,0,-1,1756,1723,0,0
539,-699,0,0,0,0,0,0,0,0,0,-1,1763,1723,0,0
546,-699,0,0,0,0,0,0,0,0,0,-1,1770,1723,0,0
553,-699,0,0,0,0,0,0,0,0,0,-1,1777,1723,0,0
560,-699,0,0,0,0,0,0,0,0,0,-1,1784,1723,0,0
567,-699,0,0,0,0,0,0,0,0,0,-1,1791,1723,0,0
574,-699,0,0,0,0,0,0,0,0,0,-1,1798,1723,0,0
581,-699,0,0,0,0,0,0,0,0,0,-1,1805,1723,0,0
588,-699,0,0,0,0,0,0,0,0,0,-1,1812,1723,0,0
595,-699,0,0,0,0,0,0,0,0,0,-1,1819,1723,0,0
602,-699,0,0,0,0,0,0,0,0,0,-1,1826,1723,0,0
609,-699,0,0,0,0,0,0,0,0,0,-1,1833,1723,0,0
616,-699,0,0,0,0,0,0,0,0,0,-1,1840,1723,0,0
623,-699,0,0,0,0,0,0,0,0,0,-1,1847,1723,0,0
630,-699,0,0,0,0,0,0,0,0,0,-1,1854,1723,0,0
637,-699,0,0,0,0,0,0,0,0,0,-1,1861,1723,0,0
644,-699,0,0,0,0,0,0,0,0,0,-1,1868,1723,0,0
651,-699,0,0,0,0,0,0,0,0,0,-1,1875,1723,0,0
658,-699,0,0,0,0,0,0,0,0,0,-1,1882,1723,0,0
665,-699,0,0,0,0,0,0,0,0,0,-1,1889,1723,0,0
672,-699,0,0,0,0,0,0,0,0,0,-1,1896,1723,0,0
679,-699,0,0,0,0,0,0,0,0,0,-1,1903,1723,0,0
686,-699,0,0,0,0,0,0,0,0,0,-1,1910,1723,0,0
693,-699,0,0,0,0,0,0,0,0,0,-1,1917,1723,0,0
700,-699,0,0,0,0,0,0,0,0,0,-1,1924,1723,0,0
707,-699,0,0,0,0,0,0,0,0,0,-1,1931,1723,0,0
714,-699,0,0,0,0,0,0,0,0,0,-1,1938,1723,0,0
721,-699,0,0,0,0,0,0,0,0,0,-1,1945,1723,0,0
728,-699,0,0,0,0,0,0,0,0,0,-1,1952,1723,0,0
735,-699,0,0,0,0,0,0,0,0,0,-1,1959,1723,0,0
742,-699,0,0,0,0,0,0,0,0,0,-1,1966,1723,0,0
749,-699,0,0,0,0,0,0,0,0,0,-1,1973,1723,0,0
756,-699,0,0,0,0,0,0,0,0,0,-1,1980,1723,0,0
763,-699,0,0,0,0,0,0,0,0,0,-1,1987,1723,0,0
770,-699,0,0,0,0,0,0,0,0,0,-1,1994,1723,0,0
777,-699,0,0,0,0,0,0,0,0,0,-1,2001,1723,0,0
784,-699,0,0,0,0,0,0,0,0,0,-1,2008,1723,0,0
791,-699,0,0,0,0,0,0,0,0,0,-1,2015,1723,0,0
798,-699,0,0,0,0,0,0,0,0,0,-1,2022,1723,0,0
805,-699,0,0,0,0,0,0,0,0,0,-1,2029,1723,0,0
812,-699,0,0,0,0,0,0,0,0,0,-1,2036,1723,0,0
-700,-706,0,0,0,0,0,0,0,0,0,-1,524,1730,0,0
-693,-706,0,0,0,0,0,0,0,0,0,-1,531,1730,0,0
-686,-706,0,0,0,0,0,0,0,0,0,-1,538,1730,0,0
-679,-706,0,0,0,0,0,0,0,0,0,-1,545,1730,0,0
-672,-706,0,0,0,0,0,0,0,0,0,-1,552,1730,0,0
-665,-706,0,0,0,0,0,0,0,0,0,-1,559,1730,0,0
-658,-706,0,0,0,0,0,0,0,0,0,-1,566,1730,0,0
-651,-706,0,0,0,0,0,0,0,0,0,-1,573,1730,0,0
-644,-706,0,0,0,0,0,0,0,0,0,-1,580,1730,0,0
-637,-706,0,0,0,0,0,0,0,0,0,-1,587,1730,0,0
-630,-706,0,0,0,0,0,0,0,0,0,-1,594,1730,0,0
-623,-706,0,0,0,0,0,0,0,0,0,-1,601,1730,0,0
-616,-706,0,0,0,0,0,0,0,0,0,-1,608,1730,0,0
-609,-706,0,0,0,0,0,0,0,0,0,-1,615,1730,0,0
-602,-706,0,0,0,0,0,0,0,0,0,-1,622,1730,0,0
-595,-706,0,0,0,0,0,0,0,0,0,-1,629,1730,0,0
-588,-706,0,0,0,0,0,0,0,0,0,-1,636,1730,0,0
-581,-706,0,0,0,0,0,0,0,0,0,-1,643,1730,0,0
-574,-706,0,0,0,0,0,0,0,0,0,-1,650,1730,0,0
-567,-706,0,0,0,0,0,0,0,0,0,-1,657,1730,0,0
-560,-706,0,0,0,0,0,0,0,0,0,-1,664,1730,0,0
-553,-706,0,0,0,0,0,0,0,0,0,-1,671,1730,0,0
-546,-706,0,0,0,0,0,0,0,0,0,-1,678,1730,0,0
-539,-706,0,0,0,0,0,0,0,0,0,-1,685,1730,0,0
-532,-706,0,0,0,0,0,0,0,0,0,-1,692,1730,0,0
-525,-706,0,0,0,0,0,0,0,0,0,-1,699,1730,0,0
-518,-706,0,0,0,0,0,0,0,0,0,-1,706,1730,0,0
-511,-706,0,0,0,0,0,0,0,0,0,-1,713,1730,0,0
-504,-706,0,0,0,0,0,0,0,0,0,-1,720,1730,0,0
-497,-706,0,0,0,0,0,0,0,0,0,-1,727,1730,0,0
-490,-706,0,0,0,0,0,0,0,0,0,-1,734,1730,0,0
-483,-706,0,0,0,0,0,0,0,0,0,-1,741,1730,0,0
-476,-706,0,0,0,0,0,0,0,0,0,-1,748,1730,0,0
-469,-706,0,0,0,0,0,0,0,0,0,-1,755,1730,0,0
-462,-706,0,0,0,0,0,0,0,0,0,-1,762,1730,0,0
-455,-706,0,0,0,0,0,0,0,0,0,-1,769,1730,0,0
-448,-706,0,0,0,0,0,0,0,0,0,-1,776,1730,0,0
-441,-706,0,0,0,0,0,0,0,0,0,-1,783,1730,0,0
-434,-706,0,0,0,0,0,0,0,0,0,-1,790,1730,0,0
-427,-706,0,0,0,0,0,0,0,0,0,-1,797,1730,0,0
-420,-706,0,0,0,0,0,0,0,0,0,-1,804,1730,0,0
-413,-706,0,0,0,0,0,0,0,0,0,-1,811,1730,0,0
-406,-706,0,0,0,0,0,0,0,0,0,-1,818,1730,0,0
-399,-706,0,0,0,0,0,0,0,0,0,-1,825,1730,0,0
-392,-706,0,0,0,0,0,0,0,0,0,-1,832,1730,0,0
-385,-706,0,0,0,0,0,0,0,0,0,-1,839,1730,0,0
-378,-706,0,0,0,0,0,0,0,0,0,-1,846,1730,0,0
-371,-706,0,0,0,0,0,0,0,0,0,-1,853,1730,0,0
-364,-706,0,0,0,0,0,0,0,0,0,-1,860,1730,0,0
-357,-706,0,0,0,0,0,0,0,0,0,-1,867,1730,0,0
-350,-706,0,0,0,0,0,0,0,0,0,-1,874,1730,0,0
-343,-706,0,0,0,0,0,0,0,0,0,-1,881,1730,0,0
-336,-706,0,0,0,0,0,0,0,0,0,-1,888,1730,0,0
-329,-706,0,0,0,0,0,0,0,0,0,-1,895,1730,0,0
-322,-706,0,0,0,0,0,0,0,0,0,-1,902,1730,0,0
-315,-706,0,0,0,0,0,0,0,0,0,-1,909,1730,0,0
-308,-706,5.08191,14.6245,0,0,0,0,0,0,0,-1,916,1730,5.08188,-14.6245
-301,-706,7.45007,21.1975,0,0,0,0,0,0,0,-1,923,1730,7.45005,-21.1976
-294,-706,7.04108,20.9526,0,0,0,0,0,0,0,-1,930,1730,7.04107,-20.9527
-287,-706,6.48712,20.8536,0,0,0,0,0,0,0,-1,937,1730,6.48709,-20.8537
-280,-706,8.51935,22.9824,0,0,0,0,0,0,0,-1,944,1730,8.51938,-22.9825
-273,-706,8.90625,21.9882,0,0,0,0,0,0,0,-1,951,1730,8.90628,-21.9881
-266,-706,6.81213,14.6445,0,0,0,0,0,0,0,-1,958,1730,6.81216,-14.6445
-259,-706,3.47852,20.7363,0,0,0,0,0,0,0,-1,965,1730,3.47851,-20.7364
-252,-706,3.84259,20.1979,0,0,0,0,0,0,0,-1,972,1730,3.84256,-20.1979
-245,-706,4.698,19.2992,0,0,0,0,0,0,0,-1,979,1730,4.69799,-19.2991
-238,-706,6.67352,20.8466,0,0,0,0,0,0,0,-1,986,1730,6.67349,-20.8465
-231,-706,6.71686,21.001,-0.0107269,-0.00054494,-0.0117703,0.00718824,-0.0184601,-0.989512,0.0152773,0.0481169,993,1730,6.71686,-21.001
-224,-706,6.78046,21.1075,-0.00951349,-0.00222105,-0.010039,0.00481339,-0.0165479,-0.959593,0.0129384,0.0463814,1000,1730,6.78046,-21.1076
-217,-706,6.50189,21.2505,-0.0084771,-0.00426325,-0.00796606,0.0018698,-0.0146102,-0.914682,0.0104194,0.045222,1007,1730,6.50188,-21.2505
-210,-706,6.44641,21.7401,-0.00715078,-0.00583421,-0.00564282,-0.000811412,-0.0121736,-0.843465,0.00785923,0.041627,1014,1730,6.44641,-21.7401
-203,-706,6.01953,22.4286,-0.00548582,-0.00703961,-0.00343755,-0.00273847,-0.00978696,-0.674264,0.00583028,0.030378,1021,1730,6.01948,-22.4286
-196,-706,6.02271,22.6168,-0.00378475,-0.00719087,-0.00124011,-0.00338109,-0.00759453,-0.314691,0.00439348,0.0235582,1028,1730,6.02265,-22.6168
-189,-706,6.01953,22.8096,-0.00210566,-0.00675741,0.000391159,-0.002073,-0.00679008,0.083309,0.00401811,0.0181371,1035,1730,6.01953,-22.8095
-182,-706,5.97473,23.0306,-0.000746908,-0.00585306,0.00157355,-0.000300939,-0.00629903,0.276173,0.00410272,0.0128882,1042,1730,5.97474,-23.0307
-175,-706,5.98169,23.2391,0.000157232,-0.00486887,0.00265212,0.00129783,-0.00600947,0.406158,0.00450172,0.013499,1049,1730,5.98173,-23.2391
-168,-706,5.99548,23.4427,0.00100528,-0.00375696,0.00334193,0.0027276,-0.00547928,0.475865,0.0048262,0.0151968,1056,1730,5.99546,-23.4428
-161,-706,5.97021,23.6378,0.0015026,-0.00266377,0.00347807,0.00347362,-0.00463479,0.515575,0.00469737,0.0125317,1063,1730,5.97016,-23.6379
-154,-706,5.93396,23.8463,0.00170168,-0.00134681,0.00327315,0.0037881,-0.00343323,0.567489,0.00417091,0.0127372,1070,1730,5.934,-23.8463
-147,-706,5.93164,23.9905,0.0018572,0.000947002,0.00307372,0.00450933,-0.00170513,0.711902,0.00370768,0.0131944,1077,1730,5.93159,-23.9904
-140,-706,5.9353,24.1659,0.00167645,0.00229675,0.00279982,0.00480355,-0.000830345,0.840561,0.00351202,0.0117474,1084,1730,5.93532,-24.1659
-133,-706,5.93616,24.3506,0.00125402,0.00252454,0.0022009,0.00418002,-0.000401462,0.925898,0.00292968,0.00815587,1091,1730,5.93615,-24.3506
-126,-706,5.93567,24.525,0.000898832,0.00236436,0.00158042,0.00337363,-0.000110439,1.00247,0.00228679,0.012318,1098,1730,5.93572,-24.5251
-119,-706,5.91467,24.6788,0.000603349,0.00271039,0.00117321,0.00323368,8.00639e-05,1.15125,0.0021296,0.0185962,1105,1730,5.9147,-24.6788
-112,-706,5.89722,24.858,0.000571095,0.00298536,0.000991054,0.00334007,0.000216383,1.22709,0.00215821,0.0134182,1112,1730,5.8972,-24.858
-105,-706,5.9021,25.0388,0.000660403,0.00303224,0.00088654,0.00332698,0.000365661,1.24983,0.00210671,0.00953467,1119,1730,5.90204,-25.0388
-98,-706,5.95459,25.1713,0.000785631,0.00311199,0.000875931,0.00340491,0.000492705,1.24807,0.00212483,0.0112928,1126,1730,5.95461,-25.1712
-91,-706,5.95215,25.3059,0.000971214,0.00313838,0.000839848,0.00342575,0.00068385,1.24112,0.00209345,0.015011,1133,1730,5.95214,-25.3059
-84,-706,5.91199,25.4397,0.00118803,0.00315283,0.000850553,0.00346987,0.000870985,1.214,0.00208449,0.0170142,1140,1730,5.91204,-25.4397
-77,-706,5.9342,25.5466,0.00146846,0.00319019,0.000782163,0.00349245,0.0011662,1.20203,0.00205311,0.0166434,1147,1730,5.93422,-25.5466
-70,-706,5.92041,25.6781,0.00177544,0.00311505,0.000599695,0.00334429,0.00154621,1.20568,0.00193265,0.0188474,1154,1730,5.92045,-25.6782
-63,-706,5.9104,25.8121,0.00178775,0.00388282,0.000812274,0.00416085,0.00150972,1.24101,0.00243221,0.0140054,1161,1730,5.91036,-25.8122
-56,-706,5.93164,25.9309,0.00164671,0.0050437,0.001172,0.00540881,0.0012816,1.2688,0.00326366,0.0132859,1168,1730,5.93165,-25.9309
-49,-706,5.9126,26.0537,0.00142676,0.00645437,0.00143655,0.00683589,0.00104524,1.31121,0.00425189,0.0120756,1175,1730,5.91262,-26.0537
-42,-706,5.93262,26.1344,0.00125383,0.00800121,0.00167782,0.00839539,0.000859643,1.34004,0.00533352,0.0160514,1182,1730,5.9326,-26.1344
-35,-706,5.95654,26.1901,0.00107495,0.0103014,0.00200556,0.0107185,0.000657857,1.36575,0.00693677,0.0159297,1189,1730,5.95656,-26.1901
-28,-706,5.97046,26.2926,0.000791649,0.0129191,0.00177522,0.0131736,0.000537134,1.4284,0.00860893,0.00976475,1196,1730,5.97049,-26.2926
-21,-706,6.00623,26.3835,0.000532859,0.0153849,0.00162012,0.0155596,0.000358184,1.4634,0.0102558,0.0102628,1203,1730,6.0062,-26.3835
-14,-706,6.03198,26.4562,0.000572574,0.0180178,0.00155598,0.0181555,0.00043488,1.48253,0.0119613,0.0104074,1210,1730,6.03198,-26.4562
-7,-706,6.03857,26.5394,0.000633736,0.0208239,0.00137083,0.0209165,0.000541087,1.50331,0.0137675,0.00838186,1217,1730,6.03853,-26.5394
0,-706,6.05957,26.5992,0.000968804,0.0236618,0.00111379,0.0237163,0.000914268,1.52187,0.0155151,0.011586,1224,1730,6.05951,-26.5993
7,-706,6.07495,26.652,0.00142969,0.0260347,0.00107972,0.0260819,0.0013824,1.52703,0.016946,0.0135619,1231,1730,6.0749,-26.652
14,-706,6.06628,26.6996,0.00187097,0.0279581,0.00105234,0.0280005,0.00182859,1.53054,0.0180883,0.0142458,1238,1730,6.06632,-26.6996
21,-706,6.11462,26.7393,0.0035514,0.0301756,0.00196518,0.0303199,0.00340713,1.49751,0.0191787,0.0122541,1245,1730,6.11468,-26.7392
28,-706,6.14404,26.8009,0.00507227,0.030953,0.00231252,0.031158,0.00486727,1.48238,0.0193547,0.0123731,1252,1730,6.14402,-26.801
35,-706,6.14819,26.8525,0.00627104,0.0307359,0.0025517,0.0309992,0.00600773,1.46797,0.0189832,0.013879,1259,1730,6.14821,-26.8526
42,-706,6.16406,26.8784,0.00749791,0.0294438,0.00288539,0.0298168,0.00712488,1.44223,0.0179798,0.011991,1266,1730,6.16402,-26.8784
49,-706,6.17993,26.8882,0.00847979,0.027265,0.00325943,0.0278145,0.00793032,1.40379,0.0165457,0.0139628,1273,1730,6.17989,-26.8882
56,-706,6.22314,26.8929,0.0091735,0.0245706,0.0037493,0.025435,0.00830906,1.34419,0.0149761,0.0133598,1280,1730,6.22313,-26.893
63,-706,6.24902,26.8865,0.00952798,0.0214838,0.00418073,0.0228007,0.00821111,1.26565,0.0133346,0.0109582,1287,1730,6.24907,-26.8865
70,-706,6.24084,26.8976,0.00950574,0.0179013,0.00437842,0.0197692,0.00763788,1.16757,0.0115116,0.0116287,1294,1730,6.24088,-26.8975
77,-706,6.24414,26.9227,0.00894389,0.0144019,0.00455866,0.016986,0.00635981,1.05511,0.00990944,0.0112019,1301,1730,6.24413,-26.9228
84,-706,6.26721,26.9264,0.00772107,0.0111128,0.00454459,0.0142676,0.00456623,0.963976,0.00841338,0.00963143,1308,1730,6.26726,-26.9263
91,-706,6.30115,26.9122,0.00588267,0.00814903,0.00451922,0.011675,0.00235672,0.908239,0.0071288,0.0106638,1315,1730,6.30118,-26.9123
98,-706,6.29883,26.9049,0.00380087,0.00573635,0.00449533,0.00936693,0.000170296,0.891419,0.00618863,0.0142332,1322,1730,6.29885,-26.9048
105,-706,6.29395,26.8959,0.00167335,0.00402569,0.00444386,0.00744639,-0.00174735,0.914768,0.00563771,0.0164246,1329,1730,6.29396,-26.8959
112,-706,6.29651,26.8757,-0.000355784,0.0029157,0.00428627,0.00586774,-0.00330782,0.967681,0.0053658,0.0155008,1336,1730,6.29645,-26.8758
119,-706,6.35522,26.8594,-0.00226047,0.0020968,0.00426241,0.00470508,-0.00486875,1.02165,0.00552772,0.0132748,1343,1730,6.35518,-26.8594
126,-706,6.4093,26.7931,-0.00465917,0.000946001,0.00379623,0.00286209,-0.00657526,1.10337,0.00558747,0.0144058,1350,1730,6.40928,-26.7931
133,-706,6.42847,26.7183,-0.00616199,0.000909016,0.00408697,0.00277751,-0.00803048,1.14199,0.00648101,0.011843,1357,1730,6.42848,-26.7182
140,-706,6.45007,26.6407,-0.00686361,0.00115681,0.00433292,0.0030505,-0.00875729,1.15877,0.00707766,0.0115239,1364,1730,6.45013,-26.6408
147,-706,6.4939,26.5719,-0.00715511,0.00126942,0.00418747,0.00299669,-0.00888238,1.17957,0.00713348,0.0205653,1371,1730,6.49392,-26.5719
154,-706,6.4917,26.5414,-0.00702941,0.00135475,0.00392812,0.00290755,-0.00858221,1.19435,0.00689803,0.0199045,1378,1730,6.49173,-26.5414
161,-706,6.45947,26.4745,-0.00656196,0.00120957,0.00349006,0.00254679,-0.00789919,1.2049,0.00628936,0.0107671,1385,1730,6.45941,-26.4745
168,-706,6.48938,26.3969,-0.00592763,0.000903932,0.00295375,0.00200392,-0.00702762,1.2143,0.00547665,0.0105205,1392,1730,6.48941,-26.3968
175,-706,6.51978,26.3292,-0.00491116,0.000806491,0.0024646,0.0017222,-0.00582687,1.21506,0.00456817,0.00970515,1399,1730,6.5198,-26.3292
182,-706,6.51758,26.2369,-0.0036974,0.000535757,0.00204898,0.00136506,-0.0045267,1.18621,0.00356113,0.0109197,1406,1730,6.51753,-26.2369
189,-706,6.5116,26.1316,-0.00209352,0.000460863,0.00143218,0.00110262,-0.00273527,1.14953,0.00228166,0.0149068,1413,1730,6.51156,-26.1315
196,-706,6.51025,26.0411,-0.000332523,0.00048379,0.00083418,0.00100431,-0.000853047,1.01292,0.00107353,0.0126162,1420,1730,6.5103,-26.0412
203,-706,6.5105,25.9504,0.000697108,0.000339594,0.000524168,0.00107216,-3.54588e-05,0.621067,0.000726882,0.0141354,1427,1730,6.51053,-25.9505
210,-706,6.51416,25.8407,0.000510482,0.000183273,0.000458945,0.000834111,-0.000140356,0.61418,0.000608281,0.0136425,1434,1730,6.51422,-25.8407
217,-706,6.5,25.7552,0.000317373,4.31036e-05,0.000288928,0.000500059,-0.000139583,0.563824,0.000388354,0.0138328,1441,1730,6.50005,-25.7552
224,-706,6.50916,25.6326,0.000308081,1.66512e-05,0.000135524,0.000361363,-3.66305e-05,0.37459,0.000254001,0.0192489,1448,1730,6.50915,-25.6326
231,-706,6.54456,25.4613,0.000356665,1.80795e-05,-4.64565e-05,0.000362924,1.1821e-05,-0.133911,0.000238107,0.0143899,1455,1730,6.5446,-25.4613
238,-706,6.547,25.3301,0.000503159,1.55857e-05,-0.000183727,0.000564639,-4.58938e-05,-0.322912,0.000392619,0.00887202,1462,1730,6.54704,-25.33
245,-706,6.53235,25.205,0.000706347,6.34886e-05,-0.000363291,0.000869992,-0.000100156,-0.423229,0.0006161,0.0113129,1469,1730,6.53235,-25.205
252,-706,6.53381,25.0682,0.000870912,0.000156543,-0.000591925,0.00120507,-0.000177616,-0.51393,0.00086866,0.0115919,1476,1730,6.53382,-25.0682
259,-706,6.54846,24.9226,0.000970185,0.000321798,-0.00082165,0.00152929,-0.000237303,-0.597493,0.00110714,0.0122561,1483,1730,6.54846,-24.9226
266,-706,6.53284,24.7753,0.000995238,0.000683098,-0.00110994,0.00196003,-0.000281693,-0.715551,0.00141,0.0120026,1490,1730,6.53286,-24.7752
273,-706,6.52527,24.6023,0.000962208,0.00125088,-0.00133728,0.00245159,-0.000238506,-0.839157,0.00171942,0.0119928,1497,1730,6.52522,-24.6023
280,-706,6.52661,24.4298,0.000869859,0.00174219,-0.00158558,0.0029505,-0.00033845,-0.91962,0.00208898,0.0105124,1504,1730,6.52666,-24.4299
287,-706,6.50146,24.2506,0.000750906,0.00204814,-0.00166755,0.00318877,-0.000389728,-0.970877,0.00226695,0.0112837,1511,1730,6.50153,-24.2506
294,-706,6.50732,24.0885,0.000658347,0.00259082,-0.00177138,0.00364235,-0.000393186,-1.03508,0.00256935,0.0115525,1518,1730,6.50731,-24.0885
301,-706,6.50952,23.9102,0.000328197,0.00256117,-0.00168424,0.00346537,-0.00057601,-1.07809,0.00252425,0.0107898,1525,1730,6.50948,-23.9101
308,-706,6.50427,23.719,7.79624e-05,0.00227773,-0.00147026,0.00301398,-0.00065829,-1.10654,0.00226092,0.012218,1532,1730,6.50425,-23.719
315,-706,6.5127,23.557,0.000183646,0.00152597,-0.00137113,0.00238139,-0.000671775,-1.013,0.00185257,0.0187056,1539,1730,6.51266,-23.557
322,-706,6.49304,23.413,0.000112059,0.000572889,-0.00108983,0.00145639,-0.000771444,-0.889576,0.00130635,0.0236822,1546,1730,6.49304,-23.413
329,-706,6.49329,23.1604,9.8649e-05,-0.00115437,-0.000740949,0.000442459,-0.00149818,-0.434446,0.00117439,0.0223735,1553,1730,6.4933,-23.1604
336,-706,6.45435,22.8422,0.00025298,-0.00333871,-0.000410101,0.00029921,-0.00338494,-0.112256,0.00236269,0.0295692,1560,1730,6.45431,-22.8421
343,-706,6.58997,22.7375,0.000205754,-0.00620982,0.000257974,0.00021611,-0.00622018,0.0401243,0.00422067,0.0363024,1567,1730,6.59002,-22.7376
350,-706,6.51038,22.8971,4.27754e-05,-0.00985715,0.00122886,0.00019303,-0.0100074,0.121668,0.00673687,0.0427005,1574,1730,6.51035,-22.8971
357,-706,6.32605,22.688,0,0,0,0,0,0,0,-1,1581,1730,6.32608,-22.688
364,-706,6.84521,22.7361,0,0,0,0,0,0,0,-1,1588,1730,6.84526,-22.7361
371,-706,6.40771,20.4159,0,0,0,0,0,0,0,-1,1595,1730,6.40768,-20.4159
378,-706,6.01331,20.1378,0,0,0,0,0,0,0,-1,1602,1730,6.01329,-20.1379
385,-706,7.9209,18.6349,0,0,0,0,0,0,0,-1,1609,1730,7.92092,-18.6349
392,-706,5.05701,18.6085,0,0,0,0,0,0,0,-1,1616,1730,5.05699,-18.6085
399,-706,6.0332,16.6144,0,0,0,0,0,0,0,-1,1623,1730,6.03321,-16.6143
406,-706,6.04211,18.8085,0,0,0,0,0,0,0,-1,1630,1730,6.04216,-18.8085
413,-706,6.23413,20.7725,0,0,0,0,0,0,0,-1,1637,1730,6.23413,-20.7725
420,-706,6.51294,21.9171,0,0,0,0,0,0,0,-1,1644,1730,6.51292,-21.9171
427,-706,0,0,0,0,0,0,0,0,0,-1,1651,1730,0,0
434,-706,0,0,0,0,0,0,0,0,0,-1,1658,1730,0,0
441,-706,0,0,0,0,0,0,0,0,0,-1,1665,1730,0,0
448,-706,0,0,0,0,0,0,0,0,0,-1,1672,1730,0,0
455,-706,0,0,0,0,0,0,0,0,0,-1,1679,1730,0,0
462,-706,0,0,0,0,0,0,0,0,0,-1,1686,1730,0,0
469,-706,0,0,0,0,0,0,0,0,0,-1,1693,1730,0,0
476,-706,0,0,0,0,0,0,0,0,0,-1,1700,1730,0,0
483,-706,0,0,0,0,0,0,0,0,0,-1,1707,1730,0,0
490,-706,0,0,0,0,0,0,0,0,0,-1,1714,1730,0,0
497,-706,0,0,0,0,0,0,0,0,0,-1,1721,1730,0,0
504,-706,0,0,0,0,0,0,0,0,0,-1,1728,1730,0,0
511,-706,0,0,0,0,0,0,0,0,0,-1,1735,1730,0,0
518,-706,0,0,0,0,0,0,0,0,0,-1,1742,1730,0,0
525,-706,0,0,0,0,0,0,0,0,0,-1,1749,1730,0,0
532,-706,0,0,0,0,0,0,0,0,0,-1,1756,1730,0,0
539,-706,0,0,0,0,0,0,0,0,0,-1,1763,1730,0,0
546,-706,0,0,0,0,0,0,0,0,0,-1,1770,1730,0,0
553,-706,0,0,0,0,0,0,0,0,0,-1,1777,1730,0,0
560,-706,0,0,0,0,0,0,0,0,0,-1,1784,1730,0,0
567,-706,0,0,0,0,0,0,0,0,0,-1,1791,1730,0,0
574,-706,0,0,0,0,0,0,0,0,0,-1,1798,1730,0,0
581,-706,0,0,0,0,0,0,0,0,0,-1,1805,1730,0,0
588,-706,0,0,0,0,0,0,0,0,0,-1,1812,1730,0,0
595,-706,0,0,0,0,0,0,0,0,0,-1,1819,1730,0,0
602,-706,0,0,0,0,0,0,0,0,0,-1,1826,1730,0,0
609,-706,0,0,0,0,0,0,0,0,0,-1,1833,1730,0,0
616,-706,0,0,0,0,0,0,0,0,0,-1,1840,1730,0,0
623,-706,0,0,0,0,0,0,0,0,0,-1,1847,1730,0,0
630,-706,0,0,0,0,0,0,0,0,0,-1,1854,1730,0,0
637,-706,0,0,0,0,0,0,0,0,0,-1,1861,1730,0,0
644,-706,0,0,0,0,0,0,0,0,0,-1,1868,1730,0,0
651,-706,0,0,0,0,0,0,0,0,0,-1,1875,1730,0,0
658,-706,0,0,0,0,0,0,0,0,0,-1,1882,1730,0,0
665,-706,0,0,0,0,0,0,0,0,0,-1,1889,1730,0,0
672,-706,0,0,0,0,0,0,0,0,0,-1,1896,1730,0,0
679,-706,0,0,0,0,0,0,0,0,0,-1,1903,1730,0,0
686,-706,0,0,0,0,0,0,0,0,0,-1,1910,1730,0,0
693,-706,0,0,0,0,0,0,0,0,0,-1,1917,1730,0,0
700,-706,0,0,0,0,0,0,0,0,0,-1,1924,1730,0,0
707,-706,0,0,0,0,0,0,0,0,0,-1,1931,1730,0,0
714,-706,0,0,0,0,0,0,0,0,0,-1,1938,1730,0,0
721,-706,0,0,0,0,0,0,0,0,0,-1,1945,1730,0,0
728,-706,0,0,0,0,0,0,0,0,0,-1,1952,1730,0,0
735,-706,0,0,0,0,0,0,0,0,0,-1,1959,1730,0,0
742,-706,0,0,0,0,0,0,0,0,0,-1,1966,1730,0,0
749,-706,0,0,0,0,0,0,0,0,0,-1,1973,1730,0,0
756,-706,0,0,0,0,0,0,0,0,0,-1,1980,1730,0,0
763,-706,0,0,0,0,0,0,0,0,0,-1,1987,1730,0,0
770,-706,0,0,0,0,0,0,0,0,0,-1,1994,1730,0,0
777,-706,0,0,0,0,0,0,0,0,0,-1,2001,1730,0,0
784,-706,0,0,0,0,0,0,0,0,0,-1,2008,1730,0,0
791,-706,0,0,0,0,0,0,0,0,0,-1,2015,1730,0,0
798,-706,0,0,0,0,0,0,0,0,0,-1,2022,1730,0,0
805,-706,0,0,0,0,0,0,0,0,0,-1,2029,1730,0,0
812,-706,0,0,0,0,0,0,0,0,0,-1,2036,1730,0,0
-700,-713,0,0,0,0,0,0,0,0,0,-1,524,1737,0,0
-693,-713,0,0,0,0,0,0,0,0,0,-1,531,1737,0,0
-686,-713,0,0,0,0,0,0,0,0,0,-1,538,1737,0,0
-679,-713,0,0,0,0,0,0,0,0,0,-1,545,1737,0,0
-672,-713,0,0,0,0,0,0,0,0,0,-1,552,1737,0,0
-665,-713,0,0,0,0,0,0,0,0,0,-1,559,1737,0,0
-658,-713,0,0,0,0,0,0,0,0,0,-1,566,1737,0,0
-651,-713,0,0,0,0,0,0,0,0,0,-1,573,1737,0,0
-644,-713,0,0,0,0,0,0,0,0,0,-1,580,1737,0,0
-637,-713,0,0,0,0,0,0,0,0,0,-1,587,1737,0,0
-630,-713,0,0,0,0,0,0,0,0,0,-1,594,1737,0,0
-623,-713,0,0,0,0,0,0,0,0,0,-1,601,1737,0,0
-616,-713,0,0,0,0,0,0,0,0,0,-1,608,1737,0,0
-609,-713,0,0,0,0,0,0,0,0,0,-1,615,1737,0,0
-602,-713,0,0,0,0,0,0,0,0,0,-1,622,1737,0,0
-595,-713,0,0,0,0,0,0,0,0,0,-1,629,1737,0,0
-588,-713,0,0,0,0,0,0,0,0,0,-1,636,1737,0,0
-581,-713,0,0,0,0,0,0,0,0,0,-1,643,1737,0,0
-574,-713,0,0,0,0,0,0,0,0,0,-1,650,1737,0,0
-567,-713,0,0,0,0,0,0,0,0,0,-1,657,1737,0,0
-560,-713,0,0,0,0,0,0,0,0,0,-1,664,1737,0,0
-553,-713,0,0,0,0,0,0,0,0,0,-1,671,1737,0,0
-546,-713,0,0,0,0,0,0,0,0,0,-1,678,1737,0,0
-539,-713,0,0,0,0,0,0,0,0,0,-1,685,1737,0,0
-532,-713,0,0,0,0,0,0,0,0,0,-1,692,1737,0,0
-525,-713,0,0,0,0,0,0,0,0,0,-1,699,1737,0,0
-518,-713,0,0,0,0,0,0,0,0,0,-1,706,1737,0,0
-511,-713,0,0,0,0,0,0,0,0,0,-1,713,1737,0,0
-504,-713,0,0,0,0,0,0,0,0,0,-1,720,1737,0,0
-497,-713,0,0,0,0,0,0,0,0,0,-1,727,1737,0,0
-490,-713,0,0,0,0,0,0,0,0,0,-1,734,1737,0,0
-483,-713,0,0,0,0,0,0,0,0,0,-1,741,1737,0,0
-476,-713,0,0,0,0,0,0,0,0,0,-1,748,1737,0,0
-469,-713,0,0,0,0,0,0,0,0,0,-1,755,1737,0,0
-462,-713,0,0,0,0,0,0,0,0,0,-1,762,1737,0,0
-455,-713,0,0,0,0,0,0,0,0,0,-1,769,1737,0,0
-448,-713,0,0,0,0,0,0,0,0,0,-1,776,1737,0,0
-441,-713,0,0,0,0,0,0,0,0,0,-1,783,1737,0,0
-434,-713,0,0,0,0,0,0,0,0,0,-1,790,1737,0,0
-427,-713,0,0,0,0,0,0,0,0,0,-1,797,1737,0,0
-420,-713,0,0,0,0,0,0,0,0,0,-1,804,1737,0,0
-413,-713,0,0,0,0,0,0,0,0,0,-1,811,1737,0,0
-406,-713,0,0,0,0,0,0,0,0,0,-1,818,1737,0,0
-399,-713,0,0,0,0,0,0,0,0,0,-1,825,1737,0,0
-392,-713,0,0,0,0,0,0,0,0,0,-1,832,1737,0,0
-385,-713,0,0,0,0,0,0,0,0,0,-1,839,1737,0,0
-378,-713,0,0,0,0,0,0,0,0,0,-1,846,1737,0,0
-371,-713,0,0,0,0,0,0,0,0,0,-1,853,1737,0,0
-364,-713,0,0,0,0,0,0,0,0,0,-1,860,1737,0,0
-357,-713,0,0,0,0,0,0,0,0,0,-1,867,1737,0,0
-350,-713,0,0,0,0,0,0,0,0,0,-1,874,1737,0,0
-343,-713,0,0,0,0,0,0,0,0,0,-1,881,1737,0,0
-336,-713,0,0,0,0,0,0,0,0,0,-1,888,1737,0,0
-329,-713,0,0,0,0,0,0,0,0,0,-1,895,1737,0,0
-322,-713,0,0,0,0,0,0,0,0,0,-1,902,1737,0,0
-315,-713,0,0,0,0,0,0,0,0,0,-1,909,1737,0,0
-308,-713,0,0,0,0,0,0,0,0,0,-1,916,1737,0,0
-301,-713,0,0,0,0,0,0,0,0,0,-1,923,1737,0,0
-294,-713,7.17883,22.0453,0,0,0,0,0,0,0,-1,930,1737,7.17881,-22.0453
-287,-713,6.85907,21.8297,0,0,0,0,0,0,0,-1,937,1737,6.85906,-21.8298
-280,-713,6.17188,21.8059,0,0,0,0,0,0,0,-1,944,1737,6.17188,-21.8059
-273,-713,5.64795,22.0507,0,0,0,0,0,0,0,-1,951,1737,5.64795,-22.0506
-266,-713,3.17981,19.8851,0,0,0,0,0,0,0,-1,958,1737,3.17983,-19.8851
-259,-713,3.5921,19.6868,0,0,0,0,0,0,0,-1,965,1737,3.59207,-19.6868
-252,-713,4.55469,20.5758,0,0,0,0,0,0,0,-1,972,1737,4.55466,-20.5758
-245,-713,4.66559,19.8096,0,0,0,0,0,0,0,-1,979,1737,4.6656,-19.8095
-238,-713,5.11237,18.7231,0,0,0,0,0,0,0,-1,986,1737,5.11238,-18.7231
-231,-713,7.21417,20.8276,0,0,0,0,0,0,0,-1,993,1737,7.2142,-20.8276
-224,-713,7.224,20.8778,0,0,0,0,0,0,0,-1,1000,1737,7.22402,-20.8778
-217,-713,7.01782,20.6304,0,0,0,0,0,0,0,-1,1007,1737,7.01781,-20.6303
-210,-713,6.96515,21.2588,0,0,0,0,0,0,0,-1,1014,1737,6.96515,-21.2588
-203,-713,6.07654,22.6527,-0.00781753,-0.0183922,-0.00692628,-0.00439113,-0.0218186,-0.459396,0.0133254,0.0421313,1021,1737,6.07655,-22.6527
-196,-713,6.0437,22.8634,-0.00552712,-0.0172465,-0.00380144,-0.00440205,-0.0183716,-0.287746,0.0110759,0.042438,1028,1737,6.04364,-22.8634
-189,-713,6.10229,22.9507,-0.00326127,-0.0152747,-0.00137369,-0.0031062,-0.0154298,-0.112413,0.00942333,0.0423801,1035,1737,6.10234,-22.9506
-182,-713,6.10999,23.2029,0,0,0,0,0,0,0,-1,1042,1737,6.10994,-23.2029
-175,-713,6.12439,23.1528,-0.000236445,-0.0101583,0.00221671,0.000236281,-0.010631,0.210108,0.00716742,0.0254879,1049,1737,6.12435,-23.1528
-168,-713,6.25671,23.3163,0.000928834,-0.00761178,0.00340504,0.00212019,-0.00880314,0.336569,0.00668846,0.0326444,1056,1737,6.25676,-23.3163
-161,-713,6.17529,23.6224,0.00164186,-0.00533074,0.0038588,0.003356,-0.00704489,0.418034,0.00612956,0.0166653,1063,1737,6.17529,-23.6224
-154,-713,6.11279,23.8278,0.00191937,-0.00306291,0.00381827,0.00398728,-0.00513083,0.496359,0.00527813,0.0120069,1070,1737,6.11282,-23.8278
-147,-713,6.09399,23.9855,0.00219725,0.00060874,0.00389678,0.0053799,-0.0025739,0.684863,0.00468642,0.0184726,1077,1737,6.094,-23.9855
-140,-713,6.11316,24.168,0.00204858,0.00271241,0.00375308,0.00614822,-0.00138723,0.829503,0.00463101,0.0176923,1084,1737,6.1132,-24.1679
-133,-713,6.10681,24.3533,0.00138695,0.00289102,0.00292446,0.00515859,-0.000880626,0.911248,0.00376707,0.0102233,1091,1737,6.10678,-24.3533
-126,-713,6.09363,24.5167,0.000758299,0.00249592,0.00201467,0.00382113,-0.000566908,0.988972,0.00275589,0.0157373,1098,1737,6.09369,-24.5167
-119,-713,6.07397,24.627,0.000242607,0.00284524,0.00142832,0.00347615,-0.000388306,1.15485,0.00245712,0.0270938,1105,1737,6.07403,-24.627
-112,-713,6.07068,24.874,5.86551e-05,0.00312528,0.00113323,0.0034986,-0.000314666,1.25256,0.00244405,0.0144924,1112,1737,6.07062,-24.8741
-105,-713,6.07153,25.0195,3.12293e-05,0.00314084,0.000945389,0.0034057,-0.00023363,1.29764,0.00235222,0.0111694,1119,1737,6.07155,-25.0195
-98,-713,6.0824,25.1598,4.94062e-05,0.00319622,0.000886684,0.00342886,-0.000183237,1.31421,0.00234937,0.00990884,1126,1737,6.08244,-25.1598
-91,-713,6.05383,25.2985,0.000107484,0.00313032,0.000769689,0.00331501,-7.72126e-05,1.33529,0.00223619,0.0101742,1133,1737,6.05378,-25.2984
-84,-713,6.04272,25.4275,0.000204141,0.00308661,0.000772039,0.00328036,1.03825e-05,1.32491,0.00218346,0.00968481,1140,1737,6.04276,-25.4275
-77,-713,6.06909,25.5627,0.00043378,0.00302427,0.000729906,0.00321577,0.000242276,1.31421,0.00206782,0.0129676,1147,1737,6.06911,-25.5628
-70,-713,6.05383,25.6812,0.000712995,0.00287332,0.000574562,0.00301663,0.00056969,1.32637,0.00185065,0.0146018,1154,1737,6.05384,-25.6812
-63,-713,6.03125,25.8073,0.00083799,0.00284179,0.000506381,0.00296249,0.000717292,1.33681,0.00178461,0.0128853,1161,1737,6.03123,-25.8072
-56,-713,6.05859,25.9238,0.000891828,0.00288553,0.000531075,0.00301817,0.000759187,1.32604,0.00181284,0.0127394,1168,1737,6.05857,-25.9238
-49,-713,6.03589,26.0482,0.000907955,0.0030891,0.000572079,0.00323004,0.000767015,1.32924,0.00194867,0.0142934,1175,1737,6.0359,-26.0482
-42,-713,6.04541,26.123,0.000953168,0.00336396,0.000604409,0.00350701,0.000810125,1.33841,0.0021202,0.0171183,1182,1737,6.04539,-26.123
-35,-713,6.06494,26.198,0.000998367,0.00409879,0.000710274,0.00425376,0.000843397,1.35598,0.0026007,0.0145003,1189,1737,6.06499,-26.198
-28,-713,6.07739,26.2965,0.000914464,0.005142,0.000602286,0.00522613,0.000830332,1.43201,0.00324294,0.0118774,1196,1737,6.07744,-26.2965
-21,-713,6.07385,26.3973,0.000787129,0.00652668,0.000534362,0.00657601,0.000737803,1.47875,0.00415994,0.0086004,1203,1737,6.07388,-26.3974
-14,-713,6.0813,26.4622,0.000804357,0.00818783,0.00056553,0.00823089,0.000761292,1.49479,0.00525192,0.00983504,1210,1737,6.08133,-26.4622
-7,-713,6.09985,26.5378,0.000788757,0.0101394,0.000544299,0.010171,0.00075718,1.51285,0.0065429,0.00905883,1217,1737,6.09988,-26.5379
0,-713,6.1156,26.6058,0.000909889,0.0123,0.000473901,0.0123196,0.000890205,1.52929,0.00793303,0.0145753,1224,1737,6.11555,-26.6058
7,-713,6.1532,26.6548,0.00105493,0.0143394,0.000595625,0.014366,0.00102828,1.52608,0.00925365,0.0178538,1231,1737,6.15325,-26.6548
14,-713,6.15564,26.6864,0.00113845,0.0161782,0.000750939,0.0162156,0.00110105,1.52103,0.0104627,0.0127722,1238,1737,6.15567,-26.6863
21,-713,6.15405,26.7402,0.002055,0.0179107,0.00146254,0.0180444,0.00192122,1.47958,0.0114431,0.0110398,1245,1737,6.154,-26.7402
28,-713,6.1554,26.8081,0.0028538,0.0188596,0.00182247,0.0190645,0.00264891,1.45884,0.0119252,0.0113496,1252,1737,6.15542,-26.8082
35,-713,6.15625,26.8572,0.00348305,0.0190235,0.00205687,0.0192911,0.00321542,1.44141,0.0119342,0.0107018,1259,1737,6.15626,-26.8572
42,-713,6.17615,26.886,0.00418426,0.0184297,0.00233803,0.0188036,0.00381034,1.41221,0.0114784,0.0106806,1266,1737,6.17615,-26.886
49,-713,6.2052,26.8796,0.00479085,0.0171707,0.0026142,0.0177,0.00426146,1.37099,0.0106672,0.0113232,1273,1737,6.20516,-26.8797
56,-713,6.22998,26.8837,0.00527085,0.015483,0.00293285,0.0162654,0.0044885,1.31011,0.0097,0.0121392,1280,1737,6.22993,-26.8836
63,-713,6.22644,26.9073,0.00553799,0.013533,0.00320111,0.0146567,0.00441425,1.23319,0.00868222,0.0122231,1287,1737,6.22647,-26.9074
70,-713,6.22766,26.925,0.00569148,0.0111796,0.00325801,0.0126952,0.0041759,1.13539,0.00747118,0.0114839,1294,1737,6.22771,-26.925
77,-713,6.2406,26.9436,0.00554566,0.0088375,0.00328998,0.0108703,0.00351285,1.01733,0.00640548,0.011997,1301,1737,6.24063,-26.9436
84,-713,6.25171,26.9448,0.00501708,0.0064529,0.00320078,0.00901529,0.00245468,0.895718,0.00538192,0.012403,1308,1737,6.25168,-26.9449
91,-713,6.27795,26.9375,0.00412475,0.00439981,0.00312841,0.00739371,0.00113085,0.807364,0.00459877,0.0122247,1315,1737,6.27793,-26.9375
98,-713,6.29041,26.9125,0.00314686,0.00271418,0.00304445,0.00598264,-0.000121609,0.749928,0.00402958,0.0117738,1322,1737,6.2904,-26.9125
105,-713,6.28186,26.8861,0.0020687,0.00149677,0.00294549,0.00474208,-0.0011766,0.737007,0.00361793,0.0137998,1329,1737,6.28188,-26.8861
112,-713,6.29797,26.8934,0.00106105,0.000608843,0.00273952,0.00358378,-0.00191389,0.744225,0.00322252,0.0142114,1336,1737,6.29792,-26.8934
119,-713,6.33289,26.8751,0.000115147,-7.98111e-05,0.00260521,0.0026247,-0.00258936,0.766698,0.00301036,0.0146857,1343,1737,6.33287,-26.8751
126,-713,6.35156,26.8229,-0.00121817,-0.000726621,0.00223715,0.00127821,-0.003223,0.840109,0.00267841,0.0134522,1350,1737,6.35161,-26.8229
133,-713,6.34436,26.7346,-0.00199603,-0.000829396,0.00233158,0.000990728,-0.00381615,0.907973,0.00293071,0.0116334,1357,1737,6.34433,-26.7346
140,-713,6.37488,26.6736,-0.00234966,-0.000654353,0.00242741,0.00106915,-0.00407316,0.95338,0.00313323,0.0126658,1364,1737,6.37482,-26.6736
147,-713,6.39978,26.6071,-0.00251108,-0.000478728,0.00227674,0.000998316,-0.00398813,0.995297,0.00304654,0.0142241,1371,1737,6.39978,-26.607
154,-713,6.37561,26.5652,-0.00245525,-0.000270021,0.00203735,0.000949202,-0.00367448,1.03153,0.00281982,0.0137173,1378,1737,6.37557,-26.5652
161,-713,6.36621,26.4766,-0.00223619,-0.000162549,0.00168907,0.000782538,-0.00318127,1.06067,0.00242417,0.0102474,1385,1737,6.36618,-26.4766
168,-713,6.3844,26.4017,-0.00192244,-0.000143787,0.0013193,0.00055794,-0.00262417,1.08196,0.00196205,0.0104199,1392,1737,6.38435,-26.4017
175,-713,6.4198,26.3284,-0.0015328,0.000156897,0.00107764,0.000681384,-0.00205728,1.11785,0.00164634,0.0128448,1399,1737,6.41974,-26.3284
182,-713,6.41333,26.2531,-0.00108784,0.000330245,0.000848976,0.000727322,-0.00148492,1.13331,0.00130196,0.0119812,1406,1737,6.41329,-26.253
189,-713,6.41992,26.1421,-0.000543064,0.000555325,0.000561535,0.000791583,-0.000779322,1.17254,0.000906972,0.0119263,1413,1737,6.41994,-26.1421
196,-713,6.41187,26.0459,-1.46103e-05,0.000626947,0.00024813,0.000711714,-9.93773e-05,1.2416,0.000510834,0.0131031,1420,1737,6.41186,-26.0459
203,-713,6.39661,25.9626,0.000195482,0.000735043,6.82653e-05,0.000743546,0.000186979,1.44688,0.000446614,0.0176653,1427,1737,6.39666,-25.9627
210,-713,6.39124,25.8407,0.000170352,0.00072871,-4.73517e-06,0.00072875,0.000170312,-1.56232,0.000440186,0.0143446,1434,1737,6.39118,-25.8407
217,-713,6.39954,25.7283,0.000170509,0.000655755,-0.000182811,0.000716918,0.000109347,-1.24793,0.000445987,0.0110504,1441,1737,6.39948,-25.7283
224,-713,6.39612,25.6058,0.000250363,0.000629,-0.000366802,0.000852459,2.69043e-05,-1.02363,0.000559554,0.0124151,1448,1737,6.39611,-25.6058
231,-713,6.4198,25.4648,0.000340221,0.000553695,-0.000553722,0.00101087,-0.000116957,-0.880612,0.000716092,0.0120854,1455,1737,6.41978,-25.4648
238,-713,6.41907,25.3319,0.000544289,0.000489805,-0.000711562,0.00122913,-0.000195036,-0.766265,0.000891571,0.00835356,1462,1737,6.41903,-25.3319
245,-713,6.4032,25.2015,0.000835762,0.000516392,-0.000934947,0.00162456,-0.000272408,-0.700816,0.00118433,0.0105244,1469,1737,6.40317,-25.2016
252,-713,6.39893,25.0579,0.00105901,0.000615175,-0.00120882,0.00206611,-0.000391933,-0.694619,0.00152494,0.0121882,1476,1737,6.39892,-25.0578
259,-713,6.41248,24.9128,0.00120154,0.000811645,-0.00147711,0.00249651,-0.000483326,-0.719788,0.00184665,0.0126722,1483,1737,6.41253,-24.9128
266,-713,6.38989,24.7924,0.00127341,0.00127401,-0.00182905,0.00310275,-0.000555337,-0.785481,0.00227631,0.0109271,1490,1737,6.3899,-24.7924
273,-713,6.36841,24.6323,0.00128339,0.00200456,-0.00209871,0.00377344,-0.000485488,-0.870473,0.00269208,0.00912095,1497,1737,6.36835,-24.6323
280,-713,6.35132,24.4607,0.00120518,0.00264247,-0.00239062,0.00442013,-0.000572481,-0.931406,0.00315494,0.00989906,1504,1737,6.35131,-24.4607
287,-713,6.3208,24.2891,0.00109372,0.00301526,-0.00247047,0.00470521,-0.000596228,-0.970849,0.00335326,0.0111062,1511,1737,6.32085,-24.289
294,-713,6.31226,24.1243,0.00102753,0.00374066,-0.0025825,0.00530121,-0.000533016,-1.02724,0.00372455,0.0188518,1518,1737,6.31224,-24.1243
301,-713,6.34485,23.9431,0.00063541,0.00377431,-0.00242717,0.00509525,-0.000685528,-1.07239,0.00364688,0.0215777,1525,1737,6.34484,-23.9432
308,-713,6.34888,23.7489,0.000291973,0.00345022,-0.00208166,0.00448393,-0.000741745,-1.10989,0.00326475,0.0214063,1532,1737,6.34894,-23.749
315,-713,6.31311,23.5112,0.000344688,0.00265826,-0.00188463,0.0037128,-0.000709856,-1.06065,0.00274261,0.0272168,1539,1737,6.31312,-23.5112
322,-713,6.27979,23.1814,0.000178735,0.00156496,-0.00140888,0.00244199,-0.000698297,-1.01399,0.00190393,0.0379868,1546,1737,6.27983,-23.1814
329,-713,6.37061,23.1382,0.000175092,-0.000642367,-0.000836441,0.000697326,-0.0011646,-0.558134,0.00108621,0.0434124,1553,1737,6.37066,-23.1381
336,-713,6.25439,23.1805,0.000415996,-0.0036571,-0.000284512,0.000435773,-0.00367687,-0.0694026,0.00260867,0.0442693,1560,1737,6.25441,-23.1806
343,-713,6.02112,22.9773,0,0,0,0,0,0,0,-1,1567,1737,6.02111,-22.9773
350,-713,6.34607,23.2588,0,0,0,0,0,0,0,-1,1574,1737,6.34605,-23.2587
357,-713,6.89185,21.6815,0,0,0,0,0,0,0,-1,1581,1737,6.89182,-21.6815
364,-713,7.35474,20.9537,0,0,0,0,0,0,0,-1,1588,1737,7.35472,-20.9537
371,-713,8.31555,17.5513,0,0,0,0,0,0,0,-1,1595,1737,8.31561,-17.5513
378,-713,7.02185,18.535,0,0,0,0,0,0,0,-1,1602,1737,7.02188,-18.5351
385,-713,7.81396,18.6816,0,0,0,0,0,0,0,-1,1609,1737,7.81397,-18.6817
392,-713,3.28784,13.7118,0,0,0,0,0,0,0,-1,1616,1737,3.28781,-13.7118
399,-713,2.84045,14.7314,0,0,0,0,0,0,0,-1,1623,1737,2.84046,-14.7315
406,-713,2.97656,16.4902,0,0,0,0,0,0,0,-1,1630,1737,2.97656,-16.4902
413,-713,3.24731,18.2787,0,0,0,0,0,0,0,-1,1637,1737,3.24726,-18.2787
420,-713,0,0,0,0,0,0,0,0,0,-1,1644,1737,0,0
427,-713,0,0,0,0,0,0,0,0,0,-1,1651,1737,0,0
434,-713,0,0,0,0,0,0,0,0,0,-1,1658,1737,0,0
441,-713,0,0,0,0,0,0,0,0,0,-1,1665,1737,0,0
448,-713,0,0,0,0,0,0,0,0,0,-1,1672,1737,0,0
455,-713,0,0,0,0,0,0,0,0,0,-1,1679,1737,0,0
462,-713,0,0,0,0,0,0,0,0,0,-1,1686,1737,0,0
469,-713,0,0,0,0,0,0,0,0,0,-1,1693,1737,0,0
476,-713,0,0,0,0,0,0,0,0,0,-1,1700,1737,0,0
483,-713,0,0,0,0,0,0,0,0,0,-1,1707,1737,0,0
490,-713,0,0,0,0,0,0,0,0,0,-1,1714,1737,0,0
497,-713,0,0,0,0,0,0,0,0,0,-1,1721,1737,0,0
504,-713,0,0,0,0,0,0,0,0,0,-1,1728,1737,0,0
511,-713,0,0,0,0,0,0,0,0,0,-1,1735,1737,0,0
518,-713,0,0,0,0,0,0,0,0,0,-1,1742,1737,0,0
525,-713,0,0,0,0,0,0,0,0,0,-1,1749,1737,0,0
532,-713,0,0,0,0,0,0,0,0,0,-1,1756,1737,0,0
539,-713,0,0,0,0,0,0,0,0,0,-1,1763,1737,0,0
546,-713,0,0,0,0,0,0,0,0,0,-1,1770,1737,0,0
553,-713,0,0,0,0,0,0,0,0,0,-1,1777,1737,0,0
560,-713,0,0,0,0,0,0,0,0,0,-1,1784,1737,0,0
567,-713,0,0,0,0,0,0,0,0,0,-1,1791,1737,0,0
574,-713,0,0,0,0,0,0,0,0,0,-1,1798,1737,0,0
581,-713,0,0,0,0,0,0,0,0,0,-1,1805,1737,0,0
588,-713,0,0,0,0,0,0,0,0,0,-1,1812,1737,0,0
595,-713,0,0,0,0,0,0,0,0,0,-1,1819,1737,0,0
602,-713,0,0,0,0,0,0,0,0,0,-1,1826,1737,0,0
609,-713,0,0,0,0,0,0,0,0,0,-1,1833,1737,0,0
616,-713,0,0,0,0,0,0,0,0,0,-1,1840,1737,0,0
623,-713,0,0,0,0,0,0,0,0,0,-1,1847,1737,0,0
630,-713,0,0,0,0,0,0,0,0,0,-1,1854,1737,0,0
637,-713,0,0,0,0,0,0,0,0,0,-1,1861,1737,0,0
644,-713,0,0,0,0,0,0,0,0,0,-1,1868,1737,0,0
651,-713,0,0,0,0,0,0,0,0,0,-1,1875,1737,0,0
658,-713,0,0,0,0,0,0,0,0,0,-1,1882,1737,0,0
665,-713,0,0,0,0,0,0,0,0,0,-1,1889,1737,0,0
672,-713,0,0,0,0,0,0,0,0,0,-1,1896,1737,0,0
679,-713,0,0,0,0,0,0,0,0,0,-1,1903,1737,0,0
686,-713,0,0,0,0,0,0,0,0,0,-1,1910,1737,0,0
693,-713,0,0,0,0,0,0,0,0,0,-1,1917,1737,0,0
700,-713,0,0,0,0,0,0,0,0,0,-1,1924,1737,0,0
707,-713,0,0,0,0,0,0,0,0,0,-1,1931,1737,0,0
714,-713,0,0,0,0,0,0,0,0,0,-1,1938,1737,0,0
721,-713,0,0,0,0,0,0,0,0,0,-1,1945,1737,0,0
728,-713,0,0,0,0,0,0,0,0,0,-1,1952,1737,0,0
735,-713,0,0,0,0,0,0,0,0,0,-1,1959,1737,0,0
742,-713,0,0,0,0,0,0,0,0,0,-1,1966,1737,0,0
749,-713,0,0,0,0,0,0,0,0,0,-1,1973,1737,0,0
756,-713,0,0,0,0,0,0,0,0,0,-1,1980,1737,0,0
763,-713,0,0,0,0,0,0,0,0,0,-1,1987,1737,0,0
770,-713,0,0,0,0,0,0,0,0,0,-1,1994,1737,0,0
777,-713,0,0,0,0,0,0,0,0,0,-1,2001,1737,0,0
784,-713,0,0,0,0,0,0,0,0,0,-1,2008,1737,0,0
791,-713,0,0,0,0,0,0,0,0,0,-1,2015,1737,0,0
798,-713,0,0,0,0,0,0,0,0,0,-1,2022,1737,0,0
805,-713,0,0,0,0,0,0,0,0,0,-1,2029,1737,0,0
812,-713,0,0,0,0,0,0,0,0,0,-1,2036,1737,0,0
-700,-720,0,0,0,0,0,0,0,0,0,-1,524,1744,0,0
-693,-720,0,0,0,0,0,0,0,0,0,-1,531,1744,0,0
-686,-720,0,0,0,0,0,0,0,0,0,-1,538,1744,0,0
-679,-720,0,0,0,0,0,0,0,0,0,-1,545,1744,0,0
-672,-720,0,0,0,0,0,0,0,0,0,-1,552,1744,0,0
-665,-720,0,0,0,0,0,0,0,0,0,-1,559,1744,0,0
-658,-720,0,0,0,0,0,0,0,0,0,-1,566,1744,0,0
-651,-720,0,0,0,0,0,0,0,0,0,-1,573,1744,0,0
-644,-720,0,0,0,0,0,0,0,0,0,-1,580,1744,0,0
-637,-720,0,0,0,0,0,0,0,0,0,-1,587,1744,0,0
-630,-720,0,0,0,0,0,0,0,0,0,-1,594,1744,0,0
-623,-720,0,0,0,0,0,0,0,0,0,-1,601,1744,0,0
-616,-720,0,0,0,0,0,0,0,0,0,-1,608,1744,0,0
-609,-720,0,0,0,0,0,0,0,0,0,-1,615,1744,0,0
-602,-720,0,0,0,0,0,0,0,0,0,-1,622,1744,0,0
-595,-720,0,0,0,0,0,0,0,0,0,-1,629,1744,0,0
-588,-720,0,0,0,0,0,0,0,0,0,-1,636,1744,0,0
-581,-720,0,0,0,0,0,0,0,0,0,-1,643,1744,0,0
-574,-720,0,0,0,0,0,0,0,0,0,-1,650,1744,0,0
-567,-720,0,0,0,0,0,0,0,0,0,-1,657,1744,0,0
-560,-720,0,0,0,0,0,0,0,0,0,-1,664,1744,0,0
-553,-720,0,0,0,0,0,0,0,0,0,-1,671,1744,0,0
-546,-720,0,0,0,0,0,0,0,0,0,-1,678,1744,0,0
-539,-720,0,0,0,0,0,0,0,0,0,-1,685,1744,0,0
-532,-720,0,0,0,0,0,0,0,0,0,-1,692,1744,0,0
-525,-720,0,0,0,0,0,0,0,0,0,-1,699,1744,0,0
-518,-720,0,0,0,0,0,0,0,0,0,-1,706,1744,0,0
-511,-720,0,0,0,0,0,0,0,0,0,-1,713,1744,0,0
-504,-720,0,0,0,0,0,0,0,0,0,-1,720,1744,0,0
-497,-720,0,0,0,0,0,0,0,0,0,-1,727,1744,0,0
-490,-720,0,0,0,0,0,0,0,0,0,-1,734,1744,0,0
-483,-720,0,0,0,0,0,0,0,0,0,-1,741,1744,0,0
-476,-720,0,0,0,0,0,0,0,0,0,-1,748,1744,0,0
-469,-720,0,0,0,0,0,0,0,0,0,-1,755,1744,0,0
-462,-720,0,0,0,0,0,0,0,0,0,-1,762,1744,0,0
-455,-720,0,0,0,0,0,0,0,0,0,-1,769,1744,0,0
-448,-720,0,0,0,0,0,0,0,0,0,-1,776,1744,0,0
-441,-720,0,0,0,0,0,0,0,0,0,-1,783,1744,0,0
-434,-720,0,0,0,0,0,0,0,0,0,-1,790,1744,0,0
-427,-720,0,0,0,0,0,0,0,0,0,-1,797,1744,0,0
-420,-720,0,0,0,0,0,0,0,0,0,-1,804,1744,0,0
-413,-720,0,0,0,0,0,0,0,0,0,-1,811,1744,0,0
-406,-720,0,0,0,0,0,0,0,0,0,-1,818,1744,0,0
-399,-720,0,0,0,0,0,0,0,0,0,-1,825,1744,0,0
-392,-720,0,0,0,0,0,0,0,0,0,-1,832,1744,0,0
-385,-720,0,0,0,0,0,0,0,0,0,-1,839,1744,0,0
-378,-720,0,0,0,0,0,0,0,0,0,-1,846,1744,0,0
-371,-720,0,0,0,0,0,0,0,0,0,-1,853,1744,0,0
-364,-720,0,0,0,0,0,0,0,0,0,-1,860,1744,0,0
-357,-720,0,0,0,0,0,0,0,0,0,-1,867,1744,0,0
-350,-720,0,0,0,0,0,0,0,0,0,-1,874,1744,0,0
-343,-720,0,0,0,0,0,0,0,0,0,-1,881,1744,0,0
-336,-720,0,0,0,0,0,0,0,0,0,-1,888,1744,0,0
-329,-720,0,0,0,0,0,0,0,0,0,-1,895,1744,0,0
-322,-720,0,0,0,0,0,0,0,0,0,-1,902,1744,0,0
-315,-720,0,0,0,0,0,0,0,0,0,-1,909,1744,0,0
-308,-720,0,0,0,0,0,0,0,0,0,-1,916,1744,0,0
-301,-720,0,0,0,0,0,0,0,0,0,-1,923,1744,0,0
-294,-720,0,0,0,0,0,0,0,0,0,-1,930,1744,0,0
-287,-720,0,0,0,0,0,0,0,0,0,-1,937,1744,0,0
-280,-720,6.46796,22.6417,0,0,0,0,0,0,0,-1,944,1744,6.46793,-22.6417
-273,-720,8.54633,13.262,0,0,0,0,0,0,0,-1,951,1744,8.54636,-13.2619
-266,-720,7.28027,13.3165,0,0,0,0,0,0,0,-1,958,1744,7.28026,-13.3166
-259,-720,3.70563,18.6372,0,0,0,0,0,0,0,-1,965,1744,3.70564,-18.6372
-252,-720,4.00989,18.5059,0,0,0,0,0,0,0,-1,972,1744,4.00988,-18.5058
-245,-720,4.63318,20.3199,0,0,0,0,0,0,0,-1,979,1744,4.6332,-20.32
-238,-720,4.70691,19.5372,0,0,0,0,0,0,0,-1,986,1744,4.70693,-19.5372
-231,-720,5.83551,18.546,0,0,0,0,0,0,0,-1,993,1744,5.83552,-18.546
-224,-720,5.94763,21.5802,0,0,0,0,0,0,0,-1,1000,1744,5.94765,-21.5802
-217,-720,7.33716,20.2433,0,0,0,0,0,0,0,-1,1007,1744,7.33715,-20.2432
-210,-720,6.97302,21.2229,0,0,0,0,0,0,0,-1,1014,1744,6.97304,-21.2229
-203,-720,6.02295,22.9095,0,0,0,0,0,0,0,-1,1021,1744,6.02295,-22.9096
-196,-720,6.09607,23.1003,0,0,0,0,0,0,0,-1,1028,1744,6.09601,-23.1004
-189,-720,6.20215,23.1276,0,0,0,0,0,0,0,-1,1035,1744,6.20214,-23.1275
-182,-720,5.47998,23.0419,-0.00274933,-0.0239409,-0.00210199,-0.00254285,-0.0241474,-0.0979186,0.0153212,0.0469472,1042,1744,5.47999,-23.0419
-175,-720,5.75818,23.3328,-0.00105736,-0.018903,0.000553323,-0.00104022,-0.0189201,0.0309665,0.0122814,0.0462672,1049,1744,5.75823,-23.3328
-168,-720,6.02246,23.5133,0.000593298,-0.013991,0.00258273,0.00103716,-0.0144348,0.170197,0.00998692,0.0436302,1056,1744,6.02247,-23.5132
-161,-720,6.08606,23.609,0.00168612,-0.00963942,0.00368278,0.00277834,-0.0107316,0.288311,0.00823821,0.037794,1063,1744,6.08609,-23.609
-154,-720,6.32922,23.8929,0.00215768,-0.00570309,0.00407781,0.0038909,-0.00743632,0.401903,0.0066457,0.0310915,1070,1744,6.32927,-23.893
-147,-720,6.28064,24.1422,0.00271562,0.000253464,0.00479158,0.00643174,-0.00346266,0.659655,0.00579763,0.0280314,1077,1744,6.28067,-24.1422
-140,-720,6.29102,24.2893,0.00271878,0.00364827,0.00501041,0.00821545,-0.0018484,0.831643,0.00618585,0.0211853,1084,1744,6.29106,-24.2893
-133,-720,6.26978,24.3821,0.00172571,0.0037522,0.00388808,0.00675689,-0.00127899,0.912864,0.00498591,0.0132123,1091,1744,6.26981,-24.3821
-126,-720,6.2467,24.5361,0.000753436,0.00308954,0.00264122,0.00480946,-0.000966487,0.993589,0.00357232,0.0123728,1098,1744,6.24671,-24.5361
-119,-720,6.22742,24.6923,-1.83207e-05,0.00342838,0.00185361,0.004236,-0.000825937,1.1599,0.00313578,0.0146959,1105,1744,6.22741,-24.6922
-112,-720,6.21179,24.8497,-0.000376783,0.00369944,0.00142813,0.00415,-0.000827337,1.26519,0.00307971,0.0136801,1112,1744,6.21176,-24.8497
-105,-720,6.20557,24.9899,-0.000539514,0.00366345,0.00114499,0.00395513,-0.000831193,1.32136,0.00295307,0.0127469,1119,1744,6.20552,-24.9899
-98,-720,6.18311,25.1262,-0.000638147,0.00366724,0.0010227,0.00389782,-0.00086873,1.34904,0.00293135,0.00986084,1126,1744,6.1831,-25.1262
-91,-720,6.16833,25.2842,-0.000717434,0.00348272,0.00080199,0.00363065,-0.000865359,1.3884,0.00275457,0.00939699,1133,1744,6.16835,-25.2842
-84,-720,6.1781,25.4344,-0.000732869,0.00335129,0.000793588,0.00350007,-0.00088165,1.38547,0.00267612,0.0104802,1140,1744,6.17808,-25.4344
-77,-720,6.19275,25.5778,-0.000530398,0.00311891,0.000761246,0.00327134,-0.000682827,1.37317,0.00244055,0.0127172,1147,1744,6.19273,-25.5777
-70,-720,6.17969,25.694,-0.000259632,0.0028394,0.000600989,0.00295187,-0.000372099,1.3858,0.00210295,0.0107853,1154,1744,6.1797,-25.694
-63,-720,6.12854,25.8074,-0.000178344,0.0025823,0.000436402,0.00264965,-0.000245688,1.41769,0.00185376,0.0102486,1161,1744,6.12851,-25.8074
-56,-720,6.15295,25.9199,-0.000119567,0.00222681,0.000357049,0.00227994,-0.000172696,1.42308,0.00158067,0.0122851,1168,1744,6.153,-25.9199
-49,-720,6.15308,26.0081,0.000160791,0.00210901,0.00044054,0.00220399,6.58054e-05,1.35843,0.00144789,0.0182124,1175,1744,6.15308,-26.008
-42,-720,6.16003,26.0938,0.000424042,0.00201295,0.00048439,0.00214898,0.000288017,1.29703,0.00134695,0.0200798,1182,1744,6.15997,-26.0937
-35,-720,6.17627,26.1931,0.000636846,0.00183519,0.000471878,0.00199869,0.000473341,1.23724,0.00120605,0.0178731,1189,1744,6.17631,-26.1931
-28,-720,6.17627,26.2908,0.000697556,0.00195407,0.000392864,0.0020668,0.000584835,1.29138,0.00123017,0.0104077,1196,1744,6.1763,-26.2908
-21,-720,6.15979,26.3999,0.000717052,0.00240844,0.000345983,0.00247648,0.000649016,1.37663,0.00148277,0.00844916,1203,1744,6.15981,-26.3999
-14,-720,6.15405,26.4727,0.000822054,0.00321361,0.00039546,0.00327731,0.000758359,1.4111,0.00198108,0.0105297,1210,1744,6.15405,-26.4726
-7,-720,6.15417,26.5525,0.000864002,0.00439687,0.000427724,0.00444791,0.000812955,1.45201,0.00273487,0.0117625,1217,1744,6.15417,-26.5525
0,-720,6.17029,26.6205,0.000982629,0.00592229,0.000448022,0.0059626,0.000942322,1.48107,0.00370116,0.0132695,1224,1744,6.17028,-26.6205
7,-720,6.19165,26.6619,0.00109762,0.00748066,0.000586952,0.00753418,0.0010441,1.47986,0.00471346,0.0158048,1231,1744,6.19161,-26.6619
14,-720,6.21082,26.7012,0.0011403,0.00898134,0.000734086,0.00904948,0.00107216,1.47825,0.00570925,0.0145136,1238,1744,6.21077,-26.7012
21,-720,6.19238,26.7617,0.00121827,0.0101834,0.000862057,0.0102655,0.00113613,1.4758,0.00649815,0.0113759,1245,1744,6.19234,-26.7617
28,-720,6.18311,26.8213,0.00123996,0.0110301,0.00101039,0.0111333,0.00113677,1.46902,0.00707377,0.0113081,1252,1744,6.18314,-26.8213
35,-720,6.18774,26.8636,0.00126474,0.011382,0.00111755,0.0115039,0.00114276,1.46208,0.00731818,0.0107605,1259,1744,6.18776,-26.8637
42,-720,6.19324,26.886,0.0013217,0.0111847,0.0011731,0.0113223,0.00118409,1.45403,0.00718611,0.0111731,1266,1744,6.19321,-26.886
49,-720,6.21997,26.8871,0.00135439,0.0105622,0.00120706,0.0107178,0.00119879,1.44259,0.00678103,0.0115308,1273,1744,6.22,-26.8871
56,-720,6.23193,26.9175,0.00126351,0.00954932,0.00121927,0.00972501,0.00108781,1.42769,0.00615288,0.00999567,1280,1744,6.23195,-26.9175
63,-720,6.22913,26.9365,0.0011264,0.00837348,0.00127867,0.00859247,0.000907412,1.40118,0.00545108,0.0116967,1287,1744,6.22915,-26.9365
70,-720,6.24475,26.9482,0.00108085,0.00700198,0.00129883,0.00727436,0.000808473,1.36408,0.0046038,0.01188,1294,1744,6.24479,-26.9482
77,-720,6.25366,26.967,0.000986485,0.00551358,0.00133711,0.00587901,0.000621056,1.30401,0.0037296,0.0136507,1301,1744,6.25362,-26.967
84,-720,6.24377,26.9474,0.000733164,0.0039763,0.00133171,0.00445305,0.000256418,1.22702,0.00288702,0.013996,1308,1744,6.2438,-26.9474
91,-720,6.24573,26.9254,0.000437483,0.0026783,0.00137193,0.00332919,-0.000213407,1.12781,0.0022939,0.0127415,1315,1744,6.24576,-26.9254
98,-720,6.25891,26.9105,0.000226122,0.00160568,0.00139025,0.00246787,-0.000636062,1.01568,0.00189322,0.0115138,1322,1744,6.25895,-26.9106
105,-720,6.27344,26.8799,-6.98297e-05,0.000862699,0.00140742,0.00187907,-0.0010862,0.945354,0.00173228,0.0112542,1329,1744,6.27339,-26.8799
112,-720,6.27954,26.8772,-0.000265448,0.000299426,0.00133509,0.00138163,-0.00134765,0.889636,0.00157579,0.0108801,1336,1744,6.2795,-26.8772
119,-720,6.28613,26.8672,-0.000392368,-0.000160499,0.00128298,0.00101177,-0.00156464,0.830458,0.00149886,0.0108883,1343,1744,6.28611,-26.8671
126,-720,6.29358,26.8044,-0.000502662,-0.000422457,0.00126213,0.000800206,-0.00172532,0.80128,0.00149037,0.0109637,1350,1744,6.29358,-26.8045
133,-720,6.29639,26.7434,-0.000550391,-0.000539226,0.00119339,0.000648592,-0.00173821,0.787737,0.00142508,0.0122778,1357,1744,6.29637,-26.7434
140,-720,6.32007,26.7092,-0.000570281,-0.000480673,0.00110744,0.000582865,-0.00163382,0.805616,0.00132688,0.0182339,1364,1744,6.32008,-26.7092
147,-720,6.31274,26.6505,-0.000539666,-0.000377589,0.000980977,0.000525691,-0.00144295,0.826609,0.001177,0.0187193,1371,1744,6.31277,-26.6505
154,-720,6.30701,26.5582,-0.000427845,-0.000248668,0.000796685,0.00046345,-0.00113996,0.841389,0.000952801,0.0121355,1378,1744,6.30697,-26.5583
161,-720,6.31714,26.4772,-0.000243062,-0.000149889,0.000577618,0.000383018,-0.000775968,0.825638,0.000681841,0.00905278,1385,1744,6.31716,-26.4771
168,-720,6.32104,26.4088,-3.95852e-05,-9.9828e-05,0.000319268,0.00025098,-0.000390393,0.738365,0.000373201,0.00951513,1392,1744,6.32101,-26.4088
175,-720,6.3252,26.3264,6.99869e-05,0.000200778,0.000154487,0.00030314,-3.23759e-05,0.985616,0.000213705,0.014603,1399,1744,6.32524,-26.3264
182,-720,6.32947,26.2557,0.000101826,0.000440818,-8.07837e-06,0.000441011,0.000101634,-1.54698,0.000266665,0.0152392,1406,1744,6.32948,-26.2557
189,-720,6.33423,26.1486,2.82174e-05,0.000616403,-0.000123151,0.000641147,3.47363e-06,-1.37251,0.000426278,0.0128832,1413,1744,6.33422,-26.1486
196,-720,6.31958,26.0162,-0.000150819,0.000716026,-0.000275873,0.000796375,-0.000231167,-1.28738,0.000622449,0.0135598,1420,1744,6.31954,-26.0163
203,-720,6.27527,25.912,-0.00031364,0.00117172,-0.000352588,0.00125117,-0.000393087,-1.34917,0.000991463,0.0160541,1427,1744,6.27523,-25.912
210,-720,6.27966,25.8376,-0.000177941,0.00132114,-0.000432086,0.00143676,-0.000293565,-1.30933,0.00106922,0.0137886,1434,1744,6.27969,-25.8377
217,-720,6.31104,25.7102,2.43993e-05,0.00130864,-0.000628369,0.00156495,-0.000231904,-1.18351,0.00112857,0.0120931,1441,1744,6.31101,-25.7102
224,-720,6.29175,25.5763,0.000211793,0.00128861,-0.000843802,0.00175114,-0.000250742,-1.06937,0.00125936,0.00974672,1448,1744,6.29174,-25.5763
231,-720,6.29248,25.452,0.000386212,0.00118236,-0.00106849,0.00192452,-0.000355945,-0.963713,0.00141665,0.0101558,1455,1744,6.29252,-25.4521
238,-720,6.28198,25.3116,0.000695822,0.00106994,-0.00127166,0.00216823,-0.000402465,-0.858424,0.00159664,0.00844982,1462,1744,6.28199,-25.3116
245,-720,6.27332,25.1954,0.00111623,0.00107426,-0.0015638,0.00265919,-0.000468698,-0.77869,0.00194791,0.0103782,1469,1744,6.27336,-25.1955
252,-720,6.26697,25.0544,0.00144076,0.00116857,-0.00190813,0.00321764,-0.000608307,-0.749796,0.00237399,0.0110954,1476,1744,6.26694,-25.0545
259,-720,6.26392,24.91,0.00166783,0.00139339,-0.00223709,0.00377191,-0.000710691,-0.754768,0.00278193,0.0104998,1483,1744,6.26394,-24.9101
266,-720,6.24438,24.7856,0.00182341,0.00196547,-0.00267031,0.00456569,-0.000776812,-0.798696,0.00333304,0.00912835,1490,1744,6.24433,-24.7857
273,-720,6.22827,24.6238,0.00190419,0.00287617,-0.00299611,0.00542545,-0.000645091,-0.865801,0.00385005,0.0159059,1497,1744,6.22828,-24.6238
280,-720,6.1521,24.4691,0.00186035,0.00368363,-0.003343,0.00623706,-0.000693084,-0.918512,0.00440727,0.0221716,1504,1744,6.15206,-24.4691
287,-720,6.0481,24.2224,0.00177294,0.00417139,-0.00341767,0.00659413,-0.000649796,-0.954131,0.00462792,0.0376596,1511,1744,6.04813,-24.2224
294,-720,6.22205,23.9453,0.00175128,0.00515705,-0.00353267,0.00737585,-0.000467521,-1.00999,0.00508025,0.0393752,1518,1744,6.222,-23.9453
301,-720,6.27563,23.7947,0.00128966,0.005354,-0.00328243,0.00718241,-0.000538746,-1.06257,0.00497758,0.0432565,1525,1744,6.27564,-23.7947
308,-720,6.16333,23.629,0.000797474,0.00502433,-0.00273982,0.00637114,-0.000549328,-1.11392,0.00444187,0.0449816,1532,1744,6.16328,-23.629
315,-720,6.2002,23.335,0.000710561,0.00431715,-0.0023857,0.00550441,-0.000476698,-1.10902,0.00383839,0.0499611,1539,1744,6.20015,-23.3349
322,-720,6.08643,22.895,0,0,0,0,0,0,0,-1,1546,1744,6.08638,-22.895
329,-720,6.22803,23.1729,0,0,0,0,0,0,0,-1,1553,1744,6.22808,-23.1729
336,-720,6.22363,23.5344,0,0,0,0,0,0,0,-1,1560,1744,6.22362,-23.5344
343,-720,6.78552,21.3625,0,0,0,0,0,0,0,-1,1567,1744,6.78551,-21.3625
350,-720,4.0741,11.1836,0,0,0,0,0,0,0,-1,1574,1744,4.07412,-11.1836
357,-720,6.90833,21.4504,0,0,0,0,0,0,0,-1,1581,1744,6.90827,-21.4505
364,-720,6.45642,18.7834,0,0,0,0,0,0,0,-1,1588,1744,6.45637,-18.7834
371,-720,5.90027,18.6631,0,0,0,0,0,0,0,-1,1595,1744,5.90025,-18.663
378,-720,6.90405,18.7253,0,0,0,0,0,0,0,-1,1602,1744,6.90402,-18.7254
385,-720,7.54175,18.5774,0,0,0,0,0,0,0,-1,1609,1744,7.54171,-18.5774
392,-720,0.141968,12.1694,0,0,0,0,0,0,0,-1,1616,1744,0.141952,-12.1694
399,-720,-0.334595,13.7629,0,0,0,0,0,0,0,-1,1623,1744,-0.334621,-13.763
406,-720,0,0,0,0,0,0,0,0,0,-1,1630,1744,0,0
413,-720,0,0,0,0,0,0,0,0,0,-1,1637,1744,0,0
420,-720,0,0,0,0,0,0,0,0,0,-1,1644,1744,0,0
427,-720,0,0,0,0,0,0,0,0,0,-1,1651,1744,0,0
434,-720,0,0,0,0,0,0,0,0,0,-1,1658,1744,0,0
441,-720,0,0,0,0,0,0,0,0,0,-1,1665,1744,0,0
448,-720,0,0,0,0,0,0,0,0,0,-1,1672,1744,0,0
455,-720,0,0,0,0,0,0,0,0,0,-1,1679,1744,0,0
462,-720,0,0,0,0,0,0,0,0,0,-1,1686,1744,0,0
469,-720,0,0,0,0,0,0,0,0,0,-1,1693,1744,0,0
476,-720,0,0,0,0,0,0,0,0,0,-1,1700,1744,0,0
483,-720,0,0,0,0,0,0,0,0,0,-1,1707,1744,0,0
490,-720,0,0,0,0,0,0,0,0,0,-1,1714,1744,0,0
497,-720,0,0,0,0,0,0,0,0,0,-1,1721,1744,0,0
504,-720,0,0,0,0,0,0,0,0,0,-1,1728,1744,0,0
511,-720,0,0,0,0,0,0,0,0,0,-1,1735,1744,0,0
518,-720,0,0,0,0,0,0,0,0,0,-1,1742,1744,0,0
525,-720,0,0,0,0,0,0,0,0,0,-1,1749,1744,0,0
532,-720,0,0,0,0,0,0,0,0,0,-1,1756,1744,0,0
539,-720,0,0,0,0,0,0,0,0,0,-1,1763,1744,0,0
546,-720,0,0,0,0,0,0,0,0,0,-1,1770,1744,0,0
553,-720,0,0,0,0,0,0,0,0,0,-1,1777,1744,0,0
560,-720,0,0,0,0,0,0,0,0,0,-1,1784,1744,0,0
567,-720,0,0,0,0,0,0,0,0,0,-1,1791,1744,0,0
574,-720,0,0,0,0,0,0,0,0,0,-1,1798,1744,0,0
581,-720,0,0,0,0,0,0,0,0,0,-1,1805,1744,0,0
588,-720,0,0,0,0,0,0,0,0,0,-1,1812,1744,0,0
595,-720,0,0,0,0,0,0,0,0,0,-1,1819,1744,0,0
602,-720,0,0,0,0,0,0,0,0,0,-1,1826,1744,0,0
609,-720,0,0,0,0,0,0,0,0,0,-1,1833,1744,0,0
616,-720,0,0,0,0,0,0,0,0,0,-1,1840,1744,0,0
623,-720,0,0,0,0,0,0,0,0,0,-1,1847,1744,0,0
630,-720,0,0,0,0,0,0,0,0,0,-1,1854,1744,0,0
637,-720,0,0,0,0,0,0,0,0,0,-1,1861,1744,0,0
644,-720,0,0,0,0,0,0,0,0,0,-1,1868,1744,0,0
651,-720,0,0,0,0,0,0,0,0,0,-1,1875,1744,0,0
658,-720,0,0,0,0,0,0,0,0,0,-1,1882,1744,0,0
665,-720,0,0,0,0,0,0,0,0,0,-1,1889,1744,0,0
672,-720,0,0,0,0,0,0,0,0,0,-1,1896,1744,0,0
679,-720,0,0,0,0,0,0,0,0,0,-1,1903,1744,0,0
686,-720,0,0,0,0,0,0,0,0,0,-1,1910,1744,0,0
693,-720,0,0,0,0,0,0,0,0,0,-1,1917,1744,0,0
700,-720,0,0,0,0,0,0,0,0,0,-1,1924,1744,0,0
707,-720,0,0,0,0,0,0,0,0,0,-1,1931,1744,0,0
714,-720,0,0,0,0,0,0,0,0,0,-1,1938,1744,0,0
721,-720,0,0,0,0,0,0,0,0,0,-1,1945,1744,0,0
728,-720,0,0,0,0,0,0,0,0,0,-1,1952,1744,0,0
735,-720,0,0,0,0,0,0,0,0,0,-1,1959,1744,0,0
742,-720,0,0,0,0,0,0,0,0,0,-1,1966,1744,0,0
749,-720,0,0,0,0,0,0,0,0,0,-1,1973,1744,0,0
756,-720,0,0,0,0,0,0,0,0,0,-1,1980,1744,0,0
763,-720,0,0,0,0,0,0,0,0,0,-1,1987,1744,0,0
770,-720,0,0,0,0,0,0,0,0,0,-1,1994,1744,0,0
777,-720,0,0,0,0,0,0,0,0,0,-1,2001,1744,0,0
784,-720,0,0,0,0,0,0,0,0,0,-1,2008,1744,0,0
791,-720,0,0,0,0,0,0,0,0,0,-1,2015,1744,0,0
798,-720,0,0,0,0,0,0,0,0,0,-1,2022,1744,0,0
805,-720,0,0,0,0,0,0,0,0,0,-1,2029,1744,0,0
812,-720,0,0,0,0,0,0,0,0,0,-1,2036,1744,0,0
-700,-727,0,0,0,0,0,0,0,0,0,-1,524,1751,0,0
-693,-727,0,0,0,0,0,0,0,0,0,-1,531,1751,0,0
-686,-727,0,0,0,0,0,0,0,0,0,-1,538,1751,0,0
-679,-727,0,0,0,0,0,0,0,0,0,-1,545,1751,0,0
-672,-727,0,0,0,0,0,0,0,0,0,-1,552,1751,0,0
-665,-727,0,0,0,0,0,0,0,0,0,-1,559,1751,0,0
-658,-727,0,0,0,0,0,0,0,0,0,-1,566,1751,0,0
-651,-727,0,0,0,0,0,0,0,0,0,-1,573,1751,0,0
-644,-727,0,0,0,0,0,0,0,0,0,-1,580,1751,0,0
-637,-727,0,0,0,0,0,0,0,0,0,-1,587,1751,0,0
-630,-727,0,0,0,0,0,0,0,0,0,-1,594,1751,0,0
-623,-727,0,0,0,0,0,0,0,0,0,-1,601,1751,0,0
-616,-727,0,0,0,0,0,0,0,0,0,-1,608,1751,0,0
-609,-727,0,0,0,0,0,0,0,0,0,-1,615,1751,0,0
-602,-727,0,0,0,0,0,0,0,0,0,-1,622,1751,0,0
-595,-727,0,0,0,0,0,0,0,0,0,-1,629,1751,0,0
-588,-727,0,0,0,0,0,0,0,0,0,-1,636,1751,0,0
-581,-727,0,0,0,0,0,0,0,0,0,-1,643,1751,0,0
-574,-727,0,0,0,0,0,0,0,0,0,-1,650,1751,0,0
-567,-727,0,0,0,0,0,0,0,0,0,-1,657,1751,0,0
-560,-727,0,0,0,0,0,0,0,0,0,-1,664,1751,0,0
-553,-727,0,0,0,0,0,0,0,0,0,-1,671,1751,0,0
-546,-727,0,0,0,0,0,0,0,0,0,-1,678,1751,0,0
-539,-727,0,0,0,0,0,0,0,0,0,-1,685,1751,0,0
-532,-727,0,0,0,0,0,0,0,0,0,-1,692,1751,0,0
-525,-727,0,0,0,0,0,0,0,0,0,-1,699,1751,0,0
-518,-727,0,0,0,0,0,0,0,0,0,-1,706,1751,0,0
-511,-727,0,0,0,0,0,0,0,0,0,-1,713,1751,0,0
-504,-727,0,0,0,0,0,0,0,0,0,-1,720,1751,0,0
-497,-727,0,0,0,0,0,0,0,0,0,-1,727,1751,0,0
-490,-727,0,0,0,0,0,0,0,0,0,-1,734,1751,0,0
-483,-727,0,0,0,0,0,0,0,0,0,-1,741,1751,0,0
-476,-727,0,0,0,0,0,0,0,0,0,-1,748,1751,0,0
-469,-727,0,0,0,0,0,0,0,0,0,-1,755,1751,0,0
-462,-727,0,0,0,0,0,0,0,0,0,-1,762,1751,0,0
-455,-727,0,0,0,0,0,0,0,0,0,-1,769,1751,0,0
-448,-727,0,0,0,0,0,0,0,0,0,-1,776,1751,0,0
-441,-727,0,0,0,0,0,0,0,0,0,-1,783,1751,0,0
-434,-727,0,0,0,0,0,0,0,0,0,-1,790,1751,0,0
-427,-727,0,0,0,0,0,0,0,0,0,-1,797,1751,0,0
-420,-727,0,0,0,0,0,0,0,0,0,-1,804,1751,0,0
-413,-727,0,0,0,0,0,0,0,0,0,-1,811,1751,0,0
-406,-727,0,0,0,0,0,0,0,0,0,-1,818,1751,0,0
-399,-727,0,0,0,0,0,0,0,0,0,-1,825,1751,0,0
-392,-727,0,0,0,0,0,0,0,0,0,-1,832,1751,0,0
-385,-727,0,0,0,0,0,0,0,0,0,-1,839,1751,0,0
-378,-727,0,0,0,0,0,0,0,0,0,-1,846,1751,0,0
-371,-727,0,0,0,0,0,0,0,0,0,-1,853,1751,0,0
-364,-727,0,0,0,0,0,0,0,0,0,-1,860,1751,0,0
-357,-727,0,0,0,0,0,0,0,0,0,-1,867,1751,0,0
-350,-727,0,0,0,0,0,0,0,0,0,-1,874,1751,0,0
-343,-727,0,0,0,0,0,0,0,0,0,-1,881,1751,0,0
-336,-727,0,0,0,0,0,0,0,0,0,-1,888,1751,0,0
-329,-727,0,0,0,0,0,0,0,0,0,-1,895,1751,0,0
-322,-727,0,0,0,0,0,0,0,0,0,-1,902,1751,0,0
-315,-727,0,0,0,0,0,0,0,0,0,-1,909,1751,0,0
-308,-727,0,0,0,0,0,0,0,0,0,-1,916,1751,0,0
-301,-727,0,0,0,0,0,0,0,0,0,-1,923,1751,0,0
-294,-727,0,0,0,0,0,0,0,0,0,-1,930,1751,0,0
-287,-727,0,0,0,0,0,0,0,0,0,-1,937,1751,0,0
-280,-727,0,0,0,0,0,0,0,0,0,-1,944,1751,0,0
-273,-727,0,0,0,0,0,0,0,0,0,-1,951,1751,0,0
-266,-727,4.24805,7.61145,0,0,0,0,0,0,0,-1,958,1751,4.24802,-7.6115
-259,-727,3.65228,5.4082,0,0,0,0,0,0,0,-1,965,1751,3.65229,-5.40818
-252,-727,6.35193,19.5046,0,0,0,0,0,0,0,-1,972,1751,6.35193,-19.5046
-245,-727,6.6543,20.9005,0,0,0,0,0,0,0,-1,979,1751,6.65433,-20.9005
-238,-727,4.31769,18.0181,0,0,0,0,0,0,0,-1,986,1751,4.31766,-18.018
-231,-727,8.60968,15.9432,0,0,0,0,0,0,0,-1,993,1751,8.60968,-15.9432
-224,-727,5.36774,18.8488,0,0,0,0,0,0,0,-1,1000,1751,5.36772,-18.8487
-217,-727,5.94122,16.1447,0,0,0,0,0,0,0,-1,1007,1751,5.9412,-16.1446
-210,-727,6.63403,19.8335,0,0,0,0,0,0,0,-1,1014,1751,6.63405,-19.8335
-203,-727,6.70361,20.4543,0,0,0,0,0,0,0,-1,1021,1751,6.70363,-20.4544
-196,-727,6.06995,20.7059,0,0,0,0,0,0,0,-1,1028,1751,6.06989,-20.706
-189,-727,5.46509,21.0536,0,0,0,0,0,0,0,-1,1035,1751,5.46507,-21.0536
-182,-727,4.85156,22.27,0,0,0,0,0,0,0,-1,1042,1751,4.85156,-22.2701
-175,-727,5.39258,23.5673,0,0,0,0,0,0,0,-1,1049,1751,5.39254,-23.5672
-168,-727,5.71313,23.8334,0,0,0,0,0,0,0,-1,1056,1751,5.7131,-23.8334
-161,-727,5.86292,23.8555,0,0,0,0,0,0,0,-1,1063,1751,5.86297,-23.8555
-154,-727,6.52197,23.8407,0,0,0,0,0,0,0,-1,1070,1751,6.52202,-23.8407
-147,-727,6.50305,24.0076,0.00333274,-0.000519753,0.00561403,0.00734179,-0.0045288,0.620135,0.00691734,0.0478215,1077,1751,6.50307,-24.0076
-140,-727,6.35107,24.0804,0.00374886,0.00506577,0.00662595,0.0110659,-0.00225127,0.834923,0.00823096,0.0325661,1084,1751,6.35103,-24.0805
-133,-727,6.44653,24.2487,0.00231551,0.00507748,0.00512741,0.00900662,-0.00161364,0.916944,0.00660829,0.023667,1091,1751,6.44657,-24.2486
-126,-727,6.36475,24.4994,0.000919459,0.00413071,0.00349212,0.00636864,-0.00131847,1.00088,0.00474669,0.0155926,1098,1751,6.36473,-24.4994
-119,-727,6.35876,24.7135,-0.000148988,0.00445194,0.00248102,0.0055349,-0.00123195,1.15923,0.00416181,0.0120031,1105,1751,6.35878,-24.7135
-112,-727,6.35681,24.8348,-0.000713046,0.00470633,0.00190645,0.00530979,-0.00131651,1.26424,0.00405065,0.012618,1112,1751,6.35675,-24.8349
-105,-727,6.31799,24.985,-0.00103733,0.00460266,0.00151521,0.00498395,-0.00141862,1.32427,0.00388287,0.0125235,1119,1751,6.31796,-24.985
-98,-727,6.30615,25.1394,-0.00126907,0.00452589,0.00130803,0.00480745,-0.00155064,1.35877,0.00382801,0.0106319,1126,1751,6.30618,-25.1395
-91,-727,6.30627,25.2856,-0.00150759,0.00418912,0.000956927,0.00434556,-0.00166404,1.40874,0.00358293,0.0102956,1133,1751,6.30632,-25.2856
-84,-727,6.30444,25.4374,-0.00163401,0.00394161,0.000933952,0.0040939,-0.00178629,1.40917,0.00348098,0.010804,1140,1751,6.30445,-25.4374
-77,-727,6.29944,25.5634,-0.00144002,0.00348471,0.000894116,0.00364201,-0.00159733,1.39664,0.00310077,0.0113801,1147,1751,6.29941,-25.5633
-70,-727,6.28394,25.6887,-0.00115768,0.00300776,0.000686515,0.00311799,-0.00126791,1.41159,0.00260621,0.0120162,1154,1751,6.28399,-25.6887
-63,-727,6.27161,25.8104,-0.000801558,0.00289275,0.000718961,0.00302774,-0.000936545,1.3852,0.00239257,0.0100453,1161,1751,6.2716,-25.8104
-56,-727,6.2627,25.903,-0.000444457,0.00268452,0.000733932,0.00284811,-0.000608054,1.35148,0.00213055,0.0103386,1168,1751,6.26267,-25.903
-49,-727,6.25488,25.9974,0.000454392,0.00297017,0.00106084,0.00335778,6.67821e-05,1.22049,0.0022166,0.0133628,1175,1751,6.25485,-25.9974
-42,-727,6.25964,26.1053,0.00117399,0.00321739,0.00138739,0.00391869,0.000472692,1.10278,0.00247002,0.0161,1182,1751,6.25965,-26.1053
-35,-727,6.24573,26.2004,0.00154893,0.00287042,0.00153171,0.00387782,0.000541532,0.989028,0.00242494,0.0146909,1189,1751,6.24575,-26.2005
-28,-727,6.24048,26.2908,0.00170113,0.00272208,0.00152203,0.00381697,0.000606248,0.947199,0.00236857,0.00884214,1196,1751,6.24052,-26.2908
-21,-727,6.24023,26.392,0.00179564,0.00271531,0.00159499,0.00391542,0.00059552,0.925742,0.00243616,0.00953044,1203,1751,6.24025,-26.392
-14,-727,6.24744,26.4714,0.00187141,0.00316478,0.00179959,0.00443035,0.000605839,0.957889,0.00277376,0.0113636,1210,1751,6.24748,-26.4714
-7,-727,6.24377,26.5582,0.00183167,0.00368398,0.00193172,0.00490009,0.000615565,1.00893,0.0030821,0.0150592,1217,1751,6.24383,-26.5582
0,-727,6.2478,26.6288,0.00179758,0.00451597,0.00203883,0.00560713,0.000706417,1.0794,0.00352628,0.014329,1224,1751,6.24776,-26.6288
7,-727,6.23914,26.6595,0.00172955,0.00540692,0.00216313,0.00640723,0.000729242,1.13765,0.00405035,0.0138832,1231,1751,6.23912,-26.6596
14,-727,6.23743,26.7021,0.00158406,0.00628557,0.00223769,0.00718033,0.00068931,1.19041,0.00457446,0.0139471,1238,1751,6.23737,-26.7022
21,-727,6.22729,26.7719,0.00144863,0.00699309,0.00224507,0.00778815,0.000653563,1.23044,0.00498854,0.0118836,1245,1751,6.2273,-26.7719
28,-727,6.23401,26.8177,0.00126657,0.00747424,0.00223118,0.00819296,0.000547845,1.25916,0.00528883,0.011011,1252,1751,6.234,-26.8178
35,-727,6.24048,26.8586,0.00109491,0.00765215,0.00214462,0.00829128,0.000455783,1.28116,0.00538203,0.0117393,1259,1751,6.24044,-26.8587
42,-727,6.22205,26.8718,0.000939679,0.00744079,0.00193589,0.00797359,0.000406877,1.30222,0.00518542,0.0120181,1266,1751,6.22207,-26.8718
49,-727,6.21924,26.8855,0.00080326,0.00701873,0.00169105,0.00744903,0.000372964,1.32163,0.00484648,0.0102886,1273,1751,6.2192,-26.8855
56,-727,6.22485,26.9336,0.000399007,0.00633405,0.00132477,0.00661633,0.00011673,1.36086,0.00437249,0.00857039,1280,1751,6.22486,-26.9336
63,-727,6.23743,26.9397,-5.74009e-05,0.00560045,0.00102353,0.00577992,-0.000236869,1.39722,0.00393461,0.0104792,1287,1751,6.23739,-26.9397
70,-727,6.25769,26.9308,-0.000395433,0.00483669,0.000767658,0.004947,-0.000505738,1.42808,0.00347885,0.0123176,1294,1751,6.25772,-26.9308
77,-727,6.26794,26.9749,-0.000699458,0.00394165,0.000595323,0.00401679,-0.000774604,1.44523,0.00296993,0.0147021,1301,1751,6.26796,-26.9749
84,-727,6.24048,26.9359,-0.00117294,0.00300823,0.000351213,0.00303752,-0.00120223,1.48757,0.00252311,0.0155818,1308,1751,6.24046,-26.9359
91,-727,6.22485,26.8893,-0.00160811,0.00201489,0.000178291,0.00202364,-0.00161686,1.52174,0.00210621,0.0156856,1315,1751,6.22491,-26.8893
98,-727,6.23804,26.9058,-0.00183401,0.00133201,8.74643e-05,0.00133442,-0.00183643,1.5432,0.00183832,0.0133078,1322,1751,6.23808,-26.9058
105,-727,6.25317,26.88,-0.0021511,0.000803378,4.03326e-05,0.000803928,-0.00215165,1.55715,0.00176455,0.0130217,1329,1751,6.25321,-26.88
112,-727,6.25537,26.8628,-0.00229712,0.000348297,-4.43857e-05,0.000349041,-0.00229786,-1.55402,0.00166053,0.0114087,1336,1751,6.25541,-26.8628
119,-727,6.25647,26.8385,-0.0022754,-4.75394e-05,-0.000108763,-4.22422e-05,-0.0022807,-1.52213,0.00150658,0.00864355,1343,1751,6.25653,-26.8385
126,-727,6.2627,26.7866,-0.00213405,-0.000290948,-0.00013337,-0.000281347,-0.00214365,-1.49893,0.00134516,0.0104324,1350,1751,6.26264,-26.7866
133,-727,6.27148,26.7278,-0.00188688,-0.000403179,-0.000192604,-0.000378584,-0.00191148,-1.44379,0.00116874,0.0154942,1357,1751,6.27154,-26.7278
140,-727,6.28088,26.6827,-0.00161686,-0.000389483,-0.000258307,-0.000337336,-0.00166901,-1.3716,0.00101901,0.0212297,1364,1751,6.28085,-26.6828
147,-727,6.26599,26.631,-0.0013682,-0.000352326,-0.000313596,-0.000263319,-0.00145721,-1.29424,0.000896683,0.0178138,1371,1751,6.266,-26.631
154,-727,6.25879,26.5559,-0.00114316,-0.000321739,-0.000392708,-0.000164203,-0.00130069,-1.1893,0.000817906,0.0109155,1378,1751,6.25878,-26.5559
161,-727,6.25903,26.4857,-0.00079025,-0.000319806,-0.00045221,-4.53001e-05,-0.00106476,-1.02522,0.00069523,0.00890791,1385,1751,6.25902,-26.4857
168,-727,6.23816,26.4153,-0.000404165,-0.000320104,-0.0005999,0.000239236,-0.000963505,-0.820372,0.000735174,0.0111199,1392,1751,6.23811,-26.4153
175,-727,6.26062,26.3304,-0.000127985,7.18922e-05,-0.000671708,0.000651056,-0.000707149,-0.859248,0.000784383,0.0158617,1399,1751,6.26058,-26.3304
182,-727,6.26636,26.2563,-0.000230463,0.000393786,-0.000770126,0.000912634,-0.000749311,-0.977927,0.000961067,0.0189458,1406,1751,6.26633,-26.2563
189,-727,6.22717,26.1484,-0.000267145,0.000488775,-0.000642264,0.000856038,-0.000634408,-1.05135,0.000863675,0.0117021,1413,1751,6.22722,-26.1484
196,-727,6.2251,26.0298,-0.000458103,0.000695383,-0.000693536,0.00102065,-0.000783372,-1.13225,0.00104455,0.0130963,1420,1751,6.22514,-26.0298
203,-727,6.18372,25.9133,-0.000827082,0.0016505,-0.000732698,0.00185097,-0.00102754,-1.30374,0.00168442,0.0167589,1427,1751,6.18372,-25.9133
210,-727,6.16907,25.829,-0.000530114,0.00196833,-0.000817517,0.00221205,-0.000773839,-1.28106,0.00178932,0.0159492,1434,1751,6.16907,-25.8289
217,-727,6.19446,25.7136,-0.000114796,0.00201101,-0.00104091,0.00243581,-0.000539595,-1.18332,0.00183044,0.0111246,1441,1751,6.19444,-25.7136
224,-727,6.18835,25.5596,0.000197636,0.00200738,-0.00128631,0.0026752,-0.000470193,-1.09192,0.0019591,0.0117696,1448,1751,6.1883,-25.5596
231,-727,6.16785,25.4432,0.000484311,0.0018758,-0.00156593,0.00289359,-0.000533482,-0.99445,0.00212928,0.00990476,1455,1751,6.16781,-25.4432
238,-727,6.1604,25.3125,0.000935972,0.00170542,-0.00184031,0.00320079,-0.000559396,-0.888441,0.00234269,0.0102686,1462,1751,6.16043,-25.3124
245,-727,6.14404,25.1913,0.00152876,0.00166466,-0.00222484,0.00382259,-0.000629161,-0.800665,0.00278193,0.00958351,1469,1751,6.14404,-25.1913
252,-727,6.13757,25.0576,0.00201076,0.00172593,-0.00266829,0.00454043,-0.00080374,-0.758736,0.00332738,0.0104062,1476,1751,6.13753,-25.0576
259,-727,6.15906,24.9027,0.00238314,0.0019441,-0.00309093,0.00526234,-0.000935096,-0.749947,0.00385789,0.0146691,1483,1751,6.15904,-24.9028
266,-727,6.18225,24.7985,0.0026886,0.00258987,-0.00364161,0.00628119,-0.00100271,-0.778621,0.0045586,0.0226599,1490,1751,6.1823,-24.7985
273,-727,6.26819,24.6813,0.00290398,0.00365179,-0.00406589,0.00736093,-0.000805161,-0.83125,0.00519651,0.040903,1497,1751,6.2682,-24.6813
280,-727,5.93787,24.5007,0,0,0,0,0,0,0,-1,1504,1751,5.93782,-24.5007
287,-727,5.81055,24.144,0,0,0,0,0,0,0,-1,1511,1751,5.81056,-24.144
294,-727,6.0332,23.723,0,0,0,0,0,0,0,-1,1518,1751,6.03324,-23.7231
301,-727,6.16553,23.7616,0,0,0,0,0,0,0,-1,1525,1751,6.16556,-23.7616
308,-727,5.96826,23.6031,0,0,0,0,0,0,0,-1,1532,1751,5.9683,-23.6031
315,-727,6.0686,23.1156,0,0,0,0,0,0,0,-1,1539,1751,6.06862,-23.1157
322,-727,5.75818,18.2477,0,0,0,0,0,0,0,-1,1546,1751,5.75815,-18.2477
329,-727,6.61853,11.6267,0,0,0,0,0,0,0,-1,1553,1751,6.61859,-11.6267
336,-727,5.55823,20.2439,0,0,0,0,0,0,0,-1,1560,1751,5.55829,-20.2438
343,-727,2.41699,8.72095,0,0,0,0,0,0,0,-1,1567,1751,2.41702,-8.72098
350,-727,3.89783,7.50195,0,0,0,0,0,0,0,-1,1574,1751,3.89782,-7.50193
357,-727,4.48462,10.2948,0,0,0,0,0,0,0,-1,1581,1751,4.48464,-10.2948
364,-727,6.96729,17.2365,0,0,0,0,0,0,0,-1,1588,1751,6.96732,-17.2365
371,-727,6.06628,16.4799,0,0,0,0,0,0,0,-1,1595,1751,6.06631,-16.4798
378,-727,6.43652,17.5544,0,0,0,0,0,0,0,-1,1602,1751,6.43657,-17.5545
385,-727,3.19275,14.7679,0,0,0,0,0,0,0,-1,1609,1751,3.19274,-14.768
392,-727,0,0,0,0,0,0,0,0,0,-1,1616,1751,0,0
399,-727,0,0,0,0,0,0,0,0,0,-1,1623,1751,0,0
406,-727,0,0,0,0,0,0,0,0,0,-1,1630,1751,0,0
413,-727,0,0,0,0,0,0,0,0,0,-1,1637,1751,0,0
420,-727,0,0,0,0,0,0,0,0,0,-1,1644,1751,0,0
427,-727,0,0,0,0,0,0,0,0,0,-1,1651,1751,0,0
434,-727,0,0,0,0,0,0,0,0,0,-1,1658,1751,0,0
441,-727,0,0,0,0,0,0,0,0,0,-1,1665,1751,0,0
448,-727,0,0,0,0,0,0,0,0,0,-1,1672,1751,0,0
455,-727,0,0,0,0,0,0,0,0,0,-1,1679,1751,0,0
462,-727,0,0,0,0,0,0,0,0,0,-1,1686,1751,0,0
469,-727,0,0,0,0,0,0,0,0,0,-1,1693,1751,0,0
476,-727,0,0,0,0,0,0,0,0,0,-1,1700,1751,0,0
483,-727,0,0,0,0,0,0,0,0,0,-1,1707,1751,0,0
490,-727,0,0,0,0,0,0,0,0,0,-1,1714,1751,0,0
497,-727,0,0,0,0,0,0,0,0,0,-1,1721,1751,0,0
504,-727,0,0,0,0,0,0,0,0,0,-1,1728,1751,0,0
511,-727,0,0,0,0,0,0,0,0,0,-1,1735,1751,0,0
518,-727,0,0,0,0,0,0,0,0,0,-1,1742,1751,0,0
525,-727,0,0,0,0,0,0,0,0,0,-1,1749,1751,0,0
532,-727,0,0,0,0,0,0,0,0,0,-1,1756,1751,0,0
539,-727,0,0,0,0,0,0,0,0,0,-1,1763,1751,0,0
546,-727,0,0,0,0,0,0,0,0,0,-1,1770,1751,0,0
553,-727,0,0,0,0,0,0,0,0,0,-1,1777,1751,0,0
560,-727,0,0,0,0,0,0,0,0,0,-1,1784,1751,0,0
567,-727,0,0,0,0,0,0,0,0,0,-1,1791,1751,0,0
574,-727,0,0,0,0,0,0,0,0,0,-1,1798,1751,0,0
581,-727,0,0,0,0,0,0,0,0,0,-1,1805,1751,0,0
588,-727,0,0,0,0,0,0,0,0,0,-1,1812,1751,0,0
595,-727,0,0,0,0,0,0,0,0,0,-1,1819,1751,0,0
602,-727,0,0,0,0,0,0,0,0,0,-1,1826,1751,0,0
609,-727,0,0,0,0,0,0,0,0,0,-1,1833,1751,0,0
616,-727,0,0,0,0,0,0,0,0,0,-1,1840,1751,0,0
623,-727,0,0,0,0,0,0,0,0,0,-1,1847,1751,0,0
630,-727,0,0,0,0,0,0,0,0,0,-1,1854,1751,0,0
637,-727,0,0,0,0,0,0,0,0,0,-1,1861,1751,0,0
644,-727,0,0,0,0,0,0,0,0,0,-1,1868,1751,0,0
651,-727,0,0,0,0,0,0,0,0,0,-1,1875,1751,0,0
658,-727,0,0,0,0,0,0,0,0,0,-1,1882,1751,0,0
665,-727,0,0,0,0,0,0,0,0,0,-1,1889,1751,0,0
672,-727,0,0,0,0,0,0,0,0,0,-1,1896,1751,0,0
679,-727,0,0,0,0,0,0,0,0,0,-1,1903,1751,0,0
686,-727,0,0,0,0,0,0,0,0,0,-1,1910,1751,0,0
693,-727,0,0,0,0,0,0,0,0,0,-1,1917,1751,0,0
700,-727,0,0,0,0,0,0,0,0,0,-1,1924,1751,0,0
707,-727,0,0,0,0,0,0,0,0,0,-1,1931,1751,0,0
714,-727,0,0,0,0,0,0,0,0,0,-1,1938,1751,0,0
721,-727,0,0,0,0,0,0,0,0,0,-1,1945,1751,0,0
728,-727,0,0,0,0,0,0,0,0,0,-1,1952,1751,0,0
735,-727,0,0,0,0,0,0,0,0,0,-1,1959,1751,0,0
742,-727,0,0,0,0,0,0,0,0,0,-1,1966,1751,0,0
749,-727,0,0,0,0,0,0,0,0,0,-1,1973,1751,0,0
756,-727,0,0,0,0,0,0,0,0,0,-1,1980,1751,0,0
763,-727,0,0,0,0,0,0,0,0,0,-1,1987,1751,0,0
770,-727,0,0,0,0,0,0,0,0,0,-1,1994,1751,0,0
777,-727,0,0,0,0,0,0,0,0,0,-1,2001,1751,0,0
784,-727,0,0,0,0,0,0,0,0,0,-1,2008,1751,0,0
791,-727,0,0,0,0,0,0,0,0,0,-1,2015,1751,0,0
798,-727,0,0,0,0,0,0,0,0,0,-1,2022,1751,0,0
805,-727,0,0,0,0,0,0,0,0,0,-1,2029,1751,0,0
812,-727,0,0,0,0,0,0,0,0,0,-1,2036,1751,0,0
-700,-734,0,0,0,0,0,0,0,0,0,-1,524,1758,0,0
-693,-734,0,0,0,0,0,0,0,0,0,-1,531,1758,0,0
-686,-734,0,0,0,0,0,0,0,0,0,-1,538,1758,0,0
-679,-734,0,0,0,0,0,0,0,0,0,-1,545,1758,0,0
-672,-734,0,0,0,0,0,0,0,0,0,-1,552,1758,0,0
-665,-734,0,0,0,0,0,0,0,0,0,-1,559,1758,0,0
-658,-734,0,0,0,0,0,0,0,0,0,-1,566,1758,0,0
-651,-734,0,0,0,0,0,0,0,0,0,-1,573,1758,0,0
-644,-734,0,0,0,0,0,0,0,0,0,-1,580,1758,0,0
-637,-734,0,0,0,0,0,0,0,0,0,-1,587,1758,0,0
-630,-734,0,0,0,0,0,0,0,0,0,-1,594,1758,0,0
-623,-734,0,0,0,0,0,0,0,0,0,-1,601,1758,0,0
-616,-734,0,0,0,0,0,0,0,0,0,-1,608,1758,0,0
-609,-734,0,0,0,0,0,0,0,0,0,-1,615,1758,0,0
-602,-734,0,0,0,0,0,0,0,0,0,-1,622,1758,0,0
-595,-734,0,0,0,0,0,0,0,0,0,-1,629,1758,0,0
-588,-734,0,0,0,0,0,0,0,0,0,-1,636,1758,0,0
-581,-734,0,0,0,0,0,0,0,0,0,-1,643,1758,0,0
-574,-734,0,0,0,0,0,0,0,0,0,-1,650,1758,0,0
-567,-734,0,0,0,0,0,0,0,0,0,-1,657,1758,0,0
-560,-734,0,0,0,0,0,0,0,0,0,-1,664,1758,0,0
-553,-734,0,0,0,0,0,0,0,0,0,-1,671,1758,0,0
-546,-734,0,0,0,0,0,0,0,0,0,-1,678,1758,0,0
-539,-734,0,0,0,0,0,0,0,0,0,-1,685,1758,0,0
-532,-734,0,0,0,0,0,0,0,0,0,-1,692,1758,0,0
-525,-734,0,0,0,0,0,0,0,0,0,-1,699,1758,0,0
-518,-734,0,0,0,0,0,0,0,0,0,-1,706,1758,0,0
-511,-734,0,0,0,0,0,0,0,0,0,-1,713,1758,0,0
-504,-734,0,0,0,0,0,0,0,0,0,-1,720,1758,0,0
-497,-734,0,0,0,0,0,0,0,0,0,-1,727,1758,0,0
-490,-734,0,0,0,0,0,0,0,0,0,-1,734,1758,0,0
-483,-734,0,0,0,0,0,0,0,0,0,-1,741,1758,0,0
-476,-734,0,0,0,0,0,0,0,0,0,-1,748,1758,0,0
-469,-734,0,0,0,0,0,0,0,0,0,-1,755,1758,0,0
-462,-734,0,0,0,0,0,0,0,0,0,-1,762,1758,0,0
-455,-734,0,0,0,0,0,0,0,0,0,-1,769,1758,0,0
-448,-734,0,0,0,0,0,0,0,0,0,-1,776,1758,0,0
-441,-734,0,0,0,0,0,0,0,0,0,-1,783,1758,0,0
-434,-734,0,0,0,0,0,0,0,0,0,-1,790,1758,0,0
-427,-734,0,0,0,0,0,0,0,0,0,-1,797,1758,0,0
-420,-734,0,0,0,0,0,0,0,0,0,-1,804,1758,0,0
-413,-734,0,0,0,0,0,0,0,0,0,-1,811,1758,0,0
-406,-734,0,0,0,0,0,0,0,0,0,-1,818,1758,0,0
-399,-734,0,0,0,0,0,0,0,0,0,-1,825,1758,0,0
-392,-734,0,0,0,0,0,0,0,0,0,-1,832,1758,0,0
-385,-734,0,0,0,0,0,0,0,0,0,-1,839,1758,0,0
-378,-734,0,0,0,0,0,0,0,0,0,-1,846,1758,0,0
-371,-734,0,0,0,0,0,0,0,0,0,-1,853,1758,0,0
-364,-734,0,0,0,0,0,0,0,0,0,-1,860,1758,0,0
-357,-734,0,0,0,0,0,0,0,0,0,-1,867,1758,0,0
-350,-734,0,0,0,0,0,0,0,0,0,-1,874,1758,0,0
-343,-734,0,0,0,0,0,0,0,0,0,-1,881,1758,0,0
-336,-734,0,0,0,0,0,0,0,0,0,-1,888,1758,0,0
-329,-734,0,0,0,0,0,0,0,0,0,-1,895,1758,0,0
-322,-734,0,0,0,0,0,0,0,0,0,-1,902,1758,0,0
-315,-734,0,0,0,0,0,0,0,0,0,-1,909,1758,0,0
-308,-734,0,0,0,0,0,0,0,0,0,-1,916,1758,0,0
-301,-734,0,0,0,0,0,0,0,0,0,-1,923,1758,0,0
-294,-734,0,0,0,0,0,0,0,0,0,-1,930,1758,0,0
-287,-734,0,0,0,0,0,0,0,0,0,-1,937,1758,0,0
-280,-734,0,0,0,0,0,0,0,0,0,-1,944,1758,0,0
-273,-734,0,0,0,0,0,0,0,0,0,-1,951,1758,0,0
-266,-734,0,0,0,0,0,0,0,0,0,-1,958,1758,0,0
-259,-734,0,0,0,0,0,0,0,0,0,-1,965,1758,0,0
-252,-734,6.93439,18.351,0,0,0,0,0,0,0,-1,972,1758,6.93438,-18.3509
-245,-734,6.95746,19.5341,0,0,0,0,0,0,0,-1,979,1758,6.95746,-19.5341
-238,-734,6.69128,15.3165,0,0,0,0,0,0,0,-1,986,1758,6.69128,-15.3166
-231,-734,7.35022,15.5492,0,0,0,0,0,0,0,-1,993,1758,7.3502,-15.5492
-224,-734,7.4632,15.9962,0,0,0,0,0,0,0,-1,1000,1758,7.46319,-15.9962
-217,-734,7.54193,16.1692,0,0,0,0,0,0,0,-1,1007,1758,7.54194,-16.1691
-210,-734,7.62262,16.1628,0,0,0,0,0,0,0,-1,1014,1758,7.6226,-16.1628
-203,-734,5.32764,21.4656,0,0,0,0,0,0,0,-1,1021,1758,5.32762,-21.4655
-196,-734,6.00171,20.7645,0,0,0,0,0,0,0,-1,1028,1758,6.00166,-20.7645
-189,-734,4.57532,20.3475,0,0,0,0,0,0,0,-1,1035,1758,4.57528,-20.3475
-182,-734,4.26477,21.6147,0,0,0,0,0,0,0,-1,1042,1758,4.26481,-21.6147
-175,-734,3.95435,22.882,0,0,0,0,0,0,0,-1,1049,1758,3.95434,-22.8819
-168,-734,4.50208,15.4194,0,0,0,0,0,0,0,-1,1056,1758,4.50212,-15.4194
-161,-734,6.17456,21.793,0,0,0,0,0,0,0,-1,1063,1758,6.1746,-21.7929
-154,-734,5.93884,23.6278,0,0,0,0,0,0,0,-1,1070,1758,5.93889,-23.6278
-147,-734,6.29407,23.8586,0.00399505,-0.00200204,0.00590779,0.0076217,-0.0056287,0.550561,0.00767891,0.0465173,1077,1758,6.29404,-23.8587
-140,-734,6.57104,24.0574,0.00541867,0.0073753,0.00853949,0.0149923,-0.00219836,0.842431,0.0108025,0.0430874,1084,1758,6.57102,-24.0574
-133,-734,6.6958,24.2288,0.0033677,0.00723987,0.00653979,0.0121241,-0.00151657,0.929311,0.0086328,0.0432039,1091,1758,6.69576,-24.2288
-126,-734,6.45117,24.4388,0.00140917,0.00596038,0.00442813,0.0086634,-0.00129385,1.02275,0.00625168,0.039062,1098,1758,6.45114,-24.4388
-119,-734,6.39697,24.6344,-2.76388e-05,0.00624097,0.00315085,0.00755095,-0.00133763,1.17678,0.005534,0.0375042,1105,1758,6.39692,-24.6344
-112,-734,6.52087,24.8003,-0.000853318,0.00645562,0.00239621,0.00717116,-0.00156886,1.28061,0.00538052,0.0304093,1112,1758,6.52093,-24.8003
-105,-734,6.48523,24.9729,-0.0013845,0.00625181,0.00187762,0.00668851,-0.0018212,1.34228,0.00517404,0.0237695,1119,1758,6.48521,-24.9729
-98,-734,6.48926,25.0776,-0.00178171,0.00603647,0.00155874,0.00633578,-0.00208102,1.38108,0.00506217,0.0254169,1126,1758,6.48927,-25.0777
-91,-734,6.45618,25.1943,-0.00222523,0.00547275,0.00104661,0.00561251,-0.00236499,1.43805,0.00473131,0.0287851,1133,1758,6.45622,-25.1943
-84,-734,6.4137,25.3766,-0.0024761,0.00502618,0.00102148,0.00516277,-0.00261269,1.43786,0.00456893,0.0218446,1140,1758,6.41369,-25.3765
-77,-734,6.39795,25.5422,-0.00227631,0.00421717,0.000986416,0.00436371,-0.00242285,1.42332,0.00397127,0.0182303,1147,1758,6.39791,-25.5423
-70,-734,6.34888,25.5836,-0.00197283,0.00342597,0.000729592,0.00352283,-0.00206969,1.43881,0.00326497,0.016237,1154,1758,6.34894,-25.5836
-63,-734,6.34802,25.6733,-4.83985e-05,0.00373731,0.00136381,0.00417746,-0.000488541,1.25862,0.00296128,0.0158664,1161,1758,6.34801,-25.6734
-56,-734,6.38147,25.9039,0.00174226,0.00415255,0.00158181,0.004936,0.000958814,1.11093,0.00302219,0.013392,1168,1758,6.38146,-25.904
-49,-734,6.35693,26.0205,0.0035438,0.00497109,0.00224452,0.00661268,0.00190221,0.939319,0.00393092,0.0123611,1175,1758,6.35699,-26.0205
-42,-734,6.33032,26.1238,0.00483606,0.00561527,0.00287877,0.00813068,0.00232065,0.852658,0.0048362,0.0136756,1182,1758,6.33035,-26.1238
-35,-734,6.32959,26.1998,0.00536633,0.00531114,0.00319388,0.00853273,0.00214474,0.781078,0.0051254,0.0137714,1189,1758,6.32962,-26.1998
-28,-734,6.32202,26.2958,0.00542827,0.00515312,0.00307471,0.00836848,0.00221291,0.763041,0.0050071,0.00954086,1196,1758,6.32198,-26.2958
-21,-734,6.34485,26.3997,0.00537159,0.00488244,0.00310481,0.00824144,0.00201259,0.746092,0.00496141,0.0142494,1203,1758,6.3448,-26.3996
-14,-734,6.32544,26.4772,0.00516627,0.00519953,0.00323758,0.00842052,0.00194528,0.787966,0.00509069,0.0150083,1210,1758,6.32545,-26.4771
-7,-734,6.34119,26.5413,0.00475625,0.00513707,0.00328618,0.00823835,0.00165497,0.814337,0.00503213,0.01693,1217,1758,6.34114,-26.5413
0,-734,6.31921,26.611,0.00426602,0.00523576,0.00328607,0.00807254,0.00142925,0.858646,0.0049742,0.0158662,1224,1758,6.31917,-26.6109
7,-734,6.2782,26.6661,0.00371488,0.00536718,0.00321961,0.00786495,0.00121711,0.910988,0.00488836,0.0124746,1231,1758,6.27819,-26.6661
14,-734,6.26575,26.7089,0.00295444,0.00556041,0.00309512,0.00761563,0.000899218,0.984629,0.00480547,0.0130228,1238,1758,6.26575,-26.7088
21,-734,6.2533,26.7662,0.00214556,0.00572272,0.00290504,0.00734563,0.000522652,1.06133,0.0047325,0.0112142,1245,1758,6.25336,-26.7662
28,-734,6.26465,26.8169,0.00126772,0.00581749,0.00272533,0.0070926,-7.39563e-06,1.13318,0.00473087,0.0106255,1252,1758,6.26468,-26.8169
35,-734,6.25684,26.8722,0.000379887,0.00573972,0.00250524,0.00672834,-0.000608733,1.19494,0.00470162,0.0133282,1259,1758,6.2568,-26.8722
42,-734,6.25415,26.8796,-0.000668799,0.00549966,0.00212468,0.00616066,-0.0013298,1.26918,0.00461468,0.0113602,1266,1758,6.2542,-26.8797
49,-734,6.24072,26.8917,-0.00166813,0.00520583,0.00176438,0.00563225,-0.00209455,1.33366,0.0046143,0.00941838,1273,1758,6.24072,-26.8917
56,-734,6.24402,26.9174,-0.00289935,0.00473889,0.00124594,0.00493699,-0.00309745,1.41312,0.00467904,0.00887898,1280,1758,6.24405,-26.9174
63,-734,6.24329,26.9199,-0.00417681,0.0042617,0.000824071,0.00434142,-0.00425653,1.47435,0.00496411,0.0120327,1287,1758,6.24325,-26.9199
70,-734,6.22766,26.9266,-0.00525092,0.00392614,0.000505772,0.00395393,-0.00527871,1.51591,0.00534873,0.0127549,1294,1758,6.22771,-26.9266
77,-734,6.25061,26.9761,-0.00617788,0.00337457,0.000313305,0.00338483,-0.00618814,1.53804,0.00560539,0.0172752,1301,1758,6.25062,-26.976
84,-734,6.22424,26.9468,-0.00716771,0.00279764,-3.3605e-05,0.00279775,-0.00716782,-1.56742,0.00593516,0.0165496,1308,1758,6.22418,-26.9467
91,-734,6.23755,26.9054,-0.00794872,0.00187887,-0.000315597,0.001889,-0.00795885,-1.53873,0.00603493,0.016657,1315,1758,6.2375,-26.9054
98,-734,6.24878,26.9137,-0.00825577,0.00143145,-0.000502629,0.00145746,-0.00828178,-1.5191,0.00606566,0.0131599,1322,1758,6.24882,-26.9137
105,-734,6.25037,26.8855,-0.00858791,0.00108114,-0.000637659,0.00112302,-0.00862978,-1.50523,0.00616173,0.0149057,1329,1758,6.25037,-26.8855
112,-734,6.24646,26.8442,-0.00867427,0.000687713,-0.000759075,0.000748861,-0.00873542,-1.49042,0.0060886,0.0129757,1336,1758,6.24651,-26.8443
119,-734,6.23853,26.8043,-0.00843681,0.000245775,-0.000899001,0.000337881,-0.00852892,-1.4687,0.00580185,0.0128756,1343,1758,6.23852,-26.8043
126,-734,6.23853,26.7615,-0.00801009,-7.87787e-05,-0.000988129,4.24744e-05,-0.00813134,-1.4487,0.00543511,0.0151168,1350,1758,6.23854,-26.7614
133,-734,6.22839,26.7067,-0.0074566,-0.000277324,-0.00110199,-0.000111982,-0.00762194,-1.42187,0.00504438,0.0137307,1357,1758,6.22838,-26.7067
140,-734,6.22949,26.6552,-0.00688951,-0.0003525,-0.00119796,-0.000139879,-0.00710213,-1.39514,0.00468882,0.0178489,1364,1758,6.2295,-26.6551
147,-734,6.22021,26.6002,-0.00633409,-0.000451208,-0.00122701,-0.000205545,-0.00657975,-1.3732,0.00431962,0.0135062,1371,1758,6.22018,-26.6002
154,-734,6.19958,26.5675,-0.00584259,-0.000570079,-0.00126716,-0.000281349,-0.00613132,-1.34677,0.00399707,0.00958426,1378,1758,6.19964,-26.5675
161,-734,6.18677,26.4974,-0.00511777,-0.000687567,-0.00128225,-0.000343207,-0.00546213,-1.30843,0.00353258,0.00885753,1385,1758,6.1868,-26.4975
168,-734,6.14258,26.406,-0.00420021,-0.000745191,-0.00143282,-0.000228313,-0.00471708,-1.22459,0.00307145,0.0139495,1392,1758,6.14262,-26.406
175,-734,6.15173,26.3137,-0.00313301,-0.000173597,-0.00147357,0.000434981,-0.00374159,-1.17914,0.00265131,0.0166282,1399,1758,6.15179,-26.3137
182,-734,6.18164,26.2217,-0.00243802,0.000247813,-0.00153355,0.000943329,-0.00313354,-1.14501,0.00246441,0.0147767,1406,1758,6.18168,-26.2216
189,-734,6.14294,26.1394,-0.00138036,0.000204685,-0.00113135,0.000793479,-0.00196916,-1.09093,0.00164245,0.0105346,1413,1758,6.14294,-26.1394
196,-734,6.12024,26.0513,-0.00059817,0.000594963,-0.00108462,0.00123625,-0.00123946,-1.03683,0.00142935,0.012701,1420,1758,6.12024,-26.0512
203,-734,6.12988,25.9336,-0.00134353,0.00216882,-0.00105851,0.00246316,-0.00163786,-1.29958,0.00238365,0.0147688,1427,1758,6.1299,-25.9335
210,-734,6.11804,25.8171,-0.000883661,0.00267752,-0.00114012,0.00301126,-0.0012174,-1.28603,0.00251357,0.0159389,1434,1758,6.11806,-25.8172
217,-734,6.09668,25.7021,-0.000246306,0.00278989,-0.00139481,0.00333337,-0.00078979,-1.19925,0.00252699,0.0117632,1441,1758,6.09665,-25.7022
224,-734,6.10876,25.5717,0.000203532,0.00282927,-0.00166224,0.00363458,-0.000601778,-1.11965,0.00264655,0.0123603,1448,1758,6.10878,-25.5717
231,-734,6.0719,25.46,0.000636344,0.00268713,-0.00201217,0.00392011,-0.000596638,-1.02105,0.00283331,0.0135731,1455,1758,6.07194,-25.46
238,-734,6.04382,25.3418,0.00127507,0.0024498,-0.00238745,0.00432107,-0.000596209,-0.906014,0.00309863,0.0174367,1462,1758,6.04378,-25.3418
245,-734,6.02832,25.1725,0.00209164,0.00233278,-0.00289629,0.00511101,-0.000686582,-0.806201,0.00365774,0.022356,1469,1758,6.02831,-25.1724
252,-734,6.04126,25.0062,0.00280291,0.00232785,-0.00347643,0.00604991,-0.000919153,-0.751288,0.00437198,0.0280064,1476,1758,6.04122,-25.0062
259,-734,6.14368,24.9525,0.00340245,0.00251028,-0.00403732,0.00701825,-0.00110552,-0.730376,0.00508754,0.037106,1483,1758,6.14367,-24.9525
266,-734,6.31885,24.9437,0.00394606,0.00321284,-0.0047568,0.00835035,-0.00119146,-0.746938,0.00600359,0.0487263,1490,1758,6.31887,-24.9437
273,-734,6.34094,25.0487,0,0,0,0,0,0,0,-1,1497,1758,6.34091,-25.0487
280,-734,16.6191,7.38013,0,0,0,0,0,0,0,-1,1504,1758,16.6192,-7.38011
287,-734,5.35278,23.5217,0,0,0,0,0,0,0,-1,1511,1758,5.35275,-23.5217
294,-734,12.0439,5.7876,0,0,0,0,0,0,0,-1,1518,1758,12.044,-5.78759
301,-734,10.3586,6.69287,0,0,0,0,0,0,0,-1,1525,1758,10.3586,-6.69285
308,-734,9.00854,5.43774,0,0,0,0,0,0,0,-1,1532,1758,9.00857,-5.4377
315,-734,5.3158,17.4298,0,0,0,0,0,0,0,-1,1539,1758,5.31581,-17.4299
322,-734,9.85913,7.48096,0,0,0,0,0,0,0,-1,1546,1758,9.85916,-7.48098
329,-734,5.45972,12.4125,0,0,0,0,0,0,0,-1,1553,1758,5.45969,-12.4125
336,-734,5.92188,13.8751,0,0,0,0,0,0,0,-1,1560,1758,5.92183,-13.8751
343,-734,5.54968,5.14221,0,0,0,0,0,0,0,-1,1567,1758,5.54973,-5.14225
350,-734,5.07397,6.73242,0,0,0,0,0,0,0,-1,1574,1758,5.07402,-6.73243
357,-734,5.05542,7.19189,0,0,0,0,0,0,0,-1,1581,1758,5.05541,-7.19184
364,-734,4.43896,10.4904,0,0,0,0,0,0,0,-1,1588,1758,4.43893,-10.4904
371,-734,7.36975,17.4751,0,0,0,0,0,0,0,-1,1595,1758,7.36972,-17.4752
378,-734,0,0,0,0,0,0,0,0,0,-1,1602,1758,0,0
385,-734,0,0,0,0,0,0,0,0,0,-1,1609,1758,0,0
392,-734,0,0,0,0,0,0,0,0,0,-1,1616,1758,0,0
399,-734,0,0,0,0,0,0,0,0,0,-1,1623,1758,0,0
406,-734,0,0,0,0,0,0,0,0,0,-1,1630,1758,0,0
413,-734,0,0,0,0,0,0,0,0,0,-1,1637,1758,0,0
420,-734,0,0,0,0,0,0,0,0,0,-1,1644,1758,0,0
427,-734,0,0,0,0,0,0,0,0,0,-1,1651,1758,0,0
434,-734,0,0,0,0,0,0,0,0,0,-1,1658,1758,0,0
441,-734,0,0,0,0,0,0,0,0,0,-1,1665,1758,0,0
448,-734,0,0,0,0,0,0,0,0,0,-1,1672,1758,0,0
455,-734,0,0,0,0,0,0,0,0,0,-1,1679,1758,0,0
462,-734,0,0,0,0,0,0,0,0,0,-1,1686,1758,0,0
469,-734,0,0,0,0,0,0,0,0,0,-1,1693,1758,0,0
476,-734,0,0,0,0,0,0,0,0,0,-1,1700,1758,0,0
483,-734,0,0,0,0,0,0,0,0,0,-1,1707,1758,0,0
490,-734,0,0,0,0,0,0,0,0,0,-1,1714,1758,0,0
497,-734,0,0,0,0,0,0,0,0,0,-1,1721,1758,0,0
504,-734,0,0,0,0,0,0,0,0,0,-1,1728,1758,0,0
511,-734,0,0,0,0,0,0,0,0,0,-1,1735,1758,0,0
518,-734,0,0,0,0,0,0,0,0,0,-1,1742,1758,0,0
525,-734,0,0,0,0,0,0,0,0,0,-1,1749,1758,0,0
532,-734,0,0,0,0,0,0,0,0,0,-1,1756,1758,0,0
539,-734,0,0,0,0,0,0,0,0,0,-1,1763,1758,0,0
546,-734,0,0,0,0,0,0,0,0,0,-1,1770,1758,0,0
553,-734,0,0,0,0,0,0,0,0,0,-1,1777,1758,0,0
560,-734,0,0,0,0,0,0,0,0,0,-1,1784,1758,0,0
567,-734,0,0,0,0,0,0,0,0,0,-1,1791,1758,0,0
574,-734,0,0,0,0,0,0,0,0,0,-1,1798,1758,0,0
581,-734,0,0,0,0,0,0,0,0,0,-1,1805,1758,0,0
588,-734,0,0,0,0,0,0,0,0,0,-1,1812,1758,0,0
595,-734,0,0,0,0,0,0,0,0,0,-1,1819,1758,0,0
602,-734,0,0,0,0,0,0,0,0,0,-1,1826,1758,0,0
609,-734,0,0,0,0,0,0,0,0,0,-1,1833,1758,0,0
616,-734,0,0,0,0,0,0,0,0,0,-1,1840,1758,0,0
623,-734,0,0,0,0,0,0,0,0,0,-1,1847,1758,0,0
630,-734,0,0,0,0,0,0,0,0,0,-1,1854,1758,0,0
637,-734,0,0,0,0,0,0,0,0,0,-1,1861,1758,0,0
644,-734,0,0,0,0,0,0,0,0,0,-1,1868,1758,0,0
651,-734,0,0,0,0,0,0,0,0,0,-1,1875,1758,0,0
658,-734,0,0,0,0,0,0,0,0,0,-1,1882,1758,0,0
665,-734,0,0,0,0,0,0,0,0,0,-1,1889,1758,0,0
672,-734,0,0,0,0,0,0,0,0,0,-1,1896,1758,0,0
679,-734,0,0,0,0,0,0,0,0,0,-1,1903,1758,0,0
686,-734,0,0,0,0,0,0,0,0,0,-1,1910,1758,0,0
693,-734,0,0,0,0,0,0,0,0,0,-1,1917,1758,0,0
700,-734,0,0,0,0,0,0,0,0,0,-1,1924,1758,0,0
707,-734,0,0,0,0,0,0,0,0,0,-1,1931,1758,0,0
714,-734,0,0,0,0,0,0,0,0,0,-1,1938,1758,0,0
721,-734,0,0,0,0,0,0,0,0,0,-1,1945,1758,0,0
728,-734,0,0,0,0,0,0,0,0,0,-1,1952,1758,0,0
735,-734,0,0,0,0,0,0,0,0,0,-1,1959,1758,0,0
742,-734,0,0,0,0,0,0,0,0,0,-1,1966,1758,0,0
749,-734,0,0,0,0,0,0,0,0,0,-1,1973,1758,0,0
756,-734,0,0,0,0,0,0,0,0,0,-1,1980,1758,0,0
763,-734,0,0,0,0,0,0,0,0,0,-1,1987,1758,0,0
770,-734,0,0,0,0,0,0,0,0,0,-1,1994,1758,0,0
777,-734,0,0,0,0,0,0,0,0,0,-1,2001,1758,0,0
784,-734,0,0,0,0,0,0,0,0,0,-1,2008,1758,0,0
791,-734,0,0,0,0,0,0,0,0,0,-1,2015,1758,0,0
798,-734,0,0,0,0,0,0,0,0,0,-1,2022,1758,0,0
805,-734,0,0,0,0,0,0,0,0,0,-1,2029,1758,0,0
812,-734,0,0,0,0,0,0,0,0,0,-1,2036,1758,0,0
-700,-741,0,0,0,0,0,0,0,0,0,-1,524,1765,0,0
-693,-741,0,0,0,0,0,0,0,0,0,-1,531,1765,0,0
-686,-741,0,0,0,0,0,0,0,0,0,-1,538,1765,0,0
-679,-741,0,0,0,0,0,0,0,0,0,-1,545,1765,0,0
-672,-741,0,0,0,0,0,0,0,0,0,-1,552,1765,0,0
-665,-741,0,0,0,0,0,0,0,0,0,-1,559,1765,0,0
-658,-741,0,0,0,0,0,0,0,0,0,-1,566,1765,0,0
-651,-741,0,0,0,0,0,0,0,0,0,-1,573,1765,0,0
-644,-741,0,0,0,0,0,0,0,0,0,-1,580,1765,0,0
-637,-741,0,0,0,0,0,0,0,0,0,-1,587,1765,0,0
-630,-741,0,0,0,0,0,0,0,0,0,-1,594,1765,0,0
-623,-741,0,0,0,0,0,0,0,0,0,-1,601,1765,0,0
-616,-741,0,0,0,0,0,0,0,0,0,-1,608,1765,0,0
-609,-741,0,0,0,0,0,0,0,0,0,-1,615,1765,0,0
-602,-741,0,0,0,0,0,0,0,0,0,-1,622,1765,0,0
-595,-741,0,0,0,0,0,0,0,0,0,-1,629,1765,0,0
-588,-741,0,0,0,0,0,0,0,0,0,-1,636,1765,0,0
-581,-741,0,0,0,0,0,0,0,0,0,-1,643,1765,0,0
-574,-741,0,0,0,0,0,0,0,0,0,-1,650,1765,0,0
-567,-741,0,0,0,0,0,0,0,0,0,-1,657,1765,0,0
-560,-741,0,0,0,0,0,0,0,0,0,-1,664,1765,0,0
-553,-741,0,0,0,0,0,0,0,0,0,-1,671,1765,0,0
-546,-741,0,0,0,0,0,0,0,0,0,-1,678,1765,0,0
-539,-741,0,0,0,0,0,0,0,0,0,-1,685,1765,0,0
-532,-741,0,0,0,0,0,0,0,0,0,-1,692,1765,0,0
-525,-741,0,0,0,0,0,0,0,0,0,-1,699,1765,0,0
-518,-741,0,0,0,0,0,0,0,0,0,-1,706,1765,0,0
-511,-741,0,0,0,0,0,0,0,0,0,-1,713,1765,0,0
-504,-741,0,0,0,0,0,0,0,0,0,-1,720,1765,0,0
-497,-741,0,0,0,0,0,0,0,0,0,-1,727,1765,0,0
-490,-741,0,0,0,0,0,0,0,0,0,-1,734,1765,0,0
-483,-741,0,0,0,0,0,0,0,0,0,-1,741,1765,0,0
-476,-741,0,0,0,0,0,0,0,0,0,-1,748,1765,0,0
-469,-741,0,0,0,0,0,0,0,0,0,-1,755,1765,0,0
-462,-741,0,0,0,0,0,0,0,0,0,-1,762,1765,0,0
-455,-741,0,0,0,0,0,0,0,0,0,-1,769,1765,0,0
-448,-741,0,0,0,0,0,0,0,0,0,-1,776,1765,0,0
-441,-741,0,0,0,0,0,0,0,0,0,-1,783,1765,0,0
-434,-741,0,0,0,0,0,0,0,0,0,-1,790,1765,0,0
-427,-741,0,0,0,0,0,0,0,0,0,-1,797,1765,0,0
-420,-741,0,0,0,0,0,0,0,0,0,-1,804,1765,0,0
-413,-741,0,0,0,0,0,0,0,0,0,-1,811,1765,0,0
-406,-741,0,0,0,0,0,0,0,0,0,-1,818,1765,0,0
-399,-741,0,0,0,0,0,0,0,0,0,-1,825,1765,0,0
-392,-741,0,0,0,0,0,0,0,0,0,-1,832,1765,0,0
-385,-741,0,0,0,0,0,0,0,0,0,-1,839,1765,0,0
-378,-741,0,0,0,0,0,0,0,0,0,-1,846,1765,0,0
-371,-741,0,0,0,0,0,0,0,0,0,-1,853,1765,0,0
-364,-741,0,0,0,0,0,0,0,0,0,-1,860,1765,0,0
-357,-741,0,0,0,0,0,0,0,0,0,-1,867,1765,0,0
-350,-741,0,0,0,0,0,0,0,0,0,-1,874,1765,0,0
-343,-741,0,0,0,0,0,0,0,0,0,-1,881,1765,0,0
-336,-741,0,0,0,0,0,0,0,0,0,-1,888,1765,0,0
-329,-741,0,0,0,0,0,0,0,0,0,-1,895,1765,0,0
-322,-741,0,0,0,0,0,0,0,0,0,-1,902,1765,0,0
-315,-741,0,0,0,0,0,0,0,0,0,-1,909,1765,0,0
-308,-741,0,0,0,0,0,0,0,0,0,-1,916,1765,0,0
-301,-741,0,0,0,0,0,0,0,0,0,-1,923,1765,0,0
-294,-741,0,0,0,0,0,0,0,0,0,-1,930,1765,0,0
-287,-741,0,0,0,0,0,0,0,0,0,-1,937,1765,0,0
-280,-741,0,0,0,0,0,0,0,0,0,-1,944,1765,0,0
-273,-741,0,0,0,0,0,0,0,0,0,-1,951,1765,0,0
-266,-741,0,0,0,0,0,0,0,0,0,-1,958,1765,0,0
-259,-741,0,0,0,0,0,0,0,0,0,-1,965,1765,0,0
-252,-741,0,0,0,0,0,0,0,0,0,-1,972,1765,0,0
-245,-741,0,0,0,0,0,0,0,0,0,-1,979,1765,0,0
-238,-741,5.63202,14.9113,0,0,0,0,0,0,0,-1,986,1765,5.632,-14.9112
-231,-741,6.10602,15.245,0,0,0,0,0,0,0,-1,993,1765,6.10605,-15.245
-224,-741,6.60541,15.9323,0,0,0,0,0,0,0,-1,1000,1765,6.60538,-15.9323
-217,-741,6.99121,16.5245,0,0,0,0,0,0,0,-1,1007,1765,6.99118,-16.5245
-210,-741,5.80957,23.4917,0,0,0,0,0,0,0,-1,1014,1765,5.8096,-23.4917
-203,-741,5.50122,22.6226,-0.0279296,-0.129642,-0.0445931,-0.0111478,-0.146424,-0.359938,0.0941202,0.0437639,1021,1765,5.50125,-22.6225
-196,-741,5.14233,21.7794,-0.022862,-0.120413,-0.0373438,-0.0102079,-0.133067,-0.326713,0.0855123,0.0417431,1028,1765,5.1423,-21.7795
-189,-741,4.28918,20.7313,0,0,0,0,0,0,0,-1,1035,1765,4.28921,-20.7314
-182,-741,3.81775,21.2374,0,0,0,0,0,0,0,-1,1042,1765,3.81779,-21.2375
-175,-741,3.34644,21.7435,0,0,0,0,0,0,0,-1,1049,1765,3.34638,-21.7435
-168,-741,5.4801,16.3933,0,0,0,0,0,0,0,-1,1056,1765,5.4801,-16.3933
-161,-741,3.73047,14.4974,0,0,0,0,0,0,0,-1,1063,1765,3.73043,-14.4974
-154,-741,2.46143,9.75415,0,0,0,0,0,0,0,-1,1070,1765,2.46145,-9.75416
-147,-741,6.29102,23.9431,0,0,0,0,0,0,0,-1,1077,1765,6.29104,-23.9431
-140,-741,6.80176,24.1272,0,0,0,0,0,0,0,-1,1084,1765,6.80182,-24.1272
-133,-741,7.04578,24.3748,0,0,0,0,0,0,0,-1,1091,1765,7.04578,-24.3748
-126,-741,6.5719,24.5071,0,0,0,0,0,0,0,-1,1098,1765,6.57187,-24.507
-119,-741,6.42529,24.5795,0,0,0,0,0,0,0,-1,1105,1765,6.42534,-24.5794
-112,-741,6.69019,24.744,0,0,0,0,0,0,0,-1,1112,1765,6.69024,-24.744
-105,-741,6.70325,24.9038,0,0,0,0,0,0,0,-1,1119,1765,6.70323,-24.9038
-98,-741,6.68921,25.0548,0,0,0,0,0,0,0,-1,1126,1765,6.68922,-25.0548
-91,-741,6.53796,25.0848,0,0,0,0,0,0,0,-1,1133,1765,6.53798,-25.0849
-84,-741,6.44836,25.1312,0,0,0,0,0,0,0,-1,1140,1765,6.44834,-25.1313
-77,-741,6.47864,25.1438,0,0,0,0,0,0,0,-1,1147,1765,6.47869,-25.1439
-70,-741,6.36877,25.2195,0,0,0,0,0,0,0,-1,1154,1765,6.36881,-25.2195
-63,-741,6.32581,25.4547,0,0,0,0,0,0,0,-1,1161,1765,6.3258,-25.4547
-56,-741,6.50781,25.8911,0,0,0,0,0,0,0,-1,1168,1765,6.50785,-25.8912
-49,-741,6.46924,26.0756,0,0,0,0,0,0,0,-1,1175,1765,6.46929,-26.0756
-42,-741,6.41565,26.1309,0,0,0,0,0,0,0,-1,1182,1765,6.41562,-26.1309
-35,-741,6.41846,26.1945,0.0145438,0.0109371,0.00464091,0.0177194,0.0077615,0.600089,0.0102565,0.0231789,1189,1765,6.41844,-26.1944
-28,-741,6.42554,26.3186,0.0141558,0.0107332,0.00440911,0.0171741,0.00771493,0.600285,0.00993247,0.0136863,1196,1765,6.42556,-26.3186
-21,-741,6.4093,26.3972,0.0135195,0.0104172,0.00442911,0.0166612,0.00727547,0.616964,0.00964505,0.0170587,1203,1765,6.40931,-26.3972
-14,-741,6.38831,26.4688,0.012485,0.0107393,0.00453317,0.0162286,0.0069957,0.690288,0.00939921,0.0169693,1210,1765,6.38834,-26.4688
-7,-741,6.39941,26.5282,0.0111505,0.0103656,0.00453247,0.0153075,0.00620864,0.742215,0.00889014,0.0143636,1217,1765,6.39945,-26.5282
0,-741,6.36316,26.5955,0.0094781,0.0100166,0.00449187,0.0142473,0.0052474,0.815331,0.00832022,0.0142175,1224,1765,6.36312,-26.5955
7,-741,6.32495,26.6646,0.00787874,0.00962838,0.00432956,0.0131706,0.0043365,0.885085,0.00775044,0.0163029,1231,1765,6.32498,-26.6645
14,-741,6.31921,26.7207,0.00580775,0.00926054,0.00412257,0.0120036,0.00306469,0.983687,0.00720159,0.0149954,1238,1765,6.31921,-26.7207
21,-741,6.30212,26.7456,0.00362015,0.0088607,0.00383334,0.0108837,0.00159712,1.0852,0.00678638,0.0115947,1245,1765,6.30214,-26.7457
28,-741,6.29565,26.8103,0.00133843,0.00843629,0.00359336,0.00993782,-0.000163107,1.17499,0.00668025,0.011818,1252,1765,6.29568,-26.8103
35,-741,6.28101,26.8533,-0.000943627,0.00783794,0.0033053,0.00894298,-0.00204866,1.24816,0.00674932,0.0138857,1259,1765,6.28106,-26.8532
42,-741,6.28418,26.8668,-0.00364958,0.00723569,0.00281292,0.00791962,-0.00433351,1.33229,0.00717463,0.0143762,1266,1765,6.2842,-26.8668
49,-741,6.27917,26.8866,-0.00612016,0.00664355,0.00237218,0.00707016,-0.00654678,1.39286,0.00786368,0.0100485,1273,1765,6.27919,-26.8866
56,-741,6.26721,26.9119,-0.00844284,0.00597684,0.00169345,0.00617305,-0.00863905,1.45545,0.00859119,0.0100637,1280,1765,6.26726,-26.9119
63,-741,6.2406,26.9242,-0.0108134,0.00521212,0.00111489,0.00528931,-0.0108906,1.50167,0.00952623,0.014186,1287,1765,6.24062,-26.9242
70,-741,6.2334,26.9258,-0.0127634,0.00477248,0.000685924,0.00479927,-0.0127902,1.53176,0.0104988,0.016221,1294,1765,6.23335,-26.9258
77,-741,6.23779,26.9542,-0.0143146,0.00425833,0.000409676,0.00426736,-0.0143237,1.54875,0.0112448,0.0137831,1301,1765,6.23781,-26.9543
84,-741,6.21057,26.9563,-0.0157984,0.00378476,-0.000124928,0.00378556,-0.0157992,-1.56442,0.0119954,0.0162265,1308,1765,6.21062,-26.9563
91,-741,6.20422,26.9277,-0.0169265,0.00273421,-0.000597629,0.00275236,-0.0169447,-1.54044,0.0123169,0.0121363,1315,1765,6.20419,-26.9278
98,-741,6.19507,26.9083,-0.0173156,0.002328,-0.000936847,0.00237258,-0.0173601,-1.52325,0.0124399,0.00972379,1322,1765,6.19508,-26.9083
105,-741,6.21423,26.8594,-0.0176959,0.00196256,-0.00122553,0.00203867,-0.017772,-1.50877,0.0125827,0.0103982,1329,1765,6.21424,-26.8593
112,-741,6.22925,26.8304,-0.017856,0.00149504,-0.00142703,0.00159971,-0.0179606,-1.49758,0.012541,0.0104737,1336,1765,6.22926,-26.8305
119,-741,6.21472,26.7777,-0.0175255,0.000925131,-0.00169173,0.00107896,-0.0176793,-1.48011,0.0121618,0.012496,1343,1765,6.21472,-26.7777
126,-741,6.19788,26.7284,-0.016946,0.000467077,-0.00187945,0.000667621,-0.0171466,-1.46449,0.01166,0.0172018,1350,1765,6.19792,-26.7285
133,-741,6.19287,26.6937,-0.0161918,0.000134746,-0.00208705,0.000397313,-0.0164544,-1.44565,0.0111044,0.0134008,1357,1765,6.19287,-26.6937
140,-741,6.15442,26.6427,-0.0153843,-5.66182e-05,-0.0022308,0.000261455,-0.0157023,-1.42917,0.0105565,0.0106442,1364,1765,6.15438,-26.6427
147,-741,6.15503,26.5985,-0.0144753,-0.000325261,-0.0022562,2.5779e-05,-0.0148263,-1.41645,0.00989281,0.0105344,1371,1765,6.15506,-26.5985
154,-741,6.15271,26.5653,-0.0135629,-0.000590171,-0.00229918,-0.000194737,-0.0139584,-1.40047,0.00924135,0.00843619,1378,1765,6.15269,-26.5653
161,-741,6.12939,26.4917,-0.0124284,-0.000769992,-0.00232357,-0.000323959,-0.0128744,-1.38114,0.00847702,0.0101942,1385,1765,6.1294,-26.4917
168,-741,6.11365,26.4116,-0.0106688,-0.000802927,-0.00252779,-0.000192977,-0.0112788,-1.33402,0.00745568,0.0249617,1392,1765,6.1136,-26.4117
175,-741,6.02869,26.2981,0,0,0,0,0,0,0,-1,1399,1765,6.02874,-26.2981
182,-741,6.0647,26.1913,0,0,0,0,0,0,0,-1,1406,1765,6.06468,-26.1913
189,-741,6.03735,26.1218,0,0,0,0,0,0,0,-1,1413,1765,6.03731,-26.1218
196,-741,6.01563,26.036,0,0,0,0,0,0,0,-1,1420,1765,6.01568,-26.036
203,-741,6.03198,25.9049,0,0,0,0,0,0,0,-1,1427,1765,6.03199,-25.9049
210,-741,6.02795,25.7526,0,0,0,0,0,0,0,-1,1434,1765,6.02795,-25.7526
217,-741,6.05505,25.6749,0,0,0,0,0,0,0,-1,1441,1765,6.05507,-25.6749
224,-741,5.97742,25.3988,0.000105333,0.00393892,-0.00195295,0.00475856,-0.000714314,-1.17343,0.00343532,0.0494149,1448,1765,5.97742,-25.3988
231,-741,6.01868,25.4298,0.000756542,0.00382567,-0.002398,0.00513809,-0.000555876,-1.07003,0.00362492,0.0385766,1455,1765,6.01871,-25.4298
238,-741,5.88,25.343,0.00166977,0.00352424,-0.00292034,0.00566102,-0.000467008,-0.939119,0.00393892,0.0399493,1462,1765,5.88005,-25.343
245,-741,5.84497,25.2062,0.00281251,0.00329903,-0.00361005,0.006674,-0.000562466,-0.81904,0.00464818,0.0434034,1469,1765,5.84496,-25.2062
252,-741,5.93616,24.8236,0.00389027,0.00319389,-0.00440019,0.00795602,-0.000871861,-0.745915,0.00561723,0.0471296,1476,1765,5.93612,-24.8236
259,-741,6.06946,25.0927,0,0,0,0,0,0,0,-1,1483,1765,6.06941,-25.0926
266,-741,6.37451,25.1742,0,0,0,0,0,0,0,-1,1490,1765,6.37449,-25.1742
273,-741,17.0328,7.54468,0,0,0,0,0,0,0,-1,1497,1765,17.0328,-7.54474
280,-741,16.2363,9.84546,0,0,0,0,0,0,0,-1,1504,1765,16.2363,-9.84547
287,-741,14.5045,8.71423,0,0,0,0,0,0,0,-1,1511,1765,14.5045,-8.71429
294,-741,11.6001,7.95422,0,0,0,0,0,0,0,-1,1518,1765,11.6001,-7.95423
301,-741,11.036,7.02612,0,0,0,0,0,0,0,-1,1525,1765,11.036,-7.02617
308,-741,10.4718,6.09814,0,0,0,0,0,0,0,-1,1532,1765,10.4718,-6.0981
315,-741,9.70715,6.86963,0,0,0,0,0,0,0,-1,1539,1765,9.70712,-6.86963
322,-741,9.21252,8.54858,0,0,0,0,0,0,0,-1,1546,1765,9.21251,-8.54858
329,-741,8.5603,10.1146,0,0,0,0,0,0,0,-1,1553,1765,8.56033,-10.1146
336,-741,4.74475,14.6453,0,0,0,0,0,0,0,-1,1560,1765,4.7447,-14.6452
343,-741,5.42297,5.93701,0,0,0,0,0,0,0,-1,1567,1765,5.42296,-5.937
350,-741,4.90369,5.44666,0,0,0,0,0,0,0,-1,1574,1765,4.90368,-5.44664
357,-741,4.02063,5.16626,0,0,0,0,0,0,0,-1,1581,1765,4.02058,-5.1662
364,-741,0,0,0,0,0,0,0,0,0,-1,1588,1765,0,0
371,-741,0,0,0,0,0,0,0,0,0,-1,1595,1765,0,0
378,-741,0,0,0,0,0,0,0,0,0,-1,1602,1765,0,0
385,-741,0,0,0,0,0,0,0,0,0,-1,1609,1765,0,0
392,-741,0,0,0,0,0,0,0,0,0,-1,1616,1765,0,0
399,-741,0,0,0,0,0,0,0,0,0,-1,1623,1765,0,0
406,-741,0,0,0,0,0,0,0,0,0,-1,1630,1765,0,0
413,-741,0,0,0,0,0,0,0,0,0,-1,1637,1765,0,0
420,-741,0,0,0,0,0,0,0,0,0,-1,1644,1765,0,0
427,-741,0,0,0,0,0,0,0,0,0,-1,1651,1765,0,0
434,-741,0,0,0,0,0,0,0,0,0,-1,1658,1765,0,0
441,-741,0,0,0,0,0,0,0,0,0,-1,1665,1765,0,0
448,-741,0,0,0,0,0,0,0,0,0,-1,1672,1765,0,0
455,-741,0,0,0,0,0,0,0,0,0,-1,1679,1765,0,0
462,-741,0,0,0,0,0,0,0,0,0,-1,1686,1765,0,0
469,-741,0,0,0,0,0,0,0,0,0,-1,1693,1765,0,0
476,-741,0,0,0,0,0,0,0,0,0,-1,1700,1765,0,0
483,-741,0,0,0,0,0,0,0,0,0,-1,1707,1765,0,0
490,-741,0,0,0,0,0,0,0,0,0,-1,1714,1765,0,0
497,-741,0,0,0,0,0,0,0,0,0,-1,1721,1765,0,0
504,-741,0,0,0,0,0,0,0,0,0,-1,1728,1765,0,0
511,-741,0,0,0,0,0,0,0,0,0,-1,1735,1765,0,0
518,-741,0,0,0,0,0,0,0,0,0,-1,1742,1765,0,0
525,-741,0,0,0,0,0,0,0,0,0,-1,1749,1765,0,0
532,-741,0,0,0,0,0,0,0,0,0,-1,1756,1765,0,0
539,-741,0,0,0,0,0,0,0,0,0,-1,1763,1765,0,0
546,-741,0,0,0,0,0,0,0,0,0,-1,1770,1765,0,0
553,-741,0,0,0,0,0,0,0,0,0,-1,1777,1765,0,0
560,-741,0,0,0,0,0,0,0,0,0,-1,1784,1765,0,0
567,-741,0,0,0,0,0,0,0,0,0,-1,1791,1765,0,0
574,-741,0,0,0,0,0,0,0,0,0,-1,1798,1765,0,0
581,-741,0,0,0,0,0,0,0,0,0,-1,1805,1765,0,0
588,-741,0,0,0,0,0,0,0,0,0,-1,1812,1765,0,0
595,-741,0,0,0,0,0,0,0,0,0,-1,1819,1765,0,0
602,-741,0,0,0,0,0,0,0,0,0,-1,1826,1765,0,0
609,-741,0,0,0,0,0,0,0,0,0,-1,1833,1765,0,0
616,-741,0,0,0,0,0,0,0,0,0,-1,1840,1765,0,0
623,-741,0,0,0,0,0,0,0,0,0,-1,1847,1765,0,0
630,-741,0,0,0,0,0,0,0,0,0,-1,1854,1765,0,0
637,-741,0,0,0,0,0,0,0,0,0,-1,1861,1765,0,0
644,-741,0,0,0,0,0,0,0,0,0,-1,1868,1765,0,0
651,-741,0,0,0,0,0,0,0,0,0,-1,1875,1765,0,0
658,-741,0,0,0,0,0,0,0,0,0,-1,1882,1765,0,0
665,-741,0,0,0,0,0,0,0,0,0,-1,1889,1765,0,0
672,-741,0,0,0,0,0,0,0,0,0,-1,1896,1765,0,0
679,-741,0,0,0,0,0,0,0,0,0,-1,1903,1765,0,0
686,-741,0,0,0,0,0,0,0,0,0,-1,1910,1765,0,0
693,-741,0,0,0,0,0,0,0,0,0,-1,1917,1765,0,0
700,-741,0,0,0,0,0,0,0,0,0,-1,1924,1765,0,0
707,-741,0,0,0,0,0,0,0,0,0,-1,1931,1765,0,0
714,-741,0,0,0,0,0,0,0,0,0,-1,1938,1765,0,0
721,-741,0,0,0,0,0,0,0,0,0,-1,1945,1765,0,0
728,-741,0,0,0,0,0,0,0,0,0,-1,1952,1765,0,0
735,-741,0,0,0,0,0,0,0,0,0,-1,1959,1765,0,0
742,-741,0,0,0,0,0,0,0,0,0,-1,1966,1765,0,0
749,-741,0,0,0,0,0,0,0,0,0,-1,1973,1765,0,0
756,-741,0,0,0,0,0,0,0,0,0,-1,1980,1765,0,0
763,-741,0,0,0,0,0,0,0,0,0,-1,1987,1765,0,0
770,-741,0,0,0,0,0,0,0,0,0,-1,1994,1765,0,0
777,-741,0,0,0,0,0,0,0,0,0,-1,2001,1765,0,0
784,-741,0,0,0,0,0,0,0,0,0,-1,2008,1765,0,0
791,-741,0,0,0,0,0,0,0,0,0,-1,2015,1765,0,0
798,-741,0,0,0,0,0,0,0,0,0,-1,2022,1765,0,0
805,-741,0,0,0,0,0,0,0,0,0,-1,2029,1765,0,0
812,-741,0,0,0,0,0,0,0,0,0,-1,2036,1765,0,0
-700,-748,0,0,0,0,0,0,0,0,0,-1,524,1772,0,0
-693,-748,0,0,0,0,0,0,0,0,0,-1,531,1772,0,0
-686,-748,0,0,0,0,0,0,0,0,0,-1,538,1772,0,0
-679,-748,0,0,0,0,0,0,0,0,0,-1,545,1772,0,0
-672,-748,0,0,0,0,0,0,0,0,0,-1,552,1772,0,0
-665,-748,0,0,0,0,0,0,0,0,0,-1,559,1772,0,0
-658,-748,0,0,0,0,0,0,0,0,0,-1,566,1772,0,0
-651,-748,0,0,0,0,0,0,0,0,0,-1,573,1772,0,0
-644,-748,0,0,0,0,0,0,0,0,0,-1,580,1772,0,0
-637,-748,0,0,0,0,0,0,0,0,0,-1,587,1772,0,0
-630,-748,0,0,0,0,0,0,0,0,0,-1,594,1772,0,0
-623,-748,0,0,0,0,0,0,0,0,0,-1,601,1772,0,0
-616,-748,0,0,0,0,0,0,0,0,0,-1,608,1772,0,0
-609,-748,0,0,0,0,0,0,0,0,0,-1,615,1772,0,0
-602,-748,0,0,0,0,0,0,0,0,0,-1,622,1772,0,0
-595,-748,0,0,0,0,0,0,0,0,0,-1,629,1772,0,0
-588,-748,0,0,0,0,0,0,0,0,0,-1,636,1772,0,0
-581,-748,0,0,0,0,0,0,0,0,0,-1,643,1772,0,0
-574,-748,0,0,0,0,0,0,0,0,0,-1,650,1772,0,0
-567,-748,0,0,0,0,0,0,0,0,0,-1,657,1772,0,0
-560,-748,0,0,0,0,0,0,0,0,0,-1,664,1772,0,0
-553,-748,0,0,0,0,0,0,0,0,0,-1,671,1772,0,0
-546,-748,0,0,0,0,0,0,0,0,0,-1,678,1772,0,0
-539,-748,0,0,0,0,0,0,0,0,0,-1,685,1772,0,0
-532,-748,0,0,0,0,0,0,0,0,0,-1,692,1772,0,0
-525,-748,0,0,0,0,0,0,0,0,0,-1,699,1772,0,0
-518,-748,0,0,0,0,0,0,0,0,0,-1,706,1772,0,0
-511,-748,0,0,0,0,0,0,0,0,0,-1,713,1772,0,0
-504,-748,0,0,0,0,0,0,0,0,0,-1,720,1772,0,0
-497,-748,0,0,0,0,0,0,0,0,0,-1,727,1772,0,0
-490,-748,0,0,0,0,0,0,0,0,0,-1,734,1772,0,0
-483,-748,0,0,0,0,0,0,0,0,0,-1,741,1772,0,0
-476,-748,0,0,0,0,0,0,0,0,0,-1,748,1772,0,0
-469,-748,0,0,0,0,0,0,0,0,0,-1,755,1772,0,0
-462,-748,0,0,0,0,0,0,0,0,0,-1,762,1772,0,0
-455,-748,0,0,0,0,0,0,0,0,0,-1,769,1772,0,0
-448,-748,0,0,0,0,0,0,0,0,0,-1,776,1772,0,0
-441,-748,0,0,0,0,0,0,0,0,0,-1,783,1772,0,0
-434,-748,0,0,0,0,0,0,0,0,0,-1,790,1772,0,0
-427,-748,0,0,0,0,0,0,0,0,0,-1,797,1772,0,0
-420,-748,0,0,0,0,0,0,0,0,0,-1,804,1772,0,0
-413,-748,0,0,0,0,0,0,0,0,0,-1,811,1772,0,0
-406,-748,0,0,0,0,0,0,0,0,0,-1,818,1772,0,0
-399,-748,0,0,0,0,0,0,0,0,0,-1,825,1772,0,0
-392,-748,0,0,0,0,0,0,0,0,0,-1,832,1772,0,0
-385,-748,0,0,0,0,0,0,0,0,0,-1,839,1772,0,0
-378,-748,0,0,0,0,0,0,0,0,0,-1,846,1772,0,0
-371,-748,0,0,0,0,0,0,0,0,0,-1,853,1772,0,0
-364,-748,0,0,0,0,0,0,0,0,0,-1,860,1772,0,0
-357,-748,0,0,0,0,0,0,0,0,0,-1,867,1772,0,0
-350,-748,0,0,0,0,0,0,0,0,0,-1,874,1772,0,0
-343,-748,0,0,0,0,0,0,0,0,0,-1,881,1772,0,0
-336,-748,0,0,0,0,0,0,0,0,0,-1,888,1772,0,0
-329,-748,0,0,0,0,0,0,0,0,0,-1,895,1772,0,0
-322,-748,0,0,0,0,0,0,0,0,0,-1,902,1772,0,0
-315,-748,0,0,0,0,0,0,0,0,0,-1,909,1772,0,0
-308,-748,0,0,0,0,0,0,0,0,0,-1,916,1772,0,0
-301,-748,0,0,0,0,0,0,0,0,0,-1,923,1772,0,0
-294,-748,0,0,0,0,0,0,0,0,0,-1,930,1772,0,0
-287,-748,0,0,0,0,0,0,0,0,0,-1,937,1772,0,0
-280,-748,0,0,0,0,0,0,0,0,0,-1,944,1772,0,0
-273,-748,0,0,0,0,0,0,0,0,0,-1,951,1772,0,0
-266,-748,0,0,0,0,0,0,0,0,0,-1,958,1772,0,0
-259,-748,0,0,0,0,0,0,0,0,0,-1,965,1772,0,0
-252,-748,0,0,0,0,0,0,0,0,0,-1,972,1772,0,0
-245,-748,0,0,0,0,0,0,0,0,0,-1,979,1772,0,0
-238,-748,0,0,0,0,0,0,0,0,0,-1,986,1772,0,0
-231,-748,0,0,0,0,0,0,0,0,0,-1,993,1772,0,0
-224,-748,0,0,0,0,0,0,0,0,0,-1,1000,1772,0,0
-217,-748,6.45807,16.5496,0,0,0,0,0,0,0,-1,1007,1772,6.45805,-16.5495
-210,-748,5.46893,25.1432,0,0,0,0,0,0,0,-1,1014,1772,5.4689,-25.1432
-203,-748,5.40662,24.1573,-0.0352645,-0.169459,-0.0593852,-0.012759,-0.191964,-0.36225,0.123942,0.0461523,1021,1772,5.40657,-24.1574
-196,-748,5.15344,22.8755,-0.0297971,-0.158955,-0.0516959,-0.0116542,-0.177098,-0.337525,0.114379,0.0436646,1028,1772,5.15342,-22.8754
-189,-748,4.52478,21.7634,0,0,0,0,0,0,0,-1,1035,1772,4.52475,-21.7634
-182,-748,3.94958,20.8662,0,0,0,0,0,0,0,-1,1042,1772,3.94959,-20.8662
-175,-748,3.56726,19.4518,0,0,0,0,0,0,0,-1,1049,1772,3.5673,-19.4518
-168,-748,3.04858,18.0109,0,0,0,0,0,0,0,-1,1056,1772,3.04853,-18.0108
-161,-748,3.50562,13.2729,0,0,0,0,0,0,0,-1,1063,1772,3.5056,-13.2729
-154,-748,-3.38562,10.6989,0,0,0,0,0,0,0,-1,1070,1772,-3.38564,-10.6989
-147,-748,-6.38733,11.0702,0,0,0,0,0,0,0,-1,1077,1772,-6.38731,-11.0702
-140,-748,7.7439,23.1177,0,0,0,0,0,0,0,-1,1084,1772,7.74393,-23.1177
-133,-748,7.44727,22.0308,0,0,0,0,0,0,0,-1,1091,1772,7.44728,-22.0308
-126,-748,5.98035,22.6067,0,0,0,0,0,0,0,-1,1098,1772,5.9803,-22.6067
-119,-748,6.16589,24.6422,0,0,0,0,0,0,0,-1,1105,1772,6.16593,-24.6422
-112,-748,6.8147,24.4797,0,0,0,0,0,0,0,-1,1112,1772,6.81471,-24.4797
-105,-748,6.8999,24.7329,0,0,0,0,0,0,0,-1,1119,1772,6.89988,-24.733
-98,-748,6.99341,13.5935,0,0,0,0,0,0,0,-1,1126,1772,6.99343,-13.5935
-91,-748,4.85352,15.3033,0,0,0,0,0,0,0,-1,1133,1772,4.85351,-15.3033
-84,-748,-0.192017,7.26196,0,0,0,0,0,0,0,-1,1140,1772,-0.192047,-7.26201
-77,-748,4.42615,13.5537,0,0,0,0,0,0,0,-1,1147,1772,4.4261,-13.5538
-70,-748,4.46191,13.7446,0,0,0,0,0,0,0,-1,1154,1772,4.4619,-13.7446
-63,-748,4.49768,13.9355,0,0,0,0,0,0,0,-1,1161,1772,4.49769,-13.9355
-56,-748,3.05762,7.87817,0,0,0,0,0,0,0,-1,1168,1772,3.05768,-7.87822
-49,-748,3.04102,7.82471,0,0,0,0,0,0,0,-1,1175,1772,3.04096,-7.82468
-42,-748,0.793457,14.9474,0,0,0,0,0,0,0,-1,1182,1772,0.793413,-14.9474
-35,-748,6.46545,26.2537,0,0,0,0,0,0,0,-1,1189,1772,6.4655,-26.2536
-28,-748,6.53027,26.36,0.0249355,0.0186039,0.00619389,0.0287257,0.0148137,0.549148,0.0165875,0.0482904,1196,1772,6.53029,-26.36
-21,-748,6.5105,26.4282,0.0234444,0.0181338,0.00612913,0.0274687,0.0141095,0.58099,0.015861,0.0217441,1203,1772,6.51053,-26.4283
-14,-748,6.4624,26.4486,0.0213447,0.0184096,0.00615146,0.0262013,0.0135531,0.668304,0.0151303,0.0161289,1210,1772,6.46242,-26.4486
-7,-748,6.44202,26.5206,0.018879,0.0177914,0.00605617,0.0244157,0.0122546,0.740621,0.0140964,0.0150218,1217,1772,6.44197,-26.5206
0,-748,6.41736,26.5908,0.0159392,0.0170872,0.00590251,0.0224435,0.0105828,0.83387,0.0129648,0.0150138,1224,1772,6.41735,-26.5908
7,-748,6.40271,26.6339,0.013202,0.0163453,0.00559261,0.0205829,0.00896437,0.922376,0.0119164,0.0145042,1231,1772,6.40271,-26.6339
14,-748,6.38025,26.7098,0.00956163,0.015517,0.0052985,0.0186172,0.00646143,1.0414,0.0109149,0.0150811,1238,1772,6.38031,-26.7098
21,-748,6.35791,26.7469,0.00561918,0.0146131,0.00493393,0.0167919,0.00344033,1.15495,0.0102423,0.0111055,1245,1772,6.35786,-26.7469
28,-748,6.35144,26.7905,0.00141498,0.0136514,0.00467575,0.0152335,-0.000167144,1.24452,0.0102119,0.0111264,1252,1772,6.35148,-26.7905
35,-748,6.3396,26.8337,-0.00263476,0.0124442,0.00437343,0.0136208,-0.0038114,1.30798,0.0105823,0.0118304,1259,1772,6.33964,-26.8337
42,-748,6.32666,26.8586,-0.0074824,0.0113662,0.00380322,0.0121047,-0.00822088,1.37901,0.0118061,0.0126218,1266,1772,6.32664,-26.8586
49,-748,6.30945,26.8853,-0.0119084,0.0102948,0.00332915,0.0107832,-0.0123968,1.42512,0.0133938,0.0103844,1273,1772,6.30949,-26.8852
56,-748,6.28381,26.9094,-0.0157583,0.00918198,0.00253345,0.00943673,-0.016013,1.47058,0.014856,0.0103144,1280,1772,6.28384,-26.9094
63,-748,6.25208,26.9045,-0.0196169,0.00783887,0.00185069,0.00796306,-0.0197411,1.50379,0.0164698,0.0111051,1287,1772,6.25211,-26.9045
70,-748,6.25085,26.9143,-0.0226878,0.00700363,0.00133176,0.00706325,-0.0227474,1.52606,0.0179877,0.0125366,1294,1772,6.25082,-26.9143
77,-748,6.24939,26.9215,-0.0249513,0.00638047,0.000959759,0.00640984,-0.0249807,1.5402,0.0191514,0.012086,1301,1772,6.24944,-26.9215
84,-748,6.20813,26.9364,-0.0269216,0.00581165,0.000182709,0.00581267,-0.0269226,1.56521,0.0201671,0.0143494,1308,1772,6.2081,-26.9364
91,-748,6.18042,26.9268,-0.0283326,0.00442144,-0.000544417,0.00443049,-0.0283416,-1.55418,0.0205312,0.0118762,1315,1772,6.18047,-26.9268
98,-748,6.15247,26.9041,-0.0287012,0.00394588,-0.00109302,0.00398243,-0.0287378,-1.53737,0.0206146,0.0105161,1322,1772,6.15246,-26.9041
105,-748,6.16516,26.8544,-0.0290746,0.00347765,-0.00157403,0.00355358,-0.0291505,-1.52259,0.02072,0.0113834,1329,1772,6.16516,-26.8544
112,-748,6.20068,26.8296,-0.029185,0.00284979,-0.00194572,0.00296753,-0.0293027,-1.51035,0.0205957,0.0141336,1336,1772,6.20071,-26.8295
119,-748,6.18262,26.7913,-0.0287138,0.00212465,-0.00242166,0.00231366,-0.0289028,-1.49291,0.0200842,0.0120368,1343,1772,6.18257,-26.7913
126,-748,6.16223,26.7589,-0.0279729,0.00149686,-0.00277448,0.00175579,-0.0282318,-1.47774,0.0194329,0.0139148,1350,1772,6.1622,-26.7589
133,-748,6.11438,26.709,-0.0270828,0.0010021,-0.00311712,0.0013439,-0.0274246,-1.46158,0.0187471,0.00890483,1357,1772,6.11438,-26.7089
140,-748,6.10608,26.6447,-0.0262993,0.000680828,-0.00332811,0.0010853,-0.0267038,-1.44986,0.0181751,0.0120016,1364,1772,6.10606,-26.6446
147,-748,6.12793,26.5992,-0.0252807,0.000204735,-0.00341226,0.000653696,-0.0257296,-1.43997,0.0173751,0.014874,1371,1772,6.12788,-26.5992
154,-748,6.099,26.5509,-0.0242145,-0.000182219,-0.00352938,0.000325384,-0.0247221,-1.42795,0.0165909,0.0120463,1378,1772,6.099,-26.5509
161,-748,6.05066,26.4969,-0.0230034,-0.000311382,-0.00361834,0.000251611,-0.0235664,-1.41644,0.0157955,0.0185341,1385,1772,6.05069,-26.4969
168,-748,6.02014,26.4681,0,0,0,0,0,0,0,-1,1392,1772,6.02014,-26.4681
175,-748,11.6235,16.8242,0,0,0,0,0,0,0,-1,1399,1772,11.6236,-16.8242
182,-748,7.62476,10.3058,0,0,0,0,0,0,0,-1,1406,1772,7.62476,-10.3058
189,-748,6.15857,6.95898,0,0,0,0,0,0,0,-1,1413,1772,6.15862,-6.95896
196,-748,3.9425,8.46021,0,0,0,0,0,0,0,-1,1420,1772,3.9425,-8.46026
203,-748,3.9668,12.9835,0,0,0,0,0,0,0,-1,1427,1772,3.96678,-12.9836
210,-748,4.71472,16.8318,0,0,0,0,0,0,0,-1,1434,1772,4.71471,-16.8317
217,-748,5.38452,21.5551,0,0,0,0,0,0,0,-1,1441,1772,5.38455,-21.555
224,-748,5.99792,25.0667,0,0,0,0,0,0,0,-1,1448,1772,5.99793,-25.0666
231,-748,5.96497,25.3204,0,0,0,0,0,0,0,-1,1455,1772,5.96495,-25.3205
238,-748,5.70532,25.3423,0,0,0,0,0,0,0,-1,1462,1772,5.7053,-25.3423
245,-748,5.65625,25.2233,0,0,0,0,0,0,0,-1,1469,1772,5.65626,-25.2233
252,-748,5.87244,24.6344,0,0,0,0,0,0,0,-1,1476,1772,5.87246,-24.6344
259,-748,3.5614,20.4832,0,0,0,0,0,0,0,-1,1483,1772,3.56142,-20.4832
266,-748,17.9011,7.59448,0,0,0,0,0,0,0,-1,1490,1772,17.9011,-7.59452
273,-748,16.4131,7.57129,0,0,0,0,0,0,0,-1,1497,1772,16.413,-7.57125
280,-748,15.2177,7.24829,0,0,0,0,0,0,0,-1,1504,1772,15.2176,-7.24833
287,-748,14.161,8.32813,0,0,0,0,0,0,0,-1,1511,1772,14.161,-8.32808
294,-748,12.2117,7.453,0,0,0,0,0,0,0,-1,1518,1772,12.2116,-7.45297
301,-748,11.7134,7.3595,0,0,0,0,0,0,0,-1,1525,1772,11.7133,-7.35949
308,-748,9.92456,7.80225,0,0,0,0,0,0,0,-1,1532,1772,9.92453,-7.80224
315,-748,8.91541,8.29773,0,0,0,0,0,0,0,-1,1539,1772,8.91544,-8.29773
322,-748,7.83618,8.87122,0,0,0,0,0,0,0,-1,1546,1772,7.83613,-8.87124
329,-748,3.48315,14.6533,0,0,0,0,0,0,0,-1,1553,1772,3.48316,-14.6534
336,-748,3.76001,15.8163,0,0,0,0,0,0,0,-1,1560,1772,3.75995,-15.8163
343,-748,0,0,0,0,0,0,0,0,0,-1,1567,1772,0,0
350,-748,0,0,0,0,0,0,0,0,0,-1,1574,1772,0,0
357,-748,0,0,0,0,0,0,0,0,0,-1,1581,1772,0,0
364,-748,0,0,0,0,0,0,0,0,0,-1,1588,1772,0,0
371,-748,0,0,0,0,0,0,0,0,0,-1,1595,1772,0,0
378,-748,0,0,0,0,0,0,0,0,0,-1,1602,1772,0,0
385,-748,0,0,0,0,0,0,0,0,0,-1,1609,1772,0,0
392,-748,0,0,0,0,0,0,0,0,0,-1,1616,1772,0,0
399,-748,0,0,0,0,0,0,0,0,0,-1,1623,1772,0,0
406,-748,0,0,0,0,0,0,0,0,0,-1,1630,1772,0,0
413,-748,0,0,0,0,0,0,0,0,0,-1,1637,1772,0,0
420,-748,0,0,0,0,0,0,0,0,0,-1,1644,1772,0,0
427,-748,0,0,0,0,0,0,0,0,0,-1,1651,1772,0,0
434,-748,0,0,0,0,0,0,0,0,0,-1,1658,1772,0,0
441,-748,0,0,0,0,0,0,0,0,0,-1,1665,1772,0,0
448,-748,0,0,0,0,0,0,0,0,0,-1,1672,1772,0,0
455,-748,0,0,0,0,0,0,0,0,0,-1,1679,1772,0,0
462,-748,0,0,0,0,0,0,0,0,0,-1,1686,1772,0,0
469,-748,0,0,0,0,0,0,0,0,0,-1,1693,1772,0,0
476,-748,0,0,0,0,0,0,0,0,0,-1,1700,1772,0,0
483,-748,0,0,0,0,0,0,0,0,0,-1,1707,1772,0,0
490,-748,0,0,0,0,0,0,0,0,0,-1,1714,1772,0,0
497,-748,0,0,0,0,0,0,0,0,0,-1,1721,1772,0,0
504,-748,0,0,0,0,0,0,0,0,0,-1,1728,1772,0,0
511,-748,0,0,0,0,0,0,0,0,0,-1,1735,1772,0,0
518,-748,0,0,0,0,0,0,0,0,0,-1,1742,1772,0,0
525,-748,0,0,0,0,0,0,0,0,0,-1,1749,1772,0,0
532,-748,0,0,0,0,0,0,0,0,0,-1,1756,1772,0,0
539,-748,0,0,0,0,0,0,0,0,0,-1,1763,1772,0,0
546,-748,0,0,0,0,0,0,0,0,0,-1,1770,1772,0,0
553,-748,0,0,0,0,0,0,0,0,0,-1,1777,1772,0,0
560,-748,0,0,0,0,0,0,0,0,0,-1,1784,1772,0,0
567,-748,0,0,0,0,0,0,0,0,0,-1,1791,1772,0,0
574,-748,0,0,0,0,0,0,0,0,0,-1,1798,1772,0,0
581,-748,0,0,0,0,0,0,0,0,0,-1,1805,1772,0,0
588,-748,0,0,0,0,0,0,0,0,0,-1,1812,1772,0,0
595,-748,0,0,0,0,0,0,0,0,0,-1,1819,1772,0,0
602,-748,0,0,0,0,0,0,0,0,0,-1,1826,1772,0,0
609,-748,0,0,0,0,0,0,0,0,0,-1,1833,1772,0,0
616,-748,0,0,0,0,0,0,0,0,0,-1,1840,1772,0,0
623,-748,0,0,0,0,0,0,0,0,0,-1,1847,1772,0,0
630,-748,0,0,0,0,0,0,0,0,0,-1,1854,1772,0,0
637,-748,0,0,0,0,0,0,0,0,0,-1,1861,1772,0,0
644,-748,0,0,0,0,0,0,0,0,0,-1,1868,1772,0,0
651,-748,0,0,0,0,0,0,0,0,0,-1,1875,1772,0,0
658,-748,0,0,0,0,0,0,0,0,0,-1,1882,1772,0,0
665,-748,0,0,0,0,0,0,0,0,0,-1,1889,1772,0,0
672,-748,0,0,0,0,0,0,0,0,0,-1,1896,1772,0,0
679,-748,0,0,0,0,0,0,0,0,0,-1,1903,1772,0,0
686,-748,0,0,0,0,0,0,0,0,0,-1,1910,1772,0,0
693,-748,0,0,0,0,0,0,0,0,0,-1,1917,1772,0,0
700,-748,0,0,0,0,0,0,0,0,0,-1,1924,1772,0,0
707,-748,0,0,0,0,0,0,0,0,0,-1,1931,1772,0,0
714,-748,0,0,0,0,0,0,0,0,0,-1,1938,1772,0,0
721,-748,0,0,0,0,0,0,0,0,0,-1,1945,1772,0,0
728,-748,0,0,0,0,0,0,0,0,0,-1,1952,1772,0,0
735,-748,0,0,0,0,0,0,0,0,0,-1,1959,1772,0,0
742,-748,0,0,0,0,0,0,0,0,0,-1,1966,1772,0,0
749,-748,0,0,0,0,0,0,0,0,0,-1,1973,1772,0,0
756,-748,0,0,0,0,0,0,0,0,0,-1,1980,1772,0,0
763,-748,0,0,0,0,0,0,0,0,0,-1,1987,1772,0,0
770,-748,0,0,0,0,0,0,0,0,0,-1,1994,1772,0,0
777,-748,0,0,0,0,0,0,0,0,0,-1,2001,1772,0,0
784,-748,0,0,0,0,0,0,0,0,0,-1,2008,1772,0,0
791,-748,0,0,0,0,0,0,0,0,0,-1,2015,1772,0,0
798,-748,0,0,0,0,0,0,0,0,0,-1,2022,1772,0,0
805,-748,0,0,0,0,0,0,0,0,0,-1,2029,1772,0,0
812,-748,0,0,0,0,0,0,0,0,0,-1,2036,1772,0,0
-700,-755,0,0,0,0,0,0,0,0,0,-1,524,1779,0,0
-693,-755,0,0,0,0,0,0,0,0,0,-1,531,1779,0,0
-686,-755,0,0,0,0,0,0,0,0,0,-1,538,1779,0,0
-679,-755,0,0,0,0,0,0,0,0,0,-1,545,1779,0,0
-672,-755,0,0,0,0,0,0,0,0,0,-1,552,1779,0,0
-665,-755,0,0,0,0,0,0,0,0,0,-1,559,1779,0,0
-658,-755,0,0,0,0,0,0,0,0,0,-1,566,1779,0,0
-651,-755,0,0,0,0,0,0,0,0,0,-1,573,1779,0,0
-644,-755,0,0,0,0,0,0,0,0,0,-1,580,1779,0,0
-637,-755,0,0,0,0,0,0,0,0,0,-1,587,1779,0,0
-630,-755,0,0,0,0,0,0,0,0,0,-1,594,1779,0,0
-623,-755,0,0,0,0,0,0,0,0,0,-1,601,1779,0,0
-616,-755,0,0,0,0,0,0,0,0,0,-1,608,1779,0,0
-609,-755,0,0,0,0,0,0,0,0,0,-1,615,1779,0,0
-602,-755,0,0,0,0,0,0,0,0,0,-1,622,1779,0,0
-595,-755,0,0,0,0,0,0,0,0,0,-1,629,1779,0,0
-588,-755,0,0,0,0,0,0,0,0,0,-1,636,1779,0,0
-581,-755,0,0,0,0,0,0,0,0,0,-1,643,1779,0,0
-574,-755,0,0,0,0,0,0,0,0,0,-1,650,1779,0,0
-567,-755,0,0,0,0,0,0,0,0,0,-1,657,1779,0,0
-560,-755,0,0,0,0,0,0,0,0,0,-1,664,1779,0,0
-553,-755,0,0,0,0,0,0,0,0,0,-1,671,1779,0,0
-546,-755,0,0,0,0,0,0,0,0,0,-1,678,1779,0,0
-539,-755,0,0,0,0,0,0,0,0,0,-1,685,1779,0,0
-532,-755,0,0,0,0,0,0,0,0,0,-1,692,1779,0,0
-525,-755,0,0,0,0,0,0,0,0,0,-1,699,1779,0,0
-518,-755,0,0,0,0,0,0,0,0,0,-1,706,1779,0,0
-511,-755,0,0,0,0,0,0,0,0,0,-1,713,1779,0,0
-504,-755,0,0,0,0,0,0,0,0,0,-1,720,1779,0,0
-497,-755,0,0,0,0,0,0,0,0,0,-1,727,1779,0,0
-490,-755,0,0,0,0,0,0,0,0,0,-1,734,1779,0,0
-483,-755,0,0,0,0,0,0,0,0,0,-1,741,1779,0,0
-476,-755,0,0,0,0,0,0,0,0,0,-1,748,1779,0,0
-469,-755,0,0,0,0,0,0,0,0,0,-1,755,1779,0,0
-462,-755,0,0,0,0,0,0,0,0,0,-1,762,1779,0,0
-455,-755,0,0,0,0,0,0,0,0,0,-1,769,1779,0,0
-448,-755,0,0,0,0,0,0,0,0,0,-1,776,1779,0,0
-441,-755,0,0,0,0,0,0,0,0,0,-1,783,1779,0,0
-434,-755,0,0,0,0,0,0,0,0,0,-1,790,1779,0,0
-427,-755,0,0,0,0,0,0,0,0,0,-1,797,1779,0,0
-420,-755,0,0,0,0,0,0,0,0,0,-1,804,1779,0,0
-413,-755,0,0,0,0,0,0,0,0,0,-1,811,1779,0,0
-406,-755,0,0,0,0,0,0,0,0,0,-1,818,1779,0,0
-399,-755,0,0,0,0,0,0,0,0,0,-1,825,1779,0,0
-392,-755,0,0,0,0,0,0,0,0,0,-1,832,1779,0,0
-385,-755,0,0,0,0,0,0,0,0,0,-1,839,1779,0,0
-378,-755,0,0,0,0,0,0,0,0,0,-1,846,1779,0,0
-371,-755,0,0,0,0,0,0,0,0,0,-1,853,1779,0,0
-364,-755,0,0,0,0,0,0,0,0,0,-1,860,1779,0,0
-357,-755,0,0,0,0,0,0,0,0,0,-1,867,1779,0,0
-350,-755,0,0,0,0,0,0,0,0,0,-1,874,1779,0,0
-343,-755,0,0,0,0,0,0,0,0,0,-1,881,1779,0,0
-336,-755,0,0,0,0,0,0,0,0,0,-1,888,1779,0,0
-329,-755,0,0,0,0,0,0,0,0,0,-1,895,1779,0,0
-322,-755,0,0,0,0,0,0,0,0,0,-1,902,1779,0,0
-315,-755,0,0,0,0,0,0,0,0,0,-1,909,1779,0,0
-308,-755,0,0,0,0,0,0,0,0,0,-1,916,1779,0,0
-301,-755,0,0,0,0,0,0,0,0,0,-1,923,1779,0,0
-294,-755,0,0,0,0,0,0,0,0,0,-1,930,1779,0,0
-287,-755,0,0,0,0,0,0,0,0,0,-1,937,1779,0,0
-280,-755,0,0,0,0,0,0,0,0,0,-1,944,1779,0,0
-273,-755,0,0,0,0,0,0,0,0,0,-1,951,1779,0,0
-266,-755,0,0,0,0,0,0,0,0,0,-1,958,1779,0,0
-259,-755,0,0,0,0,0,0,0,0,0,-1,965,1779,0,0
-252,-755,0,0,0,0,0,0,0,0,0,-1,972,1779,0,0
-245,-755,0,0,0,0,0,0,0,0,0,-1,979,1779,0,0
-238,-755,0,0,0,0,0,0,0,0,0,-1,986,1779,0,0
-231,-755,0,0,0,0,0,0,0,0,0,-1,993,1779,0,0
-224,-755,0,0,0,0,0,0,0,0,0,-1,1000,1779,0,0
-217,-755,0,0,0,0,0,0,0,0,0,-1,1007,1779,0,0
-210,-755,0,0,0,0,0,0,0,0,0,-1,1014,1779,0,0
-203,-755,5.47998,25.527,0,0,0,0,0,0,0,-1,1021,1779,5.47993,-25.527
-196,-755,5.18445,23.9307,0,0,0,0,0,0,0,-1,1028,1779,5.1844,-23.9306
-189,-755,4.8175,22.4788,0,0,0,0,0,0,0,-1,1035,1779,4.81745,-22.4788
-182,-755,4.021,20.8032,0,0,0,0,0,0,0,-1,1042,1779,4.02094,-20.8032
-175,-755,3.79993,18.8242,0,0,0,0,0,0,0,-1,1049,1779,3.79995,-18.8242
-168,-755,3.14294,16.9865,0,0,0,0,0,0,0,-1,1056,1779,3.14291,-16.9864
-161,-755,-2.85889,11.5868,0,0,0,0,0,0,0,-1,1063,1779,-2.85887,-11.5868
-154,-755,-5.39026,8.51416,0,0,0,0,0,0,0,-1,1070,1779,-5.3903,-8.51417
-147,-755,-6.45593,10.2422,0,0,0,0,0,0,0,-1,1077,1779,-6.45594,-10.2422
-140,-755,2.32935,21.4536,0,0,0,0,0,0,0,-1,1084,1779,2.32932,-21.4536
-133,-755,2.89417,21.0964,0,0,0,0,0,0,0,-1,1091,1779,2.89422,-21.0964
-126,-755,3.26404,20.9304,0,0,0,0,0,0,0,-1,1098,1779,3.26399,-20.9305
-119,-755,5.17761,21.9325,0,0,0,0,0,0,0,-1,1105,1779,5.17761,-21.9325
-112,-755,5.40247,24.5646,0,0,0,0,0,0,0,-1,1112,1779,5.40244,-24.5646
-105,-755,6.6344,19.6062,0,0,0,0,0,0,0,-1,1119,1779,6.63439,-19.6062
-98,-755,6.32544,15.6812,0,0,0,0,0,0,0,-1,1126,1779,6.32543,-15.6812
-91,-755,5.51025,12.0438,0,0,0,0,0,0,0,-1,1133,1779,5.51022,-12.0439
-84,-755,0.169312,8.66443,0,0,0,0,0,0,0,-1,1140,1779,0.16932,-8.66446
-77,-755,-0.0491943,6.87439,0,0,0,0,0,0,0,-1,1147,1779,-0.0491385,-6.87443
-70,-755,4.5686,13.2169,0,0,0,0,0,0,0,-1,1154,1779,4.56865,-13.2169
-63,-755,-1.36316,7.3147,0,0,0,0,0,0,0,-1,1161,1779,-1.36312,-7.31473
-56,-755,0.0483398,5.06079,0,0,0,0,0,0,0,-1,1168,1779,0.0483138,-5.06084
-49,-755,-1.32263,5.33716,0,0,0,0,0,0,0,-1,1175,1779,-1.32264,-5.33718
-42,-755,-2.03613,4.01672,0,0,0,0,0,0,0,-1,1182,1779,-2.0361,-4.01671
-35,-755,-2.72498,2.37476,0,0,0,0,0,0,0,-1,1189,1779,-2.72502,-2.37473
-28,-755,6.51379,26.4341,0,0,0,0,0,0,0,-1,1196,1779,6.51377,-26.434
-21,-755,6.52063,26.5365,0,0,0,0,0,0,0,-1,1203,1779,6.52065,-26.5365
-14,-755,6.61353,26.4222,0.0338401,0.0276909,0.00820661,0.0395291,0.0220018,0.606167,0.0228708,0.0318408,1210,1779,6.61355,-26.4222
-7,-755,6.49768,26.4962,0.0296088,0.0267667,0.00799888,0.0363119,0.0200636,0.697489,0.0210032,0.0227103,1217,1779,6.49774,-26.4962
0,-755,6.45752,26.5662,0.0248033,0.0257577,0.00773672,0.0330319,0.0175291,0.816199,0.019083,0.0139936,1224,1779,6.45753,-26.5662
7,-755,6.4585,26.6367,0.0204171,0.0247422,0.00727332,0.0301677,0.0149917,0.929901,0.0174174,0.0122636,1231,1779,6.45846,-26.6367
14,-755,6.44385,26.6971,0.0143182,0.0233775,0.00688159,0.0270864,0.0106093,1.07647,0.0157602,0.0111614,1238,1779,6.4438,-26.6972
21,-755,6.42908,26.7648,0.00762762,0.0218774,0.00647057,0.024377,0.00512793,1.20214,0.0148404,0.0160512,1245,1779,6.42904,-26.7648
28,-755,6.38611,26.7941,0.000494314,0.0202176,0.00624546,0.0220289,-0.00131699,1.28852,0.015144,0.0184647,1252,1779,6.38616,-26.794
35,-755,6.37744,26.8489,-0.00611291,0.0182732,0.00595665,0.0196505,-0.00749012,1.34358,0.0161854,0.0177109,1259,1779,6.37743,-26.8489
42,-755,6.3634,26.8729,-0.0138102,0.0165909,0.00531307,0.0174927,-0.014712,1.40267,0.0186165,0.0132519,1266,1779,6.36343,-26.873
49,-755,6.33875,26.869,-0.0206754,0.0148801,0.0048253,0.0155233,-0.0213186,1.43828,0.0213582,0.00932705,1273,1779,6.33876,-26.869
56,-755,6.29138,26.8975,-0.026347,0.0131922,0.00392336,0.0135777,-0.0267325,1.47284,0.0236826,0.0084436,1280,1779,6.29135,-26.8975
63,-755,6.27466,26.8972,-0.0318663,0.0111672,0.00312719,0.0113933,-0.0320924,1.49863,0.0260373,0.00867114,1287,1779,6.27463,-26.8972
70,-755,6.27539,26.9065,-0.0361468,0.00985365,0.00250136,0.00998927,-0.0362824,1.51663,0.0281159,0.0115924,1294,1779,6.2754,-26.9065
77,-755,6.24695,26.887,-0.0390744,0.00899934,0.00200639,0.00908293,-0.039158,1.52916,0.0296012,0.0108327,1301,1779,6.24689,-26.887
84,-755,6.23962,26.8936,-0.0414202,0.00822195,0.000926343,0.00823923,-0.0414375,1.55214,0.0307417,0.0117215,1308,1779,6.23962,-26.8935
91,-755,6.19934,26.8861,-0.0429725,0.0063504,-0.000131054,0.00635075,-0.0429729,-1.56814,0.0309832,0.0121087,1315,1779,6.19936,-26.8861
98,-755,6.146,26.874,-0.0431808,0.00574536,-0.000970663,0.00576462,-0.0432001,-1.55097,0.0309014,0.0127415,1322,1779,6.146,-26.874
105,-755,6.17297,26.8615,-0.0434109,0.00511804,-0.00173034,0.00517967,-0.0434725,-1.5352,0.0308535,0.0161352,1329,1779,6.17296,-26.8614
112,-755,6.19092,26.8176,-0.0433168,0.00428723,-0.00235388,0.00440334,-0.0434329,-1.52151,0.0305291,0.021208,1336,1779,6.19098,-26.8176
119,-755,6.13806,26.7947,-0.0425125,0.00336826,-0.00312518,0.00358015,-0.0427244,-1.5031,0.0297482,0.0207372,1343,1779,6.13807,-26.7947
126,-755,6.07471,26.8463,-0.0413998,0.00249927,-0.00374113,0.00281581,-0.0417163,-1.48639,0.0287954,0.0237288,1350,1779,6.0747,-26.8463
133,-755,6.03992,26.7554,-0.0401739,0.00179853,-0.00429762,0.00223405,-0.0406094,-1.4698,0.0278475,0.0244823,1357,1779,6.0399,-26.7553
140,-755,6.0531,26.671,-0.0392703,0.00132645,-0.00461165,0.00184373,-0.0397876,-1.4591,0.0271605,0.0296852,1364,1779,6.0531,-26.671
147,-755,6.11279,26.6249,-0.0382079,0.0006991,-0.00481248,0.00128553,-0.0387943,-1.44954,0.0263018,0.0325456,1371,1779,6.1128,-26.6248
154,-755,6.09204,26.5919,-0.0371921,0.000274305,-0.00509726,0.000955399,-0.0378732,-1.43796,0.0255732,0.0344417,1378,1779,6.09203,-26.5919
161,-755,5.99219,26.536,0,0,0,0,0,0,0,-1,1385,1779,5.99218,-26.536
168,-755,3.98181,7.35901,0,0,0,0,0,0,0,-1,1392,1779,3.98184,-7.35904
175,-755,8.17065,1.34363,0,0,0,0,0,0,0,-1,1399,1779,8.1706,-1.34368
182,-755,8.09216,2.96924,0,0,0,0,0,0,0,-1,1406,1779,8.09213,-2.9693
189,-755,8.04419,4.68042,0,0,0,0,0,0,0,-1,1413,1779,8.04419,-4.68046
196,-755,7.74841,7.4541,0,0,0,0,0,0,0,-1,1420,1779,7.74842,-7.45405
203,-755,4.80554,6.88696,0,0,0,0,0,0,0,-1,1427,1779,4.80554,-6.88697
210,-755,25.1694,7.35693,0,0,0,0,0,0,0,-1,1434,1779,25.1694,-7.35688
217,-755,5.01648,16.411,0,0,0,0,0,0,0,-1,1441,1779,5.01646,-16.411
224,-755,5.18103,22.6283,0,0,0,0,0,0,0,-1,1448,1779,5.18101,-22.6283
231,-755,6.22888,24.567,0,0,0,0,0,0,0,-1,1455,1779,6.22886,-24.567
238,-755,6.13904,24.6914,0,0,0,0,0,0,0,-1,1462,1779,6.13904,-24.6914
245,-755,5.93274,24.2697,0,0,0,0,0,0,0,-1,1469,1779,5.93275,-24.2696
252,-755,6.65991,23.8298,0,0,0,0,0,0,0,-1,1476,1779,6.65986,-23.8298
259,-755,7.58691,23.2006,0,0,0,0,0,0,0,-1,1483,1779,7.58687,-23.2005
266,-755,17.255,7.86096,0,0,0,0,0,0,0,-1,1490,1779,17.255,-7.86092
273,-755,15.7932,7.59778,0,0,0,0,0,0,0,-1,1497,1779,15.7932,-7.59777
280,-755,14.6255,7.34802,0,0,0,0,0,0,0,-1,1504,1779,14.6254,-7.34806
287,-755,13.8279,7.83105,0,0,0,0,0,0,0,-1,1511,1779,13.8279,-7.83104
294,-755,12.5695,7.96814,0,0,0,0,0,0,0,-1,1518,1779,12.5694,-7.9682
301,-755,11.2659,8.27087,0,0,0,0,0,0,0,-1,1525,1779,11.2658,-8.27087
308,-755,9.94434,8.55811,0,0,0,0,0,0,0,-1,1532,1779,9.94428,-8.55806
315,-755,8.64502,9.04492,0,0,0,0,0,0,0,-1,1539,1779,8.64497,-9.04488
322,-755,0,0,0,0,0,0,0,0,0,-1,1546,1779,0,0
329,-755,0,0,0,0,0,0,0,0,0,-1,1553,1779,0,0
336,-755,0,0,0,0,0,0,0,0,0,-1,1560,1779,0,0
343,-755,0,0,0,0,0,0,0,0,0,-1,1567,1779,0,0
350,-755,0,0,0,0,0,0,0,0,0,-1,1574,1779,0,0
357,-755,0,0,0,0,0,0,0,0,0,-1,1581,1779,0,0
364,-755,0,0,0,0,0,0,0,0,0,-1,1588,1779,0,0
371,-755,0,0,0,0,0,0,0,0,0,-1,1595,1779,0,0
378,-755,0,0,0,0,0,0,0,0,0,-1,1602,1779,0,0
385,-755,0,0,0,0,0,0,0,0,0,-1,1609,1779,0,0
392,-755,0,0,0,0,0,0,0,0,0,-1,1616,1779,0,0
399,-755,0,0,0,0,0,0,0,0,0,-1,1623,1779,0,0
406,-755,0,0,0,0,0,0,0,0,0,-1,1630,1779,0,0
413,-755,0,0,0,0,0,0,0,0,0,-1,1637,1779,0,0
420,-755,0,0,0,0,0,0,0,0,0,-1,1644,1779,0,0
427,-755,0,0,0,0,0,0,0,0,0,-1,1651,1779,0,0
434,-755,0,0,0,0,0,0,0,0,0,-1,1658,1779,0,0
441,-755,0,0,0,0,0,0,0,0,0,-1,1665,1779,0,0
448,-755,0,0,0,0,0,0,0,0,0,-1,1672,1779,0,0
455,-755,0,0,0,0,0,0,0,0,0,-1,1679,1779,0,0
462,-755,0,0,0,0,0,0,0,0,0,-1,1686,1779,0,0
469,-755,0,0,0,0,0,0,0,0,0,-1,1693,1779,0,0
476,-755,0,0,0,0,0,0,0,0,0,-1,1700,1779,0,0
483,-755,0,0,0,0,0,0,0,0,0,-1,1707,1779,0,0
490,-755,0,0,0,0,0,0,0,0,0,-1,1714,1779,0,0
497,-755,0,0,0,0,0,0,0,0,0,-1,1721,1779,0,0
504,-755,0,0,0,0,0,0,0,0,0,-1,1728,1779,0,0
511,-755,0,0,0,0,0,0,0,0,0,-1,1735,1779,0,0
518,-755,0,0,0,0,0,0,0,0,0,-1,1742,1779,0,0
525,-755,0,0,0,0,0,0,0,0,0,-1,1749,1779,0,0
532,-755,0,0,0,0,0,0,0,0,0,-1,1756,1779,0,0
539,-755,0,0,0,0,0,0,0,0,0,-1,1763,1779,0,0
546,-755,0,0,0,0,0,0,0,0,0,-1,1770,1779,0,0
553,-755,0,0,0,0,0,0,0,0,0,-1,1777,1779,0,0
560,-755,0,0,0,0,0,0,0,0,0,-1,1784,1779,0,0
567,-755,0,0,0,0,0,0,0,0,0,-1,1791,1779,0,0
574,-755,0,0,0,0,0,0,0,0,0,-1,1798,1779,0,0
581,-755,0,0,0,0,0,0,0,0,0,-1,1805,1779,0,0
588,-755,0,0,0,0,0,0,0,0,0,-1,1812,1779,0,0
595,-755,0,0,0,0,0,0,0,0,0,-1,1819,1779,0,0
602,-755,0,0,0,0,0,0,0,0,0,-1,1826,1779,0,0
609,-755,0,0,0,0,0,0,0,0,0,-1,1833,1779,0,0
616,-755,0,0,0,0,0,0,0,0,0,-1,1840,1779,0,0
623,-755,0,0,0,0,0,0,0,0,0,-1,1847,1779,0,0
630,-755,0,0,0,0,0,0,0,0,0,-1,1854,1779,0,0
637,-755,0,0,0,0,0,0,0,0,0,-1,1861,1779,0,0
644,-755,0,0,0,0,0,0,0,0,0,-1,1868,1779,0,0
651,-755,0,0,0,0,0,0,0,0,0,-1,1875,1779,0,0
658,-755,0,0,0,0,0,0,0,0,0,-1,1882,1779,0,0
665,-755,0,0,0,0,0,0,0,0,0,-1,1889,1779,0,0
672,-755,0,0,0,0,0,0,0,0,0,-1,1896,1779,0,0
679,-755,0,0,0,0,0,0,0,0,0,-1,1903,1779,0,0
686,-755,0,0,0,0,0,0,0,0,0,-1,1910,1779,0,0
693,-755,0,0,0,0,0,0,0,0,0,-1,1917,1779,0,0
700,-755,0,0,0,0,0,0,0,0,0,-1,1924,1779,0,0
707,-755,0,0,0,0,0,0,0,0,0,-1,1931,1779,0,0
714,-755,0,0,0,0,0,0,0,0,0,-1,1938,1779,0,0
721,-755,0,0,0,0,0,0,0,0,0,-1,1945,1779,0,0
728,-755,0,0,0,0,0,0,0,0,0,-1,1952,1779,0,0
735,-755,0,0,0,0,0,0,0,0,0,-1,1959,1779,0,0
742,-755,0,0,0,0,0,0,0,0,0,-1,1966,1779,0,0
749,-755,0,0,0,0,0,0,0,0,0,-1,1973,1779,0,0
756,-755,0,0,0,0,0,0,0,0,0,-1,1980,1779,0,0
763,-755,0,0,0,0,0,0,0,0,0,-1,1987,1779,0,0
770,-755,0,0,0,0,0,0,0,0,0,-1,1994,1779,0,0
777,-755,0,0,0,0,0,0,0,0,0,-1,2001,1779,0,0
784,-755,0,0,0,0,0,0,0,0,0,-1,2008,1779,0,0
791,-755,0,0,0,0,0,0,0,0,0,-1,2015,1779,0,0
798,-755,0,0,0,0,0,0,0,0,0,-1,2022,1779,0,0
805,-755,0,0,0,0,0,0,0,0,0,-1,2029,1779,0,0
812,-755,0,0,0,0,0,0,0,0,0,-1,2036,1779,0,0
-700,-762,0,0,0,0,0,0,0,0,0,-1,524,1786,0,0
-693,-762,0,0,0,0,0,0,0,0,0,-1,531,1786,0,0
-686,-762,0,0,0,0,0,0,0,0,0,-1,538,1786,0,0
-679,-762,0,0,0,0,0,0,0,0,0,-1,545,1786,0,0
-672,-762,0,0,0,0,0,0,0,0,0,-1,552,1786,0,0
-665,-762,0,0,0,0,0,0,0,0,0,-1,559,1786,0,0
-658,-762,0,0,0,0,0,0,0,0,0,-1,566,1786,0,0
-651,-762,0,0,0,0,0,0,0,0,0,-1,573,1786,0,0
-644,-762,0,0,0,0,0,0,0,0,0,-1,580,1786,0,0
-637,-762,0,0,0,0,0,0,0,0,0,-1,587,1786,0,0
-630,-762,0,0,0,0,0,0,0,0,0,-1,594,1786,0,0
-623,-762,0,0,0,0,0,0,0,0,0,-1,601,1786,0,0
-616,-762,0,0,0,0,0,0,0,0,0,-1,608,1786,0,0
-609,-762,0,0,0,0,0,0,0,0,0,-1,615,1786,0,0
-602,-762,0,0,0,0,0,0,0,0,0,-1,622,1786,0,0
-595,-762,0,0,0,0,0,0,0,0,0,-1,629,1786,0,0
-588,-762,0,0,0,0,0,0,0,0,0,-1,636,1786,0,0
-581,-762,0,0,0,0,0,0,0,0,0,-1,643,1786,0,0
-574,-762,0,0,0,0,0,0,0,0,0,-1,650,1786,0,0
-567,-762,0,0,0,0,0,0,0,0,0,-1,657,1786,0,0
-560,-762,0,0,0,0,0,0,0,0,0,-1,664,1786,0,0
-553,-762,0,0,0,0,0,0,0,0,0,-1,671,1786,0,0
-546,-762,0,0,0,0,0,0,0,0,0,-1,678,1786,0,0
-539,-762,0,0,0,0,0,0,0,0,0,-1,685,1786,0,0
-532,-762,0,0,0,0,0,0,0,0,0,-1,692,1786,0,0
-525,-762,0,0,0,0,0,0,0,0,0,-1,699,1786,0,0
-518,-762,0,0,0,0,0,0,0,0,0,-1,706,1786,0,0
-511,-762,0,0,0,0,0,0,0,0,0,-1,713,1786,0,0
-504,-762,0,0,0,0,0,0,0,0,0,-1,720,1786,0,0
-497,-762,0,0,0,0,0,0,0,0,0,-1,727,1786,0,0
-490,-762,0,0,0,0,0,0,0,0,0,-1,734,1786,0,0
-483,-762,0,0,0,0,0,0,0,0,0,-1,741,1786,0,0
-476,-762,0,0,0,0,0,0,0,0,0,-1,748,1786,0,0
-469,-762,0,0,0,0,0,0,0,0,0,-1,755,1786,0,0
-462,-762,0,0,0,0,0,0,0,0,0,-1,762,1786,0,0
-455,-762,0,0,0,0,0,0,0,0,0,-1,769,1786,0,0
-448,-762,0,0,0,0,0,0,0,0,0,-1,776,1786,0,0
-441,-762,0,0,0,0,0,0,0,0,0,-1,783,1786,0,0
-434,-762,0,0,0,0,0,0,0,0,0,-1,790,1786,0,0
-427,-762,0,0,0,0,0,0,0,0,0,-1,797,1786,0,0
-420,-762,0,0,0,0,0,0,0,0,0,-1,804,1786,0,0
-413,-762,0,0,0,0,0,0,0,0,0,-1,811,1786,0,0
-406,-762,0,0,0,0,0,0,0,0,0,-1,818,1786,0,0
-399,-762,0,0,0,0,0,0,0,0,0,-1,825,1786,0,0
-392,-762,0,0,0,0,0,0,0,0,0,-1,832,1786,0,0
-385,-762,0,0,0,0,0,0,0,0,0,-1,839,1786,0,0
-378,-762,0,0,0,0,0,0,0,0,0,-1,846,1786,0,0
-371,-762,0,0,0,0,0,0,0,0,0,-1,853,1786,0,0
-364,-762,0,0,0,0,0,0,0,0,0,-1,860,1786,0,0
-357,-762,0,0,0,0,0,0,0,0,0,-1,867,1786,0,0
-350,-762,0,0,0,0,0,0,0,0,0,-1,874,1786,0,0
-343,-762,0,0,0,0,0,0,0,0,0,-1,881,1786,0,0
-336,-762,0,0,0,0,0,0,0,0,0,-1,888,1786,0,0
-329,-762,0,0,0,0,0,0,0,0,0,-1,895,1786,0,0
-322,-762,0,0,0,0,0,0,0,0,0,-1,902,1786,0,0
-315,-762,0,0,0,0,0,0,0,0,0,-1,909,1786,0,0
-308,-762,0,0,0,0,0,0,0,0,0,-1,916,1786,0,0
-301,-762,0,0,0,0,0,0,0,0,0,-1,923,1786,0,0
-294,-762,0,0,0,0,0,0,0,0,0,-1,930,1786,0,0
-287,-762,0,0,0,0,0,0,0,0,0,-1,937,1786,0,0
-280,-762,0,0,0,0,0,0,0,0,0,-1,944,1786,0,0
-273,-762,0,0,0,0,0,0,0,0,0,-1,951,1786,0,0
-266,-762,0,0,0,0,0,0,0,0,0,-1,958,1786,0,0
-259,-762,0,0,0,0,0,0,0,0,0,-1,965,1786,0,0
-252,-762,0,0,0,0,0,0,0,0,0,-1,972,1786,0,0
-245,-762,0,0,0,0,0,0,0,0,0,-1,979,1786,0,0
-238,-762,0,0,0,0,0,0,0,0,0,-1,986,1786,0,0
-231,-762,0,0,0,0,0,0,0,0,0,-1,993,1786,0,0
-224,-762,0,0,0,0,0,0,0,0,0,-1,1000,1786,0,0
-217,-762,0,0,0,0,0,0,0,0,0,-1,1007,1786,0,0
-210,-762,0,0,0,0,0,0,0,0,0,-1,1014,1786,0,0
-203,-762,0,0,0,0,0,0,0,0,0,-1,1021,1786,0,0
-196,-762,0,0,0,0,0,0,0,0,0,-1,1028,1786,0,0
-189,-762,0,0,0,0,0,0,0,0,0,-1,1035,1786,0,0
-182,-762,4.44226,13.2462,0,0,0,0,0,0,0,-1,1042,1786,4.44227,-13.2462
-175,-762,4.3219,18.3975,0,0,0,0,0,0,0,-1,1049,1786,4.32192,-18.3974
-168,-762,-2.08618,13.0768,0,0,0,0,0,0,0,-1,1056,1786,-2.08623,-13.0768
-161,-762,-3.29077,11.9508,0,0,0,0,0,0,0,-1,1063,1786,-3.29076,-11.9508
-154,-762,-4.55823,11.1176,0,0,0,0,0,0,0,-1,1070,1786,-4.55828,-11.1175
-147,-762,-6.52454,9.41418,0,0,0,0,0,0,0,-1,1077,1786,-6.52458,-9.41419
-140,-762,4.99792,5.28589,0,0,0,0,0,0,0,-1,1084,1786,4.99793,-5.28587
-133,-762,0.689819,19.2172,0,0,0,0,0,0,0,-1,1091,1786,0.689867,-19.2171
-126,-762,1.48743,19.9288,0,0,0,0,0,0,0,-1,1098,1786,1.48738,-19.9289
-119,-762,2.65637,20.208,0,0,0,0,0,0,0,-1,1105,1786,2.65632,-20.208
-112,-762,3.09082,20.488,0,0,0,0,0,0,0,-1,1112,1786,3.09077,-20.488
-105,-762,6.20923,21.3702,0,0,0,0,0,0,0,-1,1119,1786,6.20928,-21.3703
-98,-762,5.58447,17.7201,0,0,0,0,0,0,0,-1,1126,1786,5.58445,-17.7201
-91,-762,4.74573,14.093,0,0,0,0,0,0,0,-1,1133,1786,4.74571,-14.0931
-84,-762,3.96375,10.4547,0,0,0,0,0,0,0,-1,1140,1786,3.96371,-10.4548
-77,-762,0.305054,8.49365,0,0,0,0,0,0,0,-1,1147,1786,0.305008,-8.49362
-70,-762,0.183716,6.74622,0,0,0,0,0,0,0,-1,1154,1786,0.183696,-6.74621
-63,-762,-0.883057,9.08813,0,0,0,0,0,0,0,-1,1161,1786,-0.88311,-9.08808
-56,-762,-0.578979,5.10254,0,0,0,0,0,0,0,-1,1168,1786,-0.578951,-5.10249
-49,-762,-2.04541,3.66321,0,0,0,0,0,0,0,-1,1175,1786,-2.0454,-3.66319
-42,-762,-2.23462,3.474,0,0,0,0,0,0,0,-1,1182,1786,-2.23459,-3.47399
-35,-762,-3.28992,1.68164,0,0,0,0,0,0,0,-1,1189,1786,-3.28998,-1.68164
-28,-762,-3.75378,1.37769,0,0,0,0,0,0,0,-1,1196,1786,-3.75373,-1.37767
-21,-762,7.10742,25.4987,0,0,0,0,0,0,0,-1,1203,1786,7.10743,-25.4987
-14,-762,6.25,27.4631,0,0,0,0,0,0,0,-1,1210,1786,6.25,-27.4631
-7,-762,6.58582,26.653,0.044232,0.0384992,0.00996751,0.0517371,0.0309941,0.64539,0.0300652,0.0494466,1217,1786,6.58583,-26.6529
0,-762,6.4054,26.604,0.0368862,0.0372417,0.00959197,0.0466576,0.0274703,0.794664,0.0270789,0.0351336,1224,1786,6.40536,-26.604
7,-762,6.50037,26.6416,0.0302601,0.0360108,0.00896757,0.0425527,0.0237182,0.940538,0.0246217,0.0204381,1231,1786,6.50043,-26.6416
14,-762,6.54065,26.8525,0.0209999,0.0340344,0.00852995,0.0382519,0.0167824,1.11161,0.02214,0.0347868,1238,1786,6.54064,-26.8526
21,-762,6.46448,26.903,0.0107878,0.031765,0.00814649,0.0345571,0.00799577,1.24061,0.0208893,0.043338,1245,1786,6.46454,-26.903
28,-762,6.30408,26.8713,-2.9647e-05,0.0291646,0.00804593,0.0312352,-0.00210025,1.31891,0.0215577,0.0413506,1252,1786,6.3041,-26.8713
35,-762,6.25549,26.8872,-0.00989887,0.0262363,0.00785309,0.0278692,-0.0115318,1.36579,0.0233909,0.0413868,1259,1786,6.25555,-26.8872
42,-762,6.27234,26.9803,-0.0211965,0.0237604,0.00717976,0.0248792,-0.0223153,1.41621,0.0272612,0.0393573,1266,1786,6.27238,-26.9803
49,-762,6.23999,26.9209,-0.0311339,0.0211635,0.00673746,0.0220175,-0.031988,1.44471,0.0313567,0.0315792,1273,1786,6.23998,-26.9209
56,-762,6.32605,26.9194,-0.0390478,0.018676,0.00577077,0.0192472,-0.0396191,1.47213,0.0346582,0.0221111,1280,1786,6.32606,-26.9194
63,-762,6.32751,26.9263,-0.0466935,0.0156894,0.00488809,0.0160701,-0.0470742,1.49307,0.0378929,0.0206694,1287,1786,6.32747,-26.9262
70,-762,6.32971,26.9337,-0.0525556,0.0136676,0.00416059,0.013928,-0.052816,1.5083,0.0406565,0.0214956,1294,1786,6.32968,-26.9337
77,-762,6.2655,26.8744,-0.0563012,0.0124901,0.00350608,0.0126684,-0.0564794,1.52,0.0425097,0.0289116,1301,1786,6.26549,-26.8744
84,-762,6.23486,26.9097,-0.0591434,0.0114094,0.00204677,0.0114687,-0.0592027,1.54182,0.0437948,0.0344357,1308,1786,6.23488,-26.9096
91,-762,6.3291,26.9564,-0.0609213,0.00890206,0.00057195,0.00890675,-0.060926,1.56261,0.0438885,0.0426479,1315,1786,6.3291,-26.9564
98,-762,6.29858,26.924,-0.0610258,0.00812051,-0.000646783,0.00812656,-0.0610318,-1.56144,0.0436496,0.0434815,1322,1786,6.29859,-26.9239
105,-762,6.29651,26.9236,-0.061126,0.00727371,-0.00178198,0.00732011,-0.0611724,-1.54477,0.0434278,0.0410634,1329,1786,6.29645,-26.9236
112,-762,6.09302,26.7587,-0.0608024,0.00618532,-0.00274733,0.0062978,-0.0609149,-1.52988,0.0428637,0.0423109,1336,1786,6.09305,-26.7586
119,-762,6.10535,26.7904,-0.0596712,0.00502861,-0.00390488,0.00526344,-0.059906,-1.51073,0.0418024,0.0442353,1343,1786,6.10534,-26.7905
126,-762,5.99207,27.0096,-0.0581622,0.00389879,-0.00485663,0.00427655,-0.05854,-1.49317,0.0405274,0.047472,1350,1786,5.99202,-27.0097
133,-762,5.88757,26.7599,-0.0565832,0.00298143,-0.00567385,0.00351708,-0.0571188,-1.47667,0.0393041,0.046945,1357,1786,5.88763,-26.7598
140,-762,5.86963,26.6074,-0.0554876,0.00234143,-0.00613116,0.00298433,-0.0561305,-1.46632,0.0384537,0.0450675,1364,1786,5.86964,-26.6074
147,-762,6.51294,26.9261,-0.0544524,0.0016018,-0.00652244,0.00235075,-0.0552013,-1.45647,0.037609,0.0412717,1371,1786,6.51293,-26.9262
154,-762,6.04614,26.6487,0,0,0,0,0,0,0,-1,1378,1786,6.04612,-26.6486
161,-762,7.93408,-0.126221,0,0,0,0,0,0,0,-1,1385,1786,7.93402,0.126232
168,-762,8.19287,0.880615,0,0,0,0,0,0,0,-1,1392,1786,8.19291,-0.880603
175,-762,8.33997,1.95947,0,0,0,0,0,0,0,-1,1399,1786,8.33997,-1.95942
182,-762,8.28418,3.56482,0,0,0,0,0,0,0,-1,1406,1786,8.28415,-3.56485
189,-762,8.21179,5.23389,0,0,0,0,0,0,0,-1,1413,1786,8.21183,-5.23383
196,-762,8.05969,6.95483,0,0,0,0,0,0,0,-1,1420,1786,8.05972,-6.9548
203,-762,24.0077,7.10425,0,0,0,0,0,0,0,-1,1427,1786,24.0077,-7.10426
210,-762,23.8073,7.6499,0,0,0,0,0,0,0,-1,1434,1786,23.8073,-7.64987
217,-762,23.3193,8.24426,0,0,0,0,0,0,0,-1,1441,1786,23.3194,-8.2442
224,-762,2.65149,20.6106,0,0,0,0,0,0,0,-1,1448,1786,2.65153,-20.6106
231,-762,5.46655,23.521,0,0,0,0,0,0,0,-1,1455,1786,5.46653,-23.521
238,-762,4.57458,23.4314,0,0,0,0,0,0,0,-1,1462,1786,4.57457,-23.4314
245,-762,5.3689,23.368,0,0,0,0,0,0,0,-1,1469,1786,5.36894,-23.368
252,-762,5.77368,22.3805,0,0,0,0,0,0,0,-1,1476,1786,5.77365,-22.3805
259,-762,17.4619,7.89832,0,0,0,0,0,0,0,-1,1483,1786,17.462,-7.89836
266,-762,16.451,7.67773,0,0,0,0,0,0,0,-1,1490,1786,16.4511,-7.67773
273,-762,15.287,7.5304,0,0,0,0,0,0,0,-1,1497,1786,15.2869,-7.53044
280,-762,14.1501,7.38379,0,0,0,0,0,0,0,-1,1504,1786,14.1502,-7.38376
287,-762,12.6891,7.99133,0,0,0,0,0,0,0,-1,1511,1786,12.6891,-7.99135
294,-762,12.6959,8.30371,0,0,0,0,0,0,0,-1,1518,1786,12.6959,-8.30368
301,-762,11.4222,8.84143,0,0,0,0,0,0,0,-1,1525,1786,11.4223,-8.84149
308,-762,0,0,0,0,0,0,0,0,0,-1,1532,1786,0,0
315,-762,0,0,0,0,0,0,0,0,0,-1,1539,1786,0,0
322,-762,0,0,0,0,0,0,0,0,0,-1,1546,1786,0,0
329,-762,0,0,0,0,0,0,0,0,0,-1,1553,1786,0,0
336,-762,0,0,0,0,0,0,0,0,0,-1,1560,1786,0,0
343,-762,0,0,0,0,0,0,0,0,0,-1,1567,1786,0,0
350,-762,0,0,0,0,0,0,0,0,0,-1,1574,1786,0,0
357,-762,0,0,0,0,0,0,0,0,0,-1,1581,1786,0,0
364,-762,0,0,0,0,0,0,0,0,0,-1,1588,1786,0,0
371,-762,0,0,0,0,0,0,0,0,0,-1,1595,1786,0,0
378,-762,0,0,0,0,0,0,0,0,0,-1,1602,1786,0,0
385,-762,0,0,0,0,0,0,0,0,0,-1,1609,1786,0,0
392,-762,0,0,0,0,0,0,0,0,0,-1,1616,1786,0,0
399,-762,0,0,0,0,0,0,0,0,0,-1,1623,1786,0,0
406,-762,0,0,0,0,0,0,0,0,0,-1,1630,1786,0,0
413,-762,0,0,0,0,0,0,0,0,0,-1,1637,1786,0,0
420,-762,0,0,0,0,0,0,0,0,0,-1,1644,1786,0,0
427,-762,0,0,0,0,0,0,0,0,0,-1,1651,1786,0,0
434,-762,0,0,0,0,0,0,0,0,0,-1,1658,1786,0,0
441,-762,0,0,0,0,0,0,0,0,0,-1,1665,1786,0,0
448,-762,0,0,0,0,0,0,0,0,0,-1,1672,1786,0,0
455,-762,0,0,0,0,0,0,0,0,0,-1,1679,1786,0,0
462,-762,0,0,0,0,0,0,0,0,0,-1,1686,1786,0,0
469,-762,0,0,0,0,0,0,0,0,0,-1,1693,1786,0,0
476,-762,0,0,0,0,0,0,0,0,0,-1,1700,1786,0,0
483,-762,0,0,0,0,0,0,0,0,0,-1,1707,1786,0,0
490,-762,0,0,0,0,0,0,0,0,0,-1,1714,1786,0,0
497,-762,0,0,0,0,0,0,0,0,0,-1,1721,1786,0,0
504,-762,0,0,0,0,0,0,0,0,0,-1,1728,1786,0,0
511,-762,0,0,0,0,0,0,0,0,0,-1,1735,1786,0,0
518,-762,0,0,0,0,0,0,0,0,0,-1,1742,1786,0,0
525,-762,0,0,0,0,0,0,0,0,0,-1,1749,1786,0,0
532,-762,0,0,0,0,0,0,0,0,0,-1,1756,1786,0,0
539,-762,0,0,0,0,0,0,0,0,0,-1,1763,1786,0,0
546,-762,0,0,0,0,0,0,0,0,0,-1,1770,1786,0,0
553,-762,0,0,0,0,0,0,0,0,0,-1,1777,1786,0,0
560,-762,0,0,0,0,0,0,0,0,0,-1,1784,1786,0,0
567,-762,0,0,0,0,0,0,0,0,0,-1,1791,1786,0,0
574,-762,0,0,0,0,0,0,0,0,0,-1,1798,1786,0,0
581,-762,0,0,0,0,0,0,0,0,0,-1,1805,1786,0,0
588,-762,0,0,0,0,0,0,0,0,0,-1,1812,1786,0,0
595,-762,0,0,0,0,0,0,0,0,0,-1,1819,1786,0,0
602,-762,0,0,0,0,0,0,0,0,0,-1,1826,1786,0,0
609,-762,0,0,0,0,0,0,0,0,0,-1,1833,1786,0,0
616,-762,0,0,0,0,0,0,0,0,0,-1,1840,1786,0,0
623,-762,0,0,0,0,0,0,0,0,0,-1,1847,1786,0,0
630,-762,0,0,0,0,0,0,0,0,0,-1,1854,1786,0,0
637,-762,0,0,0,0,0,0,0,0,0,-1,1861,1786,0,0
644,-762,0,0,0,0,0,0,0,0,0,-1,1868,1786,0,0
651,-762,0,0,0,0,0,0,0,0,0,-1,1875,1786,0,0
658,-762,0,0,0,0,0,0,0,0,0,-1,1882,1786,0,0
665,-762,0,0,0,0,0,0,0,0,0,-1,1889,1786,0,0
672,-762,0,0,0,0,0,0,0,0,0,-1,1896,1786,0,0
679,-762,0,0,0,0,0,0,0,0,0,-1,1903,1786,0,0
686,-762,0,0,0,0,0,0,0,0,0,-1,1910,1786,0,0
693,-762,0,0,0,0,0,0,0,0,0,-1,1917,1786,0,0
700,-762,0,0,0,0,0,0,0,0,0,-1,1924,1786,0,0
707,-762,0,0,0,0,0,0,0,0,0,-1,1931,1786,0,0
714,-762,0,0,0,0,0,0,0,0,0,-1,1938,1786,0,0
721,-762,0,0,0,0,0,0,0,0,0,-1,1945,1786,0,0
728,-762,0,0,0,0,0,0,0,0,0,-1,1952,1786,0,0
735,-762,0,0,0,0,0,0,0,0,0,-1,1959,1786,0,0
742,-762,0,0,0,0,0,0,0,0,0,-1,1966,1786,0,0
749,-762,0,0,0,0,0,0,0,0,0,-1,1973,1786,0,0
756,-762,0,0,0,0,0,0,0,0,0,-1,1980,1786,0,0
763,-762,0,0,0,0,0,0,0,0,0,-1,1987,1786,0,0
770,-762,0,0,0,0,0,0,0,0,0,-1,1994,1786,0,0
777,-762,0,0,0,0,0,0,0,0,0,-1,2001,1786,0,0
784,-762,0,0,0,0,0,0,0,0,0,-1,2008,1786,0,0
791,-762,0,0,0,0,0,0,0,0,0,-1,2015,1786,0,0
798,-762,0,0,0,0,0,0,0,0,0,-1,2022,1786,0,0
805,-762,0,0,0,0,0,0,0,0,0,-1,2029,1786,0,0
812,-762,0,0,0,0,0,0,0,0,0,-1,2036,1786,0,0
-700,-769,0,0,0,0,0,0,0,0,0,-1,524,1793,0,0
-693,-769,0,0,0,0,0,0,0,0,0,-1,531,1793,0,0
-686,-769,0,0,0,0,0,0,0,0,0,-1,538,1793,0,0
-679,-769,0,0,0,0,0,0,0,0,0,-1,545,1793,0,0
-672,-769,0,0,0,0,0,0,0,0,0,-1,552,1793,0,0
-665,-769,0,0,0,0,0,0,0,0,0,-1,559,1793,0,0
-658,-769,0,0,0,0,0,0,0,0,0,-1,566,1793,0,0
-651,-769,0,0,0,0,0,0,0,0,0,-1,573,1793,0,0
-644,-769,0,0,0,0,0,0,0,0,0,-1,580,1793,0,0
-637,-769,0,0,0,0,0,0,0,0,0,-1,587,1793,0,0
-630,-769,0,0,0,0,0,0,0,0,0,-1,594,1793,0,0
-623,-769,0,0,0,0,0,0,0,0,0,-1,601,1793,0,0
-616,-769,0,0,0,0,0,0,0,0,0,-1,608,1793,0,0
-609,-769,0,0,0,0,0,0,0,0,0,-1,615,1793,0,0
-602,-769,0,0,0,0,0,0,0,0,0,-1,622,1793,0,0
-595,-769,0,0,0,0,0,0,0,0,0,-1,629,1793,0,0
-588,-769,0,0,0,0,0,0,0,0,0,-1,636,1793,0,0
-581,-769,0,0,0,0,0,0,0,0,0,-1,643,1793,0,0
-574,-769,0,0,0,0,0,0,0,0,0,-1,650,1793,0,0
-567,-769,0,0,0,0,0,0,0,0,0,-1,657,1793,0,0
-560,-769,0,0,0,0,0,0,0,0,0,-1,664,1793,0,0
-553,-769,0,0,0,0,0,0,0,0,0,-1,671,1793,0,0
-546,-769,0,0,0,0,0,0,0,0,0,-1,678,1793,0,0
-539,-769,0,0,0,0,0,0,0,0,0,-1,685,1793,0,0
-532,-769,0,0,0,0,0,0,0,0,0,-1,692,1793,0,0
-525,-769,0,0,0,0,0,0,0,0,0,-1,699,1793,0,0
-518,-769,0,0,0,0,0,0,0,0,0,-1,706,1793,0,0
-511,-769,0,0,0,0,0,0,0,0,0,-1,713,1793,0,0
-504,-769,0,0,0,0,0,0,0,0,0,-1,720,1793,0,0
-497,-769,0,0,0,0,0,0,0,0,0,-1,727,1793,0,0
-490,-769,0,0,0,0,0,0,0,0,0,-1,734,1793,0,0
-483,-769,0,0,0,0,0,0,0,0,0,-1,741,1793,0,0
-476,-769,0,0,0,0,0,0,0,0,0,-1,748,1793,0,0
-469,-769,0,0,0,0,0,0,0,0,0,-1,755,1793,0,0
-462,-769,0,0,0,0,0,0,0,0,0,-1,762,1793,0,0
-455,-769,0,0,0,0,0,0,0,0,0,-1,769,1793,0,0
-448,-769,0,0,0,0,0,0,0,0,0,-1,776,1793,0,0
-441,-769,0,0,0,0,0,0,0,0,0,-1,783,1793,0,0
-434,-769,0,0,0,0,0,0,0,0,0,-1,790,1793,0,0
-427,-769,0,0,0,0,0,0,0,0,0,-1,797,1793,0,0
-420,-769,0,0,0,0,0,0,0,0,0,-1,804,1793,0,0
-413,-769,0,0,0,0,0,0,0,0,0,-1,811,1793,0,0
-406,-769,0,0,0,0,0,0,0,0,0,-1,818,1793,0,0
-399,-769,0,0,0,0,0,0,0,0,0,-1,825,1793,0,0
-392,-769,0,0,0,0,0,0,0,0,0,-1,832,1793,0,0
-385,-769,0,0,0,0,0,0,0,0,0,-1,839,1793,0,0
-378,-769,0,0,0,0,0,0,0,0,0,-1,846,1793,0,0
-371,-769,0,0,0,0,0,0,0,0,0,-1,853,1793,0,0
-364,-769,0,0,0,0,0,0,0,0,0,-1,860,1793,0,0
-357,-769,0,0,0,0,0,0,0,0,0,-1,867,1793,0,0
-350,-769,0,0,0,0,0,0,0,0,0,-1,874,1793,0,0
-343,-769,0,0,0,0,0,0,0,0,0,-1,881,1793,0,0
-336,-769,0,0,0,0,0,0,0,0,0,-1,888,1793,0,0
-329,-769,0,0,0,0,0,0,0,0,0,-1,895,1793,0,0
-322,-769,0,0,0,0,0,0,0,0,0,-1,902,1793,0,0
-315,-769,0,0,0,0,0,0,0,0,0,-1,909,1793,0,0
-308,-769,0,0,0,0,0,0,0,0,0,-1,916,1793,0,0
-301,-769,0,0,0,0,0,0,0,0,0,-1,923,1793,0,0
-294,-769,0,0,0,0,0,0,0,0,0,-1,930,1793,0,0
-287,-769,0,0,0,0,0,0,0,0,0,-1,937,1793,0,0
-280,-769,0,0,0,0,0,0,0,0,0,-1,944,1793,0,0
-273,-769,0,0,0,0,0,0,0,0,0,-1,951,1793,0,0
-266,-769,0,0,0,0,0,0,0,0,0,-1,958,1793,0,0
-259,-769,0,0,0,0,0,0,0,0,0,-1,965,1793,0,0
-252,-769,0,0,0,0,0,0,0,0,0,-1,972,1793,0,0
-245,-769,0,0,0,0,0,0,0,0,0,-1,979,1793,0,0
-238,-769,0,0,0,0,0,0,0,0,0,-1,986,1793,0,0
-231,-769,0,0,0,0,0,0,0,0,0,-1,993,1793,0,0
-224,-769,0,0,0,0,0,0,0,0,0,-1,1000,1793,0,0
-217,-769,0,0,0,0,0,0,0,0,0,-1,1007,1793,0,0
-210,-769,0,0,0,0,0,0,0,0,0,-1,1014,1793,0,0
-203,-769,0,0,0,0,0,0,0,0,0,-1,1021,1793,0,0
-196,-769,0,0,0,0,0,0,0,0,0,-1,1028,1793,0,0
-189,-769,0,0,0,0,0,0,0,0,0,-1,1035,1793,0,0
-182,-769,0,0,0,0,0,0,0,0,0,-1,1042,1793,0,0
-175,-769,0,0,0,0,0,0,0,0,0,-1,1049,1793,0,0
-168,-769,0,0,0,0,0,0,0,0,0,-1,1056,1793,0,0
-161,-769,-3.61145,12.4761,0,0,0,0,0,0,0,-1,1063,1793,-3.6114,-12.476
-154,-769,-0.813232,5.32874,0,0,0,0,0,0,0,-1,1070,1793,-0.813269,-5.32872
-147,-769,4.26587,4.7002,0,0,0,0,0,0,0,-1,1077,1793,4.26593,-4.70022
-140,-769,4.10376,5.28589,0,0,0,0,0,0,0,-1,1084,1793,4.10371,-5.28584
-133,-769,6.422,8.21777,0,0,0,0,0,0,0,-1,1091,1793,6.42198,-8.21773
-126,-769,-0.352295,19.326,0,0,0,0,0,0,0,-1,1098,1793,-0.352235,-19.326
-119,-769,6.01685,16.2577,0,0,0,0,0,0,0,-1,1105,1793,6.01689,-16.2576
-112,-769,2.77722,20.0741,0,0,0,0,0,0,0,-1,1112,1793,2.77727,-20.0741
-105,-769,4.55212,21.8363,0,0,0,0,0,0,0,-1,1119,1793,4.55214,-21.8363
-98,-769,4.71545,19.8396,0,0,0,0,0,0,0,-1,1126,1793,4.71539,-19.8396
-91,-769,3.96802,16.1481,0,0,0,0,0,0,0,-1,1133,1793,3.96803,-16.1481
-84,-769,3.2207,12.4565,0,0,0,0,0,0,0,-1,1140,1793,3.22066,-12.4565
-77,-769,2.48816,8.98486,0,0,0,0,0,0,0,-1,1147,1793,2.48815,-8.98489
-70,-769,1.04944,11.9852,0,0,0,0,0,0,0,-1,1154,1793,1.04947,-11.9852
-63,-769,-2.39709,9.60339,0,0,0,0,0,0,0,-1,1161,1793,-2.39706,-9.6034
-56,-769,-5.84363,7.22156,0,0,0,0,0,0,0,-1,1168,1793,-5.84359,-7.22157
-49,-769,-2.41443,3.95471,0,0,0,0,0,0,0,-1,1175,1793,-2.41446,-3.95471
-42,-769,-3.1991,2.64941,0,0,0,0,0,0,0,-1,1182,1793,-3.19914,-2.64944
-35,-769,-3.50183,1.73389,0,0,0,0,0,0,0,-1,1189,1793,-3.50189,-1.7339
-28,-769,-3.96985,1.14075,0,0,0,0,0,0,0,-1,1196,1793,-3.96985,-1.14078
-21,-769,4.38623,26.9254,0,0,0,0,0,0,0,-1,1203,1793,4.38623,-26.9254
-14,-769,5.18176,26.6772,0,0,0,0,0,0,0,-1,1210,1793,5.18178,-26.6773
-7,-769,4.90662,26.4099,0,0,0,0,0,0,0,-1,1217,1793,4.90663,-26.41
0,-769,5.51257,26.2275,0.0524434,0.0517717,0.0111903,0.0633029,0.0409122,0.770397,0.0370657,0.0469719,1224,1793,5.51252,-26.2275
7,-769,6.26086,26.2195,0.0429148,0.050502,0.0103842,0.0577638,0.035653,0.960528,0.0336541,0.0445708,1231,1793,6.26091,-26.2195
14,-769,6.43127,27.177,0.0294022,0.0477246,0.00997634,0.052108,0.0250189,1.15681,0.0300925,0.0439525,1238,1793,6.4313,-27.177
21,-769,6.27112,26.9387,0.0144484,0.0443726,0.00976056,0.0472748,0.0115462,1.28178,0.0284595,0.0444914,1245,1793,6.27115,-26.9387
28,-769,6.22961,26.889,0,0,0,0,0,0,0,-1,1252,1793,6.22966,-26.8891
35,-769,6.06775,26.8661,0,0,0,0,0,0,0,-1,1259,1793,6.0677,-26.8661
42,-769,6.1582,26.9064,0,0,0,0,0,0,0,-1,1266,1793,6.15814,-26.9064
49,-769,6.24268,27.1282,-0.0448387,0.0288355,0.00910017,0.0299429,-0.0459461,1.4497,0.0441381,0.0428395,1273,1793,6.24269,-27.1282
56,-769,6.44141,26.8365,-0.0554373,0.0252897,0.00817571,0.0261093,-0.056257,1.47087,0.0486044,0.0440652,1280,1793,6.44146,-26.8365
63,-769,6.48962,26.7198,-0.0656437,0.0210753,0.00729281,0.0216844,-0.0662527,1.48748,0.0528994,0.0441858,1287,1793,6.48962,-26.7198
70,-769,6.54736,26.7229,-0.0733823,0.0181359,0.00650574,0.018596,-0.0738424,1.50018,0.0564572,0.0452332,1294,1793,6.54738,-26.7229
77,-769,6.25488,26.8126,-0.0779291,0.0165933,0.00564914,0.0169298,-0.0782655,1.51131,0.0586406,0.0483212,1301,1793,6.25491,-26.8126
84,-769,6.12292,27.0129,-0.0811899,0.0151726,0.00373913,0.0153175,-0.0813348,1.53207,0.0599845,0.0467253,1308,1793,6.12288,-27.0129
91,-769,6.47876,27.0153,0,0,0,0,0,0,0,-1,1315,1793,6.47878,-27.0153
98,-769,6.65662,26.8527,-0.0829551,0.0110267,3.94572e-05,0.0110267,-0.0829551,1.57038,0.0593216,0.0452857,1322,1793,6.65658,-26.8527
105,-769,6.61279,26.9014,-0.0827635,0.00993246,-0.001598,0.00996,-0.082791,-1.55356,0.0587959,0.0434435,1329,1793,6.61278,-26.9014
112,-769,6.02795,26.6078,-0.0820174,0.00856597,-0.00303388,0.00866746,-0.0821189,-1.53735,0.0578519,0.0474761,1336,1793,6.02798,-26.6078
119,-769,6.13977,26.7319,0,0,0,0,0,0,0,-1,1343,1793,6.13975,-26.7319
126,-769,5.94421,27.1018,0,0,0,0,0,0,0,-1,1350,1793,5.94419,-27.1018
133,-769,5.81433,26.729,0,0,0,0,0,0,0,-1,1357,1793,5.81429,-26.729
140,-769,5.72681,26.5212,0,0,0,0,0,0,0,-1,1364,1793,5.72686,-26.5212
147,-769,6.60266,27.1909,0,0,0,0,0,0,0,-1,1371,1793,6.60265,-27.1909
154,-769,6.3584,24.4514,0,0,0,0,0,0,0,-1,1378,1793,6.35835,-24.4514
161,-769,6.57019,1.53223,0,0,0,0,0,0,0,-1,1385,1793,6.57019,-1.53226
168,-769,8.27637,0.756958,0,0,0,0,0,0,0,-1,1392,1793,8.27639,-0.756944
175,-769,8.47144,2.41174,0,0,0,0,0,0,0,-1,1399,1793,8.47147,-2.4118
182,-769,8.41479,4.05994,0,0,0,0,0,0,0,-1,1406,1793,8.41479,-4.05997
189,-769,8.25049,5.68433,0,0,0,0,0,0,0,-1,1413,1793,8.25054,-5.68428
196,-769,7.97729,7.42847,0,0,0,0,0,0,0,-1,1420,1793,7.9773,-7.42848
203,-769,22.0977,6.73889,0,0,0,0,0,0,0,-1,1427,1793,22.0977,-6.7389
210,-769,22.1115,7.77246,0,0,0,0,0,0,0,-1,1434,1793,22.1115,-7.77248
217,-769,22.4723,8.79102,0,0,0,0,0,0,0,-1,1441,1793,22.4723,-8.79099
224,-769,22.1348,9.35278,0,0,0,0,0,0,0,-1,1448,1793,22.1348,-9.35283
231,-769,3.13318,19.7184,0,0,0,0,0,0,0,-1,1455,1793,3.13323,-19.7184
238,-769,5.74512,18.6597,0,0,0,0,0,0,0,-1,1462,1793,5.74512,-18.6596
245,-769,5.71143,16.2483,0,0,0,0,0,0,0,-1,1469,1793,5.71137,-16.2483
252,-769,4.34961,12.5251,0,0,0,0,0,0,0,-1,1476,1793,4.34959,-12.5252
259,-769,16.4871,7.42102,0,0,0,0,0,0,0,-1,1483,1793,16.4871,-7.42104
266,-769,15.8488,7.3905,0,0,0,0,0,0,0,-1,1490,1793,15.8488,-7.39046
273,-769,14.8075,7.56152,0,0,0,0,0,0,0,-1,1497,1793,14.8075,-7.56152
280,-769,13.6519,7.43054,0,0,0,0,0,0,0,-1,1504,1793,13.6518,-7.43058
287,-769,0,0,0,0,0,0,0,0,0,-1,1511,1793,0,0
294,-769,0,0,0,0,0,0,0,0,0,-1,1518,1793,0,0
301,-769,0,0,0,0,0,0,0,0,0,-1,1525,1793,0,0
308,-769,0,0,0,0,0,0,0,0,0,-1,1532,1793,0,0
315,-769,0,0,0,0,0,0,0,0,0,-1,1539,1793,0,0
322,-769,0,0,0,0,0,0,0,0,0,-1,1546,1793,0,0
329,-769,0,0,0,0,0,0,0,0,0,-1,1553,1793,0,0
336,-769,0,0,0,0,0,0,0,0,0,-1,1560,1793,0,0
343,-769,0,0,0,0,0,0,0,0,0,-1,1567,1793,0,0
350,-769,0,0,0,0,0,0,0,0,0,-1,1574,1793,0,0
357,-769,0,0,0,0,0,0,0,0,0,-1,1581,1793,0,0
364,-769,0,0,0,0,0,0,0,0,0,-1,1588,1793,0,0
371,-769,0,0,0,0,0,0,0,0,0,-1,1595,1793,0,0
378,-769,0,0,0,0,0,0,0,0,0,-1,1602,1793,0,0
385,-769,0,0,0,0,0,0,0,0,0,-1,1609,1793,0,0
392,-769,0,0,0,0,0,0,0,0,0,-1,1616,1793,0,0
399,-769,0,0,0,0,0,0,0,0,0,-1,1623,1793,0,0
406,-769,0,0,0,0,0,0,0,0,0,-1,1630,1793,0,0
413,-769,0,0,0,0,0,0,0,0,0,-1,1637,1793,0,0
420,-769,0,0,0,0,0,0,0,0,0,-1,1644,1793,0,0
427,-769,0,0,0,0,0,0,0,0,0,-1,1651,1793,0,0
434,-769,0,0,0,0,0,0,0,0,0,-1,1658,1793,0,0
441,-769,0,0,0,0,0,0,0,0,0,-1,1665,1793,0,0
448,-769,0,0,0,0,0,0,0,0,0,-1,1672,1793,0,0
455,-769,0,0,0,0,0,0,0,0,0,-1,1679,1793,0,0
462,-769,0,0,0,0,0,0,0,0,0,-1,1686,1793,0,0
469,-769,0,0,0,0,0,0,0,0,0,-1,1693,1793,0,0
476,-769,0,0,0,0,0,0,0,0,0,-1,1700,1793,0,0
483,-769,0,0,0,0,0,0,0,0,0,-1,1707,1793,0,0
490,-769,0,0,0,0,0,0,0,0,0,-1,1714,1793,0,0
497,-769,0,0,0,0,0,0,0,0,0,-1,1721,1793,0,0
504,-769,0,0,0,0,0,0,0,0,0,-1,1728,1793,0,0
511,-769,0,0,0,0,0,0,0,0,0,-1,1735,1793,0,0
518,-769,0,0,0,0,0,0,0,0,0,-1,1742,1793,0,0
525,-769,0,0,0,0,0,0,0,0,0,-1,1749,1793,0,0
532,-769,0,0,0,0,0,0,0,0,0,-1,1756,1793,0,0
539,-769,0,0,0,0,0,0,0,0,0,-1,1763,1793,0,0
546,-769,0,0,0,0,0,0,0,0,0,-1,1770,1793,0,0
553,-769,0,0,0,0,0,0,0,0,0,-1,1777,1793,0,0
560,-769,0,0,0,0,0,0,0,0,0,-1,1784,1793,0,0
567,-769,0,0,0,0,0,0,0,0,0,-1,1791,1793,0,0
574,-769,0,0,0,0,0,0,0,0,0,-1,1798,1793,0,0
581,-769,0,0,0,0,0,0,0,0,0,-1,1805,1793,0,0
588,-769,0,0,0,0,0,0,0,0,0,-1,1812,1793,0,0
595,-769,0,0,0,0,0,0,0,0,0,-1,1819,1793,0,0
602,-769,0,0,0,0,0,0,0,0,0,-1,1826,1793,0,0
609,-769,0,0,0,0,0,0,0,0,0,-1,1833,1793,0,0
616,-769,0,0,0,0,0,0,0,0,0,-1,1840,1793,0,0
623,-769,0,0,0,0,0,0,0,0,0,-1,1847,1793,0,0
630,-769,0,0,0,0,0,0,0,0,0,-1,1854,1793,0,0
637,-769,0,0,0,0,0,0,0,0,0,-1,1861,1793,0,0
644,-769,0,0,0,0,0,0,0,0,0,-1,1868,1793,0,0
651,-769,0,0,0,0,0,0,0,0,0,-1,1875,1793,0,0
658,-769,0,0,0,0,0,0,0,0,0,-1,1882,1793,0,0
665,-769,0,0,0,0,0,0,0,0,0,-1,1889,1793,0,0
672,-769,0,0,0,0,0,0,0,0,0,-1,1896,1793,0,0
679,-769,0,0,0,0,0,0,0,0,0,-1,1903,1793,0,0
686,-769,0,0,0,0,0,0,0,0,0,-1,1910,1793,0,0
693,-769,0,0,0,0,0,0,0,0,0,-1,1917,1793,0,0
700,-769,0,0,0,0,0,0,0,0,0,-1,1924,1793,0,0
707,-769,0,0,0,0,0,0,0,0,0,-1,1931,1793,0,0
714,-769,0,0,0,0,0,0,0,0,0,-1,1938,1793,0,0
721,-769,0,0,0,0,0,0,0,0,0,-1,1945,1793,0,0
728,-769,0,0,0,0,0,0,0,0,0,-1,1952,1793,0,0
735,-769,0,0,0,0,0,0,0,0,0,-1,1959,1793,0,0
742,-769,0,0,0,0,0,0,0,0,0,-1,1966,1793,0,0
749,-769,0,0,0,0,0,0,0,0,0,-1,1973,1793,0,0
756,-769,0,0,0,0,0,0,0,0,0,-1,1980,1793,0,0
763,-769,0,0,0,0,0,0,0,0,0,-1,1987,1793,0,0
770,-769,0,0,0,0,0,0,0,0,0,-1,1994,1793,0,0
777,-769,0,0,0,0,0,0,0,0,0,-1,2001,1793,0,0
784,-769,0,0,0,0,0,0,0,0,0,-1,2008,1793,0,0
791,-769,0,0,0,0,0,0,0,0,0,-1,2015,1793,0,0
798,-769,0,0,0,0,0,0,0,0,0,-1,2022,1793,0,0
805,-769,0,0,0,0,0,0,0,0,0,-1,2029,1793,0,0
812,-769,0,0,0,0,0,0,0,0,0,-1,2036,1793,0,0
-700,-776,0,0,0,0,0,0,0,0,0,-1,524,1800,0,0
-693,-776,0,0,0,0,0,0,0,0,0,-1,531,1800,0,0
-686,-776,0,0,0,0,0,0,0,0,0,-1,538,1800,0,0
-679,-776,0,0,0,0,0,0,0,0,0,-1,545,1800,0,0
-672,-776,0,0,0,0,0,0,0,0,0,-1,552,1800,0,0
-665,-776,0,0,0,0,0,0,0,0,0,-1,559,1800,0,0
-658,-776,0,0,0,0,0,0,0,0,0,-1,566,1800,0,0
-651,-776,0,0,0,0,0,0,0,0,0,-1,573,1800,0,0
-644,-776,0,0,0,0,0,0,0,0,0,-1,580,1800,0,0
-637,-776,0,0,0,0,0,0,0,0,0,-1,587,1800,0,0
-630,-776,0,0,0,0,0,0,0,0,0,-1,594,1800,0,0
-623,-776,0,0,0,0,0,0,0,0,0,-1,601,1800,0,0
-616,-776,0,0,0,0,0,0,0,0,0,-1,608,1800,0,0
-609,-776,0,0,0,0,0,0,0,0,0,-1,615,1800,0,0
-602,-776,0,0,0,0,0,0,0,0,0,-1,622,1800,0,0
-595,-776,0,0,0,0,0,0,0,0,0,-1,629,1800,0,0
-588,-776,0,0,0,0,0,0,0,0,0,-1,636,1800,0,0
-581,-776,0,0,0,0,0,0,0,0,0,-1,643,1800,0,0
-574,-776,0,0,0,0,0,0,0,0,0,-1,650,1800,0,0
-567,-776,0,0,0,0,0,0,0,0,0,-1,657,1800,0,0
-560,-776,0,0,0,0,0,0,0,0,0,-1,664,1800,0,0
-553,-776,0,0,0,0,0,0,0,0,0,-1,671,1800,0,0
-546,-776,0,0,0,0,0,0,0,0,0,-1,678,1800,0,0
-539,-776,0,0,0,0,0,0,0,0,0,-1,685,1800,0,0
-532,-776,0,0,0,0,0,0,0,0,0,-1,692,1800,0,0
-525,-776,0,0,0,0,0,0,0,0,0,-1,699,1800,0,0
-518,-776,0,0,0,0,0,0,0,0,0,-1,706,1800,0,0
-511,-776,0,0,0,0,0,0,0,0,0,-1,713,1800,0,0
-504,-776,0,0,0,0,0,0,0,0,0,-1,720,1800,0,0
-497,-776,0,0,0,0,0,0,0,0,0,-1,727,1800,0,0
-490,-776,0,0,0,0,0,0,0,0,0,-1,734,1800,0,0
-483,-776,0,0,0,0,0,0,0,0,0,-1,741,1800,0,0
-476,-776,0,0,0,0,0,0,0,0,0,-1,748,1800,0,0
-469,-776,0,0,0,0,0,0,0,0,0,-1,755,1800,0,0
-462,-776,0,0,0,0,0,0,0,0,0,-1,762,1800,0,0
-455,-776,0,0,0,0,0,0,0,0,0,-1,769,1800,0,0
-448,-776,0,0,0,0,0,0,0,0,0,-1,776,1800,0,0
-441,-776,0,0,0,0,0,0,0,0,0,-1,783,1800,0,0
-434,-776,0,0,0,0,0,0,0,0,0,-1,790,1800,0,0
-427,-776,0,0,0,0,0,0,0,0,0,-1,797,1800,0,0
-420,-776,0,0,0,0,0,0,0,0,0,-1,804,1800,0,0
-413,-776,0,0,0,0,0,0,0,0,0,-1,811,1800,0,0
-406,-776,0,0,0,0,0,0,0,0,0,-1,818,1800,0,0
-399,-776,0,0,0,0,0,0,0,0,0,-1,825,1800,0,0
-392,-776,0,0,0,0,0,0,0,0,0,-1,832,1800,0,0
-385,-776,0,0,0,0,0,0,0,0,0,-1,839,1800,0,0
-378,-776,0,0,0,0,0,0,0,0,0,-1,846,1800,0,0
-371,-776,0,0,0,0,0,0,0,0,0,-1,853,1800,0,0
-364,-776,0,0,0,0,0,0,0,0,0,-1,860,1800,0,0
-357,-776,0,0,0,0,0,0,0,0,0,-1,867,1800,0,0
-350,-776,0,0,0,0,0,0,0,0,0,-1,874,1800,0,0
-343,-776,0,0,0,0,0,0,0,0,0,-1,881,1800,0,0
-336,-776,0,0,0,0,0,0,0,0,0,-1,888,1800,0,0
-329,-776,0,0,0,0,0,0,0,0,0,-1,895,1800,0,0
-322,-776,0,0,0,0,0,0,0,0,0,-1,902,1800,0,0
-315,-776,0,0,0,0,0,0,0,0,0,-1,909,1800,0,0
-308,-776,0,0,0,0,0,0,0,0,0,-1,916,1800,0,0
-301,-776,0,0,0,0,0,0,0,0,0,-1,923,1800,0,0
-294,-776,0,0,0,0,0,0,0,0,0,-1,930,1800,0,0
-287,-776,0,0,0,0,0,0,0,0,0,-1,937,1800,0,0
-280,-776,0,0,0,0,0,0,0,0,0,-1,944,1800,0,0
-273,-776,0,0,0,0,0,0,0,0,0,-1,951,1800,0,0
-266,-776,0,0,0,0,0,0,0,0,0,-1,958,1800,0,0
-259,-776,0,0,0,0,0,0,0,0,0,-1,965,1800,0,0
-252,-776,0,0,0,0,0,0,0,0,0,-1,972,1800,0,0
-245,-776,0,0,0,0,0,0,0,0,0,-1,979,1800,0,0
-238,-776,0,0,0,0,0,0,0,0,0,-1,986,1800,0,0
-231,-776,0,0,0,0,0,0,0,0,0,-1,993,1800,0,0
-224,-776,0,0,0,0,0,0,0,0,0,-1,1000,1800,0,0
-217,-776,0,0,0,0,0,0,0,0,0,-1,1007,1800,0,0
-210,-776,0,0,0,0,0,0,0,0,0,-1,1014,1800,0,0
-203,-776,0,0,0,0,0,0,0,0,0,-1,1021,1800,0,0
-196,-776,0,0,0,0,0,0,0,0,0,-1,1028,1800,0,0
-189,-776,0,0,0,0,0,0,0,0,0,-1,1035,1800,0,0
-182,-776,0,0,0,0,0,0,0,0,0,-1,1042,1800,0,0
-175,-776,0,0,0,0,0,0,0,0,0,-1,1049,1800,0,0
-168,-776,0,0,0,0,0,0,0,0,0,-1,1056,1800,0,0
-161,-776,0,0,0,0,0,0,0,0,0,-1,1063,1800,0,0
-154,-776,0,0,0,0,0,0,0,0,0,-1,1070,1800,0,0
-147,-776,0,0,0,0,0,0,0,0,0,-1,1077,1800,0,0
-140,-776,2.98499,5.20911,0,0,0,0,0,0,0,-1,1084,1800,2.98493,-5.2091
-133,-776,6.72363,9.35828,0,0,0,0,0,0,0,-1,1091,1800,6.72358,-9.35824
-126,-776,6.55029,13.7832,0,0,0,0,0,0,0,-1,1098,1800,6.55029,-13.7832
-119,-776,5.72107,13.7787,0,0,0,0,0,0,0,-1,1105,1800,5.72106,-13.7787
-112,-776,6.84998,20.4421,0,0,0,0,0,0,0,-1,1112,1800,6.84993,-20.4421
-105,-776,2.15039,19.7095,0,0,0,0,0,0,0,-1,1119,1800,2.1504,-19.7095
-98,-776,3.92517,21.9519,0,0,0,0,0,0,0,-1,1126,1800,3.92517,-21.9519
-91,-776,3.30225,18.134,0,0,0,0,0,0,0,-1,1133,1800,3.30222,-18.134
-84,-776,2.67932,14.3162,0,0,0,0,0,0,0,-1,1140,1800,2.67926,-14.3161
-77,-776,0.580078,11.1272,0,0,0,0,0,0,0,-1,1147,1800,0.58002,-11.1272
-70,-776,-0.562866,12.3163,0,0,0,0,0,0,0,-1,1154,1800,-0.562897,-12.3163
-63,-776,-3.96106,9.97656,0,0,0,0,0,0,0,-1,1161,1800,-3.961,-9.97654
-56,-776,-7.35913,7.63672,0,0,0,0,0,0,0,-1,1168,1800,-7.3591,-7.63676
-49,-776,-7.62952,3.1908,0,0,0,0,0,0,0,-1,1175,1800,-7.62955,-3.19076
-42,-776,-3.41272,3.0249,0,0,0,0,0,0,0,-1,1182,1800,-3.41269,-3.02488
-35,-776,-3.71753,1.63635,0,0,0,0,0,0,0,-1,1189,1800,-3.71755,-1.63631
-28,-776,-4.03979,0.716064,0,0,0,0,0,0,0,-1,1196,1800,-4.03977,-0.716055
-21,-776,3.28491,26.3265,0,0,0,0,0,0,0,-1,1203,1800,3.28496,-26.3265
-14,-776,4.10938,26.064,0.100339,0.0715315,0.0136214,0.10576,0.0661107,0.378745,0.0616942,0.0462359,1210,1800,4.10938,-26.064
-7,-776,4.7052,25.8973,0.0862227,0.0705021,0.0128708,0.0934435,0.0632813,0.511271,0.0550676,0.0484959,1217,1800,4.70515,-25.8974
0,-776,5.27258,25.672,0.0715342,0.0695832,0.01217,0.0827677,0.0583497,0.745405,0.0491063,0.0475722,1224,1800,5.27261,-25.6721
7,-776,6.0835,25.693,0.0583844,0.0685909,0.0111464,0.0757467,0.0512286,1.00008,0.0446295,0.0480083,1231,1800,6.08345,-25.693
14,-776,6.27417,27.1293,0.0393193,0.064695,0.0108985,0.0687331,0.0352812,1.21596,0.0396878,0.046689,1238,1800,6.27419,-27.1293
21,-776,5.92615,26.905,0.0182703,0.0598056,0.0110657,0.0625698,0.0155061,1.32601,0.0376251,0.0431439,1245,1800,5.92612,-26.9051
28,-776,6.10461,25.9484,-0.00349577,0.053998,0.0117632,0.0563116,-0.00580942,1.37659,0.0396198,0.042814,1252,1800,6.10463,-25.9483
35,-776,5.91528,26.8845,-0.0227548,0.0479806,0.0122097,0.0500289,-0.024803,1.40459,0.0440149,0.0475952,1259,1800,5.9153,-26.8846
42,-776,6.01477,26.9659,0,0,0,0,0,0,0,-1,1266,1800,6.01481,-26.966
49,-776,6.35071,27.2787,0,0,0,0,0,0,0,-1,1273,1800,6.35069,-27.2787
56,-776,6.55933,26.7562,0,0,0,0,0,0,0,-1,1280,1800,6.55934,-26.7562
63,-776,6.59192,26.8265,0,0,0,0,0,0,0,-1,1287,1800,6.5919,-26.8265
70,-776,6.74561,26.4293,0,0,0,0,0,0,0,-1,1294,1800,6.74562,-26.4293
77,-776,6.33044,26.6552,0,0,0,0,0,0,0,-1,1301,1800,6.33048,-26.6552
84,-776,11.6624,27.0441,0,0,0,0,0,0,0,-1,1308,1800,11.6624,-27.0441
91,-776,10.1439,26.9407,0,0,0,0,0,0,0,-1,1315,1800,10.1439,-26.9407
98,-776,6.86255,26.6495,0,0,0,0,0,0,0,-1,1322,1800,6.86255,-26.6495
105,-776,7.16736,26.5588,-0.108295,0.0131559,-0.0010999,0.0131658,-0.108305,-1.56174,0.076968,0.0421936,1329,1800,7.16732,-26.5589
112,-776,5.94861,26.5515,-0.106885,0.0115124,-0.00314363,0.0115959,-0.106969,-1.54427,0.0754751,0.044802,1336,1800,5.94858,-26.5515
119,-776,4.60571,26.5472,-0.104555,0.0099475,-0.00543212,0.0102046,-0.104813,-1.5235,0.0735131,0.0425794,1343,1800,4.60576,-26.5473
126,-776,5.89954,27.2163,0,0,0,0,0,0,0,-1,1350,1800,5.89952,-27.2163
133,-776,1.65466,27.6191,-0.0986426,0.00679479,-0.00891219,0.00754279,-0.0993906,-1.48706,0.0689124,0.047221,1357,1800,1.65466,-27.6191
140,-776,0.801392,27.2898,-0.0963154,0.0056637,-0.00971548,0.00658103,-0.0972327,-1.47666,0.0671231,0.0492088,1364,1800,0.801428,-27.2898
147,-776,-0.116943,26.8029,0,0,0,0,0,0,0,-1,1371,1800,-0.116958,-26.8029
154,-776,6.43774,0.344116,0,0,0,0,0,0,0,-1,1378,1800,6.43776,-0.344162
161,-776,6.50293,1.1731,0,0,0,0,0,0,0,-1,1385,1800,6.5029,-1.17313
168,-776,8.44971,1.22913,0,0,0,0,0,0,0,-1,1392,1800,8.44974,-1.22915
175,-776,8.61523,2.87061,0,0,0,0,0,0,0,-1,1399,1800,8.6152,-2.87063
182,-776,8.54065,4.60645,0,0,0,0,0,0,0,-1,1406,1800,8.5407,-4.60643
189,-776,8.35303,6.28223,0,0,0,0,0,0,0,-1,1413,1800,8.35297,-6.28225
196,-776,8.0387,8.21704,0,0,0,0,0,0,0,-1,1420,1800,8.03865,-8.217
203,-776,7.91736,9.79919,0,0,0,0,0,0,0,-1,1427,1800,7.91735,-9.79922
210,-776,20.2479,7.85718,0,0,0,0,0,0,0,-1,1434,1800,20.248,-7.85719
217,-776,21.5171,9.3418,0,0,0,0,0,0,0,-1,1441,1800,21.5171,-9.34182
224,-776,3.09253,14.9313,0,0,0,0,0,0,0,-1,1448,1800,3.09254,-14.9313
231,-776,20.8671,9.21057,0,0,0,0,0,0,0,-1,1455,1800,20.867,-9.21054
238,-776,20.7511,9.05847,0,0,0,0,0,0,0,-1,1462,1800,20.7511,-9.05848
245,-776,3.80823,15.4108,0,0,0,0,0,0,0,-1,1469,1800,3.80826,-15.4108
252,-776,16.6313,6.47168,0,0,0,0,0,0,0,-1,1476,1800,16.6313,-6.47165
259,-776,14.1882,7.69055,0,0,0,0,0,0,0,-1,1483,1800,14.1882,-7.69061
266,-776,0,0,0,0,0,0,0,0,0,-1,1490,1800,0,0
273,-776,0,0,0,0,0,0,0,0,0,-1,1497,1800,0,0
280,-776,0,0,0,0,0,0,0,0,0,-1,1504,1800,0,0
287,-776,0,0,0,0,0,0,0,0,0,-1,1511,1800,0,0
294,-776,0,0,0,0,0,0,0,0,0,-1,1518,1800,0,0
301,-776,0,0,0,0,0,0,0,0,0,-1,1525,1800,0,0
308,-776,0,0,0,0,0,0,0,0,0,-1,1532,1800,0,0
315,-776,0,0,0,0,0,0,0,0,0,-1,1539,1800,0,0
322,-776,0,0,0,0,0,0,0,0,0,-1,1546,1800,0,0
329,-776,0,0,0,0,0,0,0,0,0,-1,1553,1800,0,0
336,-776,0,0,0,0,0,0,0,0,0,-1,1560,1800,0,0
343,-776,0,0,0,0,0,0,0,0,0,-1,1567,1800,0,0
350,-776,0,0,0,0,0,0,0,0,0,-1,1574,1800,0,0
357,-776,0,0,0,0,0,0,0,0,0,-1,1581,1800,0,0
364,-776,0,0,0,0,0,0,0,0,0,-1,1588,1800,0,0
371,-776,0,0,0,0,0,0,0,0,0,-1,1595,1800,0,0
378,-776,0,0,0,0,0,0,0,0,0,-1,1602,1800,0,0
385,-776,0,0,0,0,0,0,0,0,0,-1,1609,1800,0,0
392,-776,0,0,0,0,0,0,0,0,0,-1,1616,1800,0,0
399,-776,0,0,0,0,0,0,0,0,0,-1,1623,1800,0,0
406,-776,0,0,0,0,0,0,0,0,0,-1,1630,1800,0,0
413,-776,0,0,0,0,0,0,0,0,0,-1,1637,1800,0,0
420,-776,0,0,0,0,0,0,0,0,0,-1,1644,1800,0,0
427,-776,0,0,0,0,0,0,0,0,0,-1,1651,1800,0,0
434,-776,0,0,0,0,0,0,0,0,0,-1,1658,1800,0,0
441,-776,0,0,0,0,0,0,0,0,0,-1,1665,1800,0,0
448,-776,0,0,0,0,0,0,0,0,0,-1,1672,1800,0,0
455,-776,0,0,0,0,0,0,0,0,0,-1,1679,1800,0,0
462,-776,0,0,0,0,0,0,0,0,0,-1,1686,1800,0,0
469,-776,0,0,0,0,0,0,0,0,0,-1,1693,1800,0,0
476,-776,0,0,0,0,0,0,0,0,0,-1,1700,1800,0,0
483,-776,0,0,0,0,0,0,0,0,0,-1,1707,1800,0,0
490,-776,0,0,0,0,0,0,0,0,0,-1,1714,1800,0,0
497,-776,0,0,0,0,0,0,0,0,0,-1,1721,1800,0,0
504,-776,0,0,0,0,0,0,0,0,0,-1,1728,1800,0,0
511,-776,0,0,0,0,0,0,0,0,0,-1,1735,1800,0,0
518,-776,0,0,0,0,0,0,0,0,0,-1,1742,1800,0,0
525,-776,0,0,0,0,0,0,0,0,0,-1,1749,1800,0,0
532,-776,0,0,0,0,0,0,0,0,0,-1,1756,1800,0,0
539,-776,0,0,0,0,0,0,0,0,0,-1,1763,1800,0,0
546,-776,0,0,0,0,0,0,0,0,0,-1,1770,1800,0,0
553,-776,0,0,0,0,0,0,0,0,0,-1,1777,1800,0,0
560,-776,0,0,0,0,0,0,0,0,0,-1,1784,1800,0,0
567,-776,0,0,0,0,0,0,0,0,0,-1,1791,1800,0,0
574,-776,0,0,0,0,0,0,0,0,0,-1,1798,1800,0,0
581,-776,0,0,0,0,0,0,0,0,0,-1,1805,1800,0,0
588,-776,0,0,0,0,0,0,0,0,0,-1,1812,1800,0,0
595,-776,0,0,0,0,0,0,0,0,0,-1,1819,1800,0,0
602,-776,0,0,0,0,0,0,0,0,0,-1,1826,1800,0,0
609,-776,0,0,0,0,0,0,0,0,0,-1,1833,1800,0,0
616,-776,0,0,0,0,0,0,0,0,0,-1,1840,1800,0,0
623,-776,0,0,0,0,0,0,0,0,0,-1,1847,1800,0,0
630,-776,0,0,0,0,0,0,0,0,0,-1,1854,1800,0,0
637,-776,0,0,0,0,0,0,0,0,0,-1,1861,1800,0,0
644,-776,0,0,0,0,0,0,0,0,0,-1,1868,1800,0,0
651,-776,0,0,0,0,0,0,0,0,0,-1,1875,1800,0,0
658,-776,0,0,0,0,0,0,0,0,0,-1,1882,1800,0,0
665,-776,0,0,0,0,0,0,0,0,0,-1,1889,1800,0,0
672,-776,0,0,0,0,0,0,0,0,0,-1,1896,1800,0,0
679,-776,0,0,0,0,0,0,0,0,0,-1,1903,1800,0,0
686,-776,0,0,0,0,0,0,0,0,0,-1,1910,1800,0,0
693,-776,0,0,0,0,0,0,0,0,0,-1,1917,1800,0,0
700,-776,0,0,0,0,0,0,0,0,0,-1,1924,1800,0,0
707,-776,0,0,0,0,0,0,0,0,0,-1,1931,1800,0,0
714,-776,0,0,0,0,0,0,0,0,0,-1,1938,1800,0,0
721,-776,0,0,0,0,0,0,0,0,0,-1,1945,1800,0,0
728,-776,0,0,0,0,0,0,0,0,0,-1,1952,1800,0,0
735,-776,0,0,0,0,0,0,0,0,0,-1,1959,1800,0,0
742,-776,0,0,0,0,0,0,0,0,0,-1,1966,1800,0,0
749,-776,0,0,0,0,0,0,0,0,0,-1,1973,1800,0,0
756,-776,0,0,0,0,0,0,0,0,0,-1,1980,1800,0,0
763,-776,0,0,0,0,0,0,0,0,0,-1,1987,1800,0,0
770,-776,0,0,0,0,0,0,0,0,0,-1,1994,1800,0,0
777,-776,0,0,0,0,0,0,0,0,0,-1,2001,1800,0,0
784,-776,0,0,0,0,0,0,0,0,0,-1,2008,1800,0,0
791,-776,0,0,0,0,0,0,0,0,0,-1,2015,1800,0,0
798,-776,0,0,0,0,0,0,0,0,0,-1,2022,1800,0,0
805,-776,0,0,0,0,0,0,0,0,0,-1,2029,1800,0,0
812,-776,0,0,0,0,0,0,0,0,0,-1,2036,1800,0,0
-700,-783,0,0,0,0,0,0,0,0,0,-1,524,1807,0,0
-693,-783,0,0,0,0,0,0,0,0,0,-1,531,1807,0,0
-686,-783,0,0,0,0,0,0,0,0,0,-1,538,1807,0,0
-679,-783,0,0,0,0,0,0,0,0,0,-1,545,1807,0,0
-672,-783,0,0,0,0,0,0,0,0,0,-1,552,1807,0,0
-665,-783,0,0,0,0,0,0,0,0,0,-1,559,1807,0,0
-658,-783,0,0,0,0,0,0,0,0,0,-1,566,1807,0,0
-651,-783,0,0,0,0,0,0,0,0,0,-1,573,1807,0,0
-644,-783,0,0,0,0,0,0,0,0,0,-1,580,1807,0,0
-637,-783,0,0,0,0,0,0,0,0,0,-1,587,1807,0,0
-630,-783,0,0,0,0,0,0,0,0,0,-1,594,1807,0,0
-623,-783,0,0,0,0,0,0,0,0,0,-1,601,1807,0,0
-616,-783,0,0,0,0,0,0,0,0,0,-1,608,1807,0,0
-609,-783,0,0,0,0,0,0,0,0,0,-1,615,1807,0,0
-602,-783,0,0,0,0,0,0,0,0,0,-1,622,1807,0,0
-595,-783,0,0,0,0,0,0,0,0,0,-1,629,1807,0,0
-588,-783,0,0,0,0,0,0,0,0,0,-1,636,1807,0,0
-581,-783,0,0,0,0,0,0,0,0,0,-1,643,1807,0,0
-574,-783,0,0,0,0,0,0,0,0,0,-1,650,1807,0,0
-567,-783,0,0,0,0,0,0,0,0,0,-1,657,1807,0,0
-560,-783,0,0,0,0,0,0,0,0,0,-1,664,1807,0,0
-553,-783,0,0,0,0,0,0,0,0,0,-1,671,1807,0,0
-546,-783,0,0,0,0,0,0,0,0,0,-1,678,1807,0,0
-539,-783,0,0,0,0,0,0,0,0,0,-1,685,1807,0,0
-532,-783,0,0,0,0,0,0,0,0,0,-1,692,1807,0,0
-525,-783,0,0,0,0,0,0,0,0,0,-1,699,1807,0,0
-518,-783,0,0,0,0,0,0,0,0,0,-1,706,1807,0,0
-511,-783,0,0,0,0,0,0,0,0,0,-1,713,1807,0,0
-504,-783,0,0,0,0,0,0,0,0,0,-1,720,1807,0,0
-497,-783,0,0,0,0,0,0,0,0,0,-1,727,1807,0,0
-490,-783,0,0,0,0,0,0,0,0,0,-1,734,1807,0,0
-483,-783,0,0,0,0,0,0,0,0,0,-1,741,1807,0,0
-476,-783,0,0,0,0,0,0,0,0,0,-1,748,1807,0,0
-469,-783,0,0,0,0,0,0,0,0,0,-1,755,1807,0,0
-462,-783,0,0,0,0,0,0,0,0,0,-1,762,1807,0,0
-455,-783,0,0,0,0,0,0,0,0,0,-1,769,1807,0,0
-448,-783,0,0,0,0,0,0,0,0,0,-1,776,1807,0,0
-441,-783,0,0,0,0,0,0,0,0,0,-1,783,1807,0,0
-434,-783,0,0,0,0,0,0,0,0,0,-1,790,1807,0,0
-427,-783,0,0,0,0,0,0,0,0,0,-1,797,1807,0,0
-420,-783,0,0,0,0,0,0,0,0,0,-1,804,1807,0,0
-413,-783,0,0,0,0,0,0,0,0,0,-1,811,1807,0,0
-406,-783,0,0,0,0,0,0,0,0,0,-1,818,1807,0,0
-399,-783,0,0,0,0,0,0,0,0,0,-1,825,1807,0,0
-392,-783,0,0,0,0,0,0,0,0,0,-1,832,1807,0,0
-385,-783,0,0,0,0,0,0,0,0,0,-1,839,1807,0,0
-378,-783,0,0,0,0,0,0,0,0,0,-1,846,1807,0,0
-371,-783,0,0,0,0,0,0,0,0,0,-1,853,1807,0,0
-364,-783,0,0,0,0,0,0,0,0,0,-1,860,1807,0,0
-357,-783,0,0,0,0,0,0,0,0,0,-1,867,1807,0,0
-350,-783,0,0,0,0,0,0,0,0,0,-1,874,1807,0,0
-343,-783,0,0,0,0,0,0,0,0,0,-1,881,1807,0,0
-336,-783,0,0,0,0,0,0,0,0,0,-1,888,1807,0,0
-329,-783,0,0,0,0,0,0,0,0,0,-1,895,1807,0,0
-322,-783,0,0,0,0,0,0,0,0,0,-1,902,1807,0,0
-315,-783,0,0,0,0,0,0,0,0,0,-1,909,1807,0,0
-308,-783,0,0,0,0,0,0,0,0,0,-1,916,1807,0,0
-301,-783,0,0,0,0,0,0,0,0,0,-1,923,1807,0,0
-294,-783,0,0,0,0,0,0,0,0,0,-1,930,1807,0,0
-287,-783,0,0,0,0,0,0,0,0,0,-1,937,1807,0,0
-280,-783,0,0,0,0,0,0,0,0,0,-1,944,1807,0,0
-273,-783,0,0,0,0,0,0,0,0,0,-1,951,1807,0,0
-266,-783,0,0,0,0,0,0,0,0,0,-1,958,1807,0,0
-259,-783,0,0,0,0,0,0,0,0,0,-1,965,1807,0,0
-252,-783,0,0,0,0,0,0,0,0,0,-1,972,1807,0,0
-245,-783,0,0,0,0,0,0,0,0,0,-1,979,1807,0,0
-238,-783,0,0,0,0,0,0,0,0,0,-1,986,1807,0,0
-231,-783,0,0,0,0,0,0,0,0,0,-1,993,1807,0,0
-224,-783,0,0,0,0,0,0,0,0,0,-1,1000,1807,0,0
-217,-783,0,0,0,0,0,0,0,0,0,-1,1007,1807,0,0
-210,-783,0,0,0,0,0,0,0,0,0,-1,1014,1807,0,0
-203,-783,0,0,0,0,0,0,0,0,0,-1,1021,1807,0,0
-196,-783,0,0,0,0,0,0,0,0,0,-1,1028,1807,0,0
-189,-783,0,0,0,0,0,0,0,0,0,-1,1035,1807,0,0
-182,-783,0,0,0,0,0,0,0,0,0,-1,1042,1807,0,0
-175,-783,0,0,0,0,0,0,0,0,0,-1,1049,1807,0,0
-168,-783,0,0,0,0,0,0,0,0,0,-1,1056,1807,0,0
-161,-783,0,0,0,0,0,0,0,0,0,-1,1063,1807,0,0
-154,-783,0,0,0,0,0,0,0,0,0,-1,1070,1807,0,0
-147,-783,0,0,0,0,0,0,0,0,0,-1,1077,1807,0,0
-140,-783,0,0,0,0,0,0,0,0,0,-1,1084,1807,0,0
-133,-783,0,0,0,0,0,0,0,0,0,-1,1091,1807,0,0
-126,-783,0,0,0,0,0,0,0,0,0,-1,1098,1807,0,0
-119,-783,0,0,0,0,0,0,0,0,0,-1,1105,1807,0,0
-112,-783,5.33936,14.7699,0,0,0,0,0,0,0,-1,1112,1807,5.33931,-14.7699
-105,-783,6.44263,21.2224,0,0,0,0,0,0,0,-1,1119,1807,6.44263,-21.2224
-98,-783,5.54773,20.5695,0,0,0,0,0,0,0,-1,1126,1807,5.54772,-20.5695
-91,-783,2.6106,20.2491,0,0,0,0,0,0,0,-1,1133,1807,2.61056,-20.2492
-84,-783,-0.0491943,14.5743,0,0,0,0,0,0,0,-1,1140,1807,-0.0491562,-14.5743
-77,-783,0.332764,12.7788,0,0,0,0,0,0,0,-1,1147,1807,0.332743,-12.7788
-70,-783,-1.93176,5.12817,0,0,0,0,0,0,0,-1,1154,1807,-1.93171,-5.12813
-63,-783,-5.31702,10.54,0,0,0,0,0,0,0,-1,1161,1807,-5.31703,-10.54
-56,-783,-6.26135,6.9679,0,0,0,0,0,0,0,-1,1168,1807,-6.26136,-6.96785
-49,-783,-3.17688,4.59705,0,0,0,0,0,0,0,-1,1175,1807,-3.17685,-4.5971
-42,-783,-3.72876,3.1405,0,0,0,0,0,0,0,-1,1182,1807,-3.72874,-3.14055
-35,-783,-3.97046,1.59399,0,0,0,0,0,0,0,-1,1189,1807,-3.97041,-1.59401
-28,-783,-4.12195,0.270386,0,0,0,0,0,0,0,-1,1196,1807,-4.12197,-0.270408
-21,-783,2.13074,25.901,0,0,0,0,0,0,0,-1,1203,1807,2.13072,-25.901
-14,-783,3.03857,25.6802,0.132935,0.0908423,0.0142358,0.137298,0.0864799,0.297355,0.0801552,0.0440227,1210,1807,3.03856,-25.6802
-7,-783,4.27124,25.3557,0.113664,0.0909864,0.0130495,0.119612,0.0850376,0.427717,0.0710773,0.0454864,1217,1807,4.27127,-25.3557
0,-783,5.04797,25.1378,0,0,0,0,0,0,0,-1,1224,1807,5.04801,-25.1378
7,-783,5.98486,25.3523,0,0,0,0,0,0,0,-1,1231,1807,5.98485,-25.3523
14,-783,5.24243,27.4778,0,0,0,0,0,0,0,-1,1238,1807,5.24246,-27.4778
21,-783,5.50037,26.6831,0.0217859,0.0780651,0.0117404,0.0804161,0.019435,1.37317,0.0484497,0.0484388,1245,1807,5.50031,-26.6831
28,-783,5.40076,25.7659,-0.00713784,0.0697534,0.0132454,0.0719711,-0.00935556,1.4049,0.0513839,0.0448275,1252,1807,5.4008,-25.7659
35,-783,5.50146,24.757,-0.0324299,0.0615113,0.014328,0.0636481,-0.0345667,1.42276,0.0575269,0.0478304,1259,1807,5.50142,-24.757
42,-783,5.64844,23.7865,0,0,0,0,0,0,0,-1,1266,1807,5.64848,-23.7865
49,-783,19.1067,22.936,0,0,0,0,0,0,0,-1,1273,1807,19.1067,-22.936
56,-783,6.65247,26.78,0,0,0,0,0,0,0,-1,1280,1807,6.65251,-26.7801
63,-783,16.4075,24.7744,-0.116508,0.0336402,0.0141508,0.0349622,-0.11783,1.47764,0.0924385,0.0443082,1287,1807,16.4075,-24.7744
70,-783,14.7965,25.4387,-0.128895,0.0282571,0.0135023,0.0294088,-0.130047,1.48571,0.0979831,0.0433069,1294,1807,14.7965,-25.4388
77,-783,13.0884,25.9906,-0.134728,0.0260352,0.0120891,0.0269392,-0.135632,1.49616,0.10061,0.0470193,1301,1807,13.0884,-25.9906
84,-783,11.64,26.61,-0.13839,0.0240207,0.00910907,0.02453,-0.138899,1.51494,0.101767,0.0495227,1308,1807,11.64,-26.61
91,-783,10.2722,26.5298,-0.139934,0.0197818,0.00589162,0.0199988,-0.140151,1.53397,0.100764,0.044367,1315,1807,10.2723,-26.5298
98,-783,8.66663,26.4613,-0.138969,0.0185751,0.00283424,0.0186261,-0.13902,1.55281,0.0994715,0.0442396,1322,1807,8.66658,-26.4613
105,-783,7.19189,26.563,-0.137536,0.0170082,-0.000197946,0.0170085,-0.137536,-1.56952,0.0978541,0.0481777,1329,1807,7.19195,-26.563
112,-783,6.00513,26.7526,-0.13519,0.0151269,-0.00298829,0.0151862,-0.135249,-1.55093,0.0956309,0.0467503,1336,1807,6.00512,-26.7526
119,-783,4.81299,27.011,-0.131934,0.013462,-0.00601787,0.0137107,-0.132183,-1.5295,0.0930295,0.042212,1343,1807,4.81293,-27.011
126,-783,3.59436,27.1075,-0.127873,0.0114276,-0.00866766,0.0119649,-0.12841,-1.50889,0.089861,0.0438363,1350,1807,3.59435,-27.1076
133,-783,2.18591,27.2775,-0.12362,0.009602,-0.0106762,0.0104522,-0.12447,-1.49133,0.0866743,0.0473708,1357,1807,2.18594,-27.2775
140,-783,0.915405,27.3256,-0.119781,0.00800398,-0.0117114,0.00906847,-0.120845,-1.48015,0.08375,0.0475992,1364,1807,0.915385,-27.3255
147,-783,-0.309937,27.2825,0,0,0,0,0,0,0,-1,1371,1807,-0.309948,-27.2825
154,-783,22.8251,14.2119,0,0,0,0,0,0,0,-1,1378,1807,22.8251,-14.2119
161,-783,6.57568,1.16174,0,0,0,0,0,0,0,-1,1385,1807,6.57562,-1.1617
168,-783,8.62561,1.79944,0,0,0,0,0,0,0,-1,1392,1807,8.62561,-1.79946
175,-783,8.78699,3.40857,0,0,0,0,0,0,0,-1,1399,1807,8.78697,-3.40854
182,-783,8.70984,5.14661,0,0,0,0,0,0,0,-1,1406,1807,8.70989,-5.14666
189,-783,8.55762,6.79871,0,0,0,0,0,0,0,-1,1413,1807,8.55766,-6.79872
196,-783,8.25488,8.66626,0,0,0,0,0,0,0,-1,1420,1807,8.25492,-8.66628
203,-783,7.86755,10.5735,0,0,0,0,0,0,0,-1,1427,1807,7.8676,-10.5734
210,-783,5.6969,8.99231,0,0,0,0,0,0,0,-1,1434,1807,5.69693,-8.99234
217,-783,5.28503,3.80872,0,0,0,0,0,0,0,-1,1441,1807,5.285,-3.80868
224,-783,3.22571,6.62903,0,0,0,0,0,0,0,-1,1448,1807,3.2257,-6.62907
231,-783,4.27942,4.56262,0,0,0,0,0,0,0,-1,1455,1807,4.27948,-4.56267
238,-783,0,0,0,0,0,0,0,0,0,-1,1462,1807,0,0
245,-783,0,0,0,0,0,0,0,0,0,-1,1469,1807,0,0
252,-783,0,0,0,0,0,0,0,0,0,-1,1476,1807,0,0
259,-783,0,0,0,0,0,0,0,0,0,-1,1483,1807,0,0
266,-783,0,0,0,0,0,0,0,0,0,-1,1490,1807,0,0
273,-783,0,0,0,0,0,0,0,0,0,-1,1497,1807,0,0
280,-783,0,0,0,0,0,0,0,0,0,-1,1504,1807,0,0
287,-783,0,0,0,0,0,0,0,0,0,-1,1511,1807,0,0
294,-783,0,0,0,0,0,0,0,0,0,-1,1518,1807,0,0
301,-783,0,0,0,0,0,0,0,0,0,-1,1525,1807,0,0
308,-783,0,0,0,0,0,0,0,0,0,-1,1532,1807,0,0
315,-783,0,0,0,0,0,0,0,0,0,-1,1539,1807,0,0
322,-783,0,0,0,0,0,0,0,0,0,-1,1546,1807,0,0
329,-783,0,0,0,0,0,0,0,0,0,-1,1553,1807,0,0
336,-783,0,0,0,0,0,0,0,0,0,-1,1560,1807,0,0
343,-783,0,0,0,0,0,0,0,0,0,-1,1567,1807,0,0
350,-783,0,0,0,0,0,0,0,0,0,-1,1574,1807,0,0
357,-783,0,0,0,0,0,0,0,0,0,-1,1581,1807,0,0
364,-783,0,0,0,0,0,0,0,0,0,-1,1588,1807,0,0
371,-783,0,0,0,0,0,0,0,0,0,-1,1595,1807,0,0
378,-783,0,0,0,0,0,0,0,0,0,-1,1602,1807,0,0
385,-783,0,0,0,0,0,0,0,0,0,-1,1609,1807,0,0
392,-783,0,0,0,0,0,0,0,0,0,-1,1616,1807,0,0
399,-783,0,0,0,0,0,0,0,0,0,-1,1623,1807,0,0
406,-783,0,0,0,0,0,0,0,0,0,-1,1630,1807,0,0
413,-783,0,0,0,0,0,0,0,0,0,-1,1637,1807,0,0
420,-783,0,0,0,0,0,0,0,0,0,-1,1644,1807,0,0
427,-783,0,0,0,0,0,0,0,0,0,-1,1651,1807,0,0
434,-783,0,0,0,0,0,0,0,0,0,-1,1658,1807,0,0
441,-783,0,0,0,0,0,0,0,0,0,-1,1665,1807,0,0
448,-783,0,0,0,0,0,0,0,0,0,-1,1672,1807,0,0
455,-783,0,0,0,0,0,0,0,0,0,-1,1679,1807,0,0
462,-783,0,0,0,0,0,0,0,0,0,-1,1686,1807,0,0
469,-783,0,0,0,0,0,0,0,0,0,-1,1693,1807,0,0
476,-783,0,0,0,0,0,0,0,0,0,-1,1700,1807,0,0
483,-783,0,0,0,0,0,0,0,0,0,-1,1707,1807,0,0
490,-783,0,0,0,0,0,0,0,0,0,-1,1714,1807,0,0
497,-783,0,0,0,0,0,0,0,0,0,-1,1721,1807,0,0
504,-783,0,0,0,0,0,0,0,0,0,-1,1728,1807,0,0
511,-783,0,0,0,0,0,0,0,0,0,-1,1735,1807,0,0
518,-783,0,0,0,0,0,0,0,0,0,-1,1742,1807,0,0
525,-783,0,0,0,0,0,0,0,0,0,-1,1749,1807,0,0
532,-783,0,0,0,0,0,0,0,0,0,-1,1756,1807,0,0
539,-783,0,0,0,0,0,0,0,0,0,-1,1763,1807,0,0
546,-783,0,0,0,0,0,0,0,0,0,-1,1770,1807,0,0
553,-783,0,0,0,0,0,0,0,0,0,-1,1777,1807,0,0
560,-783,0,0,0,0,0,0,0,0,0,-1,1784,1807,0,0
567,-783,0,0,0,0,0,0,0,0,0,-1,1791,1807,0,0
574,-783,0,0,0,0,0,0,0,0,0,-1,1798,1807,0,0
581,-783,0,0,0,0,0,0,0,0,0,-1,1805,1807,0,0
588,-783,0,0,0,0,0,0,0,0,0,-1,1812,1807,0,0
595,-783,0,0,0,0,0,0,0,0,0,-1,1819,1807,0,0
602,-783,0,0,0,0,0,0,0,0,0,-1,1826,1807,0,0
609,-783,0,0,0,0,0,0,0,0,0,-1,1833,1807,0,0
616,-783,0,0,0,0,0,0,0,0,0,-1,1840,1807,0,0
623,-783,0,0,0,0,0,0,0,0,0,-1,1847,1807,0,0
630,-783,0,0,0,0,0,0,0,0,0,-1,1854,1807,0,0
637,-783,0,0,0,0,0,0,0,0,0,-1,1861,1807,0,0
644,-783,0,0,0,0,0,0,0,0,0,-1,1868,1807,0,0
651,-783,0,0,0,0,0,0,0,0,0,-1,1875,1807,0,0
658,-783,0,0,0,0,0,0,0,0,0,-1,1882,1807,0,0
665,-783,0,0,0,0,0,0,0,0,0,-1,1889,1807,0,0
672,-783,0,0,0,0,0,0,0,0,0,-1,1896,1807,0,0
679,-783,0,0,0,0,0,0,0,0,0,-1,1903,1807,0,0
686,-783,0,0,0,0,0,0,0,0,0,-1,1910,1807,0,0
693,-783,0,0,0,0,0,0,0,0,0,-1,1917,1807,0,0
700,-783,0,0,0,0,0,0,0,0,0,-1,1924,1807,0,0
707,-783,0,0,0,0,0,0,0,0,0,-1,1931,1807,0,0
714,-783,0,0,0,0,0,0,0,0,0,-1,1938,1807,0,0
721,-783,0,0,0,0,0,0,0,0,0,-1,1945,1807,0,0
728,-783,0,0,0,0,0,0,0,0,0,-1,1952,1807,0,0
735,-783,0,0,0,0,0,0,0,0,0,-1,1959,1807,0,0
742,-783,0,0,0,0,0,0,0,0,0,-1,1966,1807,0,0
749,-783,0,0,0,0,0,0,0,0,0,-1,1973,1807,0,0
756,-783,0,0,0,0,0,0,0,0,0,-1,1980,1807,0,0
763,-783,0,0,0,0,0,0,0,0,0,-1,1987,1807,0,0
770,-783,0,0,0,0,0,0,0,0,0,-1,1994,1807,0,0
777,-783,0,0,0,0,0,0,0,0,0,-1,2001,1807,0,0
784,-783,0,0,0,0,0,0,0,0,0,-1,2008,1807,0,0
791,-783,0,0,0,0,0,0,0,0,0,-1,2015,1807,0,0
798,-783,0,0,0,0,0,0,0,0,0,-1,2022,1807,0,0
805,-783,0,0,0,0,0,0,0,0,0,-1,2029,1807,0,0
812,-783,0,0,0,0,0,0,0,0,0,-1,2036,1807,0,0
-700,-790,0,0,0,0,0,0,0,0,0,-1,524,1814,0,0
-693,-790,0,0,0,0,0,0,0,0,0,-1,531,1814,0,0
-686,-790,0,0,0,0,0,0,0,0,0,-1,538,1814,0,0
-679,-790,0,0,0,0,0,0,0,0,0,-1,545,1814,0,0
-672,-790,0,0,0,0,0,0,0,0,0,-1,552,1814,0,0
-665,-790,0,0,0,0,0,0,0,0,0,-1,559,1814,0,0
-658,-790,0,0,0,0,0,0,0,0,0,-1,566,1814,0,0
-651,-790,0,0,0,0,0,0,0,0,0,-1,573,1814,0,0
-644,-790,0,0,0,0,0,0,0,0,0,-1,580,1814,0,0
-637,-790,0,0,0,0,0,0,0,0,0,-1,587,1814,0,0
-630,-790,0,0,0,0,0,0,0,0,0,-1,594,1814,0,0
-623,-790,0,0,0,0,0,0,0,0,0,-1,601,1814,0,0
-616,-790,0,0,0,0,0,0,0,0,0,-1,608,1814,0,0
-609,-790,0,0,0,0,0,0,0,0,0,-1,615,1814,0,0
-602,-790,0,0,0,0,0,0,0,0,0,-1,622,1814,0,0
-595,-790,0,0,0,0,0,0,0,0,0,-1,629,1814,0,0
-588,-790,0,0,0,0,0,0,0,0,0,-1,636,1814,0,0
-581,-790,0,0,0,0,0,0,0,0,0,-1,643,1814,0,0
-574,-790,0,0,0,0,0,0,0,0,0,-1,650,1814,0,0
-567,-790,0,0,0,0,0,0,0,0,0,-1,657,1814,0,0
-560,-790,0,0,0,0,0,0,0,0,0,-1,664,1814,0,0
-553,-790,0,0,0,0,0,0,0,0,0,-1,671,1814,0,0
-546,-790,0,0,0,0,0,0,0,0,0,-1,678,1814,0,0
-539,-790,0,0,0,0,0,0,0,0,0,-1,685,1814,0,0
-532,-790,0,0,0,0,0,0,0,0,0,-1,692,1814,0,0
-525,-790,0,0,0,0,0,0,0,0,0,-1,699,1814,0,0
-518,-790,0,0,0,0,0,0,0,0,0,-1,706,1814,0,0
-511,-790,0,0,0,0,0,0,0,0,0,-1,713,1814,0,0
-504,-790,0,0,0,0,0,0,0,0,0,-1,720,1814,0,0
-497,-790,0,0,0,0,0,0,0,0,0,-1,727,1814,0,0
-490,-790,0,0,0,0,0,0,0,0,0,-1,734,1814,0,0
-483,-790,0,0,0,0,0,0,0,0,0,-1,741,1814,0,0
-476,-790,0,0,0,0,0,0,0,0,0,-1,748,1814,0,0
-469,-790,0,0,0,0,0,0,0,0,0,-1,755,1814,0,0
-462,-790,0,0,0,0,0,0,0,0,0,-1,762,1814,0,0
-455,-790,0,0,0,0,0,0,0,0,0,-1,769,1814,0,0
-448,-790,0,0,0,0,0,0,0,0,0,-1,776,1814,0,0
-441,-790,0,0,0,0,0,0,0,0,0,-1,783,1814,0,0
-434,-790,0,0,0,0,0,0,0,0,0,-1,790,1814,0,0
-427,-790,0,0,0,0,0,0,0,0,0,-1,797,1814,0,0
-420,-790,0,0,0,0,0,0,0,0,0,-1,804,1814,0,0
-413,-790,0,0,0,0,0,0,0,0,0,-1,811,1814,0,0
-406,-790,0,0,0,0,0,0,0,0,0,-1,818,1814,0,0
-399,-790,0,0,0,0,0,0,0,0,0,-1,825,1814,0,0
-392,-790,0,0,0,0,0,0,0,0,0,-1,832,1814,0,0
-385,-790,0,0,0,0,0,0,0,0,0,-1,839,1814,0,0
-378,-790,0,0,0,0,0,0,0,0,0,-1,846,1814,0,0
-371,-790,0,0,0,0,0,0,0,0,0,-1,853,1814,0,0
-364,-790,0,0,0,0,0,0,0,0,0,-1,860,1814,0,0
-357,-790,0,0,0,0,0,0,0,0,0,-1,867,1814,0,0
-350,-790,0,0,0,0,0,0,0,0,0,-1,874,1814,0,0
-343,-790,0,0,0,0,0,0,0,0,0,-1,881,1814,0,0
-336,-790,0,0,0,0,0,0,0,0,0,-1,888,1814,0,0
-329,-790,0,0,0,0,0,0,0,0,0,-1,895,1814,0,0
-322,-790,0,0,0,0,0,0,0,0,0,-1,902,1814,0,0
-315,-790,0,0,0,0,0,0,0,0,0,-1,909,1814,0,0
-308,-790,0,0,0,0,0,0,0,0,0,-1,916,1814,0,0
-301,-790,0,0,0,0,0,0,0,0,0,-1,923,1814,0,0
-294,-790,0,0,0,0,0,0,0,0,0,-1,930,1814,0,0
-287,-790,0,0,0,0,0,0,0,0,0,-1,937,1814,0,0
-280,-790,0,0,0,0,0,0,0,0,0,-1,944,1814,0,0
-273,-790,0,0,0,0,0,0,0,0,0,-1,951,1814,0,0
-266,-790,0,0,0,0,0,0,0,0,0,-1,958,1814,0,0
-259,-790,0,0,0,0,0,0,0,0,0,-1,965,1814,0,0
-252,-790,0,0,0,0,0,0,0,0,0,-1,972,1814,0,0
-245,-790,0,0,0,0,0,0,0,0,0,-1,979,1814,0,0
-238,-790,0,0,0,0,0,0,0,0,0,-1,986,1814,0,0
-231,-790,0,0,0,0,0,0,0,0,0,-1,993,1814,0,0
-224,-790,0,0,0,0,0,0,0,0,0,-1,1000,1814,0,0
-217,-790,0,0,0,0,0,0,0,0,0,-1,1007,1814,0,0
-210,-790,0,0,0,0,0,0,0,0,0,-1,1014,1814,0,0
-203,-790,0,0,0,0,0,0,0,0,0,-1,1021,1814,0,0
-196,-790,0,0,0,0,0,0,0,0,0,-1,1028,1814,0,0
-189,-790,0,0,0,0,0,0,0,0,0,-1,1035,1814,0,0
-182,-790,0,0,0,0,0,0,0,0,0,-1,1042,1814,0,0
-175,-790,0,0,0,0,0,0,0,0,0,-1,1049,1814,0,0
-168,-790,0,0,0,0,0,0,0,0,0,-1,1056,1814,0,0
-161,-790,0,0,0,0,0,0,0,0,0,-1,1063,1814,0,0
-154,-790,0,0,0,0,0,0,0,0,0,-1,1070,1814,0,0
-147,-790,0,0,0,0,0,0,0,0,0,-1,1077,1814,0,0
-140,-790,0,0,0,0,0,0,0,0,0,-1,1084,1814,0,0
-133,-790,0,0,0,0,0,0,0,0,0,-1,1091,1814,0,0
-126,-790,0,0,0,0,0,0,0,0,0,-1,1098,1814,0,0
-119,-790,0,0,0,0,0,0,0,0,0,-1,1105,1814,0,0
-112,-790,0,0,0,0,0,0,0,0,0,-1,1112,1814,0,0
-105,-790,0,0,0,0,0,0,0,0,0,-1,1119,1814,0,0
-98,-790,0,0,0,0,0,0,0,0,0,-1,1126,1814,0,0
-91,-790,0,0,0,0,0,0,0,0,0,-1,1133,1814,0,0
-84,-790,0,0,0,0,0,0,0,0,0,-1,1140,1814,0,0
-77,-790,-0.969238,5.30847,0,0,0,0,0,0,0,-1,1147,1814,-0.969277,-5.3085
-70,-790,-1.23169,4.98914,0,0,0,0,0,0,0,-1,1154,1814,-1.23163,-4.98916
-63,-790,-1.69128,4.32263,0,0,0,0,0,0,0,-1,1161,1814,-1.69128,-4.32258
-56,-790,-2.24756,3.75305,0,0,0,0,0,0,0,-1,1168,1814,-2.24758,-3.75302
-49,-790,-3.11011,3.35779,0,0,0,0,0,0,0,-1,1175,1814,-3.11006,-3.35781
-42,-790,0.593262,1.19165,0,0,0,0,0,0,0,-1,1182,1814,0.593225,-1.19165
-35,-790,0.307129,-0.20105,0,0,0,0,0,0,0,-1,1189,1814,0.307178,0.201006
-28,-790,-2.78467,0.785156,0,0,0,0,0,0,0,-1,1196,1814,-2.78471,-0.785183
-21,-790,1.05139,25.6558,0,0,0,0,0,0,0,-1,1203,1814,1.05135,-25.6558
-14,-790,2.17444,25.4585,0.171127,0.112136,0.0136894,0.174149,0.109115,0.217266,0.101613,0.044455,1210,1814,2.17443,-25.4585
-7,-790,3.83459,24.5625,0.145086,0.115044,0.0115599,0.14902,0.111111,0.327955,0.0894297,0.0448836,1217,1814,3.83455,-24.5625
0,-790,4.78113,24.2476,0,0,0,0,0,0,0,-1,1224,1814,4.78113,-24.2476
7,-790,5.19189,23.778,0.0964428,0.117966,0.00826327,0.120772,0.0936363,1.24338,0.0731666,0.0469791,1231,1814,5.19191,-23.778
14,-790,5.6366,23.6418,0.0615095,0.109276,0.00927005,0.111012,0.0597735,1.38567,0.0641557,0.0489468,1238,1814,5.63658,-23.6418
21,-790,5.07166,26.5056,0,0,0,0,0,0,0,-1,1245,1814,5.07169,-26.5056
28,-790,4.62805,25.5374,0,0,0,0,0,0,0,-1,1252,1814,4.62811,-25.5373
35,-790,4.94812,24.417,0,0,0,0,0,0,0,-1,1259,1814,4.94809,-24.417
42,-790,5.46179,23.6096,0,0,0,0,0,0,0,-1,1266,1814,5.46182,-23.6097
49,-790,19.4852,22.681,-0.106592,0.0583478,0.0181062,0.060312,-0.108556,1.46274,0.0988135,0.0480435,1273,1814,19.4852,-22.6811
56,-790,18.028,23.5623,0,0,0,0,0,0,0,-1,1280,1814,18.0279,-23.5622
63,-790,16.5254,24.3179,-0.14838,0.0400946,0.018632,0.0419189,-0.150204,1.4732,0.116647,0.0434834,1287,1814,16.5253,-24.3178
70,-790,14.9684,25.1522,-0.163548,0.0332101,0.0182568,0.0348897,-0.165227,1.47905,0.123436,0.0404607,1294,1814,14.9683,-25.1522
77,-790,13.1923,25.743,-0.169745,0.0308021,0.0164687,0.0321455,-0.171089,1.4894,0.126147,0.0423897,1301,1814,13.1923,-25.743
84,-790,11.7926,26.4736,-0.17325,0.0286749,0.0129016,0.0294959,-0.174071,1.50725,0.127026,0.0454712,1308,1814,11.7926,-26.4737
91,-790,10.4426,26.0958,-0.174214,0.024363,0.00901027,0.024771,-0.174622,1.52555,0.125489,0.0440369,1315,1814,10.4426,-26.0958
98,-790,8.86169,26.0978,-0.172589,0.023203,0.0051486,0.0233383,-0.172724,1.54452,0.123665,0.0456006,1322,1814,8.86166,-26.0977
105,-790,7.2074,26.6938,0,0,0,0,0,0,0,-1,1329,1814,7.2074,-26.6938
112,-790,6.04309,26.9365,-0.166565,0.0194954,-0.00240049,0.0195264,-0.166596,-1.5579,0.118112,0.0487224,1336,1814,6.04309,-26.9365
119,-790,4.77686,26.8695,-0.162204,0.0179245,-0.00625753,0.0181416,-0.162421,-1.53611,0.114807,0.0434964,1343,1814,4.77682,-26.8695
126,-790,3.77661,27.097,-0.156787,0.0156039,-0.00974322,0.0161528,-0.157336,-1.51452,0.110668,0.0454057,1350,1814,3.77665,-27.097
133,-790,2.71777,27.1124,-0.150843,0.0132883,-0.0123682,0.0142151,-0.151769,-1.496,0.106235,0.0492011,1357,1814,2.71783,-27.1124
140,-790,1.61438,27.3876,-0.144608,0.0108923,-0.0137284,0.012095,-0.14581,-1.48341,0.101479,0.0465316,1364,1814,1.61433,-27.3876
147,-790,0.44043,27.7166,0,0,0,0,0,0,0,-1,1371,1814,0.440399,-27.7166
154,-790,27.679,12.5052,0,0,0,0,0,0,0,-1,1378,1814,27.6789,-12.5052
161,-790,26.6003,11.7516,0,0,0,0,0,0,0,-1,1385,1814,26.6004,-11.7516
168,-790,7.04077,2.23279,0,0,0,0,0,0,0,-1,1392,1814,7.04082,-2.23275
175,-790,9.03918,3.98535,0,0,0,0,0,0,0,-1,1399,1814,9.0392,-3.98535
182,-790,8.96997,5.67896,0,0,0,0,0,0,0,-1,1406,1814,8.97001,-5.6789
189,-790,8.59729,6.86975,0,0,0,0,0,0,0,-1,1413,1814,8.59728,-6.86972
196,-790,8.21924,9.29053,0,0,0,0,0,0,0,-1,1420,1814,8.21924,-9.29048
203,-790,0,0,0,0,0,0,0,0,0,-1,1427,1814,0,0
210,-790,0,0,0,0,0,0,0,0,0,-1,1434,1814,0,0
217,-790,0,0,0,0,0,0,0,0,0,-1,1441,1814,0,0
224,-790,0,0,0,0,0,0,0,0,0,-1,1448,1814,0,0
231,-790,0,0,0,0,0,0,0,0,0,-1,1455,1814,0,0
238,-790,0,0,0,0,0,0,0,0,0,-1,1462,1814,0,0
245,-790,0,0,0,0,0,0,0,0,0,-1,1469,1814,0,0
252,-790,0,0,0,0,0,0,0,0,0,-1,1476,1814,0,0
259,-790,0,0,0,0,0,0,0,0,0,-1,1483,1814,0,0
266,-790,0,0,0,0,0,0,0,0,0,-1,1490,1814,0,0
273,-790,0,0,0,0,0,0,0,0,0,-1,1497,1814,0,0
280,-790,0,0,0,0,0,0,0,0,0,-1,1504,1814,0,0
287,-790,0,0,0,0,0,0,0,0,0,-1,1511,1814,0,0
294,-790,0,0,0,0,0,0,0,0,0,-1,1518,1814,0,0
301,-790,0,0,0,0,0,0,0,0,0,-1,1525,1814,0,0
308,-790,0,0,0,0,0,0,0,0,0,-1,1532,1814,0,0
315,-790,0,0,0,0,0,0,0,0,0,-1,1539,1814,0,0
322,-790,0,0,0,0,0,0,0,0,0,-1,1546,1814,0,0
329,-790,0,0,0,0,0,0,0,0,0,-1,1553,1814,0,0
336,-790,0,0,0,0,0,0,0,0,0,-1,1560,1814,0,0
343,-790,0,0,0,0,0,0,0,0,0,-1,1567,1814,0,0
350,-790,0,0,0,0,0,0,0,0,0,-1,1574,1814,0,0
357,-790,0,0,0,0,0,0,0,0,0,-1,1581,1814,0,0
364,-790,0,0,0,0,0,0,0,0,0,-1,1588,1814,0,0
371,-790,0,0,0,0,0,0,0,0,0,-1,1595,1814,0,0
378,-790,0,0,0,0,0,0,0,0,0,-1,1602,1814,0,0
385,-790,0,0,0,0,0,0,0,0,0,-1,1609,1814,0,0
392,-790,0,0,0,0,0,0,0,0,0,-1,1616,1814,0,0
399,-790,0,0,0,0,0,0,0,0,0,-1,1623,1814,0,0
406,-790,0,0,0,0,0,0,0,0,0,-1,1630,1814,0,0
413,-790,0,0,0,0,0,0,0,0,0,-1,1637,1814,0,0
420,-790,0,0,0,0,0,0,0,0,0,-1,1644,1814,0,0
427,-790,0,0,0,0,0,0,0,0,0,-1,1651,1814,0,0
434,-790,0,0,0,0,0,0,0,0,0,-1,1658,1814,0,0
441,-790,0,0,0,0,0,0,0,0,0,-1,1665,1814,0,0
448,-790,0,0,0,0,0,0,0,0,0,-1,1672,1814,0,0
455,-790,0,0,0,0,0,0,0,0,0,-1,1679,1814,0,0
462,-790,0,0,0,0,0,0,0,0,0,-1,1686,1814,0,0
469,-790,0,0,0,0,0,0,0,0,0,-1,1693,1814,0,0
476,-790,0,0,0,0,0,0,0,0,0,-1,1700,1814,0,0
483,-790,0,0,0,0,0,0,0,0,0,-1,1707,1814,0,0
490,-790,0,0,0,0,0,0,0,0,0,-1,1714,1814,0,0
497,-790,0,0,0,0,0,0,0,0,0,-1,1721,1814,0,0
504,-790,0,0,0,0,0,0,0,0,0,-1,1728,1814,0,0
511,-790,0,0,0,0,0,0,0,0,0,-1,1735,1814,0,0
518,-790,0,0,0,0,0,0,0,0,0,-1,1742,1814,0,0
525,-790,0,0,0,0,0,0,0,0,0,-1,1749,1814,0,0
532,-790,0,0,0,0,0,0,0,0,0,-1,1756,1814,0,0
539,-790,0,0,0,0,0,0,0,0,0,-1,1763,1814,0,0
546,-790,0,0,0,0,0,0,0,0,0,-1,1770,1814,0,0
553,-790,0,0,0,0,0,0,0,0,0,-1,1777,1814,0,0
560,-790,0,0,0,0,0,0,0,0,0,-1,1784,1814,0,0
567,-790,0,0,0,0,0,0,0,0,0,-1,1791,1814,0,0
574,-790,0,0,0,0,0,0,0,0,0,-1,1798,1814,0,0
581,-790,0,0,0,0,0,0,0,0,0,-1,1805,1814,0,0
588,-790,0,0,0,0,0,0,0,0,0,-1,1812,1814,0,0
595,-790,0,0,0,0,0,0,0,0,0,-1,1819,1814,0,0
602,-790,0,0,0,0,0,0,0,0,0,-1,1826,1814,0,0
609,-790,0,0,0,0,0,0,0,0,0,-1,1833,1814,0,0
616,-790,0,0,0,0,0,0,0,0,0,-1,1840,1814,0,0
623,-790,0,0,0,0,0,0,0,0,0,-1,1847,1814,0,0
630,-790,0,0,0,0,0,0,0,0,0,-1,1854,1814,0,0
637,-790,0,0,0,0,0,0,0,0,0,-1,1861,1814,0,0
644,-790,0,0,0,0,0,0,0,0,0,-1,1868,1814,0,0
651,-790,0,0,0,0,0,0,0,0,0,-1,1875,1814,0,0
658,-790,0,0,0,0,0,0,0,0,0,-1,1882,1814,0,0
665,-790,0,0,0,0,0,0,0,0,0,-1,1889,1814,0,0
672,-790,0,0,0,0,0,0,0,0,0,-1,1896,1814,0,0
679,-790,0,0,0,0,0,0,0,0,0,-1,1903,1814,0,0
686,-790,0,0,0,0,0,0,0,0,0,-1,1910,1814,0,0
693,-790,0,0,0,0,0,0,0,0,0,-1,1917,1814,0,0
700,-790,0,0,0,0,0,0,0,0,0,-1,1924,1814,0,0
707,-790,0,0,0,0,0,0,0,0,0,-1,1931,1814,0,0
714,-790,0,0,0,0,0,0,0,0,0,-1,1938,1814,0,0
721,-790,0,0,0,0,0,0,0,0,0,-1,1945,1814,0,0
728,-790,0,0,0,0,0,0,0,0,0,-1,1952,1814,0,0
735,-790,0,0,0,0,0,0,0,0,0,-1,1959,1814,0,0
742,-790,0,0,0,0,0,0,0,0,0,-1,1966,1814,0,0
749,-790,0,0,0,0,0,0,0,0,0,-1,1973,1814,0,0
756,-790,0,0,0,0,0,0,0,0,0,-1,1980,1814,0,0
763,-790,0,0,0,0,0,0,0,0,0,-1,1987,1814,0,0
770,-790,0,0,0,0,0,0,0,0,0,-1,1994,1814,0,0
777,-790,0,0,0,0,0,0,0,0,0,-1,2001,1814,0,0
784,-790,0,0,0,0,0,0,0,0,0,-1,2008,1814,0,0
791,-790,0,0,0,0,0,0,0,0,0,-1,2015,1814,0,0
798,-790,0,0,0,0,0,0,0,0,0,-1,2022,1814,0,0
805,-790,0,0,0,0,0,0,0,0,0,-1,2029,1814,0,0
812,-790,0,0,0,0,0,0,0,0,0,-1,2036,1814,0,0
-700,-797,0,0,0,0,0,0,0,0,0,-1,524,1821,0,0
-693,-797,0,0,0,0,0,0,0,0,0,-1,531,1821,0,0
-686,-797,0,0,0,0,0,0,0,0,0,-1,538,1821,0,0
-679,-797,0,0,0,0,0,0,0,0,0,-1,545,1821,0,0
-672,-797,0,0,0,0,0,0,0,0,0,-1,552,1821,0,0
-665,-797,0,0,0,0,0,0,0,0,0,-1,559,1821,0,0
-658,-797,0,0,0,0,0,0,0,0,0,-1,566,1821,0,0
-651,-797,0,0,0,0,0,0,0,0,0,-1,573,1821,0,0
-644,-797,0,0,0,0,0,0,0,0,0,-1,580,1821,0,0
-637,-797,0,0,0,0,0,0,0,0,0,-1,587,1821,0,0
-630,-797,0,0,0,0,0,0,0,0,0,-1,594,1821,0,0
-623,-797,0,0,0,0,0,0,0,0,0,-1,601,1821,0,0
-616,-797,0,0,0,0,0,0,0,0,0,-1,608,1821,0,0
-609,-797,0,0,0,0,0,0,0,0,0,-1,615,1821,0,0
-602,-797,0,0,0,0,0,0,0,0,0,-1,622,1821,0,0
-595,-797,0,0,0,0,0,0,0,0,0,-1,629,1821,0,0
-588,-797,0,0,0,0,0,0,0,0,0,-1,636,1821,0,0
-581,-797,0,0,0,0,0,0,0,0,0,-1,643,1821,0,0
-574,-797,0,0,0,0,0,0,0,0,0,-1,650,1821,0,0
-567,-797,0,0,0,0,0,0,0,0,0,-1,657,1821,0,0
-560,-797,0,0,0,0,0,0,0,0,0,-1,664,1821,0,0
-553,-797,0,0,0,0,0,0,0,0,0,-1,671,1821,0,0
-546,-797,0,0,0,0,0,0,0,0,0,-1,678,1821,0,0
-539,-797,0,0,0,0,0,0,0,0,0,-1,685,1821,0,0
-532,-797,0,0,0,0,0,0,0,0,0,-1,692,1821,0,0
-525,-797,0,0,0,0,0,0,0,0,0,-1,699,1821,0,0
-518,-797,0,0,0,0,0,0,0,0,0,-1,706,1821,0,0
-511,-797,0,0,0,0,0,0,0,0,0,-1,713,1821,0,0
-504,-797,0,0,0,0,0,0,0,0,0,-1,720,1821,0,0
-497,-797,0,0,0,0,0,0,0,0,0,-1,727,1821,0,0
-490,-797,0,0,0,0,0,0,0,0,0,-1,734,1821,0,0
-483,-797,0,0,0,0,0,0,0,0,0,-1,741,1821,0,0
-476,-797,0,0,0,0,0,0,0,0,0,-1,748,1821,0,0
-469,-797,0,0,0,0,0,0,0,0,0,-1,755,1821,0,0
-462,-797,0,0,0,0,0,0,0,0,0,-1,762,1821,0,0
-455,-797,0,0,0,0,0,0,0,0,0,-1,769,1821,0,0
-448,-797,0,0,0,0,0,0,0,0,0,-1,776,1821,0,0
-441,-797,0,0,0,0,0,0,0,0,0,-1,783,1821,0,0
-434,-797,0,0,0,0,0,0,0,0,0,-1,790,1821,0,0
-427,-797,0,0,0,0,0,0,0,0,0,-1,797,1821,0,0
-420,-797,0,0,0,0,0,0,0,0,0,-1,804,1821,0,0
-413,-797,0,0,0,0,0,0,0,0,0,-1,811,1821,0,0
-406,-797,0,0,0,0,0,0,0,0,0,-1,818,1821,0,0
-399,-797,0,0,0,0,0,0,0,0,0,-1,825,1821,0,0
-392,-797,0,0,0,0,0,0,0,0,0,-1,832,1821,0,0
-385,-797,0,0,0,0,0,0,0,0,0,-1,839,1821,0,0
-378,-797,0,0,0,0,0,0,0,0,0,-1,846,1821,0,0
-371,-797,0,0,0,0,0,0,0,0,0,-1,853,1821,0,0
-364,-797,0,0,0,0,0,0,0,0,0,-1,860,1821,0,0
-357,-797,0,0,0,0,0,0,0,0,0,-1,867,1821,0,0
-350,-797,0,0,0,0,0,0,0,0,0,-1,874,1821,0,0
-343,-797,0,0,0,0,0,0,0,0,0,-1,881,1821,0,0
-336,-797,0,0,0,0,0,0,0,0,0,-1,888,1821,0,0
-329,-797,0,0,0,0,0,0,0,0,0,-1,895,1821,0,0
-322,-797,0,0,0,0,0,0,0,0,0,-1,902,1821,0,0
-315,-797,0,0,0,0,0,0,0,0,0,-1,909,1821,0,0
-308,-797,0,0,0,0,0,0,0,0,0,-1,916,1821,0,0
-301,-797,0,0,0,0,0,0,0,0,0,-1,923,1821,0,0
-294,-797,0,0,0,0,0,0,0,0,0,-1,930,1821,0,0
-287,-797,0,0,0,0,0,0,0,0,0,-1,937,1821,0,0
-280,-797,0,0,0,0,0,0,0,0,0,-1,944,1821,0,0
-273,-797,0,0,0,0,0,0,0,0,0,-1,951,1821,0,0
-266,-797,0,0,0,0,0,0,0,0,0,-1,958,1821,0,0
-259,-797,0,0,0,0,0,0,0,0,0,-1,965,1821,0,0
-252,-797,0,0,0,0,0,0,0,0,0,-1,972,1821,0,0
-245,-797,0,0,0,0,0,0,0,0,0,-1,979,1821,0,0
-238,-797,0,0,0,0,0,0,0,0,0,-1,986,1821,0,0
-231,-797,0,0,0,0,0,0,0,0,0,-1,993,1821,0,0
-224,-797,0,0,0,0,0,0,0,0,0,-1,1000,1821,0,0
-217,-797,0,0,0,0,0,0,0,0,0,-1,1007,1821,0,0
-210,-797,0,0,0,0,0,0,0,0,0,-1,1014,1821,0,0
-203,-797,0,0,0,0,0,0,0,0,0,-1,1021,1821,0,0
-196,-797,0,0,0,0,0,0,0,0,0,-1,1028,1821,0,0
-189,-797,0,0,0,0,0,0,0,0,0,-1,1035,1821,0,0
-182,-797,0,0,0,0,0,0,0,0,0,-1,1042,1821,0,0
-175,-797,0,0,0,0,0,0,0,0,0,-1,1049,1821,0,0
-168,-797,0,0,0,0,0,0,0,0,0,-1,1056,1821,0,0
-161,-797,0,0,0,0,0,0,0,0,0,-1,1063,1821,0,0
-154,-797,0,0,0,0,0,0,0,0,0,-1,1070,1821,0,0
-147,-797,0,0,0,0,0,0,0,0,0,-1,1077,1821,0,0
-140,-797,0,0,0,0,0,0,0,0,0,-1,1084,1821,0,0
-133,-797,0,0,0,0,0,0,0,0,0,-1,1091,1821,0,0
-126,-797,0,0,0,0,0,0,0,0,0,-1,1098,1821,0,0
-119,-797,0,0,0,0,0,0,0,0,0,-1,1105,1821,0,0
-112,-797,0,0,0,0,0,0,0,0,0,-1,1112,1821,0,0
-105,-797,0,0,0,0,0,0,0,0,0,-1,1119,1821,0,0
-98,-797,0,0,0,0,0,0,0,0,0,-1,1126,1821,0,0
-91,-797,0,0,0,0,0,0,0,0,0,-1,1133,1821,0,0
-84,-797,0,0,0,0,0,0,0,0,0,-1,1140,1821,0,0
-77,-797,0,0,0,0,0,0,0,0,0,-1,1147,1821,0,0
-70,-797,0,0,0,0,0,0,0,0,0,-1,1154,1821,0,0
-63,-797,0,0,0,0,0,0,0,0,0,-1,1161,1821,0,0
-56,-797,0,0,0,0,0,0,0,0,0,-1,1168,1821,0,0
-49,-797,0,0,0,0,0,0,0,0,0,-1,1175,1821,0,0
-42,-797,0.579834,0.692871,0,0,0,0,0,0,0,-1,1182,1821,0.579856,-0.692816
-35,-797,-0.185425,5.55396,0,0,0,0,0,0,0,-1,1189,1821,-0.18542,-5.55396
-28,-797,-0.310181,4.71509,0,0,0,0,0,0,0,-1,1196,1821,-0.310228,-4.71503
-21,-797,0.491211,25.3563,0,0,0,0,0,0,0,-1,1203,1821,0.491263,-25.3564
-14,-797,1.72034,24.8768,0,0,0,0,0,0,0,-1,1210,1821,1.72035,-24.8769
-7,-797,3.43884,23.7806,0,0,0,0,0,0,0,-1,1217,1821,3.43885,-23.7806
0,-797,4.74329,23.2825,0,0,0,0,0,0,0,-1,1224,1821,4.74324,-23.2825
7,-797,5.14807,22.7098,0.117013,0.151346,0.00217154,0.151482,0.116876,1.50788,0.0916571,0.0494332,1231,1821,5.14808,-22.7098
14,-797,5.78381,22.4337,0.0714054,0.137044,0.00503423,0.137428,0.0710215,1.49469,0.0793591,0.0453334,1238,1821,5.78383,-22.4337
21,-797,6.2312,22.436,0,0,0,0,0,0,0,-1,1245,1821,6.23124,-22.4361
28,-797,6.10168,22.3082,0,0,0,0,0,0,0,-1,1252,1821,6.10169,-22.3082
35,-797,4.22522,23.8018,0,0,0,0,0,0,0,-1,1259,1821,4.22517,-23.8017
42,-797,21.3239,21.646,0,0,0,0,0,0,0,-1,1266,1821,21.3239,-21.646
49,-797,19.8536,22.3376,0,0,0,0,0,0,0,-1,1273,1821,19.8536,-22.3376
56,-797,18.2332,23.4159,0,0,0,0,0,0,0,-1,1280,1821,18.2331,-23.4159
63,-797,16.7542,24.3792,-0.184415,0.0458568,0.0238063,0.0482922,-0.186851,1.46885,0.143401,0.0411425,1287,1821,16.7542,-24.3792
70,-797,15.299,25.2019,-0.202644,0.0373155,0.0239137,0.0396755,-0.205004,1.47243,0.151634,0.0403523,1294,1821,15.299,-25.202
77,-797,13.3062,25.6193,-0.208895,0.034946,0.0216695,0.0368567,-0.210806,1.48285,0.154297,0.0433484,1301,1821,13.3062,-25.6193
84,-797,11.3716,26.1034,0,0,0,0,0,0,0,-1,1308,1821,11.3715,-26.1034
91,-797,10.5651,25.5656,-0.211702,0.0291948,0.0129854,0.0298927,-0.2124,1.5171,0.152543,0.0463301,1315,1821,10.565,-25.5655
98,-797,9.12109,25.7159,-0.209192,0.028287,0.00830672,0.0285772,-0.209483,1.53587,0.15009,0.0456928,1322,1821,9.1211,-25.7159
105,-797,7.5658,26.1255,0,0,0,0,0,0,0,-1,1329,1821,7.56578,-26.1255
112,-797,6.11865,27.0391,0,0,0,0,0,0,0,-1,1336,1821,6.11864,-27.0391
119,-797,4.79541,26.3235,0,0,0,0,0,0,0,-1,1343,1821,4.7954,-26.3235
126,-797,4.17883,26.8112,-0.187949,0.0211906,-0.0101907,0.021686,-0.188444,-1.52222,0.133447,0.0453449,1350,1821,4.17887,-26.8112
133,-797,3.23682,27.0447,-0.18031,0.0184519,-0.0135892,0.0193767,-0.181235,-1.50285,0.127773,0.0490799,1357,1821,3.23681,-27.0446
140,-797,2.11511,27.3126,-0.171929,0.0151907,-0.0153233,0.0164373,-0.173176,-1.48963,0.121302,0.0462665,1364,1821,2.11514,-27.3127
147,-797,0.964355,27.6454,0,0,0,0,0,0,0,-1,1371,1821,0.964311,-27.6454
154,-797,27.7911,9.55957,0,0,0,0,0,0,0,-1,1378,1821,27.7912,-9.55956
161,-797,31.4421,8.56628,0,0,0,0,0,0,0,-1,1385,1821,31.4422,-8.56626
168,-797,0,0,0,0,0,0,0,0,0,-1,1392,1821,0,0
175,-797,0,0,0,0,0,0,0,0,0,-1,1399,1821,0,0
182,-797,0,0,0,0,0,0,0,0,0,-1,1406,1821,0,0
189,-797,0,0,0,0,0,0,0,0,0,-1,1413,1821,0,0
196,-797,0,0,0,0,0,0,0,0,0,-1,1420,1821,0,0
203,-797,0,0,0,0,0,0,0,0,0,-1,1427,1821,0,0
210,-797,0,0,0,0,0,0,0,0,0,-1,1434,1821,0,0
217,-797,0,0,0,0,0,0,0,0,0,-1,1441,1821,0,0
224,-797,0,0,0,0,0,0,0,0,0,-1,1448,1821,0,0
231,-797,0,0,0,0,0,0,0,0,0,-1,1455,1821,0,0
238,-797,0,0,0,0,0,0,0,0,0,-1,1462,1821,0,0
245,-797,0,0,0,0,0,0,0,0,0,-1,1469,1821,0,0
252,-797,0,0,0,0,0,0,0,0,0,-1,1476,1821,0,0
259,-797,0,0,0,0,0,0,0,0,0,-1,1483,1821,0,0
266,-797,0,0,0,0,0,0,0,0,0,-1,1490,1821,0,0
273,-797,0,0,0,0,0,0,0,0,0,-1,1497,1821,0,0
280,-797,0,0,0,0,0,0,0,0,0,-1,1504,1821,0,0
287,-797,0,0,0,0,0,0,0,0,0,-1,1511,1821,0,0
294,-797,0,0,0,0,0,0,0,0,0,-1,1518,1821,0,0
301,-797,0,0,0,0,0,0,0,0,0,-1,1525,1821,0,0
308,-797,0,0,0,0,0,0,0,0,0,-1,1532,1821,0,0
315,-797,0,0,0,0,0,0,0,0,0,-1,1539,1821,0,0
322,-797,0,0,0,0,0,0,0,0,0,-1,1546,1821,0,0
329,-797,0,0,0,0,0,0,0,0,0,-1,1553,1821,0,0
336,-797,0,0,0,0,0,0,0,0,0,-1,1560,1821,0,0
343,-797,0,0,0,0,0,0,0,0,0,-1,1567,1821,0,0
350,-797,0,0,0,0,0,0,0,0,0,-1,1574,1821,0,0
357,-797,0,0,0,0,0,0,0,0,0,-1,1581,1821,0,0
364,-797,0,0,0,0,0,0,0,0,0,-1,1588,1821,0,0
371,-797,0,0,0,0,0,0,0,0,0,-1,1595,1821,0,0
378,-797,0,0,0,0,0,0,0,0,0,-1,1602,1821,0,0
385,-797,0,0,0,0,0,0,0,0,0,-1,1609,1821,0,0
392,-797,0,0,0,0,0,0,0,0,0,-1,1616,1821,0,0
399,-797,0,0,0,0,0,0,0,0,0,-1,1623,1821,0,0
406,-797,0,0,0,0,0,0,0,0,0,-1,1630,1821,0,0
413,-797,0,0,0,0,0,0,0,0,0,-1,1637,1821,0,0
420,-797,0,0,0,0,0,0,0,0,0,-1,1644,1821,0,0
427,-797,0,0,0,0,0,0,0,0,0,-1,1651,1821,0,0
434,-797,0,0,0,0,0,0,0,0,0,-1,1658,1821,0,0
441,-797,0,0,0,0,0,0,0,0,0,-1,1665,1821,0,0
448,-797,0,0,0,0,0,0,0,0,0,-1,1672,1821,0,0
455,-797,0,0,0,0,0,0,0,0,0,-1,1679,1821,0,0
462,-797,0,0,0,0,0,0,0,0,0,-1,1686,1821,0,0
469,-797,0,0,0,0,0,0,0,0,0,-1,1693,1821,0,0
476,-797,0,0,0,0,0,0,0,0,0,-1,1700,1821,0,0
483,-797,0,0,0,0,0,0,0,0,0,-1,1707,1821,0,0
490,-797,0,0,0,0,0,0,0,0,0,-1,1714,1821,0,0
497,-797,0,0,0,0,0,0,0,0,0,-1,1721,1821,0,0
504,-797,0,0,0,0,0,0,0,0,0,-1,1728,1821,0,0
511,-797,0,0,0,0,0,0,0,0,0,-1,1735,1821,0,0
518,-797,0,0,0,0,0,0,0,0,0,-1,1742,1821,0,0
525,-797,0,0,0,0,0,0,0,0,0,-1,1749,1821,0,0
532,-797,0,0,0,0,0,0,0,0,0,-1,1756,1821,0,0
539,-797,0,0,0,0,0,0,0,0,0,-1,1763,1821,0,0
546,-797,0,0,0,0,0,0,0,0,0,-1,1770,1821,0,0
553,-797,0,0,0,0,0,0,0,0,0,-1,1777,1821,0,0
560,-797,0,0,0,0,0,0,0,0,0,-1,1784,1821,0,0
567,-797,0,0,0,0,0,0,0,0,0,-1,1791,1821,0,0
574,-797,0,0,0,0,0,0,0,0,0,-1,1798,1821,0,0
581,-797,0,0,0,0,0,0,0,0,0,-1,1805,1821,0,0
588,-797,0,0,0,0,0,0,0,0,0,-1,1812,1821,0,0
595,-797,0,0,0,0,0,0,0,0,0,-1,1819,1821,0,0
602,-797,0,0,0,0,0,0,0,0,0,-1,1826,1821,0,0
609,-797,0,0,0,0,0,0,0,0,0,-1,1833,1821,0,0
616,-797,0,0,0,0,0,0,0,0,0,-1,1840,1821,0,0
623,-797,0,0,0,0,0,0,0,0,0,-1,1847,1821,0,0
630,-797,0,0,0,0,0,0,0,0,0,-1,1854,1821,0,0
637,-797,0,0,0,0,0,0,0,0,0,-1,1861,1821,0,0
644,-797,0,0,0,0,0,0,0,0,0,-1,1868,1821,0,0
651,-797,0,0,0,0,0,0,0,0,0,-1,1875,1821,0,0
658,-797,0,0,0,0,0,0,0,0,0,-1,1882,1821,0,0
665,-797,0,0,0,0,0,0,0,0,0,-1,1889,1821,0,0
672,-797,0,0,0,0,0,0,0,0,0,-1,1896,1821,0,0
679,-797,0,0,0,0,0,0,0,0,0,-1,1903,1821,0,0
686,-797,0,0,0,0,0,0,0,0,0,-1,1910,1821,0,0
693,-797,0,0,0,0,0,0,0,0,0,-1,1917,1821,0,0
700,-797,0,0,0,0,0,0,0,0,0,-1,1924,1821,0,0
707,-797,0,0,0,0,0,0,0,0,0,-1,1931,1821,0,0
714,-797,0,0,0,0,0,0,0,0,0,-1,1938,1821,0,0
721,-797,0,0,0,0,0,0,0,0,0,-1,1945,1821,0,0
728,-797,0,0,0,0,0,0,0,0,0,-1,1952,1821,0,0
735,-797,0,0,0,0,0,0,0,0,0,-1,1959,1821,0,0
742,-797,0,0,0,0,0,0,0,0,0,-1,1966,1821,0,0
749,-797,0,0,0,0,0,0,0,0,0,-1,1973,1821,0,0
756,-797,0,0,0,0,0,0,0,0,0,-1,1980,1821,0,0
763,-797,0,0,0,0,0,0,0,0,0,-1,1987,1821,0,0
770,-797,0,0,0,0,0,0,0,0,0,-1,1994,1821,0,0
777,-797,0,0,0,0,0,0,0,0,0,-1,2001,1821,0,0
784,-797,0,0,0,0,0,0,0,0,0,-1,2008,1821,0,0
791,-797,0,0,0,0,0,0,0,0,0,-1,2015,1821,0,0
798,-797,0,0,0,0,0,0,0,0,0,-1,2022,1821,0,0
805,-797,0,0,0,0,0,0,0,0,0,-1,2029,1821,0,0
812,-797,0,0,0,0,0,0,0,0,0,-1,2036,1821,0,0
-700,-804,0,0,0,0,0,0,0,0,0,-1,524,1828,0,0
-693,-804,0,0,0,0,0,0,0,0,0,-1,531,1828,0,0
-686,-804,0,0,0,0,0,0,0,0,0,-1,538,1828,0,0
-679,-804,0,0,0,0,0,0,0,0,0,-1,545,1828,0,0
-672,-804,0,0,0,0,0,0,0,0,0,-1,552,1828,0,0
-665,-804,0,0,0,0,0,0,0,0,0,-1,559,1828,0,0
-658,-804,0,0,0,0,0,0,0,0,0,-1,566,1828,0,0
-651,-804,0,0,0,0,0,0,0,0,0,-1,573,1828,0,0
-644,-804,0,0,0,0,0,0,0,0,0,-1,580,1828,0,0
-637,-804,0,0,0,0,0,0,0,0,0,-1,587,1828,0,0
-630,-804,0,0,0,0,0,0,0,0,0,-1,594,1828,0,0
-623,-804,0,0,0,0,0,0,0,0,0,-1,601,1828,0,0
-616,-804,0,0,0,0,0,0,0,0,0,-1,608,1828,0,0
-609,-804,0,0,0,0,0,0,0,0,0,-1,615,1828,0,0
-602,-804,0,0,0,0,0,0,0,0,0,-1,622,1828,0,0
-595,-804,0,0,0,0,0,0,0,0,0,-1,629,1828,0,0
-588,-804,0,0,0,0,0,0,0,0,0,-1,636,1828,0,0
-581,-804,0,0,0,0,0,0,0,0,0,-1,643,1828,0,0
-574,-804,0,0,0,0,0,0,0,0,0,-1,650,1828,0,0
-567,-804,0,0,0,0,0,0,0,0,0,-1,657,1828,0,0
-560,-804,0,0,0,0,0,0,0,0,0,-1,664,1828,0,0
-553,-804,0,0,0,0,0,0,0,0,0,-1,671,1828,0,0
-546,-804,0,0,0,0,0,0,0,0,0,-1,678,1828,0,0
-539,-804,0,0,0,0,0,0,0,0,0,-1,685,1828,0,0
-532,-804,0,0,0,0,0,0,0,0,0,-1,692,1828,0,0
-525,-804,0,0,0,0,0,0,0,0,0,-1,699,1828,0,0
-518,-804,0,0,0,0,0,0,0,0,0,-1,706,1828,0,0
-511,-804,0,0,0,0,0,0,0,0,0,-1,713,1828,0,0
-504,-804,0,0,0,0,0,0,0,0,0,-1,720,1828,0,0
-497,-804,0,0,0,0,0,0,0,0,0,-1,727,1828,0,0
-490,-804,0,0,0,0,0,0,0,0,0,-1,734,1828,0,0
-483,-804,0,0,0,0,0,0,0,0,0,-1,741,1828,0,0
-476,-804,0,0,0,0,0,0,0,0,0,-1,748,1828,0,0
-469,-804,0,0,0,0,0,0,0,0,0,-1,755,1828,0,0
-462,-804,0,0,0,0,0,0,0,0,0,-1,762,1828,0,0
-455,-804,0,0,0,0,0,0,0,0,0,-1,769,1828,0,0
-448,-804,0,0,0,0,0,0,0,0,0,-1,776,1828,0,0
-441,-804,0,0,0,0,0,0,0,0,0,-1,783,1828,0,0
-434,-804,0,0,0,0,0,0,0,0,0,-1,790,1828,0,0
-427,-804,0,0,0,0,0,0,0,0,0,-1,797,1828,0,0
-420,-804,0,0,0,0,0,0,0,0,0,-1,804,1828,0,0
-413,-804,0,0,0,0,0,0,0,0,0,-1,811,1828,0,0
-406,-804,0,0,0,0,0,0,0,0,0,-1,818,1828,0,0
-399,-804,0,0,0,0,0,0,0,0,0,-1,825,1828,0,0
-392,-804,0,0,0,0,0,0,0,0,0,-1,832,1828,0,0
-385,-804,0,0,0,0,0,0,0,0,0,-1,839,1828,0,0
-378,-804,0,0,0,0,0,0,0,0,0,-1,846,1828,0,0
-371,-804,0,0,0,0,0,0,0,0,0,-1,853,1828,0,0
-364,-804,0,0,0,0,0,0,0,0,0,-1,860,1828,0,0
-357,-804,0,0,0,0,0,0,0,0,0,-1,867,1828,0,0
-350,-804,0,0,0,0,0,0,0,0,0,-1,874,1828,0,0
-343,-804,0,0,0,0,0,0,0,0,0,-1,881,1828,0,0
-336,-804,0,0,0,0,0,0,0,0,0,-1,888,1828,0,0
-329,-804,0,0,0,0,0,0,0,0,0,-1,895,1828,0,0
-322,-804,0,0,0,0,0,0,0,0,0,-1,902,1828,0,0
-315,-804,0,0,0,0,0,0,0,0,0,-1,909,1828,0,0
-308,-804,0,0,0,0,0,0,0,0,0,-1,916,1828,0,0
-301,-804,0,0,0,0,0,0,0,0,0,-1,923,1828,0,0
-294,-804,0,0,0,0,0,0,0,0,0,-1,930,1828,0,0
-287,-804,0,0,0,0,0,0,0,0,0,-1,937,1828,0,0
-280,-804,0,0,0,0,0,0,0,0,0,-1,944,1828,0,0
-273,-804,0,0,0,0,0,0,0,0,0,-1,951,1828,0,0
-266,-804,0,0,0,0,0,0,0,0,0,-1,958,1828,0,0
-259,-804,0,0,0,0,0,0,0,0,0,-1,965,1828,0,0
-252,-804,0,0,0,0,0,0,0,0,0,-1,972,1828,0,0
-245,-804,0,0,0,0,0,0,0,0,0,-1,979,1828,0,0
-238,-804,0,0,0,0,0,0,0,0,0,-1,986,1828,0,0
-231,-804,0,0,0,0,0,0,0,0,0,-1,993,1828,0,0
-224,-804,0,0,0,0,0,0,0,0,0,-1,1000,1828,0,0
-217,-804,0,0,0,0,0,0,0,0,0,-1,1007,1828,0,0
-210,-804,0,0,0,0,0,0,0,0,0,-1,1014,1828,0,0
-203,-804,0,0,0,0,0,0,0,0,0,-1,1021,1828,0,0
-196,-804,0,0,0,0,0,0,0,0,0,-1,1028,1828,0,0
-189,-804,0,0,0,0,0,0,0,0,0,-1,1035,1828,0,0
-182,-804,0,0,0,0,0,0,0,0,0,-1,1042,1828,0,0
-175,-804,0,0,0,0,0,0,0,0,0,-1,1049,1828,0,0
-168,-804,0,0,0,0,0,0,0,0,0,-1,1056,1828,0,0
-161,-804,0,0,0,0,0,0,0,0,0,-1,1063,1828,0,0
-154,-804,0,0,0,0,0,0,0,0,0,-1,1070,1828,0,0
-147,-804,0,0,0,0,0,0,0,0,0,-1,1077,1828,0,0
-140,-804,0,0,0,0,0,0,0,0,0,-1,1084,1828,0,0
-133,-804,0,0,0,0,0,0,0,0,0,-1,1091,1828,0,0
-126,-804,0,0,0,0,0,0,0,0,0,-1,1098,1828,0,0
-119,-804,0,0,0,0,0,0,0,0,0,-1,1105,1828,0,0
-112,-804,0,0,0,0,0,0,0,0,0,-1,1112,1828,0,0
-105,-804,0,0,0,0,0,0,0,0,0,-1,1119,1828,0,0
-98,-804,0,0,0,0,0,0,0,0,0,-1,1126,1828,0,0
-91,-804,0,0,0,0,0,0,0,0,0,-1,1133,1828,0,0
-84,-804,0,0,0,0,0,0,0,0,0,-1,1140,1828,0,0
-77,-804,0,0,0,0,0,0,0,0,0,-1,1147,1828,0,0
-70,-804,0,0,0,0,0,0,0,0,0,-1,1154,1828,0,0
-63,-804,0,0,0,0,0,0,0,0,0,-1,1161,1828,0,0
-56,-804,0,0,0,0,0,0,0,0,0,-1,1168,1828,0,0
-49,-804,0,0,0,0,0,0,0,0,0,-1,1175,1828,0,0
-42,-804,0,0,0,0,0,0,0,0,0,-1,1182,1828,0,0
-35,-804,0,0,0,0,0,0,0,0,0,-1,1189,1828,0,0
-28,-804,0,0,0,0,0,0,0,0,0,-1,1196,1828,0,0
-21,-804,0,0,0,0,0,0,0,0,0,-1,1203,1828,0,0
-14,-804,0,0,0,0,0,0,0,0,0,-1,1210,1828,0,0
-7,-804,0,0,0,0,0,0,0,0,0,-1,1217,1828,0,0
0,-804,0,0,0,0,0,0,0,0,0,-1,1224,1828,0,0
7,-804,0,0,0,0,0,0,0,0,0,-1,1231,1828,0,0
14,-804,0,0,0,0,0,0,0,0,0,-1,1238,1828,0,0
21,-804,0,0,0,0,0,0,0,0,0,-1,1245,1828,0,0
28,-804,0,0,0,0,0,0,0,0,0,-1,1252,1828,0,0
35,-804,9.43945,26.104,0,0,0,0,0,0,0,-1,1259,1828,9.43951,-26.104
42,-804,21.8406,21.04,0,0,0,0,0,0,0,-1,1266,1828,21.8406,-21.0401
49,-804,20.3309,21.8077,0,0,0,0,0,0,0,-1,1273,1828,20.3309,-21.8078
56,-804,19.0009,24.1234,0,0,0,0,0,0,0,-1,1280,1828,19.0009,-24.1234
63,-804,17.1516,24.5757,-0.22432,0.0496742,0.0295746,0.0528301,-0.227476,1.46449,0.171987,0.0486268,1287,1828,17.1517,-24.5757
70,-804,15.3087,25,-0.245762,0.039426,0.0304534,0.0426417,-0.248977,1.46559,0.181873,0.0469638,1294,1828,15.3087,-24.9999
77,-804,13.3203,25.4508,-0.251527,0.0374859,0.027646,0.0401067,-0.254148,1.47628,0.184262,0.0470127,1301,1828,13.3204,-25.4509
84,-804,11.3114,25.908,0,0,0,0,0,0,0,-1,1308,1828,11.3114,-25.9079
91,-804,0,0,0,0,0,0,0,0,0,-1,1315,1828,0,0
98,-804,0,0,0,0,0,0,0,0,0,-1,1322,1828,0,0
105,-804,0,0,0,0,0,0,0,0,0,-1,1329,1828,0,0
112,-804,0,0,0,0,0,0,0,0,0,-1,1336,1828,0,0
119,-804,0,0,0,0,0,0,0,0,0,-1,1343,1828,0,0
126,-804,0,0,0,0,0,0,0,0,0,-1,1350,1828,0,0
133,-804,0,0,0,0,0,0,0,0,0,-1,1357,1828,0,0
140,-804,0,0,0,0,0,0,0,0,0,-1,1364,1828,0,0
147,-804,0,0,0,0,0,0,0,0,0,-1,1371,1828,0,0
154,-804,0,0,0,0,0,0,0,0,0,-1,1378,1828,0,0
161,-804,0,0,0,0,0,0,0,0,0,-1,1385,1828,0,0
168,-804,0,0,0,0,0,0,0,0,0,-1,1392,1828,0,0
175,-804,0,0,0,0,0,0,0,0,0,-1,1399,1828,0,0
182,-804,0,0,0,0,0,0,0,0,0,-1,1406,1828,0,0
189,-804,0,0,0,0,0,0,0,0,0,-1,1413,1828,0,0
196,-804,0,0,0,0,0,0,0,0,0,-1,1420,1828,0,0
203,-804,0,0,0,0,0,0,0,0,0,-1,1427,1828,0,0
210,-804,0,0,0,0,0,0,0,0,0,-1,1434,1828,0,0
217,-804,0,0,0,0,0,0,0,0,0,-1,1441,1828,0,0
224,-804,0,0,0,0,0,0,0,0,0,-1,1448,1828,0,0
231,-804,0,0,0,0,0,0,0,0,0,-1,1455,1828,0,0
238,-804,0,0,0,0,0,0,0,0,0,-1,1462,1828,0,0
245,-804,0,0,0,0,0,0,0,0,0,-1,1469,1828,0,0
252,-804,0,0,0,0,0,0,0,0,0,-1,1476,1828,0,0
259,-804,0,0,0,0,0,0,0,0,0,-1,1483,1828,0,0
266,-804,0,0,0,0,0,0,0,0,0,-1,1490,1828,0,0
273,-804,0,0,0,0,0,0,0,0,0,-1,1497,1828,0,0
280,-804,0,0,0,0,0,0,0,0,0,-1,1504,1828,0,0
287,-804,0,0,0,0,0,0,0,0,0,-1,1511,1828,0,0
294,-804,0,0,0,0,0,0,0,0,0,-1,1518,1828,0,0
301,-804,0,0,0,0,0,0,0,0,0,-1,1525,1828,0,0
308,-804,0,0,0,0,0,0,0,0,0,-1,1532,1828,0,0
315,-804,0,0,0,0,0,0,0,0,0,-1,1539,1828,0,0
322,-804,0,0,0,0,0,0,0,0,0,-1,1546,1828,0,0
329,-804,0,0,0,0,0,0,0,0,0,-1,1553,1828,0,0
336,-804,0,0,0,0,0,0,0,0,0,-1,1560,1828,0,0
343,-804,0,0,0,0,0,0,0,0,0,-1,1567,1828,0,0
350,-804,0,0,0,0,0,0,0,0,0,-1,1574,1828,0,0
357,-804,0,0,0,0,0,0,0,0,0,-1,1581,1828,0,0
364,-804,0,0,0,0,0,0,0,0,0,-1,1588,1828,0,0
371,-804,0,0,0,0,0,0,0,0,0,-1,1595,1828,0,0
378,-804,0,0,0,0,0,0,0,0,0,-1,1602,1828,0,0
385,-804,0,0,0,0,0,0,0,0,0,-1,1609,1828,0,0
392,-804,0,0,0,0,0,0,0,0,0,-1,1616,1828,0,0
399,-804,0,0,0,0,0,0,0,0,0,-1,1623,1828,0,0
406,-804,0,0,0,0,0,0,0,0,0,-1,1630,1828,0,0
413,-804,0,0,0,0,0,0,0,0,0,-1,1637,1828,0,0
420,-804,0,0,0,0,0,0,0,0,0,-1,1644,1828,0,0
427,-804,0,0,0,0,0,0,0,0,0,-1,1651,1828,0,0
434,-804,0,0,0,0,0,0,0,0,0,-1,1658,1828,0,0
441,-804,0,0,0,0,0,0,0,0,0,-1,1665,1828,0,0
448,-804,0,0,0,0,0,0,0,0,0,-1,1672,1828,0,0
455,-804,0,0,0,0,0,0,0,0,0,-1,1679,1828,0,0
462,-804,0,0,0,0,0,0,0,0,0,-1,1686,1828,0,0
469,-804,0,0,0,0,0,0,0,0,0,-1,1693,1828,0,0
476,-804,0,0,0,0,0,0,0,0,0,-1,1700,1828,0,0
483,-804,0,0,0,0,0,0,0,0,0,-1,1707,1828,0,0
490,-804,0,0,0,0,0,0,0,0,0,-1,1714,1828,0,0
497,-804,0,0,0,0,0,0,0,0,0,-1,1721,1828,0,0
504,-804,0,0,0,0,0,0,0,0,0,-1,1728,1828,0,0
511,-804,0,0,0,0,0,0,0,0,0,-1,1735,1828,0,0
518,-804,0,0,0,0,0,0,0,0,0,-1,1742,1828,0,0
525,-804,0,0,0,0,0,0,0,0,0,-1,1749,1828,0,0
532,-804,0,0,0,0,0,0,0,0,0,-1,1756,1828,0,0
539,-804,0,0,0,0,0,0,0,0,0,-1,1763,1828,0,0
546,-804,0,0,0,0,0,0,0,0,0,-1,1770,1828,0,0
553,-804,0,0,0,0,0,0,0,0,0,-1,1777,1828,0,0
560,-804,0,0,0,0,0,0,0,0,0,-1,1784,1828,0,0
567,-804,0,0,0,0,0,0,0,0,0,-1,1791,1828,0,0
574,-804,0,0,0,0,0,0,0,0,0,-1,1798,1828,0,0
581,-804,0,0,0,0,0,0,0,0,0,-1,1805,1828,0,0
588,-804,0,0,0,0,0,0,0,0,0,-1,1812,1828,0,0
595,-804,0,0,0,0,0,0,0,0,0,-1,1819,1828,0,0
602,-804,0,0,0,0,0,0,0,0,0,-1,1826,1828,0,0
609,-804,0,0,0,0,0,0,0,0,0,-1,1833,1828,0,0
616,-804,0,0,0,0,0,0,0,0,0,-1,1840,1828,0,0
623,-804,0,0,0,0,0,0,0,0,0,-1,1847,1828,0,0
630,-804,0,0,0,0,0,0,0,0,0,-1,1854,1828,0,0
637,-804,0,0,0,0,0,0,0,0,0,-1,1861,1828,0,0
644,-804,0,0,0,0,0,0,0,0,0,-1,1868,1828,0,0
651,-804,0,0,0,0,0,0,0,0,0,-1,1875,1828,0,0
658,-804,0,0,0,0,0,0,0,0,0,-1,1882,1828,0,0
665,-804,0,0,0,0,0,0,0,0,0,-1,1889,1828,0,0
672,-804,0,0,0,0,0,0,0,0,0,-1,1896,1828,0,0
679,-804,0,0,0,0,0,0,0,0,0,-1,1903,1828,0,0
686,-804,0,0,0,0,0,0,0,0,0,-1,1910,1828,0,0
693,-804,0,0,0,0,0,0,0,0,0,-1,1917,1828,0,0
700,-804,0,0,0,0,0,0,0,0,0,-1,1924,1828,0,0
707,-804,0,0,0,0,0,0,0,0,0,-1,1931,1828,0,0
714,-804,0,0,0,0,0,0,0,0,0,-1,1938,1828,0,0
721,-804,0,0,0,0,0,0,0,0,0,-1,1945,1828,0,0
728,-804,0,0,0,0,0,0,0,0,0,-1,1952,1828,0,0
735,-804,0,0,0,0,0,0,0,0,0,-1,1959,1828,0,0
742,-804,0,0,0,0,0,0,0,0,0,-1,1966,1828,0,0
749,-804,0,0,0,0,0,0,0,0,0,-1,1973,1828,0,0
756,-804,0,0,0,0,0,0,0,0,0,-1,1980,1828,0,0
763,-804,0,0,0,0,0,0,0,0,0,-1,1987,1828,0,0
770,-804,0,0,0,0,0,0,0,0,0,-1,1994,1828,0,0
777,-804,0,0,0,0,0,0,0,0,0,-1,2001,1828,0,0
784,-804,0,0,0,0,0,0,0,0,0,-1,2008,1828,0,0
791,-804,0,0,0,0,0,0,0,0,0,-1,2015,1828,0,0
798,-804,0,0,0,0,0,0,0,0,0,-1,2022,1828,0,0
805,-804,0,0,0,0,0,0,0,0,0,-1,2029,1828,0,0
812,-804,0,0,0,0,0,0,0,0,0,-1,2036,1828,0,0

