 "x_c",  "y_c",  "u_c",  "v_c",  "exx",  "eyy",  "exy",  "e1",  "e2",  "gamma",  "e_vonmises",  "sigma",  "x",  "y",  "u",  "v"
-700,715,0,0,0,0,0,0,0,0,0,-1,524,309,0,0
-693,715,0,0,0,0,0,0,0,0,0,-1,531,309,0,0
-686,715,0,0,0,0,0,0,0,0,0,-1,538,309,0,0
-679,715,0,0,0,0,0,0,0,0,0,-1,545,309,0,0
-672,715,0,0,0,0,0,0,0,0,0,-1,552,309,0,0
-665,715,0,0,0,0,0,0,0,0,0,-1,559,309,0,0
-658,715,0,0,0,0,0,0,0,0,0,-1,566,309,0,0
-651,715,0,0,0,0,0,0,0,0,0,-1,573,309,0,0
-644,715,0,0,0,0,0,0,0,0,0,-1,580,309,0,0
-637,715,0,0,0,0,0,0,0,0,0,-1,587,309,0,0
-630,715,0,0,0,0,0,0,0,0,0,-1,594,309,0,0
-623,715,0,0,0,0,0,0,0,0,0,-1,601,309,0,0
-616,715,0,0,0,0,0,0,0,0,0,-1,608,309,0,0
-609,715,0,0,0,0,0,0,0,0,0,-1,615,309,0,0
-602,715,0,0,0,0,0,0,0,0,0,-1,622,309,0,0
-595,715,0,0,0,0,0,0,0,0,0,-1,629,309,0,0
-588,715,0,0,0,0,0,0,0,0,0,-1,636,309,0,0
-581,715,0,0,0,0,0,0,0,0,0,-1,643,309,0,0
-574,715,0,0,0,0,0,0,0,0,0,-1,650,309,0,0
-567,715,0,0,0,0,0,0,0,0,0,-1,657,309,0,0
-560,715,0,0,0,0,0,0,0,0,0,-1,664,309,0,0
-553,715,0,0,0,0,0,0,0,0,0,-1,671,309,0,0
-546,715,0,0,0,0,0,0,0,0,0,-1,678,309,0,0
-539,715,0,0,0,0,0,0,0,0,0,-1,685,309,0,0
-532,715,0,0,0,0,0,0,0,0,0,-1,692,309,0,0
-525,715,0,0,0,0,0,0,0,0,0,-1,699,309,0,0
-518,715,0,0,0,0,0,0,0,0,0,-1,706,309,0,0
-511,715,0,0,0,0,0,0,0,0,0,-1,713,309,0,0
-504,715,0,0,0,0,0,0,0,0,0,-1,720,309,0,0
-497,715,0,0,0,0,0,0,0,0,0,-1,727,309,0,0
-490,715,0,0,0,0,0,0,0,0,0,-1,734,309,0,0
-483,715,0,0,0,0,0,0,0,0,0,-1,741,309,0,0
-476,715,0,0,0,0,0,0,0,0,0,-1,748,309,0,0
-469,715,0,0,0,0,0,0,0,0,0,-1,755,309,0,0
-462,715,0,0,0,0,0,0,0,0,0,-1,762,309,0,0
-455,715,0,0,0,0,0,0,0,0,0,-1,769,309,0,0
-448,715,0,0,0,0,0,0,0,0,0,-1,776,309,0,0
-441,715,0,0,0,0,0,0,0,0,0,-1,783,309,0,0
-434,715,0,0,0,0,0,0,0,0,0,-1,790,309,0,0
-427,715,0,0,0,0,0,0,0,0,0,-1,797,309,0,0
-420,715,0,0,0,0,0,0,0,0,0,-1,804,309,0,0
-413,715,0,0,0,0,0,0,0,0,0,-1,811,309,0,0
-406,715,0,0,0,0,0,0,0,0,0,-1,818,309,0,0
-399,715,0,0,0,0,0,0,0,0,0,-1,825,309,0,0
-392,715,0,0,0,0,0,0,0,0,0,-1,832,309,0,0
-385,715,0,0,0,0,0,0,0,0,0,-1,839,309,0,0
-378,715,0,0,0,0,0,0,0,0,0,-1,846,309,0,0
-371,715,0,0,0,0,0,0,0,0,0,-1,853,309,0,0
-364,715,0,0,0,0,0,0,0,0,0,-1,860,309,0,0
-357,715,0,0,0,0,0,0,0,0,0,-1,867,309,0,0
-350,715,0,0,0,0,0,0,0,0,0,-1,874,309,0,0
-343,715,0,0,0,0,0,0,0,0,0,-1,881,309,0,0
-336,715,0,0,0,0,0,0,0,0,0,-1,888,309,0,0
-329,715,0,0,0,0,0,0,0,0,0,-1,895,309,0,0
-322,715,0,0,0,0,0,0,0,0,0,-1,902,309,0,0
-315,715,0,0,0,0,0,0,0,0,0,-1,909,309,0,0
-308,715,0,0,0,0,0,0,0,0,0,-1,916,309,0,0
-301,715,0,0,0,0,0,0,0,0,0,-1,923,309,0,0
-294,715,0,0,0,0,0,0,0,0,0,-1,930,309,0,0
-287,715,0,0,0,0,0,0,0,0,0,-1,937,309,0,0
-280,715,0,0,0,0,0,0,0,0,0,-1,944,309,0,0
-273,715,0,0,0,0,0,0,0,0,0,-1,951,309,0,0
-266,715,0,0,0,0,0,0,0,0,0,-1,958,309,0,0
-259,715,0,0,0,0,0,0,0,0,0,-1,965,309,0,0
-252,715,0,0,0,0,0,0,0,0,0,-1,972,309,0,0
-245,715,0,0,0,0,0,0,0,0,0,-1,979,309,0,0
-238,715,0,0,0,0,0,0,0,0,0,-1,986,309,0,0
-231,715,0,0,0,0,0,0,0,0,0,-1,993,309,0,0
-224,715,0,0,0,0,0,0,0,0,0,-1,1000,309,0,0
-217,715,0,0,0,0,0,0,0,0,0,-1,1007,309,0,0
-210,715,0,0,0,0,0,0,0,0,0,-1,1014,309,0,0
-203,715,0,0,0,0,0,0,0,0,0,-1,1021,309,0,0
-196,715,0,0,0,0,0,0,0,0,0,-1,1028,309,0,0
-189,715,0,0,0,0,0,0,0,0,0,-1,1035,309,0,0
-182,715,0,0,0,0,0,0,0,0,0,-1,1042,309,0,0
-175,715,0,0,0,0,0,0,0,0,0,-1,1049,309,0,0
-168,715,0,0,0,0,0,0,0,0,0,-1,1056,309,0,0
-161,715,0,0,0,0,0,0,0,0,0,-1,1063,309,0,0
-154,715,0,0,0,0,0,0,0,0,0,-1,1070,309,0,0
-147,715,0,0,0,0,0,0,0,0,0,-1,1077,309,0,0
-140,715,0,0,0,0,0,0,0,0,0,-1,1084,309,0,0
-133,715,0,0,0,0,0,0,0,0,0,-1,1091,309,0,0
-126,715,0,0,0,0,0,0,0,0,0,-1,1098,309,0,0
-119,715,0,0,0,0,0,0,0,0,0,-1,1105,309,0,0
-112,715,0,0,0,0,0,0,0,0,0,-1,1112,309,0,0
-105,715,0,0,0,0,0,0,0,0,0,-1,1119,309,0,0
-98,715,0,0,0,0,0,0,0,0,0,-1,1126,309,0,0
-91,715,0,0,0,0,0,0,0,0,0,-1,1133,309,0,0
-84,715,0,0,0,0,0,0,0,0,0,-1,1140,309,0,0
-77,715,0,0,0,0,0,0,0,0,0,-1,1147,309,0,0
-70,715,0,0,0,0,0,0,0,0,0,-1,1154,309,0,0
-63,715,0,0,0,0,0,0,0,0,0,-1,1161,309,0,0
-56,715,0,0,0,0,0,0,0,0,0,-1,1168,309,0,0
-49,715,0,0,0,0,0,0,0,0,0,-1,1175,309,0,0
-42,715,0,0,0,0,0,0,0,0,0,-1,1182,309,0,0
-35,715,0,0,0,0,0,0,0,0,0,-1,1189,309,0,0
-28,715,0,0,0,0,0,0,0,0,0,-1,1196,309,0,0
-21,715,0,0,0,0,0,0,0,0,0,-1,1203,309,0,0
-14,715,0,0,0,0,0,0,0,0,0,-1,1210,309,0,0
-7,715,0,0,0,0,0,0,0,0,0,-1,1217,309,0,0
0,715,0,0,0,0,0,0,0,0,0,-1,1224,309,0,0
7,715,0,0,0,0,0,0,0,0,0,-1,1231,309,0,0
14,715,0,0,0,0,0,0,0,0,0,-1,1238,309,0,0
21,715,0,0,0,0,0,0,0,0,0,-1,1245,309,0,0
28,715,0,0,0,0,0,0,0,0,0,-1,1252,309,0,0
35,715,0,0,0,0,0,0,0,0,0,-1,1259,309,0,0
42,715,0,0,0,0,0,0,0,0,0,-1,1266,309,0,0
49,715,0,0,0,0,0,0,0,0,0,-1,1273,309,0,0
56,715,0,0,0,0,0,0,0,0,0,-1,1280,309,0,0
63,715,11.953,-49.8255,0.00208209,-0.0660588,0.108573,0.0818047,-0.145781,0.633363,0.133116,0.0438325,1287,309,11.953,49.8255
70,715,12.0078,-49.8288,-0.00227699,-0.0775619,0.117201,0.0831783,-0.163017,0.630012,0.144611,0.0446983,1294,309,12.0078,49.8288
77,715,0,0,0,0,0,0,0,0,0,-1,1301,309,0,0
84,715,0,0,0,0,0,0,0,0,0,-1,1308,309,0,0
91,715,0,0,0,0,0,0,0,0,0,-1,1315,309,0,0
98,715,0,0,0,0,0,0,0,0,0,-1,1322,309,0,0
105,715,0,0,0,0,0,0,0,0,0,-1,1329,309,0,0
112,715,0,0,0,0,0,0,0,0,0,-1,1336,309,0,0
119,715,0,0,0,0,0,0,0,0,0,-1,1343,309,0,0
126,715,0,0,0,0,0,0,0,0,0,-1,1350,309,0,0
133,715,0,0,0,0,0,0,0,0,0,-1,1357,309,0,0
140,715,0,0,0,0,0,0,0,0,0,-1,1364,309,0,0
147,715,0,0,0,0,0,0,0,0,0,-1,1371,309,0,0
154,715,0,0,0,0,0,0,0,0,0,-1,1378,309,0,0
161,715,0,0,0,0,0,0,0,0,0,-1,1385,309,0,0
168,715,0,0,0,0,0,0,0,0,0,-1,1392,309,0,0
175,715,0,0,0,0,0,0,0,0,0,-1,1399,309,0,0
182,715,0,0,0,0,0,0,0,0,0,-1,1406,309,0,0
189,715,0,0,0,0,0,0,0,0,0,-1,1413,309,0,0
196,715,0,0,0,0,0,0,0,0,0,-1,1420,309,0,0
203,715,0,0,0,0,0,0,0,0,0,-1,1427,309,0,0
210,715,0,0,0,0,0,0,0,0,0,-1,1434,309,0,0
217,715,0,0,0,0,0,0,0,0,0,-1,1441,309,0,0
224,715,0,0,0,0,0,0,0,0,0,-1,1448,309,0,0
231,715,0,0,0,0,0,0,0,0,0,-1,1455,309,0,0
238,715,0,0,0,0,0,0,0,0,0,-1,1462,309,0,0
245,715,0,0,0,0,0,0,0,0,0,-1,1469,309,0,0
252,715,0,0,0,0,0,0,0,0,0,-1,1476,309,0,0
259,715,0,0,0,0,0,0,0,0,0,-1,1483,309,0,0
266,715,0,0,0,0,0,0,0,0,0,-1,1490,309,0,0
273,715,0,0,0,0,0,0,0,0,0,-1,1497,309,0,0
280,715,0,0,0,0,0,0,0,0,0,-1,1504,309,0,0
287,715,0,0,0,0,0,0,0,0,0,-1,1511,309,0,0
294,715,0,0,0,0,0,0,0,0,0,-1,1518,309,0,0
301,715,0,0,0,0,0,0,0,0,0,-1,1525,309,0,0
308,715,0,0,0,0,0,0,0,0,0,-1,1532,309,0,0
315,715,0,0,0,0,0,0,0,0,0,-1,1539,309,0,0
322,715,0,0,0,0,0,0,0,0,0,-1,1546,309,0,0
329,715,0,0,0,0,0,0,0,0,0,-1,1553,309,0,0
336,715,0,0,0,0,0,0,0,0,0,-1,1560,309,0,0
343,715,0,0,0,0,0,0,0,0,0,-1,1567,309,0,0
350,715,0,0,0,0,0,0,0,0,0,-1,1574,309,0,0
357,715,0,0,0,0,0,0,0,0,0,-1,1581,309,0,0
364,715,0,0,0,0,0,0,0,0,0,-1,1588,309,0,0
371,715,0,0,0,0,0,0,0,0,0,-1,1595,309,0,0
378,715,0,0,0,0,0,0,0,0,0,-1,1602,309,0,0
385,715,0,0,0,0,0,0,0,0,0,-1,1609,309,0,0
392,715,0,0,0,0,0,0,0,0,0,-1,1616,309,0,0
399,715,0,0,0,0,0,0,0,0,0,-1,1623,309,0,0
406,715,0,0,0,0,0,0,0,0,0,-1,1630,309,0,0
413,715,0,0,0,0,0,0,0,0,0,-1,1637,309,0,0
420,715,0,0,0,0,0,0,0,0,0,-1,1644,309,0,0
427,715,0,0,0,0,0,0,0,0,0,-1,1651,309,0,0
434,715,0,0,0,0,0,0,0,0,0,-1,1658,309,0,0
441,715,0,0,0,0,0,0,0,0,0,-1,1665,309,0,0
448,715,0,0,0,0,0,0,0,0,0,-1,1672,309,0,0
455,715,0,0,0,0,0,0,0,0,0,-1,1679,309,0,0
462,715,0,0,0,0,0,0,0,0,0,-1,1686,309,0,0
469,715,0,0,0,0,0,0,0,0,0,-1,1693,309,0,0
476,715,0,0,0,0,0,0,0,0,0,-1,1700,309,0,0
483,715,0,0,0,0,0,0,0,0,0,-1,1707,309,0,0
490,715,0,0,0,0,0,0,0,0,0,-1,1714,309,0,0
497,715,0,0,0,0,0,0,0,0,0,-1,1721,309,0,0
504,715,0,0,0,0,0,0,0,0,0,-1,1728,309,0,0
511,715,0,0,0,0,0,0,0,0,0,-1,1735,309,0,0
518,715,0,0,0,0,0,0,0,0,0,-1,1742,309,0,0
525,715,0,0,0,0,0,0,0,0,0,-1,1749,309,0,0
532,715,0,0,0,0,0,0,0,0,0,-1,1756,309,0,0
539,715,0,0,0,0,0,0,0,0,0,-1,1763,309,0,0
546,715,0,0,0,0,0,0,0,0,0,-1,1770,309,0,0
553,715,0,0,0,0,0,0,0,0,0,-1,1777,309,0,0
560,715,0,0,0,0,0,0,0,0,0,-1,1784,309,0,0
567,715,0,0,0,0,0,0,0,0,0,-1,1791,309,0,0
574,715,0,0,0,0,0,0,0,0,0,-1,1798,309,0,0
581,715,0,0,0,0,0,0,0,0,0,-1,1805,309,0,0
588,715,0,0,0,0,0,0,0,0,0,-1,1812,309,0,0
595,715,0,0,0,0,0,0,0,0,0,-1,1819,309,0,0
602,715,0,0,0,0,0,0,0,0,0,-1,1826,309,0,0
609,715,0,0,0,0,0,0,0,0,0,-1,1833,309,0,0
616,715,0,0,0,0,0,0,0,0,0,-1,1840,309,0,0
623,715,0,0,0,0,0,0,0,0,0,-1,1847,309,0,0
630,715,0,0,0,0,0,0,0,0,0,-1,1854,309,0,0
637,715,0,0,0,0,0,0,0,0,0,-1,1861,309,0,0
644,715,0,0,0,0,0,0,0,0,0,-1,1868,309,0,0
651,715,0,0,0,0,0,0,0,0,0,-1,1875,309,0,0
658,715,0,0,0,0,0,0,0,0,0,-1,1882,309,0,0
665,715,0,0,0,0,0,0,0,0,0,-1,1889,309,0,0
672,715,0,0,0,0,0,0,0,0,0,-1,1896,309,0,0
679,715,0,0,0,0,0,0,0,0,0,-1,1903,309,0,0
686,715,0,0,0,0,0,0,0,0,0,-1,1910,309,0,0
693,715,0,0,0,0,0,0,0,0,0,-1,1917,309,0,0
700,715,0,0,0,0,0,0,0,0,0,-1,1924,309,0,0
707,715,0,0,0,0,0,0,0,0,0,-1,1931,309,0,0
714,715,0,0,0,0,0,0,0,0,0,-1,1938,309,0,0
721,715,0,0,0,0,0,0,0,0,0,-1,1945,309,0,0
728,715,0,0,0,0,0,0,0,0,0,-1,1952,309,0,0
735,715,0,0,0,0,0,0,0,0,0,-1,1959,309,0,0
742,715,0,0,0,0,0,0,0,0,0,-1,1966,309,0,0
749,715,0,0,0,0,0,0,0,0,0,-1,1973,309,0,0
756,715,0,0,0,0,0,0,0,0,0,-1,1980,309,0,0
763,715,0,0,0,0,0,0,0,0,0,-1,1987,309,0,0
770,715,0,0,0,0,0,0,0,0,0,-1,1994,309,0,0
777,715,0,0,0,0,0,0,0,0,0,-1,2001,309,0,0
784,715,0,0,0,0,0,0,0,0,0,-1,2008,309,0,0
791,715,0,0,0,0,0,0,0,0,0,-1,2015,309,0,0
798,715,0,0,0,0,0,0,0,0,0,-1,2022,309,0,0
805,715,0,0,0,0,0,0,0,0,0,-1,2029,309,0,0
812,715,0,0,0,0,0,0,0,0,0,-1,2036,309,0,0
-700,708,0,0,0,0,0,0,0,0,0,-1,524,316,0,0
-693,708,0,0,0,0,0,0,0,0,0,-1,531,316,0,0
-686,708,0,0,0,0,0,0,0,0,0,-1,538,316,0,0
-679,708,0,0,0,0,0,0,0,0,0,-1,545,316,0,0
-672,708,0,0,0,0,0,0,0,0,0,-1,552,316,0,0
-665,708,0,0,0,0,0,0,0,0,0,-1,559,316,0,0
-658,708,0,0,0,0,0,0,0,0,0,-1,566,316,0,0
-651,708,0,0,0,0,0,0,0,0,0,-1,573,316,0,0
-644,708,0,0,0,0,0,0,0,0,0,-1,580,316,0,0
-637,708,0,0,0,0,0,0,0,0,0,-1,587,316,0,0
-630,708,0,0,0,0,0,0,0,0,0,-1,594,316,0,0
-623,708,0,0,0,0,0,0,0,0,0,-1,601,316,0,0
-616,708,0,0,0,0,0,0,0,0,0,-1,608,316,0,0
-609,708,0,0,0,0,0,0,0,0,0,-1,615,316,0,0
-602,708,0,0,0,0,0,0,0,0,0,-1,622,316,0,0
-595,708,0,0,0,0,0,0,0,0,0,-1,629,316,0,0
-588,708,0,0,0,0,0,0,0,0,0,-1,636,316,0,0
-581,708,0,0,0,0,0,0,0,0,0,-1,643,316,0,0
-574,708,0,0,0,0,0,0,0,0,0,-1,650,316,0,0
-567,708,0,0,0,0,0,0,0,0,0,-1,657,316,0,0
-560,708,0,0,0,0,0,0,0,0,0,-1,664,316,0,0
-553,708,0,0,0,0,0,0,0,0,0,-1,671,316,0,0
-546,708,0,0,0,0,0,0,0,0,0,-1,678,316,0,0
-539,708,0,0,0,0,0,0,0,0,0,-1,685,316,0,0
-532,708,0,0,0,0,0,0,0,0,0,-1,692,316,0,0
-525,708,0,0,0,0,0,0,0,0,0,-1,699,316,0,0
-518,708,0,0,0,0,0,0,0,0,0,-1,706,316,0,0
-511,708,0,0,0,0,0,0,0,0,0,-1,713,316,0,0
-504,708,0,0,0,0,0,0,0,0,0,-1,720,316,0,0
-497,708,0,0,0,0,0,0,0,0,0,-1,727,316,0,0
-490,708,0,0,0,0,0,0,0,0,0,-1,734,316,0,0
-483,708,0,0,0,0,0,0,0,0,0,-1,741,316,0,0
-476,708,0,0,0,0,0,0,0,0,0,-1,748,316,0,0
-469,708,0,0,0,0,0,0,0,0,0,-1,755,316,0,0
-462,708,0,0,0,0,0,0,0,0,0,-1,762,316,0,0
-455,708,0,0,0,0,0,0,0,0,0,-1,769,316,0,0
-448,708,0,0,0,0,0,0,0,0,0,-1,776,316,0,0
-441,708,0,0,0,0,0,0,0,0,0,-1,783,316,0,0
-434,708,0,0,0,0,0,0,0,0,0,-1,790,316,0,0
-427,708,0,0,0,0,0,0,0,0,0,-1,797,316,0,0
-420,708,0,0,0,0,0,0,0,0,0,-1,804,316,0,0
-413,708,0,0,0,0,0,0,0,0,0,-1,811,316,0,0
-406,708,0,0,0,0,0,0,0,0,0,-1,818,316,0,0
-399,708,0,0,0,0,0,0,0,0,0,-1,825,316,0,0
-392,708,0,0,0,0,0,0,0,0,0,-1,832,316,0,0
-385,708,0,0,0,0,0,0,0,0,0,-1,839,316,0,0
-378,708,0,0,0,0,0,0,0,0,0,-1,846,316,0,0
-371,708,0,0,0,0,0,0,0,0,0,-1,853,316,0,0
-364,708,0,0,0,0,0,0,0,0,0,-1,860,316,0,0
-357,708,0,0,0,0,0,0,0,0,0,-1,867,316,0,0
-350,708,0,0,0,0,0,0,0,0,0,-1,874,316,0,0
-343,708,0,0,0,0,0,0,0,0,0,-1,881,316,0,0
-336,708,0,0,0,0,0,0,0,0,0,-1,888,316,0,0
-329,708,0,0,0,0,0,0,0,0,0,-1,895,316,0,0
-322,708,0,0,0,0,0,0,0,0,0,-1,902,316,0,0
-315,708,0,0,0,0,0,0,0,0,0,-1,909,316,0,0
-308,708,0,0,0,0,0,0,0,0,0,-1,916,316,0,0
-301,708,0,0,0,0,0,0,0,0,0,-1,923,316,0,0
-294,708,0,0,0,0,0,0,0,0,0,-1,930,316,0,0
-287,708,0,0,0,0,0,0,0,0,0,-1,937,316,0,0
-280,708,0,0,0,0,0,0,0,0,0,-1,944,316,0,0
-273,708,0,0,0,0,0,0,0,0,0,-1,951,316,0,0
-266,708,0,0,0,0,0,0,0,0,0,-1,958,316,0,0
-259,708,0,0,0,0,0,0,0,0,0,-1,965,316,0,0
-252,708,0,0,0,0,0,0,0,0,0,-1,972,316,0,0
-245,708,0,0,0,0,0,0,0,0,0,-1,979,316,0,0
-238,708,0,0,0,0,0,0,0,0,0,-1,986,316,0,0
-231,708,0,0,0,0,0,0,0,0,0,-1,993,316,0,0
-224,708,0,0,0,0,0,0,0,0,0,-1,1000,316,0,0
-217,708,0,0,0,0,0,0,0,0,0,-1,1007,316,0,0
-210,708,0,0,0,0,0,0,0,0,0,-1,1014,316,0,0
-203,708,0,0,0,0,0,0,0,0,0,-1,1021,316,0,0
-196,708,0,0,0,0,0,0,0,0,0,-1,1028,316,0,0
-189,708,0,0,0,0,0,0,0,0,0,-1,1035,316,0,0
-182,708,0,0,0,0,0,0,0,0,0,-1,1042,316,0,0
-175,708,0,0,0,0,0,0,0,0,0,-1,1049,316,0,0
-168,708,0,0,0,0,0,0,0,0,0,-1,1056,316,0,0
-161,708,0,0,0,0,0,0,0,0,0,-1,1063,316,0,0
-154,708,0,0,0,0,0,0,0,0,0,-1,1070,316,0,0
-147,708,0,0,0,0,0,0,0,0,0,-1,1077,316,0,0
-140,708,0,0,0,0,0,0,0,0,0,-1,1084,316,0,0
-133,708,0,0,0,0,0,0,0,0,0,-1,1091,316,0,0
-126,708,0,0,0,0,0,0,0,0,0,-1,1098,316,0,0
-119,708,0,0,0,0,0,0,0,0,0,-1,1105,316,0,0
-112,708,0,0,0,0,0,0,0,0,0,-1,1112,316,0,0
-105,708,0,0,0,0,0,0,0,0,0,-1,1119,316,0,0
-98,708,0,0,0,0,0,0,0,0,0,-1,1126,316,0,0
-91,708,0,0,0,0,0,0,0,0,0,-1,1133,316,0,0
-84,708,0,0,0,0,0,0,0,0,0,-1,1140,316,0,0
-77,708,0,0,0,0,0,0,0,0,0,-1,1147,316,0,0
-70,708,0,0,0,0,0,0,0,0,0,-1,1154,316,0,0
-63,708,0,0,0,0,0,0,0,0,0,-1,1161,316,0,0
-56,708,0,0,0,0,0,0,0,0,0,-1,1168,316,0,0
-49,708,0,0,0,0,0,0,0,0,0,-1,1175,316,0,0
-42,708,0,0,0,0,0,0,0,0,0,-1,1182,316,0,0
-35,708,-2.71204,-6.31558,0,0,0,0,0,0,0,-1,1189,316,-2.712,6.3156
-28,708,-2.92371,-5.53253,0,0,0,0,0,0,0,-1,1196,316,-2.92375,5.53254
-21,708,-0.417969,-24.5911,0,0,0,0,0,0,0,-1,1203,316,-0.418022,24.5911
-14,708,6.42603,-49.7303,0,0,0,0,0,0,0,-1,1210,316,6.426,49.7303
-7,708,6.51453,-49.9571,0,0,0,0,0,0,0,-1,1217,316,6.51447,49.9571
0,708,8.49414,-48.7296,0,0,0,0,0,0,0,-1,1224,316,8.49414,48.7296
7,708,8.65686,-48.4945,0,0,0,0,0,0,0,-1,1231,316,8.65691,48.4945
14,708,8.6344,-48.4539,0,0,0,0,0,0,0,-1,1238,316,8.63443,48.4539
21,708,8.60254,-48.4279,0.0529499,0.0527864,0.0440915,0.0969598,0.00877653,0.784471,0.061922,0.044879,1245,316,8.60254,48.4279
28,708,8.76099,-48.3391,0.0424691,0.0415149,0.0510392,0.0930334,-0.00904939,0.780725,0.0652482,0.0461765,1252,316,8.76094,48.3391
35,708,9.21484,-48.2539,0.03118,0.0284042,0.0592669,0.0890753,-0.029491,0.773691,0.0712774,0.0474335,1259,316,9.21485,48.2539
42,708,9.64282,-48.2551,0,0,0,0,0,0,0,-1,1266,316,9.64286,48.2551
49,708,11.0795,-50.1016,0,0,0,0,0,0,0,-1,1273,316,11.0795,50.1016
56,708,10.7892,-49.8766,0.000768961,-0.0193871,0.0877435,0.0790114,-0.0976295,0.72822,0.102172,0.0444262,1280,316,10.7892,49.8766
63,708,10.5698,-49.5583,-0.0029609,-0.0325375,0.0985995,0.0819532,-0.117452,0.710961,0.115733,0.042524,1287,316,10.5698,49.5583
70,708,10.5211,-49.4176,-0.00582621,-0.0444531,0.106219,0.0828212,-0.133101,0.695468,0.125784,0.0419304,1294,316,10.5211,49.4176
77,708,10.197,-49.4541,-0.00958178,-0.0543717,0.112649,0.082877,-0.146831,0.687276,0.134324,0.0417829,1301,316,10.197,49.4541
84,708,9.771,-49.4451,0,0,0,0,0,0,0,-1,1308,316,9.77103,49.4451
91,708,10.1344,-48.4655,-0.00823919,-0.0677208,0.125032,0.0905404,-0.1665,0.668635,0.150547,0.0460917,1315,316,10.1344,48.4655
98,708,10.1711,-48.3741,-0.00387159,-0.0681463,0.127323,0.0953076,-0.167325,0.661777,0.15352,0.0464613,1322,316,10.1712,48.3742
105,708,10.3297,-48.0408,0.0011872,-0.0642611,0.127503,0.100098,-0.163172,0.659782,0.153446,0.0471822,1329,316,10.3297,48.0408
112,708,10.0608,-47.1187,0.00464977,-0.0555435,0.126119,0.104213,-0.155107,0.66827,0.150677,0.043651,1336,316,10.0608,47.1187
119,708,9.62732,-47.0504,0.00593205,-0.0467456,0.122122,0.104523,-0.145337,0.679187,0.144897,0.0419837,1343,316,9.62733,47.0504
126,708,8.63916,-46.814,0.00304186,-0.0363764,0.114575,0.0995907,-0.132925,0.700222,0.134702,0.047048,1350,316,8.63911,46.814
133,708,8.12305,-46.5923,0,0,0,0,0,0,0,-1,1357,316,8.1231,46.5923
140,708,7.91956,-43.1792,0,0,0,0,0,0,0,-1,1364,316,7.9196,43.1792
147,708,2.52771,-54.0865,0,0,0,0,0,0,0,-1,1371,316,2.52774,54.0865
154,708,0,0,0,0,0,0,0,0,0,-1,1378,316,0,0
161,708,0,0,0,0,0,0,0,0,0,-1,1385,316,0,0
168,708,0,0,0,0,0,0,0,0,0,-1,1392,316,0,0
175,708,0,0,0,0,0,0,0,0,0,-1,1399,316,0,0
182,708,0,0,0,0,0,0,0,0,0,-1,1406,316,0,0
189,708,0,0,0,0,0,0,0,0,0,-1,1413,316,0,0
196,708,0,0,0,0,0,0,0,0,0,-1,1420,316,0,0
203,708,0,0,0,0,0,0,0,0,0,-1,1427,316,0,0
210,708,0,0,0,0,0,0,0,0,0,-1,1434,316,0,0
217,708,0,0,0,0,0,0,0,0,0,-1,1441,316,0,0
224,708,0,0,0,0,0,0,0,0,0,-1,1448,316,0,0
231,708,0,0,0,0,0,0,0,0,0,-1,1455,316,0,0
238,708,0,0,0,0,0,0,0,0,0,-1,1462,316,0,0
245,708,0,0,0,0,0,0,0,0,0,-1,1469,316,0,0
252,708,0,0,0,0,0,0,0,0,0,-1,1476,316,0,0
259,708,0,0,0,0,0,0,0,0,0,-1,1483,316,0,0
266,708,0,0,0,0,0,0,0,0,0,-1,1490,316,0,0
273,708,0,0,0,0,0,0,0,0,0,-1,1497,316,0,0
280,708,0,0,0,0,0,0,0,0,0,-1,1504,316,0,0
287,708,0,0,0,0,0,0,0,0,0,-1,1511,316,0,0
294,708,0,0,0,0,0,0,0,0,0,-1,1518,316,0,0
301,708,0,0,0,0,0,0,0,0,0,-1,1525,316,0,0
308,708,0,0,0,0,0,0,0,0,0,-1,1532,316,0,0
315,708,0,0,0,0,0,0,0,0,0,-1,1539,316,0,0
322,708,0,0,0,0,0,0,0,0,0,-1,1546,316,0,0
329,708,0,0,0,0,0,0,0,0,0,-1,1553,316,0,0
336,708,0,0,0,0,0,0,0,0,0,-1,1560,316,0,0
343,708,0,0,0,0,0,0,0,0,0,-1,1567,316,0,0
350,708,0,0,0,0,0,0,0,0,0,-1,1574,316,0,0
357,708,0,0,0,0,0,0,0,0,0,-1,1581,316,0,0
364,708,0,0,0,0,0,0,0,0,0,-1,1588,316,0,0
371,708,0,0,0,0,0,0,0,0,0,-1,1595,316,0,0
378,708,0,0,0,0,0,0,0,0,0,-1,1602,316,0,0
385,708,0,0,0,0,0,0,0,0,0,-1,1609,316,0,0
392,708,0,0,0,0,0,0,0,0,0,-1,1616,316,0,0
399,708,0,0,0,0,0,0,0,0,0,-1,1623,316,0,0
406,708,0,0,0,0,0,0,0,0,0,-1,1630,316,0,0
413,708,0,0,0,0,0,0,0,0,0,-1,1637,316,0,0
420,708,0,0,0,0,0,0,0,0,0,-1,1644,316,0,0
427,708,0,0,0,0,0,0,0,0,0,-1,1651,316,0,0
434,708,0,0,0,0,0,0,0,0,0,-1,1658,316,0,0
441,708,0,0,0,0,0,0,0,0,0,-1,1665,316,0,0
448,708,0,0,0,0,0,0,0,0,0,-1,1672,316,0,0
455,708,0,0,0,0,0,0,0,0,0,-1,1679,316,0,0
462,708,0,0,0,0,0,0,0,0,0,-1,1686,316,0,0
469,708,0,0,0,0,0,0,0,0,0,-1,1693,316,0,0
476,708,0,0,0,0,0,0,0,0,0,-1,1700,316,0,0
483,708,0,0,0,0,0,0,0,0,0,-1,1707,316,0,0
490,708,0,0,0,0,0,0,0,0,0,-1,1714,316,0,0
497,708,0,0,0,0,0,0,0,0,0,-1,1721,316,0,0
504,708,0,0,0,0,0,0,0,0,0,-1,1728,316,0,0
511,708,0,0,0,0,0,0,0,0,0,-1,1735,316,0,0
518,708,0,0,0,0,0,0,0,0,0,-1,1742,316,0,0
525,708,0,0,0,0,0,0,0,0,0,-1,1749,316,0,0
532,708,0,0,0,0,0,0,0,0,0,-1,1756,316,0,0
539,708,0,0,0,0,0,0,0,0,0,-1,1763,316,0,0
546,708,0,0,0,0,0,0,0,0,0,-1,1770,316,0,0
553,708,0,0,0,0,0,0,0,0,0,-1,1777,316,0,0
560,708,0,0,0,0,0,0,0,0,0,-1,1784,316,0,0
567,708,0,0,0,0,0,0,0,0,0,-1,1791,316,0,0
574,708,0,0,0,0,0,0,0,0,0,-1,1798,316,0,0
581,708,0,0,0,0,0,0,0,0,0,-1,1805,316,0,0
588,708,0,0,0,0,0,0,0,0,0,-1,1812,316,0,0
595,708,0,0,0,0,0,0,0,0,0,-1,1819,316,0,0
602,708,0,0,0,0,0,0,0,0,0,-1,1826,316,0,0
609,708,0,0,0,0,0,0,0,0,0,-1,1833,316,0,0
616,708,0,0,0,0,0,0,0,0,0,-1,1840,316,0,0
623,708,0,0,0,0,0,0,0,0,0,-1,1847,316,0,0
630,708,0,0,0,0,0,0,0,0,0,-1,1854,316,0,0
637,708,0,0,0,0,0,0,0,0,0,-1,1861,316,0,0
644,708,0,0,0,0,0,0,0,0,0,-1,1868,316,0,0
651,708,0,0,0,0,0,0,0,0,0,-1,1875,316,0,0
658,708,0,0,0,0,0,0,0,0,0,-1,1882,316,0,0
665,708,0,0,0,0,0,0,0,0,0,-1,1889,316,0,0
672,708,0,0,0,0,0,0,0,0,0,-1,1896,316,0,0
679,708,0,0,0,0,0,0,0,0,0,-1,1903,316,0,0
686,708,0,0,0,0,0,0,0,0,0,-1,1910,316,0,0
693,708,0,0,0,0,0,0,0,0,0,-1,1917,316,0,0
700,708,0,0,0,0,0,0,0,0,0,-1,1924,316,0,0
707,708,0,0,0,0,0,0,0,0,0,-1,1931,316,0,0
714,708,0,0,0,0,0,0,0,0,0,-1,1938,316,0,0
721,708,0,0,0,0,0,0,0,0,0,-1,1945,316,0,0
728,708,0,0,0,0,0,0,0,0,0,-1,1952,316,0,0
735,708,0,0,0,0,0,0,0,0,0,-1,1959,316,0,0
742,708,0,0,0,0,0,0,0,0,0,-1,1966,316,0,0
749,708,0,0,0,0,0,0,0,0,0,-1,1973,316,0,0
756,708,0,0,0,0,0,0,0,0,0,-1,1980,316,0,0
763,708,0,0,0,0,0,0,0,0,0,-1,1987,316,0,0
770,708,0,0,0,0,0,0,0,0,0,-1,1994,316,0,0
777,708,0,0,0,0,0,0,0,0,0,-1,2001,316,0,0
784,708,0,0,0,0,0,0,0,0,0,-1,2008,316,0,0
791,708,0,0,0,0,0,0,0,0,0,-1,2015,316,0,0
798,708,0,0,0,0,0,0,0,0,0,-1,2022,316,0,0
805,708,0,0,0,0,0,0,0,0,0,-1,2029,316,0,0
812,708,0,0,0,0,0,0,0,0,0,-1,2036,316,0,0
-700,701,0,0,0,0,0,0,0,0,0,-1,524,323,0,0
-693,701,0,0,0,0,0,0,0,0,0,-1,531,323,0,0
-686,701,0,0,0,0,0,0,0,0,0,-1,538,323,0,0
-679,701,0,0,0,0,0,0,0,0,0,-1,545,323,0,0
-672,701,0,0,0,0,0,0,0,0,0,-1,552,323,0,0
-665,701,0,0,0,0,0,0,0,0,0,-1,559,323,0,0
-658,701,0,0,0,0,0,0,0,0,0,-1,566,323,0,0
-651,701,0,0,0,0,0,0,0,0,0,-1,573,323,0,0
-644,701,0,0,0,0,0,0,0,0,0,-1,580,323,0,0
-637,701,0,0,0,0,0,0,0,0,0,-1,587,323,0,0
-630,701,0,0,0,0,0,0,0,0,0,-1,594,323,0,0
-623,701,0,0,0,0,0,0,0,0,0,-1,601,323,0,0
-616,701,0,0,0,0,0,0,0,0,0,-1,608,323,0,0
-609,701,0,0,0,0,0,0,0,0,0,-1,615,323,0,0
-602,701,0,0,0,0,0,0,0,0,0,-1,622,323,0,0
-595,701,0,0,0,0,0,0,0,0,0,-1,629,323,0,0
-588,701,0,0,0,0,0,0,0,0,0,-1,636,323,0,0
-581,701,0,0,0,0,0,0,0,0,0,-1,643,323,0,0
-574,701,0,0,0,0,0,0,0,0,0,-1,650,323,0,0
-567,701,0,0,0,0,0,0,0,0,0,-1,657,323,0,0
-560,701,0,0,0,0,0,0,0,0,0,-1,664,323,0,0
-553,701,0,0,0,0,0,0,0,0,0,-1,671,323,0,0
-546,701,0,0,0,0,0,0,0,0,0,-1,678,323,0,0
-539,701,0,0,0,0,0,0,0,0,0,-1,685,323,0,0
-532,701,0,0,0,0,0,0,0,0,0,-1,692,323,0,0
-525,701,0,0,0,0,0,0,0,0,0,-1,699,323,0,0
-518,701,0,0,0,0,0,0,0,0,0,-1,706,323,0,0
-511,701,0,0,0,0,0,0,0,0,0,-1,713,323,0,0
-504,701,0,0,0,0,0,0,0,0,0,-1,720,323,0,0
-497,701,0,0,0,0,0,0,0,0,0,-1,727,323,0,0
-490,701,0,0,0,0,0,0,0,0,0,-1,734,323,0,0
-483,701,0,0,0,0,0,0,0,0,0,-1,741,323,0,0
-476,701,0,0,0,0,0,0,0,0,0,-1,748,323,0,0
-469,701,0,0,0,0,0,0,0,0,0,-1,755,323,0,0
-462,701,0,0,0,0,0,0,0,0,0,-1,762,323,0,0
-455,701,0,0,0,0,0,0,0,0,0,-1,769,323,0,0
-448,701,0,0,0,0,0,0,0,0,0,-1,776,323,0,0
-441,701,0,0,0,0,0,0,0,0,0,-1,783,323,0,0
-434,701,0,0,0,0,0,0,0,0,0,-1,790,323,0,0
-427,701,0,0,0,0,0,0,0,0,0,-1,797,323,0,0
-420,701,0,0,0,0,0,0,0,0,0,-1,804,323,0,0
-413,701,0,0,0,0,0,0,0,0,0,-1,811,323,0,0
-406,701,0,0,0,0,0,0,0,0,0,-1,818,323,0,0
-399,701,0,0,0,0,0,0,0,0,0,-1,825,323,0,0
-392,701,0,0,0,0,0,0,0,0,0,-1,832,323,0,0
-385,701,0,0,0,0,0,0,0,0,0,-1,839,323,0,0
-378,701,0,0,0,0,0,0,0,0,0,-1,846,323,0,0
-371,701,0,0,0,0,0,0,0,0,0,-1,853,323,0,0
-364,701,0,0,0,0,0,0,0,0,0,-1,860,323,0,0
-357,701,0,0,0,0,0,0,0,0,0,-1,867,323,0,0
-350,701,0,0,0,0,0,0,0,0,0,-1,874,323,0,0
-343,701,0,0,0,0,0,0,0,0,0,-1,881,323,0,0
-336,701,0,0,0,0,0,0,0,0,0,-1,888,323,0,0
-329,701,0,0,0,0,0,0,0,0,0,-1,895,323,0,0
-322,701,0,0,0,0,0,0,0,0,0,-1,902,323,0,0
-315,701,0,0,0,0,0,0,0,0,0,-1,909,323,0,0
-308,701,0,0,0,0,0,0,0,0,0,-1,916,323,0,0
-301,701,0,0,0,0,0,0,0,0,0,-1,923,323,0,0
-294,701,0,0,0,0,0,0,0,0,0,-1,930,323,0,0
-287,701,0,0,0,0,0,0,0,0,0,-1,937,323,0,0
-280,701,0,0,0,0,0,0,0,0,0,-1,944,323,0,0
-273,701,0,0,0,0,0,0,0,0,0,-1,951,323,0,0
-266,701,0,0,0,0,0,0,0,0,0,-1,958,323,0,0
-259,701,0,0,0,0,0,0,0,0,0,-1,965,323,0,0
-252,701,0,0,0,0,0,0,0,0,0,-1,972,323,0,0
-245,701,0,0,0,0,0,0,0,0,0,-1,979,323,0,0
-238,701,0,0,0,0,0,0,0,0,0,-1,986,323,0,0
-231,701,0,0,0,0,0,0,0,0,0,-1,993,323,0,0
-224,701,0,0,0,0,0,0,0,0,0,-1,1000,323,0,0
-217,701,0,0,0,0,0,0,0,0,0,-1,1007,323,0,0
-210,701,0,0,0,0,0,0,0,0,0,-1,1014,323,0,0
-203,701,0,0,0,0,0,0,0,0,0,-1,1021,323,0,0
-196,701,0,0,0,0,0,0,0,0,0,-1,1028,323,0,0
-189,701,0,0,0,0,0,0,0,0,0,-1,1035,323,0,0
-182,701,0,0,0,0,0,0,0,0,0,-1,1042,323,0,0
-175,701,0,0,0,0,0,0,0,0,0,-1,1049,323,0,0
-168,701,0,0,0,0,0,0,0,0,0,-1,1056,323,0,0
-161,701,0,0,0,0,0,0,0,0,0,-1,1063,323,0,0
-154,701,0,0,0,0,0,0,0,0,0,-1,1070,323,0,0
-147,701,0,0,0,0,0,0,0,0,0,-1,1077,323,0,0
-140,701,0,0,0,0,0,0,0,0,0,-1,1084,323,0,0
-133,701,0,0,0,0,0,0,0,0,0,-1,1091,323,0,0
-126,701,0,0,0,0,0,0,0,0,0,-1,1098,323,0,0
-119,701,0,0,0,0,0,0,0,0,0,-1,1105,323,0,0
-112,701,0,0,0,0,0,0,0,0,0,-1,1112,323,0,0
-105,701,0,0,0,0,0,0,0,0,0,-1,1119,323,0,0
-98,701,0,0,0,0,0,0,0,0,0,-1,1126,323,0,0
-91,701,0,0,0,0,0,0,0,0,0,-1,1133,323,0,0
-84,701,0,0,0,0,0,0,0,0,0,-1,1140,323,0,0
-77,701,0,0,0,0,0,0,0,0,0,-1,1147,323,0,0
-70,701,-12.7566,-30.413,0,0,0,0,0,0,0,-1,1154,323,-12.7566,30.413
-63,701,-18.3169,-21.2322,0,0,0,0,0,0,0,-1,1161,323,-18.3169,21.2322
-56,701,-0.420166,-0.101776,0,0,0,0,0,0,0,-1,1168,323,-0.420119,0.101777
-49,701,-1.09021,-0.155762,0,0,0,0,0,0,0,-1,1175,323,-1.09024,0.155768
-42,701,-0.210327,-0.299133,0,0,0,0,0,0,0,-1,1182,323,-0.210379,0.29914
-35,701,-2.9635,-7.98676,0,0,0,0,0,0,0,-1,1189,323,-2.9635,7.98676
-28,701,-6.64417,-5.4917,0,0,0,0,0,0,0,-1,1196,323,-6.64411,5.4917
-21,701,7.48828,-47.0165,0,0,0,0,0,0,0,-1,1203,323,7.48826,47.0165
-14,701,6.47754,-49.7307,0,0,0,0,0,0,0,-1,1210,323,6.47754,49.7307
-7,701,6.55383,-49.9705,0,0,0,0,0,0,0,-1,1217,323,6.55384,49.9705
0,701,6.77869,-49.3918,0,0,0,0,0,0,0,-1,1224,323,6.77863,49.3917
7,701,7.34094,-49.0258,0,0,0,0,0,0,0,-1,1231,323,7.3409,49.0259
14,701,8.17175,-49.0776,0,0,0,0,0,0,0,-1,1238,323,8.17171,49.0776
21,701,8.23694,-48.6787,0.0423927,0.0639186,0.0378845,0.0925394,0.0137719,0.923801,0.0576532,0.0472766,1245,323,8.23689,48.6787
28,701,8.36206,-48.4272,0.0334501,0.0552761,0.0441284,0.0898209,-0.00109472,0.906616,0.0602488,0.0464633,1252,323,8.36208,48.4272
35,701,8.86804,-48.631,0.023817,0.0447832,0.0514241,0.0867818,-0.0181816,0.885948,0.0647714,0.0449073,1259,323,8.86799,48.631
42,701,9.31262,-48.722,0.0141016,0.0315702,0.0597971,0.0832675,-0.0375957,0.857918,0.0714218,0.0450915,1266,323,9.31263,48.7219
49,701,9.69055,-49.1575,0,0,0,0,0,0,0,-1,1273,323,9.69053,49.1575
56,701,9.73096,-49.1902,-0.00330454,0.00271689,0.076228,0.0759936,-0.0765813,0.805136,0.0880894,0.0439431,1280,323,9.73092,49.1902
63,701,9.53113,-48.8351,-0.00596731,-0.00961151,0.0858025,0.0780324,-0.0936112,0.774782,0.0992345,0.043587,1287,323,9.53113,48.8351
70,701,9.28943,-48.5091,-0.0079171,-0.0214604,0.0923998,0.0779589,-0.107336,0.74882,0.107428,0.0447298,1294,323,9.28943,48.5091
77,701,8.76001,-48.444,-0.0109265,-0.0313377,0.097679,0.0770786,-0.119343,0.733346,0.114276,0.0434928,1301,323,8.76,48.444
84,701,8.42798,-48.1389,-0.0108745,-0.0396601,0.10322,0.0789514,-0.129486,0.716126,0.121515,0.0434213,1308,323,8.42794,48.1389
91,701,8.45483,-47.7848,-0.00900596,-0.0451527,0.107335,0.0817669,-0.135926,0.701989,0.126975,0.0469413,1315,323,8.45478,47.7848
98,701,8.65674,-47.7126,-0.00510771,-0.0466652,0.109117,0.0851916,-0.136965,0.691312,0.129418,0.047089,1322,323,8.65679,47.7127
105,701,8.83887,-47.4459,-0.000398192,-0.0448793,0.108884,0.0884936,-0.133771,0.684654,0.129209,0.0458243,1329,323,8.83884,47.4459
112,701,8.95422,-46.9526,0.00347981,-0.0389317,0.107364,0.0917124,-0.127164,0.687897,0.12692,0.0435227,1336,323,8.95425,46.9526
119,701,8.52173,-46.6113,0.00557866,-0.031533,0.10442,0.0930792,-0.119034,0.697465,0.122769,0.041981,1343,323,8.52172,46.6113
126,701,7.94714,-46.4074,0.00526722,-0.0227526,0.0993901,0.09163,-0.109115,0.71538,0.116047,0.0483751,1350,323,7.94718,46.4074
133,701,7.49756,-46.1414,0,0,0,0,0,0,0,-1,1357,323,7.4975,46.1414
140,701,7.28271,-45.9168,0,0,0,0,0,0,0,-1,1364,323,7.28268,45.9168
147,701,2.1803,-53.9509,0,0,0,0,0,0,0,-1,1371,323,2.18028,53.9509
154,701,1.34985,-54.1701,0,0,0,0,0,0,0,-1,1378,323,1.34991,54.1701
161,701,-0.704102,-37.5125,0,0,0,0,0,0,0,-1,1385,323,-0.704147,37.5126
168,701,30.7272,1.76184,0,0,0,0,0,0,0,-1,1392,323,30.7272,-1.76184
175,701,31.5035,2.25711,0,0,0,0,0,0,0,-1,1399,323,31.5036,-2.25712
182,701,8.80652,5.42807,0,0,0,0,0,0,0,-1,1406,323,8.8065,-5.42808
189,701,8.58081,4.24493,0,0,0,0,0,0,0,-1,1413,323,8.58082,-4.24494
196,701,0,0,0,0,0,0,0,0,0,-1,1420,323,0,0
203,701,0,0,0,0,0,0,0,0,0,-1,1427,323,0,0
210,701,0,0,0,0,0,0,0,0,0,-1,1434,323,0,0
217,701,0,0,0,0,0,0,0,0,0,-1,1441,323,0,0
224,701,0,0,0,0,0,0,0,0,0,-1,1448,323,0,0
231,701,0,0,0,0,0,0,0,0,0,-1,1455,323,0,0
238,701,0,0,0,0,0,0,0,0,0,-1,1462,323,0,0
245,701,0,0,0,0,0,0,0,0,0,-1,1469,323,0,0
252,701,0,0,0,0,0,0,0,0,0,-1,1476,323,0,0
259,701,0,0,0,0,0,0,0,0,0,-1,1483,323,0,0
266,701,0,0,0,0,0,0,0,0,0,-1,1490,323,0,0
273,701,0,0,0,0,0,0,0,0,0,-1,1497,323,0,0
280,701,0,0,0,0,0,0,0,0,0,-1,1504,323,0,0
287,701,0,0,0,0,0,0,0,0,0,-1,1511,323,0,0
294,701,0,0,0,0,0,0,0,0,0,-1,1518,323,0,0
301,701,0,0,0,0,0,0,0,0,0,-1,1525,323,0,0
308,701,0,0,0,0,0,0,0,0,0,-1,1532,323,0,0
315,701,0,0,0,0,0,0,0,0,0,-1,1539,323,0,0
322,701,0,0,0,0,0,0,0,0,0,-1,1546,323,0,0
329,701,0,0,0,0,0,0,0,0,0,-1,1553,323,0,0
336,701,0,0,0,0,0,0,0,0,0,-1,1560,323,0,0
343,701,0,0,0,0,0,0,0,0,0,-1,1567,323,0,0
350,701,0,0,0,0,0,0,0,0,0,-1,1574,323,0,0
357,701,0,0,0,0,0,0,0,0,0,-1,1581,323,0,0
364,701,0,0,0,0,0,0,0,0,0,-1,1588,323,0,0
371,701,0,0,0,0,0,0,0,0,0,-1,1595,323,0,0
378,701,0,0,0,0,0,0,0,0,0,-1,1602,323,0,0
385,701,0,0,0,0,0,0,0,0,0,-1,1609,323,0,0
392,701,0,0,0,0,0,0,0,0,0,-1,1616,323,0,0
399,701,0,0,0,0,0,0,0,0,0,-1,1623,323,0,0
406,701,0,0,0,0,0,0,0,0,0,-1,1630,323,0,0
413,701,0,0,0,0,0,0,0,0,0,-1,1637,323,0,0
420,701,0,0,0,0,0,0,0,0,0,-1,1644,323,0,0
427,701,0,0,0,0,0,0,0,0,0,-1,1651,323,0,0
434,701,0,0,0,0,0,0,0,0,0,-1,1658,323,0,0
441,701,0,0,0,0,0,0,0,0,0,-1,1665,323,0,0
448,701,0,0,0,0,0,0,0,0,0,-1,1672,323,0,0
455,701,0,0,0,0,0,0,0,0,0,-1,1679,323,0,0
462,701,0,0,0,0,0,0,0,0,0,-1,1686,323,0,0
469,701,0,0,0,0,0,0,0,0,0,-1,1693,323,0,0
476,701,0,0,0,0,0,0,0,0,0,-1,1700,323,0,0
483,701,0,0,0,0,0,0,0,0,0,-1,1707,323,0,0
490,701,0,0,0,0,0,0,0,0,0,-1,1714,323,0,0
497,701,0,0,0,0,0,0,0,0,0,-1,1721,323,0,0
504,701,0,0,0,0,0,0,0,0,0,-1,1728,323,0,0
511,701,0,0,0,0,0,0,0,0,0,-1,1735,323,0,0
518,701,0,0,0,0,0,0,0,0,0,-1,1742,323,0,0
525,701,0,0,0,0,0,0,0,0,0,-1,1749,323,0,0
532,701,0,0,0,0,0,0,0,0,0,-1,1756,323,0,0
539,701,0,0,0,0,0,0,0,0,0,-1,1763,323,0,0
546,701,0,0,0,0,0,0,0,0,0,-1,1770,323,0,0
553,701,0,0,0,0,0,0,0,0,0,-1,1777,323,0,0
560,701,0,0,0,0,0,0,0,0,0,-1,1784,323,0,0
567,701,0,0,0,0,0,0,0,0,0,-1,1791,323,0,0
574,701,0,0,0,0,0,0,0,0,0,-1,1798,323,0,0
581,701,0,0,0,0,0,0,0,0,0,-1,1805,323,0,0
588,701,0,0,0,0,0,0,0,0,0,-1,1812,323,0,0
595,701,0,0,0,0,0,0,0,0,0,-1,1819,323,0,0
602,701,0,0,0,0,0,0,0,0,0,-1,1826,323,0,0
609,701,0,0,0,0,0,0,0,0,0,-1,1833,323,0,0
616,701,0,0,0,0,0,0,0,0,0,-1,1840,323,0,0
623,701,0,0,0,0,0,0,0,0,0,-1,1847,323,0,0
630,701,0,0,0,0,0,0,0,0,0,-1,1854,323,0,0
637,701,0,0,0,0,0,0,0,0,0,-1,1861,323,0,0
644,701,0,0,0,0,0,0,0,0,0,-1,1868,323,0,0
651,701,0,0,0,0,0,0,0,0,0,-1,1875,323,0,0
658,701,0,0,0,0,0,0,0,0,0,-1,1882,323,0,0
665,701,0,0,0,0,0,0,0,0,0,-1,1889,323,0,0
672,701,0,0,0,0,0,0,0,0,0,-1,1896,323,0,0
679,701,0,0,0,0,0,0,0,0,0,-1,1903,323,0,0
686,701,0,0,0,0,0,0,0,0,0,-1,1910,323,0,0
693,701,0,0,0,0,0,0,0,0,0,-1,1917,323,0,0
700,701,0,0,0,0,0,0,0,0,0,-1,1924,323,0,0
707,701,0,0,0,0,0,0,0,0,0,-1,1931,323,0,0
714,701,0,0,0,0,0,0,0,0,0,-1,1938,323,0,0
721,701,0,0,0,0,0,0,0,0,0,-1,1945,323,0,0
728,701,0,0,0,0,0,0,0,0,0,-1,1952,323,0,0
735,701,0,0,0,0,0,0,0,0,0,-1,1959,323,0,0
742,701,0,0,0,0,0,0,0,0,0,-1,1966,323,0,0
749,701,0,0,0,0,0,0,0,0,0,-1,1973,323,0,0
756,701,0,0,0,0,0,0,0,0,0,-1,1980,323,0,0
763,701,0,0,0,0,0,0,0,0,0,-1,1987,323,0,0
770,701,0,0,0,0,0,0,0,0,0,-1,1994,323,0,0
777,701,0,0,0,0,0,0,0,0,0,-1,2001,323,0,0
784,701,0,0,0,0,0,0,0,0,0,-1,2008,323,0,0
791,701,0,0,0,0,0,0,0,0,0,-1,2015,323,0,0
798,701,0,0,0,0,0,0,0,0,0,-1,2022,323,0,0
805,701,0,0,0,0,0,0,0,0,0,-1,2029,323,0,0
812,701,0,0,0,0,0,0,0,0,0,-1,2036,323,0,0
-700,694,0,0,0,0,0,0,0,0,0,-1,524,330,0,0
-693,694,0,0,0,0,0,0,0,0,0,-1,531,330,0,0
-686,694,0,0,0,0,0,0,0,0,0,-1,538,330,0,0
-679,694,0,0,0,0,0,0,0,0,0,-1,545,330,0,0
-672,694,0,0,0,0,0,0,0,0,0,-1,552,330,0,0
-665,694,0,0,0,0,0,0,0,0,0,-1,559,330,0,0
-658,694,0,0,0,0,0,0,0,0,0,-1,566,330,0,0
-651,694,0,0,0,0,0,0,0,0,0,-1,573,330,0,0
-644,694,0,0,0,0,0,0,0,0,0,-1,580,330,0,0
-637,694,0,0,0,0,0,0,0,0,0,-1,587,330,0,0
-630,694,0,0,0,0,0,0,0,0,0,-1,594,330,0,0
-623,694,0,0,0,0,0,0,0,0,0,-1,601,330,0,0
-616,694,0,0,0,0,0,0,0,0,0,-1,608,330,0,0
-609,694,0,0,0,0,0,0,0,0,0,-1,615,330,0,0
-602,694,0,0,0,0,0,0,0,0,0,-1,622,330,0,0
-595,694,0,0,0,0,0,0,0,0,0,-1,629,330,0,0
-588,694,0,0,0,0,0,0,0,0,0,-1,636,330,0,0
-581,694,0,0,0,0,0,0,0,0,0,-1,643,330,0,0
-574,694,0,0,0,0,0,0,0,0,0,-1,650,330,0,0
-567,694,0,0,0,0,0,0,0,0,0,-1,657,330,0,0
-560,694,0,0,0,0,0,0,0,0,0,-1,664,330,0,0
-553,694,0,0,0,0,0,0,0,0,0,-1,671,330,0,0
-546,694,0,0,0,0,0,0,0,0,0,-1,678,330,0,0
-539,694,0,0,0,0,0,0,0,0,0,-1,685,330,0,0
-532,694,0,0,0,0,0,0,0,0,0,-1,692,330,0,0
-525,694,0,0,0,0,0,0,0,0,0,-1,699,330,0,0
-518,694,0,0,0,0,0,0,0,0,0,-1,706,330,0,0
-511,694,0,0,0,0,0,0,0,0,0,-1,713,330,0,0
-504,694,0,0,0,0,0,0,0,0,0,-1,720,330,0,0
-497,694,0,0,0,0,0,0,0,0,0,-1,727,330,0,0
-490,694,0,0,0,0,0,0,0,0,0,-1,734,330,0,0
-483,694,0,0,0,0,0,0,0,0,0,-1,741,330,0,0
-476,694,0,0,0,0,0,0,0,0,0,-1,748,330,0,0
-469,694,0,0,0,0,0,0,0,0,0,-1,755,330,0,0
-462,694,0,0,0,0,0,0,0,0,0,-1,762,330,0,0
-455,694,0,0,0,0,0,0,0,0,0,-1,769,330,0,0
-448,694,0,0,0,0,0,0,0,0,0,-1,776,330,0,0
-441,694,0,0,0,0,0,0,0,0,0,-1,783,330,0,0
-434,694,0,0,0,0,0,0,0,0,0,-1,790,330,0,0
-427,694,0,0,0,0,0,0,0,0,0,-1,797,330,0,0
-420,694,0,0,0,0,0,0,0,0,0,-1,804,330,0,0
-413,694,0,0,0,0,0,0,0,0,0,-1,811,330,0,0
-406,694,0,0,0,0,0,0,0,0,0,-1,818,330,0,0
-399,694,0,0,0,0,0,0,0,0,0,-1,825,330,0,0
-392,694,0,0,0,0,0,0,0,0,0,-1,832,330,0,0
-385,694,0,0,0,0,0,0,0,0,0,-1,839,330,0,0
-378,694,0,0,0,0,0,0,0,0,0,-1,846,330,0,0
-371,694,0,0,0,0,0,0,0,0,0,-1,853,330,0,0
-364,694,0,0,0,0,0,0,0,0,0,-1,860,330,0,0
-357,694,0,0,0,0,0,0,0,0,0,-1,867,330,0,0
-350,694,0,0,0,0,0,0,0,0,0,-1,874,330,0,0
-343,694,0,0,0,0,0,0,0,0,0,-1,881,330,0,0
-336,694,0,0,0,0,0,0,0,0,0,-1,888,330,0,0
-329,694,0,0,0,0,0,0,0,0,0,-1,895,330,0,0
-322,694,0,0,0,0,0,0,0,0,0,-1,902,330,0,0
-315,694,0,0,0,0,0,0,0,0,0,-1,909,330,0,0
-308,694,0,0,0,0,0,0,0,0,0,-1,916,330,0,0
-301,694,0,0,0,0,0,0,0,0,0,-1,923,330,0,0
-294,694,0,0,0,0,0,0,0,0,0,-1,930,330,0,0
-287,694,0,0,0,0,0,0,0,0,0,-1,937,330,0,0
-280,694,0,0,0,0,0,0,0,0,0,-1,944,330,0,0
-273,694,0,0,0,0,0,0,0,0,0,-1,951,330,0,0
-266,694,0,0,0,0,0,0,0,0,0,-1,958,330,0,0
-259,694,0,0,0,0,0,0,0,0,0,-1,965,330,0,0
-252,694,0,0,0,0,0,0,0,0,0,-1,972,330,0,0
-245,694,0,0,0,0,0,0,0,0,0,-1,979,330,0,0
-238,694,0,0,0,0,0,0,0,0,0,-1,986,330,0,0
-231,694,0,0,0,0,0,0,0,0,0,-1,993,330,0,0
-224,694,0,0,0,0,0,0,0,0,0,-1,1000,330,0,0
-217,694,0,0,0,0,0,0,0,0,0,-1,1007,330,0,0
-210,694,0,0,0,0,0,0,0,0,0,-1,1014,330,0,0
-203,694,0,0,0,0,0,0,0,0,0,-1,1021,330,0,0
-196,694,0,0,0,0,0,0,0,0,0,-1,1028,330,0,0
-189,694,0,0,0,0,0,0,0,0,0,-1,1035,330,0,0
-182,694,0,0,0,0,0,0,0,0,0,-1,1042,330,0,0
-175,694,0,0,0,0,0,0,0,0,0,-1,1049,330,0,0
-168,694,0,0,0,0,0,0,0,0,0,-1,1056,330,0,0
-161,694,0,0,0,0,0,0,0,0,0,-1,1063,330,0,0
-154,694,0,0,0,0,0,0,0,0,0,-1,1070,330,0,0
-147,694,0,0,0,0,0,0,0,0,0,-1,1077,330,0,0
-140,694,0,0,0,0,0,0,0,0,0,-1,1084,330,0,0
-133,694,0,0,0,0,0,0,0,0,0,-1,1091,330,0,0
-126,694,0,0,0,0,0,0,0,0,0,-1,1098,330,0,0
-119,694,0,0,0,0,0,0,0,0,0,-1,1105,330,0,0
-112,694,0,0,0,0,0,0,0,0,0,-1,1112,330,0,0
-105,694,2.5188,-19.3963,0,0,0,0,0,0,0,-1,1119,330,2.51882,19.3963
-98,694,1.34875,-10.1051,0,0,0,0,0,0,0,-1,1126,330,1.34874,10.1051
-91,694,6.62366,-46.8039,0,0,0,0,0,0,0,-1,1133,330,6.62363,46.8039
-84,694,0.0577393,-40.8823,0,0,0,0,0,0,0,-1,1140,330,0.0577026,40.8823
-77,694,-5.51379,-31.2714,0,0,0,0,0,0,0,-1,1147,330,-5.51383,31.2714
-70,694,-11.9945,-25.5143,0,0,0,0,0,0,0,-1,1154,330,-11.9945,25.5143
-63,694,-18.4752,-19.7572,0,0,0,0,0,0,0,-1,1161,330,-18.4752,19.7572
-56,694,-6.50623,-0.649139,0,0,0,0,0,0,0,-1,1168,330,-6.5062,0.649126
-49,694,-1.11426,0.0341797,0,0,0,0,0,0,0,-1,1175,330,-1.11424,-0.0341846
-42,694,-0.346313,-0.709595,0,0,0,0,0,0,0,-1,1182,330,-0.346298,0.709581
-35,694,-0.459106,-1.24713,0,0,0,0,0,0,0,-1,1189,330,-0.459142,1.24714
-28,694,-6.48413,-3.95972,0,0,0,0,0,0,0,-1,1196,330,-6.48414,3.9597
-21,694,6.61938,-46.884,0,0,0,0,0,0,0,-1,1203,330,6.61943,46.884
-14,694,6.43579,-49.4582,0,0,0,0,0,0,0,-1,1210,330,6.43585,49.4582
-7,694,6.45117,-49.6332,0.0441015,0.0737555,0.0217036,0.0852132,0.0326437,1.08506,0.0496442,0.0450638,1217,330,6.45123,49.6332
0,694,6.61133,-49.5168,0.0446215,0.0740852,0.0210258,0.0850265,0.0336802,1.09098,0.049442,0.0462416,1224,330,6.61127,49.5168
7,694,7.08459,-49.5505,0.0425186,0.0726413,0.0229684,0.0850461,0.0301138,1.0756,0.0497935,0.0457765,1231,330,7.08463,49.5505
14,694,7.6803,-49.6201,0.0384232,0.0707615,0.0267855,0.0858799,0.0233049,1.05695,0.0512816,0.0456388,1238,330,7.68029,49.6201
21,694,7.96411,-49.3058,0.0326491,0.066571,0.0315313,0.0854136,0.0138065,1.03215,0.0529438,0.0471532,1245,330,7.96407,49.3058
28,694,8.43811,-49.1261,0.0254061,0.0603555,0.0369281,0.0837348,0.00202683,1.00639,0.05516,0.0472515,1252,330,8.43806,49.1261
35,694,8.76599,-48.9212,0.0175788,0.0524227,0.0431597,0.0815441,-0.0115426,0.977228,0.0585905,0.0455774,1259,330,8.76596,48.9212
42,694,8.70752,-48.8351,0.00944092,0.041661,0.0503344,0.0784006,-0.0272987,0.940277,0.0633583,0.0469306,1266,330,8.70749,48.8351
49,694,8.74622,-48.6783,0.00195055,0.0298413,0.057187,0.0747587,-0.0429669,0.904992,0.0687901,0.0477508,1273,330,8.74622,48.6783
56,694,8.68396,-48.4294,-0.00559612,0.0171173,0.0642073,0.0709645,-0.0594433,0.872931,0.0753888,0.0455345,1280,330,8.68394,48.4293
63,694,8.50037,-48.1075,0,0,0,0,0,0,0,-1,1287,330,8.50041,48.1075
70,694,8.1344,-47.6174,-0.00904084,-0.0053725,0.0780988,0.0709137,-0.0853271,0.797139,0.0903335,0.0465203,1294,330,8.13443,47.6174
77,694,7.51599,-47.3655,-0.0114779,-0.0147843,0.0824629,0.0693483,-0.0956106,0.775376,0.0956406,0.048807,1301,330,7.516,47.3655
84,694,6.86255,-47.0544,-0.0112888,-0.0226822,0.0868279,0.070029,-0.104,0.752641,0.101112,0.0472257,1308,330,6.86259,47.0544
91,694,6.24219,-46.7116,-0.00960682,-0.0280724,0.0899696,0.0716025,-0.109282,0.734267,0.105186,0.0498549,1315,330,6.24213,46.7116
98,694,5.60132,-46.3794,0,0,0,0,0,0,0,-1,1322,330,5.60134,46.3794
105,694,4.54407,-45.3365,0,0,0,0,0,0,0,-1,1329,330,4.5441,45.3365
112,694,3.64221,-45.1815,0.00139133,-0.0256124,0.0893727,0.0782763,-0.102497,0.710428,0.104681,0.0422835,1336,330,3.64218,45.1816
119,694,7.7688,-46.2239,0.00361055,-0.0194374,0.0871032,0.0799488,-0.0957757,0.719629,0.101592,0.0431189,1343,330,7.76884,46.2239
126,694,7.18945,-45.9843,0.00452017,-0.0118552,0.0834709,0.080204,-0.087539,0.73651,0.0968773,0.0475994,1350,330,7.18941,45.9843
133,694,6.61682,-45.7664,0,0,0,0,0,0,0,-1,1357,330,6.61684,45.7665
140,694,2.74194,-53.4503,0,0,0,0,0,0,0,-1,1364,330,2.74198,53.4503
147,694,1.87854,-53.8007,0,0,0,0,0,0,0,-1,1371,330,1.87855,53.8007
154,694,1.09753,-54.05,0,0,0,0,0,0,0,-1,1378,330,1.09747,54.05
161,694,0.0187988,-38.6779,0,0,0,0,0,0,0,-1,1385,330,0.0187579,38.6779
168,694,30.451,0.196686,0,0,0,0,0,0,0,-1,1392,330,30.4511,-0.196674
175,694,31.0701,0.869873,0,0,0,0,0,0,0,-1,1399,330,31.07,-0.869874
182,694,8.29028,5.75238,0,0,0,0,0,0,0,-1,1406,330,8.29034,-5.75237
189,694,7.9801,4.46118,0,0,0,0,0,0,0,-1,1413,330,7.9801,-4.46118
196,694,7.39331,3.32632,0,0,0,0,0,0,0,-1,1420,330,7.39329,-3.32633
203,694,7.04492,2.20529,0,0,0,0,0,0,0,-1,1427,330,7.04496,-2.20529
210,694,6.44714,0.646912,0,0,0,0,0,0,0,-1,1434,330,6.44717,-0.646903
217,694,7.12061,-0.644958,0,0,0,0,0,0,0,-1,1441,330,7.12059,0.644961
224,694,6.74011,-1.70544,0,0,0,0,0,0,0,-1,1448,330,6.74013,1.70546
231,694,0,0,0,0,0,0,0,0,0,-1,1455,330,0,0
238,694,0,0,0,0,0,0,0,0,0,-1,1462,330,0,0
245,694,0,0,0,0,0,0,0,0,0,-1,1469,330,0,0
252,694,0,0,0,0,0,0,0,0,0,-1,1476,330,0,0
259,694,0,0,0,0,0,0,0,0,0,-1,1483,330,0,0
266,694,0,0,0,0,0,0,0,0,0,-1,1490,330,0,0
273,694,0,0,0,0,0,0,0,0,0,-1,1497,330,0,0
280,694,0,0,0,0,0,0,0,0,0,-1,1504,330,0,0
287,694,0,0,0,0,0,0,0,0,0,-1,1511,330,0,0
294,694,0,0,0,0,0,0,0,0,0,-1,1518,330,0,0
301,694,0,0,0,0,0,0,0,0,0,-1,1525,330,0,0
308,694,0,0,0,0,0,0,0,0,0,-1,1532,330,0,0
315,694,0,0,0,0,0,0,0,0,0,-1,1539,330,0,0
322,694,0,0,0,0,0,0,0,0,0,-1,1546,330,0,0
329,694,0,0,0,0,0,0,0,0,0,-1,1553,330,0,0
336,694,0,0,0,0,0,0,0,0,0,-1,1560,330,0,0
343,694,0,0,0,0,0,0,0,0,0,-1,1567,330,0,0
350,694,0,0,0,0,0,0,0,0,0,-1,1574,330,0,0
357,694,0,0,0,0,0,0,0,0,0,-1,1581,330,0,0
364,694,0,0,0,0,0,0,0,0,0,-1,1588,330,0,0
371,694,0,0,0,0,0,0,0,0,0,-1,1595,330,0,0
378,694,0,0,0,0,0,0,0,0,0,-1,1602,330,0,0
385,694,0,0,0,0,0,0,0,0,0,-1,1609,330,0,0
392,694,0,0,0,0,0,0,0,0,0,-1,1616,330,0,0
399,694,0,0,0,0,0,0,0,0,0,-1,1623,330,0,0
406,694,0,0,0,0,0,0,0,0,0,-1,1630,330,0,0
413,694,0,0,0,0,0,0,0,0,0,-1,1637,330,0,0
420,694,0,0,0,0,0,0,0,0,0,-1,1644,330,0,0
427,694,0,0,0,0,0,0,0,0,0,-1,1651,330,0,0
434,694,0,0,0,0,0,0,0,0,0,-1,1658,330,0,0
441,694,0,0,0,0,0,0,0,0,0,-1,1665,330,0,0
448,694,0,0,0,0,0,0,0,0,0,-1,1672,330,0,0
455,694,0,0,0,0,0,0,0,0,0,-1,1679,330,0,0
462,694,0,0,0,0,0,0,0,0,0,-1,1686,330,0,0
469,694,0,0,0,0,0,0,0,0,0,-1,1693,330,0,0
476,694,0,0,0,0,0,0,0,0,0,-1,1700,330,0,0
483,694,0,0,0,0,0,0,0,0,0,-1,1707,330,0,0
490,694,0,0,0,0,0,0,0,0,0,-1,1714,330,0,0
497,694,0,0,0,0,0,0,0,0,0,-1,1721,330,0,0
504,694,0,0,0,0,0,0,0,0,0,-1,1728,330,0,0
511,694,0,0,0,0,0,0,0,0,0,-1,1735,330,0,0
518,694,0,0,0,0,0,0,0,0,0,-1,1742,330,0,0
525,694,0,0,0,0,0,0,0,0,0,-1,1749,330,0,0
532,694,0,0,0,0,0,0,0,0,0,-1,1756,330,0,0
539,694,0,0,0,0,0,0,0,0,0,-1,1763,330,0,0
546,694,0,0,0,0,0,0,0,0,0,-1,1770,330,0,0
553,694,0,0,0,0,0,0,0,0,0,-1,1777,330,0,0
560,694,0,0,0,0,0,0,0,0,0,-1,1784,330,0,0
567,694,0,0,0,0,0,0,0,0,0,-1,1791,330,0,0
574,694,0,0,0,0,0,0,0,0,0,-1,1798,330,0,0
581,694,0,0,0,0,0,0,0,0,0,-1,1805,330,0,0
588,694,0,0,0,0,0,0,0,0,0,-1,1812,330,0,0
595,694,0,0,0,0,0,0,0,0,0,-1,1819,330,0,0
602,694,0,0,0,0,0,0,0,0,0,-1,1826,330,0,0
609,694,0,0,0,0,0,0,0,0,0,-1,1833,330,0,0
616,694,0,0,0,0,0,0,0,0,0,-1,1840,330,0,0
623,694,0,0,0,0,0,0,0,0,0,-1,1847,330,0,0
630,694,0,0,0,0,0,0,0,0,0,-1,1854,330,0,0
637,694,0,0,0,0,0,0,0,0,0,-1,1861,330,0,0
644,694,0,0,0,0,0,0,0,0,0,-1,1868,330,0,0
651,694,0,0,0,0,0,0,0,0,0,-1,1875,330,0,0
658,694,0,0,0,0,0,0,0,0,0,-1,1882,330,0,0
665,694,0,0,0,0,0,0,0,0,0,-1,1889,330,0,0
672,694,0,0,0,0,0,0,0,0,0,-1,1896,330,0,0
679,694,0,0,0,0,0,0,0,0,0,-1,1903,330,0,0
686,694,0,0,0,0,0,0,0,0,0,-1,1910,330,0,0
693,694,0,0,0,0,0,0,0,0,0,-1,1917,330,0,0
700,694,0,0,0,0,0,0,0,0,0,-1,1924,330,0,0
707,694,0,0,0,0,0,0,0,0,0,-1,1931,330,0,0
714,694,0,0,0,0,0,0,0,0,0,-1,1938,330,0,0
721,694,0,0,0,0,0,0,0,0,0,-1,1945,330,0,0
728,694,0,0,0,0,0,0,0,0,0,-1,1952,330,0,0
735,694,0,0,0,0,0,0,0,0,0,-1,1959,330,0,0
742,694,0,0,0,0,0,0,0,0,0,-1,1966,330,0,0
749,694,0,0,0,0,0,0,0,0,0,-1,1973,330,0,0
756,694,0,0,0,0,0,0,0,0,0,-1,1980,330,0,0
763,694,0,0,0,0,0,0,0,0,0,-1,1987,330,0,0
770,694,0,0,0,0,0,0,0,0,0,-1,1994,330,0,0
777,694,0,0,0,0,0,0,0,0,0,-1,2001,330,0,0
784,694,0,0,0,0,0,0,0,0,0,-1,2008,330,0,0
791,694,0,0,0,0,0,0,0,0,0,-1,2015,330,0,0
798,694,0,0,0,0,0,0,0,0,0,-1,2022,330,0,0
805,694,0,0,0,0,0,0,0,0,0,-1,2029,330,0,0
812,694,0,0,0,0,0,0,0,0,0,-1,2036,330,0,0
-700,687,0,0,0,0,0,0,0,0,0,-1,524,337,0,0
-693,687,0,0,0,0,0,0,0,0,0,-1,531,337,0,0
-686,687,0,0,0,0,0,0,0,0,0,-1,538,337,0,0
-679,687,0,0,0,0,0,0,0,0,0,-1,545,337,0,0
-672,687,0,0,0,0,0,0,0,0,0,-1,552,337,0,0
-665,687,0,0,0,0,0,0,0,0,0,-1,559,337,0,0
-658,687,0,0,0,0,0,0,0,0,0,-1,566,337,0,0
-651,687,0,0,0,0,0,0,0,0,0,-1,573,337,0,0
-644,687,0,0,0,0,0,0,0,0,0,-1,580,337,0,0
-637,687,0,0,0,0,0,0,0,0,0,-1,587,337,0,0
-630,687,0,0,0,0,0,0,0,0,0,-1,594,337,0,0
-623,687,0,0,0,0,0,0,0,0,0,-1,601,337,0,0
-616,687,0,0,0,0,0,0,0,0,0,-1,608,337,0,0
-609,687,0,0,0,0,0,0,0,0,0,-1,615,337,0,0
-602,687,0,0,0,0,0,0,0,0,0,-1,622,337,0,0
-595,687,0,0,0,0,0,0,0,0,0,-1,629,337,0,0
-588,687,0,0,0,0,0,0,0,0,0,-1,636,337,0,0
-581,687,0,0,0,0,0,0,0,0,0,-1,643,337,0,0
-574,687,0,0,0,0,0,0,0,0,0,-1,650,337,0,0
-567,687,0,0,0,0,0,0,0,0,0,-1,657,337,0,0
-560,687,0,0,0,0,0,0,0,0,0,-1,664,337,0,0
-553,687,0,0,0,0,0,0,0,0,0,-1,671,337,0,0
-546,687,0,0,0,0,0,0,0,0,0,-1,678,337,0,0
-539,687,0,0,0,0,0,0,0,0,0,-1,685,337,0,0
-532,687,0,0,0,0,0,0,0,0,0,-1,692,337,0,0
-525,687,0,0,0,0,0,0,0,0,0,-1,699,337,0,0
-518,687,0,0,0,0,0,0,0,0,0,-1,706,337,0,0
-511,687,0,0,0,0,0,0,0,0,0,-1,713,337,0,0
-504,687,0,0,0,0,0,0,0,0,0,-1,720,337,0,0
-497,687,0,0,0,0,0,0,0,0,0,-1,727,337,0,0
-490,687,0,0,0,0,0,0,0,0,0,-1,734,337,0,0
-483,687,0,0,0,0,0,0,0,0,0,-1,741,337,0,0
-476,687,0,0,0,0,0,0,0,0,0,-1,748,337,0,0
-469,687,0,0,0,0,0,0,0,0,0,-1,755,337,0,0
-462,687,0,0,0,0,0,0,0,0,0,-1,762,337,0,0
-455,687,0,0,0,0,0,0,0,0,0,-1,769,337,0,0
-448,687,0,0,0,0,0,0,0,0,0,-1,776,337,0,0
-441,687,0,0,0,0,0,0,0,0,0,-1,783,337,0,0
-434,687,0,0,0,0,0,0,0,0,0,-1,790,337,0,0
-427,687,0,0,0,0,0,0,0,0,0,-1,797,337,0,0
-420,687,0,0,0,0,0,0,0,0,0,-1,804,337,0,0
-413,687,0,0,0,0,0,0,0,0,0,-1,811,337,0,0
-406,687,0,0,0,0,0,0,0,0,0,-1,818,337,0,0
-399,687,0,0,0,0,0,0,0,0,0,-1,825,337,0,0
-392,687,0,0,0,0,0,0,0,0,0,-1,832,337,0,0
-385,687,0,0,0,0,0,0,0,0,0,-1,839,337,0,0
-378,687,0,0,0,0,0,0,0,0,0,-1,846,337,0,0
-371,687,0,0,0,0,0,0,0,0,0,-1,853,337,0,0
-364,687,0,0,0,0,0,0,0,0,0,-1,860,337,0,0
-357,687,0,0,0,0,0,0,0,0,0,-1,867,337,0,0
-350,687,0,0,0,0,0,0,0,0,0,-1,874,337,0,0
-343,687,0,0,0,0,0,0,0,0,0,-1,881,337,0,0
-336,687,0,0,0,0,0,0,0,0,0,-1,888,337,0,0
-329,687,0,0,0,0,0,0,0,0,0,-1,895,337,0,0
-322,687,0,0,0,0,0,0,0,0,0,-1,902,337,0,0
-315,687,0,0,0,0,0,0,0,0,0,-1,909,337,0,0
-308,687,0,0,0,0,0,0,0,0,0,-1,916,337,0,0
-301,687,0,0,0,0,0,0,0,0,0,-1,923,337,0,0
-294,687,0,0,0,0,0,0,0,0,0,-1,930,337,0,0
-287,687,0,0,0,0,0,0,0,0,0,-1,937,337,0,0
-280,687,0,0,0,0,0,0,0,0,0,-1,944,337,0,0
-273,687,0,0,0,0,0,0,0,0,0,-1,951,337,0,0
-266,687,0,0,0,0,0,0,0,0,0,-1,958,337,0,0
-259,687,0,0,0,0,0,0,0,0,0,-1,965,337,0,0
-252,687,0,0,0,0,0,0,0,0,0,-1,972,337,0,0
-245,687,0,0,0,0,0,0,0,0,0,-1,979,337,0,0
-238,687,0,0,0,0,0,0,0,0,0,-1,986,337,0,0
-231,687,0,0,0,0,0,0,0,0,0,-1,993,337,0,0
-224,687,0,0,0,0,0,0,0,0,0,-1,1000,337,0,0
-217,687,0,0,0,0,0,0,0,0,0,-1,1007,337,0,0
-210,687,0,0,0,0,0,0,0,0,0,-1,1014,337,0,0
-203,687,0,0,0,0,0,0,0,0,0,-1,1021,337,0,0
-196,687,0,0,0,0,0,0,0,0,0,-1,1028,337,0,0
-189,687,0,0,0,0,0,0,0,0,0,-1,1035,337,0,0
-182,687,0,0,0,0,0,0,0,0,0,-1,1042,337,0,0
-175,687,0,0,0,0,0,0,0,0,0,-1,1049,337,0,0
-168,687,0,0,0,0,0,0,0,0,0,-1,1056,337,0,0
-161,687,0,0,0,0,0,0,0,0,0,-1,1063,337,0,0
-154,687,0,0,0,0,0,0,0,0,0,-1,1070,337,0,0
-147,687,0,0,0,0,0,0,0,0,0,-1,1077,337,0,0
-140,687,0,0,0,0,0,0,0,0,0,-1,1084,337,0,0
-133,687,7.93958,-37.548,0,0,0,0,0,0,0,-1,1091,337,7.93957,37.548
-126,687,0.688477,-38.7298,0,0,0,0,0,0,0,-1,1098,337,0.688509,38.7298
-119,687,7.70825,-33.9236,0,0,0,0,0,0,0,-1,1105,337,7.70826,33.9236
-112,687,7.99866,-32.2983,0,0,0,0,0,0,0,-1,1112,337,7.99866,32.2983
-105,687,1.3208,-29.8313,0,0,0,0,0,0,0,-1,1119,337,1.3208,29.8313
-98,687,13.7111,-47.5645,0,0,0,0,0,0,0,-1,1126,337,13.711,47.5645
-91,687,7.22083,-41.1667,0,0,0,0,0,0,0,-1,1133,337,7.22079,41.1666
-84,687,0.745117,-35.0345,0,0,0,0,0,0,0,-1,1140,337,0.745155,35.0345
-77,687,-5.74353,-28.9553,0,0,0,0,0,0,0,-1,1147,337,-5.74357,28.9553
-70,687,-11.6842,-19.8473,0,0,0,0,0,0,0,-1,1154,337,-11.6842,19.8473
-63,687,-17.6757,-14.8966,0,0,0,0,0,0,0,-1,1161,337,-17.6756,14.8966
-56,687,-18.104,7.81931,0,0,0,0,0,0,0,-1,1168,337,-18.104,-7.81931
-49,687,-15.6449,-9.94391,0,0,0,0,0,0,0,-1,1175,337,-15.6449,9.94392
-42,687,-4.2019,-0.405609,0,0,0,0,0,0,0,-1,1182,337,-4.20192,0.405614
-35,687,-4.42273,-0.688171,0,0,0,0,0,0,0,-1,1189,337,-4.42276,0.688178
-28,687,-1.14038,-1.39072,0,0,0,0,0,0,0,-1,1196,337,-1.14035,1.3907
-21,687,5.96765,-49.0481,0,0,0,0,0,0,0,-1,1203,337,5.96762,49.0481
-14,687,5.7041,-50.0852,0,0,0,0,0,0,0,-1,1210,337,5.70407,50.0852
-7,687,6.03149,-50.0841,0.0328692,0.0655584,0.0157215,0.0718922,0.0265353,1.18781,0.0419785,0.0466845,1217,337,6.03148,50.0841
0,687,6.43262,-50.1168,0.0331995,0.0671313,0.0159952,0.0734825,0.0268483,1.19282,0.0429347,0.0475949,1224,337,6.43262,50.1168
7,687,6.87634,-50.1469,0.0314408,0.0671431,0.0183182,0.0748697,0.0237143,1.17164,0.0441832,0.0461339,1231,337,6.87636,50.1469
14,687,7.28113,-50.1051,0.0285493,0.0666319,0.0215515,0.0763489,0.0188323,1.14722,0.0459274,0.0460081,1238,337,7.28108,50.1051
21,687,7.6814,-50.0269,0.0241663,0.0642251,0.0255026,0.0766234,0.0117679,1.11828,0.0476466,0.04777,1245,337,7.68142,50.0269
28,687,8.07898,-49.9599,0.0185555,0.0600538,0.0300212,0.0757985,0.00281082,1.08778,0.049622,0.0471073,1252,337,8.07902,49.9599
35,687,8.56689,-49.7524,0.012451,0.0543781,0.0351789,0.074366,-0.0075369,1.0541,0.0522711,0.0478712,1259,337,8.56691,49.7525
42,687,8.93433,-49.5222,0.00588313,0.0459923,0.0411518,0.071716,-0.0198406,1.01213,0.0556166,0.0491155,1266,337,8.93438,49.5222
49,687,9.29163,-49.3755,-0.000249142,0.0365343,0.0468265,0.0684514,-0.0321663,0.972524,0.0593374,0.0493618,1273,337,9.29157,49.3755
56,687,7.64746,-47.6613,-0.00666953,0.0259934,0.052584,0.0647236,-0.0453998,0.935965,0.0639052,0.0477703,1280,337,7.64749,47.6613
63,687,6.85168,-49.916,0,0,0,0,0,0,0,-1,1287,337,6.85165,49.916
70,687,6.87793,-50.0734,0,0,0,0,0,0,0,-1,1294,337,6.87789,50.0734
77,687,6.49927,-46.5727,0,0,0,0,0,0,0,-1,1301,337,6.49928,46.5727
84,687,6.45129,-50.5334,0,0,0,0,0,0,0,-1,1308,337,6.45127,50.5334
91,687,5.26025,-45.9724,-0.00990793,-0.0149544,0.0736702,0.0612822,-0.0861445,0.76828,0.0855194,0.0473985,1315,337,5.26022,45.9724
98,687,4.69104,-45.5997,0,0,0,0,0,0,0,-1,1322,337,4.6911,45.5997
105,687,3.88062,-45.427,-0.00402052,-0.0174343,0.0741691,0.0637443,-0.0851992,0.740307,0.0862895,0.0453831,1329,337,3.8806,45.427
112,687,3.06702,-45.2565,-0.000765193,-0.0148351,0.0726504,0.0651901,-0.0807904,0.737132,0.0844421,0.0461423,1336,337,3.06704,45.2565
119,687,2.25208,-45.0982,0,0,0,0,0,0,0,-1,1343,337,2.25204,45.0982
126,687,6.51978,-45.3766,0,0,0,0,0,0,0,-1,1350,337,6.51977,45.3766
133,687,4.33533,-49.2023,0,0,0,0,0,0,0,-1,1357,337,4.3353,49.2023
140,687,2.20032,-53.0808,0,0,0,0,0,0,0,-1,1364,337,2.20036,53.0808
147,687,4.8125,-48.9825,0,0,0,0,0,0,0,-1,1371,337,4.81245,48.9825
154,687,0.356689,-53.4635,0,0,0,0,0,0,0,-1,1378,337,0.356734,53.4635
161,687,29.3895,-1.90628,0,0,0,0,0,0,0,-1,1385,337,29.3895,1.90628
168,687,29.8564,-1.19434,0,0,0,0,0,0,0,-1,1392,337,29.8564,1.19434
175,687,30.3419,-0.453583,0,0,0,0,0,0,0,-1,1399,337,30.3419,0.45357
182,687,6.67249,0.289917,0,0,0,0,0,0,0,-1,1406,337,6.67247,-0.289916
189,687,7.76062,4.53635,0,0,0,0,0,0,0,-1,1413,337,7.76064,-4.53636
196,687,6.99048,3.2966,0,0,0,0,0,0,0,-1,1420,337,6.99046,-3.2966
203,687,6.36499,2.1445,0,0,0,0,0,0,0,-1,1427,337,6.36499,-2.14451
210,687,6.68066,0.674652,0,0,0,0,0,0,0,-1,1434,337,6.68062,-0.674655
217,687,5.99683,-0.630493,0,0,0,0,0,0,0,-1,1441,337,5.99684,0.630497
224,687,5.52917,0.524902,0,0,0,0,0,0,0,-1,1448,337,5.5292,-0.524915
231,687,5.85583,-1.73651,0,0,0,0,0,0,0,-1,1455,337,5.85577,1.73651
238,687,5.96582,-2.96774,0,0,0,0,0,0,0,-1,1462,337,5.96577,2.96773
245,687,1.28259,2.32211,0,0,0,0,0,0,0,-1,1469,337,1.28258,-2.32211
252,687,1.97278,3.88422,0,0,0,0,0,0,0,-1,1476,337,1.97281,-3.88421
259,687,0,0,0,0,0,0,0,0,0,-1,1483,337,0,0
266,687,0,0,0,0,0,0,0,0,0,-1,1490,337,0,0
273,687,0,0,0,0,0,0,0,0,0,-1,1497,337,0,0
280,687,0,0,0,0,0,0,0,0,0,-1,1504,337,0,0
287,687,0,0,0,0,0,0,0,0,0,-1,1511,337,0,0
294,687,0,0,0,0,0,0,0,0,0,-1,1518,337,0,0
301,687,0,0,0,0,0,0,0,0,0,-1,1525,337,0,0
308,687,0,0,0,0,0,0,0,0,0,-1,1532,337,0,0
315,687,0,0,0,0,0,0,0,0,0,-1,1539,337,0,0
322,687,0,0,0,0,0,0,0,0,0,-1,1546,337,0,0
329,687,0,0,0,0,0,0,0,0,0,-1,1553,337,0,0
336,687,0,0,0,0,0,0,0,0,0,-1,1560,337,0,0
343,687,0,0,0,0,0,0,0,0,0,-1,1567,337,0,0
350,687,0,0,0,0,0,0,0,0,0,-1,1574,337,0,0
357,687,0,0,0,0,0,0,0,0,0,-1,1581,337,0,0
364,687,0,0,0,0,0,0,0,0,0,-1,1588,337,0,0
371,687,0,0,0,0,0,0,0,0,0,-1,1595,337,0,0
378,687,0,0,0,0,0,0,0,0,0,-1,1602,337,0,0
385,687,0,0,0,0,0,0,0,0,0,-1,1609,337,0,0
392,687,0,0,0,0,0,0,0,0,0,-1,1616,337,0,0
399,687,0,0,0,0,0,0,0,0,0,-1,1623,337,0,0
406,687,0,0,0,0,0,0,0,0,0,-1,1630,337,0,0
413,687,0,0,0,0,0,0,0,0,0,-1,1637,337,0,0
420,687,0,0,0,0,0,0,0,0,0,-1,1644,337,0,0
427,687,0,0,0,0,0,0,0,0,0,-1,1651,337,0,0
434,687,0,0,0,0,0,0,0,0,0,-1,1658,337,0,0
441,687,0,0,0,0,0,0,0,0,0,-1,1665,337,0,0
448,687,0,0,0,0,0,0,0,0,0,-1,1672,337,0,0
455,687,0,0,0,0,0,0,0,0,0,-1,1679,337,0,0
462,687,0,0,0,0,0,0,0,0,0,-1,1686,337,0,0
469,687,0,0,0,0,0,0,0,0,0,-1,1693,337,0,0
476,687,0,0,0,0,0,0,0,0,0,-1,1700,337,0,0
483,687,0,0,0,0,0,0,0,0,0,-1,1707,337,0,0
490,687,0,0,0,0,0,0,0,0,0,-1,1714,337,0,0
497,687,0,0,0,0,0,0,0,0,0,-1,1721,337,0,0
504,687,0,0,0,0,0,0,0,0,0,-1,1728,337,0,0
511,687,0,0,0,0,0,0,0,0,0,-1,1735,337,0,0
518,687,0,0,0,0,0,0,0,0,0,-1,1742,337,0,0
525,687,0,0,0,0,0,0,0,0,0,-1,1749,337,0,0
532,687,0,0,0,0,0,0,0,0,0,-1,1756,337,0,0
539,687,0,0,0,0,0,0,0,0,0,-1,1763,337,0,0
546,687,0,0,0,0,0,0,0,0,0,-1,1770,337,0,0
553,687,0,0,0,0,0,0,0,0,0,-1,1777,337,0,0
560,687,0,0,0,0,0,0,0,0,0,-1,1784,337,0,0
567,687,0,0,0,0,0,0,0,0,0,-1,1791,337,0,0
574,687,0,0,0,0,0,0,0,0,0,-1,1798,337,0,0
581,687,0,0,0,0,0,0,0,0,0,-1,1805,337,0,0
588,687,0,0,0,0,0,0,0,0,0,-1,1812,337,0,0
595,687,0,0,0,0,0,0,0,0,0,-1,1819,337,0,0
602,687,0,0,0,0,0,0,0,0,0,-1,1826,337,0,0
609,687,0,0,0,0,0,0,0,0,0,-1,1833,337,0,0
616,687,0,0,0,0,0,0,0,0,0,-1,1840,337,0,0
623,687,0,0,0,0,0,0,0,0,0,-1,1847,337,0,0
630,687,0,0,0,0,0,0,0,0,0,-1,1854,337,0,0
637,687,0,0,0,0,0,0,0,0,0,-1,1861,337,0,0
644,687,0,0,0,0,0,0,0,0,0,-1,1868,337,0,0
651,687,0,0,0,0,0,0,0,0,0,-1,1875,337,0,0
658,687,0,0,0,0,0,0,0,0,0,-1,1882,337,0,0
665,687,0,0,0,0,0,0,0,0,0,-1,1889,337,0,0
672,687,0,0,0,0,0,0,0,0,0,-1,1896,337,0,0
679,687,0,0,0,0,0,0,0,0,0,-1,1903,337,0,0
686,687,0,0,0,0,0,0,0,0,0,-1,1910,337,0,0
693,687,0,0,0,0,0,0,0,0,0,-1,1917,337,0,0
700,687,0,0,0,0,0,0,0,0,0,-1,1924,337,0,0
707,687,0,0,0,0,0,0,0,0,0,-1,1931,337,0,0
714,687,0,0,0,0,0,0,0,0,0,-1,1938,337,0,0
721,687,0,0,0,0,0,0,0,0,0,-1,1945,337,0,0
728,687,0,0,0,0,0,0,0,0,0,-1,1952,337,0,0
735,687,0,0,0,0,0,0,0,0,0,-1,1959,337,0,0
742,687,0,0,0,0,0,0,0,0,0,-1,1966,337,0,0
749,687,0,0,0,0,0,0,0,0,0,-1,1973,337,0,0
756,687,0,0,0,0,0,0,0,0,0,-1,1980,337,0,0
763,687,0,0,0,0,0,0,0,0,0,-1,1987,337,0,0
770,687,0,0,0,0,0,0,0,0,0,-1,1994,337,0,0
777,687,0,0,0,0,0,0,0,0,0,-1,2001,337,0,0
784,687,0,0,0,0,0,0,0,0,0,-1,2008,337,0,0
791,687,0,0,0,0,0,0,0,0,0,-1,2015,337,0,0
798,687,0,0,0,0,0,0,0,0,0,-1,2022,337,0,0
805,687,0,0,0,0,0,0,0,0,0,-1,2029,337,0,0
812,687,0,0,0,0,0,0,0,0,0,-1,2036,337,0,0
-700,680,0,0,0,0,0,0,0,0,0,-1,524,344,0,0
-693,680,0,0,0,0,0,0,0,0,0,-1,531,344,0,0
-686,680,0,0,0,0,0,0,0,0,0,-1,538,344,0,0
-679,680,0,0,0,0,0,0,0,0,0,-1,545,344,0,0
-672,680,0,0,0,0,0,0,0,0,0,-1,552,344,0,0
-665,680,0,0,0,0,0,0,0,0,0,-1,559,344,0,0
-658,680,0,0,0,0,0,0,0,0,0,-1,566,344,0,0
-651,680,0,0,0,0,0,0,0,0,0,-1,573,344,0,0
-644,680,0,0,0,0,0,0,0,0,0,-1,580,344,0,0
-637,680,0,0,0,0,0,0,0,0,0,-1,587,344,0,0
-630,680,0,0,0,0,0,0,0,0,0,-1,594,344,0,0
-623,680,0,0,0,0,0,0,0,0,0,-1,601,344,0,0
-616,680,0,0,0,0,0,0,0,0,0,-1,608,344,0,0
-609,680,0,0,0,0,0,0,0,0,0,-1,615,344,0,0
-602,680,0,0,0,0,0,0,0,0,0,-1,622,344,0,0
-595,680,0,0,0,0,0,0,0,0,0,-1,629,344,0,0
-588,680,0,0,0,0,0,0,0,0,0,-1,636,344,0,0
-581,680,0,0,0,0,0,0,0,0,0,-1,643,344,0,0
-574,680,0,0,0,0,0,0,0,0,0,-1,650,344,0,0
-567,680,0,0,0,0,0,0,0,0,0,-1,657,344,0,0
-560,680,0,0,0,0,0,0,0,0,0,-1,664,344,0,0
-553,680,0,0,0,0,0,0,0,0,0,-1,671,344,0,0
-546,680,0,0,0,0,0,0,0,0,0,-1,678,344,0,0
-539,680,0,0,0,0,0,0,0,0,0,-1,685,344,0,0
-532,680,0,0,0,0,0,0,0,0,0,-1,692,344,0,0
-525,680,0,0,0,0,0,0,0,0,0,-1,699,344,0,0
-518,680,0,0,0,0,0,0,0,0,0,-1,706,344,0,0
-511,680,0,0,0,0,0,0,0,0,0,-1,713,344,0,0
-504,680,0,0,0,0,0,0,0,0,0,-1,720,344,0,0
-497,680,0,0,0,0,0,0,0,0,0,-1,727,344,0,0
-490,680,0,0,0,0,0,0,0,0,0,-1,734,344,0,0
-483,680,0,0,0,0,0,0,0,0,0,-1,741,344,0,0
-476,680,0,0,0,0,0,0,0,0,0,-1,748,344,0,0
-469,680,0,0,0,0,0,0,0,0,0,-1,755,344,0,0
-462,680,0,0,0,0,0,0,0,0,0,-1,762,344,0,0
-455,680,0,0,0,0,0,0,0,0,0,-1,769,344,0,0
-448,680,0,0,0,0,0,0,0,0,0,-1,776,344,0,0
-441,680,0,0,0,0,0,0,0,0,0,-1,783,344,0,0
-434,680,0,0,0,0,0,0,0,0,0,-1,790,344,0,0
-427,680,0,0,0,0,0,0,0,0,0,-1,797,344,0,0
-420,680,0,0,0,0,0,0,0,0,0,-1,804,344,0,0
-413,680,0,0,0,0,0,0,0,0,0,-1,811,344,0,0
-406,680,0,0,0,0,0,0,0,0,0,-1,818,344,0,0
-399,680,0,0,0,0,0,0,0,0,0,-1,825,344,0,0
-392,680,0,0,0,0,0,0,0,0,0,-1,832,344,0,0
-385,680,0,0,0,0,0,0,0,0,0,-1,839,344,0,0
-378,680,0,0,0,0,0,0,0,0,0,-1,846,344,0,0
-371,680,0,0,0,0,0,0,0,0,0,-1,853,344,0,0
-364,680,0,0,0,0,0,0,0,0,0,-1,860,344,0,0
-357,680,0,0,0,0,0,0,0,0,0,-1,867,344,0,0
-350,680,0,0,0,0,0,0,0,0,0,-1,874,344,0,0
-343,680,0,0,0,0,0,0,0,0,0,-1,881,344,0,0
-336,680,0,0,0,0,0,0,0,0,0,-1,888,344,0,0
-329,680,0,0,0,0,0,0,0,0,0,-1,895,344,0,0
-322,680,0,0,0,0,0,0,0,0,0,-1,902,344,0,0
-315,680,0,0,0,0,0,0,0,0,0,-1,909,344,0,0
-308,680,0,0,0,0,0,0,0,0,0,-1,916,344,0,0
-301,680,0,0,0,0,0,0,0,0,0,-1,923,344,0,0
-294,680,0,0,0,0,0,0,0,0,0,-1,930,344,0,0
-287,680,0,0,0,0,0,0,0,0,0,-1,937,344,0,0
-280,680,0,0,0,0,0,0,0,0,0,-1,944,344,0,0
-273,680,0,0,0,0,0,0,0,0,0,-1,951,344,0,0
-266,680,0,0,0,0,0,0,0,0,0,-1,958,344,0,0
-259,680,0,0,0,0,0,0,0,0,0,-1,965,344,0,0
-252,680,0,0,0,0,0,0,0,0,0,-1,972,344,0,0
-245,680,0,0,0,0,0,0,0,0,0,-1,979,344,0,0
-238,680,0,0,0,0,0,0,0,0,0,-1,986,344,0,0
-231,680,0,0,0,0,0,0,0,0,0,-1,993,344,0,0
-224,680,0,0,0,0,0,0,0,0,0,-1,1000,344,0,0
-217,680,0,0,0,0,0,0,0,0,0,-1,1007,344,0,0
-210,680,0,0,0,0,0,0,0,0,0,-1,1014,344,0,0
-203,680,0,0,0,0,0,0,0,0,0,-1,1021,344,0,0
-196,680,0,0,0,0,0,0,0,0,0,-1,1028,344,0,0
-189,680,0,0,0,0,0,0,0,0,0,-1,1035,344,0,0
-182,680,0,0,0,0,0,0,0,0,0,-1,1042,344,0,0
-175,680,0,0,0,0,0,0,0,0,0,-1,1049,344,0,0
-168,680,0,0,0,0,0,0,0,0,0,-1,1056,344,0,0
-161,680,0,0,0,0,0,0,0,0,0,-1,1063,344,0,0
-154,680,2.25244,-29.1442,0,0,0,0,0,0,0,-1,1070,344,2.25241,29.1442
-147,680,9.29614,-33.0369,0,0,0,0,0,0,0,-1,1077,344,9.29612,33.0369
-140,680,6.98022,-36.6899,0,0,0,0,0,0,0,-1,1084,344,6.98023,36.6899
-133,680,1.85693,-39.7233,0,0,0,0,0,0,0,-1,1091,344,1.85699,39.7233
-126,680,2.30017,-38.3751,0,0,0,0,0,0,0,-1,1098,344,2.30011,38.3751
-119,680,2.74329,-37.0269,0,0,0,0,0,0,0,-1,1105,344,2.74323,37.0269
-112,680,7.7467,-32.4407,0,0,0,0,0,0,0,-1,1112,344,7.74668,32.4407
-105,680,20.6371,-48.461,0,0,0,0,0,0,0,-1,1119,344,20.6371,48.461
-98,680,14.2684,-41.9997,0,0,0,0,0,0,0,-1,1126,344,14.2685,41.9997
-91,680,7.89648,-35.5147,0,0,0,0,0,0,0,-1,1133,344,7.8965,35.5147
-84,680,1.47168,-29.471,0,0,0,0,0,0,0,-1,1140,344,1.47163,29.471
-77,680,-4.95337,-23.3355,0,0,0,0,0,0,0,-1,1147,344,-4.9534,23.3356
-70,680,-11.5099,-17.4337,0,0,0,0,0,0,0,-1,1154,344,-11.5098,17.4338
-63,680,-17.2391,-1.43134,0,0,0,0,0,0,0,-1,1161,344,-17.2392,1.43133
-56,680,-6.96912,-8.83356,0,0,0,0,0,0,0,-1,1168,344,-6.96907,8.83354
-49,680,-6.7677,-2.24063,0,0,0,0,0,0,0,-1,1175,344,-6.76772,2.24063
-42,680,-1.02368,0.618805,0,0,0,0,0,0,0,-1,1182,344,-1.0237,-0.618797
-35,680,-0.947876,-0.942719,0,0,0,0,0,0,0,-1,1189,344,-0.947842,0.942731
-28,680,-1.46118,-1.10574,0,0,0,0,0,0,0,-1,1196,344,-1.4612,1.10575
-21,680,6.24597,-49.1804,0,0,0,0,0,0,0,-1,1203,344,6.24602,49.1804
-14,680,7.59155,-50.3621,0,0,0,0,0,0,0,-1,1210,344,7.59152,50.3621
-7,680,7.57019,-50.7041,0,0,0,0,0,0,0,-1,1217,344,7.57018,50.7041
0,680,7.44031,-51.1749,0,0,0,0,0,0,0,-1,1224,344,7.44027,51.1749
7,680,6.81555,-50.7201,0,0,0,0,0,0,0,-1,1231,344,6.8155,50.7201
14,680,7.1344,-50.6986,0.0202729,0.059881,0.0167989,0.0660462,0.0141077,1.21906,0.0401628,0.0436219,1238,344,7.13441,50.6986
21,680,7.38696,-50.8744,0.0170885,0.0587878,0.0200169,0.0668411,0.00903512,1.18829,0.0418752,0.0488726,1245,344,7.387,50.8744
28,680,7.40674,-51.2431,0,0,0,0,0,0,0,-1,1252,344,7.40673,51.2431
35,680,8.22595,-50.473,0,0,0,0,0,0,0,-1,1259,344,8.22593,50.473
42,680,8.60034,-50.2354,0,0,0,0,0,0,0,-1,1266,344,8.60038,50.2354
49,680,6.69592,-51.5835,-0.0015878,0.0390055,0.0372109,0.0610953,-0.0236775,1.03507,0.0505078,0.043276,1273,344,6.69595,51.5835
56,680,6.69299,-51.037,-0.00687592,0.0306337,0.0418123,0.0577048,-0.033947,0.996221,0.0535045,0.043569,1280,344,6.69297,51.037
63,680,6.76294,-50.8337,-0.00833885,0.0223253,0.0473882,0.0568,-0.0428135,0.941855,0.0577006,0.043089,1287,344,6.76293,50.8337
70,680,6.7522,-50.9207,-0.00922507,0.0132846,0.0514375,0.0546842,-0.0506247,0.893104,0.0608152,0.0397521,1294,344,6.75225,50.9207
77,680,6.81104,-50.9151,0,0,0,0,0,0,0,-1,1301,344,6.811,50.9151
84,680,6.43494,-51.0766,0,0,0,0,0,0,0,-1,1308,344,6.43499,51.0766
91,680,6.05896,-51.238,0,0,0,0,0,0,0,-1,1315,344,6.05899,51.238
98,680,3.90857,-45.6539,0,0,0,0,0,0,0,-1,1322,344,3.90863,45.6539
105,680,3.23523,-45.5158,-0.00529326,-0.00777485,0.0588712,0.0523502,-0.0654183,0.774861,0.0681331,0.0459477,1329,344,3.23528,45.5159
112,680,2.42639,-45.299,-0.00258593,-0.00615921,0.0573936,0.0530488,-0.0617939,0.769838,0.0663685,0.0477926,1336,344,2.42645,45.299
119,680,1.60071,-45.3334,0,0,0,0,0,0,0,-1,1343,344,1.60076,45.3334
126,680,5.51013,-50.151,0,0,0,0,0,0,0,-1,1350,344,5.51019,50.151
133,680,4.98779,-49.9935,0,0,0,0,0,0,0,-1,1357,344,4.98779,49.9935
140,680,5.15234,-49.8294,0,0,0,0,0,0,0,-1,1364,344,5.15239,49.8294
147,680,4.95435,-49.6583,0,0,0,0,0,0,0,-1,1371,344,4.95429,49.6583
154,680,4.9613,-48.8953,0,0,0,0,0,0,0,-1,1378,344,4.9613,48.8953
161,680,4.76038,-47.879,0,0,0,0,0,0,0,-1,1385,344,4.76037,47.879
168,680,29.4142,-2.51651,0,0,0,0,0,0,0,-1,1392,344,29.4142,2.51652
175,680,6.66541,0.942078,0,0,0,0,0,0,0,-1,1399,344,6.66538,-0.942088
182,680,6.52917,0.532379,0,0,0,0,0,0,0,-1,1406,344,6.52922,-0.532385
189,680,7.55884,4.77695,0,0,0,0,0,0,0,-1,1413,344,7.55886,-4.77694
196,680,6.55627,3.35254,0,0,0,0,0,0,0,-1,1420,344,6.55622,-3.35255
203,680,5.7334,1.90753,0,0,0,0,0,0,0,-1,1427,344,5.73341,-1.90754
210,680,5.27515,0.493622,0,0,0,0,0,0,0,-1,1434,344,5.27514,-0.493632
217,680,6.56384,-0.374176,0,0,0,0,0,0,0,-1,1441,344,6.56379,0.374176
224,680,3.9491,-0.640228,0,0,0,0,0,0,0,-1,1448,344,3.94908,0.64024
231,680,4.24866,-1.96881,0,0,0,0,0,0,0,-1,1455,344,4.2486,1.96882
238,680,4.29333,-3.23984,0,0,0,0,0,0,0,-1,1462,344,4.29332,3.23984
245,680,2.44397,0.985382,0,0,0,0,0,0,0,-1,1469,344,2.44402,-0.985394
252,680,3.07349,2.18951,0,0,0,0,0,0,0,-1,1476,344,3.0735,-2.18952
259,680,2.82971,1.30682,0,0,0,0,0,0,0,-1,1483,344,2.82972,-1.30684
266,680,2.67554,1.44067,0,0,0,0,0,0,0,-1,1490,344,2.67551,-1.44066
273,680,2.46411,1.54666,0,0,0,0,0,0,0,-1,1497,344,2.46407,-1.54666
280,680,0,0,0,0,0,0,0,0,0,-1,1504,344,0,0
287,680,0,0,0,0,0,0,0,0,0,-1,1511,344,0,0
294,680,0,0,0,0,0,0,0,0,0,-1,1518,344,0,0
301,680,0,0,0,0,0,0,0,0,0,-1,1525,344,0,0
308,680,0,0,0,0,0,0,0,0,0,-1,1532,344,0,0
315,680,0,0,0,0,0,0,0,0,0,-1,1539,344,0,0
322,680,0,0,0,0,0,0,0,0,0,-1,1546,344,0,0
329,680,0,0,0,0,0,0,0,0,0,-1,1553,344,0,0
336,680,0,0,0,0,0,0,0,0,0,-1,1560,344,0,0
343,680,0,0,0,0,0,0,0,0,0,-1,1567,344,0,0
350,680,0,0,0,0,0,0,0,0,0,-1,1574,344,0,0
357,680,0,0,0,0,0,0,0,0,0,-1,1581,344,0,0
364,680,0,0,0,0,0,0,0,0,0,-1,1588,344,0,0
371,680,0,0,0,0,0,0,0,0,0,-1,1595,344,0,0
378,680,0,0,0,0,0,0,0,0,0,-1,1602,344,0,0
385,680,0,0,0,0,0,0,0,0,0,-1,1609,344,0,0
392,680,0,0,0,0,0,0,0,0,0,-1,1616,344,0,0
399,680,0,0,0,0,0,0,0,0,0,-1,1623,344,0,0
406,680,0,0,0,0,0,0,0,0,0,-1,1630,344,0,0
413,680,0,0,0,0,0,0,0,0,0,-1,1637,344,0,0
420,680,0,0,0,0,0,0,0,0,0,-1,1644,344,0,0
427,680,0,0,0,0,0,0,0,0,0,-1,1651,344,0,0
434,680,0,0,0,0,0,0,0,0,0,-1,1658,344,0,0
441,680,0,0,0,0,0,0,0,0,0,-1,1665,344,0,0
448,680,0,0,0,0,0,0,0,0,0,-1,1672,344,0,0
455,680,0,0,0,0,0,0,0,0,0,-1,1679,344,0,0
462,680,0,0,0,0,0,0,0,0,0,-1,1686,344,0,0
469,680,0,0,0,0,0,0,0,0,0,-1,1693,344,0,0
476,680,0,0,0,0,0,0,0,0,0,-1,1700,344,0,0
483,680,0,0,0,0,0,0,0,0,0,-1,1707,344,0,0
490,680,0,0,0,0,0,0,0,0,0,-1,1714,344,0,0
497,680,0,0,0,0,0,0,0,0,0,-1,1721,344,0,0
504,680,0,0,0,0,0,0,0,0,0,-1,1728,344,0,0
511,680,0,0,0,0,0,0,0,0,0,-1,1735,344,0,0
518,680,0,0,0,0,0,0,0,0,0,-1,1742,344,0,0
525,680,0,0,0,0,0,0,0,0,0,-1,1749,344,0,0
532,680,0,0,0,0,0,0,0,0,0,-1,1756,344,0,0
539,680,0,0,0,0,0,0,0,0,0,-1,1763,344,0,0
546,680,0,0,0,0,0,0,0,0,0,-1,1770,344,0,0
553,680,0,0,0,0,0,0,0,0,0,-1,1777,344,0,0
560,680,0,0,0,0,0,0,0,0,0,-1,1784,344,0,0
567,680,0,0,0,0,0,0,0,0,0,-1,1791,344,0,0
574,680,0,0,0,0,0,0,0,0,0,-1,1798,344,0,0
581,680,0,0,0,0,0,0,0,0,0,-1,1805,344,0,0
588,680,0,0,0,0,0,0,0,0,0,-1,1812,344,0,0
595,680,0,0,0,0,0,0,0,0,0,-1,1819,344,0,0
602,680,0,0,0,0,0,0,0,0,0,-1,1826,344,0,0
609,680,0,0,0,0,0,0,0,0,0,-1,1833,344,0,0
616,680,0,0,0,0,0,0,0,0,0,-1,1840,344,0,0
623,680,0,0,0,0,0,0,0,0,0,-1,1847,344,0,0
630,680,0,0,0,0,0,0,0,0,0,-1,1854,344,0,0
637,680,0,0,0,0,0,0,0,0,0,-1,1861,344,0,0
644,680,0,0,0,0,0,0,0,0,0,-1,1868,344,0,0
651,680,0,0,0,0,0,0,0,0,0,-1,1875,344,0,0
658,680,0,0,0,0,0,0,0,0,0,-1,1882,344,0,0
665,680,0,0,0,0,0,0,0,0,0,-1,1889,344,0,0
672,680,0,0,0,0,0,0,0,0,0,-1,1896,344,0,0
679,680,0,0,0,0,0,0,0,0,0,-1,1903,344,0,0
686,680,0,0,0,0,0,0,0,0,0,-1,1910,344,0,0
693,680,0,0,0,0,0,0,0,0,0,-1,1917,344,0,0
700,680,0,0,0,0,0,0,0,0,0,-1,1924,344,0,0
707,680,0,0,0,0,0,0,0,0,0,-1,1931,344,0,0
714,680,0,0,0,0,0,0,0,0,0,-1,1938,344,0,0
721,680,0,0,0,0,0,0,0,0,0,-1,1945,344,0,0
728,680,0,0,0,0,0,0,0,0,0,-1,1952,344,0,0
735,680,0,0,0,0,0,0,0,0,0,-1,1959,344,0,0
742,680,0,0,0,0,0,0,0,0,0,-1,1966,344,0,0
749,680,0,0,0,0,0,0,0,0,0,-1,1973,344,0,0
756,680,0,0,0,0,0,0,0,0,0,-1,1980,344,0,0
763,680,0,0,0,0,0,0,0,0,0,-1,1987,344,0,0
770,680,0,0,0,0,0,0,0,0,0,-1,1994,344,0,0
777,680,0,0,0,0,0,0,0,0,0,-1,2001,344,0,0
784,680,0,0,0,0,0,0,0,0,0,-1,2008,344,0,0
791,680,0,0,0,0,0,0,0,0,0,-1,2015,344,0,0
798,680,0,0,0,0,0,0,0,0,0,-1,2022,344,0,0
805,680,0,0,0,0,0,0,0,0,0,-1,2029,344,0,0
812,680,0,0,0,0,0,0,0,0,0,-1,2036,344,0,0
-700,673,0,0,0,0,0,0,0,0,0,-1,524,351,0,0
-693,673,0,0,0,0,0,0,0,0,0,-1,531,351,0,0
-686,673,0,0,0,0,0,0,0,0,0,-1,538,351,0,0
-679,673,0,0,0,0,0,0,0,0,0,-1,545,351,0,0
-672,673,0,0,0,0,0,0,0,0,0,-1,552,351,0,0
-665,673,0,0,0,0,0,0,0,0,0,-1,559,351,0,0
-658,673,0,0,0,0,0,0,0,0,0,-1,566,351,0,0
-651,673,0,0,0,0,0,0,0,0,0,-1,573,351,0,0
-644,673,0,0,0,0,0,0,0,0,0,-1,580,351,0,0
-637,673,0,0,0,0,0,0,0,0,0,-1,587,351,0,0
-630,673,0,0,0,0,0,0,0,0,0,-1,594,351,0,0
-623,673,0,0,0,0,0,0,0,0,0,-1,601,351,0,0
-616,673,0,0,0,0,0,0,0,0,0,-1,608,351,0,0
-609,673,0,0,0,0,0,0,0,0,0,-1,615,351,0,0
-602,673,0,0,0,0,0,0,0,0,0,-1,622,351,0,0
-595,673,0,0,0,0,0,0,0,0,0,-1,629,351,0,0
-588,673,0,0,0,0,0,0,0,0,0,-1,636,351,0,0
-581,673,0,0,0,0,0,0,0,0,0,-1,643,351,0,0
-574,673,0,0,0,0,0,0,0,0,0,-1,650,351,0,0
-567,673,0,0,0,0,0,0,0,0,0,-1,657,351,0,0
-560,673,0,0,0,0,0,0,0,0,0,-1,664,351,0,0
-553,673,0,0,0,0,0,0,0,0,0,-1,671,351,0,0
-546,673,0,0,0,0,0,0,0,0,0,-1,678,351,0,0
-539,673,0,0,0,0,0,0,0,0,0,-1,685,351,0,0
-532,673,0,0,0,0,0,0,0,0,0,-1,692,351,0,0
-525,673,0,0,0,0,0,0,0,0,0,-1,699,351,0,0
-518,673,0,0,0,0,0,0,0,0,0,-1,706,351,0,0
-511,673,0,0,0,0,0,0,0,0,0,-1,713,351,0,0
-504,673,0,0,0,0,0,0,0,0,0,-1,720,351,0,0
-497,673,0,0,0,0,0,0,0,0,0,-1,727,351,0,0
-490,673,0,0,0,0,0,0,0,0,0,-1,734,351,0,0
-483,673,0,0,0,0,0,0,0,0,0,-1,741,351,0,0
-476,673,0,0,0,0,0,0,0,0,0,-1,748,351,0,0
-469,673,0,0,0,0,0,0,0,0,0,-1,755,351,0,0
-462,673,0,0,0,0,0,0,0,0,0,-1,762,351,0,0
-455,673,0,0,0,0,0,0,0,0,0,-1,769,351,0,0
-448,673,0,0,0,0,0,0,0,0,0,-1,776,351,0,0
-441,673,0,0,0,0,0,0,0,0,0,-1,783,351,0,0
-434,673,0,0,0,0,0,0,0,0,0,-1,790,351,0,0
-427,673,0,0,0,0,0,0,0,0,0,-1,797,351,0,0
-420,673,0,0,0,0,0,0,0,0,0,-1,804,351,0,0
-413,673,0,0,0,0,0,0,0,0,0,-1,811,351,0,0
-406,673,0,0,0,0,0,0,0,0,0,-1,818,351,0,0
-399,673,0,0,0,0,0,0,0,0,0,-1,825,351,0,0
-392,673,0,0,0,0,0,0,0,0,0,-1,832,351,0,0
-385,673,0,0,0,0,0,0,0,0,0,-1,839,351,0,0
-378,673,0,0,0,0,0,0,0,0,0,-1,846,351,0,0
-371,673,0,0,0,0,0,0,0,0,0,-1,853,351,0,0
-364,673,0,0,0,0,0,0,0,0,0,-1,860,351,0,0
-357,673,0,0,0,0,0,0,0,0,0,-1,867,351,0,0
-350,673,0,0,0,0,0,0,0,0,0,-1,874,351,0,0
-343,673,0,0,0,0,0,0,0,0,0,-1,881,351,0,0
-336,673,0,0,0,0,0,0,0,0,0,-1,888,351,0,0
-329,673,0,0,0,0,0,0,0,0,0,-1,895,351,0,0
-322,673,0,0,0,0,0,0,0,0,0,-1,902,351,0,0
-315,673,0,0,0,0,0,0,0,0,0,-1,909,351,0,0
-308,673,0,0,0,0,0,0,0,0,0,-1,916,351,0,0
-301,673,0,0,0,0,0,0,0,0,0,-1,923,351,0,0
-294,673,0,0,0,0,0,0,0,0,0,-1,930,351,0,0
-287,673,0,0,0,0,0,0,0,0,0,-1,937,351,0,0
-280,673,0,0,0,0,0,0,0,0,0,-1,944,351,0,0
-273,673,0,0,0,0,0,0,0,0,0,-1,951,351,0,0
-266,673,0,0,0,0,0,0,0,0,0,-1,958,351,0,0
-259,673,0,0,0,0,0,0,0,0,0,-1,965,351,0,0
-252,673,0,0,0,0,0,0,0,0,0,-1,972,351,0,0
-245,673,0,0,0,0,0,0,0,0,0,-1,979,351,0,0
-238,673,0,0,0,0,0,0,0,0,0,-1,986,351,0,0
-231,673,0,0,0,0,0,0,0,0,0,-1,993,351,0,0
-224,673,0,0,0,0,0,0,0,0,0,-1,1000,351,0,0
-217,673,0,0,0,0,0,0,0,0,0,-1,1007,351,0,0
-210,673,0,0,0,0,0,0,0,0,0,-1,1014,351,0,0
-203,673,0,0,0,0,0,0,0,0,0,-1,1021,351,0,0
-196,673,0,0,0,0,0,0,0,0,0,-1,1028,351,0,0
-189,673,0,0,0,0,0,0,0,0,0,-1,1035,351,0,0
-182,673,0,0,0,0,0,0,0,0,0,-1,1042,351,0,0
-175,673,7.10449,-31.8279,0,0,0,0,0,0,0,-1,1049,351,7.10448,31.8279
-168,673,7.33081,-32.7122,0,0,0,0,0,0,0,-1,1056,351,7.33085,32.7122
-161,673,7.8938,-33.5352,0,0,0,0,0,0,0,-1,1063,351,7.89385,33.5352
-154,673,8.80566,-35.3518,0,0,0,0,0,0,0,-1,1070,351,8.80563,35.3518
-147,673,2.89221,-37.7351,0,0,0,0,0,0,0,-1,1077,351,2.89224,37.7351
-140,673,3.35046,-37.7151,0,0,0,0,0,0,0,-1,1084,351,3.35046,37.715
-133,673,3.35339,-39.0288,0,0,0,0,0,0,0,-1,1091,351,3.35342,39.0288
-126,673,3.7533,-38.0453,0,0,0,0,0,0,0,-1,1098,351,3.7533,38.0453
-119,673,4.1532,-37.0618,0,0,0,0,0,0,0,-1,1105,351,4.15318,37.0618
-112,673,7.27234,-32.5801,0,0,0,0,0,0,0,-1,1112,351,7.27231,32.5801
-105,673,21.1144,-43.3143,0,0,0,0,0,0,0,-1,1119,351,21.1143,43.3143
-98,673,14.8014,-36.7519,0,0,0,0,0,0,0,-1,1126,351,14.8014,36.7519
-91,673,8.54944,-29.9639,0,0,0,0,0,0,0,-1,1133,351,8.54949,29.9639
-84,673,2.17102,-24.3204,0,0,0,0,0,0,0,-1,1140,351,2.17107,24.3204
-77,673,-4.25378,-18.8346,0,0,0,0,0,0,0,-1,1147,351,-4.25381,18.8346
-70,673,-10.7933,-13.6681,0,0,0,0,0,0,0,-1,1154,351,-10.7934,13.6681
-63,673,-17.3896,-8.24469,0,0,0,0,0,0,0,-1,1161,351,-17.3896,8.2447
-56,673,-18.0282,2.79053,0,0,0,0,0,0,0,-1,1168,351,-18.0283,-2.79052
-49,673,-0.926758,-0.115448,0,0,0,0,0,0,0,-1,1175,351,-0.926732,0.115444
-42,673,-1.15015,0.289917,0,0,0,0,0,0,0,-1,1182,351,-1.15017,-0.289932
-35,673,-0.919556,-1.00711,0,0,0,0,0,0,0,-1,1189,351,-0.919514,1.00711
-28,673,5.28918,-39.2331,0,0,0,0,0,0,0,-1,1196,351,5.28924,39.2331
-21,673,7.76855,-50.4407,0,0,0,0,0,0,0,-1,1203,351,7.7685,50.4407
-14,673,7.43884,-50.7014,0.0140709,0.0455938,0.00683699,0.0470128,0.0126519,1.36616,0.0280909,0.0459768,1210,351,7.4389,50.7015
-7,673,7.4165,-51.0017,0.0152375,0.046793,0.00729397,0.0483974,0.0136331,1.35428,0.0288164,0.0451392,1217,351,7.41652,51.0017
0,673,7.29932,-51.354,0.0156622,0.0491539,0.00832029,0.051107,0.0137091,1.34023,0.0305449,0.0485623,1224,351,7.29927,51.354
7,673,7.11072,-51.2525,0,0,0,0,0,0,0,-1,1231,351,7.11067,51.2525
14,673,7.16772,-51.1503,0.0136691,0.0516509,0.0126367,0.0554709,0.00984907,1.27723,0.034174,0.0453123,1238,351,7.16775,51.1503
21,673,7.13843,-51.4716,0.0114702,0.0514786,0.0151944,0.0565949,0.00635389,1.246,0.0358004,0.0352242,1245,351,7.13842,51.4716
28,673,7.12561,-51.6259,0.00854968,0.0501333,0.0180925,0.056903,0.00177994,1.21275,0.0373562,0.0356014,1252,351,7.12559,51.6259
35,673,7.15588,-51.4372,0,0,0,0,0,0,0,-1,1259,351,7.15592,51.4372
42,673,6.76318,-51.7058,0.0014595,0.043414,0.0250932,0.0551432,-0.0102697,1.13355,0.0406204,0.0379573,1266,351,6.76313,51.7058
49,673,6.66772,-51.8528,-0.00223859,0.0382494,0.0286072,0.053051,-0.0170401,1.09332,0.0422099,0.0235442,1273,351,6.66771,51.8528
56,673,6.63269,-51.8566,-0.00644357,0.0319069,0.0321674,0.0501808,-0.0247174,1.05417,0.0440676,0.0179819,1280,351,6.63266,51.8566
63,673,6.67188,-51.641,-0.00772529,0.0252014,0.0365317,0.0488081,-0.0313319,0.9971,0.0466341,0.0231783,1287,351,6.67181,51.641
70,673,6.57568,-51.5454,-0.00851123,0.0176759,0.0398172,0.0464972,-0.0373325,0.94425,0.0484954,0.0360681,1294,351,6.57569,51.5454
77,673,6.80469,-51.2114,0,0,0,0,0,0,0,-1,1301,351,6.80473,51.2114
84,673,6.39929,-51.4841,0,0,0,0,0,0,0,-1,1308,351,6.3993,51.4841
91,673,6.30225,-51.9126,0,0,0,0,0,0,0,-1,1315,351,6.30228,51.9126
98,673,6.10474,-51.8771,0,0,0,0,0,0,0,-1,1322,351,6.10474,51.8771
105,673,5.81335,-51.6997,0,0,0,0,0,0,0,-1,1329,351,5.81333,51.6997
112,673,1.73987,-45.4412,0,0,0,0,0,0,0,-1,1336,351,1.73992,45.4412
119,673,5.82141,-50.7289,0,0,0,0,0,0,0,-1,1343,351,5.82136,50.7289
126,673,5.63354,-50.6097,-0.00146845,0.00849271,0.0402399,0.0440591,-0.0370349,0.846971,0.0468782,0.0453123,1350,351,5.63355,50.6097
133,673,5.45068,-50.4742,-0.000816731,0.0143142,0.0373802,0.0448869,-0.0313894,0.885246,0.0442673,0.0474132,1357,351,5.45063,50.4743
140,673,5.38,-50.3874,-0.00094093,0.0194749,0.0342267,0.0449835,-0.0264495,0.930321,0.041702,0.0458011,1364,351,5.38005,50.3874
147,673,5.18896,-50.197,-0.001311,0.0247727,0.0306691,0.0450578,-0.0215961,0.986436,0.0392692,0.0461072,1371,351,5.18898,50.197
154,673,5.19824,-49.5652,-0.0027163,0.0287643,0.0277886,0.0449609,-0.0189129,1.04308,0.0378859,0.0428772,1378,351,5.19822,49.5652
161,673,5.11316,-49.076,0,0,0,0,0,0,0,-1,1385,351,5.11312,49.076
168,673,6.87061,1.83954,0,0,0,0,0,0,0,-1,1392,351,6.87063,-1.83953
175,673,6.6228,1.1459,0,0,0,0,0,0,0,-1,1399,351,6.62276,-1.14591
182,673,6.37244,0.796112,0,0,0,0,0,0,0,-1,1406,351,6.3724,-0.796102
189,673,6.12097,0.265472,0,0,0,0,0,0,0,-1,1413,351,6.121,-0.265482
196,673,6.02173,3.12717,0,0,0,0,0,0,0,-1,1420,351,6.02176,-3.12717
203,673,5.04456,1.6351,0,0,0,0,0,0,0,-1,1427,351,5.04455,-1.63509
210,673,4.79224,0.447479,0,0,0,0,0,0,0,-1,1434,351,4.79229,-0.447469
217,673,2.01648,0.972687,0,0,0,0,0,0,0,-1,1441,351,2.01644,-0.972691
224,673,2.3689,-1.80539,0,0,0,0,0,0,0,-1,1448,351,2.36896,1.80539
231,673,2.65857,-2.18497,0,0,0,0,0,0,0,-1,1455,351,2.65852,2.18496
238,673,3.77844,-2.06088,0,0,0,0,0,0,0,-1,1462,351,3.77839,2.06088
245,673,3.5376,-0.190399,0,0,0,0,0,0,0,-1,1469,351,3.53759,0.1904
252,673,3.80518,0.55603,0,0,0,0,0,0,0,-1,1476,351,3.80519,-0.556022
259,673,3.88562,1.29617,0,0,0,0,0,0,0,-1,1483,351,3.88562,-1.29618
266,673,4.22424,2.04834,0,0,0,0,0,0,0,-1,1490,351,4.22429,-2.04834
273,673,6.07886,0.385895,0,0,0,0,0,0,0,-1,1497,351,6.0789,-0.385906
280,673,6.97534,-0.0820007,0,0,0,0,0,0,0,-1,1504,351,6.97536,0.0820122
287,673,7.66968,-0.348541,0,0,0,0,0,0,0,-1,1511,351,7.66969,0.348534
294,673,8.20996,0.28537,0,0,0,0,0,0,0,-1,1518,351,8.20993,-0.28536
301,673,0,0,0,0,0,0,0,0,0,-1,1525,351,0,0
308,673,0,0,0,0,0,0,0,0,0,-1,1532,351,0,0
315,673,0,0,0,0,0,0,0,0,0,-1,1539,351,0,0
322,673,0,0,0,0,0,0,0,0,0,-1,1546,351,0,0
329,673,0,0,0,0,0,0,0,0,0,-1,1553,351,0,0
336,673,0,0,0,0,0,0,0,0,0,-1,1560,351,0,0
343,673,0,0,0,0,0,0,0,0,0,-1,1567,351,0,0
350,673,0,0,0,0,0,0,0,0,0,-1,1574,351,0,0
357,673,0,0,0,0,0,0,0,0,0,-1,1581,351,0,0
364,673,0,0,0,0,0,0,0,0,0,-1,1588,351,0,0
371,673,0,0,0,0,0,0,0,0,0,-1,1595,351,0,0
378,673,0,0,0,0,0,0,0,0,0,-1,1602,351,0,0
385,673,0,0,0,0,0,0,0,0,0,-1,1609,351,0,0
392,673,0,0,0,0,0,0,0,0,0,-1,1616,351,0,0
399,673,0,0,0,0,0,0,0,0,0,-1,1623,351,0,0
406,673,0,0,0,0,0,0,0,0,0,-1,1630,351,0,0
413,673,0,0,0,0,0,0,0,0,0,-1,1637,351,0,0
420,673,0,0,0,0,0,0,0,0,0,-1,1644,351,0,0
427,673,0,0,0,0,0,0,0,0,0,-1,1651,351,0,0
434,673,0,0,0,0,0,0,0,0,0,-1,1658,351,0,0
441,673,0,0,0,0,0,0,0,0,0,-1,1665,351,0,0
448,673,0,0,0,0,0,0,0,0,0,-1,1672,351,0,0
455,673,0,0,0,0,0,0,0,0,0,-1,1679,351,0,0
462,673,0,0,0,0,0,0,0,0,0,-1,1686,351,0,0
469,673,0,0,0,0,0,0,0,0,0,-1,1693,351,0,0
476,673,0,0,0,0,0,0,0,0,0,-1,1700,351,0,0
483,673,0,0,0,0,0,0,0,0,0,-1,1707,351,0,0
490,673,0,0,0,0,0,0,0,0,0,-1,1714,351,0,0
497,673,0,0,0,0,0,0,0,0,0,-1,1721,351,0,0
504,673,0,0,0,0,0,0,0,0,0,-1,1728,351,0,0
511,673,0,0,0,0,0,0,0,0,0,-1,1735,351,0,0
518,673,0,0,0,0,0,0,0,0,0,-1,1742,351,0,0
525,673,0,0,0,0,0,0,0,0,0,-1,1749,351,0,0
532,673,0,0,0,0,0,0,0,0,0,-1,1756,351,0,0
539,673,0,0,0,0,0,0,0,0,0,-1,1763,351,0,0
546,673,0,0,0,0,0,0,0,0,0,-1,1770,351,0,0
553,673,0,0,0,0,0,0,0,0,0,-1,1777,351,0,0
560,673,0,0,0,0,0,0,0,0,0,-1,1784,351,0,0
567,673,0,0,0,0,0,0,0,0,0,-1,1791,351,0,0
574,673,0,0,0,0,0,0,0,0,0,-1,1798,351,0,0
581,673,0,0,0,0,0,0,0,0,0,-1,1805,351,0,0
588,673,0,0,0,0,0,0,0,0,0,-1,1812,351,0,0
595,673,0,0,0,0,0,0,0,0,0,-1,1819,351,0,0
602,673,0,0,0,0,0,0,0,0,0,-1,1826,351,0,0
609,673,0,0,0,0,0,0,0,0,0,-1,1833,351,0,0
616,673,0,0,0,0,0,0,0,0,0,-1,1840,351,0,0
623,673,0,0,0,0,0,0,0,0,0,-1,1847,351,0,0
630,673,0,0,0,0,0,0,0,0,0,-1,1854,351,0,0
637,673,0,0,0,0,0,0,0,0,0,-1,1861,351,0,0
644,673,0,0,0,0,0,0,0,0,0,-1,1868,351,0,0
651,673,0,0,0,0,0,0,0,0,0,-1,1875,351,0,0
658,673,0,0,0,0,0,0,0,0,0,-1,1882,351,0,0
665,673,0,0,0,0,0,0,0,0,0,-1,1889,351,0,0
672,673,0,0,0,0,0,0,0,0,0,-1,1896,351,0,0
679,673,0,0,0,0,0,0,0,0,0,-1,1903,351,0,0
686,673,0,0,0,0,0,0,0,0,0,-1,1910,351,0,0
693,673,0,0,0,0,0,0,0,0,0,-1,1917,351,0,0
700,673,0,0,0,0,0,0,0,0,0,-1,1924,351,0,0
707,673,0,0,0,0,0,0,0,0,0,-1,1931,351,0,0
714,673,0,0,0,0,0,0,0,0,0,-1,1938,351,0,0
721,673,0,0,0,0,0,0,0,0,0,-1,1945,351,0,0
728,673,0,0,0,0,0,0,0,0,0,-1,1952,351,0,0
735,673,0,0,0,0,0,0,0,0,0,-1,1959,351,0,0
742,673,0,0,0,0,0,0,0,0,0,-1,1966,351,0,0
749,673,0,0,0,0,0,0,0,0,0,-1,1973,351,0,0
756,673,0,0,0,0,0,0,0,0,0,-1,1980,351,0,0
763,673,0,0,0,0,0,0,0,0,0,-1,1987,351,0,0
770,673,0,0,0,0,0,0,0,0,0,-1,1994,351,0,0
777,673,0,0,0,0,0,0,0,0,0,-1,2001,351,0,0
784,673,0,0,0,0,0,0,0,0,0,-1,2008,351,0,0
791,673,0,0,0,0,0,0,0,0,0,-1,2015,351,0,0
798,673,0,0,0,0,0,0,0,0,0,-1,2022,351,0,0
805,673,0,0,0,0,0,0,0,0,0,-1,2029,351,0,0
812,673,0,0,0,0,0,0,0,0,0,-1,2036,351,0,0
-700,666,0,0,0,0,0,0,0,0,0,-1,524,358,0,0
-693,666,0,0,0,0,0,0,0,0,0,-1,531,358,0,0
-686,666,0,0,0,0,0,0,0,0,0,-1,538,358,0,0
-679,666,0,0,0,0,0,0,0,0,0,-1,545,358,0,0
-672,666,0,0,0,0,0,0,0,0,0,-1,552,358,0,0
-665,666,0,0,0,0,0,0,0,0,0,-1,559,358,0,0
-658,666,0,0,0,0,0,0,0,0,0,-1,566,358,0,0
-651,666,0,0,0,0,0,0,0,0,0,-1,573,358,0,0
-644,666,0,0,0,0,0,0,0,0,0,-1,580,358,0,0
-637,666,0,0,0,0,0,0,0,0,0,-1,587,358,0,0
-630,666,0,0,0,0,0,0,0,0,0,-1,594,358,0,0
-623,666,0,0,0,0,0,0,0,0,0,-1,601,358,0,0
-616,666,0,0,0,0,0,0,0,0,0,-1,608,358,0,0
-609,666,0,0,0,0,0,0,0,0,0,-1,615,358,0,0
-602,666,0,0,0,0,0,0,0,0,0,-1,622,358,0,0
-595,666,0,0,0,0,0,0,0,0,0,-1,629,358,0,0
-588,666,0,0,0,0,0,0,0,0,0,-1,636,358,0,0
-581,666,0,0,0,0,0,0,0,0,0,-1,643,358,0,0
-574,666,0,0,0,0,0,0,0,0,0,-1,650,358,0,0
-567,666,0,0,0,0,0,0,0,0,0,-1,657,358,0,0
-560,666,0,0,0,0,0,0,0,0,0,-1,664,358,0,0
-553,666,0,0,0,0,0,0,0,0,0,-1,671,358,0,0
-546,666,0,0,0,0,0,0,0,0,0,-1,678,358,0,0
-539,666,0,0,0,0,0,0,0,0,0,-1,685,358,0,0
-532,666,0,0,0,0,0,0,0,0,0,-1,692,358,0,0
-525,666,0,0,0,0,0,0,0,0,0,-1,699,358,0,0
-518,666,0,0,0,0,0,0,0,0,0,-1,706,358,0,0
-511,666,0,0,0,0,0,0,0,0,0,-1,713,358,0,0
-504,666,0,0,0,0,0,0,0,0,0,-1,720,358,0,0
-497,666,0,0,0,0,0,0,0,0,0,-1,727,358,0,0
-490,666,0,0,0,0,0,0,0,0,0,-1,734,358,0,0
-483,666,0,0,0,0,0,0,0,0,0,-1,741,358,0,0
-476,666,0,0,0,0,0,0,0,0,0,-1,748,358,0,0
-469,666,0,0,0,0,0,0,0,0,0,-1,755,358,0,0
-462,666,0,0,0,0,0,0,0,0,0,-1,762,358,0,0
-455,666,0,0,0,0,0,0,0,0,0,-1,769,358,0,0
-448,666,0,0,0,0,0,0,0,0,0,-1,776,358,0,0
-441,666,0,0,0,0,0,0,0,0,0,-1,783,358,0,0
-434,666,0,0,0,0,0,0,0,0,0,-1,790,358,0,0
-427,666,0,0,0,0,0,0,0,0,0,-1,797,358,0,0
-420,666,0,0,0,0,0,0,0,0,0,-1,804,358,0,0
-413,666,0,0,0,0,0,0,0,0,0,-1,811,358,0,0
-406,666,0,0,0,0,0,0,0,0,0,-1,818,358,0,0
-399,666,0,0,0,0,0,0,0,0,0,-1,825,358,0,0
-392,666,0,0,0,0,0,0,0,0,0,-1,832,358,0,0
-385,666,0,0,0,0,0,0,0,0,0,-1,839,358,0,0
-378,666,0,0,0,0,0,0,0,0,0,-1,846,358,0,0
-371,666,0,0,0,0,0,0,0,0,0,-1,853,358,0,0
-364,666,0,0,0,0,0,0,0,0,0,-1,860,358,0,0
-357,666,0,0,0,0,0,0,0,0,0,-1,867,358,0,0
-350,666,0,0,0,0,0,0,0,0,0,-1,874,358,0,0
-343,666,0,0,0,0,0,0,0,0,0,-1,881,358,0,0
-336,666,0,0,0,0,0,0,0,0,0,-1,888,358,0,0
-329,666,0,0,0,0,0,0,0,0,0,-1,895,358,0,0
-322,666,0,0,0,0,0,0,0,0,0,-1,902,358,0,0
-315,666,0,0,0,0,0,0,0,0,0,-1,909,358,0,0
-308,666,0,0,0,0,0,0,0,0,0,-1,916,358,0,0
-301,666,0,0,0,0,0,0,0,0,0,-1,923,358,0,0
-294,666,0,0,0,0,0,0,0,0,0,-1,930,358,0,0
-287,666,0,0,0,0,0,0,0,0,0,-1,937,358,0,0
-280,666,0,0,0,0,0,0,0,0,0,-1,944,358,0,0
-273,666,0,0,0,0,0,0,0,0,0,-1,951,358,0,0
-266,666,0,0,0,0,0,0,0,0,0,-1,958,358,0,0
-259,666,0,0,0,0,0,0,0,0,0,-1,965,358,0,0
-252,666,0,0,0,0,0,0,0,0,0,-1,972,358,0,0
-245,666,0,0,0,0,0,0,0,0,0,-1,979,358,0,0
-238,666,0,0,0,0,0,0,0,0,0,-1,986,358,0,0
-231,666,0,0,0,0,0,0,0,0,0,-1,993,358,0,0
-224,666,0,0,0,0,0,0,0,0,0,-1,1000,358,0,0
-217,666,0,0,0,0,0,0,0,0,0,-1,1007,358,0,0
-210,666,0,0,0,0,0,0,0,0,0,-1,1014,358,0,0
-203,666,0,0,0,0,0,0,0,0,0,-1,1021,358,0,0
-196,666,4.03418,-28.8724,0,0,0,0,0,0,0,-1,1028,358,4.03422,28.8724
-189,666,5.00366,-29.597,0,0,0,0,0,0,0,-1,1035,358,5.00363,29.597
-182,666,6.83252,-30.9843,0,0,0,0,0,0,0,-1,1042,358,6.83247,30.9844
-175,666,7.01611,-31.8763,0,0,0,0,0,0,0,-1,1049,358,7.01617,31.8762
-168,666,7.21545,-32.7414,0,0,0,0,0,0,0,-1,1056,358,7.2154,32.7414
-161,666,7.69116,-33.6269,0,0,0,0,0,0,0,-1,1063,358,7.69121,33.6269
-154,666,3.79041,-37.9204,0,0,0,0,0,0,0,-1,1070,358,3.79034,37.9204
-147,666,4.17908,-37.7466,0,0,0,0,0,0,0,-1,1077,358,4.17912,37.7466
-140,666,4.54309,-37.735,0,0,0,0,0,0,0,-1,1084,358,4.54304,37.735
-133,666,4.65723,-39.0643,0,0,0,0,0,0,0,-1,1091,358,4.65727,39.0643
-126,666,5.02368,-38.0699,0,0,0,0,0,0,0,-1,1098,358,5.02363,38.0698
-119,666,5.39001,-37.0754,0,0,0,0,0,0,0,-1,1105,358,5.38999,37.0754
-112,666,6.77014,-32.8165,0,0,0,0,0,0,0,-1,1112,358,6.77013,32.8165
-105,666,6.30908,-29.0855,0,0,0,0,0,0,0,-1,1119,358,6.30905,29.0855
-98,666,15.4427,-31.5168,0,0,0,0,0,0,0,-1,1126,358,15.4428,31.5168
-91,666,9.5127,-25.1347,0,0,0,0,0,0,0,-1,1133,358,9.51269,25.1347
-84,666,2.91589,-19.4071,0,0,0,0,0,0,0,-1,1140,358,2.91592,19.4071
-77,666,-3.48083,-14.0782,0,0,0,0,0,0,0,-1,1147,358,-3.48081,14.0782
-70,666,-9.99438,-8.90146,0,0,0,0,0,0,0,-1,1154,358,-9.99433,8.90146
-63,666,-11.7778,-0.975189,0,0,0,0,0,0,0,-1,1161,358,-11.7778,0.97519
-56,666,0.424683,-2.04132,0,0,0,0,0,0,0,-1,1168,358,0.424665,2.04132
-49,666,0.754395,-2.23169,0,0,0,0,0,0,0,-1,1175,358,0.754383,2.23169
-42,666,1.34473,-3.53897,0,0,0,0,0,0,0,-1,1182,358,1.34476,3.53896
-35,666,7.34021,-50.6478,0,0,0,0,0,0,0,-1,1189,358,7.34018,50.6478
-28,666,7.47046,-50.7173,0,0,0,0,0,0,0,-1,1196,358,7.47045,50.7173
-21,666,7.47339,-50.7966,0.00643826,0.0346874,0.00370008,0.035164,0.00596166,1.44269,0.0217298,0.0393584,1203,358,7.4734,50.7966
-14,666,7.26038,-51.0422,0.00803577,0.036305,0.00415086,0.0369019,0.00743888,1.42798,0.0225347,0.0352052,1210,358,7.26043,51.0422
-7,666,7.19128,-51.2546,0.00922584,0.0375481,0.00458735,0.0382726,0.00850136,1.41416,0.0232063,0.0224061,1217,358,7.19124,51.2546
0,666,7.1792,-51.4965,0.00975076,0.0398029,0.00561559,0.040818,0.00873571,1.39197,0.024818,0.01452,1224,358,7.17915,51.4964
7,666,7.05713,-51.5792,0.00933833,0.0415969,0.00745031,0.0432344,0.00770076,1.35444,0.0266298,0.0200836,1231,358,7.05718,51.5792
14,666,6.98889,-51.6257,0.00872844,0.0428056,0.00911654,0.0450912,0.00644282,1.32515,0.02816,0.0194171,1238,358,6.98888,51.6257
21,666,6.92981,-51.8713,0.00730556,0.04321,0.0110901,0.0463592,0.0041563,1.29411,0.0296181,0.0167497,1245,358,6.92975,51.8713
28,666,6.8623,-52.0222,0.00537004,0.0426951,0.013296,0.046947,0.00111807,1.26128,0.0309321,0.0238506,1252,358,6.86233,52.0222
35,666,6.85864,-52.0069,0.00314656,0.0414097,0.0157142,0.0470361,-0.00247978,1.22698,0.0322158,0.0216267,1259,358,6.85864,52.0069
42,666,6.75342,-52.0997,0.000402641,0.0385174,0.0185694,0.0460684,-0.0071484,1.18458,0.0333514,0.0168453,1266,358,6.75343,52.0997
49,666,6.64087,-52.1646,-0.00231448,0.0350218,0.0211736,0.0445817,-0.0118743,1.1467,0.0343699,0.0157439,1273,358,6.64093,52.1646
56,666,6.59424,-52.2001,-0.00553101,0.0304556,0.023822,0.042316,-0.0173915,1.10885,0.0354592,0.0166688,1280,358,6.5942,52.2001
63,666,6.54333,-52.2939,-0.0066361,0.0253137,0.0270909,0.0407889,-0.0221114,1.0518,0.0368453,0.0199187,1287,358,6.54329,52.2939
70,666,6.49707,-52.2537,-0.0073517,0.0193784,0.0296406,0.0385277,-0.0265011,0.997201,0.0377578,0.0190694,1294,358,6.49712,52.2537
77,666,6.45435,-52.1075,-0.00850144,0.0142027,0.0314772,0.0363123,-0.030611,0.958461,0.0386849,0.0236982,1301,358,6.45431,52.1075
84,666,6.41602,-52.1256,-0.00867425,0.0100909,0.032819,0.0348422,-0.0334255,0.924629,0.0394172,0.0315043,1308,358,6.41596,52.1256
91,666,6.28955,-52.1404,-0.0083311,0.00714269,0.0335649,0.0338508,-0.0350392,0.898673,0.0397757,0.0257548,1315,358,6.28952,52.1404
98,666,6.16052,-52.0573,-0.00744918,0.00554814,0.0338948,0.0335617,-0.0354627,0.880114,0.0398563,0.0223627,1322,358,6.16054,52.0573
105,666,6.01221,-51.9071,-0.00603881,0.00472871,0.0332165,0.0329949,-0.034305,0.86574,0.0388581,0.0265984,1329,358,6.01221,51.9071
112,666,5.94495,-51.763,0,0,0,0,0,0,0,-1,1336,358,5.9449,51.763
119,666,5.91052,-51.5551,0,0,0,0,0,0,0,-1,1343,358,5.91055,51.5551
126,666,5.73022,-51.1062,-0.00275139,0.0115977,0.0289124,0.0342125,-0.0253662,0.907015,0.0345239,0.0375607,1350,358,5.73023,51.1062
133,666,5.68701,-50.9674,-0.00227303,0.0163543,0.0265225,0.0351509,-0.0210696,0.954253,0.0327965,0.0328234,1357,358,5.68706,50.9675
140,666,5.59863,-50.9599,-0.00232559,0.020562,0.0239408,0.0356535,-0.0174171,1.00835,0.0312375,0.0325272,1364,358,5.59863,50.9599
147,666,5.44177,-50.7024,-0.0025136,0.0248729,0.0210029,0.0362521,-0.0138928,1.07428,0.0298951,0.0302491,1371,358,5.44176,50.7024
154,666,5.44189,-50.2319,-0.00350591,0.0278364,0.0187088,0.0365702,-0.0122398,1.13403,0.0293243,0.0265762,1378,358,5.44188,50.2319
161,666,5.48438,-49.9086,-0.00337838,0.0306477,0.0161712,0.037107,-0.00983769,1.19078,0.0285871,0.0346403,1385,358,5.48436,49.9086
168,666,5.48511,-49.5719,0,0,0,0,0,0,0,-1,1392,358,5.48505,49.5719
175,666,5.44653,-49.7452,0,0,0,0,0,0,0,-1,1399,358,5.44658,49.7452
182,666,2.60876,-5.17068,0,0,0,0,0,0,0,-1,1406,358,2.6088,5.17068
189,666,2.46973,-5.49979,0,0,0,0,0,0,0,-1,1413,358,2.46975,5.49979
196,666,2.32458,-5.23651,0,0,0,0,0,0,0,-1,1420,358,2.32461,5.23653
203,666,2.28064,-3.88004,0,0,0,0,0,0,0,-1,1427,358,2.28059,3.88003
210,666,3.02576,-5.83548,0,0,0,0,0,0,0,-1,1434,358,3.02581,5.83547
217,666,2.30444,-5.36011,0,0,0,0,0,0,0,-1,1441,358,2.30447,5.3601
224,666,1.82324,-6.03101,0,0,0,0,0,0,0,-1,1448,358,1.82322,6.031
231,666,2.29797,-10.1093,0,0,0,0,0,0,0,-1,1455,358,2.29801,10.1093
238,666,2.52429,-6.10568,0,0,0,0,0,0,0,-1,1462,358,2.52423,6.10567
245,666,4.53345,-1.38205,0,0,0,0,0,0,0,-1,1469,358,4.53349,1.38204
252,666,4.77405,-0.246979,0,0,0,0,0,0,0,-1,1476,358,4.77405,0.246993
259,666,4.83655,1.14087,0,0,0,0,0,0,0,-1,1483,358,4.83652,-1.14087
266,666,6.14148,0.749512,0,0,0,0,0,0,0,-1,1490,358,6.14144,-0.749519
273,666,3.17737,-33.7881,0,0,0,0,0,0,0,-1,1497,358,3.17735,33.7881
280,666,3.37268,-35.2123,0,0,0,0,0,0,0,-1,1504,358,3.37266,35.2123
287,666,-7.06934,-20.3464,0,0,0,0,0,0,0,-1,1511,358,-7.06933,20.3464
294,666,-2.75305,-22.1353,0,0,0,0,0,0,0,-1,1518,358,-2.75305,22.1353
301,666,-4.77222,-21.6957,0,0,0,0,0,0,0,-1,1525,358,-4.77218,21.6957
308,666,-7.45471,-24.766,0,0,0,0,0,0,0,-1,1532,358,-7.45475,24.766
315,666,1.76294,-0.284027,0,0,0,0,0,0,0,-1,1539,358,1.76291,0.284016
322,666,0,0,0,0,0,0,0,0,0,-1,1546,358,0,0
329,666,0,0,0,0,0,0,0,0,0,-1,1553,358,0,0
336,666,0,0,0,0,0,0,0,0,0,-1,1560,358,0,0
343,666,0,0,0,0,0,0,0,0,0,-1,1567,358,0,0
350,666,0,0,0,0,0,0,0,0,0,-1,1574,358,0,0
357,666,0,0,0,0,0,0,0,0,0,-1,1581,358,0,0
364,666,0,0,0,0,0,0,0,0,0,-1,1588,358,0,0
371,666,0,0,0,0,0,0,0,0,0,-1,1595,358,0,0
378,666,0,0,0,0,0,0,0,0,0,-1,1602,358,0,0
385,666,0,0,0,0,0,0,0,0,0,-1,1609,358,0,0
392,666,0,0,0,0,0,0,0,0,0,-1,1616,358,0,0
399,666,0,0,0,0,0,0,0,0,0,-1,1623,358,0,0
406,666,0,0,0,0,0,0,0,0,0,-1,1630,358,0,0
413,666,0,0,0,0,0,0,0,0,0,-1,1637,358,0,0
420,666,0,0,0,0,0,0,0,0,0,-1,1644,358,0,0
427,666,0,0,0,0,0,0,0,0,0,-1,1651,358,0,0
434,666,0,0,0,0,0,0,0,0,0,-1,1658,358,0,0
441,666,0,0,0,0,0,0,0,0,0,-1,1665,358,0,0
448,666,0,0,0,0,0,0,0,0,0,-1,1672,358,0,0
455,666,0,0,0,0,0,0,0,0,0,-1,1679,358,0,0
462,666,0,0,0,0,0,0,0,0,0,-1,1686,358,0,0
469,666,0,0,0,0,0,0,0,0,0,-1,1693,358,0,0
476,666,0,0,0,0,0,0,0,0,0,-1,1700,358,0,0
483,666,0,0,0,0,0,0,0,0,0,-1,1707,358,0,0
490,666,0,0,0,0,0,0,0,0,0,-1,1714,358,0,0
497,666,0,0,0,0,0,0,0,0,0,-1,1721,358,0,0
504,666,0,0,0,0,0,0,0,0,0,-1,1728,358,0,0
511,666,0,0,0,0,0,0,0,0,0,-1,1735,358,0,0
518,666,0,0,0,0,0,0,0,0,0,-1,1742,358,0,0
525,666,0,0,0,0,0,0,0,0,0,-1,1749,358,0,0
532,666,0,0,0,0,0,0,0,0,0,-1,1756,358,0,0
539,666,0,0,0,0,0,0,0,0,0,-1,1763,358,0,0
546,666,0,0,0,0,0,0,0,0,0,-1,1770,358,0,0
553,666,0,0,0,0,0,0,0,0,0,-1,1777,358,0,0
560,666,0,0,0,0,0,0,0,0,0,-1,1784,358,0,0
567,666,0,0,0,0,0,0,0,0,0,-1,1791,358,0,0
574,666,0,0,0,0,0,0,0,0,0,-1,1798,358,0,0
581,666,0,0,0,0,0,0,0,0,0,-1,1805,358,0,0
588,666,0,0,0,0,0,0,0,0,0,-1,1812,358,0,0
595,666,0,0,0,0,0,0,0,0,0,-1,1819,358,0,0
602,666,0,0,0,0,0,0,0,0,0,-1,1826,358,0,0
609,666,0,0,0,0,0,0,0,0,0,-1,1833,358,0,0
616,666,0,0,0,0,0,0,0,0,0,-1,1840,358,0,0
623,666,0,0,0,0,0,0,0,0,0,-1,1847,358,0,0
630,666,0,0,0,0,0,0,0,0,0,-1,1854,358,0,0
637,666,0,0,0,0,0,0,0,0,0,-1,1861,358,0,0
644,666,0,0,0,0,0,0,0,0,0,-1,1868,358,0,0
651,666,0,0,0,0,0,0,0,0,0,-1,1875,358,0,0
658,666,0,0,0,0,0,0,0,0,0,-1,1882,358,0,0
665,666,0,0,0,0,0,0,0,0,0,-1,1889,358,0,0
672,666,0,0,0,0,0,0,0,0,0,-1,1896,358,0,0
679,666,0,0,0,0,0,0,0,0,0,-1,1903,358,0,0
686,666,0,0,0,0,0,0,0,0,0,-1,1910,358,0,0
693,666,0,0,0,0,0,0,0,0,0,-1,1917,358,0,0
700,666,0,0,0,0,0,0,0,0,0,-1,1924,358,0,0
707,666,0,0,0,0,0,0,0,0,0,-1,1931,358,0,0
714,666,0,0,0,0,0,0,0,0,0,-1,1938,358,0,0
721,666,0,0,0,0,0,0,0,0,0,-1,1945,358,0,0
728,666,0,0,0,0,0,0,0,0,0,-1,1952,358,0,0
735,666,0,0,0,0,0,0,0,0,0,-1,1959,358,0,0
742,666,0,0,0,0,0,0,0,0,0,-1,1966,358,0,0
749,666,0,0,0,0,0,0,0,0,0,-1,1973,358,0,0
756,666,0,0,0,0,0,0,0,0,0,-1,1980,358,0,0
763,666,0,0,0,0,0,0,0,0,0,-1,1987,358,0,0
770,666,0,0,0,0,0,0,0,0,0,-1,1994,358,0,0
777,666,0,0,0,0,0,0,0,0,0,-1,2001,358,0,0
784,666,0,0,0,0,0,0,0,0,0,-1,2008,358,0,0
791,666,0,0,0,0,0,0,0,0,0,-1,2015,358,0,0
798,666,0,0,0,0,0,0,0,0,0,-1,2022,358,0,0
805,666,0,0,0,0,0,0,0,0,0,-1,2029,358,0,0
812,666,0,0,0,0,0,0,0,0,0,-1,2036,358,0,0
-700,659,0,0,0,0,0,0,0,0,0,-1,524,365,0,0
-693,659,0,0,0,0,0,0,0,0,0,-1,531,365,0,0
-686,659,0,0,0,0,0,0,0,0,0,-1,538,365,0,0
-679,659,0,0,0,0,0,0,0,0,0,-1,545,365,0,0
-672,659,0,0,0,0,0,0,0,0,0,-1,552,365,0,0
-665,659,0,0,0,0,0,0,0,0,0,-1,559,365,0,0
-658,659,0,0,0,0,0,0,0,0,0,-1,566,365,0,0
-651,659,0,0,0,0,0,0,0,0,0,-1,573,365,0,0
-644,659,0,0,0,0,0,0,0,0,0,-1,580,365,0,0
-637,659,0,0,0,0,0,0,0,0,0,-1,587,365,0,0
-630,659,0,0,0,0,0,0,0,0,0,-1,594,365,0,0
-623,659,0,0,0,0,0,0,0,0,0,-1,601,365,0,0
-616,659,0,0,0,0,0,0,0,0,0,-1,608,365,0,0
-609,659,0,0,0,0,0,0,0,0,0,-1,615,365,0,0
-602,659,0,0,0,0,0,0,0,0,0,-1,622,365,0,0
-595,659,0,0,0,0,0,0,0,0,0,-1,629,365,0,0
-588,659,0,0,0,0,0,0,0,0,0,-1,636,365,0,0
-581,659,0,0,0,0,0,0,0,0,0,-1,643,365,0,0
-574,659,0,0,0,0,0,0,0,0,0,-1,650,365,0,0
-567,659,0,0,0,0,0,0,0,0,0,-1,657,365,0,0
-560,659,0,0,0,0,0,0,0,0,0,-1,664,365,0,0
-553,659,0,0,0,0,0,0,0,0,0,-1,671,365,0,0
-546,659,0,0,0,0,0,0,0,0,0,-1,678,365,0,0
-539,659,0,0,0,0,0,0,0,0,0,-1,685,365,0,0
-532,659,0,0,0,0,0,0,0,0,0,-1,692,365,0,0
-525,659,0,0,0,0,0,0,0,0,0,-1,699,365,0,0
-518,659,0,0,0,0,0,0,0,0,0,-1,706,365,0,0
-511,659,0,0,0,0,0,0,0,0,0,-1,713,365,0,0
-504,659,0,0,0,0,0,0,0,0,0,-1,720,365,0,0
-497,659,0,0,0,0,0,0,0,0,0,-1,727,365,0,0
-490,659,0,0,0,0,0,0,0,0,0,-1,734,365,0,0
-483,659,0,0,0,0,0,0,0,0,0,-1,741,365,0,0
-476,659,0,0,0,0,0,0,0,0,0,-1,748,365,0,0
-469,659,0,0,0,0,0,0,0,0,0,-1,755,365,0,0
-462,659,0,0,0,0,0,0,0,0,0,-1,762,365,0,0
-455,659,0,0,0,0,0,0,0,0,0,-1,769,365,0,0
-448,659,0,0,0,0,0,0,0,0,0,-1,776,365,0,0
-441,659,0,0,0,0,0,0,0,0,0,-1,783,365,0,0
-434,659,0,0,0,0,0,0,0,0,0,-1,790,365,0,0
-427,659,0,0,0,0,0,0,0,0,0,-1,797,365,0,0
-420,659,0,0,0,0,0,0,0,0,0,-1,804,365,0,0
-413,659,0,0,0,0,0,0,0,0,0,-1,811,365,0,0
-406,659,0,0,0,0,0,0,0,0,0,-1,818,365,0,0
-399,659,0,0,0,0,0,0,0,0,0,-1,825,365,0,0
-392,659,0,0,0,0,0,0,0,0,0,-1,832,365,0,0
-385,659,0,0,0,0,0,0,0,0,0,-1,839,365,0,0
-378,659,0,0,0,0,0,0,0,0,0,-1,846,365,0,0
-371,659,0,0,0,0,0,0,0,0,0,-1,853,365,0,0
-364,659,0,0,0,0,0,0,0,0,0,-1,860,365,0,0
-357,659,0,0,0,0,0,0,0,0,0,-1,867,365,0,0
-350,659,0,0,0,0,0,0,0,0,0,-1,874,365,0,0
-343,659,0,0,0,0,0,0,0,0,0,-1,881,365,0,0
-336,659,0,0,0,0,0,0,0,0,0,-1,888,365,0,0
-329,659,0,0,0,0,0,0,0,0,0,-1,895,365,0,0
-322,659,0,0,0,0,0,0,0,0,0,-1,902,365,0,0
-315,659,0,0,0,0,0,0,0,0,0,-1,909,365,0,0
-308,659,0,0,0,0,0,0,0,0,0,-1,916,365,0,0
-301,659,0,0,0,0,0,0,0,0,0,-1,923,365,0,0
-294,659,0,0,0,0,0,0,0,0,0,-1,930,365,0,0
-287,659,0,0,0,0,0,0,0,0,0,-1,937,365,0,0
-280,659,0,0,0,0,0,0,0,0,0,-1,944,365,0,0
-273,659,0,0,0,0,0,0,0,0,0,-1,951,365,0,0
-266,659,0,0,0,0,0,0,0,0,0,-1,958,365,0,0
-259,659,0,0,0,0,0,0,0,0,0,-1,965,365,0,0
-252,659,0,0,0,0,0,0,0,0,0,-1,972,365,0,0
-245,659,0,0,0,0,0,0,0,0,0,-1,979,365,0,0
-238,659,0,0,0,0,0,0,0,0,0,-1,986,365,0,0
-231,659,0,0,0,0,0,0,0,0,0,-1,993,365,0,0
-224,659,0,0,0,0,0,0,0,0,0,-1,1000,365,0,0
-217,659,10.1305,-25.2622,0,0,0,0,0,0,0,-1,1007,365,10.1305,25.2622
-210,659,9.65643,-25.515,0,0,0,0,0,0,0,-1,1014,365,9.65642,25.515
-203,659,8.58911,-25.7432,0,0,0,0,0,0,0,-1,1021,365,8.58916,25.7432
-196,659,2.68323,-27.8121,0,0,0,0,0,0,0,-1,1028,365,2.6832,27.8121
-189,659,6.88049,-28.9412,0,0,0,0,0,0,0,-1,1035,365,6.88045,28.9412
-182,659,6.94189,-30.6316,0,0,0,0,0,0,0,-1,1042,365,6.94189,30.6316
-175,659,6.948,-32.0092,0,0,0,0,0,0,0,-1,1049,365,6.94798,32.0093
-168,659,7.1416,-32.7405,0,0,0,0,0,0,0,-1,1056,365,7.14157,32.7405
-161,659,7.57361,-33.7099,0,0,0,0,0,0,0,-1,1063,365,7.57355,33.7099
-154,659,7.71448,-34.8995,0,0,0,0,0,0,0,-1,1070,365,7.7145,34.8995
-147,659,5.46606,-37.758,0,0,0,0,0,0,0,-1,1077,365,5.46601,37.758
-140,659,5.7356,-37.755,0,0,0,0,0,0,0,-1,1084,365,5.73562,37.755
-133,659,5.91455,-37.9017,0,0,0,0,0,0,0,-1,1091,365,5.9146,37.9017
-126,659,6.31226,-37.9904,0,0,0,0,0,0,0,-1,1098,365,6.3122,37.9904
-119,659,6.26941,-35.0837,0,0,0,0,0,0,0,-1,1105,365,6.26943,35.0837
-112,659,6.24353,-35.0562,0,0,0,0,0,0,0,-1,1112,365,6.24349,35.0562
-105,659,5.38696,-30.5854,0,0,0,0,0,0,0,-1,1119,365,5.387,30.5854
-98,659,4.68042,-26.2438,0,0,0,0,0,0,0,-1,1126,365,4.68041,26.2438
-91,659,4.20776,-20.8654,0,0,0,0,0,0,0,-1,1133,365,4.20777,20.8654
-84,659,2.8584,-17.8303,0,0,0,0,0,0,0,-1,1140,365,2.85836,17.8303
-77,659,2.80139,-15.3457,0,0,0,0,0,0,0,-1,1147,365,2.80139,15.3457
-70,659,2.9353,-12.7028,0,0,0,0,0,0,0,-1,1154,365,2.93533,12.7028
-63,659,2.11267,-9.7796,0,0,0,0,0,0,0,-1,1161,365,2.11266,9.7796
-56,659,2.11182,-9.91541,0,0,0,0,0,0,0,-1,1168,365,2.11178,9.91541
-49,659,7.40808,-50.0149,0,0,0,0,0,0,0,-1,1175,365,7.40806,50.0149
-42,659,7.12085,-50.5484,0,0,0,0,0,0,0,-1,1182,365,7.12087,50.5484
-35,659,7.30945,-50.5987,-0.000913344,0.0224155,0.00057175,0.0224295,-0.000927349,1.54631,0.0152715,0.0429155,1189,365,7.30941,50.5987
-28,659,7.29932,-50.7736,0.000879713,0.0248053,0.00131188,0.024877,0.000807995,1.51618,0.016322,0.0165429,1196,365,7.29934,50.7736
-21,659,7.21387,-51.0623,0.00250742,0.0265662,0.00181381,0.0267022,0.00237144,1.49597,0.017066,0.0140097,1203,365,7.21392,51.0623
-14,659,7.12134,-51.3192,0.0039731,0.0279739,0.00228732,0.0281899,0.00375706,1.47662,0.0176745,0.0119902,1210,365,7.12131,51.3192
-7,659,7.06641,-51.5053,0.00511169,0.0290374,0.00268255,0.0293345,0.00481461,1.4605,0.0181654,0.0118837,1217,365,7.06641,51.5053
0,659,7.02637,-51.6759,0.00570557,0.0308891,0.00359551,0.0313924,0.0052023,1.43173,0.0194278,0.00958558,1224,365,7.02636,51.6759
7,659,6.98218,-51.8126,0.00562092,0.0325567,0.00504731,0.0334714,0.0047062,1.39151,0.0209227,0.00898026,1231,365,6.98217,51.8126
14,659,6.92871,-51.8961,0.00539737,0.0338118,0.00624692,0.0351246,0.00408463,1.36367,0.0221805,0.0115711,1238,365,6.92873,51.8962
21,659,6.84949,-52.0266,0.00455848,0.0345842,0.00766477,0.0364276,0.00271505,1.33477,0.0234326,0.0121572,1245,365,6.84946,52.0266
28,659,6.76367,-52.1552,0.00335812,0.0346101,0.00924905,0.0371422,0.000826024,1.30357,0.0244908,0.0117545,1252,365,6.76367,52.1552
35,659,6.75183,-52.2438,0.00190555,0.034091,0.0109646,0.0374712,-0.00147472,1.27175,0.0254866,0.012994,1259,365,6.75186,52.2438
42,659,6.70776,-52.3162,-6.76636e-06,0.0323718,0.0130199,0.0369578,-0.0045927,1.23214,0.0263034,0.0141289,1266,365,6.70772,52.3162
49,659,6.61316,-52.3741,-0.00195676,0.0302287,0.0148447,0.0360298,-0.00775787,1.19826,0.0269802,0.0150463,1273,365,6.61321,52.3741
56,659,6.55518,-52.4059,-0.00435947,0.0271595,0.0167234,0.034379,-0.011579,1.16326,0.0276008,0.0184923,1280,365,6.55518,52.4059
63,659,6.5498,-52.4569,-0.00528881,0.0234444,0.0190644,0.0329493,-0.0147938,1.10829,0.028221,0.0177474,1287,365,6.54986,52.4569
70,659,6.45227,-52.4387,-0.00593871,0.0190174,0.020941,0.0309161,-0.0178374,1.05409,0.0284835,0.0192156,1294,365,6.45228,52.4387
77,659,6.34937,-52.3969,-0.00688664,0.0150624,0.022291,0.028934,-0.0207582,1.01414,0.028819,0.0182043,1301,365,6.34938,52.3969
84,659,6.34143,-52.38,-0.00712997,0.0119189,0.0231738,0.0274492,-0.0226602,0.980375,0.0289747,0.0128399,1308,365,6.34141,52.38
91,659,6.27698,-52.3257,-0.00700339,0.00961641,0.0235944,0.0263215,-0.0237085,0.954714,0.028898,0.0107333,1315,365,6.27698,52.3257
98,659,6.22351,-52.2106,-0.00647062,0.00830883,0.0237636,0.0258052,-0.0239669,0.936143,0.0287425,0.00807801,1322,365,6.22349,52.2106
105,659,6.16284,-52.0579,-0.00550604,0.00757811,0.0231434,0.0250863,-0.0230142,0.923142,0.0277795,0.0101143,1329,365,6.1629,52.0579
112,659,6.10864,-51.9114,-0.0044096,0.00793086,0.0220495,0.0246572,-0.021136,0.921826,0.0264647,0.0154996,1336,365,6.10859,51.9114
119,659,6.04211,-51.7387,-0.0038181,0.00989216,0.0210743,0.0251982,-0.0191242,0.942642,0.0256695,0.0178691,1343,365,6.04212,51.7387
126,659,5.96887,-51.5233,-0.00323664,0.0126781,0.0196387,0.0259103,-0.0164688,0.977884,0.0246692,0.0159317,1350,365,5.96886,51.5234
133,659,5.89087,-51.3202,-0.00294764,0.0163398,0.0178169,0.0269554,-0.0135633,1.03346,0.0238156,0.01441,1357,365,5.89092,51.3202
140,659,5.82959,-51.1644,-0.00298867,0.0195559,0.015915,0.0277862,-0.011219,1.09353,0.0231869,0.0120504,1364,365,5.82955,51.1644
147,659,5.77417,-50.9647,-0.00309172,0.0228146,0.0137714,0.0287674,-0.00904457,1.16279,0.0227992,0.0111207,1371,365,5.77412,50.9647
154,659,5.6991,-50.6837,-0.00374071,0.0249012,0.0122036,0.0293956,-0.00823509,1.21793,0.0228424,0.0126666,1378,365,5.69912,50.6837
161,659,5.6626,-50.3848,-0.00358726,0.0267517,0.0105487,0.0300589,-0.00689445,1.26698,0.0226893,0.0139631,1385,365,5.66259,50.3848
168,659,5.61218,-50.0611,-0.00651255,0.0278031,0.00753501,0.0293847,-0.00809418,1.3639,0.0227725,0.0203446,1392,365,5.61215,50.0611
175,659,5.56116,-49.7622,-0.00806074,0.0290758,0.00690738,0.030319,-0.00930389,1.39273,0.0239248,0.0425027,1399,365,5.56116,49.7622
182,659,5.45886,-49.4582,0,0,0,0,0,0,0,-1,1406,365,5.45883,49.4582
189,659,5.50525,-48.9614,0,0,0,0,0,0,0,-1,1413,365,5.50528,48.9614
196,659,2.41248,-13.4371,0,0,0,0,0,0,0,-1,1420,365,2.41243,13.4371
203,659,2.38623,-12.2163,0,0,0,0,0,0,0,-1,1427,365,2.38617,12.2163
210,659,2.20789,-13.9792,0,0,0,0,0,0,0,-1,1434,365,2.20794,13.9792
217,659,2.24121,-13.487,0,0,0,0,0,0,0,-1,1441,365,2.24116,13.487
224,659,2.3479,-15.2926,0,0,0,0,0,0,0,-1,1448,365,2.34793,15.2926
231,659,2.47974,-17.8629,0,0,0,0,0,0,0,-1,1455,365,2.47976,17.8628
238,659,3.57886,-21.1258,0,0,0,0,0,0,0,-1,1462,365,3.57889,21.1258
245,659,3.29883,-25.0283,0,0,0,0,0,0,0,-1,1469,365,3.29889,25.0283
252,659,2.81909,-24.1604,0,0,0,0,0,0,0,-1,1476,365,2.81905,24.1604
259,659,2.33069,-3.36703,0,0,0,0,0,0,0,-1,1483,365,2.33073,3.36702
266,659,3.40918,-35.2544,0,0,0,0,0,0,0,-1,1490,365,3.40913,35.2544
273,659,4.45557,-42.3683,0,0,0,0,0,0,0,-1,1497,365,4.45554,42.3683
280,659,4.87903,-41.4995,0,0,0,0,0,0,0,-1,1504,365,4.87898,41.4995
287,659,1.14026,-22.5556,0,0,0,0,0,0,0,-1,1511,365,1.14021,22.5556
294,659,-0.6521,-22.2559,-0.221991,0.0693225,-0.06782,0.0843376,-0.237006,-1.35291,0.192381,0.0485529,1518,365,-0.652115,22.2559
301,659,-2.75232,-21.7347,-0.240946,0.0735366,-0.0744193,0.0902581,-0.257668,-1.34977,0.208482,0.0491935,1525,365,-2.75235,21.7347
308,659,-4.59692,-21.4031,0,0,0,0,0,0,0,-1,1532,365,-4.59689,21.4031
315,659,-6.78564,-21.0916,0,0,0,0,0,0,0,-1,1539,365,-6.78563,21.0916
322,659,-8.245,-20.894,0,0,0,0,0,0,0,-1,1546,365,-8.245,20.894
329,659,-7.67749,-23.0449,0,0,0,0,0,0,0,-1,1553,365,-7.67745,23.0449
336,659,-7.71436,-22.4188,0,0,0,0,0,0,0,-1,1560,365,-7.71432,22.4188
343,659,0,0,0,0,0,0,0,0,0,-1,1567,365,0,0
350,659,0,0,0,0,0,0,0,0,0,-1,1574,365,0,0
357,659,0,0,0,0,0,0,0,0,0,-1,1581,365,0,0
364,659,0,0,0,0,0,0,0,0,0,-1,1588,365,0,0
371,659,0,0,0,0,0,0,0,0,0,-1,1595,365,0,0
378,659,0,0,0,0,0,0,0,0,0,-1,1602,365,0,0
385,659,0,0,0,0,0,0,0,0,0,-1,1609,365,0,0
392,659,0,0,0,0,0,0,0,0,0,-1,1616,365,0,0
399,659,0,0,0,0,0,0,0,0,0,-1,1623,365,0,0
406,659,0,0,0,0,0,0,0,0,0,-1,1630,365,0,0
413,659,0,0,0,0,0,0,0,0,0,-1,1637,365,0,0
420,659,0,0,0,0,0,0,0,0,0,-1,1644,365,0,0
427,659,0,0,0,0,0,0,0,0,0,-1,1651,365,0,0
434,659,0,0,0,0,0,0,0,0,0,-1,1658,365,0,0
441,659,0,0,0,0,0,0,0,0,0,-1,1665,365,0,0
448,659,0,0,0,0,0,0,0,0,0,-1,1672,365,0,0
455,659,0,0,0,0,0,0,0,0,0,-1,1679,365,0,0
462,659,0,0,0,0,0,0,0,0,0,-1,1686,365,0,0
469,659,0,0,0,0,0,0,0,0,0,-1,1693,365,0,0
476,659,0,0,0,0,0,0,0,0,0,-1,1700,365,0,0
483,659,0,0,0,0,0,0,0,0,0,-1,1707,365,0,0
490,659,0,0,0,0,0,0,0,0,0,-1,1714,365,0,0
497,659,0,0,0,0,0,0,0,0,0,-1,1721,365,0,0
504,659,0,0,0,0,0,0,0,0,0,-1,1728,365,0,0
511,659,0,0,0,0,0,0,0,0,0,-1,1735,365,0,0
518,659,0,0,0,0,0,0,0,0,0,-1,1742,365,0,0
525,659,0,0,0,0,0,0,0,0,0,-1,1749,365,0,0
532,659,0,0,0,0,0,0,0,0,0,-1,1756,365,0,0
539,659,0,0,0,0,0,0,0,0,0,-1,1763,365,0,0
546,659,0,0,0,0,0,0,0,0,0,-1,1770,365,0,0
553,659,0,0,0,0,0,0,0,0,0,-1,1777,365,0,0
560,659,0,0,0,0,0,0,0,0,0,-1,1784,365,0,0
567,659,0,0,0,0,0,0,0,0,0,-1,1791,365,0,0
574,659,0,0,0,0,0,0,0,0,0,-1,1798,365,0,0
581,659,0,0,0,0,0,0,0,0,0,-1,1805,365,0,0
588,659,0,0,0,0,0,0,0,0,0,-1,1812,365,0,0
595,659,0,0,0,0,0,0,0,0,0,-1,1819,365,0,0
602,659,0,0,0,0,0,0,0,0,0,-1,1826,365,0,0
609,659,0,0,0,0,0,0,0,0,0,-1,1833,365,0,0
616,659,0,0,0,0,0,0,0,0,0,-1,1840,365,0,0
623,659,0,0,0,0,0,0,0,0,0,-1,1847,365,0,0
630,659,0,0,0,0,0,0,0,0,0,-1,1854,365,0,0
637,659,0,0,0,0,0,0,0,0,0,-1,1861,365,0,0
644,659,0,0,0,0,0,0,0,0,0,-1,1868,365,0,0
651,659,0,0,0,0,0,0,0,0,0,-1,1875,365,0,0
658,659,0,0,0,0,0,0,0,0,0,-1,1882,365,0,0
665,659,0,0,0,0,0,0,0,0,0,-1,1889,365,0,0
672,659,0,0,0,0,0,0,0,0,0,-1,1896,365,0,0
679,659,0,0,0,0,0,0,0,0,0,-1,1903,365,0,0
686,659,0,0,0,0,0,0,0,0,0,-1,1910,365,0,0
693,659,0,0,0,0,0,0,0,0,0,-1,1917,365,0,0
700,659,0,0,0,0,0,0,0,0,0,-1,1924,365,0,0
707,659,0,0,0,0,0,0,0,0,0,-1,1931,365,0,0
714,659,0,0,0,0,0,0,0,0,0,-1,1938,365,0,0
721,659,0,0,0,0,0,0,0,0,0,-1,1945,365,0,0
728,659,0,0,0,0,0,0,0,0,0,-1,1952,365,0,0
735,659,0,0,0,0,0,0,0,0,0,-1,1959,365,0,0
742,659,0,0,0,0,0,0,0,0,0,-1,1966,365,0,0
749,659,0,0,0,0,0,0,0,0,0,-1,1973,365,0,0
756,659,0,0,0,0,0,0,0,0,0,-1,1980,365,0,0
763,659,0,0,0,0,0,0,0,0,0,-1,1987,365,0,0
770,659,0,0,0,0,0,0,0,0,0,-1,1994,365,0,0
777,659,0,0,0,0,0,0,0,0,0,-1,2001,365,0,0
784,659,0,0,0,0,0,0,0,0,0,-1,2008,365,0,0
791,659,0,0,0,0,0,0,0,0,0,-1,2015,365,0,0
798,659,0,0,0,0,0,0,0,0,0,-1,2022,365,0,0
805,659,0,0,0,0,0,0,0,0,0,-1,2029,365,0,0
812,659,0,0,0,0,0,0,0,0,0,-1,2036,365,0,0
-700,652,0,0,0,0,0,0,0,0,0,-1,524,372,0,0
-693,652,0,0,0,0,0,0,0,0,0,-1,531,372,0,0
-686,652,0,0,0,0,0,0,0,0,0,-1,538,372,0,0
-679,652,0,0,0,0,0,0,0,0,0,-1,545,372,0,0
-672,652,0,0,0,0,0,0,0,0,0,-1,552,372,0,0
-665,652,0,0,0,0,0,0,0,0,0,-1,559,372,0,0
-658,652,0,0,0,0,0,0,0,0,0,-1,566,372,0,0
-651,652,0,0,0,0,0,0,0,0,0,-1,573,372,0,0
-644,652,0,0,0,0,0,0,0,0,0,-1,580,372,0,0
-637,652,0,0,0,0,0,0,0,0,0,-1,587,372,0,0
-630,652,0,0,0,0,0,0,0,0,0,-1,594,372,0,0
-623,652,0,0,0,0,0,0,0,0,0,-1,601,372,0,0
-616,652,0,0,0,0,0,0,0,0,0,-1,608,372,0,0
-609,652,0,0,0,0,0,0,0,0,0,-1,615,372,0,0
-602,652,0,0,0,0,0,0,0,0,0,-1,622,372,0,0
-595,652,0,0,0,0,0,0,0,0,0,-1,629,372,0,0
-588,652,0,0,0,0,0,0,0,0,0,-1,636,372,0,0
-581,652,0,0,0,0,0,0,0,0,0,-1,643,372,0,0
-574,652,0,0,0,0,0,0,0,0,0,-1,650,372,0,0
-567,652,0,0,0,0,0,0,0,0,0,-1,657,372,0,0
-560,652,0,0,0,0,0,0,0,0,0,-1,664,372,0,0
-553,652,0,0,0,0,0,0,0,0,0,-1,671,372,0,0
-546,652,0,0,0,0,0,0,0,0,0,-1,678,372,0,0
-539,652,0,0,0,0,0,0,0,0,0,-1,685,372,0,0
-532,652,0,0,0,0,0,0,0,0,0,-1,692,372,0,0
-525,652,0,0,0,0,0,0,0,0,0,-1,699,372,0,0
-518,652,0,0,0,0,0,0,0,0,0,-1,706,372,0,0
-511,652,0,0,0,0,0,0,0,0,0,-1,713,372,0,0
-504,652,0,0,0,0,0,0,0,0,0,-1,720,372,0,0
-497,652,0,0,0,0,0,0,0,0,0,-1,727,372,0,0
-490,652,0,0,0,0,0,0,0,0,0,-1,734,372,0,0
-483,652,0,0,0,0,0,0,0,0,0,-1,741,372,0,0
-476,652,0,0,0,0,0,0,0,0,0,-1,748,372,0,0
-469,652,0,0,0,0,0,0,0,0,0,-1,755,372,0,0
-462,652,0,0,0,0,0,0,0,0,0,-1,762,372,0,0
-455,652,0,0,0,0,0,0,0,0,0,-1,769,372,0,0
-448,652,0,0,0,0,0,0,0,0,0,-1,776,372,0,0
-441,652,0,0,0,0,0,0,0,0,0,-1,783,372,0,0
-434,652,0,0,0,0,0,0,0,0,0,-1,790,372,0,0
-427,652,0,0,0,0,0,0,0,0,0,-1,797,372,0,0
-420,652,0,0,0,0,0,0,0,0,0,-1,804,372,0,0
-413,652,0,0,0,0,0,0,0,0,0,-1,811,372,0,0
-406,652,0,0,0,0,0,0,0,0,0,-1,818,372,0,0
-399,652,0,0,0,0,0,0,0,0,0,-1,825,372,0,0
-392,652,0,0,0,0,0,0,0,0,0,-1,832,372,0,0
-385,652,0,0,0,0,0,0,0,0,0,-1,839,372,0,0
-378,652,0,0,0,0,0,0,0,0,0,-1,846,372,0,0
-371,652,0,0,0,0,0,0,0,0,0,-1,853,372,0,0
-364,652,0,0,0,0,0,0,0,0,0,-1,860,372,0,0
-357,652,0,0,0,0,0,0,0,0,0,-1,867,372,0,0
-350,652,0,0,0,0,0,0,0,0,0,-1,874,372,0,0
-343,652,0,0,0,0,0,0,0,0,0,-1,881,372,0,0
-336,652,0,0,0,0,0,0,0,0,0,-1,888,372,0,0
-329,652,0,0,0,0,0,0,0,0,0,-1,895,372,0,0
-322,652,0,0,0,0,0,0,0,0,0,-1,902,372,0,0
-315,652,0,0,0,0,0,0,0,0,0,-1,909,372,0,0
-308,652,0,0,0,0,0,0,0,0,0,-1,916,372,0,0
-301,652,0,0,0,0,0,0,0,0,0,-1,923,372,0,0
-294,652,0,0,0,0,0,0,0,0,0,-1,930,372,0,0
-287,652,0,0,0,0,0,0,0,0,0,-1,937,372,0,0
-280,652,0,0,0,0,0,0,0,0,0,-1,944,372,0,0
-273,652,0,0,0,0,0,0,0,0,0,-1,951,372,0,0
-266,652,0,0,0,0,0,0,0,0,0,-1,958,372,0,0
-259,652,0,0,0,0,0,0,0,0,0,-1,965,372,0,0
-252,652,0,0,0,0,0,0,0,0,0,-1,972,372,0,0
-245,652,0,0,0,0,0,0,0,0,0,-1,979,372,0,0
-238,652,0,0,0,0,0,0,0,0,0,-1,986,372,0,0
-231,652,8.79358,-27.1656,0,0,0,0,0,0,0,-1,993,372,8.79357,27.1656
-224,652,8.84552,-27.675,0,0,0,0,0,0,0,-1,1000,372,8.84555,27.675
-217,652,9.03113,-27.7474,0,0,0,0,0,0,0,-1,1007,372,9.0311,27.7474
-210,652,9.72803,-30.4624,0,0,0,0,0,0,0,-1,1014,372,9.72805,30.4624
-203,652,7.2677,-26.0732,0,0,0,0,0,0,0,-1,1021,372,7.26775,26.0732
-196,652,5.90686,-26.957,0,0,0,0,0,0,0,-1,1028,372,5.9068,26.957
-189,652,6.21326,-28.3035,0,0,0,0,0,0,0,-1,1035,372,6.21331,28.3035
-182,652,6.45068,-29.9377,0,0,0,0,0,0,0,-1,1042,372,6.45074,29.9377
-175,652,6.72559,-31.6948,0,0,0,0,0,0,0,-1,1049,372,6.72563,31.6948
-168,652,7.08533,-32.8669,0,0,0,0,0,0,0,-1,1056,372,7.08532,32.8669
-161,652,7.85291,-37.3545,0,0,0,0,0,0,0,-1,1063,372,7.85294,37.3545
-154,652,7.54639,-37.9586,0,0,0,0,0,0,0,-1,1070,372,7.54642,37.9586
-147,652,7.85571,-42.3712,0,0,0,0,0,0,0,-1,1077,372,7.8557,42.3712
-140,652,5.6842,-33.9781,0,0,0,0,0,0,0,-1,1084,372,5.68421,33.9781
-133,652,6.3009,-35.2887,0,0,0,0,0,0,0,-1,1091,372,6.30093,35.2887
-126,652,5.86841,-37.0981,0,0,0,0,0,0,0,-1,1098,372,5.86845,37.0981
-119,652,7.85522,-45.7065,0,0,0,0,0,0,0,-1,1105,372,7.85525,45.7066
-112,652,7.68115,-46.0541,0,0,0,0,0,0,0,-1,1112,372,7.68111,46.0541
-105,652,6.63855,-39.9965,0,0,0,0,0,0,0,-1,1119,372,6.63852,39.9965
-98,652,5.84302,-35.2455,0,0,0,0,0,0,0,-1,1126,372,5.84307,35.2455
-91,652,5.66296,-32.9003,0,0,0,0,0,0,0,-1,1133,372,5.66297,32.9003
-84,652,5.46057,-34.9186,0,0,0,0,0,0,0,-1,1140,372,5.46057,34.9186
-77,652,7.45483,-48.5207,0,0,0,0,0,0,0,-1,1147,372,7.45485,48.5207
-70,652,7.40417,-49.0295,0,0,0,0,0,0,0,-1,1154,372,7.4042,49.0295
-63,652,7.34534,-49.3461,0,0,0,0,0,0,0,-1,1161,372,7.34531,49.3461
-56,652,7.24756,-49.7146,0,0,0,0,0,0,0,-1,1168,372,7.24752,49.7146
-49,652,7.2002,-50.0407,-0.00526358,0.0126425,-0.00105354,0.0127043,-0.00532535,-1.51223,0.0106961,0.0376332,1175,372,7.20018,50.0407
-42,652,7.13171,-50.3041,-0.00374105,0.0143649,-0.000721061,0.0143936,-0.00376972,-1.53106,0.0110684,0.0133531,1182,372,7.13172,50.3041
-35,652,7.11304,-50.5771,-0.00228332,0.016251,-0.000362428,0.0162581,-0.00229041,-1.55125,0.0116773,0.0104309,1189,372,7.113,50.5771
-28,652,7.07227,-50.8292,-0.000930283,0.0180495,0.000162136,0.0180509,-0.000931668,1.56225,0.0123562,0.00837835,1196,372,7.07228,50.8292
-21,652,7.00098,-51.1063,0.000337515,0.0194446,0.000579351,0.0194621,0.000319964,1.54051,0.0128694,0.00873947,1203,372,7.00093,51.1063
-14,652,6.96021,-51.3344,0.00154809,0.0205143,0.000993353,0.0205662,0.0014962,1.51861,0.0132403,0.0108671,1210,372,6.96017,51.3343
-7,652,6.90491,-51.5505,0.00257823,0.0213014,0.00134435,0.0213974,0.00248219,1.49948,0.0135138,0.0139531,1217,372,6.90496,51.5505
0,652,6.85291,-51.7116,0.00319511,0.0226847,0.00210273,0.022909,0.00297083,1.46454,0.014385,0.0136684,1224,372,6.8529,51.7116
7,652,6.82434,-51.8294,0.00333262,0.02418,0.00317408,0.0246526,0.00286007,1.423,0.0155695,0.0136342,1231,372,6.82429,51.8294
14,652,6.79272,-51.9813,0.00332693,0.0253428,0.00400421,0.0260484,0.00262127,1.39636,0.0165612,0.0117751,1238,372,6.79272,51.9813
21,652,6.73816,-52.1287,0.00286345,0.0262416,0.00496875,0.0272538,0.00185123,1.36983,0.0175846,0.0111617,1245,372,6.73814,52.1287
28,652,6.70325,-52.2499,0.0021691,0.0266802,0.00599551,0.0280681,0.00078116,1.34331,0.0184572,0.0101102,1252,372,6.70321,52.2499
35,652,6.67261,-52.3228,0.00124896,0.0266876,0.007109,0.0285394,-0.000602894,1.31597,0.0192304,0.010834,1259,372,6.67262,52.3229
42,652,6.62158,-52.3848,-4.64582e-05,0.0259405,0.00841773,0.0284289,-0.00253487,1.28337,0.0198516,0.0124393,1266,372,6.6216,52.3848
49,652,6.59241,-52.4387,-0.00140257,0.0249834,0.00948152,0.0280371,-0.00445625,1.25922,0.0203402,0.0147896,1273,372,6.5924,52.4387
56,652,6.57849,-52.4568,-0.00312797,0.0232871,0.0105537,0.0269858,-0.00682665,1.23371,0.0206458,0.016058,1280,372,6.57849,52.4568
63,652,6.55176,-52.5124,-0.00380884,0.0209841,0.0119491,0.0258055,-0.00863021,1.18728,0.0206893,0.0193289,1287,372,6.5518,52.5124
70,652,6.46423,-52.4696,-0.00426436,0.0181412,0.0130555,0.0241416,-0.0102647,1.13998,0.0203959,0.0194037,1294,372,6.46421,52.4696
77,652,6.38721,-52.4466,-0.00486962,0.0155052,0.0138301,0.022495,-0.0118594,1.10284,0.0201488,0.017293,1301,372,6.38716,52.4466
84,652,6.40027,-52.4362,-0.00501121,0.0133486,0.014236,0.0211078,-0.0127705,1.07177,0.0197561,0.0136076,1308,372,6.40028,52.4362
91,652,6.33813,-52.4158,-0.0049024,0.0116763,0.0143525,0.0199613,-0.0131873,1.04727,0.0192711,0.0159074,1315,372,6.33811,52.4158
98,652,6.32788,-52.2997,-0.00455311,0.010658,0.0143977,0.0193355,-0.0132306,1.02839,0.0189118,0.013356,1322,372,6.32788,52.2997
105,652,6.29016,-52.1404,-0.00382043,0.00998631,0.0138811,0.0185859,-0.01242,1.01615,0.0180189,0.0115089,1329,372,6.2902,52.1404
112,652,6.23047,-52.0029,-0.00295666,0.010053,0.0130455,0.0181254,-0.0110291,1.01667,0.0169978,0.0103734,1336,372,6.23052,52.0029
119,652,6.19727,-51.8309,-0.0024744,0.0113576,0.0124202,0.0186576,-0.00977435,1.03944,0.0166801,0.0113125,1343,372,6.19722,51.8309
126,652,6.14111,-51.632,-0.00202374,0.013312,0.0114476,0.0194225,-0.00813424,1.08049,0.0163488,0.0137815,1350,372,6.14113,51.632
133,652,6.08105,-51.4309,-0.00185455,0.0158875,0.0102879,0.0206009,-0.00656792,1.14119,0.0163685,0.0141679,1357,372,6.08109,51.4309
140,652,6.04419,-51.2361,-0.00189545,0.0181977,0.00910693,0.021711,-0.00540874,1.20261,0.0165737,0.010031,1364,372,6.04416,51.2361
147,652,6.00159,-51.0239,-0.00198816,0.0203861,0.0078556,0.0228688,-0.00447078,1.2647,0.016934,0.00934581,1371,372,6.00163,51.0239
154,652,5.95496,-50.7651,-0.00248673,0.0215697,0.00711207,0.0235151,-0.00443204,1.3038,0.0173438,0.00980795,1378,372,5.95492,50.7651
161,652,5.88293,-50.4747,-0.0024526,0.0225433,0.00639464,0.0240842,-0.00399353,1.33433,0.0175395,0.011642,1385,372,5.8829,50.4747
168,652,5.82886,-50.161,-0.00432804,0.0228913,0.00497976,0.0237738,-0.00521047,1.39541,0.0178414,0.0128336,1392,372,5.8288,50.161
175,652,5.79297,-49.8357,-0.00551092,0.0230068,0.00500139,0.0238585,-0.00636262,1.40212,0.018397,0.0131753,1399,372,5.79297,49.8357
182,652,5.73169,-49.5518,-0.00508008,0.0226395,0.00503485,0.0235257,-0.00596625,1.39657,0.0180051,0.0190561,1406,372,5.73167,49.5518
189,652,5.71814,-49.2132,-0.00509097,0.021049,0.00559397,0.0221958,-0.00623777,1.36859,0.0172564,0.0315676,1413,372,5.71809,49.2132
196,652,5.65613,-48.7946,0,0,0,0,0,0,0,-1,1420,372,5.65612,48.7946
203,652,5.57874,-48.4454,0,0,0,0,0,0,0,-1,1427,372,5.57872,48.4454
210,652,5.59949,-47.9552,0,0,0,0,0,0,0,-1,1434,372,5.59945,47.9552
217,652,5.552,-46.4379,0,0,0,0,0,0,0,-1,1441,372,5.55203,46.4379
224,652,3.63794,-31.2791,0,0,0,0,0,0,0,-1,1448,372,3.63799,31.2791
231,652,3.83936,-30.4812,0,0,0,0,0,0,0,-1,1455,372,3.8393,30.4812
238,652,4.42358,-36.4103,0,0,0,0,0,0,0,-1,1462,372,4.4236,36.4103
245,652,4.53296,-41.8512,0,0,0,0,0,0,0,-1,1469,372,4.5329,41.8512
252,652,5.11475,-45.046,0,0,0,0,0,0,0,-1,1476,372,5.11469,45.046
259,652,3.44922,-31.2655,0,0,0,0,0,0,0,-1,1483,372,3.44921,31.2655
266,652,4.74963,-43.6674,0,0,0,0,0,0,0,-1,1490,372,4.74962,43.6674
273,652,4.94507,-43.4174,0,0,0,0,0,0,0,-1,1497,372,4.9451,43.4175
280,652,4.05066,-24.6993,0,0,0,0,0,0,0,-1,1504,372,4.05066,24.6993
287,652,3.19897,-22.5679,0,0,0,0,0,0,0,-1,1511,372,3.19892,22.5679
294,652,1.36951,-22.3085,-0.165665,0.0587291,-0.0487817,0.0688752,-0.175811,-1.36573,0.145697,0.0464462,1518,372,1.36947,22.3085
301,652,-0.737549,-21.8051,-0.181313,0.0626235,-0.0540975,0.0740823,-0.192772,-1.36206,0.159067,0.0432318,1525,372,-0.737578,21.8051
308,652,-2.57666,-21.5525,-0.195157,0.066347,-0.0588853,0.078995,-0.207805,-1.35922,0.17106,0.043683,1532,372,-2.5766,21.5525
315,652,-4.21008,-21.5407,0,0,0,0,0,0,0,-1,1539,372,-4.21006,21.5407
322,652,-5.69116,-21.7166,0,0,0,0,0,0,0,-1,1546,372,-5.6911,21.7166
329,652,-7.12329,-21.7065,0,0,0,0,0,0,0,-1,1553,372,-7.12334,21.7065
336,652,-3.56519,-22.3688,0,0,0,0,0,0,0,-1,1560,372,-3.56517,22.3688
343,652,-3.58069,-21.9185,0,0,0,0,0,0,0,-1,1567,372,-3.58069,21.9185
350,652,5.28394,-25.6715,0,0,0,0,0,0,0,-1,1574,372,5.28393,25.6715
357,652,0,0,0,0,0,0,0,0,0,-1,1581,372,0,0
364,652,0,0,0,0,0,0,0,0,0,-1,1588,372,0,0
371,652,0,0,0,0,0,0,0,0,0,-1,1595,372,0,0
378,652,0,0,0,0,0,0,0,0,0,-1,1602,372,0,0
385,652,0,0,0,0,0,0,0,0,0,-1,1609,372,0,0
392,652,0,0,0,0,0,0,0,0,0,-1,1616,372,0,0
399,652,0,0,0,0,0,0,0,0,0,-1,1623,372,0,0
406,652,0,0,0,0,0,0,0,0,0,-1,1630,372,0,0
413,652,0,0,0,0,0,0,0,0,0,-1,1637,372,0,0
420,652,0,0,0,0,0,0,0,0,0,-1,1644,372,0,0
427,652,0,0,0,0,0,0,0,0,0,-1,1651,372,0,0
434,652,0,0,0,0,0,0,0,0,0,-1,1658,372,0,0
441,652,0,0,0,0,0,0,0,0,0,-1,1665,372,0,0
448,652,0,0,0,0,0,0,0,0,0,-1,1672,372,0,0
455,652,0,0,0,0,0,0,0,0,0,-1,1679,372,0,0
462,652,0,0,0,0,0,0,0,0,0,-1,1686,372,0,0
469,652,0,0,0,0,0,0,0,0,0,-1,1693,372,0,0
476,652,0,0,0,0,0,0,0,0,0,-1,1700,372,0,0
483,652,0,0,0,0,0,0,0,0,0,-1,1707,372,0,0
490,652,0,0,0,0,0,0,0,0,0,-1,1714,372,0,0
497,652,0,0,0,0,0,0,0,0,0,-1,1721,372,0,0
504,652,0,0,0,0,0,0,0,0,0,-1,1728,372,0,0
511,652,0,0,0,0,0,0,0,0,0,-1,1735,372,0,0
518,652,0,0,0,0,0,0,0,0,0,-1,1742,372,0,0
525,652,0,0,0,0,0,0,0,0,0,-1,1749,372,0,0
532,652,0,0,0,0,0,0,0,0,0,-1,1756,372,0,0
539,652,0,0,0,0,0,0,0,0,0,-1,1763,372,0,0
546,652,0,0,0,0,0,0,0,0,0,-1,1770,372,0,0
553,652,0,0,0,0,0,0,0,0,0,-1,1777,372,0,0
560,652,0,0,0,0,0,0,0,0,0,-1,1784,372,0,0
567,652,0,0,0,0,0,0,0,0,0,-1,1791,372,0,0
574,652,0,0,0,0,0,0,0,0,0,-1,1798,372,0,0
581,652,0,0,0,0,0,0,0,0,0,-1,1805,372,0,0
588,652,0,0,0,0,0,0,0,0,0,-1,1812,372,0,0
595,652,0,0,0,0,0,0,0,0,0,-1,1819,372,0,0
602,652,0,0,0,0,0,0,0,0,0,-1,1826,372,0,0
609,652,0,0,0,0,0,0,0,0,0,-1,1833,372,0,0
616,652,0,0,0,0,0,0,0,0,0,-1,1840,372,0,0
623,652,0,0,0,0,0,0,0,0,0,-1,1847,372,0,0
630,652,0,0,0,0,0,0,0,0,0,-1,1854,372,0,0
637,652,0,0,0,0,0,0,0,0,0,-1,1861,372,0,0
644,652,0,0,0,0,0,0,0,0,0,-1,1868,372,0,0
651,652,0,0,0,0,0,0,0,0,0,-1,1875,372,0,0
658,652,0,0,0,0,0,0,0,0,0,-1,1882,372,0,0
665,652,0,0,0,0,0,0,0,0,0,-1,1889,372,0,0
672,652,0,0,0,0,0,0,0,0,0,-1,1896,372,0,0
679,652,0,0,0,0,0,0,0,0,0,-1,1903,372,0,0
686,652,0,0,0,0,0,0,0,0,0,-1,1910,372,0,0
693,652,0,0,0,0,0,0,0,0,0,-1,1917,372,0,0
700,652,0,0,0,0,0,0,0,0,0,-1,1924,372,0,0
707,652,0,0,0,0,0,0,0,0,0,-1,1931,372,0,0
714,652,0,0,0,0,0,0,0,0,0,-1,1938,372,0,0
721,652,0,0,0,0,0,0,0,0,0,-1,1945,372,0,0
728,652,0,0,0,0,0,0,0,0,0,-1,1952,372,0,0
735,652,0,0,0,0,0,0,0,0,0,-1,1959,372,0,0
742,652,0,0,0,0,0,0,0,0,0,-1,1966,372,0,0
749,652,0,0,0,0,0,0,0,0,0,-1,1973,372,0,0
756,652,0,0,0,0,0,0,0,0,0,-1,1980,372,0,0
763,652,0,0,0,0,0,0,0,0,0,-1,1987,372,0,0
770,652,0,0,0,0,0,0,0,0,0,-1,1994,372,0,0
777,652,0,0,0,0,0,0,0,0,0,-1,2001,372,0,0
784,652,0,0,0,0,0,0,0,0,0,-1,2008,372,0,0
791,652,0,0,0,0,0,0,0,0,0,-1,2015,372,0,0
798,652,0,0,0,0,0,0,0,0,0,-1,2022,372,0,0
805,652,0,0,0,0,0,0,0,0,0,-1,2029,372,0,0
812,652,0,0,0,0,0,0,0,0,0,-1,2036,372,0,0
-700,645,0,0,0,0,0,0,0,0,0,-1,524,379,0,0
-693,645,0,0,0,0,0,0,0,0,0,-1,531,379,0,0
-686,645,0,0,0,0,0,0,0,0,0,-1,538,379,0,0
-679,645,0,0,0,0,0,0,0,0,0,-1,545,379,0,0
-672,645,0,0,0,0,0,0,0,0,0,-1,552,379,0,0
-665,645,0,0,0,0,0,0,0,0,0,-1,559,379,0,0
-658,645,0,0,0,0,0,0,0,0,0,-1,566,379,0,0
-651,645,0,0,0,0,0,0,0,0,0,-1,573,379,0,0
-644,645,0,0,0,0,0,0,0,0,0,-1,580,379,0,0
-637,645,0,0,0,0,0,0,0,0,0,-1,587,379,0,0
-630,645,0,0,0,0,0,0,0,0,0,-1,594,379,0,0
-623,645,0,0,0,0,0,0,0,0,0,-1,601,379,0,0
-616,645,0,0,0,0,0,0,0,0,0,-1,608,379,0,0
-609,645,0,0,0,0,0,0,0,0,0,-1,615,379,0,0
-602,645,0,0,0,0,0,0,0,0,0,-1,622,379,0,0
-595,645,0,0,0,0,0,0,0,0,0,-1,629,379,0,0
-588,645,0,0,0,0,0,0,0,0,0,-1,636,379,0,0
-581,645,0,0,0,0,0,0,0,0,0,-1,643,379,0,0
-574,645,0,0,0,0,0,0,0,0,0,-1,650,379,0,0
-567,645,0,0,0,0,0,0,0,0,0,-1,657,379,0,0
-560,645,0,0,0,0,0,0,0,0,0,-1,664,379,0,0
-553,645,0,0,0,0,0,0,0,0,0,-1,671,379,0,0
-546,645,0,0,0,0,0,0,0,0,0,-1,678,379,0,0
-539,645,0,0,0,0,0,0,0,0,0,-1,685,379,0,0
-532,645,0,0,0,0,0,0,0,0,0,-1,692,379,0,0
-525,645,0,0,0,0,0,0,0,0,0,-1,699,379,0,0
-518,645,0,0,0,0,0,0,0,0,0,-1,706,379,0,0
-511,645,0,0,0,0,0,0,0,0,0,-1,713,379,0,0
-504,645,0,0,0,0,0,0,0,0,0,-1,720,379,0,0
-497,645,0,0,0,0,0,0,0,0,0,-1,727,379,0,0
-490,645,0,0,0,0,0,0,0,0,0,-1,734,379,0,0
-483,645,0,0,0,0,0,0,0,0,0,-1,741,379,0,0
-476,645,0,0,0,0,0,0,0,0,0,-1,748,379,0,0
-469,645,0,0,0,0,0,0,0,0,0,-1,755,379,0,0
-462,645,0,0,0,0,0,0,0,0,0,-1,762,379,0,0
-455,645,0,0,0,0,0,0,0,0,0,-1,769,379,0,0
-448,645,0,0,0,0,0,0,0,0,0,-1,776,379,0,0
-441,645,0,0,0,0,0,0,0,0,0,-1,783,379,0,0
-434,645,0,0,0,0,0,0,0,0,0,-1,790,379,0,0
-427,645,0,0,0,0,0,0,0,0,0,-1,797,379,0,0
-420,645,0,0,0,0,0,0,0,0,0,-1,804,379,0,0
-413,645,0,0,0,0,0,0,0,0,0,-1,811,379,0,0
-406,645,0,0,0,0,0,0,0,0,0,-1,818,379,0,0
-399,645,0,0,0,0,0,0,0,0,0,-1,825,379,0,0
-392,645,0,0,0,0,0,0,0,0,0,-1,832,379,0,0
-385,645,0,0,0,0,0,0,0,0,0,-1,839,379,0,0
-378,645,0,0,0,0,0,0,0,0,0,-1,846,379,0,0
-371,645,0,0,0,0,0,0,0,0,0,-1,853,379,0,0
-364,645,0,0,0,0,0,0,0,0,0,-1,860,379,0,0
-357,645,0,0,0,0,0,0,0,0,0,-1,867,379,0,0
-350,645,0,0,0,0,0,0,0,0,0,-1,874,379,0,0
-343,645,0,0,0,0,0,0,0,0,0,-1,881,379,0,0
-336,645,0,0,0,0,0,0,0,0,0,-1,888,379,0,0
-329,645,0,0,0,0,0,0,0,0,0,-1,895,379,0,0
-322,645,0,0,0,0,0,0,0,0,0,-1,902,379,0,0
-315,645,0,0,0,0,0,0,0,0,0,-1,909,379,0,0
-308,645,0,0,0,0,0,0,0,0,0,-1,916,379,0,0
-301,645,0,0,0,0,0,0,0,0,0,-1,923,379,0,0
-294,645,0,0,0,0,0,0,0,0,0,-1,930,379,0,0
-287,645,0,0,0,0,0,0,0,0,0,-1,937,379,0,0
-280,645,0,0,0,0,0,0,0,0,0,-1,944,379,0,0
-273,645,0,0,0,0,0,0,0,0,0,-1,951,379,0,0
-266,645,0,0,0,0,0,0,0,0,0,-1,958,379,0,0
-259,645,0,0,0,0,0,0,0,0,0,-1,965,379,0,0
-252,645,2.95691,-26.9133,0,0,0,0,0,0,0,-1,972,379,2.9569,26.9133
-245,645,2.73169,-27.0215,0,0,0,0,0,0,0,-1,979,379,2.73172,27.0215
-238,645,2.6665,-26.9464,0,0,0,0,0,0,0,-1,986,379,2.66649,26.9464
-231,645,7.26807,-29.1054,0,0,0,0,0,0,0,-1,993,379,7.26806,29.1054
-224,645,7.69073,-29.5737,0,0,0,0,0,0,0,-1,1000,379,7.69071,29.5737
-217,645,8.65485,-33.4136,0,0,0,0,0,0,0,-1,1007,379,8.65487,33.4136
-210,645,9.21594,-32.5157,0,0,0,0,0,0,0,-1,1014,379,9.21591,32.5156
-203,645,9.77698,-31.6176,0,0,0,0,0,0,0,-1,1021,379,9.77696,31.6177
-196,645,10.2664,-29.7741,0,0,0,0,0,0,0,-1,1028,379,10.2664,29.7741
-189,645,5.88062,-28.2191,0,0,0,0,0,0,0,-1,1035,379,5.88062,28.2191
-182,645,6.34167,-29.2525,0,0,0,0,0,0,0,-1,1042,379,6.3417,29.2525
-175,645,6.36462,-35.5586,0,0,0,0,0,0,0,-1,1049,379,6.3646,35.5586
-168,645,7.19116,-39.5785,0,0,0,0,0,0,0,-1,1056,379,7.19115,39.5785
-161,645,7.22083,-37.6093,0,0,0,0,0,0,0,-1,1063,379,7.22085,37.6094
-154,645,7.42102,-41.6806,0,0,0,0,0,0,0,-1,1070,379,7.42105,41.6806
-147,645,7.49707,-42.1218,0,0,0,0,0,0,0,-1,1077,379,7.49713,42.1218
-140,645,7.52234,-44.2553,0,0,0,0,0,0,0,-1,1084,379,7.52236,44.2553
-133,645,7.50476,-44.5187,0,0,0,0,0,0,0,-1,1091,379,7.50474,44.5187
-126,645,7.56702,-45.5351,0,0,0,0,0,0,0,-1,1098,379,7.56697,45.5351
-119,645,7.39917,-45.9779,-0.00810136,0.0146278,-0.00348448,0.01515,-0.00862355,-1.42204,0.013897,0.0358485,1105,379,7.3992,45.9779
-112,645,7.3175,-46.34,-0.00801586,0.0136228,-0.00297108,0.0140233,-0.00841639,-1.4368,0.0130897,0.037159,1112,379,7.31751,46.34
-105,645,7.24731,-46.707,0,0,0,0,0,0,0,-1,1119,379,7.24733,46.707
-98,645,7.22314,-47.4939,0,0,0,0,0,0,0,-1,1126,379,7.22318,47.4939
-91,645,7.12195,-47.928,0,0,0,0,0,0,0,-1,1133,379,7.12191,47.928
-84,645,7.05664,-48.3431,0,0,0,0,0,0,0,-1,1140,379,7.05662,48.3431
-77,645,7.16492,-48.7387,-0.00652052,0.00687803,-0.00170808,0.00709235,-0.00673484,-1.44597,0.00798403,0.0432773,1147,379,7.16492,48.7387
-70,645,7.09424,-49.1314,-0.00642411,0.00664627,-0.00161733,0.00684342,-0.00662127,-1.44949,0.0077742,0.0161515,1154,379,7.09419,49.1314
-63,645,7.01196,-49.4005,-0.00606638,0.00687707,-0.00173561,0.00710576,-0.00629507,-1.43979,0.0077417,0.0122317,1161,379,7.01195,49.4005
-56,645,6.9657,-49.7089,-0.0050549,0.00755803,-0.00132027,0.00769475,-0.00519161,-1.46761,0.00748659,0.0132966,1168,379,6.9657,49.7089
-49,645,6.93396,-50.0214,-0.0040942,0.00872335,-0.00109966,0.00881701,-0.00418786,-1.48583,0.00766528,0.0110923,1175,379,6.93399,50.0214
-42,645,6.87,-50.3163,-0.00310515,0.00970873,-0.000819022,0.00976087,-0.00315728,-1.50722,0.00777634,0.0106074,1182,379,6.86994,50.3162
-35,645,6.84558,-50.6312,-0.00210739,0.0108516,-0.000531202,0.0108734,-0.00212913,-1.5299,0.00805299,0.0108997,1189,379,6.84559,50.6312
-28,645,6.80627,-50.9205,-0.00117002,0.011876,-0.000198272,0.011879,-0.00117303,-1.5556,0.00833787,0.0088961,1196,379,6.80622,50.9205
-21,645,6.76123,-51.1524,-0.000278225,0.0126358,9.28378e-05,0.0126365,-0.000278892,1.56361,0.00851879,0.0104299,1203,379,6.76125,51.1524
-14,645,6.73645,-51.3893,0.000588102,0.0132243,0.000388906,0.0132363,0.000576144,1.54006,0.00863853,0.0105429,1210,379,6.73642,51.3893
-7,645,6.71436,-51.6046,0.00135959,0.013638,0.000601799,0.0136674,0.00133017,1.52194,0.00870216,0.0140884,1217,379,6.71433,51.6046
0,645,6.69897,-51.7517,0.00187314,0.0144719,0.00111621,0.0145701,0.00177501,1.48311,0.00917909,0.0271485,1224,379,6.69903,51.7517
7,645,6.67688,-51.8779,0.00205826,0.0155662,0.00178051,0.015797,0.00182751,1.44192,0.00997809,0.0187496,1231,379,6.67687,51.8779
14,645,6.64453,-52.0157,0.00212889,0.0164896,0.00226585,0.0168386,0.00177987,1.41796,0.010682,0.0169353,1238,379,6.64447,52.0157
21,645,6.6001,-52.1703,0.00192934,0.0173575,0.00282605,0.0178589,0.00142798,1.39521,0.0114596,0.0112229,1245,379,6.60006,52.1703
28,645,6.60449,-52.2901,0.00161517,0.0179876,0.00337243,0.018655,0.000947718,1.37541,0.0121331,0.0097405,1252,379,6.60449,52.2901
35,645,6.58276,-52.3673,0.0011241,0.0184375,0.00393138,0.0192884,0.00027321,1.35765,0.0127688,0.00969734,1259,379,6.58276,52.3673
42,645,6.55591,-52.4471,0.000353854,0.018453,0.0045898,0.0195504,-0.000743544,1.33611,0.0132884,0.0100681,1266,379,6.55591,52.4471
49,645,6.56604,-52.4911,-0.000478816,0.0184086,0.00503463,0.0196668,-0.00173703,1.3259,0.0137269,0.012991,1273,379,6.56601,52.4911
56,645,6.56677,-52.4946,-0.00158087,0.0178398,0.00545457,0.0192669,-0.00300799,1.31489,0.0139557,0.0125292,1280,379,6.56678,52.4946
63,645,6.53503,-52.5401,-0.00204065,0.0167667,0.00595835,0.0184955,-0.00376941,1.28841,0.01376,0.0125823,1287,379,6.53498,52.5401
70,645,6.4895,-52.5275,-0.00236071,0.0153701,0.00633294,0.0173997,-0.00439033,1.26065,0.0133069,0.0180062,1294,379,6.4895,52.5275
77,645,6.48315,-52.5135,-0.00275059,0.0140013,0.00654026,0.0162523,-0.00500157,1.23932,0.0128312,0.0205037,1301,379,6.48318,52.5135
84,645,6.48596,-52.465,-0.00286477,0.012781,0.00649425,0.0151254,-0.00520912,1.22436,0.0121966,0.0139001,1308,379,6.48593,52.465
91,645,6.4198,-52.42,-0.00285803,0.0116805,0.00631368,0.0140396,-0.0052171,1.21321,0.0115002,0.014635,1315,379,6.41985,52.42
98,645,6.40442,-52.3097,-0.00271482,0.0109289,0.00620396,0.0133281,-0.00511396,1.2018,0.0109939,0.0135608,1322,379,6.40442,52.3097
105,645,6.38916,-52.1613,-0.00231416,0.0103402,0.00579526,0.0125931,-0.00456709,1.20002,0.0102623,0.0108504,1329,379,6.38919,52.1613
112,645,6.35486,-52.0241,-0.00178606,0.0101336,0.00528188,0.0121373,-0.00378976,1.20821,0.00960725,0.00945092,1336,379,6.35483,52.0241
119,645,6.34741,-51.8623,-0.00149855,0.0107169,0.0050411,0.0125286,-0.00331024,1.22579,0.00964701,0.00932876,1343,379,6.34739,51.8623
126,645,6.31799,-51.6776,-0.00125233,0.0117367,0.00461708,0.0132107,-0.00272626,1.26179,0.00984254,0.0126831,1350,379,6.318,51.6776
133,645,6.29712,-51.4812,-0.00119746,0.0131772,0.00421246,0.0143206,-0.00234095,1.30573,0.0104155,0.0136822,1357,379,6.29707,51.4812
140,645,6.2677,-51.2762,-0.00121805,0.0144285,0.00386247,0.01533,-0.00211958,1.34149,0.0109949,0.0122119,1364,379,6.26767,51.2762
147,645,6.21094,-51.062,-0.00125514,0.0156387,0.00347756,0.0163265,-0.00194298,1.37552,0.0115865,0.0131376,1371,379,6.2109,51.062
154,645,6.19019,-50.8072,-0.00154435,0.0162108,0.00340373,0.016841,-0.00217449,1.38774,0.0120179,0.012349,1378,379,6.19023,50.8071
161,645,6.1322,-50.5094,-0.00152085,0.0167061,0.00334926,0.017302,-0.00211681,1.3947,0.0123011,0.0147908,1385,379,6.13226,50.5094
168,645,6.08411,-50.2122,-0.00263458,0.0168766,0.00305269,0.0173431,-0.00310104,1.41916,0.0127223,0.0173723,1392,379,6.08417,50.2121
175,645,6.0907,-49.9307,-0.00347243,0.0167588,0.00334173,0.0172964,-0.00401011,1.41126,0.0130743,0.014913,1399,379,6.0907,49.9307
182,645,6.0343,-49.602,-0.00348549,0.0162902,0.00362509,0.0169337,-0.00412907,1.39509,0.0128879,0.0114823,1406,379,6.03426,49.602
189,645,5.99475,-49.2194,-0.00360375,0.0153842,0.00410797,0.0162348,-0.00445439,1.36661,0.0125738,0.0123813,1413,379,5.99477,49.2194
196,645,5.94971,-48.8905,-0.00363464,0.014458,0.00454119,0.0155338,-0.00471049,1.33818,0.0122322,0.0119024,1420,379,5.94968,48.8905
203,645,5.89282,-48.4947,-0.00384023,0.013659,0.00483635,0.0149067,-0.00508792,1.31832,0.0119989,0.012096,1427,379,5.89283,48.4947
210,645,5.89661,-48.0169,-0.00433345,0.0121494,0.00480768,0.0134492,-0.00563324,1.30675,0.0113211,0.0223261,1434,379,5.8966,48.0169
217,645,5.81177,-47.7013,0,0,0,0,0,0,0,-1,1441,379,5.81182,47.7013
224,645,5.76489,-47.235,0,0,0,0,0,0,0,-1,1448,379,5.76486,47.235
231,645,5.68005,-46.7454,0,0,0,0,0,0,0,-1,1455,379,5.6801,46.7454
238,645,5.59863,-46.2772,0,0,0,0,0,0,0,-1,1462,379,5.59864,46.2772
245,645,5.58228,-45.7191,0,0,0,0,0,0,0,-1,1469,379,5.58223,45.7191
252,645,5.59912,-45.1889,0,0,0,0,0,0,0,-1,1476,379,5.59916,45.1889
259,645,5.67517,-44.7193,0,0,0,0,0,0,0,-1,1483,379,5.67521,44.7193
266,645,5.28516,-44.0319,-0.063415,0.0337915,-0.0153087,0.0361454,-0.0657689,-1.41823,0.0596631,0.042058,1490,379,5.28513,44.0319
273,645,5.38232,-43.6429,-0.07748,0.0373041,-0.019848,0.0406392,-0.0808151,-1.40432,0.071389,0.0310777,1497,379,5.38228,43.6428
280,645,5.51819,-43.1722,0,0,0,0,0,0,0,-1,1504,379,5.5182,43.1722
287,645,5.25439,-22.6157,0,0,0,0,0,0,0,-1,1511,379,5.25445,22.6157
294,645,3.40979,-22.4114,-0.120005,0.0481357,-0.0335769,0.0545929,-0.126462,-1.38081,0.107242,0.0498324,1518,379,3.40984,22.4114
301,645,1.35217,-22.1208,-0.132239,0.0515796,-0.0375995,0.0589731,-0.139632,-1.37664,0.117775,0.0464207,1525,379,1.3522,22.1208
308,645,-0.529297,-21.7611,-0.142852,0.0548139,-0.0411081,0.0630222,-0.15106,-1.37371,0.127036,0.04567,1532,379,-0.529316,21.7611
315,645,-2.39441,-21.3959,0,0,0,0,0,0,0,-1,1539,379,-2.39445,21.3959
322,645,-3.10815,-22.5803,0,0,0,0,0,0,0,-1,1546,379,-3.10812,22.5803
329,645,-4.45581,-22.707,0,0,0,0,0,0,0,-1,1553,379,-4.45579,22.707
336,645,-5.83154,-22.8404,0,0,0,0,0,0,0,-1,1560,379,-5.83149,22.8404
343,645,4.03186,-38.0623,0,0,0,0,0,0,0,-1,1567,379,4.03187,38.0623
350,645,4.76404,-22.1987,0,0,0,0,0,0,0,-1,1574,379,4.76399,22.1987
357,645,4.61316,-21.967,0,0,0,0,0,0,0,-1,1581,379,4.61316,21.967
364,645,-0.0794678,-3.22021,0,0,0,0,0,0,0,-1,1588,379,-0.0794987,3.22021
371,645,0,0,0,0,0,0,0,0,0,-1,1595,379,0,0
378,645,0,0,0,0,0,0,0,0,0,-1,1602,379,0,0
385,645,0,0,0,0,0,0,0,0,0,-1,1609,379,0,0
392,645,0,0,0,0,0,0,0,0,0,-1,1616,379,0,0
399,645,0,0,0,0,0,0,0,0,0,-1,1623,379,0,0
406,645,0,0,0,0,0,0,0,0,0,-1,1630,379,0,0
413,645,0,0,0,0,0,0,0,0,0,-1,1637,379,0,0
420,645,0,0,0,0,0,0,0,0,0,-1,1644,379,0,0
427,645,0,0,0,0,0,0,0,0,0,-1,1651,379,0,0
434,645,0,0,0,0,0,0,0,0,0,-1,1658,379,0,0
441,645,0,0,0,0,0,0,0,0,0,-1,1665,379,0,0
448,645,0,0,0,0,0,0,0,0,0,-1,1672,379,0,0
455,645,0,0,0,0,0,0,0,0,0,-1,1679,379,0,0
462,645,0,0,0,0,0,0,0,0,0,-1,1686,379,0,0
469,645,0,0,0,0,0,0,0,0,0,-1,1693,379,0,0
476,645,0,0,0,0,0,0,0,0,0,-1,1700,379,0,0
483,645,0,0,0,0,0,0,0,0,0,-1,1707,379,0,0
490,645,0,0,0,0,0,0,0,0,0,-1,1714,379,0,0
497,645,0,0,0,0,0,0,0,0,0,-1,1721,379,0,0
504,645,0,0,0,0,0,0,0,0,0,-1,1728,379,0,0
511,645,0,0,0,0,0,0,0,0,0,-1,1735,379,0,0
518,645,0,0,0,0,0,0,0,0,0,-1,1742,379,0,0
525,645,0,0,0,0,0,0,0,0,0,-1,1749,379,0,0
532,645,0,0,0,0,0,0,0,0,0,-1,1756,379,0,0
539,645,0,0,0,0,0,0,0,0,0,-1,1763,379,0,0
546,645,0,0,0,0,0,0,0,0,0,-1,1770,379,0,0
553,645,0,0,0,0,0,0,0,0,0,-1,1777,379,0,0
560,645,0,0,0,0,0,0,0,0,0,-1,1784,379,0,0
567,645,0,0,0,0,0,0,0,0,0,-1,1791,379,0,0
574,645,0,0,0,0,0,0,0,0,0,-1,1798,379,0,0
581,645,0,0,0,0,0,0,0,0,0,-1,1805,379,0,0
588,645,0,0,0,0,0,0,0,0,0,-1,1812,379,0,0
595,645,0,0,0,0,0,0,0,0,0,-1,1819,379,0,0
602,645,0,0,0,0,0,0,0,0,0,-1,1826,379,0,0
609,645,0,0,0,0,0,0,0,0,0,-1,1833,379,0,0
616,645,0,0,0,0,0,0,0,0,0,-1,1840,379,0,0
623,645,0,0,0,0,0,0,0,0,0,-1,1847,379,0,0
630,645,0,0,0,0,0,0,0,0,0,-1,1854,379,0,0
637,645,0,0,0,0,0,0,0,0,0,-1,1861,379,0,0
644,645,0,0,0,0,0,0,0,0,0,-1,1868,379,0,0
651,645,0,0,0,0,0,0,0,0,0,-1,1875,379,0,0
658,645,0,0,0,0,0,0,0,0,0,-1,1882,379,0,0
665,645,0,0,0,0,0,0,0,0,0,-1,1889,379,0,0
672,645,0,0,0,0,0,0,0,0,0,-1,1896,379,0,0
679,645,0,0,0,0,0,0,0,0,0,-1,1903,379,0,0
686,645,0,0,0,0,0,0,0,0,0,-1,1910,379,0,0
693,645,0,0,0,0,0,0,0,0,0,-1,1917,379,0,0
700,645,0,0,0,0,0,0,0,0,0,-1,1924,379,0,0
707,645,0,0,0,0,0,0,0,0,0,-1,1931,379,0,0
714,645,0,0,0,0,0,0,0,0,0,-1,1938,379,0,0
721,645,0,0,0,0,0,0,0,0,0,-1,1945,379,0,0
728,645,0,0,0,0,0,0,0,0,0,-1,1952,379,0,0
735,645,0,0,0,0,0,0,0,0,0,-1,1959,379,0,0
742,645,0,0,0,0,0,0,0,0,0,-1,1966,379,0,0
749,645,0,0,0,0,0,0,0,0,0,-1,1973,379,0,0
756,645,0,0,0,0,0,0,0,0,0,-1,1980,379,0,0
763,645,0,0,0,0,0,0,0,0,0,-1,1987,379,0,0
770,645,0,0,0,0,0,0,0,0,0,-1,1994,379,0,0
777,645,0,0,0,0,0,0,0,0,0,-1,2001,379,0,0
784,645,0,0,0,0,0,0,0,0,0,-1,2008,379,0,0
791,645,0,0,0,0,0,0,0,0,0,-1,2015,379,0,0
798,645,0,0,0,0,0,0,0,0,0,-1,2022,379,0,0
805,645,0,0,0,0,0,0,0,0,0,-1,2029,379,0,0
812,645,0,0,0,0,0,0,0,0,0,-1,2036,379,0,0
-700,638,0,0,0,0,0,0,0,0,0,-1,524,386,0,0
-693,638,0,0,0,0,0,0,0,0,0,-1,531,386,0,0
-686,638,0,0,0,0,0,0,0,0,0,-1,538,386,0,0
-679,638,0,0,0,0,0,0,0,0,0,-1,545,386,0,0
-672,638,0,0,0,0,0,0,0,0,0,-1,552,386,0,0
-665,638,0,0,0,0,0,0,0,0,0,-1,559,386,0,0
-658,638,0,0,0,0,0,0,0,0,0,-1,566,386,0,0
-651,638,0,0,0,0,0,0,0,0,0,-1,573,386,0,0
-644,638,0,0,0,0,0,0,0,0,0,-1,580,386,0,0
-637,638,0,0,0,0,0,0,0,0,0,-1,587,386,0,0
-630,638,0,0,0,0,0,0,0,0,0,-1,594,386,0,0
-623,638,0,0,0,0,0,0,0,0,0,-1,601,386,0,0
-616,638,0,0,0,0,0,0,0,0,0,-1,608,386,0,0
-609,638,0,0,0,0,0,0,0,0,0,-1,615,386,0,0
-602,638,0,0,0,0,0,0,0,0,0,-1,622,386,0,0
-595,638,0,0,0,0,0,0,0,0,0,-1,629,386,0,0
-588,638,0,0,0,0,0,0,0,0,0,-1,636,386,0,0
-581,638,0,0,0,0,0,0,0,0,0,-1,643,386,0,0
-574,638,0,0,0,0,0,0,0,0,0,-1,650,386,0,0
-567,638,0,0,0,0,0,0,0,0,0,-1,657,386,0,0
-560,638,0,0,0,0,0,0,0,0,0,-1,664,386,0,0
-553,638,0,0,0,0,0,0,0,0,0,-1,671,386,0,0
-546,638,0,0,0,0,0,0,0,0,0,-1,678,386,0,0
-539,638,0,0,0,0,0,0,0,0,0,-1,685,386,0,0
-532,638,0,0,0,0,0,0,0,0,0,-1,692,386,0,0
-525,638,0,0,0,0,0,0,0,0,0,-1,699,386,0,0
-518,638,0,0,0,0,0,0,0,0,0,-1,706,386,0,0
-511,638,0,0,0,0,0,0,0,0,0,-1,713,386,0,0
-504,638,0,0,0,0,0,0,0,0,0,-1,720,386,0,0
-497,638,0,0,0,0,0,0,0,0,0,-1,727,386,0,0
-490,638,0,0,0,0,0,0,0,0,0,-1,734,386,0,0
-483,638,0,0,0,0,0,0,0,0,0,-1,741,386,0,0
-476,638,0,0,0,0,0,0,0,0,0,-1,748,386,0,0
-469,638,0,0,0,0,0,0,0,0,0,-1,755,386,0,0
-462,638,0,0,0,0,0,0,0,0,0,-1,762,386,0,0
-455,638,0,0,0,0,0,0,0,0,0,-1,769,386,0,0
-448,638,0,0,0,0,0,0,0,0,0,-1,776,386,0,0
-441,638,0,0,0,0,0,0,0,0,0,-1,783,386,0,0
-434,638,0,0,0,0,0,0,0,0,0,-1,790,386,0,0
-427,638,0,0,0,0,0,0,0,0,0,-1,797,386,0,0
-420,638,0,0,0,0,0,0,0,0,0,-1,804,386,0,0
-413,638,0,0,0,0,0,0,0,0,0,-1,811,386,0,0
-406,638,0,0,0,0,0,0,0,0,0,-1,818,386,0,0
-399,638,0,0,0,0,0,0,0,0,0,-1,825,386,0,0
-392,638,0,0,0,0,0,0,0,0,0,-1,832,386,0,0
-385,638,0,0,0,0,0,0,0,0,0,-1,839,386,0,0
-378,638,0,0,0,0,0,0,0,0,0,-1,846,386,0,0
-371,638,0,0,0,0,0,0,0,0,0,-1,853,386,0,0
-364,638,0,0,0,0,0,0,0,0,0,-1,860,386,0,0
-357,638,0,0,0,0,0,0,0,0,0,-1,867,386,0,0
-350,638,0,0,0,0,0,0,0,0,0,-1,874,386,0,0
-343,638,0,0,0,0,0,0,0,0,0,-1,881,386,0,0
-336,638,0,0,0,0,0,0,0,0,0,-1,888,386,0,0
-329,638,0,0,0,0,0,0,0,0,0,-1,895,386,0,0
-322,638,0,0,0,0,0,0,0,0,0,-1,902,386,0,0
-315,638,0,0,0,0,0,0,0,0,0,-1,909,386,0,0
-308,638,0,0,0,0,0,0,0,0,0,-1,916,386,0,0
-301,638,0,0,0,0,0,0,0,0,0,-1,923,386,0,0
-294,638,0,0,0,0,0,0,0,0,0,-1,930,386,0,0
-287,638,0,0,0,0,0,0,0,0,0,-1,937,386,0,0
-280,638,0,0,0,0,0,0,0,0,0,-1,944,386,0,0
-273,638,0,0,0,0,0,0,0,0,0,-1,951,386,0,0
-266,638,10.1613,-36.3326,0,0,0,0,0,0,0,-1,958,386,10.1612,36.3326
-259,638,9.95282,-34.6103,0,0,0,0,0,0,0,-1,965,386,9.9528,34.6103
-252,638,9.95746,-33.6964,0,0,0,0,0,0,0,-1,972,386,9.95744,33.6965
-245,638,9.84143,-32.9009,0,0,0,0,0,0,0,-1,979,386,9.84145,32.9009
-238,638,2.93518,-26.3649,0,0,0,0,0,0,0,-1,986,386,2.93516,26.3649
-231,638,2.36829,-26.0088,0,0,0,0,0,0,0,-1,993,386,2.3683,26.0088
-224,638,6.3465,-30.9124,0,0,0,0,0,0,0,-1,1000,386,6.34648,30.9124
-217,638,7.41205,-32.7263,0,0,0,0,0,0,0,-1,1007,386,7.41204,32.7262
-210,638,8.7038,-34.5688,0,0,0,0,0,0,0,-1,1014,386,8.70378,34.5689
-203,638,4.32593,-27.5803,0,0,0,0,0,0,0,-1,1021,386,4.32594,27.5803
-196,638,6.0614,-28.4651,0,0,0,0,0,0,0,-1,1028,386,6.06143,28.4651
-189,638,11.4561,-30.1556,0,0,0,0,0,0,0,-1,1035,386,11.456,30.1556
-182,638,6.45471,-33.4271,0,0,0,0,0,0,0,-1,1042,386,6.45473,33.427
-175,638,6.49841,-38.5815,0,0,0,0,0,0,0,-1,1049,386,6.49845,38.5815
-168,638,7.34399,-42.8214,0,0,0,0,0,0,0,-1,1056,386,7.34401,42.8214
-161,638,7.35474,-43.3962,0,0,0,0,0,0,0,-1,1063,386,7.35474,43.3962
-154,638,7.26306,-43.8366,0,0,0,0,0,0,0,-1,1070,386,7.26309,43.8366
-147,638,7.23645,-44.3148,0,0,0,0,0,0,0,-1,1077,386,7.23646,44.3148
-140,638,7.20276,-44.4613,0,0,0,0,0,0,0,-1,1084,386,7.20273,44.4613
-133,638,7.0752,-45.1181,0,0,0,0,0,0,0,-1,1091,386,7.07517,45.1181
-126,638,7.08167,-45.698,-0.00589813,0.0116177,-0.00353501,0.0123042,-0.00658465,-1.37898,0.0110709,0.0236528,1098,386,7.08164,45.698
-119,638,6.99426,-46.1908,-0.00580744,0.0107773,-0.00305156,0.011321,-0.0063511,-1.39449,0.0103366,0.0200795,1105,386,6.99422,46.1908
-112,638,6.9563,-46.6624,-0.0056457,0.0100527,-0.00262215,0.0104791,-0.00607211,-1.40959,0.00966807,0.0180829,1112,386,6.95634,46.6624
-105,638,6.92712,-47.1123,-0.005397,0.00926193,-0.00235164,0.00962994,-0.00576501,-1.41556,0.00898117,0.017298,1119,386,6.92713,47.1123
-98,638,6.86743,-47.5351,-0.00519087,0.00823055,-0.00209335,0.00854948,-0.00550979,-1.41961,0.00818012,0.0165958,1126,386,6.86742,47.5351
-91,638,6.79077,-47.9435,-0.00495832,0.00713678,-0.00186509,0.00741785,-0.00523939,-1.42122,0.00734365,0.0136268,1133,386,6.79072,47.9435
-84,638,6.7356,-48.3434,-0.004552,0.00601099,-0.00168953,0.00627464,-0.00481566,-1.41599,0.00642143,0.0154521,1140,386,6.73554,48.3434
-77,638,6.7262,-48.7276,-0.00420147,0.00521618,-0.00154038,0.00546172,-0.00444702,-1.41272,0.00573081,0.012329,1147,386,6.7262,48.7276
-70,638,6.69971,-49.0951,-0.00403146,0.00489023,-0.00140651,0.00510671,-0.00424794,-1.41808,0.00540849,0.0123648,1154,386,6.69977,49.0951
-63,638,6.67297,-49.4506,-0.00369813,0.00480328,-0.00139483,0.00502628,-0.00392113,-1.41226,0.00517891,0.0125917,1161,386,6.67303,49.4506
-56,638,6.66907,-49.7681,-0.00313408,0.00482726,-0.00119617,0.0050031,-0.00330992,-1.42484,0.00483259,0.0155403,1168,386,6.66901,49.7681
-49,638,6.64221,-50.0643,-0.00260989,0.00520288,-0.00101896,0.00533358,-0.00274059,-1.44322,0.00474108,0.0129725,1175,386,6.64216,50.0643
-42,638,6.60095,-50.3401,-0.00207489,0.00547252,-0.000781235,0.00555253,-0.0021549,-1.46873,0.00459175,0.0118941,1182,386,6.60092,50.3401
-35,638,6.58582,-50.6563,-0.00148092,0.0058664,-0.000574412,0.00591103,-0.00152556,-1.49324,0.00453555,0.0114164,1189,386,6.58585,50.6563
-28,638,6.56372,-50.9382,-0.000899386,0.00612544,-0.000354713,0.0061433,-0.000917251,-1.52047,0.00443303,0.0106275,1196,386,6.56372,50.9382
-21,638,6.52246,-51.1616,-0.000311992,0.00619567,-0.000174905,0.00620037,-0.00031669,-1.54395,0.00424308,0.0116689,1203,386,6.52243,51.1616
-14,638,6.49878,-51.4139,0.00031007,0.00624356,1.36066e-06,0.00624356,0.00031007,1.57057,0.00406296,0.0118181,1210,386,6.49877,51.4139
-7,638,6.51416,-51.6668,0.000929485,0.00616832,0.000107064,0.00617051,0.000927298,1.55037,0.00384206,0.017617,1217,386,6.51412,51.6668
0,638,6.53845,-51.8055,0.00138944,0.00640969,0.000419229,0.00644446,0.00135467,1.48805,0.00392349,0.0348302,1224,386,6.53846,51.8055
7,638,6.50916,-51.9284,0.00161153,0.00694478,0.000782936,0.00705734,0.00149897,1.42801,0.00429336,0.0274386,1231,386,6.50918,51.9284
14,638,6.47839,-52.0692,0.00175936,0.00738579,0.00106323,0.00758001,0.00156515,1.39012,0.00462084,0.0137681,1238,386,6.47841,52.0692
21,638,6.47729,-52.2148,0.00180926,0.00796136,0.00135117,0.00824504,0.00152559,1.36385,0.00506533,0.0110157,1245,386,6.47725,52.2148
28,638,6.49023,-52.3152,0.00182076,0.00845314,0.00158566,0.00881274,0.00146117,1.34779,0.00545375,0.00952948,1252,386,6.49028,52.3152
35,638,6.49426,-52.3979,0.00170328,0.00895361,0.00179717,0.00937463,0.00128225,1.34068,0.00586921,0.0118625,1259,386,6.49425,52.3979
42,638,6.51538,-52.4799,0.00142768,0.00931417,0.00205339,0.00981678,0.000925075,1.33075,0.00625899,0.0106576,1266,386,6.51538,52.4799
49,638,6.54382,-52.5106,0.00110566,0.0096423,0.00218844,0.0101706,0.000577336,1.33391,0.0065964,0.00900379,1273,386,6.54381,52.5106
56,638,6.52734,-52.526,0.000635541,0.00966953,0.00228364,0.010214,9.1088e-05,1.33675,0.00677916,0.0116172,1280,386,6.52732,52.526
63,638,6.49109,-52.5444,0.000135982,0.00942988,0.00226758,0.00995362,-0.00038776,1.34381,0.0067687,0.0143963,1287,386,6.49103,52.5444
70,638,6.48376,-52.5538,-0.000312902,0.0090808,0.00225253,0.00959301,-0.000825111,1.34721,0.00668737,0.020217,1294,386,6.48371,52.5538
77,638,6.50769,-52.5122,-0.000706492,0.00874952,0.00216922,0.00922339,-0.00118037,1.35572,0.00657778,0.0203179,1301,386,6.50773,52.5122
84,638,6.53967,-52.4539,-0.00103929,0.00835036,0.00195408,0.00874079,-0.00142972,1.37359,0.00635758,0.0141512,1308,386,6.53973,52.4539
91,638,6.52161,-52.3787,-0.00144596,0.00778926,0.00169005,0.00808882,-0.00174552,1.39537,0.00605879,0.014438,1315,386,6.52157,52.3787
98,638,6.49683,-52.2798,-0.00182657,0.0073797,0.00153671,0.00762943,-0.0020763,1.40969,0.00590142,0.0131117,1322,386,6.4968,52.2798
105,638,6.48267,-52.1724,-0.00198824,0.00700491,0.00125646,0.00717716,-0.00216048,1.43456,0.00564448,0.0105898,1329,386,6.48261,52.1724
112,638,6.48547,-52.0359,-0.00198709,0.00677099,0.00101326,0.00688669,-0.00210279,1.4571,0.00542953,0.010267,1336,386,6.48544,52.0359
119,638,6.50769,-51.8834,-0.00203588,0.00698984,0.000957659,0.00709034,-0.00213637,1.46624,0.00557712,0.012474,1343,386,6.50775,51.8834
126,638,6.505,-51.708,-0.00202733,0.00740848,0.000862538,0.00748667,-0.00210552,1.48038,0.0058213,0.0162869,1350,386,6.50502,51.708
133,638,6.48572,-51.5156,-0.0019742,0.00814934,0.000868605,0.00822333,-0.00204818,1.48582,0.00627733,0.0164747,1357,386,6.48571,51.5156
140,638,6.46997,-51.3123,-0.00182405,0.00880887,0.000939448,0.00889123,-0.00190641,1.48335,0.00665461,0.016555,1364,386,6.46992,51.3123
147,638,6.44629,-51.0847,-0.00165164,0.00949051,0.000975031,0.00957519,-0.00173631,1.48417,0.00703403,0.0188396,1371,386,6.44627,51.0847
154,638,6.42566,-50.8457,-0.00154178,0.00995761,0.00112167,0.010066,-0.00165016,1.47446,0.00732296,0.0171559,1378,386,6.4257,50.8457
161,638,6.39661,-50.523,-0.00131426,0.0104462,0.00130705,0.0105897,-0.00145778,1.46143,0.0075925,0.0189192,1385,386,6.39656,50.5231
168,638,6.40747,-50.1939,-0.00124863,0.0107515,0.00155085,0.0109487,-0.00144582,1.44433,0.00782572,0.0237206,1392,386,6.40749,50.1939
175,638,6.41345,-49.9579,-0.00148382,0.010826,0.00189451,0.0111109,-0.00176879,1.4215,0.00806184,0.020288,1399,386,6.41342,49.958
182,638,6.32642,-49.6357,-0.00175167,0.0106716,0.002256,0.0110686,-0.00214866,1.39661,0.00818981,0.0145497,1406,386,6.32643,49.6357
189,638,6.30994,-49.2437,-0.00198749,0.0104198,0.00268186,0.0109747,-0.00254237,1.36678,0.00829484,0.0132407,1413,386,6.30996,49.2437
196,638,6.28821,-48.9046,-0.00211871,0.0101549,0.00309129,0.0108896,-0.00285332,1.33748,0.00837444,0.0154069,1420,386,6.28821,48.9046
203,638,6.27673,-48.5517,-0.00236143,0.00995952,0.00342216,0.0108462,-0.00324813,1.31727,0.00852241,0.0201726,1427,386,6.27677,48.5517
210,638,6.23206,-48.182,-0.00279414,0.00930182,0.00354573,0.0102646,-0.00375689,1.30567,0.00838088,0.0164739,1434,386,6.23207,48.182
217,638,6.18774,-47.7222,-0.00277383,0.0100731,0.00341746,0.0109256,-0.00362635,1.32633,0.0087468,0.0130999,1441,386,6.1877,47.7222
224,638,6.14832,-47.2648,-0.00241591,0.0114526,0.00349497,0.0122836,-0.00324688,1.33737,0.00945896,0.011631,1448,386,6.14827,47.2648
231,638,6.07654,-46.8148,-0.00203413,0.0126956,0.00383492,0.0136342,-0.00297275,1.33076,0.0102254,0.0119604,1455,386,6.07654,46.8148
238,638,6.02649,-46.3673,-0.00175709,0.0141021,0.00407164,0.0150864,-0.00274134,1.33361,0.0110849,0.0141995,1462,386,6.02647,46.3673
245,638,6.0127,-45.87,-0.0119689,0.0168054,0.0011174,0.0168487,-0.0120122,1.53204,0.0167406,0.0193055,1469,386,6.01268,45.87
252,638,6.05786,-45.3504,-0.0233272,0.0201751,-0.00240567,0.0203078,-0.0234599,-1.51572,0.0252911,0.0278559,1476,386,6.05785,45.3504
259,638,5.95496,-44.9434,-0.0337156,0.0235371,-0.00607316,0.0241742,-0.0343527,-1.46627,0.0339605,0.0243158,1483,386,5.9549,44.9434
266,638,5.80286,-44.407,-0.0428288,0.0261823,-0.00901991,0.0273418,-0.0439882,-1.44295,0.0415546,0.0140157,1490,386,5.80288,44.407
273,638,5.78564,-43.9108,-0.0529325,0.0291232,-0.0121651,0.0308888,-0.054698,-1.42667,0.0500468,0.0123662,1497,386,5.78567,43.9108
280,638,5.86511,-43.2756,-0.0636071,0.0321532,-0.015504,0.0346008,-0.0660547,-1.41422,0.0590517,0.0273698,1504,386,5.86505,43.2756
287,638,5.99768,-42.5087,0,0,0,0,0,0,0,-1,1511,386,5.99769,42.5087
294,638,5.78418,-41.9319,0,0,0,0,0,0,0,-1,1518,386,5.7842,41.9319
301,638,5.5072,-41.2489,0,0,0,0,0,0,0,-1,1525,386,5.50724,41.2489
308,638,5.70239,-40.2979,0,0,0,0,0,0,0,-1,1532,386,5.70238,40.2979
315,638,5.94177,-40.249,0,0,0,0,0,0,0,-1,1539,386,5.94178,40.249
322,638,-0.569702,-23.5225,0,0,0,0,0,0,0,-1,1546,386,-0.569736,23.5225
329,638,-1.92957,-23.7096,0,0,0,0,0,0,0,-1,1553,386,-1.92951,23.7096
336,638,5.4884,-36.8032,0,0,0,0,0,0,0,-1,1560,386,5.48838,36.8032
343,638,4.8208,-37.2159,0,0,0,0,0,0,0,-1,1567,386,4.82078,37.2159
350,638,4.35254,-37.1565,0,0,0,0,0,0,0,-1,1574,386,4.35259,37.1565
357,638,0.387329,-3.01077,0,0,0,0,0,0,0,-1,1581,386,0.387332,3.01077
364,638,3.78149,-6.45215,0,0,0,0,0,0,0,-1,1588,386,3.78155,6.45216
371,638,4.18604,-6.71164,0,0,0,0,0,0,0,-1,1595,386,4.18598,6.71164
378,638,4.59045,-6.97113,0,0,0,0,0,0,0,-1,1602,386,4.5904,6.97112
385,638,0,0,0,0,0,0,0,0,0,-1,1609,386,0,0
392,638,0,0,0,0,0,0,0,0,0,-1,1616,386,0,0
399,638,0,0,0,0,0,0,0,0,0,-1,1623,386,0,0
406,638,0,0,0,0,0,0,0,0,0,-1,1630,386,0,0
413,638,0,0,0,0,0,0,0,0,0,-1,1637,386,0,0
420,638,0,0,0,0,0,0,0,0,0,-1,1644,386,0,0
427,638,0,0,0,0,0,0,0,0,0,-1,1651,386,0,0
434,638,0,0,0,0,0,0,0,0,0,-1,1658,386,0,0
441,638,0,0,0,0,0,0,0,0,0,-1,1665,386,0,0
448,638,0,0,0,0,0,0,0,0,0,-1,1672,386,0,0
455,638,0,0,0,0,0,0,0,0,0,-1,1679,386,0,0
462,638,0,0,0,0,0,0,0,0,0,-1,1686,386,0,0
469,638,0,0,0,0,0,0,0,0,0,-1,1693,386,0,0
476,638,0,0,0,0,0,0,0,0,0,-1,1700,386,0,0
483,638,0,0,0,0,0,0,0,0,0,-1,1707,386,0,0
490,638,0,0,0,0,0,0,0,0,0,-1,1714,386,0,0
497,638,0,0,0,0,0,0,0,0,0,-1,1721,386,0,0
504,638,0,0,0,0,0,0,0,0,0,-1,1728,386,0,0
511,638,0,0,0,0,0,0,0,0,0,-1,1735,386,0,0
518,638,0,0,0,0,0,0,0,0,0,-1,1742,386,0,0
525,638,0,0,0,0,0,0,0,0,0,-1,1749,386,0,0
532,638,0,0,0,0,0,0,0,0,0,-1,1756,386,0,0
539,638,0,0,0,0,0,0,0,0,0,-1,1763,386,0,0
546,638,0,0,0,0,0,0,0,0,0,-1,1770,386,0,0
553,638,0,0,0,0,0,0,0,0,0,-1,1777,386,0,0
560,638,0,0,0,0,0,0,0,0,0,-1,1784,386,0,0
567,638,0,0,0,0,0,0,0,0,0,-1,1791,386,0,0
574,638,0,0,0,0,0,0,0,0,0,-1,1798,386,0,0
581,638,0,0,0,0,0,0,0,0,0,-1,1805,386,0,0
588,638,0,0,0,0,0,0,0,0,0,-1,1812,386,0,0
595,638,0,0,0,0,0,0,0,0,0,-1,1819,386,0,0
602,638,0,0,0,0,0,0,0,0,0,-1,1826,386,0,0
609,638,0,0,0,0,0,0,0,0,0,-1,1833,386,0,0
616,638,0,0,0,0,0,0,0,0,0,-1,1840,386,0,0
623,638,0,0,0,0,0,0,0,0,0,-1,1847,386,0,0
630,638,0,0,0,0,0,0,0,0,0,-1,1854,386,0,0
637,638,0,0,0,0,0,0,0,0,0,-1,1861,386,0,0
644,638,0,0,0,0,0,0,0,0,0,-1,1868,386,0,0
651,638,0,0,0,0,0,0,0,0,0,-1,1875,386,0,0
658,638,0,0,0,0,0,0,0,0,0,-1,1882,386,0,0
665,638,0,0,0,0,0,0,0,0,0,-1,1889,386,0,0
672,638,0,0,0,0,0,0,0,0,0,-1,1896,386,0,0
679,638,0,0,0,0,0,0,0,0,0,-1,1903,386,0,0
686,638,0,0,0,0,0,0,0,0,0,-1,1910,386,0,0
693,638,0,0,0,0,0,0,0,0,0,-1,1917,386,0,0
700,638,0,0,0,0,0,0,0,0,0,-1,1924,386,0,0
707,638,0,0,0,0,0,0,0,0,0,-1,1931,386,0,0
714,638,0,0,0,0,0,0,0,0,0,-1,1938,386,0,0
721,638,0,0,0,0,0,0,0,0,0,-1,1945,386,0,0
728,638,0,0,0,0,0,0,0,0,0,-1,1952,386,0,0
735,638,0,0,0,0,0,0,0,0,0,-1,1959,386,0,0
742,638,0,0,0,0,0,0,0,0,0,-1,1966,386,0,0
749,638,0,0,0,0,0,0,0,0,0,-1,1973,386,0,0
756,638,0,0,0,0,0,0,0,0,0,-1,1980,386,0,0
763,638,0,0,0,0,0,0,0,0,0,-1,1987,386,0,0
770,638,0,0,0,0,0,0,0,0,0,-1,1994,386,0,0
777,638,0,0,0,0,0,0,0,0,0,-1,2001,386,0,0
784,638,0,0,0,0,0,0,0,0,0,-1,2008,386,0,0
791,638,0,0,0,0,0,0,0,0,0,-1,2015,386,0,0
798,638,0,0,0,0,0,0,0,0,0,-1,2022,386,0,0
805,638,0,0,0,0,0,0,0,0,0,-1,2029,386,0,0
812,638,0,0,0,0,0,0,0,0,0,-1,2036,386,0,0
-700,631,0,0,0,0,0,0,0,0,0,-1,524,393,0,0
-693,631,0,0,0,0,0,0,0,0,0,-1,531,393,0,0
-686,631,0,0,0,0,0,0,0,0,0,-1,538,393,0,0
-679,631,0,0,0,0,0,0,0,0,0,-1,545,393,0,0
-672,631,0,0,0,0,0,0,0,0,0,-1,552,393,0,0
-665,631,0,0,0,0,0,0,0,0,0,-1,559,393,0,0
-658,631,0,0,0,0,0,0,0,0,0,-1,566,393,0,0
-651,631,0,0,0,0,0,0,0,0,0,-1,573,393,0,0
-644,631,0,0,0,0,0,0,0,0,0,-1,580,393,0,0
-637,631,0,0,0,0,0,0,0,0,0,-1,587,393,0,0
-630,631,0,0,0,0,0,0,0,0,0,-1,594,393,0,0
-623,631,0,0,0,0,0,0,0,0,0,-1,601,393,0,0
-616,631,0,0,0,0,0,0,0,0,0,-1,608,393,0,0
-609,631,0,0,0,0,0,0,0,0,0,-1,615,393,0,0
-602,631,0,0,0,0,0,0,0,0,0,-1,622,393,0,0
-595,631,0,0,0,0,0,0,0,0,0,-1,629,393,0,0
-588,631,0,0,0,0,0,0,0,0,0,-1,636,393,0,0
-581,631,0,0,0,0,0,0,0,0,0,-1,643,393,0,0
-574,631,0,0,0,0,0,0,0,0,0,-1,650,393,0,0
-567,631,0,0,0,0,0,0,0,0,0,-1,657,393,0,0
-560,631,0,0,0,0,0,0,0,0,0,-1,664,393,0,0
-553,631,0,0,0,0,0,0,0,0,0,-1,671,393,0,0
-546,631,0,0,0,0,0,0,0,0,0,-1,678,393,0,0
-539,631,0,0,0,0,0,0,0,0,0,-1,685,393,0,0
-532,631,0,0,0,0,0,0,0,0,0,-1,692,393,0,0
-525,631,0,0,0,0,0,0,0,0,0,-1,699,393,0,0
-518,631,0,0,0,0,0,0,0,0,0,-1,706,393,0,0
-511,631,0,0,0,0,0,0,0,0,0,-1,713,393,0,0
-504,631,0,0,0,0,0,0,0,0,0,-1,720,393,0,0
-497,631,0,0,0,0,0,0,0,0,0,-1,727,393,0,0
-490,631,0,0,0,0,0,0,0,0,0,-1,734,393,0,0
-483,631,0,0,0,0,0,0,0,0,0,-1,741,393,0,0
-476,631,0,0,0,0,0,0,0,0,0,-1,748,393,0,0
-469,631,0,0,0,0,0,0,0,0,0,-1,755,393,0,0
-462,631,0,0,0,0,0,0,0,0,0,-1,762,393,0,0
-455,631,0,0,0,0,0,0,0,0,0,-1,769,393,0,0
-448,631,0,0,0,0,0,0,0,0,0,-1,776,393,0,0
-441,631,0,0,0,0,0,0,0,0,0,-1,783,393,0,0
-434,631,0,0,0,0,0,0,0,0,0,-1,790,393,0,0
-427,631,0,0,0,0,0,0,0,0,0,-1,797,393,0,0
-420,631,0,0,0,0,0,0,0,0,0,-1,804,393,0,0
-413,631,0,0,0,0,0,0,0,0,0,-1,811,393,0,0
-406,631,0,0,0,0,0,0,0,0,0,-1,818,393,0,0
-399,631,0,0,0,0,0,0,0,0,0,-1,825,393,0,0
-392,631,0,0,0,0,0,0,0,0,0,-1,832,393,0,0
-385,631,0,0,0,0,0,0,0,0,0,-1,839,393,0,0
-378,631,0,0,0,0,0,0,0,0,0,-1,846,393,0,0
-371,631,0,0,0,0,0,0,0,0,0,-1,853,393,0,0
-364,631,0,0,0,0,0,0,0,0,0,-1,860,393,0,0
-357,631,0,0,0,0,0,0,0,0,0,-1,867,393,0,0
-350,631,0,0,0,0,0,0,0,0,0,-1,874,393,0,0
-343,631,0,0,0,0,0,0,0,0,0,-1,881,393,0,0
-336,631,0,0,0,0,0,0,0,0,0,-1,888,393,0,0
-329,631,0,0,0,0,0,0,0,0,0,-1,895,393,0,0
-322,631,0,0,0,0,0,0,0,0,0,-1,902,393,0,0
-315,631,0,0,0,0,0,0,0,0,0,-1,909,393,0,0
-308,631,0,0,0,0,0,0,0,0,0,-1,916,393,0,0
-301,631,0,0,0,0,0,0,0,0,0,-1,923,393,0,0
-294,631,0,0,0,0,0,0,0,0,0,-1,930,393,0,0
-287,631,0,0,0,0,0,0,0,0,0,-1,937,393,0,0
-280,631,7.71283,-34.969,0,0,0,0,0,0,0,-1,944,393,7.71282,34.969
-273,631,8.04437,-34.934,0,0,0,0,0,0,0,-1,951,393,8.04436,34.9339
-266,631,8.40277,-34.7584,0,0,0,0,0,0,0,-1,958,393,8.40275,34.7584
-259,631,8.56659,-34.037,0,0,0,0,0,0,0,-1,965,393,8.56662,34.037
-252,631,8.44446,-33.2643,0,0,0,0,0,0,0,-1,972,393,8.44445,33.2644
-245,631,8.34705,-32.527,0,0,0,0,0,0,0,-1,979,393,8.34704,32.527
-238,631,8.41888,-31.8855,0,0,0,0,0,0,0,-1,986,393,8.41887,31.8855
-231,631,2.14966,-25.2306,0,0,0,0,0,0,0,-1,993,393,2.14968,25.2306
-224,631,6.83575,-19.7909,0,0,0,0,0,0,0,-1,1000,393,6.83575,19.7909
-217,631,5.05188,-18.3867,0,0,0,0,0,0,0,-1,1007,393,5.0519,18.3866
-210,631,3.37842,-26.3769,0,0,0,0,0,0,0,-1,1014,393,3.37839,26.3769
-203,631,5.05298,-26.4169,0,0,0,0,0,0,0,-1,1021,393,5.05302,26.4169
-196,631,6.37903,-32.8375,0,0,0,0,0,0,0,-1,1028,393,6.37901,32.8375
-189,631,7.11914,-38.4874,0,0,0,0,0,0,0,-1,1035,393,7.11912,38.4874
-182,631,7.00195,-40.9494,0,0,0,0,0,0,0,-1,1042,393,7.00197,40.9494
-175,631,7.08997,-41.834,0,0,0,0,0,0,0,-1,1049,393,7.09,41.834
-168,631,6.90759,-42.6417,-0.00369087,0.0143184,-0.00777371,0.0172098,-0.0065822,-1.21471,0.0141857,0.0306206,1056,393,6.90756,42.6417
-161,631,6.8678,-43.2593,-0.00387721,0.0134123,-0.00668346,0.0156946,-0.0061595,-1.24173,0.0130116,0.017325,1063,393,6.86782,43.2593
-154,631,6.79834,-43.817,-0.00401527,0.0122638,-0.00577038,0.0141017,-0.00585318,-1.26245,0.0118445,0.0162779,1070,393,6.79829,43.817
-147,631,6.7561,-44.3112,-0.0041029,0.0112574,-0.00498061,0.012731,-0.0055765,-1.28313,0.0108355,0.0147884,1077,393,6.75613,44.3112
-140,631,6.73682,-44.8153,-0.00407568,0.0104364,-0.00429374,0.0116116,-0.00525092,-1.30363,0.00996379,0.0113884,1084,393,6.73682,44.8153
-133,631,6.67383,-45.2957,-0.00402382,0.00976636,-0.0037242,0.0107078,-0.00496531,-1.32318,0.00924914,0.00935821,1091,393,6.67377,45.2957
-126,631,6.63599,-45.7658,-0.00400605,0.00879142,-0.00310007,0.00950284,-0.00471747,-1.34522,0.00836362,0.0135856,1098,393,6.63603,45.7658
-119,631,6.59351,-46.209,-0.00381334,0.00805588,-0.00267455,0.00863071,-0.00438817,-1.35909,0.00764833,0.0164763,1105,393,6.59349,46.209
-112,631,6.54651,-46.6722,-0.00357571,0.00742778,-0.00230006,0.00788921,-0.00403715,-1.37281,0.00700438,0.0154423,1112,393,6.54652,46.6722
-105,631,6.56311,-47.1324,-0.00328715,0.00676819,-0.00206487,0.0071757,-0.00369466,-1.37595,0.00638237,0.0201562,1119,393,6.56308,47.1324
-98,631,6.50171,-47.5509,-0.00301604,0.00596148,-0.00185105,0.00632817,-0.00338273,-1.37523,0.00569191,0.0172586,1126,393,6.50175,47.5509
-91,631,6.44714,-47.9639,-0.00273034,0.00513258,-0.00165152,0.00546537,-0.00306314,-1.37195,0.00498863,0.0191397,1133,393,6.44715,47.9639
-84,631,6.41675,-48.3746,-0.00233536,0.00428288,-0.00146389,0.00459222,-0.0026447,-1.36255,0.00422837,0.0182713,1140,393,6.41679,48.3746
-77,631,6.38342,-48.738,-0.00197767,0.00362519,-0.00128046,0.00390396,-0.00225643,-1.35644,0.00359885,0.011837,1147,393,6.38341,48.738
-70,631,6.36816,-49.0847,-0.00171459,0.00322147,-0.00110084,0.00345585,-0.00194897,-1.36102,0.00316064,0.0132178,1154,393,6.36816,49.0847
-63,631,6.3634,-49.4413,-0.00134844,0.00289953,-0.000988168,0.00311815,-0.00156706,-1.35307,0.00275397,0.0137432,1161,393,6.36339,49.4412
-56,631,6.33948,-49.7988,-0.000969662,0.00247879,-0.00080197,0.00265617,-0.00114704,-1.35312,0.00225267,0.0146982,1168,393,6.33949,49.7988
-49,631,6.3302,-50.0835,-0.000620874,0.00230093,-0.000588617,0.00241505,-0.000734997,-1.37929,0.00190295,0.0110585,1175,393,6.33015,50.0835
-42,631,6.3363,-50.3603,-0.000229228,0.00200931,-0.000319783,0.00205409,-0.000274014,-1.43165,0.00146928,0.00935069,1182,393,6.33632,50.3603
-35,631,6.33789,-50.6422,0.000187494,0.00168924,-9.59643e-05,0.00169535,0.000181387,-1.50724,0.00107488,0.0111135,1189,393,6.33795,50.6422
-28,631,6.323,-50.9128,0.000571622,0.00120633,9.13425e-05,0.00121921,0.000558738,1.43067,0.00070473,0.0132104,1196,393,6.32296,50.9128
-21,631,6.29382,-51.154,0.000989123,0.000577408,0.000199953,0.00107025,0.000496284,0.385425,0.00061845,0.0114557,1203,393,6.29387,51.154
-14,631,6.28381,-51.3921,0.00144866,5.67685e-05,0.000279845,0.00150281,2.6116e-06,0.191162,0.00100101,0.0138069,1210,393,6.28385,51.3921
-7,631,6.30762,-51.6625,0.00194807,-0.000582249,0.000290381,0.00198097,-0.000615146,0.112807,0.00156649,0.0211249,1217,393,6.30763,51.6626
0,631,6.30493,-51.848,0.00235823,-0.000993892,0.000340044,0.00239238,-0.00102804,0.100083,0.00202647,0.0254903,1224,393,6.30495,51.8479
7,631,6.3031,-51.9578,0.00259759,-0.0012628,0.000401132,0.00263883,-0.00130404,0.102451,0.00231949,0.0207438,1231,393,6.30312,51.9578
14,631,6.34839,-52.1118,0.0027827,-0.00141102,0.00045133,0.00283072,-0.00145904,0.106003,0.00251854,0.0116176,1238,393,6.34839,52.1118
21,631,6.37683,-52.2367,0.00296533,-0.001361,0.000498713,0.00302207,-0.00141774,0.113294,0.00261852,0.0139058,1245,393,6.3768,52.2367
28,631,6.38708,-52.3278,0.0031303,-0.00128532,0.00048828,0.00318365,-0.00133867,0.108828,0.00268241,0.0160859,1252,393,6.38709,52.3278
35,631,6.41724,-52.3951,0.0031601,-0.00107274,0.000484105,0.00321476,-0.00112741,0.112434,0.00260172,0.0156706,1259,393,6.41725,52.3951
42,631,6.46045,-52.4705,0.00312554,-0.000715584,0.000512147,0.00319265,-0.000782697,0.1303,0.00243169,0.0131215,1266,393,6.46045,52.4705
49,631,6.49023,-52.5218,0.00305717,-0.00028276,0.000503365,0.00313139,-0.000356974,0.146381,0.00221619,0.011663,1273,393,6.49019,52.5218
56,631,6.50183,-52.5653,0.00293627,9.54473e-05,0.000456543,0.00300784,2.38803e-05,0.155493,0.00199732,0.0137389,1280,393,6.50183,52.5653
63,631,6.48047,-52.6022,0.00280825,0.000408895,0.000296199,0.00284428,0.00037287,0.121029,0.00178492,0.0164759,1287,393,6.48052,52.6022
70,631,6.50806,-52.5665,0.00269203,0.000751935,0.000152102,0.00270388,0.000740083,0.077766,0.0016135,0.0175405,1294,393,6.5081,52.5665
77,631,6.54236,-52.5034,0.00264717,0.00117703,3.61312e-05,0.00264806,0.00117614,0.0245569,0.00153203,0.0175082,1301,393,6.5423,52.5033
84,631,6.57373,-52.4667,0.00262726,0.0014226,-0.000147565,0.00264507,0.00140479,-0.12013,0.00152812,0.0145084,1308,393,6.57371,52.4667
91,631,6.59106,-52.3916,0.00245629,0.0013026,-0.000365399,0.00256228,0.0011966,-0.282324,0.00148041,0.0167009,1315,393,6.59102,52.3916
98,631,6.62622,-52.2896,0.00220413,0.00125354,-0.00049782,0.00241711,0.00104056,-0.404272,0.00140001,0.0138213,1322,393,6.62627,52.2895
105,631,6.60388,-52.181,0.00207529,0.00112658,-0.000626189,0.00238651,0.000815358,-0.461247,0.00140069,0.011738,1329,393,6.60388,52.181
112,631,6.62842,-52.0536,0.0020243,0.00113444,-0.000746414,0.00244833,0.000710404,-0.516628,0.00145445,0.0124436,1336,393,6.62841,52.0536
119,631,6.65222,-51.9279,0.00190703,0.00119673,-0.000778243,0.00240733,0.000696433,-0.571337,0.00143042,0.0135697,1343,393,6.65218,51.928
126,631,6.646,-51.718,0.00173267,0.00139796,-0.000822939,0.00240509,0.000725526,-0.685085,0.00142453,0.0179186,1350,393,6.64605,51.718
133,631,6.67029,-51.5309,0.0015363,0.00187035,-0.000742122,0.00246401,0.000942637,-0.896087,0.00143562,0.0188777,1357,393,6.67024,51.5309
140,631,6.677,-51.3395,0.00141257,0.00234198,-0.000610465,0.00264449,0.00111006,-1.11072,0.00153334,0.0197218,1364,393,6.67706,51.3395
147,631,6.64636,-51.0809,0.00125949,0.00282346,-0.000478426,0.0029582,0.00112475,-1.29627,0.00172418,0.0230739,1371,393,6.64636,51.0809
154,631,6.63452,-50.8135,0.00110983,0.00336327,-0.000313186,0.00340599,0.00106712,-1.43524,0.00201162,0.0224465,1378,393,6.63458,50.8135
161,631,6.6698,-50.4971,0.000993565,0.00402846,-6.76919e-05,0.00402997,0.000992056,-1.54851,0.00242459,0.0232207,1385,393,6.66984,50.4971
168,631,6.70825,-50.1728,0.000777479,0.0046715,0.000235487,0.00468569,0.00076329,1.51061,0.00290301,0.0269288,1392,393,6.70825,50.1728
175,631,6.69971,-49.9557,0.000463743,0.00521344,0.000559441,0.00527845,0.000398739,1.45512,0.00339387,0.0212374,1399,393,6.69969,49.9558
182,631,6.65881,-49.6548,9.06621e-05,0.00559702,0.000883254,0.00573523,-4.75487e-05,1.41558,0.00383943,0.0123373,1406,393,6.65876,49.6549
189,631,6.65637,-49.2678,-0.00026965,0.00595685,0.00127107,0.00620633,-0.000519129,1.37699,0.004321,0.0116719,1413,393,6.65639,49.2678
196,631,6.62952,-48.9216,-0.000499848,0.00628597,0.00167894,0.00667865,-0.000892527,1.34104,0.00477781,0.0123426,1420,393,6.62955,48.9216
203,631,6.64221,-48.5681,-0.000783492,0.00660344,0.00204825,0.00713336,-0.00131342,1.31763,0.00524845,0.0141907,1427,393,6.64227,48.5681
210,631,6.62976,-48.1923,-0.00120952,0.00658759,0.00228791,0.00720935,-0.00183129,1.30545,0.00551889,0.0161442,1434,393,6.62977,48.1923
217,631,6.59058,-47.7878,-0.00135196,0.00735447,0.00235163,0.00794905,-0.00194654,1.32315,0.00605345,0.0177753,1441,393,6.59064,47.7879
224,631,6.53662,-47.3413,-0.00127764,0.00842335,0.00254611,0.00905099,-0.00190528,1.3291,0.0067592,0.0140168,1448,393,6.53667,47.3413
231,631,6.49426,-46.8956,-0.00115225,0.00939756,0.00292347,0.0101535,-0.00190821,1.31776,0.00748659,0.0113731,1455,393,6.49427,46.8956
238,631,6.45752,-46.4206,-0.00105315,0.0104682,0.00320131,0.011298,-0.0018829,1.31719,0.00823172,0.0176368,1462,393,6.45757,46.4205
245,631,6.43762,-45.9619,-0.00717863,0.0124127,0.00156792,0.0125373,-0.00730332,1.49144,0.0115871,0.0196463,1469,393,6.43761,45.9619
252,631,6.4021,-45.5002,-0.0143945,0.0149383,-0.000536171,0.0149481,-0.0144043,-1.55253,0.0169476,0.0198634,1476,393,6.40206,45.5002
259,631,6.35669,-44.9962,-0.0214412,0.0176046,-0.00286782,0.0178141,-0.0216507,-1.49787,0.0228209,0.0133918,1483,393,6.35672,44.9962
266,631,6.32031,-44.5037,-0.0276828,0.0197529,-0.00475805,0.0202254,-0.0281553,-1.4718,0.0280574,0.0109319,1490,393,6.32027,44.5037
273,631,6.28271,-43.969,-0.0347579,0.0221562,-0.00683102,0.0229646,-0.0355663,-1.453,0.0340529,0.0137785,1497,393,6.28275,43.969
280,631,6.24829,-43.3814,-0.0423496,0.0246642,-0.00907647,0.0258718,-0.0435572,-1.43853,0.040516,0.0141471,1504,393,6.24832,43.3814
287,631,6.19922,-42.8024,-0.0497982,0.0273289,-0.0112073,0.0289244,-0.0513937,-1.42938,0.0469726,0.0177858,1511,393,6.19926,42.8024
294,631,6.15442,-42.114,-0.0569397,0.0298734,-0.0132855,0.031861,-0.0589273,-1.42229,0.0531875,0.0243194,1518,393,6.15444,42.114
301,631,6.04028,-41.423,-0.0630931,0.0321742,-0.0150492,0.034495,-0.0654139,-1.41779,0.0585959,0.0353894,1525,393,6.0403,41.423
308,631,6.18396,-40.6653,-0.0681446,0.0342865,-0.0164347,0.0368588,-0.0707169,-1.41554,0.063126,0.0385678,1532,393,6.18391,40.6653
315,631,6.2876,-40.3606,-0.071935,0.0362905,-0.017308,0.0389911,-0.0746356,-1.41601,0.0666697,0.0427078,1539,393,6.28756,40.3606
322,631,6.15308,-39.8233,0,0,0,0,0,0,0,-1,1546,393,6.15311,39.8233
329,631,6.49158,-37.5798,0,0,0,0,0,0,0,-1,1553,393,6.49158,37.5798
336,631,6.01257,-37.2195,0,0,0,0,0,0,0,-1,1560,393,6.01261,37.2195
343,631,5.58411,-36.6184,0,0,0,0,0,0,0,-1,1567,393,5.58407,36.6184
350,631,5.18359,-35.9677,0,0,0,0,0,0,0,-1,1574,393,5.18355,35.9677
357,631,2.6449,-9.60303,0,0,0,0,0,0,0,-1,1581,393,2.64491,9.60304
364,631,3.39136,-5.7594,0,0,0,0,0,0,0,-1,1588,393,3.39137,5.75939
371,631,3.72839,-6.0574,0,0,0,0,0,0,0,-1,1595,393,3.72845,6.05742
378,631,4.06555,-6.35544,0,0,0,0,0,0,0,-1,1602,393,4.06553,6.35544
385,631,3.90442,-3.58298,0,0,0,0,0,0,0,-1,1609,393,3.90437,3.58299
392,631,0.352295,-2.21301,0,0,0,0,0,0,0,-1,1616,393,0.352345,2.213
399,631,0,0,0,0,0,0,0,0,0,-1,1623,393,0,0
406,631,0,0,0,0,0,0,0,0,0,-1,1630,393,0,0
413,631,0,0,0,0,0,0,0,0,0,-1,1637,393,0,0
420,631,0,0,0,0,0,0,0,0,0,-1,1644,393,0,0
427,631,0,0,0,0,0,0,0,0,0,-1,1651,393,0,0
434,631,0,0,0,0,0,0,0,0,0,-1,1658,393,0,0
441,631,0,0,0,0,0,0,0,0,0,-1,1665,393,0,0
448,631,0,0,0,0,0,0,0,0,0,-1,1672,393,0,0
455,631,0,0,0,0,0,0,0,0,0,-1,1679,393,0,0
462,631,0,0,0,0,0,0,0,0,0,-1,1686,393,0,0
469,631,0,0,0,0,0,0,0,0,0,-1,1693,393,0,0
476,631,0,0,0,0,0,0,0,0,0,-1,1700,393,0,0
483,631,0,0,0,0,0,0,0,0,0,-1,1707,393,0,0
490,631,0,0,0,0,0,0,0,0,0,-1,1714,393,0,0
497,631,0,0,0,0,0,0,0,0,0,-1,1721,393,0,0
504,631,0,0,0,0,0,0,0,0,0,-1,1728,393,0,0
511,631,0,0,0,0,0,0,0,0,0,-1,1735,393,0,0
518,631,0,0,0,0,0,0,0,0,0,-1,1742,393,0,0
525,631,0,0,0,0,0,0,0,0,0,-1,1749,393,0,0
532,631,0,0,0,0,0,0,0,0,0,-1,1756,393,0,0
539,631,0,0,0,0,0,0,0,0,0,-1,1763,393,0,0
546,631,0,0,0,0,0,0,0,0,0,-1,1770,393,0,0
553,631,0,0,0,0,0,0,0,0,0,-1,1777,393,0,0
560,631,0,0,0,0,0,0,0,0,0,-1,1784,393,0,0
567,631,0,0,0,0,0,0,0,0,0,-1,1791,393,0,0
574,631,0,0,0,0,0,0,0,0,0,-1,1798,393,0,0
581,631,0,0,0,0,0,0,0,0,0,-1,1805,393,0,0
588,631,0,0,0,0,0,0,0,0,0,-1,1812,393,0,0
595,631,0,0,0,0,0,0,0,0,0,-1,1819,393,0,0
602,631,0,0,0,0,0,0,0,0,0,-1,1826,393,0,0
609,631,0,0,0,0,0,0,0,0,0,-1,1833,393,0,0
616,631,0,0,0,0,0,0,0,0,0,-1,1840,393,0,0
623,631,0,0,0,0,0,0,0,0,0,-1,1847,393,0,0
630,631,0,0,0,0,0,0,0,0,0,-1,1854,393,0,0
637,631,0,0,0,0,0,0,0,0,0,-1,1861,393,0,0
644,631,0,0,0,0,0,0,0,0,0,-1,1868,393,0,0
651,631,0,0,0,0,0,0,0,0,0,-1,1875,393,0,0
658,631,0,0,0,0,0,0,0,0,0,-1,1882,393,0,0
665,631,0,0,0,0,0,0,0,0,0,-1,1889,393,0,0
672,631,0,0,0,0,0,0,0,0,0,-1,1896,393,0,0
679,631,0,0,0,0,0,0,0,0,0,-1,1903,393,0,0
686,631,0,0,0,0,0,0,0,0,0,-1,1910,393,0,0
693,631,0,0,0,0,0,0,0,0,0,-1,1917,393,0,0
700,631,0,0,0,0,0,0,0,0,0,-1,1924,393,0,0
707,631,0,0,0,0,0,0,0,0,0,-1,1931,393,0,0
714,631,0,0,0,0,0,0,0,0,0,-1,1938,393,0,0
721,631,0,0,0,0,0,0,0,0,0,-1,1945,393,0,0
728,631,0,0,0,0,0,0,0,0,0,-1,1952,393,0,0
735,631,0,0,0,0,0,0,0,0,0,-1,1959,393,0,0
742,631,0,0,0,0,0,0,0,0,0,-1,1966,393,0,0
749,631,0,0,0,0,0,0,0,0,0,-1,1973,393,0,0
756,631,0,0,0,0,0,0,0,0,0,-1,1980,393,0,0
763,631,0,0,0,0,0,0,0,0,0,-1,1987,393,0,0
770,631,0,0,0,0,0,0,0,0,0,-1,1994,393,0,0
777,631,0,0,0,0,0,0,0,0,0,-1,2001,393,0,0
784,631,0,0,0,0,0,0,0,0,0,-1,2008,393,0,0
791,631,0,0,0,0,0,0,0,0,0,-1,2015,393,0,0
798,631,0,0,0,0,0,0,0,0,0,-1,2022,393,0,0
805,631,0,0,0,0,0,0,0,0,0,-1,2029,393,0,0
812,631,0,0,0,0,0,0,0,0,0,-1,2036,393,0,0
-700,624,0,0,0,0,0,0,0,0,0,-1,524,400,0,0
-693,624,0,0,0,0,0,0,0,0,0,-1,531,400,0,0
-686,624,0,0,0,0,0,0,0,0,0,-1,538,400,0,0
-679,624,0,0,0,0,0,0,0,0,0,-1,545,400,0,0
-672,624,0,0,0,0,0,0,0,0,0,-1,552,400,0,0
-665,624,0,0,0,0,0,0,0,0,0,-1,559,400,0,0
-658,624,0,0,0,0,0,0,0,0,0,-1,566,400,0,0
-651,624,0,0,0,0,0,0,0,0,0,-1,573,400,0,0
-644,624,0,0,0,0,0,0,0,0,0,-1,580,400,0,0
-637,624,0,0,0,0,0,0,0,0,0,-1,587,400,0,0
-630,624,0,0,0,0,0,0,0,0,0,-1,594,400,0,0
-623,624,0,0,0,0,0,0,0,0,0,-1,601,400,0,0
-616,624,0,0,0,0,0,0,0,0,0,-1,608,400,0,0
-609,624,0,0,0,0,0,0,0,0,0,-1,615,400,0,0
-602,624,0,0,0,0,0,0,0,0,0,-1,622,400,0,0
-595,624,0,0,0,0,0,0,0,0,0,-1,629,400,0,0
-588,624,0,0,0,0,0,0,0,0,0,-1,636,400,0,0
-581,624,0,0,0,0,0,0,0,0,0,-1,643,400,0,0
-574,624,0,0,0,0,0,0,0,0,0,-1,650,400,0,0
-567,624,0,0,0,0,0,0,0,0,0,-1,657,400,0,0
-560,624,0,0,0,0,0,0,0,0,0,-1,664,400,0,0
-553,624,0,0,0,0,0,0,0,0,0,-1,671,400,0,0
-546,624,0,0,0,0,0,0,0,0,0,-1,678,400,0,0
-539,624,0,0,0,0,0,0,0,0,0,-1,685,400,0,0
-532,624,0,0,0,0,0,0,0,0,0,-1,692,400,0,0
-525,624,0,0,0,0,0,0,0,0,0,-1,699,400,0,0
-518,624,0,0,0,0,0,0,0,0,0,-1,706,400,0,0
-511,624,0,0,0,0,0,0,0,0,0,-1,713,400,0,0
-504,624,0,0,0,0,0,0,0,0,0,-1,720,400,0,0
-497,624,0,0,0,0,0,0,0,0,0,-1,727,400,0,0
-490,624,0,0,0,0,0,0,0,0,0,-1,734,400,0,0
-483,624,0,0,0,0,0,0,0,0,0,-1,741,400,0,0
-476,624,0,0,0,0,0,0,0,0,0,-1,748,400,0,0
-469,624,0,0,0,0,0,0,0,0,0,-1,755,400,0,0
-462,624,0,0,0,0,0,0,0,0,0,-1,762,400,0,0
-455,624,0,0,0,0,0,0,0,0,0,-1,769,400,0,0
-448,624,0,0,0,0,0,0,0,0,0,-1,776,400,0,0
-441,624,0,0,0,0,0,0,0,0,0,-1,783,400,0,0
-434,624,0,0,0,0,0,0,0,0,0,-1,790,400,0,0
-427,624,0,0,0,0,0,0,0,0,0,-1,797,400,0,0
-420,624,0,0,0,0,0,0,0,0,0,-1,804,400,0,0
-413,624,0,0,0,0,0,0,0,0,0,-1,811,400,0,0
-406,624,0,0,0,0,0,0,0,0,0,-1,818,400,0,0
-399,624,0,0,0,0,0,0,0,0,0,-1,825,400,0,0
-392,624,0,0,0,0,0,0,0,0,0,-1,832,400,0,0
-385,624,0,0,0,0,0,0,0,0,0,-1,839,400,0,0
-378,624,0,0,0,0,0,0,0,0,0,-1,846,400,0,0
-371,624,0,0,0,0,0,0,0,0,0,-1,853,400,0,0
-364,624,0,0,0,0,0,0,0,0,0,-1,860,400,0,0
-357,624,0,0,0,0,0,0,0,0,0,-1,867,400,0,0
-350,624,0,0,0,0,0,0,0,0,0,-1,874,400,0,0
-343,624,0,0,0,0,0,0,0,0,0,-1,881,400,0,0
-336,624,0,0,0,0,0,0,0,0,0,-1,888,400,0,0
-329,624,0,0,0,0,0,0,0,0,0,-1,895,400,0,0
-322,624,0,0,0,0,0,0,0,0,0,-1,902,400,0,0
-315,624,0,0,0,0,0,0,0,0,0,-1,909,400,0,0
-308,624,0,0,0,0,0,0,0,0,0,-1,916,400,0,0
-301,624,0,0,0,0,0,0,0,0,0,-1,923,400,0,0
-294,624,5.08527,-28.5311,0,0,0,0,0,0,0,-1,930,400,5.08525,28.5311
-287,624,6.70825,-33.8,0,0,0,0,0,0,0,-1,937,400,6.70827,33.8
-280,624,6.92474,-33.8738,0,0,0,0,0,0,0,-1,944,400,6.92477,33.8739
-273,624,8.617,-37.3463,0,0,0,0,0,0,0,-1,951,400,8.61697,37.3463
-266,624,7.71747,-37.0599,0,0,0,0,0,0,0,-1,958,400,7.7175,37.0599
-259,624,7.33569,-33.1199,0,0,0,0,0,0,0,-1,965,400,7.33567,33.1199
-252,624,7.5528,-32.8158,0,0,0,0,0,0,0,-1,972,400,7.5528,32.8158
-245,624,6.8396,-32.02,0,0,0,0,0,0,0,-1,979,400,6.83963,32.02
-238,624,6.99402,-31.5278,0,0,0,0,0,0,0,-1,986,400,6.99404,31.5278
-231,624,3.86121,-29.6032,0,0,0,0,0,0,0,-1,993,400,3.86122,29.6032
-224,624,4.59351,-27.4048,0,0,0,0,0,0,0,-1,1000,400,4.59353,27.4048
-217,624,5.90167,-32.048,0,0,0,0,0,0,0,-1,1007,400,5.90167,32.048
-210,624,6.63538,-39.1572,0,0,0,0,0,0,0,-1,1014,400,6.63537,39.1572
-203,624,6.65784,-39.6624,0,0,0,0,0,0,0,-1,1021,400,6.65786,39.6624
-196,624,6.5885,-40.1941,0,0,0,0,0,0,0,-1,1028,400,6.58853,40.1941
-189,624,6.43115,-40.4285,0,0,0,0,0,0,0,-1,1035,400,6.43116,40.4285
-182,624,6.49451,-41.3072,-0.00222205,0.0156634,-0.008697,0.019195,-0.0057537,-1.18506,0.0150849,0.0430513,1042,400,6.49449,41.3072
-175,624,6.51819,-42.0371,-0.00253639,0.0130943,-0.00743634,0.0160669,-0.00550895,-1.19052,0.0129444,0.0258085,1049,400,6.51813,42.0371
-168,624,6.45447,-42.7141,-0.00277587,0.011531,-0.00638189,0.013964,-0.00520889,-1.20657,0.0114477,0.0167281,1056,400,6.45445,42.7141
-161,624,6.38403,-43.2946,-0.00285432,0.0105736,-0.00551573,0.0125488,-0.00482947,-1.22693,0.010358,0.011435,1063,400,6.38401,43.2946
-154,624,6.32886,-43.8053,-0.00288603,0.00949736,-0.004748,0.0111083,-0.00449694,-1.2437,0.00927527,0.0109639,1070,400,6.32881,43.8053
-147,624,6.30505,-44.3272,-0.00285939,0.00850877,-0.00407522,0.00981869,-0.00416932,-1.25979,0.00829263,0.0120416,1077,400,6.30503,44.3272
-140,624,6.27966,-44.8294,-0.00273493,0.00762098,-0.00347453,0.00867869,-0.00379264,-1.27529,0.00738223,0.0105956,1084,400,6.27966,44.8294
-133,624,6.20154,-45.3133,-0.00259042,0.00686407,-0.00296357,0.00771621,-0.00344257,-1.29081,0.00659814,0.0114432,1091,400,6.20152,45.3133
-126,624,6.17212,-45.7755,-0.00246286,0.00594113,-0.00242665,0.00659149,-0.00311322,-1.30894,0.00572172,0.013523,1098,400,6.17215,45.7755
-119,624,6.13953,-46.221,-0.00217876,0.00526405,-0.00204525,0.00578904,-0.00270375,-1.31953,0.00501001,0.0148541,1105,400,6.13955,46.221
-112,624,6.12976,-46.6482,-0.00186165,0.0047044,-0.00172316,0.00512914,-0.00228639,-1.32912,0.00438497,0.0170299,1112,400,6.12982,46.6482
-105,624,6.14563,-47.1143,-0.00150905,0.00415565,-0.00152908,0.00454204,-0.00189544,-1.32328,0.00381995,0.0136181,1119,400,6.14557,47.1143
-98,624,6.09692,-47.5308,-0.00114217,0.00354197,-0.0013665,0.00391147,-0.00151167,-1.30671,0.00323162,0.0143971,1126,400,6.09689,47.5308
-91,624,6.07239,-47.9707,-0.000756482,0.00296468,-0.0012173,0.00332752,-0.00111932,-1.28112,0.00267081,0.021057,1133,400,6.07239,47.9707
-84,624,6.08069,-48.3967,-0.000304304,0.00239244,-0.00104657,0.00275095,-0.000662806,-1.24077,0.00209023,0.020017,1140,400,6.08071,48.3967
-77,624,6.06091,-48.737,0.000126488,0.00192461,-0.000867857,0.00227514,-0.000224045,-1.18693,0.00159669,0.014591,1147,400,6.06093,48.737
-70,624,6.07385,-49.0624,0.000537007,0.00157888,-0.000689096,0.00192179,0.000194098,-1.10905,0.00122164,0.0157082,1154,400,6.07385,49.0624
-63,624,6.08301,-49.4412,0.000994631,0.00110201,-0.000509259,0.0015604,0.000536239,-0.837917,0.000915461,0.0172724,1161,400,6.083,49.4412
-56,624,6.02368,-49.7897,0.0014277,0.000371673,-0.000250292,0.00148402,0.000315354,-0.221326,0.000902779,0.0142005,1168,400,6.02368,49.7897
-49,624,6.03796,-50.1061,0.00180653,-0.000189916,3.2022e-05,0.00180704,-0.00019043,0.016034,0.00127293,0.0105834,1175,400,6.03792,50.1061
-42,624,6.05579,-50.3771,0.0022523,-0.000918403,0.000391164,0.00229985,-0.000965947,0.120952,0.00193722,0.00998278,1182,400,6.05582,50.3771
-35,624,6.07739,-50.6435,0.00268468,-0.00185843,0.000687731,0.00278651,-0.00196026,0.146992,0.00275435,0.0150149,1189,400,6.07745,50.6435
-28,624,6.07361,-50.9305,0.00304567,-0.00297463,0.000903072,0.00317822,-0.00310718,0.145732,0.00362895,0.0182314,1196,400,6.07357,50.9305
-21,624,6.06616,-51.16,0.00346312,-0.00424154,0.0010014,0.00359114,-0.00436957,0.127159,0.00460344,0.0133865,1203,400,6.06616,51.16
-14,624,6.08472,-51.3647,0.00393194,-0.00525445,0.00103915,0.00404802,-0.00537053,0.111246,0.00545564,0.0152836,1210,400,6.08472,51.3647
-7,624,6.10461,-51.5787,0.00445576,-0.00641388,0.000972539,0.00454209,-0.00650021,0.0885359,0.0064086,0.0200027,1217,400,6.10459,51.5787
0,624,6.14893,-51.7845,0.00484493,-0.00729367,0.000885764,0.00490923,-0.00735797,0.0724593,0.00712935,0.0209716,1224,400,6.14897,51.7845
7,624,6.15833,-51.9326,0.00499281,-0.00816467,0.000828503,0.00504477,-0.00821663,0.0626385,0.00772913,0.0152877,1231,400,6.15837,51.9326
14,624,6.23071,-52.1071,0.00512712,-0.00878465,0.000736431,0.005166,-0.00882352,0.0527394,0.00816835,0.0132386,1238,400,6.23073,52.1071
21,624,6.26013,-52.2348,0.00531169,-0.00912651,0.000624532,0.00533866,-0.00915347,0.0431481,0.00846311,0.0155406,1245,400,6.26015,52.2348
28,624,6.26941,-52.3383,0.00545265,-0.0093012,0.000459475,0.00546694,-0.0093155,0.0311025,0.00863052,0.0140015,1252,400,6.26938,52.3383
35,624,6.30017,-52.393,0.0054269,-0.00919296,0.000324908,0.00543412,-0.00920018,0.0222091,0.00854186,0.0168154,1259,400,6.30017,52.393
42,624,6.36914,-52.4636,0.00539677,-0.00875865,0.000239908,0.00540084,-0.00876272,0.0169416,0.00825376,0.0181595,1266,400,6.36913,52.4636
49,624,6.42957,-52.5034,0.00535961,-0.00809654,0.000139951,0.00536107,-0.008098,0.0103991,0.00782397,0.0196077,1273,400,6.42961,52.5034
56,624,6.46216,-52.573,0.00531249,-0.00737541,6.11654e-06,0.0053125,-0.00737541,0.000482076,0.00735757,0.0207612,1280,400,6.4621,52.573
63,624,6.50171,-52.5927,0.00526359,-0.00665367,-0.000288792,0.00527058,-0.00666067,-0.0242141,0.00690408,0.0166328,1287,400,6.50174,52.5927
70,624,6.52234,-52.591,0.00524024,-0.00580012,-0.000588748,0.00527154,-0.00583143,-0.0531261,0.00641302,0.0153034,1294,400,6.5223,52.591
77,624,6.57922,-52.5378,0.00534085,-0.00489059,-0.00080846,0.00540434,-0.00495407,-0.0783691,0.00598232,0.0157956,1301,400,6.57925,52.5378
84,624,6.6344,-52.4821,0.00546379,-0.00436593,-0.00106754,0.00557839,-0.00448053,-0.106943,0.00581904,0.0142924,1308,400,6.63439,52.4821
91,624,6.68152,-52.4025,0.00538775,-0.00448135,-0.00137323,0.00557527,-0.00466887,-0.13571,0.00592216,0.0139599,1315,400,6.68157,52.4025
98,624,6.70837,-52.3025,0.00515954,-0.0045223,-0.0015965,0.00541601,-0.00477876,-0.15928,0.00588979,0.0130469,1322,400,6.70833,52.3024
105,624,6.73645,-52.2073,0.00508841,-0.00481567,-0.00180025,0.00540549,-0.00513274,-0.174342,0.00608493,0.0148082,1329,400,6.73647,52.2073
112,624,6.78345,-52.1007,0.00511724,-0.00484979,-0.00202828,0.00551419,-0.00524673,-0.193262,0.00621346,0.0147995,1336,400,6.78349,52.1007
119,624,6.79407,-51.9748,0.00497907,-0.00494374,-0.00210347,0.00540656,-0.00537122,-0.200498,0.00622257,0.0147377,1343,400,6.79409,51.9748
126,624,6.77673,-51.7619,0.00471948,-0.00488963,-0.00217755,0.00518991,-0.00536006,-0.212767,0.00609129,0.0179923,1350,400,6.7767,51.7619
133,624,6.87146,-51.5344,0.00441453,-0.00454534,-0.00210904,0.00488615,-0.00501695,-0.219998,0.00571772,0.0185502,1357,400,6.87142,51.5344
140,624,6.90503,-51.3436,0.00416003,-0.00412569,-0.0019949,0.00461531,-0.00458097,-0.22438,0.00530949,0.0181086,1364,400,6.90508,51.3436
147,624,6.89209,-51.0938,0.00384551,-0.00363901,-0.00187896,0.00429073,-0.00408423,-0.232659,0.00483578,0.023211,1371,400,6.89206,51.0939
154,624,6.93494,-50.8418,0.00354018,-0.0029607,-0.00172801,0.00397096,-0.00339148,-0.244313,0.00425509,0.0257507,1378,400,6.93498,50.8418
161,624,6.94348,-50.5565,0.00324769,-0.0020318,-0.00148423,0.00363634,-0.00242045,-0.256104,0.0035203,0.0234522,1385,400,6.94351,50.5565
168,624,6.95251,-50.2358,0.00288903,-0.00098683,-0.00116091,0.00321015,-0.00130795,-0.269859,0.00268448,0.0234302,1392,400,6.95246,50.2358
175,624,7.00928,-49.9897,0.00249551,1.16176e-05,-0.00083449,0.00274982,-0.0002427,-0.295816,0.00191924,0.0180319,1399,400,7.00923,49.9896
182,624,7.01221,-49.6644,0.00201376,0.000900787,-0.000529992,0.00222576,0.000688789,-0.380508,0.00131578,0.0110332,1406,400,7.01218,49.6644
189,624,7.00269,-49.3012,0.00152093,0.00184001,-0.000159118,0.00190579,0.00145515,-1.17875,0.00115013,0.0106657,1413,400,7.00266,49.3012
196,624,6.97485,-48.9428,0.00119145,0.00271511,0.000271028,0.00276189,0.00114468,1.3999,0.00160234,0.0115954,1420,400,6.9749,48.9428
203,624,7.00183,-48.554,0.000863748,0.00347713,0.000686323,0.00364641,0.000694471,1.32898,0.0022357,0.0145835,1427,400,7.00184,48.554
210,624,7.03381,-48.1652,0.000398434,0.00396882,0.001029,0.00424415,0.000123106,1.30935,0.0027893,0.018013,1434,400,7.03387,48.1652
217,624,6.98352,-47.7659,7.43309e-05,0.00473925,0.0012708,0.00506298,-0.000249392,1.32136,0.00346144,0.0218849,1441,400,6.98347,47.7659
224,624,6.94678,-47.3554,-0.00010504,0.00561206,0.00158057,0.00601993,-0.000512912,1.31825,0.00419472,0.017755,1448,400,6.94681,47.3554
231,624,6.93713,-46.9159,-0.000202933,0.00643069,0.00200075,0.00698741,-0.000759651,1.29941,0.00493103,0.012328,1455,400,6.93714,46.9159
238,624,6.90552,-46.4709,-0.000235932,0.00730846,0.00231667,0.00796305,-0.000890519,1.29542,0.00562907,0.017559,1462,400,6.90548,46.4709
245,624,6.89026,-46.0148,-0.00355569,0.00872544,0.00159178,0.0089284,-0.00375865,1.44398,0.00752485,0.0190437,1469,400,6.89029,46.0148
252,624,6.85693,-45.5063,-0.00783241,0.0105945,0.000497515,0.0106079,-0.00784583,1.54382,0.010694,0.0143416,1476,400,6.85697,45.5063
259,624,6.82764,-45.0263,-0.0124298,0.0126619,-0.000855159,0.012691,-0.0124589,-1.53677,0.0145205,0.00915608,1483,400,6.82765,45.0263
266,624,6.82251,-44.5079,-0.0166615,0.0143907,-0.00200599,0.0145197,-0.0167906,-1.50655,0.0180928,0.0127642,1490,400,6.82253,44.5079
273,624,6.79309,-43.9707,-0.0215379,0.0163355,-0.00330401,0.0166216,-0.0218239,-1.48443,0.0222642,0.0161153,1497,400,6.7931,43.9707
280,624,6.72217,-43.4425,-0.0268191,0.0183795,-0.00473061,0.0188693,-0.0273089,-1.46762,0.026809,0.0145734,1504,400,6.72214,43.4425
287,624,6.66553,-42.924,-0.0319389,0.0205697,-0.00603788,0.0212551,-0.0326243,-1.45777,0.0313373,0.0117322,1511,400,6.66555,42.924
294,624,6.61914,-42.3651,-0.0368562,0.0226232,-0.00732384,0.0235118,-0.0377447,-1.45007,0.0356833,0.0107295,1518,400,6.61919,42.3651
301,624,6.58728,-41.7473,-0.0409875,0.0244477,-0.00835227,0.0254969,-0.0420368,-1.44582,0.0393785,0.0128084,1525,400,6.58722,41.7473
308,624,6.58606,-41.1085,-0.0441876,0.0260935,-0.00905107,0.0272404,-0.0453345,-1.44475,0.042333,0.0180599,1532,400,6.58606,41.1085
315,624,6.57483,-40.5416,-0.0463087,0.0276331,-0.00930247,0.0287855,-0.0474611,-1.44755,0.044459,0.0218131,1539,400,6.57488,40.5416
322,624,6.53015,-39.9429,-0.0477804,0.0288763,-0.00921354,0.0299682,-0.0488723,-1.45284,0.0459526,0.0396892,1546,400,6.53009,39.9429
329,624,6.3158,-39.3956,0,0,0,0,0,0,0,-1,1553,400,6.31576,39.3956
336,624,6.30835,-38.1175,0,0,0,0,0,0,0,-1,1560,400,6.3084,38.1175
343,624,6.2821,-37.0428,0,0,0,0,0,0,0,-1,1567,400,6.28215,37.0428
350,624,1.99194,-7.29742,0,0,0,0,0,0,0,-1,1574,400,1.99198,7.29741
357,624,2.64075,-3.13092,0,0,0,0,0,0,0,-1,1581,400,2.64076,3.13091
364,624,3.16565,-4.9458,0,0,0,0,0,0,0,-1,1588,400,3.16564,4.94579
371,624,3.37561,-5.23529,0,0,0,0,0,0,0,-1,1595,400,3.37563,5.23529
378,624,1.50439,-5.22165,0,0,0,0,0,0,0,-1,1602,400,1.50438,5.22164
385,624,1.2301,-10.5866,0,0,0,0,0,0,0,-1,1609,400,1.2301,10.5866
392,624,4.26819,-5.14236,0,0,0,0,0,0,0,-1,1616,400,4.26818,5.14236
399,624,2.22168,-9.19293,0,0,0,0,0,0,0,-1,1623,400,2.22173,9.19294
406,624,2.68213,-9.91171,0,0,0,0,0,0,0,-1,1630,400,2.68213,9.91171
413,624,0,0,0,0,0,0,0,0,0,-1,1637,400,0,0
420,624,0,0,0,0,0,0,0,0,0,-1,1644,400,0,0
427,624,0,0,0,0,0,0,0,0,0,-1,1651,400,0,0
434,624,0,0,0,0,0,0,0,0,0,-1,1658,400,0,0
441,624,0,0,0,0,0,0,0,0,0,-1,1665,400,0,0
448,624,0,0,0,0,0,0,0,0,0,-1,1672,400,0,0
455,624,0,0,0,0,0,0,0,0,0,-1,1679,400,0,0
462,624,0,0,0,0,0,0,0,0,0,-1,1686,400,0,0
469,624,0,0,0,0,0,0,0,0,0,-1,1693,400,0,0
476,624,0,0,0,0,0,0,0,0,0,-1,1700,400,0,0
483,624,0,0,0,0,0,0,0,0,0,-1,1707,400,0,0
490,624,0,0,0,0,0,0,0,0,0,-1,1714,400,0,0
497,624,0,0,0,0,0,0,0,0,0,-1,1721,400,0,0
504,624,0,0,0,0,0,0,0,0,0,-1,1728,400,0,0
511,624,0,0,0,0,0,0,0,0,0,-1,1735,400,0,0
518,624,0,0,0,0,0,0,0,0,0,-1,1742,400,0,0
525,624,0,0,0,0,0,0,0,0,0,-1,1749,400,0,0
532,624,0,0,0,0,0,0,0,0,0,-1,1756,400,0,0
539,624,0,0,0,0,0,0,0,0,0,-1,1763,400,0,0
546,624,0,0,0,0,0,0,0,0,0,-1,1770,400,0,0
553,624,0,0,0,0,0,0,0,0,0,-1,1777,400,0,0
560,624,0,0,0,0,0,0,0,0,0,-1,1784,400,0,0
567,624,0,0,0,0,0,0,0,0,0,-1,1791,400,0,0
574,624,0,0,0,0,0,0,0,0,0,-1,1798,400,0,0
581,624,0,0,0,0,0,0,0,0,0,-1,1805,400,0,0
588,624,0,0,0,0,0,0,0,0,0,-1,1812,400,0,0
595,624,0,0,0,0,0,0,0,0,0,-1,1819,400,0,0
602,624,0,0,0,0,0,0,0,0,0,-1,1826,400,0,0
609,624,0,0,0,0,0,0,0,0,0,-1,1833,400,0,0
616,624,0,0,0,0,0,0,0,0,0,-1,1840,400,0,0
623,624,0,0,0,0,0,0,0,0,0,-1,1847,400,0,0
630,624,0,0,0,0,0,0,0,0,0,-1,1854,400,0,0
637,624,0,0,0,0,0,0,0,0,0,-1,1861,400,0,0
644,624,0,0,0,0,0,0,0,0,0,-1,1868,400,0,0
651,624,0,0,0,0,0,0,0,0,0,-1,1875,400,0,0
658,624,0,0,0,0,0,0,0,0,0,-1,1882,400,0,0
665,624,0,0,0,0,0,0,0,0,0,-1,1889,400,0,0
672,624,0,0,0,0,0,0,0,0,0,-1,1896,400,0,0
679,624,0,0,0,0,0,0,0,0,0,-1,1903,400,0,0
686,624,0,0,0,0,0,0,0,0,0,-1,1910,400,0,0
693,624,0,0,0,0,0,0,0,0,0,-1,1917,400,0,0
700,624,0,0,0,0,0,0,0,0,0,-1,1924,400,0,0
707,624,0,0,0,0,0,0,0,0,0,-1,1931,400,0,0
714,624,0,0,0,0,0,0,0,0,0,-1,1938,400,0,0
721,624,0,0,0,0,0,0,0,0,0,-1,1945,400,0,0
728,624,0,0,0,0,0,0,0,0,0,-1,1952,400,0,0
735,624,0,0,0,0,0,0,0,0,0,-1,1959,400,0,0
742,624,0,0,0,0,0,0,0,0,0,-1,1966,400,0,0
749,624,0,0,0,0,0,0,0,0,0,-1,1973,400,0,0
756,624,0,0,0,0,0,0,0,0,0,-1,1980,400,0,0
763,624,0,0,0,0,0,0,0,0,0,-1,1987,400,0,0
770,624,0,0,0,0,0,0,0,0,0,-1,1994,400,0,0
777,624,0,0,0,0,0,0,0,0,0,-1,2001,400,0,0
784,624,0,0,0,0,0,0,0,0,0,-1,2008,400,0,0
791,624,0,0,0,0,0,0,0,0,0,-1,2015,400,0,0
798,624,0,0,0,0,0,0,0,0,0,-1,2022,400,0,0
805,624,0,0,0,0,0,0,0,0,0,-1,2029,400,0,0
812,624,0,0,0,0,0,0,0,0,0,-1,2036,400,0,0
-700,617,0,0,0,0,0,0,0,0,0,-1,524,407,0,0
-693,617,0,0,0,0,0,0,0,0,0,-1,531,407,0,0
-686,617,0,0,0,0,0,0,0,0,0,-1,538,407,0,0
-679,617,0,0,0,0,0,0,0,0,0,-1,545,407,0,0
-672,617,0,0,0,0,0,0,0,0,0,-1,552,407,0,0
-665,617,0,0,0,0,0,0,0,0,0,-1,559,407,0,0
-658,617,0,0,0,0,0,0,0,0,0,-1,566,407,0,0
-651,617,0,0,0,0,0,0,0,0,0,-1,573,407,0,0
-644,617,0,0,0,0,0,0,0,0,0,-1,580,407,0,0
-637,617,0,0,0,0,0,0,0,0,0,-1,587,407,0,0
-630,617,0,0,0,0,0,0,0,0,0,-1,594,407,0,0
-623,617,0,0,0,0,0,0,0,0,0,-1,601,407,0,0
-616,617,0,0,0,0,0,0,0,0,0,-1,608,407,0,0
-609,617,0,0,0,0,0,0,0,0,0,-1,615,407,0,0
-602,617,0,0,0,0,0,0,0,0,0,-1,622,407,0,0
-595,617,0,0,0,0,0,0,0,0,0,-1,629,407,0,0
-588,617,0,0,0,0,0,0,0,0,0,-1,636,407,0,0
-581,617,0,0,0,0,0,0,0,0,0,-1,643,407,0,0
-574,617,0,0,0,0,0,0,0,0,0,-1,650,407,0,0
-567,617,0,0,0,0,0,0,0,0,0,-1,657,407,0,0
-560,617,0,0,0,0,0,0,0,0,0,-1,664,407,0,0
-553,617,0,0,0,0,0,0,0,0,0,-1,671,407,0,0
-546,617,0,0,0,0,0,0,0,0,0,-1,678,407,0,0
-539,617,0,0,0,0,0,0,0,0,0,-1,685,407,0,0
-532,617,0,0,0,0,0,0,0,0,0,-1,692,407,0,0
-525,617,0,0,0,0,0,0,0,0,0,-1,699,407,0,0
-518,617,0,0,0,0,0,0,0,0,0,-1,706,407,0,0
-511,617,0,0,0,0,0,0,0,0,0,-1,713,407,0,0
-504,617,0,0,0,0,0,0,0,0,0,-1,720,407,0,0
-497,617,0,0,0,0,0,0,0,0,0,-1,727,407,0,0
-490,617,0,0,0,0,0,0,0,0,0,-1,734,407,0,0
-483,617,0,0,0,0,0,0,0,0,0,-1,741,407,0,0
-476,617,0,0,0,0,0,0,0,0,0,-1,748,407,0,0
-469,617,0,0,0,0,0,0,0,0,0,-1,755,407,0,0
-462,617,0,0,0,0,0,0,0,0,0,-1,762,407,0,0
-455,617,0,0,0,0,0,0,0,0,0,-1,769,407,0,0
-448,617,0,0,0,0,0,0,0,0,0,-1,776,407,0,0
-441,617,0,0,0,0,0,0,0,0,0,-1,783,407,0,0
-434,617,0,0,0,0,0,0,0,0,0,-1,790,407,0,0
-427,617,0,0,0,0,0,0,0,0,0,-1,797,407,0,0
-420,617,0,0,0,0,0,0,0,0,0,-1,804,407,0,0
-413,617,0,0,0,0,0,0,0,0,0,-1,811,407,0,0
-406,617,0,0,0,0,0,0,0,0,0,-1,818,407,0,0
-399,617,0,0,0,0,0,0,0,0,0,-1,825,407,0,0
-392,617,0,0,0,0,0,0,0,0,0,-1,832,407,0,0
-385,617,0,0,0,0,0,0,0,0,0,-1,839,407,0,0
-378,617,0,0,0,0,0,0,0,0,0,-1,846,407,0,0
-371,617,0,0,0,0,0,0,0,0,0,-1,853,407,0,0
-364,617,0,0,0,0,0,0,0,0,0,-1,860,407,0,0
-357,617,0,0,0,0,0,0,0,0,0,-1,867,407,0,0
-350,617,0,0,0,0,0,0,0,0,0,-1,874,407,0,0
-343,617,0,0,0,0,0,0,0,0,0,-1,881,407,0,0
-336,617,0,0,0,0,0,0,0,0,0,-1,888,407,0,0
-329,617,0,0,0,0,0,0,0,0,0,-1,895,407,0,0
-322,617,0,0,0,0,0,0,0,0,0,-1,902,407,0,0
-315,617,0,0,0,0,0,0,0,0,0,-1,909,407,0,0
-308,617,0,0,0,0,0,0,0,0,0,-1,916,407,0,0
-301,617,6.81897,-24.525,0,0,0,0,0,0,0,-1,923,407,6.81899,24.525
-294,617,6.19263,-26.917,0,0,0,0,0,0,0,-1,930,407,6.19261,26.917
-287,617,7.00409,-31.9773,0,0,0,0,0,0,0,-1,937,407,7.00406,31.9773
-280,617,9.1106,-36.5021,0,0,0,0,0,0,0,-1,944,407,9.11059,36.5021
-273,617,8.35004,-36.2751,0,0,0,0,0,0,0,-1,951,407,8.35003,36.2751
-266,617,7.61749,-36.1671,0,0,0,0,0,0,0,-1,958,407,7.61746,36.1671
-259,617,6.83643,-36.3605,0,0,0,0,0,0,0,-1,965,407,6.83643,36.3605
-252,617,6.02264,-36.5001,0,0,0,0,0,0,0,-1,972,407,6.02265,36.5001
-245,617,6.72626,-34.4465,0,0,0,0,0,0,0,-1,979,407,6.72627,34.4465
-238,617,5.6474,-34.6842,0,0,0,0,0,0,0,-1,986,407,5.64741,34.6842
-231,617,6.14124,-36.4417,0,0,0,0,0,0,0,-1,993,407,6.14125,36.4417
-224,617,6.08966,-37.4497,0,0,0,0,0,0,0,-1,1000,407,6.08966,37.4497
-217,617,6.18634,-38.5813,0,0,0,0,0,0,0,-1,1007,407,6.18633,38.5813
-210,617,6.16431,-39.2825,-0.000462329,0.0235239,-0.0111906,0.0279339,-0.00487238,-1.1954,0.0204412,0.0377306,1014,407,6.16433,39.2825
-203,617,6.16565,-39.9128,-0.000899322,0.020097,-0.00983669,0.0239854,-0.00478768,-1.19436,0.017802,0.0261587,1021,407,6.16564,39.9128
-196,617,6.04834,-40.4568,-0.00124882,0.0170311,-0.00862264,0.0204565,-0.00467423,-1.19266,0.0154335,0.023173,1028,407,6.04828,40.4568
-189,617,5.99023,-41.0025,-0.00144613,0.0145026,-0.00771564,0.0176243,-0.00456779,-1.18634,0.0135316,0.0192556,1035,407,5.99021,41.0025
-182,617,6.01245,-41.6024,-0.00158524,0.012349,-0.00682675,0.0151361,-0.00437236,-1.18319,0.0118209,0.0191761,1042,407,6.01244,41.6024
-175,617,5.97974,-42.1516,-0.00175467,0.01012,-0.0058034,0.0124851,-0.00411983,-1.1838,0.00998417,0.015752,1049,407,5.97978,42.1516
-168,617,5.92883,-42.7531,-0.00187297,0.0086008,-0.00493029,0.0105565,-0.00382863,-1.19317,0.00860269,0.0116764,1056,407,5.92878,42.7531
-161,617,5.87842,-43.3258,-0.00188224,0.00757113,-0.00419082,0.00916145,-0.00347256,-1.20811,0.00753671,0.0115067,1063,407,5.87842,43.3258
-154,617,5.82886,-43.8258,-0.0018442,0.00649503,-0.00349811,0.00776807,-0.00311724,-1.22177,0.00647302,0.0125826,1070,407,5.8288,43.8259
-147,617,5.79712,-44.3237,-0.00173856,0.00548881,-0.00288068,0.00649649,-0.00274624,-1.23429,0.00548076,0.0173919,1077,407,5.79706,44.3237
-140,617,5.77661,-44.8621,-0.00154781,0.00453812,-0.00231726,0.00531999,-0.00232968,-1.24538,0.00452762,0.0130165,1084,407,5.77665,44.862
-133,617,5.74622,-45.3534,-0.0013324,0.00371729,-0.00183451,0.00431339,-0.00192849,-1.25662,0.00369039,0.0141158,1091,407,5.74618,45.3534
-126,617,5.72705,-45.8015,-0.00111123,0.00285585,-0.0013639,0.00327952,-0.0015349,-1.26962,0.00283979,0.013442,1098,407,5.72701,45.8015
-119,617,5.70349,-46.2325,-0.000748359,0.00223648,-0.00102034,0.00255193,-0.00106381,-1.27095,0.00214567,0.013398,1105,407,5.70345,46.2325
-112,617,5.6875,-46.656,-0.000354676,0.00175717,-0.000757013,0.0020005,-0.000597999,-1.2598,0.0015714,0.0158132,1112,407,5.68755,46.656
-105,617,5.67664,-47.0861,6.58425e-05,0.00133253,-0.000618427,0.00158438,-0.000186012,-1.18406,0.00112341,0.0173301,1119,407,5.67669,47.0861
-98,617,5.66479,-47.526,0.000528146,0.000897508,-0.000519523,0.0012642,0.000161455,-0.956173,0.000794469,0.0144,1126,407,5.66482,47.526
-91,617,5.66565,-47.9553,0.00103658,0.000553126,-0.000452331,0.00130772,0.000281982,-0.540005,0.000794674,0.0199149,1133,407,5.66565,47.9553
-84,617,5.703,-48.397,0.00159945,0.000278438,-0.000361281,0.0016918,0.000186088,-0.250259,0.00107124,0.0193106,1140,407,5.70302,48.397
-77,617,5.70618,-48.7357,0.00214543,7.29802e-05,-0.000274241,0.00218111,3.73051e-05,-0.129361,0.0014418,0.0153183,1147,407,5.70614,48.7357
-70,617,5.74219,-49.0887,0.00273008,-4.7082e-05,-0.000180191,0.00274172,-5.87247e-05,-0.0645226,0.0018477,0.0172993,1154,407,5.74219,49.0887
-63,617,5.79016,-49.4734,0.00333677,-0.00060964,4.12488e-05,0.0033372,-0.000610071,0.0104507,0.00245357,0.0200732,1161,407,5.7901,49.4734
-56,617,5.72729,-49.7917,0.00386402,-0.00163118,0.000365983,0.00388829,-0.00165544,0.0662107,0.00328607,0.0151963,1168,407,5.72728,49.7917
-49,617,5.74548,-50.1102,0.00428562,-0.00253842,0.000696137,0.00435591,-0.00260871,0.100631,0.00406298,0.0117665,1175,407,5.74547,50.1102
-42,617,5.78845,-50.4133,0.00479792,-0.00369812,0.00115067,0.004951,-0.0038512,0.132262,0.00509516,0.0118707,1182,407,5.78842,50.4133
-35,617,5.82703,-50.6754,0.00529581,-0.00519469,0.0015054,0.00550756,-0.00540645,0.139745,0.0063013,0.0160285,1189,407,5.82706,50.6753
-28,617,5.82678,-50.9194,0.00568191,-0.00687874,0.00175317,0.00592202,-0.00711885,0.136111,0.00753971,0.0179533,1196,407,5.82674,50.9194
-21,617,5.86133,-51.134,0.00613729,-0.00879295,0.0018455,0.00636202,-0.00901768,0.121179,0.00892349,0.0137943,1203,407,5.86128,51.134
-14,617,5.89221,-51.3433,0.00665313,-0.0103277,0.00183368,0.00684889,-0.0105235,0.106352,0.0101045,0.0163168,1210,407,5.89225,51.3433
-7,617,5.90125,-51.5076,0.00723295,-0.012033,0.00166911,0.00737649,-0.0121765,0.0857839,0.0114017,0.0197311,1217,407,5.9012,51.5076
0,617,5.97778,-51.7081,0.00762785,-0.0133186,0.00149512,0.00773403,-0.0134248,0.070899,0.0123625,0.0168037,1224,407,5.97782,51.7081
7,617,6.04602,-51.9268,0.00770084,-0.0146436,0.00138117,0.00778589,-0.0147287,0.0615008,0.0132032,0.0119062,1231,407,6.04601,51.9269
14,617,6.10022,-52.097,0.00779909,-0.0156059,0.00119652,0.0078601,-0.0156669,0.0509455,0.0138303,0.0139321,1238,407,6.10018,52.097
21,617,6.14783,-52.2169,0.00798622,-0.0161981,0.000969994,0.00802507,-0.0162369,0.0400227,0.0142726,0.0136344,1245,407,6.14787,52.2169
28,617,6.20398,-52.3582,0.00808171,-0.0164887,0.00069281,0.00810123,-0.0165083,0.028167,0.014482,0.0124431,1252,407,6.20401,52.3583
35,617,6.22412,-52.4407,0.00796722,-0.016337,0.000466633,0.00797617,-0.0163459,0.0191903,0.0143168,0.0149423,1259,407,6.22417,52.4407
42,617,6.34058,-52.4543,0.00790834,-0.0156775,0.000301906,0.00791221,-0.0156814,0.0127975,0.0138658,0.0221141,1266,407,6.34053,52.4544
49,617,6.40625,-52.4954,0.00787402,-0.0146507,0.000126436,0.00787473,-0.0146514,0.00561297,0.0132002,0.0225797,1273,407,6.4062,52.4954
56,617,6.41809,-52.5423,0.00783674,-0.0135023,-7.16874e-05,0.00783698,-0.0135026,-0.0033594,0.0124643,0.0163994,1280,407,6.41807,52.5423
63,617,6.48535,-52.5753,0.00779304,-0.0123648,-0.000517922,0.00780634,-0.0123781,-0.0256707,0.0117527,0.0119577,1287,407,6.48537,52.5753
70,617,6.52649,-52.6025,0.00780847,-0.0110481,-0.00100193,0.00786155,-0.0111012,-0.0529357,0.0110013,0.0175608,1294,407,6.5265,52.6025
77,617,6.65552,-52.5483,0.0080019,-0.00972614,-0.00137415,0.00810778,-0.00983202,-0.0769007,0.0103735,0.015045,1301,407,6.65548,52.5483
84,617,6.71045,-52.4806,0.00822986,-0.00902698,-0.00176874,0.00840929,-0.0092064,-0.101095,0.0101739,0.0122851,1308,407,6.71047,52.4806
91,617,6.74463,-52.4171,0.00819825,-0.00929554,-0.00223078,0.00847823,-0.00957553,-0.124857,0.0104298,0.0114899,1315,407,6.74469,52.4171
98,617,6.79492,-52.3285,0.00794115,-0.00945474,-0.00258624,0.00831751,-0.00983109,-0.144507,0.0104902,0.0122859,1322,407,6.79498,52.3285
105,617,6.86841,-52.2034,0.00791131,-0.0100557,-0.00293561,0.00837879,-0.0105232,-0.157919,0.0109365,0.0143532,1329,407,6.86835,52.2034
112,617,6.94751,-52.079,0.00800494,-0.010316,-0.00335007,0.0085983,-0.0109093,-0.175301,0.011289,0.0168261,1336,407,6.94755,52.079
119,617,6.948,-51.9321,0.00781234,-0.0106809,-0.00348794,0.00844831,-0.0113169,-0.180354,0.0114514,0.0187101,1343,407,6.94803,51.9321
126,617,6.95496,-51.7644,0.00746914,-0.0108299,-0.00360215,0.00815269,-0.0115134,-0.187531,0.0114094,0.0213023,1350,407,6.95491,51.7644
133,617,7.04016,-51.5463,0.00709219,-0.0105841,-0.00355138,0.00777902,-0.0112709,-0.191039,0.0110599,0.0189884,1357,407,7.04014,51.5463
140,617,7.13794,-51.3391,0.00675378,-0.0101897,-0.00345912,0.00743277,-0.0108687,-0.193825,0.0106283,0.0161128,1364,407,7.13795,51.3391
147,617,7.18665,-51.1114,0.00632278,-0.00967794,-0.00336162,0.00700034,-0.0103555,-0.198892,0.0100826,0.0199738,1371,407,7.18664,51.1114
154,617,7.20752,-50.8978,0.00590305,-0.00884386,-0.00322698,0.00657827,-0.00951909,-0.206268,0.00934537,0.0228412,1378,407,7.20748,50.8978
161,617,7.21265,-50.6465,0.00550981,-0.0076271,-0.0030022,0.0061634,-0.00828068,-0.214356,0.0083691,0.0241033,1385,407,7.2127,50.6466
168,617,7.27588,-50.3518,0.00507097,-0.00617115,-0.00266057,0.00566883,-0.00676901,-0.221039,0.00719035,0.0238987,1392,407,7.27582,50.3518
175,617,7.31372,-50.0259,0.00459243,-0.00474666,-0.00230735,0.00513139,-0.00528562,-0.229469,0.00601448,0.0194611,1399,407,7.31368,50.0259
182,617,7.35522,-49.6828,0.00399835,-0.0034258,-0.00200141,0.00450351,-0.00393097,-0.247242,0.00487339,0.0123598,1406,407,7.35525,49.6828
189,617,7.34143,-49.3295,0.00336382,-0.00197687,-0.00162433,0.00381905,-0.0024321,-0.273245,0.00363859,0.0117877,1413,407,7.34145,49.3295
196,617,7.32324,-48.9827,0.0029329,-0.000627308,-0.00114941,0.00327173,-0.000966144,-0.286672,0.0025646,0.015721,1420,407,7.32324,48.9827
203,617,7.32092,-48.6177,0.0025563,0.000507106,-0.000683013,0.00276309,0.00030032,-0.293983,0.00175056,0.0159528,1427,407,7.32089,48.6177
210,617,7.36633,-48.1875,0.00201448,0.00141099,-0.000244958,0.00210139,0.00132408,-0.34095,0.00122685,0.0149903,1434,407,7.36633,48.1875
217,617,7.37329,-47.7527,0.00148731,0.00221012,0.000161082,0.00224439,0.00145304,1.36116,0.00131444,0.0212888,1441,407,7.37328,47.7527
224,617,7.37048,-47.3695,0.00106707,0.00298372,0.000583189,0.00314722,0.000903565,1.29746,0.00187115,0.0212547,1448,407,7.37048,47.3695
231,617,7.37683,-46.9435,0.000786224,0.00376575,0.00108625,0.00411972,0.000432261,1.25579,0.00261433,0.0147659,1455,407,7.37684,46.9435
238,617,7.36267,-46.4971,0.000654384,0.00452518,0.00143674,0.00500017,0.000179392,1.2515,0.00327529,0.0153119,1462,407,7.36264,46.4971
245,617,7.37207,-46.0404,-0.00076879,0.00556528,0.00132391,0.00583086,-0.00103437,1.37282,0.00427396,0.0133815,1469,407,7.37202,46.0404
252,617,7.3407,-45.5291,-0.00300231,0.00691602,0.000940154,0.00700435,-0.00309064,1.47712,0.00597256,0.0138881,1476,407,7.34066,45.5291
259,617,7.29419,-45.0263,-0.00584068,0.00846631,0.000294947,0.00847239,-0.00584676,1.55019,0.00831336,0.0109449,1483,407,7.2942,45.0263
266,617,7.27722,-44.5015,-0.00870218,0.00984459,-0.000350614,0.00985122,-0.0087088,-1.5519,0.0107224,0.0142505,1490,407,7.27717,44.5015
273,617,7.27441,-43.9576,-0.0120457,0.0114128,-0.00111292,0.0114655,-0.0120984,-1.5235,0.0136062,0.0155611,1497,407,7.27446,43.9576
280,617,7.21204,-43.4434,-0.0156975,0.0130702,-0.00196636,0.013204,-0.0158312,-1.50286,0.0167864,0.0135735,1504,407,7.21206,43.4434
287,617,7.17004,-42.9122,-0.019202,0.0148545,-0.00271896,0.0150702,-0.0194177,-1.49163,0.0199643,0.012211,1511,407,7.17,42.9122
294,617,7.14246,-42.3646,-0.022583,0.0165176,-0.00347325,0.0168237,-0.0228892,-1.48289,0.0230172,0.00988966,1518,407,7.14247,42.3646
301,617,7.10315,-41.8072,-0.0253735,0.0179926,-0.00403212,0.0183643,-0.0257453,-1.47887,0.0255852,0.00814536,1525,407,7.1032,41.8072
308,617,7.05237,-41.2151,-0.0274167,0.0193275,-0.00432221,0.0197238,-0.0278129,-1.47936,0.0275775,0.0087415,1532,407,7.05239,41.2151
315,617,7.01245,-40.6443,-0.0285998,0.0205806,-0.00424975,0.0209451,-0.0289643,-1.48523,0.0289389,0.0103614,1539,407,7.01243,40.6443
322,617,6.96399,-40.0399,-0.0292465,0.021592,-0.00388974,0.0218879,-0.0295424,-1.49487,0.0298027,0.0163453,1546,407,6.96403,40.0399
329,617,6.93298,-39.3922,-0.0291492,0.0224198,-0.00322748,0.022621,-0.0293504,-1.50853,0.0300894,0.0222976,1553,407,6.93302,39.3921
336,617,6.97241,-38.5605,-0.028025,0.0234593,-0.00202429,0.0235387,-0.0281044,-1.53156,0.029855,0.0419984,1560,407,6.97235,38.5605
343,617,6.97217,-37.9682,0,0,0,0,0,0,0,-1,1567,407,6.97222,37.9682
350,617,6.70276,-37.5256,0,0,0,0,0,0,0,-1,1574,407,6.70279,37.5256
357,617,2.1748,-7.16504,0,0,0,0,0,0,0,-1,1581,407,2.1748,7.16505
364,617,2.30127,-7.60257,0,0,0,0,0,0,0,-1,1588,407,2.30125,7.60258
371,617,2.60266,-6.20667,0,0,0,0,0,0,0,-1,1595,407,2.60261,6.20668
378,617,1.56921,-10.3601,0,0,0,0,0,0,0,-1,1602,407,1.56918,10.3601
385,617,1.74146,-10.3561,0,0,0,0,0,0,0,-1,1609,407,1.7414,10.3561
392,617,1.96936,-5.10449,0,0,0,0,0,0,0,-1,1616,407,1.96931,5.10451
399,617,2.48889,-5.81256,0,0,0,0,0,0,0,-1,1623,407,2.48888,5.81255
406,617,3.01465,-6.51642,0,0,0,0,0,0,0,-1,1630,407,3.01461,6.51643
413,617,3.6427,-7.2074,0,0,0,0,0,0,0,-1,1637,407,3.64274,7.20739
420,617,3.42737,-4.47391,0,0,0,0,0,0,0,-1,1644,407,3.42737,4.47391
427,617,0,0,0,0,0,0,0,0,0,-1,1651,407,0,0
434,617,0,0,0,0,0,0,0,0,0,-1,1658,407,0,0
441,617,0,0,0,0,0,0,0,0,0,-1,1665,407,0,0
448,617,0,0,0,0,0,0,0,0,0,-1,1672,407,0,0
455,617,0,0,0,0,0,0,0,0,0,-1,1679,407,0,0
462,617,0,0,0,0,0,0,0,0,0,-1,1686,407,0,0
469,617,0,0,0,0,0,0,0,0,0,-1,1693,407,0,0
476,617,0,0,0,0,0,0,0,0,0,-1,1700,407,0,0
483,617,0,0,0,0,0,0,0,0,0,-1,1707,407,0,0
490,617,0,0,0,0,0,0,0,0,0,-1,1714,407,0,0
497,617,0,0,0,0,0,0,0,0,0,-1,1721,407,0,0
504,617,0,0,0,0,0,0,0,0,0,-1,1728,407,0,0
511,617,0,0,0,0,0,0,0,0,0,-1,1735,407,0,0
518,617,0,0,0,0,0,0,0,0,0,-1,1742,407,0,0
525,617,0,0,0,0,0,0,0,0,0,-1,1749,407,0,0
532,617,0,0,0,0,0,0,0,0,0,-1,1756,407,0,0
539,617,0,0,0,0,0,0,0,0,0,-1,1763,407,0,0
546,617,0,0,0,0,0,0,0,0,0,-1,1770,407,0,0
553,617,0,0,0,0,0,0,0,0,0,-1,1777,407,0,0
560,617,0,0,0,0,0,0,0,0,0,-1,1784,407,0,0
567,617,0,0,0,0,0,0,0,0,0,-1,1791,407,0,0
574,617,0,0,0,0,0,0,0,0,0,-1,1798,407,0,0
581,617,0,0,0,0,0,0,0,0,0,-1,1805,407,0,0
588,617,0,0,0,0,0,0,0,0,0,-1,1812,407,0,0
595,617,0,0,0,0,0,0,0,0,0,-1,1819,407,0,0
602,617,0,0,0,0,0,0,0,0,0,-1,1826,407,0,0
609,617,0,0,0,0,0,0,0,0,0,-1,1833,407,0,0
616,617,0,0,0,0,0,0,0,0,0,-1,1840,407,0,0
623,617,0,0,0,0,0,0,0,0,0,-1,1847,407,0,0
630,617,0,0,0,0,0,0,0,0,0,-1,1854,407,0,0
637,617,0,0,0,0,0,0,0,0,0,-1,1861,407,0,0
644,617,0,0,0,0,0,0,0,0,0,-1,1868,407,0,0
651,617,0,0,0,0,0,0,0,0,0,-1,1875,407,0,0
658,617,0,0,0,0,0,0,0,0,0,-1,1882,407,0,0
665,617,0,0,0,0,0,0,0,0,0,-1,1889,407,0,0
672,617,0,0,0,0,0,0,0,0,0,-1,1896,407,0,0
679,617,0,0,0,0,0,0,0,0,0,-1,1903,407,0,0
686,617,0,0,0,0,0,0,0,0,0,-1,1910,407,0,0
693,617,0,0,0,0,0,0,0,0,0,-1,1917,407,0,0
700,617,0,0,0,0,0,0,0,0,0,-1,1924,407,0,0
707,617,0,0,0,0,0,0,0,0,0,-1,1931,407,0,0
714,617,0,0,0,0,0,0,0,0,0,-1,1938,407,0,0
721,617,0,0,0,0,0,0,0,0,0,-1,1945,407,0,0
728,617,0,0,0,0,0,0,0,0,0,-1,1952,407,0,0
735,617,0,0,0,0,0,0,0,0,0,-1,1959,407,0,0
742,617,0,0,0,0,0,0,0,0,0,-1,1966,407,0,0
749,617,0,0,0,0,0,0,0,0,0,-1,1973,407,0,0
756,617,0,0,0,0,0,0,0,0,0,-1,1980,407,0,0
763,617,0,0,0,0,0,0,0,0,0,-1,1987,407,0,0
770,617,0,0,0,0,0,0,0,0,0,-1,1994,407,0,0
777,617,0,0,0,0,0,0,0,0,0,-1,2001,407,0,0
784,617,0,0,0,0,0,0,0,0,0,-1,2008,407,0,0
791,617,0,0,0,0,0,0,0,0,0,-1,2015,407,0,0
798,617,0,0,0,0,0,0,0,0,0,-1,2022,407,0,0
805,617,0,0,0,0,0,0,0,0,0,-1,2029,407,0,0
812,617,0,0,0,0,0,0,0,0,0,-1,2036,407,0,0
-700,610,0,0,0,0,0,0,0,0,0,-1,524,414,0,0
-693,610,0,0,0,0,0,0,0,0,0,-1,531,414,0,0
-686,610,0,0,0,0,0,0,0,0,0,-1,538,414,0,0
-679,610,0,0,0,0,0,0,0,0,0,-1,545,414,0,0
-672,610,0,0,0,0,0,0,0,0,0,-1,552,414,0,0
-665,610,0,0,0,0,0,0,0,0,0,-1,559,414,0,0
-658,610,0,0,0,0,0,0,0,0,0,-1,566,414,0,0
-651,610,0,0,0,0,0,0,0,0,0,-1,573,414,0,0
-644,610,0,0,0,0,0,0,0,0,0,-1,580,414,0,0
-637,610,0,0,0,0,0,0,0,0,0,-1,587,414,0,0
-630,610,0,0,0,0,0,0,0,0,0,-1,594,414,0,0
-623,610,0,0,0,0,0,0,0,0,0,-1,601,414,0,0
-616,610,0,0,0,0,0,0,0,0,0,-1,608,414,0,0
-609,610,0,0,0,0,0,0,0,0,0,-1,615,414,0,0
-602,610,0,0,0,0,0,0,0,0,0,-1,622,414,0,0
-595,610,0,0,0,0,0,0,0,0,0,-1,629,414,0,0
-588,610,0,0,0,0,0,0,0,0,0,-1,636,414,0,0
-581,610,0,0,0,0,0,0,0,0,0,-1,643,414,0,0
-574,610,0,0,0,0,0,0,0,0,0,-1,650,414,0,0
-567,610,0,0,0,0,0,0,0,0,0,-1,657,414,0,0
-560,610,0,0,0,0,0,0,0,0,0,-1,664,414,0,0
-553,610,0,0,0,0,0,0,0,0,0,-1,671,414,0,0
-546,610,0,0,0,0,0,0,0,0,0,-1,678,414,0,0
-539,610,0,0,0,0,0,0,0,0,0,-1,685,414,0,0
-532,610,0,0,0,0,0,0,0,0,0,-1,692,414,0,0
-525,610,0,0,0,0,0,0,0,0,0,-1,699,414,0,0
-518,610,0,0,0,0,0,0,0,0,0,-1,706,414,0,0
-511,610,0,0,0,0,0,0,0,0,0,-1,713,414,0,0
-504,610,0,0,0,0,0,0,0,0,0,-1,720,414,0,0
-497,610,0,0,0,0,0,0,0,0,0,-1,727,414,0,0
-490,610,0,0,0,0,0,0,0,0,0,-1,734,414,0,0
-483,610,0,0,0,0,0,0,0,0,0,-1,741,414,0,0
-476,610,0,0,0,0,0,0,0,0,0,-1,748,414,0,0
-469,610,0,0,0,0,0,0,0,0,0,-1,755,414,0,0
-462,610,0,0,0,0,0,0,0,0,0,-1,762,414,0,0
-455,610,0,0,0,0,0,0,0,0,0,-1,769,414,0,0
-448,610,0,0,0,0,0,0,0,0,0,-1,776,414,0,0
-441,610,0,0,0,0,0,0,0,0,0,-1,783,414,0,0
-434,610,0,0,0,0,0,0,0,0,0,-1,790,414,0,0
-427,610,0,0,0,0,0,0,0,0,0,-1,797,414,0,0
-420,610,0,0,0,0,0,0,0,0,0,-1,804,414,0,0
-413,610,0,0,0,0,0,0,0,0,0,-1,811,414,0,0
-406,610,0,0,0,0,0,0,0,0,0,-1,818,414,0,0
-399,610,0,0,0,0,0,0,0,0,0,-1,825,414,0,0
-392,610,0,0,0,0,0,0,0,0,0,-1,832,414,0,0
-385,610,0,0,0,0,0,0,0,0,0,-1,839,414,0,0
-378,610,0,0,0,0,0,0,0,0,0,-1,846,414,0,0
-371,610,0,0,0,0,0,0,0,0,0,-1,853,414,0,0
-364,610,0,0,0,0,0,0,0,0,0,-1,860,414,0,0
-357,610,0,0,0,0,0,0,0,0,0,-1,867,414,0,0
-350,610,0,0,0,0,0,0,0,0,0,-1,874,414,0,0
-343,610,0,0,0,0,0,0,0,0,0,-1,881,414,0,0
-336,610,0,0,0,0,0,0,0,0,0,-1,888,414,0,0
-329,610,0,0,0,0,0,0,0,0,0,-1,895,414,0,0
-322,610,0,0,0,0,0,0,0,0,0,-1,902,414,0,0
-315,610,7.68475,-21.5402,0,0,0,0,0,0,0,-1,909,414,7.68475,21.5402
-308,610,3.97211,-23.4133,0,0,0,0,0,0,0,-1,916,414,3.9721,23.4133
-301,610,7.38513,-22.4166,0,0,0,0,0,0,0,-1,923,414,7.38516,22.4166
-294,610,6.77832,-24.1945,0,0,0,0,0,0,0,-1,930,414,6.77829,24.1946
-287,610,3.39276,-28.5804,0,0,0,0,0,0,0,-1,937,414,3.39276,28.5803
-280,610,8.8728,-35.4336,0,0,0,0,0,0,0,-1,944,414,8.87283,35.4336
-273,610,8.14722,-35.5264,0,0,0,0,0,0,0,-1,951,414,8.14723,35.5264
-266,610,7.38361,-35.6366,0,0,0,0,0,0,0,-1,958,414,7.38359,35.6366
-259,610,6.47375,-35.762,0,0,0,0,0,0,0,-1,965,414,6.47373,35.762
-252,610,5.65308,-35.8931,0,0,0,0,0,0,0,-1,972,414,5.65305,35.8931
-245,610,6.04797,-36.0514,0,0,0,0,0,0,0,-1,979,414,6.04799,36.0514
-238,610,5.68066,-36.1868,0,0,0,0,0,0,0,-1,986,414,5.68065,36.1868
-231,610,5.65399,-36.9214,0.000391751,0.0264541,-0.0117986,0.0310019,-0.004156,-1.2029,0.0221834,0.0465546,993,414,5.65396,36.9214
-224,610,5.65582,-37.8005,0.0001763,0.0239628,-0.0107496,0.0281009,-0.00396179,-1.20333,0.0201846,0.0320092,1000,414,5.65581,37.8005
-217,610,5.67279,-38.6214,-4.54863e-05,0.021104,-0.0097071,0.0248838,-0.00382529,-1.19947,0.0180003,0.0202447,1007,414,5.67281,38.6214
-210,610,5.64532,-39.3526,-0.000251131,0.0183478,-0.00862398,0.0217311,-0.00363445,-1.19693,0.0158385,0.0142014,1014,414,5.64534,39.3526
-203,610,5.62097,-39.9708,-0.000492736,0.0156483,-0.00756062,0.0186365,-0.00348099,-1.1944,0.0137325,0.017148,1021,414,5.62092,39.9708
-196,610,5.57385,-40.5452,-0.000702009,0.0131535,-0.00657568,0.0157774,-0.00332587,-1.19113,0.0117844,0.0148761,1028,414,5.57383,40.5452
-189,610,5.53564,-41.1068,-0.000796713,0.0110002,-0.00582242,0.0133898,-0.00318635,-1.18134,0.0101566,0.0118596,1035,414,5.53563,41.1067
-182,610,5.50134,-41.6432,-0.000836621,0.00907732,-0.00504971,0.0111964,-0.00295574,-1.17346,0.00862015,0.0131747,1042,414,5.50139,41.6432
-175,610,5.46558,-42.1783,-0.000899248,0.00700901,-0.00414073,0.00878033,-0.00267057,-1.16657,0.00691776,0.0144039,1049,414,5.46554,42.1783
-168,610,5.40234,-42.7444,-0.000946977,0.00549014,-0.00336061,0.00692484,-0.00238167,-1.1673,0.00558245,0.0124653,1056,414,5.4023,42.7444
-161,610,5.3689,-43.3433,-0.000922094,0.00438598,-0.00267973,0.00550352,-0.00203964,-1.17569,0.00450551,0.0112192,1063,414,5.3689,43.3433
-154,610,5.3429,-43.8402,-0.000844683,0.00327931,-0.00201269,0.00409877,-0.00166414,-1.18415,0.00342476,0.0144114,1070,414,5.3429,43.8402
-147,610,5.31775,-44.315,-0.000688052,0.00224562,-0.0014121,0.00281487,-0.0012573,-1.1876,0.00240771,0.0166197,1077,414,5.31781,44.315
-140,610,5.3136,-44.8307,-0.00045514,0.00124735,-0.000861464,0.0016072,-0.000814984,-1.17511,0.00142316,0.0133234,1084,414,5.31365,44.8306
-133,610,5.29541,-45.3023,-0.000192405,0.000390954,-0.000391845,0.000587761,-0.000389212,-1.10534,0.000567925,0.0144186,1091,414,5.29546,45.3023
-126,610,5.28772,-45.7484,0.0001071,-0.000393058,1.96681e-05,0.000107872,-0.00039383,0.0392431,0.000304939,0.0124197,1098,414,5.28774,45.7484
-119,610,5.28455,-46.2097,0.0005459,-0.000947602,0.000309322,0.000607429,-0.00100913,0.196354,0.000942878,0.0108474,1105,414,5.2846,46.2097
-112,610,5.26025,-46.6349,0.00100506,-0.00133715,0.000494686,0.00110525,-0.00143734,0.199837,0.00147214,0.0201045,1112,414,5.26022,46.6348
-105,610,5.21301,-47.0616,0.00148705,-0.00162693,0.00055497,0.001583,-0.00172288,0.171199,0.00190922,0.020617,1119,414,5.21298,47.0617
-98,610,5.25537,-47.5084,0.0020359,-0.00189108,0.000571412,0.00211736,-0.00197254,0.141598,0.0023618,0.0147616,1126,414,5.25541,47.5084
-91,610,5.27686,-47.9426,0.00267351,-0.00201914,0.00053217,0.00273311,-0.00207874,0.111518,0.00278667,0.015587,1133,414,5.27688,47.9426
-84,610,5.30908,-48.3602,0.00336775,-0.00200594,0.000513923,0.00341646,-0.00205465,0.0944956,0.0031912,0.0153046,1140,414,5.30908,48.3602
-77,610,5.32397,-48.7583,0.00405143,-0.00191922,0.000469606,0.00408814,-0.00195593,0.0780131,0.00356119,0.0121741,1147,414,5.324,48.7583
-70,610,5.37109,-49.1291,0.00483014,-0.00165593,0.000431761,0.00485875,-0.00168455,0.0661782,0.00392315,0.0155385,1154,414,5.37107,49.1291
-63,610,5.40234,-49.4654,0.00562599,-0.00217469,0.00066616,0.00568247,-0.00223117,0.0845815,0.00471155,0.0159961,1161,414,5.40235,49.4654
-56,610,5.41687,-49.7671,0.00627013,-0.00342935,0.00105881,0.00638436,-0.00354359,0.107475,0.00580959,0.0144671,1168,414,5.41684,49.7671
-49,610,5.43762,-50.0724,0.00672789,-0.00460742,0.00144038,0.00690806,-0.00478758,0.124436,0.00678938,0.0136375,1175,414,5.43758,50.0724
-42,610,5.46643,-50.378,0.00729385,-0.0061433,0.00202202,0.00759153,-0.00644098,0.146168,0.00811074,0.0151277,1182,414,5.46647,50.378
-35,610,5.52087,-50.6662,0.00785698,-0.0081392,0.00246168,0.00822724,-0.00850947,0.149291,0.0096634,0.0158127,1189,414,5.52093,50.6662
-28,610,5.56812,-50.9068,0.00827358,-0.0103842,0.00276115,0.00867362,-0.0107843,0.143881,0.011256,0.0135533,1196,414,5.5681,50.9068
-21,610,5.63477,-51.1061,0.00879195,-0.0130014,0.00287089,0.0091638,-0.0133732,0.128805,0.0130872,0.0117266,1203,414,5.63478,51.1062
-14,610,5.6864,-51.3092,0.00938413,-0.0151432,0.00281271,0.00970254,-0.0154617,0.112727,0.0146548,0.0136766,1210,414,5.68642,51.3092
-7,610,5.74927,-51.4884,0.0100412,-0.0174897,0.00252712,0.0102712,-0.0177197,0.0907814,0.0163502,0.016294,1217,414,5.74927,51.4884
0,610,5.81091,-51.6836,0.0104542,-0.0192664,0.00224954,0.0106235,-0.0194357,0.0751194,0.0176015,0.0126251,1224,414,5.81088,51.6836
7,610,5.88562,-51.9001,0.0104484,-0.0211501,0.0020722,0.0105837,-0.0212854,0.0652069,0.0187423,0.0135556,1231,414,5.88564,51.9001
14,610,6.03101,-52.0142,0.0105108,-0.0225113,0.00178394,0.0106069,-0.0226074,0.0538138,0.0195891,0.0177214,1238,414,6.03099,52.0142
21,610,6.08765,-52.0874,0.0106955,-0.0233746,0.00143674,0.010756,-0.023435,0.0420705,0.0201876,0.0183615,1245,414,6.08761,52.0874
28,610,6.07544,-52.2439,0.0107218,-0.0237793,0.00104988,0.0107537,-0.0238112,0.0303929,0.0204252,0.0195039,1252,414,6.07541,52.2439
35,610,6.25732,-52.3324,0.0104975,-0.0235462,0.000735499,0.0105134,-0.0235621,0.0215911,0.0201486,0.0216415,1259,414,6.25734,52.3324
42,610,6.32153,-52.3777,0.0103869,-0.0225857,0.000502007,0.0103945,-0.0225933,0.0152203,0.0194748,0.0198843,1266,414,6.32151,52.3776
49,610,6.35925,-52.5083,0.0103222,-0.0210813,0.000261094,0.0103244,-0.0210835,0.00831339,0.0184846,0.0194657,1273,414,6.35928,52.5083
56,610,6.43103,-52.5222,0.010261,-0.0193728,2.17414e-06,0.010261,-0.0193728,7.3367e-05,0.0173766,0.018259,1280,414,6.43107,52.5222
63,610,6.41016,-52.4922,0.0102078,-0.0177254,-0.000633221,0.0102222,-0.0177398,-0.0226535,0.0163372,0.0268405,1287,414,6.4102,52.4922
70,610,6.57373,-52.5222,0.0102604,-0.0158842,-0.00136165,0.0103312,-0.015955,-0.0518942,0.0152916,0.036913,1294,414,6.57379,52.5222
77,610,6.82764,-52.3491,0.010566,-0.0140328,-0.00193452,0.0107172,-0.014184,-0.0780035,0.0144231,0.0384298,1301,414,6.82766,52.3491
84,610,6.78064,-52.3887,0.0109236,-0.0131336,-0.00253553,0.0111879,-0.013398,-0.103875,0.0142137,0.0380882,1308,414,6.78066,52.3887
91,610,6.82239,-52.4376,0.0109441,-0.0136512,-0.00323821,0.0113633,-0.0140704,-0.128737,0.0147119,0.0310887,1315,414,6.8224,52.4376
98,610,6.9917,-52.3501,0.0106608,-0.013974,-0.00378315,0.0112287,-0.0145419,-0.148996,0.0149196,0.0275809,1322,414,6.99173,52.3501
105,610,7.05786,-52.1683,0.0107315,-0.0148969,-0.00434596,0.0114484,-0.0156138,-0.163489,0.015686,0.0226683,1329,414,7.05782,52.1683
112,610,7.11145,-52.033,0.0109806,-0.0153102,-0.00502331,0.0119077,-0.0162373,-0.182505,0.0163135,0.0139562,1336,414,7.11144,52.033
119,610,7.14392,-51.8993,0.0107461,-0.015976,-0.00524664,0.0117393,-0.0169692,-0.187091,0.0166663,0.0202115,1343,414,7.14395,51.8993
126,610,7.23706,-51.7282,0.0103352,-0.0163244,-0.00541,0.0113912,-0.0173804,-0.192773,0.0167308,0.0294436,1350,414,7.23703,51.7282
133,610,7.30334,-51.5509,0.00990739,-0.0161131,-0.00536821,0.0109714,-0.0171771,-0.195667,0.0163826,0.0225019,1357,414,7.30329,51.5509
140,610,7.3833,-51.3513,0.00950192,-0.0156803,-0.00526998,0.0105603,-0.0167387,-0.198196,0.0158951,0.0182333,1364,414,7.38331,51.3513
147,610,7.39209,-51.0687,0.00896148,-0.0150825,-0.00515516,0.0100202,-0.0161412,-0.202547,0.0152415,0.0192522,1371,414,7.39207,51.0687
154,610,7.4104,-50.8101,0.00842614,-0.0140389,-0.00500119,0.00948921,-0.0151019,-0.209446,0.0143204,0.0233061,1378,414,7.41045,50.81
161,610,7.48376,-50.5632,0.00793063,-0.0124955,-0.00475502,0.00898331,-0.0135481,-0.217869,0.0130972,0.0276657,1385,414,7.48378,50.5632
168,610,7.56641,-50.2829,0.00740009,-0.010618,-0.0043528,0.00839653,-0.0116145,-0.225042,0.011603,0.0296715,1392,414,7.56638,50.2829
175,610,7.65247,-50.0004,0.00681435,-0.00879593,-0.00392782,0.00774694,-0.00972852,-0.233116,0.0101111,0.0241942,1399,414,7.65247,50.0004
182,610,7.69995,-49.6802,0.00607997,-0.00714859,-0.00357294,0.00698331,-0.00805193,-0.247639,0.00868791,0.0168283,1406,414,7.6999,49.6802
189,610,7.69019,-49.3157,0.00528107,-0.005305,-0.00314368,0.00614424,-0.00616818,-0.267972,0.00710858,0.0151768,1413,414,7.69015,49.3157
196,610,7.70825,-48.973,0.00474034,-0.00360105,-0.00258616,0.00547708,-0.0043378,-0.277526,0.00567933,0.0146909,1420,414,7.7082,48.9729
203,610,7.7063,-48.6045,0.00430147,-0.00222423,-0.00205935,0.004897,-0.00281976,-0.281505,0.00450876,0.0141634,1427,414,7.70631,48.6045
210,610,7.71973,-48.2166,0.00363122,-0.00106219,-0.00153896,0.00409083,-0.0015218,-0.290219,0.0033517,0.0107279,1434,414,7.7197,48.2166
217,610,7.79773,-47.7647,0.00287068,-0.000231142,-0.000983506,0.00315624,-0.000516697,-0.282575,0.00229586,0.0171538,1441,414,7.79768,47.7647
224,610,7.83105,-47.344,0.00222568,0.000532145,-0.000446897,0.00233637,0.000421452,-0.242808,0.00143783,0.0201558,1448,414,7.83102,47.344
231,610,7.8092,-46.9283,0.00180382,0.00136651,0.000173791,0.00186447,0.00130585,0.335787,0.00110489,0.0158652,1455,414,7.80915,46.9282
238,610,7.78809,-46.4789,0.00161698,0.00206132,0.000568837,0.00244983,0.00122846,0.971572,0.00141441,0.0119235,1462,414,7.78805,46.4788
245,610,7.81641,-46.0039,0.00146687,0.00283095,0.000868687,0.00325335,0.00104446,1.11821,0.00191801,0.0126778,1469,414,7.81645,46.0039
252,610,7.80371,-45.5118,0.000652197,0.0037312,0.000986299,0.00402004,0.000363352,1.28591,0.0025675,0.0132547,1476,414,7.8037,45.5118
259,610,7.78833,-45.0073,-0.000923481,0.00480578,0.000842416,0.00492708,-0.00104478,1.42779,0.00368271,0.0113129,1483,414,7.78834,45.0073
266,610,7.75537,-44.4879,-0.00284909,0.00586406,0.000537242,0.00589706,-0.00288209,1.50945,0.00516732,0.0128508,1490,414,7.75539,44.4879
273,610,7.75037,-43.9698,-0.00513484,0.00710404,0.000136185,0.00710555,-0.00513636,1.55967,0.00709829,0.0108063,1497,414,7.75031,43.9698
280,610,7.71716,-43.4265,-0.00766163,0.0084339,-0.000329373,0.00844064,-0.00766837,-1.55034,0.0093041,0.00945864,1504,414,7.71715,43.4265
287,610,7.68237,-42.8845,-0.0100887,0.0098718,-0.000727476,0.00989827,-0.0101152,-1.53441,0.011555,0.0115513,1511,414,7.68241,42.8845
294,610,7.6792,-42.3462,-0.012472,0.0112378,-0.00114178,0.0112927,-0.0125269,-1.52279,0.0137584,0.0105974,1518,414,7.67915,42.3462
301,610,7.68298,-41.8144,-0.0144597,0.0124756,-0.00141996,0.0125502,-0.0145344,-1.51827,0.0156513,0.0104315,1525,414,7.68304,41.8144
308,610,7.63416,-41.2325,-0.0158894,0.0136284,-0.00149062,0.0137035,-0.0159645,-1.52047,0.0171454,0.0125079,1532,414,7.63416,41.2325
315,610,7.55847,-40.6738,-0.0166822,0.0147333,-0.00128338,0.0147856,-0.0167346,-1.53004,0.0182098,0.0134356,1539,414,7.55851,40.6738
322,610,7.526,-40.0692,-0.0170611,0.0156744,-0.000847205,0.0156963,-0.017083,-1.54494,0.0189308,0.012969,1546,414,7.52597,40.0692
329,610,7.48071,-39.4575,-0.0168981,0.0164375,-0.000193012,0.0164386,-0.0168992,-1.56501,0.0192482,0.0124043,1553,414,7.48067,39.4575
336,610,7.46057,-38.8513,-0.01601,0.0173613,0.000857734,0.0173833,-0.016032,1.54512,0.0192976,0.014561,1560,414,7.46057,38.8513
343,610,7.39307,-38.2137,-0.0146288,0.0182368,0.00212051,0.018373,-0.0147651,1.50663,0.0191701,0.020795,1567,414,7.39305,38.2137
350,610,7.32275,-37.5654,-0.0103669,0.0193587,0.00448078,0.0200194,-0.0110276,1.42439,0.0181739,0.0337648,1574,414,7.32272,37.5654
357,610,7.3689,-36.7802,0,0,0,0,0,0,0,-1,1581,414,7.36889,36.7802
364,610,7.5166,-36.034,0,0,0,0,0,0,0,-1,1588,414,7.51655,36.034
371,610,7.31348,-35.2334,0,0,0,0,0,0,0,-1,1595,414,7.31348,35.2334
378,610,3.5752,-12.1958,0,0,0,0,0,0,0,-1,1602,414,3.57517,12.1958
385,610,2.57104,-10.3878,0,0,0,0,0,0,0,-1,1609,414,2.57109,10.3878
392,610,1.99744,-1.83582,0,0,0,0,0,0,0,-1,1616,414,1.99741,1.8358
399,610,2.77136,-2.60333,0,0,0,0,0,0,0,-1,1623,414,2.77133,2.60332
406,610,3.54529,-3.37085,0,0,0,0,0,0,0,-1,1630,414,3.54525,3.37084
413,610,3.01929,-3.20306,0,0,0,0,0,0,0,-1,1637,414,3.01929,3.20306
420,610,4.78149,-3.64041,0,0,0,0,0,0,0,-1,1644,414,4.78152,3.64042
427,610,8.85168,-23.3853,0,0,0,0,0,0,0,-1,1651,414,8.85174,23.3853
434,610,8.73706,-22.6227,0,0,0,0,0,0,0,-1,1658,414,8.73703,22.6227
441,610,0,0,0,0,0,0,0,0,0,-1,1665,414,0,0
448,610,0,0,0,0,0,0,0,0,0,-1,1672,414,0,0
455,610,0,0,0,0,0,0,0,0,0,-1,1679,414,0,0
462,610,0,0,0,0,0,0,0,0,0,-1,1686,414,0,0
469,610,0,0,0,0,0,0,0,0,0,-1,1693,414,0,0
476,610,0,0,0,0,0,0,0,0,0,-1,1700,414,0,0
483,610,0,0,0,0,0,0,0,0,0,-1,1707,414,0,0
490,610,0,0,0,0,0,0,0,0,0,-1,1714,414,0,0
497,610,0,0,0,0,0,0,0,0,0,-1,1721,414,0,0
504,610,0,0,0,0,0,0,0,0,0,-1,1728,414,0,0
511,610,0,0,0,0,0,0,0,0,0,-1,1735,414,0,0
518,610,0,0,0,0,0,0,0,0,0,-1,1742,414,0,0
525,610,0,0,0,0,0,0,0,0,0,-1,1749,414,0,0
532,610,0,0,0,0,0,0,0,0,0,-1,1756,414,0,0
539,610,0,0,0,0,0,0,0,0,0,-1,1763,414,0,0
546,610,0,0,0,0,0,0,0,0,0,-1,1770,414,0,0
553,610,0,0,0,0,0,0,0,0,0,-1,1777,414,0,0
560,610,0,0,0,0,0,0,0,0,0,-1,1784,414,0,0
567,610,0,0,0,0,0,0,0,0,0,-1,1791,414,0,0
574,610,0,0,0,0,0,0,0,0,0,-1,1798,414,0,0
581,610,0,0,0,0,0,0,0,0,0,-1,1805,414,0,0
588,610,0,0,0,0,0,0,0,0,0,-1,1812,414,0,0
595,610,0,0,0,0,0,0,0,0,0,-1,1819,414,0,0
602,610,0,0,0,0,0,0,0,0,0,-1,1826,414,0,0
609,610,0,0,0,0,0,0,0,0,0,-1,1833,414,0,0
616,610,0,0,0,0,0,0,0,0,0,-1,1840,414,0,0
623,610,0,0,0,0,0,0,0,0,0,-1,1847,414,0,0
630,610,0,0,0,0,0,0,0,0,0,-1,1854,414,0,0
637,610,0,0,0,0,0,0,0,0,0,-1,1861,414,0,0
644,610,0,0,0,0,0,0,0,0,0,-1,1868,414,0,0
651,610,0,0,0,0,0,0,0,0,0,-1,1875,414,0,0
658,610,0,0,0,0,0,0,0,0,0,-1,1882,414,0,0
665,610,0,0,0,0,0,0,0,0,0,-1,1889,414,0,0
672,610,0,0,0,0,0,0,0,0,0,-1,1896,414,0,0
679,610,0,0,0,0,0,0,0,0,0,-1,1903,414,0,0
686,610,0,0,0,0,0,0,0,0,0,-1,1910,414,0,0
693,610,0,0,0,0,0,0,0,0,0,-1,1917,414,0,0
700,610,0,0,0,0,0,0,0,0,0,-1,1924,414,0,0
707,610,0,0,0,0,0,0,0,0,0,-1,1931,414,0,0
714,610,0,0,0,0,0,0,0,0,0,-1,1938,414,0,0
721,610,0,0,0,0,0,0,0,0,0,-1,1945,414,0,0
728,610,0,0,0,0,0,0,0,0,0,-1,1952,414,0,0
735,610,0,0,0,0,0,0,0,0,0,-1,1959,414,0,0
742,610,0,0,0,0,0,0,0,0,0,-1,1966,414,0,0
749,610,0,0,0,0,0,0,0,0,0,-1,1973,414,0,0
756,610,0,0,0,0,0,0,0,0,0,-1,1980,414,0,0
763,610,0,0,0,0,0,0,0,0,0,-1,1987,414,0,0
770,610,0,0,0,0,0,0,0,0,0,-1,1994,414,0,0
777,610,0,0,0,0,0,0,0,0,0,-1,2001,414,0,0
784,610,0,0,0,0,0,0,0,0,0,-1,2008,414,0,0
791,610,0,0,0,0,0,0,0,0,0,-1,2015,414,0,0
798,610,0,0,0,0,0,0,0,0,0,-1,2022,414,0,0
805,610,0,0,0,0,0,0,0,0,0,-1,2029,414,0,0
812,610,0,0,0,0,0,0,0,0,0,-1,2036,414,0,0
-700,603,0,0,0,0,0,0,0,0,0,-1,524,421,0,0
-693,603,0,0,0,0,0,0,0,0,0,-1,531,421,0,0
-686,603,0,0,0,0,0,0,0,0,0,-1,538,421,0,0
-679,603,0,0,0,0,0,0,0,0,0,-1,545,421,0,0
-672,603,0,0,0,0,0,0,0,0,0,-1,552,421,0,0
-665,603,0,0,0,0,0,0,0,0,0,-1,559,421,0,0
-658,603,0,0,0,0,0,0,0,0,0,-1,566,421,0,0
-651,603,0,0,0,0,0,0,0,0,0,-1,573,421,0,0
-644,603,0,0,0,0,0,0,0,0,0,-1,580,421,0,0
-637,603,0,0,0,0,0,0,0,0,0,-1,587,421,0,0
-630,603,0,0,0,0,0,0,0,0,0,-1,594,421,0,0
-623,603,0,0,0,0,0,0,0,0,0,-1,601,421,0,0
-616,603,0,0,0,0,0,0,0,0,0,-1,608,421,0,0
-609,603,0,0,0,0,0,0,0,0,0,-1,615,421,0,0
-602,603,0,0,0,0,0,0,0,0,0,-1,622,421,0,0
-595,603,0,0,0,0,0,0,0,0,0,-1,629,421,0,0
-588,603,0,0,0,0,0,0,0,0,0,-1,636,421,0,0
-581,603,0,0,0,0,0,0,0,0,0,-1,643,421,0,0
-574,603,0,0,0,0,0,0,0,0,0,-1,650,421,0,0
-567,603,0,0,0,0,0,0,0,0,0,-1,657,421,0,0
-560,603,0,0,0,0,0,0,0,0,0,-1,664,421,0,0
-553,603,0,0,0,0,0,0,0,0,0,-1,671,421,0,0
-546,603,0,0,0,0,0,0,0,0,0,-1,678,421,0,0
-539,603,0,0,0,0,0,0,0,0,0,-1,685,421,0,0
-532,603,0,0,0,0,0,0,0,0,0,-1,692,421,0,0
-525,603,0,0,0,0,0,0,0,0,0,-1,699,421,0,0
-518,603,0,0,0,0,0,0,0,0,0,-1,706,421,0,0
-511,603,0,0,0,0,0,0,0,0,0,-1,713,421,0,0
-504,603,0,0,0,0,0,0,0,0,0,-1,720,421,0,0
-497,603,0,0,0,0,0,0,0,0,0,-1,727,421,0,0
-490,603,0,0,0,0,0,0,0,0,0,-1,734,421,0,0
-483,603,0,0,0,0,0,0,0,0,0,-1,741,421,0,0
-476,603,0,0,0,0,0,0,0,0,0,-1,748,421,0,0
-469,603,0,0,0,0,0,0,0,0,0,-1,755,421,0,0
-462,603,0,0,0,0,0,0,0,0,0,-1,762,421,0,0
-455,603,0,0,0,0,0,0,0,0,0,-1,769,421,0,0
-448,603,0,0,0,0,0,0,0,0,0,-1,776,421,0,0
-441,603,0,0,0,0,0,0,0,0,0,-1,783,421,0,0
-434,603,0,0,0,0,0,0,0,0,0,-1,790,421,0,0
-427,603,0,0,0,0,0,0,0,0,0,-1,797,421,0,0
-420,603,0,0,0,0,0,0,0,0,0,-1,804,421,0,0
-413,603,0,0,0,0,0,0,0,0,0,-1,811,421,0,0
-406,603,0,0,0,0,0,0,0,0,0,-1,818,421,0,0
-399,603,0,0,0,0,0,0,0,0,0,-1,825,421,0,0
-392,603,0,0,0,0,0,0,0,0,0,-1,832,421,0,0
-385,603,0,0,0,0,0,0,0,0,0,-1,839,421,0,0
-378,603,0,0,0,0,0,0,0,0,0,-1,846,421,0,0
-371,603,0,0,0,0,0,0,0,0,0,-1,853,421,0,0
-364,603,0,0,0,0,0,0,0,0,0,-1,860,421,0,0
-357,603,0,0,0,0,0,0,0,0,0,-1,867,421,0,0
-350,603,0,0,0,0,0,0,0,0,0,-1,874,421,0,0
-343,603,0,0,0,0,0,0,0,0,0,-1,881,421,0,0
-336,603,0,0,0,0,0,0,0,0,0,-1,888,421,0,0
-329,603,4.09686,-17.9702,0,0,0,0,0,0,0,-1,895,421,4.09687,17.9702
-322,603,8.83179,-28.7376,0,0,0,0,0,0,0,-1,902,421,8.83179,28.7376
-315,603,5.99744,-20.4501,0,0,0,0,0,0,0,-1,909,421,5.99745,20.4501
-308,603,5.92249,-20.778,0,0,0,0,0,0,0,-1,916,421,5.92248,20.778
-301,603,2.72424,-20.9059,0,0,0,0,0,0,0,-1,923,421,2.72424,20.9059
-294,603,2.41553,-20.6767,0,0,0,0,0,0,0,-1,930,421,2.41554,20.6767
-287,603,1.91766,-21.2242,0,0,0,0,0,0,0,-1,937,421,1.91767,21.2242
-280,603,2.36121,-27.3314,0,0,0,0,0,0,0,-1,944,421,2.36119,27.3314
-273,603,7.96613,-34.8225,0,0,0,0,0,0,0,-1,951,421,7.96613,34.8225
-266,603,7.18787,-34.9736,0,0,0,0,0,0,0,-1,958,421,7.18788,34.9736
-259,603,5.44128,-33.9968,0,0,0,0,0,0,0,-1,965,421,5.44127,33.9967
-252,603,5.24695,-35.5385,0,0,0,0,0,0,0,-1,972,421,5.24698,35.5385
-245,603,5.33435,-36.0758,0.000430353,0.0232597,-0.0111149,0.0277773,-0.00408723,-1.18475,0.0200201,0.0363804,979,421,5.33436,36.0758
-238,603,5.26764,-36.7209,0.000173546,0.0217161,-0.00995547,0.0256122,-0.00372255,-1.19777,0.0184413,0.0241708,986,421,5.26763,36.7209
-231,603,5.19525,-37.4476,9.96153e-05,0.0201292,-0.00898544,0.0235693,-0.00334049,-1.20516,0.0169365,0.0149657,993,421,5.19526,37.4476
-224,603,5.15869,-38.1233,2.20256e-05,0.0182575,-0.00816138,0.0213766,-0.00309712,-1.20574,0.0153877,0.0156577,1000,421,5.1587,38.1233
-217,603,5.1358,-38.7299,-3.08137e-05,0.0160045,-0.00733754,0.0188552,-0.00288156,-1.20023,0.0136326,0.0143955,1007,421,5.13581,38.7299
-210,603,5.09192,-39.3548,-6.07677e-05,0.0137256,-0.00646908,0.0162857,-0.00262089,-1.19396,0.011828,0.0116923,1014,421,5.09189,39.3548
-203,603,5.06921,-40.0017,-0.000124874,0.0114491,-0.00560673,0.0137197,-0.00239547,-1.18601,0.0100407,0.0170719,1021,421,5.06918,40.0018
-196,603,5.07031,-40.608,-0.000196482,0.00930482,-0.00478183,0.0112947,-0.00218635,-1.17646,0.00835449,0.0202825,1028,421,5.07032,40.608
-189,603,5.04321,-41.1129,-0.00019258,0.00737482,-0.00411916,0.00918432,-0.00200207,-1.15689,0.00688792,0.017079,1035,421,5.0432,41.1129
-182,603,4.97742,-41.6582,-0.000136729,0.00558308,-0.00340501,0.00716988,-0.00172353,-1.1347,0.00544611,0.0119969,1042,421,4.97747,41.6582
-175,603,4.94312,-42.201,-9.31424e-05,0.00362129,-0.00255868,0.00492573,-0.00139759,-1.09933,0.00383552,0.0127016,1049,421,4.94314,42.2011
-168,603,4.89636,-42.7367,-6.89777e-05,0.0021032,-0.00181924,0.00313589,-0.00110166,-1.0545,0.00253878,0.0153237,1056,421,4.89632,42.7367
-161,603,4.86536,-43.3035,-5.83986e-06,0.000948756,-0.00114918,0.00171582,-0.000772899,-0.982228,0.00147083,0.0143071,1063,421,4.86536,43.3035
-154,603,4.84888,-43.8161,0.00010825,-0.00018569,-0.000464831,0.000448792,-0.000526232,-0.632281,0.000563522,0.013261,1070,421,4.84886,43.8161
-147,603,4.83496,-44.3042,0.000305414,-0.00123225,0.000164672,0.000322851,-0.00124969,0.105498,0.000959031,0.0150627,1077,421,4.83501,44.3042
-140,603,4.86963,-44.7759,0.000554957,-0.00227244,0.000747192,0.00074027,-0.00245775,0.243108,0.0019331,0.0137251,1084,421,4.86957,44.7759
-133,603,4.83643,-45.25,0.000842297,-0.00314436,0.00125719,0.00120564,-0.0035077,0.281344,0.00282737,0.0129125,1091,421,4.83637,45.25
-126,603,4.83264,-45.7069,0.00121569,-0.00384836,0.00165533,0.00170878,-0.00434145,0.289506,0.00360164,0.0111998,1098,421,4.83268,45.707
-119,603,4.85303,-46.1862,0.00171515,-0.00436302,0.00191299,0.0022671,-0.00491497,0.2809,0.00423947,0.0118685,1105,421,4.85305,46.1861
-112,603,4.85156,-46.6515,0.00222579,-0.00467716,0.00203288,0.00277998,-0.00523134,0.266142,0.00469696,0.016716,1112,421,4.85154,46.6515
-105,603,4.83997,-47.0827,0.00275942,-0.00484043,0.00201935,0.00326266,-0.00534367,0.244232,0.00501705,0.0162578,1119,421,4.84002,47.0827
-98,603,4.84412,-47.4739,0.00338044,-0.00495503,0.00196014,0.00381837,-0.00539296,0.219808,0.005344,0.0142276,1126,421,4.84414,47.4739
-91,603,4.87354,-47.8868,0.00414761,-0.00490098,0.00181075,0.00449651,-0.00524988,0.190352,0.00563268,0.0105001,1133,421,4.87351,47.8868
-84,603,4.92578,-48.3245,0.00499293,-0.00462353,0.00166172,0.00527197,-0.00490257,0.166374,0.00587557,0.0121218,1140,421,4.92581,48.3245
-77,603,4.98804,-48.7518,0.00583427,-0.00420462,0.00143052,0.00603414,-0.00440448,0.138817,0.00605117,0.0182889,1147,421,4.98801,48.7518
-70,603,5.04138,-49.1789,0,0,0,0,0,0,0,-1,1154,421,5.04138,49.1789
-63,603,4.94482,-49.3538,0,0,0,0,0,0,0,-1,1161,421,4.94483,49.3538
-56,603,5.03845,-49.7155,0,0,0,0,0,0,0,-1,1168,421,5.03841,49.7156
-49,603,5.12537,-50.0347,0,0,0,0,0,0,0,-1,1175,421,5.12537,50.0347
-42,603,5.15125,-50.2989,0,0,0,0,0,0,0,-1,1182,421,5.15127,50.2989
-35,603,5.16418,-50.5336,0.0106487,-0.0113222,0.00365777,0.0112416,-0.0119151,0.16071,0.0133714,0.0428678,1189,421,5.16418,50.5336
-28,603,5.22937,-50.7399,0.0110797,-0.0142078,0.00405032,0.0117126,-0.0148407,0.155006,0.015366,0.0291657,1196,421,5.22934,50.7399
-21,603,5.33203,-50.9753,0.0116538,-0.0176759,0.00419644,0.0122424,-0.0182645,0.139354,0.0177272,0.0245307,1203,421,5.33206,50.9753
-14,603,5.43384,-51.187,0.0123247,-0.0205774,0.00408604,0.0128245,-0.0210773,0.121725,0.0197656,0.0236732,1210,421,5.43381,51.187
-7,603,5.48181,-51.3796,0.0130476,-0.0237387,0.00364556,0.0134054,-0.0240965,0.0978331,0.021943,0.0277711,1217,421,5.48177,51.3796
0,603,5.58032,-51.6214,0.013446,-0.0261505,0.00323256,0.0137081,-0.0264127,0.0809235,0.0235477,0.0343867,1224,421,5.58037,51.6214
7,603,5.6543,-51.6147,0.0133094,-0.0287734,0.00297045,0.013518,-0.0289821,0.0701223,0.025073,0.0443433,1231,421,5.65434,51.6147
14,603,5.9231,-51.4418,0.0132948,-0.0307015,0.00253896,0.0134409,-0.0308475,0.0574543,0.02622,0.0452499,1238,421,5.92305,51.4418
21,603,5.94385,-51.5573,0.0134072,-0.0319448,0.00202662,0.0134976,-0.0320351,0.0445681,0.0270048,0.0368036,1245,421,5.94389,51.5573
28,603,6.05493,-51.6583,0.0132898,-0.0325412,0.00150109,0.0133389,-0.0325903,0.0327059,0.0272827,0.04203,1252,421,6.05493,51.6583
35,603,6.26782,-51.7118,0,0,0,0,0,0,0,-1,1259,421,6.26786,51.7117
42,603,6.24756,-52.034,0.0126705,-0.0310001,0.00076891,0.0126841,-0.0310136,0.0175998,0.0259582,0.0456322,1266,421,6.24753,52.034
49,603,6.38257,-52.282,0.0125448,-0.0289525,0.000452935,0.0125497,-0.0289575,0.0109131,0.0245804,0.024233,1273,421,6.38252,52.282
56,603,6.27759,-52.1766,0.0124353,-0.0265736,0.000121065,0.0124357,-0.026574,0.00310348,0.0230101,0.0485492,1280,421,6.2776,52.1766
63,603,6.18567,-52.0624,0,0,0,0,0,0,0,-1,1287,421,6.18569,52.0624
70,603,6.51062,-52.379,0,0,0,0,0,0,0,-1,1294,421,6.51062,52.379
77,603,7.01563,-52.0656,0,0,0,0,0,0,0,-1,1301,421,7.01564,52.0656
84,603,6.8385,-52.3278,0,0,0,0,0,0,0,-1,1308,421,6.8385,52.3278
91,603,6.8783,-52.4973,0,0,0,0,0,0,0,-1,1315,421,6.87832,52.4973
98,603,7.21045,-52.489,0,0,0,0,0,0,0,-1,1322,421,7.21044,52.489
105,603,7.27881,-52.1678,0,0,0,0,0,0,0,-1,1329,421,7.2788,52.1678
112,603,7.43103,-51.7229,0.0141079,-0.0212226,-0.00721385,0.015524,-0.0226388,-0.193848,0.0221606,0.0444212,1336,421,7.43101,51.7229
119,603,7.57593,-51.5809,0.0138067,-0.0222369,-0.00754019,0.0153205,-0.0237507,-0.19813,0.0227321,0.0470189,1343,421,7.57597,51.5809
126,603,7.58813,-51.5541,0,0,0,0,0,0,0,-1,1350,421,7.58812,51.5541
133,603,7.62231,-51.1737,0.012826,-0.0225806,-0.00771735,0.014435,-0.0241896,-0.205544,0.0225357,0.0483412,1357,421,7.62231,51.1737
140,603,7.77087,-50.9234,0.0123301,-0.022024,-0.00758837,0.0139316,-0.0236255,-0.207996,0.0219231,0.0374055,1364,421,7.77093,50.9234
147,603,7.66943,-50.7344,0.0116524,-0.0212308,-0.00742216,0.0132501,-0.0228284,-0.212019,0.0210732,0.0292092,1371,421,7.66945,50.7344
154,603,7.63354,-50.6349,0.0109727,-0.0198344,-0.00721157,0.0125773,-0.0214389,-0.218933,0.0198602,0.0339699,1378,421,7.63355,50.6349
161,603,7.87366,-50.4204,0.0103558,-0.0178039,-0.00689744,0.0119545,-0.0194026,-0.22776,0.0182734,0.0334802,1385,421,7.87364,50.4204
168,603,7.94739,-50.1679,0.0097269,-0.0153572,-0.00637749,0.0112552,-0.0168855,-0.235208,0.0163551,0.0370457,1392,421,7.94742,50.1679
175,603,8.1665,-49.9171,0.00902079,-0.0130223,-0.00581658,0.0104615,-0.014463,-0.242799,0.0144518,0.0411038,1399,421,8.16651,49.9171
182,603,8.21069,-49.6018,0.00813128,-0.0109607,-0.00534472,0.00952567,-0.0123551,-0.255203,0.012668,0.046925,1406,421,8.21064,49.6018
189,603,8.15247,-49.2147,0.00715866,-0.00865824,-0.0048072,0.00850509,-0.0100047,-0.273088,0.0106983,0.0401201,1413,421,8.1525,49.2147
196,603,8.09485,-48.8256,0.00650689,-0.00653802,-0.00411104,0.00769437,-0.0077255,-0.281197,0.00890267,0.0295455,1420,421,8.09481,48.8256
203,603,8.10962,-48.5291,0.00601892,-0.00489725,-0.00348152,0.00703476,-0.00591309,-0.283899,0.00748479,0.0173154,1427,421,8.10966,48.5291
210,603,8.13525,-48.2431,0.0052125,-0.00346405,-0.00285376,0.00606697,-0.00431852,-0.290923,0.00602432,0.0132885,1434,421,8.13528,48.2431
217,603,8.18579,-47.7757,0.00419519,-0.00257845,-0.00216787,0.00482959,-0.00321285,-0.284689,0.00467448,0.0131686,1441,421,8.18579,47.7757
224,603,8.2627,-47.3267,0.0033396,-0.00174704,-0.00151489,0.00375658,-0.00216402,-0.268602,0.00345923,0.0166059,1448,421,8.2627,47.3267
231,603,8.2583,-46.9093,0.0028292,-0.000772185,-0.000727797,0.00297072,-0.000913703,-0.192051,0.00234515,0.0152765,1455,421,8.25825,46.9093
238,603,8.25171,-46.4648,0.00262866,-0.00011146,-0.000279729,0.00265693,-0.000139725,-0.100702,0.00181965,0.0118285,1462,421,8.25172,46.4649
245,603,8.26086,-46.0009,0.0030825,0.000490649,0.000222771,0.0031015,0.000471641,0.0851187,0.00192976,0.0119528,1469,421,8.2609,46.0009
252,603,8.28027,-45.5058,0.00311286,0.00102576,0.000655549,0.00330168,0.000836937,0.280445,0.00198195,0.00999401,1476,421,8.28024,45.5058
259,603,8.27856,-44.9989,0.00253196,0.00166493,0.000892817,0.00309094,0.00110594,0.559385,0.00180845,0.00998267,1483,421,8.27862,44.9989
266,603,8.27124,-44.4881,0.00140185,0.0024119,0.000871794,0.00291438,0.000899367,1.04792,0.00172322,0.0126294,1490,421,8.27122,44.4881
273,603,8.27954,-43.9734,5.78706e-05,0.00333891,0.000778526,0.00351426,-0.000117486,1.34925,0.00238297,0.0114514,1497,421,8.27956,43.9734
280,603,8.26062,-43.4203,-0.00145403,0.00436914,0.000636968,0.004438,-0.00152289,1.46311,0.00357607,0.0113056,1504,421,8.26057,43.4203
287,603,8.23523,-42.8705,-0.00293901,0.00549266,0.000516359,0.00552417,-0.00297052,1.50986,0.00497773,0.0101454,1511,421,8.23528,42.8705
294,603,8.2196,-42.3388,-0.00446209,0.00661416,0.00036739,0.00662633,-0.00447426,1.53768,0.00644895,0.00960271,1518,421,8.21964,42.3388
301,603,8.22559,-41.7864,-0.00580124,0.0076695,0.000288627,0.00767568,-0.00580742,1.54938,0.00780934,0.0116925,1525,421,8.22557,41.7864
308,603,8.18835,-41.2217,-0.00680175,0.00869517,0.00034388,0.0087028,-0.00680938,1.54862,0.00897817,0.0166621,1532,421,8.1884,41.2217
315,603,8.11914,-40.6516,-0.00742174,0.00970276,0.00058227,0.00972254,-0.00744152,1.53685,0.0099388,0.0154811,1539,421,8.11916,40.6516
322,603,8.10046,-40.0658,-0.00780221,0.0106216,0.000983255,0.010674,-0.00785453,1.51763,0.0107386,0.0151356,1546,421,8.10042,40.0658
329,603,8.05347,-39.4593,-0.00785397,0.0113841,0.00152471,0.0115041,-0.00797407,1.4922,0.0113071,0.0119137,1553,421,8.05348,39.4593
336,603,8.02405,-38.8674,-0.00746035,0.0122695,0.0023433,0.012544,-0.00773484,1.45419,0.0118172,0.0104926,1560,421,8.0241,38.8674
343,603,7.99939,-38.2372,-0.00683229,0.0131756,0.00328871,0.0137023,-0.00735899,1.41199,0.0123422,0.011906,1567,421,7.99936,38.2372
350,603,7.95068,-37.5905,-0.00497731,0.0143485,0.00478756,0.0154695,-0.0060983,1.34079,0.012838,0.0150774,1574,421,7.95073,37.5905
357,603,7.92334,-36.8927,-0.00300729,0.0150808,0.00652588,0.0171894,-0.0051159,1.25827,0.0134922,0.0201069,1581,421,7.92331,36.8927
364,603,7.91394,-36.1647,-0.00100409,0.0159113,0.00846715,0.0194213,-0.00451407,1.17782,0.0146853,0.0279057,1588,421,7.91391,36.1647
371,603,7.83105,-35.4844,-0.00113485,0.0180877,0.00963998,0.0220892,-0.00513628,1.17735,0.0167035,0.0373182,1595,421,7.83106,35.4844
378,603,7.75269,-34.9805,0,0,0,0,0,0,0,-1,1602,421,7.75268,34.9805
385,603,7.72998,-34.1521,0,0,0,0,0,0,0,-1,1609,421,7.73001,34.1521
392,603,4.90527,-19.605,0,0,0,0,0,0,0,-1,1616,421,4.90526,19.605
399,603,2.94299,0.638214,0,0,0,0,0,0,0,-1,1623,421,2.94293,-0.638215
406,603,3.01917,-2.37219,0,0,0,0,0,0,0,-1,1630,421,3.01915,2.37219
413,603,2.38928,-2.41275,0,0,0,0,0,0,0,-1,1637,421,2.38926,2.41274
420,603,8.22217,-23.7068,0,0,0,0,0,0,0,-1,1644,421,8.22215,23.7068
427,603,8.20386,-23.1278,0,0,0,0,0,0,0,-1,1651,421,8.2039,23.1278
434,603,8.01489,-22.5655,0,0,0,0,0,0,0,-1,1658,421,8.01493,22.5655
441,603,8.00122,-22.3072,0,0,0,0,0,0,0,-1,1665,421,8.00116,22.3071
448,603,1.14355,-4.59842,0,0,0,0,0,0,0,-1,1672,421,1.14355,4.59841
455,603,0,0,0,0,0,0,0,0,0,-1,1679,421,0,0
462,603,0,0,0,0,0,0,0,0,0,-1,1686,421,0,0
469,603,0,0,0,0,0,0,0,0,0,-1,1693,421,0,0
476,603,0,0,0,0,0,0,0,0,0,-1,1700,421,0,0
483,603,0,0,0,0,0,0,0,0,0,-1,1707,421,0,0
490,603,0,0,0,0,0,0,0,0,0,-1,1714,421,0,0
497,603,0,0,0,0,0,0,0,0,0,-1,1721,421,0,0
504,603,0,0,0,0,0,0,0,0,0,-1,1728,421,0,0
511,603,0,0,0,0,0,0,0,0,0,-1,1735,421,0,0
518,603,0,0,0,0,0,0,0,0,0,-1,1742,421,0,0
525,603,0,0,0,0,0,0,0,0,0,-1,1749,421,0,0
532,603,0,0,0,0,0,0,0,0,0,-1,1756,421,0,0
539,603,0,0,0,0,0,0,0,0,0,-1,1763,421,0,0
546,603,0,0,0,0,0,0,0,0,0,-1,1770,421,0,0
553,603,0,0,0,0,0,0,0,0,0,-1,1777,421,0,0
560,603,0,0,0,0,0,0,0,0,0,-1,1784,421,0,0
567,603,0,0,0,0,0,0,0,0,0,-1,1791,421,0,0
574,603,0,0,0,0,0,0,0,0,0,-1,1798,421,0,0
581,603,0,0,0,0,0,0,0,0,0,-1,1805,421,0,0
588,603,0,0,0,0,0,0,0,0,0,-1,1812,421,0,0
595,603,0,0,0,0,0,0,0,0,0,-1,1819,421,0,0
602,603,0,0,0,0,0,0,0,0,0,-1,1826,421,0,0
609,603,0,0,0,0,0,0,0,0,0,-1,1833,421,0,0
616,603,0,0,0,0,0,0,0,0,0,-1,1840,421,0,0
623,603,0,0,0,0,0,0,0,0,0,-1,1847,421,0,0
630,603,0,0,0,0,0,0,0,0,0,-1,1854,421,0,0
637,603,0,0,0,0,0,0,0,0,0,-1,1861,421,0,0
644,603,0,0,0,0,0,0,0,0,0,-1,1868,421,0,0
651,603,0,0,0,0,0,0,0,0,0,-1,1875,421,0,0
658,603,0,0,0,0,0,0,0,0,0,-1,1882,421,0,0
665,603,0,0,0,0,0,0,0,0,0,-1,1889,421,0,0
672,603,0,0,0,0,0,0,0,0,0,-1,1896,421,0,0
679,603,0,0,0,0,0,0,0,0,0,-1,1903,421,0,0
686,603,0,0,0,0,0,0,0,0,0,-1,1910,421,0,0
693,603,0,0,0,0,0,0,0,0,0,-1,1917,421,0,0
700,603,0,0,0,0,0,0,0,0,0,-1,1924,421,0,0
707,603,0,0,0,0,0,0,0,0,0,-1,1931,421,0,0
714,603,0,0,0,0,0,0,0,0,0,-1,1938,421,0,0
721,603,0,0,0,0,0,0,0,0,0,-1,1945,421,0,0
728,603,0,0,0,0,0,0,0,0,0,-1,1952,421,0,0
735,603,0,0,0,0,0,0,0,0,0,-1,1959,421,0,0
742,603,0,0,0,0,0,0,0,0,0,-1,1966,421,0,0
749,603,0,0,0,0,0,0,0,0,0,-1,1973,421,0,0
756,603,0,0,0,0,0,0,0,0,0,-1,1980,421,0,0
763,603,0,0,0,0,0,0,0,0,0,-1,1987,421,0,0
770,603,0,0,0,0,0,0,0,0,0,-1,1994,421,0,0
777,603,0,0,0,0,0,0,0,0,0,-1,2001,421,0,0
784,603,0,0,0,0,0,0,0,0,0,-1,2008,421,0,0
791,603,0,0,0,0,0,0,0,0,0,-1,2015,421,0,0
798,603,0,0,0,0,0,0,0,0,0,-1,2022,421,0,0
805,603,0,0,0,0,0,0,0,0,0,-1,2029,421,0,0
812,603,0,0,0,0,0,0,0,0,0,-1,2036,421,0,0
-700,596,0,0,0,0,0,0,0,0,0,-1,524,428,0,0
-693,596,0,0,0,0,0,0,0,0,0,-1,531,428,0,0
-686,596,0,0,0,0,0,0,0,0,0,-1,538,428,0,0
-679,596,0,0,0,0,0,0,0,0,0,-1,545,428,0,0
-672,596,0,0,0,0,0,0,0,0,0,-1,552,428,0,0
-665,596,0,0,0,0,0,0,0,0,0,-1,559,428,0,0
-658,596,0,0,0,0,0,0,0,0,0,-1,566,428,0,0
-651,596,0,0,0,0,0,0,0,0,0,-1,573,428,0,0
-644,596,0,0,0,0,0,0,0,0,0,-1,580,428,0,0
-637,596,0,0,0,0,0,0,0,0,0,-1,587,428,0,0
-630,596,0,0,0,0,0,0,0,0,0,-1,594,428,0,0
-623,596,0,0,0,0,0,0,0,0,0,-1,601,428,0,0
-616,596,0,0,0,0,0,0,0,0,0,-1,608,428,0,0
-609,596,0,0,0,0,0,0,0,0,0,-1,615,428,0,0
-602,596,0,0,0,0,0,0,0,0,0,-1,622,428,0,0
-595,596,0,0,0,0,0,0,0,0,0,-1,629,428,0,0
-588,596,0,0,0,0,0,0,0,0,0,-1,636,428,0,0
-581,596,0,0,0,0,0,0,0,0,0,-1,643,428,0,0
-574,596,0,0,0,0,0,0,0,0,0,-1,650,428,0,0
-567,596,0,0,0,0,0,0,0,0,0,-1,657,428,0,0
-560,596,0,0,0,0,0,0,0,0,0,-1,664,428,0,0
-553,596,0,0,0,0,0,0,0,0,0,-1,671,428,0,0
-546,596,0,0,0,0,0,0,0,0,0,-1,678,428,0,0
-539,596,0,0,0,0,0,0,0,0,0,-1,685,428,0,0
-532,596,0,0,0,0,0,0,0,0,0,-1,692,428,0,0
-525,596,0,0,0,0,0,0,0,0,0,-1,699,428,0,0
-518,596,0,0,0,0,0,0,0,0,0,-1,706,428,0,0
-511,596,0,0,0,0,0,0,0,0,0,-1,713,428,0,0
-504,596,0,0,0,0,0,0,0,0,0,-1,720,428,0,0
-497,596,0,0,0,0,0,0,0,0,0,-1,727,428,0,0
-490,596,0,0,0,0,0,0,0,0,0,-1,734,428,0,0
-483,596,0,0,0,0,0,0,0,0,0,-1,741,428,0,0
-476,596,0,0,0,0,0,0,0,0,0,-1,748,428,0,0
-469,596,0,0,0,0,0,0,0,0,0,-1,755,428,0,0
-462,596,0,0,0,0,0,0,0,0,0,-1,762,428,0,0
-455,596,0,0,0,0,0,0,0,0,0,-1,769,428,0,0
-448,596,0,0,0,0,0,0,0,0,0,-1,776,428,0,0
-441,596,0,0,0,0,0,0,0,0,0,-1,783,428,0,0
-434,596,0,0,0,0,0,0,0,0,0,-1,790,428,0,0
-427,596,0,0,0,0,0,0,0,0,0,-1,797,428,0,0
-420,596,0,0,0,0,0,0,0,0,0,-1,804,428,0,0
-413,596,0,0,0,0,0,0,0,0,0,-1,811,428,0,0
-406,596,0,0,0,0,0,0,0,0,0,-1,818,428,0,0
-399,596,0,0,0,0,0,0,0,0,0,-1,825,428,0,0
-392,596,0,0,0,0,0,0,0,0,0,-1,832,428,0,0
-385,596,0,0,0,0,0,0,0,0,0,-1,839,428,0,0
-378,596,0,0,0,0,0,0,0,0,0,-1,846,428,0,0
-371,596,0,0,0,0,0,0,0,0,0,-1,853,428,0,0
-364,596,0,0,0,0,0,0,0,0,0,-1,860,428,0,0
-357,596,0,0,0,0,0,0,0,0,0,-1,867,428,0,0
-350,596,0,0,0,0,0,0,0,0,0,-1,874,428,0,0
-343,596,0,0,0,0,0,0,0,0,0,-1,881,428,0,0
-336,596,6.81445,-30.5258,0,0,0,0,0,0,0,-1,888,428,6.81446,30.5258
-329,596,6.84772,-28.9253,0,0,0,0,0,0,0,-1,895,428,6.84773,28.9253
-322,596,6.97449,-27.9047,0,0,0,0,0,0,0,-1,902,428,6.97451,27.9047
-315,596,7.10132,-26.8841,0,0,0,0,0,0,0,-1,909,428,7.10129,26.8841
-308,596,0.254761,-20.841,0,0,0,0,0,0,0,-1,916,428,0.254731,20.841
-301,596,3.43213,-26.756,0,0,0,0,0,0,0,-1,923,428,3.43214,26.756
-294,596,4.1767,-27.6454,0,0,0,0,0,0,0,-1,930,428,4.17667,27.6454
-287,596,4.36041,-27.6119,0,0,0,0,0,0,0,-1,937,428,4.3604,27.6119
-280,596,4.92529,-33.1064,0,0,0,0,0,0,0,-1,944,428,4.9253,33.1064
-273,596,4.88464,-33.6364,0,0,0,0,0,0,0,-1,951,428,4.88467,33.6364
-266,596,4.79608,-33.5851,0,0,0,0,0,0,0,-1,958,428,4.79609,33.5851
-259,596,4.74432,-34.4328,0,0,0,0,0,0,0,-1,965,428,4.74434,34.4328
-252,596,4.63702,-35.4714,0.000236504,0.0186827,-0.00943497,0.0226537,-0.00373449,-1.17242,0.0164889,0.0236649,972,428,4.63702,35.4714
-245,596,4.68219,-36.2394,0.000182137,0.017433,-0.00861796,0.0210005,-0.00338535,-1.17831,0.0152545,0.0156501,979,428,4.68221,36.2394
-238,596,4.67847,-36.8879,0.000116977,0.016168,-0.00766326,0.0192391,-0.0029541,-1.18964,0.0139157,0.0130516,986,428,4.67846,36.8879
-231,596,4.58923,-37.5531,0.00015961,0.0147848,-0.00684004,0.0174852,-0.00254079,-1.19479,0.0125895,0.0132614,993,428,4.58922,37.5531
-224,596,4.56445,-38.1797,0.000188443,0.0131773,-0.00612997,0.0156134,-0.00224764,-1.19253,0.0112333,0.0139481,1000,428,4.56448,38.1797
-217,596,4.55231,-38.758,0.000256707,0.0112074,-0.00541186,0.0134306,-0.0019665,-1.18101,0.00967605,0.0148274,1007,428,4.55229,38.758
-210,596,4.53265,-39.3631,0.000349015,0.00915593,-0.00465144,0.0111577,-0.00165271,-1.16441,0.00804612,0.0126342,1014,428,4.53265,39.3631
-203,596,4.50232,-39.9722,0.000413324,0.00711252,-0.00389896,0.00890313,-0.00137728,-1.14027,0.00644376,0.0158619,1021,428,4.50231,39.9722
-196,596,4.4989,-40.5385,0.000441152,0.0052,-0.00316252,0.00677826,-0.0011371,-1.10791,0.00494167,0.0170495,1028,428,4.49894,40.5385
-189,596,4.4624,-41.077,0.000506018,0.00343321,-0.00252868,0.00489131,-0.000952084,-1.04774,0.00362021,0.0140824,1035,428,4.46238,41.077
-182,596,4.4314,-41.6229,0.000622395,0.001752,-0.00182,0.00309282,-0.000718429,-0.935851,0.00233844,0.0126803,1042,428,4.43139,41.6229
-175,596,4.42212,-42.1802,0.000741973,-0.000101869,-0.000989561,0.00139581,-0.000755703,-0.583882,0.00126037,0.0156975,1049,428,4.42213,42.1802
-168,596,4.39868,-42.7415,0.000814015,-0.00158634,-0.000247288,0.000839226,-0.00161155,-0.101599,0.00143819,0.0180442,1056,428,4.39869,42.7416
-161,596,4.38245,-43.2841,0.000900714,-0.00274938,0.000450763,0.000955557,-0.00280422,0.121071,0.00225648,0.0157246,1063,428,4.38247,43.2842
-154,596,4.35547,-43.7911,0.00103273,-0.00389419,0.00118564,0.0013032,-0.00416466,0.224284,0.00329781,0.0134735,1070,428,4.35542,43.7911
-147,596,4.36926,-44.2612,0.00124678,-0.00493173,0.00188219,0.001775,-0.00545996,0.273604,0.00435396,0.0144401,1077,428,4.36922,44.2612
-140,596,4.37805,-44.7445,0.0014969,-0.00603983,0.00254812,0.00227755,-0.00682047,0.297282,0.00546667,0.0161237,1084,428,4.37806,44.7445
-133,596,4.37158,-45.251,0.00178983,-0.00695371,0.00315051,0.00280676,-0.00797064,0.312225,0.00645603,0.0149007,1091,428,4.37153,45.251
-126,596,4.38159,-45.7097,0.00221918,-0.00761935,0.00358488,0.00338683,-0.008787,0.314879,0.0072554,0.0118651,1098,428,4.38163,45.7097
-119,596,4.41223,-46.2035,0.00276753,-0.00813206,0.00384008,0.00398455,-0.00934908,0.306913,0.00790313,0.0160009,1105,428,4.41221,46.2035
-112,596,4.37976,-46.6605,0.00331547,-0.00839531,0.00391294,0.00450257,-0.00958241,0.294554,0.00830639,0.0171189,1112,428,4.37971,46.6605
-105,596,4.37317,-47.1033,0.00388971,-0.00844619,0.00383456,0.0049845,-0.00954099,0.278108,0.00852272,0.0207829,1119,428,4.3732,47.1033
-98,596,4.4364,-47.515,0.00456637,-0.00843165,0.00371005,0.00555078,-0.00941606,0.25936,0.00873664,0.0282747,1126,428,4.4364,47.515
-91,596,4.43054,-47.8726,0,0,0,0,0,0,0,-1,1133,428,4.43053,47.8726
-84,596,4.53027,-48.3047,0,0,0,0,0,0,0,-1,1140,428,4.53033,48.3047
-77,596,4.62622,-48.7638,0,0,0,0,0,0,0,-1,1147,428,4.62621,48.7638
-70,596,3.50696,-32.137,0,0,0,0,0,0,0,-1,1154,428,3.50696,32.137
-63,596,1.95569,-12.2758,0,0,0,0,0,0,0,-1,1161,428,1.95563,12.2759
-56,596,1.60107,-10.5827,0,0,0,0,0,0,0,-1,1168,428,1.60108,10.5827
-49,596,1.59473,-10.0393,0,0,0,0,0,0,0,-1,1175,428,1.59472,10.0393
-42,596,1.99585,-6.6246,0,0,0,0,0,0,0,-1,1182,428,1.99586,6.62459
-35,596,4.66919,-50.2069,0,0,0,0,0,0,0,-1,1189,428,4.66916,50.2069
-28,596,4.91357,-50.5125,0,0,0,0,0,0,0,-1,1196,428,4.91358,50.5124
-21,596,5.01147,-50.7755,0,0,0,0,0,0,0,-1,1203,428,5.01147,50.7755
-14,596,5.15576,-50.9919,0,0,0,0,0,0,0,-1,1210,428,5.1557,50.9919
-7,596,5.16821,-51.1658,0,0,0,0,0,0,0,-1,1217,428,5.16816,51.1658
0,596,5.32776,-51.5415,0,0,0,0,0,0,0,-1,1224,428,5.32773,51.5415
7,596,5.40735,-51.3265,0,0,0,0,0,0,0,-1,1231,428,5.40733,51.3265
14,596,5.87085,-50.739,0,0,0,0,0,0,0,-1,1238,428,5.87081,50.739
21,596,5.84558,-50.7343,0,0,0,0,0,0,0,-1,1245,428,5.8456,50.7343
28,596,6.0022,-50.8621,0,0,0,0,0,0,0,-1,1252,428,6.00215,50.8621
35,596,6.47522,-51.0665,0,0,0,0,0,0,0,-1,1259,428,6.4752,51.0665
42,596,6.11682,-51.7154,0,0,0,0,0,0,0,-1,1266,428,6.11678,51.7154
49,596,6.04663,-52.3865,0,0,0,0,0,0,0,-1,1273,428,6.04658,52.3865
56,596,6.17505,-51.8881,0,0,0,0,0,0,0,-1,1280,428,6.175,51.8881
63,596,5.63013,-51.0952,0,0,0,0,0,0,0,-1,1287,428,5.63018,51.0952
70,596,5.18652,-50.7382,0,0,0,0,0,0,0,-1,1294,428,5.18657,50.7382
77,596,4.90417,-50.6021,0,0,0,0,0,0,0,-1,1301,428,4.90421,50.6021
84,596,4.76746,-50.4708,0,0,0,0,0,0,0,-1,1308,428,4.76751,50.4708
91,596,5.10718,-50.297,0,0,0,0,0,0,0,-1,1315,428,5.10714,50.297
98,596,5.33667,-50.3845,0,0,0,0,0,0,0,-1,1322,428,5.33664,50.3845
105,596,5.52747,-49.8794,0,0,0,0,0,0,0,-1,1329,428,5.52751,49.8794
112,596,7.75635,-51.3709,0,0,0,0,0,0,0,-1,1336,428,7.75637,51.3709
119,596,8.0575,-51.0421,0,0,0,0,0,0,0,-1,1343,428,8.05746,51.0421
126,596,8.4043,-48.4824,0,0,0,0,0,0,0,-1,1350,428,8.40429,48.4824
133,596,7.95862,-50.6542,0,0,0,0,0,0,0,-1,1357,428,7.95863,50.6542
140,596,8.22473,-50.2218,0,0,0,0,0,0,0,-1,1364,428,8.22477,50.2218
147,596,7.92322,-49.9709,0,0,0,0,0,0,0,-1,1371,428,7.92318,49.9709
154,596,7.68262,-50.24,0,0,0,0,0,0,0,-1,1378,428,7.68262,50.24
161,596,8.39185,-50.1089,0,0,0,0,0,0,0,-1,1385,428,8.3918,50.1089
168,596,8.45239,-49.7582,0,0,0,0,0,0,0,-1,1392,428,8.45237,49.7582
175,596,8.54883,-49.5235,0,0,0,0,0,0,0,-1,1399,428,8.54883,49.5235
182,596,8.66479,-49.4346,0,0,0,0,0,0,0,-1,1406,428,8.66484,49.4346
189,596,8.57166,-49.1086,0,0,0,0,0,0,0,-1,1413,428,8.57165,49.1086
196,596,8.52173,-48.5653,0,0,0,0,0,0,0,-1,1420,428,8.52176,48.5653
203,596,8.46082,-48.472,0,0,0,0,0,0,0,-1,1427,428,8.46085,48.472
210,596,8.50586,-48.2679,0,0,0,0,0,0,0,-1,1434,428,8.50585,48.2679
217,596,8.56628,-47.7637,0,0,0,0,0,0,0,-1,1441,428,8.56632,47.7637
224,596,8.67114,-47.328,0,0,0,0,0,0,0,-1,1448,428,8.67115,47.328
231,596,8.76001,-46.9268,0.00384657,-0.00266632,-0.00160689,0.00422145,-0.0030412,-0.229196,0.00421151,0.0267396,1455,428,8.76002,46.9268
238,596,8.74304,-46.4347,0.00367701,-0.00202417,-0.00109384,0.00387968,-0.00222683,-0.183199,0.00356838,0.0173782,1462,428,8.7431,46.4347
245,596,8.75,-45.9803,0.00410756,-0.00148244,-0.000582467,0.00416761,-0.00154249,-0.102728,0.00341088,0.0133077,1469,428,8.74996,45.9803
252,596,8.76184,-45.4839,0.00431932,-0.00120279,-6.32468e-05,0.00432004,-0.00120352,-0.0114514,0.00335397,0.00997526,1476,428,8.76185,45.4839
259,596,8.77405,-44.9813,0.00415405,-0.0009178,0.0003088,0.00417279,-0.000936532,0.0605869,0.00314093,0.00879993,1483,428,8.77408,44.9813
266,596,8.77905,-44.4847,0.0035456,-0.000480904,0.000484069,0.00360297,-0.000538281,0.117981,0.00260005,0.0107326,1490,428,8.779,44.4847
273,596,8.79321,-43.9759,0.00289213,0.000128413,0.000630645,0.00302923,-8.69017e-06,0.214071,0.00202239,0.0126315,1497,428,8.79325,43.9759
280,596,8.79053,-43.438,0.00217284,0.000846734,0.000761206,0.00251928,0.000500294,0.427103,0.00154008,0.0124766,1504,428,8.79051,43.438
287,596,8.76257,-42.8894,0.00142848,0.00164017,0.000858962,0.00239978,0.000668862,0.846701,0.00143003,0.0109043,1511,428,8.76253,42.8894
294,596,8.74133,-42.3395,0.000606782,0.00252406,0.000943264,0.00291031,0.000220528,1.18214,0.00187104,0.00899122,1518,428,8.74134,42.3395
301,596,8.75146,-41.7862,-0.000190224,0.00340904,0.00105426,0.00369511,-0.000476291,1.30583,0.00263655,0.0103953,1525,428,8.75146,41.7862
308,596,8.75085,-41.2214,-0.000837661,0.00431352,0.0012299,0.0045921,-0.00111625,1.34804,0.00349344,0.0159312,1532,428,8.75089,41.2215
315,596,8.6748,-40.6209,-0.00133163,0.00523952,0.00149967,0.0055656,-0.00165771,1.3567,0.00436908,0.016971,1539,428,8.67475,40.6209
322,596,8.66553,-40.0211,-0.00175492,0.00616142,0.0018653,0.00657891,-0.00217241,1.3506,0.00526175,0.0146441,1546,428,8.66558,40.0211
329,596,8.63013,-39.4419,-0.00203375,0.00696754,0.0022975,0.00752004,-0.00258626,1.3348,0.00606221,0.0110284,1553,428,8.63016,39.4419
336,596,8.57837,-38.8659,-0.00208203,0.00786948,0.0028996,0.0086527,-0.00286525,1.30698,0.00692407,0.00969302,1560,428,8.57833,38.866
343,596,8.56909,-38.2585,-0.00203487,0.00886454,0.00358945,0.00994044,-0.00311076,1.27958,0.00787151,0.0115456,1567,428,8.56912,38.2585
350,596,8.55164,-37.599,-0.00156025,0.0101361,0.00454982,0.0116975,-0.00312166,1.24021,0.00902078,0.0116696,1574,428,8.55163,37.599
357,596,8.50696,-36.9596,-0.0010665,0.0111638,0.0056026,0.0133422,-0.00324498,1.19995,0.0101509,0.00980197,1581,428,8.50698,36.9596
364,596,8.46558,-36.2912,-0.000590299,0.0122862,0.00667507,0.015122,-0.00342607,1.16907,0.0113963,0.0108762,1588,428,8.46552,36.2912
371,596,8.43018,-35.6459,-0.000697949,0.0140788,0.00763537,0.0173153,-0.0039344,1.16988,0.0130541,0.0126455,1595,428,8.43013,35.6459
378,596,8.36145,-35.0085,-0.000621225,0.0162444,0.00861789,0.0198689,-0.00424579,1.17267,0.0148647,0.0166262,1602,428,8.36143,35.0085
385,596,8.35461,-34.1506,0.000516442,0.0190409,0.00904714,0.0227262,-0.00316891,1.18397,0.0163101,0.0400295,1609,428,8.35462,34.1506
392,596,8.29016,-33.1184,0,0,0,0,0,0,0,-1,1616,428,8.29014,33.1184
399,596,8.20715,-32.1811,0,0,0,0,0,0,0,-1,1623,428,8.20715,32.1811
406,596,3.60034,-10.1525,0,0,0,0,0,0,0,-1,1630,428,3.60028,10.1525
413,596,3.39124,-2.63528,0,0,0,0,0,0,0,-1,1637,428,3.39122,2.6353
420,596,2.6344,-3.06308,0,0,0,0,0,0,0,-1,1644,428,2.63439,3.06308
427,596,7.61975,-22.7222,0,0,0,0,0,0,0,-1,1651,428,7.61974,22.7222
434,596,5.09753,-22.5213,0,0,0,0,0,0,0,-1,1658,428,5.09755,22.5213
441,596,7.19043,-22.087,0,0,0,0,0,0,0,-1,1665,428,7.19046,22.087
448,596,1.0769,0.0083313,0,0,0,0,0,0,0,-1,1672,428,1.07684,-0.00832231
455,596,2.00769,-1.43329,0,0,0,0,0,0,0,-1,1679,428,2.00765,1.4333
462,596,0,0,0,0,0,0,0,0,0,-1,1686,428,0,0
469,596,0,0,0,0,0,0,0,0,0,-1,1693,428,0,0
476,596,0,0,0,0,0,0,0,0,0,-1,1700,428,0,0
483,596,0,0,0,0,0,0,0,0,0,-1,1707,428,0,0
490,596,0,0,0,0,0,0,0,0,0,-1,1714,428,0,0
497,596,0,0,0,0,0,0,0,0,0,-1,1721,428,0,0
504,596,0,0,0,0,0,0,0,0,0,-1,1728,428,0,0
511,596,0,0,0,0,0,0,0,0,0,-1,1735,428,0,0
518,596,0,0,0,0,0,0,0,0,0,-1,1742,428,0,0
525,596,0,0,0,0,0,0,0,0,0,-1,1749,428,0,0
532,596,0,0,0,0,0,0,0,0,0,-1,1756,428,0,0
539,596,0,0,0,0,0,0,0,0,0,-1,1763,428,0,0
546,596,0,0,0,0,0,0,0,0,0,-1,1770,428,0,0
553,596,0,0,0,0,0,0,0,0,0,-1,1777,428,0,0
560,596,0,0,0,0,0,0,0,0,0,-1,1784,428,0,0
567,596,0,0,0,0,0,0,0,0,0,-1,1791,428,0,0
574,596,0,0,0,0,0,0,0,0,0,-1,1798,428,0,0
581,596,0,0,0,0,0,0,0,0,0,-1,1805,428,0,0
588,596,0,0,0,0,0,0,0,0,0,-1,1812,428,0,0
595,596,0,0,0,0,0,0,0,0,0,-1,1819,428,0,0
602,596,0,0,0,0,0,0,0,0,0,-1,1826,428,0,0
609,596,0,0,0,0,0,0,0,0,0,-1,1833,428,0,0
616,596,0,0,0,0,0,0,0,0,0,-1,1840,428,0,0
623,596,0,0,0,0,0,0,0,0,0,-1,1847,428,0,0
630,596,0,0,0,0,0,0,0,0,0,-1,1854,428,0,0
637,596,0,0,0,0,0,0,0,0,0,-1,1861,428,0,0
644,596,0,0,0,0,0,0,0,0,0,-1,1868,428,0,0
651,596,0,0,0,0,0,0,0,0,0,-1,1875,428,0,0
658,596,0,0,0,0,0,0,0,0,0,-1,1882,428,0,0
665,596,0,0,0,0,0,0,0,0,0,-1,1889,428,0,0
672,596,0,0,0,0,0,0,0,0,0,-1,1896,428,0,0
679,596,0,0,0,0,0,0,0,0,0,-1,1903,428,0,0
686,596,0,0,0,0,0,0,0,0,0,-1,1910,428,0,0
693,596,0,0,0,0,0,0,0,0,0,-1,1917,428,0,0
700,596,0,0,0,0,0,0,0,0,0,-1,1924,428,0,0
707,596,0,0,0,0,0,0,0,0,0,-1,1931,428,0,0
714,596,0,0,0,0,0,0,0,0,0,-1,1938,428,0,0
721,596,0,0,0,0,0,0,0,0,0,-1,1945,428,0,0
728,596,0,0,0,0,0,0,0,0,0,-1,1952,428,0,0
735,596,0,0,0,0,0,0,0,0,0,-1,1959,428,0,0
742,596,0,0,0,0,0,0,0,0,0,-1,1966,428,0,0
749,596,0,0,0,0,0,0,0,0,0,-1,1973,428,0,0
756,596,0,0,0,0,0,0,0,0,0,-1,1980,428,0,0
763,596,0,0,0,0,0,0,0,0,0,-1,1987,428,0,0
770,596,0,0,0,0,0,0,0,0,0,-1,1994,428,0,0
777,596,0,0,0,0,0,0,0,0,0,-1,2001,428,0,0
784,596,0,0,0,0,0,0,0,0,0,-1,2008,428,0,0
791,596,0,0,0,0,0,0,0,0,0,-1,2015,428,0,0
798,596,0,0,0,0,0,0,0,0,0,-1,2022,428,0,0
805,596,0,0,0,0,0,0,0,0,0,-1,2029,428,0,0
812,596,0,0,0,0,0,0,0,0,0,-1,2036,428,0,0
-700,589,0,0,0,0,0,0,0,0,0,-1,524,435,0,0
-693,589,0,0,0,0,0,0,0,0,0,-1,531,435,0,0
-686,589,0,0,0,0,0,0,0,0,0,-1,538,435,0,0
-679,589,0,0,0,0,0,0,0,0,0,-1,545,435,0,0
-672,589,0,0,0,0,0,0,0,0,0,-1,552,435,0,0
-665,589,0,0,0,0,0,0,0,0,0,-1,559,435,0,0
-658,589,0,0,0,0,0,0,0,0,0,-1,566,435,0,0
-651,589,0,0,0,0,0,0,0,0,0,-1,573,435,0,0
-644,589,0,0,0,0,0,0,0,0,0,-1,580,435,0,0
-637,589,0,0,0,0,0,0,0,0,0,-1,587,435,0,0
-630,589,0,0,0,0,0,0,0,0,0,-1,594,435,0,0
-623,589,0,0,0,0,0,0,0,0,0,-1,601,435,0,0
-616,589,0,0,0,0,0,0,0,0,0,-1,608,435,0,0
-609,589,0,0,0,0,0,0,0,0,0,-1,615,435,0,0
-602,589,0,0,0,0,0,0,0,0,0,-1,622,435,0,0
-595,589,0,0,0,0,0,0,0,0,0,-1,629,435,0,0
-588,589,0,0,0,0,0,0,0,0,0,-1,636,435,0,0
-581,589,0,0,0,0,0,0,0,0,0,-1,643,435,0,0
-574,589,0,0,0,0,0,0,0,0,0,-1,650,435,0,0
-567,589,0,0,0,0,0,0,0,0,0,-1,657,435,0,0
-560,589,0,0,0,0,0,0,0,0,0,-1,664,435,0,0
-553,589,0,0,0,0,0,0,0,0,0,-1,671,435,0,0
-546,589,0,0,0,0,0,0,0,0,0,-1,678,435,0,0
-539,589,0,0,0,0,0,0,0,0,0,-1,685,435,0,0
-532,589,0,0,0,0,0,0,0,0,0,-1,692,435,0,0
-525,589,0,0,0,0,0,0,0,0,0,-1,699,435,0,0
-518,589,0,0,0,0,0,0,0,0,0,-1,706,435,0,0
-511,589,0,0,0,0,0,0,0,0,0,-1,713,435,0,0
-504,589,0,0,0,0,0,0,0,0,0,-1,720,435,0,0
-497,589,0,0,0,0,0,0,0,0,0,-1,727,435,0,0
-490,589,0,0,0,0,0,0,0,0,0,-1,734,435,0,0
-483,589,0,0,0,0,0,0,0,0,0,-1,741,435,0,0
-476,589,0,0,0,0,0,0,0,0,0,-1,748,435,0,0
-469,589,0,0,0,0,0,0,0,0,0,-1,755,435,0,0
-462,589,0,0,0,0,0,0,0,0,0,-1,762,435,0,0
-455,589,0,0,0,0,0,0,0,0,0,-1,769,435,0,0
-448,589,0,0,0,0,0,0,0,0,0,-1,776,435,0,0
-441,589,0,0,0,0,0,0,0,0,0,-1,783,435,0,0
-434,589,0,0,0,0,0,0,0,0,0,-1,790,435,0,0
-427,589,0,0,0,0,0,0,0,0,0,-1,797,435,0,0
-420,589,0,0,0,0,0,0,0,0,0,-1,804,435,0,0
-413,589,0,0,0,0,0,0,0,0,0,-1,811,435,0,0
-406,589,0,0,0,0,0,0,0,0,0,-1,818,435,0,0
-399,589,0,0,0,0,0,0,0,0,0,-1,825,435,0,0
-392,589,0,0,0,0,0,0,0,0,0,-1,832,435,0,0
-385,589,0,0,0,0,0,0,0,0,0,-1,839,435,0,0
-378,589,0,0,0,0,0,0,0,0,0,-1,846,435,0,0
-371,589,0,0,0,0,0,0,0,0,0,-1,853,435,0,0
-364,589,0,0,0,0,0,0,0,0,0,-1,860,435,0,0
-357,589,0,0,0,0,0,0,0,0,0,-1,867,435,0,0
-350,589,-0.799927,-20.664,0,0,0,0,0,0,0,-1,874,435,-0.799952,20.664
-343,589,5.15289,-30.4847,0,0,0,0,0,0,0,-1,881,435,5.15291,30.4847
-336,589,5.07684,-29.2368,0,0,0,0,0,0,0,-1,888,435,5.07687,29.2368
-329,589,4.9624,-28.1366,0,0,0,0,0,0,0,-1,895,435,4.96242,28.1366
-322,589,5.10156,-27.065,0,0,0,0,0,0,0,-1,902,435,5.10155,27.065
-315,589,4.22705,-27.9655,0,0,0,0,0,0,0,-1,909,435,4.22705,27.9655
-308,589,4.46698,-29.037,0,0,0,0,0,0,0,-1,916,435,4.46696,29.037
-301,589,4.73981,-29.8114,0,0,0,0,0,0,0,-1,923,435,4.73981,29.8114
-294,589,4.1037,-31.2976,0,0,0,0,0,0,0,-1,930,435,4.10371,31.2976
-287,589,4.1792,-32.0337,0,0,0,0,0,0,0,-1,937,435,4.1792,32.0337
-280,589,4.27393,-32.893,5.36097e-06,0.0163221,-0.00980637,0.02092,-0.0045926,-1.13236,0.015703,0.0394264,944,435,4.27395,32.893
-273,589,4.2677,-33.5418,0.000111002,0.0162454,-0.00932698,0.0205099,-0.00415356,-1.14195,0.0152476,0.0243981,951,435,4.26767,33.5418
-266,589,4.19647,-34.2339,6.24898e-05,0.0154268,-0.00873017,0.0193736,-0.00388426,-1.14621,0.0143863,0.0239002,958,435,4.19649,34.2339
-259,589,4.04742,-34.8688,0,0,0,0,0,0,0,-1,965,435,4.04742,34.8688
-252,589,4.117,-35.6653,9.14142e-05,0.0137512,-0.00728147,0.0169046,-0.00306205,-1.1621,0.0124169,0.0117107,972,435,4.11702,35.6653
-245,589,4.12854,-36.3108,0.000198965,0.012581,-0.00654023,0.0153957,-0.00261575,-1.16439,0.0112377,0.0103673,979,435,4.12856,36.3108
-238,589,4.0827,-36.9065,0.000284903,0.0113502,-0.0056887,0.013753,-0.00211792,-1.17114,0.00995004,0.0144219,986,435,4.08271,36.9065
-231,589,4.02167,-37.5198,0.000421363,0.00996256,-0.0049264,0.0120497,-0.00166574,-1.17006,0.00864203,0.014324,993,435,4.02168,37.5198
-224,589,3.97095,-38.1348,0.000535813,0.00841301,-0.00425103,0.0102696,-0.00132074,-1.15903,0.00732642,0.0146593,1000,435,3.97093,38.1348
-217,589,3.95325,-38.729,0.000697264,0.00654596,-0.00357573,0.00824088,-0.000997657,-1.12816,0.00585487,0.0154283,1007,435,3.95326,38.729
-210,589,3.95435,-39.3384,0.000883018,0.00458493,-0.00287628,0.00615435,-0.000686407,-1.0713,0.0043498,0.0145112,1014,435,3.95434,39.3384
-203,589,3.92126,-39.9271,0.00105076,0.00266676,-0.00220417,0.00420636,-0.000488845,-0.961081,0.00298058,0.0112818,1021,435,3.92131,39.9271
-196,589,3.89258,-40.4928,0.00116024,0.000913677,-0.00154366,0.00258554,-0.000511618,-0.745551,0.00191712,0.0140059,1028,435,3.89255,40.4928
-189,589,3.85864,-41.0966,0.00126751,-0.000737563,-0.00093035,0.00163269,-0.00110274,-0.374034,0.00158915,0.0180649,1035,435,3.85865,41.0966
-182,589,3.875,-41.5918,0.00142395,-0.00233613,-0.000214842,0.00143619,-0.00234836,-0.0568909,0.00220606,0.0138474,1042,435,3.87495,41.5918
-175,589,3.87793,-42.1389,0.00159851,-0.00409822,0.000613459,0.00166382,-0.00416354,0.106066,0.00346607,0.0179427,1049,435,3.8779,42.1389
-168,589,3.87756,-42.7333,0.00170322,-0.005552,0.00136435,0.0019513,-0.00580009,0.179868,0.00465553,0.0146907,1056,435,3.87755,42.7333
-161,589,3.875,-43.2558,0.0017997,-0.00674463,0.00210115,0.00228844,-0.00723337,0.228542,0.00573921,0.0128663,1063,435,3.87504,43.2558
-154,589,3.85156,-43.7583,0.00192642,-0.00789875,0.00292419,0.00273086,-0.00870319,0.268457,0.0068951,0.0135739,1070,435,3.85157,43.7583
-147,589,3.85779,-44.2344,0.00214299,-0.00895185,0.00374258,0.00328742,-0.0100963,0.296755,0.0080535,0.0137838,1077,435,3.85773,44.2344
-140,589,3.88354,-44.7133,0.00237182,-0.0101517,0.00455328,0.00385228,-0.0116322,0.31436,0.00930849,0.0148093,1084,435,3.8835,44.7133
-133,589,3.89197,-45.2146,0.00264416,-0.0111149,0.00532538,0.00446449,-0.0129352,0.329371,0.010435,0.0143621,1091,435,3.89193,45.2146
-126,589,3.91296,-45.6921,0.00311026,-0.0117485,0.00587772,0.00515417,-0.0137924,0.334659,0.0113115,0.0123346,1098,435,3.91291,45.6921
-119,589,3.88477,-46.1526,0.00368501,-0.0122528,0.00619374,0.00580897,-0.0143768,0.330353,0.0119991,0.0204764,1105,435,3.88476,46.1526
-112,589,3.86267,-46.6861,0.00423589,-0.0124224,0.00628059,0.00633845,-0.0145249,0.323045,0.0123507,0.0318065,1112,435,3.86262,46.6861
-105,589,3.82239,-47.2333,0,0,0,0,0,0,0,-1,1119,435,3.82237,47.2333
-98,589,3.95471,-47.7549,0,0,0,0,0,0,0,-1,1126,435,3.95474,47.7549
-91,589,3.39563,-37.8231,0,0,0,0,0,0,0,-1,1133,435,3.39565,37.8231
-84,589,2.76538,-22.6013,0,0,0,0,0,0,0,-1,1140,435,2.76539,22.6014
-77,589,2.18152,-14.8023,0,0,0,0,0,0,0,-1,1147,435,2.18155,14.8023
-70,589,1.48267,-9.90961,0,0,0,0,0,0,0,-1,1154,435,1.48264,9.9096
-63,589,0.880127,-5.50586,0,0,0,0,0,0,0,-1,1161,435,0.880186,5.50587
-56,589,-2.78052,-7.28082,0,0,0,0,0,0,0,-1,1168,435,-2.78053,7.28082
-49,589,-0.525757,-2.76703,0,0,0,0,0,0,0,-1,1175,435,-0.525771,2.76702
-42,589,-2.7738,-2.87921,0,0,0,0,0,0,0,-1,1182,435,-2.77383,2.87922
-35,589,-2.55225,-3.27551,0,0,0,0,0,0,0,-1,1189,435,-2.55223,3.27552
-28,589,-0.0632324,-3.42938,0,0,0,0,0,0,0,-1,1196,435,-0.063241,3.42938
-21,589,7.13757,-49.4975,0,0,0,0,0,0,0,-1,1203,435,7.13753,49.4975
-14,589,6.57471,-49.5831,0,0,0,0,0,0,0,-1,1210,435,6.57466,49.5831
-7,589,5.99292,-49.6664,0,0,0,0,0,0,0,-1,1217,435,5.99296,49.6664
0,589,10.6514,-49.8841,0,0,0,0,0,0,0,-1,1224,435,10.6514,49.8841
7,589,10.4147,-50.6375,0,0,0,0,0,0,0,-1,1231,435,10.4146,50.6376
14,589,9.75854,-50.7809,0,0,0,0,0,0,0,-1,1238,435,9.75855,50.7809
21,589,9.21216,-50.8245,0,0,0,0,0,0,0,-1,1245,435,9.21218,50.8245
28,589,6.74036,-51.0568,0,0,0,0,0,0,0,-1,1252,435,6.74035,51.0567
35,589,6.66663,-51.1757,0,0,0,0,0,0,0,-1,1259,435,6.6666,51.1757
42,589,6.59412,-51.3303,0,0,0,0,0,0,0,-1,1266,435,6.59415,51.3303
49,589,5.76563,-52.5822,0,0,0,0,0,0,0,-1,1273,435,5.76559,52.5823
56,589,6.4668,-51.632,0,0,0,0,0,0,0,-1,1280,435,6.46676,51.632
63,589,6.38867,-51.8168,0,0,0,0,0,0,0,-1,1287,435,6.38866,51.8168
70,589,4.87305,-51.0707,0,0,0,0,0,0,0,-1,1294,435,4.8731,51.0707
77,589,5.23694,-50.9331,0,0,0,0,0,0,0,-1,1301,435,5.2369,50.9331
84,589,5.34814,-50.6172,0,0,0,0,0,0,0,-1,1308,435,5.34816,50.6172
91,589,5.42712,-50.3278,0,0,0,0,0,0,0,-1,1315,435,5.4271,50.3278
98,589,5.83679,-49.9698,0,0,0,0,0,0,0,-1,1322,435,5.8368,49.9698
105,589,6.08765,-49.4271,0,0,0,0,0,0,0,-1,1329,435,6.0877,49.4271
112,589,6.74756,-48.7946,0,0,0,0,0,0,0,-1,1336,435,6.7476,48.7946
119,589,7.45581,-48.2054,0,0,0,0,0,0,0,-1,1343,435,7.45578,48.2054
126,589,8.59351,-47.7561,0,0,0,0,0,0,0,-1,1350,435,8.59357,47.7561
133,589,8.83362,-48.0474,0,0,0,0,0,0,0,-1,1357,435,8.83367,48.0474
140,589,8.66211,-47.5648,0,0,0,0,0,0,0,-1,1364,435,8.66217,47.5649
147,589,8.60608,-47.4259,0,0,0,0,0,0,0,-1,1371,435,8.60606,47.4259
154,589,9.02502,-47.3306,0,0,0,0,0,0,0,-1,1378,435,9.02505,47.3306
161,589,17.6913,-47.7866,0,0,0,0,0,0,0,-1,1385,435,17.6913,47.7866
168,589,20.0441,-47.9614,0,0,0,0,0,0,0,-1,1392,435,20.044,47.9613
175,589,8.66992,-7.65527,0,0,0,0,0,0,0,-1,1399,435,8.66994,7.65528
182,589,3.8136,-2.45389,0,0,0,0,0,0,0,-1,1406,435,3.81363,2.4539
189,589,3.69983,-3.68149,0,0,0,0,0,0,0,-1,1413,435,3.69987,3.68147
196,589,3.31055,-5.31677,0,0,0,0,0,0,0,-1,1420,435,3.31059,5.31678
203,589,2.72559,-8.84338,0,0,0,0,0,0,0,-1,1427,435,2.72558,8.84338
210,589,3.62378,-14.4032,0,0,0,0,0,0,0,-1,1434,435,3.62378,14.4032
217,589,4.65601,-22.3745,0,0,0,0,0,0,0,-1,1441,435,4.65607,22.3745
224,589,6.79028,-33.9412,0,0,0,0,0,0,0,-1,1448,435,6.79028,33.9412
231,589,9.2533,-46.9643,0,0,0,0,0,0,0,-1,1455,435,9.25331,46.9643
238,589,9.23132,-46.4094,0,0,0,0,0,0,0,-1,1462,435,9.23127,46.4094
245,589,9.24463,-45.931,0,0,0,0,0,0,0,-1,1469,435,9.24459,45.931
252,589,9.26196,-45.4307,0.00473488,-0.00261463,-0.00122801,0.00493463,-0.00281439,-0.161254,0.00452938,0.019418,1476,435,9.26198,45.4307
259,589,9.28296,-44.9821,0.00436884,-0.00268853,-0.000899047,0.00448157,-0.00280126,-0.124737,0.00424189,0.00992626,1483,435,9.283,44.9821
266,589,9.29614,-44.4695,0.00398615,-0.00264764,-0.000584322,0.00403722,-0.00269871,-0.0871881,0.00391451,0.0095533,1490,435,9.29619,44.4695
273,589,9.31934,-43.9775,0.00374344,-0.00243061,-0.000260379,0.0037544,-0.00244157,-0.0420736,0.00360391,0.0118096,1497,435,9.3193,43.9775
280,589,9.30774,-43.4452,0.00354986,-0.00207161,6.27152e-05,0.00355056,-0.0020723,0.0111545,0.00328355,0.0128846,1504,435,9.30768,43.4452
287,589,9.28687,-42.9011,0.00332576,-0.00164256,0.000304082,0.0033443,-0.0016611,0.0609013,0.00294383,0.0116132,1511,435,9.2869,42.9011
294,589,9.29187,-42.33,0.00302509,-0.00100306,0.000550347,0.00309893,-0.0010769,0.133369,0.00250336,0.0103022,1518,435,9.29191,42.33
301,589,9.297,-41.7611,0.00265741,-0.000285965,0.000792564,0.00285726,-0.00048581,0.247001,0.00208572,0.010832,1525,435,9.29704,41.7611
308,589,9.28491,-41.1938,0.00228056,0.000496876,0.00102964,0.0027509,2.65327e-05,0.428496,0.00182516,0.01087,1532,435,9.28488,41.1938
315,589,9.25952,-40.6153,0.00189972,0.00135982,0.00130071,0.00295819,0.000301341,0.683081,0.00187975,0.0114195,1539,435,9.25949,40.6153
322,589,9.27393,-40.0194,0.00147687,0.00232856,0.00162085,0.00357857,0.000226857,0.913859,0.0023138,0.012376,1546,435,9.27391,40.0194
329,589,9.23657,-39.4291,0.00105075,0.0032356,0.00195537,0.00438301,-9.6655e-05,1.04014,0.00295475,0.0106168,1553,435,9.23654,39.4291
336,589,9.19653,-38.8512,0.000686288,0.00420389,0.00238313,0.00540696,-0.000516782,1.10329,0.00378867,0.00981119,1560,435,9.19651,38.8512
343,589,9.1748,-38.2634,0.000357214,0.0053408,0.00290848,0.00667892,-0.000980911,1.13959,0.00481302,0.0106534,1567,435,9.17482,38.2634
350,589,9.13306,-37.6223,0.000103888,0.00672797,0.00356163,0.00827955,-0.00144769,1.15995,0.00606018,0.0155006,1574,435,9.13312,37.6223
357,589,9.11011,-36.9625,-9.28319e-05,0.00798732,0.00428202,0.00983434,-0.00193985,1.16357,0.0072894,0.0140171,1581,435,9.11014,36.9625
364,589,9.09912,-36.3148,-0.000235138,0.00924993,0.00504043,0.0114282,-0.00241341,1.16288,0.00853774,0.0114871,1588,435,9.09908,36.3148
371,589,9.05725,-35.6671,-0.000338444,0.0108106,0.00588249,0.0133403,-0.00286818,1.16466,0.00998785,0.0117224,1595,435,9.05727,35.6671
378,589,8.99426,-35.0081,-0.000339085,0.0125885,0.00671322,0.0154439,-0.00319451,1.16863,0.0115095,0.0129534,1602,435,8.99431,35.008
385,589,8.95215,-34.2971,0.000539332,0.0148012,0.00707346,0.0177143,-0.00237385,1.18012,0.0126752,0.0226229,1609,435,8.95219,34.2971
392,589,8.91028,-33.4278,0.00293995,0.0176942,0.00715303,0.0205926,4.14774e-05,1.18581,0.0137146,0.0310876,1616,435,8.9103,33.4278
399,589,8.91296,-32.5739,0.00699651,0.0204789,0.00870235,0.0247457,0.00272978,1.11494,0.0156667,0.0394339,1623,435,8.91301,32.5739
406,589,8.95813,-31.8349,0,0,0,0,0,0,0,-1,1630,435,8.95817,31.8349
413,589,5.61377,-19.0606,0,0,0,0,0,0,0,-1,1637,435,5.61372,19.0606
420,589,2.79724,-5.79956,0,0,0,0,0,0,0,-1,1644,435,2.7973,5.79955
427,589,7.96765,-29.9271,0,0,0,0,0,0,0,-1,1651,435,7.96762,29.9271
434,589,7.96216,-28.9092,0,0,0,0,0,0,0,-1,1658,435,7.96219,28.9092
441,589,8.02429,-27.7831,0,0,0,0,0,0,0,-1,1665,435,8.02424,27.7832
448,589,0.453735,-3.2868,0,0,0,0,0,0,0,-1,1672,435,0.453701,3.28681
455,589,0.664307,-3.46848,0,0,0,0,0,0,0,-1,1679,435,0.66425,3.46846
462,589,3.46716,-4.41891,0,0,0,0,0,0,0,-1,1686,435,3.4672,4.41891
469,589,0.0238037,-3.81497,0,0,0,0,0,0,0,-1,1693,435,0.0237965,3.81498
476,589,0,0,0,0,0,0,0,0,0,-1,1700,435,0,0
483,589,0,0,0,0,0,0,0,0,0,-1,1707,435,0,0
490,589,0,0,0,0,0,0,0,0,0,-1,1714,435,0,0
497,589,0,0,0,0,0,0,0,0,0,-1,1721,435,0,0
504,589,0,0,0,0,0,0,0,0,0,-1,1728,435,0,0
511,589,0,0,0,0,0,0,0,0,0,-1,1735,435,0,0
518,589,0,0,0,0,0,0,0,0,0,-1,1742,435,0,0
525,589,0,0,0,0,0,0,0,0,0,-1,1749,435,0,0
532,589,0,0,0,0,0,0,0,0,0,-1,1756,435,0,0
539,589,0,0,0,0,0,0,0,0,0,-1,1763,435,0,0
546,589,0,0,0,0,0,0,0,0,0,-1,1770,435,0,0
553,589,0,0,0,0,0,0,0,0,0,-1,1777,435,0,0
560,589,0,0,0,0,0,0,0,0,0,-1,1784,435,0,0
567,589,0,0,0,0,0,0,0,0,0,-1,1791,435,0,0
574,589,0,0,0,0,0,0,0,0,0,-1,1798,435,0,0
581,589,0,0,0,0,0,0,0,0,0,-1,1805,435,0,0
588,589,0,0,0,0,0,0,0,0,0,-1,1812,435,0,0
595,589,0,0,0,0,0,0,0,0,0,-1,1819,435,0,0
602,589,0,0,0,0,0,0,0,0,0,-1,1826,435,0,0
609,589,0,0,0,0,0,0,0,0,0,-1,1833,435,0,0
616,589,0,0,0,0,0,0,0,0,0,-1,1840,435,0,0
623,589,0,0,0,0,0,0,0,0,0,-1,1847,435,0,0
630,589,0,0,0,0,0,0,0,0,0,-1,1854,435,0,0
637,589,0,0,0,0,0,0,0,0,0,-1,1861,435,0,0
644,589,0,0,0,0,0,0,0,0,0,-1,1868,435,0,0
651,589,0,0,0,0,0,0,0,0,0,-1,1875,435,0,0
658,589,0,0,0,0,0,0,0,0,0,-1,1882,435,0,0
665,589,0,0,0,0,0,0,0,0,0,-1,1889,435,0,0
672,589,0,0,0,0,0,0,0,0,0,-1,1896,435,0,0
679,589,0,0,0,0,0,0,0,0,0,-1,1903,435,0,0
686,589,0,0,0,0,0,0,0,0,0,-1,1910,435,0,0
693,589,0,0,0,0,0,0,0,0,0,-1,1917,435,0,0
700,589,0,0,0,0,0,0,0,0,0,-1,1924,435,0,0
707,589,0,0,0,0,0,0,0,0,0,-1,1931,435,0,0
714,589,0,0,0,0,0,0,0,0,0,-1,1938,435,0,0
721,589,0,0,0,0,0,0,0,0,0,-1,1945,435,0,0
728,589,0,0,0,0,0,0,0,0,0,-1,1952,435,0,0
735,589,0,0,0,0,0,0,0,0,0,-1,1959,435,0,0
742,589,0,0,0,0,0,0,0,0,0,-1,1966,435,0,0
749,589,0,0,0,0,0,0,0,0,0,-1,1973,435,0,0
756,589,0,0,0,0,0,0,0,0,0,-1,1980,435,0,0
763,589,0,0,0,0,0,0,0,0,0,-1,1987,435,0,0
770,589,0,0,0,0,0,0,0,0,0,-1,1994,435,0,0
777,589,0,0,0,0,0,0,0,0,0,-1,2001,435,0,0
784,589,0,0,0,0,0,0,0,0,0,-1,2008,435,0,0
791,589,0,0,0,0,0,0,0,0,0,-1,2015,435,0,0
798,589,0,0,0,0,0,0,0,0,0,-1,2022,435,0,0
805,589,0,0,0,0,0,0,0,0,0,-1,2029,435,0,0
812,589,0,0,0,0,0,0,0,0,0,-1,2036,435,0,0
-700,582,0,0,0,0,0,0,0,0,0,-1,524,442,0,0
-693,582,0,0,0,0,0,0,0,0,0,-1,531,442,0,0
-686,582,0,0,0,0,0,0,0,0,0,-1,538,442,0,0
-679,582,0,0,0,0,0,0,0,0,0,-1,545,442,0,0
-672,582,0,0,0,0,0,0,0,0,0,-1,552,442,0,0
-665,582,0,0,0,0,0,0,0,0,0,-1,559,442,0,0
-658,582,0,0,0,0,0,0,0,0,0,-1,566,442,0,0
-651,582,0,0,0,0,0,0,0,0,0,-1,573,442,0,0
-644,582,0,0,0,0,0,0,0,0,0,-1,580,442,0,0
-637,582,0,0,0,0,0,0,0,0,0,-1,587,442,0,0
-630,582,0,0,0,0,0,0,0,0,0,-1,594,442,0,0
-623,582,0,0,0,0,0,0,0,0,0,-1,601,442,0,0
-616,582,0,0,0,0,0,0,0,0,0,-1,608,442,0,0
-609,582,0,0,0,0,0,0,0,0,0,-1,615,442,0,0
-602,582,0,0,0,0,0,0,0,0,0,-1,622,442,0,0
-595,582,0,0,0,0,0,0,0,0,0,-1,629,442,0,0
-588,582,0,0,0,0,0,0,0,0,0,-1,636,442,0,0
-581,582,0,0,0,0,0,0,0,0,0,-1,643,442,0,0
-574,582,0,0,0,0,0,0,0,0,0,-1,650,442,0,0
-567,582,0,0,0,0,0,0,0,0,0,-1,657,442,0,0
-560,582,0,0,0,0,0,0,0,0,0,-1,664,442,0,0
-553,582,0,0,0,0,0,0,0,0,0,-1,671,442,0,0
-546,582,0,0,0,0,0,0,0,0,0,-1,678,442,0,0
-539,582,0,0,0,0,0,0,0,0,0,-1,685,442,0,0
-532,582,0,0,0,0,0,0,0,0,0,-1,692,442,0,0
-525,582,0,0,0,0,0,0,0,0,0,-1,699,442,0,0
-518,582,0,0,0,0,0,0,0,0,0,-1,706,442,0,0
-511,582,0,0,0,0,0,0,0,0,0,-1,713,442,0,0
-504,582,0,0,0,0,0,0,0,0,0,-1,720,442,0,0
-497,582,0,0,0,0,0,0,0,0,0,-1,727,442,0,0
-490,582,0,0,0,0,0,0,0,0,0,-1,734,442,0,0
-483,582,0,0,0,0,0,0,0,0,0,-1,741,442,0,0
-476,582,0,0,0,0,0,0,0,0,0,-1,748,442,0,0
-469,582,0,0,0,0,0,0,0,0,0,-1,755,442,0,0
-462,582,0,0,0,0,0,0,0,0,0,-1,762,442,0,0
-455,582,0,0,0,0,0,0,0,0,0,-1,769,442,0,0
-448,582,0,0,0,0,0,0,0,0,0,-1,776,442,0,0
-441,582,0,0,0,0,0,0,0,0,0,-1,783,442,0,0
-434,582,0,0,0,0,0,0,0,0,0,-1,790,442,0,0
-427,582,0,0,0,0,0,0,0,0,0,-1,797,442,0,0
-420,582,0,0,0,0,0,0,0,0,0,-1,804,442,0,0
-413,582,0,0,0,0,0,0,0,0,0,-1,811,442,0,0
-406,582,0,0,0,0,0,0,0,0,0,-1,818,442,0,0
-399,582,0,0,0,0,0,0,0,0,0,-1,825,442,0,0
-392,582,0,0,0,0,0,0,0,0,0,-1,832,442,0,0
-385,582,0,0,0,0,0,0,0,0,0,-1,839,442,0,0
-378,582,0,0,0,0,0,0,0,0,0,-1,846,442,0,0
-371,582,0,0,0,0,0,0,0,0,0,-1,853,442,0,0
-364,582,0,0,0,0,0,0,0,0,0,-1,860,442,0,0
-357,582,-1.4903,-21.5295,0,0,0,0,0,0,0,-1,867,442,-1.49031,21.5295
-350,582,-0.880859,-19.7966,0,0,0,0,0,0,0,-1,874,442,-0.880885,19.7966
-343,582,0.939941,-19.1705,0,0,0,0,0,0,0,-1,881,442,0.939935,19.1705
-336,582,3.33929,-27.9479,0,0,0,0,0,0,0,-1,888,442,3.33928,27.9479
-329,582,3.63544,-26.4736,0,0,0,0,0,0,0,-1,895,442,3.63546,26.4736
-322,582,3.67145,-27.1796,0,0,0,0,0,0,0,-1,902,442,3.67143,27.1796
-315,582,3.90686,-27.6446,0,0,0,0,0,0,0,-1,909,442,3.90689,27.6446
-308,582,4.01685,-29.423,0,0,0,0,0,0,0,-1,916,442,4.01687,29.423
-301,582,3.64087,-30.5768,0,0,0,0,0,0,0,-1,923,442,3.64086,30.5768
-294,582,3.62152,-31.4134,-0.000579672,0.0141049,-0.00886219,0.0182712,-0.00474596,-1.13134,0.0140329,0.0496386,930,442,3.62151,31.4134
-287,582,3.6073,-32.1327,-0.000574774,0.012869,-0.00810476,0.0166766,-0.00438241,-1.1316,0.0128305,0.0420001,937,442,3.60728,32.1327
-280,582,3.66589,-32.862,-0.000318703,0.0126597,-0.00771808,0.0162541,-0.00391308,-1.13496,0.0123488,0.0188538,944,442,3.66588,32.862
-273,582,3.6778,-33.6063,-9.6167e-05,0.0123709,-0.00731405,0.0157474,-0.00347264,-1.1383,0.011827,0.0121618,951,442,3.67781,33.6063
-266,582,3.62915,-34.2911,-1.76558e-05,0.011458,-0.00677326,0.0145971,-0.00315675,-1.13681,0.0109366,0.0110787,958,442,3.62914,34.2911
-259,582,3.5697,-34.9617,6.66297e-05,0.0104067,-0.00613258,0.0132577,-0.00278442,-1.13562,0.00989805,0.00907311,965,442,3.56972,34.9617
-252,582,3.52313,-35.651,0.000222249,0.00956818,-0.00537738,0.0120193,-0.00222889,-1.14311,0.0088499,0.00811756,972,442,3.52312,35.651
-245,582,3.51367,-36.2608,0.000421419,0.00836038,-0.00463566,0.0104939,-0.00171206,-1.13947,0.00763088,0.0120284,979,442,3.51365,36.2608
-238,582,3.48187,-36.8546,0.000595038,0.00703595,-0.00381993,0.00881181,-0.00118082,-1.13563,0.00630511,0.0169892,986,442,3.48188,36.8546
-231,582,3.44617,-37.477,0.0007732,0.0055252,-0.00306937,0.00703075,-0.00073235,-1.11477,0.00494938,0.0136504,993,442,3.44616,37.477
-224,582,3.40961,-38.1018,0.000927752,0.00389956,-0.00238688,0.00522526,-0.00039795,-1.06381,0.00362345,0.01171,1000,442,3.40961,38.1018
-217,582,3.36279,-38.7053,0.00113684,0.00200232,-0.00172426,0.00334731,-0.000208161,-0.908344,0.00230407,0.0129348,1007,442,3.36279,38.7053
-210,582,3.37524,-39.3063,0.00137677,1.61985e-05,-0.00106575,0.00196084,-0.000567876,-0.501339,0.00153202,0.0128146,1014,442,3.37523,39.3063
-203,582,3.37073,-39.9017,0.00162161,-0.00187891,-0.000462407,0.00168166,-0.00193896,-0.129146,0.00209213,0.0110337,1021,442,3.37069,39.9017
-196,582,3.34277,-40.5121,0.00180755,-0.00355752,0.00012101,0.00181027,-0.00356024,0.02254,0.00315506,0.0177228,1028,442,3.34281,40.5121
-189,582,3.30554,-41.097,0.00195293,-0.00516049,0.000706076,0.00202234,-0.0052299,0.0979857,0.00432144,0.0255537,1035,442,3.30554,41.097
-182,582,3.31873,-41.6222,0.00214801,-0.00671763,0.00142818,0.0023724,-0.00694201,0.155841,0.00558924,0.0167048,1042,442,3.31879,41.6222
-175,582,3.30029,-42.1281,0.0024005,-0.00840275,0.00225472,0.00285219,-0.00885444,0.197714,0.00704874,0.0142727,1049,442,3.30024,42.1281
-168,582,3.31885,-42.701,0.00255625,-0.00983156,0.0030231,0.00325462,-0.0105299,0.227032,0.00831981,0.0123457,1056,442,3.31879,42.701
-161,582,3.33276,-43.2236,0.00267216,-0.011059,0.00382363,0.0036651,-0.0120519,0.254073,0.0094951,0.013557,1063,442,3.33272,43.2236
-154,582,3.33289,-43.728,0.00277731,-0.0122336,0.00477889,0.00416959,-0.0136259,0.283492,0.0107469,0.0132136,1070,442,3.33288,43.728
-147,582,3.34253,-44.2166,0.00297465,-0.0133017,0.00577403,0.00481491,-0.015142,0.308536,0.0120254,0.0127289,1077,442,3.34257,44.2166
-140,582,3.34595,-44.6679,0.00315736,-0.0146349,0.00680062,0.00545897,-0.0169365,0.326341,0.0134842,0.0137555,1084,442,3.34598,44.6679
-133,582,3.39465,-45.1546,0.0033816,-0.0156994,0.00783321,0.00618534,-0.0185032,0.343722,0.0148335,0.0178032,1091,442,3.39466,45.1546
-126,582,3.41272,-45.5433,0.00386603,-0.016411,0.00860024,0.00702238,-0.0195674,0.351745,0.015911,0.0169714,1098,442,3.4127,45.5433
-119,582,3.33301,-45.8976,0.00444083,-0.0170771,0.00904732,0.00773922,-0.0203755,0.349596,0.0167697,0.0256889,1105,442,3.33307,45.8976
-112,582,3.24414,-46.3683,0,0,0,0,0,0,0,-1,1112,442,3.2441,46.3683
-105,582,2.87219,-43.073,0,0,0,0,0,0,0,-1,1119,442,2.87217,43.073
-98,582,2.61938,-32.8673,0,0,0,0,0,0,0,-1,1126,442,2.61944,32.8673
-91,582,2.16492,-24.1119,0,0,0,0,0,0,0,-1,1133,442,2.16496,24.1119
-84,582,2.10278,-16.7533,0,0,0,0,0,0,0,-1,1140,442,2.10279,16.7533
-77,582,2.30212,-11.4907,0,0,0,0,0,0,0,-1,1147,442,2.30207,11.4907
-70,582,1.49255,-6.36548,0,0,0,0,0,0,0,-1,1154,442,1.49251,6.36549
-63,582,-4.62915,-4.0347,0,0,0,0,0,0,0,-1,1161,442,-4.6292,4.03471
-56,582,-5.81714,-5.24149,0,0,0,0,0,0,0,-1,1168,442,-5.81718,5.24149
-49,582,-3.88672,-10.1064,0,0,0,0,0,0,0,-1,1175,442,-3.88678,10.1064
-42,582,-0.948975,1.13968,0,0,0,0,0,0,0,-1,1182,442,-0.949003,-1.13969
-35,582,-2.58435,-3.86911,0,0,0,0,0,0,0,-1,1189,442,-2.58437,3.86912
-28,582,-0.825317,-3.45941,0,0,0,0,0,0,0,-1,1196,442,-0.825377,3.45942
-21,582,7.00818,-48.5789,0,0,0,0,0,0,0,-1,1203,442,7.00816,48.5789
-14,582,6.62891,-48.8052,0,0,0,0,0,0,0,-1,1210,442,6.62887,48.8052
-7,582,6.3783,-49.0492,0,0,0,0,0,0,0,-1,1217,442,6.3783,49.0492
0,582,8.70117,-49.7275,0,0,0,0,0,0,0,-1,1224,442,8.70117,49.7275
7,582,8.76086,-50.2127,0,0,0,0,0,0,0,-1,1231,442,8.76087,50.2127
14,582,8.81616,-50.5298,0,0,0,0,0,0,0,-1,1238,442,8.81617,50.5298
21,582,8.60266,-50.6115,0,0,0,0,0,0,0,-1,1245,442,8.6026,50.6114
28,582,8.27441,-50.7963,0,0,0,0,0,0,0,-1,1252,442,8.27446,50.7963
35,582,6.85547,-51.2554,0,0,0,0,0,0,0,-1,1259,442,6.85543,51.2554
42,582,6.82251,-51.4734,0,0,0,0,0,0,0,-1,1266,442,6.82253,51.4733
49,582,6.64526,-51.501,0,0,0,0,0,0,0,-1,1273,442,6.6453,51.501
56,582,6.60583,-51.5973,0,0,0,0,0,0,0,-1,1280,442,6.60579,51.5973
63,582,5.40833,-51.8014,0,0,0,0,0,0,0,-1,1287,442,5.4083,51.8014
70,582,5.51025,-51.3389,0,0,0,0,0,0,0,-1,1294,442,5.51022,51.3389
77,582,5.57532,-50.8913,0,0,0,0,0,0,0,-1,1301,442,5.57534,50.8913
84,582,5.42261,-50.5099,0,0,0,0,0,0,0,-1,1308,442,5.42261,50.5098
91,582,5.8136,-50.4478,0,0,0,0,0,0,0,-1,1315,442,5.8136,50.4479
98,582,6.34021,-50.3988,0,0,0,0,0,0,0,-1,1322,442,6.34017,50.3988
105,582,6.81372,-48.9158,0,0,0,0,0,0,0,-1,1329,442,6.81368,48.9158
112,582,7.23035,-48.2686,0,0,0,0,0,0,0,-1,1336,442,7.23031,48.2686
119,582,7.84131,-47.6909,0,0,0,0,0,0,0,-1,1343,442,7.84132,47.6909
126,582,8.32275,-47.6452,0,0,0,0,0,0,0,-1,1350,442,8.3228,47.6452
133,582,8.53491,-47.5313,0,0,0,0,0,0,0,-1,1357,442,8.53497,47.5313
140,582,8.71838,-47.3474,0,0,0,0,0,0,0,-1,1364,442,8.71836,47.3474
147,582,8.94128,-47.2153,0,0,0,0,0,0,0,-1,1371,442,8.94129,47.2153
154,582,9.41797,-47.1346,0,0,0,0,0,0,0,-1,1378,442,9.41794,47.1346
161,582,9.83386,-46.994,0,0,0,0,0,0,0,-1,1385,442,9.83381,46.9941
168,582,0.081665,-40.4535,0,0,0,0,0,0,0,-1,1392,442,0.0816215,40.4535
175,582,6.50549,-2.00424,0,0,0,0,0,0,0,-1,1399,442,6.50546,2.00425
182,582,5.18958,-2.18652,0,0,0,0,0,0,0,-1,1406,442,5.1896,2.18652
189,582,6.19751,-0.880951,0,0,0,0,0,0,0,-1,1413,442,6.19754,0.88096
196,582,4.87354,-2.22327,0,0,0,0,0,0,0,-1,1420,442,4.87348,2.22325
203,582,3.11401,-4.48257,0,0,0,0,0,0,0,-1,1427,442,3.11404,4.48259
210,582,2.93115,-11.0731,0,0,0,0,0,0,0,-1,1434,442,2.93113,11.0731
217,582,4.94092,-16.5476,0,0,0,0,0,0,0,-1,1441,442,4.94087,16.5476
224,582,5.21008,-20.9908,0,0,0,0,0,0,0,-1,1448,442,5.21006,20.9908
231,582,5.70032,-25.622,0,0,0,0,0,0,0,-1,1455,442,5.70026,25.6221
238,582,6.44189,-30.7028,0,0,0,0,0,0,0,-1,1462,442,6.44195,30.7028
245,582,10.0378,-45.1569,0,0,0,0,0,0,0,-1,1469,442,10.0379,45.1568
252,582,9.82214,-45.4706,0,0,0,0,0,0,0,-1,1476,442,9.82213,45.4706
259,582,9.82642,-44.994,0.0058516,-0.00445411,-0.00139075,0.00603598,-0.00463849,-0.131809,0.00618049,0.0225476,1483,442,9.82642,44.994
266,582,9.82532,-44.4429,0.00542923,-0.00480683,-0.00111828,0.00554998,-0.00492758,-0.107559,0.00605278,0.0130518,1490,442,9.8253,44.4429
273,582,9.86206,-43.9344,0.00516612,-0.00492283,-0.000841288,0.00523579,-0.0049925,-0.0826266,0.00590587,0.0114926,1497,442,9.86204,43.9343
280,582,9.85632,-43.4336,0.00494465,-0.00482206,-0.000586823,0.00497978,-0.00485719,-0.0597973,0.00567953,0.0118402,1504,442,9.85638,43.4336
287,582,9.85046,-42.8999,0.00462334,-0.00463158,-0.000476219,0.00464778,-0.00465602,-0.0512752,0.00537156,0.0119769,1511,442,9.85052,42.8999
294,582,9.86328,-42.3231,0.00422711,-0.00409978,-0.000322829,0.00423961,-0.00411228,-0.0386921,0.00482215,0.00991171,1518,442,9.86324,42.3231
301,582,9.87805,-41.7368,0.00376146,-0.00342835,-0.000157954,0.00376493,-0.00343182,-0.0219551,0.00415653,0.0105938,1525,442,9.87804,41.7368
308,582,9.86951,-41.1644,0.00325331,-0.00266985,-1.44779e-05,0.00325334,-0.00266988,-0.00244426,0.0034253,0.013296,1532,442,9.86947,41.1644
315,582,9.84155,-40.5924,0.00274597,-0.00180525,0.000170886,0.00275238,-0.00181166,0.037477,0.00265364,0.0142437,1539,442,9.84154,40.5924
322,582,9.83411,-40.0156,0.00223895,-0.000777132,0.000436223,0.00230078,-0.000838956,0.14079,0.00187708,0.0110352,1546,442,9.83412,40.0156
329,582,9.81787,-39.4249,0.00172345,0.000235081,0.000713197,0.00201003,-5.14908e-05,0.382069,0.00135751,0.0104701,1553,442,9.81791,39.4249
336,582,9.80273,-38.829,0.00124347,0.00125941,0.00104971,0.00230118,0.000201704,0.789196,0.0014715,0.0112043,1560,442,9.80269,38.829
343,582,9.79089,-38.2115,0.000826916,0.00250346,0.00153041,0.00341014,-7.97603e-05,1.03595,0.00230047,0.0132037,1567,442,9.79091,38.2115
350,582,9.75977,-37.6017,0.000503694,0.00389474,0.00213339,0.00492431,-0.000525879,1.12117,0.00347147,0.0160276,1574,442,9.7598,37.6017
357,582,9.73303,-36.9481,0.000243275,0.00520335,0.00278419,0.00645189,-0.00100526,1.14924,0.00467253,0.0146886,1581,442,9.73298,36.9481
364,582,9.70764,-36.2982,7.21841e-05,0.00644867,0.00349363,0.00799016,-0.0014693,1.15526,0.00587807,0.0115008,1588,442,9.70763,36.2982
371,582,9.66101,-35.6644,-5.39375e-05,0.00783691,0.00425056,0.00969094,-0.00190797,1.15949,0.0071816,0.0151118,1595,442,9.66099,35.6644
378,582,9.61121,-35.0146,-0.000120038,0.00934676,0.00498431,0.0114871,-0.00226039,1.16519,0.00851217,0.0160228,1602,442,9.61126,35.0146
385,582,9.57605,-34.3254,0.000542408,0.0111518,0.00533824,0.0133728,-0.00167863,1.17652,0.00952419,0.0116818,1609,442,9.57603,34.3255
392,582,9.52881,-33.6349,0.00248571,0.0134562,0.00551767,0.0157513,0.000190688,1.17662,0.0104379,0.0106529,1616,442,9.52875,33.6349
399,582,9.48291,-32.9883,0.00573394,0.0155665,0.00687897,0.0191054,0.00219503,1.09565,0.0120719,0.0195038,1623,442,9.48287,32.9883
406,582,9.45886,-32.1876,0.00856053,0.0180251,0.00760508,0.02225,0.00433559,1.06371,0.0136201,0.0376268,1630,442,9.45883,32.1875
413,582,9.43225,-31.3512,0,0,0,0,0,0,0,-1,1637,442,9.43229,31.3512
420,582,9.28186,-30.792,0,0,0,0,0,0,0,-1,1644,442,9.28192,30.7919
427,582,9.24023,-29.9824,0,0,0,0,0,0,0,-1,1651,442,9.24029,29.9824
434,582,8.9071,-29.1628,0.027818,0.0267475,0.0103617,0.0376583,0.0169072,0.759593,0.0217797,0.0467803,1658,442,8.90708,29.1627
441,582,9.13477,-28.297,0.0339444,0.0282609,0.0111698,0.0426283,0.019577,0.660834,0.0246387,0.0482399,1665,442,9.13472,28.297
448,582,9.65515,-27.6094,0,0,0,0,0,0,0,-1,1672,442,9.65518,27.6094
455,582,6.4585,-19.4734,0,0,0,0,0,0,0,-1,1679,442,6.45854,19.4734
462,582,5.35022,-19.2616,0,0,0,0,0,0,0,-1,1686,442,5.35025,19.2616
469,582,6.28601,-21.5695,0,0,0,0,0,0,0,-1,1693,442,6.28597,21.5695
476,582,1.93579,-8.53891,0,0,0,0,0,0,0,-1,1700,442,1.93579,8.53892
483,582,0,0,0,0,0,0,0,0,0,-1,1707,442,0,0
490,582,0,0,0,0,0,0,0,0,0,-1,1714,442,0,0
497,582,0,0,0,0,0,0,0,0,0,-1,1721,442,0,0
504,582,0,0,0,0,0,0,0,0,0,-1,1728,442,0,0
511,582,0,0,0,0,0,0,0,0,0,-1,1735,442,0,0
518,582,0,0,0,0,0,0,0,0,0,-1,1742,442,0,0
525,582,0,0,0,0,0,0,0,0,0,-1,1749,442,0,0
532,582,0,0,0,0,0,0,0,0,0,-1,1756,442,0,0
539,582,0,0,0,0,0,0,0,0,0,-1,1763,442,0,0
546,582,0,0,0,0,0,0,0,0,0,-1,1770,442,0,0
553,582,0,0,0,0,0,0,0,0,0,-1,1777,442,0,0
560,582,0,0,0,0,0,0,0,0,0,-1,1784,442,0,0
567,582,0,0,0,0,0,0,0,0,0,-1,1791,442,0,0
574,582,0,0,0,0,0,0,0,0,0,-1,1798,442,0,0
581,582,0,0,0,0,0,0,0,0,0,-1,1805,442,0,0
588,582,0,0,0,0,0,0,0,0,0,-1,1812,442,0,0
595,582,0,0,0,0,0,0,0,0,0,-1,1819,442,0,0
602,582,0,0,0,0,0,0,0,0,0,-1,1826,442,0,0
609,582,0,0,0,0,0,0,0,0,0,-1,1833,442,0,0
616,582,0,0,0,0,0,0,0,0,0,-1,1840,442,0,0
623,582,0,0,0,0,0,0,0,0,0,-1,1847,442,0,0
630,582,0,0,0,0,0,0,0,0,0,-1,1854,442,0,0
637,582,0,0,0,0,0,0,0,0,0,-1,1861,442,0,0
644,582,0,0,0,0,0,0,0,0,0,-1,1868,442,0,0
651,582,0,0,0,0,0,0,0,0,0,-1,1875,442,0,0
658,582,0,0,0,0,0,0,0,0,0,-1,1882,442,0,0
665,582,0,0,0,0,0,0,0,0,0,-1,1889,442,0,0
672,582,0,0,0,0,0,0,0,0,0,-1,1896,442,0,0
679,582,0,0,0,0,0,0,0,0,0,-1,1903,442,0,0
686,582,0,0,0,0,0,0,0,0,0,-1,1910,442,0,0
693,582,0,0,0,0,0,0,0,0,0,-1,1917,442,0,0
700,582,0,0,0,0,0,0,0,0,0,-1,1924,442,0,0
707,582,0,0,0,0,0,0,0,0,0,-1,1931,442,0,0
714,582,0,0,0,0,0,0,0,0,0,-1,1938,442,0,0
721,582,0,0,0,0,0,0,0,0,0,-1,1945,442,0,0
728,582,0,0,0,0,0,0,0,0,0,-1,1952,442,0,0
735,582,0,0,0,0,0,0,0,0,0,-1,1959,442,0,0
742,582,0,0,0,0,0,0,0,0,0,-1,1966,442,0,0
749,582,0,0,0,0,0,0,0,0,0,-1,1973,442,0,0
756,582,0,0,0,0,0,0,0,0,0,-1,1980,442,0,0
763,582,0,0,0,0,0,0,0,0,0,-1,1987,442,0,0
770,582,0,0,0,0,0,0,0,0,0,-1,1994,442,0,0
777,582,0,0,0,0,0,0,0,0,0,-1,2001,442,0,0
784,582,0,0,0,0,0,0,0,0,0,-1,2008,442,0,0
791,582,0,0,0,0,0,0,0,0,0,-1,2015,442,0,0
798,582,0,0,0,0,0,0,0,0,0,-1,2022,442,0,0
805,582,0,0,0,0,0,0,0,0,0,-1,2029,442,0,0
812,582,0,0,0,0,0,0,0,0,0,-1,2036,442,0,0
-700,575,0,0,0,0,0,0,0,0,0,-1,524,449,0,0
-693,575,0,0,0,0,0,0,0,0,0,-1,531,449,0,0
-686,575,0,0,0,0,0,0,0,0,0,-1,538,449,0,0
-679,575,0,0,0,0,0,0,0,0,0,-1,545,449,0,0
-672,575,0,0,0,0,0,0,0,0,0,-1,552,449,0,0
-665,575,0,0,0,0,0,0,0,0,0,-1,559,449,0,0
-658,575,0,0,0,0,0,0,0,0,0,-1,566,449,0,0
-651,575,0,0,0,0,0,0,0,0,0,-1,573,449,0,0
-644,575,0,0,0,0,0,0,0,0,0,-1,580,449,0,0
-637,575,0,0,0,0,0,0,0,0,0,-1,587,449,0,0
-630,575,0,0,0,0,0,0,0,0,0,-1,594,449,0,0
-623,575,0,0,0,0,0,0,0,0,0,-1,601,449,0,0
-616,575,0,0,0,0,0,0,0,0,0,-1,608,449,0,0
-609,575,0,0,0,0,0,0,0,0,0,-1,615,449,0,0
-602,575,0,0,0,0,0,0,0,0,0,-1,622,449,0,0
-595,575,0,0,0,0,0,0,0,0,0,-1,629,449,0,0
-588,575,0,0,0,0,0,0,0,0,0,-1,636,449,0,0
-581,575,0,0,0,0,0,0,0,0,0,-1,643,449,0,0
-574,575,0,0,0,0,0,0,0,0,0,-1,650,449,0,0
-567,575,0,0,0,0,0,0,0,0,0,-1,657,449,0,0
-560,575,0,0,0,0,0,0,0,0,0,-1,664,449,0,0
-553,575,0,0,0,0,0,0,0,0,0,-1,671,449,0,0
-546,575,0,0,0,0,0,0,0,0,0,-1,678,449,0,0
-539,575,0,0,0,0,0,0,0,0,0,-1,685,449,0,0
-532,575,0,0,0,0,0,0,0,0,0,-1,692,449,0,0
-525,575,0,0,0,0,0,0,0,0,0,-1,699,449,0,0
-518,575,0,0,0,0,0,0,0,0,0,-1,706,449,0,0
-511,575,0,0,0,0,0,0,0,0,0,-1,713,449,0,0
-504,575,0,0,0,0,0,0,0,0,0,-1,720,449,0,0
-497,575,0,0,0,0,0,0,0,0,0,-1,727,449,0,0
-490,575,0,0,0,0,0,0,0,0,0,-1,734,449,0,0
-483,575,0,0,0,0,0,0,0,0,0,-1,741,449,0,0
-476,575,0,0,0,0,0,0,0,0,0,-1,748,449,0,0
-469,575,0,0,0,0,0,0,0,0,0,-1,755,449,0,0
-462,575,0,0,0,0,0,0,0,0,0,-1,762,449,0,0
-455,575,0,0,0,0,0,0,0,0,0,-1,769,449,0,0
-448,575,0,0,0,0,0,0,0,0,0,-1,776,449,0,0
-441,575,0,0,0,0,0,0,0,0,0,-1,783,449,0,0
-434,575,0,0,0,0,0,0,0,0,0,-1,790,449,0,0
-427,575,0,0,0,0,0,0,0,0,0,-1,797,449,0,0
-420,575,0,0,0,0,0,0,0,0,0,-1,804,449,0,0
-413,575,0,0,0,0,0,0,0,0,0,-1,811,449,0,0
-406,575,0,0,0,0,0,0,0,0,0,-1,818,449,0,0
-399,575,0,0,0,0,0,0,0,0,0,-1,825,449,0,0
-392,575,0,0,0,0,0,0,0,0,0,-1,832,449,0,0
-385,575,0,0,0,0,0,0,0,0,0,-1,839,449,0,0
-378,575,0,0,0,0,0,0,0,0,0,-1,846,449,0,0
-371,575,0.56897,-3.52304,0,0,0,0,0,0,0,-1,853,449,0.568955,3.52306
-364,575,1.49805,-4.67191,0,0,0,0,0,0,0,-1,860,449,1.49803,4.6719
-357,575,3.15521,-8.29892,0,0,0,0,0,0,0,-1,867,449,3.15521,8.29891
-350,575,-0.825928,-18.5347,0,0,0,0,0,0,0,-1,874,449,-0.825948,18.5347
-343,575,0.465393,-16.3569,0,0,0,0,0,0,0,-1,881,449,0.465397,16.3569
-336,575,3.1994,-17.5725,0,0,0,0,0,0,0,-1,888,449,3.19941,17.5725
-329,575,3.63751,-27.7032,0,0,0,0,0,0,0,-1,895,449,3.63749,27.7032
-322,575,3.0509,-28.1564,0,0,0,0,0,0,0,-1,902,449,3.05091,28.1564
-315,575,4.09875,-27.6962,0,0,0,0,0,0,0,-1,909,449,4.09874,27.6962
-308,575,3.32391,-30.1183,0,0,0,0,0,0,0,-1,916,449,3.32394,30.1183
-301,575,3.29492,-30.766,-0.00109586,0.0128025,-0.007455,0.0160449,-0.00433824,-1.16055,0.0123983,0.0377531,923,449,3.29495,30.766
-294,575,3.16193,-31.5177,-0.000886561,0.011274,-0.00686182,0.0143619,-0.00397439,-1.14794,0.0111383,0.02714,930,449,3.1619,31.5177
-287,575,3.08746,-32.2458,-0.000780865,0.0100855,-0.00622564,0.0129154,-0.00361074,-1.14416,0.0100328,0.0202431,937,449,3.08747,32.2459
-280,575,3.08466,-32.9309,-0.000360954,0.00964818,-0.00585282,0.0123443,-0.00305711,-1.13911,0.00941551,0.0145988,944,449,3.08465,32.9309
-273,575,3.07184,-33.6369,-6.50485e-05,0.00917684,-0.00549005,0.0117318,-0.00262002,-1.13522,0.00882516,0.0115579,951,449,3.07182,33.6369
-266,575,3.05493,-34.3116,5.84664e-05,0.00818026,-0.00498029,0.0105454,-0.00230669,-1.12743,0.00791206,0.0132972,958,449,3.05492,34.3116
-259,575,2.97919,-34.967,0.000178948,0.00697676,-0.00433648,0.00908763,-0.00193192,-1.11779,0.00679457,0.0136707,965,449,2.97921,34.967
-252,575,2.90393,-35.6075,0.000349508,0.00592151,-0.00356537,0.00766029,-0.00138927,-1.11705,0.00562741,0.0124066,972,449,2.90393,35.6075
-245,575,2.86511,-36.2241,0.000555737,0.00456603,-0.00278709,0.00599432,-0.000872549,-1.09723,0.00431656,0.0158216,979,449,2.86511,36.2241
-238,575,2.84833,-36.828,0.000741324,0.00303323,-0.00196584,0.00416274,-0.000388189,-1.04929,0.00291319,0.0158274,986,449,2.84833,36.828
-231,575,2.83789,-37.4521,0.000903797,0.00128896,-0.00118969,0.00230155,-0.000108795,-0.865639,0.00157189,0.0134887,993,449,2.83791,37.4522
-224,575,2.79315,-38.0707,0.00105399,-0.000533667,-0.000459526,0.0011774,-0.000657078,-0.26237,0.00107324,0.013383,1000,449,2.79316,38.0707
-217,575,2.77588,-38.6879,0.00127939,-0.00258017,0.000232233,0.00129331,-0.0025941,0.0598827,0.0022859,0.0109981,1007,449,2.77586,38.6879
-210,575,2.8042,-39.2927,0.00155829,-0.00469314,0.000882176,0.0016804,-0.00481524,0.137538,0.00389312,0.00916171,1014,449,2.8042,39.2927
-203,575,2.8125,-39.8927,0.00187847,-0.00665124,0.00144089,0.00211529,-0.00688807,0.162906,0.00543611,0.0129285,1021,449,2.81249,39.8927
-196,575,2.79456,-40.4827,0.00216251,-0.00831255,0.00195014,0.00251379,-0.00866382,0.178218,0.00677118,0.0193725,1028,449,2.79457,40.4827
-189,575,2.76721,-41.0463,0.00237866,-0.00991629,0.0025056,0.00286967,-0.0104073,0.193512,0.00806673,0.0209727,1035,449,2.76725,41.0463
-182,575,2.73633,-41.5786,0.00264687,-0.0114833,0.00323229,0.00335116,-0.0121876,0.214537,0.00944247,0.0166192,1042,449,2.73629,41.5786
-175,575,2.75513,-42.1113,0.00309587,-0.0131407,0.0040655,0.00405695,-0.0141018,0.232137,0.0110057,0.0122664,1049,449,2.75508,42.1113
-168,575,2.75098,-42.6463,0.00337524,-0.0146307,0.00480838,0.00457884,-0.0158343,0.245272,0.0123683,0.0116213,1056,449,2.75103,42.6463
-161,575,2.76855,-43.1697,0.00353037,-0.0159492,0.00562718,0.00503907,-0.0174579,0.26195,0.0136324,0.0161695,1063,449,2.76851,43.1697
-154,575,2.79773,-43.6689,0.0035892,-0.0172222,0.00676946,0.00559738,-0.0192303,0.288383,0.0150374,0.016706,1070,449,2.79774,43.6689
-147,575,2.82239,-44.1312,0.00374029,-0.0183861,0.00803639,0.00635107,-0.0209969,0.314115,0.0165269,0.014687,1077,449,2.82241,44.1312
-140,575,2.82886,-44.5063,0.00384231,-0.0200112,0.00942127,0.0071145,-0.0232834,0.334285,0.0183592,0.0213099,1084,449,2.82887,44.5063
-133,575,2.86548,-44.7895,0.00398622,-0.0213556,0.0109184,0.00804141,-0.0254108,0.35562,0.0201628,0.0319882,1091,449,2.86545,44.7895
-126,575,2.86499,-45.0116,0.00450152,-0.0223929,0.0121291,0.00916352,-0.0270549,0.366954,0.0217446,0.0390892,1098,449,2.86501,45.0116
-119,575,2.72424,-45.3608,0,0,0,0,0,0,0,-1,1105,449,2.72428,45.3608
-112,575,2.70337,-43.3701,0,0,0,0,0,0,0,-1,1112,449,2.70333,43.3701
-105,575,2.18347,-36.5414,0,0,0,0,0,0,0,-1,1119,449,2.18351,36.5414
-98,575,1.521,-25.6961,0,0,0,0,0,0,0,-1,1126,449,1.52105,25.6961
-91,575,1.60803,-16.4247,0,0,0,0,0,0,0,-1,1133,449,1.60802,16.4247
-84,575,1.16553,-11.9056,0,0,0,0,0,0,0,-1,1140,449,1.16558,11.9056
-77,575,0.205078,-11.2584,0,0,0,0,0,0,0,-1,1147,449,0.205117,11.2584
-70,575,-4.2467,-1.78738,0,0,0,0,0,0,0,-1,1154,449,-4.24674,1.78739
-63,575,-4.52209,-3.48798,0,0,0,0,0,0,0,-1,1161,449,-4.5221,3.48796
-56,575,-5.5968,-5.4928,0,0,0,0,0,0,0,-1,1168,449,-5.59683,5.49281
-49,575,-5.96863,-7.17612,0,0,0,0,0,0,0,-1,1175,449,-5.96868,7.1761
-42,575,-0.830322,0.773499,0,0,0,0,0,0,0,-1,1182,449,-0.83038,-0.77351
-35,575,-0.62085,0.205139,0,0,0,0,0,0,0,-1,1189,449,-0.620855,-0.205126
-28,575,0.49292,-3.87988,0,0,0,0,0,0,0,-1,1196,449,0.492941,3.87989
-21,575,6.21387,-46.4871,0,0,0,0,0,0,0,-1,1203,449,6.21387,46.4871
-14,575,6.36719,-47.9953,0,0,0,0,0,0,0,-1,1210,449,6.36721,47.9953
-7,575,6.60535,-48.3571,0,0,0,0,0,0,0,-1,1217,449,6.6053,48.3571
0,575,7.51404,-50.1266,0,0,0,0,0,0,0,-1,1224,449,7.51401,50.1265
7,575,8.15283,-49.7149,0,0,0,0,0,0,0,-1,1231,449,8.15287,49.7149
14,575,8.06909,-50.0627,0,0,0,0,0,0,0,-1,1238,449,8.06914,50.0627
21,575,7.95923,-50.4079,0,0,0,0,0,0,0,-1,1245,449,7.95917,50.4079
28,575,6.74939,-51.1116,0,0,0,0,0,0,0,-1,1252,449,6.74938,51.1116
35,575,6.72314,-51.4073,0,0,0,0,0,0,0,-1,1259,449,6.72313,51.4072
42,575,6.74707,-51.6521,0,0,0,0,0,0,0,-1,1266,449,6.74703,51.6521
49,575,6.83069,-51.5197,0,0,0,0,0,0,0,-1,1273,449,6.83071,51.5197
56,575,6.85596,-51.532,0,0,0,0,0,0,0,-1,1280,449,6.85593,51.532
63,575,5.09326,-51.2032,0,0,0,0,0,0,0,-1,1287,449,5.09324,51.2032
70,575,5.9762,-51.3444,0,0,0,0,0,0,0,-1,1294,449,5.97616,51.3444
77,575,5.97754,-50.8572,0,0,0,0,0,0,0,-1,1301,449,5.97754,50.8572
84,575,5.38672,-50.3899,0,0,0,0,0,0,0,-1,1308,449,5.38673,50.3899
91,575,5.10596,-50.4097,0,0,0,0,0,0,0,-1,1315,449,5.10591,50.4097
98,575,6.36353,-50.2176,0,0,0,0,0,0,0,-1,1322,449,6.36355,50.2176
105,575,7.4198,-48.4287,0,0,0,0,0,0,0,-1,1329,449,7.41982,48.4287
112,575,8.01196,-48.0148,0,0,0,0,0,0,0,-1,1336,449,8.01193,48.0148
119,575,8.32959,-47.2276,0,0,0,0,0,0,0,-1,1343,449,8.32961,47.2276
126,575,8.72009,-46.8666,0,0,0,0,0,0,0,-1,1350,449,8.72006,46.8666
133,575,8.53528,-47.2069,0,0,0,0,0,0,0,-1,1357,449,8.5353,47.2069
140,575,8.77454,-47.13,0,0,0,0,0,0,0,-1,1364,449,8.77455,47.13
147,575,9.32007,-46.996,0,0,0,0,0,0,0,-1,1371,449,9.32004,46.996
154,575,9.85095,-46.9615,0,0,0,0,0,0,0,-1,1378,449,9.85098,46.9615
161,575,10.2179,-46.8382,0,0,0,0,0,0,0,-1,1385,449,10.2179,46.8382
168,575,7.5509,-35.3165,0,0,0,0,0,0,0,-1,1392,449,7.5509,35.3165
175,575,4.32617,1.93634,0,0,0,0,0,0,0,-1,1399,449,4.32612,-1.93634
182,575,6.3147,-2.88345,0,0,0,0,0,0,0,-1,1406,449,6.31466,2.88346
189,575,6.10449,-1.30817,0,0,0,0,0,0,0,-1,1413,449,6.10455,1.30817
196,575,5.79895,0.818359,0,0,0,0,0,0,0,-1,1420,449,5.79895,-0.81837
203,575,3.29724,-1.46378,0,0,0,0,0,0,0,-1,1427,449,3.29722,1.46377
210,575,2.32739,-7.74503,0,0,0,0,0,0,0,-1,1434,449,2.32741,7.74502
217,575,3.33618,-11.5521,0,0,0,0,0,0,0,-1,1441,449,3.3362,11.5521
224,575,5.51709,-16.3903,0,0,0,0,0,0,0,-1,1448,449,5.51713,16.3903
231,575,5.48572,-20.4595,0,0,0,0,0,0,0,-1,1455,449,5.48571,20.4595
238,575,5.33484,-22.3575,0,0,0,0,0,0,0,-1,1462,449,5.33478,22.3575
245,575,5.59741,-23.513,0,0,0,0,0,0,0,-1,1469,449,5.5974,23.513
252,575,10.5602,-44.9309,0,0,0,0,0,0,0,-1,1476,449,10.5602,44.9309
259,575,10.4208,-45.048,0,0,0,0,0,0,0,-1,1483,449,10.4207,45.048
266,575,10.4401,-44.3671,0.00730884,-0.00633944,-0.00120406,0.00741424,-0.00644485,-0.087322,0.00800807,0.0376875,1490,449,10.4401,44.3671
273,575,10.3649,-43.8981,0.00705468,-0.00691246,-0.00101431,0.00712796,-0.00698574,-0.0721168,0.00814869,0.0242647,1497,449,10.3649,43.8981
280,575,10.4232,-43.3412,0.00681415,-0.0071871,-0.000886186,0.00687002,-0.00724297,-0.0629585,0.00814908,0.0185878,1504,449,10.4233,43.3412
287,575,10.3835,-42.8876,0.00634168,-0.00733039,-0.000991552,0.00641322,-0.00740193,-0.0720216,0.00798299,0.0160602,1511,449,10.3835,42.8876
294,575,10.4309,-42.3395,0.00578523,-0.00696638,-0.00099446,0.00586232,-0.00704347,-0.0773637,0.00746156,0.0118773,1518,449,10.4309,42.3395
301,575,10.4642,-41.7488,0.00515309,-0.00639026,-0.000955826,0.0052317,-0.00646887,-0.0820585,0.0067679,0.0108464,1525,449,10.4642,41.7488
308,575,10.4644,-41.1594,0.00443829,-0.00571148,-0.00095376,0.00452713,-0.00580032,-0.0928852,0.00597764,0.0114531,1532,449,10.4643,41.1594
315,575,10.4268,-40.5858,0.00374521,-0.00486835,-0.00088075,0.00383434,-0.00495748,-0.100861,0.00508975,0.0115959,1539,449,10.4267,40.5858
322,575,10.4242,-40.0119,0.00310602,-0.00380533,-0.000683311,0.00317293,-0.00387224,-0.0976088,0.00407421,0.0103971,1546,449,10.4241,40.0119
329,575,10.4137,-39.419,0.00245188,-0.00268804,-0.000474391,0.00249529,-0.00273146,-0.0912681,0.00301869,0.0108061,1553,449,10.4137,39.419
336,575,10.4005,-38.8154,0.00181075,-0.00159784,-0.000240815,0.00182768,-0.00161477,-0.0701848,0.00198877,0.0128179,1560,449,10.4005,38.8154
343,575,10.4141,-38.1741,0.00127012,-0.000213142,0.000201317,0.00129696,-0.00023998,0.132533,0.000954738,0.0132574,1567,449,10.414,38.1741
350,575,10.3875,-37.5507,0.000860586,0.00120427,0.000763575,0.0018151,0.000249757,0.89608,0.00113601,0.0124451,1574,449,10.3875,37.5507
357,575,10.3435,-36.9175,0.00053094,0.00259927,0.00135943,0.00327319,-0.000142981,1.11057,0.00223131,0.0119572,1581,449,10.3434,36.9175
364,575,10.3123,-36.2829,0.000329489,0.00387337,0.00203453,0.0047994,-0.000596547,1.14366,0.00341586,0.0115559,1588,449,10.3123,36.2829
371,575,10.2922,-35.6646,0.000189641,0.00515855,0.00272295,0.00636015,-0.00101195,1.15521,0.00461455,0.0199583,1595,449,10.2922,35.6646
378,575,10.256,-34.9991,7.64854e-05,0.00649372,0.00339119,0.00795365,-0.00138345,1.16427,0.00581867,0.0188879,1602,449,10.256,34.9991
385,575,10.2181,-34.3137,0.000546511,0.00800502,0.00377711,0.00958368,-0.00103214,1.17491,0.00675949,0.0114718,1609,449,10.2181,34.3137
392,575,10.1771,-33.6619,0.00206934,0.00985313,0.00406555,0.0115893,0.00033314,1.16719,0.00761761,0.00972501,1616,449,10.1771,33.6619
399,575,10.1267,-33.0322,0.00460943,0.0115007,0.00526102,0.014344,0.00176613,1.07532,0.00903172,0.0109374,1623,449,10.1267,33.0322
406,575,10.0851,-32.3098,0.00672391,0.0133865,0.0059248,0.0168523,0.00325808,1.0415,0.0103217,0.0131017,1630,449,10.085,32.3098
413,575,10.0413,-31.5771,0.00929498,0.0151935,0.00636947,0.0192634,0.00522511,1.00222,0.0115032,0.0161175,1637,449,10.0413,31.5771
420,575,9.9834,-30.8387,0.0125029,0.0168959,0.00697266,0.0220099,0.00738898,0.937987,0.012934,0.0161738,1644,449,9.98337,30.8387
427,575,9.92017,-30.0584,0.0161973,0.0181083,0.007818,0.025029,0.00927666,0.846206,0.0146108,0.0185675,1651,449,9.92019,30.0584
434,575,9.84058,-29.4079,0.0201822,0.0196751,0.00867534,0.0286077,0.0112496,0.770789,0.0166417,0.0273804,1658,449,9.84063,29.4079
441,575,10.2263,-28.7958,0.024151,0.0206908,0.00954281,0.0321193,0.0127225,0.695723,0.0186771,0.0438791,1665,449,10.2263,28.7958
448,575,11.0012,-27.7624,0.027629,0.021102,0.0106754,0.0355286,0.0132023,0.637059,0.0207367,0.047306,1672,449,11.0012,27.7624
455,575,11.4244,-26.6485,0,0,0,0,0,0,0,-1,1679,449,11.4244,26.6485
462,575,7.12781,-21.7179,0,0,0,0,0,0,0,-1,1686,449,7.12778,21.7178
469,575,8.80627,-23.9187,0,0,0,0,0,0,0,-1,1693,449,8.80622,23.9187
476,575,9.95032,-24.84,0,0,0,0,0,0,0,-1,1700,449,9.95026,24.84
483,575,7.52368,-25.9372,0,0,0,0,0,0,0,-1,1707,449,7.52367,25.9372
490,575,7.42871,-25.5027,0,0,0,0,0,0,0,-1,1714,449,7.42869,25.5027
497,575,0,0,0,0,0,0,0,0,0,-1,1721,449,0,0
504,575,0,0,0,0,0,0,0,0,0,-1,1728,449,0,0
511,575,0,0,0,0,0,0,0,0,0,-1,1735,449,0,0
518,575,0,0,0,0,0,0,0,0,0,-1,1742,449,0,0
525,575,0,0,0,0,0,0,0,0,0,-1,1749,449,0,0
532,575,0,0,0,0,0,0,0,0,0,-1,1756,449,0,0
539,575,0,0,0,0,0,0,0,0,0,-1,1763,449,0,0
546,575,0,0,0,0,0,0,0,0,0,-1,1770,449,0,0
553,575,0,0,0,0,0,0,0,0,0,-1,1777,449,0,0
560,575,0,0,0,0,0,0,0,0,0,-1,1784,449,0,0
567,575,0,0,0,0,0,0,0,0,0,-1,1791,449,0,0
574,575,0,0,0,0,0,0,0,0,0,-1,1798,449,0,0
581,575,0,0,0,0,0,0,0,0,0,-1,1805,449,0,0
588,575,0,0,0,0,0,0,0,0,0,-1,1812,449,0,0
595,575,0,0,0,0,0,0,0,0,0,-1,1819,449,0,0
602,575,0,0,0,0,0,0,0,0,0,-1,1826,449,0,0
609,575,0,0,0,0,0,0,0,0,0,-1,1833,449,0,0
616,575,0,0,0,0,0,0,0,0,0,-1,1840,449,0,0
623,575,0,0,0,0,0,0,0,0,0,-1,1847,449,0,0
630,575,0,0,0,0,0,0,0,0,0,-1,1854,449,0,0
637,575,0,0,0,0,0,0,0,0,0,-1,1861,449,0,0
644,575,0,0,0,0,0,0,0,0,0,-1,1868,449,0,0
651,575,0,0,0,0,0,0,0,0,0,-1,1875,449,0,0
658,575,0,0,0,0,0,0,0,0,0,-1,1882,449,0,0
665,575,0,0,0,0,0,0,0,0,0,-1,1889,449,0,0
672,575,0,0,0,0,0,0,0,0,0,-1,1896,449,0,0
679,575,0,0,0,0,0,0,0,0,0,-1,1903,449,0,0
686,575,0,0,0,0,0,0,0,0,0,-1,1910,449,0,0
693,575,0,0,0,0,0,0,0,0,0,-1,1917,449,0,0
700,575,0,0,0,0,0,0,0,0,0,-1,1924,449,0,0
707,575,0,0,0,0,0,0,0,0,0,-1,1931,449,0,0
714,575,0,0,0,0,0,0,0,0,0,-1,1938,449,0,0
721,575,0,0,0,0,0,0,0,0,0,-1,1945,449,0,0
728,575,0,0,0,0,0,0,0,0,0,-1,1952,449,0,0
735,575,0,0,0,0,0,0,0,0,0,-1,1959,449,0,0
742,575,0,0,0,0,0,0,0,0,0,-1,1966,449,0,0
749,575,0,0,0,0,0,0,0,0,0,-1,1973,449,0,0
756,575,0,0,0,0,0,0,0,0,0,-1,1980,449,0,0
763,575,0,0,0,0,0,0,0,0,0,-1,1987,449,0,0
770,575,0,0,0,0,0,0,0,0,0,-1,1994,449,0,0
777,575,0,0,0,0,0,0,0,0,0,-1,2001,449,0,0
784,575,0,0,0,0,0,0,0,0,0,-1,2008,449,0,0
791,575,0,0,0,0,0,0,0,0,0,-1,2015,449,0,0
798,575,0,0,0,0,0,0,0,0,0,-1,2022,449,0,0
805,575,0,0,0,0,0,0,0,0,0,-1,2029,449,0,0
812,575,0,0,0,0,0,0,0,0,0,-1,2036,449,0,0
-700,568,0,0,0,0,0,0,0,0,0,-1,524,456,0,0
-693,568,0,0,0,0,0,0,0,0,0,-1,531,456,0,0
-686,568,0,0,0,0,0,0,0,0,0,-1,538,456,0,0
-679,568,0,0,0,0,0,0,0,0,0,-1,545,456,0,0
-672,568,0,0,0,0,0,0,0,0,0,-1,552,456,0,0
-665,568,0,0,0,0,0,0,0,0,0,-1,559,456,0,0
-658,568,0,0,0,0,0,0,0,0,0,-1,566,456,0,0
-651,568,0,0,0,0,0,0,0,0,0,-1,573,456,0,0
-644,568,0,0,0,0,0,0,0,0,0,-1,580,456,0,0
-637,568,0,0,0,0,0,0,0,0,0,-1,587,456,0,0
-630,568,0,0,0,0,0,0,0,0,0,-1,594,456,0,0
-623,568,0,0,0,0,0,0,0,0,0,-1,601,456,0,0
-616,568,0,0,0,0,0,0,0,0,0,-1,608,456,0,0
-609,568,0,0,0,0,0,0,0,0,0,-1,615,456,0,0
-602,568,0,0,0,0,0,0,0,0,0,-1,622,456,0,0
-595,568,0,0,0,0,0,0,0,0,0,-1,629,456,0,0
-588,568,0,0,0,0,0,0,0,0,0,-1,636,456,0,0
-581,568,0,0,0,0,0,0,0,0,0,-1,643,456,0,0
-574,568,0,0,0,0,0,0,0,0,0,-1,650,456,0,0
-567,568,0,0,0,0,0,0,0,0,0,-1,657,456,0,0
-560,568,0,0,0,0,0,0,0,0,0,-1,664,456,0,0
-553,568,0,0,0,0,0,0,0,0,0,-1,671,456,0,0
-546,568,0,0,0,0,0,0,0,0,0,-1,678,456,0,0
-539,568,0,0,0,0,0,0,0,0,0,-1,685,456,0,0
-532,568,0,0,0,0,0,0,0,0,0,-1,692,456,0,0
-525,568,0,0,0,0,0,0,0,0,0,-1,699,456,0,0
-518,568,0,0,0,0,0,0,0,0,0,-1,706,456,0,0
-511,568,0,0,0,0,0,0,0,0,0,-1,713,456,0,0
-504,568,0,0,0,0,0,0,0,0,0,-1,720,456,0,0
-497,568,0,0,0,0,0,0,0,0,0,-1,727,456,0,0
-490,568,0,0,0,0,0,0,0,0,0,-1,734,456,0,0
-483,568,0,0,0,0,0,0,0,0,0,-1,741,456,0,0
-476,568,0,0,0,0,0,0,0,0,0,-1,748,456,0,0
-469,568,0,0,0,0,0,0,0,0,0,-1,755,456,0,0
-462,568,0,0,0,0,0,0,0,0,0,-1,762,456,0,0
-455,568,0,0,0,0,0,0,0,0,0,-1,769,456,0,0
-448,568,0,0,0,0,0,0,0,0,0,-1,776,456,0,0
-441,568,0,0,0,0,0,0,0,0,0,-1,783,456,0,0
-434,568,0,0,0,0,0,0,0,0,0,-1,790,456,0,0
-427,568,0,0,0,0,0,0,0,0,0,-1,797,456,0,0
-420,568,0,0,0,0,0,0,0,0,0,-1,804,456,0,0
-413,568,0,0,0,0,0,0,0,0,0,-1,811,456,0,0
-406,568,0,0,0,0,0,0,0,0,0,-1,818,456,0,0
-399,568,0,0,0,0,0,0,0,0,0,-1,825,456,0,0
-392,568,0,0,0,0,0,0,0,0,0,-1,832,456,0,0
-385,568,0,0,0,0,0,0,0,0,0,-1,839,456,0,0
-378,568,0.321777,-7.29929,0,0,0,0,0,0,0,-1,846,456,0.321806,7.29927
-371,568,1.09595,-7.46707,0,0,0,0,0,0,0,-1,853,456,1.09597,7.46707
-364,568,3.97571,-23.6282,0,0,0,0,0,0,0,-1,860,456,3.97569,23.6282
-357,568,2.14166,-7.67645,0,0,0,0,0,0,0,-1,867,456,2.14167,7.67646
-350,568,2.7467,-11.2507,0,0,0,0,0,0,0,-1,874,456,2.7467,11.2507
-343,568,2.16516,-11.3762,0,0,0,0,0,0,0,-1,881,456,2.16514,11.3762
-336,568,2.10144,-27.6092,0,0,0,0,0,0,0,-1,888,456,2.10147,27.6091
-329,568,2.64581,-27.8451,0,0,0,0,0,0,0,-1,895,456,2.6458,27.8451
-322,568,2.6488,-28.3853,0,0,0,0,0,0,0,-1,902,456,2.64878,28.3852
-315,568,2.73999,-29.1485,0,0,0,0,0,0,0,-1,909,456,2.73997,29.1485
-308,568,2.69275,-30.1698,-0.000666268,0.0121078,-0.00592884,0.0144354,-0.0029939,-1.19669,0.0107613,0.0381824,916,456,2.69276,30.1698
-301,568,2.62964,-30.9116,-0.00111735,0.0103645,-0.00578025,0.0127703,-0.00352318,-1.17639,0.00989917,0.0217484,923,456,2.62966,30.9116
-294,568,2.55621,-31.5751,-0.000891727,0.00889968,-0.00522306,0.0111628,-0.00315481,-1.16193,0.00868656,0.0144536,930,456,2.55622,31.5751
-287,568,2.5188,-32.282,-0.000720913,0.00776408,-0.00465405,0.00981912,-0.00277595,-1.15498,0.00764136,0.0121868,937,456,2.51877,32.2819
-280,568,2.49188,-32.9727,-0.000338358,0.00710197,-0.00428495,0.00905634,-0.00229273,-1.14288,0.00692942,0.0114263,944,456,2.4919,32.9727
-273,568,2.44855,-33.6595,-7.75057e-05,0.00644688,-0.0038885,0.00826035,-0.00189098,-1.13442,0.00623357,0.0123201,951,456,2.44854,33.6595
-266,568,2.41022,-34.3246,4.61592e-05,0.00530895,-0.00332973,0.00692153,-0.00156643,-1.11979,0.00521551,0.0122442,958,456,2.41021,34.3246
-259,568,2.35028,-34.9624,0.000180387,0.00392083,-0.00264396,0.00528917,-0.00118795,-1.09322,0.00398161,0.013243,965,456,2.35029,34.9624
-252,568,2.29321,-35.5801,0.000356396,0.00259761,-0.00182184,0.0036159,-0.000661893,-1.06112,0.00265884,0.0135167,972,456,2.2932,35.5801
-245,568,2.25281,-36.1714,0.000572438,0.00103688,-0.000976385,0.00180828,-0.000198961,-0.902148,0.00127702,0.01612,979,456,2.2528,36.1714
-238,568,2.24341,-36.793,0.000790061,-0.000764338,-0.000119422,0.000799182,-0.00077346,-0.0762322,0.000908006,0.0145569,986,456,2.24342,36.793
-231,568,2.23566,-37.4319,0.000973377,-0.00281579,0.00070695,0.00110098,-0.00294339,0.17857,0.00241443,0.0120202,993,456,2.23563,37.4319
-224,568,2.18005,-38.0475,0.00115497,-0.00492417,0.00150803,0.0015085,-0.0052777,0.230274,0.00411454,0.0134421,1000,456,2.18005,38.0475
-217,568,2.17749,-38.6505,0.00142566,-0.00722074,0.00224745,0.00197494,-0.00777002,0.239704,0.00594863,0.0114361,1007,456,2.17751,38.6505
-210,568,2.19604,-39.2487,0.00177021,-0.00954306,0.00289225,0.00246673,-0.0102396,0.236324,0.0077801,0.0111548,1014,456,2.19603,39.2486
-203,568,2.20758,-39.8402,0.00217642,-0.0116509,0.00340739,0.00297048,-0.012445,0.228955,0.00944385,0.0106972,1021,456,2.20759,39.8402
-196,568,2.22144,-40.3936,0.0025625,-0.0133804,0.00384003,0.0034392,-0.0142571,0.22446,0.0108346,0.0165318,1028,456,2.22139,40.3936
-189,568,2.1759,-40.9351,0.002845,-0.0150612,0.00435977,0.00385009,-0.0160663,0.22658,0.0121984,0.0167737,1035,456,2.17589,40.9351
-182,568,2.20288,-41.5235,0.00317471,-0.0166981,0.00509223,0.00440356,-0.017927,0.236792,0.0136579,0.0166329,1042,456,2.20292,41.5235
-175,568,2.22705,-42.0568,0.00380806,-0.0183829,0.00593743,0.0052968,-0.0198716,0.245674,0.0153217,0.0158238,1049,456,2.22702,42.0568
-168,568,2.20679,-42.4749,0.00421948,-0.0199967,0.0066501,0.0059255,-0.0217027,0.251125,0.0167958,0.0208166,1056,456,2.20682,42.4749
-161,568,2.18005,-42.9618,0.00442536,-0.0215198,0.00748807,0.0064314,-0.0235258,0.261752,0.0182103,0.0296129,1063,456,2.18008,42.9618
-154,568,2.26123,-43.5815,0.00440261,-0.0229344,0.0088797,0.00703371,-0.0255655,0.288063,0.019809,0.0349186,1070,456,2.26122,43.5814
-147,568,2.36304,-44.1118,0.00446487,-0.0242183,0.01054,0.00792141,-0.0276749,0.316893,0.0215806,0.0389869,1077,456,2.363,44.1118
-140,568,2.28613,-44.2889,0.00443313,-0.0262656,0.0124726,0.00886175,-0.0306942,0.341183,0.0239691,0.0399736,1084,456,2.28614,44.2889
-133,568,2.23877,-44.519,0.00444659,-0.0280172,0.0147109,0.010121,-0.0336916,0.368142,0.0264873,0.0406969,1091,456,2.23872,44.519
-126,568,2.36157,-44.6616,0.0049593,-0.0296669,0.0166896,0.0116938,-0.0364014,0.383532,0.0289634,0.0491904,1098,456,2.36163,44.6616
-119,568,2.30591,-45.0345,0,0,0,0,0,0,0,-1,1105,456,2.30595,45.0345
-112,568,1.98242,-35.0942,0,0,0,0,0,0,0,-1,1112,456,1.98247,35.0942
-105,568,2.02454,-25.038,0,0,0,0,0,0,0,-1,1119,456,2.02459,25.038
-98,568,1.58618,-14.7874,0,0,0,0,0,0,0,-1,1126,456,1.58617,14.7874
-91,568,1.11621,-11.1853,0,0,0,0,0,0,0,-1,1133,456,1.11626,11.1853
-84,568,0.461792,-9.7959,0,0,0,0,0,0,0,-1,1140,456,0.461793,9.7959
-77,568,-1.13806,-8.57822,0,0,0,0,0,0,0,-1,1147,456,-1.13807,8.57821
-70,568,-4.09766,-1.42911,0,0,0,0,0,0,0,-1,1154,456,-4.09767,1.4291
-63,568,-5.92273,-3.70752,0,0,0,0,0,0,0,-1,1161,456,-5.92272,3.70751
-56,568,-5.24158,-6.01385,0,0,0,0,0,0,0,-1,1168,456,-5.24161,6.01386
-49,568,-5.24365,-8.33557,0,0,0,0,0,0,0,-1,1175,456,-5.24371,8.33557
-42,568,-0.664795,0.521973,0,0,0,0,0,0,0,-1,1182,456,-0.664829,-0.521984
-35,568,-0.153076,-1.67731,0,0,0,0,0,0,0,-1,1189,456,-0.153068,1.67731
-28,568,1.25439,-4.48798,0,0,0,0,0,0,0,-1,1196,456,1.2544,4.48797
-21,568,6.03857,-45.5455,0,0,0,0,0,0,0,-1,1203,456,6.03854,45.5455
-14,568,6.78882,-46.7516,0,0,0,0,0,0,0,-1,1210,456,6.78881,46.7517
-7,568,7.81555,-48.2128,0,0,0,0,0,0,0,-1,1217,456,7.81553,48.2128
0,568,7.62341,-49.2732,0,0,0,0,0,0,0,-1,1224,456,7.62335,49.2732
7,568,7.54602,-49.5992,0,0,0,0,0,0,0,-1,1231,456,7.54607,49.5992
14,568,7.47363,-49.9696,0,0,0,0,0,0,0,-1,1238,456,7.47366,49.9696
21,568,7.42676,-50.4455,0,0,0,0,0,0,0,-1,1245,456,7.42678,50.4455
28,568,7.25024,-50.9079,0,0,0,0,0,0,0,-1,1252,456,7.25028,50.9079
35,568,6.71851,-51.3365,0,0,0,0,0,0,0,-1,1259,456,6.71855,51.3366
42,568,6.55298,-51.7128,0,0,0,0,0,0,0,-1,1266,456,6.55301,51.7128
49,568,6.78906,-51.6455,0,0,0,0,0,0,0,-1,1273,456,6.78908,51.6456
56,568,6.61157,-50.3401,0,0,0,0,0,0,0,-1,1280,456,6.61156,50.3401
63,568,6.02478,-50.6161,0,0,0,0,0,0,0,-1,1287,456,6.0248,50.6162
70,568,5.40283,-50.6982,0,0,0,0,0,0,0,-1,1294,456,5.40286,50.6982
77,568,6.2782,-50.655,0,0,0,0,0,0,0,-1,1301,456,6.27825,50.655
84,568,5.40015,-50.3109,0,0,0,0,0,0,0,-1,1308,456,5.40017,50.3109
91,568,4.94324,-50.2498,0,0,0,0,0,0,0,-1,1315,456,4.9432,50.2498
98,568,4.11121,-49.8752,0,0,0,0,0,0,0,-1,1322,456,4.11119,49.8752
105,568,3.42383,-49.5344,0,0,0,0,0,0,0,-1,1329,456,3.42377,49.5344
112,568,8.48145,-47.6945,0,0,0,0,0,0,0,-1,1336,456,8.48149,47.6945
119,568,8.79883,-46.7545,0,0,0,0,0,0,0,-1,1343,456,8.79883,46.7545
126,568,8.60974,-47.2106,0,0,0,0,0,0,0,-1,1350,456,8.60975,47.2106
133,568,8.68896,-46.8596,0,0,0,0,0,0,0,-1,1357,456,8.68898,46.8596
140,568,9.21228,-46.5805,0,0,0,0,0,0,0,-1,1364,456,9.21233,46.5805
147,568,9.6615,-46.6248,0,0,0,0,0,0,0,-1,1371,456,9.66144,46.6248
154,568,10.2211,-46.7032,0,0,0,0,0,0,0,-1,1378,456,10.2211,46.7032
161,568,10.584,-46.5486,0,0,0,0,0,0,0,-1,1385,456,10.584,46.5486
168,568,-1.74231,-39.2641,0,0,0,0,0,0,0,-1,1392,456,-1.74226,39.2641
175,568,10.5151,0.747498,0,0,0,0,0,0,0,-1,1399,456,10.5152,-0.747501
182,568,6.35095,-3.63361,0,0,0,0,0,0,0,-1,1406,456,6.35093,3.63359
189,568,6.17493,-1.70911,0,0,0,0,0,0,0,-1,1413,456,6.17497,1.70911
196,568,6.04724,0.200836,0,0,0,0,0,0,0,-1,1420,456,6.04724,-0.200835
203,568,5.9281,2.08649,0,0,0,0,0,0,0,-1,1427,456,5.92812,-2.08648
210,568,1.46216,-2.50446,0,0,0,0,0,0,0,-1,1434,456,1.46219,2.50446
217,568,2.62366,-7.86703,0,0,0,0,0,0,0,-1,1441,456,2.62365,7.86704
224,568,3.43494,-12.1555,0,0,0,0,0,0,0,-1,1448,456,3.43492,12.1555
231,568,4.38245,-9.3205,0,0,0,0,0,0,0,-1,1455,456,4.38244,9.32048
238,568,5.88879,-20.7448,0,0,0,0,0,0,0,-1,1462,456,5.88876,20.7449
245,568,3.34387,-10.6774,0,0,0,0,0,0,0,-1,1469,456,3.34389,10.6774
252,568,3.56946,-9.28928,0,0,0,0,0,0,0,-1,1476,456,3.56948,9.28928
259,568,3.38843,-8.73068,0,0,0,0,0,0,0,-1,1483,456,3.38842,8.73068
266,568,11.066,-44.3063,0,0,0,0,0,0,0,-1,1490,456,11.0661,44.3063
273,568,10.7782,-43.9029,0,0,0,0,0,0,0,-1,1497,456,10.7782,43.9029
280,568,10.8356,-43.4473,0.00894402,-0.00990351,-0.000826185,0.00898017,-0.00993965,-0.0437234,0.010928,0.0452746,1504,456,10.8356,43.4473
287,568,11.0085,-42.6624,0.00828497,-0.0102917,-0.00121398,0.00836396,-0.0103707,-0.0649814,0.0108372,0.0357909,1511,456,11.0086,42.6624
294,568,11.0316,-42.1752,0.00754111,-0.00997275,-0.00142132,0.00765571,-0.0100873,-0.0804527,0.010276,0.0287273,1518,456,11.0317,42.1752
301,568,11.0208,-41.6562,0.00672579,-0.00937318,-0.00155077,0.00687381,-0.0095212,-0.0951611,0.00950671,0.0203586,1525,456,11.0208,41.6562
308,568,11.0282,-41.1064,0.00576928,-0.0086935,-0.00174754,0.00597744,-0.00890166,-0.118557,0.00864558,0.0141846,1532,456,11.0281,41.1065
315,568,11.0127,-40.5676,0.00486242,-0.00778983,-0.00182801,0.00512124,-0.00804865,-0.14065,0.007666,0.00897745,1539,456,11.0127,40.5676
322,568,11.016,-39.9877,0.00407341,-0.00663094,-0.00172906,0.00434577,-0.00690331,-0.156237,0.00655037,0.010059,1546,456,11.016,39.9877
329,568,11.0229,-39.379,0.00326163,-0.00536336,-0.00161293,0.00355338,-0.00565512,-0.178952,0.00536249,0.0104736,1553,456,11.0229,39.379
336,568,11.0254,-38.7676,0.00243717,-0.00418784,-0.00150132,0.00276151,-0.00451219,-0.212768,0.00423983,0.0119306,1560,456,11.0254,38.7676
343,568,11.048,-38.1444,0.00175863,-0.00266599,-0.00110637,0.00201986,-0.00292722,-0.231863,0.00287217,0.0121922,1567,456,11.048,38.1444
350,568,11.0183,-37.5309,0.00123215,-0.0012641,-0.000608579,0.00137262,-0.00140456,-0.226837,0.00160344,0.0106214,1574,456,11.0183,37.5309
357,568,10.976,-36.8972,0.000802287,0.000195718,-6.52489e-05,0.000809226,0.000188779,-0.105955,0.000488863,0.0100793,1581,456,10.976,36.8972
364,568,10.9784,-36.2709,0.000535365,0.0014805,0.000590091,0.00176393,0.000251939,1.12303,0.00110162,0.012498,1588,456,10.9783,36.2709
371,568,10.9463,-35.6049,0.000353483,0.00271681,0.00124292,0.00325013,-0.000179839,1.16547,0.00222912,0.0219757,1595,456,10.9463,35.6049
378,568,10.889,-34.9316,0.000192994,0.00396354,0.00188188,0.00474205,-0.000585512,1.17855,0.00337352,0.0195759,1602,456,10.889,34.9316
385,568,10.8644,-34.2976,0.000478438,0.0052821,0.00234158,0.00623463,-0.000474098,1.18445,0.00432313,0.00935577,1609,456,10.8643,34.2976
392,568,10.8263,-33.6576,0.00160351,0.00679784,0.00275996,0.00799048,0.00041087,1.16291,0.00519545,0.0114023,1616,456,10.8263,33.6576
399,568,10.7662,-33.0459,0.00351269,0.00814939,0.00382085,0.0103002,0.00136185,1.05809,0.00646089,0.019688,1623,456,10.7662,33.0459
406,568,10.7511,-32.3342,0.00506964,0.00966655,0.00446523,0.0123902,0.00234603,1.02309,0.00759978,0.0171968,1630,456,10.7511,32.3342
413,568,10.71,-31.5895,0.00691903,0.0111323,0.00495119,0.0144064,0.00364494,0.986537,0.0086492,0.0136094,1637,456,10.7099,31.5895
420,568,10.6549,-30.8667,0.00918932,0.0124453,0.005564,0.0166146,0.00502002,0.927722,0.00983959,0.0116557,1644,456,10.6549,30.8667
427,568,10.6104,-30.1412,0.0117325,0.0133465,0.00637845,0.0189688,0.0061102,0.848324,0.0111803,0.0132294,1651,456,10.6103,30.1412
434,568,10.6193,-29.3952,0.0144418,0.0144984,0.00720443,0.0216746,0.00726564,0.78736,0.0127384,0.0188668,1658,456,10.6192,29.3952
441,568,10.6777,-28.7177,0.0170258,0.015269,0.00807158,0.0242666,0.00802814,0.731198,0.0142751,0.0266062,1665,456,10.6778,28.7177
448,568,11.1315,-27.7966,0.0191829,0.0156006,0.00909616,0.0266626,0.00812089,0.688184,0.0157807,0.0425292,1672,456,11.1315,27.7966
455,568,11.3821,-26.8044,0,0,0,0,0,0,0,-1,1679,456,11.3821,26.8044
462,568,9.97803,-26.2584,0,0,0,0,0,0,0,-1,1686,456,9.97804,26.2584
469,568,10.01,-25.7255,0,0,0,0,0,0,0,-1,1693,456,10.0101,25.7255
476,568,10.0442,-25.1971,0,0,0,0,0,0,0,-1,1700,456,10.0442,25.197
483,568,10.0046,-24.3619,0,0,0,0,0,0,0,-1,1707,456,10.0046,24.3619
490,568,10.2104,-23.4537,0,0,0,0,0,0,0,-1,1714,456,10.2105,23.4537
497,568,8.87415,-22.5536,0,0,0,0,0,0,0,-1,1721,456,8.87413,22.5537
504,568,0,0,0,0,0,0,0,0,0,-1,1728,456,0,0
511,568,0,0,0,0,0,0,0,0,0,-1,1735,456,0,0
518,568,0,0,0,0,0,0,0,0,0,-1,1742,456,0,0
525,568,0,0,0,0,0,0,0,0,0,-1,1749,456,0,0
532,568,0,0,0,0,0,0,0,0,0,-1,1756,456,0,0
539,568,0,0,0,0,0,0,0,0,0,-1,1763,456,0,0
546,568,0,0,0,0,0,0,0,0,0,-1,1770,456,0,0
553,568,0,0,0,0,0,0,0,0,0,-1,1777,456,0,0
560,568,0,0,0,0,0,0,0,0,0,-1,1784,456,0,0
567,568,0,0,0,0,0,0,0,0,0,-1,1791,456,0,0
574,568,0,0,0,0,0,0,0,0,0,-1,1798,456,0,0
581,568,0,0,0,0,0,0,0,0,0,-1,1805,456,0,0
588,568,0,0,0,0,0,0,0,0,0,-1,1812,456,0,0
595,568,0,0,0,0,0,0,0,0,0,-1,1819,456,0,0
602,568,0,0,0,0,0,0,0,0,0,-1,1826,456,0,0
609,568,0,0,0,0,0,0,0,0,0,-1,1833,456,0,0
616,568,0,0,0,0,0,0,0,0,0,-1,1840,456,0,0
623,568,0,0,0,0,0,0,0,0,0,-1,1847,456,0,0
630,568,0,0,0,0,0,0,0,0,0,-1,1854,456,0,0
637,568,0,0,0,0,0,0,0,0,0,-1,1861,456,0,0
644,568,0,0,0,0,0,0,0,0,0,-1,1868,456,0,0
651,568,0,0,0,0,0,0,0,0,0,-1,1875,456,0,0
658,568,0,0,0,0,0,0,0,0,0,-1,1882,456,0,0
665,568,0,0,0,0,0,0,0,0,0,-1,1889,456,0,0
672,568,0,0,0,0,0,0,0,0,0,-1,1896,456,0,0
679,568,0,0,0,0,0,0,0,0,0,-1,1903,456,0,0
686,568,0,0,0,0,0,0,0,0,0,-1,1910,456,0,0
693,568,0,0,0,0,0,0,0,0,0,-1,1917,456,0,0
700,568,0,0,0,0,0,0,0,0,0,-1,1924,456,0,0
707,568,0,0,0,0,0,0,0,0,0,-1,1931,456,0,0
714,568,0,0,0,0,0,0,0,0,0,-1,1938,456,0,0
721,568,0,0,0,0,0,0,0,0,0,-1,1945,456,0,0
728,568,0,0,0,0,0,0,0,0,0,-1,1952,456,0,0
735,568,0,0,0,0,0,0,0,0,0,-1,1959,456,0,0
742,568,0,0,0,0,0,0,0,0,0,-1,1966,456,0,0
749,568,0,0,0,0,0,0,0,0,0,-1,1973,456,0,0
756,568,0,0,0,0,0,0,0,0,0,-1,1980,456,0,0
763,568,0,0,0,0,0,0,0,0,0,-1,1987,456,0,0
770,568,0,0,0,0,0,0,0,0,0,-1,1994,456,0,0
777,568,0,0,0,0,0,0,0,0,0,-1,2001,456,0,0
784,568,0,0,0,0,0,0,0,0,0,-1,2008,456,0,0
791,568,0,0,0,0,0,0,0,0,0,-1,2015,456,0,0
798,568,0,0,0,0,0,0,0,0,0,-1,2022,456,0,0
805,568,0,0,0,0,0,0,0,0,0,-1,2029,456,0,0
812,568,0,0,0,0,0,0,0,0,0,-1,2036,456,0,0
-700,561,0,0,0,0,0,0,0,0,0,-1,524,463,0,0
-693,561,0,0,0,0,0,0,0,0,0,-1,531,463,0,0
-686,561,0,0,0,0,0,0,0,0,0,-1,538,463,0,0
-679,561,0,0,0,0,0,0,0,0,0,-1,545,463,0,0
-672,561,0,0,0,0,0,0,0,0,0,-1,552,463,0,0
-665,561,0,0,0,0,0,0,0,0,0,-1,559,463,0,0
-658,561,0,0,0,0,0,0,0,0,0,-1,566,463,0,0
-651,561,0,0,0,0,0,0,0,0,0,-1,573,463,0,0
-644,561,0,0,0,0,0,0,0,0,0,-1,580,463,0,0
-637,561,0,0,0,0,0,0,0,0,0,-1,587,463,0,0
-630,561,0,0,0,0,0,0,0,0,0,-1,594,463,0,0
-623,561,0,0,0,0,0,0,0,0,0,-1,601,463,0,0
-616,561,0,0,0,0,0,0,0,0,0,-1,608,463,0,0
-609,561,0,0,0,0,0,0,0,0,0,-1,615,463,0,0
-602,561,0,0,0,0,0,0,0,0,0,-1,622,463,0,0
-595,561,0,0,0,0,0,0,0,0,0,-1,629,463,0,0
-588,561,0,0,0,0,0,0,0,0,0,-1,636,463,0,0
-581,561,0,0,0,0,0,0,0,0,0,-1,643,463,0,0
-574,561,0,0,0,0,0,0,0,0,0,-1,650,463,0,0
-567,561,0,0,0,0,0,0,0,0,0,-1,657,463,0,0
-560,561,0,0,0,0,0,0,0,0,0,-1,664,463,0,0
-553,561,0,0,0,0,0,0,0,0,0,-1,671,463,0,0
-546,561,0,0,0,0,0,0,0,0,0,-1,678,463,0,0
-539,561,0,0,0,0,0,0,0,0,0,-1,685,463,0,0
-532,561,0,0,0,0,0,0,0,0,0,-1,692,463,0,0
-525,561,0,0,0,0,0,0,0,0,0,-1,699,463,0,0
-518,561,0,0,0,0,0,0,0,0,0,-1,706,463,0,0
-511,561,0,0,0,0,0,0,0,0,0,-1,713,463,0,0
-504,561,0,0,0,0,0,0,0,0,0,-1,720,463,0,0
-497,561,0,0,0,0,0,0,0,0,0,-1,727,463,0,0
-490,561,0,0,0,0,0,0,0,0,0,-1,734,463,0,0
-483,561,0,0,0,0,0,0,0,0,0,-1,741,463,0,0
-476,561,0,0,0,0,0,0,0,0,0,-1,748,463,0,0
-469,561,0,0,0,0,0,0,0,0,0,-1,755,463,0,0
-462,561,0,0,0,0,0,0,0,0,0,-1,762,463,0,0
-455,561,0,0,0,0,0,0,0,0,0,-1,769,463,0,0
-448,561,0,0,0,0,0,0,0,0,0,-1,776,463,0,0
-441,561,0,0,0,0,0,0,0,0,0,-1,783,463,0,0
-434,561,0,0,0,0,0,0,0,0,0,-1,790,463,0,0
-427,561,0,0,0,0,0,0,0,0,0,-1,797,463,0,0
-420,561,0,0,0,0,0,0,0,0,0,-1,804,463,0,0
-413,561,0,0,0,0,0,0,0,0,0,-1,811,463,0,0
-406,561,0,0,0,0,0,0,0,0,0,-1,818,463,0,0
-399,561,0,0,0,0,0,0,0,0,0,-1,825,463,0,0
-392,561,4.92407,-2.54578,0,0,0,0,0,0,0,-1,832,463,4.92408,2.54576
-385,561,5.55634,-1.02338,0,0,0,0,0,0,0,-1,839,463,5.55634,1.02338
-378,561,0.160522,-4.51785,0,0,0,0,0,0,0,-1,846,463,0.160542,4.51785
-371,561,2.3512,-22.882,0,0,0,0,0,0,0,-1,853,463,2.35121,22.8821
-364,561,2.81671,-23.534,0,0,0,0,0,0,0,-1,860,463,2.81672,23.534
-357,561,3.28223,-24.1859,0,0,0,0,0,0,0,-1,867,463,3.28223,24.1859
-350,561,1.33124,-11.9406,0,0,0,0,0,0,0,-1,874,463,1.33127,11.9406
-343,561,1.13214,-14.1837,0,0,0,0,0,0,0,-1,881,463,1.13217,14.1837
-336,561,2.05396,-27.6122,0,0,0,0,0,0,0,-1,888,463,2.05398,27.6122
-329,561,2.01312,-28.2819,0.00456555,0.0177744,-0.00593202,0.0200473,0.00229262,-1.20489,0.01267,0.0460877,895,463,2.01313,28.2819
-322,561,2.00104,-28.6832,0.00240977,0.0147114,-0.00548342,0.0168008,0.000320422,-1.20675,0.0110953,0.0397784,902,463,2.00102,28.6832
-315,561,2.13092,-29.1948,0.000983171,0.0121788,-0.00501737,0.0140983,-0.000936293,-1.20541,0.009726,0.0281447,909,463,2.13093,29.1948
-308,561,2.04791,-30.0435,-0.000387427,0.00997979,-0.00473864,0.0118193,-0.00222696,-1.2005,0.00871721,0.0236423,916,463,2.04789,30.0435
-301,561,1.95874,-30.9194,-0.00086453,0.00828601,-0.00447681,0.0101119,-0.00269043,-1.18354,0.00779443,0.0149478,923,463,1.95873,30.9194
-294,561,1.89496,-31.6149,-0.000664877,0.00688084,-0.00389781,0.00853268,-0.00231672,-1.16995,0.0065977,0.0119622,930,463,1.89494,31.6149
-287,561,1.86169,-32.2862,-0.00047999,0.00577747,-0.00333521,0.00722176,-0.00192429,-1.16213,0.0055679,0.0108709,937,463,1.86172,32.2862
-280,561,1.79327,-32.9488,-0.000199281,0.00491465,-0.00292727,0.00624446,-0.00152909,-1.14439,0.00475534,0.0133027,944,463,1.79327,32.9488
-273,561,1.75165,-33.5958,-3.11648e-05,0.00405853,-0.0024455,0.00520145,-0.00117409,-1.1336,0.00391808,0.0153451,951,463,1.75167,33.5958
-266,561,1.73883,-34.2581,4.63251e-05,0.00274909,-0.00178334,0.00363523,-0.000839821,-1.10963,0.00274657,0.00996229,958,463,1.73885,34.2581
-259,561,1.71735,-34.9124,0.000151183,0.00113961,-0.0010139,0.00177333,-0.000482538,-1.01217,0.00137166,0.0106415,965,463,1.71737,34.9123
-252,561,1.66766,-35.536,0.000292495,-0.00050799,-0.000105588,0.000306189,-0.000521683,-0.128966,0.00048334,0.0149465,972,463,1.66768,35.536
-245,561,1.63354,-36.1413,0.000477762,-0.00233971,0.000843288,0.000710876,-0.00257283,0.269699,0.00199485,0.0168793,979,463,1.63353,36.1413
-238,561,1.64447,-36.7816,0.000695015,-0.00447787,0.00177736,0.00124684,-0.00502969,0.301036,0.00383687,0.0137431,986,463,1.64449,36.7815
-231,561,1.61932,-37.4253,0.000890499,-0.00687797,0.00267817,0.0017243,-0.00771177,0.301821,0.00580199,0.0118655,993,463,1.61933,37.4253
-224,561,1.57806,-38.0378,0.00108884,-0.00933643,0.0035807,0.0022002,-0.0104478,0.300949,0.00780269,0.012042,1000,463,1.57804,38.0378
-217,561,1.57495,-38.6218,0.00139228,-0.0119643,0.0043994,0.00271113,-0.0132831,0.291256,0.00988385,0.0121857,1007,463,1.57497,38.6218
-210,561,1.58948,-39.2075,0.00179069,-0.0145956,0.00507463,0.00323495,-0.0160398,0.277272,0.0119188,0.0126214,1014,463,1.58947,39.2075
-203,561,1.61005,-39.7805,0.00226884,-0.0169714,0.00558231,0.00377116,-0.0184737,0.262894,0.0137464,0.0144309,1021,463,1.61002,39.7805
-196,561,1.55383,-40.2901,0.0027509,-0.0188995,0.0059668,0.00428643,-0.020435,0.25188,0.0152542,0.0175522,1028,463,1.55386,40.2901
-189,561,1.61267,-40.8124,0.00309151,-0.0207894,0.0064785,0.0047358,-0.0224337,0.248559,0.016759,0.023042,1035,463,1.61263,40.8124
-182,561,1.72131,-41.3272,0.00347246,-0.0226161,0.00725429,0.00535393,-0.0244975,0.253768,0.0183781,0.0280628,1042,463,1.72134,41.3272
-175,561,1.5769,-41.8348,0.00436705,-0.0244244,0.00816193,0.00651986,-0.0265772,0.257889,0.0202444,0.0416925,1049,463,1.57693,41.8348
-168,561,1.38354,-42.3422,0,0,0,0,0,0,0,-1,1056,463,1.38356,42.3422
-161,561,1.56482,-42.7788,0,0,0,0,0,0,0,-1,1063,463,1.56483,42.7788
-154,561,1.76001,-43.5513,0,0,0,0,0,0,0,-1,1070,463,1.76002,43.5513
-147,561,1.88477,-44.1208,0,0,0,0,0,0,0,-1,1077,463,1.88482,44.1209
-140,561,1.76843,-44.0616,0,0,0,0,0,0,0,-1,1084,463,1.76845,44.0616
-133,561,1.66272,-44.2129,0,0,0,0,0,0,0,-1,1091,463,1.66266,44.2129
-126,561,1.81128,-44.1033,0,0,0,0,0,0,0,-1,1098,463,1.81125,44.1033
-119,561,-0.336304,-35.422,0,0,0,0,0,0,0,-1,1105,463,-0.336245,35.422
-112,561,1.24365,-29.1982,0,0,0,0,0,0,0,-1,1112,463,1.2437,29.1981
-105,561,0.530518,-13.5379,0,0,0,0,0,0,0,-1,1119,463,0.530477,13.5379
-98,561,1.5387,-7.54352,0,0,0,0,0,0,0,-1,1126,463,1.53871,7.54351
-91,561,1.29553,-6.57968,0,0,0,0,0,0,0,-1,1133,463,1.29549,6.5797
-84,561,1.23364,-5.84555,0,0,0,0,0,0,0,-1,1140,463,1.23363,5.84556
-77,561,-2.36023,1.00204,0,0,0,0,0,0,0,-1,1147,463,-2.3602,-1.00205
-70,561,-3.90015,-1.41541,0,0,0,0,0,0,0,-1,1154,463,-3.90009,1.4154
-63,561,-6.95691,-4.02756,0,0,0,0,0,0,0,-1,1161,463,-6.95696,4.02756
-56,561,-5.37988,-6.66855,0,0,0,0,0,0,0,-1,1168,463,-5.37988,6.66854
-49,561,-5.7439,-9.11029,0,0,0,0,0,0,0,-1,1175,463,-5.74387,9.1103
-42,561,-1.72644,-5.63065,0,0,0,0,0,0,0,-1,1182,463,-1.72648,5.63064
-35,561,-1.65674,-4.87994,0,0,0,0,0,0,0,-1,1189,463,-1.6567,4.87993
-28,561,-1.91418,-3.86896,0,0,0,0,0,0,0,-1,1196,463,-1.91414,3.86895
-21,561,5.89819,-44.7667,0,0,0,0,0,0,0,-1,1203,463,5.89824,44.7667
-14,561,6.66174,-46.026,0,0,0,0,0,0,0,-1,1210,463,6.66179,46.026
-7,561,7.42529,-47.2853,0,0,0,0,0,0,0,-1,1217,463,7.42535,47.2854
0,561,7.04346,-49.2609,0,0,0,0,0,0,0,-1,1224,463,7.04347,49.2609
7,561,6.93115,-49.4894,0,0,0,0,0,0,0,-1,1231,463,6.93114,49.4894
14,561,6.73596,-49.6722,0,0,0,0,0,0,0,-1,1238,463,6.73596,49.6722
21,561,6.8866,-50.4681,0,0,0,0,0,0,0,-1,1245,463,6.88658,50.4682
28,561,11.9938,-51.3593,0,0,0,0,0,0,0,-1,1252,463,11.9938,51.3592
35,561,10.9178,-51.1209,0,0,0,0,0,0,0,-1,1259,463,10.9178,51.1209
42,561,9.86218,-50.8429,0,0,0,0,0,0,0,-1,1266,463,9.86224,50.8429
49,561,8.25305,-50.2869,0,0,0,0,0,0,0,-1,1273,463,8.25301,50.2869
56,561,7.64343,-50.3539,0,0,0,0,0,0,0,-1,1280,463,7.64345,50.3539
63,561,7.07458,-50.3858,0,0,0,0,0,0,0,-1,1287,463,7.07462,50.3858
70,561,6.37793,-50.544,0,0,0,0,0,0,0,-1,1294,463,6.37794,50.544
77,561,5.96265,-50.5908,0,0,0,0,0,0,0,-1,1301,463,5.96259,50.5908
84,561,5.35828,-50.4224,0,0,0,0,0,0,0,-1,1308,463,5.35828,50.4224
91,561,4.96045,-50.2067,0,0,0,0,0,0,0,-1,1315,463,4.96044,50.2067
98,561,4.23865,-49.5935,0,0,0,0,0,0,0,-1,1322,463,4.23861,49.5935
105,561,3.59375,-49.2784,0,0,0,0,0,0,0,-1,1329,463,3.59373,49.2784
112,561,2.96436,-48.9411,0,0,0,0,0,0,0,-1,1336,463,2.96436,48.9411
119,561,8.55322,-47.841,0,0,0,0,0,0,0,-1,1343,463,8.55321,47.841
126,561,8.97144,-47.6255,0,0,0,0,0,0,0,-1,1350,463,8.97139,47.6255
133,561,9.34473,-47.1122,0,0,0,0,0,0,0,-1,1357,463,9.3447,47.1122
140,561,9.69604,-46.6674,0,0,0,0,0,0,0,-1,1364,463,9.69601,46.6674
147,561,10.1165,-46.6434,0,0,0,0,0,0,0,-1,1371,463,10.1164,46.6434
154,561,10.8088,-46.4652,0,0,0,0,0,0,0,-1,1378,463,10.8089,46.4653
161,561,11.4078,-46.0738,0,0,0,0,0,0,0,-1,1385,463,11.4079,46.0738
168,561,11.7057,-58.3809,0,0,0,0,0,0,0,-1,1392,463,11.7057,58.3809
175,561,10.4185,0.276398,0,0,0,0,0,0,0,-1,1399,463,10.4185,-0.276394
182,561,6.45703,-4.02127,0,0,0,0,0,0,0,-1,1406,463,6.45704,4.02127
189,561,6.50854,-2.08685,0,0,0,0,0,0,0,-1,1413,463,6.50851,2.08686
196,561,6.44775,-0.27182,0,0,0,0,0,0,0,-1,1420,463,6.44773,0.271814
203,561,6.18591,1.1301,0,0,0,0,0,0,0,-1,1427,463,6.18592,-1.13009
210,561,5.68713,2.68427,0,0,0,0,0,0,0,-1,1434,463,5.6871,-2.68425
217,561,3.61743,-7.33582,0,0,0,0,0,0,0,-1,1441,463,3.61738,7.33581
224,561,4.27466,-8.59171,0,0,0,0,0,0,0,-1,1448,463,4.27466,8.59171
231,561,4.93188,-9.8476,0,0,0,0,0,0,0,-1,1455,463,4.93193,9.84761
238,561,2.18018,-5.18359,0,0,0,0,0,0,0,-1,1462,463,2.18023,5.18359
245,561,3.07568,-3.50238,0,0,0,0,0,0,0,-1,1469,463,3.0757,3.50238
252,561,3.47412,-3.71109,0,0,0,0,0,0,0,-1,1476,463,3.47413,3.71109
259,561,3.42212,-3.2334,0,0,0,0,0,0,0,-1,1483,463,3.42214,3.2334
266,561,4.44373,-5.90027,0,0,0,0,0,0,0,-1,1490,463,4.44372,5.90026
273,561,2.59485,-3.65268,0,0,0,0,0,0,0,-1,1497,463,2.5948,3.65268
280,561,11.1749,-43.713,0,0,0,0,0,0,0,-1,1504,463,11.175,43.713
287,561,11.6042,-42.4583,0,0,0,0,0,0,0,-1,1511,463,11.6042,42.4583
294,561,11.5969,-41.9123,0,0,0,0,0,0,0,-1,1518,463,11.597,41.9123
301,561,11.4053,-41.3434,0.00857871,-0.0128472,-0.00195058,0.00875484,-0.0130234,-0.0900519,0.0126539,0.0443529,1525,463,11.4053,41.3433
308,561,11.5793,-40.9,0.00728006,-0.011977,-0.00240035,0.00757475,-0.0122717,-0.122158,0.0115648,0.0312159,1532,463,11.5794,40.9
315,561,11.6288,-40.4505,0.00607762,-0.0108373,-0.00266461,0.00648744,-0.0112471,-0.152608,0.0103613,0.0182776,1539,463,11.6288,40.4505
322,561,11.6234,-39.9231,0.00508276,-0.00944882,-0.00268732,0.00556381,-0.00992986,-0.177128,0.00906289,0.0157606,1546,463,11.6234,39.9231
329,561,11.6514,-39.3433,0.00406873,-0.00793875,-0.00268316,0.00464102,-0.00851105,-0.210142,0.00770215,0.0122253,1553,463,11.6514,39.3433
336,561,11.6636,-38.725,0.00302637,-0.0066266,-0.00270692,0.00373364,-0.00733386,-0.255567,0.00650154,0.0116655,1560,463,11.6636,38.725
343,561,11.6509,-38.1324,0.00218131,-0.00494131,-0.00236935,0.00289747,-0.00565747,-0.293529,0.00502415,0.0110069,1567,463,11.6508,38.1324
350,561,11.6271,-37.5041,0.00153145,-0.00355761,-0.00194099,0.00218724,-0.0042134,-0.325824,0.00375662,0.0102187,1574,463,11.627,37.5041
357,561,11.6187,-36.861,0.000999369,-0.00203851,-0.0014494,0.00157994,-0.00261908,-0.380988,0.00244893,0.0102996,1581,463,11.6186,36.861
364,561,11.6084,-36.2502,0.000665757,-0.000743341,-0.000812109,0.00103634,-0.00111393,-0.428099,0.00124173,0.00966561,1588,463,11.6083,36.2502
371,561,11.5707,-35.6041,0.000446845,0.00049867,-0.000183411,0.00065799,0.000287526,-0.855574,0.000380895,0.0166183,1595,463,11.5707,35.6041
378,561,11.5355,-34.9451,0.000246365,0.00172548,0.000449974,0.00185162,0.000120231,1.2975,0.00119635,0.0127475,1602,463,11.5355,34.9451
385,561,11.5219,-34.2713,0.000360973,0.00292598,0.00100808,0.00327475,1.22045e-05,1.23771,0.00217911,0.0102438,1609,463,11.5218,34.2713
392,561,11.5065,-33.5968,0.00111621,0.00421687,0.00156012,0.00486597,0.00046711,1.17652,0.00310003,0.0140506,1616,463,11.5065,33.5968
399,561,11.4679,-32.9692,0.00245492,0.00538063,0.00248236,0.00679911,0.00103645,1.05166,0.0042298,0.0211975,1623,463,11.4679,32.9692
406,561,11.4537,-32.2766,0.00357321,0.00666034,0.00310592,0.00858511,0.00164844,1.01601,0.00526073,0.0192157,1630,463,11.4537,32.2766
413,561,11.4011,-31.5684,0.00489301,0.00792532,0.00362552,0.0103389,0.00247939,0.983442,0.00623277,0.0172433,1637,463,11.4012,31.5684
420,561,11.3329,-30.8444,0.00650146,0.00900539,0.00423084,0.0121656,0.00334123,0.92925,0.00725773,0.0139166,1644,463,11.3328,30.8444
427,561,11.3147,-30.1241,0.00827167,0.00975388,0.00500074,0.0140681,0.00395742,0.858962,0.00837721,0.0110887,1651,463,11.3147,30.1241
434,561,11.3044,-29.4113,0.0101421,0.0106596,0.00578121,0.0161879,0.00461385,0.807763,0.00962972,0.0121611,1658,463,11.3045,29.4112
441,561,11.3181,-28.6907,0.0118612,0.0113139,0.0066165,0.0182097,0.00496539,0.76473,0.0108695,0.0153006,1665,463,11.3181,28.6907
448,561,11.3314,-27.9234,0.0132322,0.0116243,0.00753634,0.0200073,0.00484913,0.73226,0.0120515,0.0244235,1672,463,11.3315,27.9234
455,561,11.1768,-27.1444,0.0141977,0.0113851,0.00841978,0.0213278,0.00425497,0.70265,0.0130338,0.0445348,1679,463,11.1767,27.1444
462,561,10.8381,-26.481,0.0147428,0.0110775,0.0094545,0.0225406,0.00327967,0.689667,0.0140619,0.0439805,1686,463,10.8381,26.481
469,561,10.8663,-25.8218,0.014791,0.0103489,0.0104723,0.0232752,0.00186472,0.680902,0.0149341,0.0298486,1693,463,10.8663,25.8218
476,561,10.8412,-25.063,0.0157741,0.00936858,0.0121868,0.0251719,-2.92528e-05,0.656901,0.0167911,0.0438733,1700,463,10.8411,25.063
483,561,10.8164,-24.2234,0,0,0,0,0,0,0,-1,1707,463,10.8164,24.2234
490,561,11.1727,-23.2773,0,0,0,0,0,0,0,-1,1714,463,11.1727,23.2773
497,561,11.3352,-22.4206,0,0,0,0,0,0,0,-1,1721,463,11.3352,22.4206
504,561,10.0769,-0.811401,0,0,0,0,0,0,0,-1,1728,463,10.0769,0.8114
511,561,0,0,0,0,0,0,0,0,0,-1,1735,463,0,0
518,561,0,0,0,0,0,0,0,0,0,-1,1742,463,0,0
525,561,0,0,0,0,0,0,0,0,0,-1,1749,463,0,0
532,561,0,0,0,0,0,0,0,0,0,-1,1756,463,0,0
539,561,0,0,0,0,0,0,0,0,0,-1,1763,463,0,0
546,561,0,0,0,0,0,0,0,0,0,-1,1770,463,0,0
553,561,0,0,0,0,0,0,0,0,0,-1,1777,463,0,0
560,561,0,0,0,0,0,0,0,0,0,-1,1784,463,0,0
567,561,0,0,0,0,0,0,0,0,0,-1,1791,463,0,0
574,561,0,0,0,0,0,0,0,0,0,-1,1798,463,0,0
581,561,0,0,0,0,0,0,0,0,0,-1,1805,463,0,0
588,561,0,0,0,0,0,0,0,0,0,-1,1812,463,0,0
595,561,0,0,0,0,0,0,0,0,0,-1,1819,463,0,0
602,561,0,0,0,0,0,0,0,0,0,-1,1826,463,0,0
609,561,0,0,0,0,0,0,0,0,0,-1,1833,463,0,0
616,561,0,0,0,0,0,0,0,0,0,-1,1840,463,0,0
623,561,0,0,0,0,0,0,0,0,0,-1,1847,463,0,0
630,561,0,0,0,0,0,0,0,0,0,-1,1854,463,0,0
637,561,0,0,0,0,0,0,0,0,0,-1,1861,463,0,0
644,561,0,0,0,0,0,0,0,0,0,-1,1868,463,0,0
651,561,0,0,0,0,0,0,0,0,0,-1,1875,463,0,0
658,561,0,0,0,0,0,0,0,0,0,-1,1882,463,0,0
665,561,0,0,0,0,0,0,0,0,0,-1,1889,463,0,0
672,561,0,0,0,0,0,0,0,0,0,-1,1896,463,0,0
679,561,0,0,0,0,0,0,0,0,0,-1,1903,463,0,0
686,561,0,0,0,0,0,0,0,0,0,-1,1910,463,0,0
693,561,0,0,0,0,0,0,0,0,0,-1,1917,463,0,0
700,561,0,0,0,0,0,0,0,0,0,-1,1924,463,0,0
707,561,0,0,0,0,0,0,0,0,0,-1,1931,463,0,0
714,561,0,0,0,0,0,0,0,0,0,-1,1938,463,0,0
721,561,0,0,0,0,0,0,0,0,0,-1,1945,463,0,0
728,561,0,0,0,0,0,0,0,0,0,-1,1952,463,0,0
735,561,0,0,0,0,0,0,0,0,0,-1,1959,463,0,0
742,561,0,0,0,0,0,0,0,0,0,-1,1966,463,0,0
749,561,0,0,0,0,0,0,0,0,0,-1,1973,463,0,0
756,561,0,0,0,0,0,0,0,0,0,-1,1980,463,0,0
763,561,0,0,0,0,0,0,0,0,0,-1,1987,463,0,0
770,561,0,0,0,0,0,0,0,0,0,-1,1994,463,0,0
777,561,0,0,0,0,0,0,0,0,0,-1,2001,463,0,0
784,561,0,0,0,0,0,0,0,0,0,-1,2008,463,0,0
791,561,0,0,0,0,0,0,0,0,0,-1,2015,463,0,0
798,561,0,0,0,0,0,0,0,0,0,-1,2022,463,0,0
805,561,0,0,0,0,0,0,0,0,0,-1,2029,463,0,0
812,561,0,0,0,0,0,0,0,0,0,-1,2036,463,0,0
-700,554,0,0,0,0,0,0,0,0,0,-1,524,470,0,0
-693,554,0,0,0,0,0,0,0,0,0,-1,531,470,0,0
-686,554,0,0,0,0,0,0,0,0,0,-1,538,470,0,0
-679,554,0,0,0,0,0,0,0,0,0,-1,545,470,0,0
-672,554,0,0,0,0,0,0,0,0,0,-1,552,470,0,0
-665,554,0,0,0,0,0,0,0,0,0,-1,559,470,0,0
-658,554,0,0,0,0,0,0,0,0,0,-1,566,470,0,0
-651,554,0,0,0,0,0,0,0,0,0,-1,573,470,0,0
-644,554,0,0,0,0,0,0,0,0,0,-1,580,470,0,0
-637,554,0,0,0,0,0,0,0,0,0,-1,587,470,0,0
-630,554,0,0,0,0,0,0,0,0,0,-1,594,470,0,0
-623,554,0,0,0,0,0,0,0,0,0,-1,601,470,0,0
-616,554,0,0,0,0,0,0,0,0,0,-1,608,470,0,0
-609,554,0,0,0,0,0,0,0,0,0,-1,615,470,0,0
-602,554,0,0,0,0,0,0,0,0,0,-1,622,470,0,0
-595,554,0,0,0,0,0,0,0,0,0,-1,629,470,0,0
-588,554,0,0,0,0,0,0,0,0,0,-1,636,470,0,0
-581,554,0,0,0,0,0,0,0,0,0,-1,643,470,0,0
-574,554,0,0,0,0,0,0,0,0,0,-1,650,470,0,0
-567,554,0,0,0,0,0,0,0,0,0,-1,657,470,0,0
-560,554,0,0,0,0,0,0,0,0,0,-1,664,470,0,0
-553,554,0,0,0,0,0,0,0,0,0,-1,671,470,0,0
-546,554,0,0,0,0,0,0,0,0,0,-1,678,470,0,0
-539,554,0,0,0,0,0,0,0,0,0,-1,685,470,0,0
-532,554,0,0,0,0,0,0,0,0,0,-1,692,470,0,0
-525,554,0,0,0,0,0,0,0,0,0,-1,699,470,0,0
-518,554,0,0,0,0,0,0,0,0,0,-1,706,470,0,0
-511,554,0,0,0,0,0,0,0,0,0,-1,713,470,0,0
-504,554,0,0,0,0,0,0,0,0,0,-1,720,470,0,0
-497,554,0,0,0,0,0,0,0,0,0,-1,727,470,0,0
-490,554,0,0,0,0,0,0,0,0,0,-1,734,470,0,0
-483,554,0,0,0,0,0,0,0,0,0,-1,741,470,0,0
-476,554,0,0,0,0,0,0,0,0,0,-1,748,470,0,0
-469,554,0,0,0,0,0,0,0,0,0,-1,755,470,0,0
-462,554,0,0,0,0,0,0,0,0,0,-1,762,470,0,0
-455,554,0,0,0,0,0,0,0,0,0,-1,769,470,0,0
-448,554,0,0,0,0,0,0,0,0,0,-1,776,470,0,0
-441,554,0,0,0,0,0,0,0,0,0,-1,783,470,0,0
-434,554,0,0,0,0,0,0,0,0,0,-1,790,470,0,0
-427,554,0,0,0,0,0,0,0,0,0,-1,797,470,0,0
-420,554,0,0,0,0,0,0,0,0,0,-1,804,470,0,0
-413,554,0,0,0,0,0,0,0,0,0,-1,811,470,0,0
-406,554,0,0,0,0,0,0,0,0,0,-1,818,470,0,0
-399,554,-1.32275,-3.95142,0,0,0,0,0,0,0,-1,825,470,-1.32275,3.95141
-392,554,-1.35632,-3.7406,0,0,0,0,0,0,0,-1,832,470,-1.35632,3.7406
-385,554,-0.849243,-4.14447,0,0,0,0,0,0,0,-1,839,470,-0.849262,4.14446
-378,554,1.64551,-21.6152,0,0,0,0,0,0,0,-1,846,470,1.64549,21.6152
-371,554,1.5766,-22.7086,0,0,0,0,0,0,0,-1,853,470,1.57663,22.7086
-364,554,1.66736,-23.595,0,0,0,0,0,0,0,-1,860,470,1.66734,23.595
-357,554,2.00397,-24.29,0,0,0,0,0,0,0,-1,867,470,2.00394,24.29
-350,554,1.17157,-18.1341,0,0,0,0,0,0,0,-1,874,470,1.17156,18.1341
-343,554,1.46075,-26.2333,0,0,0,0,0,0,0,-1,881,470,1.46076,26.2333
-336,554,1.62024,-27.3045,0.0065641,0.0187713,-0.00604052,0.021255,0.00408039,-1.18069,0.0130247,0.0421513,888,470,1.62024,27.3045
-329,554,1.44733,-28.1042,0.00408395,0.0153604,-0.00538741,0.0175205,0.00192385,-1.18947,0.0110948,0.0219698,895,470,1.44734,28.1042
-322,554,1.35889,-28.8297,0.00223027,0.0124284,-0.00468633,0.0142548,0.000403864,-1.19917,0.0093715,0.0143759,902,470,1.35888,28.8296
-315,554,1.35364,-29.507,0.000997419,0.0100088,-0.00403829,0.0115536,-0.000547434,-1.20542,0.00789122,0.013847,909,470,1.35364,29.507
-308,554,1.32556,-30.2086,-0.000184104,0.00797912,-0.00364386,0.00936901,-0.00157399,-1.2064,0.00683138,0.0140032,916,470,1.32554,30.2085
-301,554,1.29858,-30.9137,-0.000613612,0.00637168,-0.00330888,0.00769019,-0.00193213,-1.1916,0.00587766,0.0135404,923,470,1.29859,30.9137
-294,554,1.23438,-31.5926,-0.000404711,0.00505786,-0.00272746,0.00618649,-0.00153334,-1.17845,0.00471922,0.0118025,930,470,1.23438,31.5926
-287,554,1.1839,-32.2741,-0.000184255,0.00400072,-0.00217667,0.00492758,-0.00111111,-1.16824,0.00371128,0.012105,937,470,1.18388,32.2741
-280,554,1.12665,-32.9381,-2.09991e-05,0.00291586,-0.00171266,0.00370342,-0.000808563,-1.13978,0.00277797,0.0127573,944,470,1.12666,32.9381
-273,554,1.09076,-33.5972,2.91916e-05,0.00182388,-0.00110673,0.00235134,-0.000498274,-1.12605,0.00175736,0.0159085,951,470,1.09076,33.5972
-266,554,1.07446,-34.2436,3.66279e-05,0.000311682,-0.000291826,0.000496763,-0.000148454,-1.0056,0.00039019,0.0123705,958,470,1.07447,34.2436
-259,554,1.05536,-34.8477,8.59165e-05,-0.00154144,0.000597779,0.000281897,-0.00173743,0.316806,0.00126278,0.0124882,965,470,1.05533,34.8477
-252,554,0.997375,-35.4742,0.000144151,-0.00355314,0.00163099,0.00076079,-0.00416978,0.361465,0.00306508,0.0149574,972,470,0.997349,35.4742
-245,554,0.969055,-36.1176,0.000232666,-0.00570931,0.00272972,0.0012963,-0.00677294,0.371551,0.00500368,0.0156389,979,470,0.969051,36.1176
-238,554,1.00024,-36.7605,0.000389328,-0.00821849,0.00378578,0.00181742,-0.00964658,0.360719,0.00711466,0.0118174,986,470,1.00025,36.7605
-231,554,0.998047,-37.3987,0.000549137,-0.0109955,0.00480468,0.00228712,-0.0127335,0.347084,0.00934512,0.0107991,993,470,0.998049,37.3987
-224,554,0.99292,-37.9913,0.000729788,-0.0138566,0.005848,0.00278485,-0.0159116,0.337932,0.0116476,0.0111884,1000,470,0.992919,37.9913
-217,554,0.990784,-38.5717,0.00104383,-0.016882,0.00678015,0.00331943,-0.0191576,0.323814,0.0140099,0.0111334,1007,470,0.990758,38.5717
-210,554,0.992554,-39.1446,0.00149186,-0.0198904,0.00750189,0.00386131,-0.0222598,0.305931,0.0162803,0.0146666,1014,470,0.992548,39.1446
-203,554,0.990479,-39.649,0.00204027,-0.0226231,0.00800755,0.00441204,-0.0249948,0.287959,0.0183119,0.0239896,1021,470,0.990474,39.649
-196,554,1.0293,-40.1112,0.00262867,-0.0248621,0.00833225,0.00495693,-0.0271903,0.272478,0.0199852,0.0323699,1028,470,1.02925,40.1112
-189,554,1.3252,-40.4384,0.00303127,-0.0270991,0.00883099,0.00542879,-0.0294966,0.2651,0.0217015,0.0368759,1035,470,1.32523,40.4384
-182,554,1.25134,-40.9277,0.00345488,-0.0292843,0.00967673,0.00610115,-0.0319306,0.26694,0.0235853,0.0499058,1042,470,1.25131,40.9277
-175,554,1.14771,-41.252,0,0,0,0,0,0,0,-1,1049,470,1.14769,41.252
-168,554,1.92175,-41.0667,0,0,0,0,0,0,0,-1,1056,470,1.92179,41.0667
-161,554,1.09583,-42.015,0,0,0,0,0,0,0,-1,1063,470,1.09577,42.015
-154,554,1.03186,-42.7216,0,0,0,0,0,0,0,-1,1070,470,1.03187,42.7216
-147,554,1.4552,-41.5187,0,0,0,0,0,0,0,-1,1077,470,1.45525,41.5187
-140,554,0.428101,-38.9893,0,0,0,0,0,0,0,-1,1084,470,0.428152,38.9893
-133,554,2.67163,-32.8187,0,0,0,0,0,0,0,-1,1091,470,2.67161,32.8187
-126,554,0.851929,-33.5393,0,0,0,0,0,0,0,-1,1098,470,0.851942,33.5393
-119,554,-1.03479,-32.1628,0,0,0,0,0,0,0,-1,1105,470,-1.03476,32.1628
-112,554,1.03162,-24.5784,0,0,0,0,0,0,0,-1,1112,470,1.03156,24.5784
-105,554,0.608765,-21.0475,0,0,0,0,0,0,0,-1,1119,470,0.608728,21.0475
-98,554,1.51929,-7.3624,0,0,0,0,0,0,0,-1,1126,470,1.51928,7.36241
-91,554,1.41089,-6.5864,0,0,0,0,0,0,0,-1,1133,470,1.41093,6.58638
-84,554,1.62305,-5.87186,0,0,0,0,0,0,0,-1,1140,470,1.62299,5.87186
-77,554,-2.56958,1.33258,0,0,0,0,0,0,0,-1,1147,470,-2.56959,-1.33257
-70,554,-3.68164,-1.18332,0,0,0,0,0,0,0,-1,1154,470,-3.68158,1.18331
-63,554,-4.86853,-3.88708,0,0,0,0,0,0,0,-1,1161,470,-4.86853,3.88708
-56,554,-5.69958,-6.45422,0,0,0,0,0,0,0,-1,1168,470,-5.69955,6.45422
-49,554,-6.23645,-8.8569,0,0,0,0,0,0,0,-1,1175,470,-6.23643,8.85689
-42,554,-6.62524,-11.5382,0,0,0,0,0,0,0,-1,1182,470,-6.62522,11.5382
-35,554,-2.40173,-4.59482,0,0,0,0,0,0,0,-1,1189,470,-2.40169,4.59481
-28,554,-0.760132,-1.65555,0,0,0,0,0,0,0,-1,1196,470,-0.760095,1.65556
-21,554,7.92444,-43.2634,0,0,0,0,0,0,0,-1,1203,470,7.92438,43.2634
-14,554,6.60962,-45.3305,0,0,0,0,0,0,0,-1,1210,470,6.60957,45.3305
-7,554,9.30151,-45.2542,0,0,0,0,0,0,0,-1,1217,470,9.30148,45.2542
0,554,6.27209,-48.9266,0,0,0,0,0,0,0,-1,1224,470,6.27205,48.9267
7,554,6.16516,-49.4802,0,0,0,0,0,0,0,-1,1231,470,6.16521,49.4802
14,554,6.09497,-50.025,0,0,0,0,0,0,0,-1,1238,470,6.09494,50.025
21,554,6.33008,-50.5413,0,0,0,0,0,0,0,-1,1245,470,6.33011,50.5412
28,554,11.7427,-51.8953,0,0,0,0,0,0,0,-1,1252,470,11.7427,51.8953
35,554,11.125,-51.3237,0,0,0,0,0,0,0,-1,1259,470,11.125,51.3237
42,554,10.3654,-50.6928,0,0,0,0,0,0,0,-1,1266,470,10.3654,50.6928
49,554,9.25696,-50.4317,0,0,0,0,0,0,0,-1,1273,470,9.25694,50.4317
56,554,8.23267,-50.3398,0,0,0,0,0,0,0,-1,1280,470,8.23263,50.3399
63,554,7.57153,-50.4425,0,0,0,0,0,0,0,-1,1287,470,7.57157,50.4425
70,554,7.16382,-50.5269,0,0,0,0,0,0,0,-1,1294,470,7.16384,50.5269
77,554,6.71387,-50.4722,0,0,0,0,0,0,0,-1,1301,470,6.7139,50.4721
84,554,5.65613,-50.4207,0,0,0,0,0,0,0,-1,1308,470,5.65616,50.4206
91,554,5.01965,-50.5109,0,0,0,0,0,0,0,-1,1315,470,5.01966,50.511
98,554,4.72717,-49.72,0,0,0,0,0,0,0,-1,1322,470,4.72717,49.72
105,554,3.9408,-49.3907,0,0,0,0,0,0,0,-1,1329,470,3.94075,49.3908
112,554,3.13293,-49.0298,0,0,0,0,0,0,0,-1,1336,470,3.13294,49.0298
119,554,8.52356,-47.8558,0,0,0,0,0,0,0,-1,1343,470,8.52359,47.8558
126,554,9.13037,-47.6738,0,0,0,0,0,0,0,-1,1350,470,9.13033,47.6738
133,554,9.8031,-47.3206,0,0,0,0,0,0,0,-1,1357,470,9.80311,47.3206
140,554,10.4784,-47.0154,0,0,0,0,0,0,0,-1,1364,470,10.4783,47.0154
147,554,10.7644,-46.7118,0,0,0,0,0,0,0,-1,1371,470,10.7644,46.7118
154,554,11.4739,-46.3969,0,0,0,0,0,0,0,-1,1378,470,11.4738,46.3968
161,554,12.1469,-45.9341,0,0,0,0,0,0,0,-1,1385,470,12.1468,45.9341
168,554,7.63,-45.2673,0,0,0,0,0,0,0,-1,1392,470,7.63001,45.2673
175,554,10.663,0.286957,0,0,0,0,0,0,0,-1,1399,470,10.663,-0.286966
182,554,6.71106,-4.50217,0,0,0,0,0,0,0,-1,1406,470,6.71107,4.50215
189,554,6.90479,-2.50348,0,0,0,0,0,0,0,-1,1413,470,6.90477,2.50348
196,554,6.96216,-0.740906,0,0,0,0,0,0,0,-1,1420,470,6.96214,0.740912
203,554,6.43518,0.414154,0,0,0,0,0,0,0,-1,1427,470,6.43523,-0.414141
210,554,6.21167,1.96707,0,0,0,0,0,0,0,-1,1434,470,6.21165,-1.96706
217,554,5.64551,3.4989,0,0,0,0,0,0,0,-1,1441,470,5.64555,-3.49891
224,554,4.85144,-8.85172,0,0,0,0,0,0,0,-1,1448,470,4.85146,8.85173
231,554,3.25073,-5.29642,0,0,0,0,0,0,0,-1,1455,470,3.25078,5.29642
238,554,4.28625,-3.25253,0,0,0,0,0,0,0,-1,1462,470,4.28622,3.25252
245,554,4.0752,-2.90033,0,0,0,0,0,0,0,-1,1469,470,4.07515,2.90032
252,554,3.52112,-0.934998,0,0,0,0,0,0,0,-1,1476,470,3.52113,0.934996
259,554,3.96448,-2.16425,0,0,0,0,0,0,0,-1,1483,470,3.96446,2.16424
266,554,3.0592,-2.71716,0,0,0,0,0,0,0,-1,1490,470,3.05923,2.71718
273,554,2.58521,-3.06876,0,0,0,0,0,0,0,-1,1497,470,2.58524,3.06874
280,554,2.83301,-0.991699,0,0,0,0,0,0,0,-1,1504,470,2.83303,0.991704
287,554,3.54126,-4.12277,0,0,0,0,0,0,0,-1,1511,470,3.54123,4.12277
294,554,3.62036,-8.50146,0,0,0,0,0,0,0,-1,1518,470,3.62031,8.50145
301,554,11.6992,-40.7576,0,0,0,0,0,0,0,-1,1525,470,11.6992,40.7576
308,554,12.124,-40.6468,0,0,0,0,0,0,0,-1,1532,470,12.1241,40.6468
315,554,12.0977,-40.2768,0.00712602,-0.0144513,-0.00378395,0.00777035,-0.0150956,-0.168664,0.0134256,0.0475104,1539,470,12.0976,40.2768
322,554,12.1021,-39.7073,0.00588649,-0.0126308,-0.00389659,0.00667304,-0.0134174,-0.199179,0.011815,0.0386202,1546,470,12.102,39.7073
329,554,12.2765,-39.1981,0.00465574,-0.0107084,-0.00396208,0.0056173,-0.0116699,-0.238087,0.0101827,0.0240219,1553,470,12.2765,39.1981
336,554,12.2761,-38.6751,0.00340262,-0.0091291,-0.00406625,0.00460639,-0.0103329,-0.28782,0.00883389,0.0140866,1560,470,12.2761,38.6751
343,554,12.2649,-38.1017,0.00240648,-0.00717333,-0.00372845,0.00368655,-0.0084534,-0.330715,0.00718685,0.0110602,1567,470,12.2649,38.1016
350,554,12.2682,-37.4563,0.0016597,-0.00576237,-0.00332802,0.00293339,-0.00703606,-0.365519,0.0059161,0.0100362,1574,470,12.2682,37.4563
357,554,12.2687,-36.8232,0.00106268,-0.00413095,-0.0028401,0.00231419,-0.00538247,-0.415058,0.00455985,0.011121,1581,470,12.2687,36.8232
364,554,12.2385,-36.2126,0.000691852,-0.002775,-0.0021863,0.00174853,-0.00383167,-0.450213,0.00329571,0.00897794,1588,470,12.2386,36.2125
371,554,12.2137,-35.5742,0.000457476,-0.00147938,-0.00155488,0.00132085,-0.00234275,-0.506879,0.00214244,0.00911723,1595,470,12.2137,35.5742
378,554,12.1981,-34.9028,0.000235706,-0.000195553,-0.000887026,0.000932936,-0.000892782,-0.666165,0.00105416,0.0111005,1602,470,12.1981,34.9028
385,554,12.1853,-34.2287,0.00020365,0.000951711,-0.000201173,0.00100238,0.000152981,-1.32406,0.000623546,0.0103579,1609,470,12.1853,34.2287
392,554,12.1812,-33.5579,0.000623143,0.00208429,0.000478589,0.00222709,0.00048034,1.28083,0.00135334,0.0133851,1616,470,12.1812,33.5579
399,554,12.1558,-32.8806,0.00146501,0.00314044,0.0012747,0.00382806,0.000777397,1.0761,0.00233642,0.0183339,1623,470,12.1558,32.8806
406,554,12.0935,-32.1964,0.00225044,0.00427084,0.00188794,0.00540186,0.00111942,1.03106,0.00329217,0.0170587,1630,470,12.0935,32.1964
413,554,12.092,-31.5008,0.00319198,0.0054271,0.00244941,0.00700185,0.00161723,0.99942,0.00423308,0.0153512,1637,470,12.092,31.5008
420,554,12.0437,-30.8186,0.00433056,0.00636943,0.00304356,0.00855975,0.00214025,0.947,0.00514371,0.0160327,1644,470,12.0437,30.8186
427,554,12.0067,-30.1255,0.00557266,0.00705421,0.00375997,0.0101457,0.00248119,0.882661,0.00610711,0.0122661,1651,470,12.0067,30.1254
434,554,11.9617,-29.4395,0.00688513,0.00781156,0.00448538,0.0118576,0.00283912,0.836852,0.00714913,0.010788,1658,470,11.9617,29.4395
441,554,11.9545,-28.7328,0.00806277,0.00841286,0.00526806,0.0135088,0.00296685,0.802005,0.00819786,0.0120819,1665,470,11.9545,28.7327
448,554,11.9116,-27.9719,0.00897144,0.00872738,0.00608487,0.0149355,0.00276332,0.775372,0.00917566,0.0185028,1672,470,11.9116,27.9719
455,554,11.8234,-27.2621,0.00958176,0.00866986,0.00686517,0.0160061,0.00224552,0.752239,0.0100066,0.0206461,1679,470,11.8234,27.2621
462,554,11.7053,-26.5435,0.00998626,0.00856798,0.00775703,0.0170665,0.00148774,0.739815,0.0109156,0.0229127,1686,470,11.7054,26.5435
469,554,11.6091,-25.8369,0.0101309,0.00824313,0.008638,0.0178764,0.000497605,0.730978,0.0117553,0.0268919,1693,470,11.6091,25.837
476,554,11.6006,-24.7244,0.0112414,0.00787895,0.0103184,0.0200146,-0.000894249,0.704639,0.0136509,0.046018,1700,470,11.6006,24.7244
483,554,11.5985,-23.5931,0,0,0,0,0,0,0,-1,1707,470,11.5986,23.5931
490,554,12.1349,-23.101,0,0,0,0,0,0,0,-1,1714,470,12.1349,23.101
497,554,11.4208,1.03592,0,0,0,0,0,0,0,-1,1721,470,11.4208,-1.03593
504,554,2.13257,-3.81628,0,0,0,0,0,0,0,-1,1728,470,2.1326,3.8163
511,554,1.31396,-4.02713,0,0,0,0,0,0,0,-1,1735,470,1.31398,4.02712
518,554,5.04236,-5.9472,0,0,0,0,0,0,0,-1,1742,470,5.04231,5.94721
525,554,0,0,0,0,0,0,0,0,0,-1,1749,470,0,0
532,554,0,0,0,0,0,0,0,0,0,-1,1756,470,0,0
539,554,0,0,0,0,0,0,0,0,0,-1,1763,470,0,0
546,554,0,0,0,0,0,0,0,0,0,-1,1770,470,0,0
553,554,0,0,0,0,0,0,0,0,0,-1,1777,470,0,0
560,554,0,0,0,0,0,0,0,0,0,-1,1784,470,0,0
567,554,0,0,0,0,0,0,0,0,0,-1,1791,470,0,0
574,554,0,0,0,0,0,0,0,0,0,-1,1798,470,0,0
581,554,0,0,0,0,0,0,0,0,0,-1,1805,470,0,0
588,554,0,0,0,0,0,0,0,0,0,-1,1812,470,0,0
595,554,0,0,0,0,0,0,0,0,0,-1,1819,470,0,0
602,554,0,0,0,0,0,0,0,0,0,-1,1826,470,0,0
609,554,0,0,0,0,0,0,0,0,0,-1,1833,470,0,0
616,554,0,0,0,0,0,0,0,0,0,-1,1840,470,0,0
623,554,0,0,0,0,0,0,0,0,0,-1,1847,470,0,0
630,554,0,0,0,0,0,0,0,0,0,-1,1854,470,0,0
637,554,0,0,0,0,0,0,0,0,0,-1,1861,470,0,0
644,554,0,0,0,0,0,0,0,0,0,-1,1868,470,0,0
651,554,0,0,0,0,0,0,0,0,0,-1,1875,470,0,0
658,554,0,0,0,0,0,0,0,0,0,-1,1882,470,0,0
665,554,0,0,0,0,0,0,0,0,0,-1,1889,470,0,0
672,554,0,0,0,0,0,0,0,0,0,-1,1896,470,0,0
679,554,0,0,0,0,0,0,0,0,0,-1,1903,470,0,0
686,554,0,0,0,0,0,0,0,0,0,-1,1910,470,0,0
693,554,0,0,0,0,0,0,0,0,0,-1,1917,470,0,0
700,554,0,0,0,0,0,0,0,0,0,-1,1924,470,0,0
707,554,0,0,0,0,0,0,0,0,0,-1,1931,470,0,0
714,554,0,0,0,0,0,0,0,0,0,-1,1938,470,0,0
721,554,0,0,0,0,0,0,0,0,0,-1,1945,470,0,0
728,554,0,0,0,0,0,0,0,0,0,-1,1952,470,0,0
735,554,0,0,0,0,0,0,0,0,0,-1,1959,470,0,0
742,554,0,0,0,0,0,0,0,0,0,-1,1966,470,0,0
749,554,0,0,0,0,0,0,0,0,0,-1,1973,470,0,0
756,554,0,0,0,0,0,0,0,0,0,-1,1980,470,0,0
763,554,0,0,0,0,0,0,0,0,0,-1,1987,470,0,0
770,554,0,0,0,0,0,0,0,0,0,-1,1994,470,0,0
777,554,0,0,0,0,0,0,0,0,0,-1,2001,470,0,0
784,554,0,0,0,0,0,0,0,0,0,-1,2008,470,0,0
791,554,0,0,0,0,0,0,0,0,0,-1,2015,470,0,0
798,554,0,0,0,0,0,0,0,0,0,-1,2022,470,0,0
805,554,0,0,0,0,0,0,0,0,0,-1,2029,470,0,0
812,554,0,0,0,0,0,0,0,0,0,-1,2036,470,0,0
-700,547,0,0,0,0,0,0,0,0,0,-1,524,477,0,0
-693,547,0,0,0,0,0,0,0,0,0,-1,531,477,0,0
-686,547,0,0,0,0,0,0,0,0,0,-1,538,477,0,0
-679,547,0,0,0,0,0,0,0,0,0,-1,545,477,0,0
-672,547,0,0,0,0,0,0,0,0,0,-1,552,477,0,0
-665,547,0,0,0,0,0,0,0,0,0,-1,559,477,0,0
-658,547,0,0,0,0,0,0,0,0,0,-1,566,477,0,0
-651,547,0,0,0,0,0,0,0,0,0,-1,573,477,0,0
-644,547,0,0,0,0,0,0,0,0,0,-1,580,477,0,0
-637,547,0,0,0,0,0,0,0,0,0,-1,587,477,0,0
-630,547,0,0,0,0,0,0,0,0,0,-1,594,477,0,0
-623,547,0,0,0,0,0,0,0,0,0,-1,601,477,0,0
-616,547,0,0,0,0,0,0,0,0,0,-1,608,477,0,0
-609,547,0,0,0,0,0,0,0,0,0,-1,615,477,0,0
-602,547,0,0,0,0,0,0,0,0,0,-1,622,477,0,0
-595,547,0,0,0,0,0,0,0,0,0,-1,629,477,0,0
-588,547,0,0,0,0,0,0,0,0,0,-1,636,477,0,0
-581,547,0,0,0,0,0,0,0,0,0,-1,643,477,0,0
-574,547,0,0,0,0,0,0,0,0,0,-1,650,477,0,0
-567,547,0,0,0,0,0,0,0,0,0,-1,657,477,0,0
-560,547,0,0,0,0,0,0,0,0,0,-1,664,477,0,0
-553,547,0,0,0,0,0,0,0,0,0,-1,671,477,0,0
-546,547,0,0,0,0,0,0,0,0,0,-1,678,477,0,0
-539,547,0,0,0,0,0,0,0,0,0,-1,685,477,0,0
-532,547,0,0,0,0,0,0,0,0,0,-1,692,477,0,0
-525,547,0,0,0,0,0,0,0,0,0,-1,699,477,0,0
-518,547,0,0,0,0,0,0,0,0,0,-1,706,477,0,0
-511,547,0,0,0,0,0,0,0,0,0,-1,713,477,0,0
-504,547,0,0,0,0,0,0,0,0,0,-1,720,477,0,0
-497,547,0,0,0,0,0,0,0,0,0,-1,727,477,0,0
-490,547,0,0,0,0,0,0,0,0,0,-1,734,477,0,0
-483,547,0,0,0,0,0,0,0,0,0,-1,741,477,0,0
-476,547,0,0,0,0,0,0,0,0,0,-1,748,477,0,0
-469,547,0,0,0,0,0,0,0,0,0,-1,755,477,0,0
-462,547,0,0,0,0,0,0,0,0,0,-1,762,477,0,0
-455,547,0,0,0,0,0,0,0,0,0,-1,769,477,0,0
-448,547,0,0,0,0,0,0,0,0,0,-1,776,477,0,0
-441,547,0,0,0,0,0,0,0,0,0,-1,783,477,0,0
-434,547,0,0,0,0,0,0,0,0,0,-1,790,477,0,0
-427,547,0,0,0,0,0,0,0,0,0,-1,797,477,0,0
-420,547,0,0,0,0,0,0,0,0,0,-1,804,477,0,0
-413,547,0,0,0,0,0,0,0,0,0,-1,811,477,0,0
-406,547,0.144592,-11.0292,0,0,0,0,0,0,0,-1,818,477,0.144583,11.0292
-399,547,0.775513,-10.0294,0,0,0,0,0,0,0,-1,825,477,0.775482,10.0295
-392,547,-1.52271,-4.41675,0,0,0,0,0,0,0,-1,832,477,-1.52273,4.41674
-385,547,-1.73743,-4.6431,0,0,0,0,0,0,0,-1,839,477,-1.73743,4.64308
-378,547,1.79877,-21.2247,0,0,0,0,0,0,0,-1,846,477,1.79876,21.2247
-371,547,0.510376,-23.011,0,0,0,0,0,0,0,-1,853,477,0.510386,23.011
-364,547,0.827759,-23.7484,0.0222686,0.0358516,-0.0107493,0.0417751,0.016345,-1.06714,0.0243083,0.0477303,860,477,0.827747,23.7484
-357,547,1.13739,-24.4559,0.0168176,0.029557,-0.00915869,0.0343432,0.0120314,-1.08924,0.020122,0.0493623,867,477,1.13741,24.4559
-350,547,0.936218,-25.096,0,0,0,0,0,0,0,-1,874,477,0.936248,25.096
-343,547,0.816956,-26.3679,0.00826862,0.0197896,-0.00663798,0.0228181,0.00524014,-1.14277,0.013801,0.0447581,881,477,0.816978,26.3679
-336,547,0.866272,-27.3229,0.00554176,0.016169,-0.0056881,0.0186392,0.00307147,-1.16108,0.0115394,0.0189644,888,477,0.866245,27.3229
-329,547,0.751892,-28.0797,0.00350532,0.0129992,-0.00481154,0.0150113,0.00149324,-1.17472,0.00954877,0.0118525,895,477,0.751906,28.0798
-322,547,0.694641,-28.8026,0.00197953,0.0102369,-0.00395176,0.0118233,0.000393108,-1.18904,0.00775451,0.0120302,902,477,0.694613,28.8026
-315,547,0.652527,-29.5313,0.000972174,0.00795823,-0.00318722,0.0091938,-0.000263391,-1.20097,0.00621885,0.0110242,909,477,0.652533,29.5313
-308,547,0.655945,-30.2106,3.21984e-05,0.00611001,-0.00271032,0.00714306,-0.00100085,-1.20664,0.00512831,0.0121677,916,477,0.655926,30.2106
-301,547,0.624939,-30.9001,-0.000286924,0.00462281,-0.00232404,0.00554841,-0.00121252,-1.19178,0.0041624,0.0109097,923,477,0.624941,30.9002
-294,547,0.560242,-31.5611,-3.91551e-05,0.00341407,-0.00175321,0.00414814,-0.000773222,-1.17428,0.00305595,0.0092116,930,477,0.560267,31.5611
-287,547,0.517639,-32.2382,0.000231921,0.00239785,-0.00121241,0.00294055,-0.000310771,-1.14993,0.00207174,0.0110016,937,477,0.517614,32.2382
-280,547,0.489807,-32.9206,0.000264905,0.001141,-0.000707113,0.00153475,-0.000128851,-1.06271,0.00106871,0.0139432,944,477,0.489833,32.9206
-273,547,0.458008,-33.565,0.000174694,-0.000159157,2.96702e-05,0.000177311,-0.000161773,0.0879539,0.000195839,0.0137759,951,477,0.458019,33.565
-266,547,0.426147,-34.2067,8.63761e-05,-0.00186118,0.00102393,0.000525634,-0.00230044,0.405248,0.00173558,0.0128884,958,477,0.426141,34.2067
-259,547,0.393982,-34.8151,3.43338e-05,-0.00393668,0.00206157,0.000911047,-0.0048134,0.402095,0.00355178,0.0112018,965,477,0.393981,34.8151
-252,547,0.397217,-35.4541,-6.94203e-05,-0.00632353,0.00326341,0.0013233,-0.00771625,0.403366,0.00563728,0.0116347,972,477,0.39724,35.4541
-245,547,0.390198,-36.1089,-0.000191676,-0.00886077,0.0045827,0.00178166,-0.0108341,0.40661,0.00788402,0.0122189,979,477,0.390183,36.1089
-238,547,0.381592,-36.7441,-0.000195498,-0.0118049,0.00583992,0.00223383,-0.0142342,0.394211,0.010315,0.00873305,986,477,0.381607,36.7441
-231,547,0.371216,-37.362,-0.000162383,-0.0150509,0.00707739,0.002665,-0.0178782,0.380071,0.0128993,0.00837545,993,477,0.371196,37.362
-224,547,0.374023,-37.9294,-9.2694e-05,-0.0184625,0.00838434,0.00315862,-0.0217138,0.369932,0.0156355,0.0110531,1000,477,0.374001,37.9295
-217,547,0.379333,-38.4664,0.000144073,-0.0220746,0.00957084,0.00369824,-0.0256287,0.35557,0.0184426,0.0161166,1007,477,0.379337,38.4664
-210,547,0.387695,-38.9139,0.000577485,-0.025663,0.0104719,0.00424415,-0.0293297,0.336804,0.0211105,0.0268211,1014,477,0.387674,38.9139
-203,547,0.495056,-39.1436,0.0011392,-0.0289713,0.0110974,0.00478722,-0.0326194,0.3176,0.023505,0.040218,1021,477,0.495031,39.1436
-196,547,0.542603,-39.756,0,0,0,0,0,0,0,-1,1028,477,0.542641,39.7561
-189,547,1.05518,-39.8203,0,0,0,0,0,0,0,-1,1035,477,1.05516,39.8203
-182,547,0.774292,-40.4072,0,0,0,0,0,0,0,-1,1042,477,0.774257,40.4072
-175,547,0.609131,-38.4625,0,0,0,0,0,0,0,-1,1049,477,0.609102,38.4625
-168,547,0.761719,-32.9387,0,0,0,0,0,0,0,-1,1056,477,0.761738,32.9387
-161,547,0.0430908,-34.6016,0,0,0,0,0,0,0,-1,1063,477,0.0431231,34.6016
-154,547,-0.284424,-31.1176,0,0,0,0,0,0,0,-1,1070,477,-0.284395,31.1176
-147,547,3.69434,-26.413,0,0,0,0,0,0,0,-1,1077,477,3.69437,26.413
-140,547,1.55676,-22.5229,0,0,0,0,0,0,0,-1,1084,477,1.5568,22.5229
-133,547,2.31665,-17.9421,0,0,0,0,0,0,0,-1,1091,477,2.31667,17.9421
-126,547,-1.15271,-30.6984,0,0,0,0,0,0,0,-1,1098,477,-1.15267,30.6984
-119,547,0.967651,-24.9351,0,0,0,0,0,0,0,-1,1105,477,0.967657,24.9351
-112,547,1.15674,-22.2276,0,0,0,0,0,0,0,-1,1112,477,1.15677,22.2276
-105,547,0.966797,-20.5777,0,0,0,0,0,0,0,-1,1119,477,0.966804,20.5777
-98,547,0.70166,-18.9755,0,0,0,0,0,0,0,-1,1126,477,0.701713,18.9755
-91,547,1.37805,-7.12024,0,0,0,0,0,0,0,-1,1133,477,1.37804,7.12025
-84,547,1.94202,-6.66241,0,0,0,0,0,0,0,-1,1140,477,1.94201,6.66241
-77,547,-2.28357,1.8588,0,0,0,0,0,0,0,-1,1147,477,-2.28356,-1.85879
-70,547,-3.70178,-0.874908,0,0,0,0,0,0,0,-1,1154,477,-3.70182,0.874918
-63,547,-5.12012,-3.60861,0,0,0,0,0,0,0,-1,1161,477,-5.12009,3.60862
-56,547,-6.01917,-6.2399,0,0,0,0,0,0,0,-1,1168,477,-6.01921,6.23991
-49,547,-6.729,-8.60349,0,0,0,0,0,0,0,-1,1175,477,-6.72899,8.60348
-42,547,-2.41736,-5.53012,0,0,0,0,0,0,0,-1,1182,477,-2.41734,5.53011
-35,547,-2.96838,-4.45734,0,0,0,0,0,0,0,-1,1189,477,-2.96839,4.45734
-28,547,-0.869141,-1.29901,0,0,0,0,0,0,0,-1,1196,477,-0.869135,1.29901
-21,547,-7.68262,-30.8089,0,0,0,0,0,0,0,-1,1203,477,-7.68256,30.8089
-14,547,9.56482,-44.7078,0,0,0,0,0,0,0,-1,1210,477,9.56486,44.7078
-7,547,9.69824,-45.5137,0,0,0,0,0,0,0,-1,1217,477,9.69819,45.5137
0,547,9.78687,-46.166,0,0,0,0,0,0,0,-1,1224,477,9.78691,46.166
7,547,5.48755,-49.8,0,0,0,0,0,0,0,-1,1231,477,5.48754,49.8
14,547,0,0,0,0,0,0,0,0,0,-1,1238,477,0,0
21,547,0,0,0,0,0,0,0,0,0,-1,1245,477,0,0
28,547,0,0,0,0,0,0,0,0,0,-1,1252,477,0,0
35,547,0,0,0,0,0,0,0,0,0,-1,1259,477,0,0
42,547,0,0,0,0,0,0,0,0,0,-1,1266,477,0,0
49,547,0,0,0,0,0,0,0,0,0,-1,1273,477,0,0
56,547,0,0,0,0,0,0,0,0,0,-1,1280,477,0,0
63,547,0,0,0,0,0,0,0,0,0,-1,1287,477,0,0
70,547,0,0,0,0,0,0,0,0,0,-1,1294,477,0,0
77,547,0,0,0,0,0,0,0,0,0,-1,1301,477,0,0
84,547,0,0,0,0,0,0,0,0,0,-1,1308,477,0,0
91,547,0,0,0,0,0,0,0,0,0,-1,1315,477,0,0
98,547,0,0,0,0,0,0,0,0,0,-1,1322,477,0,0
105,547,4.53137,-49.3745,0,0,0,0,0,0,0,-1,1329,477,4.53141,49.3745
112,547,8.00232,-48.2739,0,0,0,0,0,0,0,-1,1336,477,8.00236,48.2739
119,547,8.80054,-47.8118,0,0,0,0,0,0,0,-1,1343,477,8.80049,47.8118
126,547,9.78455,-47.7849,0,0,0,0,0,0,0,-1,1350,477,9.7846,47.7849
133,547,10.5591,-47.7054,0,0,0,0,0,0,0,-1,1357,477,10.559,47.7054
140,547,11.373,-47.4087,0,0,0,0,0,0,0,-1,1364,477,11.373,47.4087
147,547,11.392,-46.754,0,0,0,0,0,0,0,-1,1371,477,11.392,46.754
154,547,12.13,-46.4149,0,0,0,0,0,0,0,-1,1378,477,12.13,46.4149
161,547,12.7189,-45.9645,0,0,0,0,0,0,0,-1,1385,477,12.7188,45.9645
168,547,-0.28186,-46.5668,0,0,0,0,0,0,0,-1,1392,477,-0.281851,46.5668
175,547,3.35034,-0.26532,0,0,0,0,0,0,0,-1,1399,477,3.3503,0.265306
182,547,4.26038,3.72672,0,0,0,0,0,0,0,-1,1406,477,4.26039,-3.7267
189,547,3.40454,1.28671,0,0,0,0,0,0,0,-1,1413,477,3.40457,-1.28673
196,547,3.53931,1.87793,0,0,0,0,0,0,0,-1,1420,477,3.53928,-1.87794
203,547,6.49414,-0.425842,0,0,0,0,0,0,0,-1,1427,477,6.4941,0.425844
210,547,4.82092,0.53595,0,0,0,0,0,0,0,-1,1434,477,4.82096,-0.535942
217,547,4.68579,0.480072,0,0,0,0,0,0,0,-1,1441,477,4.68577,-0.480069
224,547,4.55615,0.739807,0,0,0,0,0,0,0,-1,1448,477,4.55613,-0.73981
231,547,5.90869,-3.57721,0,0,0,0,0,0,0,-1,1455,477,5.90871,3.57722
238,547,5.50049,-3.15356,0,0,0,0,0,0,0,-1,1462,477,5.50045,3.15356
245,547,5.13708,-2.65213,0,0,0,0,0,0,0,-1,1469,477,5.13708,2.65212
252,547,3.73511,-0.645233,0,0,0,0,0,0,0,-1,1476,477,3.73515,0.645237
259,547,5.86816,-3.20816,0,0,0,0,0,0,0,-1,1483,477,5.86815,3.20816
266,547,5.40222,-2.45731,0,0,0,0,0,0,0,-1,1490,477,5.40221,2.45732
273,547,3.05737,0.495789,0,0,0,0,0,0,0,-1,1497,477,3.05742,-0.49578
280,547,2.0885,1.47797,0,0,0,0,0,0,0,-1,1504,477,2.08848,-1.47795
287,547,2.31177,-2.21716,0,0,0,0,0,0,0,-1,1511,477,2.31174,2.21717
294,547,2.4823,-3.03659,0,0,0,0,0,0,0,-1,1518,477,2.48229,3.0366
301,547,4.72119,-3.93454,0,0,0,0,0,0,0,-1,1525,477,4.72119,3.93453
308,547,12.8795,-39.5756,0,0,0,0,0,0,0,-1,1532,477,12.8795,39.5756
315,547,12.5323,-40.025,0,0,0,0,0,0,0,-1,1539,477,12.5323,40.025
322,547,12.5261,-39.4703,0,0,0,0,0,0,0,-1,1546,477,12.5261,39.4703
329,547,12.8263,-39.0393,0,0,0,0,0,0,0,-1,1553,477,12.8263,39.0393
336,547,13.0762,-38.5715,0.00355981,-0.0117515,-0.00554966,0.00535972,-0.0135514,-0.313625,0.0112546,0.0386165,1560,477,13.0761,38.5715
343,547,13.0017,-38.0881,0.00238423,-0.00936379,-0.00518145,0.00434294,-0.0113225,-0.361418,0.00933887,0.0323771,1567,477,13.0017,38.088
350,547,12.9208,-37.4484,0.00153214,-0.00788304,-0.00480267,0.00354966,-0.00990056,-0.397698,0.00804887,0.0224885,1574,477,12.9207,37.4483
357,547,12.9063,-36.8141,0.000892704,-0.00607446,-0.00428593,0.00293222,-0.00811397,-0.444151,0.00660728,0.0148188,1581,477,12.9063,36.8142
364,547,12.8799,-36.1809,0.000512332,-0.00460948,-0.00359149,0.00236244,-0.00645959,-0.475684,0.00527332,0.0106489,1588,477,12.8798,36.1809
371,547,12.87,-35.5298,0.000289425,-0.00321117,-0.00293127,0.0019532,-0.00487494,-0.516252,0.00406075,0.0099728,1595,477,12.87,35.5298
378,547,12.8552,-34.8755,7.93743e-05,-0.0018438,-0.00220402,0.00152244,-0.00328686,-0.579702,0.00283825,0.0110103,1602,477,12.8552,34.8755
385,547,12.8293,-34.2061,-2.4952e-05,-0.000713948,-0.00135257,0.0010263,-0.0017652,-0.6607,0.00163038,0.0114708,1609,477,12.8293,34.2062
392,547,12.816,-33.5361,0.000145643,0.000293644,-0.000536737,0.000761457,-0.000322171,-0.853902,0.00064254,0.0122973,1616,477,12.8161,33.5361
399,547,12.7733,-32.8551,0.000597829,0.00129478,0.000157178,0.00132859,0.000564021,1.35893,0.000769967,0.0139488,1623,477,12.7734,32.8551
406,547,12.7515,-32.1725,0.00117117,0.00233595,0.000781187,0.00272794,0.000779168,1.10571,0.00162252,0.0136878,1630,477,12.7515,32.1725
413,547,12.7657,-31.4917,0.00187368,0.00344667,0.00140361,0.00426912,0.00105123,1.04077,0.00256841,0.0137722,1637,477,12.7657,31.4917
420,547,12.7513,-30.8265,0.00269443,0.00432185,0.00200184,0.00566904,0.00134724,0.978439,0.00341991,0.0158632,1644,477,12.7513,30.8265
427,547,12.7189,-30.1172,0.00357575,0.00500237,0.00267298,0.00705557,0.00152254,0.91579,0.00428729,0.0158382,1651,477,12.7189,30.1172
434,547,12.6337,-29.4433,0.00451837,0.00567535,0.00335218,0.00849859,0.00169513,0.870842,0.00519373,0.0106577,1658,477,12.6337,29.4433
441,547,12.5881,-28.7684,0.00535303,0.00626252,0.00408485,0.00991786,0.00169769,0.840833,0.00612495,0.0106311,1665,477,12.5882,28.7684
448,547,12.5443,-28.0338,0.00598199,0.00659971,0.00481754,0.0111183,0.00146342,0.81741,0.00697574,0.0114118,1672,477,12.5443,28.0339
455,547,12.5228,-27.302,0.00639076,0.00669874,0.0055166,0.0120635,0.001026,0.799352,0.00772308,0.0125424,1679,477,12.5229,27.302
462,547,12.4596,-26.563,0.00672322,0.00675987,0.00629825,0.0130398,0.000443267,0.786853,0.00854929,0.0126212,1686,477,12.4596,26.563
469,547,12.339,-25.8038,0.00692807,0.00670996,0.00707643,0.0138963,-0.000258254,0.777693,0.00935146,0.0218592,1693,477,12.339,25.8038
476,547,12.2592,-24.8131,0.00804853,0.00673397,0.00865142,0.0160676,-0.0012851,0.747484,0.0111648,0.0394169,1700,477,12.2591,24.8131
483,547,12.2378,-23.7719,0,0,0,0,0,0,0,-1,1707,477,12.2378,23.7719
490,547,3.65271,-3.71707,0,0,0,0,0,0,0,-1,1714,477,3.65277,3.71708
497,547,2.55481,-3.81421,0,0,0,0,0,0,0,-1,1721,477,2.55476,3.8142
504,547,4.01953,-2.22714,0,0,0,0,0,0,0,-1,1728,477,4.0195,2.22713
511,547,5.2146,-6.9552,0,0,0,0,0,0,0,-1,1735,477,5.21464,6.95521
518,547,5.24243,-6.56122,0,0,0,0,0,0,0,-1,1742,477,5.24241,6.56121
525,547,5.89368,-5.49866,0,0,0,0,0,0,0,-1,1749,477,5.89372,5.49866
532,547,0,0,0,0,0,0,0,0,0,-1,1756,477,0,0
539,547,0,0,0,0,0,0,0,0,0,-1,1763,477,0,0
546,547,0,0,0,0,0,0,0,0,0,-1,1770,477,0,0
553,547,0,0,0,0,0,0,0,0,0,-1,1777,477,0,0
560,547,0,0,0,0,0,0,0,0,0,-1,1784,477,0,0
567,547,0,0,0,0,0,0,0,0,0,-1,1791,477,0,0
574,547,0,0,0,0,0,0,0,0,0,-1,1798,477,0,0
581,547,0,0,0,0,0,0,0,0,0,-1,1805,477,0,0
588,547,0,0,0,0,0,0,0,0,0,-1,1812,477,0,0
595,547,0,0,0,0,0,0,0,0,0,-1,1819,477,0,0
602,547,0,0,0,0,0,0,0,0,0,-1,1826,477,0,0
609,547,0,0,0,0,0,0,0,0,0,-1,1833,477,0,0
616,547,0,0,0,0,0,0,0,0,0,-1,1840,477,0,0
623,547,0,0,0,0,0,0,0,0,0,-1,1847,477,0,0
630,547,0,0,0,0,0,0,0,0,0,-1,1854,477,0,0
637,547,0,0,0,0,0,0,0,0,0,-1,1861,477,0,0
644,547,0,0,0,0,0,0,0,0,0,-1,1868,477,0,0
651,547,0,0,0,0,0,0,0,0,0,-1,1875,477,0,0
658,547,0,0,0,0,0,0,0,0,0,-1,1882,477,0,0
665,547,0,0,0,0,0,0,0,0,0,-1,1889,477,0,0
672,547,0,0,0,0,0,0,0,0,0,-1,1896,477,0,0
679,547,0,0,0,0,0,0,0,0,0,-1,1903,477,0,0
686,547,0,0,0,0,0,0,0,0,0,-1,1910,477,0,0
693,547,0,0,0,0,0,0,0,0,0,-1,1917,477,0,0
700,547,0,0,0,0,0,0,0,0,0,-1,1924,477,0,0
707,547,0,0,0,0,0,0,0,0,0,-1,1931,477,0,0
714,547,0,0,0,0,0,0,0,0,0,-1,1938,477,0,0
721,547,0,0,0,0,0,0,0,0,0,-1,1945,477,0,0
728,547,0,0,0,0,0,0,0,0,0,-1,1952,477,0,0
735,547,0,0,0,0,0,0,0,0,0,-1,1959,477,0,0
742,547,0,0,0,0,0,0,0,0,0,-1,1966,477,0,0
749,547,0,0,0,0,0,0,0,0,0,-1,1973,477,0,0
756,547,0,0,0,0,0,0,0,0,0,-1,1980,477,0,0
763,547,0,0,0,0,0,0,0,0,0,-1,1987,477,0,0
770,547,0,0,0,0,0,0,0,0,0,-1,1994,477,0,0
777,547,0,0,0,0,0,0,0,0,0,-1,2001,477,0,0
784,547,0,0,0,0,0,0,0,0,0,-1,2008,477,0,0
791,547,0,0,0,0,0,0,0,0,0,-1,2015,477,0,0
798,547,0,0,0,0,0,0,0,0,0,-1,2022,477,0,0
805,547,0,0,0,0,0,0,0,0,0,-1,2029,477,0,0
812,547,0,0,0,0,0,0,0,0,0,-1,2036,477,0,0
-700,540,0,0,0,0,0,0,0,0,0,-1,524,484,0,0
-693,540,0,0,0,0,0,0,0,0,0,-1,531,484,0,0
-686,540,0,0,0,0,0,0,0,0,0,-1,538,484,0,0
-679,540,0,0,0,0,0,0,0,0,0,-1,545,484,0,0
-672,540,0,0,0,0,0,0,0,0,0,-1,552,484,0,0
-665,540,0,0,0,0,0,0,0,0,0,-1,559,484,0,0
-658,540,0,0,0,0,0,0,0,0,0,-1,566,484,0,0
-651,540,0,0,0,0,0,0,0,0,0,-1,573,484,0,0
-644,540,0,0,0,0,0,0,0,0,0,-1,580,484,0,0
-637,540,0,0,0,0,0,0,0,0,0,-1,587,484,0,0
-630,540,0,0,0,0,0,0,0,0,0,-1,594,484,0,0
-623,540,0,0,0,0,0,0,0,0,0,-1,601,484,0,0
-616,540,0,0,0,0,0,0,0,0,0,-1,608,484,0,0
-609,540,0,0,0,0,0,0,0,0,0,-1,615,484,0,0
-602,540,0,0,0,0,0,0,0,0,0,-1,622,484,0,0
-595,540,0,0,0,0,0,0,0,0,0,-1,629,484,0,0
-588,540,0,0,0,0,0,0,0,0,0,-1,636,484,0,0
-581,540,0,0,0,0,0,0,0,0,0,-1,643,484,0,0
-574,540,0,0,0,0,0,0,0,0,0,-1,650,484,0,0
-567,540,0,0,0,0,0,0,0,0,0,-1,657,484,0,0
-560,540,0,0,0,0,0,0,0,0,0,-1,664,484,0,0
-553,540,0,0,0,0,0,0,0,0,0,-1,671,484,0,0
-546,540,0,0,0,0,0,0,0,0,0,-1,678,484,0,0
-539,540,0,0,0,0,0,0,0,0,0,-1,685,484,0,0
-532,540,0,0,0,0,0,0,0,0,0,-1,692,484,0,0
-525,540,0,0,0,0,0,0,0,0,0,-1,699,484,0,0
-518,540,0,0,0,0,0,0,0,0,0,-1,706,484,0,0
-511,540,0,0,0,0,0,0,0,0,0,-1,713,484,0,0
-504,540,0,0,0,0,0,0,0,0,0,-1,720,484,0,0
-497,540,0,0,0,0,0,0,0,0,0,-1,727,484,0,0
-490,540,0,0,0,0,0,0,0,0,0,-1,734,484,0,0
-483,540,0,0,0,0,0,0,0,0,0,-1,741,484,0,0
-476,540,0,0,0,0,0,0,0,0,0,-1,748,484,0,0
-469,540,0,0,0,0,0,0,0,0,0,-1,755,484,0,0
-462,540,0,0,0,0,0,0,0,0,0,-1,762,484,0,0
-455,540,0,0,0,0,0,0,0,0,0,-1,769,484,0,0
-448,540,0,0,0,0,0,0,0,0,0,-1,776,484,0,0
-441,540,0,0,0,0,0,0,0,0,0,-1,783,484,0,0
-434,540,0,0,0,0,0,0,0,0,0,-1,790,484,0,0
-427,540,0,0,0,0,0,0,0,0,0,-1,797,484,0,0
-420,540,0.227051,-10.0402,0,0,0,0,0,0,0,-1,804,484,0.227063,10.0402
-413,540,-0.0393677,-10.3862,0,0,0,0,0,0,0,-1,811,484,-0.0393683,10.3862
-406,540,-0.518372,-11.5288,0,0,0,0,0,0,0,-1,818,484,-0.518402,11.5288
-399,540,0.0863037,-11.3801,0,0,0,0,0,0,0,-1,825,484,0.0863201,11.3801
-392,540,-0.517395,-10.6735,0,0,0,0,0,0,0,-1,832,484,-0.517377,10.6735
-385,540,-2.29407,-5.03418,0,0,0,0,0,0,0,-1,839,484,-2.29408,5.03418
-378,540,1.06445,-10.5824,0,0,0,0,0,0,0,-1,846,484,1.06446,10.5824
-371,540,-0.229126,-23.2011,0,0,0,0,0,0,0,-1,853,484,-0.229151,23.2011
-364,540,0.0532837,-23.9487,0.0173271,0.0309691,-0.011227,0.0372848,0.0110115,-1.05838,0.0221194,0.0472945,860,484,0.0532695,23.9487
-357,540,0.219727,-24.454,0.0133469,0.025636,-0.00939036,0.0307135,0.00826943,-1.07511,0.0183511,0.045769,867,484,0.219731,24.454
-350,540,0.229248,-25.4802,0.00971959,0.0209508,-0.00772188,0.0248831,0.00578729,-1.09978,0.0150356,0.0363449,874,484,0.229246,25.4802
-343,540,0.173889,-26.5379,0.00688581,0.0169393,-0.00639611,0.0200475,0.00377754,-1.11844,0.0123007,0.0191986,881,484,0.173862,26.5379
-336,540,0.114441,-27.4067,0.00470793,0.0136024,-0.00523926,0.0160274,0.00228292,-1.1373,0.0100111,0.0130528,888,484,0.11447,27.4067
-329,540,0.0575562,-28.0932,0.00304208,0.010686,-0.00422645,0.0125623,0.00116576,-1.15299,0.00801458,0.0109601,895,484,0.057546,28.0932
-322,540,-0.0101318,-28.7912,0.0017903,0.00811145,-0.00326436,0.00949458,0.000407165,-1.17002,0.00619846,0.0148103,902,484,-0.0101499,28.7912
-315,540,-0.0415649,-29.494,0.000973635,0.00598928,-0.00242132,0.00696743,-4.50877e-06,-1.18687,0.00464646,0.0138682,909,484,-0.0415779,29.494
-308,540,-0.0408325,-30.1749,0.000268634,0.00432572,-0.00187573,0.00506003,-0.000465675,-1.19766,0.00353881,0.0131145,916,484,-0.0408476,30.1749
-301,540,-0.0904541,-30.829,6.43443e-05,0.00296803,-0.00143253,0.00355579,-0.000523421,-1.18144,0.00256288,0.0124434,923,484,-0.0904421,30.8291
-294,540,-0.108826,-31.4984,0.000335442,0.00189067,-0.000863369,0.00227499,-4.88771e-05,-1.15199,0.00153321,0.0111564,930,484,-0.108798,31.4984
-287,540,-0.115173,-32.1928,0.000647448,0.000937246,-0.000328193,0.0011511,0.00043359,-0.993282,0.000671295,0.00847498,937,484,-0.115183,32.1928
-280,540,-0.156921,-32.8768,0.00051792,-0.000470703,0.000222241,0.000565582,-0.000518364,0.211259,0.000626015,0.0103402,944,484,-0.156897,32.8768
-273,540,-0.165833,-33.5139,0.000254042,-0.00197067,0.00110946,0.000712746,-0.00242938,0.392046,0.00190221,0.0129715,951,484,-0.165805,33.5138
-266,540,-0.18573,-34.1654,4.48141e-05,-0.00386573,0.00231546,0.00112012,-0.00494104,0.434769,0.00372398,0.0137578,958,484,-0.185708,34.1654
-259,540,-0.227356,-34.8098,-0.000143537,-0.00615372,0.00352707,0.00148503,-0.00778229,0.432569,0.00574752,0.0122701,965,484,-0.227377,34.8098
-252,540,-0.224304,-35.4153,-0.000465849,-0.00894879,0.00493395,0.00179914,-0.0112138,0.430363,0.00814209,0.0122091,972,484,-0.224291,35.4153
-245,540,-0.221924,-36.0428,-0.000896448,-0.0119589,0.00653627,0.00213487,-0.0149903,0.434245,0.0107759,0.0121533,979,484,-0.221938,36.0428
-238,540,-0.264465,-36.6523,-0.00117931,-0.0154622,0.00809296,0.00247259,-0.0191141,0.423887,0.0136418,0.00958531,986,484,-0.264471,36.6523
-231,540,-0.27063,-37.2465,-0.00137903,-0.0193322,0.00966779,0.00283701,-0.0235482,0.411227,0.0167249,0.0138642,993,484,-0.270634,37.2465
-224,540,-0.270874,-37.7887,-0.00152775,-0.0235205,0.0113842,0.00330367,-0.028352,0.401361,0.0200933,0.0226329,1000,484,-0.270849,37.7887
-217,540,-0.273743,-38.1642,-0.00146306,-0.0279917,0.01299,0.00383825,-0.033293,0.387475,0.0235791,0.0330854,1007,484,-0.273762,38.1642
-210,540,-0.170593,-38.5507,-0.0010999,-0.0324495,0.0142255,0.00439283,-0.0379422,0.368483,0.026879,0.04504,1014,484,-0.170597,38.5507
-203,540,-0.13269,-38.7375,0,0,0,0,0,0,0,-1,1021,484,-0.132696,38.7375
-196,540,-0.144897,-38.2607,0,0,0,0,0,0,0,-1,1028,484,-0.144939,38.2607
-189,540,0.349976,-37.5828,0,0,0,0,0,0,0,-1,1035,484,0.349993,37.5828
-182,540,0.109375,-15.2948,0,0,0,0,0,0,0,-1,1042,484,0.109331,15.2948
-175,540,1.73413,-10.728,0,0,0,0,0,0,0,-1,1049,484,1.73414,10.728
-168,540,1.18164,-7.65347,0,0,0,0,0,0,0,-1,1056,484,1.18163,7.65347
-161,540,-0.405884,-9.86481,0,0,0,0,0,0,0,-1,1063,484,-0.405886,9.8648
-154,540,1.96863,-22.0727,0,0,0,0,0,0,0,-1,1070,484,1.96859,22.0727
-147,540,1.32764,-21.9952,0,0,0,0,0,0,0,-1,1077,484,1.32762,21.9952
-140,540,1.40735,-15.6289,0,0,0,0,0,0,0,-1,1084,484,1.4073,15.6289
-133,540,2.28345,-17.6413,0,0,0,0,0,0,0,-1,1091,484,2.2835,17.6413
-126,540,1.25293,-23.9108,0,0,0,0,0,0,0,-1,1098,484,1.25288,23.9108
-119,540,1.55969,-23.0125,0,0,0,0,0,0,0,-1,1105,484,1.55968,23.0125
-112,540,1.4801,-21.6515,0,0,0,0,0,0,0,-1,1112,484,1.4801,21.6515
-105,540,1.30078,-19.8938,0,0,0,0,0,0,0,-1,1119,484,1.30077,19.8938
-98,540,1.08105,-18.1304,0,0,0,0,0,0,0,-1,1126,484,1.08101,18.1304
-91,540,1.56519,-7.48666,0,0,0,0,0,0,0,-1,1133,484,1.56514,7.48667
-84,540,-0.945923,4.43073,0,0,0,0,0,0,0,-1,1140,484,-0.945891,-4.43074
-77,540,-2.28894,2.14368,0,0,0,0,0,0,0,-1,1147,484,-2.28894,-2.14368
-70,540,-3.75244,-0.452576,0,0,0,0,0,0,0,-1,1154,484,-3.75244,0.452576
-63,540,-5.26257,-3.04767,0,0,0,0,0,0,0,-1,1161,484,-5.26262,3.04766
-56,540,-5.19055,-6.12595,0,0,0,0,0,0,0,-1,1168,484,-5.19057,6.12595
-49,540,-5.63867,-8.52298,0,0,0,0,0,0,0,-1,1175,484,-5.63871,8.52298
-42,540,0,0,0,0,0,0,0,0,0,-1,1182,484,0,0
-35,540,0,0,0,0,0,0,0,0,0,-1,1189,484,0,0
-28,540,0,0,0,0,0,0,0,0,0,-1,1196,484,0,0
-21,540,0,0,0,0,0,0,0,0,0,-1,1203,484,0,0
-14,540,0,0,0,0,0,0,0,0,0,-1,1210,484,0,0
-7,540,0,0,0,0,0,0,0,0,0,-1,1217,484,0,0
0,540,0,0,0,0,0,0,0,0,0,-1,1224,484,0,0
7,540,0,0,0,0,0,0,0,0,0,-1,1231,484,0,0
14,540,0,0,0,0,0,0,0,0,0,-1,1238,484,0,0
21,540,0,0,0,0,0,0,0,0,0,-1,1245,484,0,0
28,540,0,0,0,0,0,0,0,0,0,-1,1252,484,0,0
35,540,0,0,0,0,0,0,0,0,0,-1,1259,484,0,0
42,540,0,0,0,0,0,0,0,0,0,-1,1266,484,0,0
49,540,0,0,0,0,0,0,0,0,0,-1,1273,484,0,0
56,540,0,0,0,0,0,0,0,0,0,-1,1280,484,0,0
63,540,0,0,0,0,0,0,0,0,0,-1,1287,484,0,0
70,540,0,0,0,0,0,0,0,0,0,-1,1294,484,0,0
77,540,0,0,0,0,0,0,0,0,0,-1,1301,484,0,0
84,540,0,0,0,0,0,0,0,0,0,-1,1308,484,0,0
91,540,0,0,0,0,0,0,0,0,0,-1,1315,484,0,0
98,540,0,0,0,0,0,0,0,0,0,-1,1322,484,0,0
105,540,0,0,0,0,0,0,0,0,0,-1,1329,484,0,0
112,540,0,0,0,0,0,0,0,0,0,-1,1336,484,0,0
119,540,0,0,0,0,0,0,0,0,0,-1,1343,484,0,0
126,540,0,0,0,0,0,0,0,0,0,-1,1350,484,0,0
133,540,0,0,0,0,0,0,0,0,0,-1,1357,484,0,0
140,540,0,0,0,0,0,0,0,0,0,-1,1364,484,0,0
147,540,0,0,0,0,0,0,0,0,0,-1,1371,484,0,0
154,540,0,0,0,0,0,0,0,0,0,-1,1378,484,0,0
161,540,0,0,0,0,0,0,0,0,0,-1,1385,484,0,0
168,540,3.05078,-0.0010376,0,0,0,0,0,0,0,-1,1392,484,3.05084,0.00102554
175,540,3.37708,0.617035,0,0,0,0,0,0,0,-1,1399,484,3.37707,-0.617046
182,540,3.32678,1.23267,0,0,0,0,0,0,0,-1,1406,484,3.32678,-1.23266
189,540,3.5813,2.15619,0,0,0,0,0,0,0,-1,1413,484,3.58129,-2.1562
196,540,1.84448,-0.801483,0,0,0,0,0,0,0,-1,1420,484,1.84446,0.80148
203,540,4.14648,0.702087,0,0,0,0,0,0,0,-1,1427,484,4.14645,-0.702089
210,540,4.50671,-0.56076,0,0,0,0,0,0,0,-1,1434,484,4.50667,0.560771
217,540,5.00452,-0.278717,0,0,0,0,0,0,0,-1,1441,484,5.00452,0.278709
224,540,6.44458,-2.83527,0,0,0,0,0,0,0,-1,1448,484,6.44457,2.83525
231,540,6.9231,-3.10504,0,0,0,0,0,0,0,-1,1455,484,6.92307,3.10505
238,540,6.4823,-2.58365,0,0,0,0,0,0,0,-1,1462,484,6.48225,2.58363
245,540,6.02087,-1.97916,0,0,0,0,0,0,0,-1,1469,484,6.02088,1.97915
252,540,6.50647,-3.56006,0,0,0,0,0,0,0,-1,1476,484,6.50649,3.56006
259,540,6.01941,-2.798,0,0,0,0,0,0,0,-1,1483,484,6.01941,2.79801
266,540,5.5332,-2.02853,0,0,0,0,0,0,0,-1,1490,484,5.53323,2.02855
273,540,5.06787,-1.28137,0,0,0,0,0,0,0,-1,1497,484,5.06786,1.28136
280,540,1.62903,-2.14609,0,0,0,0,0,0,0,-1,1504,484,1.62906,2.1461
287,540,1.97156,-2.45053,0,0,0,0,0,0,0,-1,1511,484,1.97159,2.45053
294,540,2.44165,-2.6185,0,0,0,0,0,0,0,-1,1518,484,2.44167,2.6185
301,540,4.36169,-2.54272,0,0,0,0,0,0,0,-1,1525,484,4.36165,2.54272
308,540,4.2019,-4.30469,0,0,0,0,0,0,0,-1,1532,484,4.20193,4.3047
315,540,4.45923,-5.32101,0,0,0,0,0,0,0,-1,1539,484,4.45923,5.32103
322,540,4.71655,-6.33737,0,0,0,0,0,0,0,-1,1546,484,4.71653,6.33736
329,540,13.0012,-38.5421,0,0,0,0,0,0,0,-1,1553,484,13.0012,38.542
336,540,13.9412,-38.5917,0,0,0,0,0,0,0,-1,1560,484,13.9412,38.5917
343,540,13.752,-38.1423,0,0,0,0,0,0,0,-1,1567,484,13.752,38.1423
350,540,13.5128,-37.4831,0,0,0,0,0,0,0,-1,1574,484,13.5128,37.4831
357,540,13.615,-36.5634,0.000452615,-0.00794646,-0.00584041,0.00344658,-0.0109404,-0.4737,0.00867382,0.0426903,1581,484,13.615,36.5634
364,540,13.5031,-36.0857,0.000105951,-0.00628912,-0.00504908,0.00288482,-0.00906799,-0.503129,0.00720216,0.0257111,1588,484,13.503,36.0857
371,540,13.4943,-35.4911,-7.11756e-05,-0.00470122,-0.00430889,0.00250521,-0.0072776,-0.538891,0.00586786,0.0176218,1595,484,13.4942,35.4911
378,540,13.5176,-34.8392,-0.000232814,-0.00317618,-0.00347289,0.00206735,-0.00547634,-0.584987,0.00450115,0.0133352,1602,484,13.5176,34.8391
385,540,13.5009,-34.1831,-0.000368644,-0.00202915,-0.00243287,0.00137174,-0.00376953,-0.620962,0.00307404,0.0145195,1609,484,13.5008,34.1831
392,540,13.4591,-33.5123,-0.000390492,-0.00115558,-0.00152105,0.000795378,-0.00234145,-0.662202,0.00188295,0.0130648,1616,484,13.4591,33.5123
399,540,13.4508,-32.8376,-0.000235335,-0.00018429,-0.000938245,0.00072878,-0.0011484,-0.798996,0.00109278,0.0169423,1623,484,13.4508,32.8376
406,540,13.4662,-32.1531,0.000231781,0.000787516,-0.00030304,0.000920798,9.84996e-05,-1.15644,0.000583809,0.0189193,1630,484,13.4661,32.1531
413,540,13.4182,-31.4793,0.000818745,0.00187422,0.000379491,0.0019965,0.000696467,1.25909,0.00117011,0.0153268,1637,484,13.4182,31.4793
420,540,13.4243,-30.7704,0.00146009,0.00270258,0.000985335,0.00324617,0.000916507,1.06667,0.00193247,0.013355,1644,484,13.4243,30.7704
427,540,13.3718,-30.0861,0.0021323,0.00338225,0.00162287,0.00449632,0.00101822,0.969198,0.00272237,0.0137668,1651,484,13.3719,30.0861
434,540,13.3044,-29.4131,0.0028489,0.00399958,0.00227879,0.00577454,0.00107394,0.909052,0.00354634,0.0165688,1658,484,13.3044,29.4131
441,540,13.2937,-28.6999,0.00348915,0.00458839,0.0029884,0.00707729,0.00100025,0.876341,0.00442264,0.0194377,1665,484,13.2937,28.6999
448,540,13.267,-28.0046,0.00397743,0.00494692,0.00367553,0.00816953,0.000754822,0.850962,0.00521299,0.0113585,1672,484,13.267,28.0046
455,540,13.2322,-27.2716,0.00430235,0.00517143,0.00434116,0.00909974,0.000374034,0.835281,0.00594574,0.0108958,1679,484,13.2322,27.2716
462,540,13.1526,-26.5289,0.00461794,0.00535353,0.00506602,0.0100651,-9.36217e-05,0.821635,0.00674148,0.0111883,1686,484,13.1526,26.5289
469,540,13.0756,-25.7704,0.00487627,0.00549068,0.00579645,0.0109881,-0.000621114,0.811873,0.00754094,0.0158481,1693,484,13.0756,25.7704
476,540,13.0392,-25.0364,0.00597803,0.00574247,0.00729006,0.0131513,-0.00143077,0.777321,0.00928127,0.0235563,1700,484,13.0392,25.0364
483,540,13.0939,-24.2419,0.00691039,0.00598115,0.00864182,0.0151001,-0.00220853,0.758542,0.0108779,0.0398401,1707,484,13.0939,24.2419
490,540,13.2771,-23.3652,0,0,0,0,0,0,0,-1,1714,484,13.2771,23.3652
497,540,10.3452,-16.9359,0,0,0,0,0,0,0,-1,1721,484,10.3453,16.9359
504,540,12.519,-18.0764,0,0,0,0,0,0,0,-1,1728,484,12.519,18.0765
511,540,5.82471,-6.83521,0,0,0,0,0,0,0,-1,1735,484,5.82465,6.83522
518,540,9.98181,-12.4608,0,0,0,0,0,0,0,-1,1742,484,9.98187,12.4608
525,540,12.4843,-16.3481,0,0,0,0,0,0,0,-1,1749,484,12.4842,16.3481
532,540,2.84265,-1.07925,0,0,0,0,0,0,0,-1,1756,484,2.84269,1.07927
539,540,0,0,0,0,0,0,0,0,0,-1,1763,484,0,0
546,540,0,0,0,0,0,0,0,0,0,-1,1770,484,0,0
553,540,0,0,0,0,0,0,0,0,0,-1,1777,484,0,0
560,540,0,0,0,0,0,0,0,0,0,-1,1784,484,0,0
567,540,0,0,0,0,0,0,0,0,0,-1,1791,484,0,0
574,540,0,0,0,0,0,0,0,0,0,-1,1798,484,0,0
581,540,0,0,0,0,0,0,0,0,0,-1,1805,484,0,0
588,540,0,0,0,0,0,0,0,0,0,-1,1812,484,0,0
595,540,0,0,0,0,0,0,0,0,0,-1,1819,484,0,0
602,540,0,0,0,0,0,0,0,0,0,-1,1826,484,0,0
609,540,0,0,0,0,0,0,0,0,0,-1,1833,484,0,0
616,540,0,0,0,0,0,0,0,0,0,-1,1840,484,0,0
623,540,0,0,0,0,0,0,0,0,0,-1,1847,484,0,0
630,540,0,0,0,0,0,0,0,0,0,-1,1854,484,0,0
637,540,0,0,0,0,0,0,0,0,0,-1,1861,484,0,0
644,540,0,0,0,0,0,0,0,0,0,-1,1868,484,0,0
651,540,0,0,0,0,0,0,0,0,0,-1,1875,484,0,0
658,540,0,0,0,0,0,0,0,0,0,-1,1882,484,0,0
665,540,0,0,0,0,0,0,0,0,0,-1,1889,484,0,0
672,540,0,0,0,0,0,0,0,0,0,-1,1896,484,0,0
679,540,0,0,0,0,0,0,0,0,0,-1,1903,484,0,0
686,540,0,0,0,0,0,0,0,0,0,-1,1910,484,0,0
693,540,0,0,0,0,0,0,0,0,0,-1,1917,484,0,0
700,540,0,0,0,0,0,0,0,0,0,-1,1924,484,0,0
707,540,0,0,0,0,0,0,0,0,0,-1,1931,484,0,0
714,540,0,0,0,0,0,0,0,0,0,-1,1938,484,0,0
721,540,0,0,0,0,0,0,0,0,0,-1,1945,484,0,0
728,540,0,0,0,0,0,0,0,0,0,-1,1952,484,0,0
735,540,0,0,0,0,0,0,0,0,0,-1,1959,484,0,0
742,540,0,0,0,0,0,0,0,0,0,-1,1966,484,0,0
749,540,0,0,0,0,0,0,0,0,0,-1,1973,484,0,0
756,540,0,0,0,0,0,0,0,0,0,-1,1980,484,0,0
763,540,0,0,0,0,0,0,0,0,0,-1,1987,484,0,0
770,540,0,0,0,0,0,0,0,0,0,-1,1994,484,0,0
777,540,0,0,0,0,0,0,0,0,0,-1,2001,484,0,0
784,540,0,0,0,0,0,0,0,0,0,-1,2008,484,0,0
791,540,0,0,0,0,0,0,0,0,0,-1,2015,484,0,0
798,540,0,0,0,0,0,0,0,0,0,-1,2022,484,0,0
805,540,0,0,0,0,0,0,0,0,0,-1,2029,484,0,0
812,540,0,0,0,0,0,0,0,0,0,-1,2036,484,0,0
-700,533,0,0,0,0,0,0,0,0,0,-1,524,491,0,0
-693,533,0,0,0,0,0,0,0,0,0,-1,531,491,0,0
-686,533,0,0,0,0,0,0,0,0,0,-1,538,491,0,0
-679,533,0,0,0,0,0,0,0,0,0,-1,545,491,0,0
-672,533,0,0,0,0,0,0,0,0,0,-1,552,491,0,0
-665,533,0,0,0,0,0,0,0,0,0,-1,559,491,0,0
-658,533,0,0,0,0,0,0,0,0,0,-1,566,491,0,0
-651,533,0,0,0,0,0,0,0,0,0,-1,573,491,0,0
-644,533,0,0,0,0,0,0,0,0,0,-1,580,491,0,0
-637,533,0,0,0,0,0,0,0,0,0,-1,587,491,0,0
-630,533,0,0,0,0,0,0,0,0,0,-1,594,491,0,0
-623,533,0,0,0,0,0,0,0,0,0,-1,601,491,0,0
-616,533,0,0,0,0,0,0,0,0,0,-1,608,491,0,0
-609,533,0,0,0,0,0,0,0,0,0,-1,615,491,0,0
-602,533,0,0,0,0,0,0,0,0,0,-1,622,491,0,0
-595,533,0,0,0,0,0,0,0,0,0,-1,629,491,0,0
-588,533,0,0,0,0,0,0,0,0,0,-1,636,491,0,0
-581,533,0,0,0,0,0,0,0,0,0,-1,643,491,0,0
-574,533,0,0,0,0,0,0,0,0,0,-1,650,491,0,0
-567,533,0,0,0,0,0,0,0,0,0,-1,657,491,0,0
-560,533,0,0,0,0,0,0,0,0,0,-1,664,491,0,0
-553,533,0,0,0,0,0,0,0,0,0,-1,671,491,0,0
-546,533,0,0,0,0,0,0,0,0,0,-1,678,491,0,0
-539,533,0,0,0,0,0,0,0,0,0,-1,685,491,0,0
-532,533,0,0,0,0,0,0,0,0,0,-1,692,491,0,0
-525,533,0,0,0,0,0,0,0,0,0,-1,699,491,0,0
-518,533,0,0,0,0,0,0,0,0,0,-1,706,491,0,0
-511,533,0,0,0,0,0,0,0,0,0,-1,713,491,0,0
-504,533,0,0,0,0,0,0,0,0,0,-1,720,491,0,0
-497,533,0,0,0,0,0,0,0,0,0,-1,727,491,0,0
-490,533,0,0,0,0,0,0,0,0,0,-1,734,491,0,0
-483,533,0,0,0,0,0,0,0,0,0,-1,741,491,0,0
-476,533,0,0,0,0,0,0,0,0,0,-1,748,491,0,0
-469,533,0,0,0,0,0,0,0,0,0,-1,755,491,0,0
-462,533,0,0,0,0,0,0,0,0,0,-1,762,491,0,0
-455,533,0,0,0,0,0,0,0,0,0,-1,769,491,0,0
-448,533,0,0,0,0,0,0,0,0,0,-1,776,491,0,0
-441,533,0,0,0,0,0,0,0,0,0,-1,783,491,0,0
-434,533,0,0,0,0,0,0,0,0,0,-1,790,491,0,0
-427,533,0.559814,-4.40222,0,0,0,0,0,0,0,-1,797,491,0.559816,4.40222
-420,533,-1.11127,-10.9054,0,0,0,0,0,0,0,-1,804,491,-1.11124,10.9054
-413,533,-0.704773,-11.0942,0,0,0,0,0,0,0,-1,811,491,-0.704742,11.0942
-406,533,-0.670898,-12.0899,0,0,0,0,0,0,0,-1,818,491,-0.670908,12.0899
-399,533,-0.455017,-12.4423,0,0,0,0,0,0,0,-1,825,491,-0.455032,12.4423
-392,533,-1.89661,-10.3905,0,0,0,0,0,0,0,-1,832,491,-1.89661,10.3905
-385,533,0.797729,-17.0485,0,0,0,0,0,0,0,-1,839,491,0.797746,17.0485
-378,533,-1.89435,-19.6771,0,0,0,0,0,0,0,-1,846,491,-1.89433,19.6771
-371,533,-0.788879,-23.4002,0,0,0,0,0,0,0,-1,853,491,-0.788887,23.4002
-364,533,-0.603149,-24.1655,0.0132989,0.0259484,-0.0107414,0.0320888,0.00715852,-1.05148,0.0194505,0.0455068,860,491,-0.603132,24.1655
-357,533,-0.435181,-24.9998,0.0104347,0.021516,-0.00888828,0.0264492,0.00550154,-1.06411,0.0161151,0.0281645,867,491,-0.435159,24.9998
-350,533,-0.446838,-25.8521,0.00776282,0.0175044,-0.00719572,0.0213229,0.00394437,-1.08293,0.0130999,0.0145549,874,491,-0.446841,25.8521
-343,533,-0.49707,-26.6331,0.00561255,0.0139648,-0.00580307,0.0169382,0.00263915,-1.09729,0.0105233,0.0123913,881,491,-0.497096,26.6331
-336,533,-0.566833,-27.3793,0.00389619,0.0109694,-0.00457494,0.0132153,0.00165025,-1.11444,0.00831488,0.015927,888,491,-0.566863,27.3792
-329,533,-0.614136,-28.0735,0.00256721,0.00835583,-0.00352215,0.0100203,0.000902731,-1.12933,0.00640055,0.0146336,895,491,-0.614127,28.0735
-322,533,-0.664917,-28.7581,0.00158201,0.00602143,-0.00253816,0.00717357,0.000429866,-1.14468,0.00464573,0.0121997,902,491,-0.664892,28.758
-315,533,-0.707092,-29.4453,0.000962571,0.00410459,-0.00168144,0.00483473,0.000232427,-1.16113,0.00314854,0.0136136,909,491,-0.70709,29.4453
-308,533,-0.733643,-30.1293,0.000511507,0.00265238,-0.00110871,0.00312308,4.08135e-05,-1.16932,0.00206858,0.0129567,916,491,-0.733672,30.1293
-301,533,-0.781982,-30.7808,0.000459716,0.00147298,-0.000644195,0.0017859,0.000146797,-1.11861,0.00114481,0.0140467,923,491,-0.782002,30.7808
-294,533,-0.777771,-31.4516,0.000774994,0.00055632,-0.000100275,0.000814014,0.0005173,-0.371096,0.000475688,0.0135194,930,491,-0.777767,31.4516
-287,533,-0.772827,-32.1445,0.00113805,-0.000320599,0.000417497,0.00124909,-0.000431642,0.259955,0.0010079,0.0101258,937,491,-0.772808,32.1445
-280,533,-0.799316,-32.8306,0.000818718,-0.00190669,0.00101865,0.00115737,-0.00224534,0.320957,0.00199775,0.00948888,944,491,-0.799336,32.8305
-273,533,-0.825562,-33.4781,0.000335907,-0.00365375,0.00208478,0.0012265,-0.00454435,0.403722,0.00351056,0.0132237,951,491,-0.825542,33.4781
-266,533,-0.846985,-34.1257,-4.25632e-05,-0.00581433,0.00355931,0.00165381,-0.0075107,0.444753,0.00563982,0.0125828,958,491,-0.847,34.1258
-259,533,-0.859497,-34.7877,-0.000439267,-0.00838175,0.00500785,0.00198084,-0.0108019,0.450168,0.00794427,0.0131079,965,491,-0.859507,34.7876
-252,533,-0.875916,-35.4061,-0.001106,-0.0117008,0.00670627,0.00214274,-0.0149496,0.451117,0.010752,0.0198495,972,491,-0.875927,35.4061
-245,533,-0.953308,-35.9927,-0.0020492,-0.0153746,0.00872357,0.002265,-0.0196888,0.459274,0.0139423,0.0308166,979,491,-0.953326,35.9928
-238,533,-0.842957,-36.4713,-0.00281582,-0.0196284,0.0107219,0.0024023,-0.0248465,0.452935,0.0174204,0.0317209,986,491,-0.842984,36.4713
-231,533,-0.895508,-36.8204,-0.00344235,-0.0243176,0.0127959,0.00263303,-0.030393,0.443278,0.0211942,0.0394539,993,491,-0.895515,36.8204
-224,533,-1.09619,-37.3744,-0.00400529,-0.0294663,0.0150851,0.00300315,-0.0364748,0.434923,0.0253769,0.0458812,1000,491,-1.0962,37.3744
-217,533,-1.19122,-38.1376,-0.00428348,-0.0350101,0.0172918,0.0034841,-0.0427777,0.422193,0.0297479,0.0443349,1007,491,-1.19123,38.1375
-210,533,-0.632629,-38.3525,0,0,0,0,0,0,0,-1,1014,491,-0.632617,38.3525
-203,533,-0.880859,-37.738,0,0,0,0,0,0,0,-1,1021,491,-0.880879,37.738
-196,533,0.688354,-19.5743,0,0,0,0,0,0,0,-1,1028,491,0.688406,19.5743
-189,533,-0.169189,-15.0303,0,0,0,0,0,0,0,-1,1035,491,-0.169241,15.0303
-182,533,1.26123,-11.4969,0,0,0,0,0,0,0,-1,1042,491,1.26128,11.4969
-175,533,0.937744,-7.36966,0,0,0,0,0,0,0,-1,1049,491,0.937769,7.36965
-168,533,2.64807,-2.7543,0,0,0,0,0,0,0,-1,1056,491,2.64812,2.7543
-161,533,1.91833,-1.76553,0,0,0,0,0,0,0,-1,1063,491,1.91836,1.76554
-154,533,0.376709,-11.0633,0,0,0,0,0,0,0,-1,1070,491,0.376715,11.0632
-147,533,0.383789,-12.1586,0,0,0,0,0,0,0,-1,1077,491,0.383829,12.1586
-140,533,1.14001,-15.4608,0,0,0,0,0,0,0,-1,1084,491,1.14005,15.4608
-133,533,0.189941,-16.0795,0,0,0,0,0,0,0,-1,1091,491,0.18994,16.0795
-126,533,2.89612,-2.59003,0,0,0,0,0,0,0,-1,1098,491,2.89608,2.59003
-119,533,1.78284,-22.5394,0,0,0,0,0,0,0,-1,1105,491,1.78279,22.5394
-112,533,1.83862,-21.2401,0,0,0,0,0,0,0,-1,1112,491,1.83859,21.24
-105,533,1.67554,-19.4018,0,0,0,0,0,0,0,-1,1119,491,1.6755,19.4018
-98,533,-1.39392,-5.16367,0,0,0,0,0,0,0,-1,1126,491,-1.39394,5.16367
-91,533,0.367432,4.49753,0,0,0,0,0,0,0,-1,1133,491,0.367468,-4.49754
-84,533,-0.88623,3.03604,0,0,0,0,0,0,0,-1,1140,491,-0.886288,-3.03605
-77,533,0,0,0,0,0,0,0,0,0,-1,1147,491,0,0
-70,533,0,0,0,0,0,0,0,0,0,-1,1154,491,0,0
-63,533,0,0,0,0,0,0,0,0,0,-1,1161,491,0,0
-56,533,0,0,0,0,0,0,0,0,0,-1,1168,491,0,0
-49,533,0,0,0,0,0,0,0,0,0,-1,1175,491,0,0
-42,533,0,0,0,0,0,0,0,0,0,-1,1182,491,0,0
-35,533,0,0,0,0,0,0,0,0,0,-1,1189,491,0,0
-28,533,0,0,0,0,0,0,0,0,0,-1,1196,491,0,0
-21,533,0,0,0,0,0,0,0,0,0,-1,1203,491,0,0
-14,533,0,0,0,0,0,0,0,0,0,-1,1210,491,0,0
-7,533,0,0,0,0,0,0,0,0,0,-1,1217,491,0,0
0,533,0,0,0,0,0,0,0,0,0,-1,1224,491,0,0
7,533,0,0,0,0,0,0,0,0,0,-1,1231,491,0,0
14,533,0,0,0,0,0,0,0,0,0,-1,1238,491,0,0
21,533,0,0,0,0,0,0,0,0,0,-1,1245,491,0,0
28,533,0,0,0,0,0,0,0,0,0,-1,1252,491,0,0
35,533,0,0,0,0,0,0,0,0,0,-1,1259,491,0,0
42,533,0,0,0,0,0,0,0,0,0,-1,1266,491,0,0
49,533,0,0,0,0,0,0,0,0,0,-1,1273,491,0,0
56,533,0,0,0,0,0,0,0,0,0,-1,1280,491,0,0
63,533,0,0,0,0,0,0,0,0,0,-1,1287,491,0,0
70,533,0,0,0,0,0,0,0,0,0,-1,1294,491,0,0
77,533,0,0,0,0,0,0,0,0,0,-1,1301,491,0,0
84,533,0,0,0,0,0,0,0,0,0,-1,1308,491,0,0
91,533,0,0,0,0,0,0,0,0,0,-1,1315,491,0,0
98,533,0,0,0,0,0,0,0,0,0,-1,1322,491,0,0
105,533,0,0,0,0,0,0,0,0,0,-1,1329,491,0,0
112,533,0,0,0,0,0,0,0,0,0,-1,1336,491,0,0
119,533,0,0,0,0,0,0,0,0,0,-1,1343,491,0,0
126,533,0,0,0,0,0,0,0,0,0,-1,1350,491,0,0
133,533,0,0,0,0,0,0,0,0,0,-1,1357,491,0,0
140,533,0,0,0,0,0,0,0,0,0,-1,1364,491,0,0
147,533,0,0,0,0,0,0,0,0,0,-1,1371,491,0,0
154,533,0,0,0,0,0,0,0,0,0,-1,1378,491,0,0
161,533,0,0,0,0,0,0,0,0,0,-1,1385,491,0,0
168,533,0,0,0,0,0,0,0,0,0,-1,1392,491,0,0
175,533,0,0,0,0,0,0,0,0,0,-1,1399,491,0,0
182,533,0,0,0,0,0,0,0,0,0,-1,1406,491,0,0
189,533,0,0,0,0,0,0,0,0,0,-1,1413,491,0,0
196,533,0,0,0,0,0,0,0,0,0,-1,1420,491,0,0
203,533,3.7887,1.16193,0,0,0,0,0,0,0,-1,1427,491,3.78872,-1.16193
210,533,5.09558,-0.216034,0,0,0,0,0,0,0,-1,1434,491,5.09559,0.216028
217,533,6.91614,-2.46814,0,0,0,0,0,0,0,-1,1441,491,6.91618,2.46814
224,533,7.23621,-2.1857,0,0,0,0,0,0,0,-1,1448,491,7.23621,2.1857
231,533,7.23474,-1.92282,0,0,0,0,0,0,0,-1,1455,491,7.2347,1.92282
238,533,7.23535,-1.67258,0,0,0,0,0,0,0,-1,1462,491,7.23539,1.67258
245,533,6.86682,-1.2301,0,0,0,0,0,0,0,-1,1469,491,6.86686,1.23011
252,533,6.63354,-3.07825,0,0,0,0,0,0,0,-1,1476,491,6.6335,3.07824
259,533,6.16431,-2.35037,0,0,0,0,0,0,0,-1,1483,491,6.1643,2.35037
266,533,5.68884,-1.6214,0,0,0,0,0,0,0,-1,1490,491,5.68885,1.6214
273,533,5.21399,-0.864227,0,0,0,0,0,0,0,-1,1497,491,5.21403,0.864227
280,533,1.41089,-1.97946,0,0,0,0,0,0,0,-1,1504,491,1.41087,1.97946
287,533,1.6814,-2.44443,0,0,0,0,0,0,0,-1,1511,491,1.6814,2.44444
294,533,2.2384,-2.57626,0,0,0,0,0,0,0,-1,1518,491,2.23839,2.57625
301,533,3.39941,-4.0817,0,0,0,0,0,0,0,-1,1525,491,3.3994,4.08171
308,533,4.13733,-4.14752,0,0,0,0,0,0,0,-1,1532,491,4.13727,4.14752
315,533,4.80762,-5.29349,0,0,0,0,0,0,0,-1,1539,491,4.80762,5.29347
322,533,5.47803,-6.43942,0,0,0,0,0,0,0,-1,1546,491,5.47798,6.43943
329,533,3.88477,-3.86301,0,0,0,0,0,0,0,-1,1553,491,3.88475,3.86299
336,533,6.70923,-13.2003,0,0,0,0,0,0,0,-1,1560,491,6.70926,13.2004
343,533,7.06677,-17.1133,0,0,0,0,0,0,0,-1,1567,491,7.06673,17.1133
350,533,10.0876,-23.7254,0,0,0,0,0,0,0,-1,1574,491,10.0877,23.7254
357,533,14.241,-36.3745,0,0,0,0,0,0,0,-1,1581,491,14.241,36.3745
364,533,14.0679,-36.1038,0,0,0,0,0,0,0,-1,1588,491,14.0678,36.1038
371,533,14.1138,-35.4684,0,0,0,0,0,0,0,-1,1595,491,14.1137,35.4684
378,533,14.1951,-34.7697,0,0,0,0,0,0,0,-1,1602,491,14.1951,34.7697
385,533,14.2056,-34.1235,-0.000816877,-0.00266568,-0.00331973,0.00170475,-0.0051873,-0.64961,0.004145,0.0303217,1609,491,14.2056,34.1235
392,533,14.1631,-33.4901,-0.000956608,-0.00200816,-0.00234417,0.000920027,-0.00388479,-0.675079,0.00294484,0.0147665,1616,491,14.163,33.4901
399,533,14.1547,-32.8436,-0.00100296,-0.00115757,-0.00189535,0.000816664,-0.00297719,-0.765017,0.00230574,0.0126164,1623,491,14.1547,32.8436
406,533,14.1683,-32.16,-0.00054917,-0.000328098,-0.00126642,0.000832597,-0.00170986,-0.828929,0.00149673,0.0157133,1630,491,14.1683,32.1599
413,533,14.115,-31.4492,2.12735e-05,0.000691993,-0.000531014,0.000984679,-0.000271413,-1.06704,0.000763184,0.0143672,1637,491,14.1149,31.4492
420,533,14.0616,-30.7512,0.000574549,0.00144533,7.85884e-05,0.00145236,0.000567513,1.48151,0.000845167,0.0131922,1644,491,14.0617,30.7512
427,533,14.036,-30.0357,0.00112213,0.00210098,0.000682397,0.00245132,0.000771794,1.09649,0.00144725,0.0138348,1651,491,14.036,30.0357
434,533,13.9965,-29.3623,0.00169889,0.00267437,0.00131231,0.00358665,0.00078661,0.963318,0.0021768,0.01366,1658,491,13.9964,29.3623
441,533,13.9984,-28.6506,0.00222566,0.00325178,0.00199014,0.00479393,0.000683506,0.911553,0.00299424,0.0143455,1665,491,13.9984,28.6506
448,533,13.9913,-27.9523,0.00264275,0.00362763,0.00264391,0.00582456,0.000445812,0.877471,0.0037433,0.0144753,1672,491,13.9913,27.9523
455,533,13.9318,-27.2552,0.00293663,0.00395821,0.00328358,0.00677049,0.000124346,0.86256,0.00447279,0.0148986,1679,491,13.9318,27.2552
462,533,13.8536,-26.4908,0.00324972,0.00420162,0.00394256,0.00769685,-0.000245509,0.845468,0.005215,0.0147789,1686,491,13.8536,26.4908
469,533,13.8212,-25.7773,0.00353645,0.00443143,0.0046122,0.0086178,-0.000649923,0.833759,0.00597364,0.0100796,1693,491,13.8212,25.7773
476,533,13.8126,-25.03,0.00456371,0.00477783,0.00599166,0.0106634,-0.00132185,0.794331,0.00758802,0.0129348,1700,491,13.8126,25.0301
483,533,13.8271,-24.2455,0.00538819,0.00513172,0.00718875,0.0124498,-0.00192993,0.77648,0.00901236,0.0228668,1707,491,13.8272,24.2455
490,533,13.9088,-23.3186,0,0,0,0,0,0,0,-1,1714,491,13.9088,23.3186
497,533,13.9395,-22.4085,0,0,0,0,0,0,0,-1,1721,491,13.9394,22.4085
504,533,13.5226,-20.5694,0,0,0,0,0,0,0,-1,1728,491,13.5226,20.5694
511,533,13.6221,-19.2798,0,0,0,0,0,0,0,-1,1735,491,13.6221,19.2798
518,533,14.1954,-19.4995,0,0,0,0,0,0,0,-1,1742,491,14.1955,19.4995
525,533,13.7935,-19.6901,0,0,0,0,0,0,0,-1,1749,491,13.7934,19.6901
532,533,15.4377,-17.9016,0,0,0,0,0,0,0,-1,1756,491,15.4377,17.9015
539,533,12.8733,-18.2556,0,0,0,0,0,0,0,-1,1763,491,12.8733,18.2556
546,533,3.59607,1.65799,0,0,0,0,0,0,0,-1,1770,491,3.59605,-1.658
553,533,0,0,0,0,0,0,0,0,0,-1,1777,491,0,0
560,533,0,0,0,0,0,0,0,0,0,-1,1784,491,0,0
567,533,0,0,0,0,0,0,0,0,0,-1,1791,491,0,0
574,533,0,0,0,0,0,0,0,0,0,-1,1798,491,0,0
581,533,0,0,0,0,0,0,0,0,0,-1,1805,491,0,0
588,533,0,0,0,0,0,0,0,0,0,-1,1812,491,0,0
595,533,0,0,0,0,0,0,0,0,0,-1,1819,491,0,0
602,533,0,0,0,0,0,0,0,0,0,-1,1826,491,0,0
609,533,0,0,0,0,0,0,0,0,0,-1,1833,491,0,0
616,533,0,0,0,0,0,0,0,0,0,-1,1840,491,0,0
623,533,0,0,0,0,0,0,0,0,0,-1,1847,491,0,0
630,533,0,0,0,0,0,0,0,0,0,-1,1854,491,0,0
637,533,0,0,0,0,0,0,0,0,0,-1,1861,491,0,0
644,533,0,0,0,0,0,0,0,0,0,-1,1868,491,0,0
651,533,0,0,0,0,0,0,0,0,0,-1,1875,491,0,0
658,533,0,0,0,0,0,0,0,0,0,-1,1882,491,0,0
665,533,0,0,0,0,0,0,0,0,0,-1,1889,491,0,0
672,533,0,0,0,0,0,0,0,0,0,-1,1896,491,0,0
679,533,0,0,0,0,0,0,0,0,0,-1,1903,491,0,0
686,533,0,0,0,0,0,0,0,0,0,-1,1910,491,0,0
693,533,0,0,0,0,0,0,0,0,0,-1,1917,491,0,0
700,533,0,0,0,0,0,0,0,0,0,-1,1924,491,0,0
707,533,0,0,0,0,0,0,0,0,0,-1,1931,491,0,0
714,533,0,0,0,0,0,0,0,0,0,-1,1938,491,0,0
721,533,0,0,0,0,0,0,0,0,0,-1,1945,491,0,0
728,533,0,0,0,0,0,0,0,0,0,-1,1952,491,0,0
735,533,0,0,0,0,0,0,0,0,0,-1,1959,491,0,0
742,533,0,0,0,0,0,0,0,0,0,-1,1966,491,0,0
749,533,0,0,0,0,0,0,0,0,0,-1,1973,491,0,0
756,533,0,0,0,0,0,0,0,0,0,-1,1980,491,0,0
763,533,0,0,0,0,0,0,0,0,0,-1,1987,491,0,0
770,533,0,0,0,0,0,0,0,0,0,-1,1994,491,0,0
777,533,0,0,0,0,0,0,0,0,0,-1,2001,491,0,0
784,533,0,0,0,0,0,0,0,0,0,-1,2008,491,0,0
791,533,0,0,0,0,0,0,0,0,0,-1,2015,491,0,0
798,533,0,0,0,0,0,0,0,0,0,-1,2022,491,0,0
805,533,0,0,0,0,0,0,0,0,0,-1,2029,491,0,0
812,533,0,0,0,0,0,0,0,0,0,-1,2036,491,0,0
-700,526,0,0,0,0,0,0,0,0,0,-1,524,498,0,0
-693,526,0,0,0,0,0,0,0,0,0,-1,531,498,0,0
-686,526,0,0,0,0,0,0,0,0,0,-1,538,498,0,0
-679,526,0,0,0,0,0,0,0,0,0,-1,545,498,0,0
-672,526,0,0,0,0,0,0,0,0,0,-1,552,498,0,0
-665,526,0,0,0,0,0,0,0,0,0,-1,559,498,0,0
-658,526,0,0,0,0,0,0,0,0,0,-1,566,498,0,0
-651,526,0,0,0,0,0,0,0,0,0,-1,573,498,0,0
-644,526,0,0,0,0,0,0,0,0,0,-1,580,498,0,0
-637,526,0,0,0,0,0,0,0,0,0,-1,587,498,0,0
-630,526,0,0,0,0,0,0,0,0,0,-1,594,498,0,0
-623,526,0,0,0,0,0,0,0,0,0,-1,601,498,0,0
-616,526,0,0,0,0,0,0,0,0,0,-1,608,498,0,0
-609,526,0,0,0,0,0,0,0,0,0,-1,615,498,0,0
-602,526,0,0,0,0,0,0,0,0,0,-1,622,498,0,0
-595,526,0,0,0,0,0,0,0,0,0,-1,629,498,0,0
-588,526,0,0,0,0,0,0,0,0,0,-1,636,498,0,0
-581,526,0,0,0,0,0,0,0,0,0,-1,643,498,0,0
-574,526,0,0,0,0,0,0,0,0,0,-1,650,498,0,0
-567,526,0,0,0,0,0,0,0,0,0,-1,657,498,0,0
-560,526,0,0,0,0,0,0,0,0,0,-1,664,498,0,0
-553,526,0,0,0,0,0,0,0,0,0,-1,671,498,0,0
-546,526,0,0,0,0,0,0,0,0,0,-1,678,498,0,0
-539,526,0,0,0,0,0,0,0,0,0,-1,685,498,0,0
-532,526,0,0,0,0,0,0,0,0,0,-1,692,498,0,0
-525,526,0,0,0,0,0,0,0,0,0,-1,699,498,0,0
-518,526,0,0,0,0,0,0,0,0,0,-1,706,498,0,0
-511,526,0,0,0,0,0,0,0,0,0,-1,713,498,0,0
-504,526,0,0,0,0,0,0,0,0,0,-1,720,498,0,0
-497,526,0,0,0,0,0,0,0,0,0,-1,727,498,0,0
-490,526,0,0,0,0,0,0,0,0,0,-1,734,498,0,0
-483,526,0,0,0,0,0,0,0,0,0,-1,741,498,0,0
-476,526,0,0,0,0,0,0,0,0,0,-1,748,498,0,0
-469,526,0,0,0,0,0,0,0,0,0,-1,755,498,0,0
-462,526,0,0,0,0,0,0,0,0,0,-1,762,498,0,0
-455,526,0,0,0,0,0,0,0,0,0,-1,769,498,0,0
-448,526,0,0,0,0,0,0,0,0,0,-1,776,498,0,0
-441,526,0,0,0,0,0,0,0,0,0,-1,783,498,0,0
-434,526,-0.153564,-5.96649,0,0,0,0,0,0,0,-1,790,498,-0.153589,5.9665
-427,526,1.23206,-4.59808,0,0,0,0,0,0,0,-1,797,498,1.23208,4.59809
-420,526,-1.76373,-11.6241,0,0,0,0,0,0,0,-1,804,498,-1.76373,11.6241
-413,526,-1.38965,-11.7916,0,0,0,0,0,0,0,-1,811,498,-1.38963,11.7916
-406,526,-1.35187,-12.5182,0,0,0,0,0,0,0,-1,818,498,-1.35185,12.5181
-399,526,-1.32715,-13.2116,0,0,0,0,0,0,0,-1,825,498,-1.32713,13.2116
-392,526,0.197571,-15.303,0,0,0,0,0,0,0,-1,832,498,0.197598,15.303
-385,526,-2.69397,-19.6176,0,0,0,0,0,0,0,-1,839,498,-2.69399,19.6176
-378,526,-1.4411,-21.9603,0,0,0,0,0,0,0,-1,846,498,-1.44111,21.9603
-371,526,-1.151,-23.0246,0.0119862,0.0248885,-0.0115837,0.0316963,0.00517846,-1.03947,0.0196337,0.0414607,853,498,-1.15102,23.0246
-364,526,-1.16284,-24.2611,0.00997983,0.021133,-0.00965863,0.0267093,0.00440351,-1.0472,0.016535,0.0222475,860,498,-1.16284,24.2611
-357,526,-1.11218,-25.1247,0.00796705,0.017462,-0.00792209,0.0219502,0.00347883,-1.05534,0.0136227,0.014761,867,498,-1.11215,25.1247
-350,526,-1.14948,-25.8737,0.00606555,0.0140838,-0.00634033,0.0175762,0.00257314,-1.06732,0.0109609,0.0129367,874,498,-1.14947,25.8737
-343,526,-1.20917,-26.5882,0.00448499,0.0110098,-0.00498511,0.0137051,0.00178965,-1.07514,0.00860246,0.0163364,881,498,-1.20919,26.5882
-336,526,-1.25824,-27.3099,0.00316153,0.00835651,-0.00376723,0.0103349,0.00118311,-1.08722,0.0065314,0.0159886,888,498,-1.25824,27.3099
-329,526,-1.29639,-28.0281,0.00213695,0.00603878,-0.00273321,0.00744592,0.000729815,-1.09536,0.00473944,0.0160651,895,498,-1.29636,28.0281
-322,526,-1.31323,-28.7129,0.00140375,0.00396837,-0.00178294,0.00488224,0.000489887,-1.09715,0.00310444,0.0108132,902,498,-1.31324,28.7129
-315,526,-1.36053,-29.4186,0.000972823,0.00228257,-0.000964855,0.00279381,0.000461591,-1.08355,0.00172933,0.0096352,909,498,-1.36056,29.4186
-308,526,-1.40955,-30.1243,0.000778746,0.00105031,-0.00039836,0.00133539,0.000493662,-0.949649,0.00077967,0.00918508,916,498,-1.40956,30.1243
-301,526,-1.45532,-30.7687,0.00090202,8.37278e-05,5.86946e-05,0.000906208,7.95392e-05,0.0712421,0.000579448,0.0108909,923,498,-1.45529,30.7688
-294,526,-1.44995,-31.4254,0.0012756,-0.000643556,0.000541705,0.00141794,-0.0007859,0.256963,0.00128972,0.011157,930,498,-1.44994,31.4254
-287,526,-1.45856,-32.103,0.00170467,-0.00142167,0.0010078,0.00200138,-0.00171838,0.286326,0.00214968,0.0109314,937,498,-1.45856,32.103
-280,526,-1.50476,-32.7726,0.00117814,-0.00321391,0.00163849,0.00172204,-0.0037578,0.320505,0.00323574,0.0136181,944,498,-1.50475,32.7726
-273,526,-1.50562,-33.4507,0.000440208,-0.00526272,0.00287883,0.00164072,-0.00646323,0.395087,0.00494726,0.0113962,951,498,-1.50559,33.4507
-266,526,-1.52551,-34.1012,-0.00015961,-0.00778867,0.00467189,0.00205722,-0.0100055,0.443042,0.00745134,0.0158352,958,498,-1.5255,34.1012
-259,526,-1.47443,-34.7365,-0.000856816,-0.0107193,0.0064241,0.00231048,-0.0138866,0.458058,0.0101162,0.0423452,965,498,-1.47443,34.7364
-252,526,-1.51147,-35.4459,0,0,0,0,0,0,0,-1,972,498,-1.51146,35.4458
-245,526,-1.58136,-36.0493,0,0,0,0,0,0,0,-1,979,498,-1.58133,36.0493
-238,526,-1.43744,-36.3979,0,0,0,0,0,0,0,-1,986,498,-1.43741,36.3979
-231,526,-1.71277,-36.3625,-0.00669497,-0.0301635,0.0165248,0.001838,-0.0386965,0.476662,0.0264316,0.047428,993,498,-1.71278,36.3625
-224,526,-2.25146,-37.0867,-0.00797573,-0.0364553,0.0196173,0.00202516,-0.0464562,0.471456,0.0316675,0.0478231,1000,498,-2.25147,37.0867
-217,526,-2.31274,-37.6651,-0.0088539,-0.0432447,0.0226636,0.00239927,-0.0544979,0.460868,0.0371575,0.0489684,1007,498,-2.31277,37.6651
-210,526,-2.11066,-38.1612,0,0,0,0,0,0,0,-1,1014,498,-2.11067,38.1612
-203,526,-0.659302,-18.8818,0,0,0,0,0,0,0,-1,1021,498,-0.659273,18.8818
-196,526,-0.328247,-12.179,0,0,0,0,0,0,0,-1,1028,498,-0.328238,12.179
-189,526,0.401245,-5.96826,0,0,0,0,0,0,0,-1,1035,498,0.401197,5.96826
-182,526,1.7323,-2.99405,0,0,0,0,0,0,0,-1,1042,498,1.73226,2.99404
-175,526,2.27637,-2.07983,0,0,0,0,0,0,0,-1,1049,498,2.27639,2.07984
-168,526,2.12036,-1.66049,0,0,0,0,0,0,0,-1,1056,498,2.12035,1.66048
-161,526,2.09082,-1.20572,0,0,0,0,0,0,0,-1,1063,498,2.09086,1.2057
-154,526,-1.3446,-5.37799,0,0,0,0,0,0,0,-1,1070,498,-1.34457,5.37799
-147,526,-0.472656,-6.64996,0,0,0,0,0,0,0,-1,1077,498,-0.472659,6.64997
-140,526,0.422852,-8.03339,0,0,0,0,0,0,0,-1,1084,498,0.422844,8.0334
-133,526,1.09583,-9.2215,0,0,0,0,0,0,0,-1,1091,498,1.09581,9.2215
-126,526,3.42529,-2.36053,0,0,0,0,0,0,0,-1,1098,498,3.42523,2.36052
-119,526,2.7771,-0.764099,0,0,0,0,0,0,0,-1,1105,498,2.7771,0.764107
-112,526,2.57715,-1.1893,0,0,0,0,0,0,0,-1,1112,498,2.57718,1.1893
-105,526,0,0,0,0,0,0,0,0,0,-1,1119,498,0,0
-98,526,0,0,0,0,0,0,0,0,0,-1,1126,498,0,0
-91,526,0,0,0,0,0,0,0,0,0,-1,1133,498,0,0
-84,526,0,0,0,0,0,0,0,0,0,-1,1140,498,0,0
-77,526,0,0,0,0,0,0,0,0,0,-1,1147,498,0,0
-70,526,0,0,0,0,0,0,0,0,0,-1,1154,498,0,0
-63,526,0,0,0,0,0,0,0,0,0,-1,1161,498,0,0
-56,526,0,0,0,0,0,0,0,0,0,-1,1168,498,0,0
-49,526,0,0,0,0,0,0,0,0,0,-1,1175,498,0,0
-42,526,0,0,0,0,0,0,0,0,0,-1,1182,498,0,0
-35,526,0,0,0,0,0,0,0,0,0,-1,1189,498,0,0
-28,526,0,0,0,0,0,0,0,0,0,-1,1196,498,0,0
-21,526,0,0,0,0,0,0,0,0,0,-1,1203,498,0,0
-14,526,0,0,0,0,0,0,0,0,0,-1,1210,498,0,0
-7,526,0,0,0,0,0,0,0,0,0,-1,1217,498,0,0
0,526,0,0,0,0,0,0,0,0,0,-1,1224,498,0,0
7,526,0,0,0,0,0,0,0,0,0,-1,1231,498,0,0
14,526,0,0,0,0,0,0,0,0,0,-1,1238,498,0,0
21,526,0,0,0,0,0,0,0,0,0,-1,1245,498,0,0
28,526,0,0,0,0,0,0,0,0,0,-1,1252,498,0,0
35,526,0,0,0,0,0,0,0,0,0,-1,1259,498,0,0
42,526,0,0,0,0,0,0,0,0,0,-1,1266,498,0,0
49,526,0,0,0,0,0,0,0,0,0,-1,1273,498,0,0
56,526,0,0,0,0,0,0,0,0,0,-1,1280,498,0,0
63,526,0,0,0,0,0,0,0,0,0,-1,1287,498,0,0
70,526,0,0,0,0,0,0,0,0,0,-1,1294,498,0,0
77,526,0,0,0,0,0,0,0,0,0,-1,1301,498,0,0
84,526,0,0,0,0,0,0,0,0,0,-1,1308,498,0,0
91,526,0,0,0,0,0,0,0,0,0,-1,1315,498,0,0
98,526,0,0,0,0,0,0,0,0,0,-1,1322,498,0,0
105,526,0,0,0,0,0,0,0,0,0,-1,1329,498,0,0
112,526,0,0,0,0,0,0,0,0,0,-1,1336,498,0,0
119,526,0,0,0,0,0,0,0,0,0,-1,1343,498,0,0
126,526,0,0,0,0,0,0,0,0,0,-1,1350,498,0,0
133,526,0,0,0,0,0,0,0,0,0,-1,1357,498,0,0
140,526,0,0,0,0,0,0,0,0,0,-1,1364,498,0,0
147,526,0,0,0,0,0,0,0,0,0,-1,1371,498,0,0
154,526,0,0,0,0,0,0,0,0,0,-1,1378,498,0,0
161,526,0,0,0,0,0,0,0,0,0,-1,1385,498,0,0
168,526,0,0,0,0,0,0,0,0,0,-1,1392,498,0,0
175,526,0,0,0,0,0,0,0,0,0,-1,1399,498,0,0
182,526,0,0,0,0,0,0,0,0,0,-1,1406,498,0,0
189,526,0,0,0,0,0,0,0,0,0,-1,1413,498,0,0
196,526,0,0,0,0,0,0,0,0,0,-1,1420,498,0,0
203,526,0,0,0,0,0,0,0,0,0,-1,1427,498,0,0
210,526,0,0,0,0,0,0,0,0,0,-1,1434,498,0,0
217,526,0,0,0,0,0,0,0,0,0,-1,1441,498,0,0
224,526,0,0,0,0,0,0,0,0,0,-1,1448,498,0,0
231,526,7.93237,-1.30618,0,0,0,0,0,0,0,-1,1455,498,7.93238,1.30618
238,526,7.97717,-1.08197,0,0,0,0,0,0,0,-1,1462,498,7.97723,1.08196
245,526,7.2793,-0.792938,0,0,0,0,0,0,0,-1,1469,498,7.27931,0.792926
252,526,6.73523,-2.23608,0,0,0,0,0,0,0,-1,1476,498,6.73525,2.23608
259,526,6.22949,-1.84967,0,0,0,0,0,0,0,-1,1483,498,6.22953,1.84968
266,526,5.72375,-1.46329,0,0,0,0,0,0,0,-1,1490,498,5.72381,1.46328
273,526,4.33984,0.49173,0,0,0,0,0,0,0,-1,1497,498,4.33979,-0.491727
280,526,1.4585,-1.59897,0,0,0,0,0,0,0,-1,1504,498,1.45846,1.59895
287,526,1.46411,-2.40134,0,0,0,0,0,0,0,-1,1511,498,1.46406,2.40133
294,526,5.57471,-4.59085,0,0,0,0,0,0,0,-1,1518,498,5.57466,4.59084
301,526,4.42786,-3.99677,0,0,0,0,0,0,0,-1,1525,498,4.42788,3.99676
308,526,5.79529,-4.19366,0,0,0,0,0,0,0,-1,1532,498,5.79528,4.19368
315,526,5.09851,-5.20068,0,0,0,0,0,0,0,-1,1539,498,5.09851,5.20068
322,526,5.50708,-4.72348,0,0,0,0,0,0,0,-1,1546,498,5.50713,4.72347
329,526,3.88672,-4.345,0,0,0,0,0,0,0,-1,1553,498,3.88674,4.34501
336,526,4.97876,-2.23828,0,0,0,0,0,0,0,-1,1560,498,4.97877,2.23828
343,526,3.31665,-2.69696,0,0,0,0,0,0,0,-1,1567,498,3.31667,2.69696
350,526,6.06287,-6.12015,0,0,0,0,0,0,0,-1,1574,498,6.06286,6.12014
357,526,12.9944,-29.1665,0,0,0,0,0,0,0,-1,1581,498,12.9943,29.1665
364,526,13.2582,-29.5416,0,0,0,0,0,0,0,-1,1588,498,13.2581,29.5416
371,526,12.4481,-29.0131,0,0,0,0,0,0,0,-1,1595,498,12.4481,29.0131
378,526,14.4457,-34.3574,0,0,0,0,0,0,0,-1,1602,498,14.4457,34.3574
385,526,14.8441,-34.2316,0,0,0,0,0,0,0,-1,1609,498,14.8441,34.2316
392,526,14.9413,-33.496,-0.00140128,-0.00213483,-0.00327053,0.00152298,-0.00505909,-0.729559,0.00397876,0.04032,1616,498,14.9413,33.4961
399,526,14.8048,-32.8246,-0.00154322,-0.00140156,-0.00290421,0.00143268,-0.00437746,-0.79759,0.00349516,0.0204722,1623,498,14.8048,32.8246
406,526,14.8505,-32.1021,-0.0010127,-0.000749204,-0.00222626,0.0013492,-0.0031111,-0.814953,0.00264128,0.0129731,1630,498,14.8505,32.1021
413,526,14.8101,-31.425,-0.000403175,0.0001326,-0.00139346,0.00128369,-0.00155426,-0.880363,0.00164097,0.0126769,1637,498,14.8101,31.425
420,526,14.7488,-30.7381,8.39455e-05,0.000712401,-0.000742329,0.00120427,-0.000407924,-0.985613,0.000967911,0.0133011,1644,498,14.7487,30.7381
427,526,14.7239,-30.0338,0.000517041,0.00122901,-0.000141987,0.00125628,0.000489769,-1.38104,0.000731159,0.0145188,1651,498,14.7239,30.0338
434,526,14.6943,-29.3284,0.000957955,0.00165708,0.000483466,0.00190412,0.000710916,1.09841,0.00111103,0.0129166,1658,498,14.6943,29.3284
441,526,14.6768,-28.6035,0.00136992,0.00211609,0.00114237,0.00294476,0.000541255,0.943232,0.00180994,0.0106546,1665,498,14.6767,28.6035
448,526,14.6602,-27.9021,0.00171415,0.0024232,0.00177572,0.00387944,0.00025791,0.883929,0.00250475,0.00977403,1672,498,14.6601,27.9021
455,526,14.6176,-27.2252,0.00197215,0.00278003,0.00239604,0.00480594,-5.37632e-05,0.868906,0.00322203,0.0134692,1679,498,14.6175,27.2252
462,526,14.5892,-26.4969,0.00225844,0.00305125,0.00300047,0.00568139,-0.000371694,0.851075,0.00391737,0.0110265,1686,498,14.5893,26.4969
469,526,14.5741,-25.7721,0.00253838,0.00333377,0.00361774,0.00657561,-0.000703458,0.840143,0.00463605,0.00787304,1693,498,14.5741,25.7721
476,526,14.5273,-25.0443,0.00343184,0.0037277,0.00485781,0.00843983,-0.0012803,0.800619,0.00609829,0.00957156,1700,498,14.5273,25.0443
483,526,14.5034,-24.2365,0.00412413,0.00413905,0.00589923,0.0100308,-0.00176764,0.78603,0.00734765,0.0136416,1707,498,14.5034,24.2364
490,526,14.5486,-23.3563,0.00524024,0.00454749,0.0073692,0.0122712,-0.00248347,0.761914,0.00912202,0.0328544,1714,498,14.5486,23.3563
497,526,14.6066,-22.5793,0,0,0,0,0,0,0,-1,1721,498,14.6066,22.5793
504,526,14.6672,-22.0038,0,0,0,0,0,0,0,-1,1728,498,14.6673,22.0038
511,526,14.743,-21.1202,0,0,0,0,0,0,0,-1,1735,498,14.7431,21.1203
518,526,14.2356,-20.0781,0,0,0,0,0,0,0,-1,1742,498,14.2357,20.0781
525,526,15.1228,-19.2875,0,0,0,0,0,0,0,-1,1749,498,15.1227,19.2876
532,526,15.7457,-17.9624,0,0,0,0,0,0,0,-1,1756,498,15.7458,17.9624
539,526,16.1064,-16.42,0,0,0,0,0,0,0,-1,1763,498,16.1065,16.42
546,526,12.4675,-17.1617,0,0,0,0,0,0,0,-1,1770,498,12.4675,17.1617
553,526,3.40796,1.37137,0,0,0,0,0,0,0,-1,1777,498,3.40792,-1.37138
560,526,0,0,0,0,0,0,0,0,0,-1,1784,498,0,0
567,526,0,0,0,0,0,0,0,0,0,-1,1791,498,0,0
574,526,0,0,0,0,0,0,0,0,0,-1,1798,498,0,0
581,526,0,0,0,0,0,0,0,0,0,-1,1805,498,0,0
588,526,0,0,0,0,0,0,0,0,0,-1,1812,498,0,0
595,526,0,0,0,0,0,0,0,0,0,-1,1819,498,0,0
602,526,0,0,0,0,0,0,0,0,0,-1,1826,498,0,0
609,526,0,0,0,0,0,0,0,0,0,-1,1833,498,0,0
616,526,0,0,0,0,0,0,0,0,0,-1,1840,498,0,0
623,526,0,0,0,0,0,0,0,0,0,-1,1847,498,0,0
630,526,0,0,0,0,0,0,0,0,0,-1,1854,498,0,0
637,526,0,0,0,0,0,0,0,0,0,-1,1861,498,0,0
644,526,0,0,0,0,0,0,0,0,0,-1,1868,498,0,0
651,526,0,0,0,0,0,0,0,0,0,-1,1875,498,0,0
658,526,0,0,0,0,0,0,0,0,0,-1,1882,498,0,0
665,526,0,0,0,0,0,0,0,0,0,-1,1889,498,0,0
672,526,0,0,0,0,0,0,0,0,0,-1,1896,498,0,0
679,526,0,0,0,0,0,0,0,0,0,-1,1903,498,0,0
686,526,0,0,0,0,0,0,0,0,0,-1,1910,498,0,0
693,526,0,0,0,0,0,0,0,0,0,-1,1917,498,0,0
700,526,0,0,0,0,0,0,0,0,0,-1,1924,498,0,0
707,526,0,0,0,0,0,0,0,0,0,-1,1931,498,0,0
714,526,0,0,0,0,0,0,0,0,0,-1,1938,498,0,0
721,526,0,0,0,0,0,0,0,0,0,-1,1945,498,0,0
728,526,0,0,0,0,0,0,0,0,0,-1,1952,498,0,0
735,526,0,0,0,0,0,0,0,0,0,-1,1959,498,0,0
742,526,0,0,0,0,0,0,0,0,0,-1,1966,498,0,0
749,526,0,0,0,0,0,0,0,0,0,-1,1973,498,0,0
756,526,0,0,0,0,0,0,0,0,0,-1,1980,498,0,0
763,526,0,0,0,0,0,0,0,0,0,-1,1987,498,0,0
770,526,0,0,0,0,0,0,0,0,0,-1,1994,498,0,0
777,526,0,0,0,0,0,0,0,0,0,-1,2001,498,0,0
784,526,0,0,0,0,0,0,0,0,0,-1,2008,498,0,0
791,526,0,0,0,0,0,0,0,0,0,-1,2015,498,0,0
798,526,0,0,0,0,0,0,0,0,0,-1,2022,498,0,0
805,526,0,0,0,0,0,0,0,0,0,-1,2029,498,0,0
812,526,0,0,0,0,0,0,0,0,0,-1,2036,498,0,0
-700,519,0,0,0,0,0,0,0,0,0,-1,524,505,0,0
-693,519,0,0,0,0,0,0,0,0,0,-1,531,505,0,0
-686,519,0,0,0,0,0,0,0,0,0,-1,538,505,0,0
-679,519,0,0,0,0,0,0,0,0,0,-1,545,505,0,0
-672,519,0,0,0,0,0,0,0,0,0,-1,552,505,0,0
-665,519,0,0,0,0,0,0,0,0,0,-1,559,505,0,0
-658,519,0,0,0,0,0,0,0,0,0,-1,566,505,0,0
-651,519,0,0,0,0,0,0,0,0,0,-1,573,505,0,0
-644,519,0,0,0,0,0,0,0,0,0,-1,580,505,0,0
-637,519,0,0,0,0,0,0,0,0,0,-1,587,505,0,0
-630,519,0,0,0,0,0,0,0,0,0,-1,594,505,0,0
-623,519,0,0,0,0,0,0,0,0,0,-1,601,505,0,0
-616,519,0,0,0,0,0,0,0,0,0,-1,608,505,0,0
-609,519,0,0,0,0,0,0,0,0,0,-1,615,505,0,0
-602,519,0,0,0,0,0,0,0,0,0,-1,622,505,0,0
-595,519,0,0,0,0,0,0,0,0,0,-1,629,505,0,0
-588,519,0,0,0,0,0,0,0,0,0,-1,636,505,0,0
-581,519,0,0,0,0,0,0,0,0,0,-1,643,505,0,0
-574,519,0,0,0,0,0,0,0,0,0,-1,650,505,0,0
-567,519,0,0,0,0,0,0,0,0,0,-1,657,505,0,0
-560,519,0,0,0,0,0,0,0,0,0,-1,664,505,0,0
-553,519,0,0,0,0,0,0,0,0,0,-1,671,505,0,0
-546,519,0,0,0,0,0,0,0,0,0,-1,678,505,0,0
-539,519,0,0,0,0,0,0,0,0,0,-1,685,505,0,0
-532,519,0,0,0,0,0,0,0,0,0,-1,692,505,0,0
-525,519,0,0,0,0,0,0,0,0,0,-1,699,505,0,0
-518,519,0,0,0,0,0,0,0,0,0,-1,706,505,0,0
-511,519,0,0,0,0,0,0,0,0,0,-1,713,505,0,0
-504,519,0,0,0,0,0,0,0,0,0,-1,720,505,0,0
-497,519,0,0,0,0,0,0,0,0,0,-1,727,505,0,0
-490,519,0,0,0,0,0,0,0,0,0,-1,734,505,0,0
-483,519,0,0,0,0,0,0,0,0,0,-1,741,505,0,0
-476,519,0,0,0,0,0,0,0,0,0,-1,748,505,0,0
-469,519,0,0,0,0,0,0,0,0,0,-1,755,505,0,0
-462,519,0,0,0,0,0,0,0,0,0,-1,762,505,0,0
-455,519,0,0,0,0,0,0,0,0,0,-1,769,505,0,0
-448,519,0,0,0,0,0,0,0,0,0,-1,776,505,0,0
-441,519,1.34839,-5.29346,0,0,0,0,0,0,0,-1,783,505,1.3484,5.29347
-434,519,0.949585,-5.77313,0,0,0,0,0,0,0,-1,790,505,0.949598,5.77315
-427,519,-0.0523682,-9.31567,0,0,0,0,0,0,0,-1,797,505,-0.0523854,9.31568
-420,519,-2.38867,-12.1938,0,0,0,0,0,0,0,-1,804,505,-2.38867,12.1938
-413,519,-2.2298,-12.4998,0,0,0,0,0,0,0,-1,811,505,-2.22979,12.4998
-406,519,-1.44373,-12.3475,0,0,0,0,0,0,0,-1,818,505,-1.44376,12.3475
-399,519,-1.60516,-15.0849,0,0,0,0,0,0,0,-1,825,505,-1.60518,15.0849
-392,519,-1.5332,-21.087,0,0,0,0,0,0,0,-1,832,505,-1.53319,21.087
-385,519,-2.14294,-21.4039,0,0,0,0,0,0,0,-1,839,505,-2.14293,21.404
-378,519,-1.95972,-22.3752,0.00997735,0.0232334,-0.011705,0.0300566,0.0031541,-1.04302,0.0190735,0.0371041,846,505,-1.9597,22.3752
-371,519,-1.80212,-23.4032,0.00878092,0.0199251,-0.0100398,0.0258354,0.0028706,-1.03874,0.0163509,0.0198307,853,505,-1.80211,23.4032
-364,519,-1.79413,-24.3223,0.0074168,0.0167183,-0.0083356,0.0216128,0.00252231,-1.03986,0.0136457,0.0116897,860,505,-1.79411,24.3223
-357,519,-1.8064,-25.1254,0.00600177,0.01365,-0.00675765,0.0175905,0.00206124,-1.04288,0.0111039,0.0116617,867,505,-1.80641,25.1254
-350,519,-1.84363,-25.8605,0.00468147,0.010802,-0.00532043,0.0138795,0.00160397,-1.04639,0.00876739,0.013924,874,505,-1.84365,25.8605
-343,519,-1.93762,-26.5336,0.00354922,0.0081408,-0.00405483,0.0105047,0.00118536,-1.04299,0.00664333,0.0162586,881,505,-1.9376,26.5336
-336,519,-1.99884,-27.2347,0.00255462,0.00580485,-0.00289536,0.0075,0.000859474,-1.04113,0.00473956,0.01654,888,505,-1.99883,27.2347
-329,519,-1.98511,-27.9686,0.0018037,0.00376357,-0.0019174,0.00493694,0.000630335,-1.02163,0.0031026,0.0142939,895,505,-1.98512,27.9686
-322,519,-1.99518,-28.6749,0.0013068,0.00196988,-0.00104348,0.00273323,0.000543456,-0.939216,0.00167073,0.0117381,902,505,-1.99519,28.6749
-315,519,-2.03467,-29.3896,0.00105403,0.000536758,-0.000308624,0.00119806,0.000392726,-0.436647,0.000705243,0.00922302,909,505,-2.03469,29.3896
-308,519,-2.09393,-30.1075,0.00110698,-0.000464186,0.000215223,0.00113592,-0.000493135,0.133703,0.000964635,0.00786004,916,505,-2.09392,30.1075
-301,519,-2.13287,-30.7729,0.0013959,-0.00118429,0.000642195,0.0015469,-0.00133529,0.230939,0.00166553,0.013294,923,505,-2.13288,30.7729
-294,519,-2.11823,-31.3989,0.00179705,-0.00169044,0.00104841,0.00208796,-0.00198135,0.270665,0.00234968,0.0168313,930,505,-2.11821,31.3989
-287,519,-2.15002,-32.0643,0.00225186,-0.00232752,0.00143435,0.00266403,-0.00273969,0.279816,0.00311994,0.0125198,937,505,-2.15003,32.0643
-280,519,-2.19299,-32.7521,0.00143473,-0.00432756,0.00207382,0.00210347,-0.00499631,0.311942,0.00421095,0.0227764,944,505,-2.19297,32.7521
-273,519,-2.14856,-33.4542,0.00032425,-0.00672659,0.00350619,0.00177095,-0.00817329,0.391332,0.00612512,0.0469256,951,505,-2.14855,33.4542
-266,519,-2.19678,-34.188,0,0,0,0,0,0,0,-1,958,505,-2.19679,34.188
-259,519,-2.03528,-34.9082,0,0,0,0,0,0,0,-1,965,505,-2.03529,34.9082
-252,519,-1.84009,-26.8372,0,0,0,0,0,0,0,-1,972,505,-1.8401,26.8372
-245,519,-1.23254,-23.2696,0,0,0,0,0,0,0,-1,979,505,-1.23256,23.2696
-238,519,-1.5415,-31.0349,0,0,0,0,0,0,0,-1,986,505,-1.5415,31.0348
-231,519,-2.33801,-36.0471,0,0,0,0,0,0,0,-1,993,505,-2.33803,36.0471
-224,519,-3.20123,-36.7493,0,0,0,0,0,0,0,-1,1000,505,-3.20124,36.7493
-217,519,-3.24396,-37.0818,0,0,0,0,0,0,0,-1,1007,505,-3.24394,37.0818
-210,519,-0.883362,-34.799,0,0,0,0,0,0,0,-1,1014,505,-0.883379,34.799
-203,519,-0.513611,-5.39017,0,0,0,0,0,0,0,-1,1021,505,-0.513585,5.39017
-196,519,-0.374023,-5.41635,0,0,0,0,0,0,0,-1,1028,505,-0.374047,5.41635
-189,519,-0.234497,-5.44254,0,0,0,0,0,0,0,-1,1035,505,-0.234508,5.44253
-182,519,2.76697,-1.19659,0,0,0,0,0,0,0,-1,1042,505,2.76696,1.19661
-175,519,2.31323,-0.960938,0,0,0,0,0,0,0,-1,1049,505,2.31319,0.960941
-168,519,2.01074,-0.721405,0,0,0,0,0,0,0,-1,1056,505,2.01072,0.721407
-161,519,2.32056,-0.522339,0,0,0,0,0,0,0,-1,1063,505,2.32057,0.522328
-154,519,2.55566,0.116669,0,0,0,0,0,0,0,-1,1070,505,2.55563,-0.116661
-147,519,-0.55127,-6.14001,0,0,0,0,0,0,0,-1,1077,505,-0.551252,6.14001
-140,519,0.240601,-7.53503,0,0,0,0,0,0,0,-1,1084,505,0.240653,7.53501
-133,519,2.70911,-4.4516,0,0,0,0,0,0,0,-1,1091,505,2.70915,4.45161
-126,519,0,0,0,0,0,0,0,0,0,-1,1098,505,0,0
-119,519,0,0,0,0,0,0,0,0,0,-1,1105,505,0,0
-112,519,0,0,0,0,0,0,0,0,0,-1,1112,505,0,0
-105,519,0,0,0,0,0,0,0,0,0,-1,1119,505,0,0
-98,519,0,0,0,0,0,0,0,0,0,-1,1126,505,0,0
-91,519,0,0,0,0,0,0,0,0,0,-1,1133,505,0,0
-84,519,0,0,0,0,0,0,0,0,0,-1,1140,505,0,0
-77,519,0,0,0,0,0,0,0,0,0,-1,1147,505,0,0
-70,519,0,0,0,0,0,0,0,0,0,-1,1154,505,0,0
-63,519,0,0,0,0,0,0,0,0,0,-1,1161,505,0,0
-56,519,0,0,0,0,0,0,0,0,0,-1,1168,505,0,0
-49,519,0,0,0,0,0,0,0,0,0,-1,1175,505,0,0
-42,519,0,0,0,0,0,0,0,0,0,-1,1182,505,0,0
-35,519,0,0,0,0,0,0,0,0,0,-1,1189,505,0,0
-28,519,0,0,0,0,0,0,0,0,0,-1,1196,505,0,0
-21,519,0,0,0,0,0,0,0,0,0,-1,1203,505,0,0
-14,519,0,0,0,0,0,0,0,0,0,-1,1210,505,0,0
-7,519,0,0,0,0,0,0,0,0,0,-1,1217,505,0,0
0,519,0,0,0,0,0,0,0,0,0,-1,1224,505,0,0
7,519,0,0,0,0,0,0,0,0,0,-1,1231,505,0,0
14,519,0,0,0,0,0,0,0,0,0,-1,1238,505,0,0
21,519,0,0,0,0,0,0,0,0,0,-1,1245,505,0,0
28,519,0,0,0,0,0,0,0,0,0,-1,1252,505,0,0
35,519,0,0,0,0,0,0,0,0,0,-1,1259,505,0,0
42,519,0,0,0,0,0,0,0,0,0,-1,1266,505,0,0
49,519,0,0,0,0,0,0,0,0,0,-1,1273,505,0,0
56,519,0,0,0,0,0,0,0,0,0,-1,1280,505,0,0
63,519,0,0,0,0,0,0,0,0,0,-1,1287,505,0,0
70,519,0,0,0,0,0,0,0,0,0,-1,1294,505,0,0
77,519,0,0,0,0,0,0,0,0,0,-1,1301,505,0,0
84,519,0,0,0,0,0,0,0,0,0,-1,1308,505,0,0
91,519,0,0,0,0,0,0,0,0,0,-1,1315,505,0,0
98,519,0,0,0,0,0,0,0,0,0,-1,1322,505,0,0
105,519,0,0,0,0,0,0,0,0,0,-1,1329,505,0,0
112,519,0,0,0,0,0,0,0,0,0,-1,1336,505,0,0
119,519,0,0,0,0,0,0,0,0,0,-1,1343,505,0,0
126,519,0,0,0,0,0,0,0,0,0,-1,1350,505,0,0
133,519,0,0,0,0,0,0,0,0,0,-1,1357,505,0,0
140,519,0,0,0,0,0,0,0,0,0,-1,1364,505,0,0
147,519,0,0,0,0,0,0,0,0,0,-1,1371,505,0,0
154,519,0,0,0,0,0,0,0,0,0,-1,1378,505,0,0
161,519,0,0,0,0,0,0,0,0,0,-1,1385,505,0,0
168,519,0,0,0,0,0,0,0,0,0,-1,1392,505,0,0
175,519,0,0,0,0,0,0,0,0,0,-1,1399,505,0,0
182,519,0,0,0,0,0,0,0,0,0,-1,1406,505,0,0
189,519,0,0,0,0,0,0,0,0,0,-1,1413,505,0,0
196,519,0,0,0,0,0,0,0,0,0,-1,1420,505,0,0
203,519,0,0,0,0,0,0,0,0,0,-1,1427,505,0,0
210,519,0,0,0,0,0,0,0,0,0,-1,1434,505,0,0
217,519,0,0,0,0,0,0,0,0,0,-1,1441,505,0,0
224,519,0,0,0,0,0,0,0,0,0,-1,1448,505,0,0
231,519,0,0,0,0,0,0,0,0,0,-1,1455,505,0,0
238,519,0,0,0,0,0,0,0,0,0,-1,1462,505,0,0
245,519,0,0,0,0,0,0,0,0,0,-1,1469,505,0,0
252,519,5.26208,0.0938416,0,0,0,0,0,0,0,-1,1476,505,5.26207,-0.0938493
259,519,6.14246,-1.36441,0,0,0,0,0,0,0,-1,1483,505,6.14241,1.36441
266,519,5.31909,-0.400787,0,0,0,0,0,0,0,-1,1490,505,5.31912,0.400773
273,519,4.02393,0.325531,0,0,0,0,0,0,0,-1,1497,505,4.0239,-0.325522
280,519,4.68848,0.53006,0,0,0,0,0,0,0,-1,1504,505,4.68842,-0.530073
287,519,7.9519,-3.80801,0,0,0,0,0,0,0,-1,1511,505,7.95193,3.808
294,519,6.92273,-3.38889,0,0,0,0,0,0,0,-1,1518,505,6.92268,3.38888
301,519,5.35669,-2.92661,0,0,0,0,0,0,0,-1,1525,505,5.35675,2.9266
308,519,7.37549,-5.64529,0,0,0,0,0,0,0,-1,1532,505,7.3755,5.64529
315,519,6.30029,-4.53754,0,0,0,0,0,0,0,-1,1539,505,6.30024,4.53753
322,519,5.84302,-5.45117,0,0,0,0,0,0,0,-1,1546,505,5.84303,5.45116
329,519,4.92407,0.62384,0,0,0,0,0,0,0,-1,1553,505,4.92403,-0.623832
336,519,3.10095,-0.329285,0,0,0,0,0,0,0,-1,1560,505,3.1009,0.329283
343,519,2.49146,-2.31119,0,0,0,0,0,0,0,-1,1567,505,2.49145,2.31119
350,519,3.47729,-2.22516,0,0,0,0,0,0,0,-1,1574,505,3.47726,2.22515
357,519,13.271,-29.6344,0,0,0,0,0,0,0,-1,1581,505,13.271,29.6344
364,519,12.8292,-28.3627,0,0,0,0,0,0,0,-1,1588,505,12.8292,28.3627
371,519,12.3875,-27.0911,0,0,0,0,0,0,0,-1,1595,505,12.3874,27.091
378,519,6.36597,-10.0967,0,0,0,0,0,0,0,-1,1602,505,6.36597,10.0967
385,519,6.24756,-9.72186,0,0,0,0,0,0,0,-1,1609,505,6.24752,9.72183
392,519,15.5061,-33.6968,0,0,0,0,0,0,0,-1,1616,505,15.506,33.6968
399,519,15.6237,-32.6049,-0.00143523,-0.00149029,-0.0038658,0.00240314,-0.00532866,-0.781838,0.00456923,0.0475355,1623,505,15.6237,32.6049
406,519,15.4904,-32.079,-0.000685326,-0.000934844,-0.00306242,0.00225488,-0.00387505,-0.76504,0.00358008,0.0326117,1630,505,15.4904,32.079
413,519,15.5397,-31.4141,1.76855e-05,-0.000118962,-0.00209149,0.00204197,-0.00214324,-0.76907,0.00241657,0.0153618,1637,505,15.5396,31.414
420,519,15.4628,-30.7065,0.000404457,0.000342736,-0.00140136,0.0017753,-0.0010281,-0.774389,0.0016376,0.0150815,1644,505,15.4628,30.7065
427,519,15.4293,-30.0491,0.000625539,0.000742324,-0.000837059,0.00152302,-0.000155161,-0.820221,0.00107082,0.0143065,1651,505,15.4293,30.0491
434,519,15.406,-29.335,0.000811637,0.00105593,-0.000261528,0.00122243,0.000645136,-1.00387,0.00070613,0.0131092,1658,505,15.406,29.335
441,519,15.3662,-28.5773,0.00098761,0.00141715,0.000326307,0.00159302,0.000811737,1.07645,0.000919789,0.0119204,1665,505,15.3663,28.5773
448,519,15.3496,-27.8636,0.00114697,0.00166723,0.000897512,0.00234155,0.000472651,0.926452,0.00142977,0.00928903,1672,505,15.3496,27.8637
455,519,15.3247,-27.1967,0.00126427,0.00203611,0.00146411,0.0031643,0.000136075,0.914261,0.00206567,0.0111449,1679,505,15.3247,27.1966
462,519,15.3076,-26.4705,0.00142529,0.00230597,0.00198856,0.00390236,-0.000171097,0.894359,0.00266044,0.0110873,1686,505,15.3076,26.4704
469,519,15.2996,-25.7192,0.00162565,0.00259618,0.00254808,0.0047048,-0.000482964,0.879493,0.00330929,0.0108222,1693,505,15.2996,25.7192
476,519,15.2671,-24.9774,0.00233207,0.00298777,0.00363355,0.00630823,-0.000988396,0.830391,0.00457072,0.0130758,1700,505,15.267,24.9773
483,519,15.2234,-24.2408,0.00288172,0.00340487,0.00453118,0.00768202,-0.00139542,0.81423,0.00564428,0.0148226,1707,505,15.2234,24.2409
490,519,15.1688,-23.4602,0.00379443,0.00386087,0.00575637,0.00958412,-0.00192881,0.788284,0.00711997,0.0129477,1714,505,15.1688,23.4602
497,519,15.1298,-22.789,0.00501913,0.00427118,0.00715883,0.0118137,-0.00252343,0.759302,0.00883788,0.0262373,1721,505,15.1298,22.789
504,519,15.0372,-22.0081,0.00665642,0.0048332,0.00881559,0.0146074,-0.00311779,0.733877,0.0109268,0.0274399,1728,505,15.0372,22.0081
511,519,15.1201,-21.1179,0.00902196,0.00542738,0.0110274,0.0183976,-0.00394823,0.704616,0.0137711,0.0351674,1735,505,15.1201,21.1179
518,519,15.0939,-20.3348,0,0,0,0,0,0,0,-1,1742,505,15.0938,20.3348
525,519,15.5391,-19.4459,0.0154752,0.00741413,0.0170227,0.0289381,-0.00604869,0.669151,0.0215925,0.048086,1749,505,15.539,19.4459
532,519,16.1069,-18.1983,0,0,0,0,0,0,0,-1,1756,505,16.1069,18.1983
539,519,16.5902,-16.8075,0,0,0,0,0,0,0,-1,1763,505,16.5903,16.8075
546,519,12.4001,-16.5616,0,0,0,0,0,0,0,-1,1770,505,12.4002,16.5616
553,519,4.14136,0.0667419,0,0,0,0,0,0,0,-1,1777,505,4.14141,-0.0667503
560,519,3.77856,0.279724,0,0,0,0,0,0,0,-1,1784,505,3.77861,-0.279731
567,519,0,0,0,0,0,0,0,0,0,-1,1791,505,0,0
574,519,0,0,0,0,0,0,0,0,0,-1,1798,505,0,0
581,519,0,0,0,0,0,0,0,0,0,-1,1805,505,0,0
588,519,0,0,0,0,0,0,0,0,0,-1,1812,505,0,0
595,519,0,0,0,0,0,0,0,0,0,-1,1819,505,0,0
602,519,0,0,0,0,0,0,0,0,0,-1,1826,505,0,0
609,519,0,0,0,0,0,0,0,0,0,-1,1833,505,0,0
616,519,0,0,0,0,0,0,0,0,0,-1,1840,505,0,0
623,519,0,0,0,0,0,0,0,0,0,-1,1847,505,0,0
630,519,0,0,0,0,0,0,0,0,0,-1,1854,505,0,0
637,519,0,0,0,0,0,0,0,0,0,-1,1861,505,0,0
644,519,0,0,0,0,0,0,0,0,0,-1,1868,505,0,0
651,519,0,0,0,0,0,0,0,0,0,-1,1875,505,0,0
658,519,0,0,0,0,0,0,0,0,0,-1,1882,505,0,0
665,519,0,0,0,0,0,0,0,0,0,-1,1889,505,0,0
672,519,0,0,0,0,0,0,0,0,0,-1,1896,505,0,0
679,519,0,0,0,0,0,0,0,0,0,-1,1903,505,0,0
686,519,0,0,0,0,0,0,0,0,0,-1,1910,505,0,0
693,519,0,0,0,0,0,0,0,0,0,-1,1917,505,0,0
700,519,0,0,0,0,0,0,0,0,0,-1,1924,505,0,0
707,519,0,0,0,0,0,0,0,0,0,-1,1931,505,0,0
714,519,0,0,0,0,0,0,0,0,0,-1,1938,505,0,0
721,519,0,0,0,0,0,0,0,0,0,-1,1945,505,0,0
728,519,0,0,0,0,0,0,0,0,0,-1,1952,505,0,0
735,519,0,0,0,0,0,0,0,0,0,-1,1959,505,0,0
742,519,0,0,0,0,0,0,0,0,0,-1,1966,505,0,0
749,519,0,0,0,0,0,0,0,0,0,-1,1973,505,0,0
756,519,0,0,0,0,0,0,0,0,0,-1,1980,505,0,0
763,519,0,0,0,0,0,0,0,0,0,-1,1987,505,0,0
770,519,0,0,0,0,0,0,0,0,0,-1,1994,505,0,0
777,519,0,0,0,0,0,0,0,0,0,-1,2001,505,0,0
784,519,0,0,0,0,0,0,0,0,0,-1,2008,505,0,0
791,519,0,0,0,0,0,0,0,0,0,-1,2015,505,0,0
798,519,0,0,0,0,0,0,0,0,0,-1,2022,505,0,0
805,519,0,0,0,0,0,0,0,0,0,-1,2029,505,0,0
812,519,0,0,0,0,0,0,0,0,0,-1,2036,505,0,0
-700,512,0,0,0,0,0,0,0,0,0,-1,524,512,0,0
-693,512,0,0,0,0,0,0,0,0,0,-1,531,512,0,0
-686,512,0,0,0,0,0,0,0,0,0,-1,538,512,0,0
-679,512,0,0,0,0,0,0,0,0,0,-1,545,512,0,0
-672,512,0,0,0,0,0,0,0,0,0,-1,552,512,0,0
-665,512,0,0,0,0,0,0,0,0,0,-1,559,512,0,0
-658,512,0,0,0,0,0,0,0,0,0,-1,566,512,0,0
-651,512,0,0,0,0,0,0,0,0,0,-1,573,512,0,0
-644,512,0,0,0,0,0,0,0,0,0,-1,580,512,0,0
-637,512,0,0,0,0,0,0,0,0,0,-1,587,512,0,0
-630,512,0,0,0,0,0,0,0,0,0,-1,594,512,0,0
-623,512,0,0,0,0,0,0,0,0,0,-1,601,512,0,0
-616,512,0,0,0,0,0,0,0,0,0,-1,608,512,0,0
-609,512,0,0,0,0,0,0,0,0,0,-1,615,512,0,0
-602,512,0,0,0,0,0,0,0,0,0,-1,622,512,0,0
-595,512,0,0,0,0,0,0,0,0,0,-1,629,512,0,0
-588,512,0,0,0,0,0,0,0,0,0,-1,636,512,0,0
-581,512,0,0,0,0,0,0,0,0,0,-1,643,512,0,0
-574,512,0,0,0,0,0,0,0,0,0,-1,650,512,0,0
-567,512,0,0,0,0,0,0,0,0,0,-1,657,512,0,0
-560,512,0,0,0,0,0,0,0,0,0,-1,664,512,0,0
-553,512,0,0,0,0,0,0,0,0,0,-1,671,512,0,0
-546,512,0,0,0,0,0,0,0,0,0,-1,678,512,0,0
-539,512,0,0,0,0,0,0,0,0,0,-1,685,512,0,0
-532,512,0,0,0,0,0,0,0,0,0,-1,692,512,0,0
-525,512,0,0,0,0,0,0,0,0,0,-1,699,512,0,0
-518,512,0,0,0,0,0,0,0,0,0,-1,706,512,0,0
-511,512,0,0,0,0,0,0,0,0,0,-1,713,512,0,0
-504,512,0,0,0,0,0,0,0,0,0,-1,720,512,0,0
-497,512,0,0,0,0,0,0,0,0,0,-1,727,512,0,0
-490,512,0,0,0,0,0,0,0,0,0,-1,734,512,0,0
-483,512,0,0,0,0,0,0,0,0,0,-1,741,512,0,0
-476,512,0,0,0,0,0,0,0,0,0,-1,748,512,0,0
-469,512,0,0,0,0,0,0,0,0,0,-1,755,512,0,0
-462,512,0,0,0,0,0,0,0,0,0,-1,762,512,0,0
-455,512,0,0,0,0,0,0,0,0,0,-1,769,512,0,0
-448,512,1.96283,-4.15674,0,0,0,0,0,0,0,-1,776,512,1.96285,4.15677
-441,512,1.78198,-4.88824,0,0,0,0,0,0,0,-1,783,512,1.78201,4.88826
-434,512,0.0726929,-9.85822,0,0,0,0,0,0,0,-1,790,512,0.0727008,9.85819
-427,512,-0.384583,-9.94824,0,0,0,0,0,0,0,-1,797,512,-0.384552,9.94823
-420,512,-2.93219,-12.4855,0,0,0,0,0,0,0,-1,804,512,-2.93219,12.4855
-413,512,-2.22711,-11.4485,0,0,0,0,0,0,0,-1,811,512,-2.22712,11.4485
-406,512,-2.38037,-13.5743,0,0,0,0,0,0,0,-1,818,512,-2.38034,13.5743
-399,512,-2.68481,-20.2781,0,0,0,0,0,0,0,-1,825,512,-2.68484,20.2781
-392,512,-2.43884,-21.1602,0.00798031,0.0239096,-0.0126077,0.0308577,0.00103224,-1.06711,0.0202365,0.0486656,832,512,-2.43882,21.1601
-385,512,-2.41687,-21.9988,0.00752312,0.0210136,-0.0111408,0.027292,0.0012447,-1.05761,0.0177943,0.0228481,839,512,-2.41684,21.9988
-378,512,-2.47272,-22.7617,0.00693989,0.0181255,-0.00970392,0.0237329,0.00133244,-1.04682,0.015397,0.017517,846,512,-2.47272,22.7617
-371,512,-2.47583,-23.5684,0.0062523,0.0153879,-0.00832332,0.0203145,0.00132577,-1.03636,0.0131234,0.0133469,853,512,-2.47585,23.5684
-364,512,-2.4873,-24.386,0.00539044,0.012669,-0.00686038,0.0167956,0.00126381,-1.02926,0.0108005,0.010169,860,512,-2.4873,24.386
-357,512,-2.5282,-25.1108,0.00446312,0.0101345,-0.00547199,0.0134619,0.0011357,-1.02445,0.00862099,0.0116401,867,512,-2.52822,25.1109
-350,512,-2.56793,-25.8221,0.00360241,0.00775915,-0.00421641,0.0103816,0.000979957,-1.01438,0.00661865,0.012204,874,512,-2.56796,25.8221
-343,512,-2.64532,-26.5196,0.00282761,0.00547711,-0.00308286,0.0075078,0.000796924,-0.988326,0.00476184,0.0136387,881,512,-2.64533,26.5196
-336,512,-2.69489,-27.2498,0.00210132,0.00343195,-0.00201945,0.00489286,0.00064041,-0.944526,0.00307078,0.0152029,888,512,-2.6949,27.2498
-329,512,-2.67426,-27.9524,0.00158057,0.00164555,-0.00112555,0.00273908,0.000487036,-0.799828,0.00168731,0.0164376,895,512,-2.67423,27.9524
-322,512,-2.69904,-28.6448,0.00129516,0.000122064,-0.000361304,0.00139751,1.97154e-05,-0.276045,0.000925169,0.0137742,902,512,-2.69905,28.6448
-315,512,-2.73328,-29.3753,0.0012059,-0.00106702,0.000256635,0.00123452,-0.00109563,0.111047,0.00134611,0.0113209,909,512,-2.73329,29.3753
-308,512,-2.79047,-30.0698,0.00149246,-0.00187704,0.000714928,0.00163788,-0.00202246,0.200661,0.00211718,0.0106615,916,512,-2.79049,30.0698
-301,512,-2.82672,-30.7401,0.00194039,-0.0023869,0.00111789,0.00221212,-0.00265863,0.238446,0.00281606,0.01566,923,512,-2.82674,30.7401
-294,512,-2.79108,-31.3545,0.00233963,-0.00273271,0.00148442,0.00274211,-0.00313519,0.26477,0.00339579,0.0170055,930,512,-2.79105,31.3545
-287,512,-2.91833,-31.913,0.00281414,-0.00328088,0.00181272,0.00331251,-0.00377924,0.268301,0.00409738,0.0323803,937,512,-2.91835,31.913
-280,512,-2.84454,-32.7514,0,0,0,0,0,0,0,-1,944,512,-2.84453,32.7514
-273,512,-2.57678,-33.5276,0,0,0,0,0,0,0,-1,951,512,-2.57678,33.5276
-266,512,-2.33594,-25.9839,0,0,0,0,0,0,0,-1,958,512,-2.33592,25.9839
-259,512,-0.525452,-14.0815,0,0,0,0,0,0,0,-1,965,512,-0.525475,14.0815
-252,512,1.45941,-3.43475,0,0,0,0,0,0,0,-1,972,512,1.45938,3.43475
-245,512,-1.6731,-22.8959,0,0,0,0,0,0,0,-1,979,512,-1.67312,22.8959
-238,512,0.227051,-8.92969,0,0,0,0,0,0,0,-1,986,512,0.227073,8.92968
-231,512,-0.907349,-32.3113,0,0,0,0,0,0,0,-1,993,512,-0.907339,32.3113
-224,512,-1.29974,-33.6304,0,0,0,0,0,0,0,-1,1000,512,-1.29974,33.6304
-217,512,-0.963196,-34.1697,0,0,0,0,0,0,0,-1,1007,512,-0.963226,34.1697
-210,512,-3.76642,-1.94702,0,0,0,0,0,0,0,-1,1014,512,-3.76641,1.94702
-203,512,-2.48328,-5.19061,0,0,0,0,0,0,0,-1,1021,512,-2.48328,5.19059
-196,512,-1.14929,-4.63202,0,0,0,0,0,0,0,-1,1028,512,-1.14934,4.632
-189,512,0.197998,4.55505,0,0,0,0,0,0,0,-1,1035,512,0.197996,-4.55506
-182,512,2.73938,0.0778503,0,0,0,0,0,0,0,-1,1042,512,2.73944,-0.077852
-175,512,2.29565,0.209808,0,0,0,0,0,0,0,-1,1049,512,2.29565,-0.209813
-168,512,2.09399,-0.302856,0,0,0,0,0,0,0,-1,1056,512,2.09403,0.302826
-161,512,2.76636,0.0921021,0,0,0,0,0,0,0,-1,1063,512,2.76633,-0.0921104
-154,512,3.41382,0.466187,0,0,0,0,0,0,0,-1,1070,512,3.41382,-0.466178
-147,512,0,0,0,0,0,0,0,0,0,-1,1077,512,0,0
-140,512,0,0,0,0,0,0,0,0,0,-1,1084,512,0,0
-133,512,0,0,0,0,0,0,0,0,0,-1,1091,512,0,0
-126,512,0,0,0,0,0,0,0,0,0,-1,1098,512,0,0
-119,512,0,0,0,0,0,0,0,0,0,-1,1105,512,0,0
-112,512,0,0,0,0,0,0,0,0,0,-1,1112,512,0,0
-105,512,0,0,0,0,0,0,0,0,0,-1,1119,512,0,0
-98,512,0,0,0,0,0,0,0,0,0,-1,1126,512,0,0
-91,512,0,0,0,0,0,0,0,0,0,-1,1133,512,0,0
-84,512,0,0,0,0,0,0,0,0,0,-1,1140,512,0,0
-77,512,0,0,0,0,0,0,0,0,0,-1,1147,512,0,0
-70,512,0,0,0,0,0,0,0,0,0,-1,1154,512,0,0
-63,512,0,0,0,0,0,0,0,0,0,-1,1161,512,0,0
-56,512,0,0,0,0,0,0,0,0,0,-1,1168,512,0,0
-49,512,0,0,0,0,0,0,0,0,0,-1,1175,512,0,0
-42,512,0,0,0,0,0,0,0,0,0,-1,1182,512,0,0
-35,512,0,0,0,0,0,0,0,0,0,-1,1189,512,0,0
-28,512,0,0,0,0,0,0,0,0,0,-1,1196,512,0,0
-21,512,0,0,0,0,0,0,0,0,0,-1,1203,512,0,0
-14,512,0,0,0,0,0,0,0,0,0,-1,1210,512,0,0
-7,512,0,0,0,0,0,0,0,0,0,-1,1217,512,0,0
0,512,0,0,0,0,0,0,0,0,0,-1,1224,512,0,0
7,512,0,0,0,0,0,0,0,0,0,-1,1231,512,0,0
14,512,0,0,0,0,0,0,0,0,0,-1,1238,512,0,0
21,512,0,0,0,0,0,0,0,0,0,-1,1245,512,0,0
28,512,0,0,0,0,0,0,0,0,0,-1,1252,512,0,0
35,512,0,0,0,0,0,0,0,0,0,-1,1259,512,0,0
42,512,0,0,0,0,0,0,0,0,0,-1,1266,512,0,0
49,512,0,0,0,0,0,0,0,0,0,-1,1273,512,0,0
56,512,0,0,0,0,0,0,0,0,0,-1,1280,512,0,0
63,512,0,0,0,0,0,0,0,0,0,-1,1287,512,0,0
70,512,0,0,0,0,0,0,0,0,0,-1,1294,512,0,0
77,512,0,0,0,0,0,0,0,0,0,-1,1301,512,0,0
84,512,0,0,0,0,0,0,0,0,0,-1,1308,512,0,0
91,512,0,0,0,0,0,0,0,0,0,-1,1315,512,0,0
98,512,0,0,0,0,0,0,0,0,0,-1,1322,512,0,0
105,512,0,0,0,0,0,0,0,0,0,-1,1329,512,0,0
112,512,0,0,0,0,0,0,0,0,0,-1,1336,512,0,0
119,512,0,0,0,0,0,0,0,0,0,-1,1343,512,0,0
126,512,0,0,0,0,0,0,0,0,0,-1,1350,512,0,0
133,512,0,0,0,0,0,0,0,0,0,-1,1357,512,0,0
140,512,0,0,0,0,0,0,0,0,0,-1,1364,512,0,0
147,512,0,0,0,0,0,0,0,0,0,-1,1371,512,0,0
154,512,0,0,0,0,0,0,0,0,0,-1,1378,512,0,0
161,512,0,0,0,0,0,0,0,0,0,-1,1385,512,0,0
168,512,0,0,0,0,0,0,0,0,0,-1,1392,512,0,0
175,512,0,0,0,0,0,0,0,0,0,-1,1399,512,0,0
182,512,0,0,0,0,0,0,0,0,0,-1,1406,512,0,0
189,512,0,0,0,0,0,0,0,0,0,-1,1413,512,0,0
196,512,0,0,0,0,0,0,0,0,0,-1,1420,512,0,0
203,512,0,0,0,0,0,0,0,0,0,-1,1427,512,0,0
210,512,0,0,0,0,0,0,0,0,0,-1,1434,512,0,0
217,512,0,0,0,0,0,0,0,0,0,-1,1441,512,0,0
224,512,0,0,0,0,0,0,0,0,0,-1,1448,512,0,0
231,512,0,0,0,0,0,0,0,0,0,-1,1455,512,0,0
238,512,0,0,0,0,0,0,0,0,0,-1,1462,512,0,0
245,512,0,0,0,0,0,0,0,0,0,-1,1469,512,0,0
252,512,0,0,0,0,0,0,0,0,0,-1,1476,512,0,0
259,512,0,0,0,0,0,0,0,0,0,-1,1483,512,0,0
266,512,0,0,0,0,0,0,0,0,0,-1,1490,512,0,0
273,512,4.00745,0.618622,0,0,0,0,0,0,0,-1,1497,512,4.00747,-0.618611
280,512,4.49609,0.649841,0,0,0,0,0,0,0,-1,1504,512,4.49612,-0.649834
287,512,4.77234,0.458069,0,0,0,0,0,0,0,-1,1511,512,4.77233,-0.458083
294,512,8.54956,-2.36273,0,0,0,0,0,0,0,-1,1518,512,8.54952,2.36274
301,512,6.302,-1.69092,0,0,0,0,0,0,0,-1,1525,512,6.30196,1.69093
308,512,8.2439,-6.22754,0,0,0,0,0,0,0,-1,1532,512,8.24394,6.22757
315,512,7.53687,-6.04211,0,0,0,0,0,0,0,-1,1539,512,7.53691,6.04211
322,512,6.82983,-5.85663,0,0,0,0,0,0,0,-1,1546,512,6.82988,5.85666
329,512,4.38147,-0.329651,0,0,0,0,0,0,0,-1,1553,512,4.38144,0.329662
336,512,4.41467,-0.741455,0,0,0,0,0,0,0,-1,1560,512,4.41467,0.741442
343,512,4.44727,-1.21667,0,0,0,0,0,0,0,-1,1567,512,4.44732,1.21666
350,512,4.55469,-1.65082,0,0,0,0,0,0,0,-1,1574,512,4.5547,1.65083
357,512,5.79993,-2.67456,0,0,0,0,0,0,0,-1,1581,512,5.79991,2.67454
364,512,13.118,-28.5485,0,0,0,0,0,0,0,-1,1588,512,13.1181,28.5485
371,512,5.28467,-7.69269,0,0,0,0,0,0,0,-1,1595,512,5.28464,7.69269
378,512,6.29407,-9.88055,0,0,0,0,0,0,0,-1,1602,512,6.29412,9.88057
385,512,6.45569,-9.32233,0,0,0,0,0,0,0,-1,1609,512,6.45565,9.3223
392,512,6.35522,-8.98425,0,0,0,0,0,0,0,-1,1616,512,6.35526,8.98422
399,512,16.4658,-32.2068,0,0,0,0,0,0,0,-1,1623,512,16.4658,32.2068
406,512,16.2939,-32.1025,0,0,0,0,0,0,0,-1,1630,512,16.2939,32.1025
413,512,16.2742,-31.457,0,0,0,0,0,0,0,-1,1637,512,16.2742,31.457
420,512,16.1978,-30.7487,0.00107682,-7.74822e-05,-0.00182171,0.00241062,-0.00141128,-0.631991,0.00223158,0.0271143,1644,512,16.1977,30.7487
427,512,16.1603,-30.023,0.00116389,0.000295413,-0.00131564,0.0021151,-0.000655801,-0.625999,0.0016721,0.0153648,1651,512,16.1603,30.023
434,512,16.1321,-29.3052,0.00117444,0.000568928,-0.000819738,0.00174555,-2.17487e-06,-0.608501,0.00116442,0.0118312,1658,512,16.1321,29.3052
441,512,16.0851,-28.57,0.00118111,0.000889828,-0.000318736,0.00138591,0.000685036,-0.571093,0.00080017,0.0130445,1665,512,16.0851,28.57
448,512,16.0665,-27.8761,0.00121706,0.00112268,0.000188757,0.00136444,0.000975305,0.66291,0.000811628,0.00930317,1672,512,16.0666,27.8761
455,512,16.0365,-27.1519,0.00123188,0.00151645,0.000703765,0.00209217,0.000656163,0.885142,0.00123557,0.00900425,1679,512,16.0365,27.1518
462,512,16.0105,-26.4198,0.00126905,0.00177445,0.00115026,0.00269944,0.000344061,0.893524,0.00169661,0.00982963,1686,512,16.0105,26.4198
469,512,15.9824,-25.6829,0.00137099,0.00205318,0.00165699,0.00340382,2.03546e-05,0.886907,0.00226246,0.0116072,1693,512,15.9825,25.6829
476,512,15.9457,-24.9485,0.00184722,0.00240915,0.00256736,0.00471087,-0.000454506,0.8399,0.00330252,0.0146939,1700,512,15.9457,24.9486
483,512,15.9248,-24.196,0.00223095,0.0027889,0.00333057,0.00585216,-0.000832302,0.827182,0.00420641,0.0138795,1707,512,15.9248,24.196
490,512,15.9042,-23.4507,0.00288294,0.00322353,0.00433851,0.00739508,-0.00128861,0.805014,0.00541098,0.011277,1714,512,15.9042,23.4507
497,512,15.8585,-22.6865,0.00378711,0.00363666,0.00550463,0.00921703,-0.00179327,0.778566,0.00682147,0.0125504,1721,512,15.8585,22.6865
504,512,15.7926,-21.9055,0.00501786,0.0041468,0.00690754,0.0115036,-0.00233893,0.753914,0.00855594,0.0143296,1728,512,15.7926,21.9055
511,512,15.7413,-21.1111,0.00655845,0.00469955,0.00859032,0.0142695,-0.00301146,0.731509,0.0106595,0.0190532,1735,512,15.7414,21.1111
518,512,15.7993,-20.3588,0.00836432,0.0054955,0.0105941,0.0176207,-0.00376083,0.718109,0.0131808,0.0252528,1742,512,15.7993,20.3588
525,512,15.943,-19.5446,0.0103342,0.00641011,0.0127697,0.0212917,-0.0045474,0.70917,0.0159282,0.0471983,1749,512,15.9429,19.5446
532,512,16.3346,-18.4616,0,0,0,0,0,0,0,-1,1756,512,16.3347,18.4616
539,512,12.6367,-16.4022,0,0,0,0,0,0,0,-1,1763,512,12.6367,16.4021
546,512,2.77551,-0.66449,0,0,0,0,0,0,0,-1,1770,512,2.77548,0.664503
553,512,3.927,-0.448853,0,0,0,0,0,0,0,-1,1777,512,3.92704,0.448843
560,512,3.55762,-0.201233,0,0,0,0,0,0,0,-1,1784,512,3.55768,0.201259
567,512,3.09045,0.191193,0,0,0,0,0,0,0,-1,1791,512,3.09045,-0.191203
574,512,0,0,0,0,0,0,0,0,0,-1,1798,512,0,0
581,512,0,0,0,0,0,0,0,0,0,-1,1805,512,0,0
588,512,0,0,0,0,0,0,0,0,0,-1,1812,512,0,0
595,512,0,0,0,0,0,0,0,0,0,-1,1819,512,0,0
602,512,0,0,0,0,0,0,0,0,0,-1,1826,512,0,0
609,512,0,0,0,0,0,0,0,0,0,-1,1833,512,0,0
616,512,0,0,0,0,0,0,0,0,0,-1,1840,512,0,0
623,512,0,0,0,0,0,0,0,0,0,-1,1847,512,0,0
630,512,0,0,0,0,0,0,0,0,0,-1,1854,512,0,0
637,512,0,0,0,0,0,0,0,0,0,-1,1861,512,0,0
644,512,0,0,0,0,0,0,0,0,0,-1,1868,512,0,0
651,512,0,0,0,0,0,0,0,0,0,-1,1875,512,0,0
658,512,0,0,0,0,0,0,0,0,0,-1,1882,512,0,0
665,512,0,0,0,0,0,0,0,0,0,-1,1889,512,0,0
672,512,0,0,0,0,0,0,0,0,0,-1,1896,512,0,0
679,512,0,0,0,0,0,0,0,0,0,-1,1903,512,0,0
686,512,0,0,0,0,0,0,0,0,0,-1,1910,512,0,0
693,512,0,0,0,0,0,0,0,0,0,-1,1917,512,0,0
700,512,0,0,0,0,0,0,0,0,0,-1,1924,512,0,0
707,512,0,0,0,0,0,0,0,0,0,-1,1931,512,0,0
714,512,0,0,0,0,0,0,0,0,0,-1,1938,512,0,0
721,512,0,0,0,0,0,0,0,0,0,-1,1945,512,0,0
728,512,0,0,0,0,0,0,0,0,0,-1,1952,512,0,0
735,512,0,0,0,0,0,0,0,0,0,-1,1959,512,0,0
742,512,0,0,0,0,0,0,0,0,0,-1,1966,512,0,0
749,512,0,0,0,0,0,0,0,0,0,-1,1973,512,0,0
756,512,0,0,0,0,0,0,0,0,0,-1,1980,512,0,0
763,512,0,0,0,0,0,0,0,0,0,-1,1987,512,0,0
770,512,0,0,0,0,0,0,0,0,0,-1,1994,512,0,0
777,512,0,0,0,0,0,0,0,0,0,-1,2001,512,0,0
784,512,0,0,0,0,0,0,0,0,0,-1,2008,512,0,0
791,512,0,0,0,0,0,0,0,0,0,-1,2015,512,0,0
798,512,0,0,0,0,0,0,0,0,0,-1,2022,512,0,0
805,512,0,0,0,0,0,0,0,0,0,-1,2029,512,0,0
812,512,0,0,0,0,0,0,0,0,0,-1,2036,512,0,0
-700,505,0,0,0,0,0,0,0,0,0,-1,524,519,0,0
-693,505,0,0,0,0,0,0,0,0,0,-1,531,519,0,0
-686,505,0,0,0,0,0,0,0,0,0,-1,538,519,0,0
-679,505,0,0,0,0,0,0,0,0,0,-1,545,519,0,0
-672,505,0,0,0,0,0,0,0,0,0,-1,552,519,0,0
-665,505,0,0,0,0,0,0,0,0,0,-1,559,519,0,0
-658,505,0,0,0,0,0,0,0,0,0,-1,566,519,0,0
-651,505,0,0,0,0,0,0,0,0,0,-1,573,519,0,0
-644,505,0,0,0,0,0,0,0,0,0,-1,580,519,0,0
-637,505,0,0,0,0,0,0,0,0,0,-1,587,519,0,0
-630,505,0,0,0,0,0,0,0,0,0,-1,594,519,0,0
-623,505,0,0,0,0,0,0,0,0,0,-1,601,519,0,0
-616,505,0,0,0,0,0,0,0,0,0,-1,608,519,0,0
-609,505,0,0,0,0,0,0,0,0,0,-1,615,519,0,0
-602,505,0,0,0,0,0,0,0,0,0,-1,622,519,0,0
-595,505,0,0,0,0,0,0,0,0,0,-1,629,519,0,0
-588,505,0,0,0,0,0,0,0,0,0,-1,636,519,0,0
-581,505,0,0,0,0,0,0,0,0,0,-1,643,519,0,0
-574,505,0,0,0,0,0,0,0,0,0,-1,650,519,0,0
-567,505,0,0,0,0,0,0,0,0,0,-1,657,519,0,0
-560,505,0,0,0,0,0,0,0,0,0,-1,664,519,0,0
-553,505,0,0,0,0,0,0,0,0,0,-1,671,519,0,0
-546,505,0,0,0,0,0,0,0,0,0,-1,678,519,0,0
-539,505,0,0,0,0,0,0,0,0,0,-1,685,519,0,0
-532,505,0,0,0,0,0,0,0,0,0,-1,692,519,0,0
-525,505,0,0,0,0,0,0,0,0,0,-1,699,519,0,0
-518,505,0,0,0,0,0,0,0,0,0,-1,706,519,0,0
-511,505,0,0,0,0,0,0,0,0,0,-1,713,519,0,0
-504,505,0,0,0,0,0,0,0,0,0,-1,720,519,0,0
-497,505,0,0,0,0,0,0,0,0,0,-1,727,519,0,0
-490,505,0,0,0,0,0,0,0,0,0,-1,734,519,0,0
-483,505,0,0,0,0,0,0,0,0,0,-1,741,519,0,0
-476,505,0,0,0,0,0,0,0,0,0,-1,748,519,0,0
-469,505,0,0,0,0,0,0,0,0,0,-1,755,519,0,0
-462,505,0,0,0,0,0,0,0,0,0,-1,762,519,0,0
-455,505,2.72137,-3.26379,0,0,0,0,0,0,0,-1,769,519,2.72135,3.26377
-448,505,2.51111,-3.94989,0,0,0,0,0,0,0,-1,776,519,2.51112,3.94986
-441,505,2.80212,-6.8902,0,0,0,0,0,0,0,-1,783,519,2.80209,6.89019
-434,505,-0.155212,-10.6374,0,0,0,0,0,0,0,-1,790,519,-0.155194,10.6374
-427,505,-0.474426,-10.4702,0,0,0,0,0,0,0,-1,797,519,-0.474433,10.4702
-420,505,-0.922546,-10.1928,0,0,0,0,0,0,0,-1,804,519,-0.92257,10.1928
-413,505,-3.33948,-13.6183,0,0,0,0,0,0,0,-1,811,519,-3.33949,13.6184
-406,505,-3.04523,-17.519,0,0,0,0,0,0,0,-1,818,519,-3.04524,17.519
-399,505,-3.05615,-20.3184,0,0,0,0,0,0,0,-1,825,519,-3.05616,20.3184
-392,505,-3.06073,-21.2021,0.00517325,0.0186784,-0.0102032,0.0241611,-0.000309487,-1.07771,0.0162115,0.0249293,832,519,-3.06071,21.2021
-385,505,-3.11383,-22.0416,0.0050663,0.0161773,-0.00899054,0.0211903,5.32819e-05,-1.06215,0.0141091,0.0101995,839,519,-3.11383,22.0416
-378,505,-3.17303,-22.819,0.00483384,0.0138167,-0.00781599,0.0183398,0.000310687,-1.04618,0.0121243,0.0118337,846,519,-3.17305,22.819
-371,505,-3.18323,-23.619,0.0044554,0.011494,-0.00668419,0.0155288,0.000420643,-1.02771,0.0102152,0.0146223,853,519,-3.18323,23.619
-364,505,-3.21973,-24.3901,0.00391606,0.0091157,-0.00543622,0.0125418,0.000489974,-1.00844,0.00820275,0.0158958,860,519,-3.21971,24.3901
-357,505,-3.23907,-25.1248,0.00331804,0.00695344,-0.00421951,0.00973011,0.000541364,-0.988779,0.00631403,0.0131128,867,519,-3.23908,25.1247
-350,505,-3.29279,-25.8062,0.00278487,0.00493642,-0.00313154,0.00717181,0.00054948,-0.950848,0.00460898,0.0121892,874,519,-3.29281,25.8062
-343,505,-3.33459,-26.5127,0.0022709,0.00295461,-0.00212057,0.0047607,0.00046481,-0.865316,0.00303077,0.0112909,881,519,-3.3346,26.5127
-336,505,-3.36072,-27.2389,0.00175437,0.00113883,-0.00114583,0.00263305,0.000260157,-0.654195,0.00167539,0.0144273,888,519,-3.36071,27.2389
-329,505,-3.36383,-27.9143,0.00143156,-0.000432188,-0.00031729,0.0014841,-0.000484724,-0.164087,0.00118451,0.0190373,895,519,-3.36381,27.9143
-322,505,-3.40277,-28.6323,0.00135186,-0.00168634,0.000352835,0.0013923,-0.00172678,0.114109,0.00180425,0.0229335,902,519,-3.40274,28.6323
-315,505,-3.44391,-29.351,0.00143792,-0.00260182,0.000867374,0.00161627,-0.00278018,0.202805,0.00256777,0.0165926,909,519,-3.44388,29.351
-308,505,-3.49072,-30.0121,0.00198253,-0.00318091,0.0012777,0.0022814,-0.00347978,0.22978,0.00335012,0.011797,916,519,-3.49074,30.0122
-301,505,-3.50293,-30.6946,0.0026397,-0.00338815,0.00169426,0.00308327,-0.00383172,0.25606,0.00400015,0.0180054,923,519,-3.50292,30.6946
-294,505,-3.47083,-31.2887,0,0,0,0,0,0,0,-1,930,519,-3.47082,31.2887
-287,505,-3.60822,-32.0417,0,0,0,0,0,0,0,-1,937,519,-3.60823,32.0417
-280,505,-2.79846,-27.7252,0,0,0,0,0,0,0,-1,944,519,-2.79845,27.7252
-273,505,-0.0680542,-9.44867,0,0,0,0,0,0,0,-1,951,519,-0.0680462,9.44866
-266,505,-0.036377,-9.07922,0,0,0,0,0,0,0,-1,958,519,-0.0364055,9.0792
-259,505,0.10321,-6.69824,0,0,0,0,0,0,0,-1,965,519,0.103235,6.69826
-252,505,6.82312,-15.6972,0,0,0,0,0,0,0,-1,972,519,6.82314,15.6972
-245,505,4.26727,-12.9861,0,0,0,0,0,0,0,-1,979,519,4.2673,12.9861
-238,505,1.67432,-11.2307,0,0,0,0,0,0,0,-1,986,519,1.67429,11.2307
-231,505,-0.958435,-8.3075,0,0,0,0,0,0,0,-1,993,519,-0.958421,8.30751
-224,505,-1.46399,-33.4399,0,0,0,0,0,0,0,-1,1000,519,-1.46397,33.4399
-217,505,-6.34302,-1.65533,0,0,0,0,0,0,0,-1,1007,519,-6.34299,1.65535
-210,505,-3.06128,-0.396301,0,0,0,0,0,0,0,-1,1014,519,-3.06129,0.396294
-203,505,-4.26465,2.03607,0,0,0,0,0,0,0,-1,1021,519,-4.26462,-2.03606
-196,505,-5.47595,4.27295,0,0,0,0,0,0,0,-1,1028,519,-5.47597,-4.27292
-189,505,1.51526,5.56207,0,0,0,0,0,0,0,-1,1035,519,1.51523,-5.56209
-182,505,2.97815,7.5097,0,0,0,0,0,0,0,-1,1042,519,2.97812,-7.5097
-175,505,-2.38416,-2.17548,0,0,0,0,0,0,0,-1,1049,519,-2.38411,2.1755
-168,505,0,0,0,0,0,0,0,0,0,-1,1056,519,0,0
-161,505,0,0,0,0,0,0,0,0,0,-1,1063,519,0,0
-154,505,0,0,0,0,0,0,0,0,0,-1,1070,519,0,0
-147,505,0,0,0,0,0,0,0,0,0,-1,1077,519,0,0
-140,505,0,0,0,0,0,0,0,0,0,-1,1084,519,0,0
-133,505,0,0,0,0,0,0,0,0,0,-1,1091,519,0,0
-126,505,0,0,0,0,0,0,0,0,0,-1,1098,519,0,0
-119,505,0,0,0,0,0,0,0,0,0,-1,1105,519,0,0
-112,505,0,0,0,0,0,0,0,0,0,-1,1112,519,0,0
-105,505,0,0,0,0,0,0,0,0,0,-1,1119,519,0,0
-98,505,0,0,0,0,0,0,0,0,0,-1,1126,519,0,0
-91,505,0,0,0,0,0,0,0,0,0,-1,1133,519,0,0
-84,505,0,0,0,0,0,0,0,0,0,-1,1140,519,0,0
-77,505,0,0,0,0,0,0,0,0,0,-1,1147,519,0,0
-70,505,0,0,0,0,0,0,0,0,0,-1,1154,519,0,0
-63,505,0,0,0,0,0,0,0,0,0,-1,1161,519,0,0
-56,505,0,0,0,0,0,0,0,0,0,-1,1168,519,0,0
-49,505,0,0,0,0,0,0,0,0,0,-1,1175,519,0,0
-42,505,0,0,0,0,0,0,0,0,0,-1,1182,519,0,0
-35,505,0,0,0,0,0,0,0,0,0,-1,1189,519,0,0
-28,505,0,0,0,0,0,0,0,0,0,-1,1196,519,0,0
-21,505,0,0,0,0,0,0,0,0,0,-1,1203,519,0,0
-14,505,0,0,0,0,0,0,0,0,0,-1,1210,519,0,0
-7,505,0,0,0,0,0,0,0,0,0,-1,1217,519,0,0
0,505,0,0,0,0,0,0,0,0,0,-1,1224,519,0,0
7,505,0,0,0,0,0,0,0,0,0,-1,1231,519,0,0
14,505,0,0,0,0,0,0,0,0,0,-1,1238,519,0,0
21,505,0,0,0,0,0,0,0,0,0,-1,1245,519,0,0
28,505,0,0,0,0,0,0,0,0,0,-1,1252,519,0,0
35,505,0,0,0,0,0,0,0,0,0,-1,1259,519,0,0
42,505,0,0,0,0,0,0,0,0,0,-1,1266,519,0,0
49,505,0,0,0,0,0,0,0,0,0,-1,1273,519,0,0
56,505,0,0,0,0,0,0,0,0,0,-1,1280,519,0,0
63,505,0,0,0,0,0,0,0,0,0,-1,1287,519,0,0
70,505,0,0,0,0,0,0,0,0,0,-1,1294,519,0,0
77,505,0,0,0,0,0,0,0,0,0,-1,1301,519,0,0
84,505,0,0,0,0,0,0,0,0,0,-1,1308,519,0,0
91,505,0,0,0,0,0,0,0,0,0,-1,1315,519,0,0
98,505,0,0,0,0,0,0,0,0,0,-1,1322,519,0,0
105,505,0,0,0,0,0,0,0,0,0,-1,1329,519,0,0
112,505,0,0,0,0,0,0,0,0,0,-1,1336,519,0,0
119,505,0,0,0,0,0,0,0,0,0,-1,1343,519,0,0
126,505,0,0,0,0,0,0,0,0,0,-1,1350,519,0,0
133,505,0,0,0,0,0,0,0,0,0,-1,1357,519,0,0
140,505,0,0,0,0,0,0,0,0,0,-1,1364,519,0,0
147,505,0,0,0,0,0,0,0,0,0,-1,1371,519,0,0
154,505,0,0,0,0,0,0,0,0,0,-1,1378,519,0,0
161,505,0,0,0,0,0,0,0,0,0,-1,1385,519,0,0
168,505,0,0,0,0,0,0,0,0,0,-1,1392,519,0,0
175,505,0,0,0,0,0,0,0,0,0,-1,1399,519,0,0
182,505,0,0,0,0,0,0,0,0,0,-1,1406,519,0,0
189,505,0,0,0,0,0,0,0,0,0,-1,1413,519,0,0
196,505,0,0,0,0,0,0,0,0,0,-1,1420,519,0,0
203,505,0,0,0,0,0,0,0,0,0,-1,1427,519,0,0
210,505,0,0,0,0,0,0,0,0,0,-1,1434,519,0,0
217,505,0,0,0,0,0,0,0,0,0,-1,1441,519,0,0
224,505,0,0,0,0,0,0,0,0,0,-1,1448,519,0,0
231,505,0,0,0,0,0,0,0,0,0,-1,1455,519,0,0
238,505,0,0,0,0,0,0,0,0,0,-1,1462,519,0,0
245,505,0,0,0,0,0,0,0,0,0,-1,1469,519,0,0
252,505,0,0,0,0,0,0,0,0,0,-1,1476,519,0,0
259,505,0,0,0,0,0,0,0,0,0,-1,1483,519,0,0
266,505,0,0,0,0,0,0,0,0,0,-1,1490,519,0,0
273,505,0,0,0,0,0,0,0,0,0,-1,1497,519,0,0
280,505,0,0,0,0,0,0,0,0,0,-1,1504,519,0,0
287,505,4.39478,0.499512,0,0,0,0,0,0,0,-1,1511,519,4.39476,-0.499506
294,505,4.88867,0.0822754,0,0,0,0,0,0,0,-1,1518,519,4.88871,-0.0822748
301,505,4.82153,-0.0704346,0,0,0,0,0,0,0,-1,1525,519,4.82156,0.0704312
308,505,4.67761,-0.29187,0,0,0,0,0,0,0,-1,1532,519,4.67762,0.291845
315,505,8.44055,-6.54352,0,0,0,0,0,0,0,-1,1539,519,8.44059,6.54349
322,505,4.78955,-0.594116,0,0,0,0,0,0,0,-1,1546,519,4.78957,0.594096
329,505,5.16321,0.434631,0,0,0,0,0,0,0,-1,1553,519,5.16316,-0.434614
336,505,4.94495,-0.920471,0,0,0,0,0,0,0,-1,1560,519,4.945,0.920495
343,505,5.01855,-1.4823,0,0,0,0,0,0,0,-1,1567,519,5.01851,1.48227
350,505,5.33154,-1.77838,0,0,0,0,0,0,0,-1,1574,519,5.33152,1.77838
357,505,5.56567,-1.9425,0,0,0,0,0,0,0,-1,1581,519,5.56562,1.94248
364,505,5.85205,-2.6579,0,0,0,0,0,0,0,-1,1588,519,5.85211,2.65788
371,505,5.88477,-7.00922,0,0,0,0,0,0,0,-1,1595,519,5.88473,7.00924
378,505,5.44104,-7.10162,0,0,0,0,0,0,0,-1,1602,519,5.44099,7.10162
385,505,6.64661,-8.65015,0,0,0,0,0,0,0,-1,1609,519,6.64662,8.65014
392,505,6.34558,-8.3429,0,0,0,0,0,0,0,-1,1616,519,6.34554,8.34288
399,505,7.45898,-9.70386,0,0,0,0,0,0,0,-1,1623,519,7.45899,9.70388
406,505,7.08679,-9.4928,0,0,0,0,0,0,0,-1,1630,519,7.08678,9.49278
413,505,8.4032,-14.0308,0,0,0,0,0,0,0,-1,1637,519,8.4032,14.0308
420,505,16.8705,-30.9156,0,0,0,0,0,0,0,-1,1644,519,16.8705,30.9156
427,505,16.8962,-30.0889,0.00135605,-0.000124277,-0.00185681,0.00261478,-0.00138301,-0.59574,0.00234436,0.0316374,1651,519,16.8962,30.0889
434,505,16.8524,-29.2934,0.00134656,0.000110663,-0.00140161,0.0022604,-0.000803171,-0.577773,0.00183424,0.0128134,1658,519,16.8525,29.2934
441,505,16.8286,-28.534,0.00133668,0.0003675,-0.000949402,0.00191801,-0.000213834,-0.549426,0.00135559,0.0107035,1665,519,16.8287,28.534
448,505,16.7943,-27.8287,0.00139685,0.000587602,-0.000457543,0.00160301,0.000381434,-0.423351,0.000966943,0.0100552,1672,519,16.7943,27.8287
455,505,16.7598,-27.1039,0.00143192,0.00101111,5.41821e-05,0.00143879,0.00100425,0.126019,0.000852113,0.0105857,1679,519,16.7598,27.1039
462,505,16.7253,-26.3757,0.00142025,0.00127072,0.000461536,0.00181303,0.00087793,0.7051,0.00104693,0.0108871,1686,519,16.7254,26.3757
469,505,16.698,-25.6325,0.00147047,0.00156212,0.000951971,0.00246937,0.00056322,0.809449,0.00149431,0.0111999,1693,519,16.698,25.6325
476,505,16.6567,-24.9162,0.00173981,0.00190667,0.00170893,0.0035342,0.000112275,0.809789,0.00231961,0.0119695,1700,519,16.6567,24.9162
483,505,16.6451,-24.1952,0.00198053,0.00227425,0.00238631,0.00451822,-0.000263433,0.81613,0.00310368,0.0139889,1707,519,16.6451,24.1952
490,505,16.6311,-23.4376,0.00238004,0.0027153,0.00323447,0.00578648,-0.000691139,0.811288,0.00410746,0.0137545,1714,519,16.6311,23.4376
497,505,16.5812,-22.6784,0.00294748,0.00315614,0.00421892,0.00727202,-0.0011684,0.79776,0.00528075,0.0131228,1721,519,16.5812,22.6784
504,505,16.5198,-21.9055,0.00373032,0.00360365,0.00537689,0.00904425,-0.00171027,0.779509,0.00667305,0.013076,1728,519,16.5197,21.9055
511,505,16.4808,-21.1337,0.00463486,0.00410433,0.00667011,0.011045,-0.00230578,0.765524,0.00824016,0.0150633,1735,519,16.4808,21.1337
518,505,16.5516,-20.3939,0.0056109,0.00477305,0.00808085,0.0132837,-0.00289973,0.7595,0.00996401,0.0294436,1742,519,16.5517,20.3939
525,505,16.2935,-19.5088,0.00665463,0.0054752,0.00957657,0.0156596,-0.00352979,0.754647,0.0117938,0.0379655,1749,519,16.2934,19.5088
532,505,16.2628,-18.2543,0,0,0,0,0,0,0,-1,1756,519,16.2629,18.2543
539,505,13.9879,-13.9018,0,0,0,0,0,0,0,-1,1763,519,13.988,13.9018
546,505,7.94946,-6.64539,0,0,0,0,0,0,0,-1,1770,519,7.94947,6.64539
553,505,2.82837,0.162659,0,0,0,0,0,0,0,-1,1777,519,2.82841,-0.162672
560,505,3.66223,-0.479797,0,0,0,0,0,0,0,-1,1784,519,3.66219,0.47982
567,505,4.65271,-0.950256,0,0,0,0,0,0,0,-1,1791,519,4.65274,0.95028
574,505,5.54443,-1.19977,0,0,0,0,0,0,0,-1,1798,519,5.54443,1.19974
581,505,0,0,0,0,0,0,0,0,0,-1,1805,519,0,0
588,505,0,0,0,0,0,0,0,0,0,-1,1812,519,0,0
595,505,0,0,0,0,0,0,0,0,0,-1,1819,519,0,0
602,505,0,0,0,0,0,0,0,0,0,-1,1826,519,0,0
609,505,0,0,0,0,0,0,0,0,0,-1,1833,519,0,0
616,505,0,0,0,0,0,0,0,0,0,-1,1840,519,0,0
623,505,0,0,0,0,0,0,0,0,0,-1,1847,519,0,0
630,505,0,0,0,0,0,0,0,0,0,-1,1854,519,0,0
637,505,0,0,0,0,0,0,0,0,0,-1,1861,519,0,0
644,505,0,0,0,0,0,0,0,0,0,-1,1868,519,0,0
651,505,0,0,0,0,0,0,0,0,0,-1,1875,519,0,0
658,505,0,0,0,0,0,0,0,0,0,-1,1882,519,0,0
665,505,0,0,0,0,0,0,0,0,0,-1,1889,519,0,0
672,505,0,0,0,0,0,0,0,0,0,-1,1896,519,0,0
679,505,0,0,0,0,0,0,0,0,0,-1,1903,519,0,0
686,505,0,0,0,0,0,0,0,0,0,-1,1910,519,0,0
693,505,0,0,0,0,0,0,0,0,0,-1,1917,519,0,0
700,505,0,0,0,0,0,0,0,0,0,-1,1924,519,0,0
707,505,0,0,0,0,0,0,0,0,0,-1,1931,519,0,0
714,505,0,0,0,0,0,0,0,0,0,-1,1938,519,0,0
721,505,0,0,0,0,0,0,0,0,0,-1,1945,519,0,0
728,505,0,0,0,0,0,0,0,0,0,-1,1952,519,0,0
735,505,0,0,0,0,0,0,0,0,0,-1,1959,519,0,0
742,505,0,0,0,0,0,0,0,0,0,-1,1966,519,0,0
749,505,0,0,0,0,0,0,0,0,0,-1,1973,519,0,0
756,505,0,0,0,0,0,0,0,0,0,-1,1980,519,0,0
763,505,0,0,0,0,0,0,0,0,0,-1,1987,519,0,0
770,505,0,0,0,0,0,0,0,0,0,-1,1994,519,0,0
777,505,0,0,0,0,0,0,0,0,0,-1,2001,519,0,0
784,505,0,0,0,0,0,0,0,0,0,-1,2008,519,0,0
791,505,0,0,0,0,0,0,0,0,0,-1,2015,519,0,0
798,505,0,0,0,0,0,0,0,0,0,-1,2022,519,0,0
805,505,0,0,0,0,0,0,0,0,0,-1,2029,519,0,0
812,505,0,0,0,0,0,0,0,0,0,-1,2036,519,0,0
-700,498,0,0,0,0,0,0,0,0,0,-1,524,526,0,0
-693,498,0,0,0,0,0,0,0,0,0,-1,531,526,0,0
-686,498,0,0,0,0,0,0,0,0,0,-1,538,526,0,0
-679,498,0,0,0,0,0,0,0,0,0,-1,545,526,0,0
-672,498,0,0,0,0,0,0,0,0,0,-1,552,526,0,0
-665,498,0,0,0,0,0,0,0,0,0,-1,559,526,0,0
-658,498,0,0,0,0,0,0,0,0,0,-1,566,526,0,0
-651,498,0,0,0,0,0,0,0,0,0,-1,573,526,0,0
-644,498,0,0,0,0,0,0,0,0,0,-1,580,526,0,0
-637,498,0,0,0,0,0,0,0,0,0,-1,587,526,0,0
-630,498,0,0,0,0,0,0,0,0,0,-1,594,526,0,0
-623,498,0,0,0,0,0,0,0,0,0,-1,601,526,0,0
-616,498,0,0,0,0,0,0,0,0,0,-1,608,526,0,0
-609,498,0,0,0,0,0,0,0,0,0,-1,615,526,0,0
-602,498,0,0,0,0,0,0,0,0,0,-1,622,526,0,0
-595,498,0,0,0,0,0,0,0,0,0,-1,629,526,0,0
-588,498,0,0,0,0,0,0,0,0,0,-1,636,526,0,0
-581,498,0,0,0,0,0,0,0,0,0,-1,643,526,0,0
-574,498,0,0,0,0,0,0,0,0,0,-1,650,526,0,0
-567,498,0,0,0,0,0,0,0,0,0,-1,657,526,0,0
-560,498,0,0,0,0,0,0,0,0,0,-1,664,526,0,0
-553,498,0,0,0,0,0,0,0,0,0,-1,671,526,0,0
-546,498,0,0,0,0,0,0,0,0,0,-1,678,526,0,0
-539,498,0,0,0,0,0,0,0,0,0,-1,685,526,0,0
-532,498,0,0,0,0,0,0,0,0,0,-1,692,526,0,0
-525,498,0,0,0,0,0,0,0,0,0,-1,699,526,0,0
-518,498,0,0,0,0,0,0,0,0,0,-1,706,526,0,0
-511,498,0,0,0,0,0,0,0,0,0,-1,713,526,0,0
-504,498,0,0,0,0,0,0,0,0,0,-1,720,526,0,0
-497,498,0,0,0,0,0,0,0,0,0,-1,727,526,0,0
-490,498,0,0,0,0,0,0,0,0,0,-1,734,526,0,0
-483,498,0,0,0,0,0,0,0,0,0,-1,741,526,0,0
-476,498,0,0,0,0,0,0,0,0,0,-1,748,526,0,0
-469,498,0,0,0,0,0,0,0,0,0,-1,755,526,0,0
-462,498,6.81024,1.15515,0,0,0,0,0,0,0,-1,762,526,6.81026,-1.15514
-455,498,3.25757,-3.0592,0,0,0,0,0,0,0,-1,769,526,3.25754,3.05921
-448,498,3.05939,-3.74298,0,0,0,0,0,0,0,-1,776,526,3.05939,3.74296
-441,498,2.77191,-6.08209,0,0,0,0,0,0,0,-1,783,526,2.77189,6.08207
-434,498,2.10681,-6.95929,0,0,0,0,0,0,0,-1,790,526,2.10682,6.9593
-427,498,-0.368042,-10.7726,0,0,0,0,0,0,0,-1,797,526,-0.36807,10.7726
-420,498,-1.05035,-10.5142,0,0,0,0,0,0,0,-1,804,526,-1.05034,10.5142
-413,498,-3.92615,-17.0106,0,0,0,0,0,0,0,-1,811,526,-3.92617,17.0106
-406,498,-3.66754,-19.4728,0,0,0,0,0,0,0,-1,818,526,-3.66752,19.4729
-399,498,-3.71118,-20.4056,0.00298118,0.0164152,-0.00879939,0.0207683,-0.00137193,-1.11139,0.0143247,0.029666,825,526,-3.7112,20.4057
-392,498,-3.80341,-21.2731,0.00323904,0.0142543,-0.00795031,0.0184184,-0.000925001,-1.08832,0.0125986,0.0150222,832,526,-3.80339,21.2731
-385,498,-3.84155,-22.0406,0.00339567,0.0121104,-0.0069947,0.0159939,-0.000487873,-1.06396,0.0108289,0.0100642,839,526,-3.84156,22.0407
-378,498,-3.86902,-22.7963,0.00340235,0.010114,-0.00601716,0.0136479,-0.000131504,-1.03977,0.00914274,0.0113467,846,526,-3.869,22.7963
-371,498,-3.90479,-23.5618,0.00324814,0.00811297,-0.00507043,0.0113043,5.68614e-05,-1.00905,0.00751729,0.0171673,853,526,-3.90481,23.5618
-364,498,-3.94611,-24.3365,0.00294895,0.00601736,-0.00399721,0.00876468,0.000201632,-0.968639,0.00577708,0.0172139,860,526,-3.9461,24.3365
-357,498,-3.95361,-25.058,0.00259629,0.0041397,-0.00294055,0.00640812,0.000327875,-0.913723,0.00416709,0.0117835,867,526,-3.95361,25.058
-350,498,-3.99609,-25.7462,0.002306,0.00240042,-0.00201368,0.00436745,0.000338977,-0.797118,0.00280547,0.0113885,874,526,-3.99609,25.7462
-343,498,-4.03107,-26.5096,0.00197726,0.000667354,-0.00112885,0.0026274,1.72176e-05,-0.522533,0.00174589,0.0153884,881,526,-4.03109,26.5097
-336,498,-4.0329,-27.2437,0.00160339,-0.000964335,-0.000262821,0.00163001,-0.000990961,-0.100961,0.00152814,0.0204296,888,526,-4.0329,27.2437
-329,498,-4.05487,-27.8802,0.00140927,-0.00236412,0.000476626,0.00146854,-0.00242339,0.123724,0.00226944,0.0251529,895,526,-4.05488,27.8802
-322,498,-4.12299,-28.5876,0.00147116,-0.00337035,0.00101423,0.00167505,-0.00357424,0.198378,0.00309609,0.0267408,902,526,-4.12299,28.5876
-315,498,-4.16034,-29.281,0.00167109,-0.00402878,0.00137481,0.00198537,-0.00434306,0.224735,0.00373728,0.0193999,909,526,-4.16032,29.281
-308,498,-4.16577,-29.9552,0.00242001,-0.0044015,0.00167541,0.00280929,-0.00479078,0.228298,0.00443733,0.0206133,916,526,-4.16576,29.9552
-301,498,-4.08862,-30.6865,0.00324315,-0.0043017,0.00207908,0.00377814,-0.00483668,0.251853,0.00498627,0.042671,923,526,-4.0886,30.6865
-294,498,-4.0213,-31.4279,0,0,0,0,0,0,0,-1,930,526,-4.02132,31.4279
-287,498,-0.91394,-13.4327,0,0,0,0,0,0,0,-1,937,526,-0.913935,13.4327
-280,498,-0.341614,-8.66608,0,0,0,0,0,0,0,-1,944,526,-0.341589,8.66606
-273,498,-0.988892,-8.62921,0,0,0,0,0,0,0,-1,951,526,-0.988906,8.62922
-266,498,0.362488,-6.33545,0,0,0,0,0,0,0,-1,958,526,0.362478,6.33547
-259,498,10.9454,-17.3615,0,0,0,0,0,0,0,-1,965,526,10.9454,17.3614
-252,498,8.56586,-14.6886,0,0,0,0,0,0,0,-1,972,526,8.56584,14.6886
-245,498,5.97382,-11.928,0,0,0,0,0,0,0,-1,979,526,5.97381,11.928
-238,498,2.24841,-13.8145,0,0,0,0,0,0,0,-1,986,526,2.24838,13.8145
-231,498,0.665894,-10.4898,0,0,0,0,0,0,0,-1,993,526,0.665863,10.4898
-224,498,-2.11243,-4.76312,0,0,0,0,0,0,0,-1,1000,526,-2.11245,4.76314
-217,498,-3.82239,-1.42841,0,0,0,0,0,0,0,-1,1007,526,-3.82241,1.42843
-210,498,-1.80591,-0.358215,0,0,0,0,0,0,0,-1,1014,526,-1.8059,0.3582
-203,498,-3.17316,1.06641,0,0,0,0,0,0,0,-1,1021,526,-3.17313,-1.0664
-196,498,-0.103271,5.40527,0,0,0,0,0,0,0,-1,1028,526,-0.103285,-5.40528
-189,498,3.00256,6.47137,0,0,0,0,0,0,0,-1,1035,526,3.00256,-6.47139
-182,498,0,0,0,0,0,0,0,0,0,-1,1042,526,0,0
-175,498,0,0,0,0,0,0,0,0,0,-1,1049,526,0,0
-168,498,0,0,0,0,0,0,0,0,0,-1,1056,526,0,0
-161,498,0,0,0,0,0,0,0,0,0,-1,1063,526,0,0
-154,498,0,0,0,0,0,0,0,0,0,-1,1070,526,0,0
-147,498,0,0,0,0,0,0,0,0,0,-1,1077,526,0,0
-140,498,0,0,0,0,0,0,0,0,0,-1,1084,526,0,0
-133,498,0,0,0,0,0,0,0,0,0,-1,1091,526,0,0
-126,498,0,0,0,0,0,0,0,0,0,-1,1098,526,0,0
-119,498,0,0,0,0,0,0,0,0,0,-1,1105,526,0,0
-112,498,0,0,0,0,0,0,0,0,0,-1,1112,526,0,0
-105,498,0,0,0,0,0,0,0,0,0,-1,1119,526,0,0
-98,498,0,0,0,0,0,0,0,0,0,-1,1126,526,0,0
-91,498,0,0,0,0,0,0,0,0,0,-1,1133,526,0,0
-84,498,0,0,0,0,0,0,0,0,0,-1,1140,526,0,0
-77,498,0,0,0,0,0,0,0,0,0,-1,1147,526,0,0
-70,498,0,0,0,0,0,0,0,0,0,-1,1154,526,0,0
-63,498,0,0,0,0,0,0,0,0,0,-1,1161,526,0,0
-56,498,0,0,0,0,0,0,0,0,0,-1,1168,526,0,0
-49,498,0,0,0,0,0,0,0,0,0,-1,1175,526,0,0
-42,498,0,0,0,0,0,0,0,0,0,-1,1182,526,0,0
-35,498,0,0,0,0,0,0,0,0,0,-1,1189,526,0,0
-28,498,0,0,0,0,0,0,0,0,0,-1,1196,526,0,0
-21,498,0,0,0,0,0,0,0,0,0,-1,1203,526,0,0
-14,498,0,0,0,0,0,0,0,0,0,-1,1210,526,0,0
-7,498,0,0,0,0,0,0,0,0,0,-1,1217,526,0,0
0,498,0,0,0,0,0,0,0,0,0,-1,1224,526,0,0
7,498,0,0,0,0,0,0,0,0,0,-1,1231,526,0,0
14,498,0,0,0,0,0,0,0,0,0,-1,1238,526,0,0
21,498,0,0,0,0,0,0,0,0,0,-1,1245,526,0,0
28,498,0,0,0,0,0,0,0,0,0,-1,1252,526,0,0
35,498,0,0,0,0,0,0,0,0,0,-1,1259,526,0,0
42,498,0,0,0,0,0,0,0,0,0,-1,1266,526,0,0
49,498,0,0,0,0,0,0,0,0,0,-1,1273,526,0,0
56,498,0,0,0,0,0,0,0,0,0,-1,1280,526,0,0
63,498,0,0,0,0,0,0,0,0,0,-1,1287,526,0,0
70,498,0,0,0,0,0,0,0,0,0,-1,1294,526,0,0
77,498,0,0,0,0,0,0,0,0,0,-1,1301,526,0,0
84,498,0,0,0,0,0,0,0,0,0,-1,1308,526,0,0
91,498,0,0,0,0,0,0,0,0,0,-1,1315,526,0,0
98,498,0,0,0,0,0,0,0,0,0,-1,1322,526,0,0
105,498,0,0,0,0,0,0,0,0,0,-1,1329,526,0,0
112,498,0,0,0,0,0,0,0,0,0,-1,1336,526,0,0
119,498,0,0,0,0,0,0,0,0,0,-1,1343,526,0,0
126,498,0,0,0,0,0,0,0,0,0,-1,1350,526,0,0
133,498,0,0,0,0,0,0,0,0,0,-1,1357,526,0,0
140,498,0,0,0,0,0,0,0,0,0,-1,1364,526,0,0
147,498,0,0,0,0,0,0,0,0,0,-1,1371,526,0,0
154,498,0,0,0,0,0,0,0,0,0,-1,1378,526,0,0
161,498,0,0,0,0,0,0,0,0,0,-1,1385,526,0,0
168,498,0,0,0,0,0,0,0,0,0,-1,1392,526,0,0
175,498,0,0,0,0,0,0,0,0,0,-1,1399,526,0,0
182,498,0,0,0,0,0,0,0,0,0,-1,1406,526,0,0
189,498,0,0,0,0,0,0,0,0,0,-1,1413,526,0,0
196,498,0,0,0,0,0,0,0,0,0,-1,1420,526,0,0
203,498,0,0,0,0,0,0,0,0,0,-1,1427,526,0,0
210,498,0,0,0,0,0,0,0,0,0,-1,1434,526,0,0
217,498,0,0,0,0,0,0,0,0,0,-1,1441,526,0,0
224,498,0,0,0,0,0,0,0,0,0,-1,1448,526,0,0
231,498,0,0,0,0,0,0,0,0,0,-1,1455,526,0,0
238,498,0,0,0,0,0,0,0,0,0,-1,1462,526,0,0
245,498,0,0,0,0,0,0,0,0,0,-1,1469,526,0,0
252,498,0,0,0,0,0,0,0,0,0,-1,1476,526,0,0
259,498,0,0,0,0,0,0,0,0,0,-1,1483,526,0,0
266,498,0,0,0,0,0,0,0,0,0,-1,1490,526,0,0
273,498,0,0,0,0,0,0,0,0,0,-1,1497,526,0,0
280,498,0,0,0,0,0,0,0,0,0,-1,1504,526,0,0
287,498,0,0,0,0,0,0,0,0,0,-1,1511,526,0,0
294,498,0,0,0,0,0,0,0,0,0,-1,1518,526,0,0
301,498,0,0,0,0,0,0,0,0,0,-1,1525,526,0,0
308,498,4.77942,-0.293884,0,0,0,0,0,0,0,-1,1532,526,4.77939,0.293899
315,498,4.56091,-0.564148,0,0,0,0,0,0,0,-1,1539,526,4.56097,0.564142
322,498,4.52344,-0.447266,0,0,0,0,0,0,0,-1,1546,526,4.52341,0.447295
329,498,4.63232,-0.156982,0,0,0,0,0,0,0,-1,1553,526,4.63238,0.156991
336,498,5.22644,0.0925903,0,0,0,0,0,0,0,-1,1560,526,5.22648,-0.0926188
343,498,6.22607,-1.67615,0,0,0,0,0,0,0,-1,1567,526,6.22605,1.67617
350,498,6.19373,-1.59906,0,0,0,0,0,0,0,-1,1574,526,6.19367,1.59906
357,498,6.21472,-1.58929,0,0,0,0,0,0,0,-1,1581,526,6.21476,1.58927
364,498,5.73547,-1.2019,0,0,0,0,0,0,0,-1,1588,526,5.73547,1.20192
371,498,3.27087,-4.55334,0,0,0,0,0,0,0,-1,1595,526,3.27089,4.55332
378,498,8.42944,-4.70624,0,0,0,0,0,0,0,-1,1602,526,8.42942,4.70624
385,498,4.7793,-5.15314,0,0,0,0,0,0,0,-1,1609,526,4.77935,5.15311
392,498,9.12439,-8.57953,0,0,0,0,0,0,0,-1,1616,526,9.12443,8.57955
399,498,7.98938,-9.46021,0,0,0,0,0,0,0,-1,1623,526,7.98936,9.4602
406,498,7.58081,-9.26819,0,0,0,0,0,0,0,-1,1630,526,7.58085,9.26817
413,498,7.17236,-9.07611,0,0,0,0,0,0,0,-1,1637,526,7.17234,9.07614
420,498,11.4314,-16.1147,0,0,0,0,0,0,0,-1,1644,526,11.4313,16.1147
427,498,17.4944,-30.1225,0,0,0,0,0,0,0,-1,1651,526,17.4944,30.1225
434,498,17.4725,-29.2729,0.00152702,-0.000252603,-0.00185767,0.00269699,-0.00142257,-0.562047,0.00241607,0.0367719,1658,526,17.4725,29.273
441,498,17.5366,-28.5325,0.00145656,-6.04092e-05,-0.00145217,0.0023364,-0.000940245,-0.54473,0.00194817,0.0123004,1665,526,17.5366,28.5325
448,498,17.5259,-27.7852,0.0015182,0.000159331,-0.000977587,0.00202927,-0.000351742,-0.481714,0.00148405,0.00982847,1672,526,17.5258,27.7852
455,498,17.4792,-27.0599,0.0015494,0.00060353,-0.000491725,0.00175871,0.000394218,-0.402437,0.00106566,0.0137495,1679,526,17.4793,27.0599
462,498,17.465,-26.3539,0.0014618,0.000845432,-0.000159146,0.00150047,0.000806766,-0.238339,0.000867115,0.0153731,1686,526,17.465,26.3539
469,498,17.4351,-25.6167,0.00144794,0.00110824,0.000273225,0.00159981,0.000956377,0.507308,0.00092952,0.0132444,1693,526,17.4351,25.6167
476,498,17.4025,-24.8909,0.00150421,0.0013983,0.00082056,0.00227352,0.000628987,0.753177,0.00135557,0.0106339,1700,526,17.4025,24.891
483,498,17.3726,-24.1692,0.00162731,0.00171402,0.00139858,0.00306992,0.000271411,0.800894,0.00196241,0.00948675,1707,526,17.3726,24.1692
490,498,17.3347,-23.4265,0.00182053,0.00212303,0.00208576,0.00406302,-0.00011945,0.821593,0.00274936,0.0117333,1714,526,17.3347,23.4265
497,498,17.3026,-22.6641,0.00213782,0.00256905,0.00291287,0.00527427,-0.0005674,0.822342,0.00371977,0.0130971,1721,526,17.3026,22.6641
504,498,17.2689,-21.8964,0.00261308,0.00293432,0.0038541,0.00663114,-0.00108375,0.806223,0.00482277,0.014565,1728,526,17.269,21.8964
511,498,17.2314,-21.125,0.00312034,0.00335923,0.00486297,0.00810423,-0.00162465,0.797677,0.00601792,0.0165843,1735,526,17.2314,21.125
518,498,17.2753,-20.3474,0.00358914,0.00390363,0.00590204,0.00965052,-0.00215775,0.798716,0.00726061,0.0203976,1742,526,17.2753,20.3474
525,498,17.1134,-19.584,0.00409691,0.00446027,0.0069983,0.0112793,-0.00272207,0.798375,0.00857215,0.0328556,1749,526,17.1134,19.584
532,498,16.8674,-18.8065,0.00458754,0.00505435,0.00808611,0.0129104,-0.00326852,0.799827,0.00987838,0.0489563,1756,526,16.8674,18.8065
539,498,16.861,-18.0536,0,0,0,0,0,0,0,-1,1763,526,16.8609,18.0536
546,498,10.2014,-8.47589,0,0,0,0,0,0,0,-1,1770,526,10.2014,8.47589
553,498,5.93958,-1.71448,0,0,0,0,0,0,0,-1,1777,526,5.93956,1.71447
560,498,3.69385,-0.615112,0,0,0,0,0,0,0,-1,1784,526,3.69381,0.615118
567,498,5.12695,-0.581604,0,0,0,0,0,0,0,-1,1791,526,5.12699,0.58159
574,498,3.88,0.0286255,0,0,0,0,0,0,0,-1,1798,526,3.87999,-0.0286535
581,498,10.8722,2.58551,0,0,0,0,0,0,0,-1,1805,526,10.8723,-2.58551
588,498,0,0,0,0,0,0,0,0,0,-1,1812,526,0,0
595,498,0,0,0,0,0,0,0,0,0,-1,1819,526,0,0
602,498,0,0,0,0,0,0,0,0,0,-1,1826,526,0,0
609,498,0,0,0,0,0,0,0,0,0,-1,1833,526,0,0
616,498,0,0,0,0,0,0,0,0,0,-1,1840,526,0,0
623,498,0,0,0,0,0,0,0,0,0,-1,1847,526,0,0
630,498,0,0,0,0,0,0,0,0,0,-1,1854,526,0,0
637,498,0,0,0,0,0,0,0,0,0,-1,1861,526,0,0
644,498,0,0,0,0,0,0,0,0,0,-1,1868,526,0,0
651,498,0,0,0,0,0,0,0,0,0,-1,1875,526,0,0
658,498,0,0,0,0,0,0,0,0,0,-1,1882,526,0,0
665,498,0,0,0,0,0,0,0,0,0,-1,1889,526,0,0
672,498,0,0,0,0,0,0,0,0,0,-1,1896,526,0,0
679,498,0,0,0,0,0,0,0,0,0,-1,1903,526,0,0
686,498,0,0,0,0,0,0,0,0,0,-1,1910,526,0,0
693,498,0,0,0,0,0,0,0,0,0,-1,1917,526,0,0
700,498,0,0,0,0,0,0,0,0,0,-1,1924,526,0,0
707,498,0,0,0,0,0,0,0,0,0,-1,1931,526,0,0
714,498,0,0,0,0,0,0,0,0,0,-1,1938,526,0,0
721,498,0,0,0,0,0,0,0,0,0,-1,1945,526,0,0
728,498,0,0,0,0,0,0,0,0,0,-1,1952,526,0,0
735,498,0,0,0,0,0,0,0,0,0,-1,1959,526,0,0
742,498,0,0,0,0,0,0,0,0,0,-1,1966,526,0,0
749,498,0,0,0,0,0,0,0,0,0,-1,1973,526,0,0
756,498,0,0,0,0,0,0,0,0,0,-1,1980,526,0,0
763,498,0,0,0,0,0,0,0,0,0,-1,1987,526,0,0
770,498,0,0,0,0,0,0,0,0,0,-1,1994,526,0,0
777,498,0,0,0,0,0,0,0,0,0,-1,2001,526,0,0
784,498,0,0,0,0,0,0,0,0,0,-1,2008,526,0,0
791,498,0,0,0,0,0,0,0,0,0,-1,2015,526,0,0
798,498,0,0,0,0,0,0,0,0,0,-1,2022,526,0,0
805,498,0,0,0,0,0,0,0,0,0,-1,2029,526,0,0
812,498,0,0,0,0,0,0,0,0,0,-1,2036,526,0,0
-700,491,0,0,0,0,0,0,0,0,0,-1,524,533,0,0
-693,491,0,0,0,0,0,0,0,0,0,-1,531,533,0,0
-686,491,0,0,0,0,0,0,0,0,0,-1,538,533,0,0
-679,491,0,0,0,0,0,0,0,0,0,-1,545,533,0,0
-672,491,0,0,0,0,0,0,0,0,0,-1,552,533,0,0
-665,491,0,0,0,0,0,0,0,0,0,-1,559,533,0,0
-658,491,0,0,0,0,0,0,0,0,0,-1,566,533,0,0
-651,491,0,0,0,0,0,0,0,0,0,-1,573,533,0,0
-644,491,0,0,0,0,0,0,0,0,0,-1,580,533,0,0
-637,491,0,0,0,0,0,0,0,0,0,-1,587,533,0,0
-630,491,0,0,0,0,0,0,0,0,0,-1,594,533,0,0
-623,491,0,0,0,0,0,0,0,0,0,-1,601,533,0,0
-616,491,0,0,0,0,0,0,0,0,0,-1,608,533,0,0
-609,491,0,0,0,0,0,0,0,0,0,-1,615,533,0,0
-602,491,0,0,0,0,0,0,0,0,0,-1,622,533,0,0
-595,491,0,0,0,0,0,0,0,0,0,-1,629,533,0,0
-588,491,0,0,0,0,0,0,0,0,0,-1,636,533,0,0
-581,491,0,0,0,0,0,0,0,0,0,-1,643,533,0,0
-574,491,0,0,0,0,0,0,0,0,0,-1,650,533,0,0
-567,491,0,0,0,0,0,0,0,0,0,-1,657,533,0,0
-560,491,0,0,0,0,0,0,0,0,0,-1,664,533,0,0
-553,491,0,0,0,0,0,0,0,0,0,-1,671,533,0,0
-546,491,0,0,0,0,0,0,0,0,0,-1,678,533,0,0
-539,491,0,0,0,0,0,0,0,0,0,-1,685,533,0,0
-532,491,0,0,0,0,0,0,0,0,0,-1,692,533,0,0
-525,491,0,0,0,0,0,0,0,0,0,-1,699,533,0,0
-518,491,0,0,0,0,0,0,0,0,0,-1,706,533,0,0
-511,491,0,0,0,0,0,0,0,0,0,-1,713,533,0,0
-504,491,0,0,0,0,0,0,0,0,0,-1,720,533,0,0
-497,491,0,0,0,0,0,0,0,0,0,-1,727,533,0,0
-490,491,0,0,0,0,0,0,0,0,0,-1,734,533,0,0
-483,491,0,0,0,0,0,0,0,0,0,-1,741,533,0,0
-476,491,0,0,0,0,0,0,0,0,0,-1,748,533,0,0
-469,491,-5.85913,4.55011,0,0,0,0,0,0,0,-1,755,533,-5.8591,-4.55009
-462,491,-9.93713,4.90381,0,0,0,0,0,0,0,-1,762,533,-9.93716,-4.9038
-455,491,1.9494,-0.27887,0,0,0,0,0,0,0,-1,769,533,1.94941,0.27885
-448,491,2.68909,-1.8999,0,0,0,0,0,0,0,-1,776,533,2.6891,1.89988
-441,491,3.46069,-3.51855,0,0,0,0,0,0,0,-1,783,533,3.46071,3.51854
-434,491,2.67145,-7.44061,0,0,0,0,0,0,0,-1,790,533,2.67146,7.44061
-427,491,2.27136,-8.34546,0,0,0,0,0,0,0,-1,797,533,2.27136,8.34546
-420,491,-4.72369,-17.5376,0,0,0,0,0,0,0,-1,804,533,-4.72367,17.5376
-413,491,-4.45422,-18.7607,0,0,0,0,0,0,0,-1,811,533,-4.45423,18.7607
-406,491,-4.42023,-19.7318,0.00108051,0.0145726,-0.00751308,0.0179238,-0.00227076,-1.15123,0.0127736,0.0275129,818,533,-4.42025,19.7318
-399,491,-4.4527,-20.5782,0.00142259,0.0124952,-0.00687286,0.0157843,-0.00186645,-1.12445,0.011197,0.0142821,825,533,-4.45268,20.5782
-392,491,-4.53333,-21.3364,0.00172367,0.0105886,-0.00617303,0.0137557,-0.00144341,-1.09676,0.0096875,0.0115548,832,533,-4.53332,21.3364
-385,491,-4.55762,-22.0571,0.00200634,0.0087266,-0.00538545,0.0117142,-0.000981251,-1.06431,0.00815624,0.00994847,839,533,-4.55763,22.0571
-378,491,-4.58344,-22.7772,0.00216674,0.00698863,-0.00454264,0.00972047,-0.000565102,-1.02937,0.00667666,0.0144336,846,533,-4.58343,22.7772
-371,491,-4.61505,-23.5165,0.00219539,0.00523332,-0.00371397,0.00772694,-0.000298229,-0.979513,0.00525353,0.0155159,853,533,-4.61505,23.5165
-364,491,-4.65198,-24.2759,0.00212322,0.00337462,-0.00275279,0.00557192,-7.40795e-05,-0.897148,0.00373955,0.0142385,860,533,-4.65199,24.2759
-357,491,-4.66718,-24.9883,0.00203163,0.00172529,-0.00180412,0.00368907,6.78501e-05,-0.743051,0.00243708,0.0121543,867,533,-4.66719,24.9883
-350,491,-4.70953,-25.6725,0.00202166,0.000206106,-0.000991299,0.00245803,-0.000230265,-0.414675,0.00172059,0.0146005,874,533,-4.70951,25.6725
-343,491,-4.73767,-26.4421,0.00194918,-0.00130848,-0.000197367,0.00196109,-0.0013204,-0.0602917,0.00190657,0.0268551,881,533,-4.73767,26.442
-336,491,-4.75684,-27.1917,0.00181905,-0.0027842,0.000576466,0.00189014,-0.0028553,0.122706,0.00275861,0.0286115,888,533,-4.75683,27.1917
-329,491,-4.79169,-27.8155,0.0018594,-0.00404648,0.00123928,0.0021089,-0.00429599,0.198677,0.00376904,0.0266171,895,533,-4.79169,27.8155
-322,491,-4.84961,-28.5046,0.00218251,-0.0048187,0.00163331,0.0025448,-0.00518099,0.218278,0.00454621,0.0221019,902,533,-4.84961,28.5047
-315,491,-4.86914,-29.1401,0.00263114,-0.0052312,0.00179203,0.00302033,-0.00562038,0.213855,0.00506344,0.0206716,909,533,-4.86914,29.1401
-308,491,-4.81256,-29.987,0,0,0,0,0,0,0,-1,916,533,-4.81257,29.987
-301,491,-4.76721,-31.0228,0,0,0,0,0,0,0,-1,923,533,-4.76723,31.0228
-294,491,-0.777283,-8.60913,0,0,0,0,0,0,0,-1,930,533,-0.777288,8.6091
-287,491,-0.26123,-8.69055,0,0,0,0,0,0,0,-1,937,533,-0.261204,8.69053
-280,491,0.2948,-5.99219,0,0,0,0,0,0,0,-1,944,533,0.294811,5.99221
-273,491,0.369995,-5.33691,0,0,0,0,0,0,0,-1,951,533,0.369985,5.33693
-266,491,1.1167,-5.0321,0,0,0,0,0,0,0,-1,958,533,1.11668,5.0321
-259,491,12.0862,-16.9615,0,0,0,0,0,0,0,-1,965,533,12.0862,16.9615
-252,491,9.72443,-13.8417,0,0,0,0,0,0,0,-1,972,533,9.72444,13.8418
-245,491,5.27258,-14.3619,0,0,0,0,0,0,0,-1,979,533,5.27255,14.3619
-238,491,3.65381,-11.1472,0,0,0,0,0,0,0,-1,986,533,3.6538,11.1472
-231,491,2.17719,-7.86835,0,0,0,0,0,0,0,-1,993,533,2.17719,7.86832
-224,491,0.554626,-4.61725,0,0,0,0,0,0,0,-1,1000,533,0.554608,4.61727
-217,491,-2.92743,-1.0766,0,0,0,0,0,0,0,-1,1007,533,-2.92743,1.07659
-210,491,-0.92395,0.374512,0,0,0,0,0,0,0,-1,1014,533,-0.923959,-0.374531
-203,491,0.417419,4.77161,0,0,0,0,0,0,0,-1,1021,533,0.417446,-4.77162
-196,491,0,0,0,0,0,0,0,0,0,-1,1028,533,0,0
-189,491,0,0,0,0,0,0,0,0,0,-1,1035,533,0,0
-182,491,0,0,0,0,0,0,0,0,0,-1,1042,533,0,0
-175,491,0,0,0,0,0,0,0,0,0,-1,1049,533,0,0
-168,491,0,0,0,0,0,0,0,0,0,-1,1056,533,0,0
-161,491,0,0,0,0,0,0,0,0,0,-1,1063,533,0,0
-154,491,0,0,0,0,0,0,0,0,0,-1,1070,533,0,0
-147,491,0,0,0,0,0,0,0,0,0,-1,1077,533,0,0
-140,491,0,0,0,0,0,0,0,0,0,-1,1084,533,0,0
-133,491,0,0,0,0,0,0,0,0,0,-1,1091,533,0,0
-126,491,0,0,0,0,0,0,0,0,0,-1,1098,533,0,0
-119,491,0,0,0,0,0,0,0,0,0,-1,1105,533,0,0
-112,491,0,0,0,0,0,0,0,0,0,-1,1112,533,0,0
-105,491,0,0,0,0,0,0,0,0,0,-1,1119,533,0,0
-98,491,0,0,0,0,0,0,0,0,0,-1,1126,533,0,0
-91,491,0,0,0,0,0,0,0,0,0,-1,1133,533,0,0
-84,491,0,0,0,0,0,0,0,0,0,-1,1140,533,0,0
-77,491,0,0,0,0,0,0,0,0,0,-1,1147,533,0,0
-70,491,0,0,0,0,0,0,0,0,0,-1,1154,533,0,0
-63,491,0,0,0,0,0,0,0,0,0,-1,1161,533,0,0
-56,491,0,0,0,0,0,0,0,0,0,-1,1168,533,0,0
-49,491,0,0,0,0,0,0,0,0,0,-1,1175,533,0,0
-42,491,0,0,0,0,0,0,0,0,0,-1,1182,533,0,0
-35,491,0,0,0,0,0,0,0,0,0,-1,1189,533,0,0
-28,491,0,0,0,0,0,0,0,0,0,-1,1196,533,0,0
-21,491,0,0,0,0,0,0,0,0,0,-1,1203,533,0,0
-14,491,0,0,0,0,0,0,0,0,0,-1,1210,533,0,0
-7,491,0,0,0,0,0,0,0,0,0,-1,1217,533,0,0
0,491,0,0,0,0,0,0,0,0,0,-1,1224,533,0,0
7,491,0,0,0,0,0,0,0,0,0,-1,1231,533,0,0
14,491,0,0,0,0,0,0,0,0,0,-1,1238,533,0,0
21,491,0,0,0,0,0,0,0,0,0,-1,1245,533,0,0
28,491,0,0,0,0,0,0,0,0,0,-1,1252,533,0,0
35,491,0,0,0,0,0,0,0,0,0,-1,1259,533,0,0
42,491,0,0,0,0,0,0,0,0,0,-1,1266,533,0,0
49,491,0,0,0,0,0,0,0,0,0,-1,1273,533,0,0
56,491,0,0,0,0,0,0,0,0,0,-1,1280,533,0,0
63,491,0,0,0,0,0,0,0,0,0,-1,1287,533,0,0
70,491,0,0,0,0,0,0,0,0,0,-1,1294,533,0,0
77,491,0,0,0,0,0,0,0,0,0,-1,1301,533,0,0
84,491,0,0,0,0,0,0,0,0,0,-1,1308,533,0,0
91,491,0,0,0,0,0,0,0,0,0,-1,1315,533,0,0
98,491,0,0,0,0,0,0,0,0,0,-1,1322,533,0,0
105,491,0,0,0,0,0,0,0,0,0,-1,1329,533,0,0
112,491,0,0,0,0,0,0,0,0,0,-1,1336,533,0,0
119,491,0,0,0,0,0,0,0,0,0,-1,1343,533,0,0
126,491,0,0,0,0,0,0,0,0,0,-1,1350,533,0,0
133,491,0,0,0,0,0,0,0,0,0,-1,1357,533,0,0
140,491,0,0,0,0,0,0,0,0,0,-1,1364,533,0,0
147,491,0,0,0,0,0,0,0,0,0,-1,1371,533,0,0
154,491,0,0,0,0,0,0,0,0,0,-1,1378,533,0,0
161,491,0,0,0,0,0,0,0,0,0,-1,1385,533,0,0
168,491,0,0,0,0,0,0,0,0,0,-1,1392,533,0,0
175,491,0,0,0,0,0,0,0,0,0,-1,1399,533,0,0
182,491,0,0,0,0,0,0,0,0,0,-1,1406,533,0,0
189,491,0,0,0,0,0,0,0,0,0,-1,1413,533,0,0
196,491,0,0,0,0,0,0,0,0,0,-1,1420,533,0,0
203,491,0,0,0,0,0,0,0,0,0,-1,1427,533,0,0
210,491,0,0,0,0,0,0,0,0,0,-1,1434,533,0,0
217,491,0,0,0,0,0,0,0,0,0,-1,1441,533,0,0
224,491,0,0,0,0,0,0,0,0,0,-1,1448,533,0,0
231,491,0,0,0,0,0,0,0,0,0,-1,1455,533,0,0
238,491,0,0,0,0,0,0,0,0,0,-1,1462,533,0,0
245,491,0,0,0,0,0,0,0,0,0,-1,1469,533,0,0
252,491,0,0,0,0,0,0,0,0,0,-1,1476,533,0,0
259,491,0,0,0,0,0,0,0,0,0,-1,1483,533,0,0
266,491,0,0,0,0,0,0,0,0,0,-1,1490,533,0,0
273,491,0,0,0,0,0,0,0,0,0,-1,1497,533,0,0
280,491,0,0,0,0,0,0,0,0,0,-1,1504,533,0,0
287,491,0,0,0,0,0,0,0,0,0,-1,1511,533,0,0
294,491,0,0,0,0,0,0,0,0,0,-1,1518,533,0,0
301,491,0,0,0,0,0,0,0,0,0,-1,1525,533,0,0
308,491,0,0,0,0,0,0,0,0,0,-1,1532,533,0,0
315,491,0,0,0,0,0,0,0,0,0,-1,1539,533,0,0
322,491,4.26331,-0.734314,0,0,0,0,0,0,0,-1,1546,533,4.26326,0.734324
329,491,4.25354,-0.783752,0,0,0,0,0,0,0,-1,1553,533,4.25359,0.783734
336,491,4.81604,-0.722107,0,0,0,0,0,0,0,-1,1560,533,4.81605,0.722115
343,491,6.14478,-1.44281,0,0,0,0,0,0,0,-1,1567,533,6.14474,1.44281
350,491,6.36353,-1.30792,0,0,0,0,0,0,0,-1,1574,533,6.36352,1.3079
357,491,6.69482,-1.06018,0,0,0,0,0,0,0,-1,1581,533,6.69489,1.06018
364,491,8.01086,-1.69604,0,0,0,0,0,0,0,-1,1588,533,8.01087,1.69607
371,491,8.2135,-0.539307,0,0,0,0,0,0,0,-1,1595,533,8.21348,0.53929
378,491,13.3589,2.17267,0,0,0,0,0,0,0,-1,1602,533,13.3589,-2.17264
385,491,8.08228,-4.95471,0,0,0,0,0,0,0,-1,1609,533,8.08227,4.95474
392,491,2.88721,-4.30988,0,0,0,0,0,0,0,-1,1616,533,2.88716,4.30986
399,491,8.95862,-8.55518,0,0,0,0,0,0,0,-1,1623,533,8.95864,8.55516
406,491,8.16541,-9.00806,0,0,0,0,0,0,0,-1,1630,533,8.16535,9.00807
413,491,5.31848,-3.7124,0,0,0,0,0,0,0,-1,1637,533,5.31849,3.7124
420,491,4.86389,-3.95892,0,0,0,0,0,0,0,-1,1644,533,4.86387,3.95893
427,491,11.5096,-15.2742,0,0,0,0,0,0,0,-1,1651,533,11.5096,15.2742
434,491,18.1516,-29.2427,0,0,0,0,0,0,0,-1,1658,533,18.1516,29.2427
441,491,18.2657,-28.2797,0.00139516,-0.000403574,-0.00191548,0.00261191,-0.00162032,-0.565913,0.00246573,0.0356126,1665,533,18.2657,28.2797
448,491,18.2455,-27.787,0.00146564,-0.000103484,-0.00143183,0.00231376,-0.000951609,-0.534767,0.00193917,0.0241248,1672,533,18.2455,27.787
455,491,18.1979,-27.0264,0.00152232,0.000397885,-0.000949645,0.00206369,-0.000143489,-0.518129,0.00142603,0.0163596,1679,533,18.1979,27.0263
462,491,18.2024,-26.3164,0.00138227,0.000618645,-0.000675322,0.00177624,0.000224673,-0.528112,0.00111683,0.0155816,1686,533,18.2024,26.3164
469,491,18.1578,-25.592,0.00133266,0.000825755,-0.000287816,0.00146271,0.000695703,-0.424399,0.000844833,0.0146159,1693,533,18.1578,25.592
476,491,18.1472,-24.846,0.00123011,0.00101529,5.29022e-05,0.00124243,0.00100297,0.228824,0.000761129,0.0105943,1700,533,18.1473,24.846
483,491,18.1039,-24.1134,0.00130547,0.0012371,0.000566659,0.00183897,0.000703595,0.755272,0.00107144,0.0124968,1707,533,18.1039,24.1134
490,491,18.0679,-23.4095,0.001367,0.00157287,0.00112342,0.00259806,0.000341809,0.831083,0.0016301,0.0108643,1714,533,18.0678,23.4096
497,491,18.0359,-22.6514,0.00152739,0.00199388,0.00183322,0.00360864,-8.73639e-05,0.848674,0.0024354,0.0121677,1721,533,18.0358,22.6514
504,491,18.0201,-21.8683,0.00181115,0.00226184,0.00260632,0.00465254,-0.000579557,0.828521,0.00331183,0.0137321,1728,533,18.0201,21.8683
511,491,17.9862,-21.0966,0.00207463,0.00260728,0.00341108,0.00576242,-0.0010805,0.824358,0.00424783,0.0133169,1735,533,17.9862,21.0966
518,491,17.9426,-20.3566,0.00224143,0.0030507,0.00420703,0.00687251,-0.00158038,0.833341,0.00518931,0.0108166,1742,533,17.9426,20.3566
525,491,17.9121,-19.5876,0.00244649,0.00351919,0.00504148,0.00805277,-0.00208709,0.838392,0.00618277,0.0115825,1749,533,17.9122,19.5876
532,491,17.8707,-18.8334,0.00264734,0.00409777,0.00587995,0.00929706,-0.00255194,0.846757,0.00720103,0.0248353,1756,533,17.8707,18.8334
539,491,17.8932,-17.9485,0,0,0,0,0,0,0,-1,1763,533,17.8932,17.9485
546,491,17.2893,-16.6929,0,0,0,0,0,0,0,-1,1770,533,17.2893,16.6929
553,491,10.5021,-7.77869,0,0,0,0,0,0,0,-1,1777,533,10.502,7.77871
560,491,6.28455,-1.43585,0,0,0,0,0,0,0,-1,1784,533,6.28458,1.43586
567,491,5.67651,-1.3562,0,0,0,0,0,0,0,-1,1791,533,5.67649,1.3562
574,491,8.0719,1.58325,0,0,0,0,0,0,0,-1,1798,533,8.07195,-1.58326
581,491,9.44812,1.60931,0,0,0,0,0,0,0,-1,1805,533,9.44808,-1.60933
588,491,11.0497,1.54962,0,0,0,0,0,0,0,-1,1812,533,11.0496,-1.54963
595,491,0,0,0,0,0,0,0,0,0,-1,1819,533,0,0
602,491,0,0,0,0,0,0,0,0,0,-1,1826,533,0,0
609,491,0,0,0,0,0,0,0,0,0,-1,1833,533,0,0
616,491,0,0,0,0,0,0,0,0,0,-1,1840,533,0,0
623,491,0,0,0,0,0,0,0,0,0,-1,1847,533,0,0
630,491,0,0,0,0,0,0,0,0,0,-1,1854,533,0,0
637,491,0,0,0,0,0,0,0,0,0,-1,1861,533,0,0
644,491,0,0,0,0,0,0,0,0,0,-1,1868,533,0,0
651,491,0,0,0,0,0,0,0,0,0,-1,1875,533,0,0
658,491,0,0,0,0,0,0,0,0,0,-1,1882,533,0,0
665,491,0,0,0,0,0,0,0,0,0,-1,1889,533,0,0
672,491,0,0,0,0,0,0,0,0,0,-1,1896,533,0,0
679,491,0,0,0,0,0,0,0,0,0,-1,1903,533,0,0
686,491,0,0,0,0,0,0,0,0,0,-1,1910,533,0,0
693,491,0,0,0,0,0,0,0,0,0,-1,1917,533,0,0
700,491,0,0,0,0,0,0,0,0,0,-1,1924,533,0,0
707,491,0,0,0,0,0,0,0,0,0,-1,1931,533,0,0
714,491,0,0,0,0,0,0,0,0,0,-1,1938,533,0,0
721,491,0,0,0,0,0,0,0,0,0,-1,1945,533,0,0
728,491,0,0,0,0,0,0,0,0,0,-1,1952,533,0,0
735,491,0,0,0,0,0,0,0,0,0,-1,1959,533,0,0
742,491,0,0,0,0,0,0,0,0,0,-1,1966,533,0,0
749,491,0,0,0,0,0,0,0,0,0,-1,1973,533,0,0
756,491,0,0,0,0,0,0,0,0,0,-1,1980,533,0,0
763,491,0,0,0,0,0,0,0,0,0,-1,1987,533,0,0
770,491,0,0,0,0,0,0,0,0,0,-1,1994,533,0,0
777,491,0,0,0,0,0,0,0,0,0,-1,2001,533,0,0
784,491,0,0,0,0,0,0,0,0,0,-1,2008,533,0,0
791,491,0,0,0,0,0,0,0,0,0,-1,2015,533,0,0
798,491,0,0,0,0,0,0,0,0,0,-1,2022,533,0,0
805,491,0,0,0,0,0,0,0,0,0,-1,2029,533,0,0
812,491,0,0,0,0,0,0,0,0,0,-1,2036,533,0,0
-700,484,0,0,0,0,0,0,0,0,0,-1,524,540,0,0
-693,484,0,0,0,0,0,0,0,0,0,-1,531,540,0,0
-686,484,0,0,0,0,0,0,0,0,0,-1,538,540,0,0
-679,484,0,0,0,0,0,0,0,0,0,-1,545,540,0,0
-672,484,0,0,0,0,0,0,0,0,0,-1,552,540,0,0
-665,484,0,0,0,0,0,0,0,0,0,-1,559,540,0,0
-658,484,0,0,0,0,0,0,0,0,0,-1,566,540,0,0
-651,484,0,0,0,0,0,0,0,0,0,-1,573,540,0,0
-644,484,0,0,0,0,0,0,0,0,0,-1,580,540,0,0
-637,484,0,0,0,0,0,0,0,0,0,-1,587,540,0,0
-630,484,0,0,0,0,0,0,0,0,0,-1,594,540,0,0
-623,484,0,0,0,0,0,0,0,0,0,-1,601,540,0,0
-616,484,0,0,0,0,0,0,0,0,0,-1,608,540,0,0
-609,484,0,0,0,0,0,0,0,0,0,-1,615,540,0,0
-602,484,0,0,0,0,0,0,0,0,0,-1,622,540,0,0
-595,484,0,0,0,0,0,0,0,0,0,-1,629,540,0,0
-588,484,0,0,0,0,0,0,0,0,0,-1,636,540,0,0
-581,484,0,0,0,0,0,0,0,0,0,-1,643,540,0,0
-574,484,0,0,0,0,0,0,0,0,0,-1,650,540,0,0
-567,484,0,0,0,0,0,0,0,0,0,-1,657,540,0,0
-560,484,0,0,0,0,0,0,0,0,0,-1,664,540,0,0
-553,484,0,0,0,0,0,0,0,0,0,-1,671,540,0,0
-546,484,0,0,0,0,0,0,0,0,0,-1,678,540,0,0
-539,484,0,0,0,0,0,0,0,0,0,-1,685,540,0,0
-532,484,0,0,0,0,0,0,0,0,0,-1,692,540,0,0
-525,484,0,0,0,0,0,0,0,0,0,-1,699,540,0,0
-518,484,0,0,0,0,0,0,0,0,0,-1,706,540,0,0
-511,484,0,0,0,0,0,0,0,0,0,-1,713,540,0,0
-504,484,0,0,0,0,0,0,0,0,0,-1,720,540,0,0
-497,484,0,0,0,0,0,0,0,0,0,-1,727,540,0,0
-490,484,0,0,0,0,0,0,0,0,0,-1,734,540,0,0
-483,484,0,0,0,0,0,0,0,0,0,-1,741,540,0,0
-476,484,-8.46552,1.44702,0,0,0,0,0,0,0,-1,748,540,-8.46554,-1.44702
-469,484,-7.82343,1.70355,0,0,0,0,0,0,0,-1,755,540,-7.82345,-1.70355
-462,484,-8.36987,3.08612,0,0,0,0,0,0,0,-1,762,540,-8.36988,-3.0861
-455,484,-6.77197,2.07092,0,0,0,0,0,0,0,-1,769,540,-6.77197,-2.07094
-448,484,3.54895,-1.40106,0,0,0,0,0,0,0,-1,776,540,3.54897,1.40106
-441,484,4.28906,-3.05884,0,0,0,0,0,0,0,-1,783,540,4.28905,3.05883
-434,484,-2.17548,-5.07245,0,0,0,0,0,0,0,-1,790,540,-2.17546,5.07243
-427,484,-5.00317,-16.9017,0,0,0,0,0,0,0,-1,797,540,-5.00317,16.9017
-420,484,-4.9682,-17.9044,0,0,0,0,0,0,0,-1,804,540,-4.9682,17.9044
-413,484,-5.01392,-18.8486,-2.65029e-05,0.0129614,-0.00601709,0.0153205,-0.00238561,-1.19715,0.0110947,0.0312463,811,540,-5.01394,18.8486
-406,484,-5.0976,-19.7478,0.000426535,0.0110298,-0.00568054,0.0134984,-0.00204202,-1.16085,0.00975112,0.0185606,818,540,-5.09759,19.7478
-399,484,-5.23608,-20.5222,0.000737539,0.00915239,-0.00512242,0.0115738,-0.00168388,-1.12922,0.00833406,0.0179168,825,540,-5.23609,20.5222
-392,484,-5.2572,-21.2469,0.00106685,0.00744102,-0.00452868,0.00979167,-0.0012838,-1.09202,0.00699509,0.0192121,832,540,-5.25723,21.2469
-385,484,-5.27905,-22.0187,0.00142775,0.0057947,-0.0038697,0.00805444,-0.00083199,-1.04226,0.00566735,0.0131901,839,540,-5.27905,22.0187
-378,484,-5.32684,-22.7655,0.00168038,0.00426938,-0.00313699,0.00636846,-0.000418706,-0.981083,0.00439187,0.0149237,846,540,-5.32681,22.7655
-371,484,-5.35657,-23.4864,0.00182464,0.00274016,-0.00240885,0.00473436,-0.000169557,-0.879295,0.00321425,0.0169044,853,540,-5.35656,23.4864
-364,484,-5.3786,-24.2131,0.00190071,0.00114185,-0.0015649,0.00313152,-8.89681e-05,-0.666463,0.00211796,0.0122518,860,540,-5.37858,24.2131
-357,484,-5.41058,-24.945,0.00198315,-0.000250362,-0.000748454,0.00221076,-0.000477975,-0.295223,0.00165632,0.0129178,867,540,-5.41059,24.945
-350,484,-5.46399,-25.6434,0.00215696,-0.00150502,-8.17114e-05,0.00215878,-0.00150684,-0.0222987,0.00212747,0.0149483,874,540,-5.464,25.6434
-343,484,-5.50085,-26.3765,0.00225018,-0.00272242,0.000579663,0.00231686,-0.0027891,0.114526,0.00295213,0.0238709,881,540,-5.50087,26.3765
-336,484,-5.50281,-27.0906,0.00229817,-0.00396055,0.00120214,0.00252112,-0.00418351,0.183383,0.00391038,0.0277633,888,540,-5.50283,27.0906
-329,484,-5.51129,-27.7594,0.00251572,-0.00501426,0.00172645,0.00289268,-0.00539122,0.214972,0.00485469,0.0362263,895,540,-5.51131,27.7594
-322,484,-5.50635,-28.5339,0,0,0,0,0,0,0,-1,902,540,-5.50635,28.534
-315,484,-5.38,-29.1135,0,0,0,0,0,0,0,-1,909,540,-5.37999,29.1135
-308,484,-1.32623,-8.9317,0,0,0,0,0,0,0,-1,916,540,-1.32626,8.93173
-301,484,-1.33453,-6.52667,0,0,0,0,0,0,0,-1,923,540,-1.33454,6.5267
-294,484,-1.61224,-8.17059,0,0,0,0,0,0,0,-1,930,540,-1.61227,8.17058
-287,484,-0.715759,-5.62103,0,0,0,0,0,0,0,-1,937,540,-0.715772,5.62105
-280,484,2.66742,-1.6795,0,0,0,0,0,0,0,-1,944,540,2.6674,1.67949
-273,484,2.53125,-2.22296,0,0,0,0,0,0,0,-1,951,540,2.53128,2.22295
-266,484,2.6778,-2.72058,0,0,0,0,0,0,0,-1,958,540,2.6778,2.72061
-259,484,2.41718,-2.59894,0,0,0,0,0,0,0,-1,965,540,2.41717,2.59892
-252,484,10.6069,-11.696,0,0,0,0,0,0,0,-1,972,540,10.6069,11.696
-245,484,6.34106,-11.6107,0,0,0,0,0,0,0,-1,979,540,6.34104,11.6107
-238,484,4.89319,-8.54059,0,0,0,0,0,0,0,-1,986,540,4.89321,8.5406
-231,484,3.47675,-5.22064,0,0,0,0,0,0,0,-1,993,540,3.47676,5.22067
-224,484,1.71344,-2.03473,0,0,0,0,0,0,0,-1,1000,540,1.71342,2.03472
-217,484,-0.745056,1.17358,0,0,0,0,0,0,0,-1,1007,540,-0.745043,-1.17359
-210,484,0,0,0,0,0,0,0,0,0,-1,1014,540,0,0
-203,484,0,0,0,0,0,0,0,0,0,-1,1021,540,0,0
-196,484,0,0,0,0,0,0,0,0,0,-1,1028,540,0,0
-189,484,0,0,0,0,0,0,0,0,0,-1,1035,540,0,0
-182,484,0,0,0,0,0,0,0,0,0,-1,1042,540,0,0
-175,484,0,0,0,0,0,0,0,0,0,-1,1049,540,0,0
-168,484,0,0,0,0,0,0,0,0,0,-1,1056,540,0,0
-161,484,0,0,0,0,0,0,0,0,0,-1,1063,540,0,0
-154,484,0,0,0,0,0,0,0,0,0,-1,1070,540,0,0
-147,484,0,0,0,0,0,0,0,0,0,-1,1077,540,0,0
-140,484,0,0,0,0,0,0,0,0,0,-1,1084,540,0,0
-133,484,0,0,0,0,0,0,0,0,0,-1,1091,540,0,0
-126,484,0,0,0,0,0,0,0,0,0,-1,1098,540,0,0
-119,484,0,0,0,0,0,0,0,0,0,-1,1105,540,0,0
-112,484,0,0,0,0,0,0,0,0,0,-1,1112,540,0,0
-105,484,0,0,0,0,0,0,0,0,0,-1,1119,540,0,0
-98,484,0,0,0,0,0,0,0,0,0,-1,1126,540,0,0
-91,484,0,0,0,0,0,0,0,0,0,-1,1133,540,0,0
-84,484,0,0,0,0,0,0,0,0,0,-1,1140,540,0,0
-77,484,0,0,0,0,0,0,0,0,0,-1,1147,540,0,0
-70,484,0,0,0,0,0,0,0,0,0,-1,1154,540,0,0
-63,484,0,0,0,0,0,0,0,0,0,-1,1161,540,0,0
-56,484,0,0,0,0,0,0,0,0,0,-1,1168,540,0,0
-49,484,0,0,0,0,0,0,0,0,0,-1,1175,540,0,0
-42,484,0,0,0,0,0,0,0,0,0,-1,1182,540,0,0
-35,484,0,0,0,0,0,0,0,0,0,-1,1189,540,0,0
-28,484,0,0,0,0,0,0,0,0,0,-1,1196,540,0,0
-21,484,0,0,0,0,0,0,0,0,0,-1,1203,540,0,0
-14,484,0,0,0,0,0,0,0,0,0,-1,1210,540,0,0
-7,484,0,0,0,0,0,0,0,0,0,-1,1217,540,0,0
0,484,0,0,0,0,0,0,0,0,0,-1,1224,540,0,0
7,484,0,0,0,0,0,0,0,0,0,-1,1231,540,0,0
14,484,0,0,0,0,0,0,0,0,0,-1,1238,540,0,0
21,484,0,0,0,0,0,0,0,0,0,-1,1245,540,0,0
28,484,0,0,0,0,0,0,0,0,0,-1,1252,540,0,0
35,484,0,0,0,0,0,0,0,0,0,-1,1259,540,0,0
42,484,0,0,0,0,0,0,0,0,0,-1,1266,540,0,0
49,484,0,0,0,0,0,0,0,0,0,-1,1273,540,0,0
56,484,0,0,0,0,0,0,0,0,0,-1,1280,540,0,0
63,484,0,0,0,0,0,0,0,0,0,-1,1287,540,0,0
70,484,0,0,0,0,0,0,0,0,0,-1,1294,540,0,0
77,484,0,0,0,0,0,0,0,0,0,-1,1301,540,0,0
84,484,0,0,0,0,0,0,0,0,0,-1,1308,540,0,0
91,484,0,0,0,0,0,0,0,0,0,-1,1315,540,0,0
98,484,0,0,0,0,0,0,0,0,0,-1,1322,540,0,0
105,484,0,0,0,0,0,0,0,0,0,-1,1329,540,0,0
112,484,0,0,0,0,0,0,0,0,0,-1,1336,540,0,0
119,484,0,0,0,0,0,0,0,0,0,-1,1343,540,0,0
126,484,0,0,0,0,0,0,0,0,0,-1,1350,540,0,0
133,484,0,0,0,0,0,0,0,0,0,-1,1357,540,0,0
140,484,0,0,0,0,0,0,0,0,0,-1,1364,540,0,0
147,484,0,0,0,0,0,0,0,0,0,-1,1371,540,0,0
154,484,0,0,0,0,0,0,0,0,0,-1,1378,540,0,0
161,484,0,0,0,0,0,0,0,0,0,-1,1385,540,0,0
168,484,0,0,0,0,0,0,0,0,0,-1,1392,540,0,0
175,484,0,0,0,0,0,0,0,0,0,-1,1399,540,0,0
182,484,0,0,0,0,0,0,0,0,0,-1,1406,540,0,0
189,484,0,0,0,0,0,0,0,0,0,-1,1413,540,0,0
196,484,0,0,0,0,0,0,0,0,0,-1,1420,540,0,0
203,484,0,0,0,0,0,0,0,0,0,-1,1427,540,0,0
210,484,0,0,0,0,0,0,0,0,0,-1,1434,540,0,0
217,484,0,0,0,0,0,0,0,0,0,-1,1441,540,0,0
224,484,0,0,0,0,0,0,0,0,0,-1,1448,540,0,0
231,484,0,0,0,0,0,0,0,0,0,-1,1455,540,0,0
238,484,0,0,0,0,0,0,0,0,0,-1,1462,540,0,0
245,484,0,0,0,0,0,0,0,0,0,-1,1469,540,0,0
252,484,0,0,0,0,0,0,0,0,0,-1,1476,540,0,0
259,484,0,0,0,0,0,0,0,0,0,-1,1483,540,0,0
266,484,0,0,0,0,0,0,0,0,0,-1,1490,540,0,0
273,484,0,0,0,0,0,0,0,0,0,-1,1497,540,0,0
280,484,0,0,0,0,0,0,0,0,0,-1,1504,540,0,0
287,484,0,0,0,0,0,0,0,0,0,-1,1511,540,0,0
294,484,0,0,0,0,0,0,0,0,0,-1,1518,540,0,0
301,484,0,0,0,0,0,0,0,0,0,-1,1525,540,0,0
308,484,0,0,0,0,0,0,0,0,0,-1,1532,540,0,0
315,484,0,0,0,0,0,0,0,0,0,-1,1539,540,0,0
322,484,0,0,0,0,0,0,0,0,0,-1,1546,540,0,0
329,484,0,0,0,0,0,0,0,0,0,-1,1553,540,0,0
336,484,4.38708,-1.64136,0,0,0,0,0,0,0,-1,1560,540,4.38704,1.64138
343,484,7.57996,-1.05457,0,0,0,0,0,0,0,-1,1567,540,7.57995,1.05454
350,484,8.10425,-1.18878,0,0,0,0,0,0,0,-1,1574,540,8.1043,1.18877
357,484,7.74902,-3.80286,0,0,0,0,0,0,0,-1,1581,540,7.74901,3.80287
364,484,6.31262,-3.87213,0,0,0,0,0,0,0,-1,1588,540,6.31263,3.87215
371,484,7.21008,0.973511,0,0,0,0,0,0,0,-1,1595,540,7.21014,-0.973541
378,484,11.0563,1.5014,0,0,0,0,0,0,0,-1,1602,540,11.0563,-1.5014
385,484,14.3469,2.5545,0,0,0,0,0,0,0,-1,1609,540,14.3469,-2.55453
392,484,7.39453,-4.95026,0,0,0,0,0,0,0,-1,1616,540,7.39448,4.95023
399,484,7.14417,-2.5639,0,0,0,0,0,0,0,-1,1623,540,7.14417,2.56391
406,484,7.88953,-2.47321,0,0,0,0,0,0,0,-1,1630,540,7.88954,2.47323
413,484,4.4895,-1.08673,0,0,0,0,0,0,0,-1,1637,540,4.48952,1.08674
420,484,4.50012,-2.11255,0,0,0,0,0,0,0,-1,1644,540,4.50012,2.11256
427,484,5.28601,-3.54053,0,0,0,0,0,0,0,-1,1651,540,5.28599,3.54051
434,484,11.1488,-13.5359,0,0,0,0,0,0,0,-1,1658,540,11.1489,13.5359
441,484,18.9285,-27.9656,0,0,0,0,0,0,0,-1,1665,540,18.9285,27.9656
448,484,18.9462,-27.8825,0,0,0,0,0,0,0,-1,1672,540,18.9462,27.8825
455,484,18.9634,-27.0633,0,0,0,0,0,0,0,-1,1679,540,18.9634,27.0633
462,484,18.9575,-26.3234,0.00136456,0.000512176,-0.00127238,0.00228023,-0.000403495,-0.623793,0.00167097,0.0309748,1686,540,18.9576,26.3234
469,484,18.9264,-25.5506,0.0012471,0.000702334,-0.00084838,0.00186575,8.36849e-05,-0.630064,0.0012169,0.0187527,1693,540,18.9264,25.5506
476,484,18.881,-24.7869,0.00100349,0.000806327,-0.000633384,0.00154592,0.000263899,-0.708195,0.000954881,0.0161585,1700,540,18.881,24.7869
483,484,18.8446,-24.0856,0.00106604,0.000932945,-9.90962e-05,0.00111886,0.000880125,-0.489708,0.000680435,0.0132909,1707,540,18.8446,24.0857
490,484,18.8127,-23.3744,0.00103674,0.00119434,0.000391061,0.00151446,0.000716619,0.884819,0.000874795,0.0129724,1714,540,18.8128,23.3744
497,484,18.7765,-22.6024,0.00109567,0.00158689,0.00103988,0.00240977,0.000272783,0.901368,0.00152375,0.013875,1721,540,18.7765,22.6024
504,484,18.7552,-21.8331,0.00125251,0.00175381,0.00168826,0.00320992,-0.000203604,0.859094,0.00221094,0.0164259,1728,540,18.7552,21.8331
511,484,18.7362,-21.0748,0.00136376,0.00201298,0.00233812,0.00404892,-0.000672178,0.854374,0.00294899,0.0202285,1735,540,18.7362,21.0749
518,484,18.6855,-20.3347,0.00136077,0.00235026,0.00295215,0.00484883,-0.00113781,0.868421,0.00367108,0.0172315,1742,540,18.6856,20.3347
525,484,18.6279,-19.5805,0.00139726,0.00273181,0.00357543,0.00570169,-0.00157263,0.87765,0.00441961,0.0139751,1749,540,18.6279,19.5805
532,484,18.613,-18.7858,0.00143733,0.00323963,0.00419139,0.00662565,-0.00194869,0.891287,0.00519007,0.0157766,1756,540,18.6131,18.7858
539,484,18.5494,-17.9646,0.00141838,0.003765,0.00471298,0.00744852,-0.00226515,0.907395,0.00586831,0.0398903,1763,540,18.5494,17.9646
546,484,18.5123,-17.0142,0,0,0,0,0,0,0,-1,1770,540,18.5123,17.0142
553,484,12.4246,-8.96423,0,0,0,0,0,0,0,-1,1777,540,12.4246,8.96422
560,484,10.0549,-5.47931,0,0,0,0,0,0,0,-1,1784,540,10.055,5.47928
567,484,7.78223,-1.38312,0,0,0,0,0,0,0,-1,1791,540,7.78224,1.38311
574,484,5.74463,1.50922,0,0,0,0,0,0,0,-1,1798,540,5.74463,-1.50924
581,484,10.34,2.9491,0,0,0,0,0,0,0,-1,1805,540,10.34,-2.94912
588,484,10.6669,2.88568,0,0,0,0,0,0,0,-1,1812,540,10.6669,-2.88567
595,484,10.7233,1.04767,0,0,0,0,0,0,0,-1,1819,540,10.7233,-1.04766
602,484,0,0,0,0,0,0,0,0,0,-1,1826,540,0,0
609,484,0,0,0,0,0,0,0,0,0,-1,1833,540,0,0
616,484,0,0,0,0,0,0,0,0,0,-1,1840,540,0,0
623,484,0,0,0,0,0,0,0,0,0,-1,1847,540,0,0
630,484,0,0,0,0,0,0,0,0,0,-1,1854,540,0,0
637,484,0,0,0,0,0,0,0,0,0,-1,1861,540,0,0
644,484,0,0,0,0,0,0,0,0,0,-1,1868,540,0,0
651,484,0,0,0,0,0,0,0,0,0,-1,1875,540,0,0
658,484,0,0,0,0,0,0,0,0,0,-1,1882,540,0,0
665,484,0,0,0,0,0,0,0,0,0,-1,1889,540,0,0
672,484,0,0,0,0,0,0,0,0,0,-1,1896,540,0,0
679,484,0,0,0,0,0,0,0,0,0,-1,1903,540,0,0
686,484,0,0,0,0,0,0,0,0,0,-1,1910,540,0,0
693,484,0,0,0,0,0,0,0,0,0,-1,1917,540,0,0
700,484,0,0,0,0,0,0,0,0,0,-1,1924,540,0,0
707,484,0,0,0,0,0,0,0,0,0,-1,1931,540,0,0
714,484,0,0,0,0,0,0,0,0,0,-1,1938,540,0,0
721,484,0,0,0,0,0,0,0,0,0,-1,1945,540,0,0
728,484,0,0,0,0,0,0,0,0,0,-1,1952,540,0,0
735,484,0,0,0,0,0,0,0,0,0,-1,1959,540,0,0
742,484,0,0,0,0,0,0,0,0,0,-1,1966,540,0,0
749,484,0,0,0,0,0,0,0,0,0,-1,1973,540,0,0
756,484,0,0,0,0,0,0,0,0,0,-1,1980,540,0,0
763,484,0,0,0,0,0,0,0,0,0,-1,1987,540,0,0
770,484,0,0,0,0,0,0,0,0,0,-1,1994,540,0,0
777,484,0,0,0,0,0,0,0,0,0,-1,2001,540,0,0
784,484,0,0,0,0,0,0,0,0,0,-1,2008,540,0,0
791,484,0,0,0,0,0,0,0,0,0,-1,2015,540,0,0
798,484,0,0,0,0,0,0,0,0,0,-1,2022,540,0,0
805,484,0,0,0,0,0,0,0,0,0,-1,2029,540,0,0
812,484,0,0,0,0,0,0,0,0,0,-1,2036,540,0,0
-700,477,0,0,0,0,0,0,0,0,0,-1,524,547,0,0
-693,477,0,0,0,0,0,0,0,0,0,-1,531,547,0,0
-686,477,0,0,0,0,0,0,0,0,0,-1,538,547,0,0
-679,477,0,0,0,0,0,0,0,0,0,-1,545,547,0,0
-672,477,0,0,0,0,0,0,0,0,0,-1,552,547,0,0
-665,477,0,0,0,0,0,0,0,0,0,-1,559,547,0,0
-658,477,0,0,0,0,0,0,0,0,0,-1,566,547,0,0
-651,477,0,0,0,0,0,0,0,0,0,-1,573,547,0,0
-644,477,0,0,0,0,0,0,0,0,0,-1,580,547,0,0
-637,477,0,0,0,0,0,0,0,0,0,-1,587,547,0,0
-630,477,0,0,0,0,0,0,0,0,0,-1,594,547,0,0
-623,477,0,0,0,0,0,0,0,0,0,-1,601,547,0,0
-616,477,0,0,0,0,0,0,0,0,0,-1,608,547,0,0
-609,477,0,0,0,0,0,0,0,0,0,-1,615,547,0,0
-602,477,0,0,0,0,0,0,0,0,0,-1,622,547,0,0
-595,477,0,0,0,0,0,0,0,0,0,-1,629,547,0,0
-588,477,0,0,0,0,0,0,0,0,0,-1,636,547,0,0
-581,477,0,0,0,0,0,0,0,0,0,-1,643,547,0,0
-574,477,0,0,0,0,0,0,0,0,0,-1,650,547,0,0
-567,477,0,0,0,0,0,0,0,0,0,-1,657,547,0,0
-560,477,0,0,0,0,0,0,0,0,0,-1,664,547,0,0
-553,477,0,0,0,0,0,0,0,0,0,-1,671,547,0,0
-546,477,0,0,0,0,0,0,0,0,0,-1,678,547,0,0
-539,477,0,0,0,0,0,0,0,0,0,-1,685,547,0,0
-532,477,0,0,0,0,0,0,0,0,0,-1,692,547,0,0
-525,477,0,0,0,0,0,0,0,0,0,-1,699,547,0,0
-518,477,0,0,0,0,0,0,0,0,0,-1,706,547,0,0
-511,477,0,0,0,0,0,0,0,0,0,-1,713,547,0,0
-504,477,0,0,0,0,0,0,0,0,0,-1,720,547,0,0
-497,477,0,0,0,0,0,0,0,0,0,-1,727,547,0,0
-490,477,0,0,0,0,0,0,0,0,0,-1,734,547,0,0
-483,477,-7.73151,-0.224182,0,0,0,0,0,0,0,-1,741,547,-7.73152,0.224176
-476,477,-6.25806,-0.310547,0,0,0,0,0,0,0,-1,748,547,-6.25804,0.310549
-469,477,-7.26617,0.525085,0,0,0,0,0,0,0,-1,755,547,-7.2662,-0.525111
-462,477,-6.65143,1.06042,0,0,0,0,0,0,0,-1,762,547,-6.65143,-1.06043
-455,477,-5.31757,0.429016,0,0,0,0,0,0,0,-1,769,547,-5.31756,-0.42902
-448,477,-4.0697,0.273376,0,0,0,0,0,0,0,-1,776,547,-4.06971,-0.273363
-441,477,-2.47504,-4.76971,0,0,0,0,0,0,0,-1,783,547,-2.47505,4.76973
-434,477,-5.48389,-16.866,0,0,0,0,0,0,0,-1,790,547,-5.48391,16.866
-427,477,-5.72046,-17.2283,-0.00123474,0.0137476,-0.00428105,0.0148845,-0.00237173,-1.3112,0.0108008,0.0443805,797,547,-5.72043,17.2283
-420,477,-5.77472,-17.8022,-0.000725602,0.0118322,-0.00442719,0.0132361,-0.00212945,-1.26373,0.00961279,0.0352353,804,547,-5.77472,17.8022
-413,477,-5.77264,-18.857,-0.000257982,0.00995814,-0.00438723,0.0115836,-0.00188343,-1.21598,0.00842071,0.0204612,811,547,-5.77263,18.857
-406,477,-5.88342,-19.7299,0.000126144,0.00819875,-0.00406907,0.00989386,-0.00156897,-1.17608,0.0071763,0.0124524,818,547,-5.88343,19.7299
-399,477,-5.96155,-20.4567,0.000428434,0.00655668,-0.00359896,0.00821922,-0.0012341,-1.13805,0.00593378,0.0207294,825,547,-5.96154,20.4567
-392,477,-5.99335,-21.2083,0.000776139,0.00504844,-0.00311265,0.00668744,-0.00086286,-1.08613,0.00477199,0.0190823,832,547,-5.99338,21.2083
-385,477,-6.00018,-21.9669,0.00118933,0.00360688,-0.0025762,0.0052438,-0.000447582,-1.00475,0.00365421,0.0151552,839,547,-6.00019,21.9668
-378,477,-6.06677,-22.7272,0.00151429,0.00227502,-0.0019601,0.00389131,-0.000102006,-0.881234,0.00262887,0.0140919,846,547,-6.06677,22.7273
-371,477,-6.10059,-23.4344,0.00176451,0.000953237,-0.00134073,0.00275963,-4.18806e-05,-0.638502,0.00185387,0.0144999,853,547,-6.10059,23.4344
-364,477,-6.11206,-24.1395,0.00198474,-0.000393436,-0.000639452,0.00214578,-0.000554469,-0.246701,0.00164676,0.0142272,860,547,-6.11206,24.1395
-357,477,-6.14941,-24.8915,0.00223827,-0.0015719,1.18952e-05,0.0022383,-0.00157194,0.00312192,0.00221103,0.0116269,867,547,-6.14944,24.8915
-350,477,-6.18536,-25.606,0.00258935,-0.00262703,0.000507485,0.00263826,-0.00267594,0.0960863,0.00306818,0.0108737,874,547,-6.18535,25.606
-343,477,-6.14923,-26.3406,0.00285343,-0.00362117,0.00102494,0.00301181,-0.00377954,0.15331,0.00392933,0.0211925,881,547,-6.14921,26.3407
-336,477,-6.12579,-27.0731,0.00311634,-0.00470402,0.00147919,0.00338677,-0.00497445,0.180827,0.00485628,0.0460252,888,547,-6.12577,27.0731
-329,477,-5.96521,-27.7802,0,0,0,0,0,0,0,-1,895,547,-5.96519,27.7801
-322,477,-5.91638,-27.4468,0,0,0,0,0,0,0,-1,902,547,-5.91639,27.4468
-315,477,-1.67358,-9.15253,0,0,0,0,0,0,0,-1,909,547,-1.67356,9.15253
-308,477,-1.30127,-6.55188,0,0,0,0,0,0,0,-1,916,547,-1.30128,6.55185
-301,477,-1.21185,-6.28351,0,0,0,0,0,0,0,-1,923,547,-1.21184,6.28352
-294,477,-0.352905,3.27142,0,0,0,0,0,0,0,-1,930,547,-0.35292,-3.27144
-287,477,3.54364,2.15399,0,0,0,0,0,0,0,-1,937,547,3.54362,-2.15396
-280,477,1.97308,-0.954163,0,0,0,0,0,0,0,-1,944,547,1.9731,0.954178
-273,477,2.11621,-3.76709,0,0,0,0,0,0,0,-1,951,547,2.11619,3.76706
-266,477,2.04669,-3.42389,0,0,0,0,0,0,0,-1,958,547,2.04671,3.42391
-259,477,-1.33478,-3.41205,0,0,0,0,0,0,0,-1,965,547,-1.3348,3.41206
-252,477,0.597168,-5.32922,0,0,0,0,0,0,0,-1,972,547,0.597144,5.32924
-245,477,8.2309,-8.48492,0,0,0,0,0,0,0,-1,979,547,8.23091,8.48494
-238,477,6.60938,-5.64063,0,0,0,0,0,0,0,-1,986,547,6.60938,5.64063
-231,477,4.71716,-2.52484,0,0,0,0,0,0,0,-1,993,547,4.71716,2.52483
-224,477,0,0,0,0,0,0,0,0,0,-1,1000,547,0,0
-217,477,0,0,0,0,0,0,0,0,0,-1,1007,547,0,0
-210,477,0,0,0,0,0,0,0,0,0,-1,1014,547,0,0
-203,477,0,0,0,0,0,0,0,0,0,-1,1021,547,0,0
-196,477,0,0,0,0,0,0,0,0,0,-1,1028,547,0,0
-189,477,0,0,0,0,0,0,0,0,0,-1,1035,547,0,0
-182,477,0,0,0,0,0,0,0,0,0,-1,1042,547,0,0
-175,477,0,0,0,0,0,0,0,0,0,-1,1049,547,0,0
-168,477,0,0,0,0,0,0,0,0,0,-1,1056,547,0,0
-161,477,0,0,0,0,0,0,0,0,0,-1,1063,547,0,0
-154,477,0,0,0,0,0,0,0,0,0,-1,1070,547,0,0
-147,477,0,0,0,0,0,0,0,0,0,-1,1077,547,0,0
-140,477,0,0,0,0,0,0,0,0,0,-1,1084,547,0,0
-133,477,0,0,0,0,0,0,0,0,0,-1,1091,547,0,0
-126,477,0,0,0,0,0,0,0,0,0,-1,1098,547,0,0
-119,477,0,0,0,0,0,0,0,0,0,-1,1105,547,0,0
-112,477,0,0,0,0,0,0,0,0,0,-1,1112,547,0,0
-105,477,0,0,0,0,0,0,0,0,0,-1,1119,547,0,0
-98,477,0,0,0,0,0,0,0,0,0,-1,1126,547,0,0
-91,477,0,0,0,0,0,0,0,0,0,-1,1133,547,0,0
-84,477,0,0,0,0,0,0,0,0,0,-1,1140,547,0,0
-77,477,0,0,0,0,0,0,0,0,0,-1,1147,547,0,0
-70,477,0,0,0,0,0,0,0,0,0,-1,1154,547,0,0
-63,477,0,0,0,0,0,0,0,0,0,-1,1161,547,0,0
-56,477,0,0,0,0,0,0,0,0,0,-1,1168,547,0,0
-49,477,0,0,0,0,0,0,0,0,0,-1,1175,547,0,0
-42,477,0,0,0,0,0,0,0,0,0,-1,1182,547,0,0
-35,477,0,0,0,0,0,0,0,0,0,-1,1189,547,0,0
-28,477,0,0,0,0,0,0,0,0,0,-1,1196,547,0,0
-21,477,0,0,0,0,0,0,0,0,0,-1,1203,547,0,0
-14,477,0,0,0,0,0,0,0,0,0,-1,1210,547,0,0
-7,477,0,0,0,0,0,0,0,0,0,-1,1217,547,0,0
0,477,0,0,0,0,0,0,0,0,0,-1,1224,547,0,0
7,477,0,0,0,0,0,0,0,0,0,-1,1231,547,0,0
14,477,0,0,0,0,0,0,0,0,0,-1,1238,547,0,0
21,477,0,0,0,0,0,0,0,0,0,-1,1245,547,0,0
28,477,0,0,0,0,0,0,0,0,0,-1,1252,547,0,0
35,477,0,0,0,0,0,0,0,0,0,-1,1259,547,0,0
42,477,0,0,0,0,0,0,0,0,0,-1,1266,547,0,0
49,477,0,0,0,0,0,0,0,0,0,-1,1273,547,0,0
56,477,0,0,0,0,0,0,0,0,0,-1,1280,547,0,0
63,477,0,0,0,0,0,0,0,0,0,-1,1287,547,0,0
70,477,0,0,0,0,0,0,0,0,0,-1,1294,547,0,0
77,477,0,0,0,0,0,0,0,0,0,-1,1301,547,0,0
84,477,0,0,0,0,0,0,0,0,0,-1,1308,547,0,0
91,477,0,0,0,0,0,0,0,0,0,-1,1315,547,0,0
98,477,0,0,0,0,0,0,0,0,0,-1,1322,547,0,0
105,477,0,0,0,0,0,0,0,0,0,-1,1329,547,0,0
112,477,0,0,0,0,0,0,0,0,0,-1,1336,547,0,0
119,477,0,0,0,0,0,0,0,0,0,-1,1343,547,0,0
126,477,0,0,0,0,0,0,0,0,0,-1,1350,547,0,0
133,477,0,0,0,0,0,0,0,0,0,-1,1357,547,0,0
140,477,0,0,0,0,0,0,0,0,0,-1,1364,547,0,0
147,477,0,0,0,0,0,0,0,0,0,-1,1371,547,0,0
154,477,0,0,0,0,0,0,0,0,0,-1,1378,547,0,0
161,477,0,0,0,0,0,0,0,0,0,-1,1385,547,0,0
168,477,0,0,0,0,0,0,0,0,0,-1,1392,547,0,0
175,477,0,0,0,0,0,0,0,0,0,-1,1399,547,0,0
182,477,0,0,0,0,0,0,0,0,0,-1,1406,547,0,0
189,477,0,0,0,0,0,0,0,0,0,-1,1413,547,0,0
196,477,0,0,0,0,0,0,0,0,0,-1,1420,547,0,0
203,477,0,0,0,0,0,0,0,0,0,-1,1427,547,0,0
210,477,0,0,0,0,0,0,0,0,0,-1,1434,547,0,0
217,477,0,0,0,0,0,0,0,0,0,-1,1441,547,0,0
224,477,0,0,0,0,0,0,0,0,0,-1,1448,547,0,0
231,477,0,0,0,0,0,0,0,0,0,-1,1455,547,0,0
238,477,0,0,0,0,0,0,0,0,0,-1,1462,547,0,0
245,477,0,0,0,0,0,0,0,0,0,-1,1469,547,0,0
252,477,0,0,0,0,0,0,0,0,0,-1,1476,547,0,0
259,477,0,0,0,0,0,0,0,0,0,-1,1483,547,0,0
266,477,0,0,0,0,0,0,0,0,0,-1,1490,547,0,0
273,477,0,0,0,0,0,0,0,0,0,-1,1497,547,0,0
280,477,0,0,0,0,0,0,0,0,0,-1,1504,547,0,0
287,477,0,0,0,0,0,0,0,0,0,-1,1511,547,0,0
294,477,0,0,0,0,0,0,0,0,0,-1,1518,547,0,0
301,477,0,0,0,0,0,0,0,0,0,-1,1525,547,0,0
308,477,0,0,0,0,0,0,0,0,0,-1,1532,547,0,0
315,477,0,0,0,0,0,0,0,0,0,-1,1539,547,0,0
322,477,0,0,0,0,0,0,0,0,0,-1,1546,547,0,0
329,477,0,0,0,0,0,0,0,0,0,-1,1553,547,0,0
336,477,0,0,0,0,0,0,0,0,0,-1,1560,547,0,0
343,477,0,0,0,0,0,0,0,0,0,-1,1567,547,0,0
350,477,1.7699,-3.32275,0,0,0,0,0,0,0,-1,1574,547,1.7699,3.32272
357,477,3.073,-4.83313,0,0,0,0,0,0,0,-1,1581,547,3.07303,4.83316
364,477,4.30127,-4.22864,0,0,0,0,0,0,0,-1,1588,547,4.30125,4.22865
371,477,4.57703,0.283264,0,0,0,0,0,0,0,-1,1595,547,4.57706,-0.283262
378,477,8.57947,1.05969,0,0,0,0,0,0,0,-1,1602,547,8.5795,-1.05972
385,477,12.3726,2.02356,0,0,0,0,0,0,0,-1,1609,547,12.3725,-2.02355
392,477,16.4678,2.76843,0,0,0,0,0,0,0,-1,1616,547,16.4678,-2.76845
399,477,8.00037,-2.29523,0,0,0,0,0,0,0,-1,1623,547,8.00031,2.2952
406,477,4.82495,2.7475,0,0,0,0,0,0,0,-1,1630,547,4.825,-2.74752
413,477,4.88171,-0.336426,0,0,0,0,0,0,0,-1,1637,547,4.88169,0.336398
420,477,3.34875,0.102722,0,0,0,0,0,0,0,-1,1644,547,3.34871,-0.1027
427,477,1.66772,-0.373108,0,0,0,0,0,0,0,-1,1651,547,1.66768,0.373104
434,477,3.76978,-2.30798,0,0,0,0,0,0,0,-1,1658,547,3.76974,2.30801
441,477,4.05444,-2.80402,0,0,0,0,0,0,0,-1,1665,547,4.05444,2.804
448,477,10.4247,-11.7421,0,0,0,0,0,0,0,-1,1672,547,10.4247,11.7421
455,477,13.3054,-16.8109,0,0,0,0,0,0,0,-1,1679,547,13.3054,16.8109
462,477,19.6869,-26.382,0,0,0,0,0,0,0,-1,1686,547,19.6869,26.3819
469,477,19.6895,-25.5215,0,0,0,0,0,0,0,-1,1693,547,19.6894,25.5215
476,477,19.6204,-24.8121,0.00092789,0.000685875,-0.00117918,0.00199225,-0.000378488,-0.734267,0.00147066,0.0268112,1700,547,19.6203,24.8121
483,477,19.6102,-24.0697,0.00106167,0.000743439,-0.000562943,0.00148755,0.000317557,-0.647667,0.000904622,0.0133673,1707,547,19.6102,24.0697
490,477,19.5645,-23.3299,0.00100367,0.000950471,-0.000108345,0.00108863,0.000865507,-0.665035,0.000663995,0.0128771,1714,547,19.5644,23.3299
497,477,19.5201,-22.5266,0.00101114,0.00133686,0.000516085,0.00171517,0.000632825,0.938236,0.00100153,0.0134684,1721,547,19.5202,22.5266
504,477,19.5077,-21.7838,0.00108214,0.00141741,0.0010702,0.00233302,0.00016653,0.863087,0.00150292,0.0197304,1728,547,19.5077,21.7838
511,477,19.5126,-21.096,0.00108958,0.00159341,0.00159948,0.00296069,-0.000277699,0.863505,0.00207257,0.0254569,1735,547,19.5126,21.096
518,477,19.4518,-20.3453,0.000977126,0.00182864,0.00207548,0.00352158,-0.000715814,0.886563,0.00261914,0.0219229,1742,547,19.4517,20.3453
525,477,19.3724,-19.5291,0.000890434,0.00212594,0.00253458,0.00411697,-0.00110059,0.904932,0.00317573,0.0171235,1749,547,19.3724,19.5291
532,477,19.2889,-18.7689,0.000802745,0.0025316,0.00297959,0.00476963,-0.00143528,0.926581,0.00375086,0.0183124,1756,547,19.2889,18.7689
539,477,19.2941,-17.9306,0.000665586,0.00295041,0.00334292,0.00534073,-0.00172474,0.950047,0.0042536,0.0183119,1763,547,19.294,17.9306
546,477,19.2025,-17.2416,0.000493144,0.00357319,0.00369617,0.00603733,-0.001971,0.982788,0.00481819,0.0425132,1770,547,19.2025,17.2416
553,477,19.235,-16.2869,0,0,0,0,0,0,0,-1,1777,547,19.235,16.2869
560,477,19.0704,-14.8615,0,0,0,0,0,0,0,-1,1784,547,19.0704,14.8615
567,477,13.9529,-8.70972,0,0,0,0,0,0,0,-1,1791,547,13.9529,8.7097
574,477,6.82593,-0.916992,0,0,0,0,0,0,0,-1,1798,547,6.82598,0.916977
581,477,9.29321,-0.557007,0,0,0,0,0,0,0,-1,1805,547,9.29324,0.55703
588,477,9.75195,0.422729,0,0,0,0,0,0,0,-1,1812,547,9.75198,-0.42273
595,477,9.89172,1.21326,0,0,0,0,0,0,0,-1,1819,547,9.89174,-1.21328
602,477,6.5271,-0.964417,0,0,0,0,0,0,0,-1,1826,547,6.52706,0.964427
609,477,0,0,0,0,0,0,0,0,0,-1,1833,547,0,0
616,477,0,0,0,0,0,0,0,0,0,-1,1840,547,0,0
623,477,0,0,0,0,0,0,0,0,0,-1,1847,547,0,0
630,477,0,0,0,0,0,0,0,0,0,-1,1854,547,0,0
637,477,0,0,0,0,0,0,0,0,0,-1,1861,547,0,0
644,477,0,0,0,0,0,0,0,0,0,-1,1868,547,0,0
651,477,0,0,0,0,0,0,0,0,0,-1,1875,547,0,0
658,477,0,0,0,0,0,0,0,0,0,-1,1882,547,0,0
665,477,0,0,0,0,0,0,0,0,0,-1,1889,547,0,0
672,477,0,0,0,0,0,0,0,0,0,-1,1896,547,0,0
679,477,0,0,0,0,0,0,0,0,0,-1,1903,547,0,0
686,477,0,0,0,0,0,0,0,0,0,-1,1910,547,0,0
693,477,0,0,0,0,0,0,0,0,0,-1,1917,547,0,0
700,477,0,0,0,0,0,0,0,0,0,-1,1924,547,0,0
707,477,0,0,0,0,0,0,0,0,0,-1,1931,547,0,0
714,477,0,0,0,0,0,0,0,0,0,-1,1938,547,0,0
721,477,0,0,0,0,0,0,0,0,0,-1,1945,547,0,0
728,477,0,0,0,0,0,0,0,0,0,-1,1952,547,0,0
735,477,0,0,0,0,0,0,0,0,0,-1,1959,547,0,0
742,477,0,0,0,0,0,0,0,0,0,-1,1966,547,0,0
749,477,0,0,0,0,0,0,0,0,0,-1,1973,547,0,0
756,477,0,0,0,0,0,0,0,0,0,-1,1980,547,0,0
763,477,0,0,0,0,0,0,0,0,0,-1,1987,547,0,0
770,477,0,0,0,0,0,0,0,0,0,-1,1994,547,0,0
777,477,0,0,0,0,0,0,0,0,0,-1,2001,547,0,0
784,477,0,0,0,0,0,0,0,0,0,-1,2008,547,0,0
791,477,0,0,0,0,0,0,0,0,0,-1,2015,547,0,0
798,477,0,0,0,0,0,0,0,0,0,-1,2022,547,0,0
805,477,0,0,0,0,0,0,0,0,0,-1,2029,547,0,0
812,477,0,0,0,0,0,0,0,0,0,-1,2036,547,0,0
-700,470,0,0,0,0,0,0,0,0,0,-1,524,554,0,0
-693,470,0,0,0,0,0,0,0,0,0,-1,531,554,0,0
-686,470,0,0,0,0,0,0,0,0,0,-1,538,554,0,0
-679,470,0,0,0,0,0,0,0,0,0,-1,545,554,0,0
-672,470,0,0,0,0,0,0,0,0,0,-1,552,554,0,0
-665,470,0,0,0,0,0,0,0,0,0,-1,559,554,0,0
-658,470,0,0,0,0,0,0,0,0,0,-1,566,554,0,0
-651,470,0,0,0,0,0,0,0,0,0,-1,573,554,0,0
-644,470,0,0,0,0,0,0,0,0,0,-1,580,554,0,0
-637,470,0,0,0,0,0,0,0,0,0,-1,587,554,0,0
-630,470,0,0,0,0,0,0,0,0,0,-1,594,554,0,0
-623,470,0,0,0,0,0,0,0,0,0,-1,601,554,0,0
-616,470,0,0,0,0,0,0,0,0,0,-1,608,554,0,0
-609,470,0,0,0,0,0,0,0,0,0,-1,615,554,0,0
-602,470,0,0,0,0,0,0,0,0,0,-1,622,554,0,0
-595,470,0,0,0,0,0,0,0,0,0,-1,629,554,0,0
-588,470,0,0,0,0,0,0,0,0,0,-1,636,554,0,0
-581,470,0,0,0,0,0,0,0,0,0,-1,643,554,0,0
-574,470,0,0,0,0,0,0,0,0,0,-1,650,554,0,0
-567,470,0,0,0,0,0,0,0,0,0,-1,657,554,0,0
-560,470,0,0,0,0,0,0,0,0,0,-1,664,554,0,0
-553,470,0,0,0,0,0,0,0,0,0,-1,671,554,0,0
-546,470,0,0,0,0,0,0,0,0,0,-1,678,554,0,0
-539,470,0,0,0,0,0,0,0,0,0,-1,685,554,0,0
-532,470,0,0,0,0,0,0,0,0,0,-1,692,554,0,0
-525,470,0,0,0,0,0,0,0,0,0,-1,699,554,0,0
-518,470,0,0,0,0,0,0,0,0,0,-1,706,554,0,0
-511,470,0,0,0,0,0,0,0,0,0,-1,713,554,0,0
-504,470,0,0,0,0,0,0,0,0,0,-1,720,554,0,0
-497,470,0,0,0,0,0,0,0,0,0,-1,727,554,0,0
-490,470,-9.13263,-1.03125,0,0,0,0,0,0,0,-1,734,554,-9.1326,1.03127
-483,470,-7.68677,-1.03955,0,0,0,0,0,0,0,-1,741,554,-7.68678,1.03958
-476,470,-6.17969,-1.03394,0,0,0,0,0,0,0,-1,748,554,-6.17971,1.03395
-469,470,-6.23016,-0.651855,0,0,0,0,0,0,0,-1,755,554,-6.23014,0.651829
-462,470,-4.87915,-1.03705,0,0,0,0,0,0,0,-1,762,554,-4.87914,1.03702
-455,470,-4.14777,-1.37079,0,0,0,0,0,0,0,-1,769,554,-4.14779,1.37078
-448,470,-2.9314,-5.74518,0,0,0,0,0,0,0,-1,776,554,-2.93137,5.74518
-441,470,-5.77087,-14.2335,0,0,0,0,0,0,0,-1,783,554,-5.7709,14.2335
-434,470,-6.48456,-16.5372,0,0,0,0,0,0,0,-1,790,554,-6.48456,16.5372
-427,470,-6.53418,-17.3107,-0.00137591,0.0105647,-0.00306391,0.011305,-0.0021162,-1.33372,0.00833214,0.0248452,797,554,-6.53419,17.3107
-420,470,-6.53046,-18.108,-0.00079542,0.00897857,-0.00315303,0.00990744,-0.00172429,-1.2843,0.00724842,0.016665,804,554,-6.53044,18.1079
-413,470,-6.57996,-18.9086,-0.000314127,0.00743554,-0.00307214,0.00850564,-0.00138423,-1.23562,0.0061837,0.0142542,811,554,-6.57998,18.9086
-406,470,-6.61292,-19.6873,7.11459e-05,0.00592317,-0.00276759,0.0070247,-0.00103038,-1.19201,0.00506167,0.0133499,818,554,-6.61294,19.6873
-399,470,-6.65753,-20.4424,0.000417338,0.0045461,-0.00237633,0.00562951,-0.000666074,-1.14303,0.00399359,0.0169466,825,554,-6.65753,20.4424
-392,470,-6.69171,-21.1781,0.000814892,0.00325852,-0.00198546,0.00436799,-0.000294575,-1.06122,0.00301498,0.0146923,832,554,-6.69171,21.1781
-385,470,-6.74146,-21.9269,0.00128823,0.00203343,-0.00156824,0.00327273,4.8928e-05,-0.90203,0.00216569,0.0111994,839,554,-6.74148,21.9269
-378,470,-6.79211,-22.6852,0.00168854,0.000903073,-0.00108454,0.00244926,0.000142353,-0.611681,0.00158752,0.0165429,846,554,-6.79209,22.6852
-371,470,-6.82391,-23.3979,0.002045,-0.000204048,-0.000600955,0.00219551,-0.000354554,-0.245397,0.00159505,0.0151782,853,554,-6.82394,23.3979
-364,470,-6.83203,-24.0928,0.00240468,-0.00128482,-9.51486e-05,0.00240713,-0.00128727,-0.0257662,0.00216538,0.0151671,860,554,-6.83202,24.0928
-357,470,-6.87628,-24.8323,0.0028188,-0.00228599,0.000317589,0.00283849,-0.00230567,0.0618957,0.00297529,0.0144731,867,554,-6.87626,24.8324
-350,470,-6.88165,-25.5794,0.00331616,-0.00323345,0.000571708,0.00336569,-0.00328298,0.086418,0.00383871,0.0124523,874,554,-6.88167,25.5794
-343,470,-6.77765,-26.2977,0,0,0,0,0,0,0,-1,881,554,-6.77765,26.2977
-336,470,-6.64105,-27.0892,0,0,0,0,0,0,0,-1,888,554,-6.64106,27.0892
-329,470,-2.78516,-12.3594,0,0,0,0,0,0,0,-1,895,554,-2.78517,12.3594
-322,470,-2.30829,-11.4527,0,0,0,0,0,0,0,-1,902,554,-2.30827,11.4527
-315,470,-1.04797,-8.29529,0,0,0,0,0,0,0,-1,909,554,-1.04797,8.29526
-308,470,-1.39368,-6.68152,0,0,0,0,0,0,0,-1,916,554,-1.39369,6.68149
-301,470,-0.0340576,3.34888,0,0,0,0,0,0,0,-1,923,554,-0.0340496,-3.3489
-294,470,-1.18378,3.22266,0,0,0,0,0,0,0,-1,930,554,-1.18376,-3.22268
-287,470,-2.15454,3.2204,0,0,0,0,0,0,0,-1,937,554,-2.15452,-3.22037
-280,470,-3.00537,3.099,0,0,0,0,0,0,0,-1,944,554,-3.00536,-3.09898
-273,470,-12.3932,3.65009,0,0,0,0,0,0,0,-1,951,554,-12.3932,-3.65011
-266,470,-11.5706,1.16028,0,0,0,0,0,0,0,-1,958,554,-11.5706,-1.16031
-259,470,-7.50415,-2.77167,0,0,0,0,0,0,0,-1,965,554,-7.50413,2.7717
-252,470,-0.371155,-5.87823,0,0,0,0,0,0,0,-1,972,554,-0.37114,5.87821
-245,470,1.33221,-6.81122,0,0,0,0,0,0,0,-1,979,554,1.33223,6.8112
-238,470,0,0,0,0,0,0,0,0,0,-1,986,554,0,0
-231,470,0,0,0,0,0,0,0,0,0,-1,993,554,0,0
-224,470,0,0,0,0,0,0,0,0,0,-1,1000,554,0,0
-217,470,0,0,0,0,0,0,0,0,0,-1,1007,554,0,0
-210,470,0,0,0,0,0,0,0,0,0,-1,1014,554,0,0
-203,470,0,0,0,0,0,0,0,0,0,-1,1021,554,0,0
-196,470,0,0,0,0,0,0,0,0,0,-1,1028,554,0,0
-189,470,0,0,0,0,0,0,0,0,0,-1,1035,554,0,0
-182,470,0,0,0,0,0,0,0,0,0,-1,1042,554,0,0
-175,470,0,0,0,0,0,0,0,0,0,-1,1049,554,0,0
-168,470,0,0,0,0,0,0,0,0,0,-1,1056,554,0,0
-161,470,0,0,0,0,0,0,0,0,0,-1,1063,554,0,0
-154,470,0,0,0,0,0,0,0,0,0,-1,1070,554,0,0
-147,470,0,0,0,0,0,0,0,0,0,-1,1077,554,0,0
-140,470,0,0,0,0,0,0,0,0,0,-1,1084,554,0,0
-133,470,0,0,0,0,0,0,0,0,0,-1,1091,554,0,0
-126,470,0,0,0,0,0,0,0,0,0,-1,1098,554,0,0
-119,470,0,0,0,0,0,0,0,0,0,-1,1105,554,0,0
-112,470,0,0,0,0,0,0,0,0,0,-1,1112,554,0,0
-105,470,0,0,0,0,0,0,0,0,0,-1,1119,554,0,0
-98,470,0,0,0,0,0,0,0,0,0,-1,1126,554,0,0
-91,470,0,0,0,0,0,0,0,0,0,-1,1133,554,0,0
-84,470,0,0,0,0,0,0,0,0,0,-1,1140,554,0,0
-77,470,0,0,0,0,0,0,0,0,0,-1,1147,554,0,0
-70,470,0,0,0,0,0,0,0,0,0,-1,1154,554,0,0
-63,470,0,0,0,0,0,0,0,0,0,-1,1161,554,0,0
-56,470,0,0,0,0,0,0,0,0,0,-1,1168,554,0,0
-49,470,0,0,0,0,0,0,0,0,0,-1,1175,554,0,0
-42,470,0,0,0,0,0,0,0,0,0,-1,1182,554,0,0
-35,470,0,0,0,0,0,0,0,0,0,-1,1189,554,0,0
-28,470,0,0,0,0,0,0,0,0,0,-1,1196,554,0,0
-21,470,0,0,0,0,0,0,0,0,0,-1,1203,554,0,0
-14,470,0,0,0,0,0,0,0,0,0,-1,1210,554,0,0
-7,470,0,0,0,0,0,0,0,0,0,-1,1217,554,0,0
0,470,0,0,0,0,0,0,0,0,0,-1,1224,554,0,0
7,470,0,0,0,0,0,0,0,0,0,-1,1231,554,0,0
14,470,0,0,0,0,0,0,0,0,0,-1,1238,554,0,0
21,470,0,0,0,0,0,0,0,0,0,-1,1245,554,0,0
28,470,0,0,0,0,0,0,0,0,0,-1,1252,554,0,0
35,470,0,0,0,0,0,0,0,0,0,-1,1259,554,0,0
42,470,0,0,0,0,0,0,0,0,0,-1,1266,554,0,0
49,470,0,0,0,0,0,0,0,0,0,-1,1273,554,0,0
56,470,0,0,0,0,0,0,0,0,0,-1,1280,554,0,0
63,470,0,0,0,0,0,0,0,0,0,-1,1287,554,0,0
70,470,0,0,0,0,0,0,0,0,0,-1,1294,554,0,0
77,470,0,0,0,0,0,0,0,0,0,-1,1301,554,0,0
84,470,0,0,0,0,0,0,0,0,0,-1,1308,554,0,0
91,470,0,0,0,0,0,0,0,0,0,-1,1315,554,0,0
98,470,0,0,0,0,0,0,0,0,0,-1,1322,554,0,0
105,470,0,0,0,0,0,0,0,0,0,-1,1329,554,0,0
112,470,0,0,0,0,0,0,0,0,0,-1,1336,554,0,0
119,470,0,0,0,0,0,0,0,0,0,-1,1343,554,0,0
126,470,0,0,0,0,0,0,0,0,0,-1,1350,554,0,0
133,470,0,0,0,0,0,0,0,0,0,-1,1357,554,0,0
140,470,0,0,0,0,0,0,0,0,0,-1,1364,554,0,0
147,470,0,0,0,0,0,0,0,0,0,-1,1371,554,0,0
154,470,0,0,0,0,0,0,0,0,0,-1,1378,554,0,0
161,470,0,0,0,0,0,0,0,0,0,-1,1385,554,0,0
168,470,0,0,0,0,0,0,0,0,0,-1,1392,554,0,0
175,470,0,0,0,0,0,0,0,0,0,-1,1399,554,0,0
182,470,0,0,0,0,0,0,0,0,0,-1,1406,554,0,0
189,470,0,0,0,0,0,0,0,0,0,-1,1413,554,0,0
196,470,0,0,0,0,0,0,0,0,0,-1,1420,554,0,0
203,470,0,0,0,0,0,0,0,0,0,-1,1427,554,0,0
210,470,0,0,0,0,0,0,0,0,0,-1,1434,554,0,0
217,470,0,0,0,0,0,0,0,0,0,-1,1441,554,0,0
224,470,0,0,0,0,0,0,0,0,0,-1,1448,554,0,0
231,470,0,0,0,0,0,0,0,0,0,-1,1455,554,0,0
238,470,0,0,0,0,0,0,0,0,0,-1,1462,554,0,0
245,470,0,0,0,0,0,0,0,0,0,-1,1469,554,0,0
252,470,0,0,0,0,0,0,0,0,0,-1,1476,554,0,0
259,470,0,0,0,0,0,0,0,0,0,-1,1483,554,0,0
266,470,0,0,0,0,0,0,0,0,0,-1,1490,554,0,0
273,470,0,0,0,0,0,0,0,0,0,-1,1497,554,0,0
280,470,0,0,0,0,0,0,0,0,0,-1,1504,554,0,0
287,470,0,0,0,0,0,0,0,0,0,-1,1511,554,0,0
294,470,0,0,0,0,0,0,0,0,0,-1,1518,554,0,0
301,470,0,0,0,0,0,0,0,0,0,-1,1525,554,0,0
308,470,0,0,0,0,0,0,0,0,0,-1,1532,554,0,0
315,470,0,0,0,0,0,0,0,0,0,-1,1539,554,0,0
322,470,0,0,0,0,0,0,0,0,0,-1,1546,554,0,0
329,470,0,0,0,0,0,0,0,0,0,-1,1553,554,0,0
336,470,0,0,0,0,0,0,0,0,0,-1,1560,554,0,0
343,470,0,0,0,0,0,0,0,0,0,-1,1567,554,0,0
350,470,0,0,0,0,0,0,0,0,0,-1,1574,554,0,0
357,470,0,0,0,0,0,0,0,0,0,-1,1581,554,0,0
364,470,1.33423,0.293335,0,0,0,0,0,0,0,-1,1588,554,1.33422,-0.293348
371,470,2.22498,-0.0305176,0,0,0,0,0,0,0,-1,1595,554,2.22494,0.0305046
378,470,6.27051,0.710083,0,0,0,0,0,0,0,-1,1602,554,6.27054,-0.710093
385,470,10.3657,1.47296,0,0,0,0,0,0,0,-1,1609,554,10.3657,-1.47299
392,470,15.3881,3.01935,0,0,0,0,0,0,0,-1,1616,554,15.388,-3.01937
399,470,18.4479,2.93793,0,0,0,0,0,0,0,-1,1623,554,18.4479,-2.93792
406,470,15.1896,1.36676,0,0,0,0,0,0,0,-1,1630,554,15.1896,-1.36679
413,470,6.55383,1.99207,0,0,0,0,0,0,0,-1,1637,554,6.5538,-1.99208
420,470,4.47095,0.845703,0,0,0,0,0,0,0,-1,1644,554,4.47098,-0.845718
427,470,3.51038,1.19684,0,0,0,0,0,0,0,-1,1651,554,3.51039,-1.19684
434,470,3.31775,-1.37427,0,0,0,0,0,0,0,-1,1658,554,3.31781,1.37426
441,470,2.55457,-2.05902,0,0,0,0,0,0,0,-1,1665,554,2.55461,2.05904
448,470,3.27258,-2.64032,0,0,0,0,0,0,0,-1,1672,554,3.27257,2.64029
455,470,10.3658,-9.82233,0,0,0,0,0,0,0,-1,1679,554,10.3659,9.82233
462,470,11.0651,-11.9958,0,0,0,0,0,0,0,-1,1686,554,11.0651,11.9958
469,470,15.4242,-19.0521,0,0,0,0,0,0,0,-1,1693,554,15.4242,19.0521
476,470,20.3805,-24.8476,0,0,0,0,0,0,0,-1,1700,554,20.3804,24.8476
483,470,20.3726,-24.0223,0.00131422,0.00073481,-0.000738558,0.00181786,0.00023117,-0.598491,0.00114267,0.0190346,1707,554,20.3726,24.0223
490,470,20.3137,-23.2844,0.00126135,0.000866984,-0.000342743,0.00145958,0.000668751,-0.524365,0.000843672,0.0127486,1714,554,20.3137,23.2844
497,470,20.2878,-22.5097,0.0012316,0.00123586,0.000247517,0.00148125,0.000986201,0.789698,0.000870731,0.0134089,1721,554,20.2879,22.5097
504,470,20.2931,-21.7849,0.00122808,0.00122448,0.000703127,0.00192941,0.000523152,0.784119,0.00115218,0.0204932,1728,554,20.2931,21.7848
511,470,20.2598,-21.0504,0.00116391,0.00131009,0.0011245,0.00236387,0.000110128,0.817851,0.00154051,0.0280341,1735,554,20.2597,21.0503
518,470,20.224,-20.294,0.000992428,0.00144292,0.00149931,0.00273381,-0.000298459,0.859957,0.00192973,0.0267967,1742,554,20.2241,20.294
525,470,20.1805,-19.4737,0.000822145,0.00166334,0.00184534,0.00313541,-0.000649919,0.897447,0.00233723,0.0159494,1749,554,20.1805,19.4737
532,470,20.0939,-18.6564,0.000646264,0.00198358,0.00217724,0.00359252,-0.00096268,0.934383,0.0027722,0.0145586,1756,554,20.0938,18.6564
539,470,20.0277,-17.9064,0.000440261,0.00233648,0.00244209,0.00400805,-0.00123131,0.97056,0.00316339,0.0184264,1763,554,20.0277,17.9064
546,470,19.9974,-17.1544,0.000224792,0.00288659,0.00268976,0.0045567,-0.00144532,1.01514,0.00361714,0.015577,1770,554,19.9974,17.1544
553,470,20.0332,-16.3287,6.87775e-05,0.00356532,0.00296407,0.0052583,-0.0016242,1.05185,0.00415415,0.0260048,1777,554,20.0332,16.3287
560,470,20.0004,-15.4392,2.21717e-05,0.00442442,0.00327642,0.00617043,-0.00172384,1.08117,0.00479271,0.0495551,1784,554,20.0003,15.4392
567,470,19.7814,-14.3807,0,0,0,0,0,0,0,-1,1791,554,19.7813,14.3807
574,470,14.2793,-8.07147,0,0,0,0,0,0,0,-1,1798,554,14.2793,8.07147
581,470,8.24646,-4.06317,0,0,0,0,0,0,0,-1,1805,554,8.24648,4.06318
588,470,11.1803,1.74927,0,0,0,0,0,0,0,-1,1812,554,11.1803,-1.74926
595,470,4.72192,3.44116,0,0,0,0,0,0,0,-1,1819,554,4.72191,-3.44116
602,470,14.4307,2.76141,0,0,0,0,0,0,0,-1,1826,554,14.4306,-2.76139
609,470,20.9181,4.41058,0,0,0,0,0,0,0,-1,1833,554,20.9181,-4.4106
616,470,0,0,0,0,0,0,0,0,0,-1,1840,554,0,0
623,470,0,0,0,0,0,0,0,0,0,-1,1847,554,0,0
630,470,0,0,0,0,0,0,0,0,0,-1,1854,554,0,0
637,470,0,0,0,0,0,0,0,0,0,-1,1861,554,0,0
644,470,0,0,0,0,0,0,0,0,0,-1,1868,554,0,0
651,470,0,0,0,0,0,0,0,0,0,-1,1875,554,0,0
658,470,0,0,0,0,0,0,0,0,0,-1,1882,554,0,0
665,470,0,0,0,0,0,0,0,0,0,-1,1889,554,0,0
672,470,0,0,0,0,0,0,0,0,0,-1,1896,554,0,0
679,470,0,0,0,0,0,0,0,0,0,-1,1903,554,0,0
686,470,0,0,0,0,0,0,0,0,0,-1,1910,554,0,0
693,470,0,0,0,0,0,0,0,0,0,-1,1917,554,0,0
700,470,0,0,0,0,0,0,0,0,0,-1,1924,554,0,0
707,470,0,0,0,0,0,0,0,0,0,-1,1931,554,0,0
714,470,0,0,0,0,0,0,0,0,0,-1,1938,554,0,0
721,470,0,0,0,0,0,0,0,0,0,-1,1945,554,0,0
728,470,0,0,0,0,0,0,0,0,0,-1,1952,554,0,0
735,470,0,0,0,0,0,0,0,0,0,-1,1959,554,0,0
742,470,0,0,0,0,0,0,0,0,0,-1,1966,554,0,0
749,470,0,0,0,0,0,0,0,0,0,-1,1973,554,0,0
756,470,0,0,0,0,0,0,0,0,0,-1,1980,554,0,0
763,470,0,0,0,0,0,0,0,0,0,-1,1987,554,0,0
770,470,0,0,0,0,0,0,0,0,0,-1,1994,554,0,0
777,470,0,0,0,0,0,0,0,0,0,-1,2001,554,0,0
784,470,0,0,0,0,0,0,0,0,0,-1,2008,554,0,0
791,470,0,0,0,0,0,0,0,0,0,-1,2015,554,0,0
798,470,0,0,0,0,0,0,0,0,0,-1,2022,554,0,0
805,470,0,0,0,0,0,0,0,0,0,-1,2029,554,0,0
812,470,0,0,0,0,0,0,0,0,0,-1,2036,554,0,0
-700,463,0,0,0,0,0,0,0,0,0,-1,524,561,0,0
-693,463,0,0,0,0,0,0,0,0,0,-1,531,561,0,0
-686,463,0,0,0,0,0,0,0,0,0,-1,538,561,0,0
-679,463,0,0,0,0,0,0,0,0,0,-1,545,561,0,0
-672,463,0,0,0,0,0,0,0,0,0,-1,552,561,0,0
-665,463,0,0,0,0,0,0,0,0,0,-1,559,561,0,0
-658,463,0,0,0,0,0,0,0,0,0,-1,566,561,0,0
-651,463,0,0,0,0,0,0,0,0,0,-1,573,561,0,0
-644,463,0,0,0,0,0,0,0,0,0,-1,580,561,0,0
-637,463,0,0,0,0,0,0,0,0,0,-1,587,561,0,0
-630,463,0,0,0,0,0,0,0,0,0,-1,594,561,0,0
-623,463,0,0,0,0,0,0,0,0,0,-1,601,561,0,0
-616,463,0,0,0,0,0,0,0,0,0,-1,608,561,0,0
-609,463,0,0,0,0,0,0,0,0,0,-1,615,561,0,0
-602,463,0,0,0,0,0,0,0,0,0,-1,622,561,0,0
-595,463,0,0,0,0,0,0,0,0,0,-1,629,561,0,0
-588,463,0,0,0,0,0,0,0,0,0,-1,636,561,0,0
-581,463,0,0,0,0,0,0,0,0,0,-1,643,561,0,0
-574,463,0,0,0,0,0,0,0,0,0,-1,650,561,0,0
-567,463,0,0,0,0,0,0,0,0,0,-1,657,561,0,0
-560,463,0,0,0,0,0,0,0,0,0,-1,664,561,0,0
-553,463,0,0,0,0,0,0,0,0,0,-1,671,561,0,0
-546,463,0,0,0,0,0,0,0,0,0,-1,678,561,0,0
-539,463,0,0,0,0,0,0,0,0,0,-1,685,561,0,0
-532,463,0,0,0,0,0,0,0,0,0,-1,692,561,0,0
-525,463,0,0,0,0,0,0,0,0,0,-1,699,561,0,0
-518,463,0,0,0,0,0,0,0,0,0,-1,706,561,0,0
-511,463,0,0,0,0,0,0,0,0,0,-1,713,561,0,0
-504,463,0,0,0,0,0,0,0,0,0,-1,720,561,0,0
-497,463,-9.81451,-1.67126,0,0,0,0,0,0,0,-1,727,561,-9.81452,1.67127
-490,463,-8.57043,-1.58942,0,0,0,0,0,0,0,-1,734,561,-8.57045,1.58944
-483,463,-7.29224,-1.7226,0,0,0,0,0,0,0,-1,741,561,-7.29226,1.72261
-476,463,-5.77704,-1.7312,0,0,0,0,0,0,0,-1,748,561,-5.77703,1.73121
-469,463,-5.14545,-2.138,0,0,0,0,0,0,0,-1,755,561,-5.14546,2.13799
-462,463,-3.13672,-3.07977,0,0,0,0,0,0,0,-1,762,561,-3.13672,3.07974
-455,463,-2.91406,-5.61798,0,0,0,0,0,0,0,-1,769,561,-2.91406,5.61801
-448,463,-4.00177,-8.54681,0,0,0,0,0,0,0,-1,776,561,-4.00175,8.54683
-441,463,-7.32251,-15.5619,0,0,0,0,0,0,0,-1,783,561,-7.3225,15.5619
-434,463,-7.21014,-16.5601,-0.0018915,0.00929594,-0.00199934,0.00964251,-0.00223807,-1.39916,0.00728979,0.032706,790,561,-7.21014,16.5601
-427,463,-7.24274,-17.3403,-0.00124351,0.0079602,-0.00215009,0.00843771,-0.00172102,-1.35225,0.00627795,0.0115807,797,561,-7.24272,17.3403
-420,463,-7.27185,-18.1017,-0.000691461,0.00668217,-0.00222735,0.00730275,-0.00131204,-1.29907,0.00535965,0.0101879,804,561,-7.27182,18.1017
-413,463,-7.31732,-18.8779,-0.000230025,0.00540917,-0.00214571,0.00613276,-0.000953618,-1.24554,0.00444065,0.0104237,811,561,-7.31733,18.878
-406,463,-7.35663,-19.6419,0.000147183,0.00412567,-0.00187453,0.00486973,-0.000596881,-1.19294,0.00346264,0.0112369,818,561,-7.35665,19.6419
-399,463,-7.38556,-20.3939,0.000532345,0.00298785,-0.00156443,0.00374877,-0.000228578,-1.1181,0.00257875,0.0120155,825,561,-7.38557,20.3939
-392,463,-7.43347,-21.1382,0.00098285,0.00191472,-0.00126587,0.00279768,9.9894e-05,-0.961742,0.00183273,0.010788,832,561,-7.43345,21.1383
-385,463,-7.48187,-21.9048,0.00152394,0.000917741,-0.000964793,0.00223212,0.000209557,-0.6332,0.00142338,0.0112573,839,561,-7.48188,21.9048
-378,463,-7.5271,-22.6384,0.0020309,1.17004e-05,-0.000614336,0.00220312,-0.000160521,-0.273321,0.00152507,0.0132475,846,561,-7.52708,22.6383
-371,463,-7.56158,-23.3775,0.00255061,-0.000831585,-0.000262617,0.00257088,-0.000851855,-0.0770316,0.00205752,0.0131891,853,561,-7.56158,23.3775
-364,463,-7.56335,-24.0624,0.00312451,-0.00155551,4.37294e-05,0.00312492,-0.00155592,0.00934276,0.00275262,0.0144579,860,561,-7.56334,24.0624
-357,463,-7.60046,-24.7582,0.00377986,-0.00229474,0.00021102,0.00378718,-0.00230206,0.0346824,0.00355031,0.0206331,867,561,-7.60047,24.7582
-350,463,-7.5321,-25.5594,0.00450156,-0.00309328,0.000232672,0.00450868,-0.0031004,0.0305973,0.00441812,0.045407,874,561,-7.5321,25.5594
-343,463,-7.20428,-26.3533,0,0,0,0,0,0,0,-1,881,561,-7.2043,26.3533
-336,463,-2.94928,-12.2127,0,0,0,0,0,0,0,-1,888,561,-2.94925,12.2127
-329,463,-2.64307,-12.7037,0,0,0,0,0,0,0,-1,895,561,-2.64307,12.7038
-322,463,-1.82898,-9.11957,0,0,0,0,0,0,0,-1,902,561,-1.829,9.11957
-315,463,-0.944763,-5.96234,0,0,0,0,0,0,0,-1,909,561,-0.94479,5.96237
-308,463,-1.1535,-3.17889,0,0,0,0,0,0,0,-1,916,561,-1.15352,3.17889
-301,463,-1.50366,-3.15338,0,0,0,0,0,0,0,-1,923,561,-1.50364,3.15341
-294,463,-2.35889,-3.93463,0,0,0,0,0,0,0,-1,930,561,-2.35886,3.93465
-287,463,-2.80322,2.73999,0,0,0,0,0,0,0,-1,937,561,-2.80322,-2.74
-280,463,-12.864,5.25146,0,0,0,0,0,0,0,-1,944,561,-12.864,-5.25149
-273,463,-12.4598,3.39178,0,0,0,0,0,0,0,-1,951,561,-12.4598,-3.3918
-266,463,-8.78101,-3.7356,0,0,0,0,0,0,0,-1,958,561,-8.78098,3.73562
-259,463,-6.23285,-5.68842,0,0,0,0,0,0,0,-1,965,561,-6.23288,5.68843
-252,463,0,0,0,0,0,0,0,0,0,-1,972,561,0,0
-245,463,0,0,0,0,0,0,0,0,0,-1,979,561,0,0
-238,463,0,0,0,0,0,0,0,0,0,-1,986,561,0,0
-231,463,0,0,0,0,0,0,0,0,0,-1,993,561,0,0
-224,463,0,0,0,0,0,0,0,0,0,-1,1000,561,0,0
-217,463,0,0,0,0,0,0,0,0,0,-1,1007,561,0,0
-210,463,0,0,0,0,0,0,0,0,0,-1,1014,561,0,0
-203,463,0,0,0,0,0,0,0,0,0,-1,1021,561,0,0
-196,463,0,0,0,0,0,0,0,0,0,-1,1028,561,0,0
-189,463,0,0,0,0,0,0,0,0,0,-1,1035,561,0,0
-182,463,0,0,0,0,0,0,0,0,0,-1,1042,561,0,0
-175,463,0,0,0,0,0,0,0,0,0,-1,1049,561,0,0
-168,463,0,0,0,0,0,0,0,0,0,-1,1056,561,0,0
-161,463,0,0,0,0,0,0,0,0,0,-1,1063,561,0,0
-154,463,0,0,0,0,0,0,0,0,0,-1,1070,561,0,0
-147,463,0,0,0,0,0,0,0,0,0,-1,1077,561,0,0
-140,463,0,0,0,0,0,0,0,0,0,-1,1084,561,0,0
-133,463,0,0,0,0,0,0,0,0,0,-1,1091,561,0,0
-126,463,0,0,0,0,0,0,0,0,0,-1,1098,561,0,0
-119,463,0,0,0,0,0,0,0,0,0,-1,1105,561,0,0
-112,463,0,0,0,0,0,0,0,0,0,-1,1112,561,0,0
-105,463,0,0,0,0,0,0,0,0,0,-1,1119,561,0,0
-98,463,0,0,0,0,0,0,0,0,0,-1,1126,561,0,0
-91,463,0,0,0,0,0,0,0,0,0,-1,1133,561,0,0
-84,463,0,0,0,0,0,0,0,0,0,-1,1140,561,0,0
-77,463,0,0,0,0,0,0,0,0,0,-1,1147,561,0,0
-70,463,0,0,0,0,0,0,0,0,0,-1,1154,561,0,0
-63,463,0,0,0,0,0,0,0,0,0,-1,1161,561,0,0
-56,463,0,0,0,0,0,0,0,0,0,-1,1168,561,0,0
-49,463,0,0,0,0,0,0,0,0,0,-1,1175,561,0,0
-42,463,0,0,0,0,0,0,0,0,0,-1,1182,561,0,0
-35,463,0,0,0,0,0,0,0,0,0,-1,1189,561,0,0
-28,463,0,0,0,0,0,0,0,0,0,-1,1196,561,0,0
-21,463,0,0,0,0,0,0,0,0,0,-1,1203,561,0,0
-14,463,0,0,0,0,0,0,0,0,0,-1,1210,561,0,0
-7,463,0,0,0,0,0,0,0,0,0,-1,1217,561,0,0
0,463,0,0,0,0,0,0,0,0,0,-1,1224,561,0,0
7,463,0,0,0,0,0,0,0,0,0,-1,1231,561,0,0
14,463,0,0,0,0,0,0,0,0,0,-1,1238,561,0,0
21,463,0,0,0,0,0,0,0,0,0,-1,1245,561,0,0
28,463,0,0,0,0,0,0,0,0,0,-1,1252,561,0,0
35,463,0,0,0,0,0,0,0,0,0,-1,1259,561,0,0
42,463,0,0,0,0,0,0,0,0,0,-1,1266,561,0,0
49,463,0,0,0,0,0,0,0,0,0,-1,1273,561,0,0
56,463,0,0,0,0,0,0,0,0,0,-1,1280,561,0,0
63,463,0,0,0,0,0,0,0,0,0,-1,1287,561,0,0
70,463,0,0,0,0,0,0,0,0,0,-1,1294,561,0,0
77,463,0,0,0,0,0,0,0,0,0,-1,1301,561,0,0
84,463,0,0,0,0,0,0,0,0,0,-1,1308,561,0,0
91,463,0,0,0,0,0,0,0,0,0,-1,1315,561,0,0
98,463,0,0,0,0,0,0,0,0,0,-1,1322,561,0,0
105,463,0,0,0,0,0,0,0,0,0,-1,1329,561,0,0
112,463,0,0,0,0,0,0,0,0,0,-1,1336,561,0,0
119,463,0,0,0,0,0,0,0,0,0,-1,1343,561,0,0
126,463,0,0,0,0,0,0,0,0,0,-1,1350,561,0,0
133,463,0,0,0,0,0,0,0,0,0,-1,1357,561,0,0
140,463,0,0,0,0,0,0,0,0,0,-1,1364,561,0,0
147,463,0,0,0,0,0,0,0,0,0,-1,1371,561,0,0
154,463,0,0,0,0,0,0,0,0,0,-1,1378,561,0,0
161,463,0,0,0,0,0,0,0,0,0,-1,1385,561,0,0
168,463,0,0,0,0,0,0,0,0,0,-1,1392,561,0,0
175,463,0,0,0,0,0,0,0,0,0,-1,1399,561,0,0
182,463,0,0,0,0,0,0,0,0,0,-1,1406,561,0,0
189,463,0,0,0,0,0,0,0,0,0,-1,1413,561,0,0
196,463,0,0,0,0,0,0,0,0,0,-1,1420,561,0,0
203,463,0,0,0,0,0,0,0,0,0,-1,1427,561,0,0
210,463,0,0,0,0,0,0,0,0,0,-1,1434,561,0,0
217,463,0,0,0,0,0,0,0,0,0,-1,1441,561,0,0
224,463,0,0,0,0,0,0,0,0,0,-1,1448,561,0,0
231,463,0,0,0,0,0,0,0,0,0,-1,1455,561,0,0
238,463,0,0,0,0,0,0,0,0,0,-1,1462,561,0,0
245,463,0,0,0,0,0,0,0,0,0,-1,1469,561,0,0
252,463,0,0,0,0,0,0,0,0,0,-1,1476,561,0,0
259,463,0,0,0,0,0,0,0,0,0,-1,1483,561,0,0
266,463,0,0,0,0,0,0,0,0,0,-1,1490,561,0,0
273,463,0,0,0,0,0,0,0,0,0,-1,1497,561,0,0
280,463,0,0,0,0,0,0,0,0,0,-1,1504,561,0,0
287,463,0,0,0,0,0,0,0,0,0,-1,1511,561,0,0
294,463,0,0,0,0,0,0,0,0,0,-1,1518,561,0,0
301,463,0,0,0,0,0,0,0,0,0,-1,1525,561,0,0
308,463,0,0,0,0,0,0,0,0,0,-1,1532,561,0,0
315,463,0,0,0,0,0,0,0,0,0,-1,1539,561,0,0
322,463,0,0,0,0,0,0,0,0,0,-1,1546,561,0,0
329,463,0,0,0,0,0,0,0,0,0,-1,1553,561,0,0
336,463,0,0,0,0,0,0,0,0,0,-1,1560,561,0,0
343,463,0,0,0,0,0,0,0,0,0,-1,1567,561,0,0
350,463,0,0,0,0,0,0,0,0,0,-1,1574,561,0,0
357,463,0,0,0,0,0,0,0,0,0,-1,1581,561,0,0
364,463,0,0,0,0,0,0,0,0,0,-1,1588,561,0,0
371,463,1.75842,0.152588,0,0,0,0,0,0,0,-1,1595,561,1.75844,-0.152558
378,463,4.58813,-0.0444336,0,0,0,0,0,0,0,-1,1602,561,4.58809,0.0444505
385,463,8.88574,1.65057,0,0,0,0,0,0,0,-1,1609,561,8.88575,-1.65055
392,463,14.0912,2.50513,0,0,0,0,0,0,0,-1,1616,561,14.0912,-2.5051
399,463,21.4769,2.7002,0,0,0,0,0,0,0,-1,1623,561,21.477,-2.70017
406,463,26.2987,4.32318,0,0,0,0,0,0,0,-1,1630,561,26.2987,-4.3232
413,463,26.5011,2.65222,0,0,0,0,0,0,0,-1,1637,561,26.5011,-2.65224
420,463,8.849,2.26611,0,0,0,0,0,0,0,-1,1644,561,8.84899,-2.26613
427,463,5.12207,1.69183,0,0,0,0,0,0,0,-1,1651,561,5.12206,-1.69184
434,463,4.59814,1.81995,0,0,0,0,0,0,0,-1,1658,561,4.59812,-1.81994
441,463,1.76392,-5.99225,0,0,0,0,0,0,0,-1,1665,561,1.7639,5.99225
448,463,2.49939,-4.30536,0,0,0,0,0,0,0,-1,1672,561,2.49941,4.30536
455,463,4.40295,-3.02557,0,0,0,0,0,0,0,-1,1679,561,4.40299,3.02558
462,463,5.38293,-4.06445,0,0,0,0,0,0,0,-1,1686,561,5.38289,4.06444
469,463,5.94373,-4.50647,0,0,0,0,0,0,0,-1,1693,561,5.94368,4.50646
476,463,15.2559,-17.3189,0,0,0,0,0,0,0,-1,1700,561,15.2558,17.3189
483,463,21.1151,-24.0631,0,0,0,0,0,0,0,-1,1707,561,21.1151,24.0631
490,463,21.1134,-23.3033,0.00229464,0.000828603,-2.13732e-05,0.00229495,0.000828292,-0.0145748,0.00134197,0.0305524,1714,561,21.1134,23.3033
497,463,21.0328,-22.4647,0.00214842,0.00125699,0.000492702,0.0023671,0.00103831,0.417712,0.00137007,0.0152886,1721,561,21.0328,22.4647
504,463,21.0104,-21.718,0.00192179,0.00119713,0.000762775,0.00240392,0.000715001,0.563666,0.00142537,0.0161712,1728,561,21.0104,21.718
511,463,20.9833,-20.9486,0.00162093,0.00120085,0.00097636,0.00240959,0.000412192,0.679448,0.00148815,0.0227993,1735,561,20.9833,20.9486
518,463,20.9705,-20.1787,0.00123845,0.00122902,0.00116829,0.00240203,6.54357e-05,0.783379,0.00157999,0.0246493,1742,561,20.9705,20.1787
525,463,20.9465,-19.4394,0.000839008,0.00137098,0.00133001,0.00246134,-0.000251357,0.884089,0.00173077,0.0195115,1749,561,20.9465,19.4394
532,463,20.9292,-18.6474,0.000465157,0.00160404,0.00149519,0.00263456,-0.000565355,0.967343,0.00197202,0.0178036,1756,561,20.9292,18.6474
539,463,20.8285,-17.8568,0.000113632,0.00188744,0.00163626,0.00286171,-0.000860634,1.03375,0.00225023,0.0199141,1763,561,20.8285,17.8568
546,463,20.7734,-17.1272,-0.000195591,0.002353,0.00178336,0.00327055,-0.00111314,1.09561,0.00263111,0.0154873,1770,561,20.7735,17.1272
553,463,20.7836,-16.3108,-0.000426982,0.00293417,0.00197375,0.00384589,-0.0013387,1.13807,0.0031078,0.0117058,1777,561,20.7836,16.3108
560,463,20.8009,-15.3752,-0.000522112,0.00367038,0.00224724,0.0046473,-0.00149903,1.16072,0.00370051,0.0235691,1784,561,20.8009,15.3752
567,463,20.6199,-14.6052,-0.000537081,0.00459357,0.0025678,0.00565791,-0.00160142,1.17786,0.0044039,0.0375474,1791,561,20.6199,14.6052
574,463,20.7046,-13.8151,0,0,0,0,0,0,0,-1,1798,561,20.7045,13.8151
581,463,9.4939,-3.88245,0,0,0,0,0,0,0,-1,1805,561,9.49392,3.88245
588,463,1.97424,2.16016,0,0,0,0,0,0,0,-1,1812,561,1.97422,-2.16013
595,463,9.98657,2.99854,0,0,0,0,0,0,0,-1,1819,561,9.98662,-2.99856
602,463,17.2202,4.91302,0,0,0,0,0,0,0,-1,1826,561,17.2202,-4.91305
609,463,17.96,4.03131,0,0,0,0,0,0,0,-1,1833,561,17.96,-4.03132
616,463,20.8352,3.15131,0,0,0,0,0,0,0,-1,1840,561,20.8352,-3.1513
623,463,0,0,0,0,0,0,0,0,0,-1,1847,561,0,0
630,463,0,0,0,0,0,0,0,0,0,-1,1854,561,0,0
637,463,0,0,0,0,0,0,0,0,0,-1,1861,561,0,0
644,463,0,0,0,0,0,0,0,0,0,-1,1868,561,0,0
651,463,0,0,0,0,0,0,0,0,0,-1,1875,561,0,0
658,463,0,0,0,0,0,0,0,0,0,-1,1882,561,0,0
665,463,0,0,0,0,0,0,0,0,0,-1,1889,561,0,0
672,463,0,0,0,0,0,0,0,0,0,-1,1896,561,0,0
679,463,0,0,0,0,0,0,0,0,0,-1,1903,561,0,0
686,463,0,0,0,0,0,0,0,0,0,-1,1910,561,0,0
693,463,0,0,0,0,0,0,0,0,0,-1,1917,561,0,0
700,463,0,0,0,0,0,0,0,0,0,-1,1924,561,0,0
707,463,0,0,0,0,0,0,0,0,0,-1,1931,561,0,0
714,463,0,0,0,0,0,0,0,0,0,-1,1938,561,0,0
721,463,0,0,0,0,0,0,0,0,0,-1,1945,561,0,0
728,463,0,0,0,0,0,0,0,0,0,-1,1952,561,0,0
735,463,0,0,0,0,0,0,0,0,0,-1,1959,561,0,0
742,463,0,0,0,0,0,0,0,0,0,-1,1966,561,0,0
749,463,0,0,0,0,0,0,0,0,0,-1,1973,561,0,0
756,463,0,0,0,0,0,0,0,0,0,-1,1980,561,0,0
763,463,0,0,0,0,0,0,0,0,0,-1,1987,561,0,0
770,463,0,0,0,0,0,0,0,0,0,-1,1994,561,0,0
777,463,0,0,0,0,0,0,0,0,0,-1,2001,561,0,0
784,463,0,0,0,0,0,0,0,0,0,-1,2008,561,0,0
791,463,0,0,0,0,0,0,0,0,0,-1,2015,561,0,0
798,463,0,0,0,0,0,0,0,0,0,-1,2022,561,0,0
805,463,0,0,0,0,0,0,0,0,0,-1,2029,561,0,0
812,463,0,0,0,0,0,0,0,0,0,-1,2036,561,0,0
-700,456,0,0,0,0,0,0,0,0,0,-1,524,568,0,0
-693,456,0,0,0,0,0,0,0,0,0,-1,531,568,0,0
-686,456,0,0,0,0,0,0,0,0,0,-1,538,568,0,0
-679,456,0,0,0,0,0,0,0,0,0,-1,545,568,0,0
-672,456,0,0,0,0,0,0,0,0,0,-1,552,568,0,0
-665,456,0,0,0,0,0,0,0,0,0,-1,559,568,0,0
-658,456,0,0,0,0,0,0,0,0,0,-1,566,568,0,0
-651,456,0,0,0,0,0,0,0,0,0,-1,573,568,0,0
-644,456,0,0,0,0,0,0,0,0,0,-1,580,568,0,0
-637,456,0,0,0,0,0,0,0,0,0,-1,587,568,0,0
-630,456,0,0,0,0,0,0,0,0,0,-1,594,568,0,0
-623,456,0,0,0,0,0,0,0,0,0,-1,601,568,0,0
-616,456,0,0,0,0,0,0,0,0,0,-1,608,568,0,0
-609,456,0,0,0,0,0,0,0,0,0,-1,615,568,0,0
-602,456,0,0,0,0,0,0,0,0,0,-1,622,568,0,0
-595,456,0,0,0,0,0,0,0,0,0,-1,629,568,0,0
-588,456,0,0,0,0,0,0,0,0,0,-1,636,568,0,0
-581,456,0,0,0,0,0,0,0,0,0,-1,643,568,0,0
-574,456,0,0,0,0,0,0,0,0,0,-1,650,568,0,0
-567,456,0,0,0,0,0,0,0,0,0,-1,657,568,0,0
-560,456,0,0,0,0,0,0,0,0,0,-1,664,568,0,0
-553,456,0,0,0,0,0,0,0,0,0,-1,671,568,0,0
-546,456,0,0,0,0,0,0,0,0,0,-1,678,568,0,0
-539,456,0,0,0,0,0,0,0,0,0,-1,685,568,0,0
-532,456,0,0,0,0,0,0,0,0,0,-1,692,568,0,0
-525,456,0,0,0,0,0,0,0,0,0,-1,699,568,0,0
-518,456,0,0,0,0,0,0,0,0,0,-1,706,568,0,0
-511,456,0,0,0,0,0,0,0,0,0,-1,713,568,0,0
-504,456,-10.3994,-2.34839,0,0,0,0,0,0,0,-1,720,568,-10.3994,2.3484
-497,456,-9.21375,-2.38068,0,0,0,0,0,0,0,-1,727,568,-9.21372,2.38069
-490,456,-8.09058,-2.31824,0,0,0,0,0,0,0,-1,734,568,-8.09057,2.31821
-483,456,-6.66119,-2.24329,0,0,0,0,0,0,0,-1,741,568,-6.66121,2.24331
-476,456,-5.1499,-2.21185,0,0,0,0,0,0,0,-1,748,568,-5.14992,2.21184
-469,456,-2.81238,-3.51501,0,0,0,0,0,0,0,-1,755,568,-2.81237,3.51501
-462,456,-4.2431,-5.27478,0,0,0,0,0,0,0,-1,762,568,-4.24312,5.27476
-455,456,-5.98364,-8.72119,0,0,0,0,0,0,0,-1,769,568,-5.98364,8.72122
-448,456,-7.57098,-14.4126,0,0,0,0,0,0,0,-1,776,568,-7.571,14.4126
-441,456,-7.83167,-15.6933,-0.00240957,0.00823572,-0.00120681,0.00837082,-0.00254467,-1.45932,0.00659451,0.0393438,783,568,-7.83167,15.6933
-434,456,-7.96912,-16.5644,-0.00160565,0.0070856,-0.00148092,0.00733101,-0.00185106,-1.40658,0.00560715,0.0195339,790,568,-7.96909,16.5644
-427,456,-7.99103,-17.3193,-0.000982282,0.00598207,-0.00157127,0.00632016,-0.00132037,-1.35886,0.00471559,0.00968097,797,568,-7.991,17.3193
-420,456,-8.03589,-18.0746,-0.00042167,0.00494846,-0.00162467,0.00540173,-0.000874938,-1.29872,0.00392544,0.00960787,804,568,-8.03589,18.0746
-413,456,-8.07397,-18.8385,4.51677e-05,0.00389094,-0.0015372,0.00442986,-0.000493748,-1.2336,0.00313082,0.00951305,811,568,-8.074,18.8385
-406,456,-8.13403,-19.5936,0.000437119,0.00280057,-0.00129765,0.00337394,-0.000136251,-1.15474,0.00229606,0.00994806,818,568,-8.13405,19.5935
-399,456,-8.1712,-20.3395,0.000869057,0.00186782,-0.00106173,0.00254175,0.000195129,-1.00522,0.00163334,0.0114575,825,568,-8.17122,20.3395
-392,456,-8.18365,-21.0885,0.00137072,0.000985628,-0.000844332,0.00204418,0.000312167,-0.673292,0.00127157,0.011173,832,568,-8.18363,21.0885
-385,456,-8.2077,-21.8362,0.0019629,0.000200362,-0.000642143,0.00217203,-8.77364e-06,-0.314851,0.00145096,0.0107733,839,568,-8.20768,21.8362
-378,456,-8.26282,-22.5909,0.00255548,-0.000504752,-0.000404175,0.00260796,-0.000557233,-0.129124,0.00195109,0.0119194,846,568,-8.26283,22.5909
-371,456,-8.29926,-23.3144,0.00321622,-0.00109179,-0.000151699,0.00322156,-0.00109713,-0.0351551,0.002592,0.0129385,853,568,-8.29926,23.3144
-364,456,-8.30518,-24.0159,0.00397975,-0.00142584,-1.37753e-05,0.00397978,-0.00142588,-0.00254831,0.00323498,0.0255668,860,568,-8.30519,24.0159
-357,456,-8.24213,-24.7556,0,0,0,0,0,0,0,-1,867,568,-8.24213,24.7556
-350,456,-8.09021,-25.7642,0,0,0,0,0,0,0,-1,874,568,-8.0902,25.7642
-343,456,-3.39081,-12.0217,0,0,0,0,0,0,0,-1,881,568,-3.39078,12.0217
-336,456,-3.04517,-12.4623,0,0,0,0,0,0,0,-1,888,568,-3.04519,12.4624
-329,456,-1.06183,-10.7184,0,0,0,0,0,0,0,-1,895,568,-1.06184,10.7184
-322,456,-0.662537,-7.66632,0,0,0,0,0,0,0,-1,902,568,-0.662564,7.66633
-315,456,-0.675476,-3.38397,0,0,0,0,0,0,0,-1,909,568,-0.675473,3.38399
-308,456,-1.1618,-3.15314,0,0,0,0,0,0,0,-1,916,568,-1.16178,3.15314
-301,456,-1.83551,-3.26447,0,0,0,0,0,0,0,-1,923,568,-1.8355,3.26449
-294,456,-2.93414,-3.35449,0,0,0,0,0,0,0,-1,930,568,-2.93413,3.35451
-287,456,-3.7569,-3.53101,0,0,0,0,0,0,0,-1,937,568,-3.75692,3.53101
-280,456,-13.072,4.52856,0,0,0,0,0,0,0,-1,944,568,-13.072,-4.52855
-273,456,-8.26538,-6.66748,0,0,0,0,0,0,0,-1,951,568,-8.26536,6.66745
-266,456,-5.71527,-9.36884,0,0,0,0,0,0,0,-1,958,568,-5.71529,9.36885
-259,456,0,0,0,0,0,0,0,0,0,-1,965,568,0,0
-252,456,0,0,0,0,0,0,0,0,0,-1,972,568,0,0
-245,456,0,0,0,0,0,0,0,0,0,-1,979,568,0,0
-238,456,0,0,0,0,0,0,0,0,0,-1,986,568,0,0
-231,456,0,0,0,0,0,0,0,0,0,-1,993,568,0,0
-224,456,0,0,0,0,0,0,0,0,0,-1,1000,568,0,0
-217,456,0,0,0,0,0,0,0,0,0,-1,1007,568,0,0
-210,456,0,0,0,0,0,0,0,0,0,-1,1014,568,0,0
-203,456,0,0,0,0,0,0,0,0,0,-1,1021,568,0,0
-196,456,0,0,0,0,0,0,0,0,0,-1,1028,568,0,0
-189,456,0,0,0,0,0,0,0,0,0,-1,1035,568,0,0
-182,456,0,0,0,0,0,0,0,0,0,-1,1042,568,0,0
-175,456,0,0,0,0,0,0,0,0,0,-1,1049,568,0,0
-168,456,0,0,0,0,0,0,0,0,0,-1,1056,568,0,0
-161,456,0,0,0,0,0,0,0,0,0,-1,1063,568,0,0
-154,456,0,0,0,0,0,0,0,0,0,-1,1070,568,0,0
-147,456,0,0,0,0,0,0,0,0,0,-1,1077,568,0,0
-140,456,0,0,0,0,0,0,0,0,0,-1,1084,568,0,0
-133,456,0,0,0,0,0,0,0,0,0,-1,1091,568,0,0
-126,456,0,0,0,0,0,0,0,0,0,-1,1098,568,0,0
-119,456,0,0,0,0,0,0,0,0,0,-1,1105,568,0,0
-112,456,0,0,0,0,0,0,0,0,0,-1,1112,568,0,0
-105,456,0,0,0,0,0,0,0,0,0,-1,1119,568,0,0
-98,456,0,0,0,0,0,0,0,0,0,-1,1126,568,0,0
-91,456,0,0,0,0,0,0,0,0,0,-1,1133,568,0,0
-84,456,0,0,0,0,0,0,0,0,0,-1,1140,568,0,0
-77,456,0,0,0,0,0,0,0,0,0,-1,1147,568,0,0
-70,456,0,0,0,0,0,0,0,0,0,-1,1154,568,0,0
-63,456,0,0,0,0,0,0,0,0,0,-1,1161,568,0,0
-56,456,0,0,0,0,0,0,0,0,0,-1,1168,568,0,0
-49,456,0,0,0,0,0,0,0,0,0,-1,1175,568,0,0
-42,456,0,0,0,0,0,0,0,0,0,-1,1182,568,0,0
-35,456,0,0,0,0,0,0,0,0,0,-1,1189,568,0,0
-28,456,0,0,0,0,0,0,0,0,0,-1,1196,568,0,0
-21,456,0,0,0,0,0,0,0,0,0,-1,1203,568,0,0
-14,456,0,0,0,0,0,0,0,0,0,-1,1210,568,0,0
-7,456,0,0,0,0,0,0,0,0,0,-1,1217,568,0,0
0,456,0,0,0,0,0,0,0,0,0,-1,1224,568,0,0
7,456,0,0,0,0,0,0,0,0,0,-1,1231,568,0,0
14,456,0,0,0,0,0,0,0,0,0,-1,1238,568,0,0
21,456,0,0,0,0,0,0,0,0,0,-1,1245,568,0,0
28,456,0,0,0,0,0,0,0,0,0,-1,1252,568,0,0
35,456,0,0,0,0,0,0,0,0,0,-1,1259,568,0,0
42,456,0,0,0,0,0,0,0,0,0,-1,1266,568,0,0
49,456,0,0,0,0,0,0,0,0,0,-1,1273,568,0,0
56,456,0,0,0,0,0,0,0,0,0,-1,1280,568,0,0
63,456,0,0,0,0,0,0,0,0,0,-1,1287,568,0,0
70,456,0,0,0,0,0,0,0,0,0,-1,1294,568,0,0
77,456,0,0,0,0,0,0,0,0,0,-1,1301,568,0,0
84,456,0,0,0,0,0,0,0,0,0,-1,1308,568,0,0
91,456,0,0,0,0,0,0,0,0,0,-1,1315,568,0,0
98,456,0,0,0,0,0,0,0,0,0,-1,1322,568,0,0
105,456,0,0,0,0,0,0,0,0,0,-1,1329,568,0,0
112,456,0,0,0,0,0,0,0,0,0,-1,1336,568,0,0
119,456,0,0,0,0,0,0,0,0,0,-1,1343,568,0,0
126,456,0,0,0,0,0,0,0,0,0,-1,1350,568,0,0
133,456,0,0,0,0,0,0,0,0,0,-1,1357,568,0,0
140,456,0,0,0,0,0,0,0,0,0,-1,1364,568,0,0
147,456,0,0,0,0,0,0,0,0,0,-1,1371,568,0,0
154,456,0,0,0,0,0,0,0,0,0,-1,1378,568,0,0
161,456,0,0,0,0,0,0,0,0,0,-1,1385,568,0,0
168,456,0,0,0,0,0,0,0,0,0,-1,1392,568,0,0
175,456,0,0,0,0,0,0,0,0,0,-1,1399,568,0,0
182,456,0,0,0,0,0,0,0,0,0,-1,1406,568,0,0
189,456,0,0,0,0,0,0,0,0,0,-1,1413,568,0,0
196,456,0,0,0,0,0,0,0,0,0,-1,1420,568,0,0
203,456,0,0,0,0,0,0,0,0,0,-1,1427,568,0,0
210,456,0,0,0,0,0,0,0,0,0,-1,1434,568,0,0
217,456,0,0,0,0,0,0,0,0,0,-1,1441,568,0,0
224,456,0,0,0,0,0,0,0,0,0,-1,1448,568,0,0
231,456,0,0,0,0,0,0,0,0,0,-1,1455,568,0,0
238,456,0,0,0,0,0,0,0,0,0,-1,1462,568,0,0
245,456,0,0,0,0,0,0,0,0,0,-1,1469,568,0,0
252,456,0,0,0,0,0,0,0,0,0,-1,1476,568,0,0
259,456,0,0,0,0,0,0,0,0,0,-1,1483,568,0,0
266,456,0,0,0,0,0,0,0,0,0,-1,1490,568,0,0
273,456,0,0,0,0,0,0,0,0,0,-1,1497,568,0,0
280,456,0,0,0,0,0,0,0,0,0,-1,1504,568,0,0
287,456,0,0,0,0,0,0,0,0,0,-1,1511,568,0,0
294,456,0,0,0,0,0,0,0,0,0,-1,1518,568,0,0
301,456,0,0,0,0,0,0,0,0,0,-1,1525,568,0,0
308,456,0,0,0,0,0,0,0,0,0,-1,1532,568,0,0
315,456,0,0,0,0,0,0,0,0,0,-1,1539,568,0,0
322,456,0,0,0,0,0,0,0,0,0,-1,1546,568,0,0
329,456,0,0,0,0,0,0,0,0,0,-1,1553,568,0,0
336,456,0,0,0,0,0,0,0,0,0,-1,1560,568,0,0
343,456,0,0,0,0,0,0,0,0,0,-1,1567,568,0,0
350,456,0,0,0,0,0,0,0,0,0,-1,1574,568,0,0
357,456,0,0,0,0,0,0,0,0,0,-1,1581,568,0,0
364,456,0,0,0,0,0,0,0,0,0,-1,1588,568,0,0
371,456,0,0,0,0,0,0,0,0,0,-1,1595,568,0,0
378,456,0,0,0,0,0,0,0,0,0,-1,1602,568,0,0
385,456,5.66284,0.660645,0,0,0,0,0,0,0,-1,1609,568,5.66285,-0.660615
392,456,17.5027,4.32971,0,0,0,0,0,0,0,-1,1616,568,17.5026,-4.32971
399,456,24.1917,5.99652,0,0,0,0,0,0,0,-1,1623,568,24.1916,-5.99651
406,456,24.446,4.53003,0,0,0,0,0,0,0,-1,1630,568,24.446,-4.53005
413,456,24.9418,2.90521,0,0,0,0,0,0,0,-1,1637,568,24.9418,-2.90524
420,456,25.3048,1.04712,0,0,0,0,0,0,0,-1,1644,568,25.3048,-1.04713
427,456,6.21375,2.02905,0,0,0,0,0,0,0,-1,1651,568,6.21372,-2.02904
434,456,3.0719,-4.86285,0,0,0,0,0,0,0,-1,1658,568,3.07184,4.86287
441,456,2.90344,-4.70459,0,0,0,0,0,0,0,-1,1665,568,2.90346,4.7046
448,456,3.06995,-4.93689,0,0,0,0,0,0,0,-1,1672,568,3.06991,4.93687
455,456,3.46582,-3.43701,0,0,0,0,0,0,0,-1,1679,568,3.46585,3.43698
462,456,4.68445,-4.45831,0,0,0,0,0,0,0,-1,1686,568,4.68439,4.45833
469,456,4.93201,-2.289,0,0,0,0,0,0,0,-1,1693,568,4.93197,2.28903
476,456,4.8363,-2.79364,0,0,0,0,0,0,0,-1,1700,568,4.83636,2.79363
483,456,12.8522,-13.692,0,0,0,0,0,0,0,-1,1707,568,12.8522,13.6919
490,456,21.7562,-23.5388,0,0,0,0,0,0,0,-1,1714,568,21.7562,23.5388
497,456,21.6964,-22.4057,0,0,0,0,0,0,0,-1,1721,568,21.6964,22.4057
504,456,21.7136,-21.6896,0.00277873,0.00139965,0.00104938,0.00334484,0.000833536,0.494725,0.00201049,0.0157508,1728,568,21.7136,21.6896
511,456,21.7323,-20.9315,0.00232793,0.00127255,0.00109743,0.00301795,0.000582537,0.561296,0.00184864,0.0147412,1735,568,21.7323,20.9315
518,456,21.7291,-20.1808,0.00185622,0.00115754,0.00116907,0.00272703,0.000286736,0.640211,0.00173038,0.0179541,1742,568,21.7291,20.1808
525,456,21.6967,-19.4017,0.00135448,0.00120321,0.0012151,0.00249629,6.13939e-05,0.754316,0.00164411,0.0172936,1749,568,21.6966,19.4017
532,456,21.6897,-18.5931,0.000905988,0.00134308,0.00127769,0.00242078,-0.000171711,0.870102,0.00167403,0.0172853,1756,568,21.6897,18.5931
539,456,21.6224,-17.7739,0.00052596,0.00155455,0.00134699,0.00248209,-0.000401575,0.967763,0.00180355,0.0234555,1763,568,21.6224,17.7739
546,456,21.5165,-17.002,0.000222472,0.00193124,0.00143237,0.00274468,-0.000590972,1.05431,0.0020553,0.0263749,1770,568,21.5165,17.002
553,456,21.4747,-16.2134,-1.03682e-05,0.00242831,0.00157523,0.00320099,-0.000783049,1.11476,0.00243731,0.0155782,1777,568,21.4748,16.2135
560,456,21.4934,-15.4736,-0.000110169,0.00305943,0.00182957,0.00389516,-0.000945892,1.14231,0.00296283,0.0114152,1784,568,21.4934,15.4735
567,456,21.4602,-14.6744,-5.588e-05,0.00390765,0.00221756,0.00489993,-0.00104817,1.15005,0.0036663,0.0208056,1791,568,21.4602,14.6744
574,456,21.431,-13.8861,0,0,0,0,0,0,0,-1,1798,568,21.431,13.8861
581,456,16.2228,-9.08563,0,0,0,0,0,0,0,-1,1805,568,16.2228,9.08562
588,456,5.23901,-0.0901489,0,0,0,0,0,0,0,-1,1812,568,5.23906,0.0901656
595,456,6.90063,3.14886,0,0,0,0,0,0,0,-1,1819,568,6.90066,-3.14887
602,456,16.894,4.10938,0,0,0,0,0,0,0,-1,1826,568,16.8941,-4.1094
609,456,14.9966,3.5708,0,0,0,0,0,0,0,-1,1833,568,14.9966,-3.57083
616,456,17.7407,2.6579,0,0,0,0,0,0,0,-1,1840,568,17.7408,-2.6579
623,456,20.6838,1.7121,0,0,0,0,0,0,0,-1,1847,568,20.6838,-1.71208
630,456,0,0,0,0,0,0,0,0,0,-1,1854,568,0,0
637,456,0,0,0,0,0,0,0,0,0,-1,1861,568,0,0
644,456,0,0,0,0,0,0,0,0,0,-1,1868,568,0,0
651,456,0,0,0,0,0,0,0,0,0,-1,1875,568,0,0
658,456,0,0,0,0,0,0,0,0,0,-1,1882,568,0,0
665,456,0,0,0,0,0,0,0,0,0,-1,1889,568,0,0
672,456,0,0,0,0,0,0,0,0,0,-1,1896,568,0,0
679,456,0,0,0,0,0,0,0,0,0,-1,1903,568,0,0
686,456,0,0,0,0,0,0,0,0,0,-1,1910,568,0,0
693,456,0,0,0,0,0,0,0,0,0,-1,1917,568,0,0
700,456,0,0,0,0,0,0,0,0,0,-1,1924,568,0,0
707,456,0,0,0,0,0,0,0,0,0,-1,1931,568,0,0
714,456,0,0,0,0,0,0,0,0,0,-1,1938,568,0,0
721,456,0,0,0,0,0,0,0,0,0,-1,1945,568,0,0
728,456,0,0,0,0,0,0,0,0,0,-1,1952,568,0,0
735,456,0,0,0,0,0,0,0,0,0,-1,1959,568,0,0
742,456,0,0,0,0,0,0,0,0,0,-1,1966,568,0,0
749,456,0,0,0,0,0,0,0,0,0,-1,1973,568,0,0
756,456,0,0,0,0,0,0,0,0,0,-1,1980,568,0,0
763,456,0,0,0,0,0,0,0,0,0,-1,1987,568,0,0
770,456,0,0,0,0,0,0,0,0,0,-1,1994,568,0,0
777,456,0,0,0,0,0,0,0,0,0,-1,2001,568,0,0
784,456,0,0,0,0,0,0,0,0,0,-1,2008,568,0,0
791,456,0,0,0,0,0,0,0,0,0,-1,2015,568,0,0
798,456,0,0,0,0,0,0,0,0,0,-1,2022,568,0,0
805,456,0,0,0,0,0,0,0,0,0,-1,2029,568,0,0
812,456,0,0,0,0,0,0,0,0,0,-1,2036,568,0,0
-700,449,0,0,0,0,0,0,0,0,0,-1,524,575,0,0
-693,449,0,0,0,0,0,0,0,0,0,-1,531,575,0,0
-686,449,0,0,0,0,0,0,0,0,0,-1,538,575,0,0
-679,449,0,0,0,0,0,0,0,0,0,-1,545,575,0,0
-672,449,0,0,0,0,0,0,0,0,0,-1,552,575,0,0
-665,449,0,0,0,0,0,0,0,0,0,-1,559,575,0,0
-658,449,0,0,0,0,0,0,0,0,0,-1,566,575,0,0
-651,449,0,0,0,0,0,0,0,0,0,-1,573,575,0,0
-644,449,0,0,0,0,0,0,0,0,0,-1,580,575,0,0
-637,449,0,0,0,0,0,0,0,0,0,-1,587,575,0,0
-630,449,0,0,0,0,0,0,0,0,0,-1,594,575,0,0
-623,449,0,0,0,0,0,0,0,0,0,-1,601,575,0,0
-616,449,0,0,0,0,0,0,0,0,0,-1,608,575,0,0
-609,449,0,0,0,0,0,0,0,0,0,-1,615,575,0,0
-602,449,0,0,0,0,0,0,0,0,0,-1,622,575,0,0
-595,449,0,0,0,0,0,0,0,0,0,-1,629,575,0,0
-588,449,0,0,0,0,0,0,0,0,0,-1,636,575,0,0
-581,449,0,0,0,0,0,0,0,0,0,-1,643,575,0,0
-574,449,0,0,0,0,0,0,0,0,0,-1,650,575,0,0
-567,449,0,0,0,0,0,0,0,0,0,-1,657,575,0,0
-560,449,0,0,0,0,0,0,0,0,0,-1,664,575,0,0
-553,449,0,0,0,0,0,0,0,0,0,-1,671,575,0,0
-546,449,0,0,0,0,0,0,0,0,0,-1,678,575,0,0
-539,449,0,0,0,0,0,0,0,0,0,-1,685,575,0,0
-532,449,0,0,0,0,0,0,0,0,0,-1,692,575,0,0
-525,449,0,0,0,0,0,0,0,0,0,-1,699,575,0,0
-518,449,0,0,0,0,0,0,0,0,0,-1,706,575,0,0
-511,449,-0.941345,-4.4519,0,0,0,0,0,0,0,-1,713,575,-0.941356,4.45191
-504,449,-14.1078,0.318237,0,0,0,0,0,0,0,-1,720,575,-14.1078,-0.318231
-497,449,-8.61292,-3.09009,0,0,0,0,0,0,0,-1,727,575,-8.61291,3.09011
-490,449,-7.50995,-2.96252,0,0,0,0,0,0,0,-1,734,575,-7.50995,2.96251
-483,449,-5.77789,-2.50061,0,0,0,0,0,0,0,-1,741,575,-5.77792,2.50059
-476,449,-4.1723,-2.07739,0,0,0,0,0,0,0,-1,748,575,-4.17228,2.0774
-469,449,-5.0976,-5.78448,0,0,0,0,0,0,0,-1,755,575,-5.09758,5.78451
-462,449,-6.54181,-9.54535,0,0,0,0,0,0,0,-1,762,575,-6.54178,9.54536
-455,449,-8.67291,-13.2226,0,0,0,0,0,0,0,-1,769,575,-8.67289,13.2226
-448,449,-8.58594,-14.8286,0,0,0,0,0,0,0,-1,776,575,-8.58591,14.8286
-441,449,-8.62103,-15.8262,-0.00181771,0.00616625,-0.00101058,0.00629218,-0.00194364,-1.44682,0.00497098,0.0235549,783,575,-8.62102,15.8261
-434,449,-8.73553,-16.5381,-0.0011287,0.00524678,-0.00114785,0.00544714,-0.00132906,-1.39798,0.00414608,0.0144633,790,575,-8.73553,16.5381
-427,449,-8.7677,-17.2773,-0.000578673,0.0043772,-0.00117467,0.00464153,-0.000843002,-1.34946,0.00341026,0.0139771,797,575,-8.76773,17.2773
-420,449,-8.79419,-18.0387,-5.64889e-05,0.00356572,-0.00120153,0.00392804,-0.000418808,-1.27792,0.00276887,0.0135808,804,575,-8.79421,18.0387
-413,449,-8.81873,-18.7899,0.000377184,0.00271274,-0.00109988,0.00314916,-5.92318e-05,-1.19306,0.00211946,0.0112974,811,575,-8.81871,18.7899
-406,449,-8.88245,-19.556,0.000752894,0.00181838,-0.000884374,0.00231808,0.000253197,-1.05649,0.00146828,0.0108022,818,575,-8.88243,19.556
-399,449,-8.93707,-20.3078,0.00120217,0.00107768,-0.000712254,0.00185489,0.000424955,-0.741813,0.00112209,0.00969963,825,575,-8.93709,20.3078
-392,449,-8.93683,-21.0441,0.00172551,0.000371207,-0.000566005,0.00193091,0.000165807,-0.348115,0.00123572,0.0102204,832,575,-8.93684,21.0441
-385,449,-8.9585,-21.774,0.00233382,-0.000225501,-0.000452585,0.00241149,-0.000303177,-0.169973,0.00171766,0.0107642,839,575,-8.95852,21.7741
-378,449,-9.00586,-22.5201,0.0029921,-0.000772868,-0.00031752,0.0030187,-0.000799459,-0.0835489,0.00232522,0.0104878,846,575,-9.00583,22.5201
-371,449,-9.00269,-23.2705,0.00378651,-0.00115164,-0.000151635,0.00379116,-0.00115629,-0.0306683,0.00298839,0.0208134,853,575,-9.00269,23.2705
-364,449,-8.9104,-24.0665,0,0,0,0,0,0,0,-1,860,575,-8.91039,24.0665
-357,449,-5.88049,-15.8704,0,0,0,0,0,0,0,-1,867,575,-5.88051,15.8704
-350,449,-2.8764,-9.90204,0,0,0,0,0,0,0,-1,874,575,-2.87638,9.90203
-343,449,-2.98492,-9.2254,0,0,0,0,0,0,0,-1,881,575,-2.98491,9.22541
-336,449,-1.29523,-9.54626,0,0,0,0,0,0,0,-1,888,575,-1.29525,9.54626
-329,449,-0.733398,-7.78937,0,0,0,0,0,0,0,-1,895,575,-0.733398,7.78937
-322,449,-0.628845,-3.16669,0,0,0,0,0,0,0,-1,902,575,-0.628861,3.16667
-315,449,-0.540344,-3.21918,0,0,0,0,0,0,0,-1,909,575,-0.540336,3.21917
-308,449,-1.04413,-2.99341,0,0,0,0,0,0,0,-1,916,575,-1.04415,2.99338
-301,449,-1.58691,-2.80725,0,0,0,0,0,0,0,-1,923,575,-1.58692,2.80728
-294,449,-3.71118,-2.76086,0,0,0,0,0,0,0,-1,930,575,-3.71119,2.76087
-287,449,-4.4082,-2.69525,0,0,0,0,0,0,0,-1,937,575,-4.40822,2.69526
-280,449,0.723999,-14.2697,0,0,0,0,0,0,0,-1,944,575,0.723977,14.2696
-273,449,0,0,0,0,0,0,0,0,0,-1,951,575,0,0
-266,449,0,0,0,0,0,0,0,0,0,-1,958,575,0,0
-259,449,0,0,0,0,0,0,0,0,0,-1,965,575,0,0
-252,449,0,0,0,0,0,0,0,0,0,-1,972,575,0,0
-245,449,0,0,0,0,0,0,0,0,0,-1,979,575,0,0
-238,449,0,0,0,0,0,0,0,0,0,-1,986,575,0,0
-231,449,0,0,0,0,0,0,0,0,0,-1,993,575,0,0
-224,449,0,0,0,0,0,0,0,0,0,-1,1000,575,0,0
-217,449,0,0,0,0,0,0,0,0,0,-1,1007,575,0,0
-210,449,0,0,0,0,0,0,0,0,0,-1,1014,575,0,0
-203,449,0,0,0,0,0,0,0,0,0,-1,1021,575,0,0
-196,449,0,0,0,0,0,0,0,0,0,-1,1028,575,0,0
-189,449,0,0,0,0,0,0,0,0,0,-1,1035,575,0,0
-182,449,0,0,0,0,0,0,0,0,0,-1,1042,575,0,0
-175,449,0,0,0,0,0,0,0,0,0,-1,1049,575,0,0
-168,449,0,0,0,0,0,0,0,0,0,-1,1056,575,0,0
-161,449,0,0,0,0,0,0,0,0,0,-1,1063,575,0,0
-154,449,0,0,0,0,0,0,0,0,0,-1,1070,575,0,0
-147,449,0,0,0,0,0,0,0,0,0,-1,1077,575,0,0
-140,449,0,0,0,0,0,0,0,0,0,-1,1084,575,0,0
-133,449,0,0,0,0,0,0,0,0,0,-1,1091,575,0,0
-126,449,0,0,0,0,0,0,0,0,0,-1,1098,575,0,0
-119,449,0,0,0,0,0,0,0,0,0,-1,1105,575,0,0
-112,449,0,0,0,0,0,0,0,0,0,-1,1112,575,0,0
-105,449,0,0,0,0,0,0,0,0,0,-1,1119,575,0,0
-98,449,0,0,0,0,0,0,0,0,0,-1,1126,575,0,0
-91,449,0,0,0,0,0,0,0,0,0,-1,1133,575,0,0
-84,449,0,0,0,0,0,0,0,0,0,-1,1140,575,0,0
-77,449,0,0,0,0,0,0,0,0,0,-1,1147,575,0,0
-70,449,0,0,0,0,0,0,0,0,0,-1,1154,575,0,0
-63,449,0,0,0,0,0,0,0,0,0,-1,1161,575,0,0
-56,449,0,0,0,0,0,0,0,0,0,-1,1168,575,0,0
-49,449,0,0,0,0,0,0,0,0,0,-1,1175,575,0,0
-42,449,0,0,0,0,0,0,0,0,0,-1,1182,575,0,0
-35,449,0,0,0,0,0,0,0,0,0,-1,1189,575,0,0
-28,449,0,0,0,0,0,0,0,0,0,-1,1196,575,0,0
-21,449,0,0,0,0,0,0,0,0,0,-1,1203,575,0,0
-14,449,0,0,0,0,0,0,0,0,0,-1,1210,575,0,0
-7,449,0,0,0,0,0,0,0,0,0,-1,1217,575,0,0
0,449,0,0,0,0,0,0,0,0,0,-1,1224,575,0,0
7,449,0,0,0,0,0,0,0,0,0,-1,1231,575,0,0
14,449,0,0,0,0,0,0,0,0,0,-1,1238,575,0,0
21,449,0,0,0,0,0,0,0,0,0,-1,1245,575,0,0
28,449,0,0,0,0,0,0,0,0,0,-1,1252,575,0,0
35,449,0,0,0,0,0,0,0,0,0,-1,1259,575,0,0
42,449,0,0,0,0,0,0,0,0,0,-1,1266,575,0,0
49,449,0,0,0,0,0,0,0,0,0,-1,1273,575,0,0
56,449,0,0,0,0,0,0,0,0,0,-1,1280,575,0,0
63,449,0,0,0,0,0,0,0,0,0,-1,1287,575,0,0
70,449,0,0,0,0,0,0,0,0,0,-1,1294,575,0,0
77,449,0,0,0,0,0,0,0,0,0,-1,1301,575,0,0
84,449,0,0,0,0,0,0,0,0,0,-1,1308,575,0,0
91,449,0,0,0,0,0,0,0,0,0,-1,1315,575,0,0
98,449,0,0,0,0,0,0,0,0,0,-1,1322,575,0,0
105,449,0,0,0,0,0,0,0,0,0,-1,1329,575,0,0
112,449,0,0,0,0,0,0,0,0,0,-1,1336,575,0,0
119,449,0,0,0,0,0,0,0,0,0,-1,1343,575,0,0
126,449,0,0,0,0,0,0,0,0,0,-1,1350,575,0,0
133,449,0,0,0,0,0,0,0,0,0,-1,1357,575,0,0
140,449,0,0,0,0,0,0,0,0,0,-1,1364,575,0,0
147,449,0,0,0,0,0,0,0,0,0,-1,1371,575,0,0
154,449,0,0,0,0,0,0,0,0,0,-1,1378,575,0,0
161,449,0,0,0,0,0,0,0,0,0,-1,1385,575,0,0
168,449,0,0,0,0,0,0,0,0,0,-1,1392,575,0,0
175,449,0,0,0,0,0,0,0,0,0,-1,1399,575,0,0
182,449,0,0,0,0,0,0,0,0,0,-1,1406,575,0,0
189,449,0,0,0,0,0,0,0,0,0,-1,1413,575,0,0
196,449,0,0,0,0,0,0,0,0,0,-1,1420,575,0,0
203,449,0,0,0,0,0,0,0,0,0,-1,1427,575,0,0
210,449,0,0,0,0,0,0,0,0,0,-1,1434,575,0,0
217,449,0,0,0,0,0,0,0,0,0,-1,1441,575,0,0
224,449,0,0,0,0,0,0,0,0,0,-1,1448,575,0,0
231,449,0,0,0,0,0,0,0,0,0,-1,1455,575,0,0
238,449,0,0,0,0,0,0,0,0,0,-1,1462,575,0,0
245,449,0,0,0,0,0,0,0,0,0,-1,1469,575,0,0
252,449,0,0,0,0,0,0,0,0,0,-1,1476,575,0,0
259,449,0,0,0,0,0,0,0,0,0,-1,1483,575,0,0
266,449,0,0,0,0,0,0,0,0,0,-1,1490,575,0,0
273,449,0,0,0,0,0,0,0,0,0,-1,1497,575,0,0
280,449,0,0,0,0,0,0,0,0,0,-1,1504,575,0,0
287,449,0,0,0,0,0,0,0,0,0,-1,1511,575,0,0
294,449,0,0,0,0,0,0,0,0,0,-1,1518,575,0,0
301,449,0,0,0,0,0,0,0,0,0,-1,1525,575,0,0
308,449,0,0,0,0,0,0,0,0,0,-1,1532,575,0,0
315,449,0,0,0,0,0,0,0,0,0,-1,1539,575,0,0
322,449,0,0,0,0,0,0,0,0,0,-1,1546,575,0,0
329,449,0,0,0,0,0,0,0,0,0,-1,1553,575,0,0
336,449,0,0,0,0,0,0,0,0,0,-1,1560,575,0,0
343,449,0,0,0,0,0,0,0,0,0,-1,1567,575,0,0
350,449,0,0,0,0,0,0,0,0,0,-1,1574,575,0,0
357,449,0,0,0,0,0,0,0,0,0,-1,1581,575,0,0
364,449,0,0,0,0,0,0,0,0,0,-1,1588,575,0,0
371,449,0,0,0,0,0,0,0,0,0,-1,1595,575,0,0
378,449,0,0,0,0,0,0,0,0,0,-1,1602,575,0,0
385,449,0,0,0,0,0,0,0,0,0,-1,1609,575,0,0
392,449,7.95471,3.66217,0,0,0,0,0,0,0,-1,1616,575,7.95471,-3.66218
399,449,19.9791,5.565,0,0,0,0,0,0,0,-1,1623,575,19.9791,-5.56499
406,449,24.9847,4.55969,0,0,0,0,0,0,0,-1,1630,575,24.9848,-4.55968
413,449,30.4159,3.15027,0,0,0,0,0,0,0,-1,1637,575,30.4159,-3.15028
420,449,23.9675,1.29718,0,0,0,0,0,0,0,-1,1644,575,23.9675,-1.29721
427,449,24.4276,-0.596558,0,0,0,0,0,0,0,-1,1651,575,24.4277,0.596569
434,449,25.61,-2.96594,0,0,0,0,0,0,0,-1,1658,575,25.61,2.96595
441,449,3.89856,-6.06458,0,0,0,0,0,0,0,-1,1665,575,3.89855,6.06459
448,449,4.03198,-5.18207,0,0,0,0,0,0,0,-1,1672,575,4.03197,5.18207
455,449,4.21948,-4.09467,0,0,0,0,0,0,0,-1,1679,575,4.21952,4.09465
462,449,4.23181,-2.96924,0,0,0,0,0,0,0,-1,1686,575,4.23185,2.96926
469,449,4.51672,-2.95135,0,0,0,0,0,0,0,-1,1693,575,4.51672,2.95135
476,449,4.71838,-1.86688,0,0,0,0,0,0,0,-1,1700,575,4.71842,1.86689
483,449,4.87878,-1.73126,0,0,0,0,0,0,0,-1,1707,575,4.87875,1.73128
490,449,5.73279,-2.74573,0,0,0,0,0,0,0,-1,1714,575,5.73282,2.74575
497,449,17.2095,-16.4381,0,0,0,0,0,0,0,-1,1721,575,17.2094,16.4381
504,449,22.4197,-21.7448,0,0,0,0,0,0,0,-1,1728,575,22.4197,21.7448
511,449,22.4998,-20.9222,0.00293324,0.00155571,0.00148014,0.00387702,0.000611927,0.56763,0.00240678,0.0150919,1735,575,22.4997,20.9222
518,449,22.5021,-20.1592,0.00254201,0.00125066,0.00141951,0.00345579,0.000336883,0.571954,0.00220018,0.0138382,1742,575,22.5021,20.1592
525,449,22.4471,-19.371,0.00205875,0.00117662,0.00133906,0.00302751,0.00020786,0.626303,0.00195274,0.0134318,1749,575,22.4471,19.371
532,449,22.3945,-18.5738,0.00161645,0.00120684,0.00128561,0.00271346,0.000109829,0.70641,0.0017735,0.0118694,1756,575,22.3945,18.5738
539,449,22.3313,-17.7744,0.00125055,0.0013417,0.00126938,0.00256632,2.59291e-05,0.803343,0.0017023,0.0163995,1763,575,22.3313,17.7743
546,449,22.2778,-16.9415,0.000949638,0.00161786,0.00127417,0.002601,-3.35013e-05,0.91362,0.00174527,0.0283349,1770,575,22.2778,16.9415
553,449,22.2394,-16.2167,0.000675497,0.00202191,0.00134012,0.00284841,-0.000151009,1.01816,0.00195123,0.0186637,1777,575,22.2393,16.2167
560,449,22.2598,-15.4593,0.000487932,0.00253908,0.00151923,0.0033465,-0.000319484,1.08229,0.00234476,0.0137239,1784,575,22.2598,15.4593
567,449,22.1973,-14.6566,0.000446226,0.00327294,0.00185216,0.0041894,-0.000470239,1.11131,0.00296215,0.00980264,1791,575,22.1972,14.6566
574,449,22.172,-13.8276,0.000399797,0.00413517,0.00222722,0.00517416,-0.000639191,1.13431,0.00368105,0.0241782,1798,575,22.172,13.8276
581,449,22.1746,-12.929,0,0,0,0,0,0,0,-1,1805,575,22.1745,12.929
588,449,12.3274,-4.5672,0,0,0,0,0,0,0,-1,1812,575,12.3274,4.5672
595,449,15.9352,-5.65479,0,0,0,0,0,0,0,-1,1819,575,15.9352,5.65478
602,449,9.46167,4.17444,0,0,0,0,0,0,0,-1,1826,575,9.46164,-4.17442
609,449,12.2028,3.18652,0,0,0,0,0,0,0,-1,1833,575,12.2027,-3.18655
616,449,14.9438,2.19867,0,0,0,0,0,0,0,-1,1840,575,14.9438,-2.19867
623,449,9.83789,-0.0820313,0,0,0,0,0,0,0,-1,1847,575,9.83794,0.0820443
630,449,8.90686,4.99329,0,0,0,0,0,0,0,-1,1854,575,8.90685,-4.99327
637,449,0,0,0,0,0,0,0,0,0,-1,1861,575,0,0
644,449,0,0,0,0,0,0,0,0,0,-1,1868,575,0,0
651,449,0,0,0,0,0,0,0,0,0,-1,1875,575,0,0
658,449,0,0,0,0,0,0,0,0,0,-1,1882,575,0,0
665,449,0,0,0,0,0,0,0,0,0,-1,1889,575,0,0
672,449,0,0,0,0,0,0,0,0,0,-1,1896,575,0,0
679,449,0,0,0,0,0,0,0,0,0,-1,1903,575,0,0
686,449,0,0,0,0,0,0,0,0,0,-1,1910,575,0,0
693,449,0,0,0,0,0,0,0,0,0,-1,1917,575,0,0
700,449,0,0,0,0,0,0,0,0,0,-1,1924,575,0,0
707,449,0,0,0,0,0,0,0,0,0,-1,1931,575,0,0
714,449,0,0,0,0,0,0,0,0,0,-1,1938,575,0,0
721,449,0,0,0,0,0,0,0,0,0,-1,1945,575,0,0
728,449,0,0,0,0,0,0,0,0,0,-1,1952,575,0,0
735,449,0,0,0,0,0,0,0,0,0,-1,1959,575,0,0
742,449,0,0,0,0,0,0,0,0,0,-1,1966,575,0,0
749,449,0,0,0,0,0,0,0,0,0,-1,1973,575,0,0
756,449,0,0,0,0,0,0,0,0,0,-1,1980,575,0,0
763,449,0,0,0,0,0,0,0,0,0,-1,1987,575,0,0
770,449,0,0,0,0,0,0,0,0,0,-1,1994,575,0,0
777,449,0,0,0,0,0,0,0,0,0,-1,2001,575,0,0
784,449,0,0,0,0,0,0,0,0,0,-1,2008,575,0,0
791,449,0,0,0,0,0,0,0,0,0,-1,2015,575,0,0
798,449,0,0,0,0,0,0,0,0,0,-1,2022,575,0,0
805,449,0,0,0,0,0,0,0,0,0,-1,2029,575,0,0
812,449,0,0,0,0,0,0,0,0,0,-1,2036,575,0,0
-700,442,0,0,0,0,0,0,0,0,0,-1,524,582,0,0
-693,442,0,0,0,0,0,0,0,0,0,-1,531,582,0,0
-686,442,0,0,0,0,0,0,0,0,0,-1,538,582,0,0
-679,442,0,0,0,0,0,0,0,0,0,-1,545,582,0,0
-672,442,0,0,0,0,0,0,0,0,0,-1,552,582,0,0
-665,442,0,0,0,0,0,0,0,0,0,-1,559,582,0,0
-658,442,0,0,0,0,0,0,0,0,0,-1,566,582,0,0
-651,442,0,0,0,0,0,0,0,0,0,-1,573,582,0,0
-644,442,0,0,0,0,0,0,0,0,0,-1,580,582,0,0
-637,442,0,0,0,0,0,0,0,0,0,-1,587,582,0,0
-630,442,0,0,0,0,0,0,0,0,0,-1,594,582,0,0
-623,442,0,0,0,0,0,0,0,0,0,-1,601,582,0,0
-616,442,0,0,0,0,0,0,0,0,0,-1,608,582,0,0
-609,442,0,0,0,0,0,0,0,0,0,-1,615,582,0,0
-602,442,0,0,0,0,0,0,0,0,0,-1,622,582,0,0
-595,442,0,0,0,0,0,0,0,0,0,-1,629,582,0,0
-588,442,0,0,0,0,0,0,0,0,0,-1,636,582,0,0
-581,442,0,0,0,0,0,0,0,0,0,-1,643,582,0,0
-574,442,0,0,0,0,0,0,0,0,0,-1,650,582,0,0
-567,442,0,0,0,0,0,0,0,0,0,-1,657,582,0,0
-560,442,0,0,0,0,0,0,0,0,0,-1,664,582,0,0
-553,442,0,0,0,0,0,0,0,0,0,-1,671,582,0,0
-546,442,0,0,0,0,0,0,0,0,0,-1,678,582,0,0
-539,442,0,0,0,0,0,0,0,0,0,-1,685,582,0,0
-532,442,0,0,0,0,0,0,0,0,0,-1,692,582,0,0
-525,442,0,0,0,0,0,0,0,0,0,-1,699,582,0,0
-518,442,-0.493774,-5.72943,0,0,0,0,0,0,0,-1,706,582,-0.493791,5.72946
-511,442,-1.33008,-6.18512,0,0,0,0,0,0,0,-1,713,582,-1.33006,6.18511
-504,442,-3.20807,-6.34082,0,0,0,0,0,0,0,-1,720,582,-3.2081,6.34083
-497,442,-13.6886,-0.250122,0,0,0,0,0,0,0,-1,727,582,-13.6886,0.250143
-490,442,-9.09039,-3.64862,0,0,0,0,0,0,0,-1,734,582,-9.09037,3.64861
-483,442,-7.36499,-1.01892,0,0,0,0,0,0,0,-1,741,582,-7.365,1.01895
-476,442,-4.84784,-4.44141,0,0,0,0,0,0,0,-1,748,582,-4.84787,4.44138
-469,442,-9.57813,-11.7914,0,0,0,0,0,0,0,-1,755,582,-9.57811,11.7914
-462,442,-8.83655,-12.3534,0,0,0,0,0,0,0,-1,762,582,-8.83658,12.3534
-455,442,-9.36194,-14.0404,0,0,0,0,0,0,0,-1,769,582,-9.36193,14.0404
-448,442,-9.3584,-14.9111,-0.00220864,0.00523515,-0.000532388,0.00527304,-0.00224653,-1.49976,0.0044571,0.0209663,776,582,-9.35839,14.9111
-441,442,-9.42926,-15.7202,-0.00136619,0.00446848,-0.000747444,0.00456271,-0.00146042,-1.44539,0.00362795,0.0150927,783,582,-9.42924,15.7201
-434,442,-9.48706,-16.4982,-0.000721539,0.00372827,-0.000837293,0.0038806,-0.000873872,-1.39083,0.00292224,0.0134512,790,582,-9.48707,16.4982
-427,442,-9.52808,-17.2427,-0.000186029,0.00305233,-0.000857208,0.00326524,-0.000398938,-1.32735,0.00232126,0.0136387,797,582,-9.52805,17.2428
-420,442,-9.55176,-18.0085,0.000335965,0.00243873,-0.00089415,0.00276753,7.16303e-06,-1.21842,0.00184264,0.0142863,804,582,-9.55173,18.0086
-413,442,-9.57233,-18.7588,0.000763963,0.00178779,-0.000808744,0.00223302,0.000318734,-1.06755,0.00139463,0.0119582,811,582,-9.57233,18.7588
-406,442,-9.62408,-19.5323,0.00114364,0.0011166,-0.000646093,0.00177636,0.000483889,-0.774936,0.00106041,0.0101259,818,582,-9.62411,19.5323
-399,442,-9.67755,-20.2816,0.00162062,0.000596192,-0.000559012,0.0018666,0.000350212,-0.414529,0.00114564,0.00859541,825,582,-9.67757,20.2816
-392,442,-9.71259,-20.9978,0.00216683,0.000111187,-0.000499623,0.00228183,-3.81237e-06,-0.226232,0.00152249,0.0103269,832,582,-9.71258,20.9978
-385,442,-9.73694,-21.7209,0.00277546,-0.000238986,-0.00049315,0.00285408,-0.000317613,-0.158106,0.00201695,0.0124753,839,582,-9.73694,21.7209
-378,442,-9.73584,-22.488,0.00348893,-0.000580629,-0.000480787,0.00354496,-0.000636659,-0.116015,0.00260162,0.0188087,846,582,-9.73583,22.488
-371,442,-9.75439,-23.3425,0,0,0,0,0,0,0,-1,853,582,-9.7544,23.3425
-364,442,-6.89764,-17.5333,0,0,0,0,0,0,0,-1,860,582,-6.89765,17.5333
-357,442,-4.9115,-11.2649,0,0,0,0,0,0,0,-1,867,582,-4.91147,11.2649
-350,442,-1.75372,-6.27618,0,0,0,0,0,0,0,-1,874,582,-1.75371,6.27618
-343,442,-1.4599,-4.63605,0,0,0,0,0,0,0,-1,881,582,-1.4599,4.63607
-336,442,-1.4054,-2.64313,0,0,0,0,0,0,0,-1,888,582,-1.40539,2.64315
-329,442,-0.952576,-2.76923,0,0,0,0,0,0,0,-1,895,582,-0.952571,2.7692
-322,442,-0.972534,-2.63208,0,0,0,0,0,0,0,-1,902,582,-0.972512,2.6321
-315,442,-0.445557,-2.89764,0,0,0,0,0,0,0,-1,909,582,-0.445582,2.89765
-308,442,-0.654175,-3.07831,0,0,0,0,0,0,0,-1,916,582,-0.654145,3.07832
-301,442,-1.37427,-2.41455,0,0,0,0,0,0,0,-1,923,582,-1.37425,2.41453
-294,442,-2.99963,-2.07855,0,0,0,0,0,0,0,-1,930,582,-2.99964,2.07857
-287,442,3.91034,-10.1913,0,0,0,0,0,0,0,-1,937,582,3.91034,10.1913
-280,442,0,0,0,0,0,0,0,0,0,-1,944,582,0,0
-273,442,0,0,0,0,0,0,0,0,0,-1,951,582,0,0
-266,442,0,0,0,0,0,0,0,0,0,-1,958,582,0,0
-259,442,0,0,0,0,0,0,0,0,0,-1,965,582,0,0
-252,442,0,0,0,0,0,0,0,0,0,-1,972,582,0,0
-245,442,0,0,0,0,0,0,0,0,0,-1,979,582,0,0
-238,442,0,0,0,0,0,0,0,0,0,-1,986,582,0,0
-231,442,0,0,0,0,0,0,0,0,0,-1,993,582,0,0
-224,442,0,0,0,0,0,0,0,0,0,-1,1000,582,0,0
-217,442,0,0,0,0,0,0,0,0,0,-1,1007,582,0,0
-210,442,0,0,0,0,0,0,0,0,0,-1,1014,582,0,0
-203,442,0,0,0,0,0,0,0,0,0,-1,1021,582,0,0
-196,442,0,0,0,0,0,0,0,0,0,-1,1028,582,0,0
-189,442,0,0,0,0,0,0,0,0,0,-1,1035,582,0,0
-182,442,0,0,0,0,0,0,0,0,0,-1,1042,582,0,0
-175,442,0,0,0,0,0,0,0,0,0,-1,1049,582,0,0
-168,442,0,0,0,0,0,0,0,0,0,-1,1056,582,0,0
-161,442,0,0,0,0,0,0,0,0,0,-1,1063,582,0,0
-154,442,0,0,0,0,0,0,0,0,0,-1,1070,582,0,0
-147,442,0,0,0,0,0,0,0,0,0,-1,1077,582,0,0
-140,442,0,0,0,0,0,0,0,0,0,-1,1084,582,0,0
-133,442,0,0,0,0,0,0,0,0,0,-1,1091,582,0,0
-126,442,0,0,0,0,0,0,0,0,0,-1,1098,582,0,0
-119,442,0,0,0,0,0,0,0,0,0,-1,1105,582,0,0
-112,442,0,0,0,0,0,0,0,0,0,-1,1112,582,0,0
-105,442,0,0,0,0,0,0,0,0,0,-1,1119,582,0,0
-98,442,0,0,0,0,0,0,0,0,0,-1,1126,582,0,0
-91,442,0,0,0,0,0,0,0,0,0,-1,1133,582,0,0
-84,442,0,0,0,0,0,0,0,0,0,-1,1140,582,0,0
-77,442,0,0,0,0,0,0,0,0,0,-1,1147,582,0,0
-70,442,0,0,0,0,0,0,0,0,0,-1,1154,582,0,0
-63,442,0,0,0,0,0,0,0,0,0,-1,1161,582,0,0
-56,442,0,0,0,0,0,0,0,0,0,-1,1168,582,0,0
-49,442,0,0,0,0,0,0,0,0,0,-1,1175,582,0,0
-42,442,0,0,0,0,0,0,0,0,0,-1,1182,582,0,0
-35,442,0,0,0,0,0,0,0,0,0,-1,1189,582,0,0
-28,442,0,0,0,0,0,0,0,0,0,-1,1196,582,0,0
-21,442,0,0,0,0,0,0,0,0,0,-1,1203,582,0,0
-14,442,0,0,0,0,0,0,0,0,0,-1,1210,582,0,0
-7,442,0,0,0,0,0,0,0,0,0,-1,1217,582,0,0
0,442,0,0,0,0,0,0,0,0,0,-1,1224,582,0,0
7,442,0,0,0,0,0,0,0,0,0,-1,1231,582,0,0
14,442,0,0,0,0,0,0,0,0,0,-1,1238,582,0,0
21,442,0,0,0,0,0,0,0,0,0,-1,1245,582,0,0
28,442,0,0,0,0,0,0,0,0,0,-1,1252,582,0,0
35,442,0,0,0,0,0,0,0,0,0,-1,1259,582,0,0
42,442,0,0,0,0,0,0,0,0,0,-1,1266,582,0,0
49,442,0,0,0,0,0,0,0,0,0,-1,1273,582,0,0
56,442,0,0,0,0,0,0,0,0,0,-1,1280,582,0,0
63,442,0,0,0,0,0,0,0,0,0,-1,1287,582,0,0
70,442,0,0,0,0,0,0,0,0,0,-1,1294,582,0,0
77,442,0,0,0,0,0,0,0,0,0,-1,1301,582,0,0
84,442,0,0,0,0,0,0,0,0,0,-1,1308,582,0,0
91,442,0,0,0,0,0,0,0,0,0,-1,1315,582,0,0
98,442,0,0,0,0,0,0,0,0,0,-1,1322,582,0,0
105,442,0,0,0,0,0,0,0,0,0,-1,1329,582,0,0
112,442,0,0,0,0,0,0,0,0,0,-1,1336,582,0,0
119,442,0,0,0,0,0,0,0,0,0,-1,1343,582,0,0
126,442,0,0,0,0,0,0,0,0,0,-1,1350,582,0,0
133,442,0,0,0,0,0,0,0,0,0,-1,1357,582,0,0
140,442,0,0,0,0,0,0,0,0,0,-1,1364,582,0,0
147,442,0,0,0,0,0,0,0,0,0,-1,1371,582,0,0
154,442,0,0,0,0,0,0,0,0,0,-1,1378,582,0,0
161,442,0,0,0,0,0,0,0,0,0,-1,1385,582,0,0
168,442,0,0,0,0,0,0,0,0,0,-1,1392,582,0,0
175,442,0,0,0,0,0,0,0,0,0,-1,1399,582,0,0
182,442,0,0,0,0,0,0,0,0,0,-1,1406,582,0,0
189,442,0,0,0,0,0,0,0,0,0,-1,1413,582,0,0
196,442,0,0,0,0,0,0,0,0,0,-1,1420,582,0,0
203,442,0,0,0,0,0,0,0,0,0,-1,1427,582,0,0
210,442,0,0,0,0,0,0,0,0,0,-1,1434,582,0,0
217,442,0,0,0,0,0,0,0,0,0,-1,1441,582,0,0
224,442,0,0,0,0,0,0,0,0,0,-1,1448,582,0,0
231,442,0,0,0,0,0,0,0,0,0,-1,1455,582,0,0
238,442,0,0,0,0,0,0,0,0,0,-1,1462,582,0,0
245,442,0,0,0,0,0,0,0,0,0,-1,1469,582,0,0
252,442,0,0,0,0,0,0,0,0,0,-1,1476,582,0,0
259,442,0,0,0,0,0,0,0,0,0,-1,1483,582,0,0
266,442,0,0,0,0,0,0,0,0,0,-1,1490,582,0,0
273,442,0,0,0,0,0,0,0,0,0,-1,1497,582,0,0
280,442,0,0,0,0,0,0,0,0,0,-1,1504,582,0,0
287,442,0,0,0,0,0,0,0,0,0,-1,1511,582,0,0
294,442,0,0,0,0,0,0,0,0,0,-1,1518,582,0,0
301,442,0,0,0,0,0,0,0,0,0,-1,1525,582,0,0
308,442,0,0,0,0,0,0,0,0,0,-1,1532,582,0,0
315,442,0,0,0,0,0,0,0,0,0,-1,1539,582,0,0
322,442,0,0,0,0,0,0,0,0,0,-1,1546,582,0,0
329,442,0,0,0,0,0,0,0,0,0,-1,1553,582,0,0
336,442,0,0,0,0,0,0,0,0,0,-1,1560,582,0,0
343,442,0,0,0,0,0,0,0,0,0,-1,1567,582,0,0
350,442,0,0,0,0,0,0,0,0,0,-1,1574,582,0,0
357,442,0,0,0,0,0,0,0,0,0,-1,1581,582,0,0
364,442,0,0,0,0,0,0,0,0,0,-1,1588,582,0,0
371,442,0,0,0,0,0,0,0,0,0,-1,1595,582,0,0
378,442,0,0,0,0,0,0,0,0,0,-1,1602,582,0,0
385,442,0,0,0,0,0,0,0,0,0,-1,1609,582,0,0
392,442,0,0,0,0,0,0,0,0,0,-1,1616,582,0,0
399,442,0,0,0,0,0,0,0,0,0,-1,1623,582,0,0
406,442,17.6321,4.08295,0,0,0,0,0,0,0,-1,1630,582,17.6321,-4.08293
413,442,25.4768,2.74445,0,0,0,0,0,0,0,-1,1637,582,25.4768,-2.74444
420,442,22.7478,1.55011,0,0,0,0,0,0,0,-1,1644,582,22.7478,-1.55009
427,442,23.2969,-0.456787,0,0,0,0,0,0,0,-1,1651,582,23.2968,0.456769
434,442,23.9512,-2.49365,0,0,0,0,0,0,0,-1,1658,582,23.9512,2.49366
441,442,24.8251,-4.43958,0,0,0,0,0,0,0,-1,1665,582,24.8251,4.43956
448,442,4.7749,-5.88562,0,0,0,0,0,0,0,-1,1672,582,4.7749,5.8856
455,442,4.87024,-4.60687,0,0,0,0,0,0,0,-1,1679,582,4.87019,4.60686
462,442,5.02307,-3.72821,0,0,0,0,0,0,0,-1,1686,582,5.02311,3.7282
469,442,5.12976,-2.98834,0,0,0,0,0,0,0,-1,1693,582,5.12971,2.98834
476,442,5.4624,1.76947,0,0,0,0,0,0,0,-1,1700,582,5.46234,-1.76944
483,442,5.98486,1.87042,0,0,0,0,0,0,0,-1,1707,582,5.98492,-1.87045
490,442,5.04407,-2.35834,0,0,0,0,0,0,0,-1,1714,582,5.04411,2.35837
497,442,6.20984,-3.07831,0,0,0,0,0,0,0,-1,1721,582,6.2098,3.07833
504,442,20.9276,-19.7709,0,0,0,0,0,0,0,-1,1728,582,20.9276,19.771
511,442,23.2588,-20.913,0,0,0,0,0,0,0,-1,1735,582,23.2588,20.913
518,442,23.2686,-20.0759,0.00312078,0.00156086,0.00168423,0.00419688,0.000484759,0.568553,0.00265115,0.0143448,1742,582,23.2685,20.076
525,442,23.2018,-19.317,0.00266327,0.00130734,0.00153599,0.00366427,0.000306343,0.577565,0.0023474,0.0108922,1749,582,23.2018,19.317
532,442,23.1549,-18.5434,0.00222802,0.001179,0.00141097,0.00320882,0.000198197,0.607445,0.0020763,0.0118613,1756,582,23.1549,18.5434
539,442,23.1268,-17.7427,0.0018798,0.00121671,0.00134248,0.00293107,0.000165442,0.664337,0.0019013,0.0142171,1763,582,23.1269,17.7427
546,442,23.0983,-16.9598,0.0015827,0.00137674,0.0012899,0.00277372,0.000185722,0.745564,0.00179045,0.018384,1770,582,23.0982,16.9599
553,442,23.0394,-16.194,0.00127889,0.00167766,0.00129471,0.00278824,0.000168305,0.861797,0.00180534,0.0178867,1777,582,23.0395,16.194
560,442,23.036,-15.4017,0.00102632,0.00208317,0.00140051,0.00305163,5.78648e-05,0.965795,0.00201541,0.0146431,1784,582,23.036,15.4017
567,442,22.9642,-14.6186,0.000914808,0.00269635,0.00166686,0.00369552,-8.43639e-05,1.03079,0.00249228,0.0103429,1791,582,22.9642,14.6186
574,442,22.9401,-13.8367,0.000830605,0.0034432,0.00199084,0.00451805,-0.000244245,1.07574,0.00309666,0.0122321,1798,582,22.9401,13.8366
581,442,22.976,-12.9594,0.000864697,0.00440278,0.00257582,0.00575854,-0.000491063,1.0863,0.00401274,0.027201,1805,582,22.9759,12.9594
588,442,23.0962,-12.1649,0,0,0,0,0,0,0,-1,1812,582,23.0962,12.1649
595,442,16.27,-6.47083,0,0,0,0,0,0,0,-1,1819,582,16.27,6.47082
602,442,16.2213,-4.49225,0,0,0,0,0,0,0,-1,1826,582,16.2213,4.49223
609,442,12.761,2.97223,0,0,0,0,0,0,0,-1,1833,582,12.761,-2.97221
616,442,9.78345,-0.103394,0,0,0,0,0,0,0,-1,1840,582,9.78341,0.103424
623,442,9.23828,0.326721,0,0,0,0,0,0,0,-1,1847,582,9.23829,-0.326727
630,442,7.74304,2.3924,0,0,0,0,0,0,0,-1,1854,582,7.7431,-2.39238
637,442,5.87805,1.84027,0,0,0,0,0,0,0,-1,1861,582,5.87807,-1.84025
644,442,0,0,0,0,0,0,0,0,0,-1,1868,582,0,0
651,442,0,0,0,0,0,0,0,0,0,-1,1875,582,0,0
658,442,0,0,0,0,0,0,0,0,0,-1,1882,582,0,0
665,442,0,0,0,0,0,0,0,0,0,-1,1889,582,0,0
672,442,0,0,0,0,0,0,0,0,0,-1,1896,582,0,0
679,442,0,0,0,0,0,0,0,0,0,-1,1903,582,0,0
686,442,0,0,0,0,0,0,0,0,0,-1,1910,582,0,0
693,442,0,0,0,0,0,0,0,0,0,-1,1917,582,0,0
700,442,0,0,0,0,0,0,0,0,0,-1,1924,582,0,0
707,442,0,0,0,0,0,0,0,0,0,-1,1931,582,0,0
714,442,0,0,0,0,0,0,0,0,0,-1,1938,582,0,0
721,442,0,0,0,0,0,0,0,0,0,-1,1945,582,0,0
728,442,0,0,0,0,0,0,0,0,0,-1,1952,582,0,0
735,442,0,0,0,0,0,0,0,0,0,-1,1959,582,0,0
742,442,0,0,0,0,0,0,0,0,0,-1,1966,582,0,0
749,442,0,0,0,0,0,0,0,0,0,-1,1973,582,0,0
756,442,0,0,0,0,0,0,0,0,0,-1,1980,582,0,0
763,442,0,0,0,0,0,0,0,0,0,-1,1987,582,0,0
770,442,0,0,0,0,0,0,0,0,0,-1,1994,582,0,0
777,442,0,0,0,0,0,0,0,0,0,-1,2001,582,0,0
784,442,0,0,0,0,0,0,0,0,0,-1,2008,582,0,0
791,442,0,0,0,0,0,0,0,0,0,-1,2015,582,0,0
798,442,0,0,0,0,0,0,0,0,0,-1,2022,582,0,0
805,442,0,0,0,0,0,0,0,0,0,-1,2029,582,0,0
812,442,0,0,0,0,0,0,0,0,0,-1,2036,582,0,0
-700,435,0,0,0,0,0,0,0,0,0,-1,524,589,0,0
-693,435,0,0,0,0,0,0,0,0,0,-1,531,589,0,0
-686,435,0,0,0,0,0,0,0,0,0,-1,538,589,0,0
-679,435,0,0,0,0,0,0,0,0,0,-1,545,589,0,0
-672,435,0,0,0,0,0,0,0,0,0,-1,552,589,0,0
-665,435,0,0,0,0,0,0,0,0,0,-1,559,589,0,0
-658,435,0,0,0,0,0,0,0,0,0,-1,566,589,0,0
-651,435,0,0,0,0,0,0,0,0,0,-1,573,589,0,0
-644,435,0,0,0,0,0,0,0,0,0,-1,580,589,0,0
-637,435,0,0,0,0,0,0,0,0,0,-1,587,589,0,0
-630,435,0,0,0,0,0,0,0,0,0,-1,594,589,0,0
-623,435,0,0,0,0,0,0,0,0,0,-1,601,589,0,0
-616,435,0,0,0,0,0,0,0,0,0,-1,608,589,0,0
-609,435,0,0,0,0,0,0,0,0,0,-1,615,589,0,0
-602,435,0,0,0,0,0,0,0,0,0,-1,622,589,0,0
-595,435,0,0,0,0,0,0,0,0,0,-1,629,589,0,0
-588,435,0,0,0,0,0,0,0,0,0,-1,636,589,0,0
-581,435,0,0,0,0,0,0,0,0,0,-1,643,589,0,0
-574,435,0,0,0,0,0,0,0,0,0,-1,650,589,0,0
-567,435,0,0,0,0,0,0,0,0,0,-1,657,589,0,0
-560,435,0,0,0,0,0,0,0,0,0,-1,664,589,0,0
-553,435,0,0,0,0,0,0,0,0,0,-1,671,589,0,0
-546,435,0,0,0,0,0,0,0,0,0,-1,678,589,0,0
-539,435,0,0,0,0,0,0,0,0,0,-1,685,589,0,0
-532,435,0,0,0,0,0,0,0,0,0,-1,692,589,0,0
-525,435,-10.0776,10.0547,0,0,0,0,0,0,0,-1,699,589,-10.0776,-10.0547
-518,435,-1.83093,-5.82367,0,0,0,0,0,0,0,-1,706,589,-1.83093,5.8237
-511,435,-2.45154,-5.33118,0,0,0,0,0,0,0,-1,713,589,-2.45151,5.33115
-504,435,-3.07208,-4.83862,0,0,0,0,0,0,0,-1,720,589,-3.0721,4.8386
-497,435,-6.31012,-5.84698,0,0,0,0,0,0,0,-1,727,589,-6.31012,5.84697
-490,435,-5.81903,-0.458679,0,0,0,0,0,0,0,-1,734,589,-5.81902,0.458684
-483,435,-6.96503,-3.01624,0,0,0,0,0,0,0,-1,741,589,-6.96505,3.01623
-476,435,-10.5842,-11.2869,0,0,0,0,0,0,0,-1,748,589,-10.5842,11.2869
-469,435,-10.1592,-12.1802,0,0,0,0,0,0,0,-1,755,589,-10.1592,12.1802
-462,435,-10.1209,-12.9899,0,0,0,0,0,0,0,-1,762,589,-10.1209,12.9899
-455,435,-10.1635,-14.0421,-0.00243576,0.00450094,-0.000153641,0.00450434,-0.00243916,-1.54866,0.00406751,0.0261936,769,589,-10.1635,14.042
-448,435,-10.1503,-14.9072,-0.0016176,0.00383055,-0.000386828,0.00385788,-0.00164493,-1.50027,0.00326156,0.0139664,776,589,-10.1503,14.9072
-441,435,-10.1821,-15.6748,-0.000900832,0.00322079,-0.000548255,0.00329247,-0.000972514,-1.44079,0.00258097,0.0116273,783,589,-10.1821,15.6748
-434,435,-10.2427,-16.4492,-0.000313631,0.00261919,-0.000615149,0.00274299,-0.00043743,-1.3722,0.00199055,0.0118032,790,589,-10.2428,16.4492
-427,435,-10.2883,-17.2289,0.000201502,0.00209302,-0.000645839,0.0022925,2.02376e-06,-1.27122,0.00152766,0.0102071,797,589,-10.2883,17.2289
-420,435,-10.294,-17.9776,0.000710603,0.00163428,-0.000697734,0.00200918,0.000335706,-1.07775,0.00124276,0.0109615,804,589,-10.294,17.9776
-413,435,-10.3212,-18.7347,0.00112647,0.0011531,-0.000634287,0.00177421,0.00050536,-0.795893,0.00105548,0.0112953,811,589,-10.3212,18.7347
-406,435,-10.3647,-19.4921,0.00151339,0.000685625,-0.000536514,0.00177711,0.000421904,-0.456861,0.00107214,0.0110584,818,589,-10.3648,19.4921
-399,435,-10.4281,-20.2408,0.00202911,0.000354471,-0.000546761,0.00219182,0.000191765,-0.289237,0.00140167,0.00938981,825,589,-10.4281,20.2408
-392,435,-10.4828,-20.9873,0.00261938,6.73287e-05,-0.000582615,0.00274609,-5.93864e-05,-0.214159,0.00185084,0.0108778,832,589,-10.4829,20.9873
-385,435,-10.4814,-21.7104,0.00323969,-4.91728e-05,-0.000688285,0.00337792,-0.000187405,-0.198199,0.00231694,0.0222542,839,589,-10.4814,21.7104
-378,435,-10.3914,-22.4451,0,0,0,0,0,0,0,-1,846,589,-10.3914,22.4452
-371,435,-10.247,-21.7153,0,0,0,0,0,0,0,-1,853,589,-10.247,21.7153
-364,435,-5.62848,-11.5937,0,0,0,0,0,0,0,-1,860,589,-5.62847,11.5937
-357,435,-5.57343,-10.9666,0,0,0,0,0,0,0,-1,867,589,-5.57342,10.9666
-350,435,-0.86676,-3.69836,0,0,0,0,0,0,0,-1,874,589,-0.866784,3.69834
-343,435,-1.60706,-2.36835,0,0,0,0,0,0,0,-1,881,589,-1.60706,2.36838
-336,435,-2.07263,-1.94012,0,0,0,0,0,0,0,-1,888,589,-2.07265,1.94014
-329,435,-2.55963,-1.5517,0,0,0,0,0,0,0,-1,895,589,-2.5596,1.55168
-322,435,-3.08545,-1.55255,0,0,0,0,0,0,0,-1,902,589,-3.08544,1.55254
-315,435,-0.404297,-2.63763,0,0,0,0,0,0,0,-1,909,589,-0.404276,2.63761
-308,435,-1.70056,-1.90369,0,0,0,0,0,0,0,-1,916,589,-1.70056,1.90367
-301,435,-1.19391,-2.41632,0,0,0,0,0,0,0,-1,923,589,-1.1939,2.41635
-294,435,3.7973,-9.87396,0,0,0,0,0,0,0,-1,930,589,3.79732,9.87399
-287,435,0,0,0,0,0,0,0,0,0,-1,937,589,0,0
-280,435,0,0,0,0,0,0,0,0,0,-1,944,589,0,0
-273,435,0,0,0,0,0,0,0,0,0,-1,951,589,0,0
-266,435,0,0,0,0,0,0,0,0,0,-1,958,589,0,0
-259,435,0,0,0,0,0,0,0,0,0,-1,965,589,0,0
-252,435,0,0,0,0,0,0,0,0,0,-1,972,589,0,0
-245,435,0,0,0,0,0,0,0,0,0,-1,979,589,0,0
-238,435,0,0,0,0,0,0,0,0,0,-1,986,589,0,0
-231,435,0,0,0,0,0,0,0,0,0,-1,993,589,0,0
-224,435,0,0,0,0,0,0,0,0,0,-1,1000,589,0,0
-217,435,0,0,0,0,0,0,0,0,0,-1,1007,589,0,0
-210,435,0,0,0,0,0,0,0,0,0,-1,1014,589,0,0
-203,435,0,0,0,0,0,0,0,0,0,-1,1021,589,0,0
-196,435,0,0,0,0,0,0,0,0,0,-1,1028,589,0,0
-189,435,0,0,0,0,0,0,0,0,0,-1,1035,589,0,0
-182,435,0,0,0,0,0,0,0,0,0,-1,1042,589,0,0
-175,435,0,0,0,0,0,0,0,0,0,-1,1049,589,0,0
-168,435,0,0,0,0,0,0,0,0,0,-1,1056,589,0,0
-161,435,0,0,0,0,0,0,0,0,0,-1,1063,589,0,0
-154,435,0,0,0,0,0,0,0,0,0,-1,1070,589,0,0
-147,435,0,0,0,0,0,0,0,0,0,-1,1077,589,0,0
-140,435,0,0,0,0,0,0,0,0,0,-1,1084,589,0,0
-133,435,0,0,0,0,0,0,0,0,0,-1,1091,589,0,0
-126,435,0,0,0,0,0,0,0,0,0,-1,1098,589,0,0
-119,435,0,0,0,0,0,0,0,0,0,-1,1105,589,0,0
-112,435,0,0,0,0,0,0,0,0,0,-1,1112,589,0,0
-105,435,0,0,0,0,0,0,0,0,0,-1,1119,589,0,0
-98,435,0,0,0,0,0,0,0,0,0,-1,1126,589,0,0
-91,435,0,0,0,0,0,0,0,0,0,-1,1133,589,0,0
-84,435,0,0,0,0,0,0,0,0,0,-1,1140,589,0,0
-77,435,0,0,0,0,0,0,0,0,0,-1,1147,589,0,0
-70,435,0,0,0,0,0,0,0,0,0,-1,1154,589,0,0
-63,435,0,0,0,0,0,0,0,0,0,-1,1161,589,0,0
-56,435,0,0,0,0,0,0,0,0,0,-1,1168,589,0,0
-49,435,0,0,0,0,0,0,0,0,0,-1,1175,589,0,0
-42,435,0,0,0,0,0,0,0,0,0,-1,1182,589,0,0
-35,435,0,0,0,0,0,0,0,0,0,-1,1189,589,0,0
-28,435,0,0,0,0,0,0,0,0,0,-1,1196,589,0,0
-21,435,0,0,0,0,0,0,0,0,0,-1,1203,589,0,0
-14,435,0,0,0,0,0,0,0,0,0,-1,1210,589,0,0
-7,435,0,0,0,0,0,0,0,0,0,-1,1217,589,0,0
0,435,0,0,0,0,0,0,0,0,0,-1,1224,589,0,0
7,435,0,0,0,0,0,0,0,0,0,-1,1231,589,0,0
14,435,0,0,0,0,0,0,0,0,0,-1,1238,589,0,0
21,435,0,0,0,0,0,0,0,0,0,-1,1245,589,0,0
28,435,0,0,0,0,0,0,0,0,0,-1,1252,589,0,0
35,435,0,0,0,0,0,0,0,0,0,-1,1259,589,0,0
42,435,0,0,0,0,0,0,0,0,0,-1,1266,589,0,0
49,435,0,0,0,0,0,0,0,0,0,-1,1273,589,0,0
56,435,0,0,0,0,0,0,0,0,0,-1,1280,589,0,0
63,435,0,0,0,0,0,0,0,0,0,-1,1287,589,0,0
70,435,0,0,0,0,0,0,0,0,0,-1,1294,589,0,0
77,435,0,0,0,0,0,0,0,0,0,-1,1301,589,0,0
84,435,0,0,0,0,0,0,0,0,0,-1,1308,589,0,0
91,435,0,0,0,0,0,0,0,0,0,-1,1315,589,0,0
98,435,0,0,0,0,0,0,0,0,0,-1,1322,589,0,0
105,435,0,0,0,0,0,0,0,0,0,-1,1329,589,0,0
112,435,0,0,0,0,0,0,0,0,0,-1,1336,589,0,0
119,435,0,0,0,0,0,0,0,0,0,-1,1343,589,0,0
126,435,0,0,0,0,0,0,0,0,0,-1,1350,589,0,0
133,435,0,0,0,0,0,0,0,0,0,-1,1357,589,0,0
140,435,0,0,0,0,0,0,0,0,0,-1,1364,589,0,0
147,435,0,0,0,0,0,0,0,0,0,-1,1371,589,0,0
154,435,0,0,0,0,0,0,0,0,0,-1,1378,589,0,0
161,435,0,0,0,0,0,0,0,0,0,-1,1385,589,0,0
168,435,0,0,0,0,0,0,0,0,0,-1,1392,589,0,0
175,435,0,0,0,0,0,0,0,0,0,-1,1399,589,0,0
182,435,0,0,0,0,0,0,0,0,0,-1,1406,589,0,0
189,435,0,0,0,0,0,0,0,0,0,-1,1413,589,0,0
196,435,0,0,0,0,0,0,0,0,0,-1,1420,589,0,0
203,435,0,0,0,0,0,0,0,0,0,-1,1427,589,0,0
210,435,0,0,0,0,0,0,0,0,0,-1,1434,589,0,0
217,435,0,0,0,0,0,0,0,0,0,-1,1441,589,0,0
224,435,0,0,0,0,0,0,0,0,0,-1,1448,589,0,0
231,435,0,0,0,0,0,0,0,0,0,-1,1455,589,0,0
238,435,0,0,0,0,0,0,0,0,0,-1,1462,589,0,0
245,435,0,0,0,0,0,0,0,0,0,-1,1469,589,0,0
252,435,0,0,0,0,0,0,0,0,0,-1,1476,589,0,0
259,435,0,0,0,0,0,0,0,0,0,-1,1483,589,0,0
266,435,0,0,0,0,0,0,0,0,0,-1,1490,589,0,0
273,435,0,0,0,0,0,0,0,0,0,-1,1497,589,0,0
280,435,0,0,0,0,0,0,0,0,0,-1,1504,589,0,0
287,435,0,0,0,0,0,0,0,0,0,-1,1511,589,0,0
294,435,0,0,0,0,0,0,0,0,0,-1,1518,589,0,0
301,435,0,0,0,0,0,0,0,0,0,-1,1525,589,0,0
308,435,0,0,0,0,0,0,0,0,0,-1,1532,589,0,0
315,435,0,0,0,0,0,0,0,0,0,-1,1539,589,0,0
322,435,0,0,0,0,0,0,0,0,0,-1,1546,589,0,0
329,435,0,0,0,0,0,0,0,0,0,-1,1553,589,0,0
336,435,0,0,0,0,0,0,0,0,0,-1,1560,589,0,0
343,435,0,0,0,0,0,0,0,0,0,-1,1567,589,0,0
350,435,0,0,0,0,0,0,0,0,0,-1,1574,589,0,0
357,435,0,0,0,0,0,0,0,0,0,-1,1581,589,0,0
364,435,0,0,0,0,0,0,0,0,0,-1,1588,589,0,0
371,435,0,0,0,0,0,0,0,0,0,-1,1595,589,0,0
378,435,0,0,0,0,0,0,0,0,0,-1,1602,589,0,0
385,435,0,0,0,0,0,0,0,0,0,-1,1609,589,0,0
392,435,0,0,0,0,0,0,0,0,0,-1,1616,589,0,0
399,435,0,0,0,0,0,0,0,0,0,-1,1623,589,0,0
406,435,0,0,0,0,0,0,0,0,0,-1,1630,589,0,0
413,435,20.4565,3.49835,0,0,0,0,0,0,0,-1,1637,589,20.4565,-3.49836
420,435,21.4015,1.49609,0,0,0,0,0,0,0,-1,1644,589,21.4015,-1.49609
427,435,22.0464,-0.373962,0,0,0,0,0,0,0,-1,1651,589,22.0464,0.373972
434,435,22.1863,-1.54407,0,0,0,0,0,0,0,-1,1658,589,22.1862,1.54405
441,435,22.3992,-2.38287,0,0,0,0,0,0,0,-1,1665,589,22.3992,2.38289
448,435,7.4585,-0.00292969,0,0,0,0,0,0,0,-1,1672,589,7.45848,0.00294131
455,435,5.49915,-5.047,0,0,0,0,0,0,0,-1,1679,589,5.49914,5.04703
462,435,5.60669,-4.71466,0,0,0,0,0,0,0,-1,1686,589,5.60675,4.71469
469,435,5.87708,1.22351,0,0,0,0,0,0,0,-1,1693,589,5.87703,-1.22351
476,435,6.14136,1.37714,0,0,0,0,0,0,0,-1,1700,589,6.14138,-1.37712
483,435,6.49243,1.36169,0,0,0,0,0,0,0,-1,1707,589,6.49242,-1.36171
490,435,4.38391,-1.36218,0,0,0,0,0,0,0,-1,1714,589,4.38389,1.3622
497,435,7.23499,-3.64551,0,0,0,0,0,0,0,-1,1721,589,7.23495,3.64551
504,435,7.31189,-3.75909,0,0,0,0,0,0,0,-1,1728,589,7.31184,3.75911
511,435,23.8997,-20.972,0,0,0,0,0,0,0,-1,1735,589,23.8997,20.9721
518,435,24.062,-20.0663,0.00401505,0.00195806,0.00207526,0.0053027,0.000670416,0.555338,0.0033342,0.0329968,1742,589,24.062,20.0663
525,435,23.9833,-19.2665,0.00340267,0.00151457,0.00180802,0.00449827,0.000418968,0.544794,0.0028694,0.0138712,1749,589,23.9833,19.2665
532,435,23.963,-18.4711,0.00283457,0.00122898,0.00156483,0.00379052,0.00027303,0.548393,0.0024411,0.0156537,1756,589,23.963,18.4711
539,435,23.9465,-17.6758,0.00239972,0.00118694,0.00141196,0.00332999,0.000256667,0.582573,0.00213958,0.0165312,1763,589,23.9465,17.6758
546,435,23.891,-16.9254,0.00202903,0.00123093,0.00128287,0.00297348,0.000286481,0.634613,0.00189406,0.0160107,1770,589,23.891,16.9254
553,435,23.8406,-16.1785,0.00165833,0.00142916,0.00122063,0.00276974,0.000317753,0.738599,0.00175022,0.0118189,1777,589,23.8406,16.1785
560,435,23.8008,-15.397,0.00133848,0.00173096,0.00126016,0.00281007,0.000259373,0.862642,0.00179319,0.0101119,1784,589,23.8008,15.397
567,435,23.761,-14.5878,0.00116045,0.00223748,0.00147308,0.00326739,0.000130532,0.960637,0.00213608,0.00900706,1791,589,23.761,14.5878
574,435,23.7261,-13.819,0.00106961,0.00288078,0.00176052,0.00395497,-4.57955e-06,1.02294,0.00263817,0.0097086,1798,589,23.7261,13.819
581,435,23.692,-13.0442,0.00113321,0.00370621,0.0022753,0.00503353,-0.00019411,1.0427,0.00342222,0.0171436,1805,589,23.692,13.0442
588,435,23.6541,-12.2853,0.00147494,0.00477053,0.00305218,0.00659132,-0.000345846,1.03292,0.00451391,0.0469723,1812,589,23.6541,12.2853
595,435,23.6779,-11.2236,0,0,0,0,0,0,0,-1,1819,589,23.6779,11.2236
602,435,16.8671,-6.39026,0,0,0,0,0,0,0,-1,1826,589,16.867,6.39024
609,435,15.2611,-3.42242,0,0,0,0,0,0,0,-1,1833,589,15.2611,3.42242
616,435,5.05151,-2.75269,0,0,0,0,0,0,0,-1,1840,589,5.05157,2.7527
623,435,11.7588,3.9704,0,0,0,0,0,0,0,-1,1847,589,11.7587,-3.97043
630,435,4.72742,-0.87561,0,0,0,0,0,0,0,-1,1854,589,4.7274,0.875636
637,435,5.05286,1.48792,0,0,0,0,0,0,0,-1,1861,589,5.05291,-1.48792
644,435,0,0,0,0,0,0,0,0,0,-1,1868,589,0,0
651,435,0,0,0,0,0,0,0,0,0,-1,1875,589,0,0
658,435,0,0,0,0,0,0,0,0,0,-1,1882,589,0,0
665,435,0,0,0,0,0,0,0,0,0,-1,1889,589,0,0
672,435,0,0,0,0,0,0,0,0,0,-1,1896,589,0,0
679,435,0,0,0,0,0,0,0,0,0,-1,1903,589,0,0
686,435,0,0,0,0,0,0,0,0,0,-1,1910,589,0,0
693,435,0,0,0,0,0,0,0,0,0,-1,1917,589,0,0
700,435,0,0,0,0,0,0,0,0,0,-1,1924,589,0,0
707,435,0,0,0,0,0,0,0,0,0,-1,1931,589,0,0
714,435,0,0,0,0,0,0,0,0,0,-1,1938,589,0,0
721,435,0,0,0,0,0,0,0,0,0,-1,1945,589,0,0
728,435,0,0,0,0,0,0,0,0,0,-1,1952,589,0,0
735,435,0,0,0,0,0,0,0,0,0,-1,1959,589,0,0
742,435,0,0,0,0,0,0,0,0,0,-1,1966,589,0,0
749,435,0,0,0,0,0,0,0,0,0,-1,1973,589,0,0
756,435,0,0,0,0,0,0,0,0,0,-1,1980,589,0,0
763,435,0,0,0,0,0,0,0,0,0,-1,1987,589,0,0
770,435,0,0,0,0,0,0,0,0,0,-1,1994,589,0,0
777,435,0,0,0,0,0,0,0,0,0,-1,2001,589,0,0
784,435,0,0,0,0,0,0,0,0,0,-1,2008,589,0,0
791,435,0,0,0,0,0,0,0,0,0,-1,2015,589,0,0
798,435,0,0,0,0,0,0,0,0,0,-1,2022,589,0,0
805,435,0,0,0,0,0,0,0,0,0,-1,2029,589,0,0
812,435,0,0,0,0,0,0,0,0,0,-1,2036,589,0,0
-700,428,0,0,0,0,0,0,0,0,0,-1,524,596,0,0
-693,428,0,0,0,0,0,0,0,0,0,-1,531,596,0,0
-686,428,0,0,0,0,0,0,0,0,0,-1,538,596,0,0
-679,428,0,0,0,0,0,0,0,0,0,-1,545,596,0,0
-672,428,0,0,0,0,0,0,0,0,0,-1,552,596,0,0
-665,428,0,0,0,0,0,0,0,0,0,-1,559,596,0,0
-658,428,0,0,0,0,0,0,0,0,0,-1,566,596,0,0
-651,428,0,0,0,0,0,0,0,0,0,-1,573,596,0,0
-644,428,0,0,0,0,0,0,0,0,0,-1,580,596,0,0
-637,428,0,0,0,0,0,0,0,0,0,-1,587,596,0,0
-630,428,0,0,0,0,0,0,0,0,0,-1,594,596,0,0
-623,428,0,0,0,0,0,0,0,0,0,-1,601,596,0,0
-616,428,0,0,0,0,0,0,0,0,0,-1,608,596,0,0
-609,428,0,0,0,0,0,0,0,0,0,-1,615,596,0,0
-602,428,0,0,0,0,0,0,0,0,0,-1,622,596,0,0
-595,428,0,0,0,0,0,0,0,0,0,-1,629,596,0,0
-588,428,0,0,0,0,0,0,0,0,0,-1,636,596,0,0
-581,428,0,0,0,0,0,0,0,0,0,-1,643,596,0,0
-574,428,0,0,0,0,0,0,0,0,0,-1,650,596,0,0
-567,428,0,0,0,0,0,0,0,0,0,-1,657,596,0,0
-560,428,0,0,0,0,0,0,0,0,0,-1,664,596,0,0
-553,428,0,0,0,0,0,0,0,0,0,-1,671,596,0,0
-546,428,0,0,0,0,0,0,0,0,0,-1,678,596,0,0
-539,428,0,0,0,0,0,0,0,0,0,-1,685,596,0,0
-532,428,0,0,0,0,0,0,0,0,0,-1,692,596,0,0
-525,428,-9.59918,7.58618,0,0,0,0,0,0,0,-1,699,596,-9.59918,-7.5862
-518,428,-2.92285,-4.81854,0,0,0,0,0,0,0,-1,706,596,-2.92285,4.81856
-511,428,-3.68811,-4.79474,0,0,0,0,0,0,0,-1,713,596,-3.68811,4.79474
-504,428,-4.45337,-4.77094,0,0,0,0,0,0,0,-1,720,596,-4.45337,4.77092
-497,428,-2.98108,-3.77502,0,0,0,0,0,0,0,-1,727,596,-2.98106,3.77505
-490,428,-6.39044,-2.80481,0,0,0,0,0,0,0,-1,734,596,-6.39047,2.80483
-483,428,-10.8474,-9.11322,0,0,0,0,0,0,0,-1,741,596,-10.8473,9.11321
-476,428,-10.7895,-11.7001,0,0,0,0,0,0,0,-1,748,596,-10.7895,11.7001
-469,428,-10.6752,-12.45,-0.0038446,0.00414786,0.000991685,0.00426907,-0.00396581,1.44918,0.00475548,0.0325536,755,596,-10.6752,12.45
-462,428,-10.8127,-13.1402,-0.0025969,0.00392468,0.000220715,0.00393214,-0.00260436,1.537,0.00379971,0.0341111,762,596,-10.8127,13.1402
-455,428,-10.9033,-14.0191,-0.00175478,0.00329917,-8.37053e-05,0.00330055,-0.00175616,-1.55424,0.00296454,0.016572,769,596,-10.9033,14.0191
-448,428,-10.9196,-14.8284,-0.00102153,0.0027545,-0.000289629,0.00277659,-0.00104362,-1.49469,0.00227999,0.0117865,776,596,-10.9196,14.8284
-441,428,-10.9519,-15.6119,-0.000397186,0.00225495,-0.00041004,0.0023169,-0.000459134,-1.42085,0.00171821,0.0136719,783,596,-10.9519,15.6119
-434,428,-10.9981,-16.4088,0.000134429,0.00176269,-0.000457117,0.00188224,1.48761e-05,-1.31499,0.0012499,0.00999087,790,596,-10.9981,16.4088
-427,428,-11.0261,-17.1815,0.00061905,0.00135683,-0.000500534,0.00160972,0.000366156,-1.10296,0.000974305,0.0109962,797,596,-11.0261,17.1815
-420,428,-11.0427,-17.9203,0.00109076,0.00101826,-0.00056245,0.00161812,0.000490891,-0.753219,0.000958002,0.0120529,804,596,-11.0427,17.9203
-413,428,-11.0622,-18.6683,0.00147014,0.000682407,-0.000522501,0.0017306,0.000421951,-0.46243,0.00104196,0.0141965,811,596,-11.0622,18.6683
-406,428,-11.1136,-19.4232,0.00184104,0.000409352,-0.000504551,0.00200098,0.000249408,-0.306982,0.00125911,0.0160409,818,596,-11.1136,19.4231
-399,428,-11.1563,-20.1877,0.00236976,0.000242273,-0.000639142,0.002547,6.50272e-05,-0.27052,0.00167675,0.0157073,825,596,-11.1562,20.1877
-392,428,-11.2054,-20.9986,0.0029766,0.000120999,-0.000794868,0.00318295,-8.53448e-05,-0.253989,0.00215098,0.0332279,832,596,-11.2055,20.9986
-385,428,-11.1978,-21.7243,0,0,0,0,0,0,0,-1,839,596,-11.1978,21.7243
-378,428,-10.8172,-20.952,0,0,0,0,0,0,0,-1,846,596,-10.8172,20.952
-371,428,-5.96155,-11.0703,0,0,0,0,0,0,0,-1,853,596,-5.96154,11.0702
-364,428,-6.33643,-10.7223,0,0,0,0,0,0,0,-1,860,596,-6.33645,10.7223
-357,428,-3.20996,-4.70966,0,0,0,0,0,0,0,-1,867,596,-3.20997,4.70965
-350,428,-1.62793,-3.94055,0,0,0,0,0,0,0,-1,874,596,-1.62794,3.94055
-343,428,-0.0567017,-4.80994,0,0,0,0,0,0,0,-1,881,596,-0.0567096,4.80996
-336,428,-3.29175,-1.39569,0,0,0,0,0,0,0,-1,888,596,-3.29172,1.39568
-329,428,-3.71564,-0.791321,0,0,0,0,0,0,0,-1,895,596,-3.71564,0.791299
-322,428,-5.52863,-3.59827,0,0,0,0,0,0,0,-1,902,596,-5.52865,3.59829
-315,428,-4.57172,-1.22052,0,0,0,0,0,0,0,-1,909,596,-4.57171,1.22052
-308,428,-5.60742,-3.40961,0,0,0,0,0,0,0,-1,916,596,-5.60744,3.40959
-301,428,0,0,0,0,0,0,0,0,0,-1,923,596,0,0
-294,428,0,0,0,0,0,0,0,0,0,-1,930,596,0,0
-287,428,0,0,0,0,0,0,0,0,0,-1,937,596,0,0
-280,428,0,0,0,0,0,0,0,0,0,-1,944,596,0,0
-273,428,0,0,0,0,0,0,0,0,0,-1,951,596,0,0
-266,428,0,0,0,0,0,0,0,0,0,-1,958,596,0,0
-259,428,0,0,0,0,0,0,0,0,0,-1,965,596,0,0
-252,428,0,0,0,0,0,0,0,0,0,-1,972,596,0,0
-245,428,0,0,0,0,0,0,0,0,0,-1,979,596,0,0
-238,428,0,0,0,0,0,0,0,0,0,-1,986,596,0,0
-231,428,0,0,0,0,0,0,0,0,0,-1,993,596,0,0
-224,428,0,0,0,0,0,0,0,0,0,-1,1000,596,0,0
-217,428,0,0,0,0,0,0,0,0,0,-1,1007,596,0,0
-210,428,0,0,0,0,0,0,0,0,0,-1,1014,596,0,0
-203,428,0,0,0,0,0,0,0,0,0,-1,1021,596,0,0
-196,428,0,0,0,0,0,0,0,0,0,-1,1028,596,0,0
-189,428,0,0,0,0,0,0,0,0,0,-1,1035,596,0,0
-182,428,0,0,0,0,0,0,0,0,0,-1,1042,596,0,0
-175,428,0,0,0,0,0,0,0,0,0,-1,1049,596,0,0
-168,428,0,0,0,0,0,0,0,0,0,-1,1056,596,0,0
-161,428,0,0,0,0,0,0,0,0,0,-1,1063,596,0,0
-154,428,0,0,0,0,0,0,0,0,0,-1,1070,596,0,0
-147,428,0,0,0,0,0,0,0,0,0,-1,1077,596,0,0
-140,428,0,0,0,0,0,0,0,0,0,-1,1084,596,0,0
-133,428,0,0,0,0,0,0,0,0,0,-1,1091,596,0,0
-126,428,0,0,0,0,0,0,0,0,0,-1,1098,596,0,0
-119,428,0,0,0,0,0,0,0,0,0,-1,1105,596,0,0
-112,428,0,0,0,0,0,0,0,0,0,-1,1112,596,0,0
-105,428,0,0,0,0,0,0,0,0,0,-1,1119,596,0,0
-98,428,0,0,0,0,0,0,0,0,0,-1,1126,596,0,0
-91,428,0,0,0,0,0,0,0,0,0,-1,1133,596,0,0
-84,428,0,0,0,0,0,0,0,0,0,-1,1140,596,0,0
-77,428,0,0,0,0,0,0,0,0,0,-1,1147,596,0,0
-70,428,0,0,0,0,0,0,0,0,0,-1,1154,596,0,0
-63,428,0,0,0,0,0,0,0,0,0,-1,1161,596,0,0
-56,428,0,0,0,0,0,0,0,0,0,-1,1168,596,0,0
-49,428,0,0,0,0,0,0,0,0,0,-1,1175,596,0,0
-42,428,0,0,0,0,0,0,0,0,0,-1,1182,596,0,0
-35,428,0,0,0,0,0,0,0,0,0,-1,1189,596,0,0
-28,428,0,0,0,0,0,0,0,0,0,-1,1196,596,0,0
-21,428,0,0,0,0,0,0,0,0,0,-1,1203,596,0,0
-14,428,0,0,0,0,0,0,0,0,0,-1,1210,596,0,0
-7,428,0,0,0,0,0,0,0,0,0,-1,1217,596,0,0
0,428,0,0,0,0,0,0,0,0,0,-1,1224,596,0,0
7,428,0,0,0,0,0,0,0,0,0,-1,1231,596,0,0
14,428,0,0,0,0,0,0,0,0,0,-1,1238,596,0,0
21,428,0,0,0,0,0,0,0,0,0,-1,1245,596,0,0
28,428,0,0,0,0,0,0,0,0,0,-1,1252,596,0,0
35,428,0,0,0,0,0,0,0,0,0,-1,1259,596,0,0
42,428,0,0,0,0,0,0,0,0,0,-1,1266,596,0,0
49,428,0,0,0,0,0,0,0,0,0,-1,1273,596,0,0
56,428,0,0,0,0,0,0,0,0,0,-1,1280,596,0,0
63,428,0,0,0,0,0,0,0,0,0,-1,1287,596,0,0
70,428,0,0,0,0,0,0,0,0,0,-1,1294,596,0,0
77,428,0,0,0,0,0,0,0,0,0,-1,1301,596,0,0
84,428,0,0,0,0,0,0,0,0,0,-1,1308,596,0,0
91,428,0,0,0,0,0,0,0,0,0,-1,1315,596,0,0
98,428,0,0,0,0,0,0,0,0,0,-1,1322,596,0,0
105,428,0,0,0,0,0,0,0,0,0,-1,1329,596,0,0
112,428,0,0,0,0,0,0,0,0,0,-1,1336,596,0,0
119,428,0,0,0,0,0,0,0,0,0,-1,1343,596,0,0
126,428,0,0,0,0,0,0,0,0,0,-1,1350,596,0,0
133,428,0,0,0,0,0,0,0,0,0,-1,1357,596,0,0
140,428,0,0,0,0,0,0,0,0,0,-1,1364,596,0,0
147,428,0,0,0,0,0,0,0,0,0,-1,1371,596,0,0
154,428,0,0,0,0,0,0,0,0,0,-1,1378,596,0,0
161,428,0,0,0,0,0,0,0,0,0,-1,1385,596,0,0
168,428,0,0,0,0,0,0,0,0,0,-1,1392,596,0,0
175,428,0,0,0,0,0,0,0,0,0,-1,1399,596,0,0
182,428,0,0,0,0,0,0,0,0,0,-1,1406,596,0,0
189,428,0,0,0,0,0,0,0,0,0,-1,1413,596,0,0
196,428,0,0,0,0,0,0,0,0,0,-1,1420,596,0,0
203,428,0,0,0,0,0,0,0,0,0,-1,1427,596,0,0
210,428,0,0,0,0,0,0,0,0,0,-1,1434,596,0,0
217,428,0,0,0,0,0,0,0,0,0,-1,1441,596,0,0
224,428,0,0,0,0,0,0,0,0,0,-1,1448,596,0,0
231,428,0,0,0,0,0,0,0,0,0,-1,1455,596,0,0
238,428,0,0,0,0,0,0,0,0,0,-1,1462,596,0,0
245,428,0,0,0,0,0,0,0,0,0,-1,1469,596,0,0
252,428,0,0,0,0,0,0,0,0,0,-1,1476,596,0,0
259,428,0,0,0,0,0,0,0,0,0,-1,1483,596,0,0
266,428,0,0,0,0,0,0,0,0,0,-1,1490,596,0,0
273,428,0,0,0,0,0,0,0,0,0,-1,1497,596,0,0
280,428,0,0,0,0,0,0,0,0,0,-1,1504,596,0,0
287,428,0,0,0,0,0,0,0,0,0,-1,1511,596,0,0
294,428,0,0,0,0,0,0,0,0,0,-1,1518,596,0,0
301,428,0,0,0,0,0,0,0,0,0,-1,1525,596,0,0
308,428,0,0,0,0,0,0,0,0,0,-1,1532,596,0,0
315,428,0,0,0,0,0,0,0,0,0,-1,1539,596,0,0
322,428,0,0,0,0,0,0,0,0,0,-1,1546,596,0,0
329,428,0,0,0,0,0,0,0,0,0,-1,1553,596,0,0
336,428,0,0,0,0,0,0,0,0,0,-1,1560,596,0,0
343,428,0,0,0,0,0,0,0,0,0,-1,1567,596,0,0
350,428,0,0,0,0,0,0,0,0,0,-1,1574,596,0,0
357,428,0,0,0,0,0,0,0,0,0,-1,1581,596,0,0
364,428,0,0,0,0,0,0,0,0,0,-1,1588,596,0,0
371,428,0,0,0,0,0,0,0,0,0,-1,1595,596,0,0
378,428,0,0,0,0,0,0,0,0,0,-1,1602,596,0,0
385,428,0,0,0,0,0,0,0,0,0,-1,1609,596,0,0
392,428,0,0,0,0,0,0,0,0,0,-1,1616,596,0,0
399,428,0,0,0,0,0,0,0,0,0,-1,1623,596,0,0
406,428,0,0,0,0,0,0,0,0,0,-1,1630,596,0,0
413,428,0,0,0,0,0,0,0,0,0,-1,1637,596,0,0
420,428,19.8469,1.3399,0,0,0,0,0,0,0,-1,1644,596,19.8469,-1.33992
427,428,20.7299,-0.225281,0,0,0,0,0,0,0,-1,1651,596,20.7299,0.225262
434,428,19.8915,-0.583069,0,0,0,0,0,0,0,-1,1658,596,19.8915,0.583075
441,428,8.17993,0.607483,0,0,0,0,0,0,0,-1,1665,596,8.17997,-0.607513
448,428,7.84338,-0.385986,0,0,0,0,0,0,0,-1,1672,596,7.84336,0.385978
455,428,6.64038,2.1123,0,0,0,0,0,0,0,-1,1679,596,6.64037,-2.11229
462,428,4.84106,4.12341,0,0,0,0,0,0,0,-1,1686,596,4.84107,-4.12339
469,428,7.83789,3.10083,0,0,0,0,0,0,0,-1,1693,596,7.83785,-3.10086
476,428,7.61255,1.73956,0,0,0,0,0,0,0,-1,1700,596,7.61252,-1.73958
483,428,7.22766,1.05121,0,0,0,0,0,0,0,-1,1707,596,7.2277,-1.05121
490,428,5.4071,-3.2793,0,0,0,0,0,0,0,-1,1714,596,5.40707,3.27929
497,428,7.84106,-3.65491,0,0,0,0,0,0,0,-1,1721,596,7.84107,3.65491
504,428,6.92139,-2.83356,0,0,0,0,0,0,0,-1,1728,596,6.92137,2.83353
511,428,7.88501,-3.78723,0,0,0,0,0,0,0,-1,1735,596,7.88502,3.78722
518,428,24.7943,-20.1326,0,0,0,0,0,0,0,-1,1742,596,24.7943,20.1326
525,428,24.6771,-19.2937,0.00427687,0.00173552,0.0022947,0.00562922,0.000383173,0.532542,0.00363183,0.0404186,1749,596,24.6771,19.2937
532,428,24.71,-18.3947,0.0035291,0.00129558,0.00183502,0.00456047,0.000264205,0.512046,0.00295618,0.0216301,1756,596,24.71,18.3947
539,428,24.7438,-17.6299,0.00297448,0.00119007,0.00153635,0.0038589,0.000305644,0.522334,0.00247701,0.0222099,1763,596,24.7438,17.6299
546,428,24.6774,-16.9048,0.00250113,0.00111536,0.00129134,0.00327373,0.000342757,0.539164,0.00207768,0.0173259,1770,596,24.6773,16.9048
553,428,24.6172,-16.1427,0.00204652,0.00121664,0.00113821,0.00284307,0.000420094,0.610606,0.00177203,0.0118035,1777,596,24.6171,16.1427
560,428,24.5997,-15.3528,0.00164557,0.00142196,0.00110099,0.00264042,0.000427115,0.734797,0.00163659,0.0121943,1784,596,24.5997,15.3528
567,428,24.5574,-14.5653,0.00138761,0.00182549,0.00125698,0.00288245,0.000330638,0.871622,0.00182145,0.0109734,1791,596,24.5574,14.5653
574,428,24.5205,-13.7957,0.00125784,0.00236545,0.0015115,0.0034214,0.000201882,0.961001,0.00221671,0.0127698,1798,596,24.5205,13.7957
581,428,24.4796,-12.9996,0.001283,0.00305779,0.00197435,0.004335,5.78398e-06,0.996602,0.00288808,0.0119907,1805,596,24.4796,12.9996
588,428,24.4393,-12.1759,0.0015508,0.00401839,0.00270025,0.00575337,-0.000184169,0.999695,0.00389842,0.0184458,1812,596,24.4393,12.1759
595,428,24.3591,-11.3284,0.00194271,0.00515441,0.00356787,0.00746117,-0.000364045,0.996861,0.00509979,0.0312872,1819,596,24.3591,11.3284
602,428,24.4675,-10.42,0,0,0,0,0,0,0,-1,1826,596,24.4675,10.42
609,428,17.2073,-4.82446,0,0,0,0,0,0,0,-1,1833,596,17.2073,4.82447
616,428,15.7817,-3.09558,0,0,0,0,0,0,0,-1,1840,596,15.7817,3.09556
623,428,9.53577,1.12518,0,0,0,0,0,0,0,-1,1847,596,9.5358,-1.1252
630,428,7.07996,6.88562,0,0,0,0,0,0,0,-1,1854,596,7.0799,-6.88565
637,428,3.95435,1.90857,0,0,0,0,0,0,0,-1,1861,596,3.95439,-1.90858
644,428,5.75476,0.888977,0,0,0,0,0,0,0,-1,1868,596,5.75472,-0.888955
651,428,0,0,0,0,0,0,0,0,0,-1,1875,596,0,0
658,428,0,0,0,0,0,0,0,0,0,-1,1882,596,0,0
665,428,0,0,0,0,0,0,0,0,0,-1,1889,596,0,0
672,428,0,0,0,0,0,0,0,0,0,-1,1896,596,0,0
679,428,0,0,0,0,0,0,0,0,0,-1,1903,596,0,0
686,428,0,0,0,0,0,0,0,0,0,-1,1910,596,0,0
693,428,0,0,0,0,0,0,0,0,0,-1,1917,596,0,0
700,428,0,0,0,0,0,0,0,0,0,-1,1924,596,0,0
707,428,0,0,0,0,0,0,0,0,0,-1,1931,596,0,0
714,428,0,0,0,0,0,0,0,0,0,-1,1938,596,0,0
721,428,0,0,0,0,0,0,0,0,0,-1,1945,596,0,0
728,428,0,0,0,0,0,0,0,0,0,-1,1952,596,0,0
735,428,0,0,0,0,0,0,0,0,0,-1,1959,596,0,0
742,428,0,0,0,0,0,0,0,0,0,-1,1966,596,0,0
749,428,0,0,0,0,0,0,0,0,0,-1,1973,596,0,0
756,428,0,0,0,0,0,0,0,0,0,-1,1980,596,0,0
763,428,0,0,0,0,0,0,0,0,0,-1,1987,596,0,0
770,428,0,0,0,0,0,0,0,0,0,-1,1994,596,0,0
777,428,0,0,0,0,0,0,0,0,0,-1,2001,596,0,0
784,428,0,0,0,0,0,0,0,0,0,-1,2008,596,0,0
791,428,0,0,0,0,0,0,0,0,0,-1,2015,596,0,0
798,428,0,0,0,0,0,0,0,0,0,-1,2022,596,0,0
805,428,0,0,0,0,0,0,0,0,0,-1,2029,596,0,0
812,428,0,0,0,0,0,0,0,0,0,-1,2036,596,0,0
-700,421,0,0,0,0,0,0,0,0,0,-1,524,603,0,0
-693,421,0,0,0,0,0,0,0,0,0,-1,531,603,0,0
-686,421,0,0,0,0,0,0,0,0,0,-1,538,603,0,0
-679,421,0,0,0,0,0,0,0,0,0,-1,545,603,0,0
-672,421,0,0,0,0,0,0,0,0,0,-1,552,603,0,0
-665,421,0,0,0,0,0,0,0,0,0,-1,559,603,0,0
-658,421,0,0,0,0,0,0,0,0,0,-1,566,603,0,0
-651,421,0,0,0,0,0,0,0,0,0,-1,573,603,0,0
-644,421,0,0,0,0,0,0,0,0,0,-1,580,603,0,0
-637,421,0,0,0,0,0,0,0,0,0,-1,587,603,0,0
-630,421,0,0,0,0,0,0,0,0,0,-1,594,603,0,0
-623,421,0,0,0,0,0,0,0,0,0,-1,601,603,0,0
-616,421,0,0,0,0,0,0,0,0,0,-1,608,603,0,0
-609,421,0,0,0,0,0,0,0,0,0,-1,615,603,0,0
-602,421,0,0,0,0,0,0,0,0,0,-1,622,603,0,0
-595,421,0,0,0,0,0,0,0,0,0,-1,629,603,0,0
-588,421,0,0,0,0,0,0,0,0,0,-1,636,603,0,0
-581,421,0,0,0,0,0,0,0,0,0,-1,643,603,0,0
-574,421,0,0,0,0,0,0,0,0,0,-1,650,603,0,0
-567,421,0,0,0,0,0,0,0,0,0,-1,657,603,0,0
-560,421,0,0,0,0,0,0,0,0,0,-1,664,603,0,0
-553,421,0,0,0,0,0,0,0,0,0,-1,671,603,0,0
-546,421,0,0,0,0,0,0,0,0,0,-1,678,603,0,0
-539,421,0,0,0,0,0,0,0,0,0,-1,685,603,0,0
-532,421,-8.97382,6.95636,0,0,0,0,0,0,0,-1,692,603,-8.97384,-6.95634
-525,421,-2.11481,-8.04272,0,0,0,0,0,0,0,-1,699,603,-2.11483,8.0427
-518,421,-3.05908,-5.07233,0,0,0,0,0,0,0,-1,706,603,-3.0591,5.07235
-511,421,-4.63525,-4.08447,0,0,0,0,0,0,0,-1,713,603,-4.63524,4.08449
-504,421,-5.17029,-4.94458,0,0,0,0,0,0,0,-1,720,603,-5.17029,4.9446
-497,421,-6.63141,-2.32501,0,0,0,0,0,0,0,-1,727,603,-6.6314,2.32498
-490,421,-6.7616,-4.14783,0,0,0,0,0,0,0,-1,734,603,-6.76159,4.1478
-483,421,-11.2618,-11.1298,0,0,0,0,0,0,0,-1,741,603,-11.2618,11.1298
-476,421,-11.3945,-11.7764,-0.00364306,0.00339447,0.00119488,0.00359181,-0.0038404,1.40712,0.00429179,0.0363527,748,603,-11.3945,11.7764
-469,421,-11.5731,-12.3705,-0.00274954,0.00304783,0.000581763,0.00310563,-0.00280734,1.47176,0.00341531,0.0299695,755,603,-11.5731,12.3705
-462,421,-11.6059,-13.222,-0.00181583,0.00273599,6.85045e-05,0.00273702,-0.00181686,1.55575,0.00264701,0.0203531,762,603,-11.6059,13.222
-455,421,-11.6374,-14.0049,-0.00113007,0.00219716,-0.000148056,0.00220374,-0.00113664,-1.52641,0.00196109,0.0187844,769,603,-11.6374,14.005
-448,421,-11.6867,-14.77,-0.000490394,0.00173733,-0.000301295,0.00177736,-0.000530424,-1.43871,0.00139572,0.0187095,776,603,-11.6867,14.77
-441,421,-11.7214,-15.5687,4.99937e-05,0.00132815,-0.000364191,0.00142464,-4.64931e-05,-1.31181,0.00096563,0.0143556,783,603,-11.7214,15.5687
-434,421,-11.7637,-16.3596,0.000536328,0.000951618,-0.000375,0.00117262,0.000315322,-1.03825,0.000700705,0.0103728,790,603,-11.7637,16.3595
-427,421,-11.7796,-17.1253,0.000995609,0.000693476,-0.000406925,0.0012786,0.000410481,-0.607664,0.000753799,0.0101164,797,603,-11.7796,17.1253
-420,421,-11.8044,-17.8649,0.00142569,0.000517446,-0.000443422,0.00160627,0.000336864,-0.386739,0.00097809,0.0117986,804,603,-11.8044,17.865
-413,421,-11.8413,-18.6146,0.0017699,0.000406584,-0.000400316,0.00187875,0.000297729,-0.265503,0.001166,0.0141286,811,603,-11.8413,18.6146
-406,421,-11.9091,-19.3915,0.00213592,0.000463006,-0.000454043,0.0022512,0.00034772,-0.248656,0.00139937,0.0201295,818,603,-11.9091,19.3915
-399,421,-11.8448,-20.2549,0.00268612,0.000618429,-0.000723813,0.00291431,0.000390236,-0.305403,0.00182674,0.0396259,825,603,-11.8448,20.255
-392,421,-11.8826,-21.0204,0,0,0,0,0,0,0,-1,832,603,-11.8826,21.0205
-385,421,-11.5825,-18.8583,0,0,0,0,0,0,0,-1,839,603,-11.5825,18.8583
-378,421,-4.94733,-8.87909,0,0,0,0,0,0,0,-1,846,603,-4.94731,8.87906
-371,421,-5.65082,-7.01849,0,0,0,0,0,0,0,-1,853,603,-5.65082,7.0185
-364,421,-5.94189,-7.09875,0,0,0,0,0,0,0,-1,860,603,-5.94192,7.09878
-357,421,-7.62531,-8.26337,0,0,0,0,0,0,0,-1,867,603,-7.62532,8.26337
-350,421,-5.38019,-3.75024,0,0,0,0,0,0,0,-1,874,603,-5.38017,3.75026
-343,421,-6.22797,-2.57123,0,0,0,0,0,0,0,-1,881,603,-6.22798,2.57121
-336,421,-6.22882,-2.59369,0,0,0,0,0,0,0,-1,888,603,-6.22883,2.5937
-329,421,-4.50134,-1.49469,0,0,0,0,0,0,0,-1,895,603,-4.50137,1.49468
-322,421,-7.55817,1.13263,0,0,0,0,0,0,0,-1,902,603,-7.55818,-1.13263
-315,421,-4.16144,-1.96649,0,0,0,0,0,0,0,-1,909,603,-4.16146,1.9665
-308,421,0,0,0,0,0,0,0,0,0,-1,916,603,0,0
-301,421,0,0,0,0,0,0,0,0,0,-1,923,603,0,0
-294,421,0,0,0,0,0,0,0,0,0,-1,930,603,0,0
-287,421,0,0,0,0,0,0,0,0,0,-1,937,603,0,0
-280,421,0,0,0,0,0,0,0,0,0,-1,944,603,0,0
-273,421,0,0,0,0,0,0,0,0,0,-1,951,603,0,0
-266,421,0,0,0,0,0,0,0,0,0,-1,958,603,0,0
-259,421,0,0,0,0,0,0,0,0,0,-1,965,603,0,0
-252,421,0,0,0,0,0,0,0,0,0,-1,972,603,0,0
-245,421,0,0,0,0,0,0,0,0,0,-1,979,603,0,0
-238,421,0,0,0,0,0,0,0,0,0,-1,986,603,0,0
-231,421,0,0,0,0,0,0,0,0,0,-1,993,603,0,0
-224,421,0,0,0,0,0,0,0,0,0,-1,1000,603,0,0
-217,421,0,0,0,0,0,0,0,0,0,-1,1007,603,0,0
-210,421,0,0,0,0,0,0,0,0,0,-1,1014,603,0,0
-203,421,0,0,0,0,0,0,0,0,0,-1,1021,603,0,0
-196,421,0,0,0,0,0,0,0,0,0,-1,1028,603,0,0
-189,421,0,0,0,0,0,0,0,0,0,-1,1035,603,0,0
-182,421,0,0,0,0,0,0,0,0,0,-1,1042,603,0,0
-175,421,0,0,0,0,0,0,0,0,0,-1,1049,603,0,0
-168,421,0,0,0,0,0,0,0,0,0,-1,1056,603,0,0
-161,421,0,0,0,0,0,0,0,0,0,-1,1063,603,0,0
-154,421,0,0,0,0,0,0,0,0,0,-1,1070,603,0,0
-147,421,0,0,0,0,0,0,0,0,0,-1,1077,603,0,0
-140,421,0,0,0,0,0,0,0,0,0,-1,1084,603,0,0
-133,421,0,0,0,0,0,0,0,0,0,-1,1091,603,0,0
-126,421,0,0,0,0,0,0,0,0,0,-1,1098,603,0,0
-119,421,0,0,0,0,0,0,0,0,0,-1,1105,603,0,0
-112,421,0,0,0,0,0,0,0,0,0,-1,1112,603,0,0
-105,421,0,0,0,0,0,0,0,0,0,-1,1119,603,0,0
-98,421,0,0,0,0,0,0,0,0,0,-1,1126,603,0,0
-91,421,0,0,0,0,0,0,0,0,0,-1,1133,603,0,0
-84,421,0,0,0,0,0,0,0,0,0,-1,1140,603,0,0
-77,421,0,0,0,0,0,0,0,0,0,-1,1147,603,0,0
-70,421,0,0,0,0,0,0,0,0,0,-1,1154,603,0,0
-63,421,0,0,0,0,0,0,0,0,0,-1,1161,603,0,0
-56,421,0,0,0,0,0,0,0,0,0,-1,1168,603,0,0
-49,421,0,0,0,0,0,0,0,0,0,-1,1175,603,0,0
-42,421,0,0,0,0,0,0,0,0,0,-1,1182,603,0,0
-35,421,0,0,0,0,0,0,0,0,0,-1,1189,603,0,0
-28,421,0,0,0,0,0,0,0,0,0,-1,1196,603,0,0
-21,421,0,0,0,0,0,0,0,0,0,-1,1203,603,0,0
-14,421,0,0,0,0,0,0,0,0,0,-1,1210,603,0,0
-7,421,0,0,0,0,0,0,0,0,0,-1,1217,603,0,0
0,421,0,0,0,0,0,0,0,0,0,-1,1224,603,0,0
7,421,0,0,0,0,0,0,0,0,0,-1,1231,603,0,0
14,421,0,0,0,0,0,0,0,0,0,-1,1238,603,0,0
21,421,0,0,0,0,0,0,0,0,0,-1,1245,603,0,0
28,421,0,0,0,0,0,0,0,0,0,-1,1252,603,0,0
35,421,0,0,0,0,0,0,0,0,0,-1,1259,603,0,0
42,421,0,0,0,0,0,0,0,0,0,-1,1266,603,0,0
49,421,0,0,0,0,0,0,0,0,0,-1,1273,603,0,0
56,421,0,0,0,0,0,0,0,0,0,-1,1280,603,0,0
63,421,0,0,0,0,0,0,0,0,0,-1,1287,603,0,0
70,421,0,0,0,0,0,0,0,0,0,-1,1294,603,0,0
77,421,0,0,0,0,0,0,0,0,0,-1,1301,603,0,0
84,421,0,0,0,0,0,0,0,0,0,-1,1308,603,0,0
91,421,0,0,0,0,0,0,0,0,0,-1,1315,603,0,0
98,421,0,0,0,0,0,0,0,0,0,-1,1322,603,0,0
105,421,0,0,0,0,0,0,0,0,0,-1,1329,603,0,0
112,421,0,0,0,0,0,0,0,0,0,-1,1336,603,0,0
119,421,0,0,0,0,0,0,0,0,0,-1,1343,603,0,0
126,421,0,0,0,0,0,0,0,0,0,-1,1350,603,0,0
133,421,0,0,0,0,0,0,0,0,0,-1,1357,603,0,0
140,421,0,0,0,0,0,0,0,0,0,-1,1364,603,0,0
147,421,0,0,0,0,0,0,0,0,0,-1,1371,603,0,0
154,421,0,0,0,0,0,0,0,0,0,-1,1378,603,0,0
161,421,0,0,0,0,0,0,0,0,0,-1,1385,603,0,0
168,421,0,0,0,0,0,0,0,0,0,-1,1392,603,0,0
175,421,0,0,0,0,0,0,0,0,0,-1,1399,603,0,0
182,421,0,0,0,0,0,0,0,0,0,-1,1406,603,0,0
189,421,0,0,0,0,0,0,0,0,0,-1,1413,603,0,0
196,421,0,0,0,0,0,0,0,0,0,-1,1420,603,0,0
203,421,0,0,0,0,0,0,0,0,0,-1,1427,603,0,0
210,421,0,0,0,0,0,0,0,0,0,-1,1434,603,0,0
217,421,0,0,0,0,0,0,0,0,0,-1,1441,603,0,0
224,421,0,0,0,0,0,0,0,0,0,-1,1448,603,0,0
231,421,0,0,0,0,0,0,0,0,0,-1,1455,603,0,0
238,421,0,0,0,0,0,0,0,0,0,-1,1462,603,0,0
245,421,0,0,0,0,0,0,0,0,0,-1,1469,603,0,0
252,421,0,0,0,0,0,0,0,0,0,-1,1476,603,0,0
259,421,0,0,0,0,0,0,0,0,0,-1,1483,603,0,0
266,421,0,0,0,0,0,0,0,0,0,-1,1490,603,0,0
273,421,0,0,0,0,0,0,0,0,0,-1,1497,603,0,0
280,421,0,0,0,0,0,0,0,0,0,-1,1504,603,0,0
287,421,0,0,0,0,0,0,0,0,0,-1,1511,603,0,0
294,421,0,0,0,0,0,0,0,0,0,-1,1518,603,0,0
301,421,0,0,0,0,0,0,0,0,0,-1,1525,603,0,0
308,421,0,0,0,0,0,0,0,0,0,-1,1532,603,0,0
315,421,0,0,0,0,0,0,0,0,0,-1,1539,603,0,0
322,421,0,0,0,0,0,0,0,0,0,-1,1546,603,0,0
329,421,0,0,0,0,0,0,0,0,0,-1,1553,603,0,0
336,421,0,0,0,0,0,0,0,0,0,-1,1560,603,0,0
343,421,0,0,0,0,0,0,0,0,0,-1,1567,603,0,0
350,421,0,0,0,0,0,0,0,0,0,-1,1574,603,0,0
357,421,0,0,0,0,0,0,0,0,0,-1,1581,603,0,0
364,421,0,0,0,0,0,0,0,0,0,-1,1588,603,0,0
371,421,0,0,0,0,0,0,0,0,0,-1,1595,603,0,0
378,421,0,0,0,0,0,0,0,0,0,-1,1602,603,0,0
385,421,0,0,0,0,0,0,0,0,0,-1,1609,603,0,0
392,421,0,0,0,0,0,0,0,0,0,-1,1616,603,0,0
399,421,0,0,0,0,0,0,0,0,0,-1,1623,603,0,0
406,421,0,0,0,0,0,0,0,0,0,-1,1630,603,0,0
413,421,0,0,0,0,0,0,0,0,0,-1,1637,603,0,0
420,421,0,0,0,0,0,0,0,0,0,-1,1644,603,0,0
427,421,0,0,0,0,0,0,0,0,0,-1,1651,603,0,0
434,421,3.68176,-0.0327759,0,0,0,0,0,0,0,-1,1658,603,3.6818,0.0328037
441,421,8.06689,0.527832,0,0,0,0,0,0,0,-1,1665,603,8.06693,-0.527851
448,421,6.93921,0.802246,0,0,0,0,0,0,0,-1,1672,603,6.93923,-0.802251
455,421,7.29456,2.14825,0,0,0,0,0,0,0,-1,1679,603,7.29461,-2.14827
462,421,7.86902,3.53174,0,0,0,0,0,0,0,-1,1686,603,7.869,-3.53173
469,421,8.06604,2.81213,0,0,0,0,0,0,0,-1,1693,603,8.06606,-2.81212
476,421,8.26306,2.09253,0,0,0,0,0,0,0,-1,1700,603,8.26312,-2.09251
483,421,8.05322,0.798096,0,0,0,0,0,0,0,-1,1707,603,8.05323,-0.7981
490,421,7.51233,0.213074,0,0,0,0,0,0,0,-1,1714,603,7.51235,-0.213043
497,421,7.49634,-2.86688,0,0,0,0,0,0,0,-1,1721,603,7.4963,2.86688
504,421,6.90491,-2.18671,0,0,0,0,0,0,0,-1,1728,603,6.90491,2.18669
511,421,6.31348,-1.50653,0,0,0,0,0,0,0,-1,1735,603,6.31353,1.5065
518,421,6.27588,-2.49878,0,0,0,0,0,0,0,-1,1742,603,6.2759,2.4988
525,421,25.2999,-19.3504,0,0,0,0,0,0,0,-1,1749,603,25.2999,19.3504
532,421,25.3866,-18.4259,0.00419976,0.00129346,0.00207761,0.00528198,0.000211239,0.480225,0.00345306,0.0435252,1756,603,25.3865,18.4259
539,421,25.4795,-17.5893,0.00350666,0.00117893,0.00164763,0.00436004,0.000325547,0.477898,0.00280448,0.0244336,1763,603,25.4795,17.5893
546,421,25.4353,-16.8646,0.00291655,0.00100649,0.00129919,0.00357397,0.000349076,0.468451,0.00227523,0.014241,1770,603,25.4353,16.8645
553,421,25.3976,-16.0754,0.0023805,0.00103504,0.00106879,0.00297065,0.000444886,0.504509,0.00185006,0.0122579,1777,603,25.3976,16.0754
560,421,25.373,-15.2862,0.00190463,0.00115636,0.000965584,0.00256603,0.000494965,0.60057,0.00157189,0.0143,1784,603,25.3731,15.2862
567,421,25.3469,-14.525,0.00157351,0.0014518,0.00106771,0.0025821,0.000443217,0.75693,0.00159433,0.0167976,1791,603,25.347,14.525
574,421,25.304,-13.7604,0.00141108,0.0018958,0.00130051,0.00297634,0.000330539,0.877521,0.00188374,0.0206386,1798,603,25.304,13.7604
581,421,25.2744,-12.9241,0.00140471,0.00246838,0.00171537,0.00373247,0.000140623,0.93572,0.00244279,0.0239699,1805,603,25.2744,12.9241
588,421,25.2283,-12.1851,0.00161191,0.00331419,0.00237261,0.00498371,-5.76105e-05,0.957616,0.00334184,0.0161177,1812,603,25.2283,12.185
595,421,25.2289,-11.3746,0.0019948,0.0043412,0.00321524,0.0065906,-0.000254588,0.960336,0.00448101,0.0214151,1819,603,25.2289,11.3746
602,421,25.1815,-10.5189,0,0,0,0,0,0,0,-1,1826,603,25.1815,10.5189
609,421,22.8762,-8.37524,0,0,0,0,0,0,0,-1,1833,603,22.8762,8.37525
616,421,17.7633,-4.72491,0,0,0,0,0,0,0,-1,1840,603,17.7633,4.7249
623,421,6.19885,0.376648,0,0,0,0,0,0,0,-1,1847,603,6.19881,-0.376624
630,421,6.54993,0.778748,0,0,0,0,0,0,0,-1,1854,603,6.54991,-0.778744
637,421,3.74512,1.65405,0,0,0,0,0,0,0,-1,1861,603,3.74517,-1.65407
644,421,3.58081,0.354675,0,0,0,0,0,0,0,-1,1868,603,3.58082,-0.354704
651,421,3.28687,3.66351,0,0,0,0,0,0,0,-1,1875,603,3.28688,-3.66353
658,421,0,0,0,0,0,0,0,0,0,-1,1882,603,0,0
665,421,0,0,0,0,0,0,0,0,0,-1,1889,603,0,0
672,421,0,0,0,0,0,0,0,0,0,-1,1896,603,0,0
679,421,0,0,0,0,0,0,0,0,0,-1,1903,603,0,0
686,421,0,0,0,0,0,0,0,0,0,-1,1910,603,0,0
693,421,0,0,0,0,0,0,0,0,0,-1,1917,603,0,0
700,421,0,0,0,0,0,0,0,0,0,-1,1924,603,0,0
707,421,0,0,0,0,0,0,0,0,0,-1,1931,603,0,0
714,421,0,0,0,0,0,0,0,0,0,-1,1938,603,0,0
721,421,0,0,0,0,0,0,0,0,0,-1,1945,603,0,0
728,421,0,0,0,0,0,0,0,0,0,-1,1952,603,0,0
735,421,0,0,0,0,0,0,0,0,0,-1,1959,603,0,0
742,421,0,0,0,0,0,0,0,0,0,-1,1966,603,0,0
749,421,0,0,0,0,0,0,0,0,0,-1,1973,603,0,0
756,421,0,0,0,0,0,0,0,0,0,-1,1980,603,0,0
763,421,0,0,0,0,0,0,0,0,0,-1,1987,603,0,0
770,421,0,0,0,0,0,0,0,0,0,-1,1994,603,0,0
777,421,0,0,0,0,0,0,0,0,0,-1,2001,603,0,0
784,421,0,0,0,0,0,0,0,0,0,-1,2008,603,0,0
791,421,0,0,0,0,0,0,0,0,0,-1,2015,603,0,0
798,421,0,0,0,0,0,0,0,0,0,-1,2022,603,0,0
805,421,0,0,0,0,0,0,0,0,0,-1,2029,603,0,0
812,421,0,0,0,0,0,0,0,0,0,-1,2036,603,0,0
-700,414,0,0,0,0,0,0,0,0,0,-1,524,610,0,0
-693,414,0,0,0,0,0,0,0,0,0,-1,531,610,0,0
-686,414,0,0,0,0,0,0,0,0,0,-1,538,610,0,0
-679,414,0,0,0,0,0,0,0,0,0,-1,545,610,0,0
-672,414,0,0,0,0,0,0,0,0,0,-1,552,610,0,0
-665,414,0,0,0,0,0,0,0,0,0,-1,559,610,0,0
-658,414,0,0,0,0,0,0,0,0,0,-1,566,610,0,0
-651,414,0,0,0,0,0,0,0,0,0,-1,573,610,0,0
-644,414,0,0,0,0,0,0,0,0,0,-1,580,610,0,0
-637,414,0,0,0,0,0,0,0,0,0,-1,587,610,0,0
-630,414,0,0,0,0,0,0,0,0,0,-1,594,610,0,0
-623,414,0,0,0,0,0,0,0,0,0,-1,601,610,0,0
-616,414,0,0,0,0,0,0,0,0,0,-1,608,610,0,0
-609,414,0,0,0,0,0,0,0,0,0,-1,615,610,0,0
-602,414,0,0,0,0,0,0,0,0,0,-1,622,610,0,0
-595,414,0,0,0,0,0,0,0,0,0,-1,629,610,0,0
-588,414,0,0,0,0,0,0,0,0,0,-1,636,610,0,0
-581,414,0,0,0,0,0,0,0,0,0,-1,643,610,0,0
-574,414,0,0,0,0,0,0,0,0,0,-1,650,610,0,0
-567,414,0,0,0,0,0,0,0,0,0,-1,657,610,0,0
-560,414,0,0,0,0,0,0,0,0,0,-1,664,610,0,0
-553,414,0,0,0,0,0,0,0,0,0,-1,671,610,0,0
-546,414,0,0,0,0,0,0,0,0,0,-1,678,610,0,0
-539,414,-7.50146,5.65619,0,0,0,0,0,0,0,-1,685,610,-7.50149,-5.65617
-532,414,-8.15204,4.01605,0,0,0,0,0,0,0,-1,692,610,-8.15206,-4.01606
-525,414,-3.47137,-3.27924,0,0,0,0,0,0,0,-1,699,610,-3.47136,3.27922
-518,414,-4.12909,-4.36908,0,0,0,0,0,0,0,-1,706,610,-4.12909,4.36909
-511,414,-3.92542,-4.97021,0,0,0,0,0,0,0,-1,713,610,-3.92542,4.97023
-504,414,-9.35394,-5.49896,0,0,0,0,0,0,0,-1,720,610,-9.35394,5.49898
-497,414,-9.67627,-6.54761,0,0,0,0,0,0,0,-1,727,610,-9.6763,6.5476
-490,414,-10.9006,-8.3277,0,0,0,0,0,0,0,-1,734,610,-10.9006,8.3277
-483,414,-12.1481,-10.9654,0,0,0,0,0,0,0,-1,741,610,-12.1481,10.9654
-476,414,-12.3044,-11.6923,-0.00234477,0.00268952,0.000623559,0.00276561,-0.00242085,1.44938,0.00299661,0.0237603,748,610,-12.3044,11.6923
-469,414,-12.3636,-12.4124,-0.00175856,0.00228517,0.000263954,0.00230233,-0.00177571,1.50589,0.00236099,0.0137523,755,610,-12.3636,12.4124
-462,414,-12.3488,-13.2001,-0.0011071,0.00192104,-4.13934e-05,0.0019216,-0.00110766,-1.55713,0.00176987,0.0219821,762,610,-12.3488,13.2001
-455,414,-12.3957,-13.9797,-0.000583359,0.0014647,-0.000175522,0.00147963,-0.000598293,-1.48592,0.00123514,0.0244573,769,610,-12.3957,13.9798
-448,414,-12.4617,-14.7638,-3.86639e-05,0.00107508,-0.000281458,0.00114217,-0.000105751,-1.33681,0.000799033,0.0240674,776,610,-12.4617,14.7638
-441,414,-12.4885,-15.5571,0.00043004,0.000734116,-0.000304734,0.000922633,0.000241522,-1.01679,0.000552469,0.0171085,783,610,-12.4885,15.5571
-434,414,-12.5393,-16.3091,0.000883756,0.000444276,-0.000299741,0.00103568,0.000292357,-0.469099,0.000616553,0.0100212,790,610,-12.5393,16.3092
-427,414,-12.549,-17.0706,0.0013261,0.000288583,-0.000335017,0.00142488,0.000189809,-0.28671,0.000893394,0.010973,797,610,-12.5489,17.0706
-420,414,-12.5679,-17.8271,0.00171809,0.000212687,-0.000343706,0.00179285,0.000137926,-0.214177,0.00115201,0.0104467,804,610,-12.5679,17.8271
-413,414,-12.6193,-18.5958,0.00204781,0.000265868,-0.000303327,0.00209803,0.000215651,-0.164069,0.00133263,0.0104574,811,610,-12.6193,18.5958
-406,414,-12.6351,-19.4725,0.00243744,0.000614324,-0.000445657,0.00254055,0.000511215,-0.227362,0.00155163,0.0327765,818,610,-12.6351,19.4724
-399,414,-12.6323,-20.4013,0,0,0,0,0,0,0,-1,825,610,-12.6323,20.4013
-392,414,-9.43781,-14.5624,0,0,0,0,0,0,0,-1,832,610,-9.43779,14.5624
-385,414,-8.14691,-13.0653,0,0,0,0,0,0,0,-1,839,610,-8.14692,13.0653
-378,414,-8.04907,-11.3331,0,0,0,0,0,0,0,-1,846,610,-8.04905,11.3331
-371,414,-5.20886,-8.05151,0,0,0,0,0,0,0,-1,853,610,-5.20887,8.05153
-364,414,-6.76282,-6.58759,0,0,0,0,0,0,0,-1,860,610,-6.7628,6.58756
-357,414,-9.08685,-8.86188,0,0,0,0,0,0,0,-1,867,610,-9.08688,8.86187
-350,414,-6.4502,-2.41821,0,0,0,0,0,0,0,-1,874,610,-6.45021,2.41822
-343,414,-6.80249,-2.32117,0,0,0,0,0,0,0,-1,881,610,-6.80252,2.32116
-336,414,-7.11017,-2.52026,0,0,0,0,0,0,0,-1,888,610,-7.11016,2.52026
-329,414,-7.59747,-2.70313,0,0,0,0,0,0,0,-1,895,610,-7.59747,2.70315
-322,414,-4.42236,-1.29163,0,0,0,0,0,0,0,-1,902,610,-4.42238,1.2916
-315,414,0,0,0,0,0,0,0,0,0,-1,909,610,0,0
-308,414,0,0,0,0,0,0,0,0,0,-1,916,610,0,0
-301,414,0,0,0,0,0,0,0,0,0,-1,923,610,0,0
-294,414,0,0,0,0,0,0,0,0,0,-1,930,610,0,0
-287,414,0,0,0,0,0,0,0,0,0,-1,937,610,0,0
-280,414,0,0,0,0,0,0,0,0,0,-1,944,610,0,0
-273,414,0,0,0,0,0,0,0,0,0,-1,951,610,0,0
-266,414,0,0,0,0,0,0,0,0,0,-1,958,610,0,0
-259,414,0,0,0,0,0,0,0,0,0,-1,965,610,0,0
-252,414,0,0,0,0,0,0,0,0,0,-1,972,610,0,0
-245,414,0,0,0,0,0,0,0,0,0,-1,979,610,0,0
-238,414,0,0,0,0,0,0,0,0,0,-1,986,610,0,0
-231,414,0,0,0,0,0,0,0,0,0,-1,993,610,0,0
-224,414,0,0,0,0,0,0,0,0,0,-1,1000,610,0,0
-217,414,0,0,0,0,0,0,0,0,0,-1,1007,610,0,0
-210,414,0,0,0,0,0,0,0,0,0,-1,1014,610,0,0
-203,414,0,0,0,0,0,0,0,0,0,-1,1021,610,0,0
-196,414,0,0,0,0,0,0,0,0,0,-1,1028,610,0,0
-189,414,0,0,0,0,0,0,0,0,0,-1,1035,610,0,0
-182,414,0,0,0,0,0,0,0,0,0,-1,1042,610,0,0
-175,414,0,0,0,0,0,0,0,0,0,-1,1049,610,0,0
-168,414,0,0,0,0,0,0,0,0,0,-1,1056,610,0,0
-161,414,0,0,0,0,0,0,0,0,0,-1,1063,610,0,0
-154,414,0,0,0,0,0,0,0,0,0,-1,1070,610,0,0
-147,414,0,0,0,0,0,0,0,0,0,-1,1077,610,0,0
-140,414,0,0,0,0,0,0,0,0,0,-1,1084,610,0,0
-133,414,0,0,0,0,0,0,0,0,0,-1,1091,610,0,0
-126,414,0,0,0,0,0,0,0,0,0,-1,1098,610,0,0
-119,414,0,0,0,0,0,0,0,0,0,-1,1105,610,0,0
-112,414,0,0,0,0,0,0,0,0,0,-1,1112,610,0,0
-105,414,0,0,0,0,0,0,0,0,0,-1,1119,610,0,0
-98,414,0,0,0,0,0,0,0,0,0,-1,1126,610,0,0
-91,414,0,0,0,0,0,0,0,0,0,-1,1133,610,0,0
-84,414,0,0,0,0,0,0,0,0,0,-1,1140,610,0,0
-77,414,0,0,0,0,0,0,0,0,0,-1,1147,610,0,0
-70,414,0,0,0,0,0,0,0,0,0,-1,1154,610,0,0
-63,414,0,0,0,0,0,0,0,0,0,-1,1161,610,0,0
-56,414,0,0,0,0,0,0,0,0,0,-1,1168,610,0,0
-49,414,0,0,0,0,0,0,0,0,0,-1,1175,610,0,0
-42,414,0,0,0,0,0,0,0,0,0,-1,1182,610,0,0
-35,414,0,0,0,0,0,0,0,0,0,-1,1189,610,0,0
-28,414,0,0,0,0,0,0,0,0,0,-1,1196,610,0,0
-21,414,0,0,0,0,0,0,0,0,0,-1,1203,610,0,0
-14,414,0,0,0,0,0,0,0,0,0,-1,1210,610,0,0
-7,414,0,0,0,0,0,0,0,0,0,-1,1217,610,0,0
0,414,0,0,0,0,0,0,0,0,0,-1,1224,610,0,0
7,414,0,0,0,0,0,0,0,0,0,-1,1231,610,0,0
14,414,0,0,0,0,0,0,0,0,0,-1,1238,610,0,0
21,414,0,0,0,0,0,0,0,0,0,-1,1245,610,0,0
28,414,0,0,0,0,0,0,0,0,0,-1,1252,610,0,0
35,414,0,0,0,0,0,0,0,0,0,-1,1259,610,0,0
42,414,0,0,0,0,0,0,0,0,0,-1,1266,610,0,0
49,414,0,0,0,0,0,0,0,0,0,-1,1273,610,0,0
56,414,0,0,0,0,0,0,0,0,0,-1,1280,610,0,0
63,414,0,0,0,0,0,0,0,0,0,-1,1287,610,0,0
70,414,0,0,0,0,0,0,0,0,0,-1,1294,610,0,0
77,414,0,0,0,0,0,0,0,0,0,-1,1301,610,0,0
84,414,0,0,0,0,0,0,0,0,0,-1,1308,610,0,0
91,414,0,0,0,0,0,0,0,0,0,-1,1315,610,0,0
98,414,0,0,0,0,0,0,0,0,0,-1,1322,610,0,0
105,414,0,0,0,0,0,0,0,0,0,-1,1329,610,0,0
112,414,0,0,0,0,0,0,0,0,0,-1,1336,610,0,0
119,414,0,0,0,0,0,0,0,0,0,-1,1343,610,0,0
126,414,0,0,0,0,0,0,0,0,0,-1,1350,610,0,0
133,414,0,0,0,0,0,0,0,0,0,-1,1357,610,0,0
140,414,0,0,0,0,0,0,0,0,0,-1,1364,610,0,0
147,414,0,0,0,0,0,0,0,0,0,-1,1371,610,0,0
154,414,0,0,0,0,0,0,0,0,0,-1,1378,610,0,0
161,414,0,0,0,0,0,0,0,0,0,-1,1385,610,0,0
168,414,0,0,0,0,0,0,0,0,0,-1,1392,610,0,0
175,414,0,0,0,0,0,0,0,0,0,-1,1399,610,0,0
182,414,0,0,0,0,0,0,0,0,0,-1,1406,610,0,0
189,414,0,0,0,0,0,0,0,0,0,-1,1413,610,0,0
196,414,0,0,0,0,0,0,0,0,0,-1,1420,610,0,0
203,414,0,0,0,0,0,0,0,0,0,-1,1427,610,0,0
210,414,0,0,0,0,0,0,0,0,0,-1,1434,610,0,0
217,414,0,0,0,0,0,0,0,0,0,-1,1441,610,0,0
224,414,0,0,0,0,0,0,0,0,0,-1,1448,610,0,0
231,414,0,0,0,0,0,0,0,0,0,-1,1455,610,0,0
238,414,0,0,0,0,0,0,0,0,0,-1,1462,610,0,0
245,414,0,0,0,0,0,0,0,0,0,-1,1469,610,0,0
252,414,0,0,0,0,0,0,0,0,0,-1,1476,610,0,0
259,414,0,0,0,0,0,0,0,0,0,-1,1483,610,0,0
266,414,0,0,0,0,0,0,0,0,0,-1,1490,610,0,0
273,414,0,0,0,0,0,0,0,0,0,-1,1497,610,0,0
280,414,0,0,0,0,0,0,0,0,0,-1,1504,610,0,0
287,414,0,0,0,0,0,0,0,0,0,-1,1511,610,0,0
294,414,0,0,0,0,0,0,0,0,0,-1,1518,610,0,0
301,414,0,0,0,0,0,0,0,0,0,-1,1525,610,0,0
308,414,0,0,0,0,0,0,0,0,0,-1,1532,610,0,0
315,414,0,0,0,0,0,0,0,0,0,-1,1539,610,0,0
322,414,0,0,0,0,0,0,0,0,0,-1,1546,610,0,0
329,414,0,0,0,0,0,0,0,0,0,-1,1553,610,0,0
336,414,0,0,0,0,0,0,0,0,0,-1,1560,610,0,0
343,414,0,0,0,0,0,0,0,0,0,-1,1567,610,0,0
350,414,0,0,0,0,0,0,0,0,0,-1,1574,610,0,0
357,414,0,0,0,0,0,0,0,0,0,-1,1581,610,0,0
364,414,0,0,0,0,0,0,0,0,0,-1,1588,610,0,0
371,414,0,0,0,0,0,0,0,0,0,-1,1595,610,0,0
378,414,0,0,0,0,0,0,0,0,0,-1,1602,610,0,0
385,414,0,0,0,0,0,0,0,0,0,-1,1609,610,0,0
392,414,0,0,0,0,0,0,0,0,0,-1,1616,610,0,0
399,414,0,0,0,0,0,0,0,0,0,-1,1623,610,0,0
406,414,0,0,0,0,0,0,0,0,0,-1,1630,610,0,0
413,414,0,0,0,0,0,0,0,0,0,-1,1637,610,0,0
420,414,0,0,0,0,0,0,0,0,0,-1,1644,610,0,0
427,414,0,0,0,0,0,0,0,0,0,-1,1651,610,0,0
434,414,0,0,0,0,0,0,0,0,0,-1,1658,610,0,0
441,414,7.84375,0.584412,0,0,0,0,0,0,0,-1,1665,610,7.84379,-0.584394
448,414,7.40808,1.25446,0,0,0,0,0,0,0,-1,1672,610,7.40807,-1.25446
455,414,6.3512,1.73846,0,0,0,0,0,0,0,-1,1679,610,6.3512,-1.73847
462,414,8.18103,3.22113,0,0,0,0,0,0,0,-1,1686,610,8.18108,-3.22112
469,414,8.38513,2.49579,0,0,0,0,0,0,0,-1,1693,610,8.38516,-2.49576
476,414,8.64099,1.71161,0,0,0,0,0,0,0,-1,1700,610,8.64097,-1.71164
483,414,8.62744,0.687622,0,0,0,0,0,0,0,-1,1707,610,8.62749,-0.687615
490,414,8.38831,-0.0302734,0,0,0,0,0,0,0,-1,1714,610,8.38835,0.0302913
497,414,4.71094,-0.110046,0,0,0,0,0,0,0,-1,1721,610,4.71089,0.110024
504,414,7.19568,-1.43835,0,0,0,0,0,0,0,-1,1728,610,7.19563,1.43836
511,414,5.94153,-1.28772,0,0,0,0,0,0,0,-1,1735,610,5.94151,1.28769
518,414,4.53381,-0.0996704,0,0,0,0,0,0,0,-1,1742,610,4.53378,0.0996819
525,414,6.18811,-1.64056,0,0,0,0,0,0,0,-1,1749,610,6.18814,1.64055
532,414,26.1228,-18.6694,0,0,0,0,0,0,0,-1,1756,610,26.1228,18.6694
539,414,26.1742,-17.6196,0,0,0,0,0,0,0,-1,1763,610,26.1742,17.6196
546,414,26.1962,-16.8069,0.00343498,0.000994362,0.0014577,0.00411573,0.000313607,0.436906,0.00264549,0.0177732,1770,610,26.1961,16.8069
553,414,26.1849,-16.0228,0.00275726,0.000935826,0.00112029,0.00329031,0.000402779,0.444111,0.00207237,0.0131597,1777,610,26.1849,16.0229
560,414,26.1749,-15.2455,0.00216429,0.000956746,0.00092158,0.00266227,0.00045877,0.495405,0.00164341,0.0155622,1784,610,26.1749,15.2455
567,414,26.1416,-14.4929,0.00172551,0.00111973,0.000927115,0.00239796,0.000447284,0.627513,0.00147237,0.0250636,1791,610,26.1416,14.4929
574,414,26.0695,-13.7191,0.00149973,0.0014629,0.00109611,0.00257757,0.000385055,0.776999,0.0016055,0.0238067,1798,610,26.0695,13.719
581,414,26.0455,-12.8908,0.00143202,0.00193547,0.00142502,0.00313083,0.000236664,0.87282,0.00201298,0.0231551,1805,610,26.0455,12.8908
588,414,26.0259,-12.1633,0.00155287,0.00267761,0.0019699,0.00416384,6.66385e-05,0.92444,0.00275395,0.0223814,1812,610,26.0259,12.1633
595,414,25.9625,-11.2927,0.00189431,0.00361012,0.00271828,0.00560266,-9.82294e-05,0.938254,0.00376828,0.0231958,1819,610,25.9625,11.2927
602,414,25.9171,-10.5118,0.00241682,0.00483573,0.00364618,0.00746782,-0.00021526,0.94554,0.00505183,0.0273054,1826,610,25.9171,10.5119
609,414,25.8704,-9.67963,0,0,0,0,0,0,0,-1,1833,610,25.8704,9.67964
616,414,26.1619,-8.55444,0,0,0,0,0,0,0,-1,1840,610,26.1618,8.55445
623,414,9.6969,0.0378418,0,0,0,0,0,0,0,-1,1847,610,9.69685,-0.0378644
630,414,5.47144,0.499329,0,0,0,0,0,0,0,-1,1854,610,5.47142,-0.499303
637,414,8.36707,4.16278,0,0,0,0,0,0,0,-1,1861,610,8.36709,-4.16278
644,414,5.87073,1.51422,0,0,0,0,0,0,0,-1,1868,610,5.87076,-1.51424
651,414,3.6377,0.820557,0,0,0,0,0,0,0,-1,1875,610,3.6377,-0.820543
658,414,2.29761,3.87323,0,0,0,0,0,0,0,-1,1882,610,2.29758,-3.87325
665,414,0,0,0,0,0,0,0,0,0,-1,1889,610,0,0
672,414,0,0,0,0,0,0,0,0,0,-1,1896,610,0,0
679,414,0,0,0,0,0,0,0,0,0,-1,1903,610,0,0
686,414,0,0,0,0,0,0,0,0,0,-1,1910,610,0,0
693,414,0,0,0,0,0,0,0,0,0,-1,1917,610,0,0
700,414,0,0,0,0,0,0,0,0,0,-1,1924,610,0,0
707,414,0,0,0,0,0,0,0,0,0,-1,1931,610,0,0
714,414,0,0,0,0,0,0,0,0,0,-1,1938,610,0,0
721,414,0,0,0,0,0,0,0,0,0,-1,1945,610,0,0
728,414,0,0,0,0,0,0,0,0,0,-1,1952,610,0,0
735,414,0,0,0,0,0,0,0,0,0,-1,1959,610,0,0
742,414,0,0,0,0,0,0,0,0,0,-1,1966,610,0,0
749,414,0,0,0,0,0,0,0,0,0,-1,1973,610,0,0
756,414,0,0,0,0,0,0,0,0,0,-1,1980,610,0,0
763,414,0,0,0,0,0,0,0,0,0,-1,1987,610,0,0
770,414,0,0,0,0,0,0,0,0,0,-1,1994,610,0,0
777,414,0,0,0,0,0,0,0,0,0,-1,2001,610,0,0
784,414,0,0,0,0,0,0,0,0,0,-1,2008,610,0,0
791,414,0,0,0,0,0,0,0,0,0,-1,2015,610,0,0
798,414,0,0,0,0,0,0,0,0,0,-1,2022,610,0,0
805,414,0,0,0,0,0,0,0,0,0,-1,2029,610,0,0
812,414,0,0,0,0,0,0,0,0,0,-1,2036,610,0,0
-700,407,0,0,0,0,0,0,0,0,0,-1,524,617,0,0
-693,407,0,0,0,0,0,0,0,0,0,-1,531,617,0,0
-686,407,0,0,0,0,0,0,0,0,0,-1,538,617,0,0
-679,407,0,0,0,0,0,0,0,0,0,-1,545,617,0,0
-672,407,0,0,0,0,0,0,0,0,0,-1,552,617,0,0
-665,407,0,0,0,0,0,0,0,0,0,-1,559,617,0,0
-658,407,0,0,0,0,0,0,0,0,0,-1,566,617,0,0
-651,407,0,0,0,0,0,0,0,0,0,-1,573,617,0,0
-644,407,0,0,0,0,0,0,0,0,0,-1,580,617,0,0
-637,407,0,0,0,0,0,0,0,0,0,-1,587,617,0,0
-630,407,0,0,0,0,0,0,0,0,0,-1,594,617,0,0
-623,407,0,0,0,0,0,0,0,0,0,-1,601,617,0,0
-616,407,0,0,0,0,0,0,0,0,0,-1,608,617,0,0
-609,407,0,0,0,0,0,0,0,0,0,-1,615,617,0,0
-602,407,0,0,0,0,0,0,0,0,0,-1,622,617,0,0
-595,407,0,0,0,0,0,0,0,0,0,-1,629,617,0,0
-588,407,0,0,0,0,0,0,0,0,0,-1,636,617,0,0
-581,407,0,0,0,0,0,0,0,0,0,-1,643,617,0,0
-574,407,0,0,0,0,0,0,0,0,0,-1,650,617,0,0
-567,407,0,0,0,0,0,0,0,0,0,-1,657,617,0,0
-560,407,0,0,0,0,0,0,0,0,0,-1,664,617,0,0
-553,407,0,0,0,0,0,0,0,0,0,-1,671,617,0,0
-546,407,-8.54517,-0.658142,0,0,0,0,0,0,0,-1,678,617,-8.54515,0.658112
-539,407,-6.09442,-1.01154,0,0,0,0,0,0,0,-1,685,617,-6.09441,1.01155
-532,407,-7.75665,1.62152,0,0,0,0,0,0,0,-1,692,617,-7.75667,-1.62154
-525,407,-3.78247,-2.67639,0,0,0,0,0,0,0,-1,699,617,-3.78246,2.67638
-518,407,-5.013,-5.87323,0,0,0,0,0,0,0,-1,706,617,-5.013,5.87324
-511,407,-9.42743,-4.94189,0,0,0,0,0,0,0,-1,713,617,-9.42745,4.94191
-504,407,-10.8291,-8.05927,0,0,0,0,0,0,0,-1,720,617,-10.8291,8.05927
-497,407,-9.84467,-6.81641,0,0,0,0,0,0,0,-1,727,617,-9.84468,6.8164
-490,407,-13.3034,-10.0723,0,0,0,0,0,0,0,-1,734,617,-13.3034,10.0723
-483,407,-12.9916,-10.7978,0,0,0,0,0,0,0,-1,741,617,-12.9916,10.7978
-476,407,-13.0527,-11.5923,-0.00131556,0.0020848,0.000188301,0.00209519,-0.00132595,1.51564,0.00199177,0.0170504,748,617,-13.0527,11.5923
-469,407,-13.1098,-12.3572,-0.000940797,0.00168906,5.76373e-06,0.00168908,-0.00094081,1.5686,0.00153872,0.0135707,755,617,-13.1098,12.3572
-462,407,-13.1474,-13.1749,-0.000501689,0.00130053,-0.000137604,0.00131097,-0.000512135,-1.49503,0.00108573,0.0208107,762,617,-13.1474,13.1749
-455,407,-13.1901,-13.9875,-9.75264e-05,0.000918202,-0.000209357,0.000959662,-0.000138986,-1.37529,0.00069078,0.0222541,769,617,-13.1901,13.9875
-448,407,-13.2047,-14.7715,0.000369105,0.000591619,-0.000278192,0.000779977,0.000180747,-0.97562,0.00047143,0.0200582,776,617,-13.2046,14.7715
-441,407,-13.2516,-15.4925,0.000780418,0.000306412,-0.00027279,0.00090478,0.00018205,-0.427741,0.000552591,0.0154586,783,617,-13.2516,15.4925
-434,407,-13.3295,-16.2378,0.00120933,8.91479e-05,-0.000260161,0.00126681,3.1675e-05,-0.217421,0.00083418,0.0114768,790,617,-13.3295,16.2378
-427,407,-13.3265,-17.0133,0.00162993,-4.73311e-06,-0.000296165,0.00168194,-5.67373e-05,-0.17382,0.00114067,0.012188,797,617,-13.3265,17.0133
-420,407,-13.3361,-17.7716,0.00196105,-4.58885e-05,-0.000255003,0.00199294,-7.77824e-05,-0.124427,0.0013553,0.0111144,804,617,-13.3361,17.7716
-413,407,-13.369,-18.5185,0.00225657,0.000101472,-0.000198074,0.00227462,8.34181e-05,-0.090895,0.00148939,0.015903,811,617,-13.369,18.5185
-406,407,-13.2759,-19.3756,0,0,0,0,0,0,0,-1,818,617,-13.276,19.3756
-399,407,-12.7393,-18.566,0,0,0,0,0,0,0,-1,825,617,-12.7392,18.566
-392,407,-8.33612,-12.195,0,0,0,0,0,0,0,-1,832,617,-8.33611,12.195
-385,407,-7.65765,-10.7744,0,0,0,0,0,0,0,-1,839,617,-7.65767,10.7744
-378,407,-6.08655,-7.42291,0,0,0,0,0,0,0,-1,846,617,-6.08652,7.42292
-371,407,-7.4007,-5.79449,0,0,0,0,0,0,0,-1,853,617,-7.40072,5.79447
-364,407,-10.0638,-6.6228,0,0,0,0,0,0,0,-1,860,617,-10.0639,6.62279
-357,407,-6.64447,-1.83337,0,0,0,0,0,0,0,-1,867,617,-6.64446,1.8334
-350,407,-7.03351,-1.77551,0,0,0,0,0,0,0,-1,874,617,-7.03349,1.77551
-343,407,-7.40967,-1.95026,0,0,0,0,0,0,0,-1,881,617,-7.40969,1.95026
-336,407,-8.10229,-2.40662,0,0,0,0,0,0,0,-1,888,617,-8.10229,2.40664
-329,407,-8.81232,-2.76331,0,0,0,0,0,0,0,-1,895,617,-8.81235,2.76331
-322,407,0,0,0,0,0,0,0,0,0,-1,902,617,0,0
-315,407,0,0,0,0,0,0,0,0,0,-1,909,617,0,0
-308,407,0,0,0,0,0,0,0,0,0,-1,916,617,0,0
-301,407,0,0,0,0,0,0,0,0,0,-1,923,617,0,0
-294,407,0,0,0,0,0,0,0,0,0,-1,930,617,0,0
-287,407,0,0,0,0,0,0,0,0,0,-1,937,617,0,0
-280,407,0,0,0,0,0,0,0,0,0,-1,944,617,0,0
-273,407,0,0,0,0,0,0,0,0,0,-1,951,617,0,0
-266,407,0,0,0,0,0,0,0,0,0,-1,958,617,0,0
-259,407,0,0,0,0,0,0,0,0,0,-1,965,617,0,0
-252,407,0,0,0,0,0,0,0,0,0,-1,972,617,0,0
-245,407,0,0,0,0,0,0,0,0,0,-1,979,617,0,0
-238,407,0,0,0,0,0,0,0,0,0,-1,986,617,0,0
-231,407,0,0,0,0,0,0,0,0,0,-1,993,617,0,0
-224,407,0,0,0,0,0,0,0,0,0,-1,1000,617,0,0
-217,407,0,0,0,0,0,0,0,0,0,-1,1007,617,0,0
-210,407,0,0,0,0,0,0,0,0,0,-1,1014,617,0,0
-203,407,0,0,0,0,0,0,0,0,0,-1,1021,617,0,0
-196,407,0,0,0,0,0,0,0,0,0,-1,1028,617,0,0
-189,407,0,0,0,0,0,0,0,0,0,-1,1035,617,0,0
-182,407,0,0,0,0,0,0,0,0,0,-1,1042,617,0,0
-175,407,0,0,0,0,0,0,0,0,0,-1,1049,617,0,0
-168,407,0,0,0,0,0,0,0,0,0,-1,1056,617,0,0
-161,407,0,0,0,0,0,0,0,0,0,-1,1063,617,0,0
-154,407,0,0,0,0,0,0,0,0,0,-1,1070,617,0,0
-147,407,0,0,0,0,0,0,0,0,0,-1,1077,617,0,0
-140,407,0,0,0,0,0,0,0,0,0,-1,1084,617,0,0
-133,407,0,0,0,0,0,0,0,0,0,-1,1091,617,0,0
-126,407,0,0,0,0,0,0,0,0,0,-1,1098,617,0,0
-119,407,0,0,0,0,0,0,0,0,0,-1,1105,617,0,0
-112,407,0,0,0,0,0,0,0,0,0,-1,1112,617,0,0
-105,407,0,0,0,0,0,0,0,0,0,-1,1119,617,0,0
-98,407,0,0,0,0,0,0,0,0,0,-1,1126,617,0,0
-91,407,0,0,0,0,0,0,0,0,0,-1,1133,617,0,0
-84,407,0,0,0,0,0,0,0,0,0,-1,1140,617,0,0
-77,407,0,0,0,0,0,0,0,0,0,-1,1147,617,0,0
-70,407,0,0,0,0,0,0,0,0,0,-1,1154,617,0,0
-63,407,0,0,0,0,0,0,0,0,0,-1,1161,617,0,0
-56,407,0,0,0,0,0,0,0,0,0,-1,1168,617,0,0
-49,407,0,0,0,0,0,0,0,0,0,-1,1175,617,0,0
-42,407,0,0,0,0,0,0,0,0,0,-1,1182,617,0,0
-35,407,0,0,0,0,0,0,0,0,0,-1,1189,617,0,0
-28,407,0,0,0,0,0,0,0,0,0,-1,1196,617,0,0
-21,407,0,0,0,0,0,0,0,0,0,-1,1203,617,0,0
-14,407,0,0,0,0,0,0,0,0,0,-1,1210,617,0,0
-7,407,0,0,0,0,0,0,0,0,0,-1,1217,617,0,0
0,407,0,0,0,0,0,0,0,0,0,-1,1224,617,0,0
7,407,0,0,0,0,0,0,0,0,0,-1,1231,617,0,0
14,407,0,0,0,0,0,0,0,0,0,-1,1238,617,0,0
21,407,0,0,0,0,0,0,0,0,0,-1,1245,617,0,0
28,407,0,0,0,0,0,0,0,0,0,-1,1252,617,0,0
35,407,0,0,0,0,0,0,0,0,0,-1,1259,617,0,0
42,407,0,0,0,0,0,0,0,0,0,-1,1266,617,0,0
49,407,0,0,0,0,0,0,0,0,0,-1,1273,617,0,0
56,407,0,0,0,0,0,0,0,0,0,-1,1280,617,0,0
63,407,0,0,0,0,0,0,0,0,0,-1,1287,617,0,0
70,407,0,0,0,0,0,0,0,0,0,-1,1294,617,0,0
77,407,0,0,0,0,0,0,0,0,0,-1,1301,617,0,0
84,407,0,0,0,0,0,0,0,0,0,-1,1308,617,0,0
91,407,0,0,0,0,0,0,0,0,0,-1,1315,617,0,0
98,407,0,0,0,0,0,0,0,0,0,-1,1322,617,0,0
105,407,0,0,0,0,0,0,0,0,0,-1,1329,617,0,0
112,407,0,0,0,0,0,0,0,0,0,-1,1336,617,0,0
119,407,0,0,0,0,0,0,0,0,0,-1,1343,617,0,0
126,407,0,0,0,0,0,0,0,0,0,-1,1350,617,0,0
133,407,0,0,0,0,0,0,0,0,0,-1,1357,617,0,0
140,407,0,0,0,0,0,0,0,0,0,-1,1364,617,0,0
147,407,0,0,0,0,0,0,0,0,0,-1,1371,617,0,0
154,407,0,0,0,0,0,0,0,0,0,-1,1378,617,0,0
161,407,0,0,0,0,0,0,0,0,0,-1,1385,617,0,0
168,407,0,0,0,0,0,0,0,0,0,-1,1392,617,0,0
175,407,0,0,0,0,0,0,0,0,0,-1,1399,617,0,0
182,407,0,0,0,0,0,0,0,0,0,-1,1406,617,0,0
189,407,0,0,0,0,0,0,0,0,0,-1,1413,617,0,0
196,407,0,0,0,0,0,0,0,0,0,-1,1420,617,0,0
203,407,0,0,0,0,0,0,0,0,0,-1,1427,617,0,0
210,407,0,0,0,0,0,0,0,0,0,-1,1434,617,0,0
217,407,0,0,0,0,0,0,0,0,0,-1,1441,617,0,0
224,407,0,0,0,0,0,0,0,0,0,-1,1448,617,0,0
231,407,0,0,0,0,0,0,0,0,0,-1,1455,617,0,0
238,407,0,0,0,0,0,0,0,0,0,-1,1462,617,0,0
245,407,0,0,0,0,0,0,0,0,0,-1,1469,617,0,0
252,407,0,0,0,0,0,0,0,0,0,-1,1476,617,0,0
259,407,0,0,0,0,0,0,0,0,0,-1,1483,617,0,0
266,407,0,0,0,0,0,0,0,0,0,-1,1490,617,0,0
273,407,0,0,0,0,0,0,0,0,0,-1,1497,617,0,0
280,407,0,0,0,0,0,0,0,0,0,-1,1504,617,0,0
287,407,0,0,0,0,0,0,0,0,0,-1,1511,617,0,0
294,407,0,0,0,0,0,0,0,0,0,-1,1518,617,0,0
301,407,0,0,0,0,0,0,0,0,0,-1,1525,617,0,0
308,407,0,0,0,0,0,0,0,0,0,-1,1532,617,0,0
315,407,0,0,0,0,0,0,0,0,0,-1,1539,617,0,0
322,407,0,0,0,0,0,0,0,0,0,-1,1546,617,0,0
329,407,0,0,0,0,0,0,0,0,0,-1,1553,617,0,0
336,407,0,0,0,0,0,0,0,0,0,-1,1560,617,0,0
343,407,0,0,0,0,0,0,0,0,0,-1,1567,617,0,0
350,407,0,0,0,0,0,0,0,0,0,-1,1574,617,0,0
357,407,0,0,0,0,0,0,0,0,0,-1,1581,617,0,0
364,407,0,0,0,0,0,0,0,0,0,-1,1588,617,0,0
371,407,0,0,0,0,0,0,0,0,0,-1,1595,617,0,0
378,407,0,0,0,0,0,0,0,0,0,-1,1602,617,0,0
385,407,0,0,0,0,0,0,0,0,0,-1,1609,617,0,0
392,407,0,0,0,0,0,0,0,0,0,-1,1616,617,0,0
399,407,0,0,0,0,0,0,0,0,0,-1,1623,617,0,0
406,407,0,0,0,0,0,0,0,0,0,-1,1630,617,0,0
413,407,0,0,0,0,0,0,0,0,0,-1,1637,617,0,0
420,407,0,0,0,0,0,0,0,0,0,-1,1644,617,0,0
427,407,0,0,0,0,0,0,0,0,0,-1,1651,617,0,0
434,407,0,0,0,0,0,0,0,0,0,-1,1658,617,0,0
441,407,0,0,0,0,0,0,0,0,0,-1,1665,617,0,0
448,407,7.02893,2.13843,0,0,0,0,0,0,0,-1,1672,617,7.02899,-2.13844
455,407,7.55237,2.29242,0,0,0,0,0,0,0,-1,1679,617,7.55236,-2.29244
462,407,8.2926,2.46173,0,0,0,0,0,0,0,-1,1686,617,8.29261,-2.46174
469,407,8.71509,2.22681,0,0,0,0,0,0,0,-1,1693,617,8.71511,-2.22681
476,407,8.89917,1.47766,0,0,0,0,0,0,0,-1,1700,617,8.89914,-1.47768
483,407,9.02612,0.682983,0,0,0,0,0,0,0,-1,1707,617,9.02608,-0.683004
490,407,9.12659,0.000671387,0,0,0,0,0,0,0,-1,1714,617,9.12653,-0.000675931
497,407,7.76819,0.855835,0,0,0,0,0,0,0,-1,1721,617,7.7682,-0.855865
504,407,4.69336,0.160706,0,0,0,0,0,0,0,-1,1728,617,4.69337,-0.1607
511,407,4.07104,-0.00140381,0,0,0,0,0,0,0,-1,1735,617,4.07109,0.00141425
518,407,6.09534,1.9411,0,0,0,0,0,0,0,-1,1742,617,6.09532,-1.94113
525,407,5.72534,-1.35986,0,0,0,0,0,0,0,-1,1749,617,5.72529,1.35988
532,407,18.5767,-10.6388,0,0,0,0,0,0,0,-1,1756,617,18.5766,10.6388
539,407,26.938,-17.6706,0,0,0,0,0,0,0,-1,1763,617,26.938,17.6706
546,407,27.0092,-16.7662,0.00375904,0.0011381,0.00163839,0.00454658,0.000350554,0.448072,0.00292122,0.0277877,1770,617,27.0091,16.7662
553,407,26.9591,-15.9913,0.00298532,0.00094497,0.00118576,0.00352936,0.000400925,0.430161,0.0022313,0.016432,1777,617,26.9591,15.9913
560,407,26.9661,-15.1991,0.00233821,0.000830098,0.000879384,0.00274257,0.000425743,0.430987,0.00170428,0.0175829,1784,617,26.9661,15.1991
567,407,26.8868,-14.4786,0.00184421,0.00082462,0.000770515,0.00225831,0.000410519,0.493144,0.00138907,0.0312303,1791,617,26.8869,14.4786
574,407,26.8364,-13.6929,0.00159386,0.00105265,0.000874589,0.00223875,0.000407756,0.635364,0.00137686,0.0269607,1798,617,26.8364,13.6929
581,407,26.7933,-12.8391,0.00149604,0.00143134,0.00113353,0.00259768,0.000329692,0.771132,0.00163302,0.0192012,1805,617,26.7933,12.839
588,407,26.7454,-12.0801,0.0015683,0.00207929,0.00159795,0.00344204,0.00020555,0.864673,0.00222934,0.0143423,1812,617,26.7453,12.0801
595,407,26.7639,-11.2963,0.00188444,0.00292031,0.00227634,0.0047369,6.78531e-05,0.897259,0.00313556,0.0267902,1819,617,26.7639,11.2963
602,407,26.7324,-10.4472,0.00240057,0.0040154,0.00311905,0.00642985,-1.38741e-05,0.912051,0.0042912,0.0212189,1826,617,26.7324,10.4472
609,407,26.6277,-9.60858,0.00322529,0.0054825,0.00422266,0.00872477,-1.69859e-05,0.915983,0.00582219,0.0192468,1833,617,26.6276,9.60855
616,407,26.6589,-8.65424,0.00439023,0.00731779,0.0055585,0.011602,0.000106008,0.914146,0.00769958,0.0347231,1840,617,26.6589,8.65425
623,407,26.9265,-7.56421,0,0,0,0,0,0,0,-1,1847,617,26.9266,7.56419
630,407,7.06177,0.814575,0,0,0,0,0,0,0,-1,1854,617,7.06178,-0.814579
637,407,11.1063,0.391846,0,0,0,0,0,0,0,-1,1861,617,11.1063,-0.391862
644,407,5.09766,2.27747,0,0,0,0,0,0,0,-1,1868,617,5.09764,-2.27746
651,407,7.37524,0.0513916,0,0,0,0,0,0,0,-1,1875,617,7.3752,-0.0513923
658,407,3.76685,0.594177,0,0,0,0,0,0,0,-1,1882,617,3.76683,-0.594184
665,407,5.76123,0.375061,0,0,0,0,0,0,0,-1,1889,617,5.76118,-0.37509
672,407,0,0,0,0,0,0,0,0,0,-1,1896,617,0,0
679,407,0,0,0,0,0,0,0,0,0,-1,1903,617,0,0
686,407,0,0,0,0,0,0,0,0,0,-1,1910,617,0,0
693,407,0,0,0,0,0,0,0,0,0,-1,1917,617,0,0
700,407,0,0,0,0,0,0,0,0,0,-1,1924,617,0,0
707,407,0,0,0,0,0,0,0,0,0,-1,1931,617,0,0
714,407,0,0,0,0,0,0,0,0,0,-1,1938,617,0,0
721,407,0,0,0,0,0,0,0,0,0,-1,1945,617,0,0
728,407,0,0,0,0,0,0,0,0,0,-1,1952,617,0,0
735,407,0,0,0,0,0,0,0,0,0,-1,1959,617,0,0
742,407,0,0,0,0,0,0,0,0,0,-1,1966,617,0,0
749,407,0,0,0,0,0,0,0,0,0,-1,1973,617,0,0
756,407,0,0,0,0,0,0,0,0,0,-1,1980,617,0,0
763,407,0,0,0,0,0,0,0,0,0,-1,1987,617,0,0
770,407,0,0,0,0,0,0,0,0,0,-1,1994,617,0,0
777,407,0,0,0,0,0,0,0,0,0,-1,2001,617,0,0
784,407,0,0,0,0,0,0,0,0,0,-1,2008,617,0,0
791,407,0,0,0,0,0,0,0,0,0,-1,2015,617,0,0
798,407,0,0,0,0,0,0,0,0,0,-1,2022,617,0,0
805,407,0,0,0,0,0,0,0,0,0,-1,2029,617,0,0
812,407,0,0,0,0,0,0,0,0,0,-1,2036,617,0,0
-700,400,0,0,0,0,0,0,0,0,0,-1,524,624,0,0
-693,400,0,0,0,0,0,0,0,0,0,-1,531,624,0,0
-686,400,0,0,0,0,0,0,0,0,0,-1,538,624,0,0
-679,400,0,0,0,0,0,0,0,0,0,-1,545,624,0,0
-672,400,0,0,0,0,0,0,0,0,0,-1,552,624,0,0
-665,400,0,0,0,0,0,0,0,0,0,-1,559,624,0,0
-658,400,0,0,0,0,0,0,0,0,0,-1,566,624,0,0
-651,400,0,0,0,0,0,0,0,0,0,-1,573,624,0,0
-644,400,0,0,0,0,0,0,0,0,0,-1,580,624,0,0
-637,400,0,0,0,0,0,0,0,0,0,-1,587,624,0,0
-630,400,0,0,0,0,0,0,0,0,0,-1,594,624,0,0
-623,400,0,0,0,0,0,0,0,0,0,-1,601,624,0,0
-616,400,0,0,0,0,0,0,0,0,0,-1,608,624,0,0
-609,400,0,0,0,0,0,0,0,0,0,-1,615,624,0,0
-602,400,0,0,0,0,0,0,0,0,0,-1,622,624,0,0
-595,400,0,0,0,0,0,0,0,0,0,-1,629,624,0,0
-588,400,0,0,0,0,0,0,0,0,0,-1,636,624,0,0
-581,400,0,0,0,0,0,0,0,0,0,-1,643,624,0,0
-574,400,0,0,0,0,0,0,0,0,0,-1,650,624,0,0
-567,400,0,0,0,0,0,0,0,0,0,-1,657,624,0,0
-560,400,0,0,0,0,0,0,0,0,0,-1,664,624,0,0
-553,400,0,0,0,0,0,0,0,0,0,-1,671,624,0,0
-546,400,-8.41174,-1.4599,0,0,0,0,0,0,0,-1,678,624,-8.41173,1.45989
-539,400,-5.69104,-1.7337,0,0,0,0,0,0,0,-1,685,624,-5.69103,1.7337
-532,400,-3.03632,-2.03912,0,0,0,0,0,0,0,-1,692,624,-3.03632,2.03909
-525,400,-6.20813,-7.04071,0,0,0,0,0,0,0,-1,699,624,-6.20814,7.04071
-518,400,-5.26544,-1.58661,0,0,0,0,0,0,0,-1,706,624,-5.26544,1.58658
-511,400,-10.6307,-6.7121,0,0,0,0,0,0,0,-1,713,624,-10.6307,6.71209
-504,400,-10.2663,-6.55109,0,0,0,0,0,0,0,-1,720,624,-10.2663,6.55106
-497,400,-13.9387,-8.95929,0,0,0,0,0,0,0,-1,727,624,-13.9387,8.95926
-490,400,-13.7354,-9.86255,-0.000394699,0.00229381,-2.12297e-05,0.00229398,-0.000394867,-1.5629,0.00167651,0.0423501,734,624,-13.7354,9.86257
-483,400,-13.7888,-10.7578,-0.000533458,0.00183879,-3.89751e-05,0.00183943,-0.000534098,-1.55437,0.00143778,0.0184412,741,624,-13.7888,10.7578
-476,400,-13.8278,-11.5194,-0.000503921,0.00148135,-9.16226e-05,0.00148557,-0.00050814,-1.52478,0.00119629,0.0150169,748,624,-13.8278,11.5194
-469,400,-13.8679,-12.3091,-0.0002542,0.0011254,-0.000173714,0.00114694,-0.000275737,-1.44745,0.000871206,0.0159376,755,624,-13.8679,12.3092
-462,400,-13.9199,-13.1407,3.852e-05,0.000739777,-0.000211831,0.000798798,-2.0501e-05,-1.29906,0.000539496,0.0208485,762,624,-13.9198,13.1407
-455,400,-13.9541,-13.9352,0.000364846,0.000437031,-0.000254563,0.000658047,0.00014383,-0.855819,0.000399481,0.0209941,769,624,-13.9541,13.9352
-448,400,-13.9805,-14.7192,0.000768498,0.000179754,-0.000307299,0.00089967,4.85824e-05,-0.40344,0.000584259,0.0164213,776,624,-13.9805,14.7193
-441,400,-14.028,-15.4139,0.00112743,-3.24313e-05,-0.000298648,0.00119981,-0.000104812,-0.237776,0.000837003,0.0156676,783,624,-14.028,15.4139
-434,400,-14.0905,-16.1605,0.00151941,-0.000143882,-0.000300384,0.001572,-0.000196468,-0.173305,0.00111925,0.0128033,790,624,-14.0905,16.1605
-427,400,-14.1174,-16.9364,0.00188804,-0.000154064,-0.000343426,0.00194425,-0.000210272,-0.162229,0.00137164,0.0115068,797,624,-14.1173,16.9364
-420,400,-14.0732,-17.7371,0.00209659,-0.000149235,-0.000237289,0.00212139,-0.000174033,-0.104126,0.0014757,0.0194762,804,624,-14.0732,17.7371
-413,400,-14.2212,-18.3499,0.0022621,0.000117381,-0.000144885,0.00227184,0.000107637,-0.067148,0.00147999,0.0497686,811,624,-14.2212,18.3499
-406,400,-14.392,-18.9125,0,0,0,0,0,0,0,-1,818,624,-14.392,18.9125
-399,400,-11.0176,-13.2944,0,0,0,0,0,0,0,-1,825,624,-11.0176,13.2944
-392,400,-4.92285,-6.63354,0,0,0,0,0,0,0,-1,832,624,-4.92285,6.63354
-385,400,-3.68738,-5.04205,0,0,0,0,0,0,0,-1,839,624,-3.68736,5.04207
-378,400,-6.84064,-1.28662,0,0,0,0,0,0,0,-1,846,624,-6.84062,1.28662
-371,400,-6.98865,-1.2572,0,0,0,0,0,0,0,-1,853,624,-6.98865,1.25721
-364,400,-6.97247,-1.24133,0,0,0,0,0,0,0,-1,860,624,-6.97249,1.24135
-357,400,-7.18329,-1.23218,0,0,0,0,0,0,0,-1,867,624,-7.18327,1.2322
-350,400,-7.40186,-1.19409,0,0,0,0,0,0,0,-1,874,624,-7.40187,1.19407
-343,400,-8.09357,-1.51147,0,0,0,0,0,0,0,-1,881,624,-8.09355,1.51148
-336,400,0,0,0,0,0,0,0,0,0,-1,888,624,0,0
-329,400,0,0,0,0,0,0,0,0,0,-1,895,624,0,0
-322,400,0,0,0,0,0,0,0,0,0,-1,902,624,0,0
-315,400,0,0,0,0,0,0,0,0,0,-1,909,624,0,0
-308,400,0,0,0,0,0,0,0,0,0,-1,916,624,0,0
-301,400,0,0,0,0,0,0,0,0,0,-1,923,624,0,0
-294,400,0,0,0,0,0,0,0,0,0,-1,930,624,0,0
-287,400,0,0,0,0,0,0,0,0,0,-1,937,624,0,0
-280,400,0,0,0,0,0,0,0,0,0,-1,944,624,0,0
-273,400,0,0,0,0,0,0,0,0,0,-1,951,624,0,0
-266,400,0,0,0,0,0,0,0,0,0,-1,958,624,0,0
-259,400,0,0,0,0,0,0,0,0,0,-1,965,624,0,0
-252,400,0,0,0,0,0,0,0,0,0,-1,972,624,0,0
-245,400,0,0,0,0,0,0,0,0,0,-1,979,624,0,0
-238,400,0,0,0,0,0,0,0,0,0,-1,986,624,0,0
-231,400,0,0,0,0,0,0,0,0,0,-1,993,624,0,0
-224,400,0,0,0,0,0,0,0,0,0,-1,1000,624,0,0
-217,400,0,0,0,0,0,0,0,0,0,-1,1007,624,0,0
-210,400,0,0,0,0,0,0,0,0,0,-1,1014,624,0,0
-203,400,0,0,0,0,0,0,0,0,0,-1,1021,624,0,0
-196,400,0,0,0,0,0,0,0,0,0,-1,1028,624,0,0
-189,400,0,0,0,0,0,0,0,0,0,-1,1035,624,0,0
-182,400,0,0,0,0,0,0,0,0,0,-1,1042,624,0,0
-175,400,0,0,0,0,0,0,0,0,0,-1,1049,624,0,0
-168,400,0,0,0,0,0,0,0,0,0,-1,1056,624,0,0
-161,400,0,0,0,0,0,0,0,0,0,-1,1063,624,0,0
-154,400,0,0,0,0,0,0,0,0,0,-1,1070,624,0,0
-147,400,0,0,0,0,0,0,0,0,0,-1,1077,624,0,0
-140,400,0,0,0,0,0,0,0,0,0,-1,1084,624,0,0
-133,400,0,0,0,0,0,0,0,0,0,-1,1091,624,0,0
-126,400,0,0,0,0,0,0,0,0,0,-1,1098,624,0,0
-119,400,0,0,0,0,0,0,0,0,0,-1,1105,624,0,0
-112,400,0,0,0,0,0,0,0,0,0,-1,1112,624,0,0
-105,400,0,0,0,0,0,0,0,0,0,-1,1119,624,0,0
-98,400,0,0,0,0,0,0,0,0,0,-1,1126,624,0,0
-91,400,0,0,0,0,0,0,0,0,0,-1,1133,624,0,0
-84,400,0,0,0,0,0,0,0,0,0,-1,1140,624,0,0
-77,400,0,0,0,0,0,0,0,0,0,-1,1147,624,0,0
-70,400,0,0,0,0,0,0,0,0,0,-1,1154,624,0,0
-63,400,0,0,0,0,0,0,0,0,0,-1,1161,624,0,0
-56,400,0,0,0,0,0,0,0,0,0,-1,1168,624,0,0
-49,400,0,0,0,0,0,0,0,0,0,-1,1175,624,0,0
-42,400,0,0,0,0,0,0,0,0,0,-1,1182,624,0,0
-35,400,0,0,0,0,0,0,0,0,0,-1,1189,624,0,0
-28,400,0,0,0,0,0,0,0,0,0,-1,1196,624,0,0
-21,400,0,0,0,0,0,0,0,0,0,-1,1203,624,0,0
-14,400,0,0,0,0,0,0,0,0,0,-1,1210,624,0,0
-7,400,0,0,0,0,0,0,0,0,0,-1,1217,624,0,0
0,400,0,0,0,0,0,0,0,0,0,-1,1224,624,0,0
7,400,0,0,0,0,0,0,0,0,0,-1,1231,624,0,0
14,400,0,0,0,0,0,0,0,0,0,-1,1238,624,0,0
21,400,0,0,0,0,0,0,0,0,0,-1,1245,624,0,0
28,400,0,0,0,0,0,0,0,0,0,-1,1252,624,0,0
35,400,0,0,0,0,0,0,0,0,0,-1,1259,624,0,0
42,400,0,0,0,0,0,0,0,0,0,-1,1266,624,0,0
49,400,0,0,0,0,0,0,0,0,0,-1,1273,624,0,0
56,400,0,0,0,0,0,0,0,0,0,-1,1280,624,0,0
63,400,0,0,0,0,0,0,0,0,0,-1,1287,624,0,0
70,400,0,0,0,0,0,0,0,0,0,-1,1294,624,0,0
77,400,0,0,0,0,0,0,0,0,0,-1,1301,624,0,0
84,400,0,0,0,0,0,0,0,0,0,-1,1308,624,0,0
91,400,0,0,0,0,0,0,0,0,0,-1,1315,624,0,0
98,400,0,0,0,0,0,0,0,0,0,-1,1322,624,0,0
105,400,0,0,0,0,0,0,0,0,0,-1,1329,624,0,0
112,400,0,0,0,0,0,0,0,0,0,-1,1336,624,0,0
119,400,0,0,0,0,0,0,0,0,0,-1,1343,624,0,0
126,400,0,0,0,0,0,0,0,0,0,-1,1350,624,0,0
133,400,0,0,0,0,0,0,0,0,0,-1,1357,624,0,0
140,400,0,0,0,0,0,0,0,0,0,-1,1364,624,0,0
147,400,0,0,0,0,0,0,0,0,0,-1,1371,624,0,0
154,400,0,0,0,0,0,0,0,0,0,-1,1378,624,0,0
161,400,0,0,0,0,0,0,0,0,0,-1,1385,624,0,0
168,400,0,0,0,0,0,0,0,0,0,-1,1392,624,0,0
175,400,0,0,0,0,0,0,0,0,0,-1,1399,624,0,0
182,400,0,0,0,0,0,0,0,0,0,-1,1406,624,0,0
189,400,0,0,0,0,0,0,0,0,0,-1,1413,624,0,0
196,400,0,0,0,0,0,0,0,0,0,-1,1420,624,0,0
203,400,0,0,0,0,0,0,0,0,0,-1,1427,624,0,0
210,400,0,0,0,0,0,0,0,0,0,-1,1434,624,0,0
217,400,0,0,0,0,0,0,0,0,0,-1,1441,624,0,0
224,400,0,0,0,0,0,0,0,0,0,-1,1448,624,0,0
231,400,0,0,0,0,0,0,0,0,0,-1,1455,624,0,0
238,400,0,0,0,0,0,0,0,0,0,-1,1462,624,0,0
245,400,0,0,0,0,0,0,0,0,0,-1,1469,624,0,0
252,400,0,0,0,0,0,0,0,0,0,-1,1476,624,0,0
259,400,0,0,0,0,0,0,0,0,0,-1,1483,624,0,0
266,400,0,0,0,0,0,0,0,0,0,-1,1490,624,0,0
273,400,0,0,0,0,0,0,0,0,0,-1,1497,624,0,0
280,400,0,0,0,0,0,0,0,0,0,-1,1504,624,0,0
287,400,0,0,0,0,0,0,0,0,0,-1,1511,624,0,0
294,400,0,0,0,0,0,0,0,0,0,-1,1518,624,0,0
301,400,0,0,0,0,0,0,0,0,0,-1,1525,624,0,0
308,400,0,0,0,0,0,0,0,0,0,-1,1532,624,0,0
315,400,0,0,0,0,0,0,0,0,0,-1,1539,624,0,0
322,400,0,0,0,0,0,0,0,0,0,-1,1546,624,0,0
329,400,0,0,0,0,0,0,0,0,0,-1,1553,624,0,0
336,400,0,0,0,0,0,0,0,0,0,-1,1560,624,0,0
343,400,0,0,0,0,0,0,0,0,0,-1,1567,624,0,0
350,400,0,0,0,0,0,0,0,0,0,-1,1574,624,0,0
357,400,0,0,0,0,0,0,0,0,0,-1,1581,624,0,0
364,400,0,0,0,0,0,0,0,0,0,-1,1588,624,0,0
371,400,0,0,0,0,0,0,0,0,0,-1,1595,624,0,0
378,400,0,0,0,0,0,0,0,0,0,-1,1602,624,0,0
385,400,0,0,0,0,0,0,0,0,0,-1,1609,624,0,0
392,400,0,0,0,0,0,0,0,0,0,-1,1616,624,0,0
399,400,0,0,0,0,0,0,0,0,0,-1,1623,624,0,0
406,400,0,0,0,0,0,0,0,0,0,-1,1630,624,0,0
413,400,0,0,0,0,0,0,0,0,0,-1,1637,624,0,0
420,400,0,0,0,0,0,0,0,0,0,-1,1644,624,0,0
427,400,0,0,0,0,0,0,0,0,0,-1,1651,624,0,0
434,400,0,0,0,0,0,0,0,0,0,-1,1658,624,0,0
441,400,0,0,0,0,0,0,0,0,0,-1,1665,624,0,0
448,400,0,0,0,0,0,0,0,0,0,-1,1672,624,0,0
455,400,8.91309,2.75885,0,0,0,0,0,0,0,-1,1679,624,8.91312,-2.75885
462,400,8.90356,2.37878,0,0,0,0,0,0,0,-1,1686,624,8.90353,-2.37878
469,400,9.14429,1.76849,0,0,0,0,0,0,0,-1,1693,624,9.14432,-1.76847
476,400,9.23254,1.25995,0,0,0,0,0,0,0,-1,1700,624,9.23252,-1.25994
483,400,9.59766,0.562439,0,0,0,0,0,0,0,-1,1707,624,9.59771,-0.56242
490,400,9.92578,-0.213745,0,0,0,0,0,0,0,-1,1714,624,9.92579,0.21376
497,400,9.19141,0.175232,0,0,0,0,0,0,0,-1,1721,624,9.19138,-0.175209
504,400,9.23438,0.00823975,0,0,0,0,0,0,0,-1,1728,624,9.23436,-0.00823766
511,400,6.16687,3.3501,0,0,0,0,0,0,0,-1,1735,624,6.16682,-3.35007
518,400,6.55237,1.74994,0,0,0,0,0,0,0,-1,1742,624,6.55236,-1.74993
525,400,6.99731,1.08783,0,0,0,0,0,0,0,-1,1749,624,6.99736,-1.08785
532,400,6.96582,-1.74982,0,0,0,0,0,0,0,-1,1756,624,6.96585,1.74983
539,400,21.2305,-10.5841,0,0,0,0,0,0,0,-1,1763,624,21.2304,10.5841
546,400,27.6155,-16.9293,0,0,0,0,0,0,0,-1,1770,624,27.6155,16.9293
553,400,27.6812,-16.0193,0.00326583,0.00104772,0.00119766,0.00378908,0.000524478,0.411896,0.00237064,0.0423551,1777,624,27.6811,16.0194
560,400,27.7211,-15.1641,0.00253207,0.000815504,0.000773845,0.00282942,0.000518155,0.366854,0.00173948,0.015638,1784,624,27.7211,15.1641
567,400,27.6917,-14.3793,0.0019316,0.000644484,0.000539336,0.00212771,0.000448369,0.348759,0.00129515,0.0185175,1791,624,27.6916,14.3792
574,400,27.6453,-13.5941,0.00160002,0.000762457,0.000584413,0.00190021,0.000462269,0.474513,0.00114428,0.02174,1798,624,27.6452,13.594
581,400,27.5691,-12.8106,0.00142646,0.0010557,0.000788628,0.0020512,0.000430955,0.669962,0.00124885,0.0211494,1805,624,27.5691,12.8106
588,400,27.5057,-11.9758,0.00143426,0.00160308,0.00119628,0.00271793,0.000319413,0.82062,0.00171542,0.0179469,1812,624,27.5057,11.9758
595,400,27.5197,-11.2056,0.00170969,0.00234094,0.00182333,0.00387576,0.000174873,0.8711,0.00252757,0.0172335,1819,624,27.5197,11.2057
602,400,27.5115,-10.4155,0.00218926,0.00329093,0.00260327,0.005401,7.91845e-05,0.889657,0.00357457,0.0161738,1826,624,27.5115,10.4155
609,400,27.379,-9.59204,0.0028965,0.00450648,0.00356634,0.00735755,4.54253e-05,0.896397,0.00488996,0.0147452,1833,624,27.379,9.59204
616,400,27.3129,-8.78058,0.0039025,0.00602755,0.00473178,0.00981463,0.000115423,0.895842,0.00650495,0.018458,1840,624,27.3129,8.78061
623,400,27.3124,-7.94135,0,0,0,0,0,0,0,-1,1847,624,27.3124,7.94135
630,400,11.9432,0.09021,0,0,0,0,0,0,0,-1,1854,624,11.9432,-0.0902007
637,400,6.92896,1.01917,0,0,0,0,0,0,0,-1,1861,624,6.92899,-1.01918
644,400,8.65381,1.4599,0,0,0,0,0,0,0,-1,1868,624,8.65379,-1.45991
651,400,7.90601,0.424072,0,0,0,0,0,0,0,-1,1875,624,7.90598,-0.424097
658,400,8.69031,1.0484,0,0,0,0,0,0,0,-1,1882,624,8.6903,-1.0484
665,400,5.98438,0.522522,0,0,0,0,0,0,0,-1,1889,624,5.98442,-0.522552
672,400,0,0,0,0,0,0,0,0,0,-1,1896,624,0,0
679,400,0,0,0,0,0,0,0,0,0,-1,1903,624,0,0
686,400,0,0,0,0,0,0,0,0,0,-1,1910,624,0,0
693,400,0,0,0,0,0,0,0,0,0,-1,1917,624,0,0
700,400,0,0,0,0,0,0,0,0,0,-1,1924,624,0,0
707,400,0,0,0,0,0,0,0,0,0,-1,1931,624,0,0
714,400,0,0,0,0,0,0,0,0,0,-1,1938,624,0,0
721,400,0,0,0,0,0,0,0,0,0,-1,1945,624,0,0
728,400,0,0,0,0,0,0,0,0,0,-1,1952,624,0,0
735,400,0,0,0,0,0,0,0,0,0,-1,1959,624,0,0
742,400,0,0,0,0,0,0,0,0,0,-1,1966,624,0,0
749,400,0,0,0,0,0,0,0,0,0,-1,1973,624,0,0
756,400,0,0,0,0,0,0,0,0,0,-1,1980,624,0,0
763,400,0,0,0,0,0,0,0,0,0,-1,1987,624,0,0
770,400,0,0,0,0,0,0,0,0,0,-1,1994,624,0,0
777,400,0,0,0,0,0,0,0,0,0,-1,2001,624,0,0
784,400,0,0,0,0,0,0,0,0,0,-1,2008,624,0,0
791,400,0,0,0,0,0,0,0,0,0,-1,2015,624,0,0
798,400,0,0,0,0,0,0,0,0,0,-1,2022,624,0,0
805,400,0,0,0,0,0,0,0,0,0,-1,2029,624,0,0
812,400,0,0,0,0,0,0,0,0,0,-1,2036,624,0,0
-700,393,0,0,0,0,0,0,0,0,0,-1,524,631,0,0
-693,393,0,0,0,0,0,0,0,0,0,-1,531,631,0,0
-686,393,0,0,0,0,0,0,0,0,0,-1,538,631,0,0
-679,393,0,0,0,0,0,0,0,0,0,-1,545,631,0,0
-672,393,0,0,0,0,0,0,0,0,0,-1,552,631,0,0
-665,393,0,0,0,0,0,0,0,0,0,-1,559,631,0,0
-658,393,0,0,0,0,0,0,0,0,0,-1,566,631,0,0
-651,393,0,0,0,0,0,0,0,0,0,-1,573,631,0,0
-644,393,0,0,0,0,0,0,0,0,0,-1,580,631,0,0
-637,393,0,0,0,0,0,0,0,0,0,-1,587,631,0,0
-630,393,0,0,0,0,0,0,0,0,0,-1,594,631,0,0
-623,393,0,0,0,0,0,0,0,0,0,-1,601,631,0,0
-616,393,0,0,0,0,0,0,0,0,0,-1,608,631,0,0
-609,393,0,0,0,0,0,0,0,0,0,-1,615,631,0,0
-602,393,0,0,0,0,0,0,0,0,0,-1,622,631,0,0
-595,393,0,0,0,0,0,0,0,0,0,-1,629,631,0,0
-588,393,0,0,0,0,0,0,0,0,0,-1,636,631,0,0
-581,393,0,0,0,0,0,0,0,0,0,-1,643,631,0,0
-574,393,0,0,0,0,0,0,0,0,0,-1,650,631,0,0
-567,393,0,0,0,0,0,0,0,0,0,-1,657,631,0,0
-560,393,0,0,0,0,0,0,0,0,0,-1,664,631,0,0
-553,393,-2.35107,3.92633,0,0,0,0,0,0,0,-1,671,631,-2.35108,-3.92634
-546,393,-1.78778,2.4856,0,0,0,0,0,0,0,-1,678,631,-1.78778,-2.48557
-539,393,-5.2113,-2.20245,0,0,0,0,0,0,0,-1,685,631,-5.21128,2.20247
-532,393,-2.83643,-2.01624,0,0,0,0,0,0,0,-1,692,631,-2.83642,2.01626
-525,393,-5.9505,-0.952698,0,0,0,0,0,0,0,-1,699,631,-5.95053,0.95268
-518,393,-5.80219,-1.57739,0,0,0,0,0,0,0,-1,706,631,-5.80219,1.57738
-511,393,-6.15527,-2.09906,0,0,0,0,0,0,0,-1,713,631,-6.15526,2.09903
-504,393,-13.6063,-6.95947,0,0,0,0,0,0,0,-1,720,631,-13.6063,6.95946
-497,393,-14.6883,-8.72339,0,0,0,0,0,0,0,-1,727,631,-14.6883,8.72341
-490,393,-14.5219,-9.89142,0.000298095,0.00169183,-0.000353145,0.0017762,0.000213723,-1.33628,0.00111971,0.0252522,734,631,-14.5219,9.89139
-483,393,-14.5477,-10.6957,0.000115885,0.00135694,-0.000324872,0.00143683,3.59863e-05,-1.32964,0.000946122,0.020975,741,631,-14.5477,10.6958
-476,393,-14.5981,-11.4666,0.000102815,0.00106804,-0.000336363,0.00117369,-2.83652e-06,-1.26645,0.000783409,0.0176512,748,631,-14.5981,11.4666
-469,393,-14.6373,-12.2665,0.000260473,0.000770894,-0.000370552,0.000965618,6.57487e-05,-1.08696,0.000622987,0.0131313,755,631,-14.6372,12.2665
-462,393,-14.692,-13.1032,0.00044269,0.000399929,-0.000341861,0.000763839,7.87808e-05,-0.754168,0.000485102,0.0155154,762,631,-14.692,13.1032
-455,393,-14.7398,-13.9101,0.000705864,0.000150242,-0.000359116,0.000882083,-2.59777e-05,-0.456182,0.000596903,0.0144215,769,631,-14.7398,13.9101
-448,393,-14.7798,-14.6772,0.00105014,-7.47911e-05,-0.00038168,0.00116742,-0.000192065,-0.298103,0.000849569,0.0144237,776,631,-14.7798,14.6772
-441,393,-14.8237,-15.3976,0.00137303,-0.000252554,-0.000357937,0.00144835,-0.000327878,-0.207412,0.0010914,0.0138716,783,631,-14.8237,15.3976
-434,393,-14.8611,-16.1288,0.00174062,-0.000295123,-0.00035328,0.00180018,-0.000354688,-0.167034,0.00133416,0.0130853,790,631,-14.8611,16.1288
-427,393,-14.8383,-16.9219,0.00205343,-0.000279263,-0.000360384,0.00210784,-0.000333671,-0.14984,0.00152864,0.0228453,797,631,-14.8383,16.922
-420,393,-14.7675,-17.7685,0,0,0,0,0,0,0,-1,804,631,-14.7675,17.7685
-413,393,-15.0913,-18.3777,0,0,0,0,0,0,0,-1,811,631,-15.0913,18.3777
-406,393,-11.826,-12.7987,0,0,0,0,0,0,0,-1,818,631,-11.8261,12.7987
-399,393,-5.07343,-5.92365,0,0,0,0,0,0,0,-1,825,631,-5.07344,5.92364
-392,393,-2.08063,-3.02386,0,0,0,0,0,0,0,-1,832,631,-2.08063,3.02384
-385,393,-3.16931,-0.624756,0,0,0,0,0,0,0,-1,839,631,-3.16928,0.624764
-378,393,-7.33081,-0.872314,0,0,0,0,0,0,0,-1,846,631,-7.33081,0.872325
-371,393,-7.47858,-0.811096,0,0,0,0,0,0,0,-1,853,631,-7.47859,0.811075
-364,393,-7.64917,-0.662415,0,0,0,0,0,0,0,-1,860,631,-7.64917,0.662406
-357,393,-8.09686,-0.726013,0,0,0,0,0,0,0,-1,867,631,-8.09689,0.726029
-350,393,-8.38788,-0.511841,0,0,0,0,0,0,0,-1,874,631,-8.38785,0.511811
-343,393,0,0,0,0,0,0,0,0,0,-1,881,631,0,0
-336,393,0,0,0,0,0,0,0,0,0,-1,888,631,0,0
-329,393,0,0,0,0,0,0,0,0,0,-1,895,631,0,0
-322,393,0,0,0,0,0,0,0,0,0,-1,902,631,0,0
-315,393,0,0,0,0,0,0,0,0,0,-1,909,631,0,0
-308,393,0,0,0,0,0,0,0,0,0,-1,916,631,0,0
-301,393,0,0,0,0,0,0,0,0,0,-1,923,631,0,0
-294,393,0,0,0,0,0,0,0,0,0,-1,930,631,0,0
-287,393,0,0,0,0,0,0,0,0,0,-1,937,631,0,0
-280,393,0,0,0,0,0,0,0,0,0,-1,944,631,0,0
-273,393,0,0,0,0,0,0,0,0,0,-1,951,631,0,0
-266,393,0,0,0,0,0,0,0,0,0,-1,958,631,0,0
-259,393,0,0,0,0,0,0,0,0,0,-1,965,631,0,0
-252,393,0,0,0,0,0,0,0,0,0,-1,972,631,0,0
-245,393,0,0,0,0,0,0,0,0,0,-1,979,631,0,0
-238,393,0,0,0,0,0,0,0,0,0,-1,986,631,0,0
-231,393,0,0,0,0,0,0,0,0,0,-1,993,631,0,0
-224,393,0,0,0,0,0,0,0,0,0,-1,1000,631,0,0
-217,393,0,0,0,0,0,0,0,0,0,-1,1007,631,0,0
-210,393,0,0,0,0,0,0,0,0,0,-1,1014,631,0,0
-203,393,0,0,0,0,0,0,0,0,0,-1,1021,631,0,0
-196,393,0,0,0,0,0,0,0,0,0,-1,1028,631,0,0
-189,393,0,0,0,0,0,0,0,0,0,-1,1035,631,0,0
-182,393,0,0,0,0,0,0,0,0,0,-1,1042,631,0,0
-175,393,0,0,0,0,0,0,0,0,0,-1,1049,631,0,0
-168,393,0,0,0,0,0,0,0,0,0,-1,1056,631,0,0
-161,393,0,0,0,0,0,0,0,0,0,-1,1063,631,0,0
-154,393,0,0,0,0,0,0,0,0,0,-1,1070,631,0,0
-147,393,0,0,0,0,0,0,0,0,0,-1,1077,631,0,0
-140,393,0,0,0,0,0,0,0,0,0,-1,1084,631,0,0
-133,393,0,0,0,0,0,0,0,0,0,-1,1091,631,0,0
-126,393,0,0,0,0,0,0,0,0,0,-1,1098,631,0,0
-119,393,0,0,0,0,0,0,0,0,0,-1,1105,631,0,0
-112,393,0,0,0,0,0,0,0,0,0,-1,1112,631,0,0
-105,393,0,0,0,0,0,0,0,0,0,-1,1119,631,0,0
-98,393,0,0,0,0,0,0,0,0,0,-1,1126,631,0,0
-91,393,0,0,0,0,0,0,0,0,0,-1,1133,631,0,0
-84,393,0,0,0,0,0,0,0,0,0,-1,1140,631,0,0
-77,393,0,0,0,0,0,0,0,0,0,-1,1147,631,0,0
-70,393,0,0,0,0,0,0,0,0,0,-1,1154,631,0,0
-63,393,0,0,0,0,0,0,0,0,0,-1,1161,631,0,0
-56,393,0,0,0,0,0,0,0,0,0,-1,1168,631,0,0
-49,393,0,0,0,0,0,0,0,0,0,-1,1175,631,0,0
-42,393,0,0,0,0,0,0,0,0,0,-1,1182,631,0,0
-35,393,0,0,0,0,0,0,0,0,0,-1,1189,631,0,0
-28,393,0,0,0,0,0,0,0,0,0,-1,1196,631,0,0
-21,393,0,0,0,0,0,0,0,0,0,-1,1203,631,0,0
-14,393,0,0,0,0,0,0,0,0,0,-1,1210,631,0,0
-7,393,0,0,0,0,0,0,0,0,0,-1,1217,631,0,0
0,393,0,0,0,0,0,0,0,0,0,-1,1224,631,0,0
7,393,0,0,0,0,0,0,0,0,0,-1,1231,631,0,0
14,393,0,0,0,0,0,0,0,0,0,-1,1238,631,0,0
21,393,0,0,0,0,0,0,0,0,0,-1,1245,631,0,0
28,393,0,0,0,0,0,0,0,0,0,-1,1252,631,0,0
35,393,0,0,0,0,0,0,0,0,0,-1,1259,631,0,0
42,393,0,0,0,0,0,0,0,0,0,-1,1266,631,0,0
49,393,0,0,0,0,0,0,0,0,0,-1,1273,631,0,0
56,393,0,0,0,0,0,0,0,0,0,-1,1280,631,0,0
63,393,0,0,0,0,0,0,0,0,0,-1,1287,631,0,0
70,393,0,0,0,0,0,0,0,0,0,-1,1294,631,0,0
77,393,0,0,0,0,0,0,0,0,0,-1,1301,631,0,0
84,393,0,0,0,0,0,0,0,0,0,-1,1308,631,0,0
91,393,0,0,0,0,0,0,0,0,0,-1,1315,631,0,0
98,393,0,0,0,0,0,0,0,0,0,-1,1322,631,0,0
105,393,0,0,0,0,0,0,0,0,0,-1,1329,631,0,0
112,393,0,0,0,0,0,0,0,0,0,-1,1336,631,0,0
119,393,0,0,0,0,0,0,0,0,0,-1,1343,631,0,0
126,393,0,0,0,0,0,0,0,0,0,-1,1350,631,0,0
133,393,0,0,0,0,0,0,0,0,0,-1,1357,631,0,0
140,393,0,0,0,0,0,0,0,0,0,-1,1364,631,0,0
147,393,0,0,0,0,0,0,0,0,0,-1,1371,631,0,0
154,393,0,0,0,0,0,0,0,0,0,-1,1378,631,0,0
161,393,0,0,0,0,0,0,0,0,0,-1,1385,631,0,0
168,393,0,0,0,0,0,0,0,0,0,-1,1392,631,0,0
175,393,0,0,0,0,0,0,0,0,0,-1,1399,631,0,0
182,393,0,0,0,0,0,0,0,0,0,-1,1406,631,0,0
189,393,0,0,0,0,0,0,0,0,0,-1,1413,631,0,0
196,393,0,0,0,0,0,0,0,0,0,-1,1420,631,0,0
203,393,0,0,0,0,0,0,0,0,0,-1,1427,631,0,0
210,393,0,0,0,0,0,0,0,0,0,-1,1434,631,0,0
217,393,0,0,0,0,0,0,0,0,0,-1,1441,631,0,0
224,393,0,0,0,0,0,0,0,0,0,-1,1448,631,0,0
231,393,0,0,0,0,0,0,0,0,0,-1,1455,631,0,0
238,393,0,0,0,0,0,0,0,0,0,-1,1462,631,0,0
245,393,0,0,0,0,0,0,0,0,0,-1,1469,631,0,0
252,393,0,0,0,0,0,0,0,0,0,-1,1476,631,0,0
259,393,0,0,0,0,0,0,0,0,0,-1,1483,631,0,0
266,393,0,0,0,0,0,0,0,0,0,-1,1490,631,0,0
273,393,0,0,0,0,0,0,0,0,0,-1,1497,631,0,0
280,393,0,0,0,0,0,0,0,0,0,-1,1504,631,0,0
287,393,0,0,0,0,0,0,0,0,0,-1,1511,631,0,0
294,393,0,0,0,0,0,0,0,0,0,-1,1518,631,0,0
301,393,0,0,0,0,0,0,0,0,0,-1,1525,631,0,0
308,393,0,0,0,0,0,0,0,0,0,-1,1532,631,0,0
315,393,0,0,0,0,0,0,0,0,0,-1,1539,631,0,0
322,393,0,0,0,0,0,0,0,0,0,-1,1546,631,0,0
329,393,0,0,0,0,0,0,0,0,0,-1,1553,631,0,0
336,393,0,0,0,0,0,0,0,0,0,-1,1560,631,0,0
343,393,0,0,0,0,0,0,0,0,0,-1,1567,631,0,0
350,393,0,0,0,0,0,0,0,0,0,-1,1574,631,0,0
357,393,0,0,0,0,0,0,0,0,0,-1,1581,631,0,0
364,393,0,0,0,0,0,0,0,0,0,-1,1588,631,0,0
371,393,0,0,0,0,0,0,0,0,0,-1,1595,631,0,0
378,393,0,0,0,0,0,0,0,0,0,-1,1602,631,0,0
385,393,0,0,0,0,0,0,0,0,0,-1,1609,631,0,0
392,393,0,0,0,0,0,0,0,0,0,-1,1616,631,0,0
399,393,0,0,0,0,0,0,0,0,0,-1,1623,631,0,0
406,393,0,0,0,0,0,0,0,0,0,-1,1630,631,0,0
413,393,0,0,0,0,0,0,0,0,0,-1,1637,631,0,0
420,393,0,0,0,0,0,0,0,0,0,-1,1644,631,0,0
427,393,0,0,0,0,0,0,0,0,0,-1,1651,631,0,0
434,393,0,0,0,0,0,0,0,0,0,-1,1658,631,0,0
441,393,0,0,0,0,0,0,0,0,0,-1,1665,631,0,0
448,393,0,0,0,0,0,0,0,0,0,-1,1672,631,0,0
455,393,0,0,0,0,0,0,0,0,0,-1,1679,631,0,0
462,393,8.51099,1.89502,0,0,0,0,0,0,0,-1,1686,631,8.51103,-1.89504
469,393,9.39465,1.51703,0,0,0,0,0,0,0,-1,1693,631,9.39465,-1.51703
476,393,9.95569,1.185,0,0,0,0,0,0,0,-1,1700,631,9.95575,-1.18497
483,393,10.5267,0.887329,0,0,0,0,0,0,0,-1,1707,631,10.5267,-0.887321
490,393,10.9303,0.761414,0,0,0,0,0,0,0,-1,1714,631,10.9303,-0.761386
497,393,8.32153,1.88104,0,0,0,0,0,0,0,-1,1721,631,8.32148,-1.88103
504,393,9.46985,1.78711,0,0,0,0,0,0,0,-1,1728,631,9.46986,-1.78713
511,393,9.66565,-0.375977,0,0,0,0,0,0,0,-1,1735,631,9.66571,0.375949
518,393,7.01599,1.62482,0,0,0,0,0,0,0,-1,1742,631,7.01597,-1.62483
525,393,7.88245,-1.13422,0,0,0,0,0,0,0,-1,1749,631,7.88246,1.13423
532,393,7.06335,-1.18103,0,0,0,0,0,0,0,-1,1756,631,7.06332,1.18101
539,393,9.91626,-2.46301,0,0,0,0,0,0,0,-1,1763,631,9.91625,2.46302
546,393,16.4094,-8.04651,0,0,0,0,0,0,0,-1,1770,631,16.4094,8.04649
553,393,28.3324,-16.0752,0,0,0,0,0,0,0,-1,1777,631,28.3324,16.0752
560,393,28.472,-15.1711,0.00270021,0.00085963,0.000642625,0.00290237,0.000657467,0.304788,0.00175724,0.0458952,1784,631,28.472,15.1711
567,393,28.4634,-14.3314,0.0019685,0.000487373,0.000268113,0.00201554,0.000440333,0.17368,0.00122362,0.0166553,1791,631,28.4633,14.3314
574,393,28.4438,-13.5533,0.00153379,0.000477449,0.000254835,0.00159205,0.000419186,0.22477,0.000952884,0.0161689,1798,631,28.4439,13.5533
581,393,28.3621,-12.7443,0.00127292,0.000693931,0.000404301,0.00148069,0.000486167,0.474692,0.000871508,0.0167952,1805,631,28.362,12.7443
588,393,28.3138,-11.9026,0.00123296,0.00114619,0.000758597,0.00194941,0.000429737,0.756832,0.00118268,0.0191297,1812,631,28.3138,11.9026
595,393,28.3119,-11.1727,0.00148717,0.00179449,0.00132763,0.00297732,0.000304339,0.843011,0.00189161,0.0166665,1819,631,28.3119,11.1727
602,393,28.2806,-10.3918,0.00195063,0.0026274,0.00203709,0.00435402,0.000224011,0.867703,0.00283097,0.0181982,1826,631,28.2806,10.3918
609,393,28.1945,-9.54749,0.00257434,0.00366149,0.00286718,0.00603617,0.000199668,0.879079,0.00395923,0.0159598,1833,631,28.1944,9.54748
616,393,28.1337,-8.75366,0.00340001,0.00495643,0.00382749,0.00808403,0.000272415,0.885692,0.00530088,0.0152375,1840,631,28.1336,8.75369
623,393,28.1331,-7.85724,0.00438974,0.00635086,0.00488339,0.0103512,0.000389434,0.884478,0.0067747,0.0343053,1847,631,28.1331,7.85725
630,393,28.1862,-6.83527,0,0,0,0,0,0,0,-1,1854,631,28.1861,6.83528
637,393,11.4626,0.608887,0,0,0,0,0,0,0,-1,1861,631,11.4627,-0.608904
644,393,8.97583,1.30585,0,0,0,0,0,0,0,-1,1868,631,8.97586,-1.30584
651,393,11.348,0.53302,0,0,0,0,0,0,0,-1,1875,631,11.348,-0.53305
658,393,9.21338,1.50836,0,0,0,0,0,0,0,-1,1882,631,9.21338,-1.50834
665,393,6.1001,2.32129,0,0,0,0,0,0,0,-1,1889,631,6.10012,-2.3213
672,393,7.14575,2.43225,0,0,0,0,0,0,0,-1,1896,631,7.14572,-2.43222
679,393,0,0,0,0,0,0,0,0,0,-1,1903,631,0,0
686,393,0,0,0,0,0,0,0,0,0,-1,1910,631,0,0
693,393,0,0,0,0,0,0,0,0,0,-1,1917,631,0,0
700,393,0,0,0,0,0,0,0,0,0,-1,1924,631,0,0
707,393,0,0,0,0,0,0,0,0,0,-1,1931,631,0,0
714,393,0,0,0,0,0,0,0,0,0,-1,1938,631,0,0
721,393,0,0,0,0,0,0,0,0,0,-1,1945,631,0,0
728,393,0,0,0,0,0,0,0,0,0,-1,1952,631,0,0
735,393,0,0,0,0,0,0,0,0,0,-1,1959,631,0,0
742,393,0,0,0,0,0,0,0,0,0,-1,1966,631,0,0
749,393,0,0,0,0,0,0,0,0,0,-1,1973,631,0,0
756,393,0,0,0,0,0,0,0,0,0,-1,1980,631,0,0
763,393,0,0,0,0,0,0,0,0,0,-1,1987,631,0,0
770,393,0,0,0,0,0,0,0,0,0,-1,1994,631,0,0
777,393,0,0,0,0,0,0,0,0,0,-1,2001,631,0,0
784,393,0,0,0,0,0,0,0,0,0,-1,2008,631,0,0
791,393,0,0,0,0,0,0,0,0,0,-1,2015,631,0,0
798,393,0,0,0,0,0,0,0,0,0,-1,2022,631,0,0
805,393,0,0,0,0,0,0,0,0,0,-1,2029,631,0,0
812,393,0,0,0,0,0,0,0,0,0,-1,2036,631,0,0
-700,386,0,0,0,0,0,0,0,0,0,-1,524,638,0,0
-693,386,0,0,0,0,0,0,0,0,0,-1,531,638,0,0
-686,386,0,0,0,0,0,0,0,0,0,-1,538,638,0,0
-679,386,0,0,0,0,0,0,0,0,0,-1,545,638,0,0
-672,386,0,0,0,0,0,0,0,0,0,-1,552,638,0,0
-665,386,0,0,0,0,0,0,0,0,0,-1,559,638,0,0
-658,386,0,0,0,0,0,0,0,0,0,-1,566,638,0,0
-651,386,0,0,0,0,0,0,0,0,0,-1,573,638,0,0
-644,386,0,0,0,0,0,0,0,0,0,-1,580,638,0,0
-637,386,0,0,0,0,0,0,0,0,0,-1,587,638,0,0
-630,386,0,0,0,0,0,0,0,0,0,-1,594,638,0,0
-623,386,0,0,0,0,0,0,0,0,0,-1,601,638,0,0
-616,386,0,0,0,0,0,0,0,0,0,-1,608,638,0,0
-609,386,0,0,0,0,0,0,0,0,0,-1,615,638,0,0
-602,386,0,0,0,0,0,0,0,0,0,-1,622,638,0,0
-595,386,0,0,0,0,0,0,0,0,0,-1,629,638,0,0
-588,386,0,0,0,0,0,0,0,0,0,-1,636,638,0,0
-581,386,0,0,0,0,0,0,0,0,0,-1,643,638,0,0
-574,386,0,0,0,0,0,0,0,0,0,-1,650,638,0,0
-567,386,0,0,0,0,0,0,0,0,0,-1,657,638,0,0
-560,386,-3.97229,-5.13898,0,0,0,0,0,0,0,-1,664,638,-3.97232,5.13897
-553,386,-4.94244,-5.54309,0,0,0,0,0,0,0,-1,671,638,-4.94242,5.5431
-546,386,-1.78668,1.72827,0,0,0,0,0,0,0,-1,678,638,-1.78668,-1.72829
-539,386,-0.879456,-2.90009,0,0,0,0,0,0,0,-1,685,638,-0.879442,2.90008
-532,386,-5.4884,1.73328,0,0,0,0,0,0,0,-1,692,638,-5.4884,-1.73325
-525,386,-6.64148,-1.50604,0,0,0,0,0,0,0,-1,699,638,-6.64149,1.50603
-518,386,-11.1217,-4.10382,0,0,0,0,0,0,0,-1,706,638,-11.1217,4.1038
-511,386,-13.0612,-5.05151,0,0,0,0,0,0,0,-1,713,638,-13.0612,5.05149
-504,386,-15.3256,-8.15771,0,0,0,0,0,0,0,-1,720,638,-15.3256,8.15771
-497,386,-15.3412,-9.09125,0.00104732,0.00144295,-0.000633257,0.00190857,0.000581701,-0.936783,0.00112956,0.0248009,727,638,-15.3413,9.09127
-490,386,-15.2925,-9.93353,0.000783456,0.00125753,-0.000547283,0.00161691,0.000424083,-0.989761,0.000968051,0.0141085,734,638,-15.2925,9.93355
-483,386,-15.3096,-10.7186,0.000581054,0.00100653,-0.000484006,0.00132249,0.000265095,-0.992456,0.000807922,0.0175659,741,638,-15.3096,10.7186
-476,386,-15.3632,-11.4769,0.000545063,0.000767661,-0.000467038,0.00113648,0.000176245,-0.902371,0.000706273,0.0156879,748,638,-15.3632,11.4769
-469,386,-15.4189,-12.2509,0.000633642,0.000513475,-0.000469496,0.00104688,0.000100233,-0.721757,0.000667026,0.011658,755,638,-15.4189,12.2508
-462,386,-15.4573,-13.0632,0.000739877,0.000159466,-0.000401703,0.000945237,-4.58932e-05,-0.472585,0.000645999,0.0114526,762,638,-15.4574,13.0633
-455,386,-15.5026,-13.8512,0.000965222,-5.82633e-05,-0.000407848,0.00110787,-0.000200907,-0.336448,0.000813854,0.0126552,769,638,-15.5025,13.8512
-448,386,-15.5439,-14.6158,0.00126863,-0.000269969,-0.000418032,0.00137487,-0.000376211,-0.248878,0.00106438,0.0133191,776,638,-15.544,14.6158
-441,386,-15.6044,-15.3555,0.00159131,-0.000426367,-0.000421966,0.001676,-0.00051106,-0.198078,0.00132106,0.0141945,783,638,-15.6044,15.3555
-434,386,-15.5962,-16.1658,0.00196844,-0.000409364,-0.000458328,0.00205372,-0.00049465,-0.183975,0.00156039,0.0323461,790,638,-15.5962,16.1658
-427,386,-15.5329,-16.9533,0,0,0,0,0,0,0,-1,797,638,-15.5329,16.9533
-420,386,-14.5338,-16.0451,0,0,0,0,0,0,0,-1,804,638,-14.5338,16.0451
-413,386,-5.45691,-5.35785,0,0,0,0,0,0,0,-1,811,638,-5.45691,5.35783
-406,386,-4.51135,-4.10999,0,0,0,0,0,0,0,-1,818,638,-4.51135,4.10996
-399,386,-3.57117,-3.42126,0,0,0,0,0,0,0,-1,825,638,-3.57116,3.42129
-392,386,-4.00977,0.403625,0,0,0,0,0,0,0,-1,832,638,-4.0098,-0.403616
-385,386,-3.2406,-0.118469,0,0,0,0,0,0,0,-1,839,638,-3.24058,0.118485
-378,386,-2.55243,-1.22748,0,0,0,0,0,0,0,-1,846,638,-2.55243,1.22748
-371,386,-7.95807,-0.330261,0,0,0,0,0,0,0,-1,853,638,-7.95806,0.330284
-364,386,-8.90637,-0.665955,0,0,0,0,0,0,0,-1,860,638,-8.90635,0.665951
-357,386,-9.10364,-0.388733,0,0,0,0,0,0,0,-1,867,638,-9.10364,0.388744
-350,386,0,0,0,0,0,0,0,0,0,-1,874,638,0,0
-343,386,0,0,0,0,0,0,0,0,0,-1,881,638,0,0
-336,386,0,0,0,0,0,0,0,0,0,-1,888,638,0,0
-329,386,0,0,0,0,0,0,0,0,0,-1,895,638,0,0
-322,386,0,0,0,0,0,0,0,0,0,-1,902,638,0,0
-315,386,0,0,0,0,0,0,0,0,0,-1,909,638,0,0
-308,386,0,0,0,0,0,0,0,0,0,-1,916,638,0,0
-301,386,0,0,0,0,0,0,0,0,0,-1,923,638,0,0
-294,386,0,0,0,0,0,0,0,0,0,-1,930,638,0,0
-287,386,0,0,0,0,0,0,0,0,0,-1,937,638,0,0
-280,386,0,0,0,0,0,0,0,0,0,-1,944,638,0,0
-273,386,0,0,0,0,0,0,0,0,0,-1,951,638,0,0
-266,386,0,0,0,0,0,0,0,0,0,-1,958,638,0,0
-259,386,0,0,0,0,0,0,0,0,0,-1,965,638,0,0
-252,386,0,0,0,0,0,0,0,0,0,-1,972,638,0,0
-245,386,0,0,0,0,0,0,0,0,0,-1,979,638,0,0
-238,386,0,0,0,0,0,0,0,0,0,-1,986,638,0,0
-231,386,0,0,0,0,0,0,0,0,0,-1,993,638,0,0
-224,386,0,0,0,0,0,0,0,0,0,-1,1000,638,0,0
-217,386,0,0,0,0,0,0,0,0,0,-1,1007,638,0,0
-210,386,0,0,0,0,0,0,0,0,0,-1,1014,638,0,0
-203,386,0,0,0,0,0,0,0,0,0,-1,1021,638,0,0
-196,386,0,0,0,0,0,0,0,0,0,-1,1028,638,0,0
-189,386,0,0,0,0,0,0,0,0,0,-1,1035,638,0,0
-182,386,0,0,0,0,0,0,0,0,0,-1,1042,638,0,0
-175,386,0,0,0,0,0,0,0,0,0,-1,1049,638,0,0
-168,386,0,0,0,0,0,0,0,0,0,-1,1056,638,0,0
-161,386,0,0,0,0,0,0,0,0,0,-1,1063,638,0,0
-154,386,0,0,0,0,0,0,0,0,0,-1,1070,638,0,0
-147,386,0,0,0,0,0,0,0,0,0,-1,1077,638,0,0
-140,386,0,0,0,0,0,0,0,0,0,-1,1084,638,0,0
-133,386,0,0,0,0,0,0,0,0,0,-1,1091,638,0,0
-126,386,0,0,0,0,0,0,0,0,0,-1,1098,638,0,0
-119,386,0,0,0,0,0,0,0,0,0,-1,1105,638,0,0
-112,386,0,0,0,0,0,0,0,0,0,-1,1112,638,0,0
-105,386,0,0,0,0,0,0,0,0,0,-1,1119,638,0,0
-98,386,0,0,0,0,0,0,0,0,0,-1,1126,638,0,0
-91,386,0,0,0,0,0,0,0,0,0,-1,1133,638,0,0
-84,386,0,0,0,0,0,0,0,0,0,-1,1140,638,0,0
-77,386,0,0,0,0,0,0,0,0,0,-1,1147,638,0,0
-70,386,0,0,0,0,0,0,0,0,0,-1,1154,638,0,0
-63,386,0,0,0,0,0,0,0,0,0,-1,1161,638,0,0
-56,386,0,0,0,0,0,0,0,0,0,-1,1168,638,0,0
-49,386,0,0,0,0,0,0,0,0,0,-1,1175,638,0,0
-42,386,0,0,0,0,0,0,0,0,0,-1,1182,638,0,0
-35,386,0,0,0,0,0,0,0,0,0,-1,1189,638,0,0
-28,386,0,0,0,0,0,0,0,0,0,-1,1196,638,0,0
-21,386,0,0,0,0,0,0,0,0,0,-1,1203,638,0,0
-14,386,0,0,0,0,0,0,0,0,0,-1,1210,638,0,0
-7,386,0,0,0,0,0,0,0,0,0,-1,1217,638,0,0
0,386,0,0,0,0,0,0,0,0,0,-1,1224,638,0,0
7,386,0,0,0,0,0,0,0,0,0,-1,1231,638,0,0
14,386,0,0,0,0,0,0,0,0,0,-1,1238,638,0,0
21,386,0,0,0,0,0,0,0,0,0,-1,1245,638,0,0
28,386,0,0,0,0,0,0,0,0,0,-1,1252,638,0,0
35,386,0,0,0,0,0,0,0,0,0,-1,1259,638,0,0
42,386,0,0,0,0,0,0,0,0,0,-1,1266,638,0,0
49,386,0,0,0,0,0,0,0,0,0,-1,1273,638,0,0
56,386,0,0,0,0,0,0,0,0,0,-1,1280,638,0,0
63,386,0,0,0,0,0,0,0,0,0,-1,1287,638,0,0
70,386,0,0,0,0,0,0,0,0,0,-1,1294,638,0,0
77,386,0,0,0,0,0,0,0,0,0,-1,1301,638,0,0
84,386,0,0,0,0,0,0,0,0,0,-1,1308,638,0,0
91,386,0,0,0,0,0,0,0,0,0,-1,1315,638,0,0
98,386,0,0,0,0,0,0,0,0,0,-1,1322,638,0,0
105,386,0,0,0,0,0,0,0,0,0,-1,1329,638,0,0
112,386,0,0,0,0,0,0,0,0,0,-1,1336,638,0,0
119,386,0,0,0,0,0,0,0,0,0,-1,1343,638,0,0
126,386,0,0,0,0,0,0,0,0,0,-1,1350,638,0,0
133,386,0,0,0,0,0,0,0,0,0,-1,1357,638,0,0
140,386,0,0,0,0,0,0,0,0,0,-1,1364,638,0,0
147,386,0,0,0,0,0,0,0,0,0,-1,1371,638,0,0
154,386,0,0,0,0,0,0,0,0,0,-1,1378,638,0,0
161,386,0,0,0,0,0,0,0,0,0,-1,1385,638,0,0
168,386,0,0,0,0,0,0,0,0,0,-1,1392,638,0,0
175,386,0,0,0,0,0,0,0,0,0,-1,1399,638,0,0
182,386,0,0,0,0,0,0,0,0,0,-1,1406,638,0,0
189,386,0,0,0,0,0,0,0,0,0,-1,1413,638,0,0
196,386,0,0,0,0,0,0,0,0,0,-1,1420,638,0,0
203,386,0,0,0,0,0,0,0,0,0,-1,1427,638,0,0
210,386,0,0,0,0,0,0,0,0,0,-1,1434,638,0,0
217,386,0,0,0,0,0,0,0,0,0,-1,1441,638,0,0
224,386,0,0,0,0,0,0,0,0,0,-1,1448,638,0,0
231,386,0,0,0,0,0,0,0,0,0,-1,1455,638,0,0
238,386,0,0,0,0,0,0,0,0,0,-1,1462,638,0,0
245,386,0,0,0,0,0,0,0,0,0,-1,1469,638,0,0
252,386,0,0,0,0,0,0,0,0,0,-1,1476,638,0,0
259,386,0,0,0,0,0,0,0,0,0,-1,1483,638,0,0
266,386,0,0,0,0,0,0,0,0,0,-1,1490,638,0,0
273,386,0,0,0,0,0,0,0,0,0,-1,1497,638,0,0
280,386,0,0,0,0,0,0,0,0,0,-1,1504,638,0,0
287,386,0,0,0,0,0,0,0,0,0,-1,1511,638,0,0
294,386,0,0,0,0,0,0,0,0,0,-1,1518,638,0,0
301,386,0,0,0,0,0,0,0,0,0,-1,1525,638,0,0
308,386,0,0,0,0,0,0,0,0,0,-1,1532,638,0,0
315,386,0,0,0,0,0,0,0,0,0,-1,1539,638,0,0
322,386,0,0,0,0,0,0,0,0,0,-1,1546,638,0,0
329,386,0,0,0,0,0,0,0,0,0,-1,1553,638,0,0
336,386,0,0,0,0,0,0,0,0,0,-1,1560,638,0,0
343,386,0,0,0,0,0,0,0,0,0,-1,1567,638,0,0
350,386,0,0,0,0,0,0,0,0,0,-1,1574,638,0,0
357,386,0,0,0,0,0,0,0,0,0,-1,1581,638,0,0
364,386,0,0,0,0,0,0,0,0,0,-1,1588,638,0,0
371,386,0,0,0,0,0,0,0,0,0,-1,1595,638,0,0
378,386,0,0,0,0,0,0,0,0,0,-1,1602,638,0,0
385,386,0,0,0,0,0,0,0,0,0,-1,1609,638,0,0
392,386,0,0,0,0,0,0,0,0,0,-1,1616,638,0,0
399,386,0,0,0,0,0,0,0,0,0,-1,1623,638,0,0
406,386,0,0,0,0,0,0,0,0,0,-1,1630,638,0,0
413,386,0,0,0,0,0,0,0,0,0,-1,1637,638,0,0
420,386,0,0,0,0,0,0,0,0,0,-1,1644,638,0,0
427,386,0,0,0,0,0,0,0,0,0,-1,1651,638,0,0
434,386,0,0,0,0,0,0,0,0,0,-1,1658,638,0,0
441,386,0,0,0,0,0,0,0,0,0,-1,1665,638,0,0
448,386,0,0,0,0,0,0,0,0,0,-1,1672,638,0,0
455,386,0,0,0,0,0,0,0,0,0,-1,1679,638,0,0
462,386,0,0,0,0,0,0,0,0,0,-1,1686,638,0,0
469,386,9.84692,1.55804,0,0,0,0,0,0,0,-1,1693,638,9.84691,-1.55807
476,386,10.6145,0.986511,0,0,0,0,0,0,0,-1,1700,638,10.6145,-0.986529
483,386,11.4113,0.732971,0,0,0,0,0,0,0,-1,1707,638,11.4112,-0.732958
490,386,7.79785,1.79572,0,0,0,0,0,0,0,-1,1714,638,7.79788,-1.7957
497,386,8.96362,1.77081,0,0,0,0,0,0,0,-1,1721,638,8.96357,-1.77081
504,386,10.0555,1.69427,0,0,0,0,0,0,0,-1,1728,638,10.0555,-1.69426
511,386,11.2172,1.534,0,0,0,0,0,0,0,-1,1735,638,11.2172,-1.53398
518,386,7.41553,1.75238,0,0,0,0,0,0,0,-1,1742,638,7.41547,-1.75238
525,386,8.82422,-1.1449,0,0,0,0,0,0,0,-1,1749,638,8.82426,1.14492
532,386,10.6432,0.617371,0,0,0,0,0,0,0,-1,1756,638,10.6432,-0.617359
539,386,9.62061,-0.393616,0,0,0,0,0,0,0,-1,1763,638,9.62059,0.393634
546,386,10.7963,-2.854,0,0,0,0,0,0,0,-1,1770,638,10.7962,2.854
553,386,16.9939,-7.27942,0,0,0,0,0,0,0,-1,1777,638,16.9939,7.27944
560,386,29.1658,-15.2848,0,0,0,0,0,0,0,-1,1784,638,29.1658,15.2848
567,386,29.196,-14.3088,0,0,0,0,0,0,0,-1,1791,638,29.1961,14.3088
574,386,29.2267,-13.4908,0.001458,0.000269335,-7.00018e-05,0.00146211,0.000265226,-0.058621,0.000899461,0.0145287,1798,638,29.2267,13.4908
581,386,29.1588,-12.7159,0.00107151,0.000375182,3.78217e-06,0.00107153,0.000375161,0.00543136,0.000627847,0.0145338,1805,638,29.1588,12.7159
588,386,29.1436,-11.9119,0.00097208,0.000696831,0.000294431,0.00115946,0.000509448,0.566773,0.000671054,0.0129523,1812,638,29.1436,11.9119
595,386,29.0952,-11.1395,0.00118981,0.0012395,0.000794308,0.00200935,0.000419959,0.801031,0.00122384,0.0142942,1819,638,29.0952,11.1396
602,386,29.0438,-10.3647,0.00161832,0.00195213,0.0014258,0.00322076,0.000349689,0.843664,0.00204062,0.0163073,1826,638,29.0438,10.3647
609,386,29.0322,-9.55658,0.00217174,0.00282559,0.00213843,0.00466194,0.000335387,0.861251,0.00300241,0.0153998,1833,638,29.0322,9.55658
616,386,28.9863,-8.74579,0.00288705,0.00392555,0.00293742,0.00638926,0.000423339,0.87288,0.00412564,0.0127648,1840,638,28.9863,8.74579
623,386,28.9121,-7.94568,0.00375695,0.00512851,0.00382879,0.00833245,0.000553007,0.874015,0.00538012,0.0109217,1847,638,28.9122,7.94567
630,386,29.0159,-7.09387,0.00467125,0.00638615,0.00467403,0.0102807,0.00077667,0.876115,0.00661016,0.0388558,1854,638,29.0158,7.09388
637,386,29.2076,-6.21429,0,0,0,0,0,0,0,-1,1861,638,29.2076,6.2143
644,386,11.6521,0.723328,0,0,0,0,0,0,0,-1,1868,638,11.6521,-0.723355
651,386,9.3866,1.31097,0,0,0,0,0,0,0,-1,1875,638,9.3866,-1.31095
658,386,12.0731,-0.00415039,0,0,0,0,0,0,0,-1,1882,638,12.0731,0.00412803
665,386,6.33167,1.78601,0,0,0,0,0,0,0,-1,1889,638,6.33171,-1.78601
672,386,7.23352,2.14435,0,0,0,0,0,0,0,-1,1896,638,7.23353,-2.14433
679,386,8.07764,2.57104,0,0,0,0,0,0,0,-1,1903,638,8.07758,-2.57103
686,386,0,0,0,0,0,0,0,0,0,-1,1910,638,0,0
693,386,0,0,0,0,0,0,0,0,0,-1,1917,638,0,0
700,386,0,0,0,0,0,0,0,0,0,-1,1924,638,0,0
707,386,0,0,0,0,0,0,0,0,0,-1,1931,638,0,0
714,386,0,0,0,0,0,0,0,0,0,-1,1938,638,0,0
721,386,0,0,0,0,0,0,0,0,0,-1,1945,638,0,0
728,386,0,0,0,0,0,0,0,0,0,-1,1952,638,0,0
735,386,0,0,0,0,0,0,0,0,0,-1,1959,638,0,0
742,386,0,0,0,0,0,0,0,0,0,-1,1966,638,0,0
749,386,0,0,0,0,0,0,0,0,0,-1,1973,638,0,0
756,386,0,0,0,0,0,0,0,0,0,-1,1980,638,0,0
763,386,0,0,0,0,0,0,0,0,0,-1,1987,638,0,0
770,386,0,0,0,0,0,0,0,0,0,-1,1994,638,0,0
777,386,0,0,0,0,0,0,0,0,0,-1,2001,638,0,0
784,386,0,0,0,0,0,0,0,0,0,-1,2008,638,0,0
791,386,0,0,0,0,0,0,0,0,0,-1,2015,638,0,0
798,386,0,0,0,0,0,0,0,0,0,-1,2022,638,0,0
805,386,0,0,0,0,0,0,0,0,0,-1,2029,638,0,0
812,386,0,0,0,0,0,0,0,0,0,-1,2036,638,0,0
-700,379,0,0,0,0,0,0,0,0,0,-1,524,645,0,0
-693,379,0,0,0,0,0,0,0,0,0,-1,531,645,0,0
-686,379,0,0,0,0,0,0,0,0,0,-1,538,645,0,0
-679,379,0,0,0,0,0,0,0,0,0,-1,545,645,0,0
-672,379,0,0,0,0,0,0,0,0,0,-1,552,645,0,0
-665,379,0,0,0,0,0,0,0,0,0,-1,559,645,0,0
-658,379,0,0,0,0,0,0,0,0,0,-1,566,645,0,0
-651,379,0,0,0,0,0,0,0,0,0,-1,573,645,0,0
-644,379,0,0,0,0,0,0,0,0,0,-1,580,645,0,0
-637,379,0,0,0,0,0,0,0,0,0,-1,587,645,0,0
-630,379,0,0,0,0,0,0,0,0,0,-1,594,645,0,0
-623,379,0,0,0,0,0,0,0,0,0,-1,601,645,0,0
-616,379,0,0,0,0,0,0,0,0,0,-1,608,645,0,0
-609,379,0,0,0,0,0,0,0,0,0,-1,615,645,0,0
-602,379,0,0,0,0,0,0,0,0,0,-1,622,645,0,0
-595,379,0,0,0,0,0,0,0,0,0,-1,629,645,0,0
-588,379,0,0,0,0,0,0,0,0,0,-1,636,645,0,0
-581,379,0,0,0,0,0,0,0,0,0,-1,643,645,0,0
-574,379,0,0,0,0,0,0,0,0,0,-1,650,645,0,0
-567,379,-8.78058,0.59668,0,0,0,0,0,0,0,-1,657,645,-8.7806,-0.596692
-560,379,-9.53485,-0.211304,0,0,0,0,0,0,0,-1,664,645,-9.53487,0.211282
-553,379,-5.17108,-4.53119,0,0,0,0,0,0,0,-1,671,645,-5.17106,4.53117
-546,379,-6.23053,-4.92102,0,0,0,0,0,0,0,-1,678,645,-6.23054,4.92105
-539,379,-0.71698,-2.19427,0,0,0,0,0,0,0,-1,685,645,-0.716959,2.19427
-532,379,-7.69611,0.217224,0,0,0,0,0,0,0,-1,692,645,-7.69614,-0.217204
-525,379,-7.09833,-1.13043,0,0,0,0,0,0,0,-1,699,645,-7.0983,1.13041
-518,379,-13.126,-5.33893,0,0,0,0,0,0,0,-1,706,645,-13.126,5.33895
-511,379,-15.9651,-7.46497,0,0,0,0,0,0,0,-1,713,645,-15.9651,7.465
-504,379,-15.9597,-8.34222,0.00178474,0.00109747,-0.000900195,0.00240466,0.000477549,-0.603068,0.00147001,0.0335502,720,645,-15.9597,8.34225
-497,379,-16.0727,-9.08777,0.00138452,0.0010934,-0.000755786,0.00200863,0.000469284,-0.690268,0.0012133,0.0150754,727,645,-16.0727,9.08776
-490,379,-16.0825,-9.90552,0.00108654,0.00091503,-0.000616568,0.00162329,0.00037828,-0.7163,0.000980725,0.010949,734,645,-16.0825,9.90553
-483,379,-16.1013,-10.7058,0.000874066,0.000704298,-0.00052804,0.001324,0.000254363,-0.705703,0.000811282,0.0126112,741,645,-16.1013,10.7058
-476,379,-16.1335,-11.4375,0.000818939,0.000492586,-0.000491978,0.0011741,0.00013743,-0.62527,0.00074118,0.0129925,748,645,-16.1335,11.4375
-469,379,-16.1889,-12.1987,0.000869787,0.000272775,-0.000490365,0.00114536,-2.7956e-06,-0.511986,0.000764505,0.012385,755,645,-16.1889,12.1988
-462,379,-16.2437,-13.004,0.000944171,-5.63332e-05,-0.00042229,0.00109858,-0.000210742,-0.350545,0.000811804,0.0098647,762,645,-16.2436,13.004
-455,379,-16.2712,-13.7654,0.00117249,-0.000249456,-0.000445713,0.00130065,-0.000377615,-0.279984,0.00101662,0.00985733,769,645,-16.2712,13.7654
-448,379,-16.2956,-14.5235,0.00148219,-0.000442896,-0.000473146,0.00159219,-0.0005529,-0.228436,0.00128601,0.0120287,776,645,-16.2956,14.5235
-441,379,-16.3339,-15.3361,0.00187645,-0.000566259,-0.000555543,0.00199686,-0.000686671,-0.213444,0.00160971,0.0229422,783,645,-16.3338,15.3361
-434,379,-16.2916,-16.303,0,0,0,0,0,0,0,-1,790,645,-16.2916,16.303
-427,379,-4.16113,-4.13452,0,0,0,0,0,0,0,-1,797,645,-4.16116,4.1345
-420,379,-4.63953,-3.46869,0,0,0,0,0,0,0,-1,804,645,-4.63953,3.46872
-413,379,-4.62543,-3.7912,0,0,0,0,0,0,0,-1,811,645,-4.62541,3.79123
-406,379,-4.64063,-4.38489,0,0,0,0,0,0,0,-1,818,645,-4.64065,4.3849
-399,379,-2.93536,-1.40118,0,0,0,0,0,0,0,-1,825,645,-2.93534,1.40119
-392,379,-4.16711,-0.466003,0,0,0,0,0,0,0,-1,832,645,-4.16714,0.465992
-385,379,-3.51862,0.441101,0,0,0,0,0,0,0,-1,839,645,-3.51859,-0.441072
-378,379,-5.3504,0.212219,0,0,0,0,0,0,0,-1,846,645,-5.35038,-0.212241
-371,379,-4.32092,-0.186707,0,0,0,0,0,0,0,-1,853,645,-4.3209,0.186707
-364,379,-3.40887,-0.549805,0,0,0,0,0,0,0,-1,860,645,-3.4089,0.549802
-357,379,0,0,0,0,0,0,0,0,0,-1,867,645,0,0
-350,379,0,0,0,0,0,0,0,0,0,-1,874,645,0,0
-343,379,0,0,0,0,0,0,0,0,0,-1,881,645,0,0
-336,379,0,0,0,0,0,0,0,0,0,-1,888,645,0,0
-329,379,0,0,0,0,0,0,0,0,0,-1,895,645,0,0
-322,379,0,0,0,0,0,0,0,0,0,-1,902,645,0,0
-315,379,0,0,0,0,0,0,0,0,0,-1,909,645,0,0
-308,379,0,0,0,0,0,0,0,0,0,-1,916,645,0,0
-301,379,0,0,0,0,0,0,0,0,0,-1,923,645,0,0
-294,379,0,0,0,0,0,0,0,0,0,-1,930,645,0,0
-287,379,0,0,0,0,0,0,0,0,0,-1,937,645,0,0
-280,379,0,0,0,0,0,0,0,0,0,-1,944,645,0,0
-273,379,0,0,0,0,0,0,0,0,0,-1,951,645,0,0
-266,379,0,0,0,0,0,0,0,0,0,-1,958,645,0,0
-259,379,0,0,0,0,0,0,0,0,0,-1,965,645,0,0
-252,379,0,0,0,0,0,0,0,0,0,-1,972,645,0,0
-245,379,0,0,0,0,0,0,0,0,0,-1,979,645,0,0
-238,379,0,0,0,0,0,0,0,0,0,-1,986,645,0,0
-231,379,0,0,0,0,0,0,0,0,0,-1,993,645,0,0
-224,379,0,0,0,0,0,0,0,0,0,-1,1000,645,0,0
-217,379,0,0,0,0,0,0,0,0,0,-1,1007,645,0,0
-210,379,0,0,0,0,0,0,0,0,0,-1,1014,645,0,0
-203,379,0,0,0,0,0,0,0,0,0,-1,1021,645,0,0
-196,379,0,0,0,0,0,0,0,0,0,-1,1028,645,0,0
-189,379,0,0,0,0,0,0,0,0,0,-1,1035,645,0,0
-182,379,0,0,0,0,0,0,0,0,0,-1,1042,645,0,0
-175,379,0,0,0,0,0,0,0,0,0,-1,1049,645,0,0
-168,379,0,0,0,0,0,0,0,0,0,-1,1056,645,0,0
-161,379,0,0,0,0,0,0,0,0,0,-1,1063,645,0,0
-154,379,0,0,0,0,0,0,0,0,0,-1,1070,645,0,0
-147,379,0,0,0,0,0,0,0,0,0,-1,1077,645,0,0
-140,379,0,0,0,0,0,0,0,0,0,-1,1084,645,0,0
-133,379,0,0,0,0,0,0,0,0,0,-1,1091,645,0,0
-126,379,0,0,0,0,0,0,0,0,0,-1,1098,645,0,0
-119,379,0,0,0,0,0,0,0,0,0,-1,1105,645,0,0
-112,379,0,0,0,0,0,0,0,0,0,-1,1112,645,0,0
-105,379,0,0,0,0,0,0,0,0,0,-1,1119,645,0,0
-98,379,0,0,0,0,0,0,0,0,0,-1,1126,645,0,0
-91,379,0,0,0,0,0,0,0,0,0,-1,1133,645,0,0
-84,379,0,0,0,0,0,0,0,0,0,-1,1140,645,0,0
-77,379,0,0,0,0,0,0,0,0,0,-1,1147,645,0,0
-70,379,0,0,0,0,0,0,0,0,0,-1,1154,645,0,0
-63,379,0,0,0,0,0,0,0,0,0,-1,1161,645,0,0
-56,379,0,0,0,0,0,0,0,0,0,-1,1168,645,0,0
-49,379,0,0,0,0,0,0,0,0,0,-1,1175,645,0,0
-42,379,0,0,0,0,0,0,0,0,0,-1,1182,645,0,0
-35,379,0,0,0,0,0,0,0,0,0,-1,1189,645,0,0
-28,379,0,0,0,0,0,0,0,0,0,-1,1196,645,0,0
-21,379,0,0,0,0,0,0,0,0,0,-1,1203,645,0,0
-14,379,0,0,0,0,0,0,0,0,0,-1,1210,645,0,0
-7,379,0,0,0,0,0,0,0,0,0,-1,1217,645,0,0
0,379,0,0,0,0,0,0,0,0,0,-1,1224,645,0,0
7,379,0,0,0,0,0,0,0,0,0,-1,1231,645,0,0
14,379,0,0,0,0,0,0,0,0,0,-1,1238,645,0,0
21,379,0,0,0,0,0,0,0,0,0,-1,1245,645,0,0
28,379,0,0,0,0,0,0,0,0,0,-1,1252,645,0,0
35,379,0,0,0,0,0,0,0,0,0,-1,1259,645,0,0
42,379,0,0,0,0,0,0,0,0,0,-1,1266,645,0,0
49,379,0,0,0,0,0,0,0,0,0,-1,1273,645,0,0
56,379,0,0,0,0,0,0,0,0,0,-1,1280,645,0,0
63,379,0,0,0,0,0,0,0,0,0,-1,1287,645,0,0
70,379,0,0,0,0,0,0,0,0,0,-1,1294,645,0,0
77,379,0,0,0,0,0,0,0,0,0,-1,1301,645,0,0
84,379,0,0,0,0,0,0,0,0,0,-1,1308,645,0,0
91,379,0,0,0,0,0,0,0,0,0,-1,1315,645,0,0
98,379,0,0,0,0,0,0,0,0,0,-1,1322,645,0,0
105,379,0,0,0,0,0,0,0,0,0,-1,1329,645,0,0
112,379,0,0,0,0,0,0,0,0,0,-1,1336,645,0,0
119,379,0,0,0,0,0,0,0,0,0,-1,1343,645,0,0
126,379,0,0,0,0,0,0,0,0,0,-1,1350,645,0,0
133,379,0,0,0,0,0,0,0,0,0,-1,1357,645,0,0
140,379,0,0,0,0,0,0,0,0,0,-1,1364,645,0,0
147,379,0,0,0,0,0,0,0,0,0,-1,1371,645,0,0
154,379,0,0,0,0,0,0,0,0,0,-1,1378,645,0,0
161,379,0,0,0,0,0,0,0,0,0,-1,1385,645,0,0
168,379,0,0,0,0,0,0,0,0,0,-1,1392,645,0,0
175,379,0,0,0,0,0,0,0,0,0,-1,1399,645,0,0
182,379,0,0,0,0,0,0,0,0,0,-1,1406,645,0,0
189,379,0,0,0,0,0,0,0,0,0,-1,1413,645,0,0
196,379,0,0,0,0,0,0,0,0,0,-1,1420,645,0,0
203,379,0,0,0,0,0,0,0,0,0,-1,1427,645,0,0
210,379,0,0,0,0,0,0,0,0,0,-1,1434,645,0,0
217,379,0,0,0,0,0,0,0,0,0,-1,1441,645,0,0
224,379,0,0,0,0,0,0,0,0,0,-1,1448,645,0,0
231,379,0,0,0,0,0,0,0,0,0,-1,1455,645,0,0
238,379,0,0,0,0,0,0,0,0,0,-1,1462,645,0,0
245,379,0,0,0,0,0,0,0,0,0,-1,1469,645,0,0
252,379,0,0,0,0,0,0,0,0,0,-1,1476,645,0,0
259,379,0,0,0,0,0,0,0,0,0,-1,1483,645,0,0
266,379,0,0,0,0,0,0,0,0,0,-1,1490,645,0,0
273,379,0,0,0,0,0,0,0,0,0,-1,1497,645,0,0
280,379,0,0,0,0,0,0,0,0,0,-1,1504,645,0,0
287,379,0,0,0,0,0,0,0,0,0,-1,1511,645,0,0
294,379,0,0,0,0,0,0,0,0,0,-1,1518,645,0,0
301,379,0,0,0,0,0,0,0,0,0,-1,1525,645,0,0
308,379,0,0,0,0,0,0,0,0,0,-1,1532,645,0,0
315,379,0,0,0,0,0,0,0,0,0,-1,1539,645,0,0
322,379,0,0,0,0,0,0,0,0,0,-1,1546,645,0,0
329,379,0,0,0,0,0,0,0,0,0,-1,1553,645,0,0
336,379,0,0,0,0,0,0,0,0,0,-1,1560,645,0,0
343,379,0,0,0,0,0,0,0,0,0,-1,1567,645,0,0
350,379,0,0,0,0,0,0,0,0,0,-1,1574,645,0,0
357,379,0,0,0,0,0,0,0,0,0,-1,1581,645,0,0
364,379,0,0,0,0,0,0,0,0,0,-1,1588,645,0,0
371,379,0,0,0,0,0,0,0,0,0,-1,1595,645,0,0
378,379,0,0,0,0,0,0,0,0,0,-1,1602,645,0,0
385,379,0,0,0,0,0,0,0,0,0,-1,1609,645,0,0
392,379,0,0,0,0,0,0,0,0,0,-1,1616,645,0,0
399,379,0,0,0,0,0,0,0,0,0,-1,1623,645,0,0
406,379,0,0,0,0,0,0,0,0,0,-1,1630,645,0,0
413,379,0,0,0,0,0,0,0,0,0,-1,1637,645,0,0
420,379,0,0,0,0,0,0,0,0,0,-1,1644,645,0,0
427,379,0,0,0,0,0,0,0,0,0,-1,1651,645,0,0
434,379,0,0,0,0,0,0,0,0,0,-1,1658,645,0,0
441,379,0,0,0,0,0,0,0,0,0,-1,1665,645,0,0
448,379,0,0,0,0,0,0,0,0,0,-1,1672,645,0,0
455,379,0,0,0,0,0,0,0,0,0,-1,1679,645,0,0
462,379,0,0,0,0,0,0,0,0,0,-1,1686,645,0,0
469,379,0,0,0,0,0,0,0,0,0,-1,1693,645,0,0
476,379,11.1787,0.830383,0,0,0,0,0,0,0,-1,1700,645,11.1787,-0.830365
483,379,7.4231,1.54321,0,0,0,0,0,0,0,-1,1707,645,7.42314,-1.54324
490,379,8.52881,1.56677,0,0,0,0,0,0,0,-1,1714,645,8.52878,-1.56677
497,379,9.63599,1.49573,0,0,0,0,0,0,0,-1,1721,645,9.63604,-1.4957
504,379,10.0833,1.35229,0,0,0,0,0,0,0,-1,1728,645,10.0832,-1.35227
511,379,8.14343,1.59912,0,0,0,0,0,0,0,-1,1735,645,8.14347,-1.59912
518,379,12.7955,-0.324097,0,0,0,0,0,0,0,-1,1742,645,12.7955,0.324101
525,379,6.03711,1.10352,0,0,0,0,0,0,0,-1,1749,645,6.03711,-1.10351
532,379,8.70947,0.887817,0,0,0,0,0,0,0,-1,1756,645,8.70953,-0.887808
539,379,9.87097,0.111389,0,0,0,0,0,0,0,-1,1763,645,9.87095,-0.111395
546,379,8.42383,-0.730652,0,0,0,0,0,0,0,-1,1770,645,8.42378,0.730638
553,379,19.2905,-7.67834,0,0,0,0,0,0,0,-1,1777,645,19.2905,7.67837
560,379,22.5734,-10.4749,0,0,0,0,0,0,0,-1,1784,645,22.5734,10.4749
567,379,30.0088,-14.2722,0,0,0,0,0,0,0,-1,1791,645,30.0088,14.2722
574,379,30.0155,-13.4399,0.00136444,2.79193e-05,-0.000458885,0.00150683,-0.000114467,-0.300867,0.0010448,0.0177432,1798,645,30.0155,13.4399
581,379,29.9988,-12.6757,0.000891181,8.07669e-05,-0.00039296,0.00105043,-7.84818e-05,-0.385028,0.000727859,0.0158673,1805,645,29.9988,12.6757
588,379,29.9469,-11.8629,0.000768274,0.000298426,-0.000117699,0.000796109,0.000270591,-0.232227,0.000467423,0.01685,1812,645,29.9469,11.8629
595,379,29.8834,-11.0867,0.000960471,0.0007722,0.000338976,0.00121814,0.000514531,0.649958,0.000706112,0.0140395,1819,645,29.8834,11.0867
602,379,29.8444,-10.3284,0.00134711,0.0013894,0.000904056,0.00227256,0.000463956,0.797091,0.00138651,0.0169322,1826,645,29.8444,10.3284
609,379,29.8102,-9.56335,0.00181699,0.00212023,0.00151248,0.00348867,0.000448558,0.835354,0.00219162,0.0184978,1833,645,29.8102,9.56332
616,379,29.754,-8.74805,0.0024063,0.00303257,0.00216992,0.00491183,0.000527041,0.857057,0.00311378,0.014117,1840,645,29.754,8.74805
623,379,29.723,-7.89557,0.00314147,0.00401763,0.00291264,0.00652496,0.000634148,0.860042,0.00415475,0.0122707,1847,645,29.723,7.89555
630,379,29.6958,-7.09857,0.0038639,0.00503367,0.00359788,0.00809389,0.000803673,0.865975,0.00514898,0.0138352,1854,645,29.6958,7.09859
637,379,29.7101,-6.19531,0.00450509,0.00620688,0.00428242,0.00972212,0.000989852,0.883468,0.00617795,0.0476212,1861,645,29.71,6.19533
644,379,29.9238,-5.17871,0,0,0,0,0,0,0,-1,1868,645,29.9239,5.17873
651,379,12.9515,0.220825,0,0,0,0,0,0,0,-1,1875,645,12.9515,-0.220814
658,379,13.7498,0.37439,0,0,0,0,0,0,0,-1,1882,645,13.7498,-0.374371
665,379,11.9719,0.353333,0,0,0,0,0,0,0,-1,1889,645,11.9719,-0.353321
672,379,7.57605,2.15326,0,0,0,0,0,0,0,-1,1896,645,7.57599,-2.15326
679,379,8.55078,2.50409,0,0,0,0,0,0,0,-1,1903,645,8.55073,-2.50406
686,379,0,0,0,0,0,0,0,0,0,-1,1910,645,0,0
693,379,0,0,0,0,0,0,0,0,0,-1,1917,645,0,0
700,379,0,0,0,0,0,0,0,0,0,-1,1924,645,0,0
707,379,0,0,0,0,0,0,0,0,0,-1,1931,645,0,0
714,379,0,0,0,0,0,0,0,0,0,-1,1938,645,0,0
721,379,0,0,0,0,0,0,0,0,0,-1,1945,645,0,0
728,379,0,0,0,0,0,0,0,0,0,-1,1952,645,0,0
735,379,0,0,0,0,0,0,0,0,0,-1,1959,645,0,0
742,379,0,0,0,0,0,0,0,0,0,-1,1966,645,0,0
749,379,0,0,0,0,0,0,0,0,0,-1,1973,645,0,0
756,379,0,0,0,0,0,0,0,0,0,-1,1980,645,0,0
763,379,0,0,0,0,0,0,0,0,0,-1,1987,645,0,0
770,379,0,0,0,0,0,0,0,0,0,-1,1994,645,0,0
777,379,0,0,0,0,0,0,0,0,0,-1,2001,645,0,0
784,379,0,0,0,0,0,0,0,0,0,-1,2008,645,0,0
791,379,0,0,0,0,0,0,0,0,0,-1,2015,645,0,0
798,379,0,0,0,0,0,0,0,0,0,-1,2022,645,0,0
805,379,0,0,0,0,0,0,0,0,0,-1,2029,645,0,0
812,379,0,0,0,0,0,0,0,0,0,-1,2036,645,0,0
-700,372,0,0,0,0,0,0,0,0,0,-1,524,652,0,0
-693,372,0,0,0,0,0,0,0,0,0,-1,531,652,0,0
-686,372,0,0,0,0,0,0,0,0,0,-1,538,652,0,0
-679,372,0,0,0,0,0,0,0,0,0,-1,545,652,0,0
-672,372,0,0,0,0,0,0,0,0,0,-1,552,652,0,0
-665,372,0,0,0,0,0,0,0,0,0,-1,559,652,0,0
-658,372,0,0,0,0,0,0,0,0,0,-1,566,652,0,0
-651,372,0,0,0,0,0,0,0,0,0,-1,573,652,0,0
-644,372,0,0,0,0,0,0,0,0,0,-1,580,652,0,0
-637,372,0,0,0,0,0,0,0,0,0,-1,587,652,0,0
-630,372,0,0,0,0,0,0,0,0,0,-1,594,652,0,0
-623,372,0,0,0,0,0,0,0,0,0,-1,601,652,0,0
-616,372,0,0,0,0,0,0,0,0,0,-1,608,652,0,0
-609,372,0,0,0,0,0,0,0,0,0,-1,615,652,0,0
-602,372,0,0,0,0,0,0,0,0,0,-1,622,652,0,0
-595,372,0,0,0,0,0,0,0,0,0,-1,629,652,0,0
-588,372,0,0,0,0,0,0,0,0,0,-1,636,652,0,0
-581,372,0,0,0,0,0,0,0,0,0,-1,643,652,0,0
-574,372,0,0,0,0,0,0,0,0,0,-1,650,652,0,0
-567,372,-7.93744,0.73407,0,0,0,0,0,0,0,-1,657,652,-7.93741,-0.734076
-560,372,-8.78552,-0.158203,0,0,0,0,0,0,0,-1,664,652,-8.78552,0.158216
-553,372,-7.95551,1.61694,0,0,0,0,0,0,0,-1,671,652,-7.95552,-1.61697
-546,372,-4.2403,-3.75372,0,0,0,0,0,0,0,-1,678,652,-4.24028,3.75369
-539,372,-7.92285,-0.0650024,0,0,0,0,0,0,0,-1,685,652,-7.92287,0.0649772
-532,372,-8.59589,-0.419556,0,0,0,0,0,0,0,-1,692,652,-8.59591,0.419539
-525,372,-8.03674,-1.36804,0,0,0,0,0,0,0,-1,699,652,-8.03676,1.36806
-518,372,-16.8016,-6.60022,0,0,0,0,0,0,0,-1,706,652,-16.8016,6.60022
-511,372,-16.7491,-7.53345,0.00241931,0.00107082,-0.00106533,0.00300583,0.000484292,-0.503269,0.00186355,0.0412003,713,652,-16.7491,7.53347
-504,372,-16.795,-8.26184,0.00200323,0.000978306,-0.000915224,0.00253969,0.000441838,-0.530181,0.00156676,0.0181287,720,652,-16.795,8.26185
-497,372,-16.8155,-9.06323,0.00164681,0.000833767,-0.000772952,0.00211362,0.000366953,-0.543309,0.00130409,0.0119531,727,652,-16.8155,9.06325
-490,372,-16.847,-9.84747,0.00135798,0.000609078,-0.000658151,0.00174075,0.000226313,-0.526763,0.0010929,0.0124784,734,652,-16.847,9.8475
-483,372,-16.8856,-10.6379,0.00115566,0.0004059,-0.000554535,0.00145014,0.000111418,-0.488173,0.000931842,0.012111,741,652,-16.8856,10.6379
-476,372,-16.9022,-11.3826,0.00108255,0.000224439,-0.000499542,0.001312,-5.01203e-06,-0.43058,0.000876343,0.0140297,748,652,-16.9022,11.3826
-469,372,-16.9614,-12.1304,0.00108076,5.36697e-05,-0.00049041,0.00127731,-0.000142877,-0.381179,0.000902939,0.0118293,755,652,-16.9614,12.1303
-462,372,-17.0132,-12.915,0.00109673,-0.000219158,-0.000422059,0.00122047,-0.000342894,-0.285181,0.000948827,0.0102967,762,652,-17.0132,12.915
-455,372,-17.0623,-13.6867,0.0012811,-0.000371782,-0.000450498,0.00139591,-0.000486592,-0.249539,0.00112834,0.0106305,769,652,-17.0623,13.6867
-448,372,-17.075,-14.4628,0.00152474,-0.000527453,-0.000469114,0.00162689,-0.000629604,-0.214405,0.00134453,0.0143658,776,652,-17.075,14.4628
-441,372,-16.9249,-15.4113,0,0,0,0,0,0,0,-1,783,652,-16.9249,15.4113
-434,372,-9.86865,-9.68494,0,0,0,0,0,0,0,-1,790,652,-9.86863,9.68492
-427,372,-4.54248,-3.56268,0,0,0,0,0,0,0,-1,797,652,-4.54247,3.56266
-420,372,-4.66168,-2.93597,0,0,0,0,0,0,0,-1,804,652,-4.66166,2.93599
-413,372,-4.74762,-3.29541,0,0,0,0,0,0,0,-1,811,652,-4.74763,3.29542
-406,372,-0.885437,-0.583923,0,0,0,0,0,0,0,-1,818,652,-0.885437,0.5839
-399,372,-3.97357,-0.825012,0,0,0,0,0,0,0,-1,825,652,-3.97359,0.825037
-392,372,-7.64337,0.173035,0,0,0,0,0,0,0,-1,832,652,-7.64337,-0.173019
-385,372,-6.48871,-0.0271606,0,0,0,0,0,0,0,-1,839,652,-6.48874,0.0271353
-378,372,-5.33044,-0.242432,0,0,0,0,0,0,0,-1,846,652,-5.33042,0.242457
-371,372,-4.40802,-0.495667,0,0,0,0,0,0,0,-1,853,652,-4.40802,0.495661
-364,372,0,0,0,0,0,0,0,0,0,-1,860,652,0,0
-357,372,0,0,0,0,0,0,0,0,0,-1,867,652,0,0
-350,372,0,0,0,0,0,0,0,0,0,-1,874,652,0,0
-343,372,0,0,0,0,0,0,0,0,0,-1,881,652,0,0
-336,372,0,0,0,0,0,0,0,0,0,-1,888,652,0,0
-329,372,0,0,0,0,0,0,0,0,0,-1,895,652,0,0
-322,372,0,0,0,0,0,0,0,0,0,-1,902,652,0,0
-315,372,0,0,0,0,0,0,0,0,0,-1,909,652,0,0
-308,372,0,0,0,0,0,0,0,0,0,-1,916,652,0,0
-301,372,0,0,0,0,0,0,0,0,0,-1,923,652,0,0
-294,372,0,0,0,0,0,0,0,0,0,-1,930,652,0,0
-287,372,0,0,0,0,0,0,0,0,0,-1,937,652,0,0
-280,372,0,0,0,0,0,0,0,0,0,-1,944,652,0,0
-273,372,0,0,0,0,0,0,0,0,0,-1,951,652,0,0
-266,372,0,0,0,0,0,0,0,0,0,-1,958,652,0,0
-259,372,0,0,0,0,0,0,0,0,0,-1,965,652,0,0
-252,372,0,0,0,0,0,0,0,0,0,-1,972,652,0,0
-245,372,0,0,0,0,0,0,0,0,0,-1,979,652,0,0
-238,372,0,0,0,0,0,0,0,0,0,-1,986,652,0,0
-231,372,0,0,0,0,0,0,0,0,0,-1,993,652,0,0
-224,372,0,0,0,0,0,0,0,0,0,-1,1000,652,0,0
-217,372,0,0,0,0,0,0,0,0,0,-1,1007,652,0,0
-210,372,0,0,0,0,0,0,0,0,0,-1,1014,652,0,0
-203,372,0,0,0,0,0,0,0,0,0,-1,1021,652,0,0
-196,372,0,0,0,0,0,0,0,0,0,-1,1028,652,0,0
-189,372,0,0,0,0,0,0,0,0,0,-1,1035,652,0,0
-182,372,0,0,0,0,0,0,0,0,0,-1,1042,652,0,0
-175,372,0,0,0,0,0,0,0,0,0,-1,1049,652,0,0
-168,372,0,0,0,0,0,0,0,0,0,-1,1056,652,0,0
-161,372,0,0,0,0,0,0,0,0,0,-1,1063,652,0,0
-154,372,0,0,0,0,0,0,0,0,0,-1,1070,652,0,0
-147,372,0,0,0,0,0,0,0,0,0,-1,1077,652,0,0
-140,372,0,0,0,0,0,0,0,0,0,-1,1084,652,0,0
-133,372,0,0,0,0,0,0,0,0,0,-1,1091,652,0,0
-126,372,0,0,0,0,0,0,0,0,0,-1,1098,652,0,0
-119,372,0,0,0,0,0,0,0,0,0,-1,1105,652,0,0
-112,372,0,0,0,0,0,0,0,0,0,-1,1112,652,0,0
-105,372,0,0,0,0,0,0,0,0,0,-1,1119,652,0,0
-98,372,0,0,0,0,0,0,0,0,0,-1,1126,652,0,0
-91,372,0,0,0,0,0,0,0,0,0,-1,1133,652,0,0
-84,372,0,0,0,0,0,0,0,0,0,-1,1140,652,0,0
-77,372,0,0,0,0,0,0,0,0,0,-1,1147,652,0,0
-70,372,0,0,0,0,0,0,0,0,0,-1,1154,652,0,0
-63,372,0,0,0,0,0,0,0,0,0,-1,1161,652,0,0
-56,372,0,0,0,0,0,0,0,0,0,-1,1168,652,0,0
-49,372,0,0,0,0,0,0,0,0,0,-1,1175,652,0,0
-42,372,0,0,0,0,0,0,0,0,0,-1,1182,652,0,0
-35,372,0,0,0,0,0,0,0,0,0,-1,1189,652,0,0
-28,372,0,0,0,0,0,0,0,0,0,-1,1196,652,0,0
-21,372,0,0,0,0,0,0,0,0,0,-1,1203,652,0,0
-14,372,0,0,0,0,0,0,0,0,0,-1,1210,652,0,0
-7,372,0,0,0,0,0,0,0,0,0,-1,1217,652,0,0
0,372,0,0,0,0,0,0,0,0,0,-1,1224,652,0,0
7,372,0,0,0,0,0,0,0,0,0,-1,1231,652,0,0
14,372,0,0,0,0,0,0,0,0,0,-1,1238,652,0,0
21,372,0,0,0,0,0,0,0,0,0,-1,1245,652,0,0
28,372,0,0,0,0,0,0,0,0,0,-1,1252,652,0,0
35,372,0,0,0,0,0,0,0,0,0,-1,1259,652,0,0
42,372,0,0,0,0,0,0,0,0,0,-1,1266,652,0,0
49,372,0,0,0,0,0,0,0,0,0,-1,1273,652,0,0
56,372,0,0,0,0,0,0,0,0,0,-1,1280,652,0,0
63,372,0,0,0,0,0,0,0,0,0,-1,1287,652,0,0
70,372,0,0,0,0,0,0,0,0,0,-1,1294,652,0,0
77,372,0,0,0,0,0,0,0,0,0,-1,1301,652,0,0
84,372,0,0,0,0,0,0,0,0,0,-1,1308,652,0,0
91,372,0,0,0,0,0,0,0,0,0,-1,1315,652,0,0
98,372,0,0,0,0,0,0,0,0,0,-1,1322,652,0,0
105,372,0,0,0,0,0,0,0,0,0,-1,1329,652,0,0
112,372,0,0,0,0,0,0,0,0,0,-1,1336,652,0,0
119,372,0,0,0,0,0,0,0,0,0,-1,1343,652,0,0
126,372,0,0,0,0,0,0,0,0,0,-1,1350,652,0,0
133,372,0,0,0,0,0,0,0,0,0,-1,1357,652,0,0
140,372,0,0,0,0,0,0,0,0,0,-1,1364,652,0,0
147,372,0,0,0,0,0,0,0,0,0,-1,1371,652,0,0
154,372,0,0,0,0,0,0,0,0,0,-1,1378,652,0,0
161,372,0,0,0,0,0,0,0,0,0,-1,1385,652,0,0
168,372,0,0,0,0,0,0,0,0,0,-1,1392,652,0,0
175,372,0,0,0,0,0,0,0,0,0,-1,1399,652,0,0
182,372,0,0,0,0,0,0,0,0,0,-1,1406,652,0,0
189,372,0,0,0,0,0,0,0,0,0,-1,1413,652,0,0
196,372,0,0,0,0,0,0,0,0,0,-1,1420,652,0,0
203,372,0,0,0,0,0,0,0,0,0,-1,1427,652,0,0
210,372,0,0,0,0,0,0,0,0,0,-1,1434,652,0,0
217,372,0,0,0,0,0,0,0,0,0,-1,1441,652,0,0
224,372,0,0,0,0,0,0,0,0,0,-1,1448,652,0,0
231,372,0,0,0,0,0,0,0,0,0,-1,1455,652,0,0
238,372,0,0,0,0,0,0,0,0,0,-1,1462,652,0,0
245,372,0,0,0,0,0,0,0,0,0,-1,1469,652,0,0
252,372,0,0,0,0,0,0,0,0,0,-1,1476,652,0,0
259,372,0,0,0,0,0,0,0,0,0,-1,1483,652,0,0
266,372,0,0,0,0,0,0,0,0,0,-1,1490,652,0,0
273,372,0,0,0,0,0,0,0,0,0,-1,1497,652,0,0
280,372,0,0,0,0,0,0,0,0,0,-1,1504,652,0,0
287,372,0,0,0,0,0,0,0,0,0,-1,1511,652,0,0
294,372,0,0,0,0,0,0,0,0,0,-1,1518,652,0,0
301,372,0,0,0,0,0,0,0,0,0,-1,1525,652,0,0
308,372,0,0,0,0,0,0,0,0,0,-1,1532,652,0,0
315,372,0,0,0,0,0,0,0,0,0,-1,1539,652,0,0
322,372,0,0,0,0,0,0,0,0,0,-1,1546,652,0,0
329,372,0,0,0,0,0,0,0,0,0,-1,1553,652,0,0
336,372,0,0,0,0,0,0,0,0,0,-1,1560,652,0,0
343,372,0,0,0,0,0,0,0,0,0,-1,1567,652,0,0
350,372,0,0,0,0,0,0,0,0,0,-1,1574,652,0,0
357,372,0,0,0,0,0,0,0,0,0,-1,1581,652,0,0
364,372,0,0,0,0,0,0,0,0,0,-1,1588,652,0,0
371,372,0,0,0,0,0,0,0,0,0,-1,1595,652,0,0
378,372,0,0,0,0,0,0,0,0,0,-1,1602,652,0,0
385,372,0,0,0,0,0,0,0,0,0,-1,1609,652,0,0
392,372,0,0,0,0,0,0,0,0,0,-1,1616,652,0,0
399,372,0,0,0,0,0,0,0,0,0,-1,1623,652,0,0
406,372,0,0,0,0,0,0,0,0,0,-1,1630,652,0,0
413,372,0,0,0,0,0,0,0,0,0,-1,1637,652,0,0
420,372,0,0,0,0,0,0,0,0,0,-1,1644,652,0,0
427,372,0,0,0,0,0,0,0,0,0,-1,1651,652,0,0
434,372,0,0,0,0,0,0,0,0,0,-1,1658,652,0,0
441,372,0,0,0,0,0,0,0,0,0,-1,1665,652,0,0
448,372,0,0,0,0,0,0,0,0,0,-1,1672,652,0,0
455,372,0,0,0,0,0,0,0,0,0,-1,1679,652,0,0
462,372,0,0,0,0,0,0,0,0,0,-1,1686,652,0,0
469,372,0,0,0,0,0,0,0,0,0,-1,1693,652,0,0
476,372,0,0,0,0,0,0,0,0,0,-1,1700,652,0,0
483,372,8.74182,1.53125,0,0,0,0,0,0,0,-1,1707,652,8.74186,-1.53126
490,372,9.78455,1.67096,0,0,0,0,0,0,0,-1,1714,652,9.7846,-1.67093
497,372,9.97644,1.46069,0,0,0,0,0,0,0,-1,1721,652,9.97647,-1.46071
504,372,10.1216,1.28375,0,0,0,0,0,0,0,-1,1728,652,10.1216,-1.28376
511,372,11.7367,-0.0272217,0,0,0,0,0,0,0,-1,1735,652,11.7367,0.0272326
518,372,12.0657,-0.0995483,0,0,0,0,0,0,0,-1,1742,652,12.0657,0.0995285
525,372,12.3947,-0.171814,0,0,0,0,0,0,0,-1,1749,652,12.3946,0.171824
532,372,9.36597,1.72034,0,0,0,0,0,0,0,-1,1756,652,9.36597,-1.72036
539,372,7.82886,-0.0865479,0,0,0,0,0,0,0,-1,1763,652,7.82882,0.0865771
546,372,10.953,-0.187195,0,0,0,0,0,0,0,-1,1770,652,10.953,0.187181
553,372,14.1201,-4.83234,0,0,0,0,0,0,0,-1,1777,652,14.1201,4.83235
560,372,20.1057,-8.06934,0,0,0,0,0,0,0,-1,1784,652,20.1058,8.06936
567,372,30.8892,-14.353,0,0,0,0,0,0,0,-1,1791,652,30.8891,14.353
574,372,30.8458,-13.3355,0.00139824,-0.000180986,-0.000826847,0.00175194,-0.000534687,-0.404215,0.00138113,0.0449417,1798,652,30.8458,13.3355
581,372,30.7968,-12.6406,0.000899439,-0.000164762,-0.000713551,0.00125744,-0.000522766,-0.465024,0.00105658,0.023127,1805,652,30.7968,12.6406
588,372,30.741,-11.8537,0.000775111,-6.43712e-05,-0.000437446,0.000961622,-0.000250883,-0.403025,0.000739042,0.0167681,1812,652,30.741,11.8537
595,372,30.6832,-11.062,0.000931289,0.000332239,-3.09679e-05,0.000932885,0.000330642,-0.051512,0.000546158,0.0147916,1819,652,30.6832,11.0619
602,372,30.6747,-10.304,0.00124592,0.000845368,0.000462139,0.00154931,0.000541975,0.580929,0.000907848,0.0176187,1826,652,30.6747,10.304
609,372,30.5845,-9.52582,0.00160168,0.00143917,0.000973723,0.00249753,0.000543317,0.743771,0.00151671,0.0184571,1833,652,30.5844,9.52584
616,372,30.5333,-8.69495,0.00202305,0.00217825,0.00150465,0.0036073,0.000594003,0.811162,0.00223336,0.0167015,1840,652,30.5333,8.69497
623,372,30.5247,-7.84979,0.00255613,0.00297845,0.00211232,0.00489014,0.000644438,0.835216,0.00306793,0.0128768,1847,652,30.5247,7.84977
630,372,30.5033,-7.03845,0.0030298,0.00380485,0.00266761,0.00611294,0.000721707,0.857528,0.00385729,0.016626,1854,652,30.5033,7.03844
637,372,30.5016,-6.27716,0.00340658,0.00470701,0.00319813,0.00732036,0.000793233,0.885687,0.00463849,0.0290346,1861,652,30.5016,6.27714
644,372,30.6649,-5.4809,0,0,0,0,0,0,0,-1,1868,652,30.6649,5.48092
651,372,21.3998,-0.888,0,0,0,0,0,0,0,-1,1875,652,21.3998,0.887992
658,372,14.157,0.280273,0,0,0,0,0,0,0,-1,1882,652,14.157,-0.280264
665,372,15.2286,0.463867,0,0,0,0,0,0,0,-1,1889,652,15.2287,-0.463854
672,372,9.34106,1.48444,0,0,0,0,0,0,0,-1,1896,652,9.34109,-1.48444
679,372,10.7308,2.32391,0,0,0,0,0,0,0,-1,1903,652,10.7309,-2.3239
686,372,11.6295,2.52997,0,0,0,0,0,0,0,-1,1910,652,11.6296,-2.52996
693,372,0,0,0,0,0,0,0,0,0,-1,1917,652,0,0
700,372,0,0,0,0,0,0,0,0,0,-1,1924,652,0,0
707,372,0,0,0,0,0,0,0,0,0,-1,1931,652,0,0
714,372,0,0,0,0,0,0,0,0,0,-1,1938,652,0,0
721,372,0,0,0,0,0,0,0,0,0,-1,1945,652,0,0
728,372,0,0,0,0,0,0,0,0,0,-1,1952,652,0,0
735,372,0,0,0,0,0,0,0,0,0,-1,1959,652,0,0
742,372,0,0,0,0,0,0,0,0,0,-1,1966,652,0,0
749,372,0,0,0,0,0,0,0,0,0,-1,1973,652,0,0
756,372,0,0,0,0,0,0,0,0,0,-1,1980,652,0,0
763,372,0,0,0,0,0,0,0,0,0,-1,1987,652,0,0
770,372,0,0,0,0,0,0,0,0,0,-1,1994,652,0,0
777,372,0,0,0,0,0,0,0,0,0,-1,2001,652,0,0
784,372,0,0,0,0,0,0,0,0,0,-1,2008,652,0,0
791,372,0,0,0,0,0,0,0,0,0,-1,2015,652,0,0
798,372,0,0,0,0,0,0,0,0,0,-1,2022,652,0,0
805,372,0,0,0,0,0,0,0,0,0,-1,2029,652,0,0
812,372,0,0,0,0,0,0,0,0,0,-1,2036,652,0,0
-700,365,0,0,0,0,0,0,0,0,0,-1,524,659,0,0
-693,365,0,0,0,0,0,0,0,0,0,-1,531,659,0,0
-686,365,0,0,0,0,0,0,0,0,0,-1,538,659,0,0
-679,365,0,0,0,0,0,0,0,0,0,-1,545,659,0,0
-672,365,0,0,0,0,0,0,0,0,0,-1,552,659,0,0
-665,365,0,0,0,0,0,0,0,0,0,-1,559,659,0,0
-658,365,0,0,0,0,0,0,0,0,0,-1,566,659,0,0
-651,365,0,0,0,0,0,0,0,0,0,-1,573,659,0,0
-644,365,0,0,0,0,0,0,0,0,0,-1,580,659,0,0
-637,365,0,0,0,0,0,0,0,0,0,-1,587,659,0,0
-630,365,0,0,0,0,0,0,0,0,0,-1,594,659,0,0
-623,365,0,0,0,0,0,0,0,0,0,-1,601,659,0,0
-616,365,0,0,0,0,0,0,0,0,0,-1,608,659,0,0
-609,365,0,0,0,0,0,0,0,0,0,-1,615,659,0,0
-602,365,0,0,0,0,0,0,0,0,0,-1,622,659,0,0
-595,365,0,0,0,0,0,0,0,0,0,-1,629,659,0,0
-588,365,0,0,0,0,0,0,0,0,0,-1,636,659,0,0
-581,365,0,0,0,0,0,0,0,0,0,-1,643,659,0,0
-574,365,-7.69281,1.59015,0,0,0,0,0,0,0,-1,650,659,-7.69282,-1.59018
-567,365,-8.2583,1.72638,0,0,0,0,0,0,0,-1,657,659,-8.25827,-1.72637
-560,365,-7.17767,0.275757,0,0,0,0,0,0,0,-1,664,659,-7.17768,-0.27577
-553,365,-10.0349,-0.169617,0,0,0,0,0,0,0,-1,671,659,-10.0349,0.169593
-546,365,-10.6303,-1.51642,0,0,0,0,0,0,0,-1,678,659,-10.6303,1.5164
-539,365,-8.38599,1.52936,0,0,0,0,0,0,0,-1,685,659,-8.38598,-1.52935
-532,365,-8.52863,0.166504,0,0,0,0,0,0,0,-1,692,659,-8.52863,-0.166501
-525,365,-9.28229,-2.62726,0,0,0,0,0,0,0,-1,699,659,-9.28227,2.62724
-518,365,-17.5131,-6.54565,0,0,0,0,0,0,0,-1,706,659,-17.5131,6.54563
-511,365,-17.5361,-7.43744,0.0028071,0.00102325,-0.00102691,0.00327535,0.000554998,-0.427816,0.00202409,0.0390524,713,659,-17.5361,7.43747
-504,365,-17.5278,-8.23334,0.00231232,0.000810644,-0.000910114,0.00274134,0.000381624,-0.4405,0.00171457,0.012959,720,659,-17.5278,8.23333
-497,365,-17.5532,-9.02765,0.00191842,0.000598126,-0.0007752,0.00227647,0.000240074,-0.432692,0.00144429,0.0131533,727,659,-17.5532,9.02763
-490,365,-17.6055,-9.81494,0.0015749,0.000368272,-0.000675303,0.00187714,6.60358e-05,-0.42082,0.00123,0.0140638,734,659,-17.6055,9.81495
-483,365,-17.6572,-10.5797,0.00135888,0.000185523,-0.000561641,0.00158438,-3.99763e-05,-0.381799,0.00106983,0.0136611,741,659,-17.6572,10.5797
-476,365,-17.6312,-11.3474,0.00125977,4.16211e-05,-0.000488672,0.00143158,-0.000130184,-0.338076,0.00100061,0.0186962,748,659,-17.6312,11.3474
-469,365,-17.6938,-12.1147,0.00120775,-7.51884e-05,-0.000463107,0.00135745,-0.00022489,-0.312653,0.000988493,0.0184825,755,659,-17.6939,12.1147
-462,365,-17.7825,-12.8678,0.00117433,-0.000277001,-0.000386819,0.00127099,-0.000373661,-0.24487,0.000995535,0.0151102,762,659,-17.7826,12.8678
-455,365,-17.8261,-13.6362,0.00130175,-0.000404068,-0.000386891,0.00138539,-0.000487715,-0.212928,0.00112207,0.0178704,769,659,-17.8261,13.6362
-448,365,-17.8685,-14.4967,0,0,0,0,0,0,0,-1,776,659,-17.8685,14.4967
-441,365,-16.9571,-15.1896,0,0,0,0,0,0,0,-1,783,659,-16.9571,15.1896
-434,365,-5.45056,-3.98041,0,0,0,0,0,0,0,-1,790,659,-5.45055,3.98042
-427,365,-5.05377,-4.74689,0,0,0,0,0,0,0,-1,797,659,-5.05376,4.7469
-420,365,-4.58813,-3.16376,0,0,0,0,0,0,0,-1,804,659,-4.58816,3.16374
-413,365,0.141357,0.672729,0,0,0,0,0,0,0,-1,811,659,0.141365,-0.672714
-406,365,-1.75067,-0.934448,0,0,0,0,0,0,0,-1,818,659,-1.7507,0.934424
-399,365,-4.10242,-1.25439,0,0,0,0,0,0,0,-1,825,659,-4.10244,1.25438
-392,365,-7.46545,-0.779724,0,0,0,0,0,0,0,-1,832,659,-7.46543,0.779744
-385,365,-6.27875,-0.887573,0,0,0,0,0,0,0,-1,839,659,-6.27874,0.887545
-378,365,-5.34503,-0.263306,0,0,0,0,0,0,0,-1,846,659,-5.34504,0.263275
-371,365,0,0,0,0,0,0,0,0,0,-1,853,659,0,0
-364,365,0,0,0,0,0,0,0,0,0,-1,860,659,0,0
-357,365,0,0,0,0,0,0,0,0,0,-1,867,659,0,0
-350,365,0,0,0,0,0,0,0,0,0,-1,874,659,0,0
-343,365,0,0,0,0,0,0,0,0,0,-1,881,659,0,0
-336,365,0,0,0,0,0,0,0,0,0,-1,888,659,0,0
-329,365,0,0,0,0,0,0,0,0,0,-1,895,659,0,0
-322,365,0,0,0,0,0,0,0,0,0,-1,902,659,0,0
-315,365,0,0,0,0,0,0,0,0,0,-1,909,659,0,0
-308,365,0,0,0,0,0,0,0,0,0,-1,916,659,0,0
-301,365,0,0,0,0,0,0,0,0,0,-1,923,659,0,0
-294,365,0,0,0,0,0,0,0,0,0,-1,930,659,0,0
-287,365,0,0,0,0,0,0,0,0,0,-1,937,659,0,0
-280,365,0,0,0,0,0,0,0,0,0,-1,944,659,0,0
-273,365,0,0,0,0,0,0,0,0,0,-1,951,659,0,0
-266,365,0,0,0,0,0,0,0,0,0,-1,958,659,0,0
-259,365,0,0,0,0,0,0,0,0,0,-1,965,659,0,0
-252,365,0,0,0,0,0,0,0,0,0,-1,972,659,0,0
-245,365,0,0,0,0,0,0,0,0,0,-1,979,659,0,0
-238,365,0,0,0,0,0,0,0,0,0,-1,986,659,0,0
-231,365,0,0,0,0,0,0,0,0,0,-1,993,659,0,0
-224,365,0,0,0,0,0,0,0,0,0,-1,1000,659,0,0
-217,365,0,0,0,0,0,0,0,0,0,-1,1007,659,0,0
-210,365,0,0,0,0,0,0,0,0,0,-1,1014,659,0,0
-203,365,0,0,0,0,0,0,0,0,0,-1,1021,659,0,0
-196,365,0,0,0,0,0,0,0,0,0,-1,1028,659,0,0
-189,365,0,0,0,0,0,0,0,0,0,-1,1035,659,0,0
-182,365,0,0,0,0,0,0,0,0,0,-1,1042,659,0,0
-175,365,0,0,0,0,0,0,0,0,0,-1,1049,659,0,0
-168,365,0,0,0,0,0,0,0,0,0,-1,1056,659,0,0
-161,365,0,0,0,0,0,0,0,0,0,-1,1063,659,0,0
-154,365,0,0,0,0,0,0,0,0,0,-1,1070,659,0,0
-147,365,0,0,0,0,0,0,0,0,0,-1,1077,659,0,0
-140,365,0,0,0,0,0,0,0,0,0,-1,1084,659,0,0
-133,365,0,0,0,0,0,0,0,0,0,-1,1091,659,0,0
-126,365,0,0,0,0,0,0,0,0,0,-1,1098,659,0,0
-119,365,0,0,0,0,0,0,0,0,0,-1,1105,659,0,0
-112,365,0,0,0,0,0,0,0,0,0,-1,1112,659,0,0
-105,365,0,0,0,0,0,0,0,0,0,-1,1119,659,0,0
-98,365,0,0,0,0,0,0,0,0,0,-1,1126,659,0,0
-91,365,0,0,0,0,0,0,0,0,0,-1,1133,659,0,0
-84,365,0,0,0,0,0,0,0,0,0,-1,1140,659,0,0
-77,365,0,0,0,0,0,0,0,0,0,-1,1147,659,0,0
-70,365,0,0,0,0,0,0,0,0,0,-1,1154,659,0,0
-63,365,0,0,0,0,0,0,0,0,0,-1,1161,659,0,0
-56,365,0,0,0,0,0,0,0,0,0,-1,1168,659,0,0
-49,365,0,0,0,0,0,0,0,0,0,-1,1175,659,0,0
-42,365,0,0,0,0,0,0,0,0,0,-1,1182,659,0,0
-35,365,0,0,0,0,0,0,0,0,0,-1,1189,659,0,0
-28,365,0,0,0,0,0,0,0,0,0,-1,1196,659,0,0
-21,365,0,0,0,0,0,0,0,0,0,-1,1203,659,0,0
-14,365,0,0,0,0,0,0,0,0,0,-1,1210,659,0,0
-7,365,0,0,0,0,0,0,0,0,0,-1,1217,659,0,0
0,365,0,0,0,0,0,0,0,0,0,-1,1224,659,0,0
7,365,0,0,0,0,0,0,0,0,0,-1,1231,659,0,0
14,365,0,0,0,0,0,0,0,0,0,-1,1238,659,0,0
21,365,0,0,0,0,0,0,0,0,0,-1,1245,659,0,0
28,365,0,0,0,0,0,0,0,0,0,-1,1252,659,0,0
35,365,0,0,0,0,0,0,0,0,0,-1,1259,659,0,0
42,365,0,0,0,0,0,0,0,0,0,-1,1266,659,0,0
49,365,0,0,0,0,0,0,0,0,0,-1,1273,659,0,0
56,365,0,0,0,0,0,0,0,0,0,-1,1280,659,0,0
63,365,0,0,0,0,0,0,0,0,0,-1,1287,659,0,0
70,365,0,0,0,0,0,0,0,0,0,-1,1294,659,0,0
77,365,0,0,0,0,0,0,0,0,0,-1,1301,659,0,0
84,365,0,0,0,0,0,0,0,0,0,-1,1308,659,0,0
91,365,0,0,0,0,0,0,0,0,0,-1,1315,659,0,0
98,365,0,0,0,0,0,0,0,0,0,-1,1322,659,0,0
105,365,0,0,0,0,0,0,0,0,0,-1,1329,659,0,0
112,365,0,0,0,0,0,0,0,0,0,-1,1336,659,0,0
119,365,0,0,0,0,0,0,0,0,0,-1,1343,659,0,0
126,365,0,0,0,0,0,0,0,0,0,-1,1350,659,0,0
133,365,0,0,0,0,0,0,0,0,0,-1,1357,659,0,0
140,365,0,0,0,0,0,0,0,0,0,-1,1364,659,0,0
147,365,0,0,0,0,0,0,0,0,0,-1,1371,659,0,0
154,365,0,0,0,0,0,0,0,0,0,-1,1378,659,0,0
161,365,0,0,0,0,0,0,0,0,0,-1,1385,659,0,0
168,365,0,0,0,0,0,0,0,0,0,-1,1392,659,0,0
175,365,0,0,0,0,0,0,0,0,0,-1,1399,659,0,0
182,365,0,0,0,0,0,0,0,0,0,-1,1406,659,0,0
189,365,0,0,0,0,0,0,0,0,0,-1,1413,659,0,0
196,365,0,0,0,0,0,0,0,0,0,-1,1420,659,0,0
203,365,0,0,0,0,0,0,0,0,0,-1,1427,659,0,0
210,365,0,0,0,0,0,0,0,0,0,-1,1434,659,0,0
217,365,0,0,0,0,0,0,0,0,0,-1,1441,659,0,0
224,365,0,0,0,0,0,0,0,0,0,-1,1448,659,0,0
231,365,0,0,0,0,0,0,0,0,0,-1,1455,659,0,0
238,365,0,0,0,0,0,0,0,0,0,-1,1462,659,0,0
245,365,0,0,0,0,0,0,0,0,0,-1,1469,659,0,0
252,365,0,0,0,0,0,0,0,0,0,-1,1476,659,0,0
259,365,0,0,0,0,0,0,0,0,0,-1,1483,659,0,0
266,365,0,0,0,0,0,0,0,0,0,-1,1490,659,0,0
273,365,0,0,0,0,0,0,0,0,0,-1,1497,659,0,0
280,365,0,0,0,0,0,0,0,0,0,-1,1504,659,0,0
287,365,0,0,0,0,0,0,0,0,0,-1,1511,659,0,0
294,365,0,0,0,0,0,0,0,0,0,-1,1518,659,0,0
301,365,0,0,0,0,0,0,0,0,0,-1,1525,659,0,0
308,365,0,0,0,0,0,0,0,0,0,-1,1532,659,0,0
315,365,0,0,0,0,0,0,0,0,0,-1,1539,659,0,0
322,365,0,0,0,0,0,0,0,0,0,-1,1546,659,0,0
329,365,0,0,0,0,0,0,0,0,0,-1,1553,659,0,0
336,365,0,0,0,0,0,0,0,0,0,-1,1560,659,0,0
343,365,0,0,0,0,0,0,0,0,0,-1,1567,659,0,0
350,365,0,0,0,0,0,0,0,0,0,-1,1574,659,0,0
357,365,0,0,0,0,0,0,0,0,0,-1,1581,659,0,0
364,365,0,0,0,0,0,0,0,0,0,-1,1588,659,0,0
371,365,0,0,0,0,0,0,0,0,0,-1,1595,659,0,0
378,365,0,0,0,0,0,0,0,0,0,-1,1602,659,0,0
385,365,0,0,0,0,0,0,0,0,0,-1,1609,659,0,0
392,365,0,0,0,0,0,0,0,0,0,-1,1616,659,0,0
399,365,0,0,0,0,0,0,0,0,0,-1,1623,659,0,0
406,365,0,0,0,0,0,0,0,0,0,-1,1630,659,0,0
413,365,0,0,0,0,0,0,0,0,0,-1,1637,659,0,0
420,365,0,0,0,0,0,0,0,0,0,-1,1644,659,0,0
427,365,0,0,0,0,0,0,0,0,0,-1,1651,659,0,0
434,365,0,0,0,0,0,0,0,0,0,-1,1658,659,0,0
441,365,0,0,0,0,0,0,0,0,0,-1,1665,659,0,0
448,365,0,0,0,0,0,0,0,0,0,-1,1672,659,0,0
455,365,0,0,0,0,0,0,0,0,0,-1,1679,659,0,0
462,365,0,0,0,0,0,0,0,0,0,-1,1686,659,0,0
469,365,0,0,0,0,0,0,0,0,0,-1,1693,659,0,0
476,365,0,0,0,0,0,0,0,0,0,-1,1700,659,0,0
483,365,0,0,0,0,0,0,0,0,0,-1,1707,659,0,0
490,365,8.39551,0.471252,0,0,0,0,0,0,0,-1,1714,659,8.39551,-0.471241
497,365,9.89233,1.35394,0,0,0,0,0,0,0,-1,1721,659,9.89237,-1.35396
504,365,10.1414,1.18005,0,0,0,0,0,0,0,-1,1728,659,10.1413,-1.18004
511,365,10.5151,0.993896,0,0,0,0,0,0,0,-1,1735,659,10.5152,-0.993894
518,365,11.2029,0.398132,0,0,0,0,0,0,0,-1,1742,659,11.2029,-0.398136
525,365,15.5748,3.85303,0,0,0,0,0,0,0,-1,1749,659,15.5748,-3.85303
532,365,11.2446,1.00629,0,0,0,0,0,0,0,-1,1756,659,11.2446,-1.00631
539,365,12.6301,1.03204,0,0,0,0,0,0,0,-1,1763,659,12.6302,-1.03204
546,365,11.647,0.84198,0,0,0,0,0,0,0,-1,1770,659,11.6469,-0.841955
553,365,12.028,-0.558899,0,0,0,0,0,0,0,-1,1777,659,12.028,0.558873
560,365,14.5372,-4.55548,0,0,0,0,0,0,0,-1,1784,659,14.5373,4.55547
567,365,20.5676,-7.53888,0,0,0,0,0,0,0,-1,1791,659,20.5676,7.53887
574,365,31.889,-13.2489,0,0,0,0,0,0,0,-1,1798,659,31.8891,13.2489
581,365,31.5769,-12.5344,0,0,0,0,0,0,0,-1,1805,659,31.577,12.5344
588,365,31.4865,-11.8947,0.000686331,-0.000364756,-0.000730284,0.00106052,-0.000738941,-0.473504,0.00104443,0.0256409,1812,659,31.4865,11.8947
595,365,31.4752,-11.0193,0.000811017,-2.1748e-05,-0.000350707,0.000939034,-0.000149764,-0.349995,0.000681452,0.0147673,1819,659,31.4753,11.0193
602,365,31.4316,-10.2091,0.00106836,0.000402389,8.64452e-05,0.0010794,0.000391352,0.126999,0.000630992,0.0172849,1826,659,31.4316,10.2091
609,365,31.3358,-9.40417,0.00135849,0.000884493,0.000531769,0.00170369,0.000539301,0.575769,0.00100545,0.0185441,1833,659,31.3358,9.40416
616,365,31.3174,-8.59375,0.00168082,0.0014782,0.000976277,0.00256103,0.000597993,0.733698,0.00154704,0.0190971,1840,659,31.3174,8.59372
623,365,31.333,-7.80786,0.00208926,0.00212478,0.00148054,0.00358766,0.000626372,0.791396,0.00221274,0.0116672,1847,659,31.333,7.80789
630,365,31.3092,-7.00977,0.00242697,0.00279684,0.00194785,0.00456851,0.000655288,0.832728,0.00285245,0.0157451,1854,659,31.3092,7.00975
637,365,31.2699,-6.24298,0.002672,0.0034929,0.00236898,0.00548672,0.000678177,0.871177,0.00345402,0.0217435,1861,659,31.2699,6.24298
644,365,31.2593,-5.45789,0.00282657,0.00433998,0.00282275,0.0065057,0.000660856,0.916356,0.00413449,0.0275721,1868,659,31.2593,5.45787
651,365,31.3013,-4.62402,0,0,0,0,0,0,0,-1,1875,659,31.3013,4.62401
658,365,24.745,-2.13275,0,0,0,0,0,0,0,-1,1882,659,24.745,2.13277
665,365,14.0961,0.769043,0,0,0,0,0,0,0,-1,1889,659,14.0961,-0.769063
672,365,10.0579,2.15088,0,0,0,0,0,0,0,-1,1896,659,10.0579,-2.15088
679,365,10.9718,2.19208,0,0,0,0,0,0,0,-1,1903,659,10.9718,-2.19211
686,365,12.2134,2.17108,0,0,0,0,0,0,0,-1,1910,659,12.2134,-2.17109
693,365,13.7141,1.98279,0,0,0,0,0,0,0,-1,1917,659,13.7141,-1.98278
700,365,0,0,0,0,0,0,0,0,0,-1,1924,659,0,0
707,365,0,0,0,0,0,0,0,0,0,-1,1931,659,0,0
714,365,0,0,0,0,0,0,0,0,0,-1,1938,659,0,0
721,365,0,0,0,0,0,0,0,0,0,-1,1945,659,0,0
728,365,0,0,0,0,0,0,0,0,0,-1,1952,659,0,0
735,365,0,0,0,0,0,0,0,0,0,-1,1959,659,0,0
742,365,0,0,0,0,0,0,0,0,0,-1,1966,659,0,0
749,365,0,0,0,0,0,0,0,0,0,-1,1973,659,0,0
756,365,0,0,0,0,0,0,0,0,0,-1,1980,659,0,0
763,365,0,0,0,0,0,0,0,0,0,-1,1987,659,0,0
770,365,0,0,0,0,0,0,0,0,0,-1,1994,659,0,0
777,365,0,0,0,0,0,0,0,0,0,-1,2001,659,0,0
784,365,0,0,0,0,0,0,0,0,0,-1,2008,659,0,0
791,365,0,0,0,0,0,0,0,0,0,-1,2015,659,0,0
798,365,0,0,0,0,0,0,0,0,0,-1,2022,659,0,0
805,365,0,0,0,0,0,0,0,0,0,-1,2029,659,0,0
812,365,0,0,0,0,0,0,0,0,0,-1,2036,659,0,0
-700,358,0,0,0,0,0,0,0,0,0,-1,524,666,0,0
-693,358,0,0,0,0,0,0,0,0,0,-1,531,666,0,0
-686,358,0,0,0,0,0,0,0,0,0,-1,538,666,0,0
-679,358,0,0,0,0,0,0,0,0,0,-1,545,666,0,0
-672,358,0,0,0,0,0,0,0,0,0,-1,552,666,0,0
-665,358,0,0,0,0,0,0,0,0,0,-1,559,666,0,0
-658,358,0,0,0,0,0,0,0,0,0,-1,566,666,0,0
-651,358,0,0,0,0,0,0,0,0,0,-1,573,666,0,0
-644,358,0,0,0,0,0,0,0,0,0,-1,580,666,0,0
-637,358,0,0,0,0,0,0,0,0,0,-1,587,666,0,0
-630,358,0,0,0,0,0,0,0,0,0,-1,594,666,0,0
-623,358,0,0,0,0,0,0,0,0,0,-1,601,666,0,0
-616,358,0,0,0,0,0,0,0,0,0,-1,608,666,0,0
-609,358,0,0,0,0,0,0,0,0,0,-1,615,666,0,0
-602,358,0,0,0,0,0,0,0,0,0,-1,622,666,0,0
-595,358,0,0,0,0,0,0,0,0,0,-1,629,666,0,0
-588,358,0,0,0,0,0,0,0,0,0,-1,636,666,0,0
-581,358,-8.31616,1.61993,0,0,0,0,0,0,0,-1,643,666,-8.31614,-1.61993
-574,358,-8.22406,1.75385,0,0,0,0,0,0,0,-1,650,666,-8.22408,-1.75383
-567,358,-8.14215,1.91577,0,0,0,0,0,0,0,-1,657,666,-8.14214,-1.91579
-560,358,-10.6086,2.18872,0,0,0,0,0,0,0,-1,664,666,-10.6086,-2.18873
-553,358,-13.4767,1.09552,0,0,0,0,0,0,0,-1,671,666,-13.4767,-1.09551
-546,358,-13.3743,-0.185059,0,0,0,0,0,0,0,-1,678,666,-13.3743,0.185037
-539,358,-9.43884,-2.04785,0,0,0,0,0,0,0,-1,685,666,-9.43884,2.04785
-532,358,-12.4141,-2.36572,0,0,0,0,0,0,0,-1,692,666,-12.4141,2.3657
-525,358,-12.731,-3.88031,0,0,0,0,0,0,0,-1,699,666,-12.731,3.88029
-518,358,-18.2427,-6.51935,0,0,0,0,0,0,0,-1,706,666,-18.2426,6.51935
-511,358,-18.2849,-7.38525,0.00291934,0.000928454,-0.000930819,0.00328673,0.000561057,-0.375931,0.00203015,0.0166751,713,666,-18.2849,7.38526
-504,358,-18.3142,-8.17468,0.00237048,0.00065237,-0.000790414,0.00267879,0.000344065,-0.371904,0.00168293,0.011951,720,666,-18.3142,8.17466
-497,358,-18.3314,-8.98804,0.00196047,0.000403341,-0.000639403,0.00218938,0.000174434,-0.343785,0.00140505,0.0115845,727,666,-18.3314,8.98804
-490,358,-18.3737,-9.77197,0.00160435,0.000182418,-0.000539517,0.00178588,8.86736e-07,-0.324571,0.00119029,0.0112213,734,666,-18.3737,9.77197
-483,358,-18.439,-10.5189,0.00141425,2.78373e-05,-0.000438896,0.00154151,-9.94224e-05,-0.282215,0.00106237,0.0111868,741,666,-18.439,10.5188
-476,358,-18.4115,-11.2587,0.00134109,-7.68913e-05,-0.000388324,0.00144047,-0.000176271,-0.250542,0.00102414,0.0149171,748,666,-18.4115,11.2587
-469,358,-18.4788,-12.0473,0.00131465,-0.00013937,-0.000395705,0.00141536,-0.000240084,-0.249225,0.00103295,0.0187927,755,666,-18.4788,12.0473
-462,358,-18.5586,-12.8365,0.0013123,-0.000255849,-0.000368198,0.00139445,-0.000337998,-0.219515,0.00106041,0.0187047,762,666,-18.5586,12.8365
-455,358,-18.5569,-13.643,0,0,0,0,0,0,0,-1,769,666,-18.5569,13.643
-448,358,-17.7847,-14.434,0,0,0,0,0,0,0,-1,776,666,-17.7847,14.434
-441,358,-5.56293,-3.98041,0,0,0,0,0,0,0,-1,783,666,-5.56291,3.98043
-434,358,-5.21558,-4.43127,0,0,0,0,0,0,0,-1,790,666,-5.21559,4.43125
-427,358,-3.56189,-3.15729,0,0,0,0,0,0,0,-1,797,666,-3.56192,3.15729
-420,358,0.200195,1.08234,0,0,0,0,0,0,0,-1,804,666,0.200174,-1.08231
-413,358,0.0325317,0.161072,0,0,0,0,0,0,0,-1,811,666,0.0325501,-0.161098
-406,358,-3.85846,0.753113,0,0,0,0,0,0,0,-1,818,666,-3.85846,-0.753129
-399,358,-1.31213,0.190735,0,0,0,0,0,0,0,-1,825,666,-1.31215,-0.190763
-392,358,-3.73914,-0.832214,0,0,0,0,0,0,0,-1,832,666,-3.73915,0.832202
-385,358,-5.95178,-1.69141,0,0,0,0,0,0,0,-1,839,666,-5.9518,1.69143
-378,358,0,0,0,0,0,0,0,0,0,-1,846,666,0,0
-371,358,0,0,0,0,0,0,0,0,0,-1,853,666,0,0
-364,358,0,0,0,0,0,0,0,0,0,-1,860,666,0,0
-357,358,0,0,0,0,0,0,0,0,0,-1,867,666,0,0
-350,358,0,0,0,0,0,0,0,0,0,-1,874,666,0,0
-343,358,0,0,0,0,0,0,0,0,0,-1,881,666,0,0
-336,358,0,0,0,0,0,0,0,0,0,-1,888,666,0,0
-329,358,0,0,0,0,0,0,0,0,0,-1,895,666,0,0
-322,358,0,0,0,0,0,0,0,0,0,-1,902,666,0,0
-315,358,0,0,0,0,0,0,0,0,0,-1,909,666,0,0
-308,358,0,0,0,0,0,0,0,0,0,-1,916,666,0,0
-301,358,0,0,0,0,0,0,0,0,0,-1,923,666,0,0
-294,358,0,0,0,0,0,0,0,0,0,-1,930,666,0,0
-287,358,0,0,0,0,0,0,0,0,0,-1,937,666,0,0
-280,358,0,0,0,0,0,0,0,0,0,-1,944,666,0,0
-273,358,0,0,0,0,0,0,0,0,0,-1,951,666,0,0
-266,358,0,0,0,0,0,0,0,0,0,-1,958,666,0,0
-259,358,0,0,0,0,0,0,0,0,0,-1,965,666,0,0
-252,358,0,0,0,0,0,0,0,0,0,-1,972,666,0,0
-245,358,0,0,0,0,0,0,0,0,0,-1,979,666,0,0
-238,358,0,0,0,0,0,0,0,0,0,-1,986,666,0,0
-231,358,0,0,0,0,0,0,0,0,0,-1,993,666,0,0
-224,358,0,0,0,0,0,0,0,0,0,-1,1000,666,0,0
-217,358,0,0,0,0,0,0,0,0,0,-1,1007,666,0,0
-210,358,0,0,0,0,0,0,0,0,0,-1,1014,666,0,0
-203,358,0,0,0,0,0,0,0,0,0,-1,1021,666,0,0
-196,358,0,0,0,0,0,0,0,0,0,-1,1028,666,0,0
-189,358,0,0,0,0,0,0,0,0,0,-1,1035,666,0,0
-182,358,0,0,0,0,0,0,0,0,0,-1,1042,666,0,0
-175,358,0,0,0,0,0,0,0,0,0,-1,1049,666,0,0
-168,358,0,0,0,0,0,0,0,0,0,-1,1056,666,0,0
-161,358,0,0,0,0,0,0,0,0,0,-1,1063,666,0,0
-154,358,0,0,0,0,0,0,0,0,0,-1,1070,666,0,0
-147,358,0,0,0,0,0,0,0,0,0,-1,1077,666,0,0
-140,358,0,0,0,0,0,0,0,0,0,-1,1084,666,0,0
-133,358,0,0,0,0,0,0,0,0,0,-1,1091,666,0,0
-126,358,0,0,0,0,0,0,0,0,0,-1,1098,666,0,0
-119,358,0,0,0,0,0,0,0,0,0,-1,1105,666,0,0
-112,358,0,0,0,0,0,0,0,0,0,-1,1112,666,0,0
-105,358,0,0,0,0,0,0,0,0,0,-1,1119,666,0,0
-98,358,0,0,0,0,0,0,0,0,0,-1,1126,666,0,0
-91,358,0,0,0,0,0,0,0,0,0,-1,1133,666,0,0
-84,358,0,0,0,0,0,0,0,0,0,-1,1140,666,0,0
-77,358,0,0,0,0,0,0,0,0,0,-1,1147,666,0,0
-70,358,0,0,0,0,0,0,0,0,0,-1,1154,666,0,0
-63,358,0,0,0,0,0,0,0,0,0,-1,1161,666,0,0
-56,358,0,0,0,0,0,0,0,0,0,-1,1168,666,0,0
-49,358,0,0,0,0,0,0,0,0,0,-1,1175,666,0,0
-42,358,0,0,0,0,0,0,0,0,0,-1,1182,666,0,0
-35,358,0,0,0,0,0,0,0,0,0,-1,1189,666,0,0
-28,358,0,0,0,0,0,0,0,0,0,-1,1196,666,0,0
-21,358,0,0,0,0,0,0,0,0,0,-1,1203,666,0,0
-14,358,0,0,0,0,0,0,0,0,0,-1,1210,666,0,0
-7,358,0,0,0,0,0,0,0,0,0,-1,1217,666,0,0
0,358,0,0,0,0,0,0,0,0,0,-1,1224,666,0,0
7,358,0,0,0,0,0,0,0,0,0,-1,1231,666,0,0
14,358,0,0,0,0,0,0,0,0,0,-1,1238,666,0,0
21,358,0,0,0,0,0,0,0,0,0,-1,1245,666,0,0
28,358,0,0,0,0,0,0,0,0,0,-1,1252,666,0,0
35,358,0,0,0,0,0,0,0,0,0,-1,1259,666,0,0
42,358,0,0,0,0,0,0,0,0,0,-1,1266,666,0,0
49,358,0,0,0,0,0,0,0,0,0,-1,1273,666,0,0
56,358,0,0,0,0,0,0,0,0,0,-1,1280,666,0,0
63,358,0,0,0,0,0,0,0,0,0,-1,1287,666,0,0
70,358,0,0,0,0,0,0,0,0,0,-1,1294,666,0,0
77,358,0,0,0,0,0,0,0,0,0,-1,1301,666,0,0
84,358,0,0,0,0,0,0,0,0,0,-1,1308,666,0,0
91,358,0,0,0,0,0,0,0,0,0,-1,1315,666,0,0
98,358,0,0,0,0,0,0,0,0,0,-1,1322,666,0,0
105,358,0,0,0,0,0,0,0,0,0,-1,1329,666,0,0
112,358,0,0,0,0,0,0,0,0,0,-1,1336,666,0,0
119,358,0,0,0,0,0,0,0,0,0,-1,1343,666,0,0
126,358,0,0,0,0,0,0,0,0,0,-1,1350,666,0,0
133,358,0,0,0,0,0,0,0,0,0,-1,1357,666,0,0
140,358,0,0,0,0,0,0,0,0,0,-1,1364,666,0,0
147,358,0,0,0,0,0,0,0,0,0,-1,1371,666,0,0
154,358,0,0,0,0,0,0,0,0,0,-1,1378,666,0,0
161,358,0,0,0,0,0,0,0,0,0,-1,1385,666,0,0
168,358,0,0,0,0,0,0,0,0,0,-1,1392,666,0,0
175,358,0,0,0,0,0,0,0,0,0,-1,1399,666,0,0
182,358,0,0,0,0,0,0,0,0,0,-1,1406,666,0,0
189,358,0,0,0,0,0,0,0,0,0,-1,1413,666,0,0
196,358,0,0,0,0,0,0,0,0,0,-1,1420,666,0,0
203,358,0,0,0,0,0,0,0,0,0,-1,1427,666,0,0
210,358,0,0,0,0,0,0,0,0,0,-1,1434,666,0,0
217,358,0,0,0,0,0,0,0,0,0,-1,1441,666,0,0
224,358,0,0,0,0,0,0,0,0,0,-1,1448,666,0,0
231,358,0,0,0,0,0,0,0,0,0,-1,1455,666,0,0
238,358,0,0,0,0,0,0,0,0,0,-1,1462,666,0,0
245,358,0,0,0,0,0,0,0,0,0,-1,1469,666,0,0
252,358,0,0,0,0,0,0,0,0,0,-1,1476,666,0,0
259,358,0,0,0,0,0,0,0,0,0,-1,1483,666,0,0
266,358,0,0,0,0,0,0,0,0,0,-1,1490,666,0,0
273,358,0,0,0,0,0,0,0,0,0,-1,1497,666,0,0
280,358,0,0,0,0,0,0,0,0,0,-1,1504,666,0,0
287,358,0,0,0,0,0,0,0,0,0,-1,1511,666,0,0
294,358,0,0,0,0,0,0,0,0,0,-1,1518,666,0,0
301,358,0,0,0,0,0,0,0,0,0,-1,1525,666,0,0
308,358,0,0,0,0,0,0,0,0,0,-1,1532,666,0,0
315,358,0,0,0,0,0,0,0,0,0,-1,1539,666,0,0
322,358,0,0,0,0,0,0,0,0,0,-1,1546,666,0,0
329,358,0,0,0,0,0,0,0,0,0,-1,1553,666,0,0
336,358,0,0,0,0,0,0,0,0,0,-1,1560,666,0,0
343,358,0,0,0,0,0,0,0,0,0,-1,1567,666,0,0
350,358,0,0,0,0,0,0,0,0,0,-1,1574,666,0,0
357,358,0,0,0,0,0,0,0,0,0,-1,1581,666,0,0
364,358,0,0,0,0,0,0,0,0,0,-1,1588,666,0,0
371,358,0,0,0,0,0,0,0,0,0,-1,1595,666,0,0
378,358,0,0,0,0,0,0,0,0,0,-1,1602,666,0,0
385,358,0,0,0,0,0,0,0,0,0,-1,1609,666,0,0
392,358,0,0,0,0,0,0,0,0,0,-1,1616,666,0,0
399,358,0,0,0,0,0,0,0,0,0,-1,1623,666,0,0
406,358,0,0,0,0,0,0,0,0,0,-1,1630,666,0,0
413,358,0,0,0,0,0,0,0,0,0,-1,1637,666,0,0
420,358,0,0,0,0,0,0,0,0,0,-1,1644,666,0,0
427,358,0,0,0,0,0,0,0,0,0,-1,1651,666,0,0
434,358,0,0,0,0,0,0,0,0,0,-1,1658,666,0,0
441,358,0,0,0,0,0,0,0,0,0,-1,1665,666,0,0
448,358,0,0,0,0,0,0,0,0,0,-1,1672,666,0,0
455,358,0,0,0,0,0,0,0,0,0,-1,1679,666,0,0
462,358,0,0,0,0,0,0,0,0,0,-1,1686,666,0,0
469,358,0,0,0,0,0,0,0,0,0,-1,1693,666,0,0
476,358,0,0,0,0,0,0,0,0,0,-1,1700,666,0,0
483,358,0,0,0,0,0,0,0,0,0,-1,1707,666,0,0
490,358,0,0,0,0,0,0,0,0,0,-1,1714,666,0,0
497,358,8.57239,1.1322,0,0,0,0,0,0,0,-1,1721,666,8.57234,-1.13219
504,358,10.5972,0.832947,0,0,0,0,0,0,0,-1,1728,666,10.5972,-0.832968
511,358,10.6873,0.868469,0,0,0,0,0,0,0,-1,1735,666,10.6872,-0.868484
518,358,16.5884,2.34894,0,0,0,0,0,0,0,-1,1742,666,16.5884,-2.34894
525,358,15.7626,3.65344,0,0,0,0,0,0,0,-1,1749,666,15.7626,-3.65342
532,358,14.9368,4.95789,0,0,0,0,0,0,0,-1,1756,666,14.9367,-4.9579
539,358,15.1597,3.42694,0,0,0,0,0,0,0,-1,1763,666,15.1597,-3.42692
546,358,12.3792,1.53558,0,0,0,0,0,0,0,-1,1770,666,12.3792,-1.5356
553,358,11.6584,1.26172,0,0,0,0,0,0,0,-1,1777,666,11.6585,-1.26175
560,358,10.8234,1.43042,0,0,0,0,0,0,0,-1,1784,666,10.8233,-1.43041
567,358,10.1333,-0.955139,0,0,0,0,0,0,0,-1,1791,666,10.1333,0.955132
574,358,14.7886,-2.69293,0,0,0,0,0,0,0,-1,1798,666,14.7885,2.6929
581,358,20.1738,-6.76135,0,0,0,0,0,0,0,-1,1805,666,20.1738,6.76137
588,358,32.1969,-11.9387,0,0,0,0,0,0,0,-1,1812,666,32.1969,11.9387
595,358,32.2421,-10.9531,0.000748632,-0.000319921,-0.000567464,0.000993757,-0.000565046,-0.407756,0.000911251,0.0179178,1819,666,32.2421,10.9531
602,358,32.1781,-10.1198,0.000982554,5.35865e-05,-0.000194216,0.00102152,1.46169e-05,-0.19802,0.000676196,0.0139784,1826,666,32.1781,10.1198
609,358,32.1207,-9.32196,0.00124133,0.000460818,0.000195292,0.00128746,0.000414681,0.231992,0.000758841,0.0188523,1833,666,32.1207,9.32198
616,358,32.0978,-8.5412,0.00148884,0.00094181,0.000578327,0.00185507,0.000575581,0.564514,0.00109643,0.0174898,1840,666,32.0977,8.54121
623,358,32.1263,-7.77728,0.00178319,0.00146996,0.00100284,0.00264157,0.000611577,0.707936,0.00159672,0.0139375,1847,666,32.1263,7.77729
630,358,32.0958,-7.00671,0.00202005,0.00204027,0.00141995,0.00345014,0.000610173,0.788957,0.00212609,0.0170923,1854,666,32.0958,7.0067
637,358,32.0104,-6.23755,0.00217885,0.00260187,0.00177913,0.00418201,0.000598704,0.844563,0.00261142,0.0240196,1861,666,32.0104,6.23753
644,358,31.9906,-5.44647,0.00226471,0.00326107,0.00214432,0.00496432,0.000561458,0.899536,0.00313918,0.0206392,1868,666,31.9906,5.44646
651,358,32.0125,-4.617,0,0,0,0,0,0,0,-1,1875,666,32.0125,4.61703
658,358,31.808,-3.47723,0,0,0,0,0,0,0,-1,1882,666,31.808,3.47724
665,358,28.0272,-2.07764,0,0,0,0,0,0,0,-1,1889,666,28.0272,2.07764
672,358,12.4299,1.47272,0,0,0,0,0,0,0,-1,1896,666,12.4299,-1.4727
679,358,12.1294,2.19702,0,0,0,0,0,0,0,-1,1903,666,12.1294,-2.19703
686,358,11.9557,2.2002,0,0,0,0,0,0,0,-1,1910,666,11.9557,-2.20021
693,358,13.188,2.52203,0,0,0,0,0,0,0,-1,1917,666,13.188,-2.52202
700,358,0,0,0,0,0,0,0,0,0,-1,1924,666,0,0
707,358,0,0,0,0,0,0,0,0,0,-1,1931,666,0,0
714,358,0,0,0,0,0,0,0,0,0,-1,1938,666,0,0
721,358,0,0,0,0,0,0,0,0,0,-1,1945,666,0,0
728,358,0,0,0,0,0,0,0,0,0,-1,1952,666,0,0
735,358,0,0,0,0,0,0,0,0,0,-1,1959,666,0,0
742,358,0,0,0,0,0,0,0,0,0,-1,1966,666,0,0
749,358,0,0,0,0,0,0,0,0,0,-1,1973,666,0,0
756,358,0,0,0,0,0,0,0,0,0,-1,1980,666,0,0
763,358,0,0,0,0,0,0,0,0,0,-1,1987,666,0,0
770,358,0,0,0,0,0,0,0,0,0,-1,1994,666,0,0
777,358,0,0,0,0,0,0,0,0,0,-1,2001,666,0,0
784,358,0,0,0,0,0,0,0,0,0,-1,2008,666,0,0
791,358,0,0,0,0,0,0,0,0,0,-1,2015,666,0,0
798,358,0,0,0,0,0,0,0,0,0,-1,2022,666,0,0
805,358,0,0,0,0,0,0,0,0,0,-1,2029,666,0,0
812,358,0,0,0,0,0,0,0,0,0,-1,2036,666,0,0
-700,351,0,0,0,0,0,0,0,0,0,-1,524,673,0,0
-693,351,0,0,0,0,0,0,0,0,0,-1,531,673,0,0
-686,351,0,0,0,0,0,0,0,0,0,-1,538,673,0,0
-679,351,0,0,0,0,0,0,0,0,0,-1,545,673,0,0
-672,351,0,0,0,0,0,0,0,0,0,-1,552,673,0,0
-665,351,0,0,0,0,0,0,0,0,0,-1,559,673,0,0
-658,351,0,0,0,0,0,0,0,0,0,-1,566,673,0,0
-651,351,0,0,0,0,0,0,0,0,0,-1,573,673,0,0
-644,351,0,0,0,0,0,0,0,0,0,-1,580,673,0,0
-637,351,0,0,0,0,0,0,0,0,0,-1,587,673,0,0
-630,351,0,0,0,0,0,0,0,0,0,-1,594,673,0,0
-623,351,0,0,0,0,0,0,0,0,0,-1,601,673,0,0
-616,351,0,0,0,0,0,0,0,0,0,-1,608,673,0,0
-609,351,0,0,0,0,0,0,0,0,0,-1,615,673,0,0
-602,351,0,0,0,0,0,0,0,0,0,-1,622,673,0,0
-595,351,0,0,0,0,0,0,0,0,0,-1,629,673,0,0
-588,351,0,0,0,0,0,0,0,0,0,-1,636,673,0,0
-581,351,-9.0647,1.71906,0,0,0,0,0,0,0,-1,643,673,-9.06472,-1.71908
-574,351,-8.23584,2.64764,0,0,0,0,0,0,0,-1,650,673,-8.23584,-2.64764
-567,351,-10.8027,4.56836,0,0,0,0,0,0,0,-1,657,673,-10.8027,-4.56839
-560,351,-14.2001,2.17084,0,0,0,0,0,0,0,-1,664,673,-14.2002,-2.17086
-553,351,-13.4979,0.779541,0,0,0,0,0,0,0,-1,671,673,-13.4978,-0.779519
-546,351,-14.0065,0.73645,0,0,0,0,0,0,0,-1,678,673,-14.0065,-0.736473
-539,351,-12.8123,-1.46393,0,0,0,0,0,0,0,-1,685,673,-12.8123,1.46395
-532,351,-16.0198,-4.03937,0,0,0,0,0,0,0,-1,692,673,-16.0198,4.03936
-525,351,-19.1045,-5.77808,0,0,0,0,0,0,0,-1,699,673,-19.1045,5.77807
-518,351,-19.0541,-6.53424,0.00378111,0.00156069,-0.00101654,0.0041762,0.0011656,-0.37069,0.00248833,0.0232898,706,673,-19.0541,6.53424
-511,351,-19.0549,-7.34937,0.00295873,0.000982568,-0.000800766,0.00324247,0.000698828,-0.340533,0.00197045,0.0121174,713,673,-19.0549,7.34936
-504,351,-19.099,-8.13013,0.00236735,0.000574524,-0.000628874,0.00256594,0.00037593,-0.305882,0.0016001,0.0110235,720,673,-19.099,8.13011
-497,351,-19.1307,-8.91254,0.00193919,0.000226121,-0.000451707,0.002051,0.000114312,-0.24265,0.00133087,0.0107078,727,673,-19.1307,8.91252
-490,351,-19.1721,-9.68866,0.0015905,-1.62123e-05,-0.000360878,0.00166784,-9.35455e-05,-0.211099,0.00114435,0.0107044,734,673,-19.172,9.68864
-483,351,-19.2128,-10.4547,0.00142767,-0.000158312,-0.00028774,0.00147826,-0.000208902,-0.17404,0.00106201,0.013292,741,673,-19.2128,10.4547
-476,351,-19.2622,-11.2167,0.00137505,-0.000233008,-0.000288492,0.00142524,-0.000283198,-0.17225,0.00105728,0.0122841,748,673,-19.2622,11.2167
-469,351,-19.2976,-11.9814,0.00137923,-0.000241991,-0.000365529,0.00145783,-0.000320594,-0.211814,0.00109452,0.0139586,755,673,-19.2976,11.9814
-462,351,-19.297,-12.8194,0.00141589,-0.000240001,-0.000463906,0.001537,-0.000361109,-0.255362,0.00116386,0.0357624,762,673,-19.297,12.8194
-455,351,-19.2263,-13.677,0,0,0,0,0,0,0,-1,769,673,-19.2262,13.677
-448,351,-6.61456,-4.38654,0,0,0,0,0,0,0,-1,776,673,-6.61456,4.38654
-441,351,-4.31567,-2.3009,0,0,0,0,0,0,0,-1,783,673,-4.31565,2.30089
-434,351,-3.81708,-2.28003,0,0,0,0,0,0,0,-1,790,673,-3.81706,2.28006
-427,351,-2.05157,-2.7785,0,0,0,0,0,0,0,-1,797,673,-2.05157,2.77848
-420,351,-1.06989,-2.43665,0,0,0,0,0,0,0,-1,804,673,-1.06991,2.43663
-413,351,-0.392334,-2.06671,0,0,0,0,0,0,0,-1,811,673,-0.392363,2.06672
-406,351,-1.86316,-2.58105,0,0,0,0,0,0,0,-1,818,673,-1.86313,2.58106
-399,351,1.00952,-1.53455,0,0,0,0,0,0,0,-1,825,673,1.00954,1.53457
-392,351,-1.02197,0.877136,0,0,0,0,0,0,0,-1,832,673,-1.02195,-0.877143
-385,351,-1.47205,1.04437,0,0,0,0,0,0,0,-1,839,673,-1.47207,-1.04435
-378,351,0,0,0,0,0,0,0,0,0,-1,846,673,0,0
-371,351,0,0,0,0,0,0,0,0,0,-1,853,673,0,0
-364,351,0,0,0,0,0,0,0,0,0,-1,860,673,0,0
-357,351,0,0,0,0,0,0,0,0,0,-1,867,673,0,0
-350,351,0,0,0,0,0,0,0,0,0,-1,874,673,0,0
-343,351,0,0,0,0,0,0,0,0,0,-1,881,673,0,0
-336,351,0,0,0,0,0,0,0,0,0,-1,888,673,0,0
-329,351,0,0,0,0,0,0,0,0,0,-1,895,673,0,0
-322,351,0,0,0,0,0,0,0,0,0,-1,902,673,0,0
-315,351,0,0,0,0,0,0,0,0,0,-1,909,673,0,0
-308,351,0,0,0,0,0,0,0,0,0,-1,916,673,0,0
-301,351,0,0,0,0,0,0,0,0,0,-1,923,673,0,0
-294,351,0,0,0,0,0,0,0,0,0,-1,930,673,0,0
-287,351,0,0,0,0,0,0,0,0,0,-1,937,673,0,0
-280,351,0,0,0,0,0,0,0,0,0,-1,944,673,0,0
-273,351,0,0,0,0,0,0,0,0,0,-1,951,673,0,0
-266,351,0,0,0,0,0,0,0,0,0,-1,958,673,0,0
-259,351,0,0,0,0,0,0,0,0,0,-1,965,673,0,0
-252,351,0,0,0,0,0,0,0,0,0,-1,972,673,0,0
-245,351,0,0,0,0,0,0,0,0,0,-1,979,673,0,0
-238,351,0,0,0,0,0,0,0,0,0,-1,986,673,0,0
-231,351,0,0,0,0,0,0,0,0,0,-1,993,673,0,0
-224,351,0,0,0,0,0,0,0,0,0,-1,1000,673,0,0
-217,351,0,0,0,0,0,0,0,0,0,-1,1007,673,0,0
-210,351,0,0,0,0,0,0,0,0,0,-1,1014,673,0,0
-203,351,0,0,0,0,0,0,0,0,0,-1,1021,673,0,0
-196,351,0,0,0,0,0,0,0,0,0,-1,1028,673,0,0
-189,351,0,0,0,0,0,0,0,0,0,-1,1035,673,0,0
-182,351,0,0,0,0,0,0,0,0,0,-1,1042,673,0,0
-175,351,0,0,0,0,0,0,0,0,0,-1,1049,673,0,0
-168,351,0,0,0,0,0,0,0,0,0,-1,1056,673,0,0
-161,351,0,0,0,0,0,0,0,0,0,-1,1063,673,0,0
-154,351,0,0,0,0,0,0,0,0,0,-1,1070,673,0,0
-147,351,0,0,0,0,0,0,0,0,0,-1,1077,673,0,0
-140,351,0,0,0,0,0,0,0,0,0,-1,1084,673,0,0
-133,351,0,0,0,0,0,0,0,0,0,-1,1091,673,0,0
-126,351,0,0,0,0,0,0,0,0,0,-1,1098,673,0,0
-119,351,0,0,0,0,0,0,0,0,0,-1,1105,673,0,0
-112,351,0,0,0,0,0,0,0,0,0,-1,1112,673,0,0
-105,351,0,0,0,0,0,0,0,0,0,-1,1119,673,0,0
-98,351,0,0,0,0,0,0,0,0,0,-1,1126,673,0,0
-91,351,0,0,0,0,0,0,0,0,0,-1,1133,673,0,0
-84,351,0,0,0,0,0,0,0,0,0,-1,1140,673,0,0
-77,351,0,0,0,0,0,0,0,0,0,-1,1147,673,0,0
-70,351,0,0,0,0,0,0,0,0,0,-1,1154,673,0,0
-63,351,0,0,0,0,0,0,0,0,0,-1,1161,673,0,0
-56,351,0,0,0,0,0,0,0,0,0,-1,1168,673,0,0
-49,351,0,0,0,0,0,0,0,0,0,-1,1175,673,0,0
-42,351,0,0,0,0,0,0,0,0,0,-1,1182,673,0,0
-35,351,0,0,0,0,0,0,0,0,0,-1,1189,673,0,0
-28,351,0,0,0,0,0,0,0,0,0,-1,1196,673,0,0
-21,351,0,0,0,0,0,0,0,0,0,-1,1203,673,0,0
-14,351,0,0,0,0,0,0,0,0,0,-1,1210,673,0,0
-7,351,0,0,0,0,0,0,0,0,0,-1,1217,673,0,0
0,351,0,0,0,0,0,0,0,0,0,-1,1224,673,0,0
7,351,0,0,0,0,0,0,0,0,0,-1,1231,673,0,0
14,351,0,0,0,0,0,0,0,0,0,-1,1238,673,0,0
21,351,0,0,0,0,0,0,0,0,0,-1,1245,673,0,0
28,351,0,0,0,0,0,0,0,0,0,-1,1252,673,0,0
35,351,0,0,0,0,0,0,0,0,0,-1,1259,673,0,0
42,351,0,0,0,0,0,0,0,0,0,-1,1266,673,0,0
49,351,0,0,0,0,0,0,0,0,0,-1,1273,673,0,0
56,351,0,0,0,0,0,0,0,0,0,-1,1280,673,0,0
63,351,0,0,0,0,0,0,0,0,0,-1,1287,673,0,0
70,351,0,0,0,0,0,0,0,0,0,-1,1294,673,0,0
77,351,0,0,0,0,0,0,0,0,0,-1,1301,673,0,0
84,351,0,0,0,0,0,0,0,0,0,-1,1308,673,0,0
91,351,0,0,0,0,0,0,0,0,0,-1,1315,673,0,0
98,351,0,0,0,0,0,0,0,0,0,-1,1322,673,0,0
105,351,0,0,0,0,0,0,0,0,0,-1,1329,673,0,0
112,351,0,0,0,0,0,0,0,0,0,-1,1336,673,0,0
119,351,0,0,0,0,0,0,0,0,0,-1,1343,673,0,0
126,351,0,0,0,0,0,0,0,0,0,-1,1350,673,0,0
133,351,0,0,0,0,0,0,0,0,0,-1,1357,673,0,0
140,351,0,0,0,0,0,0,0,0,0,-1,1364,673,0,0
147,351,0,0,0,0,0,0,0,0,0,-1,1371,673,0,0
154,351,0,0,0,0,0,0,0,0,0,-1,1378,673,0,0
161,351,0,0,0,0,0,0,0,0,0,-1,1385,673,0,0
168,351,0,0,0,0,0,0,0,0,0,-1,1392,673,0,0
175,351,0,0,0,0,0,0,0,0,0,-1,1399,673,0,0
182,351,0,0,0,0,0,0,0,0,0,-1,1406,673,0,0
189,351,0,0,0,0,0,0,0,0,0,-1,1413,673,0,0
196,351,0,0,0,0,0,0,0,0,0,-1,1420,673,0,0
203,351,0,0,0,0,0,0,0,0,0,-1,1427,673,0,0
210,351,0,0,0,0,0,0,0,0,0,-1,1434,673,0,0
217,351,0,0,0,0,0,0,0,0,0,-1,1441,673,0,0
224,351,0,0,0,0,0,0,0,0,0,-1,1448,673,0,0
231,351,0,0,0,0,0,0,0,0,0,-1,1455,673,0,0
238,351,0,0,0,0,0,0,0,0,0,-1,1462,673,0,0
245,351,0,0,0,0,0,0,0,0,0,-1,1469,673,0,0
252,351,0,0,0,0,0,0,0,0,0,-1,1476,673,0,0
259,351,0,0,0,0,0,0,0,0,0,-1,1483,673,0,0
266,351,0,0,0,0,0,0,0,0,0,-1,1490,673,0,0
273,351,0,0,0,0,0,0,0,0,0,-1,1497,673,0,0
280,351,0,0,0,0,0,0,0,0,0,-1,1504,673,0,0
287,351,0,0,0,0,0,0,0,0,0,-1,1511,673,0,0
294,351,0,0,0,0,0,0,0,0,0,-1,1518,673,0,0
301,351,0,0,0,0,0,0,0,0,0,-1,1525,673,0,0
308,351,0,0,0,0,0,0,0,0,0,-1,1532,673,0,0
315,351,0,0,0,0,0,0,0,0,0,-1,1539,673,0,0
322,351,0,0,0,0,0,0,0,0,0,-1,1546,673,0,0
329,351,0,0,0,0,0,0,0,0,0,-1,1553,673,0,0
336,351,0,0,0,0,0,0,0,0,0,-1,1560,673,0,0
343,351,0,0,0,0,0,0,0,0,0,-1,1567,673,0,0
350,351,0,0,0,0,0,0,0,0,0,-1,1574,673,0,0
357,351,0,0,0,0,0,0,0,0,0,-1,1581,673,0,0
364,351,0,0,0,0,0,0,0,0,0,-1,1588,673,0,0
371,351,0,0,0,0,0,0,0,0,0,-1,1595,673,0,0
378,351,0,0,0,0,0,0,0,0,0,-1,1602,673,0,0
385,351,0,0,0,0,0,0,0,0,0,-1,1609,673,0,0
392,351,0,0,0,0,0,0,0,0,0,-1,1616,673,0,0
399,351,0,0,0,0,0,0,0,0,0,-1,1623,673,0,0
406,351,0,0,0,0,0,0,0,0,0,-1,1630,673,0,0
413,351,0,0,0,0,0,0,0,0,0,-1,1637,673,0,0
420,351,0,0,0,0,0,0,0,0,0,-1,1644,673,0,0
427,351,0,0,0,0,0,0,0,0,0,-1,1651,673,0,0
434,351,0,0,0,0,0,0,0,0,0,-1,1658,673,0,0
441,351,0,0,0,0,0,0,0,0,0,-1,1665,673,0,0
448,351,0,0,0,0,0,0,0,0,0,-1,1672,673,0,0
455,351,0,0,0,0,0,0,0,0,0,-1,1679,673,0,0
462,351,0,0,0,0,0,0,0,0,0,-1,1686,673,0,0
469,351,0,0,0,0,0,0,0,0,0,-1,1693,673,0,0
476,351,0,0,0,0,0,0,0,0,0,-1,1700,673,0,0
483,351,0,0,0,0,0,0,0,0,0,-1,1707,673,0,0
490,351,0,0,0,0,0,0,0,0,0,-1,1714,673,0,0
497,351,0,0,0,0,0,0,0,0,0,-1,1721,673,0,0
504,351,10.8842,1.61615,0,0,0,0,0,0,0,-1,1728,673,10.8842,-1.61618
511,351,15.4548,0.0236816,0,0,0,0,0,0,0,-1,1735,673,15.4549,-0.0236664
518,351,16.7448,2.49268,0,0,0,0,0,0,0,-1,1742,673,16.7448,-2.49269
525,351,16.0701,3.43225,0,0,0,0,0,0,0,-1,1749,673,16.07,-3.43227
532,351,32.3822,3.03021,0,0,0,0,0,0,0,-1,1756,673,32.3822,-3.03019
539,351,15.3387,3.54486,0,0,0,0,0,0,0,-1,1763,673,15.3387,-3.54485
546,351,13.9387,4.59357,0,0,0,0,0,0,0,-1,1770,673,13.9388,-4.59359
553,351,12.0682,2.02832,0,0,0,0,0,0,0,-1,1777,673,12.0683,-2.02831
560,351,12.0173,0.55304,0,0,0,0,0,0,0,-1,1784,673,12.0174,-0.553028
567,351,10.7827,0.130188,0,0,0,0,0,0,0,-1,1791,673,10.7827,-0.130183
574,351,13.405,-1.09204,0,0,0,0,0,0,0,-1,1798,673,13.405,1.09207
581,351,15.2351,-3.06049,0,0,0,0,0,0,0,-1,1805,673,15.2351,3.06046
588,351,29.9419,-10.5057,0,0,0,0,0,0,0,-1,1812,673,29.9419,10.5057
595,351,33.0105,-10.9077,0,0,0,0,0,0,0,-1,1819,673,33.0105,10.9076
602,351,33.0112,-10.1215,0.00100078,-0.000149083,-0.000304208,0.0010763,-0.000224604,-0.243335,0.000802945,0.0184672,1826,673,33.0112,10.1215
609,351,32.9832,-9.35693,0.00120431,0.000144061,-2.7577e-05,0.00120503,0.000143344,-0.0259864,0.00076009,0.0187214,1833,673,32.9831,9.35695
616,351,32.9299,-8.54712,0.00136361,0.000483077,0.000265092,0.00143726,0.000409428,0.270987,0.000855022,0.0156661,1840,673,32.93,8.54713
623,351,32.9275,-7.75421,0.0015363,0.000889204,0.000585923,0.00188207,0.000543431,0.533133,0.00111848,0.0149879,1847,673,32.9275,7.75419
630,351,32.8712,-6.98596,0.0016859,0.00136342,0.000937372,0.0024758,0.000573518,0.700224,0.00149645,0.0222348,1854,673,32.8712,6.98595
637,351,32.8085,-6.18048,0.00179081,0.00184794,0.00124763,0.00306733,0.000571414,0.796844,0.00188353,0.0267814,1861,673,32.8084,6.18049
644,351,32.7675,-5.37244,0.00185028,0.0024028,0.00155859,0.00370943,0.00054365,0.873113,0.00231313,0.0209543,1868,673,32.7674,5.37246
651,351,32.7645,-4.50507,0.00187673,0.00301259,0.00187539,0.00440416,0.000485164,0.932425,0.00278849,0.0181163,1875,673,32.7645,4.50509
658,351,32.6707,-3.64471,0.00184359,0.00373688,0.0020942,0.00508845,0.000492013,0.997669,0.00324077,0.0439748,1882,673,32.6706,3.64471
665,351,32.4028,-2.6662,0,0,0,0,0,0,0,-1,1889,673,32.4028,2.6662
672,351,27.876,-1.51941,0,0,0,0,0,0,0,-1,1896,673,27.8759,1.51941
679,351,14.1252,1.85681,0,0,0,0,0,0,0,-1,1903,673,14.1253,-1.85682
686,351,13.0294,2.1189,0,0,0,0,0,0,0,-1,1910,673,13.0294,-2.11892
693,351,13.5187,2.34595,0,0,0,0,0,0,0,-1,1917,673,13.5187,-2.34596
700,351,14.5629,-2.40173,0,0,0,0,0,0,0,-1,1924,673,14.5629,2.40172
707,351,0,0,0,0,0,0,0,0,0,-1,1931,673,0,0
714,351,0,0,0,0,0,0,0,0,0,-1,1938,673,0,0
721,351,0,0,0,0,0,0,0,0,0,-1,1945,673,0,0
728,351,0,0,0,0,0,0,0,0,0,-1,1952,673,0,0
735,351,0,0,0,0,0,0,0,0,0,-1,1959,673,0,0
742,351,0,0,0,0,0,0,0,0,0,-1,1966,673,0,0
749,351,0,0,0,0,0,0,0,0,0,-1,1973,673,0,0
756,351,0,0,0,0,0,0,0,0,0,-1,1980,673,0,0
763,351,0,0,0,0,0,0,0,0,0,-1,1987,673,0,0
770,351,0,0,0,0,0,0,0,0,0,-1,1994,673,0,0
777,351,0,0,0,0,0,0,0,0,0,-1,2001,673,0,0
784,351,0,0,0,0,0,0,0,0,0,-1,2008,673,0,0
791,351,0,0,0,0,0,0,0,0,0,-1,2015,673,0,0
798,351,0,0,0,0,0,0,0,0,0,-1,2022,673,0,0
805,351,0,0,0,0,0,0,0,0,0,-1,2029,673,0,0
812,351,0,0,0,0,0,0,0,0,0,-1,2036,673,0,0
-700,344,0,0,0,0,0,0,0,0,0,-1,524,680,0,0
-693,344,0,0,0,0,0,0,0,0,0,-1,531,680,0,0
-686,344,0,0,0,0,0,0,0,0,0,-1,538,680,0,0
-679,344,0,0,0,0,0,0,0,0,0,-1,545,680,0,0
-672,344,0,0,0,0,0,0,0,0,0,-1,552,680,0,0
-665,344,0,0,0,0,0,0,0,0,0,-1,559,680,0,0
-658,344,0,0,0,0,0,0,0,0,0,-1,566,680,0,0
-651,344,0,0,0,0,0,0,0,0,0,-1,573,680,0,0
-644,344,0,0,0,0,0,0,0,0,0,-1,580,680,0,0
-637,344,0,0,0,0,0,0,0,0,0,-1,587,680,0,0
-630,344,0,0,0,0,0,0,0,0,0,-1,594,680,0,0
-623,344,0,0,0,0,0,0,0,0,0,-1,601,680,0,0
-616,344,0,0,0,0,0,0,0,0,0,-1,608,680,0,0
-609,344,0,0,0,0,0,0,0,0,0,-1,615,680,0,0
-602,344,0,0,0,0,0,0,0,0,0,-1,622,680,0,0
-595,344,0,0,0,0,0,0,0,0,0,-1,629,680,0,0
-588,344,-9.27826,1.47302,0,0,0,0,0,0,0,-1,636,680,-9.27829,-1.473
-581,344,-10.0098,1.71753,0,0,0,0,0,0,0,-1,643,680,-10.0098,-1.7175
-574,344,-10.2208,3.04871,0,0,0,0,0,0,0,-1,650,680,-10.2208,-3.04869
-567,344,-14.3779,2.29016,0,0,0,0,0,0,0,-1,657,680,-14.3779,-2.29014
-560,344,-14.1238,1.8374,0,0,0,0,0,0,0,-1,664,680,-14.1238,-1.83743
-553,344,-14.7884,2.00116,0,0,0,0,0,0,0,-1,671,680,-14.7884,-2.00115
-546,344,-17.4192,0.157654,0,0,0,0,0,0,0,-1,678,680,-17.4192,-0.157635
-539,344,-17.2671,-2.75714,0,0,0,0,0,0,0,-1,685,680,-17.2671,2.75712
-532,344,-18.4417,-4.38605,0,0,0,0,0,0,0,-1,692,680,-18.4417,4.38603
-525,344,-19.7836,-5.7359,0,0,0,0,0,0,0,-1,699,680,-19.7836,5.7359
-518,344,-19.8092,-6.51465,0.00374072,0.00163276,-0.000830153,0.00402839,0.00134509,-0.333578,0.00236818,0.0206422,706,680,-19.8092,6.51463
-511,344,-19.8499,-7.31354,0.00288923,0.000910623,-0.000604901,0.00305951,0.000740346,-0.274395,0.00184314,0.0176385,713,680,-19.8498,7.31355
-504,344,-19.8836,-8.11041,0.00226876,0.000353894,-0.000406659,0.00235154,0.000271111,-0.200825,0.00148559,0.0184289,720,680,-19.8836,8.11044
-497,344,-19.9128,-8.88867,0.00182766,-9.06093e-05,-0.000223391,0.00185333,-0.000116281,-0.114414,0.00127608,0.0165085,727,680,-19.9128,8.88868
-490,344,-19.9523,-9.65741,0.0014923,-0.000376038,-0.000144301,0.00150338,-0.000387117,-0.0766291,0.00115316,0.0151001,734,680,-19.9523,9.65743
-483,344,-19.9522,-10.4219,0.00135016,-0.000521577,-0.000108424,0.00135642,-0.000527837,-0.0576697,0.00112239,0.0152273,741,680,-19.9522,10.4219
-476,344,-19.991,-11.194,0.00131107,-0.0005762,-0.000188969,0.0013298,-0.000594935,-0.0988215,0.00113793,0.0153719,748,680,-19.991,11.1941
-469,344,-20.0286,-12.0033,0.00136814,-0.000522309,-0.000384035,0.00144317,-0.000597346,-0.192959,0.00121136,0.0217511,755,680,-20.0286,12.0033
-462,344,-19.9869,-12.8342,0,0,0,0,0,0,0,-1,762,680,-19.987,12.8342
-455,344,-12.1653,-7.99176,0,0,0,0,0,0,0,-1,769,680,-12.1653,7.99174
-448,344,-5.67657,-2.72864,0,0,0,0,0,0,0,-1,776,680,-5.6766,2.72863
-441,344,-5.09229,-2.34167,0,0,0,0,0,0,0,-1,783,680,-5.09229,2.34168
-434,344,-4.28778,-2.08807,0,0,0,0,0,0,0,-1,790,680,-4.28778,2.08809
-427,344,-3.06506,-1.45404,0,0,0,0,0,0,0,-1,797,680,-3.06505,1.45402
-420,344,-1.96582,-1.57574,0,0,0,0,0,0,0,-1,804,680,-1.96579,1.57574
-413,344,-0.817993,-1.4751,0,0,0,0,0,0,0,-1,811,680,-0.818017,1.47511
-406,344,-0.00714111,-1.25189,0,0,0,0,0,0,0,-1,818,680,-0.00714956,1.25191
-399,344,0.240051,-1.75769,0,0,0,0,0,0,0,-1,825,680,0.240079,1.75767
-392,344,1.11353,-2.05615,0,0,0,0,0,0,0,-1,832,680,1.11351,2.05616
-385,344,0,0,0,0,0,0,0,0,0,-1,839,680,0,0
-378,344,0,0,0,0,0,0,0,0,0,-1,846,680,0,0
-371,344,0,0,0,0,0,0,0,0,0,-1,853,680,0,0
-364,344,0,0,0,0,0,0,0,0,0,-1,860,680,0,0
-357,344,0,0,0,0,0,0,0,0,0,-1,867,680,0,0
-350,344,0,0,0,0,0,0,0,0,0,-1,874,680,0,0
-343,344,0,0,0,0,0,0,0,0,0,-1,881,680,0,0
-336,344,0,0,0,0,0,0,0,0,0,-1,888,680,0,0
-329,344,0,0,0,0,0,0,0,0,0,-1,895,680,0,0
-322,344,0,0,0,0,0,0,0,0,0,-1,902,680,0,0
-315,344,0,0,0,0,0,0,0,0,0,-1,909,680,0,0
-308,344,0,0,0,0,0,0,0,0,0,-1,916,680,0,0
-301,344,0,0,0,0,0,0,0,0,0,-1,923,680,0,0
-294,344,0,0,0,0,0,0,0,0,0,-1,930,680,0,0
-287,344,0,0,0,0,0,0,0,0,0,-1,937,680,0,0
-280,344,0,0,0,0,0,0,0,0,0,-1,944,680,0,0
-273,344,0,0,0,0,0,0,0,0,0,-1,951,680,0,0
-266,344,0,0,0,0,0,0,0,0,0,-1,958,680,0,0
-259,344,0,0,0,0,0,0,0,0,0,-1,965,680,0,0
-252,344,0,0,0,0,0,0,0,0,0,-1,972,680,0,0
-245,344,0,0,0,0,0,0,0,0,0,-1,979,680,0,0
-238,344,0,0,0,0,0,0,0,0,0,-1,986,680,0,0
-231,344,0,0,0,0,0,0,0,0,0,-1,993,680,0,0
-224,344,0,0,0,0,0,0,0,0,0,-1,1000,680,0,0
-217,344,0,0,0,0,0,0,0,0,0,-1,1007,680,0,0
-210,344,0,0,0,0,0,0,0,0,0,-1,1014,680,0,0
-203,344,0,0,0,0,0,0,0,0,0,-1,1021,680,0,0
-196,344,0,0,0,0,0,0,0,0,0,-1,1028,680,0,0
-189,344,0,0,0,0,0,0,0,0,0,-1,1035,680,0,0
-182,344,0,0,0,0,0,0,0,0,0,-1,1042,680,0,0
-175,344,0,0,0,0,0,0,0,0,0,-1,1049,680,0,0
-168,344,0,0,0,0,0,0,0,0,0,-1,1056,680,0,0
-161,344,0,0,0,0,0,0,0,0,0,-1,1063,680,0,0
-154,344,0,0,0,0,0,0,0,0,0,-1,1070,680,0,0
-147,344,0,0,0,0,0,0,0,0,0,-1,1077,680,0,0
-140,344,0,0,0,0,0,0,0,0,0,-1,1084,680,0,0
-133,344,0,0,0,0,0,0,0,0,0,-1,1091,680,0,0
-126,344,0,0,0,0,0,0,0,0,0,-1,1098,680,0,0
-119,344,0,0,0,0,0,0,0,0,0,-1,1105,680,0,0
-112,344,0,0,0,0,0,0,0,0,0,-1,1112,680,0,0
-105,344,0,0,0,0,0,0,0,0,0,-1,1119,680,0,0
-98,344,0,0,0,0,0,0,0,0,0,-1,1126,680,0,0
-91,344,0,0,0,0,0,0,0,0,0,-1,1133,680,0,0
-84,344,0,0,0,0,0,0,0,0,0,-1,1140,680,0,0
-77,344,0,0,0,0,0,0,0,0,0,-1,1147,680,0,0
-70,344,0,0,0,0,0,0,0,0,0,-1,1154,680,0,0
-63,344,0,0,0,0,0,0,0,0,0,-1,1161,680,0,0
-56,344,0,0,0,0,0,0,0,0,0,-1,1168,680,0,0
-49,344,0,0,0,0,0,0,0,0,0,-1,1175,680,0,0
-42,344,0,0,0,0,0,0,0,0,0,-1,1182,680,0,0
-35,344,0,0,0,0,0,0,0,0,0,-1,1189,680,0,0
-28,344,0,0,0,0,0,0,0,0,0,-1,1196,680,0,0
-21,344,0,0,0,0,0,0,0,0,0,-1,1203,680,0,0
-14,344,0,0,0,0,0,0,0,0,0,-1,1210,680,0,0
-7,344,0,0,0,0,0,0,0,0,0,-1,1217,680,0,0
0,344,0,0,0,0,0,0,0,0,0,-1,1224,680,0,0
7,344,0,0,0,0,0,0,0,0,0,-1,1231,680,0,0
14,344,0,0,0,0,0,0,0,0,0,-1,1238,680,0,0
21,344,0,0,0,0,0,0,0,0,0,-1,1245,680,0,0
28,344,0,0,0,0,0,0,0,0,0,-1,1252,680,0,0
35,344,0,0,0,0,0,0,0,0,0,-1,1259,680,0,0
42,344,0,0,0,0,0,0,0,0,0,-1,1266,680,0,0
49,344,0,0,0,0,0,0,0,0,0,-1,1273,680,0,0
56,344,0,0,0,0,0,0,0,0,0,-1,1280,680,0,0
63,344,0,0,0,0,0,0,0,0,0,-1,1287,680,0,0
70,344,0,0,0,0,0,0,0,0,0,-1,1294,680,0,0
77,344,0,0,0,0,0,0,0,0,0,-1,1301,680,0,0
84,344,0,0,0,0,0,0,0,0,0,-1,1308,680,0,0
91,344,0,0,0,0,0,0,0,0,0,-1,1315,680,0,0
98,344,0,0,0,0,0,0,0,0,0,-1,1322,680,0,0
105,344,0,0,0,0,0,0,0,0,0,-1,1329,680,0,0
112,344,0,0,0,0,0,0,0,0,0,-1,1336,680,0,0
119,344,0,0,0,0,0,0,0,0,0,-1,1343,680,0,0
126,344,0,0,0,0,0,0,0,0,0,-1,1350,680,0,0
133,344,0,0,0,0,0,0,0,0,0,-1,1357,680,0,0
140,344,0,0,0,0,0,0,0,0,0,-1,1364,680,0,0
147,344,0,0,0,0,0,0,0,0,0,-1,1371,680,0,0
154,344,0,0,0,0,0,0,0,0,0,-1,1378,680,0,0
161,344,0,0,0,0,0,0,0,0,0,-1,1385,680,0,0
168,344,0,0,0,0,0,0,0,0,0,-1,1392,680,0,0
175,344,0,0,0,0,0,0,0,0,0,-1,1399,680,0,0
182,344,0,0,0,0,0,0,0,0,0,-1,1406,680,0,0
189,344,0,0,0,0,0,0,0,0,0,-1,1413,680,0,0
196,344,0,0,0,0,0,0,0,0,0,-1,1420,680,0,0
203,344,0,0,0,0,0,0,0,0,0,-1,1427,680,0,0
210,344,0,0,0,0,0,0,0,0,0,-1,1434,680,0,0
217,344,0,0,0,0,0,0,0,0,0,-1,1441,680,0,0
224,344,0,0,0,0,0,0,0,0,0,-1,1448,680,0,0
231,344,0,0,0,0,0,0,0,0,0,-1,1455,680,0,0
238,344,0,0,0,0,0,0,0,0,0,-1,1462,680,0,0
245,344,0,0,0,0,0,0,0,0,0,-1,1469,680,0,0
252,344,0,0,0,0,0,0,0,0,0,-1,1476,680,0,0
259,344,0,0,0,0,0,0,0,0,0,-1,1483,680,0,0
266,344,0,0,0,0,0,0,0,0,0,-1,1490,680,0,0
273,344,0,0,0,0,0,0,0,0,0,-1,1497,680,0,0
280,344,0,0,0,0,0,0,0,0,0,-1,1504,680,0,0
287,344,0,0,0,0,0,0,0,0,0,-1,1511,680,0,0
294,344,0,0,0,0,0,0,0,0,0,-1,1518,680,0,0
301,344,0,0,0,0,0,0,0,0,0,-1,1525,680,0,0
308,344,0,0,0,0,0,0,0,0,0,-1,1532,680,0,0
315,344,0,0,0,0,0,0,0,0,0,-1,1539,680,0,0
322,344,0,0,0,0,0,0,0,0,0,-1,1546,680,0,0
329,344,0,0,0,0,0,0,0,0,0,-1,1553,680,0,0
336,344,0,0,0,0,0,0,0,0,0,-1,1560,680,0,0
343,344,0,0,0,0,0,0,0,0,0,-1,1567,680,0,0
350,344,0,0,0,0,0,0,0,0,0,-1,1574,680,0,0
357,344,0,0,0,0,0,0,0,0,0,-1,1581,680,0,0
364,344,0,0,0,0,0,0,0,0,0,-1,1588,680,0,0
371,344,0,0,0,0,0,0,0,0,0,-1,1595,680,0,0
378,344,0,0,0,0,0,0,0,0,0,-1,1602,680,0,0
385,344,0,0,0,0,0,0,0,0,0,-1,1609,680,0,0
392,344,0,0,0,0,0,0,0,0,0,-1,1616,680,0,0
399,344,0,0,0,0,0,0,0,0,0,-1,1623,680,0,0
406,344,0,0,0,0,0,0,0,0,0,-1,1630,680,0,0
413,344,0,0,0,0,0,0,0,0,0,-1,1637,680,0,0
420,344,0,0,0,0,0,0,0,0,0,-1,1644,680,0,0
427,344,0,0,0,0,0,0,0,0,0,-1,1651,680,0,0
434,344,0,0,0,0,0,0,0,0,0,-1,1658,680,0,0
441,344,0,0,0,0,0,0,0,0,0,-1,1665,680,0,0
448,344,0,0,0,0,0,0,0,0,0,-1,1672,680,0,0
455,344,0,0,0,0,0,0,0,0,0,-1,1679,680,0,0
462,344,0,0,0,0,0,0,0,0,0,-1,1686,680,0,0
469,344,0,0,0,0,0,0,0,0,0,-1,1693,680,0,0
476,344,0,0,0,0,0,0,0,0,0,-1,1700,680,0,0
483,344,0,0,0,0,0,0,0,0,0,-1,1707,680,0,0
490,344,0,0,0,0,0,0,0,0,0,-1,1714,680,0,0
497,344,0,0,0,0,0,0,0,0,0,-1,1721,680,0,0
504,344,0,0,0,0,0,0,0,0,0,-1,1728,680,0,0
511,344,15.4819,0.452637,0,0,0,0,0,0,0,-1,1735,680,15.4819,-0.452656
518,344,17.1357,2.31207,0,0,0,0,0,0,0,-1,1742,680,17.1358,-2.31207
525,344,31.5201,2.6217,0,0,0,0,0,0,0,-1,1749,680,31.5201,-2.62168
532,344,31.9766,2.61047,0,0,0,0,0,0,0,-1,1756,680,31.9765,-2.6105
539,344,32.4379,2.65314,0,0,0,0,0,0,0,-1,1763,680,32.4378,-2.65316
546,344,14.6722,4.30243,0,0,0,0,0,0,0,-1,1770,680,14.6722,-4.30241
553,344,14.8136,4.35681,0,0,0,0,0,0,0,-1,1777,680,14.8136,-4.35679
560,344,11.9363,2.14185,0,0,0,0,0,0,0,-1,1784,680,11.9362,-2.14182
567,344,11.397,0.925842,0,0,0,0,0,0,0,-1,1791,680,11.397,-0.92583
574,344,10.0004,0.504639,0,0,0,0,0,0,0,-1,1798,680,10.0004,-0.504645
581,344,13.6709,-0.969604,0,0,0,0,0,0,0,-1,1805,680,13.6709,0.969629
588,344,16.1447,-3.15948,0,0,0,0,0,0,0,-1,1812,680,16.1447,3.15946
595,344,33.8516,-10.9538,0,0,0,0,0,0,0,-1,1819,680,33.8515,10.9538
602,344,33.8708,-10.0945,0.00106021,-0.000250097,-0.000339293,0.00114285,-0.000332741,-0.238926,0.000893708,0.0365745,1826,680,33.8708,10.0945
609,344,33.8014,-9.29529,0.00130027,-5.4354e-05,-9.43327e-05,0.0013068,-6.08916e-05,-0.0691926,0.000892193,0.017507,1833,680,33.8013,9.29527
616,344,33.7369,-8.50366,0.00141115,0.000160428,0.000165757,0.00143274,0.000138833,0.129551,0.000912411,0.0232435,1840,680,33.737,8.50364
623,344,33.7076,-7.70502,0.00147658,0.000467828,0.000409824,0.00162209,0.000322319,0.341168,0.000991574,0.0191583,1847,680,33.7076,7.705
630,344,33.6479,-6.94336,0.00155143,0.000859901,0.000703418,0.00198947,0.000421862,0.556965,0.00121045,0.0230326,1854,680,33.6479,6.94339
637,344,33.6101,-6.14978,0.00161208,0.0012854,0.000968313,0.00243074,0.000466751,0.701842,0.00148949,0.0240415,1861,680,33.6101,6.14978
644,344,33.5767,-5.32062,0.00165289,0.00176914,0.00123105,0.00294344,0.000478592,0.808989,0.00182382,0.0172422,1868,680,33.5766,5.32059
651,344,33.5546,-4.48523,0.001706,0.00234948,0.00151479,0.00357632,0.000479156,0.890043,0.00224163,0.0119315,1875,680,33.5546,4.48523
658,344,33.5214,-3.57733,0.00176115,0.00304386,0.00175639,0.00427232,0.000532681,0.960454,0.0026883,0.0274233,1882,680,33.5213,3.57734
665,344,33.3494,-2.81073,0.00211794,0.00385668,0.00212885,0.00528684,0.000687785,0.97925,0.00331913,0.0444467,1889,680,33.3493,2.81072
672,344,33.3605,-2.06958,0,0,0,0,0,0,0,-1,1896,680,33.3605,2.06957
679,344,31.3612,-1.75824,0,0,0,0,0,0,0,-1,1903,680,31.3613,1.75822
686,344,15.024,1.82709,0,0,0,0,0,0,0,-1,1910,680,15.024,-1.82706
693,344,12.4362,-1.42346,0,0,0,0,0,0,0,-1,1917,680,12.4361,1.42348
700,344,17.5396,2.61206,0,0,0,0,0,0,0,-1,1924,680,17.5396,-2.61204
707,344,18.5829,3.29352,0,0,0,0,0,0,0,-1,1931,680,18.5828,-3.2935
714,344,0,0,0,0,0,0,0,0,0,-1,1938,680,0,0
721,344,0,0,0,0,0,0,0,0,0,-1,1945,680,0,0
728,344,0,0,0,0,0,0,0,0,0,-1,1952,680,0,0
735,344,0,0,0,0,0,0,0,0,0,-1,1959,680,0,0
742,344,0,0,0,0,0,0,0,0,0,-1,1966,680,0,0
749,344,0,0,0,0,0,0,0,0,0,-1,1973,680,0,0
756,344,0,0,0,0,0,0,0,0,0,-1,1980,680,0,0
763,344,0,0,0,0,0,0,0,0,0,-1,1987,680,0,0
770,344,0,0,0,0,0,0,0,0,0,-1,1994,680,0,0
777,344,0,0,0,0,0,0,0,0,0,-1,2001,680,0,0
784,344,0,0,0,0,0,0,0,0,0,-1,2008,680,0,0
791,344,0,0,0,0,0,0,0,0,0,-1,2015,680,0,0
798,344,0,0,0,0,0,0,0,0,0,-1,2022,680,0,0
805,344,0,0,0,0,0,0,0,0,0,-1,2029,680,0,0
812,344,0,0,0,0,0,0,0,0,0,-1,2036,680,0,0
-700,337,0,0,0,0,0,0,0,0,0,-1,524,687,0,0
-693,337,0,0,0,0,0,0,0,0,0,-1,531,687,0,0
-686,337,0,0,0,0,0,0,0,0,0,-1,538,687,0,0
-679,337,0,0,0,0,0,0,0,0,0,-1,545,687,0,0
-672,337,0,0,0,0,0,0,0,0,0,-1,552,687,0,0
-665,337,0,0,0,0,0,0,0,0,0,-1,559,687,0,0
-658,337,0,0,0,0,0,0,0,0,0,-1,566,687,0,0
-651,337,0,0,0,0,0,0,0,0,0,-1,573,687,0,0
-644,337,0,0,0,0,0,0,0,0,0,-1,580,687,0,0
-637,337,0,0,0,0,0,0,0,0,0,-1,587,687,0,0
-630,337,0,0,0,0,0,0,0,0,0,-1,594,687,0,0
-623,337,0,0,0,0,0,0,0,0,0,-1,601,687,0,0
-616,337,0,0,0,0,0,0,0,0,0,-1,608,687,0,0
-609,337,0,0,0,0,0,0,0,0,0,-1,615,687,0,0
-602,337,0,0,0,0,0,0,0,0,0,-1,622,687,0,0
-595,337,0,0,0,0,0,0,0,0,0,-1,629,687,0,0
-588,337,-10.8413,1.27863,0,0,0,0,0,0,0,-1,636,687,-10.8413,-1.27861
-581,337,-11.2157,1.31567,0,0,0,0,0,0,0,-1,643,687,-11.2157,-1.3157
-574,337,-6.03339,2.0321,0,0,0,0,0,0,0,-1,650,687,-6.03337,-2.03213
-567,337,-13.8102,1.56787,0,0,0,0,0,0,0,-1,657,687,-13.8102,-1.56789
-560,337,-15.5435,2.34247,0,0,0,0,0,0,0,-1,664,687,-15.5435,-2.34247
-553,337,-18.0128,1.12927,0,0,0,0,0,0,0,-1,671,687,-18.0128,-1.12926
-546,337,-18.0244,-2.03845,0,0,0,0,0,0,0,-1,678,687,-18.0244,2.03846
-539,337,-19.2426,-3.53815,0,0,0,0,0,0,0,-1,685,687,-19.2426,3.53813
-532,337,-20.6,-4.92157,0,0,0,0,0,0,0,-1,692,687,-20.6,4.92158
-525,337,-20.6037,-5.70538,0.00434849,0.00226201,-0.000936002,0.00470684,0.00190366,-0.365635,0.00273399,0.0197238,699,687,-20.6037,5.70537
-518,337,-20.5813,-6.48279,0.00338562,0.00131586,-0.000675099,0.00358635,0.00111513,-0.289012,0.00211935,0.023509,706,687,-20.5813,6.48277
-511,337,-20.631,-7.28882,0.00266505,0.000583391,-0.000419129,0.00274627,0.000502171,-0.19141,0.00168853,0.0237887,713,687,-20.631,7.28881
-504,337,-20.6779,-8.1012,0.0020786,4.32664e-06,-0.000157762,0.00209053,-7.60355e-06,-0.075478,0.00139623,0.0243968,720,687,-20.6779,8.10117
-497,337,-20.701,-8.87701,0.00165328,-0.000440858,7.21604e-05,0.00165576,-0.000443342,0.0344039,0.00127752,0.0181078,727,687,-20.7011,8.877
-490,337,-20.7299,-9.64508,0.00137696,-0.000705905,0.000205436,0.00139703,-0.000725974,0.0973812,0.00124596,0.0155391,734,687,-20.7299,9.64505
-483,337,-20.742,-10.4083,0.00128053,-0.000808162,0.000263266,0.0013132,-0.000840834,0.123471,0.00125356,0.0156324,741,687,-20.742,10.4083
-476,337,-20.7541,-11.2013,0.00126432,-0.000812843,0.000141289,0.00127389,-0.000822409,0.067605,0.00121962,0.017713,748,687,-20.7541,11.2013
-469,337,-20.7506,-12.0497,0,0,0,0,0,0,0,-1,755,687,-20.7506,12.0497
-462,337,-14.186,-8.89264,0,0,0,0,0,0,0,-1,762,687,-14.186,8.89266
-455,337,-6.00574,-3.12933,0,0,0,0,0,0,0,-1,769,687,-6.00576,3.12934
-448,337,-5.30627,-2.07202,0,0,0,0,0,0,0,-1,776,687,-5.30628,2.07205
-441,337,-4.24762,-1.49597,0,0,0,0,0,0,0,-1,783,687,-4.24762,1.49598
-434,337,-6.86908,1.37531,0,0,0,0,0,0,0,-1,790,687,-6.86908,-1.3753
-427,337,-9.92004,2.487,0,0,0,0,0,0,0,-1,797,687,-9.92002,-2.48701
-420,337,-2.95996,-1.76697,0,0,0,0,0,0,0,-1,804,687,-2.95998,1.76696
-413,337,-1.29169,-1.99487,0,0,0,0,0,0,0,-1,811,687,-1.29171,1.9949
-406,337,-1.02356,-1.89563,0,0,0,0,0,0,0,-1,818,687,-1.02357,1.89564
-399,337,-0.472839,-2.21338,0,0,0,0,0,0,0,-1,825,687,-0.472837,2.2134
-392,337,0,0,0,0,0,0,0,0,0,-1,832,687,0,0
-385,337,0,0,0,0,0,0,0,0,0,-1,839,687,0,0
-378,337,0,0,0,0,0,0,0,0,0,-1,846,687,0,0
-371,337,0,0,0,0,0,0,0,0,0,-1,853,687,0,0
-364,337,0,0,0,0,0,0,0,0,0,-1,860,687,0,0
-357,337,0,0,0,0,0,0,0,0,0,-1,867,687,0,0
-350,337,0,0,0,0,0,0,0,0,0,-1,874,687,0,0
-343,337,0,0,0,0,0,0,0,0,0,-1,881,687,0,0
-336,337,0,0,0,0,0,0,0,0,0,-1,888,687,0,0
-329,337,0,0,0,0,0,0,0,0,0,-1,895,687,0,0
-322,337,0,0,0,0,0,0,0,0,0,-1,902,687,0,0
-315,337,0,0,0,0,0,0,0,0,0,-1,909,687,0,0
-308,337,0,0,0,0,0,0,0,0,0,-1,916,687,0,0
-301,337,0,0,0,0,0,0,0,0,0,-1,923,687,0,0
-294,337,0,0,0,0,0,0,0,0,0,-1,930,687,0,0
-287,337,0,0,0,0,0,0,0,0,0,-1,937,687,0,0
-280,337,0,0,0,0,0,0,0,0,0,-1,944,687,0,0
-273,337,0,0,0,0,0,0,0,0,0,-1,951,687,0,0
-266,337,0,0,0,0,0,0,0,0,0,-1,958,687,0,0
-259,337,0,0,0,0,0,0,0,0,0,-1,965,687,0,0
-252,337,0,0,0,0,0,0,0,0,0,-1,972,687,0,0
-245,337,0,0,0,0,0,0,0,0,0,-1,979,687,0,0
-238,337,0,0,0,0,0,0,0,0,0,-1,986,687,0,0
-231,337,0,0,0,0,0,0,0,0,0,-1,993,687,0,0
-224,337,0,0,0,0,0,0,0,0,0,-1,1000,687,0,0
-217,337,0,0,0,0,0,0,0,0,0,-1,1007,687,0,0
-210,337,0,0,0,0,0,0,0,0,0,-1,1014,687,0,0
-203,337,0,0,0,0,0,0,0,0,0,-1,1021,687,0,0
-196,337,0,0,0,0,0,0,0,0,0,-1,1028,687,0,0
-189,337,0,0,0,0,0,0,0,0,0,-1,1035,687,0,0
-182,337,0,0,0,0,0,0,0,0,0,-1,1042,687,0,0
-175,337,0,0,0,0,0,0,0,0,0,-1,1049,687,0,0
-168,337,0,0,0,0,0,0,0,0,0,-1,1056,687,0,0
-161,337,0,0,0,0,0,0,0,0,0,-1,1063,687,0,0
-154,337,0,0,0,0,0,0,0,0,0,-1,1070,687,0,0
-147,337,0,0,0,0,0,0,0,0,0,-1,1077,687,0,0
-140,337,0,0,0,0,0,0,0,0,0,-1,1084,687,0,0
-133,337,0,0,0,0,0,0,0,0,0,-1,1091,687,0,0
-126,337,0,0,0,0,0,0,0,0,0,-1,1098,687,0,0
-119,337,0,0,0,0,0,0,0,0,0,-1,1105,687,0,0
-112,337,0,0,0,0,0,0,0,0,0,-1,1112,687,0,0
-105,337,0,0,0,0,0,0,0,0,0,-1,1119,687,0,0
-98,337,0,0,0,0,0,0,0,0,0,-1,1126,687,0,0
-91,337,0,0,0,0,0,0,0,0,0,-1,1133,687,0,0
-84,337,0,0,0,0,0,0,0,0,0,-1,1140,687,0,0
-77,337,0,0,0,0,0,0,0,0,0,-1,1147,687,0,0
-70,337,0,0,0,0,0,0,0,0,0,-1,1154,687,0,0
-63,337,0,0,0,0,0,0,0,0,0,-1,1161,687,0,0
-56,337,0,0,0,0,0,0,0,0,0,-1,1168,687,0,0
-49,337,0,0,0,0,0,0,0,0,0,-1,1175,687,0,0
-42,337,0,0,0,0,0,0,0,0,0,-1,1182,687,0,0
-35,337,0,0,0,0,0,0,0,0,0,-1,1189,687,0,0
-28,337,0,0,0,0,0,0,0,0,0,-1,1196,687,0,0
-21,337,0,0,0,0,0,0,0,0,0,-1,1203,687,0,0
-14,337,0,0,0,0,0,0,0,0,0,-1,1210,687,0,0
-7,337,0,0,0,0,0,0,0,0,0,-1,1217,687,0,0
0,337,0,0,0,0,0,0,0,0,0,-1,1224,687,0,0
7,337,0,0,0,0,0,0,0,0,0,-1,1231,687,0,0
14,337,0,0,0,0,0,0,0,0,0,-1,1238,687,0,0
21,337,0,0,0,0,0,0,0,0,0,-1,1245,687,0,0
28,337,0,0,0,0,0,0,0,0,0,-1,1252,687,0,0
35,337,0,0,0,0,0,0,0,0,0,-1,1259,687,0,0
42,337,0,0,0,0,0,0,0,0,0,-1,1266,687,0,0
49,337,0,0,0,0,0,0,0,0,0,-1,1273,687,0,0
56,337,0,0,0,0,0,0,0,0,0,-1,1280,687,0,0
63,337,0,0,0,0,0,0,0,0,0,-1,1287,687,0,0
70,337,0,0,0,0,0,0,0,0,0,-1,1294,687,0,0
77,337,0,0,0,0,0,0,0,0,0,-1,1301,687,0,0
84,337,0,0,0,0,0,0,0,0,0,-1,1308,687,0,0
91,337,0,0,0,0,0,0,0,0,0,-1,1315,687,0,0
98,337,0,0,0,0,0,0,0,0,0,-1,1322,687,0,0
105,337,0,0,0,0,0,0,0,0,0,-1,1329,687,0,0
112,337,0,0,0,0,0,0,0,0,0,-1,1336,687,0,0
119,337,0,0,0,0,0,0,0,0,0,-1,1343,687,0,0
126,337,0,0,0,0,0,0,0,0,0,-1,1350,687,0,0
133,337,0,0,0,0,0,0,0,0,0,-1,1357,687,0,0
140,337,0,0,0,0,0,0,0,0,0,-1,1364,687,0,0
147,337,0,0,0,0,0,0,0,0,0,-1,1371,687,0,0
154,337,0,0,0,0,0,0,0,0,0,-1,1378,687,0,0
161,337,0,0,0,0,0,0,0,0,0,-1,1385,687,0,0
168,337,0,0,0,0,0,0,0,0,0,-1,1392,687,0,0
175,337,0,0,0,0,0,0,0,0,0,-1,1399,687,0,0
182,337,0,0,0,0,0,0,0,0,0,-1,1406,687,0,0
189,337,0,0,0,0,0,0,0,0,0,-1,1413,687,0,0
196,337,0,0,0,0,0,0,0,0,0,-1,1420,687,0,0
203,337,0,0,0,0,0,0,0,0,0,-1,1427,687,0,0
210,337,0,0,0,0,0,0,0,0,0,-1,1434,687,0,0
217,337,0,0,0,0,0,0,0,0,0,-1,1441,687,0,0
224,337,0,0,0,0,0,0,0,0,0,-1,1448,687,0,0
231,337,0,0,0,0,0,0,0,0,0,-1,1455,687,0,0
238,337,0,0,0,0,0,0,0,0,0,-1,1462,687,0,0
245,337,0,0,0,0,0,0,0,0,0,-1,1469,687,0,0
252,337,0,0,0,0,0,0,0,0,0,-1,1476,687,0,0
259,337,0,0,0,0,0,0,0,0,0,-1,1483,687,0,0
266,337,0,0,0,0,0,0,0,0,0,-1,1490,687,0,0
273,337,0,0,0,0,0,0,0,0,0,-1,1497,687,0,0
280,337,0,0,0,0,0,0,0,0,0,-1,1504,687,0,0
287,337,0,0,0,0,0,0,0,0,0,-1,1511,687,0,0
294,337,0,0,0,0,0,0,0,0,0,-1,1518,687,0,0
301,337,0,0,0,0,0,0,0,0,0,-1,1525,687,0,0
308,337,0,0,0,0,0,0,0,0,0,-1,1532,687,0,0
315,337,0,0,0,0,0,0,0,0,0,-1,1539,687,0,0
322,337,0,0,0,0,0,0,0,0,0,-1,1546,687,0,0
329,337,0,0,0,0,0,0,0,0,0,-1,1553,687,0,0
336,337,0,0,0,0,0,0,0,0,0,-1,1560,687,0,0
343,337,0,0,0,0,0,0,0,0,0,-1,1567,687,0,0
350,337,0,0,0,0,0,0,0,0,0,-1,1574,687,0,0
357,337,0,0,0,0,0,0,0,0,0,-1,1581,687,0,0
364,337,0,0,0,0,0,0,0,0,0,-1,1588,687,0,0
371,337,0,0,0,0,0,0,0,0,0,-1,1595,687,0,0
378,337,0,0,0,0,0,0,0,0,0,-1,1602,687,0,0
385,337,0,0,0,0,0,0,0,0,0,-1,1609,687,0,0
392,337,0,0,0,0,0,0,0,0,0,-1,1616,687,0,0
399,337,0,0,0,0,0,0,0,0,0,-1,1623,687,0,0
406,337,0,0,0,0,0,0,0,0,0,-1,1630,687,0,0
413,337,0,0,0,0,0,0,0,0,0,-1,1637,687,0,0
420,337,0,0,0,0,0,0,0,0,0,-1,1644,687,0,0
427,337,0,0,0,0,0,0,0,0,0,-1,1651,687,0,0
434,337,0,0,0,0,0,0,0,0,0,-1,1658,687,0,0
441,337,0,0,0,0,0,0,0,0,0,-1,1665,687,0,0
448,337,0,0,0,0,0,0,0,0,0,-1,1672,687,0,0
455,337,0,0,0,0,0,0,0,0,0,-1,1679,687,0,0
462,337,0,0,0,0,0,0,0,0,0,-1,1686,687,0,0
469,337,0,0,0,0,0,0,0,0,0,-1,1693,687,0,0
476,337,0,0,0,0,0,0,0,0,0,-1,1700,687,0,0
483,337,0,0,0,0,0,0,0,0,0,-1,1707,687,0,0
490,337,0,0,0,0,0,0,0,0,0,-1,1714,687,0,0
497,337,0,0,0,0,0,0,0,0,0,-1,1721,687,0,0
504,337,0,0,0,0,0,0,0,0,0,-1,1728,687,0,0
511,337,0,0,0,0,0,0,0,0,0,-1,1735,687,0,0
518,337,18.0369,1.64581,0,0,0,0,0,0,0,-1,1742,687,18.0368,-1.64581
525,337,31.0717,2.13745,0,0,0,0,0,0,0,-1,1749,687,31.0717,-2.13747
532,337,31.5126,2.13904,0,0,0,0,0,0,0,-1,1756,687,31.5125,-2.13905
539,337,31.9684,2.15594,0,0,0,0,0,0,0,-1,1763,687,31.9684,-2.15596
546,337,32.3584,1.43719,0,0,0,0,0,0,0,-1,1770,687,32.3585,-1.43722
553,337,32.1809,1.36395,0,0,0,0,0,0,0,-1,1777,687,32.181,-1.36396
560,337,18.4053,3.62793,0,0,0,0,0,0,0,-1,1784,687,18.4052,-3.6279
567,337,11.9288,1.38776,0,0,0,0,0,0,0,-1,1791,687,11.9288,-1.38777
574,337,10.704,1.19476,0,0,0,0,0,0,0,-1,1798,687,10.704,-1.19478
581,337,8.50427,0.561768,0,0,0,0,0,0,0,-1,1805,687,8.5043,-0.561754
588,337,8.5885,-0.0536499,0,0,0,0,0,0,0,-1,1812,687,8.58844,0.0536788
595,337,13.8816,-1.70703,0,0,0,0,0,0,0,-1,1819,687,13.8816,1.70702
602,337,34.6621,-10.0076,0,0,0,0,0,0,0,-1,1826,687,34.6622,10.0076
609,337,34.6078,-9.18604,0.00153236,-0.000225703,-0.000111098,0.00153935,-0.000232696,-0.06286,0.00111195,0.0227596,1833,687,34.6078,9.18601
616,337,34.5532,-8.41852,0.00154186,-0.000120397,0.000137275,0.00155312,-0.000131658,0.0818449,0.00108197,0.0173184,1840,687,34.5532,8.4185
623,337,34.4854,-7.64801,0.00146999,0.000113809,0.000313088,0.00153878,4.50183e-05,0.216279,0.00101118,0.0150513,1847,687,34.4853,7.648
630,337,34.436,-6.87231,0.00145555,0.000442075,0.000553622,0.00169933,0.000198292,0.414793,0.00107292,0.0189747,1854,687,34.4361,6.87234
637,337,34.4292,-6.07782,0.00146345,0.000829971,0.000786035,0.00199416,0.000299258,0.593872,0.00124177,0.0179665,1861,687,34.4292,6.07783
644,337,34.3899,-5.23785,0.00149452,0.0012955,0.00103212,0.00243192,0.0003581,0.73734,0.00151608,0.0120125,1868,687,34.3899,5.23786
651,337,34.3287,-4.41583,0.00157245,0.0018734,0.00131187,0.0030434,0.00040245,0.8425,0.00190898,0.0105771,1875,687,34.3287,4.41581
658,337,34.3085,-3.62549,0.00170512,0.00256601,0.00160057,0.003793,0.000478125,0.916755,0.00238532,0.0122044,1882,687,34.3085,3.6255
665,337,34.2843,-2.83362,0.00212621,0.00340239,0.0020166,0.00487944,0.00064916,0.938624,0.00305962,0.0165833,1889,687,34.2843,2.83363
672,337,34.3306,-2.01294,0,0,0,0,0,0,0,-1,1896,687,34.3306,2.01296
679,337,33.4272,-1.31268,0,0,0,0,0,0,0,-1,1903,687,33.4273,1.3127
686,337,18.5614,1.68597,0,0,0,0,0,0,0,-1,1910,687,18.5614,-1.68598
693,337,16.5415,2.21411,0,0,0,0,0,0,0,-1,1917,687,16.5415,-2.2141
700,337,17.2661,2.44379,0,0,0,0,0,0,0,-1,1924,687,17.2661,-2.44378
707,337,17.3544,5.61853,0,0,0,0,0,0,0,-1,1931,687,17.3543,-5.61851
714,337,0,0,0,0,0,0,0,0,0,-1,1938,687,0,0
721,337,0,0,0,0,0,0,0,0,0,-1,1945,687,0,0
728,337,0,0,0,0,0,0,0,0,0,-1,1952,687,0,0
735,337,0,0,0,0,0,0,0,0,0,-1,1959,687,0,0
742,337,0,0,0,0,0,0,0,0,0,-1,1966,687,0,0
749,337,0,0,0,0,0,0,0,0,0,-1,1973,687,0,0
756,337,0,0,0,0,0,0,0,0,0,-1,1980,687,0,0
763,337,0,0,0,0,0,0,0,0,0,-1,1987,687,0,0
770,337,0,0,0,0,0,0,0,0,0,-1,1994,687,0,0
777,337,0,0,0,0,0,0,0,0,0,-1,2001,687,0,0
784,337,0,0,0,0,0,0,0,0,0,-1,2008,687,0,0
791,337,0,0,0,0,0,0,0,0,0,-1,2015,687,0,0
798,337,0,0,0,0,0,0,0,0,0,-1,2022,687,0,0
805,337,0,0,0,0,0,0,0,0,0,-1,2029,687,0,0
812,337,0,0,0,0,0,0,0,0,0,-1,2036,687,0,0
-700,330,0,0,0,0,0,0,0,0,0,-1,524,694,0,0
-693,330,0,0,0,0,0,0,0,0,0,-1,531,694,0,0
-686,330,0,0,0,0,0,0,0,0,0,-1,538,694,0,0
-679,330,0,0,0,0,0,0,0,0,0,-1,545,694,0,0
-672,330,0,0,0,0,0,0,0,0,0,-1,552,694,0,0
-665,330,0,0,0,0,0,0,0,0,0,-1,559,694,0,0
-658,330,0,0,0,0,0,0,0,0,0,-1,566,694,0,0
-651,330,0,0,0,0,0,0,0,0,0,-1,573,694,0,0
-644,330,0,0,0,0,0,0,0,0,0,-1,580,694,0,0
-637,330,0,0,0,0,0,0,0,0,0,-1,587,694,0,0
-630,330,0,0,0,0,0,0,0,0,0,-1,594,694,0,0
-623,330,0,0,0,0,0,0,0,0,0,-1,601,694,0,0
-616,330,0,0,0,0,0,0,0,0,0,-1,608,694,0,0
-609,330,0,0,0,0,0,0,0,0,0,-1,615,694,0,0
-602,330,0,0,0,0,0,0,0,0,0,-1,622,694,0,0
-595,330,-4.67883,1.65515,0,0,0,0,0,0,0,-1,629,694,-4.67881,-1.65515
-588,330,-8.5047,2.67346,0,0,0,0,0,0,0,-1,636,694,-8.50469,-2.67348
-581,330,-12.4227,0.947083,0,0,0,0,0,0,0,-1,643,694,-12.4227,-0.947109
-574,330,-9.02118,1.87952,0,0,0,0,0,0,0,-1,650,694,-9.02115,-1.87953
-567,330,-8.35577,0.909973,0,0,0,0,0,0,0,-1,657,694,-8.35575,-0.909945
-560,330,-13.1036,-0.584656,0,0,0,0,0,0,0,-1,664,694,-13.1035,0.584658
-553,330,-17.5484,-1.21545,0,0,0,0,0,0,0,-1,671,694,-17.5484,1.21547
-546,330,-21.0937,-3.03906,0,0,0,0,0,0,0,-1,678,694,-21.0937,3.03905
-539,330,-21.3922,-4.00659,0,0,0,0,0,0,0,-1,685,694,-21.3921,4.00662
-532,330,-21.3605,-4.86877,0.00458822,0.00276883,-0.000825442,0.0049069,0.00245015,-0.368439,0.002833,0.0224026,692,694,-21.3605,4.86875
-525,330,-21.3401,-5.71277,0.00368065,0.00171848,-0.000630699,0.00386589,0.00153324,-0.285669,0.00224782,0.0111345,699,694,-21.3401,5.71279
-518,330,-21.3596,-6.45941,0.00292988,0.000879488,-0.000385501,0.00299996,0.000809404,-0.179835,0.00179217,0.0154556,706,694,-21.3595,6.45943
-511,330,-21.4103,-7.24396,0.00234565,0.000254506,-0.000152793,0.00235676,0.000243401,-0.0725531,0.00149665,0.0210338,713,694,-21.4103,7.24397
-504,330,-21.4496,-8.06305,0.00184911,-0.000217463,0.000111665,0.00185513,-0.00022348,0.053825,0.00131758,0.0191669,720,694,-21.4496,8.06307
-497,330,-21.5073,-8.81372,0.00151544,-0.000542648,0.000335561,0.00156877,-0.000595977,0.157609,0.0012912,0.0144804,727,694,-21.5073,8.81374
-490,330,-21.5161,-9.58545,0.00139597,-0.000680869,0.000501316,0.00151065,-0.000795546,0.224883,0.00135265,0.0144653,734,694,-21.516,9.58546
-483,330,-21.5273,-10.3614,0.0014411,-0.000640313,0.000582363,0.00159296,-0.000792174,0.255086,0.00140269,0.0143908,741,694,-21.5273,10.3614
-476,330,-21.5752,-11.1428,0,0,0,0,0,0,0,-1,748,694,-21.5752,11.1428
-469,330,-16.1478,-9.23303,0,0,0,0,0,0,0,-1,755,694,-16.1478,9.23301
-462,330,-7.26733,-3.84833,0,0,0,0,0,0,0,-1,762,694,-7.26731,3.84832
-455,330,-5.04254,-1.79303,0,0,0,0,0,0,0,-1,769,694,-5.04252,1.79305
-448,330,-4.89886,-1.66156,0,0,0,0,0,0,0,-1,776,694,-4.89886,1.66157
-441,330,-5.30676,-2.34045,0,0,0,0,0,0,0,-1,783,694,-5.30679,2.34048
-434,330,-7.20428,1.00024,0,0,0,0,0,0,0,-1,790,694,-7.20431,-1.00027
-427,330,-16.0428,2.89258,0,0,0,0,0,0,0,-1,797,694,-16.0428,-2.89259
-420,330,-29.0331,0.271606,0,0,0,0,0,0,0,-1,804,694,-29.0331,-0.27158
-413,330,-29.0896,0.56366,0,0,0,0,0,0,0,-1,811,694,-29.0896,-0.563671
-406,330,-1.65375,-1.74371,0,0,0,0,0,0,0,-1,818,694,-1.65375,1.74371
-399,330,0,0,0,0,0,0,0,0,0,-1,825,694,0,0
-392,330,0,0,0,0,0,0,0,0,0,-1,832,694,0,0
-385,330,0,0,0,0,0,0,0,0,0,-1,839,694,0,0
-378,330,0,0,0,0,0,0,0,0,0,-1,846,694,0,0
-371,330,0,0,0,0,0,0,0,0,0,-1,853,694,0,0
-364,330,0,0,0,0,0,0,0,0,0,-1,860,694,0,0
-357,330,0,0,0,0,0,0,0,0,0,-1,867,694,0,0
-350,330,0,0,0,0,0,0,0,0,0,-1,874,694,0,0
-343,330,0,0,0,0,0,0,0,0,0,-1,881,694,0,0
-336,330,0,0,0,0,0,0,0,0,0,-1,888,694,0,0
-329,330,0,0,0,0,0,0,0,0,0,-1,895,694,0,0
-322,330,0,0,0,0,0,0,0,0,0,-1,902,694,0,0
-315,330,0,0,0,0,0,0,0,0,0,-1,909,694,0,0
-308,330,0,0,0,0,0,0,0,0,0,-1,916,694,0,0
-301,330,0,0,0,0,0,0,0,0,0,-1,923,694,0,0
-294,330,0,0,0,0,0,0,0,0,0,-1,930,694,0,0
-287,330,0,0,0,0,0,0,0,0,0,-1,937,694,0,0
-280,330,0,0,0,0,0,0,0,0,0,-1,944,694,0,0
-273,330,0,0,0,0,0,0,0,0,0,-1,951,694,0,0
-266,330,0,0,0,0,0,0,0,0,0,-1,958,694,0,0
-259,330,0,0,0,0,0,0,0,0,0,-1,965,694,0,0
-252,330,0,0,0,0,0,0,0,0,0,-1,972,694,0,0
-245,330,0,0,0,0,0,0,0,0,0,-1,979,694,0,0
-238,330,0,0,0,0,0,0,0,0,0,-1,986,694,0,0
-231,330,0,0,0,0,0,0,0,0,0,-1,993,694,0,0
-224,330,0,0,0,0,0,0,0,0,0,-1,1000,694,0,0
-217,330,0,0,0,0,0,0,0,0,0,-1,1007,694,0,0
-210,330,0,0,0,0,0,0,0,0,0,-1,1014,694,0,0
-203,330,0,0,0,0,0,0,0,0,0,-1,1021,694,0,0
-196,330,0,0,0,0,0,0,0,0,0,-1,1028,694,0,0
-189,330,0,0,0,0,0,0,0,0,0,-1,1035,694,0,0
-182,330,0,0,0,0,0,0,0,0,0,-1,1042,694,0,0
-175,330,0,0,0,0,0,0,0,0,0,-1,1049,694,0,0
-168,330,0,0,0,0,0,0,0,0,0,-1,1056,694,0,0
-161,330,0,0,0,0,0,0,0,0,0,-1,1063,694,0,0
-154,330,0,0,0,0,0,0,0,0,0,-1,1070,694,0,0
-147,330,0,0,0,0,0,0,0,0,0,-1,1077,694,0,0
-140,330,0,0,0,0,0,0,0,0,0,-1,1084,694,0,0
-133,330,0,0,0,0,0,0,0,0,0,-1,1091,694,0,0
-126,330,0,0,0,0,0,0,0,0,0,-1,1098,694,0,0
-119,330,0,0,0,0,0,0,0,0,0,-1,1105,694,0,0
-112,330,0,0,0,0,0,0,0,0,0,-1,1112,694,0,0
-105,330,0,0,0,0,0,0,0,0,0,-1,1119,694,0,0
-98,330,0,0,0,0,0,0,0,0,0,-1,1126,694,0,0
-91,330,0,0,0,0,0,0,0,0,0,-1,1133,694,0,0
-84,330,0,0,0,0,0,0,0,0,0,-1,1140,694,0,0
-77,330,0,0,0,0,0,0,0,0,0,-1,1147,694,0,0
-70,330,0,0,0,0,0,0,0,0,0,-1,1154,694,0,0
-63,330,0,0,0,0,0,0,0,0,0,-1,1161,694,0,0
-56,330,0,0,0,0,0,0,0,0,0,-1,1168,694,0,0
-49,330,0,0,0,0,0,0,0,0,0,-1,1175,694,0,0
-42,330,0,0,0,0,0,0,0,0,0,-1,1182,694,0,0
-35,330,0,0,0,0,0,0,0,0,0,-1,1189,694,0,0
-28,330,0,0,0,0,0,0,0,0,0,-1,1196,694,0,0
-21,330,0,0,0,0,0,0,0,0,0,-1,1203,694,0,0
-14,330,0,0,0,0,0,0,0,0,0,-1,1210,694,0,0
-7,330,0,0,0,0,0,0,0,0,0,-1,1217,694,0,0
0,330,0,0,0,0,0,0,0,0,0,-1,1224,694,0,0
7,330,0,0,0,0,0,0,0,0,0,-1,1231,694,0,0
14,330,0,0,0,0,0,0,0,0,0,-1,1238,694,0,0
21,330,0,0,0,0,0,0,0,0,0,-1,1245,694,0,0
28,330,0,0,0,0,0,0,0,0,0,-1,1252,694,0,0
35,330,0,0,0,0,0,0,0,0,0,-1,1259,694,0,0
42,330,0,0,0,0,0,0,0,0,0,-1,1266,694,0,0
49,330,0,0,0,0,0,0,0,0,0,-1,1273,694,0,0
56,330,0,0,0,0,0,0,0,0,0,-1,1280,694,0,0
63,330,0,0,0,0,0,0,0,0,0,-1,1287,694,0,0
70,330,0,0,0,0,0,0,0,0,0,-1,1294,694,0,0
77,330,0,0,0,0,0,0,0,0,0,-1,1301,694,0,0
84,330,0,0,0,0,0,0,0,0,0,-1,1308,694,0,0
91,330,0,0,0,0,0,0,0,0,0,-1,1315,694,0,0
98,330,0,0,0,0,0,0,0,0,0,-1,1322,694,0,0
105,330,0,0,0,0,0,0,0,0,0,-1,1329,694,0,0
112,330,0,0,0,0,0,0,0,0,0,-1,1336,694,0,0
119,330,0,0,0,0,0,0,0,0,0,-1,1343,694,0,0
126,330,0,0,0,0,0,0,0,0,0,-1,1350,694,0,0
133,330,0,0,0,0,0,0,0,0,0,-1,1357,694,0,0
140,330,0,0,0,0,0,0,0,0,0,-1,1364,694,0,0
147,330,0,0,0,0,0,0,0,0,0,-1,1371,694,0,0
154,330,0,0,0,0,0,0,0,0,0,-1,1378,694,0,0
161,330,0,0,0,0,0,0,0,0,0,-1,1385,694,0,0
168,330,0,0,0,0,0,0,0,0,0,-1,1392,694,0,0
175,330,0,0,0,0,0,0,0,0,0,-1,1399,694,0,0
182,330,0,0,0,0,0,0,0,0,0,-1,1406,694,0,0
189,330,0,0,0,0,0,0,0,0,0,-1,1413,694,0,0
196,330,0,0,0,0,0,0,0,0,0,-1,1420,694,0,0
203,330,0,0,0,0,0,0,0,0,0,-1,1427,694,0,0
210,330,0,0,0,0,0,0,0,0,0,-1,1434,694,0,0
217,330,0,0,0,0,0,0,0,0,0,-1,1441,694,0,0
224,330,0,0,0,0,0,0,0,0,0,-1,1448,694,0,0
231,330,0,0,0,0,0,0,0,0,0,-1,1455,694,0,0
238,330,0,0,0,0,0,0,0,0,0,-1,1462,694,0,0
245,330,0,0,0,0,0,0,0,0,0,-1,1469,694,0,0
252,330,0,0,0,0,0,0,0,0,0,-1,1476,694,0,0
259,330,0,0,0,0,0,0,0,0,0,-1,1483,694,0,0
266,330,0,0,0,0,0,0,0,0,0,-1,1490,694,0,0
273,330,0,0,0,0,0,0,0,0,0,-1,1497,694,0,0
280,330,0,0,0,0,0,0,0,0,0,-1,1504,694,0,0
287,330,0,0,0,0,0,0,0,0,0,-1,1511,694,0,0
294,330,0,0,0,0,0,0,0,0,0,-1,1518,694,0,0
301,330,0,0,0,0,0,0,0,0,0,-1,1525,694,0,0
308,330,0,0,0,0,0,0,0,0,0,-1,1532,694,0,0
315,330,0,0,0,0,0,0,0,0,0,-1,1539,694,0,0
322,330,0,0,0,0,0,0,0,0,0,-1,1546,694,0,0
329,330,0,0,0,0,0,0,0,0,0,-1,1553,694,0,0
336,330,0,0,0,0,0,0,0,0,0,-1,1560,694,0,0
343,330,0,0,0,0,0,0,0,0,0,-1,1567,694,0,0
350,330,0,0,0,0,0,0,0,0,0,-1,1574,694,0,0
357,330,0,0,0,0,0,0,0,0,0,-1,1581,694,0,0
364,330,0,0,0,0,0,0,0,0,0,-1,1588,694,0,0
371,330,0,0,0,0,0,0,0,0,0,-1,1595,694,0,0
378,330,0,0,0,0,0,0,0,0,0,-1,1602,694,0,0
385,330,0,0,0,0,0,0,0,0,0,-1,1609,694,0,0
392,330,0,0,0,0,0,0,0,0,0,-1,1616,694,0,0
399,330,0,0,0,0,0,0,0,0,0,-1,1623,694,0,0
406,330,0,0,0,0,0,0,0,0,0,-1,1630,694,0,0
413,330,0,0,0,0,0,0,0,0,0,-1,1637,694,0,0
420,330,0,0,0,0,0,0,0,0,0,-1,1644,694,0,0
427,330,0,0,0,0,0,0,0,0,0,-1,1651,694,0,0
434,330,0,0,0,0,0,0,0,0,0,-1,1658,694,0,0
441,330,0,0,0,0,0,0,0,0,0,-1,1665,694,0,0
448,330,0,0,0,0,0,0,0,0,0,-1,1672,694,0,0
455,330,0,0,0,0,0,0,0,0,0,-1,1679,694,0,0
462,330,0,0,0,0,0,0,0,0,0,-1,1686,694,0,0
469,330,0,0,0,0,0,0,0,0,0,-1,1693,694,0,0
476,330,0,0,0,0,0,0,0,0,0,-1,1700,694,0,0
483,330,0,0,0,0,0,0,0,0,0,-1,1707,694,0,0
490,330,0,0,0,0,0,0,0,0,0,-1,1714,694,0,0
497,330,0,0,0,0,0,0,0,0,0,-1,1721,694,0,0
504,330,0,0,0,0,0,0,0,0,0,-1,1728,694,0,0
511,330,0,0,0,0,0,0,0,0,0,-1,1735,694,0,0
518,330,0,0,0,0,0,0,0,0,0,-1,1742,694,0,0
525,330,30.6694,0.69519,0,0,0,0,0,0,0,-1,1749,694,30.6694,-0.695206
532,330,30.9469,1.32501,0,0,0,0,0,0,0,-1,1756,694,30.9469,-1.32501
539,330,31.5155,1.62506,0,0,0,0,0,0,0,-1,1763,694,31.5155,-1.62507
546,330,31.4187,1.85651,0,0,0,0,0,0,0,-1,1770,694,31.4187,-1.85651
553,330,31.8452,1.81476,0,0,0,0,0,0,0,-1,1777,694,31.8452,-1.81475
560,330,32.2401,2.43225,0,0,0,0,0,0,0,-1,1784,694,32.2401,-2.43227
567,330,18.0321,3.98578,0,0,0,0,0,0,0,-1,1791,694,18.0321,-3.98576
574,330,12.0454,2.1662,0,0,0,0,0,0,0,-1,1798,694,12.0455,-2.16618
581,330,11.4215,4.50836,0,0,0,0,0,0,0,-1,1805,694,11.4215,-4.50837
588,330,6.45667,-0.0630493,0,0,0,0,0,0,0,-1,1812,694,6.45661,0.0630695
595,330,8.23193,-0.258484,0,0,0,0,0,0,0,-1,1819,694,8.23188,0.258459
602,330,35.2404,-10.1074,0,0,0,0,0,0,0,-1,1826,694,35.2404,10.1073
609,330,35.3425,-9.18756,0.0020071,-0.000271072,2.88713e-05,0.00200747,-0.000271437,0.0126703,0.00143736,0.0290044,1833,694,35.3425,9.18754
616,330,35.3512,-8.38422,0.00181701,-0.000271441,0.00022422,0.00184081,-0.000295243,0.105756,0.00133653,0.0113929,1840,694,35.3512,8.38419
623,330,35.3057,-7.61066,0.00155416,-8.78968e-05,0.000313197,0.00161187,-0.000145606,0.182215,0.00112625,0.0139768,1847,694,35.3057,7.61063
630,330,35.2705,-6.81055,0.00142085,0.000183885,0.00048964,0.00159121,1.35274e-05,0.334824,0.00105632,0.0147882,1854,694,35.2705,6.81057
637,330,35.2513,-6.01007,0.00135425,0.000539486,0.000678384,0.00173818,0.000155564,0.514997,0.00111057,0.0132624,1861,694,35.2513,6.01005
644,330,35.1898,-5.20087,0.00134811,0.000981787,0.000897469,0.00208091,0.000248978,0.684738,0.00131218,0.00869114,1868,694,35.1899,5.20088
651,330,35.1364,-4.37585,0.00141635,0.00152914,0.00115737,0.00263149,0.000314001,0.809743,0.00165959,0.011682,1875,694,35.1364,4.37587
658,330,35.0834,-3.58698,0.00157383,0.00218275,0.00145396,0.00336378,0.000392793,0.888607,0.00212373,0.0123497,1882,694,35.0834,3.58698
665,330,35.0465,-2.802,0.00198095,0.00297343,0.00186034,0.00440258,0.000551802,0.915737,0.0027695,0.0121044,1889,694,35.0465,2.80203
672,330,35.1069,-1.96802,0.00259857,0.00393557,0.00226629,0.0056299,0.000904236,0.928818,0.00349111,0.034593,1896,694,35.1069,1.96799
679,330,35.256,-1.05658,0,0,0,0,0,0,0,-1,1903,694,35.256,1.05657
686,330,30.6691,0.582825,0,0,0,0,0,0,0,-1,1910,694,30.6691,-0.582798
693,330,17.3999,2.5976,0,0,0,0,0,0,0,-1,1917,694,17.4,-2.59759
700,330,17.1072,4.13,0,0,0,0,0,0,0,-1,1924,694,17.1071,-4.13002
707,330,16.663,4.88672,0,0,0,0,0,0,0,-1,1931,694,16.6629,-4.88673
714,330,16.5454,5.80896,0,0,0,0,0,0,0,-1,1938,694,16.5454,-5.80899
721,330,0,0,0,0,0,0,0,0,0,-1,1945,694,0,0
728,330,0,0,0,0,0,0,0,0,0,-1,1952,694,0,0
735,330,0,0,0,0,0,0,0,0,0,-1,1959,694,0,0
742,330,0,0,0,0,0,0,0,0,0,-1,1966,694,0,0
749,330,0,0,0,0,0,0,0,0,0,-1,1973,694,0,0
756,330,0,0,0,0,0,0,0,0,0,-1,1980,694,0,0
763,330,0,0,0,0,0,0,0,0,0,-1,1987,694,0,0
770,330,0,0,0,0,0,0,0,0,0,-1,1994,694,0,0
777,330,0,0,0,0,0,0,0,0,0,-1,2001,694,0,0
784,330,0,0,0,0,0,0,0,0,0,-1,2008,694,0,0
791,330,0,0,0,0,0,0,0,0,0,-1,2015,694,0,0
798,330,0,0,0,0,0,0,0,0,0,-1,2022,694,0,0
805,330,0,0,0,0,0,0,0,0,0,-1,2029,694,0,0
812,330,0,0,0,0,0,0,0,0,0,-1,2036,694,0,0
-700,323,0,0,0,0,0,0,0,0,0,-1,524,701,0,0
-693,323,0,0,0,0,0,0,0,0,0,-1,531,701,0,0
-686,323,0,0,0,0,0,0,0,0,0,-1,538,701,0,0
-679,323,0,0,0,0,0,0,0,0,0,-1,545,701,0,0
-672,323,0,0,0,0,0,0,0,0,0,-1,552,701,0,0
-665,323,0,0,0,0,0,0,0,0,0,-1,559,701,0,0
-658,323,0,0,0,0,0,0,0,0,0,-1,566,701,0,0
-651,323,0,0,0,0,0,0,0,0,0,-1,573,701,0,0
-644,323,0,0,0,0,0,0,0,0,0,-1,580,701,0,0
-637,323,0,0,0,0,0,0,0,0,0,-1,587,701,0,0
-630,323,0,0,0,0,0,0,0,0,0,-1,594,701,0,0
-623,323,0,0,0,0,0,0,0,0,0,-1,601,701,0,0
-616,323,0,0,0,0,0,0,0,0,0,-1,608,701,0,0
-609,323,0,0,0,0,0,0,0,0,0,-1,615,701,0,0
-602,323,-4.15833,2.12256,0,0,0,0,0,0,0,-1,622,701,-4.1583,-2.12257
-595,323,-4.052,1.79156,0,0,0,0,0,0,0,-1,629,701,-4.05198,-1.79158
-588,323,-4.07019,1.94543,0,0,0,0,0,0,0,-1,636,701,-4.07019,-1.94542
-581,323,-6.63727,0.562805,0,0,0,0,0,0,0,-1,643,701,-6.63728,-0.56279
-574,323,-6.15887,0.426697,0,0,0,0,0,0,0,-1,650,701,-6.15887,-0.426727
-567,323,-10.0015,0.0371094,0,0,0,0,0,0,0,-1,657,701,-10.0015,-0.037126
-560,323,-16.3503,-1.16956,0,0,0,0,0,0,0,-1,664,701,-16.3503,1.16957
-553,323,-22.0451,-2.65546,0,0,0,0,0,0,0,-1,671,701,-22.0451,2.65547
-546,323,-22.0211,-3.30597,0.00530683,0.0048044,-0.000617585,0.00572234,0.00438889,-0.592233,0.00345722,0.0354543,678,701,-22.0211,3.30595
-539,323,-22.0081,-4.00378,0.00463676,0.00349957,-0.000622181,0.00491102,0.00322531,-0.415186,0.00288145,0.0268373,685,701,-22.008,4.0038
-532,323,-22.0768,-4.84851,0.00392136,0.00237441,-0.000550671,0.00409736,0.00219841,-0.309348,0.00236772,0.0129638,692,701,-22.0768,4.84853
-525,323,-22.1147,-5.66467,0.00321495,0.00139601,-0.000378349,0.00329051,0.00132045,-0.197116,0.00191208,0.00867558,699,701,-22.1147,5.66467
-518,323,-22.1458,-6.41003,0.00260284,0.000583566,-0.000162545,0.00261584,0.000570565,-0.079812,0.00158824,0.0106572,706,701,-22.1457,6.41003
-511,323,-22.2083,-7.18536,0.00206206,-4.6745e-05,5.63884e-05,0.00206357,-4.82516e-05,0.026714,0.00139208,0.0150164,713,701,-22.2083,7.18537
-504,323,-22.2682,-7.9707,0.00155323,-0.000537946,0.000325505,0.00160272,-0.000587441,0.150902,0.001309,0.0161684,720,701,-22.2682,7.97072
-497,323,-22.2827,-8.73547,0.00119681,-0.000867347,0.000555105,0.00133662,-0.00100716,0.246735,0.00135763,0.012705,727,701,-22.2827,8.73548
-490,323,-22.2988,-9.50574,0.0011312,-0.00101731,0.000799462,0.00139603,-0.00128215,0.31989,0.00154672,0.0138258,734,701,-22.2988,9.50573
-483,323,-22.3249,-10.2588,0.00123061,-0.000920619,0.000951534,0.00159108,-0.0012811,0.362133,0.00166147,0.0311945,741,701,-22.3249,10.2588
-476,323,-22.3173,-11.0496,0,0,0,0,0,0,0,-1,748,701,-22.3173,11.0496
-469,323,-8.33301,-3.64001,0,0,0,0,0,0,0,-1,755,701,-8.33298,3.64
-462,323,-5.29431,-1.45697,0,0,0,0,0,0,0,-1,762,701,-5.29431,1.45699
-455,323,-5.0658,-1.36639,0,0,0,0,0,0,0,-1,769,701,-5.06578,1.3664
-448,323,-4.91608,-1.59601,0,0,0,0,0,0,0,-1,776,701,-4.91606,1.59604
-441,323,-14.4006,0.535217,0,0,0,0,0,0,0,-1,783,701,-14.4006,-0.535203
-434,323,-15.3158,2.479,0,0,0,0,0,0,0,-1,790,701,-15.3158,-2.47898
-427,323,-28.3923,1.16797,0,0,0,0,0,0,0,-1,797,701,-28.3923,-1.16796
-420,323,-28.7292,1.09302,0,0,0,0,0,0,0,-1,804,701,-28.7292,-1.09304
-413,323,-28.7955,1.22418,0,0,0,0,0,0,0,-1,811,701,-28.7956,-1.22419
-406,323,0,0,0,0,0,0,0,0,0,-1,818,701,0,0
-399,323,0,0,0,0,0,0,0,0,0,-1,825,701,0,0
-392,323,0,0,0,0,0,0,0,0,0,-1,832,701,0,0
-385,323,0,0,0,0,0,0,0,0,0,-1,839,701,0,0
-378,323,0,0,0,0,0,0,0,0,0,-1,846,701,0,0
-371,323,0,0,0,0,0,0,0,0,0,-1,853,701,0,0
-364,323,0,0,0,0,0,0,0,0,0,-1,860,701,0,0
-357,323,0,0,0,0,0,0,0,0,0,-1,867,701,0,0
-350,323,0,0,0,0,0,0,0,0,0,-1,874,701,0,0
-343,323,0,0,0,0,0,0,0,0,0,-1,881,701,0,0
-336,323,0,0,0,0,0,0,0,0,0,-1,888,701,0,0
-329,323,0,0,0,0,0,0,0,0,0,-1,895,701,0,0
-322,323,0,0,0,0,0,0,0,0,0,-1,902,701,0,0
-315,323,0,0,0,0,0,0,0,0,0,-1,909,701,0,0
-308,323,0,0,0,0,0,0,0,0,0,-1,916,701,0,0
-301,323,0,0,0,0,0,0,0,0,0,-1,923,701,0,0
-294,323,0,0,0,0,0,0,0,0,0,-1,930,701,0,0
-287,323,0,0,0,0,0,0,0,0,0,-1,937,701,0,0
-280,323,0,0,0,0,0,0,0,0,0,-1,944,701,0,0
-273,323,0,0,0,0,0,0,0,0,0,-1,951,701,0,0
-266,323,0,0,0,0,0,0,0,0,0,-1,958,701,0,0
-259,323,0,0,0,0,0,0,0,0,0,-1,965,701,0,0
-252,323,0,0,0,0,0,0,0,0,0,-1,972,701,0,0
-245,323,0,0,0,0,0,0,0,0,0,-1,979,701,0,0
-238,323,0,0,0,0,0,0,0,0,0,-1,986,701,0,0
-231,323,0,0,0,0,0,0,0,0,0,-1,993,701,0,0
-224,323,0,0,0,0,0,0,0,0,0,-1,1000,701,0,0
-217,323,0,0,0,0,0,0,0,0,0,-1,1007,701,0,0
-210,323,0,0,0,0,0,0,0,0,0,-1,1014,701,0,0
-203,323,0,0,0,0,0,0,0,0,0,-1,1021,701,0,0
-196,323,0,0,0,0,0,0,0,0,0,-1,1028,701,0,0
-189,323,0,0,0,0,0,0,0,0,0,-1,1035,701,0,0
-182,323,0,0,0,0,0,0,0,0,0,-1,1042,701,0,0
-175,323,0,0,0,0,0,0,0,0,0,-1,1049,701,0,0
-168,323,0,0,0,0,0,0,0,0,0,-1,1056,701,0,0
-161,323,0,0,0,0,0,0,0,0,0,-1,1063,701,0,0
-154,323,0,0,0,0,0,0,0,0,0,-1,1070,701,0,0
-147,323,0,0,0,0,0,0,0,0,0,-1,1077,701,0,0
-140,323,0,0,0,0,0,0,0,0,0,-1,1084,701,0,0
-133,323,0,0,0,0,0,0,0,0,0,-1,1091,701,0,0
-126,323,0,0,0,0,0,0,0,0,0,-1,1098,701,0,0
-119,323,0,0,0,0,0,0,0,0,0,-1,1105,701,0,0
-112,323,0,0,0,0,0,0,0,0,0,-1,1112,701,0,0
-105,323,0,0,0,0,0,0,0,0,0,-1,1119,701,0,0
-98,323,0,0,0,0,0,0,0,0,0,-1,1126,701,0,0
-91,323,0,0,0,0,0,0,0,0,0,-1,1133,701,0,0
-84,323,0,0,0,0,0,0,0,0,0,-1,1140,701,0,0
-77,323,0,0,0,0,0,0,0,0,0,-1,1147,701,0,0
-70,323,0,0,0,0,0,0,0,0,0,-1,1154,701,0,0
-63,323,0,0,0,0,0,0,0,0,0,-1,1161,701,0,0
-56,323,0,0,0,0,0,0,0,0,0,-1,1168,701,0,0
-49,323,0,0,0,0,0,0,0,0,0,-1,1175,701,0,0
-42,323,0,0,0,0,0,0,0,0,0,-1,1182,701,0,0
-35,323,0,0,0,0,0,0,0,0,0,-1,1189,701,0,0
-28,323,0,0,0,0,0,0,0,0,0,-1,1196,701,0,0
-21,323,0,0,0,0,0,0,0,0,0,-1,1203,701,0,0
-14,323,0,0,0,0,0,0,0,0,0,-1,1210,701,0,0
-7,323,0,0,0,0,0,0,0,0,0,-1,1217,701,0,0
0,323,0,0,0,0,0,0,0,0,0,-1,1224,701,0,0
7,323,0,0,0,0,0,0,0,0,0,-1,1231,701,0,0
14,323,0,0,0,0,0,0,0,0,0,-1,1238,701,0,0
21,323,0,0,0,0,0,0,0,0,0,-1,1245,701,0,0
28,323,0,0,0,0,0,0,0,0,0,-1,1252,701,0,0
35,323,0,0,0,0,0,0,0,0,0,-1,1259,701,0,0
42,323,0,0,0,0,0,0,0,0,0,-1,1266,701,0,0
49,323,0,0,0,0,0,0,0,0,0,-1,1273,701,0,0
56,323,0,0,0,0,0,0,0,0,0,-1,1280,701,0,0
63,323,0,0,0,0,0,0,0,0,0,-1,1287,701,0,0
70,323,0,0,0,0,0,0,0,0,0,-1,1294,701,0,0
77,323,0,0,0,0,0,0,0,0,0,-1,1301,701,0,0
84,323,0,0,0,0,0,0,0,0,0,-1,1308,701,0,0
91,323,0,0,0,0,0,0,0,0,0,-1,1315,701,0,0
98,323,0,0,0,0,0,0,0,0,0,-1,1322,701,0,0
105,323,0,0,0,0,0,0,0,0,0,-1,1329,701,0,0
112,323,0,0,0,0,0,0,0,0,0,-1,1336,701,0,0
119,323,0,0,0,0,0,0,0,0,0,-1,1343,701,0,0
126,323,0,0,0,0,0,0,0,0,0,-1,1350,701,0,0
133,323,0,0,0,0,0,0,0,0,0,-1,1357,701,0,0
140,323,0,0,0,0,0,0,0,0,0,-1,1364,701,0,0
147,323,0,0,0,0,0,0,0,0,0,-1,1371,701,0,0
154,323,0,0,0,0,0,0,0,0,0,-1,1378,701,0,0
161,323,0,0,0,0,0,0,0,0,0,-1,1385,701,0,0
168,323,0,0,0,0,0,0,0,0,0,-1,1392,701,0,0
175,323,0,0,0,0,0,0,0,0,0,-1,1399,701,0,0
182,323,0,0,0,0,0,0,0,0,0,-1,1406,701,0,0
189,323,0,0,0,0,0,0,0,0,0,-1,1413,701,0,0
196,323,0,0,0,0,0,0,0,0,0,-1,1420,701,0,0
203,323,0,0,0,0,0,0,0,0,0,-1,1427,701,0,0
210,323,0,0,0,0,0,0,0,0,0,-1,1434,701,0,0
217,323,0,0,0,0,0,0,0,0,0,-1,1441,701,0,0
224,323,0,0,0,0,0,0,0,0,0,-1,1448,701,0,0
231,323,0,0,0,0,0,0,0,0,0,-1,1455,701,0,0
238,323,0,0,0,0,0,0,0,0,0,-1,1462,701,0,0
245,323,0,0,0,0,0,0,0,0,0,-1,1469,701,0,0
252,323,0,0,0,0,0,0,0,0,0,-1,1476,701,0,0
259,323,0,0,0,0,0,0,0,0,0,-1,1483,701,0,0
266,323,0,0,0,0,0,0,0,0,0,-1,1490,701,0,0
273,323,0,0,0,0,0,0,0,0,0,-1,1497,701,0,0
280,323,0,0,0,0,0,0,0,0,0,-1,1504,701,0,0
287,323,0,0,0,0,0,0,0,0,0,-1,1511,701,0,0
294,323,0,0,0,0,0,0,0,0,0,-1,1518,701,0,0
301,323,0,0,0,0,0,0,0,0,0,-1,1525,701,0,0
308,323,0,0,0,0,0,0,0,0,0,-1,1532,701,0,0
315,323,0,0,0,0,0,0,0,0,0,-1,1539,701,0,0
322,323,0,0,0,0,0,0,0,0,0,-1,1546,701,0,0
329,323,0,0,0,0,0,0,0,0,0,-1,1553,701,0,0
336,323,0,0,0,0,0,0,0,0,0,-1,1560,701,0,0
343,323,0,0,0,0,0,0,0,0,0,-1,1567,701,0,0
350,323,0,0,0,0,0,0,0,0,0,-1,1574,701,0,0
357,323,0,0,0,0,0,0,0,0,0,-1,1581,701,0,0
364,323,0,0,0,0,0,0,0,0,0,-1,1588,701,0,0
371,323,0,0,0,0,0,0,0,0,0,-1,1595,701,0,0
378,323,0,0,0,0,0,0,0,0,0,-1,1602,701,0,0
385,323,0,0,0,0,0,0,0,0,0,-1,1609,701,0,0
392,323,0,0,0,0,0,0,0,0,0,-1,1616,701,0,0
399,323,0,0,0,0,0,0,0,0,0,-1,1623,701,0,0
406,323,0,0,0,0,0,0,0,0,0,-1,1630,701,0,0
413,323,0,0,0,0,0,0,0,0,0,-1,1637,701,0,0
420,323,0,0,0,0,0,0,0,0,0,-1,1644,701,0,0
427,323,0,0,0,0,0,0,0,0,0,-1,1651,701,0,0
434,323,0,0,0,0,0,0,0,0,0,-1,1658,701,0,0
441,323,0,0,0,0,0,0,0,0,0,-1,1665,701,0,0
448,323,0,0,0,0,0,0,0,0,0,-1,1672,701,0,0
455,323,0,0,0,0,0,0,0,0,0,-1,1679,701,0,0
462,323,0,0,0,0,0,0,0,0,0,-1,1686,701,0,0
469,323,0,0,0,0,0,0,0,0,0,-1,1693,701,0,0
476,323,0,0,0,0,0,0,0,0,0,-1,1700,701,0,0
483,323,0,0,0,0,0,0,0,0,0,-1,1707,701,0,0
490,323,0,0,0,0,0,0,0,0,0,-1,1714,701,0,0
497,323,0,0,0,0,0,0,0,0,0,-1,1721,701,0,0
504,323,0,0,0,0,0,0,0,0,0,-1,1728,701,0,0
511,323,0,0,0,0,0,0,0,0,0,-1,1735,701,0,0
518,323,0,0,0,0,0,0,0,0,0,-1,1742,701,0,0
525,323,0,0,0,0,0,0,0,0,0,-1,1749,701,0,0
532,323,33.6193,1.69446,0,0,0,0,0,0,0,-1,1756,701,33.6193,-1.69444
539,323,32.2698,2.44037,0,0,0,0,0,0,0,-1,1763,701,32.2697,-2.44036
546,323,31.1644,3.9444,0,0,0,0,0,0,0,-1,1770,701,31.1644,-3.94438
553,323,30.2488,5.8775,0,0,0,0,0,0,0,-1,1777,701,30.2487,-5.87752
560,323,40.6711,1.25153,0,0,0,0,0,0,0,-1,1784,701,40.6711,-1.25154
567,323,42.1637,2.01208,0,0,0,0,0,0,0,-1,1791,701,42.1637,-2.01207
574,323,12.514,5.89685,0,0,0,0,0,0,0,-1,1798,701,12.5141,-5.89683
581,323,11.821,5.3476,0,0,0,0,0,0,0,-1,1805,701,11.821,-5.34762
588,323,11.7933,7.00818,0,0,0,0,0,0,0,-1,1812,701,11.7933,-7.00819
595,323,6.67847,0.06604,0,0,0,0,0,0,0,-1,1819,701,6.67841,-0.0660418
602,323,35.75,-10.0229,0,0,0,0,0,0,0,-1,1826,701,35.75,10.0229
609,323,36.0254,-9.14844,0.0025484,-0.000112516,0.000375376,0.00260034,-0.000164456,0.137496,0.0017909,0.0426281,1833,701,36.0254,9.14841
616,323,36.1503,-8.33203,0.00218171,-0.000229757,0.000489778,0.00227739,-0.000325436,0.192923,0.00163755,0.0130037,1840,701,36.1502,8.33205
623,323,36.1133,-7.54187,0.00175237,-0.000109243,0.000466884,0.0018629,-0.000219772,0.232459,0.0013213,0.0139443,1847,701,36.1133,7.54186
630,323,36.0608,-6.72943,0.00152928,8.29057e-05,0.000554555,0.00171743,-0.000105242,0.32709,0.00118159,0.0155024,1854,701,36.0607,6.72944
637,323,36.0294,-5.94061,0.00139621,0.000381633,0.000679097,0.00173657,4.1269e-05,0.464608,0.00114421,0.0120088,1861,701,36.0294,5.94064
644,323,35.9877,-5.16809,0.00134971,0.000774253,0.000846843,0.00195637,0.000167595,0.621632,0.00125213,0.00876665,1868,701,35.9876,5.16811
651,323,35.9602,-4.3476,0.00138746,0.00126975,0.00105733,0.00238758,0.000269634,0.757594,0.00150989,0.0114729,1875,701,35.9603,4.34759
658,323,35.8685,-3.52435,0.00150352,0.001886,0.00130409,0.0030128,0.000376719,0.858201,0.00189548,0.0178921,1882,701,35.8686,3.52436
665,323,35.8099,-2.74658,0.00181256,0.00263069,0.00164175,0.00391357,0.000529684,0.907494,0.00245163,0.0151759,1889,701,35.81,2.74655
672,323,35.8314,-1.90088,0.00228166,0.00353958,0.00200575,0.00501267,0.000808568,0.937332,0.00310752,0.0205829,1896,701,35.8314,1.90089
679,323,35.8781,-0.940369,0,0,0,0,0,0,0,-1,1903,701,35.8781,0.940349
686,323,30.4916,0.378235,0,0,0,0,0,0,0,-1,1910,701,30.4916,-0.37825
693,323,23.8806,1.08844,0,0,0,0,0,0,0,-1,1917,701,23.8806,-1.08845
700,323,10.7705,0.828613,0,0,0,0,0,0,0,-1,1924,701,10.7705,-0.828591
707,323,16.9005,4.79193,0,0,0,0,0,0,0,-1,1931,701,16.9005,-4.7919
714,323,16.2346,6.25958,0,0,0,0,0,0,0,-1,1938,701,16.2346,-6.25956
721,323,0,0,0,0,0,0,0,0,0,-1,1945,701,0,0
728,323,0,0,0,0,0,0,0,0,0,-1,1952,701,0,0
735,323,0,0,0,0,0,0,0,0,0,-1,1959,701,0,0
742,323,0,0,0,0,0,0,0,0,0,-1,1966,701,0,0
749,323,0,0,0,0,0,0,0,0,0,-1,1973,701,0,0
756,323,0,0,0,0,0,0,0,0,0,-1,1980,701,0,0
763,323,0,0,0,0,0,0,0,0,0,-1,1987,701,0,0
770,323,0,0,0,0,0,0,0,0,0,-1,1994,701,0,0
777,323,0,0,0,0,0,0,0,0,0,-1,2001,701,0,0
784,323,0,0,0,0,0,0,0,0,0,-1,2008,701,0,0
791,323,0,0,0,0,0,0,0,0,0,-1,2015,701,0,0
798,323,0,0,0,0,0,0,0,0,0,-1,2022,701,0,0
805,323,0,0,0,0,0,0,0,0,0,-1,2029,701,0,0
812,323,0,0,0,0,0,0,0,0,0,-1,2036,701,0,0
-700,316,0,0,0,0,0,0,0,0,0,-1,524,708,0,0
-693,316,0,0,0,0,0,0,0,0,0,-1,531,708,0,0
-686,316,0,0,0,0,0,0,0,0,0,-1,538,708,0,0
-679,316,0,0,0,0,0,0,0,0,0,-1,545,708,0,0
-672,316,0,0,0,0,0,0,0,0,0,-1,552,708,0,0
-665,316,0,0,0,0,0,0,0,0,0,-1,559,708,0,0
-658,316,0,0,0,0,0,0,0,0,0,-1,566,708,0,0
-651,316,0,0,0,0,0,0,0,0,0,-1,573,708,0,0
-644,316,0,0,0,0,0,0,0,0,0,-1,580,708,0,0
-637,316,0,0,0,0,0,0,0,0,0,-1,587,708,0,0
-630,316,0,0,0,0,0,0,0,0,0,-1,594,708,0,0
-623,316,0,0,0,0,0,0,0,0,0,-1,601,708,0,0
-616,316,0,0,0,0,0,0,0,0,0,-1,608,708,0,0
-609,316,0,0,0,0,0,0,0,0,0,-1,615,708,0,0
-602,316,-0.451782,-0.0494995,0,0,0,0,0,0,0,-1,622,708,-0.451768,0.0495022
-595,316,-3.3761,2.17188,0,0,0,0,0,0,0,-1,629,708,-3.37609,-2.17189
-588,316,-5.00177,2.60675,0,0,0,0,0,0,0,-1,636,708,-5.00175,-2.60676
-581,316,-3.94653,0.393433,0,0,0,0,0,0,0,-1,643,708,-3.94655,-0.39342
-574,316,-9.67395,1.06067,0,0,0,0,0,0,0,-1,650,708,-9.67396,-1.06065
-567,316,-10.1962,0.448425,0,0,0,0,0,0,0,-1,657,708,-10.1962,-0.448411
-560,316,-18.9941,-1.75067,0,0,0,0,0,0,0,-1,664,708,-18.9941,1.75068
-553,316,-23.0781,-2.60736,0,0,0,0,0,0,0,-1,671,708,-23.0781,2.60734
-546,316,-22.955,-3.29852,0.00402426,0.004448,-0.000676098,0.00494465,0.00352761,-0.937238,0.00294021,0.0428519,678,708,-22.955,3.29851
-539,316,-22.7994,-4.04407,0.00368418,0.0031686,-0.000586819,0.00406734,0.00278544,-0.578439,0.00240117,0.0143771,685,708,-22.7994,4.04405
-532,316,-22.8451,-4.81531,0.00319765,0.00203488,-0.000424105,0.0033359,0.00189663,-0.315116,0.00193201,0.0112682,692,708,-22.8451,4.81533
-525,316,-22.8785,-5.58362,0.00263598,0.00101313,-0.000178879,0.00265546,0.00099365,-0.10849,0.00154922,0.010416,699,708,-22.8785,5.58359
-518,316,-22.904,-6.36383,0.00209865,0.000148238,0.000109602,0.00210479,0.000142099,0.0559597,0.00135831,0.0102962,706,708,-22.904,6.36384
-511,316,-22.9724,-7.14307,0.00156051,-0.000577758,0.00041733,0.00163907,-0.000656323,0.186078,0.00136513,0.0112772,713,708,-22.9724,7.14309
-504,316,-23.0186,-7.93097,0.00101315,-0.00119118,0.000782971,0.00126295,-0.00144098,0.308833,0.00156224,0.0154614,720,708,-23.0186,7.93095
-497,316,-23.025,-8.67664,0.000606514,-0.00163376,0.00110002,0.00105633,-0.00208358,0.388169,0.00184488,0.0135609,727,708,-23.025,8.67662
-490,316,-23.0349,-9.43939,0.000584382,-0.00191655,0.0014952,0.00128309,-0.00261526,0.437149,0.0022941,0.0186203,734,708,-23.0349,9.43938
-483,316,-23.0059,-10.2083,0,0,0,0,0,0,0,-1,741,708,-23.0059,10.2083
-476,316,-8.90894,-3.31207,0,0,0,0,0,0,0,-1,748,708,-8.90896,3.31206
-469,316,-6.24194,-1.42725,0,0,0,0,0,0,0,-1,755,708,-6.24192,1.42725
-462,316,-5.74237,-1.40039,0,0,0,0,0,0,0,-1,762,708,-5.74238,1.40039
-455,316,-5.44745,-1.21899,0,0,0,0,0,0,0,-1,769,708,-5.44746,1.21898
-448,316,-14.8945,0.655396,0,0,0,0,0,0,0,-1,776,708,-14.8946,-0.655396
-441,316,-14.9626,0.576111,0,0,0,0,0,0,0,-1,783,708,-14.9626,-0.576115
-434,316,-27.7723,1.15576,0,0,0,0,0,0,0,-1,790,708,-27.7723,-1.15579
-427,316,-28.0504,1.31427,0,0,0,0,0,0,0,-1,797,708,-28.0504,-1.31427
-420,316,-28.198,1.62891,0,0,0,0,0,0,0,-1,804,708,-28.198,-1.62889
-413,316,0,0,0,0,0,0,0,0,0,-1,811,708,0,0
-406,316,0,0,0,0,0,0,0,0,0,-1,818,708,0,0
-399,316,0,0,0,0,0,0,0,0,0,-1,825,708,0,0
-392,316,0,0,0,0,0,0,0,0,0,-1,832,708,0,0
-385,316,0,0,0,0,0,0,0,0,0,-1,839,708,0,0
-378,316,0,0,0,0,0,0,0,0,0,-1,846,708,0,0
-371,316,0,0,0,0,0,0,0,0,0,-1,853,708,0,0
-364,316,0,0,0,0,0,0,0,0,0,-1,860,708,0,0
-357,316,0,0,0,0,0,0,0,0,0,-1,867,708,0,0
-350,316,0,0,0,0,0,0,0,0,0,-1,874,708,0,0
-343,316,0,0,0,0,0,0,0,0,0,-1,881,708,0,0
-336,316,0,0,0,0,0,0,0,0,0,-1,888,708,0,0
-329,316,0,0,0,0,0,0,0,0,0,-1,895,708,0,0
-322,316,0,0,0,0,0,0,0,0,0,-1,902,708,0,0
-315,316,0,0,0,0,0,0,0,0,0,-1,909,708,0,0
-308,316,0,0,0,0,0,0,0,0,0,-1,916,708,0,0
-301,316,0,0,0,0,0,0,0,0,0,-1,923,708,0,0
-294,316,0,0,0,0,0,0,0,0,0,-1,930,708,0,0
-287,316,0,0,0,0,0,0,0,0,0,-1,937,708,0,0
-280,316,0,0,0,0,0,0,0,0,0,-1,944,708,0,0
-273,316,0,0,0,0,0,0,0,0,0,-1,951,708,0,0
-266,316,0,0,0,0,0,0,0,0,0,-1,958,708,0,0
-259,316,0,0,0,0,0,0,0,0,0,-1,965,708,0,0
-252,316,0,0,0,0,0,0,0,0,0,-1,972,708,0,0
-245,316,0,0,0,0,0,0,0,0,0,-1,979,708,0,0
-238,316,0,0,0,0,0,0,0,0,0,-1,986,708,0,0
-231,316,0,0,0,0,0,0,0,0,0,-1,993,708,0,0
-224,316,0,0,0,0,0,0,0,0,0,-1,1000,708,0,0
-217,316,0,0,0,0,0,0,0,0,0,-1,1007,708,0,0
-210,316,0,0,0,0,0,0,0,0,0,-1,1014,708,0,0
-203,316,0,0,0,0,0,0,0,0,0,-1,1021,708,0,0
-196,316,0,0,0,0,0,0,0,0,0,-1,1028,708,0,0
-189,316,0,0,0,0,0,0,0,0,0,-1,1035,708,0,0
-182,316,0,0,0,0,0,0,0,0,0,-1,1042,708,0,0
-175,316,0,0,0,0,0,0,0,0,0,-1,1049,708,0,0
-168,316,0,0,0,0,0,0,0,0,0,-1,1056,708,0,0
-161,316,0,0,0,0,0,0,0,0,0,-1,1063,708,0,0
-154,316,0,0,0,0,0,0,0,0,0,-1,1070,708,0,0
-147,316,0,0,0,0,0,0,0,0,0,-1,1077,708,0,0
-140,316,0,0,0,0,0,0,0,0,0,-1,1084,708,0,0
-133,316,0,0,0,0,0,0,0,0,0,-1,1091,708,0,0
-126,316,0,0,0,0,0,0,0,0,0,-1,1098,708,0,0
-119,316,0,0,0,0,0,0,0,0,0,-1,1105,708,0,0
-112,316,0,0,0,0,0,0,0,0,0,-1,1112,708,0,0
-105,316,0,0,0,0,0,0,0,0,0,-1,1119,708,0,0
-98,316,0,0,0,0,0,0,0,0,0,-1,1126,708,0,0
-91,316,0,0,0,0,0,0,0,0,0,-1,1133,708,0,0
-84,316,0,0,0,0,0,0,0,0,0,-1,1140,708,0,0
-77,316,0,0,0,0,0,0,0,0,0,-1,1147,708,0,0
-70,316,0,0,0,0,0,0,0,0,0,-1,1154,708,0,0
-63,316,0,0,0,0,0,0,0,0,0,-1,1161,708,0,0
-56,316,0,0,0,0,0,0,0,0,0,-1,1168,708,0,0
-49,316,0,0,0,0,0,0,0,0,0,-1,1175,708,0,0
-42,316,0,0,0,0,0,0,0,0,0,-1,1182,708,0,0
-35,316,0,0,0,0,0,0,0,0,0,-1,1189,708,0,0
-28,316,0,0,0,0,0,0,0,0,0,-1,1196,708,0,0
-21,316,0,0,0,0,0,0,0,0,0,-1,1203,708,0,0
-14,316,0,0,0,0,0,0,0,0,0,-1,1210,708,0,0
-7,316,0,0,0,0,0,0,0,0,0,-1,1217,708,0,0
0,316,0,0,0,0,0,0,0,0,0,-1,1224,708,0,0
7,316,0,0,0,0,0,0,0,0,0,-1,1231,708,0,0
14,316,0,0,0,0,0,0,0,0,0,-1,1238,708,0,0
21,316,0,0,0,0,0,0,0,0,0,-1,1245,708,0,0
28,316,0,0,0,0,0,0,0,0,0,-1,1252,708,0,0
35,316,0,0,0,0,0,0,0,0,0,-1,1259,708,0,0
42,316,0,0,0,0,0,0,0,0,0,-1,1266,708,0,0
49,316,0,0,0,0,0,0,0,0,0,-1,1273,708,0,0
56,316,0,0,0,0,0,0,0,0,0,-1,1280,708,0,0
63,316,0,0,0,0,0,0,0,0,0,-1,1287,708,0,0
70,316,0,0,0,0,0,0,0,0,0,-1,1294,708,0,0
77,316,0,0,0,0,0,0,0,0,0,-1,1301,708,0,0
84,316,0,0,0,0,0,0,0,0,0,-1,1308,708,0,0
91,316,0,0,0,0,0,0,0,0,0,-1,1315,708,0,0
98,316,0,0,0,0,0,0,0,0,0,-1,1322,708,0,0
105,316,0,0,0,0,0,0,0,0,0,-1,1329,708,0,0
112,316,0,0,0,0,0,0,0,0,0,-1,1336,708,0,0
119,316,0,0,0,0,0,0,0,0,0,-1,1343,708,0,0
126,316,0,0,0,0,0,0,0,0,0,-1,1350,708,0,0
133,316,0,0,0,0,0,0,0,0,0,-1,1357,708,0,0
140,316,0,0,0,0,0,0,0,0,0,-1,1364,708,0,0
147,316,0,0,0,0,0,0,0,0,0,-1,1371,708,0,0
154,316,0,0,0,0,0,0,0,0,0,-1,1378,708,0,0
161,316,0,0,0,0,0,0,0,0,0,-1,1385,708,0,0
168,316,0,0,0,0,0,0,0,0,0,-1,1392,708,0,0
175,316,0,0,0,0,0,0,0,0,0,-1,1399,708,0,0
182,316,0,0,0,0,0,0,0,0,0,-1,1406,708,0,0
189,316,0,0,0,0,0,0,0,0,0,-1,1413,708,0,0
196,316,0,0,0,0,0,0,0,0,0,-1,1420,708,0,0
203,316,0,0,0,0,0,0,0,0,0,-1,1427,708,0,0
210,316,0,0,0,0,0,0,0,0,0,-1,1434,708,0,0
217,316,0,0,0,0,0,0,0,0,0,-1,1441,708,0,0
224,316,0,0,0,0,0,0,0,0,0,-1,1448,708,0,0
231,316,0,0,0,0,0,0,0,0,0,-1,1455,708,0,0
238,316,0,0,0,0,0,0,0,0,0,-1,1462,708,0,0
245,316,0,0,0,0,0,0,0,0,0,-1,1469,708,0,0
252,316,0,0,0,0,0,0,0,0,0,-1,1476,708,0,0
259,316,0,0,0,0,0,0,0,0,0,-1,1483,708,0,0
266,316,0,0,0,0,0,0,0,0,0,-1,1490,708,0,0
273,316,0,0,0,0,0,0,0,0,0,-1,1497,708,0,0
280,316,0,0,0,0,0,0,0,0,0,-1,1504,708,0,0
287,316,0,0,0,0,0,0,0,0,0,-1,1511,708,0,0
294,316,0,0,0,0,0,0,0,0,0,-1,1518,708,0,0
301,316,0,0,0,0,0,0,0,0,0,-1,1525,708,0,0
308,316,0,0,0,0,0,0,0,0,0,-1,1532,708,0,0
315,316,0,0,0,0,0,0,0,0,0,-1,1539,708,0,0
322,316,0,0,0,0,0,0,0,0,0,-1,1546,708,0,0
329,316,0,0,0,0,0,0,0,0,0,-1,1553,708,0,0
336,316,0,0,0,0,0,0,0,0,0,-1,1560,708,0,0
343,316,0,0,0,0,0,0,0,0,0,-1,1567,708,0,0
350,316,0,0,0,0,0,0,0,0,0,-1,1574,708,0,0
357,316,0,0,0,0,0,0,0,0,0,-1,1581,708,0,0
364,316,0,0,0,0,0,0,0,0,0,-1,1588,708,0,0
371,316,0,0,0,0,0,0,0,0,0,-1,1595,708,0,0
378,316,0,0,0,0,0,0,0,0,0,-1,1602,708,0,0
385,316,0,0,0,0,0,0,0,0,0,-1,1609,708,0,0
392,316,0,0,0,0,0,0,0,0,0,-1,1616,708,0,0
399,316,0,0,0,0,0,0,0,0,0,-1,1623,708,0,0
406,316,0,0,0,0,0,0,0,0,0,-1,1630,708,0,0
413,316,0,0,0,0,0,0,0,0,0,-1,1637,708,0,0
420,316,0,0,0,0,0,0,0,0,0,-1,1644,708,0,0
427,316,0,0,0,0,0,0,0,0,0,-1,1651,708,0,0
434,316,0,0,0,0,0,0,0,0,0,-1,1658,708,0,0
441,316,0,0,0,0,0,0,0,0,0,-1,1665,708,0,0
448,316,0,0,0,0,0,0,0,0,0,-1,1672,708,0,0
455,316,0,0,0,0,0,0,0,0,0,-1,1679,708,0,0
462,316,0,0,0,0,0,0,0,0,0,-1,1686,708,0,0
469,316,0,0,0,0,0,0,0,0,0,-1,1693,708,0,0
476,316,0,0,0,0,0,0,0,0,0,-1,1700,708,0,0
483,316,0,0,0,0,0,0,0,0,0,-1,1707,708,0,0
490,316,0,0,0,0,0,0,0,0,0,-1,1714,708,0,0
497,316,0,0,0,0,0,0,0,0,0,-1,1721,708,0,0
504,316,0,0,0,0,0,0,0,0,0,-1,1728,708,0,0
511,316,0,0,0,0,0,0,0,0,0,-1,1735,708,0,0
518,316,0,0,0,0,0,0,0,0,0,-1,1742,708,0,0
525,316,0,0,0,0,0,0,0,0,0,-1,1749,708,0,0
532,316,33.8604,0.531128,0,0,0,0,0,0,0,-1,1756,708,33.8604,-0.531151
539,316,44.4543,2.73468,0,0,0,0,0,0,0,-1,1763,708,44.4543,-2.7347
546,316,44.713,3.35498,0,0,0,0,0,0,0,-1,1770,708,44.7131,-3.35501
553,316,39.9031,6.57275,0,0,0,0,0,0,0,-1,1777,708,39.9031,-6.57274
560,316,39.1196,1.10046,0,0,0,0,0,0,0,-1,1784,708,39.1197,-1.10048
567,316,47.3683,6.04919,0,0,0,0,0,0,0,-1,1791,708,47.3683,-6.04918
574,316,45.9872,6.7655,0,0,0,0,0,0,0,-1,1798,708,45.9871,-6.76552
581,316,24.6815,7.77496,0,0,0,0,0,0,0,-1,1805,708,24.6815,-7.77499
588,316,19.7659,2.90198,0,0,0,0,0,0,0,-1,1812,708,19.7659,-2.902
595,316,12.5363,1.50702,0,0,0,0,0,0,0,-1,1819,708,12.5363,-1.50701
602,316,7.79919,0.0422363,0,0,0,0,0,0,0,-1,1826,708,7.79923,-0.0422066
609,316,36.7445,-9.08246,0,0,0,0,0,0,0,-1,1833,708,36.7445,9.08248
616,316,36.9347,-8.28394,0.00258325,-0.000177827,0.000753608,0.00277555,-0.000370124,0.249837,0.00198527,0.0145455,1840,708,36.9347,8.28392
623,316,36.9017,-7.48663,0.00198597,-8.27152e-05,0.000641474,0.00216873,-0.000265481,0.277561,0.00154195,0.0116645,1847,708,36.9018,7.48663
630,316,36.8403,-6.729,0.00167828,5.20624e-05,0.000658276,0.00191134,-0.000180999,0.340277,0.00133865,0.0138648,1854,708,36.8403,6.72903
637,316,36.8156,-5.90979,0.00148823,0.000317081,0.000745065,0.0018503,-4.49831e-05,0.452344,0.0012488,0.0132373,1861,708,36.8156,5.90981
644,316,36.7977,-5.10242,0.00140758,0.000687777,0.000882092,0.00200036,9.4989e-05,0.591703,0.00130307,0.0127399,1868,708,36.7977,5.10243
651,316,36.7272,-4.29724,0.00141954,0.0011548,0.0010602,0.0023556,0.000218738,0.723292,0.0015028,0.01648,1875,708,36.7272,4.29726
658,316,36.6556,-3.47223,0.00152821,0.00174911,0.00127398,0.00291741,0.000359903,0.828639,0.00183677,0.0306088,1882,708,36.6557,3.47222
665,316,36.5809,-2.67859,0.00184229,0.00248009,0.00158325,0.00377624,0.000546137,0.884779,0.00235664,0.0209851,1889,708,36.5809,2.67859
672,316,36.5886,-1.888,0.00230954,0.00337111,0.00194078,0.00485238,0.000828272,0.918879,0.00299722,0.0142519,1896,708,36.5886,1.88803
679,316,36.5967,-1.05292,0,0,0,0,0,0,0,-1,1903,708,36.5966,1.0529
686,316,34.0828,0.223206,0,0,0,0,0,0,0,-1,1910,708,34.0828,-0.223183
693,316,26.4315,1.80652,0,0,0,0,0,0,0,-1,1917,708,26.4315,-1.80651
700,316,12.8749,2.89136,0,0,0,0,0,0,0,-1,1924,708,12.8748,-2.89137
707,316,15.7089,5.41486,0,0,0,0,0,0,0,-1,1931,708,15.7088,-5.41487
714,316,16.1727,5.52045,0,0,0,0,0,0,0,-1,1938,708,16.1728,-5.52042
721,316,16.7094,6.53351,0,0,0,0,0,0,0,-1,1945,708,16.7094,-6.5335
728,316,0,0,0,0,0,0,0,0,0,-1,1952,708,0,0
735,316,0,0,0,0,0,0,0,0,0,-1,1959,708,0,0
742,316,0,0,0,0,0,0,0,0,0,-1,1966,708,0,0
749,316,0,0,0,0,0,0,0,0,0,-1,1973,708,0,0
756,316,0,0,0,0,0,0,0,0,0,-1,1980,708,0,0
763,316,0,0,0,0,0,0,0,0,0,-1,1987,708,0,0
770,316,0,0,0,0,0,0,0,0,0,-1,1994,708,0,0
777,316,0,0,0,0,0,0,0,0,0,-1,2001,708,0,0
784,316,0,0,0,0,0,0,0,0,0,-1,2008,708,0,0
791,316,0,0,0,0,0,0,0,0,0,-1,2015,708,0,0
798,316,0,0,0,0,0,0,0,0,0,-1,2022,708,0,0
805,316,0,0,0,0,0,0,0,0,0,-1,2029,708,0,0
812,316,0,0,0,0,0,0,0,0,0,-1,2036,708,0,0
-700,309,0,0,0,0,0,0,0,0,0,-1,524,715,0,0
-693,309,0,0,0,0,0,0,0,0,0,-1,531,715,0,0
-686,309,0,0,0,0,0,0,0,0,0,-1,538,715,0,0
-679,309,0,0,0,0,0,0,0,0,0,-1,545,715,0,0
-672,309,0,0,0,0,0,0,0,0,0,-1,552,715,0,0
-665,309,0,0,0,0,0,0,0,0,0,-1,559,715,0,0
-658,309,0,0,0,0,0,0,0,0,0,-1,566,715,0,0
-651,309,0,0,0,0,0,0,0,0,0,-1,573,715,0,0
-644,309,0,0,0,0,0,0,0,0,0,-1,580,715,0,0
-637,309,0,0,0,0,0,0,0,0,0,-1,587,715,0,0
-630,309,0,0,0,0,0,0,0,0,0,-1,594,715,0,0
-623,309,0,0,0,0,0,0,0,0,0,-1,601,715,0,0
-616,309,0,0,0,0,0,0,0,0,0,-1,608,715,0,0
-609,309,-5.95392,-3.93689,0,0,0,0,0,0,0,-1,615,715,-5.95392,3.93686
-602,309,-4.99786,-3.31287,0,0,0,0,0,0,0,-1,622,715,-4.99786,3.31284
-595,309,-6.80847,2.4046,0,0,0,0,0,0,0,-1,629,715,-6.80845,-2.40458
-588,309,-6.08795,2.19324,0,0,0,0,0,0,0,-1,636,715,-6.08793,-2.19325
-581,309,-5.97552,1.3277,0,0,0,0,0,0,0,-1,643,715,-5.97552,-1.32769
-574,309,-8.73602,0.208435,0,0,0,0,0,0,0,-1,650,715,-8.73604,-0.208437
-567,309,-10.3909,0.85968,0,0,0,0,0,0,0,-1,657,715,-10.3909,-0.859696
-560,309,-18.6088,-1.73389,0,0,0,0,0,0,0,-1,664,715,-18.6088,1.73389
-553,309,-23.7877,-2.39789,0,0,0,0,0,0,0,-1,671,715,-23.7877,2.39791
-546,309,-23.6606,-3.19208,0.00278393,0.00366081,-0.000509072,0.00389423,0.00255052,-1.14089,0.00228404,0.0324422,678,715,-23.6607,3.19207
-539,309,-23.571,-3.99152,0.00266785,0.00250981,-0.000359773,0.00295718,0.00222048,-0.677295,0.00177752,0.0144149,685,715,-23.571,3.99151
-532,309,-23.6011,-4.75305,0.00235387,0.00148968,-0.000128952,0.0023727,0.00147085,-0.14501,0.00138295,0.0113266,692,715,-23.6011,4.75306
-525,309,-23.6367,-5.56012,0.00194569,0.000497532,0.00014437,0.00195994,0.00048328,0.0984022,0.00117902,0.0158077,699,715,-23.6367,5.56014
-518,309,-23.6808,-6.32013,0.00152807,-0.000389486,0.000457967,0.00163183,-0.000493247,0.222808,0.00128427,0.0168134,706,715,-23.6808,6.32012
-511,309,-23.744,-7.08325,0.00114582,-0.00138132,0.000736618,0.00134485,-0.00158036,0.2639,0.0016907,0.0125961,713,715,-23.7439,7.08324
-504,309,-23.785,-7.87231,0.00110894,-0.00249772,0.00110187,0.00141893,-0.00280771,0.274241,0.00248377,0.0107212,720,715,-23.785,7.8723
-497,309,-23.8071,-8.62537,0.00135785,-0.00376612,0.00133597,0.00168526,-0.00409353,0.240334,0.0034316,0.0149929,727,715,-23.8071,8.62536
-490,309,-23.8376,-9.39893,0,0,0,0,0,0,0,-1,734,715,-23.8376,9.39895
-483,309,-17.7261,-7.75836,0,0,0,0,0,0,0,-1,741,715,-17.7261,7.75839
-476,309,-5.29486,-1.2262,0,0,0,0,0,0,0,-1,748,715,-5.29484,1.22622
-469,309,-4.22717,-0.592896,0,0,0,0,0,0,0,-1,755,715,-4.2272,0.592905
-462,309,-10.428,2.46948,0,0,0,0,0,0,0,-1,762,715,-10.428,-2.46947
-455,309,-15.8216,0.00915527,0,0,0,0,0,0,0,-1,769,715,-15.8216,-0.00913359
-448,309,-37.3543,-1.02441,0,0,0,0,0,0,0,-1,776,715,-37.3543,1.02444
-441,309,-19.8181,1.4425,0,0,0,0,0,0,0,-1,783,715,-19.8181,-1.44249
-434,309,-46.7953,1.72064,0,0,0,0,0,0,0,-1,790,715,-46.7953,-1.72067
-427,309,-27.8553,1.40332,0,0,0,0,0,0,0,-1,797,715,-27.8553,-1.40334
-420,309,-27.3148,1.90747,0,0,0,0,0,0,0,-1,804,715,-27.3148,-1.90745
-413,309,0,0,0,0,0,0,0,0,0,-1,811,715,0,0
-406,309,0,0,0,0,0,0,0,0,0,-1,818,715,0,0
-399,309,0,0,0,0,0,0,0,0,0,-1,825,715,0,0
-392,309,0,0,0,0,0,0,0,0,0,-1,832,715,0,0
-385,309,0,0,0,0,0,0,0,0,0,-1,839,715,0,0
-378,309,0,0,0,0,0,0,0,0,0,-1,846,715,0,0
-371,309,0,0,0,0,0,0,0,0,0,-1,853,715,0,0
-364,309,0,0,0,0,0,0,0,0,0,-1,860,715,0,0
-357,309,0,0,0,0,0,0,0,0,0,-1,867,715,0,0
-350,309,0,0,0,0,0,0,0,0,0,-1,874,715,0,0
-343,309,0,0,0,0,0,0,0,0,0,-1,881,715,0,0
-336,309,0,0,0,0,0,0,0,0,0,-1,888,715,0,0
-329,309,0,0,0,0,0,0,0,0,0,-1,895,715,0,0
-322,309,0,0,0,0,0,0,0,0,0,-1,902,715,0,0
-315,309,0,0,0,0,0,0,0,0,0,-1,909,715,0,0
-308,309,0,0,0,0,0,0,0,0,0,-1,916,715,0,0
-301,309,0,0,0,0,0,0,0,0,0,-1,923,715,0,0
-294,309,0,0,0,0,0,0,0,0,0,-1,930,715,0,0
-287,309,0,0,0,0,0,0,0,0,0,-1,937,715,0,0
-280,309,0,0,0,0,0,0,0,0,0,-1,944,715,0,0
-273,309,0,0,0,0,0,0,0,0,0,-1,951,715,0,0
-266,309,0,0,0,0,0,0,0,0,0,-1,958,715,0,0
-259,309,0,0,0,0,0,0,0,0,0,-1,965,715,0,0
-252,309,0,0,0,0,0,0,0,0,0,-1,972,715,0,0
-245,309,0,0,0,0,0,0,0,0,0,-1,979,715,0,0
-238,309,0,0,0,0,0,0,0,0,0,-1,986,715,0,0
-231,309,0,0,0,0,0,0,0,0,0,-1,993,715,0,0
-224,309,0,0,0,0,0,0,0,0,0,-1,1000,715,0,0
-217,309,0,0,0,0,0,0,0,0,0,-1,1007,715,0,0
-210,309,0,0,0,0,0,0,0,0,0,-1,1014,715,0,0
-203,309,0,0,0,0,0,0,0,0,0,-1,1021,715,0,0
-196,309,0,0,0,0,0,0,0,0,0,-1,1028,715,0,0
-189,309,0,0,0,0,0,0,0,0,0,-1,1035,715,0,0
-182,309,0,0,0,0,0,0,0,0,0,-1,1042,715,0,0
-175,309,0,0,0,0,0,0,0,0,0,-1,1049,715,0,0
-168,309,0,0,0,0,0,0,0,0,0,-1,1056,715,0,0
-161,309,0,0,0,0,0,0,0,0,0,-1,1063,715,0,0
-154,309,0,0,0,0,0,0,0,0,0,-1,1070,715,0,0
-147,309,0,0,0,0,0,0,0,0,0,-1,1077,715,0,0
-140,309,0,0,0,0,0,0,0,0,0,-1,1084,715,0,0
-133,309,0,0,0,0,0,0,0,0,0,-1,1091,715,0,0
-126,309,0,0,0,0,0,0,0,0,0,-1,1098,715,0,0
-119,309,0,0,0,0,0,0,0,0,0,-1,1105,715,0,0
-112,309,0,0,0,0,0,0,0,0,0,-1,1112,715,0,0
-105,309,0,0,0,0,0,0,0,0,0,-1,1119,715,0,0
-98,309,0,0,0,0,0,0,0,0,0,-1,1126,715,0,0
-91,309,0,0,0,0,0,0,0,0,0,-1,1133,715,0,0
-84,309,0,0,0,0,0,0,0,0,0,-1,1140,715,0,0
-77,309,0,0,0,0,0,0,0,0,0,-1,1147,715,0,0
-70,309,0,0,0,0,0,0,0,0,0,-1,1154,715,0,0
-63,309,0,0,0,0,0,0,0,0,0,-1,1161,715,0,0
-56,309,0,0,0,0,0,0,0,0,0,-1,1168,715,0,0
-49,309,0,0,0,0,0,0,0,0,0,-1,1175,715,0,0
-42,309,0,0,0,0,0,0,0,0,0,-1,1182,715,0,0
-35,309,0,0,0,0,0,0,0,0,0,-1,1189,715,0,0
-28,309,0,0,0,0,0,0,0,0,0,-1,1196,715,0,0
-21,309,0,0,0,0,0,0,0,0,0,-1,1203,715,0,0
-14,309,0,0,0,0,0,0,0,0,0,-1,1210,715,0,0
-7,309,0,0,0,0,0,0,0,0,0,-1,1217,715,0,0
0,309,0,0,0,0,0,0,0,0,0,-1,1224,715,0,0
7,309,0,0,0,0,0,0,0,0,0,-1,1231,715,0,0
14,309,0,0,0,0,0,0,0,0,0,-1,1238,715,0,0
21,309,0,0,0,0,0,0,0,0,0,-1,1245,715,0,0
28,309,0,0,0,0,0,0,0,0,0,-1,1252,715,0,0
35,309,0,0,0,0,0,0,0,0,0,-1,1259,715,0,0
42,309,0,0,0,0,0,0,0,0,0,-1,1266,715,0,0
49,309,0,0,0,0,0,0,0,0,0,-1,1273,715,0,0
56,309,0,0,0,0,0,0,0,0,0,-1,1280,715,0,0
63,309,0,0,0,0,0,0,0,0,0,-1,1287,715,0,0
70,309,0,0,0,0,0,0,0,0,0,-1,1294,715,0,0
77,309,0,0,0,0,0,0,0,0,0,-1,1301,715,0,0
84,309,0,0,0,0,0,0,0,0,0,-1,1308,715,0,0
91,309,0,0,0,0,0,0,0,0,0,-1,1315,715,0,0
98,309,0,0,0,0,0,0,0,0,0,-1,1322,715,0,0
105,309,0,0,0,0,0,0,0,0,0,-1,1329,715,0,0
112,309,0,0,0,0,0,0,0,0,0,-1,1336,715,0,0
119,309,0,0,0,0,0,0,0,0,0,-1,1343,715,0,0
126,309,0,0,0,0,0,0,0,0,0,-1,1350,715,0,0
133,309,0,0,0,0,0,0,0,0,0,-1,1357,715,0,0
140,309,0,0,0,0,0,0,0,0,0,-1,1364,715,0,0
147,309,0,0,0,0,0,0,0,0,0,-1,1371,715,0,0
154,309,0,0,0,0,0,0,0,0,0,-1,1378,715,0,0
161,309,0,0,0,0,0,0,0,0,0,-1,1385,715,0,0
168,309,0,0,0,0,0,0,0,0,0,-1,1392,715,0,0
175,309,0,0,0,0,0,0,0,0,0,-1,1399,715,0,0
182,309,0,0,0,0,0,0,0,0,0,-1,1406,715,0,0
189,309,0,0,0,0,0,0,0,0,0,-1,1413,715,0,0
196,309,0,0,0,0,0,0,0,0,0,-1,1420,715,0,0
203,309,0,0,0,0,0,0,0,0,0,-1,1427,715,0,0
210,309,0,0,0,0,0,0,0,0,0,-1,1434,715,0,0
217,309,0,0,0,0,0,0,0,0,0,-1,1441,715,0,0
224,309,0,0,0,0,0,0,0,0,0,-1,1448,715,0,0
231,309,0,0,0,0,0,0,0,0,0,-1,1455,715,0,0
238,309,0,0,0,0,0,0,0,0,0,-1,1462,715,0,0
245,309,0,0,0,0,0,0,0,0,0,-1,1469,715,0,0
252,309,0,0,0,0,0,0,0,0,0,-1,1476,715,0,0
259,309,0,0,0,0,0,0,0,0,0,-1,1483,715,0,0
266,309,0,0,0,0,0,0,0,0,0,-1,1490,715,0,0
273,309,0,0,0,0,0,0,0,0,0,-1,1497,715,0,0
280,309,0,0,0,0,0,0,0,0,0,-1,1504,715,0,0
287,309,0,0,0,0,0,0,0,0,0,-1,1511,715,0,0
294,309,0,0,0,0,0,0,0,0,0,-1,1518,715,0,0
301,309,0,0,0,0,0,0,0,0,0,-1,1525,715,0,0
308,309,0,0,0,0,0,0,0,0,0,-1,1532,715,0,0
315,309,0,0,0,0,0,0,0,0,0,-1,1539,715,0,0
322,309,0,0,0,0,0,0,0,0,0,-1,1546,715,0,0
329,309,0,0,0,0,0,0,0,0,0,-1,1553,715,0,0
336,309,0,0,0,0,0,0,0,0,0,-1,1560,715,0,0
343,309,0,0,0,0,0,0,0,0,0,-1,1567,715,0,0
350,309,0,0,0,0,0,0,0,0,0,-1,1574,715,0,0
357,309,0,0,0,0,0,0,0,0,0,-1,1581,715,0,0
364,309,0,0,0,0,0,0,0,0,0,-1,1588,715,0,0
371,309,0,0,0,0,0,0,0,0,0,-1,1595,715,0,0
378,309,0,0,0,0,0,0,0,0,0,-1,1602,715,0,0
385,309,0,0,0,0,0,0,0,0,0,-1,1609,715,0,0
392,309,0,0,0,0,0,0,0,0,0,-1,1616,715,0,0
399,309,0,0,0,0,0,0,0,0,0,-1,1623,715,0,0
406,309,0,0,0,0,0,0,0,0,0,-1,1630,715,0,0
413,309,0,0,0,0,0,0,0,0,0,-1,1637,715,0,0
420,309,0,0,0,0,0,0,0,0,0,-1,1644,715,0,0
427,309,0,0,0,0,0,0,0,0,0,-1,1651,715,0,0
434,309,0,0,0,0,0,0,0,0,0,-1,1658,715,0,0
441,309,0,0,0,0,0,0,0,0,0,-1,1665,715,0,0
448,309,0,0,0,0,0,0,0,0,0,-1,1672,715,0,0
455,309,0,0,0,0,0,0,0,0,0,-1,1679,715,0,0
462,309,0,0,0,0,0,0,0,0,0,-1,1686,715,0,0
469,309,0,0,0,0,0,0,0,0,0,-1,1693,715,0,0
476,309,0,0,0,0,0,0,0,0,0,-1,1700,715,0,0
483,309,0,0,0,0,0,0,0,0,0,-1,1707,715,0,0
490,309,0,0,0,0,0,0,0,0,0,-1,1714,715,0,0
497,309,0,0,0,0,0,0,0,0,0,-1,1721,715,0,0
504,309,0,0,0,0,0,0,0,0,0,-1,1728,715,0,0
511,309,0,0,0,0,0,0,0,0,0,-1,1735,715,0,0
518,309,0,0,0,0,0,0,0,0,0,-1,1742,715,0,0
525,309,0,0,0,0,0,0,0,0,0,-1,1749,715,0,0
532,309,0,0,0,0,0,0,0,0,0,-1,1756,715,0,0
539,309,44.2073,2.66235,0,0,0,0,0,0,0,-1,1763,715,44.2073,-2.66238
546,309,44.4976,3.25531,0,0,0,0,0,0,0,-1,1770,715,44.4976,-3.25533
553,309,47.9611,4.06433,0,0,0,0,0,0,0,-1,1777,715,47.9611,-4.06434
560,309,47.9784,4.64801,0,0,0,0,0,0,0,-1,1784,715,47.9784,-4.64799
567,309,47.0073,5.43121,0,0,0,0,0,0,0,-1,1791,715,47.0073,-5.43121
574,309,45.8746,6.53271,0,0,0,0,0,0,0,-1,1798,715,45.8747,-6.53269
581,309,45.0629,7.73468,0,0,0,0,0,0,0,-1,1805,715,45.0629,-7.73471
588,309,26.2064,7.76422,0,0,0,0,0,0,0,-1,1812,715,26.2064,-7.7642
595,309,19.585,3.71558,0,0,0,0,0,0,0,-1,1819,715,19.5849,-3.71555
602,309,11.0811,3.47772,0,0,0,0,0,0,0,-1,1826,715,11.0811,-3.47772
609,309,37.7406,-9.01465,0,0,0,0,0,0,0,-1,1833,715,37.7407,9.01464
616,309,37.7306,-8.23248,0.00276184,-9.45791e-05,0.000883044,0.00301279,-0.00034552,0.276878,0.00213305,0.026959,1840,715,37.7306,8.23246
623,309,37.7004,-7.45514,0.00205219,-3.21823e-05,0.000751856,0.00229509,-0.000275079,0.312479,0.00162951,0.011809,1847,715,37.7005,7.45515
630,309,37.6333,-6.69244,0.00169464,3.84228e-05,0.000740039,0.00197712,-0.000244064,0.364648,0.00140651,0.0111637,1854,715,37.6333,6.69245
637,309,37.5858,-5.88391,0.00146402,0.000250645,0.000799289,0.00186079,-0.000146129,0.46077,0.00129199,0.0142348,1861,715,37.5858,5.88393
644,309,37.5236,-5.06396,0.00136389,0.000591618,0.000906704,0.00196326,-7.74697e-06,0.584095,0.00131143,0.0148081,1868,715,37.5235,5.06399
651,309,37.4893,-4.26001,0.00136429,0.00102403,0.00104956,0.00225741,0.000130901,0.705047,0.00146326,0.0151788,1875,715,37.4893,4.26003
658,309,37.4479,-3.44824,0.00148377,0.00158773,0.00122746,0.00276431,0.000307192,0.80656,0.00174949,0.0221944,1882,715,37.4479,3.44825
665,309,37.4539,-2.65527,0.001827,0.00229544,0.00150511,0.00358444,0.000537994,0.862588,0.00223202,0.0169999,1889,715,37.4538,2.65529
672,309,37.3953,-1.85327,0.00232581,0.00315656,0.00184387,0.00463126,0.000851108,0.896185,0.00284654,0.0153405,1896,715,37.3952,1.85329
679,309,37.3834,-0.968201,0.00300134,0.00425612,0.00228338,0.00599673,0.00126073,0.919472,0.00365087,0.027919,1903,715,37.3834,0.968176
686,309,37.4193,-0.0120239,0,0,0,0,0,0,0,-1,1910,715,37.4193,0.012053
693,309,32.7026,1.51727,0,0,0,0,0,0,0,-1,1917,715,32.7026,-1.51727
700,309,23.0179,3.08337,0,0,0,0,0,0,0,-1,1924,715,23.018,-3.08336
707,309,15.6318,4.58655,0,0,0,0,0,0,0,-1,1931,715,15.6318,-4.58657
714,309,16.7573,6.68286,0,0,0,0,0,0,0,-1,1938,715,16.7574,-6.68284
721,309,16.8337,5.4458,0,0,0,0,0,0,0,-1,1945,715,16.8338,-5.44582
728,309,0,0,0,0,0,0,0,0,0,-1,1952,715,0,0
735,309,0,0,0,0,0,0,0,0,0,-1,1959,715,0,0
742,309,0,0,0,0,0,0,0,0,0,-1,1966,715,0,0
749,309,0,0,0,0,0,0,0,0,0,-1,1973,715,0,0
756,309,0,0,0,0,0,0,0,0,0,-1,1980,715,0,0
763,309,0,0,0,0,0,0,0,0,0,-1,1987,715,0,0
770,309,0,0,0,0,0,0,0,0,0,-1,1994,715,0,0
777,309,0,0,0,0,0,0,0,0,0,-1,2001,715,0,0
784,309,0,0,0,0,0,0,0,0,0,-1,2008,715,0,0
791,309,0,0,0,0,0,0,0,0,0,-1,2015,715,0,0
798,309,0,0,0,0,0,0,0,0,0,-1,2022,715,0,0
805,309,0,0,0,0,0,0,0,0,0,-1,2029,715,0,0
812,309,0,0,0,0,0,0,0,0,0,-1,2036,715,0,0
-700,302,0,0,0,0,0,0,0,0,0,-1,524,722,0,0
-693,302,0,0,0,0,0,0,0,0,0,-1,531,722,0,0
-686,302,0,0,0,0,0,0,0,0,0,-1,538,722,0,0
-679,302,0,0,0,0,0,0,0,0,0,-1,545,722,0,0
-672,302,0,0,0,0,0,0,0,0,0,-1,552,722,0,0
-665,302,0,0,0,0,0,0,0,0,0,-1,559,722,0,0
-658,302,0,0,0,0,0,0,0,0,0,-1,566,722,0,0
-651,302,0,0,0,0,0,0,0,0,0,-1,573,722,0,0
-644,302,0,0,0,0,0,0,0,0,0,-1,580,722,0,0
-637,302,0,0,0,0,0,0,0,0,0,-1,587,722,0,0
-630,302,0,0,0,0,0,0,0,0,0,-1,594,722,0,0
-623,302,0,0,0,0,0,0,0,0,0,-1,601,722,0,0
-616,302,0,0,0,0,0,0,0,0,0,-1,608,722,0,0
-609,302,-7.79266,-3.71649,0,0,0,0,0,0,0,-1,615,722,-7.79267,3.7165
-602,302,0.92865,-1.99158,0,0,0,0,0,0,0,-1,622,722,0.928637,1.99157
-595,302,-7.89941,2.13641,0,0,0,0,0,0,0,-1,629,722,-7.89939,-2.13639
-588,302,-7.10895,1.79163,0,0,0,0,0,0,0,-1,636,722,-7.10896,-1.79163
-581,302,-9.17566,1.09448,0,0,0,0,0,0,0,-1,643,722,-9.17569,-1.09445
-574,302,-11.5183,-0.344543,0,0,0,0,0,0,0,-1,650,722,-11.5183,0.344557
-567,302,-12.1534,-0.672241,0,0,0,0,0,0,0,-1,657,722,-12.1535,0.672246
-560,302,-24.4723,-1.51312,0,0,0,0,0,0,0,-1,664,722,-24.4723,1.51312
-553,302,-24.3525,-2.33405,0.00152312,0.00428214,-0.00058421,0.00440074,0.00140451,-1.3705,0.00259558,0.0340239,671,722,-24.3525,2.33406
-546,302,-24.3456,-3.18878,0.001772,0.00295091,-0.000402578,0.00307526,0.00164765,-1.27119,0.00177702,0.0172297,678,722,-24.3456,3.18876
-539,302,-24.3734,-3.92285,0.00177738,0.00186029,-0.000147816,0.00197236,0.00166532,-0.922116,0.00122545,0.0142491,685,722,-24.3734,3.92285
-532,302,-24.3832,-4.68817,0.00158642,0.000946875,0.000153223,0.00162123,0.000912061,0.22342,0.00093846,0.0126434,692,722,-24.3832,4.68817
-525,302,-24.3932,-5.51825,0.00128432,1.85694e-05,0.000447988,0.00142684,-0.000123941,0.30799,0.000995114,0.0180858,699,722,-24.3932,5.51822
-518,302,-24.4603,-6.27582,0.00102386,-0.000954925,0.000783898,0.00129676,-0.00122783,0.335015,0.00145775,0.0207221,706,722,-24.4604,6.2758
-511,302,-24.5241,-7.03656,0.000976762,-0.0023267,0.0010245,0.00126869,-0.00261863,0.277592,0.00228901,0.0107511,713,722,-24.5241,7.03655
-504,302,-24.5583,-7.8158,0.00159819,-0.0040275,0.00134768,0.00190437,-0.00433368,0.2234,0.00369145,0.00994604,720,722,-24.5583,7.81581
-497,302,-24.6257,-8.57776,0.00267915,-0.00615445,0.00149383,0.00292493,-0.00640023,0.163069,0.0055071,0.015692,727,722,-24.6257,8.57779
-490,302,-24.6969,-9.34735,0,0,0,0,0,0,0,-1,734,722,-24.6969,9.34734
-483,302,-9.53412,-3.1673,0,0,0,0,0,0,0,-1,741,722,-9.53411,3.1673
-476,302,-4.29749,-0.203491,0,0,0,0,0,0,0,-1,748,722,-4.29751,0.203464
-469,302,-12.369,1.42859,0,0,0,0,0,0,0,-1,755,722,-12.3689,-1.42857
-462,302,-17.4766,0.310791,0,0,0,0,0,0,0,-1,762,722,-17.4766,-0.310788
-455,302,-36.7368,-2.97418,0,0,0,0,0,0,0,-1,769,722,-36.7368,2.97416
-448,302,-42.1174,-1.44232,0,0,0,0,0,0,0,-1,776,722,-42.1174,1.44229
-441,302,-46.7637,0.580078,0,0,0,0,0,0,0,-1,783,722,-46.7636,-0.58007
-434,302,-46.574,1.30511,0,0,0,0,0,0,0,-1,790,722,-46.574,-1.30509
-427,302,-46.7514,1.51532,0,0,0,0,0,0,0,-1,797,722,-46.7514,-1.51532
-420,302,0,0,0,0,0,0,0,0,0,-1,804,722,0,0
-413,302,0,0,0,0,0,0,0,0,0,-1,811,722,0,0
-406,302,0,0,0,0,0,0,0,0,0,-1,818,722,0,0
-399,302,0,0,0,0,0,0,0,0,0,-1,825,722,0,0
-392,302,0,0,0,0,0,0,0,0,0,-1,832,722,0,0
-385,302,0,0,0,0,0,0,0,0,0,-1,839,722,0,0
-378,302,0,0,0,0,0,0,0,0,0,-1,846,722,0,0
-371,302,0,0,0,0,0,0,0,0,0,-1,853,722,0,0
-364,302,0,0,0,0,0,0,0,0,0,-1,860,722,0,0
-357,302,0,0,0,0,0,0,0,0,0,-1,867,722,0,0
-350,302,0,0,0,0,0,0,0,0,0,-1,874,722,0,0
-343,302,0,0,0,0,0,0,0,0,0,-1,881,722,0,0
-336,302,0,0,0,0,0,0,0,0,0,-1,888,722,0,0
-329,302,0,0,0,0,0,0,0,0,0,-1,895,722,0,0
-322,302,0,0,0,0,0,0,0,0,0,-1,902,722,0,0
-315,302,0,0,0,0,0,0,0,0,0,-1,909,722,0,0
-308,302,0,0,0,0,0,0,0,0,0,-1,916,722,0,0
-301,302,0,0,0,0,0,0,0,0,0,-1,923,722,0,0
-294,302,0,0,0,0,0,0,0,0,0,-1,930,722,0,0
-287,302,0,0,0,0,0,0,0,0,0,-1,937,722,0,0
-280,302,0,0,0,0,0,0,0,0,0,-1,944,722,0,0
-273,302,0,0,0,0,0,0,0,0,0,-1,951,722,0,0
-266,302,0,0,0,0,0,0,0,0,0,-1,958,722,0,0
-259,302,0,0,0,0,0,0,0,0,0,-1,965,722,0,0
-252,302,0,0,0,0,0,0,0,0,0,-1,972,722,0,0
-245,302,0,0,0,0,0,0,0,0,0,-1,979,722,0,0
-238,302,0,0,0,0,0,0,0,0,0,-1,986,722,0,0
-231,302,0,0,0,0,0,0,0,0,0,-1,993,722,0,0
-224,302,0,0,0,0,0,0,0,0,0,-1,1000,722,0,0
-217,302,0,0,0,0,0,0,0,0,0,-1,1007,722,0,0
-210,302,0,0,0,0,0,0,0,0,0,-1,1014,722,0,0
-203,302,0,0,0,0,0,0,0,0,0,-1,1021,722,0,0
-196,302,0,0,0,0,0,0,0,0,0,-1,1028,722,0,0
-189,302,0,0,0,0,0,0,0,0,0,-1,1035,722,0,0
-182,302,0,0,0,0,0,0,0,0,0,-1,1042,722,0,0
-175,302,0,0,0,0,0,0,0,0,0,-1,1049,722,0,0
-168,302,0,0,0,0,0,0,0,0,0,-1,1056,722,0,0
-161,302,0,0,0,0,0,0,0,0,0,-1,1063,722,0,0
-154,302,0,0,0,0,0,0,0,0,0,-1,1070,722,0,0
-147,302,0,0,0,0,0,0,0,0,0,-1,1077,722,0,0
-140,302,0,0,0,0,0,0,0,0,0,-1,1084,722,0,0
-133,302,0,0,0,0,0,0,0,0,0,-1,1091,722,0,0
-126,302,0,0,0,0,0,0,0,0,0,-1,1098,722,0,0
-119,302,0,0,0,0,0,0,0,0,0,-1,1105,722,0,0
-112,302,0,0,0,0,0,0,0,0,0,-1,1112,722,0,0
-105,302,0,0,0,0,0,0,0,0,0,-1,1119,722,0,0
-98,302,0,0,0,0,0,0,0,0,0,-1,1126,722,0,0
-91,302,0,0,0,0,0,0,0,0,0,-1,1133,722,0,0
-84,302,0,0,0,0,0,0,0,0,0,-1,1140,722,0,0
-77,302,0,0,0,0,0,0,0,0,0,-1,1147,722,0,0
-70,302,0,0,0,0,0,0,0,0,0,-1,1154,722,0,0
-63,302,0,0,0,0,0,0,0,0,0,-1,1161,722,0,0
-56,302,0,0,0,0,0,0,0,0,0,-1,1168,722,0,0
-49,302,0,0,0,0,0,0,0,0,0,-1,1175,722,0,0
-42,302,0,0,0,0,0,0,0,0,0,-1,1182,722,0,0
-35,302,0,0,0,0,0,0,0,0,0,-1,1189,722,0,0
-28,302,0,0,0,0,0,0,0,0,0,-1,1196,722,0,0
-21,302,0,0,0,0,0,0,0,0,0,-1,1203,722,0,0
-14,302,0,0,0,0,0,0,0,0,0,-1,1210,722,0,0
-7,302,0,0,0,0,0,0,0,0,0,-1,1217,722,0,0
0,302,0,0,0,0,0,0,0,0,0,-1,1224,722,0,0
7,302,0,0,0,0,0,0,0,0,0,-1,1231,722,0,0
14,302,0,0,0,0,0,0,0,0,0,-1,1238,722,0,0
21,302,0,0,0,0,0,0,0,0,0,-1,1245,722,0,0
28,302,0,0,0,0,0,0,0,0,0,-1,1252,722,0,0
35,302,0,0,0,0,0,0,0,0,0,-1,1259,722,0,0
42,302,0,0,0,0,0,0,0,0,0,-1,1266,722,0,0
49,302,0,0,0,0,0,0,0,0,0,-1,1273,722,0,0
56,302,0,0,0,0,0,0,0,0,0,-1,1280,722,0,0
63,302,0,0,0,0,0,0,0,0,0,-1,1287,722,0,0
70,302,0,0,0,0,0,0,0,0,0,-1,1294,722,0,0
77,302,0,0,0,0,0,0,0,0,0,-1,1301,722,0,0
84,302,0,0,0,0,0,0,0,0,0,-1,1308,722,0,0
91,302,0,0,0,0,0,0,0,0,0,-1,1315,722,0,0
98,302,0,0,0,0,0,0,0,0,0,-1,1322,722,0,0
105,302,0,0,0,0,0,0,0,0,0,-1,1329,722,0,0
112,302,0,0,0,0,0,0,0,0,0,-1,1336,722,0,0
119,302,0,0,0,0,0,0,0,0,0,-1,1343,722,0,0
126,302,0,0,0,0,0,0,0,0,0,-1,1350,722,0,0
133,302,0,0,0,0,0,0,0,0,0,-1,1357,722,0,0
140,302,0,0,0,0,0,0,0,0,0,-1,1364,722,0,0
147,302,0,0,0,0,0,0,0,0,0,-1,1371,722,0,0
154,302,0,0,0,0,0,0,0,0,0,-1,1378,722,0,0
161,302,0,0,0,0,0,0,0,0,0,-1,1385,722,0,0
168,302,0,0,0,0,0,0,0,0,0,-1,1392,722,0,0
175,302,0,0,0,0,0,0,0,0,0,-1,1399,722,0,0
182,302,0,0,0,0,0,0,0,0,0,-1,1406,722,0,0
189,302,0,0,0,0,0,0,0,0,0,-1,1413,722,0,0
196,302,0,0,0,0,0,0,0,0,0,-1,1420,722,0,0
203,302,0,0,0,0,0,0,0,0,0,-1,1427,722,0,0
210,302,0,0,0,0,0,0,0,0,0,-1,1434,722,0,0
217,302,0,0,0,0,0,0,0,0,0,-1,1441,722,0,0
224,302,0,0,0,0,0,0,0,0,0,-1,1448,722,0,0
231,302,0,0,0,0,0,0,0,0,0,-1,1455,722,0,0
238,302,0,0,0,0,0,0,0,0,0,-1,1462,722,0,0
245,302,0,0,0,0,0,0,0,0,0,-1,1469,722,0,0
252,302,0,0,0,0,0,0,0,0,0,-1,1476,722,0,0
259,302,0,0,0,0,0,0,0,0,0,-1,1483,722,0,0
266,302,0,0,0,0,0,0,0,0,0,-1,1490,722,0,0
273,302,0,0,0,0,0,0,0,0,0,-1,1497,722,0,0
280,302,0,0,0,0,0,0,0,0,0,-1,1504,722,0,0
287,302,0,0,0,0,0,0,0,0,0,-1,1511,722,0,0
294,302,0,0,0,0,0,0,0,0,0,-1,1518,722,0,0
301,302,0,0,0,0,0,0,0,0,0,-1,1525,722,0,0
308,302,0,0,0,0,0,0,0,0,0,-1,1532,722,0,0
315,302,0,0,0,0,0,0,0,0,0,-1,1539,722,0,0
322,302,0,0,0,0,0,0,0,0,0,-1,1546,722,0,0
329,302,0,0,0,0,0,0,0,0,0,-1,1553,722,0,0
336,302,0,0,0,0,0,0,0,0,0,-1,1560,722,0,0
343,302,0,0,0,0,0,0,0,0,0,-1,1567,722,0,0
350,302,0,0,0,0,0,0,0,0,0,-1,1574,722,0,0
357,302,0,0,0,0,0,0,0,0,0,-1,1581,722,0,0
364,302,0,0,0,0,0,0,0,0,0,-1,1588,722,0,0
371,302,0,0,0,0,0,0,0,0,0,-1,1595,722,0,0
378,302,0,0,0,0,0,0,0,0,0,-1,1602,722,0,0
385,302,0,0,0,0,0,0,0,0,0,-1,1609,722,0,0
392,302,0,0,0,0,0,0,0,0,0,-1,1616,722,0,0
399,302,0,0,0,0,0,0,0,0,0,-1,1623,722,0,0
406,302,0,0,0,0,0,0,0,0,0,-1,1630,722,0,0
413,302,0,0,0,0,0,0,0,0,0,-1,1637,722,0,0
420,302,0,0,0,0,0,0,0,0,0,-1,1644,722,0,0
427,302,0,0,0,0,0,0,0,0,0,-1,1651,722,0,0
434,302,0,0,0,0,0,0,0,0,0,-1,1658,722,0,0
441,302,0,0,0,0,0,0,0,0,0,-1,1665,722,0,0
448,302,0,0,0,0,0,0,0,0,0,-1,1672,722,0,0
455,302,0,0,0,0,0,0,0,0,0,-1,1679,722,0,0
462,302,0,0,0,0,0,0,0,0,0,-1,1686,722,0,0
469,302,0,0,0,0,0,0,0,0,0,-1,1693,722,0,0
476,302,0,0,0,0,0,0,0,0,0,-1,1700,722,0,0
483,302,0,0,0,0,0,0,0,0,0,-1,1707,722,0,0
490,302,0,0,0,0,0,0,0,0,0,-1,1714,722,0,0
497,302,0,0,0,0,0,0,0,0,0,-1,1721,722,0,0
504,302,0,0,0,0,0,0,0,0,0,-1,1728,722,0,0
511,302,0,0,0,0,0,0,0,0,0,-1,1735,722,0,0
518,302,0,0,0,0,0,0,0,0,0,-1,1742,722,0,0
525,302,0,0,0,0,0,0,0,0,0,-1,1749,722,0,0
532,302,0,0,0,0,0,0,0,0,0,-1,1756,722,0,0
539,302,0,0,0,0,0,0,0,0,0,-1,1763,722,0,0
546,302,48.9873,1.50562,0,0,0,0,0,0,0,-1,1770,722,48.9873,-1.50562
553,302,56.7844,3.46533,0,0,0,0,0,0,0,-1,1777,722,56.7844,-3.4653
560,302,56.7115,3.84808,0,0,0,0,0,0,0,-1,1784,722,56.7116,-3.84806
567,302,55.9475,4.24542,0,0,0,0,0,0,0,-1,1791,722,55.9475,-4.24542
574,302,45.9537,6.00867,0,0,0,0,0,0,0,-1,1798,722,45.9537,-6.00864
581,302,45.137,7.38043,0,0,0,0,0,0,0,-1,1805,722,45.1369,-7.38044
588,302,26.9731,7.19983,0,0,0,0,0,0,0,-1,1812,722,26.9732,-7.19981
595,302,27.3826,8.13104,0,0,0,0,0,0,0,-1,1819,722,27.3825,-8.13102
602,302,14.7349,5.21246,0,0,0,0,0,0,0,-1,1826,722,14.7349,-5.21247
609,302,31.1039,-6.34253,0,0,0,0,0,0,0,-1,1833,722,31.1039,6.34254
616,302,38.5471,-8.17877,0,0,0,0,0,0,0,-1,1840,722,38.5471,8.17879
623,302,38.4851,-7.40552,0.0020538,-2.35032e-05,0.000983845,0.00244579,-0.000415498,0.379153,0.00178522,0.0152685,1847,722,38.4851,7.40552
630,302,38.4174,-6.63116,0.00165167,-2.3201e-05,0.000908386,0.00204974,-0.000421266,0.413008,0.00152642,0.0122345,1854,722,38.4174,6.63119
637,302,38.3369,-5.8371,0.00138174,0.000138331,0.000915742,0.00186687,-0.000346807,0.487184,0.00137484,0.015735,1861,722,38.337,5.83708
644,302,38.3004,-5.02454,0.00126228,0.000442592,0.000962062,0.00189816,-0.000193285,0.584037,0.00133454,0.0157825,1868,722,38.3004,5.02454
651,302,38.2888,-4.211,0.00125386,0.000849443,0.00105297,0.00212386,-2.05594e-05,0.690535,0.00142281,0.0152005,1875,722,38.2888,4.21098
658,302,38.2754,-3.44586,0.00137734,0.00138744,0.00117592,0.00255832,0.000206462,0.787546,0.00164106,0.0161935,1882,722,38.2754,3.44583
665,302,38.2596,-2.64795,0.00173523,0.00206297,0.00140468,0.0033133,0.000484898,0.843466,0.00206629,0.0145756,1889,722,38.2596,2.64794
672,302,38.1901,-1.84259,0.00227156,0.00289648,0.00173217,0.00434414,0.000823895,0.874631,0.00266427,0.012074,1896,722,38.1901,1.8426
679,302,38.1189,-1.01984,0.00301281,0.00393077,0.00215237,0.00567255,0.00127103,0.890447,0.00343727,0.0103934,1903,722,38.1189,1.01982
686,302,38.1191,-0.180115,0.00404642,0.00513113,0.00272004,0.00736236,0.00181519,0.883804,0.00442895,0.024017,1910,722,38.1191,0.180138
693,302,38.0814,0.653076,0,0,0,0,0,0,0,-1,1917,722,38.0815,-0.653097
700,302,25.4069,1.97308,0,0,0,0,0,0,0,-1,1924,722,25.4068,-1.97311
707,302,16.7321,4.76685,0,0,0,0,0,0,0,-1,1931,722,16.7321,-4.76687
714,302,17.2,5.77594,0,0,0,0,0,0,0,-1,1938,722,17.2,-5.77595
721,302,17.7914,6.60394,0,0,0,0,0,0,0,-1,1945,722,17.7914,-6.60395
728,302,17.2798,4.81702,0,0,0,0,0,0,0,-1,1952,722,17.2798,-4.81703
735,302,0,0,0,0,0,0,0,0,0,-1,1959,722,0,0
742,302,0,0,0,0,0,0,0,0,0,-1,1966,722,0,0
749,302,0,0,0,0,0,0,0,0,0,-1,1973,722,0,0
756,302,0,0,0,0,0,0,0,0,0,-1,1980,722,0,0
763,302,0,0,0,0,0,0,0,0,0,-1,1987,722,0,0
770,302,0,0,0,0,0,0,0,0,0,-1,1994,722,0,0
777,302,0,0,0,0,0,0,0,0,0,-1,2001,722,0,0
784,302,0,0,0,0,0,0,0,0,0,-1,2008,722,0,0
791,302,0,0,0,0,0,0,0,0,0,-1,2015,722,0,0
798,302,0,0,0,0,0,0,0,0,0,-1,2022,722,0,0
805,302,0,0,0,0,0,0,0,0,0,-1,2029,722,0,0
812,302,0,0,0,0,0,0,0,0,0,-1,2036,722,0,0
-700,295,0,0,0,0,0,0,0,0,0,-1,524,729,0,0
-693,295,0,0,0,0,0,0,0,0,0,-1,531,729,0,0
-686,295,0,0,0,0,0,0,0,0,0,-1,538,729,0,0
-679,295,0,0,0,0,0,0,0,0,0,-1,545,729,0,0
-672,295,0,0,0,0,0,0,0,0,0,-1,552,729,0,0
-665,295,0,0,0,0,0,0,0,0,0,-1,559,729,0,0
-658,295,0,0,0,0,0,0,0,0,0,-1,566,729,0,0
-651,295,0,0,0,0,0,0,0,0,0,-1,573,729,0,0
-644,295,0,0,0,0,0,0,0,0,0,-1,580,729,0,0
-637,295,0,0,0,0,0,0,0,0,0,-1,587,729,0,0
-630,295,0,0,0,0,0,0,0,0,0,-1,594,729,0,0
-623,295,0,0,0,0,0,0,0,0,0,-1,601,729,0,0
-616,295,-13.4911,1.31738,0,0,0,0,0,0,0,-1,608,729,-13.4911,-1.3174
-609,295,-10.2864,0.832031,0,0,0,0,0,0,0,-1,615,729,-10.2863,-0.832034
-602,295,-8.19006,3.01587,0,0,0,0,0,0,0,-1,622,729,-8.19005,-3.01588
-595,295,-0.615479,-1.95447,0,0,0,0,0,0,0,-1,629,729,-0.615481,1.95445
-588,295,-7.98999,1.56903,0,0,0,0,0,0,0,-1,636,729,-7.98997,-1.56905
-581,295,-12.0404,0.150574,0,0,0,0,0,0,0,-1,643,729,-12.0404,-0.150604
-574,295,-12.1605,-0.0739746,0,0,0,0,0,0,0,-1,650,729,-12.1605,0.0739856
-567,295,-24.7806,-0.67041,0,0,0,0,0,0,0,-1,657,729,-24.7807,0.670409
-560,295,-25.0146,-1.60303,-0.000170012,0.0045728,-0.000833617,0.00471505,-0.000312265,-1.40178,0.00325246,0.0366139,664,729,-25.0146,1.60305
-553,295,-25.0307,-2.43439,0.000613588,0.00354529,-0.000598829,0.00366289,0.000495989,-1.37688,0.00229454,0.0195617,671,729,-25.0307,2.43438
-546,295,-25.1443,-3.19238,0.000916458,0.00232068,-0.000271771,0.00237144,0.000865695,-1.38614,0.00138568,0.0205321,678,729,-25.1443,3.19239
-539,295,-25.1785,-3.92285,0.000980386,0.00125619,9.09207e-05,0.00128347,0.000953111,1.27935,0.000769538,0.0185214,685,729,-25.1785,3.92285
-532,295,-25.1838,-4.68542,0.000886754,0.000359106,0.000467395,0.00115964,8.62171e-05,0.528461,0.000746019,0.0144321,692,729,-25.1839,4.68545
-525,295,-25.191,-5.47839,0.000680451,-0.000574164,0.000808272,0.00107628,-0.000969997,0.455397,0.00118195,0.0136784,699,729,-25.191,5.47841
-518,295,-25.2214,-6.22552,0.000614237,-0.00178233,0.00116711,0.00108869,-0.00225678,0.38611,0.00197036,0.0103971,706,729,-25.2214,6.22551
-511,295,-25.2753,-6.96564,0.00095878,-0.00360674,0.0013624,0.00133443,-0.00398238,0.269039,0.00319404,0.00899322,713,729,-25.2753,6.96563
-504,295,-25.3171,-7.71979,0.00221812,-0.00584324,0.00165899,0.00254618,-0.0061713,0.195229,0.00517607,0.0111545,720,729,-25.3171,7.71981
-497,295,-25.4084,-8.42902,0.00398979,-0.00865328,0.00173814,0.00422439,-0.00888788,0.134162,0.00772833,0.0238882,727,729,-25.4084,8.429
-490,295,-25.5076,-9.12158,0,0,0,0,0,0,0,-1,734,729,-25.5076,9.1216
-483,295,-6.84503,-0.454651,0,0,0,0,0,0,0,-1,741,729,-6.84505,0.454639
-476,295,-13.1738,-0.836243,0,0,0,0,0,0,0,-1,748,729,-13.1738,0.836223
-469,295,-26.5608,-0.466187,0,0,0,0,0,0,0,-1,755,729,-26.5608,0.466162
-462,295,-29.7701,-0.792664,0,0,0,0,0,0,0,-1,762,729,-29.7701,0.792642
-455,295,-45.11,-2.79272,0,0,0,0,0,0,0,-1,769,729,-45.11,2.79272
-448,295,-48.0288,1.41229,0,0,0,0,0,0,0,-1,776,729,-48.0288,-1.41227
-441,295,-47.1089,1.03058,0,0,0,0,0,0,0,-1,783,729,-47.109,-1.0306
-434,295,-46.2319,1.10614,0,0,0,0,0,0,0,-1,790,729,-46.2319,-1.10612
-427,295,0,0,0,0,0,0,0,0,0,-1,797,729,0,0
-420,295,0,0,0,0,0,0,0,0,0,-1,804,729,0,0
-413,295,0,0,0,0,0,0,0,0,0,-1,811,729,0,0
-406,295,0,0,0,0,0,0,0,0,0,-1,818,729,0,0
-399,295,0,0,0,0,0,0,0,0,0,-1,825,729,0,0
-392,295,0,0,0,0,0,0,0,0,0,-1,832,729,0,0
-385,295,0,0,0,0,0,0,0,0,0,-1,839,729,0,0
-378,295,0,0,0,0,0,0,0,0,0,-1,846,729,0,0
-371,295,0,0,0,0,0,0,0,0,0,-1,853,729,0,0
-364,295,0,0,0,0,0,0,0,0,0,-1,860,729,0,0
-357,295,0,0,0,0,0,0,0,0,0,-1,867,729,0,0
-350,295,0,0,0,0,0,0,0,0,0,-1,874,729,0,0
-343,295,0,0,0,0,0,0,0,0,0,-1,881,729,0,0
-336,295,0,0,0,0,0,0,0,0,0,-1,888,729,0,0
-329,295,0,0,0,0,0,0,0,0,0,-1,895,729,0,0
-322,295,0,0,0,0,0,0,0,0,0,-1,902,729,0,0
-315,295,0,0,0,0,0,0,0,0,0,-1,909,729,0,0
-308,295,0,0,0,0,0,0,0,0,0,-1,916,729,0,0
-301,295,0,0,0,0,0,0,0,0,0,-1,923,729,0,0
-294,295,0,0,0,0,0,0,0,0,0,-1,930,729,0,0
-287,295,0,0,0,0,0,0,0,0,0,-1,937,729,0,0
-280,295,0,0,0,0,0,0,0,0,0,-1,944,729,0,0
-273,295,0,0,0,0,0,0,0,0,0,-1,951,729,0,0
-266,295,0,0,0,0,0,0,0,0,0,-1,958,729,0,0
-259,295,0,0,0,0,0,0,0,0,0,-1,965,729,0,0
-252,295,0,0,0,0,0,0,0,0,0,-1,972,729,0,0
-245,295,0,0,0,0,0,0,0,0,0,-1,979,729,0,0
-238,295,0,0,0,0,0,0,0,0,0,-1,986,729,0,0
-231,295,0,0,0,0,0,0,0,0,0,-1,993,729,0,0
-224,295,0,0,0,0,0,0,0,0,0,-1,1000,729,0,0
-217,295,0,0,0,0,0,0,0,0,0,-1,1007,729,0,0
-210,295,0,0,0,0,0,0,0,0,0,-1,1014,729,0,0
-203,295,0,0,0,0,0,0,0,0,0,-1,1021,729,0,0
-196,295,0,0,0,0,0,0,0,0,0,-1,1028,729,0,0
-189,295,0,0,0,0,0,0,0,0,0,-1,1035,729,0,0
-182,295,0,0,0,0,0,0,0,0,0,-1,1042,729,0,0
-175,295,0,0,0,0,0,0,0,0,0,-1,1049,729,0,0
-168,295,0,0,0,0,0,0,0,0,0,-1,1056,729,0,0
-161,295,0,0,0,0,0,0,0,0,0,-1,1063,729,0,0
-154,295,0,0,0,0,0,0,0,0,0,-1,1070,729,0,0
-147,295,0,0,0,0,0,0,0,0,0,-1,1077,729,0,0
-140,295,0,0,0,0,0,0,0,0,0,-1,1084,729,0,0
-133,295,0,0,0,0,0,0,0,0,0,-1,1091,729,0,0
-126,295,0,0,0,0,0,0,0,0,0,-1,1098,729,0,0
-119,295,0,0,0,0,0,0,0,0,0,-1,1105,729,0,0
-112,295,0,0,0,0,0,0,0,0,0,-1,1112,729,0,0
-105,295,0,0,0,0,0,0,0,0,0,-1,1119,729,0,0
-98,295,0,0,0,0,0,0,0,0,0,-1,1126,729,0,0
-91,295,0,0,0,0,0,0,0,0,0,-1,1133,729,0,0
-84,295,0,0,0,0,0,0,0,0,0,-1,1140,729,0,0
-77,295,0,0,0,0,0,0,0,0,0,-1,1147,729,0,0
-70,295,0,0,0,0,0,0,0,0,0,-1,1154,729,0,0
-63,295,0,0,0,0,0,0,0,0,0,-1,1161,729,0,0
-56,295,0,0,0,0,0,0,0,0,0,-1,1168,729,0,0
-49,295,0,0,0,0,0,0,0,0,0,-1,1175,729,0,0
-42,295,0,0,0,0,0,0,0,0,0,-1,1182,729,0,0
-35,295,0,0,0,0,0,0,0,0,0,-1,1189,729,0,0
-28,295,0,0,0,0,0,0,0,0,0,-1,1196,729,0,0
-21,295,0,0,0,0,0,0,0,0,0,-1,1203,729,0,0
-14,295,0,0,0,0,0,0,0,0,0,-1,1210,729,0,0
-7,295,0,0,0,0,0,0,0,0,0,-1,1217,729,0,0
0,295,0,0,0,0,0,0,0,0,0,-1,1224,729,0,0
7,295,0,0,0,0,0,0,0,0,0,-1,1231,729,0,0
14,295,0,0,0,0,0,0,0,0,0,-1,1238,729,0,0
21,295,0,0,0,0,0,0,0,0,0,-1,1245,729,0,0
28,295,0,0,0,0,0,0,0,0,0,-1,1252,729,0,0
35,295,0,0,0,0,0,0,0,0,0,-1,1259,729,0,0
42,295,0,0,0,0,0,0,0,0,0,-1,1266,729,0,0
49,295,0,0,0,0,0,0,0,0,0,-1,1273,729,0,0
56,295,0,0,0,0,0,0,0,0,0,-1,1280,729,0,0
63,295,0,0,0,0,0,0,0,0,0,-1,1287,729,0,0
70,295,0,0,0,0,0,0,0,0,0,-1,1294,729,0,0
77,295,0,0,0,0,0,0,0,0,0,-1,1301,729,0,0
84,295,0,0,0,0,0,0,0,0,0,-1,1308,729,0,0
91,295,0,0,0,0,0,0,0,0,0,-1,1315,729,0,0
98,295,0,0,0,0,0,0,0,0,0,-1,1322,729,0,0
105,295,0,0,0,0,0,0,0,0,0,-1,1329,729,0,0
112,295,0,0,0,0,0,0,0,0,0,-1,1336,729,0,0
119,295,0,0,0,0,0,0,0,0,0,-1,1343,729,0,0
126,295,0,0,0,0,0,0,0,0,0,-1,1350,729,0,0
133,295,0,0,0,0,0,0,0,0,0,-1,1357,729,0,0
140,295,0,0,0,0,0,0,0,0,0,-1,1364,729,0,0
147,295,0,0,0,0,0,0,0,0,0,-1,1371,729,0,0
154,295,0,0,0,0,0,0,0,0,0,-1,1378,729,0,0
161,295,0,0,0,0,0,0,0,0,0,-1,1385,729,0,0
168,295,0,0,0,0,0,0,0,0,0,-1,1392,729,0,0
175,295,0,0,0,0,0,0,0,0,0,-1,1399,729,0,0
182,295,0,0,0,0,0,0,0,0,0,-1,1406,729,0,0
189,295,0,0,0,0,0,0,0,0,0,-1,1413,729,0,0
196,295,0,0,0,0,0,0,0,0,0,-1,1420,729,0,0
203,295,0,0,0,0,0,0,0,0,0,-1,1427,729,0,0
210,295,0,0,0,0,0,0,0,0,0,-1,1434,729,0,0
217,295,0,0,0,0,0,0,0,0,0,-1,1441,729,0,0
224,295,0,0,0,0,0,0,0,0,0,-1,1448,729,0,0
231,295,0,0,0,0,0,0,0,0,0,-1,1455,729,0,0
238,295,0,0,0,0,0,0,0,0,0,-1,1462,729,0,0
245,295,0,0,0,0,0,0,0,0,0,-1,1469,729,0,0
252,295,0,0,0,0,0,0,0,0,0,-1,1476,729,0,0
259,295,0,0,0,0,0,0,0,0,0,-1,1483,729,0,0
266,295,0,0,0,0,0,0,0,0,0,-1,1490,729,0,0
273,295,0,0,0,0,0,0,0,0,0,-1,1497,729,0,0
280,295,0,0,0,0,0,0,0,0,0,-1,1504,729,0,0
287,295,0,0,0,0,0,0,0,0,0,-1,1511,729,0,0
294,295,0,0,0,0,0,0,0,0,0,-1,1518,729,0,0
301,295,0,0,0,0,0,0,0,0,0,-1,1525,729,0,0
308,295,0,0,0,0,0,0,0,0,0,-1,1532,729,0,0
315,295,0,0,0,0,0,0,0,0,0,-1,1539,729,0,0
322,295,0,0,0,0,0,0,0,0,0,-1,1546,729,0,0
329,295,0,0,0,0,0,0,0,0,0,-1,1553,729,0,0
336,295,0,0,0,0,0,0,0,0,0,-1,1560,729,0,0
343,295,0,0,0,0,0,0,0,0,0,-1,1567,729,0,0
350,295,0,0,0,0,0,0,0,0,0,-1,1574,729,0,0
357,295,0,0,0,0,0,0,0,0,0,-1,1581,729,0,0
364,295,0,0,0,0,0,0,0,0,0,-1,1588,729,0,0
371,295,0,0,0,0,0,0,0,0,0,-1,1595,729,0,0
378,295,0,0,0,0,0,0,0,0,0,-1,1602,729,0,0
385,295,0,0,0,0,0,0,0,0,0,-1,1609,729,0,0
392,295,0,0,0,0,0,0,0,0,0,-1,1616,729,0,0
399,295,0,0,0,0,0,0,0,0,0,-1,1623,729,0,0
406,295,0,0,0,0,0,0,0,0,0,-1,1630,729,0,0
413,295,0,0,0,0,0,0,0,0,0,-1,1637,729,0,0
420,295,0,0,0,0,0,0,0,0,0,-1,1644,729,0,0
427,295,0,0,0,0,0,0,0,0,0,-1,1651,729,0,0
434,295,0,0,0,0,0,0,0,0,0,-1,1658,729,0,0
441,295,0,0,0,0,0,0,0,0,0,-1,1665,729,0,0
448,295,0,0,0,0,0,0,0,0,0,-1,1672,729,0,0
455,295,0,0,0,0,0,0,0,0,0,-1,1679,729,0,0
462,295,0,0,0,0,0,0,0,0,0,-1,1686,729,0,0
469,295,0,0,0,0,0,0,0,0,0,-1,1693,729,0,0
476,295,0,0,0,0,0,0,0,0,0,-1,1700,729,0,0
483,295,0,0,0,0,0,0,0,0,0,-1,1707,729,0,0
490,295,0,0,0,0,0,0,0,0,0,-1,1714,729,0,0
497,295,0,0,0,0,0,0,0,0,0,-1,1721,729,0,0
504,295,0,0,0,0,0,0,0,0,0,-1,1728,729,0,0
511,295,0,0,0,0,0,0,0,0,0,-1,1735,729,0,0
518,295,0,0,0,0,0,0,0,0,0,-1,1742,729,0,0
525,295,0,0,0,0,0,0,0,0,0,-1,1749,729,0,0
532,295,0,0,0,0,0,0,0,0,0,-1,1756,729,0,0
539,295,0,0,0,0,0,0,0,0,0,-1,1763,729,0,0
546,295,57.4674,2.36884,0,0,0,0,0,0,0,-1,1770,729,57.4674,-2.36883
553,295,57.1969,2.73846,0,0,0,0,0,0,0,-1,1777,729,57.197,-2.73843
560,295,57.0291,3.27454,0,0,0,0,0,0,0,-1,1784,729,57.029,-3.27454
567,295,56.6243,3.88239,0,0,0,0,0,0,0,-1,1791,729,56.6242,-3.8824
574,295,56.5275,4.755,0,0,0,0,0,0,0,-1,1798,729,56.5274,-4.75501
581,295,37.8191,2.19592,0,0,0,0,0,0,0,-1,1805,729,37.8191,-2.19594
588,295,39.0542,2.45679,0,0,0,0,0,0,0,-1,1812,729,39.0542,-2.45676
595,295,27.2102,6.99121,0,0,0,0,0,0,0,-1,1819,729,27.2103,-6.99121
602,295,26.9065,7.82141,0,0,0,0,0,0,0,-1,1826,729,26.9064,-7.8214
609,295,11.7737,2.19989,0,0,0,0,0,0,0,-1,1833,729,11.7736,-2.19988
616,295,39.3094,-8.18011,0,0,0,0,0,0,0,-1,1840,729,39.3095,8.18012
623,295,39.2478,-7.37872,0.00398114,-0.000676861,0.00154241,0.00444557,-0.00114129,0.292474,0.00340844,0.0382287,1847,729,39.2478,7.37875
630,295,39.1974,-6.56537,0.00282141,-0.000315478,0.00139571,0.0033525,-0.000846563,0.363595,0.0025642,0.0143405,1854,729,39.1974,6.56536
637,295,39.1415,-5.76196,0.00201871,3.30735e-05,0.00138016,0.00272605,-0.000674266,0.473601,0.0020789,0.0151728,1861,729,39.1415,5.76193
644,295,39.1066,-4.95959,0.00157164,0.000413526,0.0012636,0.00238254,-0.000397375,0.570547,0.00173604,0.0138614,1868,729,39.1066,4.95958
651,295,39.0811,-4.17041,0.00138045,0.000754755,0.0011923,0.00230027,-0.00016506,0.657095,0.00159139,0.0142023,1875,729,39.081,4.17043
658,295,39.0659,-3.38599,0.00144199,0.00122295,0.00121004,0.00254746,0.000117482,0.740265,0.00166053,0.0133591,1882,729,39.0659,3.386
665,295,39.0385,-2.6062,0.00171068,0.00182058,0.00132919,0.00309595,0.000435309,0.806056,0.00193526,0.0121135,1889,729,39.0385,2.60622
672,295,38.964,-1.82141,0.00214124,0.00257251,0.00157607,0.00394763,0.000766123,0.853386,0.00241719,0.0138765,1896,729,38.964,1.8214
679,295,38.8932,-1.01398,0.00275815,0.00349175,0.00189623,0.00505633,0.00119357,0.880936,0.00305185,0.0108078,1903,729,38.8932,1.01396
686,295,38.9117,-0.230835,0.00362226,0.00458438,0.00236243,0.00651423,0.0016924,0.885839,0.00390298,0.0121746,1910,729,38.9117,0.230819
693,295,38.946,0.544312,0,0,0,0,0,0,0,-1,1917,729,38.9461,-0.544284
700,295,31.3757,2.06982,0,0,0,0,0,0,0,-1,1924,729,31.3758,-2.0698
707,295,22.2661,3.05206,0,0,0,0,0,0,0,-1,1931,729,22.2662,-3.05207
714,295,17.4906,4.63068,0,0,0,0,0,0,0,-1,1938,729,17.4906,-4.63066
721,295,18.3792,5.32281,0,0,0,0,0,0,0,-1,1945,729,18.3791,-5.32283
728,295,17.379,3.74866,0,0,0,0,0,0,0,-1,1952,729,17.379,-3.74863
735,295,0,0,0,0,0,0,0,0,0,-1,1959,729,0,0
742,295,0,0,0,0,0,0,0,0,0,-1,1966,729,0,0
749,295,0,0,0,0,0,0,0,0,0,-1,1973,729,0,0
756,295,0,0,0,0,0,0,0,0,0,-1,1980,729,0,0
763,295,0,0,0,0,0,0,0,0,0,-1,1987,729,0,0
770,295,0,0,0,0,0,0,0,0,0,-1,1994,729,0,0
777,295,0,0,0,0,0,0,0,0,0,-1,2001,729,0,0
784,295,0,0,0,0,0,0,0,0,0,-1,2008,729,0,0
791,295,0,0,0,0,0,0,0,0,0,-1,2015,729,0,0
798,295,0,0,0,0,0,0,0,0,0,-1,2022,729,0,0
805,295,0,0,0,0,0,0,0,0,0,-1,2029,729,0,0
812,295,0,0,0,0,0,0,0,0,0,-1,2036,729,0,0
-700,288,0,0,0,0,0,0,0,0,0,-1,524,736,0,0
-693,288,0,0,0,0,0,0,0,0,0,-1,531,736,0,0
-686,288,0,0,0,0,0,0,0,0,0,-1,538,736,0,0
-679,288,0,0,0,0,0,0,0,0,0,-1,545,736,0,0
-672,288,0,0,0,0,0,0,0,0,0,-1,552,736,0,0
-665,288,0,0,0,0,0,0,0,0,0,-1,559,736,0,0
-658,288,0,0,0,0,0,0,0,0,0,-1,566,736,0,0
-651,288,0,0,0,0,0,0,0,0,0,-1,573,736,0,0
-644,288,0,0,0,0,0,0,0,0,0,-1,580,736,0,0
-637,288,0,0,0,0,0,0,0,0,0,-1,587,736,0,0
-630,288,0,0,0,0,0,0,0,0,0,-1,594,736,0,0
-623,288,0,0,0,0,0,0,0,0,0,-1,601,736,0,0
-616,288,-11.7584,2.4425,0,0,0,0,0,0,0,-1,608,736,-11.7584,-2.44251
-609,288,-10.3007,2.32178,0,0,0,0,0,0,0,-1,615,736,-10.3007,-2.32178
-602,288,-10.1458,-1.85559,0,0,0,0,0,0,0,-1,622,736,-10.1458,1.85556
-595,288,-7.63208,1.81769,0,0,0,0,0,0,0,-1,629,736,-7.63205,-1.81766
-588,288,-8.19269,1.50598,0,0,0,0,0,0,0,-1,636,736,-8.19268,-1.50601
-581,288,-13.1915,0.659241,0,0,0,0,0,0,0,-1,643,736,-13.1915,-0.659228
-574,288,-25.5192,0.0367432,0,0,0,0,0,0,0,-1,650,736,-25.5192,-0.0367457
-567,288,-25.5225,-0.801025,-0.0015274,0.0051704,-0.00207334,0.00576027,-0.00211727,-1.29362,0.00470742,0.0380642,657,736,-25.5225,0.801006
-560,288,-25.7957,-1.6452,-0.00073735,0.00388395,-0.00127359,0.00421169,-0.0010651,-1.31892,0.00322205,0.0172101,664,736,-25.7956,1.64523
-553,288,-25.7913,-2.36475,-9.26394e-05,0.0028321,-0.000709524,0.00299514,-0.000255677,-1.34493,0.00208721,0.0182708,671,736,-25.7913,2.36475
-546,288,-25.8622,-3.13916,0.000216691,0.00165228,-0.000156838,0.00166922,0.000199756,-1.46324,0.00105256,0.0198935,678,736,-25.8622,3.13913
-539,288,-25.928,-3.88647,0.000308265,0.000565587,0.000408752,0.000865449,8.40292e-06,0.937872,0.000574186,0.0175027,685,736,-25.928,3.88645
-532,288,-25.8966,-4.64355,0.000281798,-0.000389612,0.000927292,0.000932282,-0.0010401,0.611724,0.00113932,0.014221,692,736,-25.8966,4.64353
-525,288,-25.9376,-5.40875,0.000174269,-0.00138046,0.00135515,0.000959187,-0.00216538,0.524994,0.00184823,0.0123403,699,736,-25.9376,5.40874
-518,288,-26.0119,-6.17682,0.000352068,-0.00288338,0.00171551,0.00109231,-0.00362363,0.407363,0.00285049,0.0110029,706,736,-26.0119,6.17681
-511,288,-26.0625,-6.91376,0.0011133,-0.00508362,0.00175888,0.00157772,-0.00554804,0.258151,0.00432169,0.00888356,713,736,-26.0625,6.91375
-504,288,-26.0979,-7.65948,0.00292903,-0.00764564,0.00191807,0.00326619,-0.0079828,0.174001,0.00668219,0.0114278,720,736,-26.0979,7.65946
-497,288,-26.1077,-8.23499,0.00514302,-0.0107414,0.00180134,0.00534473,-0.0109431,0.111516,0.00958719,0.0350068,727,736,-26.1077,8.23499
-490,288,-26.0004,-8.7453,0,0,0,0,0,0,0,-1,734,736,-26.0004,8.74529
-483,288,-17.3287,0.564758,0,0,0,0,0,0,0,-1,741,736,-17.3287,-0.56477
-476,288,-26.136,0.452148,0,0,0,0,0,0,0,-1,748,736,-26.136,-0.452177
-469,288,-27.7904,0.649841,0,0,0,0,0,0,0,-1,755,736,-27.7904,-0.649854
-462,288,-44.999,-2.65112,0,0,0,0,0,0,0,-1,762,736,-44.999,2.65111
-455,288,-49.1631,1.86432,0,0,0,0,0,0,0,-1,769,736,-49.1632,-1.8643
-448,288,-48.5654,1.58948,0,0,0,0,0,0,0,-1,776,736,-48.5654,-1.58949
-441,288,-47.7353,1.50165,0,0,0,0,0,0,0,-1,783,736,-47.7353,-1.50164
-434,288,-46.7119,1.66388,0,0,0,0,0,0,0,-1,790,736,-46.7119,-1.66385
-427,288,0,0,0,0,0,0,0,0,0,-1,797,736,0,0
-420,288,0,0,0,0,0,0,0,0,0,-1,804,736,0,0
-413,288,0,0,0,0,0,0,0,0,0,-1,811,736,0,0
-406,288,0,0,0,0,0,0,0,0,0,-1,818,736,0,0
-399,288,0,0,0,0,0,0,0,0,0,-1,825,736,0,0
-392,288,0,0,0,0,0,0,0,0,0,-1,832,736,0,0
-385,288,0,0,0,0,0,0,0,0,0,-1,839,736,0,0
-378,288,0,0,0,0,0,0,0,0,0,-1,846,736,0,0
-371,288,0,0,0,0,0,0,0,0,0,-1,853,736,0,0
-364,288,0,0,0,0,0,0,0,0,0,-1,860,736,0,0
-357,288,0,0,0,0,0,0,0,0,0,-1,867,736,0,0
-350,288,0,0,0,0,0,0,0,0,0,-1,874,736,0,0
-343,288,0,0,0,0,0,0,0,0,0,-1,881,736,0,0
-336,288,0,0,0,0,0,0,0,0,0,-1,888,736,0,0
-329,288,0,0,0,0,0,0,0,0,0,-1,895,736,0,0
-322,288,0,0,0,0,0,0,0,0,0,-1,902,736,0,0
-315,288,0,0,0,0,0,0,0,0,0,-1,909,736,0,0
-308,288,0,0,0,0,0,0,0,0,0,-1,916,736,0,0
-301,288,0,0,0,0,0,0,0,0,0,-1,923,736,0,0
-294,288,0,0,0,0,0,0,0,0,0,-1,930,736,0,0
-287,288,0,0,0,0,0,0,0,0,0,-1,937,736,0,0
-280,288,0,0,0,0,0,0,0,0,0,-1,944,736,0,0
-273,288,0,0,0,0,0,0,0,0,0,-1,951,736,0,0
-266,288,0,0,0,0,0,0,0,0,0,-1,958,736,0,0
-259,288,0,0,0,0,0,0,0,0,0,-1,965,736,0,0
-252,288,0,0,0,0,0,0,0,0,0,-1,972,736,0,0
-245,288,0,0,0,0,0,0,0,0,0,-1,979,736,0,0
-238,288,0,0,0,0,0,0,0,0,0,-1,986,736,0,0
-231,288,0,0,0,0,0,0,0,0,0,-1,993,736,0,0
-224,288,0,0,0,0,0,0,0,0,0,-1,1000,736,0,0
-217,288,0,0,0,0,0,0,0,0,0,-1,1007,736,0,0
-210,288,0,0,0,0,0,0,0,0,0,-1,1014,736,0,0
-203,288,0,0,0,0,0,0,0,0,0,-1,1021,736,0,0
-196,288,0,0,0,0,0,0,0,0,0,-1,1028,736,0,0
-189,288,0,0,0,0,0,0,0,0,0,-1,1035,736,0,0
-182,288,0,0,0,0,0,0,0,0,0,-1,1042,736,0,0
-175,288,0,0,0,0,0,0,0,0,0,-1,1049,736,0,0
-168,288,0,0,0,0,0,0,0,0,0,-1,1056,736,0,0
-161,288,0,0,0,0,0,0,0,0,0,-1,1063,736,0,0
-154,288,0,0,0,0,0,0,0,0,0,-1,1070,736,0,0
-147,288,0,0,0,0,0,0,0,0,0,-1,1077,736,0,0
-140,288,0,0,0,0,0,0,0,0,0,-1,1084,736,0,0
-133,288,0,0,0,0,0,0,0,0,0,-1,1091,736,0,0
-126,288,0,0,0,0,0,0,0,0,0,-1,1098,736,0,0
-119,288,0,0,0,0,0,0,0,0,0,-1,1105,736,0,0
-112,288,0,0,0,0,0,0,0,0,0,-1,1112,736,0,0
-105,288,0,0,0,0,0,0,0,0,0,-1,1119,736,0,0
-98,288,0,0,0,0,0,0,0,0,0,-1,1126,736,0,0
-91,288,0,0,0,0,0,0,0,0,0,-1,1133,736,0,0
-84,288,0,0,0,0,0,0,0,0,0,-1,1140,736,0,0
-77,288,0,0,0,0,0,0,0,0,0,-1,1147,736,0,0
-70,288,0,0,0,0,0,0,0,0,0,-1,1154,736,0,0
-63,288,0,0,0,0,0,0,0,0,0,-1,1161,736,0,0
-56,288,0,0,0,0,0,0,0,0,0,-1,1168,736,0,0
-49,288,0,0,0,0,0,0,0,0,0,-1,1175,736,0,0
-42,288,0,0,0,0,0,0,0,0,0,-1,1182,736,0,0
-35,288,0,0,0,0,0,0,0,0,0,-1,1189,736,0,0
-28,288,0,0,0,0,0,0,0,0,0,-1,1196,736,0,0
-21,288,0,0,0,0,0,0,0,0,0,-1,1203,736,0,0
-14,288,0,0,0,0,0,0,0,0,0,-1,1210,736,0,0
-7,288,0,0,0,0,0,0,0,0,0,-1,1217,736,0,0
0,288,0,0,0,0,0,0,0,0,0,-1,1224,736,0,0
7,288,0,0,0,0,0,0,0,0,0,-1,1231,736,0,0
14,288,0,0,0,0,0,0,0,0,0,-1,1238,736,0,0
21,288,0,0,0,0,0,0,0,0,0,-1,1245,736,0,0
28,288,0,0,0,0,0,0,0,0,0,-1,1252,736,0,0
35,288,0,0,0,0,0,0,0,0,0,-1,1259,736,0,0
42,288,0,0,0,0,0,0,0,0,0,-1,1266,736,0,0
49,288,0,0,0,0,0,0,0,0,0,-1,1273,736,0,0
56,288,0,0,0,0,0,0,0,0,0,-1,1280,736,0,0
63,288,0,0,0,0,0,0,0,0,0,-1,1287,736,0,0
70,288,0,0,0,0,0,0,0,0,0,-1,1294,736,0,0
77,288,0,0,0,0,0,0,0,0,0,-1,1301,736,0,0
84,288,0,0,0,0,0,0,0,0,0,-1,1308,736,0,0
91,288,0,0,0,0,0,0,0,0,0,-1,1315,736,0,0
98,288,0,0,0,0,0,0,0,0,0,-1,1322,736,0,0
105,288,0,0,0,0,0,0,0,0,0,-1,1329,736,0,0
112,288,0,0,0,0,0,0,0,0,0,-1,1336,736,0,0
119,288,0,0,0,0,0,0,0,0,0,-1,1343,736,0,0
126,288,0,0,0,0,0,0,0,0,0,-1,1350,736,0,0
133,288,0,0,0,0,0,0,0,0,0,-1,1357,736,0,0
140,288,0,0,0,0,0,0,0,0,0,-1,1364,736,0,0
147,288,0,0,0,0,0,0,0,0,0,-1,1371,736,0,0
154,288,0,0,0,0,0,0,0,0,0,-1,1378,736,0,0
161,288,0,0,0,0,0,0,0,0,0,-1,1385,736,0,0
168,288,0,0,0,0,0,0,0,0,0,-1,1392,736,0,0
175,288,0,0,0,0,0,0,0,0,0,-1,1399,736,0,0
182,288,0,0,0,0,0,0,0,0,0,-1,1406,736,0,0
189,288,0,0,0,0,0,0,0,0,0,-1,1413,736,0,0
196,288,0,0,0,0,0,0,0,0,0,-1,1420,736,0,0
203,288,0,0,0,0,0,0,0,0,0,-1,1427,736,0,0
210,288,0,0,0,0,0,0,0,0,0,-1,1434,736,0,0
217,288,0,0,0,0,0,0,0,0,0,-1,1441,736,0,0
224,288,0,0,0,0,0,0,0,0,0,-1,1448,736,0,0
231,288,0,0,0,0,0,0,0,0,0,-1,1455,736,0,0
238,288,0,0,0,0,0,0,0,0,0,-1,1462,736,0,0
245,288,0,0,0,0,0,0,0,0,0,-1,1469,736,0,0
252,288,0,0,0,0,0,0,0,0,0,-1,1476,736,0,0
259,288,0,0,0,0,0,0,0,0,0,-1,1483,736,0,0
266,288,0,0,0,0,0,0,0,0,0,-1,1490,736,0,0
273,288,0,0,0,0,0,0,0,0,0,-1,1497,736,0,0
280,288,0,0,0,0,0,0,0,0,0,-1,1504,736,0,0
287,288,0,0,0,0,0,0,0,0,0,-1,1511,736,0,0
294,288,0,0,0,0,0,0,0,0,0,-1,1518,736,0,0
301,288,0,0,0,0,0,0,0,0,0,-1,1525,736,0,0
308,288,0,0,0,0,0,0,0,0,0,-1,1532,736,0,0
315,288,0,0,0,0,0,0,0,0,0,-1,1539,736,0,0
322,288,0,0,0,0,0,0,0,0,0,-1,1546,736,0,0
329,288,0,0,0,0,0,0,0,0,0,-1,1553,736,0,0
336,288,0,0,0,0,0,0,0,0,0,-1,1560,736,0,0
343,288,0,0,0,0,0,0,0,0,0,-1,1567,736,0,0
350,288,0,0,0,0,0,0,0,0,0,-1,1574,736,0,0
357,288,0,0,0,0,0,0,0,0,0,-1,1581,736,0,0
364,288,0,0,0,0,0,0,0,0,0,-1,1588,736,0,0
371,288,0,0,0,0,0,0,0,0,0,-1,1595,736,0,0
378,288,0,0,0,0,0,0,0,0,0,-1,1602,736,0,0
385,288,0,0,0,0,0,0,0,0,0,-1,1609,736,0,0
392,288,0,0,0,0,0,0,0,0,0,-1,1616,736,0,0
399,288,0,0,0,0,0,0,0,0,0,-1,1623,736,0,0
406,288,0,0,0,0,0,0,0,0,0,-1,1630,736,0,0
413,288,0,0,0,0,0,0,0,0,0,-1,1637,736,0,0
420,288,0,0,0,0,0,0,0,0,0,-1,1644,736,0,0
427,288,0,0,0,0,0,0,0,0,0,-1,1651,736,0,0
434,288,0,0,0,0,0,0,0,0,0,-1,1658,736,0,0
441,288,0,0,0,0,0,0,0,0,0,-1,1665,736,0,0
448,288,0,0,0,0,0,0,0,0,0,-1,1672,736,0,0
455,288,0,0,0,0,0,0,0,0,0,-1,1679,736,0,0
462,288,0,0,0,0,0,0,0,0,0,-1,1686,736,0,0
469,288,0,0,0,0,0,0,0,0,0,-1,1693,736,0,0
476,288,0,0,0,0,0,0,0,0,0,-1,1700,736,0,0
483,288,0,0,0,0,0,0,0,0,0,-1,1707,736,0,0
490,288,0,0,0,0,0,0,0,0,0,-1,1714,736,0,0
497,288,0,0,0,0,0,0,0,0,0,-1,1721,736,0,0
504,288,0,0,0,0,0,0,0,0,0,-1,1728,736,0,0
511,288,0,0,0,0,0,0,0,0,0,-1,1735,736,0,0
518,288,0,0,0,0,0,0,0,0,0,-1,1742,736,0,0
525,288,0,0,0,0,0,0,0,0,0,-1,1749,736,0,0
532,288,0,0,0,0,0,0,0,0,0,-1,1756,736,0,0
539,288,0,0,0,0,0,0,0,0,0,-1,1763,736,0,0
546,288,0,0,0,0,0,0,0,0,0,-1,1770,736,0,0
553,288,57.4934,2.28064,0,0,0,0,0,0,0,-1,1777,736,57.4934,-2.28064
560,288,57.3807,3.02881,0,0,0,0,0,0,0,-1,1784,736,57.3808,-3.0288
567,288,57.2081,3.74274,0,0,0,0,0,0,0,-1,1791,736,57.2081,-3.74273
574,288,56.9817,4.36981,0,0,0,0,0,0,0,-1,1798,736,56.9816,-4.36984
581,288,53.4904,5.33215,0,0,0,0,0,0,0,-1,1805,736,53.4904,-5.33218
588,288,54.9313,3.29852,0,0,0,0,0,0,0,-1,1812,736,54.9313,-3.29849
595,288,47.035,3.35156,0,0,0,0,0,0,0,-1,1819,736,47.035,-3.35157
602,288,26.7634,7.61279,0,0,0,0,0,0,0,-1,1826,736,26.7635,-7.61279
609,288,17.5223,4.86414,0,0,0,0,0,0,0,-1,1833,736,17.5223,-4.86412
616,288,13.4886,0.801331,0,0,0,0,0,0,0,-1,1840,736,13.4886,-0.80132
623,288,40.0244,-7.36267,0,0,0,0,0,0,0,-1,1847,736,40.0244,7.36266
630,288,39.9709,-6.48816,0.00400445,-0.000396895,0.00170441,0.0045873,-0.00097974,0.329497,0.00343172,0.0293662,1854,736,39.971,6.48816
637,288,39.9398,-5.70648,0.00283384,6.7019e-05,0.00178691,0.00371027,-0.000809414,0.455997,0.00278283,0.012075,1861,736,39.9399,5.70647
644,288,39.9026,-4.92181,0.00199909,0.000442011,0.0015847,0.00298617,-0.000545062,0.557072,0.00219514,0.0109118,1868,736,39.9026,4.92183
651,288,39.8829,-4.14838,0.00153371,0.000661309,0.00134471,0.00251119,-0.000316178,0.628562,0.00178886,0.0118683,1875,736,39.8829,4.14837
658,288,39.8838,-3.32654,0.00150313,0.00100597,0.00126034,0.00253917,-3.00637e-05,0.688032,0.00170289,0.0166605,1882,736,39.8838,3.32652
665,288,39.8083,-2.55536,0.00172508,0.00151242,0.00130562,0.00292869,0.000308806,0.744768,0.0018581,0.0175738,1889,736,39.8083,2.55533
672,288,39.756,-1.78076,0.00209677,0.00217815,0.00148873,0.00362675,0.000648166,0.799061,0.00223335,0.0167091,1896,736,39.7559,1.78074
679,288,39.709,-0.967896,0.00264717,0.0029963,0.00174117,0.00457164,0.00107184,0.83536,0.00276073,0.0143018,1903,736,39.709,0.967867
686,288,39.6667,-0.213074,0.00341321,0.00399584,0.00213417,0.00585848,0.00155057,0.853229,0.00350505,0.0115926,1910,736,39.6668,0.213072
693,288,39.6731,0.65863,0.00458131,0.00539637,0.00279016,0.0078086,0.00216908,0.857916,0.00465435,0.0259647,1917,736,39.6731,-0.658649
700,288,39.6716,1.59979,0,0,0,0,0,0,0,-1,1924,736,39.6716,-1.5998
707,288,30.9496,3.07977,0,0,0,0,0,0,0,-1,1931,736,30.9496,-3.07975
714,288,23.0149,3.82544,0,0,0,0,0,0,0,-1,1938,736,23.0149,-3.82541
721,288,18.0732,3.69385,0,0,0,0,0,0,0,-1,1945,736,18.0732,-3.69387
728,288,19.3208,3.91455,0,0,0,0,0,0,0,-1,1952,736,19.3209,-3.91455
735,288,18.7712,3.51312,0,0,0,0,0,0,0,-1,1959,736,18.7713,-3.51309
742,288,0,0,0,0,0,0,0,0,0,-1,1966,736,0,0
749,288,0,0,0,0,0,0,0,0,0,-1,1973,736,0,0
756,288,0,0,0,0,0,0,0,0,0,-1,1980,736,0,0
763,288,0,0,0,0,0,0,0,0,0,-1,1987,736,0,0
770,288,0,0,0,0,0,0,0,0,0,-1,1994,736,0,0
777,288,0,0,0,0,0,0,0,0,0,-1,2001,736,0,0
784,288,0,0,0,0,0,0,0,0,0,-1,2008,736,0,0
791,288,0,0,0,0,0,0,0,0,0,-1,2015,736,0,0
798,288,0,0,0,0,0,0,0,0,0,-1,2022,736,0,0
805,288,0,0,0,0,0,0,0,0,0,-1,2029,736,0,0
812,288,0,0,0,0,0,0,0,0,0,-1,2036,736,0,0
-700,281,0,0,0,0,0,0,0,0,0,-1,524,743,0,0
-693,281,0,0,0,0,0,0,0,0,0,-1,531,743,0,0
-686,281,0,0,0,0,0,0,0,0,0,-1,538,743,0,0
-679,281,0,0,0,0,0,0,0,0,0,-1,545,743,0,0
-672,281,0,0,0,0,0,0,0,0,0,-1,552,743,0,0
-665,281,0,0,0,0,0,0,0,0,0,-1,559,743,0,0
-658,281,0,0,0,0,0,0,0,0,0,-1,566,743,0,0
-651,281,0,0,0,0,0,0,0,0,0,-1,573,743,0,0
-644,281,0,0,0,0,0,0,0,0,0,-1,580,743,0,0
-637,281,0,0,0,0,0,0,0,0,0,-1,587,743,0,0
-630,281,0,0,0,0,0,0,0,0,0,-1,594,743,0,0
-623,281,-19.1697,5.67017,0,0,0,0,0,0,0,-1,601,743,-19.1697,-5.67019
-616,281,-11.5906,2.6853,0,0,0,0,0,0,0,-1,608,743,-11.5906,-2.68529
-609,281,-16.1972,4.14838,0,0,0,0,0,0,0,-1,615,743,-16.1972,-4.14837
-602,281,-21.9772,6.77417,0,0,0,0,0,0,0,-1,622,743,-21.9771,-6.77415
-595,281,-10.4797,-1.07404,0,0,0,0,0,0,0,-1,629,743,-10.4798,1.07402
-588,281,-13.277,1.49817,0,0,0,0,0,0,0,-1,636,743,-13.2771,-1.49817
-581,281,-26.4722,0.842834,0,0,0,0,0,0,0,-1,643,743,-26.4723,-0.842833
-574,281,-26.337,-0.00164795,-0.00203405,0.00621743,-0.00401488,0.00784852,-0.00366514,-1.18491,0.0067921,0.0438454,650,743,-26.337,0.00164665
-567,281,-26.4983,-0.782349,-0.00148184,0.00457609,-0.00250827,0.00547982,-0.00238556,-1.22498,0.00465674,0.0219931,657,743,-26.4983,0.782324
-560,281,-26.5837,-1.56012,-0.00100552,0.00328442,-0.00144826,0.00372756,-0.00144867,-1.27386,0.00308353,0.00922029,664,743,-26.5837,1.56011
-553,281,-26.592,-2.3233,-0.00059371,0.00214681,-0.000640684,0.0022892,-0.000736093,-1.35211,0.00182176,0.0141012,671,743,-26.5921,2.32328
-546,281,-26.6213,-3.0517,-0.000381361,0.000977973,7.79134e-05,0.000982424,-0.000385813,1.51373,0.0008146,0.0160203,678,743,-26.6213,3.05169
-539,281,-26.6702,-3.8175,-0.000350447,-0.000167792,0.000806089,0.000552127,-0.00107037,0.841806,0.000952541,0.0147564,685,743,-26.6702,3.81748
-532,281,-26.6929,-4.54712,-0.000390706,-0.00116481,0.00142786,0.000701626,-0.00225715,0.653042,0.00178521,0.0147088,692,743,-26.6929,4.54714
-525,281,-26.7523,-5.32269,-0.000441796,-0.00216481,0.0018872,0.000771241,-0.00337785,0.571276,0.00254818,0.0165579,699,743,-26.7523,5.32271
-518,281,-26.7975,-6.11566,1.92634e-05,-0.00393444,0.00216628,0.000975106,-0.00489029,0.415543,0.00362916,0.0133477,706,743,-26.7975,6.11565
-511,281,-26.8347,-6.8963,0.00122802,-0.00647177,0.00201656,0.00172418,-0.00696793,0.241251,0.00531408,0.0120952,713,743,-26.8347,6.89633
-504,281,-26.906,-7.6543,0.00356236,-0.00925272,0.00203509,0.00387778,-0.00956814,0.153766,0.00799137,0.0161929,720,743,-26.906,7.65428
-497,281,-26.8359,-8.41162,0.00611764,-0.0124925,0.00175662,0.006282,-0.0126568,0.093293,0.0111389,0.0497448,727,743,-26.8359,8.4116
-490,281,-26.6901,-9.1051,0,0,0,0,0,0,0,-1,734,743,-26.6901,9.1051
-483,281,-22.1078,-2.34973,0,0,0,0,0,0,0,-1,741,743,-22.1078,2.3497
-476,281,-28.0016,2.17786,0,0,0,0,0,0,0,-1,748,743,-28.0016,-2.17786
-469,281,-34.6448,0.171692,0,0,0,0,0,0,0,-1,755,743,-34.6448,-0.171685
-462,281,-46.6214,0.0193481,0,0,0,0,0,0,0,-1,762,743,-46.6214,-0.0193665
-455,281,-49.1075,1.17645,0,0,0,0,0,0,0,-1,769,743,-49.1075,-1.17644
-448,281,-49.0774,1.43488,0,0,0,0,0,0,0,-1,776,743,-49.0774,-1.43486
-441,281,-48.6077,1.65411,0,0,0,0,0,0,0,-1,783,743,-48.6077,-1.65409
-434,281,0,0,0,0,0,0,0,0,0,-1,790,743,0,0
-427,281,0,0,0,0,0,0,0,0,0,-1,797,743,0,0
-420,281,0,0,0,0,0,0,0,0,0,-1,804,743,0,0
-413,281,0,0,0,0,0,0,0,0,0,-1,811,743,0,0
-406,281,0,0,0,0,0,0,0,0,0,-1,818,743,0,0
-399,281,0,0,0,0,0,0,0,0,0,-1,825,743,0,0
-392,281,0,0,0,0,0,0,0,0,0,-1,832,743,0,0
-385,281,0,0,0,0,0,0,0,0,0,-1,839,743,0,0
-378,281,0,0,0,0,0,0,0,0,0,-1,846,743,0,0
-371,281,0,0,0,0,0,0,0,0,0,-1,853,743,0,0
-364,281,0,0,0,0,0,0,0,0,0,-1,860,743,0,0
-357,281,0,0,0,0,0,0,0,0,0,-1,867,743,0,0
-350,281,0,0,0,0,0,0,0,0,0,-1,874,743,0,0
-343,281,0,0,0,0,0,0,0,0,0,-1,881,743,0,0
-336,281,0,0,0,0,0,0,0,0,0,-1,888,743,0,0
-329,281,0,0,0,0,0,0,0,0,0,-1,895,743,0,0
-322,281,0,0,0,0,0,0,0,0,0,-1,902,743,0,0
-315,281,0,0,0,0,0,0,0,0,0,-1,909,743,0,0
-308,281,0,0,0,0,0,0,0,0,0,-1,916,743,0,0
-301,281,0,0,0,0,0,0,0,0,0,-1,923,743,0,0
-294,281,0,0,0,0,0,0,0,0,0,-1,930,743,0,0
-287,281,0,0,0,0,0,0,0,0,0,-1,937,743,0,0
-280,281,0,0,0,0,0,0,0,0,0,-1,944,743,0,0
-273,281,0,0,0,0,0,0,0,0,0,-1,951,743,0,0
-266,281,0,0,0,0,0,0,0,0,0,-1,958,743,0,0
-259,281,0,0,0,0,0,0,0,0,0,-1,965,743,0,0
-252,281,0,0,0,0,0,0,0,0,0,-1,972,743,0,0
-245,281,0,0,0,0,0,0,0,0,0,-1,979,743,0,0
-238,281,0,0,0,0,0,0,0,0,0,-1,986,743,0,0
-231,281,0,0,0,0,0,0,0,0,0,-1,993,743,0,0
-224,281,0,0,0,0,0,0,0,0,0,-1,1000,743,0,0
-217,281,0,0,0,0,0,0,0,0,0,-1,1007,743,0,0
-210,281,0,0,0,0,0,0,0,0,0,-1,1014,743,0,0
-203,281,0,0,0,0,0,0,0,0,0,-1,1021,743,0,0
-196,281,0,0,0,0,0,0,0,0,0,-1,1028,743,0,0
-189,281,0,0,0,0,0,0,0,0,0,-1,1035,743,0,0
-182,281,0,0,0,0,0,0,0,0,0,-1,1042,743,0,0
-175,281,0,0,0,0,0,0,0,0,0,-1,1049,743,0,0
-168,281,0,0,0,0,0,0,0,0,0,-1,1056,743,0,0
-161,281,0,0,0,0,0,0,0,0,0,-1,1063,743,0,0
-154,281,0,0,0,0,0,0,0,0,0,-1,1070,743,0,0
-147,281,0,0,0,0,0,0,0,0,0,-1,1077,743,0,0
-140,281,0,0,0,0,0,0,0,0,0,-1,1084,743,0,0
-133,281,0,0,0,0,0,0,0,0,0,-1,1091,743,0,0
-126,281,0,0,0,0,0,0,0,0,0,-1,1098,743,0,0
-119,281,0,0,0,0,0,0,0,0,0,-1,1105,743,0,0
-112,281,0,0,0,0,0,0,0,0,0,-1,1112,743,0,0
-105,281,0,0,0,0,0,0,0,0,0,-1,1119,743,0,0
-98,281,0,0,0,0,0,0,0,0,0,-1,1126,743,0,0
-91,281,0,0,0,0,0,0,0,0,0,-1,1133,743,0,0
-84,281,0,0,0,0,0,0,0,0,0,-1,1140,743,0,0
-77,281,0,0,0,0,0,0,0,0,0,-1,1147,743,0,0
-70,281,0,0,0,0,0,0,0,0,0,-1,1154,743,0,0
-63,281,0,0,0,0,0,0,0,0,0,-1,1161,743,0,0
-56,281,0,0,0,0,0,0,0,0,0,-1,1168,743,0,0
-49,281,0,0,0,0,0,0,0,0,0,-1,1175,743,0,0
-42,281,0,0,0,0,0,0,0,0,0,-1,1182,743,0,0
-35,281,0,0,0,0,0,0,0,0,0,-1,1189,743,0,0
-28,281,0,0,0,0,0,0,0,0,0,-1,1196,743,0,0
-21,281,0,0,0,0,0,0,0,0,0,-1,1203,743,0,0
-14,281,0,0,0,0,0,0,0,0,0,-1,1210,743,0,0
-7,281,0,0,0,0,0,0,0,0,0,-1,1217,743,0,0
0,281,0,0,0,0,0,0,0,0,0,-1,1224,743,0,0
7,281,0,0,0,0,0,0,0,0,0,-1,1231,743,0,0
14,281,0,0,0,0,0,0,0,0,0,-1,1238,743,0,0
21,281,0,0,0,0,0,0,0,0,0,-1,1245,743,0,0
28,281,0,0,0,0,0,0,0,0,0,-1,1252,743,0,0
35,281,0,0,0,0,0,0,0,0,0,-1,1259,743,0,0
42,281,0,0,0,0,0,0,0,0,0,-1,1266,743,0,0
49,281,0,0,0,0,0,0,0,0,0,-1,1273,743,0,0
56,281,0,0,0,0,0,0,0,0,0,-1,1280,743,0,0
63,281,0,0,0,0,0,0,0,0,0,-1,1287,743,0,0
70,281,0,0,0,0,0,0,0,0,0,-1,1294,743,0,0
77,281,0,0,0,0,0,0,0,0,0,-1,1301,743,0,0
84,281,0,0,0,0,0,0,0,0,0,-1,1308,743,0,0
91,281,0,0,0,0,0,0,0,0,0,-1,1315,743,0,0
98,281,0,0,0,0,0,0,0,0,0,-1,1322,743,0,0
105,281,0,0,0,0,0,0,0,0,0,-1,1329,743,0,0
112,281,0,0,0,0,0,0,0,0,0,-1,1336,743,0,0
119,281,0,0,0,0,0,0,0,0,0,-1,1343,743,0,0
126,281,0,0,0,0,0,0,0,0,0,-1,1350,743,0,0
133,281,0,0,0,0,0,0,0,0,0,-1,1357,743,0,0
140,281,0,0,0,0,0,0,0,0,0,-1,1364,743,0,0
147,281,0,0,0,0,0,0,0,0,0,-1,1371,743,0,0
154,281,0,0,0,0,0,0,0,0,0,-1,1378,743,0,0
161,281,0,0,0,0,0,0,0,0,0,-1,1385,743,0,0
168,281,0,0,0,0,0,0,0,0,0,-1,1392,743,0,0
175,281,0,0,0,0,0,0,0,0,0,-1,1399,743,0,0
182,281,0,0,0,0,0,0,0,0,0,-1,1406,743,0,0
189,281,0,0,0,0,0,0,0,0,0,-1,1413,743,0,0
196,281,0,0,0,0,0,0,0,0,0,-1,1420,743,0,0
203,281,0,0,0,0,0,0,0,0,0,-1,1427,743,0,0
210,281,0,0,0,0,0,0,0,0,0,-1,1434,743,0,0
217,281,0,0,0,0,0,0,0,0,0,-1,1441,743,0,0
224,281,0,0,0,0,0,0,0,0,0,-1,1448,743,0,0
231,281,0,0,0,0,0,0,0,0,0,-1,1455,743,0,0
238,281,0,0,0,0,0,0,0,0,0,-1,1462,743,0,0
245,281,0,0,0,0,0,0,0,0,0,-1,1469,743,0,0
252,281,0,0,0,0,0,0,0,0,0,-1,1476,743,0,0
259,281,0,0,0,0,0,0,0,0,0,-1,1483,743,0,0
266,281,0,0,0,0,0,0,0,0,0,-1,1490,743,0,0
273,281,0,0,0,0,0,0,0,0,0,-1,1497,743,0,0
280,281,0,0,0,0,0,0,0,0,0,-1,1504,743,0,0
287,281,0,0,0,0,0,0,0,0,0,-1,1511,743,0,0
294,281,0,0,0,0,0,0,0,0,0,-1,1518,743,0,0
301,281,0,0,0,0,0,0,0,0,0,-1,1525,743,0,0
308,281,0,0,0,0,0,0,0,0,0,-1,1532,743,0,0
315,281,0,0,0,0,0,0,0,0,0,-1,1539,743,0,0
322,281,0,0,0,0,0,0,0,0,0,-1,1546,743,0,0
329,281,0,0,0,0,0,0,0,0,0,-1,1553,743,0,0
336,281,0,0,0,0,0,0,0,0,0,-1,1560,743,0,0
343,281,0,0,0,0,0,0,0,0,0,-1,1567,743,0,0
350,281,0,0,0,0,0,0,0,0,0,-1,1574,743,0,0
357,281,0,0,0,0,0,0,0,0,0,-1,1581,743,0,0
364,281,0,0,0,0,0,0,0,0,0,-1,1588,743,0,0
371,281,0,0,0,0,0,0,0,0,0,-1,1595,743,0,0
378,281,0,0,0,0,0,0,0,0,0,-1,1602,743,0,0
385,281,0,0,0,0,0,0,0,0,0,-1,1609,743,0,0
392,281,0,0,0,0,0,0,0,0,0,-1,1616,743,0,0
399,281,0,0,0,0,0,0,0,0,0,-1,1623,743,0,0
406,281,0,0,0,0,0,0,0,0,0,-1,1630,743,0,0
413,281,0,0,0,0,0,0,0,0,0,-1,1637,743,0,0
420,281,0,0,0,0,0,0,0,0,0,-1,1644,743,0,0
427,281,0,0,0,0,0,0,0,0,0,-1,1651,743,0,0
434,281,0,0,0,0,0,0,0,0,0,-1,1658,743,0,0
441,281,0,0,0,0,0,0,0,0,0,-1,1665,743,0,0
448,281,0,0,0,0,0,0,0,0,0,-1,1672,743,0,0
455,281,0,0,0,0,0,0,0,0,0,-1,1679,743,0,0
462,281,0,0,0,0,0,0,0,0,0,-1,1686,743,0,0
469,281,0,0,0,0,0,0,0,0,0,-1,1693,743,0,0
476,281,0,0,0,0,0,0,0,0,0,-1,1700,743,0,0
483,281,0,0,0,0,0,0,0,0,0,-1,1707,743,0,0
490,281,0,0,0,0,0,0,0,0,0,-1,1714,743,0,0
497,281,0,0,0,0,0,0,0,0,0,-1,1721,743,0,0
504,281,0,0,0,0,0,0,0,0,0,-1,1728,743,0,0
511,281,0,0,0,0,0,0,0,0,0,-1,1735,743,0,0
518,281,0,0,0,0,0,0,0,0,0,-1,1742,743,0,0
525,281,0,0,0,0,0,0,0,0,0,-1,1749,743,0,0
532,281,0,0,0,0,0,0,0,0,0,-1,1756,743,0,0
539,281,0,0,0,0,0,0,0,0,0,-1,1763,743,0,0
546,281,0,0,0,0,0,0,0,0,0,-1,1770,743,0,0
553,281,0,0,0,0,0,0,0,0,0,-1,1777,743,0,0
560,281,57.8354,3.06482,0,0,0,0,0,0,0,-1,1784,743,57.8354,-3.06479
567,281,57.6156,3.64508,0,0,0,0,0,0,0,-1,1791,743,57.6156,-3.64511
574,281,57.3431,4.17767,0,0,0,0,0,0,0,-1,1798,743,57.3431,-4.17769
581,281,57.0648,4.53906,0,0,0,0,0,0,0,-1,1805,743,57.0648,-4.53908
588,281,53.5422,6.00092,0,0,0,0,0,0,0,-1,1812,743,53.5422,-6.00092
595,281,54.8569,3.32269,0,0,0,0,0,0,0,-1,1819,743,54.857,-3.32269
602,281,45.9985,3.98254,0,0,0,0,0,0,0,-1,1826,743,45.9985,-3.98254
609,281,32.7925,1.28723,0,0,0,0,0,0,0,-1,1833,743,32.7925,-1.28722
616,281,21.3191,-0.253906,0,0,0,0,0,0,0,-1,1840,743,21.3191,0.253931
623,281,31.8741,-4.74182,0,0,0,0,0,0,0,-1,1847,743,31.8741,4.74184
630,281,40.7281,-6.39111,0,0,0,0,0,0,0,-1,1854,743,40.7281,6.39113
637,281,40.6865,-5.68671,0.00365219,0.00015376,0.00206621,0.00461018,-0.000804232,0.434145,0.00337364,0.0199306,1861,743,40.6865,5.68668
644,281,40.692,-4.90546,0.0025375,0.000474993,0.00193641,0.00370014,-0.00068765,0.540721,0.00272506,0.0105051,1868,743,40.6921,4.90543
651,281,40.683,-4.11462,0.0017254,0.000600869,0.00155534,0.00281698,-0.000490714,0.611954,0.00206112,0.011719,1875,743,40.6829,4.11459
658,281,40.6688,-3.30713,0.00151953,0.000808478,0.00136099,0.00257067,-0.00024266,0.657641,0.00180012,0.0210119,1882,743,40.6688,3.30715
665,281,40.5848,-2.54022,0.00164763,0.00122591,0.00130737,0.00276104,0.000112498,0.705444,0.00180436,0.0208664,1889,743,40.5848,2.54024
672,281,40.5234,-1.74683,0.00193637,0.00180677,0.00140408,0.00327715,0.000465999,0.762339,0.00204719,0.0138411,1896,743,40.5235,1.74682
679,281,40.4972,-0.963318,0.0024046,0.00252775,0.00157373,0.0040411,0.000891242,0.804952,0.0024516,0.0219185,1903,743,40.4972,0.963308
686,281,40.4194,-0.204224,0.00307954,0.0034288,0.00188665,0.00514889,0.00135945,0.831547,0.00308109,0.0169918,1910,743,40.4195,0.204201
693,281,40.3978,0.597229,0.004093,0.00463698,0.002433,0.00681315,0.00191684,0.841063,0.00405701,0.0125309,1917,743,40.3978,-0.597242
700,281,40.3601,1.4314,0.00557224,0.00611715,0.00329534,0.00915128,0.00253811,0.826644,0.00545531,0.0407237,1924,743,40.3602,-1.43143
707,281,40.2004,2.36993,0,0,0,0,0,0,0,-1,1931,743,40.2004,-2.36991
714,281,25.0125,2.5105,0,0,0,0,0,0,0,-1,1938,743,25.0124,-2.51053
721,281,16.9656,3.22174,0,0,0,0,0,0,0,-1,1945,743,16.9656,-3.22172
728,281,19.0251,3.63934,0,0,0,0,0,0,0,-1,1952,743,19.0252,-3.63932
735,281,19.0869,2.50311,0,0,0,0,0,0,0,-1,1959,743,19.0869,-2.5031
742,281,0,0,0,0,0,0,0,0,0,-1,1966,743,0,0
749,281,0,0,0,0,0,0,0,0,0,-1,1973,743,0,0
756,281,0,0,0,0,0,0,0,0,0,-1,1980,743,0,0
763,281,0,0,0,0,0,0,0,0,0,-1,1987,743,0,0
770,281,0,0,0,0,0,0,0,0,0,-1,1994,743,0,0
777,281,0,0,0,0,0,0,0,0,0,-1,2001,743,0,0
784,281,0,0,0,0,0,0,0,0,0,-1,2008,743,0,0
791,281,0,0,0,0,0,0,0,0,0,-1,2015,743,0,0
798,281,0,0,0,0,0,0,0,0,0,-1,2022,743,0,0
805,281,0,0,0,0,0,0,0,0,0,-1,2029,743,0,0
812,281,0,0,0,0,0,0,0,0,0,-1,2036,743,0,0
-700,274,0,0,0,0,0,0,0,0,0,-1,524,750,0,0
-693,274,0,0,0,0,0,0,0,0,0,-1,531,750,0,0
-686,274,0,0,0,0,0,0,0,0,0,-1,538,750,0,0
-679,274,0,0,0,0,0,0,0,0,0,-1,545,750,0,0
-672,274,0,0,0,0,0,0,0,0,0,-1,552,750,0,0
-665,274,0,0,0,0,0,0,0,0,0,-1,559,750,0,0
-658,274,0,0,0,0,0,0,0,0,0,-1,566,750,0,0
-651,274,0,0,0,0,0,0,0,0,0,-1,573,750,0,0
-644,274,0,0,0,0,0,0,0,0,0,-1,580,750,0,0
-637,274,0,0,0,0,0,0,0,0,0,-1,587,750,0,0
-630,274,0,0,0,0,0,0,0,0,0,-1,594,750,0,0
-623,274,-19.6909,5.12701,0,0,0,0,0,0,0,-1,601,750,-19.6908,-5.12703
-616,274,-17.9133,3.9024,0,0,0,0,0,0,0,-1,608,750,-17.9133,-3.90239
-609,274,-26.0861,5.57306,0,0,0,0,0,0,0,-1,615,750,-26.0861,-5.57307
-602,274,-25.7372,3.73846,0,0,0,0,0,0,0,-1,622,750,-25.7372,-3.73849
-595,274,-25.258,2.53473,0,0,0,0,0,0,0,-1,629,750,-25.258,-2.53474
-588,274,-24.9805,2.2334,0,0,0,0,0,0,0,-1,636,750,-24.9805,-2.23341
-581,274,-27.2682,0.665894,0,0,0,0,0,0,0,-1,643,750,-27.2682,-0.665921
-574,274,-27.1072,-0.0786743,-0.0014541,0.00563748,-0.00442698,0.00776362,-0.00358024,-1.12306,0.00669618,0.0288495,650,750,-27.1073,0.0786618
-567,274,-27.3066,-0.786499,-0.00128892,0.00404667,-0.00270028,0.00517475,-0.002417,-1.17507,0.00447846,0.0281969,657,750,-27.3066,0.786491
-560,274,-27.3417,-1.50806,-0.00108618,0.00276092,-0.00144248,0.0032417,-0.00156696,-1.24908,0.00283185,0.0147745,664,750,-27.3417,1.50803
-553,274,-27.3788,-2.27917,-0.000889195,0.00155996,-0.0004447,0.00163821,-0.00096744,-1.39663,0.0015209,0.00996027,671,750,-27.3788,2.27917
-546,274,-27.4265,-3.02533,-0.00078592,0.000392928,0.000429215,0.000532645,-0.000925637,1.2561,0.000852069,0.0118415,678,750,-27.4264,3.02533
-539,274,-27.456,-3.77856,-0.000790674,-0.000774602,0.00125688,0.000474267,-0.00203954,0.788595,0.00154229,0.0126972,685,750,-27.456,3.77859
-532,274,-27.4943,-4.51593,-0.000790452,-0.00174183,0.00192612,0.000717852,-0.00325014,0.664337,0.00244148,0.0134255,692,750,-27.4943,4.51594
-525,274,-27.5419,-5.25507,-0.000677024,-0.00263709,0.00234378,0.000883366,-0.00419748,0.587374,0.00313454,0.0135588,699,750,-27.5419,5.25504
-518,274,-27.5734,-6.05444,0.000166801,-0.00451876,0.00244913,0.00121325,-0.00556521,0.403794,0.00417375,0.0136805,706,750,-27.5734,6.05444
-511,274,-27.6052,-6.86774,0.00174667,-0.00710808,0.00210831,0.00222303,-0.00758444,0.222213,0.00593768,0.0162139,713,750,-27.6052,6.86774
-504,274,-27.7249,-7.69751,0.00433015,-0.0097974,0.00199858,0.00460744,-0.0100747,0.137863,0.00867042,0.0303332,720,750,-27.7249,7.69753
-497,274,-27.9073,-8.55237,0,0,0,0,0,0,0,-1,727,750,-27.9073,8.55237
-490,274,-13.6545,-3.58826,0,0,0,0,0,0,0,-1,734,750,-13.6546,3.58825
-483,274,-27.8608,1.30981,0,0,0,0,0,0,0,-1,741,750,-27.8608,-1.30979
-476,274,-33.7561,-0.508606,0,0,0,0,0,0,0,-1,748,750,-33.7561,0.508636
-469,274,-41.1387,0.907715,0,0,0,0,0,0,0,-1,755,750,-41.1387,-0.907744
-462,274,-51.5275,-0.998474,0,0,0,0,0,0,0,-1,762,750,-51.5275,0.998478
-455,274,-49.0599,1.32117,0,0,0,0,0,0,0,-1,769,750,-49.0599,-1.32118
-448,274,-48.9332,1.2182,0,0,0,0,0,0,0,-1,776,750,-48.9332,-1.21822
-441,274,0,0,0,0,0,0,0,0,0,-1,783,750,0,0
-434,274,0,0,0,0,0,0,0,0,0,-1,790,750,0,0
-427,274,0,0,0,0,0,0,0,0,0,-1,797,750,0,0
-420,274,0,0,0,0,0,0,0,0,0,-1,804,750,0,0
-413,274,0,0,0,0,0,0,0,0,0,-1,811,750,0,0
-406,274,0,0,0,0,0,0,0,0,0,-1,818,750,0,0
-399,274,0,0,0,0,0,0,0,0,0,-1,825,750,0,0
-392,274,0,0,0,0,0,0,0,0,0,-1,832,750,0,0
-385,274,0,0,0,0,0,0,0,0,0,-1,839,750,0,0
-378,274,0,0,0,0,0,0,0,0,0,-1,846,750,0,0
-371,274,0,0,0,0,0,0,0,0,0,-1,853,750,0,0
-364,274,0,0,0,0,0,0,0,0,0,-1,860,750,0,0
-357,274,0,0,0,0,0,0,0,0,0,-1,867,750,0,0
-350,274,0,0,0,0,0,0,0,0,0,-1,874,750,0,0
-343,274,0,0,0,0,0,0,0,0,0,-1,881,750,0,0
-336,274,0,0,0,0,0,0,0,0,0,-1,888,750,0,0
-329,274,0,0,0,0,0,0,0,0,0,-1,895,750,0,0
-322,274,0,0,0,0,0,0,0,0,0,-1,902,750,0,0
-315,274,0,0,0,0,0,0,0,0,0,-1,909,750,0,0
-308,274,0,0,0,0,0,0,0,0,0,-1,916,750,0,0
-301,274,0,0,0,0,0,0,0,0,0,-1,923,750,0,0
-294,274,0,0,0,0,0,0,0,0,0,-1,930,750,0,0
-287,274,0,0,0,0,0,0,0,0,0,-1,937,750,0,0
-280,274,0,0,0,0,0,0,0,0,0,-1,944,750,0,0
-273,274,0,0,0,0,0,0,0,0,0,-1,951,750,0,0
-266,274,0,0,0,0,0,0,0,0,0,-1,958,750,0,0
-259,274,0,0,0,0,0,0,0,0,0,-1,965,750,0,0
-252,274,0,0,0,0,0,0,0,0,0,-1,972,750,0,0
-245,274,0,0,0,0,0,0,0,0,0,-1,979,750,0,0
-238,274,0,0,0,0,0,0,0,0,0,-1,986,750,0,0
-231,274,0,0,0,0,0,0,0,0,0,-1,993,750,0,0
-224,274,0,0,0,0,0,0,0,0,0,-1,1000,750,0,0
-217,274,0,0,0,0,0,0,0,0,0,-1,1007,750,0,0
-210,274,0,0,0,0,0,0,0,0,0,-1,1014,750,0,0
-203,274,0,0,0,0,0,0,0,0,0,-1,1021,750,0,0
-196,274,0,0,0,0,0,0,0,0,0,-1,1028,750,0,0
-189,274,0,0,0,0,0,0,0,0,0,-1,1035,750,0,0
-182,274,0,0,0,0,0,0,0,0,0,-1,1042,750,0,0
-175,274,0,0,0,0,0,0,0,0,0,-1,1049,750,0,0
-168,274,0,0,0,0,0,0,0,0,0,-1,1056,750,0,0
-161,274,0,0,0,0,0,0,0,0,0,-1,1063,750,0,0
-154,274,0,0,0,0,0,0,0,0,0,-1,1070,750,0,0
-147,274,0,0,0,0,0,0,0,0,0,-1,1077,750,0,0
-140,274,0,0,0,0,0,0,0,0,0,-1,1084,750,0,0
-133,274,0,0,0,0,0,0,0,0,0,-1,1091,750,0,0
-126,274,0,0,0,0,0,0,0,0,0,-1,1098,750,0,0
-119,274,0,0,0,0,0,0,0,0,0,-1,1105,750,0,0
-112,274,0,0,0,0,0,0,0,0,0,-1,1112,750,0,0
-105,274,0,0,0,0,0,0,0,0,0,-1,1119,750,0,0
-98,274,0,0,0,0,0,0,0,0,0,-1,1126,750,0,0
-91,274,0,0,0,0,0,0,0,0,0,-1,1133,750,0,0
-84,274,0,0,0,0,0,0,0,0,0,-1,1140,750,0,0
-77,274,0,0,0,0,0,0,0,0,0,-1,1147,750,0,0
-70,274,0,0,0,0,0,0,0,0,0,-1,1154,750,0,0
-63,274,0,0,0,0,0,0,0,0,0,-1,1161,750,0,0
-56,274,0,0,0,0,0,0,0,0,0,-1,1168,750,0,0
-49,274,0,0,0,0,0,0,0,0,0,-1,1175,750,0,0
-42,274,0,0,0,0,0,0,0,0,0,-1,1182,750,0,0
-35,274,0,0,0,0,0,0,0,0,0,-1,1189,750,0,0
-28,274,0,0,0,0,0,0,0,0,0,-1,1196,750,0,0
-21,274,0,0,0,0,0,0,0,0,0,-1,1203,750,0,0
-14,274,0,0,0,0,0,0,0,0,0,-1,1210,750,0,0
-7,274,0,0,0,0,0,0,0,0,0,-1,1217,750,0,0
0,274,0,0,0,0,0,0,0,0,0,-1,1224,750,0,0
7,274,0,0,0,0,0,0,0,0,0,-1,1231,750,0,0
14,274,0,0,0,0,0,0,0,0,0,-1,1238,750,0,0
21,274,0,0,0,0,0,0,0,0,0,-1,1245,750,0,0
28,274,0,0,0,0,0,0,0,0,0,-1,1252,750,0,0
35,274,0,0,0,0,0,0,0,0,0,-1,1259,750,0,0
42,274,0,0,0,0,0,0,0,0,0,-1,1266,750,0,0
49,274,0,0,0,0,0,0,0,0,0,-1,1273,750,0,0
56,274,0,0,0,0,0,0,0,0,0,-1,1280,750,0,0
63,274,0,0,0,0,0,0,0,0,0,-1,1287,750,0,0
70,274,0,0,0,0,0,0,0,0,0,-1,1294,750,0,0
77,274,0,0,0,0,0,0,0,0,0,-1,1301,750,0,0
84,274,0,0,0,0,0,0,0,0,0,-1,1308,750,0,0
91,274,0,0,0,0,0,0,0,0,0,-1,1315,750,0,0
98,274,0,0,0,0,0,0,0,0,0,-1,1322,750,0,0
105,274,0,0,0,0,0,0,0,0,0,-1,1329,750,0,0
112,274,0,0,0,0,0,0,0,0,0,-1,1336,750,0,0
119,274,0,0,0,0,0,0,0,0,0,-1,1343,750,0,0
126,274,0,0,0,0,0,0,0,0,0,-1,1350,750,0,0
133,274,0,0,0,0,0,0,0,0,0,-1,1357,750,0,0
140,274,0,0,0,0,0,0,0,0,0,-1,1364,750,0,0
147,274,0,0,0,0,0,0,0,0,0,-1,1371,750,0,0
154,274,0,0,0,0,0,0,0,0,0,-1,1378,750,0,0
161,274,0,0,0,0,0,0,0,0,0,-1,1385,750,0,0
168,274,0,0,0,0,0,0,0,0,0,-1,1392,750,0,0
175,274,0,0,0,0,0,0,0,0,0,-1,1399,750,0,0
182,274,0,0,0,0,0,0,0,0,0,-1,1406,750,0,0
189,274,0,0,0,0,0,0,0,0,0,-1,1413,750,0,0
196,274,0,0,0,0,0,0,0,0,0,-1,1420,750,0,0
203,274,0,0,0,0,0,0,0,0,0,-1,1427,750,0,0
210,274,0,0,0,0,0,0,0,0,0,-1,1434,750,0,0
217,274,0,0,0,0,0,0,0,0,0,-1,1441,750,0,0
224,274,0,0,0,0,0,0,0,0,0,-1,1448,750,0,0
231,274,0,0,0,0,0,0,0,0,0,-1,1455,750,0,0
238,274,0,0,0,0,0,0,0,0,0,-1,1462,750,0,0
245,274,0,0,0,0,0,0,0,0,0,-1,1469,750,0,0
252,274,0,0,0,0,0,0,0,0,0,-1,1476,750,0,0
259,274,0,0,0,0,0,0,0,0,0,-1,1483,750,0,0
266,274,0,0,0,0,0,0,0,0,0,-1,1490,750,0,0
273,274,0,0,0,0,0,0,0,0,0,-1,1497,750,0,0
280,274,0,0,0,0,0,0,0,0,0,-1,1504,750,0,0
287,274,0,0,0,0,0,0,0,0,0,-1,1511,750,0,0
294,274,0,0,0,0,0,0,0,0,0,-1,1518,750,0,0
301,274,0,0,0,0,0,0,0,0,0,-1,1525,750,0,0
308,274,0,0,0,0,0,0,0,0,0,-1,1532,750,0,0
315,274,0,0,0,0,0,0,0,0,0,-1,1539,750,0,0
322,274,0,0,0,0,0,0,0,0,0,-1,1546,750,0,0
329,274,0,0,0,0,0,0,0,0,0,-1,1553,750,0,0
336,274,0,0,0,0,0,0,0,0,0,-1,1560,750,0,0
343,274,0,0,0,0,0,0,0,0,0,-1,1567,750,0,0
350,274,0,0,0,0,0,0,0,0,0,-1,1574,750,0,0
357,274,0,0,0,0,0,0,0,0,0,-1,1581,750,0,0
364,274,0,0,0,0,0,0,0,0,0,-1,1588,750,0,0
371,274,0,0,0,0,0,0,0,0,0,-1,1595,750,0,0
378,274,0,0,0,0,0,0,0,0,0,-1,1602,750,0,0
385,274,0,0,0,0,0,0,0,0,0,-1,1609,750,0,0
392,274,0,0,0,0,0,0,0,0,0,-1,1616,750,0,0
399,274,0,0,0,0,0,0,0,0,0,-1,1623,750,0,0
406,274,0,0,0,0,0,0,0,0,0,-1,1630,750,0,0
413,274,0,0,0,0,0,0,0,0,0,-1,1637,750,0,0
420,274,0,0,0,0,0,0,0,0,0,-1,1644,750,0,0
427,274,0,0,0,0,0,0,0,0,0,-1,1651,750,0,0
434,274,0,0,0,0,0,0,0,0,0,-1,1658,750,0,0
441,274,0,0,0,0,0,0,0,0,0,-1,1665,750,0,0
448,274,0,0,0,0,0,0,0,0,0,-1,1672,750,0,0
455,274,0,0,0,0,0,0,0,0,0,-1,1679,750,0,0
462,274,0,0,0,0,0,0,0,0,0,-1,1686,750,0,0
469,274,0,0,0,0,0,0,0,0,0,-1,1693,750,0,0
476,274,0,0,0,0,0,0,0,0,0,-1,1700,750,0,0
483,274,0,0,0,0,0,0,0,0,0,-1,1707,750,0,0
490,274,0,0,0,0,0,0,0,0,0,-1,1714,750,0,0
497,274,0,0,0,0,0,0,0,0,0,-1,1721,750,0,0
504,274,0,0,0,0,0,0,0,0,0,-1,1728,750,0,0
511,274,0,0,0,0,0,0,0,0,0,-1,1735,750,0,0
518,274,0,0,0,0,0,0,0,0,0,-1,1742,750,0,0
525,274,0,0,0,0,0,0,0,0,0,-1,1749,750,0,0
532,274,0,0,0,0,0,0,0,0,0,-1,1756,750,0,0
539,274,0,0,0,0,0,0,0,0,0,-1,1763,750,0,0
546,274,0,0,0,0,0,0,0,0,0,-1,1770,750,0,0
553,274,0,0,0,0,0,0,0,0,0,-1,1777,750,0,0
560,274,57.9182,3.24518,0,0,0,0,0,0,0,-1,1784,750,57.9182,-3.24516
567,274,57.8315,3.4137,0,0,0,0,0,0,0,-1,1791,750,57.8315,-3.41368
574,274,58.2571,3.11115,0,0,0,0,0,0,0,-1,1798,750,58.2571,-3.11114
581,274,54.4941,4.68127,0,0,0,0,0,0,0,-1,1805,750,54.4941,-4.68125
588,274,53.9908,5.6676,0,0,0,0,0,0,0,-1,1812,750,53.9908,-5.66763
595,274,61.8009,4.85162,0,0,0,0,0,0,0,-1,1819,750,61.8009,-4.8516
602,274,55.6321,2.56519,0,0,0,0,0,0,0,-1,1826,750,55.6321,-2.56521
609,274,44.6676,3.10461,0,0,0,0,0,0,0,-1,1833,750,44.6676,-3.1046
616,274,32.7869,1.78436,0,0,0,0,0,0,0,-1,1840,750,32.7868,-1.78437
623,274,24.8231,-1.80353,0,0,0,0,0,0,0,-1,1847,750,24.8232,1.80351
630,274,41.5735,-6.58008,0,0,0,0,0,0,0,-1,1854,750,41.5735,6.58011
637,274,41.4445,-5.75629,0.00372746,0.000571886,0.00259478,0.0051865,-0.00088715,0.512235,0.00378817,0.0260243,1861,750,41.4445,5.7563
644,274,41.4479,-4.87354,0.0027744,0.000794804,0.00253462,0.00450563,-0.00093643,0.599249,0.00335968,0.0128463,1868,750,41.4479,4.87352
651,274,41.4313,-4.05365,0.00184203,0.000791335,0.00200484,0.00338921,-0.000755841,0.657259,0.00254905,0.0133938,1875,750,41.4313,4.05363
658,274,41.403,-3.26422,0.0015274,0.000784679,0.00161897,0.00281706,-0.000504977,0.672657,0.00206703,0.0166024,1882,750,41.403,3.2642
665,274,41.3619,-2.48853,0.0015983,0.00104519,0.00136214,0.00271167,-6.81821e-05,0.685243,0.00183093,0.0145309,1889,750,41.362,2.48855
672,274,41.3234,-1.71179,0.00182021,0.0014887,0.00129755,0.00296256,0.000346361,0.72187,0.0018703,0.0127261,1896,750,41.3233,1.7118
679,274,41.2842,-0.908081,0.0021986,0.00210007,0.00136312,0.00351335,0.000785324,0.767335,0.00212929,0.0157924,1903,750,41.2842,0.908052
686,274,41.2225,-0.134399,0.00277509,0.00292026,0.00160507,0.00445439,0.00124096,0.807993,0.00265446,0.0176316,1910,750,41.2226,0.134424
693,274,41.1613,0.672729,0.00364509,0.00396753,0.00206611,0.0058787,0.00173392,0.824334,0.00348791,0.0127986,1917,750,41.1612,-0.672749
700,274,41.1589,1.48639,0.0049251,0.00526223,0.0028319,0.00793057,0.00225675,0.815125,0.00471827,0.0184031,1924,750,41.159,-1.48638
707,274,41.0441,2.27966,0.00654122,0.00659168,0.00387138,0.0104379,0.00269499,0.788657,0.00625683,0.0399862,1931,750,41.0441,-2.27968
714,274,40.8947,3.15491,0,0,0,0,0,0,0,-1,1938,750,40.8947,-3.15493
721,274,25.6215,3.91144,0,0,0,0,0,0,0,-1,1945,750,25.6214,-3.91141
728,274,19.2209,3.95154,0,0,0,0,0,0,0,-1,1952,750,19.221,-3.95151
735,274,20.6608,4.10931,0,0,0,0,0,0,0,-1,1959,750,20.6607,-4.10932
742,274,11.7815,-0.740234,0,0,0,0,0,0,0,-1,1966,750,11.7815,0.740253
749,274,0,0,0,0,0,0,0,0,0,-1,1973,750,0,0
756,274,0,0,0,0,0,0,0,0,0,-1,1980,750,0,0
763,274,0,0,0,0,0,0,0,0,0,-1,1987,750,0,0
770,274,0,0,0,0,0,0,0,0,0,-1,1994,750,0,0
777,274,0,0,0,0,0,0,0,0,0,-1,2001,750,0,0
784,274,0,0,0,0,0,0,0,0,0,-1,2008,750,0,0
791,274,0,0,0,0,0,0,0,0,0,-1,2015,750,0,0
798,274,0,0,0,0,0,0,0,0,0,-1,2022,750,0,0
805,274,0,0,0,0,0,0,0,0,0,-1,2029,750,0,0
812,274,0,0,0,0,0,0,0,0,0,-1,2036,750,0,0
-700,267,0,0,0,0,0,0,0,0,0,-1,524,757,0,0
-693,267,0,0,0,0,0,0,0,0,0,-1,531,757,0,0
-686,267,0,0,0,0,0,0,0,0,0,-1,538,757,0,0
-679,267,0,0,0,0,0,0,0,0,0,-1,545,757,0,0
-672,267,0,0,0,0,0,0,0,0,0,-1,552,757,0,0
-665,267,0,0,0,0,0,0,0,0,0,-1,559,757,0,0
-658,267,0,0,0,0,0,0,0,0,0,-1,566,757,0,0
-651,267,0,0,0,0,0,0,0,0,0,-1,573,757,0,0
-644,267,0,0,0,0,0,0,0,0,0,-1,580,757,0,0
-637,267,0,0,0,0,0,0,0,0,0,-1,587,757,0,0
-630,267,-21.3979,5.17529,0,0,0,0,0,0,0,-1,594,757,-21.3979,-5.17529
-623,267,-20.043,4.43115,0,0,0,0,0,0,0,-1,601,757,-20.043,-4.43116
-616,267,-27.1628,5.9325,0,0,0,0,0,0,0,-1,608,757,-27.1629,-5.93249
-609,267,-26.9868,4.99658,0,0,0,0,0,0,0,-1,615,757,-26.9868,-4.99656
-602,267,-26.6637,3.74072,0,0,0,0,0,0,0,-1,622,757,-26.6637,-3.74075
-595,267,-26.2172,2.54993,0,0,0,0,0,0,0,-1,629,757,-26.2171,-2.54993
-588,267,-27.8512,1.77527,0,0,0,0,0,0,0,-1,636,757,-27.8512,-1.77528
-581,267,-27.8293,0.944824,-0.000833216,0.00619979,-0.00683809,0.0103726,-0.005006,-1.02289,0.00905724,0.0425765,643,757,-27.8294,-0.944811
-574,267,-27.9165,0.0690918,-0.00112055,0.00488518,-0.00459175,0.00736879,-0.00360415,-1.07498,0.00645832,0.0245272,650,757,-27.9165,-0.0690815
-567,267,-28.0278,-0.67334,-0.00118008,0.00343945,-0.00278374,0.0047469,-0.00248753,-1.1317,0.00424416,0.0288143,657,757,-28.0278,0.673324
-560,267,-28.0933,-1.43781,-0.00115717,0.00223164,-0.00141421,0.00274427,-0.0016698,-1.22304,0.00257351,0.0230101,664,757,-28.0933,1.4378
-553,267,-28.1699,-2.19318,-0.00113093,0.00103204,-0.000279986,0.0010677,-0.00116658,-1.44413,0.00129038,0.0186497,671,757,-28.1698,2.19318
-546,267,-28.1984,-2.97137,-0.00109821,-8.82715e-05,0.000708151,0.000276512,-0.001463,1.09512,0.00107937,0.012364,678,757,-28.1984,2.97137
-539,267,-28.1962,-3.75134,-0.00115679,-0.00121703,0.00162322,0.000436595,-0.00281041,0.776121,0.00203481,0.0122623,685,757,-28.1962,3.75132
-532,267,-28.2073,-4.5141,-0.00116724,-0.00211613,0.0023364,0.000742404,-0.00402577,0.685227,0.00296249,0.0133724,692,757,-28.2073,4.51408
-525,267,-28.3012,-5.22632,-0.000951009,-0.00287075,0.00272809,0.000981152,-0.00480291,0.616239,0.00357416,0.0124314,699,757,-28.3012,5.22633
-518,267,-28.3544,-5.99786,0.000136625,-0.00484275,0.00272561,0.00133848,-0.00604461,0.415302,0.00454212,0.0144892,706,757,-28.3544,5.99787
-511,267,-28.3464,-6.78149,0.00191534,-0.0074238,0.00229131,0.00244721,-0.00795567,0.228086,0.00628051,0.0277361,713,757,-28.3464,6.78151
-504,267,-28.5287,-7.27124,0.00456839,-0.0100137,0.00213575,0.00487477,-0.0103201,0.142478,0.00895855,0.0450389,720,757,-28.5287,7.27124
-497,267,-28.8087,-7.7887,0,0,0,0,0,0,0,-1,727,757,-28.8086,7.78872
-490,267,-23.4949,-0.494995,0,0,0,0,0,0,0,-1,734,757,-23.4949,0.494981
-483,267,-33.2785,-0.448425,0,0,0,0,0,0,0,-1,741,757,-33.2785,0.448407
-476,267,-40.2954,0.52002,0,0,0,0,0,0,0,-1,748,757,-40.2954,-0.520037
-469,267,-50.3222,-0.572998,0,0,0,0,0,0,0,-1,755,757,-50.3222,0.572968
-462,267,-50.8058,-0.431152,0,0,0,0,0,0,0,-1,762,757,-50.8058,0.431137
-455,267,-49.657,0.410706,0,0,0,0,0,0,0,-1,769,757,-49.657,-0.410729
-448,267,-48.6621,1.34595,0,0,0,0,0,0,0,-1,776,757,-48.6621,-1.34594
-441,267,0,0,0,0,0,0,0,0,0,-1,783,757,0,0
-434,267,0,0,0,0,0,0,0,0,0,-1,790,757,0,0
-427,267,0,0,0,0,0,0,0,0,0,-1,797,757,0,0
-420,267,0,0,0,0,0,0,0,0,0,-1,804,757,0,0
-413,267,0,0,0,0,0,0,0,0,0,-1,811,757,0,0
-406,267,0,0,0,0,0,0,0,0,0,-1,818,757,0,0
-399,267,0,0,0,0,0,0,0,0,0,-1,825,757,0,0
-392,267,0,0,0,0,0,0,0,0,0,-1,832,757,0,0
-385,267,0,0,0,0,0,0,0,0,0,-1,839,757,0,0
-378,267,0,0,0,0,0,0,0,0,0,-1,846,757,0,0
-371,267,0,0,0,0,0,0,0,0,0,-1,853,757,0,0
-364,267,0,0,0,0,0,0,0,0,0,-1,860,757,0,0
-357,267,0,0,0,0,0,0,0,0,0,-1,867,757,0,0
-350,267,0,0,0,0,0,0,0,0,0,-1,874,757,0,0
-343,267,0,0,0,0,0,0,0,0,0,-1,881,757,0,0
-336,267,0,0,0,0,0,0,0,0,0,-1,888,757,0,0
-329,267,0,0,0,0,0,0,0,0,0,-1,895,757,0,0
-322,267,0,0,0,0,0,0,0,0,0,-1,902,757,0,0
-315,267,0,0,0,0,0,0,0,0,0,-1,909,757,0,0
-308,267,0,0,0,0,0,0,0,0,0,-1,916,757,0,0
-301,267,0,0,0,0,0,0,0,0,0,-1,923,757,0,0
-294,267,0,0,0,0,0,0,0,0,0,-1,930,757,0,0
-287,267,0,0,0,0,0,0,0,0,0,-1,937,757,0,0
-280,267,0,0,0,0,0,0,0,0,0,-1,944,757,0,0
-273,267,0,0,0,0,0,0,0,0,0,-1,951,757,0,0
-266,267,0,0,0,0,0,0,0,0,0,-1,958,757,0,0
-259,267,0,0,0,0,0,0,0,0,0,-1,965,757,0,0
-252,267,0,0,0,0,0,0,0,0,0,-1,972,757,0,0
-245,267,0,0,0,0,0,0,0,0,0,-1,979,757,0,0
-238,267,0,0,0,0,0,0,0,0,0,-1,986,757,0,0
-231,267,0,0,0,0,0,0,0,0,0,-1,993,757,0,0
-224,267,0,0,0,0,0,0,0,0,0,-1,1000,757,0,0
-217,267,0,0,0,0,0,0,0,0,0,-1,1007,757,0,0
-210,267,0,0,0,0,0,0,0,0,0,-1,1014,757,0,0
-203,267,0,0,0,0,0,0,0,0,0,-1,1021,757,0,0
-196,267,0,0,0,0,0,0,0,0,0,-1,1028,757,0,0
-189,267,0,0,0,0,0,0,0,0,0,-1,1035,757,0,0
-182,267,0,0,0,0,0,0,0,0,0,-1,1042,757,0,0
-175,267,0,0,0,0,0,0,0,0,0,-1,1049,757,0,0
-168,267,0,0,0,0,0,0,0,0,0,-1,1056,757,0,0
-161,267,0,0,0,0,0,0,0,0,0,-1,1063,757,0,0
-154,267,0,0,0,0,0,0,0,0,0,-1,1070,757,0,0
-147,267,0,0,0,0,0,0,0,0,0,-1,1077,757,0,0
-140,267,0,0,0,0,0,0,0,0,0,-1,1084,757,0,0
-133,267,0,0,0,0,0,0,0,0,0,-1,1091,757,0,0
-126,267,0,0,0,0,0,0,0,0,0,-1,1098,757,0,0
-119,267,0,0,0,0,0,0,0,0,0,-1,1105,757,0,0
-112,267,0,0,0,0,0,0,0,0,0,-1,1112,757,0,0
-105,267,0,0,0,0,0,0,0,0,0,-1,1119,757,0,0
-98,267,0,0,0,0,0,0,0,0,0,-1,1126,757,0,0
-91,267,0,0,0,0,0,0,0,0,0,-1,1133,757,0,0
-84,267,0,0,0,0,0,0,0,0,0,-1,1140,757,0,0
-77,267,0,0,0,0,0,0,0,0,0,-1,1147,757,0,0
-70,267,0,0,0,0,0,0,0,0,0,-1,1154,757,0,0
-63,267,0,0,0,0,0,0,0,0,0,-1,1161,757,0,0
-56,267,0,0,0,0,0,0,0,0,0,-1,1168,757,0,0
-49,267,0,0,0,0,0,0,0,0,0,-1,1175,757,0,0
-42,267,0,0,0,0,0,0,0,0,0,-1,1182,757,0,0
-35,267,0,0,0,0,0,0,0,0,0,-1,1189,757,0,0
-28,267,0,0,0,0,0,0,0,0,0,-1,1196,757,0,0
-21,267,0,0,0,0,0,0,0,0,0,-1,1203,757,0,0
-14,267,0,0,0,0,0,0,0,0,0,-1,1210,757,0,0
-7,267,0,0,0,0,0,0,0,0,0,-1,1217,757,0,0
0,267,0,0,0,0,0,0,0,0,0,-1,1224,757,0,0
7,267,0,0,0,0,0,0,0,0,0,-1,1231,757,0,0
14,267,0,0,0,0,0,0,0,0,0,-1,1238,757,0,0
21,267,0,0,0,0,0,0,0,0,0,-1,1245,757,0,0
28,267,0,0,0,0,0,0,0,0,0,-1,1252,757,0,0
35,267,0,0,0,0,0,0,0,0,0,-1,1259,757,0,0
42,267,0,0,0,0,0,0,0,0,0,-1,1266,757,0,0
49,267,0,0,0,0,0,0,0,0,0,-1,1273,757,0,0
56,267,0,0,0,0,0,0,0,0,0,-1,1280,757,0,0
63,267,0,0,0,0,0,0,0,0,0,-1,1287,757,0,0
70,267,0,0,0,0,0,0,0,0,0,-1,1294,757,0,0
77,267,0,0,0,0,0,0,0,0,0,-1,1301,757,0,0
84,267,0,0,0,0,0,0,0,0,0,-1,1308,757,0,0
91,267,0,0,0,0,0,0,0,0,0,-1,1315,757,0,0
98,267,0,0,0,0,0,0,0,0,0,-1,1322,757,0,0
105,267,0,0,0,0,0,0,0,0,0,-1,1329,757,0,0
112,267,0,0,0,0,0,0,0,0,0,-1,1336,757,0,0
119,267,0,0,0,0,0,0,0,0,0,-1,1343,757,0,0
126,267,0,0,0,0,0,0,0,0,0,-1,1350,757,0,0
133,267,0,0,0,0,0,0,0,0,0,-1,1357,757,0,0
140,267,0,0,0,0,0,0,0,0,0,-1,1364,757,0,0
147,267,0,0,0,0,0,0,0,0,0,-1,1371,757,0,0
154,267,0,0,0,0,0,0,0,0,0,-1,1378,757,0,0
161,267,0,0,0,0,0,0,0,0,0,-1,1385,757,0,0
168,267,0,0,0,0,0,0,0,0,0,-1,1392,757,0,0
175,267,0,0,0,0,0,0,0,0,0,-1,1399,757,0,0
182,267,0,0,0,0,0,0,0,0,0,-1,1406,757,0,0
189,267,0,0,0,0,0,0,0,0,0,-1,1413,757,0,0
196,267,0,0,0,0,0,0,0,0,0,-1,1420,757,0,0
203,267,0,0,0,0,0,0,0,0,0,-1,1427,757,0,0
210,267,0,0,0,0,0,0,0,0,0,-1,1434,757,0,0
217,267,0,0,0,0,0,0,0,0,0,-1,1441,757,0,0
224,267,0,0,0,0,0,0,0,0,0,-1,1448,757,0,0
231,267,0,0,0,0,0,0,0,0,0,-1,1455,757,0,0
238,267,0,0,0,0,0,0,0,0,0,-1,1462,757,0,0
245,267,0,0,0,0,0,0,0,0,0,-1,1469,757,0,0
252,267,0,0,0,0,0,0,0,0,0,-1,1476,757,0,0
259,267,0,0,0,0,0,0,0,0,0,-1,1483,757,0,0
266,267,0,0,0,0,0,0,0,0,0,-1,1490,757,0,0
273,267,0,0,0,0,0,0,0,0,0,-1,1497,757,0,0
280,267,0,0,0,0,0,0,0,0,0,-1,1504,757,0,0
287,267,0,0,0,0,0,0,0,0,0,-1,1511,757,0,0
294,267,0,0,0,0,0,0,0,0,0,-1,1518,757,0,0
301,267,0,0,0,0,0,0,0,0,0,-1,1525,757,0,0
308,267,0,0,0,0,0,0,0,0,0,-1,1532,757,0,0
315,267,0,0,0,0,0,0,0,0,0,-1,1539,757,0,0
322,267,0,0,0,0,0,0,0,0,0,-1,1546,757,0,0
329,267,0,0,0,0,0,0,0,0,0,-1,1553,757,0,0
336,267,0,0,0,0,0,0,0,0,0,-1,1560,757,0,0
343,267,0,0,0,0,0,0,0,0,0,-1,1567,757,0,0
350,267,0,0,0,0,0,0,0,0,0,-1,1574,757,0,0
357,267,0,0,0,0,0,0,0,0,0,-1,1581,757,0,0
364,267,0,0,0,0,0,0,0,0,0,-1,1588,757,0,0
371,267,0,0,0,0,0,0,0,0,0,-1,1595,757,0,0
378,267,0,0,0,0,0,0,0,0,0,-1,1602,757,0,0
385,267,0,0,0,0,0,0,0,0,0,-1,1609,757,0,0
392,267,0,0,0,0,0,0,0,0,0,-1,1616,757,0,0
399,267,0,0,0,0,0,0,0,0,0,-1,1623,757,0,0
406,267,0,0,0,0,0,0,0,0,0,-1,1630,757,0,0
413,267,0,0,0,0,0,0,0,0,0,-1,1637,757,0,0
420,267,0,0,0,0,0,0,0,0,0,-1,1644,757,0,0
427,267,0,0,0,0,0,0,0,0,0,-1,1651,757,0,0
434,267,0,0,0,0,0,0,0,0,0,-1,1658,757,0,0
441,267,0,0,0,0,0,0,0,0,0,-1,1665,757,0,0
448,267,0,0,0,0,0,0,0,0,0,-1,1672,757,0,0
455,267,0,0,0,0,0,0,0,0,0,-1,1679,757,0,0
462,267,0,0,0,0,0,0,0,0,0,-1,1686,757,0,0
469,267,0,0,0,0,0,0,0,0,0,-1,1693,757,0,0
476,267,0,0,0,0,0,0,0,0,0,-1,1700,757,0,0
483,267,0,0,0,0,0,0,0,0,0,-1,1707,757,0,0
490,267,0,0,0,0,0,0,0,0,0,-1,1714,757,0,0
497,267,0,0,0,0,0,0,0,0,0,-1,1721,757,0,0
504,267,0,0,0,0,0,0,0,0,0,-1,1728,757,0,0
511,267,0,0,0,0,0,0,0,0,0,-1,1735,757,0,0
518,267,0,0,0,0,0,0,0,0,0,-1,1742,757,0,0
525,267,0,0,0,0,0,0,0,0,0,-1,1749,757,0,0
532,267,0,0,0,0,0,0,0,0,0,-1,1756,757,0,0
539,267,0,0,0,0,0,0,0,0,0,-1,1763,757,0,0
546,267,0,0,0,0,0,0,0,0,0,-1,1770,757,0,0
553,267,0,0,0,0,0,0,0,0,0,-1,1777,757,0,0
560,267,0,0,0,0,0,0,0,0,0,-1,1784,757,0,0
567,267,58.0104,3.24304,0,0,0,0,0,0,0,-1,1791,757,58.0104,-3.24306
574,267,64.5414,2.91858,0,0,0,0,0,0,0,-1,1798,757,64.5414,-2.91855
581,267,58.374,2.95636,0,0,0,0,0,0,0,-1,1805,757,58.3741,-2.95639
588,267,62.2568,3.85944,0,0,0,0,0,0,0,-1,1812,757,62.2568,-3.85944
595,267,62.0597,4.3172,0,0,0,0,0,0,0,-1,1819,757,62.0597,-4.31722
602,267,64.109,3.66077,0,0,0,0,0,0,0,-1,1826,757,64.109,-3.66079
609,267,54.5498,3.24054,0,0,0,0,0,0,0,-1,1833,757,54.5498,-3.24052
616,267,44.2543,3.28918,0,0,0,0,0,0,0,-1,1840,757,44.2542,-3.28918
623,267,24.1475,-1.1391,0,0,0,0,0,0,0,-1,1847,757,24.1475,1.13913
630,267,40.7198,-5.42108,0,0,0,0,0,0,0,-1,1854,757,40.7198,5.4211
637,267,42.1427,-5.58521,0,0,0,0,0,0,0,-1,1861,757,42.1427,5.58522
644,267,42.2125,-4.862,0.00285642,0.00124325,0.00300629,0.00516245,-0.00106278,0.654335,0.00384516,0.0174662,1868,757,42.2125,4.86202
651,267,42.1936,-3.99597,0.0018915,0.00110789,0.00247494,0.00400545,-0.00100607,0.706896,0.00306127,0.0147282,1875,757,42.1936,3.99595
658,267,42.187,-3.20264,0.00150085,0.000908916,0.00193513,0.00316251,-0.000752745,0.709514,0.00239895,0.0140175,1882,757,42.187,3.20264
665,267,42.1515,-2.43634,0.0015423,0.000982578,0.00144957,0.00273877,-0.000213893,0.690038,0.00190116,0.0136477,1889,757,42.1515,2.43637
672,267,42.1193,-1.6673,0.00171903,0.00122421,0.001189,0.00268609,0.000257158,0.682822,0.00171146,0.0130348,1896,757,42.1193,1.66732
679,267,42.073,-0.876343,0.00203633,0.00166346,0.00112308,0.00298834,0.000711447,0.703146,0.00180251,0.0139178,1903,757,42.0729,0.876345
686,267,42.0144,-0.0701294,0.00258476,0.00241572,0.00132963,0.00383256,0.00116792,0.753658,0.00226827,0.0168432,1910,757,42.0144,0.0701577
693,267,41.943,0.681885,0.00340358,0.00334039,0.00176268,0.00513495,0.00160902,0.776437,0.00303274,0.0160633,1917,757,41.943,-0.681888
700,267,41.9163,1.44788,0.00460746,0.00450893,0.00250442,0.0070631,0.00205329,0.775564,0.00419528,0.0153655,1924,757,41.9163,-1.44787
707,267,41.9238,2.2251,0.00614844,0.00575468,0.00355237,0.00950938,0.00239373,0.757715,0.00571141,0.0192513,1931,757,41.9238,-2.22507
714,267,42.0825,3.12146,0.00842131,0.00774126,0.00543141,0.0135233,0.00263924,0.754137,0.00827727,0.0442117,1938,757,42.0825,-3.12144
721,267,42.3802,4.06482,0,0,0,0,0,0,0,-1,1945,757,42.3803,-4.06484
728,267,26.7886,3.90027,0,0,0,0,0,0,0,-1,1952,757,26.7886,-3.90028
735,267,24.6713,2.82483,0,0,0,0,0,0,0,-1,1959,757,24.6713,-2.82483
742,267,18.1177,3.56561,0,0,0,0,0,0,0,-1,1966,757,18.1176,-3.56564
749,267,0,0,0,0,0,0,0,0,0,-1,1973,757,0,0
756,267,0,0,0,0,0,0,0,0,0,-1,1980,757,0,0
763,267,0,0,0,0,0,0,0,0,0,-1,1987,757,0,0
770,267,0,0,0,0,0,0,0,0,0,-1,1994,757,0,0
777,267,0,0,0,0,0,0,0,0,0,-1,2001,757,0,0
784,267,0,0,0,0,0,0,0,0,0,-1,2008,757,0,0
791,267,0,0,0,0,0,0,0,0,0,-1,2015,757,0,0
798,267,0,0,0,0,0,0,0,0,0,-1,2022,757,0,0
805,267,0,0,0,0,0,0,0,0,0,-1,2029,757,0,0
812,267,0,0,0,0,0,0,0,0,0,-1,2036,757,0,0
-700,260,0,0,0,0,0,0,0,0,0,-1,524,764,0,0
-693,260,0,0,0,0,0,0,0,0,0,-1,531,764,0,0
-686,260,0,0,0,0,0,0,0,0,0,-1,538,764,0,0
-679,260,0,0,0,0,0,0,0,0,0,-1,545,764,0,0
-672,260,0,0,0,0,0,0,0,0,0,-1,552,764,0,0
-665,260,0,0,0,0,0,0,0,0,0,-1,559,764,0,0
-658,260,0,0,0,0,0,0,0,0,0,-1,566,764,0,0
-651,260,0,0,0,0,0,0,0,0,0,-1,573,764,0,0
-644,260,0,0,0,0,0,0,0,0,0,-1,580,764,0,0
-637,260,0,0,0,0,0,0,0,0,0,-1,587,764,0,0
-630,260,-21.8905,4.49341,0,0,0,0,0,0,0,-1,594,764,-21.8905,-4.49342
-623,260,-20.3127,3.53546,0,0,0,0,0,0,0,-1,601,764,-20.3127,-3.53544
-616,260,-23.4346,3.65009,0,0,0,0,0,0,0,-1,608,764,-23.4345,-3.65008
-609,260,-27.8874,4.42004,0,0,0,0,0,0,0,-1,615,764,-27.8874,-4.42005
-602,260,-27.5727,3.89905,0,0,0,0,0,0,0,-1,622,764,-27.5727,-3.89904
-595,260,-28.5425,2.95422,0,0,0,0,0,0,0,-1,629,764,-28.5425,-2.95425
-588,260,-28.7507,1.68042,0.000262171,0.00744601,-0.009328,0.0138498,-0.00614158,-0.969182,0.0118245,0.0481505,636,764,-28.7507,-1.68045
-581,260,-28.7078,0.837402,-0.000534152,0.00571314,-0.00664176,0.00992912,-0.00475014,-1.0052,0.00864911,0.030267,643,764,-28.7078,-0.837387
-574,260,-28.759,0.11084,-0.000969611,0.00443117,-0.00443779,0.00692559,-0.00346403,-1.05872,0.00610842,0.0191996,650,764,-28.7591,-0.110867
-567,260,-28.7767,-0.589844,-0.00118134,0.00306309,-0.00262699,0.00431798,-0.00243623,-1.12515,0.00394967,0.0178198,657,764,-28.7767,0.589836
-560,260,-28.8389,-1.37195,-0.00129013,0.00186531,-0.00119335,0.00226579,-0.00169061,-1.24701,0.00229226,0.0207948,664,764,-28.8389,1.37194
-553,260,-28.9147,-2.14221,-0.00139077,0.000611033,2.00029e-05,0.000611233,-0.00139097,1.56081,0.00118483,0.0177367,671,764,-28.9147,2.14221
-546,260,-28.9437,-2.935,-0.00140064,-0.000550815,0.0010667,0.000172493,-0.00212395,0.974936,0.00147682,0.0118986,678,764,-28.9437,2.93499
-539,260,-28.9338,-3.69482,-0.00147742,-0.00169603,0.00200819,0.000424432,-0.00359788,0.758211,0.00255186,0.014083,685,764,-28.9338,3.69481
-532,260,-28.9482,-4.41187,-0.0014845,-0.00254052,0.00269648,0.000735173,-0.0047602,0.688714,0.00344477,0.0189007,692,764,-28.9482,4.41188
-525,260,-29.0548,-5.19452,-0.00117932,-0.00317221,0.0030298,0.00101369,-0.00536522,0.626529,0.00395821,0.0166349,699,764,-29.0548,5.19454
-518,260,-29.1826,-5.92999,4.43858e-05,-0.00512221,0.00292908,0.00136659,-0.00644441,0.424022,0.00481686,0.0245457,706,764,-29.1826,5.92998
-511,260,-29.1454,-6.64178,0.00184112,-0.00753287,0.00247613,0.00245499,-0.00814673,0.243015,0.0064082,0.0451501,713,764,-29.1454,6.64179
-504,260,-29.2442,-6.8996,0,0,0,0,0,0,0,-1,720,764,-29.2442,6.89958
-497,260,-16.6542,-3.67334,0,0,0,0,0,0,0,-1,727,764,-16.6542,3.67331
-490,260,-29.4557,0.921387,0,0,0,0,0,0,0,-1,734,764,-29.4557,-0.921369
-483,260,-40.8972,1.04193,0,0,0,0,0,0,0,-1,741,764,-40.8972,-1.04193
-476,260,-49.94,-0.250488,0,0,0,0,0,0,0,-1,748,764,-49.94,0.250485
-469,260,-49.9852,-0.199036,0.02693,-0.0355097,-0.000317959,0.0269317,-0.0355113,-0.00509208,0.0361647,0.0455628,755,764,-49.9852,0.199005
-462,260,-50.0511,0.0557251,0.0349993,-0.0440633,-0.00103656,0.0350129,-0.0440769,-0.0131077,0.0457623,0.0419685,762,764,-50.0511,-0.0557356
-455,260,-49.4469,0.676453,0.0442178,-0.0532075,-0.00149567,0.0442408,-0.0532304,-0.0153472,0.0563548,0.0481596,769,764,-49.4469,-0.676436
-448,260,0,0,0,0,0,0,0,0,0,-1,776,764,0,0
-441,260,0,0,0,0,0,0,0,0,0,-1,783,764,0,0
-434,260,0,0,0,0,0,0,0,0,0,-1,790,764,0,0
-427,260,0,0,0,0,0,0,0,0,0,-1,797,764,0,0
-420,260,0,0,0,0,0,0,0,0,0,-1,804,764,0,0
-413,260,0,0,0,0,0,0,0,0,0,-1,811,764,0,0
-406,260,0,0,0,0,0,0,0,0,0,-1,818,764,0,0
-399,260,0,0,0,0,0,0,0,0,0,-1,825,764,0,0
-392,260,0,0,0,0,0,0,0,0,0,-1,832,764,0,0
-385,260,0,0,0,0,0,0,0,0,0,-1,839,764,0,0
-378,260,0,0,0,0,0,0,0,0,0,-1,846,764,0,0
-371,260,0,0,0,0,0,0,0,0,0,-1,853,764,0,0
-364,260,0,0,0,0,0,0,0,0,0,-1,860,764,0,0
-357,260,0,0,0,0,0,0,0,0,0,-1,867,764,0,0
-350,260,0,0,0,0,0,0,0,0,0,-1,874,764,0,0
-343,260,0,0,0,0,0,0,0,0,0,-1,881,764,0,0
-336,260,0,0,0,0,0,0,0,0,0,-1,888,764,0,0
-329,260,0,0,0,0,0,0,0,0,0,-1,895,764,0,0
-322,260,0,0,0,0,0,0,0,0,0,-1,902,764,0,0
-315,260,0,0,0,0,0,0,0,0,0,-1,909,764,0,0
-308,260,0,0,0,0,0,0,0,0,0,-1,916,764,0,0
-301,260,0,0,0,0,0,0,0,0,0,-1,923,764,0,0
-294,260,0,0,0,0,0,0,0,0,0,-1,930,764,0,0
-287,260,0,0,0,0,0,0,0,0,0,-1,937,764,0,0
-280,260,0,0,0,0,0,0,0,0,0,-1,944,764,0,0
-273,260,0,0,0,0,0,0,0,0,0,-1,951,764,0,0
-266,260,0,0,0,0,0,0,0,0,0,-1,958,764,0,0
-259,260,0,0,0,0,0,0,0,0,0,-1,965,764,0,0
-252,260,0,0,0,0,0,0,0,0,0,-1,972,764,0,0
-245,260,0,0,0,0,0,0,0,0,0,-1,979,764,0,0
-238,260,0,0,0,0,0,0,0,0,0,-1,986,764,0,0
-231,260,0,0,0,0,0,0,0,0,0,-1,993,764,0,0
-224,260,0,0,0,0,0,0,0,0,0,-1,1000,764,0,0
-217,260,0,0,0,0,0,0,0,0,0,-1,1007,764,0,0
-210,260,0,0,0,0,0,0,0,0,0,-1,1014,764,0,0
-203,260,0,0,0,0,0,0,0,0,0,-1,1021,764,0,0
-196,260,0,0,0,0,0,0,0,0,0,-1,1028,764,0,0
-189,260,0,0,0,0,0,0,0,0,0,-1,1035,764,0,0
-182,260,0,0,0,0,0,0,0,0,0,-1,1042,764,0,0
-175,260,0,0,0,0,0,0,0,0,0,-1,1049,764,0,0
-168,260,0,0,0,0,0,0,0,0,0,-1,1056,764,0,0
-161,260,0,0,0,0,0,0,0,0,0,-1,1063,764,0,0
-154,260,0,0,0,0,0,0,0,0,0,-1,1070,764,0,0
-147,260,0,0,0,0,0,0,0,0,0,-1,1077,764,0,0
-140,260,0,0,0,0,0,0,0,0,0,-1,1084,764,0,0
-133,260,0,0,0,0,0,0,0,0,0,-1,1091,764,0,0
-126,260,0,0,0,0,0,0,0,0,0,-1,1098,764,0,0
-119,260,0,0,0,0,0,0,0,0,0,-1,1105,764,0,0
-112,260,0,0,0,0,0,0,0,0,0,-1,1112,764,0,0
-105,260,0,0,0,0,0,0,0,0,0,-1,1119,764,0,0
-98,260,0,0,0,0,0,0,0,0,0,-1,1126,764,0,0
-91,260,0,0,0,0,0,0,0,0,0,-1,1133,764,0,0
-84,260,0,0,0,0,0,0,0,0,0,-1,1140,764,0,0
-77,260,0,0,0,0,0,0,0,0,0,-1,1147,764,0,0
-70,260,0,0,0,0,0,0,0,0,0,-1,1154,764,0,0
-63,260,0,0,0,0,0,0,0,0,0,-1,1161,764,0,0
-56,260,0,0,0,0,0,0,0,0,0,-1,1168,764,0,0
-49,260,0,0,0,0,0,0,0,0,0,-1,1175,764,0,0
-42,260,0,0,0,0,0,0,0,0,0,-1,1182,764,0,0
-35,260,0,0,0,0,0,0,0,0,0,-1,1189,764,0,0
-28,260,0,0,0,0,0,0,0,0,0,-1,1196,764,0,0
-21,260,0,0,0,0,0,0,0,0,0,-1,1203,764,0,0
-14,260,0,0,0,0,0,0,0,0,0,-1,1210,764,0,0
-7,260,0,0,0,0,0,0,0,0,0,-1,1217,764,0,0
0,260,0,0,0,0,0,0,0,0,0,-1,1224,764,0,0
7,260,0,0,0,0,0,0,0,0,0,-1,1231,764,0,0
14,260,0,0,0,0,0,0,0,0,0,-1,1238,764,0,0
21,260,0,0,0,0,0,0,0,0,0,-1,1245,764,0,0
28,260,0,0,0,0,0,0,0,0,0,-1,1252,764,0,0
35,260,0,0,0,0,0,0,0,0,0,-1,1259,764,0,0
42,260,0,0,0,0,0,0,0,0,0,-1,1266,764,0,0
49,260,0,0,0,0,0,0,0,0,0,-1,1273,764,0,0
56,260,0,0,0,0,0,0,0,0,0,-1,1280,764,0,0
63,260,0,0,0,0,0,0,0,0,0,-1,1287,764,0,0
70,260,0,0,0,0,0,0,0,0,0,-1,1294,764,0,0
77,260,0,0,0,0,0,0,0,0,0,-1,1301,764,0,0
84,260,0,0,0,0,0,0,0,0,0,-1,1308,764,0,0
91,260,0,0,0,0,0,0,0,0,0,-1,1315,764,0,0
98,260,0,0,0,0,0,0,0,0,0,-1,1322,764,0,0
105,260,0,0,0,0,0,0,0,0,0,-1,1329,764,0,0
112,260,0,0,0,0,0,0,0,0,0,-1,1336,764,0,0
119,260,0,0,0,0,0,0,0,0,0,-1,1343,764,0,0
126,260,0,0,0,0,0,0,0,0,0,-1,1350,764,0,0
133,260,0,0,0,0,0,0,0,0,0,-1,1357,764,0,0
140,260,0,0,0,0,0,0,0,0,0,-1,1364,764,0,0
147,260,0,0,0,0,0,0,0,0,0,-1,1371,764,0,0
154,260,0,0,0,0,0,0,0,0,0,-1,1378,764,0,0
161,260,0,0,0,0,0,0,0,0,0,-1,1385,764,0,0
168,260,0,0,0,0,0,0,0,0,0,-1,1392,764,0,0
175,260,0,0,0,0,0,0,0,0,0,-1,1399,764,0,0
182,260,0,0,0,0,0,0,0,0,0,-1,1406,764,0,0
189,260,0,0,0,0,0,0,0,0,0,-1,1413,764,0,0
196,260,0,0,0,0,0,0,0,0,0,-1,1420,764,0,0
203,260,0,0,0,0,0,0,0,0,0,-1,1427,764,0,0
210,260,0,0,0,0,0,0,0,0,0,-1,1434,764,0,0
217,260,0,0,0,0,0,0,0,0,0,-1,1441,764,0,0
224,260,0,0,0,0,0,0,0,0,0,-1,1448,764,0,0
231,260,0,0,0,0,0,0,0,0,0,-1,1455,764,0,0
238,260,0,0,0,0,0,0,0,0,0,-1,1462,764,0,0
245,260,0,0,0,0,0,0,0,0,0,-1,1469,764,0,0
252,260,0,0,0,0,0,0,0,0,0,-1,1476,764,0,0
259,260,0,0,0,0,0,0,0,0,0,-1,1483,764,0,0
266,260,0,0,0,0,0,0,0,0,0,-1,1490,764,0,0
273,260,0,0,0,0,0,0,0,0,0,-1,1497,764,0,0
280,260,0,0,0,0,0,0,0,0,0,-1,1504,764,0,0
287,260,0,0,0,0,0,0,0,0,0,-1,1511,764,0,0
294,260,0,0,0,0,0,0,0,0,0,-1,1518,764,0,0
301,260,0,0,0,0,0,0,0,0,0,-1,1525,764,0,0
308,260,0,0,0,0,0,0,0,0,0,-1,1532,764,0,0
315,260,0,0,0,0,0,0,0,0,0,-1,1539,764,0,0
322,260,0,0,0,0,0,0,0,0,0,-1,1546,764,0,0
329,260,0,0,0,0,0,0,0,0,0,-1,1553,764,0,0
336,260,0,0,0,0,0,0,0,0,0,-1,1560,764,0,0
343,260,0,0,0,0,0,0,0,0,0,-1,1567,764,0,0
350,260,0,0,0,0,0,0,0,0,0,-1,1574,764,0,0
357,260,0,0,0,0,0,0,0,0,0,-1,1581,764,0,0
364,260,0,0,0,0,0,0,0,0,0,-1,1588,764,0,0
371,260,0,0,0,0,0,0,0,0,0,-1,1595,764,0,0
378,260,0,0,0,0,0,0,0,0,0,-1,1602,764,0,0
385,260,0,0,0,0,0,0,0,0,0,-1,1609,764,0,0
392,260,0,0,0,0,0,0,0,0,0,-1,1616,764,0,0
399,260,0,0,0,0,0,0,0,0,0,-1,1623,764,0,0
406,260,0,0,0,0,0,0,0,0,0,-1,1630,764,0,0
413,260,0,0,0,0,0,0,0,0,0,-1,1637,764,0,0
420,260,0,0,0,0,0,0,0,0,0,-1,1644,764,0,0
427,260,0,0,0,0,0,0,0,0,0,-1,1651,764,0,0
434,260,0,0,0,0,0,0,0,0,0,-1,1658,764,0,0
441,260,0,0,0,0,0,0,0,0,0,-1,1665,764,0,0
448,260,0,0,0,0,0,0,0,0,0,-1,1672,764,0,0
455,260,0,0,0,0,0,0,0,0,0,-1,1679,764,0,0
462,260,0,0,0,0,0,0,0,0,0,-1,1686,764,0,0
469,260,0,0,0,0,0,0,0,0,0,-1,1693,764,0,0
476,260,0,0,0,0,0,0,0,0,0,-1,1700,764,0,0
483,260,0,0,0,0,0,0,0,0,0,-1,1707,764,0,0
490,260,0,0,0,0,0,0,0,0,0,-1,1714,764,0,0
497,260,0,0,0,0,0,0,0,0,0,-1,1721,764,0,0
504,260,0,0,0,0,0,0,0,0,0,-1,1728,764,0,0
511,260,0,0,0,0,0,0,0,0,0,-1,1735,764,0,0
518,260,0,0,0,0,0,0,0,0,0,-1,1742,764,0,0
525,260,0,0,0,0,0,0,0,0,0,-1,1749,764,0,0
532,260,0,0,0,0,0,0,0,0,0,-1,1756,764,0,0
539,260,0,0,0,0,0,0,0,0,0,-1,1763,764,0,0
546,260,0,0,0,0,0,0,0,0,0,-1,1770,764,0,0
553,260,0,0,0,0,0,0,0,0,0,-1,1777,764,0,0
560,260,0,0,0,0,0,0,0,0,0,-1,1784,764,0,0
567,260,0,0,0,0,0,0,0,0,0,-1,1791,764,0,0
574,260,64.4427,2.79352,0,0,0,0,0,0,0,-1,1798,764,64.4427,-2.79351
581,260,64.4618,2.77795,0,0,0,0,0,0,0,-1,1805,764,64.4618,-2.77792
588,260,64.396,2.71832,0,0,0,0,0,0,0,-1,1812,764,64.396,-2.71833
595,260,63.818,3.04071,0,0,0,0,0,0,0,-1,1819,764,63.8179,-3.0407
602,260,64.0365,3.39185,0,0,0,0,0,0,0,-1,1826,764,64.0365,-3.39184
609,260,64.255,3.74298,0,0,0,0,0,0,0,-1,1833,764,64.255,-3.74297
616,260,46.0709,2.74542,0,0,0,0,0,0,0,-1,1840,764,46.0709,-2.74545
623,260,32.2268,3.25836,0,0,0,0,0,0,0,-1,1847,764,32.2268,-3.25833
630,260,24.3739,-0.536316,0,0,0,0,0,0,0,-1,1854,764,24.3739,0.536343
637,260,42.7155,-5.35486,0,0,0,0,0,0,0,-1,1861,764,42.7154,5.35488
644,260,43.0679,-4.88177,0,0,0,0,0,0,0,-1,1868,764,43.0679,4.8818
651,260,43.0941,-3.93915,0.00171834,0.0015065,0.00260096,0.00421553,-0.000990697,0.765048,0.00319225,0.0207686,1875,764,43.0942,3.93915
658,260,42.9702,-3.13922,0.00126064,0.00124255,0.0020326,0.00328422,-0.000781026,0.783174,0.00249097,0.016232,1882,764,42.9703,3.1392
665,260,42.892,-2.396,0.00123553,0.00114068,0.00146006,0.00264893,-0.000272724,0.769163,0.00186353,0.015822,1889,764,42.892,2.39602
672,260,42.8783,-1.61554,0.00137266,0.00112331,0.00107047,0.00232568,0.000170283,0.727426,0.00149693,0.0139699,1896,764,42.8783,1.61556
679,260,42.8213,-0.822083,0.00166981,0.00131153,0.000885334,0.00239394,0.000587393,0.685576,0.00144065,0.0134061,1903,764,42.8213,0.822063
686,260,42.7745,-0.02948,0.00221906,0.00192903,0.00104555,0.0031296,0.00101849,0.716487,0.00184322,0.0204675,1910,764,42.7746,0.0294623
693,260,42.7014,0.687805,0.00306687,0.00272209,0.00144752,0.00435223,0.00143673,0.72613,0.00256065,0.0205165,1917,764,42.7014,-0.687828
700,260,42.6437,1.45276,0.00428458,0.00376002,0.00215039,0.00618863,0.00185597,0.724713,0.00366714,0.0167362,1924,764,42.6437,-1.45276
707,260,42.6794,2.23993,0.00584206,0.00491728,0.00317016,0.00858337,0.00217597,0.712981,0.00515243,0.0173512,1931,764,42.6794,-2.2399
714,260,42.7952,3.07037,0.00804306,0.00669027,0.00491432,0.0123273,0.00240601,0.717009,0.00754518,0.0330397,1938,764,42.7951,-3.07039
721,260,42.9357,3.91168,0,0,0,0,0,0,0,-1,1945,764,42.9357,-3.91167
728,260,33.4344,5.75409,0,0,0,0,0,0,0,-1,1952,764,33.4345,-5.75408
735,260,26.9788,4.85681,0,0,0,0,0,0,0,-1,1959,764,26.9787,-4.85678
742,260,32.1443,1.73688,0,0,0,0,0,0,0,-1,1966,764,32.1442,-1.73688
749,260,33.6013,2.94733,0,0,0,0,0,0,0,-1,1973,764,33.6013,-2.9473
756,260,0,0,0,0,0,0,0,0,0,-1,1980,764,0,0
763,260,0,0,0,0,0,0,0,0,0,-1,1987,764,0,0
770,260,0,0,0,0,0,0,0,0,0,-1,1994,764,0,0
777,260,0,0,0,0,0,0,0,0,0,-1,2001,764,0,0
784,260,0,0,0,0,0,0,0,0,0,-1,2008,764,0,0
791,260,0,0,0,0,0,0,0,0,0,-1,2015,764,0,0
798,260,0,0,0,0,0,0,0,0,0,-1,2022,764,0,0
805,260,0,0,0,0,0,0,0,0,0,-1,2029,764,0,0
812,260,0,0,0,0,0,0,0,0,0,-1,2036,764,0,0
-700,253,0,0,0,0,0,0,0,0,0,-1,524,771,0,0
-693,253,0,0,0,0,0,0,0,0,0,-1,531,771,0,0
-686,253,0,0,0,0,0,0,0,0,0,-1,538,771,0,0
-679,253,0,0,0,0,0,0,0,0,0,-1,545,771,0,0
-672,253,0,0,0,0,0,0,0,0,0,-1,552,771,0,0
-665,253,0,0,0,0,0,0,0,0,0,-1,559,771,0,0
-658,253,0,0,0,0,0,0,0,0,0,-1,566,771,0,0
-651,253,0,0,0,0,0,0,0,0,0,-1,573,771,0,0
-644,253,0,0,0,0,0,0,0,0,0,-1,580,771,0,0
-637,253,-24.7979,-0.491394,0,0,0,0,0,0,0,-1,587,771,-24.7978,0.491371
-630,253,-25.156,0.540405,0,0,0,0,0,0,0,-1,594,771,-25.156,-0.540421
-623,253,-20.808,2.84314,0,0,0,0,0,0,0,-1,601,771,-20.8081,-2.84312
-616,253,-25.0877,2.96875,0,0,0,0,0,0,0,-1,608,771,-25.0877,-2.96876
-609,253,-24.28,2.08228,0,0,0,0,0,0,0,-1,615,771,-24.2801,-2.08227
-602,253,-29.4777,3.87805,0,0,0,0,0,0,0,-1,622,771,-29.4777,-3.87807
-595,253,-29.3777,2.93011,0.000818689,0.00843292,-0.0118953,0.0171155,-0.00786392,-0.940273,0.0147479,0.0469611,629,771,-29.3777,-2.93011
-588,253,-29.3796,1.87317,0.000369123,0.00693207,-0.00876322,0.0130081,-0.00570687,-0.964547,0.0110758,0.0392592,636,771,-29.3796,-1.87318
-581,253,-29.4831,0.857239,-0.000303702,0.00534113,-0.00626503,0.00939015,-0.00435272,-0.997034,0.00811018,0.0268728,643,771,-29.4831,-0.857225
-574,253,-29.5306,0.097229,-0.000745712,0.00407595,-0.00414732,0.00646224,-0.003132,-1.04868,0.00564937,0.0225233,650,771,-29.5307,-0.0972228
-567,253,-29.5651,-0.663208,-0.00102097,0.00277367,-0.00237171,0.00391359,-0.00216089,-1.12276,0.00355543,0.0172132,657,771,-29.5651,0.663189
-560,253,-29.5812,-1.34473,-0.0012079,0.00157969,-0.000907818,0.00184926,-0.00147748,-1.28214,0.00192469,0.0129459,664,771,-29.5812,1.3447
-553,253,-29.6343,-2.11322,-0.00141816,0.000261714,0.000321672,0.000321203,-0.00147765,1.38793,0.0011078,0.0113223,671,771,-29.6343,2.11322
-546,253,-29.6867,-2.88031,-0.00150269,-0.000956763,0.00133664,0.000134495,-0.00259395,0.886122,0.00177583,0.0105333,678,771,-29.6867,2.88031
-539,253,-29.7517,-3.66309,-0.00166667,-0.00210316,0.00217602,0.000302019,-0.00407185,0.735417,0.00282063,0.0134508,685,771,-29.7517,3.66309
-532,253,-29.7593,-4.42737,-0.00178284,-0.00288762,0.00269463,0.00041544,-0.0050859,0.684301,0.00353722,0.0182965,692,771,-29.7593,4.42736
-525,253,-29.8044,-5.1756,-0.00150497,-0.00345223,0.00290056,0.000581008,-0.00553821,0.623472,0.00390026,0.021357,699,771,-29.8044,5.17557
-518,253,-29.9235,-5.94543,-0.000286696,-0.00533043,0.00269527,0.00088255,-0.00649967,0.409312,0.00465527,0.0404483,706,771,-29.9234,5.94545
-511,253,-30.1777,-6.6355,0,0,0,0,0,0,0,-1,713,771,-30.1777,6.63551
-504,253,-19.317,-4.1723,0,0,0,0,0,0,0,-1,720,771,-19.317,4.1723
-497,253,-21.7737,-1.76837,0,0,0,0,0,0,0,-1,727,771,-21.7738,1.7684
-490,253,-29.7674,0.438354,0,0,0,0,0,0,0,-1,734,771,-29.7674,-0.438339
-483,253,-45.4489,1.59302,0,0,0,0,0,0,0,-1,741,771,-45.4489,-1.59303
-476,253,-49.7573,0.167725,0,0,0,0,0,0,0,-1,748,771,-49.7573,-0.167741
-469,253,-49.7158,0.237793,0.0249513,-0.0323371,-0.000219389,0.0249521,-0.0323379,-0.00382948,0.0331679,0.0449825,755,771,-49.7159,-0.237766
-462,253,-49.3096,0.787659,0.0321946,-0.0395044,-0.000809359,0.0322037,-0.0395136,-0.0112864,0.0414776,0.0435185,762,771,-49.3095,-0.78768
-455,253,-49.2256,0.932861,0.0403169,-0.046609,-0.00127707,0.0403356,-0.0466277,-0.0146873,0.0502521,0.0355402,769,771,-49.2256,-0.932853
-448,253,0,0,0,0,0,0,0,0,0,-1,776,771,0,0
-441,253,0,0,0,0,0,0,0,0,0,-1,783,771,0,0
-434,253,0,0,0,0,0,0,0,0,0,-1,790,771,0,0
-427,253,0,0,0,0,0,0,0,0,0,-1,797,771,0,0
-420,253,0,0,0,0,0,0,0,0,0,-1,804,771,0,0
-413,253,0,0,0,0,0,0,0,0,0,-1,811,771,0,0
-406,253,0,0,0,0,0,0,0,0,0,-1,818,771,0,0
-399,253,0,0,0,0,0,0,0,0,0,-1,825,771,0,0
-392,253,0,0,0,0,0,0,0,0,0,-1,832,771,0,0
-385,253,0,0,0,0,0,0,0,0,0,-1,839,771,0,0
-378,253,0,0,0,0,0,0,0,0,0,-1,846,771,0,0
-371,253,0,0,0,0,0,0,0,0,0,-1,853,771,0,0
-364,253,0,0,0,0,0,0,0,0,0,-1,860,771,0,0
-357,253,0,0,0,0,0,0,0,0,0,-1,867,771,0,0
-350,253,0,0,0,0,0,0,0,0,0,-1,874,771,0,0
-343,253,0,0,0,0,0,0,0,0,0,-1,881,771,0,0
-336,253,0,0,0,0,0,0,0,0,0,-1,888,771,0,0
-329,253,0,0,0,0,0,0,0,0,0,-1,895,771,0,0
-322,253,0,0,0,0,0,0,0,0,0,-1,902,771,0,0
-315,253,0,0,0,0,0,0,0,0,0,-1,909,771,0,0
-308,253,0,0,0,0,0,0,0,0,0,-1,916,771,0,0
-301,253,0,0,0,0,0,0,0,0,0,-1,923,771,0,0
-294,253,0,0,0,0,0,0,0,0,0,-1,930,771,0,0
-287,253,0,0,0,0,0,0,0,0,0,-1,937,771,0,0
-280,253,0,0,0,0,0,0,0,0,0,-1,944,771,0,0
-273,253,0,0,0,0,0,0,0,0,0,-1,951,771,0,0
-266,253,0,0,0,0,0,0,0,0,0,-1,958,771,0,0
-259,253,0,0,0,0,0,0,0,0,0,-1,965,771,0,0
-252,253,0,0,0,0,0,0,0,0,0,-1,972,771,0,0
-245,253,0,0,0,0,0,0,0,0,0,-1,979,771,0,0
-238,253,0,0,0,0,0,0,0,0,0,-1,986,771,0,0
-231,253,0,0,0,0,0,0,0,0,0,-1,993,771,0,0
-224,253,0,0,0,0,0,0,0,0,0,-1,1000,771,0,0
-217,253,0,0,0,0,0,0,0,0,0,-1,1007,771,0,0
-210,253,0,0,0,0,0,0,0,0,0,-1,1014,771,0,0
-203,253,0,0,0,0,0,0,0,0,0,-1,1021,771,0,0
-196,253,0,0,0,0,0,0,0,0,0,-1,1028,771,0,0
-189,253,0,0,0,0,0,0,0,0,0,-1,1035,771,0,0
-182,253,0,0,0,0,0,0,0,0,0,-1,1042,771,0,0
-175,253,0,0,0,0,0,0,0,0,0,-1,1049,771,0,0
-168,253,0,0,0,0,0,0,0,0,0,-1,1056,771,0,0
-161,253,0,0,0,0,0,0,0,0,0,-1,1063,771,0,0
-154,253,0,0,0,0,0,0,0,0,0,-1,1070,771,0,0
-147,253,0,0,0,0,0,0,0,0,0,-1,1077,771,0,0
-140,253,0,0,0,0,0,0,0,0,0,-1,1084,771,0,0
-133,253,0,0,0,0,0,0,0,0,0,-1,1091,771,0,0
-126,253,0,0,0,0,0,0,0,0,0,-1,1098,771,0,0
-119,253,0,0,0,0,0,0,0,0,0,-1,1105,771,0,0
-112,253,0,0,0,0,0,0,0,0,0,-1,1112,771,0,0
-105,253,0,0,0,0,0,0,0,0,0,-1,1119,771,0,0
-98,253,0,0,0,0,0,0,0,0,0,-1,1126,771,0,0
-91,253,0,0,0,0,0,0,0,0,0,-1,1133,771,0,0
-84,253,0,0,0,0,0,0,0,0,0,-1,1140,771,0,0
-77,253,0,0,0,0,0,0,0,0,0,-1,1147,771,0,0
-70,253,0,0,0,0,0,0,0,0,0,-1,1154,771,0,0
-63,253,0,0,0,0,0,0,0,0,0,-1,1161,771,0,0
-56,253,0,0,0,0,0,0,0,0,0,-1,1168,771,0,0
-49,253,0,0,0,0,0,0,0,0,0,-1,1175,771,0,0
-42,253,0,0,0,0,0,0,0,0,0,-1,1182,771,0,0
-35,253,0,0,0,0,0,0,0,0,0,-1,1189,771,0,0
-28,253,0,0,0,0,0,0,0,0,0,-1,1196,771,0,0
-21,253,0,0,0,0,0,0,0,0,0,-1,1203,771,0,0
-14,253,0,0,0,0,0,0,0,0,0,-1,1210,771,0,0
-7,253,0,0,0,0,0,0,0,0,0,-1,1217,771,0,0
0,253,0,0,0,0,0,0,0,0,0,-1,1224,771,0,0
7,253,0,0,0,0,0,0,0,0,0,-1,1231,771,0,0
14,253,0,0,0,0,0,0,0,0,0,-1,1238,771,0,0
21,253,0,0,0,0,0,0,0,0,0,-1,1245,771,0,0
28,253,0,0,0,0,0,0,0,0,0,-1,1252,771,0,0
35,253,0,0,0,0,0,0,0,0,0,-1,1259,771,0,0
42,253,0,0,0,0,0,0,0,0,0,-1,1266,771,0,0
49,253,0,0,0,0,0,0,0,0,0,-1,1273,771,0,0
56,253,0,0,0,0,0,0,0,0,0,-1,1280,771,0,0
63,253,0,0,0,0,0,0,0,0,0,-1,1287,771,0,0
70,253,0,0,0,0,0,0,0,0,0,-1,1294,771,0,0
77,253,0,0,0,0,0,0,0,0,0,-1,1301,771,0,0
84,253,0,0,0,0,0,0,0,0,0,-1,1308,771,0,0
91,253,0,0,0,0,0,0,0,0,0,-1,1315,771,0,0
98,253,0,0,0,0,0,0,0,0,0,-1,1322,771,0,0
105,253,0,0,0,0,0,0,0,0,0,-1,1329,771,0,0
112,253,0,0,0,0,0,0,0,0,0,-1,1336,771,0,0
119,253,0,0,0,0,0,0,0,0,0,-1,1343,771,0,0
126,253,0,0,0,0,0,0,0,0,0,-1,1350,771,0,0
133,253,0,0,0,0,0,0,0,0,0,-1,1357,771,0,0
140,253,0,0,0,0,0,0,0,0,0,-1,1364,771,0,0
147,253,0,0,0,0,0,0,0,0,0,-1,1371,771,0,0
154,253,0,0,0,0,0,0,0,0,0,-1,1378,771,0,0
161,253,0,0,0,0,0,0,0,0,0,-1,1385,771,0,0
168,253,0,0,0,0,0,0,0,0,0,-1,1392,771,0,0
175,253,0,0,0,0,0,0,0,0,0,-1,1399,771,0,0
182,253,0,0,0,0,0,0,0,0,0,-1,1406,771,0,0
189,253,0,0,0,0,0,0,0,0,0,-1,1413,771,0,0
196,253,0,0,0,0,0,0,0,0,0,-1,1420,771,0,0
203,253,0,0,0,0,0,0,0,0,0,-1,1427,771,0,0
210,253,0,0,0,0,0,0,0,0,0,-1,1434,771,0,0
217,253,0,0,0,0,0,0,0,0,0,-1,1441,771,0,0
224,253,0,0,0,0,0,0,0,0,0,-1,1448,771,0,0
231,253,0,0,0,0,0,0,0,0,0,-1,1455,771,0,0
238,253,0,0,0,0,0,0,0,0,0,-1,1462,771,0,0
245,253,0,0,0,0,0,0,0,0,0,-1,1469,771,0,0
252,253,0,0,0,0,0,0,0,0,0,-1,1476,771,0,0
259,253,0,0,0,0,0,0,0,0,0,-1,1483,771,0,0
266,253,0,0,0,0,0,0,0,0,0,-1,1490,771,0,0
273,253,0,0,0,0,0,0,0,0,0,-1,1497,771,0,0
280,253,0,0,0,0,0,0,0,0,0,-1,1504,771,0,0
287,253,0,0,0,0,0,0,0,0,0,-1,1511,771,0,0
294,253,0,0,0,0,0,0,0,0,0,-1,1518,771,0,0
301,253,0,0,0,0,0,0,0,0,0,-1,1525,771,0,0
308,253,0,0,0,0,0,0,0,0,0,-1,1532,771,0,0
315,253,0,0,0,0,0,0,0,0,0,-1,1539,771,0,0
322,253,0,0,0,0,0,0,0,0,0,-1,1546,771,0,0
329,253,0,0,0,0,0,0,0,0,0,-1,1553,771,0,0
336,253,0,0,0,0,0,0,0,0,0,-1,1560,771,0,0
343,253,0,0,0,0,0,0,0,0,0,-1,1567,771,0,0
350,253,0,0,0,0,0,0,0,0,0,-1,1574,771,0,0
357,253,0,0,0,0,0,0,0,0,0,-1,1581,771,0,0
364,253,0,0,0,0,0,0,0,0,0,-1,1588,771,0,0
371,253,0,0,0,0,0,0,0,0,0,-1,1595,771,0,0
378,253,0,0,0,0,0,0,0,0,0,-1,1602,771,0,0
385,253,0,0,0,0,0,0,0,0,0,-1,1609,771,0,0
392,253,0,0,0,0,0,0,0,0,0,-1,1616,771,0,0
399,253,0,0,0,0,0,0,0,0,0,-1,1623,771,0,0
406,253,0,0,0,0,0,0,0,0,0,-1,1630,771,0,0
413,253,0,0,0,0,0,0,0,0,0,-1,1637,771,0,0
420,253,0,0,0,0,0,0,0,0,0,-1,1644,771,0,0
427,253,0,0,0,0,0,0,0,0,0,-1,1651,771,0,0
434,253,0,0,0,0,0,0,0,0,0,-1,1658,771,0,0
441,253,0,0,0,0,0,0,0,0,0,-1,1665,771,0,0
448,253,0,0,0,0,0,0,0,0,0,-1,1672,771,0,0
455,253,0,0,0,0,0,0,0,0,0,-1,1679,771,0,0
462,253,0,0,0,0,0,0,0,0,0,-1,1686,771,0,0
469,253,0,0,0,0,0,0,0,0,0,-1,1693,771,0,0
476,253,0,0,0,0,0,0,0,0,0,-1,1700,771,0,0
483,253,0,0,0,0,0,0,0,0,0,-1,1707,771,0,0
490,253,0,0,0,0,0,0,0,0,0,-1,1714,771,0,0
497,253,0,0,0,0,0,0,0,0,0,-1,1721,771,0,0
504,253,0,0,0,0,0,0,0,0,0,-1,1728,771,0,0
511,253,0,0,0,0,0,0,0,0,0,-1,1735,771,0,0
518,253,0,0,0,0,0,0,0,0,0,-1,1742,771,0,0
525,253,0,0,0,0,0,0,0,0,0,-1,1749,771,0,0
532,253,0,0,0,0,0,0,0,0,0,-1,1756,771,0,0
539,253,0,0,0,0,0,0,0,0,0,-1,1763,771,0,0
546,253,0,0,0,0,0,0,0,0,0,-1,1770,771,0,0
553,253,0,0,0,0,0,0,0,0,0,-1,1777,771,0,0
560,253,0,0,0,0,0,0,0,0,0,-1,1784,771,0,0
567,253,0,0,0,0,0,0,0,0,0,-1,1791,771,0,0
574,253,64.3066,2.66479,0,0,0,0,0,0,0,-1,1798,771,64.3066,-2.66479
581,253,64.2933,2.80151,0,0,0,0,0,0,0,-1,1805,771,64.2934,-2.80153
588,253,64.4762,2.68878,0,0,0,0,0,0,0,-1,1812,771,64.4762,-2.68876
595,253,65.0177,2.67395,0,0,0,0,0,0,0,-1,1819,771,65.0177,-2.67395
602,253,63.9274,3.07953,0,0,0,0,0,0,0,-1,1826,771,63.9274,-3.07951
609,253,63.92,3.35876,0,0,0,0,0,0,0,-1,1833,771,63.9201,-3.35876
616,253,58.416,2.69031,0,0,0,0,0,0,0,-1,1840,771,58.4161,-2.69031
623,253,48.8328,3.01001,0,0,0,0,0,0,0,-1,1847,771,48.8328,-3.01002
630,253,33.561,2.96838,0,0,0,0,0,0,0,-1,1854,771,33.561,-2.96836
637,253,22.3192,-0.604004,0,0,0,0,0,0,0,-1,1861,771,22.3192,0.603986
644,253,44.0509,-4.46362,0,0,0,0,0,0,0,-1,1868,771,44.0509,4.46365
651,253,43.8407,-3.78497,0.00150541,0.00190211,0.00244928,0.00416106,-0.000753542,0.825802,0.00305635,0.0423834,1875,771,43.8407,3.78494
658,253,43.7198,-3.09625,0.000985449,0.00166382,0.00194429,0.00329829,-0.000649017,0.871755,0.00244409,0.0221948,1882,771,43.7199,3.09626
665,253,43.6204,-2.3642,0.000898427,0.00143392,0.00140323,0.00259472,-0.000262369,0.879669,0.00182357,0.0218731,1889,771,43.6203,2.3642
672,253,43.6132,-1.57758,0.000981413,0.00116607,0.000938473,0.00201675,0.000130738,0.834431,0.00130311,0.0165838,1896,771,43.6132,1.57756
679,253,43.6157,-0.755066,0.00123147,0.0010476,0.000631595,0.00177779,0.000501283,0.713123,0.00105843,0.0136752,1903,771,43.6158,0.755043
686,253,43.5458,0.031311,0.00171709,0.00147645,0.000714843,0.00232167,0.00087187,0.702023,0.00135419,0.0236256,1910,771,43.5458,-0.0312926
693,253,43.4818,0.750305,0.00250826,0.00212797,0.00105115,0.00338632,0.00124991,0.695919,0.0019773,0.0229825,1917,771,43.4818,-0.7503
700,253,43.4569,1.48309,0.0036227,0.00296457,0.00161209,0.00493897,0.0016483,0.68472,0.00290359,0.0178582,1924,771,43.4569,-1.48312
707,253,43.4316,2.28094,0.00502642,0.00395169,0.00246392,0.00701089,0.00196722,0.678033,0.00417562,0.016644,1931,771,43.4316,-2.28092
714,253,43.429,3.06927,0.00703114,0.00630995,0.00373362,0.0104215,0.00291956,0.737257,0.00620774,0.0241562,1938,771,43.429,-3.06927
721,253,43.5117,3.93457,0.00958941,0.00892028,0.00524183,0.0145073,0.00400235,0.753528,0.00865174,0.0434566,1945,771,43.5117,-3.93456
728,253,43.637,4.82074,0,0,0,0,0,0,0,-1,1952,771,43.6369,-4.82073
735,253,34.5735,6.15118,0,0,0,0,0,0,0,-1,1959,771,34.5734,-6.1512
742,253,31.0571,5.7337,0,0,0,0,0,0,0,-1,1966,771,31.0571,-5.73373
749,253,33.7754,3.21533,0,0,0,0,0,0,0,-1,1973,771,33.7754,-3.21533
756,253,0,0,0,0,0,0,0,0,0,-1,1980,771,0,0
763,253,0,0,0,0,0,0,0,0,0,-1,1987,771,0,0
770,253,0,0,0,0,0,0,0,0,0,-1,1994,771,0,0
777,253,0,0,0,0,0,0,0,0,0,-1,2001,771,0,0
784,253,0,0,0,0,0,0,0,0,0,-1,2008,771,0,0
791,253,0,0,0,0,0,0,0,0,0,-1,2015,771,0,0
798,253,0,0,0,0,0,0,0,0,0,-1,2022,771,0,0
805,253,0,0,0,0,0,0,0,0,0,-1,2029,771,0,0
812,253,0,0,0,0,0,0,0,0,0,-1,2036,771,0,0
-700,246,0,0,0,0,0,0,0,0,0,-1,524,778,0,0
-693,246,0,0,0,0,0,0,0,0,0,-1,531,778,0,0
-686,246,0,0,0,0,0,0,0,0,0,-1,538,778,0,0
-679,246,0,0,0,0,0,0,0,0,0,-1,545,778,0,0
-672,246,0,0,0,0,0,0,0,0,0,-1,552,778,0,0
-665,246,0,0,0,0,0,0,0,0,0,-1,559,778,0,0
-658,246,0,0,0,0,0,0,0,0,0,-1,566,778,0,0
-651,246,0,0,0,0,0,0,0,0,0,-1,573,778,0,0
-644,246,0,0,0,0,0,0,0,0,0,-1,580,778,0,0
-637,246,-24.1234,0.130432,0,0,0,0,0,0,0,-1,587,778,-24.1234,-0.130438
-630,246,-24.0781,1.38916,0,0,0,0,0,0,0,-1,594,778,-24.0781,-1.38913
-623,246,-23.9183,2.49573,0,0,0,0,0,0,0,-1,601,778,-23.9183,-2.49575
-616,246,-26.8182,2.0705,0,0,0,0,0,0,0,-1,608,778,-26.8182,-2.07052
-609,246,-26.0615,1.16388,0,0,0,0,0,0,0,-1,615,778,-26.0615,-1.16388
-602,246,-30.2667,3.55402,0,0,0,0,0,0,0,-1,622,778,-30.2667,-3.55403
-595,246,-30.2124,2.73706,0.0012387,0.00790936,-0.0112761,0.016333,-0.00718497,-0.929192,0.0139163,0.0453397,629,778,-30.2124,-2.73706
-588,246,-30.1408,1.7746,0.000775994,0.00648443,-0.00833677,0.012442,-0.00518161,-0.950327,0.0104589,0.0295924,636,778,-30.1408,-1.77463
-581,246,-30.2736,0.931335,0.000100064,0.00498644,-0.005921,0.00894852,-0.00386202,-0.981072,0.00758802,0.0184692,643,778,-30.2736,-0.931324
-574,246,-30.2377,0.090332,-0.000395653,0.00371683,-0.00383608,0.00601302,-0.00269184,-1.03142,0.00514624,0.0201875,650,778,-30.2377,-0.0903482
-567,246,-30.2688,-0.657166,-0.000756728,0.00247278,-0.00207057,0.0034838,-0.00176775,-1.11657,0.00308547,0.0242903,657,778,-30.2688,0.657187
-560,246,-30.3734,-1.35352,-0.00106256,0.00133077,-0.000546739,0.00144975,-0.00118154,-1.35651,0.00152181,0.0182852,664,778,-30.3734,1.3535
-553,246,-30.4028,-2.05762,-0.00140435,4.43031e-05,0.000668073,0.000305355,-0.00166541,1.19829,0.00122481,0.0120617,671,778,-30.4028,2.05763
-546,246,-30.4453,-2.80603,-0.00156569,-0.00110794,0.00160272,0.000282169,-0.00295579,0.856321,0.002071,0.0103647,678,778,-30.4453,2.80601
-539,246,-30.5188,-3.60468,-0.00178471,-0.00219345,0.00228362,0.000303669,-0.00428183,0.740771,0.00296097,0.0116682,685,778,-30.5188,3.60466
-532,246,-30.5397,-4.42279,-0.00194482,-0.00289589,0.00260049,0.000223256,-0.00506397,0.694965,0.0034528,0.0211935,692,778,-30.5397,4.42282
-525,246,-30.5745,-5.14288,-0.00166749,-0.00343742,0.00272868,0.000316147,-0.00542106,0.62859,0.0037239,0.0428689,699,778,-30.5745,5.1429
-518,246,-30.5103,-5.74249,0,0,0,0,0,0,0,-1,706,778,-30.5103,5.74247
-511,246,-28.5886,-5.38635,0,0,0,0,0,0,0,-1,713,778,-28.5886,5.38633
-504,246,-20.0047,-2.88214,0,0,0,0,0,0,0,-1,720,778,-20.0047,2.88216
-497,246,-29.4669,1.82684,0,0,0,0,0,0,0,-1,727,778,-29.4669,-1.82687
-490,246,-40.4299,1.04309,0,0,0,0,0,0,0,-1,734,778,-40.4299,-1.04308
-483,246,-49.5006,0.764893,0,0,0,0,0,0,0,-1,741,778,-49.5006,-0.764914
-476,246,-49.3467,0.878662,0,0,0,0,0,0,0,-1,748,778,-49.3467,-0.878691
-469,246,-49.3782,0.714294,0.0225253,-0.0287441,-0.000462752,0.0225295,-0.0287483,-0.00902491,0.0296777,0.0427613,755,778,-49.3782,-0.714311
-462,246,-49.196,0.933167,0.028898,-0.0344446,-0.00106969,0.0289161,-0.0344627,-0.0168809,0.0366384,0.0454239,762,778,-49.196,-0.93315
-455,246,0,0,0,0,0,0,0,0,0,-1,769,778,0,0
-448,246,0,0,0,0,0,0,0,0,0,-1,776,778,0,0
-441,246,0,0,0,0,0,0,0,0,0,-1,783,778,0,0
-434,246,0,0,0,0,0,0,0,0,0,-1,790,778,0,0
-427,246,0,0,0,0,0,0,0,0,0,-1,797,778,0,0
-420,246,0,0,0,0,0,0,0,0,0,-1,804,778,0,0
-413,246,0,0,0,0,0,0,0,0,0,-1,811,778,0,0
-406,246,0,0,0,0,0,0,0,0,0,-1,818,778,0,0
-399,246,0,0,0,0,0,0,0,0,0,-1,825,778,0,0
-392,246,0,0,0,0,0,0,0,0,0,-1,832,778,0,0
-385,246,0,0,0,0,0,0,0,0,0,-1,839,778,0,0
-378,246,0,0,0,0,0,0,0,0,0,-1,846,778,0,0
-371,246,0,0,0,0,0,0,0,0,0,-1,853,778,0,0
-364,246,0,0,0,0,0,0,0,0,0,-1,860,778,0,0
-357,246,0,0,0,0,0,0,0,0,0,-1,867,778,0,0
-350,246,0,0,0,0,0,0,0,0,0,-1,874,778,0,0
-343,246,0,0,0,0,0,0,0,0,0,-1,881,778,0,0
-336,246,0,0,0,0,0,0,0,0,0,-1,888,778,0,0
-329,246,0,0,0,0,0,0,0,0,0,-1,895,778,0,0
-322,246,0,0,0,0,0,0,0,0,0,-1,902,778,0,0
-315,246,0,0,0,0,0,0,0,0,0,-1,909,778,0,0
-308,246,0,0,0,0,0,0,0,0,0,-1,916,778,0,0
-301,246,0,0,0,0,0,0,0,0,0,-1,923,778,0,0
-294,246,0,0,0,0,0,0,0,0,0,-1,930,778,0,0
-287,246,0,0,0,0,0,0,0,0,0,-1,937,778,0,0
-280,246,0,0,0,0,0,0,0,0,0,-1,944,778,0,0
-273,246,0,0,0,0,0,0,0,0,0,-1,951,778,0,0
-266,246,0,0,0,0,0,0,0,0,0,-1,958,778,0,0
-259,246,0,0,0,0,0,0,0,0,0,-1,965,778,0,0
-252,246,0,0,0,0,0,0,0,0,0,-1,972,778,0,0
-245,246,0,0,0,0,0,0,0,0,0,-1,979,778,0,0
-238,246,0,0,0,0,0,0,0,0,0,-1,986,778,0,0
-231,246,0,0,0,0,0,0,0,0,0,-1,993,778,0,0
-224,246,0,0,0,0,0,0,0,0,0,-1,1000,778,0,0
-217,246,0,0,0,0,0,0,0,0,0,-1,1007,778,0,0
-210,246,0,0,0,0,0,0,0,0,0,-1,1014,778,0,0
-203,246,0,0,0,0,0,0,0,0,0,-1,1021,778,0,0
-196,246,0,0,0,0,0,0,0,0,0,-1,1028,778,0,0
-189,246,0,0,0,0,0,0,0,0,0,-1,1035,778,0,0
-182,246,0,0,0,0,0,0,0,0,0,-1,1042,778,0,0
-175,246,0,0,0,0,0,0,0,0,0,-1,1049,778,0,0
-168,246,0,0,0,0,0,0,0,0,0,-1,1056,778,0,0
-161,246,0,0,0,0,0,0,0,0,0,-1,1063,778,0,0
-154,246,0,0,0,0,0,0,0,0,0,-1,1070,778,0,0
-147,246,0,0,0,0,0,0,0,0,0,-1,1077,778,0,0
-140,246,0,0,0,0,0,0,0,0,0,-1,1084,778,0,0
-133,246,0,0,0,0,0,0,0,0,0,-1,1091,778,0,0
-126,246,0,0,0,0,0,0,0,0,0,-1,1098,778,0,0
-119,246,0,0,0,0,0,0,0,0,0,-1,1105,778,0,0
-112,246,0,0,0,0,0,0,0,0,0,-1,1112,778,0,0
-105,246,0,0,0,0,0,0,0,0,0,-1,1119,778,0,0
-98,246,0,0,0,0,0,0,0,0,0,-1,1126,778,0,0
-91,246,0,0,0,0,0,0,0,0,0,-1,1133,778,0,0
-84,246,0,0,0,0,0,0,0,0,0,-1,1140,778,0,0
-77,246,0,0,0,0,0,0,0,0,0,-1,1147,778,0,0
-70,246,0,0,0,0,0,0,0,0,0,-1,1154,778,0,0
-63,246,0,0,0,0,0,0,0,0,0,-1,1161,778,0,0
-56,246,0,0,0,0,0,0,0,0,0,-1,1168,778,0,0
-49,246,0,0,0,0,0,0,0,0,0,-1,1175,778,0,0
-42,246,0,0,0,0,0,0,0,0,0,-1,1182,778,0,0
-35,246,0,0,0,0,0,0,0,0,0,-1,1189,778,0,0
-28,246,0,0,0,0,0,0,0,0,0,-1,1196,778,0,0
-21,246,0,0,0,0,0,0,0,0,0,-1,1203,778,0,0
-14,246,0,0,0,0,0,0,0,0,0,-1,1210,778,0,0
-7,246,0,0,0,0,0,0,0,0,0,-1,1217,778,0,0
0,246,0,0,0,0,0,0,0,0,0,-1,1224,778,0,0
7,246,0,0,0,0,0,0,0,0,0,-1,1231,778,0,0
14,246,0,0,0,0,0,0,0,0,0,-1,1238,778,0,0
21,246,0,0,0,0,0,0,0,0,0,-1,1245,778,0,0
28,246,0,0,0,0,0,0,0,0,0,-1,1252,778,0,0
35,246,0,0,0,0,0,0,0,0,0,-1,1259,778,0,0
42,246,0,0,0,0,0,0,0,0,0,-1,1266,778,0,0
49,246,0,0,0,0,0,0,0,0,0,-1,1273,778,0,0
56,246,0,0,0,0,0,0,0,0,0,-1,1280,778,0,0
63,246,0,0,0,0,0,0,0,0,0,-1,1287,778,0,0
70,246,0,0,0,0,0,0,0,0,0,-1,1294,778,0,0
77,246,0,0,0,0,0,0,0,0,0,-1,1301,778,0,0
84,246,0,0,0,0,0,0,0,0,0,-1,1308,778,0,0
91,246,0,0,0,0,0,0,0,0,0,-1,1315,778,0,0
98,246,0,0,0,0,0,0,0,0,0,-1,1322,778,0,0
105,246,0,0,0,0,0,0,0,0,0,-1,1329,778,0,0
112,246,0,0,0,0,0,0,0,0,0,-1,1336,778,0,0
119,246,0,0,0,0,0,0,0,0,0,-1,1343,778,0,0
126,246,0,0,0,0,0,0,0,0,0,-1,1350,778,0,0
133,246,0,0,0,0,0,0,0,0,0,-1,1357,778,0,0
140,246,0,0,0,0,0,0,0,0,0,-1,1364,778,0,0
147,246,0,0,0,0,0,0,0,0,0,-1,1371,778,0,0
154,246,0,0,0,0,0,0,0,0,0,-1,1378,778,0,0
161,246,0,0,0,0,0,0,0,0,0,-1,1385,778,0,0
168,246,0,0,0,0,0,0,0,0,0,-1,1392,778,0,0
175,246,0,0,0,0,0,0,0,0,0,-1,1399,778,0,0
182,246,0,0,0,0,0,0,0,0,0,-1,1406,778,0,0
189,246,0,0,0,0,0,0,0,0,0,-1,1413,778,0,0
196,246,0,0,0,0,0,0,0,0,0,-1,1420,778,0,0
203,246,0,0,0,0,0,0,0,0,0,-1,1427,778,0,0
210,246,0,0,0,0,0,0,0,0,0,-1,1434,778,0,0
217,246,0,0,0,0,0,0,0,0,0,-1,1441,778,0,0
224,246,0,0,0,0,0,0,0,0,0,-1,1448,778,0,0
231,246,0,0,0,0,0,0,0,0,0,-1,1455,778,0,0
238,246,0,0,0,0,0,0,0,0,0,-1,1462,778,0,0
245,246,0,0,0,0,0,0,0,0,0,-1,1469,778,0,0
252,246,0,0,0,0,0,0,0,0,0,-1,1476,778,0,0
259,246,0,0,0,0,0,0,0,0,0,-1,1483,778,0,0
266,246,0,0,0,0,0,0,0,0,0,-1,1490,778,0,0
273,246,0,0,0,0,0,0,0,0,0,-1,1497,778,0,0
280,246,0,0,0,0,0,0,0,0,0,-1,1504,778,0,0
287,246,0,0,0,0,0,0,0,0,0,-1,1511,778,0,0
294,246,0,0,0,0,0,0,0,0,0,-1,1518,778,0,0
301,246,0,0,0,0,0,0,0,0,0,-1,1525,778,0,0
308,246,0,0,0,0,0,0,0,0,0,-1,1532,778,0,0
315,246,0,0,0,0,0,0,0,0,0,-1,1539,778,0,0
322,246,0,0,0,0,0,0,0,0,0,-1,1546,778,0,0
329,246,0,0,0,0,0,0,0,0,0,-1,1553,778,0,0
336,246,0,0,0,0,0,0,0,0,0,-1,1560,778,0,0
343,246,0,0,0,0,0,0,0,0,0,-1,1567,778,0,0
350,246,0,0,0,0,0,0,0,0,0,-1,1574,778,0,0
357,246,0,0,0,0,0,0,0,0,0,-1,1581,778,0,0
364,246,0,0,0,0,0,0,0,0,0,-1,1588,778,0,0
371,246,0,0,0,0,0,0,0,0,0,-1,1595,778,0,0
378,246,0,0,0,0,0,0,0,0,0,-1,1602,778,0,0
385,246,0,0,0,0,0,0,0,0,0,-1,1609,778,0,0
392,246,0,0,0,0,0,0,0,0,0,-1,1616,778,0,0
399,246,0,0,0,0,0,0,0,0,0,-1,1623,778,0,0
406,246,0,0,0,0,0,0,0,0,0,-1,1630,778,0,0
413,246,0,0,0,0,0,0,0,0,0,-1,1637,778,0,0
420,246,0,0,0,0,0,0,0,0,0,-1,1644,778,0,0
427,246,0,0,0,0,0,0,0,0,0,-1,1651,778,0,0
434,246,0,0,0,0,0,0,0,0,0,-1,1658,778,0,0
441,246,0,0,0,0,0,0,0,0,0,-1,1665,778,0,0
448,246,0,0,0,0,0,0,0,0,0,-1,1672,778,0,0
455,246,0,0,0,0,0,0,0,0,0,-1,1679,778,0,0
462,246,0,0,0,0,0,0,0,0,0,-1,1686,778,0,0
469,246,0,0,0,0,0,0,0,0,0,-1,1693,778,0,0
476,246,0,0,0,0,0,0,0,0,0,-1,1700,778,0,0
483,246,0,0,0,0,0,0,0,0,0,-1,1707,778,0,0
490,246,0,0,0,0,0,0,0,0,0,-1,1714,778,0,0
497,246,0,0,0,0,0,0,0,0,0,-1,1721,778,0,0
504,246,0,0,0,0,0,0,0,0,0,-1,1728,778,0,0
511,246,0,0,0,0,0,0,0,0,0,-1,1735,778,0,0
518,246,0,0,0,0,0,0,0,0,0,-1,1742,778,0,0
525,246,0,0,0,0,0,0,0,0,0,-1,1749,778,0,0
532,246,0,0,0,0,0,0,0,0,0,-1,1756,778,0,0
539,246,0,0,0,0,0,0,0,0,0,-1,1763,778,0,0
546,246,0,0,0,0,0,0,0,0,0,-1,1770,778,0,0
553,246,0,0,0,0,0,0,0,0,0,-1,1777,778,0,0
560,246,0,0,0,0,0,0,0,0,0,-1,1784,778,0,0
567,246,0,0,0,0,0,0,0,0,0,-1,1791,778,0,0
574,246,0,0,0,0,0,0,0,0,0,-1,1798,778,0,0
581,246,64.2202,2.92133,0.0178303,-0.00870044,-0.00594924,0.0191033,-0.00997342,-0.210794,0.017061,0.0389256,1805,778,64.2202,-2.92133
588,246,64.3649,2.65997,0.016057,-0.00630479,-0.00251952,0.0163374,-0.00658516,-0.11082,0.0136277,0.0452581,1812,778,64.3649,-2.66
595,246,64.6804,2.65381,0.0137602,-0.00403655,-0.000654532,0.0137843,-0.00406059,-0.036712,0.0108006,0.0461575,1819,778,64.6804,-2.6538
602,246,64.7466,2.76068,0,0,0,0,0,0,0,-1,1826,778,64.7466,-2.76065
609,246,63.6246,3.20074,0,0,0,0,0,0,0,-1,1833,778,63.6246,-3.20072
616,246,60.4568,3.98492,0,0,0,0,0,0,0,-1,1840,778,60.4568,-3.98491
623,246,55.8947,3.95953,0,0,0,0,0,0,0,-1,1847,778,55.8947,-3.95952
630,246,49.5938,1.99902,0,0,0,0,0,0,0,-1,1854,778,49.5937,-1.999
637,246,29.5785,0.837585,0,0,0,0,0,0,0,-1,1861,778,29.5785,-0.837606
644,246,28.1232,-1.43188,0,0,0,0,0,0,0,-1,1868,778,28.1232,1.43188
651,246,44.5718,-3.6864,0,0,0,0,0,0,0,-1,1875,778,44.5718,3.68642
658,246,44.264,-3.22723,0.000572692,0.00171131,0.00175975,0.00299155,-0.000707545,0.941844,0.00226732,0.0481842,1882,778,44.264,3.22724
665,246,44.3926,-2.32623,0.000384425,0.00152595,0.00129012,0.00236593,-0.000455551,0.99366,0.00174902,0.0270005,1889,778,44.3926,2.32623
672,246,44.3882,-1.50287,0.00039627,0.00120148,0.000803193,0.00169732,-9.95732e-05,1.01772,0.00116616,0.0206355,1896,778,44.3882,1.50285
679,246,44.3787,-0.701294,0.00061248,0.000885201,0.000397292,0.00116888,0.000328799,0.950711,0.000696042,0.0212904,1903,778,44.3787,0.701291
686,246,44.3484,0.103821,0.00104467,0.00113176,0.000388039,0.00147869,0.00069774,0.841271,0.000854172,0.023467,1910,778,44.3483,-0.103816
693,246,44.326,0.801819,0.00181422,0.00164644,0.000661343,0.00239697,0.00106369,0.722309,0.00138681,0.0191069,1917,778,44.326,-0.801805
700,246,44.3027,1.5249,0.00293017,0.00231987,0.0011363,0.00380158,0.00144846,0.654221,0.00221546,0.0156228,1924,778,44.3027,-1.5249
707,246,44.2402,2.32336,0.00430006,0.0031804,0.00191695,0.00573726,0.0017432,0.643328,0.00339632,0.013632,1931,778,44.2402,-2.32336
714,246,44.1711,3.13208,0.00611467,0.00591866,0.00288105,0.00889939,0.00313395,0.768397,0.0052124,0.0141385,1938,778,44.1712,-3.13211
721,246,44.1075,3.85687,0.00830438,0.00877246,0.00402098,0.0125662,0.00451063,0.814467,0.0073507,0.0196711,1945,778,44.1076,-3.85689
728,246,44.1268,4.98358,0,0,0,0,0,0,0,-1,1952,778,44.1269,-4.98359
735,246,44.218,6.23102,0,0,0,0,0,0,0,-1,1959,778,44.218,-6.231
742,246,31.7356,6.70013,0,0,0,0,0,0,0,-1,1966,778,31.7356,-6.70011
749,246,32.3883,7.69324,0,0,0,0,0,0,0,-1,1973,778,32.3883,-7.69322
756,246,33.6919,3.45264,0,0,0,0,0,0,0,-1,1980,778,33.6919,-3.45262
763,246,0,0,0,0,0,0,0,0,0,-1,1987,778,0,0
770,246,0,0,0,0,0,0,0,0,0,-1,1994,778,0,0
777,246,0,0,0,0,0,0,0,0,0,-1,2001,778,0,0
784,246,0,0,0,0,0,0,0,0,0,-1,2008,778,0,0
791,246,0,0,0,0,0,0,0,0,0,-1,2015,778,0,0
798,246,0,0,0,0,0,0,0,0,0,-1,2022,778,0,0
805,246,0,0,0,0,0,0,0,0,0,-1,2029,778,0,0
812,246,0,0,0,0,0,0,0,0,0,-1,2036,778,0,0
-700,239,0,0,0,0,0,0,0,0,0,-1,524,785,0,0
-693,239,0,0,0,0,0,0,0,0,0,-1,531,785,0,0
-686,239,0,0,0,0,0,0,0,0,0,-1,538,785,0,0
-679,239,0,0,0,0,0,0,0,0,0,-1,545,785,0,0
-672,239,0,0,0,0,0,0,0,0,0,-1,552,785,0,0
-665,239,0,0,0,0,0,0,0,0,0,-1,559,785,0,0
-658,239,0,0,0,0,0,0,0,0,0,-1,566,785,0,0
-651,239,0,0,0,0,0,0,0,0,0,-1,573,785,0,0
-644,239,0,0,0,0,0,0,0,0,0,-1,580,785,0,0
-637,239,-23.2709,0.465088,0,0,0,0,0,0,0,-1,587,785,-23.271,-0.465116
-630,239,-23.4006,0.956299,0,0,0,0,0,0,0,-1,594,785,-23.4005,-0.956285
-623,239,-30.6328,2.52185,0,0,0,0,0,0,0,-1,601,785,-30.6328,-2.52183
-616,239,-29.1425,1.42139,0,0,0,0,0,0,0,-1,608,785,-29.1425,-1.42139
-609,239,-27.8569,0.322937,0,0,0,0,0,0,0,-1,615,785,-27.857,-0.322963
-602,239,-30.7938,4.13873,0,0,0,0,0,0,0,-1,622,785,-30.7938,-4.13872
-595,239,-30.8255,2.98291,0.000996807,0.00763946,-0.0103309,0.0151698,-0.00653354,-0.940927,0.0128569,0.0415305,629,785,-30.8255,-2.98289
-588,239,-30.8789,1.84631,0.000770395,0.00623114,-0.00767503,0.011647,-0.00464546,-0.956291,0.00969166,0.0197122,636,785,-30.8789,-1.8463
-581,239,-31.0307,0.951111,0.00028927,0.00479884,-0.00542668,0.00842053,-0.00333242,-0.982296,0.00699432,0.0115241,643,785,-31.0307,-0.951088
-574,239,-31.0273,0.154968,-0.000101792,0.00352325,-0.00344854,0.00560658,-0.00218512,-1.02735,0.00464086,0.0128785,650,785,-31.0274,-0.15497
-567,239,-31.0572,-0.603333,-0.000438157,0.00233697,-0.00175194,0.00318427,-0.00128546,-1.12032,0.00265709,0.0178614,657,785,-31.0572,0.60336
-560,239,-31.1328,-1.30164,-0.000744472,0.00131548,-0.00019886,0.0013345,-0.000763494,-1.47543,0.00122614,0.0180919,664,785,-31.1328,1.30162
-553,239,-31.168,-2.02765,-0.0010964,0.000151564,0.000956631,0.000669727,-0.00161456,1.07438,0.00135592,0.0135138,671,785,-31.168,2.02763
-546,239,-31.2029,-2.77893,-0.00125615,-0.00086572,0.00179219,0.000741859,-0.00286373,0.839647,0.00219857,0.0147574,678,785,-31.203,2.77896
-539,239,-31.3945,-3.52069,-0.0014801,-0.0018172,0.002356,0.00071337,-0.00401067,0.749689,0.00294055,0.0205887,685,785,-31.3945,3.52067
-532,239,-31.5069,-4.2597,-0.00168132,-0.00239217,0.00258802,0.000575567,-0.00464905,0.717157,0.00330796,0.0276606,692,785,-31.5069,4.25973
-525,239,-31.426,-4.74951,-0.00143647,-0.00289151,0.00273512,0.000666229,-0.00499421,0.655413,0.00357232,0.0417197,699,785,-31.426,4.74954
-518,239,-31.6216,-5.13177,0,0,0,0,0,0,0,-1,706,785,-31.6216,5.13178
-511,239,-20.9849,-2.09235,0,0,0,0,0,0,0,-1,713,785,-20.9848,2.09234
-504,239,-25.5015,2.00421,0,0,0,0,0,0,0,-1,720,785,-25.5015,-2.00422
-497,239,-40.2453,1.4447,0,0,0,0,0,0,0,-1,727,785,-40.2453,-1.4447
-490,239,-48.5262,1.19196,0,0,0,0,0,0,0,-1,734,785,-48.5262,-1.19196
-483,239,-49.3937,0.801331,0,0,0,0,0,0,0,-1,741,785,-49.3937,-0.801342
-476,239,-49.2618,0.917114,0.0148804,-0.0201818,-0.000269987,0.0148825,-0.0201839,-0.00769962,0.0203226,0.0409568,748,785,-49.2618,-0.917125
-469,239,-49.1727,0.953308,0.0198659,-0.024937,-0.000845736,0.0198818,-0.0249529,-0.0188679,0.0259405,0.041351,755,785,-49.1727,-0.953316
-462,239,-49.1504,0.979004,0.0252965,-0.0292257,-0.00163859,0.0253457,-0.0292749,-0.0300175,0.0315624,0.0438538,762,785,-49.1504,-0.979009
-455,239,0,0,0,0,0,0,0,0,0,-1,769,785,0,0
-448,239,0,0,0,0,0,0,0,0,0,-1,776,785,0,0
-441,239,0,0,0,0,0,0,0,0,0,-1,783,785,0,0
-434,239,0,0,0,0,0,0,0,0,0,-1,790,785,0,0
-427,239,0,0,0,0,0,0,0,0,0,-1,797,785,0,0
-420,239,0,0,0,0,0,0,0,0,0,-1,804,785,0,0
-413,239,0,0,0,0,0,0,0,0,0,-1,811,785,0,0
-406,239,0,0,0,0,0,0,0,0,0,-1,818,785,0,0
-399,239,0,0,0,0,0,0,0,0,0,-1,825,785,0,0
-392,239,0,0,0,0,0,0,0,0,0,-1,832,785,0,0
-385,239,0,0,0,0,0,0,0,0,0,-1,839,785,0,0
-378,239,0,0,0,0,0,0,0,0,0,-1,846,785,0,0
-371,239,0,0,0,0,0,0,0,0,0,-1,853,785,0,0
-364,239,0,0,0,0,0,0,0,0,0,-1,860,785,0,0
-357,239,0,0,0,0,0,0,0,0,0,-1,867,785,0,0
-350,239,0,0,0,0,0,0,0,0,0,-1,874,785,0,0
-343,239,0,0,0,0,0,0,0,0,0,-1,881,785,0,0
-336,239,0,0,0,0,0,0,0,0,0,-1,888,785,0,0
-329,239,0,0,0,0,0,0,0,0,0,-1,895,785,0,0
-322,239,0,0,0,0,0,0,0,0,0,-1,902,785,0,0
-315,239,0,0,0,0,0,0,0,0,0,-1,909,785,0,0
-308,239,0,0,0,0,0,0,0,0,0,-1,916,785,0,0
-301,239,0,0,0,0,0,0,0,0,0,-1,923,785,0,0
-294,239,0,0,0,0,0,0,0,0,0,-1,930,785,0,0
-287,239,0,0,0,0,0,0,0,0,0,-1,937,785,0,0
-280,239,0,0,0,0,0,0,0,0,0,-1,944,785,0,0
-273,239,0,0,0,0,0,0,0,0,0,-1,951,785,0,0
-266,239,0,0,0,0,0,0,0,0,0,-1,958,785,0,0
-259,239,0,0,0,0,0,0,0,0,0,-1,965,785,0,0
-252,239,0,0,0,0,0,0,0,0,0,-1,972,785,0,0
-245,239,0,0,0,0,0,0,0,0,0,-1,979,785,0,0
-238,239,0,0,0,0,0,0,0,0,0,-1,986,785,0,0
-231,239,0,0,0,0,0,0,0,0,0,-1,993,785,0,0
-224,239,0,0,0,0,0,0,0,0,0,-1,1000,785,0,0
-217,239,0,0,0,0,0,0,0,0,0,-1,1007,785,0,0
-210,239,0,0,0,0,0,0,0,0,0,-1,1014,785,0,0
-203,239,0,0,0,0,0,0,0,0,0,-1,1021,785,0,0
-196,239,0,0,0,0,0,0,0,0,0,-1,1028,785,0,0
-189,239,0,0,0,0,0,0,0,0,0,-1,1035,785,0,0
-182,239,0,0,0,0,0,0,0,0,0,-1,1042,785,0,0
-175,239,0,0,0,0,0,0,0,0,0,-1,1049,785,0,0
-168,239,0,0,0,0,0,0,0,0,0,-1,1056,785,0,0
-161,239,0,0,0,0,0,0,0,0,0,-1,1063,785,0,0
-154,239,0,0,0,0,0,0,0,0,0,-1,1070,785,0,0
-147,239,0,0,0,0,0,0,0,0,0,-1,1077,785,0,0
-140,239,0,0,0,0,0,0,0,0,0,-1,1084,785,0,0
-133,239,0,0,0,0,0,0,0,0,0,-1,1091,785,0,0
-126,239,0,0,0,0,0,0,0,0,0,-1,1098,785,0,0
-119,239,0,0,0,0,0,0,0,0,0,-1,1105,785,0,0
-112,239,0,0,0,0,0,0,0,0,0,-1,1112,785,0,0
-105,239,0,0,0,0,0,0,0,0,0,-1,1119,785,0,0
-98,239,0,0,0,0,0,0,0,0,0,-1,1126,785,0,0
-91,239,0,0,0,0,0,0,0,0,0,-1,1133,785,0,0
-84,239,0,0,0,0,0,0,0,0,0,-1,1140,785,0,0
-77,239,0,0,0,0,0,0,0,0,0,-1,1147,785,0,0
-70,239,0,0,0,0,0,0,0,0,0,-1,1154,785,0,0
-63,239,0,0,0,0,0,0,0,0,0,-1,1161,785,0,0
-56,239,0,0,0,0,0,0,0,0,0,-1,1168,785,0,0
-49,239,0,0,0,0,0,0,0,0,0,-1,1175,785,0,0
-42,239,0,0,0,0,0,0,0,0,0,-1,1182,785,0,0
-35,239,0,0,0,0,0,0,0,0,0,-1,1189,785,0,0
-28,239,0,0,0,0,0,0,0,0,0,-1,1196,785,0,0
-21,239,0,0,0,0,0,0,0,0,0,-1,1203,785,0,0
-14,239,0,0,0,0,0,0,0,0,0,-1,1210,785,0,0
-7,239,0,0,0,0,0,0,0,0,0,-1,1217,785,0,0
0,239,0,0,0,0,0,0,0,0,0,-1,1224,785,0,0
7,239,0,0,0,0,0,0,0,0,0,-1,1231,785,0,0
14,239,0,0,0,0,0,0,0,0,0,-1,1238,785,0,0
21,239,0,0,0,0,0,0,0,0,0,-1,1245,785,0,0
28,239,0,0,0,0,0,0,0,0,0,-1,1252,785,0,0
35,239,0,0,0,0,0,0,0,0,0,-1,1259,785,0,0
42,239,0,0,0,0,0,0,0,0,0,-1,1266,785,0,0
49,239,0,0,0,0,0,0,0,0,0,-1,1273,785,0,0
56,239,0,0,0,0,0,0,0,0,0,-1,1280,785,0,0
63,239,0,0,0,0,0,0,0,0,0,-1,1287,785,0,0
70,239,0,0,0,0,0,0,0,0,0,-1,1294,785,0,0
77,239,0,0,0,0,0,0,0,0,0,-1,1301,785,0,0
84,239,0,0,0,0,0,0,0,0,0,-1,1308,785,0,0
91,239,0,0,0,0,0,0,0,0,0,-1,1315,785,0,0
98,239,0,0,0,0,0,0,0,0,0,-1,1322,785,0,0
105,239,0,0,0,0,0,0,0,0,0,-1,1329,785,0,0
112,239,0,0,0,0,0,0,0,0,0,-1,1336,785,0,0
119,239,0,0,0,0,0,0,0,0,0,-1,1343,785,0,0
126,239,0,0,0,0,0,0,0,0,0,-1,1350,785,0,0
133,239,0,0,0,0,0,0,0,0,0,-1,1357,785,0,0
140,239,0,0,0,0,0,0,0,0,0,-1,1364,785,0,0
147,239,0,0,0,0,0,0,0,0,0,-1,1371,785,0,0
154,239,0,0,0,0,0,0,0,0,0,-1,1378,785,0,0
161,239,0,0,0,0,0,0,0,0,0,-1,1385,785,0,0
168,239,0,0,0,0,0,0,0,0,0,-1,1392,785,0,0
175,239,0,0,0,0,0,0,0,0,0,-1,1399,785,0,0
182,239,0,0,0,0,0,0,0,0,0,-1,1406,785,0,0
189,239,0,0,0,0,0,0,0,0,0,-1,1413,785,0,0
196,239,0,0,0,0,0,0,0,0,0,-1,1420,785,0,0
203,239,0,0,0,0,0,0,0,0,0,-1,1427,785,0,0
210,239,0,0,0,0,0,0,0,0,0,-1,1434,785,0,0
217,239,0,0,0,0,0,0,0,0,0,-1,1441,785,0,0
224,239,0,0,0,0,0,0,0,0,0,-1,1448,785,0,0
231,239,0,0,0,0,0,0,0,0,0,-1,1455,785,0,0
238,239,0,0,0,0,0,0,0,0,0,-1,1462,785,0,0
245,239,0,0,0,0,0,0,0,0,0,-1,1469,785,0,0
252,239,0,0,0,0,0,0,0,0,0,-1,1476,785,0,0
259,239,0,0,0,0,0,0,0,0,0,-1,1483,785,0,0
266,239,0,0,0,0,0,0,0,0,0,-1,1490,785,0,0
273,239,0,0,0,0,0,0,0,0,0,-1,1497,785,0,0
280,239,0,0,0,0,0,0,0,0,0,-1,1504,785,0,0
287,239,0,0,0,0,0,0,0,0,0,-1,1511,785,0,0
294,239,0,0,0,0,0,0,0,0,0,-1,1518,785,0,0
301,239,0,0,0,0,0,0,0,0,0,-1,1525,785,0,0
308,239,0,0,0,0,0,0,0,0,0,-1,1532,785,0,0
315,239,0,0,0,0,0,0,0,0,0,-1,1539,785,0,0
322,239,0,0,0,0,0,0,0,0,0,-1,1546,785,0,0
329,239,0,0,0,0,0,0,0,0,0,-1,1553,785,0,0
336,239,0,0,0,0,0,0,0,0,0,-1,1560,785,0,0
343,239,0,0,0,0,0,0,0,0,0,-1,1567,785,0,0
350,239,0,0,0,0,0,0,0,0,0,-1,1574,785,0,0
357,239,0,0,0,0,0,0,0,0,0,-1,1581,785,0,0
364,239,0,0,0,0,0,0,0,0,0,-1,1588,785,0,0
371,239,0,0,0,0,0,0,0,0,0,-1,1595,785,0,0
378,239,0,0,0,0,0,0,0,0,0,-1,1602,785,0,0
385,239,0,0,0,0,0,0,0,0,0,-1,1609,785,0,0
392,239,0,0,0,0,0,0,0,0,0,-1,1616,785,0,0
399,239,0,0,0,0,0,0,0,0,0,-1,1623,785,0,0
406,239,0,0,0,0,0,0,0,0,0,-1,1630,785,0,0
413,239,0,0,0,0,0,0,0,0,0,-1,1637,785,0,0
420,239,0,0,0,0,0,0,0,0,0,-1,1644,785,0,0
427,239,0,0,0,0,0,0,0,0,0,-1,1651,785,0,0
434,239,0,0,0,0,0,0,0,0,0,-1,1658,785,0,0
441,239,0,0,0,0,0,0,0,0,0,-1,1665,785,0,0
448,239,0,0,0,0,0,0,0,0,0,-1,1672,785,0,0
455,239,0,0,0,0,0,0,0,0,0,-1,1679,785,0,0
462,239,0,0,0,0,0,0,0,0,0,-1,1686,785,0,0
469,239,0,0,0,0,0,0,0,0,0,-1,1693,785,0,0
476,239,0,0,0,0,0,0,0,0,0,-1,1700,785,0,0
483,239,0,0,0,0,0,0,0,0,0,-1,1707,785,0,0
490,239,0,0,0,0,0,0,0,0,0,-1,1714,785,0,0
497,239,0,0,0,0,0,0,0,0,0,-1,1721,785,0,0
504,239,0,0,0,0,0,0,0,0,0,-1,1728,785,0,0
511,239,0,0,0,0,0,0,0,0,0,-1,1735,785,0,0
518,239,0,0,0,0,0,0,0,0,0,-1,1742,785,0,0
525,239,0,0,0,0,0,0,0,0,0,-1,1749,785,0,0
532,239,0,0,0,0,0,0,0,0,0,-1,1756,785,0,0
539,239,0,0,0,0,0,0,0,0,0,-1,1763,785,0,0
546,239,0,0,0,0,0,0,0,0,0,-1,1770,785,0,0
553,239,0,0,0,0,0,0,0,0,0,-1,1777,785,0,0
560,239,0,0,0,0,0,0,0,0,0,-1,1784,785,0,0
567,239,0,0,0,0,0,0,0,0,0,-1,1791,785,0,0
574,239,0,0,0,0,0,0,0,0,0,-1,1798,785,0,0
581,239,64.2389,3.01733,0.0129441,-0.00516543,-0.0071095,0.0154017,-0.00762299,-0.332815,0.0135438,0.0352457,1805,785,64.2389,-3.01735
588,239,64.2283,2.87787,0.0134217,-0.00399301,-0.00250663,0.0137754,-0.00434662,-0.140148,0.0109246,0.038775,1812,785,64.2283,-2.87788
595,239,64.3882,2.66577,0.0121881,-0.00223125,-0.000230137,0.0121917,-0.00223493,-0.0159549,0.00896612,0.0371427,1819,785,64.3882,-2.66576
602,239,64.5544,2.67505,0.0101484,-0.00108759,0.000914332,0.0102223,-0.0011615,0.0806682,0.00723318,0.0465408,1826,785,64.5544,-2.67505
609,239,64.7119,2.68994,0,0,0,0,0,0,0,-1,1833,785,64.7119,-2.68995
616,239,55.8469,3.72443,0,0,0,0,0,0,0,-1,1840,785,55.8469,-3.72445
623,239,63.0199,2.98529,0,0,0,0,0,0,0,-1,1847,785,63.0199,-2.98526
630,239,54.5767,3.64667,0,0,0,0,0,0,0,-1,1854,785,54.5766,-3.64667
637,239,39.5542,2.54114,0,0,0,0,0,0,0,-1,1861,785,39.5543,-2.54114
644,239,18.3466,0.735413,0,0,0,0,0,0,0,-1,1868,785,18.3465,-0.735414
651,239,34.2471,-2.15778,0,0,0,0,0,0,0,-1,1875,785,34.2471,2.1578
658,239,44.6588,-3.54327,0,0,0,0,0,0,0,-1,1882,785,44.6588,3.54328
665,239,45.1614,-2.28156,-0.000182677,0.00146094,0.00117081,0.00206958,-0.000791311,1.0914,0.00170581,0.0352823,1889,785,45.1613,2.28155
672,239,45.1859,-1.45416,-0.000248696,0.00119463,0.000615099,0.0014212,-0.000475265,1.21787,0.00113942,0.0215231,1896,785,45.1859,1.45419
679,239,45.1432,-0.627686,-8.4697e-05,0.000800239,0.000103283,0.000812133,-9.65915e-05,1.45614,0.000576324,0.0216122,1903,785,45.1432,0.627681
686,239,45.1011,0.208679,0.000279909,0.000906989,2.39023e-05,0.000907899,0.000278999,1.53275,0.000536995,0.0237173,1910,785,45.1011,-0.208657
693,239,45.1132,0.855591,0.00101579,0.00130514,0.000256299,0.00145477,0.000866149,1.04234,0.000844993,0.017016,1917,785,45.1132,-0.855566
700,239,45.0814,1.59406,0.00214455,0.00186473,0.000669137,0.00268825,0.00132103,0.682339,0.00155214,0.0126924,1924,785,45.0814,-1.59404
707,239,45.0369,2.38647,0.00357589,0.00260793,0.00136416,0.00453938,0.00164444,0.614934,0.00265375,0.0112,1931,785,45.0368,-2.38646
714,239,44.9877,3.14569,0.00547614,0.0055468,0.00197416,0.00748595,0.003537,0.794345,0.00432419,0.0109365,1938,785,44.9876,-3.14568
721,239,44.9006,3.89227,0.00767574,0.00844287,0.00270777,0.0107941,0.00532451,0.855757,0.00623217,0.0229121,1945,785,44.9007,-3.89225
728,239,44.7697,4.64667,0,0,0,0,0,0,0,-1,1952,785,44.7696,-4.64665
735,239,44.7147,5.93158,0,0,0,0,0,0,0,-1,1959,785,44.7147,-5.93157
742,239,32.4141,7.6665,0,0,0,0,0,0,0,-1,1966,785,32.4141,-7.6665
749,239,32.1489,3.4411,0,0,0,0,0,0,0,-1,1973,785,32.149,-3.44109
756,239,32.9064,3.6687,0,0,0,0,0,0,0,-1,1980,785,32.9063,-3.66873
763,239,0,0,0,0,0,0,0,0,0,-1,1987,785,0,0
770,239,0,0,0,0,0,0,0,0,0,-1,1994,785,0,0
777,239,0,0,0,0,0,0,0,0,0,-1,2001,785,0,0
784,239,0,0,0,0,0,0,0,0,0,-1,2008,785,0,0
791,239,0,0,0,0,0,0,0,0,0,-1,2015,785,0,0
798,239,0,0,0,0,0,0,0,0,0,-1,2022,785,0,0
805,239,0,0,0,0,0,0,0,0,0,-1,2029,785,0,0
812,239,0,0,0,0,0,0,0,0,0,-1,2036,785,0,0
-700,232,0,0,0,0,0,0,0,0,0,-1,524,792,0,0
-693,232,0,0,0,0,0,0,0,0,0,-1,531,792,0,0
-686,232,0,0,0,0,0,0,0,0,0,-1,538,792,0,0
-679,232,0,0,0,0,0,0,0,0,0,-1,545,792,0,0
-672,232,0,0,0,0,0,0,0,0,0,-1,552,792,0,0
-665,232,0,0,0,0,0,0,0,0,0,-1,559,792,0,0
-658,232,0,0,0,0,0,0,0,0,0,-1,566,792,0,0
-651,232,0,0,0,0,0,0,0,0,0,-1,573,792,0,0
-644,232,-41.2348,4.28168,0,0,0,0,0,0,0,-1,580,792,-41.2348,-4.28166
-637,232,-42.1427,3.51453,0,0,0,0,0,0,0,-1,587,792,-42.1427,-3.51452
-630,232,-32.2345,1.80212,0,0,0,0,0,0,0,-1,594,792,-32.2345,-1.80211
-623,232,-31.5665,1.05115,0,0,0,0,0,0,0,-1,601,792,-31.5664,-1.05112
-616,232,-30.6812,0.432861,0,0,0,0,0,0,0,-1,608,792,-30.6812,-0.432881
-609,232,-29.7142,-0.478943,0,0,0,0,0,0,0,-1,615,792,-29.7142,0.478965
-602,232,-31.4791,4.32184,0,0,0,0,0,0,0,-1,622,792,-31.4791,-4.32186
-595,232,-31.5513,3.05536,0.000927735,0.0073801,-0.00912672,0.0138341,-0.00552623,-0.955287,0.0115156,0.0365144,629,792,-31.5514,-3.05534
-588,232,-31.6939,1.79852,0.000869802,0.00599455,-0.00679408,0.0106934,-0.00382904,-0.965724,0.00869114,0.0139312,636,792,-31.6939,-1.7985
-581,232,-31.7626,0.955505,0.000549793,0.00463396,-0.00475255,0.00776458,-0.00258083,-0.988313,0.00621784,0.00900406,643,792,-31.7626,-0.955519
-574,232,-31.7939,0.22168,0.000247359,0.0033679,-0.00291097,0.00511038,-0.00149513,-1.03141,0.00399956,0.00872988,650,792,-31.7939,-0.221694
-567,232,-31.8484,-0.509888,-8.00686e-05,0.00224195,-0.0013045,0.00282727,-0.000665388,-1.14903,0.00214138,0.0109792,657,792,-31.8484,0.509911
-560,232,-31.902,-1.245,-0.000403057,0.00137871,0.000241548,0.00141087,-0.000435222,1.43841,0.00111435,0.0151871,664,792,-31.902,1.245
-553,232,-31.9398,-2.0108,-0.000818227,0.000303933,0.00126233,0.00112426,-0.00163856,0.994525,0.0016043,0.014434,671,792,-31.9398,2.01081
-546,232,-31.9475,-2.75024,-0.000897611,-0.000329888,0.00182182,0.00123005,-0.00245755,0.862683,0.002168,0.0242446,678,792,-31.9475,2.75023
-539,232,-32.2296,-3.33398,-0.000976471,-0.000947796,0.00209194,0.00112985,-0.00305412,0.788825,0.00249932,0.0456116,685,792,-32.2296,3.33398
-532,232,-32.5955,-3.9101,0,0,0,0,0,0,0,-1,692,792,-32.5955,3.91012
-525,232,-32.2416,-4.16394,0,0,0,0,0,0,0,-1,699,792,-32.2416,4.16392
-518,232,-20.8098,-3.08154,0,0,0,0,0,0,0,-1,706,792,-20.8098,3.08155
-511,232,-21.6708,-0.962708,0,0,0,0,0,0,0,-1,713,792,-21.6708,0.962731
-504,232,-34.2155,0.346985,0,0,0,0,0,0,0,-1,720,792,-34.2155,-0.346955
-497,232,-48.7624,0.751038,0,0,0,0,0,0,0,-1,727,792,-48.7624,-0.751016
-490,232,-48.8007,0.947266,0,0,0,0,0,0,0,-1,734,792,-48.8006,-0.94728
-483,232,-48.8389,1.14355,0,0,0,0,0,0,0,-1,741,792,-48.8389,-1.14355
-476,232,-49.1569,0.934631,0.0131169,-0.0166401,-0.000763075,0.0131365,-0.0166596,-0.0256211,0.0172428,0.0331814,748,792,-49.1569,-0.934654
-469,232,-49.1104,0.991089,0.0175055,-0.0203809,-0.0013761,0.0175555,-0.0204308,-0.036258,0.0219523,0.0338564,755,792,-49.1104,-0.991083
-462,232,0,0,0,0,0,0,0,0,0,-1,762,792,0,0
-455,232,0,0,0,0,0,0,0,0,0,-1,769,792,0,0
-448,232,0,0,0,0,0,0,0,0,0,-1,776,792,0,0
-441,232,0,0,0,0,0,0,0,0,0,-1,783,792,0,0
-434,232,0,0,0,0,0,0,0,0,0,-1,790,792,0,0
-427,232,0,0,0,0,0,0,0,0,0,-1,797,792,0,0
-420,232,0,0,0,0,0,0,0,0,0,-1,804,792,0,0
-413,232,0,0,0,0,0,0,0,0,0,-1,811,792,0,0
-406,232,0,0,0,0,0,0,0,0,0,-1,818,792,0,0
-399,232,0,0,0,0,0,0,0,0,0,-1,825,792,0,0
-392,232,0,0,0,0,0,0,0,0,0,-1,832,792,0,0
-385,232,0,0,0,0,0,0,0,0,0,-1,839,792,0,0
-378,232,0,0,0,0,0,0,0,0,0,-1,846,792,0,0
-371,232,0,0,0,0,0,0,0,0,0,-1,853,792,0,0
-364,232,0,0,0,0,0,0,0,0,0,-1,860,792,0,0
-357,232,0,0,0,0,0,0,0,0,0,-1,867,792,0,0
-350,232,0,0,0,0,0,0,0,0,0,-1,874,792,0,0
-343,232,0,0,0,0,0,0,0,0,0,-1,881,792,0,0
-336,232,0,0,0,0,0,0,0,0,0,-1,888,792,0,0
-329,232,0,0,0,0,0,0,0,0,0,-1,895,792,0,0
-322,232,0,0,0,0,0,0,0,0,0,-1,902,792,0,0
-315,232,0,0,0,0,0,0,0,0,0,-1,909,792,0,0
-308,232,0,0,0,0,0,0,0,0,0,-1,916,792,0,0
-301,232,0,0,0,0,0,0,0,0,0,-1,923,792,0,0
-294,232,0,0,0,0,0,0,0,0,0,-1,930,792,0,0
-287,232,0,0,0,0,0,0,0,0,0,-1,937,792,0,0
-280,232,0,0,0,0,0,0,0,0,0,-1,944,792,0,0
-273,232,0,0,0,0,0,0,0,0,0,-1,951,792,0,0
-266,232,0,0,0,0,0,0,0,0,0,-1,958,792,0,0
-259,232,0,0,0,0,0,0,0,0,0,-1,965,792,0,0
-252,232,0,0,0,0,0,0,0,0,0,-1,972,792,0,0
-245,232,0,0,0,0,0,0,0,0,0,-1,979,792,0,0
-238,232,0,0,0,0,0,0,0,0,0,-1,986,792,0,0
-231,232,0,0,0,0,0,0,0,0,0,-1,993,792,0,0
-224,232,0,0,0,0,0,0,0,0,0,-1,1000,792,0,0
-217,232,0,0,0,0,0,0,0,0,0,-1,1007,792,0,0
-210,232,0,0,0,0,0,0,0,0,0,-1,1014,792,0,0
-203,232,0,0,0,0,0,0,0,0,0,-1,1021,792,0,0
-196,232,0,0,0,0,0,0,0,0,0,-1,1028,792,0,0
-189,232,0,0,0,0,0,0,0,0,0,-1,1035,792,0,0
-182,232,0,0,0,0,0,0,0,0,0,-1,1042,792,0,0
-175,232,0,0,0,0,0,0,0,0,0,-1,1049,792,0,0
-168,232,0,0,0,0,0,0,0,0,0,-1,1056,792,0,0
-161,232,0,0,0,0,0,0,0,0,0,-1,1063,792,0,0
-154,232,0,0,0,0,0,0,0,0,0,-1,1070,792,0,0
-147,232,0,0,0,0,0,0,0,0,0,-1,1077,792,0,0
-140,232,0,0,0,0,0,0,0,0,0,-1,1084,792,0,0
-133,232,0,0,0,0,0,0,0,0,0,-1,1091,792,0,0
-126,232,0,0,0,0,0,0,0,0,0,-1,1098,792,0,0
-119,232,0,0,0,0,0,0,0,0,0,-1,1105,792,0,0
-112,232,0,0,0,0,0,0,0,0,0,-1,1112,792,0,0
-105,232,0,0,0,0,0,0,0,0,0,-1,1119,792,0,0
-98,232,0,0,0,0,0,0,0,0,0,-1,1126,792,0,0
-91,232,0,0,0,0,0,0,0,0,0,-1,1133,792,0,0
-84,232,0,0,0,0,0,0,0,0,0,-1,1140,792,0,0
-77,232,0,0,0,0,0,0,0,0,0,-1,1147,792,0,0
-70,232,0,0,0,0,0,0,0,0,0,-1,1154,792,0,0
-63,232,0,0,0,0,0,0,0,0,0,-1,1161,792,0,0
-56,232,0,0,0,0,0,0,0,0,0,-1,1168,792,0,0
-49,232,0,0,0,0,0,0,0,0,0,-1,1175,792,0,0
-42,232,0,0,0,0,0,0,0,0,0,-1,1182,792,0,0
-35,232,0,0,0,0,0,0,0,0,0,-1,1189,792,0,0
-28,232,0,0,0,0,0,0,0,0,0,-1,1196,792,0,0
-21,232,0,0,0,0,0,0,0,0,0,-1,1203,792,0,0
-14,232,0,0,0,0,0,0,0,0,0,-1,1210,792,0,0
-7,232,0,0,0,0,0,0,0,0,0,-1,1217,792,0,0
0,232,0,0,0,0,0,0,0,0,0,-1,1224,792,0,0
7,232,0,0,0,0,0,0,0,0,0,-1,1231,792,0,0
14,232,0,0,0,0,0,0,0,0,0,-1,1238,792,0,0
21,232,0,0,0,0,0,0,0,0,0,-1,1245,792,0,0
28,232,0,0,0,0,0,0,0,0,0,-1,1252,792,0,0
35,232,0,0,0,0,0,0,0,0,0,-1,1259,792,0,0
42,232,0,0,0,0,0,0,0,0,0,-1,1266,792,0,0
49,232,0,0,0,0,0,0,0,0,0,-1,1273,792,0,0
56,232,0,0,0,0,0,0,0,0,0,-1,1280,792,0,0
63,232,0,0,0,0,0,0,0,0,0,-1,1287,792,0,0
70,232,0,0,0,0,0,0,0,0,0,-1,1294,792,0,0
77,232,0,0,0,0,0,0,0,0,0,-1,1301,792,0,0
84,232,0,0,0,0,0,0,0,0,0,-1,1308,792,0,0
91,232,0,0,0,0,0,0,0,0,0,-1,1315,792,0,0
98,232,0,0,0,0,0,0,0,0,0,-1,1322,792,0,0
105,232,0,0,0,0,0,0,0,0,0,-1,1329,792,0,0
112,232,0,0,0,0,0,0,0,0,0,-1,1336,792,0,0
119,232,0,0,0,0,0,0,0,0,0,-1,1343,792,0,0
126,232,0,0,0,0,0,0,0,0,0,-1,1350,792,0,0
133,232,0,0,0,0,0,0,0,0,0,-1,1357,792,0,0
140,232,0,0,0,0,0,0,0,0,0,-1,1364,792,0,0
147,232,0,0,0,0,0,0,0,0,0,-1,1371,792,0,0
154,232,0,0,0,0,0,0,0,0,0,-1,1378,792,0,0
161,232,0,0,0,0,0,0,0,0,0,-1,1385,792,0,0
168,232,0,0,0,0,0,0,0,0,0,-1,1392,792,0,0
175,232,0,0,0,0,0,0,0,0,0,-1,1399,792,0,0
182,232,0,0,0,0,0,0,0,0,0,-1,1406,792,0,0
189,232,0,0,0,0,0,0,0,0,0,-1,1413,792,0,0
196,232,0,0,0,0,0,0,0,0,0,-1,1420,792,0,0
203,232,0,0,0,0,0,0,0,0,0,-1,1427,792,0,0
210,232,0,0,0,0,0,0,0,0,0,-1,1434,792,0,0
217,232,0,0,0,0,0,0,0,0,0,-1,1441,792,0,0
224,232,0,0,0,0,0,0,0,0,0,-1,1448,792,0,0
231,232,0,0,0,0,0,0,0,0,0,-1,1455,792,0,0
238,232,0,0,0,0,0,0,0,0,0,-1,1462,792,0,0
245,232,0,0,0,0,0,0,0,0,0,-1,1469,792,0,0
252,232,0,0,0,0,0,0,0,0,0,-1,1476,792,0,0
259,232,0,0,0,0,0,0,0,0,0,-1,1483,792,0,0
266,232,0,0,0,0,0,0,0,0,0,-1,1490,792,0,0
273,232,0,0,0,0,0,0,0,0,0,-1,1497,792,0,0
280,232,0,0,0,0,0,0,0,0,0,-1,1504,792,0,0
287,232,0,0,0,0,0,0,0,0,0,-1,1511,792,0,0
294,232,0,0,0,0,0,0,0,0,0,-1,1518,792,0,0
301,232,0,0,0,0,0,0,0,0,0,-1,1525,792,0,0
308,232,0,0,0,0,0,0,0,0,0,-1,1532,792,0,0
315,232,0,0,0,0,0,0,0,0,0,-1,1539,792,0,0
322,232,0,0,0,0,0,0,0,0,0,-1,1546,792,0,0
329,232,0,0,0,0,0,0,0,0,0,-1,1553,792,0,0
336,232,0,0,0,0,0,0,0,0,0,-1,1560,792,0,0
343,232,0,0,0,0,0,0,0,0,0,-1,1567,792,0,0
350,232,0,0,0,0,0,0,0,0,0,-1,1574,792,0,0
357,232,0,0,0,0,0,0,0,0,0,-1,1581,792,0,0
364,232,0,0,0,0,0,0,0,0,0,-1,1588,792,0,0
371,232,0,0,0,0,0,0,0,0,0,-1,1595,792,0,0
378,232,0,0,0,0,0,0,0,0,0,-1,1602,792,0,0
385,232,0,0,0,0,0,0,0,0,0,-1,1609,792,0,0
392,232,0,0,0,0,0,0,0,0,0,-1,1616,792,0,0
399,232,0,0,0,0,0,0,0,0,0,-1,1623,792,0,0
406,232,0,0,0,0,0,0,0,0,0,-1,1630,792,0,0
413,232,0,0,0,0,0,0,0,0,0,-1,1637,792,0,0
420,232,0,0,0,0,0,0,0,0,0,-1,1644,792,0,0
427,232,0,0,0,0,0,0,0,0,0,-1,1651,792,0,0
434,232,0,0,0,0,0,0,0,0,0,-1,1658,792,0,0
441,232,0,0,0,0,0,0,0,0,0,-1,1665,792,0,0
448,232,0,0,0,0,0,0,0,0,0,-1,1672,792,0,0
455,232,0,0,0,0,0,0,0,0,0,-1,1679,792,0,0
462,232,0,0,0,0,0,0,0,0,0,-1,1686,792,0,0
469,232,0,0,0,0,0,0,0,0,0,-1,1693,792,0,0
476,232,0,0,0,0,0,0,0,0,0,-1,1700,792,0,0
483,232,0,0,0,0,0,0,0,0,0,-1,1707,792,0,0
490,232,0,0,0,0,0,0,0,0,0,-1,1714,792,0,0
497,232,0,0,0,0,0,0,0,0,0,-1,1721,792,0,0
504,232,0,0,0,0,0,0,0,0,0,-1,1728,792,0,0
511,232,0,0,0,0,0,0,0,0,0,-1,1735,792,0,0
518,232,0,0,0,0,0,0,0,0,0,-1,1742,792,0,0
525,232,0,0,0,0,0,0,0,0,0,-1,1749,792,0,0
532,232,0,0,0,0,0,0,0,0,0,-1,1756,792,0,0
539,232,0,0,0,0,0,0,0,0,0,-1,1763,792,0,0
546,232,0,0,0,0,0,0,0,0,0,-1,1770,792,0,0
553,232,0,0,0,0,0,0,0,0,0,-1,1777,792,0,0
560,232,0,0,0,0,0,0,0,0,0,-1,1784,792,0,0
567,232,0,0,0,0,0,0,0,0,0,-1,1791,792,0,0
574,232,0,0,0,0,0,0,0,0,0,-1,1798,792,0,0
581,232,0,0,0,0,0,0,0,0,0,-1,1805,792,0,0
588,232,64.2971,2.77808,0.00978199,-0.00234855,-0.00328358,0.0106138,-0.00318034,-0.248098,0.00834059,0.0363113,1812,792,64.2971,-2.7781
595,232,64.2742,2.68781,0.0097611,-0.00106996,-0.00045713,0.00978036,-0.00108922,-0.0421056,0.00691198,0.0356442,1819,792,64.2742,-2.68779
602,232,64.385,2.63855,0.0084064,-0.000119905,0.00106625,0.00853771,-0.000251221,0.12254,0.00577737,0.0384985,1826,792,64.385,-2.63857
609,232,64.4475,2.65094,0,0,0,0,0,0,0,-1,1833,792,64.4475,-2.65094
616,232,64.4266,2.72913,0,0,0,0,0,0,0,-1,1840,792,64.4267,-2.7291
623,232,64.1357,3.33307,0,0,0,0,0,0,0,-1,1847,792,64.1357,-3.33309
630,232,63.1732,3.11395,0,0,0,0,0,0,0,-1,1854,792,63.1732,-3.11395
637,232,47.0471,4.04309,0,0,0,0,0,0,0,-1,1861,792,47.0471,-4.04309
644,232,30.7756,4.24139,0,0,0,0,0,0,0,-1,1868,792,30.7757,-4.24141
651,232,31.6797,-0.564087,0,0,0,0,0,0,0,-1,1875,792,31.6797,0.564059
658,232,46.2529,-3.04504,0,0,0,0,0,0,0,-1,1882,792,46.2529,3.04502
665,232,46.0393,-2.26471,0,0,0,0,0,0,0,-1,1889,792,46.0393,2.2647
672,232,45.8713,-1.40228,0,0,0,0,0,0,0,-1,1896,792,45.8713,1.40226
679,232,45.9036,-0.599304,-0.000796048,0.000606289,-0.000209328,0.000636868,-0.000826628,-1.42574,0.000847314,0.020385,1903,792,45.9035,0.599334
686,232,45.8865,0.208557,-0.000580961,0.000584349,-0.000384061,0.00069954,-0.000696152,-1.2794,0.000805804,0.0198784,1910,792,45.8865,-0.208563
693,232,45.87,0.881958,0.000128748,0.000873603,-0.000201416,0.000924579,7.77714e-05,-1.32291,0.000592167,0.0118556,1917,792,45.87,-0.881966
700,232,45.8531,1.62939,0.00131151,0.00137696,0.000144309,0.00149221,0.00119626,0.896898,0.000912302,0.0138317,1924,792,45.8531,-1.62939
707,232,45.8154,2.41406,0.00286113,0.00204169,0.000793328,0.00334429,0.00155853,0.547035,0.00193231,0.0139353,1931,792,45.8154,-2.41408
714,232,45.7595,3.14594,0.00481455,0.00499314,0.00124109,0.00614814,0.00365955,0.821311,0.00357102,0.0150017,1938,792,45.7595,-3.14594
721,232,45.7109,3.9267,0.00700917,0.00781241,0.0017902,0.00924549,0.0055761,0.895744,0.00537559,0.0219312,1945,792,45.711,-3.9267
728,232,45.6104,4.73041,0,0,0,0,0,0,0,-1,1952,792,45.6103,-4.7304
735,232,43.6982,5.00092,0,0,0,0,0,0,0,-1,1959,792,43.6982,-5.00091
742,232,25.6461,6.00684,0,0,0,0,0,0,0,-1,1966,792,25.6461,-6.00684
749,232,31.2874,3.74713,0,0,0,0,0,0,0,-1,1973,792,31.2874,-3.74713
756,232,32.1207,3.896,0,0,0,0,0,0,0,-1,1980,792,32.1207,-3.89597
763,232,32.7255,4.05878,0,0,0,0,0,0,0,-1,1987,792,32.7255,-4.05881
770,232,0,0,0,0,0,0,0,0,0,-1,1994,792,0,0
777,232,0,0,0,0,0,0,0,0,0,-1,2001,792,0,0
784,232,0,0,0,0,0,0,0,0,0,-1,2008,792,0,0
791,232,0,0,0,0,0,0,0,0,0,-1,2015,792,0,0
798,232,0,0,0,0,0,0,0,0,0,-1,2022,792,0,0
805,232,0,0,0,0,0,0,0,0,0,-1,2029,792,0,0
812,232,0,0,0,0,0,0,0,0,0,-1,2036,792,0,0
-700,225,0,0,0,0,0,0,0,0,0,-1,524,799,0,0
-693,225,0,0,0,0,0,0,0,0,0,-1,531,799,0,0
-686,225,0,0,0,0,0,0,0,0,0,-1,538,799,0,0
-679,225,0,0,0,0,0,0,0,0,0,-1,545,799,0,0
-672,225,0,0,0,0,0,0,0,0,0,-1,552,799,0,0
-665,225,0,0,0,0,0,0,0,0,0,-1,559,799,0,0
-658,225,0,0,0,0,0,0,0,0,0,-1,566,799,0,0
-651,225,0,0,0,0,0,0,0,0,0,-1,573,799,0,0
-644,225,-40.8898,4.14661,0,0,0,0,0,0,0,-1,580,799,-40.8898,-4.14661
-637,225,-41.61,3.36749,0,0,0,0,0,0,0,-1,587,799,-41.61,-3.36751
-630,225,-30.244,4.82196,0,0,0,0,0,0,0,-1,594,799,-30.244,-4.82193
-623,225,-32.8276,-0.00836182,0,0,0,0,0,0,0,-1,601,799,-32.8276,0.00837668
-616,225,-32.0569,-0.549255,0,0,0,0,0,0,0,-1,608,799,-32.0569,0.549265
-609,225,-32.532,4.5545,0,0,0,0,0,0,0,-1,615,799,-32.532,-4.55449
-602,225,-32.5982,3.4624,0.000703781,0.00915003,-0.0103634,0.0161177,-0.0062639,-0.978878,0.0133329,0.0499097,622,799,-32.5982,-3.46242
-595,225,-32.5172,2.53265,0.000840756,0.00688144,-0.00789694,0.0123159,-0.00459373,-0.96805,0.0100964,0.0324151,629,799,-32.5171,-2.53265
-588,225,-32.4818,1.72754,0.000863732,0.00555352,-0.00582602,0.00948883,-0.00307158,-0.976722,0.00756067,0.0135643,636,799,-32.4818,-1.72755
-581,225,-32.5093,1.00623,0.000670341,0.00429414,-0.00396934,0.00684557,-0.00188109,-0.99951,0.00530314,0.0113484,643,799,-32.5094,-1.0062
-574,225,-32.5485,0.263855,0.000459506,0.00308113,-0.00226039,0.00438328,-0.000842646,-1.04815,0.0032398,0.00929803,650,799,-32.5485,-0.263838
-567,225,-32.596,-0.484985,0.000222867,0.00209344,-0.00074772,0.00235559,-3.92795e-05,-1.23359,0.00158365,0.0123153,657,799,-32.596,0.484971
-560,225,-32.6359,-1.2074,7.58772e-05,0.00165991,0.000804239,0.00199665,-0.000260862,1.17427,0.00142603,0.0133876,664,799,-32.636,1.20741
-553,225,-32.675,-1.97961,-0.000237297,0.000847489,0.00169166,0.00208158,-0.00147139,0.940535,0.00206136,0.0120618,671,799,-32.675,1.97963
-546,225,-32.6993,-2.64185,-4.66861e-05,0.00086741,0.00201911,0.00248056,-0.00165983,0.896703,0.00240606,0.0261918,678,799,-32.6993,2.64186
-539,225,-32.7154,-3.20361,0,0,0,0,0,0,0,-1,685,799,-32.7154,3.20364
-532,225,-33.41,-3.70087,0,0,0,0,0,0,0,-1,692,799,-33.41,3.70084
-525,225,-29.1705,-3.88239,0,0,0,0,0,0,0,-1,699,799,-29.1705,3.88237
-518,225,-21.963,0.171326,0,0,0,0,0,0,0,-1,706,799,-21.9629,-0.171319
-511,225,-33.0002,0.660217,0,0,0,0,0,0,0,-1,713,799,-33.0002,-0.660239
-504,225,-49.4189,0.833862,0,0,0,0,0,0,0,-1,720,799,-49.4189,-0.833851
-497,225,-49.1981,0.848267,0.00396597,-0.00515582,0.00143731,0.00418708,-0.00537694,0.152643,0.00553602,0.0496613,727,799,-49.1981,-0.848291
-490,225,-49.0878,0.95575,0.00606841,-0.00754224,0.000709075,0.00610525,-0.00757908,0.0519097,0.00791591,0.0415631,734,799,-49.0878,-0.955765
-483,225,-49.1097,0.985229,0.00872705,-0.00977161,-0.000224555,0.00872977,-0.00977434,-0.0121366,0.010689,0.0341236,741,799,-49.1097,-0.98523
-476,225,-49.0903,1.01141,0.0119401,-0.0120877,-0.0011855,0.0119984,-0.012146,-0.0491796,0.0139399,0.0302881,748,799,-49.0904,-1.01141
-469,225,-48.9408,1.03839,0.0160318,-0.0140427,-0.00205914,0.0161721,-0.014183,-0.0680449,0.0175381,0.0351381,755,799,-48.9408,-1.03837
-462,225,0,0,0,0,0,0,0,0,0,-1,762,799,0,0
-455,225,0,0,0,0,0,0,0,0,0,-1,769,799,0,0
-448,225,0,0,0,0,0,0,0,0,0,-1,776,799,0,0
-441,225,0,0,0,0,0,0,0,0,0,-1,783,799,0,0
-434,225,0,0,0,0,0,0,0,0,0,-1,790,799,0,0
-427,225,0,0,0,0,0,0,0,0,0,-1,797,799,0,0
-420,225,0,0,0,0,0,0,0,0,0,-1,804,799,0,0
-413,225,0,0,0,0,0,0,0,0,0,-1,811,799,0,0
-406,225,0,0,0,0,0,0,0,0,0,-1,818,799,0,0
-399,225,0,0,0,0,0,0,0,0,0,-1,825,799,0,0
-392,225,0,0,0,0,0,0,0,0,0,-1,832,799,0,0
-385,225,0,0,0,0,0,0,0,0,0,-1,839,799,0,0
-378,225,0,0,0,0,0,0,0,0,0,-1,846,799,0,0
-371,225,0,0,0,0,0,0,0,0,0,-1,853,799,0,0
-364,225,0,0,0,0,0,0,0,0,0,-1,860,799,0,0
-357,225,0,0,0,0,0,0,0,0,0,-1,867,799,0,0
-350,225,0,0,0,0,0,0,0,0,0,-1,874,799,0,0
-343,225,0,0,0,0,0,0,0,0,0,-1,881,799,0,0
-336,225,0,0,0,0,0,0,0,0,0,-1,888,799,0,0
-329,225,0,0,0,0,0,0,0,0,0,-1,895,799,0,0
-322,225,0,0,0,0,0,0,0,0,0,-1,902,799,0,0
-315,225,0,0,0,0,0,0,0,0,0,-1,909,799,0,0
-308,225,0,0,0,0,0,0,0,0,0,-1,916,799,0,0
-301,225,0,0,0,0,0,0,0,0,0,-1,923,799,0,0
-294,225,0,0,0,0,0,0,0,0,0,-1,930,799,0,0
-287,225,0,0,0,0,0,0,0,0,0,-1,937,799,0,0
-280,225,0,0,0,0,0,0,0,0,0,-1,944,799,0,0
-273,225,0,0,0,0,0,0,0,0,0,-1,951,799,0,0
-266,225,0,0,0,0,0,0,0,0,0,-1,958,799,0,0
-259,225,0,0,0,0,0,0,0,0,0,-1,965,799,0,0
-252,225,0,0,0,0,0,0,0,0,0,-1,972,799,0,0
-245,225,0,0,0,0,0,0,0,0,0,-1,979,799,0,0
-238,225,0,0,0,0,0,0,0,0,0,-1,986,799,0,0
-231,225,0,0,0,0,0,0,0,0,0,-1,993,799,0,0
-224,225,0,0,0,0,0,0,0,0,0,-1,1000,799,0,0
-217,225,0,0,0,0,0,0,0,0,0,-1,1007,799,0,0
-210,225,0,0,0,0,0,0,0,0,0,-1,1014,799,0,0
-203,225,0,0,0,0,0,0,0,0,0,-1,1021,799,0,0
-196,225,0,0,0,0,0,0,0,0,0,-1,1028,799,0,0
-189,225,0,0,0,0,0,0,0,0,0,-1,1035,799,0,0
-182,225,0,0,0,0,0,0,0,0,0,-1,1042,799,0,0
-175,225,0,0,0,0,0,0,0,0,0,-1,1049,799,0,0
-168,225,0,0,0,0,0,0,0,0,0,-1,1056,799,0,0
-161,225,0,0,0,0,0,0,0,0,0,-1,1063,799,0,0
-154,225,0,0,0,0,0,0,0,0,0,-1,1070,799,0,0
-147,225,0,0,0,0,0,0,0,0,0,-1,1077,799,0,0
-140,225,0,0,0,0,0,0,0,0,0,-1,1084,799,0,0
-133,225,0,0,0,0,0,0,0,0,0,-1,1091,799,0,0
-126,225,0,0,0,0,0,0,0,0,0,-1,1098,799,0,0
-119,225,0,0,0,0,0,0,0,0,0,-1,1105,799,0,0
-112,225,0,0,0,0,0,0,0,0,0,-1,1112,799,0,0
-105,225,0,0,0,0,0,0,0,0,0,-1,1119,799,0,0
-98,225,0,0,0,0,0,0,0,0,0,-1,1126,799,0,0
-91,225,0,0,0,0,0,0,0,0,0,-1,1133,799,0,0
-84,225,0,0,0,0,0,0,0,0,0,-1,1140,799,0,0
-77,225,0,0,0,0,0,0,0,0,0,-1,1147,799,0,0
-70,225,0,0,0,0,0,0,0,0,0,-1,1154,799,0,0
-63,225,0,0,0,0,0,0,0,0,0,-1,1161,799,0,0
-56,225,0,0,0,0,0,0,0,0,0,-1,1168,799,0,0
-49,225,0,0,0,0,0,0,0,0,0,-1,1175,799,0,0
-42,225,0,0,0,0,0,0,0,0,0,-1,1182,799,0,0
-35,225,0,0,0,0,0,0,0,0,0,-1,1189,799,0,0
-28,225,0,0,0,0,0,0,0,0,0,-1,1196,799,0,0
-21,225,0,0,0,0,0,0,0,0,0,-1,1203,799,0,0
-14,225,0,0,0,0,0,0,0,0,0,-1,1210,799,0,0
-7,225,0,0,0,0,0,0,0,0,0,-1,1217,799,0,0
0,225,0,0,0,0,0,0,0,0,0,-1,1224,799,0,0
7,225,0,0,0,0,0,0,0,0,0,-1,1231,799,0,0
14,225,0,0,0,0,0,0,0,0,0,-1,1238,799,0,0
21,225,0,0,0,0,0,0,0,0,0,-1,1245,799,0,0
28,225,0,0,0,0,0,0,0,0,0,-1,1252,799,0,0
35,225,0,0,0,0,0,0,0,0,0,-1,1259,799,0,0
42,225,0,0,0,0,0,0,0,0,0,-1,1266,799,0,0
49,225,0,0,0,0,0,0,0,0,0,-1,1273,799,0,0
56,225,0,0,0,0,0,0,0,0,0,-1,1280,799,0,0
63,225,0,0,0,0,0,0,0,0,0,-1,1287,799,0,0
70,225,0,0,0,0,0,0,0,0,0,-1,1294,799,0,0
77,225,0,0,0,0,0,0,0,0,0,-1,1301,799,0,0
84,225,0,0,0,0,0,0,0,0,0,-1,1308,799,0,0
91,225,0,0,0,0,0,0,0,0,0,-1,1315,799,0,0
98,225,0,0,0,0,0,0,0,0,0,-1,1322,799,0,0
105,225,0,0,0,0,0,0,0,0,0,-1,1329,799,0,0
112,225,0,0,0,0,0,0,0,0,0,-1,1336,799,0,0
119,225,0,0,0,0,0,0,0,0,0,-1,1343,799,0,0
126,225,0,0,0,0,0,0,0,0,0,-1,1350,799,0,0
133,225,0,0,0,0,0,0,0,0,0,-1,1357,799,0,0
140,225,0,0,0,0,0,0,0,0,0,-1,1364,799,0,0
147,225,0,0,0,0,0,0,0,0,0,-1,1371,799,0,0
154,225,0,0,0,0,0,0,0,0,0,-1,1378,799,0,0
161,225,0,0,0,0,0,0,0,0,0,-1,1385,799,0,0
168,225,0,0,0,0,0,0,0,0,0,-1,1392,799,0,0
175,225,0,0,0,0,0,0,0,0,0,-1,1399,799,0,0
182,225,0,0,0,0,0,0,0,0,0,-1,1406,799,0,0
189,225,0,0,0,0,0,0,0,0,0,-1,1413,799,0,0
196,225,0,0,0,0,0,0,0,0,0,-1,1420,799,0,0
203,225,0,0,0,0,0,0,0,0,0,-1,1427,799,0,0
210,225,0,0,0,0,0,0,0,0,0,-1,1434,799,0,0
217,225,0,0,0,0,0,0,0,0,0,-1,1441,799,0,0
224,225,0,0,0,0,0,0,0,0,0,-1,1448,799,0,0
231,225,0,0,0,0,0,0,0,0,0,-1,1455,799,0,0
238,225,0,0,0,0,0,0,0,0,0,-1,1462,799,0,0
245,225,0,0,0,0,0,0,0,0,0,-1,1469,799,0,0
252,225,0,0,0,0,0,0,0,0,0,-1,1476,799,0,0
259,225,0,0,0,0,0,0,0,0,0,-1,1483,799,0,0
266,225,0,0,0,0,0,0,0,0,0,-1,1490,799,0,0
273,225,0,0,0,0,0,0,0,0,0,-1,1497,799,0,0
280,225,0,0,0,0,0,0,0,0,0,-1,1504,799,0,0
287,225,0,0,0,0,0,0,0,0,0,-1,1511,799,0,0
294,225,0,0,0,0,0,0,0,0,0,-1,1518,799,0,0
301,225,0,0,0,0,0,0,0,0,0,-1,1525,799,0,0
308,225,0,0,0,0,0,0,0,0,0,-1,1532,799,0,0
315,225,0,0,0,0,0,0,0,0,0,-1,1539,799,0,0
322,225,0,0,0,0,0,0,0,0,0,-1,1546,799,0,0
329,225,0,0,0,0,0,0,0,0,0,-1,1553,799,0,0
336,225,0,0,0,0,0,0,0,0,0,-1,1560,799,0,0
343,225,0,0,0,0,0,0,0,0,0,-1,1567,799,0,0
350,225,0,0,0,0,0,0,0,0,0,-1,1574,799,0,0
357,225,0,0,0,0,0,0,0,0,0,-1,1581,799,0,0
364,225,0,0,0,0,0,0,0,0,0,-1,1588,799,0,0
371,225,0,0,0,0,0,0,0,0,0,-1,1595,799,0,0
378,225,0,0,0,0,0,0,0,0,0,-1,1602,799,0,0
385,225,0,0,0,0,0,0,0,0,0,-1,1609,799,0,0
392,225,0,0,0,0,0,0,0,0,0,-1,1616,799,0,0
399,225,0,0,0,0,0,0,0,0,0,-1,1623,799,0,0
406,225,0,0,0,0,0,0,0,0,0,-1,1630,799,0,0
413,225,0,0,0,0,0,0,0,0,0,-1,1637,799,0,0
420,225,0,0,0,0,0,0,0,0,0,-1,1644,799,0,0
427,225,0,0,0,0,0,0,0,0,0,-1,1651,799,0,0
434,225,0,0,0,0,0,0,0,0,0,-1,1658,799,0,0
441,225,0,0,0,0,0,0,0,0,0,-1,1665,799,0,0
448,225,0,0,0,0,0,0,0,0,0,-1,1672,799,0,0
455,225,0,0,0,0,0,0,0,0,0,-1,1679,799,0,0
462,225,0,0,0,0,0,0,0,0,0,-1,1686,799,0,0
469,225,0,0,0,0,0,0,0,0,0,-1,1693,799,0,0
476,225,0,0,0,0,0,0,0,0,0,-1,1700,799,0,0
483,225,0,0,0,0,0,0,0,0,0,-1,1707,799,0,0
490,225,0,0,0,0,0,0,0,0,0,-1,1714,799,0,0
497,225,0,0,0,0,0,0,0,0,0,-1,1721,799,0,0
504,225,0,0,0,0,0,0,0,0,0,-1,1728,799,0,0
511,225,0,0,0,0,0,0,0,0,0,-1,1735,799,0,0
518,225,0,0,0,0,0,0,0,0,0,-1,1742,799,0,0
525,225,0,0,0,0,0,0,0,0,0,-1,1749,799,0,0
532,225,0,0,0,0,0,0,0,0,0,-1,1756,799,0,0
539,225,0,0,0,0,0,0,0,0,0,-1,1763,799,0,0
546,225,0,0,0,0,0,0,0,0,0,-1,1770,799,0,0
553,225,0,0,0,0,0,0,0,0,0,-1,1777,799,0,0
560,225,0,0,0,0,0,0,0,0,0,-1,1784,799,0,0
567,225,0,0,0,0,0,0,0,0,0,-1,1791,799,0,0
574,225,0,0,0,0,0,0,0,0,0,-1,1798,799,0,0
581,225,0,0,0,0,0,0,0,0,0,-1,1805,799,0,0
588,225,64.3894,2.68164,0.00627085,-0.000688637,-0.00398131,0.00807877,-0.00249656,-0.426261,0.00638291,0.0344639,1812,799,64.3894,-2.68163
595,225,64.2983,2.74463,0.00690139,-7.28708e-05,-0.00104446,0.00705445,-0.000225928,-0.145507,0.00478005,0.0333837,1819,799,64.2983,-2.74465
602,225,64.3793,2.65796,0.00638017,0.0006089,0.00089229,0.00651498,0.000474093,0.149946,0.00419423,0.0339132,1826,799,64.3792,-2.65793
609,225,64.4176,2.62079,0.00525685,0.00134188,0.00208573,0.00615979,0.00043894,0.408554,0.00396831,0.0338475,1833,799,64.4176,-2.62079
616,225,64.3716,2.70575,0.00416813,0.00184306,0.00268048,0.00592732,8.38689e-05,0.580788,0.00392389,0.0388482,1840,799,64.3716,-2.70575
623,225,64.3226,2.97662,0.00318376,0.00209039,0.00298249,0.00566925,-0.000395097,0.694755,0.00391785,0.0417962,1847,799,64.3226,-2.97663
630,225,64.5685,2.87933,0,0,0,0,0,0,0,-1,1854,799,64.5685,-2.87933
637,225,55.6359,2.8064,0,0,0,0,0,0,0,-1,1861,799,55.6359,-2.80637
644,225,42.0298,2.46411,0,0,0,0,0,0,0,-1,1868,799,42.0298,-2.4641
651,225,27.9657,0.579529,0,0,0,0,0,0,0,-1,1875,799,27.9657,-0.579541
658,225,47.9047,-1.92926,0,0,0,0,0,0,0,-1,1882,799,47.9047,1.92927
665,225,47.1161,-2.26642,0,0,0,0,0,0,0,-1,1889,799,47.1161,2.26641
672,225,46.7742,-1.51343,0,0,0,0,0,0,0,-1,1896,799,46.7741,1.51342
679,225,46.6621,-0.538513,-0.00138317,0.000371727,-0.000522693,0.000515613,-0.00152705,-1.30217,0.00122658,0.0333063,1903,799,46.6621,0.538506
686,225,46.6581,0.190796,-0.00144545,0.000213719,-0.000836846,0.000562489,-0.00179422,-1.17592,0.00142125,0.0119676,1910,799,46.6581,-0.190811
693,225,46.6251,0.910889,-0.000778078,0.000421543,-0.000686328,0.000733225,-0.00108976,-1.14451,0.00105919,0.0110999,1917,799,46.6251,-0.910865
700,225,46.5941,1.67041,0.000477679,0.00091831,-0.000383425,0.00114021,0.00025578,-1.04616,0.000690847,0.0119348,1924,799,46.5941,-1.67043
707,225,46.5392,2.43488,0.00215757,0.00156564,0.000244218,0.00224532,0.00147789,0.344947,0.00131779,0.01264,1931,799,46.5392,-2.43488
714,225,46.5073,3.19684,0.00422541,0.0045256,0.000606899,0.00500069,0.00375032,0.906624,0.003005,0.0145781,1938,799,46.5074,-3.19681
721,225,46.5155,3.96844,0.00649761,0.00734569,0.00105284,0.00805668,0.00578662,0.97684,0.00479695,0.0170106,1945,799,46.5155,-3.96842
728,225,46.5135,4.75568,0,0,0,0,0,0,0,-1,1952,799,46.5136,-4.75567
735,225,46.7476,5.79291,0,0,0,0,0,0,0,-1,1959,799,46.7476,-5.7929
742,225,29.0922,3.2132,0,0,0,0,0,0,0,-1,1966,799,29.0921,-3.21322
749,225,29.9529,4.45538,0,0,0,0,0,0,0,-1,1973,799,29.9529,-4.45537
756,225,31.8855,3.83466,0,0,0,0,0,0,0,-1,1980,799,31.8855,-3.83463
763,225,29.4901,5.14417,0,0,0,0,0,0,0,-1,1987,799,29.4902,-5.14415
770,225,0,0,0,0,0,0,0,0,0,-1,1994,799,0,0
777,225,0,0,0,0,0,0,0,0,0,-1,2001,799,0,0
784,225,0,0,0,0,0,0,0,0,0,-1,2008,799,0,0
791,225,0,0,0,0,0,0,0,0,0,-1,2015,799,0,0
798,225,0,0,0,0,0,0,0,0,0,-1,2022,799,0,0
805,225,0,0,0,0,0,0,0,0,0,-1,2029,799,0,0
812,225,0,0,0,0,0,0,0,0,0,-1,2036,799,0,0
-700,218,0,0,0,0,0,0,0,0,0,-1,524,806,0,0
-693,218,0,0,0,0,0,0,0,0,0,-1,531,806,0,0
-686,218,0,0,0,0,0,0,0,0,0,-1,538,806,0,0
-679,218,0,0,0,0,0,0,0,0,0,-1,545,806,0,0
-672,218,0,0,0,0,0,0,0,0,0,-1,552,806,0,0
-665,218,0,0,0,0,0,0,0,0,0,-1,559,806,0,0
-658,218,0,0,0,0,0,0,0,0,0,-1,566,806,0,0
-651,218,-40.3778,5.1792,0,0,0,0,0,0,0,-1,573,806,-40.3778,-5.1792
-644,218,-40.7704,4.19714,0,0,0,0,0,0,0,-1,580,806,-40.7704,-4.19714
-637,218,-41.541,3.36328,0,0,0,0,0,0,0,-1,587,806,-41.541,-3.36326
-630,218,-42.1423,2.85565,0,0,0,0,0,0,0,-1,594,806,-42.1423,-2.85567
-623,218,-42.7292,2.59015,0,0,0,0,0,0,0,-1,601,806,-42.7292,-2.59015
-616,218,-20.0258,1.87585,0,0,0,0,0,0,0,-1,608,806,-20.0258,-1.87585
-609,218,-32.7518,4.02966,0,0,0,0,0,0,0,-1,615,806,-32.7518,-4.02968
-602,218,-33.002,3.25269,0.00153278,0.00866444,-0.00906734,0.0148419,-0.00464468,-0.97274,0.0117528,0.0421065,622,806,-33.002,-3.25266
-595,218,-33.2475,2.51257,0.00134467,0.00656856,-0.00678646,0.0112284,-0.00331513,-0.969098,0.00880126,0.0191566,629,806,-33.2475,-2.51255
-588,218,-33.2436,1.78638,0.00118059,0.00523709,-0.00485535,0.0084708,-0.00205313,-0.983249,0.00644158,0.0121793,636,806,-33.2436,-1.78639
-581,218,-33.2708,1.06848,0.000949227,0.00403275,-0.003116,0.00596756,-0.000985577,-1.01513,0.00434432,0.0115337,643,806,-33.2708,-1.06849
-574,218,-33.3124,0.320129,0.000745478,0.0028446,-0.00151712,0.00363983,-4.97458e-05,-1.088,0.0024433,0.0105933,650,806,-33.3124,-0.320103
-567,218,-33.3363,-0.438171,0.000556865,0.00200838,-9.93789e-05,0.00201515,0.000550093,-1.50275,0.00120276,0.0181868,657,806,-33.3363,0.438152
-560,218,-33.3691,-1.15076,0.000521206,0.00220722,0.0013347,0.00294285,-0.000214424,1.06707,0.00203714,0.018477,664,806,-33.369,1.15078
-553,218,-33.3132,-2.05951,0.000184561,0.00172917,0.00192134,0.00302762,-0.00111388,0.976496,0.00247473,0.0189928,671,806,-33.3131,2.05954
-546,218,-33.5117,-2.90656,0.000432731,0.00251924,0.00198378,0.00371737,-0.000765394,1.02747,0.00276887,0.027601,678,806,-33.5117,2.90654
-539,218,-33.5984,-3.55389,0.000729122,0.00262751,0.00195368,0.00385037,-0.000493746,1.01153,0.00274633,0.0344163,685,806,-33.5984,3.55388
-532,218,-33.4792,-3.97821,0,0,0,0,0,0,0,-1,692,806,-33.4793,3.97824
-525,218,-29.3521,-3.64417,0,0,0,0,0,0,0,-1,699,806,-29.3521,3.64414
-518,218,-23.61,2.54181,0,0,0,0,0,0,0,-1,706,806,-23.61,-2.54183
-511,218,-41.0953,1.06879,0,0,0,0,0,0,0,-1,713,806,-41.0953,-1.06876
-504,218,-49.0661,0.812256,0,0,0,0,0,0,0,-1,720,806,-49.0661,-0.812228
-497,218,-49.0657,0.867615,0.00361543,-0.00176628,0.00128604,0.00390696,-0.0020578,0.222917,0.00349848,0.0491295,727,806,-49.0657,-0.867617
-490,218,-49.0934,0.939575,0.00553169,-0.00374494,0.00039361,0.00554836,-0.00376161,0.0423289,0.00540801,0.0365848,734,806,-49.0934,-0.939561
-483,218,-49.1315,0.952087,0.00789896,-0.00525795,-0.000804356,0.00794795,-0.00530694,-0.0608337,0.00770319,0.0328318,741,806,-49.1315,-0.952069
-476,218,-49.1111,0.987305,0.0108304,-0.00631557,-0.00209199,0.011082,-0.00656712,-0.119671,0.0103003,0.0357573,748,806,-49.1111,-0.987286
-469,218,0,0,0,0,0,0,0,0,0,-1,755,806,0,0
-462,218,0,0,0,0,0,0,0,0,0,-1,762,806,0,0
-455,218,0,0,0,0,0,0,0,0,0,-1,769,806,0,0
-448,218,0,0,0,0,0,0,0,0,0,-1,776,806,0,0
-441,218,0,0,0,0,0,0,0,0,0,-1,783,806,0,0
-434,218,0,0,0,0,0,0,0,0,0,-1,790,806,0,0
-427,218,0,0,0,0,0,0,0,0,0,-1,797,806,0,0
-420,218,0,0,0,0,0,0,0,0,0,-1,804,806,0,0
-413,218,0,0,0,0,0,0,0,0,0,-1,811,806,0,0
-406,218,0,0,0,0,0,0,0,0,0,-1,818,806,0,0
-399,218,0,0,0,0,0,0,0,0,0,-1,825,806,0,0
-392,218,0,0,0,0,0,0,0,0,0,-1,832,806,0,0
-385,218,0,0,0,0,0,0,0,0,0,-1,839,806,0,0
-378,218,0,0,0,0,0,0,0,0,0,-1,846,806,0,0
-371,218,0,0,0,0,0,0,0,0,0,-1,853,806,0,0
-364,218,0,0,0,0,0,0,0,0,0,-1,860,806,0,0
-357,218,0,0,0,0,0,0,0,0,0,-1,867,806,0,0
-350,218,0,0,0,0,0,0,0,0,0,-1,874,806,0,0
-343,218,0,0,0,0,0,0,0,0,0,-1,881,806,0,0
-336,218,0,0,0,0,0,0,0,0,0,-1,888,806,0,0
-329,218,0,0,0,0,0,0,0,0,0,-1,895,806,0,0
-322,218,0,0,0,0,0,0,0,0,0,-1,902,806,0,0
-315,218,0,0,0,0,0,0,0,0,0,-1,909,806,0,0
-308,218,0,0,0,0,0,0,0,0,0,-1,916,806,0,0
-301,218,0,0,0,0,0,0,0,0,0,-1,923,806,0,0
-294,218,0,0,0,0,0,0,0,0,0,-1,930,806,0,0
-287,218,0,0,0,0,0,0,0,0,0,-1,937,806,0,0
-280,218,0,0,0,0,0,0,0,0,0,-1,944,806,0,0
-273,218,0,0,0,0,0,0,0,0,0,-1,951,806,0,0
-266,218,0,0,0,0,0,0,0,0,0,-1,958,806,0,0
-259,218,0,0,0,0,0,0,0,0,0,-1,965,806,0,0
-252,218,0,0,0,0,0,0,0,0,0,-1,972,806,0,0
-245,218,0,0,0,0,0,0,0,0,0,-1,979,806,0,0
-238,218,0,0,0,0,0,0,0,0,0,-1,986,806,0,0
-231,218,0,0,0,0,0,0,0,0,0,-1,993,806,0,0
-224,218,0,0,0,0,0,0,0,0,0,-1,1000,806,0,0
-217,218,0,0,0,0,0,0,0,0,0,-1,1007,806,0,0
-210,218,0,0,0,0,0,0,0,0,0,-1,1014,806,0,0
-203,218,0,0,0,0,0,0,0,0,0,-1,1021,806,0,0
-196,218,0,0,0,0,0,0,0,0,0,-1,1028,806,0,0
-189,218,0,0,0,0,0,0,0,0,0,-1,1035,806,0,0
-182,218,0,0,0,0,0,0,0,0,0,-1,1042,806,0,0
-175,218,0,0,0,0,0,0,0,0,0,-1,1049,806,0,0
-168,218,0,0,0,0,0,0,0,0,0,-1,1056,806,0,0
-161,218,0,0,0,0,0,0,0,0,0,-1,1063,806,0,0
-154,218,0,0,0,0,0,0,0,0,0,-1,1070,806,0,0
-147,218,0,0,0,0,0,0,0,0,0,-1,1077,806,0,0
-140,218,0,0,0,0,0,0,0,0,0,-1,1084,806,0,0
-133,218,0,0,0,0,0,0,0,0,0,-1,1091,806,0,0
-126,218,0,0,0,0,0,0,0,0,0,-1,1098,806,0,0
-119,218,0,0,0,0,0,0,0,0,0,-1,1105,806,0,0
-112,218,0,0,0,0,0,0,0,0,0,-1,1112,806,0,0
-105,218,0,0,0,0,0,0,0,0,0,-1,1119,806,0,0
-98,218,0,0,0,0,0,0,0,0,0,-1,1126,806,0,0
-91,218,0,0,0,0,0,0,0,0,0,-1,1133,806,0,0
-84,218,0,0,0,0,0,0,0,0,0,-1,1140,806,0,0
-77,218,0,0,0,0,0,0,0,0,0,-1,1147,806,0,0
-70,218,0,0,0,0,0,0,0,0,0,-1,1154,806,0,0
-63,218,0,0,0,0,0,0,0,0,0,-1,1161,806,0,0
-56,218,0,0,0,0,0,0,0,0,0,-1,1168,806,0,0
-49,218,0,0,0,0,0,0,0,0,0,-1,1175,806,0,0
-42,218,0,0,0,0,0,0,0,0,0,-1,1182,806,0,0
-35,218,0,0,0,0,0,0,0,0,0,-1,1189,806,0,0
-28,218,0,0,0,0,0,0,0,0,0,-1,1196,806,0,0
-21,218,0,0,0,0,0,0,0,0,0,-1,1203,806,0,0
-14,218,0,0,0,0,0,0,0,0,0,-1,1210,806,0,0
-7,218,0,0,0,0,0,0,0,0,0,-1,1217,806,0,0
0,218,0,0,0,0,0,0,0,0,0,-1,1224,806,0,0
7,218,0,0,0,0,0,0,0,0,0,-1,1231,806,0,0
14,218,0,0,0,0,0,0,0,0,0,-1,1238,806,0,0
21,218,0,0,0,0,0,0,0,0,0,-1,1245,806,0,0
28,218,0,0,0,0,0,0,0,0,0,-1,1252,806,0,0
35,218,0,0,0,0,0,0,0,0,0,-1,1259,806,0,0
42,218,0,0,0,0,0,0,0,0,0,-1,1266,806,0,0
49,218,0,0,0,0,0,0,0,0,0,-1,1273,806,0,0
56,218,0,0,0,0,0,0,0,0,0,-1,1280,806,0,0
63,218,0,0,0,0,0,0,0,0,0,-1,1287,806,0,0
70,218,0,0,0,0,0,0,0,0,0,-1,1294,806,0,0
77,218,0,0,0,0,0,0,0,0,0,-1,1301,806,0,0
84,218,0,0,0,0,0,0,0,0,0,-1,1308,806,0,0
91,218,0,0,0,0,0,0,0,0,0,-1,1315,806,0,0
98,218,0,0,0,0,0,0,0,0,0,-1,1322,806,0,0
105,218,0,0,0,0,0,0,0,0,0,-1,1329,806,0,0
112,218,0,0,0,0,0,0,0,0,0,-1,1336,806,0,0
119,218,0,0,0,0,0,0,0,0,0,-1,1343,806,0,0
126,218,0,0,0,0,0,0,0,0,0,-1,1350,806,0,0
133,218,0,0,0,0,0,0,0,0,0,-1,1357,806,0,0
140,218,0,0,0,0,0,0,0,0,0,-1,1364,806,0,0
147,218,0,0,0,0,0,0,0,0,0,-1,1371,806,0,0
154,218,0,0,0,0,0,0,0,0,0,-1,1378,806,0,0
161,218,0,0,0,0,0,0,0,0,0,-1,1385,806,0,0
168,218,0,0,0,0,0,0,0,0,0,-1,1392,806,0,0
175,218,0,0,0,0,0,0,0,0,0,-1,1399,806,0,0
182,218,0,0,0,0,0,0,0,0,0,-1,1406,806,0,0
189,218,0,0,0,0,0,0,0,0,0,-1,1413,806,0,0
196,218,0,0,0,0,0,0,0,0,0,-1,1420,806,0,0
203,218,0,0,0,0,0,0,0,0,0,-1,1427,806,0,0
210,218,0,0,0,0,0,0,0,0,0,-1,1434,806,0,0
217,218,0,0,0,0,0,0,0,0,0,-1,1441,806,0,0
224,218,0,0,0,0,0,0,0,0,0,-1,1448,806,0,0
231,218,0,0,0,0,0,0,0,0,0,-1,1455,806,0,0
238,218,0,0,0,0,0,0,0,0,0,-1,1462,806,0,0
245,218,0,0,0,0,0,0,0,0,0,-1,1469,806,0,0
252,218,0,0,0,0,0,0,0,0,0,-1,1476,806,0,0
259,218,0,0,0,0,0,0,0,0,0,-1,1483,806,0,0
266,218,0,0,0,0,0,0,0,0,0,-1,1490,806,0,0
273,218,0,0,0,0,0,0,0,0,0,-1,1497,806,0,0
280,218,0,0,0,0,0,0,0,0,0,-1,1504,806,0,0
287,218,0,0,0,0,0,0,0,0,0,-1,1511,806,0,0
294,218,0,0,0,0,0,0,0,0,0,-1,1518,806,0,0
301,218,0,0,0,0,0,0,0,0,0,-1,1525,806,0,0
308,218,0,0,0,0,0,0,0,0,0,-1,1532,806,0,0
315,218,0,0,0,0,0,0,0,0,0,-1,1539,806,0,0
322,218,0,0,0,0,0,0,0,0,0,-1,1546,806,0,0
329,218,0,0,0,0,0,0,0,0,0,-1,1553,806,0,0
336,218,0,0,0,0,0,0,0,0,0,-1,1560,806,0,0
343,218,0,0,0,0,0,0,0,0,0,-1,1567,806,0,0
350,218,0,0,0,0,0,0,0,0,0,-1,1574,806,0,0
357,218,0,0,0,0,0,0,0,0,0,-1,1581,806,0,0
364,218,0,0,0,0,0,0,0,0,0,-1,1588,806,0,0
371,218,0,0,0,0,0,0,0,0,0,-1,1595,806,0,0
378,218,0,0,0,0,0,0,0,0,0,-1,1602,806,0,0
385,218,0,0,0,0,0,0,0,0,0,-1,1609,806,0,0
392,218,0,0,0,0,0,0,0,0,0,-1,1616,806,0,0
399,218,0,0,0,0,0,0,0,0,0,-1,1623,806,0,0
406,218,0,0,0,0,0,0,0,0,0,-1,1630,806,0,0
413,218,0,0,0,0,0,0,0,0,0,-1,1637,806,0,0
420,218,0,0,0,0,0,0,0,0,0,-1,1644,806,0,0
427,218,0,0,0,0,0,0,0,0,0,-1,1651,806,0,0
434,218,0,0,0,0,0,0,0,0,0,-1,1658,806,0,0
441,218,0,0,0,0,0,0,0,0,0,-1,1665,806,0,0
448,218,0,0,0,0,0,0,0,0,0,-1,1672,806,0,0
455,218,0,0,0,0,0,0,0,0,0,-1,1679,806,0,0
462,218,0,0,0,0,0,0,0,0,0,-1,1686,806,0,0
469,218,0,0,0,0,0,0,0,0,0,-1,1693,806,0,0
476,218,0,0,0,0,0,0,0,0,0,-1,1700,806,0,0
483,218,0,0,0,0,0,0,0,0,0,-1,1707,806,0,0
490,218,0,0,0,0,0,0,0,0,0,-1,1714,806,0,0
497,218,0,0,0,0,0,0,0,0,0,-1,1721,806,0,0
504,218,0,0,0,0,0,0,0,0,0,-1,1728,806,0,0
511,218,0,0,0,0,0,0,0,0,0,-1,1735,806,0,0
518,218,0,0,0,0,0,0,0,0,0,-1,1742,806,0,0
525,218,0,0,0,0,0,0,0,0,0,-1,1749,806,0,0
532,218,0,0,0,0,0,0,0,0,0,-1,1756,806,0,0
539,218,0,0,0,0,0,0,0,0,0,-1,1763,806,0,0
546,218,0,0,0,0,0,0,0,0,0,-1,1770,806,0,0
553,218,0,0,0,0,0,0,0,0,0,-1,1777,806,0,0
560,218,0,0,0,0,0,0,0,0,0,-1,1784,806,0,0
567,218,0,0,0,0,0,0,0,0,0,-1,1791,806,0,0
574,218,0,0,0,0,0,0,0,0,0,-1,1798,806,0,0
581,218,0,0,0,0,0,0,0,0,0,-1,1805,806,0,0
588,218,0,0,0,0,0,0,0,0,0,-1,1812,806,0,0
595,218,64.35,2.73322,0.00444787,0.000952138,-0.00146283,0.00497924,0.000420769,-0.348427,0.0031885,0.0378249,1819,806,64.35,-2.73319
602,218,64.3696,2.67645,0.00449881,0.00130776,0.000584756,0.00460259,0.00120398,0.175648,0.00275616,0.0354336,1826,806,64.3697,-2.67644
609,218,64.3715,2.69,0.0038197,0.00171052,0.0018314,0.00487844,0.000651778,0.524166,0.00305827,0.0307288,1833,806,64.3715,-2.68998
616,218,64.3397,2.70184,0.00305937,0.00209869,0.00251182,0.00513636,2.16966e-05,0.690923,0.00341703,0.0316916,1840,806,64.3397,-2.70184
623,218,64.2913,2.74933,0.00235259,0.00228738,0.00282983,0.00515,-0.000510032,0.779638,0.00361536,0.0375257,1847,806,64.2912,-2.74932
630,218,64.3805,2.89874,0.00133673,0.00227114,0.00252242,0.00436926,-0.000761383,0.876971,0.003197,0.0428068,1854,806,64.3805,-2.89874
637,218,64.2644,2.83813,0,0,0,0,0,0,0,-1,1861,806,64.2644,-2.83816
644,218,52.4042,2.47949,0,0,0,0,0,0,0,-1,1868,806,52.4041,-2.47949
651,218,41.7338,1.99164,0,0,0,0,0,0,0,-1,1875,806,41.7338,-1.99162
658,218,28.41,0.514954,0,0,0,0,0,0,0,-1,1882,806,28.41,-0.514983
665,218,48.1737,-1.91541,0,0,0,0,0,0,0,-1,1889,806,48.1737,1.91539
672,218,47.8374,-1.0249,0,0,0,0,0,0,0,-1,1896,806,47.8374,1.0249
679,218,47.5669,-0.440369,-0.00181244,0.000368517,-0.00088135,0.000680151,-0.00212408,-1.23093,0.00168905,0.0402247,1903,806,47.5669,0.440394
686,218,47.4221,0.206482,-0.0021356,5.27709e-05,-0.00124724,0.00061776,-0.00270059,-1.14546,0.00203777,0.0170062,1910,806,47.4221,-0.206486
693,218,47.4109,0.950378,-0.00161038,9.14155e-05,-0.0011427,0.000665226,-0.00218419,-1.10543,0.00172126,0.0116277,1917,806,47.4109,-0.950366
700,218,47.342,1.71051,-0.000395359,0.000508389,-0.000884909,0.00105012,-0.000937092,-1.02146,0.00114794,0.00942167,1924,806,47.342,-1.71048
707,218,47.2899,2.4577,0.00131539,0.00107559,-0.000272793,0.00149347,0.000897513,-0.578347,0.000868095,0.00798348,1931,806,47.2899,-2.45773
714,218,47.2697,3.21033,0.00346199,0.00388864,5.50923e-05,0.00389564,0.00345499,1.44443,0.00246338,0.0109918,1938,806,47.2696,-3.21033
721,218,47.2704,3.97198,0.00580016,0.00660613,0.000437388,0.00679788,0.00560841,1.15764,0.00419206,0.0144724,1945,806,47.2703,-3.972
728,218,47.2476,4.80139,0.00844069,0.0104566,0.000573322,0.0106082,0.00828905,1.31221,0.00643983,0.0296151,1952,806,47.2475,-4.80138
735,218,47.3605,5.7229,0.011332,0.0163171,0.000289707,0.0163338,0.0113152,1.51294,0.00966109,0.0495515,1959,806,47.3605,-5.7229
742,218,47.6454,6.69202,0,0,0,0,0,0,0,-1,1966,806,47.6453,-6.69202
749,218,42.0249,6.64703,0,0,0,0,0,0,0,-1,1973,806,42.0249,-6.64703
756,218,45.9846,7.24353,0,0,0,0,0,0,0,-1,1980,806,45.9846,-7.24353
763,218,41.7648,5.6676,0,0,0,0,0,0,0,-1,1987,806,41.7648,-5.6676
770,218,0,0,0,0,0,0,0,0,0,-1,1994,806,0,0
777,218,0,0,0,0,0,0,0,0,0,-1,2001,806,0,0
784,218,0,0,0,0,0,0,0,0,0,-1,2008,806,0,0
791,218,0,0,0,0,0,0,0,0,0,-1,2015,806,0,0
798,218,0,0,0,0,0,0,0,0,0,-1,2022,806,0,0
805,218,0,0,0,0,0,0,0,0,0,-1,2029,806,0,0
812,218,0,0,0,0,0,0,0,0,0,-1,2036,806,0,0
-700,211,0,0,0,0,0,0,0,0,0,-1,524,813,0,0
-693,211,0,0,0,0,0,0,0,0,0,-1,531,813,0,0
-686,211,0,0,0,0,0,0,0,0,0,-1,538,813,0,0
-679,211,0,0,0,0,0,0,0,0,0,-1,545,813,0,0
-672,211,0,0,0,0,0,0,0,0,0,-1,552,813,0,0
-665,211,0,0,0,0,0,0,0,0,0,-1,559,813,0,0
-658,211,0,0,0,0,0,0,0,0,0,-1,566,813,0,0
-651,211,-40.2495,5.20386,0,0,0,0,0,0,0,-1,573,813,-40.2494,-5.20384
-644,211,-40.6288,4.32092,0,0,0,0,0,0,0,-1,580,813,-40.6288,-4.3209
-637,211,-41.3664,3.51849,0,0,0,0,0,0,0,-1,587,813,-41.3664,-3.51847
-630,211,-41.9262,2.94977,0,0,0,0,0,0,0,-1,594,813,-41.9262,-2.94975
-623,211,-42.5012,2.62903,0,0,0,0,0,0,0,-1,601,813,-42.5011,-2.629
-616,211,-33.652,4.50305,0,0,0,0,0,0,0,-1,608,813,-33.652,-4.50306
-609,211,-33.6935,3.86737,0.0031819,0.0102914,-0.0104423,0.0177674,-0.0042941,-0.949456,0.0135058,0.0429614,615,813,-33.6935,-3.86738
-602,211,-33.8145,3.2467,0.0021173,0.00798028,-0.00772625,0.0133125,-0.00321489,-0.966718,0.0101183,0.0233437,622,813,-33.8145,-3.24671
-595,211,-33.9626,2.53784,0.00163202,0.00604726,-0.00561353,0.00987167,-0.00219239,-0.972742,0.00742066,0.0117253,629,813,-33.9626,-2.53784
-588,211,-34.004,1.8183,0.00128428,0.004719,-0.00381485,0.00718523,-0.00118194,-0.996899,0.00522885,0.0113807,636,813,-34.004,-1.81831
-581,211,-34.0329,1.09729,0.00100369,0.00360085,-0.00220275,0.0048593,-0.000254764,-1.05174,0.0033277,0.0116736,643,813,-34.0329,-1.0973
-574,211,-34.0634,0.34613,0.000796951,0.00251662,-0.000775336,0.00281456,0.000499002,-1.20391,0.00173414,0.012731,650,813,-34.0634,-0.346103
-567,211,-34.1071,-0.403259,0.0006533,0.00198398,0.000405583,0.00209786,0.000539426,1.29708,0.00125792,0.0202958,657,813,-34.1071,0.403247
-560,211,-34.1368,-1.17163,0.000715618,0.0029418,0.00159228,0.00377147,-0.000114057,1.09044,0.00255318,0.0319517,664,813,-34.1368,1.17166
-553,211,-33.9165,-2.20239,0,0,0,0,0,0,0,-1,671,813,-33.9165,2.20241
-546,211,-34.1648,-3.12177,0,0,0,0,0,0,0,-1,678,813,-34.1648,3.12178
-539,211,-34.316,-3.3822,0,0,0,0,0,0,0,-1,685,813,-34.316,3.38223
-532,211,-34.1888,-4.07617,0,0,0,0,0,0,0,-1,692,813,-34.1889,4.07617
-525,211,-14.3009,2.3233,0,0,0,0,0,0,0,-1,699,813,-14.3009,-2.3233
-518,211,-34.952,1.93011,0,0,0,0,0,0,0,-1,706,813,-34.952,-1.9301
-511,211,-49.0208,0.933533,0,0,0,0,0,0,0,-1,713,813,-49.0208,-0.933503
-504,211,-49.1407,0.838318,0.00242041,0.00293513,0.00147186,0.00417196,0.00118357,0.87195,0.00248268,0.045237,720,813,-49.1408,-0.838333
-497,211,-49.1491,0.888,0.00368132,0.00145313,0.000855412,0.00397184,0.00116261,0.327401,0.00235791,0.0468892,727,813,-49.1491,-0.887977
-490,211,-49.119,0.963928,0.00548448,0.000164939,-0.000261477,0.00549731,0.000152117,-0.0489966,0.00361523,0.0352602,734,813,-49.119,-0.963926
-483,211,-49.2269,0.901428,0.00757549,-0.000414286,-0.00173643,0.00793655,-0.000775349,-0.205013,0.00556751,0.0317225,741,813,-49.2269,-0.901451
-476,211,-49.2579,1.00024,0.0103418,-2.51463e-05,-0.00322308,0.0112621,-0.000945494,-0.278147,0.00784227,0.0363261,748,813,-49.2579,-1.00024
-469,211,0,0,0,0,0,0,0,0,0,-1,755,813,0,0
-462,211,0,0,0,0,0,0,0,0,0,-1,762,813,0,0
-455,211,0,0,0,0,0,0,0,0,0,-1,769,813,0,0
-448,211,0,0,0,0,0,0,0,0,0,-1,776,813,0,0
-441,211,0,0,0,0,0,0,0,0,0,-1,783,813,0,0
-434,211,0,0,0,0,0,0,0,0,0,-1,790,813,0,0
-427,211,0,0,0,0,0,0,0,0,0,-1,797,813,0,0
-420,211,0,0,0,0,0,0,0,0,0,-1,804,813,0,0
-413,211,0,0,0,0,0,0,0,0,0,-1,811,813,0,0
-406,211,0,0,0,0,0,0,0,0,0,-1,818,813,0,0
-399,211,0,0,0,0,0,0,0,0,0,-1,825,813,0,0
-392,211,0,0,0,0,0,0,0,0,0,-1,832,813,0,0
-385,211,0,0,0,0,0,0,0,0,0,-1,839,813,0,0
-378,211,0,0,0,0,0,0,0,0,0,-1,846,813,0,0
-371,211,0,0,0,0,0,0,0,0,0,-1,853,813,0,0
-364,211,0,0,0,0,0,0,0,0,0,-1,860,813,0,0
-357,211,0,0,0,0,0,0,0,0,0,-1,867,813,0,0
-350,211,0,0,0,0,0,0,0,0,0,-1,874,813,0,0
-343,211,0,0,0,0,0,0,0,0,0,-1,881,813,0,0
-336,211,0,0,0,0,0,0,0,0,0,-1,888,813,0,0
-329,211,0,0,0,0,0,0,0,0,0,-1,895,813,0,0
-322,211,0,0,0,0,0,0,0,0,0,-1,902,813,0,0
-315,211,0,0,0,0,0,0,0,0,0,-1,909,813,0,0
-308,211,0,0,0,0,0,0,0,0,0,-1,916,813,0,0
-301,211,0,0,0,0,0,0,0,0,0,-1,923,813,0,0
-294,211,0,0,0,0,0,0,0,0,0,-1,930,813,0,0
-287,211,0,0,0,0,0,0,0,0,0,-1,937,813,0,0
-280,211,0,0,0,0,0,0,0,0,0,-1,944,813,0,0
-273,211,0,0,0,0,0,0,0,0,0,-1,951,813,0,0
-266,211,0,0,0,0,0,0,0,0,0,-1,958,813,0,0
-259,211,0,0,0,0,0,0,0,0,0,-1,965,813,0,0
-252,211,0,0,0,0,0,0,0,0,0,-1,972,813,0,0
-245,211,0,0,0,0,0,0,0,0,0,-1,979,813,0,0
-238,211,0,0,0,0,0,0,0,0,0,-1,986,813,0,0
-231,211,0,0,0,0,0,0,0,0,0,-1,993,813,0,0
-224,211,0,0,0,0,0,0,0,0,0,-1,1000,813,0,0
-217,211,0,0,0,0,0,0,0,0,0,-1,1007,813,0,0
-210,211,0,0,0,0,0,0,0,0,0,-1,1014,813,0,0
-203,211,0,0,0,0,0,0,0,0,0,-1,1021,813,0,0
-196,211,0,0,0,0,0,0,0,0,0,-1,1028,813,0,0
-189,211,0,0,0,0,0,0,0,0,0,-1,1035,813,0,0
-182,211,0,0,0,0,0,0,0,0,0,-1,1042,813,0,0
-175,211,0,0,0,0,0,0,0,0,0,-1,1049,813,0,0
-168,211,0,0,0,0,0,0,0,0,0,-1,1056,813,0,0
-161,211,0,0,0,0,0,0,0,0,0,-1,1063,813,0,0
-154,211,0,0,0,0,0,0,0,0,0,-1,1070,813,0,0
-147,211,0,0,0,0,0,0,0,0,0,-1,1077,813,0,0
-140,211,0,0,0,0,0,0,0,0,0,-1,1084,813,0,0
-133,211,0,0,0,0,0,0,0,0,0,-1,1091,813,0,0
-126,211,0,0,0,0,0,0,0,0,0,-1,1098,813,0,0
-119,211,0,0,0,0,0,0,0,0,0,-1,1105,813,0,0
-112,211,0,0,0,0,0,0,0,0,0,-1,1112,813,0,0
-105,211,0,0,0,0,0,0,0,0,0,-1,1119,813,0,0
-98,211,0,0,0,0,0,0,0,0,0,-1,1126,813,0,0
-91,211,0,0,0,0,0,0,0,0,0,-1,1133,813,0,0
-84,211,0,0,0,0,0,0,0,0,0,-1,1140,813,0,0
-77,211,0,0,0,0,0,0,0,0,0,-1,1147,813,0,0
-70,211,0,0,0,0,0,0,0,0,0,-1,1154,813,0,0
-63,211,0,0,0,0,0,0,0,0,0,-1,1161,813,0,0
-56,211,0,0,0,0,0,0,0,0,0,-1,1168,813,0,0
-49,211,0,0,0,0,0,0,0,0,0,-1,1175,813,0,0
-42,211,0,0,0,0,0,0,0,0,0,-1,1182,813,0,0
-35,211,0,0,0,0,0,0,0,0,0,-1,1189,813,0,0
-28,211,0,0,0,0,0,0,0,0,0,-1,1196,813,0,0
-21,211,0,0,0,0,0,0,0,0,0,-1,1203,813,0,0
-14,211,0,0,0,0,0,0,0,0,0,-1,1210,813,0,0
-7,211,0,0,0,0,0,0,0,0,0,-1,1217,813,0,0
0,211,0,0,0,0,0,0,0,0,0,-1,1224,813,0,0
7,211,0,0,0,0,0,0,0,0,0,-1,1231,813,0,0
14,211,0,0,0,0,0,0,0,0,0,-1,1238,813,0,0
21,211,0,0,0,0,0,0,0,0,0,-1,1245,813,0,0
28,211,0,0,0,0,0,0,0,0,0,-1,1252,813,0,0
35,211,0,0,0,0,0,0,0,0,0,-1,1259,813,0,0
42,211,0,0,0,0,0,0,0,0,0,-1,1266,813,0,0
49,211,0,0,0,0,0,0,0,0,0,-1,1273,813,0,0
56,211,0,0,0,0,0,0,0,0,0,-1,1280,813,0,0
63,211,0,0,0,0,0,0,0,0,0,-1,1287,813,0,0
70,211,0,0,0,0,0,0,0,0,0,-1,1294,813,0,0
77,211,0,0,0,0,0,0,0,0,0,-1,1301,813,0,0
84,211,0,0,0,0,0,0,0,0,0,-1,1308,813,0,0
91,211,0,0,0,0,0,0,0,0,0,-1,1315,813,0,0
98,211,0,0,0,0,0,0,0,0,0,-1,1322,813,0,0
105,211,0,0,0,0,0,0,0,0,0,-1,1329,813,0,0
112,211,0,0,0,0,0,0,0,0,0,-1,1336,813,0,0
119,211,0,0,0,0,0,0,0,0,0,-1,1343,813,0,0
126,211,0,0,0,0,0,0,0,0,0,-1,1350,813,0,0
133,211,0,0,0,0,0,0,0,0,0,-1,1357,813,0,0
140,211,0,0,0,0,0,0,0,0,0,-1,1364,813,0,0
147,211,0,0,0,0,0,0,0,0,0,-1,1371,813,0,0
154,211,0,0,0,0,0,0,0,0,0,-1,1378,813,0,0
161,211,0,0,0,0,0,0,0,0,0,-1,1385,813,0,0
168,211,0,0,0,0,0,0,0,0,0,-1,1392,813,0,0
175,211,0,0,0,0,0,0,0,0,0,-1,1399,813,0,0
182,211,0,0,0,0,0,0,0,0,0,-1,1406,813,0,0
189,211,0,0,0,0,0,0,0,0,0,-1,1413,813,0,0
196,211,0,0,0,0,0,0,0,0,0,-1,1420,813,0,0
203,211,0,0,0,0,0,0,0,0,0,-1,1427,813,0,0
210,211,0,0,0,0,0,0,0,0,0,-1,1434,813,0,0
217,211,0,0,0,0,0,0,0,0,0,-1,1441,813,0,0
224,211,0,0,0,0,0,0,0,0,0,-1,1448,813,0,0
231,211,0,0,0,0,0,0,0,0,0,-1,1455,813,0,0
238,211,0,0,0,0,0,0,0,0,0,-1,1462,813,0,0
245,211,0,0,0,0,0,0,0,0,0,-1,1469,813,0,0
252,211,0,0,0,0,0,0,0,0,0,-1,1476,813,0,0
259,211,0,0,0,0,0,0,0,0,0,-1,1483,813,0,0
266,211,0,0,0,0,0,0,0,0,0,-1,1490,813,0,0
273,211,0,0,0,0,0,0,0,0,0,-1,1497,813,0,0
280,211,0,0,0,0,0,0,0,0,0,-1,1504,813,0,0
287,211,0,0,0,0,0,0,0,0,0,-1,1511,813,0,0
294,211,0,0,0,0,0,0,0,0,0,-1,1518,813,0,0
301,211,0,0,0,0,0,0,0,0,0,-1,1525,813,0,0
308,211,0,0,0,0,0,0,0,0,0,-1,1532,813,0,0
315,211,0,0,0,0,0,0,0,0,0,-1,1539,813,0,0
322,211,0,0,0,0,0,0,0,0,0,-1,1546,813,0,0
329,211,0,0,0,0,0,0,0,0,0,-1,1553,813,0,0
336,211,0,0,0,0,0,0,0,0,0,-1,1560,813,0,0
343,211,0,0,0,0,0,0,0,0,0,-1,1567,813,0,0
350,211,0,0,0,0,0,0,0,0,0,-1,1574,813,0,0
357,211,0,0,0,0,0,0,0,0,0,-1,1581,813,0,0
364,211,0,0,0,0,0,0,0,0,0,-1,1588,813,0,0
371,211,0,0,0,0,0,0,0,0,0,-1,1595,813,0,0
378,211,0,0,0,0,0,0,0,0,0,-1,1602,813,0,0
385,211,0,0,0,0,0,0,0,0,0,-1,1609,813,0,0
392,211,0,0,0,0,0,0,0,0,0,-1,1616,813,0,0
399,211,0,0,0,0,0,0,0,0,0,-1,1623,813,0,0
406,211,0,0,0,0,0,0,0,0,0,-1,1630,813,0,0
413,211,0,0,0,0,0,0,0,0,0,-1,1637,813,0,0
420,211,0,0,0,0,0,0,0,0,0,-1,1644,813,0,0
427,211,0,0,0,0,0,0,0,0,0,-1,1651,813,0,0
434,211,0,0,0,0,0,0,0,0,0,-1,1658,813,0,0
441,211,0,0,0,0,0,0,0,0,0,-1,1665,813,0,0
448,211,0,0,0,0,0,0,0,0,0,-1,1672,813,0,0
455,211,0,0,0,0,0,0,0,0,0,-1,1679,813,0,0
462,211,0,0,0,0,0,0,0,0,0,-1,1686,813,0,0
469,211,0,0,0,0,0,0,0,0,0,-1,1693,813,0,0
476,211,0,0,0,0,0,0,0,0,0,-1,1700,813,0,0
483,211,0,0,0,0,0,0,0,0,0,-1,1707,813,0,0
490,211,0,0,0,0,0,0,0,0,0,-1,1714,813,0,0
497,211,0,0,0,0,0,0,0,0,0,-1,1721,813,0,0
504,211,0,0,0,0,0,0,0,0,0,-1,1728,813,0,0
511,211,0,0,0,0,0,0,0,0,0,-1,1735,813,0,0
518,211,0,0,0,0,0,0,0,0,0,-1,1742,813,0,0
525,211,0,0,0,0,0,0,0,0,0,-1,1749,813,0,0
532,211,0,0,0,0,0,0,0,0,0,-1,1756,813,0,0
539,211,0,0,0,0,0,0,0,0,0,-1,1763,813,0,0
546,211,0,0,0,0,0,0,0,0,0,-1,1770,813,0,0
553,211,0,0,0,0,0,0,0,0,0,-1,1777,813,0,0
560,211,0,0,0,0,0,0,0,0,0,-1,1784,813,0,0
567,211,0,0,0,0,0,0,0,0,0,-1,1791,813,0,0
574,211,0,0,0,0,0,0,0,0,0,-1,1798,813,0,0
581,211,0,0,0,0,0,0,0,0,0,-1,1805,813,0,0
588,211,0,0,0,0,0,0,0,0,0,-1,1812,813,0,0
595,211,64.4048,2.50519,0.00292122,0.00145235,-0.00173899,0.0040745,0.000299066,-0.585594,0.00262234,0.0418114,1819,813,64.4048,-2.50519
602,211,64.3276,2.638,0.00309723,0.00168944,0.000199441,0.00312494,0.00166173,0.138052,0.0018054,0.0403928,1826,813,64.3276,-2.638
609,211,64.2889,2.75574,0.00265583,0.0019183,0.0014322,0.00376598,0.000808146,0.659395,0.00228932,0.037894,1833,813,64.289,-2.75574
616,211,64.3448,2.65723,0.00210528,0.00228891,0.00223789,0.00443687,-4.2679e-05,0.8059,0.00297224,0.031463,1840,813,64.3449,-2.65723
623,211,64.2783,2.77765,0.00159543,0.00251332,0.00264029,0.00473425,-0.000625503,0.87145,0.00338399,0.0327938,1847,813,64.2783,-2.77764
630,211,64.214,2.84338,0.000625892,0.00252554,0.00229926,0.00406343,-0.000912004,0.981272,0.00305862,0.037731,1854,813,64.214,-2.84336
637,211,64.3077,2.77966,-0.000169356,0.00232678,0.00183886,0.00330111,-0.00114369,1.08355,0.00266507,0.0481594,1861,813,64.3078,-2.77964
644,211,64.3512,2.67712,0,0,0,0,0,0,0,-1,1868,813,64.3512,-2.67714
651,211,48.5043,2.95557,0,0,0,0,0,0,0,-1,1875,813,48.5043,-2.95558
658,211,27.7909,1.52234,0,0,0,0,0,0,0,-1,1882,813,27.7909,-1.52234
665,211,42.2053,-0.745605,0,0,0,0,0,0,0,-1,1889,813,42.2054,0.745605
672,211,48.7705,-0.925659,0,0,0,0,0,0,0,-1,1896,813,48.7705,0.925636
679,211,48.5503,-0.378174,-0.00243914,0.000546559,-0.00111183,0.000915097,-0.00280768,-1.25072,0.00224002,0.0454278,1903,813,48.5502,0.378172
686,211,48.234,0.237976,-0.00297622,0.000120515,-0.00149606,0.000725201,-0.0035809,-1.18669,0.00266213,0.0195962,1910,813,48.234,-0.237951
693,211,48.149,0.970642,-0.00261953,-7.53551e-05,-0.00150525,0.000623342,-0.00331823,-1.13622,0.00244655,0.0120714,1917,813,48.1491,-0.970648
700,211,48.0497,1.71423,-0.00152497,0.000165955,-0.00136934,0.000929811,-0.00228882,-1.06196,0.0019127,0.0133755,1924,813,48.0497,-1.71421
707,211,48.0586,2.49518,0.000134467,0.000587037,-0.000829789,0.00122084,-0.000499338,-0.918512,0.00102185,0.0203179,1931,813,48.0586,-2.4952
714,211,48.0475,3.27991,0.00231856,0.00312955,-0.000533188,0.00339392,0.00205419,-1.1105,0.0019739,0.0229971,1938,813,48.0475,-3.27993
721,211,48.0366,3.99207,0.00472182,0.00569524,-0.000208626,0.00573807,0.00467899,-1.36832,0.00352578,0.0179369,1945,813,48.0367,-3.99208
728,211,48.0151,4.73993,0.0074251,0.00930922,-0.000137988,0.00931927,0.00741505,-1.49808,0.00568542,0.0191254,1952,813,48.0151,-4.73994
735,211,48.061,5.60645,0.010411,0.0146129,-0.000448313,0.0146602,0.0103637,-1.46568,0.00870233,0.0345734,1959,813,48.0611,-5.60647
742,211,48.2272,6.46106,0,0,0,0,0,0,0,-1,1966,813,48.2271,-6.46104
749,211,47.6519,6.44202,0,0,0,0,0,0,0,-1,1973,813,47.6519,-6.44204
756,211,46.8932,7.27258,0,0,0,0,0,0,0,-1,1980,813,46.8932,-7.2726
763,211,45.564,11.2768,0,0,0,0,0,0,0,-1,1987,813,45.5639,-11.2768
770,211,46.2148,12.9099,0,0,0,0,0,0,0,-1,1994,813,46.2148,-12.9099
777,211,0,0,0,0,0,0,0,0,0,-1,2001,813,0,0
784,211,0,0,0,0,0,0,0,0,0,-1,2008,813,0,0
791,211,0,0,0,0,0,0,0,0,0,-1,2015,813,0,0
798,211,0,0,0,0,0,0,0,0,0,-1,2022,813,0,0
805,211,0,0,0,0,0,0,0,0,0,-1,2029,813,0,0
812,211,0,0,0,0,0,0,0,0,0,-1,2036,813,0,0
-700,204,0,0,0,0,0,0,0,0,0,-1,524,820,0,0
-693,204,0,0,0,0,0,0,0,0,0,-1,531,820,0,0
-686,204,0,0,0,0,0,0,0,0,0,-1,538,820,0,0
-679,204,0,0,0,0,0,0,0,0,0,-1,545,820,0,0
-672,204,0,0,0,0,0,0,0,0,0,-1,552,820,0,0
-665,204,0,0,0,0,0,0,0,0,0,-1,559,820,0,0
-658,204,0,0,0,0,0,0,0,0,0,-1,566,820,0,0
-651,204,-40.064,5.25806,0,0,0,0,0,0,0,-1,573,820,-40.064,-5.25806
-644,204,-40.4117,4.54321,0,0,0,0,0,0,0,-1,580,820,-40.4117,-4.54323
-637,204,-40.8671,3.93817,0,0,0,0,0,0,0,-1,587,820,-40.8671,-3.93819
-630,204,-41.7101,3.04382,0,0,0,0,0,0,0,-1,594,820,-41.7101,-3.04383
-623,204,-41.8597,2.11951,0,0,0,0,0,0,0,-1,601,820,-41.8597,-2.11951
-616,204,-34.5823,4.73163,0,0,0,0,0,0,0,-1,608,820,-34.5823,-4.73164
-609,204,-34.5548,4.01471,0.00370242,0.00950463,-0.00917871,0.0162298,-0.00302275,-0.938465,0.0119555,0.0386087,615,820,-34.5548,-4.0147
-602,204,-34.623,3.28223,0.00233498,0.00732468,-0.00657981,0.0118667,-0.00220709,-0.966608,0.00874024,0.0180374,622,820,-34.6231,-3.28225
-595,204,-34.708,2.56061,0.00157228,0.00551707,-0.0045265,0.00848225,-0.00139289,-0.990866,0.00617175,0.0161501,629,820,-34.708,-2.56062
-588,204,-34.7445,1.83508,0.00104501,0.00416109,-0.00278192,0.00579156,-0.000585455,-1.04066,0.00407025,0.0145489,636,820,-34.7445,-1.83511
-581,204,-34.7772,1.08984,0.000719078,0.00312378,-0.00124321,0.00365094,0.000191913,-1.16974,0.00237258,0.0137236,643,820,-34.7772,-1.08982
-574,204,-34.7969,0.357605,0.000540061,0.00216705,7.83644e-06,0.00216709,0.000540023,1.56598,0.00130258,0.0140039,650,820,-34.7969,-0.357601
-567,204,-34.7987,-0.375305,0.000507018,0.00187332,0.00085807,0.00228697,9.3365e-05,1.12159,0.0014945,0.0148603,657,820,-34.7987,0.375333
-560,204,-34.6986,-1.17773,0.000687999,0.00333706,0.0017082,0.00417408,-0.000149028,1.11518,0.00283371,0.0284707,664,820,-34.6986,1.17773
-553,204,-34.8828,-1.8916,0,0,0,0,0,0,0,-1,671,820,-34.8828,1.89158
-546,204,-32.433,-2.2323,0,0,0,0,0,0,0,-1,678,820,-32.433,2.23228
-539,204,-34.9945,-3.21216,0,0,0,0,0,0,0,-1,685,820,-34.9945,3.21217
-532,204,-30.0565,-3.29065,0,0,0,0,0,0,0,-1,692,820,-30.0565,3.29063
-525,204,-25.7137,1.52496,0,0,0,0,0,0,0,-1,699,820,-25.7137,-1.52496
-518,204,-43.4591,0.383972,0,0,0,0,0,0,0,-1,706,820,-43.4591,-0.383942
-511,204,-48.8173,1.16089,0,0,0,0,0,0,0,-1,713,820,-48.8173,-1.16086
-504,204,-48.9836,1.04675,0.00246033,0.00495727,0.00111772,0.0053845,0.0020331,1.2057,0.00313965,0.0434,720,820,-48.9837,-1.04677
-497,204,-49.0807,0.991516,0.00368641,0.00427248,0.000294652,0.00439501,0.00356388,1.17672,0.00269601,0.0386433,727,820,-49.0807,-0.991508
-490,204,-49.1873,0.864868,0.00543669,0.00428524,-0.00119782,0.00618996,0.00353197,-0.561377,0.00358563,0.0348457,734,820,-49.1873,-0.864854
-483,204,-49.2488,0.758911,0.00739702,0.00523735,-0.00323618,0.00972877,0.0029056,-0.624368,0.00576671,0.0383379,741,820,-49.2487,-0.75892
-476,204,0,0,0,0,0,0,0,0,0,-1,748,820,0,0
-469,204,0,0,0,0,0,0,0,0,0,-1,755,820,0,0
-462,204,0,0,0,0,0,0,0,0,0,-1,762,820,0,0
-455,204,0,0,0,0,0,0,0,0,0,-1,769,820,0,0
-448,204,0,0,0,0,0,0,0,0,0,-1,776,820,0,0
-441,204,0,0,0,0,0,0,0,0,0,-1,783,820,0,0
-434,204,0,0,0,0,0,0,0,0,0,-1,790,820,0,0
-427,204,0,0,0,0,0,0,0,0,0,-1,797,820,0,0
-420,204,0,0,0,0,0,0,0,0,0,-1,804,820,0,0
-413,204,0,0,0,0,0,0,0,0,0,-1,811,820,0,0
-406,204,0,0,0,0,0,0,0,0,0,-1,818,820,0,0
-399,204,0,0,0,0,0,0,0,0,0,-1,825,820,0,0
-392,204,0,0,0,0,0,0,0,0,0,-1,832,820,0,0
-385,204,0,0,0,0,0,0,0,0,0,-1,839,820,0,0
-378,204,0,0,0,0,0,0,0,0,0,-1,846,820,0,0
-371,204,0,0,0,0,0,0,0,0,0,-1,853,820,0,0
-364,204,0,0,0,0,0,0,0,0,0,-1,860,820,0,0
-357,204,0,0,0,0,0,0,0,0,0,-1,867,820,0,0
-350,204,0,0,0,0,0,0,0,0,0,-1,874,820,0,0
-343,204,0,0,0,0,0,0,0,0,0,-1,881,820,0,0
-336,204,0,0,0,0,0,0,0,0,0,-1,888,820,0,0
-329,204,0,0,0,0,0,0,0,0,0,-1,895,820,0,0
-322,204,0,0,0,0,0,0,0,0,0,-1,902,820,0,0
-315,204,0,0,0,0,0,0,0,0,0,-1,909,820,0,0
-308,204,0,0,0,0,0,0,0,0,0,-1,916,820,0,0
-301,204,0,0,0,0,0,0,0,0,0,-1,923,820,0,0
-294,204,0,0,0,0,0,0,0,0,0,-1,930,820,0,0
-287,204,0,0,0,0,0,0,0,0,0,-1,937,820,0,0
-280,204,0,0,0,0,0,0,0,0,0,-1,944,820,0,0
-273,204,0,0,0,0,0,0,0,0,0,-1,951,820,0,0
-266,204,0,0,0,0,0,0,0,0,0,-1,958,820,0,0
-259,204,0,0,0,0,0,0,0,0,0,-1,965,820,0,0
-252,204,0,0,0,0,0,0,0,0,0,-1,972,820,0,0
-245,204,0,0,0,0,0,0,0,0,0,-1,979,820,0,0
-238,204,0,0,0,0,0,0,0,0,0,-1,986,820,0,0
-231,204,0,0,0,0,0,0,0,0,0,-1,993,820,0,0
-224,204,0,0,0,0,0,0,0,0,0,-1,1000,820,0,0
-217,204,0,0,0,0,0,0,0,0,0,-1,1007,820,0,0
-210,204,0,0,0,0,0,0,0,0,0,-1,1014,820,0,0
-203,204,0,0,0,0,0,0,0,0,0,-1,1021,820,0,0
-196,204,0,0,0,0,0,0,0,0,0,-1,1028,820,0,0
-189,204,0,0,0,0,0,0,0,0,0,-1,1035,820,0,0
-182,204,0,0,0,0,0,0,0,0,0,-1,1042,820,0,0
-175,204,0,0,0,0,0,0,0,0,0,-1,1049,820,0,0
-168,204,0,0,0,0,0,0,0,0,0,-1,1056,820,0,0
-161,204,0,0,0,0,0,0,0,0,0,-1,1063,820,0,0
-154,204,0,0,0,0,0,0,0,0,0,-1,1070,820,0,0
-147,204,0,0,0,0,0,0,0,0,0,-1,1077,820,0,0
-140,204,0,0,0,0,0,0,0,0,0,-1,1084,820,0,0
-133,204,0,0,0,0,0,0,0,0,0,-1,1091,820,0,0
-126,204,0,0,0,0,0,0,0,0,0,-1,1098,820,0,0
-119,204,0,0,0,0,0,0,0,0,0,-1,1105,820,0,0
-112,204,0,0,0,0,0,0,0,0,0,-1,1112,820,0,0
-105,204,0,0,0,0,0,0,0,0,0,-1,1119,820,0,0
-98,204,0,0,0,0,0,0,0,0,0,-1,1126,820,0,0
-91,204,0,0,0,0,0,0,0,0,0,-1,1133,820,0,0
-84,204,0,0,0,0,0,0,0,0,0,-1,1140,820,0,0
-77,204,0,0,0,0,0,0,0,0,0,-1,1147,820,0,0
-70,204,0,0,0,0,0,0,0,0,0,-1,1154,820,0,0
-63,204,0,0,0,0,0,0,0,0,0,-1,1161,820,0,0
-56,204,0,0,0,0,0,0,0,0,0,-1,1168,820,0,0
-49,204,0,0,0,0,0,0,0,0,0,-1,1175,820,0,0
-42,204,0,0,0,0,0,0,0,0,0,-1,1182,820,0,0
-35,204,0,0,0,0,0,0,0,0,0,-1,1189,820,0,0
-28,204,0,0,0,0,0,0,0,0,0,-1,1196,820,0,0
-21,204,0,0,0,0,0,0,0,0,0,-1,1203,820,0,0
-14,204,0,0,0,0,0,0,0,0,0,-1,1210,820,0,0
-7,204,0,0,0,0,0,0,0,0,0,-1,1217,820,0,0
0,204,0,0,0,0,0,0,0,0,0,-1,1224,820,0,0
7,204,0,0,0,0,0,0,0,0,0,-1,1231,820,0,0
14,204,0,0,0,0,0,0,0,0,0,-1,1238,820,0,0
21,204,0,0,0,0,0,0,0,0,0,-1,1245,820,0,0
28,204,0,0,0,0,0,0,0,0,0,-1,1252,820,0,0
35,204,0,0,0,0,0,0,0,0,0,-1,1259,820,0,0
42,204,0,0,0,0,0,0,0,0,0,-1,1266,820,0,0
49,204,0,0,0,0,0,0,0,0,0,-1,1273,820,0,0
56,204,0,0,0,0,0,0,0,0,0,-1,1280,820,0,0
63,204,0,0,0,0,0,0,0,0,0,-1,1287,820,0,0
70,204,0,0,0,0,0,0,0,0,0,-1,1294,820,0,0
77,204,0,0,0,0,0,0,0,0,0,-1,1301,820,0,0
84,204,0,0,0,0,0,0,0,0,0,-1,1308,820,0,0
91,204,0,0,0,0,0,0,0,0,0,-1,1315,820,0,0
98,204,0,0,0,0,0,0,0,0,0,-1,1322,820,0,0
105,204,0,0,0,0,0,0,0,0,0,-1,1329,820,0,0
112,204,0,0,0,0,0,0,0,0,0,-1,1336,820,0,0
119,204,0,0,0,0,0,0,0,0,0,-1,1343,820,0,0
126,204,0,0,0,0,0,0,0,0,0,-1,1350,820,0,0
133,204,0,0,0,0,0,0,0,0,0,-1,1357,820,0,0
140,204,0,0,0,0,0,0,0,0,0,-1,1364,820,0,0
147,204,0,0,0,0,0,0,0,0,0,-1,1371,820,0,0
154,204,0,0,0,0,0,0,0,0,0,-1,1378,820,0,0
161,204,0,0,0,0,0,0,0,0,0,-1,1385,820,0,0
168,204,0,0,0,0,0,0,0,0,0,-1,1392,820,0,0
175,204,0,0,0,0,0,0,0,0,0,-1,1399,820,0,0
182,204,0,0,0,0,0,0,0,0,0,-1,1406,820,0,0
189,204,0,0,0,0,0,0,0,0,0,-1,1413,820,0,0
196,204,0,0,0,0,0,0,0,0,0,-1,1420,820,0,0
203,204,0,0,0,0,0,0,0,0,0,-1,1427,820,0,0
210,204,0,0,0,0,0,0,0,0,0,-1,1434,820,0,0
217,204,0,0,0,0,0,0,0,0,0,-1,1441,820,0,0
224,204,0,0,0,0,0,0,0,0,0,-1,1448,820,0,0
231,204,0,0,0,0,0,0,0,0,0,-1,1455,820,0,0
238,204,0,0,0,0,0,0,0,0,0,-1,1462,820,0,0
245,204,0,0,0,0,0,0,0,0,0,-1,1469,820,0,0
252,204,0,0,0,0,0,0,0,0,0,-1,1476,820,0,0
259,204,0,0,0,0,0,0,0,0,0,-1,1483,820,0,0
266,204,0,0,0,0,0,0,0,0,0,-1,1490,820,0,0
273,204,0,0,0,0,0,0,0,0,0,-1,1497,820,0,0
280,204,0,0,0,0,0,0,0,0,0,-1,1504,820,0,0
287,204,0,0,0,0,0,0,0,0,0,-1,1511,820,0,0
294,204,0,0,0,0,0,0,0,0,0,-1,1518,820,0,0
301,204,0,0,0,0,0,0,0,0,0,-1,1525,820,0,0
308,204,0,0,0,0,0,0,0,0,0,-1,1532,820,0,0
315,204,0,0,0,0,0,0,0,0,0,-1,1539,820,0,0
322,204,0,0,0,0,0,0,0,0,0,-1,1546,820,0,0
329,204,0,0,0,0,0,0,0,0,0,-1,1553,820,0,0
336,204,0,0,0,0,0,0,0,0,0,-1,1560,820,0,0
343,204,0,0,0,0,0,0,0,0,0,-1,1567,820,0,0
350,204,0,0,0,0,0,0,0,0,0,-1,1574,820,0,0
357,204,0,0,0,0,0,0,0,0,0,-1,1581,820,0,0
364,204,0,0,0,0,0,0,0,0,0,-1,1588,820,0,0
371,204,0,0,0,0,0,0,0,0,0,-1,1595,820,0,0
378,204,0,0,0,0,0,0,0,0,0,-1,1602,820,0,0
385,204,0,0,0,0,0,0,0,0,0,-1,1609,820,0,0
392,204,0,0,0,0,0,0,0,0,0,-1,1616,820,0,0
399,204,0,0,0,0,0,0,0,0,0,-1,1623,820,0,0
406,204,0,0,0,0,0,0,0,0,0,-1,1630,820,0,0
413,204,0,0,0,0,0,0,0,0,0,-1,1637,820,0,0
420,204,0,0,0,0,0,0,0,0,0,-1,1644,820,0,0
427,204,0,0,0,0,0,0,0,0,0,-1,1651,820,0,0
434,204,0,0,0,0,0,0,0,0,0,-1,1658,820,0,0
441,204,0,0,0,0,0,0,0,0,0,-1,1665,820,0,0
448,204,0,0,0,0,0,0,0,0,0,-1,1672,820,0,0
455,204,0,0,0,0,0,0,0,0,0,-1,1679,820,0,0
462,204,0,0,0,0,0,0,0,0,0,-1,1686,820,0,0
469,204,0,0,0,0,0,0,0,0,0,-1,1693,820,0,0
476,204,0,0,0,0,0,0,0,0,0,-1,1700,820,0,0
483,204,0,0,0,0,0,0,0,0,0,-1,1707,820,0,0
490,204,0,0,0,0,0,0,0,0,0,-1,1714,820,0,0
497,204,0,0,0,0,0,0,0,0,0,-1,1721,820,0,0
504,204,0,0,0,0,0,0,0,0,0,-1,1728,820,0,0
511,204,0,0,0,0,0,0,0,0,0,-1,1735,820,0,0
518,204,0,0,0,0,0,0,0,0,0,-1,1742,820,0,0
525,204,0,0,0,0,0,0,0,0,0,-1,1749,820,0,0
532,204,0,0,0,0,0,0,0,0,0,-1,1756,820,0,0
539,204,0,0,0,0,0,0,0,0,0,-1,1763,820,0,0
546,204,0,0,0,0,0,0,0,0,0,-1,1770,820,0,0
553,204,0,0,0,0,0,0,0,0,0,-1,1777,820,0,0
560,204,0,0,0,0,0,0,0,0,0,-1,1784,820,0,0
567,204,0,0,0,0,0,0,0,0,0,-1,1791,820,0,0
574,204,0,0,0,0,0,0,0,0,0,-1,1798,820,0,0
581,204,0,0,0,0,0,0,0,0,0,-1,1805,820,0,0
588,204,0,0,0,0,0,0,0,0,0,-1,1812,820,0,0
595,204,0,0,0,0,0,0,0,0,0,-1,1819,820,0,0
602,204,64.3267,2.72809,0.00159612,0.00146908,-0.000211559,0.00175349,0.00131171,-0.639559,0.00105309,0.0398459,1826,820,64.3267,-2.72807
609,204,64.3468,2.73712,0.00147555,0.00169164,0.000926562,0.00251644,0.000650756,0.843441,0.00150825,0.0402072,1833,820,64.3468,-2.73712
616,204,64.4119,2.60339,0.00125507,0.00216702,0.00180046,0.00356835,-0.000146252,0.909419,0.00242912,0.0369222,1840,820,64.4119,-2.6034
623,204,64.3778,2.70392,0.00101761,0.00255346,0.00231087,0.00422067,-0.000649591,0.945813,0.00305343,0.0286027,1847,820,64.3778,-2.70389
630,204,64.3251,2.75848,0.000145314,0.00267541,0.00204361,0.00381384,-0.000993113,1.06254,0.00293024,0.028745,1854,820,64.325,-2.75847
637,204,64.3162,2.73431,-0.000650734,0.00242536,0.0015396,0.00306353,-0.00128891,1.17785,0.00258157,0.0369149,1861,820,64.3162,-2.73433
644,204,64.3258,2.72644,0,0,0,0,0,0,0,-1,1868,820,64.3258,-2.72642
651,204,53.7611,2.32251,0,0,0,0,0,0,0,-1,1875,820,53.7611,-2.32249
658,204,34.9631,1.64844,0,0,0,0,0,0,0,-1,1882,820,34.9631,-1.64842
665,204,21.8292,1.51099,0,0,0,0,0,0,0,-1,1889,820,21.8292,-1.51099
672,204,49.1448,-1.07813,0,0,0,0,0,0,0,-1,1896,820,49.1448,1.07814
679,204,49.0996,-0.437683,-0.00282028,0.000643466,-0.00129609,0.00107474,-0.00325156,-1.24957,0.00260105,0.0420483,1903,820,49.0996,0.437689
686,204,49.0148,0.268799,-0.00346791,0.000218352,-0.00165887,0.000854934,-0.00410449,-1.20438,0.00306136,0.0211102,1910,820,49.0148,-0.2688
693,204,48.7866,0.991638,-0.0032519,-0.000139296,-0.00177001,0.000661309,-0.0040525,-1.14602,0.00294694,0.0197893,1917,820,48.7866,-0.991636
700,204,48.821,1.75452,-0.00237082,-8.20129e-05,-0.00178534,0.000894222,-0.00334706,-1.07041,0.0025816,0.0172437,1924,820,48.821,-1.75451
707,204,48.8003,2.55261,-0.000881711,0.000177776,-0.00134846,0.00109681,-0.00180075,-0.972563,0.00168928,0.0152602,1931,820,48.8003,-2.55259
714,204,48.7957,3.35986,0.00127823,0.00235953,-0.00103005,0.00298219,0.000655563,-1.02707,0.00180963,0.0249448,1938,820,48.7956,-3.35985
721,204,48.7682,4.05322,0.00373942,0.00476999,-0.000691689,0.00511723,0.00339218,-1.10553,0.00300624,0.0225679,1945,820,48.7682,-4.05325
728,204,48.7131,4.7594,0.00649748,0.00812788,-0.000584612,0.00831584,0.00630952,-1.25973,0.00501084,0.0137654,1952,820,48.7132,-4.75943
735,204,48.63,5.53119,0.00954973,0.0128967,-0.00080807,0.0130816,0.00936485,-1.34587,0.00778377,0.016701,1959,820,48.63,-5.5312
742,204,48.574,6.19757,0.0130718,0.0196456,-0.0015473,0.0199916,0.0127258,-1.35081,0.0116848,0.032041,1966,820,48.574,-6.19759
749,204,48.4899,6.67706,0.0171835,0.0294204,-0.00295704,0.0300975,0.0165064,-1.3457,0.017404,0.0465415,1973,820,48.4899,-6.67708
756,204,48.3901,7.22168,0,0,0,0,0,0,0,-1,1980,820,48.3901,-7.22166
763,204,47.4143,10.2778,0.0277284,0.0628163,-0.00886567,0.0649291,0.0256155,-1.33684,0.0377639,0.0497769,1987,820,47.4143,-10.2778
770,204,47.5403,11.8264,0,0,0,0,0,0,0,-1,1994,820,47.5403,-11.8264
777,204,0,0,0,0,0,0,0,0,0,-1,2001,820,0,0
784,204,0,0,0,0,0,0,0,0,0,-1,2008,820,0,0
791,204,0,0,0,0,0,0,0,0,0,-1,2015,820,0,0
798,204,0,0,0,0,0,0,0,0,0,-1,2022,820,0,0
805,204,0,0,0,0,0,0,0,0,0,-1,2029,820,0,0
812,204,0,0,0,0,0,0,0,0,0,-1,2036,820,0,0
-700,197,0,0,0,0,0,0,0,0,0,-1,524,827,0,0
-693,197,0,0,0,0,0,0,0,0,0,-1,531,827,0,0
-686,197,0,0,0,0,0,0,0,0,0,-1,538,827,0,0
-679,197,0,0,0,0,0,0,0,0,0,-1,545,827,0,0
-672,197,0,0,0,0,0,0,0,0,0,-1,552,827,0,0
-665,197,0,0,0,0,0,0,0,0,0,-1,559,827,0,0
-658,197,-39.9774,5.66638,0,0,0,0,0,0,0,-1,566,827,-39.9774,-5.66637
-651,197,-39.9665,5.23578,0,0,0,0,0,0,0,-1,573,827,-39.9665,-5.23575
-644,197,-38.9225,4.75665,0,0,0,0,0,0,0,-1,580,827,-38.9225,-4.75665
-637,197,-35.9322,6.14551,0,0,0,0,0,0,0,-1,587,827,-35.9322,-6.14552
-630,197,-40.4908,2.45648,0,0,0,0,0,0,0,-1,594,827,-40.4908,-2.45649
-623,197,-35.6275,6.06934,0,0,0,0,0,0,0,-1,601,827,-35.6275,-6.06935
-616,197,-35.5052,5.17285,0.0067885,0.0107429,-0.0113486,0.0202852,-0.0027538,-0.871645,0.0145287,0.0492647,608,827,-35.5052,-5.17286
-609,197,-35.3029,4.14191,0.00403666,0.00839669,-0.00798347,0.0144924,-0.00205909,-0.918682,0.010416,0.0341715,615,827,-35.3029,-4.14189
-602,197,-35.3545,3.29871,0.00240483,0.00641694,-0.00542292,0.010193,-0.00137118,-0.962554,0.00729545,0.0179263,622,827,-35.3545,-3.29874
-595,197,-35.4305,2.63727,0.00137331,0.00481593,-0.0033788,0.00688662,-0.000697372,-1.02098,0.00484031,0.0189134,629,827,-35.4306,-2.63728
-588,197,-35.4457,1.88501,0.000654117,0.00355489,-0.00168221,0.00432564,-0.000116634,-1.14116,0.00292341,0.0223533,636,827,-35.4457,-1.885
-581,197,-35.5042,1.11371,0.000280554,0.00270975,-0.000279264,0.00274144,0.000248863,-1.4578,0.00175058,0.0128996,643,827,-35.5042,-1.11373
-574,197,-35.5258,0.376038,0.000175791,0.00195635,0.000707867,0.00220347,-7.13272e-05,1.23492,0.00149332,0.0133394,650,827,-35.5258,-0.376028
-567,197,-35.4609,-0.320496,0.000336082,0.0016988,0.00111803,0.00232673,-0.000291853,1.05906,0.00165703,0.0176873,657,827,-35.4609,0.320516
-560,197,-35.5071,-1.18298,0,0,0,0,0,0,0,-1,664,827,-35.5072,1.18299
-553,197,-33.1771,-1.4881,0,0,0,0,0,0,0,-1,671,827,-33.1771,1.4881
-546,197,-33.0991,-2.06989,0,0,0,0,0,0,0,-1,678,827,-33.0991,2.06991
-539,197,-32.8993,-2.61737,0,0,0,0,0,0,0,-1,685,827,-32.8993,2.61737
-532,197,-16.0519,0.0410156,0,0,0,0,0,0,0,-1,692,827,-16.0519,-0.0410415
-525,197,-35.3785,2.11829,0,0,0,0,0,0,0,-1,699,827,-35.3785,-2.11826
-518,197,-48.9424,0.948792,0,0,0,0,0,0,0,-1,706,827,-48.9425,-0.948819
-511,197,-48.9587,1.04431,0.00211067,0.00615603,0.000844994,0.00632544,0.00194126,1.37294,0.00374168,0.043553,713,827,-48.9587,-1.04432
-504,197,-48.9977,1.13312,0.00265002,0.00615176,0.000521184,0.00622768,0.0025741,1.42614,0.00361351,0.0397811,720,827,-48.9977,-1.13312
-497,197,-49.1146,1.07434,0.00395682,0.00654386,-0.000701714,0.00672194,0.00377874,-1.32227,0.00389089,0.0405494,727,827,-49.1146,-1.07432
-490,197,-49.08,1.03528,0.00582343,0.0082377,-0.00284719,0.0101231,0.00393805,-0.985899,0.00589236,0.0397329,734,827,-49.08,-1.03526
-483,197,-49.0054,0.924683,0.00795892,0.0107123,-0.00570227,0.0152017,0.00346952,-0.903847,0.00919873,0.0408801,741,827,-49.0054,-0.924709
-476,197,0,0,0,0,0,0,0,0,0,-1,748,827,0,0
-469,197,0,0,0,0,0,0,0,0,0,-1,755,827,0,0
-462,197,0,0,0,0,0,0,0,0,0,-1,762,827,0,0
-455,197,0,0,0,0,0,0,0,0,0,-1,769,827,0,0
-448,197,0,0,0,0,0,0,0,0,0,-1,776,827,0,0
-441,197,0,0,0,0,0,0,0,0,0,-1,783,827,0,0
-434,197,0,0,0,0,0,0,0,0,0,-1,790,827,0,0
-427,197,0,0,0,0,0,0,0,0,0,-1,797,827,0,0
-420,197,0,0,0,0,0,0,0,0,0,-1,804,827,0,0
-413,197,0,0,0,0,0,0,0,0,0,-1,811,827,0,0
-406,197,0,0,0,0,0,0,0,0,0,-1,818,827,0,0
-399,197,0,0,0,0,0,0,0,0,0,-1,825,827,0,0
-392,197,0,0,0,0,0,0,0,0,0,-1,832,827,0,0
-385,197,0,0,0,0,0,0,0,0,0,-1,839,827,0,0
-378,197,0,0,0,0,0,0,0,0,0,-1,846,827,0,0
-371,197,0,0,0,0,0,0,0,0,0,-1,853,827,0,0
-364,197,0,0,0,0,0,0,0,0,0,-1,860,827,0,0
-357,197,0,0,0,0,0,0,0,0,0,-1,867,827,0,0
-350,197,0,0,0,0,0,0,0,0,0,-1,874,827,0,0
-343,197,0,0,0,0,0,0,0,0,0,-1,881,827,0,0
-336,197,0,0,0,0,0,0,0,0,0,-1,888,827,0,0
-329,197,0,0,0,0,0,0,0,0,0,-1,895,827,0,0
-322,197,0,0,0,0,0,0,0,0,0,-1,902,827,0,0
-315,197,0,0,0,0,0,0,0,0,0,-1,909,827,0,0
-308,197,0,0,0,0,0,0,0,0,0,-1,916,827,0,0
-301,197,0,0,0,0,0,0,0,0,0,-1,923,827,0,0
-294,197,0,0,0,0,0,0,0,0,0,-1,930,827,0,0
-287,197,0,0,0,0,0,0,0,0,0,-1,937,827,0,0
-280,197,0,0,0,0,0,0,0,0,0,-1,944,827,0,0
-273,197,0,0,0,0,0,0,0,0,0,-1,951,827,0,0
-266,197,0,0,0,0,0,0,0,0,0,-1,958,827,0,0
-259,197,0,0,0,0,0,0,0,0,0,-1,965,827,0,0
-252,197,0,0,0,0,0,0,0,0,0,-1,972,827,0,0
-245,197,0,0,0,0,0,0,0,0,0,-1,979,827,0,0
-238,197,0,0,0,0,0,0,0,0,0,-1,986,827,0,0
-231,197,0,0,0,0,0,0,0,0,0,-1,993,827,0,0
-224,197,0,0,0,0,0,0,0,0,0,-1,1000,827,0,0
-217,197,0,0,0,0,0,0,0,0,0,-1,1007,827,0,0
-210,197,0,0,0,0,0,0,0,0,0,-1,1014,827,0,0
-203,197,0,0,0,0,0,0,0,0,0,-1,1021,827,0,0
-196,197,0,0,0,0,0,0,0,0,0,-1,1028,827,0,0
-189,197,0,0,0,0,0,0,0,0,0,-1,1035,827,0,0
-182,197,0,0,0,0,0,0,0,0,0,-1,1042,827,0,0
-175,197,0,0,0,0,0,0,0,0,0,-1,1049,827,0,0
-168,197,0,0,0,0,0,0,0,0,0,-1,1056,827,0,0
-161,197,0,0,0,0,0,0,0,0,0,-1,1063,827,0,0
-154,197,0,0,0,0,0,0,0,0,0,-1,1070,827,0,0
-147,197,0,0,0,0,0,0,0,0,0,-1,1077,827,0,0
-140,197,0,0,0,0,0,0,0,0,0,-1,1084,827,0,0
-133,197,0,0,0,0,0,0,0,0,0,-1,1091,827,0,0
-126,197,0,0,0,0,0,0,0,0,0,-1,1098,827,0,0
-119,197,0,0,0,0,0,0,0,0,0,-1,1105,827,0,0
-112,197,0,0,0,0,0,0,0,0,0,-1,1112,827,0,0
-105,197,0,0,0,0,0,0,0,0,0,-1,1119,827,0,0
-98,197,0,0,0,0,0,0,0,0,0,-1,1126,827,0,0
-91,197,0,0,0,0,0,0,0,0,0,-1,1133,827,0,0
-84,197,0,0,0,0,0,0,0,0,0,-1,1140,827,0,0
-77,197,0,0,0,0,0,0,0,0,0,-1,1147,827,0,0
-70,197,0,0,0,0,0,0,0,0,0,-1,1154,827,0,0
-63,197,0,0,0,0,0,0,0,0,0,-1,1161,827,0,0
-56,197,0,0,0,0,0,0,0,0,0,-1,1168,827,0,0
-49,197,0,0,0,0,0,0,0,0,0,-1,1175,827,0,0
-42,197,0,0,0,0,0,0,0,0,0,-1,1182,827,0,0
-35,197,0,0,0,0,0,0,0,0,0,-1,1189,827,0,0
-28,197,0,0,0,0,0,0,0,0,0,-1,1196,827,0,0
-21,197,0,0,0,0,0,0,0,0,0,-1,1203,827,0,0
-14,197,0,0,0,0,0,0,0,0,0,-1,1210,827,0,0
-7,197,0,0,0,0,0,0,0,0,0,-1,1217,827,0,0
0,197,0,0,0,0,0,0,0,0,0,-1,1224,827,0,0
7,197,0,0,0,0,0,0,0,0,0,-1,1231,827,0,0
14,197,0,0,0,0,0,0,0,0,0,-1,1238,827,0,0
21,197,0,0,0,0,0,0,0,0,0,-1,1245,827,0,0
28,197,0,0,0,0,0,0,0,0,0,-1,1252,827,0,0
35,197,0,0,0,0,0,0,0,0,0,-1,1259,827,0,0
42,197,0,0,0,0,0,0,0,0,0,-1,1266,827,0,0
49,197,0,0,0,0,0,0,0,0,0,-1,1273,827,0,0
56,197,0,0,0,0,0,0,0,0,0,-1,1280,827,0,0
63,197,0,0,0,0,0,0,0,0,0,-1,1287,827,0,0
70,197,0,0,0,0,0,0,0,0,0,-1,1294,827,0,0
77,197,0,0,0,0,0,0,0,0,0,-1,1301,827,0,0
84,197,0,0,0,0,0,0,0,0,0,-1,1308,827,0,0
91,197,0,0,0,0,0,0,0,0,0,-1,1315,827,0,0
98,197,0,0,0,0,0,0,0,0,0,-1,1322,827,0,0
105,197,0,0,0,0,0,0,0,0,0,-1,1329,827,0,0
112,197,0,0,0,0,0,0,0,0,0,-1,1336,827,0,0
119,197,0,0,0,0,0,0,0,0,0,-1,1343,827,0,0
126,197,0,0,0,0,0,0,0,0,0,-1,1350,827,0,0
133,197,0,0,0,0,0,0,0,0,0,-1,1357,827,0,0
140,197,0,0,0,0,0,0,0,0,0,-1,1364,827,0,0
147,197,0,0,0,0,0,0,0,0,0,-1,1371,827,0,0
154,197,0,0,0,0,0,0,0,0,0,-1,1378,827,0,0
161,197,0,0,0,0,0,0,0,0,0,-1,1385,827,0,0
168,197,0,0,0,0,0,0,0,0,0,-1,1392,827,0,0
175,197,0,0,0,0,0,0,0,0,0,-1,1399,827,0,0
182,197,0,0,0,0,0,0,0,0,0,-1,1406,827,0,0
189,197,0,0,0,0,0,0,0,0,0,-1,1413,827,0,0
196,197,0,0,0,0,0,0,0,0,0,-1,1420,827,0,0
203,197,0,0,0,0,0,0,0,0,0,-1,1427,827,0,0
210,197,0,0,0,0,0,0,0,0,0,-1,1434,827,0,0
217,197,0,0,0,0,0,0,0,0,0,-1,1441,827,0,0
224,197,0,0,0,0,0,0,0,0,0,-1,1448,827,0,0
231,197,0,0,0,0,0,0,0,0,0,-1,1455,827,0,0
238,197,0,0,0,0,0,0,0,0,0,-1,1462,827,0,0
245,197,0,0,0,0,0,0,0,0,0,-1,1469,827,0,0
252,197,0,0,0,0,0,0,0,0,0,-1,1476,827,0,0
259,197,0,0,0,0,0,0,0,0,0,-1,1483,827,0,0
266,197,0,0,0,0,0,0,0,0,0,-1,1490,827,0,0
273,197,0,0,0,0,0,0,0,0,0,-1,1497,827,0,0
280,197,0,0,0,0,0,0,0,0,0,-1,1504,827,0,0
287,197,0,0,0,0,0,0,0,0,0,-1,1511,827,0,0
294,197,0,0,0,0,0,0,0,0,0,-1,1518,827,0,0
301,197,0,0,0,0,0,0,0,0,0,-1,1525,827,0,0
308,197,0,0,0,0,0,0,0,0,0,-1,1532,827,0,0
315,197,0,0,0,0,0,0,0,0,0,-1,1539,827,0,0
322,197,0,0,0,0,0,0,0,0,0,-1,1546,827,0,0
329,197,0,0,0,0,0,0,0,0,0,-1,1553,827,0,0
336,197,0,0,0,0,0,0,0,0,0,-1,1560,827,0,0
343,197,0,0,0,0,0,0,0,0,0,-1,1567,827,0,0
350,197,0,0,0,0,0,0,0,0,0,-1,1574,827,0,0
357,197,0,0,0,0,0,0,0,0,0,-1,1581,827,0,0
364,197,0,0,0,0,0,0,0,0,0,-1,1588,827,0,0
371,197,0,0,0,0,0,0,0,0,0,-1,1595,827,0,0
378,197,0,0,0,0,0,0,0,0,0,-1,1602,827,0,0
385,197,0,0,0,0,0,0,0,0,0,-1,1609,827,0,0
392,197,0,0,0,0,0,0,0,0,0,-1,1616,827,0,0
399,197,0,0,0,0,0,0,0,0,0,-1,1623,827,0,0
406,197,0,0,0,0,0,0,0,0,0,-1,1630,827,0,0
413,197,0,0,0,0,0,0,0,0,0,-1,1637,827,0,0
420,197,0,0,0,0,0,0,0,0,0,-1,1644,827,0,0
427,197,0,0,0,0,0,0,0,0,0,-1,1651,827,0,0
434,197,0,0,0,0,0,0,0,0,0,-1,1658,827,0,0
441,197,0,0,0,0,0,0,0,0,0,-1,1665,827,0,0
448,197,0,0,0,0,0,0,0,0,0,-1,1672,827,0,0
455,197,0,0,0,0,0,0,0,0,0,-1,1679,827,0,0
462,197,0,0,0,0,0,0,0,0,0,-1,1686,827,0,0
469,197,0,0,0,0,0,0,0,0,0,-1,1693,827,0,0
476,197,0,0,0,0,0,0,0,0,0,-1,1700,827,0,0
483,197,0,0,0,0,0,0,0,0,0,-1,1707,827,0,0
490,197,0,0,0,0,0,0,0,0,0,-1,1714,827,0,0
497,197,0,0,0,0,0,0,0,0,0,-1,1721,827,0,0
504,197,0,0,0,0,0,0,0,0,0,-1,1728,827,0,0
511,197,0,0,0,0,0,0,0,0,0,-1,1735,827,0,0
518,197,0,0,0,0,0,0,0,0,0,-1,1742,827,0,0
525,197,0,0,0,0,0,0,0,0,0,-1,1749,827,0,0
532,197,0,0,0,0,0,0,0,0,0,-1,1756,827,0,0
539,197,0,0,0,0,0,0,0,0,0,-1,1763,827,0,0
546,197,0,0,0,0,0,0,0,0,0,-1,1770,827,0,0
553,197,0,0,0,0,0,0,0,0,0,-1,1777,827,0,0
560,197,0,0,0,0,0,0,0,0,0,-1,1784,827,0,0
567,197,0,0,0,0,0,0,0,0,0,-1,1791,827,0,0
574,197,0,0,0,0,0,0,0,0,0,-1,1798,827,0,0
581,197,0,0,0,0,0,0,0,0,0,-1,1805,827,0,0
588,197,0,0,0,0,0,0,0,0,0,-1,1812,827,0,0
595,197,0,0,0,0,0,0,0,0,0,-1,1819,827,0,0
602,197,64.311,2.70746,0.000230319,0.00102614,-0.000595316,0.00134428,-8.78265e-05,-1.08,0.00092685,0.0393787,1826,827,64.311,-2.70748
609,197,64.4011,2.70465,0.000353759,0.00124581,0.00040297,0.00140088,0.000198681,1.20343,0.000875244,0.0402493,1833,827,64.4012,-2.70465
616,197,64.5221,2.63593,0.000428603,0.00178239,0.0012504,0.00252735,-0.000316364,1.03348,0.00179965,0.0394637,1840,827,64.5221,-2.63592
623,197,64.4872,2.68121,0.000471462,0.00232247,0.00184131,0.00345779,-0.000663853,1.01827,0.00255538,0.0360394,1847,827,64.4871,-2.6812
630,197,64.3988,2.65375,-0.000191857,0.00261643,0.00173746,0.0034462,-0.00102163,1.12525,0.00270315,0.0320588,1854,827,64.3989,-2.65377
637,197,64.3525,2.69696,-0.000956702,0.00238746,0.00126111,0.00280971,-0.00137896,1.2477,0.00246491,0.0306244,1861,827,64.3525,-2.69698
644,197,64.3257,2.75507,-0.00158116,0.00196755,0.000749188,0.00211923,-0.00173284,1.37103,0.00222772,0.0403644,1868,827,64.3257,-2.75508
651,197,64.3188,2.81787,0,0,0,0,0,0,0,-1,1875,827,64.3188,-2.8179
658,197,40.4694,3.05927,0,0,0,0,0,0,0,-1,1882,827,40.4694,-3.05926
665,197,14.0618,1.80304,0,0,0,0,0,0,0,-1,1889,827,14.0617,-1.80303
672,197,50.136,-1.57922,0,0,0,0,0,0,0,-1,1896,827,50.136,1.57925
679,197,49.9105,-0.458069,-0.00306325,0.00055312,-0.00144716,0.00106092,-0.00357105,-1.23332,0.0028021,0.0465027,1903,827,49.9106,0.45804
686,197,49.7738,0.385986,-0.00373653,0.000182632,-0.00174817,0.000849089,-0.00440299,-1.20658,0.00325548,0.0299415,1910,827,49.7738,-0.385978
693,197,49.6095,1.18689,-0.0036296,-0.000247461,-0.00190786,0.00061091,-0.00448797,-1.14801,0.00321502,0.0289408,1917,827,49.6095,-1.18687
700,197,49.5917,1.83423,-0.00298005,-0.000322563,-0.00205774,0.000798152,-0.00410076,-1.07208,0.00303508,0.0273628,1924,827,49.5916,-1.83421
707,197,49.5605,2.5896,-0.00178013,-0.000200542,-0.00177617,0.000953519,-0.00293419,-0.994601,0.00233966,0.00959644,1931,827,49.5606,-2.58962
714,197,49.5349,3.33795,0.000213138,0.00154602,-0.00148664,0.00250876,-0.000749605,-0.996113,0.00197049,0.0126663,1938,827,49.5349,-3.33796
721,197,49.502,4.07428,0.00263859,0.00374102,-0.00115569,0.00447022,0.00190939,-1.00792,0.00259,0.0131045,1945,827,49.5019,-4.07431
728,197,49.4486,4.80414,0.00539306,0.00679255,-0.00100461,0.00731709,0.00486852,-1.0896,0.00430085,0.0107812,1952,827,49.4487,-4.80412
735,197,49.3848,5.54407,0.00843697,0.0110158,-0.00113995,0.0114475,0.00800532,-1.20882,0.00678198,0.0122196,1959,827,49.3848,-5.54405
742,197,49.3192,6.26947,0.0118965,0.0169373,-0.00171394,0.0174649,0.011369,-1.2722,0.0102354,0.0227485,1966,827,49.3192,-6.26945
749,197,49.3712,7.01422,0.0159161,0.0254082,-0.00285785,0.0262023,0.0151221,-1.2998,0.0151878,0.0459608,1973,827,49.3712,-7.01424
756,197,49.4651,7.93195,0.0206402,0.0374534,-0.0048033,0.0387288,0.0193647,-1.31124,0.0223601,0.0486208,1980,827,49.465,-7.93196
763,197,49.3174,9.1944,0.0260615,0.0540678,-0.0077614,0.0560749,0.0240544,-1.31774,0.0324836,0.0459838,1987,827,49.3174,-9.1944
770,197,49.3531,10.3912,0,0,0,0,0,0,0,-1,1994,827,49.3531,-10.3912
777,197,0,0,0,0,0,0,0,0,0,-1,2001,827,0,0
784,197,0,0,0,0,0,0,0,0,0,-1,2008,827,0,0
791,197,0,0,0,0,0,0,0,0,0,-1,2015,827,0,0
798,197,0,0,0,0,0,0,0,0,0,-1,2022,827,0,0
805,197,0,0,0,0,0,0,0,0,0,-1,2029,827,0,0
812,197,0,0,0,0,0,0,0,0,0,-1,2036,827,0,0
-700,190,0,0,0,0,0,0,0,0,0,-1,524,834,0,0
-693,190,0,0,0,0,0,0,0,0,0,-1,531,834,0,0
-686,190,0,0,0,0,0,0,0,0,0,-1,538,834,0,0
-679,190,0,0,0,0,0,0,0,0,0,-1,545,834,0,0
-672,190,0,0,0,0,0,0,0,0,0,-1,552,834,0,0
-665,190,0,0,0,0,0,0,0,0,0,-1,559,834,0,0
-658,190,-41.9736,5.50092,0,0,0,0,0,0,0,-1,566,834,-41.9736,-5.50089
-651,190,-40.1895,4.99677,0,0,0,0,0,0,0,-1,573,834,-40.1894,-4.99677
-644,190,-37.5226,8.51624,0,0,0,0,0,0,0,-1,580,834,-37.5226,-8.51626
-637,190,-36.7248,6.13239,0,0,0,0,0,0,0,-1,587,834,-36.7248,-6.13239
-630,190,-36.174,6.11279,0,0,0,0,0,0,0,-1,594,834,-36.1739,-6.11279
-623,190,-35.9177,5.5719,0,0,0,0,0,0,0,-1,601,834,-35.9177,-5.57188
-616,190,-36.0016,5.09485,0.00693948,0.0101882,-0.0102702,0.0189617,-0.00183408,-0.863829,0.0132947,0.0454074,608,834,-36.0016,-5.09485
-609,190,-36.0221,4.04926,0.00398103,0.0078592,-0.00699178,0.0131758,-0.00133558,-0.920668,0.00926122,0.0240514,615,834,-36.0221,-4.04924
-602,190,-36.1125,3.36078,0.00203674,0.00588842,-0.00444559,0.00880739,-0.000882219,-0.989797,0.00618667,0.0160086,622,834,-36.1125,-3.36076
-595,190,-36.1644,2.67804,0.00068548,0.00430607,-0.00238171,0.00548739,-0.000495834,-1.11036,0.00383424,0.019215,629,834,-36.1643,-2.67806
-588,190,-36.2013,1.90961,-0.000250326,0.00300662,-0.000729422,0.00316252,-0.000406225,-1.36024,0.00225598,0.0192536,636,834,-36.2013,-1.90961
-581,190,-36.2269,1.16083,-0.000598541,0.00227754,0.000522362,0.00236947,-0.000690475,1.39658,0.00185319,0.0137745,643,834,-36.2269,-1.16085
-574,190,-36.2365,0.424988,-0.000471404,0.0017251,0.00121752,0.00226652,-0.00101282,1.15237,0.0019389,0.0125387,650,834,-36.2365,-0.424982
-567,190,-36.1095,-0.394775,-9.2264e-06,0.00158355,0.00129909,0.00231093,-0.000736606,1.06037,0.00183609,0.0290702,657,834,-36.1095,0.394796
-560,190,-35.9039,-1.2536,0,0,0,0,0,0,0,-1,664,834,-35.9038,1.25363
-553,190,-33.9625,-1.6355,0,0,0,0,0,0,0,-1,671,834,-33.9625,1.63552
-546,190,-33.7621,-2.04889,0,0,0,0,0,0,0,-1,678,834,-33.7621,2.04886
-539,190,-16.4624,-0.542542,0,0,0,0,0,0,0,-1,685,834,-16.4624,0.542527
-532,190,-21.6292,2.06122,0,0,0,0,0,0,0,-1,692,834,-21.6292,-2.06123
-525,190,-38.9377,1.03369,0,0,0,0,0,0,0,-1,699,834,-38.9377,-1.0337
-518,190,-49.1232,0.796448,0,0,0,0,0,0,0,-1,706,834,-49.1232,-0.796442
-511,190,-49.0967,0.829529,0.00249844,0.00745506,0.000512588,0.00750751,0.00244598,1.46882,0.00442128,0.0424933,713,834,-49.0968,-0.829555
-504,190,-48.9702,1.01538,0.00320877,0.00810908,-0.000104897,0.00811132,0.00320652,-1.5494,0.00471716,0.0442053,720,834,-48.9701,-1.01541
-497,190,-49.0402,2.00909,0,0,0,0,0,0,0,-1,727,834,-49.0402,-2.00908
-490,190,-48.9465,1.4223,0,0,0,0,0,0,0,-1,734,834,-48.9465,-1.42228
-483,190,0,0,0,0,0,0,0,0,0,-1,741,834,0,0
-476,190,0,0,0,0,0,0,0,0,0,-1,748,834,0,0
-469,190,0,0,0,0,0,0,0,0,0,-1,755,834,0,0
-462,190,0,0,0,0,0,0,0,0,0,-1,762,834,0,0
-455,190,0,0,0,0,0,0,0,0,0,-1,769,834,0,0
-448,190,0,0,0,0,0,0,0,0,0,-1,776,834,0,0
-441,190,0,0,0,0,0,0,0,0,0,-1,783,834,0,0
-434,190,0,0,0,0,0,0,0,0,0,-1,790,834,0,0
-427,190,0,0,0,0,0,0,0,0,0,-1,797,834,0,0
-420,190,0,0,0,0,0,0,0,0,0,-1,804,834,0,0
-413,190,0,0,0,0,0,0,0,0,0,-1,811,834,0,0
-406,190,0,0,0,0,0,0,0,0,0,-1,818,834,0,0
-399,190,0,0,0,0,0,0,0,0,0,-1,825,834,0,0
-392,190,0,0,0,0,0,0,0,0,0,-1,832,834,0,0
-385,190,0,0,0,0,0,0,0,0,0,-1,839,834,0,0
-378,190,0,0,0,0,0,0,0,0,0,-1,846,834,0,0
-371,190,0,0,0,0,0,0,0,0,0,-1,853,834,0,0
-364,190,0,0,0,0,0,0,0,0,0,-1,860,834,0,0
-357,190,0,0,0,0,0,0,0,0,0,-1,867,834,0,0
-350,190,0,0,0,0,0,0,0,0,0,-1,874,834,0,0
-343,190,0,0,0,0,0,0,0,0,0,-1,881,834,0,0
-336,190,0,0,0,0,0,0,0,0,0,-1,888,834,0,0
-329,190,0,0,0,0,0,0,0,0,0,-1,895,834,0,0
-322,190,0,0,0,0,0,0,0,0,0,-1,902,834,0,0
-315,190,0,0,0,0,0,0,0,0,0,-1,909,834,0,0
-308,190,0,0,0,0,0,0,0,0,0,-1,916,834,0,0
-301,190,0,0,0,0,0,0,0,0,0,-1,923,834,0,0
-294,190,0,0,0,0,0,0,0,0,0,-1,930,834,0,0
-287,190,0,0,0,0,0,0,0,0,0,-1,937,834,0,0
-280,190,0,0,0,0,0,0,0,0,0,-1,944,834,0,0
-273,190,0,0,0,0,0,0,0,0,0,-1,951,834,0,0
-266,190,0,0,0,0,0,0,0,0,0,-1,958,834,0,0
-259,190,0,0,0,0,0,0,0,0,0,-1,965,834,0,0
-252,190,0,0,0,0,0,0,0,0,0,-1,972,834,0,0
-245,190,0,0,0,0,0,0,0,0,0,-1,979,834,0,0
-238,190,0,0,0,0,0,0,0,0,0,-1,986,834,0,0
-231,190,0,0,0,0,0,0,0,0,0,-1,993,834,0,0
-224,190,0,0,0,0,0,0,0,0,0,-1,1000,834,0,0
-217,190,0,0,0,0,0,0,0,0,0,-1,1007,834,0,0
-210,190,0,0,0,0,0,0,0,0,0,-1,1014,834,0,0
-203,190,0,0,0,0,0,0,0,0,0,-1,1021,834,0,0
-196,190,0,0,0,0,0,0,0,0,0,-1,1028,834,0,0
-189,190,0,0,0,0,0,0,0,0,0,-1,1035,834,0,0
-182,190,0,0,0,0,0,0,0,0,0,-1,1042,834,0,0
-175,190,0,0,0,0,0,0,0,0,0,-1,1049,834,0,0
-168,190,0,0,0,0,0,0,0,0,0,-1,1056,834,0,0
-161,190,0,0,0,0,0,0,0,0,0,-1,1063,834,0,0
-154,190,0,0,0,0,0,0,0,0,0,-1,1070,834,0,0
-147,190,0,0,0,0,0,0,0,0,0,-1,1077,834,0,0
-140,190,0,0,0,0,0,0,0,0,0,-1,1084,834,0,0
-133,190,0,0,0,0,0,0,0,0,0,-1,1091,834,0,0
-126,190,0,0,0,0,0,0,0,0,0,-1,1098,834,0,0
-119,190,0,0,0,0,0,0,0,0,0,-1,1105,834,0,0
-112,190,0,0,0,0,0,0,0,0,0,-1,1112,834,0,0
-105,190,0,0,0,0,0,0,0,0,0,-1,1119,834,0,0
-98,190,0,0,0,0,0,0,0,0,0,-1,1126,834,0,0
-91,190,0,0,0,0,0,0,0,0,0,-1,1133,834,0,0
-84,190,0,0,0,0,0,0,0,0,0,-1,1140,834,0,0
-77,190,0,0,0,0,0,0,0,0,0,-1,1147,834,0,0
-70,190,0,0,0,0,0,0,0,0,0,-1,1154,834,0,0
-63,190,0,0,0,0,0,0,0,0,0,-1,1161,834,0,0
-56,190,0,0,0,0,0,0,0,0,0,-1,1168,834,0,0
-49,190,0,0,0,0,0,0,0,0,0,-1,1175,834,0,0
-42,190,0,0,0,0,0,0,0,0,0,-1,1182,834,0,0
-35,190,0,0,0,0,0,0,0,0,0,-1,1189,834,0,0
-28,190,0,0,0,0,0,0,0,0,0,-1,1196,834,0,0
-21,190,0,0,0,0,0,0,0,0,0,-1,1203,834,0,0
-14,190,0,0,0,0,0,0,0,0,0,-1,1210,834,0,0
-7,190,0,0,0,0,0,0,0,0,0,-1,1217,834,0,0
0,190,0,0,0,0,0,0,0,0,0,-1,1224,834,0,0
7,190,0,0,0,0,0,0,0,0,0,-1,1231,834,0,0
14,190,0,0,0,0,0,0,0,0,0,-1,1238,834,0,0
21,190,0,0,0,0,0,0,0,0,0,-1,1245,834,0,0
28,190,0,0,0,0,0,0,0,0,0,-1,1252,834,0,0
35,190,0,0,0,0,0,0,0,0,0,-1,1259,834,0,0
42,190,0,0,0,0,0,0,0,0,0,-1,1266,834,0,0
49,190,0,0,0,0,0,0,0,0,0,-1,1273,834,0,0
56,190,0,0,0,0,0,0,0,0,0,-1,1280,834,0,0
63,190,0,0,0,0,0,0,0,0,0,-1,1287,834,0,0
70,190,0,0,0,0,0,0,0,0,0,-1,1294,834,0,0
77,190,0,0,0,0,0,0,0,0,0,-1,1301,834,0,0
84,190,0,0,0,0,0,0,0,0,0,-1,1308,834,0,0
91,190,0,0,0,0,0,0,0,0,0,-1,1315,834,0,0
98,190,0,0,0,0,0,0,0,0,0,-1,1322,834,0,0
105,190,0,0,0,0,0,0,0,0,0,-1,1329,834,0,0
112,190,0,0,0,0,0,0,0,0,0,-1,1336,834,0,0
119,190,0,0,0,0,0,0,0,0,0,-1,1343,834,0,0
126,190,0,0,0,0,0,0,0,0,0,-1,1350,834,0,0
133,190,0,0,0,0,0,0,0,0,0,-1,1357,834,0,0
140,190,0,0,0,0,0,0,0,0,0,-1,1364,834,0,0
147,190,0,0,0,0,0,0,0,0,0,-1,1371,834,0,0
154,190,0,0,0,0,0,0,0,0,0,-1,1378,834,0,0
161,190,0,0,0,0,0,0,0,0,0,-1,1385,834,0,0
168,190,0,0,0,0,0,0,0,0,0,-1,1392,834,0,0
175,190,0,0,0,0,0,0,0,0,0,-1,1399,834,0,0
182,190,0,0,0,0,0,0,0,0,0,-1,1406,834,0,0
189,190,0,0,0,0,0,0,0,0,0,-1,1413,834,0,0
196,190,0,0,0,0,0,0,0,0,0,-1,1420,834,0,0
203,190,0,0,0,0,0,0,0,0,0,-1,1427,834,0,0
210,190,0,0,0,0,0,0,0,0,0,-1,1434,834,0,0
217,190,0,0,0,0,0,0,0,0,0,-1,1441,834,0,0
224,190,0,0,0,0,0,0,0,0,0,-1,1448,834,0,0
231,190,0,0,0,0,0,0,0,0,0,-1,1455,834,0,0
238,190,0,0,0,0,0,0,0,0,0,-1,1462,834,0,0
245,190,0,0,0,0,0,0,0,0,0,-1,1469,834,0,0
252,190,0,0,0,0,0,0,0,0,0,-1,1476,834,0,0
259,190,0,0,0,0,0,0,0,0,0,-1,1483,834,0,0
266,190,0,0,0,0,0,0,0,0,0,-1,1490,834,0,0
273,190,0,0,0,0,0,0,0,0,0,-1,1497,834,0,0
280,190,0,0,0,0,0,0,0,0,0,-1,1504,834,0,0
287,190,0,0,0,0,0,0,0,0,0,-1,1511,834,0,0
294,190,0,0,0,0,0,0,0,0,0,-1,1518,834,0,0
301,190,0,0,0,0,0,0,0,0,0,-1,1525,834,0,0
308,190,0,0,0,0,0,0,0,0,0,-1,1532,834,0,0
315,190,0,0,0,0,0,0,0,0,0,-1,1539,834,0,0
322,190,0,0,0,0,0,0,0,0,0,-1,1546,834,0,0
329,190,0,0,0,0,0,0,0,0,0,-1,1553,834,0,0
336,190,0,0,0,0,0,0,0,0,0,-1,1560,834,0,0
343,190,0,0,0,0,0,0,0,0,0,-1,1567,834,0,0
350,190,0,0,0,0,0,0,0,0,0,-1,1574,834,0,0
357,190,0,0,0,0,0,0,0,0,0,-1,1581,834,0,0
364,190,0,0,0,0,0,0,0,0,0,-1,1588,834,0,0
371,190,0,0,0,0,0,0,0,0,0,-1,1595,834,0,0
378,190,0,0,0,0,0,0,0,0,0,-1,1602,834,0,0
385,190,0,0,0,0,0,0,0,0,0,-1,1609,834,0,0
392,190,0,0,0,0,0,0,0,0,0,-1,1616,834,0,0
399,190,0,0,0,0,0,0,0,0,0,-1,1623,834,0,0
406,190,0,0,0,0,0,0,0,0,0,-1,1630,834,0,0
413,190,0,0,0,0,0,0,0,0,0,-1,1637,834,0,0
420,190,0,0,0,0,0,0,0,0,0,-1,1644,834,0,0
427,190,0,0,0,0,0,0,0,0,0,-1,1651,834,0,0
434,190,0,0,0,0,0,0,0,0,0,-1,1658,834,0,0
441,190,0,0,0,0,0,0,0,0,0,-1,1665,834,0,0
448,190,0,0,0,0,0,0,0,0,0,-1,1672,834,0,0
455,190,0,0,0,0,0,0,0,0,0,-1,1679,834,0,0
462,190,0,0,0,0,0,0,0,0,0,-1,1686,834,0,0
469,190,0,0,0,0,0,0,0,0,0,-1,1693,834,0,0
476,190,0,0,0,0,0,0,0,0,0,-1,1700,834,0,0
483,190,0,0,0,0,0,0,0,0,0,-1,1707,834,0,0
490,190,0,0,0,0,0,0,0,0,0,-1,1714,834,0,0
497,190,0,0,0,0,0,0,0,0,0,-1,1721,834,0,0
504,190,0,0,0,0,0,0,0,0,0,-1,1728,834,0,0
511,190,0,0,0,0,0,0,0,0,0,-1,1735,834,0,0
518,190,0,0,0,0,0,0,0,0,0,-1,1742,834,0,0
525,190,0,0,0,0,0,0,0,0,0,-1,1749,834,0,0
532,190,0,0,0,0,0,0,0,0,0,-1,1756,834,0,0
539,190,0,0,0,0,0,0,0,0,0,-1,1763,834,0,0
546,190,0,0,0,0,0,0,0,0,0,-1,1770,834,0,0
553,190,0,0,0,0,0,0,0,0,0,-1,1777,834,0,0
560,190,0,0,0,0,0,0,0,0,0,-1,1784,834,0,0
567,190,0,0,0,0,0,0,0,0,0,-1,1791,834,0,0
574,190,0,0,0,0,0,0,0,0,0,-1,1798,834,0,0
581,190,0,0,0,0,0,0,0,0,0,-1,1805,834,0,0
588,190,0,0,0,0,0,0,0,0,0,-1,1812,834,0,0
595,190,0,0,0,0,0,0,0,0,0,-1,1819,834,0,0
602,190,64.3866,2.63977,-0.0012167,0.00105155,-0.00090605,0.00136903,-0.00153418,-1.23376,0.00167707,0.0404561,1826,834,64.3866,-2.63977
609,190,64.478,2.69781,-0.000689869,0.00111894,-3.80053e-05,0.00111974,-0.000690667,-1.5498,0.00105498,0.0399203,1833,834,64.478,-2.69784
616,190,64.5039,2.77856,-0.000400354,0.00148891,0.000650776,0.00169138,-0.000602822,1.26917,0.00137336,0.0390384,1840,834,64.5039,-2.77856
623,190,64.5594,2.88916,-0.000295305,0.00194364,0.00118964,0.00245771,-0.000809377,1.16291,0.00196465,0.0372844,1847,834,64.5595,-2.88913
630,190,64.5165,2.77533,-0.000788845,0.0023344,0.00124993,0.00277302,-0.00122747,1.2333,0.00236645,0.0395661,1854,834,64.5165,-2.77536
637,190,64.4167,2.6911,-0.00152086,0.00218234,0.000849986,0.00236811,-0.00170664,1.35562,0.00236287,0.0348542,1861,834,64.4167,-2.69108
644,190,64.3209,2.77362,-0.0021715,0.00175946,0.000368841,0.00179377,-0.00220581,1.47805,0.00231324,0.0301765,1868,834,64.3209,-2.77365
651,190,64.2216,3.01233,0,0,0,0,0,0,0,-1,1875,834,64.2215,-3.01231
658,190,54.0599,3.0943,0,0,0,0,0,0,0,-1,1882,834,54.0599,-3.09428
665,190,25.9916,3.05157,0,0,0,0,0,0,0,-1,1889,834,25.9916,-3.05156
672,190,27.2662,1.70862,0,0,0,0,0,0,0,-1,1896,834,27.2662,-1.70861
679,190,50.5547,-0.19751,0,0,0,0,0,0,0,-1,1903,834,50.5547,0.197507
686,190,50.517,0.494934,-0.00414257,0.000286906,-0.00183888,0.000950803,-0.00480647,-1.22433,0.00356378,0.028201,1910,834,50.5169,-0.494932
693,190,50.526,1.22424,-0.00402345,-5.53386e-05,-0.00200105,0.000778525,-0.00485731,-1.17597,0.00352648,0.0306825,1917,834,50.526,-1.22422
700,190,50.3275,1.88458,-0.00347116,-0.000118882,-0.00223526,0.000998873,-0.00458891,-1.1071,0.00344091,0.0206798,1924,834,50.3275,-1.88456
707,190,50.288,2.63361,-0.00250608,-6.95699e-05,-0.00208801,0.0011296,-0.00370525,-1.04948,0.00292045,0.0139879,1931,834,50.288,-2.63363
714,190,50.2737,3.35425,-0.00067885,0.00119186,-0.00181145,0.00229519,-0.00178219,-1.02372,0.00236028,0.0128012,1938,834,50.2737,-3.35427
721,190,50.2583,4.09021,0.00167166,0.00300719,-0.00146265,0.0039473,0.000731549,-0.999539,0.00242475,0.0117852,1945,834,50.2583,-4.09019
728,190,50.2141,4.82269,0.0043564,0.00558711,-0.00120622,0.00632587,0.00361764,-1.02127,0.0036648,0.0133573,1952,834,50.2141,-4.82268
735,190,50.1733,5.53204,0.00733596,0.00917178,-0.00117268,0.00974308,0.00676467,-1.11746,0.00576501,0.0136264,1959,834,50.1733,-5.53204
742,190,50.0828,6.30627,0.0106368,0.0141657,-0.00147736,0.0147025,0.0101,-1.22226,0.00868406,0.0188203,1966,834,50.0828,-6.30629
749,190,50.0999,7.1394,0.0143898,0.0212129,-0.00221188,0.0218672,0.0137355,-1.28319,0.0127625,0.0420249,1973,834,50.0999,-7.13943
756,190,50.3291,7.92773,0.0186821,0.031177,-0.00354871,0.0321145,0.0177445,-1.31251,0.0185754,0.0469576,1980,834,50.3291,-7.92775
763,190,50.6746,8.67224,0.0234315,0.0448531,-0.00565124,0.0462525,0.0220321,-1.32805,0.0267139,0.049285,1987,834,50.6745,-8.67221
770,190,50.9589,9.46765,0,0,0,0,0,0,0,-1,1994,834,50.9588,-9.46768
777,190,51.4365,10.3331,0,0,0,0,0,0,0,-1,2001,834,51.4366,-10.3331
784,190,0,0,0,0,0,0,0,0,0,-1,2008,834,0,0
791,190,0,0,0,0,0,0,0,0,0,-1,2015,834,0,0
798,190,0,0,0,0,0,0,0,0,0,-1,2022,834,0,0
805,190,0,0,0,0,0,0,0,0,0,-1,2029,834,0,0
812,190,0,0,0,0,0,0,0,0,0,-1,2036,834,0,0
-700,183,0,0,0,0,0,0,0,0,0,-1,524,841,0,0
-693,183,0,0,0,0,0,0,0,0,0,-1,531,841,0,0
-686,183,0,0,0,0,0,0,0,0,0,-1,538,841,0,0
-679,183,0,0,0,0,0,0,0,0,0,-1,545,841,0,0
-672,183,0,0,0,0,0,0,0,0,0,-1,552,841,0,0
-665,183,0,0,0,0,0,0,0,0,0,-1,559,841,0,0
-658,183,-56.7401,1.32843,0,0,0,0,0,0,0,-1,566,841,-56.7401,-1.32844
-651,183,-38.0242,9.66425,0,0,0,0,0,0,0,-1,573,841,-38.0243,-9.66426
-644,183,-37.2228,7.21613,0,0,0,0,0,0,0,-1,580,841,-37.2228,-7.21615
-637,183,-37.0975,6.28278,0,0,0,0,0,0,0,-1,587,841,-37.0974,-6.28278
-630,183,-36.6686,6.16443,0,0,0,0,0,0,0,-1,594,841,-36.6686,-6.16444
-623,183,-36.7083,5.508,0,0,0,0,0,0,0,-1,601,841,-36.7083,-5.50802
-616,183,-36.7441,4.77997,0.00680012,0.00983079,-0.00899092,0.0174332,-0.000802269,-0.868884,0.0118986,0.0401463,608,841,-36.7441,-4.77998
-609,183,-36.7863,4.07233,0.00362096,0.00747845,-0.00585471,0.0117139,-0.000614526,-0.944517,0.00802198,0.0172845,615,841,-36.7862,-4.07234
-602,183,-36.8489,3.36475,0.00129944,0.00546742,-0.00337152,0.00734703,-0.000580173,-1.06222,0.00510242,0.0118595,622,841,-36.8489,-3.36474
-595,183,-36.9022,2.63397,-0.000460221,0.00384344,-0.00134713,0.00423034,-0.000847115,-1.29112,0.00314091,0.0120337,629,841,-36.9021,-2.63397
-588,183,-36.9236,1.90002,-0.00160057,0.00252884,0.000144652,0.0025339,-0.00160563,1.53582,0.00240991,0.0137862,636,841,-36.9237,-1.90004
-581,183,-36.9855,1.1897,-0.00177725,0.00198109,0.00114529,0.00230259,-0.00209876,1.29712,0.00254203,0.0151733,643,841,-36.9855,-1.1897
-574,183,-36.9678,0.497986,-0.00127666,0.00165243,0.00154867,0.00231939,-0.00194361,1.16414,0.00246443,0.0189049,650,841,-36.9678,-0.498007
-567,183,-36.7739,-0.450073,0,0,0,0,0,0,0,-1,657,841,-36.7738,0.450045
-560,183,-34.0303,-1.05511,0,0,0,0,0,0,0,-1,664,841,-34.0303,1.05511
-553,183,-32.2224,-1.71942,0,0,0,0,0,0,0,-1,671,841,-32.2224,1.71944
-546,183,-27.8053,-1.91199,0,0,0,0,0,0,0,-1,678,841,-27.8053,1.91201
-539,183,-16.8032,-0.417297,0,0,0,0,0,0,0,-1,685,841,-16.8032,0.41732
-532,183,-29.9686,0.953613,0,0,0,0,0,0,0,-1,692,841,-29.9686,-0.953627
-525,183,-47.7875,1.25409,0,0,0,0,0,0,0,-1,699,841,-47.7876,-1.2541
-518,183,-48.9666,1.01508,0,0,0,0,0,0,0,-1,706,841,-48.9665,-1.01507
-511,183,-48.8512,1.07751,0,0,0,0,0,0,0,-1,713,841,-48.8512,-1.07748
-504,183,-49.5367,1.79492,0,0,0,0,0,0,0,-1,720,841,-49.5367,-1.79491
-497,183,-49.1838,1.62347,0.00612954,0.0120256,-0.00343562,0.0136046,0.0045505,-1.13998,0.0079968,0.0445227,727,841,-49.1838,-1.62346
-490,183,-48.9338,1.34967,0.00909842,0.0164148,-0.0068293,0.020504,0.00500925,-1.03128,0.0123432,0.0420985,734,841,-48.9339,-1.34965
-483,183,0,0,0,0,0,0,0,0,0,-1,741,841,0,0
-476,183,0,0,0,0,0,0,0,0,0,-1,748,841,0,0
-469,183,0,0,0,0,0,0,0,0,0,-1,755,841,0,0
-462,183,0,0,0,0,0,0,0,0,0,-1,762,841,0,0
-455,183,0,0,0,0,0,0,0,0,0,-1,769,841,0,0
-448,183,0,0,0,0,0,0,0,0,0,-1,776,841,0,0
-441,183,0,0,0,0,0,0,0,0,0,-1,783,841,0,0
-434,183,0,0,0,0,0,0,0,0,0,-1,790,841,0,0
-427,183,0,0,0,0,0,0,0,0,0,-1,797,841,0,0
-420,183,0,0,0,0,0,0,0,0,0,-1,804,841,0,0
-413,183,0,0,0,0,0,0,0,0,0,-1,811,841,0,0
-406,183,0,0,0,0,0,0,0,0,0,-1,818,841,0,0
-399,183,0,0,0,0,0,0,0,0,0,-1,825,841,0,0
-392,183,0,0,0,0,0,0,0,0,0,-1,832,841,0,0
-385,183,0,0,0,0,0,0,0,0,0,-1,839,841,0,0
-378,183,0,0,0,0,0,0,0,0,0,-1,846,841,0,0
-371,183,0,0,0,0,0,0,0,0,0,-1,853,841,0,0
-364,183,0,0,0,0,0,0,0,0,0,-1,860,841,0,0
-357,183,0,0,0,0,0,0,0,0,0,-1,867,841,0,0
-350,183,0,0,0,0,0,0,0,0,0,-1,874,841,0,0
-343,183,0,0,0,0,0,0,0,0,0,-1,881,841,0,0
-336,183,0,0,0,0,0,0,0,0,0,-1,888,841,0,0
-329,183,0,0,0,0,0,0,0,0,0,-1,895,841,0,0
-322,183,0,0,0,0,0,0,0,0,0,-1,902,841,0,0
-315,183,0,0,0,0,0,0,0,0,0,-1,909,841,0,0
-308,183,0,0,0,0,0,0,0,0,0,-1,916,841,0,0
-301,183,0,0,0,0,0,0,0,0,0,-1,923,841,0,0
-294,183,0,0,0,0,0,0,0,0,0,-1,930,841,0,0
-287,183,0,0,0,0,0,0,0,0,0,-1,937,841,0,0
-280,183,0,0,0,0,0,0,0,0,0,-1,944,841,0,0
-273,183,0,0,0,0,0,0,0,0,0,-1,951,841,0,0
-266,183,0,0,0,0,0,0,0,0,0,-1,958,841,0,0
-259,183,0,0,0,0,0,0,0,0,0,-1,965,841,0,0
-252,183,0,0,0,0,0,0,0,0,0,-1,972,841,0,0
-245,183,0,0,0,0,0,0,0,0,0,-1,979,841,0,0
-238,183,0,0,0,0,0,0,0,0,0,-1,986,841,0,0
-231,183,0,0,0,0,0,0,0,0,0,-1,993,841,0,0
-224,183,0,0,0,0,0,0,0,0,0,-1,1000,841,0,0
-217,183,0,0,0,0,0,0,0,0,0,-1,1007,841,0,0
-210,183,0,0,0,0,0,0,0,0,0,-1,1014,841,0,0
-203,183,0,0,0,0,0,0,0,0,0,-1,1021,841,0,0
-196,183,0,0,0,0,0,0,0,0,0,-1,1028,841,0,0
-189,183,0,0,0,0,0,0,0,0,0,-1,1035,841,0,0
-182,183,0,0,0,0,0,0,0,0,0,-1,1042,841,0,0
-175,183,0,0,0,0,0,0,0,0,0,-1,1049,841,0,0
-168,183,0,0,0,0,0,0,0,0,0,-1,1056,841,0,0
-161,183,0,0,0,0,0,0,0,0,0,-1,1063,841,0,0
-154,183,0,0,0,0,0,0,0,0,0,-1,1070,841,0,0
-147,183,0,0,0,0,0,0,0,0,0,-1,1077,841,0,0
-140,183,0,0,0,0,0,0,0,0,0,-1,1084,841,0,0
-133,183,0,0,0,0,0,0,0,0,0,-1,1091,841,0,0
-126,183,0,0,0,0,0,0,0,0,0,-1,1098,841,0,0
-119,183,0,0,0,0,0,0,0,0,0,-1,1105,841,0,0
-112,183,0,0,0,0,0,0,0,0,0,-1,1112,841,0,0
-105,183,0,0,0,0,0,0,0,0,0,-1,1119,841,0,0
-98,183,0,0,0,0,0,0,0,0,0,-1,1126,841,0,0
-91,183,0,0,0,0,0,0,0,0,0,-1,1133,841,0,0
-84,183,0,0,0,0,0,0,0,0,0,-1,1140,841,0,0
-77,183,0,0,0,0,0,0,0,0,0,-1,1147,841,0,0
-70,183,0,0,0,0,0,0,0,0,0,-1,1154,841,0,0
-63,183,0,0,0,0,0,0,0,0,0,-1,1161,841,0,0
-56,183,0,0,0,0,0,0,0,0,0,-1,1168,841,0,0
-49,183,0,0,0,0,0,0,0,0,0,-1,1175,841,0,0
-42,183,0,0,0,0,0,0,0,0,0,-1,1182,841,0,0
-35,183,0,0,0,0,0,0,0,0,0,-1,1189,841,0,0
-28,183,0,0,0,0,0,0,0,0,0,-1,1196,841,0,0
-21,183,0,0,0,0,0,0,0,0,0,-1,1203,841,0,0
-14,183,0,0,0,0,0,0,0,0,0,-1,1210,841,0,0
-7,183,0,0,0,0,0,0,0,0,0,-1,1217,841,0,0
0,183,0,0,0,0,0,0,0,0,0,-1,1224,841,0,0
7,183,0,0,0,0,0,0,0,0,0,-1,1231,841,0,0
14,183,0,0,0,0,0,0,0,0,0,-1,1238,841,0,0
21,183,0,0,0,0,0,0,0,0,0,-1,1245,841,0,0
28,183,0,0,0,0,0,0,0,0,0,-1,1252,841,0,0
35,183,0,0,0,0,0,0,0,0,0,-1,1259,841,0,0
42,183,0,0,0,0,0,0,0,0,0,-1,1266,841,0,0
49,183,0,0,0,0,0,0,0,0,0,-1,1273,841,0,0
56,183,0,0,0,0,0,0,0,0,0,-1,1280,841,0,0
63,183,0,0,0,0,0,0,0,0,0,-1,1287,841,0,0
70,183,0,0,0,0,0,0,0,0,0,-1,1294,841,0,0
77,183,0,0,0,0,0,0,0,0,0,-1,1301,841,0,0
84,183,0,0,0,0,0,0,0,0,0,-1,1308,841,0,0
91,183,0,0,0,0,0,0,0,0,0,-1,1315,841,0,0
98,183,0,0,0,0,0,0,0,0,0,-1,1322,841,0,0
105,183,0,0,0,0,0,0,0,0,0,-1,1329,841,0,0
112,183,0,0,0,0,0,0,0,0,0,-1,1336,841,0,0
119,183,0,0,0,0,0,0,0,0,0,-1,1343,841,0,0
126,183,0,0,0,0,0,0,0,0,0,-1,1350,841,0,0
133,183,0,0,0,0,0,0,0,0,0,-1,1357,841,0,0
140,183,0,0,0,0,0,0,0,0,0,-1,1364,841,0,0
147,183,0,0,0,0,0,0,0,0,0,-1,1371,841,0,0
154,183,0,0,0,0,0,0,0,0,0,-1,1378,841,0,0
161,183,0,0,0,0,0,0,0,0,0,-1,1385,841,0,0
168,183,0,0,0,0,0,0,0,0,0,-1,1392,841,0,0
175,183,0,0,0,0,0,0,0,0,0,-1,1399,841,0,0
182,183,0,0,0,0,0,0,0,0,0,-1,1406,841,0,0
189,183,0,0,0,0,0,0,0,0,0,-1,1413,841,0,0
196,183,0,0,0,0,0,0,0,0,0,-1,1420,841,0,0
203,183,0,0,0,0,0,0,0,0,0,-1,1427,841,0,0
210,183,0,0,0,0,0,0,0,0,0,-1,1434,841,0,0
217,183,0,0,0,0,0,0,0,0,0,-1,1441,841,0,0
224,183,0,0,0,0,0,0,0,0,0,-1,1448,841,0,0
231,183,0,0,0,0,0,0,0,0,0,-1,1455,841,0,0
238,183,0,0,0,0,0,0,0,0,0,-1,1462,841,0,0
245,183,0,0,0,0,0,0,0,0,0,-1,1469,841,0,0
252,183,0,0,0,0,0,0,0,0,0,-1,1476,841,0,0
259,183,0,0,0,0,0,0,0,0,0,-1,1483,841,0,0
266,183,0,0,0,0,0,0,0,0,0,-1,1490,841,0,0
273,183,0,0,0,0,0,0,0,0,0,-1,1497,841,0,0
280,183,0,0,0,0,0,0,0,0,0,-1,1504,841,0,0
287,183,0,0,0,0,0,0,0,0,0,-1,1511,841,0,0
294,183,0,0,0,0,0,0,0,0,0,-1,1518,841,0,0
301,183,0,0,0,0,0,0,0,0,0,-1,1525,841,0,0
308,183,0,0,0,0,0,0,0,0,0,-1,1532,841,0,0
315,183,0,0,0,0,0,0,0,0,0,-1,1539,841,0,0
322,183,0,0,0,0,0,0,0,0,0,-1,1546,841,0,0
329,183,0,0,0,0,0,0,0,0,0,-1,1553,841,0,0
336,183,0,0,0,0,0,0,0,0,0,-1,1560,841,0,0
343,183,0,0,0,0,0,0,0,0,0,-1,1567,841,0,0
350,183,0,0,0,0,0,0,0,0,0,-1,1574,841,0,0
357,183,0,0,0,0,0,0,0,0,0,-1,1581,841,0,0
364,183,0,0,0,0,0,0,0,0,0,-1,1588,841,0,0
371,183,0,0,0,0,0,0,0,0,0,-1,1595,841,0,0
378,183,0,0,0,0,0,0,0,0,0,-1,1602,841,0,0
385,183,0,0,0,0,0,0,0,0,0,-1,1609,841,0,0
392,183,0,0,0,0,0,0,0,0,0,-1,1616,841,0,0
399,183,0,0,0,0,0,0,0,0,0,-1,1623,841,0,0
406,183,0,0,0,0,0,0,0,0,0,-1,1630,841,0,0
413,183,0,0,0,0,0,0,0,0,0,-1,1637,841,0,0
420,183,0,0,0,0,0,0,0,0,0,-1,1644,841,0,0
427,183,0,0,0,0,0,0,0,0,0,-1,1651,841,0,0
434,183,0,0,0,0,0,0,0,0,0,-1,1658,841,0,0
441,183,0,0,0,0,0,0,0,0,0,-1,1665,841,0,0
448,183,0,0,0,0,0,0,0,0,0,-1,1672,841,0,0
455,183,0,0,0,0,0,0,0,0,0,-1,1679,841,0,0
462,183,0,0,0,0,0,0,0,0,0,-1,1686,841,0,0
469,183,0,0,0,0,0,0,0,0,0,-1,1693,841,0,0
476,183,0,0,0,0,0,0,0,0,0,-1,1700,841,0,0
483,183,0,0,0,0,0,0,0,0,0,-1,1707,841,0,0
490,183,0,0,0,0,0,0,0,0,0,-1,1714,841,0,0
497,183,0,0,0,0,0,0,0,0,0,-1,1721,841,0,0
504,183,0,0,0,0,0,0,0,0,0,-1,1728,841,0,0
511,183,0,0,0,0,0,0,0,0,0,-1,1735,841,0,0
518,183,0,0,0,0,0,0,0,0,0,-1,1742,841,0,0
525,183,0,0,0,0,0,0,0,0,0,-1,1749,841,0,0
532,183,0,0,0,0,0,0,0,0,0,-1,1756,841,0,0
539,183,0,0,0,0,0,0,0,0,0,-1,1763,841,0,0
546,183,0,0,0,0,0,0,0,0,0,-1,1770,841,0,0
553,183,0,0,0,0,0,0,0,0,0,-1,1777,841,0,0
560,183,0,0,0,0,0,0,0,0,0,-1,1784,841,0,0
567,183,0,0,0,0,0,0,0,0,0,-1,1791,841,0,0
574,183,0,0,0,0,0,0,0,0,0,-1,1798,841,0,0
581,183,0,0,0,0,0,0,0,0,0,-1,1805,841,0,0
588,183,0,0,0,0,0,0,0,0,0,-1,1812,841,0,0
595,183,0,0,0,0,0,0,0,0,0,-1,1819,841,0,0
602,183,0,0,0,0,0,0,0,0,0,-1,1826,841,0,0
609,183,64.3887,2.82684,-0.00129297,0.000885839,-0.000523671,0.00100517,-0.0014123,-1.34675,0.00140231,0.0414537,1833,841,64.3886,-2.82686
616,183,64.1887,2.84174,-0.00077227,0.00115866,2.21123e-05,0.00115891,-0.000772523,1.55935,0.00112253,0.039603,1840,841,64.1887,-2.84174
623,183,64.2028,2.97992,-0.000563882,0.00154928,0.000553298,0.00168539,-0.000699987,1.3296,0.00141583,0.0408647,1847,841,64.2028,-2.97995
630,183,64.4791,2.82355,-0.000843533,0.00202167,0.000829575,0.00224453,-0.00106639,1.30835,0.00195148,0.0400586,1854,841,64.4791,-2.82355
637,183,64.4421,2.68634,-0.00152234,0.00202506,0.00060748,0.00212621,-0.00162349,1.40581,0.00217136,0.0344476,1861,841,64.4421,-2.68634
644,183,64.2772,2.76709,-0.00221886,0.00167777,0.000195637,0.00168757,-0.00222866,1.52076,0.00226822,0.0293478,1868,841,64.2772,-2.76707
651,183,64.2871,2.8006,-0.00275598,0.00122382,-0.000271552,0.00124226,-0.00277442,-1.50298,0.00237461,0.0282215,1875,841,64.2871,-2.80063
658,183,64.3929,2.80371,0,0,0,0,0,0,0,-1,1882,841,64.3929,-2.80374
665,183,38.4337,2.66992,0,0,0,0,0,0,0,-1,1889,841,38.4337,-2.6699
672,183,29.168,1.54572,0,0,0,0,0,0,0,-1,1896,841,29.168,-1.54574
679,183,51.3728,-0.0426025,0,0,0,0,0,0,0,-1,1903,841,51.3728,0.0425834
686,183,51.3291,0.600159,-0.0040335,0.000410507,-0.00177827,0.00103447,-0.00465746,-1.23333,0.00350112,0.0369754,1910,841,51.3291,-0.600155
693,183,51.2628,1.22479,-0.00386243,0.000170151,-0.00194344,0.000954283,-0.00464656,-1.1873,0.00345995,0.0337072,1917,841,51.2628,-1.2248
700,183,51.1039,1.94891,-0.00336663,0.000135293,-0.00219172,0.00118959,-0.00442093,-1.12243,0.00341362,0.037012,1924,841,51.1038,-1.9489
707,183,51.0281,2.67584,-0.0026453,0.000124177,-0.00214449,0.00129216,-0.00381327,-1.07208,0.00306508,0.0135845,1931,841,51.028,-2.67582
714,183,51.0349,3.37433,-0.00113305,0.00101128,-0.00194252,0.00215788,-0.00227965,-1.03757,0.00256233,0.0173569,1938,841,51.035,-3.37434
721,183,51.0159,4.10529,0.000937644,0.00248396,-0.00160483,0.00349217,-7.0562e-05,-1.00988,0.00235198,0.01606,1945,841,51.0159,-4.10528
728,183,50.9657,4.84943,0.0033284,0.00461841,-0.00126012,0.00538901,0.0025578,-1.02194,0.00311268,0.0139276,1952,841,50.9657,-4.8494
735,183,50.9314,5.57086,0.00602952,0.00762787,-0.00106828,0.00816282,0.00549456,-1.10654,0.00480605,0.0132786,1959,841,50.9314,-5.57086
742,183,50.9056,6.3042,0.00895528,0.0118351,-0.00111789,0.0122181,0.00857227,-1.24071,0.00724274,0.0136851,1966,841,50.9056,-6.30422
749,183,50.9958,7.2052,0.0121796,0.0176782,-0.00146518,0.0180442,0.0118136,-1.32597,0.0105828,0.0361943,1973,841,50.9958,-7.20517
756,183,51.2163,8.13013,0.0157192,0.0258804,-0.00223406,0.0263499,0.0152497,-1.36366,0.0152759,0.0485143,1980,841,51.2163,-8.13015
763,183,51.2776,8.80573,0,0,0,0,0,0,0,-1,1987,841,51.2776,-8.80575
770,183,51.5659,9.50665,0,0,0,0,0,0,0,-1,1994,841,51.5659,-9.50663
777,183,42.1948,7.22906,0,0,0,0,0,0,0,-1,2001,841,42.1948,-7.22905
784,183,0,0,0,0,0,0,0,0,0,-1,2008,841,0,0
791,183,0,0,0,0,0,0,0,0,0,-1,2015,841,0,0
798,183,0,0,0,0,0,0,0,0,0,-1,2022,841,0,0
805,183,0,0,0,0,0,0,0,0,0,-1,2029,841,0,0
812,183,0,0,0,0,0,0,0,0,0,-1,2036,841,0,0
-700,176,0,0,0,0,0,0,0,0,0,-1,524,848,0,0
-693,176,0,0,0,0,0,0,0,0,0,-1,531,848,0,0
-686,176,0,0,0,0,0,0,0,0,0,-1,538,848,0,0
-679,176,0,0,0,0,0,0,0,0,0,-1,545,848,0,0
-672,176,0,0,0,0,0,0,0,0,0,-1,552,848,0,0
-665,176,-54.9626,1.06262,0,0,0,0,0,0,0,-1,559,848,-54.9625,-1.06264
-658,176,-55.5429,2.19293,0,0,0,0,0,0,0,-1,566,848,-55.5429,-2.19292
-651,176,-37.9457,8.1875,0,0,0,0,0,0,0,-1,573,848,-37.9458,-8.18748
-644,176,-37.7255,7.15698,0,0,0,0,0,0,0,-1,580,848,-37.7255,-7.15697
-637,176,-37.5598,6.15222,0,0,0,0,0,0,0,-1,587,848,-37.5598,-6.15224
-630,176,-37.4473,5.29236,0,0,0,0,0,0,0,-1,594,848,-37.4473,-5.29236
-623,176,-37.4989,5.44415,0,0,0,0,0,0,0,-1,601,848,-37.4989,-5.44416
-616,176,-37.4792,4.84259,0.00595009,0.00905765,-0.00765748,0.0153174,-0.000309658,-0.885494,0.0103164,0.0289161,608,848,-37.4792,-4.84262
-609,176,-37.5243,4.08563,0.00278605,0.00674428,-0.00474869,0.00990977,-0.000379442,-0.982838,0.00673656,0.0123893,615,848,-37.5243,-4.08566
-602,176,-37.5803,3.3689,0.000292123,0.00477318,-0.00239917,0.00581533,-0.000750026,-1.16101,0.00414955,0.0131424,622,848,-37.5802,-3.36891
-595,176,-37.633,2.64008,-0.0016578,0.00320713,-0.000499989,0.00325799,-0.00170866,-1.46943,0.00291363,0.0126392,629,848,-37.633,-2.64009
-588,176,-37.6405,1.93518,-0.00270428,0.00200155,0.000734439,0.00211351,-0.00281624,1.41952,0.00285581,0.0140308,636,848,-37.6405,-1.9352
-581,176,-37.7081,1.27258,-0.00254977,0.0016794,0.00153945,0.00218041,-0.00305078,1.25616,0.00303414,0.0134593,643,848,-37.7081,-1.27256
-574,176,-37.7794,0.5896,-0.00176065,0.00143875,0.00189345,0.00231779,-0.00263969,1.13615,0.00286422,0.0284566,650,848,-37.7794,-0.58957
-567,176,-37.7562,-0.224548,0,0,0,0,0,0,0,-1,657,848,-37.7562,0.22455
-560,176,-31.6935,-0.0994873,0,0,0,0,0,0,0,-1,664,848,-31.6936,0.0994584
-553,176,-29.4605,-1.50214,0,0,0,0,0,0,0,-1,671,848,-29.4605,1.50211
-546,176,-16.657,-0.403198,0,0,0,0,0,0,0,-1,678,848,-16.657,0.403182
-539,176,-22.7061,1.48657,0,0,0,0,0,0,0,-1,685,848,-22.7061,-1.48657
-532,176,-38.8326,1.29749,0,0,0,0,0,0,0,-1,692,848,-38.8326,-1.29747
-525,176,-48.9478,0.96283,0,0,0,0,0,0,0,-1,699,848,-48.9478,-0.962805
-518,176,-48.8589,1.09082,0.00318512,0.0077482,0.000174079,0.00775483,0.00317849,1.53272,0.00450143,0.0447947,706,848,-48.8589,-1.09084
-511,176,-48.6851,1.25824,0.00324804,0.00888566,-0.000243356,0.00889615,0.00323756,-1.52774,0.00519921,0.0411687,713,848,-48.6851,-1.25823
-504,176,-49.1418,0.71106,0,0,0,0,0,0,0,-1,720,848,-49.1419,-0.711031
-497,176,-49.2886,1.04132,0.00670086,0.0139588,-0.00525184,0.0167135,0.00394616,-1.08772,0.0100876,0.0427772,727,848,-49.2886,-1.0413
-490,176,-49.0232,1.07721,0.00968054,0.0190602,-0.00897341,0.0244954,0.00424532,-1.02619,0.0151152,0.0385543,734,848,-49.0232,-1.07722
-483,176,0,0,0,0,0,0,0,0,0,-1,741,848,0,0
-476,176,0,0,0,0,0,0,0,0,0,-1,748,848,0,0
-469,176,0,0,0,0,0,0,0,0,0,-1,755,848,0,0
-462,176,0,0,0,0,0,0,0,0,0,-1,762,848,0,0
-455,176,0,0,0,0,0,0,0,0,0,-1,769,848,0,0
-448,176,0,0,0,0,0,0,0,0,0,-1,776,848,0,0
-441,176,0,0,0,0,0,0,0,0,0,-1,783,848,0,0
-434,176,0,0,0,0,0,0,0,0,0,-1,790,848,0,0
-427,176,0,0,0,0,0,0,0,0,0,-1,797,848,0,0
-420,176,0,0,0,0,0,0,0,0,0,-1,804,848,0,0
-413,176,0,0,0,0,0,0,0,0,0,-1,811,848,0,0
-406,176,0,0,0,0,0,0,0,0,0,-1,818,848,0,0
-399,176,0,0,0,0,0,0,0,0,0,-1,825,848,0,0
-392,176,0,0,0,0,0,0,0,0,0,-1,832,848,0,0
-385,176,0,0,0,0,0,0,0,0,0,-1,839,848,0,0
-378,176,0,0,0,0,0,0,0,0,0,-1,846,848,0,0
-371,176,0,0,0,0,0,0,0,0,0,-1,853,848,0,0
-364,176,0,0,0,0,0,0,0,0,0,-1,860,848,0,0
-357,176,0,0,0,0,0,0,0,0,0,-1,867,848,0,0
-350,176,0,0,0,0,0,0,0,0,0,-1,874,848,0,0
-343,176,0,0,0,0,0,0,0,0,0,-1,881,848,0,0
-336,176,0,0,0,0,0,0,0,0,0,-1,888,848,0,0
-329,176,0,0,0,0,0,0,0,0,0,-1,895,848,0,0
-322,176,0,0,0,0,0,0,0,0,0,-1,902,848,0,0
-315,176,0,0,0,0,0,0,0,0,0,-1,909,848,0,0
-308,176,0,0,0,0,0,0,0,0,0,-1,916,848,0,0
-301,176,0,0,0,0,0,0,0,0,0,-1,923,848,0,0
-294,176,0,0,0,0,0,0,0,0,0,-1,930,848,0,0
-287,176,0,0,0,0,0,0,0,0,0,-1,937,848,0,0
-280,176,0,0,0,0,0,0,0,0,0,-1,944,848,0,0
-273,176,0,0,0,0,0,0,0,0,0,-1,951,848,0,0
-266,176,0,0,0,0,0,0,0,0,0,-1,958,848,0,0
-259,176,0,0,0,0,0,0,0,0,0,-1,965,848,0,0
-252,176,0,0,0,0,0,0,0,0,0,-1,972,848,0,0
-245,176,0,0,0,0,0,0,0,0,0,-1,979,848,0,0
-238,176,0,0,0,0,0,0,0,0,0,-1,986,848,0,0
-231,176,0,0,0,0,0,0,0,0,0,-1,993,848,0,0
-224,176,0,0,0,0,0,0,0,0,0,-1,1000,848,0,0
-217,176,0,0,0,0,0,0,0,0,0,-1,1007,848,0,0
-210,176,0,0,0,0,0,0,0,0,0,-1,1014,848,0,0
-203,176,0,0,0,0,0,0,0,0,0,-1,1021,848,0,0
-196,176,0,0,0,0,0,0,0,0,0,-1,1028,848,0,0
-189,176,0,0,0,0,0,0,0,0,0,-1,1035,848,0,0
-182,176,0,0,0,0,0,0,0,0,0,-1,1042,848,0,0
-175,176,0,0,0,0,0,0,0,0,0,-1,1049,848,0,0
-168,176,0,0,0,0,0,0,0,0,0,-1,1056,848,0,0
-161,176,0,0,0,0,0,0,0,0,0,-1,1063,848,0,0
-154,176,0,0,0,0,0,0,0,0,0,-1,1070,848,0,0
-147,176,0,0,0,0,0,0,0,0,0,-1,1077,848,0,0
-140,176,0,0,0,0,0,0,0,0,0,-1,1084,848,0,0
-133,176,0,0,0,0,0,0,0,0,0,-1,1091,848,0,0
-126,176,0,0,0,0,0,0,0,0,0,-1,1098,848,0,0
-119,176,0,0,0,0,0,0,0,0,0,-1,1105,848,0,0
-112,176,0,0,0,0,0,0,0,0,0,-1,1112,848,0,0
-105,176,0,0,0,0,0,0,0,0,0,-1,1119,848,0,0
-98,176,0,0,0,0,0,0,0,0,0,-1,1126,848,0,0
-91,176,0,0,0,0,0,0,0,0,0,-1,1133,848,0,0
-84,176,0,0,0,0,0,0,0,0,0,-1,1140,848,0,0
-77,176,0,0,0,0,0,0,0,0,0,-1,1147,848,0,0
-70,176,0,0,0,0,0,0,0,0,0,-1,1154,848,0,0
-63,176,0,0,0,0,0,0,0,0,0,-1,1161,848,0,0
-56,176,0,0,0,0,0,0,0,0,0,-1,1168,848,0,0
-49,176,0,0,0,0,0,0,0,0,0,-1,1175,848,0,0
-42,176,0,0,0,0,0,0,0,0,0,-1,1182,848,0,0
-35,176,0,0,0,0,0,0,0,0,0,-1,1189,848,0,0
-28,176,0,0,0,0,0,0,0,0,0,-1,1196,848,0,0
-21,176,0,0,0,0,0,0,0,0,0,-1,1203,848,0,0
-14,176,0,0,0,0,0,0,0,0,0,-1,1210,848,0,0
-7,176,0,0,0,0,0,0,0,0,0,-1,1217,848,0,0
0,176,0,0,0,0,0,0,0,0,0,-1,1224,848,0,0
7,176,0,0,0,0,0,0,0,0,0,-1,1231,848,0,0
14,176,0,0,0,0,0,0,0,0,0,-1,1238,848,0,0
21,176,0,0,0,0,0,0,0,0,0,-1,1245,848,0,0
28,176,0,0,0,0,0,0,0,0,0,-1,1252,848,0,0
35,176,0,0,0,0,0,0,0,0,0,-1,1259,848,0,0
42,176,0,0,0,0,0,0,0,0,0,-1,1266,848,0,0
49,176,0,0,0,0,0,0,0,0,0,-1,1273,848,0,0
56,176,0,0,0,0,0,0,0,0,0,-1,1280,848,0,0
63,176,0,0,0,0,0,0,0,0,0,-1,1287,848,0,0
70,176,0,0,0,0,0,0,0,0,0,-1,1294,848,0,0
77,176,0,0,0,0,0,0,0,0,0,-1,1301,848,0,0
84,176,0,0,0,0,0,0,0,0,0,-1,1308,848,0,0
91,176,0,0,0,0,0,0,0,0,0,-1,1315,848,0,0
98,176,0,0,0,0,0,0,0,0,0,-1,1322,848,0,0
105,176,0,0,0,0,0,0,0,0,0,-1,1329,848,0,0
112,176,0,0,0,0,0,0,0,0,0,-1,1336,848,0,0
119,176,0,0,0,0,0,0,0,0,0,-1,1343,848,0,0
126,176,0,0,0,0,0,0,0,0,0,-1,1350,848,0,0
133,176,0,0,0,0,0,0,0,0,0,-1,1357,848,0,0
140,176,0,0,0,0,0,0,0,0,0,-1,1364,848,0,0
147,176,0,0,0,0,0,0,0,0,0,-1,1371,848,0,0
154,176,0,0,0,0,0,0,0,0,0,-1,1378,848,0,0
161,176,0,0,0,0,0,0,0,0,0,-1,1385,848,0,0
168,176,0,0,0,0,0,0,0,0,0,-1,1392,848,0,0
175,176,0,0,0,0,0,0,0,0,0,-1,1399,848,0,0
182,176,0,0,0,0,0,0,0,0,0,-1,1406,848,0,0
189,176,0,0,0,0,0,0,0,0,0,-1,1413,848,0,0
196,176,0,0,0,0,0,0,0,0,0,-1,1420,848,0,0
203,176,0,0,0,0,0,0,0,0,0,-1,1427,848,0,0
210,176,0,0,0,0,0,0,0,0,0,-1,1434,848,0,0
217,176,0,0,0,0,0,0,0,0,0,-1,1441,848,0,0
224,176,0,0,0,0,0,0,0,0,0,-1,1448,848,0,0
231,176,0,0,0,0,0,0,0,0,0,-1,1455,848,0,0
238,176,0,0,0,0,0,0,0,0,0,-1,1462,848,0,0
245,176,0,0,0,0,0,0,0,0,0,-1,1469,848,0,0
252,176,0,0,0,0,0,0,0,0,0,-1,1476,848,0,0
259,176,0,0,0,0,0,0,0,0,0,-1,1483,848,0,0
266,176,0,0,0,0,0,0,0,0,0,-1,1490,848,0,0
273,176,0,0,0,0,0,0,0,0,0,-1,1497,848,0,0
280,176,0,0,0,0,0,0,0,0,0,-1,1504,848,0,0
287,176,0,0,0,0,0,0,0,0,0,-1,1511,848,0,0
294,176,0,0,0,0,0,0,0,0,0,-1,1518,848,0,0
301,176,0,0,0,0,0,0,0,0,0,-1,1525,848,0,0
308,176,0,0,0,0,0,0,0,0,0,-1,1532,848,0,0
315,176,0,0,0,0,0,0,0,0,0,-1,1539,848,0,0
322,176,0,0,0,0,0,0,0,0,0,-1,1546,848,0,0
329,176,0,0,0,0,0,0,0,0,0,-1,1553,848,0,0
336,176,0,0,0,0,0,0,0,0,0,-1,1560,848,0,0
343,176,0,0,0,0,0,0,0,0,0,-1,1567,848,0,0
350,176,0,0,0,0,0,0,0,0,0,-1,1574,848,0,0
357,176,0,0,0,0,0,0,0,0,0,-1,1581,848,0,0
364,176,0,0,0,0,0,0,0,0,0,-1,1588,848,0,0
371,176,0,0,0,0,0,0,0,0,0,-1,1595,848,0,0
378,176,0,0,0,0,0,0,0,0,0,-1,1602,848,0,0
385,176,0,0,0,0,0,0,0,0,0,-1,1609,848,0,0
392,176,0,0,0,0,0,0,0,0,0,-1,1616,848,0,0
399,176,0,0,0,0,0,0,0,0,0,-1,1623,848,0,0
406,176,0,0,0,0,0,0,0,0,0,-1,1630,848,0,0
413,176,0,0,0,0,0,0,0,0,0,-1,1637,848,0,0
420,176,0,0,0,0,0,0,0,0,0,-1,1644,848,0,0
427,176,0,0,0,0,0,0,0,0,0,-1,1651,848,0,0
434,176,0,0,0,0,0,0,0,0,0,-1,1658,848,0,0
441,176,0,0,0,0,0,0,0,0,0,-1,1665,848,0,0
448,176,0,0,0,0,0,0,0,0,0,-1,1672,848,0,0
455,176,0,0,0,0,0,0,0,0,0,-1,1679,848,0,0
462,176,0,0,0,0,0,0,0,0,0,-1,1686,848,0,0
469,176,0,0,0,0,0,0,0,0,0,-1,1693,848,0,0
476,176,0,0,0,0,0,0,0,0,0,-1,1700,848,0,0
483,176,0,0,0,0,0,0,0,0,0,-1,1707,848,0,0
490,176,0,0,0,0,0,0,0,0,0,-1,1714,848,0,0
497,176,0,0,0,0,0,0,0,0,0,-1,1721,848,0,0
504,176,0,0,0,0,0,0,0,0,0,-1,1728,848,0,0
511,176,0,0,0,0,0,0,0,0,0,-1,1735,848,0,0
518,176,0,0,0,0,0,0,0,0,0,-1,1742,848,0,0
525,176,0,0,0,0,0,0,0,0,0,-1,1749,848,0,0
532,176,0,0,0,0,0,0,0,0,0,-1,1756,848,0,0
539,176,0,0,0,0,0,0,0,0,0,-1,1763,848,0,0
546,176,0,0,0,0,0,0,0,0,0,-1,1770,848,0,0
553,176,0,0,0,0,0,0,0,0,0,-1,1777,848,0,0
560,176,0,0,0,0,0,0,0,0,0,-1,1784,848,0,0
567,176,0,0,0,0,0,0,0,0,0,-1,1791,848,0,0
574,176,0,0,0,0,0,0,0,0,0,-1,1798,848,0,0
581,176,0,0,0,0,0,0,0,0,0,-1,1805,848,0,0
588,176,0,0,0,0,0,0,0,0,0,-1,1812,848,0,0
595,176,0,0,0,0,0,0,0,0,0,-1,1819,848,0,0
602,176,0,0,0,0,0,0,0,0,0,-1,1826,848,0,0
609,176,64.3177,2.75763,-0.00191133,0.000160477,-0.00125585,0.000752531,-0.00250338,-1.13026,0.00196832,0.0388848,1833,848,64.3178,-2.75761
616,176,64.1217,2.62781,-0.00114911,0.000606216,-0.000795806,0.00091329,-0.00145618,-1.20253,0.00137993,0.0389489,1840,848,64.1217,-2.62779
623,176,63.9525,2.65466,-0.000806316,0.00108434,-0.000252035,0.00111736,-0.000839337,-1.44052,0.0011335,0.0429552,1847,848,63.9526,-2.65464
630,176,64.2163,2.89594,-0.00081817,0.0016425,0.000224517,0.00166282,-0.000838487,1.48055,0.00147004,0.0429541,1854,848,64.2163,-2.89594
637,176,64.4807,2.71924,0,0,0,0,0,0,0,-1,1861,848,64.4807,-2.71924
644,176,64.2476,2.82233,-0.00205241,0.00164261,-1.46113e-05,0.00164267,-0.00205247,-1.56684,0.00213776,0.0321756,1868,848,64.2476,-2.82231
651,176,64.2637,2.77155,-0.00266734,0.00124847,-0.000441887,0.00129772,-0.00271658,-1.45981,0.00236542,0.0343742,1875,848,64.2637,-2.77157
658,176,64.3993,2.67175,0,0,0,0,0,0,0,-1,1882,848,64.3993,-2.67175
665,176,54.3333,2.34277,0,0,0,0,0,0,0,-1,1889,848,54.3333,-2.34279
672,176,16.9304,2.80719,0,0,0,0,0,0,0,-1,1896,848,16.9305,-2.80719
679,176,50.9341,0.315979,0,0,0,0,0,0,0,-1,1903,848,50.9341,-0.315984
686,176,52.1431,0.729126,0,0,0,0,0,0,0,-1,1910,848,52.1431,-0.729145
693,176,52.0154,1.39862,-0.00324439,0.000327357,-0.00190044,0.00114936,-0.00406639,-1.16256,0.00316441,0.0311614,1917,848,52.0154,-1.39864
700,176,51.8641,2.18604,-0.00269217,0.000251253,-0.00209677,0.00134125,-0.00378217,-1.0914,0.00306787,0.0375241,1924,848,51.8642,-2.18606
707,176,51.8754,2.79572,-0.00210772,0.000179133,-0.00212956,0.00145283,-0.00338141,-1.03177,0.00286413,0.0237423,1931,848,51.8753,-2.7957
714,176,51.7694,3.42963,-0.000936873,0.000810853,-0.00204456,0.00216047,-0.00228649,-0.987353,0.0025678,0.0131498,1938,848,51.7694,-3.42965
721,176,51.7351,4.11639,0.000662518,0.0019887,-0.00174643,0.00319369,-0.000542471,-0.966833,0.00233108,0.0138298,1945,848,51.7351,-4.11638
728,176,51.6785,4.87427,0.00251564,0.00372365,-0.0013381,0.00458775,0.00165154,-0.997404,0.00268313,0.016832,1952,848,51.6784,-4.87427
735,176,51.6338,5.60455,0.00470777,0.00622441,-0.00100521,0.00672525,0.00420692,-1.10855,0.00392341,0.015273,1959,848,51.6338,-5.60454
742,176,51.6121,6.32916,0.00706763,0.00976111,-0.00082107,0.00999166,0.00683708,-1.29705,0.00589784,0.0240028,1966,848,51.6121,-6.32917
749,176,51.9927,7.12164,0.00958588,0.0145721,-0.000818078,0.0147029,0.00945509,-1.41226,0.00860378,0.036654,1973,848,51.9927,-7.12165
756,176,52.2833,8.16058,0,0,0,0,0,0,0,-1,1980,848,52.2834,-8.1606
763,176,44.4343,7.70581,0,0,0,0,0,0,0,-1,1987,848,44.4343,-7.70578
770,176,36.4186,4.25641,0,0,0,0,0,0,0,-1,1994,848,36.4186,-4.25639
777,176,43.8328,7.50177,0,0,0,0,0,0,0,-1,2001,848,43.8328,-7.50178
784,176,0,0,0,0,0,0,0,0,0,-1,2008,848,0,0
791,176,0,0,0,0,0,0,0,0,0,-1,2015,848,0,0
798,176,0,0,0,0,0,0,0,0,0,-1,2022,848,0,0
805,176,0,0,0,0,0,0,0,0,0,-1,2029,848,0,0
812,176,0,0,0,0,0,0,0,0,0,-1,2036,848,0,0
-700,169,0,0,0,0,0,0,0,0,0,-1,524,855,0,0
-693,169,0,0,0,0,0,0,0,0,0,-1,531,855,0,0
-686,169,0,0,0,0,0,0,0,0,0,-1,538,855,0,0
-679,169,0,0,0,0,0,0,0,0,0,-1,545,855,0,0
-672,169,0,0,0,0,0,0,0,0,0,-1,552,855,0,0
-665,169,-53.5222,1.5567,0,0,0,0,0,0,0,-1,559,855,-53.5222,-1.55671
-658,169,-54.2782,3.05786,0,0,0,0,0,0,0,-1,566,855,-54.2782,-3.05787
-651,169,-54.889,4.52765,0,0,0,0,0,0,0,-1,573,855,-54.889,-4.52762
-644,169,-37.9653,7.25684,0,0,0,0,0,0,0,-1,580,855,-37.9653,-7.25682
-637,169,-37.9519,6.30731,0,0,0,0,0,0,0,-1,587,855,-37.9519,-6.30734
-630,169,-38.9971,6.62677,0,0,0,0,0,0,0,-1,594,855,-38.9971,-6.62679
-623,169,-38.6097,5.70917,0.00749161,0.0098829,-0.00870798,0.0174769,-0.000102425,-0.853624,0.0116856,0.0405758,601,855,-38.6097,-5.70915
-616,169,-38.2328,4.80316,0.00434313,0.00828926,-0.00629001,0.0129084,-0.00027601,-0.937379,0.00869906,0.0230942,608,855,-38.2329,-4.80317
-609,169,-38.2611,4.11566,0.00143347,0.00601096,-0.00369247,0.00806648,-0.000622055,-1.06284,0.00559654,0.0133694,615,855,-38.2611,-4.11568
-602,169,-38.3033,3.39783,-0.00100054,0.00405068,-0.00153009,0.00447801,-0.00142788,-1.29845,0.00355812,0.0139582,622,855,-38.3033,-3.39783
-595,169,-38.3376,2.66693,-0.00287799,0.00247132,0.000171177,0.00247679,-0.00288347,1.53884,0.00309771,0.0127692,629,855,-38.3376,-2.66693
-588,169,-38.3435,1.98792,-0.00364576,0.00127822,0.00108504,0.00150671,-0.00387426,1.36324,0.00320537,0.0106524,636,855,-38.3435,-1.98791
-581,169,-38.4045,1.37219,-0.00320117,0.00109158,0.00169836,0.00168224,-0.00379182,1.2361,0.00323774,0.0205655,643,855,-38.4045,-1.37219
-574,169,-38.7357,0.612061,-0.00236633,0.000955361,0.00202367,0.00191247,-0.00332343,1.12902,0.00305931,0.0383624,650,855,-38.7357,-0.612088
-567,169,-38.5157,-0.0405273,0,0,0,0,0,0,0,-1,657,855,-38.5157,0.040543
-560,169,-38.5444,-0.661072,0,0,0,0,0,0,0,-1,664,855,-38.5444,0.661099
-553,169,-32.1944,-0.787964,0,0,0,0,0,0,0,-1,671,855,-32.1944,0.787959
-546,169,-19.0852,-1.05609,0,0,0,0,0,0,0,-1,678,855,-19.0852,1.05612
-539,169,-33.2307,1.10706,0,0,0,0,0,0,0,-1,685,855,-33.2307,-1.10708
-532,169,-48.9155,0.867554,0,0,0,0,0,0,0,-1,692,855,-48.9155,-0.867562
-525,169,-48.9425,0.945801,0.00284869,0.00610046,0.000593397,0.00620536,0.00274379,1.39582,0.00359065,0.0463448,699,855,-48.9425,-0.945805
-518,169,-48.8919,0.987976,0.00283506,0.00740749,5.12739e-05,0.00740806,0.00283448,1.55958,0.00431615,0.042127,706,855,-48.8919,-0.987963
-511,169,-48.8043,1.01587,0.00310737,0.00907193,-0.000915747,0.00920936,0.00296994,-1.42183,0.00542757,0.0428885,713,855,-48.8043,-1.01586
-504,169,-49.088,0.402222,0.00464653,0.0116411,-0.00352242,0.0131075,0.00318011,-1.17631,0.00789477,0.0439555,720,855,-49.0879,-0.402197
-497,169,-49.1967,0.520569,0.00690716,0.0150453,-0.00686615,0.0189575,0.00299491,-1.05289,0.0117678,0.0423791,727,855,-49.1967,-0.520551
-490,169,0,0,0,0,0,0,0,0,0,-1,734,855,0,0
-483,169,0,0,0,0,0,0,0,0,0,-1,741,855,0,0
-476,169,0,0,0,0,0,0,0,0,0,-1,748,855,0,0
-469,169,0,0,0,0,0,0,0,0,0,-1,755,855,0,0
-462,169,0,0,0,0,0,0,0,0,0,-1,762,855,0,0
-455,169,0,0,0,0,0,0,0,0,0,-1,769,855,0,0
-448,169,0,0,0,0,0,0,0,0,0,-1,776,855,0,0
-441,169,0,0,0,0,0,0,0,0,0,-1,783,855,0,0
-434,169,0,0,0,0,0,0,0,0,0,-1,790,855,0,0
-427,169,0,0,0,0,0,0,0,0,0,-1,797,855,0,0
-420,169,0,0,0,0,0,0,0,0,0,-1,804,855,0,0
-413,169,0,0,0,0,0,0,0,0,0,-1,811,855,0,0
-406,169,0,0,0,0,0,0,0,0,0,-1,818,855,0,0
-399,169,0,0,0,0,0,0,0,0,0,-1,825,855,0,0
-392,169,0,0,0,0,0,0,0,0,0,-1,832,855,0,0
-385,169,0,0,0,0,0,0,0,0,0,-1,839,855,0,0
-378,169,0,0,0,0,0,0,0,0,0,-1,846,855,0,0
-371,169,0,0,0,0,0,0,0,0,0,-1,853,855,0,0
-364,169,0,0,0,0,0,0,0,0,0,-1,860,855,0,0
-357,169,0,0,0,0,0,0,0,0,0,-1,867,855,0,0
-350,169,0,0,0,0,0,0,0,0,0,-1,874,855,0,0
-343,169,0,0,0,0,0,0,0,0,0,-1,881,855,0,0
-336,169,0,0,0,0,0,0,0,0,0,-1,888,855,0,0
-329,169,0,0,0,0,0,0,0,0,0,-1,895,855,0,0
-322,169,0,0,0,0,0,0,0,0,0,-1,902,855,0,0
-315,169,0,0,0,0,0,0,0,0,0,-1,909,855,0,0
-308,169,0,0,0,0,0,0,0,0,0,-1,916,855,0,0
-301,169,0,0,0,0,0,0,0,0,0,-1,923,855,0,0
-294,169,0,0,0,0,0,0,0,0,0,-1,930,855,0,0
-287,169,0,0,0,0,0,0,0,0,0,-1,937,855,0,0
-280,169,0,0,0,0,0,0,0,0,0,-1,944,855,0,0
-273,169,0,0,0,0,0,0,0,0,0,-1,951,855,0,0
-266,169,0,0,0,0,0,0,0,0,0,-1,958,855,0,0
-259,169,0,0,0,0,0,0,0,0,0,-1,965,855,0,0
-252,169,0,0,0,0,0,0,0,0,0,-1,972,855,0,0
-245,169,0,0,0,0,0,0,0,0,0,-1,979,855,0,0
-238,169,0,0,0,0,0,0,0,0,0,-1,986,855,0,0
-231,169,0,0,0,0,0,0,0,0,0,-1,993,855,0,0
-224,169,0,0,0,0,0,0,0,0,0,-1,1000,855,0,0
-217,169,0,0,0,0,0,0,0,0,0,-1,1007,855,0,0
-210,169,0,0,0,0,0,0,0,0,0,-1,1014,855,0,0
-203,169,0,0,0,0,0,0,0,0,0,-1,1021,855,0,0
-196,169,0,0,0,0,0,0,0,0,0,-1,1028,855,0,0
-189,169,0,0,0,0,0,0,0,0,0,-1,1035,855,0,0
-182,169,0,0,0,0,0,0,0,0,0,-1,1042,855,0,0
-175,169,0,0,0,0,0,0,0,0,0,-1,1049,855,0,0
-168,169,0,0,0,0,0,0,0,0,0,-1,1056,855,0,0
-161,169,0,0,0,0,0,0,0,0,0,-1,1063,855,0,0
-154,169,0,0,0,0,0,0,0,0,0,-1,1070,855,0,0
-147,169,0,0,0,0,0,0,0,0,0,-1,1077,855,0,0
-140,169,0,0,0,0,0,0,0,0,0,-1,1084,855,0,0
-133,169,0,0,0,0,0,0,0,0,0,-1,1091,855,0,0
-126,169,0,0,0,0,0,0,0,0,0,-1,1098,855,0,0
-119,169,0,0,0,0,0,0,0,0,0,-1,1105,855,0,0
-112,169,0,0,0,0,0,0,0,0,0,-1,1112,855,0,0
-105,169,0,0,0,0,0,0,0,0,0,-1,1119,855,0,0
-98,169,0,0,0,0,0,0,0,0,0,-1,1126,855,0,0
-91,169,0,0,0,0,0,0,0,0,0,-1,1133,855,0,0
-84,169,0,0,0,0,0,0,0,0,0,-1,1140,855,0,0
-77,169,0,0,0,0,0,0,0,0,0,-1,1147,855,0,0
-70,169,0,0,0,0,0,0,0,0,0,-1,1154,855,0,0
-63,169,0,0,0,0,0,0,0,0,0,-1,1161,855,0,0
-56,169,0,0,0,0,0,0,0,0,0,-1,1168,855,0,0
-49,169,0,0,0,0,0,0,0,0,0,-1,1175,855,0,0
-42,169,0,0,0,0,0,0,0,0,0,-1,1182,855,0,0
-35,169,0,0,0,0,0,0,0,0,0,-1,1189,855,0,0
-28,169,0,0,0,0,0,0,0,0,0,-1,1196,855,0,0
-21,169,0,0,0,0,0,0,0,0,0,-1,1203,855,0,0
-14,169,0,0,0,0,0,0,0,0,0,-1,1210,855,0,0
-7,169,0,0,0,0,0,0,0,0,0,-1,1217,855,0,0
0,169,0,0,0,0,0,0,0,0,0,-1,1224,855,0,0
7,169,0,0,0,0,0,0,0,0,0,-1,1231,855,0,0
14,169,0,0,0,0,0,0,0,0,0,-1,1238,855,0,0
21,169,0,0,0,0,0,0,0,0,0,-1,1245,855,0,0
28,169,0,0,0,0,0,0,0,0,0,-1,1252,855,0,0
35,169,0,0,0,0,0,0,0,0,0,-1,1259,855,0,0
42,169,0,0,0,0,0,0,0,0,0,-1,1266,855,0,0
49,169,0,0,0,0,0,0,0,0,0,-1,1273,855,0,0
56,169,0,0,0,0,0,0,0,0,0,-1,1280,855,0,0
63,169,0,0,0,0,0,0,0,0,0,-1,1287,855,0,0
70,169,0,0,0,0,0,0,0,0,0,-1,1294,855,0,0
77,169,0,0,0,0,0,0,0,0,0,-1,1301,855,0,0
84,169,0,0,0,0,0,0,0,0,0,-1,1308,855,0,0
91,169,0,0,0,0,0,0,0,0,0,-1,1315,855,0,0
98,169,0,0,0,0,0,0,0,0,0,-1,1322,855,0,0
105,169,0,0,0,0,0,0,0,0,0,-1,1329,855,0,0
112,169,0,0,0,0,0,0,0,0,0,-1,1336,855,0,0
119,169,0,0,0,0,0,0,0,0,0,-1,1343,855,0,0
126,169,0,0,0,0,0,0,0,0,0,-1,1350,855,0,0
133,169,0,0,0,0,0,0,0,0,0,-1,1357,855,0,0
140,169,0,0,0,0,0,0,0,0,0,-1,1364,855,0,0
147,169,0,0,0,0,0,0,0,0,0,-1,1371,855,0,0
154,169,0,0,0,0,0,0,0,0,0,-1,1378,855,0,0
161,169,0,0,0,0,0,0,0,0,0,-1,1385,855,0,0
168,169,0,0,0,0,0,0,0,0,0,-1,1392,855,0,0
175,169,0,0,0,0,0,0,0,0,0,-1,1399,855,0,0
182,169,0,0,0,0,0,0,0,0,0,-1,1406,855,0,0
189,169,0,0,0,0,0,0,0,0,0,-1,1413,855,0,0
196,169,0,0,0,0,0,0,0,0,0,-1,1420,855,0,0
203,169,0,0,0,0,0,0,0,0,0,-1,1427,855,0,0
210,169,0,0,0,0,0,0,0,0,0,-1,1434,855,0,0
217,169,0,0,0,0,0,0,0,0,0,-1,1441,855,0,0
224,169,0,0,0,0,0,0,0,0,0,-1,1448,855,0,0
231,169,0,0,0,0,0,0,0,0,0,-1,1455,855,0,0
238,169,0,0,0,0,0,0,0,0,0,-1,1462,855,0,0
245,169,0,0,0,0,0,0,0,0,0,-1,1469,855,0,0
252,169,0,0,0,0,0,0,0,0,0,-1,1476,855,0,0
259,169,0,0,0,0,0,0,0,0,0,-1,1483,855,0,0
266,169,0,0,0,0,0,0,0,0,0,-1,1490,855,0,0
273,169,0,0,0,0,0,0,0,0,0,-1,1497,855,0,0
280,169,0,0,0,0,0,0,0,0,0,-1,1504,855,0,0
287,169,0,0,0,0,0,0,0,0,0,-1,1511,855,0,0
294,169,0,0,0,0,0,0,0,0,0,-1,1518,855,0,0
301,169,0,0,0,0,0,0,0,0,0,-1,1525,855,0,0
308,169,0,0,0,0,0,0,0,0,0,-1,1532,855,0,0
315,169,0,0,0,0,0,0,0,0,0,-1,1539,855,0,0
322,169,0,0,0,0,0,0,0,0,0,-1,1546,855,0,0
329,169,0,0,0,0,0,0,0,0,0,-1,1553,855,0,0
336,169,0,0,0,0,0,0,0,0,0,-1,1560,855,0,0
343,169,0,0,0,0,0,0,0,0,0,-1,1567,855,0,0
350,169,0,0,0,0,0,0,0,0,0,-1,1574,855,0,0
357,169,0,0,0,0,0,0,0,0,0,-1,1581,855,0,0
364,169,0,0,0,0,0,0,0,0,0,-1,1588,855,0,0
371,169,0,0,0,0,0,0,0,0,0,-1,1595,855,0,0
378,169,0,0,0,0,0,0,0,0,0,-1,1602,855,0,0
385,169,0,0,0,0,0,0,0,0,0,-1,1609,855,0,0
392,169,0,0,0,0,0,0,0,0,0,-1,1616,855,0,0
399,169,0,0,0,0,0,0,0,0,0,-1,1623,855,0,0
406,169,0,0,0,0,0,0,0,0,0,-1,1630,855,0,0
413,169,0,0,0,0,0,0,0,0,0,-1,1637,855,0,0
420,169,0,0,0,0,0,0,0,0,0,-1,1644,855,0,0
427,169,0,0,0,0,0,0,0,0,0,-1,1651,855,0,0
434,169,0,0,0,0,0,0,0,0,0,-1,1658,855,0,0
441,169,0,0,0,0,0,0,0,0,0,-1,1665,855,0,0
448,169,0,0,0,0,0,0,0,0,0,-1,1672,855,0,0
455,169,0,0,0,0,0,0,0,0,0,-1,1679,855,0,0
462,169,0,0,0,0,0,0,0,0,0,-1,1686,855,0,0
469,169,0,0,0,0,0,0,0,0,0,-1,1693,855,0,0
476,169,0,0,0,0,0,0,0,0,0,-1,1700,855,0,0
483,169,0,0,0,0,0,0,0,0,0,-1,1707,855,0,0
490,169,0,0,0,0,0,0,0,0,0,-1,1714,855,0,0
497,169,0,0,0,0,0,0,0,0,0,-1,1721,855,0,0
504,169,0,0,0,0,0,0,0,0,0,-1,1728,855,0,0
511,169,0,0,0,0,0,0,0,0,0,-1,1735,855,0,0
518,169,0,0,0,0,0,0,0,0,0,-1,1742,855,0,0
525,169,0,0,0,0,0,0,0,0,0,-1,1749,855,0,0
532,169,0,0,0,0,0,0,0,0,0,-1,1756,855,0,0
539,169,0,0,0,0,0,0,0,0,0,-1,1763,855,0,0
546,169,0,0,0,0,0,0,0,0,0,-1,1770,855,0,0
553,169,0,0,0,0,0,0,0,0,0,-1,1777,855,0,0
560,169,0,0,0,0,0,0,0,0,0,-1,1784,855,0,0
567,169,0,0,0,0,0,0,0,0,0,-1,1791,855,0,0
574,169,0,0,0,0,0,0,0,0,0,-1,1798,855,0,0
581,169,0,0,0,0,0,0,0,0,0,-1,1805,855,0,0
588,169,0,0,0,0,0,0,0,0,0,-1,1812,855,0,0
595,169,0,0,0,0,0,0,0,0,0,-1,1819,855,0,0
602,169,0,0,0,0,0,0,0,0,0,-1,1826,855,0,0
609,169,0,0,0,0,0,0,0,0,0,-1,1833,855,0,0
616,169,64.193,2.5401,-0.00111706,2.75567e-07,-0.00150643,0.0010483,-0.00216508,-0.962963,0.00189222,0.0400138,1840,855,64.1929,-2.5401
623,169,64.0902,2.65869,-0.000772045,0.000538185,-0.00097749,0.00105979,-0.00129365,-1.08062,0.00136099,0.0453266,1847,855,64.0902,-2.6587
630,169,64.2222,2.6972,-0.000685971,0.00112302,-0.00041516,0.00121374,-0.000776699,-1.35564,0.00115838,0.0450285,1854,855,64.2222,-2.69717
637,169,64.4073,2.74219,-0.00114273,0.0015348,-0.000149565,0.00154312,-0.00115106,-1.51517,0.00156097,0.03705,1861,855,64.4073,-2.74221
644,169,64.3212,2.85529,-0.00183925,0.00150729,-0.000219026,0.00152156,-0.00185353,-1.50572,0.00195175,0.0348813,1868,855,64.3212,-2.85527
651,169,64.2725,2.85999,-0.00252349,0.00122354,-0.000539139,0.00129957,-0.00259952,-1.4307,0.00229247,0.0362258,1875,855,64.2724,-2.85999
658,169,64.322,2.78253,-0.0029454,0.000829447,-0.000926864,0.00104475,-0.0031607,-1.34256,0.00252838,0.0390903,1882,855,64.322,-2.78254
665,169,64.3854,2.74872,0,0,0,0,0,0,0,-1,1889,855,64.3854,-2.74869
672,169,31.2465,2.96387,0,0,0,0,0,0,0,-1,1896,855,31.2464,-2.9639
679,169,38.4297,1.08197,0,0,0,0,0,0,0,-1,1903,855,38.4296,-1.08194
686,169,52.7725,0.68219,0,0,0,0,0,0,0,-1,1910,855,52.7724,-0.682169
693,169,52.8401,1.4574,-0.00292579,0.000580193,-0.00180696,0.00134475,-0.00369035,-1.17052,0.00301033,0.0342524,1917,855,52.8401,-1.45738
700,169,52.8375,2.23651,-0.00235811,0.000508021,-0.00196999,0.00151104,-0.00336113,-1.09985,0.00287976,0.0295918,1924,855,52.8376,-2.23654
707,169,52.7267,2.90381,-0.00187845,0.000432378,-0.00207178,0.00164915,-0.00309521,-1.03976,0.00278125,0.03089,1931,855,52.7267,-2.90379
714,169,52.4711,3.45856,-0.000984632,0.000881825,-0.00209809,0.00224488,-0.00234769,-0.994658,0.00265174,0.0180561,1938,855,52.4711,-3.45854
721,169,52.4532,4.18036,0.000194361,0.00174821,-0.001851,0.00297873,-0.00103616,-0.984098,0.00240674,0.0179867,1945,855,52.4532,-4.18033
728,169,52.4027,4.91211,0.00154279,0.00306217,-0.00140356,0.00389845,0.000706514,-1.03345,0.0023984,0.0149699,1952,855,52.4028,-4.91213
735,169,52.351,5.64142,0.00324439,0.00502862,-0.000951863,0.00544108,0.00283193,-1.1619,0.00314228,0.020326,1959,855,52.351,-5.64142
742,169,52.3617,6.34637,0.00507575,0.00792436,-0.000552246,0.00802767,0.00497244,-1.38585,0.00467863,0.0193437,1966,855,52.3617,-6.34634
749,169,52.3982,6.99127,0.00694119,0.0117896,-0.00023247,0.0118007,0.00693007,-1.52299,0.00684762,0.0302339,1973,855,52.3982,-6.99126
756,169,52.7162,7.6449,0,0,0,0,0,0,0,-1,1980,855,52.7162,-7.64488
763,169,45.1978,7.5675,0,0,0,0,0,0,0,-1,1987,855,45.1977,-7.56751
770,169,37.2059,3.97021,0,0,0,0,0,0,0,-1,1994,855,37.2059,-3.97022
777,169,41.7505,8.7085,0,0,0,0,0,0,0,-1,2001,855,41.7505,-8.70852
784,169,40.0581,9.47473,0,0,0,0,0,0,0,-1,2008,855,40.058,-9.47476
791,169,0,0,0,0,0,0,0,0,0,-1,2015,855,0,0
798,169,0,0,0,0,0,0,0,0,0,-1,2022,855,0,0
805,169,0,0,0,0,0,0,0,0,0,-1,2029,855,0,0
812,169,0,0,0,0,0,0,0,0,0,-1,2036,855,0,0
-700,162,0,0,0,0,0,0,0,0,0,-1,524,862,0,0
-693,162,0,0,0,0,0,0,0,0,0,-1,531,862,0,0
-686,162,0,0,0,0,0,0,0,0,0,-1,538,862,0,0
-679,162,0,0,0,0,0,0,0,0,0,-1,545,862,0,0
-672,162,0,0,0,0,0,0,0,0,0,-1,552,862,0,0
-665,162,-52.1964,2.17419,0,0,0,0,0,0,0,-1,559,862,-52.1964,-2.17419
-658,162,-52.8279,3.80884,0,0,0,0,0,0,0,-1,566,862,-52.8279,-3.80886
-651,162,-38.5499,7.4436,0,0,0,0,0,0,0,-1,573,862,-38.5498,-7.4436
-644,162,-38.418,7.12036,0,0,0,0,0,0,0,-1,580,862,-38.418,-7.12037
-637,162,-38.4766,6.79358,0,0,0,0,0,0,0,-1,587,862,-38.4766,-6.79358
-630,162,-39.338,6.0954,0,0,0,0,0,0,0,-1,594,862,-39.338,-6.09541
-623,162,-39.0833,5.47961,0.00481994,0.0079012,-0.00626149,0.0128088,-8.76696e-05,-0.906026,0.00856858,0.0357856,601,862,-39.0832,-5.47964
-616,162,-38.9023,4.81934,0.00280364,0.00781457,-0.00510279,0.0109938,-0.000375598,-1.01361,0.00745756,0.0206548,608,862,-38.9024,-4.81936
-609,162,-38.9853,4.11523,0.000222932,0.00561302,-0.00275665,0.00677315,-0.000937198,-1.17245,0.00485806,0.0130738,615,862,-38.9853,-4.11524
-602,162,-39.0328,3.41925,-0.00209273,0.00366405,-0.000722272,0.00375329,-0.00218197,-1.44787,0.00346652,0.0119572,622,862,-39.0328,-3.41925
-595,162,-39.0462,2.72296,-0.00377072,0.00204292,0.000813366,0.00215458,-0.00388237,1.43438,0.0035327,0.0116452,629,862,-39.0462,-2.72298
-588,162,-39.051,2.03723,-0.00420014,0.000845113,0.00145306,0.00123367,-0.0045887,1.3095,0.0035427,0.0138372,636,862,-39.051,-2.03723
-581,162,-39.3033,1.35529,-0.00354295,0.000749538,0.00192578,0.00148687,-0.00428028,1.20514,0.00345741,0.0368157,643,862,-39.3033,-1.3553
-574,162,-39.8274,0.35675,0,0,0,0,0,0,0,-1,650,862,-39.8274,-0.356761
-567,162,-39.7245,-0.174011,0,0,0,0,0,0,0,-1,657,862,-39.7245,0.174
-560,162,-36.5075,-0.831665,0,0,0,0,0,0,0,-1,664,862,-36.5075,0.831657
-553,162,-35.9823,-1.60956,0,0,0,0,0,0,0,-1,671,862,-35.9823,1.60954
-546,162,-22.8181,-1.51154,0,0,0,0,0,0,0,-1,678,862,-22.8181,1.51155
-539,162,-48.9713,0.799072,0,0,0,0,0,0,0,-1,685,862,-48.9712,-0.799072
-532,162,-48.9677,0.923828,0.0011846,0.00417628,0.00123801,0.00462215,0.000738739,1.22511,0.00286709,0.0451798,692,862,-48.9676,-0.923807
-525,162,-48.981,1.0141,0.00256983,0.00538503,0.00079119,0.00559215,0.00236271,1.31476,0.00324153,0.0396331,699,862,-48.981,-1.01411
-518,162,-49.053,0.819336,0.00248736,0.00689609,-1.97524e-05,0.00689618,0.00248727,-1.56632,0.00403271,0.0405437,706,862,-49.053,-0.819321
-511,162,-49.1082,0.554871,0.00250853,0.00893597,-0.00163964,0.00933008,0.00211443,-1.33491,0.00564873,0.0447425,713,862,-49.1082,-0.554881
-504,162,-49.1373,0.427551,0.00348309,0.0116532,-0.0045995,0.0137198,0.00141647,-1.14851,0.00871285,0.0461936,720,862,-49.1373,-0.427526
-497,162,-49.1628,0.217102,0,0,0,0,0,0,0,-1,727,862,-49.1628,-0.217097
-490,162,0,0,0,0,0,0,0,0,0,-1,734,862,0,0
-483,162,0,0,0,0,0,0,0,0,0,-1,741,862,0,0
-476,162,0,0,0,0,0,0,0,0,0,-1,748,862,0,0
-469,162,0,0,0,0,0,0,0,0,0,-1,755,862,0,0
-462,162,0,0,0,0,0,0,0,0,0,-1,762,862,0,0
-455,162,0,0,0,0,0,0,0,0,0,-1,769,862,0,0
-448,162,0,0,0,0,0,0,0,0,0,-1,776,862,0,0
-441,162,0,0,0,0,0,0,0,0,0,-1,783,862,0,0
-434,162,0,0,0,0,0,0,0,0,0,-1,790,862,0,0
-427,162,0,0,0,0,0,0,0,0,0,-1,797,862,0,0
-420,162,0,0,0,0,0,0,0,0,0,-1,804,862,0,0
-413,162,0,0,0,0,0,0,0,0,0,-1,811,862,0,0
-406,162,0,0,0,0,0,0,0,0,0,-1,818,862,0,0
-399,162,0,0,0,0,0,0,0,0,0,-1,825,862,0,0
-392,162,0,0,0,0,0,0,0,0,0,-1,832,862,0,0
-385,162,0,0,0,0,0,0,0,0,0,-1,839,862,0,0
-378,162,0,0,0,0,0,0,0,0,0,-1,846,862,0,0
-371,162,0,0,0,0,0,0,0,0,0,-1,853,862,0,0
-364,162,0,0,0,0,0,0,0,0,0,-1,860,862,0,0
-357,162,0,0,0,0,0,0,0,0,0,-1,867,862,0,0
-350,162,0,0,0,0,0,0,0,0,0,-1,874,862,0,0
-343,162,0,0,0,0,0,0,0,0,0,-1,881,862,0,0
-336,162,0,0,0,0,0,0,0,0,0,-1,888,862,0,0
-329,162,0,0,0,0,0,0,0,0,0,-1,895,862,0,0
-322,162,0,0,0,0,0,0,0,0,0,-1,902,862,0,0
-315,162,0,0,0,0,0,0,0,0,0,-1,909,862,0,0
-308,162,0,0,0,0,0,0,0,0,0,-1,916,862,0,0
-301,162,0,0,0,0,0,0,0,0,0,-1,923,862,0,0
-294,162,0,0,0,0,0,0,0,0,0,-1,930,862,0,0
-287,162,0,0,0,0,0,0,0,0,0,-1,937,862,0,0
-280,162,0,0,0,0,0,0,0,0,0,-1,944,862,0,0
-273,162,0,0,0,0,0,0,0,0,0,-1,951,862,0,0
-266,162,0,0,0,0,0,0,0,0,0,-1,958,862,0,0
-259,162,0,0,0,0,0,0,0,0,0,-1,965,862,0,0
-252,162,0,0,0,0,0,0,0,0,0,-1,972,862,0,0
-245,162,0,0,0,0,0,0,0,0,0,-1,979,862,0,0
-238,162,0,0,0,0,0,0,0,0,0,-1,986,862,0,0
-231,162,0,0,0,0,0,0,0,0,0,-1,993,862,0,0
-224,162,0,0,0,0,0,0,0,0,0,-1,1000,862,0,0
-217,162,0,0,0,0,0,0,0,0,0,-1,1007,862,0,0
-210,162,0,0,0,0,0,0,0,0,0,-1,1014,862,0,0
-203,162,0,0,0,0,0,0,0,0,0,-1,1021,862,0,0
-196,162,0,0,0,0,0,0,0,0,0,-1,1028,862,0,0
-189,162,0,0,0,0,0,0,0,0,0,-1,1035,862,0,0
-182,162,0,0,0,0,0,0,0,0,0,-1,1042,862,0,0
-175,162,0,0,0,0,0,0,0,0,0,-1,1049,862,0,0
-168,162,0,0,0,0,0,0,0,0,0,-1,1056,862,0,0
-161,162,0,0,0,0,0,0,0,0,0,-1,1063,862,0,0
-154,162,0,0,0,0,0,0,0,0,0,-1,1070,862,0,0
-147,162,0,0,0,0,0,0,0,0,0,-1,1077,862,0,0
-140,162,0,0,0,0,0,0,0,0,0,-1,1084,862,0,0
-133,162,0,0,0,0,0,0,0,0,0,-1,1091,862,0,0
-126,162,0,0,0,0,0,0,0,0,0,-1,1098,862,0,0
-119,162,0,0,0,0,0,0,0,0,0,-1,1105,862,0,0
-112,162,0,0,0,0,0,0,0,0,0,-1,1112,862,0,0
-105,162,0,0,0,0,0,0,0,0,0,-1,1119,862,0,0
-98,162,0,0,0,0,0,0,0,0,0,-1,1126,862,0,0
-91,162,0,0,0,0,0,0,0,0,0,-1,1133,862,0,0
-84,162,0,0,0,0,0,0,0,0,0,-1,1140,862,0,0
-77,162,0,0,0,0,0,0,0,0,0,-1,1147,862,0,0
-70,162,0,0,0,0,0,0,0,0,0,-1,1154,862,0,0
-63,162,0,0,0,0,0,0,0,0,0,-1,1161,862,0,0
-56,162,0,0,0,0,0,0,0,0,0,-1,1168,862,0,0
-49,162,0,0,0,0,0,0,0,0,0,-1,1175,862,0,0
-42,162,0,0,0,0,0,0,0,0,0,-1,1182,862,0,0
-35,162,0,0,0,0,0,0,0,0,0,-1,1189,862,0,0
-28,162,0,0,0,0,0,0,0,0,0,-1,1196,862,0,0
-21,162,0,0,0,0,0,0,0,0,0,-1,1203,862,0,0
-14,162,0,0,0,0,0,0,0,0,0,-1,1210,862,0,0
-7,162,0,0,0,0,0,0,0,0,0,-1,1217,862,0,0
0,162,0,0,0,0,0,0,0,0,0,-1,1224,862,0,0
7,162,0,0,0,0,0,0,0,0,0,-1,1231,862,0,0
14,162,0,0,0,0,0,0,0,0,0,-1,1238,862,0,0
21,162,0,0,0,0,0,0,0,0,0,-1,1245,862,0,0
28,162,0,0,0,0,0,0,0,0,0,-1,1252,862,0,0
35,162,0,0,0,0,0,0,0,0,0,-1,1259,862,0,0
42,162,0,0,0,0,0,0,0,0,0,-1,1266,862,0,0
49,162,0,0,0,0,0,0,0,0,0,-1,1273,862,0,0
56,162,0,0,0,0,0,0,0,0,0,-1,1280,862,0,0
63,162,0,0,0,0,0,0,0,0,0,-1,1287,862,0,0
70,162,0,0,0,0,0,0,0,0,0,-1,1294,862,0,0
77,162,0,0,0,0,0,0,0,0,0,-1,1301,862,0,0
84,162,0,0,0,0,0,0,0,0,0,-1,1308,862,0,0
91,162,0,0,0,0,0,0,0,0,0,-1,1315,862,0,0
98,162,0,0,0,0,0,0,0,0,0,-1,1322,862,0,0
105,162,0,0,0,0,0,0,0,0,0,-1,1329,862,0,0
112,162,0,0,0,0,0,0,0,0,0,-1,1336,862,0,0
119,162,0,0,0,0,0,0,0,0,0,-1,1343,862,0,0
126,162,0,0,0,0,0,0,0,0,0,-1,1350,862,0,0
133,162,0,0,0,0,0,0,0,0,0,-1,1357,862,0,0
140,162,0,0,0,0,0,0,0,0,0,-1,1364,862,0,0
147,162,0,0,0,0,0,0,0,0,0,-1,1371,862,0,0
154,162,0,0,0,0,0,0,0,0,0,-1,1378,862,0,0
161,162,0,0,0,0,0,0,0,0,0,-1,1385,862,0,0
168,162,0,0,0,0,0,0,0,0,0,-1,1392,862,0,0
175,162,0,0,0,0,0,0,0,0,0,-1,1399,862,0,0
182,162,0,0,0,0,0,0,0,0,0,-1,1406,862,0,0
189,162,0,0,0,0,0,0,0,0,0,-1,1413,862,0,0
196,162,0,0,0,0,0,0,0,0,0,-1,1420,862,0,0
203,162,0,0,0,0,0,0,0,0,0,-1,1427,862,0,0
210,162,0,0,0,0,0,0,0,0,0,-1,1434,862,0,0
217,162,0,0,0,0,0,0,0,0,0,-1,1441,862,0,0
224,162,0,0,0,0,0,0,0,0,0,-1,1448,862,0,0
231,162,0,0,0,0,0,0,0,0,0,-1,1455,862,0,0
238,162,0,0,0,0,0,0,0,0,0,-1,1462,862,0,0
245,162,0,0,0,0,0,0,0,0,0,-1,1469,862,0,0
252,162,0,0,0,0,0,0,0,0,0,-1,1476,862,0,0
259,162,0,0,0,0,0,0,0,0,0,-1,1483,862,0,0
266,162,0,0,0,0,0,0,0,0,0,-1,1490,862,0,0
273,162,0,0,0,0,0,0,0,0,0,-1,1497,862,0,0
280,162,0,0,0,0,0,0,0,0,0,-1,1504,862,0,0
287,162,0,0,0,0,0,0,0,0,0,-1,1511,862,0,0
294,162,0,0,0,0,0,0,0,0,0,-1,1518,862,0,0
301,162,0,0,0,0,0,0,0,0,0,-1,1525,862,0,0
308,162,0,0,0,0,0,0,0,0,0,-1,1532,862,0,0
315,162,0,0,0,0,0,0,0,0,0,-1,1539,862,0,0
322,162,0,0,0,0,0,0,0,0,0,-1,1546,862,0,0
329,162,0,0,0,0,0,0,0,0,0,-1,1553,862,0,0
336,162,0,0,0,0,0,0,0,0,0,-1,1560,862,0,0
343,162,0,0,0,0,0,0,0,0,0,-1,1567,862,0,0
350,162,0,0,0,0,0,0,0,0,0,-1,1574,862,0,0
357,162,0,0,0,0,0,0,0,0,0,-1,1581,862,0,0
364,162,0,0,0,0,0,0,0,0,0,-1,1588,862,0,0
371,162,0,0,0,0,0,0,0,0,0,-1,1595,862,0,0
378,162,0,0,0,0,0,0,0,0,0,-1,1602,862,0,0
385,162,0,0,0,0,0,0,0,0,0,-1,1609,862,0,0
392,162,0,0,0,0,0,0,0,0,0,-1,1616,862,0,0
399,162,0,0,0,0,0,0,0,0,0,-1,1623,862,0,0
406,162,0,0,0,0,0,0,0,0,0,-1,1630,862,0,0
413,162,0,0,0,0,0,0,0,0,0,-1,1637,862,0,0
420,162,0,0,0,0,0,0,0,0,0,-1,1644,862,0,0
427,162,0,0,0,0,0,0,0,0,0,-1,1651,862,0,0
434,162,0,0,0,0,0,0,0,0,0,-1,1658,862,0,0
441,162,0,0,0,0,0,0,0,0,0,-1,1665,862,0,0
448,162,0,0,0,0,0,0,0,0,0,-1,1672,862,0,0
455,162,0,0,0,0,0,0,0,0,0,-1,1679,862,0,0
462,162,0,0,0,0,0,0,0,0,0,-1,1686,862,0,0
469,162,0,0,0,0,0,0,0,0,0,-1,1693,862,0,0
476,162,0,0,0,0,0,0,0,0,0,-1,1700,862,0,0
483,162,0,0,0,0,0,0,0,0,0,-1,1707,862,0,0
490,162,0,0,0,0,0,0,0,0,0,-1,1714,862,0,0
497,162,0,0,0,0,0,0,0,0,0,-1,1721,862,0,0
504,162,0,0,0,0,0,0,0,0,0,-1,1728,862,0,0
511,162,0,0,0,0,0,0,0,0,0,-1,1735,862,0,0
518,162,0,0,0,0,0,0,0,0,0,-1,1742,862,0,0
525,162,0,0,0,0,0,0,0,0,0,-1,1749,862,0,0
532,162,0,0,0,0,0,0,0,0,0,-1,1756,862,0,0
539,162,0,0,0,0,0,0,0,0,0,-1,1763,862,0,0
546,162,0,0,0,0,0,0,0,0,0,-1,1770,862,0,0
553,162,0,0,0,0,0,0,0,0,0,-1,1777,862,0,0
560,162,0,0,0,0,0,0,0,0,0,-1,1784,862,0,0
567,162,0,0,0,0,0,0,0,0,0,-1,1791,862,0,0
574,162,0,0,0,0,0,0,0,0,0,-1,1798,862,0,0
581,162,0,0,0,0,0,0,0,0,0,-1,1805,862,0,0
588,162,0,0,0,0,0,0,0,0,0,-1,1812,862,0,0
595,162,0,0,0,0,0,0,0,0,0,-1,1819,862,0,0
602,162,0,0,0,0,0,0,0,0,0,-1,1826,862,0,0
609,162,0,0,0,0,0,0,0,0,0,-1,1833,862,0,0
616,162,64.2684,2.64313,-0.00102074,-0.00125691,-0.00204507,0.000909649,-0.0031873,-0.75656,0.00248423,0.0429376,1840,862,64.2684,-2.64312
623,162,64.3066,2.77368,-0.000732328,-0.000517056,-0.00155115,0.000930185,-0.00217957,-0.820038,0.00184309,0.0469736,1847,862,64.3066,-2.7737
630,162,64.4125,2.62299,-0.000652995,0.000236934,-0.00100899,0.000894714,-0.00131078,-0.993071,0.00128087,0.0439533,1854,862,64.4124,-2.62301
637,162,64.4489,2.5946,-0.00102511,0.00097364,-0.000587942,0.00113376,-0.00118523,-1.30491,0.00133898,0.0421033,1861,862,64.4488,-2.59462
644,162,64.3783,2.69373,-0.00164928,0.0012505,-0.000456482,0.00132066,-0.00171944,-1.41829,0.00176023,0.0377631,1868,862,64.3783,-2.69373
651,162,64.3479,2.76495,-0.00233063,0.00118073,-0.000630548,0.00129052,-0.00244043,-1.3984,0.0021879,0.033955,1875,862,64.3479,-2.76496
658,162,64.2982,2.8479,-0.00271748,0.000869826,-0.000919489,0.00109177,-0.00293943,-1.33394,0.00240753,0.0367648,1882,862,64.2982,-2.84792
665,162,64.374,2.64502,0,0,0,0,0,0,0,-1,1889,862,64.374,-2.64501
672,162,56.9712,3.04034,0,0,0,0,0,0,0,-1,1896,862,56.9711,-3.04034
679,162,26.5077,2.54785,0,0,0,0,0,0,0,-1,1903,862,26.5077,-2.54787
686,162,52.6926,0.68689,0,0,0,0,0,0,0,-1,1910,862,52.6926,-0.68687
693,162,53.6965,1.48633,0,0,0,0,0,0,0,-1,1917,862,53.6965,-1.48631
700,162,53.5686,2.21301,-0.00181217,0.000927917,-0.00183824,0.0018505,-0.00273475,-1.10564,0.00266366,0.0366264,1924,862,53.5686,-2.21303
707,162,53.4208,2.87927,-0.0013936,0.000861424,-0.00195973,0.00199484,-0.00252702,-1.04644,0.00261672,0.0263198,1931,862,53.4208,-2.87925
714,162,53.2098,3.45111,-0.000703355,0.00116688,-0.00205358,0.00248823,-0.00202471,-0.999049,0.00261012,0.029955,1938,862,53.2099,-3.45112
721,162,53.0753,4.28101,8.71497e-05,0.00173303,-0.0018833,0.00296534,-0.00114516,-0.991379,0.00244953,0.0300601,1945,862,53.0753,-4.28099
728,162,53.0845,4.99078,0.000863189,0.00267408,-0.00146291,0.00348909,4.81849e-05,-1.06251,0.00231016,0.0241703,1952,862,53.0845,-4.9908
735,162,53.0963,5.68195,0.00192936,0.0041498,-0.000953945,0.00450334,0.00157582,-1.21588,0.00263876,0.012135,1959,862,53.0963,-5.68197
742,162,53.0673,6.36041,0.0030947,0.00648268,-0.000380594,0.00652491,0.00305247,-1.46029,0.00376976,0.0144629,1966,862,53.0672,-6.36043
749,162,52.9878,7.02643,0.00419983,0.00954813,0.000224583,0.00955754,0.00419042,1.5289,0.00553197,0.0210256,1973,862,52.9878,-7.0264
756,162,52.9266,7.67664,0.00507351,0.0136553,0.000834515,0.0137357,0.00499312,1.47475,0.00802816,0.0454929,1980,862,52.9266,-7.67666
763,162,52.9054,8.35864,0,0,0,0,0,0,0,-1,1987,862,52.9054,-8.35864
770,162,53.1055,8.83722,0,0,0,0,0,0,0,-1,1994,862,53.1055,-8.83719
777,162,53.4712,9.52899,0,0,0,0,0,0,0,-1,2001,862,53.4711,-9.52897
784,162,48.532,10.3329,0,0,0,0,0,0,0,-1,2008,862,48.5321,-10.3329
791,162,0,0,0,0,0,0,0,0,0,-1,2015,862,0,0
798,162,0,0,0,0,0,0,0,0,0,-1,2022,862,0,0
805,162,0,0,0,0,0,0,0,0,0,-1,2029,862,0,0
812,162,0,0,0,0,0,0,0,0,0,-1,2036,862,0,0
-700,155,0,0,0,0,0,0,0,0,0,-1,524,869,0,0
-693,155,0,0,0,0,0,0,0,0,0,-1,531,869,0,0
-686,155,0,0,0,0,0,0,0,0,0,-1,538,869,0,0
-679,155,0,0,0,0,0,0,0,0,0,-1,545,869,0,0
-672,155,0,0,0,0,0,0,0,0,0,-1,552,869,0,0
-665,155,-51.1902,2.93958,0,0,0,0,0,0,0,-1,559,869,-51.1902,-2.93958
-658,155,-51.6432,4.54553,0,0,0,0,0,0,0,-1,566,869,-51.6433,-4.54556
-651,155,-51.9577,6.39008,0,0,0,0,0,0,0,-1,573,869,-51.9577,-6.39007
-644,155,-38.8708,6.98395,0,0,0,0,0,0,0,-1,580,869,-38.8708,-6.98393
-637,155,-38.9388,6.71613,0,0,0,0,0,0,0,-1,587,869,-38.9388,-6.71612
-630,155,-39.512,6.31769,0,0,0,0,0,0,0,-1,594,869,-39.512,-6.31772
-623,155,-39.5332,5.58838,0.00188169,0.00684208,-0.00457704,0.00956771,-0.000843941,-1.03369,0.00667759,0.029277,601,869,-39.5332,-5.58841
-616,155,-39.5961,4.85461,0.000843323,0.00752865,-0.00412965,0.00949893,-0.00112696,-1.12563,0.00673976,0.0155249,608,869,-39.5961,-4.85459
-609,155,-39.6844,4.1272,-0.00116309,0.00535842,-0.00201556,0.00593107,-0.00173574,-1.29398,0.00464209,0.014089,615,869,-39.6844,-4.12718
-602,155,-39.7358,3.44763,-0.00304165,0.00339693,-0.000125403,0.00339937,-0.00304409,-1.55133,0.00372202,0.0136475,622,869,-39.7358,-3.44765
-595,155,-39.7741,2.76379,-0.00426307,0.00182347,0.00118805,0.00204715,-0.00448675,1.3847,0.003859,0.013705,629,869,-39.7741,-2.76379
-588,155,-39.7579,2.11804,-0.00440227,0.000682964,0.00161418,0.00115207,-0.00487137,1.28797,0.00369202,0.0209844,636,869,-39.7579,-2.11806
-581,155,-40.0455,1.62482,-0.00372055,0.000714984,0.00204291,0.00151251,-0.00451807,1.19861,0.00362303,0.0416116,643,869,-40.0455,-1.62483
-574,155,-40.2834,1.26874,0,0,0,0,0,0,0,-1,650,869,-40.2834,-1.26871
-567,155,-38.0134,0.582214,0,0,0,0,0,0,0,-1,657,869,-38.0134,-0.582192
-560,155,-37.1416,-0.708008,0,0,0,0,0,0,0,-1,664,869,-37.1416,0.70801
-553,155,-36.7729,-1.71521,0,0,0,0,0,0,0,-1,671,869,-36.7729,1.71523
-546,155,-22.7988,0.873657,0,0,0,0,0,0,0,-1,678,869,-22.7988,-0.873645
-539,155,-49.063,0.670715,0,0,0,0,0,0,0,-1,685,869,-49.063,-0.670732
-532,155,-49.0243,0.794678,0.000481688,0.0035498,0.00170772,0.00431131,-0.000279822,1.15134,0.00297187,0.036501,692,869,-49.0243,-0.794708
-525,155,-49.0015,1.0249,0.00178828,0.00481979,0.00106206,0.00515485,0.00145323,1.2652,0.00306907,0.0392845,699,869,-49.0016,-1.0249
-518,155,-49.1146,0.833862,0.00157034,0.00654228,2.72111e-05,0.00654243,0.00157019,1.56532,0.00394383,0.0441641,706,869,-49.1145,-0.833845
-511,155,-49.2112,0.572998,0.00152779,0.00872153,-0.00164275,0.00907891,0.00117041,-1.35658,0.00570265,0.0459138,713,869,-49.2112,-0.573021
-504,155,-49.1502,0.525024,0.0022682,0.0111745,-0.0039627,0.0126824,0.000760352,-1.2072,0.0082132,0.0431889,720,869,-49.1502,-0.525046
-497,155,0,0,0,0,0,0,0,0,0,-1,727,869,0,0
-490,155,0,0,0,0,0,0,0,0,0,-1,734,869,0,0
-483,155,0,0,0,0,0,0,0,0,0,-1,741,869,0,0
-476,155,0,0,0,0,0,0,0,0,0,-1,748,869,0,0
-469,155,0,0,0,0,0,0,0,0,0,-1,755,869,0,0
-462,155,0,0,0,0,0,0,0,0,0,-1,762,869,0,0
-455,155,0,0,0,0,0,0,0,0,0,-1,769,869,0,0
-448,155,0,0,0,0,0,0,0,0,0,-1,776,869,0,0
-441,155,0,0,0,0,0,0,0,0,0,-1,783,869,0,0
-434,155,0,0,0,0,0,0,0,0,0,-1,790,869,0,0
-427,155,0,0,0,0,0,0,0,0,0,-1,797,869,0,0
-420,155,0,0,0,0,0,0,0,0,0,-1,804,869,0,0
-413,155,0,0,0,0,0,0,0,0,0,-1,811,869,0,0
-406,155,0,0,0,0,0,0,0,0,0,-1,818,869,0,0
-399,155,0,0,0,0,0,0,0,0,0,-1,825,869,0,0
-392,155,0,0,0,0,0,0,0,0,0,-1,832,869,0,0
-385,155,0,0,0,0,0,0,0,0,0,-1,839,869,0,0
-378,155,0,0,0,0,0,0,0,0,0,-1,846,869,0,0
-371,155,0,0,0,0,0,0,0,0,0,-1,853,869,0,0
-364,155,0,0,0,0,0,0,0,0,0,-1,860,869,0,0
-357,155,0,0,0,0,0,0,0,0,0,-1,867,869,0,0
-350,155,0,0,0,0,0,0,0,0,0,-1,874,869,0,0
-343,155,0,0,0,0,0,0,0,0,0,-1,881,869,0,0
-336,155,0,0,0,0,0,0,0,0,0,-1,888,869,0,0
-329,155,0,0,0,0,0,0,0,0,0,-1,895,869,0,0
-322,155,0,0,0,0,0,0,0,0,0,-1,902,869,0,0
-315,155,0,0,0,0,0,0,0,0,0,-1,909,869,0,0
-308,155,0,0,0,0,0,0,0,0,0,-1,916,869,0,0
-301,155,0,0,0,0,0,0,0,0,0,-1,923,869,0,0
-294,155,0,0,0,0,0,0,0,0,0,-1,930,869,0,0
-287,155,0,0,0,0,0,0,0,0,0,-1,937,869,0,0
-280,155,0,0,0,0,0,0,0,0,0,-1,944,869,0,0
-273,155,0,0,0,0,0,0,0,0,0,-1,951,869,0,0
-266,155,0,0,0,0,0,0,0,0,0,-1,958,869,0,0
-259,155,0,0,0,0,0,0,0,0,0,-1,965,869,0,0
-252,155,0,0,0,0,0,0,0,0,0,-1,972,869,0,0
-245,155,0,0,0,0,0,0,0,0,0,-1,979,869,0,0
-238,155,0,0,0,0,0,0,0,0,0,-1,986,869,0,0
-231,155,0,0,0,0,0,0,0,0,0,-1,993,869,0,0
-224,155,0,0,0,0,0,0,0,0,0,-1,1000,869,0,0
-217,155,0,0,0,0,0,0,0,0,0,-1,1007,869,0,0
-210,155,0,0,0,0,0,0,0,0,0,-1,1014,869,0,0
-203,155,0,0,0,0,0,0,0,0,0,-1,1021,869,0,0
-196,155,0,0,0,0,0,0,0,0,0,-1,1028,869,0,0
-189,155,0,0,0,0,0,0,0,0,0,-1,1035,869,0,0
-182,155,0,0,0,0,0,0,0,0,0,-1,1042,869,0,0
-175,155,0,0,0,0,0,0,0,0,0,-1,1049,869,0,0
-168,155,0,0,0,0,0,0,0,0,0,-1,1056,869,0,0
-161,155,0,0,0,0,0,0,0,0,0,-1,1063,869,0,0
-154,155,0,0,0,0,0,0,0,0,0,-1,1070,869,0,0
-147,155,0,0,0,0,0,0,0,0,0,-1,1077,869,0,0
-140,155,0,0,0,0,0,0,0,0,0,-1,1084,869,0,0
-133,155,0,0,0,0,0,0,0,0,0,-1,1091,869,0,0
-126,155,0,0,0,0,0,0,0,0,0,-1,1098,869,0,0
-119,155,0,0,0,0,0,0,0,0,0,-1,1105,869,0,0
-112,155,0,0,0,0,0,0,0,0,0,-1,1112,869,0,0
-105,155,0,0,0,0,0,0,0,0,0,-1,1119,869,0,0
-98,155,0,0,0,0,0,0,0,0,0,-1,1126,869,0,0
-91,155,0,0,0,0,0,0,0,0,0,-1,1133,869,0,0
-84,155,0,0,0,0,0,0,0,0,0,-1,1140,869,0,0
-77,155,0,0,0,0,0,0,0,0,0,-1,1147,869,0,0
-70,155,0,0,0,0,0,0,0,0,0,-1,1154,869,0,0
-63,155,0,0,0,0,0,0,0,0,0,-1,1161,869,0,0
-56,155,0,0,0,0,0,0,0,0,0,-1,1168,869,0,0
-49,155,0,0,0,0,0,0,0,0,0,-1,1175,869,0,0
-42,155,0,0,0,0,0,0,0,0,0,-1,1182,869,0,0
-35,155,0,0,0,0,0,0,0,0,0,-1,1189,869,0,0
-28,155,0,0,0,0,0,0,0,0,0,-1,1196,869,0,0
-21,155,0,0,0,0,0,0,0,0,0,-1,1203,869,0,0
-14,155,0,0,0,0,0,0,0,0,0,-1,1210,869,0,0
-7,155,0,0,0,0,0,0,0,0,0,-1,1217,869,0,0
0,155,0,0,0,0,0,0,0,0,0,-1,1224,869,0,0
7,155,0,0,0,0,0,0,0,0,0,-1,1231,869,0,0
14,155,0,0,0,0,0,0,0,0,0,-1,1238,869,0,0
21,155,0,0,0,0,0,0,0,0,0,-1,1245,869,0,0
28,155,0,0,0,0,0,0,0,0,0,-1,1252,869,0,0
35,155,0,0,0,0,0,0,0,0,0,-1,1259,869,0,0
42,155,0,0,0,0,0,0,0,0,0,-1,1266,869,0,0
49,155,0,0,0,0,0,0,0,0,0,-1,1273,869,0,0
56,155,0,0,0,0,0,0,0,0,0,-1,1280,869,0,0
63,155,0,0,0,0,0,0,0,0,0,-1,1287,869,0,0
70,155,0,0,0,0,0,0,0,0,0,-1,1294,869,0,0
77,155,0,0,0,0,0,0,0,0,0,-1,1301,869,0,0
84,155,0,0,0,0,0,0,0,0,0,-1,1308,869,0,0
91,155,0,0,0,0,0,0,0,0,0,-1,1315,869,0,0
98,155,0,0,0,0,0,0,0,0,0,-1,1322,869,0,0
105,155,0,0,0,0,0,0,0,0,0,-1,1329,869,0,0
112,155,0,0,0,0,0,0,0,0,0,-1,1336,869,0,0
119,155,0,0,0,0,0,0,0,0,0,-1,1343,869,0,0
126,155,0,0,0,0,0,0,0,0,0,-1,1350,869,0,0
133,155,0,0,0,0,0,0,0,0,0,-1,1357,869,0,0
140,155,0,0,0,0,0,0,0,0,0,-1,1364,869,0,0
147,155,0,0,0,0,0,0,0,0,0,-1,1371,869,0,0
154,155,0,0,0,0,0,0,0,0,0,-1,1378,869,0,0
161,155,0,0,0,0,0,0,0,0,0,-1,1385,869,0,0
168,155,0,0,0,0,0,0,0,0,0,-1,1392,869,0,0
175,155,0,0,0,0,0,0,0,0,0,-1,1399,869,0,0
182,155,0,0,0,0,0,0,0,0,0,-1,1406,869,0,0
189,155,0,0,0,0,0,0,0,0,0,-1,1413,869,0,0
196,155,0,0,0,0,0,0,0,0,0,-1,1420,869,0,0
203,155,0,0,0,0,0,0,0,0,0,-1,1427,869,0,0
210,155,0,0,0,0,0,0,0,0,0,-1,1434,869,0,0
217,155,0,0,0,0,0,0,0,0,0,-1,1441,869,0,0
224,155,0,0,0,0,0,0,0,0,0,-1,1448,869,0,0
231,155,0,0,0,0,0,0,0,0,0,-1,1455,869,0,0
238,155,0,0,0,0,0,0,0,0,0,-1,1462,869,0,0
245,155,0,0,0,0,0,0,0,0,0,-1,1469,869,0,0
252,155,0,0,0,0,0,0,0,0,0,-1,1476,869,0,0
259,155,0,0,0,0,0,0,0,0,0,-1,1483,869,0,0
266,155,0,0,0,0,0,0,0,0,0,-1,1490,869,0,0
273,155,0,0,0,0,0,0,0,0,0,-1,1497,869,0,0
280,155,0,0,0,0,0,0,0,0,0,-1,1504,869,0,0
287,155,0,0,0,0,0,0,0,0,0,-1,1511,869,0,0
294,155,0,0,0,0,0,0,0,0,0,-1,1518,869,0,0
301,155,0,0,0,0,0,0,0,0,0,-1,1525,869,0,0
308,155,0,0,0,0,0,0,0,0,0,-1,1532,869,0,0
315,155,0,0,0,0,0,0,0,0,0,-1,1539,869,0,0
322,155,0,0,0,0,0,0,0,0,0,-1,1546,869,0,0
329,155,0,0,0,0,0,0,0,0,0,-1,1553,869,0,0
336,155,0,0,0,0,0,0,0,0,0,-1,1560,869,0,0
343,155,0,0,0,0,0,0,0,0,0,-1,1567,869,0,0
350,155,0,0,0,0,0,0,0,0,0,-1,1574,869,0,0
357,155,0,0,0,0,0,0,0,0,0,-1,1581,869,0,0
364,155,0,0,0,0,0,0,0,0,0,-1,1588,869,0,0
371,155,0,0,0,0,0,0,0,0,0,-1,1595,869,0,0
378,155,0,0,0,0,0,0,0,0,0,-1,1602,869,0,0
385,155,0,0,0,0,0,0,0,0,0,-1,1609,869,0,0
392,155,0,0,0,0,0,0,0,0,0,-1,1616,869,0,0
399,155,0,0,0,0,0,0,0,0,0,-1,1623,869,0,0
406,155,0,0,0,0,0,0,0,0,0,-1,1630,869,0,0
413,155,0,0,0,0,0,0,0,0,0,-1,1637,869,0,0
420,155,0,0,0,0,0,0,0,0,0,-1,1644,869,0,0
427,155,0,0,0,0,0,0,0,0,0,-1,1651,869,0,0
434,155,0,0,0,0,0,0,0,0,0,-1,1658,869,0,0
441,155,0,0,0,0,0,0,0,0,0,-1,1665,869,0,0
448,155,0,0,0,0,0,0,0,0,0,-1,1672,869,0,0
455,155,0,0,0,0,0,0,0,0,0,-1,1679,869,0,0
462,155,0,0,0,0,0,0,0,0,0,-1,1686,869,0,0
469,155,0,0,0,0,0,0,0,0,0,-1,1693,869,0,0
476,155,0,0,0,0,0,0,0,0,0,-1,1700,869,0,0
483,155,0,0,0,0,0,0,0,0,0,-1,1707,869,0,0
490,155,0,0,0,0,0,0,0,0,0,-1,1714,869,0,0
497,155,0,0,0,0,0,0,0,0,0,-1,1721,869,0,0
504,155,0,0,0,0,0,0,0,0,0,-1,1728,869,0,0
511,155,0,0,0,0,0,0,0,0,0,-1,1735,869,0,0
518,155,0,0,0,0,0,0,0,0,0,-1,1742,869,0,0
525,155,0,0,0,0,0,0,0,0,0,-1,1749,869,0,0
532,155,0,0,0,0,0,0,0,0,0,-1,1756,869,0,0
539,155,0,0,0,0,0,0,0,0,0,-1,1763,869,0,0
546,155,0,0,0,0,0,0,0,0,0,-1,1770,869,0,0
553,155,0,0,0,0,0,0,0,0,0,-1,1777,869,0,0
560,155,0,0,0,0,0,0,0,0,0,-1,1784,869,0,0
567,155,0,0,0,0,0,0,0,0,0,-1,1791,869,0,0
574,155,0,0,0,0,0,0,0,0,0,-1,1798,869,0,0
581,155,0,0,0,0,0,0,0,0,0,-1,1805,869,0,0
588,155,0,0,0,0,0,0,0,0,0,-1,1812,869,0,0
595,155,0,0,0,0,0,0,0,0,0,-1,1819,869,0,0
602,155,0,0,0,0,0,0,0,0,0,-1,1826,869,0,0
609,155,0,0,0,0,0,0,0,0,0,-1,1833,869,0,0
616,155,64.582,2.76532,-0.000404314,-0.00295231,-0.0023391,0.000985228,-0.00434185,-0.536034,0.00327278,0.0447845,1840,869,64.582,-2.76535
623,155,64.4148,2.91718,-0.000324981,-0.00188951,-0.00186784,0.000917785,-0.00313228,-0.587091,0.00245205,0.0464241,1847,869,64.4148,-2.91717
630,155,64.4517,2.66833,-0.000449793,-0.000897658,-0.0013815,0.000725809,-0.00207326,-0.70505,0.0016773,0.0462052,1854,869,64.4517,-2.66831
637,155,64.3386,2.62518,-0.000848648,0.000190613,-0.000915836,0.000723964,-0.001382,-1.04344,0.00123551,0.0437529,1861,869,64.3386,-2.62519
644,155,64.324,2.57336,-0.00143915,0.000848562,-0.000644707,0.00101774,-0.00160833,-1.31417,0.00152889,0.0379083,1868,869,64.3239,-2.57335
651,155,64.4114,2.5899,-0.00211297,0.00108918,-0.000667594,0.00122278,-0.00224657,-1.37327,0.0020319,0.033476,1875,869,64.4114,-2.58988
658,155,64.3755,2.62781,-0.00245383,0.000938234,-0.000836956,0.0011335,-0.0026491,-1.34159,0.00224156,0.0295709,1882,869,64.3755,-2.62778
665,155,64.3199,2.67285,-0.0025188,0.0011935,-0.00106528,0.00147747,-0.00280277,-1.31029,0.00251037,0.0368732,1889,869,64.3199,-2.67283
672,155,64.3376,2.6814,0,0,0,0,0,0,0,-1,1896,869,64.3376,-2.68143
679,155,35.1565,2.78528,0,0,0,0,0,0,0,-1,1903,869,35.1565,-2.7853
686,155,43.6101,1.63361,0,0,0,0,0,0,0,-1,1910,869,43.6101,-1.63362
693,155,53.9646,1.83643,0,0,0,0,0,0,0,-1,1917,869,53.9646,-1.8364
700,155,54.1727,2.19318,0,0,0,0,0,0,0,-1,1924,869,54.1728,-2.19316
707,155,54.2656,3.06342,0,0,0,0,0,0,0,-1,1931,869,54.2656,-3.06343
714,155,53.9949,3.46704,0,0,0,0,0,0,0,-1,1938,869,53.9949,-3.46706
721,155,53.8245,4.31049,0.000162911,0.00198629,-0.00180823,0.00309966,-0.000950459,-1.01889,0.00244562,0.0411388,1945,869,53.8245,-4.31046
728,155,53.8129,5.03015,0.000475827,0.00265496,-0.00148318,0.00340576,-0.000274978,-1.10219,0.0023675,0.0192233,1952,869,53.8128,-5.03017
735,155,53.7938,5.68829,0.000910398,0.00374035,-0.000985637,0.0040498,0.000600951,-1.26658,0.00252352,0.0169691,1959,869,53.7938,-5.68829
742,155,53.7902,6.39349,0.00139373,0.00562161,-0.000308619,0.00564402,0.00137132,-1.49831,0.00339906,0.0190428,1966,869,53.7901,-6.39346
749,155,53.7023,7.06342,0.00173737,0.00809386,0.00051407,0.00813517,0.00169606,1.49062,0.0049558,0.0176957,1973,869,53.7023,-7.06343
756,155,53.593,7.77863,0.00175825,0.0113392,0.00144365,0.011552,0.00154544,1.42445,0.00724139,0.0295306,1980,869,53.5931,-7.77862
763,155,53.636,8.61304,0.00191246,0.015556,0.00267932,0.0160633,0.00140515,1.38367,0.0102726,0.0495605,1987,869,53.636,-8.61301
770,155,53.6394,9.43854,0,0,0,0,0,0,0,-1,1994,869,53.6394,-9.43855
777,155,53.4236,10.9571,0,0,0,0,0,0,0,-1,2001,869,53.4237,-10.9571
784,155,54.7695,11.782,0,0,0,0,0,0,0,-1,2008,869,54.7696,-11.782
791,155,0,0,0,0,0,0,0,0,0,-1,2015,869,0,0
798,155,0,0,0,0,0,0,0,0,0,-1,2022,869,0,0
805,155,0,0,0,0,0,0,0,0,0,-1,2029,869,0,0
812,155,0,0,0,0,0,0,0,0,0,-1,2036,869,0,0
-700,148,0,0,0,0,0,0,0,0,0,-1,524,876,0,0
-693,148,0,0,0,0,0,0,0,0,0,-1,531,876,0,0
-686,148,0,0,0,0,0,0,0,0,0,-1,538,876,0,0
-679,148,0,0,0,0,0,0,0,0,0,-1,545,876,0,0
-672,148,-49.3899,2.88788,0,0,0,0,0,0,0,-1,552,876,-49.3899,-2.88786
-665,148,-50.0402,3.67505,0,0,0,0,0,0,0,-1,559,876,-50.0402,-3.67506
-658,148,-50.1056,4.49438,0,0,0,0,0,0,0,-1,566,876,-50.1056,-4.49439
-651,148,-50.3502,5.02454,0,0,0,0,0,0,0,-1,573,876,-50.3502,-5.02455
-644,148,-46.2215,-3.06354,0,0,0,0,0,0,0,-1,580,876,-46.2215,3.06353
-637,148,-46.8488,-3.24152,0,0,0,0,0,0,0,-1,587,876,-46.8488,3.24153
-630,148,-39.9418,6.56799,0,0,0,0,0,0,0,-1,594,876,-39.9418,-6.56796
-623,148,-40.1075,5.68347,-0.000121691,0.00723626,-0.00126298,0.00744701,-0.000332442,-1.40545,0.00507912,0.0280088,601,876,-40.1075,-5.68347
-616,148,-40.2619,4.85962,-0.00103709,0.00769749,-0.0023384,0.00828412,-0.00162372,-1.325,0.00613602,0.0137466,608,876,-40.2619,-4.85964
-609,148,-40.379,4.13611,-0.00264863,0.00509319,-0.000975337,0.00521418,-0.00276962,-1.44738,0.00468092,0.0131837,615,876,-40.379,-4.1361
-602,148,-40.4569,3.46545,-0.00393819,0.0031217,0.000529786,0.00316123,-0.00397773,1.49631,0.00413066,0.0152902,622,876,-40.4569,-3.46547
-595,148,-40.4763,2.79559,-0.00466441,0.00162724,0.00146263,0.00195064,-0.00498781,1.35319,0.00413186,0.0142319,629,876,-40.4763,-2.79558
-588,148,-40.4765,2.04224,-0.00463312,0.000532383,0.00158945,0.000982279,-0.00508302,1.29496,0.00375913,0.030361,636,876,-40.4765,-2.04224
-581,148,-40.6713,1.57739,-0.0040716,0.000599172,0.00195295,0.00130813,-0.00478056,1.22257,0.00370096,0.0470121,643,876,-40.6713,-1.57737
-574,148,-40.7026,1.34406,0,0,0,0,0,0,0,-1,650,876,-40.7027,-1.34404
-567,148,-35.6293,0.615784,0,0,0,0,0,0,0,-1,657,876,-35.6293,-0.615792
-560,148,-37.7973,-0.588135,0,0,0,0,0,0,0,-1,664,876,-37.7973,0.588143
-553,148,-18.3896,-0.00280762,0,0,0,0,0,0,0,-1,671,876,-18.3897,0.00278524
-546,148,-49.0013,0.863037,0,0,0,0,0,0,0,-1,678,876,-49.0013,-0.863045
-539,148,-48.9873,0.744507,-0.00163177,0.00209441,0.00219163,0.00310783,-0.0026452,1.13767,0.00332509,0.0491045,685,876,-48.9873,-0.744482
-532,148,-48.982,0.757996,-0.000279942,0.00277045,0.00203987,0.00379227,-0.00130176,1.10641,0.00305597,0.0362512,692,876,-48.982,-0.758001
-525,148,-48.9122,1.01367,0.000835629,0.00401918,0.0013223,0.00449676,0.000358049,1.2242,0.0028859,0.0387113,699,876,-48.9122,-1.01369
-518,148,-48.9152,1.18988,0.000527494,0.00585839,0.000423538,0.00589183,0.000494054,1.49201,0.003774,0.0464724,706,876,-48.9152,-1.18989
-511,148,-49.0404,0.700928,0.000537323,0.00810972,-0.000790383,0.00819134,0.000455705,-1.4679,0.00531551,0.0445606,713,876,-49.0404,-0.700923
-504,148,-49.0235,0.650635,0.00114414,0.0105102,-0.00221891,0.0110093,0.000645055,-1.34956,0.00713427,0.0424236,720,876,-49.0235,-0.650648
-497,148,0,0,0,0,0,0,0,0,0,-1,727,876,0,0
-490,148,0,0,0,0,0,0,0,0,0,-1,734,876,0,0
-483,148,0,0,0,0,0,0,0,0,0,-1,741,876,0,0
-476,148,0,0,0,0,0,0,0,0,0,-1,748,876,0,0
-469,148,0,0,0,0,0,0,0,0,0,-1,755,876,0,0
-462,148,0,0,0,0,0,0,0,0,0,-1,762,876,0,0
-455,148,0,0,0,0,0,0,0,0,0,-1,769,876,0,0
-448,148,0,0,0,0,0,0,0,0,0,-1,776,876,0,0
-441,148,0,0,0,0,0,0,0,0,0,-1,783,876,0,0
-434,148,0,0,0,0,0,0,0,0,0,-1,790,876,0,0
-427,148,0,0,0,0,0,0,0,0,0,-1,797,876,0,0
-420,148,0,0,0,0,0,0,0,0,0,-1,804,876,0,0
-413,148,0,0,0,0,0,0,0,0,0,-1,811,876,0,0
-406,148,0,0,0,0,0,0,0,0,0,-1,818,876,0,0
-399,148,0,0,0,0,0,0,0,0,0,-1,825,876,0,0
-392,148,0,0,0,0,0,0,0,0,0,-1,832,876,0,0
-385,148,0,0,0,0,0,0,0,0,0,-1,839,876,0,0
-378,148,0,0,0,0,0,0,0,0,0,-1,846,876,0,0
-371,148,0,0,0,0,0,0,0,0,0,-1,853,876,0,0
-364,148,0,0,0,0,0,0,0,0,0,-1,860,876,0,0
-357,148,0,0,0,0,0,0,0,0,0,-1,867,876,0,0
-350,148,0,0,0,0,0,0,0,0,0,-1,874,876,0,0
-343,148,0,0,0,0,0,0,0,0,0,-1,881,876,0,0
-336,148,0,0,0,0,0,0,0,0,0,-1,888,876,0,0
-329,148,0,0,0,0,0,0,0,0,0,-1,895,876,0,0
-322,148,0,0,0,0,0,0,0,0,0,-1,902,876,0,0
-315,148,0,0,0,0,0,0,0,0,0,-1,909,876,0,0
-308,148,0,0,0,0,0,0,0,0,0,-1,916,876,0,0
-301,148,0,0,0,0,0,0,0,0,0,-1,923,876,0,0
-294,148,0,0,0,0,0,0,0,0,0,-1,930,876,0,0
-287,148,0,0,0,0,0,0,0,0,0,-1,937,876,0,0
-280,148,0,0,0,0,0,0,0,0,0,-1,944,876,0,0
-273,148,0,0,0,0,0,0,0,0,0,-1,951,876,0,0
-266,148,0,0,0,0,0,0,0,0,0,-1,958,876,0,0
-259,148,0,0,0,0,0,0,0,0,0,-1,965,876,0,0
-252,148,0,0,0,0,0,0,0,0,0,-1,972,876,0,0
-245,148,0,0,0,0,0,0,0,0,0,-1,979,876,0,0
-238,148,0,0,0,0,0,0,0,0,0,-1,986,876,0,0
-231,148,0,0,0,0,0,0,0,0,0,-1,993,876,0,0
-224,148,0,0,0,0,0,0,0,0,0,-1,1000,876,0,0
-217,148,0,0,0,0,0,0,0,0,0,-1,1007,876,0,0
-210,148,0,0,0,0,0,0,0,0,0,-1,1014,876,0,0
-203,148,0,0,0,0,0,0,0,0,0,-1,1021,876,0,0
-196,148,0,0,0,0,0,0,0,0,0,-1,1028,876,0,0
-189,148,0,0,0,0,0,0,0,0,0,-1,1035,876,0,0
-182,148,0,0,0,0,0,0,0,0,0,-1,1042,876,0,0
-175,148,0,0,0,0,0,0,0,0,0,-1,1049,876,0,0
-168,148,0,0,0,0,0,0,0,0,0,-1,1056,876,0,0
-161,148,0,0,0,0,0,0,0,0,0,-1,1063,876,0,0
-154,148,0,0,0,0,0,0,0,0,0,-1,1070,876,0,0
-147,148,0,0,0,0,0,0,0,0,0,-1,1077,876,0,0
-140,148,0,0,0,0,0,0,0,0,0,-1,1084,876,0,0
-133,148,0,0,0,0,0,0,0,0,0,-1,1091,876,0,0
-126,148,0,0,0,0,0,0,0,0,0,-1,1098,876,0,0
-119,148,0,0,0,0,0,0,0,0,0,-1,1105,876,0,0
-112,148,0,0,0,0,0,0,0,0,0,-1,1112,876,0,0
-105,148,0,0,0,0,0,0,0,0,0,-1,1119,876,0,0
-98,148,0,0,0,0,0,0,0,0,0,-1,1126,876,0,0
-91,148,0,0,0,0,0,0,0,0,0,-1,1133,876,0,0
-84,148,0,0,0,0,0,0,0,0,0,-1,1140,876,0,0
-77,148,0,0,0,0,0,0,0,0,0,-1,1147,876,0,0
-70,148,0,0,0,0,0,0,0,0,0,-1,1154,876,0,0
-63,148,0,0,0,0,0,0,0,0,0,-1,1161,876,0,0
-56,148,0,0,0,0,0,0,0,0,0,-1,1168,876,0,0
-49,148,0,0,0,0,0,0,0,0,0,-1,1175,876,0,0
-42,148,0,0,0,0,0,0,0,0,0,-1,1182,876,0,0
-35,148,0,0,0,0,0,0,0,0,0,-1,1189,876,0,0
-28,148,0,0,0,0,0,0,0,0,0,-1,1196,876,0,0
-21,148,0,0,0,0,0,0,0,0,0,-1,1203,876,0,0
-14,148,0,0,0,0,0,0,0,0,0,-1,1210,876,0,0
-7,148,0,0,0,0,0,0,0,0,0,-1,1217,876,0,0
0,148,0,0,0,0,0,0,0,0,0,-1,1224,876,0,0
7,148,0,0,0,0,0,0,0,0,0,-1,1231,876,0,0
14,148,0,0,0,0,0,0,0,0,0,-1,1238,876,0,0
21,148,0,0,0,0,0,0,0,0,0,-1,1245,876,0,0
28,148,0,0,0,0,0,0,0,0,0,-1,1252,876,0,0
35,148,0,0,0,0,0,0,0,0,0,-1,1259,876,0,0
42,148,0,0,0,0,0,0,0,0,0,-1,1266,876,0,0
49,148,0,0,0,0,0,0,0,0,0,-1,1273,876,0,0
56,148,0,0,0,0,0,0,0,0,0,-1,1280,876,0,0
63,148,0,0,0,0,0,0,0,0,0,-1,1287,876,0,0
70,148,0,0,0,0,0,0,0,0,0,-1,1294,876,0,0
77,148,0,0,0,0,0,0,0,0,0,-1,1301,876,0,0
84,148,0,0,0,0,0,0,0,0,0,-1,1308,876,0,0
91,148,0,0,0,0,0,0,0,0,0,-1,1315,876,0,0
98,148,0,0,0,0,0,0,0,0,0,-1,1322,876,0,0
105,148,0,0,0,0,0,0,0,0,0,-1,1329,876,0,0
112,148,0,0,0,0,0,0,0,0,0,-1,1336,876,0,0
119,148,0,0,0,0,0,0,0,0,0,-1,1343,876,0,0
126,148,0,0,0,0,0,0,0,0,0,-1,1350,876,0,0
133,148,0,0,0,0,0,0,0,0,0,-1,1357,876,0,0
140,148,0,0,0,0,0,0,0,0,0,-1,1364,876,0,0
147,148,0,0,0,0,0,0,0,0,0,-1,1371,876,0,0
154,148,0,0,0,0,0,0,0,0,0,-1,1378,876,0,0
161,148,0,0,0,0,0,0,0,0,0,-1,1385,876,0,0
168,148,0,0,0,0,0,0,0,0,0,-1,1392,876,0,0
175,148,0,0,0,0,0,0,0,0,0,-1,1399,876,0,0
182,148,0,0,0,0,0,0,0,0,0,-1,1406,876,0,0
189,148,0,0,0,0,0,0,0,0,0,-1,1413,876,0,0
196,148,0,0,0,0,0,0,0,0,0,-1,1420,876,0,0
203,148,0,0,0,0,0,0,0,0,0,-1,1427,876,0,0
210,148,0,0,0,0,0,0,0,0,0,-1,1434,876,0,0
217,148,0,0,0,0,0,0,0,0,0,-1,1441,876,0,0
224,148,0,0,0,0,0,0,0,0,0,-1,1448,876,0,0
231,148,0,0,0,0,0,0,0,0,0,-1,1455,876,0,0
238,148,0,0,0,0,0,0,0,0,0,-1,1462,876,0,0
245,148,0,0,0,0,0,0,0,0,0,-1,1469,876,0,0
252,148,0,0,0,0,0,0,0,0,0,-1,1476,876,0,0
259,148,0,0,0,0,0,0,0,0,0,-1,1483,876,0,0
266,148,0,0,0,0,0,0,0,0,0,-1,1490,876,0,0
273,148,0,0,0,0,0,0,0,0,0,-1,1497,876,0,0
280,148,0,0,0,0,0,0,0,0,0,-1,1504,876,0,0
287,148,0,0,0,0,0,0,0,0,0,-1,1511,876,0,0
294,148,0,0,0,0,0,0,0,0,0,-1,1518,876,0,0
301,148,0,0,0,0,0,0,0,0,0,-1,1525,876,0,0
308,148,0,0,0,0,0,0,0,0,0,-1,1532,876,0,0
315,148,0,0,0,0,0,0,0,0,0,-1,1539,876,0,0
322,148,0,0,0,0,0,0,0,0,0,-1,1546,876,0,0
329,148,0,0,0,0,0,0,0,0,0,-1,1553,876,0,0
336,148,0,0,0,0,0,0,0,0,0,-1,1560,876,0,0
343,148,0,0,0,0,0,0,0,0,0,-1,1567,876,0,0
350,148,0,0,0,0,0,0,0,0,0,-1,1574,876,0,0
357,148,0,0,0,0,0,0,0,0,0,-1,1581,876,0,0
364,148,0,0,0,0,0,0,0,0,0,-1,1588,876,0,0
371,148,0,0,0,0,0,0,0,0,0,-1,1595,876,0,0
378,148,0,0,0,0,0,0,0,0,0,-1,1602,876,0,0
385,148,0,0,0,0,0,0,0,0,0,-1,1609,876,0,0
392,148,0,0,0,0,0,0,0,0,0,-1,1616,876,0,0
399,148,0,0,0,0,0,0,0,0,0,-1,1623,876,0,0
406,148,0,0,0,0,0,0,0,0,0,-1,1630,876,0,0
413,148,0,0,0,0,0,0,0,0,0,-1,1637,876,0,0
420,148,0,0,0,0,0,0,0,0,0,-1,1644,876,0,0
427,148,0,0,0,0,0,0,0,0,0,-1,1651,876,0,0
434,148,0,0,0,0,0,0,0,0,0,-1,1658,876,0,0
441,148,0,0,0,0,0,0,0,0,0,-1,1665,876,0,0
448,148,0,0,0,0,0,0,0,0,0,-1,1672,876,0,0
455,148,0,0,0,0,0,0,0,0,0,-1,1679,876,0,0
462,148,0,0,0,0,0,0,0,0,0,-1,1686,876,0,0
469,148,0,0,0,0,0,0,0,0,0,-1,1693,876,0,0
476,148,0,0,0,0,0,0,0,0,0,-1,1700,876,0,0
483,148,0,0,0,0,0,0,0,0,0,-1,1707,876,0,0
490,148,0,0,0,0,0,0,0,0,0,-1,1714,876,0,0
497,148,0,0,0,0,0,0,0,0,0,-1,1721,876,0,0
504,148,0,0,0,0,0,0,0,0,0,-1,1728,876,0,0
511,148,0,0,0,0,0,0,0,0,0,-1,1735,876,0,0
518,148,0,0,0,0,0,0,0,0,0,-1,1742,876,0,0
525,148,0,0,0,0,0,0,0,0,0,-1,1749,876,0,0
532,148,0,0,0,0,0,0,0,0,0,-1,1756,876,0,0
539,148,0,0,0,0,0,0,0,0,0,-1,1763,876,0,0
546,148,0,0,0,0,0,0,0,0,0,-1,1770,876,0,0
553,148,0,0,0,0,0,0,0,0,0,-1,1777,876,0,0
560,148,0,0,0,0,0,0,0,0,0,-1,1784,876,0,0
567,148,0,0,0,0,0,0,0,0,0,-1,1791,876,0,0
574,148,0,0,0,0,0,0,0,0,0,-1,1798,876,0,0
581,148,0,0,0,0,0,0,0,0,0,-1,1805,876,0,0
588,148,0,0,0,0,0,0,0,0,0,-1,1812,876,0,0
595,148,0,0,0,0,0,0,0,0,0,-1,1819,876,0,0
602,148,0,0,0,0,0,0,0,0,0,-1,1826,876,0,0
609,148,0,0,0,0,0,0,0,0,0,-1,1833,876,0,0
616,148,0,0,0,0,0,0,0,0,0,-1,1840,876,0,0
623,148,64.4032,2.9812,0.000316218,-0.00298846,-0.00249241,0.00165425,-0.00432649,-0.492686,0.00356602,0.0417026,1847,876,64.4033,-2.98122
630,148,64.2919,2.84088,-3.35393e-05,-0.00193085,-0.00196723,0.00120183,-0.00316622,-0.560733,0.00260551,0.0432993,1854,876,64.2918,-2.84091
637,148,64.3236,2.68439,-0.000585698,-0.00065869,-0.00141979,0.000798063,-0.00204245,-0.772548,0.00169162,0.0397656,1861,876,64.3236,-2.68437
644,148,64.3621,2.57281,-0.00126123,0.000314513,-0.000972326,0.000778105,-0.00172482,-1.12589,0.00147912,0.0373797,1868,876,64.3621,-2.5728
651,148,64.4072,2.46631,-0.00200123,0.000886427,-0.000791423,0.00108911,-0.00220391,-1.32009,0.0019372,0.0366354,1875,876,64.4072,-2.46633
658,148,64.3966,2.52838,-0.00232957,0.000977387,-0.000787484,0.00115533,-0.00250752,-1.34856,0.00216225,0.0343651,1882,876,64.3966,-2.52838
665,148,64.2455,2.77362,-0.00233599,0.00139851,-0.000933116,0.00161869,-0.00255616,-1.33908,0.00243052,0.0275861,1889,876,64.2455,-2.77364
672,148,64.3124,2.68445,-0.00198703,0.00140742,-0.00111518,0.00174101,-0.00232062,-1.28014,0.00235293,0.0420598,1896,876,64.3123,-2.68447
679,148,64.3525,2.50684,0,0,0,0,0,0,0,-1,1903,876,64.3526,-2.50685
686,148,21.6195,2.40845,0,0,0,0,0,0,0,-1,1910,876,21.6196,-2.40846
693,148,48.1387,1.97351,0,0,0,0,0,0,0,-1,1917,876,48.1387,-1.97351
700,148,55.0132,2.84442,0,0,0,0,0,0,0,-1,1924,876,55.0132,-2.84444
707,148,55.0565,3.2984,0,0,0,0,0,0,0,-1,1931,876,55.0565,-3.29843
714,148,54.9481,3.79413,0,0,0,0,0,0,0,-1,1938,876,54.9481,-3.79412
721,148,54.7207,4.25995,0,0,0,0,0,0,0,-1,1945,876,54.7208,-4.25997
728,148,54.5596,5.04675,0.000549088,0.00272027,-0.0013485,0.00336586,-9.64941e-05,-1.1243,0.00227675,0.0209568,1952,876,54.5596,-5.04677
735,148,54.547,5.73389,0.000612895,0.00344558,-0.000865201,0.00368893,0.000369539,-1.29661,0.00234583,0.0208247,1959,876,54.547,-5.73389
742,148,54.4806,6.41473,0.000737619,0.00482305,-7.36683e-05,0.00482438,0.000736291,-1.55277,0.00300108,0.021984,1966,876,54.4806,-6.41474
749,148,54.371,7.06183,0.000850389,0.006632,0.00100804,0.00680271,0.000679674,1.40303,0.00432642,0.0212085,1973,876,54.371,-7.06181
756,148,54.2687,7.78748,0.000910537,0.00894797,0.00229592,0.00955757,0.000300936,1.31127,0.0062738,0.0259125,1980,876,54.2687,-7.78745
763,148,54.0206,8.54022,0.00161949,0.0118187,0.00407239,0.0132452,0.000192969,1.23386,0.00876653,0.0457441,1987,876,54.0206,-8.54023
770,148,53.7452,9.29272,0,0,0,0,0,0,0,-1,1994,876,53.7452,-9.29271
777,148,55.127,10.5146,0,0,0,0,0,0,0,-1,2001,876,55.1269,-10.5146
784,148,56.3201,11.4732,0,0,0,0,0,0,0,-1,2008,876,56.3201,-11.4732
791,148,57.4717,12.5975,0,0,0,0,0,0,0,-1,2015,876,57.4717,-12.5974
798,148,0,0,0,0,0,0,0,0,0,-1,2022,876,0,0
805,148,0,0,0,0,0,0,0,0,0,-1,2029,876,0,0
812,148,0,0,0,0,0,0,0,0,0,-1,2036,876,0,0
-700,141,0,0,0,0,0,0,0,0,0,-1,524,883,0,0
-693,141,0,0,0,0,0,0,0,0,0,-1,531,883,0,0
-686,141,0,0,0,0,0,0,0,0,0,-1,538,883,0,0
-679,141,0,0,0,0,0,0,0,0,0,-1,545,883,0,0
-672,141,-48.4644,3.72797,0,0,0,0,0,0,0,-1,552,883,-48.4644,-3.72796
-665,141,-48.707,4.29004,0,0,0,0,0,0,0,-1,559,883,-48.707,-4.29002
-658,141,-48.97,4.71417,0,0,0,0,0,0,0,-1,566,883,-48.9699,-4.71417
-651,141,-49.2051,5.1496,0,0,0,0,0,0,0,-1,573,883,-49.2051,-5.14957
-644,141,-45.9885,-1.76727,0,0,0,0,0,0,0,-1,580,883,-45.9885,1.76725
-637,141,-46.5847,-1.9599,0,0,0,0,0,0,0,-1,587,883,-46.5847,1.95991
-630,141,-40.5409,6.53107,0,0,0,0,0,0,0,-1,594,883,-40.5409,-6.53108
-623,141,-40.7384,5.61102,-0.000129866,0.0088518,0.00109231,0.00898273,-0.000260799,1.4515,0.00607729,0.0332607,601,883,-40.7384,-5.61103
-616,141,-40.9766,4.81689,-0.001757,0.00850188,-0.000677789,0.00854647,-0.00180158,-1.50511,0.00638349,0.0135727,608,883,-40.9766,-4.81687
-609,141,-41.1,4.15198,-0.00364474,0.0051143,6.58628e-05,0.00511479,-0.00364524,1.56328,0.00508127,0.0142347,615,883,-41.1,-4.15196
-602,141,-41.153,3.48785,-0.00475186,0.00293482,0.00112416,0.00309585,-0.0049129,1.42852,0.00466335,0.0160521,622,883,-41.153,-3.48787
-595,141,-41.1281,2.78918,-0.00532227,0.00141872,0.0016846,0.00181626,-0.00571982,1.33905,0.00454135,0.0175541,629,883,-41.1281,-2.78916
-588,141,-41.5038,2.05817,-0.00527515,0.000317795,0.00158707,0.000736762,-0.00569412,1.3127,0.00406399,0.0353066,636,883,-41.5038,-2.05817
-581,141,-41.8329,1.31763,0,0,0,0,0,0,0,-1,643,883,-41.8329,-1.31766
-574,141,-40.1053,1.09406,0,0,0,0,0,0,0,-1,650,883,-40.1054,-1.09403
-567,141,-30.5335,0.480103,0,0,0,0,0,0,0,-1,657,883,-30.5335,-0.480081
-560,141,-30.5542,0.23175,0,0,0,0,0,0,0,-1,664,883,-30.5542,-0.231742
-553,141,-32.0876,1.39459,0,0,0,0,0,0,0,-1,671,883,-32.0876,-1.3946
-546,141,-48.9667,0.84967,0,0,0,0,0,0,0,-1,678,883,-48.9667,-0.849677
-539,141,-48.947,0.83136,-0.00246161,0.00108871,0.0021472,0.00209953,-0.00347243,1.13081,0.00324936,0.0316232,685,883,-48.947,-0.83135
-532,141,-48.9283,0.838684,-0.00110557,0.0017545,0.0020331,0.00281013,-0.00216119,1.09189,0.00287833,0.0309739,692,883,-48.9283,-0.838709
-525,141,-48.8434,0.969055,-0.000254422,0.00298138,0.00137827,0.00348886,-0.000761902,1.218,0.00261711,0.0398489,699,883,-48.8434,-0.969056
-518,141,-48.9846,1.367,0,0,0,0,0,0,0,-1,706,883,-48.9845,-1.36698
-511,141,-49.0707,1.24243,0,0,0,0,0,0,0,-1,713,883,-49.0707,-1.24241
-504,141,-48.9954,0.907898,0,0,0,0,0,0,0,-1,720,883,-48.9953,-0.90789
-497,141,0,0,0,0,0,0,0,0,0,-1,727,883,0,0
-490,141,0,0,0,0,0,0,0,0,0,-1,734,883,0,0
-483,141,0,0,0,0,0,0,0,0,0,-1,741,883,0,0
-476,141,0,0,0,0,0,0,0,0,0,-1,748,883,0,0
-469,141,0,0,0,0,0,0,0,0,0,-1,755,883,0,0
-462,141,0,0,0,0,0,0,0,0,0,-1,762,883,0,0
-455,141,0,0,0,0,0,0,0,0,0,-1,769,883,0,0
-448,141,0,0,0,0,0,0,0,0,0,-1,776,883,0,0
-441,141,0,0,0,0,0,0,0,0,0,-1,783,883,0,0
-434,141,0,0,0,0,0,0,0,0,0,-1,790,883,0,0
-427,141,0,0,0,0,0,0,0,0,0,-1,797,883,0,0
-420,141,0,0,0,0,0,0,0,0,0,-1,804,883,0,0
-413,141,0,0,0,0,0,0,0,0,0,-1,811,883,0,0
-406,141,0,0,0,0,0,0,0,0,0,-1,818,883,0,0
-399,141,0,0,0,0,0,0,0,0,0,-1,825,883,0,0
-392,141,0,0,0,0,0,0,0,0,0,-1,832,883,0,0
-385,141,0,0,0,0,0,0,0,0,0,-1,839,883,0,0
-378,141,0,0,0,0,0,0,0,0,0,-1,846,883,0,0
-371,141,0,0,0,0,0,0,0,0,0,-1,853,883,0,0
-364,141,0,0,0,0,0,0,0,0,0,-1,860,883,0,0
-357,141,0,0,0,0,0,0,0,0,0,-1,867,883,0,0
-350,141,0,0,0,0,0,0,0,0,0,-1,874,883,0,0
-343,141,0,0,0,0,0,0,0,0,0,-1,881,883,0,0
-336,141,0,0,0,0,0,0,0,0,0,-1,888,883,0,0
-329,141,0,0,0,0,0,0,0,0,0,-1,895,883,0,0
-322,141,0,0,0,0,0,0,0,0,0,-1,902,883,0,0
-315,141,0,0,0,0,0,0,0,0,0,-1,909,883,0,0
-308,141,0,0,0,0,0,0,0,0,0,-1,916,883,0,0
-301,141,0,0,0,0,0,0,0,0,0,-1,923,883,0,0
-294,141,0,0,0,0,0,0,0,0,0,-1,930,883,0,0
-287,141,0,0,0,0,0,0,0,0,0,-1,937,883,0,0
-280,141,0,0,0,0,0,0,0,0,0,-1,944,883,0,0
-273,141,0,0,0,0,0,0,0,0,0,-1,951,883,0,0
-266,141,0,0,0,0,0,0,0,0,0,-1,958,883,0,0
-259,141,0,0,0,0,0,0,0,0,0,-1,965,883,0,0
-252,141,0,0,0,0,0,0,0,0,0,-1,972,883,0,0
-245,141,0,0,0,0,0,0,0,0,0,-1,979,883,0,0
-238,141,0,0,0,0,0,0,0,0,0,-1,986,883,0,0
-231,141,0,0,0,0,0,0,0,0,0,-1,993,883,0,0
-224,141,0,0,0,0,0,0,0,0,0,-1,1000,883,0,0
-217,141,0,0,0,0,0,0,0,0,0,-1,1007,883,0,0
-210,141,0,0,0,0,0,0,0,0,0,-1,1014,883,0,0
-203,141,0,0,0,0,0,0,0,0,0,-1,1021,883,0,0
-196,141,0,0,0,0,0,0,0,0,0,-1,1028,883,0,0
-189,141,0,0,0,0,0,0,0,0,0,-1,1035,883,0,0
-182,141,0,0,0,0,0,0,0,0,0,-1,1042,883,0,0
-175,141,0,0,0,0,0,0,0,0,0,-1,1049,883,0,0
-168,141,0,0,0,0,0,0,0,0,0,-1,1056,883,0,0
-161,141,0,0,0,0,0,0,0,0,0,-1,1063,883,0,0
-154,141,0,0,0,0,0,0,0,0,0,-1,1070,883,0,0
-147,141,0,0,0,0,0,0,0,0,0,-1,1077,883,0,0
-140,141,0,0,0,0,0,0,0,0,0,-1,1084,883,0,0
-133,141,0,0,0,0,0,0,0,0,0,-1,1091,883,0,0
-126,141,0,0,0,0,0,0,0,0,0,-1,1098,883,0,0
-119,141,0,0,0,0,0,0,0,0,0,-1,1105,883,0,0
-112,141,0,0,0,0,0,0,0,0,0,-1,1112,883,0,0
-105,141,0,0,0,0,0,0,0,0,0,-1,1119,883,0,0
-98,141,0,0,0,0,0,0,0,0,0,-1,1126,883,0,0
-91,141,0,0,0,0,0,0,0,0,0,-1,1133,883,0,0
-84,141,0,0,0,0,0,0,0,0,0,-1,1140,883,0,0
-77,141,0,0,0,0,0,0,0,0,0,-1,1147,883,0,0
-70,141,0,0,0,0,0,0,0,0,0,-1,1154,883,0,0
-63,141,0,0,0,0,0,0,0,0,0,-1,1161,883,0,0
-56,141,0,0,0,0,0,0,0,0,0,-1,1168,883,0,0
-49,141,0,0,0,0,0,0,0,0,0,-1,1175,883,0,0
-42,141,0,0,0,0,0,0,0,0,0,-1,1182,883,0,0
-35,141,0,0,0,0,0,0,0,0,0,-1,1189,883,0,0
-28,141,0,0,0,0,0,0,0,0,0,-1,1196,883,0,0
-21,141,0,0,0,0,0,0,0,0,0,-1,1203,883,0,0
-14,141,0,0,0,0,0,0,0,0,0,-1,1210,883,0,0
-7,141,0,0,0,0,0,0,0,0,0,-1,1217,883,0,0
0,141,0,0,0,0,0,0,0,0,0,-1,1224,883,0,0
7,141,0,0,0,0,0,0,0,0,0,-1,1231,883,0,0
14,141,0,0,0,0,0,0,0,0,0,-1,1238,883,0,0
21,141,0,0,0,0,0,0,0,0,0,-1,1245,883,0,0
28,141,0,0,0,0,0,0,0,0,0,-1,1252,883,0,0
35,141,0,0,0,0,0,0,0,0,0,-1,1259,883,0,0
42,141,0,0,0,0,0,0,0,0,0,-1,1266,883,0,0
49,141,0,0,0,0,0,0,0,0,0,-1,1273,883,0,0
56,141,0,0,0,0,0,0,0,0,0,-1,1280,883,0,0
63,141,0,0,0,0,0,0,0,0,0,-1,1287,883,0,0
70,141,0,0,0,0,0,0,0,0,0,-1,1294,883,0,0
77,141,0,0,0,0,0,0,0,0,0,-1,1301,883,0,0
84,141,0,0,0,0,0,0,0,0,0,-1,1308,883,0,0
91,141,0,0,0,0,0,0,0,0,0,-1,1315,883,0,0
98,141,0,0,0,0,0,0,0,0,0,-1,1322,883,0,0
105,141,0,0,0,0,0,0,0,0,0,-1,1329,883,0,0
112,141,0,0,0,0,0,0,0,0,0,-1,1336,883,0,0
119,141,0,0,0,0,0,0,0,0,0,-1,1343,883,0,0
126,141,0,0,0,0,0,0,0,0,0,-1,1350,883,0,0
133,141,0,0,0,0,0,0,0,0,0,-1,1357,883,0,0
140,141,0,0,0,0,0,0,0,0,0,-1,1364,883,0,0
147,141,0,0,0,0,0,0,0,0,0,-1,1371,883,0,0
154,141,0,0,0,0,0,0,0,0,0,-1,1378,883,0,0
161,141,0,0,0,0,0,0,0,0,0,-1,1385,883,0,0
168,141,0,0,0,0,0,0,0,0,0,-1,1392,883,0,0
175,141,0,0,0,0,0,0,0,0,0,-1,1399,883,0,0
182,141,0,0,0,0,0,0,0,0,0,-1,1406,883,0,0
189,141,0,0,0,0,0,0,0,0,0,-1,1413,883,0,0
196,141,0,0,0,0,0,0,0,0,0,-1,1420,883,0,0
203,141,0,0,0,0,0,0,0,0,0,-1,1427,883,0,0
210,141,0,0,0,0,0,0,0,0,0,-1,1434,883,0,0
217,141,0,0,0,0,0,0,0,0,0,-1,1441,883,0,0
224,141,0,0,0,0,0,0,0,0,0,-1,1448,883,0,0
231,141,0,0,0,0,0,0,0,0,0,-1,1455,883,0,0
238,141,0,0,0,0,0,0,0,0,0,-1,1462,883,0,0
245,141,0,0,0,0,0,0,0,0,0,-1,1469,883,0,0
252,141,0,0,0,0,0,0,0,0,0,-1,1476,883,0,0
259,141,0,0,0,0,0,0,0,0,0,-1,1483,883,0,0
266,141,0,0,0,0,0,0,0,0,0,-1,1490,883,0,0
273,141,0,0,0,0,0,0,0,0,0,-1,1497,883,0,0
280,141,0,0,0,0,0,0,0,0,0,-1,1504,883,0,0
287,141,0,0,0,0,0,0,0,0,0,-1,1511,883,0,0
294,141,0,0,0,0,0,0,0,0,0,-1,1518,883,0,0
301,141,0,0,0,0,0,0,0,0,0,-1,1525,883,0,0
308,141,0,0,0,0,0,0,0,0,0,-1,1532,883,0,0
315,141,0,0,0,0,0,0,0,0,0,-1,1539,883,0,0
322,141,0,0,0,0,0,0,0,0,0,-1,1546,883,0,0
329,141,0,0,0,0,0,0,0,0,0,-1,1553,883,0,0
336,141,0,0,0,0,0,0,0,0,0,-1,1560,883,0,0
343,141,0,0,0,0,0,0,0,0,0,-1,1567,883,0,0
350,141,0,0,0,0,0,0,0,0,0,-1,1574,883,0,0
357,141,0,0,0,0,0,0,0,0,0,-1,1581,883,0,0
364,141,0,0,0,0,0,0,0,0,0,-1,1588,883,0,0
371,141,0,0,0,0,0,0,0,0,0,-1,1595,883,0,0
378,141,0,0,0,0,0,0,0,0,0,-1,1602,883,0,0
385,141,0,0,0,0,0,0,0,0,0,-1,1609,883,0,0
392,141,0,0,0,0,0,0,0,0,0,-1,1616,883,0,0
399,141,0,0,0,0,0,0,0,0,0,-1,1623,883,0,0
406,141,0,0,0,0,0,0,0,0,0,-1,1630,883,0,0
413,141,0,0,0,0,0,0,0,0,0,-1,1637,883,0,0
420,141,0,0,0,0,0,0,0,0,0,-1,1644,883,0,0
427,141,0,0,0,0,0,0,0,0,0,-1,1651,883,0,0
434,141,0,0,0,0,0,0,0,0,0,-1,1658,883,0,0
441,141,0,0,0,0,0,0,0,0,0,-1,1665,883,0,0
448,141,0,0,0,0,0,0,0,0,0,-1,1672,883,0,0
455,141,0,0,0,0,0,0,0,0,0,-1,1679,883,0,0
462,141,0,0,0,0,0,0,0,0,0,-1,1686,883,0,0
469,141,0,0,0,0,0,0,0,0,0,-1,1693,883,0,0
476,141,0,0,0,0,0,0,0,0,0,-1,1700,883,0,0
483,141,0,0,0,0,0,0,0,0,0,-1,1707,883,0,0
490,141,0,0,0,0,0,0,0,0,0,-1,1714,883,0,0
497,141,0,0,0,0,0,0,0,0,0,-1,1721,883,0,0
504,141,0,0,0,0,0,0,0,0,0,-1,1728,883,0,0
511,141,0,0,0,0,0,0,0,0,0,-1,1735,883,0,0
518,141,0,0,0,0,0,0,0,0,0,-1,1742,883,0,0
525,141,0,0,0,0,0,0,0,0,0,-1,1749,883,0,0
532,141,0,0,0,0,0,0,0,0,0,-1,1756,883,0,0
539,141,0,0,0,0,0,0,0,0,0,-1,1763,883,0,0
546,141,0,0,0,0,0,0,0,0,0,-1,1770,883,0,0
553,141,0,0,0,0,0,0,0,0,0,-1,1777,883,0,0
560,141,0,0,0,0,0,0,0,0,0,-1,1784,883,0,0
567,141,0,0,0,0,0,0,0,0,0,-1,1791,883,0,0
574,141,0,0,0,0,0,0,0,0,0,-1,1798,883,0,0
581,141,0,0,0,0,0,0,0,0,0,-1,1805,883,0,0
588,141,0,0,0,0,0,0,0,0,0,-1,1812,883,0,0
595,141,0,0,0,0,0,0,0,0,0,-1,1819,883,0,0
602,141,0,0,0,0,0,0,0,0,0,-1,1826,883,0,0
609,141,0,0,0,0,0,0,0,0,0,-1,1833,883,0,0
616,141,0,0,0,0,0,0,0,0,0,-1,1840,883,0,0
623,141,64.2637,2.99274,0.00142047,-0.00405082,-0.0029597,0.00271516,-0.00534551,-0.412359,0.0047357,0.0453431,1847,883,64.2637,-2.99271
630,141,64.28,2.81708,0.000722066,-0.00288641,-0.00247373,0.00197963,-0.00414397,-0.470318,0.00360832,0.0451075,1854,883,64.28,-2.81708
637,141,64.3928,2.66156,-7.92848e-05,-0.00147526,-0.00193328,0.00127815,-0.00283269,-0.612161,0.0024293,0.0414643,1861,883,64.3928,-2.66155
644,141,64.3479,2.54578,-0.000928289,-0.000254632,-0.00137782,0.000826933,-0.00200986,-0.905279,0.00168462,0.0391929,1868,883,64.3479,-2.54581
651,141,64.3815,2.5769,-0.00178136,0.00062513,-0.000988124,0.000978866,-0.00213509,-1.22702,0.00183869,0.0384673,1875,883,64.3815,-2.57687
658,141,64.3987,2.62225,-0.0021249,0.000989024,-0.000757979,0.00116373,-0.0022996,-1.34427,0.00203509,0.0366717,1882,883,64.3987,-2.62223
665,141,64.2577,2.72913,-0.00205595,0.0015682,-0.000754611,0.00171905,-0.00220679,-1.3735,0.00227241,0.02977,1889,883,64.2577,-2.72916
672,141,64.2521,2.72363,-0.00165501,0.00158874,-0.000890825,0.00181728,-0.00188356,-1.31966,0.00213679,0.0247076,1896,883,64.2521,-2.72363
679,141,64.1729,2.78241,-0.00138804,0.00150433,-0.00097608,0.0018029,-0.00168662,-1.27394,0.00201505,0.0457612,1903,883,64.1728,-2.78239
686,141,64.0691,2.88568,0,0,0,0,0,0,0,-1,1910,883,64.0691,-2.88567
693,141,51.7202,1.76593,0,0,0,0,0,0,0,-1,1917,883,51.7202,-1.76595
700,141,51.7233,2.5777,0,0,0,0,0,0,0,-1,1924,883,51.7232,-2.57769
707,141,55.6335,3.21802,0,0,0,0,0,0,0,-1,1931,883,55.6336,-3.21805
714,141,55.2346,3.80865,6.15374e-05,0.00202361,-0.00129005,0.00266327,-0.000578123,-1.11048,0.00199632,0.0362874,1938,883,55.2347,-3.80862
721,141,55.1782,4.36792,0.000531401,0.00225415,-0.00142478,0.0030577,-0.000272145,-1.05728,0.00213497,0.0198823,1945,883,55.1782,-4.36791
728,141,55.2964,5.02069,0.000473006,0.00262085,-0.00128509,0.00322167,-0.000127811,-1.13346,0.00219163,0.0172681,1952,883,55.2964,-5.02071
735,141,55.2356,5.79004,0.000235536,0.00318507,-0.000932586,0.0034552,-3.45907e-05,-1.28886,0.00231508,0.0201059,1959,883,55.2356,-5.79004
742,141,55.1644,6.44781,9.83165e-05,0.00434317,-0.000199679,0.00435254,8.89441e-05,-1.52389,0.00287251,0.0206487,1966,883,55.1644,-6.44781
749,141,55.1324,7.05328,0.000101911,0.00587214,0.000972645,0.00603168,-5.76293e-05,1.40822,0.00404047,0.0150147,1973,883,55.1324,-7.05325
756,141,55.0951,7.74628,0.000326017,0.00775796,0.00243768,0.00848617,-0.000402189,1.28051,0.00579616,0.0215764,1980,883,55.0951,-7.7463
763,141,54.9301,8.88104,0.00160376,0.00996477,0.00451257,0.0119357,-0.000367153,1.15901,0.00808229,0.0449209,1987,883,54.93,-8.88103
770,141,54.7537,9.92719,0,0,0,0,0,0,0,-1,1994,883,54.7535,-9.9272
777,141,56.8301,10.0721,0,0,0,0,0,0,0,-1,2001,883,56.8302,-10.0722
784,141,57.8308,11.1509,0,0,0,0,0,0,0,-1,2008,883,57.8308,-11.151
791,141,59.0291,12.3168,0,0,0,0,0,0,0,-1,2015,883,59.029,-12.3168
798,141,0,0,0,0,0,0,0,0,0,-1,2022,883,0,0
805,141,0,0,0,0,0,0,0,0,0,-1,2029,883,0,0
812,141,0,0,0,0,0,0,0,0,0,-1,2036,883,0,0
-700,134,0,0,0,0,0,0,0,0,0,-1,524,890,0,0
-693,134,0,0,0,0,0,0,0,0,0,-1,531,890,0,0
-686,134,0,0,0,0,0,0,0,0,0,-1,538,890,0,0
-679,134,0,0,0,0,0,0,0,0,0,-1,545,890,0,0
-672,134,-47.3902,4.06329,0,0,0,0,0,0,0,-1,552,890,-47.3902,-4.0633
-665,134,-47.6834,4.59839,0,0,0,0,0,0,0,-1,559,890,-47.6834,-4.59841
-658,134,-47.9119,4.92267,0,0,0,0,0,0,0,-1,566,890,-47.9119,-4.92266
-651,134,-48.2278,5.17859,0,0,0,0,0,0,0,-1,573,890,-48.2278,-5.17859
-644,134,-45.1824,-0.748413,0,0,0,0,0,0,0,-1,580,890,-45.1824,0.74844
-637,134,-45.0718,-1.43756,0,0,0,0,0,0,0,-1,587,890,-45.0718,1.43758
-630,134,-41.3214,6.06287,0,0,0,0,0,0,0,-1,594,890,-41.3214,-6.06289
-623,134,-41.4611,5.4704,0.000789489,0.010526,0.00233448,0.0110568,0.000258695,1.34723,0.00728647,0.0313979,601,890,-41.4611,-5.47037
-616,134,-41.6927,4.8009,-0.00154749,0.00908882,0.000564376,0.00911869,-0.00157735,1.51793,0.00666739,0.0128303,608,890,-41.6927,-4.80091
-609,134,-41.8259,4.16046,-0.00396087,0.00495832,0.000914932,0.0050512,-0.00405376,1.46962,0.00526726,0.0126056,615,890,-41.8259,-4.16046
-602,134,-41.8278,3.48572,-0.0052152,0.00251687,0.00158355,0.00282861,-0.00552694,1.37642,0.00490722,0.0146375,622,890,-41.8278,-3.4857
-595,134,-41.727,2.86646,-0.00577969,0.00097826,0.00187801,0.00146508,-0.00626652,1.31716,0.00474209,0.0265618,629,890,-41.727,-2.86646
-588,134,-42.2422,2.26379,-0.00576852,-0.000122326,0.00164433,0.000321638,-0.00621248,1.30709,0.00425292,0.0423875,636,890,-42.2422,-2.26378
-581,134,-42.307,1.50885,0,0,0,0,0,0,0,-1,643,890,-42.307,-1.50883
-574,134,-31.1517,0.757751,0,0,0,0,0,0,0,-1,650,890,-31.1517,-0.757758
-567,134,-30.9003,0.296326,0,0,0,0,0,0,0,-1,657,890,-30.9002,-0.296302
-560,134,-22.9123,0.106567,0,0,0,0,0,0,0,-1,664,890,-22.9123,-0.106594
-553,134,-48.9335,0.803467,0,0,0,0,0,0,0,-1,671,890,-48.9335,-0.80347
-546,134,-48.9509,0.819031,-0.00388961,-0.000385811,0.00215899,0.000642646,-0.00491807,1.12624,0.00351258,0.0354837,678,890,-48.9509,-0.819034
-539,134,-48.9473,0.837463,-0.00331112,7.15726e-05,0.00208659,0.00106621,-0.00430575,1.12598,0.00328411,0.0186624,685,890,-48.9473,-0.837483
-532,134,-48.9376,0.880127,-0.002039,0.000664432,0.00200447,0.00173037,-0.00310493,1.08205,0.00282901,0.023952,692,890,-48.9375,-0.880129
-525,134,-48.8281,0.948547,-0.0014282,0.00176195,0.00151356,0.00236577,-0.00203201,1.19121,0.00254149,0.0376801,699,890,-48.8281,-0.948529
-518,134,-48.8297,1.01465,0,0,0,0,0,0,0,-1,706,890,-48.8297,-1.01464
-511,134,-48.8766,1.27313,0,0,0,0,0,0,0,-1,713,890,-48.8766,-1.27314
-504,134,0,0,0,0,0,0,0,0,0,-1,720,890,0,0
-497,134,0,0,0,0,0,0,0,0,0,-1,727,890,0,0
-490,134,0,0,0,0,0,0,0,0,0,-1,734,890,0,0
-483,134,0,0,0,0,0,0,0,0,0,-1,741,890,0,0
-476,134,0,0,0,0,0,0,0,0,0,-1,748,890,0,0
-469,134,0,0,0,0,0,0,0,0,0,-1,755,890,0,0
-462,134,0,0,0,0,0,0,0,0,0,-1,762,890,0,0
-455,134,0,0,0,0,0,0,0,0,0,-1,769,890,0,0
-448,134,0,0,0,0,0,0,0,0,0,-1,776,890,0,0
-441,134,0,0,0,0,0,0,0,0,0,-1,783,890,0,0
-434,134,0,0,0,0,0,0,0,0,0,-1,790,890,0,0
-427,134,0,0,0,0,0,0,0,0,0,-1,797,890,0,0
-420,134,0,0,0,0,0,0,0,0,0,-1,804,890,0,0
-413,134,0,0,0,0,0,0,0,0,0,-1,811,890,0,0
-406,134,0,0,0,0,0,0,0,0,0,-1,818,890,0,0
-399,134,0,0,0,0,0,0,0,0,0,-1,825,890,0,0
-392,134,0,0,0,0,0,0,0,0,0,-1,832,890,0,0
-385,134,0,0,0,0,0,0,0,0,0,-1,839,890,0,0
-378,134,0,0,0,0,0,0,0,0,0,-1,846,890,0,0
-371,134,0,0,0,0,0,0,0,0,0,-1,853,890,0,0
-364,134,0,0,0,0,0,0,0,0,0,-1,860,890,0,0
-357,134,0,0,0,0,0,0,0,0,0,-1,867,890,0,0
-350,134,0,0,0,0,0,0,0,0,0,-1,874,890,0,0
-343,134,0,0,0,0,0,0,0,0,0,-1,881,890,0,0
-336,134,0,0,0,0,0,0,0,0,0,-1,888,890,0,0
-329,134,0,0,0,0,0,0,0,0,0,-1,895,890,0,0
-322,134,0,0,0,0,0,0,0,0,0,-1,902,890,0,0
-315,134,0,0,0,0,0,0,0,0,0,-1,909,890,0,0
-308,134,0,0,0,0,0,0,0,0,0,-1,916,890,0,0
-301,134,0,0,0,0,0,0,0,0,0,-1,923,890,0,0
-294,134,0,0,0,0,0,0,0,0,0,-1,930,890,0,0
-287,134,0,0,0,0,0,0,0,0,0,-1,937,890,0,0
-280,134,0,0,0,0,0,0,0,0,0,-1,944,890,0,0
-273,134,0,0,0,0,0,0,0,0,0,-1,951,890,0,0
-266,134,0,0,0,0,0,0,0,0,0,-1,958,890,0,0
-259,134,0,0,0,0,0,0,0,0,0,-1,965,890,0,0
-252,134,0,0,0,0,0,0,0,0,0,-1,972,890,0,0
-245,134,0,0,0,0,0,0,0,0,0,-1,979,890,0,0
-238,134,0,0,0,0,0,0,0,0,0,-1,986,890,0,0
-231,134,0,0,0,0,0,0,0,0,0,-1,993,890,0,0
-224,134,0,0,0,0,0,0,0,0,0,-1,1000,890,0,0
-217,134,0,0,0,0,0,0,0,0,0,-1,1007,890,0,0
-210,134,0,0,0,0,0,0,0,0,0,-1,1014,890,0,0
-203,134,0,0,0,0,0,0,0,0,0,-1,1021,890,0,0
-196,134,0,0,0,0,0,0,0,0,0,-1,1028,890,0,0
-189,134,0,0,0,0,0,0,0,0,0,-1,1035,890,0,0
-182,134,0,0,0,0,0,0,0,0,0,-1,1042,890,0,0
-175,134,0,0,0,0,0,0,0,0,0,-1,1049,890,0,0
-168,134,0,0,0,0,0,0,0,0,0,-1,1056,890,0,0
-161,134,0,0,0,0,0,0,0,0,0,-1,1063,890,0,0
-154,134,0,0,0,0,0,0,0,0,0,-1,1070,890,0,0
-147,134,0,0,0,0,0,0,0,0,0,-1,1077,890,0,0
-140,134,0,0,0,0,0,0,0,0,0,-1,1084,890,0,0
-133,134,0,0,0,0,0,0,0,0,0,-1,1091,890,0,0
-126,134,0,0,0,0,0,0,0,0,0,-1,1098,890,0,0
-119,134,0,0,0,0,0,0,0,0,0,-1,1105,890,0,0
-112,134,0,0,0,0,0,0,0,0,0,-1,1112,890,0,0
-105,134,0,0,0,0,0,0,0,0,0,-1,1119,890,0,0
-98,134,0,0,0,0,0,0,0,0,0,-1,1126,890,0,0
-91,134,0,0,0,0,0,0,0,0,0,-1,1133,890,0,0
-84,134,0,0,0,0,0,0,0,0,0,-1,1140,890,0,0
-77,134,0,0,0,0,0,0,0,0,0,-1,1147,890,0,0
-70,134,0,0,0,0,0,0,0,0,0,-1,1154,890,0,0
-63,134,0,0,0,0,0,0,0,0,0,-1,1161,890,0,0
-56,134,0,0,0,0,0,0,0,0,0,-1,1168,890,0,0
-49,134,0,0,0,0,0,0,0,0,0,-1,1175,890,0,0
-42,134,0,0,0,0,0,0,0,0,0,-1,1182,890,0,0
-35,134,0,0,0,0,0,0,0,0,0,-1,1189,890,0,0
-28,134,0,0,0,0,0,0,0,0,0,-1,1196,890,0,0
-21,134,0,0,0,0,0,0,0,0,0,-1,1203,890,0,0
-14,134,0,0,0,0,0,0,0,0,0,-1,1210,890,0,0
-7,134,0,0,0,0,0,0,0,0,0,-1,1217,890,0,0
0,134,0,0,0,0,0,0,0,0,0,-1,1224,890,0,0
7,134,0,0,0,0,0,0,0,0,0,-1,1231,890,0,0
14,134,0,0,0,0,0,0,0,0,0,-1,1238,890,0,0
21,134,0,0,0,0,0,0,0,0,0,-1,1245,890,0,0
28,134,0,0,0,0,0,0,0,0,0,-1,1252,890,0,0
35,134,0,0,0,0,0,0,0,0,0,-1,1259,890,0,0
42,134,0,0,0,0,0,0,0,0,0,-1,1266,890,0,0
49,134,0,0,0,0,0,0,0,0,0,-1,1273,890,0,0
56,134,0,0,0,0,0,0,0,0,0,-1,1280,890,0,0
63,134,0,0,0,0,0,0,0,0,0,-1,1287,890,0,0
70,134,0,0,0,0,0,0,0,0,0,-1,1294,890,0,0
77,134,0,0,0,0,0,0,0,0,0,-1,1301,890,0,0
84,134,0,0,0,0,0,0,0,0,0,-1,1308,890,0,0
91,134,0,0,0,0,0,0,0,0,0,-1,1315,890,0,0
98,134,0,0,0,0,0,0,0,0,0,-1,1322,890,0,0
105,134,0,0,0,0,0,0,0,0,0,-1,1329,890,0,0
112,134,0,0,0,0,0,0,0,0,0,-1,1336,890,0,0
119,134,0,0,0,0,0,0,0,0,0,-1,1343,890,0,0
126,134,0,0,0,0,0,0,0,0,0,-1,1350,890,0,0
133,134,0,0,0,0,0,0,0,0,0,-1,1357,890,0,0
140,134,0,0,0,0,0,0,0,0,0,-1,1364,890,0,0
147,134,0,0,0,0,0,0,0,0,0,-1,1371,890,0,0
154,134,0,0,0,0,0,0,0,0,0,-1,1378,890,0,0
161,134,0,0,0,0,0,0,0,0,0,-1,1385,890,0,0
168,134,0,0,0,0,0,0,0,0,0,-1,1392,890,0,0
175,134,0,0,0,0,0,0,0,0,0,-1,1399,890,0,0
182,134,0,0,0,0,0,0,0,0,0,-1,1406,890,0,0
189,134,0,0,0,0,0,0,0,0,0,-1,1413,890,0,0
196,134,0,0,0,0,0,0,0,0,0,-1,1420,890,0,0
203,134,0,0,0,0,0,0,0,0,0,-1,1427,890,0,0
210,134,0,0,0,0,0,0,0,0,0,-1,1434,890,0,0
217,134,0,0,0,0,0,0,0,0,0,-1,1441,890,0,0
224,134,0,0,0,0,0,0,0,0,0,-1,1448,890,0,0
231,134,0,0,0,0,0,0,0,0,0,-1,1455,890,0,0
238,134,0,0,0,0,0,0,0,0,0,-1,1462,890,0,0
245,134,0,0,0,0,0,0,0,0,0,-1,1469,890,0,0
252,134,0,0,0,0,0,0,0,0,0,-1,1476,890,0,0
259,134,0,0,0,0,0,0,0,0,0,-1,1483,890,0,0
266,134,0,0,0,0,0,0,0,0,0,-1,1490,890,0,0
273,134,0,0,0,0,0,0,0,0,0,-1,1497,890,0,0
280,134,0,0,0,0,0,0,0,0,0,-1,1504,890,0,0
287,134,0,0,0,0,0,0,0,0,0,-1,1511,890,0,0
294,134,0,0,0,0,0,0,0,0,0,-1,1518,890,0,0
301,134,0,0,0,0,0,0,0,0,0,-1,1525,890,0,0
308,134,0,0,0,0,0,0,0,0,0,-1,1532,890,0,0
315,134,0,0,0,0,0,0,0,0,0,-1,1539,890,0,0
322,134,0,0,0,0,0,0,0,0,0,-1,1546,890,0,0
329,134,0,0,0,0,0,0,0,0,0,-1,1553,890,0,0
336,134,0,0,0,0,0,0,0,0,0,-1,1560,890,0,0
343,134,0,0,0,0,0,0,0,0,0,-1,1567,890,0,0
350,134,0,0,0,0,0,0,0,0,0,-1,1574,890,0,0
357,134,0,0,0,0,0,0,0,0,0,-1,1581,890,0,0
364,134,0,0,0,0,0,0,0,0,0,-1,1588,890,0,0
371,134,0,0,0,0,0,0,0,0,0,-1,1595,890,0,0
378,134,0,0,0,0,0,0,0,0,0,-1,1602,890,0,0
385,134,0,0,0,0,0,0,0,0,0,-1,1609,890,0,0
392,134,0,0,0,0,0,0,0,0,0,-1,1616,890,0,0
399,134,0,0,0,0,0,0,0,0,0,-1,1623,890,0,0
406,134,0,0,0,0,0,0,0,0,0,-1,1630,890,0,0
413,134,0,0,0,0,0,0,0,0,0,-1,1637,890,0,0
420,134,0,0,0,0,0,0,0,0,0,-1,1644,890,0,0
427,134,0,0,0,0,0,0,0,0,0,-1,1651,890,0,0
434,134,0,0,0,0,0,0,0,0,0,-1,1658,890,0,0
441,134,0,0,0,0,0,0,0,0,0,-1,1665,890,0,0
448,134,0,0,0,0,0,0,0,0,0,-1,1672,890,0,0
455,134,0,0,0,0,0,0,0,0,0,-1,1679,890,0,0
462,134,0,0,0,0,0,0,0,0,0,-1,1686,890,0,0
469,134,0,0,0,0,0,0,0,0,0,-1,1693,890,0,0
476,134,0,0,0,0,0,0,0,0,0,-1,1700,890,0,0
483,134,0,0,0,0,0,0,0,0,0,-1,1707,890,0,0
490,134,0,0,0,0,0,0,0,0,0,-1,1714,890,0,0
497,134,0,0,0,0,0,0,0,0,0,-1,1721,890,0,0
504,134,0,0,0,0,0,0,0,0,0,-1,1728,890,0,0
511,134,0,0,0,0,0,0,0,0,0,-1,1735,890,0,0
518,134,0,0,0,0,0,0,0,0,0,-1,1742,890,0,0
525,134,0,0,0,0,0,0,0,0,0,-1,1749,890,0,0
532,134,0,0,0,0,0,0,0,0,0,-1,1756,890,0,0
539,134,0,0,0,0,0,0,0,0,0,-1,1763,890,0,0
546,134,0,0,0,0,0,0,0,0,0,-1,1770,890,0,0
553,134,0,0,0,0,0,0,0,0,0,-1,1777,890,0,0
560,134,0,0,0,0,0,0,0,0,0,-1,1784,890,0,0
567,134,0,0,0,0,0,0,0,0,0,-1,1791,890,0,0
574,134,0,0,0,0,0,0,0,0,0,-1,1798,890,0,0
581,134,0,0,0,0,0,0,0,0,0,-1,1805,890,0,0
588,134,0,0,0,0,0,0,0,0,0,-1,1812,890,0,0
595,134,0,0,0,0,0,0,0,0,0,-1,1819,890,0,0
602,134,0,0,0,0,0,0,0,0,0,-1,1826,890,0,0
609,134,0,0,0,0,0,0,0,0,0,-1,1833,890,0,0
616,134,0,0,0,0,0,0,0,0,0,-1,1840,890,0,0
623,134,64.183,2.85596,0.00258869,-0.00526895,-0.003393,0.00385103,-0.00653129,-0.356174,0.00606045,0.0488432,1847,890,64.183,-2.85596
630,134,64.2316,2.75262,0.00149403,-0.00399899,-0.00293545,0.0027675,-0.00527245,-0.40932,0.00471637,0.0472032,1854,890,64.2316,-2.75265
637,134,64.3193,2.7439,0.000465317,-0.00248029,-0.00244647,0.0018481,-0.00386308,-0.514449,0.00336506,0.0434633,1861,890,64.3194,-2.74388
644,134,64.3113,2.77716,-0.000571364,-0.00105955,-0.00183679,0.00103748,-0.0026684,-0.71934,0.00220758,0.0392977,1868,890,64.3112,-2.77718
651,134,64.4309,2.62311,-0.00155083,0.000123049,-0.00125026,0.000790646,-0.00221843,-1.08035,0.0018013,0.0410104,1875,890,64.431,-2.62311
658,134,64.387,2.68201,-0.00197053,0.000825814,-0.0007609,0.00101945,-0.00216416,-1.3216,0.00187725,0.0381942,1882,890,64.387,-2.68201
665,134,64.2673,2.67548,-0.00186503,0.00160995,-0.000527623,0.0016883,-0.00194337,-1.42339,0.00209847,0.0344682,1889,890,64.2673,-2.67549
672,134,64.2733,2.63751,-0.0014533,0.00170278,-0.000536413,0.00179146,-0.00154198,-1.40696,0.00192636,0.0252504,1896,890,64.2733,-2.6375
679,134,64.2642,2.6488,-0.0011474,0.0015894,-0.000575699,0.00170557,-0.00126357,-1.37168,0.00172055,0.0262863,1903,890,64.2641,-2.64882
686,134,64.2441,2.68323,0,0,0,0,0,0,0,-1,1910,890,64.2442,-2.68323
693,134,34.5778,2.48096,0,0,0,0,0,0,0,-1,1917,890,34.5777,-2.48099
700,134,55.7573,2.11584,0,0,0,0,0,0,0,-1,1924,890,55.7574,-2.11587
707,134,55.7561,2.7558,-0.000495752,0.00196892,-0.000735269,0.0021716,-0.000698433,-1.30182,0.00172824,0.0308645,1931,890,55.7561,-2.75578
714,134,55.8383,3.55328,-4.91574e-05,0.00211336,-0.000894643,0.00243549,-0.00037129,-1.22518,0.00176052,0.0274288,1938,890,55.8382,-3.55328
721,134,55.9675,4.28839,0.000344856,0.00231052,-0.00108744,0.00279346,-0.000138082,-1.15285,0.00191,0.0249812,1945,890,55.9676,-4.28838
728,134,56.0157,4.96967,0.000149013,0.00262834,-0.00105142,0.00301418,-0.000236825,-1.21909,0.00209287,0.0218986,1952,890,56.0158,-4.96968
735,134,55.9637,5.79034,-0.00035589,0.00312641,-0.000838195,0.00331766,-0.000547141,-1.34647,0.0024149,0.0284744,1959,890,55.9638,-5.79037
742,134,55.8896,6.48431,-0.000799747,0.00424971,-0.00019777,0.00425744,-0.000807481,-1.53171,0.00314223,0.0191548,1966,890,55.8897,-6.48433
749,134,55.8907,7.08545,-0.00107328,0.00577554,0.00106753,0.00593808,-0.00123582,1.4197,0.00442852,0.0129499,1973,890,55.8907,-7.08544
756,134,55.8354,7.71417,-0.000976878,0.00766212,0.0027987,0.00848954,-0.0018043,1.28334,0.00634719,0.0166477,1980,890,55.8354,-7.71414
763,134,55.6514,8.53571,0.000301305,0.00976194,0.00523299,0.0120857,-0.00202246,1.15289,0.00880903,0.0394744,1987,890,55.6514,-8.53572
770,134,55.4778,9.36749,0,0,0,0,0,0,0,-1,1994,890,55.4778,-9.36747
777,134,56.5676,10.374,0,0,0,0,0,0,0,-1,2001,890,56.5676,-10.374
784,134,59.4336,10.8775,0,0,0,0,0,0,0,-1,2008,890,59.4337,-10.8775
791,134,61.1787,12.2078,0,0,0,0,0,0,0,-1,2015,890,61.1787,-12.2078
798,134,0,0,0,0,0,0,0,0,0,-1,2022,890,0,0
805,134,0,0,0,0,0,0,0,0,0,-1,2029,890,0,0
812,134,0,0,0,0,0,0,0,0,0,-1,2036,890,0,0
-700,127,0,0,0,0,0,0,0,0,0,-1,524,897,0,0
-693,127,0,0,0,0,0,0,0,0,0,-1,531,897,0,0
-686,127,0,0,0,0,0,0,0,0,0,-1,538,897,0,0
-679,127,-44.9452,3.30066,0,0,0,0,0,0,0,-1,545,897,-44.9452,-3.30067
-672,127,-44.7808,3.67346,0,0,0,0,0,0,0,-1,552,897,-44.7808,-3.67348
-665,127,-46.9557,4.73889,0,0,0,0,0,0,0,-1,559,897,-46.9557,-4.73892
-658,127,-47.0855,5.22369,0,0,0,0,0,0,0,-1,566,897,-47.0855,-5.22369
-651,127,-45.4053,1.12958,0,0,0,0,0,0,0,-1,573,897,-45.4053,-1.12956
-644,127,-45.1658,0.2901,0,0,0,0,0,0,0,-1,580,897,-45.1658,-0.290085
-637,127,-44.8021,-0.573792,0,0,0,0,0,0,0,-1,587,897,-44.8021,0.573798
-630,127,-42.1313,5.98083,0,0,0,0,0,0,0,-1,594,897,-42.1313,-5.98083
-623,127,-42.326,5.35107,0.00130705,0.0120531,0.0030517,0.0128592,0.000500894,1.31253,0.00841083,0.0195615,601,897,-42.3261,-5.35108
-616,127,-42.4105,4.78473,-0.00122455,0.00950372,0.00139996,0.00968339,-0.00140422,1.44315,0.00697097,0.011137,608,897,-42.4105,-4.78471
-609,127,-42.4885,4.14832,-0.00398176,0.00484266,0.00139551,0.00505809,-0.00419719,1.41763,0.00535124,0.0152736,615,897,-42.4885,-4.14834
-602,127,-42.4778,3.53052,-0.00551688,0.00233142,0.00166607,0.00267046,-0.00585592,1.37004,0.00503592,0.0179252,622,897,-42.4778,-3.53051
-595,127,-42.421,2.9505,-0.00621823,0.000851626,0.00171505,0.00124571,-0.00661231,1.34494,0.00487676,0.032084,629,897,-42.421,-2.9505
-588,127,-42.4816,2.17371,-0.00628926,-0.00020787,0.00136655,8.50924e-05,-0.00658223,1.35961,0.00441679,0.0389494,636,897,-42.4815,-2.17368
-581,127,-42.0992,1.35736,0,0,0,0,0,0,0,-1,643,897,-42.0993,-1.35736
-574,127,-25.2603,0.511169,0,0,0,0,0,0,0,-1,650,897,-25.2603,-0.51117
-567,127,-24.5417,-0.0447388,0,0,0,0,0,0,0,-1,657,897,-24.5417,0.0447226
-560,127,-18.9678,1.21667,0,0,0,0,0,0,0,-1,664,897,-18.9677,-1.2167
-553,127,-48.9738,0.78241,0,0,0,0,0,0,0,-1,671,897,-48.9738,-0.782393
-546,127,-48.981,0.798706,-0.00443889,-0.000754974,0.00186506,2.43757e-05,-0.00521824,1.17498,0.00348698,0.0233924,678,897,-48.981,-0.798719
-539,127,-48.9614,0.811951,-0.00392011,-0.000396585,0.00186734,0.000408904,-0.0047256,1.16355,0.00329517,0.0200851,685,897,-48.9614,-0.811935
-532,127,-48.9595,0.86261,-0.00271968,0.000169015,0.00191636,0.00112437,-0.00367504,1.10833,0.00289845,0.0167644,692,897,-48.9594,-0.86263
-525,127,-49.1118,1.12775,-0.00209411,0.00112692,0.00177733,0.00191488,-0.00288207,1.1535,0.00278822,0.033166,699,897,-49.1118,-1.12774
-518,127,-48.764,0.665222,0,0,0,0,0,0,0,-1,706,897,-48.764,-0.665231
-511,127,-48.8825,1.15033,0,0,0,0,0,0,0,-1,713,897,-48.8825,-1.15033
-504,127,0,0,0,0,0,0,0,0,0,-1,720,897,0,0
-497,127,0,0,0,0,0,0,0,0,0,-1,727,897,0,0
-490,127,0,0,0,0,0,0,0,0,0,-1,734,897,0,0
-483,127,0,0,0,0,0,0,0,0,0,-1,741,897,0,0
-476,127,0,0,0,0,0,0,0,0,0,-1,748,897,0,0
-469,127,0,0,0,0,0,0,0,0,0,-1,755,897,0,0
-462,127,0,0,0,0,0,0,0,0,0,-1,762,897,0,0
-455,127,0,0,0,0,0,0,0,0,0,-1,769,897,0,0
-448,127,0,0,0,0,0,0,0,0,0,-1,776,897,0,0
-441,127,0,0,0,0,0,0,0,0,0,-1,783,897,0,0
-434,127,0,0,0,0,0,0,0,0,0,-1,790,897,0,0
-427,127,0,0,0,0,0,0,0,0,0,-1,797,897,0,0
-420,127,0,0,0,0,0,0,0,0,0,-1,804,897,0,0
-413,127,0,0,0,0,0,0,0,0,0,-1,811,897,0,0
-406,127,0,0,0,0,0,0,0,0,0,-1,818,897,0,0
-399,127,0,0,0,0,0,0,0,0,0,-1,825,897,0,0
-392,127,0,0,0,0,0,0,0,0,0,-1,832,897,0,0
-385,127,0,0,0,0,0,0,0,0,0,-1,839,897,0,0
-378,127,0,0,0,0,0,0,0,0,0,-1,846,897,0,0
-371,127,0,0,0,0,0,0,0,0,0,-1,853,897,0,0
-364,127,0,0,0,0,0,0,0,0,0,-1,860,897,0,0
-357,127,0,0,0,0,0,0,0,0,0,-1,867,897,0,0
-350,127,0,0,0,0,0,0,0,0,0,-1,874,897,0,0
-343,127,0,0,0,0,0,0,0,0,0,-1,881,897,0,0
-336,127,0,0,0,0,0,0,0,0,0,-1,888,897,0,0
-329,127,0,0,0,0,0,0,0,0,0,-1,895,897,0,0
-322,127,0,0,0,0,0,0,0,0,0,-1,902,897,0,0
-315,127,0,0,0,0,0,0,0,0,0,-1,909,897,0,0
-308,127,0,0,0,0,0,0,0,0,0,-1,916,897,0,0
-301,127,0,0,0,0,0,0,0,0,0,-1,923,897,0,0
-294,127,0,0,0,0,0,0,0,0,0,-1,930,897,0,0
-287,127,0,0,0,0,0,0,0,0,0,-1,937,897,0,0
-280,127,0,0,0,0,0,0,0,0,0,-1,944,897,0,0
-273,127,0,0,0,0,0,0,0,0,0,-1,951,897,0,0
-266,127,0,0,0,0,0,0,0,0,0,-1,958,897,0,0
-259,127,0,0,0,0,0,0,0,0,0,-1,965,897,0,0
-252,127,0,0,0,0,0,0,0,0,0,-1,972,897,0,0
-245,127,0,0,0,0,0,0,0,0,0,-1,979,897,0,0
-238,127,0,0,0,0,0,0,0,0,0,-1,986,897,0,0
-231,127,0,0,0,0,0,0,0,0,0,-1,993,897,0,0
-224,127,0,0,0,0,0,0,0,0,0,-1,1000,897,0,0
-217,127,0,0,0,0,0,0,0,0,0,-1,1007,897,0,0
-210,127,0,0,0,0,0,0,0,0,0,-1,1014,897,0,0
-203,127,0,0,0,0,0,0,0,0,0,-1,1021,897,0,0
-196,127,0,0,0,0,0,0,0,0,0,-1,1028,897,0,0
-189,127,0,0,0,0,0,0,0,0,0,-1,1035,897,0,0
-182,127,0,0,0,0,0,0,0,0,0,-1,1042,897,0,0
-175,127,0,0,0,0,0,0,0,0,0,-1,1049,897,0,0
-168,127,0,0,0,0,0,0,0,0,0,-1,1056,897,0,0
-161,127,0,0,0,0,0,0,0,0,0,-1,1063,897,0,0
-154,127,0,0,0,0,0,0,0,0,0,-1,1070,897,0,0
-147,127,0,0,0,0,0,0,0,0,0,-1,1077,897,0,0
-140,127,0,0,0,0,0,0,0,0,0,-1,1084,897,0,0
-133,127,0,0,0,0,0,0,0,0,0,-1,1091,897,0,0
-126,127,0,0,0,0,0,0,0,0,0,-1,1098,897,0,0
-119,127,0,0,0,0,0,0,0,0,0,-1,1105,897,0,0
-112,127,0,0,0,0,0,0,0,0,0,-1,1112,897,0,0
-105,127,0,0,0,0,0,0,0,0,0,-1,1119,897,0,0
-98,127,0,0,0,0,0,0,0,0,0,-1,1126,897,0,0
-91,127,0,0,0,0,0,0,0,0,0,-1,1133,897,0,0
-84,127,0,0,0,0,0,0,0,0,0,-1,1140,897,0,0
-77,127,0,0,0,0,0,0,0,0,0,-1,1147,897,0,0
-70,127,0,0,0,0,0,0,0,0,0,-1,1154,897,0,0
-63,127,0,0,0,0,0,0,0,0,0,-1,1161,897,0,0
-56,127,0,0,0,0,0,0,0,0,0,-1,1168,897,0,0
-49,127,0,0,0,0,0,0,0,0,0,-1,1175,897,0,0
-42,127,0,0,0,0,0,0,0,0,0,-1,1182,897,0,0
-35,127,0,0,0,0,0,0,0,0,0,-1,1189,897,0,0
-28,127,0,0,0,0,0,0,0,0,0,-1,1196,897,0,0
-21,127,0,0,0,0,0,0,0,0,0,-1,1203,897,0,0
-14,127,0,0,0,0,0,0,0,0,0,-1,1210,897,0,0
-7,127,0,0,0,0,0,0,0,0,0,-1,1217,897,0,0
0,127,0,0,0,0,0,0,0,0,0,-1,1224,897,0,0
7,127,0,0,0,0,0,0,0,0,0,-1,1231,897,0,0
14,127,0,0,0,0,0,0,0,0,0,-1,1238,897,0,0
21,127,0,0,0,0,0,0,0,0,0,-1,1245,897,0,0
28,127,0,0,0,0,0,0,0,0,0,-1,1252,897,0,0
35,127,0,0,0,0,0,0,0,0,0,-1,1259,897,0,0
42,127,0,0,0,0,0,0,0,0,0,-1,1266,897,0,0
49,127,0,0,0,0,0,0,0,0,0,-1,1273,897,0,0
56,127,0,0,0,0,0,0,0,0,0,-1,1280,897,0,0
63,127,0,0,0,0,0,0,0,0,0,-1,1287,897,0,0
70,127,0,0,0,0,0,0,0,0,0,-1,1294,897,0,0
77,127,0,0,0,0,0,0,0,0,0,-1,1301,897,0,0
84,127,0,0,0,0,0,0,0,0,0,-1,1308,897,0,0
91,127,0,0,0,0,0,0,0,0,0,-1,1315,897,0,0
98,127,0,0,0,0,0,0,0,0,0,-1,1322,897,0,0
105,127,0,0,0,0,0,0,0,0,0,-1,1329,897,0,0
112,127,0,0,0,0,0,0,0,0,0,-1,1336,897,0,0
119,127,0,0,0,0,0,0,0,0,0,-1,1343,897,0,0
126,127,0,0,0,0,0,0,0,0,0,-1,1350,897,0,0
133,127,0,0,0,0,0,0,0,0,0,-1,1357,897,0,0
140,127,0,0,0,0,0,0,0,0,0,-1,1364,897,0,0
147,127,0,0,0,0,0,0,0,0,0,-1,1371,897,0,0
154,127,0,0,0,0,0,0,0,0,0,-1,1378,897,0,0
161,127,0,0,0,0,0,0,0,0,0,-1,1385,897,0,0
168,127,0,0,0,0,0,0,0,0,0,-1,1392,897,0,0
175,127,0,0,0,0,0,0,0,0,0,-1,1399,897,0,0
182,127,0,0,0,0,0,0,0,0,0,-1,1406,897,0,0
189,127,0,0,0,0,0,0,0,0,0,-1,1413,897,0,0
196,127,0,0,0,0,0,0,0,0,0,-1,1420,897,0,0
203,127,0,0,0,0,0,0,0,0,0,-1,1427,897,0,0
210,127,0,0,0,0,0,0,0,0,0,-1,1434,897,0,0
217,127,0,0,0,0,0,0,0,0,0,-1,1441,897,0,0
224,127,0,0,0,0,0,0,0,0,0,-1,1448,897,0,0
231,127,0,0,0,0,0,0,0,0,0,-1,1455,897,0,0
238,127,0,0,0,0,0,0,0,0,0,-1,1462,897,0,0
245,127,0,0,0,0,0,0,0,0,0,-1,1469,897,0,0
252,127,0,0,0,0,0,0,0,0,0,-1,1476,897,0,0
259,127,0,0,0,0,0,0,0,0,0,-1,1483,897,0,0
266,127,0,0,0,0,0,0,0,0,0,-1,1490,897,0,0
273,127,0,0,0,0,0,0,0,0,0,-1,1497,897,0,0
280,127,0,0,0,0,0,0,0,0,0,-1,1504,897,0,0
287,127,0,0,0,0,0,0,0,0,0,-1,1511,897,0,0
294,127,0,0,0,0,0,0,0,0,0,-1,1518,897,0,0
301,127,0,0,0,0,0,0,0,0,0,-1,1525,897,0,0
308,127,0,0,0,0,0,0,0,0,0,-1,1532,897,0,0
315,127,0,0,0,0,0,0,0,0,0,-1,1539,897,0,0
322,127,0,0,0,0,0,0,0,0,0,-1,1546,897,0,0
329,127,0,0,0,0,0,0,0,0,0,-1,1553,897,0,0
336,127,0,0,0,0,0,0,0,0,0,-1,1560,897,0,0
343,127,0,0,0,0,0,0,0,0,0,-1,1567,897,0,0
350,127,0,0,0,0,0,0,0,0,0,-1,1574,897,0,0
357,127,0,0,0,0,0,0,0,0,0,-1,1581,897,0,0
364,127,0,0,0,0,0,0,0,0,0,-1,1588,897,0,0
371,127,0,0,0,0,0,0,0,0,0,-1,1595,897,0,0
378,127,0,0,0,0,0,0,0,0,0,-1,1602,897,0,0
385,127,0,0,0,0,0,0,0,0,0,-1,1609,897,0,0
392,127,0,0,0,0,0,0,0,0,0,-1,1616,897,0,0
399,127,0,0,0,0,0,0,0,0,0,-1,1623,897,0,0
406,127,0,0,0,0,0,0,0,0,0,-1,1630,897,0,0
413,127,0,0,0,0,0,0,0,0,0,-1,1637,897,0,0
420,127,0,0,0,0,0,0,0,0,0,-1,1644,897,0,0
427,127,0,0,0,0,0,0,0,0,0,-1,1651,897,0,0
434,127,0,0,0,0,0,0,0,0,0,-1,1658,897,0,0
441,127,0,0,0,0,0,0,0,0,0,-1,1665,897,0,0
448,127,0,0,0,0,0,0,0,0,0,-1,1672,897,0,0
455,127,0,0,0,0,0,0,0,0,0,-1,1679,897,0,0
462,127,0,0,0,0,0,0,0,0,0,-1,1686,897,0,0
469,127,0,0,0,0,0,0,0,0,0,-1,1693,897,0,0
476,127,0,0,0,0,0,0,0,0,0,-1,1700,897,0,0
483,127,0,0,0,0,0,0,0,0,0,-1,1707,897,0,0
490,127,0,0,0,0,0,0,0,0,0,-1,1714,897,0,0
497,127,0,0,0,0,0,0,0,0,0,-1,1721,897,0,0
504,127,0,0,0,0,0,0,0,0,0,-1,1728,897,0,0
511,127,0,0,0,0,0,0,0,0,0,-1,1735,897,0,0
518,127,0,0,0,0,0,0,0,0,0,-1,1742,897,0,0
525,127,0,0,0,0,0,0,0,0,0,-1,1749,897,0,0
532,127,0,0,0,0,0,0,0,0,0,-1,1756,897,0,0
539,127,0,0,0,0,0,0,0,0,0,-1,1763,897,0,0
546,127,0,0,0,0,0,0,0,0,0,-1,1770,897,0,0
553,127,0,0,0,0,0,0,0,0,0,-1,1777,897,0,0
560,127,0,0,0,0,0,0,0,0,0,-1,1784,897,0,0
567,127,0,0,0,0,0,0,0,0,0,-1,1791,897,0,0
574,127,0,0,0,0,0,0,0,0,0,-1,1798,897,0,0
581,127,0,0,0,0,0,0,0,0,0,-1,1805,897,0,0
588,127,0,0,0,0,0,0,0,0,0,-1,1812,897,0,0
595,127,0,0,0,0,0,0,0,0,0,-1,1819,897,0,0
602,127,0,0,0,0,0,0,0,0,0,-1,1826,897,0,0
609,127,0,0,0,0,0,0,0,0,0,-1,1833,897,0,0
616,127,0,0,0,0,0,0,0,0,0,-1,1840,897,0,0
623,127,0,0,0,0,0,0,0,0,0,-1,1847,897,0,0
630,127,64.4381,2.65656,0,0,0,0,0,0,0,-1,1854,897,64.4381,-2.65653
637,127,64.436,3.29535,0,0,0,0,0,0,0,-1,1861,897,64.4361,-3.29533
644,127,64.4917,2.76758,-0.000145192,-0.00164362,-0.0026453,0.00185495,-0.00364376,-0.6474,0.00323019,0.0402744,1868,897,64.4917,-2.76758
651,127,64.4366,2.53436,-0.00128784,-0.000351555,-0.00180468,0.00104471,-0.0026841,-0.912304,0.00222111,0.0425515,1875,897,64.4367,-2.53435
658,127,64.3199,2.69275,-0.00183405,0.000614893,-0.00100174,0.000972448,-0.0021916,-1.22796,0.00187142,0.0418527,1882,897,64.3199,-2.69273
665,127,64.2288,2.75928,-0.00173666,0.0016212,-0.000461522,0.00168348,-0.00179894,-1.43666,0.00201095,0.0387998,1889,897,64.2287,-2.75931
672,127,64.2275,2.62189,-0.00132224,0.00183742,-0.000291518,0.00186409,-0.00134891,-1.47956,0.00186296,0.0337986,1896,897,64.2275,-2.62192
679,127,64.3014,2.60315,-0.000965515,0.00175521,-0.000258257,0.00177951,-0.000989812,-1.47699,0.00162039,0.0263399,1903,897,64.3014,-2.60316
686,127,64.2992,2.64386,0,0,0,0,0,0,0,-1,1910,897,64.2992,-2.64388
693,127,59.2523,2.33673,0,0,0,0,0,0,0,-1,1917,897,59.2524,-2.33674
700,127,56.3894,2.03119,0,0,0,0,0,0,0,-1,1924,897,56.3895,-2.03119
707,127,56.3542,2.81555,-0.000567225,0.00215147,-0.000443868,0.0022221,-0.000637858,-1.41299,0.00173359,0.0440449,1931,897,56.3543,-2.81556
714,127,56.7471,3.61578,-0.000217575,0.00230673,-0.0006183,0.00245003,-0.000360884,-1.34304,0.00176599,0.0244781,1938,897,56.7471,-3.61576
721,127,56.8473,4.45996,0.000108585,0.00248275,-0.000865231,0.00276461,-0.000173274,-1.25588,0.00190346,0.0243828,1945,897,56.8473,-4.45999
728,127,56.7177,5.08301,-0.000167799,0.00279878,-0.000921867,0.00306191,-0.000430931,-1.29276,0.00219904,0.0219554,1952,897,56.7177,-5.08303
735,127,56.6853,5.82355,-0.000800642,0.00332643,-0.000878784,0.00350576,-0.000979971,-1.3695,0.00272325,0.0209619,1959,897,56.6853,-5.82352
742,127,56.6248,6.48059,-0.00130084,0.00457972,-0.000468959,0.00461688,-0.001338,-1.49171,0.0036076,0.0199485,1966,897,56.6247,-6.4806
749,127,56.5808,7.10266,-0.00153263,0.006395,0.000648927,0.00644777,-0.0015854,1.48966,0.00491299,0.0130496,1973,897,56.5808,-7.10268
756,127,56.5131,7.70435,-0.0012649,0.00870623,0.00235843,0.00923592,-0.0017946,1.34987,0.00683447,0.0148405,1980,897,56.5131,-7.70432
763,127,56.4226,8.2912,0.000245826,0.0112546,0.00476097,0.0130279,-0.0015275,1.21424,0.00923663,0.0252386,1987,897,56.4226,-8.2912
770,127,56.3818,8.86682,0,0,0,0,0,0,0,-1,1994,897,56.3818,-8.86685
777,127,42.703,5.33789,0,0,0,0,0,0,0,-1,2001,897,42.7031,-5.33791
784,127,62.5146,11.5556,0,0,0,0,0,0,0,-1,2008,897,62.5146,-11.5556
791,127,63.4036,12.2262,0,0,0,0,0,0,0,-1,2015,897,63.4036,-12.2262
798,127,0,0,0,0,0,0,0,0,0,-1,2022,897,0,0
805,127,0,0,0,0,0,0,0,0,0,-1,2029,897,0,0
812,127,0,0,0,0,0,0,0,0,0,-1,2036,897,0,0
-700,120,0,0,0,0,0,0,0,0,0,-1,524,904,0,0
-693,120,0,0,0,0,0,0,0,0,0,-1,531,904,0,0
-686,120,0,0,0,0,0,0,0,0,0,-1,538,904,0,0
-679,120,-45.1093,3.75531,-0.00751565,-0.0505062,0.061991,0.0366011,-0.094623,0.618511,0.0781919,0.0453155,545,904,-45.1093,-3.75533
-672,120,-45.3947,4.2561,0.00323508,-0.0186797,0.0447903,0.0383889,-0.0538335,0.665436,0.0534929,0.0451421,552,904,-45.3948,-4.25613
-665,120,-45.9618,4.57294,0,0,0,0,0,0,0,-1,559,904,-45.9618,-4.57295
-658,120,-46.6157,5.52161,0,0,0,0,0,0,0,-1,566,904,-46.6157,-5.52162
-651,120,-45.6656,2.29791,0,0,0,0,0,0,0,-1,573,904,-45.6656,-2.29794
-644,120,-45.5677,1.49896,0,0,0,0,0,0,0,-1,580,904,-45.5677,-1.49897
-637,120,-43.0314,6.36353,0,0,0,0,0,0,0,-1,587,904,-43.0314,-6.36353
-630,120,-42.9666,5.89734,0.00315294,0.0153093,0.00612561,0.0178606,0.000601669,1.17615,0.0117116,0.0358646,594,904,-42.9666,-5.89736
-623,120,-43.041,5.34802,0.00155657,0.0137521,0.00330196,0.0145887,0.000719954,1.32265,0.00949492,0.0127266,601,904,-43.041,-5.34802
-616,120,-43.0964,4.76837,-0.0010967,0.0100223,0.00188151,0.0103321,-0.00140645,1.40763,0.00740154,0.0108875,608,904,-43.0963,-4.7684
-609,120,-43.1141,4.15051,-0.0039463,0.00480704,0.00174303,0.00514135,-0.00428061,1.3813,0.00544734,0.0144016,615,904,-43.1141,-4.1505
-602,120,-43.1266,3.55981,-0.00554389,0.00226044,0.00179026,0.00265152,-0.00593496,1.35573,0.00507679,0.0178199,622,904,-43.1266,-3.55979
-595,120,-43.0677,2.99591,-0.00628651,0.000851394,0.00166552,0.00122089,-0.006656,1.35248,0.00489531,0.03423,629,904,-43.0677,-2.99588
-588,120,-42.9496,2.16962,-0.00640514,-0.000148677,0.00120266,7.45431e-05,-0.00662836,1.38728,0.00444396,0.0449402,636,904,-42.9497,-2.16959
-581,120,-42.5142,1.14557,0,0,0,0,0,0,0,-1,643,904,-42.5142,-1.14558
-574,120,-27.5438,0.505066,0,0,0,0,0,0,0,-1,650,904,-27.5438,-0.505085
-567,120,-25.2822,-0.410645,0,0,0,0,0,0,0,-1,657,904,-25.2821,0.410629
-560,120,-27.3358,1.10327,0,0,0,0,0,0,0,-1,664,904,-27.3358,-1.10324
-553,120,-48.9081,0.982239,0,0,0,0,0,0,0,-1,671,904,-48.9081,-0.982266
-546,120,-48.9421,0.966125,-0.00479565,-0.000898484,0.00144732,-0.000419785,-0.00527435,1.25137,0.00338499,0.0329335,678,904,-48.9421,-0.966132
-539,120,-48.9187,0.840271,-0.00430499,-0.000570235,0.00147601,-5.73406e-05,-0.00481789,1.23636,0.00319298,0.0253357,685,904,-48.9187,-0.84026
-532,120,-48.9056,0.773743,-0.00313731,-8.12178e-06,0.00162877,0.000685793,-0.00383122,1.16805,0.00281077,0.0262209,692,904,-48.9056,-0.773733
-525,120,-49.0655,0.993408,-0.00244223,0.000760947,0.00181052,0.00157661,-0.00325789,1.14752,0.0028469,0.0331643,699,904,-49.0655,-0.993412
-518,120,-49.3063,1.16241,-0.00269814,0.00182892,0.00206447,0.00262898,-0.0034982,1.20108,0.00354938,0.0395846,706,904,-49.3063,-1.16241
-511,120,-49.144,1.10828,-0.00318226,0.00265167,0.00200829,0.00327616,-0.00380675,1.26932,0.00409315,0.0409702,713,904,-49.144,-1.10827
-504,120,0,0,0,0,0,0,0,0,0,-1,720,904,0,0
-497,120,0,0,0,0,0,0,0,0,0,-1,727,904,0,0
-490,120,0,0,0,0,0,0,0,0,0,-1,734,904,0,0
-483,120,0,0,0,0,0,0,0,0,0,-1,741,904,0,0
-476,120,0,0,0,0,0,0,0,0,0,-1,748,904,0,0
-469,120,0,0,0,0,0,0,0,0,0,-1,755,904,0,0
-462,120,0,0,0,0,0,0,0,0,0,-1,762,904,0,0
-455,120,0,0,0,0,0,0,0,0,0,-1,769,904,0,0
-448,120,0,0,0,0,0,0,0,0,0,-1,776,904,0,0
-441,120,0,0,0,0,0,0,0,0,0,-1,783,904,0,0
-434,120,0,0,0,0,0,0,0,0,0,-1,790,904,0,0
-427,120,0,0,0,0,0,0,0,0,0,-1,797,904,0,0
-420,120,0,0,0,0,0,0,0,0,0,-1,804,904,0,0
-413,120,0,0,0,0,0,0,0,0,0,-1,811,904,0,0
-406,120,0,0,0,0,0,0,0,0,0,-1,818,904,0,0
-399,120,0,0,0,0,0,0,0,0,0,-1,825,904,0,0
-392,120,0,0,0,0,0,0,0,0,0,-1,832,904,0,0
-385,120,0,0,0,0,0,0,0,0,0,-1,839,904,0,0
-378,120,0,0,0,0,0,0,0,0,0,-1,846,904,0,0
-371,120,0,0,0,0,0,0,0,0,0,-1,853,904,0,0
-364,120,0,0,0,0,0,0,0,0,0,-1,860,904,0,0
-357,120,0,0,0,0,0,0,0,0,0,-1,867,904,0,0
-350,120,0,0,0,0,0,0,0,0,0,-1,874,904,0,0
-343,120,0,0,0,0,0,0,0,0,0,-1,881,904,0,0
-336,120,0,0,0,0,0,0,0,0,0,-1,888,904,0,0
-329,120,0,0,0,0,0,0,0,0,0,-1,895,904,0,0
-322,120,0,0,0,0,0,0,0,0,0,-1,902,904,0,0
-315,120,0,0,0,0,0,0,0,0,0,-1,909,904,0,0
-308,120,0,0,0,0,0,0,0,0,0,-1,916,904,0,0
-301,120,0,0,0,0,0,0,0,0,0,-1,923,904,0,0
-294,120,0,0,0,0,0,0,0,0,0,-1,930,904,0,0
-287,120,0,0,0,0,0,0,0,0,0,-1,937,904,0,0
-280,120,0,0,0,0,0,0,0,0,0,-1,944,904,0,0
-273,120,0,0,0,0,0,0,0,0,0,-1,951,904,0,0
-266,120,0,0,0,0,0,0,0,0,0,-1,958,904,0,0
-259,120,0,0,0,0,0,0,0,0,0,-1,965,904,0,0
-252,120,0,0,0,0,0,0,0,0,0,-1,972,904,0,0
-245,120,0,0,0,0,0,0,0,0,0,-1,979,904,0,0
-238,120,0,0,0,0,0,0,0,0,0,-1,986,904,0,0
-231,120,0,0,0,0,0,0,0,0,0,-1,993,904,0,0
-224,120,0,0,0,0,0,0,0,0,0,-1,1000,904,0,0
-217,120,0,0,0,0,0,0,0,0,0,-1,1007,904,0,0
-210,120,0,0,0,0,0,0,0,0,0,-1,1014,904,0,0
-203,120,0,0,0,0,0,0,0,0,0,-1,1021,904,0,0
-196,120,0,0,0,0,0,0,0,0,0,-1,1028,904,0,0
-189,120,0,0,0,0,0,0,0,0,0,-1,1035,904,0,0
-182,120,0,0,0,0,0,0,0,0,0,-1,1042,904,0,0
-175,120,0,0,0,0,0,0,0,0,0,-1,1049,904,0,0
-168,120,0,0,0,0,0,0,0,0,0,-1,1056,904,0,0
-161,120,0,0,0,0,0,0,0,0,0,-1,1063,904,0,0
-154,120,0,0,0,0,0,0,0,0,0,-1,1070,904,0,0
-147,120,0,0,0,0,0,0,0,0,0,-1,1077,904,0,0
-140,120,0,0,0,0,0,0,0,0,0,-1,1084,904,0,0
-133,120,0,0,0,0,0,0,0,0,0,-1,1091,904,0,0
-126,120,0,0,0,0,0,0,0,0,0,-1,1098,904,0,0
-119,120,0,0,0,0,0,0,0,0,0,-1,1105,904,0,0
-112,120,0,0,0,0,0,0,0,0,0,-1,1112,904,0,0
-105,120,0,0,0,0,0,0,0,0,0,-1,1119,904,0,0
-98,120,0,0,0,0,0,0,0,0,0,-1,1126,904,0,0
-91,120,0,0,0,0,0,0,0,0,0,-1,1133,904,0,0
-84,120,0,0,0,0,0,0,0,0,0,-1,1140,904,0,0
-77,120,0,0,0,0,0,0,0,0,0,-1,1147,904,0,0
-70,120,0,0,0,0,0,0,0,0,0,-1,1154,904,0,0
-63,120,0,0,0,0,0,0,0,0,0,-1,1161,904,0,0
-56,120,0,0,0,0,0,0,0,0,0,-1,1168,904,0,0
-49,120,0,0,0,0,0,0,0,0,0,-1,1175,904,0,0
-42,120,0,0,0,0,0,0,0,0,0,-1,1182,904,0,0
-35,120,0,0,0,0,0,0,0,0,0,-1,1189,904,0,0
-28,120,0,0,0,0,0,0,0,0,0,-1,1196,904,0,0
-21,120,0,0,0,0,0,0,0,0,0,-1,1203,904,0,0
-14,120,0,0,0,0,0,0,0,0,0,-1,1210,904,0,0
-7,120,0,0,0,0,0,0,0,0,0,-1,1217,904,0,0
0,120,0,0,0,0,0,0,0,0,0,-1,1224,904,0,0
7,120,0,0,0,0,0,0,0,0,0,-1,1231,904,0,0
14,120,0,0,0,0,0,0,0,0,0,-1,1238,904,0,0
21,120,0,0,0,0,0,0,0,0,0,-1,1245,904,0,0
28,120,0,0,0,0,0,0,0,0,0,-1,1252,904,0,0
35,120,0,0,0,0,0,0,0,0,0,-1,1259,904,0,0
42,120,0,0,0,0,0,0,0,0,0,-1,1266,904,0,0
49,120,0,0,0,0,0,0,0,0,0,-1,1273,904,0,0
56,120,0,0,0,0,0,0,0,0,0,-1,1280,904,0,0
63,120,0,0,0,0,0,0,0,0,0,-1,1287,904,0,0
70,120,0,0,0,0,0,0,0,0,0,-1,1294,904,0,0
77,120,0,0,0,0,0,0,0,0,0,-1,1301,904,0,0
84,120,0,0,0,0,0,0,0,0,0,-1,1308,904,0,0
91,120,0,0,0,0,0,0,0,0,0,-1,1315,904,0,0
98,120,0,0,0,0,0,0,0,0,0,-1,1322,904,0,0
105,120,0,0,0,0,0,0,0,0,0,-1,1329,904,0,0
112,120,0,0,0,0,0,0,0,0,0,-1,1336,904,0,0
119,120,0,0,0,0,0,0,0,0,0,-1,1343,904,0,0
126,120,0,0,0,0,0,0,0,0,0,-1,1350,904,0,0
133,120,0,0,0,0,0,0,0,0,0,-1,1357,904,0,0
140,120,0,0,0,0,0,0,0,0,0,-1,1364,904,0,0
147,120,0,0,0,0,0,0,0,0,0,-1,1371,904,0,0
154,120,0,0,0,0,0,0,0,0,0,-1,1378,904,0,0
161,120,0,0,0,0,0,0,0,0,0,-1,1385,904,0,0
168,120,0,0,0,0,0,0,0,0,0,-1,1392,904,0,0
175,120,0,0,0,0,0,0,0,0,0,-1,1399,904,0,0
182,120,0,0,0,0,0,0,0,0,0,-1,1406,904,0,0
189,120,0,0,0,0,0,0,0,0,0,-1,1413,904,0,0
196,120,0,0,0,0,0,0,0,0,0,-1,1420,904,0,0
203,120,0,0,0,0,0,0,0,0,0,-1,1427,904,0,0
210,120,0,0,0,0,0,0,0,0,0,-1,1434,904,0,0
217,120,0,0,0,0,0,0,0,0,0,-1,1441,904,0,0
224,120,0,0,0,0,0,0,0,0,0,-1,1448,904,0,0
231,120,0,0,0,0,0,0,0,0,0,-1,1455,904,0,0
238,120,0,0,0,0,0,0,0,0,0,-1,1462,904,0,0
245,120,0,0,0,0,0,0,0,0,0,-1,1469,904,0,0
252,120,0,0,0,0,0,0,0,0,0,-1,1476,904,0,0
259,120,0,0,0,0,0,0,0,0,0,-1,1483,904,0,0
266,120,0,0,0,0,0,0,0,0,0,-1,1490,904,0,0
273,120,0,0,0,0,0,0,0,0,0,-1,1497,904,0,0
280,120,0,0,0,0,0,0,0,0,0,-1,1504,904,0,0
287,120,0,0,0,0,0,0,0,0,0,-1,1511,904,0,0
294,120,0,0,0,0,0,0,0,0,0,-1,1518,904,0,0
301,120,0,0,0,0,0,0,0,0,0,-1,1525,904,0,0
308,120,0,0,0,0,0,0,0,0,0,-1,1532,904,0,0
315,120,0,0,0,0,0,0,0,0,0,-1,1539,904,0,0
322,120,0,0,0,0,0,0,0,0,0,-1,1546,904,0,0
329,120,0,0,0,0,0,0,0,0,0,-1,1553,904,0,0
336,120,0,0,0,0,0,0,0,0,0,-1,1560,904,0,0
343,120,0,0,0,0,0,0,0,0,0,-1,1567,904,0,0
350,120,0,0,0,0,0,0,0,0,0,-1,1574,904,0,0
357,120,0,0,0,0,0,0,0,0,0,-1,1581,904,0,0
364,120,0,0,0,0,0,0,0,0,0,-1,1588,904,0,0
371,120,0,0,0,0,0,0,0,0,0,-1,1595,904,0,0
378,120,0,0,0,0,0,0,0,0,0,-1,1602,904,0,0
385,120,0,0,0,0,0,0,0,0,0,-1,1609,904,0,0
392,120,0,0,0,0,0,0,0,0,0,-1,1616,904,0,0
399,120,0,0,0,0,0,0,0,0,0,-1,1623,904,0,0
406,120,0,0,0,0,0,0,0,0,0,-1,1630,904,0,0
413,120,0,0,0,0,0,0,0,0,0,-1,1637,904,0,0
420,120,0,0,0,0,0,0,0,0,0,-1,1644,904,0,0
427,120,0,0,0,0,0,0,0,0,0,-1,1651,904,0,0
434,120,0,0,0,0,0,0,0,0,0,-1,1658,904,0,0
441,120,0,0,0,0,0,0,0,0,0,-1,1665,904,0,0
448,120,0,0,0,0,0,0,0,0,0,-1,1672,904,0,0
455,120,0,0,0,0,0,0,0,0,0,-1,1679,904,0,0
462,120,0,0,0,0,0,0,0,0,0,-1,1686,904,0,0
469,120,0,0,0,0,0,0,0,0,0,-1,1693,904,0,0
476,120,0,0,0,0,0,0,0,0,0,-1,1700,904,0,0
483,120,0,0,0,0,0,0,0,0,0,-1,1707,904,0,0
490,120,0,0,0,0,0,0,0,0,0,-1,1714,904,0,0
497,120,0,0,0,0,0,0,0,0,0,-1,1721,904,0,0
504,120,0,0,0,0,0,0,0,0,0,-1,1728,904,0,0
511,120,0,0,0,0,0,0,0,0,0,-1,1735,904,0,0
518,120,0,0,0,0,0,0,0,0,0,-1,1742,904,0,0
525,120,0,0,0,0,0,0,0,0,0,-1,1749,904,0,0
532,120,0,0,0,0,0,0,0,0,0,-1,1756,904,0,0
539,120,0,0,0,0,0,0,0,0,0,-1,1763,904,0,0
546,120,0,0,0,0,0,0,0,0,0,-1,1770,904,0,0
553,120,0,0,0,0,0,0,0,0,0,-1,1777,904,0,0
560,120,0,0,0,0,0,0,0,0,0,-1,1784,904,0,0
567,120,0,0,0,0,0,0,0,0,0,-1,1791,904,0,0
574,120,0,0,0,0,0,0,0,0,0,-1,1798,904,0,0
581,120,0,0,0,0,0,0,0,0,0,-1,1805,904,0,0
588,120,0,0,0,0,0,0,0,0,0,-1,1812,904,0,0
595,120,0,0,0,0,0,0,0,0,0,-1,1819,904,0,0
602,120,0,0,0,0,0,0,0,0,0,-1,1826,904,0,0
609,120,0,0,0,0,0,0,0,0,0,-1,1833,904,0,0
616,120,0,0,0,0,0,0,0,0,0,-1,1840,904,0,0
623,120,0,0,0,0,0,0,0,0,0,-1,1847,904,0,0
630,120,64.5026,2.51965,0.00305855,-0.00460676,-0.00475874,0.00533612,-0.00688433,-0.446388,0.00707433,0.0393143,1854,904,64.5025,-2.51963
637,120,64.6672,2.56427,0.00130855,-0.00317688,-0.00418265,0.00381181,-0.00568015,-0.539307,0.00551546,0.0415479,1861,904,64.6672,-2.56429
644,120,64.5623,2.47363,-7.83631e-05,-0.00190236,-0.00335771,0.002489,-0.00446972,-0.652791,0.00407151,0.0416843,1868,904,64.5623,-2.47361
651,120,64.3999,2.50787,-0.00125316,-0.000640402,-0.00237366,0.00144657,-0.00334014,-0.849581,0.00283477,0.0431953,1875,904,64.3999,-2.50788
658,120,64.2634,2.71783,-0.00186854,0.000454698,-0.0013417,0.00106777,-0.00248161,-1.14219,0.00210273,0.042643,1882,904,64.2634,-2.71785
665,120,64.2616,2.75311,-0.00177603,0.00159432,-0.000509207,0.00166958,-0.00185128,-1.42407,0.00203367,0.036776,1889,904,64.2616,-2.75314
672,120,64.29,2.64532,-0.00141957,0.00191435,-0.000135975,0.00191989,-0.0014251,-1.5301,0.00193826,0.0349821,1896,904,64.29,-2.64532
679,120,64.3004,2.5932,-0.00106173,0.00186337,1.14751e-05,0.00186341,-0.00106177,1.56687,0.00170987,0.0313163,1903,904,64.3004,-2.59319
686,120,64.271,2.62079,-0.000934271,0.00183288,-8.40947e-05,0.00183543,-0.000936824,-1.54044,0.00162835,0.0301513,1910,904,64.271,-2.6208
693,120,64.2982,2.66144,0,0,0,0,0,0,0,-1,1917,904,64.2983,-2.66146
700,120,42.2007,3.00946,0,0,0,0,0,0,0,-1,1924,904,42.2007,-3.00944
707,120,57.1193,3.07074,0,0,0,0,0,0,0,-1,1931,904,57.1192,-3.07074
714,120,57.823,3.71002,0,0,0,0,0,0,0,-1,1938,904,57.823,-3.71001
721,120,57.5361,4.62634,-0.000421117,0.00252629,-0.000678771,0.00267509,-0.000569922,-1.35498,0.00200061,0.0222173,1945,904,57.5362,-4.62633
728,120,57.391,5.2525,-0.000739555,0.00282776,-0.000801043,0.00299938,-0.000911173,-1.35974,0.00236262,0.0151472,1952,904,57.391,-5.2525
735,120,57.3383,5.83691,-0.00145431,0.00336349,-0.000884653,0.0035208,-0.00161162,-1.39482,0.00303077,0.0131114,1959,904,57.3383,-5.83689
742,120,57.2837,6.49457,-0.00190945,0.00466586,-0.00069602,0.00473873,-0.00198232,-1.46648,0.0039877,0.0143202,1966,904,57.2837,-6.49458
749,120,57.2559,7.10187,-0.00199421,0.00666016,0.000213884,0.00666544,-0.0019995,1.5461,0.0052389,0.0109389,1973,904,57.2559,-7.10187
756,120,57.176,7.71399,-0.00155837,0.00927993,0.00183293,0.00958151,-0.00185996,1.40772,0.00708946,0.0140716,1980,904,57.1761,-7.71396
763,120,57.0438,8.31763,2.41274e-05,0.0121347,0.00413943,0.0134144,-0.00125553,1.27098,0.00938945,0.0324886,1987,904,57.0438,-8.31765
770,120,56.9355,8.9342,0,0,0,0,0,0,0,-1,1994,904,56.9356,-8.93418
777,120,59.313,9.57587,0,0,0,0,0,0,0,-1,2001,904,59.3129,-9.57587
784,120,60.7788,13.7254,0,0,0,0,0,0,0,-1,2008,904,60.7789,-13.7254
791,120,65.2546,12.2073,0,0,0,0,0,0,0,-1,2015,904,65.2548,-12.2073
798,120,60.5566,12.1177,0,0,0,0,0,0,0,-1,2022,904,60.5567,-12.1177
805,120,0,0,0,0,0,0,0,0,0,-1,2029,904,0,0
812,120,0,0,0,0,0,0,0,0,0,-1,2036,904,0,0
-700,113,0,0,0,0,0,0,0,0,0,-1,524,911,0,0
-693,113,0,0,0,0,0,0,0,0,0,-1,531,911,0,0
-686,113,0,0,0,0,0,0,0,0,0,-1,538,911,0,0
-679,113,-45.4833,4.20221,0.0107591,-0.0122913,0.0481442,0.0487383,-0.0502706,0.667915,0.0571651,0.0462442,545,911,-45.4833,-4.20219
-672,113,-45.612,4.86572,0.0131918,0.00287532,0.038063,0.0464445,-0.0303774,0.718049,0.0446753,0.0484224,552,911,-45.612,-4.86571
-665,113,-45.8514,5.37347,0,0,0,0,0,0,0,-1,559,911,-45.8514,-5.37349
-658,113,-46.0276,5.6947,0,0,0,0,0,0,0,-1,566,911,-46.0276,-5.69473
-651,113,-46.564,6.46753,0,0,0,0,0,0,0,-1,573,911,-46.564,-6.46752
-644,113,-43.5946,6.78424,0,0,0,0,0,0,0,-1,580,911,-43.5946,-6.78422
-637,113,-43.6818,6.26532,0,0,0,0,0,0,0,-1,587,911,-43.6818,-6.26535
-630,113,-43.6147,5.90289,0.00327745,0.0182752,0.00611233,0.0204507,0.00110194,1.22886,0.0132817,0.0230956,594,911,-43.6147,-5.90287
-623,113,-43.7087,5.33435,0.00136683,0.0152785,0.00367383,0.0161891,0.000456237,1.32783,0.0106439,0.012936,601,911,-43.7087,-5.33435
-616,113,-43.7386,4.75018,-0.00133521,0.0103682,0.00243514,0.0108546,-0.00182168,1.37362,0.00791384,0.0114855,608,911,-43.7386,-4.75019
-609,113,-43.7446,4.18787,-0.00408793,0.00462748,0.0021713,0.00513846,-0.00459891,1.33967,0.00562475,0.012179,615,911,-43.7445,-4.18788
-602,113,-43.7647,3.56134,-0.00558933,0.00205406,0.00200568,0.0025484,-0.00608367,1.32915,0.00512115,0.0213102,622,911,-43.7647,-3.56137
-595,113,-43.8086,3.10315,-0.00630744,0.000707308,0.00172406,0.00110814,-0.00670827,1.34236,0.00488365,0.0291176,629,911,-43.8086,-3.10314
-588,113,-43.7468,2.44702,-0.0064637,-0.000249716,0.00115343,-4.25244e-05,-0.00667089,1.39306,0.00443315,0.0345902,636,911,-43.7468,-2.44703
-581,113,-43.7844,1.8504,-0.00607077,-0.000457001,0.000979764,-0.000290918,-0.00623685,1.40288,0.0040644,0.0351036,643,911,-43.7844,-1.85042
-574,113,-43.7609,1.03229,0,0,0,0,0,0,0,-1,650,911,-43.7609,-1.03229
-567,113,-21.8396,0.437378,0,0,0,0,0,0,0,-1,657,911,-21.8396,-0.437351
-560,113,-48.8683,0.889893,0,0,0,0,0,0,0,-1,664,911,-48.8683,-0.889886
-553,113,-48.8647,0.902832,-0.00495899,-0.00108553,0.00116105,-0.000764173,-0.00528035,1.30078,0.00329518,0.0458673,671,911,-48.8647,-0.902847
-546,113,-48.8818,0.989502,-0.00478391,-0.00091356,0.00112245,-0.000611594,-0.00508588,1.30799,0.00320623,0.0356147,678,911,-48.8818,-0.989474
-539,113,-48.8671,0.912476,-0.00415688,-0.00049546,0.00124218,-0.000113813,-0.00453852,1.27271,0.00298847,0.0351465,685,911,-48.8672,-0.912462
-532,113,-48.8172,0.709045,-0.00280475,0.000140802,0.00158603,0.00083241,-0.00349636,1.15959,0.00265228,0.0349072,692,911,-48.8172,-0.709061
-525,113,-48.9075,0.767029,-0.00171785,0.000826735,0.00219593,0.00209232,-0.00298344,1.04796,0.00294551,0.0352863,699,911,-48.9075,-0.767034
-518,113,-49.1611,1.0238,-0.00169969,0.00165801,0.00278374,0.00322997,-0.00327164,1.05674,0.00375373,0.0392629,706,911,-49.1611,-1.02383
-511,113,-49.2563,1.17981,-0.00190643,0.00194706,0.00309089,0.00366256,-0.00362193,1.06411,0.00420572,0.0417651,713,911,-49.2563,-1.1798
-504,113,0,0,0,0,0,0,0,0,0,-1,720,911,0,0
-497,113,0,0,0,0,0,0,0,0,0,-1,727,911,0,0
-490,113,0,0,0,0,0,0,0,0,0,-1,734,911,0,0
-483,113,0,0,0,0,0,0,0,0,0,-1,741,911,0,0
-476,113,0,0,0,0,0,0,0,0,0,-1,748,911,0,0
-469,113,0,0,0,0,0,0,0,0,0,-1,755,911,0,0
-462,113,0,0,0,0,0,0,0,0,0,-1,762,911,0,0
-455,113,0,0,0,0,0,0,0,0,0,-1,769,911,0,0
-448,113,0,0,0,0,0,0,0,0,0,-1,776,911,0,0
-441,113,0,0,0,0,0,0,0,0,0,-1,783,911,0,0
-434,113,0,0,0,0,0,0,0,0,0,-1,790,911,0,0
-427,113,0,0,0,0,0,0,0,0,0,-1,797,911,0,0
-420,113,0,0,0,0,0,0,0,0,0,-1,804,911,0,0
-413,113,0,0,0,0,0,0,0,0,0,-1,811,911,0,0
-406,113,0,0,0,0,0,0,0,0,0,-1,818,911,0,0
-399,113,0,0,0,0,0,0,0,0,0,-1,825,911,0,0
-392,113,0,0,0,0,0,0,0,0,0,-1,832,911,0,0
-385,113,0,0,0,0,0,0,0,0,0,-1,839,911,0,0
-378,113,0,0,0,0,0,0,0,0,0,-1,846,911,0,0
-371,113,0,0,0,0,0,0,0,0,0,-1,853,911,0,0
-364,113,0,0,0,0,0,0,0,0,0,-1,860,911,0,0
-357,113,0,0,0,0,0,0,0,0,0,-1,867,911,0,0
-350,113,0,0,0,0,0,0,0,0,0,-1,874,911,0,0
-343,113,0,0,0,0,0,0,0,0,0,-1,881,911,0,0
-336,113,0,0,0,0,0,0,0,0,0,-1,888,911,0,0
-329,113,0,0,0,0,0,0,0,0,0,-1,895,911,0,0
-322,113,0,0,0,0,0,0,0,0,0,-1,902,911,0,0
-315,113,0,0,0,0,0,0,0,0,0,-1,909,911,0,0
-308,113,0,0,0,0,0,0,0,0,0,-1,916,911,0,0
-301,113,0,0,0,0,0,0,0,0,0,-1,923,911,0,0
-294,113,0,0,0,0,0,0,0,0,0,-1,930,911,0,0
-287,113,0,0,0,0,0,0,0,0,0,-1,937,911,0,0
-280,113,0,0,0,0,0,0,0,0,0,-1,944,911,0,0
-273,113,0,0,0,0,0,0,0,0,0,-1,951,911,0,0
-266,113,0,0,0,0,0,0,0,0,0,-1,958,911,0,0
-259,113,0,0,0,0,0,0,0,0,0,-1,965,911,0,0
-252,113,0,0,0,0,0,0,0,0,0,-1,972,911,0,0
-245,113,0,0,0,0,0,0,0,0,0,-1,979,911,0,0
-238,113,0,0,0,0,0,0,0,0,0,-1,986,911,0,0
-231,113,0,0,0,0,0,0,0,0,0,-1,993,911,0,0
-224,113,0,0,0,0,0,0,0,0,0,-1,1000,911,0,0
-217,113,0,0,0,0,0,0,0,0,0,-1,1007,911,0,0
-210,113,0,0,0,0,0,0,0,0,0,-1,1014,911,0,0
-203,113,0,0,0,0,0,0,0,0,0,-1,1021,911,0,0
-196,113,0,0,0,0,0,0,0,0,0,-1,1028,911,0,0
-189,113,0,0,0,0,0,0,0,0,0,-1,1035,911,0,0
-182,113,0,0,0,0,0,0,0,0,0,-1,1042,911,0,0
-175,113,0,0,0,0,0,0,0,0,0,-1,1049,911,0,0
-168,113,0,0,0,0,0,0,0,0,0,-1,1056,911,0,0
-161,113,0,0,0,0,0,0,0,0,0,-1,1063,911,0,0
-154,113,0,0,0,0,0,0,0,0,0,-1,1070,911,0,0
-147,113,0,0,0,0,0,0,0,0,0,-1,1077,911,0,0
-140,113,0,0,0,0,0,0,0,0,0,-1,1084,911,0,0
-133,113,0,0,0,0,0,0,0,0,0,-1,1091,911,0,0
-126,113,0,0,0,0,0,0,0,0,0,-1,1098,911,0,0
-119,113,0,0,0,0,0,0,0,0,0,-1,1105,911,0,0
-112,113,0,0,0,0,0,0,0,0,0,-1,1112,911,0,0
-105,113,0,0,0,0,0,0,0,0,0,-1,1119,911,0,0
-98,113,0,0,0,0,0,0,0,0,0,-1,1126,911,0,0
-91,113,0,0,0,0,0,0,0,0,0,-1,1133,911,0,0
-84,113,0,0,0,0,0,0,0,0,0,-1,1140,911,0,0
-77,113,0,0,0,0,0,0,0,0,0,-1,1147,911,0,0
-70,113,0,0,0,0,0,0,0,0,0,-1,1154,911,0,0
-63,113,0,0,0,0,0,0,0,0,0,-1,1161,911,0,0
-56,113,0,0,0,0,0,0,0,0,0,-1,1168,911,0,0
-49,113,0,0,0,0,0,0,0,0,0,-1,1175,911,0,0
-42,113,0,0,0,0,0,0,0,0,0,-1,1182,911,0,0
-35,113,0,0,0,0,0,0,0,0,0,-1,1189,911,0,0
-28,113,0,0,0,0,0,0,0,0,0,-1,1196,911,0,0
-21,113,0,0,0,0,0,0,0,0,0,-1,1203,911,0,0
-14,113,0,0,0,0,0,0,0,0,0,-1,1210,911,0,0
-7,113,0,0,0,0,0,0,0,0,0,-1,1217,911,0,0
0,113,0,0,0,0,0,0,0,0,0,-1,1224,911,0,0
7,113,0,0,0,0,0,0,0,0,0,-1,1231,911,0,0
14,113,0,0,0,0,0,0,0,0,0,-1,1238,911,0,0
21,113,0,0,0,0,0,0,0,0,0,-1,1245,911,0,0
28,113,0,0,0,0,0,0,0,0,0,-1,1252,911,0,0
35,113,0,0,0,0,0,0,0,0,0,-1,1259,911,0,0
42,113,0,0,0,0,0,0,0,0,0,-1,1266,911,0,0
49,113,0,0,0,0,0,0,0,0,0,-1,1273,911,0,0
56,113,0,0,0,0,0,0,0,0,0,-1,1280,911,0,0
63,113,0,0,0,0,0,0,0,0,0,-1,1287,911,0,0
70,113,0,0,0,0,0,0,0,0,0,-1,1294,911,0,0
77,113,0,0,0,0,0,0,0,0,0,-1,1301,911,0,0
84,113,0,0,0,0,0,0,0,0,0,-1,1308,911,0,0
91,113,0,0,0,0,0,0,0,0,0,-1,1315,911,0,0
98,113,0,0,0,0,0,0,0,0,0,-1,1322,911,0,0
105,113,0,0,0,0,0,0,0,0,0,-1,1329,911,0,0
112,113,0,0,0,0,0,0,0,0,0,-1,1336,911,0,0
119,113,0,0,0,0,0,0,0,0,0,-1,1343,911,0,0
126,113,0,0,0,0,0,0,0,0,0,-1,1350,911,0,0
133,113,0,0,0,0,0,0,0,0,0,-1,1357,911,0,0
140,113,0,0,0,0,0,0,0,0,0,-1,1364,911,0,0
147,113,0,0,0,0,0,0,0,0,0,-1,1371,911,0,0
154,113,0,0,0,0,0,0,0,0,0,-1,1378,911,0,0
161,113,0,0,0,0,0,0,0,0,0,-1,1385,911,0,0
168,113,0,0,0,0,0,0,0,0,0,-1,1392,911,0,0
175,113,0,0,0,0,0,0,0,0,0,-1,1399,911,0,0
182,113,0,0,0,0,0,0,0,0,0,-1,1406,911,0,0
189,113,0,0,0,0,0,0,0,0,0,-1,1413,911,0,0
196,113,0,0,0,0,0,0,0,0,0,-1,1420,911,0,0
203,113,0,0,0,0,0,0,0,0,0,-1,1427,911,0,0
210,113,0,0,0,0,0,0,0,0,0,-1,1434,911,0,0
217,113,0,0,0,0,0,0,0,0,0,-1,1441,911,0,0
224,113,0,0,0,0,0,0,0,0,0,-1,1448,911,0,0
231,113,0,0,0,0,0,0,0,0,0,-1,1455,911,0,0
238,113,0,0,0,0,0,0,0,0,0,-1,1462,911,0,0
245,113,0,0,0,0,0,0,0,0,0,-1,1469,911,0,0
252,113,0,0,0,0,0,0,0,0,0,-1,1476,911,0,0
259,113,0,0,0,0,0,0,0,0,0,-1,1483,911,0,0
266,113,0,0,0,0,0,0,0,0,0,-1,1490,911,0,0
273,113,0,0,0,0,0,0,0,0,0,-1,1497,911,0,0
280,113,0,0,0,0,0,0,0,0,0,-1,1504,911,0,0
287,113,0,0,0,0,0,0,0,0,0,-1,1511,911,0,0
294,113,0,0,0,0,0,0,0,0,0,-1,1518,911,0,0
301,113,0,0,0,0,0,0,0,0,0,-1,1525,911,0,0
308,113,0,0,0,0,0,0,0,0,0,-1,1532,911,0,0
315,113,0,0,0,0,0,0,0,0,0,-1,1539,911,0,0
322,113,0,0,0,0,0,0,0,0,0,-1,1546,911,0,0
329,113,0,0,0,0,0,0,0,0,0,-1,1553,911,0,0
336,113,0,0,0,0,0,0,0,0,0,-1,1560,911,0,0
343,113,0,0,0,0,0,0,0,0,0,-1,1567,911,0,0
350,113,0,0,0,0,0,0,0,0,0,-1,1574,911,0,0
357,113,0,0,0,0,0,0,0,0,0,-1,1581,911,0,0
364,113,0,0,0,0,0,0,0,0,0,-1,1588,911,0,0
371,113,0,0,0,0,0,0,0,0,0,-1,1595,911,0,0
378,113,0,0,0,0,0,0,0,0,0,-1,1602,911,0,0
385,113,0,0,0,0,0,0,0,0,0,-1,1609,911,0,0
392,113,0,0,0,0,0,0,0,0,0,-1,1616,911,0,0
399,113,0,0,0,0,0,0,0,0,0,-1,1623,911,0,0
406,113,0,0,0,0,0,0,0,0,0,-1,1630,911,0,0
413,113,0,0,0,0,0,0,0,0,0,-1,1637,911,0,0
420,113,0,0,0,0,0,0,0,0,0,-1,1644,911,0,0
427,113,0,0,0,0,0,0,0,0,0,-1,1651,911,0,0
434,113,0,0,0,0,0,0,0,0,0,-1,1658,911,0,0
441,113,0,0,0,0,0,0,0,0,0,-1,1665,911,0,0
448,113,0,0,0,0,0,0,0,0,0,-1,1672,911,0,0
455,113,0,0,0,0,0,0,0,0,0,-1,1679,911,0,0
462,113,0,0,0,0,0,0,0,0,0,-1,1686,911,0,0
469,113,0,0,0,0,0,0,0,0,0,-1,1693,911,0,0
476,113,0,0,0,0,0,0,0,0,0,-1,1700,911,0,0
483,113,0,0,0,0,0,0,0,0,0,-1,1707,911,0,0
490,113,0,0,0,0,0,0,0,0,0,-1,1714,911,0,0
497,113,0,0,0,0,0,0,0,0,0,-1,1721,911,0,0
504,113,0,0,0,0,0,0,0,0,0,-1,1728,911,0,0
511,113,0,0,0,0,0,0,0,0,0,-1,1735,911,0,0
518,113,0,0,0,0,0,0,0,0,0,-1,1742,911,0,0
525,113,0,0,0,0,0,0,0,0,0,-1,1749,911,0,0
532,113,0,0,0,0,0,0,0,0,0,-1,1756,911,0,0
539,113,0,0,0,0,0,0,0,0,0,-1,1763,911,0,0
546,113,0,0,0,0,0,0,0,0,0,-1,1770,911,0,0
553,113,0,0,0,0,0,0,0,0,0,-1,1777,911,0,0
560,113,0,0,0,0,0,0,0,0,0,-1,1784,911,0,0
567,113,0,0,0,0,0,0,0,0,0,-1,1791,911,0,0
574,113,0,0,0,0,0,0,0,0,0,-1,1798,911,0,0
581,113,0,0,0,0,0,0,0,0,0,-1,1805,911,0,0
588,113,0,0,0,0,0,0,0,0,0,-1,1812,911,0,0
595,113,0,0,0,0,0,0,0,0,0,-1,1819,911,0,0
602,113,0,0,0,0,0,0,0,0,0,-1,1826,911,0,0
609,113,0,0,0,0,0,0,0,0,0,-1,1833,911,0,0
616,113,0,0,0,0,0,0,0,0,0,-1,1840,911,0,0
623,113,0,0,0,0,0,0,0,0,0,-1,1847,911,0,0
630,113,64.4996,2.53595,0.00395795,-0.00449115,-0.0054583,0.00663557,-0.00716877,-0.456066,0.00797192,0.039771,1854,911,64.4996,-2.53594
637,113,64.5825,2.63898,0.00187488,-0.003112,-0.00488188,0.00486323,-0.00610034,-0.549291,0.00634324,0.0375281,1861,911,64.5826,-2.63895
644,113,64.437,2.57629,0.000358693,-0.00194293,-0.00402346,0.00339269,-0.00497692,-0.646105,0.00486097,0.0368168,1868,911,64.4371,-2.57628
651,113,64.3739,2.68494,-0.000938879,-0.000755621,-0.0029282,0.00208239,-0.00377689,-0.801039,0.00342968,0.0408996,1875,911,64.3739,-2.68493
658,113,64.3805,2.71484,-0.00174812,0.000364367,-0.00169121,0.00130207,-0.00268583,-1.06454,0.00234816,0.0418424,1882,911,64.3805,-2.71486
665,113,64.3734,2.64142,-0.00180279,0.00151981,-0.00055912,0.00161138,-0.00189435,-1.40847,0.00202623,0.0369141,1889,911,64.3735,-2.6414
672,113,64.2784,2.66156,-0.00158387,0.00190577,6.60624e-05,0.00190702,-0.00158512,1.55187,0.00201904,0.0359507,1896,911,64.2785,-2.66157
679,113,64.3193,2.53253,-0.00128042,0.00184889,0.00036049,0.00188988,-0.00132141,1.45757,0.0018637,0.0316039,1903,911,64.3193,-2.53253
686,113,64.3159,2.62781,-0.00111287,0.00180502,0.000297566,0.00183506,-0.00114291,1.4702,0.00173474,0.0262161,1910,911,64.3159,-2.62782
693,113,64.1331,2.83069,0,0,0,0,0,0,0,-1,1917,911,64.133,-2.8307
700,113,43.897,2.79669,0,0,0,0,0,0,0,-1,1924,911,43.897,-2.79671
707,113,57.9796,3.31677,0,0,0,0,0,0,0,-1,1931,911,57.9796,-3.31676
714,113,58.0713,3.94519,0,0,0,0,0,0,0,-1,1938,911,58.0713,-3.94519
721,113,58.0806,4.5733,-0.000852697,0.00252025,-0.000382784,0.00256315,-0.000895592,-1.4592,0.00207282,0.0255779,1945,911,58.0805,-4.57329
728,113,58.1246,5.25677,-0.00113245,0.00283265,-0.000559859,0.00291019,-0.00120999,-1.43318,0.00244536,0.0263068,1952,911,58.1247,-5.25676
735,113,58.0023,5.87207,-0.00184505,0.00340241,-0.000781567,0.00351634,-0.00195899,-1.42604,0.00320352,0.0218171,1959,911,58.0023,-5.87207
742,113,57.9183,6.46423,-0.00220731,0.00475778,-0.000859349,0.00486224,-0.00231177,-1.44983,0.00422827,0.013188,1966,911,57.9184,-6.46425
749,113,57.9204,7.07727,-0.00211689,0.00690169,-0.0002613,0.00690925,-0.00212446,-1.54186,0.00545403,0.00995659,1973,911,57.9204,-7.07729
756,113,57.843,7.73267,-0.00151922,0.0097998,0.00115416,0.00991629,-0.0016357,1.47021,0.00721814,0.0151231,1980,911,57.843,-7.73267
763,113,57.67,8.54047,7.58594e-05,0.0129604,0.00333614,0.0137729,-0.000736709,1.33188,0.00943712,0.0381872,1987,911,57.6701,-8.54047
770,113,57.5715,9.36279,0,0,0,0,0,0,0,-1,1994,911,57.5714,-9.36278
777,113,58.1719,9.65338,0,0,0,0,0,0,0,-1,2001,911,58.172,-9.6534
784,113,59.4839,11.6239,0,0,0,0,0,0,0,-1,2008,911,59.4839,-11.6239
791,113,58.9817,11.2714,0,0,0,0,0,0,0,-1,2015,911,58.9818,-11.2714
798,113,59.0127,11.0225,0,0,0,0,0,0,0,-1,2022,911,59.0128,-11.0225
805,113,0,0,0,0,0,0,0,0,0,-1,2029,911,0,0
812,113,0,0,0,0,0,0,0,0,0,-1,2036,911,0,0
-700,106,0,0,0,0,0,0,0,0,0,-1,524,918,0,0
-693,106,0,0,0,0,0,0,0,0,0,-1,531,918,0,0
-686,106,0,0,0,0,0,0,0,0,0,-1,538,918,0,0
-679,106,-46.7697,9.79352,0,0,0,0,0,0,0,-1,545,918,-46.7697,-9.79354
-672,106,-46.1772,9.94049,0,0,0,0,0,0,0,-1,552,918,-46.1773,-9.9405
-665,106,-45.5367,10.2706,0,0,0,0,0,0,0,-1,559,918,-45.5367,-10.2706
-658,106,-45.3126,9.86127,0,0,0,0,0,0,0,-1,566,918,-45.3126,-9.86129
-651,106,-42.8836,6.99042,0,0,0,0,0,0,0,-1,573,918,-42.8836,-6.99043
-644,106,-43.1669,6.68109,0,0,0,0,0,0,0,-1,580,918,-43.1669,-6.68112
-637,106,-43.9402,6.53351,0,0,0,0,0,0,0,-1,587,918,-43.9403,-6.53351
-630,106,-44.1886,5.97375,0.00456429,0.020543,0.00581689,0.0224363,0.00267104,1.25613,0.0141514,0.0178031,594,918,-44.1886,-5.97373
-623,106,-44.3641,5.28802,0.00215885,0.0163412,0.00380341,0.0172968,0.00120324,1.32464,0.0111518,0.0180596,601,918,-44.3641,-5.28801
-616,106,-44.4102,4.69452,-0.000788612,0.0106955,0.00272171,0.0113079,-0.00140099,1.34948,0.00804637,0.0181949,608,918,-44.4102,-4.69454
-609,106,-44.3986,4.18207,-0.00365006,0.00486438,0.00232428,0.00545754,-0.00424321,1.32093,0.00561534,0.0138268,615,918,-44.3986,-4.18207
-602,106,-44.4115,3.58673,-0.00523662,0.00236268,0.00196934,0.00284271,-0.00571665,1.33171,0.00503374,0.0225091,622,918,-44.4115,-3.58673
-595,106,-44.5701,3.0379,-0.00608276,0.00102808,0.00159591,0.00136984,-0.00642451,1.35984,0.00480515,0.0276726,629,918,-44.5701,-3.03788
-588,106,-44.5923,2.43488,-0.00636887,4.49446e-05,0.000983635,0.000192407,-0.00651633,1.42199,0.00440975,0.0330482,636,918,-44.5923,-2.43488
-581,106,-44.3999,1.79395,-0.0060621,-0.000304011,0.00067702,-0.00022548,-0.00614063,1.45532,0.0040207,0.0207713,643,918,-44.3999,-1.79395
-574,106,-44.5245,1.18359,0,0,0,0,0,0,0,-1,650,918,-44.5245,-1.18357
-567,106,-41.3706,0.420776,0,0,0,0,0,0,0,-1,657,918,-41.3706,-0.420794
-560,106,-48.8301,0.848755,0,0,0,0,0,0,0,-1,664,918,-48.8302,-0.848765
-553,106,-48.8499,0.920959,-0.00502275,-0.000856592,0.000705562,-0.000740344,-0.005139,1.4075,0.00320782,0.0345671,671,918,-48.8499,-0.920968
-546,106,-48.8825,0.994324,-0.00474355,-0.000587815,0.000720239,-0.000466529,-0.00486483,1.40396,0.00309944,0.0396777,678,918,-48.8825,-0.994318
-539,106,-49.0566,0.613159,0,0,0,0,0,0,0,-1,685,918,-49.0566,-0.613156
-532,106,-48.9699,0.536499,-0.00242442,0.00061717,0.0014978,0.0012309,-0.00303816,1.18191,0.0025373,0.0387179,692,918,-48.9699,-0.536469
-525,106,-48.9638,0.631714,-0.00110702,0.00144851,0.00240096,0.00289053,-0.00254905,1.02993,0.00314261,0.0370269,699,918,-48.9638,-0.631694
-518,106,-49.1014,1.12128,-0.00108616,0.00262147,0.003249,0.00450833,-0.00297302,1.04465,0.00434957,0.0390145,706,918,-49.1014,-1.12128
-511,106,0,0,0,0,0,0,0,0,0,-1,713,918,0,0
-504,106,0,0,0,0,0,0,0,0,0,-1,720,918,0,0
-497,106,0,0,0,0,0,0,0,0,0,-1,727,918,0,0
-490,106,0,0,0,0,0,0,0,0,0,-1,734,918,0,0
-483,106,0,0,0,0,0,0,0,0,0,-1,741,918,0,0
-476,106,0,0,0,0,0,0,0,0,0,-1,748,918,0,0
-469,106,0,0,0,0,0,0,0,0,0,-1,755,918,0,0
-462,106,0,0,0,0,0,0,0,0,0,-1,762,918,0,0
-455,106,0,0,0,0,0,0,0,0,0,-1,769,918,0,0
-448,106,0,0,0,0,0,0,0,0,0,-1,776,918,0,0
-441,106,0,0,0,0,0,0,0,0,0,-1,783,918,0,0
-434,106,0,0,0,0,0,0,0,0,0,-1,790,918,0,0
-427,106,0,0,0,0,0,0,0,0,0,-1,797,918,0,0
-420,106,0,0,0,0,0,0,0,0,0,-1,804,918,0,0
-413,106,0,0,0,0,0,0,0,0,0,-1,811,918,0,0
-406,106,0,0,0,0,0,0,0,0,0,-1,818,918,0,0
-399,106,0,0,0,0,0,0,0,0,0,-1,825,918,0,0
-392,106,0,0,0,0,0,0,0,0,0,-1,832,918,0,0
-385,106,0,0,0,0,0,0,0,0,0,-1,839,918,0,0
-378,106,0,0,0,0,0,0,0,0,0,-1,846,918,0,0
-371,106,0,0,0,0,0,0,0,0,0,-1,853,918,0,0
-364,106,0,0,0,0,0,0,0,0,0,-1,860,918,0,0
-357,106,0,0,0,0,0,0,0,0,0,-1,867,918,0,0
-350,106,0,0,0,0,0,0,0,0,0,-1,874,918,0,0
-343,106,0,0,0,0,0,0,0,0,0,-1,881,918,0,0
-336,106,0,0,0,0,0,0,0,0,0,-1,888,918,0,0
-329,106,0,0,0,0,0,0,0,0,0,-1,895,918,0,0
-322,106,0,0,0,0,0,0,0,0,0,-1,902,918,0,0
-315,106,0,0,0,0,0,0,0,0,0,-1,909,918,0,0
-308,106,0,0,0,0,0,0,0,0,0,-1,916,918,0,0
-301,106,0,0,0,0,0,0,0,0,0,-1,923,918,0,0
-294,106,0,0,0,0,0,0,0,0,0,-1,930,918,0,0
-287,106,0,0,0,0,0,0,0,0,0,-1,937,918,0,0
-280,106,0,0,0,0,0,0,0,0,0,-1,944,918,0,0
-273,106,0,0,0,0,0,0,0,0,0,-1,951,918,0,0
-266,106,0,0,0,0,0,0,0,0,0,-1,958,918,0,0
-259,106,0,0,0,0,0,0,0,0,0,-1,965,918,0,0
-252,106,0,0,0,0,0,0,0,0,0,-1,972,918,0,0
-245,106,0,0,0,0,0,0,0,0,0,-1,979,918,0,0
-238,106,0,0,0,0,0,0,0,0,0,-1,986,918,0,0
-231,106,0,0,0,0,0,0,0,0,0,-1,993,918,0,0
-224,106,0,0,0,0,0,0,0,0,0,-1,1000,918,0,0
-217,106,0,0,0,0,0,0,0,0,0,-1,1007,918,0,0
-210,106,0,0,0,0,0,0,0,0,0,-1,1014,918,0,0
-203,106,0,0,0,0,0,0,0,0,0,-1,1021,918,0,0
-196,106,0,0,0,0,0,0,0,0,0,-1,1028,918,0,0
-189,106,0,0,0,0,0,0,0,0,0,-1,1035,918,0,0
-182,106,0,0,0,0,0,0,0,0,0,-1,1042,918,0,0
-175,106,0,0,0,0,0,0,0,0,0,-1,1049,918,0,0
-168,106,0,0,0,0,0,0,0,0,0,-1,1056,918,0,0
-161,106,0,0,0,0,0,0,0,0,0,-1,1063,918,0,0
-154,106,0,0,0,0,0,0,0,0,0,-1,1070,918,0,0
-147,106,0,0,0,0,0,0,0,0,0,-1,1077,918,0,0
-140,106,0,0,0,0,0,0,0,0,0,-1,1084,918,0,0
-133,106,0,0,0,0,0,0,0,0,0,-1,1091,918,0,0
-126,106,0,0,0,0,0,0,0,0,0,-1,1098,918,0,0
-119,106,0,0,0,0,0,0,0,0,0,-1,1105,918,0,0
-112,106,0,0,0,0,0,0,0,0,0,-1,1112,918,0,0
-105,106,0,0,0,0,0,0,0,0,0,-1,1119,918,0,0
-98,106,0,0,0,0,0,0,0,0,0,-1,1126,918,0,0
-91,106,0,0,0,0,0,0,0,0,0,-1,1133,918,0,0
-84,106,0,0,0,0,0,0,0,0,0,-1,1140,918,0,0
-77,106,0,0,0,0,0,0,0,0,0,-1,1147,918,0,0
-70,106,0,0,0,0,0,0,0,0,0,-1,1154,918,0,0
-63,106,0,0,0,0,0,0,0,0,0,-1,1161,918,0,0
-56,106,0,0,0,0,0,0,0,0,0,-1,1168,918,0,0
-49,106,0,0,0,0,0,0,0,0,0,-1,1175,918,0,0
-42,106,0,0,0,0,0,0,0,0,0,-1,1182,918,0,0
-35,106,0,0,0,0,0,0,0,0,0,-1,1189,918,0,0
-28,106,0,0,0,0,0,0,0,0,0,-1,1196,918,0,0
-21,106,0,0,0,0,0,0,0,0,0,-1,1203,918,0,0
-14,106,0,0,0,0,0,0,0,0,0,-1,1210,918,0,0
-7,106,0,0,0,0,0,0,0,0,0,-1,1217,918,0,0
0,106,0,0,0,0,0,0,0,0,0,-1,1224,918,0,0
7,106,0,0,0,0,0,0,0,0,0,-1,1231,918,0,0
14,106,0,0,0,0,0,0,0,0,0,-1,1238,918,0,0
21,106,0,0,0,0,0,0,0,0,0,-1,1245,918,0,0
28,106,0,0,0,0,0,0,0,0,0,-1,1252,918,0,0
35,106,0,0,0,0,0,0,0,0,0,-1,1259,918,0,0
42,106,0,0,0,0,0,0,0,0,0,-1,1266,918,0,0
49,106,0,0,0,0,0,0,0,0,0,-1,1273,918,0,0
56,106,0,0,0,0,0,0,0,0,0,-1,1280,918,0,0
63,106,0,0,0,0,0,0,0,0,0,-1,1287,918,0,0
70,106,0,0,0,0,0,0,0,0,0,-1,1294,918,0,0
77,106,0,0,0,0,0,0,0,0,0,-1,1301,918,0,0
84,106,0,0,0,0,0,0,0,0,0,-1,1308,918,0,0
91,106,0,0,0,0,0,0,0,0,0,-1,1315,918,0,0
98,106,0,0,0,0,0,0,0,0,0,-1,1322,918,0,0
105,106,0,0,0,0,0,0,0,0,0,-1,1329,918,0,0
112,106,0,0,0,0,0,0,0,0,0,-1,1336,918,0,0
119,106,0,0,0,0,0,0,0,0,0,-1,1343,918,0,0
126,106,0,0,0,0,0,0,0,0,0,-1,1350,918,0,0
133,106,0,0,0,0,0,0,0,0,0,-1,1357,918,0,0
140,106,0,0,0,0,0,0,0,0,0,-1,1364,918,0,0
147,106,0,0,0,0,0,0,0,0,0,-1,1371,918,0,0
154,106,0,0,0,0,0,0,0,0,0,-1,1378,918,0,0
161,106,0,0,0,0,0,0,0,0,0,-1,1385,918,0,0
168,106,0,0,0,0,0,0,0,0,0,-1,1392,918,0,0
175,106,0,0,0,0,0,0,0,0,0,-1,1399,918,0,0
182,106,0,0,0,0,0,0,0,0,0,-1,1406,918,0,0
189,106,0,0,0,0,0,0,0,0,0,-1,1413,918,0,0
196,106,0,0,0,0,0,0,0,0,0,-1,1420,918,0,0
203,106,0,0,0,0,0,0,0,0,0,-1,1427,918,0,0
210,106,0,0,0,0,0,0,0,0,0,-1,1434,918,0,0
217,106,0,0,0,0,0,0,0,0,0,-1,1441,918,0,0
224,106,0,0,0,0,0,0,0,0,0,-1,1448,918,0,0
231,106,0,0,0,0,0,0,0,0,0,-1,1455,918,0,0
238,106,0,0,0,0,0,0,0,0,0,-1,1462,918,0,0
245,106,0,0,0,0,0,0,0,0,0,-1,1469,918,0,0
252,106,0,0,0,0,0,0,0,0,0,-1,1476,918,0,0
259,106,0,0,0,0,0,0,0,0,0,-1,1483,918,0,0
266,106,0,0,0,0,0,0,0,0,0,-1,1490,918,0,0
273,106,0,0,0,0,0,0,0,0,0,-1,1497,918,0,0
280,106,0,0,0,0,0,0,0,0,0,-1,1504,918,0,0
287,106,0,0,0,0,0,0,0,0,0,-1,1511,918,0,0
294,106,0,0,0,0,0,0,0,0,0,-1,1518,918,0,0
301,106,0,0,0,0,0,0,0,0,0,-1,1525,918,0,0
308,106,0,0,0,0,0,0,0,0,0,-1,1532,918,0,0
315,106,0,0,0,0,0,0,0,0,0,-1,1539,918,0,0
322,106,0,0,0,0,0,0,0,0,0,-1,1546,918,0,0
329,106,0,0,0,0,0,0,0,0,0,-1,1553,918,0,0
336,106,0,0,0,0,0,0,0,0,0,-1,1560,918,0,0
343,106,0,0,0,0,0,0,0,0,0,-1,1567,918,0,0
350,106,0,0,0,0,0,0,0,0,0,-1,1574,918,0,0
357,106,0,0,0,0,0,0,0,0,0,-1,1581,918,0,0
364,106,0,0,0,0,0,0,0,0,0,-1,1588,918,0,0
371,106,0,0,0,0,0,0,0,0,0,-1,1595,918,0,0
378,106,0,0,0,0,0,0,0,0,0,-1,1602,918,0,0
385,106,0,0,0,0,0,0,0,0,0,-1,1609,918,0,0
392,106,0,0,0,0,0,0,0,0,0,-1,1616,918,0,0
399,106,0,0,0,0,0,0,0,0,0,-1,1623,918,0,0
406,106,0,0,0,0,0,0,0,0,0,-1,1630,918,0,0
413,106,0,0,0,0,0,0,0,0,0,-1,1637,918,0,0
420,106,0,0,0,0,0,0,0,0,0,-1,1644,918,0,0
427,106,0,0,0,0,0,0,0,0,0,-1,1651,918,0,0
434,106,0,0,0,0,0,0,0,0,0,-1,1658,918,0,0
441,106,0,0,0,0,0,0,0,0,0,-1,1665,918,0,0
448,106,0,0,0,0,0,0,0,0,0,-1,1672,918,0,0
455,106,0,0,0,0,0,0,0,0,0,-1,1679,918,0,0
462,106,0,0,0,0,0,0,0,0,0,-1,1686,918,0,0
469,106,0,0,0,0,0,0,0,0,0,-1,1693,918,0,0
476,106,0,0,0,0,0,0,0,0,0,-1,1700,918,0,0
483,106,0,0,0,0,0,0,0,0,0,-1,1707,918,0,0
490,106,0,0,0,0,0,0,0,0,0,-1,1714,918,0,0
497,106,0,0,0,0,0,0,0,0,0,-1,1721,918,0,0
504,106,0,0,0,0,0,0,0,0,0,-1,1728,918,0,0
511,106,0,0,0,0,0,0,0,0,0,-1,1735,918,0,0
518,106,0,0,0,0,0,0,0,0,0,-1,1742,918,0,0
525,106,0,0,0,0,0,0,0,0,0,-1,1749,918,0,0
532,106,0,0,0,0,0,0,0,0,0,-1,1756,918,0,0
539,106,0,0,0,0,0,0,0,0,0,-1,1763,918,0,0
546,106,0,0,0,0,0,0,0,0,0,-1,1770,918,0,0
553,106,0,0,0,0,0,0,0,0,0,-1,1777,918,0,0
560,106,0,0,0,0,0,0,0,0,0,-1,1784,918,0,0
567,106,0,0,0,0,0,0,0,0,0,-1,1791,918,0,0
574,106,0,0,0,0,0,0,0,0,0,-1,1798,918,0,0
581,106,0,0,0,0,0,0,0,0,0,-1,1805,918,0,0
588,106,0,0,0,0,0,0,0,0,0,-1,1812,918,0,0
595,106,0,0,0,0,0,0,0,0,0,-1,1819,918,0,0
602,106,0,0,0,0,0,0,0,0,0,-1,1826,918,0,0
609,106,0,0,0,0,0,0,0,0,0,-1,1833,918,0,0
616,106,0,0,0,0,0,0,0,0,0,-1,1840,918,0,0
623,106,0,0,0,0,0,0,0,0,0,-1,1847,918,0,0
630,106,64.4813,2.62183,0.00441382,-0.00362683,-0.00621145,0.00779249,-0.00700549,-0.49818,0.00854765,0.0411589,1854,918,64.4813,-2.62185
637,106,64.5145,3.00049,0.00216778,-0.00255506,-0.00562777,0.00590948,-0.00629676,-0.586754,0.00704846,0.0382229,1861,918,64.5145,-3.00051
644,106,64.447,3.00128,0.000640955,-0.0016603,-0.00471871,0.0043473,-0.00536665,-0.66581,0.00561864,0.0359227,1868,918,64.447,-3.00129
651,106,64.4999,2.70361,-0.000657658,-0.000694554,-0.00353301,0.00285695,-0.00420916,-0.782787,0.00410445,0.037907,1875,918,64.4998,-2.70363
658,106,64.5896,2.43744,-0.00155537,0.000307068,-0.00213067,0.00170113,-0.00294943,-0.991417,0.00271705,0.0399887,1882,918,64.5896,-2.43742
665,106,64.4866,2.32532,-0.00174102,0.00136937,-0.000729922,0.00153215,-0.00190379,-1.35138,0.00198761,0.0403884,1889,918,64.4866,-2.32532
672,106,64.2118,2.60352,-0.00167814,0.00179023,0.000170274,0.00179857,-0.00168648,1.52186,0.00201244,0.0405146,1896,918,64.2117,-2.6035
679,106,64.2936,2.46332,-0.00147527,0.00173509,0.000648438,0.00186111,-0.0016013,1.37884,0.0020009,0.0365898,1903,918,64.2936,-2.46329
686,106,64.3374,2.66376,-0.0013076,0.00167113,0.000644143,0.00180445,-0.00144093,1.3667,0.00187764,0.0303201,1910,918,64.3374,-2.66378
693,106,64.1636,2.81976,-0.00124396,0.0018462,0.000504544,0.00192649,-0.00132426,1.41298,0.00188753,0.0387401,1917,918,64.1636,-2.81979
700,106,64.0729,3.09778,0,0,0,0,0,0,0,-1,1924,918,64.0729,-3.09779
707,106,57.8727,3.26898,0,0,0,0,0,0,0,-1,1931,918,57.8726,-3.269
714,106,58.5284,3.84235,0,0,0,0,0,0,0,-1,1938,918,58.5285,-3.84236
721,106,58.7869,4.64954,-0.0013168,0.00252818,-0.000124437,0.00253221,-0.00132082,-1.53848,0.0022609,0.0323028,1945,918,58.7868,-4.64955
728,106,58.8252,5.32397,-0.00153417,0.00290243,-0.000349374,0.00292978,-0.00156151,-1.49269,0.00263285,0.0315123,1952,918,58.8252,-5.32399
735,106,58.7258,5.90784,-0.00222477,0.00353926,-0.000692344,0.00362125,-0.00230677,-1.45292,0.00345048,0.0271133,1959,918,58.7258,-5.90784
742,106,58.6255,6.45685,-0.00253956,0.00493161,-0.00099517,0.00506189,-0.00266984,-1.44062,0.00453457,0.014079,1966,918,58.6255,-6.45685
749,106,58.5807,7.05878,-0.00237705,0.00718356,-0.000707379,0.00723562,-0.00242911,-1.49734,0.00580539,0.0111839,1973,918,58.5807,-7.0588
756,106,58.5245,7.67676,-0.00173747,0.0103227,0.000455631,0.0103399,-0.00175466,1.53309,0.00754643,0.0140568,1980,918,58.5246,-7.67679
763,106,58.4447,8.44293,-0.000272929,0.0137907,0.00246194,0.0142092,-0.000691453,1.40241,0.00971151,0.0312236,1987,918,58.4447,-8.44294
770,106,58.4192,9.21552,0,0,0,0,0,0,0,-1,1994,918,58.4192,-9.21549
777,106,59.6309,9.38074,0,0,0,0,0,0,0,-1,2001,918,59.6309,-9.38072
784,106,58.5339,10.1753,0,0,0,0,0,0,0,-1,2008,918,58.5338,-10.1753
791,106,58.4011,10.7171,0,0,0,0,0,0,0,-1,2015,918,58.4011,-10.7171
798,106,58.8376,10.5853,0,0,0,0,0,0,0,-1,2022,918,58.8377,-10.5853
805,106,0,0,0,0,0,0,0,0,0,-1,2029,918,0,0
812,106,0,0,0,0,0,0,0,0,0,-1,2036,918,0,0
-700,99,0,0,0,0,0,0,0,0,0,-1,524,925,0,0
-693,99,0,0,0,0,0,0,0,0,0,-1,531,925,0,0
-686,99,0,0,0,0,0,0,0,0,0,-1,538,925,0,0
-679,99,-47.3851,9.62433,0,0,0,0,0,0,0,-1,545,925,-47.3851,-9.6243
-672,99,-46.6037,9.52081,0.0291519,0.05392,0.0198391,0.0649231,0.0181489,1.06442,0.0386788,0.0470112,552,925,-46.6037,-9.52084
-665,99,-46.137,9.63812,0.0258446,0.0499777,0.0167417,0.0585482,0.0172741,1.09766,0.0347366,0.0496313,559,925,-46.137,-9.6381
-658,99,-45.6495,9.34674,0,0,0,0,0,0,0,-1,566,925,-45.6495,-9.34676
-651,99,-45.3224,8.005,0,0,0,0,0,0,0,-1,573,925,-45.3224,-8.00499
-644,99,-44.5627,6.82996,0,0,0,0,0,0,0,-1,580,925,-44.5628,-6.82996
-637,99,-44.6335,6.4046,0.00977429,0.0295783,0.00616282,0.0313395,0.0080131,1.29244,0.0188001,0.0344734,587,925,-44.6335,-6.40463
-630,99,-44.8071,5.92548,0.00588906,0.0226435,0.00532578,0.0241931,0.00433946,1.28765,0.0148945,0.0188719,594,925,-44.807,-5.92546
-623,99,-45.0248,5.29456,0.00299288,0.0173126,0.00372311,0.0182228,0.00208273,1.33104,0.0115172,0.0128305,601,925,-45.0248,-5.29454
-616,99,-45.0444,4.70624,-0.000163915,0.0110597,0.00276112,0.0117022,-0.000806402,1.34217,0.00808367,0.0149733,608,925,-45.0445,-4.70627
-609,99,-45.0408,4.19366,-0.00306787,0.00524215,0.00221402,0.00579522,-0.00362094,1.326,0.00548452,0.0129963,615,925,-45.0408,-4.19369
-602,99,-45.0253,3.68481,-0.00472702,0.00280996,0.00167208,0.00316425,-0.00508132,1.362,0.00480328,0.018028,622,925,-45.0253,-3.68483
-595,99,-45.151,3.14423,-0.0057462,0.00146028,0.00123962,0.00166755,-0.00595347,1.40512,0.00462612,0.0244118,629,925,-45.151,-3.14425
-588,99,-45.161,2.54883,-0.00619464,0.000424645,0.000606042,0.000479675,-0.00624967,1.48024,0.00433519,0.0272538,636,925,-45.161,-2.54882
-581,99,-45.1926,1.83179,-0.00598475,-2.38271e-05,0.000191878,-1.76569e-05,-0.00599092,1.53865,0.00398807,0.024644,643,925,-45.1926,-1.83178
-574,99,-45.4614,1.15564,0,0,0,0,0,0,0,-1,650,925,-45.4614,-1.15564
-567,99,-46.9977,1.03534,0,0,0,0,0,0,0,-1,657,925,-46.9978,-1.03533
-560,99,-48.7594,0.783752,0,0,0,0,0,0,0,-1,664,925,-48.7594,-0.783744
-553,99,-48.8776,0.84668,-0.00506494,-0.000286666,9.32924e-05,-0.000284845,-0.00506677,1.55128,0.00328701,0.0382753,671,925,-48.8776,-0.846695
-546,99,-48.7542,0.989502,-0.00462936,0.000150013,0.000203577,0.000158669,-0.00463801,1.5283,0.00314623,0.0448614,678,925,-48.7542,-0.989484
-539,99,-48.9191,0.70282,-0.00361382,0.000830481,0.000599093,0.000909823,-0.00369316,1.43913,0.00281483,0.041234,685,925,-48.9192,-0.702808
-532,99,-49.0969,0.448425,-0.00181136,0.00167921,0.00138,0.00215888,-0.00229103,1.23627,0.00256953,0.0404591,692,925,-49.0969,-0.448453
-525,99,-49.1122,0.590515,-0.000236025,0.00285868,0.00244343,0.0042035,-0.00158084,1.06766,0.00345212,0.0406174,699,925,-49.1122,-0.590521
-518,99,-49.0996,0.952393,-0.000241249,0.00460692,0.00343831,0.00638975,-0.00202408,1.09244,0.00507102,0.0401062,706,925,-49.0996,-0.952405
-511,99,0,0,0,0,0,0,0,0,0,-1,713,925,0,0
-504,99,0,0,0,0,0,0,0,0,0,-1,720,925,0,0
-497,99,0,0,0,0,0,0,0,0,0,-1,727,925,0,0
-490,99,0,0,0,0,0,0,0,0,0,-1,734,925,0,0
-483,99,0,0,0,0,0,0,0,0,0,-1,741,925,0,0
-476,99,0,0,0,0,0,0,0,0,0,-1,748,925,0,0
-469,99,0,0,0,0,0,0,0,0,0,-1,755,925,0,0
-462,99,0,0,0,0,0,0,0,0,0,-1,762,925,0,0
-455,99,0,0,0,0,0,0,0,0,0,-1,769,925,0,0
-448,99,0,0,0,0,0,0,0,0,0,-1,776,925,0,0
-441,99,0,0,0,0,0,0,0,0,0,-1,783,925,0,0
-434,99,0,0,0,0,0,0,0,0,0,-1,790,925,0,0
-427,99,0,0,0,0,0,0,0,0,0,-1,797,925,0,0
-420,99,0,0,0,0,0,0,0,0,0,-1,804,925,0,0
-413,99,0,0,0,0,0,0,0,0,0,-1,811,925,0,0
-406,99,0,0,0,0,0,0,0,0,0,-1,818,925,0,0
-399,99,0,0,0,0,0,0,0,0,0,-1,825,925,0,0
-392,99,0,0,0,0,0,0,0,0,0,-1,832,925,0,0
-385,99,0,0,0,0,0,0,0,0,0,-1,839,925,0,0
-378,99,0,0,0,0,0,0,0,0,0,-1,846,925,0,0
-371,99,0,0,0,0,0,0,0,0,0,-1,853,925,0,0
-364,99,0,0,0,0,0,0,0,0,0,-1,860,925,0,0
-357,99,0,0,0,0,0,0,0,0,0,-1,867,925,0,0
-350,99,0,0,0,0,0,0,0,0,0,-1,874,925,0,0
-343,99,0,0,0,0,0,0,0,0,0,-1,881,925,0,0
-336,99,0,0,0,0,0,0,0,0,0,-1,888,925,0,0
-329,99,0,0,0,0,0,0,0,0,0,-1,895,925,0,0
-322,99,0,0,0,0,0,0,0,0,0,-1,902,925,0,0
-315,99,0,0,0,0,0,0,0,0,0,-1,909,925,0,0
-308,99,0,0,0,0,0,0,0,0,0,-1,916,925,0,0
-301,99,0,0,0,0,0,0,0,0,0,-1,923,925,0,0
-294,99,0,0,0,0,0,0,0,0,0,-1,930,925,0,0
-287,99,0,0,0,0,0,0,0,0,0,-1,937,925,0,0
-280,99,0,0,0,0,0,0,0,0,0,-1,944,925,0,0
-273,99,0,0,0,0,0,0,0,0,0,-1,951,925,0,0
-266,99,0,0,0,0,0,0,0,0,0,-1,958,925,0,0
-259,99,0,0,0,0,0,0,0,0,0,-1,965,925,0,0
-252,99,0,0,0,0,0,0,0,0,0,-1,972,925,0,0
-245,99,0,0,0,0,0,0,0,0,0,-1,979,925,0,0
-238,99,0,0,0,0,0,0,0,0,0,-1,986,925,0,0
-231,99,0,0,0,0,0,0,0,0,0,-1,993,925,0,0
-224,99,0,0,0,0,0,0,0,0,0,-1,1000,925,0,0
-217,99,0,0,0,0,0,0,0,0,0,-1,1007,925,0,0
-210,99,0,0,0,0,0,0,0,0,0,-1,1014,925,0,0
-203,99,0,0,0,0,0,0,0,0,0,-1,1021,925,0,0
-196,99,0,0,0,0,0,0,0,0,0,-1,1028,925,0,0
-189,99,0,0,0,0,0,0,0,0,0,-1,1035,925,0,0
-182,99,0,0,0,0,0,0,0,0,0,-1,1042,925,0,0
-175,99,0,0,0,0,0,0,0,0,0,-1,1049,925,0,0
-168,99,0,0,0,0,0,0,0,0,0,-1,1056,925,0,0
-161,99,0,0,0,0,0,0,0,0,0,-1,1063,925,0,0
-154,99,0,0,0,0,0,0,0,0,0,-1,1070,925,0,0
-147,99,0,0,0,0,0,0,0,0,0,-1,1077,925,0,0
-140,99,0,0,0,0,0,0,0,0,0,-1,1084,925,0,0
-133,99,0,0,0,0,0,0,0,0,0,-1,1091,925,0,0
-126,99,0,0,0,0,0,0,0,0,0,-1,1098,925,0,0
-119,99,0,0,0,0,0,0,0,0,0,-1,1105,925,0,0
-112,99,0,0,0,0,0,0,0,0,0,-1,1112,925,0,0
-105,99,0,0,0,0,0,0,0,0,0,-1,1119,925,0,0
-98,99,0,0,0,0,0,0,0,0,0,-1,1126,925,0,0
-91,99,0,0,0,0,0,0,0,0,0,-1,1133,925,0,0
-84,99,0,0,0,0,0,0,0,0,0,-1,1140,925,0,0
-77,99,0,0,0,0,0,0,0,0,0,-1,1147,925,0,0
-70,99,0,0,0,0,0,0,0,0,0,-1,1154,925,0,0
-63,99,0,0,0,0,0,0,0,0,0,-1,1161,925,0,0
-56,99,0,0,0,0,0,0,0,0,0,-1,1168,925,0,0
-49,99,0,0,0,0,0,0,0,0,0,-1,1175,925,0,0
-42,99,0,0,0,0,0,0,0,0,0,-1,1182,925,0,0
-35,99,0,0,0,0,0,0,0,0,0,-1,1189,925,0,0
-28,99,0,0,0,0,0,0,0,0,0,-1,1196,925,0,0
-21,99,0,0,0,0,0,0,0,0,0,-1,1203,925,0,0
-14,99,0,0,0,0,0,0,0,0,0,-1,1210,925,0,0
-7,99,0,0,0,0,0,0,0,0,0,-1,1217,925,0,0
0,99,0,0,0,0,0,0,0,0,0,-1,1224,925,0,0
7,99,0,0,0,0,0,0,0,0,0,-1,1231,925,0,0
14,99,0,0,0,0,0,0,0,0,0,-1,1238,925,0,0
21,99,0,0,0,0,0,0,0,0,0,-1,1245,925,0,0
28,99,0,0,0,0,0,0,0,0,0,-1,1252,925,0,0
35,99,0,0,0,0,0,0,0,0,0,-1,1259,925,0,0
42,99,0,0,0,0,0,0,0,0,0,-1,1266,925,0,0
49,99,0,0,0,0,0,0,0,0,0,-1,1273,925,0,0
56,99,0,0,0,0,0,0,0,0,0,-1,1280,925,0,0
63,99,0,0,0,0,0,0,0,0,0,-1,1287,925,0,0
70,99,0,0,0,0,0,0,0,0,0,-1,1294,925,0,0
77,99,0,0,0,0,0,0,0,0,0,-1,1301,925,0,0
84,99,0,0,0,0,0,0,0,0,0,-1,1308,925,0,0
91,99,0,0,0,0,0,0,0,0,0,-1,1315,925,0,0
98,99,0,0,0,0,0,0,0,0,0,-1,1322,925,0,0
105,99,0,0,0,0,0,0,0,0,0,-1,1329,925,0,0
112,99,0,0,0,0,0,0,0,0,0,-1,1336,925,0,0
119,99,0,0,0,0,0,0,0,0,0,-1,1343,925,0,0
126,99,0,0,0,0,0,0,0,0,0,-1,1350,925,0,0
133,99,0,0,0,0,0,0,0,0,0,-1,1357,925,0,0
140,99,0,0,0,0,0,0,0,0,0,-1,1364,925,0,0
147,99,0,0,0,0,0,0,0,0,0,-1,1371,925,0,0
154,99,0,0,0,0,0,0,0,0,0,-1,1378,925,0,0
161,99,0,0,0,0,0,0,0,0,0,-1,1385,925,0,0
168,99,0,0,0,0,0,0,0,0,0,-1,1392,925,0,0
175,99,0,0,0,0,0,0,0,0,0,-1,1399,925,0,0
182,99,0,0,0,0,0,0,0,0,0,-1,1406,925,0,0
189,99,0,0,0,0,0,0,0,0,0,-1,1413,925,0,0
196,99,0,0,0,0,0,0,0,0,0,-1,1420,925,0,0
203,99,0,0,0,0,0,0,0,0,0,-1,1427,925,0,0
210,99,0,0,0,0,0,0,0,0,0,-1,1434,925,0,0
217,99,0,0,0,0,0,0,0,0,0,-1,1441,925,0,0
224,99,0,0,0,0,0,0,0,0,0,-1,1448,925,0,0
231,99,0,0,0,0,0,0,0,0,0,-1,1455,925,0,0
238,99,0,0,0,0,0,0,0,0,0,-1,1462,925,0,0
245,99,0,0,0,0,0,0,0,0,0,-1,1469,925,0,0
252,99,0,0,0,0,0,0,0,0,0,-1,1476,925,0,0
259,99,0,0,0,0,0,0,0,0,0,-1,1483,925,0,0
266,99,0,0,0,0,0,0,0,0,0,-1,1490,925,0,0
273,99,0,0,0,0,0,0,0,0,0,-1,1497,925,0,0
280,99,0,0,0,0,0,0,0,0,0,-1,1504,925,0,0
287,99,0,0,0,0,0,0,0,0,0,-1,1511,925,0,0
294,99,0,0,0,0,0,0,0,0,0,-1,1518,925,0,0
301,99,0,0,0,0,0,0,0,0,0,-1,1525,925,0,0
308,99,0,0,0,0,0,0,0,0,0,-1,1532,925,0,0
315,99,0,0,0,0,0,0,0,0,0,-1,1539,925,0,0
322,99,0,0,0,0,0,0,0,0,0,-1,1546,925,0,0
329,99,0,0,0,0,0,0,0,0,0,-1,1553,925,0,0
336,99,0,0,0,0,0,0,0,0,0,-1,1560,925,0,0
343,99,0,0,0,0,0,0,0,0,0,-1,1567,925,0,0
350,99,0,0,0,0,0,0,0,0,0,-1,1574,925,0,0
357,99,0,0,0,0,0,0,0,0,0,-1,1581,925,0,0
364,99,0,0,0,0,0,0,0,0,0,-1,1588,925,0,0
371,99,0,0,0,0,0,0,0,0,0,-1,1595,925,0,0
378,99,0,0,0,0,0,0,0,0,0,-1,1602,925,0,0
385,99,0,0,0,0,0,0,0,0,0,-1,1609,925,0,0
392,99,0,0,0,0,0,0,0,0,0,-1,1616,925,0,0
399,99,0,0,0,0,0,0,0,0,0,-1,1623,925,0,0
406,99,0,0,0,0,0,0,0,0,0,-1,1630,925,0,0
413,99,0,0,0,0,0,0,0,0,0,-1,1637,925,0,0
420,99,0,0,0,0,0,0,0,0,0,-1,1644,925,0,0
427,99,0,0,0,0,0,0,0,0,0,-1,1651,925,0,0
434,99,0,0,0,0,0,0,0,0,0,-1,1658,925,0,0
441,99,0,0,0,0,0,0,0,0,0,-1,1665,925,0,0
448,99,0,0,0,0,0,0,0,0,0,-1,1672,925,0,0
455,99,0,0,0,0,0,0,0,0,0,-1,1679,925,0,0
462,99,0,0,0,0,0,0,0,0,0,-1,1686,925,0,0
469,99,0,0,0,0,0,0,0,0,0,-1,1693,925,0,0
476,99,0,0,0,0,0,0,0,0,0,-1,1700,925,0,0
483,99,0,0,0,0,0,0,0,0,0,-1,1707,925,0,0
490,99,0,0,0,0,0,0,0,0,0,-1,1714,925,0,0
497,99,0,0,0,0,0,0,0,0,0,-1,1721,925,0,0
504,99,0,0,0,0,0,0,0,0,0,-1,1728,925,0,0
511,99,0,0,0,0,0,0,0,0,0,-1,1735,925,0,0
518,99,0,0,0,0,0,0,0,0,0,-1,1742,925,0,0
525,99,0,0,0,0,0,0,0,0,0,-1,1749,925,0,0
532,99,0,0,0,0,0,0,0,0,0,-1,1756,925,0,0
539,99,0,0,0,0,0,0,0,0,0,-1,1763,925,0,0
546,99,0,0,0,0,0,0,0,0,0,-1,1770,925,0,0
553,99,0,0,0,0,0,0,0,0,0,-1,1777,925,0,0
560,99,0,0,0,0,0,0,0,0,0,-1,1784,925,0,0
567,99,0,0,0,0,0,0,0,0,0,-1,1791,925,0,0
574,99,0,0,0,0,0,0,0,0,0,-1,1798,925,0,0
581,99,0,0,0,0,0,0,0,0,0,-1,1805,925,0,0
588,99,0,0,0,0,0,0,0,0,0,-1,1812,925,0,0
595,99,0,0,0,0,0,0,0,0,0,-1,1819,925,0,0
602,99,0,0,0,0,0,0,0,0,0,-1,1826,925,0,0
609,99,0,0,0,0,0,0,0,0,0,-1,1833,925,0,0
616,99,0,0,0,0,0,0,0,0,0,-1,1840,925,0,0
623,99,0,0,0,0,0,0,0,0,0,-1,1847,925,0,0
630,99,0,0,0,0,0,0,0,0,0,-1,1854,925,0,0
637,99,64.3914,3.25739,0.00249445,-0.00142339,-0.00635134,0.0071821,-0.00611104,-0.635814,0.0076831,0.0438176,1861,925,64.3913,-3.25736
644,99,64.4894,2.77264,0.000880655,-0.000883071,-0.00537282,0.00544351,-0.00544592,-0.704056,0.00628701,0.0390618,1868,925,64.4893,-2.77265
651,99,64.6027,2.53845,-0.000432819,-0.000210668,-0.00410343,0.00378319,-0.00442667,-0.798929,0.00474482,0.0385197,1875,925,64.6027,-2.53844
658,99,64.6163,2.41895,-0.00138852,0.000585638,-0.00258971,0.00237001,-0.00317289,-0.967475,0.00321137,0.0402355,1882,925,64.6163,-2.41893
665,99,64.3091,2.6214,-0.00173051,0.0014706,-0.0010136,0.00176456,-0.00202446,-1.28853,0.00218931,0.0399567,1889,925,64.309,-2.62142
672,99,64.1764,2.55719,-0.00188545,0.00187063,0.000139044,0.00187577,-0.00189059,1.53385,0.00217451,0.0414199,1896,925,64.1764,-2.55721
679,99,64.2129,2.47992,-0.0018405,0.00180397,0.000825594,0.00198227,-0.00201881,1.3581,0.00231005,0.0393431,1903,925,64.2129,-2.4799
686,99,64.318,2.57751,-0.00172619,0.0016956,0.000938639,0.00193616,-0.00196676,1.3199,0.00225338,0.0315814,1910,925,64.318,-2.57751
693,99,64.2516,2.75891,-0.00170681,0.00177366,0.000878579,0.00198287,-0.00191601,1.33703,0.00225113,0.0347163,1917,925,64.2516,-2.75888
700,99,64.1843,3.05823,0,0,0,0,0,0,0,-1,1924,925,64.1843,-3.05824
707,99,47.9915,3.27429,0,0,0,0,0,0,0,-1,1931,925,47.9914,-3.27427
714,99,59.1707,3.81921,0,0,0,0,0,0,0,-1,1938,925,59.1706,-3.81921
721,99,59.4169,4.61554,-0.00206272,0.00254078,4.37127e-05,0.0025412,-0.00206314,1.5613,0.00266309,0.0358315,1945,925,59.4169,-4.61551
728,99,59.4222,5.26282,-0.00220101,0.00300046,-0.000233392,0.00301091,-0.00221147,-1.52605,0.0030269,0.0288337,1952,925,59.4223,-5.26283
735,99,59.3655,5.89752,-0.00282852,0.003705,-0.000677594,0.00377453,-0.00289805,-1.46854,0.00386348,0.0227793,1959,925,59.3654,-5.89754
742,99,59.2814,6.48309,-0.00310695,0.00509706,-0.00118147,0.00526382,-0.00327371,-1.43058,0.00497358,0.0151463,1966,925,59.2813,-6.48309
749,99,59.2113,7.04651,-0.00281357,0.00731149,-0.00116381,0.00744354,-0.00294562,-1.45782,0.00618273,0.0140023,1973,925,59.2113,-7.04649
756,99,59.1632,7.59766,-0.00186826,0.010477,-0.000106777,0.0104779,-0.00186918,-1.56215,0.00768448,0.0145965,1980,925,59.1632,-7.59768
763,99,59.1678,8.2005,-0.000135176,0.0140389,0.00190537,0.0142906,-0.000386839,1.43948,0.00965857,0.0183271,1987,925,59.1679,-8.20047
770,99,59.4622,8.7204,0.00264731,0.0176157,0.00456924,0.0189003,0.00136274,1.29674,0.0121714,0.031823,1994,925,59.4622,-8.72037
777,99,60.0454,9.1792,0.0067536,0.0211363,0.00903023,0.0254888,0.00240109,1.12166,0.0162514,0.0442677,2001,925,60.0453,-9.17919
784,99,60.5181,9.73358,0,0,0,0,0,0,0,-1,2008,925,60.518,-9.73361
791,99,59.4609,10.4213,0,0,0,0,0,0,0,-1,2015,925,59.4608,-10.4213
798,99,59.6636,10.4951,0,0,0,0,0,0,0,-1,2022,925,59.6636,-10.4951
805,99,0,0,0,0,0,0,0,0,0,-1,2029,925,0,0
812,99,0,0,0,0,0,0,0,0,0,-1,2036,925,0,0
-700,92,0,0,0,0,0,0,0,0,0,-1,524,932,0,0
-693,92,0,0,0,0,0,0,0,0,0,-1,531,932,0,0
-686,92,-48.9414,10.7167,0,0,0,0,0,0,0,-1,538,932,-48.9414,-10.7167
-679,92,-48.0004,9.45508,0,0,0,0,0,0,0,-1,545,932,-48.0004,-9.45506
-672,92,-47.5262,9.18201,0.0336745,0.0769768,0.0107832,0.0795134,0.0311379,1.33976,0.0462653,0.046003,552,932,-47.5262,-9.18203
-665,92,-46.8646,8.948,0.0294569,0.066483,0.010206,0.0691098,0.02683,1.31888,0.0402315,0.0448546,559,932,-46.8646,-8.94802
-658,92,-45.9526,8.13806,0,0,0,0,0,0,0,-1,566,932,-45.9527,-8.13804
-651,92,-45.9316,7.50055,0.0199407,0.0491028,0.0073407,0.0508464,0.0181971,1.3376,0.0297488,0.0469757,573,932,-45.9316,-7.50055
-644,92,-45.7257,6.91974,0.0152063,0.0407012,0.0060577,0.0420673,0.0138402,1.34899,0.0247565,0.0440321,580,932,-45.7257,-6.91976
-637,92,-45.4374,6.35156,0.0107709,0.0324067,0.0050683,0.0335351,0.00964245,1.35173,0.0199357,0.0274131,587,932,-45.4374,-6.35159
-630,92,-45.4699,5.80615,0.00665216,0.0243021,0.00468961,0.0254708,0.00548351,1.32657,0.0154799,0.0147527,594,932,-45.4699,-5.80613
-623,92,-45.5968,5.27753,0.00346305,0.0180085,0.00341286,0.0187694,0.00270209,1.35142,0.0117166,0.00995412,601,932,-45.5968,-5.27756
-616,92,-45.6182,4.72931,0.000301333,0.0113129,0.00250006,0.0118539,-0.000239699,1.35768,0.0079837,0.00970303,608,932,-45.6182,-4.72934
-609,92,-45.6644,4.20819,-0.00244057,0.00559672,0.00177038,0.0059694,-0.00281325,1.36332,0.00517865,0.00998309,615,932,-45.6644,-4.20818
-602,92,-45.6422,3.68018,-0.00407305,0.00325107,0.00101636,0.00338949,-0.00421148,1.43543,0.00439697,0.01178,622,932,-45.6422,-3.68015
-595,92,-45.5534,3.06183,-0.00524644,0.00194154,0.000508103,0.00197728,-0.00528217,1.50057,0.00433361,0.023467,629,932,-45.5534,-3.06185
-588,92,-45.5405,2.56897,-0.00584903,0.000980472,-0.000170517,0.000984727,-0.00585329,-1.54585,0.00426847,0.0313573,636,932,-45.5405,-2.56898
-581,92,-46.1534,1.9765,-0.00573883,0.000501621,-0.000655325,0.000569696,-0.0058069,-1.46729,0.00407446,0.0415603,643,932,-46.1534,-1.97652
-574,92,-46.849,1.26422,0,0,0,0,0,0,0,-1,650,932,-46.849,-1.26423
-567,92,-48.777,0.961792,0,0,0,0,0,0,0,-1,657,932,-48.777,-0.961811
-560,92,-48.7241,0.703857,-0.00523989,0.000380007,-0.000797408,0.000490961,-0.00535085,-1.43254,0.00374164,0.0403889,664,932,-48.7241,-0.703847
-553,92,-48.8528,0.801086,-0.00500132,0.000755339,-0.000751327,0.000851782,-0.00509776,-1.44313,0.00371513,0.0410252,671,932,-48.8528,-0.801057
-546,92,-48.8297,0.961609,-0.00442109,0.00140991,-0.000482984,0.00144964,-0.00446083,-1.48871,0.00355697,0.0446501,678,932,-48.8297,-0.961609
-539,92,-48.8433,0.840149,-0.00320649,0.00228851,0.000151025,0.00229266,-0.00321063,1.54334,0.00319203,0.0398771,685,932,-48.8432,-0.840157
-532,92,-48.9672,0.659729,-0.00119898,0.00328907,0.0012115,0.00359522,-0.00150512,1.32328,0.00302598,0.0412861,692,932,-48.9672,-0.659736
-525,92,-48.9505,0.752136,0.000539274,0.00475377,0.00233908,0.00579482,-0.000501774,1.15205,0.00404087,0.0407876,699,932,-48.9505,-0.752125
-518,92,-48.9301,0.953003,0.000436636,0.00694077,0.00346261,0.00843903,-0.00106162,1.16242,0.00601122,0.0408311,706,932,-48.9301,-0.95298
-511,92,0,0,0,0,0,0,0,0,0,-1,713,932,0,0
-504,92,0,0,0,0,0,0,0,0,0,-1,720,932,0,0
-497,92,0,0,0,0,0,0,0,0,0,-1,727,932,0,0
-490,92,0,0,0,0,0,0,0,0,0,-1,734,932,0,0
-483,92,0,0,0,0,0,0,0,0,0,-1,741,932,0,0
-476,92,0,0,0,0,0,0,0,0,0,-1,748,932,0,0
-469,92,0,0,0,0,0,0,0,0,0,-1,755,932,0,0
-462,92,0,0,0,0,0,0,0,0,0,-1,762,932,0,0
-455,92,0,0,0,0,0,0,0,0,0,-1,769,932,0,0
-448,92,0,0,0,0,0,0,0,0,0,-1,776,932,0,0
-441,92,0,0,0,0,0,0,0,0,0,-1,783,932,0,0
-434,92,0,0,0,0,0,0,0,0,0,-1,790,932,0,0
-427,92,0,0,0,0,0,0,0,0,0,-1,797,932,0,0
-420,92,0,0,0,0,0,0,0,0,0,-1,804,932,0,0
-413,92,0,0,0,0,0,0,0,0,0,-1,811,932,0,0
-406,92,0,0,0,0,0,0,0,0,0,-1,818,932,0,0
-399,92,0,0,0,0,0,0,0,0,0,-1,825,932,0,0
-392,92,0,0,0,0,0,0,0,0,0,-1,832,932,0,0
-385,92,0,0,0,0,0,0,0,0,0,-1,839,932,0,0
-378,92,0,0,0,0,0,0,0,0,0,-1,846,932,0,0
-371,92,0,0,0,0,0,0,0,0,0,-1,853,932,0,0
-364,92,0,0,0,0,0,0,0,0,0,-1,860,932,0,0
-357,92,0,0,0,0,0,0,0,0,0,-1,867,932,0,0
-350,92,0,0,0,0,0,0,0,0,0,-1,874,932,0,0
-343,92,0,0,0,0,0,0,0,0,0,-1,881,932,0,0
-336,92,0,0,0,0,0,0,0,0,0,-1,888,932,0,0
-329,92,0,0,0,0,0,0,0,0,0,-1,895,932,0,0
-322,92,0,0,0,0,0,0,0,0,0,-1,902,932,0,0
-315,92,0,0,0,0,0,0,0,0,0,-1,909,932,0,0
-308,92,0,0,0,0,0,0,0,0,0,-1,916,932,0,0
-301,92,0,0,0,0,0,0,0,0,0,-1,923,932,0,0
-294,92,0,0,0,0,0,0,0,0,0,-1,930,932,0,0
-287,92,0,0,0,0,0,0,0,0,0,-1,937,932,0,0
-280,92,0,0,0,0,0,0,0,0,0,-1,944,932,0,0
-273,92,0,0,0,0,0,0,0,0,0,-1,951,932,0,0
-266,92,0,0,0,0,0,0,0,0,0,-1,958,932,0,0
-259,92,0,0,0,0,0,0,0,0,0,-1,965,932,0,0
-252,92,0,0,0,0,0,0,0,0,0,-1,972,932,0,0
-245,92,0,0,0,0,0,0,0,0,0,-1,979,932,0,0
-238,92,0,0,0,0,0,0,0,0,0,-1,986,932,0,0
-231,92,0,0,0,0,0,0,0,0,0,-1,993,932,0,0
-224,92,0,0,0,0,0,0,0,0,0,-1,1000,932,0,0
-217,92,0,0,0,0,0,0,0,0,0,-1,1007,932,0,0
-210,92,0,0,0,0,0,0,0,0,0,-1,1014,932,0,0
-203,92,0,0,0,0,0,0,0,0,0,-1,1021,932,0,0
-196,92,0,0,0,0,0,0,0,0,0,-1,1028,932,0,0
-189,92,0,0,0,0,0,0,0,0,0,-1,1035,932,0,0
-182,92,0,0,0,0,0,0,0,0,0,-1,1042,932,0,0
-175,92,0,0,0,0,0,0,0,0,0,-1,1049,932,0,0
-168,92,0,0,0,0,0,0,0,0,0,-1,1056,932,0,0
-161,92,0,0,0,0,0,0,0,0,0,-1,1063,932,0,0
-154,92,0,0,0,0,0,0,0,0,0,-1,1070,932,0,0
-147,92,0,0,0,0,0,0,0,0,0,-1,1077,932,0,0
-140,92,0,0,0,0,0,0,0,0,0,-1,1084,932,0,0
-133,92,0,0,0,0,0,0,0,0,0,-1,1091,932,0,0
-126,92,0,0,0,0,0,0,0,0,0,-1,1098,932,0,0
-119,92,0,0,0,0,0,0,0,0,0,-1,1105,932,0,0
-112,92,0,0,0,0,0,0,0,0,0,-1,1112,932,0,0
-105,92,0,0,0,0,0,0,0,0,0,-1,1119,932,0,0
-98,92,0,0,0,0,0,0,0,0,0,-1,1126,932,0,0
-91,92,0,0,0,0,0,0,0,0,0,-1,1133,932,0,0
-84,92,0,0,0,0,0,0,0,0,0,-1,1140,932,0,0
-77,92,0,0,0,0,0,0,0,0,0,-1,1147,932,0,0
-70,92,0,0,0,0,0,0,0,0,0,-1,1154,932,0,0
-63,92,0,0,0,0,0,0,0,0,0,-1,1161,932,0,0
-56,92,0,0,0,0,0,0,0,0,0,-1,1168,932,0,0
-49,92,0,0,0,0,0,0,0,0,0,-1,1175,932,0,0
-42,92,0,0,0,0,0,0,0,0,0,-1,1182,932,0,0
-35,92,0,0,0,0,0,0,0,0,0,-1,1189,932,0,0
-28,92,0,0,0,0,0,0,0,0,0,-1,1196,932,0,0
-21,92,0,0,0,0,0,0,0,0,0,-1,1203,932,0,0
-14,92,0,0,0,0,0,0,0,0,0,-1,1210,932,0,0
-7,92,0,0,0,0,0,0,0,0,0,-1,1217,932,0,0
0,92,0,0,0,0,0,0,0,0,0,-1,1224,932,0,0
7,92,0,0,0,0,0,0,0,0,0,-1,1231,932,0,0
14,92,0,0,0,0,0,0,0,0,0,-1,1238,932,0,0
21,92,0,0,0,0,0,0,0,0,0,-1,1245,932,0,0
28,92,0,0,0,0,0,0,0,0,0,-1,1252,932,0,0
35,92,0,0,0,0,0,0,0,0,0,-1,1259,932,0,0
42,92,0,0,0,0,0,0,0,0,0,-1,1266,932,0,0
49,92,0,0,0,0,0,0,0,0,0,-1,1273,932,0,0
56,92,0,0,0,0,0,0,0,0,0,-1,1280,932,0,0
63,92,0,0,0,0,0,0,0,0,0,-1,1287,932,0,0
70,92,0,0,0,0,0,0,0,0,0,-1,1294,932,0,0
77,92,0,0,0,0,0,0,0,0,0,-1,1301,932,0,0
84,92,0,0,0,0,0,0,0,0,0,-1,1308,932,0,0
91,92,0,0,0,0,0,0,0,0,0,-1,1315,932,0,0
98,92,0,0,0,0,0,0,0,0,0,-1,1322,932,0,0
105,92,0,0,0,0,0,0,0,0,0,-1,1329,932,0,0
112,92,0,0,0,0,0,0,0,0,0,-1,1336,932,0,0
119,92,0,0,0,0,0,0,0,0,0,-1,1343,932,0,0
126,92,0,0,0,0,0,0,0,0,0,-1,1350,932,0,0
133,92,0,0,0,0,0,0,0,0,0,-1,1357,932,0,0
140,92,0,0,0,0,0,0,0,0,0,-1,1364,932,0,0
147,92,0,0,0,0,0,0,0,0,0,-1,1371,932,0,0
154,92,0,0,0,0,0,0,0,0,0,-1,1378,932,0,0
161,92,0,0,0,0,0,0,0,0,0,-1,1385,932,0,0
168,92,0,0,0,0,0,0,0,0,0,-1,1392,932,0,0
175,92,0,0,0,0,0,0,0,0,0,-1,1399,932,0,0
182,92,0,0,0,0,0,0,0,0,0,-1,1406,932,0,0
189,92,0,0,0,0,0,0,0,0,0,-1,1413,932,0,0
196,92,0,0,0,0,0,0,0,0,0,-1,1420,932,0,0
203,92,0,0,0,0,0,0,0,0,0,-1,1427,932,0,0
210,92,0,0,0,0,0,0,0,0,0,-1,1434,932,0,0
217,92,0,0,0,0,0,0,0,0,0,-1,1441,932,0,0
224,92,0,0,0,0,0,0,0,0,0,-1,1448,932,0,0
231,92,0,0,0,0,0,0,0,0,0,-1,1455,932,0,0
238,92,0,0,0,0,0,0,0,0,0,-1,1462,932,0,0
245,92,0,0,0,0,0,0,0,0,0,-1,1469,932,0,0
252,92,0,0,0,0,0,0,0,0,0,-1,1476,932,0,0
259,92,0,0,0,0,0,0,0,0,0,-1,1483,932,0,0
266,92,0,0,0,0,0,0,0,0,0,-1,1490,932,0,0
273,92,0,0,0,0,0,0,0,0,0,-1,1497,932,0,0
280,92,0,0,0,0,0,0,0,0,0,-1,1504,932,0,0
287,92,0,0,0,0,0,0,0,0,0,-1,1511,932,0,0
294,92,0,0,0,0,0,0,0,0,0,-1,1518,932,0,0
301,92,0,0,0,0,0,0,0,0,0,-1,1525,932,0,0
308,92,0,0,0,0,0,0,0,0,0,-1,1532,932,0,0
315,92,0,0,0,0,0,0,0,0,0,-1,1539,932,0,0
322,92,0,0,0,0,0,0,0,0,0,-1,1546,932,0,0
329,92,0,0,0,0,0,0,0,0,0,-1,1553,932,0,0
336,92,0,0,0,0,0,0,0,0,0,-1,1560,932,0,0
343,92,0,0,0,0,0,0,0,0,0,-1,1567,932,0,0
350,92,0,0,0,0,0,0,0,0,0,-1,1574,932,0,0
357,92,0,0,0,0,0,0,0,0,0,-1,1581,932,0,0
364,92,0,0,0,0,0,0,0,0,0,-1,1588,932,0,0
371,92,0,0,0,0,0,0,0,0,0,-1,1595,932,0,0
378,92,0,0,0,0,0,0,0,0,0,-1,1602,932,0,0
385,92,0,0,0,0,0,0,0,0,0,-1,1609,932,0,0
392,92,0,0,0,0,0,0,0,0,0,-1,1616,932,0,0
399,92,0,0,0,0,0,0,0,0,0,-1,1623,932,0,0
406,92,0,0,0,0,0,0,0,0,0,-1,1630,932,0,0
413,92,0,0,0,0,0,0,0,0,0,-1,1637,932,0,0
420,92,0,0,0,0,0,0,0,0,0,-1,1644,932,0,0
427,92,0,0,0,0,0,0,0,0,0,-1,1651,932,0,0
434,92,0,0,0,0,0,0,0,0,0,-1,1658,932,0,0
441,92,0,0,0,0,0,0,0,0,0,-1,1665,932,0,0
448,92,0,0,0,0,0,0,0,0,0,-1,1672,932,0,0
455,92,0,0,0,0,0,0,0,0,0,-1,1679,932,0,0
462,92,0,0,0,0,0,0,0,0,0,-1,1686,932,0,0
469,92,0,0,0,0,0,0,0,0,0,-1,1693,932,0,0
476,92,0,0,0,0,0,0,0,0,0,-1,1700,932,0,0
483,92,0,0,0,0,0,0,0,0,0,-1,1707,932,0,0
490,92,0,0,0,0,0,0,0,0,0,-1,1714,932,0,0
497,92,0,0,0,0,0,0,0,0,0,-1,1721,932,0,0
504,92,0,0,0,0,0,0,0,0,0,-1,1728,932,0,0
511,92,0,0,0,0,0,0,0,0,0,-1,1735,932,0,0
518,92,0,0,0,0,0,0,0,0,0,-1,1742,932,0,0
525,92,0,0,0,0,0,0,0,0,0,-1,1749,932,0,0
532,92,0,0,0,0,0,0,0,0,0,-1,1756,932,0,0
539,92,0,0,0,0,0,0,0,0,0,-1,1763,932,0,0
546,92,0,0,0,0,0,0,0,0,0,-1,1770,932,0,0
553,92,0,0,0,0,0,0,0,0,0,-1,1777,932,0,0
560,92,0,0,0,0,0,0,0,0,0,-1,1784,932,0,0
567,92,0,0,0,0,0,0,0,0,0,-1,1791,932,0,0
574,92,0,0,0,0,0,0,0,0,0,-1,1798,932,0,0
581,92,0,0,0,0,0,0,0,0,0,-1,1805,932,0,0
588,92,0,0,0,0,0,0,0,0,0,-1,1812,932,0,0
595,92,0,0,0,0,0,0,0,0,0,-1,1819,932,0,0
602,92,0,0,0,0,0,0,0,0,0,-1,1826,932,0,0
609,92,0,0,0,0,0,0,0,0,0,-1,1833,932,0,0
616,92,0,0,0,0,0,0,0,0,0,-1,1840,932,0,0
623,92,0,0,0,0,0,0,0,0,0,-1,1847,932,0,0
630,92,0,0,0,0,0,0,0,0,0,-1,1854,932,0,0
637,92,64.2257,3.30841,0.00290316,-0.000277248,-0.00710827,0.00859693,-0.00597102,-0.675354,0.00845623,0.0499703,1861,932,64.2257,-3.30843
644,92,64.3483,3.02081,0.00123955,-1.02584e-05,-0.00602231,0.00666929,-0.00543999,-0.733701,0.0070033,0.0414274,1868,932,64.3483,-3.0208
651,92,64.6578,2.35559,-0.000101931,0.000417555,-0.00467608,0.00484111,-0.00452548,-0.813143,0.00540882,0.040555,1875,932,64.6579,-2.35556
658,92,64.4431,2.43597,-0.00112044,0.0010218,-0.00307671,0.00320851,-0.00330715,-0.952906,0.00376196,0.0434064,1882,932,64.4432,-2.43596
665,92,64.2847,2.65424,-0.0016219,0.00173278,-0.00136692,0.00221921,-0.00210834,-1.22891,0.00249879,0.0433754,1889,932,64.2847,-2.65421
672,92,64.1819,2.58429,-0.00196843,0.00208615,-6.03058e-06,0.00208616,-0.00196844,-1.56931,0.00234125,0.0444094,1896,932,64.1819,-2.5843
679,92,64.1207,2.59686,-0.00208048,0.00198298,0.000881182,0.00216584,-0.00226334,1.36618,0.0025574,0.0402557,1903,932,64.1207,-2.59688
686,92,64.2695,2.48724,-0.00201804,0.00181389,0.00113492,0.0021248,-0.00232895,1.30341,0.00257227,0.0303473,1910,932,64.2695,-2.48723
693,92,64.2822,2.69366,-0.00202267,0.00178041,0.0011709,0.002112,-0.00235426,1.29483,0.00257986,0.0271885,1917,932,64.2823,-2.69367
700,92,64.3251,2.94489,0,0,0,0,0,0,0,-1,1924,932,64.325,-2.9449
707,92,32.9893,3.26874,0,0,0,0,0,0,0,-1,1931,932,32.9893,-3.26874
714,92,60.4178,4.09503,0,0,0,0,0,0,0,-1,1938,932,60.4178,-4.09502
721,92,60.2063,4.81152,-0.00258701,0.00256368,0.000225892,0.00257357,-0.00259689,1.52705,0.00298518,0.0368114,1945,932,60.2063,-4.8115
728,92,59.9734,5.41254,-0.00266102,0.00310023,-8.6689e-05,0.00310154,-0.00266233,-1.55575,0.00333099,0.028925,1952,932,59.9733,-5.41253
735,92,59.962,5.9538,-0.00320651,0.00387927,-0.000577496,0.00392602,-0.00325327,-1.49001,0.00415103,0.0211661,1959,932,59.962,-5.95381
742,92,59.9608,6.47107,-0.00342854,0.0053134,-0.00117654,0.00546897,-0.00358412,-1.43933,0.00526443,0.0203731,1966,932,59.9608,-6.47106
749,92,59.8624,7.03467,-0.0030501,0.00754213,-0.00132245,0.00770475,-0.00321271,-1.44845,0.00647861,0.019549,1973,932,59.8624,-7.03465
756,92,59.756,7.55066,-0.00192542,0.0107671,-0.000330529,0.0107757,-0.00193402,-1.54478,0.0079077,0.0168287,1980,932,59.7559,-7.55065
763,92,59.7571,8.1059,-4.25464e-06,0.0145297,0.00169086,0.0147238,-0.000198374,1.45649,0.00988269,0.0187129,1987,932,59.7571,-8.10591
770,92,59.8298,8.59955,0.00299458,0.0182405,0.00450938,0.0194744,0.00176067,1.3037,0.0124376,0.0286853,1994,932,59.8298,-8.59953
777,92,60.1196,8.92853,0.00736543,0.0218956,0.00905997,0.0262437,0.00301741,1.12334,0.0165817,0.0457257,2001,932,60.1197,-8.92854
784,92,60.4521,9.36328,0,0,0,0,0,0,0,-1,2008,932,60.4522,-9.36326
791,92,60.5308,10.5178,0,0,0,0,0,0,0,-1,2015,932,60.5309,-10.5178
798,92,60.5898,10.4426,0,0,0,0,0,0,0,-1,2022,932,60.5899,-10.4426
805,92,0,0,0,0,0,0,0,0,0,-1,2029,932,0,0
812,92,0,0,0,0,0,0,0,0,0,-1,2036,932,0,0
-700,85,0,0,0,0,0,0,0,0,0,-1,524,939,0,0
-693,85,0,0,0,0,0,0,0,0,0,-1,531,939,0,0
-686,85,-48.7333,9.83032,0.0311851,0.150384,-0.0139583,0.151997,0.0295724,-1.45577,0.0930537,0.0471457,538,939,-48.7333,-9.83033
-679,85,-48.2769,9.11499,0,0,0,0,0,0,0,-1,545,939,-48.2769,-9.11501
-672,85,-47.8065,8.62915,0.0345714,0.0963976,0.00293056,0.0965362,0.0344328,1.52354,0.0564933,0.0426144,552,939,-47.8064,-8.62913
-665,85,-47.4216,8.1629,0.0301982,0.0804468,0.0044638,0.0808403,0.0298047,1.48288,0.0472066,0.0411037,559,939,-47.4216,-8.16291
-658,85,-46.8654,7.70599,0.0251839,0.0671764,0.00476533,0.0677103,0.0246499,1.45921,0.0395713,0.04632,566,939,-46.8654,-7.70602
-651,85,-46.3445,7.17084,0.0200932,0.0553674,0.00460837,0.0559595,0.019501,1.44301,0.032799,0.043723,573,939,-46.3445,-7.17082
-644,85,-46.0018,6.44995,0.0152608,0.0445716,0.00433068,0.045198,0.0146343,1.42713,0.0266298,0.0362661,580,939,-46.0018,-6.44993
-637,85,-45.9879,6.20532,0.010862,0.0346651,0.00403537,0.0353306,0.0101964,1.40735,0.0209971,0.0222563,587,939,-45.9879,-6.20534
-630,85,-46.0897,5.70587,0.00683575,0.0256851,0.00394625,0.0264779,0.00604292,1.37253,0.0160221,0.0139132,594,939,-46.0897,-5.70585
-623,85,-46.179,5.21204,0.0036663,0.018668,0.00289762,0.0192083,0.00312607,1.38647,0.0119011,0.0102248,601,939,-46.179,-5.21204
-616,85,-46.1994,4.71313,0.000761368,0.0117344,0.00199459,0.0120857,0.000410053,1.39645,0.00792398,0.0104149,608,939,-46.1994,-4.71315
-609,85,-46.2526,4.21149,-0.00162491,0.00620017,0.00111157,0.00635501,-0.00177975,1.43239,0.00493801,0.0129817,615,939,-46.2526,-4.21147
-602,85,-46.2455,3.70337,-0.00311684,0.00397434,0.000149758,0.0039775,-0.00312,1.54969,0.0041077,0.0173923,622,939,-46.2455,-3.70335
-595,85,-46.1423,3.17059,-0.00435195,0.00271451,-0.000465742,0.00274507,-0.00438251,-1.50527,0.00415115,0.0208111,629,939,-46.1423,-3.17059
-588,85,-46.1139,2.65613,-0.00503824,0.00181371,-0.00118991,0.00201447,-0.00523899,-1.40365,0.00432352,0.0244365,636,939,-46.1139,-2.6561
-581,85,-46.6365,2.16663,-0.00502028,0.00130044,-0.00171319,0.00173492,-0.00545476,-1.32242,0.0043322,0.0397177,643,939,-46.6365,-2.16661
-574,85,-47.1519,1.33276,0,0,0,0,0,0,0,-1,650,939,-47.1519,-1.33275
-567,85,-48.8372,0.647156,0,0,0,0,0,0,0,-1,657,939,-48.8372,-0.647141
-560,85,-48.7453,0.813843,-0.00482089,0.00132109,-0.00196138,0.001894,-0.0053938,-1.28661,0.00436635,0.0343302,664,939,-48.7453,-0.813835
-553,85,-48.823,0.838623,-0.00458351,0.00176463,-0.00181781,0.00224831,-0.00506719,-1.31074,0.00432686,0.0397981,671,939,-48.823,-0.838617
-546,85,-48.8626,0.880798,-0.00394065,0.00242093,-0.00139091,0.00271175,-0.00423146,-1.36468,0.00404055,0.0410512,678,939,-48.8626,-0.880803
-539,85,-48.9316,0.972229,-0.002672,0.00316928,-0.000545826,0.00321985,-0.00272257,-1.47842,0.00343486,0.0398906,685,939,-48.9316,-0.972231
-532,85,-48.8795,0.904968,-0.000617515,0.00388837,0.000666963,0.00398502,-0.000714166,1.42689,0.00292395,0.0410788,692,939,-48.8795,-0.904985
-525,85,-48.7047,0.865295,0.00116678,0.00513275,0.00160522,0.00570103,0.000598499,1.23054,0.00361773,0.0398748,699,939,-48.7047,-0.865288
-518,85,-48.7006,1.03278,0.000991278,0.00710212,0.00246473,0.00797233,0.000121077,1.2314,0.00527499,0.0386154,706,939,-48.7006,-1.03277
-511,85,0,0,0,0,0,0,0,0,0,-1,713,939,0,0
-504,85,0,0,0,0,0,0,0,0,0,-1,720,939,0,0
-497,85,0,0,0,0,0,0,0,0,0,-1,727,939,0,0
-490,85,0,0,0,0,0,0,0,0,0,-1,734,939,0,0
-483,85,0,0,0,0,0,0,0,0,0,-1,741,939,0,0
-476,85,0,0,0,0,0,0,0,0,0,-1,748,939,0,0
-469,85,0,0,0,0,0,0,0,0,0,-1,755,939,0,0
-462,85,0,0,0,0,0,0,0,0,0,-1,762,939,0,0
-455,85,0,0,0,0,0,0,0,0,0,-1,769,939,0,0
-448,85,0,0,0,0,0,0,0,0,0,-1,776,939,0,0
-441,85,0,0,0,0,0,0,0,0,0,-1,783,939,0,0
-434,85,0,0,0,0,0,0,0,0,0,-1,790,939,0,0
-427,85,0,0,0,0,0,0,0,0,0,-1,797,939,0,0
-420,85,0,0,0,0,0,0,0,0,0,-1,804,939,0,0
-413,85,0,0,0,0,0,0,0,0,0,-1,811,939,0,0
-406,85,0,0,0,0,0,0,0,0,0,-1,818,939,0,0
-399,85,0,0,0,0,0,0,0,0,0,-1,825,939,0,0
-392,85,0,0,0,0,0,0,0,0,0,-1,832,939,0,0
-385,85,0,0,0,0,0,0,0,0,0,-1,839,939,0,0
-378,85,0,0,0,0,0,0,0,0,0,-1,846,939,0,0
-371,85,0,0,0,0,0,0,0,0,0,-1,853,939,0,0
-364,85,0,0,0,0,0,0,0,0,0,-1,860,939,0,0
-357,85,0,0,0,0,0,0,0,0,0,-1,867,939,0,0
-350,85,0,0,0,0,0,0,0,0,0,-1,874,939,0,0
-343,85,0,0,0,0,0,0,0,0,0,-1,881,939,0,0
-336,85,0,0,0,0,0,0,0,0,0,-1,888,939,0,0
-329,85,0,0,0,0,0,0,0,0,0,-1,895,939,0,0
-322,85,0,0,0,0,0,0,0,0,0,-1,902,939,0,0
-315,85,0,0,0,0,0,0,0,0,0,-1,909,939,0,0
-308,85,0,0,0,0,0,0,0,0,0,-1,916,939,0,0
-301,85,0,0,0,0,0,0,0,0,0,-1,923,939,0,0
-294,85,0,0,0,0,0,0,0,0,0,-1,930,939,0,0
-287,85,0,0,0,0,0,0,0,0,0,-1,937,939,0,0
-280,85,0,0,0,0,0,0,0,0,0,-1,944,939,0,0
-273,85,0,0,0,0,0,0,0,0,0,-1,951,939,0,0
-266,85,0,0,0,0,0,0,0,0,0,-1,958,939,0,0
-259,85,0,0,0,0,0,0,0,0,0,-1,965,939,0,0
-252,85,0,0,0,0,0,0,0,0,0,-1,972,939,0,0
-245,85,0,0,0,0,0,0,0,0,0,-1,979,939,0,0
-238,85,0,0,0,0,0,0,0,0,0,-1,986,939,0,0
-231,85,0,0,0,0,0,0,0,0,0,-1,993,939,0,0
-224,85,0,0,0,0,0,0,0,0,0,-1,1000,939,0,0
-217,85,0,0,0,0,0,0,0,0,0,-1,1007,939,0,0
-210,85,0,0,0,0,0,0,0,0,0,-1,1014,939,0,0
-203,85,0,0,0,0,0,0,0,0,0,-1,1021,939,0,0
-196,85,0,0,0,0,0,0,0,0,0,-1,1028,939,0,0
-189,85,0,0,0,0,0,0,0,0,0,-1,1035,939,0,0
-182,85,0,0,0,0,0,0,0,0,0,-1,1042,939,0,0
-175,85,0,0,0,0,0,0,0,0,0,-1,1049,939,0,0
-168,85,0,0,0,0,0,0,0,0,0,-1,1056,939,0,0
-161,85,0,0,0,0,0,0,0,0,0,-1,1063,939,0,0
-154,85,0,0,0,0,0,0,0,0,0,-1,1070,939,0,0
-147,85,0,0,0,0,0,0,0,0,0,-1,1077,939,0,0
-140,85,0,0,0,0,0,0,0,0,0,-1,1084,939,0,0
-133,85,0,0,0,0,0,0,0,0,0,-1,1091,939,0,0
-126,85,0,0,0,0,0,0,0,0,0,-1,1098,939,0,0
-119,85,0,0,0,0,0,0,0,0,0,-1,1105,939,0,0
-112,85,0,0,0,0,0,0,0,0,0,-1,1112,939,0,0
-105,85,0,0,0,0,0,0,0,0,0,-1,1119,939,0,0
-98,85,0,0,0,0,0,0,0,0,0,-1,1126,939,0,0
-91,85,0,0,0,0,0,0,0,0,0,-1,1133,939,0,0
-84,85,0,0,0,0,0,0,0,0,0,-1,1140,939,0,0
-77,85,0,0,0,0,0,0,0,0,0,-1,1147,939,0,0
-70,85,0,0,0,0,0,0,0,0,0,-1,1154,939,0,0
-63,85,0,0,0,0,0,0,0,0,0,-1,1161,939,0,0
-56,85,0,0,0,0,0,0,0,0,0,-1,1168,939,0,0
-49,85,0,0,0,0,0,0,0,0,0,-1,1175,939,0,0
-42,85,0,0,0,0,0,0,0,0,0,-1,1182,939,0,0
-35,85,0,0,0,0,0,0,0,0,0,-1,1189,939,0,0
-28,85,0,0,0,0,0,0,0,0,0,-1,1196,939,0,0
-21,85,0,0,0,0,0,0,0,0,0,-1,1203,939,0,0
-14,85,0,0,0,0,0,0,0,0,0,-1,1210,939,0,0
-7,85,0,0,0,0,0,0,0,0,0,-1,1217,939,0,0
0,85,0,0,0,0,0,0,0,0,0,-1,1224,939,0,0
7,85,0,0,0,0,0,0,0,0,0,-1,1231,939,0,0
14,85,0,0,0,0,0,0,0,0,0,-1,1238,939,0,0
21,85,0,0,0,0,0,0,0,0,0,-1,1245,939,0,0
28,85,0,0,0,0,0,0,0,0,0,-1,1252,939,0,0
35,85,0,0,0,0,0,0,0,0,0,-1,1259,939,0,0
42,85,0,0,0,0,0,0,0,0,0,-1,1266,939,0,0
49,85,0,0,0,0,0,0,0,0,0,-1,1273,939,0,0
56,85,0,0,0,0,0,0,0,0,0,-1,1280,939,0,0
63,85,0,0,0,0,0,0,0,0,0,-1,1287,939,0,0
70,85,0,0,0,0,0,0,0,0,0,-1,1294,939,0,0
77,85,0,0,0,0,0,0,0,0,0,-1,1301,939,0,0
84,85,0,0,0,0,0,0,0,0,0,-1,1308,939,0,0
91,85,0,0,0,0,0,0,0,0,0,-1,1315,939,0,0
98,85,0,0,0,0,0,0,0,0,0,-1,1322,939,0,0
105,85,0,0,0,0,0,0,0,0,0,-1,1329,939,0,0
112,85,0,0,0,0,0,0,0,0,0,-1,1336,939,0,0
119,85,0,0,0,0,0,0,0,0,0,-1,1343,939,0,0
126,85,0,0,0,0,0,0,0,0,0,-1,1350,939,0,0
133,85,0,0,0,0,0,0,0,0,0,-1,1357,939,0,0
140,85,0,0,0,0,0,0,0,0,0,-1,1364,939,0,0
147,85,0,0,0,0,0,0,0,0,0,-1,1371,939,0,0
154,85,0,0,0,0,0,0,0,0,0,-1,1378,939,0,0
161,85,0,0,0,0,0,0,0,0,0,-1,1385,939,0,0
168,85,0,0,0,0,0,0,0,0,0,-1,1392,939,0,0
175,85,0,0,0,0,0,0,0,0,0,-1,1399,939,0,0
182,85,0,0,0,0,0,0,0,0,0,-1,1406,939,0,0
189,85,0,0,0,0,0,0,0,0,0,-1,1413,939,0,0
196,85,0,0,0,0,0,0,0,0,0,-1,1420,939,0,0
203,85,0,0,0,0,0,0,0,0,0,-1,1427,939,0,0
210,85,0,0,0,0,0,0,0,0,0,-1,1434,939,0,0
217,85,0,0,0,0,0,0,0,0,0,-1,1441,939,0,0
224,85,0,0,0,0,0,0,0,0,0,-1,1448,939,0,0
231,85,0,0,0,0,0,0,0,0,0,-1,1455,939,0,0
238,85,0,0,0,0,0,0,0,0,0,-1,1462,939,0,0
245,85,0,0,0,0,0,0,0,0,0,-1,1469,939,0,0
252,85,0,0,0,0,0,0,0,0,0,-1,1476,939,0,0
259,85,0,0,0,0,0,0,0,0,0,-1,1483,939,0,0
266,85,0,0,0,0,0,0,0,0,0,-1,1490,939,0,0
273,85,0,0,0,0,0,0,0,0,0,-1,1497,939,0,0
280,85,0,0,0,0,0,0,0,0,0,-1,1504,939,0,0
287,85,0,0,0,0,0,0,0,0,0,-1,1511,939,0,0
294,85,0,0,0,0,0,0,0,0,0,-1,1518,939,0,0
301,85,0,0,0,0,0,0,0,0,0,-1,1525,939,0,0
308,85,0,0,0,0,0,0,0,0,0,-1,1532,939,0,0
315,85,0,0,0,0,0,0,0,0,0,-1,1539,939,0,0
322,85,0,0,0,0,0,0,0,0,0,-1,1546,939,0,0
329,85,0,0,0,0,0,0,0,0,0,-1,1553,939,0,0
336,85,0,0,0,0,0,0,0,0,0,-1,1560,939,0,0
343,85,0,0,0,0,0,0,0,0,0,-1,1567,939,0,0
350,85,0,0,0,0,0,0,0,0,0,-1,1574,939,0,0
357,85,0,0,0,0,0,0,0,0,0,-1,1581,939,0,0
364,85,0,0,0,0,0,0,0,0,0,-1,1588,939,0,0
371,85,0,0,0,0,0,0,0,0,0,-1,1595,939,0,0
378,85,0,0,0,0,0,0,0,0,0,-1,1602,939,0,0
385,85,0,0,0,0,0,0,0,0,0,-1,1609,939,0,0
392,85,0,0,0,0,0,0,0,0,0,-1,1616,939,0,0
399,85,0,0,0,0,0,0,0,0,0,-1,1623,939,0,0
406,85,0,0,0,0,0,0,0,0,0,-1,1630,939,0,0
413,85,0,0,0,0,0,0,0,0,0,-1,1637,939,0,0
420,85,0,0,0,0,0,0,0,0,0,-1,1644,939,0,0
427,85,0,0,0,0,0,0,0,0,0,-1,1651,939,0,0
434,85,0,0,0,0,0,0,0,0,0,-1,1658,939,0,0
441,85,0,0,0,0,0,0,0,0,0,-1,1665,939,0,0
448,85,0,0,0,0,0,0,0,0,0,-1,1672,939,0,0
455,85,0,0,0,0,0,0,0,0,0,-1,1679,939,0,0
462,85,0,0,0,0,0,0,0,0,0,-1,1686,939,0,0
469,85,0,0,0,0,0,0,0,0,0,-1,1693,939,0,0
476,85,0,0,0,0,0,0,0,0,0,-1,1700,939,0,0
483,85,0,0,0,0,0,0,0,0,0,-1,1707,939,0,0
490,85,0,0,0,0,0,0,0,0,0,-1,1714,939,0,0
497,85,0,0,0,0,0,0,0,0,0,-1,1721,939,0,0
504,85,0,0,0,0,0,0,0,0,0,-1,1728,939,0,0
511,85,0,0,0,0,0,0,0,0,0,-1,1735,939,0,0
518,85,0,0,0,0,0,0,0,0,0,-1,1742,939,0,0
525,85,0,0,0,0,0,0,0,0,0,-1,1749,939,0,0
532,85,0,0,0,0,0,0,0,0,0,-1,1756,939,0,0
539,85,0,0,0,0,0,0,0,0,0,-1,1763,939,0,0
546,85,0,0,0,0,0,0,0,0,0,-1,1770,939,0,0
553,85,0,0,0,0,0,0,0,0,0,-1,1777,939,0,0
560,85,0,0,0,0,0,0,0,0,0,-1,1784,939,0,0
567,85,0,0,0,0,0,0,0,0,0,-1,1791,939,0,0
574,85,0,0,0,0,0,0,0,0,0,-1,1798,939,0,0
581,85,0,0,0,0,0,0,0,0,0,-1,1805,939,0,0
588,85,0,0,0,0,0,0,0,0,0,-1,1812,939,0,0
595,85,0,0,0,0,0,0,0,0,0,-1,1819,939,0,0
602,85,0,0,0,0,0,0,0,0,0,-1,1826,939,0,0
609,85,0,0,0,0,0,0,0,0,0,-1,1833,939,0,0
616,85,0,0,0,0,0,0,0,0,0,-1,1840,939,0,0
623,85,0,0,0,0,0,0,0,0,0,-1,1847,939,0,0
630,85,0,0,0,0,0,0,0,0,0,-1,1854,939,0,0
637,85,64.1545,3.47839,0,0,0,0,0,0,0,-1,1861,939,64.1545,-3.47837
644,85,64.3115,2.82855,0,0,0,0,0,0,0,-1,1868,939,64.3115,-2.82857
651,85,64.4065,2.22803,0,0,0,0,0,0,0,-1,1875,939,64.4065,-2.228
658,85,64.2426,2.69409,-0.000862405,0.000939701,-0.00346297,0.00361692,-0.00353963,-0.912674,0.00413192,0.0445384,1882,939,64.2425,-2.6941
665,85,64.2196,2.66736,-0.00142698,0.00152823,-0.00166445,0.00227632,-0.00217507,-1.1484,0.00257023,0.0462052,1889,939,64.2196,-2.66737
672,85,64.179,2.65173,-0.00190552,0.00184716,-0.000117774,0.00185085,-0.00190922,-1.53945,0.00217096,0.0466679,1896,939,64.179,-2.65172
679,85,64.1918,2.68542,-0.00213682,0.00172019,0.000945703,0.00193959,-0.00235622,1.34283,0.00248407,0.0407849,1903,939,64.1918,-2.68543
686,85,64.2289,2.55841,-0.00211599,0.00150408,0.0013308,0.00194065,-0.00255256,1.2538,0.00260217,0.0333895,1910,939,64.2289,-2.55841
693,85,64.2456,2.68848,-0.00215239,0.00137568,0.0014567,0.00189939,-0.0026761,1.22566,0.00265432,0.0287307,1917,939,64.2456,-2.6885
700,85,64.2587,2.85547,-0.00246894,0.00136215,0.00148514,0.00187044,-0.00297722,1.24104,0.00282301,0.0445259,1924,939,64.2587,-2.85546
707,85,64.3207,2.96869,0,0,0,0,0,0,0,-1,1931,939,64.3207,-2.96869
714,85,61.0863,4.216,0,0,0,0,0,0,0,-1,1938,939,61.0863,-4.21602
721,85,60.7943,4.88519,-0.00300889,0.00228029,0.000423416,0.00231397,-0.00304257,1.49142,0.00310212,0.0335648,1945,939,60.7944,-4.88522
728,85,60.5134,5.60138,-0.00309628,0.00291984,8.2294e-05,0.00292096,-0.00309741,1.55712,0.00347521,0.0328678,1952,939,60.5134,-5.60141
735,85,60.5684,6.02234,-0.00362786,0.00381475,-0.000447749,0.00384159,-0.0036547,-1.51092,0.00432844,0.0300127,1959,939,60.5684,-6.02236
742,85,60.6245,6.5094,-0.00387962,0.0053326,-0.00111308,0.00546518,-0.0040122,-1.45224,0.00549316,0.0208024,1966,939,60.6245,-6.50942
749,85,60.4962,7.0556,-0.00355191,0.00766676,-0.00142097,0.00784395,-0.00372909,-1.44674,0.00682103,0.0159263,1973,939,60.4963,-7.0556
756,85,60.3423,7.53613,-0.00250922,0.0110322,-0.000643521,0.0110627,-0.00253974,-1.52342,0.00835143,0.0140422,1980,939,60.3423,-7.53612
763,85,60.3009,8.02148,-0.000654206,0.0151061,0.0011775,0.0151935,-0.000741696,1.49663,0.0103851,0.0141196,1987,939,60.3009,-8.02147
770,85,60.2212,8.51953,0.00231086,0.0191764,0.00387727,0.0200251,0.00146221,1.35532,0.0128903,0.020517,1994,939,60.2213,-8.51951
777,85,60.2278,9.02899,0.00664301,0.0232341,0.00808144,0.0265199,0.00335729,1.18463,0.0166739,0.0441361,2001,939,60.2277,-9.02899
784,85,60.6938,9.53998,0,0,0,0,0,0,0,-1,2008,939,60.694,-9.53995
791,85,61.4739,9.84692,0,0,0,0,0,0,0,-1,2015,939,61.474,-9.84692
798,85,62.0234,9.68726,0,0,0,0,0,0,0,-1,2022,939,62.0235,-9.68728
805,85,62.573,9.52765,0,0,0,0,0,0,0,-1,2029,939,62.573,-9.52764
812,85,0,0,0,0,0,0,0,0,0,-1,2036,939,0,0
-700,78,0,0,0,0,0,0,0,0,0,-1,524,946,0,0
-693,78,0,0,0,0,0,0,0,0,0,-1,531,946,0,0
-686,78,-48.5468,8.97809,0,0,0,0,0,0,0,-1,538,946,-48.5468,-8.97808
-679,78,-47.1978,7.69165,0,0,0,0,0,0,0,-1,545,946,-47.1978,-7.69165
-672,78,-47.3163,7.53406,0.0325122,0.112217,-0.00333271,0.112356,0.0323731,-1.52908,0.0667817,0.0457351,552,946,-47.3163,-7.53407
-665,78,-47.4662,7.37903,0.0285131,0.091765,-8.41907e-05,0.0917652,0.028513,-1.56947,0.0542313,0.0452943,559,946,-47.4663,-7.37905
-658,78,-47.6257,7.29248,0.023717,0.0748432,0.00159135,0.0748927,0.0236675,1.53971,0.0442043,0.0459118,566,946,-47.6257,-7.2925
-651,78,-46.9323,7.15955,0.0188105,0.0602756,0.00249484,0.0604252,0.0186609,1.51092,0.0357264,0.0434306,573,946,-46.9322,-7.15952
-644,78,-46.2244,6.41296,0.0141928,0.047511,0.00300818,0.0477804,0.0139233,1.48147,0.028375,0.0311879,580,946,-46.2244,-6.41295
-637,78,-46.5109,6.0321,0.010115,0.0363481,0.00321066,0.0367353,0.0097278,1.45077,0.0219774,0.020342,587,946,-46.5109,-6.03208
-630,78,-46.6857,5.59802,0.0064065,0.0267217,0.00326234,0.0272327,0.00589547,1.41541,0.0165439,0.0179132,594,946,-46.6857,-5.598
-623,78,-46.723,5.13599,0.00342578,0.0191814,0.00235326,0.0195253,0.00308181,1.42565,0.0121209,0.0135462,601,946,-46.723,-5.13599
-616,78,-46.7415,4.66241,0.000861194,0.01215,0.00143726,0.0123301,0.000681078,1.44613,0.00800269,0.0120523,608,946,-46.7415,-4.66239
-609,78,-46.7359,4.22668,-0.00116175,0.00681666,0.00044326,0.00684121,-0.0011863,1.51547,0.00500334,0.0121799,615,946,-46.7359,-4.22671
-602,78,-46.7439,3.75159,-0.00248658,0.00467023,-0.000681737,0.00473459,-0.00255094,-1.47667,0.00426882,0.0170601,622,946,-46.7439,-3.75158
-595,78,-46.6642,3.21838,-0.00370875,0.00339086,-0.00139215,0.00365409,-0.00397198,-1.38392,0.00440419,0.0176918,629,946,-46.6642,-3.21838
-588,78,-46.6573,2.78979,-0.00435391,0.00248552,-0.00217637,0.00311933,-0.00498772,-1.28741,0.00472186,0.015126,636,946,-46.6573,-2.78982
-581,78,-46.6069,2.26489,0,0,0,0,0,0,0,-1,643,946,-46.6069,-2.26492
-574,78,-47.8249,1.55585,-0.00426075,0.00159801,-0.00287204,0.00277106,-0.0054338,-1.18304,0.00481951,0.0479814,650,946,-47.8249,-1.55582
-567,78,-48.8256,0.71405,-0.00427292,0.00178212,-0.00302082,0.00303143,-0.00552222,-1.17865,0.00500776,0.0348434,657,946,-48.8256,-0.714055
-560,78,-48.7954,0.889221,-0.00425582,0.00198572,-0.00298301,0.00318207,-0.00545217,-1.18938,0.00504209,0.031774,664,946,-48.7954,-0.889236
-553,78,-48.7814,0.931763,-0.00398081,0.00241817,-0.00270236,0.0034067,-0.00496933,-1.22011,0.00486387,0.0394872,671,946,-48.7814,-0.93177
-546,78,-48.8577,0.898071,-0.00325152,0.00298306,-0.00207695,0.0036116,-0.00388006,-1.27693,0.00432624,0.0411183,678,946,-48.8577,-0.898068
-539,78,-48.9368,0.9422,-0.00190429,0.00351103,-0.000991472,0.00368684,-0.00208011,-1.39529,0.00337235,0.0400293,685,946,-48.9368,-0.942209
-532,78,-48.8613,1.09973,0.000246157,0.00389477,0.000382811,0.0039345,0.000206426,1.46738,0.00255697,0.041105,692,946,-48.8613,-1.09971
-525,78,-48.5799,0.875854,0.00211346,0.00492097,0.0011403,0.00532576,0.00170867,1.22969,0.00313994,0.0401991,699,946,-48.5799,-0.875867
-518,78,-48.5001,0.698181,0.00193497,0.0066472,0.00180788,0.00726088,0.00132129,1.24355,0.0044658,0.0433569,706,946,-48.5001,-0.69819
-511,78,0,0,0,0,0,0,0,0,0,-1,713,946,0,0
-504,78,0,0,0,0,0,0,0,0,0,-1,720,946,0,0
-497,78,0,0,0,0,0,0,0,0,0,-1,727,946,0,0
-490,78,0,0,0,0,0,0,0,0,0,-1,734,946,0,0
-483,78,0,0,0,0,0,0,0,0,0,-1,741,946,0,0
-476,78,0,0,0,0,0,0,0,0,0,-1,748,946,0,0
-469,78,0,0,0,0,0,0,0,0,0,-1,755,946,0,0
-462,78,0,0,0,0,0,0,0,0,0,-1,762,946,0,0
-455,78,0,0,0,0,0,0,0,0,0,-1,769,946,0,0
-448,78,0,0,0,0,0,0,0,0,0,-1,776,946,0,0
-441,78,0,0,0,0,0,0,0,0,0,-1,783,946,0,0
-434,78,0,0,0,0,0,0,0,0,0,-1,790,946,0,0
-427,78,0,0,0,0,0,0,0,0,0,-1,797,946,0,0
-420,78,0,0,0,0,0,0,0,0,0,-1,804,946,0,0
-413,78,0,0,0,0,0,0,0,0,0,-1,811,946,0,0
-406,78,0,0,0,0,0,0,0,0,0,-1,818,946,0,0
-399,78,0,0,0,0,0,0,0,0,0,-1,825,946,0,0
-392,78,0,0,0,0,0,0,0,0,0,-1,832,946,0,0
-385,78,0,0,0,0,0,0,0,0,0,-1,839,946,0,0
-378,78,0,0,0,0,0,0,0,0,0,-1,846,946,0,0
-371,78,0,0,0,0,0,0,0,0,0,-1,853,946,0,0
-364,78,0,0,0,0,0,0,0,0,0,-1,860,946,0,0
-357,78,0,0,0,0,0,0,0,0,0,-1,867,946,0,0
-350,78,0,0,0,0,0,0,0,0,0,-1,874,946,0,0
-343,78,0,0,0,0,0,0,0,0,0,-1,881,946,0,0
-336,78,0,0,0,0,0,0,0,0,0,-1,888,946,0,0
-329,78,0,0,0,0,0,0,0,0,0,-1,895,946,0,0
-322,78,0,0,0,0,0,0,0,0,0,-1,902,946,0,0
-315,78,0,0,0,0,0,0,0,0,0,-1,909,946,0,0
-308,78,0,0,0,0,0,0,0,0,0,-1,916,946,0,0
-301,78,0,0,0,0,0,0,0,0,0,-1,923,946,0,0
-294,78,0,0,0,0,0,0,0,0,0,-1,930,946,0,0
-287,78,0,0,0,0,0,0,0,0,0,-1,937,946,0,0
-280,78,0,0,0,0,0,0,0,0,0,-1,944,946,0,0
-273,78,0,0,0,0,0,0,0,0,0,-1,951,946,0,0
-266,78,0,0,0,0,0,0,0,0,0,-1,958,946,0,0
-259,78,0,0,0,0,0,0,0,0,0,-1,965,946,0,0
-252,78,0,0,0,0,0,0,0,0,0,-1,972,946,0,0
-245,78,0,0,0,0,0,0,0,0,0,-1,979,946,0,0
-238,78,0,0,0,0,0,0,0,0,0,-1,986,946,0,0
-231,78,0,0,0,0,0,0,0,0,0,-1,993,946,0,0
-224,78,0,0,0,0,0,0,0,0,0,-1,1000,946,0,0
-217,78,0,0,0,0,0,0,0,0,0,-1,1007,946,0,0
-210,78,0,0,0,0,0,0,0,0,0,-1,1014,946,0,0
-203,78,0,0,0,0,0,0,0,0,0,-1,1021,946,0,0
-196,78,0,0,0,0,0,0,0,0,0,-1,1028,946,0,0
-189,78,0,0,0,0,0,0,0,0,0,-1,1035,946,0,0
-182,78,0,0,0,0,0,0,0,0,0,-1,1042,946,0,0
-175,78,0,0,0,0,0,0,0,0,0,-1,1049,946,0,0
-168,78,0,0,0,0,0,0,0,0,0,-1,1056,946,0,0
-161,78,0,0,0,0,0,0,0,0,0,-1,1063,946,0,0
-154,78,0,0,0,0,0,0,0,0,0,-1,1070,946,0,0
-147,78,0,0,0,0,0,0,0,0,0,-1,1077,946,0,0
-140,78,0,0,0,0,0,0,0,0,0,-1,1084,946,0,0
-133,78,0,0,0,0,0,0,0,0,0,-1,1091,946,0,0
-126,78,0,0,0,0,0,0,0,0,0,-1,1098,946,0,0
-119,78,0,0,0,0,0,0,0,0,0,-1,1105,946,0,0
-112,78,0,0,0,0,0,0,0,0,0,-1,1112,946,0,0
-105,78,0,0,0,0,0,0,0,0,0,-1,1119,946,0,0
-98,78,0,0,0,0,0,0,0,0,0,-1,1126,946,0,0
-91,78,0,0,0,0,0,0,0,0,0,-1,1133,946,0,0
-84,78,0,0,0,0,0,0,0,0,0,-1,1140,946,0,0
-77,78,0,0,0,0,0,0,0,0,0,-1,1147,946,0,0
-70,78,0,0,0,0,0,0,0,0,0,-1,1154,946,0,0
-63,78,0,0,0,0,0,0,0,0,0,-1,1161,946,0,0
-56,78,0,0,0,0,0,0,0,0,0,-1,1168,946,0,0
-49,78,0,0,0,0,0,0,0,0,0,-1,1175,946,0,0
-42,78,0,0,0,0,0,0,0,0,0,-1,1182,946,0,0
-35,78,0,0,0,0,0,0,0,0,0,-1,1189,946,0,0
-28,78,0,0,0,0,0,0,0,0,0,-1,1196,946,0,0
-21,78,0,0,0,0,0,0,0,0,0,-1,1203,946,0,0
-14,78,0,0,0,0,0,0,0,0,0,-1,1210,946,0,0
-7,78,0,0,0,0,0,0,0,0,0,-1,1217,946,0,0
0,78,0,0,0,0,0,0,0,0,0,-1,1224,946,0,0
7,78,0,0,0,0,0,0,0,0,0,-1,1231,946,0,0
14,78,0,0,0,0,0,0,0,0,0,-1,1238,946,0,0
21,78,0,0,0,0,0,0,0,0,0,-1,1245,946,0,0
28,78,0,0,0,0,0,0,0,0,0,-1,1252,946,0,0
35,78,0,0,0,0,0,0,0,0,0,-1,1259,946,0,0
42,78,0,0,0,0,0,0,0,0,0,-1,1266,946,0,0
49,78,0,0,0,0,0,0,0,0,0,-1,1273,946,0,0
56,78,0,0,0,0,0,0,0,0,0,-1,1280,946,0,0
63,78,0,0,0,0,0,0,0,0,0,-1,1287,946,0,0
70,78,0,0,0,0,0,0,0,0,0,-1,1294,946,0,0
77,78,0,0,0,0,0,0,0,0,0,-1,1301,946,0,0
84,78,0,0,0,0,0,0,0,0,0,-1,1308,946,0,0
91,78,0,0,0,0,0,0,0,0,0,-1,1315,946,0,0
98,78,0,0,0,0,0,0,0,0,0,-1,1322,946,0,0
105,78,0,0,0,0,0,0,0,0,0,-1,1329,946,0,0
112,78,0,0,0,0,0,0,0,0,0,-1,1336,946,0,0
119,78,0,0,0,0,0,0,0,0,0,-1,1343,946,0,0
126,78,0,0,0,0,0,0,0,0,0,-1,1350,946,0,0
133,78,0,0,0,0,0,0,0,0,0,-1,1357,946,0,0
140,78,0,0,0,0,0,0,0,0,0,-1,1364,946,0,0
147,78,0,0,0,0,0,0,0,0,0,-1,1371,946,0,0
154,78,0,0,0,0,0,0,0,0,0,-1,1378,946,0,0
161,78,0,0,0,0,0,0,0,0,0,-1,1385,946,0,0
168,78,0,0,0,0,0,0,0,0,0,-1,1392,946,0,0
175,78,0,0,0,0,0,0,0,0,0,-1,1399,946,0,0
182,78,0,0,0,0,0,0,0,0,0,-1,1406,946,0,0
189,78,0,0,0,0,0,0,0,0,0,-1,1413,946,0,0
196,78,0,0,0,0,0,0,0,0,0,-1,1420,946,0,0
203,78,0,0,0,0,0,0,0,0,0,-1,1427,946,0,0
210,78,0,0,0,0,0,0,0,0,0,-1,1434,946,0,0
217,78,0,0,0,0,0,0,0,0,0,-1,1441,946,0,0
224,78,0,0,0,0,0,0,0,0,0,-1,1448,946,0,0
231,78,0,0,0,0,0,0,0,0,0,-1,1455,946,0,0
238,78,0,0,0,0,0,0,0,0,0,-1,1462,946,0,0
245,78,0,0,0,0,0,0,0,0,0,-1,1469,946,0,0
252,78,0,0,0,0,0,0,0,0,0,-1,1476,946,0,0
259,78,0,0,0,0,0,0,0,0,0,-1,1483,946,0,0
266,78,0,0,0,0,0,0,0,0,0,-1,1490,946,0,0
273,78,0,0,0,0,0,0,0,0,0,-1,1497,946,0,0
280,78,0,0,0,0,0,0,0,0,0,-1,1504,946,0,0
287,78,0,0,0,0,0,0,0,0,0,-1,1511,946,0,0
294,78,0,0,0,0,0,0,0,0,0,-1,1518,946,0,0
301,78,0,0,0,0,0,0,0,0,0,-1,1525,946,0,0
308,78,0,0,0,0,0,0,0,0,0,-1,1532,946,0,0
315,78,0,0,0,0,0,0,0,0,0,-1,1539,946,0,0
322,78,0,0,0,0,0,0,0,0,0,-1,1546,946,0,0
329,78,0,0,0,0,0,0,0,0,0,-1,1553,946,0,0
336,78,0,0,0,0,0,0,0,0,0,-1,1560,946,0,0
343,78,0,0,0,0,0,0,0,0,0,-1,1567,946,0,0
350,78,0,0,0,0,0,0,0,0,0,-1,1574,946,0,0
357,78,0,0,0,0,0,0,0,0,0,-1,1581,946,0,0
364,78,0,0,0,0,0,0,0,0,0,-1,1588,946,0,0
371,78,0,0,0,0,0,0,0,0,0,-1,1595,946,0,0
378,78,0,0,0,0,0,0,0,0,0,-1,1602,946,0,0
385,78,0,0,0,0,0,0,0,0,0,-1,1609,946,0,0
392,78,0,0,0,0,0,0,0,0,0,-1,1616,946,0,0
399,78,0,0,0,0,0,0,0,0,0,-1,1623,946,0,0
406,78,0,0,0,0,0,0,0,0,0,-1,1630,946,0,0
413,78,0,0,0,0,0,0,0,0,0,-1,1637,946,0,0
420,78,0,0,0,0,0,0,0,0,0,-1,1644,946,0,0
427,78,0,0,0,0,0,0,0,0,0,-1,1651,946,0,0
434,78,0,0,0,0,0,0,0,0,0,-1,1658,946,0,0
441,78,0,0,0,0,0,0,0,0,0,-1,1665,946,0,0
448,78,0,0,0,0,0,0,0,0,0,-1,1672,946,0,0
455,78,0,0,0,0,0,0,0,0,0,-1,1679,946,0,0
462,78,0,0,0,0,0,0,0,0,0,-1,1686,946,0,0
469,78,0,0,0,0,0,0,0,0,0,-1,1693,946,0,0
476,78,0,0,0,0,0,0,0,0,0,-1,1700,946,0,0
483,78,0,0,0,0,0,0,0,0,0,-1,1707,946,0,0
490,78,0,0,0,0,0,0,0,0,0,-1,1714,946,0,0
497,78,0,0,0,0,0,0,0,0,0,-1,1721,946,0,0
504,78,0,0,0,0,0,0,0,0,0,-1,1728,946,0,0
511,78,0,0,0,0,0,0,0,0,0,-1,1735,946,0,0
518,78,0,0,0,0,0,0,0,0,0,-1,1742,946,0,0
525,78,0,0,0,0,0,0,0,0,0,-1,1749,946,0,0
532,78,0,0,0,0,0,0,0,0,0,-1,1756,946,0,0
539,78,0,0,0,0,0,0,0,0,0,-1,1763,946,0,0
546,78,0,0,0,0,0,0,0,0,0,-1,1770,946,0,0
553,78,0,0,0,0,0,0,0,0,0,-1,1777,946,0,0
560,78,0,0,0,0,0,0,0,0,0,-1,1784,946,0,0
567,78,0,0,0,0,0,0,0,0,0,-1,1791,946,0,0
574,78,0,0,0,0,0,0,0,0,0,-1,1798,946,0,0
581,78,0,0,0,0,0,0,0,0,0,-1,1805,946,0,0
588,78,0,0,0,0,0,0,0,0,0,-1,1812,946,0,0
595,78,0,0,0,0,0,0,0,0,0,-1,1819,946,0,0
602,78,0,0,0,0,0,0,0,0,0,-1,1826,946,0,0
609,78,0,0,0,0,0,0,0,0,0,-1,1833,946,0,0
616,78,0,0,0,0,0,0,0,0,0,-1,1840,946,0,0
623,78,0,0,0,0,0,0,0,0,0,-1,1847,946,0,0
630,78,0,0,0,0,0,0,0,0,0,-1,1854,946,0,0
637,78,64.2736,3.06567,0.00275826,0.000428787,-0.00797115,0.00964932,-0.00646228,-0.712852,0.0093625,0.0475606,1861,946,64.2735,-3.06569
644,78,64.2178,2.76752,0.00141759,0.000213321,-0.00665715,0.00749978,-0.00586887,-0.740296,0.00773752,0.0432533,1868,946,64.2178,-2.76751
651,78,64.3175,2.46832,0.000274055,0.000256464,-0.00525099,0.00551626,-0.00498574,-0.784561,0.00606591,0.0408269,1875,946,64.3175,-2.46831
658,78,64.2589,2.51996,-0.000652202,0.000598308,-0.0036222,0.00364882,-0.00370272,-0.870865,0.00424445,0.0379015,1882,946,64.259,-2.51997
665,78,64.2015,2.84045,-0.00130029,0.00116097,-0.00179216,0.00210435,-0.00224367,-1.08626,0.00251076,0.0414664,1889,946,64.2015,-2.84047
672,78,64.1902,2.66632,-0.00193001,0.00155529,-0.000112642,0.00155893,-0.00193365,-1.53852,0.0020203,0.042431,1896,946,64.1902,-2.66634
679,78,64.2794,2.63971,-0.0022928,0.00151354,0.00109421,0.00180567,-0.00258493,1.3099,0.00254819,0.0402469,1903,946,64.2794,-2.63971
686,78,64.3331,2.62396,-0.0023401,0.00133742,0.00160696,0.00194066,-0.00294334,1.21168,0.00283952,0.0370947,1910,946,64.3332,-2.62394
693,78,64.2605,2.60864,-0.00241678,0.00117592,0.00182374,0.00193944,-0.00318029,1.17431,0.00298467,0.0294379,1917,946,64.2606,-2.60863
700,78,64.229,2.67078,-0.00277039,0.00117059,0.00185927,0.00190929,-0.00350909,1.19261,0.00317343,0.028339,1924,946,64.229,-2.67078
707,78,64.2463,2.80511,0,0,0,0,0,0,0,-1,1931,946,64.2463,-2.80512
714,78,61.3958,4.3941,0,0,0,0,0,0,0,-1,1938,946,61.3958,-4.3941
721,78,61.2446,4.935,-0.00350347,0.00226739,0.000745733,0.0023622,-0.00359828,1.44434,0.00346587,0.0333623,1945,946,61.2446,-4.93497
728,78,61.1318,5.62177,-0.00359836,0.00300229,0.000382548,0.00302439,-0.00362046,1.5131,0.00384154,0.0404829,1952,946,61.1318,-5.62179
735,78,61.2303,6.0769,-0.00410084,0.00397034,-0.000178087,0.00397427,-0.00410477,-1.54875,0.00466464,0.0276724,1959,946,61.2303,-6.07689
742,78,61.2314,6.52417,-0.00439931,0.00554545,-0.000882979,0.00562324,-0.0044771,-1.48292,0.00584393,0.0208933,1966,946,61.2315,-6.52417
749,78,61.0601,7.02509,-0.00417521,0.00789127,-0.00131259,0.0080324,-0.00431634,-1.46369,0.00723636,0.0170949,1973,946,61.0601,-7.02508
756,78,60.9755,7.46039,-0.00330774,0.0112735,-0.000735741,0.0113105,-0.00334477,-1.52051,0.00886809,0.0160912,1980,946,60.9754,-7.46036
763,78,60.8746,7.88147,-0.00168558,0.0155004,0.000881622,0.0155455,-0.00173069,1.51968,0.0109861,0.0177498,1987,946,60.8746,-7.88147
770,78,60.77,8.32111,0.00107275,0.0199011,0.00354879,0.0205477,0.000426074,1.39055,0.0135587,0.0236763,1994,946,60.7701,-8.32111
777,78,60.5801,8.88751,0.00517037,0.0242389,0.00751421,0.026844,0.00256521,1.23707,0.0171052,0.0441664,2001,946,60.5801,-8.8875
784,78,60.6235,9.22693,0.0125886,0.0282122,0.0138633,0.0363132,0.00448766,1.04197,0.0228602,0.0481743,2008,946,60.6234,-9.22695
791,78,60.3884,9.66211,0,0,0,0,0,0,0,-1,2015,946,60.3884,-9.66209
798,78,63.2144,8.56195,0,0,0,0,0,0,0,-1,2022,946,63.2144,-8.56197
805,78,63.7205,8.24469,0,0,0,0,0,0,0,-1,2029,946,63.7206,-8.24467
812,78,0,0,0,0,0,0,0,0,0,-1,2036,946,0,0
-700,71,0,0,0,0,0,0,0,0,0,-1,524,953,0,0
-693,71,0,0,0,0,0,0,0,0,0,-1,531,953,0,0
-686,71,-46.608,6.89349,0,0,0,0,0,0,0,-1,538,953,-46.608,-6.89349
-679,71,-46.7363,6.68268,0,0,0,0,0,0,0,-1,545,953,-46.7363,-6.68268
-672,71,-47.2176,6.63867,0.0279146,0.12409,-0.00767148,0.124698,0.0273066,-1.4917,0.0756897,0.0467227,552,953,-47.2176,-6.63866
-665,71,-47.3706,6.28253,0.0246692,0.100162,-0.00314217,0.100292,0.0245387,-1.52927,0.0603681,0.0471041,559,953,-47.3706,-6.28251
-658,71,-47.2403,7.65167,0,0,0,0,0,0,0,-1,566,953,-47.2403,-7.65169
-651,71,-47.0773,6.91528,0.0160434,0.0637127,0.00120938,0.0637433,0.0160127,1.54545,0.0382908,0.0446989,573,953,-47.0773,-6.91528
-644,71,-46.7,6.38159,0.0118731,0.0494552,0.00226704,0.0495915,0.0117368,1.51076,0.029926,0.0340313,580,953,-46.7,-6.3816
-637,71,-47.0528,5.93359,0.00828163,0.0373756,0.00277747,0.0376383,0.00801885,1.47647,0.0228923,0.0190088,587,953,-47.0528,-5.93356
-630,71,-47.1899,5.50916,0.00507818,0.0273292,0.00282334,0.0276818,0.00472553,1.44653,0.0170985,0.0167091,594,953,-47.1899,-5.50918
-623,71,-47.2374,5.06958,0.00248271,0.0194952,0.00191473,0.019708,0.00226987,1.46009,0.0124512,0.0149879,601,953,-47.2374,-5.0696
-616,71,-47.2546,4.59375,0.000370991,0.0125358,0.000899175,0.0126019,0.000304887,1.49741,0.00830148,0.0152509,608,953,-47.2546,-4.59375
-609,71,-47.2181,4.18701,-0.00122765,0.00746204,-0.000238454,0.00746858,-0.00123419,-1.54338,0.00543734,0.0160043,615,953,-47.2181,-4.18704
-602,71,-47.2031,3.78583,-0.00230334,0.00536602,-0.00151991,0.00565625,-0.00259357,-1.38211,0.00487121,0.0171191,622,953,-47.203,-3.78583
-595,71,-47.1949,3.38019,-0.00338162,0.00405964,-0.00233014,0.00472907,-0.00405105,-1.29104,0.00507424,0.0197218,629,953,-47.1949,-3.38018
-588,71,-47.1598,2.96326,-0.0038624,0.00314033,-0.00319121,0.00437641,-0.00509848,-1.20125,0.00547562,0.024362,636,953,-47.1598,-2.96328
-581,71,-46.9705,2.47461,0,0,0,0,0,0,0,-1,643,953,-46.9705,-2.47458
-574,71,-48.4062,1.34619,-0.00366587,0.00215962,-0.00395206,0.00415634,-0.00566259,-1.10297,0.00569115,0.0486798,650,953,-48.4062,-1.34617
-567,71,-48.8069,0.764709,-0.00364495,0.00232754,-0.00407227,0.00439115,-0.00570856,-1.10177,0.00584758,0.0206114,657,953,-48.8069,-0.764726
-560,71,-48.7991,0.845398,-0.00357971,0.00252818,-0.00391708,0.00444113,-0.00549266,-1.1165,0.00574598,0.0267806,664,953,-48.7991,-0.845388
-553,71,-48.7505,0.950562,-0.00322312,0.00290154,-0.00345026,0.00445247,-0.00477405,-1.14835,0.00532801,0.0392901,671,953,-48.7505,-0.950551
-546,71,-48.8365,0.94104,-0.00240691,0.00332475,-0.00257397,0.00431098,-0.00339313,-1.2049,0.00445848,0.0424794,678,953,-48.8365,-0.941056
-539,71,-48.8435,0.804443,-0.00101387,0.00359437,-0.00120231,0.00388919,-0.00130869,-1.33033,0.00312184,0.0418366,685,953,-48.8435,-0.804434
-532,71,-48.7407,0.888245,0.00111417,0.00365254,0.000353493,0.00370085,0.00106587,1.43498,0.00219977,0.0445336,692,953,-48.7407,-0.88822
-525,71,-48.5878,0.750793,0.00291617,0.00454038,0.000902525,0.00494238,0.00251416,1.15175,0.00285363,0.0452566,699,953,-48.5878,-0.750811
-518,71,0,0,0,0,0,0,0,0,0,-1,706,953,0,0
-511,71,0,0,0,0,0,0,0,0,0,-1,713,953,0,0
-504,71,0,0,0,0,0,0,0,0,0,-1,720,953,0,0
-497,71,0,0,0,0,0,0,0,0,0,-1,727,953,0,0
-490,71,0,0,0,0,0,0,0,0,0,-1,734,953,0,0
-483,71,0,0,0,0,0,0,0,0,0,-1,741,953,0,0
-476,71,0,0,0,0,0,0,0,0,0,-1,748,953,0,0
-469,71,0,0,0,0,0,0,0,0,0,-1,755,953,0,0
-462,71,0,0,0,0,0,0,0,0,0,-1,762,953,0,0
-455,71,0,0,0,0,0,0,0,0,0,-1,769,953,0,0
-448,71,0,0,0,0,0,0,0,0,0,-1,776,953,0,0
-441,71,0,0,0,0,0,0,0,0,0,-1,783,953,0,0
-434,71,0,0,0,0,0,0,0,0,0,-1,790,953,0,0
-427,71,0,0,0,0,0,0,0,0,0,-1,797,953,0,0
-420,71,0,0,0,0,0,0,0,0,0,-1,804,953,0,0
-413,71,0,0,0,0,0,0,0,0,0,-1,811,953,0,0
-406,71,0,0,0,0,0,0,0,0,0,-1,818,953,0,0
-399,71,0,0,0,0,0,0,0,0,0,-1,825,953,0,0
-392,71,0,0,0,0,0,0,0,0,0,-1,832,953,0,0
-385,71,0,0,0,0,0,0,0,0,0,-1,839,953,0,0
-378,71,0,0,0,0,0,0,0,0,0,-1,846,953,0,0
-371,71,0,0,0,0,0,0,0,0,0,-1,853,953,0,0
-364,71,0,0,0,0,0,0,0,0,0,-1,860,953,0,0
-357,71,0,0,0,0,0,0,0,0,0,-1,867,953,0,0
-350,71,0,0,0,0,0,0,0,0,0,-1,874,953,0,0
-343,71,0,0,0,0,0,0,0,0,0,-1,881,953,0,0
-336,71,0,0,0,0,0,0,0,0,0,-1,888,953,0,0
-329,71,0,0,0,0,0,0,0,0,0,-1,895,953,0,0
-322,71,0,0,0,0,0,0,0,0,0,-1,902,953,0,0
-315,71,0,0,0,0,0,0,0,0,0,-1,909,953,0,0
-308,71,0,0,0,0,0,0,0,0,0,-1,916,953,0,0
-301,71,0,0,0,0,0,0,0,0,0,-1,923,953,0,0
-294,71,0,0,0,0,0,0,0,0,0,-1,930,953,0,0
-287,71,0,0,0,0,0,0,0,0,0,-1,937,953,0,0
-280,71,0,0,0,0,0,0,0,0,0,-1,944,953,0,0
-273,71,0,0,0,0,0,0,0,0,0,-1,951,953,0,0
-266,71,0,0,0,0,0,0,0,0,0,-1,958,953,0,0
-259,71,0,0,0,0,0,0,0,0,0,-1,965,953,0,0
-252,71,0,0,0,0,0,0,0,0,0,-1,972,953,0,0
-245,71,0,0,0,0,0,0,0,0,0,-1,979,953,0,0
-238,71,0,0,0,0,0,0,0,0,0,-1,986,953,0,0
-231,71,0,0,0,0,0,0,0,0,0,-1,993,953,0,0
-224,71,0,0,0,0,0,0,0,0,0,-1,1000,953,0,0
-217,71,0,0,0,0,0,0,0,0,0,-1,1007,953,0,0
-210,71,0,0,0,0,0,0,0,0,0,-1,1014,953,0,0
-203,71,0,0,0,0,0,0,0,0,0,-1,1021,953,0,0
-196,71,0,0,0,0,0,0,0,0,0,-1,1028,953,0,0
-189,71,0,0,0,0,0,0,0,0,0,-1,1035,953,0,0
-182,71,0,0,0,0,0,0,0,0,0,-1,1042,953,0,0
-175,71,0,0,0,0,0,0,0,0,0,-1,1049,953,0,0
-168,71,0,0,0,0,0,0,0,0,0,-1,1056,953,0,0
-161,71,0,0,0,0,0,0,0,0,0,-1,1063,953,0,0
-154,71,0,0,0,0,0,0,0,0,0,-1,1070,953,0,0
-147,71,0,0,0,0,0,0,0,0,0,-1,1077,953,0,0
-140,71,0,0,0,0,0,0,0,0,0,-1,1084,953,0,0
-133,71,0,0,0,0,0,0,0,0,0,-1,1091,953,0,0
-126,71,0,0,0,0,0,0,0,0,0,-1,1098,953,0,0
-119,71,0,0,0,0,0,0,0,0,0,-1,1105,953,0,0
-112,71,0,0,0,0,0,0,0,0,0,-1,1112,953,0,0
-105,71,0,0,0,0,0,0,0,0,0,-1,1119,953,0,0
-98,71,0,0,0,0,0,0,0,0,0,-1,1126,953,0,0
-91,71,0,0,0,0,0,0,0,0,0,-1,1133,953,0,0
-84,71,0,0,0,0,0,0,0,0,0,-1,1140,953,0,0
-77,71,0,0,0,0,0,0,0,0,0,-1,1147,953,0,0
-70,71,0,0,0,0,0,0,0,0,0,-1,1154,953,0,0
-63,71,0,0,0,0,0,0,0,0,0,-1,1161,953,0,0
-56,71,0,0,0,0,0,0,0,0,0,-1,1168,953,0,0
-49,71,0,0,0,0,0,0,0,0,0,-1,1175,953,0,0
-42,71,0,0,0,0,0,0,0,0,0,-1,1182,953,0,0
-35,71,0,0,0,0,0,0,0,0,0,-1,1189,953,0,0
-28,71,0,0,0,0,0,0,0,0,0,-1,1196,953,0,0
-21,71,0,0,0,0,0,0,0,0,0,-1,1203,953,0,0
-14,71,0,0,0,0,0,0,0,0,0,-1,1210,953,0,0
-7,71,0,0,0,0,0,0,0,0,0,-1,1217,953,0,0
0,71,0,0,0,0,0,0,0,0,0,-1,1224,953,0,0
7,71,0,0,0,0,0,0,0,0,0,-1,1231,953,0,0
14,71,0,0,0,0,0,0,0,0,0,-1,1238,953,0,0
21,71,0,0,0,0,0,0,0,0,0,-1,1245,953,0,0
28,71,0,0,0,0,0,0,0,0,0,-1,1252,953,0,0
35,71,0,0,0,0,0,0,0,0,0,-1,1259,953,0,0
42,71,0,0,0,0,0,0,0,0,0,-1,1266,953,0,0
49,71,0,0,0,0,0,0,0,0,0,-1,1273,953,0,0
56,71,0,0,0,0,0,0,0,0,0,-1,1280,953,0,0
63,71,0,0,0,0,0,0,0,0,0,-1,1287,953,0,0
70,71,0,0,0,0,0,0,0,0,0,-1,1294,953,0,0
77,71,0,0,0,0,0,0,0,0,0,-1,1301,953,0,0
84,71,0,0,0,0,0,0,0,0,0,-1,1308,953,0,0
91,71,0,0,0,0,0,0,0,0,0,-1,1315,953,0,0
98,71,0,0,0,0,0,0,0,0,0,-1,1322,953,0,0
105,71,0,0,0,0,0,0,0,0,0,-1,1329,953,0,0
112,71,0,0,0,0,0,0,0,0,0,-1,1336,953,0,0
119,71,0,0,0,0,0,0,0,0,0,-1,1343,953,0,0
126,71,0,0,0,0,0,0,0,0,0,-1,1350,953,0,0
133,71,0,0,0,0,0,0,0,0,0,-1,1357,953,0,0
140,71,0,0,0,0,0,0,0,0,0,-1,1364,953,0,0
147,71,0,0,0,0,0,0,0,0,0,-1,1371,953,0,0
154,71,0,0,0,0,0,0,0,0,0,-1,1378,953,0,0
161,71,0,0,0,0,0,0,0,0,0,-1,1385,953,0,0
168,71,0,0,0,0,0,0,0,0,0,-1,1392,953,0,0
175,71,0,0,0,0,0,0,0,0,0,-1,1399,953,0,0
182,71,0,0,0,0,0,0,0,0,0,-1,1406,953,0,0
189,71,0,0,0,0,0,0,0,0,0,-1,1413,953,0,0
196,71,0,0,0,0,0,0,0,0,0,-1,1420,953,0,0
203,71,0,0,0,0,0,0,0,0,0,-1,1427,953,0,0
210,71,0,0,0,0,0,0,0,0,0,-1,1434,953,0,0
217,71,0,0,0,0,0,0,0,0,0,-1,1441,953,0,0
224,71,0,0,0,0,0,0,0,0,0,-1,1448,953,0,0
231,71,0,0,0,0,0,0,0,0,0,-1,1455,953,0,0
238,71,0,0,0,0,0,0,0,0,0,-1,1462,953,0,0
245,71,0,0,0,0,0,0,0,0,0,-1,1469,953,0,0
252,71,0,0,0,0,0,0,0,0,0,-1,1476,953,0,0
259,71,0,0,0,0,0,0,0,0,0,-1,1483,953,0,0
266,71,0,0,0,0,0,0,0,0,0,-1,1490,953,0,0
273,71,0,0,0,0,0,0,0,0,0,-1,1497,953,0,0
280,71,0,0,0,0,0,0,0,0,0,-1,1504,953,0,0
287,71,0,0,0,0,0,0,0,0,0,-1,1511,953,0,0
294,71,0,0,0,0,0,0,0,0,0,-1,1518,953,0,0
301,71,0,0,0,0,0,0,0,0,0,-1,1525,953,0,0
308,71,0,0,0,0,0,0,0,0,0,-1,1532,953,0,0
315,71,0,0,0,0,0,0,0,0,0,-1,1539,953,0,0
322,71,0,0,0,0,0,0,0,0,0,-1,1546,953,0,0
329,71,0,0,0,0,0,0,0,0,0,-1,1553,953,0,0
336,71,0,0,0,0,0,0,0,0,0,-1,1560,953,0,0
343,71,0,0,0,0,0,0,0,0,0,-1,1567,953,0,0
350,71,0,0,0,0,0,0,0,0,0,-1,1574,953,0,0
357,71,0,0,0,0,0,0,0,0,0,-1,1581,953,0,0
364,71,0,0,0,0,0,0,0,0,0,-1,1588,953,0,0
371,71,0,0,0,0,0,0,0,0,0,-1,1595,953,0,0
378,71,0,0,0,0,0,0,0,0,0,-1,1602,953,0,0
385,71,0,0,0,0,0,0,0,0,0,-1,1609,953,0,0
392,71,0,0,0,0,0,0,0,0,0,-1,1616,953,0,0
399,71,0,0,0,0,0,0,0,0,0,-1,1623,953,0,0
406,71,0,0,0,0,0,0,0,0,0,-1,1630,953,0,0
413,71,0,0,0,0,0,0,0,0,0,-1,1637,953,0,0
420,71,0,0,0,0,0,0,0,0,0,-1,1644,953,0,0
427,71,0,0,0,0,0,0,0,0,0,-1,1651,953,0,0
434,71,0,0,0,0,0,0,0,0,0,-1,1658,953,0,0
441,71,0,0,0,0,0,0,0,0,0,-1,1665,953,0,0
448,71,0,0,0,0,0,0,0,0,0,-1,1672,953,0,0
455,71,0,0,0,0,0,0,0,0,0,-1,1679,953,0,0
462,71,0,0,0,0,0,0,0,0,0,-1,1686,953,0,0
469,71,0,0,0,0,0,0,0,0,0,-1,1693,953,0,0
476,71,0,0,0,0,0,0,0,0,0,-1,1700,953,0,0
483,71,0,0,0,0,0,0,0,0,0,-1,1707,953,0,0
490,71,0,0,0,0,0,0,0,0,0,-1,1714,953,0,0
497,71,0,0,0,0,0,0,0,0,0,-1,1721,953,0,0
504,71,0,0,0,0,0,0,0,0,0,-1,1728,953,0,0
511,71,0,0,0,0,0,0,0,0,0,-1,1735,953,0,0
518,71,0,0,0,0,0,0,0,0,0,-1,1742,953,0,0
525,71,0,0,0,0,0,0,0,0,0,-1,1749,953,0,0
532,71,0,0,0,0,0,0,0,0,0,-1,1756,953,0,0
539,71,0,0,0,0,0,0,0,0,0,-1,1763,953,0,0
546,71,0,0,0,0,0,0,0,0,0,-1,1770,953,0,0
553,71,0,0,0,0,0,0,0,0,0,-1,1777,953,0,0
560,71,0,0,0,0,0,0,0,0,0,-1,1784,953,0,0
567,71,0,0,0,0,0,0,0,0,0,-1,1791,953,0,0
574,71,0,0,0,0,0,0,0,0,0,-1,1798,953,0,0
581,71,0,0,0,0,0,0,0,0,0,-1,1805,953,0,0
588,71,0,0,0,0,0,0,0,0,0,-1,1812,953,0,0
595,71,0,0,0,0,0,0,0,0,0,-1,1819,953,0,0
602,71,0,0,0,0,0,0,0,0,0,-1,1826,953,0,0
609,71,0,0,0,0,0,0,0,0,0,-1,1833,953,0,0
616,71,0,0,0,0,0,0,0,0,0,-1,1840,953,0,0
623,71,0,0,0,0,0,0,0,0,0,-1,1847,953,0,0
630,71,0,0,0,0,0,0,0,0,0,-1,1854,953,0,0
637,71,64.4972,2.75171,0.003197,0.00126928,-0.0075683,0.00986258,-0.00539629,-0.722062,0.00893462,0.0421947,1861,953,64.4971,-2.7517
644,71,64.2313,2.69904,0.00189243,0.000764942,-0.00631783,0.00767162,-0.00501425,-0.740901,0.00737756,0.0410475,1868,953,64.2314,-2.69904
651,71,64.2416,2.58649,0.000736686,0.00061422,-0.00503057,0.0057064,-0.00435549,-0.779312,0.00582666,0.0386053,1875,953,64.2416,-2.58649
658,71,64.3387,2.54517,-0.000223733,0.000799822,-0.00352548,0.00385048,-0.00327439,-0.857477,0.00411802,0.035437,1882,953,64.3388,-2.54516
665,71,64.2834,2.66742,-0.00102947,0.00128484,-0.0017793,0.00225016,-0.0019948,-1.07371,0.00245231,0.0373916,1889,953,64.2834,-2.6674
672,71,64.1625,2.74652,-0.00185682,0.0017205,-7.65103e-05,0.00172213,-0.00185845,-1.54942,0.00206775,0.0397203,1896,953,64.1624,-2.74651
679,71,64.2229,2.76105,-0.00237824,0.00175162,0.00121629,0.00208321,-0.00270983,1.30464,0.00277513,0.0405951,1903,953,64.2229,-2.76105
686,71,64.3917,2.62885,-0.00251872,0.00160055,0.00184148,0.00230373,-0.0032219,1.20603,0.00320487,0.0389558,1910,953,64.3917,-2.62885
693,71,64.3593,2.51056,-0.00264035,0.0014038,0.00213675,0.00232358,-0.00356013,1.16431,0.00342188,0.0339445,1917,953,64.3592,-2.51058
700,71,64.2354,2.56879,-0.00301398,0.00140025,0.00217199,0.00228973,-0.00390346,1.18211,0.00361587,0.0350092,1924,953,64.2353,-2.56876
707,71,64.1896,2.83942,0,0,0,0,0,0,0,-1,1931,953,64.1896,-2.83944
714,71,62.2144,4.53949,0,0,0,0,0,0,0,-1,1938,953,62.2144,-4.53951
721,71,61.8872,5.04102,-0.00394377,0.00259531,0.00105347,0.00276084,-0.00410929,1.41494,0.00399186,0.0421585,1945,953,61.8872,-5.04103
728,71,61.6407,5.65796,-0.00407353,0.00338493,0.000670167,0.00344466,-0.00413326,1.48189,0.00438114,0.0338757,1952,953,61.6408,-5.65796
735,71,61.6672,6.16168,-0.00455041,0.00437688,9.73145e-05,0.00437794,-0.00455147,1.5599,0.00515572,0.0234188,1959,953,61.6672,-6.16169
742,71,61.705,6.56311,-0.0049214,0.0059688,-0.000622684,0.00600429,-0.00495689,-1.51387,0.00633807,0.0225959,1966,953,61.7049,-6.5631
749,71,61.6422,7.00275,-0.00482827,0.00830655,-0.00112393,0.00840203,-0.00492375,-1.48605,0.00778052,0.0204967,1973,953,61.6422,-7.00273
756,71,61.5748,7.38947,-0.00415815,0.0116723,-0.000695813,0.0117028,-0.00418867,-1.52695,0.0095107,0.0190813,1980,953,61.5748,-7.38948
763,71,61.4766,7.83179,-0.00277764,0.015996,0.000724189,0.0160239,-0.00280553,1.5323,0.0117301,0.0223892,1987,953,61.4765,-7.83181
770,71,61.2297,8.21393,-0.000205602,0.0206833,0.00332625,0.0212002,-0.000722468,1.41664,0.0143803,0.0259919,1994,953,61.2297,-8.21395
777,71,60.9568,8.67627,0.00375403,0.0253015,0.007114,0.0274383,0.00161721,1.279,0.0177777,0.0465761,2001,953,60.9568,-8.6763
784,71,60.6387,9.09253,0.0108227,0.0296523,0.0130611,0.0363381,0.00413682,1.09768,0.022971,0.045827,2008,953,60.6386,-9.09256
791,71,60.6995,9.57281,0,0,0,0,0,0,0,-1,2015,953,60.6993,-9.57279
798,71,60.7146,9.85284,0,0,0,0,0,0,0,-1,2022,953,60.7147,-9.85287
805,71,59.978,6.41992,0,0,0,0,0,0,0,-1,2029,953,59.9781,-6.41992
812,71,0,0,0,0,0,0,0,0,0,-1,2036,953,0,0
-700,64,0,0,0,0,0,0,0,0,0,-1,524,960,0,0
-693,64,0,0,0,0,0,0,0,0,0,-1,531,960,0,0
-686,64,-46.6781,5.83276,0,0,0,0,0,0,0,-1,538,960,-46.6781,-5.83276
-679,64,-47.3227,5.7757,0,0,0,0,0,0,0,-1,545,960,-47.3227,-5.77569
-672,64,-47.4462,5.31085,0.0231631,0.135603,-0.01169,0.136806,0.0219606,-1.46829,0.0848366,0.0489056,552,960,-47.4462,-5.31087
-665,64,-47.4876,4.88843,0.0208371,0.108559,-0.00604086,0.108973,0.0204231,-1.50236,0.0668883,0.046272,559,960,-47.4877,-4.88841
-658,64,-47.5099,4.48303,0,0,0,0,0,0,0,-1,566,960,-47.5099,-4.48305
-651,64,-47.8517,6.12677,0,0,0,0,0,0,0,-1,573,960,-47.8517,-6.12677
-644,64,-47.4898,6.18353,0.00949045,0.0514696,0.0015211,0.0515246,0.0094354,1.53462,0.0316766,0.034939,580,960,-47.4898,-6.18353
-637,64,-47.5748,5.74677,0.00632447,0.0383842,0.00234258,0.0385545,0.00615421,1.49824,0.023917,0.0184975,587,960,-47.5748,-5.74677
-630,64,-47.641,5.409,0.00362838,0.0278788,0.00238278,0.0281107,0.00339647,1.47378,0.0177172,0.0144519,594,960,-47.641,-5.40901
-623,64,-47.6827,5.0271,0.00145255,0.0197659,0.00142997,0.0198769,0.00134157,1.49334,0.0128275,0.014909,601,960,-47.6827,-5.02712
-616,64,-47.7383,4.60925,-0.000196972,0.0129441,0.000279568,0.0129501,-0.000202918,1.54953,0.0087018,0.0185178,608,960,-47.7383,-4.60923
-609,64,-47.7059,4.24689,-0.00136688,0.0082001,-0.00101736,0.00830709,-0.00147387,-1.46602,0.0060891,0.0179088,615,960,-47.7059,-4.24686
-602,64,-47.6941,3.88007,-0.00216825,0.0062022,-0.00244568,0.00686439,-0.00283044,-1.30638,0.00575656,0.0167658,622,960,-47.6941,-3.88004
-595,64,-47.6947,3.54626,-0.00302539,0.00489685,-0.00335226,0.00612496,-0.0042535,-1.21963,0.00602439,0.0220635,629,960,-47.6947,-3.54625
-588,64,-47.5906,3.19196,-0.00329184,0.00396872,-0.00426745,0.00594112,-0.00526425,-1.13785,0.00647336,0.0340743,636,960,-47.5906,-3.19195
-581,64,-47.3987,2.77771,0,0,0,0,0,0,0,-1,643,960,-47.3987,-2.77769
-574,64,-48.7857,0.805603,0,0,0,0,0,0,0,-1,650,960,-48.7857,-0.805624
-567,64,-48.7432,0.82666,-0.0029007,0.00293164,-0.00503344,0.00583265,-0.00580171,-1.04795,0.00671711,0.0245897,657,960,-48.7432,-0.826675
-560,64,-48.7683,0.799133,-0.00280945,0.00305025,-0.00468234,0.00564383,-0.00540303,-1.06496,0.00637842,0.0317572,664,960,-48.7683,-0.79915
-553,64,-48.7391,0.773315,-0.00241792,0.00324927,-0.00393651,0.00526597,-0.00443462,-1.09735,0.00560749,0.0361372,671,960,-48.7391,-0.77329
-546,64,-48.6572,0.690491,-0.00160196,0.00338132,-0.00271313,0.00457334,-0.00279398,-1.15683,0.00429467,0.0389565,678,960,-48.6573,-0.69047
-539,64,-48.6796,0.68396,-0.000292076,0.00320176,-0.000973592,0.00345475,-0.000545059,-1.31657,0.0025047,0.0414001,685,960,-48.6796,-0.683938
-532,64,-48.7042,0.666016,0.00168042,0.00278619,0.000737776,0.00315525,0.00131135,1.10695,0.00183031,0.0431139,692,960,-48.7042,-0.666
-525,64,-48.777,0.669189,0.00331045,0.00342023,0.000974765,0.00434165,0.00238903,0.813524,0.00251087,0.0426888,699,960,-48.777,-0.669205
-518,64,0,0,0,0,0,0,0,0,0,-1,706,960,0,0
-511,64,0,0,0,0,0,0,0,0,0,-1,713,960,0,0
-504,64,0,0,0,0,0,0,0,0,0,-1,720,960,0,0
-497,64,0,0,0,0,0,0,0,0,0,-1,727,960,0,0
-490,64,0,0,0,0,0,0,0,0,0,-1,734,960,0,0
-483,64,0,0,0,0,0,0,0,0,0,-1,741,960,0,0
-476,64,0,0,0,0,0,0,0,0,0,-1,748,960,0,0
-469,64,0,0,0,0,0,0,0,0,0,-1,755,960,0,0
-462,64,0,0,0,0,0,0,0,0,0,-1,762,960,0,0
-455,64,0,0,0,0,0,0,0,0,0,-1,769,960,0,0
-448,64,0,0,0,0,0,0,0,0,0,-1,776,960,0,0
-441,64,0,0,0,0,0,0,0,0,0,-1,783,960,0,0
-434,64,0,0,0,0,0,0,0,0,0,-1,790,960,0,0
-427,64,0,0,0,0,0,0,0,0,0,-1,797,960,0,0
-420,64,0,0,0,0,0,0,0,0,0,-1,804,960,0,0
-413,64,0,0,0,0,0,0,0,0,0,-1,811,960,0,0
-406,64,0,0,0,0,0,0,0,0,0,-1,818,960,0,0
-399,64,0,0,0,0,0,0,0,0,0,-1,825,960,0,0
-392,64,0,0,0,0,0,0,0,0,0,-1,832,960,0,0
-385,64,0,0,0,0,0,0,0,0,0,-1,839,960,0,0
-378,64,0,0,0,0,0,0,0,0,0,-1,846,960,0,0
-371,64,0,0,0,0,0,0,0,0,0,-1,853,960,0,0
-364,64,0,0,0,0,0,0,0,0,0,-1,860,960,0,0
-357,64,0,0,0,0,0,0,0,0,0,-1,867,960,0,0
-350,64,0,0,0,0,0,0,0,0,0,-1,874,960,0,0
-343,64,0,0,0,0,0,0,0,0,0,-1,881,960,0,0
-336,64,0,0,0,0,0,0,0,0,0,-1,888,960,0,0
-329,64,0,0,0,0,0,0,0,0,0,-1,895,960,0,0
-322,64,0,0,0,0,0,0,0,0,0,-1,902,960,0,0
-315,64,0,0,0,0,0,0,0,0,0,-1,909,960,0,0
-308,64,0,0,0,0,0,0,0,0,0,-1,916,960,0,0
-301,64,0,0,0,0,0,0,0,0,0,-1,923,960,0,0
-294,64,0,0,0,0,0,0,0,0,0,-1,930,960,0,0
-287,64,0,0,0,0,0,0,0,0,0,-1,937,960,0,0
-280,64,0,0,0,0,0,0,0,0,0,-1,944,960,0,0
-273,64,0,0,0,0,0,0,0,0,0,-1,951,960,0,0
-266,64,0,0,0,0,0,0,0,0,0,-1,958,960,0,0
-259,64,0,0,0,0,0,0,0,0,0,-1,965,960,0,0
-252,64,0,0,0,0,0,0,0,0,0,-1,972,960,0,0
-245,64,0,0,0,0,0,0,0,0,0,-1,979,960,0,0
-238,64,0,0,0,0,0,0,0,0,0,-1,986,960,0,0
-231,64,0,0,0,0,0,0,0,0,0,-1,993,960,0,0
-224,64,0,0,0,0,0,0,0,0,0,-1,1000,960,0,0
-217,64,0,0,0,0,0,0,0,0,0,-1,1007,960,0,0
-210,64,0,0,0,0,0,0,0,0,0,-1,1014,960,0,0
-203,64,0,0,0,0,0,0,0,0,0,-1,1021,960,0,0
-196,64,0,0,0,0,0,0,0,0,0,-1,1028,960,0,0
-189,64,0,0,0,0,0,0,0,0,0,-1,1035,960,0,0
-182,64,0,0,0,0,0,0,0,0,0,-1,1042,960,0,0
-175,64,0,0,0,0,0,0,0,0,0,-1,1049,960,0,0
-168,64,0,0,0,0,0,0,0,0,0,-1,1056,960,0,0
-161,64,0,0,0,0,0,0,0,0,0,-1,1063,960,0,0
-154,64,0,0,0,0,0,0,0,0,0,-1,1070,960,0,0
-147,64,0,0,0,0,0,0,0,0,0,-1,1077,960,0,0
-140,64,0,0,0,0,0,0,0,0,0,-1,1084,960,0,0
-133,64,0,0,0,0,0,0,0,0,0,-1,1091,960,0,0
-126,64,0,0,0,0,0,0,0,0,0,-1,1098,960,0,0
-119,64,0,0,0,0,0,0,0,0,0,-1,1105,960,0,0
-112,64,0,0,0,0,0,0,0,0,0,-1,1112,960,0,0
-105,64,0,0,0,0,0,0,0,0,0,-1,1119,960,0,0
-98,64,0,0,0,0,0,0,0,0,0,-1,1126,960,0,0
-91,64,0,0,0,0,0,0,0,0,0,-1,1133,960,0,0
-84,64,0,0,0,0,0,0,0,0,0,-1,1140,960,0,0
-77,64,0,0,0,0,0,0,0,0,0,-1,1147,960,0,0
-70,64,0,0,0,0,0,0,0,0,0,-1,1154,960,0,0
-63,64,0,0,0,0,0,0,0,0,0,-1,1161,960,0,0
-56,64,0,0,0,0,0,0,0,0,0,-1,1168,960,0,0
-49,64,0,0,0,0,0,0,0,0,0,-1,1175,960,0,0
-42,64,0,0,0,0,0,0,0,0,0,-1,1182,960,0,0
-35,64,0,0,0,0,0,0,0,0,0,-1,1189,960,0,0
-28,64,0,0,0,0,0,0,0,0,0,-1,1196,960,0,0
-21,64,0,0,0,0,0,0,0,0,0,-1,1203,960,0,0
-14,64,0,0,0,0,0,0,0,0,0,-1,1210,960,0,0
-7,64,0,0,0,0,0,0,0,0,0,-1,1217,960,0,0
0,64,0,0,0,0,0,0,0,0,0,-1,1224,960,0,0
7,64,0,0,0,0,0,0,0,0,0,-1,1231,960,0,0
14,64,0,0,0,0,0,0,0,0,0,-1,1238,960,0,0
21,64,0,0,0,0,0,0,0,0,0,-1,1245,960,0,0
28,64,0,0,0,0,0,0,0,0,0,-1,1252,960,0,0
35,64,0,0,0,0,0,0,0,0,0,-1,1259,960,0,0
42,64,0,0,0,0,0,0,0,0,0,-1,1266,960,0,0
49,64,0,0,0,0,0,0,0,0,0,-1,1273,960,0,0
56,64,0,0,0,0,0,0,0,0,0,-1,1280,960,0,0
63,64,0,0,0,0,0,0,0,0,0,-1,1287,960,0,0
70,64,0,0,0,0,0,0,0,0,0,-1,1294,960,0,0
77,64,0,0,0,0,0,0,0,0,0,-1,1301,960,0,0
84,64,0,0,0,0,0,0,0,0,0,-1,1308,960,0,0
91,64,0,0,0,0,0,0,0,0,0,-1,1315,960,0,0
98,64,0,0,0,0,0,0,0,0,0,-1,1322,960,0,0
105,64,0,0,0,0,0,0,0,0,0,-1,1329,960,0,0
112,64,0,0,0,0,0,0,0,0,0,-1,1336,960,0,0
119,64,0,0,0,0,0,0,0,0,0,-1,1343,960,0,0
126,64,0,0,0,0,0,0,0,0,0,-1,1350,960,0,0
133,64,0,0,0,0,0,0,0,0,0,-1,1357,960,0,0
140,64,0,0,0,0,0,0,0,0,0,-1,1364,960,0,0
147,64,0,0,0,0,0,0,0,0,0,-1,1371,960,0,0
154,64,0,0,0,0,0,0,0,0,0,-1,1378,960,0,0
161,64,0,0,0,0,0,0,0,0,0,-1,1385,960,0,0
168,64,0,0,0,0,0,0,0,0,0,-1,1392,960,0,0
175,64,0,0,0,0,0,0,0,0,0,-1,1399,960,0,0
182,64,0,0,0,0,0,0,0,0,0,-1,1406,960,0,0
189,64,0,0,0,0,0,0,0,0,0,-1,1413,960,0,0
196,64,0,0,0,0,0,0,0,0,0,-1,1420,960,0,0
203,64,0,0,0,0,0,0,0,0,0,-1,1427,960,0,0
210,64,0,0,0,0,0,0,0,0,0,-1,1434,960,0,0
217,64,0,0,0,0,0,0,0,0,0,-1,1441,960,0,0
224,64,0,0,0,0,0,0,0,0,0,-1,1448,960,0,0
231,64,0,0,0,0,0,0,0,0,0,-1,1455,960,0,0
238,64,0,0,0,0,0,0,0,0,0,-1,1462,960,0,0
245,64,0,0,0,0,0,0,0,0,0,-1,1469,960,0,0
252,64,0,0,0,0,0,0,0,0,0,-1,1476,960,0,0
259,64,0,0,0,0,0,0,0,0,0,-1,1483,960,0,0
266,64,0,0,0,0,0,0,0,0,0,-1,1490,960,0,0
273,64,0,0,0,0,0,0,0,0,0,-1,1497,960,0,0
280,64,0,0,0,0,0,0,0,0,0,-1,1504,960,0,0
287,64,0,0,0,0,0,0,0,0,0,-1,1511,960,0,0
294,64,0,0,0,0,0,0,0,0,0,-1,1518,960,0,0
301,64,0,0,0,0,0,0,0,0,0,-1,1525,960,0,0
308,64,0,0,0,0,0,0,0,0,0,-1,1532,960,0,0
315,64,0,0,0,0,0,0,0,0,0,-1,1539,960,0,0
322,64,0,0,0,0,0,0,0,0,0,-1,1546,960,0,0
329,64,0,0,0,0,0,0,0,0,0,-1,1553,960,0,0
336,64,0,0,0,0,0,0,0,0,0,-1,1560,960,0,0
343,64,0,0,0,0,0,0,0,0,0,-1,1567,960,0,0
350,64,0,0,0,0,0,0,0,0,0,-1,1574,960,0,0
357,64,0,0,0,0,0,0,0,0,0,-1,1581,960,0,0
364,64,0,0,0,0,0,0,0,0,0,-1,1588,960,0,0
371,64,0,0,0,0,0,0,0,0,0,-1,1595,960,0,0
378,64,0,0,0,0,0,0,0,0,0,-1,1602,960,0,0
385,64,0,0,0,0,0,0,0,0,0,-1,1609,960,0,0
392,64,0,0,0,0,0,0,0,0,0,-1,1616,960,0,0
399,64,0,0,0,0,0,0,0,0,0,-1,1623,960,0,0
406,64,0,0,0,0,0,0,0,0,0,-1,1630,960,0,0
413,64,0,0,0,0,0,0,0,0,0,-1,1637,960,0,0
420,64,0,0,0,0,0,0,0,0,0,-1,1644,960,0,0
427,64,0,0,0,0,0,0,0,0,0,-1,1651,960,0,0
434,64,0,0,0,0,0,0,0,0,0,-1,1658,960,0,0
441,64,0,0,0,0,0,0,0,0,0,-1,1665,960,0,0
448,64,0,0,0,0,0,0,0,0,0,-1,1672,960,0,0
455,64,0,0,0,0,0,0,0,0,0,-1,1679,960,0,0
462,64,0,0,0,0,0,0,0,0,0,-1,1686,960,0,0
469,64,0,0,0,0,0,0,0,0,0,-1,1693,960,0,0
476,64,0,0,0,0,0,0,0,0,0,-1,1700,960,0,0
483,64,0,0,0,0,0,0,0,0,0,-1,1707,960,0,0
490,64,0,0,0,0,0,0,0,0,0,-1,1714,960,0,0
497,64,0,0,0,0,0,0,0,0,0,-1,1721,960,0,0
504,64,0,0,0,0,0,0,0,0,0,-1,1728,960,0,0
511,64,0,0,0,0,0,0,0,0,0,-1,1735,960,0,0
518,64,0,0,0,0,0,0,0,0,0,-1,1742,960,0,0
525,64,0,0,0,0,0,0,0,0,0,-1,1749,960,0,0
532,64,0,0,0,0,0,0,0,0,0,-1,1756,960,0,0
539,64,0,0,0,0,0,0,0,0,0,-1,1763,960,0,0
546,64,0,0,0,0,0,0,0,0,0,-1,1770,960,0,0
553,64,0,0,0,0,0,0,0,0,0,-1,1777,960,0,0
560,64,0,0,0,0,0,0,0,0,0,-1,1784,960,0,0
567,64,0,0,0,0,0,0,0,0,0,-1,1791,960,0,0
574,64,0,0,0,0,0,0,0,0,0,-1,1798,960,0,0
581,64,0,0,0,0,0,0,0,0,0,-1,1805,960,0,0
588,64,0,0,0,0,0,0,0,0,0,-1,1812,960,0,0
595,64,0,0,0,0,0,0,0,0,0,-1,1819,960,0,0
602,64,0,0,0,0,0,0,0,0,0,-1,1826,960,0,0
609,64,0,0,0,0,0,0,0,0,0,-1,1833,960,0,0
616,64,0,0,0,0,0,0,0,0,0,-1,1840,960,0,0
623,64,0,0,0,0,0,0,0,0,0,-1,1847,960,0,0
630,64,0,0,0,0,0,0,0,0,0,-1,1854,960,0,0
637,64,0,0,0,0,0,0,0,0,0,-1,1861,960,0,0
644,64,64.2258,2.64124,0.00232713,0.00172735,-0.00599277,0.00802751,-0.00397303,-0.760398,0.0070591,0.0405913,1868,960,64.2259,-2.64126
651,64,64.3412,2.6192,0.00116445,0.00135421,-0.00481385,0.00607412,-0.00355546,-0.795251,0.00562267,0.0422279,1875,960,64.3412,-2.61921
658,64,64.436,2.52875,0.000167629,0.00132794,-0.00341928,0.00421593,-0.00272037,-0.869433,0.00403559,0.040215,1882,960,64.436,-2.52876
665,64,64.3594,2.49963,-0.000683838,0.00164956,-0.0017597,0.0025942,-0.00162847,-1.07813,0.00245912,0.0405492,1889,960,64.3593,-2.49962
672,64,64.2589,2.57013,-0.00154533,0.0020233,-6.63842e-05,0.00202454,-0.00154656,-1.5522,0.00206792,0.0418259,1896,960,64.2589,-2.57011
679,64,64.2902,2.61884,-0.00208932,0.00204748,0.00129397,0.00241889,-0.00246072,1.29129,0.00281728,0.0405362,1903,960,64.2902,-2.61883
686,64,64.3333,2.56213,-0.00221891,0.00186409,0.00204038,0.00270892,-0.00306374,1.17823,0.00333494,0.0363319,1910,960,64.3332,-2.56214
693,64,64.2932,2.45697,-0.0023134,0.00158598,0.00242561,0.00274835,-0.00347577,1.12392,0.00360166,0.0354505,1917,960,64.2932,-2.45695
700,64,64.2557,2.50781,-0.0026575,0.00153718,0.00247747,0.00268587,-0.00380618,1.13665,0.00376674,0.0341923,1924,960,64.2557,-2.50781
707,64,64.1154,3.06885,-0.00307815,0.00173894,0.00230436,0.00266373,-0.00400295,1.18915,0.00387481,0.0464076,1931,960,64.1153,-3.06887
714,64,63.9103,4.00214,0,0,0,0,0,0,0,-1,1938,960,63.9103,-4.00215
721,64,62.245,5.14258,0,0,0,0,0,0,0,-1,1945,960,62.245,-5.14257
728,64,62.0537,5.71265,-0.00402416,0.00362997,0.00095058,0.00374626,-0.00414045,1.44907,0.00455529,0.0242612,1952,960,62.0537,-5.71262
735,64,62.0127,6.24091,-0.00454661,0.00467281,0.000359773,0.00468683,-0.00456063,1.53185,0.00533919,0.0320258,1959,960,62.0127,-6.24091
742,64,62.1647,6.55298,-0.00506069,0.00634919,-0.00037662,0.00636161,-0.00507311,-1.53784,0.0066158,0.0273754,1966,960,62.1646,-6.55299
749,64,62.1387,6.97217,-0.00517579,0.00875733,-0.00093565,0.00881988,-0.00523834,-1.50404,0.00820385,0.0171456,1973,960,62.1386,-6.97215
756,64,62.0728,7.35944,-0.00478589,0.0121769,-0.000635435,0.0122007,-0.00480966,-1.53341,0.0101252,0.0172794,1980,960,62.0727,-7.35941
763,64,62.033,7.7738,-0.00374526,0.0166467,0.000569066,0.0166626,-0.00376113,1.54292,0.0125514,0.019432,1987,960,62.033,-7.77381
770,64,61.77,8.10547,-0.00139874,0.0216813,0.00306459,0.0220813,-0.00179873,1.44101,0.0153556,0.0197878,1994,960,61.7701,-8.10547
777,64,61.4651,8.52631,0.00243168,0.0266871,0.00669925,0.0284144,0.000704381,1.31846,0.0187125,0.0360655,2001,960,61.4652,-8.52634
784,64,61.2949,8.82477,0,0,0,0,0,0,0,-1,2008,960,61.295,-8.82476
791,64,60.7822,9.70154,0,0,0,0,0,0,0,-1,2015,960,60.7823,-9.70152
798,64,61.4104,9.7348,0,0,0,0,0,0,0,-1,2022,960,61.4103,-9.7348
805,64,63.9138,6.69446,0,0,0,0,0,0,0,-1,2029,960,63.9138,-6.69444
812,64,0,0,0,0,0,0,0,0,0,-1,2036,960,0,0
-700,57,0,0,0,0,0,0,0,0,0,-1,524,967,0,0
-693,57,0,0,0,0,0,0,0,0,0,-1,531,967,0,0
-686,57,-60.2296,-1.30011,0,0,0,0,0,0,0,-1,538,967,-60.2296,1.30011
-679,57,-44.109,9.83527,0,0,0,0,0,0,0,-1,545,967,-44.109,-9.83524
-672,57,-47.5783,3.90417,0,0,0,0,0,0,0,-1,552,967,-47.5783,-3.9042
-665,57,-47.6313,3.4704,0,0,0,0,0,0,0,-1,559,967,-47.6313,-3.4704
-658,57,-47.7914,2.95721,0,0,0,0,0,0,0,-1,566,967,-47.7914,-2.95719
-651,57,-48.5045,5.86572,0.00921423,0.0692316,-0.000640385,0.0692384,0.0092074,-1.56013,0.0434165,0.0479065,573,967,-48.5045,-5.86573
-644,57,-48.0786,5.91418,0.00615946,0.052377,0.00125703,0.0524112,0.0061253,1.54362,0.0330885,0.0370012,580,967,-48.0786,-5.91419
-637,57,-47.9984,5.56793,0.00364703,0.0385785,0.00229734,0.0387289,0.00349659,1.5054,0.0247363,0.0210256,587,967,-47.9984,-5.56792
-630,57,-48.0743,5.27374,0.00167591,0.0278252,0.00224862,0.0280172,0.00148396,1.48564,0.0182036,0.0140801,594,967,-48.0743,-5.27373
-623,57,-48.1121,4.9729,0.000167571,0.0196596,0.00112638,0.0197244,0.000102698,1.51326,0.0131155,0.0131116,601,967,-48.1121,-4.97291
-616,57,-48.1389,4.63147,-0.000884202,0.0131063,-0.000239629,0.0131104,-0.000888305,-1.55367,0.00905088,0.0147662,608,967,-48.1389,-4.63148
-609,57,-48.1504,4.2666,-0.00154976,0.00870577,-0.00173406,0.00899104,-0.00183503,-1.40775,0.00669012,0.0149104,615,967,-48.1504,-4.26659
-602,57,-48.1219,3.91498,-0.00200444,0.00681362,-0.00330783,0.00791651,-0.00310733,-1.24897,0.0065634,0.0113124,622,967,-48.1219,-3.91498
-595,57,-48.1039,3.58276,-0.00256262,0.00551804,-0.00431387,0.00738819,-0.00443276,-1.16173,0.00689556,0.015734,629,967,-48.1039,-3.58277
-588,57,-47.9941,3.33881,-0.00257068,0.00456336,-0.00526618,0.00735686,-0.00536419,-1.08308,0.00737447,0.0264719,636,967,-47.9941,-3.33878
-581,57,-48.206,2.18872,-0.00222867,0.00382478,-0.0057892,0.00733073,-0.00573463,-1.02627,0.00756203,0.0422679,643,967,-48.206,-2.18871
-574,57,-48.6804,0.936218,0,0,0,0,0,0,0,-1,650,967,-48.6805,-0.936224
-567,57,-48.7235,0.827942,-0.00195637,0.00329707,-0.00588833,0.00711799,-0.0057773,-0.995197,0.0074585,0.0312009,657,967,-48.7235,-0.827954
-560,57,-48.6893,0.744629,-0.00181905,0.00331443,-0.00533937,0.00667196,-0.00517658,-1.00945,0.0068589,0.0385027,664,967,-48.6893,-0.744638
-553,57,-48.6532,0.662476,-0.00141155,0.00332641,-0.00430913,0.00587482,-0.00395995,-1.03673,0.00571387,0.0371076,671,967,-48.6532,-0.662457
-546,57,-48.5771,0.631958,-0.000620595,0.00315064,-0.0027328,0.00458523,-0.00205518,-1.08739,0.0039255,0.0386025,678,967,-48.5771,-0.631985
-539,57,-48.6525,0.645813,0.000607416,0.00250315,-0.000633612,0.00269542,0.000415144,-1.27617,0.00167579,0.0413647,685,967,-48.6525,-0.645817
-532,57,-48.8102,0.617676,0.0025418,0.00162054,0.00115907,0.00332841,0.000833928,0.596261,0.00199979,0.0407492,692,967,-48.8102,-0.617692
-525,57,-48.9276,0.748718,0.00420487,0.00196589,0.00100271,0.00458827,0.00158249,0.365214,0.00269119,0.0405636,699,967,-48.9276,-0.748746
-518,57,0,0,0,0,0,0,0,0,0,-1,706,967,0,0
-511,57,0,0,0,0,0,0,0,0,0,-1,713,967,0,0
-504,57,0,0,0,0,0,0,0,0,0,-1,720,967,0,0
-497,57,0,0,0,0,0,0,0,0,0,-1,727,967,0,0
-490,57,0,0,0,0,0,0,0,0,0,-1,734,967,0,0
-483,57,0,0,0,0,0,0,0,0,0,-1,741,967,0,0
-476,57,0,0,0,0,0,0,0,0,0,-1,748,967,0,0
-469,57,0,0,0,0,0,0,0,0,0,-1,755,967,0,0
-462,57,0,0,0,0,0,0,0,0,0,-1,762,967,0,0
-455,57,0,0,0,0,0,0,0,0,0,-1,769,967,0,0
-448,57,0,0,0,0,0,0,0,0,0,-1,776,967,0,0
-441,57,0,0,0,0,0,0,0,0,0,-1,783,967,0,0
-434,57,0,0,0,0,0,0,0,0,0,-1,790,967,0,0
-427,57,0,0,0,0,0,0,0,0,0,-1,797,967,0,0
-420,57,0,0,0,0,0,0,0,0,0,-1,804,967,0,0
-413,57,0,0,0,0,0,0,0,0,0,-1,811,967,0,0
-406,57,0,0,0,0,0,0,0,0,0,-1,818,967,0,0
-399,57,0,0,0,0,0,0,0,0,0,-1,825,967,0,0
-392,57,0,0,0,0,0,0,0,0,0,-1,832,967,0,0
-385,57,0,0,0,0,0,0,0,0,0,-1,839,967,0,0
-378,57,0,0,0,0,0,0,0,0,0,-1,846,967,0,0
-371,57,0,0,0,0,0,0,0,0,0,-1,853,967,0,0
-364,57,0,0,0,0,0,0,0,0,0,-1,860,967,0,0
-357,57,0,0,0,0,0,0,0,0,0,-1,867,967,0,0
-350,57,0,0,0,0,0,0,0,0,0,-1,874,967,0,0
-343,57,0,0,0,0,0,0,0,0,0,-1,881,967,0,0
-336,57,0,0,0,0,0,0,0,0,0,-1,888,967,0,0
-329,57,0,0,0,0,0,0,0,0,0,-1,895,967,0,0
-322,57,0,0,0,0,0,0,0,0,0,-1,902,967,0,0
-315,57,0,0,0,0,0,0,0,0,0,-1,909,967,0,0
-308,57,0,0,0,0,0,0,0,0,0,-1,916,967,0,0
-301,57,0,0,0,0,0,0,0,0,0,-1,923,967,0,0
-294,57,0,0,0,0,0,0,0,0,0,-1,930,967,0,0
-287,57,0,0,0,0,0,0,0,0,0,-1,937,967,0,0
-280,57,0,0,0,0,0,0,0,0,0,-1,944,967,0,0
-273,57,0,0,0,0,0,0,0,0,0,-1,951,967,0,0
-266,57,0,0,0,0,0,0,0,0,0,-1,958,967,0,0
-259,57,0,0,0,0,0,0,0,0,0,-1,965,967,0,0
-252,57,0,0,0,0,0,0,0,0,0,-1,972,967,0,0
-245,57,0,0,0,0,0,0,0,0,0,-1,979,967,0,0
-238,57,0,0,0,0,0,0,0,0,0,-1,986,967,0,0
-231,57,0,0,0,0,0,0,0,0,0,-1,993,967,0,0
-224,57,0,0,0,0,0,0,0,0,0,-1,1000,967,0,0
-217,57,0,0,0,0,0,0,0,0,0,-1,1007,967,0,0
-210,57,0,0,0,0,0,0,0,0,0,-1,1014,967,0,0
-203,57,0,0,0,0,0,0,0,0,0,-1,1021,967,0,0
-196,57,0,0,0,0,0,0,0,0,0,-1,1028,967,0,0
-189,57,0,0,0,0,0,0,0,0,0,-1,1035,967,0,0
-182,57,0,0,0,0,0,0,0,0,0,-1,1042,967,0,0
-175,57,0,0,0,0,0,0,0,0,0,-1,1049,967,0,0
-168,57,0,0,0,0,0,0,0,0,0,-1,1056,967,0,0
-161,57,0,0,0,0,0,0,0,0,0,-1,1063,967,0,0
-154,57,0,0,0,0,0,0,0,0,0,-1,1070,967,0,0
-147,57,0,0,0,0,0,0,0,0,0,-1,1077,967,0,0
-140,57,0,0,0,0,0,0,0,0,0,-1,1084,967,0,0
-133,57,0,0,0,0,0,0,0,0,0,-1,1091,967,0,0
-126,57,0,0,0,0,0,0,0,0,0,-1,1098,967,0,0
-119,57,0,0,0,0,0,0,0,0,0,-1,1105,967,0,0
-112,57,0,0,0,0,0,0,0,0,0,-1,1112,967,0,0
-105,57,0,0,0,0,0,0,0,0,0,-1,1119,967,0,0
-98,57,0,0,0,0,0,0,0,0,0,-1,1126,967,0,0
-91,57,0,0,0,0,0,0,0,0,0,-1,1133,967,0,0
-84,57,0,0,0,0,0,0,0,0,0,-1,1140,967,0,0
-77,57,0,0,0,0,0,0,0,0,0,-1,1147,967,0,0
-70,57,0,0,0,0,0,0,0,0,0,-1,1154,967,0,0
-63,57,0,0,0,0,0,0,0,0,0,-1,1161,967,0,0
-56,57,0,0,0,0,0,0,0,0,0,-1,1168,967,0,0
-49,57,0,0,0,0,0,0,0,0,0,-1,1175,967,0,0
-42,57,0,0,0,0,0,0,0,0,0,-1,1182,967,0,0
-35,57,0,0,0,0,0,0,0,0,0,-1,1189,967,0,0
-28,57,0,0,0,0,0,0,0,0,0,-1,1196,967,0,0
-21,57,0,0,0,0,0,0,0,0,0,-1,1203,967,0,0
-14,57,0,0,0,0,0,0,0,0,0,-1,1210,967,0,0
-7,57,0,0,0,0,0,0,0,0,0,-1,1217,967,0,0
0,57,0,0,0,0,0,0,0,0,0,-1,1224,967,0,0
7,57,0,0,0,0,0,0,0,0,0,-1,1231,967,0,0
14,57,0,0,0,0,0,0,0,0,0,-1,1238,967,0,0
21,57,0,0,0,0,0,0,0,0,0,-1,1245,967,0,0
28,57,0,0,0,0,0,0,0,0,0,-1,1252,967,0,0
35,57,0,0,0,0,0,0,0,0,0,-1,1259,967,0,0
42,57,0,0,0,0,0,0,0,0,0,-1,1266,967,0,0
49,57,0,0,0,0,0,0,0,0,0,-1,1273,967,0,0
56,57,0,0,0,0,0,0,0,0,0,-1,1280,967,0,0
63,57,0,0,0,0,0,0,0,0,0,-1,1287,967,0,0
70,57,0,0,0,0,0,0,0,0,0,-1,1294,967,0,0
77,57,0,0,0,0,0,0,0,0,0,-1,1301,967,0,0
84,57,0,0,0,0,0,0,0,0,0,-1,1308,967,0,0
91,57,0,0,0,0,0,0,0,0,0,-1,1315,967,0,0
98,57,0,0,0,0,0,0,0,0,0,-1,1322,967,0,0
105,57,0,0,0,0,0,0,0,0,0,-1,1329,967,0,0
112,57,0,0,0,0,0,0,0,0,0,-1,1336,967,0,0
119,57,0,0,0,0,0,0,0,0,0,-1,1343,967,0,0
126,57,0,0,0,0,0,0,0,0,0,-1,1350,967,0,0
133,57,0,0,0,0,0,0,0,0,0,-1,1357,967,0,0
140,57,0,0,0,0,0,0,0,0,0,-1,1364,967,0,0
147,57,0,0,0,0,0,0,0,0,0,-1,1371,967,0,0
154,57,0,0,0,0,0,0,0,0,0,-1,1378,967,0,0
161,57,0,0,0,0,0,0,0,0,0,-1,1385,967,0,0
168,57,0,0,0,0,0,0,0,0,0,-1,1392,967,0,0
175,57,0,0,0,0,0,0,0,0,0,-1,1399,967,0,0
182,57,0,0,0,0,0,0,0,0,0,-1,1406,967,0,0
189,57,0,0,0,0,0,0,0,0,0,-1,1413,967,0,0
196,57,0,0,0,0,0,0,0,0,0,-1,1420,967,0,0
203,57,0,0,0,0,0,0,0,0,0,-1,1427,967,0,0
210,57,0,0,0,0,0,0,0,0,0,-1,1434,967,0,0
217,57,0,0,0,0,0,0,0,0,0,-1,1441,967,0,0
224,57,0,0,0,0,0,0,0,0,0,-1,1448,967,0,0
231,57,0,0,0,0,0,0,0,0,0,-1,1455,967,0,0
238,57,0,0,0,0,0,0,0,0,0,-1,1462,967,0,0
245,57,0,0,0,0,0,0,0,0,0,-1,1469,967,0,0
252,57,0,0,0,0,0,0,0,0,0,-1,1476,967,0,0
259,57,0,0,0,0,0,0,0,0,0,-1,1483,967,0,0
266,57,0,0,0,0,0,0,0,0,0,-1,1490,967,0,0
273,57,0,0,0,0,0,0,0,0,0,-1,1497,967,0,0
280,57,0,0,0,0,0,0,0,0,0,-1,1504,967,0,0
287,57,0,0,0,0,0,0,0,0,0,-1,1511,967,0,0
294,57,0,0,0,0,0,0,0,0,0,-1,1518,967,0,0
301,57,0,0,0,0,0,0,0,0,0,-1,1525,967,0,0
308,57,0,0,0,0,0,0,0,0,0,-1,1532,967,0,0
315,57,0,0,0,0,0,0,0,0,0,-1,1539,967,0,0
322,57,0,0,0,0,0,0,0,0,0,-1,1546,967,0,0
329,57,0,0,0,0,0,0,0,0,0,-1,1553,967,0,0
336,57,0,0,0,0,0,0,0,0,0,-1,1560,967,0,0
343,57,0,0,0,0,0,0,0,0,0,-1,1567,967,0,0
350,57,0,0,0,0,0,0,0,0,0,-1,1574,967,0,0
357,57,0,0,0,0,0,0,0,0,0,-1,1581,967,0,0
364,57,0,0,0,0,0,0,0,0,0,-1,1588,967,0,0
371,57,0,0,0,0,0,0,0,0,0,-1,1595,967,0,0
378,57,0,0,0,0,0,0,0,0,0,-1,1602,967,0,0
385,57,0,0,0,0,0,0,0,0,0,-1,1609,967,0,0
392,57,0,0,0,0,0,0,0,0,0,-1,1616,967,0,0
399,57,0,0,0,0,0,0,0,0,0,-1,1623,967,0,0
406,57,0,0,0,0,0,0,0,0,0,-1,1630,967,0,0
413,57,0,0,0,0,0,0,0,0,0,-1,1637,967,0,0
420,57,0,0,0,0,0,0,0,0,0,-1,1644,967,0,0
427,57,0,0,0,0,0,0,0,0,0,-1,1651,967,0,0
434,57,0,0,0,0,0,0,0,0,0,-1,1658,967,0,0
441,57,0,0,0,0,0,0,0,0,0,-1,1665,967,0,0
448,57,0,0,0,0,0,0,0,0,0,-1,1672,967,0,0
455,57,0,0,0,0,0,0,0,0,0,-1,1679,967,0,0
462,57,0,0,0,0,0,0,0,0,0,-1,1686,967,0,0
469,57,0,0,0,0,0,0,0,0,0,-1,1693,967,0,0
476,57,0,0,0,0,0,0,0,0,0,-1,1700,967,0,0
483,57,0,0,0,0,0,0,0,0,0,-1,1707,967,0,0
490,57,0,0,0,0,0,0,0,0,0,-1,1714,967,0,0
497,57,0,0,0,0,0,0,0,0,0,-1,1721,967,0,0
504,57,0,0,0,0,0,0,0,0,0,-1,1728,967,0,0
511,57,0,0,0,0,0,0,0,0,0,-1,1735,967,0,0
518,57,0,0,0,0,0,0,0,0,0,-1,1742,967,0,0
525,57,0,0,0,0,0,0,0,0,0,-1,1749,967,0,0
532,57,0,0,0,0,0,0,0,0,0,-1,1756,967,0,0
539,57,0,0,0,0,0,0,0,0,0,-1,1763,967,0,0
546,57,0,0,0,0,0,0,0,0,0,-1,1770,967,0,0
553,57,0,0,0,0,0,0,0,0,0,-1,1777,967,0,0
560,57,0,0,0,0,0,0,0,0,0,-1,1784,967,0,0
567,57,0,0,0,0,0,0,0,0,0,-1,1791,967,0,0
574,57,0,0,0,0,0,0,0,0,0,-1,1798,967,0,0
581,57,0,0,0,0,0,0,0,0,0,-1,1805,967,0,0
588,57,0,0,0,0,0,0,0,0,0,-1,1812,967,0,0
595,57,0,0,0,0,0,0,0,0,0,-1,1819,967,0,0
602,57,0,0,0,0,0,0,0,0,0,-1,1826,967,0,0
609,57,0,0,0,0,0,0,0,0,0,-1,1833,967,0,0
616,57,0,0,0,0,0,0,0,0,0,-1,1840,967,0,0
623,57,0,0,0,0,0,0,0,0,0,-1,1847,967,0,0
630,57,0,0,0,0,0,0,0,0,0,-1,1854,967,0,0
637,57,0,0,0,0,0,0,0,0,0,-1,1861,967,0,0
644,57,64.3539,2.71149,0.00285292,0.00241864,-0.00538406,0.00802422,-0.00275266,-0.765244,0.0064654,0.0403766,1868,967,64.3539,-2.71146
651,57,64.3809,2.60455,0.00161662,0.00169691,-0.00434142,0.00599837,-0.00268484,-0.790021,0.00513349,0.0383626,1875,967,64.3809,-2.60457
658,57,64.4368,2.48236,0.00055448,0.00138532,-0.00309537,0.00409302,-0.00215322,-0.852103,0.00366378,0.0382032,1882,967,64.4367,-2.48235
665,57,64.4167,2.45789,-0.000348777,0.00151642,-0.00157528,0.00241447,-0.00124682,-1.05266,0.00214938,0.0421335,1889,967,64.4168,-2.45791
672,57,64.3784,2.41174,-0.00125244,0.00181586,3.0931e-05,0.00181617,-0.00125275,1.56072,0.00178177,0.0434341,1896,967,64.3784,-2.41176
679,57,64.3245,2.4942,-0.00183184,0.00185082,0.0013879,0.0023153,-0.00229632,1.24785,0.00266253,0.0419363,1903,967,64.3244,-2.49421
686,57,64.2216,2.56934,-0.00197478,0.00169058,0.00220978,0.00272876,-0.00301296,1.13159,0.00331634,0.0388849,1910,967,64.2215,-2.56931
693,57,64.2048,2.41699,-0.00205926,0.00140432,0.00265767,0.00284465,-0.00349959,1.07415,0.00366935,0.0328036,1917,967,64.2049,-2.41697
700,57,64.2429,2.50079,-0.00236181,0.0013423,0.00271858,0.00277974,-0.00379926,1.08442,0.00381356,0.0264313,1924,967,64.2429,-2.50079
707,57,64.1661,3.02484,-0.00275443,0.00158308,0.00253813,0.00275283,-0.00392418,1.13894,0.0038747,0.0490942,1931,967,64.1661,-3.02485
714,57,64.0481,3.67139,0,0,0,0,0,0,0,-1,1938,967,64.0481,-3.6714
721,57,62.7136,5.37592,0,0,0,0,0,0,0,-1,1945,967,62.7137,-5.37592
728,57,62.5505,5.8468,-0.00408752,0.00377683,0.00118191,0.00395062,-0.0042613,1.4248,0.00474229,0.024512,1952,967,62.5505,-5.84677
735,57,62.5773,6.25684,-0.00465336,0.00492498,0.000585658,0.00496066,-0.00468904,1.50995,0.00557199,0.0313185,1959,967,62.5773,-6.25687
742,57,62.6451,6.50513,-0.00528178,0.00672649,-0.000136343,0.00672804,-0.00528333,-1.55944,0.00695147,0.0229808,1966,967,62.6451,-6.50512
749,57,62.5707,6.94849,-0.00557547,0.00922839,-0.000719922,0.00926331,-0.0056104,-1.52232,0.00867324,0.0159345,1973,967,62.5707,-6.94847
756,57,62.5028,7.32574,-0.00543552,0.012687,-0.000519674,0.0127019,-0.00545041,-1.54215,0.0107554,0.0135619,1980,967,62.5028,-7.32573
763,57,62.4014,7.67371,-0.0046919,0.0172472,0.000471449,0.0172574,-0.00470203,1.54932,0.0133512,0.0142695,1987,967,62.4015,-7.67371
770,57,62.2622,7.9718,-0.00252985,0.0225778,0.00283108,0.022893,-0.00284511,1.45989,0.0162934,0.0127239,1994,967,62.2623,-7.97181
777,57,62.1296,8.31354,0.00121926,0.0279814,0.00634171,0.0294081,-0.000207447,1.34951,0.0196749,0.0261451,2001,967,62.1297,-8.31354
784,57,61.9048,8.62256,0.00781376,0.0332788,0.0116787,0.0378237,0.00326885,1.19967,0.0241999,0.0455979,2008,967,61.9047,-8.62258
791,57,61.7671,8.92334,0,0,0,0,0,0,0,-1,2015,967,61.767,-8.92334
798,57,64.0627,9.03333,0,0,0,0,0,0,0,-1,2022,967,64.0628,-9.03335
805,57,64.7861,9.49487,0,0,0,0,0,0,0,-1,2029,967,64.7862,-9.49486
812,57,0,0,0,0,0,0,0,0,0,-1,2036,967,0,0
-700,50,0,0,0,0,0,0,0,0,0,-1,524,974,0,0
-693,50,-59.0121,-1.90338,0,0,0,0,0,0,0,-1,531,974,-59.0121,1.90337
-686,50,-59.6193,-1.53125,0,0,0,0,0,0,0,-1,538,974,-59.6193,1.53124
-679,50,-60.1252,-1.28839,0,0,0,0,0,0,0,-1,545,974,-60.1252,1.28841
-672,50,-46.9296,3.26965,0,0,0,0,0,0,0,-1,552,974,-46.9296,-3.26964
-665,50,-47.6056,2.08875,0,0,0,0,0,0,0,-1,559,974,-47.6056,-2.08877
-658,50,-48.6071,5.73944,0,0,0,0,0,0,0,-1,566,974,-48.6071,-5.73945
-651,50,-48.4637,5.65015,0.00497048,0.0675241,0.000164787,0.0675245,0.00497004,1.56816,0.0434545,0.0460227,573,974,-48.4637,-5.65013
-644,50,-48.1995,5.57849,0.00271424,0.0508693,0.00190635,0.0509446,0.00263889,1.53129,0.0331185,0.0336729,580,974,-48.1995,-5.57851
-637,50,-48.3735,5.37128,0.00091597,0.0372103,0.00287333,0.0374364,0.000689903,1.49228,0.0247308,0.0196282,587,974,-48.3735,-5.37129
-630,50,-48.4669,5.13293,-0.000297147,0.0267478,0.00257217,0.0269902,-0.000539606,1.47681,0.018176,0.0116352,594,974,-48.4669,-5.13292
-623,50,-48.4916,4.89911,-0.00109299,0.0189847,0.00112608,0.0190477,-0.00115595,1.51494,0.0131008,0.0120969,601,974,-48.4916,-4.89912
-616,50,-48.5116,4.62714,-0.00155736,0.0129205,-0.00050638,0.0129382,-0.00157505,-1.53588,0.00919555,0.0124824,608,974,-48.5116,-4.62715
-609,50,-48.5219,4.26508,-0.00175977,0.00892227,-0.0022004,0.00935777,-0.00219527,-1.3754,0.00708457,0.011679,615,974,-48.5218,-4.2651
-602,50,-48.5149,3.9386,-0.00188013,0.00715529,-0.00389823,0.00860464,-0.00332949,-1.21484,0.00711101,0.0119906,622,974,-48.5149,-3.93858
-595,50,-48.5177,3.64905,-0.00214999,0.00588189,-0.00498881,0.00827032,-0.00453843,-1.12429,0.00749903,0.0144129,629,974,-48.5177,-3.64903
-588,50,-48.5208,3.12164,-0.00188716,0.00489349,-0.00595102,0.00835217,-0.00534585,-1.04432,0.00797179,0.0267725,636,974,-48.5208,-3.12165
-581,50,-48.6998,1.70404,-0.00140152,0.00409233,-0.00644784,0.00835399,-0.00566317,-0.986766,0.00814237,0.0327814,643,974,-48.6998,-1.70405
-574,50,-48.8198,0.350769,0,0,0,0,0,0,0,-1,650,974,-48.8198,-0.350767
-567,50,-48.7268,0.705566,-0.00104658,0.00340237,-0.00645654,0.00800689,-0.00565111,-0.951295,0.00792445,0.0341738,657,974,-48.7268,-0.705586
-560,50,-48.6639,0.69873,-0.000871315,0.00328898,-0.00572429,0.00729936,-0.00488169,-0.959675,0.00707875,0.0420572,664,974,-48.6639,-0.698752
-553,50,-48.6801,0.777466,-0.000485199,0.00309266,-0.00443472,0.00608567,-0.00347821,-0.977112,0.0055897,0.0401132,671,974,-48.6801,-0.777462
-546,50,-48.6748,0.932617,0.000217355,0.00257119,-0.00252492,0.00418002,-0.00139147,-1.00349,0.00334831,0.0393781,678,974,-48.6748,-0.932637
-539,50,-48.5254,1.04004,0,0,0,0,0,0,0,-1,685,974,-48.5254,-1.04002
-532,50,-48.786,0.638916,0.00302985,3.94639e-05,0.00182833,0.00389652,-0.000827208,0.442651,0.00291284,0.0412145,692,974,-48.786,-0.638898
-525,50,-48.8082,0.757935,0.00450302,-1.66814e-05,0.00144377,0.00492484,-0.00043851,0.284259,0.00343873,0.0409409,699,974,-48.8082,-0.757957
-518,50,0,0,0,0,0,0,0,0,0,-1,706,974,0,0
-511,50,0,0,0,0,0,0,0,0,0,-1,713,974,0,0
-504,50,0,0,0,0,0,0,0,0,0,-1,720,974,0,0
-497,50,0,0,0,0,0,0,0,0,0,-1,727,974,0,0
-490,50,0,0,0,0,0,0,0,0,0,-1,734,974,0,0
-483,50,0,0,0,0,0,0,0,0,0,-1,741,974,0,0
-476,50,0,0,0,0,0,0,0,0,0,-1,748,974,0,0
-469,50,0,0,0,0,0,0,0,0,0,-1,755,974,0,0
-462,50,0,0,0,0,0,0,0,0,0,-1,762,974,0,0
-455,50,0,0,0,0,0,0,0,0,0,-1,769,974,0,0
-448,50,0,0,0,0,0,0,0,0,0,-1,776,974,0,0
-441,50,0,0,0,0,0,0,0,0,0,-1,783,974,0,0
-434,50,0,0,0,0,0,0,0,0,0,-1,790,974,0,0
-427,50,0,0,0,0,0,0,0,0,0,-1,797,974,0,0
-420,50,0,0,0,0,0,0,0,0,0,-1,804,974,0,0
-413,50,0,0,0,0,0,0,0,0,0,-1,811,974,0,0
-406,50,0,0,0,0,0,0,0,0,0,-1,818,974,0,0
-399,50,0,0,0,0,0,0,0,0,0,-1,825,974,0,0
-392,50,0,0,0,0,0,0,0,0,0,-1,832,974,0,0
-385,50,0,0,0,0,0,0,0,0,0,-1,839,974,0,0
-378,50,0,0,0,0,0,0,0,0,0,-1,846,974,0,0
-371,50,0,0,0,0,0,0,0,0,0,-1,853,974,0,0
-364,50,0,0,0,0,0,0,0,0,0,-1,860,974,0,0
-357,50,0,0,0,0,0,0,0,0,0,-1,867,974,0,0
-350,50,0,0,0,0,0,0,0,0,0,-1,874,974,0,0
-343,50,0,0,0,0,0,0,0,0,0,-1,881,974,0,0
-336,50,0,0,0,0,0,0,0,0,0,-1,888,974,0,0
-329,50,0,0,0,0,0,0,0,0,0,-1,895,974,0,0
-322,50,0,0,0,0,0,0,0,0,0,-1,902,974,0,0
-315,50,0,0,0,0,0,0,0,0,0,-1,909,974,0,0
-308,50,0,0,0,0,0,0,0,0,0,-1,916,974,0,0
-301,50,0,0,0,0,0,0,0,0,0,-1,923,974,0,0
-294,50,0,0,0,0,0,0,0,0,0,-1,930,974,0,0
-287,50,0,0,0,0,0,0,0,0,0,-1,937,974,0,0
-280,50,0,0,0,0,0,0,0,0,0,-1,944,974,0,0
-273,50,0,0,0,0,0,0,0,0,0,-1,951,974,0,0
-266,50,0,0,0,0,0,0,0,0,0,-1,958,974,0,0
-259,50,0,0,0,0,0,0,0,0,0,-1,965,974,0,0
-252,50,0,0,0,0,0,0,0,0,0,-1,972,974,0,0
-245,50,0,0,0,0,0,0,0,0,0,-1,979,974,0,0
-238,50,0,0,0,0,0,0,0,0,0,-1,986,974,0,0
-231,50,0,0,0,0,0,0,0,0,0,-1,993,974,0,0
-224,50,0,0,0,0,0,0,0,0,0,-1,1000,974,0,0
-217,50,0,0,0,0,0,0,0,0,0,-1,1007,974,0,0
-210,50,0,0,0,0,0,0,0,0,0,-1,1014,974,0,0
-203,50,0,0,0,0,0,0,0,0,0,-1,1021,974,0,0
-196,50,0,0,0,0,0,0,0,0,0,-1,1028,974,0,0
-189,50,0,0,0,0,0,0,0,0,0,-1,1035,974,0,0
-182,50,0,0,0,0,0,0,0,0,0,-1,1042,974,0,0
-175,50,0,0,0,0,0,0,0,0,0,-1,1049,974,0,0
-168,50,0,0,0,0,0,0,0,0,0,-1,1056,974,0,0
-161,50,0,0,0,0,0,0,0,0,0,-1,1063,974,0,0
-154,50,0,0,0,0,0,0,0,0,0,-1,1070,974,0,0
-147,50,0,0,0,0,0,0,0,0,0,-1,1077,974,0,0
-140,50,0,0,0,0,0,0,0,0,0,-1,1084,974,0,0
-133,50,0,0,0,0,0,0,0,0,0,-1,1091,974,0,0
-126,50,0,0,0,0,0,0,0,0,0,-1,1098,974,0,0
-119,50,0,0,0,0,0,0,0,0,0,-1,1105,974,0,0
-112,50,0,0,0,0,0,0,0,0,0,-1,1112,974,0,0
-105,50,0,0,0,0,0,0,0,0,0,-1,1119,974,0,0
-98,50,0,0,0,0,0,0,0,0,0,-1,1126,974,0,0
-91,50,0,0,0,0,0,0,0,0,0,-1,1133,974,0,0
-84,50,0,0,0,0,0,0,0,0,0,-1,1140,974,0,0
-77,50,0,0,0,0,0,0,0,0,0,-1,1147,974,0,0
-70,50,0,0,0,0,0,0,0,0,0,-1,1154,974,0,0
-63,50,0,0,0,0,0,0,0,0,0,-1,1161,974,0,0
-56,50,0,0,0,0,0,0,0,0,0,-1,1168,974,0,0
-49,50,0,0,0,0,0,0,0,0,0,-1,1175,974,0,0
-42,50,0,0,0,0,0,0,0,0,0,-1,1182,974,0,0
-35,50,0,0,0,0,0,0,0,0,0,-1,1189,974,0,0
-28,50,0,0,0,0,0,0,0,0,0,-1,1196,974,0,0
-21,50,0,0,0,0,0,0,0,0,0,-1,1203,974,0,0
-14,50,0,0,0,0,0,0,0,0,0,-1,1210,974,0,0
-7,50,0,0,0,0,0,0,0,0,0,-1,1217,974,0,0
0,50,0,0,0,0,0,0,0,0,0,-1,1224,974,0,0
7,50,0,0,0,0,0,0,0,0,0,-1,1231,974,0,0
14,50,0,0,0,0,0,0,0,0,0,-1,1238,974,0,0
21,50,0,0,0,0,0,0,0,0,0,-1,1245,974,0,0
28,50,0,0,0,0,0,0,0,0,0,-1,1252,974,0,0
35,50,0,0,0,0,0,0,0,0,0,-1,1259,974,0,0
42,50,0,0,0,0,0,0,0,0,0,-1,1266,974,0,0
49,50,0,0,0,0,0,0,0,0,0,-1,1273,974,0,0
56,50,0,0,0,0,0,0,0,0,0,-1,1280,974,0,0
63,50,0,0,0,0,0,0,0,0,0,-1,1287,974,0,0
70,50,0,0,0,0,0,0,0,0,0,-1,1294,974,0,0
77,50,0,0,0,0,0,0,0,0,0,-1,1301,974,0,0
84,50,0,0,0,0,0,0,0,0,0,-1,1308,974,0,0
91,50,0,0,0,0,0,0,0,0,0,-1,1315,974,0,0
98,50,0,0,0,0,0,0,0,0,0,-1,1322,974,0,0
105,50,0,0,0,0,0,0,0,0,0,-1,1329,974,0,0
112,50,0,0,0,0,0,0,0,0,0,-1,1336,974,0,0
119,50,0,0,0,0,0,0,0,0,0,-1,1343,974,0,0
126,50,0,0,0,0,0,0,0,0,0,-1,1350,974,0,0
133,50,0,0,0,0,0,0,0,0,0,-1,1357,974,0,0
140,50,0,0,0,0,0,0,0,0,0,-1,1364,974,0,0
147,50,0,0,0,0,0,0,0,0,0,-1,1371,974,0,0
154,50,0,0,0,0,0,0,0,0,0,-1,1378,974,0,0
161,50,0,0,0,0,0,0,0,0,0,-1,1385,974,0,0
168,50,0,0,0,0,0,0,0,0,0,-1,1392,974,0,0
175,50,0,0,0,0,0,0,0,0,0,-1,1399,974,0,0
182,50,0,0,0,0,0,0,0,0,0,-1,1406,974,0,0
189,50,0,0,0,0,0,0,0,0,0,-1,1413,974,0,0
196,50,0,0,0,0,0,0,0,0,0,-1,1420,974,0,0
203,50,0,0,0,0,0,0,0,0,0,-1,1427,974,0,0
210,50,0,0,0,0,0,0,0,0,0,-1,1434,974,0,0
217,50,0,0,0,0,0,0,0,0,0,-1,1441,974,0,0
224,50,0,0,0,0,0,0,0,0,0,-1,1448,974,0,0
231,50,0,0,0,0,0,0,0,0,0,-1,1455,974,0,0
238,50,0,0,0,0,0,0,0,0,0,-1,1462,974,0,0
245,50,0,0,0,0,0,0,0,0,0,-1,1469,974,0,0
252,50,0,0,0,0,0,0,0,0,0,-1,1476,974,0,0
259,50,0,0,0,0,0,0,0,0,0,-1,1483,974,0,0
266,50,0,0,0,0,0,0,0,0,0,-1,1490,974,0,0
273,50,0,0,0,0,0,0,0,0,0,-1,1497,974,0,0
280,50,0,0,0,0,0,0,0,0,0,-1,1504,974,0,0
287,50,0,0,0,0,0,0,0,0,0,-1,1511,974,0,0
294,50,0,0,0,0,0,0,0,0,0,-1,1518,974,0,0
301,50,0,0,0,0,0,0,0,0,0,-1,1525,974,0,0
308,50,0,0,0,0,0,0,0,0,0,-1,1532,974,0,0
315,50,0,0,0,0,0,0,0,0,0,-1,1539,974,0,0
322,50,0,0,0,0,0,0,0,0,0,-1,1546,974,0,0
329,50,0,0,0,0,0,0,0,0,0,-1,1553,974,0,0
336,50,0,0,0,0,0,0,0,0,0,-1,1560,974,0,0
343,50,0,0,0,0,0,0,0,0,0,-1,1567,974,0,0
350,50,0,0,0,0,0,0,0,0,0,-1,1574,974,0,0
357,50,0,0,0,0,0,0,0,0,0,-1,1581,974,0,0
364,50,0,0,0,0,0,0,0,0,0,-1,1588,974,0,0
371,50,0,0,0,0,0,0,0,0,0,-1,1595,974,0,0
378,50,0,0,0,0,0,0,0,0,0,-1,1602,974,0,0
385,50,0,0,0,0,0,0,0,0,0,-1,1609,974,0,0
392,50,0,0,0,0,0,0,0,0,0,-1,1616,974,0,0
399,50,0,0,0,0,0,0,0,0,0,-1,1623,974,0,0
406,50,0,0,0,0,0,0,0,0,0,-1,1630,974,0,0
413,50,0,0,0,0,0,0,0,0,0,-1,1637,974,0,0
420,50,0,0,0,0,0,0,0,0,0,-1,1644,974,0,0
427,50,0,0,0,0,0,0,0,0,0,-1,1651,974,0,0
434,50,0,0,0,0,0,0,0,0,0,-1,1658,974,0,0
441,50,0,0,0,0,0,0,0,0,0,-1,1665,974,0,0
448,50,0,0,0,0,0,0,0,0,0,-1,1672,974,0,0
455,50,0,0,0,0,0,0,0,0,0,-1,1679,974,0,0
462,50,0,0,0,0,0,0,0,0,0,-1,1686,974,0,0
469,50,0,0,0,0,0,0,0,0,0,-1,1693,974,0,0
476,50,0,0,0,0,0,0,0,0,0,-1,1700,974,0,0
483,50,0,0,0,0,0,0,0,0,0,-1,1707,974,0,0
490,50,0,0,0,0,0,0,0,0,0,-1,1714,974,0,0
497,50,0,0,0,0,0,0,0,0,0,-1,1721,974,0,0
504,50,0,0,0,0,0,0,0,0,0,-1,1728,974,0,0
511,50,0,0,0,0,0,0,0,0,0,-1,1735,974,0,0
518,50,0,0,0,0,0,0,0,0,0,-1,1742,974,0,0
525,50,0,0,0,0,0,0,0,0,0,-1,1749,974,0,0
532,50,0,0,0,0,0,0,0,0,0,-1,1756,974,0,0
539,50,0,0,0,0,0,0,0,0,0,-1,1763,974,0,0
546,50,0,0,0,0,0,0,0,0,0,-1,1770,974,0,0
553,50,0,0,0,0,0,0,0,0,0,-1,1777,974,0,0
560,50,0,0,0,0,0,0,0,0,0,-1,1784,974,0,0
567,50,0,0,0,0,0,0,0,0,0,-1,1791,974,0,0
574,50,0,0,0,0,0,0,0,0,0,-1,1798,974,0,0
581,50,0,0,0,0,0,0,0,0,0,-1,1805,974,0,0
588,50,0,0,0,0,0,0,0,0,0,-1,1812,974,0,0
595,50,0,0,0,0,0,0,0,0,0,-1,1819,974,0,0
602,50,0,0,0,0,0,0,0,0,0,-1,1826,974,0,0
609,50,0,0,0,0,0,0,0,0,0,-1,1833,974,0,0
616,50,0,0,0,0,0,0,0,0,0,-1,1840,974,0,0
623,50,0,0,0,0,0,0,0,0,0,-1,1847,974,0,0
630,50,0,0,0,0,0,0,0,0,0,-1,1854,974,0,0
637,50,0,0,0,0,0,0,0,0,0,-1,1861,974,0,0
644,50,64.3615,2.68091,0.00323803,0.00257105,-0.00461136,0.00752795,-0.00171886,-0.749301,0.00567896,0.0371472,1868,974,64.3614,-2.6809
651,50,64.2548,2.57477,0.00194566,0.00158905,-0.00376473,0.00553631,-0.0020016,-0.761735,0.00450869,0.0313957,1875,974,64.2548,-2.57475
658,50,64.2253,2.54468,0.000854624,0.00107814,-0.00271979,0.00368846,-0.0017557,-0.805932,0.00320854,0.037861,1882,974,64.2253,-2.54467
665,50,64.3741,2.60614,-5.41498e-05,0.00109539,-0.00138469,0.00201987,-0.000978622,-0.982122,0.00176563,0.0407766,1889,974,64.3741,-2.60612
672,50,64.3468,2.51935,-0.000944876,0.00138234,8.1385e-05,0.00138518,-0.000947718,1.53588,0.00135477,0.04078,1896,974,64.3468,-2.51934
679,50,64.194,2.49927,-0.00152139,0.00147096,0.00138903,0.00201634,-0.00206677,1.19666,0.00235745,0.0415467,1903,974,64.194,-2.49924
686,50,64.1034,2.35632,-0.00166672,0.00136458,0.00226136,0.00257124,-0.00287337,1.08063,0.00314506,0.0441571,1910,974,64.1034,-2.35635
693,50,64.1405,2.40228,-0.00173364,0.00110887,0.00276275,0.0027945,-0.00341927,1.02296,0.00359356,0.0375805,1917,974,64.1405,-2.40227
700,50,64.189,2.60492,-0.00198333,0.00106183,0.00283296,0.00275545,-0.00367695,1.03198,0.00372643,0.0211476,1924,974,64.189,-2.60491
707,50,64.2025,2.86938,-0.00236592,0.00135177,0.00264962,0.00272955,-0.00374371,1.09128,0.0037526,0.0349933,1931,974,64.2025,-2.86936
714,50,64.1143,3.19366,0,0,0,0,0,0,0,-1,1938,974,64.1143,-3.19367
721,50,62.9547,5.37335,0,0,0,0,0,0,0,-1,1945,974,62.9548,-5.37333
728,50,63.0081,5.86011,-0.00415365,0.0038576,0.00137196,0.00408604,-0.00438209,1.4058,0.00489008,0.0225936,1952,974,63.0081,-5.86012
735,50,63.0564,6.24658,-0.00480782,0.00513497,0.000788418,0.0051971,-0.00486995,1.49216,0.00581324,0.0222488,1959,974,63.0565,-6.24658
742,50,63.0713,6.58899,-0.00557871,0.00705908,9.8034e-05,0.00705984,-0.00557947,1.56304,0.00731398,0.0171765,1966,974,63.0712,-6.589
749,50,62.9985,6.89874,-0.00610233,0.00966125,-0.000497855,0.00967696,-0.00611804,-1.53926,0.00919608,0.0173511,1973,974,62.9986,-6.89874
756,50,62.9166,7.23853,-0.0062579,0.0131571,-0.000391668,0.013165,-0.0062658,-1.55063,0.0114517,0.0154884,1980,974,62.9166,-7.23855
763,50,62.7988,7.56769,-0.00586339,0.0177882,0.000381786,0.0177943,-0.00586955,1.55466,0.0142288,0.0154817,1987,974,62.7988,-7.56771
770,50,62.6921,7.8374,-0.00397194,0.023385,0.00255727,0.023622,-0.00420893,1.47839,0.0173223,0.0136515,1994,974,62.6922,-7.83741
777,50,62.6504,8.13739,-0.000395672,0.0292127,0.00592051,0.0303526,-0.00153565,1.38058,0.0207659,0.0231188,2001,974,62.6505,-8.13737
784,50,62.5012,8.48206,0.00596377,0.0350192,0.0110006,0.0387142,0.00226873,1.24674,0.0250875,0.0390997,2008,974,62.5013,-8.48206
791,50,62.3892,8.81909,0,0,0,0,0,0,0,-1,2015,974,62.3892,-8.81909
798,50,63.8875,9.19861,0.031845,0.0453903,0.0281005,0.0675228,0.00971247,0.90365,0.0421524,0.0481637,2022,974,63.8874,-9.19864
805,50,64.5771,9.66534,0.052584,0.0494998,0.0412003,0.0922711,0.00981278,0.766692,0.058518,0.0481106,2029,974,64.5773,-9.66533
812,50,0,0,0,0,0,0,0,0,0,-1,2036,974,0,0
-700,43,0,0,0,0,0,0,0,0,0,-1,524,981,0,0
-693,43,-58.0743,-1.44922,0,0,0,0,0,0,0,-1,531,981,-58.0744,1.44922
-686,43,-58.7249,-1.25885,0,0,0,0,0,0,0,-1,538,981,-58.7249,1.25885
-679,43,-59.3072,-0.947693,0,0,0,0,0,0,0,-1,545,981,-59.3072,0.94771
-672,43,-47.2146,3.87823,0,0,0,0,0,0,0,-1,552,981,-47.2146,-3.87822
-665,43,-46.3962,3.54144,0,0,0,0,0,0,0,-1,559,981,-46.3962,-3.54146
-658,43,-48.3373,5.68237,0,0,0,0,0,0,0,-1,566,981,-48.3373,-5.68237
-651,43,-48.4243,5.54578,0.00378626,0.0646899,0.00266872,0.0648066,0.00366954,1.52709,0.0420347,0.0425186,573,981,-48.4242,-5.54576
-644,43,-48.5435,5.43823,0.00093787,0.0488837,0.00301482,0.0490725,0.000749044,1.50824,0.0324682,0.0266002,580,981,-48.5435,-5.43826
-637,43,-48.7436,5.20752,-0.0011832,0.0356234,0.00311756,0.0358856,-0.00144539,1.48689,0.0244198,0.020013,587,981,-48.7436,-5.20753
-630,43,-48.7773,5.01166,-0.00211441,0.0253731,0.0024708,0.0255934,-0.00233475,1.48186,0.0178914,0.0154064,594,981,-48.7773,-5.01166
-623,43,-48.7939,4.80798,-0.00226798,0.0180943,0.000885804,0.0181327,-0.00230644,1.5274,0.0129261,0.0129419,601,981,-48.7939,-4.80796
-616,43,-48.8152,4.54681,-0.00217146,0.0125678,-0.00085629,0.0126174,-0.00222104,-1.51296,0.00924137,0.0126856,608,981,-48.8152,-4.54682
-609,43,-48.8258,4.27948,-0.00193893,0.00903793,-0.00262542,0.00963355,-0.00253456,-1.34771,0.00741309,0.0151982,615,981,-48.8258,-4.27948
-602,43,-48.7979,4.00977,-0.00179287,0.00740948,-0.00432884,0.00912572,-0.0035091,-1.19334,0.00753114,0.0181195,622,981,-48.7979,-4.00978
-595,43,-49.1335,4.27124,0,0,0,0,0,0,0,-1,629,981,-49.1335,-4.27127
-588,43,-48.9152,2.89874,-0.00127809,0.00514809,-0.00630885,0.00901494,-0.00514494,-1.02093,0.00827636,0.0374907,636,981,-48.9152,-2.89872
-581,43,-48.8094,1.38239,-0.000671924,0.00432552,-0.00670116,0.00897866,-0.00532507,-0.963853,0.00834758,0.0429876,643,981,-48.8094,-1.38236
-574,43,-48.6823,0.0272827,0,0,0,0,0,0,0,-1,650,981,-48.6823,-0.0272758
-567,43,-48.7203,0.69043,-0.000263504,0.00351529,-0.00651025,0.00840477,-0.00515299,-0.926628,0.00790227,0.033564,657,981,-48.7203,-0.690412
-560,43,-48.6073,0.668396,-8.36278e-05,0.00328266,-0.00556683,0.00741523,-0.0042162,-0.932205,0.00679955,0.0399047,664,981,-48.6073,-0.668383
-553,43,-48.6825,0.824036,0.000228795,0.00287891,-0.0039893,0.00575745,-0.00264975,-0.945742,0.00496321,0.0412783,671,981,-48.6825,-0.824021
-546,43,-48.7259,0.849182,0.000764837,0.00199788,-0.0017137,0.00320259,-0.000439869,-0.95807,0.00229577,0.0446799,678,981,-48.7259,-0.849167
-539,43,-48.72,0.801758,0.00153453,0.000338996,0.00110967,0.0021972,-0.000323673,0.53834,0.00158375,0.0483157,685,981,-48.72,-0.801767
-532,43,-48.6207,0.324158,0.00301444,-0.00150524,0.0031826,0.00465791,-0.00314871,0.476674,0.00453514,0.0460312,692,981,-48.6207,-0.324148
-525,43,-48.7628,0.617493,0.00425948,-0.00198568,0.0027289,0.00528387,-0.00301007,0.35911,0.00484812,0.0443535,699,981,-48.7628,-0.617478
-518,43,0,0,0,0,0,0,0,0,0,-1,706,981,0,0
-511,43,0,0,0,0,0,0,0,0,0,-1,713,981,0,0
-504,43,0,0,0,0,0,0,0,0,0,-1,720,981,0,0
-497,43,0,0,0,0,0,0,0,0,0,-1,727,981,0,0
-490,43,0,0,0,0,0,0,0,0,0,-1,734,981,0,0
-483,43,0,0,0,0,0,0,0,0,0,-1,741,981,0,0
-476,43,0,0,0,0,0,0,0,0,0,-1,748,981,0,0
-469,43,0,0,0,0,0,0,0,0,0,-1,755,981,0,0
-462,43,0,0,0,0,0,0,0,0,0,-1,762,981,0,0
-455,43,0,0,0,0,0,0,0,0,0,-1,769,981,0,0
-448,43,0,0,0,0,0,0,0,0,0,-1,776,981,0,0
-441,43,0,0,0,0,0,0,0,0,0,-1,783,981,0,0
-434,43,0,0,0,0,0,0,0,0,0,-1,790,981,0,0
-427,43,0,0,0,0,0,0,0,0,0,-1,797,981,0,0
-420,43,0,0,0,0,0,0,0,0,0,-1,804,981,0,0
-413,43,0,0,0,0,0,0,0,0,0,-1,811,981,0,0
-406,43,0,0,0,0,0,0,0,0,0,-1,818,981,0,0
-399,43,0,0,0,0,0,0,0,0,0,-1,825,981,0,0
-392,43,0,0,0,0,0,0,0,0,0,-1,832,981,0,0
-385,43,0,0,0,0,0,0,0,0,0,-1,839,981,0,0
-378,43,0,0,0,0,0,0,0,0,0,-1,846,981,0,0
-371,43,0,0,0,0,0,0,0,0,0,-1,853,981,0,0
-364,43,0,0,0,0,0,0,0,0,0,-1,860,981,0,0
-357,43,0,0,0,0,0,0,0,0,0,-1,867,981,0,0
-350,43,0,0,0,0,0,0,0,0,0,-1,874,981,0,0
-343,43,0,0,0,0,0,0,0,0,0,-1,881,981,0,0
-336,43,0,0,0,0,0,0,0,0,0,-1,888,981,0,0
-329,43,0,0,0,0,0,0,0,0,0,-1,895,981,0,0
-322,43,0,0,0,0,0,0,0,0,0,-1,902,981,0,0
-315,43,0,0,0,0,0,0,0,0,0,-1,909,981,0,0
-308,43,0,0,0,0,0,0,0,0,0,-1,916,981,0,0
-301,43,0,0,0,0,0,0,0,0,0,-1,923,981,0,0
-294,43,0,0,0,0,0,0,0,0,0,-1,930,981,0,0
-287,43,0,0,0,0,0,0,0,0,0,-1,937,981,0,0
-280,43,0,0,0,0,0,0,0,0,0,-1,944,981,0,0
-273,43,0,0,0,0,0,0,0,0,0,-1,951,981,0,0
-266,43,0,0,0,0,0,0,0,0,0,-1,958,981,0,0
-259,43,0,0,0,0,0,0,0,0,0,-1,965,981,0,0
-252,43,0,0,0,0,0,0,0,0,0,-1,972,981,0,0
-245,43,0,0,0,0,0,0,0,0,0,-1,979,981,0,0
-238,43,0,0,0,0,0,0,0,0,0,-1,986,981,0,0
-231,43,0,0,0,0,0,0,0,0,0,-1,993,981,0,0
-224,43,0,0,0,0,0,0,0,0,0,-1,1000,981,0,0
-217,43,0,0,0,0,0,0,0,0,0,-1,1007,981,0,0
-210,43,0,0,0,0,0,0,0,0,0,-1,1014,981,0,0
-203,43,0,0,0,0,0,0,0,0,0,-1,1021,981,0,0
-196,43,0,0,0,0,0,0,0,0,0,-1,1028,981,0,0
-189,43,0,0,0,0,0,0,0,0,0,-1,1035,981,0,0
-182,43,0,0,0,0,0,0,0,0,0,-1,1042,981,0,0
-175,43,0,0,0,0,0,0,0,0,0,-1,1049,981,0,0
-168,43,0,0,0,0,0,0,0,0,0,-1,1056,981,0,0
-161,43,0,0,0,0,0,0,0,0,0,-1,1063,981,0,0
-154,43,0,0,0,0,0,0,0,0,0,-1,1070,981,0,0
-147,43,0,0,0,0,0,0,0,0,0,-1,1077,981,0,0
-140,43,0,0,0,0,0,0,0,0,0,-1,1084,981,0,0
-133,43,0,0,0,0,0,0,0,0,0,-1,1091,981,0,0
-126,43,0,0,0,0,0,0,0,0,0,-1,1098,981,0,0
-119,43,0,0,0,0,0,0,0,0,0,-1,1105,981,0,0
-112,43,0,0,0,0,0,0,0,0,0,-1,1112,981,0,0
-105,43,0,0,0,0,0,0,0,0,0,-1,1119,981,0,0
-98,43,0,0,0,0,0,0,0,0,0,-1,1126,981,0,0
-91,43,0,0,0,0,0,0,0,0,0,-1,1133,981,0,0
-84,43,0,0,0,0,0,0,0,0,0,-1,1140,981,0,0
-77,43,0,0,0,0,0,0,0,0,0,-1,1147,981,0,0
-70,43,0,0,0,0,0,0,0,0,0,-1,1154,981,0,0
-63,43,0,0,0,0,0,0,0,0,0,-1,1161,981,0,0
-56,43,0,0,0,0,0,0,0,0,0,-1,1168,981,0,0
-49,43,0,0,0,0,0,0,0,0,0,-1,1175,981,0,0
-42,43,0,0,0,0,0,0,0,0,0,-1,1182,981,0,0
-35,43,0,0,0,0,0,0,0,0,0,-1,1189,981,0,0
-28,43,0,0,0,0,0,0,0,0,0,-1,1196,981,0,0
-21,43,0,0,0,0,0,0,0,0,0,-1,1203,981,0,0
-14,43,0,0,0,0,0,0,0,0,0,-1,1210,981,0,0
-7,43,0,0,0,0,0,0,0,0,0,-1,1217,981,0,0
0,43,0,0,0,0,0,0,0,0,0,-1,1224,981,0,0
7,43,0,0,0,0,0,0,0,0,0,-1,1231,981,0,0
14,43,0,0,0,0,0,0,0,0,0,-1,1238,981,0,0
21,43,0,0,0,0,0,0,0,0,0,-1,1245,981,0,0
28,43,0,0,0,0,0,0,0,0,0,-1,1252,981,0,0
35,43,0,0,0,0,0,0,0,0,0,-1,1259,981,0,0
42,43,0,0,0,0,0,0,0,0,0,-1,1266,981,0,0
49,43,0,0,0,0,0,0,0,0,0,-1,1273,981,0,0
56,43,0,0,0,0,0,0,0,0,0,-1,1280,981,0,0
63,43,0,0,0,0,0,0,0,0,0,-1,1287,981,0,0
70,43,0,0,0,0,0,0,0,0,0,-1,1294,981,0,0
77,43,0,0,0,0,0,0,0,0,0,-1,1301,981,0,0
84,43,0,0,0,0,0,0,0,0,0,-1,1308,981,0,0
91,43,0,0,0,0,0,0,0,0,0,-1,1315,981,0,0
98,43,0,0,0,0,0,0,0,0,0,-1,1322,981,0,0
105,43,0,0,0,0,0,0,0,0,0,-1,1329,981,0,0
112,43,0,0,0,0,0,0,0,0,0,-1,1336,981,0,0
119,43,0,0,0,0,0,0,0,0,0,-1,1343,981,0,0
126,43,0,0,0,0,0,0,0,0,0,-1,1350,981,0,0
133,43,0,0,0,0,0,0,0,0,0,-1,1357,981,0,0
140,43,0,0,0,0,0,0,0,0,0,-1,1364,981,0,0
147,43,0,0,0,0,0,0,0,0,0,-1,1371,981,0,0
154,43,0,0,0,0,0,0,0,0,0,-1,1378,981,0,0
161,43,0,0,0,0,0,0,0,0,0,-1,1385,981,0,0
168,43,0,0,0,0,0,0,0,0,0,-1,1392,981,0,0
175,43,0,0,0,0,0,0,0,0,0,-1,1399,981,0,0
182,43,0,0,0,0,0,0,0,0,0,-1,1406,981,0,0
189,43,0,0,0,0,0,0,0,0,0,-1,1413,981,0,0
196,43,0,0,0,0,0,0,0,0,0,-1,1420,981,0,0
203,43,0,0,0,0,0,0,0,0,0,-1,1427,981,0,0
210,43,0,0,0,0,0,0,0,0,0,-1,1434,981,0,0
217,43,0,0,0,0,0,0,0,0,0,-1,1441,981,0,0
224,43,0,0,0,0,0,0,0,0,0,-1,1448,981,0,0
231,43,0,0,0,0,0,0,0,0,0,-1,1455,981,0,0
238,43,0,0,0,0,0,0,0,0,0,-1,1462,981,0,0
245,43,0,0,0,0,0,0,0,0,0,-1,1469,981,0,0
252,43,0,0,0,0,0,0,0,0,0,-1,1476,981,0,0
259,43,0,0,0,0,0,0,0,0,0,-1,1483,981,0,0
266,43,0,0,0,0,0,0,0,0,0,-1,1490,981,0,0
273,43,0,0,0,0,0,0,0,0,0,-1,1497,981,0,0
280,43,0,0,0,0,0,0,0,0,0,-1,1504,981,0,0
287,43,0,0,0,0,0,0,0,0,0,-1,1511,981,0,0
294,43,0,0,0,0,0,0,0,0,0,-1,1518,981,0,0
301,43,0,0,0,0,0,0,0,0,0,-1,1525,981,0,0
308,43,0,0,0,0,0,0,0,0,0,-1,1532,981,0,0
315,43,0,0,0,0,0,0,0,0,0,-1,1539,981,0,0
322,43,0,0,0,0,0,0,0,0,0,-1,1546,981,0,0
329,43,0,0,0,0,0,0,0,0,0,-1,1553,981,0,0
336,43,0,0,0,0,0,0,0,0,0,-1,1560,981,0,0
343,43,0,0,0,0,0,0,0,0,0,-1,1567,981,0,0
350,43,0,0,0,0,0,0,0,0,0,-1,1574,981,0,0
357,43,0,0,0,0,0,0,0,0,0,-1,1581,981,0,0
364,43,0,0,0,0,0,0,0,0,0,-1,1588,981,0,0
371,43,0,0,0,0,0,0,0,0,0,-1,1595,981,0,0
378,43,0,0,0,0,0,0,0,0,0,-1,1602,981,0,0
385,43,0,0,0,0,0,0,0,0,0,-1,1609,981,0,0
392,43,0,0,0,0,0,0,0,0,0,-1,1616,981,0,0
399,43,0,0,0,0,0,0,0,0,0,-1,1623,981,0,0
406,43,0,0,0,0,0,0,0,0,0,-1,1630,981,0,0
413,43,0,0,0,0,0,0,0,0,0,-1,1637,981,0,0
420,43,0,0,0,0,0,0,0,0,0,-1,1644,981,0,0
427,43,0,0,0,0,0,0,0,0,0,-1,1651,981,0,0
434,43,0,0,0,0,0,0,0,0,0,-1,1658,981,0,0
441,43,0,0,0,0,0,0,0,0,0,-1,1665,981,0,0
448,43,0,0,0,0,0,0,0,0,0,-1,1672,981,0,0
455,43,0,0,0,0,0,0,0,0,0,-1,1679,981,0,0
462,43,0,0,0,0,0,0,0,0,0,-1,1686,981,0,0
469,43,0,0,0,0,0,0,0,0,0,-1,1693,981,0,0
476,43,0,0,0,0,0,0,0,0,0,-1,1700,981,0,0
483,43,0,0,0,0,0,0,0,0,0,-1,1707,981,0,0
490,43,0,0,0,0,0,0,0,0,0,-1,1714,981,0,0
497,43,0,0,0,0,0,0,0,0,0,-1,1721,981,0,0
504,43,0,0,0,0,0,0,0,0,0,-1,1728,981,0,0
511,43,0,0,0,0,0,0,0,0,0,-1,1735,981,0,0
518,43,0,0,0,0,0,0,0,0,0,-1,1742,981,0,0
525,43,0,0,0,0,0,0,0,0,0,-1,1749,981,0,0
532,43,0,0,0,0,0,0,0,0,0,-1,1756,981,0,0
539,43,0,0,0,0,0,0,0,0,0,-1,1763,981,0,0
546,43,0,0,0,0,0,0,0,0,0,-1,1770,981,0,0
553,43,0,0,0,0,0,0,0,0,0,-1,1777,981,0,0
560,43,0,0,0,0,0,0,0,0,0,-1,1784,981,0,0
567,43,0,0,0,0,0,0,0,0,0,-1,1791,981,0,0
574,43,0,0,0,0,0,0,0,0,0,-1,1798,981,0,0
581,43,0,0,0,0,0,0,0,0,0,-1,1805,981,0,0
588,43,0,0,0,0,0,0,0,0,0,-1,1812,981,0,0
595,43,0,0,0,0,0,0,0,0,0,-1,1819,981,0,0
602,43,0,0,0,0,0,0,0,0,0,-1,1826,981,0,0
609,43,0,0,0,0,0,0,0,0,0,-1,1833,981,0,0
616,43,0,0,0,0,0,0,0,0,0,-1,1840,981,0,0
623,43,0,0,0,0,0,0,0,0,0,-1,1847,981,0,0
630,43,0,0,0,0,0,0,0,0,0,-1,1854,981,0,0
637,43,0,0,0,0,0,0,0,0,0,-1,1861,981,0,0
644,43,64.1461,2.56482,0.00345802,0.00244733,-0.00284629,0.00584347,6.18719e-05,-0.697541,0.00387519,0.0374326,1868,981,64.1461,-2.56481
651,43,64.2083,2.60254,0.00213207,0.00147138,-0.00259497,0.00441764,-0.000814184,-0.722088,0.00325066,0.0346529,1875,981,64.2082,-2.60252
658,43,64.3413,2.47992,0.00102762,0.000916638,-0.00199022,0.00296312,-0.00101886,-0.771461,0.0023886,0.0393244,1882,981,64.3413,-2.47992
665,43,64.5269,2.41754,0.000117638,0.00088675,-0.00099245,0.00156654,-0.000562155,-0.970232,0.00127379,0.0382937,1889,981,64.5269,-2.41753
672,43,64.4686,2.43781,-0.000754212,0.00117238,0.000220777,0.00119735,-0.000779188,1.45815,0.00114964,0.0380694,1896,981,64.4687,-2.43783
679,43,64.2448,2.37164,-0.00132477,0.00130712,0.00139784,0.00191099,-0.00192863,1.16301,0.00221681,0.040758,1903,981,64.2448,-2.37162
686,43,64.1113,2.46552,-0.00148008,0.00124375,0.00225272,0.00251424,-0.00275058,1.05728,0.00304067,0.0425717,1910,981,64.1113,-2.46552
693,43,64.0905,2.53259,-0.00152668,0.00101189,0.00277322,0.0027925,-0.00330728,1.00001,0.00352589,0.0371643,1917,981,64.0904,-2.53257
700,43,64.1534,2.62506,-0.00171246,0.000959087,0.00285686,0.00277703,-0.0035304,1.00408,0.00365025,0.0309709,1924,981,64.1535,-2.62505
707,43,64.2714,2.66449,-0.00208884,0.0012736,0.00268319,0.00275877,-0.00357401,1.06526,0.00366632,0.0289142,1931,981,64.2714,-2.6645
714,43,64.2009,2.87311,0,0,0,0,0,0,0,-1,1938,981,64.201,-2.87311
721,43,63.386,5.43079,0,0,0,0,0,0,0,-1,1945,981,63.386,-5.43077
728,43,63.4155,5.86017,-0.00443356,0.00404729,0.00149089,0.00430175,-0.00468802,1.40175,0.00519184,0.0208384,1952,981,63.4156,-5.86017
735,43,63.4377,6.25885,-0.00519429,0.00545883,0.000927986,0.00553906,-0.00527453,1.48455,0.00624385,0.0152298,1959,981,63.4378,-6.25888
742,43,63.4063,6.56873,-0.00611899,0.00750581,0.000281319,0.00751162,-0.0061248,1.55016,0.00788655,0.0167297,1966,981,63.4062,-6.5687
749,43,63.3604,6.87524,-0.00691389,0.0101772,-0.000323561,0.0101833,-0.00692002,-1.55187,0.00993433,0.0191081,1973,981,63.3603,-6.87523
756,43,63.3453,7.13861,-0.00743172,0.0136789,-0.000311628,0.0136835,-0.00743632,-1.55604,0.0123701,0.0224951,1980,981,63.3454,-7.13862
763,43,63.2642,7.38739,-0.00747214,0.0183453,0.000240744,0.0183475,-0.00747438,1.56147,0.0153425,0.0268681,1987,981,63.2641,-7.38737
770,43,63.1155,7.73773,-0.00599969,0.0241652,0.00217195,0.0243208,-0.00615528,1.49929,0.0186081,0.0211305,1994,981,63.1155,-7.73773
777,43,63.1423,8.00421,-0.00273944,0.0303935,0.00532795,0.0312292,-0.00357513,1.41521,0.0221078,0.0244543,2001,981,63.1424,-8.00419
784,43,63.002,8.49884,0.00329438,0.0366804,0.010101,0.0394986,0.000476195,1.29871,0.0261751,0.0410703,2008,981,63.002,-8.49886
791,43,63.377,8.90796,0.0135,0.0428021,0.0169505,0.0505558,0.00574631,1.14178,0.0319611,0.0469561,2015,981,63.3769,-8.90797
798,43,63.6577,9.22699,0.0283864,0.048458,0.0263014,0.0665732,0.0102711,0.967657,0.0413855,0.0447247,2022,981,63.6576,-9.22697
805,43,63.8979,9.45721,0.0485925,0.053648,0.038656,0.0898588,0.0123816,0.818047,0.0562349,0.0465016,2029,981,63.8979,-9.45721
812,43,64.0103,9.45355,0,0,0,0,0,0,0,-1,2036,981,64.0102,-9.45353
-700,36,0,0,0,0,0,0,0,0,0,-1,524,988,0,0
-693,36,-56.8671,-0.923523,0,0,0,0,0,0,0,-1,531,988,-56.8671,0.923535
-686,36,-57.3155,-0.470032,0,0,0,0,0,0,0,-1,538,988,-57.3155,0.470021
-679,36,-47.7478,4.6156,0,0,0,0,0,0,0,-1,545,988,-47.7478,-4.6156
-672,36,-47.3781,4.34515,0,0,0,0,0,0,0,-1,552,988,-47.3782,-4.34517
-665,36,-47.7497,4.97137,0,0,0,0,0,0,0,-1,559,988,-47.7497,-4.97135
-658,36,-48.1675,5.20502,0,0,0,0,0,0,0,-1,566,988,-48.1675,-5.205
-651,36,-48.5108,5.15613,0.00513907,0.0617169,0.00637174,0.0624256,0.00443036,1.46003,0.0402217,0.0421894,573,988,-48.5108,-5.15615
-644,36,-48.847,5.17096,0.00080847,0.0468902,0.00505016,0.0474372,0.000261508,1.46291,0.031538,0.0283893,580,988,-48.847,-5.17097
-637,36,-49.0541,4.99054,-0.0025083,0.0341581,0.00388388,0.034565,-0.00291518,1.46641,0.024074,0.0232248,587,988,-49.0541,-4.99052
-630,36,-49.0542,4.89502,-0.00367961,0.0240236,0.00266566,0.0242778,-0.00393377,1.47574,0.0176432,0.0167275,594,988,-49.0542,-4.895
-623,36,-49.093,4.73737,-0.00335383,0.0172128,0.000883439,0.0172507,-0.00339171,1.52795,0.0127819,0.0136827,601,988,-49.093,-4.73737
-616,36,-49.1078,4.54547,-0.00279373,0.0121867,-0.00100082,0.0122532,-0.0028603,-1.50438,0.00927052,0.0120012,608,988,-49.1078,-4.54549
-609,36,-49.035,4.37238,-0.00216931,0.00904652,-0.00283522,0.00972249,-0.00284528,-1.33675,0.00760952,0.017937,615,988,-49.035,-4.37235
-602,36,-49.0788,4.10889,-0.00178213,0.00751973,-0.00449842,0.00933926,-0.00360166,-1.18643,0.00771235,0.0229318,622,988,-49.0788,-4.1089
-595,36,-49.5275,4.14252,0,0,0,0,0,0,0,-1,629,988,-49.5275,-4.14254
-588,36,-49.1761,2.56915,-0.000753003,0.00525953,-0.00637478,0.00930135,-0.00479482,-1.00573,0.0082759,0.0487455,636,988,-49.1762,-2.56917
-581,36,-48.8047,1.17499,1.2031e-05,0.00441436,-0.00669311,0.00925896,-0.00483257,-0.944262,0.00826846,0.0452112,643,988,-48.8047,-1.175
-574,36,-48.7324,0.814026,0.000322428,0.00380035,-0.0067565,0.00903808,-0.0049153,-0.911353,0.00817236,0.0271384,650,988,-48.7324,-0.814004
-567,36,-48.7279,0.701904,0.00053267,0.00353273,-0.00631886,0.00852716,-0.00446177,-0.901936,0.00762062,0.0328205,657,988,-48.7279,-0.701909
-560,36,-48.6661,0.588379,0.000721417,0.003213,-0.00521703,0.00733092,-0.00339651,-0.9026,0.00633081,0.0368772,664,988,-48.6661,-0.588376
-553,36,-48.7406,0.749817,0.00095626,0.00264075,-0.00341664,0.00531743,-0.00172042,-0.906245,0.00423651,0.0416558,671,988,-48.7406,-0.749824
-546,36,-48.7825,0.35083,0.00130634,0.00145196,-0.000841926,0.00222422,0.000534079,-0.82853,0.00134072,0.0475515,678,988,-48.7825,-0.350816
-539,36,-48.6553,0.226318,0.00174988,-0.000613627,0.0022758,0.00313246,-0.00199621,0.545927,0.00298517,0.0487511,685,988,-48.6553,-0.226336
-532,36,-48.7211,0.786621,0.00295837,-0.00278264,0.00446253,0.0053939,-0.00521816,0.499592,0.00612716,0.0473308,692,988,-48.7211,-0.786612
-525,36,-48.7606,0.746094,0.00411405,-0.00356965,0.00406896,0.00586829,-0.00532389,0.407049,0.00646436,0.0476906,699,988,-48.7605,-0.746102
-518,36,0,0,0,0,0,0,0,0,0,-1,706,988,0,0
-511,36,0,0,0,0,0,0,0,0,0,-1,713,988,0,0
-504,36,0,0,0,0,0,0,0,0,0,-1,720,988,0,0
-497,36,0,0,0,0,0,0,0,0,0,-1,727,988,0,0
-490,36,0,0,0,0,0,0,0,0,0,-1,734,988,0,0
-483,36,0,0,0,0,0,0,0,0,0,-1,741,988,0,0
-476,36,0,0,0,0,0,0,0,0,0,-1,748,988,0,0
-469,36,0,0,0,0,0,0,0,0,0,-1,755,988,0,0
-462,36,0,0,0,0,0,0,0,0,0,-1,762,988,0,0
-455,36,0,0,0,0,0,0,0,0,0,-1,769,988,0,0
-448,36,0,0,0,0,0,0,0,0,0,-1,776,988,0,0
-441,36,0,0,0,0,0,0,0,0,0,-1,783,988,0,0
-434,36,0,0,0,0,0,0,0,0,0,-1,790,988,0,0
-427,36,0,0,0,0,0,0,0,0,0,-1,797,988,0,0
-420,36,0,0,0,0,0,0,0,0,0,-1,804,988,0,0
-413,36,0,0,0,0,0,0,0,0,0,-1,811,988,0,0
-406,36,0,0,0,0,0,0,0,0,0,-1,818,988,0,0
-399,36,0,0,0,0,0,0,0,0,0,-1,825,988,0,0
-392,36,0,0,0,0,0,0,0,0,0,-1,832,988,0,0
-385,36,0,0,0,0,0,0,0,0,0,-1,839,988,0,0
-378,36,0,0,0,0,0,0,0,0,0,-1,846,988,0,0
-371,36,0,0,0,0,0,0,0,0,0,-1,853,988,0,0
-364,36,0,0,0,0,0,0,0,0,0,-1,860,988,0,0
-357,36,0,0,0,0,0,0,0,0,0,-1,867,988,0,0
-350,36,0,0,0,0,0,0,0,0,0,-1,874,988,0,0
-343,36,0,0,0,0,0,0,0,0,0,-1,881,988,0,0
-336,36,0,0,0,0,0,0,0,0,0,-1,888,988,0,0
-329,36,0,0,0,0,0,0,0,0,0,-1,895,988,0,0
-322,36,0,0,0,0,0,0,0,0,0,-1,902,988,0,0
-315,36,0,0,0,0,0,0,0,0,0,-1,909,988,0,0
-308,36,0,0,0,0,0,0,0,0,0,-1,916,988,0,0
-301,36,0,0,0,0,0,0,0,0,0,-1,923,988,0,0
-294,36,0,0,0,0,0,0,0,0,0,-1,930,988,0,0
-287,36,0,0,0,0,0,0,0,0,0,-1,937,988,0,0
-280,36,0,0,0,0,0,0,0,0,0,-1,944,988,0,0
-273,36,0,0,0,0,0,0,0,0,0,-1,951,988,0,0
-266,36,0,0,0,0,0,0,0,0,0,-1,958,988,0,0
-259,36,0,0,0,0,0,0,0,0,0,-1,965,988,0,0
-252,36,0,0,0,0,0,0,0,0,0,-1,972,988,0,0
-245,36,0,0,0,0,0,0,0,0,0,-1,979,988,0,0
-238,36,0,0,0,0,0,0,0,0,0,-1,986,988,0,0
-231,36,0,0,0,0,0,0,0,0,0,-1,993,988,0,0
-224,36,0,0,0,0,0,0,0,0,0,-1,1000,988,0,0
-217,36,0,0,0,0,0,0,0,0,0,-1,1007,988,0,0
-210,36,0,0,0,0,0,0,0,0,0,-1,1014,988,0,0
-203,36,0,0,0,0,0,0,0,0,0,-1,1021,988,0,0
-196,36,0,0,0,0,0,0,0,0,0,-1,1028,988,0,0
-189,36,0,0,0,0,0,0,0,0,0,-1,1035,988,0,0
-182,36,0,0,0,0,0,0,0,0,0,-1,1042,988,0,0
-175,36,0,0,0,0,0,0,0,0,0,-1,1049,988,0,0
-168,36,0,0,0,0,0,0,0,0,0,-1,1056,988,0,0
-161,36,0,0,0,0,0,0,0,0,0,-1,1063,988,0,0
-154,36,0,0,0,0,0,0,0,0,0,-1,1070,988,0,0
-147,36,0,0,0,0,0,0,0,0,0,-1,1077,988,0,0
-140,36,0,0,0,0,0,0,0,0,0,-1,1084,988,0,0
-133,36,0,0,0,0,0,0,0,0,0,-1,1091,988,0,0
-126,36,0,0,0,0,0,0,0,0,0,-1,1098,988,0,0
-119,36,0,0,0,0,0,0,0,0,0,-1,1105,988,0,0
-112,36,0,0,0,0,0,0,0,0,0,-1,1112,988,0,0
-105,36,0,0,0,0,0,0,0,0,0,-1,1119,988,0,0
-98,36,0,0,0,0,0,0,0,0,0,-1,1126,988,0,0
-91,36,0,0,0,0,0,0,0,0,0,-1,1133,988,0,0
-84,36,0,0,0,0,0,0,0,0,0,-1,1140,988,0,0
-77,36,0,0,0,0,0,0,0,0,0,-1,1147,988,0,0
-70,36,0,0,0,0,0,0,0,0,0,-1,1154,988,0,0
-63,36,0,0,0,0,0,0,0,0,0,-1,1161,988,0,0
-56,36,0,0,0,0,0,0,0,0,0,-1,1168,988,0,0
-49,36,0,0,0,0,0,0,0,0,0,-1,1175,988,0,0
-42,36,0,0,0,0,0,0,0,0,0,-1,1182,988,0,0
-35,36,0,0,0,0,0,0,0,0,0,-1,1189,988,0,0
-28,36,0,0,0,0,0,0,0,0,0,-1,1196,988,0,0
-21,36,0,0,0,0,0,0,0,0,0,-1,1203,988,0,0
-14,36,0,0,0,0,0,0,0,0,0,-1,1210,988,0,0
-7,36,0,0,0,0,0,0,0,0,0,-1,1217,988,0,0
0,36,0,0,0,0,0,0,0,0,0,-1,1224,988,0,0
7,36,0,0,0,0,0,0,0,0,0,-1,1231,988,0,0
14,36,0,0,0,0,0,0,0,0,0,-1,1238,988,0,0
21,36,0,0,0,0,0,0,0,0,0,-1,1245,988,0,0
28,36,0,0,0,0,0,0,0,0,0,-1,1252,988,0,0
35,36,0,0,0,0,0,0,0,0,0,-1,1259,988,0,0
42,36,0,0,0,0,0,0,0,0,0,-1,1266,988,0,0
49,36,0,0,0,0,0,0,0,0,0,-1,1273,988,0,0
56,36,0,0,0,0,0,0,0,0,0,-1,1280,988,0,0
63,36,0,0,0,0,0,0,0,0,0,-1,1287,988,0,0
70,36,0,0,0,0,0,0,0,0,0,-1,1294,988,0,0
77,36,0,0,0,0,0,0,0,0,0,-1,1301,988,0,0
84,36,0,0,0,0,0,0,0,0,0,-1,1308,988,0,0
91,36,0,0,0,0,0,0,0,0,0,-1,1315,988,0,0
98,36,0,0,0,0,0,0,0,0,0,-1,1322,988,0,0
105,36,0,0,0,0,0,0,0,0,0,-1,1329,988,0,0
112,36,0,0,0,0,0,0,0,0,0,-1,1336,988,0,0
119,36,0,0,0,0,0,0,0,0,0,-1,1343,988,0,0
126,36,0,0,0,0,0,0,0,0,0,-1,1350,988,0,0
133,36,0,0,0,0,0,0,0,0,0,-1,1357,988,0,0
140,36,0,0,0,0,0,0,0,0,0,-1,1364,988,0,0
147,36,0,0,0,0,0,0,0,0,0,-1,1371,988,0,0
154,36,0,0,0,0,0,0,0,0,0,-1,1378,988,0,0
161,36,0,0,0,0,0,0,0,0,0,-1,1385,988,0,0
168,36,0,0,0,0,0,0,0,0,0,-1,1392,988,0,0
175,36,0,0,0,0,0,0,0,0,0,-1,1399,988,0,0
182,36,0,0,0,0,0,0,0,0,0,-1,1406,988,0,0
189,36,0,0,0,0,0,0,0,0,0,-1,1413,988,0,0
196,36,0,0,0,0,0,0,0,0,0,-1,1420,988,0,0
203,36,0,0,0,0,0,0,0,0,0,-1,1427,988,0,0
210,36,0,0,0,0,0,0,0,0,0,-1,1434,988,0,0
217,36,0,0,0,0,0,0,0,0,0,-1,1441,988,0,0
224,36,0,0,0,0,0,0,0,0,0,-1,1448,988,0,0
231,36,0,0,0,0,0,0,0,0,0,-1,1455,988,0,0
238,36,0,0,0,0,0,0,0,0,0,-1,1462,988,0,0
245,36,0,0,0,0,0,0,0,0,0,-1,1469,988,0,0
252,36,0,0,0,0,0,0,0,0,0,-1,1476,988,0,0
259,36,0,0,0,0,0,0,0,0,0,-1,1483,988,0,0
266,36,0,0,0,0,0,0,0,0,0,-1,1490,988,0,0
273,36,0,0,0,0,0,0,0,0,0,-1,1497,988,0,0
280,36,0,0,0,0,0,0,0,0,0,-1,1504,988,0,0
287,36,0,0,0,0,0,0,0,0,0,-1,1511,988,0,0
294,36,0,0,0,0,0,0,0,0,0,-1,1518,988,0,0
301,36,0,0,0,0,0,0,0,0,0,-1,1525,988,0,0
308,36,0,0,0,0,0,0,0,0,0,-1,1532,988,0,0
315,36,0,0,0,0,0,0,0,0,0,-1,1539,988,0,0
322,36,0,0,0,0,0,0,0,0,0,-1,1546,988,0,0
329,36,0,0,0,0,0,0,0,0,0,-1,1553,988,0,0
336,36,0,0,0,0,0,0,0,0,0,-1,1560,988,0,0
343,36,0,0,0,0,0,0,0,0,0,-1,1567,988,0,0
350,36,0,0,0,0,0,0,0,0,0,-1,1574,988,0,0
357,36,0,0,0,0,0,0,0,0,0,-1,1581,988,0,0
364,36,0,0,0,0,0,0,0,0,0,-1,1588,988,0,0
371,36,0,0,0,0,0,0,0,0,0,-1,1595,988,0,0
378,36,0,0,0,0,0,0,0,0,0,-1,1602,988,0,0
385,36,0,0,0,0,0,0,0,0,0,-1,1609,988,0,0
392,36,0,0,0,0,0,0,0,0,0,-1,1616,988,0,0
399,36,0,0,0,0,0,0,0,0,0,-1,1623,988,0,0
406,36,0,0,0,0,0,0,0,0,0,-1,1630,988,0,0
413,36,0,0,0,0,0,0,0,0,0,-1,1637,988,0,0
420,36,0,0,0,0,0,0,0,0,0,-1,1644,988,0,0
427,36,0,0,0,0,0,0,0,0,0,-1,1651,988,0,0
434,36,0,0,0,0,0,0,0,0,0,-1,1658,988,0,0
441,36,0,0,0,0,0,0,0,0,0,-1,1665,988,0,0
448,36,0,0,0,0,0,0,0,0,0,-1,1672,988,0,0
455,36,0,0,0,0,0,0,0,0,0,-1,1679,988,0,0
462,36,0,0,0,0,0,0,0,0,0,-1,1686,988,0,0
469,36,0,0,0,0,0,0,0,0,0,-1,1693,988,0,0
476,36,0,0,0,0,0,0,0,0,0,-1,1700,988,0,0
483,36,0,0,0,0,0,0,0,0,0,-1,1707,988,0,0
490,36,0,0,0,0,0,0,0,0,0,-1,1714,988,0,0
497,36,0,0,0,0,0,0,0,0,0,-1,1721,988,0,0
504,36,0,0,0,0,0,0,0,0,0,-1,1728,988,0,0
511,36,0,0,0,0,0,0,0,0,0,-1,1735,988,0,0
518,36,0,0,0,0,0,0,0,0,0,-1,1742,988,0,0
525,36,0,0,0,0,0,0,0,0,0,-1,1749,988,0,0
532,36,0,0,0,0,0,0,0,0,0,-1,1756,988,0,0
539,36,0,0,0,0,0,0,0,0,0,-1,1763,988,0,0
546,36,0,0,0,0,0,0,0,0,0,-1,1770,988,0,0
553,36,0,0,0,0,0,0,0,0,0,-1,1777,988,0,0
560,36,0,0,0,0,0,0,0,0,0,-1,1784,988,0,0
567,36,0,0,0,0,0,0,0,0,0,-1,1791,988,0,0
574,36,0,0,0,0,0,0,0,0,0,-1,1798,988,0,0
581,36,0,0,0,0,0,0,0,0,0,-1,1805,988,0,0
588,36,0,0,0,0,0,0,0,0,0,-1,1812,988,0,0
595,36,0,0,0,0,0,0,0,0,0,-1,1819,988,0,0
602,36,0,0,0,0,0,0,0,0,0,-1,1826,988,0,0
609,36,0,0,0,0,0,0,0,0,0,-1,1833,988,0,0
616,36,0,0,0,0,0,0,0,0,0,-1,1840,988,0,0
623,36,0,0,0,0,0,0,0,0,0,-1,1847,988,0,0
630,36,0,0,0,0,0,0,0,0,0,-1,1854,988,0,0
637,36,0,0,0,0,0,0,0,0,0,-1,1861,988,0,0
644,36,64.2355,2.55237,0.00363295,0.00232064,-0.00134547,0.00447373,0.00147985,-0.558529,0.00263175,0.0407608,1868,988,64.2354,-2.55235
651,36,64.2413,2.7348,0.00224558,0.00142108,-0.00157326,0.0034597,0.000206954,-0.657261,0.00224067,0.041123,1875,988,64.2414,-2.73478
658,36,64.3428,2.5639,0.00112864,0.000868676,-0.00133894,0.00234389,-0.000346577,-0.737011,0.00169001,0.0396923,1882,988,64.3427,-2.56392
665,36,64.4904,2.41925,0.000221604,0.00079931,-0.000626367,0.00120022,-0.000179305,-1.00144,0.000866124,0.0379087,1889,988,64.4904,-2.41927
672,36,64.5039,2.43097,-0.000614756,0.00106925,0.000365919,0.00114532,-0.00069083,1.36582,0.00107087,0.0390375,1896,988,64.504,-2.43097
679,36,64.413,2.43402,-0.0011532,0.00124261,0.00142016,0.00190261,-0.0018132,1.13575,0.00214553,0.0404347,1903,988,64.413,-2.43401
686,36,64.2382,2.52759,-0.00130789,0.00121171,0.00224096,0.0025227,-0.00261888,1.04147,0.00296867,0.0381006,1910,988,64.2382,-2.52759
693,36,64.1515,2.60834,-0.00132455,0.00101894,0.00278208,0.00286597,-0.00317157,0.984711,0.00348726,0.0379802,1917,988,64.1515,-2.60834
700,36,64.1379,2.61847,-0.00142843,0.000964861,0.00288796,0.00289427,-0.00335785,0.981809,0.00361297,0.0353465,1924,988,64.1379,-2.61845
707,36,64.2825,2.59863,-0.00178429,0.00129037,0.00273292,0.00288868,-0.00338259,1.0416,0.00362446,0.027905,1931,988,64.2825,-2.59866
714,36,64.2341,2.72015,0,0,0,0,0,0,0,-1,1938,988,64.2341,-2.72015
721,36,63.6881,5.55157,0,0,0,0,0,0,0,-1,1945,988,63.6882,-5.55156
728,36,63.684,5.95679,-0.00449047,0.00427847,0.00163113,0.00457206,-0.00478405,1.39272,0.00540221,0.0220296,1952,988,63.684,-5.9568
735,36,63.728,6.32904,-0.00529472,0.00578009,0.0010856,0.0058855,-0.00540013,1.474,0.00651777,0.0203775,1959,988,63.728,-6.32901
742,36,63.6769,6.54846,-0.00630191,0.00789698,0.000482818,0.00791338,-0.00631831,1.53684,0.00823386,0.0169403,1966,988,63.6769,-6.54844
749,36,63.667,6.82935,-0.00730317,0.01059,-0.000124216,0.0105909,-0.00730404,-1.56385,0.0103896,0.0181855,1973,988,63.6669,-6.82937
756,36,63.6422,7.07306,-0.00811244,0.0140771,-0.000200085,0.0140789,-0.00811424,-1.56178,0.0129666,0.0175395,1980,988,63.6422,-7.07306
763,36,63.5129,7.29144,-0.00850409,0.0187647,0.000151625,0.0187655,-0.00850493,1.56524,0.0161118,0.0208894,1987,988,63.513,-7.29142
770,36,63.4211,7.5647,-0.00744985,0.0247713,0.00180632,0.0248722,-0.0075508,1.51497,0.0195896,0.0171008,1994,988,63.4211,-7.5647
777,36,63.4209,7.8526,-0.00457402,0.0313669,0.00469359,0.0319698,-0.00517685,1.44306,0.0232318,0.0243866,2001,988,63.421,-7.85258
784,36,63.4243,8.18158,0.00100591,0.0380944,0.00908019,0.0401982,-0.00109782,1.34313,0.0271721,0.0435619,2008,988,63.4243,-8.1816
791,36,63.4248,8.55206,0.0106727,0.0447577,0.0154511,0.0507192,0.00471118,1.20256,0.0323569,0.0453632,2015,988,63.4248,-8.55204
798,36,63.7717,8.58472,0.0250146,0.0510779,0.0242609,0.0655856,0.0105069,1.03186,0.0406763,0.0468609,2022,988,63.7718,-8.58474
805,36,63.9092,8.8515,0,0,0,0,0,0,0,-1,2029,988,63.9092,-8.85153
812,36,62.4502,-0.871338,0,0,0,0,0,0,0,-1,2036,988,62.4503,0.871334
-700,29,0,0,0,0,0,0,0,0,0,-1,524,995,0,0
-693,29,-55.857,-0.661194,0,0,0,0,0,0,0,-1,531,995,-55.857,0.661211
-686,29,-56.0838,-0.506714,0,0,0,0,0,0,0,-1,538,995,-56.0838,0.506694
-679,29,-56.2259,-0.446472,0,0,0,0,0,0,0,-1,545,995,-56.2259,0.446479
-672,29,-47.2379,4.51923,0,0,0,0,0,0,0,-1,552,995,-47.2379,-4.51923
-665,29,-47.7511,4.32507,0,0,0,0,0,0,0,-1,559,995,-47.7511,-4.32505
-658,29,-47.5895,4.2641,0,0,0,0,0,0,0,-1,566,995,-47.5895,-4.26413
-651,29,-48.577,4.42462,0,0,0,0,0,0,0,-1,573,995,-48.577,-4.42462
-644,29,-49.0018,4.68494,0.00182022,0.0439374,0.00694614,0.0450534,0.000704207,1.41149,0.0298036,0.0462566,580,995,-49.0018,-4.68492
-637,29,-49.2646,4.8186,-0.00285803,0.0321745,0.00436519,0.0327102,-0.00339376,1.44868,0.0230216,0.0277101,587,995,-49.2646,-4.81858
-630,29,-49.2816,4.7774,-0.00423862,0.0224773,0.00254175,0.0227169,-0.00447829,1.47678,0.0168371,0.0145882,594,995,-49.2815,-4.77742
-623,29,-49.2738,4.68353,-0.00381687,0.0161722,0.000677072,0.0161951,-0.00383978,1.53698,0.0122784,0.0133763,601,995,-49.2738,-4.68355
-616,29,-49.311,4.52441,-0.0030761,0.0116094,-0.00126187,0.011717,-0.00318374,-1.4857,0.00906098,0.0155844,608,995,-49.311,-4.52439
-609,29,-49.2703,4.44745,-0.00230077,0.00873506,-0.00303238,0.00951339,-0.0030791,-1.31955,0.00758003,0.0244939,615,995,-49.2703,-4.44744
-602,29,-49.3917,4.26678,-0.00180547,0.00724937,-0.00457894,0.00916122,-0.00371732,-1.17527,0.00765366,0.0249265,622,995,-49.3916,-4.26676
-595,29,-49.6031,3.9472,-0.00141362,0.0060834,-0.00552184,0.00900887,-0.00433909,-1.08359,0.00786208,0.0267326,629,995,-49.6031,-3.94719
-588,29,-49.269,2.26605,0,0,0,0,0,0,0,-1,636,995,-49.269,-2.26606
-581,29,-48.7729,1.2998,0,0,0,0,0,0,0,-1,643,995,-48.7729,-1.29983
-574,29,-48.7025,0.864014,0.000767153,0.00360917,-0.00649735,0.00883908,-0.00446276,-0.893056,0.00781714,0.0330349,650,995,-48.7025,-0.863994
-567,29,-48.718,0.732117,0.00102102,0.00334206,-0.00595855,0.00825205,-0.00388898,-0.881577,0.00715891,0.0338285,657,995,-48.718,-0.732124
-560,29,-48.7305,0.648865,0.00122613,0.00301558,-0.00473301,0.00693769,-0.00269599,-0.878815,0.00573891,0.0365199,664,995,-48.7305,-0.64885
-553,29,-48.7698,0.573975,0.00140283,0.00237772,-0.00276744,0.00470031,-0.000919761,-0.872572,0.00348087,0.0393199,671,995,-48.7699,-0.573957
-546,29,-48.7831,0.494873,0.00160111,0.00101414,3.00929e-05,0.00160265,0.0010126,0.0510897,0.000935948,0.0435972,678,995,-48.7831,-0.494868
-539,29,-48.7429,0.553467,0.00177911,-0.0012775,0.00333383,0.00391825,-0.00341664,0.57048,0.0042381,0.0449065,685,995,-48.7429,-0.55345
-532,29,-48.6292,0.851379,0.00275466,-0.00355167,0.0055696,0.00600172,-0.00679873,0.527824,0.00739512,0.0479382,692,995,-48.6292,-0.851389
-525,29,-48.5013,0.979553,0.00374183,-0.004589,0.00537801,0.00637889,-0.00722606,0.455891,0.0078599,0.0454572,699,995,-48.5013,-0.979534
-518,29,0,0,0,0,0,0,0,0,0,-1,706,995,0,0
-511,29,0,0,0,0,0,0,0,0,0,-1,713,995,0,0
-504,29,0,0,0,0,0,0,0,0,0,-1,720,995,0,0
-497,29,0,0,0,0,0,0,0,0,0,-1,727,995,0,0
-490,29,0,0,0,0,0,0,0,0,0,-1,734,995,0,0
-483,29,0,0,0,0,0,0,0,0,0,-1,741,995,0,0
-476,29,0,0,0,0,0,0,0,0,0,-1,748,995,0,0
-469,29,0,0,0,0,0,0,0,0,0,-1,755,995,0,0
-462,29,0,0,0,0,0,0,0,0,0,-1,762,995,0,0
-455,29,0,0,0,0,0,0,0,0,0,-1,769,995,0,0
-448,29,0,0,0,0,0,0,0,0,0,-1,776,995,0,0
-441,29,0,0,0,0,0,0,0,0,0,-1,783,995,0,0
-434,29,0,0,0,0,0,0,0,0,0,-1,790,995,0,0
-427,29,0,0,0,0,0,0,0,0,0,-1,797,995,0,0
-420,29,0,0,0,0,0,0,0,0,0,-1,804,995,0,0
-413,29,0,0,0,0,0,0,0,0,0,-1,811,995,0,0
-406,29,0,0,0,0,0,0,0,0,0,-1,818,995,0,0
-399,29,0,0,0,0,0,0,0,0,0,-1,825,995,0,0
-392,29,0,0,0,0,0,0,0,0,0,-1,832,995,0,0
-385,29,0,0,0,0,0,0,0,0,0,-1,839,995,0,0
-378,29,0,0,0,0,0,0,0,0,0,-1,846,995,0,0
-371,29,0,0,0,0,0,0,0,0,0,-1,853,995,0,0
-364,29,0,0,0,0,0,0,0,0,0,-1,860,995,0,0
-357,29,0,0,0,0,0,0,0,0,0,-1,867,995,0,0
-350,29,0,0,0,0,0,0,0,0,0,-1,874,995,0,0
-343,29,0,0,0,0,0,0,0,0,0,-1,881,995,0,0
-336,29,0,0,0,0,0,0,0,0,0,-1,888,995,0,0
-329,29,0,0,0,0,0,0,0,0,0,-1,895,995,0,0
-322,29,0,0,0,0,0,0,0,0,0,-1,902,995,0,0
-315,29,0,0,0,0,0,0,0,0,0,-1,909,995,0,0
-308,29,0,0,0,0,0,0,0,0,0,-1,916,995,0,0
-301,29,0,0,0,0,0,0,0,0,0,-1,923,995,0,0
-294,29,0,0,0,0,0,0,0,0,0,-1,930,995,0,0
-287,29,0,0,0,0,0,0,0,0,0,-1,937,995,0,0
-280,29,0,0,0,0,0,0,0,0,0,-1,944,995,0,0
-273,29,0,0,0,0,0,0,0,0,0,-1,951,995,0,0
-266,29,0,0,0,0,0,0,0,0,0,-1,958,995,0,0
-259,29,0,0,0,0,0,0,0,0,0,-1,965,995,0,0
-252,29,0,0,0,0,0,0,0,0,0,-1,972,995,0,0
-245,29,0,0,0,0,0,0,0,0,0,-1,979,995,0,0
-238,29,0,0,0,0,0,0,0,0,0,-1,986,995,0,0
-231,29,0,0,0,0,0,0,0,0,0,-1,993,995,0,0
-224,29,0,0,0,0,0,0,0,0,0,-1,1000,995,0,0
-217,29,0,0,0,0,0,0,0,0,0,-1,1007,995,0,0
-210,29,0,0,0,0,0,0,0,0,0,-1,1014,995,0,0
-203,29,0,0,0,0,0,0,0,0,0,-1,1021,995,0,0
-196,29,0,0,0,0,0,0,0,0,0,-1,1028,995,0,0
-189,29,0,0,0,0,0,0,0,0,0,-1,1035,995,0,0
-182,29,0,0,0,0,0,0,0,0,0,-1,1042,995,0,0
-175,29,0,0,0,0,0,0,0,0,0,-1,1049,995,0,0
-168,29,0,0,0,0,0,0,0,0,0,-1,1056,995,0,0
-161,29,0,0,0,0,0,0,0,0,0,-1,1063,995,0,0
-154,29,0,0,0,0,0,0,0,0,0,-1,1070,995,0,0
-147,29,0,0,0,0,0,0,0,0,0,-1,1077,995,0,0
-140,29,0,0,0,0,0,0,0,0,0,-1,1084,995,0,0
-133,29,0,0,0,0,0,0,0,0,0,-1,1091,995,0,0
-126,29,0,0,0,0,0,0,0,0,0,-1,1098,995,0,0
-119,29,0,0,0,0,0,0,0,0,0,-1,1105,995,0,0
-112,29,0,0,0,0,0,0,0,0,0,-1,1112,995,0,0
-105,29,0,0,0,0,0,0,0,0,0,-1,1119,995,0,0
-98,29,0,0,0,0,0,0,0,0,0,-1,1126,995,0,0
-91,29,0,0,0,0,0,0,0,0,0,-1,1133,995,0,0
-84,29,0,0,0,0,0,0,0,0,0,-1,1140,995,0,0
-77,29,0,0,0,0,0,0,0,0,0,-1,1147,995,0,0
-70,29,0,0,0,0,0,0,0,0,0,-1,1154,995,0,0
-63,29,0,0,0,0,0,0,0,0,0,-1,1161,995,0,0
-56,29,0,0,0,0,0,0,0,0,0,-1,1168,995,0,0
-49,29,0,0,0,0,0,0,0,0,0,-1,1175,995,0,0
-42,29,0,0,0,0,0,0,0,0,0,-1,1182,995,0,0
-35,29,0,0,0,0,0,0,0,0,0,-1,1189,995,0,0
-28,29,0,0,0,0,0,0,0,0,0,-1,1196,995,0,0
-21,29,0,0,0,0,0,0,0,0,0,-1,1203,995,0,0
-14,29,0,0,0,0,0,0,0,0,0,-1,1210,995,0,0
-7,29,0,0,0,0,0,0,0,0,0,-1,1217,995,0,0
0,29,0,0,0,0,0,0,0,0,0,-1,1224,995,0,0
7,29,0,0,0,0,0,0,0,0,0,-1,1231,995,0,0
14,29,0,0,0,0,0,0,0,0,0,-1,1238,995,0,0
21,29,0,0,0,0,0,0,0,0,0,-1,1245,995,0,0
28,29,0,0,0,0,0,0,0,0,0,-1,1252,995,0,0
35,29,0,0,0,0,0,0,0,0,0,-1,1259,995,0,0
42,29,0,0,0,0,0,0,0,0,0,-1,1266,995,0,0
49,29,0,0,0,0,0,0,0,0,0,-1,1273,995,0,0
56,29,0,0,0,0,0,0,0,0,0,-1,1280,995,0,0
63,29,0,0,0,0,0,0,0,0,0,-1,1287,995,0,0
70,29,0,0,0,0,0,0,0,0,0,-1,1294,995,0,0
77,29,0,0,0,0,0,0,0,0,0,-1,1301,995,0,0
84,29,0,0,0,0,0,0,0,0,0,-1,1308,995,0,0
91,29,0,0,0,0,0,0,0,0,0,-1,1315,995,0,0
98,29,0,0,0,0,0,0,0,0,0,-1,1322,995,0,0
105,29,0,0,0,0,0,0,0,0,0,-1,1329,995,0,0
112,29,0,0,0,0,0,0,0,0,0,-1,1336,995,0,0
119,29,0,0,0,0,0,0,0,0,0,-1,1343,995,0,0
126,29,0,0,0,0,0,0,0,0,0,-1,1350,995,0,0
133,29,0,0,0,0,0,0,0,0,0,-1,1357,995,0,0
140,29,0,0,0,0,0,0,0,0,0,-1,1364,995,0,0
147,29,0,0,0,0,0,0,0,0,0,-1,1371,995,0,0
154,29,0,0,0,0,0,0,0,0,0,-1,1378,995,0,0
161,29,0,0,0,0,0,0,0,0,0,-1,1385,995,0,0
168,29,0,0,0,0,0,0,0,0,0,-1,1392,995,0,0
175,29,0,0,0,0,0,0,0,0,0,-1,1399,995,0,0
182,29,0,0,0,0,0,0,0,0,0,-1,1406,995,0,0
189,29,0,0,0,0,0,0,0,0,0,-1,1413,995,0,0
196,29,0,0,0,0,0,0,0,0,0,-1,1420,995,0,0
203,29,0,0,0,0,0,0,0,0,0,-1,1427,995,0,0
210,29,0,0,0,0,0,0,0,0,0,-1,1434,995,0,0
217,29,0,0,0,0,0,0,0,0,0,-1,1441,995,0,0
224,29,0,0,0,0,0,0,0,0,0,-1,1448,995,0,0
231,29,0,0,0,0,0,0,0,0,0,-1,1455,995,0,0
238,29,0,0,0,0,0,0,0,0,0,-1,1462,995,0,0
245,29,0,0,0,0,0,0,0,0,0,-1,1469,995,0,0
252,29,0,0,0,0,0,0,0,0,0,-1,1476,995,0,0
259,29,0,0,0,0,0,0,0,0,0,-1,1483,995,0,0
266,29,0,0,0,0,0,0,0,0,0,-1,1490,995,0,0
273,29,0,0,0,0,0,0,0,0,0,-1,1497,995,0,0
280,29,0,0,0,0,0,0,0,0,0,-1,1504,995,0,0
287,29,0,0,0,0,0,0,0,0,0,-1,1511,995,0,0
294,29,0,0,0,0,0,0,0,0,0,-1,1518,995,0,0
301,29,0,0,0,0,0,0,0,0,0,-1,1525,995,0,0
308,29,0,0,0,0,0,0,0,0,0,-1,1532,995,0,0
315,29,0,0,0,0,0,0,0,0,0,-1,1539,995,0,0
322,29,0,0,0,0,0,0,0,0,0,-1,1546,995,0,0
329,29,0,0,0,0,0,0,0,0,0,-1,1553,995,0,0
336,29,0,0,0,0,0,0,0,0,0,-1,1560,995,0,0
343,29,0,0,0,0,0,0,0,0,0,-1,1567,995,0,0
350,29,0,0,0,0,0,0,0,0,0,-1,1574,995,0,0
357,29,0,0,0,0,0,0,0,0,0,-1,1581,995,0,0
364,29,0,0,0,0,0,0,0,0,0,-1,1588,995,0,0
371,29,0,0,0,0,0,0,0,0,0,-1,1595,995,0,0
378,29,0,0,0,0,0,0,0,0,0,-1,1602,995,0,0
385,29,0,0,0,0,0,0,0,0,0,-1,1609,995,0,0
392,29,0,0,0,0,0,0,0,0,0,-1,1616,995,0,0
399,29,0,0,0,0,0,0,0,0,0,-1,1623,995,0,0
406,29,0,0,0,0,0,0,0,0,0,-1,1630,995,0,0
413,29,0,0,0,0,0,0,0,0,0,-1,1637,995,0,0
420,29,0,0,0,0,0,0,0,0,0,-1,1644,995,0,0
427,29,0,0,0,0,0,0,0,0,0,-1,1651,995,0,0
434,29,0,0,0,0,0,0,0,0,0,-1,1658,995,0,0
441,29,0,0,0,0,0,0,0,0,0,-1,1665,995,0,0
448,29,0,0,0,0,0,0,0,0,0,-1,1672,995,0,0
455,29,0,0,0,0,0,0,0,0,0,-1,1679,995,0,0
462,29,0,0,0,0,0,0,0,0,0,-1,1686,995,0,0
469,29,0,0,0,0,0,0,0,0,0,-1,1693,995,0,0
476,29,0,0,0,0,0,0,0,0,0,-1,1700,995,0,0
483,29,0,0,0,0,0,0,0,0,0,-1,1707,995,0,0
490,29,0,0,0,0,0,0,0,0,0,-1,1714,995,0,0
497,29,0,0,0,0,0,0,0,0,0,-1,1721,995,0,0
504,29,0,0,0,0,0,0,0,0,0,-1,1728,995,0,0
511,29,0,0,0,0,0,0,0,0,0,-1,1735,995,0,0
518,29,0,0,0,0,0,0,0,0,0,-1,1742,995,0,0
525,29,0,0,0,0,0,0,0,0,0,-1,1749,995,0,0
532,29,0,0,0,0,0,0,0,0,0,-1,1756,995,0,0
539,29,0,0,0,0,0,0,0,0,0,-1,1763,995,0,0
546,29,0,0,0,0,0,0,0,0,0,-1,1770,995,0,0
553,29,0,0,0,0,0,0,0,0,0,-1,1777,995,0,0
560,29,0,0,0,0,0,0,0,0,0,-1,1784,995,0,0
567,29,0,0,0,0,0,0,0,0,0,-1,1791,995,0,0
574,29,0,0,0,0,0,0,0,0,0,-1,1798,995,0,0
581,29,0,0,0,0,0,0,0,0,0,-1,1805,995,0,0
588,29,0,0,0,0,0,0,0,0,0,-1,1812,995,0,0
595,29,0,0,0,0,0,0,0,0,0,-1,1819,995,0,0
602,29,0,0,0,0,0,0,0,0,0,-1,1826,995,0,0
609,29,0,0,0,0,0,0,0,0,0,-1,1833,995,0,0
616,29,0,0,0,0,0,0,0,0,0,-1,1840,995,0,0
623,29,0,0,0,0,0,0,0,0,0,-1,1847,995,0,0
630,29,0,0,0,0,0,0,0,0,0,-1,1854,995,0,0
637,29,0,0,0,0,0,0,0,0,0,-1,1861,995,0,0
644,29,64.2563,2.70831,0.00424967,0.00214121,-0.000402086,0.00432375,0.00206714,-0.182186,0.00249712,0.0417195,1868,995,64.2563,-2.70831
651,29,64.2308,2.95581,0.00263096,0.00137098,-0.000893264,0.00309404,0.000907896,-0.478271,0.00183646,0.0425731,1875,995,64.2308,-2.9558
658,29,64.3419,2.83728,0.00138729,0.000826545,-0.00089276,0.00204267,0.000171165,-0.633251,0.00130846,0.0408547,1882,995,64.342,-2.83729
665,29,64.5215,2.77576,0.000413745,0.000712758,-0.00036753,0.000960027,0.000166476,-0.97857,0.000592376,0.0392315,1889,995,64.5215,-2.77573
672,29,64.4103,2.68195,-0.000436942,0.00094424,0.000463359,0.00108528,-0.000577987,1.27531,0.000975065,0.0385329,1896,995,64.4103,-2.68192
679,29,64.2783,2.6452,-0.00097817,0.00112229,0.00141184,0.00183168,-0.00168756,1.10518,0.0020324,0.0382939,1903,995,64.2784,-2.64522
686,29,64.267,2.64606,-0.00119283,0.00109402,0.00218566,0.00241727,-0.00251609,1.0264,0.00284847,0.0368969,1910,995,64.267,-2.64604
693,29,64.2737,2.65607,-0.00124174,0.000914555,0.00272575,0.00276764,-0.00309483,0.973727,0.00338645,0.0387775,1917,995,64.2737,-2.65606
700,29,64.2332,2.62225,-0.00130718,0.000844209,0.00285645,0.0028208,-0.00328377,0.965477,0.00352785,0.0357751,1924,995,64.2332,-2.62227
707,29,64.2361,2.578,-0.00168179,0.00116548,0.00272745,0.00281848,-0.00333479,1.02593,0.00355676,0.0234566,1931,995,64.2361,-2.57801
714,29,64.1302,3.2005,-0.0024627,0.00184552,0.00248756,0.00298202,-0.00359921,1.14224,0.00380524,0.0463913,1938,995,64.1302,-3.20051
721,29,63.7448,5.7829,0,0,0,0,0,0,0,-1,1945,995,63.7447,-5.78291
728,29,63.9353,6.11414,-0.00469024,0.00434547,0.00170597,0.00465684,-0.0050016,1.39027,0.00557749,0.0347118,1952,995,63.9353,-6.11413
735,29,63.9546,6.40265,-0.00552729,0.00590189,0.00118792,0.00602406,-0.00564945,1.46832,0.00674086,0.0178975,1959,995,63.9546,-6.40264
742,29,63.9186,6.5802,-0.00654447,0.00797462,0.000648212,0.0080035,-0.00657335,1.52627,0.00842944,0.0144413,1966,995,63.9186,-6.58023
749,29,63.8967,6.81128,-0.00764799,0.0105438,6.26098e-05,0.0105441,-0.0076482,1.56735,0.0105476,0.0148104,1973,995,63.8967,-6.81126
756,29,63.8827,7.04218,-0.00861534,0.0138333,-8.68008e-05,0.0138336,-0.00861567,-1.56693,0.0130773,0.0136433,1980,995,63.8827,-7.04216
763,29,63.802,7.19769,-0.00916918,0.0182607,5.45606e-05,0.0182608,-0.00916929,1.56881,0.0161241,0.0126608,1987,995,63.8021,-7.1977
770,29,63.6812,7.34552,-0.00837577,0.0239668,0.0013603,0.0240239,-0.00843288,1.52884,0.0194462,0.0176043,1994,995,63.6812,-7.34554
777,29,63.5762,7.59296,-0.00579904,0.0302623,0.00380381,0.0306592,-0.0061959,1.46684,0.0227873,0.0290729,2001,995,63.5762,-7.59296
784,29,63.4854,7.78247,-0.000804402,0.0364141,0.00746464,0.0378554,-0.00224571,1.38006,0.0260179,0.0425636,2008,995,63.4854,-7.78249
791,29,63.3745,7.91187,0.00771834,0.042156,0.0127519,0.0463638,0.00351056,1.25207,0.029808,0.0439641,2015,995,63.3746,-7.91186
798,29,63.3755,7.92877,0,0,0,0,0,0,0,-1,2022,995,63.3754,-7.92876
805,29,63.1663,0.00994873,0,0,0,0,0,0,0,-1,2029,995,63.1664,-0.00993109
812,29,62.6055,-0.592224,0,0,0,0,0,0,0,-1,2036,995,62.6055,0.592229
-700,22,0,0,0,0,0,0,0,0,0,-1,524,1002,0,0
-693,22,-43.5366,1.10907,0,0,0,0,0,0,0,-1,531,1002,-43.5365,-1.10907
-686,22,-55.0328,-0.456909,0,0,0,0,0,0,0,-1,538,1002,-55.0328,0.456881
-679,22,-55.0422,-0.527588,0,0,0,0,0,0,0,-1,545,1002,-55.0422,0.527594
-672,22,-47.4214,4.49316,0,0,0,0,0,0,0,-1,552,1002,-47.4215,-4.49319
-665,22,-47.572,4.12518,0,0,0,0,0,0,0,-1,559,1002,-47.572,-4.1252
-658,22,-47.3636,3.67255,0,0,0,0,0,0,0,-1,566,1002,-47.3636,-3.67255
-651,22,-48.3901,3.99554,0,0,0,0,0,0,0,-1,573,1002,-48.3901,-3.99554
-644,22,-49.0408,4.35864,0.00548368,0.0408911,0.00821312,0.0427035,0.00367132,1.35361,0.0273275,0.0428981,580,1002,-49.0408,-4.35867
-637,22,-49.4564,4.63202,-0.00129124,0.0301582,0.0043458,0.0307477,-0.00188071,1.43598,0.0211533,0.0277093,587,1002,-49.4565,-4.63201
-630,22,-49.441,4.65417,-0.00394687,0.0208744,0.00200661,0.0210356,-0.00410804,1.49065,0.0155747,0.0148156,594,1002,-49.441,-4.65415
-623,22,-49.4583,4.57819,-0.00376721,0.0150206,0.0002553,0.0150241,-0.00377068,1.55721,0.0114812,0.0127472,601,1002,-49.4582,-4.57821
-616,22,-49.4368,4.4231,-0.00305081,0.0108278,-0.00156598,0.0110023,-0.00322531,-1.45982,0.00861368,0.0200517,608,1002,-49.4368,-4.42307
-609,22,-49.4874,4.33881,-0.00229046,0.00812267,-0.00316698,0.00901021,-0.003178,-1.29756,0.00730047,0.0323477,615,1002,-49.4874,-4.3388
-602,22,-49.6868,4.28265,-0.00179643,0.00662667,-0.00451846,0.00859198,-0.00376174,-1.16053,0.0073119,0.0307661,622,1002,-49.6868,-4.28268
-595,22,-49.8469,4.0329,-0.00128351,0.0055544,-0.00532941,0.00846726,-0.00419637,-1.0706,0.00744866,0.0343062,629,1002,-49.8469,-4.03291
-588,22,-49.812,3.67761,0,0,0,0,0,0,0,-1,636,1002,-49.812,-3.6776
-581,22,-48.6859,1.00391,0,0,0,0,0,0,0,-1,643,1002,-48.6859,-1.00391
-574,22,-48.7247,0.907043,0.00109149,0.00326903,-0.00595242,0.00823143,-0.00387091,-0.875854,0.00713687,0.0382771,650,1002,-48.7246,-0.907041
-567,22,-48.7546,0.821289,0.00135456,0.00308592,-0.00529529,0.00758583,-0.00314534,-0.866422,0.00637,0.0333754,657,1002,-48.7546,-0.821307
-560,22,-48.7924,0.796387,0.00152341,0.00288427,-0.00395433,0.00621628,-0.00180861,-0.8706,0.00486055,0.0365529,664,1002,-48.7924,-0.796378
-553,22,-48.8837,0.814392,0.0015577,0.0023595,-0.00185357,0.00385503,6.21668e-05,-0.891901,0.00254955,0.0401096,671,1002,-48.8837,-0.814397
-546,22,-48.7585,0.74939,0.00148398,0.00104689,0.00112454,0.00241101,0.000119855,0.689425,0.00156892,0.0415659,678,1002,-48.7585,-0.749414
-539,22,-48.7471,0.63678,0.00123897,-0.00120165,0.00458951,0.00476763,-0.00473031,0.655459,0.00548365,0.0431725,685,1002,-48.7472,-0.636763
-532,22,-48.6831,0.758301,0.00169371,-0.0032887,0.00695474,0.00658996,-0.00818496,0.613417,0.00854685,0.0463971,692,1002,-48.6831,-0.758281
-525,22,0,0,0,0,0,0,0,0,0,-1,699,1002,0,0
-518,22,0,0,0,0,0,0,0,0,0,-1,706,1002,0,0
-511,22,0,0,0,0,0,0,0,0,0,-1,713,1002,0,0
-504,22,0,0,0,0,0,0,0,0,0,-1,720,1002,0,0
-497,22,0,0,0,0,0,0,0,0,0,-1,727,1002,0,0
-490,22,0,0,0,0,0,0,0,0,0,-1,734,1002,0,0
-483,22,0,0,0,0,0,0,0,0,0,-1,741,1002,0,0
-476,22,0,0,0,0,0,0,0,0,0,-1,748,1002,0,0
-469,22,0,0,0,0,0,0,0,0,0,-1,755,1002,0,0
-462,22,0,0,0,0,0,0,0,0,0,-1,762,1002,0,0
-455,22,0,0,0,0,0,0,0,0,0,-1,769,1002,0,0
-448,22,0,0,0,0,0,0,0,0,0,-1,776,1002,0,0
-441,22,0,0,0,0,0,0,0,0,0,-1,783,1002,0,0
-434,22,0,0,0,0,0,0,0,0,0,-1,790,1002,0,0
-427,22,0,0,0,0,0,0,0,0,0,-1,797,1002,0,0
-420,22,0,0,0,0,0,0,0,0,0,-1,804,1002,0,0
-413,22,0,0,0,0,0,0,0,0,0,-1,811,1002,0,0
-406,22,0,0,0,0,0,0,0,0,0,-1,818,1002,0,0
-399,22,0,0,0,0,0,0,0,0,0,-1,825,1002,0,0
-392,22,0,0,0,0,0,0,0,0,0,-1,832,1002,0,0
-385,22,0,0,0,0,0,0,0,0,0,-1,839,1002,0,0
-378,22,0,0,0,0,0,0,0,0,0,-1,846,1002,0,0
-371,22,0,0,0,0,0,0,0,0,0,-1,853,1002,0,0
-364,22,0,0,0,0,0,0,0,0,0,-1,860,1002,0,0
-357,22,0,0,0,0,0,0,0,0,0,-1,867,1002,0,0
-350,22,0,0,0,0,0,0,0,0,0,-1,874,1002,0,0
-343,22,0,0,0,0,0,0,0,0,0,-1,881,1002,0,0
-336,22,0,0,0,0,0,0,0,0,0,-1,888,1002,0,0
-329,22,0,0,0,0,0,0,0,0,0,-1,895,1002,0,0
-322,22,0,0,0,0,0,0,0,0,0,-1,902,1002,0,0
-315,22,0,0,0,0,0,0,0,0,0,-1,909,1002,0,0
-308,22,0,0,0,0,0,0,0,0,0,-1,916,1002,0,0
-301,22,0,0,0,0,0,0,0,0,0,-1,923,1002,0,0
-294,22,0,0,0,0,0,0,0,0,0,-1,930,1002,0,0
-287,22,0,0,0,0,0,0,0,0,0,-1,937,1002,0,0
-280,22,0,0,0,0,0,0,0,0,0,-1,944,1002,0,0
-273,22,0,0,0,0,0,0,0,0,0,-1,951,1002,0,0
-266,22,0,0,0,0,0,0,0,0,0,-1,958,1002,0,0
-259,22,0,0,0,0,0,0,0,0,0,-1,965,1002,0,0
-252,22,0,0,0,0,0,0,0,0,0,-1,972,1002,0,0
-245,22,0,0,0,0,0,0,0,0,0,-1,979,1002,0,0
-238,22,0,0,0,0,0,0,0,0,0,-1,986,1002,0,0
-231,22,0,0,0,0,0,0,0,0,0,-1,993,1002,0,0
-224,22,0,0,0,0,0,0,0,0,0,-1,1000,1002,0,0
-217,22,0,0,0,0,0,0,0,0,0,-1,1007,1002,0,0
-210,22,0,0,0,0,0,0,0,0,0,-1,1014,1002,0,0
-203,22,0,0,0,0,0,0,0,0,0,-1,1021,1002,0,0
-196,22,0,0,0,0,0,0,0,0,0,-1,1028,1002,0,0
-189,22,0,0,0,0,0,0,0,0,0,-1,1035,1002,0,0
-182,22,0,0,0,0,0,0,0,0,0,-1,1042,1002,0,0
-175,22,0,0,0,0,0,0,0,0,0,-1,1049,1002,0,0
-168,22,0,0,0,0,0,0,0,0,0,-1,1056,1002,0,0
-161,22,0,0,0,0,0,0,0,0,0,-1,1063,1002,0,0
-154,22,0,0,0,0,0,0,0,0,0,-1,1070,1002,0,0
-147,22,0,0,0,0,0,0,0,0,0,-1,1077,1002,0,0
-140,22,0,0,0,0,0,0,0,0,0,-1,1084,1002,0,0
-133,22,0,0,0,0,0,0,0,0,0,-1,1091,1002,0,0
-126,22,0,0,0,0,0,0,0,0,0,-1,1098,1002,0,0
-119,22,0,0,0,0,0,0,0,0,0,-1,1105,1002,0,0
-112,22,0,0,0,0,0,0,0,0,0,-1,1112,1002,0,0
-105,22,0,0,0,0,0,0,0,0,0,-1,1119,1002,0,0
-98,22,0,0,0,0,0,0,0,0,0,-1,1126,1002,0,0
-91,22,0,0,0,0,0,0,0,0,0,-1,1133,1002,0,0
-84,22,0,0,0,0,0,0,0,0,0,-1,1140,1002,0,0
-77,22,0,0,0,0,0,0,0,0,0,-1,1147,1002,0,0
-70,22,0,0,0,0,0,0,0,0,0,-1,1154,1002,0,0
-63,22,0,0,0,0,0,0,0,0,0,-1,1161,1002,0,0
-56,22,0,0,0,0,0,0,0,0,0,-1,1168,1002,0,0
-49,22,0,0,0,0,0,0,0,0,0,-1,1175,1002,0,0
-42,22,0,0,0,0,0,0,0,0,0,-1,1182,1002,0,0
-35,22,0,0,0,0,0,0,0,0,0,-1,1189,1002,0,0
-28,22,0,0,0,0,0,0,0,0,0,-1,1196,1002,0,0
-21,22,0,0,0,0,0,0,0,0,0,-1,1203,1002,0,0
-14,22,0,0,0,0,0,0,0,0,0,-1,1210,1002,0,0
-7,22,0,0,0,0,0,0,0,0,0,-1,1217,1002,0,0
0,22,0,0,0,0,0,0,0,0,0,-1,1224,1002,0,0
7,22,0,0,0,0,0,0,0,0,0,-1,1231,1002,0,0
14,22,0,0,0,0,0,0,0,0,0,-1,1238,1002,0,0
21,22,0,0,0,0,0,0,0,0,0,-1,1245,1002,0,0
28,22,0,0,0,0,0,0,0,0,0,-1,1252,1002,0,0
35,22,0,0,0,0,0,0,0,0,0,-1,1259,1002,0,0
42,22,0,0,0,0,0,0,0,0,0,-1,1266,1002,0,0
49,22,0,0,0,0,0,0,0,0,0,-1,1273,1002,0,0
56,22,0,0,0,0,0,0,0,0,0,-1,1280,1002,0,0
63,22,0,0,0,0,0,0,0,0,0,-1,1287,1002,0,0
70,22,0,0,0,0,0,0,0,0,0,-1,1294,1002,0,0
77,22,0,0,0,0,0,0,0,0,0,-1,1301,1002,0,0
84,22,0,0,0,0,0,0,0,0,0,-1,1308,1002,0,0
91,22,0,0,0,0,0,0,0,0,0,-1,1315,1002,0,0
98,22,0,0,0,0,0,0,0,0,0,-1,1322,1002,0,0
105,22,0,0,0,0,0,0,0,0,0,-1,1329,1002,0,0
112,22,0,0,0,0,0,0,0,0,0,-1,1336,1002,0,0
119,22,0,0,0,0,0,0,0,0,0,-1,1343,1002,0,0
126,22,0,0,0,0,0,0,0,0,0,-1,1350,1002,0,0
133,22,0,0,0,0,0,0,0,0,0,-1,1357,1002,0,0
140,22,0,0,0,0,0,0,0,0,0,-1,1364,1002,0,0
147,22,0,0,0,0,0,0,0,0,0,-1,1371,1002,0,0
154,22,0,0,0,0,0,0,0,0,0,-1,1378,1002,0,0
161,22,0,0,0,0,0,0,0,0,0,-1,1385,1002,0,0
168,22,0,0,0,0,0,0,0,0,0,-1,1392,1002,0,0
175,22,0,0,0,0,0,0,0,0,0,-1,1399,1002,0,0
182,22,0,0,0,0,0,0,0,0,0,-1,1406,1002,0,0
189,22,0,0,0,0,0,0,0,0,0,-1,1413,1002,0,0
196,22,0,0,0,0,0,0,0,0,0,-1,1420,1002,0,0
203,22,0,0,0,0,0,0,0,0,0,-1,1427,1002,0,0
210,22,0,0,0,0,0,0,0,0,0,-1,1434,1002,0,0
217,22,0,0,0,0,0,0,0,0,0,-1,1441,1002,0,0
224,22,0,0,0,0,0,0,0,0,0,-1,1448,1002,0,0
231,22,0,0,0,0,0,0,0,0,0,-1,1455,1002,0,0
238,22,0,0,0,0,0,0,0,0,0,-1,1462,1002,0,0
245,22,0,0,0,0,0,0,0,0,0,-1,1469,1002,0,0
252,22,0,0,0,0,0,0,0,0,0,-1,1476,1002,0,0
259,22,0,0,0,0,0,0,0,0,0,-1,1483,1002,0,0
266,22,0,0,0,0,0,0,0,0,0,-1,1490,1002,0,0
273,22,0,0,0,0,0,0,0,0,0,-1,1497,1002,0,0
280,22,0,0,0,0,0,0,0,0,0,-1,1504,1002,0,0
287,22,0,0,0,0,0,0,0,0,0,-1,1511,1002,0,0
294,22,0,0,0,0,0,0,0,0,0,-1,1518,1002,0,0
301,22,0,0,0,0,0,0,0,0,0,-1,1525,1002,0,0
308,22,0,0,0,0,0,0,0,0,0,-1,1532,1002,0,0
315,22,0,0,0,0,0,0,0,0,0,-1,1539,1002,0,0
322,22,0,0,0,0,0,0,0,0,0,-1,1546,1002,0,0
329,22,0,0,0,0,0,0,0,0,0,-1,1553,1002,0,0
336,22,0,0,0,0,0,0,0,0,0,-1,1560,1002,0,0
343,22,0,0,0,0,0,0,0,0,0,-1,1567,1002,0,0
350,22,0,0,0,0,0,0,0,0,0,-1,1574,1002,0,0
357,22,0,0,0,0,0,0,0,0,0,-1,1581,1002,0,0
364,22,0,0,0,0,0,0,0,0,0,-1,1588,1002,0,0
371,22,0,0,0,0,0,0,0,0,0,-1,1595,1002,0,0
378,22,0,0,0,0,0,0,0,0,0,-1,1602,1002,0,0
385,22,0,0,0,0,0,0,0,0,0,-1,1609,1002,0,0
392,22,0,0,0,0,0,0,0,0,0,-1,1616,1002,0,0
399,22,0,0,0,0,0,0,0,0,0,-1,1623,1002,0,0
406,22,0,0,0,0,0,0,0,0,0,-1,1630,1002,0,0
413,22,0,0,0,0,0,0,0,0,0,-1,1637,1002,0,0
420,22,0,0,0,0,0,0,0,0,0,-1,1644,1002,0,0
427,22,0,0,0,0,0,0,0,0,0,-1,1651,1002,0,0
434,22,0,0,0,0,0,0,0,0,0,-1,1658,1002,0,0
441,22,0,0,0,0,0,0,0,0,0,-1,1665,1002,0,0
448,22,0,0,0,0,0,0,0,0,0,-1,1672,1002,0,0
455,22,0,0,0,0,0,0,0,0,0,-1,1679,1002,0,0
462,22,0,0,0,0,0,0,0,0,0,-1,1686,1002,0,0
469,22,0,0,0,0,0,0,0,0,0,-1,1693,1002,0,0
476,22,0,0,0,0,0,0,0,0,0,-1,1700,1002,0,0
483,22,0,0,0,0,0,0,0,0,0,-1,1707,1002,0,0
490,22,0,0,0,0,0,0,0,0,0,-1,1714,1002,0,0
497,22,0,0,0,0,0,0,0,0,0,-1,1721,1002,0,0
504,22,0,0,0,0,0,0,0,0,0,-1,1728,1002,0,0
511,22,0,0,0,0,0,0,0,0,0,-1,1735,1002,0,0
518,22,0,0,0,0,0,0,0,0,0,-1,1742,1002,0,0
525,22,0,0,0,0,0,0,0,0,0,-1,1749,1002,0,0
532,22,0,0,0,0,0,0,0,0,0,-1,1756,1002,0,0
539,22,0,0,0,0,0,0,0,0,0,-1,1763,1002,0,0
546,22,0,0,0,0,0,0,0,0,0,-1,1770,1002,0,0
553,22,0,0,0,0,0,0,0,0,0,-1,1777,1002,0,0
560,22,0,0,0,0,0,0,0,0,0,-1,1784,1002,0,0
567,22,0,0,0,0,0,0,0,0,0,-1,1791,1002,0,0
574,22,0,0,0,0,0,0,0,0,0,-1,1798,1002,0,0
581,22,0,0,0,0,0,0,0,0,0,-1,1805,1002,0,0
588,22,0,0,0,0,0,0,0,0,0,-1,1812,1002,0,0
595,22,0,0,0,0,0,0,0,0,0,-1,1819,1002,0,0
602,22,0,0,0,0,0,0,0,0,0,-1,1826,1002,0,0
609,22,0,0,0,0,0,0,0,0,0,-1,1833,1002,0,0
616,22,0,0,0,0,0,0,0,0,0,-1,1840,1002,0,0
623,22,0,0,0,0,0,0,0,0,0,-1,1847,1002,0,0
630,22,0,0,0,0,0,0,0,0,0,-1,1854,1002,0,0
637,22,0,0,0,0,0,0,0,0,0,-1,1861,1002,0,0
644,22,64.2212,2.78027,0.00462901,0.00183892,0.000749408,0.00481756,0.00165038,0.246479,0.002827,0.0406063,1868,1002,64.2212,-2.7803
651,22,64.2383,2.92816,0.00280991,0.00123108,-8.84564e-05,0.00281485,0.00122614,-0.0557936,0.00162964,0.0426083,1875,1002,64.2382,-2.92815
658,22,64.3416,2.88586,0.0014912,0.000740338,-0.000363817,0.00163856,0.000592978,-0.384844,0.00095798,0.0405962,1882,1002,64.3416,-2.88588
665,22,64.4163,2.83569,0.000499467,0.000603616,-5.55262e-05,0.000627666,0.000475418,-1.16206,0.000378055,0.0370536,1889,1002,64.4162,-2.8357
672,22,64.3326,2.72357,-0.000327986,0.000807878,0.000603223,0.00106845,-0.000588561,1.16304,0.000969959,0.036782,1896,1002,64.3327,-2.72357
679,22,64.2102,2.62665,-0.000861173,0.000993579,0.0014302,0.00177076,-0.00163835,1.07303,0.00196874,0.0378115,1903,1002,64.2102,-2.62666
686,22,64.2328,2.64368,-0.00114434,0.000968562,0.00214853,0.00230633,-0.00248211,1.01389,0.00276523,0.0376083,1910,1002,64.2328,-2.64366
693,22,64.2822,2.67596,-0.00124606,0.000801027,0.00266972,0.00263669,-0.00308172,0.968451,0.00330486,0.0395005,1917,1002,64.2822,-2.67597
700,22,64.2954,2.64777,-0.00130409,0.000701288,0.0028257,0.00269693,-0.00329973,0.955891,0.003468,0.0355159,1924,1002,64.2954,-2.64779
707,22,64.2067,2.63586,-0.00172245,0.00100078,0.00272513,0.00268552,-0.0034072,1.01708,0.00352585,0.0302346,1931,1002,64.2067,-2.63585
714,22,64.1531,2.85248,-0.00254931,0.00171241,0.00252109,0.00288252,-0.00371943,1.13625,0.00382183,0.0436379,1938,1002,64.1531,-2.85246
721,22,64.0886,3.40308,0,0,0,0,0,0,0,-1,1945,1002,64.0886,-3.40306
728,22,63.8046,6.28296,0,0,0,0,0,0,0,-1,1952,1002,63.8046,-6.28293
735,22,64.1128,6.48035,-0.00586405,0.00588047,0.00134862,0.00603334,-0.00601692,1.45792,0.00695722,0.0186595,1959,1002,64.1128,-6.48036
742,22,64.1332,6.62897,-0.00687597,0.00785724,0.000884211,0.00791012,-0.00692885,1.51107,0.00857352,0.0177644,1966,1002,64.1332,-6.62897
749,22,64.0718,6.79816,-0.00803724,0.0102493,0.000338542,0.0102555,-0.0080435,1.55229,0.0105907,0.0128525,1973,1002,64.0718,-6.79816
756,22,64.0587,6.94464,-0.00908942,0.0132977,0.000106705,0.0132982,-0.00908992,1.56603,0.0130017,0.01757,1980,1002,64.0587,-6.94467
763,22,63.9807,7.0885,-0.00969686,0.017413,-1.35512e-05,0.017413,-0.00969686,-1.5703,0.0158618,0.0201443,1987,1002,63.9808,-7.08853
770,22,63.792,7.21796,-0.0090683,0.022705,0.000831313,0.0227268,-0.00909003,1.54466,0.0189235,0.0200216,1994,1002,63.792,-7.21794
777,22,63.4731,7.26965,-0.00670797,0.0285867,0.00261173,0.0287789,-0.00690019,1.49733,0.0218522,0.040393,2001,1002,63.4731,-7.26964
784,22,63.2217,7.3584,0,0,0,0,0,0,0,-1,2008,1002,63.2217,-7.35842
791,22,62.9243,7.24066,0,0,0,0,0,0,0,-1,2015,1002,62.9244,-7.24065
798,22,62.7058,7.48309,0,0,0,0,0,0,0,-1,2022,1002,62.7058,-7.48308
805,22,63.2781,0.53009,0,0,0,0,0,0,0,-1,2029,1002,63.2782,-0.530111
812,22,62.8589,-0.0293579,0,0,0,0,0,0,0,-1,2036,1002,62.8589,0.0293506
-700,15,0,0,0,0,0,0,0,0,0,-1,524,1009,0,0
-693,15,-44.4698,1.17126,0,0,0,0,0,0,0,-1,531,1009,-44.4698,-1.17123
-686,15,-43.9474,2.565,0,0,0,0,0,0,0,-1,538,1009,-43.9474,-2.56499
-679,15,-53.7538,-0.429077,0,0,0,0,0,0,0,-1,545,1009,-53.7538,0.429056
-672,15,-47.6682,4.46332,0,0,0,0,0,0,0,-1,552,1009,-47.6682,-4.46331
-665,15,-47.9983,4.03473,0,0,0,0,0,0,0,-1,559,1009,-47.9983,-4.03472
-658,15,-47.1657,3.09033,0,0,0,0,0,0,0,-1,566,1009,-47.1657,-3.09034
-651,15,-46.6028,3.43073,0,0,0,0,0,0,0,-1,573,1009,-46.6028,-3.4307
-644,15,-49.2825,4.27124,0,0,0,0,0,0,0,-1,580,1009,-49.2825,-4.27124
-637,15,-49.4675,4.56842,0.00144639,0.0281208,0.00526572,0.0291227,0.000444531,1.38278,0.0192686,0.0303265,587,1009,-49.4675,-4.5684
-630,15,-49.4901,4.53632,-0.00289447,0.0193013,0.0018693,0.0194577,-0.0030508,1.48736,0.0140992,0.015702,594,1009,-49.49,-4.53634
-623,15,-49.5424,4.48761,-0.0034588,0.0138293,-0.00010719,0.01383,-0.00345946,-1.5646,0.0105637,0.00969584,601,1009,-49.5424,-4.4876
-616,15,-49.5558,4.43158,-0.00291599,0.0100343,-0.00181195,0.0102831,-0.00316473,-1.43437,0.00811857,0.0160385,608,1009,-49.5558,-4.43157
-609,15,-49.6401,4.40417,-0.0022696,0.00751132,-0.00326052,0.00849858,-0.00325686,-1.27678,0.0070083,0.0258265,615,1009,-49.6401,-4.40419
-602,15,-49.7578,4.36176,-0.00187575,0.00597959,-0.00444061,0.00798029,-0.00387645,-1.14749,0.00698084,0.0254492,622,1009,-49.7578,-4.36173
-595,15,-49.8207,4.25323,0,0,0,0,0,0,0,-1,629,1009,-49.8208,-4.25324
-588,15,-48.6259,1.0979,0,0,0,0,0,0,0,-1,636,1009,-48.6258,-1.09791
-581,15,-48.6671,0.963562,0.00060727,0.00316944,-0.00554208,0.00757657,-0.00379986,-0.898981,0.00668775,0.041388,643,1009,-48.6671,-0.963543
-574,15,-48.7246,0.838318,0.00104844,0.0026922,-0.00534153,0.00727471,-0.00353407,-0.861733,0.0063638,0.034476,650,1009,-48.7246,-0.838324
-567,15,-48.7826,0.793823,0.00132573,0.00255235,-0.00457678,0.00655673,-0.00267865,-0.852004,0.00548651,0.0338495,657,1009,-48.7826,-0.793819
-560,15,-48.8271,0.872742,0.00150895,0.00242388,-0.00313448,0.0051341,-0.00120128,-0.85786,0.00388556,0.0395458,664,1009,-48.8271,-0.872741
-553,15,-48.9006,1.04596,0.00152305,0.00198138,-0.000934891,0.00271478,0.000789648,-0.905589,0.00161243,0.0431193,671,1009,-48.9006,-1.04599
-546,15,-48.8816,0.824829,0.00139363,0.000733481,0.00213492,0.00322384,-0.00109673,0.708702,0.00259329,0.0408105,678,1009,-48.8816,-0.824806
-539,15,-48.6722,0.725464,0.00103954,-0.0013851,0.00560901,0.00556575,-0.00591131,0.678966,0.00662728,0.0428488,685,1009,-48.6722,-0.725444
-532,15,-48.7034,0.89325,0.00134675,-0.00316186,0.00793985,0.00734612,-0.00916123,0.647077,0.0095497,0.0446283,692,1009,-48.7034,-0.893263
-525,15,0,0,0,0,0,0,0,0,0,-1,699,1009,0,0
-518,15,0,0,0,0,0,0,0,0,0,-1,706,1009,0,0
-511,15,0,0,0,0,0,0,0,0,0,-1,713,1009,0,0
-504,15,0,0,0,0,0,0,0,0,0,-1,720,1009,0,0
-497,15,0,0,0,0,0,0,0,0,0,-1,727,1009,0,0
-490,15,0,0,0,0,0,0,0,0,0,-1,734,1009,0,0
-483,15,0,0,0,0,0,0,0,0,0,-1,741,1009,0,0
-476,15,0,0,0,0,0,0,0,0,0,-1,748,1009,0,0
-469,15,0,0,0,0,0,0,0,0,0,-1,755,1009,0,0
-462,15,0,0,0,0,0,0,0,0,0,-1,762,1009,0,0
-455,15,0,0,0,0,0,0,0,0,0,-1,769,1009,0,0
-448,15,0,0,0,0,0,0,0,0,0,-1,776,1009,0,0
-441,15,0,0,0,0,0,0,0,0,0,-1,783,1009,0,0
-434,15,0,0,0,0,0,0,0,0,0,-1,790,1009,0,0
-427,15,0,0,0,0,0,0,0,0,0,-1,797,1009,0,0
-420,15,0,0,0,0,0,0,0,0,0,-1,804,1009,0,0
-413,15,0,0,0,0,0,0,0,0,0,-1,811,1009,0,0
-406,15,0,0,0,0,0,0,0,0,0,-1,818,1009,0,0
-399,15,0,0,0,0,0,0,0,0,0,-1,825,1009,0,0
-392,15,0,0,0,0,0,0,0,0,0,-1,832,1009,0,0
-385,15,0,0,0,0,0,0,0,0,0,-1,839,1009,0,0
-378,15,0,0,0,0,0,0,0,0,0,-1,846,1009,0,0
-371,15,0,0,0,0,0,0,0,0,0,-1,853,1009,0,0
-364,15,0,0,0,0,0,0,0,0,0,-1,860,1009,0,0
-357,15,0,0,0,0,0,0,0,0,0,-1,867,1009,0,0
-350,15,0,0,0,0,0,0,0,0,0,-1,874,1009,0,0
-343,15,0,0,0,0,0,0,0,0,0,-1,881,1009,0,0
-336,15,0,0,0,0,0,0,0,0,0,-1,888,1009,0,0
-329,15,0,0,0,0,0,0,0,0,0,-1,895,1009,0,0
-322,15,0,0,0,0,0,0,0,0,0,-1,902,1009,0,0
-315,15,0,0,0,0,0,0,0,0,0,-1,909,1009,0,0
-308,15,0,0,0,0,0,0,0,0,0,-1,916,1009,0,0
-301,15,0,0,0,0,0,0,0,0,0,-1,923,1009,0,0
-294,15,0,0,0,0,0,0,0,0,0,-1,930,1009,0,0
-287,15,0,0,0,0,0,0,0,0,0,-1,937,1009,0,0
-280,15,0,0,0,0,0,0,0,0,0,-1,944,1009,0,0
-273,15,0,0,0,0,0,0,0,0,0,-1,951,1009,0,0
-266,15,0,0,0,0,0,0,0,0,0,-1,958,1009,0,0
-259,15,0,0,0,0,0,0,0,0,0,-1,965,1009,0,0
-252,15,0,0,0,0,0,0,0,0,0,-1,972,1009,0,0
-245,15,0,0,0,0,0,0,0,0,0,-1,979,1009,0,0
-238,15,0,0,0,0,0,0,0,0,0,-1,986,1009,0,0
-231,15,0,0,0,0,0,0,0,0,0,-1,993,1009,0,0
-224,15,0,0,0,0,0,0,0,0,0,-1,1000,1009,0,0
-217,15,0,0,0,0,0,0,0,0,0,-1,1007,1009,0,0
-210,15,0,0,0,0,0,0,0,0,0,-1,1014,1009,0,0
-203,15,0,0,0,0,0,0,0,0,0,-1,1021,1009,0,0
-196,15,0,0,0,0,0,0,0,0,0,-1,1028,1009,0,0
-189,15,0,0,0,0,0,0,0,0,0,-1,1035,1009,0,0
-182,15,0,0,0,0,0,0,0,0,0,-1,1042,1009,0,0
-175,15,0,0,0,0,0,0,0,0,0,-1,1049,1009,0,0
-168,15,0,0,0,0,0,0,0,0,0,-1,1056,1009,0,0
-161,15,0,0,0,0,0,0,0,0,0,-1,1063,1009,0,0
-154,15,0,0,0,0,0,0,0,0,0,-1,1070,1009,0,0
-147,15,0,0,0,0,0,0,0,0,0,-1,1077,1009,0,0
-140,15,0,0,0,0,0,0,0,0,0,-1,1084,1009,0,0
-133,15,0,0,0,0,0,0,0,0,0,-1,1091,1009,0,0
-126,15,0,0,0,0,0,0,0,0,0,-1,1098,1009,0,0
-119,15,0,0,0,0,0,0,0,0,0,-1,1105,1009,0,0
-112,15,0,0,0,0,0,0,0,0,0,-1,1112,1009,0,0
-105,15,0,0,0,0,0,0,0,0,0,-1,1119,1009,0,0
-98,15,0,0,0,0,0,0,0,0,0,-1,1126,1009,0,0
-91,15,0,0,0,0,0,0,0,0,0,-1,1133,1009,0,0
-84,15,0,0,0,0,0,0,0,0,0,-1,1140,1009,0,0
-77,15,0,0,0,0,0,0,0,0,0,-1,1147,1009,0,0
-70,15,0,0,0,0,0,0,0,0,0,-1,1154,1009,0,0
-63,15,0,0,0,0,0,0,0,0,0,-1,1161,1009,0,0
-56,15,0,0,0,0,0,0,0,0,0,-1,1168,1009,0,0
-49,15,0,0,0,0,0,0,0,0,0,-1,1175,1009,0,0
-42,15,0,0,0,0,0,0,0,0,0,-1,1182,1009,0,0
-35,15,0,0,0,0,0,0,0,0,0,-1,1189,1009,0,0
-28,15,0,0,0,0,0,0,0,0,0,-1,1196,1009,0,0
-21,15,0,0,0,0,0,0,0,0,0,-1,1203,1009,0,0
-14,15,0,0,0,0,0,0,0,0,0,-1,1210,1009,0,0
-7,15,0,0,0,0,0,0,0,0,0,-1,1217,1009,0,0
0,15,0,0,0,0,0,0,0,0,0,-1,1224,1009,0,0
7,15,0,0,0,0,0,0,0,0,0,-1,1231,1009,0,0
14,15,0,0,0,0,0,0,0,0,0,-1,1238,1009,0,0
21,15,0,0,0,0,0,0,0,0,0,-1,1245,1009,0,0
28,15,0,0,0,0,0,0,0,0,0,-1,1252,1009,0,0
35,15,0,0,0,0,0,0,0,0,0,-1,1259,1009,0,0
42,15,0,0,0,0,0,0,0,0,0,-1,1266,1009,0,0
49,15,0,0,0,0,0,0,0,0,0,-1,1273,1009,0,0
56,15,0,0,0,0,0,0,0,0,0,-1,1280,1009,0,0
63,15,0,0,0,0,0,0,0,0,0,-1,1287,1009,0,0
70,15,0,0,0,0,0,0,0,0,0,-1,1294,1009,0,0
77,15,0,0,0,0,0,0,0,0,0,-1,1301,1009,0,0
84,15,0,0,0,0,0,0,0,0,0,-1,1308,1009,0,0
91,15,0,0,0,0,0,0,0,0,0,-1,1315,1009,0,0
98,15,0,0,0,0,0,0,0,0,0,-1,1322,1009,0,0
105,15,0,0,0,0,0,0,0,0,0,-1,1329,1009,0,0
112,15,0,0,0,0,0,0,0,0,0,-1,1336,1009,0,0
119,15,0,0,0,0,0,0,0,0,0,-1,1343,1009,0,0
126,15,0,0,0,0,0,0,0,0,0,-1,1350,1009,0,0
133,15,0,0,0,0,0,0,0,0,0,-1,1357,1009,0,0
140,15,0,0,0,0,0,0,0,0,0,-1,1364,1009,0,0
147,15,0,0,0,0,0,0,0,0,0,-1,1371,1009,0,0
154,15,0,0,0,0,0,0,0,0,0,-1,1378,1009,0,0
161,15,0,0,0,0,0,0,0,0,0,-1,1385,1009,0,0
168,15,0,0,0,0,0,0,0,0,0,-1,1392,1009,0,0
175,15,0,0,0,0,0,0,0,0,0,-1,1399,1009,0,0
182,15,0,0,0,0,0,0,0,0,0,-1,1406,1009,0,0
189,15,0,0,0,0,0,0,0,0,0,-1,1413,1009,0,0
196,15,0,0,0,0,0,0,0,0,0,-1,1420,1009,0,0
203,15,0,0,0,0,0,0,0,0,0,-1,1427,1009,0,0
210,15,0,0,0,0,0,0,0,0,0,-1,1434,1009,0,0
217,15,0,0,0,0,0,0,0,0,0,-1,1441,1009,0,0
224,15,0,0,0,0,0,0,0,0,0,-1,1448,1009,0,0
231,15,0,0,0,0,0,0,0,0,0,-1,1455,1009,0,0
238,15,0,0,0,0,0,0,0,0,0,-1,1462,1009,0,0
245,15,0,0,0,0,0,0,0,0,0,-1,1469,1009,0,0
252,15,0,0,0,0,0,0,0,0,0,-1,1476,1009,0,0
259,15,0,0,0,0,0,0,0,0,0,-1,1483,1009,0,0
266,15,0,0,0,0,0,0,0,0,0,-1,1490,1009,0,0
273,15,0,0,0,0,0,0,0,0,0,-1,1497,1009,0,0
280,15,0,0,0,0,0,0,0,0,0,-1,1504,1009,0,0
287,15,0,0,0,0,0,0,0,0,0,-1,1511,1009,0,0
294,15,0,0,0,0,0,0,0,0,0,-1,1518,1009,0,0
301,15,0,0,0,0,0,0,0,0,0,-1,1525,1009,0,0
308,15,0,0,0,0,0,0,0,0,0,-1,1532,1009,0,0
315,15,0,0,0,0,0,0,0,0,0,-1,1539,1009,0,0
322,15,0,0,0,0,0,0,0,0,0,-1,1546,1009,0,0
329,15,0,0,0,0,0,0,0,0,0,-1,1553,1009,0,0
336,15,0,0,0,0,0,0,0,0,0,-1,1560,1009,0,0
343,15,0,0,0,0,0,0,0,0,0,-1,1567,1009,0,0
350,15,0,0,0,0,0,0,0,0,0,-1,1574,1009,0,0
357,15,0,0,0,0,0,0,0,0,0,-1,1581,1009,0,0
364,15,0,0,0,0,0,0,0,0,0,-1,1588,1009,0,0
371,15,0,0,0,0,0,0,0,0,0,-1,1595,1009,0,0
378,15,0,0,0,0,0,0,0,0,0,-1,1602,1009,0,0
385,15,0,0,0,0,0,0,0,0,0,-1,1609,1009,0,0
392,15,0,0,0,0,0,0,0,0,0,-1,1616,1009,0,0
399,15,0,0,0,0,0,0,0,0,0,-1,1623,1009,0,0
406,15,0,0,0,0,0,0,0,0,0,-1,1630,1009,0,0
413,15,0,0,0,0,0,0,0,0,0,-1,1637,1009,0,0
420,15,0,0,0,0,0,0,0,0,0,-1,1644,1009,0,0
427,15,0,0,0,0,0,0,0,0,0,-1,1651,1009,0,0
434,15,0,0,0,0,0,0,0,0,0,-1,1658,1009,0,0
441,15,0,0,0,0,0,0,0,0,0,-1,1665,1009,0,0
448,15,0,0,0,0,0,0,0,0,0,-1,1672,1009,0,0
455,15,0,0,0,0,0,0,0,0,0,-1,1679,1009,0,0
462,15,0,0,0,0,0,0,0,0,0,-1,1686,1009,0,0
469,15,0,0,0,0,0,0,0,0,0,-1,1693,1009,0,0
476,15,0,0,0,0,0,0,0,0,0,-1,1700,1009,0,0
483,15,0,0,0,0,0,0,0,0,0,-1,1707,1009,0,0
490,15,0,0,0,0,0,0,0,0,0,-1,1714,1009,0,0
497,15,0,0,0,0,0,0,0,0,0,-1,1721,1009,0,0
504,15,0,0,0,0,0,0,0,0,0,-1,1728,1009,0,0
511,15,0,0,0,0,0,0,0,0,0,-1,1735,1009,0,0
518,15,0,0,0,0,0,0,0,0,0,-1,1742,1009,0,0
525,15,0,0,0,0,0,0,0,0,0,-1,1749,1009,0,0
532,15,0,0,0,0,0,0,0,0,0,-1,1756,1009,0,0
539,15,0,0,0,0,0,0,0,0,0,-1,1763,1009,0,0
546,15,0,0,0,0,0,0,0,0,0,-1,1770,1009,0,0
553,15,0,0,0,0,0,0,0,0,0,-1,1777,1009,0,0
560,15,0,0,0,0,0,0,0,0,0,-1,1784,1009,0,0
567,15,0,0,0,0,0,0,0,0,0,-1,1791,1009,0,0
574,15,0,0,0,0,0,0,0,0,0,-1,1798,1009,0,0
581,15,0,0,0,0,0,0,0,0,0,-1,1805,1009,0,0
588,15,0,0,0,0,0,0,0,0,0,-1,1812,1009,0,0
595,15,0,0,0,0,0,0,0,0,0,-1,1819,1009,0,0
602,15,0,0,0,0,0,0,0,0,0,-1,1826,1009,0,0
609,15,0,0,0,0,0,0,0,0,0,-1,1833,1009,0,0
616,15,0,0,0,0,0,0,0,0,0,-1,1840,1009,0,0
623,15,0,0,0,0,0,0,0,0,0,-1,1847,1009,0,0
630,15,0,0,0,0,0,0,0,0,0,-1,1854,1009,0,0
637,15,0,0,0,0,0,0,0,0,0,-1,1861,1009,0,0
644,15,64.2448,2.58252,0.00527419,0.00190227,0.00142274,0.00579428,0.00138218,0.350464,0.00349447,0.0407485,1868,1009,64.2448,-2.58255
651,15,64.3363,2.69934,0.00314275,0.00137454,0.000413057,0.00323448,0.0012828,0.218533,0.00188069,0.0386287,1875,1009,64.3363,-2.69934
658,15,64.2903,2.62939,0.00168974,0.000912851,-3.07154e-05,0.00169095,0.000911638,-0.0394543,0.000977268,0.0366574,1882,1009,64.2903,-2.62938
665,15,64.2581,2.53632,0.000634191,0.000738818,0.000123001,0.000820168,0.000552841,0.986465,0.000482994,0.0353838,1889,1009,64.258,-2.53633
672,15,64.2808,2.45496,-0.000197945,0.000893142,0.000652488,0.0011981,-0.000502906,1.13358,0.00100905,0.0357666,1896,1009,64.2807,-2.45495
679,15,64.2977,2.41608,-0.000730289,0.00106853,0.00137556,0.00181263,-0.00147438,1.07494,0.0019011,0.0384422,1903,1009,64.2978,-2.4161
686,15,64.2477,2.34814,-0.00107737,0.00103931,0.0020354,0.00227508,-0.00231314,1.02514,0.00264904,0.0418108,1910,1009,64.2476,-2.34813
693,15,64.2568,2.4397,-0.00124246,0.000886136,0.00254494,0.00258036,-0.00293668,0.983447,0.00318748,0.0402953,1917,1009,64.2568,-2.43967
700,15,64.2711,2.56964,-0.00130524,0.000767159,0.00274106,0.00266134,-0.00319942,0.96611,0.00338846,0.0324567,1924,1009,64.2711,-2.56966
707,15,64.1963,2.67627,-0.00176694,0.00105147,0.00266965,0.00266102,-0.00337649,1.02824,0.0034939,0.0295343,1931,1009,64.1963,-2.67628
714,15,64.1852,2.76477,-0.00262026,0.00177275,0.00250512,0.00290795,-0.00375546,1.14532,0.00385748,0.032158,1938,1009,64.1852,-2.76474
721,15,64.1229,2.89154,0,0,0,0,0,0,0,-1,1945,1009,64.1229,-2.89156
728,15,64.2397,6.43903,0,0,0,0,0,0,0,-1,1952,1009,64.2397,-6.43904
735,15,64.1959,6.59851,-0.00607036,0.0059854,0.00153257,0.00617717,-0.00626213,1.44631,0.00718189,0.0221318,1959,1009,64.196,-6.59848
742,15,64.2169,6.79041,-0.00708489,0.00787146,0.00114041,0.00795792,-0.00717135,1.49513,0.00873882,0.0409335,1966,1009,64.2169,-6.79041
749,15,64.2233,6.85602,-0.00830842,0.0101053,0.000662125,0.0101291,-0.0083322,1.5349,0.0106754,0.02538,1973,1009,64.2233,-6.85603
756,15,64.2152,6.80115,-0.00941866,0.0129965,0.000345212,0.0130018,-0.00942398,1.5554,0.0130023,0.0184812,1980,1009,64.2152,-6.80116
763,15,64.1262,6.93365,-0.0100785,0.0169145,-4.64102e-05,0.0169146,-0.0100786,-1.56908,0.0157502,0.0156965,1987,1009,64.1263,-6.93367
770,15,63.9529,6.99823,-0.00965112,0.0219145,0.000268976,0.0219168,-0.00965341,1.56228,0.0186798,0.0204944,1994,1009,63.953,-6.99822
777,15,63.5439,7.04742,-0.00758406,0.0275619,0.0012303,0.0276049,-0.00762708,1.53585,0.0214035,0.0451294,2001,1009,63.5438,-7.04741
784,15,63.1626,7.11969,0,0,0,0,0,0,0,-1,2008,1009,63.1625,-7.11972
791,15,62.7195,6.48792,0,0,0,0,0,0,0,-1,2015,1009,62.7195,-6.48794
798,15,63.584,1.56018,0,0,0,0,0,0,0,-1,2022,1009,63.5839,-1.56019
805,15,63.3376,1.16541,0,0,0,0,0,0,0,-1,2029,1009,63.3377,-1.16544
812,15,63.1184,0.706116,0,0,0,0,0,0,0,-1,2036,1009,63.1184,-0.706118
-700,8,0,0,0,0,0,0,0,0,0,-1,524,1016,0,0
-693,8,-45.4397,1.22729,0,0,0,0,0,0,0,-1,531,1016,-45.4397,-1.22731
-686,8,-44.9011,2.45471,0,0,0,0,0,0,0,-1,538,1016,-44.9011,-2.45469
-679,8,-44.2122,3.47644,0,0,0,0,0,0,0,-1,545,1016,-44.2122,-3.47645
-672,8,-49.4601,2.72357,0,0,0,0,0,0,0,-1,552,1016,-49.4602,-2.72355
-665,8,-49.0618,3.23566,0,0,0,0,0,0,0,-1,559,1016,-49.0618,-3.23565
-658,8,-48.8156,3.57422,0,0,0,0,0,0,0,-1,566,1016,-48.8156,-3.57421
-651,8,-48.9822,4.03259,0,0,0,0,0,0,0,-1,573,1016,-48.9822,-4.03258
-644,8,-49.2369,4.04407,0,0,0,0,0,0,0,-1,580,1016,-49.237,-4.04409
-637,8,-49.2944,4.24799,0.00488101,0.0261948,0.00676422,0.0281603,0.00291554,1.28801,0.0178811,0.0426673,587,1016,-49.2943,-4.24801
-630,8,-49.5054,4.41113,-0.00105819,0.0180393,0.0022138,0.0182925,-0.00131145,1.45689,0.0126548,0.0250742,594,1016,-49.5054,-4.41113
-623,8,-49.5081,4.48633,-0.00263478,0.012923,-0.000200456,0.0129256,-0.00263736,-1.55791,0.00961748,0.0156059,601,1016,-49.5081,-4.48634
-616,8,-49.5541,4.46161,-0.00256193,0.0094305,-0.0019718,0.00974638,-0.00287782,-1.41195,0.00763972,0.0180447,608,1016,-49.5541,-4.46161
-609,8,-49.6104,4.37402,-0.00219683,0.00701144,-0.00338478,0.00812175,-0.00330714,-1.25383,0.00679083,0.0217718,615,1016,-49.6104,-4.37405
-602,8,-49.5828,4.42352,-0.00201624,0.00531697,-0.0044756,0.00743612,-0.00413539,-1.12858,0.00677081,0.0224433,622,1016,-49.5828,-4.42351
-595,8,-49.6422,4.35938,0,0,0,0,0,0,0,-1,629,1016,-49.6422,-4.35937
-588,8,-48.576,0.758789,0,0,0,0,0,0,0,-1,636,1016,-48.5761,-0.75876
-581,8,-48.6511,0.782104,0.000308137,0.00254302,-0.00509259,0.00663933,-0.00378817,-0.893399,0.00609487,0.0311187,643,1016,-48.6511,-0.782088
-574,8,-48.737,0.663574,0.000770921,0.00211682,-0.00479307,0.00628396,-0.00339621,-0.855143,0.00567113,0.0345172,650,1016,-48.737,-0.663602
-567,8,-48.7999,0.668335,0.00105347,0.00204292,-0.00393974,0.00551888,-0.00242248,-0.847858,0.00469968,0.0402698,657,1016,-48.7999,-0.668362
-560,8,-48.7582,0.823853,0.00127099,0.00202719,-0.00242941,0.00410774,-0.00080957,-0.862596,0.00304445,0.0425831,664,1016,-48.7582,-0.823834
-553,8,-48.7081,0.828247,0.00133783,0.00174324,-0.000183764,0.00181414,0.00126693,-1.20258,0.00107452,0.0420617,671,1016,-48.7081,-0.828233
-546,8,-48.7436,0.879944,0.00130297,0.000686057,0.00289082,0.00390174,-0.00191272,0.732248,0.00342183,0.0417682,678,1016,-48.7436,-0.879952
-539,8,-48.5956,0.940857,0.00104425,-0.00118833,0.00628252,0.00630888,-0.00645296,0.697475,0.00736821,0.0423388,685,1016,-48.5957,-0.940846
-532,8,-48.4902,1.01819,0.00137503,-0.00264892,0.00859861,0.00819392,-0.00946782,0.670472,0.0102058,0.042077,692,1016,-48.4902,-1.01817
-525,8,0,0,0,0,0,0,0,0,0,-1,699,1016,0,0
-518,8,0,0,0,0,0,0,0,0,0,-1,706,1016,0,0
-511,8,0,0,0,0,0,0,0,0,0,-1,713,1016,0,0
-504,8,0,0,0,0,0,0,0,0,0,-1,720,1016,0,0
-497,8,0,0,0,0,0,0,0,0,0,-1,727,1016,0,0
-490,8,0,0,0,0,0,0,0,0,0,-1,734,1016,0,0
-483,8,0,0,0,0,0,0,0,0,0,-1,741,1016,0,0
-476,8,0,0,0,0,0,0,0,0,0,-1,748,1016,0,0
-469,8,0,0,0,0,0,0,0,0,0,-1,755,1016,0,0
-462,8,0,0,0,0,0,0,0,0,0,-1,762,1016,0,0
-455,8,0,0,0,0,0,0,0,0,0,-1,769,1016,0,0
-448,8,0,0,0,0,0,0,0,0,0,-1,776,1016,0,0
-441,8,0,0,0,0,0,0,0,0,0,-1,783,1016,0,0
-434,8,0,0,0,0,0,0,0,0,0,-1,790,1016,0,0
-427,8,0,0,0,0,0,0,0,0,0,-1,797,1016,0,0
-420,8,0,0,0,0,0,0,0,0,0,-1,804,1016,0,0
-413,8,0,0,0,0,0,0,0,0,0,-1,811,1016,0,0
-406,8,0,0,0,0,0,0,0,0,0,-1,818,1016,0,0
-399,8,0,0,0,0,0,0,0,0,0,-1,825,1016,0,0
-392,8,0,0,0,0,0,0,0,0,0,-1,832,1016,0,0
-385,8,0,0,0,0,0,0,0,0,0,-1,839,1016,0,0
-378,8,0,0,0,0,0,0,0,0,0,-1,846,1016,0,0
-371,8,0,0,0,0,0,0,0,0,0,-1,853,1016,0,0
-364,8,0,0,0,0,0,0,0,0,0,-1,860,1016,0,0
-357,8,0,0,0,0,0,0,0,0,0,-1,867,1016,0,0
-350,8,0,0,0,0,0,0,0,0,0,-1,874,1016,0,0
-343,8,0,0,0,0,0,0,0,0,0,-1,881,1016,0,0
-336,8,0,0,0,0,0,0,0,0,0,-1,888,1016,0,0
-329,8,0,0,0,0,0,0,0,0,0,-1,895,1016,0,0
-322,8,0,0,0,0,0,0,0,0,0,-1,902,1016,0,0
-315,8,0,0,0,0,0,0,0,0,0,-1,909,1016,0,0
-308,8,0,0,0,0,0,0,0,0,0,-1,916,1016,0,0
-301,8,0,0,0,0,0,0,0,0,0,-1,923,1016,0,0
-294,8,0,0,0,0,0,0,0,0,0,-1,930,1016,0,0
-287,8,0,0,0,0,0,0,0,0,0,-1,937,1016,0,0
-280,8,0,0,0,0,0,0,0,0,0,-1,944,1016,0,0
-273,8,0,0,0,0,0,0,0,0,0,-1,951,1016,0,0
-266,8,0,0,0,0,0,0,0,0,0,-1,958,1016,0,0
-259,8,0,0,0,0,0,0,0,0,0,-1,965,1016,0,0
-252,8,0,0,0,0,0,0,0,0,0,-1,972,1016,0,0
-245,8,0,0,0,0,0,0,0,0,0,-1,979,1016,0,0
-238,8,0,0,0,0,0,0,0,0,0,-1,986,1016,0,0
-231,8,0,0,0,0,0,0,0,0,0,-1,993,1016,0,0
-224,8,0,0,0,0,0,0,0,0,0,-1,1000,1016,0,0
-217,8,0,0,0,0,0,0,0,0,0,-1,1007,1016,0,0
-210,8,0,0,0,0,0,0,0,0,0,-1,1014,1016,0,0
-203,8,0,0,0,0,0,0,0,0,0,-1,1021,1016,0,0
-196,8,0,0,0,0,0,0,0,0,0,-1,1028,1016,0,0
-189,8,0,0,0,0,0,0,0,0,0,-1,1035,1016,0,0
-182,8,0,0,0,0,0,0,0,0,0,-1,1042,1016,0,0
-175,8,0,0,0,0,0,0,0,0,0,-1,1049,1016,0,0
-168,8,0,0,0,0,0,0,0,0,0,-1,1056,1016,0,0
-161,8,0,0,0,0,0,0,0,0,0,-1,1063,1016,0,0
-154,8,0,0,0,0,0,0,0,0,0,-1,1070,1016,0,0
-147,8,0,0,0,0,0,0,0,0,0,-1,1077,1016,0,0
-140,8,0,0,0,0,0,0,0,0,0,-1,1084,1016,0,0
-133,8,0,0,0,0,0,0,0,0,0,-1,1091,1016,0,0
-126,8,0,0,0,0,0,0,0,0,0,-1,1098,1016,0,0
-119,8,0,0,0,0,0,0,0,0,0,-1,1105,1016,0,0
-112,8,0,0,0,0,0,0,0,0,0,-1,1112,1016,0,0
-105,8,0,0,0,0,0,0,0,0,0,-1,1119,1016,0,0
-98,8,0,0,0,0,0,0,0,0,0,-1,1126,1016,0,0
-91,8,0,0,0,0,0,0,0,0,0,-1,1133,1016,0,0
-84,8,0,0,0,0,0,0,0,0,0,-1,1140,1016,0,0
-77,8,0,0,0,0,0,0,0,0,0,-1,1147,1016,0,0
-70,8,0,0,0,0,0,0,0,0,0,-1,1154,1016,0,0
-63,8,0,0,0,0,0,0,0,0,0,-1,1161,1016,0,0
-56,8,0,0,0,0,0,0,0,0,0,-1,1168,1016,0,0
-49,8,0,0,0,0,0,0,0,0,0,-1,1175,1016,0,0
-42,8,0,0,0,0,0,0,0,0,0,-1,1182,1016,0,0
-35,8,0,0,0,0,0,0,0,0,0,-1,1189,1016,0,0
-28,8,0,0,0,0,0,0,0,0,0,-1,1196,1016,0,0
-21,8,0,0,0,0,0,0,0,0,0,-1,1203,1016,0,0
-14,8,0,0,0,0,0,0,0,0,0,-1,1210,1016,0,0
-7,8,0,0,0,0,0,0,0,0,0,-1,1217,1016,0,0
0,8,0,0,0,0,0,0,0,0,0,-1,1224,1016,0,0
7,8,0,0,0,0,0,0,0,0,0,-1,1231,1016,0,0
14,8,0,0,0,0,0,0,0,0,0,-1,1238,1016,0,0
21,8,0,0,0,0,0,0,0,0,0,-1,1245,1016,0,0
28,8,0,0,0,0,0,0,0,0,0,-1,1252,1016,0,0
35,8,0,0,0,0,0,0,0,0,0,-1,1259,1016,0,0
42,8,0,0,0,0,0,0,0,0,0,-1,1266,1016,0,0
49,8,0,0,0,0,0,0,0,0,0,-1,1273,1016,0,0
56,8,0,0,0,0,0,0,0,0,0,-1,1280,1016,0,0
63,8,0,0,0,0,0,0,0,0,0,-1,1287,1016,0,0
70,8,0,0,0,0,0,0,0,0,0,-1,1294,1016,0,0
77,8,0,0,0,0,0,0,0,0,0,-1,1301,1016,0,0
84,8,0,0,0,0,0,0,0,0,0,-1,1308,1016,0,0
91,8,0,0,0,0,0,0,0,0,0,-1,1315,1016,0,0
98,8,0,0,0,0,0,0,0,0,0,-1,1322,1016,0,0
105,8,0,0,0,0,0,0,0,0,0,-1,1329,1016,0,0
112,8,0,0,0,0,0,0,0,0,0,-1,1336,1016,0,0
119,8,0,0,0,0,0,0,0,0,0,-1,1343,1016,0,0
126,8,0,0,0,0,0,0,0,0,0,-1,1350,1016,0,0
133,8,0,0,0,0,0,0,0,0,0,-1,1357,1016,0,0
140,8,0,0,0,0,0,0,0,0,0,-1,1364,1016,0,0
147,8,0,0,0,0,0,0,0,0,0,-1,1371,1016,0,0
154,8,0,0,0,0,0,0,0,0,0,-1,1378,1016,0,0
161,8,0,0,0,0,0,0,0,0,0,-1,1385,1016,0,0
168,8,0,0,0,0,0,0,0,0,0,-1,1392,1016,0,0
175,8,0,0,0,0,0,0,0,0,0,-1,1399,1016,0,0
182,8,0,0,0,0,0,0,0,0,0,-1,1406,1016,0,0
189,8,0,0,0,0,0,0,0,0,0,-1,1413,1016,0,0
196,8,0,0,0,0,0,0,0,0,0,-1,1420,1016,0,0
203,8,0,0,0,0,0,0,0,0,0,-1,1427,1016,0,0
210,8,0,0,0,0,0,0,0,0,0,-1,1434,1016,0,0
217,8,0,0,0,0,0,0,0,0,0,-1,1441,1016,0,0
224,8,0,0,0,0,0,0,0,0,0,-1,1448,1016,0,0
231,8,0,0,0,0,0,0,0,0,0,-1,1455,1016,0,0
238,8,0,0,0,0,0,0,0,0,0,-1,1462,1016,0,0
245,8,0,0,0,0,0,0,0,0,0,-1,1469,1016,0,0
252,8,0,0,0,0,0,0,0,0,0,-1,1476,1016,0,0
259,8,0,0,0,0,0,0,0,0,0,-1,1483,1016,0,0
266,8,0,0,0,0,0,0,0,0,0,-1,1490,1016,0,0
273,8,0,0,0,0,0,0,0,0,0,-1,1497,1016,0,0
280,8,0,0,0,0,0,0,0,0,0,-1,1504,1016,0,0
287,8,0,0,0,0,0,0,0,0,0,-1,1511,1016,0,0
294,8,0,0,0,0,0,0,0,0,0,-1,1518,1016,0,0
301,8,0,0,0,0,0,0,0,0,0,-1,1525,1016,0,0
308,8,0,0,0,0,0,0,0,0,0,-1,1532,1016,0,0
315,8,0,0,0,0,0,0,0,0,0,-1,1539,1016,0,0
322,8,0,0,0,0,0,0,0,0,0,-1,1546,1016,0,0
329,8,0,0,0,0,0,0,0,0,0,-1,1553,1016,0,0
336,8,0,0,0,0,0,0,0,0,0,-1,1560,1016,0,0
343,8,0,0,0,0,0,0,0,0,0,-1,1567,1016,0,0
350,8,0,0,0,0,0,0,0,0,0,-1,1574,1016,0,0
357,8,0,0,0,0,0,0,0,0,0,-1,1581,1016,0,0
364,8,0,0,0,0,0,0,0,0,0,-1,1588,1016,0,0
371,8,0,0,0,0,0,0,0,0,0,-1,1595,1016,0,0
378,8,0,0,0,0,0,0,0,0,0,-1,1602,1016,0,0
385,8,0,0,0,0,0,0,0,0,0,-1,1609,1016,0,0
392,8,0,0,0,0,0,0,0,0,0,-1,1616,1016,0,0
399,8,0,0,0,0,0,0,0,0,0,-1,1623,1016,0,0
406,8,0,0,0,0,0,0,0,0,0,-1,1630,1016,0,0
413,8,0,0,0,0,0,0,0,0,0,-1,1637,1016,0,0
420,8,0,0,0,0,0,0,0,0,0,-1,1644,1016,0,0
427,8,0,0,0,0,0,0,0,0,0,-1,1651,1016,0,0
434,8,0,0,0,0,0,0,0,0,0,-1,1658,1016,0,0
441,8,0,0,0,0,0,0,0,0,0,-1,1665,1016,0,0
448,8,0,0,0,0,0,0,0,0,0,-1,1672,1016,0,0
455,8,0,0,0,0,0,0,0,0,0,-1,1679,1016,0,0
462,8,0,0,0,0,0,0,0,0,0,-1,1686,1016,0,0
469,8,0,0,0,0,0,0,0,0,0,-1,1693,1016,0,0
476,8,0,0,0,0,0,0,0,0,0,-1,1700,1016,0,0
483,8,0,0,0,0,0,0,0,0,0,-1,1707,1016,0,0
490,8,0,0,0,0,0,0,0,0,0,-1,1714,1016,0,0
497,8,0,0,0,0,0,0,0,0,0,-1,1721,1016,0,0
504,8,0,0,0,0,0,0,0,0,0,-1,1728,1016,0,0
511,8,0,0,0,0,0,0,0,0,0,-1,1735,1016,0,0
518,8,0,0,0,0,0,0,0,0,0,-1,1742,1016,0,0
525,8,0,0,0,0,0,0,0,0,0,-1,1749,1016,0,0
532,8,0,0,0,0,0,0,0,0,0,-1,1756,1016,0,0
539,8,0,0,0,0,0,0,0,0,0,-1,1763,1016,0,0
546,8,0,0,0,0,0,0,0,0,0,-1,1770,1016,0,0
553,8,0,0,0,0,0,0,0,0,0,-1,1777,1016,0,0
560,8,0,0,0,0,0,0,0,0,0,-1,1784,1016,0,0
567,8,0,0,0,0,0,0,0,0,0,-1,1791,1016,0,0
574,8,0,0,0,0,0,0,0,0,0,-1,1798,1016,0,0
581,8,0,0,0,0,0,0,0,0,0,-1,1805,1016,0,0
588,8,0,0,0,0,0,0,0,0,0,-1,1812,1016,0,0
595,8,0,0,0,0,0,0,0,0,0,-1,1819,1016,0,0
602,8,0,0,0,0,0,0,0,0,0,-1,1826,1016,0,0
609,8,0,0,0,0,0,0,0,0,0,-1,1833,1016,0,0
616,8,0,0,0,0,0,0,0,0,0,-1,1840,1016,0,0
623,8,0,0,0,0,0,0,0,0,0,-1,1847,1016,0,0
630,8,0,0,0,0,0,0,0,0,0,-1,1854,1016,0,0
637,8,0,0,0,0,0,0,0,0,0,-1,1861,1016,0,0
644,8,64.2047,2.56189,0.00479331,0.00257114,0.0017383,0.00574528,0.00161917,0.501034,0.00342068,0.0429828,1868,1016,64.2047,-2.5619
651,8,64.2288,2.5827,0.00280246,0.00180841,0.000745229,0.0032012,0.00140967,0.491302,0.00185259,0.0368242,1875,1016,64.2288,-2.58273
658,8,64.1636,2.53894,0.00148149,0.00119201,0.000257947,0.00163253,0.00104097,0.529729,0.000954371,0.0364278,1882,1016,64.1636,-2.53894
665,8,64.1824,2.3432,0.000534667,0.000868766,0.000297206,0.00104265,0.000360781,1.04143,0.000611416,0.037851,1889,1016,64.1824,-2.3432
672,8,64.2742,2.40649,-0.000197034,0.000901069,0.00070287,0.00124392,-0.000539881,1.11697,0.00105628,0.0391471,1896,1016,64.2741,-2.40652
679,8,64.3417,2.42236,-0.000674324,0.00100998,0.00130231,0.00171871,-0.00138306,1.07241,0.0017943,0.0392674,1903,1016,64.3417,-2.42233
686,8,64.2323,2.40564,-0.00107818,0.000937843,0.00187528,0.00205886,-0.0021992,1.03201,0.00245884,0.0403597,1910,1016,64.2323,-2.40563
693,8,64.1691,2.53925,-0.00132467,0.000766208,0.00236023,0.00230217,-0.00286063,0.993881,0.00298655,0.0370028,1917,1016,64.169,-2.53922
700,8,64.2413,2.58325,-0.00142369,0.000634879,0.0025911,0.00239365,-0.00318246,0.97446,0.00323008,0.0299719,1924,1016,64.2413,-2.58326
707,8,64.2196,2.65247,-0.00195067,0.000920682,0.00256363,0.00242327,-0.00345326,1.04065,0.00341014,0.0242586,1931,1016,64.2196,-2.65244
714,8,64.2227,2.60931,-0.00284016,0.00164519,0.00245149,0.00272507,-0.00392004,1.15587,0.00385718,0.0276309,1938,1016,64.2226,-2.60931
721,8,64.2286,2.63269,0,0,0,0,0,0,0,-1,1945,1016,64.2287,-2.6327
728,8,52.1681,5.36774,0,0,0,0,0,0,0,-1,1952,1016,52.168,-5.36773
735,8,64.2491,6.72656,0,0,0,0,0,0,0,-1,1959,1016,64.2492,-6.72659
742,8,64.1991,6.97699,0,0,0,0,0,0,0,-1,1966,1016,64.1991,-6.97696
749,8,64.489,6.79144,0,0,0,0,0,0,0,-1,1973,1016,64.489,-6.79145
756,8,64.2791,6.67712,-0.0094957,0.0123614,0.00062307,0.0123792,-0.00951345,1.54232,0.0126758,0.0367818,1980,1016,64.2791,-6.67713
763,8,64.2358,6.79388,-0.0100781,0.0159414,0.000114999,0.0159419,-0.0100786,1.56638,0.0151495,0.0176925,1987,1016,64.2359,-6.79391
770,8,64.094,6.75452,-0.00964272,0.0203315,8.6355e-05,0.0203318,-0.00964297,1.56792,0.0176689,0.0218446,1994,1016,64.0939,-6.7545
777,8,63.7307,6.77954,-0.00766172,0.0252875,0.000510889,0.0252954,-0.00766964,1.5553,0.0199186,0.0367972,2001,1016,63.7307,-6.77955
784,8,63.3655,6.77655,0,0,0,0,0,0,0,-1,2008,1016,63.3656,-6.77654
791,8,62.8936,6.41626,0,0,0,0,0,0,0,-1,2015,1016,62.8936,-6.41629
798,8,62.7129,1.44806,0,0,0,0,0,0,0,-1,2022,1016,62.7128,-1.44807
805,8,63.0522,1.59564,0,0,0,0,0,0,0,-1,2029,1016,63.0522,-1.59563
812,8,62.9856,1.37695,0,0,0,0,0,0,0,-1,2036,1016,62.9856,-1.37695
-700,1,0,0,0,0,0,0,0,0,0,-1,524,1023,0,0
-693,1,-46.4255,1.46857,0,0,0,0,0,0,0,-1,531,1023,-46.4255,-1.4686
-686,1,-45.8063,2.1593,0,0,0,0,0,0,0,-1,538,1023,-45.8063,-2.15929
-679,1,-45.0224,2.79858,0,0,0,0,0,0,0,-1,545,1023,-45.0224,-2.79857
-672,1,-49.7832,2.34064,0,0,0,0,0,0,0,-1,552,1023,-49.7832,-2.34066
-665,1,-49.6739,3.73334,0,0,0,0,0,0,0,-1,559,1023,-49.6739,-3.73332
-658,1,-49.5212,3.88214,0,0,0,0,0,0,0,-1,566,1023,-49.5212,-3.88215
-651,1,-49.244,4.0083,0.0316695,0.0421372,0.0229545,0.060447,0.0133598,0.897487,0.0366653,0.0290023,573,1023,-49.244,-4.00833
-644,1,-48.9227,4.29034,0,0,0,0,0,0,0,-1,580,1023,-48.9227,-4.29033
-637,1,-49.2855,4.18707,0.00779642,0.0254151,0.0077558,0.0283428,0.00486877,1.20985,0.0174995,0.0394535,587,1023,-49.2855,-4.18708
-630,1,-49.5731,4.32953,0.000851565,0.0174088,0.00265065,0.0178228,0.000437574,1.41586,0.0117387,0.0353832,594,1023,-49.5731,-4.32953
-623,1,-49.4474,4.42877,-0.00168414,0.0122244,-0.0001121,0.0122253,-0.00168504,-1.56274,0.00876606,0.0177793,601,1023,-49.4474,-4.42875
-616,1,-49.6036,4.36633,-0.00207388,0.00865141,-0.00193703,0.00899052,-0.002413,-1.39748,0.0069393,0.0231532,608,1023,-49.6036,-4.36632
-609,1,-49.6084,4.42468,-0.00195264,0.00614752,-0.00332082,0.0073349,-0.00314002,-1.22741,0.00620724,0.0246251,615,1023,-49.6084,-4.42469
-602,1,-49.4,4.52185,-0.00198032,0.00429672,-0.00435697,0.00652788,-0.00421148,-1.09752,0.00624826,0.014834,622,1023,-49.4,-4.52186
-595,1,-49.2604,4.60596,0,0,0,0,0,0,0,-1,629,1023,-49.2604,-4.60594
-588,1,-48.5606,0.740356,0,0,0,0,0,0,0,-1,636,1023,-48.5606,-0.740329
-581,1,-48.6818,0.845215,0.000139094,0.00168398,-0.00457932,0.00555555,-0.00373248,-0.868952,0.00539677,0.0289784,643,1023,-48.6818,-0.845242
-574,1,-48.7711,0.748047,0.000589269,0.00138999,-0.0042146,0.0052232,-0.00324394,-0.832753,0.00493283,0.036175,650,1023,-48.7711,-0.748026
-567,1,-48.7699,0.71875,0.000829759,0.00150115,-0.00334124,0.00452352,-0.00219261,-0.835465,0.00395464,0.0432166,657,1023,-48.7699,-0.718756
-560,1,-48.6801,0.94342,0.00100058,0.00176515,-0.00186045,0.00328218,-0.000516455,-0.886728,0.00237903,0.0442543,664,1023,-48.6801,-0.943413
-553,1,-48.6102,0.508057,0.00102702,0.00186563,0.000313146,0.00196966,0.000922996,1.25006,0.00113793,0.0411186,671,1023,-48.6102,-0.508064
-546,1,-48.6595,0.65094,0.000986072,0.00127294,0.00326804,0.0044007,-0.00214168,0.807329,0.00385157,0.040835,678,1023,-48.6595,-0.650962
-539,1,-48.6107,1.11987,0.000730435,-0.000152653,0.00649273,0.00679662,-0.00621883,0.751447,0.00751694,0.0423737,685,1023,-48.6107,-1.1199
-532,1,-48.5749,1.24542,0.00101355,-0.00126523,0.00881392,0.00876142,-0.0090131,0.721119,0.0102625,0.0444127,692,1023,-48.5749,-1.24542
-525,1,0,0,0,0,0,0,0,0,0,-1,699,1023,0,0
-518,1,0,0,0,0,0,0,0,0,0,-1,706,1023,0,0
-511,1,0,0,0,0,0,0,0,0,0,-1,713,1023,0,0
-504,1,0,0,0,0,0,0,0,0,0,-1,720,1023,0,0
-497,1,0,0,0,0,0,0,0,0,0,-1,727,1023,0,0
-490,1,0,0,0,0,0,0,0,0,0,-1,734,1023,0,0
-483,1,0,0,0,0,0,0,0,0,0,-1,741,1023,0,0
-476,1,0,0,0,0,0,0,0,0,0,-1,748,1023,0,0
-469,1,0,0,0,0,0,0,0,0,0,-1,755,1023,0,0
-462,1,0,0,0,0,0,0,0,0,0,-1,762,1023,0,0
-455,1,0,0,0,0,0,0,0,0,0,-1,769,1023,0,0
-448,1,0,0,0,0,0,0,0,0,0,-1,776,1023,0,0
-441,1,0,0,0,0,0,0,0,0,0,-1,783,1023,0,0
-434,1,0,0,0,0,0,0,0,0,0,-1,790,1023,0,0
-427,1,0,0,0,0,0,0,0,0,0,-1,797,1023,0,0
-420,1,0,0,0,0,0,0,0,0,0,-1,804,1023,0,0
-413,1,0,0,0,0,0,0,0,0,0,-1,811,1023,0,0
-406,1,0,0,0,0,0,0,0,0,0,-1,818,1023,0,0
-399,1,0,0,0,0,0,0,0,0,0,-1,825,1023,0,0
-392,1,0,0,0,0,0,0,0,0,0,-1,832,1023,0,0
-385,1,0,0,0,0,0,0,0,0,0,-1,839,1023,0,0
-378,1,0,0,0,0,0,0,0,0,0,-1,846,1023,0,0
-371,1,0,0,0,0,0,0,0,0,0,-1,853,1023,0,0
-364,1,0,0,0,0,0,0,0,0,0,-1,860,1023,0,0
-357,1,0,0,0,0,0,0,0,0,0,-1,867,1023,0,0
-350,1,0,0,0,0,0,0,0,0,0,-1,874,1023,0,0
-343,1,0,0,0,0,0,0,0,0,0,-1,881,1023,0,0
-336,1,0,0,0,0,0,0,0,0,0,-1,888,1023,0,0
-329,1,0,0,0,0,0,0,0,0,0,-1,895,1023,0,0
-322,1,0,0,0,0,0,0,0,0,0,-1,902,1023,0,0
-315,1,0,0,0,0,0,0,0,0,0,-1,909,1023,0,0
-308,1,0,0,0,0,0,0,0,0,0,-1,916,1023,0,0
-301,1,0,0,0,0,0,0,0,0,0,-1,923,1023,0,0
-294,1,0,0,0,0,0,0,0,0,0,-1,930,1023,0,0
-287,1,0,0,0,0,0,0,0,0,0,-1,937,1023,0,0
-280,1,0,0,0,0,0,0,0,0,0,-1,944,1023,0,0
-273,1,0,0,0,0,0,0,0,0,0,-1,951,1023,0,0
-266,1,0,0,0,0,0,0,0,0,0,-1,958,1023,0,0
-259,1,0,0,0,0,0,0,0,0,0,-1,965,1023,0,0
-252,1,0,0,0,0,0,0,0,0,0,-1,972,1023,0,0
-245,1,0,0,0,0,0,0,0,0,0,-1,979,1023,0,0
-238,1,0,0,0,0,0,0,0,0,0,-1,986,1023,0,0
-231,1,0,0,0,0,0,0,0,0,0,-1,993,1023,0,0
-224,1,0,0,0,0,0,0,0,0,0,-1,1000,1023,0,0
-217,1,0,0,0,0,0,0,0,0,0,-1,1007,1023,0,0
-210,1,0,0,0,0,0,0,0,0,0,-1,1014,1023,0,0
-203,1,0,0,0,0,0,0,0,0,0,-1,1021,1023,0,0
-196,1,0,0,0,0,0,0,0,0,0,-1,1028,1023,0,0
-189,1,0,0,0,0,0,0,0,0,0,-1,1035,1023,0,0
-182,1,0,0,0,0,0,0,0,0,0,-1,1042,1023,0,0
-175,1,0,0,0,0,0,0,0,0,0,-1,1049,1023,0,0
-168,1,0,0,0,0,0,0,0,0,0,-1,1056,1023,0,0
-161,1,0,0,0,0,0,0,0,0,0,-1,1063,1023,0,0
-154,1,0,0,0,0,0,0,0,0,0,-1,1070,1023,0,0
-147,1,0,0,0,0,0,0,0,0,0,-1,1077,1023,0,0
-140,1,0,0,0,0,0,0,0,0,0,-1,1084,1023,0,0
-133,1,0,0,0,0,0,0,0,0,0,-1,1091,1023,0,0
-126,1,0,0,0,0,0,0,0,0,0,-1,1098,1023,0,0
-119,1,0,0,0,0,0,0,0,0,0,-1,1105,1023,0,0
-112,1,0,0,0,0,0,0,0,0,0,-1,1112,1023,0,0
-105,1,0,0,0,0,0,0,0,0,0,-1,1119,1023,0,0
-98,1,0,0,0,0,0,0,0,0,0,-1,1126,1023,0,0
-91,1,0,0,0,0,0,0,0,0,0,-1,1133,1023,0,0
-84,1,0,0,0,0,0,0,0,0,0,-1,1140,1023,0,0
-77,1,0,0,0,0,0,0,0,0,0,-1,1147,1023,0,0
-70,1,0,0,0,0,0,0,0,0,0,-1,1154,1023,0,0
-63,1,0,0,0,0,0,0,0,0,0,-1,1161,1023,0,0
-56,1,0,0,0,0,0,0,0,0,0,-1,1168,1023,0,0
-49,1,0,0,0,0,0,0,0,0,0,-1,1175,1023,0,0
-42,1,0,0,0,0,0,0,0,0,0,-1,1182,1023,0,0
-35,1,0,0,0,0,0,0,0,0,0,-1,1189,1023,0,0
-28,1,0,0,0,0,0,0,0,0,0,-1,1196,1023,0,0
-21,1,0,0,0,0,0,0,0,0,0,-1,1203,1023,0,0
-14,1,0,0,0,0,0,0,0,0,0,-1,1210,1023,0,0
-7,1,0,0,0,0,0,0,0,0,0,-1,1217,1023,0,0
0,1,0,0,0,0,0,0,0,0,0,-1,1224,1023,0,0
7,1,0,0,0,0,0,0,0,0,0,-1,1231,1023,0,0
14,1,0,0,0,0,0,0,0,0,0,-1,1238,1023,0,0
21,1,0,0,0,0,0,0,0,0,0,-1,1245,1023,0,0
28,1,0,0,0,0,0,0,0,0,0,-1,1252,1023,0,0
35,1,0,0,0,0,0,0,0,0,0,-1,1259,1023,0,0
42,1,0,0,0,0,0,0,0,0,0,-1,1266,1023,0,0
49,1,0,0,0,0,0,0,0,0,0,-1,1273,1023,0,0
56,1,0,0,0,0,0,0,0,0,0,-1,1280,1023,0,0
63,1,0,0,0,0,0,0,0,0,0,-1,1287,1023,0,0
70,1,0,0,0,0,0,0,0,0,0,-1,1294,1023,0,0
77,1,0,0,0,0,0,0,0,0,0,-1,1301,1023,0,0
84,1,0,0,0,0,0,0,0,0,0,-1,1308,1023,0,0
91,1,0,0,0,0,0,0,0,0,0,-1,1315,1023,0,0
98,1,0,0,0,0,0,0,0,0,0,-1,1322,1023,0,0
105,1,0,0,0,0,0,0,0,0,0,-1,1329,1023,0,0
112,1,0,0,0,0,0,0,0,0,0,-1,1336,1023,0,0
119,1,0,0,0,0,0,0,0,0,0,-1,1343,1023,0,0
126,1,0,0,0,0,0,0,0,0,0,-1,1350,1023,0,0
133,1,0,0,0,0,0,0,0,0,0,-1,1357,1023,0,0
140,1,0,0,0,0,0,0,0,0,0,-1,1364,1023,0,0
147,1,0,0,0,0,0,0,0,0,0,-1,1371,1023,0,0
154,1,0,0,0,0,0,0,0,0,0,-1,1378,1023,0,0
161,1,0,0,0,0,0,0,0,0,0,-1,1385,1023,0,0
168,1,0,0,0,0,0,0,0,0,0,-1,1392,1023,0,0
175,1,0,0,0,0,0,0,0,0,0,-1,1399,1023,0,0
182,1,0,0,0,0,0,0,0,0,0,-1,1406,1023,0,0
189,1,0,0,0,0,0,0,0,0,0,-1,1413,1023,0,0
196,1,0,0,0,0,0,0,0,0,0,-1,1420,1023,0,0
203,1,0,0,0,0,0,0,0,0,0,-1,1427,1023,0,0
210,1,0,0,0,0,0,0,0,0,0,-1,1434,1023,0,0
217,1,0,0,0,0,0,0,0,0,0,-1,1441,1023,0,0
224,1,0,0,0,0,0,0,0,0,0,-1,1448,1023,0,0
231,1,0,0,0,0,0,0,0,0,0,-1,1455,1023,0,0
238,1,0,0,0,0,0,0,0,0,0,-1,1462,1023,0,0
245,1,0,0,0,0,0,0,0,0,0,-1,1469,1023,0,0
252,1,0,0,0,0,0,0,0,0,0,-1,1476,1023,0,0
259,1,0,0,0,0,0,0,0,0,0,-1,1483,1023,0,0
266,1,0,0,0,0,0,0,0,0,0,-1,1490,1023,0,0
273,1,0,0,0,0,0,0,0,0,0,-1,1497,1023,0,0
280,1,0,0,0,0,0,0,0,0,0,-1,1504,1023,0,0
287,1,0,0,0,0,0,0,0,0,0,-1,1511,1023,0,0
294,1,0,0,0,0,0,0,0,0,0,-1,1518,1023,0,0
301,1,0,0,0,0,0,0,0,0,0,-1,1525,1023,0,0
308,1,0,0,0,0,0,0,0,0,0,-1,1532,1023,0,0
315,1,0,0,0,0,0,0,0,0,0,-1,1539,1023,0,0
322,1,0,0,0,0,0,0,0,0,0,-1,1546,1023,0,0
329,1,0,0,0,0,0,0,0,0,0,-1,1553,1023,0,0
336,1,0,0,0,0,0,0,0,0,0,-1,1560,1023,0,0
343,1,0,0,0,0,0,0,0,0,0,-1,1567,1023,0,0
350,1,0,0,0,0,0,0,0,0,0,-1,1574,1023,0,0
357,1,0,0,0,0,0,0,0,0,0,-1,1581,1023,0,0
364,1,0,0,0,0,0,0,0,0,0,-1,1588,1023,0,0
371,1,0,0,0,0,0,0,0,0,0,-1,1595,1023,0,0
378,1,0,0,0,0,0,0,0,0,0,-1,1602,1023,0,0
385,1,0,0,0,0,0,0,0,0,0,-1,1609,1023,0,0
392,1,0,0,0,0,0,0,0,0,0,-1,1616,1023,0,0
399,1,0,0,0,0,0,0,0,0,0,-1,1623,1023,0,0
406,1,0,0,0,0,0,0,0,0,0,-1,1630,1023,0,0
413,1,0,0,0,0,0,0,0,0,0,-1,1637,1023,0,0
420,1,0,0,0,0,0,0,0,0,0,-1,1644,1023,0,0
427,1,0,0,0,0,0,0,0,0,0,-1,1651,1023,0,0
434,1,0,0,0,0,0,0,0,0,0,-1,1658,1023,0,0
441,1,0,0,0,0,0,0,0,0,0,-1,1665,1023,0,0
448,1,0,0,0,0,0,0,0,0,0,-1,1672,1023,0,0
455,1,0,0,0,0,0,0,0,0,0,-1,1679,1023,0,0
462,1,0,0,0,0,0,0,0,0,0,-1,1686,1023,0,0
469,1,0,0,0,0,0,0,0,0,0,-1,1693,1023,0,0
476,1,0,0,0,0,0,0,0,0,0,-1,1700,1023,0,0
483,1,0,0,0,0,0,0,0,0,0,-1,1707,1023,0,0
490,1,0,0,0,0,0,0,0,0,0,-1,1714,1023,0,0
497,1,0,0,0,0,0,0,0,0,0,-1,1721,1023,0,0
504,1,0,0,0,0,0,0,0,0,0,-1,1728,1023,0,0
511,1,0,0,0,0,0,0,0,0,0,-1,1735,1023,0,0
518,1,0,0,0,0,0,0,0,0,0,-1,1742,1023,0,0
525,1,0,0,0,0,0,0,0,0,0,-1,1749,1023,0,0
532,1,0,0,0,0,0,0,0,0,0,-1,1756,1023,0,0
539,1,0,0,0,0,0,0,0,0,0,-1,1763,1023,0,0
546,1,0,0,0,0,0,0,0,0,0,-1,1770,1023,0,0
553,1,0,0,0,0,0,0,0,0,0,-1,1777,1023,0,0
560,1,0,0,0,0,0,0,0,0,0,-1,1784,1023,0,0
567,1,0,0,0,0,0,0,0,0,0,-1,1791,1023,0,0
574,1,0,0,0,0,0,0,0,0,0,-1,1798,1023,0,0
581,1,0,0,0,0,0,0,0,0,0,-1,1805,1023,0,0
588,1,0,0,0,0,0,0,0,0,0,-1,1812,1023,0,0
595,1,0,0,0,0,0,0,0,0,0,-1,1819,1023,0,0
602,1,0,0,0,0,0,0,0,0,0,-1,1826,1023,0,0
609,1,0,0,0,0,0,0,0,0,0,-1,1833,1023,0,0
616,1,0,0,0,0,0,0,0,0,0,-1,1840,1023,0,0
623,1,0,0,0,0,0,0,0,0,0,-1,1847,1023,0,0
630,1,0,0,0,0,0,0,0,0,0,-1,1854,1023,0,0
637,1,0,0,0,0,0,0,0,0,0,-1,1861,1023,0,0
644,1,0,0,0,0,0,0,0,0,0,-1,1868,1023,0,0
651,1,64.2686,2.72491,0.00248934,0.00160631,0.00101495,0.00315465,0.000941006,0.580237,0.00187009,0.0387358,1875,1023,64.2685,-2.72492
658,1,64.2374,2.71313,0.00130193,0.000936841,0.000502622,0.00165413,0.00058464,0.611213,0.00096859,0.0399788,1882,1023,64.2375,-2.71312
665,1,64.2056,2.60651,0.000458904,0.00053668,0.00044739,0.000946869,4.87149e-05,0.82875,0.000615651,0.0409049,1889,1023,64.2056,-2.60652
672,1,64.2367,2.57751,-0.000172841,0.000502371,0.000746056,0.000983653,-0.000654123,0.997872,0.000951929,0.0408574,1896,1023,64.2367,-2.57751
679,1,64.2531,2.56201,-0.00059214,0.000567423,0.00123591,0.00135278,-0.0013775,1.00472,0.00157635,0.039672,1903,1023,64.2531,-2.56204
686,1,64.1536,2.43134,-0.00106027,0.000462708,0.00173225,0.00159346,-0.00219102,0.992482,0.00219403,0.0388734,1910,1023,64.1536,-2.43132
693,1,64.1511,2.61597,-0.0013945,0.000289229,0.0021857,0.00178959,-0.00289486,0.969226,0.00272955,0.0355329,1917,1023,64.1512,-2.61595
700,1,64.251,2.68964,-0.00154284,0.000168029,0.00243877,0.00189704,-0.00327186,0.954076,0.00301925,0.031406,1924,1023,64.251,-2.68962
707,1,64.21,2.70465,-0.00212785,0.000473529,0.00246226,0.00195753,-0.00361185,1.02839,0.00326243,0.0256047,1931,1023,64.21,-2.70468
714,1,64.2076,2.62286,-0.00304025,0.00121723,0.00240348,0.00229914,-0.00412216,1.14782,0.00375681,0.0263362,1938,1023,64.2076,-2.62289
721,1,64.2609,2.612,0,0,0,0,0,0,0,-1,1945,1023,64.2609,-2.61197
728,1,52.4639,5.59277,0,0,0,0,0,0,0,-1,1952,1023,52.4639,-5.59276
735,1,53.3617,6.10699,0,0,0,0,0,0,0,-1,1959,1023,53.3617,-6.10698
742,1,52.4393,5.81525,0,0,0,0,0,0,0,-1,1966,1023,52.4393,-5.81527
749,1,64.4244,6.58691,0,0,0,0,0,0,0,-1,1973,1023,64.4245,-6.58689
756,1,64.3502,6.76758,-0.00987306,0.0114084,0.00108525,0.0114636,-0.00992826,1.51998,0.0123612,0.0388213,1980,1023,64.3502,-6.7676
763,1,64.1924,6.68103,-0.0105676,0.0146265,0.000593856,0.0146405,-0.0105816,1.54724,0.0146247,0.0181076,1987,1023,64.1923,-6.68105
770,1,64.1135,6.62,-0.0104695,0.0183444,0.000443378,0.0183512,-0.0104763,1.55541,0.0168493,0.0190819,1994,1023,64.1135,-6.62001
777,1,63.8281,6.51477,-0.00906976,0.0225019,0.000601145,0.0225133,-0.0090812,1.55176,0.0187826,0.0267847,2001,1023,63.8282,-6.51474
784,1,63.5608,6.461,-0.00646502,0.0261876,0.000772511,0.0262058,-0.00648329,1.54716,0.0199853,0.0487739,2008,1023,63.5607,-6.461
791,1,63.1885,6.37915,0,0,0,0,0,0,0,-1,2015,1023,63.1884,-6.37913
798,1,62.8071,6.29346,0,0,0,0,0,0,0,-1,2022,1023,62.8071,-6.29347
805,1,63.1287,2.44305,0,0,0,0,0,0,0,-1,2029,1023,63.1286,-2.44306
812,1,63.0908,2.29785,0,0,0,0,0,0,0,-1,2036,1023,63.0908,-2.29786
-700,-6,0,0,0,0,0,0,0,0,0,-1,524,1030,0,0
-693,-6,-47.4545,0.854858,0.137249,0.10233,0.0916889,0.213126,0.026453,0.691312,0.134139,0.0441073,531,1030,-47.4545,-0.854848
-686,-6,-46.7789,1.47546,0.121558,0.0901496,0.0789697,0.18637,0.0253377,0.687247,0.116721,0.046702,538,1030,-46.7789,-1.47549
-679,-6,-46.1088,2.06506,0,0,0,0,0,0,0,-1,545,1030,-46.1088,-2.06505
-672,-6,-49.7614,3.27087,0,0,0,0,0,0,0,-1,552,1030,-49.7614,-3.27092
-665,-6,-49.5475,3.46655,0,0,0,0,0,0,0,-1,559,1030,-49.5475,-3.4666
-658,-6,-49.4357,3.67114,0.0517872,0.0484247,0.0327459,0.082895,0.0173169,0.75975,0.0504908,0.0407302,566,1030,-49.4356,-3.67116
-651,-6,-49.3046,3.77075,0.0363586,0.0395706,0.0237364,0.0617553,0.0141739,0.819176,0.037353,0.0443636,573,1030,-49.3046,-3.7707
-644,-6,-48.9595,4.56128,0,0,0,0,0,0,0,-1,580,1030,-48.9594,-4.56124
-637,-6,-49.2444,4.37061,0.011216,0.0239119,0.00870397,0.0283368,0.00679102,1.10046,0.0170836,0.0457817,587,1030,-49.2444,-4.37067
-630,-6,-49.4157,4.22803,0.00329383,0.016361,0.00337715,0.0171822,0.00247263,1.33226,0.010726,0.0251934,594,1030,-49.4157,-4.22797
-623,-6,-49.3511,4.33508,-0.000110595,0.0112418,0.00033882,0.0112519,-0.000120698,1.54099,0.00754181,0.0194996,601,1030,-49.3511,-4.33514
-616,-6,-49.428,4.36707,-0.00109923,0.00769557,-0.00160702,0.00798001,-0.00138367,-1.39561,0.00583617,0.0224356,608,1030,-49.428,-4.36712
-609,-6,-49.4208,4.50647,-0.00134033,0.00514039,-0.0030368,0.00634098,-0.00254092,-1.19431,0.0052821,0.0219052,615,1030,-49.4208,-4.50648
-602,-6,-49.2986,4.62964,-0.00163232,0.00317899,-0.00406658,0.00549819,-0.00395152,-1.0525,0.0054801,0.0142509,622,1030,-49.2986,-4.62968
-595,-6,-49.0907,4.49695,0,0,0,0,0,0,0,-1,629,1030,-49.0907,-4.49698
-588,-6,-48.8838,2.53247,0,0,0,0,0,0,0,-1,636,1030,-48.8838,-2.5325
-581,-6,-48.6957,0.839478,7.8922e-05,0.00075221,-0.00410909,0.00453842,-0.00370729,-0.82627,0.00476872,0.0232849,643,1030,-48.6957,-0.839445
-574,-6,-48.7401,0.790894,0.000464294,0.000580844,-0.00373499,0.00425801,-0.00321287,-0.793199,0.00432737,0.0295486,650,1030,-48.7401,-0.790904
-567,-6,-48.649,0.690308,0.000606299,0.000862716,-0.00290449,0.00364183,-0.00217281,-0.807455,0.00339261,0.0374191,657,1030,-48.649,-0.690319
-560,-6,-48.4465,0.479492,0.00063961,0.0013842,-0.00151733,0.00257424,-0.000550429,-0.905703,0.00192604,0.0434527,664,1030,-48.4465,-0.479464
-553,-6,-48.5416,0.391968,0.000509828,0.00183798,0.000521312,0.00201815,0.000329651,1.23803,0.00125013,0.0443477,671,1030,-48.5416,-0.392023
-546,-6,-48.7049,0.692139,0.000315718,0.00170469,0.00330619,0.00438855,-0.00236814,0.888921,0.00395869,0.0442324,678,1030,-48.7049,-0.692186
-539,-6,-48.6638,1.18213,-9.18317e-05,0.000727217,0.00638221,0.00671303,-0.00607764,0.817438,0.00738773,0.0434171,685,1030,-48.6637,-1.18215
-532,-6,-48.7677,1.35986,-4.61713e-05,-0.00010021,0.00881217,0.00873902,-0.0088854,0.783865,0.0101756,0.0448924,692,1030,-48.7677,-1.35986
-525,-6,0,0,0,0,0,0,0,0,0,-1,699,1030,0,0
-518,-6,0,0,0,0,0,0,0,0,0,-1,706,1030,0,0
-511,-6,0,0,0,0,0,0,0,0,0,-1,713,1030,0,0
-504,-6,0,0,0,0,0,0,0,0,0,-1,720,1030,0,0
-497,-6,0,0,0,0,0,0,0,0,0,-1,727,1030,0,0
-490,-6,0,0,0,0,0,0,0,0,0,-1,734,1030,0,0
-483,-6,0,0,0,0,0,0,0,0,0,-1,741,1030,0,0
-476,-6,0,0,0,0,0,0,0,0,0,-1,748,1030,0,0
-469,-6,0,0,0,0,0,0,0,0,0,-1,755,1030,0,0
-462,-6,0,0,0,0,0,0,0,0,0,-1,762,1030,0,0
-455,-6,0,0,0,0,0,0,0,0,0,-1,769,1030,0,0
-448,-6,0,0,0,0,0,0,0,0,0,-1,776,1030,0,0
-441,-6,0,0,0,0,0,0,0,0,0,-1,783,1030,0,0
-434,-6,0,0,0,0,0,0,0,0,0,-1,790,1030,0,0
-427,-6,0,0,0,0,0,0,0,0,0,-1,797,1030,0,0
-420,-6,0,0,0,0,0,0,0,0,0,-1,804,1030,0,0
-413,-6,0,0,0,0,0,0,0,0,0,-1,811,1030,0,0
-406,-6,0,0,0,0,0,0,0,0,0,-1,818,1030,0,0
-399,-6,0,0,0,0,0,0,0,0,0,-1,825,1030,0,0
-392,-6,0,0,0,0,0,0,0,0,0,-1,832,1030,0,0
-385,-6,0,0,0,0,0,0,0,0,0,-1,839,1030,0,0
-378,-6,0,0,0,0,0,0,0,0,0,-1,846,1030,0,0
-371,-6,0,0,0,0,0,0,0,0,0,-1,853,1030,0,0
-364,-6,0,0,0,0,0,0,0,0,0,-1,860,1030,0,0
-357,-6,0,0,0,0,0,0,0,0,0,-1,867,1030,0,0
-350,-6,0,0,0,0,0,0,0,0,0,-1,874,1030,0,0
-343,-6,0,0,0,0,0,0,0,0,0,-1,881,1030,0,0
-336,-6,0,0,0,0,0,0,0,0,0,-1,888,1030,0,0
-329,-6,0,0,0,0,0,0,0,0,0,-1,895,1030,0,0
-322,-6,0,0,0,0,0,0,0,0,0,-1,902,1030,0,0
-315,-6,0,0,0,0,0,0,0,0,0,-1,909,1030,0,0
-308,-6,0,0,0,0,0,0,0,0,0,-1,916,1030,0,0
-301,-6,0,0,0,0,0,0,0,0,0,-1,923,1030,0,0
-294,-6,0,0,0,0,0,0,0,0,0,-1,930,1030,0,0
-287,-6,0,0,0,0,0,0,0,0,0,-1,937,1030,0,0
-280,-6,0,0,0,0,0,0,0,0,0,-1,944,1030,0,0
-273,-6,0,0,0,0,0,0,0,0,0,-1,951,1030,0,0
-266,-6,0,0,0,0,0,0,0,0,0,-1,958,1030,0,0
-259,-6,0,0,0,0,0,0,0,0,0,-1,965,1030,0,0
-252,-6,0,0,0,0,0,0,0,0,0,-1,972,1030,0,0
-245,-6,0,0,0,0,0,0,0,0,0,-1,979,1030,0,0
-238,-6,0,0,0,0,0,0,0,0,0,-1,986,1030,0,0
-231,-6,0,0,0,0,0,0,0,0,0,-1,993,1030,0,0
-224,-6,0,0,0,0,0,0,0,0,0,-1,1000,1030,0,0
-217,-6,0,0,0,0,0,0,0,0,0,-1,1007,1030,0,0
-210,-6,0,0,0,0,0,0,0,0,0,-1,1014,1030,0,0
-203,-6,0,0,0,0,0,0,0,0,0,-1,1021,1030,0,0
-196,-6,0,0,0,0,0,0,0,0,0,-1,1028,1030,0,0
-189,-6,0,0,0,0,0,0,0,0,0,-1,1035,1030,0,0
-182,-6,0,0,0,0,0,0,0,0,0,-1,1042,1030,0,0
-175,-6,0,0,0,0,0,0,0,0,0,-1,1049,1030,0,0
-168,-6,0,0,0,0,0,0,0,0,0,-1,1056,1030,0,0
-161,-6,0,0,0,0,0,0,0,0,0,-1,1063,1030,0,0
-154,-6,0,0,0,0,0,0,0,0,0,-1,1070,1030,0,0
-147,-6,0,0,0,0,0,0,0,0,0,-1,1077,1030,0,0
-140,-6,0,0,0,0,0,0,0,0,0,-1,1084,1030,0,0
-133,-6,0,0,0,0,0,0,0,0,0,-1,1091,1030,0,0
-126,-6,0,0,0,0,0,0,0,0,0,-1,1098,1030,0,0
-119,-6,0,0,0,0,0,0,0,0,0,-1,1105,1030,0,0
-112,-6,0,0,0,0,0,0,0,0,0,-1,1112,1030,0,0
-105,-6,0,0,0,0,0,0,0,0,0,-1,1119,1030,0,0
-98,-6,0,0,0,0,0,0,0,0,0,-1,1126,1030,0,0
-91,-6,0,0,0,0,0,0,0,0,0,-1,1133,1030,0,0
-84,-6,0,0,0,0,0,0,0,0,0,-1,1140,1030,0,0
-77,-6,0,0,0,0,0,0,0,0,0,-1,1147,1030,0,0
-70,-6,0,0,0,0,0,0,0,0,0,-1,1154,1030,0,0
-63,-6,0,0,0,0,0,0,0,0,0,-1,1161,1030,0,0
-56,-6,0,0,0,0,0,0,0,0,0,-1,1168,1030,0,0
-49,-6,0,0,0,0,0,0,0,0,0,-1,1175,1030,0,0
-42,-6,0,0,0,0,0,0,0,0,0,-1,1182,1030,0,0
-35,-6,0,0,0,0,0,0,0,0,0,-1,1189,1030,0,0
-28,-6,0,0,0,0,0,0,0,0,0,-1,1196,1030,0,0
-21,-6,0,0,0,0,0,0,0,0,0,-1,1203,1030,0,0
-14,-6,0,0,0,0,0,0,0,0,0,-1,1210,1030,0,0
-7,-6,0,0,0,0,0,0,0,0,0,-1,1217,1030,0,0
0,-6,0,0,0,0,0,0,0,0,0,-1,1224,1030,0,0
7,-6,0,0,0,0,0,0,0,0,0,-1,1231,1030,0,0
14,-6,0,0,0,0,0,0,0,0,0,-1,1238,1030,0,0
21,-6,0,0,0,0,0,0,0,0,0,-1,1245,1030,0,0
28,-6,0,0,0,0,0,0,0,0,0,-1,1252,1030,0,0
35,-6,0,0,0,0,0,0,0,0,0,-1,1259,1030,0,0
42,-6,0,0,0,0,0,0,0,0,0,-1,1266,1030,0,0
49,-6,0,0,0,0,0,0,0,0,0,-1,1273,1030,0,0
56,-6,0,0,0,0,0,0,0,0,0,-1,1280,1030,0,0
63,-6,0,0,0,0,0,0,0,0,0,-1,1287,1030,0,0
70,-6,0,0,0,0,0,0,0,0,0,-1,1294,1030,0,0
77,-6,0,0,0,0,0,0,0,0,0,-1,1301,1030,0,0
84,-6,0,0,0,0,0,0,0,0,0,-1,1308,1030,0,0
91,-6,0,0,0,0,0,0,0,0,0,-1,1315,1030,0,0
98,-6,0,0,0,0,0,0,0,0,0,-1,1322,1030,0,0
105,-6,0,0,0,0,0,0,0,0,0,-1,1329,1030,0,0
112,-6,0,0,0,0,0,0,0,0,0,-1,1336,1030,0,0
119,-6,0,0,0,0,0,0,0,0,0,-1,1343,1030,0,0
126,-6,0,0,0,0,0,0,0,0,0,-1,1350,1030,0,0
133,-6,0,0,0,0,0,0,0,0,0,-1,1357,1030,0,0
140,-6,0,0,0,0,0,0,0,0,0,-1,1364,1030,0,0
147,-6,0,0,0,0,0,0,0,0,0,-1,1371,1030,0,0
154,-6,0,0,0,0,0,0,0,0,0,-1,1378,1030,0,0
161,-6,0,0,0,0,0,0,0,0,0,-1,1385,1030,0,0
168,-6,0,0,0,0,0,0,0,0,0,-1,1392,1030,0,0
175,-6,0,0,0,0,0,0,0,0,0,-1,1399,1030,0,0
182,-6,0,0,0,0,0,0,0,0,0,-1,1406,1030,0,0
189,-6,0,0,0,0,0,0,0,0,0,-1,1413,1030,0,0
196,-6,0,0,0,0,0,0,0,0,0,-1,1420,1030,0,0
203,-6,0,0,0,0,0,0,0,0,0,-1,1427,1030,0,0
210,-6,0,0,0,0,0,0,0,0,0,-1,1434,1030,0,0
217,-6,0,0,0,0,0,0,0,0,0,-1,1441,1030,0,0
224,-6,0,0,0,0,0,0,0,0,0,-1,1448,1030,0,0
231,-6,0,0,0,0,0,0,0,0,0,-1,1455,1030,0,0
238,-6,0,0,0,0,0,0,0,0,0,-1,1462,1030,0,0
245,-6,0,0,0,0,0,0,0,0,0,-1,1469,1030,0,0
252,-6,0,0,0,0,0,0,0,0,0,-1,1476,1030,0,0
259,-6,0,0,0,0,0,0,0,0,0,-1,1483,1030,0,0
266,-6,0,0,0,0,0,0,0,0,0,-1,1490,1030,0,0
273,-6,0,0,0,0,0,0,0,0,0,-1,1497,1030,0,0
280,-6,0,0,0,0,0,0,0,0,0,-1,1504,1030,0,0
287,-6,0,0,0,0,0,0,0,0,0,-1,1511,1030,0,0
294,-6,0,0,0,0,0,0,0,0,0,-1,1518,1030,0,0
301,-6,0,0,0,0,0,0,0,0,0,-1,1525,1030,0,0
308,-6,0,0,0,0,0,0,0,0,0,-1,1532,1030,0,0
315,-6,0,0,0,0,0,0,0,0,0,-1,1539,1030,0,0
322,-6,0,0,0,0,0,0,0,0,0,-1,1546,1030,0,0
329,-6,0,0,0,0,0,0,0,0,0,-1,1553,1030,0,0
336,-6,0,0,0,0,0,0,0,0,0,-1,1560,1030,0,0
343,-6,0,0,0,0,0,0,0,0,0,-1,1567,1030,0,0
350,-6,0,0,0,0,0,0,0,0,0,-1,1574,1030,0,0
357,-6,0,0,0,0,0,0,0,0,0,-1,1581,1030,0,0
364,-6,0,0,0,0,0,0,0,0,0,-1,1588,1030,0,0
371,-6,0,0,0,0,0,0,0,0,0,-1,1595,1030,0,0
378,-6,0,0,0,0,0,0,0,0,0,-1,1602,1030,0,0
385,-6,0,0,0,0,0,0,0,0,0,-1,1609,1030,0,0
392,-6,0,0,0,0,0,0,0,0,0,-1,1616,1030,0,0
399,-6,0,0,0,0,0,0,0,0,0,-1,1623,1030,0,0
406,-6,0,0,0,0,0,0,0,0,0,-1,1630,1030,0,0
413,-6,0,0,0,0,0,0,0,0,0,-1,1637,1030,0,0
420,-6,0,0,0,0,0,0,0,0,0,-1,1644,1030,0,0
427,-6,0,0,0,0,0,0,0,0,0,-1,1651,1030,0,0
434,-6,0,0,0,0,0,0,0,0,0,-1,1658,1030,0,0
441,-6,0,0,0,0,0,0,0,0,0,-1,1665,1030,0,0
448,-6,0,0,0,0,0,0,0,0,0,-1,1672,1030,0,0
455,-6,0,0,0,0,0,0,0,0,0,-1,1679,1030,0,0
462,-6,0,0,0,0,0,0,0,0,0,-1,1686,1030,0,0
469,-6,0,0,0,0,0,0,0,0,0,-1,1693,1030,0,0
476,-6,0,0,0,0,0,0,0,0,0,-1,1700,1030,0,0
483,-6,0,0,0,0,0,0,0,0,0,-1,1707,1030,0,0
490,-6,0,0,0,0,0,0,0,0,0,-1,1714,1030,0,0
497,-6,0,0,0,0,0,0,0,0,0,-1,1721,1030,0,0
504,-6,0,0,0,0,0,0,0,0,0,-1,1728,1030,0,0
511,-6,0,0,0,0,0,0,0,0,0,-1,1735,1030,0,0
518,-6,0,0,0,0,0,0,0,0,0,-1,1742,1030,0,0
525,-6,0,0,0,0,0,0,0,0,0,-1,1749,1030,0,0
532,-6,0,0,0,0,0,0,0,0,0,-1,1756,1030,0,0
539,-6,0,0,0,0,0,0,0,0,0,-1,1763,1030,0,0
546,-6,0,0,0,0,0,0,0,0,0,-1,1770,1030,0,0
553,-6,0,0,0,0,0,0,0,0,0,-1,1777,1030,0,0
560,-6,0,0,0,0,0,0,0,0,0,-1,1784,1030,0,0
567,-6,0,0,0,0,0,0,0,0,0,-1,1791,1030,0,0
574,-6,0,0,0,0,0,0,0,0,0,-1,1798,1030,0,0
581,-6,0,0,0,0,0,0,0,0,0,-1,1805,1030,0,0
588,-6,0,0,0,0,0,0,0,0,0,-1,1812,1030,0,0
595,-6,0,0,0,0,0,0,0,0,0,-1,1819,1030,0,0
602,-6,0,0,0,0,0,0,0,0,0,-1,1826,1030,0,0
609,-6,0,0,0,0,0,0,0,0,0,-1,1833,1030,0,0
616,-6,0,0,0,0,0,0,0,0,0,-1,1840,1030,0,0
623,-6,0,0,0,0,0,0,0,0,0,-1,1847,1030,0,0
630,-6,0,0,0,0,0,0,0,0,0,-1,1854,1030,0,0
637,-6,0,0,0,0,0,0,0,0,0,-1,1861,1030,0,0
644,-6,0,0,0,0,0,0,0,0,0,-1,1868,1030,0,0
651,-6,64.2997,2.6488,0.00236312,0.000816777,0.00119541,0.00301361,0.00016629,0.498343,0.001956,0.0377928,1875,1030,64.2996,-2.64875
658,-6,64.2451,2.71765,0.00124663,0.0003121,0.000657115,0.00158568,-2.69452e-05,0.476334,0.00106621,0.0411388,1882,1030,64.2451,-2.7177
665,-6,64.2073,2.70947,0.000453454,6.31156e-06,0.00052925,0.000804417,-0.000344651,0.585552,0.000680887,0.0434157,1889,1030,64.2073,-2.70947
672,-6,64.3124,2.62988,-0.000119887,2.96341e-05,0.000744367,0.000702985,-0.000793238,0.835448,0.000864369,0.0404954,1896,1030,64.3124,-2.6299
679,-6,64.2842,2.66858,-0.000507613,0.000143584,0.00114024,0.0010038,-0.00136783,0.924473,0.00137463,0.0426126,1903,1030,64.2841,-2.66854
686,-6,64.0505,2.44873,-0.00103625,7.48789e-05,0.00156246,0.00117761,-0.00213898,0.956213,0.00194146,0.0400528,1910,1030,64.0505,-2.44875
693,-6,64.1489,2.58813,-0.00144514,-5.74531e-05,0.00197471,0.00134176,-0.00284436,0.954343,0.00246821,0.0361079,1917,1030,64.149,-2.58818
700,-6,64.2351,2.67456,-0.00164439,-0.000143743,0.00224792,0.00147577,-0.0032639,0.946476,0.00280061,0.0317425,1924,1030,64.2351,-2.67457
707,-6,64.1876,2.64148,-0.00227179,0.000161376,0.00232345,0.00156748,-0.0036779,1.02658,0.00310905,0.0282172,1931,1030,64.1876,-2.64149
714,-6,64.1812,2.60876,-0.00318097,0.000894093,0.00232461,0.00194773,-0.00423461,1.14524,0.00364987,0.0346361,1938,1030,64.1812,-2.60876
721,-6,64.224,2.64905,0,0,0,0,0,0,0,-1,1945,1030,64.224,-2.64908
728,-6,53.1713,6.25494,0,0,0,0,0,0,0,-1,1952,1030,53.1713,-6.25495
735,-6,64.1217,6.84387,0,0,0,0,0,0,0,-1,1959,1030,64.1218,-6.84385
742,-6,64.2576,7.02435,0,0,0,0,0,0,0,-1,1966,1030,64.2575,-7.02434
749,-6,64.2495,6.52551,0,0,0,0,0,0,0,-1,1973,1030,64.2495,-6.52552
756,-6,64.2601,6.591,-0.0103598,0.0104606,0.00143421,0.0105589,-0.0104581,1.50234,0.0121342,0.0331935,1980,1030,64.2602,-6.591
763,-6,64.1006,6.48712,-0.0112851,0.0133972,0.000871079,0.0134279,-0.0113158,1.53556,0.0143031,0.0222271,1987,1030,64.1007,-6.4871
770,-6,64.0154,6.41827,-0.0117291,0.0165945,0.000459134,0.0166019,-0.0117365,1.55459,0.0164414,0.0190759,1994,1030,64.0155,-6.4183
777,-6,63.8743,6.35638,-0.0112212,0.0201324,8.53563e-05,0.0201326,-0.0112214,1.56807,0.0183444,0.0205574,2001,1030,63.8744,-6.35636
784,-6,63.7129,6.18304,-0.00986276,0.0233021,-0.00052497,0.0233104,-0.00987106,-1.55497,0.0196742,0.0471417,2008,1030,63.7128,-6.18302
791,-6,63.4832,6.34198,0,0,0,0,0,0,0,-1,2015,1030,63.4832,-6.34196
798,-6,64.512,5.19812,0,0,0,0,0,0,0,-1,2022,1030,64.5119,-5.19816
805,-6,63.4541,3.39941,0,0,0,0,0,0,0,-1,2029,1030,63.454,-3.39945
812,-6,63.4651,3.34375,0,0,0,0,0,0,0,-1,2036,1030,63.4651,-3.34369
-700,-13,0,0,0,0,0,0,0,0,0,-1,524,1037,0,0
-693,-13,-48.5776,0.219604,0.14694,0.0955884,0.0896933,0.21456,0.0279682,0.645996,0.134689,0.0450085,531,1037,-48.5776,-0.219578
-686,-13,-47.6626,0.511108,0.128987,0.0846529,0.0768414,0.186795,0.0268452,0.644971,0.116616,0.0444519,538,1037,-47.6626,-0.511155
-679,-13,-46.9441,0.961304,0,0,0,0,0,0,0,-1,545,1037,-46.944,-0.961246
-672,-13,-48.3959,0.0871582,0,0,0,0,0,0,0,-1,552,1037,-48.3959,-0.0871881
-665,-13,-49.5772,3.33923,0,0,0,0,0,0,0,-1,559,1037,-49.5772,-3.33925
-658,-13,-49.3771,3.41577,0.0562148,0.044819,0.0322375,0.0832541,0.0177798,0.697927,0.0506277,0.0451302,566,1037,-49.3771,-3.41571
-651,-13,-49.1505,3.57495,0.040507,0.0366148,0.0237,0.0623406,0.0147812,0.744434,0.0376142,0.0420068,573,1037,-49.1505,-3.575
-644,-13,-48.8972,3.86548,0.0264556,0.0295252,0.0162806,0.0443432,0.0116376,0.832395,0.0265473,0.0343161,580,1037,-48.8972,-3.86542
-637,-13,-49.0247,4.02185,0.0141812,0.0222188,0.00916296,0.0282055,0.00819448,0.992061,0.0167541,0.0282985,587,1037,-49.0247,-4.02187
-630,-13,-49.1763,4.07251,0.00546993,0.0152272,0.00389074,0.0165886,0.00410846,1.23419,0.00997572,0.0177454,594,1037,-49.1763,-4.0725
-623,-13,-49.2071,4.23071,0.00129208,0.0103087,0.000712488,0.0103647,0.00123612,1.49243,0.00653684,0.0146652,601,1037,-49.2071,-4.23066
-616,-13,-49.2076,4.41992,-0.000179989,0.00681186,-0.00125519,0.00703036,-0.000398493,-1.39844,0.00482523,0.0137429,608,1037,-49.2077,-4.41995
-609,-13,-49.1948,4.60144,-0.000729666,0.00421241,-0.00269585,0.00539837,-0.00191563,-1.15636,0.00437941,0.0191053,615,1037,-49.1948,-4.6014
-602,-13,-49.1622,4.71021,-0.00123143,0.00211578,-0.00371586,0.00451753,-0.00363318,-0.99699,0.00471504,0.0141033,622,1037,-49.1622,-4.71019
-595,-13,-48.7276,4.78894,0,0,0,0,0,0,0,-1,629,1037,-48.7276,-4.78889
-588,-13,-48.5613,0.876709,0,0,0,0,0,0,0,-1,636,1037,-48.5613,-0.876683
-581,-13,-48.6621,0.742798,4.07632e-05,-0.000274461,-0.00358749,0.0034741,-0.0037078,-0.763445,0.0041472,0.0226894,643,1037,-48.6621,-0.742858
-574,-13,-48.7024,0.663452,0.000366055,-0.000414572,-0.00322007,0.00321938,-0.0032679,-0.725086,0.00374547,0.0298329,650,1037,-48.7024,-0.663407
-567,-13,-48.6823,0.461792,0.00042027,-9.17048e-05,-0.00245353,0.00263113,-0.00230256,-0.733419,0.00285057,0.0376001,657,1037,-48.6823,-0.461836
-560,-13,-48.5314,0.262451,0.00033734,0.000532112,-0.00119009,0.00162879,-0.00075934,-0.826223,0.00140892,0.0438099,664,1037,-48.5314,-0.262482
-553,-13,-48.5034,0.279785,9.3695e-05,0.00118147,0.000665509,0.00149707,-0.000221903,1.12798,0.00107964,0.0449683,671,1037,-48.5034,-0.279831
-546,-13,-48.7413,0.924927,-0.000190814,0.00139823,0.00321108,0.00391162,-0.0027042,0.906678,0.0038408,0.0424071,678,1037,-48.7413,-0.924948
-539,-13,-48.7043,1.38196,-0.000672443,0.000830553,0.00612288,0.00624788,-0.00608977,0.846461,0.00712334,0.0416251,685,1037,-48.7043,-1.38194
-532,-13,-48.6829,1.15686,-0.0008378,0.000342777,0.00870417,0.00847666,-0.00897168,0.819255,0.0100752,0.0420585,692,1037,-48.6829,-1.15689
-525,-13,0,0,0,0,0,0,0,0,0,-1,699,1037,0,0
-518,-13,0,0,0,0,0,0,0,0,0,-1,706,1037,0,0
-511,-13,0,0,0,0,0,0,0,0,0,-1,713,1037,0,0
-504,-13,0,0,0,0,0,0,0,0,0,-1,720,1037,0,0
-497,-13,0,0,0,0,0,0,0,0,0,-1,727,1037,0,0
-490,-13,0,0,0,0,0,0,0,0,0,-1,734,1037,0,0
-483,-13,0,0,0,0,0,0,0,0,0,-1,741,1037,0,0
-476,-13,0,0,0,0,0,0,0,0,0,-1,748,1037,0,0
-469,-13,0,0,0,0,0,0,0,0,0,-1,755,1037,0,0
-462,-13,0,0,0,0,0,0,0,0,0,-1,762,1037,0,0
-455,-13,0,0,0,0,0,0,0,0,0,-1,769,1037,0,0
-448,-13,0,0,0,0,0,0,0,0,0,-1,776,1037,0,0
-441,-13,0,0,0,0,0,0,0,0,0,-1,783,1037,0,0
-434,-13,0,0,0,0,0,0,0,0,0,-1,790,1037,0,0
-427,-13,0,0,0,0,0,0,0,0,0,-1,797,1037,0,0
-420,-13,0,0,0,0,0,0,0,0,0,-1,804,1037,0,0
-413,-13,0,0,0,0,0,0,0,0,0,-1,811,1037,0,0
-406,-13,0,0,0,0,0,0,0,0,0,-1,818,1037,0,0
-399,-13,0,0,0,0,0,0,0,0,0,-1,825,1037,0,0
-392,-13,0,0,0,0,0,0,0,0,0,-1,832,1037,0,0
-385,-13,0,0,0,0,0,0,0,0,0,-1,839,1037,0,0
-378,-13,0,0,0,0,0,0,0,0,0,-1,846,1037,0,0
-371,-13,0,0,0,0,0,0,0,0,0,-1,853,1037,0,0
-364,-13,0,0,0,0,0,0,0,0,0,-1,860,1037,0,0
-357,-13,0,0,0,0,0,0,0,0,0,-1,867,1037,0,0
-350,-13,0,0,0,0,0,0,0,0,0,-1,874,1037,0,0
-343,-13,0,0,0,0,0,0,0,0,0,-1,881,1037,0,0
-336,-13,0,0,0,0,0,0,0,0,0,-1,888,1037,0,0
-329,-13,0,0,0,0,0,0,0,0,0,-1,895,1037,0,0
-322,-13,0,0,0,0,0,0,0,0,0,-1,902,1037,0,0
-315,-13,0,0,0,0,0,0,0,0,0,-1,909,1037,0,0
-308,-13,0,0,0,0,0,0,0,0,0,-1,916,1037,0,0
-301,-13,0,0,0,0,0,0,0,0,0,-1,923,1037,0,0
-294,-13,0,0,0,0,0,0,0,0,0,-1,930,1037,0,0
-287,-13,0,0,0,0,0,0,0,0,0,-1,937,1037,0,0
-280,-13,0,0,0,0,0,0,0,0,0,-1,944,1037,0,0
-273,-13,0,0,0,0,0,0,0,0,0,-1,951,1037,0,0
-266,-13,0,0,0,0,0,0,0,0,0,-1,958,1037,0,0
-259,-13,0,0,0,0,0,0,0,0,0,-1,965,1037,0,0
-252,-13,0,0,0,0,0,0,0,0,0,-1,972,1037,0,0
-245,-13,0,0,0,0,0,0,0,0,0,-1,979,1037,0,0
-238,-13,0,0,0,0,0,0,0,0,0,-1,986,1037,0,0
-231,-13,0,0,0,0,0,0,0,0,0,-1,993,1037,0,0
-224,-13,0,0,0,0,0,0,0,0,0,-1,1000,1037,0,0
-217,-13,0,0,0,0,0,0,0,0,0,-1,1007,1037,0,0
-210,-13,0,0,0,0,0,0,0,0,0,-1,1014,1037,0,0
-203,-13,0,0,0,0,0,0,0,0,0,-1,1021,1037,0,0
-196,-13,0,0,0,0,0,0,0,0,0,-1,1028,1037,0,0
-189,-13,0,0,0,0,0,0,0,0,0,-1,1035,1037,0,0
-182,-13,0,0,0,0,0,0,0,0,0,-1,1042,1037,0,0
-175,-13,0,0,0,0,0,0,0,0,0,-1,1049,1037,0,0
-168,-13,0,0,0,0,0,0,0,0,0,-1,1056,1037,0,0
-161,-13,0,0,0,0,0,0,0,0,0,-1,1063,1037,0,0
-154,-13,0,0,0,0,0,0,0,0,0,-1,1070,1037,0,0
-147,-13,0,0,0,0,0,0,0,0,0,-1,1077,1037,0,0
-140,-13,0,0,0,0,0,0,0,0,0,-1,1084,1037,0,0
-133,-13,0,0,0,0,0,0,0,0,0,-1,1091,1037,0,0
-126,-13,0,0,0,0,0,0,0,0,0,-1,1098,1037,0,0
-119,-13,0,0,0,0,0,0,0,0,0,-1,1105,1037,0,0
-112,-13,0,0,0,0,0,0,0,0,0,-1,1112,1037,0,0
-105,-13,0,0,0,0,0,0,0,0,0,-1,1119,1037,0,0
-98,-13,0,0,0,0,0,0,0,0,0,-1,1126,1037,0,0
-91,-13,0,0,0,0,0,0,0,0,0,-1,1133,1037,0,0
-84,-13,0,0,0,0,0,0,0,0,0,-1,1140,1037,0,0
-77,-13,0,0,0,0,0,0,0,0,0,-1,1147,1037,0,0
-70,-13,0,0,0,0,0,0,0,0,0,-1,1154,1037,0,0
-63,-13,0,0,0,0,0,0,0,0,0,-1,1161,1037,0,0
-56,-13,0,0,0,0,0,0,0,0,0,-1,1168,1037,0,0
-49,-13,0,0,0,0,0,0,0,0,0,-1,1175,1037,0,0
-42,-13,0,0,0,0,0,0,0,0,0,-1,1182,1037,0,0
-35,-13,0,0,0,0,0,0,0,0,0,-1,1189,1037,0,0
-28,-13,0,0,0,0,0,0,0,0,0,-1,1196,1037,0,0
-21,-13,0,0,0,0,0,0,0,0,0,-1,1203,1037,0,0
-14,-13,0,0,0,0,0,0,0,0,0,-1,1210,1037,0,0
-7,-13,0,0,0,0,0,0,0,0,0,-1,1217,1037,0,0
0,-13,0,0,0,0,0,0,0,0,0,-1,1224,1037,0,0
7,-13,0,0,0,0,0,0,0,0,0,-1,1231,1037,0,0
14,-13,0,0,0,0,0,0,0,0,0,-1,1238,1037,0,0
21,-13,0,0,0,0,0,0,0,0,0,-1,1245,1037,0,0
28,-13,0,0,0,0,0,0,0,0,0,-1,1252,1037,0,0
35,-13,0,0,0,0,0,0,0,0,0,-1,1259,1037,0,0
42,-13,0,0,0,0,0,0,0,0,0,-1,1266,1037,0,0
49,-13,0,0,0,0,0,0,0,0,0,-1,1273,1037,0,0
56,-13,0,0,0,0,0,0,0,0,0,-1,1280,1037,0,0
63,-13,0,0,0,0,0,0,0,0,0,-1,1287,1037,0,0
70,-13,0,0,0,0,0,0,0,0,0,-1,1294,1037,0,0
77,-13,0,0,0,0,0,0,0,0,0,-1,1301,1037,0,0
84,-13,0,0,0,0,0,0,0,0,0,-1,1308,1037,0,0
91,-13,0,0,0,0,0,0,0,0,0,-1,1315,1037,0,0
98,-13,0,0,0,0,0,0,0,0,0,-1,1322,1037,0,0
105,-13,0,0,0,0,0,0,0,0,0,-1,1329,1037,0,0
112,-13,0,0,0,0,0,0,0,0,0,-1,1336,1037,0,0
119,-13,0,0,0,0,0,0,0,0,0,-1,1343,1037,0,0
126,-13,0,0,0,0,0,0,0,0,0,-1,1350,1037,0,0
133,-13,0,0,0,0,0,0,0,0,0,-1,1357,1037,0,0
140,-13,0,0,0,0,0,0,0,0,0,-1,1364,1037,0,0
147,-13,0,0,0,0,0,0,0,0,0,-1,1371,1037,0,0
154,-13,0,0,0,0,0,0,0,0,0,-1,1378,1037,0,0
161,-13,0,0,0,0,0,0,0,0,0,-1,1385,1037,0,0
168,-13,0,0,0,0,0,0,0,0,0,-1,1392,1037,0,0
175,-13,0,0,0,0,0,0,0,0,0,-1,1399,1037,0,0
182,-13,0,0,0,0,0,0,0,0,0,-1,1406,1037,0,0
189,-13,0,0,0,0,0,0,0,0,0,-1,1413,1037,0,0
196,-13,0,0,0,0,0,0,0,0,0,-1,1420,1037,0,0
203,-13,0,0,0,0,0,0,0,0,0,-1,1427,1037,0,0
210,-13,0,0,0,0,0,0,0,0,0,-1,1434,1037,0,0
217,-13,0,0,0,0,0,0,0,0,0,-1,1441,1037,0,0
224,-13,0,0,0,0,0,0,0,0,0,-1,1448,1037,0,0
231,-13,0,0,0,0,0,0,0,0,0,-1,1455,1037,0,0
238,-13,0,0,0,0,0,0,0,0,0,-1,1462,1037,0,0
245,-13,0,0,0,0,0,0,0,0,0,-1,1469,1037,0,0
252,-13,0,0,0,0,0,0,0,0,0,-1,1476,1037,0,0
259,-13,0,0,0,0,0,0,0,0,0,-1,1483,1037,0,0
266,-13,0,0,0,0,0,0,0,0,0,-1,1490,1037,0,0
273,-13,0,0,0,0,0,0,0,0,0,-1,1497,1037,0,0
280,-13,0,0,0,0,0,0,0,0,0,-1,1504,1037,0,0
287,-13,0,0,0,0,0,0,0,0,0,-1,1511,1037,0,0
294,-13,0,0,0,0,0,0,0,0,0,-1,1518,1037,0,0
301,-13,0,0,0,0,0,0,0,0,0,-1,1525,1037,0,0
308,-13,0,0,0,0,0,0,0,0,0,-1,1532,1037,0,0
315,-13,0,0,0,0,0,0,0,0,0,-1,1539,1037,0,0
322,-13,0,0,0,0,0,0,0,0,0,-1,1546,1037,0,0
329,-13,0,0,0,0,0,0,0,0,0,-1,1553,1037,0,0
336,-13,0,0,0,0,0,0,0,0,0,-1,1560,1037,0,0
343,-13,0,0,0,0,0,0,0,0,0,-1,1567,1037,0,0
350,-13,0,0,0,0,0,0,0,0,0,-1,1574,1037,0,0
357,-13,0,0,0,0,0,0,0,0,0,-1,1581,1037,0,0
364,-13,0,0,0,0,0,0,0,0,0,-1,1588,1037,0,0
371,-13,0,0,0,0,0,0,0,0,0,-1,1595,1037,0,0
378,-13,0,0,0,0,0,0,0,0,0,-1,1602,1037,0,0
385,-13,0,0,0,0,0,0,0,0,0,-1,1609,1037,0,0
392,-13,0,0,0,0,0,0,0,0,0,-1,1616,1037,0,0
399,-13,0,0,0,0,0,0,0,0,0,-1,1623,1037,0,0
406,-13,0,0,0,0,0,0,0,0,0,-1,1630,1037,0,0
413,-13,0,0,0,0,0,0,0,0,0,-1,1637,1037,0,0
420,-13,0,0,0,0,0,0,0,0,0,-1,1644,1037,0,0
427,-13,0,0,0,0,0,0,0,0,0,-1,1651,1037,0,0
434,-13,0,0,0,0,0,0,0,0,0,-1,1658,1037,0,0
441,-13,0,0,0,0,0,0,0,0,0,-1,1665,1037,0,0
448,-13,0,0,0,0,0,0,0,0,0,-1,1672,1037,0,0
455,-13,0,0,0,0,0,0,0,0,0,-1,1679,1037,0,0
462,-13,0,0,0,0,0,0,0,0,0,-1,1686,1037,0,0
469,-13,0,0,0,0,0,0,0,0,0,-1,1693,1037,0,0
476,-13,0,0,0,0,0,0,0,0,0,-1,1700,1037,0,0
483,-13,0,0,0,0,0,0,0,0,0,-1,1707,1037,0,0
490,-13,0,0,0,0,0,0,0,0,0,-1,1714,1037,0,0
497,-13,0,0,0,0,0,0,0,0,0,-1,1721,1037,0,0
504,-13,0,0,0,0,0,0,0,0,0,-1,1728,1037,0,0
511,-13,0,0,0,0,0,0,0,0,0,-1,1735,1037,0,0
518,-13,0,0,0,0,0,0,0,0,0,-1,1742,1037,0,0
525,-13,0,0,0,0,0,0,0,0,0,-1,1749,1037,0,0
532,-13,0,0,0,0,0,0,0,0,0,-1,1756,1037,0,0
539,-13,0,0,0,0,0,0,0,0,0,-1,1763,1037,0,0
546,-13,0,0,0,0,0,0,0,0,0,-1,1770,1037,0,0
553,-13,0,0,0,0,0,0,0,0,0,-1,1777,1037,0,0
560,-13,0,0,0,0,0,0,0,0,0,-1,1784,1037,0,0
567,-13,0,0,0,0,0,0,0,0,0,-1,1791,1037,0,0
574,-13,0,0,0,0,0,0,0,0,0,-1,1798,1037,0,0
581,-13,0,0,0,0,0,0,0,0,0,-1,1805,1037,0,0
588,-13,0,0,0,0,0,0,0,0,0,-1,1812,1037,0,0
595,-13,0,0,0,0,0,0,0,0,0,-1,1819,1037,0,0
602,-13,0,0,0,0,0,0,0,0,0,-1,1826,1037,0,0
609,-13,0,0,0,0,0,0,0,0,0,-1,1833,1037,0,0
616,-13,0,0,0,0,0,0,0,0,0,-1,1840,1037,0,0
623,-13,0,0,0,0,0,0,0,0,0,-1,1847,1037,0,0
630,-13,0,0,0,0,0,0,0,0,0,-1,1854,1037,0,0
637,-13,0,0,0,0,0,0,0,0,0,-1,1861,1037,0,0
644,-13,0,0,0,0,0,0,0,0,0,-1,1868,1037,0,0
651,-13,64.2267,2.55444,0.00176801,0.000348245,0.00140339,0.00263085,-0.00051459,0.551246,0.00194821,0.0378799,1875,1037,64.2267,-2.55449
658,-13,64.2208,2.5127,0.000916053,-4.93405e-06,0.000867742,0.00143792,-0.0005268,0.541453,0.00117428,0.0430109,1882,1037,64.2209,-2.51268
665,-13,64.2448,2.67114,0.00028709,-0.00020118,0.000699811,0.000784129,-0.000698218,0.617569,0.000856312,0.0434601,1889,1037,64.2447,-2.67112
672,-13,64.3844,2.59534,-0.000155779,-0.00010995,0.000855669,0.000723111,-0.00098884,0.798785,0.000992357,0.035335,1896,1037,64.3844,-2.59535
679,-13,64.2096,2.63391,-0.000461083,7.11301e-05,0.00117281,0.00100765,-0.0013976,0.896957,0.00139474,0.0371261,1903,1037,64.2096,-2.63396
686,-13,64.0444,2.60486,-0.00101828,4.63448e-05,0.0015272,0.00113135,-0.00210328,0.953091,0.00189541,0.0401543,1910,1037,64.0445,-2.6049
693,-13,64.093,2.60974,-0.00149413,-6.35496e-05,0.0018952,0.00124685,-0.00280453,0.965845,0.002396,0.038418,1917,1037,64.093,-2.60972
700,-13,64.2236,2.53748,-0.0017561,-0.000137337,0.00218151,0.0013801,-0.00327354,0.963035,0.00275991,0.0342387,1924,1037,64.2236,-2.53751
707,-13,64.2509,2.50354,-0.00242157,0.0001261,0.00230249,0.00148364,-0.0037791,1.03806,0.00313331,0.0310793,1931,1037,64.2508,-2.50351
714,-13,64.2031,2.78186,-0.00331834,0.000794344,0.00234415,0.00185627,-0.00438026,1.14544,0.00369765,0.0312752,1938,1037,64.2031,-2.78187
721,-13,64.0419,3.08997,0,0,0,0,0,0,0,-1,1945,1037,64.0419,-3.08994
728,-13,64.2428,6.95349,0,0,0,0,0,0,0,-1,1952,1037,64.2428,-6.95344
735,-13,64.0847,6.89502,-0.00688432,0.00483739,0.00212104,0.00520939,-0.00725632,1.39718,0.00722935,0.038549,1959,1037,64.0847,-6.89506
742,-13,64.0298,6.80066,-0.00795337,0.00626822,0.00198727,0.0065407,-0.00822584,1.43454,0.00854395,0.0251284,1966,1037,64.0298,-6.8007
749,-13,64.1381,6.66614,-0.00943459,0.00755877,0.002027,0.0077972,-0.00967303,1.4537,0.0101058,0.033324,1973,1037,64.1381,-6.66614
756,-13,64.1285,6.55652,-0.0107759,0.00956878,0.00169684,0.00970933,-0.0109165,1.48815,0.0119151,0.0210366,1980,1037,64.1285,-6.55648
763,-13,64.0452,6.39563,-0.0118513,0.0122633,0.00104686,0.0123087,-0.0118967,1.52749,0.0139757,0.0297155,1987,1037,64.0452,-6.39562
770,-13,63.9377,6.30603,-0.012686,0.0150593,0.000417846,0.0150656,-0.0126923,1.55574,0.0160456,0.0247703,1994,1037,63.9378,-6.306
777,-13,63.7612,6.14746,-0.0128058,0.0180952,-0.000377171,0.0180998,-0.0128104,-1.55859,0.0179329,0.0180552,2001,1037,63.7611,-6.14745
784,-13,63.7612,5.96313,-0.0122824,0.0208134,-0.00158605,0.0208892,-0.0123582,-1.52302,0.0194049,0.0392795,2008,1037,63.7613,-5.96315
791,-13,63.7725,5.78455,0,0,0,0,0,0,0,-1,2015,1037,63.7724,-5.78455
798,-13,64.2229,5.3197,0,0,0,0,0,0,0,-1,2022,1037,64.2228,-5.31976
805,-13,64.3413,5.0603,0,0,0,0,0,0,0,-1,2029,1037,64.3413,-5.06035
812,-13,64.0383,5.31348,0,0,0,0,0,0,0,-1,2036,1037,64.0383,-5.3135
-700,-20,-50.5741,-0.73645,0.172459,0.0867754,0.0964507,0.235155,0.0240797,0.576395,0.149391,0.0481768,524,1044,-50.5741,0.736493
-693,-20,-49.5424,-0.300903,0.155921,0.0829881,0.0868025,0.213606,0.025303,0.586539,0.134764,0.0441076,531,1044,-49.5424,0.300919
-686,-20,-48.3436,-0.0153809,0,0,0,0,0,0,0,-1,538,1044,-48.3436,0.015351
-679,-20,-48.2836,0.385742,0,0,0,0,0,0,0,-1,545,1044,-48.2836,-0.385796
-672,-20,-50.1121,4.77136,0,0,0,0,0,0,0,-1,552,1044,-50.1121,-4.77132
-665,-20,-49.79,3.9248,0.0764154,0.0480409,0.0410408,0.105652,0.0188044,0.618984,0.0650784,0.0444578,559,1044,-49.79,-3.92481
-658,-20,-49.4707,3.07532,0.0585708,0.0399238,0.0315365,0.0821332,0.0163615,0.641672,0.0501984,0.0435681,566,1044,-49.4707,-3.07527
-651,-20,-48.8362,3.50549,0.0427498,0.0324973,0.023201,0.0613841,0.013863,0.676671,0.0371736,0.042365,573,1044,-48.8363,-3.50544
-644,-20,-48.733,3.50061,0.028647,0.0261138,0.0159349,0.0433656,0.0113952,0.745739,0.0259595,0.0297484,580,1044,-48.7331,-3.50067
-637,-20,-48.8233,3.68555,0.0161706,0.0195942,0.00908743,0.0271296,0.00863514,0.878491,0.0160044,0.0217927,587,1044,-48.8233,-3.6855
-630,-20,-48.9241,3.93591,0.00724599,0.0134912,0.00400442,0.0154466,0.0052906,1.11655,0.00906438,0.0178456,594,1044,-48.9241,-3.93595
-623,-20,-48.986,4.18298,0.00262296,0.00907822,0.000784878,0.00917228,0.0025289,1.45152,0.00547034,0.0154689,601,1044,-48.986,-4.18299
-616,-20,-48.9973,4.3927,0.000783325,0.00589565,-0.00115511,0.00614452,0.000534447,-1.35858,0.00393033,0.0149811,608,1044,-48.9973,-4.39274
-609,-20,-49.0236,4.58398,-5.67233e-05,0.00342566,-0.00256709,0.00478635,-0.00141742,-1.0834,0.00375366,0.0168504,615,1044,-49.0235,-4.58404
-602,-20,-49.0106,4.7467,-0.000762298,0.00126718,-0.00353852,0.00393358,-0.0034287,-0.925036,0.00425394,0.015013,622,1044,-49.0105,-4.74674
-595,-20,-48.9749,4.88647,-0.000933785,0.000318577,-0.00373066,0.00347524,-0.00409045,-0.868547,0.00437287,0.0447032,629,1044,-48.9749,-4.88647
-588,-20,-48.572,0.808838,0,0,0,0,0,0,0,-1,636,1044,-48.572,-0.808803
-581,-20,-48.663,0.672485,0.000119332,-0.000983133,-0.00323945,0.00285411,-0.00371792,-0.701124,0.00380527,0.0303886,643,1044,-48.663,-0.672475
-574,-20,-48.72,0.619995,0.00037898,-0.00109152,-0.00284964,0.00258669,-0.00329923,-0.659144,0.00340653,0.0357301,650,1044,-48.72,-0.619947
-567,-20,-48.6305,0.478394,0.000356266,-0.000749308,-0.00213079,0.00200481,-0.00239785,-0.658482,0.00254525,0.0426333,657,1044,-48.6305,-0.478405
-560,-20,-48.3724,0.391235,0.000172094,-5.7207e-05,-0.000974055,0.00103822,-0.000923336,-0.726816,0.00113315,0.0443021,664,1044,-48.3724,-0.391256
-553,-20,-48.4016,0.369629,-0.000176409,0.000763297,0.000714043,0.00114821,-0.000561319,1.07639,0.0010062,0.0424669,671,1044,-48.4016,-0.369647
-546,-20,-48.5563,0.78186,-0.000555497,0.00133722,0.00303634,0.00357127,-0.00278954,0.936465,0.00368165,0.0388848,678,1044,-48.5563,-0.78184
-539,-20,-48.6573,1.26416,-0.00112339,0.0012798,0.00579424,0.00599573,-0.00583932,0.887638,0.00683317,0.0418385,685,1044,-48.6573,-1.26413
-532,-20,-48.608,1.08459,-0.0015251,0.00128973,0.00848754,0.00848576,-0.00872113,0.867561,0.00993471,0.0421003,692,1044,-48.6081,-1.08465
-525,-20,0,0,0,0,0,0,0,0,0,-1,699,1044,0,0
-518,-20,0,0,0,0,0,0,0,0,0,-1,706,1044,0,0
-511,-20,0,0,0,0,0,0,0,0,0,-1,713,1044,0,0
-504,-20,0,0,0,0,0,0,0,0,0,-1,720,1044,0,0
-497,-20,0,0,0,0,0,0,0,0,0,-1,727,1044,0,0
-490,-20,0,0,0,0,0,0,0,0,0,-1,734,1044,0,0
-483,-20,0,0,0,0,0,0,0,0,0,-1,741,1044,0,0
-476,-20,0,0,0,0,0,0,0,0,0,-1,748,1044,0,0
-469,-20,0,0,0,0,0,0,0,0,0,-1,755,1044,0,0
-462,-20,0,0,0,0,0,0,0,0,0,-1,762,1044,0,0
-455,-20,0,0,0,0,0,0,0,0,0,-1,769,1044,0,0
-448,-20,0,0,0,0,0,0,0,0,0,-1,776,1044,0,0
-441,-20,0,0,0,0,0,0,0,0,0,-1,783,1044,0,0
-434,-20,0,0,0,0,0,0,0,0,0,-1,790,1044,0,0
-427,-20,0,0,0,0,0,0,0,0,0,-1,797,1044,0,0
-420,-20,0,0,0,0,0,0,0,0,0,-1,804,1044,0,0
-413,-20,0,0,0,0,0,0,0,0,0,-1,811,1044,0,0
-406,-20,0,0,0,0,0,0,0,0,0,-1,818,1044,0,0
-399,-20,0,0,0,0,0,0,0,0,0,-1,825,1044,0,0
-392,-20,0,0,0,0,0,0,0,0,0,-1,832,1044,0,0
-385,-20,0,0,0,0,0,0,0,0,0,-1,839,1044,0,0
-378,-20,0,0,0,0,0,0,0,0,0,-1,846,1044,0,0
-371,-20,0,0,0,0,0,0,0,0,0,-1,853,1044,0,0
-364,-20,0,0,0,0,0,0,0,0,0,-1,860,1044,0,0
-357,-20,0,0,0,0,0,0,0,0,0,-1,867,1044,0,0
-350,-20,0,0,0,0,0,0,0,0,0,-1,874,1044,0,0
-343,-20,0,0,0,0,0,0,0,0,0,-1,881,1044,0,0
-336,-20,0,0,0,0,0,0,0,0,0,-1,888,1044,0,0
-329,-20,0,0,0,0,0,0,0,0,0,-1,895,1044,0,0
-322,-20,0,0,0,0,0,0,0,0,0,-1,902,1044,0,0
-315,-20,0,0,0,0,0,0,0,0,0,-1,909,1044,0,0
-308,-20,0,0,0,0,0,0,0,0,0,-1,916,1044,0,0
-301,-20,0,0,0,0,0,0,0,0,0,-1,923,1044,0,0
-294,-20,0,0,0,0,0,0,0,0,0,-1,930,1044,0,0
-287,-20,0,0,0,0,0,0,0,0,0,-1,937,1044,0,0
-280,-20,0,0,0,0,0,0,0,0,0,-1,944,1044,0,0
-273,-20,0,0,0,0,0,0,0,0,0,-1,951,1044,0,0
-266,-20,0,0,0,0,0,0,0,0,0,-1,958,1044,0,0
-259,-20,0,0,0,0,0,0,0,0,0,-1,965,1044,0,0
-252,-20,0,0,0,0,0,0,0,0,0,-1,972,1044,0,0
-245,-20,0,0,0,0,0,0,0,0,0,-1,979,1044,0,0
-238,-20,0,0,0,0,0,0,0,0,0,-1,986,1044,0,0
-231,-20,0,0,0,0,0,0,0,0,0,-1,993,1044,0,0
-224,-20,0,0,0,0,0,0,0,0,0,-1,1000,1044,0,0
-217,-20,0,0,0,0,0,0,0,0,0,-1,1007,1044,0,0
-210,-20,0,0,0,0,0,0,0,0,0,-1,1014,1044,0,0
-203,-20,0,0,0,0,0,0,0,0,0,-1,1021,1044,0,0
-196,-20,0,0,0,0,0,0,0,0,0,-1,1028,1044,0,0
-189,-20,0,0,0,0,0,0,0,0,0,-1,1035,1044,0,0
-182,-20,0,0,0,0,0,0,0,0,0,-1,1042,1044,0,0
-175,-20,0,0,0,0,0,0,0,0,0,-1,1049,1044,0,0
-168,-20,0,0,0,0,0,0,0,0,0,-1,1056,1044,0,0
-161,-20,0,0,0,0,0,0,0,0,0,-1,1063,1044,0,0
-154,-20,0,0,0,0,0,0,0,0,0,-1,1070,1044,0,0
-147,-20,0,0,0,0,0,0,0,0,0,-1,1077,1044,0,0
-140,-20,0,0,0,0,0,0,0,0,0,-1,1084,1044,0,0
-133,-20,0,0,0,0,0,0,0,0,0,-1,1091,1044,0,0
-126,-20,0,0,0,0,0,0,0,0,0,-1,1098,1044,0,0
-119,-20,0,0,0,0,0,0,0,0,0,-1,1105,1044,0,0
-112,-20,0,0,0,0,0,0,0,0,0,-1,1112,1044,0,0
-105,-20,0,0,0,0,0,0,0,0,0,-1,1119,1044,0,0
-98,-20,0,0,0,0,0,0,0,0,0,-1,1126,1044,0,0
-91,-20,0,0,0,0,0,0,0,0,0,-1,1133,1044,0,0
-84,-20,0,0,0,0,0,0,0,0,0,-1,1140,1044,0,0
-77,-20,0,0,0,0,0,0,0,0,0,-1,1147,1044,0,0
-70,-20,0,0,0,0,0,0,0,0,0,-1,1154,1044,0,0
-63,-20,0,0,0,0,0,0,0,0,0,-1,1161,1044,0,0
-56,-20,0,0,0,0,0,0,0,0,0,-1,1168,1044,0,0
-49,-20,0,0,0,0,0,0,0,0,0,-1,1175,1044,0,0
-42,-20,0,0,0,0,0,0,0,0,0,-1,1182,1044,0,0
-35,-20,0,0,0,0,0,0,0,0,0,-1,1189,1044,0,0
-28,-20,0,0,0,0,0,0,0,0,0,-1,1196,1044,0,0
-21,-20,0,0,0,0,0,0,0,0,0,-1,1203,1044,0,0
-14,-20,0,0,0,0,0,0,0,0,0,-1,1210,1044,0,0
-7,-20,0,0,0,0,0,0,0,0,0,-1,1217,1044,0,0
0,-20,0,0,0,0,0,0,0,0,0,-1,1224,1044,0,0
7,-20,0,0,0,0,0,0,0,0,0,-1,1231,1044,0,0
14,-20,0,0,0,0,0,0,0,0,0,-1,1238,1044,0,0
21,-20,0,0,0,0,0,0,0,0,0,-1,1245,1044,0,0
28,-20,0,0,0,0,0,0,0,0,0,-1,1252,1044,0,0
35,-20,0,0,0,0,0,0,0,0,0,-1,1259,1044,0,0
42,-20,0,0,0,0,0,0,0,0,0,-1,1266,1044,0,0
49,-20,0,0,0,0,0,0,0,0,0,-1,1273,1044,0,0
56,-20,0,0,0,0,0,0,0,0,0,-1,1280,1044,0,0
63,-20,0,0,0,0,0,0,0,0,0,-1,1287,1044,0,0
70,-20,0,0,0,0,0,0,0,0,0,-1,1294,1044,0,0
77,-20,0,0,0,0,0,0,0,0,0,-1,1301,1044,0,0
84,-20,0,0,0,0,0,0,0,0,0,-1,1308,1044,0,0
91,-20,0,0,0,0,0,0,0,0,0,-1,1315,1044,0,0
98,-20,0,0,0,0,0,0,0,0,0,-1,1322,1044,0,0
105,-20,0,0,0,0,0,0,0,0,0,-1,1329,1044,0,0
112,-20,0,0,0,0,0,0,0,0,0,-1,1336,1044,0,0
119,-20,0,0,0,0,0,0,0,0,0,-1,1343,1044,0,0
126,-20,0,0,0,0,0,0,0,0,0,-1,1350,1044,0,0
133,-20,0,0,0,0,0,0,0,0,0,-1,1357,1044,0,0
140,-20,0,0,0,0,0,0,0,0,0,-1,1364,1044,0,0
147,-20,0,0,0,0,0,0,0,0,0,-1,1371,1044,0,0
154,-20,0,0,0,0,0,0,0,0,0,-1,1378,1044,0,0
161,-20,0,0,0,0,0,0,0,0,0,-1,1385,1044,0,0
168,-20,0,0,0,0,0,0,0,0,0,-1,1392,1044,0,0
175,-20,0,0,0,0,0,0,0,0,0,-1,1399,1044,0,0
182,-20,0,0,0,0,0,0,0,0,0,-1,1406,1044,0,0
189,-20,0,0,0,0,0,0,0,0,0,-1,1413,1044,0,0
196,-20,0,0,0,0,0,0,0,0,0,-1,1420,1044,0,0
203,-20,0,0,0,0,0,0,0,0,0,-1,1427,1044,0,0
210,-20,0,0,0,0,0,0,0,0,0,-1,1434,1044,0,0
217,-20,0,0,0,0,0,0,0,0,0,-1,1441,1044,0,0
224,-20,0,0,0,0,0,0,0,0,0,-1,1448,1044,0,0
231,-20,0,0,0,0,0,0,0,0,0,-1,1455,1044,0,0
238,-20,0,0,0,0,0,0,0,0,0,-1,1462,1044,0,0
245,-20,0,0,0,0,0,0,0,0,0,-1,1469,1044,0,0
252,-20,0,0,0,0,0,0,0,0,0,-1,1476,1044,0,0
259,-20,0,0,0,0,0,0,0,0,0,-1,1483,1044,0,0
266,-20,0,0,0,0,0,0,0,0,0,-1,1490,1044,0,0
273,-20,0,0,0,0,0,0,0,0,0,-1,1497,1044,0,0
280,-20,0,0,0,0,0,0,0,0,0,-1,1504,1044,0,0
287,-20,0,0,0,0,0,0,0,0,0,-1,1511,1044,0,0
294,-20,0,0,0,0,0,0,0,0,0,-1,1518,1044,0,0
301,-20,0,0,0,0,0,0,0,0,0,-1,1525,1044,0,0
308,-20,0,0,0,0,0,0,0,0,0,-1,1532,1044,0,0
315,-20,0,0,0,0,0,0,0,0,0,-1,1539,1044,0,0
322,-20,0,0,0,0,0,0,0,0,0,-1,1546,1044,0,0
329,-20,0,0,0,0,0,0,0,0,0,-1,1553,1044,0,0
336,-20,0,0,0,0,0,0,0,0,0,-1,1560,1044,0,0
343,-20,0,0,0,0,0,0,0,0,0,-1,1567,1044,0,0
350,-20,0,0,0,0,0,0,0,0,0,-1,1574,1044,0,0
357,-20,0,0,0,0,0,0,0,0,0,-1,1581,1044,0,0
364,-20,0,0,0,0,0,0,0,0,0,-1,1588,1044,0,0
371,-20,0,0,0,0,0,0,0,0,0,-1,1595,1044,0,0
378,-20,0,0,0,0,0,0,0,0,0,-1,1602,1044,0,0
385,-20,0,0,0,0,0,0,0,0,0,-1,1609,1044,0,0
392,-20,0,0,0,0,0,0,0,0,0,-1,1616,1044,0,0
399,-20,0,0,0,0,0,0,0,0,0,-1,1623,1044,0,0
406,-20,0,0,0,0,0,0,0,0,0,-1,1630,1044,0,0
413,-20,0,0,0,0,0,0,0,0,0,-1,1637,1044,0,0
420,-20,0,0,0,0,0,0,0,0,0,-1,1644,1044,0,0
427,-20,0,0,0,0,0,0,0,0,0,-1,1651,1044,0,0
434,-20,0,0,0,0,0,0,0,0,0,-1,1658,1044,0,0
441,-20,0,0,0,0,0,0,0,0,0,-1,1665,1044,0,0
448,-20,0,0,0,0,0,0,0,0,0,-1,1672,1044,0,0
455,-20,0,0,0,0,0,0,0,0,0,-1,1679,1044,0,0
462,-20,0,0,0,0,0,0,0,0,0,-1,1686,1044,0,0
469,-20,0,0,0,0,0,0,0,0,0,-1,1693,1044,0,0
476,-20,0,0,0,0,0,0,0,0,0,-1,1700,1044,0,0
483,-20,0,0,0,0,0,0,0,0,0,-1,1707,1044,0,0
490,-20,0,0,0,0,0,0,0,0,0,-1,1714,1044,0,0
497,-20,0,0,0,0,0,0,0,0,0,-1,1721,1044,0,0
504,-20,0,0,0,0,0,0,0,0,0,-1,1728,1044,0,0
511,-20,0,0,0,0,0,0,0,0,0,-1,1735,1044,0,0
518,-20,0,0,0,0,0,0,0,0,0,-1,1742,1044,0,0
525,-20,0,0,0,0,0,0,0,0,0,-1,1749,1044,0,0
532,-20,0,0,0,0,0,0,0,0,0,-1,1756,1044,0,0
539,-20,0,0,0,0,0,0,0,0,0,-1,1763,1044,0,0
546,-20,0,0,0,0,0,0,0,0,0,-1,1770,1044,0,0
553,-20,0,0,0,0,0,0,0,0,0,-1,1777,1044,0,0
560,-20,0,0,0,0,0,0,0,0,0,-1,1784,1044,0,0
567,-20,0,0,0,0,0,0,0,0,0,-1,1791,1044,0,0
574,-20,0,0,0,0,0,0,0,0,0,-1,1798,1044,0,0
581,-20,0,0,0,0,0,0,0,0,0,-1,1805,1044,0,0
588,-20,0,0,0,0,0,0,0,0,0,-1,1812,1044,0,0
595,-20,0,0,0,0,0,0,0,0,0,-1,1819,1044,0,0
602,-20,0,0,0,0,0,0,0,0,0,-1,1826,1044,0,0
609,-20,0,0,0,0,0,0,0,0,0,-1,1833,1044,0,0
616,-20,0,0,0,0,0,0,0,0,0,-1,1840,1044,0,0
623,-20,0,0,0,0,0,0,0,0,0,-1,1847,1044,0,0
630,-20,0,0,0,0,0,0,0,0,0,-1,1854,1044,0,0
637,-20,0,0,0,0,0,0,0,0,0,-1,1861,1044,0,0
644,-20,0,0,0,0,0,0,0,0,0,-1,1868,1044,0,0
651,-20,64.1884,2.5824,0.00104721,0.000880605,0.00143483,0.00240116,-0.000473345,0.756402,0.00177966,0.0404865,1875,1044,64.1884,-2.58245
658,-20,64.2922,2.51807,0.00049779,0.000525171,0.000955185,0.00146676,-0.000443802,0.792564,0.00115457,0.0425021,1882,1044,64.2923,-2.51811
665,-20,64.2428,2.61755,7.14796e-05,0.000302305,0.000786154,0.000981473,-0.000607688,0.858281,0.000925924,0.0387555,1889,1044,64.2428,-2.6175
672,-20,64.2788,2.59131,-0.000207443,0.000336917,0.000909795,0.00101437,-0.000884899,0.930744,0.00109739,0.0247445,1896,1044,64.2788,-2.59133
679,-20,64.2594,2.55383,-0.000394003,0.000466155,0.00116916,0.00128183,-0.00120968,0.961643,0.00143868,0.0273617,1903,1044,64.2594,-2.55383
686,-20,64.2098,2.62671,-0.000941871,0.000378989,0.00148702,0.00134564,-0.00190852,0.994379,0.00188813,0.0373506,1910,1044,64.2099,-2.62667
693,-20,64.1135,2.55884,-0.00146879,0.00020567,0.00183681,0.00138706,-0.00265017,0.999234,0.00236862,0.0413727,1917,1044,64.1136,-2.55886
700,-20,64.178,2.55859,-0.00179689,7.81041e-05,0.00214444,0.00148101,-0.0031998,0.991468,0.00276253,0.0377615,1924,1044,64.178,-2.55864
707,-20,64.2211,2.57849,-0.00249292,0.000263067,0.00231318,0.00157759,-0.00380744,1.05403,0.00319667,0.0328066,1931,1044,64.2211,-2.57847
714,-20,64.2186,2.75464,-0.00338315,0.000829176,0.00240186,0.00191752,-0.00447149,1.14535,0.00378566,0.0293587,1938,1044,64.2187,-2.75467
721,-20,64.08,2.80981,0,0,0,0,0,0,0,-1,1945,1044,64.0799,-2.80976
728,-20,64.5173,7.05298,0,0,0,0,0,0,0,-1,1952,1044,64.5173,-7.05302
735,-20,64.1405,6.9325,-0.00688839,0.0044859,0.00232235,0.00494179,-0.00734429,1.37695,0.00713843,0.0334556,1959,1044,64.1405,-6.93252
742,-20,63.8334,6.69922,-0.00797005,0.00574627,0.00221685,0.00609566,-0.00831944,1.41448,0.00835551,0.0305999,1966,1044,63.8334,-6.69917
749,-20,63.9695,6.61316,-0.00944792,0.0067869,0.00233552,0.0071162,-0.00977722,1.43072,0.00979367,0.0312919,1973,1044,63.9695,-6.6131
756,-20,63.9836,6.50562,-0.0107047,0.00854887,0.0020152,0.00875753,-0.0109134,1.46762,0.0113797,0.020319,1980,1044,63.9836,-6.50563
763,-20,63.8796,6.34863,-0.0117203,0.0109309,0.00133831,0.0110097,-0.0117991,1.51199,0.0131713,0.0304167,1987,1044,63.8796,-6.34862
770,-20,63.7642,6.27087,-0.0125998,0.0132856,0.000620617,0.0133005,-0.0126146,1.54684,0.0149638,0.0256708,1994,1044,63.7641,-6.27082
777,-20,63.6091,6.02881,-0.0128662,0.0157802,-0.000343936,0.0157844,-0.0128703,-1.55879,0.0165723,0.01794,2001,1044,63.609,-6.02884
784,-20,63.6211,5.87207,-0.0126548,0.0179245,-0.00173715,0.0180229,-0.0127531,-1.51423,0.0178552,0.0228254,2008,1044,63.6212,-5.87201
791,-20,63.7866,5.62256,-0.011989,0.0196397,-0.00389832,0.0201131,-0.0124624,-1.44995,0.0189795,0.0374571,2015,1044,63.7866,-5.62257
798,-20,63.9194,5.40454,-0.0100461,0.0212199,-0.00711555,0.0227631,-0.0115893,-1.35723,0.02018,0.0439114,2022,1044,63.9194,-5.4045
805,-20,63.8928,5.14063,-0.00608503,0.0232569,-0.0116384,0.0273126,-0.0101408,-1.23548,0.0223685,0.0405749,2029,1044,63.8928,-5.14059
812,-20,63.8494,4.83264,-0.000727092,0.026332,-0.0182855,0.0355491,-0.00994415,-1.1039,0.0276175,0.0423111,2036,1044,63.8495,-4.83267
-700,-27,-51.1182,-0.936523,0.170262,0.0649103,0.0869839,0.219277,0.0158958,0.513141,0.141185,0.0487037,524,1051,-51.1182,0.936511
-693,-27,-50.1515,-0.771973,0.155306,0.0643342,0.0802528,0.202067,0.0175733,0.52758,0.129252,0.0473885,531,1051,-50.1515,0.771934
-686,-27,-49.0104,-0.501343,0.136088,0.060411,0.0707186,0.178455,0.0180444,0.539748,0.113435,0.0476447,538,1051,-49.0104,0.501291
-679,-27,-51.0096,5.21863,0,0,0,0,0,0,0,-1,545,1051,-51.0096,-5.21867
-672,-27,-50.4934,4.38977,0,0,0,0,0,0,0,-1,552,1051,-50.4934,-4.38978
-665,-27,-50.0579,3.62927,0.0759538,0.0403692,0.0392333,0.101241,0.0150823,0.572518,0.0630704,0.0454517,559,1051,-50.0579,-3.62921
-658,-27,-49.5779,2.85767,0.058341,0.0338174,0.03015,0.0786272,0.0135312,0.592266,0.0485405,0.0433571,566,1051,-49.5779,-2.8577
-651,-27,-49.0649,2.02783,0,0,0,0,0,0,0,-1,573,1051,-49.065,-2.0278
-644,-27,-48.5397,3.27551,0.0292988,0.0224127,0.0152025,0.0414433,0.0102682,0.674038,0.0249215,0.0200235,580,1051,-48.5397,-3.27555
-637,-27,-48.5908,3.53552,0.0172383,0.0170267,0.00874568,0.0258788,0.00838614,0.77935,0.0152464,0.0166603,587,1051,-48.5908,-3.53553
-630,-27,-48.6705,3.89124,0.0085579,0.0118908,0.00387683,0.0144442,0.00600454,0.988384,0.00837875,0.0217202,594,1051,-48.6705,-3.89122
-623,-27,-48.7217,4.18018,0.00383708,0.00803382,0.000631787,0.00812687,0.00374403,1.42457,0.00469688,0.0181542,601,1051,-48.7218,-4.1802
-616,-27,-48.7222,4.41321,0.00182216,0.00522177,-0.00129963,0.00566168,0.00138225,-1.24441,0.00340845,0.0151417,608,1051,-48.7222,-4.41317
-609,-27,-48.7275,4.62305,0.000827768,0.00294905,-0.00267675,0.00476764,-0.00099082,-0.97403,0.00355503,0.0153521,615,1051,-48.7275,-4.623
-602,-27,-48.6716,4.86597,1.84101e-05,0.000788355,-0.00360324,0.00402713,-0.00322036,-0.838617,0.00419297,0.0141499,622,1051,-48.6717,-4.86601
-595,-27,-48.7278,5.08618,-0.000236525,-9.27799e-05,-0.00376174,0.00359777,-0.00392708,-0.79495,0.00434586,0.0204344,629,1051,-48.7278,-5.08624
-588,-27,-48.6485,0.894409,0,0,0,0,0,0,0,-1,636,1051,-48.6485,-0.894371
-581,-27,-48.6113,0.76355,0.000555972,-0.001183,-0.00315979,0.00296372,-0.00359075,-0.651135,0.00378999,0.0256492,643,1051,-48.6114,-0.763607
-574,-27,-48.615,0.70874,0.000697906,-0.00121171,-0.00273096,0.00263616,-0.00314996,-0.617229,0.003345,0.036779,650,1051,-48.615,-0.708772
-567,-27,-48.3904,0.675903,0.000543063,-0.000821938,-0.00202184,0.00199449,-0.00227336,-0.622621,0.0024658,0.0447178,657,1051,-48.3905,-0.675923
-560,-27,-47.9155,0.321411,0,0,0,0,0,0,0,-1,664,1051,-47.9155,-0.321359
-553,-27,-48.2616,0.475708,-0.000391622,0.000856145,0.000682381,0.00115685,-0.000692333,1.15572,0.0010788,0.0432374,671,1051,-48.2616,-0.475712
-546,-27,-48.5369,0.226685,-0.00101612,0.00164994,0.00286605,0.0034778,-0.00284398,1.00307,0.00365599,0.0412987,678,1051,-48.5369,-0.226724
-539,-27,-48.5929,0.780273,-0.00184051,0.00194897,0.00551441,0.00588507,-0.00577662,0.950878,0.00673298,0.0415118,685,1051,-48.5929,-0.780302
-532,-27,-48.7042,0.917847,-0.00251204,0.0024094,0.00818925,0.00849964,-0.00860229,0.931347,0.00987386,0.0431434,692,1051,-48.7042,-0.917813
-525,-27,0,0,0,0,0,0,0,0,0,-1,699,1051,0,0
-518,-27,0,0,0,0,0,0,0,0,0,-1,706,1051,0,0
-511,-27,0,0,0,0,0,0,0,0,0,-1,713,1051,0,0
-504,-27,0,0,0,0,0,0,0,0,0,-1,720,1051,0,0
-497,-27,0,0,0,0,0,0,0,0,0,-1,727,1051,0,0
-490,-27,0,0,0,0,0,0,0,0,0,-1,734,1051,0,0
-483,-27,0,0,0,0,0,0,0,0,0,-1,741,1051,0,0
-476,-27,0,0,0,0,0,0,0,0,0,-1,748,1051,0,0
-469,-27,0,0,0,0,0,0,0,0,0,-1,755,1051,0,0
-462,-27,0,0,0,0,0,0,0,0,0,-1,762,1051,0,0
-455,-27,0,0,0,0,0,0,0,0,0,-1,769,1051,0,0
-448,-27,0,0,0,0,0,0,0,0,0,-1,776,1051,0,0
-441,-27,0,0,0,0,0,0,0,0,0,-1,783,1051,0,0
-434,-27,0,0,0,0,0,0,0,0,0,-1,790,1051,0,0
-427,-27,0,0,0,0,0,0,0,0,0,-1,797,1051,0,0
-420,-27,0,0,0,0,0,0,0,0,0,-1,804,1051,0,0
-413,-27,0,0,0,0,0,0,0,0,0,-1,811,1051,0,0
-406,-27,0,0,0,0,0,0,0,0,0,-1,818,1051,0,0
-399,-27,0,0,0,0,0,0,0,0,0,-1,825,1051,0,0
-392,-27,0,0,0,0,0,0,0,0,0,-1,832,1051,0,0
-385,-27,0,0,0,0,0,0,0,0,0,-1,839,1051,0,0
-378,-27,0,0,0,0,0,0,0,0,0,-1,846,1051,0,0
-371,-27,0,0,0,0,0,0,0,0,0,-1,853,1051,0,0
-364,-27,0,0,0,0,0,0,0,0,0,-1,860,1051,0,0
-357,-27,0,0,0,0,0,0,0,0,0,-1,867,1051,0,0
-350,-27,0,0,0,0,0,0,0,0,0,-1,874,1051,0,0
-343,-27,0,0,0,0,0,0,0,0,0,-1,881,1051,0,0
-336,-27,0,0,0,0,0,0,0,0,0,-1,888,1051,0,0
-329,-27,0,0,0,0,0,0,0,0,0,-1,895,1051,0,0
-322,-27,0,0,0,0,0,0,0,0,0,-1,902,1051,0,0
-315,-27,0,0,0,0,0,0,0,0,0,-1,909,1051,0,0
-308,-27,0,0,0,0,0,0,0,0,0,-1,916,1051,0,0
-301,-27,0,0,0,0,0,0,0,0,0,-1,923,1051,0,0
-294,-27,0,0,0,0,0,0,0,0,0,-1,930,1051,0,0
-287,-27,0,0,0,0,0,0,0,0,0,-1,937,1051,0,0
-280,-27,0,0,0,0,0,0,0,0,0,-1,944,1051,0,0
-273,-27,0,0,0,0,0,0,0,0,0,-1,951,1051,0,0
-266,-27,0,0,0,0,0,0,0,0,0,-1,958,1051,0,0
-259,-27,0,0,0,0,0,0,0,0,0,-1,965,1051,0,0
-252,-27,0,0,0,0,0,0,0,0,0,-1,972,1051,0,0
-245,-27,0,0,0,0,0,0,0,0,0,-1,979,1051,0,0
-238,-27,0,0,0,0,0,0,0,0,0,-1,986,1051,0,0
-231,-27,0,0,0,0,0,0,0,0,0,-1,993,1051,0,0
-224,-27,0,0,0,0,0,0,0,0,0,-1,1000,1051,0,0
-217,-27,0,0,0,0,0,0,0,0,0,-1,1007,1051,0,0
-210,-27,0,0,0,0,0,0,0,0,0,-1,1014,1051,0,0
-203,-27,0,0,0,0,0,0,0,0,0,-1,1021,1051,0,0
-196,-27,0,0,0,0,0,0,0,0,0,-1,1028,1051,0,0
-189,-27,0,0,0,0,0,0,0,0,0,-1,1035,1051,0,0
-182,-27,0,0,0,0,0,0,0,0,0,-1,1042,1051,0,0
-175,-27,0,0,0,0,0,0,0,0,0,-1,1049,1051,0,0
-168,-27,0,0,0,0,0,0,0,0,0,-1,1056,1051,0,0
-161,-27,0,0,0,0,0,0,0,0,0,-1,1063,1051,0,0
-154,-27,0,0,0,0,0,0,0,0,0,-1,1070,1051,0,0
-147,-27,0,0,0,0,0,0,0,0,0,-1,1077,1051,0,0
-140,-27,0,0,0,0,0,0,0,0,0,-1,1084,1051,0,0
-133,-27,0,0,0,0,0,0,0,0,0,-1,1091,1051,0,0
-126,-27,0,0,0,0,0,0,0,0,0,-1,1098,1051,0,0
-119,-27,0,0,0,0,0,0,0,0,0,-1,1105,1051,0,0
-112,-27,0,0,0,0,0,0,0,0,0,-1,1112,1051,0,0
-105,-27,0,0,0,0,0,0,0,0,0,-1,1119,1051,0,0
-98,-27,0,0,0,0,0,0,0,0,0,-1,1126,1051,0,0
-91,-27,0,0,0,0,0,0,0,0,0,-1,1133,1051,0,0
-84,-27,0,0,0,0,0,0,0,0,0,-1,1140,1051,0,0
-77,-27,0,0,0,0,0,0,0,0,0,-1,1147,1051,0,0
-70,-27,0,0,0,0,0,0,0,0,0,-1,1154,1051,0,0
-63,-27,0,0,0,0,0,0,0,0,0,-1,1161,1051,0,0
-56,-27,0,0,0,0,0,0,0,0,0,-1,1168,1051,0,0
-49,-27,0,0,0,0,0,0,0,0,0,-1,1175,1051,0,0
-42,-27,0,0,0,0,0,0,0,0,0,-1,1182,1051,0,0
-35,-27,0,0,0,0,0,0,0,0,0,-1,1189,1051,0,0
-28,-27,0,0,0,0,0,0,0,0,0,-1,1196,1051,0,0
-21,-27,0,0,0,0,0,0,0,0,0,-1,1203,1051,0,0
-14,-27,0,0,0,0,0,0,0,0,0,-1,1210,1051,0,0
-7,-27,0,0,0,0,0,0,0,0,0,-1,1217,1051,0,0
0,-27,0,0,0,0,0,0,0,0,0,-1,1224,1051,0,0
7,-27,0,0,0,0,0,0,0,0,0,-1,1231,1051,0,0
14,-27,0,0,0,0,0,0,0,0,0,-1,1238,1051,0,0
21,-27,0,0,0,0,0,0,0,0,0,-1,1245,1051,0,0
28,-27,0,0,0,0,0,0,0,0,0,-1,1252,1051,0,0
35,-27,0,0,0,0,0,0,0,0,0,-1,1259,1051,0,0
42,-27,0,0,0,0,0,0,0,0,0,-1,1266,1051,0,0
49,-27,0,0,0,0,0,0,0,0,0,-1,1273,1051,0,0
56,-27,0,0,0,0,0,0,0,0,0,-1,1280,1051,0,0
63,-27,0,0,0,0,0,0,0,0,0,-1,1287,1051,0,0
70,-27,0,0,0,0,0,0,0,0,0,-1,1294,1051,0,0
77,-27,0,0,0,0,0,0,0,0,0,-1,1301,1051,0,0
84,-27,0,0,0,0,0,0,0,0,0,-1,1308,1051,0,0
91,-27,0,0,0,0,0,0,0,0,0,-1,1315,1051,0,0
98,-27,0,0,0,0,0,0,0,0,0,-1,1322,1051,0,0
105,-27,0,0,0,0,0,0,0,0,0,-1,1329,1051,0,0
112,-27,0,0,0,0,0,0,0,0,0,-1,1336,1051,0,0
119,-27,0,0,0,0,0,0,0,0,0,-1,1343,1051,0,0
126,-27,0,0,0,0,0,0,0,0,0,-1,1350,1051,0,0
133,-27,0,0,0,0,0,0,0,0,0,-1,1357,1051,0,0
140,-27,0,0,0,0,0,0,0,0,0,-1,1364,1051,0,0
147,-27,0,0,0,0,0,0,0,0,0,-1,1371,1051,0,0
154,-27,0,0,0,0,0,0,0,0,0,-1,1378,1051,0,0
161,-27,0,0,0,0,0,0,0,0,0,-1,1385,1051,0,0
168,-27,0,0,0,0,0,0,0,0,0,-1,1392,1051,0,0
175,-27,0,0,0,0,0,0,0,0,0,-1,1399,1051,0,0
182,-27,0,0,0,0,0,0,0,0,0,-1,1406,1051,0,0
189,-27,0,0,0,0,0,0,0,0,0,-1,1413,1051,0,0
196,-27,0,0,0,0,0,0,0,0,0,-1,1420,1051,0,0
203,-27,0,0,0,0,0,0,0,0,0,-1,1427,1051,0,0
210,-27,0,0,0,0,0,0,0,0,0,-1,1434,1051,0,0
217,-27,0,0,0,0,0,0,0,0,0,-1,1441,1051,0,0
224,-27,0,0,0,0,0,0,0,0,0,-1,1448,1051,0,0
231,-27,0,0,0,0,0,0,0,0,0,-1,1455,1051,0,0
238,-27,0,0,0,0,0,0,0,0,0,-1,1462,1051,0,0
245,-27,0,0,0,0,0,0,0,0,0,-1,1469,1051,0,0
252,-27,0,0,0,0,0,0,0,0,0,-1,1476,1051,0,0
259,-27,0,0,0,0,0,0,0,0,0,-1,1483,1051,0,0
266,-27,0,0,0,0,0,0,0,0,0,-1,1490,1051,0,0
273,-27,0,0,0,0,0,0,0,0,0,-1,1497,1051,0,0
280,-27,0,0,0,0,0,0,0,0,0,-1,1504,1051,0,0
287,-27,0,0,0,0,0,0,0,0,0,-1,1511,1051,0,0
294,-27,0,0,0,0,0,0,0,0,0,-1,1518,1051,0,0
301,-27,0,0,0,0,0,0,0,0,0,-1,1525,1051,0,0
308,-27,0,0,0,0,0,0,0,0,0,-1,1532,1051,0,0
315,-27,0,0,0,0,0,0,0,0,0,-1,1539,1051,0,0
322,-27,0,0,0,0,0,0,0,0,0,-1,1546,1051,0,0
329,-27,0,0,0,0,0,0,0,0,0,-1,1553,1051,0,0
336,-27,0,0,0,0,0,0,0,0,0,-1,1560,1051,0,0
343,-27,0,0,0,0,0,0,0,0,0,-1,1567,1051,0,0
350,-27,0,0,0,0,0,0,0,0,0,-1,1574,1051,0,0
357,-27,0,0,0,0,0,0,0,0,0,-1,1581,1051,0,0
364,-27,0,0,0,0,0,0,0,0,0,-1,1588,1051,0,0
371,-27,0,0,0,0,0,0,0,0,0,-1,1595,1051,0,0
378,-27,0,0,0,0,0,0,0,0,0,-1,1602,1051,0,0
385,-27,0,0,0,0,0,0,0,0,0,-1,1609,1051,0,0
392,-27,0,0,0,0,0,0,0,0,0,-1,1616,1051,0,0
399,-27,0,0,0,0,0,0,0,0,0,-1,1623,1051,0,0
406,-27,0,0,0,0,0,0,0,0,0,-1,1630,1051,0,0
413,-27,0,0,0,0,0,0,0,0,0,-1,1637,1051,0,0
420,-27,0,0,0,0,0,0,0,0,0,-1,1644,1051,0,0
427,-27,0,0,0,0,0,0,0,0,0,-1,1651,1051,0,0
434,-27,0,0,0,0,0,0,0,0,0,-1,1658,1051,0,0
441,-27,0,0,0,0,0,0,0,0,0,-1,1665,1051,0,0
448,-27,0,0,0,0,0,0,0,0,0,-1,1672,1051,0,0
455,-27,0,0,0,0,0,0,0,0,0,-1,1679,1051,0,0
462,-27,0,0,0,0,0,0,0,0,0,-1,1686,1051,0,0
469,-27,0,0,0,0,0,0,0,0,0,-1,1693,1051,0,0
476,-27,0,0,0,0,0,0,0,0,0,-1,1700,1051,0,0
483,-27,0,0,0,0,0,0,0,0,0,-1,1707,1051,0,0
490,-27,0,0,0,0,0,0,0,0,0,-1,1714,1051,0,0
497,-27,0,0,0,0,0,0,0,0,0,-1,1721,1051,0,0
504,-27,0,0,0,0,0,0,0,0,0,-1,1728,1051,0,0
511,-27,0,0,0,0,0,0,0,0,0,-1,1735,1051,0,0
518,-27,0,0,0,0,0,0,0,0,0,-1,1742,1051,0,0
525,-27,0,0,0,0,0,0,0,0,0,-1,1749,1051,0,0
532,-27,0,0,0,0,0,0,0,0,0,-1,1756,1051,0,0
539,-27,0,0,0,0,0,0,0,0,0,-1,1763,1051,0,0
546,-27,0,0,0,0,0,0,0,0,0,-1,1770,1051,0,0
553,-27,0,0,0,0,0,0,0,0,0,-1,1777,1051,0,0
560,-27,0,0,0,0,0,0,0,0,0,-1,1784,1051,0,0
567,-27,0,0,0,0,0,0,0,0,0,-1,1791,1051,0,0
574,-27,0,0,0,0,0,0,0,0,0,-1,1798,1051,0,0
581,-27,0,0,0,0,0,0,0,0,0,-1,1805,1051,0,0
588,-27,0,0,0,0,0,0,0,0,0,-1,1812,1051,0,0
595,-27,0,0,0,0,0,0,0,0,0,-1,1819,1051,0,0
602,-27,0,0,0,0,0,0,0,0,0,-1,1826,1051,0,0
609,-27,0,0,0,0,0,0,0,0,0,-1,1833,1051,0,0
616,-27,0,0,0,0,0,0,0,0,0,-1,1840,1051,0,0
623,-27,0,0,0,0,0,0,0,0,0,-1,1847,1051,0,0
630,-27,0,0,0,0,0,0,0,0,0,-1,1854,1051,0,0
637,-27,0,0,0,0,0,0,0,0,0,-1,1861,1051,0,0
644,-27,0,0,0,0,0,0,0,0,0,-1,1868,1051,0,0
651,-27,64.2429,2.55737,0.000205432,0.00154106,0.00108186,0.00214462,-0.000398132,1.06191,0.00157928,0.0417859,1875,1051,64.243,-2.55738
658,-27,64.2858,2.60095,-3.49117e-05,0.00112696,0.000762697,0.00150477,-0.000412722,1.11087,0.00116537,0.0396621,1882,1051,64.2858,-2.601
665,-27,64.2511,2.67078,-0.000221752,0.000847289,0.000659663,0.00116181,-0.000536271,1.12589,0.00100231,0.037638,1889,1051,64.2511,-2.67081
672,-27,64.2032,2.53552,-0.000300937,0.00077212,0.000774331,0.00117764,-0.000706455,1.08837,0.00109906,0.0312058,1896,1051,64.2033,-2.53548
679,-27,64.167,2.53186,-0.000323765,0.000786512,0.000986049,0.00136295,-0.000900206,1.04178,0.00131571,0.0303629,1903,1051,64.167,-2.53192
686,-27,64.231,2.58069,-0.000774684,0.000578643,0.00127774,0.00134783,-0.00154387,1.02891,0.0016708,0.0409863,1910,1051,64.231,-2.58074
693,-27,64.1304,2.58386,-0.00126362,0.000298835,0.00161144,0.00130843,-0.00227322,1.01111,0.00209272,0.0430308,1917,1051,64.1304,-2.58385
700,-27,64.1511,2.56055,-0.00158829,8.60584e-05,0.00192664,0.00134955,-0.00285179,0.990354,0.00247679,0.0384127,1924,1051,64.1511,-2.56055
707,-27,64.1552,2.54773,-0.00226406,0.000188928,0.00214169,0.00143045,-0.00350559,1.04544,0.00293257,0.0258387,1931,1051,64.1552,-2.5477
714,-27,64.1893,2.64331,-0.0031173,0.000654112,0.00228538,0.00173132,-0.0041945,1.13033,0.00351841,0.0230186,1938,1051,64.1894,-2.64327
721,-27,64.137,2.78906,0,0,0,0,0,0,0,-1,1945,1051,64.1369,-2.78911
728,-27,64.5023,7.12769,0,0,0,0,0,0,0,-1,1952,1051,64.5023,-7.1277
735,-27,63.9658,7.03601,-0.00645589,0.00392811,0.00239799,0.00445513,-0.00698291,1.35446,0.00665729,0.0327277,1959,1051,63.9659,-7.03599
742,-27,63.7067,6.87305,-0.00749854,0.00502577,0.00234594,0.00545077,-0.00792354,1.39158,0.00776553,0.0205082,1966,1051,63.7067,-6.87303
749,-27,63.7675,6.64368,-0.00888722,0.00591428,0.0025762,0.00634985,-0.00932279,1.40331,0.00910271,0.0159823,1973,1051,63.7674,-6.64369
756,-27,63.7435,6.4458,-0.0100142,0.00750038,0.0023179,0.00780194,-0.0103157,1.44142,0.0104938,0.015832,1980,1051,63.7435,-6.44578
763,-27,63.6436,6.21912,-0.01092,0.00965095,0.00170602,0.00979147,-0.0110605,1.48861,0.0120463,0.0160366,1987,1051,63.6436,-6.21917
770,-27,63.5718,5.98535,-0.0117107,0.0117507,0.00102149,0.011795,-0.0117551,1.52737,0.0135967,0.0165493,1994,1051,63.5718,-5.9853
777,-27,63.4602,5.92273,-0.0119294,0.013916,2.79244e-05,0.013916,-0.0119294,1.56972,0.0149366,0.0207195,2001,1051,63.4602,-5.92277
784,-27,63.3577,5.90161,-0.0117719,0.0157483,-0.00136735,0.0158161,-0.0118396,-1.52127,0.0160219,0.0297339,2008,1051,63.3576,-5.90163
791,-27,63.4104,5.83191,-0.0112451,0.0171666,-0.0034433,0.017578,-0.0116565,-1.4519,0.0169935,0.0426186,2015,1051,63.4105,-5.83188
798,-27,63.6267,5.62048,-0.00972544,0.0184164,-0.00653153,0.0198584,-0.0111675,-1.3535,0.0181455,0.048863,2022,1051,63.6267,-5.62046
805,-27,63.5837,5.20215,-0.00652967,0.0200972,-0.0108943,0.0239864,-0.0104189,-1.2279,0.0203723,0.0456332,2029,1051,63.5836,-5.20213
812,-27,63.6365,4.34534,-0.00221397,0.0228615,-0.0172307,0.0316331,-0.0109856,-1.09992,0.0255504,0.0448938,2036,1051,63.6365,-4.34539
-700,-34,-51.895,-1.93457,0,0,0,0,0,0,0,-1,524,1058,-51.895,1.93454
-693,-34,-50.7419,-1.37634,0.150736,0.0433636,0.0713204,0.186318,0.00778164,0.46277,0.121701,0.0486807,531,1058,-50.7419,1.37634
-686,-34,-49.683,-1.05811,0.132853,0.0433413,0.0643636,0.166492,0.00970224,0.481596,0.107906,0.0495405,538,1058,-49.6829,1.05816
-679,-34,-48.3609,-0.283936,0.113058,0.0406342,0.0554547,0.143077,0.0106153,0.496157,0.0920505,0.0459101,545,1058,-48.3609,0.283981
-672,-34,-50.5637,4.052,0,0,0,0,0,0,0,-1,552,1058,-50.5637,-4.05204
-665,-34,-50.1513,3.32849,0,0,0,0,0,0,0,-1,559,1058,-50.1513,-3.32845
-658,-34,-49.6136,2.73706,0,0,0,0,0,0,0,-1,566,1058,-49.6137,-2.73706
-651,-34,-48.2347,2.82434,0.0426799,0.023402,0.0213008,0.0564211,0.00966075,0.572926,0.0348432,0.0310487,573,1058,-48.2347,-2.82435
-644,-34,-48.335,3.17566,0.0296518,0.0192548,0.0147113,0.040056,0.00885057,0.615562,0.0242972,0.0160184,580,1058,-48.335,-3.1757
-637,-34,-48.3612,3.45227,0.0180013,0.0149723,0.00864225,0.0252608,0.00771284,0.698655,0.0149482,0.0182078,587,1058,-48.3612,-3.45224
-630,-34,-48.3884,3.8219,0.00953718,0.0106251,0.00392678,0.0140454,0.00611685,0.854221,0.00813157,0.0197237,594,1058,-48.3884,-3.82189
-623,-34,-48.3882,4.13513,0.00479321,0.00717594,0.000650187,0.00734181,0.00462734,1.32101,0.00428649,0.0144589,601,1058,-48.3882,-4.1351
-616,-34,-48.3702,4.46204,0.00263728,0.00464168,-0.00129503,0.00527701,0.00200194,-1.1147,0.0030761,0.0200705,608,1058,-48.3702,-4.46206
-609,-34,-48.3595,4.73706,0.00153371,0.0025221,-0.00264956,0.00472316,-0.000667351,-0.877598,0.00339317,0.0201689,615,1058,-48.3595,-4.73709
-602,-34,-48.3467,4.95105,0.000688976,0.000389537,-0.00353964,0.00408206,-0.00300355,-0.764262,0.00410665,0.0161934,622,1058,-48.3467,-4.95105
-595,-34,-48.4659,5.17053,0.000387536,-0.000403926,-0.00370279,0.00371568,-0.00373207,-0.732163,0.00429996,0.0191018,629,1058,-48.4659,-5.17057
-588,-34,-48.6467,0.942871,0,0,0,0,0,0,0,-1,636,1058,-48.6467,-0.942855
-581,-34,-48.5743,0.824829,0.000957183,-0.00131973,-0.00303222,0.00305762,-0.00342017,-0.605814,0.00374191,0.0271013,643,1058,-48.5743,-0.824888
-574,-34,-48.5559,0.806274,0.00102255,-0.00128861,-0.00259748,0.0027099,-0.00297596,-0.576102,0.00328393,0.0377463,650,1058,-48.5559,-0.806237
-567,-34,-48.536,0.765991,0.00078849,-0.000866537,-0.00192696,0.00205811,-0.00213616,-0.582586,0.0024217,0.0433972,657,1058,-48.536,-0.766004
-560,-34,-48.5106,0.68457,0.000301834,-0.000109085,-0.000910751,0.00103001,-0.000837264,-0.674459,0.00107999,0.0420603,664,1058,-48.5106,-0.68462
-553,-34,-48.4776,0.533325,-0.000389141,0.000817265,0.00053837,0.00102258,-0.000594453,1.20646,0.000944436,0.0436869,671,1058,-48.4776,-0.533298
-546,-34,-48.5605,-0.495239,0,0,0,0,0,0,0,-1,678,1058,-48.5605,0.495233
-539,-34,-48.4845,-0.00939941,0,0,0,0,0,0,0,-1,685,1058,-48.4845,0.00935869
-532,-34,-48.5905,0.528198,0,0,0,0,0,0,0,-1,692,1058,-48.5905,-0.528139
-525,-34,0,0,0,0,0,0,0,0,0,-1,699,1058,0,0
-518,-34,0,0,0,0,0,0,0,0,0,-1,706,1058,0,0
-511,-34,0,0,0,0,0,0,0,0,0,-1,713,1058,0,0
-504,-34,0,0,0,0,0,0,0,0,0,-1,720,1058,0,0
-497,-34,0,0,0,0,0,0,0,0,0,-1,727,1058,0,0
-490,-34,0,0,0,0,0,0,0,0,0,-1,734,1058,0,0
-483,-34,0,0,0,0,0,0,0,0,0,-1,741,1058,0,0
-476,-34,0,0,0,0,0,0,0,0,0,-1,748,1058,0,0
-469,-34,0,0,0,0,0,0,0,0,0,-1,755,1058,0,0
-462,-34,0,0,0,0,0,0,0,0,0,-1,762,1058,0,0
-455,-34,0,0,0,0,0,0,0,0,0,-1,769,1058,0,0
-448,-34,0,0,0,0,0,0,0,0,0,-1,776,1058,0,0
-441,-34,0,0,0,0,0,0,0,0,0,-1,783,1058,0,0
-434,-34,0,0,0,0,0,0,0,0,0,-1,790,1058,0,0
-427,-34,0,0,0,0,0,0,0,0,0,-1,797,1058,0,0
-420,-34,0,0,0,0,0,0,0,0,0,-1,804,1058,0,0
-413,-34,0,0,0,0,0,0,0,0,0,-1,811,1058,0,0
-406,-34,0,0,0,0,0,0,0,0,0,-1,818,1058,0,0
-399,-34,0,0,0,0,0,0,0,0,0,-1,825,1058,0,0
-392,-34,0,0,0,0,0,0,0,0,0,-1,832,1058,0,0
-385,-34,0,0,0,0,0,0,0,0,0,-1,839,1058,0,0
-378,-34,0,0,0,0,0,0,0,0,0,-1,846,1058,0,0
-371,-34,0,0,0,0,0,0,0,0,0,-1,853,1058,0,0
-364,-34,0,0,0,0,0,0,0,0,0,-1,860,1058,0,0
-357,-34,0,0,0,0,0,0,0,0,0,-1,867,1058,0,0
-350,-34,0,0,0,0,0,0,0,0,0,-1,874,1058,0,0
-343,-34,0,0,0,0,0,0,0,0,0,-1,881,1058,0,0
-336,-34,0,0,0,0,0,0,0,0,0,-1,888,1058,0,0
-329,-34,0,0,0,0,0,0,0,0,0,-1,895,1058,0,0
-322,-34,0,0,0,0,0,0,0,0,0,-1,902,1058,0,0
-315,-34,0,0,0,0,0,0,0,0,0,-1,909,1058,0,0
-308,-34,0,0,0,0,0,0,0,0,0,-1,916,1058,0,0
-301,-34,0,0,0,0,0,0,0,0,0,-1,923,1058,0,0
-294,-34,0,0,0,0,0,0,0,0,0,-1,930,1058,0,0
-287,-34,0,0,0,0,0,0,0,0,0,-1,937,1058,0,0
-280,-34,0,0,0,0,0,0,0,0,0,-1,944,1058,0,0
-273,-34,0,0,0,0,0,0,0,0,0,-1,951,1058,0,0
-266,-34,0,0,0,0,0,0,0,0,0,-1,958,1058,0,0
-259,-34,0,0,0,0,0,0,0,0,0,-1,965,1058,0,0
-252,-34,0,0,0,0,0,0,0,0,0,-1,972,1058,0,0
-245,-34,0,0,0,0,0,0,0,0,0,-1,979,1058,0,0
-238,-34,0,0,0,0,0,0,0,0,0,-1,986,1058,0,0
-231,-34,0,0,0,0,0,0,0,0,0,-1,993,1058,0,0
-224,-34,0,0,0,0,0,0,0,0,0,-1,1000,1058,0,0
-217,-34,0,0,0,0,0,0,0,0,0,-1,1007,1058,0,0
-210,-34,0,0,0,0,0,0,0,0,0,-1,1014,1058,0,0
-203,-34,0,0,0,0,0,0,0,0,0,-1,1021,1058,0,0
-196,-34,0,0,0,0,0,0,0,0,0,-1,1028,1058,0,0
-189,-34,0,0,0,0,0,0,0,0,0,-1,1035,1058,0,0
-182,-34,0,0,0,0,0,0,0,0,0,-1,1042,1058,0,0
-175,-34,0,0,0,0,0,0,0,0,0,-1,1049,1058,0,0
-168,-34,0,0,0,0,0,0,0,0,0,-1,1056,1058,0,0
-161,-34,0,0,0,0,0,0,0,0,0,-1,1063,1058,0,0
-154,-34,0,0,0,0,0,0,0,0,0,-1,1070,1058,0,0
-147,-34,0,0,0,0,0,0,0,0,0,-1,1077,1058,0,0
-140,-34,0,0,0,0,0,0,0,0,0,-1,1084,1058,0,0
-133,-34,0,0,0,0,0,0,0,0,0,-1,1091,1058,0,0
-126,-34,0,0,0,0,0,0,0,0,0,-1,1098,1058,0,0
-119,-34,0,0,0,0,0,0,0,0,0,-1,1105,1058,0,0
-112,-34,0,0,0,0,0,0,0,0,0,-1,1112,1058,0,0
-105,-34,0,0,0,0,0,0,0,0,0,-1,1119,1058,0,0
-98,-34,0,0,0,0,0,0,0,0,0,-1,1126,1058,0,0
-91,-34,0,0,0,0,0,0,0,0,0,-1,1133,1058,0,0
-84,-34,0,0,0,0,0,0,0,0,0,-1,1140,1058,0,0
-77,-34,0,0,0,0,0,0,0,0,0,-1,1147,1058,0,0
-70,-34,0,0,0,0,0,0,0,0,0,-1,1154,1058,0,0
-63,-34,0,0,0,0,0,0,0,0,0,-1,1161,1058,0,0
-56,-34,0,0,0,0,0,0,0,0,0,-1,1168,1058,0,0
-49,-34,0,0,0,0,0,0,0,0,0,-1,1175,1058,0,0
-42,-34,0,0,0,0,0,0,0,0,0,-1,1182,1058,0,0
-35,-34,0,0,0,0,0,0,0,0,0,-1,1189,1058,0,0
-28,-34,0,0,0,0,0,0,0,0,0,-1,1196,1058,0,0
-21,-34,0,0,0,0,0,0,0,0,0,-1,1203,1058,0,0
-14,-34,0,0,0,0,0,0,0,0,0,-1,1210,1058,0,0
-7,-34,0,0,0,0,0,0,0,0,0,-1,1217,1058,0,0
0,-34,0,0,0,0,0,0,0,0,0,-1,1224,1058,0,0
7,-34,0,0,0,0,0,0,0,0,0,-1,1231,1058,0,0
14,-34,0,0,0,0,0,0,0,0,0,-1,1238,1058,0,0
21,-34,0,0,0,0,0,0,0,0,0,-1,1245,1058,0,0
28,-34,0,0,0,0,0,0,0,0,0,-1,1252,1058,0,0
35,-34,0,0,0,0,0,0,0,0,0,-1,1259,1058,0,0
42,-34,0,0,0,0,0,0,0,0,0,-1,1266,1058,0,0
49,-34,0,0,0,0,0,0,0,0,0,-1,1273,1058,0,0
56,-34,0,0,0,0,0,0,0,0,0,-1,1280,1058,0,0
63,-34,0,0,0,0,0,0,0,0,0,-1,1287,1058,0,0
70,-34,0,0,0,0,0,0,0,0,0,-1,1294,1058,0,0
77,-34,0,0,0,0,0,0,0,0,0,-1,1301,1058,0,0
84,-34,0,0,0,0,0,0,0,0,0,-1,1308,1058,0,0
91,-34,0,0,0,0,0,0,0,0,0,-1,1315,1058,0,0
98,-34,0,0,0,0,0,0,0,0,0,-1,1322,1058,0,0
105,-34,0,0,0,0,0,0,0,0,0,-1,1329,1058,0,0
112,-34,0,0,0,0,0,0,0,0,0,-1,1336,1058,0,0
119,-34,0,0,0,0,0,0,0,0,0,-1,1343,1058,0,0
126,-34,0,0,0,0,0,0,0,0,0,-1,1350,1058,0,0
133,-34,0,0,0,0,0,0,0,0,0,-1,1357,1058,0,0
140,-34,0,0,0,0,0,0,0,0,0,-1,1364,1058,0,0
147,-34,0,0,0,0,0,0,0,0,0,-1,1371,1058,0,0
154,-34,0,0,0,0,0,0,0,0,0,-1,1378,1058,0,0
161,-34,0,0,0,0,0,0,0,0,0,-1,1385,1058,0,0
168,-34,0,0,0,0,0,0,0,0,0,-1,1392,1058,0,0
175,-34,0,0,0,0,0,0,0,0,0,-1,1399,1058,0,0
182,-34,0,0,0,0,0,0,0,0,0,-1,1406,1058,0,0
189,-34,0,0,0,0,0,0,0,0,0,-1,1413,1058,0,0
196,-34,0,0,0,0,0,0,0,0,0,-1,1420,1058,0,0
203,-34,0,0,0,0,0,0,0,0,0,-1,1427,1058,0,0
210,-34,0,0,0,0,0,0,0,0,0,-1,1434,1058,0,0
217,-34,0,0,0,0,0,0,0,0,0,-1,1441,1058,0,0
224,-34,0,0,0,0,0,0,0,0,0,-1,1448,1058,0,0
231,-34,0,0,0,0,0,0,0,0,0,-1,1455,1058,0,0
238,-34,0,0,0,0,0,0,0,0,0,-1,1462,1058,0,0
245,-34,0,0,0,0,0,0,0,0,0,-1,1469,1058,0,0
252,-34,0,0,0,0,0,0,0,0,0,-1,1476,1058,0,0
259,-34,0,0,0,0,0,0,0,0,0,-1,1483,1058,0,0
266,-34,0,0,0,0,0,0,0,0,0,-1,1490,1058,0,0
273,-34,0,0,0,0,0,0,0,0,0,-1,1497,1058,0,0
280,-34,0,0,0,0,0,0,0,0,0,-1,1504,1058,0,0
287,-34,0,0,0,0,0,0,0,0,0,-1,1511,1058,0,0
294,-34,0,0,0,0,0,0,0,0,0,-1,1518,1058,0,0
301,-34,0,0,0,0,0,0,0,0,0,-1,1525,1058,0,0
308,-34,0,0,0,0,0,0,0,0,0,-1,1532,1058,0,0
315,-34,0,0,0,0,0,0,0,0,0,-1,1539,1058,0,0
322,-34,0,0,0,0,0,0,0,0,0,-1,1546,1058,0,0
329,-34,0,0,0,0,0,0,0,0,0,-1,1553,1058,0,0
336,-34,0,0,0,0,0,0,0,0,0,-1,1560,1058,0,0
343,-34,0,0,0,0,0,0,0,0,0,-1,1567,1058,0,0
350,-34,0,0,0,0,0,0,0,0,0,-1,1574,1058,0,0
357,-34,0,0,0,0,0,0,0,0,0,-1,1581,1058,0,0
364,-34,0,0,0,0,0,0,0,0,0,-1,1588,1058,0,0
371,-34,0,0,0,0,0,0,0,0,0,-1,1595,1058,0,0
378,-34,0,0,0,0,0,0,0,0,0,-1,1602,1058,0,0
385,-34,0,0,0,0,0,0,0,0,0,-1,1609,1058,0,0
392,-34,0,0,0,0,0,0,0,0,0,-1,1616,1058,0,0
399,-34,0,0,0,0,0,0,0,0,0,-1,1623,1058,0,0
406,-34,0,0,0,0,0,0,0,0,0,-1,1630,1058,0,0
413,-34,0,0,0,0,0,0,0,0,0,-1,1637,1058,0,0
420,-34,0,0,0,0,0,0,0,0,0,-1,1644,1058,0,0
427,-34,0,0,0,0,0,0,0,0,0,-1,1651,1058,0,0
434,-34,0,0,0,0,0,0,0,0,0,-1,1658,1058,0,0
441,-34,0,0,0,0,0,0,0,0,0,-1,1665,1058,0,0
448,-34,0,0,0,0,0,0,0,0,0,-1,1672,1058,0,0
455,-34,0,0,0,0,0,0,0,0,0,-1,1679,1058,0,0
462,-34,0,0,0,0,0,0,0,0,0,-1,1686,1058,0,0
469,-34,0,0,0,0,0,0,0,0,0,-1,1693,1058,0,0
476,-34,0,0,0,0,0,0,0,0,0,-1,1700,1058,0,0
483,-34,0,0,0,0,0,0,0,0,0,-1,1707,1058,0,0
490,-34,0,0,0,0,0,0,0,0,0,-1,1714,1058,0,0
497,-34,0,0,0,0,0,0,0,0,0,-1,1721,1058,0,0
504,-34,0,0,0,0,0,0,0,0,0,-1,1728,1058,0,0
511,-34,0,0,0,0,0,0,0,0,0,-1,1735,1058,0,0
518,-34,0,0,0,0,0,0,0,0,0,-1,1742,1058,0,0
525,-34,0,0,0,0,0,0,0,0,0,-1,1749,1058,0,0
532,-34,0,0,0,0,0,0,0,0,0,-1,1756,1058,0,0
539,-34,0,0,0,0,0,0,0,0,0,-1,1763,1058,0,0
546,-34,0,0,0,0,0,0,0,0,0,-1,1770,1058,0,0
553,-34,0,0,0,0,0,0,0,0,0,-1,1777,1058,0,0
560,-34,0,0,0,0,0,0,0,0,0,-1,1784,1058,0,0
567,-34,0,0,0,0,0,0,0,0,0,-1,1791,1058,0,0
574,-34,0,0,0,0,0,0,0,0,0,-1,1798,1058,0,0
581,-34,0,0,0,0,0,0,0,0,0,-1,1805,1058,0,0
588,-34,0,0,0,0,0,0,0,0,0,-1,1812,1058,0,0
595,-34,0,0,0,0,0,0,0,0,0,-1,1819,1058,0,0
602,-34,0,0,0,0,0,0,0,0,0,-1,1826,1058,0,0
609,-34,0,0,0,0,0,0,0,0,0,-1,1833,1058,0,0
616,-34,0,0,0,0,0,0,0,0,0,-1,1840,1058,0,0
623,-34,0,0,0,0,0,0,0,0,0,-1,1847,1058,0,0
630,-34,0,0,0,0,0,0,0,0,0,-1,1854,1058,0,0
637,-34,0,0,0,0,0,0,0,0,0,-1,1861,1058,0,0
644,-34,0,0,0,0,0,0,0,0,0,-1,1868,1058,0,0
651,-34,64.2866,2.50916,-0.000535147,0.00115547,0.00114314,0.00173189,-0.00111157,1.10376,0.00165464,0.040702,1875,1058,64.2866,-2.50919
658,-34,64.3258,2.63037,-0.000525655,0.000716208,0.000849602,0.0011476,-0.000957045,1.10096,0.00121677,0.0415152,1882,1058,64.3258,-2.63032
665,-34,64.3333,2.61462,-0.000501425,0.000453768,0.000723529,0.000843116,-0.000890773,1.07712,0.00100119,0.0405477,1889,1058,64.3333,-2.61459
672,-34,64.2773,2.44775,-0.000403603,0.00040512,0.000788198,0.000886627,-0.000885111,1.0224,0.00102291,0.0381594,1896,1058,64.2773,-2.44774
679,-34,64.1881,2.37329,-0.000275278,0.00045337,0.000933207,0.00109085,-0.000912756,0.9715,0.0011583,0.0390859,1903,1058,64.1882,-2.37335
686,-34,64.2231,2.61902,-0.000610157,0.000265696,0.00119971,0.00110491,-0.00144937,0.960398,0.00147917,0.0443809,1910,1058,64.2232,-2.61905
693,-34,64.2939,2.68225,-0.0010166,9.99141e-06,0.00153013,0.00111063,-0.00211723,0.947229,0.00189357,0.0443619,1917,1058,64.2939,-2.68219
700,-34,64.1884,2.50989,-0.00129174,-0.000167121,0.00185227,0.00120631,-0.00266517,0.932767,0.00228749,0.0383962,1924,1058,64.1883,-2.50994
707,-34,64.1207,2.54578,-0.00190787,-7.11116e-05,0.00210535,0.00130744,-0.00328643,0.991063,0.00273308,0.0239181,1931,1058,64.1208,-2.54575
714,-34,64.1276,2.66772,-0.00269044,0.000349867,0.00229304,0.00158088,-0.00392145,1.07811,0.00327117,0.0194967,1938,1058,64.1275,-2.66768
721,-34,64.1014,2.76746,0,0,0,0,0,0,0,-1,1945,1058,64.1014,-2.76742
728,-34,63.8066,7.26526,0,0,0,0,0,0,0,-1,1952,1058,63.8066,-7.26529
735,-34,63.578,7.10815,-0.00577031,0.00339543,0.0026028,0.00408298,-0.00645786,1.31254,0.00613703,0.0214882,1959,1058,63.578,-7.10813
742,-34,63.4628,6.87988,-0.00678267,0.00443833,0.00261775,0.00501898,-0.00736331,1.35252,0.0071915,0.0168882,1966,1058,63.4628,-6.87993
749,-34,63.4838,6.65649,-0.00809104,0.00526695,0.00294885,0.00588896,-0.00871305,1.36291,0.00848287,0.0149445,1973,1058,63.4838,-6.65649
756,-34,63.4766,6.40076,-0.00912561,0.00677452,0.0027703,0.00724336,-0.00959446,1.40314,0.00975286,0.0116153,1980,1058,63.4766,-6.40076
763,-34,63.3965,6.1322,-0.0100138,0.00881669,0.00224382,0.00908037,-0.0102775,1.45382,0.0111834,0.0129559,1987,1058,63.3966,-6.13224
770,-34,63.3035,5.88403,-0.0108574,0.0108597,0.00162862,0.0109812,-0.0109788,1.49636,0.0126786,0.0182172,1994,1058,63.3035,-5.88408
777,-34,63.1228,5.78625,-0.011254,0.0130025,0.000708422,0.0130232,-0.0112747,1.54162,0.0140405,0.0215483,2001,1058,63.1227,-5.78625
784,-34,63.04,5.80481,-0.0113691,0.0148639,-0.000573873,0.0148764,-0.0113816,-1.54893,0.0152048,0.0400403,2008,1058,63.0401,-5.80479
791,-34,63.0859,5.79407,0,0,0,0,0,0,0,-1,2015,1058,63.0861,-5.79409
798,-34,63.1763,5.75317,0,0,0,0,0,0,0,-1,2022,1058,63.1764,-5.75319
805,-34,63.625,4.75476,-0.00787634,0.0196347,-0.00941147,0.0225462,-0.0107879,-1.27078,0.0196405,0.0485614,2029,1058,63.6249,-4.75477
812,-34,63.603,3.94958,-0.0046228,0.0226594,-0.015539,0.0296954,-0.0116587,-1.14562,0.0246211,0.049043,2036,1058,63.603,-3.94956
-700,-41,-50.148,0.91333,0,0,0,0,0,0,0,-1,524,1065,-50.148,-0.91333
-693,-41,-51.4119,-2.08032,0,0,0,0,0,0,0,-1,531,1065,-51.4119,2.08029
-686,-41,-50.4224,-1.57825,0.126771,0.0263985,0.0573405,0.152786,0.00038369,0.425918,0.101729,0.0447628,538,1065,-50.4224,1.57819
-679,-41,-49.4155,-1.08655,0.107451,0.0265437,0.0500911,0.131384,0.00261092,0.445719,0.086732,0.0424421,545,1065,-49.4155,1.08658
-672,-41,-48.5009,-0.830078,0.088388,0.0253993,0.0421892,0.109542,0.00424557,0.464768,0.0716546,0.0472981,552,1065,-48.5009,0.830083
-665,-41,-47.8936,-0.195068,0.0704395,0.0235053,0.0343151,0.0885444,0.00540034,0.485489,0.0573144,0.0468265,559,1065,-47.8937,0.195126
-658,-41,-47.7495,1.94604,0.0542537,0.0211325,0.0268628,0.0692504,0.00613585,0.50917,0.0442636,0.0423997,566,1065,-47.7495,-1.94609
-651,-41,-47.7355,2.66089,0.0402424,0.0184035,0.0200922,0.0521906,0.00645527,0.536491,0.0328541,0.0329635,573,1065,-47.7356,-2.66091
-644,-41,-47.9669,3.10364,0.0282202,0.0155426,0.0140638,0.0373077,0.00645513,0.573673,0.0230237,0.0173825,580,1065,-47.9668,-3.10358
-637,-41,-48.0461,3.4021,0.0172745,0.0125956,0.00855387,0.0238031,0.00606702,0.651912,0.0142826,0.0187976,587,1065,-48.0461,-3.40214
-630,-41,-48.0532,3.74585,0.0093966,0.00908256,0.00402006,0.0132627,0.00521646,0.765878,0.00771511,0.0162422,594,1065,-48.0532,-3.74586
-623,-41,-48.0295,4.10034,0.00506523,0.00618375,0.000852653,0.00664419,0.00460479,1.07566,0.00393018,0.012832,601,1065,-48.0295,-4.10037
-616,-41,-48.0255,4.48096,0.00301342,0.0039972,-0.0010431,0.00465858,0.00235204,-1.00572,0.00268967,0.0159354,608,1065,-48.0255,-4.48096
-609,-41,-48.018,4.78101,0.00193286,0.00204697,-0.00235703,0.00434764,-0.000367803,-0.797499,0.00302848,0.0218484,615,1065,-48.018,-4.78099
-602,-41,-48.0419,5.01672,0.00118152,-2.14537e-05,-0.00322313,0.0038588,-0.00269874,-0.693151,0.00380569,0.0142694,622,1065,-48.0419,-5.01677
-595,-41,-48.1964,5.21985,0.00089663,-0.000724306,-0.00343931,0.00361967,-0.00344735,-0.669685,0.00408055,0.0252592,629,1065,-48.1964,-5.21984
-588,-41,-48.6051,1.00208,0,0,0,0,0,0,0,-1,636,1065,-48.6051,-1.00207
-581,-41,-48.5602,0.739624,0.00132656,-0.00141333,-0.00283,0.00310076,-0.00318753,-0.559983,0.00363066,0.035583,643,1065,-48.5602,-0.739625
-574,-41,-48.5136,0.632446,0.00133167,-0.00130035,-0.00244735,0.00279441,-0.00276308,-0.538712,0.00320863,0.0361269,650,1065,-48.5136,-0.632433
-567,-41,-48.6288,0.71875,0,0,0,0,0,0,0,-1,657,1065,-48.6288,-0.71875
-560,-41,-48.5601,0.804443,0.00047425,3.27917e-05,-0.00101263,0.00128993,-0.000782886,-0.678089,0.00120862,0.0436448,664,1065,-48.56,-0.80442
-553,-41,-48.6202,0.657471,-0.000301105,0.00108136,0.000221507,0.00111598,-0.00033573,1.41574,0.000877572,0.042564,671,1065,-48.6202,-0.657421
-546,-41,-48.6138,0.639771,-0.00113128,0.00207532,0.00190746,0.0029638,-0.00201976,1.13489,0.00289442,0.0418102,678,1065,-48.6138,-0.639732
-539,-41,-48.6169,0.578857,-0.0021138,0.00253975,0.00403811,0.00487347,-0.00444751,1.04677,0.00538334,0.0407639,685,1065,-48.6169,-0.578841
-532,-41,-48.5765,0.634155,-0.00296918,0.003239,0.0063645,0.00721603,-0.00694621,1.01229,0.00817707,0.0407044,692,1065,-48.5765,-0.634161
-525,-41,0,0,0,0,0,0,0,0,0,-1,699,1065,0,0
-518,-41,0,0,0,0,0,0,0,0,0,-1,706,1065,0,0
-511,-41,0,0,0,0,0,0,0,0,0,-1,713,1065,0,0
-504,-41,0,0,0,0,0,0,0,0,0,-1,720,1065,0,0
-497,-41,0,0,0,0,0,0,0,0,0,-1,727,1065,0,0
-490,-41,0,0,0,0,0,0,0,0,0,-1,734,1065,0,0
-483,-41,0,0,0,0,0,0,0,0,0,-1,741,1065,0,0
-476,-41,0,0,0,0,0,0,0,0,0,-1,748,1065,0,0
-469,-41,0,0,0,0,0,0,0,0,0,-1,755,1065,0,0
-462,-41,0,0,0,0,0,0,0,0,0,-1,762,1065,0,0
-455,-41,0,0,0,0,0,0,0,0,0,-1,769,1065,0,0
-448,-41,0,0,0,0,0,0,0,0,0,-1,776,1065,0,0
-441,-41,0,0,0,0,0,0,0,0,0,-1,783,1065,0,0
-434,-41,0,0,0,0,0,0,0,0,0,-1,790,1065,0,0
-427,-41,0,0,0,0,0,0,0,0,0,-1,797,1065,0,0
-420,-41,0,0,0,0,0,0,0,0,0,-1,804,1065,0,0
-413,-41,0,0,0,0,0,0,0,0,0,-1,811,1065,0,0
-406,-41,0,0,0,0,0,0,0,0,0,-1,818,1065,0,0
-399,-41,0,0,0,0,0,0,0,0,0,-1,825,1065,0,0
-392,-41,0,0,0,0,0,0,0,0,0,-1,832,1065,0,0
-385,-41,0,0,0,0,0,0,0,0,0,-1,839,1065,0,0
-378,-41,0,0,0,0,0,0,0,0,0,-1,846,1065,0,0
-371,-41,0,0,0,0,0,0,0,0,0,-1,853,1065,0,0
-364,-41,0,0,0,0,0,0,0,0,0,-1,860,1065,0,0
-357,-41,0,0,0,0,0,0,0,0,0,-1,867,1065,0,0
-350,-41,0,0,0,0,0,0,0,0,0,-1,874,1065,0,0
-343,-41,0,0,0,0,0,0,0,0,0,-1,881,1065,0,0
-336,-41,0,0,0,0,0,0,0,0,0,-1,888,1065,0,0
-329,-41,0,0,0,0,0,0,0,0,0,-1,895,1065,0,0
-322,-41,0,0,0,0,0,0,0,0,0,-1,902,1065,0,0
-315,-41,0,0,0,0,0,0,0,0,0,-1,909,1065,0,0
-308,-41,0,0,0,0,0,0,0,0,0,-1,916,1065,0,0
-301,-41,0,0,0,0,0,0,0,0,0,-1,923,1065,0,0
-294,-41,0,0,0,0,0,0,0,0,0,-1,930,1065,0,0
-287,-41,0,0,0,0,0,0,0,0,0,-1,937,1065,0,0
-280,-41,0,0,0,0,0,0,0,0,0,-1,944,1065,0,0
-273,-41,0,0,0,0,0,0,0,0,0,-1,951,1065,0,0
-266,-41,0,0,0,0,0,0,0,0,0,-1,958,1065,0,0
-259,-41,0,0,0,0,0,0,0,0,0,-1,965,1065,0,0
-252,-41,0,0,0,0,0,0,0,0,0,-1,972,1065,0,0
-245,-41,0,0,0,0,0,0,0,0,0,-1,979,1065,0,0
-238,-41,0,0,0,0,0,0,0,0,0,-1,986,1065,0,0
-231,-41,0,0,0,0,0,0,0,0,0,-1,993,1065,0,0
-224,-41,0,0,0,0,0,0,0,0,0,-1,1000,1065,0,0
-217,-41,0,0,0,0,0,0,0,0,0,-1,1007,1065,0,0
-210,-41,0,0,0,0,0,0,0,0,0,-1,1014,1065,0,0
-203,-41,0,0,0,0,0,0,0,0,0,-1,1021,1065,0,0
-196,-41,0,0,0,0,0,0,0,0,0,-1,1028,1065,0,0
-189,-41,0,0,0,0,0,0,0,0,0,-1,1035,1065,0,0
-182,-41,0,0,0,0,0,0,0,0,0,-1,1042,1065,0,0
-175,-41,0,0,0,0,0,0,0,0,0,-1,1049,1065,0,0
-168,-41,0,0,0,0,0,0,0,0,0,-1,1056,1065,0,0
-161,-41,0,0,0,0,0,0,0,0,0,-1,1063,1065,0,0
-154,-41,0,0,0,0,0,0,0,0,0,-1,1070,1065,0,0
-147,-41,0,0,0,0,0,0,0,0,0,-1,1077,1065,0,0
-140,-41,0,0,0,0,0,0,0,0,0,-1,1084,1065,0,0
-133,-41,0,0,0,0,0,0,0,0,0,-1,1091,1065,0,0
-126,-41,0,0,0,0,0,0,0,0,0,-1,1098,1065,0,0
-119,-41,0,0,0,0,0,0,0,0,0,-1,1105,1065,0,0
-112,-41,0,0,0,0,0,0,0,0,0,-1,1112,1065,0,0
-105,-41,0,0,0,0,0,0,0,0,0,-1,1119,1065,0,0
-98,-41,0,0,0,0,0,0,0,0,0,-1,1126,1065,0,0
-91,-41,0,0,0,0,0,0,0,0,0,-1,1133,1065,0,0
-84,-41,0,0,0,0,0,0,0,0,0,-1,1140,1065,0,0
-77,-41,0,0,0,0,0,0,0,0,0,-1,1147,1065,0,0
-70,-41,0,0,0,0,0,0,0,0,0,-1,1154,1065,0,0
-63,-41,0,0,0,0,0,0,0,0,0,-1,1161,1065,0,0
-56,-41,0,0,0,0,0,0,0,0,0,-1,1168,1065,0,0
-49,-41,0,0,0,0,0,0,0,0,0,-1,1175,1065,0,0
-42,-41,0,0,0,0,0,0,0,0,0,-1,1182,1065,0,0
-35,-41,0,0,0,0,0,0,0,0,0,-1,1189,1065,0,0
-28,-41,0,0,0,0,0,0,0,0,0,-1,1196,1065,0,0
-21,-41,0,0,0,0,0,0,0,0,0,-1,1203,1065,0,0
-14,-41,0,0,0,0,0,0,0,0,0,-1,1210,1065,0,0
-7,-41,0,0,0,0,0,0,0,0,0,-1,1217,1065,0,0
0,-41,0,0,0,0,0,0,0,0,0,-1,1224,1065,0,0
7,-41,0,0,0,0,0,0,0,0,0,-1,1231,1065,0,0
14,-41,0,0,0,0,0,0,0,0,0,-1,1238,1065,0,0
21,-41,0,0,0,0,0,0,0,0,0,-1,1245,1065,0,0
28,-41,0,0,0,0,0,0,0,0,0,-1,1252,1065,0,0
35,-41,0,0,0,0,0,0,0,0,0,-1,1259,1065,0,0
42,-41,0,0,0,0,0,0,0,0,0,-1,1266,1065,0,0
49,-41,0,0,0,0,0,0,0,0,0,-1,1273,1065,0,0
56,-41,0,0,0,0,0,0,0,0,0,-1,1280,1065,0,0
63,-41,0,0,0,0,0,0,0,0,0,-1,1287,1065,0,0
70,-41,0,0,0,0,0,0,0,0,0,-1,1294,1065,0,0
77,-41,0,0,0,0,0,0,0,0,0,-1,1301,1065,0,0
84,-41,0,0,0,0,0,0,0,0,0,-1,1308,1065,0,0
91,-41,0,0,0,0,0,0,0,0,0,-1,1315,1065,0,0
98,-41,0,0,0,0,0,0,0,0,0,-1,1322,1065,0,0
105,-41,0,0,0,0,0,0,0,0,0,-1,1329,1065,0,0
112,-41,0,0,0,0,0,0,0,0,0,-1,1336,1065,0,0
119,-41,0,0,0,0,0,0,0,0,0,-1,1343,1065,0,0
126,-41,0,0,0,0,0,0,0,0,0,-1,1350,1065,0,0
133,-41,0,0,0,0,0,0,0,0,0,-1,1357,1065,0,0
140,-41,0,0,0,0,0,0,0,0,0,-1,1364,1065,0,0
147,-41,0,0,0,0,0,0,0,0,0,-1,1371,1065,0,0
154,-41,0,0,0,0,0,0,0,0,0,-1,1378,1065,0,0
161,-41,0,0,0,0,0,0,0,0,0,-1,1385,1065,0,0
168,-41,0,0,0,0,0,0,0,0,0,-1,1392,1065,0,0
175,-41,0,0,0,0,0,0,0,0,0,-1,1399,1065,0,0
182,-41,0,0,0,0,0,0,0,0,0,-1,1406,1065,0,0
189,-41,0,0,0,0,0,0,0,0,0,-1,1413,1065,0,0
196,-41,0,0,0,0,0,0,0,0,0,-1,1420,1065,0,0
203,-41,0,0,0,0,0,0,0,0,0,-1,1427,1065,0,0
210,-41,0,0,0,0,0,0,0,0,0,-1,1434,1065,0,0
217,-41,0,0,0,0,0,0,0,0,0,-1,1441,1065,0,0
224,-41,0,0,0,0,0,0,0,0,0,-1,1448,1065,0,0
231,-41,0,0,0,0,0,0,0,0,0,-1,1455,1065,0,0
238,-41,0,0,0,0,0,0,0,0,0,-1,1462,1065,0,0
245,-41,0,0,0,0,0,0,0,0,0,-1,1469,1065,0,0
252,-41,0,0,0,0,0,0,0,0,0,-1,1476,1065,0,0
259,-41,0,0,0,0,0,0,0,0,0,-1,1483,1065,0,0
266,-41,0,0,0,0,0,0,0,0,0,-1,1490,1065,0,0
273,-41,0,0,0,0,0,0,0,0,0,-1,1497,1065,0,0
280,-41,0,0,0,0,0,0,0,0,0,-1,1504,1065,0,0
287,-41,0,0,0,0,0,0,0,0,0,-1,1511,1065,0,0
294,-41,0,0,0,0,0,0,0,0,0,-1,1518,1065,0,0
301,-41,0,0,0,0,0,0,0,0,0,-1,1525,1065,0,0
308,-41,0,0,0,0,0,0,0,0,0,-1,1532,1065,0,0
315,-41,0,0,0,0,0,0,0,0,0,-1,1539,1065,0,0
322,-41,0,0,0,0,0,0,0,0,0,-1,1546,1065,0,0
329,-41,0,0,0,0,0,0,0,0,0,-1,1553,1065,0,0
336,-41,0,0,0,0,0,0,0,0,0,-1,1560,1065,0,0
343,-41,0,0,0,0,0,0,0,0,0,-1,1567,1065,0,0
350,-41,0,0,0,0,0,0,0,0,0,-1,1574,1065,0,0
357,-41,0,0,0,0,0,0,0,0,0,-1,1581,1065,0,0
364,-41,0,0,0,0,0,0,0,0,0,-1,1588,1065,0,0
371,-41,0,0,0,0,0,0,0,0,0,-1,1595,1065,0,0
378,-41,0,0,0,0,0,0,0,0,0,-1,1602,1065,0,0
385,-41,0,0,0,0,0,0,0,0,0,-1,1609,1065,0,0
392,-41,0,0,0,0,0,0,0,0,0,-1,1616,1065,0,0
399,-41,0,0,0,0,0,0,0,0,0,-1,1623,1065,0,0
406,-41,0,0,0,0,0,0,0,0,0,-1,1630,1065,0,0
413,-41,0,0,0,0,0,0,0,0,0,-1,1637,1065,0,0
420,-41,0,0,0,0,0,0,0,0,0,-1,1644,1065,0,0
427,-41,0,0,0,0,0,0,0,0,0,-1,1651,1065,0,0
434,-41,0,0,0,0,0,0,0,0,0,-1,1658,1065,0,0
441,-41,0,0,0,0,0,0,0,0,0,-1,1665,1065,0,0
448,-41,0,0,0,0,0,0,0,0,0,-1,1672,1065,0,0
455,-41,0,0,0,0,0,0,0,0,0,-1,1679,1065,0,0
462,-41,0,0,0,0,0,0,0,0,0,-1,1686,1065,0,0
469,-41,0,0,0,0,0,0,0,0,0,-1,1693,1065,0,0
476,-41,0,0,0,0,0,0,0,0,0,-1,1700,1065,0,0
483,-41,0,0,0,0,0,0,0,0,0,-1,1707,1065,0,0
490,-41,0,0,0,0,0,0,0,0,0,-1,1714,1065,0,0
497,-41,0,0,0,0,0,0,0,0,0,-1,1721,1065,0,0
504,-41,0,0,0,0,0,0,0,0,0,-1,1728,1065,0,0
511,-41,0,0,0,0,0,0,0,0,0,-1,1735,1065,0,0
518,-41,0,0,0,0,0,0,0,0,0,-1,1742,1065,0,0
525,-41,0,0,0,0,0,0,0,0,0,-1,1749,1065,0,0
532,-41,0,0,0,0,0,0,0,0,0,-1,1756,1065,0,0
539,-41,0,0,0,0,0,0,0,0,0,-1,1763,1065,0,0
546,-41,0,0,0,0,0,0,0,0,0,-1,1770,1065,0,0
553,-41,0,0,0,0,0,0,0,0,0,-1,1777,1065,0,0
560,-41,0,0,0,0,0,0,0,0,0,-1,1784,1065,0,0
567,-41,0,0,0,0,0,0,0,0,0,-1,1791,1065,0,0
574,-41,0,0,0,0,0,0,0,0,0,-1,1798,1065,0,0
581,-41,0,0,0,0,0,0,0,0,0,-1,1805,1065,0,0
588,-41,0,0,0,0,0,0,0,0,0,-1,1812,1065,0,0
595,-41,0,0,0,0,0,0,0,0,0,-1,1819,1065,0,0
602,-41,0,0,0,0,0,0,0,0,0,-1,1826,1065,0,0
609,-41,0,0,0,0,0,0,0,0,0,-1,1833,1065,0,0
616,-41,0,0,0,0,0,0,0,0,0,-1,1840,1065,0,0
623,-41,0,0,0,0,0,0,0,0,0,-1,1847,1065,0,0
630,-41,0,0,0,0,0,0,0,0,0,-1,1854,1065,0,0
637,-41,0,0,0,0,0,0,0,0,0,-1,1861,1065,0,0
644,-41,0,0,0,0,0,0,0,0,0,-1,1868,1065,0,0
651,-41,64.2235,2.52527,-0.00138065,8.1746e-05,0.00146906,0.000991515,-0.00229042,1.01631,0.00194366,0.0344549,1875,1065,64.2235,-2.52527
658,-41,64.2594,2.51538,-0.00105129,-0.000203418,0.00110649,0.000557571,-0.00181228,0.968339,0.00143073,0.0395523,1882,1065,64.2594,-2.51538
665,-41,64.2775,2.52161,-0.000778941,-0.000334766,0.000887799,0.000358302,-0.00147201,0.907961,0.00112004,0.0399541,1889,1065,64.2774,-2.52166
672,-41,64.2377,2.33057,-0.000490182,-0.000250444,0.000849862,0.000487961,-0.00122859,0.855459,0.00102134,0.0389469,1896,1065,64.2376,-2.33054
679,-41,64.2028,2.3175,-0.000228609,-6.80238e-05,0.000878325,0.000733671,-0.0010303,0.830979,0.00102322,0.0397677,1903,1065,64.2028,-2.31748
686,-41,64.3301,2.45105,-0.000470104,-0.000141667,0.00106851,0.000775172,-0.00138694,0.861646,0.00126484,0.040047,1910,1065,64.3301,-2.45107
693,-41,64.3613,2.29053,-0.000787545,-0.000290201,0.00134684,0.000830736,-0.00190848,0.876687,0.00162178,0.0446831,1917,1065,64.3614,-2.29051
700,-41,64.2444,2.49219,-0.00100373,-0.000358864,0.00164411,0.000994134,-0.00235672,0.882226,0.00198722,0.0419964,1924,1065,64.2444,-2.49215
707,-41,64.1534,2.53296,-0.0015561,-0.000230098,0.00192048,0.0011386,-0.0029248,0.951606,0.00242038,0.028115,1931,1065,64.1535,-2.53299
714,-41,64.1598,2.60864,-0.00226938,0.000171601,0.00214373,0.00141793,-0.00351571,1.04418,0.00293301,0.0250626,1938,1065,64.1598,-2.60864
721,-41,64.1731,2.72327,0,0,0,0,0,0,0,-1,1945,1065,64.1731,-2.72331
728,-41,63.4338,7.32703,0,0,0,0,0,0,0,-1,1952,1065,63.4338,-7.32697
735,-41,63.2437,7.09705,-0.00510896,0.00300785,0.00265405,0.00379863,-0.00589974,1.28122,0.00564299,0.0213195,1959,1065,63.2436,-7.09704
742,-41,63.1399,6.84778,-0.00612637,0.00401,0.00272761,0.00469736,-0.00681373,1.32393,0.00668327,0.0174754,1966,1065,63.1399,-6.84784
749,-41,63.1465,6.62488,-0.00736638,0.00480699,0.00314031,0.00556934,-0.00812873,1.33264,0.00795447,0.0164275,1973,1065,63.1465,-6.62489
756,-41,63.1698,6.3728,-0.00832793,0.00633045,0.00300929,0.00692419,-0.00892168,1.376,0.00917281,0.0149903,1980,1065,63.1698,-6.37281
763,-41,63.0667,6.07654,-0.00921473,0.00842728,0.00248826,0.00877151,-0.00955896,1.43333,0.0105864,0.0127679,1987,1065,63.0668,-6.07658
770,-41,62.9597,5.83203,-0.0101276,0.0106768,0.00180107,0.0108316,-0.0102824,1.48507,0.0121915,0.0137648,1994,1065,62.9598,-5.83206
777,-41,62.7954,5.58728,-0.0106845,0.0132891,0.000704663,0.0133098,-0.0107052,1.54144,0.0138923,0.0164584,2001,1065,62.7955,-5.58729
784,-41,62.7134,5.21826,-0.0109956,0.0158394,-0.000812295,0.015864,-0.0110202,-1.54056,0.0156054,0.0286522,2008,1065,62.7134,-5.21826
791,-41,62.9038,4.36011,-0.0110455,0.0183562,-0.00300697,0.0186606,-0.0113499,-1.46992,0.0174971,0.0443323,2015,1065,62.9039,-4.36015
798,-41,63.2065,3.44031,-0.0102875,0.0211409,-0.00626374,0.0223433,-0.0114899,-1.38115,0.0198658,0.0466674,2022,1065,63.2066,-3.44029
805,-41,63.3113,2.65051,0,0,0,0,0,0,0,-1,2029,1065,63.3112,-2.65048
812,-41,63.6873,3.3894,0,0,0,0,0,0,0,-1,2036,1065,63.6873,-3.38944
-700,-48,-50.5302,-3.56238,0,0,0,0,0,0,0,-1,524,1072,-50.5302,3.56236
-693,-48,-49.7513,-3.08386,0,0,0,0,0,0,0,-1,531,1072,-49.7513,3.08391
-686,-48,-51.0867,-1.95605,0,0,0,0,0,0,0,-1,538,1072,-51.0867,1.95604
-679,-48,-50.069,-1.43445,0.0987469,0.0127166,0.0432925,0.116761,-0.00529724,0.394306,0.079665,0.042779,545,1072,-50.069,1.43442
-672,-48,-48.9431,-1.00806,0.0809462,0.0140464,0.0368941,0.0972966,-0.002304,0.417161,0.0656459,0.0446644,552,1072,-48.9432,1.00807
-665,-48,-48.1192,-0.168579,0.0643449,0.0144665,0.0303147,0.0786606,0.000150859,0.44119,0.0523902,0.0480175,559,1072,-48.1192,0.168566
-658,-48,-47.9189,0.989746,0.0494992,0.0141366,0.0239492,0.0615868,0.00204894,0.467418,0.0403922,0.049358,566,1072,-47.9189,-0.989768
-651,-48,-47.3681,2.17346,0.0367432,0.0131323,0.018066,0.046519,0.00335652,0.495996,0.0299566,0.041327,573,1072,-47.3681,-2.17342
-644,-48,-47.5017,3.05334,0.0259713,0.0115828,0.012766,0.0334307,0.0041235,0.528805,0.0210477,0.0234856,580,1072,-47.5017,-3.05335
-637,-48,-47.5403,3.30066,0.0160436,0.0100091,0.00800297,0.0215792,0.00447352,0.605132,0.0131511,0.0243657,587,1072,-47.5403,-3.3007
-630,-48,-47.5641,3.66809,0.00885115,0.0073908,0.00381367,0.0120039,0.00423804,0.690811,0.00702952,0.0276603,594,1072,-47.5641,-3.66803
-623,-48,-47.6824,4.04028,0.00498479,0.00511845,0.000889263,0.00594339,0.00415985,0.822902,0.00352165,0.0130005,601,1072,-47.6824,-4.04027
-616,-48,-47.6736,4.39661,0.00314014,0.0033628,-0.000811321,0.00407039,0.00243254,-0.853584,0.00236492,0.0113804,608,1072,-47.6736,-4.39661
-609,-48,-47.6154,4.77295,0.00211979,0.00167078,-0.00197277,0.00388079,-9.02161e-05,-0.72874,0.00261778,0.0130365,615,1072,-47.6154,-4.77297
-602,-48,-47.634,5.08582,0.0014697,-0.000215985,-0.00276055,0.00351321,-0.00225949,-0.637234,0.00335897,0.0148247,622,1072,-47.634,-5.08578
-595,-48,-47.6738,5.32068,0.00122036,-0.000816208,-0.00300832,0.00337807,-0.00297392,-0.622207,0.00366979,0.0354181,629,1072,-47.6738,-5.32064
-588,-48,-47.9167,5.4845,0,0,0,0,0,0,0,-1,636,1072,-47.9168,-5.48454
-581,-48,-48.5599,0.696655,0,0,0,0,0,0,0,-1,643,1072,-48.5599,-0.696636
-574,-48,-48.5097,0.918457,0,0,0,0,0,0,0,-1,650,1072,-48.5097,-0.91851
-567,-48,-48.6464,1.21497,0,0,0,0,0,0,0,-1,657,1072,-48.6464,-1.21493
-560,-48,-48.5446,1.02966,0.000515851,0.000132807,-0.000891717,0.00123638,-0.000587723,-0.679616,0.00107511,0.0435272,664,1072,-48.5446,-1.02965
-553,-48,-48.4886,0.786133,-0.000314224,0.00113995,0.000137722,0.00115288,-0.000327152,1.4772,0.00089773,0.0431046,671,1072,-48.4886,-0.786183
-546,-48,-48.6699,0.682251,-0.00119769,0.00209732,0.00158305,0.00273462,-0.00183498,1.18807,0.00265525,0.0402738,678,1072,-48.6699,-0.682217
-539,-48,-48.757,0.678345,-0.00215097,0.00246087,0.00347983,0.00432946,-0.00401955,1.07801,0.00482141,0.0401233,685,1072,-48.7569,-0.678308
-532,-48,-48.7613,0.812378,-0.00299912,0.00312732,0.00568957,0.00652588,-0.00639768,1.03234,0.00746154,0.0413951,692,1072,-48.7613,-0.812341
-525,-48,0,0,0,0,0,0,0,0,0,-1,699,1072,0,0
-518,-48,0,0,0,0,0,0,0,0,0,-1,706,1072,0,0
-511,-48,0,0,0,0,0,0,0,0,0,-1,713,1072,0,0
-504,-48,0,0,0,0,0,0,0,0,0,-1,720,1072,0,0
-497,-48,0,0,0,0,0,0,0,0,0,-1,727,1072,0,0
-490,-48,0,0,0,0,0,0,0,0,0,-1,734,1072,0,0
-483,-48,0,0,0,0,0,0,0,0,0,-1,741,1072,0,0
-476,-48,0,0,0,0,0,0,0,0,0,-1,748,1072,0,0
-469,-48,0,0,0,0,0,0,0,0,0,-1,755,1072,0,0
-462,-48,0,0,0,0,0,0,0,0,0,-1,762,1072,0,0
-455,-48,0,0,0,0,0,0,0,0,0,-1,769,1072,0,0
-448,-48,0,0,0,0,0,0,0,0,0,-1,776,1072,0,0
-441,-48,0,0,0,0,0,0,0,0,0,-1,783,1072,0,0
-434,-48,0,0,0,0,0,0,0,0,0,-1,790,1072,0,0
-427,-48,0,0,0,0,0,0,0,0,0,-1,797,1072,0,0
-420,-48,0,0,0,0,0,0,0,0,0,-1,804,1072,0,0
-413,-48,0,0,0,0,0,0,0,0,0,-1,811,1072,0,0
-406,-48,0,0,0,0,0,0,0,0,0,-1,818,1072,0,0
-399,-48,0,0,0,0,0,0,0,0,0,-1,825,1072,0,0
-392,-48,0,0,0,0,0,0,0,0,0,-1,832,1072,0,0
-385,-48,0,0,0,0,0,0,0,0,0,-1,839,1072,0,0
-378,-48,0,0,0,0,0,0,0,0,0,-1,846,1072,0,0
-371,-48,0,0,0,0,0,0,0,0,0,-1,853,1072,0,0
-364,-48,0,0,0,0,0,0,0,0,0,-1,860,1072,0,0
-357,-48,0,0,0,0,0,0,0,0,0,-1,867,1072,0,0
-350,-48,0,0,0,0,0,0,0,0,0,-1,874,1072,0,0
-343,-48,0,0,0,0,0,0,0,0,0,-1,881,1072,0,0
-336,-48,0,0,0,0,0,0,0,0,0,-1,888,1072,0,0
-329,-48,0,0,0,0,0,0,0,0,0,-1,895,1072,0,0
-322,-48,0,0,0,0,0,0,0,0,0,-1,902,1072,0,0
-315,-48,0,0,0,0,0,0,0,0,0,-1,909,1072,0,0
-308,-48,0,0,0,0,0,0,0,0,0,-1,916,1072,0,0
-301,-48,0,0,0,0,0,0,0,0,0,-1,923,1072,0,0
-294,-48,0,0,0,0,0,0,0,0,0,-1,930,1072,0,0
-287,-48,0,0,0,0,0,0,0,0,0,-1,937,1072,0,0
-280,-48,0,0,0,0,0,0,0,0,0,-1,944,1072,0,0
-273,-48,0,0,0,0,0,0,0,0,0,-1,951,1072,0,0
-266,-48,0,0,0,0,0,0,0,0,0,-1,958,1072,0,0
-259,-48,0,0,0,0,0,0,0,0,0,-1,965,1072,0,0
-252,-48,0,0,0,0,0,0,0,0,0,-1,972,1072,0,0
-245,-48,0,0,0,0,0,0,0,0,0,-1,979,1072,0,0
-238,-48,0,0,0,0,0,0,0,0,0,-1,986,1072,0,0
-231,-48,0,0,0,0,0,0,0,0,0,-1,993,1072,0,0
-224,-48,0,0,0,0,0,0,0,0,0,-1,1000,1072,0,0
-217,-48,0,0,0,0,0,0,0,0,0,-1,1007,1072,0,0
-210,-48,0,0,0,0,0,0,0,0,0,-1,1014,1072,0,0
-203,-48,0,0,0,0,0,0,0,0,0,-1,1021,1072,0,0
-196,-48,0,0,0,0,0,0,0,0,0,-1,1028,1072,0,0
-189,-48,0,0,0,0,0,0,0,0,0,-1,1035,1072,0,0
-182,-48,0,0,0,0,0,0,0,0,0,-1,1042,1072,0,0
-175,-48,0,0,0,0,0,0,0,0,0,-1,1049,1072,0,0
-168,-48,0,0,0,0,0,0,0,0,0,-1,1056,1072,0,0
-161,-48,0,0,0,0,0,0,0,0,0,-1,1063,1072,0,0
-154,-48,0,0,0,0,0,0,0,0,0,-1,1070,1072,0,0
-147,-48,0,0,0,0,0,0,0,0,0,-1,1077,1072,0,0
-140,-48,0,0,0,0,0,0,0,0,0,-1,1084,1072,0,0
-133,-48,0,0,0,0,0,0,0,0,0,-1,1091,1072,0,0
-126,-48,0,0,0,0,0,0,0,0,0,-1,1098,1072,0,0
-119,-48,0,0,0,0,0,0,0,0,0,-1,1105,1072,0,0
-112,-48,0,0,0,0,0,0,0,0,0,-1,1112,1072,0,0
-105,-48,0,0,0,0,0,0,0,0,0,-1,1119,1072,0,0
-98,-48,0,0,0,0,0,0,0,0,0,-1,1126,1072,0,0
-91,-48,0,0,0,0,0,0,0,0,0,-1,1133,1072,0,0
-84,-48,0,0,0,0,0,0,0,0,0,-1,1140,1072,0,0
-77,-48,0,0,0,0,0,0,0,0,0,-1,1147,1072,0,0
-70,-48,0,0,0,0,0,0,0,0,0,-1,1154,1072,0,0
-63,-48,0,0,0,0,0,0,0,0,0,-1,1161,1072,0,0
-56,-48,0,0,0,0,0,0,0,0,0,-1,1168,1072,0,0
-49,-48,0,0,0,0,0,0,0,0,0,-1,1175,1072,0,0
-42,-48,0,0,0,0,0,0,0,0,0,-1,1182,1072,0,0
-35,-48,0,0,0,0,0,0,0,0,0,-1,1189,1072,0,0
-28,-48,0,0,0,0,0,0,0,0,0,-1,1196,1072,0,0
-21,-48,0,0,0,0,0,0,0,0,0,-1,1203,1072,0,0
-14,-48,0,0,0,0,0,0,0,0,0,-1,1210,1072,0,0
-7,-48,0,0,0,0,0,0,0,0,0,-1,1217,1072,0,0
0,-48,0,0,0,0,0,0,0,0,0,-1,1224,1072,0,0
7,-48,0,0,0,0,0,0,0,0,0,-1,1231,1072,0,0
14,-48,0,0,0,0,0,0,0,0,0,-1,1238,1072,0,0
21,-48,0,0,0,0,0,0,0,0,0,-1,1245,1072,0,0
28,-48,0,0,0,0,0,0,0,0,0,-1,1252,1072,0,0
35,-48,0,0,0,0,0,0,0,0,0,-1,1259,1072,0,0
42,-48,0,0,0,0,0,0,0,0,0,-1,1266,1072,0,0
49,-48,0,0,0,0,0,0,0,0,0,-1,1273,1072,0,0
56,-48,0,0,0,0,0,0,0,0,0,-1,1280,1072,0,0
63,-48,0,0,0,0,0,0,0,0,0,-1,1287,1072,0,0
70,-48,0,0,0,0,0,0,0,0,0,-1,1294,1072,0,0
77,-48,0,0,0,0,0,0,0,0,0,-1,1301,1072,0,0
84,-48,0,0,0,0,0,0,0,0,0,-1,1308,1072,0,0
91,-48,0,0,0,0,0,0,0,0,0,-1,1315,1072,0,0
98,-48,0,0,0,0,0,0,0,0,0,-1,1322,1072,0,0
105,-48,0,0,0,0,0,0,0,0,0,-1,1329,1072,0,0
112,-48,0,0,0,0,0,0,0,0,0,-1,1336,1072,0,0
119,-48,0,0,0,0,0,0,0,0,0,-1,1343,1072,0,0
126,-48,0,0,0,0,0,0,0,0,0,-1,1350,1072,0,0
133,-48,0,0,0,0,0,0,0,0,0,-1,1357,1072,0,0
140,-48,0,0,0,0,0,0,0,0,0,-1,1364,1072,0,0
147,-48,0,0,0,0,0,0,0,0,0,-1,1371,1072,0,0
154,-48,0,0,0,0,0,0,0,0,0,-1,1378,1072,0,0
161,-48,0,0,0,0,0,0,0,0,0,-1,1385,1072,0,0
168,-48,0,0,0,0,0,0,0,0,0,-1,1392,1072,0,0
175,-48,0,0,0,0,0,0,0,0,0,-1,1399,1072,0,0
182,-48,0,0,0,0,0,0,0,0,0,-1,1406,1072,0,0
189,-48,0,0,0,0,0,0,0,0,0,-1,1413,1072,0,0
196,-48,0,0,0,0,0,0,0,0,0,-1,1420,1072,0,0
203,-48,0,0,0,0,0,0,0,0,0,-1,1427,1072,0,0
210,-48,0,0,0,0,0,0,0,0,0,-1,1434,1072,0,0
217,-48,0,0,0,0,0,0,0,0,0,-1,1441,1072,0,0
224,-48,0,0,0,0,0,0,0,0,0,-1,1448,1072,0,0
231,-48,0,0,0,0,0,0,0,0,0,-1,1455,1072,0,0
238,-48,0,0,0,0,0,0,0,0,0,-1,1462,1072,0,0
245,-48,0,0,0,0,0,0,0,0,0,-1,1469,1072,0,0
252,-48,0,0,0,0,0,0,0,0,0,-1,1476,1072,0,0
259,-48,0,0,0,0,0,0,0,0,0,-1,1483,1072,0,0
266,-48,0,0,0,0,0,0,0,0,0,-1,1490,1072,0,0
273,-48,0,0,0,0,0,0,0,0,0,-1,1497,1072,0,0
280,-48,0,0,0,0,0,0,0,0,0,-1,1504,1072,0,0
287,-48,0,0,0,0,0,0,0,0,0,-1,1511,1072,0,0
294,-48,0,0,0,0,0,0,0,0,0,-1,1518,1072,0,0
301,-48,0,0,0,0,0,0,0,0,0,-1,1525,1072,0,0
308,-48,0,0,0,0,0,0,0,0,0,-1,1532,1072,0,0
315,-48,0,0,0,0,0,0,0,0,0,-1,1539,1072,0,0
322,-48,0,0,0,0,0,0,0,0,0,-1,1546,1072,0,0
329,-48,0,0,0,0,0,0,0,0,0,-1,1553,1072,0,0
336,-48,0,0,0,0,0,0,0,0,0,-1,1560,1072,0,0
343,-48,0,0,0,0,0,0,0,0,0,-1,1567,1072,0,0
350,-48,0,0,0,0,0,0,0,0,0,-1,1574,1072,0,0
357,-48,0,0,0,0,0,0,0,0,0,-1,1581,1072,0,0
364,-48,0,0,0,0,0,0,0,0,0,-1,1588,1072,0,0
371,-48,0,0,0,0,0,0,0,0,0,-1,1595,1072,0,0
378,-48,0,0,0,0,0,0,0,0,0,-1,1602,1072,0,0
385,-48,0,0,0,0,0,0,0,0,0,-1,1609,1072,0,0
392,-48,0,0,0,0,0,0,0,0,0,-1,1616,1072,0,0
399,-48,0,0,0,0,0,0,0,0,0,-1,1623,1072,0,0
406,-48,0,0,0,0,0,0,0,0,0,-1,1630,1072,0,0
413,-48,0,0,0,0,0,0,0,0,0,-1,1637,1072,0,0
420,-48,0,0,0,0,0,0,0,0,0,-1,1644,1072,0,0
427,-48,0,0,0,0,0,0,0,0,0,-1,1651,1072,0,0
434,-48,0,0,0,0,0,0,0,0,0,-1,1658,1072,0,0
441,-48,0,0,0,0,0,0,0,0,0,-1,1665,1072,0,0
448,-48,0,0,0,0,0,0,0,0,0,-1,1672,1072,0,0
455,-48,0,0,0,0,0,0,0,0,0,-1,1679,1072,0,0
462,-48,0,0,0,0,0,0,0,0,0,-1,1686,1072,0,0
469,-48,0,0,0,0,0,0,0,0,0,-1,1693,1072,0,0
476,-48,0,0,0,0,0,0,0,0,0,-1,1700,1072,0,0
483,-48,0,0,0,0,0,0,0,0,0,-1,1707,1072,0,0
490,-48,0,0,0,0,0,0,0,0,0,-1,1714,1072,0,0
497,-48,0,0,0,0,0,0,0,0,0,-1,1721,1072,0,0
504,-48,0,0,0,0,0,0,0,0,0,-1,1728,1072,0,0
511,-48,0,0,0,0,0,0,0,0,0,-1,1735,1072,0,0
518,-48,0,0,0,0,0,0,0,0,0,-1,1742,1072,0,0
525,-48,0,0,0,0,0,0,0,0,0,-1,1749,1072,0,0
532,-48,0,0,0,0,0,0,0,0,0,-1,1756,1072,0,0
539,-48,0,0,0,0,0,0,0,0,0,-1,1763,1072,0,0
546,-48,0,0,0,0,0,0,0,0,0,-1,1770,1072,0,0
553,-48,0,0,0,0,0,0,0,0,0,-1,1777,1072,0,0
560,-48,0,0,0,0,0,0,0,0,0,-1,1784,1072,0,0
567,-48,0,0,0,0,0,0,0,0,0,-1,1791,1072,0,0
574,-48,0,0,0,0,0,0,0,0,0,-1,1798,1072,0,0
581,-48,0,0,0,0,0,0,0,0,0,-1,1805,1072,0,0
588,-48,0,0,0,0,0,0,0,0,0,-1,1812,1072,0,0
595,-48,0,0,0,0,0,0,0,0,0,-1,1819,1072,0,0
602,-48,0,0,0,0,0,0,0,0,0,-1,1826,1072,0,0
609,-48,0,0,0,0,0,0,0,0,0,-1,1833,1072,0,0
616,-48,0,0,0,0,0,0,0,0,0,-1,1840,1072,0,0
623,-48,0,0,0,0,0,0,0,0,0,-1,1847,1072,0,0
630,-48,0,0,0,0,0,0,0,0,0,-1,1854,1072,0,0
637,-48,0,0,0,0,0,0,0,0,0,-1,1861,1072,0,0
644,-48,0,0,0,0,0,0,0,0,0,-1,1868,1072,0,0
651,-48,64.1598,2.57507,-0.00217319,-8.5689e-05,0.00159584,0.000777423,-0.0030363,1.075,0.00232704,0.0302118,1875,1072,64.1598,-2.57513
658,-48,64.1617,2.48633,-0.00155813,-0.000252751,0.00114948,0.000416421,-0.0022273,1.04361,0.00164138,0.0365631,1882,1072,64.1617,-2.48638
665,-48,64.177,2.6637,-0.00105988,-0.000333864,0.000856097,0.000233009,-0.00162675,0.985921,0.00116993,0.0417603,1889,1072,64.177,-2.66373
672,-48,64.072,2.55762,-0.000593155,-0.000222003,0.000736527,0.000351967,-0.00116713,0.90881,0.000918175,0.0399061,1896,1072,64.072,-2.55761
679,-48,63.9933,2.53174,-0.000198136,-1.83915e-05,0.00067208,0.000569799,-0.000786326,0.851865,0.000786279,0.0391884,1903,1072,63.9933,-2.53173
686,-48,64.1344,2.59143,-0.000316363,-7.04113e-05,0.000800229,0.000616236,-0.00100301,0.86164,0.00094372,0.0413727,1910,1072,64.1344,-2.5914
693,-48,64.2156,2.59399,-0.000514852,-0.000202652,0.00103768,0.000690606,-0.00140811,0.860054,0.00123507,0.0414894,1917,1072,64.2156,-2.59396
700,-48,64.1799,2.65039,-0.00064055,-0.000245787,0.00130059,0.000872319,-0.00175866,0.860705,0.00154746,0.0372455,1924,1072,64.1799,-2.65044
707,-48,64.1637,2.58923,-0.00109121,-0.000136101,0.00158822,0.0010448,-0.00227211,0.931441,0.00195823,0.0282161,1931,1072,64.1637,-2.58925
714,-48,64.1931,2.55823,-0.00170589,0.000185799,0.00184536,0.00131359,-0.00283368,1.02222,0.00244746,0.0417311,1938,1072,64.1932,-2.55819
721,-48,64.256,2.65186,0,0,0,0,0,0,0,-1,1945,1072,64.2559,-2.65183
728,-48,63.0803,7.547,0,0,0,0,0,0,0,-1,1952,1072,63.0803,-7.54697
735,-48,62.924,7.26062,-0.00428331,0.00264345,0.0025348,0.00347195,-0.0051118,1.25489,0.00498589,0.0246657,1959,1072,62.9239,-7.26058
742,-48,62.7581,6.9425,-0.00529428,0.00358213,0.00265841,0.00431739,-0.00602954,1.30096,0.00600101,0.018253,1966,1072,62.758,-6.94251
749,-48,62.7755,6.61572,-0.00646592,0.00439337,0.00309361,0.00521284,-0.0072854,1.31185,0.00724886,0.0156933,1973,1072,62.7756,-6.61567
756,-48,62.7767,6.31812,-0.00737419,0.00602214,0.00297338,0.00665244,-0.00800449,1.36191,0.00847417,0.0142726,1980,1072,62.7768,-6.31808
763,-48,62.7004,6.03528,-0.00827037,0.00833984,0.00242372,0.00868628,-0.00861681,1.42882,0.00998997,0.0138049,1987,1072,62.7003,-6.0353
770,-48,62.6572,5.74585,-0.00924049,0.0110187,0.00163201,0.0111494,-0.00937111,1.49093,0.0118623,0.0146326,1994,1072,62.6572,-5.74581
777,-48,62.5022,5.43958,-0.00989128,0.014404,0.000337828,0.0144087,-0.00989598,1.55689,0.0141127,0.0135566,2001,1072,62.5022,-5.43958
784,-48,62.3579,5.08374,-0.0102721,0.0180306,-0.00144575,0.0181042,-0.0103458,-1.51989,0.0166279,0.025868,2008,1072,62.358,-5.08374
791,-48,62.7268,3.93201,-0.010338,0.0220889,-0.00400861,0.0225771,-0.0108262,-1.44961,0.0196792,0.04032,2015,1072,62.7269,-3.93204
798,-48,61.1335,4.82813,-0.00950529,0.0269983,-0.00775924,0.0285791,-0.0110861,-1.36981,0.0236314,0.0488107,2022,1072,61.1336,-4.82811
805,-48,60.842,4.64404,0,0,0,0,0,0,0,-1,2029,1072,60.8421,-4.64401
812,-48,62.3936,5.14978,0,0,0,0,0,0,0,-1,2036,1072,62.3937,-5.14979
-700,-55,-49.9455,-2.68396,0,0,0,0,0,0,0,-1,524,1079,-49.9455,2.68396
-693,-55,-48.98,-2.34045,0.122538,-0.0110533,0.0429772,0.13517,-0.0236849,0.285865,0.0989574,0.0473387,531,1079,-48.98,2.3405
-686,-55,-48.0529,-1.4458,0.105759,-0.00474145,0.0408395,0.119214,-0.0181968,0.318269,0.0861844,0.046027,538,1079,-48.0529,1.44582
-679,-55,-50.2762,-1.57397,0,0,0,0,0,0,0,-1,545,1079,-50.2762,1.57392
-672,-55,-49.4134,-0.824341,0.0722563,0.00361655,0.0314303,0.0844737,-0.00860084,0.370739,0.0593907,0.0475431,552,1079,-49.4134,0.824292
-665,-55,-48.5128,0.00598145,0.0571903,0.00613445,0.0260003,0.0680998,-0.0047751,0.397282,0.0470724,0.0445248,559,1079,-48.5128,-0.00594
-658,-55,-47.864,0.826294,0.0438591,0.00767431,0.0206621,0.0532305,-0.00169705,0.425804,0.036066,0.0482712,566,1079,-47.864,-0.826255
-651,-55,-47.2241,1.82263,0.032513,0.00826393,0.0156645,0.0401971,0.000579853,0.456052,0.0266069,0.0471884,573,1079,-47.2241,-1.82261
-644,-55,-47.1442,2.93652,0.0230819,0.00794883,0.0111155,0.0289618,0.00206891,0.486565,0.0186565,0.0283706,580,1079,-47.1442,-2.93648
-637,-55,-47.1627,3.21912,0.0142362,0.00761725,0.00708712,0.0187485,0.00310495,0.566961,0.0116033,0.0224516,587,1079,-47.1627,-3.21911
-630,-55,-47.2048,3.62781,0.00787004,0.00588551,0.00334206,0.010364,0.00339152,0.641092,0.00610158,0.0245231,594,1079,-47.2048,-3.62776
-623,-55,-47.3727,4.06946,0.00459374,0.00422855,0.000761641,0.00519436,0.00362792,0.667749,0.00307669,0.0189645,601,1079,-47.3727,-4.0695
-616,-55,-47.3926,4.41895,0.00306349,0.00290783,-0.000648852,0.00363917,0.00233216,-0.725707,0.00212868,0.0181027,608,1079,-47.3926,-4.41893
-609,-55,-47.3088,4.84448,0.00216466,0.00146317,-0.00157532,0.00342782,0.00020002,-0.67586,0.00222154,0.0190046,615,1079,-47.3088,-4.84447
-602,-55,-47.2316,5.20654,0.0016149,-0.000207237,-0.0022317,0.00311434,-0.00170667,-0.591603,0.00282268,0.0168033,622,1079,-47.2316,-5.20649
-595,-55,-47.1014,5.53027,0.00142266,-0.000712311,-0.00248524,0.00305998,-0.00234963,-0.582548,0.0031322,0.0340226,629,1079,-47.1015,-5.5303
-588,-55,-47.1693,5.86194,0,0,0,0,0,0,0,-1,636,1079,-47.1693,-5.86193
-581,-55,-48.5192,0.817749,0,0,0,0,0,0,0,-1,643,1079,-48.5192,-0.817808
-574,-55,-48.5085,1.11389,0.00160043,-0.00110506,-0.00163682,0.00237114,-0.00187577,-0.440068,0.00245751,0.0396307,650,1079,-48.5086,-1.11392
-567,-55,-48.6461,1.34265,0.00128837,-0.000712753,-0.00127361,0.00190744,-0.00133182,-0.452445,0.00188,0.0414558,657,1079,-48.6461,-1.34268
-560,-55,-48.6955,0.82959,0.000687355,-7.671e-05,-0.000743148,0.00114092,-0.000530271,-0.547977,0.000986098,0.0439243,664,1079,-48.6955,-0.829531
-553,-55,-48.5385,0.758423,-9.31723e-05,0.000647765,5.22984e-05,0.000651438,-9.68456e-05,1.50068,0.000469912,0.044345,671,1079,-48.5385,-0.758408
-546,-55,-48.5306,0.697266,-0.000821022,0.00120314,0.00121536,0.00177264,-0.00139053,1.13259,0.00183069,0.038774,678,1079,-48.5306,-0.697245
-539,-55,-48.5068,0.697632,-0.00130334,0.000929989,0.00281629,0.00284291,-0.00321627,0.974142,0.00350048,0.03747,685,1079,-48.5068,-0.697583
-532,-55,-48.665,0.907349,-0.00170679,0.000951303,0.00486078,0.00466146,-0.00541695,0.918848,0.00582422,0.0401106,692,1079,-48.6651,-0.907404
-525,-55,0,0,0,0,0,0,0,0,0,-1,699,1079,0,0
-518,-55,0,0,0,0,0,0,0,0,0,-1,706,1079,0,0
-511,-55,0,0,0,0,0,0,0,0,0,-1,713,1079,0,0
-504,-55,0,0,0,0,0,0,0,0,0,-1,720,1079,0,0
-497,-55,0,0,0,0,0,0,0,0,0,-1,727,1079,0,0
-490,-55,0,0,0,0,0,0,0,0,0,-1,734,1079,0,0
-483,-55,0,0,0,0,0,0,0,0,0,-1,741,1079,0,0
-476,-55,0,0,0,0,0,0,0,0,0,-1,748,1079,0,0
-469,-55,0,0,0,0,0,0,0,0,0,-1,755,1079,0,0
-462,-55,0,0,0,0,0,0,0,0,0,-1,762,1079,0,0
-455,-55,0,0,0,0,0,0,0,0,0,-1,769,1079,0,0
-448,-55,0,0,0,0,0,0,0,0,0,-1,776,1079,0,0
-441,-55,0,0,0,0,0,0,0,0,0,-1,783,1079,0,0
-434,-55,0,0,0,0,0,0,0,0,0,-1,790,1079,0,0
-427,-55,0,0,0,0,0,0,0,0,0,-1,797,1079,0,0
-420,-55,0,0,0,0,0,0,0,0,0,-1,804,1079,0,0
-413,-55,0,0,0,0,0,0,0,0,0,-1,811,1079,0,0
-406,-55,0,0,0,0,0,0,0,0,0,-1,818,1079,0,0
-399,-55,0,0,0,0,0,0,0,0,0,-1,825,1079,0,0
-392,-55,0,0,0,0,0,0,0,0,0,-1,832,1079,0,0
-385,-55,0,0,0,0,0,0,0,0,0,-1,839,1079,0,0
-378,-55,0,0,0,0,0,0,0,0,0,-1,846,1079,0,0
-371,-55,0,0,0,0,0,0,0,0,0,-1,853,1079,0,0
-364,-55,0,0,0,0,0,0,0,0,0,-1,860,1079,0,0
-357,-55,0,0,0,0,0,0,0,0,0,-1,867,1079,0,0
-350,-55,0,0,0,0,0,0,0,0,0,-1,874,1079,0,0
-343,-55,0,0,0,0,0,0,0,0,0,-1,881,1079,0,0
-336,-55,0,0,0,0,0,0,0,0,0,-1,888,1079,0,0
-329,-55,0,0,0,0,0,0,0,0,0,-1,895,1079,0,0
-322,-55,0,0,0,0,0,0,0,0,0,-1,902,1079,0,0
-315,-55,0,0,0,0,0,0,0,0,0,-1,909,1079,0,0
-308,-55,0,0,0,0,0,0,0,0,0,-1,916,1079,0,0
-301,-55,0,0,0,0,0,0,0,0,0,-1,923,1079,0,0
-294,-55,0,0,0,0,0,0,0,0,0,-1,930,1079,0,0
-287,-55,0,0,0,0,0,0,0,0,0,-1,937,1079,0,0
-280,-55,0,0,0,0,0,0,0,0,0,-1,944,1079,0,0
-273,-55,0,0,0,0,0,0,0,0,0,-1,951,1079,0,0
-266,-55,0,0,0,0,0,0,0,0,0,-1,958,1079,0,0
-259,-55,0,0,0,0,0,0,0,0,0,-1,965,1079,0,0
-252,-55,0,0,0,0,0,0,0,0,0,-1,972,1079,0,0
-245,-55,0,0,0,0,0,0,0,0,0,-1,979,1079,0,0
-238,-55,0,0,0,0,0,0,0,0,0,-1,986,1079,0,0
-231,-55,0,0,0,0,0,0,0,0,0,-1,993,1079,0,0
-224,-55,0,0,0,0,0,0,0,0,0,-1,1000,1079,0,0
-217,-55,0,0,0,0,0,0,0,0,0,-1,1007,1079,0,0
-210,-55,0,0,0,0,0,0,0,0,0,-1,1014,1079,0,0
-203,-55,0,0,0,0,0,0,0,0,0,-1,1021,1079,0,0
-196,-55,0,0,0,0,0,0,0,0,0,-1,1028,1079,0,0
-189,-55,0,0,0,0,0,0,0,0,0,-1,1035,1079,0,0
-182,-55,0,0,0,0,0,0,0,0,0,-1,1042,1079,0,0
-175,-55,0,0,0,0,0,0,0,0,0,-1,1049,1079,0,0
-168,-55,0,0,0,0,0,0,0,0,0,-1,1056,1079,0,0
-161,-55,0,0,0,0,0,0,0,0,0,-1,1063,1079,0,0
-154,-55,0,0,0,0,0,0,0,0,0,-1,1070,1079,0,0
-147,-55,0,0,0,0,0,0,0,0,0,-1,1077,1079,0,0
-140,-55,0,0,0,0,0,0,0,0,0,-1,1084,1079,0,0
-133,-55,0,0,0,0,0,0,0,0,0,-1,1091,1079,0,0
-126,-55,0,0,0,0,0,0,0,0,0,-1,1098,1079,0,0
-119,-55,0,0,0,0,0,0,0,0,0,-1,1105,1079,0,0
-112,-55,0,0,0,0,0,0,0,0,0,-1,1112,1079,0,0
-105,-55,0,0,0,0,0,0,0,0,0,-1,1119,1079,0,0
-98,-55,0,0,0,0,0,0,0,0,0,-1,1126,1079,0,0
-91,-55,0,0,0,0,0,0,0,0,0,-1,1133,1079,0,0
-84,-55,0,0,0,0,0,0,0,0,0,-1,1140,1079,0,0
-77,-55,0,0,0,0,0,0,0,0,0,-1,1147,1079,0,0
-70,-55,0,0,0,0,0,0,0,0,0,-1,1154,1079,0,0
-63,-55,0,0,0,0,0,0,0,0,0,-1,1161,1079,0,0
-56,-55,0,0,0,0,0,0,0,0,0,-1,1168,1079,0,0
-49,-55,0,0,0,0,0,0,0,0,0,-1,1175,1079,0,0
-42,-55,0,0,0,0,0,0,0,0,0,-1,1182,1079,0,0
-35,-55,0,0,0,0,0,0,0,0,0,-1,1189,1079,0,0
-28,-55,0,0,0,0,0,0,0,0,0,-1,1196,1079,0,0
-21,-55,0,0,0,0,0,0,0,0,0,-1,1203,1079,0,0
-14,-55,0,0,0,0,0,0,0,0,0,-1,1210,1079,0,0
-7,-55,0,0,0,0,0,0,0,0,0,-1,1217,1079,0,0
0,-55,0,0,0,0,0,0,0,0,0,-1,1224,1079,0,0
7,-55,0,0,0,0,0,0,0,0,0,-1,1231,1079,0,0
14,-55,0,0,0,0,0,0,0,0,0,-1,1238,1079,0,0
21,-55,0,0,0,0,0,0,0,0,0,-1,1245,1079,0,0
28,-55,0,0,0,0,0,0,0,0,0,-1,1252,1079,0,0
35,-55,0,0,0,0,0,0,0,0,0,-1,1259,1079,0,0
42,-55,0,0,0,0,0,0,0,0,0,-1,1266,1079,0,0
49,-55,0,0,0,0,0,0,0,0,0,-1,1273,1079,0,0
56,-55,0,0,0,0,0,0,0,0,0,-1,1280,1079,0,0
63,-55,0,0,0,0,0,0,0,0,0,-1,1287,1079,0,0
70,-55,0,0,0,0,0,0,0,0,0,-1,1294,1079,0,0
77,-55,0,0,0,0,0,0,0,0,0,-1,1301,1079,0,0
84,-55,0,0,0,0,0,0,0,0,0,-1,1308,1079,0,0
91,-55,0,0,0,0,0,0,0,0,0,-1,1315,1079,0,0
98,-55,0,0,0,0,0,0,0,0,0,-1,1322,1079,0,0
105,-55,0,0,0,0,0,0,0,0,0,-1,1329,1079,0,0
112,-55,0,0,0,0,0,0,0,0,0,-1,1336,1079,0,0
119,-55,0,0,0,0,0,0,0,0,0,-1,1343,1079,0,0
126,-55,0,0,0,0,0,0,0,0,0,-1,1350,1079,0,0
133,-55,0,0,0,0,0,0,0,0,0,-1,1357,1079,0,0
140,-55,0,0,0,0,0,0,0,0,0,-1,1364,1079,0,0
147,-55,0,0,0,0,0,0,0,0,0,-1,1371,1079,0,0
154,-55,0,0,0,0,0,0,0,0,0,-1,1378,1079,0,0
161,-55,0,0,0,0,0,0,0,0,0,-1,1385,1079,0,0
168,-55,0,0,0,0,0,0,0,0,0,-1,1392,1079,0,0
175,-55,0,0,0,0,0,0,0,0,0,-1,1399,1079,0,0
182,-55,0,0,0,0,0,0,0,0,0,-1,1406,1079,0,0
189,-55,0,0,0,0,0,0,0,0,0,-1,1413,1079,0,0
196,-55,0,0,0,0,0,0,0,0,0,-1,1420,1079,0,0
203,-55,0,0,0,0,0,0,0,0,0,-1,1427,1079,0,0
210,-55,0,0,0,0,0,0,0,0,0,-1,1434,1079,0,0
217,-55,0,0,0,0,0,0,0,0,0,-1,1441,1079,0,0
224,-55,0,0,0,0,0,0,0,0,0,-1,1448,1079,0,0
231,-55,0,0,0,0,0,0,0,0,0,-1,1455,1079,0,0
238,-55,0,0,0,0,0,0,0,0,0,-1,1462,1079,0,0
245,-55,0,0,0,0,0,0,0,0,0,-1,1469,1079,0,0
252,-55,0,0,0,0,0,0,0,0,0,-1,1476,1079,0,0
259,-55,0,0,0,0,0,0,0,0,0,-1,1483,1079,0,0
266,-55,0,0,0,0,0,0,0,0,0,-1,1490,1079,0,0
273,-55,0,0,0,0,0,0,0,0,0,-1,1497,1079,0,0
280,-55,0,0,0,0,0,0,0,0,0,-1,1504,1079,0,0
287,-55,0,0,0,0,0,0,0,0,0,-1,1511,1079,0,0
294,-55,0,0,0,0,0,0,0,0,0,-1,1518,1079,0,0
301,-55,0,0,0,0,0,0,0,0,0,-1,1525,1079,0,0
308,-55,0,0,0,0,0,0,0,0,0,-1,1532,1079,0,0
315,-55,0,0,0,0,0,0,0,0,0,-1,1539,1079,0,0
322,-55,0,0,0,0,0,0,0,0,0,-1,1546,1079,0,0
329,-55,0,0,0,0,0,0,0,0,0,-1,1553,1079,0,0
336,-55,0,0,0,0,0,0,0,0,0,-1,1560,1079,0,0
343,-55,0,0,0,0,0,0,0,0,0,-1,1567,1079,0,0
350,-55,0,0,0,0,0,0,0,0,0,-1,1574,1079,0,0
357,-55,0,0,0,0,0,0,0,0,0,-1,1581,1079,0,0
364,-55,0,0,0,0,0,0,0,0,0,-1,1588,1079,0,0
371,-55,0,0,0,0,0,0,0,0,0,-1,1595,1079,0,0
378,-55,0,0,0,0,0,0,0,0,0,-1,1602,1079,0,0
385,-55,0,0,0,0,0,0,0,0,0,-1,1609,1079,0,0
392,-55,0,0,0,0,0,0,0,0,0,-1,1616,1079,0,0
399,-55,0,0,0,0,0,0,0,0,0,-1,1623,1079,0,0
406,-55,0,0,0,0,0,0,0,0,0,-1,1630,1079,0,0
413,-55,0,0,0,0,0,0,0,0,0,-1,1637,1079,0,0
420,-55,0,0,0,0,0,0,0,0,0,-1,1644,1079,0,0
427,-55,0,0,0,0,0,0,0,0,0,-1,1651,1079,0,0
434,-55,0,0,0,0,0,0,0,0,0,-1,1658,1079,0,0
441,-55,0,0,0,0,0,0,0,0,0,-1,1665,1079,0,0
448,-55,0,0,0,0,0,0,0,0,0,-1,1672,1079,0,0
455,-55,0,0,0,0,0,0,0,0,0,-1,1679,1079,0,0
462,-55,0,0,0,0,0,0,0,0,0,-1,1686,1079,0,0
469,-55,0,0,0,0,0,0,0,0,0,-1,1693,1079,0,0
476,-55,0,0,0,0,0,0,0,0,0,-1,1700,1079,0,0
483,-55,0,0,0,0,0,0,0,0,0,-1,1707,1079,0,0
490,-55,0,0,0,0,0,0,0,0,0,-1,1714,1079,0,0
497,-55,0,0,0,0,0,0,0,0,0,-1,1721,1079,0,0
504,-55,0,0,0,0,0,0,0,0,0,-1,1728,1079,0,0
511,-55,0,0,0,0,0,0,0,0,0,-1,1735,1079,0,0
518,-55,0,0,0,0,0,0,0,0,0,-1,1742,1079,0,0
525,-55,0,0,0,0,0,0,0,0,0,-1,1749,1079,0,0
532,-55,0,0,0,0,0,0,0,0,0,-1,1756,1079,0,0
539,-55,0,0,0,0,0,0,0,0,0,-1,1763,1079,0,0
546,-55,0,0,0,0,0,0,0,0,0,-1,1770,1079,0,0
553,-55,0,0,0,0,0,0,0,0,0,-1,1777,1079,0,0
560,-55,0,0,0,0,0,0,0,0,0,-1,1784,1079,0,0
567,-55,0,0,0,0,0,0,0,0,0,-1,1791,1079,0,0
574,-55,0,0,0,0,0,0,0,0,0,-1,1798,1079,0,0
581,-55,0,0,0,0,0,0,0,0,0,-1,1805,1079,0,0
588,-55,0,0,0,0,0,0,0,0,0,-1,1812,1079,0,0
595,-55,0,0,0,0,0,0,0,0,0,-1,1819,1079,0,0
602,-55,0,0,0,0,0,0,0,0,0,-1,1826,1079,0,0
609,-55,0,0,0,0,0,0,0,0,0,-1,1833,1079,0,0
616,-55,0,0,0,0,0,0,0,0,0,-1,1840,1079,0,0
623,-55,0,0,0,0,0,0,0,0,0,-1,1847,1079,0,0
630,-55,0,0,0,0,0,0,0,0,0,-1,1854,1079,0,0
637,-55,0,0,0,0,0,0,0,0,0,-1,1861,1079,0,0
644,-55,0,0,0,0,0,0,0,0,0,-1,1868,1079,0,0
651,-55,64.1207,2.76208,-0.00236192,0.000408106,0.00139825,0.000991178,-0.00294499,1.17572,0.00236403,0.0336338,1875,1079,64.1208,-2.7621
658,-55,64.1166,2.83765,-0.0015773,0.000270064,0.00092786,0.000655624,-0.00196286,1.17697,0.00157333,0.0351317,1882,1079,64.1166,-2.83764
665,-55,64.0726,2.8075,-0.000956683,0.000153552,0.000612649,0.000425171,-0.0012283,1.15348,0.00099146,0.0403274,1889,1079,64.0726,-2.80744
672,-55,64.109,2.73169,-0.000399695,0.000202852,0.000445874,0.000439695,-0.000636538,1.08251,0.000624818,0.0391426,1896,1079,64.109,-2.73167
679,-55,64.1151,2.72656,4.15036e-05,0.000334071,0.000323415,0.000542746,-0.000167172,0.997785,0.000428564,0.0374696,1903,1079,64.1151,-2.72655
686,-55,64.1017,2.7395,-6.60824e-06,0.000214975,0.000431105,0.000549297,-0.00034093,0.911174,0.000518645,0.0422584,1910,1079,64.1017,-2.73951
693,-55,64.1223,2.83228,-0.000134608,2.44172e-05,0.000664522,0.000614167,-0.000724357,0.844942,0.00077367,0.0406369,1917,1079,64.1223,-2.83226
700,-55,64.1493,2.74011,-0.00020509,-4.83408e-05,0.000920153,0.000796769,-0.0010502,0.827884,0.00106969,0.0320379,1924,1079,64.1493,-2.74011
707,-55,64.188,2.60571,-0.00056081,1.37029e-05,0.00124309,0.0010023,-0.00154941,0.898946,0.00148447,0.0232079,1931,1079,64.1879,-2.60577
714,-55,64.2067,2.58911,-0.0010937,0.000240482,0.00155143,0.00126216,-0.00211538,0.98844,0.00197066,0.049026,1938,1079,64.2066,-2.58913
721,-55,64.3103,2.66016,0,0,0,0,0,0,0,-1,1945,1079,64.3103,-2.66018
728,-55,62.636,7.68384,0,0,0,0,0,0,0,-1,1952,1079,62.636,-7.68381
735,-55,62.4958,7.32849,-0.00347325,0.00231255,0.00242901,0.00319708,-0.00435778,1.22157,0.00437892,0.0238422,1959,1079,62.4958,-7.32847
742,-55,62.4648,6.99426,-0.00445225,0.00320919,0.00259164,0.00400351,-0.00524657,1.27339,0.00535658,0.0223054,1966,1079,62.4648,-6.99423
749,-55,62.4774,6.63672,-0.00553111,0.00408425,0.00300952,0.00494852,-0.00639538,1.29114,0.00656714,0.0146263,1973,1079,62.4774,-6.63675
756,-55,62.3958,6.31274,-0.00638962,0.00580604,0.00289466,0.00645822,-0.00704179,1.34919,0.00779666,0.01278,1980,1079,62.3958,-6.31277
763,-55,62.3428,6.0072,-0.00728351,0.00831863,0.00230109,0.00865093,-0.0076158,1.42738,0.00939794,0.0156137,1987,1079,62.3428,-6.00717
770,-55,62.2957,5.66248,-0.00826372,0.011388,0.0013712,0.0114832,-0.00835893,1.50147,0.0115031,0.0173171,1994,1079,62.2955,-5.66252
777,-55,62.1819,5.36365,-0.00893378,0.0154082,-0.000147294,0.0154091,-0.00893467,-1.56475,0.0142196,0.0146258,2001,1079,62.182,-5.36371
784,-55,62.0034,5.05896,-0.00930734,0.0199146,-0.0022178,0.0200819,-0.0094747,-1.49548,0.017427,0.0288704,2008,1079,62.0034,-5.05894
791,-55,61.4209,4.90479,-0.0093102,0.0252509,-0.00517262,0.0260085,-0.0100678,-1.42537,0.0214957,0.0391951,2015,1079,61.4208,-4.90477
798,-55,60.9624,4.86353,-0.00832501,0.0319651,-0.00946438,0.0340776,-0.0104375,-1.35119,0.0268817,0.0461185,2022,1079,60.9623,-4.86357
805,-55,60.6265,4.69336,0,0,0,0,0,0,0,-1,2029,1079,60.6266,-4.69342
812,-55,60.2373,4.55957,0,0,0,0,0,0,0,-1,2036,1079,60.2373,-4.55958
-700,-62,-49.1176,-1.80371,0,0,0,0,0,0,0,-1,524,1086,-49.1176,1.80377
-693,-62,-48.153,-1.46814,0.111119,-0.0281704,0.0331391,0.118602,-0.0356527,0.222063,0.0932522,0.0459453,531,1086,-48.153,1.46813
-686,-62,-47.1678,-0.917847,0.0945339,-0.0196829,0.0321807,0.102977,-0.0281257,0.256576,0.0796982,0.0453771,538,1086,-47.1679,0.917801
-679,-62,-46.5263,-0.253174,0.0784064,-0.0125336,0.0292456,0.0869996,-0.0211267,0.285785,0.0661758,0.0460621,545,1086,-46.5263,0.253226
-672,-62,-49.957,-0.575562,0,0,0,0,0,0,0,-1,552,1086,-49.957,0.575561
-665,-62,-49.2579,0.0627441,0,0,0,0,0,0,0,-1,559,1086,-49.2579,-0.0627305
-658,-62,-47.9338,0.733887,0,0,0,0,0,0,0,-1,566,1086,-47.9338,-0.733909
-651,-62,-46.8348,2.04932,0.0279824,0.00356968,0.012924,0.0335531,-0.00200102,0.406973,0.0230647,0.0469694,573,1086,-46.8349,-2.0493
-644,-62,-46.7479,2.79126,0.0198476,0.00449186,0.00919385,0.0241479,0.000191557,0.437506,0.0160351,0.0185944,580,1086,-46.7478,-2.79125
-637,-62,-46.8073,3.23755,0.0120814,0.00538914,0.00598517,0.0155923,0.00187823,0.53051,0.00982877,0.0154608,587,1086,-46.8073,-3.2376
-630,-62,-46.8889,3.63525,0.00661957,0.00451634,0.00274242,0.00850509,0.00263082,0.602314,0.00502803,0.0159896,594,1086,-46.8889,-3.63522
-623,-62,-46.9651,4.09033,0.00399492,0.00341229,0.000534791,0.00431259,0.00309462,0.536005,0.00256725,0.0186729,601,1086,-46.9651,-4.09032
-616,-62,-46.9742,4.54138,0.00284921,0.00247975,-0.000541685,0.0032368,0.00209216,-0.621069,0.00189527,0.0198404,608,1086,-46.9742,-4.54137
-609,-62,-46.9158,4.91663,0.00212853,0.00127417,-0.00120759,0.00298227,0.000420434,-0.615394,0.00186391,0.0197312,615,1086,-46.9158,-4.91665
-602,-62,-46.7947,5.27234,0.00172666,-0.000157478,-0.00174776,0.00277008,-0.0012009,-0.538213,0.00235156,0.0177351,622,1086,-46.7947,-5.27235
-595,-62,-46.6366,5.67871,0.00159408,-0.000543725,-0.00204114,0.00282926,-0.00177891,-0.544192,0.00268347,0.0400826,629,1086,-46.6366,-5.67865
-588,-62,-46.579,6.07239,0,0,0,0,0,0,0,-1,636,1086,-46.579,-6.0724
-581,-62,-48.5186,0.794922,0,0,0,0,0,0,0,-1,643,1086,-48.5186,-0.794929
-574,-62,-48.5489,1.00818,0.00179489,-0.000972014,-0.00135683,0.0023492,-0.00152632,-0.387841,0.00225428,0.0361904,650,1086,-48.5489,-1.00813
-567,-62,-48.4968,1.40332,0.00152529,-0.000681146,-0.00111877,0.00199329,-0.00114915,-0.396198,0.00183598,0.0398353,657,1086,-48.4968,-1.40334
-560,-62,-48.6152,1.45471,0.000988954,-0.000233805,-0.00077477,0.00136452,-0.000609367,-0.451365,0.00116709,0.041961,664,1086,-48.6153,-1.45472
-553,-62,-48.5355,0.766479,0.000288985,0.000204903,-0.000228548,0.000479327,1.45615e-05,-0.694441,0.00031481,0.0392751,671,1086,-48.5355,-0.766441
-546,-62,-48.4974,0.768555,-0.00022036,0.000338628,0.000641828,0.000759177,-0.000640909,0.990749,0.000809301,0.0319184,678,1086,-48.4975,-0.768525
-539,-62,-48.4949,0.793335,-4.82715e-05,-0.000632252,0.0019753,0.0016565,-0.00233702,0.712019,0.00231679,0.0371904,685,1086,-48.4949,-0.793342
-532,-62,-48.5469,0.953125,0.000149448,-0.00137951,0.00388519,0.00334465,-0.00457472,0.688255,0.0045906,0.0410184,692,1086,-48.5469,-0.95312
-525,-62,0,0,0,0,0,0,0,0,0,-1,699,1086,0,0
-518,-62,0,0,0,0,0,0,0,0,0,-1,706,1086,0,0
-511,-62,0,0,0,0,0,0,0,0,0,-1,713,1086,0,0
-504,-62,0,0,0,0,0,0,0,0,0,-1,720,1086,0,0
-497,-62,0,0,0,0,0,0,0,0,0,-1,727,1086,0,0
-490,-62,0,0,0,0,0,0,0,0,0,-1,734,1086,0,0
-483,-62,0,0,0,0,0,0,0,0,0,-1,741,1086,0,0
-476,-62,0,0,0,0,0,0,0,0,0,-1,748,1086,0,0
-469,-62,0,0,0,0,0,0,0,0,0,-1,755,1086,0,0
-462,-62,0,0,0,0,0,0,0,0,0,-1,762,1086,0,0
-455,-62,0,0,0,0,0,0,0,0,0,-1,769,1086,0,0
-448,-62,0,0,0,0,0,0,0,0,0,-1,776,1086,0,0
-441,-62,0,0,0,0,0,0,0,0,0,-1,783,1086,0,0
-434,-62,0,0,0,0,0,0,0,0,0,-1,790,1086,0,0
-427,-62,0,0,0,0,0,0,0,0,0,-1,797,1086,0,0
-420,-62,0,0,0,0,0,0,0,0,0,-1,804,1086,0,0
-413,-62,0,0,0,0,0,0,0,0,0,-1,811,1086,0,0
-406,-62,0,0,0,0,0,0,0,0,0,-1,818,1086,0,0
-399,-62,0,0,0,0,0,0,0,0,0,-1,825,1086,0,0
-392,-62,0,0,0,0,0,0,0,0,0,-1,832,1086,0,0
-385,-62,0,0,0,0,0,0,0,0,0,-1,839,1086,0,0
-378,-62,0,0,0,0,0,0,0,0,0,-1,846,1086,0,0
-371,-62,0,0,0,0,0,0,0,0,0,-1,853,1086,0,0
-364,-62,0,0,0,0,0,0,0,0,0,-1,860,1086,0,0
-357,-62,0,0,0,0,0,0,0,0,0,-1,867,1086,0,0
-350,-62,0,0,0,0,0,0,0,0,0,-1,874,1086,0,0
-343,-62,0,0,0,0,0,0,0,0,0,-1,881,1086,0,0
-336,-62,0,0,0,0,0,0,0,0,0,-1,888,1086,0,0
-329,-62,0,0,0,0,0,0,0,0,0,-1,895,1086,0,0
-322,-62,0,0,0,0,0,0,0,0,0,-1,902,1086,0,0
-315,-62,0,0,0,0,0,0,0,0,0,-1,909,1086,0,0
-308,-62,0,0,0,0,0,0,0,0,0,-1,916,1086,0,0
-301,-62,0,0,0,0,0,0,0,0,0,-1,923,1086,0,0
-294,-62,0,0,0,0,0,0,0,0,0,-1,930,1086,0,0
-287,-62,0,0,0,0,0,0,0,0,0,-1,937,1086,0,0
-280,-62,0,0,0,0,0,0,0,0,0,-1,944,1086,0,0
-273,-62,0,0,0,0,0,0,0,0,0,-1,951,1086,0,0
-266,-62,0,0,0,0,0,0,0,0,0,-1,958,1086,0,0
-259,-62,0,0,0,0,0,0,0,0,0,-1,965,1086,0,0
-252,-62,0,0,0,0,0,0,0,0,0,-1,972,1086,0,0
-245,-62,0,0,0,0,0,0,0,0,0,-1,979,1086,0,0
-238,-62,0,0,0,0,0,0,0,0,0,-1,986,1086,0,0
-231,-62,0,0,0,0,0,0,0,0,0,-1,993,1086,0,0
-224,-62,0,0,0,0,0,0,0,0,0,-1,1000,1086,0,0
-217,-62,0,0,0,0,0,0,0,0,0,-1,1007,1086,0,0
-210,-62,0,0,0,0,0,0,0,0,0,-1,1014,1086,0,0
-203,-62,0,0,0,0,0,0,0,0,0,-1,1021,1086,0,0
-196,-62,0,0,0,0,0,0,0,0,0,-1,1028,1086,0,0
-189,-62,0,0,0,0,0,0,0,0,0,-1,1035,1086,0,0
-182,-62,0,0,0,0,0,0,0,0,0,-1,1042,1086,0,0
-175,-62,0,0,0,0,0,0,0,0,0,-1,1049,1086,0,0
-168,-62,0,0,0,0,0,0,0,0,0,-1,1056,1086,0,0
-161,-62,0,0,0,0,0,0,0,0,0,-1,1063,1086,0,0
-154,-62,0,0,0,0,0,0,0,0,0,-1,1070,1086,0,0
-147,-62,0,0,0,0,0,0,0,0,0,-1,1077,1086,0,0
-140,-62,0,0,0,0,0,0,0,0,0,-1,1084,1086,0,0
-133,-62,0,0,0,0,0,0,0,0,0,-1,1091,1086,0,0
-126,-62,0,0,0,0,0,0,0,0,0,-1,1098,1086,0,0
-119,-62,0,0,0,0,0,0,0,0,0,-1,1105,1086,0,0
-112,-62,0,0,0,0,0,0,0,0,0,-1,1112,1086,0,0
-105,-62,0,0,0,0,0,0,0,0,0,-1,1119,1086,0,0
-98,-62,0,0,0,0,0,0,0,0,0,-1,1126,1086,0,0
-91,-62,0,0,0,0,0,0,0,0,0,-1,1133,1086,0,0
-84,-62,0,0,0,0,0,0,0,0,0,-1,1140,1086,0,0
-77,-62,0,0,0,0,0,0,0,0,0,-1,1147,1086,0,0
-70,-62,0,0,0,0,0,0,0,0,0,-1,1154,1086,0,0
-63,-62,0,0,0,0,0,0,0,0,0,-1,1161,1086,0,0
-56,-62,0,0,0,0,0,0,0,0,0,-1,1168,1086,0,0
-49,-62,0,0,0,0,0,0,0,0,0,-1,1175,1086,0,0
-42,-62,0,0,0,0,0,0,0,0,0,-1,1182,1086,0,0
-35,-62,0,0,0,0,0,0,0,0,0,-1,1189,1086,0,0
-28,-62,0,0,0,0,0,0,0,0,0,-1,1196,1086,0,0
-21,-62,0,0,0,0,0,0,0,0,0,-1,1203,1086,0,0
-14,-62,0,0,0,0,0,0,0,0,0,-1,1210,1086,0,0
-7,-62,0,0,0,0,0,0,0,0,0,-1,1217,1086,0,0
0,-62,0,0,0,0,0,0,0,0,0,-1,1224,1086,0,0
7,-62,0,0,0,0,0,0,0,0,0,-1,1231,1086,0,0
14,-62,0,0,0,0,0,0,0,0,0,-1,1238,1086,0,0
21,-62,0,0,0,0,0,0,0,0,0,-1,1245,1086,0,0
28,-62,0,0,0,0,0,0,0,0,0,-1,1252,1086,0,0
35,-62,0,0,0,0,0,0,0,0,0,-1,1259,1086,0,0
42,-62,0,0,0,0,0,0,0,0,0,-1,1266,1086,0,0
49,-62,0,0,0,0,0,0,0,0,0,-1,1273,1086,0,0
56,-62,0,0,0,0,0,0,0,0,0,-1,1280,1086,0,0
63,-62,0,0,0,0,0,0,0,0,0,-1,1287,1086,0,0
70,-62,0,0,0,0,0,0,0,0,0,-1,1294,1086,0,0
77,-62,0,0,0,0,0,0,0,0,0,-1,1301,1086,0,0
84,-62,0,0,0,0,0,0,0,0,0,-1,1308,1086,0,0
91,-62,0,0,0,0,0,0,0,0,0,-1,1315,1086,0,0
98,-62,0,0,0,0,0,0,0,0,0,-1,1322,1086,0,0
105,-62,0,0,0,0,0,0,0,0,0,-1,1329,1086,0,0
112,-62,0,0,0,0,0,0,0,0,0,-1,1336,1086,0,0
119,-62,0,0,0,0,0,0,0,0,0,-1,1343,1086,0,0
126,-62,0,0,0,0,0,0,0,0,0,-1,1350,1086,0,0
133,-62,0,0,0,0,0,0,0,0,0,-1,1357,1086,0,0
140,-62,0,0,0,0,0,0,0,0,0,-1,1364,1086,0,0
147,-62,0,0,0,0,0,0,0,0,0,-1,1371,1086,0,0
154,-62,0,0,0,0,0,0,0,0,0,-1,1378,1086,0,0
161,-62,0,0,0,0,0,0,0,0,0,-1,1385,1086,0,0
168,-62,0,0,0,0,0,0,0,0,0,-1,1392,1086,0,0
175,-62,0,0,0,0,0,0,0,0,0,-1,1399,1086,0,0
182,-62,0,0,0,0,0,0,0,0,0,-1,1406,1086,0,0
189,-62,0,0,0,0,0,0,0,0,0,-1,1413,1086,0,0
196,-62,0,0,0,0,0,0,0,0,0,-1,1420,1086,0,0
203,-62,0,0,0,0,0,0,0,0,0,-1,1427,1086,0,0
210,-62,0,0,0,0,0,0,0,0,0,-1,1434,1086,0,0
217,-62,0,0,0,0,0,0,0,0,0,-1,1441,1086,0,0
224,-62,0,0,0,0,0,0,0,0,0,-1,1448,1086,0,0
231,-62,0,0,0,0,0,0,0,0,0,-1,1455,1086,0,0
238,-62,0,0,0,0,0,0,0,0,0,-1,1462,1086,0,0
245,-62,0,0,0,0,0,0,0,0,0,-1,1469,1086,0,0
252,-62,0,0,0,0,0,0,0,0,0,-1,1476,1086,0,0
259,-62,0,0,0,0,0,0,0,0,0,-1,1483,1086,0,0
266,-62,0,0,0,0,0,0,0,0,0,-1,1490,1086,0,0
273,-62,0,0,0,0,0,0,0,0,0,-1,1497,1086,0,0
280,-62,0,0,0,0,0,0,0,0,0,-1,1504,1086,0,0
287,-62,0,0,0,0,0,0,0,0,0,-1,1511,1086,0,0
294,-62,0,0,0,0,0,0,0,0,0,-1,1518,1086,0,0
301,-62,0,0,0,0,0,0,0,0,0,-1,1525,1086,0,0
308,-62,0,0,0,0,0,0,0,0,0,-1,1532,1086,0,0
315,-62,0,0,0,0,0,0,0,0,0,-1,1539,1086,0,0
322,-62,0,0,0,0,0,0,0,0,0,-1,1546,1086,0,0
329,-62,0,0,0,0,0,0,0,0,0,-1,1553,1086,0,0
336,-62,0,0,0,0,0,0,0,0,0,-1,1560,1086,0,0
343,-62,0,0,0,0,0,0,0,0,0,-1,1567,1086,0,0
350,-62,0,0,0,0,0,0,0,0,0,-1,1574,1086,0,0
357,-62,0,0,0,0,0,0,0,0,0,-1,1581,1086,0,0
364,-62,0,0,0,0,0,0,0,0,0,-1,1588,1086,0,0
371,-62,0,0,0,0,0,0,0,0,0,-1,1595,1086,0,0
378,-62,0,0,0,0,0,0,0,0,0,-1,1602,1086,0,0
385,-62,0,0,0,0,0,0,0,0,0,-1,1609,1086,0,0
392,-62,0,0,0,0,0,0,0,0,0,-1,1616,1086,0,0
399,-62,0,0,0,0,0,0,0,0,0,-1,1623,1086,0,0
406,-62,0,0,0,0,0,0,0,0,0,-1,1630,1086,0,0
413,-62,0,0,0,0,0,0,0,0,0,-1,1637,1086,0,0
420,-62,0,0,0,0,0,0,0,0,0,-1,1644,1086,0,0
427,-62,0,0,0,0,0,0,0,0,0,-1,1651,1086,0,0
434,-62,0,0,0,0,0,0,0,0,0,-1,1658,1086,0,0
441,-62,0,0,0,0,0,0,0,0,0,-1,1665,1086,0,0
448,-62,0,0,0,0,0,0,0,0,0,-1,1672,1086,0,0
455,-62,0,0,0,0,0,0,0,0,0,-1,1679,1086,0,0
462,-62,0,0,0,0,0,0,0,0,0,-1,1686,1086,0,0
469,-62,0,0,0,0,0,0,0,0,0,-1,1693,1086,0,0
476,-62,0,0,0,0,0,0,0,0,0,-1,1700,1086,0,0
483,-62,0,0,0,0,0,0,0,0,0,-1,1707,1086,0,0
490,-62,0,0,0,0,0,0,0,0,0,-1,1714,1086,0,0
497,-62,0,0,0,0,0,0,0,0,0,-1,1721,1086,0,0
504,-62,0,0,0,0,0,0,0,0,0,-1,1728,1086,0,0
511,-62,0,0,0,0,0,0,0,0,0,-1,1735,1086,0,0
518,-62,0,0,0,0,0,0,0,0,0,-1,1742,1086,0,0
525,-62,0,0,0,0,0,0,0,0,0,-1,1749,1086,0,0
532,-62,0,0,0,0,0,0,0,0,0,-1,1756,1086,0,0
539,-62,0,0,0,0,0,0,0,0,0,-1,1763,1086,0,0
546,-62,0,0,0,0,0,0,0,0,0,-1,1770,1086,0,0
553,-62,0,0,0,0,0,0,0,0,0,-1,1777,1086,0,0
560,-62,0,0,0,0,0,0,0,0,0,-1,1784,1086,0,0
567,-62,0,0,0,0,0,0,0,0,0,-1,1791,1086,0,0
574,-62,0,0,0,0,0,0,0,0,0,-1,1798,1086,0,0
581,-62,0,0,0,0,0,0,0,0,0,-1,1805,1086,0,0
588,-62,0,0,0,0,0,0,0,0,0,-1,1812,1086,0,0
595,-62,0,0,0,0,0,0,0,0,0,-1,1819,1086,0,0
602,-62,0,0,0,0,0,0,0,0,0,-1,1826,1086,0,0
609,-62,0,0,0,0,0,0,0,0,0,-1,1833,1086,0,0
616,-62,0,0,0,0,0,0,0,0,0,-1,1840,1086,0,0
623,-62,0,0,0,0,0,0,0,0,0,-1,1847,1086,0,0
630,-62,0,0,0,0,0,0,0,0,0,-1,1854,1086,0,0
637,-62,0,0,0,0,0,0,0,0,0,-1,1861,1086,0,0
644,-62,0,0,0,0,0,0,0,0,0,-1,1868,1086,0,0
651,-62,64.0927,2.84521,-0.00248669,0.00061344,0.00112858,0.000980765,-0.00285402,1.25613,0.00230038,0.0404744,1875,1086,64.0926,-2.84526
658,-62,64.0013,2.91724,-0.00163859,0.000445424,0.00074506,0.00068439,-0.00187756,1.26043,0.00153168,0.0409932,1882,1086,64.0013,-2.91726
665,-62,63.9545,2.85535,-0.000950222,0.000282881,0.000472685,0.000443225,-0.00111057,1.24376,0.00092425,0.039861,1889,1086,63.9544,-2.85538
672,-62,64.1011,2.78369,-0.000328295,0.000286591,0.000297617,0.000407046,-0.000448751,1.18622,0.00049429,0.036971,1896,1086,64.1011,-2.78373
679,-62,64.3562,2.72693,0.000160045,0.000367572,0.000137118,0.000435763,9.18541e-05,1.1093,0.000265246,0.0374101,1903,1086,64.3562,-2.72693
686,-62,64.2136,2.60254,0.000209482,0.000211048,0.000220603,0.000430869,-1.03393e-05,0.787173,0.000290754,0.0403666,1910,1086,64.2136,-2.60259
693,-62,64.137,2.68396,0.000181986,-4.59693e-06,0.000428835,0.00052756,-0.000350171,0.678294,0.000510196,0.0384125,1917,1086,64.1369,-2.68398
700,-62,64.1824,2.6488,0.000195045,-8.78744e-05,0.000648411,0.000717248,-0.000610077,0.677999,0.000767163,0.0309067,1924,1086,64.1824,-2.64883
707,-62,64.1598,2.57092,-6.36652e-05,-5.21425e-05,0.000978162,0.000920275,-0.00103608,0.788343,0.00113016,0.0203567,1931,1086,64.1598,-2.57088
714,-62,64.1808,2.5752,-0.000519,0.000128815,0.00131179,0.00115609,-0.00154628,0.906438,0.00156562,0.039152,1938,1086,64.1807,-2.57516
721,-62,64.2687,2.67493,0,0,0,0,0,0,0,-1,1945,1086,64.2687,-2.6749
728,-62,62.229,7.83081,0,0,0,0,0,0,0,-1,1952,1086,62.2291,-7.83086
735,-62,62.1436,7.34985,-0.00270883,0.00195429,0.0022309,0.00284966,-0.0036042,1.18913,0.00373462,0.0292957,1959,1086,62.1436,-7.34985
742,-62,62.0693,7.03247,-0.00366705,0.00281869,0.00241575,0.00361958,-0.00446795,1.25067,0.00467789,0.0304764,1966,1086,62.0693,-7.03245
749,-62,62.048,6.65393,-0.00466903,0.00376562,0.00279716,0.00460892,-0.00551233,1.27798,0.00585126,0.0232453,1973,1086,62.048,-6.65394
756,-62,61.9707,6.36401,-0.00551845,0.00562391,0.00266268,0.00622751,-0.00612205,1.34787,0.00713011,0.0153387,1980,1086,61.9706,-6.36397
763,-62,61.9377,5.98889,-0.00641941,0.00840488,0.00198695,0.00866657,-0.00668111,1.43984,0.00888567,0.0174887,1987,1086,61.9377,-5.98891
770,-62,61.905,5.59692,-0.00739637,0.01196,0.000876482,0.0119997,-0.00743598,1.52564,0.0113238,0.0150615,1994,1086,61.905,-5.59693
777,-62,61.77,5.21692,-0.00803087,0.0167049,-0.00090585,0.016738,-0.008064,-1.53424,0.0146084,0.0161694,2001,1086,61.77,-5.21697
784,-62,61.6748,4.89087,-0.00829909,0.0222231,-0.00332151,0.0225804,-0.00865636,-1.46364,0.0186222,0.0275686,2008,1086,61.6748,-4.89085
791,-62,61.3245,4.69165,-0.00806463,0.0290449,-0.00675695,0.030237,-0.00925665,-1.39618,0.02385,0.0409993,2015,1086,61.3246,-4.69166
798,-62,60.741,4.91394,-0.00665428,0.0378762,-0.0117069,0.0407663,-0.0095444,-1.32876,0.0308551,0.0441534,2022,1086,60.7409,-4.91393
805,-62,60.3101,4.6012,0,0,0,0,0,0,0,-1,2029,1086,60.3099,-4.60124
812,-62,59.7412,4.10962,0,0,0,0,0,0,0,-1,2036,1086,59.7413,-4.10966
-700,-69,-44.1939,0.212891,0,0,0,0,0,0,0,-1,524,1093,-44.1939,-0.212861
-693,-69,-45.9899,-1.14392,0,0,0,0,0,0,0,-1,531,1093,-45.9899,1.14397
-686,-69,-46.0721,-0.435913,0.0815814,-0.0322992,0.0246012,0.0866687,-0.0373865,0.203915,0.073483,0.0461245,538,1093,-46.0721,0.435901
-679,-69,-46.0846,0.225098,0.0666492,-0.0231749,0.022601,0.0720154,-0.028541,0.233114,0.0598375,0.0419238,545,1093,-46.0846,-0.22513
-672,-69,-46.7993,0.999023,0.0532822,-0.0154135,0.0197634,0.0585622,-0.0206935,0.261064,0.0474675,0.0410342,552,1093,-46.7993,-0.999065
-665,-69,-46.9561,1.87268,0.041433,-0.00904875,0.0165652,0.0463833,-0.0139991,0.290391,0.0364948,0.0439371,559,1093,-46.9561,-1.87265
-658,-69,-46.5797,2.12695,0.0312418,-0.00409211,0.0132877,0.035681,-0.00853134,0.322429,0.0270828,0.0460224,566,1093,-46.5797,-2.12693
-651,-69,-46.2787,2.33398,0.0228292,-0.000606234,0.0101237,0.0265968,-0.00437382,0.356274,0.0193546,0.0383846,573,1093,-46.2787,-2.33397
-644,-69,-46.2582,2.7561,0.0160544,0.00138043,0.00713767,0.0189535,-0.00151868,0.385814,0.0131711,0.0121416,580,1093,-46.2583,-2.75606
-637,-69,-46.3209,3.2229,0.00944303,0.00331842,0.0046613,0.011958,0.000803499,0.494771,0.00771809,0.0127786,587,1093,-46.3209,-3.22289
-630,-69,-46.371,3.59937,0.00498077,0.00318162,0.00190818,0.00619079,0.0019716,0.565132,0.00365193,0.0163578,594,1093,-46.371,-3.59934
-623,-69,-46.3758,4.02686,0.0030789,0.00259295,0.000100928,0.00309903,0.00257282,0.196848,0.00191487,0.0203689,601,1093,-46.3758,-4.02685
-616,-69,-46.3848,4.46765,0.00241342,0.00203467,-0.000599969,0.00285319,0.0015949,-0.632523,0.00165111,0.0245588,608,1093,-46.3848,-4.46768
-609,-69,-46.4023,4.87402,0.00194064,0.00112869,-0.000970431,0.00258659,0.000482737,-0.587288,0.00158813,0.0212528,615,1093,-46.4023,-4.87401
-602,-69,-46.3622,5.31738,0.00172189,1.33489e-05,-0.00137757,0.00248857,-0.000753328,-0.507853,0.00195905,0.0212138,622,1093,-46.3622,-5.31736
-595,-69,-46.2536,5.70886,0.00169056,-0.000204515,-0.00168962,0.00268019,-0.00119415,-0.52985,0.00229104,0.0448662,629,1093,-46.2536,-5.7089
-588,-69,-46.2658,6.13184,0,0,0,0,0,0,0,-1,636,1093,-46.2658,-6.13181
-581,-69,-48.5504,0.857178,0,0,0,0,0,0,0,-1,643,1093,-48.5504,-0.857228
-574,-69,-48.5385,0.978516,0.00189989,-0.000432575,-0.00106152,0.00231065,-0.000843338,-0.369214,0.0018855,0.0331285,650,1093,-48.5385,-0.978483
-567,-69,-48.3014,1.34082,0.00165134,-0.000161546,-0.000902791,0.00202422,-0.000534428,-0.39169,0.00155847,0.0370861,657,1093,-48.3014,-1.3408
-560,-69,-48.4681,1.4093,0.00114523,0.000194602,-0.000674966,0.00149545,-0.000155614,-0.478626,0.00105268,0.0416279,664,1093,-48.4681,-1.40935
-553,-69,-48.5621,1.21094,0.000420284,0.00044756,-0.000292249,0.000726489,0.000141355,-0.808714,0.000444759,0.041033,671,1093,-48.5621,-1.21091
-546,-69,-48.5353,0.794434,-6.48556e-05,0.000271996,0.000420718,0.000556749,-0.000349609,0.975793,0.000527821,0.0368704,678,1093,-48.5353,-0.794393
-539,-69,-48.4822,0.879395,0.000378964,-0.00126442,0.00169738,0.00144308,-0.00232853,0.559977,0.00219745,0.0402728,685,1093,-48.4822,-0.87938
-532,-69,-48.394,0.975952,0.000783374,-0.00267065,0.00367018,0.00311256,-0.00499984,0.565491,0.00472576,0.0421755,692,1093,-48.394,-0.97599
-525,-69,0,0,0,0,0,0,0,0,0,-1,699,1093,0,0
-518,-69,0,0,0,0,0,0,0,0,0,-1,706,1093,0,0
-511,-69,0,0,0,0,0,0,0,0,0,-1,713,1093,0,0
-504,-69,0,0,0,0,0,0,0,0,0,-1,720,1093,0,0
-497,-69,0,0,0,0,0,0,0,0,0,-1,727,1093,0,0
-490,-69,0,0,0,0,0,0,0,0,0,-1,734,1093,0,0
-483,-69,0,0,0,0,0,0,0,0,0,-1,741,1093,0,0
-476,-69,0,0,0,0,0,0,0,0,0,-1,748,1093,0,0
-469,-69,0,0,0,0,0,0,0,0,0,-1,755,1093,0,0
-462,-69,0,0,0,0,0,0,0,0,0,-1,762,1093,0,0
-455,-69,0,0,0,0,0,0,0,0,0,-1,769,1093,0,0
-448,-69,0,0,0,0,0,0,0,0,0,-1,776,1093,0,0
-441,-69,0,0,0,0,0,0,0,0,0,-1,783,1093,0,0
-434,-69,0,0,0,0,0,0,0,0,0,-1,790,1093,0,0
-427,-69,0,0,0,0,0,0,0,0,0,-1,797,1093,0,0
-420,-69,0,0,0,0,0,0,0,0,0,-1,804,1093,0,0
-413,-69,0,0,0,0,0,0,0,0,0,-1,811,1093,0,0
-406,-69,0,0,0,0,0,0,0,0,0,-1,818,1093,0,0
-399,-69,0,0,0,0,0,0,0,0,0,-1,825,1093,0,0
-392,-69,0,0,0,0,0,0,0,0,0,-1,832,1093,0,0
-385,-69,0,0,0,0,0,0,0,0,0,-1,839,1093,0,0
-378,-69,0,0,0,0,0,0,0,0,0,-1,846,1093,0,0
-371,-69,0,0,0,0,0,0,0,0,0,-1,853,1093,0,0
-364,-69,0,0,0,0,0,0,0,0,0,-1,860,1093,0,0
-357,-69,0,0,0,0,0,0,0,0,0,-1,867,1093,0,0
-350,-69,0,0,0,0,0,0,0,0,0,-1,874,1093,0,0
-343,-69,0,0,0,0,0,0,0,0,0,-1,881,1093,0,0
-336,-69,0,0,0,0,0,0,0,0,0,-1,888,1093,0,0
-329,-69,0,0,0,0,0,0,0,0,0,-1,895,1093,0,0
-322,-69,0,0,0,0,0,0,0,0,0,-1,902,1093,0,0
-315,-69,0,0,0,0,0,0,0,0,0,-1,909,1093,0,0
-308,-69,0,0,0,0,0,0,0,0,0,-1,916,1093,0,0
-301,-69,0,0,0,0,0,0,0,0,0,-1,923,1093,0,0
-294,-69,0,0,0,0,0,0,0,0,0,-1,930,1093,0,0
-287,-69,0,0,0,0,0,0,0,0,0,-1,937,1093,0,0
-280,-69,0,0,0,0,0,0,0,0,0,-1,944,1093,0,0
-273,-69,0,0,0,0,0,0,0,0,0,-1,951,1093,0,0
-266,-69,0,0,0,0,0,0,0,0,0,-1,958,1093,0,0
-259,-69,0,0,0,0,0,0,0,0,0,-1,965,1093,0,0
-252,-69,0,0,0,0,0,0,0,0,0,-1,972,1093,0,0
-245,-69,0,0,0,0,0,0,0,0,0,-1,979,1093,0,0
-238,-69,0,0,0,0,0,0,0,0,0,-1,986,1093,0,0
-231,-69,0,0,0,0,0,0,0,0,0,-1,993,1093,0,0
-224,-69,0,0,0,0,0,0,0,0,0,-1,1000,1093,0,0
-217,-69,0,0,0,0,0,0,0,0,0,-1,1007,1093,0,0
-210,-69,0,0,0,0,0,0,0,0,0,-1,1014,1093,0,0
-203,-69,0,0,0,0,0,0,0,0,0,-1,1021,1093,0,0
-196,-69,0,0,0,0,0,0,0,0,0,-1,1028,1093,0,0
-189,-69,0,0,0,0,0,0,0,0,0,-1,1035,1093,0,0
-182,-69,0,0,0,0,0,0,0,0,0,-1,1042,1093,0,0
-175,-69,0,0,0,0,0,0,0,0,0,-1,1049,1093,0,0
-168,-69,0,0,0,0,0,0,0,0,0,-1,1056,1093,0,0
-161,-69,0,0,0,0,0,0,0,0,0,-1,1063,1093,0,0
-154,-69,0,0,0,0,0,0,0,0,0,-1,1070,1093,0,0
-147,-69,0,0,0,0,0,0,0,0,0,-1,1077,1093,0,0
-140,-69,0,0,0,0,0,0,0,0,0,-1,1084,1093,0,0
-133,-69,0,0,0,0,0,0,0,0,0,-1,1091,1093,0,0
-126,-69,0,0,0,0,0,0,0,0,0,-1,1098,1093,0,0
-119,-69,0,0,0,0,0,0,0,0,0,-1,1105,1093,0,0
-112,-69,0,0,0,0,0,0,0,0,0,-1,1112,1093,0,0
-105,-69,0,0,0,0,0,0,0,0,0,-1,1119,1093,0,0
-98,-69,0,0,0,0,0,0,0,0,0,-1,1126,1093,0,0
-91,-69,0,0,0,0,0,0,0,0,0,-1,1133,1093,0,0
-84,-69,0,0,0,0,0,0,0,0,0,-1,1140,1093,0,0
-77,-69,0,0,0,0,0,0,0,0,0,-1,1147,1093,0,0
-70,-69,0,0,0,0,0,0,0,0,0,-1,1154,1093,0,0
-63,-69,0,0,0,0,0,0,0,0,0,-1,1161,1093,0,0
-56,-69,0,0,0,0,0,0,0,0,0,-1,1168,1093,0,0
-49,-69,0,0,0,0,0,0,0,0,0,-1,1175,1093,0,0
-42,-69,0,0,0,0,0,0,0,0,0,-1,1182,1093,0,0
-35,-69,0,0,0,0,0,0,0,0,0,-1,1189,1093,0,0
-28,-69,0,0,0,0,0,0,0,0,0,-1,1196,1093,0,0
-21,-69,0,0,0,0,0,0,0,0,0,-1,1203,1093,0,0
-14,-69,0,0,0,0,0,0,0,0,0,-1,1210,1093,0,0
-7,-69,0,0,0,0,0,0,0,0,0,-1,1217,1093,0,0
0,-69,0,0,0,0,0,0,0,0,0,-1,1224,1093,0,0
7,-69,0,0,0,0,0,0,0,0,0,-1,1231,1093,0,0
14,-69,0,0,0,0,0,0,0,0,0,-1,1238,1093,0,0
21,-69,0,0,0,0,0,0,0,0,0,-1,1245,1093,0,0
28,-69,0,0,0,0,0,0,0,0,0,-1,1252,1093,0,0
35,-69,0,0,0,0,0,0,0,0,0,-1,1259,1093,0,0
42,-69,0,0,0,0,0,0,0,0,0,-1,1266,1093,0,0
49,-69,0,0,0,0,0,0,0,0,0,-1,1273,1093,0,0
56,-69,0,0,0,0,0,0,0,0,0,-1,1280,1093,0,0
63,-69,0,0,0,0,0,0,0,0,0,-1,1287,1093,0,0
70,-69,0,0,0,0,0,0,0,0,0,-1,1294,1093,0,0
77,-69,0,0,0,0,0,0,0,0,0,-1,1301,1093,0,0
84,-69,0,0,0,0,0,0,0,0,0,-1,1308,1093,0,0
91,-69,0,0,0,0,0,0,0,0,0,-1,1315,1093,0,0
98,-69,0,0,0,0,0,0,0,0,0,-1,1322,1093,0,0
105,-69,0,0,0,0,0,0,0,0,0,-1,1329,1093,0,0
112,-69,0,0,0,0,0,0,0,0,0,-1,1336,1093,0,0
119,-69,0,0,0,0,0,0,0,0,0,-1,1343,1093,0,0
126,-69,0,0,0,0,0,0,0,0,0,-1,1350,1093,0,0
133,-69,0,0,0,0,0,0,0,0,0,-1,1357,1093,0,0
140,-69,0,0,0,0,0,0,0,0,0,-1,1364,1093,0,0
147,-69,0,0,0,0,0,0,0,0,0,-1,1371,1093,0,0
154,-69,0,0,0,0,0,0,0,0,0,-1,1378,1093,0,0
161,-69,0,0,0,0,0,0,0,0,0,-1,1385,1093,0,0
168,-69,0,0,0,0,0,0,0,0,0,-1,1392,1093,0,0
175,-69,0,0,0,0,0,0,0,0,0,-1,1399,1093,0,0
182,-69,0,0,0,0,0,0,0,0,0,-1,1406,1093,0,0
189,-69,0,0,0,0,0,0,0,0,0,-1,1413,1093,0,0
196,-69,0,0,0,0,0,0,0,0,0,-1,1420,1093,0,0
203,-69,0,0,0,0,0,0,0,0,0,-1,1427,1093,0,0
210,-69,0,0,0,0,0,0,0,0,0,-1,1434,1093,0,0
217,-69,0,0,0,0,0,0,0,0,0,-1,1441,1093,0,0
224,-69,0,0,0,0,0,0,0,0,0,-1,1448,1093,0,0
231,-69,0,0,0,0,0,0,0,0,0,-1,1455,1093,0,0
238,-69,0,0,0,0,0,0,0,0,0,-1,1462,1093,0,0
245,-69,0,0,0,0,0,0,0,0,0,-1,1469,1093,0,0
252,-69,0,0,0,0,0,0,0,0,0,-1,1476,1093,0,0
259,-69,0,0,0,0,0,0,0,0,0,-1,1483,1093,0,0
266,-69,0,0,0,0,0,0,0,0,0,-1,1490,1093,0,0
273,-69,0,0,0,0,0,0,0,0,0,-1,1497,1093,0,0
280,-69,0,0,0,0,0,0,0,0,0,-1,1504,1093,0,0
287,-69,0,0,0,0,0,0,0,0,0,-1,1511,1093,0,0
294,-69,0,0,0,0,0,0,0,0,0,-1,1518,1093,0,0
301,-69,0,0,0,0,0,0,0,0,0,-1,1525,1093,0,0
308,-69,0,0,0,0,0,0,0,0,0,-1,1532,1093,0,0
315,-69,0,0,0,0,0,0,0,0,0,-1,1539,1093,0,0
322,-69,0,0,0,0,0,0,0,0,0,-1,1546,1093,0,0
329,-69,0,0,0,0,0,0,0,0,0,-1,1553,1093,0,0
336,-69,0,0,0,0,0,0,0,0,0,-1,1560,1093,0,0
343,-69,0,0,0,0,0,0,0,0,0,-1,1567,1093,0,0
350,-69,0,0,0,0,0,0,0,0,0,-1,1574,1093,0,0
357,-69,0,0,0,0,0,0,0,0,0,-1,1581,1093,0,0
364,-69,0,0,0,0,0,0,0,0,0,-1,1588,1093,0,0
371,-69,0,0,0,0,0,0,0,0,0,-1,1595,1093,0,0
378,-69,0,0,0,0,0,0,0,0,0,-1,1602,1093,0,0
385,-69,0,0,0,0,0,0,0,0,0,-1,1609,1093,0,0
392,-69,0,0,0,0,0,0,0,0,0,-1,1616,1093,0,0
399,-69,0,0,0,0,0,0,0,0,0,-1,1623,1093,0,0
406,-69,0,0,0,0,0,0,0,0,0,-1,1630,1093,0,0
413,-69,0,0,0,0,0,0,0,0,0,-1,1637,1093,0,0
420,-69,0,0,0,0,0,0,0,0,0,-1,1644,1093,0,0
427,-69,0,0,0,0,0,0,0,0,0,-1,1651,1093,0,0
434,-69,0,0,0,0,0,0,0,0,0,-1,1658,1093,0,0
441,-69,0,0,0,0,0,0,0,0,0,-1,1665,1093,0,0
448,-69,0,0,0,0,0,0,0,0,0,-1,1672,1093,0,0
455,-69,0,0,0,0,0,0,0,0,0,-1,1679,1093,0,0
462,-69,0,0,0,0,0,0,0,0,0,-1,1686,1093,0,0
469,-69,0,0,0,0,0,0,0,0,0,-1,1693,1093,0,0
476,-69,0,0,0,0,0,0,0,0,0,-1,1700,1093,0,0
483,-69,0,0,0,0,0,0,0,0,0,-1,1707,1093,0,0
490,-69,0,0,0,0,0,0,0,0,0,-1,1714,1093,0,0
497,-69,0,0,0,0,0,0,0,0,0,-1,1721,1093,0,0
504,-69,0,0,0,0,0,0,0,0,0,-1,1728,1093,0,0
511,-69,0,0,0,0,0,0,0,0,0,-1,1735,1093,0,0
518,-69,0,0,0,0,0,0,0,0,0,-1,1742,1093,0,0
525,-69,0,0,0,0,0,0,0,0,0,-1,1749,1093,0,0
532,-69,0,0,0,0,0,0,0,0,0,-1,1756,1093,0,0
539,-69,0,0,0,0,0,0,0,0,0,-1,1763,1093,0,0
546,-69,0,0,0,0,0,0,0,0,0,-1,1770,1093,0,0
553,-69,0,0,0,0,0,0,0,0,0,-1,1777,1093,0,0
560,-69,0,0,0,0,0,0,0,0,0,-1,1784,1093,0,0
567,-69,0,0,0,0,0,0,0,0,0,-1,1791,1093,0,0
574,-69,0,0,0,0,0,0,0,0,0,-1,1798,1093,0,0
581,-69,0,0,0,0,0,0,0,0,0,-1,1805,1093,0,0
588,-69,0,0,0,0,0,0,0,0,0,-1,1812,1093,0,0
595,-69,0,0,0,0,0,0,0,0,0,-1,1819,1093,0,0
602,-69,0,0,0,0,0,0,0,0,0,-1,1826,1093,0,0
609,-69,0,0,0,0,0,0,0,0,0,-1,1833,1093,0,0
616,-69,0,0,0,0,0,0,0,0,0,-1,1840,1093,0,0
623,-69,0,0,0,0,0,0,0,0,0,-1,1847,1093,0,0
630,-69,0,0,0,0,0,0,0,0,0,-1,1854,1093,0,0
637,-69,0,0,0,0,0,0,0,0,0,-1,1861,1093,0,0
644,-69,0,0,0,0,0,0,0,0,0,-1,1868,1093,0,0
651,-69,64.1205,2.7356,-0.00255095,0.0011931,0.000952553,0.00142151,-0.00277936,1.33545,0.00246724,0.0419293,1875,1093,64.1205,-2.73562
658,-69,64.0295,2.76892,-0.00167464,0.000808696,0.000649726,0.000968414,-0.00183436,1.32975,0.00164372,0.0445837,1882,1093,64.0295,-2.76891
665,-69,63.9849,2.72131,-0.000940394,0.000492415,0.000401196,0.000597104,-0.00104508,1.31555,0.000959804,0.0427127,1889,1093,63.9848,-2.72125
672,-69,63.8615,2.73035,-0.00026476,0.000364912,0.000194166,0.000419971,-0.000319819,1.29448,0.000428421,0.0377495,1896,1093,63.8614,-2.73034
679,-69,63.9132,2.72229,0.000253798,0.000333251,-3.01494e-05,0.000343396,0.000243653,-1.2462,0.000203981,0.0386387,1903,1093,63.9132,-2.72229
686,-69,64.1782,2.63184,0.000396353,0.000118872,8.95635e-06,0.000396642,0.000118584,0.0322327,0.00023509,0.0384361,1910,1093,64.1782,-2.63183
693,-69,64.1394,2.48352,0.000452989,-0.00012934,0.000172268,0.000500134,-0.000176484,0.26713,0.000405269,0.0344489,1917,1093,64.1395,-2.48351
700,-69,64.1528,2.46021,0.000518585,-0.00023597,0.000352633,0.000657726,-0.000375111,0.375824,0.000603704,0.0295438,1924,1093,64.1528,-2.46018
707,-69,64.1288,2.48474,0.000324654,-0.000213991,0.0006772,0.000784122,-0.000673458,0.596137,0.000842342,0.022407,1931,1093,64.1288,-2.48468
714,-69,64.1324,2.42603,-7.94307e-05,-4.32295e-05,0.0010208,0.000959626,-0.00108229,0.794263,0.00117961,0.0318581,1938,1093,64.1325,-2.42599
721,-69,64.1403,2.35718,0,0,0,0,0,0,0,-1,1945,1093,64.1403,-2.35717
728,-69,61.3885,7.97192,0,0,0,0,0,0,0,-1,1952,1093,61.3885,-7.97188
735,-69,61.6796,7.49829,-0.00213975,0.00166694,0.00195796,0.00249422,-0.00296703,1.17103,0.00315699,0.0423366,1959,1093,61.6795,-7.49835
742,-69,61.5879,7.17664,-0.00306764,0.00251177,0.00216941,0.00325601,-0.00381188,1.24032,0.00408486,0.0328523,1966,1093,61.5879,-7.17661
749,-69,61.6166,6.70154,0,0,0,0,0,0,0,-1,1973,1093,61.6165,-6.70148
756,-69,61.5138,6.35962,-0.00481887,0.00549087,0.00237086,0.00600995,-0.00533795,1.35526,0.00655554,0.0172434,1980,1093,61.5138,-6.35965
763,-69,61.479,5.96716,-0.00568344,0.0085446,0.00160606,0.00872364,-0.00586247,1.45978,0.00847513,0.0190924,1987,1093,61.4791,-5.96711
770,-69,61.4121,5.59753,-0.00656618,0.0126222,0.000283504,0.0126264,-0.00657037,1.55603,0.0112656,0.0208111,1994,1093,61.412,-5.59753
777,-69,61.2932,5.23242,-0.00702551,0.0181125,-0.00181145,0.0182423,-0.00715537,-1.49923,0.0151219,0.0252342,2001,1093,61.2932,-5.23242
784,-69,61.3032,4.72253,-0.00702489,0.0246937,-0.00464121,0.0253589,-0.00769006,-1.42845,0.0199691,0.0342522,2008,1093,61.3031,-4.72255
791,-69,61.5352,4.1875,-0.0063297,0.0330971,-0.00864018,0.0349074,-0.00814002,-1.36426,0.0264065,0.045166,2015,1093,61.5351,-4.18749
798,-69,61.7832,3.65186,-0.00422859,0.0441539,-0.0143462,0.0480879,-0.00816259,-1.30316,0.0350973,0.0463691,2022,1093,61.7832,-3.65185
805,-69,62.0337,3.08276,0,0,0,0,0,0,0,-1,2029,1093,62.0336,-3.08279
812,-69,59.2039,3.83728,0,0,0,0,0,0,0,-1,2036,1093,59.204,-3.83733
-700,-76,0,0,0,0,0,0,0,0,0,-1,524,1100,0,0
-693,-76,-45.1889,-0.30603,0.0848436,-0.0534939,0.0178864,0.0871188,-0.0557691,0.126524,0.0831556,0.0448206,531,1100,-45.1889,0.305995
-686,-76,-45.3893,0.195801,0.0688535,-0.0412974,0.0183672,0.0718355,-0.0442794,0.160947,0.0676653,0.0492524,538,1100,-45.3893,-0.195759
-679,-76,-45.6026,0.966064,0.0552167,-0.0306074,0.0171946,0.0585334,-0.0339241,0.190552,0.054007,0.0469976,545,1100,-45.6026,-0.966076
-672,-76,-45.8453,1.71729,0.0435038,-0.0214527,0.0152045,0.0468866,-0.0248355,0.21892,0.0420561,0.0441701,552,1100,-45.8453,-1.7173
-665,-76,-45.8184,2.36255,0.0333229,-0.0138526,0.0128213,0.0365823,-0.0171119,0.248942,0.0316724,0.0463953,559,1100,-45.8184,-2.36253
-658,-76,-45.771,2.50781,0.0246575,-0.00781041,0.0102875,0.0276427,-0.0107956,0.282417,0.0228918,0.0462818,566,1100,-45.771,-2.50787
-651,-76,-45.6019,2.34546,0.017629,-0.00340758,0.00779177,0.0202007,-0.00597921,0.318788,0.0158409,0.0315899,573,1100,-45.6019,-2.34541
-644,-76,-45.6753,2.71851,0.0121251,-0.000627815,0.00541,0.0141109,-0.00261361,0.351792,0.0103886,0.0117512,580,1100,-45.6753,-2.71845
-637,-76,-45.7966,3.15125,0.00660406,0.00202643,0.00350623,0.00850241,0.000128082,0.496233,0.00562607,0.01468,587,1100,-45.7965,-3.15126
-630,-76,-45.8429,3.56104,0.00311663,0.00234182,0.00113316,0.00392678,0.00153167,0.620687,0.00228532,0.0161691,594,1100,-45.8429,-3.56109
-623,-76,-45.8708,4.00439,0.00199629,0.00214299,-0.000301468,0.0023799,0.00175938,-0.90473,0.00142551,0.0216802,601,1100,-45.8708,-4.00437
-616,-76,-45.9424,4.4967,0.00185756,0.00185439,-0.000647997,0.00250398,0.00120798,-0.784176,0.00144597,0.0215238,608,1100,-45.9424,-4.49669
-609,-76,-45.9516,4.93848,0.00167872,0.00124468,-0.000727054,0.00222046,0.00070295,-0.640361,0.00131042,0.0207308,615,1100,-45.9516,-4.93849
-602,-76,-45.8821,5.37939,0.00163391,0.000488095,-0.000997271,0.00221112,-8.9115e-05,-0.524678,0.00150467,0.020112,622,1100,-45.8821,-5.3794
-595,-76,-45.8705,5.77515,0.00170298,0.000399004,-0.0013101,0.00251437,-0.000412377,-0.55451,0.00182926,0.0400932,629,1100,-45.8705,-5.77517
-588,-76,-45.942,6.17822,0,0,0,0,0,0,0,-1,636,1100,-45.9419,-6.1782
-581,-76,-48.5238,0.757324,0,0,0,0,0,0,0,-1,643,1100,-48.5238,-0.757289
-574,-76,-48.513,0.791748,0.00193544,0.000340083,-0.00065888,0.00217237,0.000103153,-0.345197,0.00141511,0.0358393,650,1100,-48.513,-0.791779
-567,-76,-48.4625,1.00659,0.00171804,0.000600023,-0.000540717,0.00193676,0.0003813,-0.384383,0.00118471,0.0403682,657,1100,-48.4625,-1.00657
-560,-76,-48.6309,1.34778,0.0012527,0.000868394,-0.000378757,0.00148526,0.000635835,-0.550653,0.000860465,0.042055,664,1100,-48.6309,-1.34779
-553,-76,-48.6964,1.44617,0.000490855,0.000920359,-0.000102333,0.000943495,0.00046772,-1.34845,0.000544733,0.0449149,671,1100,-48.6964,-1.44611
-546,-76,-48.6571,1.21497,-8.6388e-06,0.000387216,0.000515496,0.000741476,-0.000362899,0.968697,0.000649979,0.0436438,678,1100,-48.6571,-1.21495
-539,-76,-48.5601,0.834106,0.000616955,-0.00175523,0.00179082,0.00157885,-0.00271712,0.492905,0.00250913,0.0418957,685,1100,-48.5601,-0.834144
-532,-76,-48.4778,1.0498,0.00115051,-0.00386493,0.00382037,0.00321267,-0.0059271,0.494965,0.00535386,0.041512,692,1100,-48.4778,-1.04983
-525,-76,0,0,0,0,0,0,0,0,0,-1,699,1100,0,0
-518,-76,0,0,0,0,0,0,0,0,0,-1,706,1100,0,0
-511,-76,0,0,0,0,0,0,0,0,0,-1,713,1100,0,0
-504,-76,0,0,0,0,0,0,0,0,0,-1,720,1100,0,0
-497,-76,0,0,0,0,0,0,0,0,0,-1,727,1100,0,0
-490,-76,0,0,0,0,0,0,0,0,0,-1,734,1100,0,0
-483,-76,0,0,0,0,0,0,0,0,0,-1,741,1100,0,0
-476,-76,0,0,0,0,0,0,0,0,0,-1,748,1100,0,0
-469,-76,0,0,0,0,0,0,0,0,0,-1,755,1100,0,0
-462,-76,0,0,0,0,0,0,0,0,0,-1,762,1100,0,0
-455,-76,0,0,0,0,0,0,0,0,0,-1,769,1100,0,0
-448,-76,0,0,0,0,0,0,0,0,0,-1,776,1100,0,0
-441,-76,0,0,0,0,0,0,0,0,0,-1,783,1100,0,0
-434,-76,0,0,0,0,0,0,0,0,0,-1,790,1100,0,0
-427,-76,0,0,0,0,0,0,0,0,0,-1,797,1100,0,0
-420,-76,0,0,0,0,0,0,0,0,0,-1,804,1100,0,0
-413,-76,0,0,0,0,0,0,0,0,0,-1,811,1100,0,0
-406,-76,0,0,0,0,0,0,0,0,0,-1,818,1100,0,0
-399,-76,0,0,0,0,0,0,0,0,0,-1,825,1100,0,0
-392,-76,0,0,0,0,0,0,0,0,0,-1,832,1100,0,0
-385,-76,0,0,0,0,0,0,0,0,0,-1,839,1100,0,0
-378,-76,0,0,0,0,0,0,0,0,0,-1,846,1100,0,0
-371,-76,0,0,0,0,0,0,0,0,0,-1,853,1100,0,0
-364,-76,0,0,0,0,0,0,0,0,0,-1,860,1100,0,0
-357,-76,0,0,0,0,0,0,0,0,0,-1,867,1100,0,0
-350,-76,0,0,0,0,0,0,0,0,0,-1,874,1100,0,0
-343,-76,0,0,0,0,0,0,0,0,0,-1,881,1100,0,0
-336,-76,0,0,0,0,0,0,0,0,0,-1,888,1100,0,0
-329,-76,0,0,0,0,0,0,0,0,0,-1,895,1100,0,0
-322,-76,0,0,0,0,0,0,0,0,0,-1,902,1100,0,0
-315,-76,0,0,0,0,0,0,0,0,0,-1,909,1100,0,0
-308,-76,0,0,0,0,0,0,0,0,0,-1,916,1100,0,0
-301,-76,0,0,0,0,0,0,0,0,0,-1,923,1100,0,0
-294,-76,0,0,0,0,0,0,0,0,0,-1,930,1100,0,0
-287,-76,0,0,0,0,0,0,0,0,0,-1,937,1100,0,0
-280,-76,0,0,0,0,0,0,0,0,0,-1,944,1100,0,0
-273,-76,0,0,0,0,0,0,0,0,0,-1,951,1100,0,0
-266,-76,0,0,0,0,0,0,0,0,0,-1,958,1100,0,0
-259,-76,0,0,0,0,0,0,0,0,0,-1,965,1100,0,0
-252,-76,0,0,0,0,0,0,0,0,0,-1,972,1100,0,0
-245,-76,0,0,0,0,0,0,0,0,0,-1,979,1100,0,0
-238,-76,0,0,0,0,0,0,0,0,0,-1,986,1100,0,0
-231,-76,0,0,0,0,0,0,0,0,0,-1,993,1100,0,0
-224,-76,0,0,0,0,0,0,0,0,0,-1,1000,1100,0,0
-217,-76,0,0,0,0,0,0,0,0,0,-1,1007,1100,0,0
-210,-76,0,0,0,0,0,0,0,0,0,-1,1014,1100,0,0
-203,-76,0,0,0,0,0,0,0,0,0,-1,1021,1100,0,0
-196,-76,0,0,0,0,0,0,0,0,0,-1,1028,1100,0,0
-189,-76,0,0,0,0,0,0,0,0,0,-1,1035,1100,0,0
-182,-76,0,0,0,0,0,0,0,0,0,-1,1042,1100,0,0
-175,-76,0,0,0,0,0,0,0,0,0,-1,1049,1100,0,0
-168,-76,0,0,0,0,0,0,0,0,0,-1,1056,1100,0,0
-161,-76,0,0,0,0,0,0,0,0,0,-1,1063,1100,0,0
-154,-76,0,0,0,0,0,0,0,0,0,-1,1070,1100,0,0
-147,-76,0,0,0,0,0,0,0,0,0,-1,1077,1100,0,0
-140,-76,0,0,0,0,0,0,0,0,0,-1,1084,1100,0,0
-133,-76,0,0,0,0,0,0,0,0,0,-1,1091,1100,0,0
-126,-76,0,0,0,0,0,0,0,0,0,-1,1098,1100,0,0
-119,-76,0,0,0,0,0,0,0,0,0,-1,1105,1100,0,0
-112,-76,0,0,0,0,0,0,0,0,0,-1,1112,1100,0,0
-105,-76,0,0,0,0,0,0,0,0,0,-1,1119,1100,0,0
-98,-76,0,0,0,0,0,0,0,0,0,-1,1126,1100,0,0
-91,-76,0,0,0,0,0,0,0,0,0,-1,1133,1100,0,0
-84,-76,0,0,0,0,0,0,0,0,0,-1,1140,1100,0,0
-77,-76,0,0,0,0,0,0,0,0,0,-1,1147,1100,0,0
-70,-76,0,0,0,0,0,0,0,0,0,-1,1154,1100,0,0
-63,-76,0,0,0,0,0,0,0,0,0,-1,1161,1100,0,0
-56,-76,0,0,0,0,0,0,0,0,0,-1,1168,1100,0,0
-49,-76,0,0,0,0,0,0,0,0,0,-1,1175,1100,0,0
-42,-76,0,0,0,0,0,0,0,0,0,-1,1182,1100,0,0
-35,-76,0,0,0,0,0,0,0,0,0,-1,1189,1100,0,0
-28,-76,0,0,0,0,0,0,0,0,0,-1,1196,1100,0,0
-21,-76,0,0,0,0,0,0,0,0,0,-1,1203,1100,0,0
-14,-76,0,0,0,0,0,0,0,0,0,-1,1210,1100,0,0
-7,-76,0,0,0,0,0,0,0,0,0,-1,1217,1100,0,0
0,-76,0,0,0,0,0,0,0,0,0,-1,1224,1100,0,0
7,-76,0,0,0,0,0,0,0,0,0,-1,1231,1100,0,0
14,-76,0,0,0,0,0,0,0,0,0,-1,1238,1100,0,0
21,-76,0,0,0,0,0,0,0,0,0,-1,1245,1100,0,0
28,-76,0,0,0,0,0,0,0,0,0,-1,1252,1100,0,0
35,-76,0,0,0,0,0,0,0,0,0,-1,1259,1100,0,0
42,-76,0,0,0,0,0,0,0,0,0,-1,1266,1100,0,0
49,-76,0,0,0,0,0,0,0,0,0,-1,1273,1100,0,0
56,-76,0,0,0,0,0,0,0,0,0,-1,1280,1100,0,0
63,-76,0,0,0,0,0,0,0,0,0,-1,1287,1100,0,0
70,-76,0,0,0,0,0,0,0,0,0,-1,1294,1100,0,0
77,-76,0,0,0,0,0,0,0,0,0,-1,1301,1100,0,0
84,-76,0,0,0,0,0,0,0,0,0,-1,1308,1100,0,0
91,-76,0,0,0,0,0,0,0,0,0,-1,1315,1100,0,0
98,-76,0,0,0,0,0,0,0,0,0,-1,1322,1100,0,0
105,-76,0,0,0,0,0,0,0,0,0,-1,1329,1100,0,0
112,-76,0,0,0,0,0,0,0,0,0,-1,1336,1100,0,0
119,-76,0,0,0,0,0,0,0,0,0,-1,1343,1100,0,0
126,-76,0,0,0,0,0,0,0,0,0,-1,1350,1100,0,0
133,-76,0,0,0,0,0,0,0,0,0,-1,1357,1100,0,0
140,-76,0,0,0,0,0,0,0,0,0,-1,1364,1100,0,0
147,-76,0,0,0,0,0,0,0,0,0,-1,1371,1100,0,0
154,-76,0,0,0,0,0,0,0,0,0,-1,1378,1100,0,0
161,-76,0,0,0,0,0,0,0,0,0,-1,1385,1100,0,0
168,-76,0,0,0,0,0,0,0,0,0,-1,1392,1100,0,0
175,-76,0,0,0,0,0,0,0,0,0,-1,1399,1100,0,0
182,-76,0,0,0,0,0,0,0,0,0,-1,1406,1100,0,0
189,-76,0,0,0,0,0,0,0,0,0,-1,1413,1100,0,0
196,-76,0,0,0,0,0,0,0,0,0,-1,1420,1100,0,0
203,-76,0,0,0,0,0,0,0,0,0,-1,1427,1100,0,0
210,-76,0,0,0,0,0,0,0,0,0,-1,1434,1100,0,0
217,-76,0,0,0,0,0,0,0,0,0,-1,1441,1100,0,0
224,-76,0,0,0,0,0,0,0,0,0,-1,1448,1100,0,0
231,-76,0,0,0,0,0,0,0,0,0,-1,1455,1100,0,0
238,-76,0,0,0,0,0,0,0,0,0,-1,1462,1100,0,0
245,-76,0,0,0,0,0,0,0,0,0,-1,1469,1100,0,0
252,-76,0,0,0,0,0,0,0,0,0,-1,1476,1100,0,0
259,-76,0,0,0,0,0,0,0,0,0,-1,1483,1100,0,0
266,-76,0,0,0,0,0,0,0,0,0,-1,1490,1100,0,0
273,-76,0,0,0,0,0,0,0,0,0,-1,1497,1100,0,0
280,-76,0,0,0,0,0,0,0,0,0,-1,1504,1100,0,0
287,-76,0,0,0,0,0,0,0,0,0,-1,1511,1100,0,0
294,-76,0,0,0,0,0,0,0,0,0,-1,1518,1100,0,0
301,-76,0,0,0,0,0,0,0,0,0,-1,1525,1100,0,0
308,-76,0,0,0,0,0,0,0,0,0,-1,1532,1100,0,0
315,-76,0,0,0,0,0,0,0,0,0,-1,1539,1100,0,0
322,-76,0,0,0,0,0,0,0,0,0,-1,1546,1100,0,0
329,-76,0,0,0,0,0,0,0,0,0,-1,1553,1100,0,0
336,-76,0,0,0,0,0,0,0,0,0,-1,1560,1100,0,0
343,-76,0,0,0,0,0,0,0,0,0,-1,1567,1100,0,0
350,-76,0,0,0,0,0,0,0,0,0,-1,1574,1100,0,0
357,-76,0,0,0,0,0,0,0,0,0,-1,1581,1100,0,0
364,-76,0,0,0,0,0,0,0,0,0,-1,1588,1100,0,0
371,-76,0,0,0,0,0,0,0,0,0,-1,1595,1100,0,0
378,-76,0,0,0,0,0,0,0,0,0,-1,1602,1100,0,0
385,-76,0,0,0,0,0,0,0,0,0,-1,1609,1100,0,0
392,-76,0,0,0,0,0,0,0,0,0,-1,1616,1100,0,0
399,-76,0,0,0,0,0,0,0,0,0,-1,1623,1100,0,0
406,-76,0,0,0,0,0,0,0,0,0,-1,1630,1100,0,0
413,-76,0,0,0,0,0,0,0,0,0,-1,1637,1100,0,0
420,-76,0,0,0,0,0,0,0,0,0,-1,1644,1100,0,0
427,-76,0,0,0,0,0,0,0,0,0,-1,1651,1100,0,0
434,-76,0,0,0,0,0,0,0,0,0,-1,1658,1100,0,0
441,-76,0,0,0,0,0,0,0,0,0,-1,1665,1100,0,0
448,-76,0,0,0,0,0,0,0,0,0,-1,1672,1100,0,0
455,-76,0,0,0,0,0,0,0,0,0,-1,1679,1100,0,0
462,-76,0,0,0,0,0,0,0,0,0,-1,1686,1100,0,0
469,-76,0,0,0,0,0,0,0,0,0,-1,1693,1100,0,0
476,-76,0,0,0,0,0,0,0,0,0,-1,1700,1100,0,0
483,-76,0,0,0,0,0,0,0,0,0,-1,1707,1100,0,0
490,-76,0,0,0,0,0,0,0,0,0,-1,1714,1100,0,0
497,-76,0,0,0,0,0,0,0,0,0,-1,1721,1100,0,0
504,-76,0,0,0,0,0,0,0,0,0,-1,1728,1100,0,0
511,-76,0,0,0,0,0,0,0,0,0,-1,1735,1100,0,0
518,-76,0,0,0,0,0,0,0,0,0,-1,1742,1100,0,0
525,-76,0,0,0,0,0,0,0,0,0,-1,1749,1100,0,0
532,-76,0,0,0,0,0,0,0,0,0,-1,1756,1100,0,0
539,-76,0,0,0,0,0,0,0,0,0,-1,1763,1100,0,0
546,-76,0,0,0,0,0,0,0,0,0,-1,1770,1100,0,0
553,-76,0,0,0,0,0,0,0,0,0,-1,1777,1100,0,0
560,-76,0,0,0,0,0,0,0,0,0,-1,1784,1100,0,0
567,-76,0,0,0,0,0,0,0,0,0,-1,1791,1100,0,0
574,-76,0,0,0,0,0,0,0,0,0,-1,1798,1100,0,0
581,-76,0,0,0,0,0,0,0,0,0,-1,1805,1100,0,0
588,-76,0,0,0,0,0,0,0,0,0,-1,1812,1100,0,0
595,-76,0,0,0,0,0,0,0,0,0,-1,1819,1100,0,0
602,-76,0,0,0,0,0,0,0,0,0,-1,1826,1100,0,0
609,-76,0,0,0,0,0,0,0,0,0,-1,1833,1100,0,0
616,-76,0,0,0,0,0,0,0,0,0,-1,1840,1100,0,0
623,-76,0,0,0,0,0,0,0,0,0,-1,1847,1100,0,0
630,-76,0,0,0,0,0,0,0,0,0,-1,1854,1100,0,0
637,-76,0,0,0,0,0,0,0,0,0,-1,1861,1100,0,0
644,-76,0,0,0,0,0,0,0,0,0,-1,1868,1100,0,0
651,-76,64.2367,2.60046,-0.00273004,0.00205937,0.00100507,0.00226173,-0.0029324,1.37211,0.00300716,0.0414588,1875,1100,64.2366,-2.60044
658,-76,64.1982,2.5448,-0.00178653,0.00142168,0.000703034,0.00156898,-0.00193383,1.36427,0.002026,0.0435422,1882,1100,64.1982,-2.54477
665,-76,64.0525,2.40967,-0.000979363,0.000910422,0.000422232,0.00100047,-0.00106941,1.36068,0.00119527,0.0412664,1889,1100,64.0525,-2.40966
672,-76,63.8501,2.49963,-0.000234171,0.000588079,0.000150018,0.000614594,-0.000260687,1.39585,0.00051893,0.0377972,1896,1100,63.85,-2.49964
679,-76,63.822,2.59338,0.000325304,0.000377695,-0.000153423,0.000507143,0.000195856,-0.869953,0.000295316,0.0371976,1903,1100,63.8221,-2.59339
686,-76,64.1029,2.64832,0.000588349,6.20587e-05,-0.00016839,0.000637615,1.27931e-05,-0.284626,0.000420877,0.036132,1910,1100,64.103,-2.64833
693,-76,64.2018,2.52173,0.000741996,-0.000228348,-4.86304e-05,0.000744427,-0.000230779,-0.0499498,0.000588493,0.0346801,1917,1100,64.2018,-2.52167
700,-76,64.1471,2.42566,0.00086356,-0.000366212,9.10488e-05,0.000870265,-0.000372916,0.073503,0.000736648,0.0319652,1924,1100,64.1472,-2.4256
707,-76,64.1155,2.49036,0.000747322,-0.000361767,0.00039501,0.000873624,-0.000488069,0.309471,0.000796609,0.0238414,1931,1100,64.1155,-2.49034
714,-76,64.1517,2.37659,0,0,0,0,0,0,0,-1,1938,1100,64.1518,-2.37657
721,-76,45.1713,3.04919,0,0,0,0,0,0,0,-1,1945,1100,45.1713,-3.04915
728,-76,60.5076,8.00488,0,0,0,0,0,0,0,-1,1952,1100,60.5076,-8.00486
735,-76,60.8938,7.66553,-0.00149012,0.00139141,0.00166733,0.00215423,-0.00225294,1.14171,0.00254469,0.0486559,1959,1100,60.8938,-7.66555
742,-76,61.0837,7.2439,-0.00237739,0.00224306,0.00190222,0.00292543,-0.00305975,1.22638,0.00345583,0.0333388,1966,1100,61.0837,-7.24385
749,-76,60.988,6.76306,-0.00324528,0.00330836,0.002239,0.00400025,-0.00393717,1.27109,0.00458272,0.0324957,1973,1100,60.988,-6.76306
756,-76,61.0646,6.38501,-0.0040748,0.00543555,0.00205519,0.00586067,-0.00449993,1.36682,0.00599886,0.0174992,1980,1100,61.0646,-6.38496
763,-76,61.0144,5.93628,-0.00492612,0.00882516,0.00116843,0.00892373,-0.00502469,1.48663,0.00815733,0.0181939,1987,1100,61.0144,-5.93634
770,-76,60.9143,5.52881,-0.00573515,0.0135032,-0.000391735,0.0135112,-0.00574312,-1.55045,0.0114141,0.0198545,1994,1100,60.9142,-5.5288
777,-76,60.7952,5.23767,-0.00604215,0.0197663,-0.00279586,0.0200657,-0.00634156,-1.46411,0.0159178,0.0224906,2001,1100,60.7953,-5.23766
784,-76,60.8394,4.69214,-0.00578497,0.0274696,-0.00605883,0.0285391,-0.00685446,-1.39608,0.0216752,0.0329567,2008,1100,60.8394,-4.69216
791,-76,61.1836,4.08643,-0.00457627,0.0375492,-0.0106615,0.0400938,-0.00712089,-1.33651,0.0293918,0.0426227,2015,1100,61.1837,-4.08642
798,-76,61.4939,3.51282,-0.00171555,0.0509714,-0.0171901,0.0560839,-0.00682807,-1.28172,0.0398607,0.0444862,2022,1100,61.494,-3.51278
805,-76,61.7329,2.95239,0,0,0,0,0,0,0,-1,2029,1100,61.733,-2.95236
812,-76,61.9417,2.33899,0,0,0,0,0,0,0,-1,2036,1100,61.9418,-2.339
-700,-83,0,0,0,0,0,0,0,0,0,-1,524,1107,0,0
-693,-83,-44.9059,0.0668945,0,0,0,0,0,0,0,-1,531,1107,-44.9059,-0.0668791
-686,-83,-44.6786,0.85022,0,0,0,0,0,0,0,-1,538,1107,-44.6786,-0.850186
-679,-83,-44.8375,1.63086,0,0,0,0,0,0,0,-1,545,1107,-44.8375,-1.63086
-672,-83,-44.977,2.23792,0,0,0,0,0,0,0,-1,552,1107,-44.977,-2.23795
-665,-83,-44.9361,1.39368,0,0,0,0,0,0,0,-1,559,1107,-44.9361,-1.39364
-658,-83,-45.0497,1.74817,0.0205561,-0.0107943,0.00827241,0.0226051,-0.0128432,0.242796,0.0207231,0.0453842,566,1107,-45.0498,-1.74812
-651,-83,-45.1118,2.12329,0.0142536,-0.00567785,0.0061379,0.0159922,-0.00741637,0.276014,0.0138139,0.0341506,573,1107,-45.1118,-2.12333
-644,-83,-45.1481,2.61621,0.00947778,-0.00223406,0.00411795,0.0107807,-0.003537,0.306439,0.00861177,0.0178783,580,1107,-45.1481,-2.61622
-637,-83,-45.2589,3.08289,0.00467448,0.000973648,0.00258415,0.00600241,-0.000354277,0.474685,0.00412477,0.0124945,587,1107,-45.2589,-3.08293
-630,-83,-45.3022,3.5686,0.00190741,0.00169312,0.00051346,0.00232478,0.00127574,0.682539,0.00134434,0.0156638,594,1107,-45.3022,-3.56863
-623,-83,-45.3677,4.02307,0.00130628,0.00180671,-0.000620862,0.00222588,0.000887107,-0.976947,0.0012939,0.0187656,601,1107,-45.3676,-4.02309
-616,-83,-45.4745,4.49976,0.00144709,0.00173226,-0.000705685,0.00230962,0.000869726,-0.885082,0.00134693,0.0168961,608,1107,-45.4745,-4.49975
-609,-83,-45.4489,4.93494,0.00140634,0.00138161,-0.00058346,0.00197757,0.000810386,-0.774801,0.00114793,0.0217775,615,1107,-45.4489,-4.93497
-602,-83,-45.4222,5.44885,0.00147677,0.000917326,-0.000753131,0.00200045,0.000393648,-0.607588,0.00122371,0.0195914,622,1107,-45.4223,-5.44887
-595,-83,-45.3548,5.86841,0.0015965,0.000853972,-0.00106944,0.00235729,9.31871e-05,-0.618328,0.0015414,0.0279989,629,1107,-45.3548,-5.86845
-588,-83,-45.4302,6.15271,0,0,0,0,0,0,0,-1,636,1107,-45.4302,-6.15265
-581,-83,-48.5391,0.8302,0,0,0,0,0,0,0,-1,643,1107,-48.539,-0.830154
-574,-83,-48.5145,0.637939,0.00194433,0.000685451,-0.000345293,0.00203282,0.000596961,-0.250874,0.0012065,0.0361248,650,1107,-48.5145,-0.637947
-567,-83,-48.5755,0.70166,0.00181121,0.00086775,-0.000228757,0.00186375,0.00081521,-0.22576,0.00107884,0.0417085,657,1107,-48.5755,-0.701683
-560,-83,-48.8264,1.12756,0.0014638,0.000996856,-7.59816e-05,0.00147586,0.000984803,-0.157314,0.000867836,0.0420835,664,1107,-48.8264,-1.12753
-553,-83,-48.6566,1.27539,0.000736986,0.000799306,0.000151446,0.000922764,0.000613528,0.886858,0.000542328,0.0449787,671,1107,-48.6566,-1.27535
-546,-83,-48.5173,1.17554,0.000302007,-9.00103e-05,0.000747146,0.000878428,-0.000666431,0.657117,0.000894719,0.0422942,678,1107,-48.5173,-1.17559
-539,-83,-48.5504,0.469604,0,0,0,0,0,0,0,-1,685,1107,-48.5504,-0.469623
-532,-83,-48.5094,0.720581,0,0,0,0,0,0,0,-1,692,1107,-48.5094,-0.720602
-525,-83,0,0,0,0,0,0,0,0,0,-1,699,1107,0,0
-518,-83,0,0,0,0,0,0,0,0,0,-1,706,1107,0,0
-511,-83,0,0,0,0,0,0,0,0,0,-1,713,1107,0,0
-504,-83,0,0,0,0,0,0,0,0,0,-1,720,1107,0,0
-497,-83,0,0,0,0,0,0,0,0,0,-1,727,1107,0,0
-490,-83,0,0,0,0,0,0,0,0,0,-1,734,1107,0,0
-483,-83,0,0,0,0,0,0,0,0,0,-1,741,1107,0,0
-476,-83,0,0,0,0,0,0,0,0,0,-1,748,1107,0,0
-469,-83,0,0,0,0,0,0,0,0,0,-1,755,1107,0,0
-462,-83,0,0,0,0,0,0,0,0,0,-1,762,1107,0,0
-455,-83,0,0,0,0,0,0,0,0,0,-1,769,1107,0,0
-448,-83,0,0,0,0,0,0,0,0,0,-1,776,1107,0,0
-441,-83,0,0,0,0,0,0,0,0,0,-1,783,1107,0,0
-434,-83,0,0,0,0,0,0,0,0,0,-1,790,1107,0,0
-427,-83,0,0,0,0,0,0,0,0,0,-1,797,1107,0,0
-420,-83,0,0,0,0,0,0,0,0,0,-1,804,1107,0,0
-413,-83,0,0,0,0,0,0,0,0,0,-1,811,1107,0,0
-406,-83,0,0,0,0,0,0,0,0,0,-1,818,1107,0,0
-399,-83,0,0,0,0,0,0,0,0,0,-1,825,1107,0,0
-392,-83,0,0,0,0,0,0,0,0,0,-1,832,1107,0,0
-385,-83,0,0,0,0,0,0,0,0,0,-1,839,1107,0,0
-378,-83,0,0,0,0,0,0,0,0,0,-1,846,1107,0,0
-371,-83,0,0,0,0,0,0,0,0,0,-1,853,1107,0,0
-364,-83,0,0,0,0,0,0,0,0,0,-1,860,1107,0,0
-357,-83,0,0,0,0,0,0,0,0,0,-1,867,1107,0,0
-350,-83,0,0,0,0,0,0,0,0,0,-1,874,1107,0,0
-343,-83,0,0,0,0,0,0,0,0,0,-1,881,1107,0,0
-336,-83,0,0,0,0,0,0,0,0,0,-1,888,1107,0,0
-329,-83,0,0,0,0,0,0,0,0,0,-1,895,1107,0,0
-322,-83,0,0,0,0,0,0,0,0,0,-1,902,1107,0,0
-315,-83,0,0,0,0,0,0,0,0,0,-1,909,1107,0,0
-308,-83,0,0,0,0,0,0,0,0,0,-1,916,1107,0,0
-301,-83,0,0,0,0,0,0,0,0,0,-1,923,1107,0,0
-294,-83,0,0,0,0,0,0,0,0,0,-1,930,1107,0,0
-287,-83,0,0,0,0,0,0,0,0,0,-1,937,1107,0,0
-280,-83,0,0,0,0,0,0,0,0,0,-1,944,1107,0,0
-273,-83,0,0,0,0,0,0,0,0,0,-1,951,1107,0,0
-266,-83,0,0,0,0,0,0,0,0,0,-1,958,1107,0,0
-259,-83,0,0,0,0,0,0,0,0,0,-1,965,1107,0,0
-252,-83,0,0,0,0,0,0,0,0,0,-1,972,1107,0,0
-245,-83,0,0,0,0,0,0,0,0,0,-1,979,1107,0,0
-238,-83,0,0,0,0,0,0,0,0,0,-1,986,1107,0,0
-231,-83,0,0,0,0,0,0,0,0,0,-1,993,1107,0,0
-224,-83,0,0,0,0,0,0,0,0,0,-1,1000,1107,0,0
-217,-83,0,0,0,0,0,0,0,0,0,-1,1007,1107,0,0
-210,-83,0,0,0,0,0,0,0,0,0,-1,1014,1107,0,0
-203,-83,0,0,0,0,0,0,0,0,0,-1,1021,1107,0,0
-196,-83,0,0,0,0,0,0,0,0,0,-1,1028,1107,0,0
-189,-83,0,0,0,0,0,0,0,0,0,-1,1035,1107,0,0
-182,-83,0,0,0,0,0,0,0,0,0,-1,1042,1107,0,0
-175,-83,0,0,0,0,0,0,0,0,0,-1,1049,1107,0,0
-168,-83,0,0,0,0,0,0,0,0,0,-1,1056,1107,0,0
-161,-83,0,0,0,0,0,0,0,0,0,-1,1063,1107,0,0
-154,-83,0,0,0,0,0,0,0,0,0,-1,1070,1107,0,0
-147,-83,0,0,0,0,0,0,0,0,0,-1,1077,1107,0,0
-140,-83,0,0,0,0,0,0,0,0,0,-1,1084,1107,0,0
-133,-83,0,0,0,0,0,0,0,0,0,-1,1091,1107,0,0
-126,-83,0,0,0,0,0,0,0,0,0,-1,1098,1107,0,0
-119,-83,0,0,0,0,0,0,0,0,0,-1,1105,1107,0,0
-112,-83,0,0,0,0,0,0,0,0,0,-1,1112,1107,0,0
-105,-83,0,0,0,0,0,0,0,0,0,-1,1119,1107,0,0
-98,-83,0,0,0,0,0,0,0,0,0,-1,1126,1107,0,0
-91,-83,0,0,0,0,0,0,0,0,0,-1,1133,1107,0,0
-84,-83,0,0,0,0,0,0,0,0,0,-1,1140,1107,0,0
-77,-83,0,0,0,0,0,0,0,0,0,-1,1147,1107,0,0
-70,-83,0,0,0,0,0,0,0,0,0,-1,1154,1107,0,0
-63,-83,0,0,0,0,0,0,0,0,0,-1,1161,1107,0,0
-56,-83,0,0,0,0,0,0,0,0,0,-1,1168,1107,0,0
-49,-83,0,0,0,0,0,0,0,0,0,-1,1175,1107,0,0
-42,-83,0,0,0,0,0,0,0,0,0,-1,1182,1107,0,0
-35,-83,0,0,0,0,0,0,0,0,0,-1,1189,1107,0,0
-28,-83,0,0,0,0,0,0,0,0,0,-1,1196,1107,0,0
-21,-83,0,0,0,0,0,0,0,0,0,-1,1203,1107,0,0
-14,-83,0,0,0,0,0,0,0,0,0,-1,1210,1107,0,0
-7,-83,0,0,0,0,0,0,0,0,0,-1,1217,1107,0,0
0,-83,0,0,0,0,0,0,0,0,0,-1,1224,1107,0,0
7,-83,0,0,0,0,0,0,0,0,0,-1,1231,1107,0,0
14,-83,0,0,0,0,0,0,0,0,0,-1,1238,1107,0,0
21,-83,0,0,0,0,0,0,0,0,0,-1,1245,1107,0,0
28,-83,0,0,0,0,0,0,0,0,0,-1,1252,1107,0,0
35,-83,0,0,0,0,0,0,0,0,0,-1,1259,1107,0,0
42,-83,0,0,0,0,0,0,0,0,0,-1,1266,1107,0,0
49,-83,0,0,0,0,0,0,0,0,0,-1,1273,1107,0,0
56,-83,0,0,0,0,0,0,0,0,0,-1,1280,1107,0,0
63,-83,0,0,0,0,0,0,0,0,0,-1,1287,1107,0,0
70,-83,0,0,0,0,0,0,0,0,0,-1,1294,1107,0,0
77,-83,0,0,0,0,0,0,0,0,0,-1,1301,1107,0,0
84,-83,0,0,0,0,0,0,0,0,0,-1,1308,1107,0,0
91,-83,0,0,0,0,0,0,0,0,0,-1,1315,1107,0,0
98,-83,0,0,0,0,0,0,0,0,0,-1,1322,1107,0,0
105,-83,0,0,0,0,0,0,0,0,0,-1,1329,1107,0,0
112,-83,0,0,0,0,0,0,0,0,0,-1,1336,1107,0,0
119,-83,0,0,0,0,0,0,0,0,0,-1,1343,1107,0,0
126,-83,0,0,0,0,0,0,0,0,0,-1,1350,1107,0,0
133,-83,0,0,0,0,0,0,0,0,0,-1,1357,1107,0,0
140,-83,0,0,0,0,0,0,0,0,0,-1,1364,1107,0,0
147,-83,0,0,0,0,0,0,0,0,0,-1,1371,1107,0,0
154,-83,0,0,0,0,0,0,0,0,0,-1,1378,1107,0,0
161,-83,0,0,0,0,0,0,0,0,0,-1,1385,1107,0,0
168,-83,0,0,0,0,0,0,0,0,0,-1,1392,1107,0,0
175,-83,0,0,0,0,0,0,0,0,0,-1,1399,1107,0,0
182,-83,0,0,0,0,0,0,0,0,0,-1,1406,1107,0,0
189,-83,0,0,0,0,0,0,0,0,0,-1,1413,1107,0,0
196,-83,0,0,0,0,0,0,0,0,0,-1,1420,1107,0,0
203,-83,0,0,0,0,0,0,0,0,0,-1,1427,1107,0,0
210,-83,0,0,0,0,0,0,0,0,0,-1,1434,1107,0,0
217,-83,0,0,0,0,0,0,0,0,0,-1,1441,1107,0,0
224,-83,0,0,0,0,0,0,0,0,0,-1,1448,1107,0,0
231,-83,0,0,0,0,0,0,0,0,0,-1,1455,1107,0,0
238,-83,0,0,0,0,0,0,0,0,0,-1,1462,1107,0,0
245,-83,0,0,0,0,0,0,0,0,0,-1,1469,1107,0,0
252,-83,0,0,0,0,0,0,0,0,0,-1,1476,1107,0,0
259,-83,0,0,0,0,0,0,0,0,0,-1,1483,1107,0,0
266,-83,0,0,0,0,0,0,0,0,0,-1,1490,1107,0,0
273,-83,0,0,0,0,0,0,0,0,0,-1,1497,1107,0,0
280,-83,0,0,0,0,0,0,0,0,0,-1,1504,1107,0,0
287,-83,0,0,0,0,0,0,0,0,0,-1,1511,1107,0,0
294,-83,0,0,0,0,0,0,0,0,0,-1,1518,1107,0,0
301,-83,0,0,0,0,0,0,0,0,0,-1,1525,1107,0,0
308,-83,0,0,0,0,0,0,0,0,0,-1,1532,1107,0,0
315,-83,0,0,0,0,0,0,0,0,0,-1,1539,1107,0,0
322,-83,0,0,0,0,0,0,0,0,0,-1,1546,1107,0,0
329,-83,0,0,0,0,0,0,0,0,0,-1,1553,1107,0,0
336,-83,0,0,0,0,0,0,0,0,0,-1,1560,1107,0,0
343,-83,0,0,0,0,0,0,0,0,0,-1,1567,1107,0,0
350,-83,0,0,0,0,0,0,0,0,0,-1,1574,1107,0,0
357,-83,0,0,0,0,0,0,0,0,0,-1,1581,1107,0,0
364,-83,0,0,0,0,0,0,0,0,0,-1,1588,1107,0,0
371,-83,0,0,0,0,0,0,0,0,0,-1,1595,1107,0,0
378,-83,0,0,0,0,0,0,0,0,0,-1,1602,1107,0,0
385,-83,0,0,0,0,0,0,0,0,0,-1,1609,1107,0,0
392,-83,0,0,0,0,0,0,0,0,0,-1,1616,1107,0,0
399,-83,0,0,0,0,0,0,0,0,0,-1,1623,1107,0,0
406,-83,0,0,0,0,0,0,0,0,0,-1,1630,1107,0,0
413,-83,0,0,0,0,0,0,0,0,0,-1,1637,1107,0,0
420,-83,0,0,0,0,0,0,0,0,0,-1,1644,1107,0,0
427,-83,0,0,0,0,0,0,0,0,0,-1,1651,1107,0,0
434,-83,0,0,0,0,0,0,0,0,0,-1,1658,1107,0,0
441,-83,0,0,0,0,0,0,0,0,0,-1,1665,1107,0,0
448,-83,0,0,0,0,0,0,0,0,0,-1,1672,1107,0,0
455,-83,0,0,0,0,0,0,0,0,0,-1,1679,1107,0,0
462,-83,0,0,0,0,0,0,0,0,0,-1,1686,1107,0,0
469,-83,0,0,0,0,0,0,0,0,0,-1,1693,1107,0,0
476,-83,0,0,0,0,0,0,0,0,0,-1,1700,1107,0,0
483,-83,0,0,0,0,0,0,0,0,0,-1,1707,1107,0,0
490,-83,0,0,0,0,0,0,0,0,0,-1,1714,1107,0,0
497,-83,0,0,0,0,0,0,0,0,0,-1,1721,1107,0,0
504,-83,0,0,0,0,0,0,0,0,0,-1,1728,1107,0,0
511,-83,0,0,0,0,0,0,0,0,0,-1,1735,1107,0,0
518,-83,0,0,0,0,0,0,0,0,0,-1,1742,1107,0,0
525,-83,0,0,0,0,0,0,0,0,0,-1,1749,1107,0,0
532,-83,0,0,0,0,0,0,0,0,0,-1,1756,1107,0,0
539,-83,0,0,0,0,0,0,0,0,0,-1,1763,1107,0,0
546,-83,0,0,0,0,0,0,0,0,0,-1,1770,1107,0,0
553,-83,0,0,0,0,0,0,0,0,0,-1,1777,1107,0,0
560,-83,0,0,0,0,0,0,0,0,0,-1,1784,1107,0,0
567,-83,0,0,0,0,0,0,0,0,0,-1,1791,1107,0,0
574,-83,0,0,0,0,0,0,0,0,0,-1,1798,1107,0,0
581,-83,0,0,0,0,0,0,0,0,0,-1,1805,1107,0,0
588,-83,0,0,0,0,0,0,0,0,0,-1,1812,1107,0,0
595,-83,0,0,0,0,0,0,0,0,0,-1,1819,1107,0,0
602,-83,0,0,0,0,0,0,0,0,0,-1,1826,1107,0,0
609,-83,0,0,0,0,0,0,0,0,0,-1,1833,1107,0,0
616,-83,0,0,0,0,0,0,0,0,0,-1,1840,1107,0,0
623,-83,0,0,0,0,0,0,0,0,0,-1,1847,1107,0,0
630,-83,0,0,0,0,0,0,0,0,0,-1,1854,1107,0,0
637,-83,0,0,0,0,0,0,0,0,0,-1,1861,1107,0,0
644,-83,64.2456,2.42725,-0.00342947,0.00327379,0.00123766,0.00349501,-0.00365069,1.39393,0.00412589,0.0351681,1868,1107,64.2457,-2.42725
651,-83,64.3197,2.42419,-0.00244924,0.00237125,0.00107877,0.00260166,-0.00267964,1.36038,0.00304927,0.0404508,1875,1107,64.3197,-2.4242
658,-83,64.2722,2.40149,-0.00158918,0.00161151,0.000778706,0.0017909,-0.00176858,1.34437,0.00205508,0.0430742,1882,1107,64.2722,-2.40144
665,-83,64.1418,2.3894,-0.000826486,0.00100122,0.000476442,0.00111796,-0.000943227,1.3305,0.00119145,0.0389343,1889,1107,64.1418,-2.38941
672,-83,63.9877,2.44275,-0.000111791,0.000566675,0.000156418,0.000601001,-0.000146116,1.35478,0.000457222,0.0366082,1896,1107,63.9876,-2.44279
679,-83,63.9446,2.41809,0.000399488,0.000246143,-0.000199659,0.000536691,0.000108941,-0.602072,0.000327575,0.0368278,1903,1107,63.9446,-2.41808
686,-83,64.1135,2.45679,0.000706906,-0.000127796,-0.000264594,0.000783713,-0.000204602,-0.282517,0.000602372,0.0334128,1910,1107,64.1135,-2.45673
693,-83,64.1837,2.54736,0.000908737,-0.000423781,-0.000187811,0.000934702,-0.000449746,-0.13738,0.000815494,0.033783,1917,1107,64.1838,-2.54737
700,-83,64.1273,2.55029,0.00106336,-0.000563283,-8.68834e-05,0.00106799,-0.00056791,-0.0532109,0.000959084,0.0317824,1924,1107,64.1273,-2.55026
707,-83,64.1356,2.52625,0.00100571,-0.000559382,0.000192184,0.00102897,-0.000582636,0.120411,0.000942278,0.0232841,1931,1107,64.1356,-2.52624
714,-83,64.1759,2.51636,0,0,0,0,0,0,0,-1,1938,1107,64.1759,-2.51634
721,-83,49.1162,7.36719,0,0,0,0,0,0,0,-1,1945,1107,49.1162,-7.36721
728,-83,60.642,8.23035,0,0,0,0,0,0,0,-1,1952,1107,60.642,-8.23037
735,-83,60.3477,7.66016,-0.000966789,0.00109243,0.00138754,0.00179064,-0.001665,1.10459,0.00199555,0.0459415,1959,1107,60.3476,-7.66014
742,-83,60.5054,7.2489,-0.00177509,0.00193075,0.00163941,0.00255189,-0.00239623,1.20863,0.00285727,0.028302,1966,1107,60.5054,-7.24889
749,-83,60.6226,6.80322,-0.00256997,0.00302033,0.00195649,0.00363703,-0.00318667,1.26545,0.00394252,0.0198359,1973,1107,60.6226,-6.80317
756,-83,60.6415,6.35632,-0.00339157,0.00526105,0.00174416,0.0055994,-0.00372992,1.37919,0.00542221,0.0178844,1980,1107,60.6414,-6.35636
763,-83,60.5874,5.88318,-0.00418561,0.00895971,0.00075488,0.00900292,-0.00422882,1.51362,0.00780334,0.0132522,1987,1107,60.5874,-5.8832
770,-83,60.481,5.47839,-0.00485847,0.0141199,-0.000974252,0.0141698,-0.00490836,-1.51964,0.0114392,0.0162571,1994,1107,60.4809,-5.47838
777,-83,60.3496,5.08484,-0.00496767,0.0209875,-0.00356355,0.0214679,-0.00544804,-1.4368,0.0164318,0.0170624,2001,1107,60.3497,-5.08478
784,-83,60.2598,4.67957,-0.0044229,0.0296521,-0.00710655,0.0310748,-0.00584561,-1.37321,0.022915,0.0259525,2008,1107,60.2597,-4.67951
791,-83,60.6992,3.95972,0,0,0,0,0,0,0,-1,2015,1107,60.6993,-3.95967
798,-83,61.2334,3.07776,0,0,0,0,0,0,0,-1,2022,1107,61.2335,-3.07776
805,-83,61.175,2.77466,0,0,0,0,0,0,0,-1,2029,1107,61.1751,-2.7747
812,-83,60.6736,3.40112,0,0,0,0,0,0,0,-1,2036,1107,60.6736,-3.40115
-700,-90,0,0,0,0,0,0,0,0,0,-1,524,1114,0,0
-693,-90,-44.7535,0.714478,0.0718813,-0.0658535,0.012276,0.0729669,-0.0669391,0.0882017,0.0807997,0.0453516,531,1114,-44.7535,-0.714485
-686,-90,-42.9873,1.36169,0.0576183,-0.0520346,0.0131271,0.0591679,-0.0535843,0.117503,0.0651241,0.046216,538,1114,-42.9873,-1.36165
-679,-90,-43.8036,1.90576,0.0456048,-0.0399516,0.0123701,0.0473574,-0.0417043,0.140745,0.0514543,0.044681,545,1114,-43.8036,-1.90573
-672,-90,-44.1872,2.5813,0.0354137,-0.0294825,0.0108034,0.037165,-0.0312337,0.1607,0.0395394,0.0432532,552,1114,-44.1872,-2.58127
-665,-90,-43.9109,0.616089,0,0,0,0,0,0,0,-1,559,1114,-43.9109,-0.616039
-658,-90,-44.2231,1.28992,0.0189075,-0.0132329,0.00681727,0.0202937,-0.0146191,0.200604,0.0202455,0.0457121,566,1114,-44.2231,-1.28994
-651,-90,-44.5912,1.83154,0.0128207,-0.00756508,0.00485346,0.0139172,-0.00866161,0.222198,0.0131531,0.0355917,573,1114,-44.5913,-1.83154
-644,-90,-44.7058,2.46216,0.0082779,-0.00359506,0.00306041,0.00902034,-0.00433749,0.237995,0.00786853,0.018217,580,1114,-44.7058,-2.46219
-637,-90,-44.7665,3.05249,0.00385495,3.10489e-05,0.00179809,0.00456763,-0.000681629,0.377359,0.00329588,0.0141118,587,1114,-44.7665,-3.05248
-630,-90,-44.7913,3.55066,0.00146841,0.0010768,-2.36165e-06,0.00146842,0.00107678,-0.00603037,0.000878015,0.0122536,594,1114,-44.7912,-3.55071
-623,-90,-44.8265,4.06055,0.00115128,0.00143013,-0.000845686,0.00214781,0.000433602,-0.867099,0.00131145,0.0119166,601,1114,-44.8265,-4.06056
-616,-90,-44.8795,4.56604,0.00136326,0.0014632,-0.000755719,0.0021706,0.000655858,-0.81841,0.00128548,0.0149499,608,1114,-44.8795,-4.56609
-609,-90,-44.8636,5.03259,0.00130306,0.00132252,-0.00050107,0.00181395,0.000811625,-0.795108,0.00104921,0.0230515,615,1114,-44.8636,-5.03254
-602,-90,-44.9514,5.48657,0.00132964,0.00106491,-0.000623024,0.00183421,0.000560347,-0.680726,0.00108536,0.0237846,622,1114,-44.9513,-5.48662
-595,-90,-44.8361,6.04126,0.00136979,0.000996685,-0.000967294,0.00216836,0.000198118,-0.690138,0.00138427,0.0216149,629,1114,-44.8361,-6.04124
-588,-90,-44.9213,6.4375,0,0,0,0,0,0,0,-1,636,1114,-44.9213,-6.43749
-581,-90,-48.5591,0.932861,0,0,0,0,0,0,0,-1,643,1114,-48.5592,-0.9329
-574,-90,-48.5042,0.733887,0.00177486,0.000617891,-0.00017039,0.00179943,0.000593319,-0.143223,0.00105879,0.0372308,650,1114,-48.5042,-0.73391
-567,-90,-48.4893,0.633057,0.00171325,0.000764567,-4.30266e-05,0.0017152,0.000762619,-0.0452303,0.000992291,0.0375494,657,1114,-48.4893,-0.6331
-560,-90,-48.6541,1.04138,0.00146789,0.000900778,0.000130538,0.0014965,0.000872174,0.215717,0.000867944,0.0412408,664,1114,-48.6541,-1.04134
-553,-90,-48.4786,1.01843,0.00069715,0.000744862,0.000351358,0.00107317,0.000368839,0.819294,0.000629608,0.0435303,671,1114,-48.4786,-1.01846
-546,-90,-48.4285,0.748657,0.000173526,2.66097e-05,0.000983333,0.00108614,-0.000886005,0.748116,0.00114057,0.0430285,678,1114,-48.4285,-0.748646
-539,-90,-48.4728,0.501953,0.00112605,-0.00231021,0.00250538,0.00244582,-0.00362999,0.48484,0.00353001,0.0440907,685,1114,-48.4728,-0.501987
-532,-90,-48.5263,0.508423,0.00208441,-0.00482431,0.00480411,0.00454715,-0.00728705,0.473702,0.00689325,0.0427864,692,1114,-48.5263,-0.508386
-525,-90,0,0,0,0,0,0,0,0,0,-1,699,1114,0,0
-518,-90,0,0,0,0,0,0,0,0,0,-1,706,1114,0,0
-511,-90,0,0,0,0,0,0,0,0,0,-1,713,1114,0,0
-504,-90,0,0,0,0,0,0,0,0,0,-1,720,1114,0,0
-497,-90,0,0,0,0,0,0,0,0,0,-1,727,1114,0,0
-490,-90,0,0,0,0,0,0,0,0,0,-1,734,1114,0,0
-483,-90,0,0,0,0,0,0,0,0,0,-1,741,1114,0,0
-476,-90,0,0,0,0,0,0,0,0,0,-1,748,1114,0,0
-469,-90,0,0,0,0,0,0,0,0,0,-1,755,1114,0,0
-462,-90,0,0,0,0,0,0,0,0,0,-1,762,1114,0,0
-455,-90,0,0,0,0,0,0,0,0,0,-1,769,1114,0,0
-448,-90,0,0,0,0,0,0,0,0,0,-1,776,1114,0,0
-441,-90,0,0,0,0,0,0,0,0,0,-1,783,1114,0,0
-434,-90,0,0,0,0,0,0,0,0,0,-1,790,1114,0,0
-427,-90,0,0,0,0,0,0,0,0,0,-1,797,1114,0,0
-420,-90,0,0,0,0,0,0,0,0,0,-1,804,1114,0,0
-413,-90,0,0,0,0,0,0,0,0,0,-1,811,1114,0,0
-406,-90,0,0,0,0,0,0,0,0,0,-1,818,1114,0,0
-399,-90,0,0,0,0,0,0,0,0,0,-1,825,1114,0,0
-392,-90,0,0,0,0,0,0,0,0,0,-1,832,1114,0,0
-385,-90,0,0,0,0,0,0,0,0,0,-1,839,1114,0,0
-378,-90,0,0,0,0,0,0,0,0,0,-1,846,1114,0,0
-371,-90,0,0,0,0,0,0,0,0,0,-1,853,1114,0,0
-364,-90,0,0,0,0,0,0,0,0,0,-1,860,1114,0,0
-357,-90,0,0,0,0,0,0,0,0,0,-1,867,1114,0,0
-350,-90,0,0,0,0,0,0,0,0,0,-1,874,1114,0,0
-343,-90,0,0,0,0,0,0,0,0,0,-1,881,1114,0,0
-336,-90,0,0,0,0,0,0,0,0,0,-1,888,1114,0,0
-329,-90,0,0,0,0,0,0,0,0,0,-1,895,1114,0,0
-322,-90,0,0,0,0,0,0,0,0,0,-1,902,1114,0,0
-315,-90,0,0,0,0,0,0,0,0,0,-1,909,1114,0,0
-308,-90,0,0,0,0,0,0,0,0,0,-1,916,1114,0,0
-301,-90,0,0,0,0,0,0,0,0,0,-1,923,1114,0,0
-294,-90,0,0,0,0,0,0,0,0,0,-1,930,1114,0,0
-287,-90,0,0,0,0,0,0,0,0,0,-1,937,1114,0,0
-280,-90,0,0,0,0,0,0,0,0,0,-1,944,1114,0,0
-273,-90,0,0,0,0,0,0,0,0,0,-1,951,1114,0,0
-266,-90,0,0,0,0,0,0,0,0,0,-1,958,1114,0,0
-259,-90,0,0,0,0,0,0,0,0,0,-1,965,1114,0,0
-252,-90,0,0,0,0,0,0,0,0,0,-1,972,1114,0,0
-245,-90,0,0,0,0,0,0,0,0,0,-1,979,1114,0,0
-238,-90,0,0,0,0,0,0,0,0,0,-1,986,1114,0,0
-231,-90,0,0,0,0,0,0,0,0,0,-1,993,1114,0,0
-224,-90,0,0,0,0,0,0,0,0,0,-1,1000,1114,0,0
-217,-90,0,0,0,0,0,0,0,0,0,-1,1007,1114,0,0
-210,-90,0,0,0,0,0,0,0,0,0,-1,1014,1114,0,0
-203,-90,0,0,0,0,0,0,0,0,0,-1,1021,1114,0,0
-196,-90,0,0,0,0,0,0,0,0,0,-1,1028,1114,0,0
-189,-90,0,0,0,0,0,0,0,0,0,-1,1035,1114,0,0
-182,-90,0,0,0,0,0,0,0,0,0,-1,1042,1114,0,0
-175,-90,0,0,0,0,0,0,0,0,0,-1,1049,1114,0,0
-168,-90,0,0,0,0,0,0,0,0,0,-1,1056,1114,0,0
-161,-90,0,0,0,0,0,0,0,0,0,-1,1063,1114,0,0
-154,-90,0,0,0,0,0,0,0,0,0,-1,1070,1114,0,0
-147,-90,0,0,0,0,0,0,0,0,0,-1,1077,1114,0,0
-140,-90,0,0,0,0,0,0,0,0,0,-1,1084,1114,0,0
-133,-90,0,0,0,0,0,0,0,0,0,-1,1091,1114,0,0
-126,-90,0,0,0,0,0,0,0,0,0,-1,1098,1114,0,0
-119,-90,0,0,0,0,0,0,0,0,0,-1,1105,1114,0,0
-112,-90,0,0,0,0,0,0,0,0,0,-1,1112,1114,0,0
-105,-90,0,0,0,0,0,0,0,0,0,-1,1119,1114,0,0
-98,-90,0,0,0,0,0,0,0,0,0,-1,1126,1114,0,0
-91,-90,0,0,0,0,0,0,0,0,0,-1,1133,1114,0,0
-84,-90,0,0,0,0,0,0,0,0,0,-1,1140,1114,0,0
-77,-90,0,0,0,0,0,0,0,0,0,-1,1147,1114,0,0
-70,-90,0,0,0,0,0,0,0,0,0,-1,1154,1114,0,0
-63,-90,0,0,0,0,0,0,0,0,0,-1,1161,1114,0,0
-56,-90,0,0,0,0,0,0,0,0,0,-1,1168,1114,0,0
-49,-90,0,0,0,0,0,0,0,0,0,-1,1175,1114,0,0
-42,-90,0,0,0,0,0,0,0,0,0,-1,1182,1114,0,0
-35,-90,0,0,0,0,0,0,0,0,0,-1,1189,1114,0,0
-28,-90,0,0,0,0,0,0,0,0,0,-1,1196,1114,0,0
-21,-90,0,0,0,0,0,0,0,0,0,-1,1203,1114,0,0
-14,-90,0,0,0,0,0,0,0,0,0,-1,1210,1114,0,0
-7,-90,0,0,0,0,0,0,0,0,0,-1,1217,1114,0,0
0,-90,0,0,0,0,0,0,0,0,0,-1,1224,1114,0,0
7,-90,0,0,0,0,0,0,0,0,0,-1,1231,1114,0,0
14,-90,0,0,0,0,0,0,0,0,0,-1,1238,1114,0,0
21,-90,0,0,0,0,0,0,0,0,0,-1,1245,1114,0,0
28,-90,0,0,0,0,0,0,0,0,0,-1,1252,1114,0,0
35,-90,0,0,0,0,0,0,0,0,0,-1,1259,1114,0,0
42,-90,0,0,0,0,0,0,0,0,0,-1,1266,1114,0,0
49,-90,0,0,0,0,0,0,0,0,0,-1,1273,1114,0,0
56,-90,0,0,0,0,0,0,0,0,0,-1,1280,1114,0,0
63,-90,0,0,0,0,0,0,0,0,0,-1,1287,1114,0,0
70,-90,0,0,0,0,0,0,0,0,0,-1,1294,1114,0,0
77,-90,0,0,0,0,0,0,0,0,0,-1,1301,1114,0,0
84,-90,0,0,0,0,0,0,0,0,0,-1,1308,1114,0,0
91,-90,0,0,0,0,0,0,0,0,0,-1,1315,1114,0,0
98,-90,0,0,0,0,0,0,0,0,0,-1,1322,1114,0,0
105,-90,0,0,0,0,0,0,0,0,0,-1,1329,1114,0,0
112,-90,0,0,0,0,0,0,0,0,0,-1,1336,1114,0,0
119,-90,0,0,0,0,0,0,0,0,0,-1,1343,1114,0,0
126,-90,0,0,0,0,0,0,0,0,0,-1,1350,1114,0,0
133,-90,0,0,0,0,0,0,0,0,0,-1,1357,1114,0,0
140,-90,0,0,0,0,0,0,0,0,0,-1,1364,1114,0,0
147,-90,0,0,0,0,0,0,0,0,0,-1,1371,1114,0,0
154,-90,0,0,0,0,0,0,0,0,0,-1,1378,1114,0,0
161,-90,0,0,0,0,0,0,0,0,0,-1,1385,1114,0,0
168,-90,0,0,0,0,0,0,0,0,0,-1,1392,1114,0,0
175,-90,0,0,0,0,0,0,0,0,0,-1,1399,1114,0,0
182,-90,0,0,0,0,0,0,0,0,0,-1,1406,1114,0,0
189,-90,0,0,0,0,0,0,0,0,0,-1,1413,1114,0,0
196,-90,0,0,0,0,0,0,0,0,0,-1,1420,1114,0,0
203,-90,0,0,0,0,0,0,0,0,0,-1,1427,1114,0,0
210,-90,0,0,0,0,0,0,0,0,0,-1,1434,1114,0,0
217,-90,0,0,0,0,0,0,0,0,0,-1,1441,1114,0,0
224,-90,0,0,0,0,0,0,0,0,0,-1,1448,1114,0,0
231,-90,0,0,0,0,0,0,0,0,0,-1,1455,1114,0,0
238,-90,0,0,0,0,0,0,0,0,0,-1,1462,1114,0,0
245,-90,0,0,0,0,0,0,0,0,0,-1,1469,1114,0,0
252,-90,0,0,0,0,0,0,0,0,0,-1,1476,1114,0,0
259,-90,0,0,0,0,0,0,0,0,0,-1,1483,1114,0,0
266,-90,0,0,0,0,0,0,0,0,0,-1,1490,1114,0,0
273,-90,0,0,0,0,0,0,0,0,0,-1,1497,1114,0,0
280,-90,0,0,0,0,0,0,0,0,0,-1,1504,1114,0,0
287,-90,0,0,0,0,0,0,0,0,0,-1,1511,1114,0,0
294,-90,0,0,0,0,0,0,0,0,0,-1,1518,1114,0,0
301,-90,0,0,0,0,0,0,0,0,0,-1,1525,1114,0,0
308,-90,0,0,0,0,0,0,0,0,0,-1,1532,1114,0,0
315,-90,0,0,0,0,0,0,0,0,0,-1,1539,1114,0,0
322,-90,0,0,0,0,0,0,0,0,0,-1,1546,1114,0,0
329,-90,0,0,0,0,0,0,0,0,0,-1,1553,1114,0,0
336,-90,0,0,0,0,0,0,0,0,0,-1,1560,1114,0,0
343,-90,0,0,0,0,0,0,0,0,0,-1,1567,1114,0,0
350,-90,0,0,0,0,0,0,0,0,0,-1,1574,1114,0,0
357,-90,0,0,0,0,0,0,0,0,0,-1,1581,1114,0,0
364,-90,0,0,0,0,0,0,0,0,0,-1,1588,1114,0,0
371,-90,0,0,0,0,0,0,0,0,0,-1,1595,1114,0,0
378,-90,0,0,0,0,0,0,0,0,0,-1,1602,1114,0,0
385,-90,0,0,0,0,0,0,0,0,0,-1,1609,1114,0,0
392,-90,0,0,0,0,0,0,0,0,0,-1,1616,1114,0,0
399,-90,0,0,0,0,0,0,0,0,0,-1,1623,1114,0,0
406,-90,0,0,0,0,0,0,0,0,0,-1,1630,1114,0,0
413,-90,0,0,0,0,0,0,0,0,0,-1,1637,1114,0,0
420,-90,0,0,0,0,0,0,0,0,0,-1,1644,1114,0,0
427,-90,0,0,0,0,0,0,0,0,0,-1,1651,1114,0,0
434,-90,0,0,0,0,0,0,0,0,0,-1,1658,1114,0,0
441,-90,0,0,0,0,0,0,0,0,0,-1,1665,1114,0,0
448,-90,0,0,0,0,0,0,0,0,0,-1,1672,1114,0,0
455,-90,0,0,0,0,0,0,0,0,0,-1,1679,1114,0,0
462,-90,0,0,0,0,0,0,0,0,0,-1,1686,1114,0,0
469,-90,0,0,0,0,0,0,0,0,0,-1,1693,1114,0,0
476,-90,0,0,0,0,0,0,0,0,0,-1,1700,1114,0,0
483,-90,0,0,0,0,0,0,0,0,0,-1,1707,1114,0,0
490,-90,0,0,0,0,0,0,0,0,0,-1,1714,1114,0,0
497,-90,0,0,0,0,0,0,0,0,0,-1,1721,1114,0,0
504,-90,0,0,0,0,0,0,0,0,0,-1,1728,1114,0,0
511,-90,0,0,0,0,0,0,0,0,0,-1,1735,1114,0,0
518,-90,0,0,0,0,0,0,0,0,0,-1,1742,1114,0,0
525,-90,0,0,0,0,0,0,0,0,0,-1,1749,1114,0,0
532,-90,0,0,0,0,0,0,0,0,0,-1,1756,1114,0,0
539,-90,0,0,0,0,0,0,0,0,0,-1,1763,1114,0,0
546,-90,0,0,0,0,0,0,0,0,0,-1,1770,1114,0,0
553,-90,0,0,0,0,0,0,0,0,0,-1,1777,1114,0,0
560,-90,0,0,0,0,0,0,0,0,0,-1,1784,1114,0,0
567,-90,0,0,0,0,0,0,0,0,0,-1,1791,1114,0,0
574,-90,0,0,0,0,0,0,0,0,0,-1,1798,1114,0,0
581,-90,0,0,0,0,0,0,0,0,0,-1,1805,1114,0,0
588,-90,0,0,0,0,0,0,0,0,0,-1,1812,1114,0,0
595,-90,0,0,0,0,0,0,0,0,0,-1,1819,1114,0,0
602,-90,0,0,0,0,0,0,0,0,0,-1,1826,1114,0,0
609,-90,0,0,0,0,0,0,0,0,0,-1,1833,1114,0,0
616,-90,0,0,0,0,0,0,0,0,0,-1,1840,1114,0,0
623,-90,0,0,0,0,0,0,0,0,0,-1,1847,1114,0,0
630,-90,0,0,0,0,0,0,0,0,0,-1,1854,1114,0,0
637,-90,0,0,0,0,0,0,0,0,0,-1,1861,1114,0,0
644,-90,64.1471,2.34766,-0.0027682,0.00296539,0.00136094,0.00327202,-0.00307484,1.34918,0.00366495,0.0365285,1868,1114,64.1471,-2.34764
651,-90,64.1219,2.43933,-0.0020342,0.0019944,0.00125451,0.00235311,-0.00239291,1.29229,0.00274015,0.0394719,1875,1114,64.122,-2.43934
658,-90,64.0648,2.46814,-0.00130751,0.00120032,0.000965236,0.0015288,-0.00163599,1.24278,0.00182754,0.0415588,1882,1114,64.0648,-2.46817
665,-90,64.0664,2.51538,-0.000629077,0.000572165,0.000648073,0.000855141,-0.000912054,1.15911,0.00102047,0.0385418,1889,1114,64.0664,-2.51543
672,-90,64.0402,2.5144,2.37742e-05,0.000113401,0.000284999,0.000357089,-0.000219913,0.86338,0.000336256,0.0405961,1896,1114,64.0402,-2.51446
679,-90,64.038,2.55322,0.000455844,-0.000237457,-0.000112548,0.000473657,-0.00025527,-0.156969,0.000427096,0.0402266,1903,1114,64.038,-2.55325
686,-90,64.1472,2.61609,0.000760359,-0.000589359,-0.00023523,0.00080018,-0.000629181,-0.167697,0.000827208,0.0350526,1910,1114,64.1473,-2.61613
693,-90,64.1211,2.53369,0.000971958,-0.000838023,-0.000225723,0.000999683,-0.000865748,-0.122216,0.00107793,0.0341919,1917,1114,64.1211,-2.53371
700,-90,64.1079,2.53198,0.00112369,-0.000935389,-0.000175325,0.00113851,-0.000950211,-0.0843382,0.00120756,0.0312012,1924,1114,64.1079,-2.53198
707,-90,64.1396,2.49585,0.00109604,-0.000898111,6.34221e-05,0.00109806,-0.000900126,0.0317613,0.00115554,0.0235477,1931,1114,64.1396,-2.49584
714,-90,64.1666,2.42542,0,0,0,0,0,0,0,-1,1938,1114,64.1666,-2.42538
721,-90,59.9825,8.67065,0,0,0,0,0,0,0,-1,1945,1114,59.9826,-8.67067
728,-90,60.0582,8.27734,3.01061e-05,0.000171455,0.000869361,0.00097301,-0.000771449,0.825956,0.0010094,0.046023,1952,1114,60.0582,-8.27734
735,-90,59.8186,7.77014,-0.000592537,0.000746762,0.00110644,0.00137042,-0.00121619,1.05753,0.00149426,0.0384653,1959,1114,59.8186,-7.77017
742,-90,59.9554,7.23315,-0.00126244,0.00153554,0.00137761,0.00209996,-0.00182687,1.18195,0.00226898,0.0338689,1966,1114,59.9555,-7.2332
749,-90,60.2729,6.6604,-0.00194864,0.00259915,0.00168912,0.00315787,-0.00250737,1.25135,0.003278,0.0215962,1973,1114,60.273,-6.66041
756,-90,60.2339,6.26245,-0.00269603,0.0048407,0.00147374,0.00511863,-0.00297396,1.3844,0.00472663,0.0185581,1980,1114,60.2338,-6.26245
763,-90,60.1383,5.8302,-0.00329101,0.00864872,0.000438539,0.00866481,-0.0033071,1.53413,0.00713897,0.0133797,1987,1114,60.1383,-5.83018
770,-90,60.051,5.38367,-0.00364073,0.0139262,-0.00133833,0.0140275,-0.00374211,-1.49519,0.010817,0.0169117,1994,1114,60.051,-5.38369
777,-90,59.949,4.99622,-0.00336537,0.0209246,-0.00395593,0.0215526,-0.0039934,-1.41335,0.015868,0.0156492,2001,1114,59.9489,-4.99626
784,-90,59.7878,4.65271,-0.00235314,0.0299772,-0.00759606,0.031673,-0.0040489,-1.35116,0.0225863,0.0285152,2008,1114,59.7878,-4.65277
791,-90,59.4126,4.2583,4.69559e-05,0.0423439,-0.0127703,0.0459004,-0.0035096,-1.29918,0.0318347,0.0409629,2015,1114,59.4127,-4.25833
798,-90,60.7712,2.93274,0,0,0,0,0,0,0,-1,2022,1114,60.7712,-2.93274
805,-90,60.0911,3.74609,0.0114642,0.082088,-0.0299466,0.0930766,0.000475634,-1.21911,0.0618931,0.0467869,2029,1114,60.091,-3.74604
812,-90,60.2886,2.63574,0.0212687,0.112757,-0.0426947,0.129586,0.00444008,-1.19533,0.0849494,0.0451179,2036,1114,60.2887,-2.6357
-700,-97,0,0,0,0,0,0,0,0,0,-1,524,1121,0,0
-693,-97,-44.3297,1.56763,0.0730879,-0.0645325,0.0147771,0.0746568,-0.0661013,0.10577,0.0813167,0.0426608,531,1121,-44.3297,-1.56759
-686,-97,-44.332,0.856567,0.0583487,-0.052096,0.0142167,0.0601494,-0.0538967,0.125987,0.0658775,0.0478478,538,1121,-44.332,-0.856622
-679,-97,-43.3371,2.22571,0.0458829,-0.0408365,0.0125028,0.0476496,-0.0426031,0.140368,0.0521345,0.045476,545,1121,-43.3371,-2.2257
-672,-97,-43.6328,2.953,0.0353511,-0.0308022,0.0102868,0.0369138,-0.0323648,0.150758,0.0400268,0.0450697,552,1121,-43.6328,-2.95304
-665,-97,-43.6552,0.970825,0,0,0,0,0,0,0,-1,559,1121,-43.6552,-0.970805
-658,-97,-43.8705,1.49219,0.018344,-0.0146245,0.00569084,0.0192987,-0.0155792,0.166209,0.0201749,0.0460832,566,1121,-43.8706,-1.49221
-651,-97,-44.052,1.94653,0.0120919,-0.00871784,0.00370364,0.0127314,-0.00935735,0.170984,0.0128024,0.0361107,573,1121,-44.052,-1.94654
-644,-97,-44.2028,2.48218,0.00750272,-0.00442895,0.00204019,0.00784193,-0.00476816,0.164756,0.00735218,0.0141564,580,1121,-44.2027,-2.4822
-637,-97,-44.2653,3.03088,0.00322359,-0.000603433,0.000979414,0.00345967,-0.000839521,0.236538,0.00263132,0.013864,587,1121,-44.2653,-3.03083
-630,-97,-44.2856,3.53198,0.00109412,0.000686576,-0.0005222,0.00145089,0.000329797,-0.599377,0.000878221,0.0109167,594,1121,-44.2856,-3.53201
-623,-97,-44.3152,4.00867,0.000983551,0.00121815,-0.0010409,0.00214835,5.33586e-05,-0.841507,0.00141478,0.0130514,601,1121,-44.3152,-4.00868
-616,-97,-44.387,4.54858,0.00128165,0.00127653,-0.000746759,0.00202585,0.000532325,-0.783685,0.00121272,0.0214156,608,1121,-44.3869,-4.54864
-609,-97,-44.4694,5.09546,0.00120178,0.00127713,-0.000421355,0.00166249,0.000816421,-0.829987,0.000959892,0.0297917,615,1121,-44.4694,-5.09549
-602,-97,-44.5264,5.51379,0.00111002,0.0012022,-0.000528627,0.00168674,0.000625478,-0.828879,0.000984615,0.0301606,622,1121,-44.5264,-5.51384
-595,-97,-44.4434,6.06885,0.00101675,0.00104494,-0.000917349,0.0019483,0.000113386,-0.793081,0.00126277,0.0241138,629,1121,-44.4434,-6.06889
-588,-97,-44.6239,6.55481,0,0,0,0,0,0,0,-1,636,1121,-44.6239,-6.55481
-581,-97,-47.165,2.96936,0,0,0,0,0,0,0,-1,643,1121,-47.165,-2.96931
-574,-97,-48.4702,0.691895,0,0,0,0,0,0,0,-1,650,1121,-48.4702,-0.69188
-567,-97,-48.3489,0.692383,0.00154309,0.000366147,3.63644e-05,0.00154421,0.000365025,0.0308581,0.000931943,0.0366062,657,1121,-48.3489,-0.69242
-560,-97,-48.3067,0.831177,0.00144925,0.000505507,0.000225518,0.00150037,0.000454386,0.222915,0.000888402,0.0429565,664,1121,-48.3067,-0.831167
-553,-97,-48.4716,0.821533,0.000624474,0.000446606,0.000399061,0.00094439,0.000126689,0.675761,0.000591901,0.0469445,671,1121,-48.4716,-0.821514
-546,-97,-48.5543,0.295044,-2.10914e-05,-2.3856e-05,0.000981081,0.000958608,-0.00100356,0.784694,0.00113295,0.0456005,678,1121,-48.5542,-0.294996
-539,-97,-48.5308,0.0924072,0.000904402,-0.00194734,0.00251549,0.00237003,-0.00341297,0.527559,0.00335687,0.0443692,685,1121,-48.5308,-0.0924069
-532,-97,-48.5546,0.391602,0.00193071,-0.00412623,0.00482589,0.00459968,-0.00679521,0.505184,0.00661942,0.0402958,692,1121,-48.5546,-0.391547
-525,-97,0,0,0,0,0,0,0,0,0,-1,699,1121,0,0
-518,-97,0,0,0,0,0,0,0,0,0,-1,706,1121,0,0
-511,-97,0,0,0,0,0,0,0,0,0,-1,713,1121,0,0
-504,-97,0,0,0,0,0,0,0,0,0,-1,720,1121,0,0
-497,-97,0,0,0,0,0,0,0,0,0,-1,727,1121,0,0
-490,-97,0,0,0,0,0,0,0,0,0,-1,734,1121,0,0
-483,-97,0,0,0,0,0,0,0,0,0,-1,741,1121,0,0
-476,-97,0,0,0,0,0,0,0,0,0,-1,748,1121,0,0
-469,-97,0,0,0,0,0,0,0,0,0,-1,755,1121,0,0
-462,-97,0,0,0,0,0,0,0,0,0,-1,762,1121,0,0
-455,-97,0,0,0,0,0,0,0,0,0,-1,769,1121,0,0
-448,-97,0,0,0,0,0,0,0,0,0,-1,776,1121,0,0
-441,-97,0,0,0,0,0,0,0,0,0,-1,783,1121,0,0
-434,-97,0,0,0,0,0,0,0,0,0,-1,790,1121,0,0
-427,-97,0,0,0,0,0,0,0,0,0,-1,797,1121,0,0
-420,-97,0,0,0,0,0,0,0,0,0,-1,804,1121,0,0
-413,-97,0,0,0,0,0,0,0,0,0,-1,811,1121,0,0
-406,-97,0,0,0,0,0,0,0,0,0,-1,818,1121,0,0
-399,-97,0,0,0,0,0,0,0,0,0,-1,825,1121,0,0
-392,-97,0,0,0,0,0,0,0,0,0,-1,832,1121,0,0
-385,-97,0,0,0,0,0,0,0,0,0,-1,839,1121,0,0
-378,-97,0,0,0,0,0,0,0,0,0,-1,846,1121,0,0
-371,-97,0,0,0,0,0,0,0,0,0,-1,853,1121,0,0
-364,-97,0,0,0,0,0,0,0,0,0,-1,860,1121,0,0
-357,-97,0,0,0,0,0,0,0,0,0,-1,867,1121,0,0
-350,-97,0,0,0,0,0,0,0,0,0,-1,874,1121,0,0
-343,-97,0,0,0,0,0,0,0,0,0,-1,881,1121,0,0
-336,-97,0,0,0,0,0,0,0,0,0,-1,888,1121,0,0
-329,-97,0,0,0,0,0,0,0,0,0,-1,895,1121,0,0
-322,-97,0,0,0,0,0,0,0,0,0,-1,902,1121,0,0
-315,-97,0,0,0,0,0,0,0,0,0,-1,909,1121,0,0
-308,-97,0,0,0,0,0,0,0,0,0,-1,916,1121,0,0
-301,-97,0,0,0,0,0,0,0,0,0,-1,923,1121,0,0
-294,-97,0,0,0,0,0,0,0,0,0,-1,930,1121,0,0
-287,-97,0,0,0,0,0,0,0,0,0,-1,937,1121,0,0
-280,-97,0,0,0,0,0,0,0,0,0,-1,944,1121,0,0
-273,-97,0,0,0,0,0,0,0,0,0,-1,951,1121,0,0
-266,-97,0,0,0,0,0,0,0,0,0,-1,958,1121,0,0
-259,-97,0,0,0,0,0,0,0,0,0,-1,965,1121,0,0
-252,-97,0,0,0,0,0,0,0,0,0,-1,972,1121,0,0
-245,-97,0,0,0,0,0,0,0,0,0,-1,979,1121,0,0
-238,-97,0,0,0,0,0,0,0,0,0,-1,986,1121,0,0
-231,-97,0,0,0,0,0,0,0,0,0,-1,993,1121,0,0
-224,-97,0,0,0,0,0,0,0,0,0,-1,1000,1121,0,0
-217,-97,0,0,0,0,0,0,0,0,0,-1,1007,1121,0,0
-210,-97,0,0,0,0,0,0,0,0,0,-1,1014,1121,0,0
-203,-97,0,0,0,0,0,0,0,0,0,-1,1021,1121,0,0
-196,-97,0,0,0,0,0,0,0,0,0,-1,1028,1121,0,0
-189,-97,0,0,0,0,0,0,0,0,0,-1,1035,1121,0,0
-182,-97,0,0,0,0,0,0,0,0,0,-1,1042,1121,0,0
-175,-97,0,0,0,0,0,0,0,0,0,-1,1049,1121,0,0
-168,-97,0,0,0,0,0,0,0,0,0,-1,1056,1121,0,0
-161,-97,0,0,0,0,0,0,0,0,0,-1,1063,1121,0,0
-154,-97,0,0,0,0,0,0,0,0,0,-1,1070,1121,0,0
-147,-97,0,0,0,0,0,0,0,0,0,-1,1077,1121,0,0
-140,-97,0,0,0,0,0,0,0,0,0,-1,1084,1121,0,0
-133,-97,0,0,0,0,0,0,0,0,0,-1,1091,1121,0,0
-126,-97,0,0,0,0,0,0,0,0,0,-1,1098,1121,0,0
-119,-97,0,0,0,0,0,0,0,0,0,-1,1105,1121,0,0
-112,-97,0,0,0,0,0,0,0,0,0,-1,1112,1121,0,0
-105,-97,0,0,0,0,0,0,0,0,0,-1,1119,1121,0,0
-98,-97,0,0,0,0,0,0,0,0,0,-1,1126,1121,0,0
-91,-97,0,0,0,0,0,0,0,0,0,-1,1133,1121,0,0
-84,-97,0,0,0,0,0,0,0,0,0,-1,1140,1121,0,0
-77,-97,0,0,0,0,0,0,0,0,0,-1,1147,1121,0,0
-70,-97,0,0,0,0,0,0,0,0,0,-1,1154,1121,0,0
-63,-97,0,0,0,0,0,0,0,0,0,-1,1161,1121,0,0
-56,-97,0,0,0,0,0,0,0,0,0,-1,1168,1121,0,0
-49,-97,0,0,0,0,0,0,0,0,0,-1,1175,1121,0,0
-42,-97,0,0,0,0,0,0,0,0,0,-1,1182,1121,0,0
-35,-97,0,0,0,0,0,0,0,0,0,-1,1189,1121,0,0
-28,-97,0,0,0,0,0,0,0,0,0,-1,1196,1121,0,0
-21,-97,0,0,0,0,0,0,0,0,0,-1,1203,1121,0,0
-14,-97,0,0,0,0,0,0,0,0,0,-1,1210,1121,0,0
-7,-97,0,0,0,0,0,0,0,0,0,-1,1217,1121,0,0
0,-97,0,0,0,0,0,0,0,0,0,-1,1224,1121,0,0
7,-97,0,0,0,0,0,0,0,0,0,-1,1231,1121,0,0
14,-97,0,0,0,0,0,0,0,0,0,-1,1238,1121,0,0
21,-97,0,0,0,0,0,0,0,0,0,-1,1245,1121,0,0
28,-97,0,0,0,0,0,0,0,0,0,-1,1252,1121,0,0
35,-97,0,0,0,0,0,0,0,0,0,-1,1259,1121,0,0
42,-97,0,0,0,0,0,0,0,0,0,-1,1266,1121,0,0
49,-97,0,0,0,0,0,0,0,0,0,-1,1273,1121,0,0
56,-97,0,0,0,0,0,0,0,0,0,-1,1280,1121,0,0
63,-97,0,0,0,0,0,0,0,0,0,-1,1287,1121,0,0
70,-97,0,0,0,0,0,0,0,0,0,-1,1294,1121,0,0
77,-97,0,0,0,0,0,0,0,0,0,-1,1301,1121,0,0
84,-97,0,0,0,0,0,0,0,0,0,-1,1308,1121,0,0
91,-97,0,0,0,0,0,0,0,0,0,-1,1315,1121,0,0
98,-97,0,0,0,0,0,0,0,0,0,-1,1322,1121,0,0
105,-97,0,0,0,0,0,0,0,0,0,-1,1329,1121,0,0
112,-97,0,0,0,0,0,0,0,0,0,-1,1336,1121,0,0
119,-97,0,0,0,0,0,0,0,0,0,-1,1343,1121,0,0
126,-97,0,0,0,0,0,0,0,0,0,-1,1350,1121,0,0
133,-97,0,0,0,0,0,0,0,0,0,-1,1357,1121,0,0
140,-97,0,0,0,0,0,0,0,0,0,-1,1364,1121,0,0
147,-97,0,0,0,0,0,0,0,0,0,-1,1371,1121,0,0
154,-97,0,0,0,0,0,0,0,0,0,-1,1378,1121,0,0
161,-97,0,0,0,0,0,0,0,0,0,-1,1385,1121,0,0
168,-97,0,0,0,0,0,0,0,0,0,-1,1392,1121,0,0
175,-97,0,0,0,0,0,0,0,0,0,-1,1399,1121,0,0
182,-97,0,0,0,0,0,0,0,0,0,-1,1406,1121,0,0
189,-97,0,0,0,0,0,0,0,0,0,-1,1413,1121,0,0
196,-97,0,0,0,0,0,0,0,0,0,-1,1420,1121,0,0
203,-97,0,0,0,0,0,0,0,0,0,-1,1427,1121,0,0
210,-97,0,0,0,0,0,0,0,0,0,-1,1434,1121,0,0
217,-97,0,0,0,0,0,0,0,0,0,-1,1441,1121,0,0
224,-97,0,0,0,0,0,0,0,0,0,-1,1448,1121,0,0
231,-97,0,0,0,0,0,0,0,0,0,-1,1455,1121,0,0
238,-97,0,0,0,0,0,0,0,0,0,-1,1462,1121,0,0
245,-97,0,0,0,0,0,0,0,0,0,-1,1469,1121,0,0
252,-97,0,0,0,0,0,0,0,0,0,-1,1476,1121,0,0
259,-97,0,0,0,0,0,0,0,0,0,-1,1483,1121,0,0
266,-97,0,0,0,0,0,0,0,0,0,-1,1490,1121,0,0
273,-97,0,0,0,0,0,0,0,0,0,-1,1497,1121,0,0
280,-97,0,0,0,0,0,0,0,0,0,-1,1504,1121,0,0
287,-97,0,0,0,0,0,0,0,0,0,-1,1511,1121,0,0
294,-97,0,0,0,0,0,0,0,0,0,-1,1518,1121,0,0
301,-97,0,0,0,0,0,0,0,0,0,-1,1525,1121,0,0
308,-97,0,0,0,0,0,0,0,0,0,-1,1532,1121,0,0
315,-97,0,0,0,0,0,0,0,0,0,-1,1539,1121,0,0
322,-97,0,0,0,0,0,0,0,0,0,-1,1546,1121,0,0
329,-97,0,0,0,0,0,0,0,0,0,-1,1553,1121,0,0
336,-97,0,0,0,0,0,0,0,0,0,-1,1560,1121,0,0
343,-97,0,0,0,0,0,0,0,0,0,-1,1567,1121,0,0
350,-97,0,0,0,0,0,0,0,0,0,-1,1574,1121,0,0
357,-97,0,0,0,0,0,0,0,0,0,-1,1581,1121,0,0
364,-97,0,0,0,0,0,0,0,0,0,-1,1588,1121,0,0
371,-97,0,0,0,0,0,0,0,0,0,-1,1595,1121,0,0
378,-97,0,0,0,0,0,0,0,0,0,-1,1602,1121,0,0
385,-97,0,0,0,0,0,0,0,0,0,-1,1609,1121,0,0
392,-97,0,0,0,0,0,0,0,0,0,-1,1616,1121,0,0
399,-97,0,0,0,0,0,0,0,0,0,-1,1623,1121,0,0
406,-97,0,0,0,0,0,0,0,0,0,-1,1630,1121,0,0
413,-97,0,0,0,0,0,0,0,0,0,-1,1637,1121,0,0
420,-97,0,0,0,0,0,0,0,0,0,-1,1644,1121,0,0
427,-97,0,0,0,0,0,0,0,0,0,-1,1651,1121,0,0
434,-97,0,0,0,0,0,0,0,0,0,-1,1658,1121,0,0
441,-97,0,0,0,0,0,0,0,0,0,-1,1665,1121,0,0
448,-97,0,0,0,0,0,0,0,0,0,-1,1672,1121,0,0
455,-97,0,0,0,0,0,0,0,0,0,-1,1679,1121,0,0
462,-97,0,0,0,0,0,0,0,0,0,-1,1686,1121,0,0
469,-97,0,0,0,0,0,0,0,0,0,-1,1693,1121,0,0
476,-97,0,0,0,0,0,0,0,0,0,-1,1700,1121,0,0
483,-97,0,0,0,0,0,0,0,0,0,-1,1707,1121,0,0
490,-97,0,0,0,0,0,0,0,0,0,-1,1714,1121,0,0
497,-97,0,0,0,0,0,0,0,0,0,-1,1721,1121,0,0
504,-97,0,0,0,0,0,0,0,0,0,-1,1728,1121,0,0
511,-97,0,0,0,0,0,0,0,0,0,-1,1735,1121,0,0
518,-97,0,0,0,0,0,0,0,0,0,-1,1742,1121,0,0
525,-97,0,0,0,0,0,0,0,0,0,-1,1749,1121,0,0
532,-97,0,0,0,0,0,0,0,0,0,-1,1756,1121,0,0
539,-97,0,0,0,0,0,0,0,0,0,-1,1763,1121,0,0
546,-97,0,0,0,0,0,0,0,0,0,-1,1770,1121,0,0
553,-97,0,0,0,0,0,0,0,0,0,-1,1777,1121,0,0
560,-97,0,0,0,0,0,0,0,0,0,-1,1784,1121,0,0
567,-97,0,0,0,0,0,0,0,0,0,-1,1791,1121,0,0
574,-97,0,0,0,0,0,0,0,0,0,-1,1798,1121,0,0
581,-97,0,0,0,0,0,0,0,0,0,-1,1805,1121,0,0
588,-97,0,0,0,0,0,0,0,0,0,-1,1812,1121,0,0
595,-97,0,0,0,0,0,0,0,0,0,-1,1819,1121,0,0
602,-97,0,0,0,0,0,0,0,0,0,-1,1826,1121,0,0
609,-97,0,0,0,0,0,0,0,0,0,-1,1833,1121,0,0
616,-97,0,0,0,0,0,0,0,0,0,-1,1840,1121,0,0
623,-97,0,0,0,0,0,0,0,0,0,-1,1847,1121,0,0
630,-97,0,0,0,0,0,0,0,0,0,-1,1854,1121,0,0
637,-97,0,0,0,0,0,0,0,0,0,-1,1861,1121,0,0
644,-97,64.1758,2.51611,-0.00221725,0.00227846,0.00168284,0.0028386,-0.00277738,1.24948,0.00324245,0.0372619,1868,1121,64.1758,-2.51607
651,-97,64.1289,2.59155,-0.00169498,0.00152135,0.00157826,0.00216643,-0.00234006,1.18279,0.00260246,0.036707,1875,1121,64.1289,-2.59158
658,-97,64.0168,2.60889,-0.00108929,0.000867062,0.00125172,0.00147748,-0.0016997,1.11707,0.00183584,0.0387386,1882,1121,64.0168,-2.60887
665,-97,64.1376,2.52795,-0.000492405,0.000326434,0.000881941,0.000889354,-0.00105533,1.00271,0.00112412,0.0399489,1889,1121,64.1375,-2.52796
672,-97,64.1194,2.62891,0.000100202,-8.86436e-05,0.000442984,0.000458714,-0.000447156,0.680394,0.000523018,0.0413045,1896,1121,64.1194,-2.62891
679,-97,64.1021,2.92578,0.000472858,-0.000437777,-1.68478e-05,0.000473169,-0.000438088,-0.0184928,0.000526245,0.041781,1903,1121,64.1021,-2.92581
686,-97,64.1676,2.80554,0.000795854,-0.000729673,-0.000207135,0.000823478,-0.000757297,-0.132582,0.000912928,0.0376906,1910,1121,64.1676,-2.80555
693,-97,64.1115,2.51367,0.00101168,-0.000921162,-0.000264111,0.00104712,-0.000956601,-0.133387,0.00115724,0.0348947,1917,1121,64.1115,-2.51362
700,-97,64.1024,2.51172,0.00114986,-0.000992603,-0.000257994,0.00118049,-0.00102323,-0.118169,0.0012734,0.0276106,1924,1121,64.1024,-2.51173
707,-97,64.1283,2.51782,0.00114794,-0.000941333,-6.63148e-05,0.00115004,-0.000943436,-0.0316981,0.00121063,0.0240156,1931,1121,64.1282,-2.51777
714,-97,64.1075,2.43286,0,0,0,0,0,0,0,-1,1938,1121,64.1075,-2.43284
721,-97,59.6958,8.56348,0,0,0,0,0,0,0,-1,1945,1121,59.6957,-8.56353
728,-97,59.6614,8.25623,0.000251694,0.000122044,0.00059422,0.000784614,-0.000410876,0.731067,0.000701369,0.0323148,1952,1121,59.6614,-8.25617
735,-97,59.6454,7.6532,-0.000248841,0.000601632,0.000840765,0.00111858,-0.000765789,1.01953,0.00109428,0.0303311,1959,1121,59.6454,-7.65322
742,-97,59.6172,7.19556,-0.000788055,0.00129093,0.00117414,0.00181961,-0.00131673,1.14772,0.00181851,0.024708,1966,1121,59.6171,-7.19556
749,-97,59.7086,6.70569,-0.00141313,0.00230784,0.00152339,0.00285196,-0.00195725,1.22774,0.00279257,0.023655,1973,1121,59.7086,-6.70573
756,-97,59.7019,6.25073,-0.00212871,0.00454417,0.00132927,0.00479922,-0.00238376,1.38123,0.00422453,0.0169194,1980,1121,59.7019,-6.25074
763,-97,59.6014,5.83472,-0.00257896,0.00846272,0.000240388,0.00846795,-0.00258419,1.54904,0.00667556,0.0137201,1987,1121,59.6014,-5.83473
770,-97,59.5481,5.41443,-0.00269437,0.013831,-0.00158939,0.0139825,-0.00284584,-1.47578,0.0104009,0.0129636,1994,1121,59.5482,-5.41446
777,-97,59.4863,4.95605,-0.00214705,0.0209235,-0.00428049,0.0216921,-0.00291564,-1.39313,0.0155248,0.0166958,2001,1121,59.4864,-4.95602
784,-97,59.3972,4.55103,-0.000791978,0.0302852,-0.00811512,0.0322767,-0.00278344,-1.33015,0.022503,0.036091,2008,1121,59.3971,-4.55099
791,-97,59.3425,4.09924,0.00212411,0.0432404,-0.0136207,0.0473431,-0.00197864,-1.27823,0.0322419,0.0435976,2015,1121,59.3424,-4.09925
798,-97,59.4541,3.54053,0,0,0,0,0,0,0,-1,2022,1121,59.454,-3.54053
805,-97,59.8167,2.59717,0.0150278,0.0853627,-0.0320993,0.0978095,0.00258104,-1.20089,0.0643632,0.0445396,2029,1121,59.8165,-2.5972
812,-97,59.9856,1.86304,0.0259588,0.117935,-0.0458173,0.136863,0.00703055,-1.17903,0.0889912,0.0468787,2036,1121,59.9855,-1.863
-700,-104,0,0,0,0,0,0,0,0,0,-1,524,1128,0,0
-693,-104,-43.5469,0.0834961,0,0,0,0,0,0,0,-1,531,1128,-43.5469,-0.0835071
-686,-104,-43.3706,1.15417,0.0679931,-0.0539143,0.0192651,0.0709652,-0.0568863,0.153063,0.0739641,0.0488486,538,1128,-43.3706,-1.15418
-679,-104,-43.1575,2.2356,0.0531809,-0.0428519,0.0160512,0.0557927,-0.0454637,0.161303,0.0585617,0.0461703,545,1128,-43.1575,-2.23555
-672,-104,-43.0761,3.27588,0.0408159,-0.0327684,0.0126569,0.0429321,-0.0348846,0.165665,0.0450075,0.0480446,552,1128,-43.0761,-3.27584
-665,-104,-43.4213,4.04065,0,0,0,0,0,0,0,-1,559,1128,-43.4213,-4.04064
-658,-104,-43.6602,1.75598,0,0,0,0,0,0,0,-1,566,1128,-43.6602,-1.75594
-651,-104,-43.5937,2.08203,0.0139894,-0.00993193,0.0040895,0.0146692,-0.0106117,0.164726,0.0146585,0.0472146,573,1128,-43.5937,-2.08199
-644,-104,-43.6551,2.46826,0.00871862,-0.00526967,0.00218961,0.00905335,-0.0056044,0.151699,0.00854039,0.0173899,580,1128,-43.6551,-2.46823
-637,-104,-43.6994,3.02246,0.0041057,-0.00122997,0.00100419,0.00428843,-0.0014127,0.180002,0.00342829,0.0121026,587,1128,-43.6994,-3.02248
-630,-104,-43.7137,3.46899,0.00173704,0.000355351,-0.000472442,0.00188313,0.000209256,-0.299907,0.00119181,0.0169041,594,1128,-43.7137,-3.46896
-623,-104,-43.7776,4.00537,0.00149055,0.0011004,-0.000873876,0.00219086,0.00040009,-0.675584,0.00134716,0.0187691,601,1128,-43.7776,-4.00541
-616,-104,-44.0921,4.63293,0.00161875,0.0012324,-0.000558706,0.00201673,0.000834413,-0.618953,0.00117012,0.027241,608,1128,-44.0921,-4.63293
-609,-104,-44.2767,5.04211,0.0013107,0.00134709,-0.000332508,0.0016619,0.00099589,-0.812727,0.000965779,0.035468,615,1128,-44.2767,-5.04216
-602,-104,-44.0635,5.59705,0.000967377,0.00135177,-0.000467704,0.00166523,0.000653918,-0.980347,0.000968772,0.0315489,622,1128,-44.0635,-5.59704
-595,-104,-43.8297,6.20752,0.000615459,0.0010431,-0.000911523,0.00176555,-0.000106987,-0.900603,0.00121426,0.0235384,629,1128,-43.8297,-6.20752
-588,-104,-43.8093,6.86658,0,0,0,0,0,0,0,-1,636,1128,-43.8092,-6.86658
-581,-104,-23.9373,2.85864,0,0,0,0,0,0,0,-1,643,1128,-23.9373,-2.85861
-574,-104,-48.478,0.890137,0,0,0,0,0,0,0,-1,650,1128,-48.478,-0.89012
-567,-104,-48.407,0.895142,0.00107017,-0.000201522,0.00021457,0.0011054,-0.00023675,0.162728,0.00082722,0.0367054,657,1128,-48.407,-0.895149
-560,-104,-48.3941,0.810913,0.00113822,-0.000127754,0.000493363,0.00130778,-0.000297313,0.331033,0.000986012,0.0432782,664,1128,-48.3941,-0.810874
-553,-104,-48.6483,0.418213,0.000292924,-0.000146306,0.000679773,0.000787677,-0.000641059,0.629155,0.000826328,0.048916,671,1128,-48.6483,-0.418227
-546,-104,-49.1033,0.558716,-0.000443893,-0.0004217,0.0012733,0.00084055,-0.00170614,0.789755,0.00149838,0.0466868,678,1128,-49.1033,-0.558721
-539,-104,-48.8384,0.35144,0.000452333,-0.00198475,0.00287404,0.00235548,-0.0038879,0.584894,0.00364063,0.041932,685,1128,-48.8385,-0.351446
-532,-104,-48.566,0.49353,0.00155013,-0.00385418,0.00524033,0.00474397,-0.00704802,0.547355,0.00685129,0.0425149,692,1128,-48.5661,-0.493532
-525,-104,-48.5129,0.765869,0.00245362,-0.00577517,0.00828804,0.00759232,-0.0109139,0.555006,0.0107418,0.0390156,699,1128,-48.5129,-0.765834
-518,-104,0,0,0,0,0,0,0,0,0,-1,706,1128,0,0
-511,-104,0,0,0,0,0,0,0,0,0,-1,713,1128,0,0
-504,-104,0,0,0,0,0,0,0,0,0,-1,720,1128,0,0
-497,-104,0,0,0,0,0,0,0,0,0,-1,727,1128,0,0
-490,-104,0,0,0,0,0,0,0,0,0,-1,734,1128,0,0
-483,-104,0,0,0,0,0,0,0,0,0,-1,741,1128,0,0
-476,-104,0,0,0,0,0,0,0,0,0,-1,748,1128,0,0
-469,-104,0,0,0,0,0,0,0,0,0,-1,755,1128,0,0
-462,-104,0,0,0,0,0,0,0,0,0,-1,762,1128,0,0
-455,-104,0,0,0,0,0,0,0,0,0,-1,769,1128,0,0
-448,-104,0,0,0,0,0,0,0,0,0,-1,776,1128,0,0
-441,-104,0,0,0,0,0,0,0,0,0,-1,783,1128,0,0
-434,-104,0,0,0,0,0,0,0,0,0,-1,790,1128,0,0
-427,-104,0,0,0,0,0,0,0,0,0,-1,797,1128,0,0
-420,-104,0,0,0,0,0,0,0,0,0,-1,804,1128,0,0
-413,-104,0,0,0,0,0,0,0,0,0,-1,811,1128,0,0
-406,-104,0,0,0,0,0,0,0,0,0,-1,818,1128,0,0
-399,-104,0,0,0,0,0,0,0,0,0,-1,825,1128,0,0
-392,-104,0,0,0,0,0,0,0,0,0,-1,832,1128,0,0
-385,-104,0,0,0,0,0,0,0,0,0,-1,839,1128,0,0
-378,-104,0,0,0,0,0,0,0,0,0,-1,846,1128,0,0
-371,-104,0,0,0,0,0,0,0,0,0,-1,853,1128,0,0
-364,-104,0,0,0,0,0,0,0,0,0,-1,860,1128,0,0
-357,-104,0,0,0,0,0,0,0,0,0,-1,867,1128,0,0
-350,-104,0,0,0,0,0,0,0,0,0,-1,874,1128,0,0
-343,-104,0,0,0,0,0,0,0,0,0,-1,881,1128,0,0
-336,-104,0,0,0,0,0,0,0,0,0,-1,888,1128,0,0
-329,-104,0,0,0,0,0,0,0,0,0,-1,895,1128,0,0
-322,-104,0,0,0,0,0,0,0,0,0,-1,902,1128,0,0
-315,-104,0,0,0,0,0,0,0,0,0,-1,909,1128,0,0
-308,-104,0,0,0,0,0,0,0,0,0,-1,916,1128,0,0
-301,-104,0,0,0,0,0,0,0,0,0,-1,923,1128,0,0
-294,-104,0,0,0,0,0,0,0,0,0,-1,930,1128,0,0
-287,-104,0,0,0,0,0,0,0,0,0,-1,937,1128,0,0
-280,-104,0,0,0,0,0,0,0,0,0,-1,944,1128,0,0
-273,-104,0,0,0,0,0,0,0,0,0,-1,951,1128,0,0
-266,-104,0,0,0,0,0,0,0,0,0,-1,958,1128,0,0
-259,-104,0,0,0,0,0,0,0,0,0,-1,965,1128,0,0
-252,-104,0,0,0,0,0,0,0,0,0,-1,972,1128,0,0
-245,-104,0,0,0,0,0,0,0,0,0,-1,979,1128,0,0
-238,-104,0,0,0,0,0,0,0,0,0,-1,986,1128,0,0
-231,-104,0,0,0,0,0,0,0,0,0,-1,993,1128,0,0
-224,-104,0,0,0,0,0,0,0,0,0,-1,1000,1128,0,0
-217,-104,0,0,0,0,0,0,0,0,0,-1,1007,1128,0,0
-210,-104,0,0,0,0,0,0,0,0,0,-1,1014,1128,0,0
-203,-104,0,0,0,0,0,0,0,0,0,-1,1021,1128,0,0
-196,-104,0,0,0,0,0,0,0,0,0,-1,1028,1128,0,0
-189,-104,0,0,0,0,0,0,0,0,0,-1,1035,1128,0,0
-182,-104,0,0,0,0,0,0,0,0,0,-1,1042,1128,0,0
-175,-104,0,0,0,0,0,0,0,0,0,-1,1049,1128,0,0
-168,-104,0,0,0,0,0,0,0,0,0,-1,1056,1128,0,0
-161,-104,0,0,0,0,0,0,0,0,0,-1,1063,1128,0,0
-154,-104,0,0,0,0,0,0,0,0,0,-1,1070,1128,0,0
-147,-104,0,0,0,0,0,0,0,0,0,-1,1077,1128,0,0
-140,-104,0,0,0,0,0,0,0,0,0,-1,1084,1128,0,0
-133,-104,0,0,0,0,0,0,0,0,0,-1,1091,1128,0,0
-126,-104,0,0,0,0,0,0,0,0,0,-1,1098,1128,0,0
-119,-104,0,0,0,0,0,0,0,0,0,-1,1105,1128,0,0
-112,-104,0,0,0,0,0,0,0,0,0,-1,1112,1128,0,0
-105,-104,0,0,0,0,0,0,0,0,0,-1,1119,1128,0,0
-98,-104,0,0,0,0,0,0,0,0,0,-1,1126,1128,0,0
-91,-104,0,0,0,0,0,0,0,0,0,-1,1133,1128,0,0
-84,-104,0,0,0,0,0,0,0,0,0,-1,1140,1128,0,0
-77,-104,0,0,0,0,0,0,0,0,0,-1,1147,1128,0,0
-70,-104,0,0,0,0,0,0,0,0,0,-1,1154,1128,0,0
-63,-104,0,0,0,0,0,0,0,0,0,-1,1161,1128,0,0
-56,-104,0,0,0,0,0,0,0,0,0,-1,1168,1128,0,0
-49,-104,0,0,0,0,0,0,0,0,0,-1,1175,1128,0,0
-42,-104,0,0,0,0,0,0,0,0,0,-1,1182,1128,0,0
-35,-104,0,0,0,0,0,0,0,0,0,-1,1189,1128,0,0
-28,-104,0,0,0,0,0,0,0,0,0,-1,1196,1128,0,0
-21,-104,0,0,0,0,0,0,0,0,0,-1,1203,1128,0,0
-14,-104,0,0,0,0,0,0,0,0,0,-1,1210,1128,0,0
-7,-104,0,0,0,0,0,0,0,0,0,-1,1217,1128,0,0
0,-104,0,0,0,0,0,0,0,0,0,-1,1224,1128,0,0
7,-104,0,0,0,0,0,0,0,0,0,-1,1231,1128,0,0
14,-104,0,0,0,0,0,0,0,0,0,-1,1238,1128,0,0
21,-104,0,0,0,0,0,0,0,0,0,-1,1245,1128,0,0
28,-104,0,0,0,0,0,0,0,0,0,-1,1252,1128,0,0
35,-104,0,0,0,0,0,0,0,0,0,-1,1259,1128,0,0
42,-104,0,0,0,0,0,0,0,0,0,-1,1266,1128,0,0
49,-104,0,0,0,0,0,0,0,0,0,-1,1273,1128,0,0
56,-104,0,0,0,0,0,0,0,0,0,-1,1280,1128,0,0
63,-104,0,0,0,0,0,0,0,0,0,-1,1287,1128,0,0
70,-104,0,0,0,0,0,0,0,0,0,-1,1294,1128,0,0
77,-104,0,0,0,0,0,0,0,0,0,-1,1301,1128,0,0
84,-104,0,0,0,0,0,0,0,0,0,-1,1308,1128,0,0
91,-104,0,0,0,0,0,0,0,0,0,-1,1315,1128,0,0
98,-104,0,0,0,0,0,0,0,0,0,-1,1322,1128,0,0
105,-104,0,0,0,0,0,0,0,0,0,-1,1329,1128,0,0
112,-104,0,0,0,0,0,0,0,0,0,-1,1336,1128,0,0
119,-104,0,0,0,0,0,0,0,0,0,-1,1343,1128,0,0
126,-104,0,0,0,0,0,0,0,0,0,-1,1350,1128,0,0
133,-104,0,0,0,0,0,0,0,0,0,-1,1357,1128,0,0
140,-104,0,0,0,0,0,0,0,0,0,-1,1364,1128,0,0
147,-104,0,0,0,0,0,0,0,0,0,-1,1371,1128,0,0
154,-104,0,0,0,0,0,0,0,0,0,-1,1378,1128,0,0
161,-104,0,0,0,0,0,0,0,0,0,-1,1385,1128,0,0
168,-104,0,0,0,0,0,0,0,0,0,-1,1392,1128,0,0
175,-104,0,0,0,0,0,0,0,0,0,-1,1399,1128,0,0
182,-104,0,0,0,0,0,0,0,0,0,-1,1406,1128,0,0
189,-104,0,0,0,0,0,0,0,0,0,-1,1413,1128,0,0
196,-104,0,0,0,0,0,0,0,0,0,-1,1420,1128,0,0
203,-104,0,0,0,0,0,0,0,0,0,-1,1427,1128,0,0
210,-104,0,0,0,0,0,0,0,0,0,-1,1434,1128,0,0
217,-104,0,0,0,0,0,0,0,0,0,-1,1441,1128,0,0
224,-104,0,0,0,0,0,0,0,0,0,-1,1448,1128,0,0
231,-104,0,0,0,0,0,0,0,0,0,-1,1455,1128,0,0
238,-104,0,0,0,0,0,0,0,0,0,-1,1462,1128,0,0
245,-104,0,0,0,0,0,0,0,0,0,-1,1469,1128,0,0
252,-104,0,0,0,0,0,0,0,0,0,-1,1476,1128,0,0
259,-104,0,0,0,0,0,0,0,0,0,-1,1483,1128,0,0
266,-104,0,0,0,0,0,0,0,0,0,-1,1490,1128,0,0
273,-104,0,0,0,0,0,0,0,0,0,-1,1497,1128,0,0
280,-104,0,0,0,0,0,0,0,0,0,-1,1504,1128,0,0
287,-104,0,0,0,0,0,0,0,0,0,-1,1511,1128,0,0
294,-104,0,0,0,0,0,0,0,0,0,-1,1518,1128,0,0
301,-104,0,0,0,0,0,0,0,0,0,-1,1525,1128,0,0
308,-104,0,0,0,0,0,0,0,0,0,-1,1532,1128,0,0
315,-104,0,0,0,0,0,0,0,0,0,-1,1539,1128,0,0
322,-104,0,0,0,0,0,0,0,0,0,-1,1546,1128,0,0
329,-104,0,0,0,0,0,0,0,0,0,-1,1553,1128,0,0
336,-104,0,0,0,0,0,0,0,0,0,-1,1560,1128,0,0
343,-104,0,0,0,0,0,0,0,0,0,-1,1567,1128,0,0
350,-104,0,0,0,0,0,0,0,0,0,-1,1574,1128,0,0
357,-104,0,0,0,0,0,0,0,0,0,-1,1581,1128,0,0
364,-104,0,0,0,0,0,0,0,0,0,-1,1588,1128,0,0
371,-104,0,0,0,0,0,0,0,0,0,-1,1595,1128,0,0
378,-104,0,0,0,0,0,0,0,0,0,-1,1602,1128,0,0
385,-104,0,0,0,0,0,0,0,0,0,-1,1609,1128,0,0
392,-104,0,0,0,0,0,0,0,0,0,-1,1616,1128,0,0
399,-104,0,0,0,0,0,0,0,0,0,-1,1623,1128,0,0
406,-104,0,0,0,0,0,0,0,0,0,-1,1630,1128,0,0
413,-104,0,0,0,0,0,0,0,0,0,-1,1637,1128,0,0
420,-104,0,0,0,0,0,0,0,0,0,-1,1644,1128,0,0
427,-104,0,0,0,0,0,0,0,0,0,-1,1651,1128,0,0
434,-104,0,0,0,0,0,0,0,0,0,-1,1658,1128,0,0
441,-104,0,0,0,0,0,0,0,0,0,-1,1665,1128,0,0
448,-104,0,0,0,0,0,0,0,0,0,-1,1672,1128,0,0
455,-104,0,0,0,0,0,0,0,0,0,-1,1679,1128,0,0
462,-104,0,0,0,0,0,0,0,0,0,-1,1686,1128,0,0
469,-104,0,0,0,0,0,0,0,0,0,-1,1693,1128,0,0
476,-104,0,0,0,0,0,0,0,0,0,-1,1700,1128,0,0
483,-104,0,0,0,0,0,0,0,0,0,-1,1707,1128,0,0
490,-104,0,0,0,0,0,0,0,0,0,-1,1714,1128,0,0
497,-104,0,0,0,0,0,0,0,0,0,-1,1721,1128,0,0
504,-104,0,0,0,0,0,0,0,0,0,-1,1728,1128,0,0
511,-104,0,0,0,0,0,0,0,0,0,-1,1735,1128,0,0
518,-104,0,0,0,0,0,0,0,0,0,-1,1742,1128,0,0
525,-104,0,0,0,0,0,0,0,0,0,-1,1749,1128,0,0
532,-104,0,0,0,0,0,0,0,0,0,-1,1756,1128,0,0
539,-104,0,0,0,0,0,0,0,0,0,-1,1763,1128,0,0
546,-104,0,0,0,0,0,0,0,0,0,-1,1770,1128,0,0
553,-104,0,0,0,0,0,0,0,0,0,-1,1777,1128,0,0
560,-104,0,0,0,0,0,0,0,0,0,-1,1784,1128,0,0
567,-104,0,0,0,0,0,0,0,0,0,-1,1791,1128,0,0
574,-104,0,0,0,0,0,0,0,0,0,-1,1798,1128,0,0
581,-104,0,0,0,0,0,0,0,0,0,-1,1805,1128,0,0
588,-104,0,0,0,0,0,0,0,0,0,-1,1812,1128,0,0
595,-104,0,0,0,0,0,0,0,0,0,-1,1819,1128,0,0
602,-104,0,0,0,0,0,0,0,0,0,-1,1826,1128,0,0
609,-104,0,0,0,0,0,0,0,0,0,-1,1833,1128,0,0
616,-104,0,0,0,0,0,0,0,0,0,-1,1840,1128,0,0
623,-104,0,0,0,0,0,0,0,0,0,-1,1847,1128,0,0
630,-104,0,0,0,0,0,0,0,0,0,-1,1854,1128,0,0
637,-104,0,0,0,0,0,0,0,0,0,-1,1861,1128,0,0
644,-104,64.191,2.75378,-0.00172933,0.00176464,0.00198615,0.00266279,-0.00262748,1.14611,0.00305436,0.0376614,1868,1128,64.1911,-2.75376
651,-104,64.166,2.59668,-0.00136514,0.00139318,0.00189299,0.00235614,-0.0023281,1.10022,0.00270446,0.0392243,1875,1128,64.166,-2.59663
658,-104,64.2775,2.46301,-0.000867095,0.000963979,0.00154877,0.00184758,-0.0017507,1.05234,0.00207772,0.0409081,1882,1128,64.2775,-2.46303
665,-104,64.4731,2.50427,-0.000357003,0.000555766,0.00113448,0.00132222,-0.00112346,0.976636,0.00141356,0.0398809,1889,1128,64.4732,-2.50422
672,-104,64.2789,2.81653,0,0,0,0,0,0,0,-1,1896,1128,64.2789,-2.81652
679,-104,64.1458,2.93079,0.000470457,-0.000161922,0.000119999,0.000492462,-0.000183927,0.181362,0.000403829,0.0407906,1903,1128,64.1458,-2.93083
686,-104,64.1595,2.80884,0.00079475,-0.000466977,-0.000114539,0.000805064,-0.000477291,-0.0898013,0.000748386,0.0408797,1910,1128,64.1596,-2.80883
693,-104,64.1345,2.63818,0.00098904,-0.00065619,-0.00020334,0.0010138,-0.000680949,-0.121165,0.000984733,0.0357919,1917,1128,64.1345,-2.63819
700,-104,64.157,2.54407,0.00109045,-0.000755486,-0.000215031,0.00111517,-0.000780204,-0.114447,0.00109998,0.0262336,1924,1128,64.157,-2.54413
707,-104,64.1187,2.62219,0,0,0,0,0,0,0,-1,1931,1128,64.1186,-2.6222
714,-104,45.5221,2.32166,0,0,0,0,0,0,0,-1,1938,1128,45.5221,-2.3216
721,-104,59.0967,8.76965,0,0,0,0,0,0,0,-1,1945,1128,59.0966,-8.76968
728,-104,59.2794,8.16394,0,0,0,0,0,0,0,-1,1952,1128,59.2795,-8.16392
735,-104,59.4501,7.44934,0,0,0,0,0,0,0,-1,1959,1128,59.45,-7.44935
742,-104,59.2294,7.19275,-0.000401515,0.00115766,0.00108834,0.00171681,-0.000960672,1.09619,0.00156626,0.0227941,1966,1128,59.2293,-7.19271
749,-104,59.1156,6.74719,-0.000850526,0.00207607,0.00148764,0.00269947,-0.00147393,1.17397,0.00244389,0.0214,1973,1128,59.1155,-6.74718
756,-104,59.1248,6.28076,-0.00136419,0.00432595,0.00128705,0.00460353,-0.00164177,1.35838,0.00373844,0.01721,1980,1128,59.1247,-6.2808
763,-104,59.0671,5.83887,-0.00140175,0.00834395,0.000135763,0.00834584,-0.00140364,1.55687,0.00608597,0.0175428,1987,1128,59.0672,-5.83892
770,-104,59.0161,5.41003,-0.000943615,0.013751,-0.00172798,0.0139515,-0.00114408,-1.4553,0.00970487,0.0160473,1994,1128,59.0161,-5.41008
777,-104,58.9197,4.91174,0.00025045,0.0208391,-0.0044391,0.0217555,-0.000665877,-1.36723,0.0147306,0.0239837,2001,1128,58.9197,-4.91171
784,-104,58.8623,4.49292,0.0023773,0.030305,-0.0083591,0.0326158,6.65151e-05,-1.30109,0.0217217,0.041001,2008,1128,58.8623,-4.49296
791,-104,59.0122,3.89685,0.00624528,0.0434527,-0.0139797,0.0481198,0.00157818,-1.24858,0.0315669,0.046088,2015,1128,59.0121,-3.89685
798,-104,59.2634,2.53772,0,0,0,0,0,0,0,-1,2022,1128,59.2634,-2.53776
805,-104,59.6028,1.45569,0,0,0,0,0,0,0,-1,2029,1128,59.6027,-1.45571
812,-104,59.7878,0.657104,0,0,0,0,0,0,0,-1,2036,1128,59.7878,-0.657098
-700,-111,0,0,0,0,0,0,0,0,0,-1,524,1135,0,0
-693,-111,-45.4247,3.22937,0,0,0,0,0,0,0,-1,531,1135,-45.4248,-3.22941
-686,-111,-42.5299,1.4812,0,0,0,0,0,0,0,-1,538,1135,-42.5299,-1.48116
-679,-111,-42.2808,2.52795,0,0,0,0,0,0,0,-1,545,1135,-42.2808,-2.52801
-672,-111,-42.3439,3.62244,0,0,0,0,0,0,0,-1,552,1135,-42.3439,-3.6225
-665,-111,-43.0062,4.23022,0,0,0,0,0,0,0,-1,559,1135,-43.0062,-4.23026
-658,-111,-43.3055,1.71484,0,0,0,0,0,0,0,-1,566,1135,-43.3055,-1.71484
-651,-111,-43.0666,2.03381,0.0169996,-0.0120992,0.00503718,0.0178468,-0.0129465,0.166648,0.0178534,0.0493799,573,1135,-43.0666,-2.03385
-644,-111,-43.0106,2.43542,0.0108158,-0.00669253,0.00280784,0.0112551,-0.00713181,0.155189,0.0107043,0.0287122,580,1135,-43.0106,-2.43548
-637,-111,-43.1215,3.02051,0.0056622,-0.00221589,0.00135535,0.00588885,-0.00244254,0.165696,0.0049454,0.0124574,587,1135,-43.1215,-3.02051
-630,-111,-43.1534,3.44873,0.00268842,-8.59453e-06,-0.000218227,0.00270596,-2.6138e-05,-0.0802188,0.00181275,0.0250165,594,1135,-43.1534,-3.44867
-623,-111,-43.1889,4.03625,0.00193358,0.00105539,-0.000661184,0.00228819,0.000700781,-0.492285,0.00135374,0.0211245,601,1135,-43.1889,-4.03631
-616,-111,-43.5204,4.58032,0.00188451,0.00120323,-0.000353779,0.00203498,0.00105275,-0.402159,0.00117513,0.0234853,608,1135,-43.5204,-4.58027
-609,-111,-43.7758,5.06616,0.00137303,0.00139956,-0.000239524,0.00162619,0.0011464,-0.813053,0.000964816,0.0330446,615,1135,-43.7758,-5.06622
-602,-111,-43.6613,5.64758,0.000658035,0.00145924,-0.00039913,0.00162414,0.00049314,-1.17902,0.000961498,0.0416332,622,1135,-43.6613,-5.64753
-595,-111,-43.3326,6.24988,2.06975e-05,0.00105514,-0.000861875,0.00154308,-0.000467241,-1.05565,0.0012148,0.0216448,629,1135,-43.3326,-6.24983
-588,-111,-42.9746,6.99011,0,0,0,0,0,0,0,-1,636,1135,-42.9746,-6.99014
-581,-111,-21.0555,3.14551,0,0,0,0,0,0,0,-1,643,1135,-21.0555,-3.14548
-574,-111,-48.4195,0.794434,0,0,0,0,0,0,0,-1,650,1135,-48.4195,-0.794388
-567,-111,-48.4386,0.855713,0.000252196,-0.000666332,0.000312794,0.000348597,-0.000762734,0.298956,0.000656309,0.0403078,657,1135,-48.4386,-0.85576
-560,-111,-48.4424,0.793823,0.000483926,-0.00068116,0.000649094,0.000773552,-0.000970786,0.41969,0.00100924,0.0411865,664,1135,-48.4424,-0.793878
-553,-111,-48.6248,0.648071,-0.000341846,-0.000706979,0.000811746,0.000307611,-0.00135644,0.674786,0.00102237,0.0443791,671,1135,-48.6248,-0.648086
-546,-111,-48.8009,0.618408,-0.00115664,-0.000852765,0.00136802,0.000371726,-0.00238114,0.840704,0.00172474,0.0409533,678,1135,-48.8009,-0.61842
-539,-111,-48.7567,0.713013,-0.000312359,-0.00219044,0.00294857,0.00184309,-0.00434589,0.631239,0.00366931,0.0401524,685,1135,-48.7566,-0.713067
-532,-111,-48.6395,0.830811,0.000854855,-0.00388189,0.0052896,0.00428209,-0.00730913,0.574911,0.00676783,0.04305,692,1135,-48.6395,-0.830796
-525,-111,-48.5474,1.05859,0.00181353,-0.0056071,0.00826422,0.00716212,-0.0109557,0.574403,0.0105365,0.041519,699,1135,-48.5474,-1.05865
-518,-111,0,0,0,0,0,0,0,0,0,-1,706,1135,0,0
-511,-111,0,0,0,0,0,0,0,0,0,-1,713,1135,0,0
-504,-111,0,0,0,0,0,0,0,0,0,-1,720,1135,0,0
-497,-111,0,0,0,0,0,0,0,0,0,-1,727,1135,0,0
-490,-111,0,0,0,0,0,0,0,0,0,-1,734,1135,0,0
-483,-111,0,0,0,0,0,0,0,0,0,-1,741,1135,0,0
-476,-111,0,0,0,0,0,0,0,0,0,-1,748,1135,0,0
-469,-111,0,0,0,0,0,0,0,0,0,-1,755,1135,0,0
-462,-111,0,0,0,0,0,0,0,0,0,-1,762,1135,0,0
-455,-111,0,0,0,0,0,0,0,0,0,-1,769,1135,0,0
-448,-111,0,0,0,0,0,0,0,0,0,-1,776,1135,0,0
-441,-111,0,0,0,0,0,0,0,0,0,-1,783,1135,0,0
-434,-111,0,0,0,0,0,0,0,0,0,-1,790,1135,0,0
-427,-111,0,0,0,0,0,0,0,0,0,-1,797,1135,0,0
-420,-111,0,0,0,0,0,0,0,0,0,-1,804,1135,0,0
-413,-111,0,0,0,0,0,0,0,0,0,-1,811,1135,0,0
-406,-111,0,0,0,0,0,0,0,0,0,-1,818,1135,0,0
-399,-111,0,0,0,0,0,0,0,0,0,-1,825,1135,0,0
-392,-111,0,0,0,0,0,0,0,0,0,-1,832,1135,0,0
-385,-111,0,0,0,0,0,0,0,0,0,-1,839,1135,0,0
-378,-111,0,0,0,0,0,0,0,0,0,-1,846,1135,0,0
-371,-111,0,0,0,0,0,0,0,0,0,-1,853,1135,0,0
-364,-111,0,0,0,0,0,0,0,0,0,-1,860,1135,0,0
-357,-111,0,0,0,0,0,0,0,0,0,-1,867,1135,0,0
-350,-111,0,0,0,0,0,0,0,0,0,-1,874,1135,0,0
-343,-111,0,0,0,0,0,0,0,0,0,-1,881,1135,0,0
-336,-111,0,0,0,0,0,0,0,0,0,-1,888,1135,0,0
-329,-111,0,0,0,0,0,0,0,0,0,-1,895,1135,0,0
-322,-111,0,0,0,0,0,0,0,0,0,-1,902,1135,0,0
-315,-111,0,0,0,0,0,0,0,0,0,-1,909,1135,0,0
-308,-111,0,0,0,0,0,0,0,0,0,-1,916,1135,0,0
-301,-111,0,0,0,0,0,0,0,0,0,-1,923,1135,0,0
-294,-111,0,0,0,0,0,0,0,0,0,-1,930,1135,0,0
-287,-111,0,0,0,0,0,0,0,0,0,-1,937,1135,0,0
-280,-111,0,0,0,0,0,0,0,0,0,-1,944,1135,0,0
-273,-111,0,0,0,0,0,0,0,0,0,-1,951,1135,0,0
-266,-111,0,0,0,0,0,0,0,0,0,-1,958,1135,0,0
-259,-111,0,0,0,0,0,0,0,0,0,-1,965,1135,0,0
-252,-111,0,0,0,0,0,0,0,0,0,-1,972,1135,0,0
-245,-111,0,0,0,0,0,0,0,0,0,-1,979,1135,0,0
-238,-111,0,0,0,0,0,0,0,0,0,-1,986,1135,0,0
-231,-111,0,0,0,0,0,0,0,0,0,-1,993,1135,0,0
-224,-111,0,0,0,0,0,0,0,0,0,-1,1000,1135,0,0
-217,-111,0,0,0,0,0,0,0,0,0,-1,1007,1135,0,0
-210,-111,0,0,0,0,0,0,0,0,0,-1,1014,1135,0,0
-203,-111,0,0,0,0,0,0,0,0,0,-1,1021,1135,0,0
-196,-111,0,0,0,0,0,0,0,0,0,-1,1028,1135,0,0
-189,-111,0,0,0,0,0,0,0,0,0,-1,1035,1135,0,0
-182,-111,0,0,0,0,0,0,0,0,0,-1,1042,1135,0,0
-175,-111,0,0,0,0,0,0,0,0,0,-1,1049,1135,0,0
-168,-111,0,0,0,0,0,0,0,0,0,-1,1056,1135,0,0
-161,-111,0,0,0,0,0,0,0,0,0,-1,1063,1135,0,0
-154,-111,0,0,0,0,0,0,0,0,0,-1,1070,1135,0,0
-147,-111,0,0,0,0,0,0,0,0,0,-1,1077,1135,0,0
-140,-111,0,0,0,0,0,0,0,0,0,-1,1084,1135,0,0
-133,-111,0,0,0,0,0,0,0,0,0,-1,1091,1135,0,0
-126,-111,0,0,0,0,0,0,0,0,0,-1,1098,1135,0,0
-119,-111,0,0,0,0,0,0,0,0,0,-1,1105,1135,0,0
-112,-111,0,0,0,0,0,0,0,0,0,-1,1112,1135,0,0
-105,-111,0,0,0,0,0,0,0,0,0,-1,1119,1135,0,0
-98,-111,0,0,0,0,0,0,0,0,0,-1,1126,1135,0,0
-91,-111,0,0,0,0,0,0,0,0,0,-1,1133,1135,0,0
-84,-111,0,0,0,0,0,0,0,0,0,-1,1140,1135,0,0
-77,-111,0,0,0,0,0,0,0,0,0,-1,1147,1135,0,0
-70,-111,0,0,0,0,0,0,0,0,0,-1,1154,1135,0,0
-63,-111,0,0,0,0,0,0,0,0,0,-1,1161,1135,0,0
-56,-111,0,0,0,0,0,0,0,0,0,-1,1168,1135,0,0
-49,-111,0,0,0,0,0,0,0,0,0,-1,1175,1135,0,0
-42,-111,0,0,0,0,0,0,0,0,0,-1,1182,1135,0,0
-35,-111,0,0,0,0,0,0,0,0,0,-1,1189,1135,0,0
-28,-111,0,0,0,0,0,0,0,0,0,-1,1196,1135,0,0
-21,-111,0,0,0,0,0,0,0,0,0,-1,1203,1135,0,0
-14,-111,0,0,0,0,0,0,0,0,0,-1,1210,1135,0,0
-7,-111,0,0,0,0,0,0,0,0,0,-1,1217,1135,0,0
0,-111,0,0,0,0,0,0,0,0,0,-1,1224,1135,0,0
7,-111,0,0,0,0,0,0,0,0,0,-1,1231,1135,0,0
14,-111,0,0,0,0,0,0,0,0,0,-1,1238,1135,0,0
21,-111,0,0,0,0,0,0,0,0,0,-1,1245,1135,0,0
28,-111,0,0,0,0,0,0,0,0,0,-1,1252,1135,0,0
35,-111,0,0,0,0,0,0,0,0,0,-1,1259,1135,0,0
42,-111,0,0,0,0,0,0,0,0,0,-1,1266,1135,0,0
49,-111,0,0,0,0,0,0,0,0,0,-1,1273,1135,0,0
56,-111,0,0,0,0,0,0,0,0,0,-1,1280,1135,0,0
63,-111,0,0,0,0,0,0,0,0,0,-1,1287,1135,0,0
70,-111,0,0,0,0,0,0,0,0,0,-1,1294,1135,0,0
77,-111,0,0,0,0,0,0,0,0,0,-1,1301,1135,0,0
84,-111,0,0,0,0,0,0,0,0,0,-1,1308,1135,0,0
91,-111,0,0,0,0,0,0,0,0,0,-1,1315,1135,0,0
98,-111,0,0,0,0,0,0,0,0,0,-1,1322,1135,0,0
105,-111,0,0,0,0,0,0,0,0,0,-1,1329,1135,0,0
112,-111,0,0,0,0,0,0,0,0,0,-1,1336,1135,0,0
119,-111,0,0,0,0,0,0,0,0,0,-1,1343,1135,0,0
126,-111,0,0,0,0,0,0,0,0,0,-1,1350,1135,0,0
133,-111,0,0,0,0,0,0,0,0,0,-1,1357,1135,0,0
140,-111,0,0,0,0,0,0,0,0,0,-1,1364,1135,0,0
147,-111,0,0,0,0,0,0,0,0,0,-1,1371,1135,0,0
154,-111,0,0,0,0,0,0,0,0,0,-1,1378,1135,0,0
161,-111,0,0,0,0,0,0,0,0,0,-1,1385,1135,0,0
168,-111,0,0,0,0,0,0,0,0,0,-1,1392,1135,0,0
175,-111,0,0,0,0,0,0,0,0,0,-1,1399,1135,0,0
182,-111,0,0,0,0,0,0,0,0,0,-1,1406,1135,0,0
189,-111,0,0,0,0,0,0,0,0,0,-1,1413,1135,0,0
196,-111,0,0,0,0,0,0,0,0,0,-1,1420,1135,0,0
203,-111,0,0,0,0,0,0,0,0,0,-1,1427,1135,0,0
210,-111,0,0,0,0,0,0,0,0,0,-1,1434,1135,0,0
217,-111,0,0,0,0,0,0,0,0,0,-1,1441,1135,0,0
224,-111,0,0,0,0,0,0,0,0,0,-1,1448,1135,0,0
231,-111,0,0,0,0,0,0,0,0,0,-1,1455,1135,0,0
238,-111,0,0,0,0,0,0,0,0,0,-1,1462,1135,0,0
245,-111,0,0,0,0,0,0,0,0,0,-1,1469,1135,0,0
252,-111,0,0,0,0,0,0,0,0,0,-1,1476,1135,0,0
259,-111,0,0,0,0,0,0,0,0,0,-1,1483,1135,0,0
266,-111,0,0,0,0,0,0,0,0,0,-1,1490,1135,0,0
273,-111,0,0,0,0,0,0,0,0,0,-1,1497,1135,0,0
280,-111,0,0,0,0,0,0,0,0,0,-1,1504,1135,0,0
287,-111,0,0,0,0,0,0,0,0,0,-1,1511,1135,0,0
294,-111,0,0,0,0,0,0,0,0,0,-1,1518,1135,0,0
301,-111,0,0,0,0,0,0,0,0,0,-1,1525,1135,0,0
308,-111,0,0,0,0,0,0,0,0,0,-1,1532,1135,0,0
315,-111,0,0,0,0,0,0,0,0,0,-1,1539,1135,0,0
322,-111,0,0,0,0,0,0,0,0,0,-1,1546,1135,0,0
329,-111,0,0,0,0,0,0,0,0,0,-1,1553,1135,0,0
336,-111,0,0,0,0,0,0,0,0,0,-1,1560,1135,0,0
343,-111,0,0,0,0,0,0,0,0,0,-1,1567,1135,0,0
350,-111,0,0,0,0,0,0,0,0,0,-1,1574,1135,0,0
357,-111,0,0,0,0,0,0,0,0,0,-1,1581,1135,0,0
364,-111,0,0,0,0,0,0,0,0,0,-1,1588,1135,0,0
371,-111,0,0,0,0,0,0,0,0,0,-1,1595,1135,0,0
378,-111,0,0,0,0,0,0,0,0,0,-1,1602,1135,0,0
385,-111,0,0,0,0,0,0,0,0,0,-1,1609,1135,0,0
392,-111,0,0,0,0,0,0,0,0,0,-1,1616,1135,0,0
399,-111,0,0,0,0,0,0,0,0,0,-1,1623,1135,0,0
406,-111,0,0,0,0,0,0,0,0,0,-1,1630,1135,0,0
413,-111,0,0,0,0,0,0,0,0,0,-1,1637,1135,0,0
420,-111,0,0,0,0,0,0,0,0,0,-1,1644,1135,0,0
427,-111,0,0,0,0,0,0,0,0,0,-1,1651,1135,0,0
434,-111,0,0,0,0,0,0,0,0,0,-1,1658,1135,0,0
441,-111,0,0,0,0,0,0,0,0,0,-1,1665,1135,0,0
448,-111,0,0,0,0,0,0,0,0,0,-1,1672,1135,0,0
455,-111,0,0,0,0,0,0,0,0,0,-1,1679,1135,0,0
462,-111,0,0,0,0,0,0,0,0,0,-1,1686,1135,0,0
469,-111,0,0,0,0,0,0,0,0,0,-1,1693,1135,0,0
476,-111,0,0,0,0,0,0,0,0,0,-1,1700,1135,0,0
483,-111,0,0,0,0,0,0,0,0,0,-1,1707,1135,0,0
490,-111,0,0,0,0,0,0,0,0,0,-1,1714,1135,0,0
497,-111,0,0,0,0,0,0,0,0,0,-1,1721,1135,0,0
504,-111,0,0,0,0,0,0,0,0,0,-1,1728,1135,0,0
511,-111,0,0,0,0,0,0,0,0,0,-1,1735,1135,0,0
518,-111,0,0,0,0,0,0,0,0,0,-1,1742,1135,0,0
525,-111,0,0,0,0,0,0,0,0,0,-1,1749,1135,0,0
532,-111,0,0,0,0,0,0,0,0,0,-1,1756,1135,0,0
539,-111,0,0,0,0,0,0,0,0,0,-1,1763,1135,0,0
546,-111,0,0,0,0,0,0,0,0,0,-1,1770,1135,0,0
553,-111,0,0,0,0,0,0,0,0,0,-1,1777,1135,0,0
560,-111,0,0,0,0,0,0,0,0,0,-1,1784,1135,0,0
567,-111,0,0,0,0,0,0,0,0,0,-1,1791,1135,0,0
574,-111,0,0,0,0,0,0,0,0,0,-1,1798,1135,0,0
581,-111,0,0,0,0,0,0,0,0,0,-1,1805,1135,0,0
588,-111,0,0,0,0,0,0,0,0,0,-1,1812,1135,0,0
595,-111,0,0,0,0,0,0,0,0,0,-1,1819,1135,0,0
602,-111,0,0,0,0,0,0,0,0,0,-1,1826,1135,0,0
609,-111,0,0,0,0,0,0,0,0,0,-1,1833,1135,0,0
616,-111,0,0,0,0,0,0,0,0,0,-1,1840,1135,0,0
623,-111,0,0,0,0,0,0,0,0,0,-1,1847,1135,0,0
630,-111,0,0,0,0,0,0,0,0,0,-1,1854,1135,0,0
637,-111,0,0,0,0,0,0,0,0,0,-1,1861,1135,0,0
644,-111,64.1865,2.66492,-0.00123641,0.00112377,0.00168095,0.0019975,-0.00211014,1.09144,0.00237185,0.0396556,1868,1135,64.1865,-2.66488
651,-111,64.1339,2.65112,-0.00101365,0.00102008,0.00183427,0.00210049,-0.00209406,1.03849,0.00242173,0.0408814,1875,1135,64.134,-2.65114
658,-111,64.3763,2.39185,-0.000620344,0.000745438,0.00165096,0.00184917,-0.00172407,0.9815,0.00206343,0.0413264,1882,1135,64.3764,-2.39179
665,-111,64.5137,2.3313,-0.000192233,0.000442112,0.00131876,0.00148131,-0.00123143,0.90341,0.00156841,0.0416111,1889,1135,64.5136,-2.33136
672,-111,64.2419,2.43018,0.000266539,0.00016275,0.000829229,0.0010455,-0.000616207,0.754148,0.000969998,0.0414973,1896,1135,64.2419,-2.43018
679,-111,64.121,2.71106,0.000512652,-0.000226472,0.000357413,0.000657211,-0.000371031,0.384344,0.000601271,0.0404681,1903,1135,64.121,-2.71105
686,-111,64.1035,2.797,0.000815913,-0.000518728,0.00011239,0.000825312,-0.000528126,0.0834272,0.000787662,0.0399149,1910,1135,64.1035,-2.79697
693,-111,64.0583,2.63696,0.000953767,-0.000673637,1.48607e-05,0.000953903,-0.000673772,0.00913054,0.000944366,0.0363657,1917,1135,64.0584,-2.63696
700,-111,64.1405,2.51965,0.000995069,-0.000766905,5.30577e-06,0.000995085,-0.000766921,0.00301123,0.00102013,0.0269693,1924,1135,64.1405,-2.51967
707,-111,64.1382,2.46509,0,0,0,0,0,0,0,-1,1931,1135,64.1382,-2.4651
714,-111,45.1654,7.39746,0,0,0,0,0,0,0,-1,1938,1135,45.1654,-7.39745
721,-111,58.6143,8.88562,0,0,0,0,0,0,0,-1,1945,1135,58.6143,-8.88558
728,-111,58.7335,8.22412,0.000283497,6.83634e-05,0.000462965,0.000651227,-0.000299367,0.671252,0.000561218,0.0260483,1952,1135,58.7335,-8.22415
735,-111,58.813,7.75513,5.15335e-05,0.000357015,0.000667554,0.00088908,-0.000480531,0.897866,0.000802386,0.0281961,1959,1135,58.8129,-7.75519
742,-111,58.6862,7.30212,-0.000170954,0.000892359,0.00106799,0.00155371,-0.000832304,1.01635,0.0013984,0.0179428,1966,1135,58.6862,-7.3021
749,-111,58.5881,6.79321,-0.000501228,0.00174023,0.00151672,0.00250536,-0.00126636,1.10358,0.00221642,0.0181999,1973,1135,58.5881,-6.79324
756,-111,58.5824,6.28748,-0.000808894,0.00395835,0.00132366,0.00430122,-0.00115176,1.31734,0.0033187,0.0165912,1980,1135,58.5825,-6.28746
763,-111,58.567,5.82983,-0.00048224,0.00791104,0.000196603,0.00791565,-0.000486842,1.54739,0.00544664,0.0153791,1987,1135,58.567,-5.82984
770,-111,58.5298,5.3761,0.000407391,0.013114,-0.0015742,0.0133061,0.000215272,-1.44935,0.00879985,0.0139719,1994,1135,58.5299,-5.37613
777,-111,58.3623,4.85413,0.0020204,0.0198775,-0.00413386,0.0207881,0.00110986,-1.35399,0.013504,0.029319,2001,1135,58.3624,-4.85409
784,-111,58.3491,4.3717,0.00458615,0.0289506,-0.00786365,0.0312681,0.0022686,-1.28419,0.0201319,0.0449498,2008,1135,58.3491,-4.37168
791,-111,58.416,3.89087,0,0,0,0,0,0,0,-1,2015,1135,58.416,-3.89085
798,-111,60.6492,2.87549,0,0,0,0,0,0,0,-1,2022,1135,60.6492,-2.87545
805,-111,59.4768,0.516724,0,0,0,0,0,0,0,-1,2029,1135,59.4768,-0.516743
812,-111,59.4658,-0.320923,0,0,0,0,0,0,0,-1,2036,1135,59.4658,0.320919
-700,-118,0,0,0,0,0,0,0,0,0,-1,524,1142,0,0
-693,-118,-45.1519,2.59314,0,0,0,0,0,0,0,-1,531,1142,-45.1519,-2.59316
-686,-118,-45.8224,3.41125,0,0,0,0,0,0,0,-1,538,1142,-45.8224,-3.4113
-679,-118,-41.3722,2.84326,0,0,0,0,0,0,0,-1,545,1142,-41.3722,-2.84324
-672,-118,-45.1828,5.73877,0,0,0,0,0,0,0,-1,552,1142,-45.1828,-5.73875
-665,-118,-45.0152,8.76477,0,0,0,0,0,0,0,-1,559,1142,-45.0152,-8.7648
-658,-118,-42.2225,0.536255,0,0,0,0,0,0,0,-1,566,1142,-42.2225,-0.536209
-651,-118,-42.1135,1.85083,0,0,0,0,0,0,0,-1,573,1142,-42.1134,-1.85079
-644,-118,-42.3752,2.45581,0.0141423,-0.00839837,0.00407315,0.0148557,-0.00911181,0.1734,0.0139695,0.0337013,580,1142,-42.3752,-2.45583
-637,-118,-42.5516,3.04846,0.00808149,-0.0033702,0.00216644,0.00847763,-0.00376634,0.180857,0.0072414,0.0180682,587,1142,-42.5516,-3.04843
-630,-118,-42.5999,3.52734,0.00397407,-0.000414232,0.000279143,0.00399176,-0.000431917,0.0632708,0.00281621,0.0253221,594,1142,-42.5999,-3.52737
-623,-118,-42.5859,4.0614,0.00210714,0.00101915,-0.000570652,0.00235154,0.000774746,-0.404656,0.00138374,0.0206349,601,1142,-42.586,-4.0614
-616,-118,-42.7482,4.58655,0.00167706,0.00114395,-0.000506163,0.00198256,0.000838444,-0.543042,0.00114916,0.0289264,608,1142,-42.7482,-4.58659
-609,-118,-43.0004,4.92822,0.00115114,0.00131712,-0.000429492,0.00167156,0.000796691,-0.880835,0.000965429,0.042621,615,1142,-43.0004,-4.92827
-602,-118,-42.8776,5.77673,0.000189644,0.00149016,-0.000485543,0.00165144,2.8368e-05,-1.25011,0.00109162,0.0456048,622,1142,-42.8776,-5.77669
-595,-118,-43.0676,6.64148,0,0,0,0,0,0,0,-1,629,1142,-43.0675,-6.6415
-588,-118,-41.8083,7.09595,0,0,0,0,0,0,0,-1,636,1142,-41.8084,-7.09595
-581,-118,-24.6116,3.89648,0,0,0,0,0,0,0,-1,643,1142,-24.6116,-3.89645
-574,-118,-48.3775,0.625488,0,0,0,0,0,0,0,-1,650,1142,-48.3775,-0.625473
-567,-118,-48.3897,0.770142,-0.000490305,-0.000714773,0.000296941,-0.000285095,-0.000919983,0.604713,0.0005438,0.0446664,657,1142,-48.3897,-0.770139
-560,-118,-48.3601,0.858154,-0.000103658,-0.000738076,0.000660814,0.000312138,-0.00115387,0.561627,0.000891695,0.0369622,664,1142,-48.3601,-0.85813
-553,-118,-48.3741,0.796753,-0.000865989,-0.000759555,0.000772335,-3.86058e-05,-0.00158694,0.819796,0.00104533,0.0386217,671,1142,-48.3741,-0.796744
-546,-118,-48.3575,0.731079,-0.00173083,-0.000756532,0.00121836,6.84569e-05,-0.00255582,0.975583,0.00172715,0.0406657,678,1142,-48.3575,-0.731125
-539,-118,-48.3135,0.774536,-0.000980823,-0.00175761,0.00257463,0.00123455,-0.00397298,0.710535,0.00314208,0.0414058,685,1142,-48.3135,-0.774492
-532,-118,-48.5045,0.965576,0.000194748,-0.00308566,0.00459536,0.00343384,-0.00632476,0.613982,0.00571595,0.042308,692,1142,-48.5045,-0.965584
-525,-118,-48.6141,1.18457,0.00114453,-0.00438069,0.00712387,0.0060227,-0.00925886,0.600427,0.00888852,0.0430647,699,1142,-48.6141,-1.18457
-518,-118,0,0,0,0,0,0,0,0,0,-1,706,1142,0,0
-511,-118,0,0,0,0,0,0,0,0,0,-1,713,1142,0,0
-504,-118,0,0,0,0,0,0,0,0,0,-1,720,1142,0,0
-497,-118,0,0,0,0,0,0,0,0,0,-1,727,1142,0,0
-490,-118,0,0,0,0,0,0,0,0,0,-1,734,1142,0,0
-483,-118,0,0,0,0,0,0,0,0,0,-1,741,1142,0,0
-476,-118,0,0,0,0,0,0,0,0,0,-1,748,1142,0,0
-469,-118,0,0,0,0,0,0,0,0,0,-1,755,1142,0,0
-462,-118,0,0,0,0,0,0,0,0,0,-1,762,1142,0,0
-455,-118,0,0,0,0,0,0,0,0,0,-1,769,1142,0,0
-448,-118,0,0,0,0,0,0,0,0,0,-1,776,1142,0,0
-441,-118,0,0,0,0,0,0,0,0,0,-1,783,1142,0,0
-434,-118,0,0,0,0,0,0,0,0,0,-1,790,1142,0,0
-427,-118,0,0,0,0,0,0,0,0,0,-1,797,1142,0,0
-420,-118,0,0,0,0,0,0,0,0,0,-1,804,1142,0,0
-413,-118,0,0,0,0,0,0,0,0,0,-1,811,1142,0,0
-406,-118,0,0,0,0,0,0,0,0,0,-1,818,1142,0,0
-399,-118,0,0,0,0,0,0,0,0,0,-1,825,1142,0,0
-392,-118,0,0,0,0,0,0,0,0,0,-1,832,1142,0,0
-385,-118,0,0,0,0,0,0,0,0,0,-1,839,1142,0,0
-378,-118,0,0,0,0,0,0,0,0,0,-1,846,1142,0,0
-371,-118,0,0,0,0,0,0,0,0,0,-1,853,1142,0,0
-364,-118,0,0,0,0,0,0,0,0,0,-1,860,1142,0,0
-357,-118,0,0,0,0,0,0,0,0,0,-1,867,1142,0,0
-350,-118,0,0,0,0,0,0,0,0,0,-1,874,1142,0,0
-343,-118,0,0,0,0,0,0,0,0,0,-1,881,1142,0,0
-336,-118,0,0,0,0,0,0,0,0,0,-1,888,1142,0,0
-329,-118,0,0,0,0,0,0,0,0,0,-1,895,1142,0,0
-322,-118,0,0,0,0,0,0,0,0,0,-1,902,1142,0,0
-315,-118,0,0,0,0,0,0,0,0,0,-1,909,1142,0,0
-308,-118,0,0,0,0,0,0,0,0,0,-1,916,1142,0,0
-301,-118,0,0,0,0,0,0,0,0,0,-1,923,1142,0,0
-294,-118,0,0,0,0,0,0,0,0,0,-1,930,1142,0,0
-287,-118,0,0,0,0,0,0,0,0,0,-1,937,1142,0,0
-280,-118,0,0,0,0,0,0,0,0,0,-1,944,1142,0,0
-273,-118,0,0,0,0,0,0,0,0,0,-1,951,1142,0,0
-266,-118,0,0,0,0,0,0,0,0,0,-1,958,1142,0,0
-259,-118,0,0,0,0,0,0,0,0,0,-1,965,1142,0,0
-252,-118,0,0,0,0,0,0,0,0,0,-1,972,1142,0,0
-245,-118,0,0,0,0,0,0,0,0,0,-1,979,1142,0,0
-238,-118,0,0,0,0,0,0,0,0,0,-1,986,1142,0,0
-231,-118,0,0,0,0,0,0,0,0,0,-1,993,1142,0,0
-224,-118,0,0,0,0,0,0,0,0,0,-1,1000,1142,0,0
-217,-118,0,0,0,0,0,0,0,0,0,-1,1007,1142,0,0
-210,-118,0,0,0,0,0,0,0,0,0,-1,1014,1142,0,0
-203,-118,0,0,0,0,0,0,0,0,0,-1,1021,1142,0,0
-196,-118,0,0,0,0,0,0,0,0,0,-1,1028,1142,0,0
-189,-118,0,0,0,0,0,0,0,0,0,-1,1035,1142,0,0
-182,-118,0,0,0,0,0,0,0,0,0,-1,1042,1142,0,0
-175,-118,0,0,0,0,0,0,0,0,0,-1,1049,1142,0,0
-168,-118,0,0,0,0,0,0,0,0,0,-1,1056,1142,0,0
-161,-118,0,0,0,0,0,0,0,0,0,-1,1063,1142,0,0
-154,-118,0,0,0,0,0,0,0,0,0,-1,1070,1142,0,0
-147,-118,0,0,0,0,0,0,0,0,0,-1,1077,1142,0,0
-140,-118,0,0,0,0,0,0,0,0,0,-1,1084,1142,0,0
-133,-118,0,0,0,0,0,0,0,0,0,-1,1091,1142,0,0
-126,-118,0,0,0,0,0,0,0,0,0,-1,1098,1142,0,0
-119,-118,0,0,0,0,0,0,0,0,0,-1,1105,1142,0,0
-112,-118,0,0,0,0,0,0,0,0,0,-1,1112,1142,0,0
-105,-118,0,0,0,0,0,0,0,0,0,-1,1119,1142,0,0
-98,-118,0,0,0,0,0,0,0,0,0,-1,1126,1142,0,0
-91,-118,0,0,0,0,0,0,0,0,0,-1,1133,1142,0,0
-84,-118,0,0,0,0,0,0,0,0,0,-1,1140,1142,0,0
-77,-118,0,0,0,0,0,0,0,0,0,-1,1147,1142,0,0
-70,-118,0,0,0,0,0,0,0,0,0,-1,1154,1142,0,0
-63,-118,0,0,0,0,0,0,0,0,0,-1,1161,1142,0,0
-56,-118,0,0,0,0,0,0,0,0,0,-1,1168,1142,0,0
-49,-118,0,0,0,0,0,0,0,0,0,-1,1175,1142,0,0
-42,-118,0,0,0,0,0,0,0,0,0,-1,1182,1142,0,0
-35,-118,0,0,0,0,0,0,0,0,0,-1,1189,1142,0,0
-28,-118,0,0,0,0,0,0,0,0,0,-1,1196,1142,0,0
-21,-118,0,0,0,0,0,0,0,0,0,-1,1203,1142,0,0
-14,-118,0,0,0,0,0,0,0,0,0,-1,1210,1142,0,0
-7,-118,0,0,0,0,0,0,0,0,0,-1,1217,1142,0,0
0,-118,0,0,0,0,0,0,0,0,0,-1,1224,1142,0,0
7,-118,0,0,0,0,0,0,0,0,0,-1,1231,1142,0,0
14,-118,0,0,0,0,0,0,0,0,0,-1,1238,1142,0,0
21,-118,0,0,0,0,0,0,0,0,0,-1,1245,1142,0,0
28,-118,0,0,0,0,0,0,0,0,0,-1,1252,1142,0,0
35,-118,0,0,0,0,0,0,0,0,0,-1,1259,1142,0,0
42,-118,0,0,0,0,0,0,0,0,0,-1,1266,1142,0,0
49,-118,0,0,0,0,0,0,0,0,0,-1,1273,1142,0,0
56,-118,0,0,0,0,0,0,0,0,0,-1,1280,1142,0,0
63,-118,0,0,0,0,0,0,0,0,0,-1,1287,1142,0,0
70,-118,0,0,0,0,0,0,0,0,0,-1,1294,1142,0,0
77,-118,0,0,0,0,0,0,0,0,0,-1,1301,1142,0,0
84,-118,0,0,0,0,0,0,0,0,0,-1,1308,1142,0,0
91,-118,0,0,0,0,0,0,0,0,0,-1,1315,1142,0,0
98,-118,0,0,0,0,0,0,0,0,0,-1,1322,1142,0,0
105,-118,0,0,0,0,0,0,0,0,0,-1,1329,1142,0,0
112,-118,0,0,0,0,0,0,0,0,0,-1,1336,1142,0,0
119,-118,0,0,0,0,0,0,0,0,0,-1,1343,1142,0,0
126,-118,0,0,0,0,0,0,0,0,0,-1,1350,1142,0,0
133,-118,0,0,0,0,0,0,0,0,0,-1,1357,1142,0,0
140,-118,0,0,0,0,0,0,0,0,0,-1,1364,1142,0,0
147,-118,0,0,0,0,0,0,0,0,0,-1,1371,1142,0,0
154,-118,0,0,0,0,0,0,0,0,0,-1,1378,1142,0,0
161,-118,0,0,0,0,0,0,0,0,0,-1,1385,1142,0,0
168,-118,0,0,0,0,0,0,0,0,0,-1,1392,1142,0,0
175,-118,0,0,0,0,0,0,0,0,0,-1,1399,1142,0,0
182,-118,0,0,0,0,0,0,0,0,0,-1,1406,1142,0,0
189,-118,0,0,0,0,0,0,0,0,0,-1,1413,1142,0,0
196,-118,0,0,0,0,0,0,0,0,0,-1,1420,1142,0,0
203,-118,0,0,0,0,0,0,0,0,0,-1,1427,1142,0,0
210,-118,0,0,0,0,0,0,0,0,0,-1,1434,1142,0,0
217,-118,0,0,0,0,0,0,0,0,0,-1,1441,1142,0,0
224,-118,0,0,0,0,0,0,0,0,0,-1,1448,1142,0,0
231,-118,0,0,0,0,0,0,0,0,0,-1,1455,1142,0,0
238,-118,0,0,0,0,0,0,0,0,0,-1,1462,1142,0,0
245,-118,0,0,0,0,0,0,0,0,0,-1,1469,1142,0,0
252,-118,0,0,0,0,0,0,0,0,0,-1,1476,1142,0,0
259,-118,0,0,0,0,0,0,0,0,0,-1,1483,1142,0,0
266,-118,0,0,0,0,0,0,0,0,0,-1,1490,1142,0,0
273,-118,0,0,0,0,0,0,0,0,0,-1,1497,1142,0,0
280,-118,0,0,0,0,0,0,0,0,0,-1,1504,1142,0,0
287,-118,0,0,0,0,0,0,0,0,0,-1,1511,1142,0,0
294,-118,0,0,0,0,0,0,0,0,0,-1,1518,1142,0,0
301,-118,0,0,0,0,0,0,0,0,0,-1,1525,1142,0,0
308,-118,0,0,0,0,0,0,0,0,0,-1,1532,1142,0,0
315,-118,0,0,0,0,0,0,0,0,0,-1,1539,1142,0,0
322,-118,0,0,0,0,0,0,0,0,0,-1,1546,1142,0,0
329,-118,0,0,0,0,0,0,0,0,0,-1,1553,1142,0,0
336,-118,0,0,0,0,0,0,0,0,0,-1,1560,1142,0,0
343,-118,0,0,0,0,0,0,0,0,0,-1,1567,1142,0,0
350,-118,0,0,0,0,0,0,0,0,0,-1,1574,1142,0,0
357,-118,0,0,0,0,0,0,0,0,0,-1,1581,1142,0,0
364,-118,0,0,0,0,0,0,0,0,0,-1,1588,1142,0,0
371,-118,0,0,0,0,0,0,0,0,0,-1,1595,1142,0,0
378,-118,0,0,0,0,0,0,0,0,0,-1,1602,1142,0,0
385,-118,0,0,0,0,0,0,0,0,0,-1,1609,1142,0,0
392,-118,0,0,0,0,0,0,0,0,0,-1,1616,1142,0,0
399,-118,0,0,0,0,0,0,0,0,0,-1,1623,1142,0,0
406,-118,0,0,0,0,0,0,0,0,0,-1,1630,1142,0,0
413,-118,0,0,0,0,0,0,0,0,0,-1,1637,1142,0,0
420,-118,0,0,0,0,0,0,0,0,0,-1,1644,1142,0,0
427,-118,0,0,0,0,0,0,0,0,0,-1,1651,1142,0,0
434,-118,0,0,0,0,0,0,0,0,0,-1,1658,1142,0,0
441,-118,0,0,0,0,0,0,0,0,0,-1,1665,1142,0,0
448,-118,0,0,0,0,0,0,0,0,0,-1,1672,1142,0,0
455,-118,0,0,0,0,0,0,0,0,0,-1,1679,1142,0,0
462,-118,0,0,0,0,0,0,0,0,0,-1,1686,1142,0,0
469,-118,0,0,0,0,0,0,0,0,0,-1,1693,1142,0,0
476,-118,0,0,0,0,0,0,0,0,0,-1,1700,1142,0,0
483,-118,0,0,0,0,0,0,0,0,0,-1,1707,1142,0,0
490,-118,0,0,0,0,0,0,0,0,0,-1,1714,1142,0,0
497,-118,0,0,0,0,0,0,0,0,0,-1,1721,1142,0,0
504,-118,0,0,0,0,0,0,0,0,0,-1,1728,1142,0,0
511,-118,0,0,0,0,0,0,0,0,0,-1,1735,1142,0,0
518,-118,0,0,0,0,0,0,0,0,0,-1,1742,1142,0,0
525,-118,0,0,0,0,0,0,0,0,0,-1,1749,1142,0,0
532,-118,0,0,0,0,0,0,0,0,0,-1,1756,1142,0,0
539,-118,0,0,0,0,0,0,0,0,0,-1,1763,1142,0,0
546,-118,0,0,0,0,0,0,0,0,0,-1,1770,1142,0,0
553,-118,0,0,0,0,0,0,0,0,0,-1,1777,1142,0,0
560,-118,0,0,0,0,0,0,0,0,0,-1,1784,1142,0,0
567,-118,0,0,0,0,0,0,0,0,0,-1,1791,1142,0,0
574,-118,0,0,0,0,0,0,0,0,0,-1,1798,1142,0,0
581,-118,0,0,0,0,0,0,0,0,0,-1,1805,1142,0,0
588,-118,0,0,0,0,0,0,0,0,0,-1,1812,1142,0,0
595,-118,0,0,0,0,0,0,0,0,0,-1,1819,1142,0,0
602,-118,0,0,0,0,0,0,0,0,0,-1,1826,1142,0,0
609,-118,0,0,0,0,0,0,0,0,0,-1,1833,1142,0,0
616,-118,0,0,0,0,0,0,0,0,0,-1,1840,1142,0,0
623,-118,0,0,0,0,0,0,0,0,0,-1,1847,1142,0,0
630,-118,0,0,0,0,0,0,0,0,0,-1,1854,1142,0,0
637,-118,0,0,0,0,0,0,0,0,0,-1,1861,1142,0,0
644,-118,64.1343,2.52551,-9.53392e-05,-0.000198966,0.00121868,0.00107263,-0.00136693,0.764153,0.00141189,0.0393035,1868,1142,64.1343,-2.52556
651,-118,64.1812,2.46753,-0.000258875,-6.02228e-05,0.00164705,0.0014905,-0.00180959,0.815514,0.00190827,0.0388432,1875,1142,64.1812,-2.46748
658,-118,64.2314,2.49438,-0.00013162,-0.000131812,0.00164053,0.00150882,-0.00177225,0.785369,0.00189636,0.0410227,1882,1142,64.2315,-2.49436
665,-118,64.2834,2.38818,0.000107214,-0.000239683,0.00139708,0.00134157,-0.00147404,0.723639,0.00162619,0.042021,1889,1142,64.2834,-2.38813
672,-118,64.0344,2.6311,0.000434062,-0.000336825,0.000931638,0.00105684,-0.000959606,0.589257,0.00116465,0.0452441,1896,1142,64.0344,-2.63111
679,-118,64.0745,2.75427,0.000593828,-0.000641324,0.000494309,0.00076729,-0.000814786,0.337493,0.00091355,0.0404426,1903,1142,64.0744,-2.75423
686,-118,64.0901,2.7699,0.000872527,-0.000773892,0.000240451,0.000906925,-0.00080829,0.142092,0.000990825,0.034722,1910,1142,64.0901,-2.76989
693,-118,64.0328,2.60608,0.000935948,-0.00082611,0.000141841,0.000947293,-0.000837454,0.0798123,0.00103107,0.0326686,1917,1142,64.0328,-2.60602
700,-118,64.106,2.55542,0.000916523,-0.000853145,0.000138276,0.000927262,-0.000863885,0.0775096,0.00103434,0.0207569,1924,1142,64.106,-2.55541
707,-118,64.1783,2.59363,0,0,0,0,0,0,0,-1,1931,1142,64.1784,-2.59363
714,-118,50.4819,8.53809,0,0,0,0,0,0,0,-1,1938,1142,50.4819,-8.53809
721,-118,58.2102,8.88684,0,0,0,0,0,0,0,-1,1945,1142,58.2102,-8.88683
728,-118,58.2252,8.35254,0.000207118,3.01956e-05,0.000390175,0.000518734,-0.00028142,0.673922,0.000468693,0.0227234,1952,1142,58.2253,-8.35252
735,-118,58.208,7.86719,7.45432e-05,0.000226648,0.000571393,0.000727027,-0.000425836,0.85156,0.000673135,0.0217622,1959,1142,58.208,-7.86722
742,-118,58.178,7.35938,-9.10337e-05,0.00064459,0.000977235,0.00132094,-0.000767384,0.965388,0.00121973,0.0308284,1966,1142,58.1779,-7.35938
749,-118,58.0515,6.83972,-0.000394462,0.00142193,0.00147176,0.00224315,-0.00121568,1.06184,0.00202612,0.023698,1973,1142,58.0515,-6.83973
756,-118,58.0415,6.28003,-0.000609867,0.00349598,0.00133222,0.00389036,-0.00100425,1.28298,0.00298517,0.0184458,1980,1142,58.0416,-6.28003
763,-118,58.0801,5.79761,-0.000136054,0.0070902,0.000340508,0.00710621,-0.000152064,1.52381,0.00478897,0.0108175,1987,1142,58.0801,-5.7976
770,-118,57.9963,5.36047,0.000844785,0.0116905,-0.00120479,0.0118227,0.000712564,-1.46149,0.00765532,0.0148748,1994,1142,57.9964,-5.36041
777,-118,57.8511,4.89941,0.00243202,0.0176218,-0.00345351,0.0183701,0.00168371,-1.35741,0.0117259,0.0330938,2001,1142,57.8512,-4.89944
784,-118,57.8521,4.40198,0.00481443,0.0255613,-0.00674844,0.0275633,0.0028125,-1.28242,0.0175135,0.0486978,2008,1142,57.8521,-4.40202
791,-118,57.9182,3.92603,0,0,0,0,0,0,0,-1,2015,1142,57.9182,-3.92607
798,-118,61.0322,2.31958,0,0,0,0,0,0,0,-1,2022,1142,61.0321,-2.31953
805,-118,61.6917,1.25403,0,0,0,0,0,0,0,-1,2029,1142,61.6916,-1.25401
812,-118,59.0762,-1.5155,0,0,0,0,0,0,0,-1,2036,1142,59.0762,1.51555
-700,-125,0,0,0,0,0,0,0,0,0,-1,524,1149,0,0
-693,-125,-44.0928,3.42371,0,0,0,0,0,0,0,-1,531,1149,-44.0928,-3.4237
-686,-125,-44.2103,4.34509,0,0,0,0,0,0,0,-1,538,1149,-44.2103,-4.34511
-679,-125,-44.3963,5.36316,0,0,0,0,0,0,0,-1,545,1149,-44.3963,-5.36312
-672,-125,-42.8832,-6.31787,0,0,0,0,0,0,0,-1,552,1149,-42.8832,6.31787
-665,-125,-42.1402,-4.89905,0,0,0,0,0,0,0,-1,559,1149,-42.1402,4.8991
-658,-125,-41.9905,1.21936,0,0,0,0,0,0,0,-1,566,1149,-41.9906,-1.21936
-651,-125,-41.8568,1.90247,0.0257231,-0.0175249,0.00804372,0.0271707,-0.0189725,0.178061,0.0267806,0.046865,573,1149,-41.8568,-1.90241
-644,-125,-41.8509,2.47241,0.0174186,-0.0103762,0.00531577,0.0184006,-0.0113581,0.182665,0.0173408,0.0318864,580,1149,-41.8509,-2.47243
-637,-125,-41.9933,3.02795,0.010296,-0.00465215,0.0030898,0.0109095,-0.00526564,0.196003,0.00952634,0.0143742,587,1149,-41.9933,-3.02797
-630,-125,-42.0026,3.55518,0.00500119,-0.000886128,0.000900667,0.00513589,-0.00102083,0.148462,0.00381007,0.0145097,594,1149,-42.0026,-3.55514
-623,-125,-42.0031,4.11633,0.00190201,0.000932276,-0.000535877,0.00213982,0.000694468,-0.417664,0.00126053,0.0130859,601,1149,-42.0031,-4.11628
-616,-125,-42.0546,4.61438,0.00110986,0.000974233,-0.000869326,0.00191401,0.00017008,-0.746473,0.00122326,0.0299636,608,1149,-42.0546,-4.61439
-609,-125,-42.2414,5.2666,0,0,0,0,0,0,0,-1,615,1149,-42.2414,-5.2666
-602,-125,-42.1886,5.81836,0,0,0,0,0,0,0,-1,622,1149,-42.1886,-5.81842
-595,-125,-42.3822,6.49243,0,0,0,0,0,0,0,-1,629,1149,-42.3822,-6.49244
-588,-125,-41.0207,6.98767,0,0,0,0,0,0,0,-1,636,1149,-41.0207,-6.98766
-581,-125,-26.4055,4.83203,0,0,0,0,0,0,0,-1,643,1149,-26.4055,-4.83204
-574,-125,-37.674,0.655151,0,0,0,0,0,0,0,-1,650,1149,-37.674,-0.655195
-567,-125,-48.36,0.719604,0,0,0,0,0,0,0,-1,657,1149,-48.36,-0.719581
-560,-125,-48.3799,0.817993,-0.000729377,-0.000929205,0.000700919,-0.000121286,-0.0015373,0.714602,0.000986922,0.0392297,664,1149,-48.3799,-0.818
-553,-125,-48.386,0.845703,-0.00141461,-0.00100539,0.000767089,-0.000416091,-0.00200391,0.915731,0.0012211,0.0406434,671,1149,-48.386,-0.845759
-546,-125,-48.3526,0.512573,-0.00230852,-0.000911076,0.00106815,-0.000333413,-0.00288618,1.07504,0.00182317,0.0410631,678,1149,-48.3526,-0.512619
-539,-125,-48.1723,0.536499,-0.00162165,-0.00161748,0.00212682,0.000507261,-0.00374639,0.785889,0.00268271,0.0422051,685,1149,-48.1723,-0.536557
-532,-125,-48.2949,0.781738,-0.000426679,-0.00260349,0.00375962,0.00239892,-0.00542908,0.644501,0.00463099,0.0392172,692,1149,-48.2949,-0.781699
-525,-125,-48.515,1.00781,0.000525974,-0.00353144,0.00580283,0.0046445,-0.00764997,0.617236,0.00716856,0.0416138,699,1149,-48.515,-1.00781
-518,-125,0,0,0,0,0,0,0,0,0,-1,706,1149,0,0
-511,-125,0,0,0,0,0,0,0,0,0,-1,713,1149,0,0
-504,-125,0,0,0,0,0,0,0,0,0,-1,720,1149,0,0
-497,-125,0,0,0,0,0,0,0,0,0,-1,727,1149,0,0
-490,-125,0,0,0,0,0,0,0,0,0,-1,734,1149,0,0
-483,-125,0,0,0,0,0,0,0,0,0,-1,741,1149,0,0
-476,-125,0,0,0,0,0,0,0,0,0,-1,748,1149,0,0
-469,-125,0,0,0,0,0,0,0,0,0,-1,755,1149,0,0
-462,-125,0,0,0,0,0,0,0,0,0,-1,762,1149,0,0
-455,-125,0,0,0,0,0,0,0,0,0,-1,769,1149,0,0
-448,-125,0,0,0,0,0,0,0,0,0,-1,776,1149,0,0
-441,-125,0,0,0,0,0,0,0,0,0,-1,783,1149,0,0
-434,-125,0,0,0,0,0,0,0,0,0,-1,790,1149,0,0
-427,-125,0,0,0,0,0,0,0,0,0,-1,797,1149,0,0
-420,-125,0,0,0,0,0,0,0,0,0,-1,804,1149,0,0
-413,-125,0,0,0,0,0,0,0,0,0,-1,811,1149,0,0
-406,-125,0,0,0,0,0,0,0,0,0,-1,818,1149,0,0
-399,-125,0,0,0,0,0,0,0,0,0,-1,825,1149,0,0
-392,-125,0,0,0,0,0,0,0,0,0,-1,832,1149,0,0
-385,-125,0,0,0,0,0,0,0,0,0,-1,839,1149,0,0
-378,-125,0,0,0,0,0,0,0,0,0,-1,846,1149,0,0
-371,-125,0,0,0,0,0,0,0,0,0,-1,853,1149,0,0
-364,-125,0,0,0,0,0,0,0,0,0,-1,860,1149,0,0
-357,-125,0,0,0,0,0,0,0,0,0,-1,867,1149,0,0
-350,-125,0,0,0,0,0,0,0,0,0,-1,874,1149,0,0
-343,-125,0,0,0,0,0,0,0,0,0,-1,881,1149,0,0
-336,-125,0,0,0,0,0,0,0,0,0,-1,888,1149,0,0
-329,-125,0,0,0,0,0,0,0,0,0,-1,895,1149,0,0
-322,-125,0,0,0,0,0,0,0,0,0,-1,902,1149,0,0
-315,-125,0,0,0,0,0,0,0,0,0,-1,909,1149,0,0
-308,-125,0,0,0,0,0,0,0,0,0,-1,916,1149,0,0
-301,-125,0,0,0,0,0,0,0,0,0,-1,923,1149,0,0
-294,-125,0,0,0,0,0,0,0,0,0,-1,930,1149,0,0
-287,-125,0,0,0,0,0,0,0,0,0,-1,937,1149,0,0
-280,-125,0,0,0,0,0,0,0,0,0,-1,944,1149,0,0
-273,-125,0,0,0,0,0,0,0,0,0,-1,951,1149,0,0
-266,-125,0,0,0,0,0,0,0,0,0,-1,958,1149,0,0
-259,-125,0,0,0,0,0,0,0,0,0,-1,965,1149,0,0
-252,-125,0,0,0,0,0,0,0,0,0,-1,972,1149,0,0
-245,-125,0,0,0,0,0,0,0,0,0,-1,979,1149,0,0
-238,-125,0,0,0,0,0,0,0,0,0,-1,986,1149,0,0
-231,-125,0,0,0,0,0,0,0,0,0,-1,993,1149,0,0
-224,-125,0,0,0,0,0,0,0,0,0,-1,1000,1149,0,0
-217,-125,0,0,0,0,0,0,0,0,0,-1,1007,1149,0,0
-210,-125,0,0,0,0,0,0,0,0,0,-1,1014,1149,0,0
-203,-125,0,0,0,0,0,0,0,0,0,-1,1021,1149,0,0
-196,-125,0,0,0,0,0,0,0,0,0,-1,1028,1149,0,0
-189,-125,0,0,0,0,0,0,0,0,0,-1,1035,1149,0,0
-182,-125,0,0,0,0,0,0,0,0,0,-1,1042,1149,0,0
-175,-125,0,0,0,0,0,0,0,0,0,-1,1049,1149,0,0
-168,-125,0,0,0,0,0,0,0,0,0,-1,1056,1149,0,0
-161,-125,0,0,0,0,0,0,0,0,0,-1,1063,1149,0,0
-154,-125,0,0,0,0,0,0,0,0,0,-1,1070,1149,0,0
-147,-125,0,0,0,0,0,0,0,0,0,-1,1077,1149,0,0
-140,-125,0,0,0,0,0,0,0,0,0,-1,1084,1149,0,0
-133,-125,0,0,0,0,0,0,0,0,0,-1,1091,1149,0,0
-126,-125,0,0,0,0,0,0,0,0,0,-1,1098,1149,0,0
-119,-125,0,0,0,0,0,0,0,0,0,-1,1105,1149,0,0
-112,-125,0,0,0,0,0,0,0,0,0,-1,1112,1149,0,0
-105,-125,0,0,0,0,0,0,0,0,0,-1,1119,1149,0,0
-98,-125,0,0,0,0,0,0,0,0,0,-1,1126,1149,0,0
-91,-125,0,0,0,0,0,0,0,0,0,-1,1133,1149,0,0
-84,-125,0,0,0,0,0,0,0,0,0,-1,1140,1149,0,0
-77,-125,0,0,0,0,0,0,0,0,0,-1,1147,1149,0,0
-70,-125,0,0,0,0,0,0,0,0,0,-1,1154,1149,0,0
-63,-125,0,0,0,0,0,0,0,0,0,-1,1161,1149,0,0
-56,-125,0,0,0,0,0,0,0,0,0,-1,1168,1149,0,0
-49,-125,0,0,0,0,0,0,0,0,0,-1,1175,1149,0,0
-42,-125,0,0,0,0,0,0,0,0,0,-1,1182,1149,0,0
-35,-125,0,0,0,0,0,0,0,0,0,-1,1189,1149,0,0
-28,-125,0,0,0,0,0,0,0,0,0,-1,1196,1149,0,0
-21,-125,0,0,0,0,0,0,0,0,0,-1,1203,1149,0,0
-14,-125,0,0,0,0,0,0,0,0,0,-1,1210,1149,0,0
-7,-125,0,0,0,0,0,0,0,0,0,-1,1217,1149,0,0
0,-125,0,0,0,0,0,0,0,0,0,-1,1224,1149,0,0
7,-125,0,0,0,0,0,0,0,0,0,-1,1231,1149,0,0
14,-125,0,0,0,0,0,0,0,0,0,-1,1238,1149,0,0
21,-125,0,0,0,0,0,0,0,0,0,-1,1245,1149,0,0
28,-125,0,0,0,0,0,0,0,0,0,-1,1252,1149,0,0
35,-125,0,0,0,0,0,0,0,0,0,-1,1259,1149,0,0
42,-125,0,0,0,0,0,0,0,0,0,-1,1266,1149,0,0
49,-125,0,0,0,0,0,0,0,0,0,-1,1273,1149,0,0
56,-125,0,0,0,0,0,0,0,0,0,-1,1280,1149,0,0
63,-125,0,0,0,0,0,0,0,0,0,-1,1287,1149,0,0
70,-125,0,0,0,0,0,0,0,0,0,-1,1294,1149,0,0
77,-125,0,0,0,0,0,0,0,0,0,-1,1301,1149,0,0
84,-125,0,0,0,0,0,0,0,0,0,-1,1308,1149,0,0
91,-125,0,0,0,0,0,0,0,0,0,-1,1315,1149,0,0
98,-125,0,0,0,0,0,0,0,0,0,-1,1322,1149,0,0
105,-125,0,0,0,0,0,0,0,0,0,-1,1329,1149,0,0
112,-125,0,0,0,0,0,0,0,0,0,-1,1336,1149,0,0
119,-125,0,0,0,0,0,0,0,0,0,-1,1343,1149,0,0
126,-125,0,0,0,0,0,0,0,0,0,-1,1350,1149,0,0
133,-125,0,0,0,0,0,0,0,0,0,-1,1357,1149,0,0
140,-125,0,0,0,0,0,0,0,0,0,-1,1364,1149,0,0
147,-125,0,0,0,0,0,0,0,0,0,-1,1371,1149,0,0
154,-125,0,0,0,0,0,0,0,0,0,-1,1378,1149,0,0
161,-125,0,0,0,0,0,0,0,0,0,-1,1385,1149,0,0
168,-125,0,0,0,0,0,0,0,0,0,-1,1392,1149,0,0
175,-125,0,0,0,0,0,0,0,0,0,-1,1399,1149,0,0
182,-125,0,0,0,0,0,0,0,0,0,-1,1406,1149,0,0
189,-125,0,0,0,0,0,0,0,0,0,-1,1413,1149,0,0
196,-125,0,0,0,0,0,0,0,0,0,-1,1420,1149,0,0
203,-125,0,0,0,0,0,0,0,0,0,-1,1427,1149,0,0
210,-125,0,0,0,0,0,0,0,0,0,-1,1434,1149,0,0
217,-125,0,0,0,0,0,0,0,0,0,-1,1441,1149,0,0
224,-125,0,0,0,0,0,0,0,0,0,-1,1448,1149,0,0
231,-125,0,0,0,0,0,0,0,0,0,-1,1455,1149,0,0
238,-125,0,0,0,0,0,0,0,0,0,-1,1462,1149,0,0
245,-125,0,0,0,0,0,0,0,0,0,-1,1469,1149,0,0
252,-125,0,0,0,0,0,0,0,0,0,-1,1476,1149,0,0
259,-125,0,0,0,0,0,0,0,0,0,-1,1483,1149,0,0
266,-125,0,0,0,0,0,0,0,0,0,-1,1490,1149,0,0
273,-125,0,0,0,0,0,0,0,0,0,-1,1497,1149,0,0
280,-125,0,0,0,0,0,0,0,0,0,-1,1504,1149,0,0
287,-125,0,0,0,0,0,0,0,0,0,-1,1511,1149,0,0
294,-125,0,0,0,0,0,0,0,0,0,-1,1518,1149,0,0
301,-125,0,0,0,0,0,0,0,0,0,-1,1525,1149,0,0
308,-125,0,0,0,0,0,0,0,0,0,-1,1532,1149,0,0
315,-125,0,0,0,0,0,0,0,0,0,-1,1539,1149,0,0
322,-125,0,0,0,0,0,0,0,0,0,-1,1546,1149,0,0
329,-125,0,0,0,0,0,0,0,0,0,-1,1553,1149,0,0
336,-125,0,0,0,0,0,0,0,0,0,-1,1560,1149,0,0
343,-125,0,0,0,0,0,0,0,0,0,-1,1567,1149,0,0
350,-125,0,0,0,0,0,0,0,0,0,-1,1574,1149,0,0
357,-125,0,0,0,0,0,0,0,0,0,-1,1581,1149,0,0
364,-125,0,0,0,0,0,0,0,0,0,-1,1588,1149,0,0
371,-125,0,0,0,0,0,0,0,0,0,-1,1595,1149,0,0
378,-125,0,0,0,0,0,0,0,0,0,-1,1602,1149,0,0
385,-125,0,0,0,0,0,0,0,0,0,-1,1609,1149,0,0
392,-125,0,0,0,0,0,0,0,0,0,-1,1616,1149,0,0
399,-125,0,0,0,0,0,0,0,0,0,-1,1623,1149,0,0
406,-125,0,0,0,0,0,0,0,0,0,-1,1630,1149,0,0
413,-125,0,0,0,0,0,0,0,0,0,-1,1637,1149,0,0
420,-125,0,0,0,0,0,0,0,0,0,-1,1644,1149,0,0
427,-125,0,0,0,0,0,0,0,0,0,-1,1651,1149,0,0
434,-125,0,0,0,0,0,0,0,0,0,-1,1658,1149,0,0
441,-125,0,0,0,0,0,0,0,0,0,-1,1665,1149,0,0
448,-125,0,0,0,0,0,0,0,0,0,-1,1672,1149,0,0
455,-125,0,0,0,0,0,0,0,0,0,-1,1679,1149,0,0
462,-125,0,0,0,0,0,0,0,0,0,-1,1686,1149,0,0
469,-125,0,0,0,0,0,0,0,0,0,-1,1693,1149,0,0
476,-125,0,0,0,0,0,0,0,0,0,-1,1700,1149,0,0
483,-125,0,0,0,0,0,0,0,0,0,-1,1707,1149,0,0
490,-125,0,0,0,0,0,0,0,0,0,-1,1714,1149,0,0
497,-125,0,0,0,0,0,0,0,0,0,-1,1721,1149,0,0
504,-125,0,0,0,0,0,0,0,0,0,-1,1728,1149,0,0
511,-125,0,0,0,0,0,0,0,0,0,-1,1735,1149,0,0
518,-125,0,0,0,0,0,0,0,0,0,-1,1742,1149,0,0
525,-125,0,0,0,0,0,0,0,0,0,-1,1749,1149,0,0
532,-125,0,0,0,0,0,0,0,0,0,-1,1756,1149,0,0
539,-125,0,0,0,0,0,0,0,0,0,-1,1763,1149,0,0
546,-125,0,0,0,0,0,0,0,0,0,-1,1770,1149,0,0
553,-125,0,0,0,0,0,0,0,0,0,-1,1777,1149,0,0
560,-125,0,0,0,0,0,0,0,0,0,-1,1784,1149,0,0
567,-125,0,0,0,0,0,0,0,0,0,-1,1791,1149,0,0
574,-125,0,0,0,0,0,0,0,0,0,-1,1798,1149,0,0
581,-125,0,0,0,0,0,0,0,0,0,-1,1805,1149,0,0
588,-125,0,0,0,0,0,0,0,0,0,-1,1812,1149,0,0
595,-125,0,0,0,0,0,0,0,0,0,-1,1819,1149,0,0
602,-125,0,0,0,0,0,0,0,0,0,-1,1826,1149,0,0
609,-125,0,0,0,0,0,0,0,0,0,-1,1833,1149,0,0
616,-125,0,0,0,0,0,0,0,0,0,-1,1840,1149,0,0
623,-125,0,0,0,0,0,0,0,0,0,-1,1847,1149,0,0
630,-125,0,0,0,0,0,0,0,0,0,-1,1854,1149,0,0
637,-125,0,0,0,0,0,0,0,0,0,-1,1861,1149,0,0
644,-125,64.1882,2.21008,0.000624679,-0.00191582,0.00095644,0.000944495,-0.00223564,0.322694,0.00188582,0.0418279,1868,1149,64.1883,-2.21004
651,-125,64.1907,2.29822,0.00026759,-0.0014868,0.00153906,0.00116189,-0.0023811,0.526382,0.00208552,0.0413656,1875,1149,64.1907,-2.29827
658,-125,63.9949,2.47717,0.000236233,-0.00125829,0.00162808,0.00128035,-0.00230241,0.570249,0.00209638,0.0428439,1882,1149,63.9948,-2.47716
665,-125,63.9784,2.521,0.000347489,-0.00105335,0.00142083,0.00123117,-0.00193703,0.556397,0.00184423,0.0438836,1889,1149,63.9784,-2.52103
672,-125,64.0546,2.57739,0.000576785,-0.000835527,0.000945862,0.00105102,-0.00130976,0.464746,0.00136572,0.0450427,1896,1149,64.0545,-2.57744
679,-125,64.0947,2.70972,0.000667472,-0.000952364,0.000527306,0.000824,-0.00110889,0.28856,0.00111999,0.0386471,1903,1149,64.0947,-2.70974
686,-125,64.1152,2.74353,0.000966664,-0.000843649,0.000260735,0.00100347,-0.000880454,0.140231,0.00108846,0.0351738,1910,1149,64.1152,-2.74356
693,-125,64.0656,2.66296,0.00101007,-0.000782654,0.000184027,0.00102877,-0.00080135,0.101245,0.00105933,0.0308884,1917,1149,64.0655,-2.66299
700,-125,64.1023,2.62085,0.000935011,-0.000722026,0.000217416,0.000963063,-0.000750078,0.128315,0.000991627,0.0173688,1924,1149,64.1023,-2.62085
707,-125,64.1578,2.59473,0,0,0,0,0,0,0,-1,1931,1149,64.1578,-2.59477
714,-125,54.8745,9.21375,0,0,0,0,0,0,0,-1,1938,1149,54.8746,-9.21371
721,-125,57.6488,8.89087,0,0,0,0,0,0,0,-1,1945,1149,57.6488,-8.89085
728,-125,57.6198,8.44043,0.000318079,0.000235142,0.000280791,0.000560448,-7.22628e-06,0.712086,0.000376064,0.0212353,1952,1149,57.6197,-8.44041
735,-125,57.6475,7.96045,0.000296353,0.000332266,0.000453812,0.000768476,-0.000139857,0.805172,0.000564739,0.0209902,1959,1149,57.6474,-7.9605
742,-125,57.6311,7.40186,0.000202179,0.000622218,0.000855954,0.00129354,-0.000469145,0.905703,0.00105414,0.0301841,1966,1149,57.6312,-7.40188
749,-125,57.5148,6.87231,-0.000125143,0.00133581,0.00136663,0.00215494,-0.000944273,1.03083,0.00183427,0.0279842,1973,1149,57.5148,-6.87232
756,-125,57.5005,6.28674,-0.000395837,0.00327269,0.00131417,0.00369488,-0.000818022,1.25995,0.00277639,0.0232612,1980,1149,57.5004,-6.28674
763,-125,57.5221,5.8053,-4.82444e-05,0.00650053,0.000538338,0.00654449,-9.2203e-05,1.48932,0.00439405,0.0127845,1987,1149,57.5221,-5.80525
770,-125,57.4536,5.30017,0.000662669,0.0105246,-0.00067777,0.0105709,0.000616307,-1.5025,0.00685111,0.0163152,1994,1149,57.4536,-5.30014
777,-125,57.3635,4.90332,0.00178549,0.0156401,-0.00247218,0.016068,0.00135758,-1.3994,0.0102894,0.0332275,2001,1149,57.3635,-4.90335
784,-125,57.3979,4.40002,0.00341769,0.0223978,-0.00511639,0.0236891,0.00212634,-1.32357,0.0151338,0.0492343,2008,1149,57.3979,-4.40005
791,-125,57.5437,3.85876,0,0,0,0,0,0,0,-1,2015,1149,57.5437,-3.85874
798,-125,61.4014,1.81689,0,0,0,0,0,0,0,-1,2022,1149,61.4013,-1.81688
805,-125,61.9558,1.15979,0,0,0,0,0,0,0,-1,2029,1149,61.9557,-1.15974
812,-125,53.4592,2.802,0,0,0,0,0,0,0,-1,2036,1149,53.4591,-2.80203
-700,-132,0,0,0,0,0,0,0,0,0,-1,524,1156,0,0
-693,-132,-43.6909,3.87305,0,0,0,0,0,0,0,-1,531,1156,-43.6909,-3.87309
-686,-132,-43.7546,4.71179,0,0,0,0,0,0,0,-1,538,1156,-43.7546,-4.71179
-679,-132,-42.8503,-7.104,0,0,0,0,0,0,0,-1,545,1156,-42.8503,7.10395
-672,-132,-42.1078,-5.67981,0.0649962,-0.0563012,0.0182095,0.0676709,-0.0589759,0.145841,0.073177,0.0489359,552,1156,-42.1078,5.67986
-665,-132,-41.3202,-4.28149,0.052417,-0.042738,0.0156581,0.0549273,-0.0452484,0.158972,0.0579264,0.0473005,559,1156,-41.3202,4.28153
-658,-132,-41.6794,0.777222,0,0,0,0,0,0,0,-1,566,1156,-41.6794,-0.777246
-651,-132,-41.4823,1.61084,0.0298197,-0.0213082,0.00957301,0.0315533,-0.0230419,0.179154,0.031648,0.042939,573,1156,-41.4823,-1.61084
-644,-132,-41.3259,2.4303,0.02048,-0.0132738,0.00658382,0.0217187,-0.0145125,0.185975,0.0210556,0.0244855,580,1156,-41.3259,-2.43028
-637,-132,-41.4047,2.99939,0.0122676,-0.00668395,0.00395458,0.0130597,-0.00747604,0.197681,0.0120015,0.0133421,587,1156,-41.4047,-2.99936
-630,-132,-41.4099,3.54199,0.00582267,-0.00191354,0.00139526,0.00606661,-0.00215749,0.173092,0.00492374,0.0111279,594,1156,-41.4099,-3.54195
-623,-132,-41.4361,4.13403,0.0015262,0.000671177,-0.000623849,0.00185496,0.000342412,-0.48501,0.00113978,0.0156452,601,1156,-41.4361,-4.13402
-616,-132,-41.4792,4.5658,0.000325348,0.000817439,-0.00139851,0.00199139,-0.0008486,-0.872474,0.00168333,0.0380985,608,1156,-41.4792,-4.56574
-609,-132,-41.4336,5.34302,0,0,0,0,0,0,0,-1,615,1156,-41.4336,-5.34303
-602,-132,-41.4637,5.84265,0,0,0,0,0,0,0,-1,622,1156,-41.4637,-5.84262
-595,-132,-41.605,6.49609,0,0,0,0,0,0,0,-1,629,1156,-41.6051,-6.49608
-588,-132,-41.2526,6.95642,0,0,0,0,0,0,0,-1,636,1156,-41.2526,-6.9564
-581,-132,-35.9343,6.42957,0,0,0,0,0,0,0,-1,643,1156,-35.9342,-6.42957
-574,-132,-33.2071,2.86963,0,0,0,0,0,0,0,-1,650,1156,-33.2071,-2.86963
-567,-132,-48.3809,0.777222,0,0,0,0,0,0,0,-1,657,1156,-48.3809,-0.777192
-560,-132,-48.4752,0.786499,-0.00117465,-0.0010126,0.00092699,-0.000163101,-0.00202415,0.828988,0.00129848,0.0363626,664,1156,-48.4752,-0.786539
-553,-132,-48.554,0.751099,-0.00178229,-0.00119099,0.00100092,-0.000442969,-0.00253031,0.929004,0.00156032,0.0386066,671,1156,-48.554,-0.751061
-546,-132,-48.5651,0.655151,-0.00268707,-0.00119069,0.00115969,-0.000558783,-0.00331898,1.07188,0.00205191,0.0405477,678,1156,-48.5651,-0.655142
-539,-132,-48.3522,0.585205,-0.00201432,-0.00188185,0.0018764,-7.05166e-05,-0.00382565,0.803041,0.00252726,0.0417287,685,1156,-48.3522,-0.585146
-532,-132,-48.2303,0.663696,-0.000745642,-0.00277473,0.00309182,0.00149383,-0.00501421,0.626864,0.00393639,0.039609,692,1156,-48.2303,-0.663747
-525,-132,-48.4058,0.986938,0.000298331,-0.00359976,0.0046448,0.00338644,-0.00668787,0.586746,0.0059196,0.0395123,699,1156,-48.4058,-0.9869
-518,-132,0,0,0,0,0,0,0,0,0,-1,706,1156,0,0
-511,-132,0,0,0,0,0,0,0,0,0,-1,713,1156,0,0
-504,-132,0,0,0,0,0,0,0,0,0,-1,720,1156,0,0
-497,-132,0,0,0,0,0,0,0,0,0,-1,727,1156,0,0
-490,-132,0,0,0,0,0,0,0,0,0,-1,734,1156,0,0
-483,-132,0,0,0,0,0,0,0,0,0,-1,741,1156,0,0
-476,-132,0,0,0,0,0,0,0,0,0,-1,748,1156,0,0
-469,-132,0,0,0,0,0,0,0,0,0,-1,755,1156,0,0
-462,-132,0,0,0,0,0,0,0,0,0,-1,762,1156,0,0
-455,-132,0,0,0,0,0,0,0,0,0,-1,769,1156,0,0
-448,-132,0,0,0,0,0,0,0,0,0,-1,776,1156,0,0
-441,-132,0,0,0,0,0,0,0,0,0,-1,783,1156,0,0
-434,-132,0,0,0,0,0,0,0,0,0,-1,790,1156,0,0
-427,-132,0,0,0,0,0,0,0,0,0,-1,797,1156,0,0
-420,-132,0,0,0,0,0,0,0,0,0,-1,804,1156,0,0
-413,-132,0,0,0,0,0,0,0,0,0,-1,811,1156,0,0
-406,-132,0,0,0,0,0,0,0,0,0,-1,818,1156,0,0
-399,-132,0,0,0,0,0,0,0,0,0,-1,825,1156,0,0
-392,-132,0,0,0,0,0,0,0,0,0,-1,832,1156,0,0
-385,-132,0,0,0,0,0,0,0,0,0,-1,839,1156,0,0
-378,-132,0,0,0,0,0,0,0,0,0,-1,846,1156,0,0
-371,-132,0,0,0,0,0,0,0,0,0,-1,853,1156,0,0
-364,-132,0,0,0,0,0,0,0,0,0,-1,860,1156,0,0
-357,-132,0,0,0,0,0,0,0,0,0,-1,867,1156,0,0
-350,-132,0,0,0,0,0,0,0,0,0,-1,874,1156,0,0
-343,-132,0,0,0,0,0,0,0,0,0,-1,881,1156,0,0
-336,-132,0,0,0,0,0,0,0,0,0,-1,888,1156,0,0
-329,-132,0,0,0,0,0,0,0,0,0,-1,895,1156,0,0
-322,-132,0,0,0,0,0,0,0,0,0,-1,902,1156,0,0
-315,-132,0,0,0,0,0,0,0,0,0,-1,909,1156,0,0
-308,-132,0,0,0,0,0,0,0,0,0,-1,916,1156,0,0
-301,-132,0,0,0,0,0,0,0,0,0,-1,923,1156,0,0
-294,-132,0,0,0,0,0,0,0,0,0,-1,930,1156,0,0
-287,-132,0,0,0,0,0,0,0,0,0,-1,937,1156,0,0
-280,-132,0,0,0,0,0,0,0,0,0,-1,944,1156,0,0
-273,-132,0,0,0,0,0,0,0,0,0,-1,951,1156,0,0
-266,-132,0,0,0,0,0,0,0,0,0,-1,958,1156,0,0
-259,-132,0,0,0,0,0,0,0,0,0,-1,965,1156,0,0
-252,-132,0,0,0,0,0,0,0,0,0,-1,972,1156,0,0
-245,-132,0,0,0,0,0,0,0,0,0,-1,979,1156,0,0
-238,-132,0,0,0,0,0,0,0,0,0,-1,986,1156,0,0
-231,-132,0,0,0,0,0,0,0,0,0,-1,993,1156,0,0
-224,-132,0,0,0,0,0,0,0,0,0,-1,1000,1156,0,0
-217,-132,0,0,0,0,0,0,0,0,0,-1,1007,1156,0,0
-210,-132,0,0,0,0,0,0,0,0,0,-1,1014,1156,0,0
-203,-132,0,0,0,0,0,0,0,0,0,-1,1021,1156,0,0
-196,-132,0,0,0,0,0,0,0,0,0,-1,1028,1156,0,0
-189,-132,0,0,0,0,0,0,0,0,0,-1,1035,1156,0,0
-182,-132,0,0,0,0,0,0,0,0,0,-1,1042,1156,0,0
-175,-132,0,0,0,0,0,0,0,0,0,-1,1049,1156,0,0
-168,-132,0,0,0,0,0,0,0,0,0,-1,1056,1156,0,0
-161,-132,0,0,0,0,0,0,0,0,0,-1,1063,1156,0,0
-154,-132,0,0,0,0,0,0,0,0,0,-1,1070,1156,0,0
-147,-132,0,0,0,0,0,0,0,0,0,-1,1077,1156,0,0
-140,-132,0,0,0,0,0,0,0,0,0,-1,1084,1156,0,0
-133,-132,0,0,0,0,0,0,0,0,0,-1,1091,1156,0,0
-126,-132,0,0,0,0,0,0,0,0,0,-1,1098,1156,0,0
-119,-132,0,0,0,0,0,0,0,0,0,-1,1105,1156,0,0
-112,-132,0,0,0,0,0,0,0,0,0,-1,1112,1156,0,0
-105,-132,0,0,0,0,0,0,0,0,0,-1,1119,1156,0,0
-98,-132,0,0,0,0,0,0,0,0,0,-1,1126,1156,0,0
-91,-132,0,0,0,0,0,0,0,0,0,-1,1133,1156,0,0
-84,-132,0,0,0,0,0,0,0,0,0,-1,1140,1156,0,0
-77,-132,0,0,0,0,0,0,0,0,0,-1,1147,1156,0,0
-70,-132,0,0,0,0,0,0,0,0,0,-1,1154,1156,0,0
-63,-132,0,0,0,0,0,0,0,0,0,-1,1161,1156,0,0
-56,-132,0,0,0,0,0,0,0,0,0,-1,1168,1156,0,0
-49,-132,0,0,0,0,0,0,0,0,0,-1,1175,1156,0,0
-42,-132,0,0,0,0,0,0,0,0,0,-1,1182,1156,0,0
-35,-132,0,0,0,0,0,0,0,0,0,-1,1189,1156,0,0
-28,-132,0,0,0,0,0,0,0,0,0,-1,1196,1156,0,0
-21,-132,0,0,0,0,0,0,0,0,0,-1,1203,1156,0,0
-14,-132,0,0,0,0,0,0,0,0,0,-1,1210,1156,0,0
-7,-132,0,0,0,0,0,0,0,0,0,-1,1217,1156,0,0
0,-132,0,0,0,0,0,0,0,0,0,-1,1224,1156,0,0
7,-132,0,0,0,0,0,0,0,0,0,-1,1231,1156,0,0
14,-132,0,0,0,0,0,0,0,0,0,-1,1238,1156,0,0
21,-132,0,0,0,0,0,0,0,0,0,-1,1245,1156,0,0
28,-132,0,0,0,0,0,0,0,0,0,-1,1252,1156,0,0
35,-132,0,0,0,0,0,0,0,0,0,-1,1259,1156,0,0
42,-132,0,0,0,0,0,0,0,0,0,-1,1266,1156,0,0
49,-132,0,0,0,0,0,0,0,0,0,-1,1273,1156,0,0
56,-132,0,0,0,0,0,0,0,0,0,-1,1280,1156,0,0
63,-132,0,0,0,0,0,0,0,0,0,-1,1287,1156,0,0
70,-132,0,0,0,0,0,0,0,0,0,-1,1294,1156,0,0
77,-132,0,0,0,0,0,0,0,0,0,-1,1301,1156,0,0
84,-132,0,0,0,0,0,0,0,0,0,-1,1308,1156,0,0
91,-132,0,0,0,0,0,0,0,0,0,-1,1315,1156,0,0
98,-132,0,0,0,0,0,0,0,0,0,-1,1322,1156,0,0
105,-132,0,0,0,0,0,0,0,0,0,-1,1329,1156,0,0
112,-132,0,0,0,0,0,0,0,0,0,-1,1336,1156,0,0
119,-132,0,0,0,0,0,0,0,0,0,-1,1343,1156,0,0
126,-132,0,0,0,0,0,0,0,0,0,-1,1350,1156,0,0
133,-132,0,0,0,0,0,0,0,0,0,-1,1357,1156,0,0
140,-132,0,0,0,0,0,0,0,0,0,-1,1364,1156,0,0
147,-132,0,0,0,0,0,0,0,0,0,-1,1371,1156,0,0
154,-132,0,0,0,0,0,0,0,0,0,-1,1378,1156,0,0
161,-132,0,0,0,0,0,0,0,0,0,-1,1385,1156,0,0
168,-132,0,0,0,0,0,0,0,0,0,-1,1392,1156,0,0
175,-132,0,0,0,0,0,0,0,0,0,-1,1399,1156,0,0
182,-132,0,0,0,0,0,0,0,0,0,-1,1406,1156,0,0
189,-132,0,0,0,0,0,0,0,0,0,-1,1413,1156,0,0
196,-132,0,0,0,0,0,0,0,0,0,-1,1420,1156,0,0
203,-132,0,0,0,0,0,0,0,0,0,-1,1427,1156,0,0
210,-132,0,0,0,0,0,0,0,0,0,-1,1434,1156,0,0
217,-132,0,0,0,0,0,0,0,0,0,-1,1441,1156,0,0
224,-132,0,0,0,0,0,0,0,0,0,-1,1448,1156,0,0
231,-132,0,0,0,0,0,0,0,0,0,-1,1455,1156,0,0
238,-132,0,0,0,0,0,0,0,0,0,-1,1462,1156,0,0
245,-132,0,0,0,0,0,0,0,0,0,-1,1469,1156,0,0
252,-132,0,0,0,0,0,0,0,0,0,-1,1476,1156,0,0
259,-132,0,0,0,0,0,0,0,0,0,-1,1483,1156,0,0
266,-132,0,0,0,0,0,0,0,0,0,-1,1490,1156,0,0
273,-132,0,0,0,0,0,0,0,0,0,-1,1497,1156,0,0
280,-132,0,0,0,0,0,0,0,0,0,-1,1504,1156,0,0
287,-132,0,0,0,0,0,0,0,0,0,-1,1511,1156,0,0
294,-132,0,0,0,0,0,0,0,0,0,-1,1518,1156,0,0
301,-132,0,0,0,0,0,0,0,0,0,-1,1525,1156,0,0
308,-132,0,0,0,0,0,0,0,0,0,-1,1532,1156,0,0
315,-132,0,0,0,0,0,0,0,0,0,-1,1539,1156,0,0
322,-132,0,0,0,0,0,0,0,0,0,-1,1546,1156,0,0
329,-132,0,0,0,0,0,0,0,0,0,-1,1553,1156,0,0
336,-132,0,0,0,0,0,0,0,0,0,-1,1560,1156,0,0
343,-132,0,0,0,0,0,0,0,0,0,-1,1567,1156,0,0
350,-132,0,0,0,0,0,0,0,0,0,-1,1574,1156,0,0
357,-132,0,0,0,0,0,0,0,0,0,-1,1581,1156,0,0
364,-132,0,0,0,0,0,0,0,0,0,-1,1588,1156,0,0
371,-132,0,0,0,0,0,0,0,0,0,-1,1595,1156,0,0
378,-132,0,0,0,0,0,0,0,0,0,-1,1602,1156,0,0
385,-132,0,0,0,0,0,0,0,0,0,-1,1609,1156,0,0
392,-132,0,0,0,0,0,0,0,0,0,-1,1616,1156,0,0
399,-132,0,0,0,0,0,0,0,0,0,-1,1623,1156,0,0
406,-132,0,0,0,0,0,0,0,0,0,-1,1630,1156,0,0
413,-132,0,0,0,0,0,0,0,0,0,-1,1637,1156,0,0
420,-132,0,0,0,0,0,0,0,0,0,-1,1644,1156,0,0
427,-132,0,0,0,0,0,0,0,0,0,-1,1651,1156,0,0
434,-132,0,0,0,0,0,0,0,0,0,-1,1658,1156,0,0
441,-132,0,0,0,0,0,0,0,0,0,-1,1665,1156,0,0
448,-132,0,0,0,0,0,0,0,0,0,-1,1672,1156,0,0
455,-132,0,0,0,0,0,0,0,0,0,-1,1679,1156,0,0
462,-132,0,0,0,0,0,0,0,0,0,-1,1686,1156,0,0
469,-132,0,0,0,0,0,0,0,0,0,-1,1693,1156,0,0
476,-132,0,0,0,0,0,0,0,0,0,-1,1700,1156,0,0
483,-132,0,0,0,0,0,0,0,0,0,-1,1707,1156,0,0
490,-132,0,0,0,0,0,0,0,0,0,-1,1714,1156,0,0
497,-132,0,0,0,0,0,0,0,0,0,-1,1721,1156,0,0
504,-132,0,0,0,0,0,0,0,0,0,-1,1728,1156,0,0
511,-132,0,0,0,0,0,0,0,0,0,-1,1735,1156,0,0
518,-132,0,0,0,0,0,0,0,0,0,-1,1742,1156,0,0
525,-132,0,0,0,0,0,0,0,0,0,-1,1749,1156,0,0
532,-132,0,0,0,0,0,0,0,0,0,-1,1756,1156,0,0
539,-132,0,0,0,0,0,0,0,0,0,-1,1763,1156,0,0
546,-132,0,0,0,0,0,0,0,0,0,-1,1770,1156,0,0
553,-132,0,0,0,0,0,0,0,0,0,-1,1777,1156,0,0
560,-132,0,0,0,0,0,0,0,0,0,-1,1784,1156,0,0
567,-132,0,0,0,0,0,0,0,0,0,-1,1791,1156,0,0
574,-132,0,0,0,0,0,0,0,0,0,-1,1798,1156,0,0
581,-132,0,0,0,0,0,0,0,0,0,-1,1805,1156,0,0
588,-132,0,0,0,0,0,0,0,0,0,-1,1812,1156,0,0
595,-132,0,0,0,0,0,0,0,0,0,-1,1819,1156,0,0
602,-132,0,0,0,0,0,0,0,0,0,-1,1826,1156,0,0
609,-132,0,0,0,0,0,0,0,0,0,-1,1833,1156,0,0
616,-132,0,0,0,0,0,0,0,0,0,-1,1840,1156,0,0
623,-132,0,0,0,0,0,0,0,0,0,-1,1847,1156,0,0
630,-132,0,0,0,0,0,0,0,0,0,-1,1854,1156,0,0
637,-132,0,0,0,0,0,0,0,0,0,-1,1861,1156,0,0
644,-132,64.1392,2.1178,0.00105151,-0.00238311,0.000715853,0.00119474,-0.00252634,0.197472,0.00219374,0.0432854,1868,1156,64.1392,-2.11778
651,-132,64.1794,2.28003,0.000622432,-0.00199802,0.00140116,0.00123053,-0.00260612,0.409462,0.00226205,0.0422102,1875,1156,64.1794,-2.27999
658,-132,64.0548,2.41748,0.000512143,-0.00166824,0.00155988,0.00132504,-0.00248114,0.480406,0.00223103,0.0410825,1882,1156,64.0548,-2.41745
665,-132,64.0143,2.51221,0.000559193,-0.00128035,0.00137218,0.00129134,-0.0020125,0.490141,0.00192256,0.0427336,1889,1156,64.0143,-2.51216
672,-132,64.1434,2.55371,0.000741987,-0.000822014,0.000872959,0.00113199,-0.00121201,0.420152,0.00135357,0.041731,1896,1156,64.1434,-2.55375
679,-132,64.1312,2.58142,0.000794798,-0.000773671,0.000442198,0.000910876,-0.000889749,0.256711,0.00103962,0.0384564,1903,1156,64.1313,-2.58146
686,-132,64.0868,2.68506,0.00106101,-0.000481074,0.000167409,0.00107897,-0.000499039,0.106901,0.000931347,0.0364594,1910,1156,64.0868,-2.68511
693,-132,64.069,2.69873,0.00104379,-0.000391455,0.000143519,0.001058,-0.000405665,0.0986941,0.000872573,0.0291158,1917,1156,64.069,-2.6987
700,-132,64.1212,2.604,0,0,0,0,0,0,0,-1,1924,1156,64.1212,-2.60401
707,-132,57.9275,3.01367,0,0,0,0,0,0,0,-1,1931,1156,57.9275,-3.01369
714,-132,57.3552,9.12195,0,0,0,0,0,0,0,-1,1938,1156,57.3553,-9.12191
721,-132,57.257,8.82446,0,0,0,0,0,0,0,-1,1945,1156,57.257,-8.82444
728,-132,57.0532,8.50574,0.000382927,0.000633829,0.000202683,0.000746743,0.000270012,1.06252,0.000436604,0.0309047,1952,1156,57.0532,-8.50577
735,-132,56.9888,8.02759,0.000415962,0.000642944,0.000381302,0.000927287,0.000131619,0.930043,0.000579324,0.0306918,1959,1156,56.9887,-8.02758
742,-132,57.0354,7.44238,0.00035416,0.000796939,0.000783862,0.00139008,-0.000238977,0.92303,0.00101579,0.0236713,1966,1156,57.0354,-7.44233
749,-132,56.9946,6.87744,3.93396e-05,0.00141595,0.00129037,0.00219012,-0.000734824,1.03041,0.00175701,0.0254626,1973,1156,56.9947,-6.87745
756,-132,57.0264,6.34094,-0.000193745,0.00323209,0.00126505,0.0036486,-0.00061025,1.25273,0.00265926,0.0256143,1980,1156,57.0263,-6.3409
763,-132,56.9584,5.8363,0.000143741,0.00615664,0.000616676,0.00621923,8.11466e-05,1.46964,0.00411937,0.0148576,1987,1156,56.9583,-5.83632
770,-132,56.9314,5.33643,0.000722504,0.00973917,-0.000402478,0.0097571,0.000704574,-1.52628,0.00628305,0.0143872,1994,1156,56.9313,-5.33643
777,-132,56.8611,4.84045,0.00153566,0.0142303,-0.00190737,0.0145107,0.00125527,-1.42484,0.0092837,0.0261799,2001,1156,56.861,-4.84042
784,-132,56.8479,4.30432,0.00260474,0.0200439,-0.0041075,0.020963,0.00168572,-1.35068,0.0134487,0.0468753,2008,1156,56.8479,-4.30427
791,-132,56.9128,3.74414,0,0,0,0,0,0,0,-1,2015,1156,56.9128,-3.74414
798,-132,61.7769,1.40869,0,0,0,0,0,0,0,-1,2022,1156,61.7769,-1.40863
805,-132,52.6096,1.70325,0,0,0,0,0,0,0,-1,2029,1156,52.6097,-1.70329
812,-132,52.395,0.523071,0,0,0,0,0,0,0,-1,2036,1156,52.395,-0.523128
-700,-139,0,0,0,0,0,0,0,0,0,-1,524,1163,0,0
-693,-139,-43.2943,4.28455,0,0,0,0,0,0,0,-1,531,1163,-43.2943,-4.28449
-686,-139,-41.3914,-3.86768,0,0,0,0,0,0,0,-1,538,1163,-41.3914,3.8677
-679,-139,-42.0797,-6.70483,0,0,0,0,0,0,0,-1,545,1163,-42.0796,6.70488
-672,-139,-41.1565,-5.32275,0.0693672,-0.0655545,0.0177582,0.0716654,-0.0678526,0.128699,0.0805608,0.0459905,552,1163,-41.1565,5.32281
-665,-139,-40.4873,-3.76587,0.0563922,-0.0504987,0.015481,0.0585892,-0.0526956,0.140971,0.0642804,0.0477965,559,1163,-40.4873,3.76592
-658,-139,-41.6038,1.01306,0,0,0,0,0,0,0,-1,566,1163,-41.6038,-1.01311
-651,-139,-41.1891,1.72644,0.0327156,-0.0262955,0.00966857,0.0342593,-0.0278392,0.15833,0.0359164,0.0478204,573,1163,-41.1891,-1.72643
-644,-139,-40.7263,2.45593,0.0226213,-0.0169048,0.00668856,0.0237225,-0.0180059,0.163169,0.0241672,0.0250846,580,1163,-40.7263,-2.45597
-637,-139,-40.7825,2.99451,0.0136489,-0.00911515,0.00396407,0.0143194,-0.0097857,0.167569,0.0139989,0.0149343,587,1163,-40.7825,-2.99454
-630,-139,-40.8025,3.54724,0.00628968,-0.00310371,0.00137177,0.00648591,-0.00329994,0.142083,0.0057488,0.0119202,594,1163,-40.8025,-3.54724
-623,-139,-40.8262,4.13416,0.000929104,0.000441069,-0.00090368,0.00162113,-0.000250959,-0.65353,0.00117339,0.0177887,601,1163,-40.8262,-4.13411
-616,-139,-40.873,4.71118,-0.000941164,0.000965193,-0.00199082,0.00221925,-0.00219522,-1.00867,0.00254871,0.0191729,608,1163,-40.873,-4.71122
-609,-139,-40.9935,5.36218,0,0,0,0,0,0,0,-1,615,1163,-40.9935,-5.36223
-602,-139,-40.7809,5.88245,0,0,0,0,0,0,0,-1,622,1163,-40.7809,-5.88244
-595,-139,-41.0087,6.45532,0,0,0,0,0,0,0,-1,629,1163,-41.0087,-6.45533
-588,-139,-41.3422,6.92664,0,0,0,0,0,0,0,-1,636,1163,-41.3422,-6.92661
-581,-139,-34.4892,6.72473,0,0,0,0,0,0,0,-1,643,1163,-34.4892,-6.72476
-574,-139,-23.0725,2.4043,0,0,0,0,0,0,0,-1,650,1163,-23.0725,-2.40433
-567,-139,-48.4052,0.646362,0,0,0,0,0,0,0,-1,657,1163,-48.4052,-0.646312
-560,-139,-48.4593,0.85791,-0.00208739,-0.00106683,0.00107875,-0.000383759,-0.00277046,1.00632,0.00173327,0.0349618,664,1163,-48.4593,-0.857898
-553,-139,-48.5504,1.01782,-0.0025901,-0.00119074,0.0013091,-0.000406071,-0.00337477,1.03082,0.00212744,0.0379178,671,1163,-48.5504,-1.01778
-546,-139,-48.7025,1.07214,-0.00321365,-0.00120438,0.00151754,-0.000389067,-0.00402896,1.07779,0.00256614,0.0404292,678,1163,-48.7025,-1.07218
-539,-139,-48.5606,0.92041,-0.00224315,-0.00184991,0.00192679,-0.000109736,-0.00398332,0.836246,0.00261974,0.0380107,685,1163,-48.5606,-0.920415
-532,-139,-48.3796,0.702759,-0.000614948,-0.00273781,0.00267831,0.00120459,-0.00455735,0.596739,0.00350936,0.0398558,692,1163,-48.3796,-0.702742
-525,-139,-48.3922,0.838379,0.000887043,-0.00356961,0.00371479,0.00299059,-0.00567315,0.515243,0.00508131,0.0414098,699,1163,-48.3922,-0.838319
-518,-139,0,0,0,0,0,0,0,0,0,-1,706,1163,0,0
-511,-139,0,0,0,0,0,0,0,0,0,-1,713,1163,0,0
-504,-139,0,0,0,0,0,0,0,0,0,-1,720,1163,0,0
-497,-139,0,0,0,0,0,0,0,0,0,-1,727,1163,0,0
-490,-139,0,0,0,0,0,0,0,0,0,-1,734,1163,0,0
-483,-139,0,0,0,0,0,0,0,0,0,-1,741,1163,0,0
-476,-139,0,0,0,0,0,0,0,0,0,-1,748,1163,0,0
-469,-139,0,0,0,0,0,0,0,0,0,-1,755,1163,0,0
-462,-139,0,0,0,0,0,0,0,0,0,-1,762,1163,0,0
-455,-139,0,0,0,0,0,0,0,0,0,-1,769,1163,0,0
-448,-139,0,0,0,0,0,0,0,0,0,-1,776,1163,0,0
-441,-139,0,0,0,0,0,0,0,0,0,-1,783,1163,0,0
-434,-139,0,0,0,0,0,0,0,0,0,-1,790,1163,0,0
-427,-139,0,0,0,0,0,0,0,0,0,-1,797,1163,0,0
-420,-139,0,0,0,0,0,0,0,0,0,-1,804,1163,0,0
-413,-139,0,0,0,0,0,0,0,0,0,-1,811,1163,0,0
-406,-139,0,0,0,0,0,0,0,0,0,-1,818,1163,0,0
-399,-139,0,0,0,0,0,0,0,0,0,-1,825,1163,0,0
-392,-139,0,0,0,0,0,0,0,0,0,-1,832,1163,0,0
-385,-139,0,0,0,0,0,0,0,0,0,-1,839,1163,0,0
-378,-139,0,0,0,0,0,0,0,0,0,-1,846,1163,0,0
-371,-139,0,0,0,0,0,0,0,0,0,-1,853,1163,0,0
-364,-139,0,0,0,0,0,0,0,0,0,-1,860,1163,0,0
-357,-139,0,0,0,0,0,0,0,0,0,-1,867,1163,0,0
-350,-139,0,0,0,0,0,0,0,0,0,-1,874,1163,0,0
-343,-139,0,0,0,0,0,0,0,0,0,-1,881,1163,0,0
-336,-139,0,0,0,0,0,0,0,0,0,-1,888,1163,0,0
-329,-139,0,0,0,0,0,0,0,0,0,-1,895,1163,0,0
-322,-139,0,0,0,0,0,0,0,0,0,-1,902,1163,0,0
-315,-139,0,0,0,0,0,0,0,0,0,-1,909,1163,0,0
-308,-139,0,0,0,0,0,0,0,0,0,-1,916,1163,0,0
-301,-139,0,0,0,0,0,0,0,0,0,-1,923,1163,0,0
-294,-139,0,0,0,0,0,0,0,0,0,-1,930,1163,0,0
-287,-139,0,0,0,0,0,0,0,0,0,-1,937,1163,0,0
-280,-139,0,0,0,0,0,0,0,0,0,-1,944,1163,0,0
-273,-139,0,0,0,0,0,0,0,0,0,-1,951,1163,0,0
-266,-139,0,0,0,0,0,0,0,0,0,-1,958,1163,0,0
-259,-139,0,0,0,0,0,0,0,0,0,-1,965,1163,0,0
-252,-139,0,0,0,0,0,0,0,0,0,-1,972,1163,0,0
-245,-139,0,0,0,0,0,0,0,0,0,-1,979,1163,0,0
-238,-139,0,0,0,0,0,0,0,0,0,-1,986,1163,0,0
-231,-139,0,0,0,0,0,0,0,0,0,-1,993,1163,0,0
-224,-139,0,0,0,0,0,0,0,0,0,-1,1000,1163,0,0
-217,-139,0,0,0,0,0,0,0,0,0,-1,1007,1163,0,0
-210,-139,0,0,0,0,0,0,0,0,0,-1,1014,1163,0,0
-203,-139,0,0,0,0,0,0,0,0,0,-1,1021,1163,0,0
-196,-139,0,0,0,0,0,0,0,0,0,-1,1028,1163,0,0
-189,-139,0,0,0,0,0,0,0,0,0,-1,1035,1163,0,0
-182,-139,0,0,0,0,0,0,0,0,0,-1,1042,1163,0,0
-175,-139,0,0,0,0,0,0,0,0,0,-1,1049,1163,0,0
-168,-139,0,0,0,0,0,0,0,0,0,-1,1056,1163,0,0
-161,-139,0,0,0,0,0,0,0,0,0,-1,1063,1163,0,0
-154,-139,0,0,0,0,0,0,0,0,0,-1,1070,1163,0,0
-147,-139,0,0,0,0,0,0,0,0,0,-1,1077,1163,0,0
-140,-139,0,0,0,0,0,0,0,0,0,-1,1084,1163,0,0
-133,-139,0,0,0,0,0,0,0,0,0,-1,1091,1163,0,0
-126,-139,0,0,0,0,0,0,0,0,0,-1,1098,1163,0,0
-119,-139,0,0,0,0,0,0,0,0,0,-1,1105,1163,0,0
-112,-139,0,0,0,0,0,0,0,0,0,-1,1112,1163,0,0
-105,-139,0,0,0,0,0,0,0,0,0,-1,1119,1163,0,0
-98,-139,0,0,0,0,0,0,0,0,0,-1,1126,1163,0,0
-91,-139,0,0,0,0,0,0,0,0,0,-1,1133,1163,0,0
-84,-139,0,0,0,0,0,0,0,0,0,-1,1140,1163,0,0
-77,-139,0,0,0,0,0,0,0,0,0,-1,1147,1163,0,0
-70,-139,0,0,0,0,0,0,0,0,0,-1,1154,1163,0,0
-63,-139,0,0,0,0,0,0,0,0,0,-1,1161,1163,0,0
-56,-139,0,0,0,0,0,0,0,0,0,-1,1168,1163,0,0
-49,-139,0,0,0,0,0,0,0,0,0,-1,1175,1163,0,0
-42,-139,0,0,0,0,0,0,0,0,0,-1,1182,1163,0,0
-35,-139,0,0,0,0,0,0,0,0,0,-1,1189,1163,0,0
-28,-139,0,0,0,0,0,0,0,0,0,-1,1196,1163,0,0
-21,-139,0,0,0,0,0,0,0,0,0,-1,1203,1163,0,0
-14,-139,0,0,0,0,0,0,0,0,0,-1,1210,1163,0,0
-7,-139,0,0,0,0,0,0,0,0,0,-1,1217,1163,0,0
0,-139,0,0,0,0,0,0,0,0,0,-1,1224,1163,0,0
7,-139,0,0,0,0,0,0,0,0,0,-1,1231,1163,0,0
14,-139,0,0,0,0,0,0,0,0,0,-1,1238,1163,0,0
21,-139,0,0,0,0,0,0,0,0,0,-1,1245,1163,0,0
28,-139,0,0,0,0,0,0,0,0,0,-1,1252,1163,0,0
35,-139,0,0,0,0,0,0,0,0,0,-1,1259,1163,0,0
42,-139,0,0,0,0,0,0,0,0,0,-1,1266,1163,0,0
49,-139,0,0,0,0,0,0,0,0,0,-1,1273,1163,0,0
56,-139,0,0,0,0,0,0,0,0,0,-1,1280,1163,0,0
63,-139,0,0,0,0,0,0,0,0,0,-1,1287,1163,0,0
70,-139,0,0,0,0,0,0,0,0,0,-1,1294,1163,0,0
77,-139,0,0,0,0,0,0,0,0,0,-1,1301,1163,0,0
84,-139,0,0,0,0,0,0,0,0,0,-1,1308,1163,0,0
91,-139,0,0,0,0,0,0,0,0,0,-1,1315,1163,0,0
98,-139,0,0,0,0,0,0,0,0,0,-1,1322,1163,0,0
105,-139,0,0,0,0,0,0,0,0,0,-1,1329,1163,0,0
112,-139,0,0,0,0,0,0,0,0,0,-1,1336,1163,0,0
119,-139,0,0,0,0,0,0,0,0,0,-1,1343,1163,0,0
126,-139,0,0,0,0,0,0,0,0,0,-1,1350,1163,0,0
133,-139,0,0,0,0,0,0,0,0,0,-1,1357,1163,0,0
140,-139,0,0,0,0,0,0,0,0,0,-1,1364,1163,0,0
147,-139,0,0,0,0,0,0,0,0,0,-1,1371,1163,0,0
154,-139,0,0,0,0,0,0,0,0,0,-1,1378,1163,0,0
161,-139,0,0,0,0,0,0,0,0,0,-1,1385,1163,0,0
168,-139,0,0,0,0,0,0,0,0,0,-1,1392,1163,0,0
175,-139,0,0,0,0,0,0,0,0,0,-1,1399,1163,0,0
182,-139,0,0,0,0,0,0,0,0,0,-1,1406,1163,0,0
189,-139,0,0,0,0,0,0,0,0,0,-1,1413,1163,0,0
196,-139,0,0,0,0,0,0,0,0,0,-1,1420,1163,0,0
203,-139,0,0,0,0,0,0,0,0,0,-1,1427,1163,0,0
210,-139,0,0,0,0,0,0,0,0,0,-1,1434,1163,0,0
217,-139,0,0,0,0,0,0,0,0,0,-1,1441,1163,0,0
224,-139,0,0,0,0,0,0,0,0,0,-1,1448,1163,0,0
231,-139,0,0,0,0,0,0,0,0,0,-1,1455,1163,0,0
238,-139,0,0,0,0,0,0,0,0,0,-1,1462,1163,0,0
245,-139,0,0,0,0,0,0,0,0,0,-1,1469,1163,0,0
252,-139,0,0,0,0,0,0,0,0,0,-1,1476,1163,0,0
259,-139,0,0,0,0,0,0,0,0,0,-1,1483,1163,0,0
266,-139,0,0,0,0,0,0,0,0,0,-1,1490,1163,0,0
273,-139,0,0,0,0,0,0,0,0,0,-1,1497,1163,0,0
280,-139,0,0,0,0,0,0,0,0,0,-1,1504,1163,0,0
287,-139,0,0,0,0,0,0,0,0,0,-1,1511,1163,0,0
294,-139,0,0,0,0,0,0,0,0,0,-1,1518,1163,0,0
301,-139,0,0,0,0,0,0,0,0,0,-1,1525,1163,0,0
308,-139,0,0,0,0,0,0,0,0,0,-1,1532,1163,0,0
315,-139,0,0,0,0,0,0,0,0,0,-1,1539,1163,0,0
322,-139,0,0,0,0,0,0,0,0,0,-1,1546,1163,0,0
329,-139,0,0,0,0,0,0,0,0,0,-1,1553,1163,0,0
336,-139,0,0,0,0,0,0,0,0,0,-1,1560,1163,0,0
343,-139,0,0,0,0,0,0,0,0,0,-1,1567,1163,0,0
350,-139,0,0,0,0,0,0,0,0,0,-1,1574,1163,0,0
357,-139,0,0,0,0,0,0,0,0,0,-1,1581,1163,0,0
364,-139,0,0,0,0,0,0,0,0,0,-1,1588,1163,0,0
371,-139,0,0,0,0,0,0,0,0,0,-1,1595,1163,0,0
378,-139,0,0,0,0,0,0,0,0,0,-1,1602,1163,0,0
385,-139,0,0,0,0,0,0,0,0,0,-1,1609,1163,0,0
392,-139,0,0,0,0,0,0,0,0,0,-1,1616,1163,0,0
399,-139,0,0,0,0,0,0,0,0,0,-1,1623,1163,0,0
406,-139,0,0,0,0,0,0,0,0,0,-1,1630,1163,0,0
413,-139,0,0,0,0,0,0,0,0,0,-1,1637,1163,0,0
420,-139,0,0,0,0,0,0,0,0,0,-1,1644,1163,0,0
427,-139,0,0,0,0,0,0,0,0,0,-1,1651,1163,0,0
434,-139,0,0,0,0,0,0,0,0,0,-1,1658,1163,0,0
441,-139,0,0,0,0,0,0,0,0,0,-1,1665,1163,0,0
448,-139,0,0,0,0,0,0,0,0,0,-1,1672,1163,0,0
455,-139,0,0,0,0,0,0,0,0,0,-1,1679,1163,0,0
462,-139,0,0,0,0,0,0,0,0,0,-1,1686,1163,0,0
469,-139,0,0,0,0,0,0,0,0,0,-1,1693,1163,0,0
476,-139,0,0,0,0,0,0,0,0,0,-1,1700,1163,0,0
483,-139,0,0,0,0,0,0,0,0,0,-1,1707,1163,0,0
490,-139,0,0,0,0,0,0,0,0,0,-1,1714,1163,0,0
497,-139,0,0,0,0,0,0,0,0,0,-1,1721,1163,0,0
504,-139,0,0,0,0,0,0,0,0,0,-1,1728,1163,0,0
511,-139,0,0,0,0,0,0,0,0,0,-1,1735,1163,0,0
518,-139,0,0,0,0,0,0,0,0,0,-1,1742,1163,0,0
525,-139,0,0,0,0,0,0,0,0,0,-1,1749,1163,0,0
532,-139,0,0,0,0,0,0,0,0,0,-1,1756,1163,0,0
539,-139,0,0,0,0,0,0,0,0,0,-1,1763,1163,0,0
546,-139,0,0,0,0,0,0,0,0,0,-1,1770,1163,0,0
553,-139,0,0,0,0,0,0,0,0,0,-1,1777,1163,0,0
560,-139,0,0,0,0,0,0,0,0,0,-1,1784,1163,0,0
567,-139,0,0,0,0,0,0,0,0,0,-1,1791,1163,0,0
574,-139,0,0,0,0,0,0,0,0,0,-1,1798,1163,0,0
581,-139,0,0,0,0,0,0,0,0,0,-1,1805,1163,0,0
588,-139,0,0,0,0,0,0,0,0,0,-1,1812,1163,0,0
595,-139,0,0,0,0,0,0,0,0,0,-1,1819,1163,0,0
602,-139,0,0,0,0,0,0,0,0,0,-1,1826,1163,0,0
609,-139,0,0,0,0,0,0,0,0,0,-1,1833,1163,0,0
616,-139,0,0,0,0,0,0,0,0,0,-1,1840,1163,0,0
623,-139,0,0,0,0,0,0,0,0,0,-1,1847,1163,0,0
630,-139,0,0,0,0,0,0,0,0,0,-1,1854,1163,0,0
637,-139,0,0,0,0,0,0,0,0,0,-1,1861,1163,0,0
644,-139,64.1519,2.23596,0.00113448,-0.00226995,0.000264579,0.00115492,-0.00229039,0.0770992,0.00202484,0.0402465,1868,1163,64.1518,-2.23591
651,-139,64.1704,2.37122,0.000739979,-0.0019066,0.00101173,0.00108243,-0.00224905,0.326376,0.00196235,0.0400007,1875,1163,64.1704,-2.3712
658,-139,64.1239,2.5177,0.000634224,-0.00149433,0.00123745,0.00120211,-0.00206222,0.430246,0.00190634,0.0388104,1882,1163,64.1239,-2.51773
665,-139,64.0989,2.67554,0.000728218,-0.000983384,0.00110425,0.00126947,-0.00152464,0.455741,0.00161542,0.0402453,1889,1163,64.0989,-2.67548
672,-139,64.2028,2.61731,0.00098547,-0.00037554,0.000638016,0.00123778,-0.000627854,0.376592,0.00109615,0.0392872,1896,1163,64.2028,-2.61726
679,-139,64.2107,2.53882,0.00110521,-0.000264019,0.000233889,0.00114406,-0.000302869,0.164602,0.000881187,0.0344027,1903,1163,64.2107,-2.5388
686,-139,64.0597,2.69299,0.00140769,0.000107157,-8.78984e-06,0.00140775,0.000107098,-0.00675824,0.000904915,0.0325821,1910,1163,64.0597,-2.69298
693,-139,64.0927,2.6781,0.00135088,0.000132445,2.40639e-05,0.00135136,0.000131969,0.0197395,0.000860296,0.0217135,1917,1163,64.0927,-2.67816
700,-139,64.1478,2.52466,0,0,0,0,0,0,0,-1,1924,1163,64.1478,-2.52469
707,-139,32.116,6.54346,0,0,0,0,0,0,0,-1,1931,1163,32.116,-6.54343
714,-139,56.1315,9.60046,0,0,0,0,0,0,0,-1,1938,1163,56.1315,-9.60045
721,-139,56.604,8.78003,0,0,0,0,0,0,0,-1,1945,1163,56.604,-8.78004
728,-139,56.4829,8.63306,0.000676988,0.00101274,0.000104745,0.00104273,0.00064699,1.29187,0.00060782,0.0495101,1952,1163,56.4829,-8.63311
735,-139,56.34,8.16357,0.000663246,0.000935095,0.000296528,0.00112537,0.000472974,1.0003,0.000652478,0.0367675,1959,1163,56.3399,-8.16361
742,-139,56.4514,7.44263,0.000517894,0.000960183,0.000705656,0.00147854,-4.58211e-07,0.937245,0.000985843,0.0239907,1966,1163,56.4515,-7.44259
749,-139,56.4346,6.86755,0.000208111,0.00150812,0.0012064,0.00222848,-0.000512251,1.0325,0.0016826,0.0190436,1973,1163,56.4346,-6.86759
756,-139,56.4065,6.34314,9.18127e-05,0.00323858,0.00115555,0.00361733,-0.000286937,1.25406,0.00251266,0.0117545,1980,1163,56.4065,-6.3431
763,-139,56.3759,5.79626,0.000478194,0.00586347,0.00057902,0.00592503,0.000416642,1.46489,0.00381872,0.0115466,1987,1163,56.3759,-5.79626
770,-139,56.3689,5.30664,0.00104338,0.00902652,-0.000303098,0.00903801,0.00103189,-1.5329,0.00571253,0.0127854,1994,1163,56.369,-5.3066
777,-139,56.3665,4.85315,0.00169469,0.0128985,-0.00158272,0.0131177,0.0014754,-1.43312,0.00829721,0.0266805,2001,1163,56.3665,-4.85316
784,-139,56.3743,4.26917,0.00237382,0.0177543,-0.00341245,0.0184774,0.0016507,-1.36198,0.0118065,0.0435291,2008,1163,56.3744,-4.26914
791,-139,56.551,3.67456,0.00323941,0.0245278,-0.00614925,0.0261764,0.00159083,-1.30886,0.0169455,0.0477995,2015,1163,56.551,-3.67456
798,-139,56.4612,3.09387,0,0,0,0,0,0,0,-1,2022,1163,56.4613,-3.0939
805,-139,56.1516,3.45984,0,0,0,0,0,0,0,-1,2029,1163,56.1515,-3.45979
812,-139,0,0,0,0,0,0,0,0,0,-1,2036,1163,0,0
-700,-146,0,0,0,0,0,0,0,0,0,-1,524,1170,0,0
-693,-146,-36.7423,-2.15393,0,0,0,0,0,0,0,-1,531,1170,-36.7423,2.15394
-686,-146,-42.0638,-8.38269,0,0,0,0,0,0,0,-1,538,1170,-42.0638,8.3827
-679,-146,-42.8283,-0.522217,0,0,0,0,0,0,0,-1,545,1170,-42.8283,0.522178
-672,-146,-40.6377,-5.00745,0,0,0,0,0,0,0,-1,552,1170,-40.6377,5.00745
-665,-146,-39.9432,-3.06628,0,0,0,0,0,0,0,-1,559,1170,-39.9433,3.06625
-658,-146,-40.6539,1.08521,0,0,0,0,0,0,0,-1,566,1170,-40.6539,-1.08517
-651,-146,-40.3978,1.73938,0.0356075,-0.0308299,0.00908663,0.0368279,-0.0320503,0.133504,0.0397987,0.0443403,573,1170,-40.3978,-1.73944
-644,-146,-40.1107,2.42249,0.0247801,-0.0201101,0.00632602,0.0256546,-0.0209845,0.137359,0.0269721,0.0241565,580,1170,-40.1106,-2.42244
-637,-146,-40.1525,2.99658,0.0152359,-0.0112188,0.00370759,0.0157457,-0.0117286,0.136642,0.0159187,0.0124819,587,1170,-40.1525,-2.99654
-630,-146,-40.1795,3.56458,0.0070408,-0.0040325,0.00130729,0.00719305,-0.00418474,0.115935,0.00664507,0.0116581,594,1170,-40.1795,-3.56456
-623,-146,-40.2305,4.14929,0.000713933,0.000392804,-0.00105278,0.00161832,-0.000511582,-0.709724,0.00128384,0.0143097,601,1170,-40.2304,-4.14929
-616,-146,-40.3365,4.755,-0.00195242,0.00146478,-0.00232736,0.00264338,-0.00313103,-1.10203,0.00333781,0.0191741,608,1170,-40.3366,-4.755
-609,-146,-40.4199,5.34717,0,0,0,0,0,0,0,-1,615,1170,-40.4198,-5.3472
-602,-146,-40.1813,5.96228,0,0,0,0,0,0,0,-1,622,1170,-40.1813,-5.96226
-595,-146,-40.377,6.53796,0,0,0,0,0,0,0,-1,629,1170,-40.3769,-6.53802
-588,-146,-40.7216,7.0293,0,0,0,0,0,0,0,-1,636,1170,-40.7216,-7.02935
-581,-146,-31.7815,6.30347,0,0,0,0,0,0,0,-1,643,1170,-31.7815,-6.3035
-574,-146,-17.9915,3.79114,0,0,0,0,0,0,0,-1,650,1170,-17.9915,-3.79118
-567,-146,-44.4572,0.6604,0,0,0,0,0,0,0,-1,657,1170,-44.4572,-0.660404
-560,-146,-48.366,0.721558,0,0,0,0,0,0,0,-1,664,1170,-48.366,-0.721548
-553,-146,-48.4372,1.10339,-0.00350126,-0.000882271,0.00186895,9.02838e-05,-0.00447381,1.09098,0.00301309,0.0380599,671,1170,-48.4372,-1.10338
-546,-146,-48.5251,1.40649,-0.00387591,-0.000851594,0.00215785,0.000271196,-0.0049987,1.09102,0.00342645,0.0411735,678,1170,-48.5251,-1.4065
-539,-146,-48.5508,1.33032,-0.00255984,-0.00167117,0.00219525,0.00012426,-0.00435527,0.885253,0.00294581,0.0401671,685,1170,-48.5508,-1.33034
-532,-146,-48.4487,0.850708,-0.000584285,-0.00289299,0.00241756,0.000940375,-0.00441765,0.562661,0.00330348,0.0409729,692,1170,-48.4488,-0.850731
-525,-146,-48.45,0.779541,0.00127321,-0.00407272,0.00290921,0.00255097,-0.00535048,0.413847,0.00465637,0.0439666,699,1170,-48.45,-0.779579
-518,-146,0,0,0,0,0,0,0,0,0,-1,706,1170,0,0
-511,-146,0,0,0,0,0,0,0,0,0,-1,713,1170,0,0
-504,-146,0,0,0,0,0,0,0,0,0,-1,720,1170,0,0
-497,-146,0,0,0,0,0,0,0,0,0,-1,727,1170,0,0
-490,-146,0,0,0,0,0,0,0,0,0,-1,734,1170,0,0
-483,-146,0,0,0,0,0,0,0,0,0,-1,741,1170,0,0
-476,-146,0,0,0,0,0,0,0,0,0,-1,748,1170,0,0
-469,-146,0,0,0,0,0,0,0,0,0,-1,755,1170,0,0
-462,-146,0,0,0,0,0,0,0,0,0,-1,762,1170,0,0
-455,-146,0,0,0,0,0,0,0,0,0,-1,769,1170,0,0
-448,-146,0,0,0,0,0,0,0,0,0,-1,776,1170,0,0
-441,-146,0,0,0,0,0,0,0,0,0,-1,783,1170,0,0
-434,-146,0,0,0,0,0,0,0,0,0,-1,790,1170,0,0
-427,-146,0,0,0,0,0,0,0,0,0,-1,797,1170,0,0
-420,-146,0,0,0,0,0,0,0,0,0,-1,804,1170,0,0
-413,-146,0,0,0,0,0,0,0,0,0,-1,811,1170,0,0
-406,-146,0,0,0,0,0,0,0,0,0,-1,818,1170,0,0
-399,-146,0,0,0,0,0,0,0,0,0,-1,825,1170,0,0
-392,-146,0,0,0,0,0,0,0,0,0,-1,832,1170,0,0
-385,-146,0,0,0,0,0,0,0,0,0,-1,839,1170,0,0
-378,-146,0,0,0,0,0,0,0,0,0,-1,846,1170,0,0
-371,-146,0,0,0,0,0,0,0,0,0,-1,853,1170,0,0
-364,-146,0,0,0,0,0,0,0,0,0,-1,860,1170,0,0
-357,-146,0,0,0,0,0,0,0,0,0,-1,867,1170,0,0
-350,-146,0,0,0,0,0,0,0,0,0,-1,874,1170,0,0
-343,-146,0,0,0,0,0,0,0,0,0,-1,881,1170,0,0
-336,-146,0,0,0,0,0,0,0,0,0,-1,888,1170,0,0
-329,-146,0,0,0,0,0,0,0,0,0,-1,895,1170,0,0
-322,-146,0,0,0,0,0,0,0,0,0,-1,902,1170,0,0
-315,-146,0,0,0,0,0,0,0,0,0,-1,909,1170,0,0
-308,-146,0,0,0,0,0,0,0,0,0,-1,916,1170,0,0
-301,-146,0,0,0,0,0,0,0,0,0,-1,923,1170,0,0
-294,-146,0,0,0,0,0,0,0,0,0,-1,930,1170,0,0
-287,-146,0,0,0,0,0,0,0,0,0,-1,937,1170,0,0
-280,-146,0,0,0,0,0,0,0,0,0,-1,944,1170,0,0
-273,-146,0,0,0,0,0,0,0,0,0,-1,951,1170,0,0
-266,-146,0,0,0,0,0,0,0,0,0,-1,958,1170,0,0
-259,-146,0,0,0,0,0,0,0,0,0,-1,965,1170,0,0
-252,-146,0,0,0,0,0,0,0,0,0,-1,972,1170,0,0
-245,-146,0,0,0,0,0,0,0,0,0,-1,979,1170,0,0
-238,-146,0,0,0,0,0,0,0,0,0,-1,986,1170,0,0
-231,-146,0,0,0,0,0,0,0,0,0,-1,993,1170,0,0
-224,-146,0,0,0,0,0,0,0,0,0,-1,1000,1170,0,0
-217,-146,0,0,0,0,0,0,0,0,0,-1,1007,1170,0,0
-210,-146,0,0,0,0,0,0,0,0,0,-1,1014,1170,0,0
-203,-146,0,0,0,0,0,0,0,0,0,-1,1021,1170,0,0
-196,-146,0,0,0,0,0,0,0,0,0,-1,1028,1170,0,0
-189,-146,0,0,0,0,0,0,0,0,0,-1,1035,1170,0,0
-182,-146,0,0,0,0,0,0,0,0,0,-1,1042,1170,0,0
-175,-146,0,0,0,0,0,0,0,0,0,-1,1049,1170,0,0
-168,-146,0,0,0,0,0,0,0,0,0,-1,1056,1170,0,0
-161,-146,0,0,0,0,0,0,0,0,0,-1,1063,1170,0,0
-154,-146,0,0,0,0,0,0,0,0,0,-1,1070,1170,0,0
-147,-146,0,0,0,0,0,0,0,0,0,-1,1077,1170,0,0
-140,-146,0,0,0,0,0,0,0,0,0,-1,1084,1170,0,0
-133,-146,0,0,0,0,0,0,0,0,0,-1,1091,1170,0,0
-126,-146,0,0,0,0,0,0,0,0,0,-1,1098,1170,0,0
-119,-146,0,0,0,0,0,0,0,0,0,-1,1105,1170,0,0
-112,-146,0,0,0,0,0,0,0,0,0,-1,1112,1170,0,0
-105,-146,0,0,0,0,0,0,0,0,0,-1,1119,1170,0,0
-98,-146,0,0,0,0,0,0,0,0,0,-1,1126,1170,0,0
-91,-146,0,0,0,0,0,0,0,0,0,-1,1133,1170,0,0
-84,-146,0,0,0,0,0,0,0,0,0,-1,1140,1170,0,0
-77,-146,0,0,0,0,0,0,0,0,0,-1,1147,1170,0,0
-70,-146,0,0,0,0,0,0,0,0,0,-1,1154,1170,0,0
-63,-146,0,0,0,0,0,0,0,0,0,-1,1161,1170,0,0
-56,-146,0,0,0,0,0,0,0,0,0,-1,1168,1170,0,0
-49,-146,0,0,0,0,0,0,0,0,0,-1,1175,1170,0,0
-42,-146,0,0,0,0,0,0,0,0,0,-1,1182,1170,0,0
-35,-146,0,0,0,0,0,0,0,0,0,-1,1189,1170,0,0
-28,-146,0,0,0,0,0,0,0,0,0,-1,1196,1170,0,0
-21,-146,0,0,0,0,0,0,0,0,0,-1,1203,1170,0,0
-14,-146,0,0,0,0,0,0,0,0,0,-1,1210,1170,0,0
-7,-146,0,0,0,0,0,0,0,0,0,-1,1217,1170,0,0
0,-146,0,0,0,0,0,0,0,0,0,-1,1224,1170,0,0
7,-146,0,0,0,0,0,0,0,0,0,-1,1231,1170,0,0
14,-146,0,0,0,0,0,0,0,0,0,-1,1238,1170,0,0
21,-146,0,0,0,0,0,0,0,0,0,-1,1245,1170,0,0
28,-146,0,0,0,0,0,0,0,0,0,-1,1252,1170,0,0
35,-146,0,0,0,0,0,0,0,0,0,-1,1259,1170,0,0
42,-146,0,0,0,0,0,0,0,0,0,-1,1266,1170,0,0
49,-146,0,0,0,0,0,0,0,0,0,-1,1273,1170,0,0
56,-146,0,0,0,0,0,0,0,0,0,-1,1280,1170,0,0
63,-146,0,0,0,0,0,0,0,0,0,-1,1287,1170,0,0
70,-146,0,0,0,0,0,0,0,0,0,-1,1294,1170,0,0
77,-146,0,0,0,0,0,0,0,0,0,-1,1301,1170,0,0
84,-146,0,0,0,0,0,0,0,0,0,-1,1308,1170,0,0
91,-146,0,0,0,0,0,0,0,0,0,-1,1315,1170,0,0
98,-146,0,0,0,0,0,0,0,0,0,-1,1322,1170,0,0
105,-146,0,0,0,0,0,0,0,0,0,-1,1329,1170,0,0
112,-146,0,0,0,0,0,0,0,0,0,-1,1336,1170,0,0
119,-146,0,0,0,0,0,0,0,0,0,-1,1343,1170,0,0
126,-146,0,0,0,0,0,0,0,0,0,-1,1350,1170,0,0
133,-146,0,0,0,0,0,0,0,0,0,-1,1357,1170,0,0
140,-146,0,0,0,0,0,0,0,0,0,-1,1364,1170,0,0
147,-146,0,0,0,0,0,0,0,0,0,-1,1371,1170,0,0
154,-146,0,0,0,0,0,0,0,0,0,-1,1378,1170,0,0
161,-146,0,0,0,0,0,0,0,0,0,-1,1385,1170,0,0
168,-146,0,0,0,0,0,0,0,0,0,-1,1392,1170,0,0
175,-146,0,0,0,0,0,0,0,0,0,-1,1399,1170,0,0
182,-146,0,0,0,0,0,0,0,0,0,-1,1406,1170,0,0
189,-146,0,0,0,0,0,0,0,0,0,-1,1413,1170,0,0
196,-146,0,0,0,0,0,0,0,0,0,-1,1420,1170,0,0
203,-146,0,0,0,0,0,0,0,0,0,-1,1427,1170,0,0
210,-146,0,0,0,0,0,0,0,0,0,-1,1434,1170,0,0
217,-146,0,0,0,0,0,0,0,0,0,-1,1441,1170,0,0
224,-146,0,0,0,0,0,0,0,0,0,-1,1448,1170,0,0
231,-146,0,0,0,0,0,0,0,0,0,-1,1455,1170,0,0
238,-146,0,0,0,0,0,0,0,0,0,-1,1462,1170,0,0
245,-146,0,0,0,0,0,0,0,0,0,-1,1469,1170,0,0
252,-146,0,0,0,0,0,0,0,0,0,-1,1476,1170,0,0
259,-146,0,0,0,0,0,0,0,0,0,-1,1483,1170,0,0
266,-146,0,0,0,0,0,0,0,0,0,-1,1490,1170,0,0
273,-146,0,0,0,0,0,0,0,0,0,-1,1497,1170,0,0
280,-146,0,0,0,0,0,0,0,0,0,-1,1504,1170,0,0
287,-146,0,0,0,0,0,0,0,0,0,-1,1511,1170,0,0
294,-146,0,0,0,0,0,0,0,0,0,-1,1518,1170,0,0
301,-146,0,0,0,0,0,0,0,0,0,-1,1525,1170,0,0
308,-146,0,0,0,0,0,0,0,0,0,-1,1532,1170,0,0
315,-146,0,0,0,0,0,0,0,0,0,-1,1539,1170,0,0
322,-146,0,0,0,0,0,0,0,0,0,-1,1546,1170,0,0
329,-146,0,0,0,0,0,0,0,0,0,-1,1553,1170,0,0
336,-146,0,0,0,0,0,0,0,0,0,-1,1560,1170,0,0
343,-146,0,0,0,0,0,0,0,0,0,-1,1567,1170,0,0
350,-146,0,0,0,0,0,0,0,0,0,-1,1574,1170,0,0
357,-146,0,0,0,0,0,0,0,0,0,-1,1581,1170,0,0
364,-146,0,0,0,0,0,0,0,0,0,-1,1588,1170,0,0
371,-146,0,0,0,0,0,0,0,0,0,-1,1595,1170,0,0
378,-146,0,0,0,0,0,0,0,0,0,-1,1602,1170,0,0
385,-146,0,0,0,0,0,0,0,0,0,-1,1609,1170,0,0
392,-146,0,0,0,0,0,0,0,0,0,-1,1616,1170,0,0
399,-146,0,0,0,0,0,0,0,0,0,-1,1623,1170,0,0
406,-146,0,0,0,0,0,0,0,0,0,-1,1630,1170,0,0
413,-146,0,0,0,0,0,0,0,0,0,-1,1637,1170,0,0
420,-146,0,0,0,0,0,0,0,0,0,-1,1644,1170,0,0
427,-146,0,0,0,0,0,0,0,0,0,-1,1651,1170,0,0
434,-146,0,0,0,0,0,0,0,0,0,-1,1658,1170,0,0
441,-146,0,0,0,0,0,0,0,0,0,-1,1665,1170,0,0
448,-146,0,0,0,0,0,0,0,0,0,-1,1672,1170,0,0
455,-146,0,0,0,0,0,0,0,0,0,-1,1679,1170,0,0
462,-146,0,0,0,0,0,0,0,0,0,-1,1686,1170,0,0
469,-146,0,0,0,0,0,0,0,0,0,-1,1693,1170,0,0
476,-146,0,0,0,0,0,0,0,0,0,-1,1700,1170,0,0
483,-146,0,0,0,0,0,0,0,0,0,-1,1707,1170,0,0
490,-146,0,0,0,0,0,0,0,0,0,-1,1714,1170,0,0
497,-146,0,0,0,0,0,0,0,0,0,-1,1721,1170,0,0
504,-146,0,0,0,0,0,0,0,0,0,-1,1728,1170,0,0
511,-146,0,0,0,0,0,0,0,0,0,-1,1735,1170,0,0
518,-146,0,0,0,0,0,0,0,0,0,-1,1742,1170,0,0
525,-146,0,0,0,0,0,0,0,0,0,-1,1749,1170,0,0
532,-146,0,0,0,0,0,0,0,0,0,-1,1756,1170,0,0
539,-146,0,0,0,0,0,0,0,0,0,-1,1763,1170,0,0
546,-146,0,0,0,0,0,0,0,0,0,-1,1770,1170,0,0
553,-146,0,0,0,0,0,0,0,0,0,-1,1777,1170,0,0
560,-146,0,0,0,0,0,0,0,0,0,-1,1784,1170,0,0
567,-146,0,0,0,0,0,0,0,0,0,-1,1791,1170,0,0
574,-146,0,0,0,0,0,0,0,0,0,-1,1798,1170,0,0
581,-146,0,0,0,0,0,0,0,0,0,-1,1805,1170,0,0
588,-146,0,0,0,0,0,0,0,0,0,-1,1812,1170,0,0
595,-146,0,0,0,0,0,0,0,0,0,-1,1819,1170,0,0
602,-146,0,0,0,0,0,0,0,0,0,-1,1826,1170,0,0
609,-146,0,0,0,0,0,0,0,0,0,-1,1833,1170,0,0
616,-146,0,0,0,0,0,0,0,0,0,-1,1840,1170,0,0
623,-146,0,0,0,0,0,0,0,0,0,-1,1847,1170,0,0
630,-146,0,0,0,0,0,0,0,0,0,-1,1854,1170,0,0
637,-146,64.1418,2.48401,0.00214268,-0.0017166,-0.00168768,0.00277659,-0.00235051,-0.359304,0.00296354,0.0371431,1861,1170,64.1419,-2.48399
644,-146,64.1165,2.55029,0.00133579,-0.00183479,-0.000108341,0.00133949,-0.00183849,-0.0341178,0.00184233,0.0368569,1868,1170,64.1165,-2.55025
651,-146,64.0759,2.57251,0.000916271,-0.0014851,0.000571079,0.00104516,-0.00161399,0.22198,0.00154693,0.0359291,1875,1170,64.0759,-2.57256
658,-146,64.058,2.59778,0.000786251,-0.0010295,0.000784891,0.0010785,-0.00132174,0.356437,0.00138815,0.037474,1882,1170,64.058,-2.59774
665,-146,64.031,2.69922,0.000895846,-0.000449647,0.000652601,0.00116037,-0.000714171,0.3851,0.00109244,0.0394205,1889,1170,64.0311,-2.69928
672,-146,64.0913,2.79724,0.00120508,0.000239475,0.000190265,0.00124122,0.000203337,0.187698,0.000768718,0.0385967,1896,1170,64.0914,-2.79724
679,-146,64.1469,2.64404,0.00141747,0.00033053,-0.000190682,0.00144995,0.000298049,-0.168721,0.00088419,0.0306176,1903,1170,64.1468,-2.644
686,-146,64.0448,2.60925,0.00178381,0.000724542,-0.000355079,0.00189182,0.000616529,-0.2953,0.0011141,0.0230221,1910,1170,64.0448,-2.6093
693,-146,64.0842,2.5343,0.00166843,0.000651275,-0.000225981,0.00171637,0.000603329,-0.209069,0.00100541,0.0166383,1917,1170,64.0843,-2.53428
700,-146,64.11,2.33667,0,0,0,0,0,0,0,-1,1924,1170,64.11,-2.33671
707,-146,29.9441,6.94653,0,0,0,0,0,0,0,-1,1931,1170,29.9441,-6.94652
714,-146,31.325,6.13245,0,0,0,0,0,0,0,-1,1938,1170,31.325,-6.1325
721,-146,55.5125,8.97827,0,0,0,0,0,0,0,-1,1945,1170,55.5124,-8.97832
728,-146,55.9146,8.18872,0,0,0,0,0,0,0,-1,1952,1170,55.9145,-8.18868
735,-146,55.8636,7.97021,0.000904367,0.00118747,0.000275211,0.0013554,0.000736438,1.02292,0.000783518,0.0386751,1959,1170,55.8636,-7.97019
742,-146,55.939,7.40417,0.000646358,0.00105226,0.000704776,0.00158273,0.000115895,0.925589,0.00101872,0.0183282,1966,1170,55.939,-7.40415
749,-146,55.8527,6.88367,0.000387036,0.0015635,0.00118633,0.00229943,-0.000348889,1.01556,0.0016615,0.0160169,1973,1170,55.8527,-6.88373
756,-146,55.8347,6.34009,0.00038915,0.00321632,0.00109882,0.00359316,1.23065e-05,1.24041,0.00239135,0.0123763,1980,1170,55.8347,-6.34012
763,-146,55.8148,5.78113,0.000735816,0.00543916,0.000642858,0.00552544,0.000649532,1.43737,0.00348734,0.0115402,1987,1170,55.8148,-5.78113
770,-146,55.7893,5.26526,0.00116546,0.00801655,-1.38012e-05,0.00801658,0.00116543,-1.56878,0.00500138,0.0127864,1994,1170,55.7894,-5.26529
777,-146,55.8066,4.84094,0.0015144,0.011023,-0.00091882,0.0111109,0.00142643,-1.47534,0.00698056,0.0246307,2001,1170,55.8067,-4.84095
784,-146,55.8411,4.28235,0.00164313,0.0145589,-0.00214184,0.0149049,0.00129721,-1.41067,0.00953364,0.0415669,2008,1170,55.8411,-4.28232
791,-146,56.0244,3.7478,0.0015926,0.01937,-0.00391673,0.0201947,0.000767919,-1.36327,0.0132146,0.044083,2015,1170,56.0245,-3.74784
798,-146,56.1545,3.21362,0,0,0,0,0,0,0,-1,2022,1170,56.1546,-3.21357
805,-146,55.8123,3.91699,0,0,0,0,0,0,0,-1,2029,1170,55.8122,-3.91702
812,-146,0,0,0,0,0,0,0,0,0,-1,2036,1170,0,0
-700,-153,0,0,0,0,0,0,0,0,0,-1,524,1177,0,0
-693,-153,0,0,0,0,0,0,0,0,0,-1,531,1177,0,0
-686,-153,-41.4335,-7.12695,0,0,0,0,0,0,0,-1,538,1177,-41.4335,7.12692
-679,-153,-40.8779,-5.61938,0,0,0,0,0,0,0,-1,545,1177,-40.8779,5.61935
-672,-153,-40.1294,-4.09741,0.0786319,-0.0828836,0.0156155,0.0801277,-0.0843794,0.0955025,0.0949888,0.0476613,552,1177,-40.1294,4.09742
-665,-153,-39.4789,-2.52966,0.0635639,-0.0644519,0.0136833,0.0650101,-0.0658982,0.105303,0.0755805,0.0487156,559,1177,-39.4789,2.52969
-658,-153,-38.8477,-1.0658,0,0,0,0,0,0,0,-1,566,1177,-38.8477,1.0658
-651,-153,-39.8848,1.50525,0.0370777,-0.0347455,0.00866113,0.0381074,-0.0357752,0.11833,0.0426632,0.0463987,573,1177,-39.8848,-1.50522
-644,-153,-39.5134,2.37451,0.0258603,-0.0229845,0.00602014,0.0265914,-0.0237156,0.120841,0.0290606,0.0297253,580,1177,-39.5134,-2.37449
-637,-153,-39.5377,2.99292,0.0160243,-0.0132262,0.00345304,0.0164264,-0.0136283,0.115928,0.0173771,0.0125148,587,1177,-39.5377,-2.99289
-630,-153,-39.5697,3.5769,0.00764856,-0.00508162,0.00124094,0.0077684,-0.00520146,0.0962726,0.00753688,0.0110176,594,1177,-39.5697,-3.57689
-623,-153,-39.613,4.16675,0.00104972,6.54219e-05,-0.00108185,0.0017461,-0.000630959,-0.571931,0.00142184,0.0116223,601,1177,-39.6131,-4.16674
-616,-153,-39.6617,4.74487,-0.00228961,0.00178769,-0.00259339,0.00304779,-0.00354971,-1.1185,0.00381274,0.0143279,608,1177,-39.6617,-4.74487
-609,-153,-39.6662,5.28003,-0.00226712,0.000342911,-0.0022278,0.00161978,-0.00354399,-1.05035,0.00304952,0.0363896,615,1177,-39.6662,-5.28007
-602,-153,-39.6425,5.69299,0,0,0,0,0,0,0,-1,622,1177,-39.6424,-5.69303
-595,-153,-39.7745,6.64954,0,0,0,0,0,0,0,-1,629,1177,-39.7744,-6.64959
-588,-153,-32.348,5.51038,0,0,0,0,0,0,0,-1,636,1177,-32.348,-5.51034
-581,-153,-33.4568,6.41492,0,0,0,0,0,0,0,-1,643,1177,-33.4568,-6.41497
-574,-153,-25.4814,5.16956,0,0,0,0,0,0,0,-1,650,1177,-25.4814,-5.16961
-567,-153,-35.3121,1.09485,0,0,0,0,0,0,0,-1,657,1177,-35.3121,-1.09482
-560,-153,-48.2974,0.602905,0,0,0,0,0,0,0,-1,664,1177,-48.2974,-0.602946
-553,-153,-48.3845,0.935059,-0.00425471,-0.000364037,0.00210264,0.000555141,-0.00517388,1.15868,0.00364841,0.0394188,671,1177,-48.3845,-0.935061
-546,-153,-48.4432,1.32312,-0.00447485,-5.19117e-05,0.00253543,0.00110099,-0.00562776,1.14403,0.0041676,0.0407857,678,1177,-48.4432,-1.32307
-539,-153,-48.6484,1.27478,-0.00296351,-0.000753163,0.0023083,0.000700896,-0.00441757,1.00866,0.00320433,0.0428255,685,1177,-48.6484,-1.27482
-532,-153,-48.9961,1.19983,0,0,0,0,0,0,0,-1,692,1177,-48.9961,-1.19983
-525,-153,-48.4131,0.800415,0,0,0,0,0,0,0,-1,699,1177,-48.4131,-0.800389
-518,-153,0,0,0,0,0,0,0,0,0,-1,706,1177,0,0
-511,-153,0,0,0,0,0,0,0,0,0,-1,713,1177,0,0
-504,-153,0,0,0,0,0,0,0,0,0,-1,720,1177,0,0
-497,-153,0,0,0,0,0,0,0,0,0,-1,727,1177,0,0
-490,-153,0,0,0,0,0,0,0,0,0,-1,734,1177,0,0
-483,-153,0,0,0,0,0,0,0,0,0,-1,741,1177,0,0
-476,-153,0,0,0,0,0,0,0,0,0,-1,748,1177,0,0
-469,-153,0,0,0,0,0,0,0,0,0,-1,755,1177,0,0
-462,-153,0,0,0,0,0,0,0,0,0,-1,762,1177,0,0
-455,-153,0,0,0,0,0,0,0,0,0,-1,769,1177,0,0
-448,-153,0,0,0,0,0,0,0,0,0,-1,776,1177,0,0
-441,-153,0,0,0,0,0,0,0,0,0,-1,783,1177,0,0
-434,-153,0,0,0,0,0,0,0,0,0,-1,790,1177,0,0
-427,-153,0,0,0,0,0,0,0,0,0,-1,797,1177,0,0
-420,-153,0,0,0,0,0,0,0,0,0,-1,804,1177,0,0
-413,-153,0,0,0,0,0,0,0,0,0,-1,811,1177,0,0
-406,-153,0,0,0,0,0,0,0,0,0,-1,818,1177,0,0
-399,-153,0,0,0,0,0,0,0,0,0,-1,825,1177,0,0
-392,-153,0,0,0,0,0,0,0,0,0,-1,832,1177,0,0
-385,-153,0,0,0,0,0,0,0,0,0,-1,839,1177,0,0
-378,-153,0,0,0,0,0,0,0,0,0,-1,846,1177,0,0
-371,-153,0,0,0,0,0,0,0,0,0,-1,853,1177,0,0
-364,-153,0,0,0,0,0,0,0,0,0,-1,860,1177,0,0
-357,-153,0,0,0,0,0,0,0,0,0,-1,867,1177,0,0
-350,-153,0,0,0,0,0,0,0,0,0,-1,874,1177,0,0
-343,-153,0,0,0,0,0,0,0,0,0,-1,881,1177,0,0
-336,-153,0,0,0,0,0,0,0,0,0,-1,888,1177,0,0
-329,-153,0,0,0,0,0,0,0,0,0,-1,895,1177,0,0
-322,-153,0,0,0,0,0,0,0,0,0,-1,902,1177,0,0
-315,-153,0,0,0,0,0,0,0,0,0,-1,909,1177,0,0
-308,-153,0,0,0,0,0,0,0,0,0,-1,916,1177,0,0
-301,-153,0,0,0,0,0,0,0,0,0,-1,923,1177,0,0
-294,-153,0,0,0,0,0,0,0,0,0,-1,930,1177,0,0
-287,-153,0,0,0,0,0,0,0,0,0,-1,937,1177,0,0
-280,-153,0,0,0,0,0,0,0,0,0,-1,944,1177,0,0
-273,-153,0,0,0,0,0,0,0,0,0,-1,951,1177,0,0
-266,-153,0,0,0,0,0,0,0,0,0,-1,958,1177,0,0
-259,-153,0,0,0,0,0,0,0,0,0,-1,965,1177,0,0
-252,-153,0,0,0,0,0,0,0,0,0,-1,972,1177,0,0
-245,-153,0,0,0,0,0,0,0,0,0,-1,979,1177,0,0
-238,-153,0,0,0,0,0,0,0,0,0,-1,986,1177,0,0
-231,-153,0,0,0,0,0,0,0,0,0,-1,993,1177,0,0
-224,-153,0,0,0,0,0,0,0,0,0,-1,1000,1177,0,0
-217,-153,0,0,0,0,0,0,0,0,0,-1,1007,1177,0,0
-210,-153,0,0,0,0,0,0,0,0,0,-1,1014,1177,0,0
-203,-153,0,0,0,0,0,0,0,0,0,-1,1021,1177,0,0
-196,-153,0,0,0,0,0,0,0,0,0,-1,1028,1177,0,0
-189,-153,0,0,0,0,0,0,0,0,0,-1,1035,1177,0,0
-182,-153,0,0,0,0,0,0,0,0,0,-1,1042,1177,0,0
-175,-153,0,0,0,0,0,0,0,0,0,-1,1049,1177,0,0
-168,-153,0,0,0,0,0,0,0,0,0,-1,1056,1177,0,0
-161,-153,0,0,0,0,0,0,0,0,0,-1,1063,1177,0,0
-154,-153,0,0,0,0,0,0,0,0,0,-1,1070,1177,0,0
-147,-153,0,0,0,0,0,0,0,0,0,-1,1077,1177,0,0
-140,-153,0,0,0,0,0,0,0,0,0,-1,1084,1177,0,0
-133,-153,0,0,0,0,0,0,0,0,0,-1,1091,1177,0,0
-126,-153,0,0,0,0,0,0,0,0,0,-1,1098,1177,0,0
-119,-153,0,0,0,0,0,0,0,0,0,-1,1105,1177,0,0
-112,-153,0,0,0,0,0,0,0,0,0,-1,1112,1177,0,0
-105,-153,0,0,0,0,0,0,0,0,0,-1,1119,1177,0,0
-98,-153,0,0,0,0,0,0,0,0,0,-1,1126,1177,0,0
-91,-153,0,0,0,0,0,0,0,0,0,-1,1133,1177,0,0
-84,-153,0,0,0,0,0,0,0,0,0,-1,1140,1177,0,0
-77,-153,0,0,0,0,0,0,0,0,0,-1,1147,1177,0,0
-70,-153,0,0,0,0,0,0,0,0,0,-1,1154,1177,0,0
-63,-153,0,0,0,0,0,0,0,0,0,-1,1161,1177,0,0
-56,-153,0,0,0,0,0,0,0,0,0,-1,1168,1177,0,0
-49,-153,0,0,0,0,0,0,0,0,0,-1,1175,1177,0,0
-42,-153,0,0,0,0,0,0,0,0,0,-1,1182,1177,0,0
-35,-153,0,0,0,0,0,0,0,0,0,-1,1189,1177,0,0
-28,-153,0,0,0,0,0,0,0,0,0,-1,1196,1177,0,0
-21,-153,0,0,0,0,0,0,0,0,0,-1,1203,1177,0,0
-14,-153,0,0,0,0,0,0,0,0,0,-1,1210,1177,0,0
-7,-153,0,0,0,0,0,0,0,0,0,-1,1217,1177,0,0
0,-153,0,0,0,0,0,0,0,0,0,-1,1224,1177,0,0
7,-153,0,0,0,0,0,0,0,0,0,-1,1231,1177,0,0
14,-153,0,0,0,0,0,0,0,0,0,-1,1238,1177,0,0
21,-153,0,0,0,0,0,0,0,0,0,-1,1245,1177,0,0
28,-153,0,0,0,0,0,0,0,0,0,-1,1252,1177,0,0
35,-153,0,0,0,0,0,0,0,0,0,-1,1259,1177,0,0
42,-153,0,0,0,0,0,0,0,0,0,-1,1266,1177,0,0
49,-153,0,0,0,0,0,0,0,0,0,-1,1273,1177,0,0
56,-153,0,0,0,0,0,0,0,0,0,-1,1280,1177,0,0
63,-153,0,0,0,0,0,0,0,0,0,-1,1287,1177,0,0
70,-153,0,0,0,0,0,0,0,0,0,-1,1294,1177,0,0
77,-153,0,0,0,0,0,0,0,0,0,-1,1301,1177,0,0
84,-153,0,0,0,0,0,0,0,0,0,-1,1308,1177,0,0
91,-153,0,0,0,0,0,0,0,0,0,-1,1315,1177,0,0
98,-153,0,0,0,0,0,0,0,0,0,-1,1322,1177,0,0
105,-153,0,0,0,0,0,0,0,0,0,-1,1329,1177,0,0
112,-153,0,0,0,0,0,0,0,0,0,-1,1336,1177,0,0
119,-153,0,0,0,0,0,0,0,0,0,-1,1343,1177,0,0
126,-153,0,0,0,0,0,0,0,0,0,-1,1350,1177,0,0
133,-153,0,0,0,0,0,0,0,0,0,-1,1357,1177,0,0
140,-153,0,0,0,0,0,0,0,0,0,-1,1364,1177,0,0
147,-153,0,0,0,0,0,0,0,0,0,-1,1371,1177,0,0
154,-153,0,0,0,0,0,0,0,0,0,-1,1378,1177,0,0
161,-153,0,0,0,0,0,0,0,0,0,-1,1385,1177,0,0
168,-153,0,0,0,0,0,0,0,0,0,-1,1392,1177,0,0
175,-153,0,0,0,0,0,0,0,0,0,-1,1399,1177,0,0
182,-153,0,0,0,0,0,0,0,0,0,-1,1406,1177,0,0
189,-153,0,0,0,0,0,0,0,0,0,-1,1413,1177,0,0
196,-153,0,0,0,0,0,0,0,0,0,-1,1420,1177,0,0
203,-153,0,0,0,0,0,0,0,0,0,-1,1427,1177,0,0
210,-153,0,0,0,0,0,0,0,0,0,-1,1434,1177,0,0
217,-153,0,0,0,0,0,0,0,0,0,-1,1441,1177,0,0
224,-153,0,0,0,0,0,0,0,0,0,-1,1448,1177,0,0
231,-153,0,0,0,0,0,0,0,0,0,-1,1455,1177,0,0
238,-153,0,0,0,0,0,0,0,0,0,-1,1462,1177,0,0
245,-153,0,0,0,0,0,0,0,0,0,-1,1469,1177,0,0
252,-153,0,0,0,0,0,0,0,0,0,-1,1476,1177,0,0
259,-153,0,0,0,0,0,0,0,0,0,-1,1483,1177,0,0
266,-153,0,0,0,0,0,0,0,0,0,-1,1490,1177,0,0
273,-153,0,0,0,0,0,0,0,0,0,-1,1497,1177,0,0
280,-153,0,0,0,0,0,0,0,0,0,-1,1504,1177,0,0
287,-153,0,0,0,0,0,0,0,0,0,-1,1511,1177,0,0
294,-153,0,0,0,0,0,0,0,0,0,-1,1518,1177,0,0
301,-153,0,0,0,0,0,0,0,0,0,-1,1525,1177,0,0
308,-153,0,0,0,0,0,0,0,0,0,-1,1532,1177,0,0
315,-153,0,0,0,0,0,0,0,0,0,-1,1539,1177,0,0
322,-153,0,0,0,0,0,0,0,0,0,-1,1546,1177,0,0
329,-153,0,0,0,0,0,0,0,0,0,-1,1553,1177,0,0
336,-153,0,0,0,0,0,0,0,0,0,-1,1560,1177,0,0
343,-153,0,0,0,0,0,0,0,0,0,-1,1567,1177,0,0
350,-153,0,0,0,0,0,0,0,0,0,-1,1574,1177,0,0
357,-153,0,0,0,0,0,0,0,0,0,-1,1581,1177,0,0
364,-153,0,0,0,0,0,0,0,0,0,-1,1588,1177,0,0
371,-153,0,0,0,0,0,0,0,0,0,-1,1595,1177,0,0
378,-153,0,0,0,0,0,0,0,0,0,-1,1602,1177,0,0
385,-153,0,0,0,0,0,0,0,0,0,-1,1609,1177,0,0
392,-153,0,0,0,0,0,0,0,0,0,-1,1616,1177,0,0
399,-153,0,0,0,0,0,0,0,0,0,-1,1623,1177,0,0
406,-153,0,0,0,0,0,0,0,0,0,-1,1630,1177,0,0
413,-153,0,0,0,0,0,0,0,0,0,-1,1637,1177,0,0
420,-153,0,0,0,0,0,0,0,0,0,-1,1644,1177,0,0
427,-153,0,0,0,0,0,0,0,0,0,-1,1651,1177,0,0
434,-153,0,0,0,0,0,0,0,0,0,-1,1658,1177,0,0
441,-153,0,0,0,0,0,0,0,0,0,-1,1665,1177,0,0
448,-153,0,0,0,0,0,0,0,0,0,-1,1672,1177,0,0
455,-153,0,0,0,0,0,0,0,0,0,-1,1679,1177,0,0
462,-153,0,0,0,0,0,0,0,0,0,-1,1686,1177,0,0
469,-153,0,0,0,0,0,0,0,0,0,-1,1693,1177,0,0
476,-153,0,0,0,0,0,0,0,0,0,-1,1700,1177,0,0
483,-153,0,0,0,0,0,0,0,0,0,-1,1707,1177,0,0
490,-153,0,0,0,0,0,0,0,0,0,-1,1714,1177,0,0
497,-153,0,0,0,0,0,0,0,0,0,-1,1721,1177,0,0
504,-153,0,0,0,0,0,0,0,0,0,-1,1728,1177,0,0
511,-153,0,0,0,0,0,0,0,0,0,-1,1735,1177,0,0
518,-153,0,0,0,0,0,0,0,0,0,-1,1742,1177,0,0
525,-153,0,0,0,0,0,0,0,0,0,-1,1749,1177,0,0
532,-153,0,0,0,0,0,0,0,0,0,-1,1756,1177,0,0
539,-153,0,0,0,0,0,0,0,0,0,-1,1763,1177,0,0
546,-153,0,0,0,0,0,0,0,0,0,-1,1770,1177,0,0
553,-153,0,0,0,0,0,0,0,0,0,-1,1777,1177,0,0
560,-153,0,0,0,0,0,0,0,0,0,-1,1784,1177,0,0
567,-153,0,0,0,0,0,0,0,0,0,-1,1791,1177,0,0
574,-153,0,0,0,0,0,0,0,0,0,-1,1798,1177,0,0
581,-153,0,0,0,0,0,0,0,0,0,-1,1805,1177,0,0
588,-153,0,0,0,0,0,0,0,0,0,-1,1812,1177,0,0
595,-153,0,0,0,0,0,0,0,0,0,-1,1819,1177,0,0
602,-153,0,0,0,0,0,0,0,0,0,-1,1826,1177,0,0
609,-153,0,0,0,0,0,0,0,0,0,-1,1833,1177,0,0
616,-153,0,0,0,0,0,0,0,0,0,-1,1840,1177,0,0
623,-153,0,0,0,0,0,0,0,0,0,-1,1847,1177,0,0
630,-153,0,0,0,0,0,0,0,0,0,-1,1854,1177,0,0
637,-153,64.1283,2.65588,0.00257896,-0.00115028,-0.00142498,0.00306112,-0.00163244,-0.326271,0.00275136,0.0391154,1861,1177,64.1283,-2.65586
644,-153,64.1094,2.54053,0.00167825,-0.00136896,-0.000166318,0.0016873,-0.00137801,-0.0543651,0.00177276,0.0373863,1868,1177,64.1094,-2.54053
651,-153,64.1014,2.4917,0.00119347,-0.00108019,0.0003659,0.00125091,-0.00113762,0.155694,0.00137953,0.0306482,1875,1177,64.1014,-2.49168
658,-153,64.0216,2.50806,0.00104903,-0.000635576,0.000482345,0.00117737,-0.000763907,0.260033,0.00112924,0.0336173,1882,1177,64.0216,-2.50812
665,-153,63.9554,2.57263,0.0011853,-8.94716e-05,0.000311731,0.00125744,-0.000161619,0.227436,0.000897034,0.0377106,1889,1177,63.9555,-2.5726
672,-153,63.9672,2.78625,0.00155187,0.000561502,-0.000109164,0.00156376,0.000549612,-0.10849,0.000916021,0.0392578,1896,1177,63.9671,-2.78623
679,-153,63.9805,2.64624,0.00180024,0.000587576,-0.000405353,0.00192325,0.000464559,-0.294647,0.00115878,0.0297681,1903,1177,63.9805,-2.64629
686,-153,64.0684,2.59631,0.00214015,0.000943358,-0.000454951,0.00229345,0.00079005,-0.325026,0.00134531,0.018194,1910,1177,64.0683,-2.59636
693,-153,64.1068,2.47168,0.00198741,0.0008091,-0.00027588,0.0020488,0.000747706,-0.218969,0.00119717,0.0419636,1917,1177,64.1068,-2.47167
700,-153,64.0862,2.28015,0,0,0,0,0,0,0,-1,1924,1177,64.0862,-2.2801
707,-153,29.6483,6.6842,0,0,0,0,0,0,0,-1,1931,1177,29.6483,-6.68415
714,-153,36.0046,6.78418,0,0,0,0,0,0,0,-1,1938,1177,36.0046,-6.78418
721,-153,36.4866,6.47595,0,0,0,0,0,0,0,-1,1945,1177,36.4866,-6.47593
728,-153,47.7305,7.37024,0,0,0,0,0,0,0,-1,1952,1177,47.7304,-7.37022
735,-153,55.2303,7.69763,0,0,0,0,0,0,0,-1,1959,1177,55.2304,-7.69761
742,-153,55.3619,7.44495,0.000860976,0.00109605,0.000826376,0.0018132,0.000143819,0.856039,0.00116383,0.0161489,1966,1177,55.3619,-7.44489
749,-153,55.3356,6.91895,0.000680556,0.00167774,0.00118239,0.00246237,-0.000104067,0.984927,0.00167734,0.0169716,1973,1177,55.3356,-6.91889
756,-153,55.2976,6.36633,0.000677484,0.00328814,0.000992349,0.00362252,0.000343105,1.24579,0.00230916,0.0116711,1980,1177,55.2977,-6.36634
763,-153,55.2646,5.82605,0.000855448,0.00519789,0.000534679,0.00526276,0.000790583,1.45007,0.00327692,0.0111817,1987,1177,55.2647,-5.82602
770,-153,55.2456,5.28943,0.00098588,0.00731539,-5.68156e-05,0.0073159,0.000985371,-1.56182,0.00458425,0.0124453,1994,1177,55.2455,-5.28942
777,-153,55.2468,4.71802,0.000850817,0.00962786,-0.000806255,0.00970131,0.000777369,-1.47995,0.00622462,0.0251068,2001,1177,55.2468,-4.71801
784,-153,55.3186,4.14294,0.000228602,0.0120755,-0.00173786,0.0123252,-2.10679e-05,-1.42811,0.00822383,0.0432666,2008,1177,55.3186,-4.14295
791,-153,55.5557,3.61816,-0.000918946,0.0151308,-0.00299476,0.0156714,-0.00145954,-1.39221,0.0109665,0.0437761,2015,1177,55.5557,-3.61821
798,-153,56.1353,3.19604,0,0,0,0,0,0,0,-1,2022,1177,56.1352,-3.19608
805,-153,55.5972,4.47974,0,0,0,0,0,0,0,-1,2029,1177,55.5972,-4.47971
812,-153,0,0,0,0,0,0,0,0,0,-1,2036,1177,0,0
-700,-160,0,0,0,0,0,0,0,0,0,-1,524,1184,0,0
-693,-160,0,0,0,0,0,0,0,0,0,-1,531,1184,0,0
-686,-160,-40.6839,-5.91235,0.113624,-0.137716,0.0129229,0.114287,-0.138378,0.0512358,0.146097,0.0479309,538,1184,-40.6839,5.91238
-679,-160,-40.1277,-4.54236,0.0958854,-0.111973,0.0144584,0.0968863,-0.112974,0.0691153,0.121281,0.0475961,545,1184,-40.1277,4.54236
-672,-160,-39.5191,-3.15991,0.0787279,-0.0894639,0.0137762,0.0798488,-0.0905848,0.0811864,0.098465,0.0439681,552,1184,-39.5191,3.1599
-665,-160,-38.9226,-1.8064,0.0630998,-0.0699328,0.0121604,0.0642023,-0.0710352,0.0904105,0.0781126,0.0483685,559,1184,-38.9226,1.80636
-658,-160,-38.3067,-0.480225,0,0,0,0,0,0,0,-1,566,1184,-38.3067,0.480211
-651,-160,-39.598,1.21594,0,0,0,0,0,0,0,-1,573,1184,-39.5979,-1.21594
-644,-160,-38.9413,2.26819,0.0257538,-0.0259528,0.00551186,0.0263349,-0.0265338,0.105026,0.0305238,0.0385097,580,1184,-38.9413,-2.26823
-637,-160,-38.8963,3.00598,0.0162186,-0.0154985,0.00322838,0.0165439,-0.0158237,0.100415,0.018689,0.0153229,587,1184,-38.8963,-3.00603
-630,-160,-38.9888,3.55957,0.00800244,-0.00655964,0.00126304,0.00811118,-0.00666838,0.0858805,0.00854653,0.00950339,594,1184,-38.9888,-3.55953
-623,-160,-39.0402,4.12585,0.00145144,-0.000710173,-0.000913175,0.00178556,-0.0010443,-0.350764,0.0016524,0.0139788,601,1184,-39.0402,-4.1259
-616,-160,-39.0761,4.73364,-0.00237002,0.00177843,-0.00255389,0.00299431,-0.00358589,-1.12646,0.0038042,0.0120261,608,1184,-39.0761,-4.73369
-609,-160,-39.1463,5.35645,-0.00288889,0.000694204,-0.00235517,0.00186179,-0.00405648,-1.11055,0.00349435,0.0206852,615,1184,-39.1463,-5.35646
-602,-160,-39.2379,5.97632,0,0,0,0,0,0,0,-1,622,1184,-39.2379,-5.97635
-595,-160,-33.0669,5.93445,0,0,0,0,0,0,0,-1,629,1184,-33.0669,-5.93446
-588,-160,-33.4845,5.66699,0,0,0,0,0,0,0,-1,636,1184,-33.4845,-5.66697
-581,-160,-33.1338,6.41174,0,0,0,0,0,0,0,-1,643,1184,-33.1338,-6.41176
-574,-160,-32.7831,7.15649,0,0,0,0,0,0,0,-1,650,1184,-32.7831,-7.15655
-567,-160,-29.5828,0.643921,0,0,0,0,0,0,0,-1,657,1184,-29.5828,-0.643968
-560,-160,-48.2517,0.607544,0,0,0,0,0,0,0,-1,664,1184,-48.2517,-0.607561
-553,-160,-48.321,0.81311,-0.00491004,0.00044569,0.00225116,0.00126621,-0.00573056,1.22127,0.00430497,0.0411152,671,1184,-48.321,-0.813151
-546,-160,-48.4728,1.0592,-0.00504212,0.000979445,0.00288831,0.00214085,-0.00620352,1.18848,0.00500434,0.0387049,678,1184,-48.4728,-1.05916
-539,-160,-48.6217,1.21997,-0.00360468,0.000628906,0.00258533,0.00185348,-0.00482926,1.12844,0.00398375,0.0436012,685,1184,-48.6217,-1.21992
-532,-160,-48.7245,1.15552,-0.00140428,-0.000670433,0.00188208,0.000880159,-0.00295487,0.881668,0.00231964,0.0480207,692,1184,-48.7246,-1.15556
-525,-160,-48.612,1.27478,0,0,0,0,0,0,0,-1,699,1184,-48.612,-1.27481
-518,-160,-48.42,1.29675,0,0,0,0,0,0,0,-1,706,1184,-48.42,-1.29672
-511,-160,0,0,0,0,0,0,0,0,0,-1,713,1184,0,0
-504,-160,0,0,0,0,0,0,0,0,0,-1,720,1184,0,0
-497,-160,0,0,0,0,0,0,0,0,0,-1,727,1184,0,0
-490,-160,0,0,0,0,0,0,0,0,0,-1,734,1184,0,0
-483,-160,0,0,0,0,0,0,0,0,0,-1,741,1184,0,0
-476,-160,0,0,0,0,0,0,0,0,0,-1,748,1184,0,0
-469,-160,0,0,0,0,0,0,0,0,0,-1,755,1184,0,0
-462,-160,0,0,0,0,0,0,0,0,0,-1,762,1184,0,0
-455,-160,0,0,0,0,0,0,0,0,0,-1,769,1184,0,0
-448,-160,0,0,0,0,0,0,0,0,0,-1,776,1184,0,0
-441,-160,0,0,0,0,0,0,0,0,0,-1,783,1184,0,0
-434,-160,0,0,0,0,0,0,0,0,0,-1,790,1184,0,0
-427,-160,0,0,0,0,0,0,0,0,0,-1,797,1184,0,0
-420,-160,0,0,0,0,0,0,0,0,0,-1,804,1184,0,0
-413,-160,0,0,0,0,0,0,0,0,0,-1,811,1184,0,0
-406,-160,0,0,0,0,0,0,0,0,0,-1,818,1184,0,0
-399,-160,0,0,0,0,0,0,0,0,0,-1,825,1184,0,0
-392,-160,0,0,0,0,0,0,0,0,0,-1,832,1184,0,0
-385,-160,0,0,0,0,0,0,0,0,0,-1,839,1184,0,0
-378,-160,0,0,0,0,0,0,0,0,0,-1,846,1184,0,0
-371,-160,0,0,0,0,0,0,0,0,0,-1,853,1184,0,0
-364,-160,0,0,0,0,0,0,0,0,0,-1,860,1184,0,0
-357,-160,0,0,0,0,0,0,0,0,0,-1,867,1184,0,0
-350,-160,0,0,0,0,0,0,0,0,0,-1,874,1184,0,0
-343,-160,0,0,0,0,0,0,0,0,0,-1,881,1184,0,0
-336,-160,0,0,0,0,0,0,0,0,0,-1,888,1184,0,0
-329,-160,0,0,0,0,0,0,0,0,0,-1,895,1184,0,0
-322,-160,0,0,0,0,0,0,0,0,0,-1,902,1184,0,0
-315,-160,0,0,0,0,0,0,0,0,0,-1,909,1184,0,0
-308,-160,0,0,0,0,0,0,0,0,0,-1,916,1184,0,0
-301,-160,0,0,0,0,0,0,0,0,0,-1,923,1184,0,0
-294,-160,0,0,0,0,0,0,0,0,0,-1,930,1184,0,0
-287,-160,0,0,0,0,0,0,0,0,0,-1,937,1184,0,0
-280,-160,0,0,0,0,0,0,0,0,0,-1,944,1184,0,0
-273,-160,0,0,0,0,0,0,0,0,0,-1,951,1184,0,0
-266,-160,0,0,0,0,0,0,0,0,0,-1,958,1184,0,0
-259,-160,0,0,0,0,0,0,0,0,0,-1,965,1184,0,0
-252,-160,0,0,0,0,0,0,0,0,0,-1,972,1184,0,0
-245,-160,0,0,0,0,0,0,0,0,0,-1,979,1184,0,0
-238,-160,0,0,0,0,0,0,0,0,0,-1,986,1184,0,0
-231,-160,0,0,0,0,0,0,0,0,0,-1,993,1184,0,0
-224,-160,0,0,0,0,0,0,0,0,0,-1,1000,1184,0,0
-217,-160,0,0,0,0,0,0,0,0,0,-1,1007,1184,0,0
-210,-160,0,0,0,0,0,0,0,0,0,-1,1014,1184,0,0
-203,-160,0,0,0,0,0,0,0,0,0,-1,1021,1184,0,0
-196,-160,0,0,0,0,0,0,0,0,0,-1,1028,1184,0,0
-189,-160,0,0,0,0,0,0,0,0,0,-1,1035,1184,0,0
-182,-160,0,0,0,0,0,0,0,0,0,-1,1042,1184,0,0
-175,-160,0,0,0,0,0,0,0,0,0,-1,1049,1184,0,0
-168,-160,0,0,0,0,0,0,0,0,0,-1,1056,1184,0,0
-161,-160,0,0,0,0,0,0,0,0,0,-1,1063,1184,0,0
-154,-160,0,0,0,0,0,0,0,0,0,-1,1070,1184,0,0
-147,-160,0,0,0,0,0,0,0,0,0,-1,1077,1184,0,0
-140,-160,0,0,0,0,0,0,0,0,0,-1,1084,1184,0,0
-133,-160,0,0,0,0,0,0,0,0,0,-1,1091,1184,0,0
-126,-160,0,0,0,0,0,0,0,0,0,-1,1098,1184,0,0
-119,-160,0,0,0,0,0,0,0,0,0,-1,1105,1184,0,0
-112,-160,0,0,0,0,0,0,0,0,0,-1,1112,1184,0,0
-105,-160,0,0,0,0,0,0,0,0,0,-1,1119,1184,0,0
-98,-160,0,0,0,0,0,0,0,0,0,-1,1126,1184,0,0
-91,-160,0,0,0,0,0,0,0,0,0,-1,1133,1184,0,0
-84,-160,0,0,0,0,0,0,0,0,0,-1,1140,1184,0,0
-77,-160,0,0,0,0,0,0,0,0,0,-1,1147,1184,0,0
-70,-160,0,0,0,0,0,0,0,0,0,-1,1154,1184,0,0
-63,-160,0,0,0,0,0,0,0,0,0,-1,1161,1184,0,0
-56,-160,0,0,0,0,0,0,0,0,0,-1,1168,1184,0,0
-49,-160,0,0,0,0,0,0,0,0,0,-1,1175,1184,0,0
-42,-160,0,0,0,0,0,0,0,0,0,-1,1182,1184,0,0
-35,-160,0,0,0,0,0,0,0,0,0,-1,1189,1184,0,0
-28,-160,0,0,0,0,0,0,0,0,0,-1,1196,1184,0,0
-21,-160,0,0,0,0,0,0,0,0,0,-1,1203,1184,0,0
-14,-160,0,0,0,0,0,0,0,0,0,-1,1210,1184,0,0
-7,-160,0,0,0,0,0,0,0,0,0,-1,1217,1184,0,0
0,-160,0,0,0,0,0,0,0,0,0,-1,1224,1184,0,0
7,-160,0,0,0,0,0,0,0,0,0,-1,1231,1184,0,0
14,-160,0,0,0,0,0,0,0,0,0,-1,1238,1184,0,0
21,-160,0,0,0,0,0,0,0,0,0,-1,1245,1184,0,0
28,-160,0,0,0,0,0,0,0,0,0,-1,1252,1184,0,0
35,-160,0,0,0,0,0,0,0,0,0,-1,1259,1184,0,0
42,-160,0,0,0,0,0,0,0,0,0,-1,1266,1184,0,0
49,-160,0,0,0,0,0,0,0,0,0,-1,1273,1184,0,0
56,-160,0,0,0,0,0,0,0,0,0,-1,1280,1184,0,0
63,-160,0,0,0,0,0,0,0,0,0,-1,1287,1184,0,0
70,-160,0,0,0,0,0,0,0,0,0,-1,1294,1184,0,0
77,-160,0,0,0,0,0,0,0,0,0,-1,1301,1184,0,0
84,-160,0,0,0,0,0,0,0,0,0,-1,1308,1184,0,0
91,-160,0,0,0,0,0,0,0,0,0,-1,1315,1184,0,0
98,-160,0,0,0,0,0,0,0,0,0,-1,1322,1184,0,0
105,-160,0,0,0,0,0,0,0,0,0,-1,1329,1184,0,0
112,-160,0,0,0,0,0,0,0,0,0,-1,1336,1184,0,0
119,-160,0,0,0,0,0,0,0,0,0,-1,1343,1184,0,0
126,-160,0,0,0,0,0,0,0,0,0,-1,1350,1184,0,0
133,-160,0,0,0,0,0,0,0,0,0,-1,1357,1184,0,0
140,-160,0,0,0,0,0,0,0,0,0,-1,1364,1184,0,0
147,-160,0,0,0,0,0,0,0,0,0,-1,1371,1184,0,0
154,-160,0,0,0,0,0,0,0,0,0,-1,1378,1184,0,0
161,-160,0,0,0,0,0,0,0,0,0,-1,1385,1184,0,0
168,-160,0,0,0,0,0,0,0,0,0,-1,1392,1184,0,0
175,-160,0,0,0,0,0,0,0,0,0,-1,1399,1184,0,0
182,-160,0,0,0,0,0,0,0,0,0,-1,1406,1184,0,0
189,-160,0,0,0,0,0,0,0,0,0,-1,1413,1184,0,0
196,-160,0,0,0,0,0,0,0,0,0,-1,1420,1184,0,0
203,-160,0,0,0,0,0,0,0,0,0,-1,1427,1184,0,0
210,-160,0,0,0,0,0,0,0,0,0,-1,1434,1184,0,0
217,-160,0,0,0,0,0,0,0,0,0,-1,1441,1184,0,0
224,-160,0,0,0,0,0,0,0,0,0,-1,1448,1184,0,0
231,-160,0,0,0,0,0,0,0,0,0,-1,1455,1184,0,0
238,-160,0,0,0,0,0,0,0,0,0,-1,1462,1184,0,0
245,-160,0,0,0,0,0,0,0,0,0,-1,1469,1184,0,0
252,-160,0,0,0,0,0,0,0,0,0,-1,1476,1184,0,0
259,-160,0,0,0,0,0,0,0,0,0,-1,1483,1184,0,0
266,-160,0,0,0,0,0,0,0,0,0,-1,1490,1184,0,0
273,-160,0,0,0,0,0,0,0,0,0,-1,1497,1184,0,0
280,-160,0,0,0,0,0,0,0,0,0,-1,1504,1184,0,0
287,-160,0,0,0,0,0,0,0,0,0,-1,1511,1184,0,0
294,-160,0,0,0,0,0,0,0,0,0,-1,1518,1184,0,0
301,-160,0,0,0,0,0,0,0,0,0,-1,1525,1184,0,0
308,-160,0,0,0,0,0,0,0,0,0,-1,1532,1184,0,0
315,-160,0,0,0,0,0,0,0,0,0,-1,1539,1184,0,0
322,-160,0,0,0,0,0,0,0,0,0,-1,1546,1184,0,0
329,-160,0,0,0,0,0,0,0,0,0,-1,1553,1184,0,0
336,-160,0,0,0,0,0,0,0,0,0,-1,1560,1184,0,0
343,-160,0,0,0,0,0,0,0,0,0,-1,1567,1184,0,0
350,-160,0,0,0,0,0,0,0,0,0,-1,1574,1184,0,0
357,-160,0,0,0,0,0,0,0,0,0,-1,1581,1184,0,0
364,-160,0,0,0,0,0,0,0,0,0,-1,1588,1184,0,0
371,-160,0,0,0,0,0,0,0,0,0,-1,1595,1184,0,0
378,-160,0,0,0,0,0,0,0,0,0,-1,1602,1184,0,0
385,-160,0,0,0,0,0,0,0,0,0,-1,1609,1184,0,0
392,-160,0,0,0,0,0,0,0,0,0,-1,1616,1184,0,0
399,-160,0,0,0,0,0,0,0,0,0,-1,1623,1184,0,0
406,-160,0,0,0,0,0,0,0,0,0,-1,1630,1184,0,0
413,-160,0,0,0,0,0,0,0,0,0,-1,1637,1184,0,0
420,-160,0,0,0,0,0,0,0,0,0,-1,1644,1184,0,0
427,-160,0,0,0,0,0,0,0,0,0,-1,1651,1184,0,0
434,-160,0,0,0,0,0,0,0,0,0,-1,1658,1184,0,0
441,-160,0,0,0,0,0,0,0,0,0,-1,1665,1184,0,0
448,-160,0,0,0,0,0,0,0,0,0,-1,1672,1184,0,0
455,-160,0,0,0,0,0,0,0,0,0,-1,1679,1184,0,0
462,-160,0,0,0,0,0,0,0,0,0,-1,1686,1184,0,0
469,-160,0,0,0,0,0,0,0,0,0,-1,1693,1184,0,0
476,-160,0,0,0,0,0,0,0,0,0,-1,1700,1184,0,0
483,-160,0,0,0,0,0,0,0,0,0,-1,1707,1184,0,0
490,-160,0,0,0,0,0,0,0,0,0,-1,1714,1184,0,0
497,-160,0,0,0,0,0,0,0,0,0,-1,1721,1184,0,0
504,-160,0,0,0,0,0,0,0,0,0,-1,1728,1184,0,0
511,-160,0,0,0,0,0,0,0,0,0,-1,1735,1184,0,0
518,-160,0,0,0,0,0,0,0,0,0,-1,1742,1184,0,0
525,-160,0,0,0,0,0,0,0,0,0,-1,1749,1184,0,0
532,-160,0,0,0,0,0,0,0,0,0,-1,1756,1184,0,0
539,-160,0,0,0,0,0,0,0,0,0,-1,1763,1184,0,0
546,-160,0,0,0,0,0,0,0,0,0,-1,1770,1184,0,0
553,-160,0,0,0,0,0,0,0,0,0,-1,1777,1184,0,0
560,-160,0,0,0,0,0,0,0,0,0,-1,1784,1184,0,0
567,-160,0,0,0,0,0,0,0,0,0,-1,1791,1184,0,0
574,-160,0,0,0,0,0,0,0,0,0,-1,1798,1184,0,0
581,-160,0,0,0,0,0,0,0,0,0,-1,1805,1184,0,0
588,-160,0,0,0,0,0,0,0,0,0,-1,1812,1184,0,0
595,-160,0,0,0,0,0,0,0,0,0,-1,1819,1184,0,0
602,-160,0,0,0,0,0,0,0,0,0,-1,1826,1184,0,0
609,-160,0,0,0,0,0,0,0,0,0,-1,1833,1184,0,0
616,-160,0,0,0,0,0,0,0,0,0,-1,1840,1184,0,0
623,-160,0,0,0,0,0,0,0,0,0,-1,1847,1184,0,0
630,-160,0,0,0,0,0,0,0,0,0,-1,1854,1184,0,0
637,-160,64.0101,3.04419,0.00233466,-0.0012146,-0.00113402,0.00266605,-0.00154598,-0.284307,0.00246031,0.0416466,1861,1184,64.0101,-3.04422
644,-160,64.0599,2.52515,0.00152893,-0.0013879,-0.00018691,0.00154086,-0.00139983,-0.0637323,0.00169846,0.0429121,1868,1184,64.06,-2.52514
651,-160,64.0203,2.32019,0.00111469,-0.0010697,0.000163358,0.00112684,-0.00108185,0.0742338,0.00127528,0.038703,1875,1184,64.0202,-2.32021
658,-160,63.9907,2.45618,0.00106577,-0.000591538,0.000162643,0.00108158,-0.000607349,0.0969052,0.000987833,0.0384315,1882,1184,63.9907,-2.45618
665,-160,63.9623,2.52429,0.00130878,-6.19477e-05,-4.65291e-05,0.00131035,-6.35253e-05,-0.0338929,0.000895496,0.0384846,1889,1184,63.9623,-2.52433
672,-160,63.9686,2.60706,0.00178628,0.000552834,-0.000398825,0.001904,0.000435113,-0.28702,0.00115202,0.0350959,1896,1184,63.9687,-2.607
679,-160,64.0087,2.60522,0.0020986,0.000580436,-0.000601037,0.00230774,0.000371297,-0.334859,0.00143087,0.0257271,1903,1184,64.0086,-2.60527
686,-160,64.0929,2.57898,0.00239907,0.00094713,-0.000599674,0.00261472,0.000731484,-0.345206,0.00155766,0.0158109,1910,1184,64.0929,-2.57897
693,-160,64.1439,2.47827,0,0,0,0,0,0,0,-1,1917,1184,64.1439,-2.47826
700,-160,42.8784,2.44617,0,0,0,0,0,0,0,-1,1924,1184,42.8785,-2.4462
707,-160,24.5115,6.27405,0,0,0,0,0,0,0,-1,1931,1184,24.5115,-6.27401
714,-160,35.6892,6.8905,0,0,0,0,0,0,0,-1,1938,1184,35.6892,-6.89048
721,-160,36.2388,6.37878,0,0,0,0,0,0,0,-1,1945,1184,36.2388,-6.37876
728,-160,52.2174,8.57385,0,0,0,0,0,0,0,-1,1952,1184,52.2174,-8.57381
735,-160,54.7863,7.99573,0,0,0,0,0,0,0,-1,1959,1184,54.7863,-7.99573
742,-160,54.8027,7.42249,0.00119515,0.00128292,0.0007004,0.00194081,0.000537262,0.816688,0.00115714,0.0176023,1966,1184,54.8027,-7.42244
749,-160,54.7792,6.87085,0.00104677,0.0019332,0.000948339,0.00253679,0.000443192,1.004,0.00156453,0.0186654,1973,1184,54.7791,-6.8709
756,-160,54.7391,6.36182,0.000895182,0.00345977,0.000729803,0.0036529,0.000702047,1.31209,0.00223826,0.011725,1980,1184,54.7391,-6.36184
763,-160,54.6816,5.86548,0.000822503,0.00527667,0.000285566,0.00529491,0.00080427,1.50703,0.00329473,0.012284,1987,1184,54.6817,-5.86545
770,-160,54.5801,5.26782,0.000605493,0.00733599,-0.000306266,0.00734989,0.000591585,-1.52542,0.00471512,0.026974,1994,1184,54.58,-5.26784
777,-160,54.5042,4.74597,-7.59633e-06,0.00962327,-0.00107007,0.00974073,-0.000125056,-1.46146,0.0065359,0.037846,2001,1184,54.5041,-4.746
784,-160,54.5552,4.00012,-0.00130328,0.0120755,-0.00202821,0.0123762,-0.00160399,-1.4236,0.00883412,0.0456428,2008,1184,54.5552,-4.00014
791,-160,54.7288,3.00281,-0.00336737,0.0151704,-0.00332745,0.0157496,-0.00394654,-1.39847,0.0120329,0.0495346,2015,1184,54.7287,-3.00284
798,-160,54.7007,2.01294,-0.00691584,0.0183465,-0.00505271,0.0193196,-0.00788894,-1.38054,0.0161644,0.0482441,2022,1184,54.7006,-2.01293
805,-160,54.6833,1.24805,0,0,0,0,0,0,0,-1,2029,1184,54.6833,-1.24803
812,-160,0,0,0,0,0,0,0,0,0,-1,2036,1184,0,0
-700,-167,0,0,0,0,0,0,0,0,0,-1,524,1191,0,0
-693,-167,0,0,0,0,0,0,0,0,0,-1,531,1191,0,0
-686,-167,-39.9572,-4.67834,0.103607,-0.140474,0.00829402,0.103889,-0.140756,0.0339284,0.141779,0.0464532,538,1191,-39.9572,4.67835
-679,-167,-39.3144,-3.53662,0.087649,-0.115257,0.0105773,0.0881989,-0.115807,0.0519412,0.118142,0.0454367,545,1191,-39.3144,3.53666
-672,-167,-38.7273,-2.45825,0.0722862,-0.092983,0.0106503,0.0729697,-0.0936665,0.0640889,0.0964545,0.0467903,552,1191,-38.7273,2.45826
-665,-167,-38.4675,-1.01599,0.058289,-0.0734784,0.00975892,0.0590079,-0.0741973,0.0735271,0.0770725,0.0458596,559,1191,-38.4675,1.016
-658,-167,-38.2256,0.195435,0,0,0,0,0,0,0,-1,566,1191,-38.2256,-0.195381
-651,-167,-38.3484,1.73474,0,0,0,0,0,0,0,-1,573,1191,-38.3484,-1.7347
-644,-167,-38.2675,2.39478,0.0244364,-0.0287386,0.00480123,0.0248665,-0.0291687,0.0893284,0.0312301,0.0411268,580,1191,-38.2675,-2.39479
-637,-167,-38.2604,3.04004,0.0156969,-0.0178667,0.00294587,0.0159535,-0.0181233,0.0868847,0.0196875,0.0187385,587,1191,-38.2604,-3.04007
-630,-167,-38.377,3.56396,0.00802375,-0.00832381,0.0013734,0.00813833,-0.00843839,0.0832352,0.0095711,0.00971405,594,1191,-38.377,-3.56397
-623,-167,-38.4085,4.12671,0.00183134,-0.00187323,-0.000503008,0.00189842,-0.00194031,-0.132583,0.00221634,0.013414,601,1191,-38.4085,-4.12673
-616,-167,-38.4534,4.73999,-0.00212716,0.00129258,-0.00209305,0.0022854,-0.00311998,-1.12789,0.00313317,0.0168843,608,1191,-38.4534,-4.74
-609,-167,-38.4739,5.38806,-0.00317983,0.000784944,-0.00209679,0.00168811,-0.004083,-1.16408,0.00342625,0.0158311,615,1191,-38.4739,-5.3881
-602,-167,-38.572,5.94836,-0.00388754,0.000381411,-0.000857271,0.000547131,-0.00405326,-1.37984,0.00290179,0.023851,622,1191,-38.572,-5.94841
-595,-167,-38.4805,6.42004,0,0,0,0,0,0,0,-1,629,1191,-38.4805,-6.42008
-588,-167,-38.628,7.16577,0,0,0,0,0,0,0,-1,636,1191,-38.628,-7.16583
-581,-167,-32.8646,6.30542,0,0,0,0,0,0,0,-1,643,1191,-32.8646,-6.30537
-574,-167,-32.4808,7.37524,0,0,0,0,0,0,0,-1,650,1191,-32.4808,-7.37525
-567,-167,-27.3643,2.55859,0,0,0,0,0,0,0,-1,657,1191,-27.3643,-2.55864
-560,-167,-48.2598,0.834839,0,0,0,0,0,0,0,-1,664,1191,-48.2598,-0.834822
-553,-167,-48.3263,0.701172,-0.00543916,0.00124838,0.00253592,0.00210124,-0.00629202,1.24637,0.00504318,0.0491305,671,1191,-48.3263,-0.701193
-546,-167,-48.3287,0.794434,-0.00560153,0.00186597,0.00331764,0.00312698,-0.00686254,1.20757,0.00590034,0.0339041,678,1191,-48.3287,-0.794378
-539,-167,-48.402,1.06982,-0.00432389,0.00179966,0.00320169,0.00316792,-0.00569215,1.16693,0.00518411,0.0386647,685,1191,-48.402,-1.06978
-532,-167,-48.4166,1.16443,-0.00215425,0.000600344,0.00244814,0.00203202,-0.00358593,1.04163,0.00328463,0.0456443,692,1191,-48.4166,-1.16438
-525,-167,-48.3475,1.07483,0.000538927,-0.00133222,0.00135882,0.00125311,-0.0020464,0.483909,0.00192324,0.0469112,699,1191,-48.3476,-1.07488
-518,-167,-48.3141,0.969849,0.00320212,-0.00333229,0.000601354,0.003257,-0.00338717,0.0910103,0.00383626,0.0452998,706,1191,-48.3141,-0.969863
-511,-167,0,0,0,0,0,0,0,0,0,-1,713,1191,0,0
-504,-167,0,0,0,0,0,0,0,0,0,-1,720,1191,0,0
-497,-167,0,0,0,0,0,0,0,0,0,-1,727,1191,0,0
-490,-167,0,0,0,0,0,0,0,0,0,-1,734,1191,0,0
-483,-167,0,0,0,0,0,0,0,0,0,-1,741,1191,0,0
-476,-167,0,0,0,0,0,0,0,0,0,-1,748,1191,0,0
-469,-167,0,0,0,0,0,0,0,0,0,-1,755,1191,0,0
-462,-167,0,0,0,0,0,0,0,0,0,-1,762,1191,0,0
-455,-167,0,0,0,0,0,0,0,0,0,-1,769,1191,0,0
-448,-167,0,0,0,0,0,0,0,0,0,-1,776,1191,0,0
-441,-167,0,0,0,0,0,0,0,0,0,-1,783,1191,0,0
-434,-167,0,0,0,0,0,0,0,0,0,-1,790,1191,0,0
-427,-167,0,0,0,0,0,0,0,0,0,-1,797,1191,0,0
-420,-167,0,0,0,0,0,0,0,0,0,-1,804,1191,0,0
-413,-167,0,0,0,0,0,0,0,0,0,-1,811,1191,0,0
-406,-167,0,0,0,0,0,0,0,0,0,-1,818,1191,0,0
-399,-167,0,0,0,0,0,0,0,0,0,-1,825,1191,0,0
-392,-167,0,0,0,0,0,0,0,0,0,-1,832,1191,0,0
-385,-167,0,0,0,0,0,0,0,0,0,-1,839,1191,0,0
-378,-167,0,0,0,0,0,0,0,0,0,-1,846,1191,0,0
-371,-167,0,0,0,0,0,0,0,0,0,-1,853,1191,0,0
-364,-167,0,0,0,0,0,0,0,0,0,-1,860,1191,0,0
-357,-167,0,0,0,0,0,0,0,0,0,-1,867,1191,0,0
-350,-167,0,0,0,0,0,0,0,0,0,-1,874,1191,0,0
-343,-167,0,0,0,0,0,0,0,0,0,-1,881,1191,0,0
-336,-167,0,0,0,0,0,0,0,0,0,-1,888,1191,0,0
-329,-167,0,0,0,0,0,0,0,0,0,-1,895,1191,0,0
-322,-167,0,0,0,0,0,0,0,0,0,-1,902,1191,0,0
-315,-167,0,0,0,0,0,0,0,0,0,-1,909,1191,0,0
-308,-167,0,0,0,0,0,0,0,0,0,-1,916,1191,0,0
-301,-167,0,0,0,0,0,0,0,0,0,-1,923,1191,0,0
-294,-167,0,0,0,0,0,0,0,0,0,-1,930,1191,0,0
-287,-167,0,0,0,0,0,0,0,0,0,-1,937,1191,0,0
-280,-167,0,0,0,0,0,0,0,0,0,-1,944,1191,0,0
-273,-167,0,0,0,0,0,0,0,0,0,-1,951,1191,0,0
-266,-167,0,0,0,0,0,0,0,0,0,-1,958,1191,0,0
-259,-167,0,0,0,0,0,0,0,0,0,-1,965,1191,0,0
-252,-167,0,0,0,0,0,0,0,0,0,-1,972,1191,0,0
-245,-167,0,0,0,0,0,0,0,0,0,-1,979,1191,0,0
-238,-167,0,0,0,0,0,0,0,0,0,-1,986,1191,0,0
-231,-167,0,0,0,0,0,0,0,0,0,-1,993,1191,0,0
-224,-167,0,0,0,0,0,0,0,0,0,-1,1000,1191,0,0
-217,-167,0,0,0,0,0,0,0,0,0,-1,1007,1191,0,0
-210,-167,0,0,0,0,0,0,0,0,0,-1,1014,1191,0,0
-203,-167,0,0,0,0,0,0,0,0,0,-1,1021,1191,0,0
-196,-167,0,0,0,0,0,0,0,0,0,-1,1028,1191,0,0
-189,-167,0,0,0,0,0,0,0,0,0,-1,1035,1191,0,0
-182,-167,0,0,0,0,0,0,0,0,0,-1,1042,1191,0,0
-175,-167,0,0,0,0,0,0,0,0,0,-1,1049,1191,0,0
-168,-167,0,0,0,0,0,0,0,0,0,-1,1056,1191,0,0
-161,-167,0,0,0,0,0,0,0,0,0,-1,1063,1191,0,0
-154,-167,0,0,0,0,0,0,0,0,0,-1,1070,1191,0,0
-147,-167,0,0,0,0,0,0,0,0,0,-1,1077,1191,0,0
-140,-167,0,0,0,0,0,0,0,0,0,-1,1084,1191,0,0
-133,-167,0,0,0,0,0,0,0,0,0,-1,1091,1191,0,0
-126,-167,0,0,0,0,0,0,0,0,0,-1,1098,1191,0,0
-119,-167,0,0,0,0,0,0,0,0,0,-1,1105,1191,0,0
-112,-167,0,0,0,0,0,0,0,0,0,-1,1112,1191,0,0
-105,-167,0,0,0,0,0,0,0,0,0,-1,1119,1191,0,0
-98,-167,0,0,0,0,0,0,0,0,0,-1,1126,1191,0,0
-91,-167,0,0,0,0,0,0,0,0,0,-1,1133,1191,0,0
-84,-167,0,0,0,0,0,0,0,0,0,-1,1140,1191,0,0
-77,-167,0,0,0,0,0,0,0,0,0,-1,1147,1191,0,0
-70,-167,0,0,0,0,0,0,0,0,0,-1,1154,1191,0,0
-63,-167,0,0,0,0,0,0,0,0,0,-1,1161,1191,0,0
-56,-167,0,0,0,0,0,0,0,0,0,-1,1168,1191,0,0
-49,-167,0,0,0,0,0,0,0,0,0,-1,1175,1191,0,0
-42,-167,0,0,0,0,0,0,0,0,0,-1,1182,1191,0,0
-35,-167,0,0,0,0,0,0,0,0,0,-1,1189,1191,0,0
-28,-167,0,0,0,0,0,0,0,0,0,-1,1196,1191,0,0
-21,-167,0,0,0,0,0,0,0,0,0,-1,1203,1191,0,0
-14,-167,0,0,0,0,0,0,0,0,0,-1,1210,1191,0,0
-7,-167,0,0,0,0,0,0,0,0,0,-1,1217,1191,0,0
0,-167,0,0,0,0,0,0,0,0,0,-1,1224,1191,0,0
7,-167,0,0,0,0,0,0,0,0,0,-1,1231,1191,0,0
14,-167,0,0,0,0,0,0,0,0,0,-1,1238,1191,0,0
21,-167,0,0,0,0,0,0,0,0,0,-1,1245,1191,0,0
28,-167,0,0,0,0,0,0,0,0,0,-1,1252,1191,0,0
35,-167,0,0,0,0,0,0,0,0,0,-1,1259,1191,0,0
42,-167,0,0,0,0,0,0,0,0,0,-1,1266,1191,0,0
49,-167,0,0,0,0,0,0,0,0,0,-1,1273,1191,0,0
56,-167,0,0,0,0,0,0,0,0,0,-1,1280,1191,0,0
63,-167,0,0,0,0,0,0,0,0,0,-1,1287,1191,0,0
70,-167,0,0,0,0,0,0,0,0,0,-1,1294,1191,0,0
77,-167,0,0,0,0,0,0,0,0,0,-1,1301,1191,0,0
84,-167,0,0,0,0,0,0,0,0,0,-1,1308,1191,0,0
91,-167,0,0,0,0,0,0,0,0,0,-1,1315,1191,0,0
98,-167,0,0,0,0,0,0,0,0,0,-1,1322,1191,0,0
105,-167,0,0,0,0,0,0,0,0,0,-1,1329,1191,0,0
112,-167,0,0,0,0,0,0,0,0,0,-1,1336,1191,0,0
119,-167,0,0,0,0,0,0,0,0,0,-1,1343,1191,0,0
126,-167,0,0,0,0,0,0,0,0,0,-1,1350,1191,0,0
133,-167,0,0,0,0,0,0,0,0,0,-1,1357,1191,0,0
140,-167,0,0,0,0,0,0,0,0,0,-1,1364,1191,0,0
147,-167,0,0,0,0,0,0,0,0,0,-1,1371,1191,0,0
154,-167,0,0,0,0,0,0,0,0,0,-1,1378,1191,0,0
161,-167,0,0,0,0,0,0,0,0,0,-1,1385,1191,0,0
168,-167,0,0,0,0,0,0,0,0,0,-1,1392,1191,0,0
175,-167,0,0,0,0,0,0,0,0,0,-1,1399,1191,0,0
182,-167,0,0,0,0,0,0,0,0,0,-1,1406,1191,0,0
189,-167,0,0,0,0,0,0,0,0,0,-1,1413,1191,0,0
196,-167,0,0,0,0,0,0,0,0,0,-1,1420,1191,0,0
203,-167,0,0,0,0,0,0,0,0,0,-1,1427,1191,0,0
210,-167,0,0,0,0,0,0,0,0,0,-1,1434,1191,0,0
217,-167,0,0,0,0,0,0,0,0,0,-1,1441,1191,0,0
224,-167,0,0,0,0,0,0,0,0,0,-1,1448,1191,0,0
231,-167,0,0,0,0,0,0,0,0,0,-1,1455,1191,0,0
238,-167,0,0,0,0,0,0,0,0,0,-1,1462,1191,0,0
245,-167,0,0,0,0,0,0,0,0,0,-1,1469,1191,0,0
252,-167,0,0,0,0,0,0,0,0,0,-1,1476,1191,0,0
259,-167,0,0,0,0,0,0,0,0,0,-1,1483,1191,0,0
266,-167,0,0,0,0,0,0,0,0,0,-1,1490,1191,0,0
273,-167,0,0,0,0,0,0,0,0,0,-1,1497,1191,0,0
280,-167,0,0,0,0,0,0,0,0,0,-1,1504,1191,0,0
287,-167,0,0,0,0,0,0,0,0,0,-1,1511,1191,0,0
294,-167,0,0,0,0,0,0,0,0,0,-1,1518,1191,0,0
301,-167,0,0,0,0,0,0,0,0,0,-1,1525,1191,0,0
308,-167,0,0,0,0,0,0,0,0,0,-1,1532,1191,0,0
315,-167,0,0,0,0,0,0,0,0,0,-1,1539,1191,0,0
322,-167,0,0,0,0,0,0,0,0,0,-1,1546,1191,0,0
329,-167,0,0,0,0,0,0,0,0,0,-1,1553,1191,0,0
336,-167,0,0,0,0,0,0,0,0,0,-1,1560,1191,0,0
343,-167,0,0,0,0,0,0,0,0,0,-1,1567,1191,0,0
350,-167,0,0,0,0,0,0,0,0,0,-1,1574,1191,0,0
357,-167,0,0,0,0,0,0,0,0,0,-1,1581,1191,0,0
364,-167,0,0,0,0,0,0,0,0,0,-1,1588,1191,0,0
371,-167,0,0,0,0,0,0,0,0,0,-1,1595,1191,0,0
378,-167,0,0,0,0,0,0,0,0,0,-1,1602,1191,0,0
385,-167,0,0,0,0,0,0,0,0,0,-1,1609,1191,0,0
392,-167,0,0,0,0,0,0,0,0,0,-1,1616,1191,0,0
399,-167,0,0,0,0,0,0,0,0,0,-1,1623,1191,0,0
406,-167,0,0,0,0,0,0,0,0,0,-1,1630,1191,0,0
413,-167,0,0,0,0,0,0,0,0,0,-1,1637,1191,0,0
420,-167,0,0,0,0,0,0,0,0,0,-1,1644,1191,0,0
427,-167,0,0,0,0,0,0,0,0,0,-1,1651,1191,0,0
434,-167,0,0,0,0,0,0,0,0,0,-1,1658,1191,0,0
441,-167,0,0,0,0,0,0,0,0,0,-1,1665,1191,0,0
448,-167,0,0,0,0,0,0,0,0,0,-1,1672,1191,0,0
455,-167,0,0,0,0,0,0,0,0,0,-1,1679,1191,0,0
462,-167,0,0,0,0,0,0,0,0,0,-1,1686,1191,0,0
469,-167,0,0,0,0,0,0,0,0,0,-1,1693,1191,0,0
476,-167,0,0,0,0,0,0,0,0,0,-1,1700,1191,0,0
483,-167,0,0,0,0,0,0,0,0,0,-1,1707,1191,0,0
490,-167,0,0,0,0,0,0,0,0,0,-1,1714,1191,0,0
497,-167,0,0,0,0,0,0,0,0,0,-1,1721,1191,0,0
504,-167,0,0,0,0,0,0,0,0,0,-1,1728,1191,0,0
511,-167,0,0,0,0,0,0,0,0,0,-1,1735,1191,0,0
518,-167,0,0,0,0,0,0,0,0,0,-1,1742,1191,0,0
525,-167,0,0,0,0,0,0,0,0,0,-1,1749,1191,0,0
532,-167,0,0,0,0,0,0,0,0,0,-1,1756,1191,0,0
539,-167,0,0,0,0,0,0,0,0,0,-1,1763,1191,0,0
546,-167,0,0,0,0,0,0,0,0,0,-1,1770,1191,0,0
553,-167,0,0,0,0,0,0,0,0,0,-1,1777,1191,0,0
560,-167,0,0,0,0,0,0,0,0,0,-1,1784,1191,0,0
567,-167,0,0,0,0,0,0,0,0,0,-1,1791,1191,0,0
574,-167,0,0,0,0,0,0,0,0,0,-1,1798,1191,0,0
581,-167,0,0,0,0,0,0,0,0,0,-1,1805,1191,0,0
588,-167,0,0,0,0,0,0,0,0,0,-1,1812,1191,0,0
595,-167,0,0,0,0,0,0,0,0,0,-1,1819,1191,0,0
602,-167,0,0,0,0,0,0,0,0,0,-1,1826,1191,0,0
609,-167,0,0,0,0,0,0,0,0,0,-1,1833,1191,0,0
616,-167,0,0,0,0,0,0,0,0,0,-1,1840,1191,0,0
623,-167,0,0,0,0,0,0,0,0,0,-1,1847,1191,0,0
630,-167,0,0,0,0,0,0,0,0,0,-1,1854,1191,0,0
637,-167,63.8397,2.95166,0.00218288,-0.00125338,-0.00101643,0.00246102,-0.00153152,-0.267107,0.00232583,0.0443915,1861,1191,63.8397,-2.95166
644,-167,64.2677,2.35754,0.00153527,-0.00131851,-0.000423056,0.00159667,-0.00137991,-0.144116,0.00172005,0.0461289,1868,1191,64.2677,-2.3576
651,-167,63.9626,2.46008,0.0012197,-0.000953725,-0.000279623,0.0012551,-0.000989124,-0.125924,0.00129873,0.0427958,1875,1191,63.9627,-2.46012
658,-167,63.952,2.50293,0.00127607,-0.000460427,-0.000408508,0.00136737,-0.000551728,-0.219884,0.00114086,0.0450136,1882,1191,63.952,-2.50291
665,-167,64.0359,2.61182,0.00159712,2.03428e-05,-0.000652107,0.00183187,-0.000214401,-0.345536,0.00129862,0.039505,1889,1191,64.0359,-2.61183
672,-167,64.0499,2.65759,0.00212345,0.000557434,-0.000922746,0.00255063,0.000130251,-0.433569,0.00165871,0.0281105,1896,1191,64.0499,-2.65756
679,-167,64.054,2.57483,0.00242711,0.000594854,-0.0010133,0.00287702,0.000144942,-0.417859,0.00187157,0.0202549,1903,1191,64.054,-2.57487
686,-167,64.0647,2.5426,0.00265605,0.000977554,-0.00095264,0.00308639,0.000547212,-0.424297,0.00190162,0.0271261,1910,1191,64.0648,-2.54257
693,-167,64.066,2.58594,0,0,0,0,0,0,0,-1,1917,1191,64.066,-2.5859
700,-167,28.0459,2.70508,0,0,0,0,0,0,0,-1,1924,1191,28.0459,-2.70513
707,-167,29.4708,7.10168,0,0,0,0,0,0,0,-1,1931,1191,29.4708,-7.10172
714,-167,35.9202,6.84668,0,0,0,0,0,0,0,-1,1938,1191,35.9202,-6.84664
721,-167,36.2072,6.38892,0,0,0,0,0,0,0,-1,1945,1191,36.2072,-6.38891
728,-167,54.0287,8.76807,0,0,0,0,0,0,0,-1,1952,1191,54.0287,-8.76802
735,-167,54.2594,8.23511,0.00170481,0.00150059,0.000273915,0.00189503,0.00131037,0.606984,0.00112052,0.0295075,1959,1191,54.2594,-8.23512
742,-167,54.226,7.50781,0.00142544,0.00157102,0.00056135,0.00206428,0.000932184,0.849874,0.00119368,0.0168982,1966,1191,54.2259,-7.50785
749,-167,54.2035,6.92188,0.00130807,0.00223586,0.000751547,0.00265515,0.000888777,1.0619,0.00156061,0.0149128,1973,1191,54.2034,-6.92186
756,-167,54.1738,6.40747,0.0010263,0.00361791,0.00054298,0.00372707,0.000917132,1.3724,0.00224242,0.0115247,1980,1191,54.1738,-6.40742
763,-167,54.0907,5.85107,0.000746146,0.00530288,0.000121683,0.00530613,0.000742899,1.54412,0.00331763,0.0135467,1987,1191,54.0907,-5.85112
770,-167,53.8909,5.40552,0.000207782,0.00728273,-0.000481707,0.00731538,0.000175135,-1.50313,0.0048196,0.0352547,1994,1191,53.8909,-5.40557
777,-167,54.0527,5.03979,0,0,0,0,0,0,0,-1,2001,1191,54.0528,-5.03974
784,-167,53.9482,4.07739,0,0,0,0,0,0,0,-1,2008,1191,53.9481,-4.07734
791,-167,54.0068,3.04346,-0.00583023,0.0151752,-0.00372537,0.0158164,-0.00647137,-1.40037,0.0132395,0.0490215,2015,1191,54.0067,-3.04346
798,-167,53.7883,2.04468,-0.0105873,0.0183917,-0.00555638,0.0194206,-0.0116162,-1.38771,0.0181069,0.0480074,2022,1191,53.7884,-2.04462
805,-167,53.3079,1.04858,-0.0178455,0.0216527,-0.00759532,0.0230629,-0.0192557,-1.38722,0.0244656,0.047523,2029,1191,53.3079,-1.04858
812,-167,0,0,0,0,0,0,0,0,0,-1,2036,1191,0,0
-700,-174,0,0,0,0,0,0,0,0,0,-1,524,1198,0,0
-693,-174,0,0,0,0,0,0,0,0,0,-1,531,1198,0,0
-686,-174,-38.4221,-3.05054,0.0935007,-0.142354,0.00317975,0.0935436,-0.142397,0.0134785,0.13719,0.0457484,538,1198,-38.4221,3.05055
-679,-174,-38.2697,-2.48206,0.079112,-0.117815,0.00613377,0.0793029,-0.118006,0.0311073,0.114644,0.0437602,545,1198,-38.2697,2.48208
-672,-174,-38.0154,-1.84839,0.0653776,-0.0959273,0.0069474,0.0656763,-0.0962259,0.0429639,0.0940273,0.0475732,552,1198,-38.0154,1.84835
-665,-174,-37.7643,-0.6427,0.0529628,-0.0765256,0.00679589,0.0533185,-0.0768813,0.0522912,0.0755801,0.0487866,559,1198,-37.7643,0.642642
-658,-174,-37.7272,0.321899,0.0418017,-0.0595612,0.00602766,0.0421588,-0.0599184,0.0591881,0.0592309,0.0474534,566,1198,-37.7272,-0.321909
-651,-174,-37.7226,1.44397,0,0,0,0,0,0,0,-1,573,1198,-37.7226,-1.44397
-644,-174,-37.6417,2.18799,0.0228214,-0.0314391,0.00368115,0.02307,-0.0316877,0.0674304,0.0317446,0.0448545,580,1198,-37.6416,-2.18803
-637,-174,-37.5673,2.99536,0.0149934,-0.0203108,0.00232497,0.0151458,-0.0204633,0.0654784,0.0206352,0.0258647,587,1198,-37.5673,-2.99533
-630,-174,-37.7338,3.57813,0.00802961,-0.0103449,0.00124135,0.0081131,-0.0104284,0.0671518,0.0107327,0.0133753,594,1198,-37.7337,-3.57815
-623,-174,-37.7723,4.18164,0.00237709,-0.00345864,-0.000211666,0.00238476,-0.00346631,-0.0362073,0.0033973,0.014535,601,1198,-37.7723,-4.18163
-616,-174,-37.7839,4.82861,-0.00143196,0.000259806,-0.00162437,0.00124534,-0.0024175,-1.02545,0.00215053,0.0205185,608,1198,-37.7839,-4.82859
-609,-174,-37.8267,5.43103,-0.0028934,0.000449531,-0.00185162,0.00127252,-0.00371639,-1.15255,0.00299333,0.0231675,615,1198,-37.8267,-5.43099
-602,-174,-37.8879,5.96875,-0.00389534,0.000170638,-0.000796703,0.000321173,-0.00404588,-1.38405,0.00281043,0.0236733,622,1198,-37.8879,-5.96877
-595,-174,-38.1467,6.44727,0,0,0,0,0,0,0,-1,629,1198,-38.1467,-6.44726
-588,-174,-38.2384,7.18005,0,0,0,0,0,0,0,-1,636,1198,-38.2384,-7.18005
-581,-174,-38.33,7.91284,0,0,0,0,0,0,0,-1,643,1198,-38.33,-7.91283
-574,-174,-31.7448,7.09595,0,0,0,0,0,0,0,-1,650,1198,-31.7448,-7.09599
-567,-174,-26.6597,3.04041,0,0,0,0,0,0,0,-1,657,1198,-26.6597,-3.04039
-560,-174,-42.6953,1.07178,0,0,0,0,0,0,0,-1,664,1198,-42.6953,-1.07181
-553,-174,-48.2643,0.724365,0,0,0,0,0,0,0,-1,671,1198,-48.2643,-0.724389
-546,-174,-48.274,0.76123,-0.00578712,0.00198119,0.00321933,0.00314191,-0.00694783,1.22476,0.00596186,0.028103,678,1198,-48.2741,-0.761247
-539,-174,-48.3511,1.03394,-0.00483254,0.00221996,0.00341533,0.00360277,-0.00621535,1.18609,0.005735,0.0331072,685,1198,-48.3511,-1.03398
-532,-174,-48.2652,0.870361,-0.0027666,0.00136838,0.00316455,0.00308095,-0.00447917,1.07475,0.00438965,0.0432902,692,1198,-48.2652,-0.87042
-525,-174,-48.1938,0.802368,0.000597666,-0.000875409,0.00210299,0.00208937,-0.00236712,0.616957,0.00257462,0.0458076,699,1198,-48.1939,-0.802387
-518,-174,-48.1496,0.946655,0.00413314,-0.00342799,0.000979955,0.00425809,-0.00355294,0.126813,0.00451582,0.0449661,706,1198,-48.1496,-0.946638
-511,-174,0,0,0,0,0,0,0,0,0,-1,713,1198,0,0
-504,-174,0,0,0,0,0,0,0,0,0,-1,720,1198,0,0
-497,-174,0,0,0,0,0,0,0,0,0,-1,727,1198,0,0
-490,-174,0,0,0,0,0,0,0,0,0,-1,734,1198,0,0
-483,-174,0,0,0,0,0,0,0,0,0,-1,741,1198,0,0
-476,-174,0,0,0,0,0,0,0,0,0,-1,748,1198,0,0
-469,-174,0,0,0,0,0,0,0,0,0,-1,755,1198,0,0
-462,-174,0,0,0,0,0,0,0,0,0,-1,762,1198,0,0
-455,-174,0,0,0,0,0,0,0,0,0,-1,769,1198,0,0
-448,-174,0,0,0,0,0,0,0,0,0,-1,776,1198,0,0
-441,-174,0,0,0,0,0,0,0,0,0,-1,783,1198,0,0
-434,-174,0,0,0,0,0,0,0,0,0,-1,790,1198,0,0
-427,-174,0,0,0,0,0,0,0,0,0,-1,797,1198,0,0
-420,-174,0,0,0,0,0,0,0,0,0,-1,804,1198,0,0
-413,-174,0,0,0,0,0,0,0,0,0,-1,811,1198,0,0
-406,-174,0,0,0,0,0,0,0,0,0,-1,818,1198,0,0
-399,-174,0,0,0,0,0,0,0,0,0,-1,825,1198,0,0
-392,-174,0,0,0,0,0,0,0,0,0,-1,832,1198,0,0
-385,-174,0,0,0,0,0,0,0,0,0,-1,839,1198,0,0
-378,-174,0,0,0,0,0,0,0,0,0,-1,846,1198,0,0
-371,-174,0,0,0,0,0,0,0,0,0,-1,853,1198,0,0
-364,-174,0,0,0,0,0,0,0,0,0,-1,860,1198,0,0
-357,-174,0,0,0,0,0,0,0,0,0,-1,867,1198,0,0
-350,-174,0,0,0,0,0,0,0,0,0,-1,874,1198,0,0
-343,-174,0,0,0,0,0,0,0,0,0,-1,881,1198,0,0
-336,-174,0,0,0,0,0,0,0,0,0,-1,888,1198,0,0
-329,-174,0,0,0,0,0,0,0,0,0,-1,895,1198,0,0
-322,-174,0,0,0,0,0,0,0,0,0,-1,902,1198,0,0
-315,-174,0,0,0,0,0,0,0,0,0,-1,909,1198,0,0
-308,-174,0,0,0,0,0,0,0,0,0,-1,916,1198,0,0
-301,-174,0,0,0,0,0,0,0,0,0,-1,923,1198,0,0
-294,-174,0,0,0,0,0,0,0,0,0,-1,930,1198,0,0
-287,-174,0,0,0,0,0,0,0,0,0,-1,937,1198,0,0
-280,-174,0,0,0,0,0,0,0,0,0,-1,944,1198,0,0
-273,-174,0,0,0,0,0,0,0,0,0,-1,951,1198,0,0
-266,-174,0,0,0,0,0,0,0,0,0,-1,958,1198,0,0
-259,-174,0,0,0,0,0,0,0,0,0,-1,965,1198,0,0
-252,-174,0,0,0,0,0,0,0,0,0,-1,972,1198,0,0
-245,-174,0,0,0,0,0,0,0,0,0,-1,979,1198,0,0
-238,-174,0,0,0,0,0,0,0,0,0,-1,986,1198,0,0
-231,-174,0,0,0,0,0,0,0,0,0,-1,993,1198,0,0
-224,-174,0,0,0,0,0,0,0,0,0,-1,1000,1198,0,0
-217,-174,0,0,0,0,0,0,0,0,0,-1,1007,1198,0,0
-210,-174,0,0,0,0,0,0,0,0,0,-1,1014,1198,0,0
-203,-174,0,0,0,0,0,0,0,0,0,-1,1021,1198,0,0
-196,-174,0,0,0,0,0,0,0,0,0,-1,1028,1198,0,0
-189,-174,0,0,0,0,0,0,0,0,0,-1,1035,1198,0,0
-182,-174,0,0,0,0,0,0,0,0,0,-1,1042,1198,0,0
-175,-174,0,0,0,0,0,0,0,0,0,-1,1049,1198,0,0
-168,-174,0,0,0,0,0,0,0,0,0,-1,1056,1198,0,0
-161,-174,0,0,0,0,0,0,0,0,0,-1,1063,1198,0,0
-154,-174,0,0,0,0,0,0,0,0,0,-1,1070,1198,0,0
-147,-174,0,0,0,0,0,0,0,0,0,-1,1077,1198,0,0
-140,-174,0,0,0,0,0,0,0,0,0,-1,1084,1198,0,0
-133,-174,0,0,0,0,0,0,0,0,0,-1,1091,1198,0,0
-126,-174,0,0,0,0,0,0,0,0,0,-1,1098,1198,0,0
-119,-174,0,0,0,0,0,0,0,0,0,-1,1105,1198,0,0
-112,-174,0,0,0,0,0,0,0,0,0,-1,1112,1198,0,0
-105,-174,0,0,0,0,0,0,0,0,0,-1,1119,1198,0,0
-98,-174,0,0,0,0,0,0,0,0,0,-1,1126,1198,0,0
-91,-174,0,0,0,0,0,0,0,0,0,-1,1133,1198,0,0
-84,-174,0,0,0,0,0,0,0,0,0,-1,1140,1198,0,0
-77,-174,0,0,0,0,0,0,0,0,0,-1,1147,1198,0,0
-70,-174,0,0,0,0,0,0,0,0,0,-1,1154,1198,0,0
-63,-174,0,0,0,0,0,0,0,0,0,-1,1161,1198,0,0
-56,-174,0,0,0,0,0,0,0,0,0,-1,1168,1198,0,0
-49,-174,0,0,0,0,0,0,0,0,0,-1,1175,1198,0,0
-42,-174,0,0,0,0,0,0,0,0,0,-1,1182,1198,0,0
-35,-174,0,0,0,0,0,0,0,0,0,-1,1189,1198,0,0
-28,-174,0,0,0,0,0,0,0,0,0,-1,1196,1198,0,0
-21,-174,0,0,0,0,0,0,0,0,0,-1,1203,1198,0,0
-14,-174,0,0,0,0,0,0,0,0,0,-1,1210,1198,0,0
-7,-174,0,0,0,0,0,0,0,0,0,-1,1217,1198,0,0
0,-174,0,0,0,0,0,0,0,0,0,-1,1224,1198,0,0
7,-174,0,0,0,0,0,0,0,0,0,-1,1231,1198,0,0
14,-174,0,0,0,0,0,0,0,0,0,-1,1238,1198,0,0
21,-174,0,0,0,0,0,0,0,0,0,-1,1245,1198,0,0
28,-174,0,0,0,0,0,0,0,0,0,-1,1252,1198,0,0
35,-174,0,0,0,0,0,0,0,0,0,-1,1259,1198,0,0
42,-174,0,0,0,0,0,0,0,0,0,-1,1266,1198,0,0
49,-174,0,0,0,0,0,0,0,0,0,-1,1273,1198,0,0
56,-174,0,0,0,0,0,0,0,0,0,-1,1280,1198,0,0
63,-174,0,0,0,0,0,0,0,0,0,-1,1287,1198,0,0
70,-174,0,0,0,0,0,0,0,0,0,-1,1294,1198,0,0
77,-174,0,0,0,0,0,0,0,0,0,-1,1301,1198,0,0
84,-174,0,0,0,0,0,0,0,0,0,-1,1308,1198,0,0
91,-174,0,0,0,0,0,0,0,0,0,-1,1315,1198,0,0
98,-174,0,0,0,0,0,0,0,0,0,-1,1322,1198,0,0
105,-174,0,0,0,0,0,0,0,0,0,-1,1329,1198,0,0
112,-174,0,0,0,0,0,0,0,0,0,-1,1336,1198,0,0
119,-174,0,0,0,0,0,0,0,0,0,-1,1343,1198,0,0
126,-174,0,0,0,0,0,0,0,0,0,-1,1350,1198,0,0
133,-174,0,0,0,0,0,0,0,0,0,-1,1357,1198,0,0
140,-174,0,0,0,0,0,0,0,0,0,-1,1364,1198,0,0
147,-174,0,0,0,0,0,0,0,0,0,-1,1371,1198,0,0
154,-174,0,0,0,0,0,0,0,0,0,-1,1378,1198,0,0
161,-174,0,0,0,0,0,0,0,0,0,-1,1385,1198,0,0
168,-174,0,0,0,0,0,0,0,0,0,-1,1392,1198,0,0
175,-174,0,0,0,0,0,0,0,0,0,-1,1399,1198,0,0
182,-174,0,0,0,0,0,0,0,0,0,-1,1406,1198,0,0
189,-174,0,0,0,0,0,0,0,0,0,-1,1413,1198,0,0
196,-174,0,0,0,0,0,0,0,0,0,-1,1420,1198,0,0
203,-174,0,0,0,0,0,0,0,0,0,-1,1427,1198,0,0
210,-174,0,0,0,0,0,0,0,0,0,-1,1434,1198,0,0
217,-174,0,0,0,0,0,0,0,0,0,-1,1441,1198,0,0
224,-174,0,0,0,0,0,0,0,0,0,-1,1448,1198,0,0
231,-174,0,0,0,0,0,0,0,0,0,-1,1455,1198,0,0
238,-174,0,0,0,0,0,0,0,0,0,-1,1462,1198,0,0
245,-174,0,0,0,0,0,0,0,0,0,-1,1469,1198,0,0
252,-174,0,0,0,0,0,0,0,0,0,-1,1476,1198,0,0
259,-174,0,0,0,0,0,0,0,0,0,-1,1483,1198,0,0
266,-174,0,0,0,0,0,0,0,0,0,-1,1490,1198,0,0
273,-174,0,0,0,0,0,0,0,0,0,-1,1497,1198,0,0
280,-174,0,0,0,0,0,0,0,0,0,-1,1504,1198,0,0
287,-174,0,0,0,0,0,0,0,0,0,-1,1511,1198,0,0
294,-174,0,0,0,0,0,0,0,0,0,-1,1518,1198,0,0
301,-174,0,0,0,0,0,0,0,0,0,-1,1525,1198,0,0
308,-174,0,0,0,0,0,0,0,0,0,-1,1532,1198,0,0
315,-174,0,0,0,0,0,0,0,0,0,-1,1539,1198,0,0
322,-174,0,0,0,0,0,0,0,0,0,-1,1546,1198,0,0
329,-174,0,0,0,0,0,0,0,0,0,-1,1553,1198,0,0
336,-174,0,0,0,0,0,0,0,0,0,-1,1560,1198,0,0
343,-174,0,0,0,0,0,0,0,0,0,-1,1567,1198,0,0
350,-174,0,0,0,0,0,0,0,0,0,-1,1574,1198,0,0
357,-174,0,0,0,0,0,0,0,0,0,-1,1581,1198,0,0
364,-174,0,0,0,0,0,0,0,0,0,-1,1588,1198,0,0
371,-174,0,0,0,0,0,0,0,0,0,-1,1595,1198,0,0
378,-174,0,0,0,0,0,0,0,0,0,-1,1602,1198,0,0
385,-174,0,0,0,0,0,0,0,0,0,-1,1609,1198,0,0
392,-174,0,0,0,0,0,0,0,0,0,-1,1616,1198,0,0
399,-174,0,0,0,0,0,0,0,0,0,-1,1623,1198,0,0
406,-174,0,0,0,0,0,0,0,0,0,-1,1630,1198,0,0
413,-174,0,0,0,0,0,0,0,0,0,-1,1637,1198,0,0
420,-174,0,0,0,0,0,0,0,0,0,-1,1644,1198,0,0
427,-174,0,0,0,0,0,0,0,0,0,-1,1651,1198,0,0
434,-174,0,0,0,0,0,0,0,0,0,-1,1658,1198,0,0
441,-174,0,0,0,0,0,0,0,0,0,-1,1665,1198,0,0
448,-174,0,0,0,0,0,0,0,0,0,-1,1672,1198,0,0
455,-174,0,0,0,0,0,0,0,0,0,-1,1679,1198,0,0
462,-174,0,0,0,0,0,0,0,0,0,-1,1686,1198,0,0
469,-174,0,0,0,0,0,0,0,0,0,-1,1693,1198,0,0
476,-174,0,0,0,0,0,0,0,0,0,-1,1700,1198,0,0
483,-174,0,0,0,0,0,0,0,0,0,-1,1707,1198,0,0
490,-174,0,0,0,0,0,0,0,0,0,-1,1714,1198,0,0
497,-174,0,0,0,0,0,0,0,0,0,-1,1721,1198,0,0
504,-174,0,0,0,0,0,0,0,0,0,-1,1728,1198,0,0
511,-174,0,0,0,0,0,0,0,0,0,-1,1735,1198,0,0
518,-174,0,0,0,0,0,0,0,0,0,-1,1742,1198,0,0
525,-174,0,0,0,0,0,0,0,0,0,-1,1749,1198,0,0
532,-174,0,0,0,0,0,0,0,0,0,-1,1756,1198,0,0
539,-174,0,0,0,0,0,0,0,0,0,-1,1763,1198,0,0
546,-174,0,0,0,0,0,0,0,0,0,-1,1770,1198,0,0
553,-174,0,0,0,0,0,0,0,0,0,-1,1777,1198,0,0
560,-174,0,0,0,0,0,0,0,0,0,-1,1784,1198,0,0
567,-174,0,0,0,0,0,0,0,0,0,-1,1791,1198,0,0
574,-174,0,0,0,0,0,0,0,0,0,-1,1798,1198,0,0
581,-174,0,0,0,0,0,0,0,0,0,-1,1805,1198,0,0
588,-174,0,0,0,0,0,0,0,0,0,-1,1812,1198,0,0
595,-174,0,0,0,0,0,0,0,0,0,-1,1819,1198,0,0
602,-174,0,0,0,0,0,0,0,0,0,-1,1826,1198,0,0
609,-174,0,0,0,0,0,0,0,0,0,-1,1833,1198,0,0
616,-174,0,0,0,0,0,0,0,0,0,-1,1840,1198,0,0
623,-174,0,0,0,0,0,0,0,0,0,-1,1847,1198,0,0
630,-174,0,0,0,0,0,0,0,0,0,-1,1854,1198,0,0
637,-174,63.9742,2.80823,0.00205231,-0.00104886,-0.000951767,0.00232111,-0.00131767,-0.275257,0.00212731,0.0421802,1861,1198,63.9743,-2.80823
644,-174,64.0537,2.68481,0.00154411,-0.00101995,-0.000666543,0.00170703,-0.00118287,-0.239725,0.00167761,0.0409061,1868,1198,64.0537,-2.68486
651,-174,64.0553,2.68225,0.00131802,-0.000615988,-0.000713691,0.00155287,-0.000850837,-0.317902,0.00140737,0.0398911,1875,1198,64.0553,-2.6823
658,-174,63.972,2.66296,0.0014668,-0.000157714,-0.000939715,0.00189665,-0.000587562,-0.42901,0.00149917,0.0399536,1882,1198,63.9721,-2.66301
665,-174,64.0116,2.71021,0.00180182,0.00019905,-0.00116756,0.00241656,-0.000415691,-0.484637,0.00176599,0.0345886,1889,1198,64.0116,-2.7102
672,-174,64.0459,2.61145,0.00228919,0.000598839,-0.00131975,0.0030112,-0.000123166,-0.500597,0.00204975,0.0274714,1896,1198,64.0459,-2.61146
679,-174,64.053,2.52234,0.0025625,0.000592061,-0.00129785,0.00320672,-5.21549e-05,-0.460742,0.00215541,0.0233703,1903,1198,64.053,-2.52231
686,-174,64.0593,2.50623,0,0,0,0,0,0,0,-1,1910,1198,64.0593,-2.5062
693,-174,51.1324,2.57349,0,0,0,0,0,0,0,-1,1917,1198,51.1325,-2.57343
700,-174,25.4004,6.11792,0,0,0,0,0,0,0,-1,1924,1198,25.4004,-6.11797
707,-174,34.7908,7.34473,0,0,0,0,0,0,0,-1,1931,1198,34.7908,-7.34475
714,-174,40.1135,7.79871,0,0,0,0,0,0,0,-1,1938,1198,40.1135,-7.79875
721,-174,40.8693,7.59863,0,0,0,0,0,0,0,-1,1945,1198,40.8693,-7.59859
728,-174,53.4818,8.69067,0,0,0,0,0,0,0,-1,1952,1198,53.4818,-8.6907
735,-174,53.5709,8.14429,0.00183962,0.00161879,0.000283262,0.00203322,0.00142518,0.599561,0.00120507,0.0192347,1959,1198,53.571,-8.1443
742,-174,53.6593,7.53979,0.00159237,0.00177574,0.000522879,0.00221491,0.0011532,0.872189,0.00127914,0.0221644,1966,1198,53.6593,-7.53977
749,-174,53.6443,6.97815,0.00143667,0.00242022,0.000665358,0.00275582,0.00110107,1.10365,0.00160174,0.0193478,1973,1198,53.6443,-6.97815
756,-174,53.5861,6.41772,0.000961677,0.00364973,0.000481947,0.00373352,0.00087788,1.39865,0.00225411,0.0115358,1980,1198,53.5861,-6.41773
763,-174,53.5265,5.85583,0.000465676,0.00520042,9.2583e-05,0.00520223,0.000463867,1.55125,0.00332433,0.016001,1987,1198,53.5265,-5.85583
770,-174,53.6665,5.21484,-0.000414963,0.00707627,-0.000501651,0.00710971,-0.000448407,-1.50423,0.00489613,0.041586,1994,1198,53.6665,-5.21489
777,-174,54.0361,4.45032,0,0,0,0,0,0,0,-1,2001,1198,54.0361,-4.4503
784,-174,53.5789,3.44214,0,0,0,0,0,0,0,-1,2008,1198,53.5789,-3.44215
791,-174,53.1802,3.0354,0,0,0,0,0,0,0,-1,2015,1198,53.1802,-3.03539
798,-174,52.7458,1.96704,-0.0145622,0.0180525,-0.00580534,0.019055,-0.0155647,-1.39979,0.0200215,0.0484784,2022,1198,52.7459,-1.96704
805,-174,52.3569,0.993164,-0.023492,0.0211855,-0.00788021,0.0225347,-0.0248411,-1.40123,0.0273633,0.0490475,2029,1198,52.357,-0.993167
812,-174,0,0,0,0,0,0,0,0,0,-1,2036,1198,0,0
-700,-181,0,0,0,0,0,0,0,0,0,-1,524,1205,0,0
-693,-181,0,0,0,0,0,0,0,0,0,-1,531,1205,0,0
-686,-181,-37.7247,-2.87976,0,0,0,0,0,0,0,-1,538,1205,-37.7247,2.87972
-679,-181,-37.5556,-2.00256,0.0709257,-0.119468,0.0014739,0.0709371,-0.119479,0.0077407,0.111121,0.0499273,545,1205,-37.5556,2.0026
-672,-181,-37.4159,-1.11719,0.0588695,-0.0982307,0.003063,0.0589292,-0.0982904,0.0194872,0.0917141,0.0492729,552,1205,-37.4159,1.11721
-665,-181,-37.1227,-0.256592,0.0480329,-0.0791184,0.00368382,0.0481395,-0.079225,0.0289396,0.0742604,0.0492233,559,1205,-37.1227,0.256598
-658,-181,-37.0779,0.799561,0.038191,-0.0622053,0.00360674,0.0383204,-0.0623347,0.0358634,0.058662,0.0480941,566,1205,-37.0779,-0.799544
-651,-181,-37.012,1.56702,0.0293055,-0.0471975,0.00313742,0.0294339,-0.047326,0.0409188,0.0447169,0.0468908,573,1205,-37.012,-1.56699
-644,-181,-37.0604,2.24365,0.0212756,-0.0339551,0.00241178,0.0213807,-0.0340602,0.043557,0.0322867,0.0458056,580,1205,-37.0604,-2.24359
-637,-181,-37.0196,2.97156,0.0142334,-0.0226738,0.00152239,0.0142961,-0.0227365,0.0411559,0.0215651,0.027171,587,1205,-37.0196,-2.97157
-630,-181,-37.1201,3.5813,0.00790203,-0.0124173,0.000888055,0.00794077,-0.012456,0.0435942,0.0118719,0.0139085,594,1205,-37.1201,-3.58129
-623,-181,-37.1623,4.19507,0.00267818,-0.00513222,-0.000169387,0.00268185,-0.00513589,-0.0216737,0.0045871,0.0153707,601,1205,-37.1623,-4.19509
-616,-181,-37.17,4.8407,-0.000891336,-0.000963573,-0.00140761,0.000480615,-0.00233552,-0.772571,0.0017395,0.0157391,608,1205,-37.1701,-4.84072
-609,-181,-37.1908,5.47388,-0.00247446,-7.00249e-05,-0.00184725,0.000931766,-0.00347625,-1.07387,0.00268259,0.0153615,615,1205,-37.1908,-5.47382
-602,-181,-37.1805,6.09082,-0.00351916,-0.000144199,-0.00109884,0.000182031,-0.00384539,-1.2822,0.00262638,0.0214791,622,1205,-37.1805,-6.09082
-595,-181,-37.4297,6.66858,0,0,0,0,0,0,0,-1,629,1205,-37.4297,-6.66852
-588,-181,-37.6861,7.2644,0,0,0,0,0,0,0,-1,636,1205,-37.6861,-7.26438
-581,-181,-37.6991,8.08618,0,0,0,0,0,0,0,-1,643,1205,-37.6991,-8.08623
-574,-181,-35.6174,7.93542,0,0,0,0,0,0,0,-1,650,1205,-35.6174,-7.93543
-567,-181,-25.8839,3.34485,0,0,0,0,0,0,0,-1,657,1205,-25.8839,-3.3449
-560,-181,-31.7396,1.63306,0,0,0,0,0,0,0,-1,664,1205,-31.7396,-1.63303
-553,-181,-48.1364,0.479858,0,0,0,0,0,0,0,-1,671,1205,-48.1364,-0.479914
-546,-181,-48.2601,0.776733,-0.00558917,0.00174268,0.00267549,0.00261517,-0.00646166,1.25556,0.00539508,0.0341687,678,1205,-48.2601,-0.776685
-539,-181,-48.3785,1.06763,-0.00507959,0.00218311,0.00307105,0.0033076,-0.00620409,1.2198,0.0055758,0.0368484,685,1205,-48.3785,-1.06758
-532,-181,-48.1989,0.928711,-0.00373213,0.00191543,0.00339728,0.00350925,-0.00532596,1.13213,0.00513683,0.0444447,692,1205,-48.1989,-0.928713
-525,-181,-48.1036,1.05969,-0.000454515,-9.42134e-05,0.00284164,0.00257298,-0.00312171,0.817054,0.00329292,0.0443267,699,1205,-48.1036,-1.05974
-518,-181,-48.0684,1.2561,0.00373438,-0.00290997,0.00169388,0.00414129,-0.00331688,0.235756,0.00431474,0.0412913,706,1205,-48.0684,-1.25616
-511,-181,0,0,0,0,0,0,0,0,0,-1,713,1205,0,0
-504,-181,0,0,0,0,0,0,0,0,0,-1,720,1205,0,0
-497,-181,0,0,0,0,0,0,0,0,0,-1,727,1205,0,0
-490,-181,0,0,0,0,0,0,0,0,0,-1,734,1205,0,0
-483,-181,0,0,0,0,0,0,0,0,0,-1,741,1205,0,0
-476,-181,0,0,0,0,0,0,0,0,0,-1,748,1205,0,0
-469,-181,0,0,0,0,0,0,0,0,0,-1,755,1205,0,0
-462,-181,0,0,0,0,0,0,0,0,0,-1,762,1205,0,0
-455,-181,0,0,0,0,0,0,0,0,0,-1,769,1205,0,0
-448,-181,0,0,0,0,0,0,0,0,0,-1,776,1205,0,0
-441,-181,0,0,0,0,0,0,0,0,0,-1,783,1205,0,0
-434,-181,0,0,0,0,0,0,0,0,0,-1,790,1205,0,0
-427,-181,0,0,0,0,0,0,0,0,0,-1,797,1205,0,0
-420,-181,0,0,0,0,0,0,0,0,0,-1,804,1205,0,0
-413,-181,0,0,0,0,0,0,0,0,0,-1,811,1205,0,0
-406,-181,0,0,0,0,0,0,0,0,0,-1,818,1205,0,0
-399,-181,0,0,0,0,0,0,0,0,0,-1,825,1205,0,0
-392,-181,0,0,0,0,0,0,0,0,0,-1,832,1205,0,0
-385,-181,0,0,0,0,0,0,0,0,0,-1,839,1205,0,0
-378,-181,0,0,0,0,0,0,0,0,0,-1,846,1205,0,0
-371,-181,0,0,0,0,0,0,0,0,0,-1,853,1205,0,0
-364,-181,0,0,0,0,0,0,0,0,0,-1,860,1205,0,0
-357,-181,0,0,0,0,0,0,0,0,0,-1,867,1205,0,0
-350,-181,0,0,0,0,0,0,0,0,0,-1,874,1205,0,0
-343,-181,0,0,0,0,0,0,0,0,0,-1,881,1205,0,0
-336,-181,0,0,0,0,0,0,0,0,0,-1,888,1205,0,0
-329,-181,0,0,0,0,0,0,0,0,0,-1,895,1205,0,0
-322,-181,0,0,0,0,0,0,0,0,0,-1,902,1205,0,0
-315,-181,0,0,0,0,0,0,0,0,0,-1,909,1205,0,0
-308,-181,0,0,0,0,0,0,0,0,0,-1,916,1205,0,0
-301,-181,0,0,0,0,0,0,0,0,0,-1,923,1205,0,0
-294,-181,0,0,0,0,0,0,0,0,0,-1,930,1205,0,0
-287,-181,0,0,0,0,0,0,0,0,0,-1,937,1205,0,0
-280,-181,0,0,0,0,0,0,0,0,0,-1,944,1205,0,0
-273,-181,0,0,0,0,0,0,0,0,0,-1,951,1205,0,0
-266,-181,0,0,0,0,0,0,0,0,0,-1,958,1205,0,0
-259,-181,0,0,0,0,0,0,0,0,0,-1,965,1205,0,0
-252,-181,0,0,0,0,0,0,0,0,0,-1,972,1205,0,0
-245,-181,0,0,0,0,0,0,0,0,0,-1,979,1205,0,0
-238,-181,0,0,0,0,0,0,0,0,0,-1,986,1205,0,0
-231,-181,0,0,0,0,0,0,0,0,0,-1,993,1205,0,0
-224,-181,0,0,0,0,0,0,0,0,0,-1,1000,1205,0,0
-217,-181,0,0,0,0,0,0,0,0,0,-1,1007,1205,0,0
-210,-181,0,0,0,0,0,0,0,0,0,-1,1014,1205,0,0
-203,-181,0,0,0,0,0,0,0,0,0,-1,1021,1205,0,0
-196,-181,0,0,0,0,0,0,0,0,0,-1,1028,1205,0,0
-189,-181,0,0,0,0,0,0,0,0,0,-1,1035,1205,0,0
-182,-181,0,0,0,0,0,0,0,0,0,-1,1042,1205,0,0
-175,-181,0,0,0,0,0,0,0,0,0,-1,1049,1205,0,0
-168,-181,0,0,0,0,0,0,0,0,0,-1,1056,1205,0,0
-161,-181,0,0,0,0,0,0,0,0,0,-1,1063,1205,0,0
-154,-181,0,0,0,0,0,0,0,0,0,-1,1070,1205,0,0
-147,-181,0,0,0,0,0,0,0,0,0,-1,1077,1205,0,0
-140,-181,0,0,0,0,0,0,0,0,0,-1,1084,1205,0,0
-133,-181,0,0,0,0,0,0,0,0,0,-1,1091,1205,0,0
-126,-181,0,0,0,0,0,0,0,0,0,-1,1098,1205,0,0
-119,-181,0,0,0,0,0,0,0,0,0,-1,1105,1205,0,0
-112,-181,0,0,0,0,0,0,0,0,0,-1,1112,1205,0,0
-105,-181,0,0,0,0,0,0,0,0,0,-1,1119,1205,0,0
-98,-181,0,0,0,0,0,0,0,0,0,-1,1126,1205,0,0
-91,-181,0,0,0,0,0,0,0,0,0,-1,1133,1205,0,0
-84,-181,0,0,0,0,0,0,0,0,0,-1,1140,1205,0,0
-77,-181,0,0,0,0,0,0,0,0,0,-1,1147,1205,0,0
-70,-181,0,0,0,0,0,0,0,0,0,-1,1154,1205,0,0
-63,-181,0,0,0,0,0,0,0,0,0,-1,1161,1205,0,0
-56,-181,0,0,0,0,0,0,0,0,0,-1,1168,1205,0,0
-49,-181,0,0,0,0,0,0,0,0,0,-1,1175,1205,0,0
-42,-181,0,0,0,0,0,0,0,0,0,-1,1182,1205,0,0
-35,-181,0,0,0,0,0,0,0,0,0,-1,1189,1205,0,0
-28,-181,0,0,0,0,0,0,0,0,0,-1,1196,1205,0,0
-21,-181,0,0,0,0,0,0,0,0,0,-1,1203,1205,0,0
-14,-181,0,0,0,0,0,0,0,0,0,-1,1210,1205,0,0
-7,-181,0,0,0,0,0,0,0,0,0,-1,1217,1205,0,0
0,-181,0,0,0,0,0,0,0,0,0,-1,1224,1205,0,0
7,-181,0,0,0,0,0,0,0,0,0,-1,1231,1205,0,0
14,-181,0,0,0,0,0,0,0,0,0,-1,1238,1205,0,0
21,-181,0,0,0,0,0,0,0,0,0,-1,1245,1205,0,0
28,-181,0,0,0,0,0,0,0,0,0,-1,1252,1205,0,0
35,-181,0,0,0,0,0,0,0,0,0,-1,1259,1205,0,0
42,-181,0,0,0,0,0,0,0,0,0,-1,1266,1205,0,0
49,-181,0,0,0,0,0,0,0,0,0,-1,1273,1205,0,0
56,-181,0,0,0,0,0,0,0,0,0,-1,1280,1205,0,0
63,-181,0,0,0,0,0,0,0,0,0,-1,1287,1205,0,0
70,-181,0,0,0,0,0,0,0,0,0,-1,1294,1205,0,0
77,-181,0,0,0,0,0,0,0,0,0,-1,1301,1205,0,0
84,-181,0,0,0,0,0,0,0,0,0,-1,1308,1205,0,0
91,-181,0,0,0,0,0,0,0,0,0,-1,1315,1205,0,0
98,-181,0,0,0,0,0,0,0,0,0,-1,1322,1205,0,0
105,-181,0,0,0,0,0,0,0,0,0,-1,1329,1205,0,0
112,-181,0,0,0,0,0,0,0,0,0,-1,1336,1205,0,0
119,-181,0,0,0,0,0,0,0,0,0,-1,1343,1205,0,0
126,-181,0,0,0,0,0,0,0,0,0,-1,1350,1205,0,0
133,-181,0,0,0,0,0,0,0,0,0,-1,1357,1205,0,0
140,-181,0,0,0,0,0,0,0,0,0,-1,1364,1205,0,0
147,-181,0,0,0,0,0,0,0,0,0,-1,1371,1205,0,0
154,-181,0,0,0,0,0,0,0,0,0,-1,1378,1205,0,0
161,-181,0,0,0,0,0,0,0,0,0,-1,1385,1205,0,0
168,-181,0,0,0,0,0,0,0,0,0,-1,1392,1205,0,0
175,-181,0,0,0,0,0,0,0,0,0,-1,1399,1205,0,0
182,-181,0,0,0,0,0,0,0,0,0,-1,1406,1205,0,0
189,-181,0,0,0,0,0,0,0,0,0,-1,1413,1205,0,0
196,-181,0,0,0,0,0,0,0,0,0,-1,1420,1205,0,0
203,-181,0,0,0,0,0,0,0,0,0,-1,1427,1205,0,0
210,-181,0,0,0,0,0,0,0,0,0,-1,1434,1205,0,0
217,-181,0,0,0,0,0,0,0,0,0,-1,1441,1205,0,0
224,-181,0,0,0,0,0,0,0,0,0,-1,1448,1205,0,0
231,-181,0,0,0,0,0,0,0,0,0,-1,1455,1205,0,0
238,-181,0,0,0,0,0,0,0,0,0,-1,1462,1205,0,0
245,-181,0,0,0,0,0,0,0,0,0,-1,1469,1205,0,0
252,-181,0,0,0,0,0,0,0,0,0,-1,1476,1205,0,0
259,-181,0,0,0,0,0,0,0,0,0,-1,1483,1205,0,0
266,-181,0,0,0,0,0,0,0,0,0,-1,1490,1205,0,0
273,-181,0,0,0,0,0,0,0,0,0,-1,1497,1205,0,0
280,-181,0,0,0,0,0,0,0,0,0,-1,1504,1205,0,0
287,-181,0,0,0,0,0,0,0,0,0,-1,1511,1205,0,0
294,-181,0,0,0,0,0,0,0,0,0,-1,1518,1205,0,0
301,-181,0,0,0,0,0,0,0,0,0,-1,1525,1205,0,0
308,-181,0,0,0,0,0,0,0,0,0,-1,1532,1205,0,0
315,-181,0,0,0,0,0,0,0,0,0,-1,1539,1205,0,0
322,-181,0,0,0,0,0,0,0,0,0,-1,1546,1205,0,0
329,-181,0,0,0,0,0,0,0,0,0,-1,1553,1205,0,0
336,-181,0,0,0,0,0,0,0,0,0,-1,1560,1205,0,0
343,-181,0,0,0,0,0,0,0,0,0,-1,1567,1205,0,0
350,-181,0,0,0,0,0,0,0,0,0,-1,1574,1205,0,0
357,-181,0,0,0,0,0,0,0,0,0,-1,1581,1205,0,0
364,-181,0,0,0,0,0,0,0,0,0,-1,1588,1205,0,0
371,-181,0,0,0,0,0,0,0,0,0,-1,1595,1205,0,0
378,-181,0,0,0,0,0,0,0,0,0,-1,1602,1205,0,0
385,-181,0,0,0,0,0,0,0,0,0,-1,1609,1205,0,0
392,-181,0,0,0,0,0,0,0,0,0,-1,1616,1205,0,0
399,-181,0,0,0,0,0,0,0,0,0,-1,1623,1205,0,0
406,-181,0,0,0,0,0,0,0,0,0,-1,1630,1205,0,0
413,-181,0,0,0,0,0,0,0,0,0,-1,1637,1205,0,0
420,-181,0,0,0,0,0,0,0,0,0,-1,1644,1205,0,0
427,-181,0,0,0,0,0,0,0,0,0,-1,1651,1205,0,0
434,-181,0,0,0,0,0,0,0,0,0,-1,1658,1205,0,0
441,-181,0,0,0,0,0,0,0,0,0,-1,1665,1205,0,0
448,-181,0,0,0,0,0,0,0,0,0,-1,1672,1205,0,0
455,-181,0,0,0,0,0,0,0,0,0,-1,1679,1205,0,0
462,-181,0,0,0,0,0,0,0,0,0,-1,1686,1205,0,0
469,-181,0,0,0,0,0,0,0,0,0,-1,1693,1205,0,0
476,-181,0,0,0,0,0,0,0,0,0,-1,1700,1205,0,0
483,-181,0,0,0,0,0,0,0,0,0,-1,1707,1205,0,0
490,-181,0,0,0,0,0,0,0,0,0,-1,1714,1205,0,0
497,-181,0,0,0,0,0,0,0,0,0,-1,1721,1205,0,0
504,-181,0,0,0,0,0,0,0,0,0,-1,1728,1205,0,0
511,-181,0,0,0,0,0,0,0,0,0,-1,1735,1205,0,0
518,-181,0,0,0,0,0,0,0,0,0,-1,1742,1205,0,0
525,-181,0,0,0,0,0,0,0,0,0,-1,1749,1205,0,0
532,-181,0,0,0,0,0,0,0,0,0,-1,1756,1205,0,0
539,-181,0,0,0,0,0,0,0,0,0,-1,1763,1205,0,0
546,-181,0,0,0,0,0,0,0,0,0,-1,1770,1205,0,0
553,-181,0,0,0,0,0,0,0,0,0,-1,1777,1205,0,0
560,-181,0,0,0,0,0,0,0,0,0,-1,1784,1205,0,0
567,-181,0,0,0,0,0,0,0,0,0,-1,1791,1205,0,0
574,-181,0,0,0,0,0,0,0,0,0,-1,1798,1205,0,0
581,-181,0,0,0,0,0,0,0,0,0,-1,1805,1205,0,0
588,-181,0,0,0,0,0,0,0,0,0,-1,1812,1205,0,0
595,-181,0,0,0,0,0,0,0,0,0,-1,1819,1205,0,0
602,-181,0,0,0,0,0,0,0,0,0,-1,1826,1205,0,0
609,-181,0,0,0,0,0,0,0,0,0,-1,1833,1205,0,0
616,-181,0,0,0,0,0,0,0,0,0,-1,1840,1205,0,0
623,-181,0,0,0,0,0,0,0,0,0,-1,1847,1205,0,0
630,-181,64.0735,2.75708,0.002503,-0.000355625,-0.00117378,0.0029232,-0.000775825,-0.343774,0.00225239,0.0376352,1854,1205,64.0734,-2.75711
637,-181,64.0525,2.7334,0.00189891,-0.000648833,-0.000912913,0.00219226,-0.000942175,-0.310904,0.00185702,0.0374607,1861,1205,64.0525,-2.73337
644,-181,64.073,2.69214,0.00152239,-0.000572342,-0.000848671,0.00182307,-0.000873018,-0.340492,0.00158847,0.0380711,1868,1205,64.073,-2.69208
651,-181,64.1124,2.71436,0.00136977,-0.000185259,-0.00104467,0.00189451,-0.000709995,-0.465486,0.00155468,0.0370225,1875,1205,64.1124,-2.71434
658,-181,64.0105,2.76721,0.0015563,0.000131649,-0.0013087,0.00233397,-0.000646025,-0.53617,0.00181016,0.0334528,1882,1205,64.0105,-2.76725
665,-181,63.9708,2.74182,0.00183716,0.000273927,-0.00148281,0.00273175,-0.000620662,-0.542846,0.00205947,0.0315997,1889,1205,63.9709,-2.74179
672,-181,64.0338,2.61597,0.00223902,0.000475715,-0.00152249,0.00311671,-0.000401975,-0.522948,0.00222394,0.0255027,1896,1205,64.0338,-2.61602
679,-181,64.0699,2.52393,0.00247059,0.000396737,-0.00144035,0.00320844,-0.000341107,-0.473414,0.00226125,0.0317803,1903,1205,64.07,-2.52398
686,-181,64.1104,2.47046,0,0,0,0,0,0,0,-1,1910,1205,64.1104,-2.47052
693,-181,36.1301,2.91016,0,0,0,0,0,0,0,-1,1917,1205,36.1302,-2.9102
700,-181,29.5845,6.58398,0,0,0,0,0,0,0,-1,1924,1205,29.5844,-6.58395
707,-181,53.5851,10.3383,0,0,0,0,0,0,0,-1,1931,1205,53.5851,-10.3382
714,-181,53.7209,10.106,0,0,0,0,0,0,0,-1,1938,1205,53.7209,-10.1059
721,-181,51.2217,9.59631,0,0,0,0,0,0,0,-1,1945,1205,51.2217,-9.59637
728,-181,53.0734,8.68372,0,0,0,0,0,0,0,-1,1952,1205,53.0734,-8.68374
735,-181,53.0685,8.11865,0.00186615,0.00158545,0.000292768,0.00205047,0.00140113,0.561883,0.00121007,0.0151169,1959,1205,53.0684,-8.11871
742,-181,53.0397,7.57715,0.00164287,0.00181677,0.000515459,0.00225256,0.00120708,0.868954,0.00130163,0.0195629,1966,1205,53.0396,-7.57713
749,-181,53.0211,6.98865,0.00140414,0.00241114,0.000670529,0.00274617,0.00106912,1.10744,0.0015984,0.0179766,1973,1205,53.0211,-6.98866
756,-181,53.0005,6.41003,0.000751755,0.00348366,0.000563597,0.00359536,0.000640051,1.37513,0.0022146,0.0128616,1980,1205,53.0005,-6.41
763,-181,52.9849,5.84595,7.73321e-05,0.00488006,0.000265072,0.00489464,6.27465e-05,1.51583,0.00324238,0.0164727,1987,1205,52.9849,-5.84591
770,-181,53.1825,5.13538,-0.001112,0.00661302,-0.00025753,0.0066216,-0.00112058,-1.53751,0.00483144,0.0487255,1994,1205,53.1825,-5.13536
777,-181,53.519,4.25916,0,0,0,0,0,0,0,-1,2001,1205,53.5191,-4.25914
784,-181,49.4673,-0.801392,0,0,0,0,0,0,0,-1,2008,1205,49.4674,0.801388
791,-181,55.9302,-1.63965,0,0,0,0,0,0,0,-1,2015,1205,55.9302,1.63967
798,-181,51.5166,1.74817,0,0,0,0,0,0,0,-1,2022,1205,51.5167,-1.74812
805,-181,0,0,0,0,0,0,0,0,0,-1,2029,1205,0,0
812,-181,0,0,0,0,0,0,0,0,0,-1,2036,1205,0,0
-700,-188,0,0,0,0,0,0,0,0,0,-1,524,1212,0,0
-693,-188,0,0,0,0,0,0,0,0,0,-1,531,1212,0,0
-686,-188,0,0,0,0,0,0,0,0,0,-1,538,1212,0,0
-679,-188,-36.9533,-1.29663,0,0,0,0,0,0,0,-1,545,1212,-36.9533,1.29664
-672,-188,-36.8334,-0.381348,0,0,0,0,0,0,0,-1,552,1212,-36.8334,0.38137
-665,-188,-36.5896,0.552246,0,0,0,0,0,0,0,-1,559,1212,-36.5896,-0.552253
-658,-188,-36.1993,1.67957,0,0,0,0,0,0,0,-1,566,1212,-36.1993,-1.67958
-651,-188,-36.2056,2.35889,0.0269586,-0.0492443,0.00141037,0.0269847,-0.0492704,0.0184996,0.0446483,0.0480729,573,1212,-36.2056,-2.35891
-644,-188,-36.4993,2.4845,0.0195859,-0.0359152,0.00115065,0.0196098,-0.0359391,0.0207202,0.0325298,0.0456464,580,1212,-36.4993,-2.48455
-637,-188,-36.4747,3.03076,0.013102,-0.0244502,0.000666152,0.0131139,-0.024462,0.0177319,0.0220217,0.024059,587,1212,-36.4748,-3.03079
-630,-188,-36.5112,3.60938,0.0072918,-0.0139859,0.000412374,0.00729979,-0.0139939,0.0193709,0.0124948,0.0108265,594,1212,-36.5112,-3.60933
-623,-188,-36.5297,4.23584,0.00240954,-0.00633609,-0.000282516,0.00241865,-0.0063452,-0.0322588,0.00522636,0.0109855,601,1212,-36.5297,-4.23581
-616,-188,-36.5347,4.86499,-0.000825813,-0.00179551,-0.00133504,0.000109698,-0.00273102,-0.611218,0.00185833,0.0116312,608,1212,-36.5346,-4.86502
-609,-188,-36.5298,5.4917,-0.00220211,-0.000447042,-0.00181015,0.000687071,-0.00333622,-1.0111,0.00248504,0.0144789,615,1212,-36.5298,-5.49175
-602,-188,-36.5205,6.146,-0.00306746,-0.000275923,-0.00131668,0.000247117,-0.0035905,-1.19267,0.00248015,0.0214481,622,1212,-36.5205,-6.14599
-595,-188,-36.6248,6.69946,-0.00434033,-0.000145245,-0.000373898,-0.000112181,-0.00437339,-1.4826,0.00287893,0.0375641,629,1212,-36.6248,-6.69951
-588,-188,-36.9258,7.34167,-0.00477927,0.0004573,-0.000143228,0.000461214,-0.00478318,-1.54347,0.00335312,0.0281703,636,1212,-36.9258,-7.34171
-581,-188,-36.9253,7.92078,0,0,0,0,0,0,0,-1,643,1212,-36.9253,-7.92079
-574,-188,-37.0904,8.43408,0,0,0,0,0,0,0,-1,650,1212,-37.0904,-8.43403
-567,-188,-19.5786,4.10388,0,0,0,0,0,0,0,-1,657,1212,-19.5785,-4.10383
-560,-188,-23.9507,0.416626,0,0,0,0,0,0,0,-1,664,1212,-23.9508,-0.416602
-553,-188,-48.0187,0.637695,0,0,0,0,0,0,0,-1,671,1212,-48.0187,-0.637706
-546,-188,-48.2012,0.812622,-0.00547824,0.00193424,0.00224732,0.00256236,-0.00610636,1.29825,0.00514241,0.0484645,678,1212,-48.2012,-0.812579
-539,-188,-48.3293,0.953125,-0.00536132,0.00233697,0.00270898,0.00319469,-0.00621903,1.26416,0.00552772,0.0371376,685,1212,-48.3293,-0.9531
-532,-188,-48.2056,0.972046,-0.00484086,0.00243181,0.00333171,0.00372733,-0.00613638,1.19994,0.00575115,0.0414525,692,1212,-48.2056,-0.972076
-525,-188,-48.2798,1.16956,-0.00239817,0.000994376,0.00326965,0.00298157,-0.00438537,1.02468,0.00427897,0.0413424,699,1212,-48.2798,-1.16951
-518,-188,-48.258,1.3446,0.00175032,-0.00157178,0.0023322,0.00295253,-0.00277399,0.475957,0.00330674,0.042367,706,1212,-48.258,-1.34467
-511,-188,-48.1041,1.14319,0.00736063,-0.00551667,0.000968128,0.00743301,-0.00558905,0.0746219,0.00754337,0.0400029,713,1212,-48.1041,-1.14313
-504,-188,0,0,0,0,0,0,0,0,0,-1,720,1212,0,0
-497,-188,0,0,0,0,0,0,0,0,0,-1,727,1212,0,0
-490,-188,0,0,0,0,0,0,0,0,0,-1,734,1212,0,0
-483,-188,0,0,0,0,0,0,0,0,0,-1,741,1212,0,0
-476,-188,0,0,0,0,0,0,0,0,0,-1,748,1212,0,0
-469,-188,0,0,0,0,0,0,0,0,0,-1,755,1212,0,0
-462,-188,0,0,0,0,0,0,0,0,0,-1,762,1212,0,0
-455,-188,0,0,0,0,0,0,0,0,0,-1,769,1212,0,0
-448,-188,0,0,0,0,0,0,0,0,0,-1,776,1212,0,0
-441,-188,0,0,0,0,0,0,0,0,0,-1,783,1212,0,0
-434,-188,0,0,0,0,0,0,0,0,0,-1,790,1212,0,0
-427,-188,0,0,0,0,0,0,0,0,0,-1,797,1212,0,0
-420,-188,0,0,0,0,0,0,0,0,0,-1,804,1212,0,0
-413,-188,0,0,0,0,0,0,0,0,0,-1,811,1212,0,0
-406,-188,0,0,0,0,0,0,0,0,0,-1,818,1212,0,0
-399,-188,0,0,0,0,0,0,0,0,0,-1,825,1212,0,0
-392,-188,0,0,0,0,0,0,0,0,0,-1,832,1212,0,0
-385,-188,0,0,0,0,0,0,0,0,0,-1,839,1212,0,0
-378,-188,0,0,0,0,0,0,0,0,0,-1,846,1212,0,0
-371,-188,0,0,0,0,0,0,0,0,0,-1,853,1212,0,0
-364,-188,0,0,0,0,0,0,0,0,0,-1,860,1212,0,0
-357,-188,0,0,0,0,0,0,0,0,0,-1,867,1212,0,0
-350,-188,0,0,0,0,0,0,0,0,0,-1,874,1212,0,0
-343,-188,0,0,0,0,0,0,0,0,0,-1,881,1212,0,0
-336,-188,0,0,0,0,0,0,0,0,0,-1,888,1212,0,0
-329,-188,0,0,0,0,0,0,0,0,0,-1,895,1212,0,0
-322,-188,0,0,0,0,0,0,0,0,0,-1,902,1212,0,0
-315,-188,0,0,0,0,0,0,0,0,0,-1,909,1212,0,0
-308,-188,0,0,0,0,0,0,0,0,0,-1,916,1212,0,0
-301,-188,0,0,0,0,0,0,0,0,0,-1,923,1212,0,0
-294,-188,0,0,0,0,0,0,0,0,0,-1,930,1212,0,0
-287,-188,0,0,0,0,0,0,0,0,0,-1,937,1212,0,0
-280,-188,0,0,0,0,0,0,0,0,0,-1,944,1212,0,0
-273,-188,0,0,0,0,0,0,0,0,0,-1,951,1212,0,0
-266,-188,0,0,0,0,0,0,0,0,0,-1,958,1212,0,0
-259,-188,0,0,0,0,0,0,0,0,0,-1,965,1212,0,0
-252,-188,0,0,0,0,0,0,0,0,0,-1,972,1212,0,0
-245,-188,0,0,0,0,0,0,0,0,0,-1,979,1212,0,0
-238,-188,0,0,0,0,0,0,0,0,0,-1,986,1212,0,0
-231,-188,0,0,0,0,0,0,0,0,0,-1,993,1212,0,0
-224,-188,0,0,0,0,0,0,0,0,0,-1,1000,1212,0,0
-217,-188,0,0,0,0,0,0,0,0,0,-1,1007,1212,0,0
-210,-188,0,0,0,0,0,0,0,0,0,-1,1014,1212,0,0
-203,-188,0,0,0,0,0,0,0,0,0,-1,1021,1212,0,0
-196,-188,0,0,0,0,0,0,0,0,0,-1,1028,1212,0,0
-189,-188,0,0,0,0,0,0,0,0,0,-1,1035,1212,0,0
-182,-188,0,0,0,0,0,0,0,0,0,-1,1042,1212,0,0
-175,-188,0,0,0,0,0,0,0,0,0,-1,1049,1212,0,0
-168,-188,0,0,0,0,0,0,0,0,0,-1,1056,1212,0,0
-161,-188,0,0,0,0,0,0,0,0,0,-1,1063,1212,0,0
-154,-188,0,0,0,0,0,0,0,0,0,-1,1070,1212,0,0
-147,-188,0,0,0,0,0,0,0,0,0,-1,1077,1212,0,0
-140,-188,0,0,0,0,0,0,0,0,0,-1,1084,1212,0,0
-133,-188,0,0,0,0,0,0,0,0,0,-1,1091,1212,0,0
-126,-188,0,0,0,0,0,0,0,0,0,-1,1098,1212,0,0
-119,-188,0,0,0,0,0,0,0,0,0,-1,1105,1212,0,0
-112,-188,0,0,0,0,0,0,0,0,0,-1,1112,1212,0,0
-105,-188,0,0,0,0,0,0,0,0,0,-1,1119,1212,0,0
-98,-188,0,0,0,0,0,0,0,0,0,-1,1126,1212,0,0
-91,-188,0,0,0,0,0,0,0,0,0,-1,1133,1212,0,0
-84,-188,0,0,0,0,0,0,0,0,0,-1,1140,1212,0,0
-77,-188,0,0,0,0,0,0,0,0,0,-1,1147,1212,0,0
-70,-188,0,0,0,0,0,0,0,0,0,-1,1154,1212,0,0
-63,-188,0,0,0,0,0,0,0,0,0,-1,1161,1212,0,0
-56,-188,0,0,0,0,0,0,0,0,0,-1,1168,1212,0,0
-49,-188,0,0,0,0,0,0,0,0,0,-1,1175,1212,0,0
-42,-188,0,0,0,0,0,0,0,0,0,-1,1182,1212,0,0
-35,-188,0,0,0,0,0,0,0,0,0,-1,1189,1212,0,0
-28,-188,0,0,0,0,0,0,0,0,0,-1,1196,1212,0,0
-21,-188,0,0,0,0,0,0,0,0,0,-1,1203,1212,0,0
-14,-188,0,0,0,0,0,0,0,0,0,-1,1210,1212,0,0
-7,-188,0,0,0,0,0,0,0,0,0,-1,1217,1212,0,0
0,-188,0,0,0,0,0,0,0,0,0,-1,1224,1212,0,0
7,-188,0,0,0,0,0,0,0,0,0,-1,1231,1212,0,0
14,-188,0,0,0,0,0,0,0,0,0,-1,1238,1212,0,0
21,-188,0,0,0,0,0,0,0,0,0,-1,1245,1212,0,0
28,-188,0,0,0,0,0,0,0,0,0,-1,1252,1212,0,0
35,-188,0,0,0,0,0,0,0,0,0,-1,1259,1212,0,0
42,-188,0,0,0,0,0,0,0,0,0,-1,1266,1212,0,0
49,-188,0,0,0,0,0,0,0,0,0,-1,1273,1212,0,0
56,-188,0,0,0,0,0,0,0,0,0,-1,1280,1212,0,0
63,-188,0,0,0,0,0,0,0,0,0,-1,1287,1212,0,0
70,-188,0,0,0,0,0,0,0,0,0,-1,1294,1212,0,0
77,-188,0,0,0,0,0,0,0,0,0,-1,1301,1212,0,0
84,-188,0,0,0,0,0,0,0,0,0,-1,1308,1212,0,0
91,-188,0,0,0,0,0,0,0,0,0,-1,1315,1212,0,0
98,-188,0,0,0,0,0,0,0,0,0,-1,1322,1212,0,0
105,-188,0,0,0,0,0,0,0,0,0,-1,1329,1212,0,0
112,-188,0,0,0,0,0,0,0,0,0,-1,1336,1212,0,0
119,-188,0,0,0,0,0,0,0,0,0,-1,1343,1212,0,0
126,-188,0,0,0,0,0,0,0,0,0,-1,1350,1212,0,0
133,-188,0,0,0,0,0,0,0,0,0,-1,1357,1212,0,0
140,-188,0,0,0,0,0,0,0,0,0,-1,1364,1212,0,0
147,-188,0,0,0,0,0,0,0,0,0,-1,1371,1212,0,0
154,-188,0,0,0,0,0,0,0,0,0,-1,1378,1212,0,0
161,-188,0,0,0,0,0,0,0,0,0,-1,1385,1212,0,0
168,-188,0,0,0,0,0,0,0,0,0,-1,1392,1212,0,0
175,-188,0,0,0,0,0,0,0,0,0,-1,1399,1212,0,0
182,-188,0,0,0,0,0,0,0,0,0,-1,1406,1212,0,0
189,-188,0,0,0,0,0,0,0,0,0,-1,1413,1212,0,0
196,-188,0,0,0,0,0,0,0,0,0,-1,1420,1212,0,0
203,-188,0,0,0,0,0,0,0,0,0,-1,1427,1212,0,0
210,-188,0,0,0,0,0,0,0,0,0,-1,1434,1212,0,0
217,-188,0,0,0,0,0,0,0,0,0,-1,1441,1212,0,0
224,-188,0,0,0,0,0,0,0,0,0,-1,1448,1212,0,0
231,-188,0,0,0,0,0,0,0,0,0,-1,1455,1212,0,0
238,-188,0,0,0,0,0,0,0,0,0,-1,1462,1212,0,0
245,-188,0,0,0,0,0,0,0,0,0,-1,1469,1212,0,0
252,-188,0,0,0,0,0,0,0,0,0,-1,1476,1212,0,0
259,-188,0,0,0,0,0,0,0,0,0,-1,1483,1212,0,0
266,-188,0,0,0,0,0,0,0,0,0,-1,1490,1212,0,0
273,-188,0,0,0,0,0,0,0,0,0,-1,1497,1212,0,0
280,-188,0,0,0,0,0,0,0,0,0,-1,1504,1212,0,0
287,-188,0,0,0,0,0,0,0,0,0,-1,1511,1212,0,0
294,-188,0,0,0,0,0,0,0,0,0,-1,1518,1212,0,0
301,-188,0,0,0,0,0,0,0,0,0,-1,1525,1212,0,0
308,-188,0,0,0,0,0,0,0,0,0,-1,1532,1212,0,0
315,-188,0,0,0,0,0,0,0,0,0,-1,1539,1212,0,0
322,-188,0,0,0,0,0,0,0,0,0,-1,1546,1212,0,0
329,-188,0,0,0,0,0,0,0,0,0,-1,1553,1212,0,0
336,-188,0,0,0,0,0,0,0,0,0,-1,1560,1212,0,0
343,-188,0,0,0,0,0,0,0,0,0,-1,1567,1212,0,0
350,-188,0,0,0,0,0,0,0,0,0,-1,1574,1212,0,0
357,-188,0,0,0,0,0,0,0,0,0,-1,1581,1212,0,0
364,-188,0,0,0,0,0,0,0,0,0,-1,1588,1212,0,0
371,-188,0,0,0,0,0,0,0,0,0,-1,1595,1212,0,0
378,-188,0,0,0,0,0,0,0,0,0,-1,1602,1212,0,0
385,-188,0,0,0,0,0,0,0,0,0,-1,1609,1212,0,0
392,-188,0,0,0,0,0,0,0,0,0,-1,1616,1212,0,0
399,-188,0,0,0,0,0,0,0,0,0,-1,1623,1212,0,0
406,-188,0,0,0,0,0,0,0,0,0,-1,1630,1212,0,0
413,-188,0,0,0,0,0,0,0,0,0,-1,1637,1212,0,0
420,-188,0,0,0,0,0,0,0,0,0,-1,1644,1212,0,0
427,-188,0,0,0,0,0,0,0,0,0,-1,1651,1212,0,0
434,-188,0,0,0,0,0,0,0,0,0,-1,1658,1212,0,0
441,-188,0,0,0,0,0,0,0,0,0,-1,1665,1212,0,0
448,-188,0,0,0,0,0,0,0,0,0,-1,1672,1212,0,0
455,-188,0,0,0,0,0,0,0,0,0,-1,1679,1212,0,0
462,-188,0,0,0,0,0,0,0,0,0,-1,1686,1212,0,0
469,-188,0,0,0,0,0,0,0,0,0,-1,1693,1212,0,0
476,-188,0,0,0,0,0,0,0,0,0,-1,1700,1212,0,0
483,-188,0,0,0,0,0,0,0,0,0,-1,1707,1212,0,0
490,-188,0,0,0,0,0,0,0,0,0,-1,1714,1212,0,0
497,-188,0,0,0,0,0,0,0,0,0,-1,1721,1212,0,0
504,-188,0,0,0,0,0,0,0,0,0,-1,1728,1212,0,0
511,-188,0,0,0,0,0,0,0,0,0,-1,1735,1212,0,0
518,-188,0,0,0,0,0,0,0,0,0,-1,1742,1212,0,0
525,-188,0,0,0,0,0,0,0,0,0,-1,1749,1212,0,0
532,-188,0,0,0,0,0,0,0,0,0,-1,1756,1212,0,0
539,-188,0,0,0,0,0,0,0,0,0,-1,1763,1212,0,0
546,-188,0,0,0,0,0,0,0,0,0,-1,1770,1212,0,0
553,-188,0,0,0,0,0,0,0,0,0,-1,1777,1212,0,0
560,-188,0,0,0,0,0,0,0,0,0,-1,1784,1212,0,0
567,-188,0,0,0,0,0,0,0,0,0,-1,1791,1212,0,0
574,-188,0,0,0,0,0,0,0,0,0,-1,1798,1212,0,0
581,-188,0,0,0,0,0,0,0,0,0,-1,1805,1212,0,0
588,-188,0,0,0,0,0,0,0,0,0,-1,1812,1212,0,0
595,-188,0,0,0,0,0,0,0,0,0,-1,1819,1212,0,0
602,-188,0,0,0,0,0,0,0,0,0,-1,1826,1212,0,0
609,-188,0,0,0,0,0,0,0,0,0,-1,1833,1212,0,0
616,-188,0,0,0,0,0,0,0,0,0,-1,1840,1212,0,0
623,-188,0,0,0,0,0,0,0,0,0,-1,1847,1212,0,0
630,-188,64.0895,2.4751,0.00179564,0.000292411,-0.000758637,0.00211195,-2.38947e-05,-0.395023,0.001416,0.0388279,1854,1212,64.0895,-2.47513
637,-188,64.0581,2.49158,0.00141064,7.54564e-05,-0.000730114,0.00173237,-0.000246267,-0.41505,0.00124514,0.0398571,1861,1212,64.0581,-2.49161
644,-188,64.0133,2.5625,0.00118522,0.000139627,-0.000872224,0.00167932,-0.00035448,-0.515416,0.00125451,0.0348088,1868,1212,64.0133,-2.56253
651,-188,64.0013,2.62402,0.00115876,0.000416082,-0.00122309,0.00206564,-0.000490799,-0.638017,0.00156654,0.0291099,1875,1212,64.0014,-2.62398
658,-188,63.9923,2.68323,0.00143792,0.000491921,-0.00150783,0.0025452,-0.000615353,-0.63341,0.00193481,0.0305328,1882,1212,63.9924,-2.68322
665,-188,63.976,2.68738,0.0017169,0.000381354,-0.00164149,0.00282125,-0.000722989,-0.592216,0.0021625,0.0300312,1889,1212,63.9759,-2.6874
672,-188,64.0083,2.57568,0.0020968,0.000393084,-0.00162221,0.00307722,-0.000587336,-0.543628,0.0022727,0.0243567,1896,1212,64.0083,-2.57564
679,-188,64.0144,2.43774,0,0,0,0,0,0,0,-1,1903,1212,64.0144,-2.4377
686,-188,60.1007,2.41321,0,0,0,0,0,0,0,-1,1910,1212,60.1007,-2.41325
693,-188,35.9054,2.18042,0,0,0,0,0,0,0,-1,1917,1212,35.9054,-2.18038
700,-188,52.4801,10.9799,0,0,0,0,0,0,0,-1,1924,1212,52.4801,-10.9798
707,-188,52.6495,10.5242,0.00234507,0.000828047,-0.000842435,0.00272015,0.000452964,-0.418886,0.00168289,0.0496729,1931,1212,52.6495,-10.5241
714,-188,52.8198,9.95947,0,0,0,0,0,0,0,-1,1938,1212,52.8198,-9.95948
721,-188,52.2286,9.52539,0,0,0,0,0,0,0,-1,1945,1212,52.2286,-9.52538
728,-188,52.4591,8.76697,0.00217661,0.0011792,-4.66722e-05,0.00217879,0.00117702,-0.0466576,0.00125928,0.0265918,1952,1212,52.4592,-8.76696
735,-188,52.4722,8.1521,0.00186757,0.00134047,0.000333435,0.00202904,0.001179,0.450963,0.00117659,0.0140024,1959,1212,52.4721,-8.15214
742,-188,52.4321,7.57581,0.00157193,0.00175197,0.000479787,0.00215011,0.00117379,0.87813,0.00124311,0.0161393,1966,1212,52.4322,-7.57578
749,-188,52.4302,7.00574,0.00114782,0.00254843,0.00044774,0.00267933,0.00101693,1.28637,0.0015618,0.0148292,1973,1212,52.4302,-7.00575
756,-188,52.4182,6.41943,0.0002954,0.00380649,0.000103186,0.00380952,0.000292371,1.54144,0.00244805,0.0134958,1980,1212,52.4183,-6.41938
763,-188,52.4011,5.83301,-0.000551292,0.00543721,-0.000495717,0.00547796,-0.000592049,-1.48876,0.00386447,0.0182667,1987,1212,52.4011,-5.833
770,-188,52.3403,5.14893,-0.00199187,0.00745858,-0.0013801,0.007656,-0.00218929,-1.42871,0.00596913,0.0416927,1994,1212,52.3404,-5.14888
777,-188,52.3948,4.44226,0,0,0,0,0,0,0,-1,2001,1212,52.3948,-4.44222
784,-188,50.2876,-0.510742,0,0,0,0,0,0,0,-1,2008,1212,50.2875,0.510762
791,-188,51.6936,0.835083,0,0,0,0,0,0,0,-1,2015,1212,51.6937,-0.835076
798,-188,54.2373,-0.0861816,0,0,0,0,0,0,0,-1,2022,1212,54.2372,0.0861871
805,-188,0,0,0,0,0,0,0,0,0,-1,2029,1212,0,0
812,-188,0,0,0,0,0,0,0,0,0,-1,2036,1212,0,0
-700,-195,0,0,0,0,0,0,0,0,0,-1,524,1219,0,0
-693,-195,0,0,0,0,0,0,0,0,0,-1,531,1219,0,0
-686,-195,0,0,0,0,0,0,0,0,0,-1,538,1219,0,0
-679,-195,-36.7245,-1.0769,0.0605398,-0.119411,-0.00750698,0.0608524,-0.119724,-0.0416205,0.106086,0.0491242,545,1219,-36.7245,1.07693
-672,-195,-36.1072,0.189209,0.0515564,-0.100688,-0.0040024,0.0516616,-0.100794,-0.026265,0.0895307,0.0473283,552,1219,-36.1072,-0.189195
-665,-195,-35.7725,1.54968,0,0,0,0,0,0,0,-1,559,1219,-35.7725,-1.54967
-658,-195,-35.3632,2.7771,0,0,0,0,0,0,0,-1,566,1219,-35.3632,-2.77712
-651,-195,-35.3749,3.12231,0,0,0,0,0,0,0,-1,573,1219,-35.3749,-3.12236
-644,-195,-35.6253,2.56226,0.0186874,-0.0372586,9.54381e-05,0.0186876,-0.0372588,0.00170589,0.0328885,0.0444273,580,1219,-35.6253,-2.56222
-637,-195,-35.7507,3.08923,0.0123739,-0.0255355,-6.43692e-05,0.012374,-0.0255356,-0.00169797,0.0223225,0.0247086,587,1219,-35.7507,-3.0892
-630,-195,-35.8569,3.64319,0.00682664,-0.0149578,-3.55094e-05,0.0068267,-0.0149579,-0.00163003,0.012866,0.0090938,594,1219,-35.8569,-3.64316
-623,-195,-35.8939,4.25781,0.00206903,-0.00699756,-0.000441022,0.00209043,-0.00701896,-0.04849,0.00550993,0.00831898,601,1219,-35.8938,-4.25787
-616,-195,-35.8991,4.90002,-0.000929817,-0.00219597,-0.00135014,-7.1698e-05,-0.00305409,-0.56617,0.00201258,0.00999669,608,1219,-35.8991,-4.90004
-609,-195,-35.9176,5.52454,-0.0020217,-0.00073591,-0.00184502,0.000575016,-0.00333262,-0.953044,0.00243615,0.01975,615,1219,-35.9176,-5.52448
-602,-195,-35.9294,6.11157,-0.00260503,-0.00045618,-0.00163,0.000421648,-0.00348286,-1.07679,0.00247446,0.0232691,622,1219,-35.9294,-6.11153
-595,-195,-35.9846,6.79236,-0.00371868,-0.000235803,-0.000857435,-3.61589e-05,-0.00391832,-1.34203,0.00260025,0.0311568,629,1219,-35.9846,-6.7923
-588,-195,-36.0896,7.53088,-0.00427334,0.000530909,-0.000590728,0.000602479,-0.00434491,-1.45023,0.0031169,0.0284896,636,1219,-36.0896,-7.53083
-581,-195,-35.8504,8.20154,0,0,0,0,0,0,0,-1,643,1219,-35.8504,-8.20151
-574,-195,-35.7197,8.22302,0,0,0,0,0,0,0,-1,650,1219,-35.7197,-8.22301
-567,-195,-20.6388,3.78369,0,0,0,0,0,0,0,-1,657,1219,-20.6388,-3.78369
-560,-195,-20.878,2.10388,0,0,0,0,0,0,0,-1,664,1219,-20.878,-2.10385
-553,-195,-41.595,0.613281,0,0,0,0,0,0,0,-1,671,1219,-41.595,-0.61334
-546,-195,-48.2003,0.914429,0,0,0,0,0,0,0,-1,678,1219,-48.2003,-0.914454
-539,-195,-48.2982,0.976563,-0.00532885,0.00208388,0.0023767,0.00278045,-0.00602542,1.2857,0.00519786,0.0411649,685,1219,-48.2981,-0.976605
-532,-195,-48.3717,0.962036,-0.00536732,0.00230853,0.00310041,0.00340439,-0.00646318,1.23105,0.00578756,0.0345277,692,1219,-48.3717,-0.962063
-525,-195,-48.3849,1.17651,-0.00418745,0.00173807,0.00360238,0.00343954,-0.00588892,1.12954,0.00544733,0.0381653,699,1219,-48.3849,-1.1765
-518,-195,-48.381,1.36829,-0.0012266,0.000326687,0.00340257,0.00304013,-0.00394004,0.897602,0.00404115,0.0415636,706,1219,-48.3811,-1.36825
-511,-195,-48.4272,1.29651,0.00433791,-0.00301644,0.00237327,0.00503727,-0.00371579,0.28657,0.00507274,0.0430483,713,1219,-48.4272,-1.29646
-504,-195,0,0,0,0,0,0,0,0,0,-1,720,1219,0,0
-497,-195,0,0,0,0,0,0,0,0,0,-1,727,1219,0,0
-490,-195,0,0,0,0,0,0,0,0,0,-1,734,1219,0,0
-483,-195,0,0,0,0,0,0,0,0,0,-1,741,1219,0,0
-476,-195,0,0,0,0,0,0,0,0,0,-1,748,1219,0,0
-469,-195,0,0,0,0,0,0,0,0,0,-1,755,1219,0,0
-462,-195,0,0,0,0,0,0,0,0,0,-1,762,1219,0,0
-455,-195,0,0,0,0,0,0,0,0,0,-1,769,1219,0,0
-448,-195,0,0,0,0,0,0,0,0,0,-1,776,1219,0,0
-441,-195,0,0,0,0,0,0,0,0,0,-1,783,1219,0,0
-434,-195,0,0,0,0,0,0,0,0,0,-1,790,1219,0,0
-427,-195,0,0,0,0,0,0,0,0,0,-1,797,1219,0,0
-420,-195,0,0,0,0,0,0,0,0,0,-1,804,1219,0,0
-413,-195,0,0,0,0,0,0,0,0,0,-1,811,1219,0,0
-406,-195,0,0,0,0,0,0,0,0,0,-1,818,1219,0,0
-399,-195,0,0,0,0,0,0,0,0,0,-1,825,1219,0,0
-392,-195,0,0,0,0,0,0,0,0,0,-1,832,1219,0,0
-385,-195,0,0,0,0,0,0,0,0,0,-1,839,1219,0,0
-378,-195,0,0,0,0,0,0,0,0,0,-1,846,1219,0,0
-371,-195,0,0,0,0,0,0,0,0,0,-1,853,1219,0,0
-364,-195,0,0,0,0,0,0,0,0,0,-1,860,1219,0,0
-357,-195,0,0,0,0,0,0,0,0,0,-1,867,1219,0,0
-350,-195,0,0,0,0,0,0,0,0,0,-1,874,1219,0,0
-343,-195,0,0,0,0,0,0,0,0,0,-1,881,1219,0,0
-336,-195,0,0,0,0,0,0,0,0,0,-1,888,1219,0,0
-329,-195,0,0,0,0,0,0,0,0,0,-1,895,1219,0,0
-322,-195,0,0,0,0,0,0,0,0,0,-1,902,1219,0,0
-315,-195,0,0,0,0,0,0,0,0,0,-1,909,1219,0,0
-308,-195,0,0,0,0,0,0,0,0,0,-1,916,1219,0,0
-301,-195,0,0,0,0,0,0,0,0,0,-1,923,1219,0,0
-294,-195,0,0,0,0,0,0,0,0,0,-1,930,1219,0,0
-287,-195,0,0,0,0,0,0,0,0,0,-1,937,1219,0,0
-280,-195,0,0,0,0,0,0,0,0,0,-1,944,1219,0,0
-273,-195,0,0,0,0,0,0,0,0,0,-1,951,1219,0,0
-266,-195,0,0,0,0,0,0,0,0,0,-1,958,1219,0,0
-259,-195,0,0,0,0,0,0,0,0,0,-1,965,1219,0,0
-252,-195,0,0,0,0,0,0,0,0,0,-1,972,1219,0,0
-245,-195,0,0,0,0,0,0,0,0,0,-1,979,1219,0,0
-238,-195,0,0,0,0,0,0,0,0,0,-1,986,1219,0,0
-231,-195,0,0,0,0,0,0,0,0,0,-1,993,1219,0,0
-224,-195,0,0,0,0,0,0,0,0,0,-1,1000,1219,0,0
-217,-195,0,0,0,0,0,0,0,0,0,-1,1007,1219,0,0
-210,-195,0,0,0,0,0,0,0,0,0,-1,1014,1219,0,0
-203,-195,0,0,0,0,0,0,0,0,0,-1,1021,1219,0,0
-196,-195,0,0,0,0,0,0,0,0,0,-1,1028,1219,0,0
-189,-195,0,0,0,0,0,0,0,0,0,-1,1035,1219,0,0
-182,-195,0,0,0,0,0,0,0,0,0,-1,1042,1219,0,0
-175,-195,0,0,0,0,0,0,0,0,0,-1,1049,1219,0,0
-168,-195,0,0,0,0,0,0,0,0,0,-1,1056,1219,0,0
-161,-195,0,0,0,0,0,0,0,0,0,-1,1063,1219,0,0
-154,-195,0,0,0,0,0,0,0,0,0,-1,1070,1219,0,0
-147,-195,0,0,0,0,0,0,0,0,0,-1,1077,1219,0,0
-140,-195,0,0,0,0,0,0,0,0,0,-1,1084,1219,0,0
-133,-195,0,0,0,0,0,0,0,0,0,-1,1091,1219,0,0
-126,-195,0,0,0,0,0,0,0,0,0,-1,1098,1219,0,0
-119,-195,0,0,0,0,0,0,0,0,0,-1,1105,1219,0,0
-112,-195,0,0,0,0,0,0,0,0,0,-1,1112,1219,0,0
-105,-195,0,0,0,0,0,0,0,0,0,-1,1119,1219,0,0
-98,-195,0,0,0,0,0,0,0,0,0,-1,1126,1219,0,0
-91,-195,0,0,0,0,0,0,0,0,0,-1,1133,1219,0,0
-84,-195,0,0,0,0,0,0,0,0,0,-1,1140,1219,0,0
-77,-195,0,0,0,0,0,0,0,0,0,-1,1147,1219,0,0
-70,-195,0,0,0,0,0,0,0,0,0,-1,1154,1219,0,0
-63,-195,0,0,0,0,0,0,0,0,0,-1,1161,1219,0,0
-56,-195,0,0,0,0,0,0,0,0,0,-1,1168,1219,0,0
-49,-195,0,0,0,0,0,0,0,0,0,-1,1175,1219,0,0
-42,-195,0,0,0,0,0,0,0,0,0,-1,1182,1219,0,0
-35,-195,0,0,0,0,0,0,0,0,0,-1,1189,1219,0,0
-28,-195,0,0,0,0,0,0,0,0,0,-1,1196,1219,0,0
-21,-195,0,0,0,0,0,0,0,0,0,-1,1203,1219,0,0
-14,-195,0,0,0,0,0,0,0,0,0,-1,1210,1219,0,0
-7,-195,0,0,0,0,0,0,0,0,0,-1,1217,1219,0,0
0,-195,0,0,0,0,0,0,0,0,0,-1,1224,1219,0,0
7,-195,0,0,0,0,0,0,0,0,0,-1,1231,1219,0,0
14,-195,0,0,0,0,0,0,0,0,0,-1,1238,1219,0,0
21,-195,0,0,0,0,0,0,0,0,0,-1,1245,1219,0,0
28,-195,0,0,0,0,0,0,0,0,0,-1,1252,1219,0,0
35,-195,0,0,0,0,0,0,0,0,0,-1,1259,1219,0,0
42,-195,0,0,0,0,0,0,0,0,0,-1,1266,1219,0,0
49,-195,0,0,0,0,0,0,0,0,0,-1,1273,1219,0,0
56,-195,0,0,0,0,0,0,0,0,0,-1,1280,1219,0,0
63,-195,0,0,0,0,0,0,0,0,0,-1,1287,1219,0,0
70,-195,0,0,0,0,0,0,0,0,0,-1,1294,1219,0,0
77,-195,0,0,0,0,0,0,0,0,0,-1,1301,1219,0,0
84,-195,0,0,0,0,0,0,0,0,0,-1,1308,1219,0,0
91,-195,0,0,0,0,0,0,0,0,0,-1,1315,1219,0,0
98,-195,0,0,0,0,0,0,0,0,0,-1,1322,1219,0,0
105,-195,0,0,0,0,0,0,0,0,0,-1,1329,1219,0,0
112,-195,0,0,0,0,0,0,0,0,0,-1,1336,1219,0,0
119,-195,0,0,0,0,0,0,0,0,0,-1,1343,1219,0,0
126,-195,0,0,0,0,0,0,0,0,0,-1,1350,1219,0,0
133,-195,0,0,0,0,0,0,0,0,0,-1,1357,1219,0,0
140,-195,0,0,0,0,0,0,0,0,0,-1,1364,1219,0,0
147,-195,0,0,0,0,0,0,0,0,0,-1,1371,1219,0,0
154,-195,0,0,0,0,0,0,0,0,0,-1,1378,1219,0,0
161,-195,0,0,0,0,0,0,0,0,0,-1,1385,1219,0,0
168,-195,0,0,0,0,0,0,0,0,0,-1,1392,1219,0,0
175,-195,0,0,0,0,0,0,0,0,0,-1,1399,1219,0,0
182,-195,0,0,0,0,0,0,0,0,0,-1,1406,1219,0,0
189,-195,0,0,0,0,0,0,0,0,0,-1,1413,1219,0,0
196,-195,0,0,0,0,0,0,0,0,0,-1,1420,1219,0,0
203,-195,0,0,0,0,0,0,0,0,0,-1,1427,1219,0,0
210,-195,0,0,0,0,0,0,0,0,0,-1,1434,1219,0,0
217,-195,0,0,0,0,0,0,0,0,0,-1,1441,1219,0,0
224,-195,0,0,0,0,0,0,0,0,0,-1,1448,1219,0,0
231,-195,0,0,0,0,0,0,0,0,0,-1,1455,1219,0,0
238,-195,0,0,0,0,0,0,0,0,0,-1,1462,1219,0,0
245,-195,0,0,0,0,0,0,0,0,0,-1,1469,1219,0,0
252,-195,0,0,0,0,0,0,0,0,0,-1,1476,1219,0,0
259,-195,0,0,0,0,0,0,0,0,0,-1,1483,1219,0,0
266,-195,0,0,0,0,0,0,0,0,0,-1,1490,1219,0,0
273,-195,0,0,0,0,0,0,0,0,0,-1,1497,1219,0,0
280,-195,0,0,0,0,0,0,0,0,0,-1,1504,1219,0,0
287,-195,0,0,0,0,0,0,0,0,0,-1,1511,1219,0,0
294,-195,0,0,0,0,0,0,0,0,0,-1,1518,1219,0,0
301,-195,0,0,0,0,0,0,0,0,0,-1,1525,1219,0,0
308,-195,0,0,0,0,0,0,0,0,0,-1,1532,1219,0,0
315,-195,0,0,0,0,0,0,0,0,0,-1,1539,1219,0,0
322,-195,0,0,0,0,0,0,0,0,0,-1,1546,1219,0,0
329,-195,0,0,0,0,0,0,0,0,0,-1,1553,1219,0,0
336,-195,0,0,0,0,0,0,0,0,0,-1,1560,1219,0,0
343,-195,0,0,0,0,0,0,0,0,0,-1,1567,1219,0,0
350,-195,0,0,0,0,0,0,0,0,0,-1,1574,1219,0,0
357,-195,0,0,0,0,0,0,0,0,0,-1,1581,1219,0,0
364,-195,0,0,0,0,0,0,0,0,0,-1,1588,1219,0,0
371,-195,0,0,0,0,0,0,0,0,0,-1,1595,1219,0,0
378,-195,0,0,0,0,0,0,0,0,0,-1,1602,1219,0,0
385,-195,0,0,0,0,0,0,0,0,0,-1,1609,1219,0,0
392,-195,0,0,0,0,0,0,0,0,0,-1,1616,1219,0,0
399,-195,0,0,0,0,0,0,0,0,0,-1,1623,1219,0,0
406,-195,0,0,0,0,0,0,0,0,0,-1,1630,1219,0,0
413,-195,0,0,0,0,0,0,0,0,0,-1,1637,1219,0,0
420,-195,0,0,0,0,0,0,0,0,0,-1,1644,1219,0,0
427,-195,0,0,0,0,0,0,0,0,0,-1,1651,1219,0,0
434,-195,0,0,0,0,0,0,0,0,0,-1,1658,1219,0,0
441,-195,0,0,0,0,0,0,0,0,0,-1,1665,1219,0,0
448,-195,0,0,0,0,0,0,0,0,0,-1,1672,1219,0,0
455,-195,0,0,0,0,0,0,0,0,0,-1,1679,1219,0,0
462,-195,0,0,0,0,0,0,0,0,0,-1,1686,1219,0,0
469,-195,0,0,0,0,0,0,0,0,0,-1,1693,1219,0,0
476,-195,0,0,0,0,0,0,0,0,0,-1,1700,1219,0,0
483,-195,0,0,0,0,0,0,0,0,0,-1,1707,1219,0,0
490,-195,0,0,0,0,0,0,0,0,0,-1,1714,1219,0,0
497,-195,0,0,0,0,0,0,0,0,0,-1,1721,1219,0,0
504,-195,0,0,0,0,0,0,0,0,0,-1,1728,1219,0,0
511,-195,0,0,0,0,0,0,0,0,0,-1,1735,1219,0,0
518,-195,0,0,0,0,0,0,0,0,0,-1,1742,1219,0,0
525,-195,0,0,0,0,0,0,0,0,0,-1,1749,1219,0,0
532,-195,0,0,0,0,0,0,0,0,0,-1,1756,1219,0,0
539,-195,0,0,0,0,0,0,0,0,0,-1,1763,1219,0,0
546,-195,0,0,0,0,0,0,0,0,0,-1,1770,1219,0,0
553,-195,0,0,0,0,0,0,0,0,0,-1,1777,1219,0,0
560,-195,0,0,0,0,0,0,0,0,0,-1,1784,1219,0,0
567,-195,0,0,0,0,0,0,0,0,0,-1,1791,1219,0,0
574,-195,0,0,0,0,0,0,0,0,0,-1,1798,1219,0,0
581,-195,0,0,0,0,0,0,0,0,0,-1,1805,1219,0,0
588,-195,0,0,0,0,0,0,0,0,0,-1,1812,1219,0,0
595,-195,0,0,0,0,0,0,0,0,0,-1,1819,1219,0,0
602,-195,0,0,0,0,0,0,0,0,0,-1,1826,1219,0,0
609,-195,0,0,0,0,0,0,0,0,0,-1,1833,1219,0,0
616,-195,0,0,0,0,0,0,0,0,0,-1,1840,1219,0,0
623,-195,0,0,0,0,0,0,0,0,0,-1,1847,1219,0,0
630,-195,64.0692,2.2605,0.00110063,0.00107273,-0.000339903,0.00142687,0.000746488,-0.764888,0.000824096,0.0392868,1854,1219,64.0692,-2.26045
637,-195,64.0846,2.45117,0.000716775,0.00079721,-0.000503738,0.00126233,0.000251651,-0.825233,0.000771477,0.0393494,1861,1219,64.0846,-2.45123
644,-195,64.017,2.61987,0.000473455,0.000713801,-0.000814095,0.00141655,-0.000229289,-0.858677,0.00102934,0.0346966,1868,1219,64.017,-2.61993
651,-195,64.0145,2.6012,0.000526743,0.000772628,-0.00128672,0.00194227,-0.000642899,-0.833027,0.00155412,0.025503,1875,1219,64.0146,-2.60121
658,-195,64.0615,2.68628,0.000939175,0.000620297,-0.00157181,0.00235961,-0.00080014,-0.734853,0.0018969,0.0234897,1882,1219,64.0615,-2.68632
665,-195,64.0521,2.67249,0.00131902,0.00037348,-0.00168584,0.00259713,-0.000904628,-0.648692,0.00209898,0.0225477,1889,1219,64.0521,-2.6725
672,-195,64.0594,2.48596,0.00177866,0.000336863,-0.00166304,0.00287032,-0.000754804,-0.580882,0.00220857,0.0327503,1896,1219,64.0595,-2.48602
679,-195,64.0364,2.30273,0,0,0,0,0,0,0,-1,1903,1219,64.0364,-2.30278
686,-195,51.2117,1.94312,0,0,0,0,0,0,0,-1,1910,1219,51.2117,-1.9431
693,-195,24.4368,5.68298,0,0,0,0,0,0,0,-1,1917,1219,24.4368,-5.68293
700,-195,52.0443,11.2042,0,0,0,0,0,0,0,-1,1924,1219,52.0444,-11.2042
707,-195,52.0289,10.573,0,0,0,0,0,0,0,-1,1931,1219,52.0289,-10.573
714,-195,52.0776,9.97107,0,0,0,0,0,0,0,-1,1938,1219,52.0776,-9.97105
721,-195,51.9375,9.5675,0,0,0,0,0,0,0,-1,1945,1219,51.9375,-9.56749
728,-195,51.9049,8.79358,0.0021977,0.000715864,6.89728e-05,0.00220091,0.00071266,0.0464116,0.00129673,0.0110997,1952,1219,51.9049,-8.79358
735,-195,51.8928,8.14685,0.00171564,0.000928914,0.000476485,0.00194015,0.000704399,0.440334,0.00113406,0.0120257,1959,1219,51.8929,-8.14684
742,-195,51.8542,7.57385,0.00118431,0.00146085,0.00065438,0.00199141,0.000653752,0.889515,0.00117212,0.0145879,1966,1219,51.8543,-7.57387
749,-195,51.829,7.00854,0.000462075,0.00232673,0.000648483,0.00253008,0.000258725,1.26693,0.00160744,0.0145646,1973,1219,51.829,-7.00852
756,-195,51.8223,6.44995,-0.000657622,0.00362764,0.000305423,0.0036493,-0.000679281,1.5,0.00268806,0.0149363,1980,1219,51.8222,-6.44992
763,-195,51.8086,5.83899,-0.00175429,0.00534298,-0.000338421,0.00535908,-0.00177039,-1.52326,0.0042865,0.0218861,1987,1219,51.8087,-5.83903
770,-195,51.6992,5.26465,-0.00350478,0.00753378,-0.00134442,0.00769516,-0.00366616,-1.45133,0.00669554,0.0451997,1994,1219,51.6992,-5.26465
777,-195,51.6626,4.77905,0,0,0,0,0,0,0,-1,2001,1219,51.6625,-4.77901
784,-195,51.2444,-0.069458,0,0,0,0,0,0,0,-1,2008,1219,51.2443,0.0694704
791,-195,50.6421,1.65222,0,0,0,0,0,0,0,-1,2015,1219,50.6422,-1.65218
798,-195,53.3943,2.08484,0,0,0,0,0,0,0,-1,2022,1219,53.3943,-2.08489
805,-195,0,0,0,0,0,0,0,0,0,-1,2029,1219,0,0
812,-195,0,0,0,0,0,0,0,0,0,-1,2036,1219,0,0
-700,-202,0,0,0,0,0,0,0,0,0,-1,524,1226,0,0
-693,-202,0,0,0,0,0,0,0,0,0,-1,531,1226,0,0
-686,-202,0,0,0,0,0,0,0,0,0,-1,538,1226,0,0
-679,-202,-35.6078,-0.0897217,0.0581311,-0.117566,-0.0119006,0.0589335,-0.118368,-0.0673241,0.104265,0.0470067,545,1226,-35.6078,0.0896807
-672,-202,-35.3069,0.958252,0.0515814,-0.100871,-0.00684312,0.051888,-0.101177,-0.0447669,0.0898867,0.0476474,552,1226,-35.3069,-0.958297
-665,-202,-34.8301,2.19104,0,0,0,0,0,0,0,-1,559,1226,-34.8301,-2.19099
-658,-202,-34.3304,3.36389,0,0,0,0,0,0,0,-1,566,1226,-34.3304,-3.36394
-651,-202,-35.2921,2.74365,0,0,0,0,0,0,0,-1,573,1226,-35.292,-2.74363
-644,-202,-34.9645,2.59937,0,0,0,0,0,0,0,-1,580,1226,-34.9645,-2.5994
-637,-202,-35.0596,3.04321,0.0124715,-0.0258825,-0.000544133,0.0124792,-0.0258902,-0.0141833,0.0225991,0.04867,587,1226,-35.0596,-3.04327
-630,-202,-35.2144,3.63342,0.00700945,-0.0153659,-0.000348694,0.00701489,-0.0153713,-0.0155788,0.0132214,0.0215697,594,1226,-35.2143,-3.6334
-623,-202,-35.2383,4.26709,0.00221462,-0.00722252,-0.000547203,0.00224624,-0.00725414,-0.0577262,0.00573344,0.00919397,601,1226,-35.2383,-4.26712
-616,-202,-35.2574,4.90356,-0.000738803,-0.00230927,-0.00135392,4.11097e-05,-0.00308918,-0.522617,0.00207329,0.00874815,608,1226,-35.2574,-4.90356
-609,-202,-35.2493,5.52893,-0.00167213,-0.000897906,-0.001772,0.000528772,-0.00309881,-0.892939,0.00226282,0.0228499,615,1226,-35.2493,-5.52889
-602,-202,-35.3129,6.14233,-0.00208148,-0.000723589,-0.00173109,0.000456935,-0.003262,-0.972284,0.00234189,0.0225502,622,1226,-35.3129,-6.14232
-595,-202,-35.412,6.8064,-0.00295568,-0.000656477,-0.00117895,-0.000159414,-0.00345274,-1.1718,0.00225057,0.0176642,629,1226,-35.412,-6.80641
-588,-202,-35.4196,7.41577,-0.00354416,3.39218e-06,-0.000905045,0.000220944,-0.00376171,-1.3349,0.00258461,0.0213489,636,1226,-35.4195,-7.41572
-581,-202,-35.3572,8.02783,0,0,0,0,0,0,0,-1,643,1226,-35.3572,-8.02778
-574,-202,-26.922,5.99512,0,0,0,0,0,0,0,-1,650,1226,-26.922,-5.99512
-567,-202,-22.1768,4.56995,0,0,0,0,0,0,0,-1,657,1226,-22.1768,-4.56991
-560,-202,-10.929,2.73096,0,0,0,0,0,0,0,-1,664,1226,-10.929,-2.73092
-553,-202,-30.2701,1.474,0,0,0,0,0,0,0,-1,671,1226,-30.2701,-1.47395
-546,-202,-48.0981,0.744385,0,0,0,0,0,0,0,-1,678,1226,-48.0981,-0.744442
-539,-202,-48.1896,0.883789,-0.00520411,0.00143848,0.0023529,0.00218746,-0.00595309,1.26262,0.00486467,0.0456349,685,1226,-48.1896,-0.883824
-532,-202,-48.3036,0.928711,-0.00559076,0.00169923,0.00299285,0.0027705,-0.00666203,1.22706,0.00559823,0.0298787,692,1226,-48.3037,-0.928707
-525,-202,-48.3734,1.03162,-0.00542929,0.0016671,0.00362685,0.00319274,-0.00695492,1.17262,0.00599146,0.0346852,699,1226,-48.3734,-1.03164
-518,-202,-48.4349,1.29626,-0.00391301,0.00132739,0.00390594,0.00341057,-0.0059962,1.08084,0.00549896,0.0409652,706,1226,-48.4349,-1.2963
-511,-202,-48.445,1.26038,0.0006925,-0.000751921,0.00342254,0.0034682,-0.00352762,0.681416,0.00403909,0.0440485,713,1226,-48.445,-1.26043
-504,-202,0,0,0,0,0,0,0,0,0,-1,720,1226,0,0
-497,-202,0,0,0,0,0,0,0,0,0,-1,727,1226,0,0
-490,-202,0,0,0,0,0,0,0,0,0,-1,734,1226,0,0
-483,-202,0,0,0,0,0,0,0,0,0,-1,741,1226,0,0
-476,-202,0,0,0,0,0,0,0,0,0,-1,748,1226,0,0
-469,-202,0,0,0,0,0,0,0,0,0,-1,755,1226,0,0
-462,-202,0,0,0,0,0,0,0,0,0,-1,762,1226,0,0
-455,-202,0,0,0,0,0,0,0,0,0,-1,769,1226,0,0
-448,-202,0,0,0,0,0,0,0,0,0,-1,776,1226,0,0
-441,-202,0,0,0,0,0,0,0,0,0,-1,783,1226,0,0
-434,-202,0,0,0,0,0,0,0,0,0,-1,790,1226,0,0
-427,-202,0,0,0,0,0,0,0,0,0,-1,797,1226,0,0
-420,-202,0,0,0,0,0,0,0,0,0,-1,804,1226,0,0
-413,-202,0,0,0,0,0,0,0,0,0,-1,811,1226,0,0
-406,-202,0,0,0,0,0,0,0,0,0,-1,818,1226,0,0
-399,-202,0,0,0,0,0,0,0,0,0,-1,825,1226,0,0
-392,-202,0,0,0,0,0,0,0,0,0,-1,832,1226,0,0
-385,-202,0,0,0,0,0,0,0,0,0,-1,839,1226,0,0
-378,-202,0,0,0,0,0,0,0,0,0,-1,846,1226,0,0
-371,-202,0,0,0,0,0,0,0,0,0,-1,853,1226,0,0
-364,-202,0,0,0,0,0,0,0,0,0,-1,860,1226,0,0
-357,-202,0,0,0,0,0,0,0,0,0,-1,867,1226,0,0
-350,-202,0,0,0,0,0,0,0,0,0,-1,874,1226,0,0
-343,-202,0,0,0,0,0,0,0,0,0,-1,881,1226,0,0
-336,-202,0,0,0,0,0,0,0,0,0,-1,888,1226,0,0
-329,-202,0,0,0,0,0,0,0,0,0,-1,895,1226,0,0
-322,-202,0,0,0,0,0,0,0,0,0,-1,902,1226,0,0
-315,-202,0,0,0,0,0,0,0,0,0,-1,909,1226,0,0
-308,-202,0,0,0,0,0,0,0,0,0,-1,916,1226,0,0
-301,-202,0,0,0,0,0,0,0,0,0,-1,923,1226,0,0
-294,-202,0,0,0,0,0,0,0,0,0,-1,930,1226,0,0
-287,-202,0,0,0,0,0,0,0,0,0,-1,937,1226,0,0
-280,-202,0,0,0,0,0,0,0,0,0,-1,944,1226,0,0
-273,-202,0,0,0,0,0,0,0,0,0,-1,951,1226,0,0
-266,-202,0,0,0,0,0,0,0,0,0,-1,958,1226,0,0
-259,-202,0,0,0,0,0,0,0,0,0,-1,965,1226,0,0
-252,-202,0,0,0,0,0,0,0,0,0,-1,972,1226,0,0
-245,-202,0,0,0,0,0,0,0,0,0,-1,979,1226,0,0
-238,-202,0,0,0,0,0,0,0,0,0,-1,986,1226,0,0
-231,-202,0,0,0,0,0,0,0,0,0,-1,993,1226,0,0
-224,-202,0,0,0,0,0,0,0,0,0,-1,1000,1226,0,0
-217,-202,0,0,0,0,0,0,0,0,0,-1,1007,1226,0,0
-210,-202,0,0,0,0,0,0,0,0,0,-1,1014,1226,0,0
-203,-202,0,0,0,0,0,0,0,0,0,-1,1021,1226,0,0
-196,-202,0,0,0,0,0,0,0,0,0,-1,1028,1226,0,0
-189,-202,0,0,0,0,0,0,0,0,0,-1,1035,1226,0,0
-182,-202,0,0,0,0,0,0,0,0,0,-1,1042,1226,0,0
-175,-202,0,0,0,0,0,0,0,0,0,-1,1049,1226,0,0
-168,-202,0,0,0,0,0,0,0,0,0,-1,1056,1226,0,0
-161,-202,0,0,0,0,0,0,0,0,0,-1,1063,1226,0,0
-154,-202,0,0,0,0,0,0,0,0,0,-1,1070,1226,0,0
-147,-202,0,0,0,0,0,0,0,0,0,-1,1077,1226,0,0
-140,-202,0,0,0,0,0,0,0,0,0,-1,1084,1226,0,0
-133,-202,0,0,0,0,0,0,0,0,0,-1,1091,1226,0,0
-126,-202,0,0,0,0,0,0,0,0,0,-1,1098,1226,0,0
-119,-202,0,0,0,0,0,0,0,0,0,-1,1105,1226,0,0
-112,-202,0,0,0,0,0,0,0,0,0,-1,1112,1226,0,0
-105,-202,0,0,0,0,0,0,0,0,0,-1,1119,1226,0,0
-98,-202,0,0,0,0,0,0,0,0,0,-1,1126,1226,0,0
-91,-202,0,0,0,0,0,0,0,0,0,-1,1133,1226,0,0
-84,-202,0,0,0,0,0,0,0,0,0,-1,1140,1226,0,0
-77,-202,0,0,0,0,0,0,0,0,0,-1,1147,1226,0,0
-70,-202,0,0,0,0,0,0,0,0,0,-1,1154,1226,0,0
-63,-202,0,0,0,0,0,0,0,0,0,-1,1161,1226,0,0
-56,-202,0,0,0,0,0,0,0,0,0,-1,1168,1226,0,0
-49,-202,0,0,0,0,0,0,0,0,0,-1,1175,1226,0,0
-42,-202,0,0,0,0,0,0,0,0,0,-1,1182,1226,0,0
-35,-202,0,0,0,0,0,0,0,0,0,-1,1189,1226,0,0
-28,-202,0,0,0,0,0,0,0,0,0,-1,1196,1226,0,0
-21,-202,0,0,0,0,0,0,0,0,0,-1,1203,1226,0,0
-14,-202,0,0,0,0,0,0,0,0,0,-1,1210,1226,0,0
-7,-202,0,0,0,0,0,0,0,0,0,-1,1217,1226,0,0
0,-202,0,0,0,0,0,0,0,0,0,-1,1224,1226,0,0
7,-202,0,0,0,0,0,0,0,0,0,-1,1231,1226,0,0
14,-202,0,0,0,0,0,0,0,0,0,-1,1238,1226,0,0
21,-202,0,0,0,0,0,0,0,0,0,-1,1245,1226,0,0
28,-202,0,0,0,0,0,0,0,0,0,-1,1252,1226,0,0
35,-202,0,0,0,0,0,0,0,0,0,-1,1259,1226,0,0
42,-202,0,0,0,0,0,0,0,0,0,-1,1266,1226,0,0
49,-202,0,0,0,0,0,0,0,0,0,-1,1273,1226,0,0
56,-202,0,0,0,0,0,0,0,0,0,-1,1280,1226,0,0
63,-202,0,0,0,0,0,0,0,0,0,-1,1287,1226,0,0
70,-202,0,0,0,0,0,0,0,0,0,-1,1294,1226,0,0
77,-202,0,0,0,0,0,0,0,0,0,-1,1301,1226,0,0
84,-202,0,0,0,0,0,0,0,0,0,-1,1308,1226,0,0
91,-202,0,0,0,0,0,0,0,0,0,-1,1315,1226,0,0
98,-202,0,0,0,0,0,0,0,0,0,-1,1322,1226,0,0
105,-202,0,0,0,0,0,0,0,0,0,-1,1329,1226,0,0
112,-202,0,0,0,0,0,0,0,0,0,-1,1336,1226,0,0
119,-202,0,0,0,0,0,0,0,0,0,-1,1343,1226,0,0
126,-202,0,0,0,0,0,0,0,0,0,-1,1350,1226,0,0
133,-202,0,0,0,0,0,0,0,0,0,-1,1357,1226,0,0
140,-202,0,0,0,0,0,0,0,0,0,-1,1364,1226,0,0
147,-202,0,0,0,0,0,0,0,0,0,-1,1371,1226,0,0
154,-202,0,0,0,0,0,0,0,0,0,-1,1378,1226,0,0
161,-202,0,0,0,0,0,0,0,0,0,-1,1385,1226,0,0
168,-202,0,0,0,0,0,0,0,0,0,-1,1392,1226,0,0
175,-202,0,0,0,0,0,0,0,0,0,-1,1399,1226,0,0
182,-202,0,0,0,0,0,0,0,0,0,-1,1406,1226,0,0
189,-202,0,0,0,0,0,0,0,0,0,-1,1413,1226,0,0
196,-202,0,0,0,0,0,0,0,0,0,-1,1420,1226,0,0
203,-202,0,0,0,0,0,0,0,0,0,-1,1427,1226,0,0
210,-202,0,0,0,0,0,0,0,0,0,-1,1434,1226,0,0
217,-202,0,0,0,0,0,0,0,0,0,-1,1441,1226,0,0
224,-202,0,0,0,0,0,0,0,0,0,-1,1448,1226,0,0
231,-202,0,0,0,0,0,0,0,0,0,-1,1455,1226,0,0
238,-202,0,0,0,0,0,0,0,0,0,-1,1462,1226,0,0
245,-202,0,0,0,0,0,0,0,0,0,-1,1469,1226,0,0
252,-202,0,0,0,0,0,0,0,0,0,-1,1476,1226,0,0
259,-202,0,0,0,0,0,0,0,0,0,-1,1483,1226,0,0
266,-202,0,0,0,0,0,0,0,0,0,-1,1490,1226,0,0
273,-202,0,0,0,0,0,0,0,0,0,-1,1497,1226,0,0
280,-202,0,0,0,0,0,0,0,0,0,-1,1504,1226,0,0
287,-202,0,0,0,0,0,0,0,0,0,-1,1511,1226,0,0
294,-202,0,0,0,0,0,0,0,0,0,-1,1518,1226,0,0
301,-202,0,0,0,0,0,0,0,0,0,-1,1525,1226,0,0
308,-202,0,0,0,0,0,0,0,0,0,-1,1532,1226,0,0
315,-202,0,0,0,0,0,0,0,0,0,-1,1539,1226,0,0
322,-202,0,0,0,0,0,0,0,0,0,-1,1546,1226,0,0
329,-202,0,0,0,0,0,0,0,0,0,-1,1553,1226,0,0
336,-202,0,0,0,0,0,0,0,0,0,-1,1560,1226,0,0
343,-202,0,0,0,0,0,0,0,0,0,-1,1567,1226,0,0
350,-202,0,0,0,0,0,0,0,0,0,-1,1574,1226,0,0
357,-202,0,0,0,0,0,0,0,0,0,-1,1581,1226,0,0
364,-202,0,0,0,0,0,0,0,0,0,-1,1588,1226,0,0
371,-202,0,0,0,0,0,0,0,0,0,-1,1595,1226,0,0
378,-202,0,0,0,0,0,0,0,0,0,-1,1602,1226,0,0
385,-202,0,0,0,0,0,0,0,0,0,-1,1609,1226,0,0
392,-202,0,0,0,0,0,0,0,0,0,-1,1616,1226,0,0
399,-202,0,0,0,0,0,0,0,0,0,-1,1623,1226,0,0
406,-202,0,0,0,0,0,0,0,0,0,-1,1630,1226,0,0
413,-202,0,0,0,0,0,0,0,0,0,-1,1637,1226,0,0
420,-202,0,0,0,0,0,0,0,0,0,-1,1644,1226,0,0
427,-202,0,0,0,0,0,0,0,0,0,-1,1651,1226,0,0
434,-202,0,0,0,0,0,0,0,0,0,-1,1658,1226,0,0
441,-202,0,0,0,0,0,0,0,0,0,-1,1665,1226,0,0
448,-202,0,0,0,0,0,0,0,0,0,-1,1672,1226,0,0
455,-202,0,0,0,0,0,0,0,0,0,-1,1679,1226,0,0
462,-202,0,0,0,0,0,0,0,0,0,-1,1686,1226,0,0
469,-202,0,0,0,0,0,0,0,0,0,-1,1693,1226,0,0
476,-202,0,0,0,0,0,0,0,0,0,-1,1700,1226,0,0
483,-202,0,0,0,0,0,0,0,0,0,-1,1707,1226,0,0
490,-202,0,0,0,0,0,0,0,0,0,-1,1714,1226,0,0
497,-202,0,0,0,0,0,0,0,0,0,-1,1721,1226,0,0
504,-202,0,0,0,0,0,0,0,0,0,-1,1728,1226,0,0
511,-202,0,0,0,0,0,0,0,0,0,-1,1735,1226,0,0
518,-202,0,0,0,0,0,0,0,0,0,-1,1742,1226,0,0
525,-202,0,0,0,0,0,0,0,0,0,-1,1749,1226,0,0
532,-202,0,0,0,0,0,0,0,0,0,-1,1756,1226,0,0
539,-202,0,0,0,0,0,0,0,0,0,-1,1763,1226,0,0
546,-202,0,0,0,0,0,0,0,0,0,-1,1770,1226,0,0
553,-202,0,0,0,0,0,0,0,0,0,-1,1777,1226,0,0
560,-202,0,0,0,0,0,0,0,0,0,-1,1784,1226,0,0
567,-202,0,0,0,0,0,0,0,0,0,-1,1791,1226,0,0
574,-202,0,0,0,0,0,0,0,0,0,-1,1798,1226,0,0
581,-202,0,0,0,0,0,0,0,0,0,-1,1805,1226,0,0
588,-202,0,0,0,0,0,0,0,0,0,-1,1812,1226,0,0
595,-202,0,0,0,0,0,0,0,0,0,-1,1819,1226,0,0
602,-202,0,0,0,0,0,0,0,0,0,-1,1826,1226,0,0
609,-202,0,0,0,0,0,0,0,0,0,-1,1833,1226,0,0
616,-202,0,0,0,0,0,0,0,0,0,-1,1840,1226,0,0
623,-202,0,0,0,0,0,0,0,0,0,-1,1847,1226,0,0
630,-202,63.9779,2.32446,0.000656018,0.00148623,-0.000151643,0.00151306,0.000629187,-1.39567,0.000877681,0.0387418,1854,1226,63.978,-2.32451
637,-202,64.0907,2.54211,-5.22455e-05,0.00112875,-0.000326271,0.0012129,-0.000136389,-1.3184,0.000857684,0.0356568,1861,1226,64.0907,-2.54207
644,-202,64.0338,2.66052,-0.000586006,0.000884889,-0.000662369,0.0011392,-0.000840314,-1.20421,0.00114721,0.0315171,1868,1226,64.0338,-2.66058
651,-202,64.0609,2.62061,-0.000597976,0.000774856,-0.0011345,0.00141443,-0.00123755,-1.05746,0.00153226,0.0242668,1875,1226,64.0609,-2.62061
658,-202,64.0778,2.62756,-8.27944e-05,0.000491884,-0.00137635,0.00161056,-0.00120147,-0.888305,0.00162925,0.020371,1882,1226,64.0778,-2.62762
665,-202,64.0898,2.59399,0.000421374,0.000207276,-0.00147137,0.00178958,-0.00116093,-0.749085,0.00171632,0.0207644,1889,1226,64.0898,-2.59405
672,-202,64.1307,2.56287,0.00100145,0.000179094,-0.0014661,0.00211294,-0.000932402,-0.648683,0.00180173,0.0443345,1896,1226,64.1307,-2.56281
679,-202,64.2198,2.55676,0,0,0,0,0,0,0,-1,1903,1226,64.2199,-2.55679
686,-202,49.1708,2.15198,0,0,0,0,0,0,0,-1,1910,1226,49.1708,-2.15195
693,-202,51.2159,11.9657,0,0,0,0,0,0,0,-1,1917,1226,51.216,-11.9656
700,-202,51.3419,11.2476,0.001733,-3.39011e-05,-0.000981451,0.00217005,-0.000470954,-0.41895,0.00162657,0.049577,1924,1226,51.342,-11.2476
707,-202,51.4058,10.4624,0.00203799,0.000100043,-0.00089466,0.00238785,-0.000249819,-0.372772,0.00168137,0.0331673,1931,1226,51.4058,-10.4624
714,-202,51.3114,9.92847,0.00224963,0.000195206,-0.000714783,0.00247385,-2.90127e-05,-0.303966,0.00165899,0.0336472,1938,1226,51.3114,-9.92848
721,-202,51.3323,9.48865,0.0021926,0.000106137,-0.00028076,0.00222972,6.90174e-05,-0.131448,0.00146402,0.0205667,1945,1226,51.3323,-9.48859
728,-202,51.3311,8.80469,0.00176679,0.000138722,0.000358872,0.00184238,6.31266e-05,0.207612,0.00120776,0.010975,1952,1226,51.331,-8.80464
735,-202,51.2922,8.19812,0.00110976,0.00045424,0.000745166,0.00159606,-3.20642e-05,0.578209,0.00107489,0.0112295,1959,1226,51.2923,-8.19814
742,-202,51.2518,7.59277,0.000386344,0.0011467,0.00087935,0.00172453,-0.000191493,0.989433,0.00121855,0.012746,1966,1226,51.2518,-7.59278
749,-202,51.1962,7.00659,-0.000521501,0.00215232,0.000814482,0.00238088,-0.000750065,1.29721,0.00188762,0.0132987,1973,1226,51.1962,-7.00653
756,-202,51.2057,6.45923,-0.00178853,0.0035932,0.000373318,0.00361897,-0.0018143,1.50187,0.00319406,0.0132959,1980,1226,51.2057,-6.45926
763,-202,51.2754,5.89478,-0.00305044,0.00549806,-0.000445871,0.00552125,-0.00307363,-1.51883,0.00502888,0.0257837,1987,1226,51.2754,-5.89474
770,-202,51.3412,5.35925,0,0,0,0,0,0,0,-1,1994,1226,51.3412,-5.35926
777,-202,53.3003,-4.00098,0,0,0,0,0,0,0,-1,2001,1226,53.3002,4.00099
784,-202,52.9231,-1.28162,0,0,0,0,0,0,0,-1,2008,1226,52.9232,1.28167
791,-202,52.2668,1.22656,0,0,0,0,0,0,0,-1,2015,1226,52.2668,-1.22651
798,-202,51.8999,3.58789,0,0,0,0,0,0,0,-1,2022,1226,51.9,-3.58791
805,-202,0,0,0,0,0,0,0,0,0,-1,2029,1226,0,0
812,-202,0,0,0,0,0,0,0,0,0,-1,2036,1226,0,0
-700,-209,0,0,0,0,0,0,0,0,0,-1,524,1233,0,0
-693,-209,0,0,0,0,0,0,0,0,0,-1,531,1233,0,0
-686,-209,0,0,0,0,0,0,0,0,0,-1,538,1233,0,0
-679,-209,-34.4666,0.828979,0,0,0,0,0,0,0,-1,545,1233,-34.4666,-0.828945
-672,-209,-34.4676,1.71777,0,0,0,0,0,0,0,-1,552,1233,-34.4676,-1.71777
-665,-209,-38.4381,-2.51074,0,0,0,0,0,0,0,-1,559,1233,-38.4381,2.51074
-658,-209,-38.392,-2.54163,0,0,0,0,0,0,0,-1,566,1233,-38.392,2.54163
-651,-209,-35.1154,3.12488,0,0,0,0,0,0,0,-1,573,1233,-35.1154,-3.12483
-644,-209,-48.6786,2.06616,0,0,0,0,0,0,0,-1,580,1233,-48.6786,-2.06612
-637,-209,-34.5616,3.04578,0,0,0,0,0,0,0,-1,587,1233,-34.5617,-3.04572
-630,-209,-34.4692,3.63708,0.00673495,-0.0151046,-0.000820888,0.00676576,-0.0151354,-0.0375167,0.0129487,0.0360193,594,1233,-34.4692,-3.63709
-623,-209,-34.5757,4.2832,0.00191359,-0.00684767,-0.000801028,0.00198623,-0.0069203,-0.0904294,0.00539881,0.0159254,601,1233,-34.5757,-4.28326
-616,-209,-34.6107,4.9397,-0.000783315,-0.00206196,-0.00141518,0.000130257,-0.00297553,-0.57324,0.0020285,0.0123278,608,1233,-34.6107,-4.93964
-609,-209,-34.6379,5.59045,-0.0014243,-0.000853074,-0.00167886,0.000564293,-0.00284166,-0.869653,0.00210787,0.014285,615,1233,-34.6379,-5.5905
-602,-209,-34.6873,6.21252,-0.0017051,-0.000817235,-0.00173722,0.000531881,-0.00305421,-0.910491,0.00223463,0.0165178,622,1233,-34.6873,-6.21251
-595,-209,-34.6944,6.82593,-0.00231006,-0.0010398,-0.0014292,-0.000110956,-0.0032389,-0.994491,0.00212325,0.013019,629,1233,-34.6944,-6.82592
-588,-209,-34.7522,7.50317,-0.0027932,-0.000749701,-0.00126912,-0.000142147,-0.00340075,-1.12432,0.0022213,0.0264681,636,1233,-34.7522,-7.50318
-581,-209,-34.8154,8.15247,0,0,0,0,0,0,0,-1,643,1233,-34.8155,-8.15244
-574,-209,-33.4955,9.52966,0,0,0,0,0,0,0,-1,650,1233,-33.4955,-9.52972
-567,-209,-26.2951,6.92981,0,0,0,0,0,0,0,-1,657,1233,-26.2951,-6.92986
-560,-209,-13.9294,4.16626,0,0,0,0,0,0,0,-1,664,1233,-13.9294,-4.16621
-553,-209,-22.7542,0.748779,0,0,0,0,0,0,0,-1,671,1233,-22.7541,-0.748796
-546,-209,-44.691,0.142822,0,0,0,0,0,0,0,-1,678,1233,-44.6911,-0.142844
-539,-209,-48.0947,0.762695,0,0,0,0,0,0,0,-1,685,1233,-48.0946,-0.762657
-532,-209,-48.163,0.946411,-0.00579071,0.00102511,0.00267734,0.00195103,-0.00671662,1.23784,0.00525035,0.0345106,692,1233,-48.163,-0.946375
-525,-209,-48.3123,1.07678,-0.00634148,0.00136586,0.0032831,0.00257475,-0.00755037,1.21799,0.00607647,0.0353997,699,1233,-48.3122,-1.0768
-518,-209,-48.4509,1.21863,-0.00606227,0.00174192,0.00371471,0.00322735,-0.0075477,1.1904,0.00638549,0.0420696,706,1233,-48.4509,-1.21865
-511,-209,-48.5056,1.23108,-0.00317106,0.00101105,0.0035109,0.00300643,-0.00516643,1.05398,0.00477322,0.0422486,713,1233,-48.5056,-1.2311
-504,-209,0,0,0,0,0,0,0,0,0,-1,720,1233,0,0
-497,-209,0,0,0,0,0,0,0,0,0,-1,727,1233,0,0
-490,-209,0,0,0,0,0,0,0,0,0,-1,734,1233,0,0
-483,-209,0,0,0,0,0,0,0,0,0,-1,741,1233,0,0
-476,-209,0,0,0,0,0,0,0,0,0,-1,748,1233,0,0
-469,-209,0,0,0,0,0,0,0,0,0,-1,755,1233,0,0
-462,-209,0,0,0,0,0,0,0,0,0,-1,762,1233,0,0
-455,-209,0,0,0,0,0,0,0,0,0,-1,769,1233,0,0
-448,-209,0,0,0,0,0,0,0,0,0,-1,776,1233,0,0
-441,-209,0,0,0,0,0,0,0,0,0,-1,783,1233,0,0
-434,-209,0,0,0,0,0,0,0,0,0,-1,790,1233,0,0
-427,-209,0,0,0,0,0,0,0,0,0,-1,797,1233,0,0
-420,-209,0,0,0,0,0,0,0,0,0,-1,804,1233,0,0
-413,-209,0,0,0,0,0,0,0,0,0,-1,811,1233,0,0
-406,-209,0,0,0,0,0,0,0,0,0,-1,818,1233,0,0
-399,-209,0,0,0,0,0,0,0,0,0,-1,825,1233,0,0
-392,-209,0,0,0,0,0,0,0,0,0,-1,832,1233,0,0
-385,-209,0,0,0,0,0,0,0,0,0,-1,839,1233,0,0
-378,-209,0,0,0,0,0,0,0,0,0,-1,846,1233,0,0
-371,-209,0,0,0,0,0,0,0,0,0,-1,853,1233,0,0
-364,-209,0,0,0,0,0,0,0,0,0,-1,860,1233,0,0
-357,-209,0,0,0,0,0,0,0,0,0,-1,867,1233,0,0
-350,-209,0,0,0,0,0,0,0,0,0,-1,874,1233,0,0
-343,-209,0,0,0,0,0,0,0,0,0,-1,881,1233,0,0
-336,-209,0,0,0,0,0,0,0,0,0,-1,888,1233,0,0
-329,-209,0,0,0,0,0,0,0,0,0,-1,895,1233,0,0
-322,-209,0,0,0,0,0,0,0,0,0,-1,902,1233,0,0
-315,-209,0,0,0,0,0,0,0,0,0,-1,909,1233,0,0
-308,-209,0,0,0,0,0,0,0,0,0,-1,916,1233,0,0
-301,-209,0,0,0,0,0,0,0,0,0,-1,923,1233,0,0
-294,-209,0,0,0,0,0,0,0,0,0,-1,930,1233,0,0
-287,-209,0,0,0,0,0,0,0,0,0,-1,937,1233,0,0
-280,-209,0,0,0,0,0,0,0,0,0,-1,944,1233,0,0
-273,-209,0,0,0,0,0,0,0,0,0,-1,951,1233,0,0
-266,-209,0,0,0,0,0,0,0,0,0,-1,958,1233,0,0
-259,-209,0,0,0,0,0,0,0,0,0,-1,965,1233,0,0
-252,-209,0,0,0,0,0,0,0,0,0,-1,972,1233,0,0
-245,-209,0,0,0,0,0,0,0,0,0,-1,979,1233,0,0
-238,-209,0,0,0,0,0,0,0,0,0,-1,986,1233,0,0
-231,-209,0,0,0,0,0,0,0,0,0,-1,993,1233,0,0
-224,-209,0,0,0,0,0,0,0,0,0,-1,1000,1233,0,0
-217,-209,0,0,0,0,0,0,0,0,0,-1,1007,1233,0,0
-210,-209,0,0,0,0,0,0,0,0,0,-1,1014,1233,0,0
-203,-209,0,0,0,0,0,0,0,0,0,-1,1021,1233,0,0
-196,-209,0,0,0,0,0,0,0,0,0,-1,1028,1233,0,0
-189,-209,0,0,0,0,0,0,0,0,0,-1,1035,1233,0,0
-182,-209,0,0,0,0,0,0,0,0,0,-1,1042,1233,0,0
-175,-209,0,0,0,0,0,0,0,0,0,-1,1049,1233,0,0
-168,-209,0,0,0,0,0,0,0,0,0,-1,1056,1233,0,0
-161,-209,0,0,0,0,0,0,0,0,0,-1,1063,1233,0,0
-154,-209,0,0,0,0,0,0,0,0,0,-1,1070,1233,0,0
-147,-209,0,0,0,0,0,0,0,0,0,-1,1077,1233,0,0
-140,-209,0,0,0,0,0,0,0,0,0,-1,1084,1233,0,0
-133,-209,0,0,0,0,0,0,0,0,0,-1,1091,1233,0,0
-126,-209,0,0,0,0,0,0,0,0,0,-1,1098,1233,0,0
-119,-209,0,0,0,0,0,0,0,0,0,-1,1105,1233,0,0
-112,-209,0,0,0,0,0,0,0,0,0,-1,1112,1233,0,0
-105,-209,0,0,0,0,0,0,0,0,0,-1,1119,1233,0,0
-98,-209,0,0,0,0,0,0,0,0,0,-1,1126,1233,0,0
-91,-209,0,0,0,0,0,0,0,0,0,-1,1133,1233,0,0
-84,-209,0,0,0,0,0,0,0,0,0,-1,1140,1233,0,0
-77,-209,0,0,0,0,0,0,0,0,0,-1,1147,1233,0,0
-70,-209,0,0,0,0,0,0,0,0,0,-1,1154,1233,0,0
-63,-209,0,0,0,0,0,0,0,0,0,-1,1161,1233,0,0
-56,-209,0,0,0,0,0,0,0,0,0,-1,1168,1233,0,0
-49,-209,0,0,0,0,0,0,0,0,0,-1,1175,1233,0,0
-42,-209,0,0,0,0,0,0,0,0,0,-1,1182,1233,0,0
-35,-209,0,0,0,0,0,0,0,0,0,-1,1189,1233,0,0
-28,-209,0,0,0,0,0,0,0,0,0,-1,1196,1233,0,0
-21,-209,0,0,0,0,0,0,0,0,0,-1,1203,1233,0,0
-14,-209,0,0,0,0,0,0,0,0,0,-1,1210,1233,0,0
-7,-209,0,0,0,0,0,0,0,0,0,-1,1217,1233,0,0
0,-209,0,0,0,0,0,0,0,0,0,-1,1224,1233,0,0
7,-209,0,0,0,0,0,0,0,0,0,-1,1231,1233,0,0
14,-209,0,0,0,0,0,0,0,0,0,-1,1238,1233,0,0
21,-209,0,0,0,0,0,0,0,0,0,-1,1245,1233,0,0
28,-209,0,0,0,0,0,0,0,0,0,-1,1252,1233,0,0
35,-209,0,0,0,0,0,0,0,0,0,-1,1259,1233,0,0
42,-209,0,0,0,0,0,0,0,0,0,-1,1266,1233,0,0
49,-209,0,0,0,0,0,0,0,0,0,-1,1273,1233,0,0
56,-209,0,0,0,0,0,0,0,0,0,-1,1280,1233,0,0
63,-209,0,0,0,0,0,0,0,0,0,-1,1287,1233,0,0
70,-209,0,0,0,0,0,0,0,0,0,-1,1294,1233,0,0
77,-209,0,0,0,0,0,0,0,0,0,-1,1301,1233,0,0
84,-209,0,0,0,0,0,0,0,0,0,-1,1308,1233,0,0
91,-209,0,0,0,0,0,0,0,0,0,-1,1315,1233,0,0
98,-209,0,0,0,0,0,0,0,0,0,-1,1322,1233,0,0
105,-209,0,0,0,0,0,0,0,0,0,-1,1329,1233,0,0
112,-209,0,0,0,0,0,0,0,0,0,-1,1336,1233,0,0
119,-209,0,0,0,0,0,0,0,0,0,-1,1343,1233,0,0
126,-209,0,0,0,0,0,0,0,0,0,-1,1350,1233,0,0
133,-209,0,0,0,0,0,0,0,0,0,-1,1357,1233,0,0
140,-209,0,0,0,0,0,0,0,0,0,-1,1364,1233,0,0
147,-209,0,0,0,0,0,0,0,0,0,-1,1371,1233,0,0
154,-209,0,0,0,0,0,0,0,0,0,-1,1378,1233,0,0
161,-209,0,0,0,0,0,0,0,0,0,-1,1385,1233,0,0
168,-209,0,0,0,0,0,0,0,0,0,-1,1392,1233,0,0
175,-209,0,0,0,0,0,0,0,0,0,-1,1399,1233,0,0
182,-209,0,0,0,0,0,0,0,0,0,-1,1406,1233,0,0
189,-209,0,0,0,0,0,0,0,0,0,-1,1413,1233,0,0
196,-209,0,0,0,0,0,0,0,0,0,-1,1420,1233,0,0
203,-209,0,0,0,0,0,0,0,0,0,-1,1427,1233,0,0
210,-209,0,0,0,0,0,0,0,0,0,-1,1434,1233,0,0
217,-209,0,0,0,0,0,0,0,0,0,-1,1441,1233,0,0
224,-209,0,0,0,0,0,0,0,0,0,-1,1448,1233,0,0
231,-209,0,0,0,0,0,0,0,0,0,-1,1455,1233,0,0
238,-209,0,0,0,0,0,0,0,0,0,-1,1462,1233,0,0
245,-209,0,0,0,0,0,0,0,0,0,-1,1469,1233,0,0
252,-209,0,0,0,0,0,0,0,0,0,-1,1476,1233,0,0
259,-209,0,0,0,0,0,0,0,0,0,-1,1483,1233,0,0
266,-209,0,0,0,0,0,0,0,0,0,-1,1490,1233,0,0
273,-209,0,0,0,0,0,0,0,0,0,-1,1497,1233,0,0
280,-209,0,0,0,0,0,0,0,0,0,-1,1504,1233,0,0
287,-209,0,0,0,0,0,0,0,0,0,-1,1511,1233,0,0
294,-209,0,0,0,0,0,0,0,0,0,-1,1518,1233,0,0
301,-209,0,0,0,0,0,0,0,0,0,-1,1525,1233,0,0
308,-209,0,0,0,0,0,0,0,0,0,-1,1532,1233,0,0
315,-209,0,0,0,0,0,0,0,0,0,-1,1539,1233,0,0
322,-209,0,0,0,0,0,0,0,0,0,-1,1546,1233,0,0
329,-209,0,0,0,0,0,0,0,0,0,-1,1553,1233,0,0
336,-209,0,0,0,0,0,0,0,0,0,-1,1560,1233,0,0
343,-209,0,0,0,0,0,0,0,0,0,-1,1567,1233,0,0
350,-209,0,0,0,0,0,0,0,0,0,-1,1574,1233,0,0
357,-209,0,0,0,0,0,0,0,0,0,-1,1581,1233,0,0
364,-209,0,0,0,0,0,0,0,0,0,-1,1588,1233,0,0
371,-209,0,0,0,0,0,0,0,0,0,-1,1595,1233,0,0
378,-209,0,0,0,0,0,0,0,0,0,-1,1602,1233,0,0
385,-209,0,0,0,0,0,0,0,0,0,-1,1609,1233,0,0
392,-209,0,0,0,0,0,0,0,0,0,-1,1616,1233,0,0
399,-209,0,0,0,0,0,0,0,0,0,-1,1623,1233,0,0
406,-209,0,0,0,0,0,0,0,0,0,-1,1630,1233,0,0
413,-209,0,0,0,0,0,0,0,0,0,-1,1637,1233,0,0
420,-209,0,0,0,0,0,0,0,0,0,-1,1644,1233,0,0
427,-209,0,0,0,0,0,0,0,0,0,-1,1651,1233,0,0
434,-209,0,0,0,0,0,0,0,0,0,-1,1658,1233,0,0
441,-209,0,0,0,0,0,0,0,0,0,-1,1665,1233,0,0
448,-209,0,0,0,0,0,0,0,0,0,-1,1672,1233,0,0
455,-209,0,0,0,0,0,0,0,0,0,-1,1679,1233,0,0
462,-209,0,0,0,0,0,0,0,0,0,-1,1686,1233,0,0
469,-209,0,0,0,0,0,0,0,0,0,-1,1693,1233,0,0
476,-209,0,0,0,0,0,0,0,0,0,-1,1700,1233,0,0
483,-209,0,0,0,0,0,0,0,0,0,-1,1707,1233,0,0
490,-209,0,0,0,0,0,0,0,0,0,-1,1714,1233,0,0
497,-209,0,0,0,0,0,0,0,0,0,-1,1721,1233,0,0
504,-209,0,0,0,0,0,0,0,0,0,-1,1728,1233,0,0
511,-209,0,0,0,0,0,0,0,0,0,-1,1735,1233,0,0
518,-209,0,0,0,0,0,0,0,0,0,-1,1742,1233,0,0
525,-209,0,0,0,0,0,0,0,0,0,-1,1749,1233,0,0
532,-209,0,0,0,0,0,0,0,0,0,-1,1756,1233,0,0
539,-209,0,0,0,0,0,0,0,0,0,-1,1763,1233,0,0
546,-209,0,0,0,0,0,0,0,0,0,-1,1770,1233,0,0
553,-209,0,0,0,0,0,0,0,0,0,-1,1777,1233,0,0
560,-209,0,0,0,0,0,0,0,0,0,-1,1784,1233,0,0
567,-209,0,0,0,0,0,0,0,0,0,-1,1791,1233,0,0
574,-209,0,0,0,0,0,0,0,0,0,-1,1798,1233,0,0
581,-209,0,0,0,0,0,0,0,0,0,-1,1805,1233,0,0
588,-209,0,0,0,0,0,0,0,0,0,-1,1812,1233,0,0
595,-209,0,0,0,0,0,0,0,0,0,-1,1819,1233,0,0
602,-209,0,0,0,0,0,0,0,0,0,-1,1826,1233,0,0
609,-209,0,0,0,0,0,0,0,0,0,-1,1833,1233,0,0
616,-209,0,0,0,0,0,0,0,0,0,-1,1840,1233,0,0
623,-209,64.0444,2.60181,0.00126444,0.00181705,1.84557e-05,0.00181766,0.00126383,1.53745,0.00107578,0.0361206,1847,1233,64.0444,-2.60176
630,-209,63.9757,2.50208,-0.00010135,0.00148774,7.03379e-05,0.00149084,-0.000104457,1.52665,0.00103048,0.0384331,1854,1233,63.9757,-2.50203
637,-209,64.0245,2.60156,-0.00130637,0.00118005,-7.3061e-05,0.0011822,-0.00130851,-1.54145,0.00143863,0.0365193,1861,1233,64.0245,-2.60153
644,-209,64.0565,2.56738,-0.00222065,0.000928016,-0.000401831,0.000978488,-0.00227112,-1.44584,0.001925,0.0295225,1868,1233,64.0565,-2.56739
651,-209,64.0704,2.59985,-0.00220234,0.000765406,-0.000830081,0.000981801,-0.00241873,-1.31578,0.00202088,0.0220769,1875,1233,64.0705,-2.59989
658,-209,64.0785,2.59387,-0.00148505,0.000404423,-0.00101992,0.000849923,-0.00193055,-1.15897,0.00164522,0.0184175,1882,1233,64.0785,-2.59383
665,-209,64.0686,2.52783,-0.000788433,8.47314e-05,-0.0011029,0.000834317,-0.00153802,-0.97386,0.00138961,0.0339301,1889,1233,64.0687,-2.52783
672,-209,64.0837,2.41333,0,0,0,0,0,0,0,-1,1896,1233,64.0838,-2.41337
679,-209,55.2465,2.78674,0,0,0,0,0,0,0,-1,1903,1233,55.2464,-2.78678
686,-209,33.3711,3.89856,0,0,0,0,0,0,0,-1,1910,1233,33.3711,-3.89855
693,-209,50.6343,12.0313,0,0,0,0,0,0,0,-1,1917,1233,50.6342,-12.0313
700,-209,50.6936,11.271,0.00128409,-0.000409432,-0.000868239,0.00165011,-0.000775455,-0.398961,0.00143043,0.04603,1924,1233,50.6936,-11.271
707,-209,50.6997,10.5944,0.00167175,-0.000247729,-0.000807241,0.0019661,-0.000542078,-0.349653,0.00152391,0.0374222,1931,1233,50.6997,-10.5944
714,-209,50.6908,10.0555,0.00182609,-0.000179141,-0.00053413,0.00195949,-0.000312542,-0.244746,0.00142201,0.023408,1938,1233,50.6908,-10.0556
721,-209,50.7274,9.42285,0.00168842,-0.000262612,2.34804e-05,0.0016887,-0.000262894,0.0120325,0.00122289,0.0136952,1945,1233,50.7275,-9.42281
728,-209,50.7452,8.84509,0.00113173,-9.13427e-05,0.000657663,0.00141825,-0.000377858,0.410862,0.00109343,0.0136137,1952,1233,50.7453,-8.84508
735,-209,50.7078,8.25024,0.000318212,0.000351106,0.000984057,0.00131885,-0.000649535,0.793754,0.00115814,0.0160536,1959,1233,50.7077,-8.2503
742,-209,50.6649,7.63794,-0.000578628,0.00109265,0.00104578,0.00159564,-0.00108162,1.12248,0.00155519,0.0164074,1966,1233,50.6649,-7.63794
749,-209,50.615,7.03503,-0.0016408,0.00214788,0.000880776,0.00234263,-0.00183555,1.35319,0.00241819,0.0142593,1973,1233,50.615,-7.03508
756,-209,50.5938,6.47546,-0.00303227,0.00364946,0.000277056,0.00366093,-0.00304374,1.52943,0.0038764,0.0128184,1980,1233,50.5937,-6.47546
763,-209,50.5719,5.97803,-0.00448096,0.00563543,-0.000834842,0.00570386,-0.00454939,-1.48901,0.00593221,0.0250854,1987,1233,50.5719,-5.97804
770,-209,50.6816,5.58252,0,0,0,0,0,0,0,-1,1994,1233,50.6816,-5.58248
777,-209,49.8105,-3.45435,0,0,0,0,0,0,0,-1,2001,1233,49.8106,3.45429
784,-209,53.6729,-0.603394,0,0,0,0,0,0,0,-1,2008,1233,53.6728,0.603386
791,-209,53.6887,1.53479,0,0,0,0,0,0,0,-1,2015,1233,53.6887,-1.53478
798,-209,53.6404,3.71179,0,0,0,0,0,0,0,-1,2022,1233,53.6404,-3.71185
805,-209,0,0,0,0,0,0,0,0,0,-1,2029,1233,0,0
812,-209,0,0,0,0,0,0,0,0,0,-1,2036,1233,0,0
-700,-216,0,0,0,0,0,0,0,0,0,-1,524,1240,0,0
-693,-216,0,0,0,0,0,0,0,0,0,-1,531,1240,0,0
-686,-216,0,0,0,0,0,0,0,0,0,-1,538,1240,0,0
-679,-216,-33.5883,1.7146,0,0,0,0,0,0,0,-1,545,1240,-33.5883,-1.71464
-672,-216,-37.8755,-3.20239,0,0,0,0,0,0,0,-1,552,1240,-37.8755,3.20245
-665,-216,-38.8895,-2.74597,0,0,0,0,0,0,0,-1,559,1240,-38.8894,2.74599
-658,-216,-39.6014,-1.88721,0,0,0,0,0,0,0,-1,566,1240,-39.6014,1.88723
-651,-216,-40.2826,-1.06091,0,0,0,0,0,0,0,-1,573,1240,-40.2826,1.06087
-644,-216,-48.6951,1.62036,0,0,0,0,0,0,0,-1,580,1240,-48.6952,-1.62039
-637,-216,-33.6483,2.73596,0,0,0,0,0,0,0,-1,587,1240,-33.6483,-2.73597
-630,-216,-33.7242,3.58374,0.00650366,-0.0141385,-0.0011481,0.00656732,-0.0142022,-0.0553916,0.0122584,0.0440743,594,1240,-33.7242,-3.58375
-623,-216,-33.8895,4.37878,0.00189077,-0.00601369,-0.000893071,0.00199041,-0.00611334,-0.111117,0.00487637,0.0205956,601,1240,-33.8895,-4.37875
-616,-216,-33.9826,4.96326,-0.000523087,-0.00151018,-0.00135505,0.0004255,-0.00245877,-0.610752,0.00179787,0.0147384,608,1240,-33.9826,-4.96326
-609,-216,-34.0182,5.60596,-0.000939585,-0.000612284,-0.00150096,0.000733919,-0.00228579,-0.839699,0.00181855,0.0137231,615,1240,-34.0182,-5.60596
-602,-216,-34.03,6.21191,-0.00115727,-0.000720141,-0.00160386,0.000679975,-0.00255739,-0.853118,0.00197107,0.0133298,622,1240,-34.03,-6.21189
-595,-216,-34.0208,6.83618,-0.00156034,-0.00121482,-0.00149895,0.000121292,-0.00289645,-0.842771,0.00197264,0.0180299,629,1240,-34.0208,-6.83613
-588,-216,-34.0743,7.48987,-0.00196597,-0.00138332,-0.00146082,-0.00018506,-0.00316422,-0.88382,0.00205058,0.0215564,636,1240,-34.0743,-7.48991
-581,-216,-34.2797,8.01294,0,0,0,0,0,0,0,-1,643,1240,-34.2797,-8.01294
-574,-216,-34.7019,8.79016,0,0,0,0,0,0,0,-1,650,1240,-34.7019,-8.79012
-567,-216,-33.4159,9.56567,0,0,0,0,0,0,0,-1,657,1240,-33.4159,-9.56565
-560,-216,-16.5087,5.4574,0,0,0,0,0,0,0,-1,664,1240,-16.5087,-5.45746
-553,-216,-16.2355,1.22351,0,0,0,0,0,0,0,-1,671,1240,-16.2356,-1.22356
-546,-216,-37.1617,-0.25415,0,0,0,0,0,0,0,-1,678,1240,-37.1618,0.254161
-539,-216,-47.7817,1.47327,0,0,0,0,0,0,0,-1,685,1240,-47.7818,-1.4733
-532,-216,-48.0757,0.931396,0,0,0,0,0,0,0,-1,692,1240,-48.0757,-0.931345
-525,-216,-48.129,0.963257,-0.00708691,0.00123795,0.00286305,0.00212754,-0.0079765,1.26954,0.00615075,0.0490124,699,1240,-48.129,-0.963252
-518,-216,-48.4373,1.21008,-0.00770366,0.00207319,0.0031775,0.00301513,-0.0086456,1.28261,0.00698904,0.0411919,706,1240,-48.4373,-1.21005
-511,-216,-48.5568,1.32251,-0.00666504,0.00251895,0.003024,0.00342522,-0.00757132,1.27962,0.00649754,0.0409534,713,1240,-48.5568,-1.32252
-504,-216,-48.4164,1.24731,0.000362096,-0.00039312,0.00297508,0.00298343,-0.00301446,0.722274,0.0034629,0.0419567,720,1240,-48.4164,-1.24733
-497,-216,0,0,0,0,0,0,0,0,0,-1,727,1240,0,0
-490,-216,0,0,0,0,0,0,0,0,0,-1,734,1240,0,0
-483,-216,0,0,0,0,0,0,0,0,0,-1,741,1240,0,0
-476,-216,0,0,0,0,0,0,0,0,0,-1,748,1240,0,0
-469,-216,0,0,0,0,0,0,0,0,0,-1,755,1240,0,0
-462,-216,0,0,0,0,0,0,0,0,0,-1,762,1240,0,0
-455,-216,0,0,0,0,0,0,0,0,0,-1,769,1240,0,0
-448,-216,0,0,0,0,0,0,0,0,0,-1,776,1240,0,0
-441,-216,0,0,0,0,0,0,0,0,0,-1,783,1240,0,0
-434,-216,0,0,0,0,0,0,0,0,0,-1,790,1240,0,0
-427,-216,0,0,0,0,0,0,0,0,0,-1,797,1240,0,0
-420,-216,0,0,0,0,0,0,0,0,0,-1,804,1240,0,0
-413,-216,0,0,0,0,0,0,0,0,0,-1,811,1240,0,0
-406,-216,0,0,0,0,0,0,0,0,0,-1,818,1240,0,0
-399,-216,0,0,0,0,0,0,0,0,0,-1,825,1240,0,0
-392,-216,0,0,0,0,0,0,0,0,0,-1,832,1240,0,0
-385,-216,0,0,0,0,0,0,0,0,0,-1,839,1240,0,0
-378,-216,0,0,0,0,0,0,0,0,0,-1,846,1240,0,0
-371,-216,0,0,0,0,0,0,0,0,0,-1,853,1240,0,0
-364,-216,0,0,0,0,0,0,0,0,0,-1,860,1240,0,0
-357,-216,0,0,0,0,0,0,0,0,0,-1,867,1240,0,0
-350,-216,0,0,0,0,0,0,0,0,0,-1,874,1240,0,0
-343,-216,0,0,0,0,0,0,0,0,0,-1,881,1240,0,0
-336,-216,0,0,0,0,0,0,0,0,0,-1,888,1240,0,0
-329,-216,0,0,0,0,0,0,0,0,0,-1,895,1240,0,0
-322,-216,0,0,0,0,0,0,0,0,0,-1,902,1240,0,0
-315,-216,0,0,0,0,0,0,0,0,0,-1,909,1240,0,0
-308,-216,0,0,0,0,0,0,0,0,0,-1,916,1240,0,0
-301,-216,0,0,0,0,0,0,0,0,0,-1,923,1240,0,0
-294,-216,0,0,0,0,0,0,0,0,0,-1,930,1240,0,0
-287,-216,0,0,0,0,0,0,0,0,0,-1,937,1240,0,0
-280,-216,0,0,0,0,0,0,0,0,0,-1,944,1240,0,0
-273,-216,0,0,0,0,0,0,0,0,0,-1,951,1240,0,0
-266,-216,0,0,0,0,0,0,0,0,0,-1,958,1240,0,0
-259,-216,0,0,0,0,0,0,0,0,0,-1,965,1240,0,0
-252,-216,0,0,0,0,0,0,0,0,0,-1,972,1240,0,0
-245,-216,0,0,0,0,0,0,0,0,0,-1,979,1240,0,0
-238,-216,0,0,0,0,0,0,0,0,0,-1,986,1240,0,0
-231,-216,0,0,0,0,0,0,0,0,0,-1,993,1240,0,0
-224,-216,0,0,0,0,0,0,0,0,0,-1,1000,1240,0,0
-217,-216,0,0,0,0,0,0,0,0,0,-1,1007,1240,0,0
-210,-216,0,0,0,0,0,0,0,0,0,-1,1014,1240,0,0
-203,-216,0,0,0,0,0,0,0,0,0,-1,1021,1240,0,0
-196,-216,0,0,0,0,0,0,0,0,0,-1,1028,1240,0,0
-189,-216,0,0,0,0,0,0,0,0,0,-1,1035,1240,0,0
-182,-216,0,0,0,0,0,0,0,0,0,-1,1042,1240,0,0
-175,-216,0,0,0,0,0,0,0,0,0,-1,1049,1240,0,0
-168,-216,0,0,0,0,0,0,0,0,0,-1,1056,1240,0,0
-161,-216,0,0,0,0,0,0,0,0,0,-1,1063,1240,0,0
-154,-216,0,0,0,0,0,0,0,0,0,-1,1070,1240,0,0
-147,-216,0,0,0,0,0,0,0,0,0,-1,1077,1240,0,0
-140,-216,0,0,0,0,0,0,0,0,0,-1,1084,1240,0,0
-133,-216,0,0,0,0,0,0,0,0,0,-1,1091,1240,0,0
-126,-216,0,0,0,0,0,0,0,0,0,-1,1098,1240,0,0
-119,-216,0,0,0,0,0,0,0,0,0,-1,1105,1240,0,0
-112,-216,0,0,0,0,0,0,0,0,0,-1,1112,1240,0,0
-105,-216,0,0,0,0,0,0,0,0,0,-1,1119,1240,0,0
-98,-216,0,0,0,0,0,0,0,0,0,-1,1126,1240,0,0
-91,-216,0,0,0,0,0,0,0,0,0,-1,1133,1240,0,0
-84,-216,0,0,0,0,0,0,0,0,0,-1,1140,1240,0,0
-77,-216,0,0,0,0,0,0,0,0,0,-1,1147,1240,0,0
-70,-216,0,0,0,0,0,0,0,0,0,-1,1154,1240,0,0
-63,-216,0,0,0,0,0,0,0,0,0,-1,1161,1240,0,0
-56,-216,0,0,0,0,0,0,0,0,0,-1,1168,1240,0,0
-49,-216,0,0,0,0,0,0,0,0,0,-1,1175,1240,0,0
-42,-216,0,0,0,0,0,0,0,0,0,-1,1182,1240,0,0
-35,-216,0,0,0,0,0,0,0,0,0,-1,1189,1240,0,0
-28,-216,0,0,0,0,0,0,0,0,0,-1,1196,1240,0,0
-21,-216,0,0,0,0,0,0,0,0,0,-1,1203,1240,0,0
-14,-216,0,0,0,0,0,0,0,0,0,-1,1210,1240,0,0
-7,-216,0,0,0,0,0,0,0,0,0,-1,1217,1240,0,0
0,-216,0,0,0,0,0,0,0,0,0,-1,1224,1240,0,0
7,-216,0,0,0,0,0,0,0,0,0,-1,1231,1240,0,0
14,-216,0,0,0,0,0,0,0,0,0,-1,1238,1240,0,0
21,-216,0,0,0,0,0,0,0,0,0,-1,1245,1240,0,0
28,-216,0,0,0,0,0,0,0,0,0,-1,1252,1240,0,0
35,-216,0,0,0,0,0,0,0,0,0,-1,1259,1240,0,0
42,-216,0,0,0,0,0,0,0,0,0,-1,1266,1240,0,0
49,-216,0,0,0,0,0,0,0,0,0,-1,1273,1240,0,0
56,-216,0,0,0,0,0,0,0,0,0,-1,1280,1240,0,0
63,-216,0,0,0,0,0,0,0,0,0,-1,1287,1240,0,0
70,-216,0,0,0,0,0,0,0,0,0,-1,1294,1240,0,0
77,-216,0,0,0,0,0,0,0,0,0,-1,1301,1240,0,0
84,-216,0,0,0,0,0,0,0,0,0,-1,1308,1240,0,0
91,-216,0,0,0,0,0,0,0,0,0,-1,1315,1240,0,0
98,-216,0,0,0,0,0,0,0,0,0,-1,1322,1240,0,0
105,-216,0,0,0,0,0,0,0,0,0,-1,1329,1240,0,0
112,-216,0,0,0,0,0,0,0,0,0,-1,1336,1240,0,0
119,-216,0,0,0,0,0,0,0,0,0,-1,1343,1240,0,0
126,-216,0,0,0,0,0,0,0,0,0,-1,1350,1240,0,0
133,-216,0,0,0,0,0,0,0,0,0,-1,1357,1240,0,0
140,-216,0,0,0,0,0,0,0,0,0,-1,1364,1240,0,0
147,-216,0,0,0,0,0,0,0,0,0,-1,1371,1240,0,0
154,-216,0,0,0,0,0,0,0,0,0,-1,1378,1240,0,0
161,-216,0,0,0,0,0,0,0,0,0,-1,1385,1240,0,0
168,-216,0,0,0,0,0,0,0,0,0,-1,1392,1240,0,0
175,-216,0,0,0,0,0,0,0,0,0,-1,1399,1240,0,0
182,-216,0,0,0,0,0,0,0,0,0,-1,1406,1240,0,0
189,-216,0,0,0,0,0,0,0,0,0,-1,1413,1240,0,0
196,-216,0,0,0,0,0,0,0,0,0,-1,1420,1240,0,0
203,-216,0,0,0,0,0,0,0,0,0,-1,1427,1240,0,0
210,-216,0,0,0,0,0,0,0,0,0,-1,1434,1240,0,0
217,-216,0,0,0,0,0,0,0,0,0,-1,1441,1240,0,0
224,-216,0,0,0,0,0,0,0,0,0,-1,1448,1240,0,0
231,-216,0,0,0,0,0,0,0,0,0,-1,1455,1240,0,0
238,-216,0,0,0,0,0,0,0,0,0,-1,1462,1240,0,0
245,-216,0,0,0,0,0,0,0,0,0,-1,1469,1240,0,0
252,-216,0,0,0,0,0,0,0,0,0,-1,1476,1240,0,0
259,-216,0,0,0,0,0,0,0,0,0,-1,1483,1240,0,0
266,-216,0,0,0,0,0,0,0,0,0,-1,1490,1240,0,0
273,-216,0,0,0,0,0,0,0,0,0,-1,1497,1240,0,0
280,-216,0,0,0,0,0,0,0,0,0,-1,1504,1240,0,0
287,-216,0,0,0,0,0,0,0,0,0,-1,1511,1240,0,0
294,-216,0,0,0,0,0,0,0,0,0,-1,1518,1240,0,0
301,-216,0,0,0,0,0,0,0,0,0,-1,1525,1240,0,0
308,-216,0,0,0,0,0,0,0,0,0,-1,1532,1240,0,0
315,-216,0,0,0,0,0,0,0,0,0,-1,1539,1240,0,0
322,-216,0,0,0,0,0,0,0,0,0,-1,1546,1240,0,0
329,-216,0,0,0,0,0,0,0,0,0,-1,1553,1240,0,0
336,-216,0,0,0,0,0,0,0,0,0,-1,1560,1240,0,0
343,-216,0,0,0,0,0,0,0,0,0,-1,1567,1240,0,0
350,-216,0,0,0,0,0,0,0,0,0,-1,1574,1240,0,0
357,-216,0,0,0,0,0,0,0,0,0,-1,1581,1240,0,0
364,-216,0,0,0,0,0,0,0,0,0,-1,1588,1240,0,0
371,-216,0,0,0,0,0,0,0,0,0,-1,1595,1240,0,0
378,-216,0,0,0,0,0,0,0,0,0,-1,1602,1240,0,0
385,-216,0,0,0,0,0,0,0,0,0,-1,1609,1240,0,0
392,-216,0,0,0,0,0,0,0,0,0,-1,1616,1240,0,0
399,-216,0,0,0,0,0,0,0,0,0,-1,1623,1240,0,0
406,-216,0,0,0,0,0,0,0,0,0,-1,1630,1240,0,0
413,-216,0,0,0,0,0,0,0,0,0,-1,1637,1240,0,0
420,-216,0,0,0,0,0,0,0,0,0,-1,1644,1240,0,0
427,-216,0,0,0,0,0,0,0,0,0,-1,1651,1240,0,0
434,-216,0,0,0,0,0,0,0,0,0,-1,1658,1240,0,0
441,-216,0,0,0,0,0,0,0,0,0,-1,1665,1240,0,0
448,-216,0,0,0,0,0,0,0,0,0,-1,1672,1240,0,0
455,-216,0,0,0,0,0,0,0,0,0,-1,1679,1240,0,0
462,-216,0,0,0,0,0,0,0,0,0,-1,1686,1240,0,0
469,-216,0,0,0,0,0,0,0,0,0,-1,1693,1240,0,0
476,-216,0,0,0,0,0,0,0,0,0,-1,1700,1240,0,0
483,-216,0,0,0,0,0,0,0,0,0,-1,1707,1240,0,0
490,-216,0,0,0,0,0,0,0,0,0,-1,1714,1240,0,0
497,-216,0,0,0,0,0,0,0,0,0,-1,1721,1240,0,0
504,-216,0,0,0,0,0,0,0,0,0,-1,1728,1240,0,0
511,-216,0,0,0,0,0,0,0,0,0,-1,1735,1240,0,0
518,-216,0,0,0,0,0,0,0,0,0,-1,1742,1240,0,0
525,-216,0,0,0,0,0,0,0,0,0,-1,1749,1240,0,0
532,-216,0,0,0,0,0,0,0,0,0,-1,1756,1240,0,0
539,-216,0,0,0,0,0,0,0,0,0,-1,1763,1240,0,0
546,-216,0,0,0,0,0,0,0,0,0,-1,1770,1240,0,0
553,-216,0,0,0,0,0,0,0,0,0,-1,1777,1240,0,0
560,-216,0,0,0,0,0,0,0,0,0,-1,1784,1240,0,0
567,-216,0,0,0,0,0,0,0,0,0,-1,1791,1240,0,0
574,-216,0,0,0,0,0,0,0,0,0,-1,1798,1240,0,0
581,-216,0,0,0,0,0,0,0,0,0,-1,1805,1240,0,0
588,-216,0,0,0,0,0,0,0,0,0,-1,1812,1240,0,0
595,-216,0,0,0,0,0,0,0,0,0,-1,1819,1240,0,0
602,-216,0,0,0,0,0,0,0,0,0,-1,1826,1240,0,0
609,-216,0,0,0,0,0,0,0,0,0,-1,1833,1240,0,0
616,-216,0,0,0,0,0,0,0,0,0,-1,1840,1240,0,0
623,-216,64.0603,2.71265,0.000620682,0.00174957,0.000488277,0.00193146,0.000438794,1.21421,0.00116915,0.0396576,1847,1240,64.0603,-2.71263
630,-216,64.0388,2.72913,-0.00125655,0.00155781,0.000381346,0.00160857,-0.00130731,1.43847,0.00168648,0.0384362,1854,1240,64.0389,-2.72917
637,-216,64.0217,2.71326,-0.00298767,0.00132109,0.000127729,0.00132488,-0.00299145,1.54119,0.0025532,0.0340815,1861,1240,64.0218,-2.71328
644,-216,64.035,2.63098,-0.00405423,0.00106869,-0.000293054,0.0010854,-0.00407094,-1.51384,0.00313895,0.0270434,1868,1240,64.0351,-2.63097
651,-216,64.0684,2.63623,-0.00378264,0.000836449,-0.000662015,0.000929458,-0.00387565,-1.43122,0.00294292,0.021448,1875,1240,64.0684,-2.63619
658,-216,64.0698,2.62659,-0.00283139,0.000413594,-0.000767993,0.000586177,-0.00300397,-1.34975,0.00222394,0.0286549,1882,1240,64.0699,-2.62664
665,-216,64.0649,2.53613,-0.00198771,7.3706e-05,-0.00080078,0.000348222,-0.00226223,-1.24054,0.00163662,0.0433454,1889,1240,64.0649,-2.53618
672,-216,64.0961,2.42212,0,0,0,0,0,0,0,-1,1896,1240,64.0961,-2.42216
679,-216,47.3159,3.82703,0,0,0,0,0,0,0,-1,1903,1240,47.316,-3.82708
686,-216,21.5172,6.19458,0,0,0,0,0,0,0,-1,1910,1240,21.5172,-6.19453
693,-216,49.5345,11.6556,0,0,0,0,0,0,0,-1,1917,1240,49.5346,-11.6557
700,-216,49.9708,10.9114,0,0,0,0,0,0,0,-1,1924,1240,49.9708,-10.9114
707,-216,50.1515,10.6147,0.00130761,-0.000440423,-0.000696343,0.00155109,-0.000683904,-0.336368,0.00132235,0.0464744,1931,1240,50.1515,-10.6148
714,-216,50.1569,10.0377,0.00134515,-0.000412031,-0.000314743,0.00139983,-0.000466706,-0.171997,0.00112163,0.018228,1938,1240,50.1568,-10.0377
721,-216,50.1519,9.46155,0.00107073,-0.000469636,0.00031432,0.0011324,-0.000531306,0.19374,0.000981214,0.0139443,1945,1240,50.1518,-9.46153
728,-216,50.1709,8.86462,0.00037212,-0.000168148,0.00091714,0.00105808,-0.000854109,0.642178,0.0011061,0.0134887,1952,1240,50.1709,-8.86458
735,-216,50.1731,8.28003,-0.000551837,0.00036533,0.00122467,0.00121446,-0.00140096,0.964545,0.00151129,0.0151874,1959,1240,50.1731,-8.28005
742,-216,50.089,7.69873,-0.00154138,0.00113058,0.00128387,0.00164748,-0.00205828,1.18804,0.0021439,0.0172308,1966,1240,50.089,-7.69872
749,-216,50.0471,7.07666,-0.00267413,0.00223786,0.00106066,0.0024571,-0.00289338,1.36696,0.00309252,0.0133042,1973,1240,50.0471,-7.0766
756,-216,50.0018,6.48279,-0.00410835,0.00384587,0.000325564,0.00385917,-0.00412166,1.52996,0.00460856,0.0114907,1980,1240,50.0019,-6.48282
763,-216,49.9568,5.98743,-0.00567327,0.00602292,-0.00106705,0.00611947,-0.00576982,-1.48056,0.00686527,0.0210511,1987,1240,49.9568,-5.98743
770,-216,50.1299,5.57104,0,0,0,0,0,0,0,-1,1994,1240,50.1298,-5.5711
777,-216,50.3884,5.15027,0,0,0,0,0,0,0,-1,2001,1240,50.3885,-5.15025
784,-216,51.8208,-0.443726,0,0,0,0,0,0,0,-1,2008,1240,51.8208,0.443779
791,-216,55.1682,1.76636,0,0,0,0,0,0,0,-1,2015,1240,55.1682,-1.76635
798,-216,0,0,0,0,0,0,0,0,0,-1,2022,1240,0,0
805,-216,0,0,0,0,0,0,0,0,0,-1,2029,1240,0,0
812,-216,0,0,0,0,0,0,0,0,0,-1,2036,1240,0,0
-700,-223,0,0,0,0,0,0,0,0,0,-1,524,1247,0,0
-693,-223,0,0,0,0,0,0,0,0,0,-1,531,1247,0,0
-686,-223,0,0,0,0,0,0,0,0,0,-1,538,1247,0,0
-679,-223,0,0,0,0,0,0,0,0,0,-1,545,1247,0,0
-672,-223,-44.697,4.15137,0,0,0,0,0,0,0,-1,552,1247,-44.697,-4.15137
-665,-223,-39.8311,-2.69971,0,0,0,0,0,0,0,-1,559,1247,-39.8311,2.69976
-658,-223,-40.6016,-1.88,0,0,0,0,0,0,0,-1,566,1247,-40.6016,1.88006
-651,-223,-41.2336,-1.05103,0,0,0,0,0,0,0,-1,573,1247,-41.2336,1.05106
-644,-223,-48.4766,1.28882,0,0,0,0,0,0,0,-1,580,1247,-48.4766,-1.28882
-637,-223,-49.2922,0.294189,0,0,0,0,0,0,0,-1,587,1247,-49.2922,-0.294245
-630,-223,-33.1188,3.60693,0,0,0,0,0,0,0,-1,594,1247,-33.1188,-3.60698
-623,-223,-33.3807,4.41211,0.00196905,-0.00491496,-0.000930522,0.00209261,-0.00503852,-0.132016,0.00423265,0.0353061,601,1247,-33.3807,-4.41216
-616,-223,-33.3462,4.9574,-0.000167819,-0.000787666,-0.00120903,0.000770376,-0.00172586,-0.659929,0.00147598,0.0175961,608,1247,-33.3462,-4.95734
-609,-223,-33.3463,5.61023,-0.000443903,-0.000195112,-0.0012305,0.000917259,-0.00155627,-0.835774,0.00144389,0.0126588,615,1247,-33.3463,-5.6102
-602,-223,-33.3751,6.23657,-0.000627152,-0.000438247,-0.00132907,0.000799719,-0.00186512,-0.820872,0.001579,0.0151465,622,1247,-33.3751,-6.23652
-595,-223,-33.381,6.93005,-0.000913201,-0.00108954,-0.00134151,0.000343036,-0.00234578,-0.752583,0.00168985,0.0204519,629,1247,-33.381,-6.93002
-588,-223,-33.4015,7.58911,-0.00127776,-0.00165016,-0.00143201,-1.9899e-05,-0.00290803,-0.720747,0.00193209,0.0234311,636,1247,-33.4015,-7.58913
-581,-223,-33.5026,8.30493,-0.00159335,-0.00198371,-0.00127252,-0.000501131,-0.00307593,-0.709301,0.00190567,0.033587,643,1247,-33.5026,-8.30493
-574,-223,-33.6339,8.83716,-0.00231152,-0.0017861,-0.000482113,-0.00149976,-0.00259785,-1.03486,0.00150583,0.0356817,650,1247,-33.6339,-8.8372
-567,-223,-33.9329,9.66064,0,0,0,0,0,0,0,-1,657,1247,-33.9329,-9.66065
-560,-223,-31.8748,9.50732,0,0,0,0,0,0,0,-1,664,1247,-31.8748,-9.50735
-553,-223,-11.4025,4.14722,0,0,0,0,0,0,0,-1,671,1247,-11.4025,-4.14719
-546,-223,-26.9034,-0.148682,0,0,0,0,0,0,0,-1,678,1247,-26.9034,0.14867
-539,-223,-36.7405,0.35376,0,0,0,0,0,0,0,-1,685,1247,-36.7405,-0.353807
-532,-223,-47.6184,1.39844,0,0,0,0,0,0,0,-1,692,1247,-47.6184,-1.3984
-525,-223,-48.0056,0.705322,0,0,0,0,0,0,0,-1,699,1247,-48.0056,-0.705296
-518,-223,-48.4272,1.18384,0,0,0,0,0,0,0,-1,706,1247,-48.4272,-1.18381
-511,-223,-48.4687,1.24597,-0.00874981,0.00374034,0.00194506,0.00403623,-0.0090457,1.41983,0.00773524,0.0405558,713,1247,-48.4687,-1.24601
-504,-223,-48.446,1.32202,-0.00476556,0.00248708,0.00200946,0.00300662,-0.00528509,1.31779,0.00484709,0.0409527,720,1247,-48.446,-1.32197
-497,-223,0,0,0,0,0,0,0,0,0,-1,727,1247,0,0
-490,-223,0,0,0,0,0,0,0,0,0,-1,734,1247,0,0
-483,-223,0,0,0,0,0,0,0,0,0,-1,741,1247,0,0
-476,-223,0,0,0,0,0,0,0,0,0,-1,748,1247,0,0
-469,-223,0,0,0,0,0,0,0,0,0,-1,755,1247,0,0
-462,-223,0,0,0,0,0,0,0,0,0,-1,762,1247,0,0
-455,-223,0,0,0,0,0,0,0,0,0,-1,769,1247,0,0
-448,-223,0,0,0,0,0,0,0,0,0,-1,776,1247,0,0
-441,-223,0,0,0,0,0,0,0,0,0,-1,783,1247,0,0
-434,-223,0,0,0,0,0,0,0,0,0,-1,790,1247,0,0
-427,-223,0,0,0,0,0,0,0,0,0,-1,797,1247,0,0
-420,-223,0,0,0,0,0,0,0,0,0,-1,804,1247,0,0
-413,-223,0,0,0,0,0,0,0,0,0,-1,811,1247,0,0
-406,-223,0,0,0,0,0,0,0,0,0,-1,818,1247,0,0
-399,-223,0,0,0,0,0,0,0,0,0,-1,825,1247,0,0
-392,-223,0,0,0,0,0,0,0,0,0,-1,832,1247,0,0
-385,-223,0,0,0,0,0,0,0,0,0,-1,839,1247,0,0
-378,-223,0,0,0,0,0,0,0,0,0,-1,846,1247,0,0
-371,-223,0,0,0,0,0,0,0,0,0,-1,853,1247,0,0
-364,-223,0,0,0,0,0,0,0,0,0,-1,860,1247,0,0
-357,-223,0,0,0,0,0,0,0,0,0,-1,867,1247,0,0
-350,-223,0,0,0,0,0,0,0,0,0,-1,874,1247,0,0
-343,-223,0,0,0,0,0,0,0,0,0,-1,881,1247,0,0
-336,-223,0,0,0,0,0,0,0,0,0,-1,888,1247,0,0
-329,-223,0,0,0,0,0,0,0,0,0,-1,895,1247,0,0
-322,-223,0,0,0,0,0,0,0,0,0,-1,902,1247,0,0
-315,-223,0,0,0,0,0,0,0,0,0,-1,909,1247,0,0
-308,-223,0,0,0,0,0,0,0,0,0,-1,916,1247,0,0
-301,-223,0,0,0,0,0,0,0,0,0,-1,923,1247,0,0
-294,-223,0,0,0,0,0,0,0,0,0,-1,930,1247,0,0
-287,-223,0,0,0,0,0,0,0,0,0,-1,937,1247,0,0
-280,-223,0,0,0,0,0,0,0,0,0,-1,944,1247,0,0
-273,-223,0,0,0,0,0,0,0,0,0,-1,951,1247,0,0
-266,-223,0,0,0,0,0,0,0,0,0,-1,958,1247,0,0
-259,-223,0,0,0,0,0,0,0,0,0,-1,965,1247,0,0
-252,-223,0,0,0,0,0,0,0,0,0,-1,972,1247,0,0
-245,-223,0,0,0,0,0,0,0,0,0,-1,979,1247,0,0
-238,-223,0,0,0,0,0,0,0,0,0,-1,986,1247,0,0
-231,-223,0,0,0,0,0,0,0,0,0,-1,993,1247,0,0
-224,-223,0,0,0,0,0,0,0,0,0,-1,1000,1247,0,0
-217,-223,0,0,0,0,0,0,0,0,0,-1,1007,1247,0,0
-210,-223,0,0,0,0,0,0,0,0,0,-1,1014,1247,0,0
-203,-223,0,0,0,0,0,0,0,0,0,-1,1021,1247,0,0
-196,-223,0,0,0,0,0,0,0,0,0,-1,1028,1247,0,0
-189,-223,0,0,0,0,0,0,0,0,0,-1,1035,1247,0,0
-182,-223,0,0,0,0,0,0,0,0,0,-1,1042,1247,0,0
-175,-223,0,0,0,0,0,0,0,0,0,-1,1049,1247,0,0
-168,-223,0,0,0,0,0,0,0,0,0,-1,1056,1247,0,0
-161,-223,0,0,0,0,0,0,0,0,0,-1,1063,1247,0,0
-154,-223,0,0,0,0,0,0,0,0,0,-1,1070,1247,0,0
-147,-223,0,0,0,0,0,0,0,0,0,-1,1077,1247,0,0
-140,-223,0,0,0,0,0,0,0,0,0,-1,1084,1247,0,0
-133,-223,0,0,0,0,0,0,0,0,0,-1,1091,1247,0,0
-126,-223,0,0,0,0,0,0,0,0,0,-1,1098,1247,0,0
-119,-223,0,0,0,0,0,0,0,0,0,-1,1105,1247,0,0
-112,-223,0,0,0,0,0,0,0,0,0,-1,1112,1247,0,0
-105,-223,0,0,0,0,0,0,0,0,0,-1,1119,1247,0,0
-98,-223,0,0,0,0,0,0,0,0,0,-1,1126,1247,0,0
-91,-223,0,0,0,0,0,0,0,0,0,-1,1133,1247,0,0
-84,-223,0,0,0,0,0,0,0,0,0,-1,1140,1247,0,0
-77,-223,0,0,0,0,0,0,0,0,0,-1,1147,1247,0,0
-70,-223,0,0,0,0,0,0,0,0,0,-1,1154,1247,0,0
-63,-223,0,0,0,0,0,0,0,0,0,-1,1161,1247,0,0
-56,-223,0,0,0,0,0,0,0,0,0,-1,1168,1247,0,0
-49,-223,0,0,0,0,0,0,0,0,0,-1,1175,1247,0,0
-42,-223,0,0,0,0,0,0,0,0,0,-1,1182,1247,0,0
-35,-223,0,0,0,0,0,0,0,0,0,-1,1189,1247,0,0
-28,-223,0,0,0,0,0,0,0,0,0,-1,1196,1247,0,0
-21,-223,0,0,0,0,0,0,0,0,0,-1,1203,1247,0,0
-14,-223,0,0,0,0,0,0,0,0,0,-1,1210,1247,0,0
-7,-223,0,0,0,0,0,0,0,0,0,-1,1217,1247,0,0
0,-223,0,0,0,0,0,0,0,0,0,-1,1224,1247,0,0
7,-223,0,0,0,0,0,0,0,0,0,-1,1231,1247,0,0
14,-223,0,0,0,0,0,0,0,0,0,-1,1238,1247,0,0
21,-223,0,0,0,0,0,0,0,0,0,-1,1245,1247,0,0
28,-223,0,0,0,0,0,0,0,0,0,-1,1252,1247,0,0
35,-223,0,0,0,0,0,0,0,0,0,-1,1259,1247,0,0
42,-223,0,0,0,0,0,0,0,0,0,-1,1266,1247,0,0
49,-223,0,0,0,0,0,0,0,0,0,-1,1273,1247,0,0
56,-223,0,0,0,0,0,0,0,0,0,-1,1280,1247,0,0
63,-223,0,0,0,0,0,0,0,0,0,-1,1287,1247,0,0
70,-223,0,0,0,0,0,0,0,0,0,-1,1294,1247,0,0
77,-223,0,0,0,0,0,0,0,0,0,-1,1301,1247,0,0
84,-223,0,0,0,0,0,0,0,0,0,-1,1308,1247,0,0
91,-223,0,0,0,0,0,0,0,0,0,-1,1315,1247,0,0
98,-223,0,0,0,0,0,0,0,0,0,-1,1322,1247,0,0
105,-223,0,0,0,0,0,0,0,0,0,-1,1329,1247,0,0
112,-223,0,0,0,0,0,0,0,0,0,-1,1336,1247,0,0
119,-223,0,0,0,0,0,0,0,0,0,-1,1343,1247,0,0
126,-223,0,0,0,0,0,0,0,0,0,-1,1350,1247,0,0
133,-223,0,0,0,0,0,0,0,0,0,-1,1357,1247,0,0
140,-223,0,0,0,0,0,0,0,0,0,-1,1364,1247,0,0
147,-223,0,0,0,0,0,0,0,0,0,-1,1371,1247,0,0
154,-223,0,0,0,0,0,0,0,0,0,-1,1378,1247,0,0
161,-223,0,0,0,0,0,0,0,0,0,-1,1385,1247,0,0
168,-223,0,0,0,0,0,0,0,0,0,-1,1392,1247,0,0
175,-223,0,0,0,0,0,0,0,0,0,-1,1399,1247,0,0
182,-223,0,0,0,0,0,0,0,0,0,-1,1406,1247,0,0
189,-223,0,0,0,0,0,0,0,0,0,-1,1413,1247,0,0
196,-223,0,0,0,0,0,0,0,0,0,-1,1420,1247,0,0
203,-223,0,0,0,0,0,0,0,0,0,-1,1427,1247,0,0
210,-223,0,0,0,0,0,0,0,0,0,-1,1434,1247,0,0
217,-223,0,0,0,0,0,0,0,0,0,-1,1441,1247,0,0
224,-223,0,0,0,0,0,0,0,0,0,-1,1448,1247,0,0
231,-223,0,0,0,0,0,0,0,0,0,-1,1455,1247,0,0
238,-223,0,0,0,0,0,0,0,0,0,-1,1462,1247,0,0
245,-223,0,0,0,0,0,0,0,0,0,-1,1469,1247,0,0
252,-223,0,0,0,0,0,0,0,0,0,-1,1476,1247,0,0
259,-223,0,0,0,0,0,0,0,0,0,-1,1483,1247,0,0
266,-223,0,0,0,0,0,0,0,0,0,-1,1490,1247,0,0
273,-223,0,0,0,0,0,0,0,0,0,-1,1497,1247,0,0
280,-223,0,0,0,0,0,0,0,0,0,-1,1504,1247,0,0
287,-223,0,0,0,0,0,0,0,0,0,-1,1511,1247,0,0
294,-223,0,0,0,0,0,0,0,0,0,-1,1518,1247,0,0
301,-223,0,0,0,0,0,0,0,0,0,-1,1525,1247,0,0
308,-223,0,0,0,0,0,0,0,0,0,-1,1532,1247,0,0
315,-223,0,0,0,0,0,0,0,0,0,-1,1539,1247,0,0
322,-223,0,0,0,0,0,0,0,0,0,-1,1546,1247,0,0
329,-223,0,0,0,0,0,0,0,0,0,-1,1553,1247,0,0
336,-223,0,0,0,0,0,0,0,0,0,-1,1560,1247,0,0
343,-223,0,0,0,0,0,0,0,0,0,-1,1567,1247,0,0
350,-223,0,0,0,0,0,0,0,0,0,-1,1574,1247,0,0
357,-223,0,0,0,0,0,0,0,0,0,-1,1581,1247,0,0
364,-223,0,0,0,0,0,0,0,0,0,-1,1588,1247,0,0
371,-223,0,0,0,0,0,0,0,0,0,-1,1595,1247,0,0
378,-223,0,0,0,0,0,0,0,0,0,-1,1602,1247,0,0
385,-223,0,0,0,0,0,0,0,0,0,-1,1609,1247,0,0
392,-223,0,0,0,0,0,0,0,0,0,-1,1616,1247,0,0
399,-223,0,0,0,0,0,0,0,0,0,-1,1623,1247,0,0
406,-223,0,0,0,0,0,0,0,0,0,-1,1630,1247,0,0
413,-223,0,0,0,0,0,0,0,0,0,-1,1637,1247,0,0
420,-223,0,0,0,0,0,0,0,0,0,-1,1644,1247,0,0
427,-223,0,0,0,0,0,0,0,0,0,-1,1651,1247,0,0
434,-223,0,0,0,0,0,0,0,0,0,-1,1658,1247,0,0
441,-223,0,0,0,0,0,0,0,0,0,-1,1665,1247,0,0
448,-223,0,0,0,0,0,0,0,0,0,-1,1672,1247,0,0
455,-223,0,0,0,0,0,0,0,0,0,-1,1679,1247,0,0
462,-223,0,0,0,0,0,0,0,0,0,-1,1686,1247,0,0
469,-223,0,0,0,0,0,0,0,0,0,-1,1693,1247,0,0
476,-223,0,0,0,0,0,0,0,0,0,-1,1700,1247,0,0
483,-223,0,0,0,0,0,0,0,0,0,-1,1707,1247,0,0
490,-223,0,0,0,0,0,0,0,0,0,-1,1714,1247,0,0
497,-223,0,0,0,0,0,0,0,0,0,-1,1721,1247,0,0
504,-223,0,0,0,0,0,0,0,0,0,-1,1728,1247,0,0
511,-223,0,0,0,0,0,0,0,0,0,-1,1735,1247,0,0
518,-223,0,0,0,0,0,0,0,0,0,-1,1742,1247,0,0
525,-223,0,0,0,0,0,0,0,0,0,-1,1749,1247,0,0
532,-223,0,0,0,0,0,0,0,0,0,-1,1756,1247,0,0
539,-223,0,0,0,0,0,0,0,0,0,-1,1763,1247,0,0
546,-223,0,0,0,0,0,0,0,0,0,-1,1770,1247,0,0
553,-223,0,0,0,0,0,0,0,0,0,-1,1777,1247,0,0
560,-223,0,0,0,0,0,0,0,0,0,-1,1784,1247,0,0
567,-223,0,0,0,0,0,0,0,0,0,-1,1791,1247,0,0
574,-223,0,0,0,0,0,0,0,0,0,-1,1798,1247,0,0
581,-223,0,0,0,0,0,0,0,0,0,-1,1805,1247,0,0
588,-223,0,0,0,0,0,0,0,0,0,-1,1812,1247,0,0
595,-223,0,0,0,0,0,0,0,0,0,-1,1819,1247,0,0
602,-223,0,0,0,0,0,0,0,0,0,-1,1826,1247,0,0
609,-223,0,0,0,0,0,0,0,0,0,-1,1833,1247,0,0
616,-223,0,0,0,0,0,0,0,0,0,-1,1840,1247,0,0
623,-223,64.0216,2.76184,-0.000818977,0.00218772,0.000487676,0.00226484,-0.000896098,1.41395,0.00188114,0.0415044,1847,1247,64.0216,-2.76189
630,-223,64.0341,2.79102,-0.00295152,0.00199405,0.000463317,0.00203708,-0.00299455,1.47819,0.00292249,0.038725,1854,1247,64.034,-2.79107
637,-223,64.0223,2.62988,-0.00494673,0.00169351,0.000312197,0.00170816,-0.00496137,1.52392,0.00400044,0.0302398,1861,1247,64.0223,-2.62992
644,-223,64.0219,2.62146,-0.00577104,0.00136217,-4.72257e-05,0.00136248,-0.00577135,-1.56418,0.00437306,0.0230778,1868,1247,64.0219,-2.62144
651,-223,64.0392,2.60693,-0.00511437,0.00103375,-0.000313441,0.00104968,-0.00513031,-1.51999,0.0038185,0.0283337,1875,1247,64.0391,-2.60698
658,-223,64.0803,2.61548,0,0,0,0,0,0,0,-1,1882,1247,64.0804,-2.6155
665,-223,64.0322,2.47412,0,0,0,0,0,0,0,-1,1889,1247,64.0322,-2.47415
672,-223,56.4625,2.72424,0,0,0,0,0,0,0,-1,1896,1247,56.4626,-2.72418
679,-223,43.2783,2.46973,0,0,0,0,0,0,0,-1,1903,1247,43.2784,-2.46978
686,-223,40.7926,10.0316,0,0,0,0,0,0,0,-1,1910,1247,40.7926,-10.0316
693,-223,48.9896,11.6594,0,0,0,0,0,0,0,-1,1917,1247,48.9897,-11.6594
700,-223,49.3876,11.1182,0,0,0,0,0,0,0,-1,1924,1247,49.3875,-11.1182
707,-223,49.6752,10.6001,0.0010789,-0.000516229,-0.000563115,0.00125766,-0.000694988,-0.307385,0.00114286,0.040932,1931,1247,49.6752,-10.6001
714,-223,49.6029,10.0519,0.000955345,-0.00056353,-5.90336e-05,0.000957636,-0.000565821,-0.0387887,0.000889212,0.0141278,1938,1247,49.6029,-10.0519
721,-223,49.5503,9.45862,0.000495784,-0.000610729,0.000648951,0.000795306,-0.000910251,0.432415,0.000985449,0.0149442,1945,1247,49.5503,-9.45864
728,-223,49.5334,8.87244,-0.000394566,-0.000260518,0.00126706,0.000941294,-0.00159638,0.811822,0.00148131,0.0189252,1952,1247,49.5335,-8.8724
735,-223,49.5264,8.31543,-0.0014571,0.000302167,0.00162235,0.00126801,-0.00242294,1.03381,0.00216547,0.018755,1959,1247,49.5264,-8.31541
742,-223,49.4564,7.75696,-0.00252175,0.00110322,0.00174451,0.00180637,-0.00322489,1.18765,0.00294303,0.0168009,1966,1247,49.4564,-7.75699
749,-223,49.4283,7.09668,-0.00360644,0.00228504,0.00151436,0.0026515,-0.0039729,1.33337,0.00384988,0.0131801,1973,1247,49.4284,-7.0967
756,-223,49.3698,6.49231,-0.00474818,0.0040728,0.000698441,0.00412776,-0.00480314,1.49227,0.00516116,0.0156046,1980,1247,49.3697,-6.49233
763,-223,49.3489,5.99268,-0.0058468,0.0066635,-0.000988802,0.00674118,-0.00592447,-1.49241,0.00731758,0.0226315,1987,1247,49.3489,-5.99273
770,-223,49.6262,5.44678,0,0,0,0,0,0,0,-1,1994,1247,49.6262,-5.44677
777,-223,48.48,5.08801,0,0,0,0,0,0,0,-1,2001,1247,48.4801,-5.08798
784,-223,54.1208,-0.293457,0,0,0,0,0,0,0,-1,2008,1247,54.1208,0.293477
791,-223,34.7136,2.92554,0,0,0,0,0,0,0,-1,2015,1247,34.7137,-2.92555
798,-223,0,0,0,0,0,0,0,0,0,-1,2022,1247,0,0
805,-223,0,0,0,0,0,0,0,0,0,-1,2029,1247,0,0
812,-223,0,0,0,0,0,0,0,0,0,-1,2036,1247,0,0
-700,-230,0,0,0,0,0,0,0,0,0,-1,524,1254,0,0
-693,-230,0,0,0,0,0,0,0,0,0,-1,531,1254,0,0
-686,-230,0,0,0,0,0,0,0,0,0,-1,538,1254,0,0
-679,-230,0,0,0,0,0,0,0,0,0,-1,545,1254,0,0
-672,-230,-44.6316,4.1239,0,0,0,0,0,0,0,-1,552,1254,-44.6316,-4.12394
-665,-230,-45.6348,3.66809,0,0,0,0,0,0,0,-1,559,1254,-45.6348,-3.66806
-658,-230,-41.5504,-1.8689,0,0,0,0,0,0,0,-1,566,1254,-41.5504,1.86888
-651,-230,-47.3007,1.94629,0,0,0,0,0,0,0,-1,573,1254,-47.3007,-1.94632
-644,-230,-48.2715,0.872925,0,0,0,0,0,0,0,-1,580,1254,-48.2715,-0.87288
-637,-230,-49.1636,-0.158325,0,0,0,0,0,0,0,-1,587,1254,-49.1636,0.158288
-630,-230,-32.999,3.24182,0,0,0,0,0,0,0,-1,594,1254,-32.999,-3.24186
-623,-230,-32.7881,4.24585,0.00296407,-0.00320506,-0.000601493,0.00302217,-0.00326316,-0.0962921,0.00362973,0.0372704,601,1254,-32.7881,-4.24583
-616,-230,-32.6684,5.00305,0.00094188,0.00031176,-0.000775244,0.00146364,-0.000209999,-0.592392,0.00105276,0.0167874,608,1254,-32.6684,-5.00302
-609,-230,-32.6779,5.6532,0.00055927,0.000546339,-0.00077571,0.00132854,-0.000222932,-0.781231,0.000968595,0.0122579,615,1254,-32.6779,-5.65325
-602,-230,-32.6915,6.27148,0.0002154,7.92226e-05,-0.000895575,0.00104547,-0.000750848,-0.747457,0.00104174,0.0128265,622,1254,-32.6915,-6.27146
-595,-230,-32.7501,6.96289,-0.000155461,-0.000662659,-0.0010356,0.000657134,-0.00147525,-0.66532,0.00126098,0.0199379,629,1254,-32.7501,-6.9629
-588,-230,-32.781,7.66797,-0.000566979,-0.00147409,-0.00124184,0.000301537,-0.00234261,-0.61031,0.00167134,0.0276612,636,1254,-32.781,-7.66799
-581,-230,-32.8168,8.36365,-0.000975407,-0.00213024,-0.00119984,-0.000221276,-0.00288438,-0.561132,0.00185357,0.028359,643,1254,-32.8168,-8.36363
-574,-230,-32.7972,8.90747,-0.00178428,-0.0021361,-0.000545274,-0.00138724,-0.00253314,-0.629361,0.00146472,0.0341601,650,1254,-32.7972,-8.90744
-567,-230,-32.803,9.37073,-0.00242824,-0.00199776,0.000398898,-0.00175974,-0.00266626,1.0328,0.00156542,0.0462778,657,1254,-32.803,-9.37077
-560,-230,-33.0487,9.71375,0,0,0,0,0,0,0,-1,664,1254,-33.0487,-9.71371
-553,-230,-13.1939,4.9718,0,0,0,0,0,0,0,-1,671,1254,-13.1939,-4.97175
-546,-230,-15.23,0.453979,0,0,0,0,0,0,0,-1,678,1254,-15.23,-0.453996
-539,-230,-25.8232,0.512817,0,0,0,0,0,0,0,-1,685,1254,-25.8232,-0.512878
-532,-230,-21.1644,1.52966,0,0,0,0,0,0,0,-1,692,1254,-21.1644,-1.52969
-525,-230,-29.4775,0.731445,0,0,0,0,0,0,0,-1,699,1254,-29.4775,-0.731432
-518,-230,-48.1862,0.965576,0,0,0,0,0,0,0,-1,706,1254,-48.1862,-0.965556
-511,-230,-48.3091,1.00818,-0.00906378,0.00411437,0.000735632,0.00415531,-0.00910472,1.5152,0.00783143,0.0428915,713,1254,-48.3091,-1.00818
-504,-230,-48.3915,1.04419,-0.00831828,0.00442518,0.000176007,0.00442761,-0.00832071,1.55699,0.00747377,0.0392829,720,1254,-48.3915,-1.04421
-497,-230,0,0,0,0,0,0,0,0,0,-1,727,1254,0,0
-490,-230,0,0,0,0,0,0,0,0,0,-1,734,1254,0,0
-483,-230,0,0,0,0,0,0,0,0,0,-1,741,1254,0,0
-476,-230,0,0,0,0,0,0,0,0,0,-1,748,1254,0,0
-469,-230,0,0,0,0,0,0,0,0,0,-1,755,1254,0,0
-462,-230,0,0,0,0,0,0,0,0,0,-1,762,1254,0,0
-455,-230,0,0,0,0,0,0,0,0,0,-1,769,1254,0,0
-448,-230,0,0,0,0,0,0,0,0,0,-1,776,1254,0,0
-441,-230,0,0,0,0,0,0,0,0,0,-1,783,1254,0,0
-434,-230,0,0,0,0,0,0,0,0,0,-1,790,1254,0,0
-427,-230,0,0,0,0,0,0,0,0,0,-1,797,1254,0,0
-420,-230,0,0,0,0,0,0,0,0,0,-1,804,1254,0,0
-413,-230,0,0,0,0,0,0,0,0,0,-1,811,1254,0,0
-406,-230,0,0,0,0,0,0,0,0,0,-1,818,1254,0,0
-399,-230,0,0,0,0,0,0,0,0,0,-1,825,1254,0,0
-392,-230,0,0,0,0,0,0,0,0,0,-1,832,1254,0,0
-385,-230,0,0,0,0,0,0,0,0,0,-1,839,1254,0,0
-378,-230,0,0,0,0,0,0,0,0,0,-1,846,1254,0,0
-371,-230,0,0,0,0,0,0,0,0,0,-1,853,1254,0,0
-364,-230,0,0,0,0,0,0,0,0,0,-1,860,1254,0,0
-357,-230,0,0,0,0,0,0,0,0,0,-1,867,1254,0,0
-350,-230,0,0,0,0,0,0,0,0,0,-1,874,1254,0,0
-343,-230,0,0,0,0,0,0,0,0,0,-1,881,1254,0,0
-336,-230,0,0,0,0,0,0,0,0,0,-1,888,1254,0,0
-329,-230,0,0,0,0,0,0,0,0,0,-1,895,1254,0,0
-322,-230,0,0,0,0,0,0,0,0,0,-1,902,1254,0,0
-315,-230,0,0,0,0,0,0,0,0,0,-1,909,1254,0,0
-308,-230,0,0,0,0,0,0,0,0,0,-1,916,1254,0,0
-301,-230,0,0,0,0,0,0,0,0,0,-1,923,1254,0,0
-294,-230,0,0,0,0,0,0,0,0,0,-1,930,1254,0,0
-287,-230,0,0,0,0,0,0,0,0,0,-1,937,1254,0,0
-280,-230,0,0,0,0,0,0,0,0,0,-1,944,1254,0,0
-273,-230,0,0,0,0,0,0,0,0,0,-1,951,1254,0,0
-266,-230,0,0,0,0,0,0,0,0,0,-1,958,1254,0,0
-259,-230,0,0,0,0,0,0,0,0,0,-1,965,1254,0,0
-252,-230,0,0,0,0,0,0,0,0,0,-1,972,1254,0,0
-245,-230,0,0,0,0,0,0,0,0,0,-1,979,1254,0,0
-238,-230,0,0,0,0,0,0,0,0,0,-1,986,1254,0,0
-231,-230,0,0,0,0,0,0,0,0,0,-1,993,1254,0,0
-224,-230,0,0,0,0,0,0,0,0,0,-1,1000,1254,0,0
-217,-230,0,0,0,0,0,0,0,0,0,-1,1007,1254,0,0
-210,-230,0,0,0,0,0,0,0,0,0,-1,1014,1254,0,0
-203,-230,0,0,0,0,0,0,0,0,0,-1,1021,1254,0,0
-196,-230,0,0,0,0,0,0,0,0,0,-1,1028,1254,0,0
-189,-230,0,0,0,0,0,0,0,0,0,-1,1035,1254,0,0
-182,-230,0,0,0,0,0,0,0,0,0,-1,1042,1254,0,0
-175,-230,0,0,0,0,0,0,0,0,0,-1,1049,1254,0,0
-168,-230,0,0,0,0,0,0,0,0,0,-1,1056,1254,0,0
-161,-230,0,0,0,0,0,0,0,0,0,-1,1063,1254,0,0
-154,-230,0,0,0,0,0,0,0,0,0,-1,1070,1254,0,0
-147,-230,0,0,0,0,0,0,0,0,0,-1,1077,1254,0,0
-140,-230,0,0,0,0,0,0,0,0,0,-1,1084,1254,0,0
-133,-230,0,0,0,0,0,0,0,0,0,-1,1091,1254,0,0
-126,-230,0,0,0,0,0,0,0,0,0,-1,1098,1254,0,0
-119,-230,0,0,0,0,0,0,0,0,0,-1,1105,1254,0,0
-112,-230,0,0,0,0,0,0,0,0,0,-1,1112,1254,0,0
-105,-230,0,0,0,0,0,0,0,0,0,-1,1119,1254,0,0
-98,-230,0,0,0,0,0,0,0,0,0,-1,1126,1254,0,0
-91,-230,0,0,0,0,0,0,0,0,0,-1,1133,1254,0,0
-84,-230,0,0,0,0,0,0,0,0,0,-1,1140,1254,0,0
-77,-230,0,0,0,0,0,0,0,0,0,-1,1147,1254,0,0
-70,-230,0,0,0,0,0,0,0,0,0,-1,1154,1254,0,0
-63,-230,0,0,0,0,0,0,0,0,0,-1,1161,1254,0,0
-56,-230,0,0,0,0,0,0,0,0,0,-1,1168,1254,0,0
-49,-230,0,0,0,0,0,0,0,0,0,-1,1175,1254,0,0
-42,-230,0,0,0,0,0,0,0,0,0,-1,1182,1254,0,0
-35,-230,0,0,0,0,0,0,0,0,0,-1,1189,1254,0,0
-28,-230,0,0,0,0,0,0,0,0,0,-1,1196,1254,0,0
-21,-230,0,0,0,0,0,0,0,0,0,-1,1203,1254,0,0
-14,-230,0,0,0,0,0,0,0,0,0,-1,1210,1254,0,0
-7,-230,0,0,0,0,0,0,0,0,0,-1,1217,1254,0,0
0,-230,0,0,0,0,0,0,0,0,0,-1,1224,1254,0,0
7,-230,0,0,0,0,0,0,0,0,0,-1,1231,1254,0,0
14,-230,0,0,0,0,0,0,0,0,0,-1,1238,1254,0,0
21,-230,0,0,0,0,0,0,0,0,0,-1,1245,1254,0,0
28,-230,0,0,0,0,0,0,0,0,0,-1,1252,1254,0,0
35,-230,0,0,0,0,0,0,0,0,0,-1,1259,1254,0,0
42,-230,0,0,0,0,0,0,0,0,0,-1,1266,1254,0,0
49,-230,0,0,0,0,0,0,0,0,0,-1,1273,1254,0,0
56,-230,0,0,0,0,0,0,0,0,0,-1,1280,1254,0,0
63,-230,0,0,0,0,0,0,0,0,0,-1,1287,1254,0,0
70,-230,0,0,0,0,0,0,0,0,0,-1,1294,1254,0,0
77,-230,0,0,0,0,0,0,0,0,0,-1,1301,1254,0,0
84,-230,0,0,0,0,0,0,0,0,0,-1,1308,1254,0,0
91,-230,0,0,0,0,0,0,0,0,0,-1,1315,1254,0,0
98,-230,0,0,0,0,0,0,0,0,0,-1,1322,1254,0,0
105,-230,0,0,0,0,0,0,0,0,0,-1,1329,1254,0,0
112,-230,0,0,0,0,0,0,0,0,0,-1,1336,1254,0,0
119,-230,0,0,0,0,0,0,0,0,0,-1,1343,1254,0,0
126,-230,0,0,0,0,0,0,0,0,0,-1,1350,1254,0,0
133,-230,0,0,0,0,0,0,0,0,0,-1,1357,1254,0,0
140,-230,0,0,0,0,0,0,0,0,0,-1,1364,1254,0,0
147,-230,0,0,0,0,0,0,0,0,0,-1,1371,1254,0,0
154,-230,0,0,0,0,0,0,0,0,0,-1,1378,1254,0,0
161,-230,0,0,0,0,0,0,0,0,0,-1,1385,1254,0,0
168,-230,0,0,0,0,0,0,0,0,0,-1,1392,1254,0,0
175,-230,0,0,0,0,0,0,0,0,0,-1,1399,1254,0,0
182,-230,0,0,0,0,0,0,0,0,0,-1,1406,1254,0,0
189,-230,0,0,0,0,0,0,0,0,0,-1,1413,1254,0,0
196,-230,0,0,0,0,0,0,0,0,0,-1,1420,1254,0,0
203,-230,0,0,0,0,0,0,0,0,0,-1,1427,1254,0,0
210,-230,0,0,0,0,0,0,0,0,0,-1,1434,1254,0,0
217,-230,0,0,0,0,0,0,0,0,0,-1,1441,1254,0,0
224,-230,0,0,0,0,0,0,0,0,0,-1,1448,1254,0,0
231,-230,0,0,0,0,0,0,0,0,0,-1,1455,1254,0,0
238,-230,0,0,0,0,0,0,0,0,0,-1,1462,1254,0,0
245,-230,0,0,0,0,0,0,0,0,0,-1,1469,1254,0,0
252,-230,0,0,0,0,0,0,0,0,0,-1,1476,1254,0,0
259,-230,0,0,0,0,0,0,0,0,0,-1,1483,1254,0,0
266,-230,0,0,0,0,0,0,0,0,0,-1,1490,1254,0,0
273,-230,0,0,0,0,0,0,0,0,0,-1,1497,1254,0,0
280,-230,0,0,0,0,0,0,0,0,0,-1,1504,1254,0,0
287,-230,0,0,0,0,0,0,0,0,0,-1,1511,1254,0,0
294,-230,0,0,0,0,0,0,0,0,0,-1,1518,1254,0,0
301,-230,0,0,0,0,0,0,0,0,0,-1,1525,1254,0,0
308,-230,0,0,0,0,0,0,0,0,0,-1,1532,1254,0,0
315,-230,0,0,0,0,0,0,0,0,0,-1,1539,1254,0,0
322,-230,0,0,0,0,0,0,0,0,0,-1,1546,1254,0,0
329,-230,0,0,0,0,0,0,0,0,0,-1,1553,1254,0,0
336,-230,0,0,0,0,0,0,0,0,0,-1,1560,1254,0,0
343,-230,0,0,0,0,0,0,0,0,0,-1,1567,1254,0,0
350,-230,0,0,0,0,0,0,0,0,0,-1,1574,1254,0,0
357,-230,0,0,0,0,0,0,0,0,0,-1,1581,1254,0,0
364,-230,0,0,0,0,0,0,0,0,0,-1,1588,1254,0,0
371,-230,0,0,0,0,0,0,0,0,0,-1,1595,1254,0,0
378,-230,0,0,0,0,0,0,0,0,0,-1,1602,1254,0,0
385,-230,0,0,0,0,0,0,0,0,0,-1,1609,1254,0,0
392,-230,0,0,0,0,0,0,0,0,0,-1,1616,1254,0,0
399,-230,0,0,0,0,0,0,0,0,0,-1,1623,1254,0,0
406,-230,0,0,0,0,0,0,0,0,0,-1,1630,1254,0,0
413,-230,0,0,0,0,0,0,0,0,0,-1,1637,1254,0,0
420,-230,0,0,0,0,0,0,0,0,0,-1,1644,1254,0,0
427,-230,0,0,0,0,0,0,0,0,0,-1,1651,1254,0,0
434,-230,0,0,0,0,0,0,0,0,0,-1,1658,1254,0,0
441,-230,0,0,0,0,0,0,0,0,0,-1,1665,1254,0,0
448,-230,0,0,0,0,0,0,0,0,0,-1,1672,1254,0,0
455,-230,0,0,0,0,0,0,0,0,0,-1,1679,1254,0,0
462,-230,0,0,0,0,0,0,0,0,0,-1,1686,1254,0,0
469,-230,0,0,0,0,0,0,0,0,0,-1,1693,1254,0,0
476,-230,0,0,0,0,0,0,0,0,0,-1,1700,1254,0,0
483,-230,0,0,0,0,0,0,0,0,0,-1,1707,1254,0,0
490,-230,0,0,0,0,0,0,0,0,0,-1,1714,1254,0,0
497,-230,0,0,0,0,0,0,0,0,0,-1,1721,1254,0,0
504,-230,0,0,0,0,0,0,0,0,0,-1,1728,1254,0,0
511,-230,0,0,0,0,0,0,0,0,0,-1,1735,1254,0,0
518,-230,0,0,0,0,0,0,0,0,0,-1,1742,1254,0,0
525,-230,0,0,0,0,0,0,0,0,0,-1,1749,1254,0,0
532,-230,0,0,0,0,0,0,0,0,0,-1,1756,1254,0,0
539,-230,0,0,0,0,0,0,0,0,0,-1,1763,1254,0,0
546,-230,0,0,0,0,0,0,0,0,0,-1,1770,1254,0,0
553,-230,0,0,0,0,0,0,0,0,0,-1,1777,1254,0,0
560,-230,0,0,0,0,0,0,0,0,0,-1,1784,1254,0,0
567,-230,0,0,0,0,0,0,0,0,0,-1,1791,1254,0,0
574,-230,0,0,0,0,0,0,0,0,0,-1,1798,1254,0,0
581,-230,0,0,0,0,0,0,0,0,0,-1,1805,1254,0,0
588,-230,0,0,0,0,0,0,0,0,0,-1,1812,1254,0,0
595,-230,0,0,0,0,0,0,0,0,0,-1,1819,1254,0,0
602,-230,0,0,0,0,0,0,0,0,0,-1,1826,1254,0,0
609,-230,0,0,0,0,0,0,0,0,0,-1,1833,1254,0,0
616,-230,64.0985,2.69019,0.000981621,0.00298689,-0.000104662,0.00299234,0.000976173,-1.51879,0.00176207,0.0368458,1840,1254,64.0985,-2.69021
623,-230,64.0474,2.70947,-0.00179668,0.00295583,0.000368348,0.00298421,-0.00182506,1.4939,0.00280339,0.0383326,1847,1254,64.0474,-2.70953
630,-230,64.0442,2.69678,-0.00450045,0.00272521,0.000583004,0.00277195,-0.00454719,1.4908,0.00426694,0.0343828,1854,1254,64.0442,-2.69674
637,-230,64.0217,2.60132,-0.00690831,0.00229863,0.000691514,0.00235028,-0.00695996,1.49625,0.00559057,0.0267882,1861,1254,64.0218,-2.60128
644,-230,64.0231,2.58057,-0.00741867,0.00183359,0.000448197,0.00185526,-0.00744033,1.52251,0.00568054,0.0214389,1868,1254,64.023,-2.58058
651,-230,64.0408,2.56116,-0.00640379,0.00138589,0.000240433,0.00139331,-0.00641121,1.53997,0.00480637,0.0452986,1875,1254,64.0407,-2.56118
658,-230,64.0422,2.51892,0,0,0,0,0,0,0,-1,1882,1254,64.0422,-2.51896
665,-230,56.2585,2.51587,0,0,0,0,0,0,0,-1,1889,1254,56.2586,-2.51586
672,-230,43.0962,2.78699,0,0,0,0,0,0,0,-1,1896,1254,43.0962,-2.78698
679,-230,27.9967,2.37708,0,0,0,0,0,0,0,-1,1903,1254,27.9967,-2.3771
686,-230,40.8854,10.1788,0,0,0,0,0,0,0,-1,1910,1254,40.8853,-10.1788
693,-230,49.3475,11.9624,0,0,0,0,0,0,0,-1,1917,1254,49.3475,-11.9624
700,-230,49.1128,11.3339,0.000280906,-0.000764292,-0.00027949,0.000350948,-0.000834334,-0.245552,0.000703037,0.0472718,1924,1254,49.1128,-11.3339
707,-230,49.004,10.6998,0.000896584,-0.000502612,-0.000365928,0.000986505,-0.000592534,-0.24096,0.000921068,0.024035,1931,1254,49.004,-10.6998
714,-230,48.942,10.0983,0.000505194,-0.000622676,0.000245077,0.000556145,-0.000673628,0.20498,0.000711089,0.0134166,1938,1254,48.942,-10.0983
721,-230,48.9226,9.49146,-0.000218205,-0.000636475,0.000984977,0.000579595,-0.00143427,0.680789,0.0011971,0.0138135,1945,1254,48.9226,-9.49151
728,-230,48.8865,8.93103,-0.0013189,-0.000278634,0.00160285,0.000886364,-0.0024839,0.94229,0.00201737,0.0150814,1952,1254,48.8864,-8.93104
735,-230,48.8744,8.35413,-0.00254637,0.000277306,0.00198939,0.00130493,-0.00357399,1.094,0.00291662,0.0155342,1959,1254,48.8744,-8.35414
742,-230,48.8442,7.72986,-0.00378072,0.00109173,0.0021287,0.00189071,-0.00457971,1.21173,0.00384173,0.0115225,1966,1254,48.8443,-7.72984
749,-230,48.8245,7.09668,-0.00496009,0.00232719,0.00185314,0.00277137,-0.00540427,1.33555,0.0048011,0.0110598,1973,1254,48.8244,-7.09663
756,-230,48.7786,6.5354,-0.00606804,0.00427056,0.000901936,0.00434865,-0.00614613,1.48443,0.00608872,0.0168559,1980,1254,48.7785,-6.53542
763,-230,48.7476,5.94336,-0.00700655,0.00723489,-0.0011929,0.00733411,-0.00710578,-1.4878,0.00833722,0.037617,1987,1254,48.7475,-5.94333
770,-230,49.0359,5.28491,0,0,0,0,0,0,0,-1,1994,1254,49.0359,-5.28492
777,-230,41.8693,3.74707,0,0,0,0,0,0,0,-1,2001,1254,41.8692,-3.74713
784,-230,35.8896,1.80334,0,0,0,0,0,0,0,-1,2008,1254,35.8897,-1.80338
791,-230,35.6028,2.20642,0,0,0,0,0,0,0,-1,2015,1254,35.6027,-2.2064
798,-230,0,0,0,0,0,0,0,0,0,-1,2022,1254,0,0
805,-230,0,0,0,0,0,0,0,0,0,-1,2029,1254,0,0
812,-230,0,0,0,0,0,0,0,0,0,-1,2036,1254,0,0
-700,-237,0,0,0,0,0,0,0,0,0,-1,524,1261,0,0
-693,-237,0,0,0,0,0,0,0,0,0,-1,531,1261,0,0
-686,-237,0,0,0,0,0,0,0,0,0,-1,538,1261,0,0
-679,-237,0,0,0,0,0,0,0,0,0,-1,545,1261,0,0
-672,-237,-44.7252,4.24841,0,0,0,0,0,0,0,-1,552,1261,-44.7252,-4.24842
-665,-237,-45.5706,3.58826,0,0,0,0,0,0,0,-1,559,1261,-45.5706,-3.58831
-658,-237,-46.2003,2.52844,0,0,0,0,0,0,0,-1,566,1261,-46.2003,-2.5284
-651,-237,-46.9487,1.65137,0,0,0,0,0,0,0,-1,573,1261,-46.9487,-1.65142
-644,-237,-47.6604,0.785034,0,0,0,0,0,0,0,-1,580,1261,-47.6604,-0.785034
-637,-237,-48.9447,-0.563843,0,0,0,0,0,0,0,-1,587,1261,-48.9447,0.56387
-630,-237,-31.9188,3.51355,0,0,0,0,0,0,0,-1,594,1261,-31.9187,-3.51358
-623,-237,-31.9056,4.27454,0.00357894,-0.000383898,-0.000254355,0.0035952,-0.000400157,-0.063836,0.00254071,0.0355356,601,1261,-31.9056,-4.27455
-616,-237,-31.95,5.01721,0.00175117,0.00192728,-0.000329721,0.0021805,0.00149795,-0.91588,0.00128792,0.01368,608,1261,-31.9499,-5.01717
-609,-237,-32.0106,5.66907,0.00130302,0.00152654,-0.000335677,0.00176857,0.00106099,-0.946094,0.00102786,0.0158406,615,1261,-32.0106,-5.66904
-602,-237,-32.0229,6.3125,0.000869934,0.000734816,-0.000471901,0.00127909,0.000325663,-0.714299,0.000767556,0.0129834,622,1261,-32.023,-6.3125
-595,-237,-32.1029,6.98792,0.000468623,-0.000183722,-0.000678977,0.000895709,-0.000610808,-0.561481,0.000874957,0.0168197,629,1261,-32.1029,-6.98788
-588,-237,-32.1175,7.70764,6.04075e-05,-0.00118252,-0.000946219,0.000570999,-0.00169311,-0.494833,0.00135964,0.0288268,636,1261,-32.1175,-7.7077
-581,-237,-32.1107,8.33447,-0.000378992,-0.00205909,-0.00104413,0.000121065,-0.00255915,-0.446645,0.00174785,0.0271337,643,1261,-32.1107,-8.33448
-574,-237,-32.0953,8.88953,-0.00120941,-0.00225758,-0.000642093,-0.00090467,-0.00256231,-0.443124,0.00150049,0.0256027,650,1261,-32.0953,-8.88957
-567,-237,-32.1381,9.55994,-0.0019671,-0.00213731,0.000143843,-0.00188507,-0.00221933,0.51827,0.00138168,0.0399742,657,1261,-32.1381,-9.55997
-560,-237,-32.1297,9.89282,0,0,0,0,0,0,0,-1,664,1261,-32.1297,-9.8928
-553,-237,-20.6102,6.92139,0,0,0,0,0,0,0,-1,671,1261,-20.6102,-6.92138
-546,-237,-11.192,1.14014,0,0,0,0,0,0,0,-1,678,1261,-11.192,-1.14011
-539,-237,-16.512,1.53455,0,0,0,0,0,0,0,-1,685,1261,-16.512,-1.53457
-532,-237,-29.7025,1.23621,0,0,0,0,0,0,0,-1,692,1261,-29.7025,-1.23618
-525,-237,-47.2925,0.590942,0,0,0,0,0,0,0,-1,699,1261,-47.2925,-0.590989
-518,-237,-47.6564,0.730591,0,0,0,0,0,0,0,-1,706,1261,-47.6564,-0.73063
-511,-237,-48.2047,1.07202,-0.00831602,0.00372593,6.00355e-05,0.00372623,-0.00831632,1.56581,0.00711913,0.0478735,713,1261,-48.2047,-1.07208
-504,-237,-48.3951,1.10669,-0.00862563,0.00387567,-0.000823298,0.00392966,-0.00867962,-1.50532,0.00745016,0.0418754,720,1261,-48.3951,-1.10669
-497,-237,-48.4842,1.23181,0,0,0,0,0,0,0,-1,727,1261,-48.4842,-1.23185
-490,-237,0,0,0,0,0,0,0,0,0,-1,734,1261,0,0
-483,-237,0,0,0,0,0,0,0,0,0,-1,741,1261,0,0
-476,-237,0,0,0,0,0,0,0,0,0,-1,748,1261,0,0
-469,-237,0,0,0,0,0,0,0,0,0,-1,755,1261,0,0
-462,-237,0,0,0,0,0,0,0,0,0,-1,762,1261,0,0
-455,-237,0,0,0,0,0,0,0,0,0,-1,769,1261,0,0
-448,-237,0,0,0,0,0,0,0,0,0,-1,776,1261,0,0
-441,-237,0,0,0,0,0,0,0,0,0,-1,783,1261,0,0
-434,-237,0,0,0,0,0,0,0,0,0,-1,790,1261,0,0
-427,-237,0,0,0,0,0,0,0,0,0,-1,797,1261,0,0
-420,-237,0,0,0,0,0,0,0,0,0,-1,804,1261,0,0
-413,-237,0,0,0,0,0,0,0,0,0,-1,811,1261,0,0
-406,-237,0,0,0,0,0,0,0,0,0,-1,818,1261,0,0
-399,-237,0,0,0,0,0,0,0,0,0,-1,825,1261,0,0
-392,-237,0,0,0,0,0,0,0,0,0,-1,832,1261,0,0
-385,-237,0,0,0,0,0,0,0,0,0,-1,839,1261,0,0
-378,-237,0,0,0,0,0,0,0,0,0,-1,846,1261,0,0
-371,-237,0,0,0,0,0,0,0,0,0,-1,853,1261,0,0
-364,-237,0,0,0,0,0,0,0,0,0,-1,860,1261,0,0
-357,-237,0,0,0,0,0,0,0,0,0,-1,867,1261,0,0
-350,-237,0,0,0,0,0,0,0,0,0,-1,874,1261,0,0
-343,-237,0,0,0,0,0,0,0,0,0,-1,881,1261,0,0
-336,-237,0,0,0,0,0,0,0,0,0,-1,888,1261,0,0
-329,-237,0,0,0,0,0,0,0,0,0,-1,895,1261,0,0
-322,-237,0,0,0,0,0,0,0,0,0,-1,902,1261,0,0
-315,-237,0,0,0,0,0,0,0,0,0,-1,909,1261,0,0
-308,-237,0,0,0,0,0,0,0,0,0,-1,916,1261,0,0
-301,-237,0,0,0,0,0,0,0,0,0,-1,923,1261,0,0
-294,-237,0,0,0,0,0,0,0,0,0,-1,930,1261,0,0
-287,-237,0,0,0,0,0,0,0,0,0,-1,937,1261,0,0
-280,-237,0,0,0,0,0,0,0,0,0,-1,944,1261,0,0
-273,-237,0,0,0,0,0,0,0,0,0,-1,951,1261,0,0
-266,-237,0,0,0,0,0,0,0,0,0,-1,958,1261,0,0
-259,-237,0,0,0,0,0,0,0,0,0,-1,965,1261,0,0
-252,-237,0,0,0,0,0,0,0,0,0,-1,972,1261,0,0
-245,-237,0,0,0,0,0,0,0,0,0,-1,979,1261,0,0
-238,-237,0,0,0,0,0,0,0,0,0,-1,986,1261,0,0
-231,-237,0,0,0,0,0,0,0,0,0,-1,993,1261,0,0
-224,-237,0,0,0,0,0,0,0,0,0,-1,1000,1261,0,0
-217,-237,0,0,0,0,0,0,0,0,0,-1,1007,1261,0,0
-210,-237,0,0,0,0,0,0,0,0,0,-1,1014,1261,0,0
-203,-237,0,0,0,0,0,0,0,0,0,-1,1021,1261,0,0
-196,-237,0,0,0,0,0,0,0,0,0,-1,1028,1261,0,0
-189,-237,0,0,0,0,0,0,0,0,0,-1,1035,1261,0,0
-182,-237,0,0,0,0,0,0,0,0,0,-1,1042,1261,0,0
-175,-237,0,0,0,0,0,0,0,0,0,-1,1049,1261,0,0
-168,-237,0,0,0,0,0,0,0,0,0,-1,1056,1261,0,0
-161,-237,0,0,0,0,0,0,0,0,0,-1,1063,1261,0,0
-154,-237,0,0,0,0,0,0,0,0,0,-1,1070,1261,0,0
-147,-237,0,0,0,0,0,0,0,0,0,-1,1077,1261,0,0
-140,-237,0,0,0,0,0,0,0,0,0,-1,1084,1261,0,0
-133,-237,0,0,0,0,0,0,0,0,0,-1,1091,1261,0,0
-126,-237,0,0,0,0,0,0,0,0,0,-1,1098,1261,0,0
-119,-237,0,0,0,0,0,0,0,0,0,-1,1105,1261,0,0
-112,-237,0,0,0,0,0,0,0,0,0,-1,1112,1261,0,0
-105,-237,0,0,0,0,0,0,0,0,0,-1,1119,1261,0,0
-98,-237,0,0,0,0,0,0,0,0,0,-1,1126,1261,0,0
-91,-237,0,0,0,0,0,0,0,0,0,-1,1133,1261,0,0
-84,-237,0,0,0,0,0,0,0,0,0,-1,1140,1261,0,0
-77,-237,0,0,0,0,0,0,0,0,0,-1,1147,1261,0,0
-70,-237,0,0,0,0,0,0,0,0,0,-1,1154,1261,0,0
-63,-237,0,0,0,0,0,0,0,0,0,-1,1161,1261,0,0
-56,-237,0,0,0,0,0,0,0,0,0,-1,1168,1261,0,0
-49,-237,0,0,0,0,0,0,0,0,0,-1,1175,1261,0,0
-42,-237,0,0,0,0,0,0,0,0,0,-1,1182,1261,0,0
-35,-237,0,0,0,0,0,0,0,0,0,-1,1189,1261,0,0
-28,-237,0,0,0,0,0,0,0,0,0,-1,1196,1261,0,0
-21,-237,0,0,0,0,0,0,0,0,0,-1,1203,1261,0,0
-14,-237,0,0,0,0,0,0,0,0,0,-1,1210,1261,0,0
-7,-237,0,0,0,0,0,0,0,0,0,-1,1217,1261,0,0
0,-237,0,0,0,0,0,0,0,0,0,-1,1224,1261,0,0
7,-237,0,0,0,0,0,0,0,0,0,-1,1231,1261,0,0
14,-237,0,0,0,0,0,0,0,0,0,-1,1238,1261,0,0
21,-237,0,0,0,0,0,0,0,0,0,-1,1245,1261,0,0
28,-237,0,0,0,0,0,0,0,0,0,-1,1252,1261,0,0
35,-237,0,0,0,0,0,0,0,0,0,-1,1259,1261,0,0
42,-237,0,0,0,0,0,0,0,0,0,-1,1266,1261,0,0
49,-237,0,0,0,0,0,0,0,0,0,-1,1273,1261,0,0
56,-237,0,0,0,0,0,0,0,0,0,-1,1280,1261,0,0
63,-237,0,0,0,0,0,0,0,0,0,-1,1287,1261,0,0
70,-237,0,0,0,0,0,0,0,0,0,-1,1294,1261,0,0
77,-237,0,0,0,0,0,0,0,0,0,-1,1301,1261,0,0
84,-237,0,0,0,0,0,0,0,0,0,-1,1308,1261,0,0
91,-237,0,0,0,0,0,0,0,0,0,-1,1315,1261,0,0
98,-237,0,0,0,0,0,0,0,0,0,-1,1322,1261,0,0
105,-237,0,0,0,0,0,0,0,0,0,-1,1329,1261,0,0
112,-237,0,0,0,0,0,0,0,0,0,-1,1336,1261,0,0
119,-237,0,0,0,0,0,0,0,0,0,-1,1343,1261,0,0
126,-237,0,0,0,0,0,0,0,0,0,-1,1350,1261,0,0
133,-237,0,0,0,0,0,0,0,0,0,-1,1357,1261,0,0
140,-237,0,0,0,0,0,0,0,0,0,-1,1364,1261,0,0
147,-237,0,0,0,0,0,0,0,0,0,-1,1371,1261,0,0
154,-237,0,0,0,0,0,0,0,0,0,-1,1378,1261,0,0
161,-237,0,0,0,0,0,0,0,0,0,-1,1385,1261,0,0
168,-237,0,0,0,0,0,0,0,0,0,-1,1392,1261,0,0
175,-237,0,0,0,0,0,0,0,0,0,-1,1399,1261,0,0
182,-237,0,0,0,0,0,0,0,0,0,-1,1406,1261,0,0
189,-237,0,0,0,0,0,0,0,0,0,-1,1413,1261,0,0
196,-237,0,0,0,0,0,0,0,0,0,-1,1420,1261,0,0
203,-237,0,0,0,0,0,0,0,0,0,-1,1427,1261,0,0
210,-237,0,0,0,0,0,0,0,0,0,-1,1434,1261,0,0
217,-237,0,0,0,0,0,0,0,0,0,-1,1441,1261,0,0
224,-237,0,0,0,0,0,0,0,0,0,-1,1448,1261,0,0
231,-237,0,0,0,0,0,0,0,0,0,-1,1455,1261,0,0
238,-237,0,0,0,0,0,0,0,0,0,-1,1462,1261,0,0
245,-237,0,0,0,0,0,0,0,0,0,-1,1469,1261,0,0
252,-237,0,0,0,0,0,0,0,0,0,-1,1476,1261,0,0
259,-237,0,0,0,0,0,0,0,0,0,-1,1483,1261,0,0
266,-237,0,0,0,0,0,0,0,0,0,-1,1490,1261,0,0
273,-237,0,0,0,0,0,0,0,0,0,-1,1497,1261,0,0
280,-237,0,0,0,0,0,0,0,0,0,-1,1504,1261,0,0
287,-237,0,0,0,0,0,0,0,0,0,-1,1511,1261,0,0
294,-237,0,0,0,0,0,0,0,0,0,-1,1518,1261,0,0
301,-237,0,0,0,0,0,0,0,0,0,-1,1525,1261,0,0
308,-237,0,0,0,0,0,0,0,0,0,-1,1532,1261,0,0
315,-237,0,0,0,0,0,0,0,0,0,-1,1539,1261,0,0
322,-237,0,0,0,0,0,0,0,0,0,-1,1546,1261,0,0
329,-237,0,0,0,0,0,0,0,0,0,-1,1553,1261,0,0
336,-237,0,0,0,0,0,0,0,0,0,-1,1560,1261,0,0
343,-237,0,0,0,0,0,0,0,0,0,-1,1567,1261,0,0
350,-237,0,0,0,0,0,0,0,0,0,-1,1574,1261,0,0
357,-237,0,0,0,0,0,0,0,0,0,-1,1581,1261,0,0
364,-237,0,0,0,0,0,0,0,0,0,-1,1588,1261,0,0
371,-237,0,0,0,0,0,0,0,0,0,-1,1595,1261,0,0
378,-237,0,0,0,0,0,0,0,0,0,-1,1602,1261,0,0
385,-237,0,0,0,0,0,0,0,0,0,-1,1609,1261,0,0
392,-237,0,0,0,0,0,0,0,0,0,-1,1616,1261,0,0
399,-237,0,0,0,0,0,0,0,0,0,-1,1623,1261,0,0
406,-237,0,0,0,0,0,0,0,0,0,-1,1630,1261,0,0
413,-237,0,0,0,0,0,0,0,0,0,-1,1637,1261,0,0
420,-237,0,0,0,0,0,0,0,0,0,-1,1644,1261,0,0
427,-237,0,0,0,0,0,0,0,0,0,-1,1651,1261,0,0
434,-237,0,0,0,0,0,0,0,0,0,-1,1658,1261,0,0
441,-237,0,0,0,0,0,0,0,0,0,-1,1665,1261,0,0
448,-237,0,0,0,0,0,0,0,0,0,-1,1672,1261,0,0
455,-237,0,0,0,0,0,0,0,0,0,-1,1679,1261,0,0
462,-237,0,0,0,0,0,0,0,0,0,-1,1686,1261,0,0
469,-237,0,0,0,0,0,0,0,0,0,-1,1693,1261,0,0
476,-237,0,0,0,0,0,0,0,0,0,-1,1700,1261,0,0
483,-237,0,0,0,0,0,0,0,0,0,-1,1707,1261,0,0
490,-237,0,0,0,0,0,0,0,0,0,-1,1714,1261,0,0
497,-237,0,0,0,0,0,0,0,0,0,-1,1721,1261,0,0
504,-237,0,0,0,0,0,0,0,0,0,-1,1728,1261,0,0
511,-237,0,0,0,0,0,0,0,0,0,-1,1735,1261,0,0
518,-237,0,0,0,0,0,0,0,0,0,-1,1742,1261,0,0
525,-237,0,0,0,0,0,0,0,0,0,-1,1749,1261,0,0
532,-237,0,0,0,0,0,0,0,0,0,-1,1756,1261,0,0
539,-237,0,0,0,0,0,0,0,0,0,-1,1763,1261,0,0
546,-237,0,0,0,0,0,0,0,0,0,-1,1770,1261,0,0
553,-237,0,0,0,0,0,0,0,0,0,-1,1777,1261,0,0
560,-237,0,0,0,0,0,0,0,0,0,-1,1784,1261,0,0
567,-237,0,0,0,0,0,0,0,0,0,-1,1791,1261,0,0
574,-237,0,0,0,0,0,0,0,0,0,-1,1798,1261,0,0
581,-237,0,0,0,0,0,0,0,0,0,-1,1805,1261,0,0
588,-237,0,0,0,0,0,0,0,0,0,-1,1812,1261,0,0
595,-237,0,0,0,0,0,0,0,0,0,-1,1819,1261,0,0
602,-237,0,0,0,0,0,0,0,0,0,-1,1826,1261,0,0
609,-237,0,0,0,0,0,0,0,0,0,-1,1833,1261,0,0
616,-237,64.1348,2.67017,0.000164236,0.00331857,-0.000404473,0.00336961,0.000113197,-1.44527,0.00220964,0.0335039,1840,1261,64.1348,-2.6702
623,-237,64.0962,2.69922,-0.00312499,0.00333893,0.000225335,0.00334678,-0.00313284,1.53599,0.00374169,0.0326017,1847,1261,64.0962,-2.6992
630,-237,64.0525,2.65735,-0.00657054,0.00313664,0.000714816,0.00318899,-0.0066229,1.49768,0.00577938,0.0270818,1854,1261,64.0525,-2.65733
637,-237,64.0175,2.57922,-0.00917176,0.00262305,0.00107571,0.00272036,-0.00926907,1.48059,0.00725814,0.0203956,1861,1261,64.0175,-2.57923
644,-237,63.9236,2.44568,-0.00907187,0.00202606,0.000861508,0.00209254,-0.00913835,1.49378,0.00689639,0.0402904,1868,1261,63.9236,-2.44567
651,-237,63.8208,2.30176,0,0,0,0,0,0,0,-1,1875,1261,63.8208,-2.3018
658,-237,62.9901,2.01404,0,0,0,0,0,0,0,-1,1882,1261,62.9901,-2.01406
665,-237,57.9302,3.30676,0,0,0,0,0,0,0,-1,1889,1261,57.9302,-3.30671
672,-237,45.3922,1.95618,0,0,0,0,0,0,0,-1,1896,1261,45.3922,-1.95623
679,-237,23.1501,7.37488,0,0,0,0,0,0,0,-1,1903,1261,23.1502,-7.37493
686,-237,36.8348,9.99426,0,0,0,0,0,0,0,-1,1910,1261,36.8349,-9.99424
693,-237,48.4635,11.9631,0,0,0,0,0,0,0,-1,1917,1261,48.4635,-11.9632
700,-237,48.4193,11.3755,0.000157812,-0.000889584,-8.70983e-05,0.000165005,-0.000896777,-0.0824028,0.000659767,0.0235413,1924,1261,48.4193,-11.3755
707,-237,48.3759,10.7754,0.000824094,-0.000486167,-0.000192597,0.000851818,-0.00051389,-0.142963,0.000796497,0.0130991,1931,1261,48.3759,-10.7754
714,-237,48.3516,10.1414,0.000180889,-0.000612552,0.000524839,0.000442077,-0.000873739,0.461768,0.000773193,0.0162045,1938,1261,48.3516,-10.1414
721,-237,48.2819,9.55762,-0.000758488,-0.000566025,0.00126533,0.000606728,-0.00193124,0.823351,0.00153037,0.0181308,1945,1261,48.2819,-9.55767
728,-237,48.2809,8.94055,-0.00200823,-0.000227287,0.00188987,0.000971394,-0.00320692,1.00556,0.00252482,0.0154095,1952,1261,48.2809,-8.9406
735,-237,48.2551,8.34399,-0.0033755,0.000300676,0.00230646,0.00141188,-0.00448671,1.12183,0.00355644,0.0197206,1959,1261,48.2551,-8.34403
742,-237,48.2313,7.75806,-0.00478796,0.00111046,0.00245968,0.00200155,-0.00567904,1.22323,0.00460071,0.0151869,1966,1261,48.2314,-7.75811
749,-237,48.172,7.1532,-0.00620926,0.0024091,0.00213497,0.00290898,-0.00670915,1.3408,0.00569568,0.010702,1973,1261,48.172,-7.15321
756,-237,48.0981,6.58643,-0.00766542,0.00452023,0.0010513,0.00461026,-0.00775546,1.48536,0.00721592,0.0179444,1980,1261,48.0982,-6.58641
763,-237,47.837,6.00146,-0.0090747,0.00785937,-0.00138941,0.00797261,-0.00918794,-1.48947,0.00991592,0.0362771,1987,1261,47.8371,-6.00146
770,-237,47.7819,4.9812,-0.0104725,0.0133923,-0.00609845,0.0148604,-0.0119406,-1.33456,0.0155041,0.0455092,1994,1261,47.7818,-4.98121
777,-237,47.9463,3.87476,0,0,0,0,0,0,0,-1,2001,1261,47.9464,-3.8747
784,-237,36.3441,1.68591,0,0,0,0,0,0,0,-1,2008,1261,36.3441,-1.68592
791,-237,32.3025,6.03235,0,0,0,0,0,0,0,-1,2015,1261,32.3025,-6.03229
798,-237,0,0,0,0,0,0,0,0,0,-1,2022,1261,0,0
805,-237,0,0,0,0,0,0,0,0,0,-1,2029,1261,0,0
812,-237,0,0,0,0,0,0,0,0,0,-1,2036,1261,0,0
-700,-244,0,0,0,0,0,0,0,0,0,-1,524,1268,0,0
-693,-244,0,0,0,0,0,0,0,0,0,-1,531,1268,0,0
-686,-244,0,0,0,0,0,0,0,0,0,-1,538,1268,0,0
-679,-244,0,0,0,0,0,0,0,0,0,-1,545,1268,0,0
-672,-244,-44.7993,4.39575,0,0,0,0,0,0,0,-1,552,1268,-44.7992,-4.39576
-665,-244,-46.0868,3.64392,0,0,0,0,0,0,0,-1,559,1268,-46.0868,-3.64391
-658,-244,-45.9758,2.05481,0,0,0,0,0,0,0,-1,566,1268,-45.9758,-2.05486
-651,-244,-46.4749,1.28564,0,0,0,0,0,0,0,-1,573,1268,-46.4749,-1.28561
-644,-244,-46.7867,0.636597,0,0,0,0,0,0,0,-1,580,1268,-46.7868,-0.636553
-637,-244,-31.66,2.37195,0,0,0,0,0,0,0,-1,587,1268,-31.66,-2.37195
-630,-244,-31.3704,3.8501,0,0,0,0,0,0,0,-1,594,1268,-31.3704,-3.85014
-623,-244,-31.3502,4.45313,0.00531369,0.00142158,0.00117265,0.00563969,0.00109558,0.271155,0.00345303,0.0370206,601,1268,-31.3502,-4.45307
-616,-244,-31.3317,5.05017,0.00319391,0.00303922,0.000713549,0.00383429,0.00239884,0.731412,0.0022369,0.0165321,608,1268,-31.3317,-5.05012
-609,-244,-31.3555,5.68848,0.00237477,0.00236886,0.000403105,0.00277493,0.0019687,0.781734,0.0016483,0.015145,615,1268,-31.3555,-5.68844
-602,-244,-31.3939,6.33618,0.0017404,0.00140571,0.000118581,0.00177816,0.00136796,0.308237,0.00107511,0.0159792,622,1268,-31.3939,-6.33622
-595,-244,-31.4406,7.02014,0.0012296,0.000349212,-0.000190773,0.00126916,0.000309651,-0.204476,0.000764098,0.0173338,629,1268,-31.4406,-7.02017
-588,-244,-31.4288,7.72107,0.000860706,-0.000731847,-0.000479408,0.000993885,-0.000865027,-0.270967,0.0010741,0.0217979,636,1268,-31.4287,-7.72107
-581,-244,-31.4766,8.31763,0.00051835,-0.00176475,-0.000674093,0.000702522,-0.00194892,-0.266705,0.00158619,0.0187895,643,1268,-31.4766,-8.31758
-574,-244,-31.5137,8.93591,-0.000136342,-0.0022574,-0.000525539,-1.32699e-05,-0.00238048,-0.230038,0.00158258,0.0163805,650,1268,-31.5137,-8.9359
-567,-244,-31.5502,9.59131,-0.000864836,-0.00237059,2.64378e-05,-0.000864372,-0.00237105,0.0175506,0.00138557,0.0274642,657,1268,-31.5502,-9.59133
-560,-244,-31.4929,10.1846,-0.0016359,-0.00167739,0.000356684,-0.00129935,-0.00201393,0.756352,0.00117897,0.0446114,664,1268,-31.4929,-10.1846
-553,-244,-31.359,10.7892,0,0,0,0,0,0,0,-1,671,1268,-31.359,-10.7892
-546,-244,-11.2686,4.41772,0,0,0,0,0,0,0,-1,678,1268,-11.2686,-4.41767
-539,-244,-12.8706,0.3302,0,0,0,0,0,0,0,-1,685,1268,-12.8706,-0.330156
-532,-244,-18.1502,0.816528,0,0,0,0,0,0,0,-1,692,1268,-18.1502,-0.816514
-525,-244,-33.0835,0.693604,0,0,0,0,0,0,0,-1,699,1268,-33.0835,-0.69365
-518,-244,-47.5015,0.609131,0,0,0,0,0,0,0,-1,706,1268,-47.5015,-0.60919
-511,-244,-48.2534,1.25195,0,0,0,0,0,0,0,-1,713,1268,-48.2533,-1.25195
-504,-244,-48.4597,1.23999,0,0,0,0,0,0,0,-1,720,1268,-48.4597,-1.23996
-497,-244,-48.6192,1.40344,0,0,0,0,0,0,0,-1,727,1268,-48.6192,-1.40347
-490,-244,0,0,0,0,0,0,0,0,0,-1,734,1268,0,0
-483,-244,0,0,0,0,0,0,0,0,0,-1,741,1268,0,0
-476,-244,0,0,0,0,0,0,0,0,0,-1,748,1268,0,0
-469,-244,0,0,0,0,0,0,0,0,0,-1,755,1268,0,0
-462,-244,0,0,0,0,0,0,0,0,0,-1,762,1268,0,0
-455,-244,0,0,0,0,0,0,0,0,0,-1,769,1268,0,0
-448,-244,0,0,0,0,0,0,0,0,0,-1,776,1268,0,0
-441,-244,0,0,0,0,0,0,0,0,0,-1,783,1268,0,0
-434,-244,0,0,0,0,0,0,0,0,0,-1,790,1268,0,0
-427,-244,0,0,0,0,0,0,0,0,0,-1,797,1268,0,0
-420,-244,0,0,0,0,0,0,0,0,0,-1,804,1268,0,0
-413,-244,0,0,0,0,0,0,0,0,0,-1,811,1268,0,0
-406,-244,0,0,0,0,0,0,0,0,0,-1,818,1268,0,0
-399,-244,0,0,0,0,0,0,0,0,0,-1,825,1268,0,0
-392,-244,0,0,0,0,0,0,0,0,0,-1,832,1268,0,0
-385,-244,0,0,0,0,0,0,0,0,0,-1,839,1268,0,0
-378,-244,0,0,0,0,0,0,0,0,0,-1,846,1268,0,0
-371,-244,0,0,0,0,0,0,0,0,0,-1,853,1268,0,0
-364,-244,0,0,0,0,0,0,0,0,0,-1,860,1268,0,0
-357,-244,0,0,0,0,0,0,0,0,0,-1,867,1268,0,0
-350,-244,0,0,0,0,0,0,0,0,0,-1,874,1268,0,0
-343,-244,0,0,0,0,0,0,0,0,0,-1,881,1268,0,0
-336,-244,0,0,0,0,0,0,0,0,0,-1,888,1268,0,0
-329,-244,0,0,0,0,0,0,0,0,0,-1,895,1268,0,0
-322,-244,0,0,0,0,0,0,0,0,0,-1,902,1268,0,0
-315,-244,0,0,0,0,0,0,0,0,0,-1,909,1268,0,0
-308,-244,0,0,0,0,0,0,0,0,0,-1,916,1268,0,0
-301,-244,0,0,0,0,0,0,0,0,0,-1,923,1268,0,0
-294,-244,0,0,0,0,0,0,0,0,0,-1,930,1268,0,0
-287,-244,0,0,0,0,0,0,0,0,0,-1,937,1268,0,0
-280,-244,0,0,0,0,0,0,0,0,0,-1,944,1268,0,0
-273,-244,0,0,0,0,0,0,0,0,0,-1,951,1268,0,0
-266,-244,0,0,0,0,0,0,0,0,0,-1,958,1268,0,0
-259,-244,0,0,0,0,0,0,0,0,0,-1,965,1268,0,0
-252,-244,0,0,0,0,0,0,0,0,0,-1,972,1268,0,0
-245,-244,0,0,0,0,0,0,0,0,0,-1,979,1268,0,0
-238,-244,0,0,0,0,0,0,0,0,0,-1,986,1268,0,0
-231,-244,0,0,0,0,0,0,0,0,0,-1,993,1268,0,0
-224,-244,0,0,0,0,0,0,0,0,0,-1,1000,1268,0,0
-217,-244,0,0,0,0,0,0,0,0,0,-1,1007,1268,0,0
-210,-244,0,0,0,0,0,0,0,0,0,-1,1014,1268,0,0
-203,-244,0,0,0,0,0,0,0,0,0,-1,1021,1268,0,0
-196,-244,0,0,0,0,0,0,0,0,0,-1,1028,1268,0,0
-189,-244,0,0,0,0,0,0,0,0,0,-1,1035,1268,0,0
-182,-244,0,0,0,0,0,0,0,0,0,-1,1042,1268,0,0
-175,-244,0,0,0,0,0,0,0,0,0,-1,1049,1268,0,0
-168,-244,0,0,0,0,0,0,0,0,0,-1,1056,1268,0,0
-161,-244,0,0,0,0,0,0,0,0,0,-1,1063,1268,0,0
-154,-244,0,0,0,0,0,0,0,0,0,-1,1070,1268,0,0
-147,-244,0,0,0,0,0,0,0,0,0,-1,1077,1268,0,0
-140,-244,0,0,0,0,0,0,0,0,0,-1,1084,1268,0,0
-133,-244,0,0,0,0,0,0,0,0,0,-1,1091,1268,0,0
-126,-244,0,0,0,0,0,0,0,0,0,-1,1098,1268,0,0
-119,-244,0,0,0,0,0,0,0,0,0,-1,1105,1268,0,0
-112,-244,0,0,0,0,0,0,0,0,0,-1,1112,1268,0,0
-105,-244,0,0,0,0,0,0,0,0,0,-1,1119,1268,0,0
-98,-244,0,0,0,0,0,0,0,0,0,-1,1126,1268,0,0
-91,-244,0,0,0,0,0,0,0,0,0,-1,1133,1268,0,0
-84,-244,0,0,0,0,0,0,0,0,0,-1,1140,1268,0,0
-77,-244,0,0,0,0,0,0,0,0,0,-1,1147,1268,0,0
-70,-244,0,0,0,0,0,0,0,0,0,-1,1154,1268,0,0
-63,-244,0,0,0,0,0,0,0,0,0,-1,1161,1268,0,0
-56,-244,0,0,0,0,0,0,0,0,0,-1,1168,1268,0,0
-49,-244,0,0,0,0,0,0,0,0,0,-1,1175,1268,0,0
-42,-244,0,0,0,0,0,0,0,0,0,-1,1182,1268,0,0
-35,-244,0,0,0,0,0,0,0,0,0,-1,1189,1268,0,0
-28,-244,0,0,0,0,0,0,0,0,0,-1,1196,1268,0,0
-21,-244,0,0,0,0,0,0,0,0,0,-1,1203,1268,0,0
-14,-244,0,0,0,0,0,0,0,0,0,-1,1210,1268,0,0
-7,-244,0,0,0,0,0,0,0,0,0,-1,1217,1268,0,0
0,-244,0,0,0,0,0,0,0,0,0,-1,1224,1268,0,0
7,-244,0,0,0,0,0,0,0,0,0,-1,1231,1268,0,0
14,-244,0,0,0,0,0,0,0,0,0,-1,1238,1268,0,0
21,-244,0,0,0,0,0,0,0,0,0,-1,1245,1268,0,0
28,-244,0,0,0,0,0,0,0,0,0,-1,1252,1268,0,0
35,-244,0,0,0,0,0,0,0,0,0,-1,1259,1268,0,0
42,-244,0,0,0,0,0,0,0,0,0,-1,1266,1268,0,0
49,-244,0,0,0,0,0,0,0,0,0,-1,1273,1268,0,0
56,-244,0,0,0,0,0,0,0,0,0,-1,1280,1268,0,0
63,-244,0,0,0,0,0,0,0,0,0,-1,1287,1268,0,0
70,-244,0,0,0,0,0,0,0,0,0,-1,1294,1268,0,0
77,-244,0,0,0,0,0,0,0,0,0,-1,1301,1268,0,0
84,-244,0,0,0,0,0,0,0,0,0,-1,1308,1268,0,0
91,-244,0,0,0,0,0,0,0,0,0,-1,1315,1268,0,0
98,-244,0,0,0,0,0,0,0,0,0,-1,1322,1268,0,0
105,-244,0,0,0,0,0,0,0,0,0,-1,1329,1268,0,0
112,-244,0,0,0,0,0,0,0,0,0,-1,1336,1268,0,0
119,-244,0,0,0,0,0,0,0,0,0,-1,1343,1268,0,0
126,-244,0,0,0,0,0,0,0,0,0,-1,1350,1268,0,0
133,-244,0,0,0,0,0,0,0,0,0,-1,1357,1268,0,0
140,-244,0,0,0,0,0,0,0,0,0,-1,1364,1268,0,0
147,-244,0,0,0,0,0,0,0,0,0,-1,1371,1268,0,0
154,-244,0,0,0,0,0,0,0,0,0,-1,1378,1268,0,0
161,-244,0,0,0,0,0,0,0,0,0,-1,1385,1268,0,0
168,-244,0,0,0,0,0,0,0,0,0,-1,1392,1268,0,0
175,-244,0,0,0,0,0,0,0,0,0,-1,1399,1268,0,0
182,-244,0,0,0,0,0,0,0,0,0,-1,1406,1268,0,0
189,-244,0,0,0,0,0,0,0,0,0,-1,1413,1268,0,0
196,-244,0,0,0,0,0,0,0,0,0,-1,1420,1268,0,0
203,-244,0,0,0,0,0,0,0,0,0,-1,1427,1268,0,0
210,-244,0,0,0,0,0,0,0,0,0,-1,1434,1268,0,0
217,-244,0,0,0,0,0,0,0,0,0,-1,1441,1268,0,0
224,-244,0,0,0,0,0,0,0,0,0,-1,1448,1268,0,0
231,-244,0,0,0,0,0,0,0,0,0,-1,1455,1268,0,0
238,-244,0,0,0,0,0,0,0,0,0,-1,1462,1268,0,0
245,-244,0,0,0,0,0,0,0,0,0,-1,1469,1268,0,0
252,-244,0,0,0,0,0,0,0,0,0,-1,1476,1268,0,0
259,-244,0,0,0,0,0,0,0,0,0,-1,1483,1268,0,0
266,-244,0,0,0,0,0,0,0,0,0,-1,1490,1268,0,0
273,-244,0,0,0,0,0,0,0,0,0,-1,1497,1268,0,0
280,-244,0,0,0,0,0,0,0,0,0,-1,1504,1268,0,0
287,-244,0,0,0,0,0,0,0,0,0,-1,1511,1268,0,0
294,-244,0,0,0,0,0,0,0,0,0,-1,1518,1268,0,0
301,-244,0,0,0,0,0,0,0,0,0,-1,1525,1268,0,0
308,-244,0,0,0,0,0,0,0,0,0,-1,1532,1268,0,0
315,-244,0,0,0,0,0,0,0,0,0,-1,1539,1268,0,0
322,-244,0,0,0,0,0,0,0,0,0,-1,1546,1268,0,0
329,-244,0,0,0,0,0,0,0,0,0,-1,1553,1268,0,0
336,-244,0,0,0,0,0,0,0,0,0,-1,1560,1268,0,0
343,-244,0,0,0,0,0,0,0,0,0,-1,1567,1268,0,0
350,-244,0,0,0,0,0,0,0,0,0,-1,1574,1268,0,0
357,-244,0,0,0,0,0,0,0,0,0,-1,1581,1268,0,0
364,-244,0,0,0,0,0,0,0,0,0,-1,1588,1268,0,0
371,-244,0,0,0,0,0,0,0,0,0,-1,1595,1268,0,0
378,-244,0,0,0,0,0,0,0,0,0,-1,1602,1268,0,0
385,-244,0,0,0,0,0,0,0,0,0,-1,1609,1268,0,0
392,-244,0,0,0,0,0,0,0,0,0,-1,1616,1268,0,0
399,-244,0,0,0,0,0,0,0,0,0,-1,1623,1268,0,0
406,-244,0,0,0,0,0,0,0,0,0,-1,1630,1268,0,0
413,-244,0,0,0,0,0,0,0,0,0,-1,1637,1268,0,0
420,-244,0,0,0,0,0,0,0,0,0,-1,1644,1268,0,0
427,-244,0,0,0,0,0,0,0,0,0,-1,1651,1268,0,0
434,-244,0,0,0,0,0,0,0,0,0,-1,1658,1268,0,0
441,-244,0,0,0,0,0,0,0,0,0,-1,1665,1268,0,0
448,-244,0,0,0,0,0,0,0,0,0,-1,1672,1268,0,0
455,-244,0,0,0,0,0,0,0,0,0,-1,1679,1268,0,0
462,-244,0,0,0,0,0,0,0,0,0,-1,1686,1268,0,0
469,-244,0,0,0,0,0,0,0,0,0,-1,1693,1268,0,0
476,-244,0,0,0,0,0,0,0,0,0,-1,1700,1268,0,0
483,-244,0,0,0,0,0,0,0,0,0,-1,1707,1268,0,0
490,-244,0,0,0,0,0,0,0,0,0,-1,1714,1268,0,0
497,-244,0,0,0,0,0,0,0,0,0,-1,1721,1268,0,0
504,-244,0,0,0,0,0,0,0,0,0,-1,1728,1268,0,0
511,-244,0,0,0,0,0,0,0,0,0,-1,1735,1268,0,0
518,-244,0,0,0,0,0,0,0,0,0,-1,1742,1268,0,0
525,-244,0,0,0,0,0,0,0,0,0,-1,1749,1268,0,0
532,-244,0,0,0,0,0,0,0,0,0,-1,1756,1268,0,0
539,-244,0,0,0,0,0,0,0,0,0,-1,1763,1268,0,0
546,-244,0,0,0,0,0,0,0,0,0,-1,1770,1268,0,0
553,-244,0,0,0,0,0,0,0,0,0,-1,1777,1268,0,0
560,-244,0,0,0,0,0,0,0,0,0,-1,1784,1268,0,0
567,-244,0,0,0,0,0,0,0,0,0,-1,1791,1268,0,0
574,-244,0,0,0,0,0,0,0,0,0,-1,1798,1268,0,0
581,-244,0,0,0,0,0,0,0,0,0,-1,1805,1268,0,0
588,-244,0,0,0,0,0,0,0,0,0,-1,1812,1268,0,0
595,-244,0,0,0,0,0,0,0,0,0,-1,1819,1268,0,0
602,-244,0,0,0,0,0,0,0,0,0,-1,1826,1268,0,0
609,-244,0,0,0,0,0,0,0,0,0,-1,1833,1268,0,0
616,-244,64.0991,2.58972,-0.00100557,0.0045355,-0.000532987,0.0045863,-0.00105637,-1.47577,0.00346378,0.0311906,1840,1268,64.0991,-2.58968
623,-244,64.049,2.60645,-0.00482636,0.00445232,0.000314487,0.00446297,-0.004837,1.53695,0.00537079,0.0254017,1847,1268,64.0489,-2.60646
630,-244,64.0071,2.61267,-0.00894434,0.00407221,0.00110803,0.00416586,-0.00903798,1.48648,0.00779431,0.0240846,1854,1268,64.0071,-2.61262
637,-244,64.0056,2.58032,-0.0110333,0.00320267,0.00155225,0.00336995,-0.0112006,1.46344,0.00880798,0.0372948,1861,1268,64.0056,-2.58028
644,-244,63.7213,2.36597,-0.010207,0.00236099,0.0012395,0.00248207,-0.0103281,1.47342,0.00784475,0.0418474,1868,1268,63.7214,-2.36599
651,-244,63.4791,2.32239,-0.00860019,0.00167477,0.00100249,0.00177166,-0.00869709,1.47444,0.00646998,0.0442223,1875,1268,63.4791,-2.32243
658,-244,63.3998,2.12268,0,0,0,0,0,0,0,-1,1882,1268,63.3998,-2.12265
665,-244,50.7988,1.09888,0,0,0,0,0,0,0,-1,1889,1268,50.7989,-1.09893
672,-244,32.224,3.6123,0,0,0,0,0,0,0,-1,1896,1268,32.224,-3.6123
679,-244,27.2593,7.90649,0,0,0,0,0,0,0,-1,1903,1268,27.2592,-7.9065
686,-244,47.7026,12.738,0,0,0,0,0,0,0,-1,1910,1268,47.7027,-12.738
693,-244,47.6758,12.1296,-0.00214366,-0.0008631,0.000599016,-0.000626579,-0.00238018,1.19474,0.00142462,0.0333924,1917,1268,47.6758,-12.1296
700,-244,47.7399,11.455,-4.16136e-05,-0.00102383,2.34534e-05,-4.10539e-05,-0.00102439,0.0238599,0.000669661,0.0113295,1924,1268,47.7399,-11.455
707,-244,47.7598,10.8276,0.000594446,-0.000482994,-4.67937e-05,0.000596474,-0.000485023,-0.0433217,0.000625507,0.010972,1931,1268,47.7598,-10.8277
714,-244,47.8132,10.1877,-0.000214186,-0.000592597,0.000773036,0.000392462,-0.00119924,0.665379,0.000957514,0.0154077,1938,1268,47.8132,-10.1877
721,-244,47.7198,9.60229,-0.00126212,-0.000495555,0.00150908,0.000678153,-0.00243583,0.909761,0.00189092,0.0211964,1945,1268,47.7199,-9.60223
728,-244,47.6539,8.94763,-0.00255744,-0.000211336,0.0021736,0.00108555,-0.00385432,1.03284,0.00299765,0.0266422,1952,1268,47.654,-8.94769
735,-244,47.6031,8.31018,-0.00397368,0.000250026,0.00265363,0.00152958,-0.00525323,1.1215,0.00410806,0.0282805,1959,1268,47.6032,-8.31014
742,-244,47.5396,7.77869,-0.00547998,0.00101583,0.00285621,0.00209307,-0.00655721,1.21014,0.00521121,0.0188176,1966,1268,47.5395,-7.77865
749,-244,47.3892,7.27966,-0.00705526,0.00233928,0.00251817,0.00297169,-0.00768768,1.32475,0.00635179,0.0257607,1973,1268,47.3891,-7.27969
756,-244,47.1377,6.79175,-0.00874819,0.0045771,0.0013424,0.00471099,-0.00888208,1.47139,0.00797017,0.0345877,1980,1268,47.1376,-6.79171
763,-244,47.2528,5.91858,0,0,0,0,0,0,0,-1,1987,1268,47.2528,-5.91857
770,-244,48.5117,4.18066,0,0,0,0,0,0,0,-1,1994,1268,48.5117,-4.18061
777,-244,48.7119,2.7002,0,0,0,0,0,0,0,-1,2001,1268,48.712,-2.70019
784,-244,31.7908,5.20081,0,0,0,0,0,0,0,-1,2008,1268,31.7907,-5.20083
791,-244,0,0,0,0,0,0,0,0,0,-1,2015,1268,0,0
798,-244,0,0,0,0,0,0,0,0,0,-1,2022,1268,0,0
805,-244,0,0,0,0,0,0,0,0,0,-1,2029,1268,0,0
812,-244,0,0,0,0,0,0,0,0,0,-1,2036,1268,0,0
-700,-251,0,0,0,0,0,0,0,0,0,-1,524,1275,0,0
-693,-251,0,0,0,0,0,0,0,0,0,-1,531,1275,0,0
-686,-251,0,0,0,0,0,0,0,0,0,-1,538,1275,0,0
-679,-251,0,0,0,0,0,0,0,0,0,-1,545,1275,0,0
-672,-251,0,0,0,0,0,0,0,0,0,-1,552,1275,0,0
-665,-251,-45.2521,2.44568,0,0,0,0,0,0,0,-1,559,1275,-45.2521,-2.44573
-658,-251,-45.5222,1.44397,0,0,0,0,0,0,0,-1,566,1275,-45.5221,-1.44401
-651,-251,-45.8498,0.382935,0,0,0,0,0,0,0,-1,573,1275,-45.8498,-0.382965
-644,-251,-46.2018,-0.658325,0,0,0,0,0,0,0,-1,580,1275,-46.2019,0.658365
-637,-251,-46.0234,0.199341,0,0,0,0,0,0,0,-1,587,1275,-46.0234,-0.199393
-630,-251,-30.8057,3.90491,0,0,0,0,0,0,0,-1,594,1275,-30.8057,-3.90494
-623,-251,-30.7409,4.47168,0.00669805,0.00291576,0.00237447,0.00784245,0.00177136,0.449112,0.00474927,0.0416717,601,1275,-30.7409,-4.47173
-616,-251,-30.655,5.04944,0.00479816,0.00352256,0.00170716,0.00598277,0.00233794,0.606626,0.00348152,0.0199955,608,1275,-30.655,-5.04939
-609,-251,-30.7122,5.69177,0.00354657,0.00285535,0.00111919,0.0043723,0.00202962,0.635642,0.0025265,0.0196056,615,1275,-30.7122,-5.6918
-602,-251,-30.7269,6.35938,0.00264283,0.00186206,0.000683943,0.00303996,0.00146493,0.526066,0.0017555,0.0145024,622,1275,-30.7269,-6.35934
-595,-251,-30.7553,7.02332,0.00195114,0.000806459,0.000287382,0.00201924,0.000738361,0.23267,0.00117975,0.013059,629,1275,-30.7553,-7.02328
-588,-251,-30.7828,7.67407,0.00149748,-0.000302508,-3.74923e-05,0.00149826,-0.000303288,-0.0208171,0.00111379,0.0153799,636,1275,-30.7828,-7.67405
-581,-251,-30.8075,8.32666,0.00118537,-0.00142113,-0.000271748,0.0012134,-0.00144916,-0.102785,0.00153924,0.0147184,643,1275,-30.8075,-8.32664
-574,-251,-30.8312,9.01111,0.000732792,-0.00221728,-0.000269619,0.000757231,-0.00224172,-0.0903961,0.00180077,0.0140842,650,1275,-30.8311,-9.01113
-567,-251,-30.8771,9.70178,0.000226978,-0.0026905,7.92135e-05,0.000229127,-0.00269265,0.0271247,0.00187615,0.0219311,657,1275,-30.8771,-9.70181
-560,-251,-30.8259,10.5741,-0.000495968,-0.00213974,0.000326392,-0.00043353,-0.00220218,0.189013,0.00134707,0.0444422,664,1275,-30.826,-10.5741
-553,-251,-30.6689,11.3051,0,0,0,0,0,0,0,-1,671,1275,-30.6689,-11.305
-546,-251,-12.995,4.5675,0,0,0,0,0,0,0,-1,678,1275,-12.995,-4.56745
-539,-251,-10.7916,0.366333,0,0,0,0,0,0,0,-1,685,1275,-10.7916,-0.366282
-532,-251,-10.7391,-0.00769043,0,0,0,0,0,0,0,-1,692,1275,-10.7391,0.00773227
-525,-251,-29.4286,-0.250244,0,0,0,0,0,0,0,-1,699,1275,-29.4286,0.250266
-518,-251,-32.6981,0.678833,0,0,0,0,0,0,0,-1,706,1275,-32.6981,-0.678787
-511,-251,-29.4731,0.637085,0,0,0,0,0,0,0,-1,713,1275,-29.4731,-0.637025
-504,-251,-30.6428,0.792358,0,0,0,0,0,0,0,-1,720,1275,-30.6427,-0.792335
-497,-251,-46.8842,1.20972,0,0,0,0,0,0,0,-1,727,1275,-46.8842,-1.20969
-490,-251,0,0,0,0,0,0,0,0,0,-1,734,1275,0,0
-483,-251,0,0,0,0,0,0,0,0,0,-1,741,1275,0,0
-476,-251,0,0,0,0,0,0,0,0,0,-1,748,1275,0,0
-469,-251,0,0,0,0,0,0,0,0,0,-1,755,1275,0,0
-462,-251,0,0,0,0,0,0,0,0,0,-1,762,1275,0,0
-455,-251,0,0,0,0,0,0,0,0,0,-1,769,1275,0,0
-448,-251,0,0,0,0,0,0,0,0,0,-1,776,1275,0,0
-441,-251,0,0,0,0,0,0,0,0,0,-1,783,1275,0,0
-434,-251,0,0,0,0,0,0,0,0,0,-1,790,1275,0,0
-427,-251,0,0,0,0,0,0,0,0,0,-1,797,1275,0,0
-420,-251,0,0,0,0,0,0,0,0,0,-1,804,1275,0,0
-413,-251,0,0,0,0,0,0,0,0,0,-1,811,1275,0,0
-406,-251,0,0,0,0,0,0,0,0,0,-1,818,1275,0,0
-399,-251,0,0,0,0,0,0,0,0,0,-1,825,1275,0,0
-392,-251,0,0,0,0,0,0,0,0,0,-1,832,1275,0,0
-385,-251,0,0,0,0,0,0,0,0,0,-1,839,1275,0,0
-378,-251,0,0,0,0,0,0,0,0,0,-1,846,1275,0,0
-371,-251,0,0,0,0,0,0,0,0,0,-1,853,1275,0,0
-364,-251,0,0,0,0,0,0,0,0,0,-1,860,1275,0,0
-357,-251,0,0,0,0,0,0,0,0,0,-1,867,1275,0,0
-350,-251,0,0,0,0,0,0,0,0,0,-1,874,1275,0,0
-343,-251,0,0,0,0,0,0,0,0,0,-1,881,1275,0,0
-336,-251,0,0,0,0,0,0,0,0,0,-1,888,1275,0,0
-329,-251,0,0,0,0,0,0,0,0,0,-1,895,1275,0,0
-322,-251,0,0,0,0,0,0,0,0,0,-1,902,1275,0,0
-315,-251,0,0,0,0,0,0,0,0,0,-1,909,1275,0,0
-308,-251,0,0,0,0,0,0,0,0,0,-1,916,1275,0,0
-301,-251,0,0,0,0,0,0,0,0,0,-1,923,1275,0,0
-294,-251,0,0,0,0,0,0,0,0,0,-1,930,1275,0,0
-287,-251,0,0,0,0,0,0,0,0,0,-1,937,1275,0,0
-280,-251,0,0,0,0,0,0,0,0,0,-1,944,1275,0,0
-273,-251,0,0,0,0,0,0,0,0,0,-1,951,1275,0,0
-266,-251,0,0,0,0,0,0,0,0,0,-1,958,1275,0,0
-259,-251,0,0,0,0,0,0,0,0,0,-1,965,1275,0,0
-252,-251,0,0,0,0,0,0,0,0,0,-1,972,1275,0,0
-245,-251,0,0,0,0,0,0,0,0,0,-1,979,1275,0,0
-238,-251,0,0,0,0,0,0,0,0,0,-1,986,1275,0,0
-231,-251,0,0,0,0,0,0,0,0,0,-1,993,1275,0,0
-224,-251,0,0,0,0,0,0,0,0,0,-1,1000,1275,0,0
-217,-251,0,0,0,0,0,0,0,0,0,-1,1007,1275,0,0
-210,-251,0,0,0,0,0,0,0,0,0,-1,1014,1275,0,0
-203,-251,0,0,0,0,0,0,0,0,0,-1,1021,1275,0,0
-196,-251,0,0,0,0,0,0,0,0,0,-1,1028,1275,0,0
-189,-251,0,0,0,0,0,0,0,0,0,-1,1035,1275,0,0
-182,-251,0,0,0,0,0,0,0,0,0,-1,1042,1275,0,0
-175,-251,0,0,0,0,0,0,0,0,0,-1,1049,1275,0,0
-168,-251,0,0,0,0,0,0,0,0,0,-1,1056,1275,0,0
-161,-251,0,0,0,0,0,0,0,0,0,-1,1063,1275,0,0
-154,-251,0,0,0,0,0,0,0,0,0,-1,1070,1275,0,0
-147,-251,0,0,0,0,0,0,0,0,0,-1,1077,1275,0,0
-140,-251,0,0,0,0,0,0,0,0,0,-1,1084,1275,0,0
-133,-251,0,0,0,0,0,0,0,0,0,-1,1091,1275,0,0
-126,-251,0,0,0,0,0,0,0,0,0,-1,1098,1275,0,0
-119,-251,0,0,0,0,0,0,0,0,0,-1,1105,1275,0,0
-112,-251,0,0,0,0,0,0,0,0,0,-1,1112,1275,0,0
-105,-251,0,0,0,0,0,0,0,0,0,-1,1119,1275,0,0
-98,-251,0,0,0,0,0,0,0,0,0,-1,1126,1275,0,0
-91,-251,0,0,0,0,0,0,0,0,0,-1,1133,1275,0,0
-84,-251,0,0,0,0,0,0,0,0,0,-1,1140,1275,0,0
-77,-251,0,0,0,0,0,0,0,0,0,-1,1147,1275,0,0
-70,-251,0,0,0,0,0,0,0,0,0,-1,1154,1275,0,0
-63,-251,0,0,0,0,0,0,0,0,0,-1,1161,1275,0,0
-56,-251,0,0,0,0,0,0,0,0,0,-1,1168,1275,0,0
-49,-251,0,0,0,0,0,0,0,0,0,-1,1175,1275,0,0
-42,-251,0,0,0,0,0,0,0,0,0,-1,1182,1275,0,0
-35,-251,0,0,0,0,0,0,0,0,0,-1,1189,1275,0,0
-28,-251,0,0,0,0,0,0,0,0,0,-1,1196,1275,0,0
-21,-251,0,0,0,0,0,0,0,0,0,-1,1203,1275,0,0
-14,-251,0,0,0,0,0,0,0,0,0,-1,1210,1275,0,0
-7,-251,0,0,0,0,0,0,0,0,0,-1,1217,1275,0,0
0,-251,0,0,0,0,0,0,0,0,0,-1,1224,1275,0,0
7,-251,0,0,0,0,0,0,0,0,0,-1,1231,1275,0,0
14,-251,0,0,0,0,0,0,0,0,0,-1,1238,1275,0,0
21,-251,0,0,0,0,0,0,0,0,0,-1,1245,1275,0,0
28,-251,0,0,0,0,0,0,0,0,0,-1,1252,1275,0,0
35,-251,0,0,0,0,0,0,0,0,0,-1,1259,1275,0,0
42,-251,0,0,0,0,0,0,0,0,0,-1,1266,1275,0,0
49,-251,0,0,0,0,0,0,0,0,0,-1,1273,1275,0,0
56,-251,0,0,0,0,0,0,0,0,0,-1,1280,1275,0,0
63,-251,0,0,0,0,0,0,0,0,0,-1,1287,1275,0,0
70,-251,0,0,0,0,0,0,0,0,0,-1,1294,1275,0,0
77,-251,0,0,0,0,0,0,0,0,0,-1,1301,1275,0,0
84,-251,0,0,0,0,0,0,0,0,0,-1,1308,1275,0,0
91,-251,0,0,0,0,0,0,0,0,0,-1,1315,1275,0,0
98,-251,0,0,0,0,0,0,0,0,0,-1,1322,1275,0,0
105,-251,0,0,0,0,0,0,0,0,0,-1,1329,1275,0,0
112,-251,0,0,0,0,0,0,0,0,0,-1,1336,1275,0,0
119,-251,0,0,0,0,0,0,0,0,0,-1,1343,1275,0,0
126,-251,0,0,0,0,0,0,0,0,0,-1,1350,1275,0,0
133,-251,0,0,0,0,0,0,0,0,0,-1,1357,1275,0,0
140,-251,0,0,0,0,0,0,0,0,0,-1,1364,1275,0,0
147,-251,0,0,0,0,0,0,0,0,0,-1,1371,1275,0,0
154,-251,0,0,0,0,0,0,0,0,0,-1,1378,1275,0,0
161,-251,0,0,0,0,0,0,0,0,0,-1,1385,1275,0,0
168,-251,0,0,0,0,0,0,0,0,0,-1,1392,1275,0,0
175,-251,0,0,0,0,0,0,0,0,0,-1,1399,1275,0,0
182,-251,0,0,0,0,0,0,0,0,0,-1,1406,1275,0,0
189,-251,0,0,0,0,0,0,0,0,0,-1,1413,1275,0,0
196,-251,0,0,0,0,0,0,0,0,0,-1,1420,1275,0,0
203,-251,0,0,0,0,0,0,0,0,0,-1,1427,1275,0,0
210,-251,0,0,0,0,0,0,0,0,0,-1,1434,1275,0,0
217,-251,0,0,0,0,0,0,0,0,0,-1,1441,1275,0,0
224,-251,0,0,0,0,0,0,0,0,0,-1,1448,1275,0,0
231,-251,0,0,0,0,0,0,0,0,0,-1,1455,1275,0,0
238,-251,0,0,0,0,0,0,0,0,0,-1,1462,1275,0,0
245,-251,0,0,0,0,0,0,0,0,0,-1,1469,1275,0,0
252,-251,0,0,0,0,0,0,0,0,0,-1,1476,1275,0,0
259,-251,0,0,0,0,0,0,0,0,0,-1,1483,1275,0,0
266,-251,0,0,0,0,0,0,0,0,0,-1,1490,1275,0,0
273,-251,0,0,0,0,0,0,0,0,0,-1,1497,1275,0,0
280,-251,0,0,0,0,0,0,0,0,0,-1,1504,1275,0,0
287,-251,0,0,0,0,0,0,0,0,0,-1,1511,1275,0,0
294,-251,0,0,0,0,0,0,0,0,0,-1,1518,1275,0,0
301,-251,0,0,0,0,0,0,0,0,0,-1,1525,1275,0,0
308,-251,0,0,0,0,0,0,0,0,0,-1,1532,1275,0,0
315,-251,0,0,0,0,0,0,0,0,0,-1,1539,1275,0,0
322,-251,0,0,0,0,0,0,0,0,0,-1,1546,1275,0,0
329,-251,0,0,0,0,0,0,0,0,0,-1,1553,1275,0,0
336,-251,0,0,0,0,0,0,0,0,0,-1,1560,1275,0,0
343,-251,0,0,0,0,0,0,0,0,0,-1,1567,1275,0,0
350,-251,0,0,0,0,0,0,0,0,0,-1,1574,1275,0,0
357,-251,0,0,0,0,0,0,0,0,0,-1,1581,1275,0,0
364,-251,0,0,0,0,0,0,0,0,0,-1,1588,1275,0,0
371,-251,0,0,0,0,0,0,0,0,0,-1,1595,1275,0,0
378,-251,0,0,0,0,0,0,0,0,0,-1,1602,1275,0,0
385,-251,0,0,0,0,0,0,0,0,0,-1,1609,1275,0,0
392,-251,0,0,0,0,0,0,0,0,0,-1,1616,1275,0,0
399,-251,0,0,0,0,0,0,0,0,0,-1,1623,1275,0,0
406,-251,0,0,0,0,0,0,0,0,0,-1,1630,1275,0,0
413,-251,0,0,0,0,0,0,0,0,0,-1,1637,1275,0,0
420,-251,0,0,0,0,0,0,0,0,0,-1,1644,1275,0,0
427,-251,0,0,0,0,0,0,0,0,0,-1,1651,1275,0,0
434,-251,0,0,0,0,0,0,0,0,0,-1,1658,1275,0,0
441,-251,0,0,0,0,0,0,0,0,0,-1,1665,1275,0,0
448,-251,0,0,0,0,0,0,0,0,0,-1,1672,1275,0,0
455,-251,0,0,0,0,0,0,0,0,0,-1,1679,1275,0,0
462,-251,0,0,0,0,0,0,0,0,0,-1,1686,1275,0,0
469,-251,0,0,0,0,0,0,0,0,0,-1,1693,1275,0,0
476,-251,0,0,0,0,0,0,0,0,0,-1,1700,1275,0,0
483,-251,0,0,0,0,0,0,0,0,0,-1,1707,1275,0,0
490,-251,0,0,0,0,0,0,0,0,0,-1,1714,1275,0,0
497,-251,0,0,0,0,0,0,0,0,0,-1,1721,1275,0,0
504,-251,0,0,0,0,0,0,0,0,0,-1,1728,1275,0,0
511,-251,0,0,0,0,0,0,0,0,0,-1,1735,1275,0,0
518,-251,0,0,0,0,0,0,0,0,0,-1,1742,1275,0,0
525,-251,0,0,0,0,0,0,0,0,0,-1,1749,1275,0,0
532,-251,0,0,0,0,0,0,0,0,0,-1,1756,1275,0,0
539,-251,0,0,0,0,0,0,0,0,0,-1,1763,1275,0,0
546,-251,0,0,0,0,0,0,0,0,0,-1,1770,1275,0,0
553,-251,0,0,0,0,0,0,0,0,0,-1,1777,1275,0,0
560,-251,0,0,0,0,0,0,0,0,0,-1,1784,1275,0,0
567,-251,0,0,0,0,0,0,0,0,0,-1,1791,1275,0,0
574,-251,0,0,0,0,0,0,0,0,0,-1,1798,1275,0,0
581,-251,0,0,0,0,0,0,0,0,0,-1,1805,1275,0,0
588,-251,0,0,0,0,0,0,0,0,0,-1,1812,1275,0,0
595,-251,0,0,0,0,0,0,0,0,0,-1,1819,1275,0,0
602,-251,0,0,0,0,0,0,0,0,0,-1,1826,1275,0,0
609,-251,64.0948,2.65405,0.00137578,0.00674777,-0.00152311,0.00714956,0.000973992,-1.31288,0.00447717,0.0291784,1833,1275,64.0948,-2.65411
616,-251,64.0684,2.60669,-0.0023771,0.00659338,-0.000352465,0.00660721,-0.00239093,-1.53159,0.00538182,0.0244709,1840,1275,64.0683,-2.60669
623,-251,64.0022,2.58386,-0.00668294,0.00622266,0.000776113,0.00626917,-0.00672945,1.51095,0.00750632,0.0205756,1847,1275,64.0023,-2.5839
630,-251,63.9955,2.56921,-0.0107635,0.00535816,0.00172688,0.00554107,-0.0109464,1.46528,0.00968807,0.0321038,1854,1275,63.9955,-2.56916
637,-251,64.0107,2.53149,-0.0117534,0.00401666,0.00199233,0.00426447,-0.0120012,1.44705,0.00973864,0.0391816,1861,1275,64.0107,-2.53148
644,-251,63.5967,2.49304,-0.0105023,0.00297582,0.00154788,0.0031513,-0.0106778,1.45791,0.00836914,0.0441796,1868,1275,63.5967,-2.49307
651,-251,63.2383,2.55383,-0.00894598,0.00217042,0.00125669,0.00231071,-0.00908627,1.45962,0.00695687,0.0485176,1875,1275,63.2382,-2.55388
658,-251,62.9906,2.47864,0,0,0,0,0,0,0,-1,1882,1275,62.9906,-2.47864
665,-251,32.9579,2.60229,0,0,0,0,0,0,0,-1,1889,1275,32.9579,-2.60231
672,-251,26.0721,4.53064,0,0,0,0,0,0,0,-1,1896,1275,26.0721,-4.53063
679,-251,29.1344,8.63782,0,0,0,0,0,0,0,-1,1903,1275,29.1344,-8.63778
686,-251,47.285,12.6836,0,0,0,0,0,0,0,-1,1910,1275,47.2851,-12.6836
693,-251,47.1688,12.1073,-0.00236707,-0.000959086,0.000849554,-0.000559744,-0.00276641,1.13139,0.0016889,0.0221336,1917,1275,47.1688,-12.1072
700,-251,47.126,11.4785,-1.53302e-05,-0.00103333,0.000196374,2.12374e-05,-0.00106989,0.184105,0.000720445,0.0101958,1924,1275,47.1259,-11.4785
707,-251,47.1382,10.8464,0.000527556,-0.000459882,0.000194799,0.000564596,-0.000496922,0.187902,0.000613283,0.0119558,1931,1275,47.1381,-10.8465
714,-251,47.1511,10.2202,-0.000434993,-0.000626311,0.0010997,0.000573197,-0.0016345,0.742014,0.0013228,0.0153163,1938,1275,47.1511,-10.2202
721,-251,47.0604,9.63538,-0.00160971,-0.000560104,0.00184263,0.000830995,-0.00300081,0.924132,0.00232753,0.0229683,1945,1275,47.0604,-9.63536
728,-251,47.0062,9.06018,-0.00299854,-0.000413901,0.00258686,0.00118548,-0.00459792,1.01705,0.00352748,0.027188,1952,1275,47.0062,-9.0602
735,-251,46.9929,8.34839,-0.00451896,-8.32918e-05,0.00317444,0.00157132,-0.00617357,1.09031,0.00472735,0.0217103,1959,1275,46.993,-8.34837
742,-251,46.9048,7.82983,-0.00616313,0.000567571,0.00348653,0.00204799,-0.00764355,1.16926,0.0058981,0.0199389,1966,1275,46.9048,-7.82979
749,-251,46.6285,7.47253,-0.00793358,0.00183655,0.00321245,0.00279817,-0.00889519,1.27994,0.00705044,0.0394187,1973,1275,46.6285,-7.47257
756,-251,46.1987,6.99084,0,0,0,0,0,0,0,-1,1980,1275,46.1987,-6.99091
763,-251,43.3652,5.7583,0,0,0,0,0,0,0,-1,1987,1275,43.3653,-5.75827
770,-251,49.4386,3.45508,0,0,0,0,0,0,0,-1,1994,1275,49.4386,-3.4551
777,-251,31.5731,4.33252,0,0,0,0,0,0,0,-1,2001,1275,31.5731,-4.33251
784,-251,32.0776,5.78247,0,0,0,0,0,0,0,-1,2008,1275,32.0776,-5.78247
791,-251,0,0,0,0,0,0,0,0,0,-1,2015,1275,0,0
798,-251,0,0,0,0,0,0,0,0,0,-1,2022,1275,0,0
805,-251,0,0,0,0,0,0,0,0,0,-1,2029,1275,0,0
812,-251,0,0,0,0,0,0,0,0,0,-1,2036,1275,0,0
-700,-258,0,0,0,0,0,0,0,0,0,-1,524,1282,0,0
-693,-258,0,0,0,0,0,0,0,0,0,-1,531,1282,0,0
-686,-258,0,0,0,0,0,0,0,0,0,-1,538,1282,0,0
-679,-258,0,0,0,0,0,0,0,0,0,-1,545,1282,0,0
-672,-258,0,0,0,0,0,0,0,0,0,-1,552,1282,0,0
-665,-258,-44.8717,2.03601,0,0,0,0,0,0,0,-1,559,1282,-44.8717,-2.03603
-658,-258,-45.2628,1.20544,0,0,0,0,0,0,0,-1,566,1282,-45.2627,-1.20545
-651,-258,-45.5418,0.0863037,0,0,0,0,0,0,0,-1,573,1282,-45.5418,-0.0863288
-644,-258,-45.1855,0.336792,0,0,0,0,0,0,0,-1,580,1282,-45.1855,-0.336733
-637,-258,-45.329,0.234253,0,0,0,0,0,0,0,-1,587,1282,-45.329,-0.234296
-630,-258,-45.3398,-0.102051,0,0,0,0,0,0,0,-1,594,1282,-45.3399,0.102042
-623,-258,-30.1071,4.46887,0,0,0,0,0,0,0,-1,601,1282,-30.1071,-4.46888
-616,-258,-29.9675,5.03723,0.00650087,0.00405831,0.00255559,0.008112,0.00244718,0.562498,0.00480471,0.0359419,608,1282,-29.9675,-5.0372
-609,-258,-30.0181,5.73181,0.00476401,0.00339162,0.00175985,0.00596671,0.00218891,0.599507,0.00348536,0.0171226,615,1282,-30.0181,-5.7318
-602,-258,-30.0397,6.39783,0.00355275,0.00236794,0.00121703,0.0043139,0.00160679,0.558897,0.00251749,0.0131544,622,1282,-30.0397,-6.39778
-595,-258,-30.0835,7.06311,0.00264253,0.00130792,0.000757662,0.00298485,0.000965598,0.424362,0.00175873,0.0108812,629,1282,-30.0835,-7.06306
-588,-258,-30.1209,7.73059,0.00206123,0.00020134,0.000413289,0.00214894,0.000113638,0.209103,0.00139629,0.0127046,636,1282,-30.1209,-7.73057
-581,-258,-30.1411,8.35535,0.00172848,-0.000947466,0.000177018,0.00174014,-0.000959125,0.0657694,0.00158002,0.0158481,643,1282,-30.1411,-8.35536
-574,-258,-30.1433,9.00867,0.00147367,-0.00195286,0.000118886,0.00147779,-0.00195698,0.0346403,0.00198949,0.0168883,650,1282,-30.1433,-9.00861
-567,-258,-30.211,9.75244,0.00128109,-0.00279026,0.000325487,0.00130695,-0.00281612,0.0792748,0.00243303,0.017107,657,1282,-30.211,-9.75238
-560,-258,-30.2573,10.4775,0.000763969,-0.0026217,0.000503216,0.000837179,-0.00269491,0.144472,0.0021312,0.0478727,664,1282,-30.2573,-10.4775
-553,-258,-30.1935,11.2393,0,0,0,0,0,0,0,-1,671,1282,-30.1935,-11.2392
-546,-258,-14.2231,5.92029,0,0,0,0,0,0,0,-1,678,1282,-14.2231,-5.92028
-539,-258,-10.2228,4.05823,0,0,0,0,0,0,0,-1,685,1282,-10.2228,-4.05823
-532,-258,-10.2173,-0.353882,0,0,0,0,0,0,0,-1,692,1282,-10.2173,0.353836
-525,-258,-21.8661,-1.5929,0,0,0,0,0,0,0,-1,699,1282,-21.8661,1.59285
-518,-258,-29.2484,0.123169,0,0,0,0,0,0,0,-1,706,1282,-29.2484,-0.123186
-511,-258,-23.5061,1.16833,0,0,0,0,0,0,0,-1,713,1282,-23.5061,-1.16833
-504,-258,-22.9178,0.484131,0,0,0,0,0,0,0,-1,720,1282,-22.9178,-0.484106
-497,-258,-17.8047,0.730469,0,0,0,0,0,0,0,-1,727,1282,-17.8048,-0.730489
-490,-258,-15.4346,0.632935,0,0,0,0,0,0,0,-1,734,1282,-15.4346,-0.632917
-483,-258,0,0,0,0,0,0,0,0,0,-1,741,1282,0,0
-476,-258,0,0,0,0,0,0,0,0,0,-1,748,1282,0,0
-469,-258,0,0,0,0,0,0,0,0,0,-1,755,1282,0,0
-462,-258,0,0,0,0,0,0,0,0,0,-1,762,1282,0,0
-455,-258,0,0,0,0,0,0,0,0,0,-1,769,1282,0,0
-448,-258,0,0,0,0,0,0,0,0,0,-1,776,1282,0,0
-441,-258,0,0,0,0,0,0,0,0,0,-1,783,1282,0,0
-434,-258,0,0,0,0,0,0,0,0,0,-1,790,1282,0,0
-427,-258,0,0,0,0,0,0,0,0,0,-1,797,1282,0,0
-420,-258,0,0,0,0,0,0,0,0,0,-1,804,1282,0,0
-413,-258,0,0,0,0,0,0,0,0,0,-1,811,1282,0,0
-406,-258,0,0,0,0,0,0,0,0,0,-1,818,1282,0,0
-399,-258,0,0,0,0,0,0,0,0,0,-1,825,1282,0,0
-392,-258,0,0,0,0,0,0,0,0,0,-1,832,1282,0,0
-385,-258,0,0,0,0,0,0,0,0,0,-1,839,1282,0,0
-378,-258,0,0,0,0,0,0,0,0,0,-1,846,1282,0,0
-371,-258,0,0,0,0,0,0,0,0,0,-1,853,1282,0,0
-364,-258,0,0,0,0,0,0,0,0,0,-1,860,1282,0,0
-357,-258,0,0,0,0,0,0,0,0,0,-1,867,1282,0,0
-350,-258,0,0,0,0,0,0,0,0,0,-1,874,1282,0,0
-343,-258,0,0,0,0,0,0,0,0,0,-1,881,1282,0,0
-336,-258,0,0,0,0,0,0,0,0,0,-1,888,1282,0,0
-329,-258,0,0,0,0,0,0,0,0,0,-1,895,1282,0,0
-322,-258,0,0,0,0,0,0,0,0,0,-1,902,1282,0,0
-315,-258,0,0,0,0,0,0,0,0,0,-1,909,1282,0,0
-308,-258,0,0,0,0,0,0,0,0,0,-1,916,1282,0,0
-301,-258,0,0,0,0,0,0,0,0,0,-1,923,1282,0,0
-294,-258,0,0,0,0,0,0,0,0,0,-1,930,1282,0,0
-287,-258,0,0,0,0,0,0,0,0,0,-1,937,1282,0,0
-280,-258,0,0,0,0,0,0,0,0,0,-1,944,1282,0,0
-273,-258,0,0,0,0,0,0,0,0,0,-1,951,1282,0,0
-266,-258,0,0,0,0,0,0,0,0,0,-1,958,1282,0,0
-259,-258,0,0,0,0,0,0,0,0,0,-1,965,1282,0,0
-252,-258,0,0,0,0,0,0,0,0,0,-1,972,1282,0,0
-245,-258,0,0,0,0,0,0,0,0,0,-1,979,1282,0,0
-238,-258,0,0,0,0,0,0,0,0,0,-1,986,1282,0,0
-231,-258,0,0,0,0,0,0,0,0,0,-1,993,1282,0,0
-224,-258,0,0,0,0,0,0,0,0,0,-1,1000,1282,0,0
-217,-258,0,0,0,0,0,0,0,0,0,-1,1007,1282,0,0
-210,-258,0,0,0,0,0,0,0,0,0,-1,1014,1282,0,0
-203,-258,0,0,0,0,0,0,0,0,0,-1,1021,1282,0,0
-196,-258,0,0,0,0,0,0,0,0,0,-1,1028,1282,0,0
-189,-258,0,0,0,0,0,0,0,0,0,-1,1035,1282,0,0
-182,-258,0,0,0,0,0,0,0,0,0,-1,1042,1282,0,0
-175,-258,0,0,0,0,0,0,0,0,0,-1,1049,1282,0,0
-168,-258,0,0,0,0,0,0,0,0,0,-1,1056,1282,0,0
-161,-258,0,0,0,0,0,0,0,0,0,-1,1063,1282,0,0
-154,-258,0,0,0,0,0,0,0,0,0,-1,1070,1282,0,0
-147,-258,0,0,0,0,0,0,0,0,0,-1,1077,1282,0,0
-140,-258,0,0,0,0,0,0,0,0,0,-1,1084,1282,0,0
-133,-258,0,0,0,0,0,0,0,0,0,-1,1091,1282,0,0
-126,-258,0,0,0,0,0,0,0,0,0,-1,1098,1282,0,0
-119,-258,0,0,0,0,0,0,0,0,0,-1,1105,1282,0,0
-112,-258,0,0,0,0,0,0,0,0,0,-1,1112,1282,0,0
-105,-258,0,0,0,0,0,0,0,0,0,-1,1119,1282,0,0
-98,-258,0,0,0,0,0,0,0,0,0,-1,1126,1282,0,0
-91,-258,0,0,0,0,0,0,0,0,0,-1,1133,1282,0,0
-84,-258,0,0,0,0,0,0,0,0,0,-1,1140,1282,0,0
-77,-258,0,0,0,0,0,0,0,0,0,-1,1147,1282,0,0
-70,-258,0,0,0,0,0,0,0,0,0,-1,1154,1282,0,0
-63,-258,0,0,0,0,0,0,0,0,0,-1,1161,1282,0,0
-56,-258,0,0,0,0,0,0,0,0,0,-1,1168,1282,0,0
-49,-258,0,0,0,0,0,0,0,0,0,-1,1175,1282,0,0
-42,-258,0,0,0,0,0,0,0,0,0,-1,1182,1282,0,0
-35,-258,0,0,0,0,0,0,0,0,0,-1,1189,1282,0,0
-28,-258,0,0,0,0,0,0,0,0,0,-1,1196,1282,0,0
-21,-258,0,0,0,0,0,0,0,0,0,-1,1203,1282,0,0
-14,-258,0,0,0,0,0,0,0,0,0,-1,1210,1282,0,0
-7,-258,0,0,0,0,0,0,0,0,0,-1,1217,1282,0,0
0,-258,0,0,0,0,0,0,0,0,0,-1,1224,1282,0,0
7,-258,0,0,0,0,0,0,0,0,0,-1,1231,1282,0,0
14,-258,0,0,0,0,0,0,0,0,0,-1,1238,1282,0,0
21,-258,0,0,0,0,0,0,0,0,0,-1,1245,1282,0,0
28,-258,0,0,0,0,0,0,0,0,0,-1,1252,1282,0,0
35,-258,0,0,0,0,0,0,0,0,0,-1,1259,1282,0,0
42,-258,0,0,0,0,0,0,0,0,0,-1,1266,1282,0,0
49,-258,0,0,0,0,0,0,0,0,0,-1,1273,1282,0,0
56,-258,0,0,0,0,0,0,0,0,0,-1,1280,1282,0,0
63,-258,0,0,0,0,0,0,0,0,0,-1,1287,1282,0,0
70,-258,0,0,0,0,0,0,0,0,0,-1,1294,1282,0,0
77,-258,0,0,0,0,0,0,0,0,0,-1,1301,1282,0,0
84,-258,0,0,0,0,0,0,0,0,0,-1,1308,1282,0,0
91,-258,0,0,0,0,0,0,0,0,0,-1,1315,1282,0,0
98,-258,0,0,0,0,0,0,0,0,0,-1,1322,1282,0,0
105,-258,0,0,0,0,0,0,0,0,0,-1,1329,1282,0,0
112,-258,0,0,0,0,0,0,0,0,0,-1,1336,1282,0,0
119,-258,0,0,0,0,0,0,0,0,0,-1,1343,1282,0,0
126,-258,0,0,0,0,0,0,0,0,0,-1,1350,1282,0,0
133,-258,0,0,0,0,0,0,0,0,0,-1,1357,1282,0,0
140,-258,0,0,0,0,0,0,0,0,0,-1,1364,1282,0,0
147,-258,0,0,0,0,0,0,0,0,0,-1,1371,1282,0,0
154,-258,0,0,0,0,0,0,0,0,0,-1,1378,1282,0,0
161,-258,0,0,0,0,0,0,0,0,0,-1,1385,1282,0,0
168,-258,0,0,0,0,0,0,0,0,0,-1,1392,1282,0,0
175,-258,0,0,0,0,0,0,0,0,0,-1,1399,1282,0,0
182,-258,0,0,0,0,0,0,0,0,0,-1,1406,1282,0,0
189,-258,0,0,0,0,0,0,0,0,0,-1,1413,1282,0,0
196,-258,0,0,0,0,0,0,0,0,0,-1,1420,1282,0,0
203,-258,0,0,0,0,0,0,0,0,0,-1,1427,1282,0,0
210,-258,0,0,0,0,0,0,0,0,0,-1,1434,1282,0,0
217,-258,0,0,0,0,0,0,0,0,0,-1,1441,1282,0,0
224,-258,0,0,0,0,0,0,0,0,0,-1,1448,1282,0,0
231,-258,0,0,0,0,0,0,0,0,0,-1,1455,1282,0,0
238,-258,0,0,0,0,0,0,0,0,0,-1,1462,1282,0,0
245,-258,0,0,0,0,0,0,0,0,0,-1,1469,1282,0,0
252,-258,0,0,0,0,0,0,0,0,0,-1,1476,1282,0,0
259,-258,0,0,0,0,0,0,0,0,0,-1,1483,1282,0,0
266,-258,0,0,0,0,0,0,0,0,0,-1,1490,1282,0,0
273,-258,0,0,0,0,0,0,0,0,0,-1,1497,1282,0,0
280,-258,0,0,0,0,0,0,0,0,0,-1,1504,1282,0,0
287,-258,0,0,0,0,0,0,0,0,0,-1,1511,1282,0,0
294,-258,0,0,0,0,0,0,0,0,0,-1,1518,1282,0,0
301,-258,0,0,0,0,0,0,0,0,0,-1,1525,1282,0,0
308,-258,0,0,0,0,0,0,0,0,0,-1,1532,1282,0,0
315,-258,0,0,0,0,0,0,0,0,0,-1,1539,1282,0,0
322,-258,0,0,0,0,0,0,0,0,0,-1,1546,1282,0,0
329,-258,0,0,0,0,0,0,0,0,0,-1,1553,1282,0,0
336,-258,0,0,0,0,0,0,0,0,0,-1,1560,1282,0,0
343,-258,0,0,0,0,0,0,0,0,0,-1,1567,1282,0,0
350,-258,0,0,0,0,0,0,0,0,0,-1,1574,1282,0,0
357,-258,0,0,0,0,0,0,0,0,0,-1,1581,1282,0,0
364,-258,0,0,0,0,0,0,0,0,0,-1,1588,1282,0,0
371,-258,0,0,0,0,0,0,0,0,0,-1,1595,1282,0,0
378,-258,0,0,0,0,0,0,0,0,0,-1,1602,1282,0,0
385,-258,0,0,0,0,0,0,0,0,0,-1,1609,1282,0,0
392,-258,0,0,0,0,0,0,0,0,0,-1,1616,1282,0,0
399,-258,0,0,0,0,0,0,0,0,0,-1,1623,1282,0,0
406,-258,0,0,0,0,0,0,0,0,0,-1,1630,1282,0,0
413,-258,0,0,0,0,0,0,0,0,0,-1,1637,1282,0,0
420,-258,0,0,0,0,0,0,0,0,0,-1,1644,1282,0,0
427,-258,0,0,0,0,0,0,0,0,0,-1,1651,1282,0,0
434,-258,0,0,0,0,0,0,0,0,0,-1,1658,1282,0,0
441,-258,0,0,0,0,0,0,0,0,0,-1,1665,1282,0,0
448,-258,0,0,0,0,0,0,0,0,0,-1,1672,1282,0,0
455,-258,0,0,0,0,0,0,0,0,0,-1,1679,1282,0,0
462,-258,0,0,0,0,0,0,0,0,0,-1,1686,1282,0,0
469,-258,0,0,0,0,0,0,0,0,0,-1,1693,1282,0,0
476,-258,0,0,0,0,0,0,0,0,0,-1,1700,1282,0,0
483,-258,0,0,0,0,0,0,0,0,0,-1,1707,1282,0,0
490,-258,0,0,0,0,0,0,0,0,0,-1,1714,1282,0,0
497,-258,0,0,0,0,0,0,0,0,0,-1,1721,1282,0,0
504,-258,0,0,0,0,0,0,0,0,0,-1,1728,1282,0,0
511,-258,0,0,0,0,0,0,0,0,0,-1,1735,1282,0,0
518,-258,0,0,0,0,0,0,0,0,0,-1,1742,1282,0,0
525,-258,0,0,0,0,0,0,0,0,0,-1,1749,1282,0,0
532,-258,0,0,0,0,0,0,0,0,0,-1,1756,1282,0,0
539,-258,0,0,0,0,0,0,0,0,0,-1,1763,1282,0,0
546,-258,0,0,0,0,0,0,0,0,0,-1,1770,1282,0,0
553,-258,0,0,0,0,0,0,0,0,0,-1,1777,1282,0,0
560,-258,0,0,0,0,0,0,0,0,0,-1,1784,1282,0,0
567,-258,0,0,0,0,0,0,0,0,0,-1,1791,1282,0,0
574,-258,0,0,0,0,0,0,0,0,0,-1,1798,1282,0,0
581,-258,0,0,0,0,0,0,0,0,0,-1,1805,1282,0,0
588,-258,0,0,0,0,0,0,0,0,0,-1,1812,1282,0,0
595,-258,0,0,0,0,0,0,0,0,0,-1,1819,1282,0,0
602,-258,0,0,0,0,0,0,0,0,0,-1,1826,1282,0,0
609,-258,64.0826,2.66895,0.000499783,0.00934974,-0.000929064,0.00944622,0.000403302,-1.46732,0.00616744,0.0242846,1833,1282,64.0827,-2.66896
616,-258,64.042,2.651,-0.00341632,0.00893637,0.000443194,0.00895225,-0.0034322,1.53498,0.00738313,0.0219493,1840,1282,64.042,-2.65096
623,-258,63.9515,2.5752,-0.00777617,0.00809582,0.00168224,0.00827216,-0.00795251,1.46635,0.00936793,0.0299326,1847,1282,63.9515,-2.57518
630,-258,63.9713,2.46167,-0.0112028,0.00658694,0.002432,0.00691342,-0.0115293,1.43735,0.0107585,0.0415627,1854,1282,63.9713,-2.46165
637,-258,63.8252,2.34314,-0.0112879,0.00489722,0.00232681,0.00522509,-0.0116158,1.43081,0.00995372,0.0456843,1861,1282,63.8252,-2.34312
644,-258,63.2677,2.46936,-0.0100865,0.00371644,0.00177563,0.0039412,-0.0103112,1.44489,0.00849819,0.0478695,1868,1282,63.2677,-2.46941
651,-258,63.3014,2.33752,0,0,0,0,0,0,0,-1,1875,1282,63.3014,-2.33747
658,-258,45.4424,3.1405,0,0,0,0,0,0,0,-1,1882,1282,45.4423,-3.14046
665,-258,35.4747,1.1864,0,0,0,0,0,0,0,-1,1889,1282,35.4747,-1.18637
672,-258,22.703,2.80957,0,0,0,0,0,0,0,-1,1896,1282,22.703,-2.80962
679,-258,26.8693,8.19543,0,0,0,0,0,0,0,-1,1903,1282,26.8692,-8.19548
686,-258,46.6766,12.7994,0,0,0,0,0,0,0,-1,1910,1282,46.6766,-12.7995
693,-258,46.5778,12.1345,-0.00255836,-0.000960959,0.000967568,-0.000505025,-0.0030143,1.13044,0.00186414,0.0181786,1917,1282,46.5778,-12.1346
700,-258,46.5131,11.4829,-8.79322e-05,-0.000908869,0.000271208,-6.42694e-06,-0.000990374,0.29194,0.000658117,0.0103447,1924,1282,46.5131,-11.4829
707,-258,46.5123,10.8705,0.00034561,-0.000378527,0.000373899,0.000504016,-0.000536933,0.400736,0.000601093,0.0119865,1931,1282,46.5124,-10.8704
714,-258,46.4921,10.2583,-0.000652804,-0.000648071,0.00135961,0.000709174,-0.00201005,0.786268,0.00162873,0.0124716,1938,1282,46.492,-10.2583
721,-258,46.4519,9.62598,-0.00184917,-0.000687499,0.00214205,0.000951066,-0.00348774,0.917794,0.00269863,0.0210229,1945,1282,46.4519,-9.62593
728,-258,46.3931,9.05408,-0.00325821,-0.000728488,0.00298357,0.00124726,-0.00523396,0.985886,0.0039709,0.0203656,1952,1282,46.3931,-9.05413
735,-258,46.4034,8.41553,-0.00484358,-0.000590297,0.00369542,0.00154672,-0.00698059,1.0465,0.00524586,0.0174608,1959,1282,46.4035,-8.41554
742,-258,46.3663,7.85046,-0.00661547,-0.000141174,0.00415747,0.0018908,-0.00864745,1.11619,0.00648774,0.0197282,1966,1282,46.3663,-7.85043
749,-258,46.1904,7.42188,-0.00861243,0.000944234,0.00401578,0.00240761,-0.0100758,1.22134,0.00764714,0.0428654,1973,1282,46.1905,-7.42186
756,-258,46.0137,6.84863,0,0,0,0,0,0,0,-1,1980,1282,46.0137,-6.84861
763,-258,39.3638,5.09753,0,0,0,0,0,0,0,-1,1987,1282,39.3638,-5.09751
770,-258,40.3713,4.08325,0,0,0,0,0,0,0,-1,1994,1282,40.3713,-4.08323
777,-258,31.912,4.83093,0,0,0,0,0,0,0,-1,2001,1282,31.912,-4.8309
784,-258,32.6525,6.43091,0,0,0,0,0,0,0,-1,2008,1282,32.6525,-6.43091
791,-258,0,0,0,0,0,0,0,0,0,-1,2015,1282,0,0
798,-258,0,0,0,0,0,0,0,0,0,-1,2022,1282,0,0
805,-258,0,0,0,0,0,0,0,0,0,-1,2029,1282,0,0
812,-258,0,0,0,0,0,0,0,0,0,-1,2036,1282,0,0
-700,-265,0,0,0,0,0,0,0,0,0,-1,524,1289,0,0
-693,-265,0,0,0,0,0,0,0,0,0,-1,531,1289,0,0
-686,-265,0,0,0,0,0,0,0,0,0,-1,538,1289,0,0
-679,-265,0,0,0,0,0,0,0,0,0,-1,545,1289,0,0
-672,-265,0,0,0,0,0,0,0,0,0,-1,552,1289,0,0
-665,-265,-44.553,1.771,0,0,0,0,0,0,0,-1,559,1289,-44.553,-1.77096
-658,-265,-44.9351,1.32117,0,0,0,0,0,0,0,-1,566,1289,-44.9351,-1.32118
-651,-265,-44.821,1.0614,0,0,0,0,0,0,0,-1,573,1289,-44.821,-1.06141
-644,-265,-44.4684,0.304932,0,0,0,0,0,0,0,-1,580,1289,-44.4684,-0.304991
-637,-265,-44.6157,0.250122,0,0,0,0,0,0,0,-1,587,1289,-44.6157,-0.250067
-630,-265,-44.5689,0.900269,0,0,0,0,0,0,0,-1,594,1289,-44.5689,-0.900302
-623,-265,-28.8734,3.81323,0,0,0,0,0,0,0,-1,601,1289,-28.8734,-3.81321
-616,-265,-29.3029,5.0061,0,0,0,0,0,0,0,-1,608,1289,-29.3028,-5.00616
-609,-265,-29.3506,5.72656,0.00609063,0.00411052,0.00248432,0.00777491,0.00242624,0.595782,0.00459333,0.0203555,615,1289,-29.3506,-5.72658
-602,-265,-29.3809,6.43066,0.00454952,0.00300454,0.00180295,0.0057385,0.00181556,0.582999,0.00338678,0.0144361,622,1289,-29.3808,-6.43062
-595,-265,-29.4133,7.11523,0.00339058,0.0019014,0.00124841,0.00409958,0.0011924,0.516503,0.00243494,0.0121584,629,1289,-29.4133,-7.11528
-588,-265,-29.4482,7.77405,0.00263506,0.000801177,0.000846965,0.00296637,0.000469867,0.372874,0.00184105,0.011273,636,1289,-29.4482,-7.77403
-581,-265,-29.4755,8.39514,0.00221366,-0.000315918,0.000580234,0.0023404,-0.000442662,0.215057,0.00172684,0.0137648,643,1289,-29.4755,-8.39519
-574,-265,-29.525,9.099,0.00205475,-0.0013702,0.000481029,0.00212103,-0.00143647,0.13692,0.00206656,0.0153766,650,1289,-29.525,-9.09901
-567,-265,-29.5919,9.8158,0.0021405,-0.00235838,0.0005977,0.00221855,-0.00243643,0.129855,0.00268854,0.0213175,657,1289,-29.5919,-9.81577
-560,-265,-29.6292,10.5115,0.00203133,-0.00256964,0.000720172,0.00214142,-0.00267973,0.151694,0.00278927,0.0265623,664,1289,-29.6291,-10.5115
-553,-265,-29.6635,11.2067,0,0,0,0,0,0,0,-1,671,1289,-29.6634,-11.2066
-546,-265,-24.2283,10.2581,0,0,0,0,0,0,0,-1,678,1289,-24.2283,-10.258
-539,-265,-13.7668,6.39917,0,0,0,0,0,0,0,-1,685,1289,-13.7668,-6.39915
-532,-265,-8.53998,3.41467,0,0,0,0,0,0,0,-1,692,1289,-8.53996,-3.41473
-525,-265,-12.1317,0.514648,0,0,0,0,0,0,0,-1,699,1289,-12.1317,-0.514634
-518,-265,-24.1604,0.712402,0,0,0,0,0,0,0,-1,706,1289,-24.1604,-0.712425
-511,-265,-23.233,0.791626,0,0,0,0,0,0,0,-1,713,1289,-23.233,-0.791617
-504,-265,-22.3056,0.87085,0,0,0,0,0,0,0,-1,720,1289,-22.3056,-0.87081
-497,-265,-18.689,-0.278442,0,0,0,0,0,0,0,-1,727,1289,-18.689,0.278423
-490,-265,-15.1696,0.492676,0,0,0,0,0,0,0,-1,734,1289,-15.1696,-0.492688
-483,-265,0,0,0,0,0,0,0,0,0,-1,741,1289,0,0
-476,-265,0,0,0,0,0,0,0,0,0,-1,748,1289,0,0
-469,-265,0,0,0,0,0,0,0,0,0,-1,755,1289,0,0
-462,-265,0,0,0,0,0,0,0,0,0,-1,762,1289,0,0
-455,-265,0,0,0,0,0,0,0,0,0,-1,769,1289,0,0
-448,-265,0,0,0,0,0,0,0,0,0,-1,776,1289,0,0
-441,-265,0,0,0,0,0,0,0,0,0,-1,783,1289,0,0
-434,-265,0,0,0,0,0,0,0,0,0,-1,790,1289,0,0
-427,-265,0,0,0,0,0,0,0,0,0,-1,797,1289,0,0
-420,-265,0,0,0,0,0,0,0,0,0,-1,804,1289,0,0
-413,-265,0,0,0,0,0,0,0,0,0,-1,811,1289,0,0
-406,-265,0,0,0,0,0,0,0,0,0,-1,818,1289,0,0
-399,-265,0,0,0,0,0,0,0,0,0,-1,825,1289,0,0
-392,-265,0,0,0,0,0,0,0,0,0,-1,832,1289,0,0
-385,-265,0,0,0,0,0,0,0,0,0,-1,839,1289,0,0
-378,-265,0,0,0,0,0,0,0,0,0,-1,846,1289,0,0
-371,-265,0,0,0,0,0,0,0,0,0,-1,853,1289,0,0
-364,-265,0,0,0,0,0,0,0,0,0,-1,860,1289,0,0
-357,-265,0,0,0,0,0,0,0,0,0,-1,867,1289,0,0
-350,-265,0,0,0,0,0,0,0,0,0,-1,874,1289,0,0
-343,-265,0,0,0,0,0,0,0,0,0,-1,881,1289,0,0
-336,-265,0,0,0,0,0,0,0,0,0,-1,888,1289,0,0
-329,-265,0,0,0,0,0,0,0,0,0,-1,895,1289,0,0
-322,-265,0,0,0,0,0,0,0,0,0,-1,902,1289,0,0
-315,-265,0,0,0,0,0,0,0,0,0,-1,909,1289,0,0
-308,-265,0,0,0,0,0,0,0,0,0,-1,916,1289,0,0
-301,-265,0,0,0,0,0,0,0,0,0,-1,923,1289,0,0
-294,-265,0,0,0,0,0,0,0,0,0,-1,930,1289,0,0
-287,-265,0,0,0,0,0,0,0,0,0,-1,937,1289,0,0
-280,-265,0,0,0,0,0,0,0,0,0,-1,944,1289,0,0
-273,-265,0,0,0,0,0,0,0,0,0,-1,951,1289,0,0
-266,-265,0,0,0,0,0,0,0,0,0,-1,958,1289,0,0
-259,-265,0,0,0,0,0,0,0,0,0,-1,965,1289,0,0
-252,-265,0,0,0,0,0,0,0,0,0,-1,972,1289,0,0
-245,-265,0,0,0,0,0,0,0,0,0,-1,979,1289,0,0
-238,-265,0,0,0,0,0,0,0,0,0,-1,986,1289,0,0
-231,-265,0,0,0,0,0,0,0,0,0,-1,993,1289,0,0
-224,-265,0,0,0,0,0,0,0,0,0,-1,1000,1289,0,0
-217,-265,0,0,0,0,0,0,0,0,0,-1,1007,1289,0,0
-210,-265,0,0,0,0,0,0,0,0,0,-1,1014,1289,0,0
-203,-265,0,0,0,0,0,0,0,0,0,-1,1021,1289,0,0
-196,-265,0,0,0,0,0,0,0,0,0,-1,1028,1289,0,0
-189,-265,0,0,0,0,0,0,0,0,0,-1,1035,1289,0,0
-182,-265,0,0,0,0,0,0,0,0,0,-1,1042,1289,0,0
-175,-265,0,0,0,0,0,0,0,0,0,-1,1049,1289,0,0
-168,-265,0,0,0,0,0,0,0,0,0,-1,1056,1289,0,0
-161,-265,0,0,0,0,0,0,0,0,0,-1,1063,1289,0,0
-154,-265,0,0,0,0,0,0,0,0,0,-1,1070,1289,0,0
-147,-265,0,0,0,0,0,0,0,0,0,-1,1077,1289,0,0
-140,-265,0,0,0,0,0,0,0,0,0,-1,1084,1289,0,0
-133,-265,0,0,0,0,0,0,0,0,0,-1,1091,1289,0,0
-126,-265,0,0,0,0,0,0,0,0,0,-1,1098,1289,0,0
-119,-265,0,0,0,0,0,0,0,0,0,-1,1105,1289,0,0
-112,-265,0,0,0,0,0,0,0,0,0,-1,1112,1289,0,0
-105,-265,0,0,0,0,0,0,0,0,0,-1,1119,1289,0,0
-98,-265,0,0,0,0,0,0,0,0,0,-1,1126,1289,0,0
-91,-265,0,0,0,0,0,0,0,0,0,-1,1133,1289,0,0
-84,-265,0,0,0,0,0,0,0,0,0,-1,1140,1289,0,0
-77,-265,0,0,0,0,0,0,0,0,0,-1,1147,1289,0,0
-70,-265,0,0,0,0,0,0,0,0,0,-1,1154,1289,0,0
-63,-265,0,0,0,0,0,0,0,0,0,-1,1161,1289,0,0
-56,-265,0,0,0,0,0,0,0,0,0,-1,1168,1289,0,0
-49,-265,0,0,0,0,0,0,0,0,0,-1,1175,1289,0,0
-42,-265,0,0,0,0,0,0,0,0,0,-1,1182,1289,0,0
-35,-265,0,0,0,0,0,0,0,0,0,-1,1189,1289,0,0
-28,-265,0,0,0,0,0,0,0,0,0,-1,1196,1289,0,0
-21,-265,0,0,0,0,0,0,0,0,0,-1,1203,1289,0,0
-14,-265,0,0,0,0,0,0,0,0,0,-1,1210,1289,0,0
-7,-265,0,0,0,0,0,0,0,0,0,-1,1217,1289,0,0
0,-265,0,0,0,0,0,0,0,0,0,-1,1224,1289,0,0
7,-265,0,0,0,0,0,0,0,0,0,-1,1231,1289,0,0
14,-265,0,0,0,0,0,0,0,0,0,-1,1238,1289,0,0
21,-265,0,0,0,0,0,0,0,0,0,-1,1245,1289,0,0
28,-265,0,0,0,0,0,0,0,0,0,-1,1252,1289,0,0
35,-265,0,0,0,0,0,0,0,0,0,-1,1259,1289,0,0
42,-265,0,0,0,0,0,0,0,0,0,-1,1266,1289,0,0
49,-265,0,0,0,0,0,0,0,0,0,-1,1273,1289,0,0
56,-265,0,0,0,0,0,0,0,0,0,-1,1280,1289,0,0
63,-265,0,0,0,0,0,0,0,0,0,-1,1287,1289,0,0
70,-265,0,0,0,0,0,0,0,0,0,-1,1294,1289,0,0
77,-265,0,0,0,0,0,0,0,0,0,-1,1301,1289,0,0
84,-265,0,0,0,0,0,0,0,0,0,-1,1308,1289,0,0
91,-265,0,0,0,0,0,0,0,0,0,-1,1315,1289,0,0
98,-265,0,0,0,0,0,0,0,0,0,-1,1322,1289,0,0
105,-265,0,0,0,0,0,0,0,0,0,-1,1329,1289,0,0
112,-265,0,0,0,0,0,0,0,0,0,-1,1336,1289,0,0
119,-265,0,0,0,0,0,0,0,0,0,-1,1343,1289,0,0
126,-265,0,0,0,0,0,0,0,0,0,-1,1350,1289,0,0
133,-265,0,0,0,0,0,0,0,0,0,-1,1357,1289,0,0
140,-265,0,0,0,0,0,0,0,0,0,-1,1364,1289,0,0
147,-265,0,0,0,0,0,0,0,0,0,-1,1371,1289,0,0
154,-265,0,0,0,0,0,0,0,0,0,-1,1378,1289,0,0
161,-265,0,0,0,0,0,0,0,0,0,-1,1385,1289,0,0
168,-265,0,0,0,0,0,0,0,0,0,-1,1392,1289,0,0
175,-265,0,0,0,0,0,0,0,0,0,-1,1399,1289,0,0
182,-265,0,0,0,0,0,0,0,0,0,-1,1406,1289,0,0
189,-265,0,0,0,0,0,0,0,0,0,-1,1413,1289,0,0
196,-265,0,0,0,0,0,0,0,0,0,-1,1420,1289,0,0
203,-265,0,0,0,0,0,0,0,0,0,-1,1427,1289,0,0
210,-265,0,0,0,0,0,0,0,0,0,-1,1434,1289,0,0
217,-265,0,0,0,0,0,0,0,0,0,-1,1441,1289,0,0
224,-265,0,0,0,0,0,0,0,0,0,-1,1448,1289,0,0
231,-265,0,0,0,0,0,0,0,0,0,-1,1455,1289,0,0
238,-265,0,0,0,0,0,0,0,0,0,-1,1462,1289,0,0
245,-265,0,0,0,0,0,0,0,0,0,-1,1469,1289,0,0
252,-265,0,0,0,0,0,0,0,0,0,-1,1476,1289,0,0
259,-265,0,0,0,0,0,0,0,0,0,-1,1483,1289,0,0
266,-265,0,0,0,0,0,0,0,0,0,-1,1490,1289,0,0
273,-265,0,0,0,0,0,0,0,0,0,-1,1497,1289,0,0
280,-265,0,0,0,0,0,0,0,0,0,-1,1504,1289,0,0
287,-265,0,0,0,0,0,0,0,0,0,-1,1511,1289,0,0
294,-265,0,0,0,0,0,0,0,0,0,-1,1518,1289,0,0
301,-265,0,0,0,0,0,0,0,0,0,-1,1525,1289,0,0
308,-265,0,0,0,0,0,0,0,0,0,-1,1532,1289,0,0
315,-265,0,0,0,0,0,0,0,0,0,-1,1539,1289,0,0
322,-265,0,0,0,0,0,0,0,0,0,-1,1546,1289,0,0
329,-265,0,0,0,0,0,0,0,0,0,-1,1553,1289,0,0
336,-265,0,0,0,0,0,0,0,0,0,-1,1560,1289,0,0
343,-265,0,0,0,0,0,0,0,0,0,-1,1567,1289,0,0
350,-265,0,0,0,0,0,0,0,0,0,-1,1574,1289,0,0
357,-265,0,0,0,0,0,0,0,0,0,-1,1581,1289,0,0
364,-265,0,0,0,0,0,0,0,0,0,-1,1588,1289,0,0
371,-265,0,0,0,0,0,0,0,0,0,-1,1595,1289,0,0
378,-265,0,0,0,0,0,0,0,0,0,-1,1602,1289,0,0
385,-265,0,0,0,0,0,0,0,0,0,-1,1609,1289,0,0
392,-265,0,0,0,0,0,0,0,0,0,-1,1616,1289,0,0
399,-265,0,0,0,0,0,0,0,0,0,-1,1623,1289,0,0
406,-265,0,0,0,0,0,0,0,0,0,-1,1630,1289,0,0
413,-265,0,0,0,0,0,0,0,0,0,-1,1637,1289,0,0
420,-265,0,0,0,0,0,0,0,0,0,-1,1644,1289,0,0
427,-265,0,0,0,0,0,0,0,0,0,-1,1651,1289,0,0
434,-265,0,0,0,0,0,0,0,0,0,-1,1658,1289,0,0
441,-265,0,0,0,0,0,0,0,0,0,-1,1665,1289,0,0
448,-265,0,0,0,0,0,0,0,0,0,-1,1672,1289,0,0
455,-265,0,0,0,0,0,0,0,0,0,-1,1679,1289,0,0
462,-265,0,0,0,0,0,0,0,0,0,-1,1686,1289,0,0
469,-265,0,0,0,0,0,0,0,0,0,-1,1693,1289,0,0
476,-265,0,0,0,0,0,0,0,0,0,-1,1700,1289,0,0
483,-265,0,0,0,0,0,0,0,0,0,-1,1707,1289,0,0
490,-265,0,0,0,0,0,0,0,0,0,-1,1714,1289,0,0
497,-265,0,0,0,0,0,0,0,0,0,-1,1721,1289,0,0
504,-265,0,0,0,0,0,0,0,0,0,-1,1728,1289,0,0
511,-265,0,0,0,0,0,0,0,0,0,-1,1735,1289,0,0
518,-265,0,0,0,0,0,0,0,0,0,-1,1742,1289,0,0
525,-265,0,0,0,0,0,0,0,0,0,-1,1749,1289,0,0
532,-265,0,0,0,0,0,0,0,0,0,-1,1756,1289,0,0
539,-265,0,0,0,0,0,0,0,0,0,-1,1763,1289,0,0
546,-265,0,0,0,0,0,0,0,0,0,-1,1770,1289,0,0
553,-265,0,0,0,0,0,0,0,0,0,-1,1777,1289,0,0
560,-265,0,0,0,0,0,0,0,0,0,-1,1784,1289,0,0
567,-265,0,0,0,0,0,0,0,0,0,-1,1791,1289,0,0
574,-265,0,0,0,0,0,0,0,0,0,-1,1798,1289,0,0
581,-265,0,0,0,0,0,0,0,0,0,-1,1805,1289,0,0
588,-265,0,0,0,0,0,0,0,0,0,-1,1812,1289,0,0
595,-265,0,0,0,0,0,0,0,0,0,-1,1819,1289,0,0
602,-265,64.0087,2.67493,0.00341392,0.0121946,-0.00121262,0.012359,0.00324953,-1.43606,0.007398,0.0269841,1826,1289,64.0086,-2.67497
609,-265,63.934,2.63818,0.00062199,0.0119927,0.000284236,0.0119998,0.000614889,1.54582,0.00780295,0.0275875,1833,1289,63.9339,-2.63823
616,-265,63.953,2.59143,-0.00332643,0.0112059,0.00173658,0.0114105,-0.00353107,1.4535,0.00901752,0.0328662,1840,1289,63.9529,-2.59148
623,-265,63.9978,2.52502,-0.00694004,0.0096726,0.00259143,0.0100675,-0.00733489,1.41959,0.0100885,0.0461232,1847,1289,63.9978,-2.52501
630,-265,64.0414,2.49841,-0.00929266,0.007589,0.00276271,0.00802962,-0.00973328,1.41264,0.0102711,0.0471984,1854,1289,64.0413,-2.4984
637,-265,63.7173,2.1543,-0.00921399,0.00577744,0.00238972,0.00614916,-0.00958571,1.41648,0.00915647,0.04925,1861,1289,63.7173,-2.15426
644,-265,62.813,2.40845,0,0,0,0,0,0,0,-1,1868,1289,62.813,-2.40848
651,-265,53.6781,1.57166,0,0,0,0,0,0,0,-1,1875,1289,53.6781,-1.57167
658,-265,41.7163,3.71619,0,0,0,0,0,0,0,-1,1882,1289,41.7163,-3.71624
665,-265,34.7902,1.43164,0,0,0,0,0,0,0,-1,1889,1289,34.7901,-1.43162
672,-265,20.0045,6.62671,0,0,0,0,0,0,0,-1,1896,1289,20.0045,-6.62668
679,-265,45.9869,13.4836,0,0,0,0,0,0,0,-1,1903,1289,45.9869,-13.4836
686,-265,45.9443,12.8125,-0.00506436,-8.40441e-05,0.000977684,0.000101009,-0.00524941,1.38373,0.00353376,0.0446497,1910,1289,45.9444,-12.8126
693,-265,45.9225,12.1604,-0.00235192,-0.000924851,0.000943075,-0.000455795,-0.00282098,1.10926,0.00174863,0.0110266,1917,1289,45.9225,-12.1604
700,-265,45.8859,11.5138,-7.6264e-06,-0.000801062,0.000329927,0.000111637,-0.000920326,0.346869,0.000653947,0.0111684,1924,1289,45.8859,-11.5138
707,-265,45.8707,10.8794,0.000208481,-0.000397788,0.000614538,0.000590582,-0.000779889,0.556273,0.000793754,0.0111664,1931,1289,45.8707,-10.8794
714,-265,45.8481,10.2611,-0.000796857,-0.000740992,0.00165611,0.000887423,-0.00242527,0.793831,0.00198009,0.0127451,1938,1289,45.8481,-10.2611
721,-265,45.7704,9.62439,-0.00197202,-0.000863674,0.00247515,0.00111859,-0.00395428,0.895529,0.00307757,0.0142344,1945,1289,45.7704,-9.62442
728,-265,45.7377,9.03979,-0.0033514,-0.0010568,0.00340751,0.00139137,-0.00579957,0.947786,0.00440405,0.0146234,1952,1289,45.7377,-9.03974
735,-265,45.8036,8.43652,-0.00493752,-0.00111478,0.00424409,0.00162849,-0.00768078,0.996975,0.00574087,0.0161312,1959,1289,45.8036,-8.43647
742,-265,45.7622,7.86243,-0.00676301,-0.000908425,0.00487674,0.00185213,-0.00952356,1.0557,0.00704801,0.0209555,1966,1289,45.7622,-7.86237
749,-265,45.7059,7.34631,-0.00890236,-0.000109422,0.00491785,0.00209063,-0.0111024,1.15014,0.00818794,0.0498464,1973,1289,45.706,-7.34633
756,-265,45.7427,6.81396,0,0,0,0,0,0,0,-1,1980,1289,45.7426,-6.81402
763,-265,39.1299,4.9679,0,0,0,0,0,0,0,-1,1987,1289,39.1299,-4.96791
770,-265,35.1674,5.07715,0,0,0,0,0,0,0,-1,1994,1289,35.1673,-5.07718
777,-265,32.1664,5.3457,0,0,0,0,0,0,0,-1,2001,1289,32.1664,-5.34568
784,-265,0,0,0,0,0,0,0,0,0,-1,2008,1289,0,0
791,-265,0,0,0,0,0,0,0,0,0,-1,2015,1289,0,0
798,-265,0,0,0,0,0,0,0,0,0,-1,2022,1289,0,0
805,-265,0,0,0,0,0,0,0,0,0,-1,2029,1289,0,0
812,-265,0,0,0,0,0,0,0,0,0,-1,2036,1289,0,0
-700,-272,0,0,0,0,0,0,0,0,0,-1,524,1296,0,0
-693,-272,0,0,0,0,0,0,0,0,0,-1,531,1296,0,0
-686,-272,0,0,0,0,0,0,0,0,0,-1,538,1296,0,0
-679,-272,0,0,0,0,0,0,0,0,0,-1,545,1296,0,0
-672,-272,0,0,0,0,0,0,0,0,0,-1,552,1296,0,0
-665,-272,0,0,0,0,0,0,0,0,0,-1,559,1296,0,0
-658,-272,-44.6526,1.54443,0,0,0,0,0,0,0,-1,566,1296,-44.6526,-1.5444
-651,-272,-44.3723,1.53772,0,0,0,0,0,0,0,-1,573,1296,-44.3723,-1.53774
-644,-272,-44.1104,1.46021,0,0,0,0,0,0,0,-1,580,1296,-44.1104,-1.46022
-637,-272,-43.9348,1.25171,0,0,0,0,0,0,0,-1,587,1296,-43.9348,-1.25175
-630,-272,-43.5906,0.784912,0,0,0,0,0,0,0,-1,594,1296,-43.5906,-0.784935
-623,-272,-28.7057,3.26025,0,0,0,0,0,0,0,-1,601,1296,-28.7057,-3.26021
-616,-272,-28.6125,4.66431,0,0,0,0,0,0,0,-1,608,1296,-28.6125,-4.6643
-609,-272,-28.6484,5.90393,0.00755656,0.00484807,0.00318616,0.00966434,0.00274029,0.584446,0.00575135,0.0272065,615,1296,-28.6484,-5.90394
-602,-272,-28.684,6.45276,0.00558758,0.00363052,0.00236043,0.00716427,0.00205383,0.588903,0.00425993,0.0151248,622,1296,-28.684,-6.45273
-595,-272,-28.7335,7.13452,0.00411628,0.00246441,0.00169859,0.0051791,0.00140159,0.559106,0.00309326,0.0118916,629,1296,-28.7335,-7.13448
-588,-272,-28.7582,7.79834,0.00315355,0.00135713,0.00121828,0.00376894,0.000741737,0.467743,0.0023055,0.0109579,636,1296,-28.7582,-7.79831
-581,-272,-28.8044,8.44849,0.0026221,0.000282091,0.000911574,0.00293529,-3.11034e-05,0.33094,0.00196731,0.0100608,643,1296,-28.8044,-8.44845
-574,-272,-28.853,9.13721,0.00249937,-0.000759911,0.000769249,0.0026718,-0.000932345,0.220514,0.00216013,0.014744,650,1296,-28.853,-9.13726
-567,-272,-28.8919,9.81445,0.00281697,-0.00177173,0.000796471,0.00295129,-0.00190604,0.167064,0.00282594,0.0210707,657,1296,-28.8919,-9.8144
-560,-272,-28.9218,10.5104,0.00317601,-0.00231431,0.000876606,0.00331258,-0.00245087,0.154546,0.0033399,0.0203652,664,1296,-28.9218,-10.5104
-553,-272,-28.8625,11.1766,0.00364794,-0.00221691,0.00137943,0.00395618,-0.00252516,0.219847,0.00377228,0.0287715,671,1296,-28.8625,-11.1766
-546,-272,-28.8563,11.858,0,0,0,0,0,0,0,-1,678,1296,-28.8563,-11.858
-539,-272,-24.1416,11.0325,0,0,0,0,0,0,0,-1,685,1296,-24.1416,-11.0324
-532,-272,-10.5572,4.53943,0,0,0,0,0,0,0,-1,692,1296,-10.5572,-4.53943
-525,-272,-11.9599,0.0393066,0,0,0,0,0,0,0,-1,699,1296,-11.9599,-0.0393577
-518,-272,-21.1357,-1.41382,0,0,0,0,0,0,0,-1,706,1296,-21.1357,1.41379
-511,-272,-23.2565,0.226318,0,0,0,0,0,0,0,-1,713,1296,-23.2565,-0.22626
-504,-272,-19.7397,0.114746,0,0,0,0,0,0,0,-1,720,1296,-19.7397,-0.114701
-497,-272,-19.2225,1.71301,0,0,0,0,0,0,0,-1,727,1296,-19.2225,-1.71302
-490,-272,-20.1948,2.4032,0,0,0,0,0,0,0,-1,734,1296,-20.1948,-2.40322
-483,-272,-15.3736,0.792603,0,0,0,0,0,0,0,-1,741,1296,-15.3736,-0.79263
-476,-272,0,0,0,0,0,0,0,0,0,-1,748,1296,0,0
-469,-272,0,0,0,0,0,0,0,0,0,-1,755,1296,0,0
-462,-272,0,0,0,0,0,0,0,0,0,-1,762,1296,0,0
-455,-272,0,0,0,0,0,0,0,0,0,-1,769,1296,0,0
-448,-272,0,0,0,0,0,0,0,0,0,-1,776,1296,0,0
-441,-272,0,0,0,0,0,0,0,0,0,-1,783,1296,0,0
-434,-272,0,0,0,0,0,0,0,0,0,-1,790,1296,0,0
-427,-272,0,0,0,0,0,0,0,0,0,-1,797,1296,0,0
-420,-272,0,0,0,0,0,0,0,0,0,-1,804,1296,0,0
-413,-272,0,0,0,0,0,0,0,0,0,-1,811,1296,0,0
-406,-272,0,0,0,0,0,0,0,0,0,-1,818,1296,0,0
-399,-272,0,0,0,0,0,0,0,0,0,-1,825,1296,0,0
-392,-272,0,0,0,0,0,0,0,0,0,-1,832,1296,0,0
-385,-272,0,0,0,0,0,0,0,0,0,-1,839,1296,0,0
-378,-272,0,0,0,0,0,0,0,0,0,-1,846,1296,0,0
-371,-272,0,0,0,0,0,0,0,0,0,-1,853,1296,0,0
-364,-272,0,0,0,0,0,0,0,0,0,-1,860,1296,0,0
-357,-272,0,0,0,0,0,0,0,0,0,-1,867,1296,0,0
-350,-272,0,0,0,0,0,0,0,0,0,-1,874,1296,0,0
-343,-272,0,0,0,0,0,0,0,0,0,-1,881,1296,0,0
-336,-272,0,0,0,0,0,0,0,0,0,-1,888,1296,0,0
-329,-272,0,0,0,0,0,0,0,0,0,-1,895,1296,0,0
-322,-272,0,0,0,0,0,0,0,0,0,-1,902,1296,0,0
-315,-272,0,0,0,0,0,0,0,0,0,-1,909,1296,0,0
-308,-272,0,0,0,0,0,0,0,0,0,-1,916,1296,0,0
-301,-272,0,0,0,0,0,0,0,0,0,-1,923,1296,0,0
-294,-272,0,0,0,0,0,0,0,0,0,-1,930,1296,0,0
-287,-272,0,0,0,0,0,0,0,0,0,-1,937,1296,0,0
-280,-272,0,0,0,0,0,0,0,0,0,-1,944,1296,0,0
-273,-272,0,0,0,0,0,0,0,0,0,-1,951,1296,0,0
-266,-272,0,0,0,0,0,0,0,0,0,-1,958,1296,0,0
-259,-272,0,0,0,0,0,0,0,0,0,-1,965,1296,0,0
-252,-272,0,0,0,0,0,0,0,0,0,-1,972,1296,0,0
-245,-272,0,0,0,0,0,0,0,0,0,-1,979,1296,0,0
-238,-272,0,0,0,0,0,0,0,0,0,-1,986,1296,0,0
-231,-272,0,0,0,0,0,0,0,0,0,-1,993,1296,0,0
-224,-272,0,0,0,0,0,0,0,0,0,-1,1000,1296,0,0
-217,-272,0,0,0,0,0,0,0,0,0,-1,1007,1296,0,0
-210,-272,0,0,0,0,0,0,0,0,0,-1,1014,1296,0,0
-203,-272,0,0,0,0,0,0,0,0,0,-1,1021,1296,0,0
-196,-272,0,0,0,0,0,0,0,0,0,-1,1028,1296,0,0
-189,-272,0,0,0,0,0,0,0,0,0,-1,1035,1296,0,0
-182,-272,0,0,0,0,0,0,0,0,0,-1,1042,1296,0,0
-175,-272,0,0,0,0,0,0,0,0,0,-1,1049,1296,0,0
-168,-272,0,0,0,0,0,0,0,0,0,-1,1056,1296,0,0
-161,-272,0,0,0,0,0,0,0,0,0,-1,1063,1296,0,0
-154,-272,0,0,0,0,0,0,0,0,0,-1,1070,1296,0,0
-147,-272,0,0,0,0,0,0,0,0,0,-1,1077,1296,0,0
-140,-272,0,0,0,0,0,0,0,0,0,-1,1084,1296,0,0
-133,-272,0,0,0,0,0,0,0,0,0,-1,1091,1296,0,0
-126,-272,0,0,0,0,0,0,0,0,0,-1,1098,1296,0,0
-119,-272,0,0,0,0,0,0,0,0,0,-1,1105,1296,0,0
-112,-272,0,0,0,0,0,0,0,0,0,-1,1112,1296,0,0
-105,-272,0,0,0,0,0,0,0,0,0,-1,1119,1296,0,0
-98,-272,0,0,0,0,0,0,0,0,0,-1,1126,1296,0,0
-91,-272,0,0,0,0,0,0,0,0,0,-1,1133,1296,0,0
-84,-272,0,0,0,0,0,0,0,0,0,-1,1140,1296,0,0
-77,-272,0,0,0,0,0,0,0,0,0,-1,1147,1296,0,0
-70,-272,0,0,0,0,0,0,0,0,0,-1,1154,1296,0,0
-63,-272,0,0,0,0,0,0,0,0,0,-1,1161,1296,0,0
-56,-272,0,0,0,0,0,0,0,0,0,-1,1168,1296,0,0
-49,-272,0,0,0,0,0,0,0,0,0,-1,1175,1296,0,0
-42,-272,0,0,0,0,0,0,0,0,0,-1,1182,1296,0,0
-35,-272,0,0,0,0,0,0,0,0,0,-1,1189,1296,0,0
-28,-272,0,0,0,0,0,0,0,0,0,-1,1196,1296,0,0
-21,-272,0,0,0,0,0,0,0,0,0,-1,1203,1296,0,0
-14,-272,0,0,0,0,0,0,0,0,0,-1,1210,1296,0,0
-7,-272,0,0,0,0,0,0,0,0,0,-1,1217,1296,0,0
0,-272,0,0,0,0,0,0,0,0,0,-1,1224,1296,0,0
7,-272,0,0,0,0,0,0,0,0,0,-1,1231,1296,0,0
14,-272,0,0,0,0,0,0,0,0,0,-1,1238,1296,0,0
21,-272,0,0,0,0,0,0,0,0,0,-1,1245,1296,0,0
28,-272,0,0,0,0,0,0,0,0,0,-1,1252,1296,0,0
35,-272,0,0,0,0,0,0,0,0,0,-1,1259,1296,0,0
42,-272,0,0,0,0,0,0,0,0,0,-1,1266,1296,0,0
49,-272,0,0,0,0,0,0,0,0,0,-1,1273,1296,0,0
56,-272,0,0,0,0,0,0,0,0,0,-1,1280,1296,0,0
63,-272,0,0,0,0,0,0,0,0,0,-1,1287,1296,0,0
70,-272,0,0,0,0,0,0,0,0,0,-1,1294,1296,0,0
77,-272,0,0,0,0,0,0,0,0,0,-1,1301,1296,0,0
84,-272,0,0,0,0,0,0,0,0,0,-1,1308,1296,0,0
91,-272,0,0,0,0,0,0,0,0,0,-1,1315,1296,0,0
98,-272,0,0,0,0,0,0,0,0,0,-1,1322,1296,0,0
105,-272,0,0,0,0,0,0,0,0,0,-1,1329,1296,0,0
112,-272,0,0,0,0,0,0,0,0,0,-1,1336,1296,0,0
119,-272,0,0,0,0,0,0,0,0,0,-1,1343,1296,0,0
126,-272,0,0,0,0,0,0,0,0,0,-1,1350,1296,0,0
133,-272,0,0,0,0,0,0,0,0,0,-1,1357,1296,0,0
140,-272,0,0,0,0,0,0,0,0,0,-1,1364,1296,0,0
147,-272,0,0,0,0,0,0,0,0,0,-1,1371,1296,0,0
154,-272,0,0,0,0,0,0,0,0,0,-1,1378,1296,0,0
161,-272,0,0,0,0,0,0,0,0,0,-1,1385,1296,0,0
168,-272,0,0,0,0,0,0,0,0,0,-1,1392,1296,0,0
175,-272,0,0,0,0,0,0,0,0,0,-1,1399,1296,0,0
182,-272,0,0,0,0,0,0,0,0,0,-1,1406,1296,0,0
189,-272,0,0,0,0,0,0,0,0,0,-1,1413,1296,0,0
196,-272,0,0,0,0,0,0,0,0,0,-1,1420,1296,0,0
203,-272,0,0,0,0,0,0,0,0,0,-1,1427,1296,0,0
210,-272,0,0,0,0,0,0,0,0,0,-1,1434,1296,0,0
217,-272,0,0,0,0,0,0,0,0,0,-1,1441,1296,0,0
224,-272,0,0,0,0,0,0,0,0,0,-1,1448,1296,0,0
231,-272,0,0,0,0,0,0,0,0,0,-1,1455,1296,0,0
238,-272,0,0,0,0,0,0,0,0,0,-1,1462,1296,0,0
245,-272,0,0,0,0,0,0,0,0,0,-1,1469,1296,0,0
252,-272,0,0,0,0,0,0,0,0,0,-1,1476,1296,0,0
259,-272,0,0,0,0,0,0,0,0,0,-1,1483,1296,0,0
266,-272,0,0,0,0,0,0,0,0,0,-1,1490,1296,0,0
273,-272,0,0,0,0,0,0,0,0,0,-1,1497,1296,0,0
280,-272,0,0,0,0,0,0,0,0,0,-1,1504,1296,0,0
287,-272,0,0,0,0,0,0,0,0,0,-1,1511,1296,0,0
294,-272,0,0,0,0,0,0,0,0,0,-1,1518,1296,0,0
301,-272,0,0,0,0,0,0,0,0,0,-1,1525,1296,0,0
308,-272,0,0,0,0,0,0,0,0,0,-1,1532,1296,0,0
315,-272,0,0,0,0,0,0,0,0,0,-1,1539,1296,0,0
322,-272,0,0,0,0,0,0,0,0,0,-1,1546,1296,0,0
329,-272,0,0,0,0,0,0,0,0,0,-1,1553,1296,0,0
336,-272,0,0,0,0,0,0,0,0,0,-1,1560,1296,0,0
343,-272,0,0,0,0,0,0,0,0,0,-1,1567,1296,0,0
350,-272,0,0,0,0,0,0,0,0,0,-1,1574,1296,0,0
357,-272,0,0,0,0,0,0,0,0,0,-1,1581,1296,0,0
364,-272,0,0,0,0,0,0,0,0,0,-1,1588,1296,0,0
371,-272,0,0,0,0,0,0,0,0,0,-1,1595,1296,0,0
378,-272,0,0,0,0,0,0,0,0,0,-1,1602,1296,0,0
385,-272,0,0,0,0,0,0,0,0,0,-1,1609,1296,0,0
392,-272,0,0,0,0,0,0,0,0,0,-1,1616,1296,0,0
399,-272,0,0,0,0,0,0,0,0,0,-1,1623,1296,0,0
406,-272,0,0,0,0,0,0,0,0,0,-1,1630,1296,0,0
413,-272,0,0,0,0,0,0,0,0,0,-1,1637,1296,0,0
420,-272,0,0,0,0,0,0,0,0,0,-1,1644,1296,0,0
427,-272,0,0,0,0,0,0,0,0,0,-1,1651,1296,0,0
434,-272,0,0,0,0,0,0,0,0,0,-1,1658,1296,0,0
441,-272,0,0,0,0,0,0,0,0,0,-1,1665,1296,0,0
448,-272,0,0,0,0,0,0,0,0,0,-1,1672,1296,0,0
455,-272,0,0,0,0,0,0,0,0,0,-1,1679,1296,0,0
462,-272,0,0,0,0,0,0,0,0,0,-1,1686,1296,0,0
469,-272,0,0,0,0,0,0,0,0,0,-1,1693,1296,0,0
476,-272,0,0,0,0,0,0,0,0,0,-1,1700,1296,0,0
483,-272,0,0,0,0,0,0,0,0,0,-1,1707,1296,0,0
490,-272,0,0,0,0,0,0,0,0,0,-1,1714,1296,0,0
497,-272,0,0,0,0,0,0,0,0,0,-1,1721,1296,0,0
504,-272,0,0,0,0,0,0,0,0,0,-1,1728,1296,0,0
511,-272,0,0,0,0,0,0,0,0,0,-1,1735,1296,0,0
518,-272,0,0,0,0,0,0,0,0,0,-1,1742,1296,0,0
525,-272,0,0,0,0,0,0,0,0,0,-1,1749,1296,0,0
532,-272,0,0,0,0,0,0,0,0,0,-1,1756,1296,0,0
539,-272,0,0,0,0,0,0,0,0,0,-1,1763,1296,0,0
546,-272,0,0,0,0,0,0,0,0,0,-1,1770,1296,0,0
553,-272,0,0,0,0,0,0,0,0,0,-1,1777,1296,0,0
560,-272,0,0,0,0,0,0,0,0,0,-1,1784,1296,0,0
567,-272,0,0,0,0,0,0,0,0,0,-1,1791,1296,0,0
574,-272,0,0,0,0,0,0,0,0,0,-1,1798,1296,0,0
581,-272,0,0,0,0,0,0,0,0,0,-1,1805,1296,0,0
588,-272,0,0,0,0,0,0,0,0,0,-1,1812,1296,0,0
595,-272,0,0,0,0,0,0,0,0,0,-1,1819,1296,0,0
602,-272,64.0178,2.65771,0.00464492,0.015109,0.000244293,0.0151147,0.00463922,1.54747,0.00894069,0.032214,1826,1296,64.0178,-2.65768
609,-272,63.9033,2.50989,0.00210493,0.0146449,0.00193424,0.0149365,0.00181337,1.42118,0.00941162,0.0390556,1833,1296,63.9033,-2.50985
616,-272,63.8625,2.37109,-0.00117206,0.0132371,0.00308174,0.0138685,-0.00180349,1.3687,0.00990172,0.0432871,1840,1296,63.8625,-2.37111
623,-272,64.0139,2.47778,-0.00367093,0.0110541,0.00314255,0.0116967,-0.00431355,1.36909,0.00956553,0.0447788,1847,1296,64.0139,-2.47774
630,-272,64.1577,2.64478,-0.005525,0.00866961,0.00276556,0.0091894,-0.00604478,1.38501,0.0088577,0.0466782,1854,1296,64.1577,-2.64472
637,-272,63.6823,2.04517,0,0,0,0,0,0,0,-1,1861,1296,63.6822,-2.04517
644,-272,53.563,1.44336,0,0,0,0,0,0,0,-1,1868,1296,53.5629,-1.4433
651,-272,41.9225,4.27161,0,0,0,0,0,0,0,-1,1875,1296,41.9225,-4.27157
658,-272,35.1527,2.10571,0,0,0,0,0,0,0,-1,1882,1296,35.1527,-2.10573
665,-272,22.0238,4.14417,0,0,0,0,0,0,0,-1,1889,1296,22.0238,-4.14421
672,-272,22.661,7.21765,0,0,0,0,0,0,0,-1,1896,1296,22.661,-7.21761
679,-272,45.3352,13.5576,0,0,0,0,0,0,0,-1,1903,1296,45.3352,-13.5576
686,-272,45.2705,12.8909,-0.00472331,1.76612e-05,0.000908603,0.000185829,-0.00489148,1.38778,0.00332466,0.0330845,1910,1296,45.2705,-12.8908
693,-272,45.2791,12.2083,-0.0019111,-0.000798653,0.000847258,-0.000341352,-0.0023684,1.07586,0.00147834,0.0118602,1917,1296,45.279,-12.2083
700,-272,45.2539,11.5643,0.000127043,-0.000690617,0.000404298,0.000293191,-0.000856765,0.389912,0.000689993,0.0121702,1924,1296,45.2539,-11.5644
707,-272,45.2312,10.9154,0.000110415,-0.000472186,0.00086684,0.000733591,-0.00109536,0.623302,0.00106281,0.0116656,1931,1296,45.2312,-10.9154
714,-272,45.203,10.2827,-0.000881729,-0.000880608,0.00192447,0.0010433,-0.00280564,0.785544,0.00229852,0.0133697,1938,1296,45.203,-10.2827
721,-272,45.1376,9.69055,-0.00202253,-0.00109347,0.00278276,0.00126327,-0.00437927,0.868102,0.00341929,0.017085,1945,1296,45.1376,-9.69053
728,-272,45.1389,9.03259,-0.00336982,-0.00142814,0.00379972,0.00152281,-0.00632077,0.910474,0.00480261,0.0183523,1952,1296,45.1389,-9.03258
735,-272,45.1537,8.4541,-0.0049526,-0.00168869,0.00476958,0.0017204,-0.00836169,0.950234,0.00622765,0.0165325,1959,1296,45.1537,-8.45408
742,-272,45.0499,7.93542,-0.00682981,-0.00176378,0.00561351,0.00186175,-0.0104553,0.997339,0.00766654,0.0263869,1966,1296,45.0499,-7.93541
749,-272,44.9459,7.59851,-0.00911587,-0.00134832,0.00592881,0.00185553,-0.0123197,1.07536,0.00889639,0.0483251,1973,1296,44.9459,-7.59851
756,-272,44.9768,7.32483,0,0,0,0,0,0,0,-1,1980,1296,44.9769,-7.32484
763,-272,34.3995,5.88416,0,0,0,0,0,0,0,-1,1987,1296,34.3996,-5.88419
770,-272,25.9485,3.67749,0,0,0,0,0,0,0,-1,1994,1296,25.9485,-3.67744
777,-272,32.3619,6.13257,0,0,0,0,0,0,0,-1,2001,1296,32.362,-6.1326
784,-272,0,0,0,0,0,0,0,0,0,-1,2008,1296,0,0
791,-272,0,0,0,0,0,0,0,0,0,-1,2015,1296,0,0
798,-272,0,0,0,0,0,0,0,0,0,-1,2022,1296,0,0
805,-272,0,0,0,0,0,0,0,0,0,-1,2029,1296,0,0
812,-272,0,0,0,0,0,0,0,0,0,-1,2036,1296,0,0
-700,-279,0,0,0,0,0,0,0,0,0,-1,524,1303,0,0
-693,-279,0,0,0,0,0,0,0,0,0,-1,531,1303,0,0
-686,-279,0,0,0,0,0,0,0,0,0,-1,538,1303,0,0
-679,-279,0,0,0,0,0,0,0,0,0,-1,545,1303,0,0
-672,-279,0,0,0,0,0,0,0,0,0,-1,552,1303,0,0
-665,-279,0,0,0,0,0,0,0,0,0,-1,559,1303,0,0
-658,-279,-44.3733,1.65881,0,0,0,0,0,0,0,-1,566,1303,-44.3733,-1.65883
-651,-279,-44.1603,1.61462,0,0,0,0,0,0,0,-1,573,1303,-44.1604,-1.61462
-644,-279,-43.8069,1.50903,0,0,0,0,0,0,0,-1,580,1303,-43.8069,-1.50909
-637,-279,-43.2951,1.33704,0,0,0,0,0,0,0,-1,587,1303,-43.2951,-1.33703
-630,-279,-42.6152,1.22852,0,0,0,0,0,0,0,-1,594,1303,-42.6152,-1.22856
-623,-279,-41.8359,0.907715,0,0,0,0,0,0,0,-1,601,1303,-41.8358,-0.907688
-616,-279,-28.9025,4.82104,0,0,0,0,0,0,0,-1,608,1303,-28.9025,-4.82109
-609,-279,-28.397,5.67749,0.00871716,0.0055683,0.0039924,0.0114344,0.0028511,0.597582,0.00687259,0.0496216,615,1303,-28.397,-5.67744
-602,-279,-27.9894,6.48157,0.006407,0.00422527,0.0029533,0.00846446,0.0021678,0.608485,0.00507706,0.0156945,622,1303,-27.9894,-6.48156
-595,-279,-28.047,7.15149,0.00469553,0.00299065,0.00214342,0.0061498,0.00153638,0.596137,0.00369577,0.010834,629,1303,-28.047,-7.15144
-588,-279,-28.0585,7.81812,0.00357933,0.00187128,0.00155797,0.004502,0.000948609,0.534682,0.00274041,0.0109509,636,1303,-28.0585,-7.8181
-581,-279,-28.1176,8.47351,0.00298403,0.000829118,0.00120548,0.00352339,0.000289758,0.420709,0.00225854,0.0122879,643,1303,-28.1176,-8.47345
-574,-279,-28.1707,9.15894,0.00281828,-0.000143196,0.00103945,0.0031467,-0.000471613,0.306027,0.00227138,0.0130488,650,1303,-28.1707,-9.15892
-567,-279,-28.1904,9.82068,0.00308676,-0.00104574,0.00105852,0.00334211,-0.00130109,0.236716,0.00276574,0.0179417,657,1303,-28.1904,-9.82071
-560,-279,-28.2209,10.5326,0.003546,-0.00176581,0.00118094,0.00379672,-0.00201653,0.209197,0.00340833,0.0168487,664,1303,-28.2209,-10.5327
-553,-279,-28.2354,11.2269,0.00424757,-0.002103,0.00165306,0.0046521,-0.00250752,0.239996,0.00419497,0.0159211,671,1303,-28.2354,-11.227
-546,-279,-28.2211,11.8988,0.00503407,-0.00229594,0.00212819,0.00560716,-0.00286904,0.263046,0.00497812,0.032263,678,1303,-28.2211,-11.8988
-539,-279,-28.5452,12.6647,0,0,0,0,0,0,0,-1,685,1303,-28.5451,-12.6646
-532,-279,-14.9813,7.89917,0,0,0,0,0,0,0,-1,692,1303,-14.9813,-7.89918
-525,-279,-11.7063,-0.539185,0,0,0,0,0,0,0,-1,699,1303,-11.7063,0.539166
-518,-279,-16.8138,1.11963,0,0,0,0,0,0,0,-1,706,1303,-16.8138,-1.11968
-511,-279,-20.1063,-1.37915,0,0,0,0,0,0,0,-1,713,1303,-20.1062,1.37918
-504,-279,-18.3766,1.04578,0,0,0,0,0,0,0,-1,720,1303,-18.3767,-1.04577
-497,-279,-19.0046,2.08911,0,0,0,0,0,0,0,-1,727,1303,-19.0046,-2.08905
-490,-279,-20.0176,2.55188,0,0,0,0,0,0,0,-1,734,1303,-20.0176,-2.55183
-483,-279,-20.8064,2.99792,0,0,0,0,0,0,0,-1,741,1303,-20.8064,-2.99797
-476,-279,0,0,0,0,0,0,0,0,0,-1,748,1303,0,0
-469,-279,0,0,0,0,0,0,0,0,0,-1,755,1303,0,0
-462,-279,0,0,0,0,0,0,0,0,0,-1,762,1303,0,0
-455,-279,0,0,0,0,0,0,0,0,0,-1,769,1303,0,0
-448,-279,0,0,0,0,0,0,0,0,0,-1,776,1303,0,0
-441,-279,0,0,0,0,0,0,0,0,0,-1,783,1303,0,0
-434,-279,0,0,0,0,0,0,0,0,0,-1,790,1303,0,0
-427,-279,0,0,0,0,0,0,0,0,0,-1,797,1303,0,0
-420,-279,0,0,0,0,0,0,0,0,0,-1,804,1303,0,0
-413,-279,0,0,0,0,0,0,0,0,0,-1,811,1303,0,0
-406,-279,0,0,0,0,0,0,0,0,0,-1,818,1303,0,0
-399,-279,0,0,0,0,0,0,0,0,0,-1,825,1303,0,0
-392,-279,0,0,0,0,0,0,0,0,0,-1,832,1303,0,0
-385,-279,0,0,0,0,0,0,0,0,0,-1,839,1303,0,0
-378,-279,0,0,0,0,0,0,0,0,0,-1,846,1303,0,0
-371,-279,0,0,0,0,0,0,0,0,0,-1,853,1303,0,0
-364,-279,0,0,0,0,0,0,0,0,0,-1,860,1303,0,0
-357,-279,0,0,0,0,0,0,0,0,0,-1,867,1303,0,0
-350,-279,0,0,0,0,0,0,0,0,0,-1,874,1303,0,0
-343,-279,0,0,0,0,0,0,0,0,0,-1,881,1303,0,0
-336,-279,0,0,0,0,0,0,0,0,0,-1,888,1303,0,0
-329,-279,0,0,0,0,0,0,0,0,0,-1,895,1303,0,0
-322,-279,0,0,0,0,0,0,0,0,0,-1,902,1303,0,0
-315,-279,0,0,0,0,0,0,0,0,0,-1,909,1303,0,0
-308,-279,0,0,0,0,0,0,0,0,0,-1,916,1303,0,0
-301,-279,0,0,0,0,0,0,0,0,0,-1,923,1303,0,0
-294,-279,0,0,0,0,0,0,0,0,0,-1,930,1303,0,0
-287,-279,0,0,0,0,0,0,0,0,0,-1,937,1303,0,0
-280,-279,0,0,0,0,0,0,0,0,0,-1,944,1303,0,0
-273,-279,0,0,0,0,0,0,0,0,0,-1,951,1303,0,0
-266,-279,0,0,0,0,0,0,0,0,0,-1,958,1303,0,0
-259,-279,0,0,0,0,0,0,0,0,0,-1,965,1303,0,0
-252,-279,0,0,0,0,0,0,0,0,0,-1,972,1303,0,0
-245,-279,0,0,0,0,0,0,0,0,0,-1,979,1303,0,0
-238,-279,0,0,0,0,0,0,0,0,0,-1,986,1303,0,0
-231,-279,0,0,0,0,0,0,0,0,0,-1,993,1303,0,0
-224,-279,0,0,0,0,0,0,0,0,0,-1,1000,1303,0,0
-217,-279,0,0,0,0,0,0,0,0,0,-1,1007,1303,0,0
-210,-279,0,0,0,0,0,0,0,0,0,-1,1014,1303,0,0
-203,-279,0,0,0,0,0,0,0,0,0,-1,1021,1303,0,0
-196,-279,0,0,0,0,0,0,0,0,0,-1,1028,1303,0,0
-189,-279,0,0,0,0,0,0,0,0,0,-1,1035,1303,0,0
-182,-279,0,0,0,0,0,0,0,0,0,-1,1042,1303,0,0
-175,-279,0,0,0,0,0,0,0,0,0,-1,1049,1303,0,0
-168,-279,0,0,0,0,0,0,0,0,0,-1,1056,1303,0,0
-161,-279,0,0,0,0,0,0,0,0,0,-1,1063,1303,0,0
-154,-279,0,0,0,0,0,0,0,0,0,-1,1070,1303,0,0
-147,-279,0,0,0,0,0,0,0,0,0,-1,1077,1303,0,0
-140,-279,0,0,0,0,0,0,0,0,0,-1,1084,1303,0,0
-133,-279,0,0,0,0,0,0,0,0,0,-1,1091,1303,0,0
-126,-279,0,0,0,0,0,0,0,0,0,-1,1098,1303,0,0
-119,-279,0,0,0,0,0,0,0,0,0,-1,1105,1303,0,0
-112,-279,0,0,0,0,0,0,0,0,0,-1,1112,1303,0,0
-105,-279,0,0,0,0,0,0,0,0,0,-1,1119,1303,0,0
-98,-279,0,0,0,0,0,0,0,0,0,-1,1126,1303,0,0
-91,-279,0,0,0,0,0,0,0,0,0,-1,1133,1303,0,0
-84,-279,0,0,0,0,0,0,0,0,0,-1,1140,1303,0,0
-77,-279,0,0,0,0,0,0,0,0,0,-1,1147,1303,0,0
-70,-279,0,0,0,0,0,0,0,0,0,-1,1154,1303,0,0
-63,-279,0,0,0,0,0,0,0,0,0,-1,1161,1303,0,0
-56,-279,0,0,0,0,0,0,0,0,0,-1,1168,1303,0,0
-49,-279,0,0,0,0,0,0,0,0,0,-1,1175,1303,0,0
-42,-279,0,0,0,0,0,0,0,0,0,-1,1182,1303,0,0
-35,-279,0,0,0,0,0,0,0,0,0,-1,1189,1303,0,0
-28,-279,0,0,0,0,0,0,0,0,0,-1,1196,1303,0,0
-21,-279,0,0,0,0,0,0,0,0,0,-1,1203,1303,0,0
-14,-279,0,0,0,0,0,0,0,0,0,-1,1210,1303,0,0
-7,-279,0,0,0,0,0,0,0,0,0,-1,1217,1303,0,0
0,-279,0,0,0,0,0,0,0,0,0,-1,1224,1303,0,0
7,-279,0,0,0,0,0,0,0,0,0,-1,1231,1303,0,0
14,-279,0,0,0,0,0,0,0,0,0,-1,1238,1303,0,0
21,-279,0,0,0,0,0,0,0,0,0,-1,1245,1303,0,0
28,-279,0,0,0,0,0,0,0,0,0,-1,1252,1303,0,0
35,-279,0,0,0,0,0,0,0,0,0,-1,1259,1303,0,0
42,-279,0,0,0,0,0,0,0,0,0,-1,1266,1303,0,0
49,-279,0,0,0,0,0,0,0,0,0,-1,1273,1303,0,0
56,-279,0,0,0,0,0,0,0,0,0,-1,1280,1303,0,0
63,-279,0,0,0,0,0,0,0,0,0,-1,1287,1303,0,0
70,-279,0,0,0,0,0,0,0,0,0,-1,1294,1303,0,0
77,-279,0,0,0,0,0,0,0,0,0,-1,1301,1303,0,0
84,-279,0,0,0,0,0,0,0,0,0,-1,1308,1303,0,0
91,-279,0,0,0,0,0,0,0,0,0,-1,1315,1303,0,0
98,-279,0,0,0,0,0,0,0,0,0,-1,1322,1303,0,0
105,-279,0,0,0,0,0,0,0,0,0,-1,1329,1303,0,0
112,-279,0,0,0,0,0,0,0,0,0,-1,1336,1303,0,0
119,-279,0,0,0,0,0,0,0,0,0,-1,1343,1303,0,0
126,-279,0,0,0,0,0,0,0,0,0,-1,1350,1303,0,0
133,-279,0,0,0,0,0,0,0,0,0,-1,1357,1303,0,0
140,-279,0,0,0,0,0,0,0,0,0,-1,1364,1303,0,0
147,-279,0,0,0,0,0,0,0,0,0,-1,1371,1303,0,0
154,-279,0,0,0,0,0,0,0,0,0,-1,1378,1303,0,0
161,-279,0,0,0,0,0,0,0,0,0,-1,1385,1303,0,0
168,-279,0,0,0,0,0,0,0,0,0,-1,1392,1303,0,0
175,-279,0,0,0,0,0,0,0,0,0,-1,1399,1303,0,0
182,-279,0,0,0,0,0,0,0,0,0,-1,1406,1303,0,0
189,-279,0,0,0,0,0,0,0,0,0,-1,1413,1303,0,0
196,-279,0,0,0,0,0,0,0,0,0,-1,1420,1303,0,0
203,-279,0,0,0,0,0,0,0,0,0,-1,1427,1303,0,0
210,-279,0,0,0,0,0,0,0,0,0,-1,1434,1303,0,0
217,-279,0,0,0,0,0,0,0,0,0,-1,1441,1303,0,0
224,-279,0,0,0,0,0,0,0,0,0,-1,1448,1303,0,0
231,-279,0,0,0,0,0,0,0,0,0,-1,1455,1303,0,0
238,-279,0,0,0,0,0,0,0,0,0,-1,1462,1303,0,0
245,-279,0,0,0,0,0,0,0,0,0,-1,1469,1303,0,0
252,-279,0,0,0,0,0,0,0,0,0,-1,1476,1303,0,0
259,-279,0,0,0,0,0,0,0,0,0,-1,1483,1303,0,0
266,-279,0,0,0,0,0,0,0,0,0,-1,1490,1303,0,0
273,-279,0,0,0,0,0,0,0,0,0,-1,1497,1303,0,0
280,-279,0,0,0,0,0,0,0,0,0,-1,1504,1303,0,0
287,-279,0,0,0,0,0,0,0,0,0,-1,1511,1303,0,0
294,-279,0,0,0,0,0,0,0,0,0,-1,1518,1303,0,0
301,-279,0,0,0,0,0,0,0,0,0,-1,1525,1303,0,0
308,-279,0,0,0,0,0,0,0,0,0,-1,1532,1303,0,0
315,-279,0,0,0,0,0,0,0,0,0,-1,1539,1303,0,0
322,-279,0,0,0,0,0,0,0,0,0,-1,1546,1303,0,0
329,-279,0,0,0,0,0,0,0,0,0,-1,1553,1303,0,0
336,-279,0,0,0,0,0,0,0,0,0,-1,1560,1303,0,0
343,-279,0,0,0,0,0,0,0,0,0,-1,1567,1303,0,0
350,-279,0,0,0,0,0,0,0,0,0,-1,1574,1303,0,0
357,-279,0,0,0,0,0,0,0,0,0,-1,1581,1303,0,0
364,-279,0,0,0,0,0,0,0,0,0,-1,1588,1303,0,0
371,-279,0,0,0,0,0,0,0,0,0,-1,1595,1303,0,0
378,-279,0,0,0,0,0,0,0,0,0,-1,1602,1303,0,0
385,-279,0,0,0,0,0,0,0,0,0,-1,1609,1303,0,0
392,-279,0,0,0,0,0,0,0,0,0,-1,1616,1303,0,0
399,-279,0,0,0,0,0,0,0,0,0,-1,1623,1303,0,0
406,-279,0,0,0,0,0,0,0,0,0,-1,1630,1303,0,0
413,-279,0,0,0,0,0,0,0,0,0,-1,1637,1303,0,0
420,-279,0,0,0,0,0,0,0,0,0,-1,1644,1303,0,0
427,-279,0,0,0,0,0,0,0,0,0,-1,1651,1303,0,0
434,-279,0,0,0,0,0,0,0,0,0,-1,1658,1303,0,0
441,-279,0,0,0,0,0,0,0,0,0,-1,1665,1303,0,0
448,-279,0,0,0,0,0,0,0,0,0,-1,1672,1303,0,0
455,-279,0,0,0,0,0,0,0,0,0,-1,1679,1303,0,0
462,-279,0,0,0,0,0,0,0,0,0,-1,1686,1303,0,0
469,-279,0,0,0,0,0,0,0,0,0,-1,1693,1303,0,0
476,-279,0,0,0,0,0,0,0,0,0,-1,1700,1303,0,0
483,-279,0,0,0,0,0,0,0,0,0,-1,1707,1303,0,0
490,-279,0,0,0,0,0,0,0,0,0,-1,1714,1303,0,0
497,-279,0,0,0,0,0,0,0,0,0,-1,1721,1303,0,0
504,-279,0,0,0,0,0,0,0,0,0,-1,1728,1303,0,0
511,-279,0,0,0,0,0,0,0,0,0,-1,1735,1303,0,0
518,-279,0,0,0,0,0,0,0,0,0,-1,1742,1303,0,0
525,-279,0,0,0,0,0,0,0,0,0,-1,1749,1303,0,0
532,-279,0,0,0,0,0,0,0,0,0,-1,1756,1303,0,0
539,-279,0,0,0,0,0,0,0,0,0,-1,1763,1303,0,0
546,-279,0,0,0,0,0,0,0,0,0,-1,1770,1303,0,0
553,-279,0,0,0,0,0,0,0,0,0,-1,1777,1303,0,0
560,-279,0,0,0,0,0,0,0,0,0,-1,1784,1303,0,0
567,-279,0,0,0,0,0,0,0,0,0,-1,1791,1303,0,0
574,-279,0,0,0,0,0,0,0,0,0,-1,1798,1303,0,0
581,-279,0,0,0,0,0,0,0,0,0,-1,1805,1303,0,0
588,-279,0,0,0,0,0,0,0,0,0,-1,1812,1303,0,0
595,-279,0,0,0,0,0,0,0,0,0,-1,1819,1303,0,0
602,-279,63.9958,2.53735,0,0,0,0,0,0,0,-1,1826,1303,63.9959,-2.53733
609,-279,63.8575,2.37524,0,0,0,0,0,0,0,-1,1833,1303,63.8575,-2.37526
616,-279,63.8455,2.04541,0.00337278,0.0156647,0.00418435,0.0169539,0.00208358,1.27193,0.0106761,0.0476878,1840,1303,63.8455,-2.0454
623,-279,63.9622,2.38208,0.00146631,0.012779,0.00330944,0.0136761,0.000569289,1.30611,0.00893366,0.0470379,1847,1303,63.9622,-2.38209
630,-279,64.2546,2.76733,0,0,0,0,0,0,0,-1,1854,1303,64.2547,-2.76734
637,-279,61.7209,2.64832,0,0,0,0,0,0,0,-1,1861,1303,61.7209,-2.64828
644,-279,33.5021,3.40234,0,0,0,0,0,0,0,-1,1868,1303,33.5021,-3.40237
651,-279,29.8456,2.3562,0,0,0,0,0,0,0,-1,1875,1303,29.8455,-2.35615
658,-279,21.5076,7.65649,0,0,0,0,0,0,0,-1,1882,1303,21.5076,-7.65648
665,-279,18.9794,6.09607,0,0,0,0,0,0,0,-1,1889,1303,18.9793,-6.09601
672,-279,23.5206,8.32507,0,0,0,0,0,0,0,-1,1896,1303,23.5206,-8.32512
679,-279,44.5746,13.4236,0,0,0,0,0,0,0,-1,1903,1303,44.5746,-13.4235
686,-279,44.6163,12.8239,-0.0038601,-1.35718e-05,0.000647177,9.23962e-05,-0.00396607,1.4085,0.00267538,0.029064,1910,1303,44.6163,-12.8238
693,-279,44.6263,12.238,-0.00121787,-0.000693248,0.000605672,-0.000295523,-0.00161559,0.989749,0.000993316,0.0164069,1917,1303,44.6264,-12.2381
700,-279,44.6189,11.6256,0.000310802,-0.000620224,0.000425985,0.000476293,-0.000785714,0.370544,0.000735884,0.0122171,1924,1303,44.6188,-11.6256
707,-279,44.5829,10.9583,8.28362e-05,-0.000594347,0.00105192,0.00084931,-0.00136082,0.629694,0.00128736,0.00979316,1931,1303,44.5829,-10.9583
714,-279,44.5481,10.3304,-0.000861676,-0.00107003,0.00212401,0.00116071,-0.00309241,0.760894,0.00253856,0.0108597,1938,1303,44.5481,-10.3305
721,-279,44.5533,9.70386,-0.00195706,-0.0014142,0.00305808,0.00138447,-0.00475573,0.829662,0.00371889,0.0151218,1945,1303,44.5533,-9.7038
728,-279,44.5492,9.07642,-0.00327293,-0.00192704,0.00419108,0.00164477,-0.00684475,0.865001,0.00519888,0.0171196,1952,1303,44.5492,-9.07644
735,-279,44.5143,8.51257,-0.0048545,-0.00244042,0.0053418,0.00182902,-0.00912394,0.896513,0.0067751,0.0162472,1959,1303,44.5143,-8.51253
742,-279,44.45,7.9574,-0.0067861,-0.00287923,0.00648335,0.00193858,-0.0116039,0.931723,0.00845653,0.0286449,1966,1303,44.45,-7.9574
749,-279,44.4434,7.37244,0,0,0,0,0,0,0,-1,1973,1303,44.4434,-7.37248
756,-279,23.2091,4.43433,0,0,0,0,0,0,0,-1,1980,1303,23.2092,-4.43432
763,-279,27.1613,3.46265,0,0,0,0,0,0,0,-1,1987,1303,27.1613,-3.4627
770,-279,21.5828,3.54199,0,0,0,0,0,0,0,-1,1994,1303,21.5827,-3.54198
777,-279,32.5369,6.99609,0,0,0,0,0,0,0,-1,2001,1303,32.5369,-6.99608
784,-279,0,0,0,0,0,0,0,0,0,-1,2008,1303,0,0
791,-279,0,0,0,0,0,0,0,0,0,-1,2015,1303,0,0
798,-279,0,0,0,0,0,0,0,0,0,-1,2022,1303,0,0
805,-279,0,0,0,0,0,0,0,0,0,-1,2029,1303,0,0
812,-279,0,0,0,0,0,0,0,0,0,-1,2036,1303,0,0
-700,-286,0,0,0,0,0,0,0,0,0,-1,524,1310,0,0
-693,-286,0,0,0,0,0,0,0,0,0,-1,531,1310,0,0
-686,-286,0,0,0,0,0,0,0,0,0,-1,538,1310,0,0
-679,-286,0,0,0,0,0,0,0,0,0,-1,545,1310,0,0
-672,-286,0,0,0,0,0,0,0,0,0,-1,552,1310,0,0
-665,-286,0,0,0,0,0,0,0,0,0,-1,559,1310,0,0
-658,-286,-44.103,1.76782,0,0,0,0,0,0,0,-1,566,1310,-44.103,-1.76778
-651,-286,-43.6417,1.98254,0,0,0,0,0,0,0,-1,573,1310,-43.6416,-1.98254
-644,-286,-43.3175,1.59558,0,0,0,0,0,0,0,-1,580,1310,-43.3175,-1.59556
-637,-286,-42.8448,1.15039,0,0,0,0,0,0,0,-1,587,1310,-42.8448,-1.15043
-630,-286,-42.1176,0.443848,0,0,0,0,0,0,0,-1,594,1310,-42.1176,-0.443802
-623,-286,-41.3121,-0.468384,0,0,0,0,0,0,0,-1,601,1310,-41.3121,0.468376
-616,-286,-22.0634,2.37744,0,0,0,0,0,0,0,-1,608,1310,-22.0633,-2.37746
-609,-286,-27.512,5.57788,0,0,0,0,0,0,0,-1,615,1310,-27.512,-5.57791
-602,-286,-27.3673,6.42712,0.00723332,0.00462034,0.00332114,0.00949571,0.00235796,0.598002,0.00570917,0.0229088,622,1310,-27.3673,-6.42713
-595,-286,-27.4008,7.18152,0.0051952,0.00331802,0.00238596,0.00682054,0.00169267,0.598005,0.00410095,0.0128876,629,1310,-27.4008,-7.18156
-588,-286,-27.3995,7.84656,0.00385366,0.00220282,0.00172017,0.0049362,0.00112029,0.5617,0.00298821,0.0131339,636,1310,-27.3995,-7.84656
-581,-286,-27.4059,8.50085,0.0031573,0.00122142,0.00136016,0.00385877,0.000519943,0.476152,0.00241791,0.0153922,643,1310,-27.4059,-8.50085
-574,-286,-27.4768,9.18555,0.00292391,0.00034619,0.00120885,0.0034021,-0.000132002,0.376687,0.00231332,0.0154696,650,1310,-27.4768,-9.18554
-567,-286,-27.515,9.86475,0.00313213,-0.000427231,0.00125332,0.00352916,-0.000824264,0.306783,0.00267028,0.0150905,657,1310,-27.515,-9.86474
-560,-286,-27.5305,10.5574,0.00368322,-0.00113584,0.00144686,0.00408425,-0.00153686,0.270384,0.0033546,0.0140369,664,1310,-27.5304,-10.5574
-553,-286,-27.5599,11.2446,0.00465903,-0.00166962,0.00194587,0.00520946,-0.00222005,0.275667,0.00440365,0.0105239,671,1310,-27.5599,-11.2447
-546,-286,-27.5474,11.9594,0.00593683,-0.0021188,0.00255866,0.00668081,-0.00286278,0.282967,0.00565507,0.0244928,678,1310,-27.5474,-11.9594
-539,-286,-27.6319,12.7639,0,0,0,0,0,0,0,-1,685,1310,-27.6319,-12.764
-532,-286,-21.6771,10.4924,0,0,0,0,0,0,0,-1,692,1310,-21.6771,-10.4924
-525,-286,-11.4528,-1.11768,0,0,0,0,0,0,0,-1,699,1310,-11.4528,1.11769
-518,-286,-11.0701,1.37329,0,0,0,0,0,0,0,-1,706,1310,-11.0701,-1.37332
-511,-286,-17.7545,-0.0791016,0,0,0,0,0,0,0,-1,713,1310,-17.7544,0.0791606
-504,-286,-18.0455,1.29602,0,0,0,0,0,0,0,-1,720,1310,-18.0455,-1.29601
-497,-286,-18.3367,2.67114,0,0,0,0,0,0,0,-1,727,1310,-18.3366,-2.67118
-490,-286,-19.5795,2.47266,0,0,0,0,0,0,0,-1,734,1310,-19.5795,-2.4727
-483,-286,-19.7277,2.74744,0,0,0,0,0,0,0,-1,741,1310,-19.7277,-2.74747
-476,-286,-20.0391,3.06177,0,0,0,0,0,0,0,-1,748,1310,-20.0391,-3.06178
-469,-286,0,0,0,0,0,0,0,0,0,-1,755,1310,0,0
-462,-286,0,0,0,0,0,0,0,0,0,-1,762,1310,0,0
-455,-286,0,0,0,0,0,0,0,0,0,-1,769,1310,0,0
-448,-286,0,0,0,0,0,0,0,0,0,-1,776,1310,0,0
-441,-286,0,0,0,0,0,0,0,0,0,-1,783,1310,0,0
-434,-286,0,0,0,0,0,0,0,0,0,-1,790,1310,0,0
-427,-286,0,0,0,0,0,0,0,0,0,-1,797,1310,0,0
-420,-286,0,0,0,0,0,0,0,0,0,-1,804,1310,0,0
-413,-286,0,0,0,0,0,0,0,0,0,-1,811,1310,0,0
-406,-286,0,0,0,0,0,0,0,0,0,-1,818,1310,0,0
-399,-286,0,0,0,0,0,0,0,0,0,-1,825,1310,0,0
-392,-286,0,0,0,0,0,0,0,0,0,-1,832,1310,0,0
-385,-286,0,0,0,0,0,0,0,0,0,-1,839,1310,0,0
-378,-286,0,0,0,0,0,0,0,0,0,-1,846,1310,0,0
-371,-286,0,0,0,0,0,0,0,0,0,-1,853,1310,0,0
-364,-286,0,0,0,0,0,0,0,0,0,-1,860,1310,0,0
-357,-286,0,0,0,0,0,0,0,0,0,-1,867,1310,0,0
-350,-286,0,0,0,0,0,0,0,0,0,-1,874,1310,0,0
-343,-286,0,0,0,0,0,0,0,0,0,-1,881,1310,0,0
-336,-286,0,0,0,0,0,0,0,0,0,-1,888,1310,0,0
-329,-286,0,0,0,0,0,0,0,0,0,-1,895,1310,0,0
-322,-286,0,0,0,0,0,0,0,0,0,-1,902,1310,0,0
-315,-286,0,0,0,0,0,0,0,0,0,-1,909,1310,0,0
-308,-286,0,0,0,0,0,0,0,0,0,-1,916,1310,0,0
-301,-286,0,0,0,0,0,0,0,0,0,-1,923,1310,0,0
-294,-286,0,0,0,0,0,0,0,0,0,-1,930,1310,0,0
-287,-286,0,0,0,0,0,0,0,0,0,-1,937,1310,0,0
-280,-286,0,0,0,0,0,0,0,0,0,-1,944,1310,0,0
-273,-286,0,0,0,0,0,0,0,0,0,-1,951,1310,0,0
-266,-286,0,0,0,0,0,0,0,0,0,-1,958,1310,0,0
-259,-286,0,0,0,0,0,0,0,0,0,-1,965,1310,0,0
-252,-286,0,0,0,0,0,0,0,0,0,-1,972,1310,0,0
-245,-286,0,0,0,0,0,0,0,0,0,-1,979,1310,0,0
-238,-286,0,0,0,0,0,0,0,0,0,-1,986,1310,0,0
-231,-286,0,0,0,0,0,0,0,0,0,-1,993,1310,0,0
-224,-286,0,0,0,0,0,0,0,0,0,-1,1000,1310,0,0
-217,-286,0,0,0,0,0,0,0,0,0,-1,1007,1310,0,0
-210,-286,0,0,0,0,0,0,0,0,0,-1,1014,1310,0,0
-203,-286,0,0,0,0,0,0,0,0,0,-1,1021,1310,0,0
-196,-286,0,0,0,0,0,0,0,0,0,-1,1028,1310,0,0
-189,-286,0,0,0,0,0,0,0,0,0,-1,1035,1310,0,0
-182,-286,0,0,0,0,0,0,0,0,0,-1,1042,1310,0,0
-175,-286,0,0,0,0,0,0,0,0,0,-1,1049,1310,0,0
-168,-286,0,0,0,0,0,0,0,0,0,-1,1056,1310,0,0
-161,-286,0,0,0,0,0,0,0,0,0,-1,1063,1310,0,0
-154,-286,0,0,0,0,0,0,0,0,0,-1,1070,1310,0,0
-147,-286,0,0,0,0,0,0,0,0,0,-1,1077,1310,0,0
-140,-286,0,0,0,0,0,0,0,0,0,-1,1084,1310,0,0
-133,-286,0,0,0,0,0,0,0,0,0,-1,1091,1310,0,0
-126,-286,0,0,0,0,0,0,0,0,0,-1,1098,1310,0,0
-119,-286,0,0,0,0,0,0,0,0,0,-1,1105,1310,0,0
-112,-286,0,0,0,0,0,0,0,0,0,-1,1112,1310,0,0
-105,-286,0,0,0,0,0,0,0,0,0,-1,1119,1310,0,0
-98,-286,0,0,0,0,0,0,0,0,0,-1,1126,1310,0,0
-91,-286,0,0,0,0,0,0,0,0,0,-1,1133,1310,0,0
-84,-286,0,0,0,0,0,0,0,0,0,-1,1140,1310,0,0
-77,-286,0,0,0,0,0,0,0,0,0,-1,1147,1310,0,0
-70,-286,0,0,0,0,0,0,0,0,0,-1,1154,1310,0,0
-63,-286,0,0,0,0,0,0,0,0,0,-1,1161,1310,0,0
-56,-286,0,0,0,0,0,0,0,0,0,-1,1168,1310,0,0
-49,-286,0,0,0,0,0,0,0,0,0,-1,1175,1310,0,0
-42,-286,0,0,0,0,0,0,0,0,0,-1,1182,1310,0,0
-35,-286,0,0,0,0,0,0,0,0,0,-1,1189,1310,0,0
-28,-286,0,0,0,0,0,0,0,0,0,-1,1196,1310,0,0
-21,-286,0,0,0,0,0,0,0,0,0,-1,1203,1310,0,0
-14,-286,0,0,0,0,0,0,0,0,0,-1,1210,1310,0,0
-7,-286,0,0,0,0,0,0,0,0,0,-1,1217,1310,0,0
0,-286,0,0,0,0,0,0,0,0,0,-1,1224,1310,0,0
7,-286,0,0,0,0,0,0,0,0,0,-1,1231,1310,0,0
14,-286,0,0,0,0,0,0,0,0,0,-1,1238,1310,0,0
21,-286,0,0,0,0,0,0,0,0,0,-1,1245,1310,0,0
28,-286,0,0,0,0,0,0,0,0,0,-1,1252,1310,0,0
35,-286,0,0,0,0,0,0,0,0,0,-1,1259,1310,0,0
42,-286,0,0,0,0,0,0,0,0,0,-1,1266,1310,0,0
49,-286,0,0,0,0,0,0,0,0,0,-1,1273,1310,0,0
56,-286,0,0,0,0,0,0,0,0,0,-1,1280,1310,0,0
63,-286,0,0,0,0,0,0,0,0,0,-1,1287,1310,0,0
70,-286,0,0,0,0,0,0,0,0,0,-1,1294,1310,0,0
77,-286,0,0,0,0,0,0,0,0,0,-1,1301,1310,0,0
84,-286,0,0,0,0,0,0,0,0,0,-1,1308,1310,0,0
91,-286,0,0,0,0,0,0,0,0,0,-1,1315,1310,0,0
98,-286,0,0,0,0,0,0,0,0,0,-1,1322,1310,0,0
105,-286,0,0,0,0,0,0,0,0,0,-1,1329,1310,0,0
112,-286,0,0,0,0,0,0,0,0,0,-1,1336,1310,0,0
119,-286,0,0,0,0,0,0,0,0,0,-1,1343,1310,0,0
126,-286,0,0,0,0,0,0,0,0,0,-1,1350,1310,0,0
133,-286,0,0,0,0,0,0,0,0,0,-1,1357,1310,0,0
140,-286,0,0,0,0,0,0,0,0,0,-1,1364,1310,0,0
147,-286,0,0,0,0,0,0,0,0,0,-1,1371,1310,0,0
154,-286,0,0,0,0,0,0,0,0,0,-1,1378,1310,0,0
161,-286,0,0,0,0,0,0,0,0,0,-1,1385,1310,0,0
168,-286,0,0,0,0,0,0,0,0,0,-1,1392,1310,0,0
175,-286,0,0,0,0,0,0,0,0,0,-1,1399,1310,0,0
182,-286,0,0,0,0,0,0,0,0,0,-1,1406,1310,0,0
189,-286,0,0,0,0,0,0,0,0,0,-1,1413,1310,0,0
196,-286,0,0,0,0,0,0,0,0,0,-1,1420,1310,0,0
203,-286,0,0,0,0,0,0,0,0,0,-1,1427,1310,0,0
210,-286,0,0,0,0,0,0,0,0,0,-1,1434,1310,0,0
217,-286,0,0,0,0,0,0,0,0,0,-1,1441,1310,0,0
224,-286,0,0,0,0,0,0,0,0,0,-1,1448,1310,0,0
231,-286,0,0,0,0,0,0,0,0,0,-1,1455,1310,0,0
238,-286,0,0,0,0,0,0,0,0,0,-1,1462,1310,0,0
245,-286,0,0,0,0,0,0,0,0,0,-1,1469,1310,0,0
252,-286,0,0,0,0,0,0,0,0,0,-1,1476,1310,0,0
259,-286,0,0,0,0,0,0,0,0,0,-1,1483,1310,0,0
266,-286,0,0,0,0,0,0,0,0,0,-1,1490,1310,0,0
273,-286,0,0,0,0,0,0,0,0,0,-1,1497,1310,0,0
280,-286,0,0,0,0,0,0,0,0,0,-1,1504,1310,0,0
287,-286,0,0,0,0,0,0,0,0,0,-1,1511,1310,0,0
294,-286,0,0,0,0,0,0,0,0,0,-1,1518,1310,0,0
301,-286,0,0,0,0,0,0,0,0,0,-1,1525,1310,0,0
308,-286,0,0,0,0,0,0,0,0,0,-1,1532,1310,0,0
315,-286,0,0,0,0,0,0,0,0,0,-1,1539,1310,0,0
322,-286,0,0,0,0,0,0,0,0,0,-1,1546,1310,0,0
329,-286,0,0,0,0,0,0,0,0,0,-1,1553,1310,0,0
336,-286,0,0,0,0,0,0,0,0,0,-1,1560,1310,0,0
343,-286,0,0,0,0,0,0,0,0,0,-1,1567,1310,0,0
350,-286,0,0,0,0,0,0,0,0,0,-1,1574,1310,0,0
357,-286,0,0,0,0,0,0,0,0,0,-1,1581,1310,0,0
364,-286,0,0,0,0,0,0,0,0,0,-1,1588,1310,0,0
371,-286,0,0,0,0,0,0,0,0,0,-1,1595,1310,0,0
378,-286,0,0,0,0,0,0,0,0,0,-1,1602,1310,0,0
385,-286,0,0,0,0,0,0,0,0,0,-1,1609,1310,0,0
392,-286,0,0,0,0,0,0,0,0,0,-1,1616,1310,0,0
399,-286,0,0,0,0,0,0,0,0,0,-1,1623,1310,0,0
406,-286,0,0,0,0,0,0,0,0,0,-1,1630,1310,0,0
413,-286,0,0,0,0,0,0,0,0,0,-1,1637,1310,0,0
420,-286,0,0,0,0,0,0,0,0,0,-1,1644,1310,0,0
427,-286,0,0,0,0,0,0,0,0,0,-1,1651,1310,0,0
434,-286,0,0,0,0,0,0,0,0,0,-1,1658,1310,0,0
441,-286,0,0,0,0,0,0,0,0,0,-1,1665,1310,0,0
448,-286,0,0,0,0,0,0,0,0,0,-1,1672,1310,0,0
455,-286,0,0,0,0,0,0,0,0,0,-1,1679,1310,0,0
462,-286,0,0,0,0,0,0,0,0,0,-1,1686,1310,0,0
469,-286,0,0,0,0,0,0,0,0,0,-1,1693,1310,0,0
476,-286,0,0,0,0,0,0,0,0,0,-1,1700,1310,0,0
483,-286,0,0,0,0,0,0,0,0,0,-1,1707,1310,0,0
490,-286,0,0,0,0,0,0,0,0,0,-1,1714,1310,0,0
497,-286,0,0,0,0,0,0,0,0,0,-1,1721,1310,0,0
504,-286,0,0,0,0,0,0,0,0,0,-1,1728,1310,0,0
511,-286,0,0,0,0,0,0,0,0,0,-1,1735,1310,0,0
518,-286,0,0,0,0,0,0,0,0,0,-1,1742,1310,0,0
525,-286,0,0,0,0,0,0,0,0,0,-1,1749,1310,0,0
532,-286,0,0,0,0,0,0,0,0,0,-1,1756,1310,0,0
539,-286,0,0,0,0,0,0,0,0,0,-1,1763,1310,0,0
546,-286,0,0,0,0,0,0,0,0,0,-1,1770,1310,0,0
553,-286,0,0,0,0,0,0,0,0,0,-1,1777,1310,0,0
560,-286,0,0,0,0,0,0,0,0,0,-1,1784,1310,0,0
567,-286,0,0,0,0,0,0,0,0,0,-1,1791,1310,0,0
574,-286,0,0,0,0,0,0,0,0,0,-1,1798,1310,0,0
581,-286,0,0,0,0,0,0,0,0,0,-1,1805,1310,0,0
588,-286,0,0,0,0,0,0,0,0,0,-1,1812,1310,0,0
595,-286,64.229,2.67468,0,0,0,0,0,0,0,-1,1819,1310,64.2289,-2.67465
602,-286,64.4949,2.58643,0,0,0,0,0,0,0,-1,1826,1310,64.4948,-2.58646
609,-286,64.6267,2.40527,0,0,0,0,0,0,0,-1,1833,1310,64.6267,-2.40522
616,-286,63.9379,1.74866,0,0,0,0,0,0,0,-1,1840,1310,63.9378,-1.74867
623,-286,63.902,2.23279,0,0,0,0,0,0,0,-1,1847,1310,63.902,-2.23282
630,-286,61.6095,2.52808,0,0,0,0,0,0,0,-1,1854,1310,61.6094,-2.52813
637,-286,47.8409,3.69824,0,0,0,0,0,0,0,-1,1861,1310,47.841,-3.69823
644,-286,25.6433,1.33862,0,0,0,0,0,0,0,-1,1868,1310,25.6433,-1.33858
651,-286,25.2507,1.88245,0,0,0,0,0,0,0,-1,1875,1310,25.2508,-1.88245
658,-286,25.9475,9.43689,0,0,0,0,0,0,0,-1,1882,1310,25.9475,-9.43693
665,-286,24.9838,8.03101,0,0,0,0,0,0,0,-1,1889,1310,24.9837,-8.03104
672,-286,40.2175,12.9626,0,0,0,0,0,0,0,-1,1896,1310,40.2175,-12.9627
679,-286,44.0026,13.5277,0,0,0,0,0,0,0,-1,1903,1310,44.0026,-13.5277
686,-286,43.9886,12.8787,-0.00275945,-4.55727e-05,0.000347348,-1.82108e-06,-0.00280321,1.4455,0.0018682,0.0229524,1910,1310,43.9887,-12.8787
693,-286,43.9907,12.2684,-0.000514106,-0.000591177,0.000387692,-0.00016304,-0.000942244,0.735862,0.000581485,0.0165129,1917,1310,43.9908,-12.2685
700,-286,43.9777,11.6271,0.00047322,-0.000571693,0.000465605,0.000650583,-0.000749057,0.363961,0.000808749,0.0118775,1924,1310,43.9777,-11.627
707,-286,43.9406,11.0006,7.56253e-05,-0.000711431,0.00119916,0.000944182,-0.00157999,0.626851,0.00147266,0.0089707,1931,1310,43.9405,-11.0007
714,-286,43.9084,10.3837,-0.000826095,-0.00125,0.00226729,0.00123913,-0.00331522,0.738792,0.002719,0.00906814,1938,1310,43.9084,-10.3836
721,-286,43.9116,9.7489,-0.00187867,-0.00172788,0.00327402,0.00147161,-0.00507816,0.79691,0.00396801,0.0119448,1945,1310,43.9117,-9.74894
728,-286,43.9011,9.125,-0.0031612,-0.0024163,0.00451173,0.00173833,-0.00731582,0.826581,0.00554819,0.0153019,1952,1310,43.9012,-9.125
735,-286,43.9067,8.526,-0.00474533,-0.00320072,0.00584123,0.00191904,-0.00986509,0.851125,0.00730096,0.0184562,1959,1310,43.9067,-8.52602
742,-286,43.9246,7.9563,-0.00674212,-0.00406417,0.00730676,0.00202529,-0.0128316,0.876018,0.00930326,0.0392389,1966,1310,43.9246,-7.95624
749,-286,44.0441,7.34814,0,0,0,0,0,0,0,-1,1973,1310,44.0441,-7.34817
756,-286,24.8226,4.43481,0,0,0,0,0,0,0,-1,1980,1310,24.8227,-4.43479
763,-286,20.6671,3.99683,0,0,0,0,0,0,0,-1,1987,1310,20.6671,-3.99683
770,-286,23.9147,4.45679,0,0,0,0,0,0,0,-1,1994,1310,23.9146,-4.45675
777,-286,0,0,0,0,0,0,0,0,0,-1,2001,1310,0,0
784,-286,0,0,0,0,0,0,0,0,0,-1,2008,1310,0,0
791,-286,0,0,0,0,0,0,0,0,0,-1,2015,1310,0,0
798,-286,0,0,0,0,0,0,0,0,0,-1,2022,1310,0,0
805,-286,0,0,0,0,0,0,0,0,0,-1,2029,1310,0,0
812,-286,0,0,0,0,0,0,0,0,0,-1,2036,1310,0,0
-700,-293,0,0,0,0,0,0,0,0,0,-1,524,1317,0,0
-693,-293,0,0,0,0,0,0,0,0,0,-1,531,1317,0,0
-686,-293,0,0,0,0,0,0,0,0,0,-1,538,1317,0,0
-679,-293,0,0,0,0,0,0,0,0,0,-1,545,1317,0,0
-672,-293,0,0,0,0,0,0,0,0,0,-1,552,1317,0,0
-665,-293,0,0,0,0,0,0,0,0,0,-1,559,1317,0,0
-658,-293,0,0,0,0,0,0,0,0,0,-1,566,1317,0,0
-651,-293,-42.6636,2.1897,0,0,0,0,0,0,0,-1,573,1317,-42.6636,-2.18965
-644,-293,-42.6672,1.56262,0,0,0,0,0,0,0,-1,580,1317,-42.6672,-1.5626
-637,-293,-42.7898,0.963745,0,0,0,0,0,0,0,-1,587,1317,-42.7898,-0.963689
-630,-293,-42.7558,0.296021,0,0,0,0,0,0,0,-1,594,1317,-42.7558,-0.295997
-623,-293,-15.6058,0.229614,0,0,0,0,0,0,0,-1,601,1317,-15.6058,-0.229666
-616,-293,-15.5056,2.17737,0,0,0,0,0,0,0,-1,608,1317,-15.5055,-2.17742
-609,-293,-25.3796,5.07373,0,0,0,0,0,0,0,-1,615,1317,-25.3796,-5.07369
-602,-293,-26.7958,6.33228,0,0,0,0,0,0,0,-1,622,1317,-26.7959,-6.33227
-595,-293,-26.7667,7.19189,0.00591438,0.00378035,0.00266693,0.00771983,0.0019749,0.595106,0.00463082,0.0212913,629,1317,-26.7667,-7.19193
-588,-293,-26.7377,7.88,0.00423857,0.00257563,0.00184402,0.00542991,0.0013843,0.573597,0.00325806,0.0170442,636,1317,-26.7377,-7.87998
-581,-293,-26.7368,8.53271,0.00338592,0.00158481,0.0014123,0.00416035,0.000810371,0.501577,0.00254679,0.0198251,643,1317,-26.7368,-8.53273
-574,-293,-26.801,9.2323,0.00304527,0.000741228,0.00121346,0.00356646,0.000220038,0.405683,0.00230779,0.017947,650,1317,-26.801,-9.23231
-567,-293,-26.8526,9.9292,0.00316328,2.20711e-05,0.00122349,0.00358358,-0.000398232,0.330899,0.00253226,0.0167418,657,1317,-26.8526,-9.92918
-560,-293,-26.869,10.6188,0.00375074,-0.000610418,0.00141537,0.00416981,-0.00102949,0.287865,0.0031791,0.0172475,664,1317,-26.869,-10.6188
-553,-293,-26.8796,11.2761,0.00490056,-0.00109383,0.00186609,0.00543402,-0.00162728,0.27844,0.00426975,0.0123096,671,1317,-26.8796,-11.2761
-546,-293,-26.8832,11.9708,0.00656826,-0.00147361,0.00251911,0.0072922,-0.00219755,0.279838,0.00573606,0.0161765,678,1317,-26.8833,-11.9708
-539,-293,-26.6941,12.6854,0.00886081,-0.00179159,0.00344531,0.009878,-0.00280878,0.287082,0.00769442,0.0490982,685,1317,-26.6941,-12.6855
-532,-293,-26.4091,13.3538,0,0,0,0,0,0,0,-1,692,1317,-26.4091,-13.3538
-525,-293,-8.20642,3.62256,0,0,0,0,0,0,0,-1,699,1317,-8.20639,-3.6226
-518,-293,-10.1053,0.314209,0,0,0,0,0,0,0,-1,706,1317,-10.1053,-0.314234
-511,-293,-11.6276,0.235352,0,0,0,0,0,0,0,-1,713,1317,-11.6276,-0.235372
-504,-293,-17.9086,1.25427,0,0,0,0,0,0,0,-1,720,1317,-17.9086,-1.25423
-497,-293,-18.8006,1.62122,0,0,0,0,0,0,0,-1,727,1317,-18.8006,-1.62119
-490,-293,-18.8961,1.99255,0,0,0,0,0,0,0,-1,734,1317,-18.8961,-1.99251
-483,-293,-19.0831,2.35498,0,0,0,0,0,0,0,-1,741,1317,-19.0831,-2.35497
-476,-293,-19.5228,2.61243,0,0,0,0,0,0,0,-1,748,1317,-19.5228,-2.61237
-469,-293,0,0,0,0,0,0,0,0,0,-1,755,1317,0,0
-462,-293,0,0,0,0,0,0,0,0,0,-1,762,1317,0,0
-455,-293,0,0,0,0,0,0,0,0,0,-1,769,1317,0,0
-448,-293,0,0,0,0,0,0,0,0,0,-1,776,1317,0,0
-441,-293,0,0,0,0,0,0,0,0,0,-1,783,1317,0,0
-434,-293,0,0,0,0,0,0,0,0,0,-1,790,1317,0,0
-427,-293,0,0,0,0,0,0,0,0,0,-1,797,1317,0,0
-420,-293,0,0,0,0,0,0,0,0,0,-1,804,1317,0,0
-413,-293,0,0,0,0,0,0,0,0,0,-1,811,1317,0,0
-406,-293,0,0,0,0,0,0,0,0,0,-1,818,1317,0,0
-399,-293,0,0,0,0,0,0,0,0,0,-1,825,1317,0,0
-392,-293,0,0,0,0,0,0,0,0,0,-1,832,1317,0,0
-385,-293,0,0,0,0,0,0,0,0,0,-1,839,1317,0,0
-378,-293,0,0,0,0,0,0,0,0,0,-1,846,1317,0,0
-371,-293,0,0,0,0,0,0,0,0,0,-1,853,1317,0,0
-364,-293,0,0,0,0,0,0,0,0,0,-1,860,1317,0,0
-357,-293,0,0,0,0,0,0,0,0,0,-1,867,1317,0,0
-350,-293,0,0,0,0,0,0,0,0,0,-1,874,1317,0,0
-343,-293,0,0,0,0,0,0,0,0,0,-1,881,1317,0,0
-336,-293,0,0,0,0,0,0,0,0,0,-1,888,1317,0,0
-329,-293,0,0,0,0,0,0,0,0,0,-1,895,1317,0,0
-322,-293,0,0,0,0,0,0,0,0,0,-1,902,1317,0,0
-315,-293,0,0,0,0,0,0,0,0,0,-1,909,1317,0,0
-308,-293,0,0,0,0,0,0,0,0,0,-1,916,1317,0,0
-301,-293,0,0,0,0,0,0,0,0,0,-1,923,1317,0,0
-294,-293,0,0,0,0,0,0,0,0,0,-1,930,1317,0,0
-287,-293,0,0,0,0,0,0,0,0,0,-1,937,1317,0,0
-280,-293,0,0,0,0,0,0,0,0,0,-1,944,1317,0,0
-273,-293,0,0,0,0,0,0,0,0,0,-1,951,1317,0,0
-266,-293,0,0,0,0,0,0,0,0,0,-1,958,1317,0,0
-259,-293,0,0,0,0,0,0,0,0,0,-1,965,1317,0,0
-252,-293,0,0,0,0,0,0,0,0,0,-1,972,1317,0,0
-245,-293,0,0,0,0,0,0,0,0,0,-1,979,1317,0,0
-238,-293,0,0,0,0,0,0,0,0,0,-1,986,1317,0,0
-231,-293,0,0,0,0,0,0,0,0,0,-1,993,1317,0,0
-224,-293,0,0,0,0,0,0,0,0,0,-1,1000,1317,0,0
-217,-293,0,0,0,0,0,0,0,0,0,-1,1007,1317,0,0
-210,-293,0,0,0,0,0,0,0,0,0,-1,1014,1317,0,0
-203,-293,0,0,0,0,0,0,0,0,0,-1,1021,1317,0,0
-196,-293,0,0,0,0,0,0,0,0,0,-1,1028,1317,0,0
-189,-293,0,0,0,0,0,0,0,0,0,-1,1035,1317,0,0
-182,-293,0,0,0,0,0,0,0,0,0,-1,1042,1317,0,0
-175,-293,0,0,0,0,0,0,0,0,0,-1,1049,1317,0,0
-168,-293,0,0,0,0,0,0,0,0,0,-1,1056,1317,0,0
-161,-293,0,0,0,0,0,0,0,0,0,-1,1063,1317,0,0
-154,-293,0,0,0,0,0,0,0,0,0,-1,1070,1317,0,0
-147,-293,0,0,0,0,0,0,0,0,0,-1,1077,1317,0,0
-140,-293,0,0,0,0,0,0,0,0,0,-1,1084,1317,0,0
-133,-293,0,0,0,0,0,0,0,0,0,-1,1091,1317,0,0
-126,-293,0,0,0,0,0,0,0,0,0,-1,1098,1317,0,0
-119,-293,0,0,0,0,0,0,0,0,0,-1,1105,1317,0,0
-112,-293,0,0,0,0,0,0,0,0,0,-1,1112,1317,0,0
-105,-293,0,0,0,0,0,0,0,0,0,-1,1119,1317,0,0
-98,-293,0,0,0,0,0,0,0,0,0,-1,1126,1317,0,0
-91,-293,0,0,0,0,0,0,0,0,0,-1,1133,1317,0,0
-84,-293,0,0,0,0,0,0,0,0,0,-1,1140,1317,0,0
-77,-293,0,0,0,0,0,0,0,0,0,-1,1147,1317,0,0
-70,-293,0,0,0,0,0,0,0,0,0,-1,1154,1317,0,0
-63,-293,0,0,0,0,0,0,0,0,0,-1,1161,1317,0,0
-56,-293,0,0,0,0,0,0,0,0,0,-1,1168,1317,0,0
-49,-293,0,0,0,0,0,0,0,0,0,-1,1175,1317,0,0
-42,-293,0,0,0,0,0,0,0,0,0,-1,1182,1317,0,0
-35,-293,0,0,0,0,0,0,0,0,0,-1,1189,1317,0,0
-28,-293,0,0,0,0,0,0,0,0,0,-1,1196,1317,0,0
-21,-293,0,0,0,0,0,0,0,0,0,-1,1203,1317,0,0
-14,-293,0,0,0,0,0,0,0,0,0,-1,1210,1317,0,0
-7,-293,0,0,0,0,0,0,0,0,0,-1,1217,1317,0,0
0,-293,0,0,0,0,0,0,0,0,0,-1,1224,1317,0,0
7,-293,0,0,0,0,0,0,0,0,0,-1,1231,1317,0,0
14,-293,0,0,0,0,0,0,0,0,0,-1,1238,1317,0,0
21,-293,0,0,0,0,0,0,0,0,0,-1,1245,1317,0,0
28,-293,0,0,0,0,0,0,0,0,0,-1,1252,1317,0,0
35,-293,0,0,0,0,0,0,0,0,0,-1,1259,1317,0,0
42,-293,0,0,0,0,0,0,0,0,0,-1,1266,1317,0,0
49,-293,0,0,0,0,0,0,0,0,0,-1,1273,1317,0,0
56,-293,0,0,0,0,0,0,0,0,0,-1,1280,1317,0,0
63,-293,0,0,0,0,0,0,0,0,0,-1,1287,1317,0,0
70,-293,0,0,0,0,0,0,0,0,0,-1,1294,1317,0,0
77,-293,0,0,0,0,0,0,0,0,0,-1,1301,1317,0,0
84,-293,0,0,0,0,0,0,0,0,0,-1,1308,1317,0,0
91,-293,0,0,0,0,0,0,0,0,0,-1,1315,1317,0,0
98,-293,0,0,0,0,0,0,0,0,0,-1,1322,1317,0,0
105,-293,0,0,0,0,0,0,0,0,0,-1,1329,1317,0,0
112,-293,0,0,0,0,0,0,0,0,0,-1,1336,1317,0,0
119,-293,0,0,0,0,0,0,0,0,0,-1,1343,1317,0,0
126,-293,0,0,0,0,0,0,0,0,0,-1,1350,1317,0,0
133,-293,0,0,0,0,0,0,0,0,0,-1,1357,1317,0,0
140,-293,0,0,0,0,0,0,0,0,0,-1,1364,1317,0,0
147,-293,0,0,0,0,0,0,0,0,0,-1,1371,1317,0,0
154,-293,0,0,0,0,0,0,0,0,0,-1,1378,1317,0,0
161,-293,0,0,0,0,0,0,0,0,0,-1,1385,1317,0,0
168,-293,0,0,0,0,0,0,0,0,0,-1,1392,1317,0,0
175,-293,0,0,0,0,0,0,0,0,0,-1,1399,1317,0,0
182,-293,0,0,0,0,0,0,0,0,0,-1,1406,1317,0,0
189,-293,0,0,0,0,0,0,0,0,0,-1,1413,1317,0,0
196,-293,0,0,0,0,0,0,0,0,0,-1,1420,1317,0,0
203,-293,0,0,0,0,0,0,0,0,0,-1,1427,1317,0,0
210,-293,0,0,0,0,0,0,0,0,0,-1,1434,1317,0,0
217,-293,0,0,0,0,0,0,0,0,0,-1,1441,1317,0,0
224,-293,0,0,0,0,0,0,0,0,0,-1,1448,1317,0,0
231,-293,0,0,0,0,0,0,0,0,0,-1,1455,1317,0,0
238,-293,0,0,0,0,0,0,0,0,0,-1,1462,1317,0,0
245,-293,0,0,0,0,0,0,0,0,0,-1,1469,1317,0,0
252,-293,0,0,0,0,0,0,0,0,0,-1,1476,1317,0,0
259,-293,0,0,0,0,0,0,0,0,0,-1,1483,1317,0,0
266,-293,0,0,0,0,0,0,0,0,0,-1,1490,1317,0,0
273,-293,0,0,0,0,0,0,0,0,0,-1,1497,1317,0,0
280,-293,0,0,0,0,0,0,0,0,0,-1,1504,1317,0,0
287,-293,0,0,0,0,0,0,0,0,0,-1,1511,1317,0,0
294,-293,0,0,0,0,0,0,0,0,0,-1,1518,1317,0,0
301,-293,0,0,0,0,0,0,0,0,0,-1,1525,1317,0,0
308,-293,0,0,0,0,0,0,0,0,0,-1,1532,1317,0,0
315,-293,0,0,0,0,0,0,0,0,0,-1,1539,1317,0,0
322,-293,0,0,0,0,0,0,0,0,0,-1,1546,1317,0,0
329,-293,0,0,0,0,0,0,0,0,0,-1,1553,1317,0,0
336,-293,0,0,0,0,0,0,0,0,0,-1,1560,1317,0,0
343,-293,0,0,0,0,0,0,0,0,0,-1,1567,1317,0,0
350,-293,0,0,0,0,0,0,0,0,0,-1,1574,1317,0,0
357,-293,0,0,0,0,0,0,0,0,0,-1,1581,1317,0,0
364,-293,0,0,0,0,0,0,0,0,0,-1,1588,1317,0,0
371,-293,0,0,0,0,0,0,0,0,0,-1,1595,1317,0,0
378,-293,0,0,0,0,0,0,0,0,0,-1,1602,1317,0,0
385,-293,0,0,0,0,0,0,0,0,0,-1,1609,1317,0,0
392,-293,0,0,0,0,0,0,0,0,0,-1,1616,1317,0,0
399,-293,0,0,0,0,0,0,0,0,0,-1,1623,1317,0,0
406,-293,0,0,0,0,0,0,0,0,0,-1,1630,1317,0,0
413,-293,0,0,0,0,0,0,0,0,0,-1,1637,1317,0,0
420,-293,0,0,0,0,0,0,0,0,0,-1,1644,1317,0,0
427,-293,0,0,0,0,0,0,0,0,0,-1,1651,1317,0,0
434,-293,0,0,0,0,0,0,0,0,0,-1,1658,1317,0,0
441,-293,0,0,0,0,0,0,0,0,0,-1,1665,1317,0,0
448,-293,0,0,0,0,0,0,0,0,0,-1,1672,1317,0,0
455,-293,0,0,0,0,0,0,0,0,0,-1,1679,1317,0,0
462,-293,0,0,0,0,0,0,0,0,0,-1,1686,1317,0,0
469,-293,0,0,0,0,0,0,0,0,0,-1,1693,1317,0,0
476,-293,0,0,0,0,0,0,0,0,0,-1,1700,1317,0,0
483,-293,0,0,0,0,0,0,0,0,0,-1,1707,1317,0,0
490,-293,0,0,0,0,0,0,0,0,0,-1,1714,1317,0,0
497,-293,0,0,0,0,0,0,0,0,0,-1,1721,1317,0,0
504,-293,0,0,0,0,0,0,0,0,0,-1,1728,1317,0,0
511,-293,0,0,0,0,0,0,0,0,0,-1,1735,1317,0,0
518,-293,0,0,0,0,0,0,0,0,0,-1,1742,1317,0,0
525,-293,0,0,0,0,0,0,0,0,0,-1,1749,1317,0,0
532,-293,0,0,0,0,0,0,0,0,0,-1,1756,1317,0,0
539,-293,0,0,0,0,0,0,0,0,0,-1,1763,1317,0,0
546,-293,0,0,0,0,0,0,0,0,0,-1,1770,1317,0,0
553,-293,0,0,0,0,0,0,0,0,0,-1,1777,1317,0,0
560,-293,0,0,0,0,0,0,0,0,0,-1,1784,1317,0,0
567,-293,0,0,0,0,0,0,0,0,0,-1,1791,1317,0,0
574,-293,0,0,0,0,0,0,0,0,0,-1,1798,1317,0,0
581,-293,0,0,0,0,0,0,0,0,0,-1,1805,1317,0,0
588,-293,0,0,0,0,0,0,0,0,0,-1,1812,1317,0,0
595,-293,64.6589,2.70764,0,0,0,0,0,0,0,-1,1819,1317,64.6589,-2.70761
602,-293,65.0348,2.68542,0,0,0,0,0,0,0,-1,1826,1317,65.0348,-2.68548
609,-293,63.0383,1.74231,0,0,0,0,0,0,0,-1,1833,1317,63.0383,-1.74237
616,-293,62.2668,1.10388,0,0,0,0,0,0,0,-1,1840,1317,62.2668,-1.10385
623,-293,61.3268,1.10999,0,0,0,0,0,0,0,-1,1847,1317,61.3268,-1.10993
630,-293,46.6716,3.21558,0,0,0,0,0,0,0,-1,1854,1317,46.6716,-3.2156
637,-293,42.7729,4.95544,0,0,0,0,0,0,0,-1,1861,1317,42.773,-4.95546
644,-293,24.4565,0.520752,0,0,0,0,0,0,0,-1,1868,1317,24.4566,-0.520709
651,-293,25.8926,9.51245,0,0,0,0,0,0,0,-1,1875,1317,25.8926,-9.51246
658,-293,25.4904,9.10205,0,0,0,0,0,0,0,-1,1882,1317,25.4904,-9.10209
665,-293,39.7999,13.4221,0,0,0,0,0,0,0,-1,1889,1317,39.8,-13.4221
672,-293,43.437,14.363,0,0,0,0,0,0,0,-1,1896,1317,43.437,-14.363
679,-293,43.4399,13.5535,-0.0029736,-0.000285025,7.49265e-05,-0.000282938,-0.00297569,1.54296,0.00189653,0.0177422,1903,1317,43.44,-13.5535
686,-293,43.4097,12.9126,-0.0015519,-9.05464e-05,0.000129422,-7.91729e-05,-0.00156327,1.48314,0.00101682,0.0181384,1910,1317,43.4096,-12.9127
693,-293,43.3894,12.2839,5.34143e-05,-0.00052586,0.000268405,0.000158658,-0.000631104,0.373684,0.000482399,0.0124655,1917,1317,43.3894,-12.2839
700,-293,43.3428,11.6364,0.000500505,-0.000591717,0.000557584,0.000734866,-0.000826079,0.397897,0.000901725,0.0103885,1924,1317,43.3428,-11.6364
707,-293,43.3094,11.0126,7.73608e-06,-0.000864928,0.00133547,0.000976344,-0.00183354,0.627502,0.00164726,0.0108865,1931,1317,43.3094,-11.0126
714,-293,43.2767,10.4025,-0.000810858,-0.00144421,0.00237864,0.0012721,-0.00352716,0.719221,0.00287101,0.00783852,1938,1317,43.2767,-10.4024
721,-293,43.2703,9.77307,-0.00178589,-0.00220794,0.00362558,0.0016348,-0.00562863,0.756329,0.00439979,0.00970295,1945,1317,43.2703,-9.77312
728,-293,43.2635,9.12878,-0.00298642,-0.00321441,0.00513067,0.00203152,-0.00823236,0.774291,0.00627599,0.0125057,1952,1317,43.2636,-9.1288
735,-293,43.2605,8.50574,-0.00452835,-0.00456697,0.00696523,0.0024176,-0.0115129,0.784012,0.00859524,0.0250205,1959,1317,43.2605,-8.50577
742,-293,43.4437,7.92712,0,0,0,0,0,0,0,-1,1966,1317,43.4437,-7.9271
749,-293,29.439,5.35339,0,0,0,0,0,0,0,-1,1973,1317,29.4389,-5.35334
756,-293,24.978,3.9718,0,0,0,0,0,0,0,-1,1980,1317,24.978,-3.97186
763,-293,26.6713,4.74097,0,0,0,0,0,0,0,-1,1987,1317,26.6713,-4.74098
770,-293,24.1349,4.69153,0,0,0,0,0,0,0,-1,1994,1317,24.1348,-4.69159
777,-293,0,0,0,0,0,0,0,0,0,-1,2001,1317,0,0
784,-293,0,0,0,0,0,0,0,0,0,-1,2008,1317,0,0
791,-293,0,0,0,0,0,0,0,0,0,-1,2015,1317,0,0
798,-293,0,0,0,0,0,0,0,0,0,-1,2022,1317,0,0
805,-293,0,0,0,0,0,0,0,0,0,-1,2029,1317,0,0
812,-293,0,0,0,0,0,0,0,0,0,-1,2036,1317,0,0
-700,-300,0,0,0,0,0,0,0,0,0,-1,524,1324,0,0
-693,-300,0,0,0,0,0,0,0,0,0,-1,531,1324,0,0
-686,-300,0,0,0,0,0,0,0,0,0,-1,538,1324,0,0
-679,-300,0,0,0,0,0,0,0,0,0,-1,545,1324,0,0
-672,-300,0,0,0,0,0,0,0,0,0,-1,552,1324,0,0
-665,-300,0,0,0,0,0,0,0,0,0,-1,559,1324,0,0
-658,-300,0,0,0,0,0,0,0,0,0,-1,566,1324,0,0
-651,-300,-41.7632,2.33789,0,0,0,0,0,0,0,-1,573,1324,-41.7632,-2.33789
-644,-300,-42.3084,1.3728,0,0,0,0,0,0,0,-1,580,1324,-42.3084,-1.37282
-637,-300,-42.6259,0.807251,0,0,0,0,0,0,0,-1,587,1324,-42.6259,-0.807209
-630,-300,-21.1108,2.26306,0,0,0,0,0,0,0,-1,594,1324,-21.1109,-2.2631
-623,-300,-12.7067,1.48462,0,0,0,0,0,0,0,-1,601,1324,-12.7067,-1.48462
-616,-300,-14.9988,1.68628,0,0,0,0,0,0,0,-1,608,1324,-14.9988,-1.68627
-609,-300,-15.5027,3.29907,0,0,0,0,0,0,0,-1,615,1324,-15.5027,-3.29902
-602,-300,-26.1164,6.25854,0,0,0,0,0,0,0,-1,622,1324,-26.1164,-6.25849
-595,-300,-26.1262,7.17566,0.00645512,0.0040807,0.00292813,0.00842757,0.00210825,0.592801,0.00506409,0.0372784,629,1324,-26.1262,-7.17565
-588,-300,-26.0599,7.9093,0.00444488,0.00284032,0.00193427,0.00573665,0.00154855,0.588811,0.00342693,0.0210618,636,1324,-26.0599,-7.90931
-581,-300,-26.1002,8.59082,0.00345959,0.00189758,0.00143399,0.00431147,0.00104571,0.536039,0.0025969,0.0215138,643,1324,-26.1001,-8.5908
-574,-300,-26.1287,9.27368,0.00303119,0.00113201,0.00119907,0.00361113,0.000552063,0.450494,0.00224613,0.0171003,650,1324,-26.1287,-9.27371
-567,-300,-26.1769,9.94324,0.00306962,0.00050519,0.00118753,0.00353506,3.97514e-05,0.373539,0.00234357,0.0167751,657,1324,-26.1769,-9.94326
-560,-300,-26.2246,10.6403,0.00355866,-2.1653e-05,0.00136103,0.0040173,-0.000480291,0.325027,0.00285181,0.0158217,664,1324,-26.2246,-10.6402
-553,-300,-26.2111,11.318,0.00450861,-0.000438999,0.00174465,0.00506194,-0.000992325,0.307121,0.00374943,0.0114312,671,1324,-26.2111,-11.318
-546,-300,-26.2173,11.9954,0.00593459,-0.000761697,0.00234558,0.00667446,-0.00150156,0.305551,0.0050255,0.00997382,678,1324,-26.2173,-11.9953
-539,-300,-26.1472,12.7261,0.00787291,-0.00103804,0.00318155,0.00889225,-0.00205737,0.310055,0.00671977,0.0259771,685,1324,-26.1472,-12.7261
-532,-300,-26.0403,13.4312,0,0,0,0,0,0,0,-1,692,1324,-26.0403,-13.4311
-525,-300,-13.5115,6.27783,0,0,0,0,0,0,0,-1,699,1324,-13.5115,-6.2778
-518,-300,-9.8349,-0.537109,0,0,0,0,0,0,0,-1,706,1324,-9.83487,0.537068
-511,-300,-12.8644,0.081665,0,0,0,0,0,0,0,-1,713,1324,-12.8644,-0.0817016
-504,-300,-13.4829,-0.165527,0,0,0,0,0,0,0,-1,720,1324,-13.4829,0.165544
-497,-300,-18.1063,0.956543,0,0,0,0,0,0,0,-1,727,1324,-18.1063,-0.9565
-490,-300,-18.2293,1.53625,0,0,0,0,0,0,0,-1,734,1324,-18.2293,-1.53626
-483,-300,-18.3522,1.61084,0,0,0,0,0,0,0,-1,741,1324,-18.3522,-1.6108
-476,-300,-18.7489,1.96387,0,0,0,0,0,0,0,-1,748,1324,-18.7489,-1.96387
-469,-300,0,0,0,0,0,0,0,0,0,-1,755,1324,0,0
-462,-300,0,0,0,0,0,0,0,0,0,-1,762,1324,0,0
-455,-300,0,0,0,0,0,0,0,0,0,-1,769,1324,0,0
-448,-300,0,0,0,0,0,0,0,0,0,-1,776,1324,0,0
-441,-300,0,0,0,0,0,0,0,0,0,-1,783,1324,0,0
-434,-300,0,0,0,0,0,0,0,0,0,-1,790,1324,0,0
-427,-300,0,0,0,0,0,0,0,0,0,-1,797,1324,0,0
-420,-300,0,0,0,0,0,0,0,0,0,-1,804,1324,0,0
-413,-300,0,0,0,0,0,0,0,0,0,-1,811,1324,0,0
-406,-300,0,0,0,0,0,0,0,0,0,-1,818,1324,0,0
-399,-300,0,0,0,0,0,0,0,0,0,-1,825,1324,0,0
-392,-300,0,0,0,0,0,0,0,0,0,-1,832,1324,0,0
-385,-300,0,0,0,0,0,0,0,0,0,-1,839,1324,0,0
-378,-300,0,0,0,0,0,0,0,0,0,-1,846,1324,0,0
-371,-300,0,0,0,0,0,0,0,0,0,-1,853,1324,0,0
-364,-300,0,0,0,0,0,0,0,0,0,-1,860,1324,0,0
-357,-300,0,0,0,0,0,0,0,0,0,-1,867,1324,0,0
-350,-300,0,0,0,0,0,0,0,0,0,-1,874,1324,0,0
-343,-300,0,0,0,0,0,0,0,0,0,-1,881,1324,0,0
-336,-300,0,0,0,0,0,0,0,0,0,-1,888,1324,0,0
-329,-300,0,0,0,0,0,0,0,0,0,-1,895,1324,0,0
-322,-300,0,0,0,0,0,0,0,0,0,-1,902,1324,0,0
-315,-300,0,0,0,0,0,0,0,0,0,-1,909,1324,0,0
-308,-300,0,0,0,0,0,0,0,0,0,-1,916,1324,0,0
-301,-300,0,0,0,0,0,0,0,0,0,-1,923,1324,0,0
-294,-300,0,0,0,0,0,0,0,0,0,-1,930,1324,0,0
-287,-300,0,0,0,0,0,0,0,0,0,-1,937,1324,0,0
-280,-300,0,0,0,0,0,0,0,0,0,-1,944,1324,0,0
-273,-300,0,0,0,0,0,0,0,0,0,-1,951,1324,0,0
-266,-300,0,0,0,0,0,0,0,0,0,-1,958,1324,0,0
-259,-300,0,0,0,0,0,0,0,0,0,-1,965,1324,0,0
-252,-300,0,0,0,0,0,0,0,0,0,-1,972,1324,0,0
-245,-300,0,0,0,0,0,0,0,0,0,-1,979,1324,0,0
-238,-300,0,0,0,0,0,0,0,0,0,-1,986,1324,0,0
-231,-300,0,0,0,0,0,0,0,0,0,-1,993,1324,0,0
-224,-300,0,0,0,0,0,0,0,0,0,-1,1000,1324,0,0
-217,-300,0,0,0,0,0,0,0,0,0,-1,1007,1324,0,0
-210,-300,0,0,0,0,0,0,0,0,0,-1,1014,1324,0,0
-203,-300,0,0,0,0,0,0,0,0,0,-1,1021,1324,0,0
-196,-300,0,0,0,0,0,0,0,0,0,-1,1028,1324,0,0
-189,-300,0,0,0,0,0,0,0,0,0,-1,1035,1324,0,0
-182,-300,0,0,0,0,0,0,0,0,0,-1,1042,1324,0,0
-175,-300,0,0,0,0,0,0,0,0,0,-1,1049,1324,0,0
-168,-300,0,0,0,0,0,0,0,0,0,-1,1056,1324,0,0
-161,-300,0,0,0,0,0,0,0,0,0,-1,1063,1324,0,0
-154,-300,0,0,0,0,0,0,0,0,0,-1,1070,1324,0,0
-147,-300,0,0,0,0,0,0,0,0,0,-1,1077,1324,0,0
-140,-300,0,0,0,0,0,0,0,0,0,-1,1084,1324,0,0
-133,-300,0,0,0,0,0,0,0,0,0,-1,1091,1324,0,0
-126,-300,0,0,0,0,0,0,0,0,0,-1,1098,1324,0,0
-119,-300,0,0,0,0,0,0,0,0,0,-1,1105,1324,0,0
-112,-300,0,0,0,0,0,0,0,0,0,-1,1112,1324,0,0
-105,-300,0,0,0,0,0,0,0,0,0,-1,1119,1324,0,0
-98,-300,0,0,0,0,0,0,0,0,0,-1,1126,1324,0,0
-91,-300,0,0,0,0,0,0,0,0,0,-1,1133,1324,0,0
-84,-300,0,0,0,0,0,0,0,0,0,-1,1140,1324,0,0
-77,-300,0,0,0,0,0,0,0,0,0,-1,1147,1324,0,0
-70,-300,0,0,0,0,0,0,0,0,0,-1,1154,1324,0,0
-63,-300,0,0,0,0,0,0,0,0,0,-1,1161,1324,0,0
-56,-300,0,0,0,0,0,0,0,0,0,-1,1168,1324,0,0
-49,-300,0,0,0,0,0,0,0,0,0,-1,1175,1324,0,0
-42,-300,0,0,0,0,0,0,0,0,0,-1,1182,1324,0,0
-35,-300,0,0,0,0,0,0,0,0,0,-1,1189,1324,0,0
-28,-300,0,0,0,0,0,0,0,0,0,-1,1196,1324,0,0
-21,-300,0,0,0,0,0,0,0,0,0,-1,1203,1324,0,0
-14,-300,0,0,0,0,0,0,0,0,0,-1,1210,1324,0,0
-7,-300,0,0,0,0,0,0,0,0,0,-1,1217,1324,0,0
0,-300,0,0,0,0,0,0,0,0,0,-1,1224,1324,0,0
7,-300,0,0,0,0,0,0,0,0,0,-1,1231,1324,0,0
14,-300,0,0,0,0,0,0,0,0,0,-1,1238,1324,0,0
21,-300,0,0,0,0,0,0,0,0,0,-1,1245,1324,0,0
28,-300,0,0,0,0,0,0,0,0,0,-1,1252,1324,0,0
35,-300,0,0,0,0,0,0,0,0,0,-1,1259,1324,0,0
42,-300,0,0,0,0,0,0,0,0,0,-1,1266,1324,0,0
49,-300,0,0,0,0,0,0,0,0,0,-1,1273,1324,0,0
56,-300,0,0,0,0,0,0,0,0,0,-1,1280,1324,0,0
63,-300,0,0,0,0,0,0,0,0,0,-1,1287,1324,0,0
70,-300,0,0,0,0,0,0,0,0,0,-1,1294,1324,0,0
77,-300,0,0,0,0,0,0,0,0,0,-1,1301,1324,0,0
84,-300,0,0,0,0,0,0,0,0,0,-1,1308,1324,0,0
91,-300,0,0,0,0,0,0,0,0,0,-1,1315,1324,0,0
98,-300,0,0,0,0,0,0,0,0,0,-1,1322,1324,0,0
105,-300,0,0,0,0,0,0,0,0,0,-1,1329,1324,0,0
112,-300,0,0,0,0,0,0,0,0,0,-1,1336,1324,0,0
119,-300,0,0,0,0,0,0,0,0,0,-1,1343,1324,0,0
126,-300,0,0,0,0,0,0,0,0,0,-1,1350,1324,0,0
133,-300,0,0,0,0,0,0,0,0,0,-1,1357,1324,0,0
140,-300,0,0,0,0,0,0,0,0,0,-1,1364,1324,0,0
147,-300,0,0,0,0,0,0,0,0,0,-1,1371,1324,0,0
154,-300,0,0,0,0,0,0,0,0,0,-1,1378,1324,0,0
161,-300,0,0,0,0,0,0,0,0,0,-1,1385,1324,0,0
168,-300,0,0,0,0,0,0,0,0,0,-1,1392,1324,0,0
175,-300,0,0,0,0,0,0,0,0,0,-1,1399,1324,0,0
182,-300,0,0,0,0,0,0,0,0,0,-1,1406,1324,0,0
189,-300,0,0,0,0,0,0,0,0,0,-1,1413,1324,0,0
196,-300,0,0,0,0,0,0,0,0,0,-1,1420,1324,0,0
203,-300,0,0,0,0,0,0,0,0,0,-1,1427,1324,0,0
210,-300,0,0,0,0,0,0,0,0,0,-1,1434,1324,0,0
217,-300,0,0,0,0,0,0,0,0,0,-1,1441,1324,0,0
224,-300,0,0,0,0,0,0,0,0,0,-1,1448,1324,0,0
231,-300,0,0,0,0,0,0,0,0,0,-1,1455,1324,0,0
238,-300,0,0,0,0,0,0,0,0,0,-1,1462,1324,0,0
245,-300,0,0,0,0,0,0,0,0,0,-1,1469,1324,0,0
252,-300,0,0,0,0,0,0,0,0,0,-1,1476,1324,0,0
259,-300,0,0,0,0,0,0,0,0,0,-1,1483,1324,0,0
266,-300,0,0,0,0,0,0,0,0,0,-1,1490,1324,0,0
273,-300,0,0,0,0,0,0,0,0,0,-1,1497,1324,0,0
280,-300,0,0,0,0,0,0,0,0,0,-1,1504,1324,0,0
287,-300,0,0,0,0,0,0,0,0,0,-1,1511,1324,0,0
294,-300,0,0,0,0,0,0,0,0,0,-1,1518,1324,0,0
301,-300,0,0,0,0,0,0,0,0,0,-1,1525,1324,0,0
308,-300,0,0,0,0,0,0,0,0,0,-1,1532,1324,0,0
315,-300,0,0,0,0,0,0,0,0,0,-1,1539,1324,0,0
322,-300,0,0,0,0,0,0,0,0,0,-1,1546,1324,0,0
329,-300,0,0,0,0,0,0,0,0,0,-1,1553,1324,0,0
336,-300,0,0,0,0,0,0,0,0,0,-1,1560,1324,0,0
343,-300,0,0,0,0,0,0,0,0,0,-1,1567,1324,0,0
350,-300,0,0,0,0,0,0,0,0,0,-1,1574,1324,0,0
357,-300,0,0,0,0,0,0,0,0,0,-1,1581,1324,0,0
364,-300,0,0,0,0,0,0,0,0,0,-1,1588,1324,0,0
371,-300,0,0,0,0,0,0,0,0,0,-1,1595,1324,0,0
378,-300,0,0,0,0,0,0,0,0,0,-1,1602,1324,0,0
385,-300,0,0,0,0,0,0,0,0,0,-1,1609,1324,0,0
392,-300,0,0,0,0,0,0,0,0,0,-1,1616,1324,0,0
399,-300,0,0,0,0,0,0,0,0,0,-1,1623,1324,0,0
406,-300,0,0,0,0,0,0,0,0,0,-1,1630,1324,0,0
413,-300,0,0,0,0,0,0,0,0,0,-1,1637,1324,0,0
420,-300,0,0,0,0,0,0,0,0,0,-1,1644,1324,0,0
427,-300,0,0,0,0,0,0,0,0,0,-1,1651,1324,0,0
434,-300,0,0,0,0,0,0,0,0,0,-1,1658,1324,0,0
441,-300,0,0,0,0,0,0,0,0,0,-1,1665,1324,0,0
448,-300,0,0,0,0,0,0,0,0,0,-1,1672,1324,0,0
455,-300,0,0,0,0,0,0,0,0,0,-1,1679,1324,0,0
462,-300,0,0,0,0,0,0,0,0,0,-1,1686,1324,0,0
469,-300,0,0,0,0,0,0,0,0,0,-1,1693,1324,0,0
476,-300,0,0,0,0,0,0,0,0,0,-1,1700,1324,0,0
483,-300,0,0,0,0,0,0,0,0,0,-1,1707,1324,0,0
490,-300,0,0,0,0,0,0,0,0,0,-1,1714,1324,0,0
497,-300,0,0,0,0,0,0,0,0,0,-1,1721,1324,0,0
504,-300,0,0,0,0,0,0,0,0,0,-1,1728,1324,0,0
511,-300,0,0,0,0,0,0,0,0,0,-1,1735,1324,0,0
518,-300,0,0,0,0,0,0,0,0,0,-1,1742,1324,0,0
525,-300,0,0,0,0,0,0,0,0,0,-1,1749,1324,0,0
532,-300,0,0,0,0,0,0,0,0,0,-1,1756,1324,0,0
539,-300,0,0,0,0,0,0,0,0,0,-1,1763,1324,0,0
546,-300,0,0,0,0,0,0,0,0,0,-1,1770,1324,0,0
553,-300,0,0,0,0,0,0,0,0,0,-1,1777,1324,0,0
560,-300,0,0,0,0,0,0,0,0,0,-1,1784,1324,0,0
567,-300,0,0,0,0,0,0,0,0,0,-1,1791,1324,0,0
574,-300,0,0,0,0,0,0,0,0,0,-1,1798,1324,0,0
581,-300,0,0,0,0,0,0,0,0,0,-1,1805,1324,0,0
588,-300,61.3982,2.35547,0,0,0,0,0,0,0,-1,1812,1324,61.3981,-2.3555
595,-300,61.2064,1.96851,0,0,0,0,0,0,0,-1,1819,1324,61.2064,-1.96853
602,-300,60.8494,1.61389,0,0,0,0,0,0,0,-1,1826,1324,60.8494,-1.61385
609,-300,60.4249,1.20483,0,0,0,0,0,0,0,-1,1833,1324,60.4249,-1.20486
616,-300,60.4126,1.02698,0,0,0,0,0,0,0,-1,1840,1324,60.4126,-1.02699
623,-300,47.4474,2.43188,0,0,0,0,0,0,0,-1,1847,1324,47.4474,-2.43194
630,-300,42.4099,3.9165,0,0,0,0,0,0,0,-1,1854,1324,42.4099,-3.91649
637,-300,31.1719,4.6366,0,0,0,0,0,0,0,-1,1861,1324,31.1718,-4.63665
644,-300,22.9836,3.44934,0,0,0,0,0,0,0,-1,1868,1324,22.9836,-3.4493
651,-300,25.5004,9.11853,0,0,0,0,0,0,0,-1,1875,1324,25.5004,-9.11851
658,-300,25.4012,9.20032,0,0,0,0,0,0,0,-1,1882,1324,25.4012,-9.20036
665,-300,42.9552,14.8729,0,0,0,0,0,0,0,-1,1889,1324,42.9552,-14.8729
672,-300,42.8074,14.2848,-0.00205106,0.000363188,0.000437361,0.000439977,-0.00212785,1.39699,0.0015857,0.030982,1896,1324,42.8074,-14.2848
679,-300,42.8099,13.5939,-0.00162681,-0.000109004,-7.76903e-05,-0.000105038,-0.00163078,-1.51979,0.00105392,0.0138802,1903,1324,42.8099,-13.5938
686,-300,42.7848,12.9576,-0.000563465,-9.52913e-06,2.33793e-05,-8.54413e-06,-0.00056445,1.52869,0.000373485,0.0144772,1910,1324,42.7848,-12.9576
693,-300,42.7336,12.3285,0.000394205,-0.000436801,0.000242216,0.000459651,-0.000502247,0.263893,0.000555533,0.0113178,1917,1324,42.7336,-12.3285
700,-300,42.6931,11.678,0.000467064,-0.00062897,0.000646328,0.000766433,-0.000928338,0.433763,0.000979964,0.0123658,1924,1324,42.6932,-11.6779
707,-300,42.6831,11.021,2.09337e-05,-0.000978707,0.00138245,0.000991141,-0.00194891,0.611936,0.0017272,0.00899604,1931,1324,42.6831,-11.021
714,-300,42.6637,10.4117,-0.000629997,-0.00154386,0.00233554,0.00129289,-0.00346675,0.688797,0.00284191,0.0108092,1938,1324,42.6637,-10.4118
721,-300,42.6483,9.79016,-0.00142612,-0.00231223,0.00350703,0.00166573,-0.00540408,0.722564,0.00426773,0.0127026,1945,1324,42.6483,-9.79021
728,-300,42.6577,9.13184,-0.00243511,-0.00335627,0.00495869,0.00208434,-0.00787572,0.739089,0.00606583,0.0174816,1952,1324,42.6578,-9.13188
735,-300,42.4551,8.79089,-0.00379566,-0.00482764,0.00677226,0.00248024,-0.0111035,0.747376,0.00835277,0.0343792,1959,1324,42.4551,-8.79091
742,-300,42.3671,8.29663,0,0,0,0,0,0,0,-1,1966,1324,42.3671,-8.29657
749,-300,27.4065,5.9718,0,0,0,0,0,0,0,-1,1973,1324,27.4065,-5.97181
756,-300,22.1423,3.45642,0,0,0,0,0,0,0,-1,1980,1324,22.1423,-3.45638
763,-300,22.6136,5.1571,0,0,0,0,0,0,0,-1,1987,1324,22.6136,-5.15706
770,-300,24.859,4.77979,0,0,0,0,0,0,0,-1,1994,1324,24.859,-4.77972
777,-300,0,0,0,0,0,0,0,0,0,-1,2001,1324,0,0
784,-300,0,0,0,0,0,0,0,0,0,-1,2008,1324,0,0
791,-300,0,0,0,0,0,0,0,0,0,-1,2015,1324,0,0
798,-300,0,0,0,0,0,0,0,0,0,-1,2022,1324,0,0
805,-300,0,0,0,0,0,0,0,0,0,-1,2029,1324,0,0
812,-300,0,0,0,0,0,0,0,0,0,-1,2036,1324,0,0
-700,-307,0,0,0,0,0,0,0,0,0,-1,524,1331,0,0
-693,-307,0,0,0,0,0,0,0,0,0,-1,531,1331,0,0
-686,-307,0,0,0,0,0,0,0,0,0,-1,538,1331,0,0
-679,-307,0,0,0,0,0,0,0,0,0,-1,545,1331,0,0
-672,-307,0,0,0,0,0,0,0,0,0,-1,552,1331,0,0
-665,-307,0,0,0,0,0,0,0,0,0,-1,559,1331,0,0
-658,-307,0,0,0,0,0,0,0,0,0,-1,566,1331,0,0
-651,-307,-40.7436,1.98755,0,0,0,0,0,0,0,-1,573,1331,-40.7436,-1.98753
-644,-307,-41.7838,1.24817,0,0,0,0,0,0,0,-1,580,1331,-41.7838,-1.2482
-637,-307,-41.9006,0.477783,0,0,0,0,0,0,0,-1,587,1331,-41.9006,-0.477844
-630,-307,-12.0005,0.767212,0,0,0,0,0,0,0,-1,594,1331,-12.0005,-0.767266
-623,-307,-12.2128,2.93811,0,0,0,0,0,0,0,-1,601,1331,-12.2128,-2.93813
-616,-307,-12.6612,2.08289,0,0,0,0,0,0,0,-1,608,1331,-12.6612,-2.08293
-609,-307,-12.2767,1.83228,0,0,0,0,0,0,0,-1,615,1331,-12.2768,-1.83224
-602,-307,-22.8475,5.62708,0,0,0,0,0,0,0,-1,622,1331,-22.8476,-5.6271
-595,-307,-25.5939,7.14905,0,0,0,0,0,0,0,-1,629,1331,-25.5938,-7.14907
-588,-307,-25.4031,7.96753,0.00467833,0.00306219,0.00218431,0.00619924,0.00154127,0.608233,0.00372686,0.0225922,636,1331,-25.403,-7.96758
-581,-307,-25.4047,8.64038,0.00355647,0.0021343,0.00153603,0.00453803,0.00115274,0.568619,0.00272367,0.0169991,643,1331,-25.4047,-8.64038
-574,-307,-25.4313,9.30164,0.00302753,0.00138564,0.0011965,0.00365764,0.000755535,0.484722,0.00222967,0.0140861,650,1331,-25.4313,-9.30168
-567,-307,-25.4827,9.99292,0.00296808,0.000781329,0.00108955,0.00341827,0.000331141,0.391823,0.00217688,0.014351,657,1331,-25.4827,-9.99291
-560,-307,-25.5112,10.6829,0.00332055,0.000273919,0.00117274,0.00371968,-0.000125215,0.328046,0.00252256,0.0147623,664,1331,-25.5112,-10.6828
-553,-307,-25.5266,11.344,0.00405056,-0.000154683,0.00143227,0.00449204,-0.000596154,0.298992,0.0032119,0.0114079,671,1331,-25.5265,-11.344
-546,-307,-25.5636,12.019,0.00521304,-0.00049131,0.00190898,0.00579293,-0.00107121,0.294914,0.00426411,0.0103202,678,1331,-25.5636,-12.019
-539,-307,-25.5521,12.7412,0.00679057,-0.000781853,0.0025827,0.00758756,-0.00157884,0.299316,0.00565856,0.0174585,685,1331,-25.5521,-12.7412
-532,-307,-25.5153,13.4685,0,0,0,0,0,0,0,-1,692,1331,-25.5153,-13.4685
-525,-307,-13.2009,6.91309,0,0,0,0,0,0,0,-1,699,1331,-13.2009,-6.9131
-518,-307,-9.77777,-1.56653,0,0,0,0,0,0,0,-1,706,1331,-9.77777,1.56651
-511,-307,-12.5226,0.26709,0,0,0,0,0,0,0,-1,713,1331,-12.5226,-0.267038
-504,-307,-12.5913,-0.308105,0,0,0,0,0,0,0,-1,720,1331,-12.5913,0.308124
-497,-307,-13.8586,-0.115845,0,0,0,0,0,0,0,-1,727,1331,-13.8587,0.115861
-490,-307,-17.9429,0.982178,0,0,0,0,0,0,0,-1,734,1331,-17.9429,-0.982198
-483,-307,-18.1066,0.927612,0,0,0,0,0,0,0,-1,741,1331,-18.1066,-0.927609
-476,-307,-18.1288,1.1228,0,0,0,0,0,0,0,-1,748,1331,-18.1289,-1.12286
-469,-307,-18.2028,0.798584,0,0,0,0,0,0,0,-1,755,1331,-18.2027,-0.798546
-462,-307,0,0,0,0,0,0,0,0,0,-1,762,1331,0,0
-455,-307,0,0,0,0,0,0,0,0,0,-1,769,1331,0,0
-448,-307,0,0,0,0,0,0,0,0,0,-1,776,1331,0,0
-441,-307,0,0,0,0,0,0,0,0,0,-1,783,1331,0,0
-434,-307,0,0,0,0,0,0,0,0,0,-1,790,1331,0,0
-427,-307,0,0,0,0,0,0,0,0,0,-1,797,1331,0,0
-420,-307,0,0,0,0,0,0,0,0,0,-1,804,1331,0,0
-413,-307,0,0,0,0,0,0,0,0,0,-1,811,1331,0,0
-406,-307,0,0,0,0,0,0,0,0,0,-1,818,1331,0,0
-399,-307,0,0,0,0,0,0,0,0,0,-1,825,1331,0,0
-392,-307,0,0,0,0,0,0,0,0,0,-1,832,1331,0,0
-385,-307,0,0,0,0,0,0,0,0,0,-1,839,1331,0,0
-378,-307,0,0,0,0,0,0,0,0,0,-1,846,1331,0,0
-371,-307,0,0,0,0,0,0,0,0,0,-1,853,1331,0,0
-364,-307,0,0,0,0,0,0,0,0,0,-1,860,1331,0,0
-357,-307,0,0,0,0,0,0,0,0,0,-1,867,1331,0,0
-350,-307,0,0,0,0,0,0,0,0,0,-1,874,1331,0,0
-343,-307,0,0,0,0,0,0,0,0,0,-1,881,1331,0,0
-336,-307,0,0,0,0,0,0,0,0,0,-1,888,1331,0,0
-329,-307,0,0,0,0,0,0,0,0,0,-1,895,1331,0,0
-322,-307,0,0,0,0,0,0,0,0,0,-1,902,1331,0,0
-315,-307,0,0,0,0,0,0,0,0,0,-1,909,1331,0,0
-308,-307,0,0,0,0,0,0,0,0,0,-1,916,1331,0,0
-301,-307,0,0,0,0,0,0,0,0,0,-1,923,1331,0,0
-294,-307,0,0,0,0,0,0,0,0,0,-1,930,1331,0,0
-287,-307,0,0,0,0,0,0,0,0,0,-1,937,1331,0,0
-280,-307,0,0,0,0,0,0,0,0,0,-1,944,1331,0,0
-273,-307,0,0,0,0,0,0,0,0,0,-1,951,1331,0,0
-266,-307,0,0,0,0,0,0,0,0,0,-1,958,1331,0,0
-259,-307,0,0,0,0,0,0,0,0,0,-1,965,1331,0,0
-252,-307,0,0,0,0,0,0,0,0,0,-1,972,1331,0,0
-245,-307,0,0,0,0,0,0,0,0,0,-1,979,1331,0,0
-238,-307,0,0,0,0,0,0,0,0,0,-1,986,1331,0,0
-231,-307,0,0,0,0,0,0,0,0,0,-1,993,1331,0,0
-224,-307,0,0,0,0,0,0,0,0,0,-1,1000,1331,0,0
-217,-307,0,0,0,0,0,0,0,0,0,-1,1007,1331,0,0
-210,-307,0,0,0,0,0,0,0,0,0,-1,1014,1331,0,0
-203,-307,0,0,0,0,0,0,0,0,0,-1,1021,1331,0,0
-196,-307,0,0,0,0,0,0,0,0,0,-1,1028,1331,0,0
-189,-307,0,0,0,0,0,0,0,0,0,-1,1035,1331,0,0
-182,-307,0,0,0,0,0,0,0,0,0,-1,1042,1331,0,0
-175,-307,0,0,0,0,0,0,0,0,0,-1,1049,1331,0,0
-168,-307,0,0,0,0,0,0,0,0,0,-1,1056,1331,0,0
-161,-307,0,0,0,0,0,0,0,0,0,-1,1063,1331,0,0
-154,-307,0,0,0,0,0,0,0,0,0,-1,1070,1331,0,0
-147,-307,0,0,0,0,0,0,0,0,0,-1,1077,1331,0,0
-140,-307,0,0,0,0,0,0,0,0,0,-1,1084,1331,0,0
-133,-307,0,0,0,0,0,0,0,0,0,-1,1091,1331,0,0
-126,-307,0,0,0,0,0,0,0,0,0,-1,1098,1331,0,0
-119,-307,0,0,0,0,0,0,0,0,0,-1,1105,1331,0,0
-112,-307,0,0,0,0,0,0,0,0,0,-1,1112,1331,0,0
-105,-307,0,0,0,0,0,0,0,0,0,-1,1119,1331,0,0
-98,-307,0,0,0,0,0,0,0,0,0,-1,1126,1331,0,0
-91,-307,0,0,0,0,0,0,0,0,0,-1,1133,1331,0,0
-84,-307,0,0,0,0,0,0,0,0,0,-1,1140,1331,0,0
-77,-307,0,0,0,0,0,0,0,0,0,-1,1147,1331,0,0
-70,-307,0,0,0,0,0,0,0,0,0,-1,1154,1331,0,0
-63,-307,0,0,0,0,0,0,0,0,0,-1,1161,1331,0,0
-56,-307,0,0,0,0,0,0,0,0,0,-1,1168,1331,0,0
-49,-307,0,0,0,0,0,0,0,0,0,-1,1175,1331,0,0
-42,-307,0,0,0,0,0,0,0,0,0,-1,1182,1331,0,0
-35,-307,0,0,0,0,0,0,0,0,0,-1,1189,1331,0,0
-28,-307,0,0,0,0,0,0,0,0,0,-1,1196,1331,0,0
-21,-307,0,0,0,0,0,0,0,0,0,-1,1203,1331,0,0
-14,-307,0,0,0,0,0,0,0,0,0,-1,1210,1331,0,0
-7,-307,0,0,0,0,0,0,0,0,0,-1,1217,1331,0,0
0,-307,0,0,0,0,0,0,0,0,0,-1,1224,1331,0,0
7,-307,0,0,0,0,0,0,0,0,0,-1,1231,1331,0,0
14,-307,0,0,0,0,0,0,0,0,0,-1,1238,1331,0,0
21,-307,0,0,0,0,0,0,0,0,0,-1,1245,1331,0,0
28,-307,0,0,0,0,0,0,0,0,0,-1,1252,1331,0,0
35,-307,0,0,0,0,0,0,0,0,0,-1,1259,1331,0,0
42,-307,0,0,0,0,0,0,0,0,0,-1,1266,1331,0,0
49,-307,0,0,0,0,0,0,0,0,0,-1,1273,1331,0,0
56,-307,0,0,0,0,0,0,0,0,0,-1,1280,1331,0,0
63,-307,0,0,0,0,0,0,0,0,0,-1,1287,1331,0,0
70,-307,0,0,0,0,0,0,0,0,0,-1,1294,1331,0,0
77,-307,0,0,0,0,0,0,0,0,0,-1,1301,1331,0,0
84,-307,0,0,0,0,0,0,0,0,0,-1,1308,1331,0,0
91,-307,0,0,0,0,0,0,0,0,0,-1,1315,1331,0,0
98,-307,0,0,0,0,0,0,0,0,0,-1,1322,1331,0,0
105,-307,0,0,0,0,0,0,0,0,0,-1,1329,1331,0,0
112,-307,0,0,0,0,0,0,0,0,0,-1,1336,1331,0,0
119,-307,0,0,0,0,0,0,0,0,0,-1,1343,1331,0,0
126,-307,0,0,0,0,0,0,0,0,0,-1,1350,1331,0,0
133,-307,0,0,0,0,0,0,0,0,0,-1,1357,1331,0,0
140,-307,0,0,0,0,0,0,0,0,0,-1,1364,1331,0,0
147,-307,0,0,0,0,0,0,0,0,0,-1,1371,1331,0,0
154,-307,0,0,0,0,0,0,0,0,0,-1,1378,1331,0,0
161,-307,0,0,0,0,0,0,0,0,0,-1,1385,1331,0,0
168,-307,0,0,0,0,0,0,0,0,0,-1,1392,1331,0,0
175,-307,0,0,0,0,0,0,0,0,0,-1,1399,1331,0,0
182,-307,0,0,0,0,0,0,0,0,0,-1,1406,1331,0,0
189,-307,0,0,0,0,0,0,0,0,0,-1,1413,1331,0,0
196,-307,0,0,0,0,0,0,0,0,0,-1,1420,1331,0,0
203,-307,0,0,0,0,0,0,0,0,0,-1,1427,1331,0,0
210,-307,0,0,0,0,0,0,0,0,0,-1,1434,1331,0,0
217,-307,0,0,0,0,0,0,0,0,0,-1,1441,1331,0,0
224,-307,0,0,0,0,0,0,0,0,0,-1,1448,1331,0,0
231,-307,0,0,0,0,0,0,0,0,0,-1,1455,1331,0,0
238,-307,0,0,0,0,0,0,0,0,0,-1,1462,1331,0,0
245,-307,0,0,0,0,0,0,0,0,0,-1,1469,1331,0,0
252,-307,0,0,0,0,0,0,0,0,0,-1,1476,1331,0,0
259,-307,0,0,0,0,0,0,0,0,0,-1,1483,1331,0,0
266,-307,0,0,0,0,0,0,0,0,0,-1,1490,1331,0,0
273,-307,0,0,0,0,0,0,0,0,0,-1,1497,1331,0,0
280,-307,0,0,0,0,0,0,0,0,0,-1,1504,1331,0,0
287,-307,0,0,0,0,0,0,0,0,0,-1,1511,1331,0,0
294,-307,0,0,0,0,0,0,0,0,0,-1,1518,1331,0,0
301,-307,0,0,0,0,0,0,0,0,0,-1,1525,1331,0,0
308,-307,0,0,0,0,0,0,0,0,0,-1,1532,1331,0,0
315,-307,0,0,0,0,0,0,0,0,0,-1,1539,1331,0,0
322,-307,0,0,0,0,0,0,0,0,0,-1,1546,1331,0,0
329,-307,0,0,0,0,0,0,0,0,0,-1,1553,1331,0,0
336,-307,0,0,0,0,0,0,0,0,0,-1,1560,1331,0,0
343,-307,0,0,0,0,0,0,0,0,0,-1,1567,1331,0,0
350,-307,0,0,0,0,0,0,0,0,0,-1,1574,1331,0,0
357,-307,0,0,0,0,0,0,0,0,0,-1,1581,1331,0,0
364,-307,0,0,0,0,0,0,0,0,0,-1,1588,1331,0,0
371,-307,0,0,0,0,0,0,0,0,0,-1,1595,1331,0,0
378,-307,0,0,0,0,0,0,0,0,0,-1,1602,1331,0,0
385,-307,0,0,0,0,0,0,0,0,0,-1,1609,1331,0,0
392,-307,0,0,0,0,0,0,0,0,0,-1,1616,1331,0,0
399,-307,0,0,0,0,0,0,0,0,0,-1,1623,1331,0,0
406,-307,0,0,0,0,0,0,0,0,0,-1,1630,1331,0,0
413,-307,0,0,0,0,0,0,0,0,0,-1,1637,1331,0,0
420,-307,0,0,0,0,0,0,0,0,0,-1,1644,1331,0,0
427,-307,0,0,0,0,0,0,0,0,0,-1,1651,1331,0,0
434,-307,0,0,0,0,0,0,0,0,0,-1,1658,1331,0,0
441,-307,0,0,0,0,0,0,0,0,0,-1,1665,1331,0,0
448,-307,0,0,0,0,0,0,0,0,0,-1,1672,1331,0,0
455,-307,0,0,0,0,0,0,0,0,0,-1,1679,1331,0,0
462,-307,0,0,0,0,0,0,0,0,0,-1,1686,1331,0,0
469,-307,0,0,0,0,0,0,0,0,0,-1,1693,1331,0,0
476,-307,0,0,0,0,0,0,0,0,0,-1,1700,1331,0,0
483,-307,0,0,0,0,0,0,0,0,0,-1,1707,1331,0,0
490,-307,0,0,0,0,0,0,0,0,0,-1,1714,1331,0,0
497,-307,0,0,0,0,0,0,0,0,0,-1,1721,1331,0,0
504,-307,0,0,0,0,0,0,0,0,0,-1,1728,1331,0,0
511,-307,0,0,0,0,0,0,0,0,0,-1,1735,1331,0,0
518,-307,0,0,0,0,0,0,0,0,0,-1,1742,1331,0,0
525,-307,0,0,0,0,0,0,0,0,0,-1,1749,1331,0,0
532,-307,0,0,0,0,0,0,0,0,0,-1,1756,1331,0,0
539,-307,0,0,0,0,0,0,0,0,0,-1,1763,1331,0,0
546,-307,0,0,0,0,0,0,0,0,0,-1,1770,1331,0,0
553,-307,0,0,0,0,0,0,0,0,0,-1,1777,1331,0,0
560,-307,0,0,0,0,0,0,0,0,0,-1,1784,1331,0,0
567,-307,0,0,0,0,0,0,0,0,0,-1,1791,1331,0,0
574,-307,0,0,0,0,0,0,0,0,0,-1,1798,1331,0,0
581,-307,0,0,0,0,0,0,0,0,0,-1,1805,1331,0,0
588,-307,61.8744,1.92188,0,0,0,0,0,0,0,-1,1812,1331,61.8744,-1.92191
595,-307,61.3059,1.68066,0,0,0,0,0,0,0,-1,1819,1331,61.3059,-1.68071
602,-307,60.7374,1.60144,0,0,0,0,0,0,0,-1,1826,1331,60.7374,-1.60147
609,-307,60.4161,1.03345,0,0,0,0,0,0,0,-1,1833,1331,60.4161,-1.03344
616,-307,53.2878,0.135498,0,0,0,0,0,0,0,-1,1840,1331,53.2878,-0.135477
623,-307,44.3966,2.84888,0,0,0,0,0,0,0,-1,1847,1331,44.3966,-2.84884
630,-307,29.8116,1.51184,0,0,0,0,0,0,0,-1,1854,1331,29.8116,-1.51188
637,-307,24.6407,4.09106,0,0,0,0,0,0,0,-1,1861,1331,24.6407,-4.09103
644,-307,22.6885,5.80408,0,0,0,0,0,0,0,-1,1868,1331,22.6884,-5.80408
651,-307,17.5013,5.80078,0,0,0,0,0,0,0,-1,1875,1331,17.5014,-5.80072
658,-307,37.4427,13.9775,0,0,0,0,0,0,0,-1,1882,1331,37.4427,-13.9776
665,-307,42.213,14.8352,0,0,0,0,0,0,0,-1,1889,1331,42.213,-14.8352
672,-307,42.1866,14.2793,-0.000238923,0.000340142,-6.49289e-06,0.000340214,-0.000238996,-1.55959,0.000336105,0.018709,1896,1331,42.1867,-14.2793
679,-307,42.1549,13.6393,-7.31976e-05,-8.77057e-05,-0.000393878,0.000313494,-0.000474397,-0.776191,0.00045804,0.0110017,1903,1331,42.1549,-13.6392
686,-307,42.1273,13.0048,0.000432396,-6.84064e-05,-0.000172357,0.000485981,-0.000121992,-0.301424,0.000371391,0.0103442,1910,1331,42.1274,-13.0048
693,-307,42.0875,12.3644,0.000739184,-0.000425973,0.000161077,0.000761042,-0.000447831,0.134875,0.000705709,0.0118095,1917,1331,42.0875,-12.3643
700,-307,42.0747,11.6885,0.000512211,-0.000675911,0.000649323,0.000798223,-0.000961923,0.414907,0.00101768,0.013817,1924,1331,42.0747,-11.6884
707,-307,42.0585,11.0316,7.80366e-05,-0.00103006,0.00134635,0.000979884,-0.00193191,0.5902,0.00171081,0.0152038,1931,1331,42.0585,-11.0317
714,-307,42.0336,10.4634,-0.000490368,-0.00156051,0.00224351,0.00128099,-0.00333187,0.668337,0.00274958,0.0135209,1938,1331,42.0336,-10.4634
721,-307,42.0504,9.83545,-0.00119101,-0.00232729,0.00338945,0.00167759,-0.00519589,0.70236,0.00413807,0.017897,1945,1331,42.0504,-9.83542
728,-307,42.009,9.37402,-0.00210483,-0.00341905,0.00486469,0.00214693,-0.00767081,0.718266,0.00595984,0.0491935,1952,1331,42.0091,-9.37406
735,-307,42.057,8.66479,0,0,0,0,0,0,0,-1,1959,1331,42.0571,-8.66479
742,-307,26.677,6.09192,0,0,0,0,0,0,0,-1,1966,1331,26.677,-6.0919
749,-307,26.7727,5.9032,0,0,0,0,0,0,0,-1,1973,1331,26.7727,-5.90323
756,-307,27.1556,5.74756,0,0,0,0,0,0,0,-1,1980,1331,27.1557,-5.7475
763,-307,18.7522,3.55298,0,0,0,0,0,0,0,-1,1987,1331,18.7522,-3.55301
770,-307,0,0,0,0,0,0,0,0,0,-1,1994,1331,0,0
777,-307,0,0,0,0,0,0,0,0,0,-1,2001,1331,0,0
784,-307,0,0,0,0,0,0,0,0,0,-1,2008,1331,0,0
791,-307,0,0,0,0,0,0,0,0,0,-1,2015,1331,0,0
798,-307,0,0,0,0,0,0,0,0,0,-1,2022,1331,0,0
805,-307,0,0,0,0,0,0,0,0,0,-1,2029,1331,0,0
812,-307,0,0,0,0,0,0,0,0,0,-1,2036,1331,0,0
-700,-314,0,0,0,0,0,0,0,0,0,-1,524,1338,0,0
-693,-314,0,0,0,0,0,0,0,0,0,-1,531,1338,0,0
-686,-314,0,0,0,0,0,0,0,0,0,-1,538,1338,0,0
-679,-314,0,0,0,0,0,0,0,0,0,-1,545,1338,0,0
-672,-314,0,0,0,0,0,0,0,0,0,-1,552,1338,0,0
-665,-314,0,0,0,0,0,0,0,0,0,-1,559,1338,0,0
-658,-314,0,0,0,0,0,0,0,0,0,-1,566,1338,0,0
-651,-314,0,0,0,0,0,0,0,0,0,-1,573,1338,0,0
-644,-314,-41.2806,1.17566,0,0,0,0,0,0,0,-1,580,1338,-41.2806,-1.17565
-637,-314,-58.369,7.97375,0,0,0,0,0,0,0,-1,587,1338,-58.369,-7.97376
-630,-314,-59.7463,6.72742,0,0,0,0,0,0,0,-1,594,1338,-59.7463,-6.72739
-623,-314,-13.3542,3.00903,0,0,0,0,0,0,0,-1,601,1338,-13.3542,-3.00907
-616,-314,-9.93311,1.15088,0,0,0,0,0,0,0,-1,608,1338,-9.93308,-1.15093
-609,-314,-9.4361,2.86292,0,0,0,0,0,0,0,-1,615,1338,-9.43612,-2.86286
-602,-314,-11.8027,2.42798,0,0,0,0,0,0,0,-1,622,1338,-11.8027,-2.42802
-595,-314,-24.9487,7.16113,0,0,0,0,0,0,0,-1,629,1338,-24.9487,-7.16115
-588,-314,-24.7525,7.9259,0.00484504,0.00334063,0.00230536,0.0065178,0.00166786,0.627701,0.00390969,0.0348131,636,1338,-24.7525,-7.92586
-581,-314,-24.6945,8.65942,0.00359533,0.00241374,0.0015731,0.00468492,0.00132415,0.605767,0.00278873,0.0133455,643,1338,-24.6944,-8.65939
-574,-314,-24.7546,9.32031,0.00299233,0.00164907,0.00118498,0.00368278,0.000958623,0.527579,0.00220619,0.0134416,650,1338,-24.7547,-9.32035
-567,-314,-24.7885,10.0371,0.00286554,0.0010293,0.00102933,0.00332671,0.000568122,0.421219,0.00205478,0.0155201,657,1338,-24.7885,-10.0371
-560,-314,-24.7904,10.7308,0.00313071,0.00050439,0.0010602,0.00350528,0.000129824,0.339608,0.0022948,0.0163764,664,1338,-24.7904,-10.7308
-553,-314,-24.8334,11.3801,0.00371652,3.70534e-05,0.00123647,0.00409342,-0.000339848,0.295874,0.002849,0.0187171,671,1338,-24.8334,-11.3801
-546,-314,-24.9148,12.0538,0.00469213,-0.000339638,0.00161748,0.00516722,-0.000814724,0.285686,0.00374603,0.0192197,678,1338,-24.9148,-12.0538
-539,-314,-24.9067,12.7635,0.00600732,-0.000664727,0.00216251,0.00664691,-0.00130432,0.287565,0.00492397,0.0188004,685,1338,-24.9067,-12.7635
-532,-314,-24.6526,13.473,0,0,0,0,0,0,0,-1,692,1338,-24.6526,-13.473
-525,-314,-13.3017,7.50671,0,0,0,0,0,0,0,-1,699,1338,-13.3017,-7.50669
-518,-314,-8.52753,4.70032,0,0,0,0,0,0,0,-1,706,1338,-8.52755,-4.70034
-511,-314,-11.8597,0.384888,0,0,0,0,0,0,0,-1,713,1338,-11.8597,-0.384927
-504,-314,-11.4322,-0.187378,0,0,0,0,0,0,0,-1,720,1338,-11.4322,0.187381
-497,-314,-11.0047,-0.759644,0,0,0,0,0,0,0,-1,727,1338,-11.0047,0.759689
-490,-314,-18.5143,0.471069,0,0,0,0,0,0,0,-1,734,1338,-18.5143,-0.47103
-483,-314,-17.8528,0.577271,0,0,0,0,0,0,0,-1,741,1338,-17.8528,-0.577327
-476,-314,-17.714,0.665405,0,0,0,0,0,0,0,-1,748,1338,-17.714,-0.665388
-469,-314,-17.7246,0.794678,0,0,0,0,0,0,0,-1,755,1338,-17.7246,-0.794645
-462,-314,0,0,0,0,0,0,0,0,0,-1,762,1338,0,0
-455,-314,0,0,0,0,0,0,0,0,0,-1,769,1338,0,0
-448,-314,0,0,0,0,0,0,0,0,0,-1,776,1338,0,0
-441,-314,0,0,0,0,0,0,0,0,0,-1,783,1338,0,0
-434,-314,0,0,0,0,0,0,0,0,0,-1,790,1338,0,0
-427,-314,0,0,0,0,0,0,0,0,0,-1,797,1338,0,0
-420,-314,0,0,0,0,0,0,0,0,0,-1,804,1338,0,0
-413,-314,0,0,0,0,0,0,0,0,0,-1,811,1338,0,0
-406,-314,0,0,0,0,0,0,0,0,0,-1,818,1338,0,0
-399,-314,0,0,0,0,0,0,0,0,0,-1,825,1338,0,0
-392,-314,0,0,0,0,0,0,0,0,0,-1,832,1338,0,0
-385,-314,0,0,0,0,0,0,0,0,0,-1,839,1338,0,0
-378,-314,0,0,0,0,0,0,0,0,0,-1,846,1338,0,0
-371,-314,0,0,0,0,0,0,0,0,0,-1,853,1338,0,0
-364,-314,0,0,0,0,0,0,0,0,0,-1,860,1338,0,0
-357,-314,0,0,0,0,0,0,0,0,0,-1,867,1338,0,0
-350,-314,0,0,0,0,0,0,0,0,0,-1,874,1338,0,0
-343,-314,0,0,0,0,0,0,0,0,0,-1,881,1338,0,0
-336,-314,0,0,0,0,0,0,0,0,0,-1,888,1338,0,0
-329,-314,0,0,0,0,0,0,0,0,0,-1,895,1338,0,0
-322,-314,0,0,0,0,0,0,0,0,0,-1,902,1338,0,0
-315,-314,0,0,0,0,0,0,0,0,0,-1,909,1338,0,0
-308,-314,0,0,0,0,0,0,0,0,0,-1,916,1338,0,0
-301,-314,0,0,0,0,0,0,0,0,0,-1,923,1338,0,0
-294,-314,0,0,0,0,0,0,0,0,0,-1,930,1338,0,0
-287,-314,0,0,0,0,0,0,0,0,0,-1,937,1338,0,0
-280,-314,0,0,0,0,0,0,0,0,0,-1,944,1338,0,0
-273,-314,0,0,0,0,0,0,0,0,0,-1,951,1338,0,0
-266,-314,0,0,0,0,0,0,0,0,0,-1,958,1338,0,0
-259,-314,0,0,0,0,0,0,0,0,0,-1,965,1338,0,0
-252,-314,0,0,0,0,0,0,0,0,0,-1,972,1338,0,0
-245,-314,0,0,0,0,0,0,0,0,0,-1,979,1338,0,0
-238,-314,0,0,0,0,0,0,0,0,0,-1,986,1338,0,0
-231,-314,0,0,0,0,0,0,0,0,0,-1,993,1338,0,0
-224,-314,0,0,0,0,0,0,0,0,0,-1,1000,1338,0,0
-217,-314,0,0,0,0,0,0,0,0,0,-1,1007,1338,0,0
-210,-314,0,0,0,0,0,0,0,0,0,-1,1014,1338,0,0
-203,-314,0,0,0,0,0,0,0,0,0,-1,1021,1338,0,0
-196,-314,0,0,0,0,0,0,0,0,0,-1,1028,1338,0,0
-189,-314,0,0,0,0,0,0,0,0,0,-1,1035,1338,0,0
-182,-314,0,0,0,0,0,0,0,0,0,-1,1042,1338,0,0
-175,-314,0,0,0,0,0,0,0,0,0,-1,1049,1338,0,0
-168,-314,0,0,0,0,0,0,0,0,0,-1,1056,1338,0,0
-161,-314,0,0,0,0,0,0,0,0,0,-1,1063,1338,0,0
-154,-314,0,0,0,0,0,0,0,0,0,-1,1070,1338,0,0
-147,-314,0,0,0,0,0,0,0,0,0,-1,1077,1338,0,0
-140,-314,0,0,0,0,0,0,0,0,0,-1,1084,1338,0,0
-133,-314,0,0,0,0,0,0,0,0,0,-1,1091,1338,0,0
-126,-314,0,0,0,0,0,0,0,0,0,-1,1098,1338,0,0
-119,-314,0,0,0,0,0,0,0,0,0,-1,1105,1338,0,0
-112,-314,0,0,0,0,0,0,0,0,0,-1,1112,1338,0,0
-105,-314,0,0,0,0,0,0,0,0,0,-1,1119,1338,0,0
-98,-314,0,0,0,0,0,0,0,0,0,-1,1126,1338,0,0
-91,-314,0,0,0,0,0,0,0,0,0,-1,1133,1338,0,0
-84,-314,0,0,0,0,0,0,0,0,0,-1,1140,1338,0,0
-77,-314,0,0,0,0,0,0,0,0,0,-1,1147,1338,0,0
-70,-314,0,0,0,0,0,0,0,0,0,-1,1154,1338,0,0
-63,-314,0,0,0,0,0,0,0,0,0,-1,1161,1338,0,0
-56,-314,0,0,0,0,0,0,0,0,0,-1,1168,1338,0,0
-49,-314,0,0,0,0,0,0,0,0,0,-1,1175,1338,0,0
-42,-314,0,0,0,0,0,0,0,0,0,-1,1182,1338,0,0
-35,-314,0,0,0,0,0,0,0,0,0,-1,1189,1338,0,0
-28,-314,0,0,0,0,0,0,0,0,0,-1,1196,1338,0,0
-21,-314,0,0,0,0,0,0,0,0,0,-1,1203,1338,0,0
-14,-314,0,0,0,0,0,0,0,0,0,-1,1210,1338,0,0
-7,-314,0,0,0,0,0,0,0,0,0,-1,1217,1338,0,0
0,-314,0,0,0,0,0,0,0,0,0,-1,1224,1338,0,0
7,-314,0,0,0,0,0,0,0,0,0,-1,1231,1338,0,0
14,-314,0,0,0,0,0,0,0,0,0,-1,1238,1338,0,0
21,-314,0,0,0,0,0,0,0,0,0,-1,1245,1338,0,0
28,-314,0,0,0,0,0,0,0,0,0,-1,1252,1338,0,0
35,-314,0,0,0,0,0,0,0,0,0,-1,1259,1338,0,0
42,-314,0,0,0,0,0,0,0,0,0,-1,1266,1338,0,0
49,-314,0,0,0,0,0,0,0,0,0,-1,1273,1338,0,0
56,-314,0,0,0,0,0,0,0,0,0,-1,1280,1338,0,0
63,-314,0,0,0,0,0,0,0,0,0,-1,1287,1338,0,0
70,-314,0,0,0,0,0,0,0,0,0,-1,1294,1338,0,0
77,-314,0,0,0,0,0,0,0,0,0,-1,1301,1338,0,0
84,-314,0,0,0,0,0,0,0,0,0,-1,1308,1338,0,0
91,-314,0,0,0,0,0,0,0,0,0,-1,1315,1338,0,0
98,-314,0,0,0,0,0,0,0,0,0,-1,1322,1338,0,0
105,-314,0,0,0,0,0,0,0,0,0,-1,1329,1338,0,0
112,-314,0,0,0,0,0,0,0,0,0,-1,1336,1338,0,0
119,-314,0,0,0,0,0,0,0,0,0,-1,1343,1338,0,0
126,-314,0,0,0,0,0,0,0,0,0,-1,1350,1338,0,0
133,-314,0,0,0,0,0,0,0,0,0,-1,1357,1338,0,0
140,-314,0,0,0,0,0,0,0,0,0,-1,1364,1338,0,0
147,-314,0,0,0,0,0,0,0,0,0,-1,1371,1338,0,0
154,-314,0,0,0,0,0,0,0,0,0,-1,1378,1338,0,0
161,-314,0,0,0,0,0,0,0,0,0,-1,1385,1338,0,0
168,-314,0,0,0,0,0,0,0,0,0,-1,1392,1338,0,0
175,-314,0,0,0,0,0,0,0,0,0,-1,1399,1338,0,0
182,-314,0,0,0,0,0,0,0,0,0,-1,1406,1338,0,0
189,-314,0,0,0,0,0,0,0,0,0,-1,1413,1338,0,0
196,-314,0,0,0,0,0,0,0,0,0,-1,1420,1338,0,0
203,-314,0,0,0,0,0,0,0,0,0,-1,1427,1338,0,0
210,-314,0,0,0,0,0,0,0,0,0,-1,1434,1338,0,0
217,-314,0,0,0,0,0,0,0,0,0,-1,1441,1338,0,0
224,-314,0,0,0,0,0,0,0,0,0,-1,1448,1338,0,0
231,-314,0,0,0,0,0,0,0,0,0,-1,1455,1338,0,0
238,-314,0,0,0,0,0,0,0,0,0,-1,1462,1338,0,0
245,-314,0,0,0,0,0,0,0,0,0,-1,1469,1338,0,0
252,-314,0,0,0,0,0,0,0,0,0,-1,1476,1338,0,0
259,-314,0,0,0,0,0,0,0,0,0,-1,1483,1338,0,0
266,-314,0,0,0,0,0,0,0,0,0,-1,1490,1338,0,0
273,-314,0,0,0,0,0,0,0,0,0,-1,1497,1338,0,0
280,-314,0,0,0,0,0,0,0,0,0,-1,1504,1338,0,0
287,-314,0,0,0,0,0,0,0,0,0,-1,1511,1338,0,0
294,-314,0,0,0,0,0,0,0,0,0,-1,1518,1338,0,0
301,-314,0,0,0,0,0,0,0,0,0,-1,1525,1338,0,0
308,-314,0,0,0,0,0,0,0,0,0,-1,1532,1338,0,0
315,-314,0,0,0,0,0,0,0,0,0,-1,1539,1338,0,0
322,-314,0,0,0,0,0,0,0,0,0,-1,1546,1338,0,0
329,-314,0,0,0,0,0,0,0,0,0,-1,1553,1338,0,0
336,-314,0,0,0,0,0,0,0,0,0,-1,1560,1338,0,0
343,-314,0,0,0,0,0,0,0,0,0,-1,1567,1338,0,0
350,-314,0,0,0,0,0,0,0,0,0,-1,1574,1338,0,0
357,-314,0,0,0,0,0,0,0,0,0,-1,1581,1338,0,0
364,-314,0,0,0,0,0,0,0,0,0,-1,1588,1338,0,0
371,-314,0,0,0,0,0,0,0,0,0,-1,1595,1338,0,0
378,-314,0,0,0,0,0,0,0,0,0,-1,1602,1338,0,0
385,-314,0,0,0,0,0,0,0,0,0,-1,1609,1338,0,0
392,-314,0,0,0,0,0,0,0,0,0,-1,1616,1338,0,0
399,-314,0,0,0,0,0,0,0,0,0,-1,1623,1338,0,0
406,-314,0,0,0,0,0,0,0,0,0,-1,1630,1338,0,0
413,-314,0,0,0,0,0,0,0,0,0,-1,1637,1338,0,0
420,-314,0,0,0,0,0,0,0,0,0,-1,1644,1338,0,0
427,-314,0,0,0,0,0,0,0,0,0,-1,1651,1338,0,0
434,-314,0,0,0,0,0,0,0,0,0,-1,1658,1338,0,0
441,-314,0,0,0,0,0,0,0,0,0,-1,1665,1338,0,0
448,-314,0,0,0,0,0,0,0,0,0,-1,1672,1338,0,0
455,-314,0,0,0,0,0,0,0,0,0,-1,1679,1338,0,0
462,-314,0,0,0,0,0,0,0,0,0,-1,1686,1338,0,0
469,-314,0,0,0,0,0,0,0,0,0,-1,1693,1338,0,0
476,-314,0,0,0,0,0,0,0,0,0,-1,1700,1338,0,0
483,-314,0,0,0,0,0,0,0,0,0,-1,1707,1338,0,0
490,-314,0,0,0,0,0,0,0,0,0,-1,1714,1338,0,0
497,-314,0,0,0,0,0,0,0,0,0,-1,1721,1338,0,0
504,-314,0,0,0,0,0,0,0,0,0,-1,1728,1338,0,0
511,-314,0,0,0,0,0,0,0,0,0,-1,1735,1338,0,0
518,-314,0,0,0,0,0,0,0,0,0,-1,1742,1338,0,0
525,-314,0,0,0,0,0,0,0,0,0,-1,1749,1338,0,0
532,-314,0,0,0,0,0,0,0,0,0,-1,1756,1338,0,0
539,-314,0,0,0,0,0,0,0,0,0,-1,1763,1338,0,0
546,-314,0,0,0,0,0,0,0,0,0,-1,1770,1338,0,0
553,-314,0,0,0,0,0,0,0,0,0,-1,1777,1338,0,0
560,-314,0,0,0,0,0,0,0,0,0,-1,1784,1338,0,0
567,-314,0,0,0,0,0,0,0,0,0,-1,1791,1338,0,0
574,-314,0,0,0,0,0,0,0,0,0,-1,1798,1338,0,0
581,-314,61.8267,2.02466,0,0,0,0,0,0,0,-1,1805,1338,61.8267,-2.02467
588,-314,61.4409,1.81555,0,0,0,0,0,0,0,-1,1812,1338,61.441,-1.81552
595,-314,61.0155,1.63379,0,0,0,0,0,0,0,-1,1819,1338,61.0155,-1.63379
602,-314,60.5292,1.44434,0,0,0,0,0,0,0,-1,1826,1338,60.5292,-1.44435
609,-314,60.2225,1.27014,0,0,0,0,0,0,0,-1,1833,1338,60.2225,-1.27017
616,-314,48.1149,3.005,0,0,0,0,0,0,0,-1,1840,1338,48.1149,-3.00505
623,-314,38.7728,2.71741,0,0,0,0,0,0,0,-1,1847,1338,38.7728,-2.71737
630,-314,29.4308,6.23206,0,0,0,0,0,0,0,-1,1854,1338,29.4308,-6.23202
637,-314,22.1349,5.16418,0,0,0,0,0,0,0,-1,1861,1338,22.1349,-5.16414
644,-314,18.7517,6.2605,0,0,0,0,0,0,0,-1,1868,1338,18.7517,-6.26053
651,-314,23.1317,8.005,0,0,0,0,0,0,0,-1,1875,1338,23.1317,-8.00506
658,-314,41.5955,15.5935,0,0,0,0,0,0,0,-1,1882,1338,41.5955,-15.5935
665,-314,41.5159,14.9818,0.00160735,0.00143161,0.000252261,0.00178661,0.00125236,0.617806,0.00105891,0.0347452,1889,1338,41.5159,-14.9819
672,-314,41.5367,14.3571,0.00121288,-0.000150583,-0.000305214,0.00127809,-0.000215788,-0.210471,0.00093235,0.0135847,1896,1338,41.5367,-14.357
679,-314,41.5183,13.6914,0.000965655,-0.000359867,-0.000538574,0.00115689,-0.000551105,-0.341195,0.00100658,0.0110915,1903,1338,41.5184,-13.6914
686,-314,41.4742,13.0347,0.000987328,-0.000282286,-0.00026586,0.00104075,-0.00033571,-0.198305,0.000828722,0.0126744,1910,1338,41.4742,-13.0347
693,-314,41.4371,12.3754,0.000927782,-0.000446746,9.4151e-05,0.000934201,-0.000453165,0.0680733,0.000816887,0.0125322,1917,1338,41.4372,-12.3753
700,-314,41.4213,11.7197,0.000660082,-0.000649851,0.000572728,0.000875172,-0.000864941,0.359256,0.00100466,0.0145183,1924,1338,41.4213,-11.7197
707,-314,41.4222,11.0845,0.000325027,-0.000951696,0.00119336,0.00104004,-0.00166671,0.539799,0.00157664,0.014523,1931,1338,41.4222,-11.0844
714,-314,41.3912,10.4888,-0.000151274,-0.00142815,0.00203052,0.00133881,-0.00291824,0.63308,0.00251356,0.0122699,1938,1338,41.3913,-10.4888
721,-314,41.3514,9.88953,-0.000763076,-0.00218576,0.00316048,0.00176513,-0.00471396,0.674706,0.00386769,0.027155,1945,1338,41.3514,-9.88951
728,-314,41.6215,9.61511,0,0,0,0,0,0,0,-1,1952,1338,41.6214,-9.61511
735,-314,26.3665,6.21582,0,0,0,0,0,0,0,-1,1959,1338,26.3664,-6.21581
742,-314,26.2235,6.0166,0,0,0,0,0,0,0,-1,1966,1338,26.2235,-6.01662
749,-314,26.2223,5.47046,0,0,0,0,0,0,0,-1,1973,1338,26.2223,-5.47041
756,-314,24.2521,5.93408,0,0,0,0,0,0,0,-1,1980,1338,24.252,-5.93413
763,-314,19.2207,4.07239,0,0,0,0,0,0,0,-1,1987,1338,19.2206,-4.07239
770,-314,0,0,0,0,0,0,0,0,0,-1,1994,1338,0,0
777,-314,0,0,0,0,0,0,0,0,0,-1,2001,1338,0,0
784,-314,0,0,0,0,0,0,0,0,0,-1,2008,1338,0,0
791,-314,0,0,0,0,0,0,0,0,0,-1,2015,1338,0,0
798,-314,0,0,0,0,0,0,0,0,0,-1,2022,1338,0,0
805,-314,0,0,0,0,0,0,0,0,0,-1,2029,1338,0,0
812,-314,0,0,0,0,0,0,0,0,0,-1,2036,1338,0,0
-700,-321,0,0,0,0,0,0,0,0,0,-1,524,1345,0,0
-693,-321,0,0,0,0,0,0,0,0,0,-1,531,1345,0,0
-686,-321,0,0,0,0,0,0,0,0,0,-1,538,1345,0,0
-679,-321,0,0,0,0,0,0,0,0,0,-1,545,1345,0,0
-672,-321,0,0,0,0,0,0,0,0,0,-1,552,1345,0,0
-665,-321,0,0,0,0,0,0,0,0,0,-1,559,1345,0,0
-658,-321,0,0,0,0,0,0,0,0,0,-1,566,1345,0,0
-651,-321,0,0,0,0,0,0,0,0,0,-1,573,1345,0,0
-644,-321,-58.7329,10.2313,0,0,0,0,0,0,0,-1,580,1345,-58.7329,-10.2313
-637,-321,-59.9981,9.06421,0,0,0,0,0,0,0,-1,587,1345,-59.9981,-9.06417
-630,-321,-61.377,8.07166,0,0,0,0,0,0,0,-1,594,1345,-61.3769,-8.07168
-623,-321,-13.2242,3.14148,0,0,0,0,0,0,0,-1,601,1345,-13.2243,-3.14146
-616,-321,-11.6754,3.13794,0,0,0,0,0,0,0,-1,608,1345,-11.6754,-3.13789
-609,-321,-7.95209,1.14758,0,0,0,0,0,0,0,-1,615,1345,-7.95208,-1.14757
-602,-321,-8.85791,2.50049,0,0,0,0,0,0,0,-1,622,1345,-8.85791,-2.50048
-595,-321,-19.8463,5.36584,0,0,0,0,0,0,0,-1,629,1345,-19.8462,-5.36589
-588,-321,-24.1619,7.93335,0,0,0,0,0,0,0,-1,636,1345,-24.1619,-7.93336
-581,-321,-24.0335,8.6864,0.00373012,0.00277362,0.0016473,0.00496719,0.00153655,0.64412,0.00293649,0.0143423,643,1345,-24.0335,-8.68639
-574,-321,-24.0862,9.36462,0.00305544,0.00198061,0.00124091,0.00387031,0.00116575,0.58105,0.00229264,0.0155644,650,1345,-24.0862,-9.36468
-567,-321,-24.1248,10.0557,0.00284724,0.00133821,0.0010528,0.00338798,0.000797473,0.474481,0.00204532,0.023774,657,1345,-24.1248,-10.0557
-560,-321,-24.1208,10.7815,0.00299611,0.000789494,0.00103973,0.00340883,0.000376778,0.37787,0.00215795,0.0283715,664,1345,-24.1208,-10.7815
-553,-321,-24.1572,11.4424,0.0034122,0.000287011,0.00114476,0.00378666,-8.74501e-05,0.316137,0.00255409,0.0296256,671,1345,-24.1572,-11.4424
-546,-321,-24.1959,12.1116,0.0041657,-0.000124959,0.001429,0.00459806,-0.000557319,0.293805,0.00326703,0.029171,678,1345,-24.1958,-12.1116
-539,-321,-24.2081,12.7733,0.0051906,-0.000484991,0.00184531,0.00573781,-0.0010322,0.28828,0.00421165,0.0258518,685,1345,-24.2081,-12.7733
-532,-321,-24.1132,13.4618,0.00653513,-0.000780937,0.00240859,0.00725688,-0.00150269,0.291142,0.00540885,0.0364484,692,1345,-24.1132,-13.4619
-525,-321,-24.1323,14.188,0,0,0,0,0,0,0,-1,699,1345,-24.1323,-14.188
-518,-321,-10.3564,6.75696,0,0,0,0,0,0,0,-1,706,1345,-10.3564,-6.75694
-511,-321,-9.3302,5.29297,0,0,0,0,0,0,0,-1,713,1345,-9.33023,-5.29294
-504,-321,-10.4713,0.0145264,0,0,0,0,0,0,0,-1,720,1345,-10.4713,-0.0145296
-497,-321,-9.96771,0.313599,0,0,0,0,0,0,0,-1,727,1345,-9.96769,-0.313618
-490,-321,-10.7631,0.973511,0,0,0,0,0,0,0,-1,734,1345,-10.7631,-0.97353
-483,-321,-17.5908,0.2323,0,0,0,0,0,0,0,-1,741,1345,-17.5908,-0.232355
-476,-321,-17.2915,0.297363,0,0,0,0,0,0,0,-1,748,1345,-17.2915,-0.297342
-469,-321,-17.2441,0.478027,0,0,0,0,0,0,0,-1,755,1345,-17.2441,-0.477994
-462,-321,-17.1672,0.526489,0,0,0,0,0,0,0,-1,762,1345,-17.1672,-0.526533
-455,-321,0,0,0,0,0,0,0,0,0,-1,769,1345,0,0
-448,-321,0,0,0,0,0,0,0,0,0,-1,776,1345,0,0
-441,-321,0,0,0,0,0,0,0,0,0,-1,783,1345,0,0
-434,-321,0,0,0,0,0,0,0,0,0,-1,790,1345,0,0
-427,-321,0,0,0,0,0,0,0,0,0,-1,797,1345,0,0
-420,-321,0,0,0,0,0,0,0,0,0,-1,804,1345,0,0
-413,-321,0,0,0,0,0,0,0,0,0,-1,811,1345,0,0
-406,-321,0,0,0,0,0,0,0,0,0,-1,818,1345,0,0
-399,-321,0,0,0,0,0,0,0,0,0,-1,825,1345,0,0
-392,-321,0,0,0,0,0,0,0,0,0,-1,832,1345,0,0
-385,-321,0,0,0,0,0,0,0,0,0,-1,839,1345,0,0
-378,-321,0,0,0,0,0,0,0,0,0,-1,846,1345,0,0
-371,-321,0,0,0,0,0,0,0,0,0,-1,853,1345,0,0
-364,-321,0,0,0,0,0,0,0,0,0,-1,860,1345,0,0
-357,-321,0,0,0,0,0,0,0,0,0,-1,867,1345,0,0
-350,-321,0,0,0,0,0,0,0,0,0,-1,874,1345,0,0
-343,-321,0,0,0,0,0,0,0,0,0,-1,881,1345,0,0
-336,-321,0,0,0,0,0,0,0,0,0,-1,888,1345,0,0
-329,-321,0,0,0,0,0,0,0,0,0,-1,895,1345,0,0
-322,-321,0,0,0,0,0,0,0,0,0,-1,902,1345,0,0
-315,-321,0,0,0,0,0,0,0,0,0,-1,909,1345,0,0
-308,-321,0,0,0,0,0,0,0,0,0,-1,916,1345,0,0
-301,-321,0,0,0,0,0,0,0,0,0,-1,923,1345,0,0
-294,-321,0,0,0,0,0,0,0,0,0,-1,930,1345,0,0
-287,-321,0,0,0,0,0,0,0,0,0,-1,937,1345,0,0
-280,-321,0,0,0,0,0,0,0,0,0,-1,944,1345,0,0
-273,-321,0,0,0,0,0,0,0,0,0,-1,951,1345,0,0
-266,-321,0,0,0,0,0,0,0,0,0,-1,958,1345,0,0
-259,-321,0,0,0,0,0,0,0,0,0,-1,965,1345,0,0
-252,-321,0,0,0,0,0,0,0,0,0,-1,972,1345,0,0
-245,-321,0,0,0,0,0,0,0,0,0,-1,979,1345,0,0
-238,-321,0,0,0,0,0,0,0,0,0,-1,986,1345,0,0
-231,-321,0,0,0,0,0,0,0,0,0,-1,993,1345,0,0
-224,-321,0,0,0,0,0,0,0,0,0,-1,1000,1345,0,0
-217,-321,0,0,0,0,0,0,0,0,0,-1,1007,1345,0,0
-210,-321,0,0,0,0,0,0,0,0,0,-1,1014,1345,0,0
-203,-321,0,0,0,0,0,0,0,0,0,-1,1021,1345,0,0
-196,-321,0,0,0,0,0,0,0,0,0,-1,1028,1345,0,0
-189,-321,0,0,0,0,0,0,0,0,0,-1,1035,1345,0,0
-182,-321,0,0,0,0,0,0,0,0,0,-1,1042,1345,0,0
-175,-321,0,0,0,0,0,0,0,0,0,-1,1049,1345,0,0
-168,-321,0,0,0,0,0,0,0,0,0,-1,1056,1345,0,0
-161,-321,0,0,0,0,0,0,0,0,0,-1,1063,1345,0,0
-154,-321,0,0,0,0,0,0,0,0,0,-1,1070,1345,0,0
-147,-321,0,0,0,0,0,0,0,0,0,-1,1077,1345,0,0
-140,-321,0,0,0,0,0,0,0,0,0,-1,1084,1345,0,0
-133,-321,0,0,0,0,0,0,0,0,0,-1,1091,1345,0,0
-126,-321,0,0,0,0,0,0,0,0,0,-1,1098,1345,0,0
-119,-321,0,0,0,0,0,0,0,0,0,-1,1105,1345,0,0
-112,-321,0,0,0,0,0,0,0,0,0,-1,1112,1345,0,0
-105,-321,0,0,0,0,0,0,0,0,0,-1,1119,1345,0,0
-98,-321,0,0,0,0,0,0,0,0,0,-1,1126,1345,0,0
-91,-321,0,0,0,0,0,0,0,0,0,-1,1133,1345,0,0
-84,-321,0,0,0,0,0,0,0,0,0,-1,1140,1345,0,0
-77,-321,0,0,0,0,0,0,0,0,0,-1,1147,1345,0,0
-70,-321,0,0,0,0,0,0,0,0,0,-1,1154,1345,0,0
-63,-321,0,0,0,0,0,0,0,0,0,-1,1161,1345,0,0
-56,-321,0,0,0,0,0,0,0,0,0,-1,1168,1345,0,0
-49,-321,0,0,0,0,0,0,0,0,0,-1,1175,1345,0,0
-42,-321,0,0,0,0,0,0,0,0,0,-1,1182,1345,0,0
-35,-321,0,0,0,0,0,0,0,0,0,-1,1189,1345,0,0
-28,-321,0,0,0,0,0,0,0,0,0,-1,1196,1345,0,0
-21,-321,0,0,0,0,0,0,0,0,0,-1,1203,1345,0,0
-14,-321,0,0,0,0,0,0,0,0,0,-1,1210,1345,0,0
-7,-321,0,0,0,0,0,0,0,0,0,-1,1217,1345,0,0
0,-321,0,0,0,0,0,0,0,0,0,-1,1224,1345,0,0
7,-321,0,0,0,0,0,0,0,0,0,-1,1231,1345,0,0
14,-321,0,0,0,0,0,0,0,0,0,-1,1238,1345,0,0
21,-321,0,0,0,0,0,0,0,0,0,-1,1245,1345,0,0
28,-321,0,0,0,0,0,0,0,0,0,-1,1252,1345,0,0
35,-321,0,0,0,0,0,0,0,0,0,-1,1259,1345,0,0
42,-321,0,0,0,0,0,0,0,0,0,-1,1266,1345,0,0
49,-321,0,0,0,0,0,0,0,0,0,-1,1273,1345,0,0
56,-321,0,0,0,0,0,0,0,0,0,-1,1280,1345,0,0
63,-321,0,0,0,0,0,0,0,0,0,-1,1287,1345,0,0
70,-321,0,0,0,0,0,0,0,0,0,-1,1294,1345,0,0
77,-321,0,0,0,0,0,0,0,0,0,-1,1301,1345,0,0
84,-321,0,0,0,0,0,0,0,0,0,-1,1308,1345,0,0
91,-321,0,0,0,0,0,0,0,0,0,-1,1315,1345,0,0
98,-321,0,0,0,0,0,0,0,0,0,-1,1322,1345,0,0
105,-321,0,0,0,0,0,0,0,0,0,-1,1329,1345,0,0
112,-321,0,0,0,0,0,0,0,0,0,-1,1336,1345,0,0
119,-321,0,0,0,0,0,0,0,0,0,-1,1343,1345,0,0
126,-321,0,0,0,0,0,0,0,0,0,-1,1350,1345,0,0
133,-321,0,0,0,0,0,0,0,0,0,-1,1357,1345,0,0
140,-321,0,0,0,0,0,0,0,0,0,-1,1364,1345,0,0
147,-321,0,0,0,0,0,0,0,0,0,-1,1371,1345,0,0
154,-321,0,0,0,0,0,0,0,0,0,-1,1378,1345,0,0
161,-321,0,0,0,0,0,0,0,0,0,-1,1385,1345,0,0
168,-321,0,0,0,0,0,0,0,0,0,-1,1392,1345,0,0
175,-321,0,0,0,0,0,0,0,0,0,-1,1399,1345,0,0
182,-321,0,0,0,0,0,0,0,0,0,-1,1406,1345,0,0
189,-321,0,0,0,0,0,0,0,0,0,-1,1413,1345,0,0
196,-321,0,0,0,0,0,0,0,0,0,-1,1420,1345,0,0
203,-321,0,0,0,0,0,0,0,0,0,-1,1427,1345,0,0
210,-321,0,0,0,0,0,0,0,0,0,-1,1434,1345,0,0
217,-321,0,0,0,0,0,0,0,0,0,-1,1441,1345,0,0
224,-321,0,0,0,0,0,0,0,0,0,-1,1448,1345,0,0
231,-321,0,0,0,0,0,0,0,0,0,-1,1455,1345,0,0
238,-321,0,0,0,0,0,0,0,0,0,-1,1462,1345,0,0
245,-321,0,0,0,0,0,0,0,0,0,-1,1469,1345,0,0
252,-321,0,0,0,0,0,0,0,0,0,-1,1476,1345,0,0
259,-321,0,0,0,0,0,0,0,0,0,-1,1483,1345,0,0
266,-321,0,0,0,0,0,0,0,0,0,-1,1490,1345,0,0
273,-321,0,0,0,0,0,0,0,0,0,-1,1497,1345,0,0
280,-321,0,0,0,0,0,0,0,0,0,-1,1504,1345,0,0
287,-321,0,0,0,0,0,0,0,0,0,-1,1511,1345,0,0
294,-321,0,0,0,0,0,0,0,0,0,-1,1518,1345,0,0
301,-321,0,0,0,0,0,0,0,0,0,-1,1525,1345,0,0
308,-321,0,0,0,0,0,0,0,0,0,-1,1532,1345,0,0
315,-321,0,0,0,0,0,0,0,0,0,-1,1539,1345,0,0
322,-321,0,0,0,0,0,0,0,0,0,-1,1546,1345,0,0
329,-321,0,0,0,0,0,0,0,0,0,-1,1553,1345,0,0
336,-321,0,0,0,0,0,0,0,0,0,-1,1560,1345,0,0
343,-321,0,0,0,0,0,0,0,0,0,-1,1567,1345,0,0
350,-321,0,0,0,0,0,0,0,0,0,-1,1574,1345,0,0
357,-321,0,0,0,0,0,0,0,0,0,-1,1581,1345,0,0
364,-321,0,0,0,0,0,0,0,0,0,-1,1588,1345,0,0
371,-321,0,0,0,0,0,0,0,0,0,-1,1595,1345,0,0
378,-321,0,0,0,0,0,0,0,0,0,-1,1602,1345,0,0
385,-321,0,0,0,0,0,0,0,0,0,-1,1609,1345,0,0
392,-321,0,0,0,0,0,0,0,0,0,-1,1616,1345,0,0
399,-321,0,0,0,0,0,0,0,0,0,-1,1623,1345,0,0
406,-321,0,0,0,0,0,0,0,0,0,-1,1630,1345,0,0
413,-321,0,0,0,0,0,0,0,0,0,-1,1637,1345,0,0
420,-321,0,0,0,0,0,0,0,0,0,-1,1644,1345,0,0
427,-321,0,0,0,0,0,0,0,0,0,-1,1651,1345,0,0
434,-321,0,0,0,0,0,0,0,0,0,-1,1658,1345,0,0
441,-321,0,0,0,0,0,0,0,0,0,-1,1665,1345,0,0
448,-321,0,0,0,0,0,0,0,0,0,-1,1672,1345,0,0
455,-321,0,0,0,0,0,0,0,0,0,-1,1679,1345,0,0
462,-321,0,0,0,0,0,0,0,0,0,-1,1686,1345,0,0
469,-321,0,0,0,0,0,0,0,0,0,-1,1693,1345,0,0
476,-321,0,0,0,0,0,0,0,0,0,-1,1700,1345,0,0
483,-321,0,0,0,0,0,0,0,0,0,-1,1707,1345,0,0
490,-321,0,0,0,0,0,0,0,0,0,-1,1714,1345,0,0
497,-321,0,0,0,0,0,0,0,0,0,-1,1721,1345,0,0
504,-321,0,0,0,0,0,0,0,0,0,-1,1728,1345,0,0
511,-321,0,0,0,0,0,0,0,0,0,-1,1735,1345,0,0
518,-321,0,0,0,0,0,0,0,0,0,-1,1742,1345,0,0
525,-321,0,0,0,0,0,0,0,0,0,-1,1749,1345,0,0
532,-321,0,0,0,0,0,0,0,0,0,-1,1756,1345,0,0
539,-321,0,0,0,0,0,0,0,0,0,-1,1763,1345,0,0
546,-321,0,0,0,0,0,0,0,0,0,-1,1770,1345,0,0
553,-321,0,0,0,0,0,0,0,0,0,-1,1777,1345,0,0
560,-321,0,0,0,0,0,0,0,0,0,-1,1784,1345,0,0
567,-321,0,0,0,0,0,0,0,0,0,-1,1791,1345,0,0
574,-321,0,0,0,0,0,0,0,0,0,-1,1798,1345,0,0
581,-321,59.2018,1.7915,0,0,0,0,0,0,0,-1,1805,1345,59.2017,-1.79155
588,-321,61.1644,1.78894,0,0,0,0,0,0,0,-1,1812,1345,61.1644,-1.78899
595,-321,60.7913,1.61035,0,0,0,0,0,0,0,-1,1819,1345,60.7913,-1.61039
602,-321,60.3523,1.24133,0,0,0,0,0,0,0,-1,1826,1345,60.3523,-1.2413
609,-321,48.311,3.39575,0,0,0,0,0,0,0,-1,1833,1345,48.311,-3.39571
616,-321,37.8107,2.58704,0,0,0,0,0,0,0,-1,1840,1345,37.8106,-2.58705
623,-321,37.6854,3.68933,0,0,0,0,0,0,0,-1,1847,1345,37.6854,-3.68931
630,-321,23.6674,4.34106,0,0,0,0,0,0,0,-1,1854,1345,23.6674,-4.34112
637,-321,21.7925,6.79224,0,0,0,0,0,0,0,-1,1861,1345,21.7925,-6.7922
644,-321,16.8844,6.71973,0,0,0,0,0,0,0,-1,1868,1345,16.8844,-6.71971
651,-321,27.4924,10.0319,0,0,0,0,0,0,0,-1,1875,1345,27.4924,-10.0319
658,-321,40.8649,15.6489,0,0,0,0,0,0,0,-1,1882,1345,40.8649,-15.6489
665,-321,40.8988,15.0238,0.00181972,0.000768627,0.000659989,0.00213785,0.0004505,0.449159,0.00130132,0.0251622,1889,1345,40.8988,-15.0238
672,-321,40.906,14.3695,0.00135551,-0.000299787,9.21066e-08,0.00135551,-0.000299787,5.56436e-05,0.00101842,0.0143984,1896,1345,40.906,-14.3694
679,-321,40.8793,13.7169,0.00112172,-0.000337152,-0.000322567,0.00118986,-0.000405291,-0.20818,0.000957373,0.0127968,1903,1345,40.8792,-13.7169
686,-321,40.8182,13.068,0.00108621,-0.000264837,-0.000231626,0.00112482,-0.000303444,-0.16516,0.000868873,0.0131166,1910,1345,40.8182,-13.068
693,-321,40.782,12.4247,0.00105546,-0.000295084,-2.54848e-05,0.00105594,-0.000295565,-0.018861,0.000820427,0.0122588,1917,1345,40.782,-12.4247
700,-321,40.7852,11.7635,0.000940995,-0.000419658,0.000329945,0.00101678,-0.000495446,0.22578,0.000890211,0.012908,1924,1345,40.7851,-11.7636
707,-321,40.7854,11.1108,0.000727043,-0.000634389,0.000830984,0.00112053,-0.00102787,0.442238,0.00124077,0.0156547,1931,1345,40.7854,-11.1108
714,-321,40.7444,10.4771,0.000362282,-0.00100068,0.00155643,0.00137989,-0.00201829,0.579047,0.00197344,0.01463,1938,1345,40.7444,-10.4771
721,-321,40.6633,9.83325,-0.000150388,-0.00168205,0.00261832,0.0018118,-0.00364424,0.643122,0.00320872,0.041439,1945,1345,40.6634,-9.8332
728,-321,40.665,9.22632,0,0,0,0,0,0,0,-1,1952,1345,40.665,-9.22637
735,-321,22.0081,5.65479,0,0,0,0,0,0,0,-1,1959,1345,22.008,-5.65481
742,-321,24.5398,5.05725,0,0,0,0,0,0,0,-1,1966,1345,24.5398,-5.05729
749,-321,24.0675,5.4458,0,0,0,0,0,0,0,-1,1973,1345,24.0675,-5.44581
756,-321,19.6251,4.98315,0,0,0,0,0,0,0,-1,1980,1345,19.6251,-4.98311
763,-321,19.6747,4.61438,0,0,0,0,0,0,0,-1,1987,1345,19.6747,-4.61436
770,-321,0,0,0,0,0,0,0,0,0,-1,1994,1345,0,0
777,-321,0,0,0,0,0,0,0,0,0,-1,2001,1345,0,0
784,-321,0,0,0,0,0,0,0,0,0,-1,2008,1345,0,0
791,-321,0,0,0,0,0,0,0,0,0,-1,2015,1345,0,0
798,-321,0,0,0,0,0,0,0,0,0,-1,2022,1345,0,0
805,-321,0,0,0,0,0,0,0,0,0,-1,2029,1345,0,0
812,-321,0,0,0,0,0,0,0,0,0,-1,2036,1345,0,0
-700,-328,0,0,0,0,0,0,0,0,0,-1,524,1352,0,0
-693,-328,0,0,0,0,0,0,0,0,0,-1,531,1352,0,0
-686,-328,0,0,0,0,0,0,0,0,0,-1,538,1352,0,0
-679,-328,0,0,0,0,0,0,0,0,0,-1,545,1352,0,0
-672,-328,0,0,0,0,0,0,0,0,0,-1,552,1352,0,0
-665,-328,0,0,0,0,0,0,0,0,0,-1,559,1352,0,0
-658,-328,0,0,0,0,0,0,0,0,0,-1,566,1352,0,0
-651,-328,0,0,0,0,0,0,0,0,0,-1,573,1352,0,0
-644,-328,0,0,0,0,0,0,0,0,0,-1,580,1352,0,0
-637,-328,-61.3883,10.1125,0,0,0,0,0,0,0,-1,587,1352,-61.3883,-10.1126
-630,-328,-62.8012,9.14563,0,0,0,0,0,0,0,-1,594,1352,-62.8012,-9.14564
-623,-328,-10.7739,4.55042,0,0,0,0,0,0,0,-1,601,1352,-10.7739,-4.55041
-616,-328,-8.22198,-0.25708,0,0,0,0,0,0,0,-1,608,1352,-8.22201,0.257067
-609,-328,-7.87439,0.192871,0,0,0,0,0,0,0,-1,615,1352,-7.87441,-0.192822
-602,-328,-7.63062,1.31665,0,0,0,0,0,0,0,-1,622,1352,-7.63064,-1.3166
-595,-328,-9.42639,2.93494,0,0,0,0,0,0,0,-1,629,1352,-9.42638,-2.93499
-588,-328,-23.5052,7.77051,0,0,0,0,0,0,0,-1,636,1352,-23.5053,-7.77054
-581,-328,-23.3911,8.65417,0.00397959,0.00303386,0.00175537,0.00532467,0.00168878,0.653831,0.00314197,0.0273957,643,1352,-23.391,-8.65414
-574,-328,-23.3925,9.38574,0.00315823,0.00223177,0.0013499,0.00412218,0.00126783,0.620115,0.00243799,0.0152157,650,1352,-23.3924,-9.38576
-567,-328,-23.4382,10.0776,0.00282517,0.00158071,0.00113866,0.00350053,0.000905358,0.535338,0.00209806,0.0217212,657,1352,-23.4382,-10.0776
-560,-328,-23.438,10.833,0.00283332,0.00102053,0.00108755,0.00334267,0.00051119,0.438001,0.0020791,0.030697,664,1352,-23.438,-10.833
-553,-328,-23.4597,11.5087,0.00307759,0.000505003,0.00113401,0.00350609,7.65023e-05,0.36128,0.00231232,0.0321202,671,1352,-23.4596,-11.5087
-546,-328,-23.4578,12.1677,0.00362224,7.00261e-05,0.00132552,0.00406233,-0.000370071,0.320567,0.00283963,0.0300559,678,1352,-23.4578,-12.1677
-539,-328,-23.4979,12.8123,0.00439398,-0.000310943,0.00162557,0.00490098,-0.000817946,0.302332,0.00357133,0.0249963,685,1352,-23.4979,-12.8122
-532,-328,-23.5245,13.4939,0.00541593,-0.000627352,0.00204483,0.0060428,-0.00125422,0.297467,0.00450518,0.0198156,692,1352,-23.5245,-13.4939
-525,-328,-23.5594,14.2495,0.00662803,-0.00105313,0.00252538,0.00738393,-0.00180903,0.290833,0.00562347,0.0341673,699,1352,-23.5594,-14.2495
-518,-328,-23.6666,15,0,0,0,0,0,0,0,-1,706,1352,-23.6666,-15
-511,-328,-9.39868,7.16113,0,0,0,0,0,0,0,-1,713,1352,-9.39869,-7.16113
-504,-328,-8.60626,-0.905762,0,0,0,0,0,0,0,-1,720,1352,-8.60623,0.905787
-497,-328,-9.29102,-0.0517578,0,0,0,0,0,0,0,-1,727,1352,-9.29104,0.0518175
-490,-328,-10.0663,0.882813,0,0,0,0,0,0,0,-1,734,1352,-10.0663,-0.882795
-483,-328,-10.8181,1.72375,0,0,0,0,0,0,0,-1,741,1352,-10.8181,-1.72374
-476,-328,-16.8951,-0.150757,0,0,0,0,0,0,0,-1,748,1352,-16.8951,0.150795
-469,-328,-16.8412,0.00158691,0,0,0,0,0,0,0,-1,755,1352,-16.8412,-0.00161515
-462,-328,-16.3546,-0.203491,0,0,0,0,0,0,0,-1,762,1352,-16.3545,0.203532
-455,-328,0,0,0,0,0,0,0,0,0,-1,769,1352,0,0
-448,-328,0,0,0,0,0,0,0,0,0,-1,776,1352,0,0
-441,-328,0,0,0,0,0,0,0,0,0,-1,783,1352,0,0
-434,-328,0,0,0,0,0,0,0,0,0,-1,790,1352,0,0
-427,-328,0,0,0,0,0,0,0,0,0,-1,797,1352,0,0
-420,-328,0,0,0,0,0,0,0,0,0,-1,804,1352,0,0
-413,-328,0,0,0,0,0,0,0,0,0,-1,811,1352,0,0
-406,-328,0,0,0,0,0,0,0,0,0,-1,818,1352,0,0
-399,-328,0,0,0,0,0,0,0,0,0,-1,825,1352,0,0
-392,-328,0,0,0,0,0,0,0,0,0,-1,832,1352,0,0
-385,-328,0,0,0,0,0,0,0,0,0,-1,839,1352,0,0
-378,-328,0,0,0,0,0,0,0,0,0,-1,846,1352,0,0
-371,-328,0,0,0,0,0,0,0,0,0,-1,853,1352,0,0
-364,-328,0,0,0,0,0,0,0,0,0,-1,860,1352,0,0
-357,-328,0,0,0,0,0,0,0,0,0,-1,867,1352,0,0
-350,-328,0,0,0,0,0,0,0,0,0,-1,874,1352,0,0
-343,-328,0,0,0,0,0,0,0,0,0,-1,881,1352,0,0
-336,-328,0,0,0,0,0,0,0,0,0,-1,888,1352,0,0
-329,-328,0,0,0,0,0,0,0,0,0,-1,895,1352,0,0
-322,-328,0,0,0,0,0,0,0,0,0,-1,902,1352,0,0
-315,-328,0,0,0,0,0,0,0,0,0,-1,909,1352,0,0
-308,-328,0,0,0,0,0,0,0,0,0,-1,916,1352,0,0
-301,-328,0,0,0,0,0,0,0,0,0,-1,923,1352,0,0
-294,-328,0,0,0,0,0,0,0,0,0,-1,930,1352,0,0
-287,-328,0,0,0,0,0,0,0,0,0,-1,937,1352,0,0
-280,-328,0,0,0,0,0,0,0,0,0,-1,944,1352,0,0
-273,-328,0,0,0,0,0,0,0,0,0,-1,951,1352,0,0
-266,-328,0,0,0,0,0,0,0,0,0,-1,958,1352,0,0
-259,-328,0,0,0,0,0,0,0,0,0,-1,965,1352,0,0
-252,-328,0,0,0,0,0,0,0,0,0,-1,972,1352,0,0
-245,-328,0,0,0,0,0,0,0,0,0,-1,979,1352,0,0
-238,-328,0,0,0,0,0,0,0,0,0,-1,986,1352,0,0
-231,-328,0,0,0,0,0,0,0,0,0,-1,993,1352,0,0
-224,-328,0,0,0,0,0,0,0,0,0,-1,1000,1352,0,0
-217,-328,0,0,0,0,0,0,0,0,0,-1,1007,1352,0,0
-210,-328,0,0,0,0,0,0,0,0,0,-1,1014,1352,0,0
-203,-328,0,0,0,0,0,0,0,0,0,-1,1021,1352,0,0
-196,-328,0,0,0,0,0,0,0,0,0,-1,1028,1352,0,0
-189,-328,0,0,0,0,0,0,0,0,0,-1,1035,1352,0,0
-182,-328,0,0,0,0,0,0,0,0,0,-1,1042,1352,0,0
-175,-328,0,0,0,0,0,0,0,0,0,-1,1049,1352,0,0
-168,-328,0,0,0,0,0,0,0,0,0,-1,1056,1352,0,0
-161,-328,0,0,0,0,0,0,0,0,0,-1,1063,1352,0,0
-154,-328,0,0,0,0,0,0,0,0,0,-1,1070,1352,0,0
-147,-328,0,0,0,0,0,0,0,0,0,-1,1077,1352,0,0
-140,-328,0,0,0,0,0,0,0,0,0,-1,1084,1352,0,0
-133,-328,0,0,0,0,0,0,0,0,0,-1,1091,1352,0,0
-126,-328,0,0,0,0,0,0,0,0,0,-1,1098,1352,0,0
-119,-328,0,0,0,0,0,0,0,0,0,-1,1105,1352,0,0
-112,-328,0,0,0,0,0,0,0,0,0,-1,1112,1352,0,0
-105,-328,0,0,0,0,0,0,0,0,0,-1,1119,1352,0,0
-98,-328,0,0,0,0,0,0,0,0,0,-1,1126,1352,0,0
-91,-328,0,0,0,0,0,0,0,0,0,-1,1133,1352,0,0
-84,-328,0,0,0,0,0,0,0,0,0,-1,1140,1352,0,0
-77,-328,0,0,0,0,0,0,0,0,0,-1,1147,1352,0,0
-70,-328,0,0,0,0,0,0,0,0,0,-1,1154,1352,0,0
-63,-328,0,0,0,0,0,0,0,0,0,-1,1161,1352,0,0
-56,-328,0,0,0,0,0,0,0,0,0,-1,1168,1352,0,0
-49,-328,0,0,0,0,0,0,0,0,0,-1,1175,1352,0,0
-42,-328,0,0,0,0,0,0,0,0,0,-1,1182,1352,0,0
-35,-328,0,0,0,0,0,0,0,0,0,-1,1189,1352,0,0
-28,-328,0,0,0,0,0,0,0,0,0,-1,1196,1352,0,0
-21,-328,0,0,0,0,0,0,0,0,0,-1,1203,1352,0,0
-14,-328,0,0,0,0,0,0,0,0,0,-1,1210,1352,0,0
-7,-328,0,0,0,0,0,0,0,0,0,-1,1217,1352,0,0
0,-328,0,0,0,0,0,0,0,0,0,-1,1224,1352,0,0
7,-328,0,0,0,0,0,0,0,0,0,-1,1231,1352,0,0
14,-328,0,0,0,0,0,0,0,0,0,-1,1238,1352,0,0
21,-328,0,0,0,0,0,0,0,0,0,-1,1245,1352,0,0
28,-328,0,0,0,0,0,0,0,0,0,-1,1252,1352,0,0
35,-328,0,0,0,0,0,0,0,0,0,-1,1259,1352,0,0
42,-328,0,0,0,0,0,0,0,0,0,-1,1266,1352,0,0
49,-328,0,0,0,0,0,0,0,0,0,-1,1273,1352,0,0
56,-328,0,0,0,0,0,0,0,0,0,-1,1280,1352,0,0
63,-328,0,0,0,0,0,0,0,0,0,-1,1287,1352,0,0
70,-328,0,0,0,0,0,0,0,0,0,-1,1294,1352,0,0
77,-328,0,0,0,0,0,0,0,0,0,-1,1301,1352,0,0
84,-328,0,0,0,0,0,0,0,0,0,-1,1308,1352,0,0
91,-328,0,0,0,0,0,0,0,0,0,-1,1315,1352,0,0
98,-328,0,0,0,0,0,0,0,0,0,-1,1322,1352,0,0
105,-328,0,0,0,0,0,0,0,0,0,-1,1329,1352,0,0
112,-328,0,0,0,0,0,0,0,0,0,-1,1336,1352,0,0
119,-328,0,0,0,0,0,0,0,0,0,-1,1343,1352,0,0
126,-328,0,0,0,0,0,0,0,0,0,-1,1350,1352,0,0
133,-328,0,0,0,0,0,0,0,0,0,-1,1357,1352,0,0
140,-328,0,0,0,0,0,0,0,0,0,-1,1364,1352,0,0
147,-328,0,0,0,0,0,0,0,0,0,-1,1371,1352,0,0
154,-328,0,0,0,0,0,0,0,0,0,-1,1378,1352,0,0
161,-328,0,0,0,0,0,0,0,0,0,-1,1385,1352,0,0
168,-328,0,0,0,0,0,0,0,0,0,-1,1392,1352,0,0
175,-328,0,0,0,0,0,0,0,0,0,-1,1399,1352,0,0
182,-328,0,0,0,0,0,0,0,0,0,-1,1406,1352,0,0
189,-328,0,0,0,0,0,0,0,0,0,-1,1413,1352,0,0
196,-328,0,0,0,0,0,0,0,0,0,-1,1420,1352,0,0
203,-328,0,0,0,0,0,0,0,0,0,-1,1427,1352,0,0
210,-328,0,0,0,0,0,0,0,0,0,-1,1434,1352,0,0
217,-328,0,0,0,0,0,0,0,0,0,-1,1441,1352,0,0
224,-328,0,0,0,0,0,0,0,0,0,-1,1448,1352,0,0
231,-328,0,0,0,0,0,0,0,0,0,-1,1455,1352,0,0
238,-328,0,0,0,0,0,0,0,0,0,-1,1462,1352,0,0
245,-328,0,0,0,0,0,0,0,0,0,-1,1469,1352,0,0
252,-328,0,0,0,0,0,0,0,0,0,-1,1476,1352,0,0
259,-328,0,0,0,0,0,0,0,0,0,-1,1483,1352,0,0
266,-328,0,0,0,0,0,0,0,0,0,-1,1490,1352,0,0
273,-328,0,0,0,0,0,0,0,0,0,-1,1497,1352,0,0
280,-328,0,0,0,0,0,0,0,0,0,-1,1504,1352,0,0
287,-328,0,0,0,0,0,0,0,0,0,-1,1511,1352,0,0
294,-328,0,0,0,0,0,0,0,0,0,-1,1518,1352,0,0
301,-328,0,0,0,0,0,0,0,0,0,-1,1525,1352,0,0
308,-328,0,0,0,0,0,0,0,0,0,-1,1532,1352,0,0
315,-328,0,0,0,0,0,0,0,0,0,-1,1539,1352,0,0
322,-328,0,0,0,0,0,0,0,0,0,-1,1546,1352,0,0
329,-328,0,0,0,0,0,0,0,0,0,-1,1553,1352,0,0
336,-328,0,0,0,0,0,0,0,0,0,-1,1560,1352,0,0
343,-328,0,0,0,0,0,0,0,0,0,-1,1567,1352,0,0
350,-328,0,0,0,0,0,0,0,0,0,-1,1574,1352,0,0
357,-328,0,0,0,0,0,0,0,0,0,-1,1581,1352,0,0
364,-328,0,0,0,0,0,0,0,0,0,-1,1588,1352,0,0
371,-328,0,0,0,0,0,0,0,0,0,-1,1595,1352,0,0
378,-328,0,0,0,0,0,0,0,0,0,-1,1602,1352,0,0
385,-328,0,0,0,0,0,0,0,0,0,-1,1609,1352,0,0
392,-328,0,0,0,0,0,0,0,0,0,-1,1616,1352,0,0
399,-328,0,0,0,0,0,0,0,0,0,-1,1623,1352,0,0
406,-328,0,0,0,0,0,0,0,0,0,-1,1630,1352,0,0
413,-328,0,0,0,0,0,0,0,0,0,-1,1637,1352,0,0
420,-328,0,0,0,0,0,0,0,0,0,-1,1644,1352,0,0
427,-328,0,0,0,0,0,0,0,0,0,-1,1651,1352,0,0
434,-328,0,0,0,0,0,0,0,0,0,-1,1658,1352,0,0
441,-328,0,0,0,0,0,0,0,0,0,-1,1665,1352,0,0
448,-328,0,0,0,0,0,0,0,0,0,-1,1672,1352,0,0
455,-328,0,0,0,0,0,0,0,0,0,-1,1679,1352,0,0
462,-328,0,0,0,0,0,0,0,0,0,-1,1686,1352,0,0
469,-328,0,0,0,0,0,0,0,0,0,-1,1693,1352,0,0
476,-328,0,0,0,0,0,0,0,0,0,-1,1700,1352,0,0
483,-328,0,0,0,0,0,0,0,0,0,-1,1707,1352,0,0
490,-328,0,0,0,0,0,0,0,0,0,-1,1714,1352,0,0
497,-328,0,0,0,0,0,0,0,0,0,-1,1721,1352,0,0
504,-328,0,0,0,0,0,0,0,0,0,-1,1728,1352,0,0
511,-328,0,0,0,0,0,0,0,0,0,-1,1735,1352,0,0
518,-328,0,0,0,0,0,0,0,0,0,-1,1742,1352,0,0
525,-328,0,0,0,0,0,0,0,0,0,-1,1749,1352,0,0
532,-328,0,0,0,0,0,0,0,0,0,-1,1756,1352,0,0
539,-328,0,0,0,0,0,0,0,0,0,-1,1763,1352,0,0
546,-328,0,0,0,0,0,0,0,0,0,-1,1770,1352,0,0
553,-328,0,0,0,0,0,0,0,0,0,-1,1777,1352,0,0
560,-328,0,0,0,0,0,0,0,0,0,-1,1784,1352,0,0
567,-328,0,0,0,0,0,0,0,0,0,-1,1791,1352,0,0
574,-328,58.4558,1.34363,0,0,0,0,0,0,0,-1,1798,1352,58.4558,-1.34364
581,-328,58.6575,1.03662,0,0,0,0,0,0,0,-1,1805,1352,58.6575,-1.03663
588,-328,58.8262,0.918213,0,0,0,0,0,0,0,-1,1812,1352,58.8262,-0.918189
595,-328,60.5831,1.52856,0,0,0,0,0,0,0,-1,1819,1352,60.5832,-1.52861
602,-328,48.7734,3.66785,0,0,0,0,0,0,0,-1,1826,1352,48.7734,-3.66782
609,-328,37.0468,1.17407,0,0,0,0,0,0,0,-1,1833,1352,37.0468,-1.17407
616,-328,36.999,2.42859,0,0,0,0,0,0,0,-1,1840,1352,36.999,-2.42862
623,-328,34.345,5.14722,0,0,0,0,0,0,0,-1,1847,1352,34.3449,-5.14718
630,-328,22.0211,5.026,0,0,0,0,0,0,0,-1,1854,1352,22.0212,-5.02603
637,-328,21.15,5.53699,0,0,0,0,0,0,0,-1,1861,1352,21.15,-5.53704
644,-328,16.9579,6.3396,0,0,0,0,0,0,0,-1,1868,1352,16.9579,-6.33959
651,-328,36.2629,14.6906,0,0,0,0,0,0,0,-1,1875,1352,36.263,-14.6905
658,-328,40.2921,15.6847,0,0,0,0,0,0,0,-1,1882,1352,40.2922,-15.6847
665,-328,40.2944,15.0497,0.000991043,0.000473986,0.000235244,0.00108205,0.000382977,0.369139,0.000633546,0.0151521,1889,1352,40.2945,-15.0497
672,-328,40.2627,14.4064,0.000954334,-0.000120112,-0.000163173,0.000978568,-0.000144346,-0.14744,0.000705434,0.0128989,1896,1352,40.2627,-14.4064
679,-328,40.2488,13.7422,0.00105398,-0.000155962,-0.000333515,0.00113982,-0.000241804,-0.251917,0.000851996,0.0154344,1903,1352,40.2487,-13.7422
686,-328,40.194,13.0873,0.0012018,-0.000155782,-0.000280044,0.0012573,-0.000211281,-0.195645,0.000916775,0.0151721,1910,1352,40.194,-13.0873
693,-328,40.1653,12.4485,0.00130979,-0.000138658,-0.000181139,0.0013321,-0.000160967,-0.122543,0.000946297,0.00958353,1917,1352,40.1652,-12.4485
700,-328,40.1465,11.7883,0.00138056,-0.000145668,-2.32528e-06,0.00138057,-0.000145671,-0.00152354,0.000972579,0.0134366,1924,1352,40.1464,-11.7883
707,-328,40.1427,11.1328,0.00133095,-0.000231584,0.000318624,0.00139343,-0.000294058,0.193619,0.00104091,0.0168582,1931,1352,40.1427,-11.1328
714,-328,40.1005,10.4838,0.00115764,-0.00040819,0.000831596,0.00151687,-0.000767426,0.407771,0.00134229,0.0174038,1938,1352,40.1005,-10.4838
721,-328,40.0573,9.74036,0,0,0,0,0,0,0,-1,1945,1352,40.0573,-9.74038
728,-328,29.2787,6.74695,0,0,0,0,0,0,0,-1,1952,1352,29.2787,-6.74693
735,-328,20.8927,5.23523,0,0,0,0,0,0,0,-1,1959,1352,20.8927,-5.23528
742,-328,20.3547,4.11316,0,0,0,0,0,0,0,-1,1966,1352,20.3547,-4.11321
749,-328,20.0669,5.66321,0,0,0,0,0,0,0,-1,1973,1352,20.0669,-5.66319
756,-328,19.9543,5.50464,0,0,0,0,0,0,0,-1,1980,1352,19.9543,-5.50463
763,-328,0,0,0,0,0,0,0,0,0,-1,1987,1352,0,0
770,-328,0,0,0,0,0,0,0,0,0,-1,1994,1352,0,0
777,-328,0,0,0,0,0,0,0,0,0,-1,2001,1352,0,0
784,-328,0,0,0,0,0,0,0,0,0,-1,2008,1352,0,0
791,-328,0,0,0,0,0,0,0,0,0,-1,2015,1352,0,0
798,-328,0,0,0,0,0,0,0,0,0,-1,2022,1352,0,0
805,-328,0,0,0,0,0,0,0,0,0,-1,2029,1352,0,0
812,-328,0,0,0,0,0,0,0,0,0,-1,2036,1352,0,0
-700,-335,0,0,0,0,0,0,0,0,0,-1,524,1359,0,0
-693,-335,0,0,0,0,0,0,0,0,0,-1,531,1359,0,0
-686,-335,0,0,0,0,0,0,0,0,0,-1,538,1359,0,0
-679,-335,0,0,0,0,0,0,0,0,0,-1,545,1359,0,0
-672,-335,0,0,0,0,0,0,0,0,0,-1,552,1359,0,0
-665,-335,0,0,0,0,0,0,0,0,0,-1,559,1359,0,0
-658,-335,0,0,0,0,0,0,0,0,0,-1,566,1359,0,0
-651,-335,0,0,0,0,0,0,0,0,0,-1,573,1359,0,0
-644,-335,0,0,0,0,0,0,0,0,0,-1,580,1359,0,0
-637,-335,-62.7114,11.0491,0,0,0,0,0,0,0,-1,587,1359,-62.7114,-11.0491
-630,-335,-64.2532,9.91284,0,0,0,0,0,0,0,-1,594,1359,-64.2532,-9.91285
-623,-335,-8.43304,1.09509,0,0,0,0,0,0,0,-1,601,1359,-8.43301,-1.09507
-616,-335,-7.80927,-0.485352,0,0,0,0,0,0,0,-1,608,1359,-7.80926,0.485291
-609,-335,-7.12256,-2.03601,0,0,0,0,0,0,0,-1,615,1359,-7.12253,2.03601
-602,-335,-9.39935,2.25146,0,0,0,0,0,0,0,-1,622,1359,-9.39935,-2.25145
-595,-335,-9.54767,3.01917,0,0,0,0,0,0,0,-1,629,1359,-9.54768,-3.01911
-588,-335,-22.7917,7.78638,0,0,0,0,0,0,0,-1,636,1359,-22.7917,-7.78634
-581,-335,-22.6789,8.76147,0.00360072,0.00308572,0.00163101,0.00499443,0.00169201,0.707105,0.00293308,0.0460536,643,1359,-22.6789,-8.76145
-574,-335,-22.694,9.38818,0.00296965,0.00237736,0.0013723,0.0040774,0.00126961,0.679127,0.00240928,0.013611,650,1359,-22.694,-9.38813
-567,-335,-22.7136,10.0958,0.00271228,0.00177204,0.00120745,0.00353791,0.000946415,0.599753,0.00211494,0.0174734,657,1359,-22.7136,-10.0959
-560,-335,-22.7112,10.7616,0.00270001,0.00123113,0.00115117,0.00333107,0.000600071,0.501453,0.00205017,0.0270477,664,1359,-22.7112,-10.7616
-553,-335,-22.7471,11.4939,0.00289318,0.000739093,0.00117607,0.00341086,0.000221406,0.414661,0.00220382,0.0307402,671,1359,-22.7471,-11.4939
-546,-335,-22.7886,12.2506,0.0032884,0.000303771,0.00128714,0.00376681,-0.000174635,0.355857,0.0025714,0.0267174,678,1359,-22.7886,-12.2507
-539,-335,-22.8397,12.8899,0.00385665,-7.56161e-05,0.00148662,0.00435541,-0.000574377,0.3237,0.00311278,0.0209604,685,1359,-22.8397,-12.8899
-532,-335,-22.8784,13.5629,0.00463877,-0.000377889,0.00179503,0.00521489,-0.000954011,0.310569,0.00383437,0.0161239,692,1359,-22.8783,-13.5629
-525,-335,-22.8419,14.2858,0.00560361,-0.000710858,0.00217382,0.00627961,-0.00138685,0.30149,0.00471714,0.0128979,699,1359,-22.8419,-14.2858
-518,-335,-22.9463,14.9453,0,0,0,0,0,0,0,-1,706,1359,-22.9463,-14.9453
-511,-335,-17.3098,11.6718,0,0,0,0,0,0,0,-1,713,1359,-17.3097,-11.6717
-504,-335,-9.35767,5.99695,0,0,0,0,0,0,0,-1,720,1359,-9.35767,-5.99694
-497,-335,-8.75024,-0.650513,0,0,0,0,0,0,0,-1,727,1359,-8.75024,0.650521
-490,-335,-9.51971,0.417603,0,0,0,0,0,0,0,-1,734,1359,-9.51974,-0.41765
-483,-335,-10.2883,1.29224,0,0,0,0,0,0,0,-1,741,1359,-10.2883,-1.2922
-476,-335,-11.9938,-0.173462,0,0,0,0,0,0,0,-1,748,1359,-11.9938,0.173429
-469,-335,-12.8704,-0.204102,0,0,0,0,0,0,0,-1,755,1359,-12.8704,0.204117
-462,-335,-13.486,0.0218506,0,0,0,0,0,0,0,-1,762,1359,-13.4859,-0.0217908
-455,-335,-14.1504,0.549561,0,0,0,0,0,0,0,-1,769,1359,-14.1504,-0.549583
-448,-335,0,0,0,0,0,0,0,0,0,-1,776,1359,0,0
-441,-335,0,0,0,0,0,0,0,0,0,-1,783,1359,0,0
-434,-335,0,0,0,0,0,0,0,0,0,-1,790,1359,0,0
-427,-335,0,0,0,0,0,0,0,0,0,-1,797,1359,0,0
-420,-335,0,0,0,0,0,0,0,0,0,-1,804,1359,0,0
-413,-335,0,0,0,0,0,0,0,0,0,-1,811,1359,0,0
-406,-335,0,0,0,0,0,0,0,0,0,-1,818,1359,0,0
-399,-335,0,0,0,0,0,0,0,0,0,-1,825,1359,0,0
-392,-335,0,0,0,0,0,0,0,0,0,-1,832,1359,0,0
-385,-335,0,0,0,0,0,0,0,0,0,-1,839,1359,0,0
-378,-335,0,0,0,0,0,0,0,0,0,-1,846,1359,0,0
-371,-335,0,0,0,0,0,0,0,0,0,-1,853,1359,0,0
-364,-335,0,0,0,0,0,0,0,0,0,-1,860,1359,0,0
-357,-335,0,0,0,0,0,0,0,0,0,-1,867,1359,0,0
-350,-335,0,0,0,0,0,0,0,0,0,-1,874,1359,0,0
-343,-335,0,0,0,0,0,0,0,0,0,-1,881,1359,0,0
-336,-335,0,0,0,0,0,0,0,0,0,-1,888,1359,0,0
-329,-335,0,0,0,0,0,0,0,0,0,-1,895,1359,0,0
-322,-335,0,0,0,0,0,0,0,0,0,-1,902,1359,0,0
-315,-335,0,0,0,0,0,0,0,0,0,-1,909,1359,0,0
-308,-335,0,0,0,0,0,0,0,0,0,-1,916,1359,0,0
-301,-335,0,0,0,0,0,0,0,0,0,-1,923,1359,0,0
-294,-335,0,0,0,0,0,0,0,0,0,-1,930,1359,0,0
-287,-335,0,0,0,0,0,0,0,0,0,-1,937,1359,0,0
-280,-335,0,0,0,0,0,0,0,0,0,-1,944,1359,0,0
-273,-335,0,0,0,0,0,0,0,0,0,-1,951,1359,0,0
-266,-335,0,0,0,0,0,0,0,0,0,-1,958,1359,0,0
-259,-335,0,0,0,0,0,0,0,0,0,-1,965,1359,0,0
-252,-335,0,0,0,0,0,0,0,0,0,-1,972,1359,0,0
-245,-335,0,0,0,0,0,0,0,0,0,-1,979,1359,0,0
-238,-335,0,0,0,0,0,0,0,0,0,-1,986,1359,0,0
-231,-335,0,0,0,0,0,0,0,0,0,-1,993,1359,0,0
-224,-335,0,0,0,0,0,0,0,0,0,-1,1000,1359,0,0
-217,-335,0,0,0,0,0,0,0,0,0,-1,1007,1359,0,0
-210,-335,0,0,0,0,0,0,0,0,0,-1,1014,1359,0,0
-203,-335,0,0,0,0,0,0,0,0,0,-1,1021,1359,0,0
-196,-335,0,0,0,0,0,0,0,0,0,-1,1028,1359,0,0
-189,-335,0,0,0,0,0,0,0,0,0,-1,1035,1359,0,0
-182,-335,0,0,0,0,0,0,0,0,0,-1,1042,1359,0,0
-175,-335,0,0,0,0,0,0,0,0,0,-1,1049,1359,0,0
-168,-335,0,0,0,0,0,0,0,0,0,-1,1056,1359,0,0
-161,-335,0,0,0,0,0,0,0,0,0,-1,1063,1359,0,0
-154,-335,0,0,0,0,0,0,0,0,0,-1,1070,1359,0,0
-147,-335,0,0,0,0,0,0,0,0,0,-1,1077,1359,0,0
-140,-335,0,0,0,0,0,0,0,0,0,-1,1084,1359,0,0
-133,-335,0,0,0,0,0,0,0,0,0,-1,1091,1359,0,0
-126,-335,0,0,0,0,0,0,0,0,0,-1,1098,1359,0,0
-119,-335,0,0,0,0,0,0,0,0,0,-1,1105,1359,0,0
-112,-335,0,0,0,0,0,0,0,0,0,-1,1112,1359,0,0
-105,-335,0,0,0,0,0,0,0,0,0,-1,1119,1359,0,0
-98,-335,0,0,0,0,0,0,0,0,0,-1,1126,1359,0,0
-91,-335,0,0,0,0,0,0,0,0,0,-1,1133,1359,0,0
-84,-335,0,0,0,0,0,0,0,0,0,-1,1140,1359,0,0
-77,-335,0,0,0,0,0,0,0,0,0,-1,1147,1359,0,0
-70,-335,0,0,0,0,0,0,0,0,0,-1,1154,1359,0,0
-63,-335,0,0,0,0,0,0,0,0,0,-1,1161,1359,0,0
-56,-335,0,0,0,0,0,0,0,0,0,-1,1168,1359,0,0
-49,-335,0,0,0,0,0,0,0,0,0,-1,1175,1359,0,0
-42,-335,0,0,0,0,0,0,0,0,0,-1,1182,1359,0,0
-35,-335,0,0,0,0,0,0,0,0,0,-1,1189,1359,0,0
-28,-335,0,0,0,0,0,0,0,0,0,-1,1196,1359,0,0
-21,-335,0,0,0,0,0,0,0,0,0,-1,1203,1359,0,0
-14,-335,0,0,0,0,0,0,0,0,0,-1,1210,1359,0,0
-7,-335,0,0,0,0,0,0,0,0,0,-1,1217,1359,0,0
0,-335,0,0,0,0,0,0,0,0,0,-1,1224,1359,0,0
7,-335,0,0,0,0,0,0,0,0,0,-1,1231,1359,0,0
14,-335,0,0,0,0,0,0,0,0,0,-1,1238,1359,0,0
21,-335,0,0,0,0,0,0,0,0,0,-1,1245,1359,0,0
28,-335,0,0,0,0,0,0,0,0,0,-1,1252,1359,0,0
35,-335,0,0,0,0,0,0,0,0,0,-1,1259,1359,0,0
42,-335,0,0,0,0,0,0,0,0,0,-1,1266,1359,0,0
49,-335,0,0,0,0,0,0,0,0,0,-1,1273,1359,0,0
56,-335,0,0,0,0,0,0,0,0,0,-1,1280,1359,0,0
63,-335,0,0,0,0,0,0,0,0,0,-1,1287,1359,0,0
70,-335,0,0,0,0,0,0,0,0,0,-1,1294,1359,0,0
77,-335,0,0,0,0,0,0,0,0,0,-1,1301,1359,0,0
84,-335,0,0,0,0,0,0,0,0,0,-1,1308,1359,0,0
91,-335,0,0,0,0,0,0,0,0,0,-1,1315,1359,0,0
98,-335,0,0,0,0,0,0,0,0,0,-1,1322,1359,0,0
105,-335,0,0,0,0,0,0,0,0,0,-1,1329,1359,0,0
112,-335,0,0,0,0,0,0,0,0,0,-1,1336,1359,0,0
119,-335,0,0,0,0,0,0,0,0,0,-1,1343,1359,0,0
126,-335,0,0,0,0,0,0,0,0,0,-1,1350,1359,0,0
133,-335,0,0,0,0,0,0,0,0,0,-1,1357,1359,0,0
140,-335,0,0,0,0,0,0,0,0,0,-1,1364,1359,0,0
147,-335,0,0,0,0,0,0,0,0,0,-1,1371,1359,0,0
154,-335,0,0,0,0,0,0,0,0,0,-1,1378,1359,0,0
161,-335,0,0,0,0,0,0,0,0,0,-1,1385,1359,0,0
168,-335,0,0,0,0,0,0,0,0,0,-1,1392,1359,0,0
175,-335,0,0,0,0,0,0,0,0,0,-1,1399,1359,0,0
182,-335,0,0,0,0,0,0,0,0,0,-1,1406,1359,0,0
189,-335,0,0,0,0,0,0,0,0,0,-1,1413,1359,0,0
196,-335,0,0,0,0,0,0,0,0,0,-1,1420,1359,0,0
203,-335,0,0,0,0,0,0,0,0,0,-1,1427,1359,0,0
210,-335,0,0,0,0,0,0,0,0,0,-1,1434,1359,0,0
217,-335,0,0,0,0,0,0,0,0,0,-1,1441,1359,0,0
224,-335,0,0,0,0,0,0,0,0,0,-1,1448,1359,0,0
231,-335,0,0,0,0,0,0,0,0,0,-1,1455,1359,0,0
238,-335,0,0,0,0,0,0,0,0,0,-1,1462,1359,0,0
245,-335,0,0,0,0,0,0,0,0,0,-1,1469,1359,0,0
252,-335,0,0,0,0,0,0,0,0,0,-1,1476,1359,0,0
259,-335,0,0,0,0,0,0,0,0,0,-1,1483,1359,0,0
266,-335,0,0,0,0,0,0,0,0,0,-1,1490,1359,0,0
273,-335,0,0,0,0,0,0,0,0,0,-1,1497,1359,0,0
280,-335,0,0,0,0,0,0,0,0,0,-1,1504,1359,0,0
287,-335,0,0,0,0,0,0,0,0,0,-1,1511,1359,0,0
294,-335,0,0,0,0,0,0,0,0,0,-1,1518,1359,0,0
301,-335,0,0,0,0,0,0,0,0,0,-1,1525,1359,0,0
308,-335,0,0,0,0,0,0,0,0,0,-1,1532,1359,0,0
315,-335,0,0,0,0,0,0,0,0,0,-1,1539,1359,0,0
322,-335,0,0,0,0,0,0,0,0,0,-1,1546,1359,0,0
329,-335,0,0,0,0,0,0,0,0,0,-1,1553,1359,0,0
336,-335,0,0,0,0,0,0,0,0,0,-1,1560,1359,0,0
343,-335,0,0,0,0,0,0,0,0,0,-1,1567,1359,0,0
350,-335,0,0,0,0,0,0,0,0,0,-1,1574,1359,0,0
357,-335,0,0,0,0,0,0,0,0,0,-1,1581,1359,0,0
364,-335,0,0,0,0,0,0,0,0,0,-1,1588,1359,0,0
371,-335,0,0,0,0,0,0,0,0,0,-1,1595,1359,0,0
378,-335,0,0,0,0,0,0,0,0,0,-1,1602,1359,0,0
385,-335,0,0,0,0,0,0,0,0,0,-1,1609,1359,0,0
392,-335,0,0,0,0,0,0,0,0,0,-1,1616,1359,0,0
399,-335,0,0,0,0,0,0,0,0,0,-1,1623,1359,0,0
406,-335,0,0,0,0,0,0,0,0,0,-1,1630,1359,0,0
413,-335,0,0,0,0,0,0,0,0,0,-1,1637,1359,0,0
420,-335,0,0,0,0,0,0,0,0,0,-1,1644,1359,0,0
427,-335,0,0,0,0,0,0,0,0,0,-1,1651,1359,0,0
434,-335,0,0,0,0,0,0,0,0,0,-1,1658,1359,0,0
441,-335,0,0,0,0,0,0,0,0,0,-1,1665,1359,0,0
448,-335,0,0,0,0,0,0,0,0,0,-1,1672,1359,0,0
455,-335,0,0,0,0,0,0,0,0,0,-1,1679,1359,0,0
462,-335,0,0,0,0,0,0,0,0,0,-1,1686,1359,0,0
469,-335,0,0,0,0,0,0,0,0,0,-1,1693,1359,0,0
476,-335,0,0,0,0,0,0,0,0,0,-1,1700,1359,0,0
483,-335,0,0,0,0,0,0,0,0,0,-1,1707,1359,0,0
490,-335,0,0,0,0,0,0,0,0,0,-1,1714,1359,0,0
497,-335,0,0,0,0,0,0,0,0,0,-1,1721,1359,0,0
504,-335,0,0,0,0,0,0,0,0,0,-1,1728,1359,0,0
511,-335,0,0,0,0,0,0,0,0,0,-1,1735,1359,0,0
518,-335,0,0,0,0,0,0,0,0,0,-1,1742,1359,0,0
525,-335,0,0,0,0,0,0,0,0,0,-1,1749,1359,0,0
532,-335,0,0,0,0,0,0,0,0,0,-1,1756,1359,0,0
539,-335,0,0,0,0,0,0,0,0,0,-1,1763,1359,0,0
546,-335,0,0,0,0,0,0,0,0,0,-1,1770,1359,0,0
553,-335,0,0,0,0,0,0,0,0,0,-1,1777,1359,0,0
560,-335,0,0,0,0,0,0,0,0,0,-1,1784,1359,0,0
567,-335,0,0,0,0,0,0,0,0,0,-1,1791,1359,0,0
574,-335,58.0887,0.573853,0,0,0,0,0,0,0,-1,1798,1359,58.0887,-0.573905
581,-335,57.8474,0.28833,0,0,0,0,0,0,0,-1,1805,1359,57.8474,-0.28839
588,-335,58.4113,0.081665,0,0,0,0,0,0,0,-1,1812,1359,58.4113,-0.0816863
595,-335,49.984,3.76465,0,0,0,0,0,0,0,-1,1819,1359,49.984,-3.76467
602,-335,36.5643,0.0861816,0,0,0,0,0,0,0,-1,1826,1359,36.5643,-0.0862283
609,-335,36.2933,0.993896,0,0,0,0,0,0,0,-1,1833,1359,36.2934,-0.993911
616,-335,34.6969,4.82666,0,0,0,0,0,0,0,-1,1840,1359,34.6969,-4.82667
623,-335,26.6051,6.54333,0,0,0,0,0,0,0,-1,1847,1359,26.6051,-6.54339
630,-335,19.1707,1.00952,0,0,0,0,0,0,0,-1,1854,1359,19.1707,-1.00953
637,-335,18.2009,6.65454,0,0,0,0,0,0,0,-1,1861,1359,18.2009,-6.6546
644,-335,28.1042,12.067,0,0,0,0,0,0,0,-1,1868,1359,28.1042,-12.067
651,-335,39.5283,16.5465,0,0,0,0,0,0,0,-1,1875,1359,39.5283,-16.5465
658,-335,39.6371,15.7822,8.15667e-05,0.0005041,-0.00041863,0.000761752,-0.000176085,-1.01908,0.000575579,0.0360368,1882,1359,39.6371,-15.7822
665,-335,39.6506,15.0814,0.000423272,8.08013e-05,-0.000284938,0.000584469,-8.03955e-05,-0.514837,0.000419023,0.015738,1889,1359,39.6506,-15.0814
672,-335,39.623,14.4084,0.000789834,-7.41671e-05,-0.000311496,0.000890425,-0.000174758,-0.312358,0.000659632,0.017892,1896,1359,39.623,-14.4084
679,-335,39.5967,13.7849,0.00114368,-9.06089e-05,-0.000359323,0.00124066,-0.000187594,-0.263628,0.000896207,0.0155015,1903,1359,39.5966,-13.7849
686,-335,39.5851,13.1321,0.00146192,-0.000104816,-0.0003606,0.00154093,-0.000183827,-0.215701,0.00109373,0.0129689,1910,1359,39.5851,-13.1321
693,-335,39.5427,12.4843,0.00177115,-6.49579e-05,-0.000352208,0.0018364,-0.000130201,-0.183164,0.00126989,0.0103093,1917,1359,39.5427,-12.4842
700,-335,39.4889,11.8604,0.00205269,-1.165e-05,-0.000290368,0.00209276,-5.17151e-05,-0.137115,0.00141273,0.010795,1924,1359,39.4889,-11.8603
707,-335,39.4625,11.2029,0.00217774,-1.38966e-05,-8.79984e-05,0.00218126,-1.74243e-05,-0.040066,0.00146002,0.0147118,1931,1359,39.4625,-11.2029
714,-335,39.4664,10.45,0.0022192,-4.58506e-05,0.00029319,0.00225653,-8.31861e-05,0.12666,0.00153284,0.0357907,1938,1359,39.4664,-10.45
721,-335,39.3792,9.62476,0,0,0,0,0,0,0,-1,1945,1359,39.3792,-9.62472
728,-335,20.8126,5.21167,0,0,0,0,0,0,0,-1,1952,1359,20.8127,-5.21172
735,-335,20.2725,5.34729,0,0,0,0,0,0,0,-1,1959,1359,20.2724,-5.34734
742,-335,19.8624,4.72229,0,0,0,0,0,0,0,-1,1966,1359,19.8624,-4.72225
749,-335,20.5887,6.05322,0,0,0,0,0,0,0,-1,1973,1359,20.5887,-6.05322
756,-335,20.7832,6.00452,0,0,0,0,0,0,0,-1,1980,1359,20.7832,-6.00447
763,-335,0,0,0,0,0,0,0,0,0,-1,1987,1359,0,0
770,-335,0,0,0,0,0,0,0,0,0,-1,1994,1359,0,0
777,-335,0,0,0,0,0,0,0,0,0,-1,2001,1359,0,0
784,-335,0,0,0,0,0,0,0,0,0,-1,2008,1359,0,0
791,-335,0,0,0,0,0,0,0,0,0,-1,2015,1359,0,0
798,-335,0,0,0,0,0,0,0,0,0,-1,2022,1359,0,0
805,-335,0,0,0,0,0,0,0,0,0,-1,2029,1359,0,0
812,-335,0,0,0,0,0,0,0,0,0,-1,2036,1359,0,0
-700,-342,0,0,0,0,0,0,0,0,0,-1,524,1366,0,0
-693,-342,0,0,0,0,0,0,0,0,0,-1,531,1366,0,0
-686,-342,0,0,0,0,0,0,0,0,0,-1,538,1366,0,0
-679,-342,0,0,0,0,0,0,0,0,0,-1,545,1366,0,0
-672,-342,0,0,0,0,0,0,0,0,0,-1,552,1366,0,0
-665,-342,0,0,0,0,0,0,0,0,0,-1,559,1366,0,0
-658,-342,0,0,0,0,0,0,0,0,0,-1,566,1366,0,0
-651,-342,0,0,0,0,0,0,0,0,0,-1,573,1366,0,0
-644,-342,0,0,0,0,0,0,0,0,0,-1,580,1366,0,0
-637,-342,-63.7546,12.2344,0,0,0,0,0,0,0,-1,587,1366,-63.7546,-12.2343
-630,-342,-8.60132,2.71777,0,0,0,0,0,0,0,-1,594,1366,-8.60135,-2.71779
-623,-342,-8.41168,0.662476,0,0,0,0,0,0,0,-1,601,1366,-8.41168,-0.662442
-616,-342,-6.625,-1.28015,0,0,0,0,0,0,0,-1,608,1366,-6.62499,1.28011
-609,-342,-7.83154,0.674561,0,0,0,0,0,0,0,-1,615,1366,-7.83155,-0.674598
-602,-342,-9.65765,2.25195,0,0,0,0,0,0,0,-1,622,1366,-9.65767,-2.25192
-595,-342,-9.47687,3.00671,0,0,0,0,0,0,0,-1,629,1366,-9.47686,-3.00668
-588,-342,-9.78467,3.57727,0,0,0,0,0,0,0,-1,636,1366,-9.78468,-3.57723
-581,-342,-22.0483,8.61462,0,0,0,0,0,0,0,-1,643,1366,-22.0483,-8.61463
-574,-342,-22.0524,9.44629,0.00342159,0.00272517,0.0016478,0.00475757,0.00138919,0.681271,0.0028249,0.0170321,650,1366,-22.0524,-9.44628
-567,-342,-21.9872,10.1388,0.00299573,0.00207884,0.00142214,0.0040315,0.00104308,0.629477,0.00241623,0.0170753,657,1366,-21.9872,-10.1388
-560,-342,-22.0698,10.7863,0.00281971,0.00150485,0.0012934,0.00361318,0.000711387,0.550267,0.00221015,0.0265409,664,1366,-22.0698,-10.7863
-553,-342,-22.1323,11.4791,0.0028401,0.00098841,0.00123377,0.00345678,0.000371733,0.463513,0.00219115,0.0306388,671,1366,-22.1323,-11.4791
-546,-342,-22.1683,12.1963,0.00304893,0.000547575,0.00125771,0.00357196,2.45485e-05,0.394101,0.00237316,0.029866,678,1366,-22.1683,-12.1963
-539,-342,-22.1943,12.906,0.00341358,0.000165508,0.00135577,0.00390511,-0.000326019,0.347806,0.0027186,0.0235416,685,1366,-22.1943,-12.906
-532,-342,-22.1973,13.6163,0.00395951,-0.000127142,0.00155447,0.00448359,-0.000651219,0.325174,0.0032281,0.0182575,692,1366,-22.1973,-13.6163
-525,-342,-22.1487,14.3298,0.00466935,-0.000388596,0.00183392,0.00526431,-0.000983555,0.313707,0.00387918,0.013993,699,1366,-22.1487,-14.3299
-518,-342,-22.1299,15.0258,0.00562554,-0.000354989,0.00224862,0.00637666,-0.00110611,0.322383,0.00466374,0.0393819,706,1366,-22.1299,-15.0258
-511,-342,-22.1425,15.7122,0,0,0,0,0,0,0,-1,713,1366,-22.1424,-15.7122
-504,-342,-8.95709,6.5719,0,0,0,0,0,0,0,-1,720,1366,-8.95707,-6.57192
-497,-342,-8.26587,-0.943604,0,0,0,0,0,0,0,-1,727,1366,-8.26586,0.943543
-490,-342,-9.07153,-0.0227051,0,0,0,0,0,0,0,-1,734,1366,-9.07155,0.0227087
-483,-342,-9.87726,0.898071,0,0,0,0,0,0,0,-1,741,1366,-9.87724,-0.898125
-476,-342,-11.6371,-0.736328,0,0,0,0,0,0,0,-1,748,1366,-11.6371,0.736281
-469,-342,-12.6245,-0.987549,0,0,0,0,0,0,0,-1,755,1366,-12.6245,0.987553
-462,-342,-13.0912,-0.533203,0,0,0,0,0,0,0,-1,762,1366,-13.0912,0.533224
-455,-342,-13.7612,0.122925,0,0,0,0,0,0,0,-1,769,1366,-13.7612,-0.122896
-448,-342,-14.5278,0.826904,0,0,0,0,0,0,0,-1,776,1366,-14.5277,-0.826861
-441,-342,0,0,0,0,0,0,0,0,0,-1,783,1366,0,0
-434,-342,0,0,0,0,0,0,0,0,0,-1,790,1366,0,0
-427,-342,0,0,0,0,0,0,0,0,0,-1,797,1366,0,0
-420,-342,0,0,0,0,0,0,0,0,0,-1,804,1366,0,0
-413,-342,0,0,0,0,0,0,0,0,0,-1,811,1366,0,0
-406,-342,0,0,0,0,0,0,0,0,0,-1,818,1366,0,0
-399,-342,0,0,0,0,0,0,0,0,0,-1,825,1366,0,0
-392,-342,0,0,0,0,0,0,0,0,0,-1,832,1366,0,0
-385,-342,0,0,0,0,0,0,0,0,0,-1,839,1366,0,0
-378,-342,0,0,0,0,0,0,0,0,0,-1,846,1366,0,0
-371,-342,0,0,0,0,0,0,0,0,0,-1,853,1366,0,0
-364,-342,0,0,0,0,0,0,0,0,0,-1,860,1366,0,0
-357,-342,0,0,0,0,0,0,0,0,0,-1,867,1366,0,0
-350,-342,0,0,0,0,0,0,0,0,0,-1,874,1366,0,0
-343,-342,0,0,0,0,0,0,0,0,0,-1,881,1366,0,0
-336,-342,0,0,0,0,0,0,0,0,0,-1,888,1366,0,0
-329,-342,0,0,0,0,0,0,0,0,0,-1,895,1366,0,0
-322,-342,0,0,0,0,0,0,0,0,0,-1,902,1366,0,0
-315,-342,0,0,0,0,0,0,0,0,0,-1,909,1366,0,0
-308,-342,0,0,0,0,0,0,0,0,0,-1,916,1366,0,0
-301,-342,0,0,0,0,0,0,0,0,0,-1,923,1366,0,0
-294,-342,0,0,0,0,0,0,0,0,0,-1,930,1366,0,0
-287,-342,0,0,0,0,0,0,0,0,0,-1,937,1366,0,0
-280,-342,0,0,0,0,0,0,0,0,0,-1,944,1366,0,0
-273,-342,0,0,0,0,0,0,0,0,0,-1,951,1366,0,0
-266,-342,0,0,0,0,0,0,0,0,0,-1,958,1366,0,0
-259,-342,0,0,0,0,0,0,0,0,0,-1,965,1366,0,0
-252,-342,0,0,0,0,0,0,0,0,0,-1,972,1366,0,0
-245,-342,0,0,0,0,0,0,0,0,0,-1,979,1366,0,0
-238,-342,0,0,0,0,0,0,0,0,0,-1,986,1366,0,0
-231,-342,0,0,0,0,0,0,0,0,0,-1,993,1366,0,0
-224,-342,0,0,0,0,0,0,0,0,0,-1,1000,1366,0,0
-217,-342,0,0,0,0,0,0,0,0,0,-1,1007,1366,0,0
-210,-342,0,0,0,0,0,0,0,0,0,-1,1014,1366,0,0
-203,-342,0,0,0,0,0,0,0,0,0,-1,1021,1366,0,0
-196,-342,0,0,0,0,0,0,0,0,0,-1,1028,1366,0,0
-189,-342,0,0,0,0,0,0,0,0,0,-1,1035,1366,0,0
-182,-342,0,0,0,0,0,0,0,0,0,-1,1042,1366,0,0
-175,-342,0,0,0,0,0,0,0,0,0,-1,1049,1366,0,0
-168,-342,0,0,0,0,0,0,0,0,0,-1,1056,1366,0,0
-161,-342,0,0,0,0,0,0,0,0,0,-1,1063,1366,0,0
-154,-342,0,0,0,0,0,0,0,0,0,-1,1070,1366,0,0
-147,-342,0,0,0,0,0,0,0,0,0,-1,1077,1366,0,0
-140,-342,0,0,0,0,0,0,0,0,0,-1,1084,1366,0,0
-133,-342,0,0,0,0,0,0,0,0,0,-1,1091,1366,0,0
-126,-342,0,0,0,0,0,0,0,0,0,-1,1098,1366,0,0
-119,-342,0,0,0,0,0,0,0,0,0,-1,1105,1366,0,0
-112,-342,0,0,0,0,0,0,0,0,0,-1,1112,1366,0,0
-105,-342,0,0,0,0,0,0,0,0,0,-1,1119,1366,0,0
-98,-342,0,0,0,0,0,0,0,0,0,-1,1126,1366,0,0
-91,-342,0,0,0,0,0,0,0,0,0,-1,1133,1366,0,0
-84,-342,0,0,0,0,0,0,0,0,0,-1,1140,1366,0,0
-77,-342,0,0,0,0,0,0,0,0,0,-1,1147,1366,0,0
-70,-342,0,0,0,0,0,0,0,0,0,-1,1154,1366,0,0
-63,-342,0,0,0,0,0,0,0,0,0,-1,1161,1366,0,0
-56,-342,0,0,0,0,0,0,0,0,0,-1,1168,1366,0,0
-49,-342,0,0,0,0,0,0,0,0,0,-1,1175,1366,0,0
-42,-342,0,0,0,0,0,0,0,0,0,-1,1182,1366,0,0
-35,-342,0,0,0,0,0,0,0,0,0,-1,1189,1366,0,0
-28,-342,0,0,0,0,0,0,0,0,0,-1,1196,1366,0,0
-21,-342,0,0,0,0,0,0,0,0,0,-1,1203,1366,0,0
-14,-342,0,0,0,0,0,0,0,0,0,-1,1210,1366,0,0
-7,-342,0,0,0,0,0,0,0,0,0,-1,1217,1366,0,0
0,-342,0,0,0,0,0,0,0,0,0,-1,1224,1366,0,0
7,-342,0,0,0,0,0,0,0,0,0,-1,1231,1366,0,0
14,-342,0,0,0,0,0,0,0,0,0,-1,1238,1366,0,0
21,-342,0,0,0,0,0,0,0,0,0,-1,1245,1366,0,0
28,-342,0,0,0,0,0,0,0,0,0,-1,1252,1366,0,0
35,-342,0,0,0,0,0,0,0,0,0,-1,1259,1366,0,0
42,-342,0,0,0,0,0,0,0,0,0,-1,1266,1366,0,0
49,-342,0,0,0,0,0,0,0,0,0,-1,1273,1366,0,0
56,-342,0,0,0,0,0,0,0,0,0,-1,1280,1366,0,0
63,-342,0,0,0,0,0,0,0,0,0,-1,1287,1366,0,0
70,-342,0,0,0,0,0,0,0,0,0,-1,1294,1366,0,0
77,-342,0,0,0,0,0,0,0,0,0,-1,1301,1366,0,0
84,-342,0,0,0,0,0,0,0,0,0,-1,1308,1366,0,0
91,-342,0,0,0,0,0,0,0,0,0,-1,1315,1366,0,0
98,-342,0,0,0,0,0,0,0,0,0,-1,1322,1366,0,0
105,-342,0,0,0,0,0,0,0,0,0,-1,1329,1366,0,0
112,-342,0,0,0,0,0,0,0,0,0,-1,1336,1366,0,0
119,-342,0,0,0,0,0,0,0,0,0,-1,1343,1366,0,0
126,-342,0,0,0,0,0,0,0,0,0,-1,1350,1366,0,0
133,-342,0,0,0,0,0,0,0,0,0,-1,1357,1366,0,0
140,-342,0,0,0,0,0,0,0,0,0,-1,1364,1366,0,0
147,-342,0,0,0,0,0,0,0,0,0,-1,1371,1366,0,0
154,-342,0,0,0,0,0,0,0,0,0,-1,1378,1366,0,0
161,-342,0,0,0,0,0,0,0,0,0,-1,1385,1366,0,0
168,-342,0,0,0,0,0,0,0,0,0,-1,1392,1366,0,0
175,-342,0,0,0,0,0,0,0,0,0,-1,1399,1366,0,0
182,-342,0,0,0,0,0,0,0,0,0,-1,1406,1366,0,0
189,-342,0,0,0,0,0,0,0,0,0,-1,1413,1366,0,0
196,-342,0,0,0,0,0,0,0,0,0,-1,1420,1366,0,0
203,-342,0,0,0,0,0,0,0,0,0,-1,1427,1366,0,0
210,-342,0,0,0,0,0,0,0,0,0,-1,1434,1366,0,0
217,-342,0,0,0,0,0,0,0,0,0,-1,1441,1366,0,0
224,-342,0,0,0,0,0,0,0,0,0,-1,1448,1366,0,0
231,-342,0,0,0,0,0,0,0,0,0,-1,1455,1366,0,0
238,-342,0,0,0,0,0,0,0,0,0,-1,1462,1366,0,0
245,-342,0,0,0,0,0,0,0,0,0,-1,1469,1366,0,0
252,-342,0,0,0,0,0,0,0,0,0,-1,1476,1366,0,0
259,-342,0,0,0,0,0,0,0,0,0,-1,1483,1366,0,0
266,-342,0,0,0,0,0,0,0,0,0,-1,1490,1366,0,0
273,-342,0,0,0,0,0,0,0,0,0,-1,1497,1366,0,0
280,-342,0,0,0,0,0,0,0,0,0,-1,1504,1366,0,0
287,-342,0,0,0,0,0,0,0,0,0,-1,1511,1366,0,0
294,-342,0,0,0,0,0,0,0,0,0,-1,1518,1366,0,0
301,-342,0,0,0,0,0,0,0,0,0,-1,1525,1366,0,0
308,-342,0,0,0,0,0,0,0,0,0,-1,1532,1366,0,0
315,-342,0,0,0,0,0,0,0,0,0,-1,1539,1366,0,0
322,-342,0,0,0,0,0,0,0,0,0,-1,1546,1366,0,0
329,-342,0,0,0,0,0,0,0,0,0,-1,1553,1366,0,0
336,-342,0,0,0,0,0,0,0,0,0,-1,1560,1366,0,0
343,-342,0,0,0,0,0,0,0,0,0,-1,1567,1366,0,0
350,-342,0,0,0,0,0,0,0,0,0,-1,1574,1366,0,0
357,-342,0,0,0,0,0,0,0,0,0,-1,1581,1366,0,0
364,-342,0,0,0,0,0,0,0,0,0,-1,1588,1366,0,0
371,-342,0,0,0,0,0,0,0,0,0,-1,1595,1366,0,0
378,-342,0,0,0,0,0,0,0,0,0,-1,1602,1366,0,0
385,-342,0,0,0,0,0,0,0,0,0,-1,1609,1366,0,0
392,-342,0,0,0,0,0,0,0,0,0,-1,1616,1366,0,0
399,-342,0,0,0,0,0,0,0,0,0,-1,1623,1366,0,0
406,-342,0,0,0,0,0,0,0,0,0,-1,1630,1366,0,0
413,-342,0,0,0,0,0,0,0,0,0,-1,1637,1366,0,0
420,-342,0,0,0,0,0,0,0,0,0,-1,1644,1366,0,0
427,-342,0,0,0,0,0,0,0,0,0,-1,1651,1366,0,0
434,-342,0,0,0,0,0,0,0,0,0,-1,1658,1366,0,0
441,-342,0,0,0,0,0,0,0,0,0,-1,1665,1366,0,0
448,-342,0,0,0,0,0,0,0,0,0,-1,1672,1366,0,0
455,-342,0,0,0,0,0,0,0,0,0,-1,1679,1366,0,0
462,-342,0,0,0,0,0,0,0,0,0,-1,1686,1366,0,0
469,-342,0,0,0,0,0,0,0,0,0,-1,1693,1366,0,0
476,-342,0,0,0,0,0,0,0,0,0,-1,1700,1366,0,0
483,-342,0,0,0,0,0,0,0,0,0,-1,1707,1366,0,0
490,-342,0,0,0,0,0,0,0,0,0,-1,1714,1366,0,0
497,-342,0,0,0,0,0,0,0,0,0,-1,1721,1366,0,0
504,-342,0,0,0,0,0,0,0,0,0,-1,1728,1366,0,0
511,-342,0,0,0,0,0,0,0,0,0,-1,1735,1366,0,0
518,-342,0,0,0,0,0,0,0,0,0,-1,1742,1366,0,0
525,-342,0,0,0,0,0,0,0,0,0,-1,1749,1366,0,0
532,-342,0,0,0,0,0,0,0,0,0,-1,1756,1366,0,0
539,-342,0,0,0,0,0,0,0,0,0,-1,1763,1366,0,0
546,-342,0,0,0,0,0,0,0,0,0,-1,1770,1366,0,0
553,-342,0,0,0,0,0,0,0,0,0,-1,1777,1366,0,0
560,-342,0,0,0,0,0,0,0,0,0,-1,1784,1366,0,0
567,-342,42.6652,5.53748,0,0,0,0,0,0,0,-1,1791,1366,42.6652,-5.53752
574,-342,57.798,-0.27356,0,0,0,0,0,0,0,-1,1798,1366,57.798,0.273534
581,-342,57.0219,-0.327759,0,0,0,0,0,0,0,-1,1805,1366,57.0219,0.327814
588,-342,43.9108,7.22559,0,0,0,0,0,0,0,-1,1812,1366,43.9107,-7.22554
595,-342,35.7993,0.709961,0,0,0,0,0,0,0,-1,1819,1366,35.7993,-0.709913
602,-342,36.3618,3.28723,0,0,0,0,0,0,0,-1,1826,1366,36.3619,-3.28719
609,-342,35.3777,4.14978,0,0,0,0,0,0,0,-1,1833,1366,35.3777,-4.14976
616,-342,34.199,5.8158,0,0,0,0,0,0,0,-1,1840,1366,34.199,-5.81579
623,-342,26.0299,6.86865,0,0,0,0,0,0,0,-1,1847,1366,26.0299,-6.86863
630,-342,17.3431,0.773071,0,0,0,0,0,0,0,-1,1854,1366,17.3432,-0.773095
637,-342,16.196,6.76172,0,0,0,0,0,0,0,-1,1861,1366,16.1961,-6.76174
644,-342,31.8916,14.0614,0,0,0,0,0,0,0,-1,1868,1366,31.8916,-14.0613
651,-342,38.9331,16.4417,0,0,0,0,0,0,0,-1,1875,1366,38.9331,-16.4417
658,-342,38.9772,15.7601,-7.44167e-06,0.000538783,-0.000489013,0.000825781,-0.00029444,-1.04007,0.000670572,0.0225152,1882,1366,38.9772,-15.7601
665,-342,39.0001,15.0691,0.00041286,0.000141119,-0.000299596,0.000605955,-5.19773e-05,-0.572513,0.000422363,0.0185808,1889,1366,39.0001,-15.0691
672,-342,38.9619,14.473,0.000884548,-2.74579e-05,-0.00026475,0.000955832,-9.87418e-05,-0.263012,0.000672556,0.0142587,1896,1366,38.9619,-14.473
679,-342,38.9257,13.853,0.00137733,-8.92522e-05,-0.000282615,0.00142991,-0.000141828,-0.183931,0.00100389,0.0141089,1903,1366,38.9257,-13.853
686,-342,38.9467,13.2125,0.00185966,-0.000120298,-0.000294077,0.00190241,-0.000163053,-0.144376,0.00132597,0.0124621,1910,1366,38.9466,-13.2125
693,-342,38.8912,12.5447,0.00235657,-7.37112e-05,-0.000329457,0.00240044,-0.000117582,-0.132381,0.00164089,0.0124126,1917,1366,38.8913,-12.5446
700,-342,38.8314,11.9038,0.00284233,1.59894e-05,-0.000345086,0.00288386,-2.55341e-05,-0.119753,0.00193114,0.0138987,1924,1366,38.8315,-11.9039
707,-342,38.811,11.2102,0.00311233,6.63909e-05,-0.000231554,0.00312983,4.88886e-05,-0.0754429,0.00207045,0.0139869,1931,1366,38.811,-11.2102
714,-342,38.8463,10.5137,0,0,0,0,0,0,0,-1,1938,1366,38.8464,-10.5137
721,-342,22.4666,6.08679,0,0,0,0,0,0,0,-1,1945,1366,22.4666,-6.08678
728,-342,19.8912,5.26636,0,0,0,0,0,0,0,-1,1952,1366,19.8913,-5.26636
735,-342,19.481,4.41968,0,0,0,0,0,0,0,-1,1959,1366,19.4809,-4.41962
742,-342,19.309,2.66943,0,0,0,0,0,0,0,-1,1966,1366,19.3089,-2.66948
749,-342,21.0934,6.47729,0,0,0,0,0,0,0,-1,1973,1366,21.0934,-6.4773
756,-342,0,0,0,0,0,0,0,0,0,-1,1980,1366,0,0
763,-342,0,0,0,0,0,0,0,0,0,-1,1987,1366,0,0
770,-342,0,0,0,0,0,0,0,0,0,-1,1994,1366,0,0
777,-342,0,0,0,0,0,0,0,0,0,-1,2001,1366,0,0
784,-342,0,0,0,0,0,0,0,0,0,-1,2008,1366,0,0
791,-342,0,0,0,0,0,0,0,0,0,-1,2015,1366,0,0
798,-342,0,0,0,0,0,0,0,0,0,-1,2022,1366,0,0
805,-342,0,0,0,0,0,0,0,0,0,-1,2029,1366,0,0
812,-342,0,0,0,0,0,0,0,0,0,-1,2036,1366,0,0
-700,-349,0,0,0,0,0,0,0,0,0,-1,524,1373,0,0
-693,-349,0,0,0,0,0,0,0,0,0,-1,531,1373,0,0
-686,-349,0,0,0,0,0,0,0,0,0,-1,538,1373,0,0
-679,-349,0,0,0,0,0,0,0,0,0,-1,545,1373,0,0
-672,-349,0,0,0,0,0,0,0,0,0,-1,552,1373,0,0
-665,-349,0,0,0,0,0,0,0,0,0,-1,559,1373,0,0
-658,-349,0,0,0,0,0,0,0,0,0,-1,566,1373,0,0
-651,-349,0,0,0,0,0,0,0,0,0,-1,573,1373,0,0
-644,-349,0,0,0,0,0,0,0,0,0,-1,580,1373,0,0
-637,-349,0,0,0,0,0,0,0,0,0,-1,587,1373,0,0
-630,-349,-7.64117,-5.06177,0,0,0,0,0,0,0,-1,594,1373,-7.64118,5.0618
-623,-349,-8.63507,0.51123,0,0,0,0,0,0,0,-1,601,1373,-8.63505,-0.511275
-616,-349,-5.2066,-0.188232,0,0,0,0,0,0,0,-1,608,1373,-5.20659,0.188211
-609,-349,-7.12073,1.37048,0,0,0,0,0,0,0,-1,615,1373,-7.12072,-1.37044
-602,-349,-9.00623,3.39587,0,0,0,0,0,0,0,-1,622,1373,-9.0062,-3.39591
-595,-349,-9.50568,2.96912,0,0,0,0,0,0,0,-1,629,1373,-9.50569,-2.96906
-588,-349,-8.60046,3.56042,0,0,0,0,0,0,0,-1,636,1373,-8.60046,-3.56047
-581,-349,-21.23,8.7467,0,0,0,0,0,0,0,-1,643,1373,-21.23,-8.74674
-574,-349,-21.3038,9.38855,0.00431407,0.00318469,0.00220108,0.00602174,0.00147702,0.65983,0.00362391,0.0372422,650,1373,-21.3038,-9.38857
-567,-349,-21.3322,10.1582,0.00362734,0.0024496,0.00183025,0.00496112,0.00111582,0.629756,0.00300533,0.0183412,657,1373,-21.3322,-10.1582
-560,-349,-21.3671,10.8683,0.00320301,0.0018155,0.00156998,0.00422568,0.000792822,0.577355,0.00259356,0.0219101,664,1373,-21.3672,-10.8682
-553,-349,-21.3934,11.5214,0.00296782,0.00125943,0.00138481,0.00374069,0.000486557,0.509046,0.00234847,0.0281225,671,1373,-21.3934,-11.5214
-546,-349,-21.4088,12.1748,0.00290867,0.000790479,0.00128353,0.00351365,0.0001855,0.440457,0.00228311,0.030658,678,1373,-21.4088,-12.1748
-539,-349,-21.4891,12.8853,0.00300015,0.000394521,0.00126015,0.00350988,-0.000115209,0.384378,0.00237925,0.0239456,685,1373,-21.4891,-12.8852
-532,-349,-21.5285,13.65,0.00325418,9.08812e-05,0.00133573,0.00374275,-0.000397687,0.350652,0.00263774,0.0179906,692,1373,-21.5285,-13.6501
-525,-349,-21.487,14.3539,0.00366832,-0.000144904,0.00150487,0.00419066,-0.000667244,0.334088,0.00304069,0.0148368,699,1373,-21.487,-14.3539
-518,-349,-21.4995,15.0859,0.00429136,-0.000146836,0.00179547,0.00492675,-0.000782225,0.340132,0.00357389,0.0243218,706,1373,-21.4995,-15.0859
-511,-349,-21.4829,15.8356,0,0,0,0,0,0,0,-1,713,1373,-21.4829,-15.8355
-504,-349,-9.60516,7.88831,0,0,0,0,0,0,0,-1,720,1373,-9.60519,-7.88825
-497,-349,-7.9339,5.58789,0,0,0,0,0,0,0,-1,727,1373,-7.93388,-5.58785
-490,-349,-8.73969,-0.503784,0,0,0,0,0,0,0,-1,734,1373,-8.73966,0.503752
-483,-349,-5.66974,3.7395,0,0,0,0,0,0,0,-1,741,1373,-5.66975,-3.73949
-476,-349,-10.8496,1.15759,0,0,0,0,0,0,0,-1,748,1373,-10.8496,-1.15756
-469,-349,-12.3314,-1.74878,0,0,0,0,0,0,0,-1,755,1373,-12.3314,1.74882
-462,-349,-12.6559,-0.995361,0,0,0,0,0,0,0,-1,762,1373,-12.656,0.995351
-455,-349,-13.2897,-0.234253,0,0,0,0,0,0,0,-1,769,1373,-13.2897,0.234261
-448,-349,-14.045,0.712891,0,0,0,0,0,0,0,-1,776,1373,-14.045,-0.712838
-441,-349,0,0,0,0,0,0,0,0,0,-1,783,1373,0,0
-434,-349,0,0,0,0,0,0,0,0,0,-1,790,1373,0,0
-427,-349,0,0,0,0,0,0,0,0,0,-1,797,1373,0,0
-420,-349,0,0,0,0,0,0,0,0,0,-1,804,1373,0,0
-413,-349,0,0,0,0,0,0,0,0,0,-1,811,1373,0,0
-406,-349,0,0,0,0,0,0,0,0,0,-1,818,1373,0,0
-399,-349,0,0,0,0,0,0,0,0,0,-1,825,1373,0,0
-392,-349,0,0,0,0,0,0,0,0,0,-1,832,1373,0,0
-385,-349,0,0,0,0,0,0,0,0,0,-1,839,1373,0,0
-378,-349,0,0,0,0,0,0,0,0,0,-1,846,1373,0,0
-371,-349,0,0,0,0,0,0,0,0,0,-1,853,1373,0,0
-364,-349,0,0,0,0,0,0,0,0,0,-1,860,1373,0,0
-357,-349,0,0,0,0,0,0,0,0,0,-1,867,1373,0,0
-350,-349,0,0,0,0,0,0,0,0,0,-1,874,1373,0,0
-343,-349,0,0,0,0,0,0,0,0,0,-1,881,1373,0,0
-336,-349,0,0,0,0,0,0,0,0,0,-1,888,1373,0,0
-329,-349,0,0,0,0,0,0,0,0,0,-1,895,1373,0,0
-322,-349,0,0,0,0,0,0,0,0,0,-1,902,1373,0,0
-315,-349,0,0,0,0,0,0,0,0,0,-1,909,1373,0,0
-308,-349,0,0,0,0,0,0,0,0,0,-1,916,1373,0,0
-301,-349,0,0,0,0,0,0,0,0,0,-1,923,1373,0,0
-294,-349,0,0,0,0,0,0,0,0,0,-1,930,1373,0,0
-287,-349,0,0,0,0,0,0,0,0,0,-1,937,1373,0,0
-280,-349,0,0,0,0,0,0,0,0,0,-1,944,1373,0,0
-273,-349,0,0,0,0,0,0,0,0,0,-1,951,1373,0,0
-266,-349,0,0,0,0,0,0,0,0,0,-1,958,1373,0,0
-259,-349,0,0,0,0,0,0,0,0,0,-1,965,1373,0,0
-252,-349,0,0,0,0,0,0,0,0,0,-1,972,1373,0,0
-245,-349,0,0,0,0,0,0,0,0,0,-1,979,1373,0,0
-238,-349,0,0,0,0,0,0,0,0,0,-1,986,1373,0,0
-231,-349,0,0,0,0,0,0,0,0,0,-1,993,1373,0,0
-224,-349,0,0,0,0,0,0,0,0,0,-1,1000,1373,0,0
-217,-349,0,0,0,0,0,0,0,0,0,-1,1007,1373,0,0
-210,-349,0,0,0,0,0,0,0,0,0,-1,1014,1373,0,0
-203,-349,0,0,0,0,0,0,0,0,0,-1,1021,1373,0,0
-196,-349,0,0,0,0,0,0,0,0,0,-1,1028,1373,0,0
-189,-349,0,0,0,0,0,0,0,0,0,-1,1035,1373,0,0
-182,-349,0,0,0,0,0,0,0,0,0,-1,1042,1373,0,0
-175,-349,0,0,0,0,0,0,0,0,0,-1,1049,1373,0,0
-168,-349,0,0,0,0,0,0,0,0,0,-1,1056,1373,0,0
-161,-349,0,0,0,0,0,0,0,0,0,-1,1063,1373,0,0
-154,-349,0,0,0,0,0,0,0,0,0,-1,1070,1373,0,0
-147,-349,0,0,0,0,0,0,0,0,0,-1,1077,1373,0,0
-140,-349,0,0,0,0,0,0,0,0,0,-1,1084,1373,0,0
-133,-349,0,0,0,0,0,0,0,0,0,-1,1091,1373,0,0
-126,-349,0,0,0,0,0,0,0,0,0,-1,1098,1373,0,0
-119,-349,0,0,0,0,0,0,0,0,0,-1,1105,1373,0,0
-112,-349,0,0,0,0,0,0,0,0,0,-1,1112,1373,0,0
-105,-349,0,0,0,0,0,0,0,0,0,-1,1119,1373,0,0
-98,-349,0,0,0,0,0,0,0,0,0,-1,1126,1373,0,0
-91,-349,0,0,0,0,0,0,0,0,0,-1,1133,1373,0,0
-84,-349,0,0,0,0,0,0,0,0,0,-1,1140,1373,0,0
-77,-349,0,0,0,0,0,0,0,0,0,-1,1147,1373,0,0
-70,-349,0,0,0,0,0,0,0,0,0,-1,1154,1373,0,0
-63,-349,0,0,0,0,0,0,0,0,0,-1,1161,1373,0,0
-56,-349,0,0,0,0,0,0,0,0,0,-1,1168,1373,0,0
-49,-349,0,0,0,0,0,0,0,0,0,-1,1175,1373,0,0
-42,-349,0,0,0,0,0,0,0,0,0,-1,1182,1373,0,0
-35,-349,0,0,0,0,0,0,0,0,0,-1,1189,1373,0,0
-28,-349,0,0,0,0,0,0,0,0,0,-1,1196,1373,0,0
-21,-349,0,0,0,0,0,0,0,0,0,-1,1203,1373,0,0
-14,-349,0,0,0,0,0,0,0,0,0,-1,1210,1373,0,0
-7,-349,0,0,0,0,0,0,0,0,0,-1,1217,1373,0,0
0,-349,0,0,0,0,0,0,0,0,0,-1,1224,1373,0,0
7,-349,0,0,0,0,0,0,0,0,0,-1,1231,1373,0,0
14,-349,0,0,0,0,0,0,0,0,0,-1,1238,1373,0,0
21,-349,0,0,0,0,0,0,0,0,0,-1,1245,1373,0,0
28,-349,0,0,0,0,0,0,0,0,0,-1,1252,1373,0,0
35,-349,0,0,0,0,0,0,0,0,0,-1,1259,1373,0,0
42,-349,0,0,0,0,0,0,0,0,0,-1,1266,1373,0,0
49,-349,0,0,0,0,0,0,0,0,0,-1,1273,1373,0,0
56,-349,0,0,0,0,0,0,0,0,0,-1,1280,1373,0,0
63,-349,0,0,0,0,0,0,0,0,0,-1,1287,1373,0,0
70,-349,0,0,0,0,0,0,0,0,0,-1,1294,1373,0,0
77,-349,0,0,0,0,0,0,0,0,0,-1,1301,1373,0,0
84,-349,0,0,0,0,0,0,0,0,0,-1,1308,1373,0,0
91,-349,0,0,0,0,0,0,0,0,0,-1,1315,1373,0,0
98,-349,0,0,0,0,0,0,0,0,0,-1,1322,1373,0,0
105,-349,0,0,0,0,0,0,0,0,0,-1,1329,1373,0,0
112,-349,0,0,0,0,0,0,0,0,0,-1,1336,1373,0,0
119,-349,0,0,0,0,0,0,0,0,0,-1,1343,1373,0,0
126,-349,0,0,0,0,0,0,0,0,0,-1,1350,1373,0,0
133,-349,0,0,0,0,0,0,0,0,0,-1,1357,1373,0,0
140,-349,0,0,0,0,0,0,0,0,0,-1,1364,1373,0,0
147,-349,0,0,0,0,0,0,0,0,0,-1,1371,1373,0,0
154,-349,0,0,0,0,0,0,0,0,0,-1,1378,1373,0,0
161,-349,0,0,0,0,0,0,0,0,0,-1,1385,1373,0,0
168,-349,0,0,0,0,0,0,0,0,0,-1,1392,1373,0,0
175,-349,0,0,0,0,0,0,0,0,0,-1,1399,1373,0,0
182,-349,0,0,0,0,0,0,0,0,0,-1,1406,1373,0,0
189,-349,0,0,0,0,0,0,0,0,0,-1,1413,1373,0,0
196,-349,0,0,0,0,0,0,0,0,0,-1,1420,1373,0,0
203,-349,0,0,0,0,0,0,0,0,0,-1,1427,1373,0,0
210,-349,0,0,0,0,0,0,0,0,0,-1,1434,1373,0,0
217,-349,0,0,0,0,0,0,0,0,0,-1,1441,1373,0,0
224,-349,0,0,0,0,0,0,0,0,0,-1,1448,1373,0,0
231,-349,0,0,0,0,0,0,0,0,0,-1,1455,1373,0,0
238,-349,0,0,0,0,0,0,0,0,0,-1,1462,1373,0,0
245,-349,0,0,0,0,0,0,0,0,0,-1,1469,1373,0,0
252,-349,0,0,0,0,0,0,0,0,0,-1,1476,1373,0,0
259,-349,0,0,0,0,0,0,0,0,0,-1,1483,1373,0,0
266,-349,0,0,0,0,0,0,0,0,0,-1,1490,1373,0,0
273,-349,0,0,0,0,0,0,0,0,0,-1,1497,1373,0,0
280,-349,0,0,0,0,0,0,0,0,0,-1,1504,1373,0,0
287,-349,0,0,0,0,0,0,0,0,0,-1,1511,1373,0,0
294,-349,0,0,0,0,0,0,0,0,0,-1,1518,1373,0,0
301,-349,0,0,0,0,0,0,0,0,0,-1,1525,1373,0,0
308,-349,0,0,0,0,0,0,0,0,0,-1,1532,1373,0,0
315,-349,0,0,0,0,0,0,0,0,0,-1,1539,1373,0,0
322,-349,0,0,0,0,0,0,0,0,0,-1,1546,1373,0,0
329,-349,0,0,0,0,0,0,0,0,0,-1,1553,1373,0,0
336,-349,0,0,0,0,0,0,0,0,0,-1,1560,1373,0,0
343,-349,0,0,0,0,0,0,0,0,0,-1,1567,1373,0,0
350,-349,0,0,0,0,0,0,0,0,0,-1,1574,1373,0,0
357,-349,0,0,0,0,0,0,0,0,0,-1,1581,1373,0,0
364,-349,0,0,0,0,0,0,0,0,0,-1,1588,1373,0,0
371,-349,0,0,0,0,0,0,0,0,0,-1,1595,1373,0,0
378,-349,0,0,0,0,0,0,0,0,0,-1,1602,1373,0,0
385,-349,0,0,0,0,0,0,0,0,0,-1,1609,1373,0,0
392,-349,0,0,0,0,0,0,0,0,0,-1,1616,1373,0,0
399,-349,0,0,0,0,0,0,0,0,0,-1,1623,1373,0,0
406,-349,0,0,0,0,0,0,0,0,0,-1,1630,1373,0,0
413,-349,0,0,0,0,0,0,0,0,0,-1,1637,1373,0,0
420,-349,0,0,0,0,0,0,0,0,0,-1,1644,1373,0,0
427,-349,0,0,0,0,0,0,0,0,0,-1,1651,1373,0,0
434,-349,0,0,0,0,0,0,0,0,0,-1,1658,1373,0,0
441,-349,0,0,0,0,0,0,0,0,0,-1,1665,1373,0,0
448,-349,0,0,0,0,0,0,0,0,0,-1,1672,1373,0,0
455,-349,0,0,0,0,0,0,0,0,0,-1,1679,1373,0,0
462,-349,0,0,0,0,0,0,0,0,0,-1,1686,1373,0,0
469,-349,0,0,0,0,0,0,0,0,0,-1,1693,1373,0,0
476,-349,0,0,0,0,0,0,0,0,0,-1,1700,1373,0,0
483,-349,0,0,0,0,0,0,0,0,0,-1,1707,1373,0,0
490,-349,0,0,0,0,0,0,0,0,0,-1,1714,1373,0,0
497,-349,0,0,0,0,0,0,0,0,0,-1,1721,1373,0,0
504,-349,0,0,0,0,0,0,0,0,0,-1,1728,1373,0,0
511,-349,0,0,0,0,0,0,0,0,0,-1,1735,1373,0,0
518,-349,0,0,0,0,0,0,0,0,0,-1,1742,1373,0,0
525,-349,0,0,0,0,0,0,0,0,0,-1,1749,1373,0,0
532,-349,0,0,0,0,0,0,0,0,0,-1,1756,1373,0,0
539,-349,0,0,0,0,0,0,0,0,0,-1,1763,1373,0,0
546,-349,0,0,0,0,0,0,0,0,0,-1,1770,1373,0,0
553,-349,0,0,0,0,0,0,0,0,0,-1,1777,1373,0,0
560,-349,45.6893,3.53845,0,0,0,0,0,0,0,-1,1784,1373,45.6893,-3.5385
567,-349,41.9424,6.03833,0,0,0,0,0,0,0,-1,1791,1373,41.9423,-6.03834
574,-349,42.4165,6.17078,0,0,0,0,0,0,0,-1,1798,1373,42.4165,-6.17072
581,-349,42.8947,6.78381,0,0,0,0,0,0,0,-1,1805,1373,42.8946,-6.78376
588,-349,44.8121,5.06213,0,0,0,0,0,0,0,-1,1812,1373,44.8121,-5.06215
595,-349,44.4338,6.14099,0,0,0,0,0,0,0,-1,1819,1373,44.4338,-6.14095
602,-349,35.6641,3.26465,0,0,0,0,0,0,0,-1,1826,1373,35.6641,-3.26468
609,-349,34.7175,4.401,0,0,0,0,0,0,0,-1,1833,1373,34.7175,-4.40096
616,-349,27.1451,6.68274,0,0,0,0,0,0,0,-1,1840,1373,27.1451,-6.6828
623,-349,18.8478,2.75769,0,0,0,0,0,0,0,-1,1847,1373,18.8478,-2.75774
630,-349,15.4948,6.47644,0,0,0,0,0,0,0,-1,1854,1373,15.4947,-6.4765
637,-349,16.5161,6.92639,0,0,0,0,0,0,0,-1,1861,1373,16.5161,-6.92636
644,-349,38.5018,17.0867,0,0,0,0,0,0,0,-1,1868,1373,38.5019,-17.0867
651,-349,38.4852,16.4078,9.20559e-05,0.000958504,-0.0010729,0.00168234,-0.000631783,-0.977282,0.00138119,0.0440011,1875,1373,38.4852,-16.4078
658,-349,38.3107,15.7577,0.000252622,0.00049328,-0.000551421,0.000937349,-0.000191447,-0.892823,0.000697528,0.0275608,1882,1373,38.3107,-15.7577
665,-349,38.3094,15.1261,0.000641173,0.000125372,-0.000290203,0.000771513,-4.96826e-06,-0.422133,0.000516006,0.0216909,1889,1373,38.3095,-15.1262
672,-349,38.2979,14.5254,0.00113273,-5.85755e-05,-0.00017868,0.00115895,-8.4798e-05,-0.145717,0.000802396,0.0156619,1896,1373,38.2979,-14.5254
679,-349,38.2787,13.9058,0.00168686,-0.000162025,-0.000138785,0.00169722,-0.000172385,-0.0745079,0.0011931,0.0158481,1903,1373,38.2787,-13.9058
686,-349,38.3271,13.2407,0.00228745,-0.000193149,-0.000147049,0.00229614,-0.000201836,-0.0590041,0.00160228,0.0165398,1910,1373,38.3272,-13.2407
693,-349,38.2489,12.5703,0.00294566,-0.000125376,-0.000214334,0.00296054,-0.000140263,-0.0693442,0.00202207,0.018727,1917,1373,38.2489,-12.5703
700,-349,38.1825,11.9376,0.00362206,2.58105e-05,-0.000298194,0.00364662,1.25251e-06,-0.0821701,0.00243066,0.0177133,1924,1373,38.1825,-11.9376
707,-349,38.2418,11.255,0.00403665,0.000173741,-0.000279362,0.00405675,0.000153642,-0.071821,0.00265477,0.0349674,1931,1373,38.2418,-11.255
714,-349,38.3616,10.4592,0,0,0,0,0,0,0,-1,1938,1373,38.3616,-10.4592
721,-349,19.6688,5.93604,0,0,0,0,0,0,0,-1,1945,1373,19.6688,-5.93606
728,-349,18.6333,3.73218,0,0,0,0,0,0,0,-1,1952,1373,18.6333,-3.73214
735,-349,18.1918,3.39954,0,0,0,0,0,0,0,-1,1959,1373,18.1918,-3.3995
742,-349,20.7345,2.07483,0,0,0,0,0,0,0,-1,1966,1373,20.7345,-2.07485
749,-349,21.9037,1.45789,0,0,0,0,0,0,0,-1,1973,1373,21.9037,-1.45788
756,-349,0,0,0,0,0,0,0,0,0,-1,1980,1373,0,0
763,-349,0,0,0,0,0,0,0,0,0,-1,1987,1373,0,0
770,-349,0,0,0,0,0,0,0,0,0,-1,1994,1373,0,0
777,-349,0,0,0,0,0,0,0,0,0,-1,2001,1373,0,0
784,-349,0,0,0,0,0,0,0,0,0,-1,2008,1373,0,0
791,-349,0,0,0,0,0,0,0,0,0,-1,2015,1373,0,0
798,-349,0,0,0,0,0,0,0,0,0,-1,2022,1373,0,0
805,-349,0,0,0,0,0,0,0,0,0,-1,2029,1373,0,0
812,-349,0,0,0,0,0,0,0,0,0,-1,2036,1373,0,0
-700,-356,0,0,0,0,0,0,0,0,0,-1,524,1380,0,0
-693,-356,0,0,0,0,0,0,0,0,0,-1,531,1380,0,0
-686,-356,0,0,0,0,0,0,0,0,0,-1,538,1380,0,0
-679,-356,0,0,0,0,0,0,0,0,0,-1,545,1380,0,0
-672,-356,0,0,0,0,0,0,0,0,0,-1,552,1380,0,0
-665,-356,0,0,0,0,0,0,0,0,0,-1,559,1380,0,0
-658,-356,0,0,0,0,0,0,0,0,0,-1,566,1380,0,0
-651,-356,0,0,0,0,0,0,0,0,0,-1,573,1380,0,0
-644,-356,0,0,0,0,0,0,0,0,0,-1,580,1380,0,0
-637,-356,0,0,0,0,0,0,0,0,0,-1,587,1380,0,0
-630,-356,-8.23126,-5.01917,0,0,0,0,0,0,0,-1,594,1380,-8.23124,5.0192
-623,-356,-0.263855,-0.675781,0,0,0,0,0,0,0,-1,601,1380,-0.263835,0.675841
-616,-356,-8.26532,-3.43945,0,0,0,0,0,0,0,-1,608,1380,-8.2653,3.43948
-609,-356,-4.88483,0.734497,0,0,0,0,0,0,0,-1,615,1380,-4.88485,-0.734532
-602,-356,-9.06635,2.4021,0,0,0,0,0,0,0,-1,622,1380,-9.06634,-2.40206
-595,-356,-8.45703,3.61853,0,0,0,0,0,0,0,-1,629,1380,-8.45706,-3.61848
-588,-356,-9.31738,4.14258,0,0,0,0,0,0,0,-1,636,1380,-9.31736,-4.14255
-581,-356,-16.5185,7.32312,0,0,0,0,0,0,0,-1,643,1380,-16.5185,-7.32306
-574,-356,-20.7427,9.38013,0,0,0,0,0,0,0,-1,650,1380,-20.7428,-9.38008
-567,-356,-20.7017,10.1219,0.00418817,0.00288564,0.0022917,0.00591935,0.00115446,0.646956,0.00362325,0.0230751,657,1380,-20.7017,-10.122
-560,-356,-20.6444,10.895,0.00358948,0.00216364,0.00189938,0.00490532,0.000847791,0.605862,0.00302745,0.0182992,664,1380,-20.6444,-10.895
-553,-356,-20.6685,11.5735,0.0031863,0.00154859,0.00159792,0.00416296,0.000571928,0.54862,0.00260567,0.0205445,671,1380,-20.6684,-11.5734
-546,-356,-20.7318,12.2483,0.00295226,0.0010299,0.00138316,0.00367542,0.000306742,0.481746,0.0023547,0.0225963,678,1380,-20.7317,-12.2483
-539,-356,-20.7711,12.9821,0.00288458,0.000604825,0.00126334,0.00344628,4.31316e-05,0.418363,0.00228328,0.0164857,685,1380,-20.7711,-12.9821
-532,-356,-20.8182,13.7026,0.00298841,0.000304387,0.00126829,0.0034929,-0.000200099,0.378581,0.00239808,0.0157398,692,1380,-20.8182,-13.7026
-525,-356,-20.834,14.3812,0.0032572,9.92527e-05,0.00138375,0.00377773,-0.000421276,0.359799,0.00267002,0.0134553,699,1380,-20.834,-14.3813
-518,-356,-20.8503,15.0586,0.00373459,9.5527e-05,0.00163962,0.00436436,-0.000534241,0.366718,0.00310302,0.0142625,706,1380,-20.8503,-15.0586
-511,-356,-20.8541,15.7522,0,0,0,0,0,0,0,-1,713,1380,-20.8541,-15.7522
-504,-356,-14.3925,12.3971,0,0,0,0,0,0,0,-1,720,1380,-14.3925,-12.3971
-497,-356,-5.68604,4.96387,0,0,0,0,0,0,0,-1,727,1380,-5.68605,-4.96385
-490,-356,-7.95288,5.5625,0,0,0,0,0,0,0,-1,734,1380,-7.95285,-5.56246
-483,-356,-7.2627,4.07446,0,0,0,0,0,0,0,-1,741,1380,-7.2627,-4.07441
-476,-356,-5.1936,4.16016,0,0,0,0,0,0,0,-1,748,1380,-5.1936,-4.16012
-469,-356,-10.0883,0.536011,0,0,0,0,0,0,0,-1,755,1380,-10.0883,-0.535989
-462,-356,-12.3481,-0.215698,0,0,0,0,0,0,0,-1,762,1380,-12.3481,0.215641
-455,-356,-13.1367,-0.264648,0,0,0,0,0,0,0,-1,769,1380,-13.1367,0.264647
-448,-356,-13.9116,-0.310181,0,0,0,0,0,0,0,-1,776,1380,-13.9115,0.310207
-441,-356,-13.1602,3.05603,0,0,0,0,0,0,0,-1,783,1380,-13.1602,-3.05609
-434,-356,0,0,0,0,0,0,0,0,0,-1,790,1380,0,0
-427,-356,0,0,0,0,0,0,0,0,0,-1,797,1380,0,0
-420,-356,0,0,0,0,0,0,0,0,0,-1,804,1380,0,0
-413,-356,0,0,0,0,0,0,0,0,0,-1,811,1380,0,0
-406,-356,0,0,0,0,0,0,0,0,0,-1,818,1380,0,0
-399,-356,0,0,0,0,0,0,0,0,0,-1,825,1380,0,0
-392,-356,0,0,0,0,0,0,0,0,0,-1,832,1380,0,0
-385,-356,0,0,0,0,0,0,0,0,0,-1,839,1380,0,0
-378,-356,0,0,0,0,0,0,0,0,0,-1,846,1380,0,0
-371,-356,0,0,0,0,0,0,0,0,0,-1,853,1380,0,0
-364,-356,0,0,0,0,0,0,0,0,0,-1,860,1380,0,0
-357,-356,0,0,0,0,0,0,0,0,0,-1,867,1380,0,0
-350,-356,0,0,0,0,0,0,0,0,0,-1,874,1380,0,0
-343,-356,0,0,0,0,0,0,0,0,0,-1,881,1380,0,0
-336,-356,0,0,0,0,0,0,0,0,0,-1,888,1380,0,0
-329,-356,0,0,0,0,0,0,0,0,0,-1,895,1380,0,0
-322,-356,0,0,0,0,0,0,0,0,0,-1,902,1380,0,0
-315,-356,0,0,0,0,0,0,0,0,0,-1,909,1380,0,0
-308,-356,0,0,0,0,0,0,0,0,0,-1,916,1380,0,0
-301,-356,0,0,0,0,0,0,0,0,0,-1,923,1380,0,0
-294,-356,0,0,0,0,0,0,0,0,0,-1,930,1380,0,0
-287,-356,0,0,0,0,0,0,0,0,0,-1,937,1380,0,0
-280,-356,0,0,0,0,0,0,0,0,0,-1,944,1380,0,0
-273,-356,0,0,0,0,0,0,0,0,0,-1,951,1380,0,0
-266,-356,0,0,0,0,0,0,0,0,0,-1,958,1380,0,0
-259,-356,0,0,0,0,0,0,0,0,0,-1,965,1380,0,0
-252,-356,0,0,0,0,0,0,0,0,0,-1,972,1380,0,0
-245,-356,0,0,0,0,0,0,0,0,0,-1,979,1380,0,0
-238,-356,0,0,0,0,0,0,0,0,0,-1,986,1380,0,0
-231,-356,0,0,0,0,0,0,0,0,0,-1,993,1380,0,0
-224,-356,0,0,0,0,0,0,0,0,0,-1,1000,1380,0,0
-217,-356,0,0,0,0,0,0,0,0,0,-1,1007,1380,0,0
-210,-356,0,0,0,0,0,0,0,0,0,-1,1014,1380,0,0
-203,-356,0,0,0,0,0,0,0,0,0,-1,1021,1380,0,0
-196,-356,0,0,0,0,0,0,0,0,0,-1,1028,1380,0,0
-189,-356,0,0,0,0,0,0,0,0,0,-1,1035,1380,0,0
-182,-356,0,0,0,0,0,0,0,0,0,-1,1042,1380,0,0
-175,-356,0,0,0,0,0,0,0,0,0,-1,1049,1380,0,0
-168,-356,0,0,0,0,0,0,0,0,0,-1,1056,1380,0,0
-161,-356,0,0,0,0,0,0,0,0,0,-1,1063,1380,0,0
-154,-356,0,0,0,0,0,0,0,0,0,-1,1070,1380,0,0
-147,-356,0,0,0,0,0,0,0,0,0,-1,1077,1380,0,0
-140,-356,0,0,0,0,0,0,0,0,0,-1,1084,1380,0,0
-133,-356,0,0,0,0,0,0,0,0,0,-1,1091,1380,0,0
-126,-356,0,0,0,0,0,0,0,0,0,-1,1098,1380,0,0
-119,-356,0,0,0,0,0,0,0,0,0,-1,1105,1380,0,0
-112,-356,0,0,0,0,0,0,0,0,0,-1,1112,1380,0,0
-105,-356,0,0,0,0,0,0,0,0,0,-1,1119,1380,0,0
-98,-356,0,0,0,0,0,0,0,0,0,-1,1126,1380,0,0
-91,-356,0,0,0,0,0,0,0,0,0,-1,1133,1380,0,0
-84,-356,0,0,0,0,0,0,0,0,0,-1,1140,1380,0,0
-77,-356,0,0,0,0,0,0,0,0,0,-1,1147,1380,0,0
-70,-356,0,0,0,0,0,0,0,0,0,-1,1154,1380,0,0
-63,-356,0,0,0,0,0,0,0,0,0,-1,1161,1380,0,0
-56,-356,0,0,0,0,0,0,0,0,0,-1,1168,1380,0,0
-49,-356,0,0,0,0,0,0,0,0,0,-1,1175,1380,0,0
-42,-356,0,0,0,0,0,0,0,0,0,-1,1182,1380,0,0
-35,-356,0,0,0,0,0,0,0,0,0,-1,1189,1380,0,0
-28,-356,0,0,0,0,0,0,0,0,0,-1,1196,1380,0,0
-21,-356,0,0,0,0,0,0,0,0,0,-1,1203,1380,0,0
-14,-356,0,0,0,0,0,0,0,0,0,-1,1210,1380,0,0
-7,-356,0,0,0,0,0,0,0,0,0,-1,1217,1380,0,0
0,-356,0,0,0,0,0,0,0,0,0,-1,1224,1380,0,0
7,-356,0,0,0,0,0,0,0,0,0,-1,1231,1380,0,0
14,-356,0,0,0,0,0,0,0,0,0,-1,1238,1380,0,0
21,-356,0,0,0,0,0,0,0,0,0,-1,1245,1380,0,0
28,-356,0,0,0,0,0,0,0,0,0,-1,1252,1380,0,0
35,-356,0,0,0,0,0,0,0,0,0,-1,1259,1380,0,0
42,-356,0,0,0,0,0,0,0,0,0,-1,1266,1380,0,0
49,-356,0,0,0,0,0,0,0,0,0,-1,1273,1380,0,0
56,-356,0,0,0,0,0,0,0,0,0,-1,1280,1380,0,0
63,-356,0,0,0,0,0,0,0,0,0,-1,1287,1380,0,0
70,-356,0,0,0,0,0,0,0,0,0,-1,1294,1380,0,0
77,-356,0,0,0,0,0,0,0,0,0,-1,1301,1380,0,0
84,-356,0,0,0,0,0,0,0,0,0,-1,1308,1380,0,0
91,-356,0,0,0,0,0,0,0,0,0,-1,1315,1380,0,0
98,-356,0,0,0,0,0,0,0,0,0,-1,1322,1380,0,0
105,-356,0,0,0,0,0,0,0,0,0,-1,1329,1380,0,0
112,-356,0,0,0,0,0,0,0,0,0,-1,1336,1380,0,0
119,-356,0,0,0,0,0,0,0,0,0,-1,1343,1380,0,0
126,-356,0,0,0,0,0,0,0,0,0,-1,1350,1380,0,0
133,-356,0,0,0,0,0,0,0,0,0,-1,1357,1380,0,0
140,-356,0,0,0,0,0,0,0,0,0,-1,1364,1380,0,0
147,-356,0,0,0,0,0,0,0,0,0,-1,1371,1380,0,0
154,-356,0,0,0,0,0,0,0,0,0,-1,1378,1380,0,0
161,-356,0,0,0,0,0,0,0,0,0,-1,1385,1380,0,0
168,-356,0,0,0,0,0,0,0,0,0,-1,1392,1380,0,0
175,-356,0,0,0,0,0,0,0,0,0,-1,1399,1380,0,0
182,-356,0,0,0,0,0,0,0,0,0,-1,1406,1380,0,0
189,-356,0,0,0,0,0,0,0,0,0,-1,1413,1380,0,0
196,-356,0,0,0,0,0,0,0,0,0,-1,1420,1380,0,0
203,-356,0,0,0,0,0,0,0,0,0,-1,1427,1380,0,0
210,-356,0,0,0,0,0,0,0,0,0,-1,1434,1380,0,0
217,-356,0,0,0,0,0,0,0,0,0,-1,1441,1380,0,0
224,-356,0,0,0,0,0,0,0,0,0,-1,1448,1380,0,0
231,-356,0,0,0,0,0,0,0,0,0,-1,1455,1380,0,0
238,-356,0,0,0,0,0,0,0,0,0,-1,1462,1380,0,0
245,-356,0,0,0,0,0,0,0,0,0,-1,1469,1380,0,0
252,-356,0,0,0,0,0,0,0,0,0,-1,1476,1380,0,0
259,-356,0,0,0,0,0,0,0,0,0,-1,1483,1380,0,0
266,-356,0,0,0,0,0,0,0,0,0,-1,1490,1380,0,0
273,-356,0,0,0,0,0,0,0,0,0,-1,1497,1380,0,0
280,-356,0,0,0,0,0,0,0,0,0,-1,1504,1380,0,0
287,-356,0,0,0,0,0,0,0,0,0,-1,1511,1380,0,0
294,-356,0,0,0,0,0,0,0,0,0,-1,1518,1380,0,0
301,-356,0,0,0,0,0,0,0,0,0,-1,1525,1380,0,0
308,-356,0,0,0,0,0,0,0,0,0,-1,1532,1380,0,0
315,-356,0,0,0,0,0,0,0,0,0,-1,1539,1380,0,0
322,-356,0,0,0,0,0,0,0,0,0,-1,1546,1380,0,0
329,-356,0,0,0,0,0,0,0,0,0,-1,1553,1380,0,0
336,-356,0,0,0,0,0,0,0,0,0,-1,1560,1380,0,0
343,-356,0,0,0,0,0,0,0,0,0,-1,1567,1380,0,0
350,-356,0,0,0,0,0,0,0,0,0,-1,1574,1380,0,0
357,-356,0,0,0,0,0,0,0,0,0,-1,1581,1380,0,0
364,-356,0,0,0,0,0,0,0,0,0,-1,1588,1380,0,0
371,-356,0,0,0,0,0,0,0,0,0,-1,1595,1380,0,0
378,-356,0,0,0,0,0,0,0,0,0,-1,1602,1380,0,0
385,-356,0,0,0,0,0,0,0,0,0,-1,1609,1380,0,0
392,-356,0,0,0,0,0,0,0,0,0,-1,1616,1380,0,0
399,-356,0,0,0,0,0,0,0,0,0,-1,1623,1380,0,0
406,-356,0,0,0,0,0,0,0,0,0,-1,1630,1380,0,0
413,-356,0,0,0,0,0,0,0,0,0,-1,1637,1380,0,0
420,-356,0,0,0,0,0,0,0,0,0,-1,1644,1380,0,0
427,-356,0,0,0,0,0,0,0,0,0,-1,1651,1380,0,0
434,-356,0,0,0,0,0,0,0,0,0,-1,1658,1380,0,0
441,-356,0,0,0,0,0,0,0,0,0,-1,1665,1380,0,0
448,-356,0,0,0,0,0,0,0,0,0,-1,1672,1380,0,0
455,-356,0,0,0,0,0,0,0,0,0,-1,1679,1380,0,0
462,-356,0,0,0,0,0,0,0,0,0,-1,1686,1380,0,0
469,-356,0,0,0,0,0,0,0,0,0,-1,1693,1380,0,0
476,-356,0,0,0,0,0,0,0,0,0,-1,1700,1380,0,0
483,-356,0,0,0,0,0,0,0,0,0,-1,1707,1380,0,0
490,-356,0,0,0,0,0,0,0,0,0,-1,1714,1380,0,0
497,-356,0,0,0,0,0,0,0,0,0,-1,1721,1380,0,0
504,-356,0,0,0,0,0,0,0,0,0,-1,1728,1380,0,0
511,-356,0,0,0,0,0,0,0,0,0,-1,1735,1380,0,0
518,-356,0,0,0,0,0,0,0,0,0,-1,1742,1380,0,0
525,-356,0,0,0,0,0,0,0,0,0,-1,1749,1380,0,0
532,-356,0,0,0,0,0,0,0,0,0,-1,1756,1380,0,0
539,-356,0,0,0,0,0,0,0,0,0,-1,1763,1380,0,0
546,-356,0,0,0,0,0,0,0,0,0,-1,1770,1380,0,0
553,-356,0,0,0,0,0,0,0,0,0,-1,1777,1380,0,0
560,-356,45.7938,3.65295,0,0,0,0,0,0,0,-1,1784,1380,45.7938,-3.65294
567,-356,45.6788,3.51428,0,0,0,0,0,0,0,-1,1791,1380,45.6788,-3.51422
574,-356,45.5742,3.39575,0,0,0,0,0,0,0,-1,1798,1380,45.5742,-3.39574
581,-356,45.6708,3.64172,0,0,0,0,0,0,0,-1,1805,1380,45.6707,-3.64175
588,-356,44.4739,4.87085,0,0,0,0,0,0,0,-1,1812,1380,44.4739,-4.87086
595,-356,32.0834,5.86084,0,0,0,0,0,0,0,-1,1819,1380,32.0834,-5.86079
602,-356,30.1604,6.07104,0,0,0,0,0,0,0,-1,1826,1380,30.1604,-6.07104
609,-356,28.3435,6.48901,0,0,0,0,0,0,0,-1,1833,1380,28.3435,-6.48899
616,-356,26.9358,6.80872,0,0,0,0,0,0,0,-1,1840,1380,26.9358,-6.80877
623,-356,16.1803,1.07532,0,0,0,0,0,0,0,-1,1847,1380,16.1803,-1.07529
630,-356,16.4138,6.91553,0,0,0,0,0,0,0,-1,1854,1380,16.4138,-6.9155
637,-356,24.8021,12.0151,0,0,0,0,0,0,0,-1,1861,1380,24.8022,-12.0151
644,-356,37.7445,17.2135,0,0,0,0,0,0,0,-1,1868,1380,37.7445,-17.2135
651,-356,37.7727,16.4492,0.000346038,0.0010387,-0.00107733,0.001824,-0.000439262,-0.940917,0.00138582,0.0198058,1875,1380,37.7727,-16.4492
658,-356,37.693,15.7671,0.000491838,0.000530897,-0.000531219,0.00104295,-2.02103e-05,-0.803772,0.000702131,0.014605,1882,1380,37.693,-15.7671
665,-356,37.6731,15.1849,0.000864253,0.000119392,-0.000210661,0.000919704,6.3941e-05,-0.257386,0.000592973,0.014399,1889,1380,37.6731,-15.185
672,-356,37.6466,14.5848,0.00137184,-0.000151236,-2.61662e-05,0.00137229,-0.000151686,-0.0171731,0.000969383,0.0162839,1896,1380,37.6466,-14.5848
679,-356,37.6454,13.9427,0.00198891,-0.000348348,6.74726e-05,0.00199085,-0.000350294,0.0288363,0.00145809,0.0180597,1903,1380,37.6454,-13.9428
686,-356,37.6331,13.2513,0.00274195,-0.000417741,4.0203e-05,0.00274246,-0.000418252,0.012721,0.00198249,0.0178385,1910,1380,37.6331,-13.2513
693,-356,37.5942,12.5906,0.00361511,-0.000354819,-9.1415e-05,0.00361721,-0.000356923,-0.0230106,0.00253883,0.0154989,1917,1380,37.5942,-12.5906
700,-356,37.5707,11.9514,0.00459929,-0.000126974,-0.000313318,0.00461997,-0.000147654,-0.0659086,0.00313036,0.0228369,1924,1380,37.5707,-11.9514
707,-356,37.6318,11.3207,0,0,0,0,0,0,0,-1,1931,1380,37.6319,-11.3207
714,-356,19.6907,5.82129,0,0,0,0,0,0,0,-1,1938,1380,19.6907,-5.82132
721,-356,17.2948,4.1958,0,0,0,0,0,0,0,-1,1945,1380,17.2948,-4.19584
728,-356,19.1846,2.31519,0,0,0,0,0,0,0,-1,1952,1380,19.1846,-2.31514
735,-356,20.0731,2.50842,0,0,0,0,0,0,0,-1,1959,1380,20.0731,-2.50844
742,-356,21.0111,2.43762,0,0,0,0,0,0,0,-1,1966,1380,21.0112,-2.43762
749,-356,22.1411,1.83276,0,0,0,0,0,0,0,-1,1973,1380,22.1411,-1.83275
756,-356,0,0,0,0,0,0,0,0,0,-1,1980,1380,0,0
763,-356,0,0,0,0,0,0,0,0,0,-1,1987,1380,0,0
770,-356,0,0,0,0,0,0,0,0,0,-1,1994,1380,0,0
777,-356,0,0,0,0,0,0,0,0,0,-1,2001,1380,0,0
784,-356,0,0,0,0,0,0,0,0,0,-1,2008,1380,0,0
791,-356,0,0,0,0,0,0,0,0,0,-1,2015,1380,0,0
798,-356,0,0,0,0,0,0,0,0,0,-1,2022,1380,0,0
805,-356,0,0,0,0,0,0,0,0,0,-1,2029,1380,0,0
812,-356,0,0,0,0,0,0,0,0,0,-1,2036,1380,0,0
-700,-363,0,0,0,0,0,0,0,0,0,-1,524,1387,0,0
-693,-363,0,0,0,0,0,0,0,0,0,-1,531,1387,0,0
-686,-363,0,0,0,0,0,0,0,0,0,-1,538,1387,0,0
-679,-363,0,0,0,0,0,0,0,0,0,-1,545,1387,0,0
-672,-363,0,0,0,0,0,0,0,0,0,-1,552,1387,0,0
-665,-363,0,0,0,0,0,0,0,0,0,-1,559,1387,0,0
-658,-363,0,0,0,0,0,0,0,0,0,-1,566,1387,0,0
-651,-363,0,0,0,0,0,0,0,0,0,-1,573,1387,0,0
-644,-363,0,0,0,0,0,0,0,0,0,-1,580,1387,0,0
-637,-363,0,0,0,0,0,0,0,0,0,-1,587,1387,0,0
-630,-363,0,0,0,0,0,0,0,0,0,-1,594,1387,0,0
-623,-363,-9.67566,-5.91846,0,0,0,0,0,0,0,-1,601,1387,-9.67563,5.91847
-616,-363,-9.02985,-2.98083,0,0,0,0,0,0,0,-1,608,1387,-9.02987,2.98079
-609,-363,-4.90265,0.195679,0,0,0,0,0,0,0,-1,615,1387,-4.90263,-0.195721
-602,-363,-9.65009,3.5321,0,0,0,0,0,0,0,-1,622,1387,-9.65007,-3.53211
-595,-363,-8.00256,3.48853,0,0,0,0,0,0,0,-1,629,1387,-8.00256,-3.48855
-588,-363,-10.8846,4.49768,0,0,0,0,0,0,0,-1,636,1387,-10.8846,-4.49773
-581,-363,-11.7469,5.15161,0,0,0,0,0,0,0,-1,643,1387,-11.747,-5.15167
-574,-363,-17.8334,8.33801,0,0,0,0,0,0,0,-1,650,1387,-17.8334,-8.33804
-567,-363,-20.0887,10.1481,0,0,0,0,0,0,0,-1,657,1387,-20.0887,-10.148
-560,-363,-19.9922,10.9092,0.00406542,0.00250507,0.00238373,0.0057934,0.000777089,0.627246,0.00363106,0.0145028,664,1387,-19.9922,-10.9092
-553,-363,-20.0101,11.6306,0.0034995,0.00182613,0.00193663,0.00477245,0.000553179,0.581493,0.00301421,0.0129566,671,1387,-20.0101,-11.6306
-546,-363,-20.0555,12.3196,0.00310455,0.0012519,0.00158552,0.00401452,0.00034194,0.521022,0.00256996,0.0136469,678,1387,-20.0556,-12.3196
-539,-363,-20.0513,13.0017,0.00289594,0.00079976,0.00135205,0.00355856,0.000137139,0.455685,0.00232801,0.0164513,685,1387,-20.0513,-13.0018
-532,-363,-20.1058,13.7147,0.00286968,0.000499153,0.00126157,0.00341543,-4.65943e-05,0.408286,0.00229264,0.0139075,692,1387,-20.1058,-13.7147
-525,-363,-20.1349,14.4004,0.0030135,0.000314073,0.00129695,0.00353563,-0.000208057,0.382732,0.00242941,0.0123013,699,1387,-20.1349,-14.4004
-518,-363,-20.1453,15.0928,0.00335406,0.000304828,0.0014798,0.00395413,-0.000295238,0.385242,0.00273981,0.0112001,706,1387,-20.1452,-15.0928
-511,-363,-20.1218,15.8093,0.00395319,0.000516773,0.00190809,0.00480268,-0.000332709,0.418856,0.00331825,0.0297682,713,1387,-20.1218,-15.8093
-504,-363,-20.0746,16.5538,0,0,0,0,0,0,0,-1,720,1387,-20.0746,-16.5538
-497,-363,-7.18842,7.29944,0,0,0,0,0,0,0,-1,727,1387,-7.18839,-7.29945
-490,-363,-5.42413,4.6958,0,0,0,0,0,0,0,-1,734,1387,-5.42412,-4.69583
-483,-363,-6.28375,4.1394,0,0,0,0,0,0,0,-1,741,1387,-6.28374,-4.13944
-476,-363,-5.83807,4.31018,0,0,0,0,0,0,0,-1,748,1387,-5.8381,-4.31013
-469,-363,-10.7125,0.697754,0,0,0,0,0,0,0,-1,755,1387,-10.7125,-0.697811
-462,-363,-9.55951,-0.0830078,0,0,0,0,0,0,0,-1,762,1387,-9.55949,0.0830163
-455,-363,-13.1008,-0.290894,0,0,0,0,0,0,0,-1,769,1387,-13.1008,0.290921
-448,-363,-11.7324,2.46606,0,0,0,0,0,0,0,-1,776,1387,-11.7324,-2.46605
-441,-363,-12.4464,2.5354,0,0,0,0,0,0,0,-1,783,1387,-12.4463,-2.53537
-434,-363,-13.6918,2.14661,0,0,0,0,0,0,0,-1,790,1387,-13.6918,-2.14662
-427,-363,0,0,0,0,0,0,0,0,0,-1,797,1387,0,0
-420,-363,0,0,0,0,0,0,0,0,0,-1,804,1387,0,0
-413,-363,0,0,0,0,0,0,0,0,0,-1,811,1387,0,0
-406,-363,0,0,0,0,0,0,0,0,0,-1,818,1387,0,0
-399,-363,0,0,0,0,0,0,0,0,0,-1,825,1387,0,0
-392,-363,0,0,0,0,0,0,0,0,0,-1,832,1387,0,0
-385,-363,0,0,0,0,0,0,0,0,0,-1,839,1387,0,0
-378,-363,0,0,0,0,0,0,0,0,0,-1,846,1387,0,0
-371,-363,0,0,0,0,0,0,0,0,0,-1,853,1387,0,0
-364,-363,0,0,0,0,0,0,0,0,0,-1,860,1387,0,0
-357,-363,0,0,0,0,0,0,0,0,0,-1,867,1387,0,0
-350,-363,0,0,0,0,0,0,0,0,0,-1,874,1387,0,0
-343,-363,0,0,0,0,0,0,0,0,0,-1,881,1387,0,0
-336,-363,0,0,0,0,0,0,0,0,0,-1,888,1387,0,0
-329,-363,0,0,0,0,0,0,0,0,0,-1,895,1387,0,0
-322,-363,0,0,0,0,0,0,0,0,0,-1,902,1387,0,0
-315,-363,0,0,0,0,0,0,0,0,0,-1,909,1387,0,0
-308,-363,0,0,0,0,0,0,0,0,0,-1,916,1387,0,0
-301,-363,0,0,0,0,0,0,0,0,0,-1,923,1387,0,0
-294,-363,0,0,0,0,0,0,0,0,0,-1,930,1387,0,0
-287,-363,0,0,0,0,0,0,0,0,0,-1,937,1387,0,0
-280,-363,0,0,0,0,0,0,0,0,0,-1,944,1387,0,0
-273,-363,0,0,0,0,0,0,0,0,0,-1,951,1387,0,0
-266,-363,0,0,0,0,0,0,0,0,0,-1,958,1387,0,0
-259,-363,0,0,0,0,0,0,0,0,0,-1,965,1387,0,0
-252,-363,0,0,0,0,0,0,0,0,0,-1,972,1387,0,0
-245,-363,0,0,0,0,0,0,0,0,0,-1,979,1387,0,0
-238,-363,0,0,0,0,0,0,0,0,0,-1,986,1387,0,0
-231,-363,0,0,0,0,0,0,0,0,0,-1,993,1387,0,0
-224,-363,0,0,0,0,0,0,0,0,0,-1,1000,1387,0,0
-217,-363,0,0,0,0,0,0,0,0,0,-1,1007,1387,0,0
-210,-363,0,0,0,0,0,0,0,0,0,-1,1014,1387,0,0
-203,-363,0,0,0,0,0,0,0,0,0,-1,1021,1387,0,0
-196,-363,0,0,0,0,0,0,0,0,0,-1,1028,1387,0,0
-189,-363,0,0,0,0,0,0,0,0,0,-1,1035,1387,0,0
-182,-363,0,0,0,0,0,0,0,0,0,-1,1042,1387,0,0
-175,-363,0,0,0,0,0,0,0,0,0,-1,1049,1387,0,0
-168,-363,0,0,0,0,0,0,0,0,0,-1,1056,1387,0,0
-161,-363,0,0,0,0,0,0,0,0,0,-1,1063,1387,0,0
-154,-363,0,0,0,0,0,0,0,0,0,-1,1070,1387,0,0
-147,-363,0,0,0,0,0,0,0,0,0,-1,1077,1387,0,0
-140,-363,0,0,0,0,0,0,0,0,0,-1,1084,1387,0,0
-133,-363,0,0,0,0,0,0,0,0,0,-1,1091,1387,0,0
-126,-363,0,0,0,0,0,0,0,0,0,-1,1098,1387,0,0
-119,-363,0,0,0,0,0,0,0,0,0,-1,1105,1387,0,0
-112,-363,0,0,0,0,0,0,0,0,0,-1,1112,1387,0,0
-105,-363,0,0,0,0,0,0,0,0,0,-1,1119,1387,0,0
-98,-363,0,0,0,0,0,0,0,0,0,-1,1126,1387,0,0
-91,-363,0,0,0,0,0,0,0,0,0,-1,1133,1387,0,0
-84,-363,0,0,0,0,0,0,0,0,0,-1,1140,1387,0,0
-77,-363,0,0,0,0,0,0,0,0,0,-1,1147,1387,0,0
-70,-363,0,0,0,0,0,0,0,0,0,-1,1154,1387,0,0
-63,-363,0,0,0,0,0,0,0,0,0,-1,1161,1387,0,0
-56,-363,0,0,0,0,0,0,0,0,0,-1,1168,1387,0,0
-49,-363,0,0,0,0,0,0,0,0,0,-1,1175,1387,0,0
-42,-363,0,0,0,0,0,0,0,0,0,-1,1182,1387,0,0
-35,-363,0,0,0,0,0,0,0,0,0,-1,1189,1387,0,0
-28,-363,0,0,0,0,0,0,0,0,0,-1,1196,1387,0,0
-21,-363,0,0,0,0,0,0,0,0,0,-1,1203,1387,0,0
-14,-363,0,0,0,0,0,0,0,0,0,-1,1210,1387,0,0
-7,-363,0,0,0,0,0,0,0,0,0,-1,1217,1387,0,0
0,-363,0,0,0,0,0,0,0,0,0,-1,1224,1387,0,0
7,-363,0,0,0,0,0,0,0,0,0,-1,1231,1387,0,0
14,-363,0,0,0,0,0,0,0,0,0,-1,1238,1387,0,0
21,-363,0,0,0,0,0,0,0,0,0,-1,1245,1387,0,0
28,-363,0,0,0,0,0,0,0,0,0,-1,1252,1387,0,0
35,-363,0,0,0,0,0,0,0,0,0,-1,1259,1387,0,0
42,-363,0,0,0,0,0,0,0,0,0,-1,1266,1387,0,0
49,-363,0,0,0,0,0,0,0,0,0,-1,1273,1387,0,0
56,-363,0,0,0,0,0,0,0,0,0,-1,1280,1387,0,0
63,-363,0,0,0,0,0,0,0,0,0,-1,1287,1387,0,0
70,-363,0,0,0,0,0,0,0,0,0,-1,1294,1387,0,0
77,-363,0,0,0,0,0,0,0,0,0,-1,1301,1387,0,0
84,-363,0,0,0,0,0,0,0,0,0,-1,1308,1387,0,0
91,-363,0,0,0,0,0,0,0,0,0,-1,1315,1387,0,0
98,-363,0,0,0,0,0,0,0,0,0,-1,1322,1387,0,0
105,-363,0,0,0,0,0,0,0,0,0,-1,1329,1387,0,0
112,-363,0,0,0,0,0,0,0,0,0,-1,1336,1387,0,0
119,-363,0,0,0,0,0,0,0,0,0,-1,1343,1387,0,0
126,-363,0,0,0,0,0,0,0,0,0,-1,1350,1387,0,0
133,-363,0,0,0,0,0,0,0,0,0,-1,1357,1387,0,0
140,-363,0,0,0,0,0,0,0,0,0,-1,1364,1387,0,0
147,-363,0,0,0,0,0,0,0,0,0,-1,1371,1387,0,0
154,-363,0,0,0,0,0,0,0,0,0,-1,1378,1387,0,0
161,-363,0,0,0,0,0,0,0,0,0,-1,1385,1387,0,0
168,-363,0,0,0,0,0,0,0,0,0,-1,1392,1387,0,0
175,-363,0,0,0,0,0,0,0,0,0,-1,1399,1387,0,0
182,-363,0,0,0,0,0,0,0,0,0,-1,1406,1387,0,0
189,-363,0,0,0,0,0,0,0,0,0,-1,1413,1387,0,0
196,-363,0,0,0,0,0,0,0,0,0,-1,1420,1387,0,0
203,-363,0,0,0,0,0,0,0,0,0,-1,1427,1387,0,0
210,-363,0,0,0,0,0,0,0,0,0,-1,1434,1387,0,0
217,-363,0,0,0,0,0,0,0,0,0,-1,1441,1387,0,0
224,-363,0,0,0,0,0,0,0,0,0,-1,1448,1387,0,0
231,-363,0,0,0,0,0,0,0,0,0,-1,1455,1387,0,0
238,-363,0,0,0,0,0,0,0,0,0,-1,1462,1387,0,0
245,-363,0,0,0,0,0,0,0,0,0,-1,1469,1387,0,0
252,-363,0,0,0,0,0,0,0,0,0,-1,1476,1387,0,0
259,-363,0,0,0,0,0,0,0,0,0,-1,1483,1387,0,0
266,-363,0,0,0,0,0,0,0,0,0,-1,1490,1387,0,0
273,-363,0,0,0,0,0,0,0,0,0,-1,1497,1387,0,0
280,-363,0,0,0,0,0,0,0,0,0,-1,1504,1387,0,0
287,-363,0,0,0,0,0,0,0,0,0,-1,1511,1387,0,0
294,-363,0,0,0,0,0,0,0,0,0,-1,1518,1387,0,0
301,-363,0,0,0,0,0,0,0,0,0,-1,1525,1387,0,0
308,-363,0,0,0,0,0,0,0,0,0,-1,1532,1387,0,0
315,-363,0,0,0,0,0,0,0,0,0,-1,1539,1387,0,0
322,-363,0,0,0,0,0,0,0,0,0,-1,1546,1387,0,0
329,-363,0,0,0,0,0,0,0,0,0,-1,1553,1387,0,0
336,-363,0,0,0,0,0,0,0,0,0,-1,1560,1387,0,0
343,-363,0,0,0,0,0,0,0,0,0,-1,1567,1387,0,0
350,-363,0,0,0,0,0,0,0,0,0,-1,1574,1387,0,0
357,-363,0,0,0,0,0,0,0,0,0,-1,1581,1387,0,0
364,-363,0,0,0,0,0,0,0,0,0,-1,1588,1387,0,0
371,-363,0,0,0,0,0,0,0,0,0,-1,1595,1387,0,0
378,-363,0,0,0,0,0,0,0,0,0,-1,1602,1387,0,0
385,-363,0,0,0,0,0,0,0,0,0,-1,1609,1387,0,0
392,-363,0,0,0,0,0,0,0,0,0,-1,1616,1387,0,0
399,-363,0,0,0,0,0,0,0,0,0,-1,1623,1387,0,0
406,-363,0,0,0,0,0,0,0,0,0,-1,1630,1387,0,0
413,-363,0,0,0,0,0,0,0,0,0,-1,1637,1387,0,0
420,-363,0,0,0,0,0,0,0,0,0,-1,1644,1387,0,0
427,-363,0,0,0,0,0,0,0,0,0,-1,1651,1387,0,0
434,-363,0,0,0,0,0,0,0,0,0,-1,1658,1387,0,0
441,-363,0,0,0,0,0,0,0,0,0,-1,1665,1387,0,0
448,-363,0,0,0,0,0,0,0,0,0,-1,1672,1387,0,0
455,-363,0,0,0,0,0,0,0,0,0,-1,1679,1387,0,0
462,-363,0,0,0,0,0,0,0,0,0,-1,1686,1387,0,0
469,-363,0,0,0,0,0,0,0,0,0,-1,1693,1387,0,0
476,-363,0,0,0,0,0,0,0,0,0,-1,1700,1387,0,0
483,-363,0,0,0,0,0,0,0,0,0,-1,1707,1387,0,0
490,-363,0,0,0,0,0,0,0,0,0,-1,1714,1387,0,0
497,-363,0,0,0,0,0,0,0,0,0,-1,1721,1387,0,0
504,-363,0,0,0,0,0,0,0,0,0,-1,1728,1387,0,0
511,-363,0,0,0,0,0,0,0,0,0,-1,1735,1387,0,0
518,-363,0,0,0,0,0,0,0,0,0,-1,1742,1387,0,0
525,-363,0,0,0,0,0,0,0,0,0,-1,1749,1387,0,0
532,-363,0,0,0,0,0,0,0,0,0,-1,1756,1387,0,0
539,-363,0,0,0,0,0,0,0,0,0,-1,1763,1387,0,0
546,-363,0,0,0,0,0,0,0,0,0,-1,1770,1387,0,0
553,-363,45.9076,3.64331,0,0,0,0,0,0,0,-1,1777,1387,45.9076,-3.64336
560,-363,45.9459,3.6875,0,0,0,0,0,0,0,-1,1784,1387,45.9459,-3.68756
567,-363,45.9266,3.32825,0,0,0,0,0,0,0,-1,1791,1387,45.9266,-3.32824
574,-363,45.7261,2.8075,0,0,0,0,0,0,0,-1,1798,1387,45.7261,-2.80754
581,-363,39.2413,1.97632,0,0,0,0,0,0,0,-1,1805,1387,39.2413,-1.97636
588,-363,32.5608,6.72131,0,0,0,0,0,0,0,-1,1812,1387,32.5608,-6.72131
595,-363,31.4688,6.95435,0,0,0,0,0,0,0,-1,1819,1387,31.4688,-6.95431
602,-363,25.7437,5.33667,0,0,0,0,0,0,0,-1,1826,1387,25.7437,-5.33667
609,-363,27.7048,7.06885,0,0,0,0,0,0,0,-1,1833,1387,27.7048,-7.06882
616,-363,16.229,1.08704,0,0,0,0,0,0,0,-1,1840,1387,16.229,-1.08706
623,-363,15.7283,7.16663,0,0,0,0,0,0,0,-1,1847,1387,15.7282,-7.16665
630,-363,18.3192,9.27844,0,0,0,0,0,0,0,-1,1854,1387,18.3192,-9.27843
637,-363,37.0994,17.9049,0,0,0,0,0,0,0,-1,1861,1387,37.0994,-17.9049
644,-363,37.121,17.1917,0.00097644,0.00167049,-0.00182628,0.00318242,-0.000535489,-0.879288,0.0023208,0.017841,1868,1387,37.1209,-17.1917
651,-363,37.1079,16.5039,0.000615869,0.000880485,-0.000987694,0.00174469,-0.000248339,-0.85198,0.00125413,0.0110576,1875,1387,37.1079,-16.504
658,-363,37.0673,15.8386,0.000778126,0.000400986,-0.000466244,0.00109249,8.6623e-05,-0.593232,0.000701238,0.01159,1882,1387,37.0672,-15.8387
665,-363,37.0352,15.2174,0.00115313,-2.73232e-06,-0.0001134,0.00116415,-1.37527e-05,-0.0968775,0.000780726,0.0121662,1889,1387,37.0352,-15.2174
672,-363,37.0022,14.5973,0.00169582,-0.00031269,0.000127645,0.0017039,-0.00032077,0.0632132,0.00125658,0.0147327,1896,1387,37.0022,-14.5973
679,-363,36.9885,13.9647,0.00238754,-0.000545887,0.000270056,0.0024122,-0.000570541,0.0910419,0.00182823,0.015714,1903,1387,36.9885,-13.9647
686,-363,36.9581,13.3053,0.00325173,-0.000662996,0.000285701,0.00327248,-0.000683737,0.0724694,0.00244168,0.0142574,1910,1387,36.9581,-13.3053
693,-363,36.9174,12.6067,0.00430621,-0.000609814,0.000147593,0.00431064,-0.000614241,0.0299868,0.00309886,0.013367,1917,1387,36.9174,-12.6067
700,-363,37.0652,11.9203,0.00553968,-0.000340815,-0.000121468,0.00554218,-0.000343323,-0.0206444,0.00381438,0.0297952,1924,1387,37.0651,-11.9203
707,-363,37.3816,11.2955,0,0,0,0,0,0,0,-1,1931,1387,37.3816,-11.2955
714,-363,16.5782,5.3147,0,0,0,0,0,0,0,-1,1938,1387,16.5783,-5.31472
721,-363,14.4045,4.51685,0,0,0,0,0,0,0,-1,1945,1387,14.4045,-4.51685
728,-363,19.9756,0.853027,0,0,0,0,0,0,0,-1,1952,1387,19.9756,-0.853059
735,-363,21.4297,1.2981,0,0,0,0,0,0,0,-1,1959,1387,21.4297,-1.29811
742,-363,21.3621,2.79663,0,0,0,0,0,0,0,-1,1966,1387,21.362,-2.7966
749,-363,0,0,0,0,0,0,0,0,0,-1,1973,1387,0,0
756,-363,0,0,0,0,0,0,0,0,0,-1,1980,1387,0,0
763,-363,0,0,0,0,0,0,0,0,0,-1,1987,1387,0,0
770,-363,0,0,0,0,0,0,0,0,0,-1,1994,1387,0,0
777,-363,0,0,0,0,0,0,0,0,0,-1,2001,1387,0,0
784,-363,0,0,0,0,0,0,0,0,0,-1,2008,1387,0,0
791,-363,0,0,0,0,0,0,0,0,0,-1,2015,1387,0,0
798,-363,0,0,0,0,0,0,0,0,0,-1,2022,1387,0,0
805,-363,0,0,0,0,0,0,0,0,0,-1,2029,1387,0,0
812,-363,0,0,0,0,0,0,0,0,0,-1,2036,1387,0,0
-700,-370,0,0,0,0,0,0,0,0,0,-1,524,1394,0,0
-693,-370,0,0,0,0,0,0,0,0,0,-1,531,1394,0,0
-686,-370,0,0,0,0,0,0,0,0,0,-1,538,1394,0,0
-679,-370,0,0,0,0,0,0,0,0,0,-1,545,1394,0,0
-672,-370,0,0,0,0,0,0,0,0,0,-1,552,1394,0,0
-665,-370,0,0,0,0,0,0,0,0,0,-1,559,1394,0,0
-658,-370,0,0,0,0,0,0,0,0,0,-1,566,1394,0,0
-651,-370,0,0,0,0,0,0,0,0,0,-1,573,1394,0,0
-644,-370,0,0,0,0,0,0,0,0,0,-1,580,1394,0,0
-637,-370,0,0,0,0,0,0,0,0,0,-1,587,1394,0,0
-630,-370,0,0,0,0,0,0,0,0,0,-1,594,1394,0,0
-623,-370,-10.1758,-7.10486,0,0,0,0,0,0,0,-1,601,1394,-10.1758,7.10483
-616,-370,-8.85925,-1.61475,0,0,0,0,0,0,0,-1,608,1394,-8.85925,1.61476
-609,-370,-5.39325,0.0421143,0,0,0,0,0,0,0,-1,615,1394,-5.39328,-0.0421372
-602,-370,-12.3151,3.44592,0,0,0,0,0,0,0,-1,622,1394,-12.3151,-3.44595
-595,-370,-7.53284,5.44214,0,0,0,0,0,0,0,-1,629,1394,-7.53284,-5.44216
-588,-370,-11.2422,4.50598,0,0,0,0,0,0,0,-1,636,1394,-11.2422,-4.50596
-581,-370,-13.1575,5.84888,0,0,0,0,0,0,0,-1,643,1394,-13.1575,-5.84887
-574,-370,-13.0107,6.69861,0,0,0,0,0,0,0,-1,650,1394,-13.0108,-6.69866
-567,-370,-19.3768,10.0887,0,0,0,0,0,0,0,-1,657,1394,-19.3769,-10.0887
-560,-370,-19.392,10.8845,0.00462637,0.00283602,0.00283841,0.00670741,0.000754969,0.632645,0.0042424,0.0330926,664,1394,-19.392,-10.8846
-553,-370,-19.3317,11.6538,0.00391705,0.00210565,0.00226272,0.0054486,0.000574099,0.595029,0.00345696,0.010646,671,1394,-19.3317,-11.6538
-546,-370,-19.3453,12.3408,0.00336161,0.0014742,0.00178803,0.00443969,0.000396117,0.542582,0.00283699,0.0145946,678,1394,-19.3452,-12.3408
-539,-370,-19.3335,13.0356,0.00301001,0.000995102,0.00145987,0.0037763,0.000228808,0.483373,0.00244484,0.0193157,685,1394,-19.3335,-13.0357
-532,-370,-19.415,13.7615,0.00285125,0.000678049,0.00129008,0.00345136,7.7938e-05,0.435402,0.00227537,0.0222075,692,1394,-19.415,-13.7615
-525,-370,-19.4335,14.4303,0.00287017,0.000503477,0.00127109,0.00342348,-4.98332e-05,0.410566,0.00229911,0.0185242,699,1394,-19.4335,-14.4303
-518,-370,-19.4465,15.1049,0.00307652,0.000478745,0.00140402,0.00369032,-0.000135057,0.412138,0.00250645,0.0134216,706,1394,-19.4464,-15.1048
-511,-370,-19.4566,15.8254,0.00353151,0.000674316,0.00176141,0.00437083,-0.000165009,0.444677,0.00297042,0.0167285,713,1394,-19.4566,-15.8254
-504,-370,-19.4633,16.5508,0,0,0,0,0,0,0,-1,720,1394,-19.4633,-16.5508
-497,-370,-12.3546,11.7982,0,0,0,0,0,0,0,-1,727,1394,-12.3546,-11.7983
-490,-370,-5.30695,4.5271,0,0,0,0,0,0,0,-1,734,1394,-5.30698,-4.52704
-483,-370,-6.02997,4.59253,0,0,0,0,0,0,0,-1,741,1394,-6.02994,-4.5925
-476,-370,-6.75293,4.65796,0,0,0,0,0,0,0,-1,748,1394,-6.7529,-4.65795
-469,-370,-10.584,1.14294,0,0,0,0,0,0,0,-1,755,1394,-10.584,-1.14293
-462,-370,-9.54462,0.387207,0,0,0,0,0,0,0,-1,762,1394,-9.5446,-0.387176
-455,-370,-8.50525,-0.36853,0,0,0,0,0,0,0,-1,769,1394,-8.50523,0.368582
-448,-370,-10.9543,2.28833,0,0,0,0,0,0,0,-1,776,1394,-10.9543,-2.28835
-441,-370,-11.8699,1.8313,0,0,0,0,0,0,0,-1,783,1394,-11.8699,-1.83127
-434,-370,-12.7855,1.37415,0,0,0,0,0,0,0,-1,790,1394,-12.7855,-1.37419
-427,-370,0,0,0,0,0,0,0,0,0,-1,797,1394,0,0
-420,-370,0,0,0,0,0,0,0,0,0,-1,804,1394,0,0
-413,-370,0,0,0,0,0,0,0,0,0,-1,811,1394,0,0
-406,-370,0,0,0,0,0,0,0,0,0,-1,818,1394,0,0
-399,-370,0,0,0,0,0,0,0,0,0,-1,825,1394,0,0
-392,-370,0,0,0,0,0,0,0,0,0,-1,832,1394,0,0
-385,-370,0,0,0,0,0,0,0,0,0,-1,839,1394,0,0
-378,-370,0,0,0,0,0,0,0,0,0,-1,846,1394,0,0
-371,-370,0,0,0,0,0,0,0,0,0,-1,853,1394,0,0
-364,-370,0,0,0,0,0,0,0,0,0,-1,860,1394,0,0
-357,-370,0,0,0,0,0,0,0,0,0,-1,867,1394,0,0
-350,-370,0,0,0,0,0,0,0,0,0,-1,874,1394,0,0
-343,-370,0,0,0,0,0,0,0,0,0,-1,881,1394,0,0
-336,-370,0,0,0,0,0,0,0,0,0,-1,888,1394,0,0
-329,-370,0,0,0,0,0,0,0,0,0,-1,895,1394,0,0
-322,-370,0,0,0,0,0,0,0,0,0,-1,902,1394,0,0
-315,-370,0,0,0,0,0,0,0,0,0,-1,909,1394,0,0
-308,-370,0,0,0,0,0,0,0,0,0,-1,916,1394,0,0
-301,-370,0,0,0,0,0,0,0,0,0,-1,923,1394,0,0
-294,-370,0,0,0,0,0,0,0,0,0,-1,930,1394,0,0
-287,-370,0,0,0,0,0,0,0,0,0,-1,937,1394,0,0
-280,-370,0,0,0,0,0,0,0,0,0,-1,944,1394,0,0
-273,-370,0,0,0,0,0,0,0,0,0,-1,951,1394,0,0
-266,-370,0,0,0,0,0,0,0,0,0,-1,958,1394,0,0
-259,-370,0,0,0,0,0,0,0,0,0,-1,965,1394,0,0
-252,-370,0,0,0,0,0,0,0,0,0,-1,972,1394,0,0
-245,-370,0,0,0,0,0,0,0,0,0,-1,979,1394,0,0
-238,-370,0,0,0,0,0,0,0,0,0,-1,986,1394,0,0
-231,-370,0,0,0,0,0,0,0,0,0,-1,993,1394,0,0
-224,-370,0,0,0,0,0,0,0,0,0,-1,1000,1394,0,0
-217,-370,0,0,0,0,0,0,0,0,0,-1,1007,1394,0,0
-210,-370,0,0,0,0,0,0,0,0,0,-1,1014,1394,0,0
-203,-370,0,0,0,0,0,0,0,0,0,-1,1021,1394,0,0
-196,-370,0,0,0,0,0,0,0,0,0,-1,1028,1394,0,0
-189,-370,0,0,0,0,0,0,0,0,0,-1,1035,1394,0,0
-182,-370,0,0,0,0,0,0,0,0,0,-1,1042,1394,0,0
-175,-370,0,0,0,0,0,0,0,0,0,-1,1049,1394,0,0
-168,-370,0,0,0,0,0,0,0,0,0,-1,1056,1394,0,0
-161,-370,0,0,0,0,0,0,0,0,0,-1,1063,1394,0,0
-154,-370,0,0,0,0,0,0,0,0,0,-1,1070,1394,0,0
-147,-370,0,0,0,0,0,0,0,0,0,-1,1077,1394,0,0
-140,-370,0,0,0,0,0,0,0,0,0,-1,1084,1394,0,0
-133,-370,0,0,0,0,0,0,0,0,0,-1,1091,1394,0,0
-126,-370,0,0,0,0,0,0,0,0,0,-1,1098,1394,0,0
-119,-370,0,0,0,0,0,0,0,0,0,-1,1105,1394,0,0
-112,-370,0,0,0,0,0,0,0,0,0,-1,1112,1394,0,0
-105,-370,0,0,0,0,0,0,0,0,0,-1,1119,1394,0,0
-98,-370,0,0,0,0,0,0,0,0,0,-1,1126,1394,0,0
-91,-370,0,0,0,0,0,0,0,0,0,-1,1133,1394,0,0
-84,-370,0,0,0,0,0,0,0,0,0,-1,1140,1394,0,0
-77,-370,0,0,0,0,0,0,0,0,0,-1,1147,1394,0,0
-70,-370,0,0,0,0,0,0,0,0,0,-1,1154,1394,0,0
-63,-370,0,0,0,0,0,0,0,0,0,-1,1161,1394,0,0
-56,-370,0,0,0,0,0,0,0,0,0,-1,1168,1394,0,0
-49,-370,0,0,0,0,0,0,0,0,0,-1,1175,1394,0,0
-42,-370,0,0,0,0,0,0,0,0,0,-1,1182,1394,0,0
-35,-370,0,0,0,0,0,0,0,0,0,-1,1189,1394,0,0
-28,-370,0,0,0,0,0,0,0,0,0,-1,1196,1394,0,0
-21,-370,0,0,0,0,0,0,0,0,0,-1,1203,1394,0,0
-14,-370,0,0,0,0,0,0,0,0,0,-1,1210,1394,0,0
-7,-370,0,0,0,0,0,0,0,0,0,-1,1217,1394,0,0
0,-370,0,0,0,0,0,0,0,0,0,-1,1224,1394,0,0
7,-370,0,0,0,0,0,0,0,0,0,-1,1231,1394,0,0
14,-370,0,0,0,0,0,0,0,0,0,-1,1238,1394,0,0
21,-370,0,0,0,0,0,0,0,0,0,-1,1245,1394,0,0
28,-370,0,0,0,0,0,0,0,0,0,-1,1252,1394,0,0
35,-370,0,0,0,0,0,0,0,0,0,-1,1259,1394,0,0
42,-370,0,0,0,0,0,0,0,0,0,-1,1266,1394,0,0
49,-370,0,0,0,0,0,0,0,0,0,-1,1273,1394,0,0
56,-370,0,0,0,0,0,0,0,0,0,-1,1280,1394,0,0
63,-370,0,0,0,0,0,0,0,0,0,-1,1287,1394,0,0
70,-370,0,0,0,0,0,0,0,0,0,-1,1294,1394,0,0
77,-370,0,0,0,0,0,0,0,0,0,-1,1301,1394,0,0
84,-370,0,0,0,0,0,0,0,0,0,-1,1308,1394,0,0
91,-370,0,0,0,0,0,0,0,0,0,-1,1315,1394,0,0
98,-370,0,0,0,0,0,0,0,0,0,-1,1322,1394,0,0
105,-370,0,0,0,0,0,0,0,0,0,-1,1329,1394,0,0
112,-370,0,0,0,0,0,0,0,0,0,-1,1336,1394,0,0
119,-370,0,0,0,0,0,0,0,0,0,-1,1343,1394,0,0
126,-370,0,0,0,0,0,0,0,0,0,-1,1350,1394,0,0
133,-370,0,0,0,0,0,0,0,0,0,-1,1357,1394,0,0
140,-370,0,0,0,0,0,0,0,0,0,-1,1364,1394,0,0
147,-370,0,0,0,0,0,0,0,0,0,-1,1371,1394,0,0
154,-370,0,0,0,0,0,0,0,0,0,-1,1378,1394,0,0
161,-370,0,0,0,0,0,0,0,0,0,-1,1385,1394,0,0
168,-370,0,0,0,0,0,0,0,0,0,-1,1392,1394,0,0
175,-370,0,0,0,0,0,0,0,0,0,-1,1399,1394,0,0
182,-370,0,0,0,0,0,0,0,0,0,-1,1406,1394,0,0
189,-370,0,0,0,0,0,0,0,0,0,-1,1413,1394,0,0
196,-370,0,0,0,0,0,0,0,0,0,-1,1420,1394,0,0
203,-370,0,0,0,0,0,0,0,0,0,-1,1427,1394,0,0
210,-370,0,0,0,0,0,0,0,0,0,-1,1434,1394,0,0
217,-370,0,0,0,0,0,0,0,0,0,-1,1441,1394,0,0
224,-370,0,0,0,0,0,0,0,0,0,-1,1448,1394,0,0
231,-370,0,0,0,0,0,0,0,0,0,-1,1455,1394,0,0
238,-370,0,0,0,0,0,0,0,0,0,-1,1462,1394,0,0
245,-370,0,0,0,0,0,0,0,0,0,-1,1469,1394,0,0
252,-370,0,0,0,0,0,0,0,0,0,-1,1476,1394,0,0
259,-370,0,0,0,0,0,0,0,0,0,-1,1483,1394,0,0
266,-370,0,0,0,0,0,0,0,0,0,-1,1490,1394,0,0
273,-370,0,0,0,0,0,0,0,0,0,-1,1497,1394,0,0
280,-370,0,0,0,0,0,0,0,0,0,-1,1504,1394,0,0
287,-370,0,0,0,0,0,0,0,0,0,-1,1511,1394,0,0
294,-370,0,0,0,0,0,0,0,0,0,-1,1518,1394,0,0
301,-370,0,0,0,0,0,0,0,0,0,-1,1525,1394,0,0
308,-370,0,0,0,0,0,0,0,0,0,-1,1532,1394,0,0
315,-370,0,0,0,0,0,0,0,0,0,-1,1539,1394,0,0
322,-370,0,0,0,0,0,0,0,0,0,-1,1546,1394,0,0
329,-370,0,0,0,0,0,0,0,0,0,-1,1553,1394,0,0
336,-370,0,0,0,0,0,0,0,0,0,-1,1560,1394,0,0
343,-370,0,0,0,0,0,0,0,0,0,-1,1567,1394,0,0
350,-370,0,0,0,0,0,0,0,0,0,-1,1574,1394,0,0
357,-370,0,0,0,0,0,0,0,0,0,-1,1581,1394,0,0
364,-370,0,0,0,0,0,0,0,0,0,-1,1588,1394,0,0
371,-370,0,0,0,0,0,0,0,0,0,-1,1595,1394,0,0
378,-370,0,0,0,0,0,0,0,0,0,-1,1602,1394,0,0
385,-370,0,0,0,0,0,0,0,0,0,-1,1609,1394,0,0
392,-370,0,0,0,0,0,0,0,0,0,-1,1616,1394,0,0
399,-370,0,0,0,0,0,0,0,0,0,-1,1623,1394,0,0
406,-370,0,0,0,0,0,0,0,0,0,-1,1630,1394,0,0
413,-370,0,0,0,0,0,0,0,0,0,-1,1637,1394,0,0
420,-370,0,0,0,0,0,0,0,0,0,-1,1644,1394,0,0
427,-370,0,0,0,0,0,0,0,0,0,-1,1651,1394,0,0
434,-370,0,0,0,0,0,0,0,0,0,-1,1658,1394,0,0
441,-370,0,0,0,0,0,0,0,0,0,-1,1665,1394,0,0
448,-370,0,0,0,0,0,0,0,0,0,-1,1672,1394,0,0
455,-370,0,0,0,0,0,0,0,0,0,-1,1679,1394,0,0
462,-370,0,0,0,0,0,0,0,0,0,-1,1686,1394,0,0
469,-370,0,0,0,0,0,0,0,0,0,-1,1693,1394,0,0
476,-370,0,0,0,0,0,0,0,0,0,-1,1700,1394,0,0
483,-370,0,0,0,0,0,0,0,0,0,-1,1707,1394,0,0
490,-370,0,0,0,0,0,0,0,0,0,-1,1714,1394,0,0
497,-370,0,0,0,0,0,0,0,0,0,-1,1721,1394,0,0
504,-370,0,0,0,0,0,0,0,0,0,-1,1728,1394,0,0
511,-370,0,0,0,0,0,0,0,0,0,-1,1735,1394,0,0
518,-370,0,0,0,0,0,0,0,0,0,-1,1742,1394,0,0
525,-370,0,0,0,0,0,0,0,0,0,-1,1749,1394,0,0
532,-370,0,0,0,0,0,0,0,0,0,-1,1756,1394,0,0
539,-370,0,0,0,0,0,0,0,0,0,-1,1763,1394,0,0
546,-370,27.4949,2.81201,0,0,0,0,0,0,0,-1,1770,1394,27.4948,-2.81198
553,-370,26.5985,1.99329,0,0,0,0,0,0,0,-1,1777,1394,26.5985,-1.99327
560,-370,46.0132,3.65686,0,0,0,0,0,0,0,-1,1784,1394,46.0132,-3.65689
567,-370,46.1089,3.11719,0,0,0,0,0,0,0,-1,1791,1394,46.1089,-3.1172
574,-370,38.8953,1.49353,0,0,0,0,0,0,0,-1,1798,1394,38.8952,-1.49348
581,-370,39.178,2.86145,0,0,0,0,0,0,0,-1,1805,1394,39.1779,-2.86145
588,-370,39.2102,4.27661,0,0,0,0,0,0,0,-1,1812,1394,39.2102,-4.27657
595,-370,25.793,4.5271,0,0,0,0,0,0,0,-1,1819,1394,25.793,-4.52711
602,-370,25.1077,5.34937,0,0,0,0,0,0,0,-1,1826,1394,25.1077,-5.34932
609,-370,16.712,0.993286,0,0,0,0,0,0,0,-1,1833,1394,16.7121,-0.99323
616,-370,16.7764,7.23315,0,0,0,0,0,0,0,-1,1840,1394,16.7764,-7.23313
623,-370,17.6625,8.94263,0,0,0,0,0,0,0,-1,1847,1394,17.6624,-8.94258
630,-370,20.9681,11.1785,0,0,0,0,0,0,0,-1,1854,1394,20.9681,-11.1784
637,-370,36.0814,18.2327,0,0,0,0,0,0,0,-1,1861,1394,36.0814,-18.2327
644,-370,36.4988,17.196,0.000997012,0.0012969,-0.00151191,0.00266628,-0.000372372,-0.834824,0.00191376,0.0143298,1868,1394,36.4987,-17.1961
651,-370,36.4688,16.5295,0.000803483,0.000660585,-0.000821275,0.00155641,-9.2343e-05,-0.742009,0.00106972,0.0121881,1875,1394,36.4688,-16.5295
658,-370,36.4294,15.8912,0.00102167,0.000207857,-0.000340567,0.00114539,8.4143e-05,-0.348438,0.000737146,0.0123316,1882,1394,36.4294,-15.8912
665,-370,36.3909,15.2406,0.00143903,-0.000196997,2.61789e-05,0.00143945,-0.000197415,0.015996,0.00103176,0.0143934,1889,1394,36.3909,-15.2406
672,-370,36.3356,14.575,0.00203862,-0.000558087,0.000319525,0.00207736,-0.000596827,0.120652,0.0016209,0.0159878,1896,1394,36.3355,-14.575
679,-370,36.3431,13.9359,0.00280917,-0.000875867,0.000538762,0.00288632,-0.00095302,0.142237,0.00230842,0.0152674,1903,1394,36.3431,-13.9359
686,-370,36.3107,13.3115,0.00378509,-0.00111312,0.000646547,0.003869,-0.00119703,0.129052,0.00305747,0.0147077,1910,1394,36.3107,-13.3115
693,-370,36.27,12.6248,0.0050215,-0.0011876,0.000579981,0.00507521,-0.00124131,0.0923436,0.00386429,0.0140568,1917,1394,36.2701,-12.6247
700,-370,36.3972,11.8464,0.00650753,-0.00108036,0.000397238,0.00652827,-0.0011011,0.0521615,0.00476184,0.0450666,1924,1394,36.3972,-11.8465
707,-370,36.6266,10.9845,0,0,0,0,0,0,0,-1,1931,1394,36.6266,-10.9845
714,-370,16.9116,5.93018,0,0,0,0,0,0,0,-1,1938,1394,16.9116,-5.93014
721,-370,17.2007,4.69153,0,0,0,0,0,0,0,-1,1945,1394,17.2007,-4.69158
728,-370,20.5315,-0.313354,0,0,0,0,0,0,0,-1,1952,1394,20.5315,0.313332
735,-370,22.3652,0.233398,0,0,0,0,0,0,0,-1,1959,1394,22.3652,-0.233355
742,-370,24.1989,0.780029,0,0,0,0,0,0,0,-1,1966,1394,24.1989,-0.780041
749,-370,0,0,0,0,0,0,0,0,0,-1,1973,1394,0,0
756,-370,0,0,0,0,0,0,0,0,0,-1,1980,1394,0,0
763,-370,0,0,0,0,0,0,0,0,0,-1,1987,1394,0,0
770,-370,0,0,0,0,0,0,0,0,0,-1,1994,1394,0,0
777,-370,0,0,0,0,0,0,0,0,0,-1,2001,1394,0,0
784,-370,0,0,0,0,0,0,0,0,0,-1,2008,1394,0,0
791,-370,0,0,0,0,0,0,0,0,0,-1,2015,1394,0,0
798,-370,0,0,0,0,0,0,0,0,0,-1,2022,1394,0,0
805,-370,0,0,0,0,0,0,0,0,0,-1,2029,1394,0,0
812,-370,0,0,0,0,0,0,0,0,0,-1,2036,1394,0,0
-700,-377,0,0,0,0,0,0,0,0,0,-1,524,1401,0,0
-693,-377,0,0,0,0,0,0,0,0,0,-1,531,1401,0,0
-686,-377,0,0,0,0,0,0,0,0,0,-1,538,1401,0,0
-679,-377,0,0,0,0,0,0,0,0,0,-1,545,1401,0,0
-672,-377,0,0,0,0,0,0,0,0,0,-1,552,1401,0,0
-665,-377,0,0,0,0,0,0,0,0,0,-1,559,1401,0,0
-658,-377,0,0,0,0,0,0,0,0,0,-1,566,1401,0,0
-651,-377,0,0,0,0,0,0,0,0,0,-1,573,1401,0,0
-644,-377,0,0,0,0,0,0,0,0,0,-1,580,1401,0,0
-637,-377,0,0,0,0,0,0,0,0,0,-1,587,1401,0,0
-630,-377,0,0,0,0,0,0,0,0,0,-1,594,1401,0,0
-623,-377,0,0,0,0,0,0,0,0,0,-1,601,1401,0,0
-616,-377,-9.43915,-2.4906,0,0,0,0,0,0,0,-1,608,1401,-9.43915,2.49062
-609,-377,-7.2821,-1.35278,0,0,0,0,0,0,0,-1,615,1401,-7.28208,1.35279
-602,-377,-14.9736,3.98279,0,0,0,0,0,0,0,-1,622,1401,-14.9737,-3.98276
-595,-377,-6.9082,1.18201,0,0,0,0,0,0,0,-1,629,1401,-6.90822,-1.18204
-588,-377,-12.8003,3.44751,0,0,0,0,0,0,0,-1,636,1401,-12.8003,-3.44754
-581,-377,-11.8243,6.21521,0,0,0,0,0,0,0,-1,643,1401,-11.8244,-6.21519
-574,-377,-12.2761,6.60547,0,0,0,0,0,0,0,-1,650,1401,-12.2761,-6.60552
-567,-377,-13.4844,7.41931,0,0,0,0,0,0,0,-1,657,1401,-13.4845,-7.41926
-560,-377,-18.8223,10.8138,0,0,0,0,0,0,0,-1,664,1401,-18.8223,-10.8138
-553,-377,-18.6575,11.6484,0.00457422,0.00247535,0.00267291,0.00639633,0.00065324,0.598335,0.00406401,0.0175109,671,1401,-18.6575,-11.6484
-546,-377,-18.6723,12.4225,0.00375861,0.00175835,0.00206331,0.0050514,0.000465552,0.559724,0.00322364,0.0166929,678,1401,-18.6723,-12.4225
-539,-377,-18.6536,13.0837,0.00320124,0.00123309,0.00163963,0.00412944,0.000304889,0.515122,0.00265717,0.0210513,685,1401,-18.6536,-13.0838
-532,-377,-18.7303,13.7584,0.00285713,0.000866968,0.00137956,0.00356304,0.000161056,0.472958,0.00232354,0.0209938,692,1401,-18.7303,-13.7584
-525,-377,-18.7078,14.4712,0.00271176,0.000666446,0.00128632,0.00333241,4.57983e-05,0.449548,0.0022065,0.0225418,699,1401,-18.7078,-14.4712
-518,-377,-18.752,15.1515,0.00275919,0.000586574,0.00133808,0.0033964,-5.06368e-05,0.444438,0.00228134,0.0147967,706,1401,-18.7519,-15.1514
-511,-377,-18.7856,15.8514,0.00304286,0.000714223,0.00158384,0.00384429,-8.72118e-05,0.468442,0.00259242,0.0128639,713,1401,-18.7856,-15.8515
-504,-377,-18.8224,16.5684,0.00362222,0.00107335,0.00209529,0.00480021,-0.000104649,0.512171,0.00323559,0.0166081,720,1401,-18.8224,-16.5683
-497,-377,-18.3846,17.4717,0,0,0,0,0,0,0,-1,727,1401,-18.3846,-17.4717
-490,-377,-8.88409,10.1245,0,0,0,0,0,0,0,-1,734,1401,-8.8841,-10.1245
-483,-377,-5.6524,5.07324,0,0,0,0,0,0,0,-1,741,1401,-5.6524,-5.07325
-476,-377,-6.11682,5.10535,0,0,0,0,0,0,0,-1,748,1401,-6.11681,-5.10537
-469,-377,-10.3211,1.9281,0,0,0,0,0,0,0,-1,755,1401,-10.3211,-1.92808
-462,-377,-9.2204,1.0022,0,0,0,0,0,0,0,-1,762,1401,-9.22039,-1.00218
-455,-377,-8.11969,0.0762939,0,0,0,0,0,0,0,-1,769,1401,-8.11968,-0.0762759
-448,-377,-9.05334,0.877319,0,0,0,0,0,0,0,-1,776,1401,-9.05332,-0.877324
-441,-377,-11.212,0.763428,0,0,0,0,0,0,0,-1,783,1401,-11.212,-0.763415
-434,-377,-11.0984,0.996216,0,0,0,0,0,0,0,-1,790,1401,-11.0984,-0.996265
-427,-377,-11.1733,1.25732,0,0,0,0,0,0,0,-1,797,1401,-11.1733,-1.25732
-420,-377,0,0,0,0,0,0,0,0,0,-1,804,1401,0,0
-413,-377,0,0,0,0,0,0,0,0,0,-1,811,1401,0,0
-406,-377,0,0,0,0,0,0,0,0,0,-1,818,1401,0,0
-399,-377,0,0,0,0,0,0,0,0,0,-1,825,1401,0,0
-392,-377,0,0,0,0,0,0,0,0,0,-1,832,1401,0,0
-385,-377,0,0,0,0,0,0,0,0,0,-1,839,1401,0,0
-378,-377,0,0,0,0,0,0,0,0,0,-1,846,1401,0,0
-371,-377,0,0,0,0,0,0,0,0,0,-1,853,1401,0,0
-364,-377,0,0,0,0,0,0,0,0,0,-1,860,1401,0,0
-357,-377,0,0,0,0,0,0,0,0,0,-1,867,1401,0,0
-350,-377,0,0,0,0,0,0,0,0,0,-1,874,1401,0,0
-343,-377,0,0,0,0,0,0,0,0,0,-1,881,1401,0,0
-336,-377,0,0,0,0,0,0,0,0,0,-1,888,1401,0,0
-329,-377,0,0,0,0,0,0,0,0,0,-1,895,1401,0,0
-322,-377,0,0,0,0,0,0,0,0,0,-1,902,1401,0,0
-315,-377,0,0,0,0,0,0,0,0,0,-1,909,1401,0,0
-308,-377,0,0,0,0,0,0,0,0,0,-1,916,1401,0,0
-301,-377,0,0,0,0,0,0,0,0,0,-1,923,1401,0,0
-294,-377,0,0,0,0,0,0,0,0,0,-1,930,1401,0,0
-287,-377,0,0,0,0,0,0,0,0,0,-1,937,1401,0,0
-280,-377,0,0,0,0,0,0,0,0,0,-1,944,1401,0,0
-273,-377,0,0,0,0,0,0,0,0,0,-1,951,1401,0,0
-266,-377,0,0,0,0,0,0,0,0,0,-1,958,1401,0,0
-259,-377,0,0,0,0,0,0,0,0,0,-1,965,1401,0,0
-252,-377,0,0,0,0,0,0,0,0,0,-1,972,1401,0,0
-245,-377,0,0,0,0,0,0,0,0,0,-1,979,1401,0,0
-238,-377,0,0,0,0,0,0,0,0,0,-1,986,1401,0,0
-231,-377,0,0,0,0,0,0,0,0,0,-1,993,1401,0,0
-224,-377,0,0,0,0,0,0,0,0,0,-1,1000,1401,0,0
-217,-377,0,0,0,0,0,0,0,0,0,-1,1007,1401,0,0
-210,-377,0,0,0,0,0,0,0,0,0,-1,1014,1401,0,0
-203,-377,0,0,0,0,0,0,0,0,0,-1,1021,1401,0,0
-196,-377,0,0,0,0,0,0,0,0,0,-1,1028,1401,0,0
-189,-377,0,0,0,0,0,0,0,0,0,-1,1035,1401,0,0
-182,-377,0,0,0,0,0,0,0,0,0,-1,1042,1401,0,0
-175,-377,0,0,0,0,0,0,0,0,0,-1,1049,1401,0,0
-168,-377,0,0,0,0,0,0,0,0,0,-1,1056,1401,0,0
-161,-377,0,0,0,0,0,0,0,0,0,-1,1063,1401,0,0
-154,-377,0,0,0,0,0,0,0,0,0,-1,1070,1401,0,0
-147,-377,0,0,0,0,0,0,0,0,0,-1,1077,1401,0,0
-140,-377,0,0,0,0,0,0,0,0,0,-1,1084,1401,0,0
-133,-377,0,0,0,0,0,0,0,0,0,-1,1091,1401,0,0
-126,-377,0,0,0,0,0,0,0,0,0,-1,1098,1401,0,0
-119,-377,0,0,0,0,0,0,0,0,0,-1,1105,1401,0,0
-112,-377,0,0,0,0,0,0,0,0,0,-1,1112,1401,0,0
-105,-377,0,0,0,0,0,0,0,0,0,-1,1119,1401,0,0
-98,-377,0,0,0,0,0,0,0,0,0,-1,1126,1401,0,0
-91,-377,0,0,0,0,0,0,0,0,0,-1,1133,1401,0,0
-84,-377,0,0,0,0,0,0,0,0,0,-1,1140,1401,0,0
-77,-377,0,0,0,0,0,0,0,0,0,-1,1147,1401,0,0
-70,-377,0,0,0,0,0,0,0,0,0,-1,1154,1401,0,0
-63,-377,0,0,0,0,0,0,0,0,0,-1,1161,1401,0,0
-56,-377,0,0,0,0,0,0,0,0,0,-1,1168,1401,0,0
-49,-377,0,0,0,0,0,0,0,0,0,-1,1175,1401,0,0
-42,-377,0,0,0,0,0,0,0,0,0,-1,1182,1401,0,0
-35,-377,0,0,0,0,0,0,0,0,0,-1,1189,1401,0,0
-28,-377,0,0,0,0,0,0,0,0,0,-1,1196,1401,0,0
-21,-377,0,0,0,0,0,0,0,0,0,-1,1203,1401,0,0
-14,-377,0,0,0,0,0,0,0,0,0,-1,1210,1401,0,0
-7,-377,0,0,0,0,0,0,0,0,0,-1,1217,1401,0,0
0,-377,0,0,0,0,0,0,0,0,0,-1,1224,1401,0,0
7,-377,0,0,0,0,0,0,0,0,0,-1,1231,1401,0,0
14,-377,0,0,0,0,0,0,0,0,0,-1,1238,1401,0,0
21,-377,0,0,0,0,0,0,0,0,0,-1,1245,1401,0,0
28,-377,0,0,0,0,0,0,0,0,0,-1,1252,1401,0,0
35,-377,0,0,0,0,0,0,0,0,0,-1,1259,1401,0,0
42,-377,0,0,0,0,0,0,0,0,0,-1,1266,1401,0,0
49,-377,0,0,0,0,0,0,0,0,0,-1,1273,1401,0,0
56,-377,0,0,0,0,0,0,0,0,0,-1,1280,1401,0,0
63,-377,0,0,0,0,0,0,0,0,0,-1,1287,1401,0,0
70,-377,0,0,0,0,0,0,0,0,0,-1,1294,1401,0,0
77,-377,0,0,0,0,0,0,0,0,0,-1,1301,1401,0,0
84,-377,0,0,0,0,0,0,0,0,0,-1,1308,1401,0,0
91,-377,0,0,0,0,0,0,0,0,0,-1,1315,1401,0,0
98,-377,0,0,0,0,0,0,0,0,0,-1,1322,1401,0,0
105,-377,0,0,0,0,0,0,0,0,0,-1,1329,1401,0,0
112,-377,0,0,0,0,0,0,0,0,0,-1,1336,1401,0,0
119,-377,0,0,0,0,0,0,0,0,0,-1,1343,1401,0,0
126,-377,0,0,0,0,0,0,0,0,0,-1,1350,1401,0,0
133,-377,0,0,0,0,0,0,0,0,0,-1,1357,1401,0,0
140,-377,0,0,0,0,0,0,0,0,0,-1,1364,1401,0,0
147,-377,0,0,0,0,0,0,0,0,0,-1,1371,1401,0,0
154,-377,0,0,0,0,0,0,0,0,0,-1,1378,1401,0,0
161,-377,0,0,0,0,0,0,0,0,0,-1,1385,1401,0,0
168,-377,0,0,0,0,0,0,0,0,0,-1,1392,1401,0,0
175,-377,0,0,0,0,0,0,0,0,0,-1,1399,1401,0,0
182,-377,0,0,0,0,0,0,0,0,0,-1,1406,1401,0,0
189,-377,0,0,0,0,0,0,0,0,0,-1,1413,1401,0,0
196,-377,0,0,0,0,0,0,0,0,0,-1,1420,1401,0,0
203,-377,0,0,0,0,0,0,0,0,0,-1,1427,1401,0,0
210,-377,0,0,0,0,0,0,0,0,0,-1,1434,1401,0,0
217,-377,0,0,0,0,0,0,0,0,0,-1,1441,1401,0,0
224,-377,0,0,0,0,0,0,0,0,0,-1,1448,1401,0,0
231,-377,0,0,0,0,0,0,0,0,0,-1,1455,1401,0,0
238,-377,0,0,0,0,0,0,0,0,0,-1,1462,1401,0,0
245,-377,0,0,0,0,0,0,0,0,0,-1,1469,1401,0,0
252,-377,0,0,0,0,0,0,0,0,0,-1,1476,1401,0,0
259,-377,0,0,0,0,0,0,0,0,0,-1,1483,1401,0,0
266,-377,0,0,0,0,0,0,0,0,0,-1,1490,1401,0,0
273,-377,0,0,0,0,0,0,0,0,0,-1,1497,1401,0,0
280,-377,0,0,0,0,0,0,0,0,0,-1,1504,1401,0,0
287,-377,0,0,0,0,0,0,0,0,0,-1,1511,1401,0,0
294,-377,0,0,0,0,0,0,0,0,0,-1,1518,1401,0,0
301,-377,0,0,0,0,0,0,0,0,0,-1,1525,1401,0,0
308,-377,0,0,0,0,0,0,0,0,0,-1,1532,1401,0,0
315,-377,0,0,0,0,0,0,0,0,0,-1,1539,1401,0,0
322,-377,0,0,0,0,0,0,0,0,0,-1,1546,1401,0,0
329,-377,0,0,0,0,0,0,0,0,0,-1,1553,1401,0,0
336,-377,0,0,0,0,0,0,0,0,0,-1,1560,1401,0,0
343,-377,0,0,0,0,0,0,0,0,0,-1,1567,1401,0,0
350,-377,0,0,0,0,0,0,0,0,0,-1,1574,1401,0,0
357,-377,0,0,0,0,0,0,0,0,0,-1,1581,1401,0,0
364,-377,0,0,0,0,0,0,0,0,0,-1,1588,1401,0,0
371,-377,0,0,0,0,0,0,0,0,0,-1,1595,1401,0,0
378,-377,0,0,0,0,0,0,0,0,0,-1,1602,1401,0,0
385,-377,0,0,0,0,0,0,0,0,0,-1,1609,1401,0,0
392,-377,0,0,0,0,0,0,0,0,0,-1,1616,1401,0,0
399,-377,0,0,0,0,0,0,0,0,0,-1,1623,1401,0,0
406,-377,0,0,0,0,0,0,0,0,0,-1,1630,1401,0,0
413,-377,0,0,0,0,0,0,0,0,0,-1,1637,1401,0,0
420,-377,0,0,0,0,0,0,0,0,0,-1,1644,1401,0,0
427,-377,0,0,0,0,0,0,0,0,0,-1,1651,1401,0,0
434,-377,0,0,0,0,0,0,0,0,0,-1,1658,1401,0,0
441,-377,0,0,0,0,0,0,0,0,0,-1,1665,1401,0,0
448,-377,0,0,0,0,0,0,0,0,0,-1,1672,1401,0,0
455,-377,0,0,0,0,0,0,0,0,0,-1,1679,1401,0,0
462,-377,0,0,0,0,0,0,0,0,0,-1,1686,1401,0,0
469,-377,0,0,0,0,0,0,0,0,0,-1,1693,1401,0,0
476,-377,0,0,0,0,0,0,0,0,0,-1,1700,1401,0,0
483,-377,0,0,0,0,0,0,0,0,0,-1,1707,1401,0,0
490,-377,0,0,0,0,0,0,0,0,0,-1,1714,1401,0,0
497,-377,0,0,0,0,0,0,0,0,0,-1,1721,1401,0,0
504,-377,0,0,0,0,0,0,0,0,0,-1,1728,1401,0,0
511,-377,0,0,0,0,0,0,0,0,0,-1,1735,1401,0,0
518,-377,0,0,0,0,0,0,0,0,0,-1,1742,1401,0,0
525,-377,0,0,0,0,0,0,0,0,0,-1,1749,1401,0,0
532,-377,0,0,0,0,0,0,0,0,0,-1,1756,1401,0,0
539,-377,0,0,0,0,0,0,0,0,0,-1,1763,1401,0,0
546,-377,27.8485,2.34094,0,0,0,0,0,0,0,-1,1770,1401,27.8486,-2.34091
553,-377,27.2189,2.42493,0,0,0,0,0,0,0,-1,1777,1401,27.2188,-2.42498
560,-377,38.3577,-2.15015,0,0,0,0,0,0,0,-1,1784,1401,38.3576,2.1501
567,-377,38.4889,-0.285645,0,0,0,0,0,0,0,-1,1791,1401,38.4889,0.2857
574,-377,38.6221,1.61694,0,0,0,0,0,0,0,-1,1798,1401,38.6221,-1.61689
581,-377,39.1818,3.76367,0,0,0,0,0,0,0,-1,1805,1401,39.1818,-3.76366
588,-377,25.882,4.35217,0,0,0,0,0,0,0,-1,1812,1401,25.8819,-4.3522
595,-377,25.5392,5.11804,0,0,0,0,0,0,0,-1,1819,1401,25.5392,-5.11808
602,-377,24.816,5.79126,0,0,0,0,0,0,0,-1,1826,1401,24.816,-5.79124
609,-377,15.0223,4.76135,0,0,0,0,0,0,0,-1,1833,1401,15.0224,-4.76129
616,-377,14.1842,5.78992,0,0,0,0,0,0,0,-1,1840,1401,14.1842,-5.78987
623,-377,15.8248,8.76721,0,0,0,0,0,0,0,-1,1847,1401,15.8248,-8.76725
630,-377,35.2161,18.9797,0,0,0,0,0,0,0,-1,1854,1401,35.2161,-18.9797
637,-377,35.6873,17.9387,0.00159116,0.00115981,-0.00157501,0.00296519,-0.000214228,-0.717354,0.00205193,0.0452585,1861,1401,35.6873,-17.9387
644,-377,35.8361,17.2183,0.00113615,0.000873109,-0.00117295,0.00218493,-0.000175672,-0.729568,0.00151857,0.0134648,1868,1401,35.836,-17.2183
651,-377,35.8069,16.5436,0.00106655,0.000397163,-0.000621695,0.00143792,2.57933e-05,-0.538468,0.000950132,0.0138478,1875,1401,35.8069,-16.5436
658,-377,35.775,15.9063,0.00131675,-6.93621e-06,-0.000187888,0.0013429,-3.30889e-05,-0.138304,0.000906499,0.0154227,1882,1401,35.775,-15.9062
665,-377,35.7559,15.2429,0.00175391,-0.000406588,0.000187514,0.00177006,-0.000422742,0.085936,0.00134332,0.0189244,1889,1401,35.7558,-15.2429
672,-377,35.7108,14.5807,0.00238298,-0.000824016,0.000542044,0.00247212,-0.000913155,0.16299,0.00202239,0.0185948,1896,1401,35.7108,-14.5806
679,-377,35.6602,13.9536,0.00320067,-0.00124312,0.000860989,0.00336165,-0.00140411,0.184843,0.00282782,0.0183066,1903,1401,35.6601,-13.9536
686,-377,35.6519,13.3542,0.00425179,-0.0016429,0.00111174,0.00445449,-0.0018456,0.180349,0.00373988,0.0156608,1910,1401,35.6519,-13.3543
693,-377,35.6956,12.6715,0.00563785,-0.00191648,0.00119965,0.00582378,-0.00210241,0.153765,0.00474133,0.0201297,1917,1401,35.6956,-12.6715
700,-377,35.9586,12.0751,0,0,0,0,0,0,0,-1,1924,1401,35.9587,-12.0751
707,-377,28.6234,9.18152,0,0,0,0,0,0,0,-1,1931,1401,28.6234,-9.18151
714,-377,16.5369,5.45959,0,0,0,0,0,0,0,-1,1938,1401,16.5369,-5.4596
721,-377,17.0913,5.42529,0,0,0,0,0,0,0,-1,1945,1401,17.0914,-5.42529
728,-377,14.5396,2.79724,0,0,0,0,0,0,0,-1,1952,1401,14.5396,-2.7972
735,-377,23.2977,-0.991089,0,0,0,0,0,0,0,-1,1959,1401,23.2978,0.991076
742,-377,0,0,0,0,0,0,0,0,0,-1,1966,1401,0,0
749,-377,0,0,0,0,0,0,0,0,0,-1,1973,1401,0,0
756,-377,0,0,0,0,0,0,0,0,0,-1,1980,1401,0,0
763,-377,0,0,0,0,0,0,0,0,0,-1,1987,1401,0,0
770,-377,0,0,0,0,0,0,0,0,0,-1,1994,1401,0,0
777,-377,0,0,0,0,0,0,0,0,0,-1,2001,1401,0,0
784,-377,0,0,0,0,0,0,0,0,0,-1,2008,1401,0,0
791,-377,0,0,0,0,0,0,0,0,0,-1,2015,1401,0,0
798,-377,0,0,0,0,0,0,0,0,0,-1,2022,1401,0,0
805,-377,0,0,0,0,0,0,0,0,0,-1,2029,1401,0,0
812,-377,0,0,0,0,0,0,0,0,0,-1,2036,1401,0,0
-700,-384,0,0,0,0,0,0,0,0,0,-1,524,1408,0,0
-693,-384,0,0,0,0,0,0,0,0,0,-1,531,1408,0,0
-686,-384,0,0,0,0,0,0,0,0,0,-1,538,1408,0,0
-679,-384,0,0,0,0,0,0,0,0,0,-1,545,1408,0,0
-672,-384,0,0,0,0,0,0,0,0,0,-1,552,1408,0,0
-665,-384,0,0,0,0,0,0,0,0,0,-1,559,1408,0,0
-658,-384,0,0,0,0,0,0,0,0,0,-1,566,1408,0,0
-651,-384,0,0,0,0,0,0,0,0,0,-1,573,1408,0,0
-644,-384,0,0,0,0,0,0,0,0,0,-1,580,1408,0,0
-637,-384,0,0,0,0,0,0,0,0,0,-1,587,1408,0,0
-630,-384,0,0,0,0,0,0,0,0,0,-1,594,1408,0,0
-623,-384,0,0,0,0,0,0,0,0,0,-1,601,1408,0,0
-616,-384,-10.019,-3.36646,0,0,0,0,0,0,0,-1,608,1408,-10.019,3.36648
-609,-384,-7.72357,-2.3418,0,0,0,0,0,0,0,-1,615,1408,-7.72358,2.34182
-602,-384,-11.7632,-2.85156,0,0,0,0,0,0,0,-1,622,1408,-11.7632,2.85157
-595,-384,-10.2217,2.8855,0,0,0,0,0,0,0,-1,629,1408,-10.2218,-2.88548
-588,-384,-12.1653,2.29041,0,0,0,0,0,0,0,-1,636,1408,-12.1654,-2.29038
-581,-384,-11.9297,3.60376,0,0,0,0,0,0,0,-1,643,1408,-11.9298,-3.6038
-574,-384,-11.8677,6.02722,0,0,0,0,0,0,0,-1,650,1408,-11.8677,-6.02722
-567,-384,-12.0743,7.04639,0,0,0,0,0,0,0,-1,657,1408,-12.0743,-7.04641
-560,-384,-18.2064,10.8165,0,0,0,0,0,0,0,-1,664,1408,-18.2064,-10.8165
-553,-384,-18.0116,11.6743,0.00508599,0.00287768,0.00310677,0.00727898,0.000684693,0.614658,0.00464129,0.0475319,671,1408,-18.0116,-11.6743
-546,-384,-17.9846,12.4551,0.00407554,0.00206022,0.00234036,0.00561595,0.000519813,0.582113,0.00358328,0.0149575,678,1408,-17.9845,-12.455
-539,-384,-18.0204,13.1338,0.00338426,0.00149584,0.00181715,0.00448787,0.00039223,0.545792,0.00287012,0.0163538,685,1408,-18.0204,-13.1338
-532,-384,-18.0338,13.7599,0.00292326,0.00108288,0.00146418,0.0037324,0.000273746,0.504854,0.00240222,0.0223687,692,1408,-18.0338,-13.7599
-525,-384,-18.0068,14.5337,0.0026877,0.000859127,0.00130163,0.00336406,0.000182766,0.479225,0.00218434,0.0216129,699,1408,-18.0068,-14.5336
-518,-384,-18.0717,15.2063,0.00264918,0.000749791,0.00128541,0.00329768,0.000101298,0.467243,0.00216548,0.0129786,706,1408,-18.0717,-15.2063
-511,-384,-18.1083,15.903,0.00283735,0.0008333,0.00144669,0.00359514,7.5508e-05,0.482515,0.00237199,0.0108391,713,1408,-18.1083,-15.903
-504,-384,-18.1317,16.6154,0.003295,0.00112191,0.00183432,0.00434043,7.64851e-05,0.518013,0.00286847,0.0126238,720,1408,-18.1317,-16.6154
-497,-384,-18.0656,17.3676,0.00406402,0.00161257,0.00250851,0.00563025,4.63403e-05,0.558144,0.00373815,0.046358,727,1408,-18.0656,-17.3676
-490,-384,-17.6022,18.3687,0,0,0,0,0,0,0,-1,734,1408,-17.6023,-18.3686
-483,-384,-6.26471,7.61194,0,0,0,0,0,0,0,-1,741,1408,-6.26469,-7.61191
-476,-384,-6.02734,5.67761,0,0,0,0,0,0,0,-1,748,1408,-6.02736,-5.6776
-469,-384,-10.206,2.63721,0,0,0,0,0,0,0,-1,755,1408,-10.206,-2.6372
-462,-384,-9.04291,1.43542,0,0,0,0,0,0,0,-1,762,1408,-9.04293,-1.43545
-455,-384,-7.87988,0.233765,0,0,0,0,0,0,0,-1,769,1408,-7.87986,-0.233709
-448,-384,-9.35529,7.19226,0,0,0,0,0,0,0,-1,776,1408,-9.35531,-7.19226
-441,-384,-10.4697,1.79004,0,0,0,0,0,0,0,-1,783,1408,-10.4697,-1.79003
-434,-384,-10.6449,0.552246,0,0,0,0,0,0,0,-1,790,1408,-10.6449,-0.552216
-427,-384,-10.968,1.10583,0,0,0,0,0,0,0,-1,797,1408,-10.968,-1.10588
-420,-384,-12.5607,4.54858,0,0,0,0,0,0,0,-1,804,1408,-12.5607,-4.54859
-413,-384,0,0,0,0,0,0,0,0,0,-1,811,1408,0,0
-406,-384,0,0,0,0,0,0,0,0,0,-1,818,1408,0,0
-399,-384,0,0,0,0,0,0,0,0,0,-1,825,1408,0,0
-392,-384,0,0,0,0,0,0,0,0,0,-1,832,1408,0,0
-385,-384,0,0,0,0,0,0,0,0,0,-1,839,1408,0,0
-378,-384,0,0,0,0,0,0,0,0,0,-1,846,1408,0,0
-371,-384,0,0,0,0,0,0,0,0,0,-1,853,1408,0,0
-364,-384,0,0,0,0,0,0,0,0,0,-1,860,1408,0,0
-357,-384,0,0,0,0,0,0,0,0,0,-1,867,1408,0,0
-350,-384,0,0,0,0,0,0,0,0,0,-1,874,1408,0,0
-343,-384,0,0,0,0,0,0,0,0,0,-1,881,1408,0,0
-336,-384,0,0,0,0,0,0,0,0,0,-1,888,1408,0,0
-329,-384,0,0,0,0,0,0,0,0,0,-1,895,1408,0,0
-322,-384,0,0,0,0,0,0,0,0,0,-1,902,1408,0,0
-315,-384,0,0,0,0,0,0,0,0,0,-1,909,1408,0,0
-308,-384,0,0,0,0,0,0,0,0,0,-1,916,1408,0,0
-301,-384,0,0,0,0,0,0,0,0,0,-1,923,1408,0,0
-294,-384,0,0,0,0,0,0,0,0,0,-1,930,1408,0,0
-287,-384,0,0,0,0,0,0,0,0,0,-1,937,1408,0,0
-280,-384,0,0,0,0,0,0,0,0,0,-1,944,1408,0,0
-273,-384,0,0,0,0,0,0,0,0,0,-1,951,1408,0,0
-266,-384,0,0,0,0,0,0,0,0,0,-1,958,1408,0,0
-259,-384,0,0,0,0,0,0,0,0,0,-1,965,1408,0,0
-252,-384,0,0,0,0,0,0,0,0,0,-1,972,1408,0,0
-245,-384,0,0,0,0,0,0,0,0,0,-1,979,1408,0,0
-238,-384,0,0,0,0,0,0,0,0,0,-1,986,1408,0,0
-231,-384,0,0,0,0,0,0,0,0,0,-1,993,1408,0,0
-224,-384,0,0,0,0,0,0,0,0,0,-1,1000,1408,0,0
-217,-384,0,0,0,0,0,0,0,0,0,-1,1007,1408,0,0
-210,-384,0,0,0,0,0,0,0,0,0,-1,1014,1408,0,0
-203,-384,0,0,0,0,0,0,0,0,0,-1,1021,1408,0,0
-196,-384,0,0,0,0,0,0,0,0,0,-1,1028,1408,0,0
-189,-384,0,0,0,0,0,0,0,0,0,-1,1035,1408,0,0
-182,-384,0,0,0,0,0,0,0,0,0,-1,1042,1408,0,0
-175,-384,0,0,0,0,0,0,0,0,0,-1,1049,1408,0,0
-168,-384,0,0,0,0,0,0,0,0,0,-1,1056,1408,0,0
-161,-384,0,0,0,0,0,0,0,0,0,-1,1063,1408,0,0
-154,-384,0,0,0,0,0,0,0,0,0,-1,1070,1408,0,0
-147,-384,0,0,0,0,0,0,0,0,0,-1,1077,1408,0,0
-140,-384,0,0,0,0,0,0,0,0,0,-1,1084,1408,0,0
-133,-384,0,0,0,0,0,0,0,0,0,-1,1091,1408,0,0
-126,-384,0,0,0,0,0,0,0,0,0,-1,1098,1408,0,0
-119,-384,0,0,0,0,0,0,0,0,0,-1,1105,1408,0,0
-112,-384,0,0,0,0,0,0,0,0,0,-1,1112,1408,0,0
-105,-384,0,0,0,0,0,0,0,0,0,-1,1119,1408,0,0
-98,-384,0,0,0,0,0,0,0,0,0,-1,1126,1408,0,0
-91,-384,0,0,0,0,0,0,0,0,0,-1,1133,1408,0,0
-84,-384,0,0,0,0,0,0,0,0,0,-1,1140,1408,0,0
-77,-384,0,0,0,0,0,0,0,0,0,-1,1147,1408,0,0
-70,-384,0,0,0,0,0,0,0,0,0,-1,1154,1408,0,0
-63,-384,0,0,0,0,0,0,0,0,0,-1,1161,1408,0,0
-56,-384,0,0,0,0,0,0,0,0,0,-1,1168,1408,0,0
-49,-384,0,0,0,0,0,0,0,0,0,-1,1175,1408,0,0
-42,-384,0,0,0,0,0,0,0,0,0,-1,1182,1408,0,0
-35,-384,0,0,0,0,0,0,0,0,0,-1,1189,1408,0,0
-28,-384,0,0,0,0,0,0,0,0,0,-1,1196,1408,0,0
-21,-384,0,0,0,0,0,0,0,0,0,-1,1203,1408,0,0
-14,-384,0,0,0,0,0,0,0,0,0,-1,1210,1408,0,0
-7,-384,0,0,0,0,0,0,0,0,0,-1,1217,1408,0,0
0,-384,0,0,0,0,0,0,0,0,0,-1,1224,1408,0,0
7,-384,0,0,0,0,0,0,0,0,0,-1,1231,1408,0,0
14,-384,0,0,0,0,0,0,0,0,0,-1,1238,1408,0,0
21,-384,0,0,0,0,0,0,0,0,0,-1,1245,1408,0,0
28,-384,0,0,0,0,0,0,0,0,0,-1,1252,1408,0,0
35,-384,0,0,0,0,0,0,0,0,0,-1,1259,1408,0,0
42,-384,0,0,0,0,0,0,0,0,0,-1,1266,1408,0,0
49,-384,0,0,0,0,0,0,0,0,0,-1,1273,1408,0,0
56,-384,0,0,0,0,0,0,0,0,0,-1,1280,1408,0,0
63,-384,0,0,0,0,0,0,0,0,0,-1,1287,1408,0,0
70,-384,0,0,0,0,0,0,0,0,0,-1,1294,1408,0,0
77,-384,0,0,0,0,0,0,0,0,0,-1,1301,1408,0,0
84,-384,0,0,0,0,0,0,0,0,0,-1,1308,1408,0,0
91,-384,0,0,0,0,0,0,0,0,0,-1,1315,1408,0,0
98,-384,0,0,0,0,0,0,0,0,0,-1,1322,1408,0,0
105,-384,0,0,0,0,0,0,0,0,0,-1,1329,1408,0,0
112,-384,0,0,0,0,0,0,0,0,0,-1,1336,1408,0,0
119,-384,0,0,0,0,0,0,0,0,0,-1,1343,1408,0,0
126,-384,0,0,0,0,0,0,0,0,0,-1,1350,1408,0,0
133,-384,0,0,0,0,0,0,0,0,0,-1,1357,1408,0,0
140,-384,0,0,0,0,0,0,0,0,0,-1,1364,1408,0,0
147,-384,0,0,0,0,0,0,0,0,0,-1,1371,1408,0,0
154,-384,0,0,0,0,0,0,0,0,0,-1,1378,1408,0,0
161,-384,0,0,0,0,0,0,0,0,0,-1,1385,1408,0,0
168,-384,0,0,0,0,0,0,0,0,0,-1,1392,1408,0,0
175,-384,0,0,0,0,0,0,0,0,0,-1,1399,1408,0,0
182,-384,0,0,0,0,0,0,0,0,0,-1,1406,1408,0,0
189,-384,0,0,0,0,0,0,0,0,0,-1,1413,1408,0,0
196,-384,0,0,0,0,0,0,0,0,0,-1,1420,1408,0,0
203,-384,0,0,0,0,0,0,0,0,0,-1,1427,1408,0,0
210,-384,0,0,0,0,0,0,0,0,0,-1,1434,1408,0,0
217,-384,0,0,0,0,0,0,0,0,0,-1,1441,1408,0,0
224,-384,0,0,0,0,0,0,0,0,0,-1,1448,1408,0,0
231,-384,0,0,0,0,0,0,0,0,0,-1,1455,1408,0,0
238,-384,0,0,0,0,0,0,0,0,0,-1,1462,1408,0,0
245,-384,0,0,0,0,0,0,0,0,0,-1,1469,1408,0,0
252,-384,0,0,0,0,0,0,0,0,0,-1,1476,1408,0,0
259,-384,0,0,0,0,0,0,0,0,0,-1,1483,1408,0,0
266,-384,0,0,0,0,0,0,0,0,0,-1,1490,1408,0,0
273,-384,0,0,0,0,0,0,0,0,0,-1,1497,1408,0,0
280,-384,0,0,0,0,0,0,0,0,0,-1,1504,1408,0,0
287,-384,0,0,0,0,0,0,0,0,0,-1,1511,1408,0,0
294,-384,0,0,0,0,0,0,0,0,0,-1,1518,1408,0,0
301,-384,0,0,0,0,0,0,0,0,0,-1,1525,1408,0,0
308,-384,0,0,0,0,0,0,0,0,0,-1,1532,1408,0,0
315,-384,0,0,0,0,0,0,0,0,0,-1,1539,1408,0,0
322,-384,0,0,0,0,0,0,0,0,0,-1,1546,1408,0,0
329,-384,0,0,0,0,0,0,0,0,0,-1,1553,1408,0,0
336,-384,0,0,0,0,0,0,0,0,0,-1,1560,1408,0,0
343,-384,0,0,0,0,0,0,0,0,0,-1,1567,1408,0,0
350,-384,0,0,0,0,0,0,0,0,0,-1,1574,1408,0,0
357,-384,0,0,0,0,0,0,0,0,0,-1,1581,1408,0,0
364,-384,0,0,0,0,0,0,0,0,0,-1,1588,1408,0,0
371,-384,0,0,0,0,0,0,0,0,0,-1,1595,1408,0,0
378,-384,0,0,0,0,0,0,0,0,0,-1,1602,1408,0,0
385,-384,0,0,0,0,0,0,0,0,0,-1,1609,1408,0,0
392,-384,0,0,0,0,0,0,0,0,0,-1,1616,1408,0,0
399,-384,0,0,0,0,0,0,0,0,0,-1,1623,1408,0,0
406,-384,0,0,0,0,0,0,0,0,0,-1,1630,1408,0,0
413,-384,0,0,0,0,0,0,0,0,0,-1,1637,1408,0,0
420,-384,0,0,0,0,0,0,0,0,0,-1,1644,1408,0,0
427,-384,0,0,0,0,0,0,0,0,0,-1,1651,1408,0,0
434,-384,0,0,0,0,0,0,0,0,0,-1,1658,1408,0,0
441,-384,0,0,0,0,0,0,0,0,0,-1,1665,1408,0,0
448,-384,0,0,0,0,0,0,0,0,0,-1,1672,1408,0,0
455,-384,0,0,0,0,0,0,0,0,0,-1,1679,1408,0,0
462,-384,0,0,0,0,0,0,0,0,0,-1,1686,1408,0,0
469,-384,0,0,0,0,0,0,0,0,0,-1,1693,1408,0,0
476,-384,0,0,0,0,0,0,0,0,0,-1,1700,1408,0,0
483,-384,0,0,0,0,0,0,0,0,0,-1,1707,1408,0,0
490,-384,0,0,0,0,0,0,0,0,0,-1,1714,1408,0,0
497,-384,0,0,0,0,0,0,0,0,0,-1,1721,1408,0,0
504,-384,0,0,0,0,0,0,0,0,0,-1,1728,1408,0,0
511,-384,0,0,0,0,0,0,0,0,0,-1,1735,1408,0,0
518,-384,0,0,0,0,0,0,0,0,0,-1,1742,1408,0,0
525,-384,0,0,0,0,0,0,0,0,0,-1,1749,1408,0,0
532,-384,0,0,0,0,0,0,0,0,0,-1,1756,1408,0,0
539,-384,27.6886,2.85803,0,0,0,0,0,0,0,-1,1763,1408,27.6886,-2.85807
546,-384,27.5044,2.9425,0,0,0,0,0,0,0,-1,1770,1408,27.5044,-2.94255
553,-384,27.3052,2.78394,0,0,0,0,0,0,0,-1,1777,1408,27.3051,-2.78394
560,-384,26.833,3.19812,0,0,0,0,0,0,0,-1,1784,1408,26.833,-3.19816
567,-384,38.2566,0.109985,0,0,0,0,0,0,0,-1,1791,1408,38.2566,-0.110044
574,-384,38.4003,2.05945,0,0,0,0,0,0,0,-1,1798,1408,38.4003,-2.05949
581,-384,25.819,3.91846,0,0,0,0,0,0,0,-1,1805,1408,25.8189,-3.91848
588,-384,23.3721,4.25439,0,0,0,0,0,0,0,-1,1812,1408,23.3721,-4.25442
595,-384,24.981,5.59595,0,0,0,0,0,0,0,-1,1819,1408,24.981,-5.59598
602,-384,20.6605,4.17261,0,0,0,0,0,0,0,-1,1826,1408,20.6606,-4.17265
609,-384,14.158,5.49475,0,0,0,0,0,0,0,-1,1833,1408,14.158,-5.49474
616,-384,14.7997,7.6908,0,0,0,0,0,0,0,-1,1840,1408,14.7996,-7.69079
623,-384,16.4293,9.58899,0,0,0,0,0,0,0,-1,1847,1408,16.4294,-9.58901
630,-384,35.1371,18.611,0,0,0,0,0,0,0,-1,1854,1408,35.1371,-18.611
637,-384,35.1942,17.8812,0.00171704,0.000798895,-0.00124061,0.00258079,-6.48549e-05,-0.608192,0.00174255,0.0243645,1861,1408,35.1943,-17.8812
644,-384,35.1327,17.2542,0.00134551,0.000541309,-0.000909148,0.00193751,-5.06899e-05,-0.577189,0.0013089,0.0172431,1868,1408,35.1327,-17.2542
651,-384,35.116,16.5698,0.00132352,0.000160481,-0.000444777,0.00147411,9.88541e-06,-0.326471,0.000979463,0.0163464,1875,1408,35.1159,-16.5698
658,-384,35.1011,15.9158,0.00155147,-0.000232584,-2.41192e-05,0.00155179,-0.00023291,-0.013516,0.00112027,0.0162642,1882,1408,35.1011,-15.9158
665,-384,35.1002,15.3041,0.00197129,-0.000651,0.000380155,0.00202529,-0.000705,0.141102,0.00163662,0.017061,1889,1408,35.1002,-15.3041
672,-384,35.0665,14.6412,0.00258421,-0.00113143,0.000815642,0.00275537,-0.00130259,0.206848,0.00239239,0.014905,1896,1408,35.0665,-14.6413
679,-384,35.0184,13.9835,0.00340371,-0.00166093,0.00126167,0.00370061,-0.00195782,0.231114,0.00331814,0.0150656,1903,1408,35.0184,-13.9835
686,-384,34.986,13.3843,0.00446359,-0.00223569,0.00170291,0.00487161,-0.00264371,0.235167,0.00440207,0.0130612,1910,1408,34.986,-13.3843
693,-384,35.0681,12.7441,0.00589918,-0.00272411,0.0020297,0.00635303,-0.00317796,0.219987,0.00560358,0.0327682,1917,1408,35.0681,-12.7442
700,-384,35.2081,12.1156,0,0,0,0,0,0,0,-1,1924,1408,35.2081,-12.1156
707,-384,17.0566,6.62842,0,0,0,0,0,0,0,-1,1931,1408,17.0567,-6.62848
714,-384,16.038,5.0282,0,0,0,0,0,0,0,-1,1938,1408,16.038,-5.02819
721,-384,13.8843,2.8717,0,0,0,0,0,0,0,-1,1945,1408,13.8843,-2.87171
728,-384,15.4409,6.25745,0,0,0,0,0,0,0,-1,1952,1408,15.4409,-6.2574
735,-384,16.7598,6.71289,0,0,0,0,0,0,0,-1,1959,1408,16.7598,-6.71287
742,-384,0,0,0,0,0,0,0,0,0,-1,1966,1408,0,0
749,-384,0,0,0,0,0,0,0,0,0,-1,1973,1408,0,0
756,-384,0,0,0,0,0,0,0,0,0,-1,1980,1408,0,0
763,-384,0,0,0,0,0,0,0,0,0,-1,1987,1408,0,0
770,-384,0,0,0,0,0,0,0,0,0,-1,1994,1408,0,0
777,-384,0,0,0,0,0,0,0,0,0,-1,2001,1408,0,0
784,-384,0,0,0,0,0,0,0,0,0,-1,2008,1408,0,0
791,-384,0,0,0,0,0,0,0,0,0,-1,2015,1408,0,0
798,-384,0,0,0,0,0,0,0,0,0,-1,2022,1408,0,0
805,-384,0,0,0,0,0,0,0,0,0,-1,2029,1408,0,0
812,-384,0,0,0,0,0,0,0,0,0,-1,2036,1408,0,0
-700,-391,0,0,0,0,0,0,0,0,0,-1,524,1415,0,0
-693,-391,0,0,0,0,0,0,0,0,0,-1,531,1415,0,0
-686,-391,0,0,0,0,0,0,0,0,0,-1,538,1415,0,0
-679,-391,0,0,0,0,0,0,0,0,0,-1,545,1415,0,0
-672,-391,0,0,0,0,0,0,0,0,0,-1,552,1415,0,0
-665,-391,0,0,0,0,0,0,0,0,0,-1,559,1415,0,0
-658,-391,0,0,0,0,0,0,0,0,0,-1,566,1415,0,0
-651,-391,0,0,0,0,0,0,0,0,0,-1,573,1415,0,0
-644,-391,0,0,0,0,0,0,0,0,0,-1,580,1415,0,0
-637,-391,0,0,0,0,0,0,0,0,0,-1,587,1415,0,0
-630,-391,0,0,0,0,0,0,0,0,0,-1,594,1415,0,0
-623,-391,0,0,0,0,0,0,0,0,0,-1,601,1415,0,0
-616,-391,0,0,0,0,0,0,0,0,0,-1,608,1415,0,0
-609,-391,-7.71753,-3.69763,0,0,0,0,0,0,0,-1,615,1415,-7.71751,3.69759
-602,-391,-13.9493,-4.12805,0,0,0,0,0,0,0,-1,622,1415,-13.9493,4.12803
-595,-391,-10.8315,1.76172,0,0,0,0,0,0,0,-1,629,1415,-10.8315,-1.76171
-588,-391,-10.265,2.16431,0,0,0,0,0,0,0,-1,636,1415,-10.265,-2.16431
-581,-391,-11.3325,2.44836,0,0,0,0,0,0,0,-1,643,1415,-11.3325,-2.44842
-574,-391,-11.1471,6.19983,0,0,0,0,0,0,0,-1,650,1415,-11.1471,-6.19981
-567,-391,-11.5172,6.82458,0,0,0,0,0,0,0,-1,657,1415,-11.5171,-6.82454
-560,-391,-11.2459,7.37195,0,0,0,0,0,0,0,-1,664,1415,-11.2459,-7.37191
-553,-391,-17.3893,11.7057,0,0,0,0,0,0,0,-1,671,1415,-17.3893,-11.7057
-546,-391,-17.3201,12.4385,0.00454095,0.00254351,0.00272045,0.00644021,0.000644253,0.609477,0.00409565,0.0179567,678,1415,-17.3201,-12.4385
-539,-391,-17.29,13.1626,0.00367791,0.00188767,0.00206942,0.0050375,0.000528075,0.581276,0.00319688,0.0148257,685,1415,-17.29,-13.1626
-532,-391,-17.3069,13.858,0.0030603,0.00137571,0.00160209,0.00402802,0.00040799,0.543382,0.00256021,0.0254266,692,1415,-17.3069,-13.858
-525,-391,-17.32,14.5674,0.00269703,0.00108729,0.00135483,0.00346804,0.000316279,0.517373,0.00221414,0.0230433,699,1415,-17.32,-14.5673
-518,-391,-17.4001,15.2295,0.00253366,0.000930525,0.00126818,0.00323236,0.000231827,0.503568,0.00208194,0.014319,706,1415,-17.4002,-15.2295
-511,-391,-17.4141,15.9371,0.00257354,0.000947469,0.00133802,0.00332618,0.000194829,0.51239,0.00215544,0.0141725,713,1415,-17.4141,-15.9371
-504,-391,-17.4389,16.6359,0.00285221,0.00114944,0.00160184,0.00381486,0.000186787,0.541133,0.00248332,0.0129914,720,1415,-17.4389,-16.6359
-497,-391,-17.4572,17.3274,0.00339032,0.00152933,0.00209615,0.00475322,0.000166434,0.57651,0.00311482,0.0137834,727,1415,-17.4572,-17.3273
-490,-391,-17.4146,18.0554,0,0,0,0,0,0,0,-1,734,1415,-17.4146,-18.0554
-483,-391,-11.1018,12.9382,0,0,0,0,0,0,0,-1,741,1415,-11.1018,-12.9382
-476,-391,-6.05731,6.85303,0,0,0,0,0,0,0,-1,748,1415,-6.05728,-6.85304
-469,-391,-3.88953,5.0979,0,0,0,0,0,0,0,-1,755,1415,-3.88955,-5.09794
-462,-391,-8.67688,2.03125,0,0,0,0,0,0,0,-1,762,1415,-8.67685,-2.03121
-455,-391,-8.65576,6.46997,0,0,0,0,0,0,0,-1,769,1415,-8.65579,-6.46999
-448,-391,-8.39618,4.38403,0,0,0,0,0,0,0,-1,776,1415,-8.39617,-4.38405
-441,-391,-9.77704,2.5946,0,0,0,0,0,0,0,-1,783,1415,-9.77702,-2.5946
-434,-391,-11.5403,2.12878,0,0,0,0,0,0,0,-1,790,1415,-11.5403,-2.12881
-427,-391,-10.5311,2.50403,0,0,0,0,0,0,0,-1,797,1415,-10.5311,-2.504
-420,-391,-14.7087,1.24365,0,0,0,0,0,0,0,-1,804,1415,-14.7088,-1.24365
-413,-391,0,0,0,0,0,0,0,0,0,-1,811,1415,0,0
-406,-391,0,0,0,0,0,0,0,0,0,-1,818,1415,0,0
-399,-391,0,0,0,0,0,0,0,0,0,-1,825,1415,0,0
-392,-391,0,0,0,0,0,0,0,0,0,-1,832,1415,0,0
-385,-391,0,0,0,0,0,0,0,0,0,-1,839,1415,0,0
-378,-391,0,0,0,0,0,0,0,0,0,-1,846,1415,0,0
-371,-391,0,0,0,0,0,0,0,0,0,-1,853,1415,0,0
-364,-391,0,0,0,0,0,0,0,0,0,-1,860,1415,0,0
-357,-391,0,0,0,0,0,0,0,0,0,-1,867,1415,0,0
-350,-391,0,0,0,0,0,0,0,0,0,-1,874,1415,0,0
-343,-391,0,0,0,0,0,0,0,0,0,-1,881,1415,0,0
-336,-391,0,0,0,0,0,0,0,0,0,-1,888,1415,0,0
-329,-391,0,0,0,0,0,0,0,0,0,-1,895,1415,0,0
-322,-391,0,0,0,0,0,0,0,0,0,-1,902,1415,0,0
-315,-391,0,0,0,0,0,0,0,0,0,-1,909,1415,0,0
-308,-391,0,0,0,0,0,0,0,0,0,-1,916,1415,0,0
-301,-391,0,0,0,0,0,0,0,0,0,-1,923,1415,0,0
-294,-391,0,0,0,0,0,0,0,0,0,-1,930,1415,0,0
-287,-391,0,0,0,0,0,0,0,0,0,-1,937,1415,0,0
-280,-391,0,0,0,0,0,0,0,0,0,-1,944,1415,0,0
-273,-391,0,0,0,0,0,0,0,0,0,-1,951,1415,0,0
-266,-391,0,0,0,0,0,0,0,0,0,-1,958,1415,0,0
-259,-391,0,0,0,0,0,0,0,0,0,-1,965,1415,0,0
-252,-391,0,0,0,0,0,0,0,0,0,-1,972,1415,0,0
-245,-391,0,0,0,0,0,0,0,0,0,-1,979,1415,0,0
-238,-391,0,0,0,0,0,0,0,0,0,-1,986,1415,0,0
-231,-391,0,0,0,0,0,0,0,0,0,-1,993,1415,0,0
-224,-391,0,0,0,0,0,0,0,0,0,-1,1000,1415,0,0
-217,-391,0,0,0,0,0,0,0,0,0,-1,1007,1415,0,0
-210,-391,0,0,0,0,0,0,0,0,0,-1,1014,1415,0,0
-203,-391,0,0,0,0,0,0,0,0,0,-1,1021,1415,0,0
-196,-391,0,0,0,0,0,0,0,0,0,-1,1028,1415,0,0
-189,-391,0,0,0,0,0,0,0,0,0,-1,1035,1415,0,0
-182,-391,0,0,0,0,0,0,0,0,0,-1,1042,1415,0,0
-175,-391,0,0,0,0,0,0,0,0,0,-1,1049,1415,0,0
-168,-391,0,0,0,0,0,0,0,0,0,-1,1056,1415,0,0
-161,-391,0,0,0,0,0,0,0,0,0,-1,1063,1415,0,0
-154,-391,0,0,0,0,0,0,0,0,0,-1,1070,1415,0,0
-147,-391,0,0,0,0,0,0,0,0,0,-1,1077,1415,0,0
-140,-391,0,0,0,0,0,0,0,0,0,-1,1084,1415,0,0
-133,-391,0,0,0,0,0,0,0,0,0,-1,1091,1415,0,0
-126,-391,0,0,0,0,0,0,0,0,0,-1,1098,1415,0,0
-119,-391,0,0,0,0,0,0,0,0,0,-1,1105,1415,0,0
-112,-391,0,0,0,0,0,0,0,0,0,-1,1112,1415,0,0
-105,-391,0,0,0,0,0,0,0,0,0,-1,1119,1415,0,0
-98,-391,0,0,0,0,0,0,0,0,0,-1,1126,1415,0,0
-91,-391,0,0,0,0,0,0,0,0,0,-1,1133,1415,0,0
-84,-391,0,0,0,0,0,0,0,0,0,-1,1140,1415,0,0
-77,-391,0,0,0,0,0,0,0,0,0,-1,1147,1415,0,0
-70,-391,0,0,0,0,0,0,0,0,0,-1,1154,1415,0,0
-63,-391,0,0,0,0,0,0,0,0,0,-1,1161,1415,0,0
-56,-391,0,0,0,0,0,0,0,0,0,-1,1168,1415,0,0
-49,-391,0,0,0,0,0,0,0,0,0,-1,1175,1415,0,0
-42,-391,0,0,0,0,0,0,0,0,0,-1,1182,1415,0,0
-35,-391,0,0,0,0,0,0,0,0,0,-1,1189,1415,0,0
-28,-391,0,0,0,0,0,0,0,0,0,-1,1196,1415,0,0
-21,-391,0,0,0,0,0,0,0,0,0,-1,1203,1415,0,0
-14,-391,0,0,0,0,0,0,0,0,0,-1,1210,1415,0,0
-7,-391,0,0,0,0,0,0,0,0,0,-1,1217,1415,0,0
0,-391,0,0,0,0,0,0,0,0,0,-1,1224,1415,0,0
7,-391,0,0,0,0,0,0,0,0,0,-1,1231,1415,0,0
14,-391,0,0,0,0,0,0,0,0,0,-1,1238,1415,0,0
21,-391,0,0,0,0,0,0,0,0,0,-1,1245,1415,0,0
28,-391,0,0,0,0,0,0,0,0,0,-1,1252,1415,0,0
35,-391,0,0,0,0,0,0,0,0,0,-1,1259,1415,0,0
42,-391,0,0,0,0,0,0,0,0,0,-1,1266,1415,0,0
49,-391,0,0,0,0,0,0,0,0,0,-1,1273,1415,0,0
56,-391,0,0,0,0,0,0,0,0,0,-1,1280,1415,0,0
63,-391,0,0,0,0,0,0,0,0,0,-1,1287,1415,0,0
70,-391,0,0,0,0,0,0,0,0,0,-1,1294,1415,0,0
77,-391,0,0,0,0,0,0,0,0,0,-1,1301,1415,0,0
84,-391,0,0,0,0,0,0,0,0,0,-1,1308,1415,0,0
91,-391,0,0,0,0,0,0,0,0,0,-1,1315,1415,0,0
98,-391,0,0,0,0,0,0,0,0,0,-1,1322,1415,0,0
105,-391,0,0,0,0,0,0,0,0,0,-1,1329,1415,0,0
112,-391,0,0,0,0,0,0,0,0,0,-1,1336,1415,0,0
119,-391,0,0,0,0,0,0,0,0,0,-1,1343,1415,0,0
126,-391,0,0,0,0,0,0,0,0,0,-1,1350,1415,0,0
133,-391,0,0,0,0,0,0,0,0,0,-1,1357,1415,0,0
140,-391,0,0,0,0,0,0,0,0,0,-1,1364,1415,0,0
147,-391,0,0,0,0,0,0,0,0,0,-1,1371,1415,0,0
154,-391,0,0,0,0,0,0,0,0,0,-1,1378,1415,0,0
161,-391,0,0,0,0,0,0,0,0,0,-1,1385,1415,0,0
168,-391,0,0,0,0,0,0,0,0,0,-1,1392,1415,0,0
175,-391,0,0,0,0,0,0,0,0,0,-1,1399,1415,0,0
182,-391,0,0,0,0,0,0,0,0,0,-1,1406,1415,0,0
189,-391,0,0,0,0,0,0,0,0,0,-1,1413,1415,0,0
196,-391,0,0,0,0,0,0,0,0,0,-1,1420,1415,0,0
203,-391,0,0,0,0,0,0,0,0,0,-1,1427,1415,0,0
210,-391,0,0,0,0,0,0,0,0,0,-1,1434,1415,0,0
217,-391,0,0,0,0,0,0,0,0,0,-1,1441,1415,0,0
224,-391,0,0,0,0,0,0,0,0,0,-1,1448,1415,0,0
231,-391,0,0,0,0,0,0,0,0,0,-1,1455,1415,0,0
238,-391,0,0,0,0,0,0,0,0,0,-1,1462,1415,0,0
245,-391,0,0,0,0,0,0,0,0,0,-1,1469,1415,0,0
252,-391,0,0,0,0,0,0,0,0,0,-1,1476,1415,0,0
259,-391,0,0,0,0,0,0,0,0,0,-1,1483,1415,0,0
266,-391,0,0,0,0,0,0,0,0,0,-1,1490,1415,0,0
273,-391,0,0,0,0,0,0,0,0,0,-1,1497,1415,0,0
280,-391,0,0,0,0,0,0,0,0,0,-1,1504,1415,0,0
287,-391,0,0,0,0,0,0,0,0,0,-1,1511,1415,0,0
294,-391,0,0,0,0,0,0,0,0,0,-1,1518,1415,0,0
301,-391,0,0,0,0,0,0,0,0,0,-1,1525,1415,0,0
308,-391,0,0,0,0,0,0,0,0,0,-1,1532,1415,0,0
315,-391,0,0,0,0,0,0,0,0,0,-1,1539,1415,0,0
322,-391,0,0,0,0,0,0,0,0,0,-1,1546,1415,0,0
329,-391,0,0,0,0,0,0,0,0,0,-1,1553,1415,0,0
336,-391,0,0,0,0,0,0,0,0,0,-1,1560,1415,0,0
343,-391,0,0,0,0,0,0,0,0,0,-1,1567,1415,0,0
350,-391,0,0,0,0,0,0,0,0,0,-1,1574,1415,0,0
357,-391,0,0,0,0,0,0,0,0,0,-1,1581,1415,0,0
364,-391,0,0,0,0,0,0,0,0,0,-1,1588,1415,0,0
371,-391,0,0,0,0,0,0,0,0,0,-1,1595,1415,0,0
378,-391,0,0,0,0,0,0,0,0,0,-1,1602,1415,0,0
385,-391,0,0,0,0,0,0,0,0,0,-1,1609,1415,0,0
392,-391,0,0,0,0,0,0,0,0,0,-1,1616,1415,0,0
399,-391,0,0,0,0,0,0,0,0,0,-1,1623,1415,0,0
406,-391,0,0,0,0,0,0,0,0,0,-1,1630,1415,0,0
413,-391,0,0,0,0,0,0,0,0,0,-1,1637,1415,0,0
420,-391,0,0,0,0,0,0,0,0,0,-1,1644,1415,0,0
427,-391,0,0,0,0,0,0,0,0,0,-1,1651,1415,0,0
434,-391,0,0,0,0,0,0,0,0,0,-1,1658,1415,0,0
441,-391,0,0,0,0,0,0,0,0,0,-1,1665,1415,0,0
448,-391,0,0,0,0,0,0,0,0,0,-1,1672,1415,0,0
455,-391,0,0,0,0,0,0,0,0,0,-1,1679,1415,0,0
462,-391,0,0,0,0,0,0,0,0,0,-1,1686,1415,0,0
469,-391,0,0,0,0,0,0,0,0,0,-1,1693,1415,0,0
476,-391,0,0,0,0,0,0,0,0,0,-1,1700,1415,0,0
483,-391,0,0,0,0,0,0,0,0,0,-1,1707,1415,0,0
490,-391,0,0,0,0,0,0,0,0,0,-1,1714,1415,0,0
497,-391,0,0,0,0,0,0,0,0,0,-1,1721,1415,0,0
504,-391,0,0,0,0,0,0,0,0,0,-1,1728,1415,0,0
511,-391,0,0,0,0,0,0,0,0,0,-1,1735,1415,0,0
518,-391,0,0,0,0,0,0,0,0,0,-1,1742,1415,0,0
525,-391,0,0,0,0,0,0,0,0,0,-1,1749,1415,0,0
532,-391,28.5959,3.02356,0,0,0,0,0,0,0,-1,1756,1415,28.596,-3.02358
539,-391,27.5881,3.25012,0,0,0,0,0,0,0,-1,1763,1415,27.5882,-3.25016
546,-391,27.2837,3.28064,0,0,0,0,0,0,0,-1,1770,1415,27.2837,-3.28064
553,-391,32.5952,5.04553,0,0,0,0,0,0,0,-1,1777,1415,32.5952,-5.04551
560,-391,31.2947,5.67017,0,0,0,0,0,0,0,-1,1784,1415,31.2947,-5.67011
567,-391,30.1473,6.17603,0,0,0,0,0,0,0,-1,1791,1415,30.1473,-6.17602
574,-391,27.5656,5.6842,0,0,0,0,0,0,0,-1,1798,1415,27.5655,-5.68422
581,-391,25.8883,5.76123,0,0,0,0,0,0,0,-1,1805,1415,25.8883,-5.76124
588,-391,24.2717,5.47986,0,0,0,0,0,0,0,-1,1812,1415,24.2717,-5.47982
595,-391,22.8827,6.1991,0,0,0,0,0,0,0,-1,1819,1415,22.8827,-6.19909
602,-391,15.1635,5.69849,0,0,0,0,0,0,0,-1,1826,1415,15.1635,-5.69847
609,-391,14.8285,7.50476,0,0,0,0,0,0,0,-1,1833,1415,14.8285,-7.50479
616,-391,20.7952,12.0503,0,0,0,0,0,0,0,-1,1840,1415,20.7952,-12.0503
623,-391,34.4125,19.3737,0,0,0,0,0,0,0,-1,1847,1415,34.4125,-19.3736
630,-391,34.5897,18.5106,0,0,0,0,0,0,0,-1,1854,1415,34.5898,-18.5107
637,-391,34.5258,17.8972,0.00174005,0.000496087,-0.000986409,0.0022842,-4.8064e-05,-0.504108,0.00153907,0.0183384,1861,1415,34.5258,-17.8972
644,-391,34.4812,17.2554,0.00146568,0.000253636,-0.000692347,0.00177977,-6.04554e-05,-0.425895,0.00120717,0.017013,1868,1415,34.4812,-17.2554
651,-391,34.4619,16.6318,0.00148549,-5.94285e-05,-0.000292823,0.00153913,-0.000113068,-0.181171,0.00106578,0.0170791,1875,1415,34.462,-16.6319
658,-391,34.4479,15.9797,0.00172433,-0.000427271,9.67246e-05,0.00172866,-0.00043161,0.0448343,0.00132005,0.0168148,1882,1415,34.4479,-15.9798
665,-391,34.4186,15.3555,0.00215071,-0.000858873,0.000519163,0.00223775,-0.000945913,0.16611,0.00188785,0.0138569,1889,1415,34.4185,-15.3555
672,-391,34.3818,14.7034,0.00275411,-0.00140093,0.00103218,0.00299639,-0.00164321,0.230555,0.00271639,0.0119244,1896,1415,34.3819,-14.7034
679,-391,34.3473,14.037,0.00357312,-0.00204919,0.00161689,0.00400495,-0.00248101,0.26098,0.00377897,0.0111689,1903,1415,34.3473,-14.037
686,-391,34.3378,13.411,0.00461575,-0.00283469,0.00229482,0.00526585,-0.00348479,0.276059,0.00508695,0.0135009,1910,1415,34.3377,-13.411
693,-391,34.3885,13.0272,0.00603768,-0.00361193,0.00296565,0.00687625,-0.0044505,0.275567,0.0065893,0.0385545,1917,1415,34.3885,-13.0272
700,-391,34.624,12.5454,0,0,0,0,0,0,0,-1,1924,1415,34.624,-12.5454
707,-391,12.9524,5.96851,0,0,0,0,0,0,0,-1,1931,1415,12.9524,-5.96849
714,-391,15.6875,7.67896,0,0,0,0,0,0,0,-1,1938,1415,15.6875,-7.67893
721,-391,14.1808,8.08435,0,0,0,0,0,0,0,-1,1945,1415,14.1808,-8.08439
728,-391,13.8102,7.28174,0,0,0,0,0,0,0,-1,1952,1415,13.8102,-7.28174
735,-391,0,0,0,0,0,0,0,0,0,-1,1959,1415,0,0
742,-391,0,0,0,0,0,0,0,0,0,-1,1966,1415,0,0
749,-391,0,0,0,0,0,0,0,0,0,-1,1973,1415,0,0
756,-391,0,0,0,0,0,0,0,0,0,-1,1980,1415,0,0
763,-391,0,0,0,0,0,0,0,0,0,-1,1987,1415,0,0
770,-391,0,0,0,0,0,0,0,0,0,-1,1994,1415,0,0
777,-391,0,0,0,0,0,0,0,0,0,-1,2001,1415,0,0
784,-391,0,0,0,0,0,0,0,0,0,-1,2008,1415,0,0
791,-391,0,0,0,0,0,0,0,0,0,-1,2015,1415,0,0
798,-391,0,0,0,0,0,0,0,0,0,-1,2022,1415,0,0
805,-391,0,0,0,0,0,0,0,0,0,-1,2029,1415,0,0
812,-391,0,0,0,0,0,0,0,0,0,-1,2036,1415,0,0
-700,-398,0,0,0,0,0,0,0,0,0,-1,524,1422,0,0
-693,-398,0,0,0,0,0,0,0,0,0,-1,531,1422,0,0
-686,-398,0,0,0,0,0,0,0,0,0,-1,538,1422,0,0
-679,-398,0,0,0,0,0,0,0,0,0,-1,545,1422,0,0
-672,-398,0,0,0,0,0,0,0,0,0,-1,552,1422,0,0
-665,-398,0,0,0,0,0,0,0,0,0,-1,559,1422,0,0
-658,-398,0,0,0,0,0,0,0,0,0,-1,566,1422,0,0
-651,-398,0,0,0,0,0,0,0,0,0,-1,573,1422,0,0
-644,-398,0,0,0,0,0,0,0,0,0,-1,580,1422,0,0
-637,-398,0,0,0,0,0,0,0,0,0,-1,587,1422,0,0
-630,-398,0,0,0,0,0,0,0,0,0,-1,594,1422,0,0
-623,-398,0,0,0,0,0,0,0,0,0,-1,601,1422,0,0
-616,-398,0,0,0,0,0,0,0,0,0,-1,608,1422,0,0
-609,-398,-7.47125,-4.05322,0,0,0,0,0,0,0,-1,615,1422,-7.47128,4.05317
-602,-398,-4.58868,-2.77026,0,0,0,0,0,0,0,-1,622,1422,-4.58869,2.77023
-595,-398,-12.2224,-1.82007,0,0,0,0,0,0,0,-1,629,1422,-12.2224,1.82006
-588,-398,-10.6939,1.32336,0,0,0,0,0,0,0,-1,636,1422,-10.6939,-1.32337
-581,-398,-10.433,3.1123,0,0,0,0,0,0,0,-1,643,1422,-10.433,-3.11233
-574,-398,-10.4475,5.89807,0,0,0,0,0,0,0,-1,650,1422,-10.4475,-5.89802
-567,-398,-10.4904,6.80115,0,0,0,0,0,0,0,-1,657,1422,-10.4904,-6.80115
-560,-398,-10.5333,7.70435,0,0,0,0,0,0,0,-1,664,1422,-10.5333,-7.70429
-553,-398,-16.7093,11.5936,0,0,0,0,0,0,0,-1,671,1422,-16.7093,-11.5936
-546,-398,-16.6536,12.4458,0.00501201,0.00309084,0.0031536,0.00734808,0.000754768,0.637562,0.00466752,0.0313922,678,1422,-16.6536,-12.4458
-539,-398,-16.5819,13.2144,0.00396737,0.00232062,0.00238683,0.00566885,0.000619142,0.619306,0.00359069,0.0128367,685,1422,-16.5819,-13.2143
-532,-398,-16.6039,13.9165,0.00318309,0.00166994,0.00179519,0.00437462,0.00047841,0.58597,0.00277075,0.0204161,692,1422,-16.6039,-13.9165
-525,-398,-16.6385,14.5807,0.00269578,0.00129427,0.00145841,0.00361305,0.000377,0.561438,0.00229338,0.019511,699,1422,-16.6385,-14.5807
-518,-398,-16.6757,15.2596,0.00242518,0.00107459,0.0012873,0.00320356,0.000296216,0.543838,0.00204413,0.0177268,706,1422,-16.6757,-15.2597
-511,-398,-16.708,15.9457,0.00234148,0.00101955,0.00126122,0.00310443,0.000256592,0.54404,0.00198961,0.0145795,713,1422,-16.708,-15.9457
-504,-398,-16.7436,16.6631,0.0024683,0.00114022,0.00140117,0.00335482,0.000253697,0.564116,0.00215696,0.0145592,720,1422,-16.7436,-16.6631
-497,-398,-16.7733,17.3584,0.0028276,0.00143785,0.0017313,0.00399827,0.000267181,0.594559,0.00258106,0.0101151,727,1422,-16.7733,-17.3584
-490,-398,-16.7846,18.0544,0.00352227,0.00198824,0.00222295,0.00510682,0.000403697,0.619272,0.00327827,0.0200267,734,1422,-16.7846,-18.0545
-483,-398,-16.7811,18.7827,0,0,0,0,0,0,0,-1,741,1422,-16.7811,-18.7827
-476,-398,-8.64392,11.9448,0,0,0,0,0,0,0,-1,748,1422,-8.6439,-11.9448
-469,-398,-8.91699,10.6276,0,0,0,0,0,0,0,-1,755,1422,-8.91697,-10.6275
-462,-398,-9.59753,9.32532,0,0,0,0,0,0,0,-1,762,1422,-9.59753,-9.32531
-455,-398,-8.08331,6.75024,0,0,0,0,0,0,0,-1,769,1422,-8.08333,-6.75022
-448,-398,-7.4505,5.25293,0,0,0,0,0,0,0,-1,776,1422,-7.4505,-5.25291
-441,-398,-7.61639,3.32141,0,0,0,0,0,0,0,-1,783,1422,-7.61637,-3.32145
-434,-398,-10.7618,3.297,0,0,0,0,0,0,0,-1,790,1422,-10.7618,-3.29704
-427,-398,-11.9061,2.24939,0,0,0,0,0,0,0,-1,797,1422,-11.9061,-2.24941
-420,-398,-13.467,2.32788,0,0,0,0,0,0,0,-1,804,1422,-13.467,-2.32787
-413,-398,-14.7983,2.15515,0,0,0,0,0,0,0,-1,811,1422,-14.7983,-2.15516
-406,-398,0,0,0,0,0,0,0,0,0,-1,818,1422,0,0
-399,-398,0,0,0,0,0,0,0,0,0,-1,825,1422,0,0
-392,-398,0,0,0,0,0,0,0,0,0,-1,832,1422,0,0
-385,-398,0,0,0,0,0,0,0,0,0,-1,839,1422,0,0
-378,-398,0,0,0,0,0,0,0,0,0,-1,846,1422,0,0
-371,-398,0,0,0,0,0,0,0,0,0,-1,853,1422,0,0
-364,-398,0,0,0,0,0,0,0,0,0,-1,860,1422,0,0
-357,-398,0,0,0,0,0,0,0,0,0,-1,867,1422,0,0
-350,-398,0,0,0,0,0,0,0,0,0,-1,874,1422,0,0
-343,-398,0,0,0,0,0,0,0,0,0,-1,881,1422,0,0
-336,-398,0,0,0,0,0,0,0,0,0,-1,888,1422,0,0
-329,-398,0,0,0,0,0,0,0,0,0,-1,895,1422,0,0
-322,-398,0,0,0,0,0,0,0,0,0,-1,902,1422,0,0
-315,-398,0,0,0,0,0,0,0,0,0,-1,909,1422,0,0
-308,-398,0,0,0,0,0,0,0,0,0,-1,916,1422,0,0
-301,-398,0,0,0,0,0,0,0,0,0,-1,923,1422,0,0
-294,-398,0,0,0,0,0,0,0,0,0,-1,930,1422,0,0
-287,-398,0,0,0,0,0,0,0,0,0,-1,937,1422,0,0
-280,-398,0,0,0,0,0,0,0,0,0,-1,944,1422,0,0
-273,-398,0,0,0,0,0,0,0,0,0,-1,951,1422,0,0
-266,-398,0,0,0,0,0,0,0,0,0,-1,958,1422,0,0
-259,-398,0,0,0,0,0,0,0,0,0,-1,965,1422,0,0
-252,-398,0,0,0,0,0,0,0,0,0,-1,972,1422,0,0
-245,-398,0,0,0,0,0,0,0,0,0,-1,979,1422,0,0
-238,-398,0,0,0,0,0,0,0,0,0,-1,986,1422,0,0
-231,-398,0,0,0,0,0,0,0,0,0,-1,993,1422,0,0
-224,-398,0,0,0,0,0,0,0,0,0,-1,1000,1422,0,0
-217,-398,0,0,0,0,0,0,0,0,0,-1,1007,1422,0,0
-210,-398,0,0,0,0,0,0,0,0,0,-1,1014,1422,0,0
-203,-398,0,0,0,0,0,0,0,0,0,-1,1021,1422,0,0
-196,-398,0,0,0,0,0,0,0,0,0,-1,1028,1422,0,0
-189,-398,0,0,0,0,0,0,0,0,0,-1,1035,1422,0,0
-182,-398,0,0,0,0,0,0,0,0,0,-1,1042,1422,0,0
-175,-398,0,0,0,0,0,0,0,0,0,-1,1049,1422,0,0
-168,-398,0,0,0,0,0,0,0,0,0,-1,1056,1422,0,0
-161,-398,0,0,0,0,0,0,0,0,0,-1,1063,1422,0,0
-154,-398,0,0,0,0,0,0,0,0,0,-1,1070,1422,0,0
-147,-398,0,0,0,0,0,0,0,0,0,-1,1077,1422,0,0
-140,-398,0,0,0,0,0,0,0,0,0,-1,1084,1422,0,0
-133,-398,0,0,0,0,0,0,0,0,0,-1,1091,1422,0,0
-126,-398,0,0,0,0,0,0,0,0,0,-1,1098,1422,0,0
-119,-398,0,0,0,0,0,0,0,0,0,-1,1105,1422,0,0
-112,-398,0,0,0,0,0,0,0,0,0,-1,1112,1422,0,0
-105,-398,0,0,0,0,0,0,0,0,0,-1,1119,1422,0,0
-98,-398,0,0,0,0,0,0,0,0,0,-1,1126,1422,0,0
-91,-398,0,0,0,0,0,0,0,0,0,-1,1133,1422,0,0
-84,-398,0,0,0,0,0,0,0,0,0,-1,1140,1422,0,0
-77,-398,0,0,0,0,0,0,0,0,0,-1,1147,1422,0,0
-70,-398,0,0,0,0,0,0,0,0,0,-1,1154,1422,0,0
-63,-398,0,0,0,0,0,0,0,0,0,-1,1161,1422,0,0
-56,-398,0,0,0,0,0,0,0,0,0,-1,1168,1422,0,0
-49,-398,0,0,0,0,0,0,0,0,0,-1,1175,1422,0,0
-42,-398,0,0,0,0,0,0,0,0,0,-1,1182,1422,0,0
-35,-398,0,0,0,0,0,0,0,0,0,-1,1189,1422,0,0
-28,-398,0,0,0,0,0,0,0,0,0,-1,1196,1422,0,0
-21,-398,0,0,0,0,0,0,0,0,0,-1,1203,1422,0,0
-14,-398,0,0,0,0,0,0,0,0,0,-1,1210,1422,0,0
-7,-398,0,0,0,0,0,0,0,0,0,-1,1217,1422,0,0
0,-398,0,0,0,0,0,0,0,0,0,-1,1224,1422,0,0
7,-398,0,0,0,0,0,0,0,0,0,-1,1231,1422,0,0
14,-398,0,0,0,0,0,0,0,0,0,-1,1238,1422,0,0
21,-398,0,0,0,0,0,0,0,0,0,-1,1245,1422,0,0
28,-398,0,0,0,0,0,0,0,0,0,-1,1252,1422,0,0
35,-398,0,0,0,0,0,0,0,0,0,-1,1259,1422,0,0
42,-398,0,0,0,0,0,0,0,0,0,-1,1266,1422,0,0
49,-398,0,0,0,0,0,0,0,0,0,-1,1273,1422,0,0
56,-398,0,0,0,0,0,0,0,0,0,-1,1280,1422,0,0
63,-398,0,0,0,0,0,0,0,0,0,-1,1287,1422,0,0
70,-398,0,0,0,0,0,0,0,0,0,-1,1294,1422,0,0
77,-398,0,0,0,0,0,0,0,0,0,-1,1301,1422,0,0
84,-398,0,0,0,0,0,0,0,0,0,-1,1308,1422,0,0
91,-398,0,0,0,0,0,0,0,0,0,-1,1315,1422,0,0
98,-398,0,0,0,0,0,0,0,0,0,-1,1322,1422,0,0
105,-398,0,0,0,0,0,0,0,0,0,-1,1329,1422,0,0
112,-398,0,0,0,0,0,0,0,0,0,-1,1336,1422,0,0
119,-398,0,0,0,0,0,0,0,0,0,-1,1343,1422,0,0
126,-398,0,0,0,0,0,0,0,0,0,-1,1350,1422,0,0
133,-398,0,0,0,0,0,0,0,0,0,-1,1357,1422,0,0
140,-398,0,0,0,0,0,0,0,0,0,-1,1364,1422,0,0
147,-398,0,0,0,0,0,0,0,0,0,-1,1371,1422,0,0
154,-398,0,0,0,0,0,0,0,0,0,-1,1378,1422,0,0
161,-398,0,0,0,0,0,0,0,0,0,-1,1385,1422,0,0
168,-398,0,0,0,0,0,0,0,0,0,-1,1392,1422,0,0
175,-398,0,0,0,0,0,0,0,0,0,-1,1399,1422,0,0
182,-398,0,0,0,0,0,0,0,0,0,-1,1406,1422,0,0
189,-398,0,0,0,0,0,0,0,0,0,-1,1413,1422,0,0
196,-398,0,0,0,0,0,0,0,0,0,-1,1420,1422,0,0
203,-398,0,0,0,0,0,0,0,0,0,-1,1427,1422,0,0
210,-398,0,0,0,0,0,0,0,0,0,-1,1434,1422,0,0
217,-398,0,0,0,0,0,0,0,0,0,-1,1441,1422,0,0
224,-398,0,0,0,0,0,0,0,0,0,-1,1448,1422,0,0
231,-398,0,0,0,0,0,0,0,0,0,-1,1455,1422,0,0
238,-398,0,0,0,0,0,0,0,0,0,-1,1462,1422,0,0
245,-398,0,0,0,0,0,0,0,0,0,-1,1469,1422,0,0
252,-398,0,0,0,0,0,0,0,0,0,-1,1476,1422,0,0
259,-398,0,0,0,0,0,0,0,0,0,-1,1483,1422,0,0
266,-398,0,0,0,0,0,0,0,0,0,-1,1490,1422,0,0
273,-398,0,0,0,0,0,0,0,0,0,-1,1497,1422,0,0
280,-398,0,0,0,0,0,0,0,0,0,-1,1504,1422,0,0
287,-398,0,0,0,0,0,0,0,0,0,-1,1511,1422,0,0
294,-398,0,0,0,0,0,0,0,0,0,-1,1518,1422,0,0
301,-398,0,0,0,0,0,0,0,0,0,-1,1525,1422,0,0
308,-398,0,0,0,0,0,0,0,0,0,-1,1532,1422,0,0
315,-398,0,0,0,0,0,0,0,0,0,-1,1539,1422,0,0
322,-398,0,0,0,0,0,0,0,0,0,-1,1546,1422,0,0
329,-398,0,0,0,0,0,0,0,0,0,-1,1553,1422,0,0
336,-398,0,0,0,0,0,0,0,0,0,-1,1560,1422,0,0
343,-398,0,0,0,0,0,0,0,0,0,-1,1567,1422,0,0
350,-398,0,0,0,0,0,0,0,0,0,-1,1574,1422,0,0
357,-398,0,0,0,0,0,0,0,0,0,-1,1581,1422,0,0
364,-398,0,0,0,0,0,0,0,0,0,-1,1588,1422,0,0
371,-398,0,0,0,0,0,0,0,0,0,-1,1595,1422,0,0
378,-398,0,0,0,0,0,0,0,0,0,-1,1602,1422,0,0
385,-398,0,0,0,0,0,0,0,0,0,-1,1609,1422,0,0
392,-398,0,0,0,0,0,0,0,0,0,-1,1616,1422,0,0
399,-398,0,0,0,0,0,0,0,0,0,-1,1623,1422,0,0
406,-398,0,0,0,0,0,0,0,0,0,-1,1630,1422,0,0
413,-398,0,0,0,0,0,0,0,0,0,-1,1637,1422,0,0
420,-398,0,0,0,0,0,0,0,0,0,-1,1644,1422,0,0
427,-398,0,0,0,0,0,0,0,0,0,-1,1651,1422,0,0
434,-398,0,0,0,0,0,0,0,0,0,-1,1658,1422,0,0
441,-398,0,0,0,0,0,0,0,0,0,-1,1665,1422,0,0
448,-398,0,0,0,0,0,0,0,0,0,-1,1672,1422,0,0
455,-398,0,0,0,0,0,0,0,0,0,-1,1679,1422,0,0
462,-398,0,0,0,0,0,0,0,0,0,-1,1686,1422,0,0
469,-398,0,0,0,0,0,0,0,0,0,-1,1693,1422,0,0
476,-398,0,0,0,0,0,0,0,0,0,-1,1700,1422,0,0
483,-398,0,0,0,0,0,0,0,0,0,-1,1707,1422,0,0
490,-398,0,0,0,0,0,0,0,0,0,-1,1714,1422,0,0
497,-398,0,0,0,0,0,0,0,0,0,-1,1721,1422,0,0
504,-398,0,0,0,0,0,0,0,0,0,-1,1728,1422,0,0
511,-398,0,0,0,0,0,0,0,0,0,-1,1735,1422,0,0
518,-398,0,0,0,0,0,0,0,0,0,-1,1742,1422,0,0
525,-398,0,0,0,0,0,0,0,0,0,-1,1749,1422,0,0
532,-398,28.4558,3.84094,0,0,0,0,0,0,0,-1,1756,1422,28.4558,-3.8409
539,-398,27.0594,3.33887,0,0,0,0,0,0,0,-1,1763,1422,27.0595,-3.3389
546,-398,31.6873,5.58582,0,0,0,0,0,0,0,-1,1770,1422,31.6872,-5.58585
553,-398,30.4392,5.92383,0,0,0,0,0,0,0,-1,1777,1422,30.4392,-5.92386
560,-398,29.1621,6.30469,0,0,0,0,0,0,0,-1,1784,1422,29.1621,-6.30469
567,-398,27.8411,6.55029,0,0,0,0,0,0,0,-1,1791,1422,27.8411,-6.55033
574,-398,26.411,6.8916,0,0,0,0,0,0,0,-1,1798,1422,26.411,-6.8916
581,-398,24.75,7.11145,0,0,0,0,0,0,0,-1,1805,1422,24.7499,-7.11142
588,-398,23.1649,7.67969,0,0,0,0,0,0,0,-1,1812,1422,23.1649,-7.67975
595,-398,21.4253,7.86023,0,0,0,0,0,0,0,-1,1819,1422,21.4253,-7.86029
602,-398,19.6857,8.04077,0,0,0,0,0,0,0,-1,1826,1422,19.6856,-8.04083
609,-398,21.1835,13.2628,0,0,0,0,0,0,0,-1,1833,1422,21.1835,-13.2628
616,-398,33.6261,20.2872,0,0,0,0,0,0,0,-1,1840,1422,33.6262,-20.2872
623,-398,33.8666,19.3458,0.0025298,0.00046093,-0.00142923,0.00325966,-0.000268933,-0.472147,0.00226807,0.0483122,1847,1422,33.8666,-19.3458
630,-398,33.9238,18.5853,0.00199145,0.000318048,-0.00103609,0.0024865,-0.000177002,-0.445734,0.0017197,0.0148457,1854,1422,33.9238,-18.5853
637,-398,33.8835,17.947,0.00169958,0.000300386,-0.000849664,0.0021006,-0.000100638,-0.440981,0.00143512,0.0154963,1861,1422,33.8835,-17.9471
644,-398,33.7983,17.3203,0.00153247,5.97655e-05,-0.000578875,0.00173277,-0.000140531,-0.333116,0.00120476,0.0211734,1868,1422,33.7984,-17.3203
651,-398,33.8185,16.7454,0.00161257,-0.000194353,-0.000248829,0.00164621,-0.000227993,-0.134377,0.00118083,0.0277617,1875,1422,33.8185,-16.7454
658,-398,33.8004,16.0851,0.00187737,-0.000528263,0.000104943,0.00188194,-0.000532832,0.0435139,0.0014649,0.0235166,1882,1422,33.8004,-16.0851
665,-398,33.7496,15.3848,0.00231535,-0.000957857,0.000533307,0.00240005,-0.00104256,0.157505,0.00203845,0.0162597,1889,1422,33.7497,-15.3848
672,-398,33.7217,14.7373,0.00290615,-0.00154913,0.00111327,0.00316884,-0.00181183,0.231726,0.00291095,0.0139573,1896,1422,33.7217,-14.7373
679,-398,33.7124,14.0946,0.00372235,-0.0023071,0.00182471,0.00423157,-0.00281631,0.272142,0.00409635,0.0124988,1903,1422,33.7124,-14.0946
686,-398,33.7045,13.469,0.00472501,-0.00331247,0.00274635,0.00557378,-0.00416125,0.299744,0.00564021,0.0187829,1910,1422,33.7045,-13.4691
693,-398,33.6471,13.021,0.00606088,-0.00441644,0.00380713,0.00729816,-0.00565372,0.314223,0.00749783,0.045135,1917,1422,33.6471,-13.0209
700,-398,33.7648,12.5975,0,0,0,0,0,0,0,-1,1924,1422,33.7648,-12.5975
707,-398,10.9731,5.479,0,0,0,0,0,0,0,-1,1931,1422,10.9732,-5.47896
714,-398,11.7313,6.17346,0,0,0,0,0,0,0,-1,1938,1422,11.7313,-6.17348
721,-398,13.9371,8.05103,0,0,0,0,0,0,0,-1,1945,1422,13.9372,-8.05102
728,-398,14.786,7.0282,0,0,0,0,0,0,0,-1,1952,1422,14.786,-7.0282
735,-398,0,0,0,0,0,0,0,0,0,-1,1959,1422,0,0
742,-398,0,0,0,0,0,0,0,0,0,-1,1966,1422,0,0
749,-398,0,0,0,0,0,0,0,0,0,-1,1973,1422,0,0
756,-398,0,0,0,0,0,0,0,0,0,-1,1980,1422,0,0
763,-398,0,0,0,0,0,0,0,0,0,-1,1987,1422,0,0
770,-398,0,0,0,0,0,0,0,0,0,-1,1994,1422,0,0
777,-398,0,0,0,0,0,0,0,0,0,-1,2001,1422,0,0
784,-398,0,0,0,0,0,0,0,0,0,-1,2008,1422,0,0
791,-398,0,0,0,0,0,0,0,0,0,-1,2015,1422,0,0
798,-398,0,0,0,0,0,0,0,0,0,-1,2022,1422,0,0
805,-398,0,0,0,0,0,0,0,0,0,-1,2029,1422,0,0
812,-398,0,0,0,0,0,0,0,0,0,-1,2036,1422,0,0
-700,-405,0,0,0,0,0,0,0,0,0,-1,524,1429,0,0
-693,-405,0,0,0,0,0,0,0,0,0,-1,531,1429,0,0
-686,-405,0,0,0,0,0,0,0,0,0,-1,538,1429,0,0
-679,-405,0,0,0,0,0,0,0,0,0,-1,545,1429,0,0
-672,-405,0,0,0,0,0,0,0,0,0,-1,552,1429,0,0
-665,-405,0,0,0,0,0,0,0,0,0,-1,559,1429,0,0
-658,-405,0,0,0,0,0,0,0,0,0,-1,566,1429,0,0
-651,-405,0,0,0,0,0,0,0,0,0,-1,573,1429,0,0
-644,-405,0,0,0,0,0,0,0,0,0,-1,580,1429,0,0
-637,-405,0,0,0,0,0,0,0,0,0,-1,587,1429,0,0
-630,-405,0,0,0,0,0,0,0,0,0,-1,594,1429,0,0
-623,-405,0,0,0,0,0,0,0,0,0,-1,601,1429,0,0
-616,-405,0,0,0,0,0,0,0,0,0,-1,608,1429,0,0
-609,-405,0,0,0,0,0,0,0,0,0,-1,615,1429,0,0
-602,-405,-5.80988,-3.46594,0,0,0,0,0,0,0,-1,622,1429,-5.80987,3.46592
-595,-405,-9.35413,2.01477,0,0,0,0,0,0,0,-1,629,1429,-9.35411,-2.01476
-588,-405,-7.35693,0.507202,0,0,0,0,0,0,0,-1,636,1429,-7.35696,-0.507187
-581,-405,-10.1284,1.62927,0,0,0,0,0,0,0,-1,643,1429,-10.1284,-1.62922
-574,-405,-9.32074,3.05896,0,0,0,0,0,0,0,-1,650,1429,-9.32077,-3.0589
-567,-405,-9.68781,6.92163,0,0,0,0,0,0,0,-1,657,1429,-9.68782,-6.92166
-560,-405,-9.28674,7.20886,0,0,0,0,0,0,0,-1,664,1429,-9.28675,-7.20885
-553,-405,-15.8563,11.682,0,0,0,0,0,0,0,-1,671,1429,-15.8563,-11.6821
-546,-405,-15.8875,12.4501,0.00551629,0.00376036,0.00367329,0.00841508,0.000861572,0.668092,0.00534605,0.0450318,678,1429,-15.8875,-12.45
-539,-405,-15.9185,13.1841,0.00428173,0.00289076,0.00279998,0.00647131,0.000701187,0.663667,0.00410051,0.0128045,685,1429,-15.9185,-13.1841
-532,-405,-15.9459,13.8955,0.00333181,0.00207994,0.00207028,0.00486871,0.000543039,0.638595,0.00308079,0.0142443,692,1429,-15.9459,-13.8955
-525,-405,-15.96,14.62,0.00273559,0.00158875,0.00163183,0.00389181,0.000432525,0.616438,0.00246306,0.0138338,699,1429,-15.96,-14.62
-518,-405,-15.9681,15.3196,0.00237133,0.00128411,0.00136918,0.00330087,0.000354572,0.596426,0.00209243,0.015247,706,1429,-15.9681,-15.3196
-511,-405,-16.0239,15.9998,0.00218977,0.00112633,0.00124423,0.00301113,0.000304966,0.58347,0.00191388,0.0149416,713,1429,-16.0239,-15.9998
-504,-405,-16.0665,16.6927,0.00220473,0.00113622,0.0012625,0.00304137,0.000299589,0.585237,0.00193546,0.0162146,720,1429,-16.0665,-16.6927
-497,-405,-16.0687,17.4161,0.00243541,0.00132548,0.00144887,0.00343196,0.000328929,0.6025,0.0021866,0.0140217,727,1429,-16.0686,-17.4161
-490,-405,-16.0966,18.0994,0.0029083,0.00172209,0.00178054,0.00419191,0.00043847,0.624626,0.00266052,0.0129959,734,1429,-16.0966,-18.0993
-483,-405,-16.0304,18.9104,0.00350737,0.00237512,0.00228769,0.00529794,0.000584543,0.664103,0.00335414,0.0322854,741,1429,-16.0304,-18.9104
-476,-405,-15.8161,19.9342,0,0,0,0,0,0,0,-1,748,1429,-15.8161,-19.9342
-469,-405,-9.65692,12.8171,0,0,0,0,0,0,0,-1,755,1429,-9.65691,-12.8172
-462,-405,-9.14862,11.3597,0,0,0,0,0,0,0,-1,762,1429,-9.14865,-11.3597
-455,-405,-9.021,9.51111,0,0,0,0,0,0,0,-1,769,1429,-9.021,-9.51109
-448,-405,-8.4649,6.82813,0,0,0,0,0,0,0,-1,776,1429,-8.46492,-6.82817
-441,-405,-6.6712,4.23767,0,0,0,0,0,0,0,-1,783,1429,-6.67121,-4.23764
-434,-405,-9.62549,3.94189,0,0,0,0,0,0,0,-1,790,1429,-9.62546,-3.94191
-427,-405,-10.9764,3.73926,0,0,0,0,0,0,0,-1,797,1429,-10.9764,-3.73923
-420,-405,-12.1187,3.68506,0,0,0,0,0,0,0,-1,804,1429,-12.1187,-3.68512
-413,-405,-13.5353,3.75659,0,0,0,0,0,0,0,-1,811,1429,-13.5353,-3.75655
-406,-405,-14.7374,3.99817,0,0,0,0,0,0,0,-1,818,1429,-14.7374,-3.99814
-399,-405,0,0,0,0,0,0,0,0,0,-1,825,1429,0,0
-392,-405,0,0,0,0,0,0,0,0,0,-1,832,1429,0,0
-385,-405,0,0,0,0,0,0,0,0,0,-1,839,1429,0,0
-378,-405,0,0,0,0,0,0,0,0,0,-1,846,1429,0,0
-371,-405,0,0,0,0,0,0,0,0,0,-1,853,1429,0,0
-364,-405,0,0,0,0,0,0,0,0,0,-1,860,1429,0,0
-357,-405,0,0,0,0,0,0,0,0,0,-1,867,1429,0,0
-350,-405,0,0,0,0,0,0,0,0,0,-1,874,1429,0,0
-343,-405,0,0,0,0,0,0,0,0,0,-1,881,1429,0,0
-336,-405,0,0,0,0,0,0,0,0,0,-1,888,1429,0,0
-329,-405,0,0,0,0,0,0,0,0,0,-1,895,1429,0,0
-322,-405,0,0,0,0,0,0,0,0,0,-1,902,1429,0,0
-315,-405,0,0,0,0,0,0,0,0,0,-1,909,1429,0,0
-308,-405,0,0,0,0,0,0,0,0,0,-1,916,1429,0,0
-301,-405,0,0,0,0,0,0,0,0,0,-1,923,1429,0,0
-294,-405,0,0,0,0,0,0,0,0,0,-1,930,1429,0,0
-287,-405,0,0,0,0,0,0,0,0,0,-1,937,1429,0,0
-280,-405,0,0,0,0,0,0,0,0,0,-1,944,1429,0,0
-273,-405,0,0,0,0,0,0,0,0,0,-1,951,1429,0,0
-266,-405,0,0,0,0,0,0,0,0,0,-1,958,1429,0,0
-259,-405,0,0,0,0,0,0,0,0,0,-1,965,1429,0,0
-252,-405,0,0,0,0,0,0,0,0,0,-1,972,1429,0,0
-245,-405,0,0,0,0,0,0,0,0,0,-1,979,1429,0,0
-238,-405,0,0,0,0,0,0,0,0,0,-1,986,1429,0,0
-231,-405,0,0,0,0,0,0,0,0,0,-1,993,1429,0,0
-224,-405,0,0,0,0,0,0,0,0,0,-1,1000,1429,0,0
-217,-405,0,0,0,0,0,0,0,0,0,-1,1007,1429,0,0
-210,-405,0,0,0,0,0,0,0,0,0,-1,1014,1429,0,0
-203,-405,0,0,0,0,0,0,0,0,0,-1,1021,1429,0,0
-196,-405,0,0,0,0,0,0,0,0,0,-1,1028,1429,0,0
-189,-405,0,0,0,0,0,0,0,0,0,-1,1035,1429,0,0
-182,-405,0,0,0,0,0,0,0,0,0,-1,1042,1429,0,0
-175,-405,0,0,0,0,0,0,0,0,0,-1,1049,1429,0,0
-168,-405,0,0,0,0,0,0,0,0,0,-1,1056,1429,0,0
-161,-405,0,0,0,0,0,0,0,0,0,-1,1063,1429,0,0
-154,-405,0,0,0,0,0,0,0,0,0,-1,1070,1429,0,0
-147,-405,0,0,0,0,0,0,0,0,0,-1,1077,1429,0,0
-140,-405,0,0,0,0,0,0,0,0,0,-1,1084,1429,0,0
-133,-405,0,0,0,0,0,0,0,0,0,-1,1091,1429,0,0
-126,-405,0,0,0,0,0,0,0,0,0,-1,1098,1429,0,0
-119,-405,0,0,0,0,0,0,0,0,0,-1,1105,1429,0,0
-112,-405,0,0,0,0,0,0,0,0,0,-1,1112,1429,0,0
-105,-405,0,0,0,0,0,0,0,0,0,-1,1119,1429,0,0
-98,-405,0,0,0,0,0,0,0,0,0,-1,1126,1429,0,0
-91,-405,0,0,0,0,0,0,0,0,0,-1,1133,1429,0,0
-84,-405,0,0,0,0,0,0,0,0,0,-1,1140,1429,0,0
-77,-405,0,0,0,0,0,0,0,0,0,-1,1147,1429,0,0
-70,-405,0,0,0,0,0,0,0,0,0,-1,1154,1429,0,0
-63,-405,0,0,0,0,0,0,0,0,0,-1,1161,1429,0,0
-56,-405,0,0,0,0,0,0,0,0,0,-1,1168,1429,0,0
-49,-405,0,0,0,0,0,0,0,0,0,-1,1175,1429,0,0
-42,-405,0,0,0,0,0,0,0,0,0,-1,1182,1429,0,0
-35,-405,0,0,0,0,0,0,0,0,0,-1,1189,1429,0,0
-28,-405,0,0,0,0,0,0,0,0,0,-1,1196,1429,0,0
-21,-405,0,0,0,0,0,0,0,0,0,-1,1203,1429,0,0
-14,-405,0,0,0,0,0,0,0,0,0,-1,1210,1429,0,0
-7,-405,0,0,0,0,0,0,0,0,0,-1,1217,1429,0,0
0,-405,0,0,0,0,0,0,0,0,0,-1,1224,1429,0,0
7,-405,0,0,0,0,0,0,0,0,0,-1,1231,1429,0,0
14,-405,0,0,0,0,0,0,0,0,0,-1,1238,1429,0,0
21,-405,0,0,0,0,0,0,0,0,0,-1,1245,1429,0,0
28,-405,0,0,0,0,0,0,0,0,0,-1,1252,1429,0,0
35,-405,0,0,0,0,0,0,0,0,0,-1,1259,1429,0,0
42,-405,0,0,0,0,0,0,0,0,0,-1,1266,1429,0,0
49,-405,0,0,0,0,0,0,0,0,0,-1,1273,1429,0,0
56,-405,0,0,0,0,0,0,0,0,0,-1,1280,1429,0,0
63,-405,0,0,0,0,0,0,0,0,0,-1,1287,1429,0,0
70,-405,0,0,0,0,0,0,0,0,0,-1,1294,1429,0,0
77,-405,0,0,0,0,0,0,0,0,0,-1,1301,1429,0,0
84,-405,0,0,0,0,0,0,0,0,0,-1,1308,1429,0,0
91,-405,0,0,0,0,0,0,0,0,0,-1,1315,1429,0,0
98,-405,0,0,0,0,0,0,0,0,0,-1,1322,1429,0,0
105,-405,0,0,0,0,0,0,0,0,0,-1,1329,1429,0,0
112,-405,0,0,0,0,0,0,0,0,0,-1,1336,1429,0,0
119,-405,0,0,0,0,0,0,0,0,0,-1,1343,1429,0,0
126,-405,0,0,0,0,0,0,0,0,0,-1,1350,1429,0,0
133,-405,0,0,0,0,0,0,0,0,0,-1,1357,1429,0,0
140,-405,0,0,0,0,0,0,0,0,0,-1,1364,1429,0,0
147,-405,0,0,0,0,0,0,0,0,0,-1,1371,1429,0,0
154,-405,0,0,0,0,0,0,0,0,0,-1,1378,1429,0,0
161,-405,0,0,0,0,0,0,0,0,0,-1,1385,1429,0,0
168,-405,0,0,0,0,0,0,0,0,0,-1,1392,1429,0,0
175,-405,0,0,0,0,0,0,0,0,0,-1,1399,1429,0,0
182,-405,0,0,0,0,0,0,0,0,0,-1,1406,1429,0,0
189,-405,0,0,0,0,0,0,0,0,0,-1,1413,1429,0,0
196,-405,0,0,0,0,0,0,0,0,0,-1,1420,1429,0,0
203,-405,0,0,0,0,0,0,0,0,0,-1,1427,1429,0,0
210,-405,0,0,0,0,0,0,0,0,0,-1,1434,1429,0,0
217,-405,0,0,0,0,0,0,0,0,0,-1,1441,1429,0,0
224,-405,0,0,0,0,0,0,0,0,0,-1,1448,1429,0,0
231,-405,0,0,0,0,0,0,0,0,0,-1,1455,1429,0,0
238,-405,0,0,0,0,0,0,0,0,0,-1,1462,1429,0,0
245,-405,0,0,0,0,0,0,0,0,0,-1,1469,1429,0,0
252,-405,0,0,0,0,0,0,0,0,0,-1,1476,1429,0,0
259,-405,0,0,0,0,0,0,0,0,0,-1,1483,1429,0,0
266,-405,0,0,0,0,0,0,0,0,0,-1,1490,1429,0,0
273,-405,0,0,0,0,0,0,0,0,0,-1,1497,1429,0,0
280,-405,0,0,0,0,0,0,0,0,0,-1,1504,1429,0,0
287,-405,0,0,0,0,0,0,0,0,0,-1,1511,1429,0,0
294,-405,0,0,0,0,0,0,0,0,0,-1,1518,1429,0,0
301,-405,0,0,0,0,0,0,0,0,0,-1,1525,1429,0,0
308,-405,0,0,0,0,0,0,0,0,0,-1,1532,1429,0,0
315,-405,0,0,0,0,0,0,0,0,0,-1,1539,1429,0,0
322,-405,0,0,0,0,0,0,0,0,0,-1,1546,1429,0,0
329,-405,0,0,0,0,0,0,0,0,0,-1,1553,1429,0,0
336,-405,0,0,0,0,0,0,0,0,0,-1,1560,1429,0,0
343,-405,0,0,0,0,0,0,0,0,0,-1,1567,1429,0,0
350,-405,0,0,0,0,0,0,0,0,0,-1,1574,1429,0,0
357,-405,0,0,0,0,0,0,0,0,0,-1,1581,1429,0,0
364,-405,0,0,0,0,0,0,0,0,0,-1,1588,1429,0,0
371,-405,0,0,0,0,0,0,0,0,0,-1,1595,1429,0,0
378,-405,0,0,0,0,0,0,0,0,0,-1,1602,1429,0,0
385,-405,0,0,0,0,0,0,0,0,0,-1,1609,1429,0,0
392,-405,0,0,0,0,0,0,0,0,0,-1,1616,1429,0,0
399,-405,0,0,0,0,0,0,0,0,0,-1,1623,1429,0,0
406,-405,0,0,0,0,0,0,0,0,0,-1,1630,1429,0,0
413,-405,0,0,0,0,0,0,0,0,0,-1,1637,1429,0,0
420,-405,0,0,0,0,0,0,0,0,0,-1,1644,1429,0,0
427,-405,0,0,0,0,0,0,0,0,0,-1,1651,1429,0,0
434,-405,0,0,0,0,0,0,0,0,0,-1,1658,1429,0,0
441,-405,0,0,0,0,0,0,0,0,0,-1,1665,1429,0,0
448,-405,0,0,0,0,0,0,0,0,0,-1,1672,1429,0,0
455,-405,0,0,0,0,0,0,0,0,0,-1,1679,1429,0,0
462,-405,0,0,0,0,0,0,0,0,0,-1,1686,1429,0,0
469,-405,0,0,0,0,0,0,0,0,0,-1,1693,1429,0,0
476,-405,0,0,0,0,0,0,0,0,0,-1,1700,1429,0,0
483,-405,0,0,0,0,0,0,0,0,0,-1,1707,1429,0,0
490,-405,0,0,0,0,0,0,0,0,0,-1,1714,1429,0,0
497,-405,0,0,0,0,0,0,0,0,0,-1,1721,1429,0,0
504,-405,0,0,0,0,0,0,0,0,0,-1,1728,1429,0,0
511,-405,0,0,0,0,0,0,0,0,0,-1,1735,1429,0,0
518,-405,0,0,0,0,0,0,0,0,0,-1,1742,1429,0,0
525,-405,31.1563,-1.40942,0,0,0,0,0,0,0,-1,1749,1429,31.1563,1.40937
532,-405,28.156,4.8783,0,0,0,0,0,0,0,-1,1756,1429,28.1561,-4.87833
539,-405,26.5133,3.02454,0,0,0,0,0,0,0,-1,1763,1429,26.5133,-3.0246
546,-405,29.5735,6.53052,0,0,0,0,0,0,0,-1,1770,1429,29.5735,-6.53049
553,-405,28.2911,6.70654,0,0,0,0,0,0,0,-1,1777,1429,28.2912,-6.70656
560,-405,26.9299,7.08472,0,0,0,0,0,0,0,-1,1784,1429,26.9299,-7.08469
567,-405,25.804,7.14661,0,0,0,0,0,0,0,-1,1791,1429,25.8039,-7.14665
574,-405,25.1151,8.07971,0,0,0,0,0,0,0,-1,1798,1429,25.1151,-8.07965
581,-405,23.5055,8.505,0,0,0,0,0,0,0,-1,1805,1429,23.5054,-8.50501
588,-405,21.7491,8.98254,0,0,0,0,0,0,0,-1,1812,1429,21.7491,-8.98254
595,-405,21.6327,10.7795,0,0,0,0,0,0,0,-1,1819,1429,21.6327,-10.7796
602,-405,21.6461,13.9199,0,0,0,0,0,0,0,-1,1826,1429,21.6461,-13.92
609,-405,33.2593,20.7756,0,0,0,0,0,0,0,-1,1833,1429,33.2593,-20.7756
616,-405,33.2915,19.9652,0,0,0,0,0,0,0,-1,1840,1429,33.2915,-19.9652
623,-405,33.2545,19.3525,0.00254229,0.000512907,-0.00132606,0.00319733,-0.000142142,-0.458821,0.00218048,0.0149267,1847,1429,33.2545,-19.3525
630,-405,33.2632,18.6422,0.00208704,0.000311348,-0.000996284,0.00253368,-0.000135293,-0.421444,0.00173597,0.0115266,1854,1429,33.2631,-18.6422
637,-405,33.2432,17.983,0.00181596,0.000190779,-0.000799266,0.00214316,-0.000136424,-0.388566,0.00147635,0.0120969,1861,1429,33.2432,-17.9831
644,-405,33.1653,17.3661,0.0017201,-5.29093e-05,-0.000546193,0.00187486,-0.000207662,-0.276094,0.00132456,0.0316417,1868,1429,33.1653,-17.3661
651,-405,33.0685,16.7875,0.00182427,-0.000270041,-0.000278964,0.00186079,-0.000306563,-0.130178,0.00135433,0.0358194,1875,1429,33.0685,-16.7874
658,-405,33.092,16.0964,0.00207128,-0.000572793,3.63878e-05,0.00207178,-0.000573293,0.0137586,0.00160675,0.0258997,1882,1429,33.092,-16.0965
665,-405,33.0809,15.4137,0.00247112,-0.000997036,0.000463762,0.00253206,-0.00105798,0.130662,0.00213016,0.0200865,1889,1429,33.081,-15.4137
672,-405,33.089,14.7598,0.00298492,-0.00162738,0.00109819,0.00323305,-0.00187551,0.222213,0.00298394,0.0243376,1896,1429,33.089,-14.7598
679,-405,33.207,14.1774,0.00372571,-0.00247997,0.001915,0.00426908,-0.00302334,0.276477,0.00423071,0.0271586,1903,1429,33.2071,-14.1774
686,-405,33.0378,13.7316,0.00459369,-0.00370849,0.00307782,0.00561024,-0.00472504,0.319003,0.00597437,0.0412108,1910,1429,33.0378,-13.7315
693,-405,32.9415,13.0061,0,0,0,0,0,0,0,-1,1917,1429,32.9416,-13.0061
700,-405,9.1958,4.02026,0,0,0,0,0,0,0,-1,1924,1429,9.19579,-4.02025
707,-405,7.40308,3.83191,0,0,0,0,0,0,0,-1,1931,1429,7.40311,-3.83194
714,-405,7.33252,3.47388,0,0,0,0,0,0,0,-1,1938,1429,7.33255,-3.47383
721,-405,9.23523,0.993896,0,0,0,0,0,0,0,-1,1945,1429,9.23523,-0.993884
728,-405,0,0,0,0,0,0,0,0,0,-1,1952,1429,0,0
735,-405,0,0,0,0,0,0,0,0,0,-1,1959,1429,0,0
742,-405,0,0,0,0,0,0,0,0,0,-1,1966,1429,0,0
749,-405,0,0,0,0,0,0,0,0,0,-1,1973,1429,0,0
756,-405,0,0,0,0,0,0,0,0,0,-1,1980,1429,0,0
763,-405,0,0,0,0,0,0,0,0,0,-1,1987,1429,0,0
770,-405,0,0,0,0,0,0,0,0,0,-1,1994,1429,0,0
777,-405,0,0,0,0,0,0,0,0,0,-1,2001,1429,0,0
784,-405,0,0,0,0,0,0,0,0,0,-1,2008,1429,0,0
791,-405,0,0,0,0,0,0,0,0,0,-1,2015,1429,0,0
798,-405,0,0,0,0,0,0,0,0,0,-1,2022,1429,0,0
805,-405,0,0,0,0,0,0,0,0,0,-1,2029,1429,0,0
812,-405,0,0,0,0,0,0,0,0,0,-1,2036,1429,0,0
-700,-412,0,0,0,0,0,0,0,0,0,-1,524,1436,0,0
-693,-412,0,0,0,0,0,0,0,0,0,-1,531,1436,0,0
-686,-412,0,0,0,0,0,0,0,0,0,-1,538,1436,0,0
-679,-412,0,0,0,0,0,0,0,0,0,-1,545,1436,0,0
-672,-412,0,0,0,0,0,0,0,0,0,-1,552,1436,0,0
-665,-412,0,0,0,0,0,0,0,0,0,-1,559,1436,0,0
-658,-412,0,0,0,0,0,0,0,0,0,-1,566,1436,0,0
-651,-412,0,0,0,0,0,0,0,0,0,-1,573,1436,0,0
-644,-412,0,0,0,0,0,0,0,0,0,-1,580,1436,0,0
-637,-412,0,0,0,0,0,0,0,0,0,-1,587,1436,0,0
-630,-412,0,0,0,0,0,0,0,0,0,-1,594,1436,0,0
-623,-412,0,0,0,0,0,0,0,0,0,-1,601,1436,0,0
-616,-412,0,0,0,0,0,0,0,0,0,-1,608,1436,0,0
-609,-412,0,0,0,0,0,0,0,0,0,-1,615,1436,0,0
-602,-412,-3.72766,-3.50012,0,0,0,0,0,0,0,-1,622,1436,-3.72764,3.50017
-595,-412,-10.3706,0.65564,0,0,0,0,0,0,0,-1,629,1436,-10.3706,-0.655672
-588,-412,-8.17957,1.94934,0,0,0,0,0,0,0,-1,636,1436,-8.17956,-1.94939
-581,-412,-6.60065,-0.0554199,0,0,0,0,0,0,0,-1,643,1436,-6.60063,0.0554733
-574,-412,-8.34131,5.25012,0,0,0,0,0,0,0,-1,650,1436,-8.34129,-5.25012
-567,-412,-7.50354,3.65454,0,0,0,0,0,0,0,-1,657,1436,-7.50356,-3.65452
-560,-412,-8.52448,7.39014,0,0,0,0,0,0,0,-1,664,1436,-8.52447,-7.39019
-553,-412,-7.36761,6.54651,0,0,0,0,0,0,0,-1,671,1436,-7.36763,-6.54654
-546,-412,-15.2515,12.3877,0,0,0,0,0,0,0,-1,678,1436,-15.2515,-12.3877
-539,-412,-15.192,13.1606,0.00461299,0.00373463,0.00330096,0.00750386,0.000843764,0.719263,0.00474638,0.0268098,685,1436,-15.192,-13.1606
-532,-412,-15.2532,13.9564,0.00356938,0.00270962,0.00247524,0.00565179,0.000627205,0.69942,0.00357717,0.0137432,692,1436,-15.2532,-13.9565
-525,-412,-15.2743,14.6732,0.00290181,0.00205999,0.00196055,0.00448612,0.000475673,0.679658,0.00284548,0.0148785,699,1436,-15.2743,-14.6733
-518,-412,-15.2726,15.3556,0.00246016,0.00163146,0.0016198,0.00371776,0.000373855,0.660181,0.00236377,0.0157658,706,1436,-15.2726,-15.3556
-511,-412,-15.3344,16.0253,0.00217858,0.00134793,0.00139343,0.00321726,0.000309244,0.640561,0.00204955,0.0185593,713,1436,-15.3344,-16.0252
-504,-412,-15.3917,16.7205,0.0020504,0.00122166,0.00127474,0.00297643,0.000295637,0.628255,0.00189345,0.0185101,720,1436,-15.3917,-16.7204
-497,-412,-15.4066,17.4412,0.00211361,0.00126709,0.00129673,0.00305441,0.000326287,0.627647,0.00193669,0.0148321,727,1436,-15.4066,-17.4411
-490,-412,-15.4234,18.1371,0.00238081,0.00152954,0.00147766,0.00349291,0.000417439,0.64517,0.00220269,0.0131114,734,1436,-15.4234,-18.1371
-483,-412,-15.4333,18.8191,0.0027642,0.00199996,0.00178707,0.00420954,0.000554612,0.680072,0.00264097,0.0112949,741,1436,-15.4333,-18.8191
-476,-412,-15.4074,19.5975,0,0,0,0,0,0,0,-1,748,1436,-15.4074,-19.5976
-469,-412,-12.7646,18.4785,0,0,0,0,0,0,0,-1,755,1436,-12.7647,-18.4785
-462,-412,-8.94659,13.3385,0,0,0,0,0,0,0,-1,762,1436,-8.94657,-13.3385
-455,-412,-8.25006,11.2572,0,0,0,0,0,0,0,-1,769,1436,-8.25007,-11.2572
-448,-412,-7.38086,8.78186,0,0,0,0,0,0,0,-1,776,1436,-7.38088,-8.78183
-441,-412,-8.79523,9.05286,0,0,0,0,0,0,0,-1,783,1436,-8.79521,-9.0529
-434,-412,-10.6305,8.03577,0,0,0,0,0,0,0,-1,790,1436,-10.6305,-8.0358
-427,-412,-10.0004,5.15271,0,0,0,0,0,0,0,-1,797,1436,-10.0004,-5.15266
-420,-412,-10.4468,4.9043,0,0,0,0,0,0,0,-1,804,1436,-10.4468,-4.90429
-413,-412,-11.5704,4.97766,0,0,0,0,0,0,0,-1,811,1436,-11.5704,-4.97771
-406,-412,-13.1968,5.70093,0,0,0,0,0,0,0,-1,818,1436,-13.1968,-5.70096
-399,-412,-10.5506,0.771973,0,0,0,0,0,0,0,-1,825,1436,-10.5506,-0.771954
-392,-412,0,0,0,0,0,0,0,0,0,-1,832,1436,0,0
-385,-412,0,0,0,0,0,0,0,0,0,-1,839,1436,0,0
-378,-412,0,0,0,0,0,0,0,0,0,-1,846,1436,0,0
-371,-412,0,0,0,0,0,0,0,0,0,-1,853,1436,0,0
-364,-412,0,0,0,0,0,0,0,0,0,-1,860,1436,0,0
-357,-412,0,0,0,0,0,0,0,0,0,-1,867,1436,0,0
-350,-412,0,0,0,0,0,0,0,0,0,-1,874,1436,0,0
-343,-412,0,0,0,0,0,0,0,0,0,-1,881,1436,0,0
-336,-412,0,0,0,0,0,0,0,0,0,-1,888,1436,0,0
-329,-412,0,0,0,0,0,0,0,0,0,-1,895,1436,0,0
-322,-412,0,0,0,0,0,0,0,0,0,-1,902,1436,0,0
-315,-412,0,0,0,0,0,0,0,0,0,-1,909,1436,0,0
-308,-412,0,0,0,0,0,0,0,0,0,-1,916,1436,0,0
-301,-412,0,0,0,0,0,0,0,0,0,-1,923,1436,0,0
-294,-412,0,0,0,0,0,0,0,0,0,-1,930,1436,0,0
-287,-412,0,0,0,0,0,0,0,0,0,-1,937,1436,0,0
-280,-412,0,0,0,0,0,0,0,0,0,-1,944,1436,0,0
-273,-412,0,0,0,0,0,0,0,0,0,-1,951,1436,0,0
-266,-412,0,0,0,0,0,0,0,0,0,-1,958,1436,0,0
-259,-412,0,0,0,0,0,0,0,0,0,-1,965,1436,0,0
-252,-412,0,0,0,0,0,0,0,0,0,-1,972,1436,0,0
-245,-412,0,0,0,0,0,0,0,0,0,-1,979,1436,0,0
-238,-412,0,0,0,0,0,0,0,0,0,-1,986,1436,0,0
-231,-412,0,0,0,0,0,0,0,0,0,-1,993,1436,0,0
-224,-412,0,0,0,0,0,0,0,0,0,-1,1000,1436,0,0
-217,-412,0,0,0,0,0,0,0,0,0,-1,1007,1436,0,0
-210,-412,0,0,0,0,0,0,0,0,0,-1,1014,1436,0,0
-203,-412,0,0,0,0,0,0,0,0,0,-1,1021,1436,0,0
-196,-412,0,0,0,0,0,0,0,0,0,-1,1028,1436,0,0
-189,-412,0,0,0,0,0,0,0,0,0,-1,1035,1436,0,0
-182,-412,0,0,0,0,0,0,0,0,0,-1,1042,1436,0,0
-175,-412,0,0,0,0,0,0,0,0,0,-1,1049,1436,0,0
-168,-412,0,0,0,0,0,0,0,0,0,-1,1056,1436,0,0
-161,-412,0,0,0,0,0,0,0,0,0,-1,1063,1436,0,0
-154,-412,0,0,0,0,0,0,0,0,0,-1,1070,1436,0,0
-147,-412,0,0,0,0,0,0,0,0,0,-1,1077,1436,0,0
-140,-412,0,0,0,0,0,0,0,0,0,-1,1084,1436,0,0
-133,-412,0,0,0,0,0,0,0,0,0,-1,1091,1436,0,0
-126,-412,0,0,0,0,0,0,0,0,0,-1,1098,1436,0,0
-119,-412,0,0,0,0,0,0,0,0,0,-1,1105,1436,0,0
-112,-412,0,0,0,0,0,0,0,0,0,-1,1112,1436,0,0
-105,-412,0,0,0,0,0,0,0,0,0,-1,1119,1436,0,0
-98,-412,0,0,0,0,0,0,0,0,0,-1,1126,1436,0,0
-91,-412,0,0,0,0,0,0,0,0,0,-1,1133,1436,0,0
-84,-412,0,0,0,0,0,0,0,0,0,-1,1140,1436,0,0
-77,-412,0,0,0,0,0,0,0,0,0,-1,1147,1436,0,0
-70,-412,0,0,0,0,0,0,0,0,0,-1,1154,1436,0,0
-63,-412,0,0,0,0,0,0,0,0,0,-1,1161,1436,0,0
-56,-412,0,0,0,0,0,0,0,0,0,-1,1168,1436,0,0
-49,-412,0,0,0,0,0,0,0,0,0,-1,1175,1436,0,0
-42,-412,0,0,0,0,0,0,0,0,0,-1,1182,1436,0,0
-35,-412,0,0,0,0,0,0,0,0,0,-1,1189,1436,0,0
-28,-412,0,0,0,0,0,0,0,0,0,-1,1196,1436,0,0
-21,-412,0,0,0,0,0,0,0,0,0,-1,1203,1436,0,0
-14,-412,0,0,0,0,0,0,0,0,0,-1,1210,1436,0,0
-7,-412,0,0,0,0,0,0,0,0,0,-1,1217,1436,0,0
0,-412,0,0,0,0,0,0,0,0,0,-1,1224,1436,0,0
7,-412,0,0,0,0,0,0,0,0,0,-1,1231,1436,0,0
14,-412,0,0,0,0,0,0,0,0,0,-1,1238,1436,0,0
21,-412,0,0,0,0,0,0,0,0,0,-1,1245,1436,0,0
28,-412,0,0,0,0,0,0,0,0,0,-1,1252,1436,0,0
35,-412,0,0,0,0,0,0,0,0,0,-1,1259,1436,0,0
42,-412,0,0,0,0,0,0,0,0,0,-1,1266,1436,0,0
49,-412,0,0,0,0,0,0,0,0,0,-1,1273,1436,0,0
56,-412,0,0,0,0,0,0,0,0,0,-1,1280,1436,0,0
63,-412,0,0,0,0,0,0,0,0,0,-1,1287,1436,0,0
70,-412,0,0,0,0,0,0,0,0,0,-1,1294,1436,0,0
77,-412,0,0,0,0,0,0,0,0,0,-1,1301,1436,0,0
84,-412,0,0,0,0,0,0,0,0,0,-1,1308,1436,0,0
91,-412,0,0,0,0,0,0,0,0,0,-1,1315,1436,0,0
98,-412,0,0,0,0,0,0,0,0,0,-1,1322,1436,0,0
105,-412,0,0,0,0,0,0,0,0,0,-1,1329,1436,0,0
112,-412,0,0,0,0,0,0,0,0,0,-1,1336,1436,0,0
119,-412,0,0,0,0,0,0,0,0,0,-1,1343,1436,0,0
126,-412,0,0,0,0,0,0,0,0,0,-1,1350,1436,0,0
133,-412,0,0,0,0,0,0,0,0,0,-1,1357,1436,0,0
140,-412,0,0,0,0,0,0,0,0,0,-1,1364,1436,0,0
147,-412,0,0,0,0,0,0,0,0,0,-1,1371,1436,0,0
154,-412,0,0,0,0,0,0,0,0,0,-1,1378,1436,0,0
161,-412,0,0,0,0,0,0,0,0,0,-1,1385,1436,0,0
168,-412,0,0,0,0,0,0,0,0,0,-1,1392,1436,0,0
175,-412,0,0,0,0,0,0,0,0,0,-1,1399,1436,0,0
182,-412,0,0,0,0,0,0,0,0,0,-1,1406,1436,0,0
189,-412,0,0,0,0,0,0,0,0,0,-1,1413,1436,0,0
196,-412,0,0,0,0,0,0,0,0,0,-1,1420,1436,0,0
203,-412,0,0,0,0,0,0,0,0,0,-1,1427,1436,0,0
210,-412,0,0,0,0,0,0,0,0,0,-1,1434,1436,0,0
217,-412,0,0,0,0,0,0,0,0,0,-1,1441,1436,0,0
224,-412,0,0,0,0,0,0,0,0,0,-1,1448,1436,0,0
231,-412,0,0,0,0,0,0,0,0,0,-1,1455,1436,0,0
238,-412,0,0,0,0,0,0,0,0,0,-1,1462,1436,0,0
245,-412,0,0,0,0,0,0,0,0,0,-1,1469,1436,0,0
252,-412,0,0,0,0,0,0,0,0,0,-1,1476,1436,0,0
259,-412,0,0,0,0,0,0,0,0,0,-1,1483,1436,0,0
266,-412,0,0,0,0,0,0,0,0,0,-1,1490,1436,0,0
273,-412,0,0,0,0,0,0,0,0,0,-1,1497,1436,0,0
280,-412,0,0,0,0,0,0,0,0,0,-1,1504,1436,0,0
287,-412,0,0,0,0,0,0,0,0,0,-1,1511,1436,0,0
294,-412,0,0,0,0,0,0,0,0,0,-1,1518,1436,0,0
301,-412,0,0,0,0,0,0,0,0,0,-1,1525,1436,0,0
308,-412,0,0,0,0,0,0,0,0,0,-1,1532,1436,0,0
315,-412,0,0,0,0,0,0,0,0,0,-1,1539,1436,0,0
322,-412,0,0,0,0,0,0,0,0,0,-1,1546,1436,0,0
329,-412,0,0,0,0,0,0,0,0,0,-1,1553,1436,0,0
336,-412,0,0,0,0,0,0,0,0,0,-1,1560,1436,0,0
343,-412,0,0,0,0,0,0,0,0,0,-1,1567,1436,0,0
350,-412,0,0,0,0,0,0,0,0,0,-1,1574,1436,0,0
357,-412,0,0,0,0,0,0,0,0,0,-1,1581,1436,0,0
364,-412,0,0,0,0,0,0,0,0,0,-1,1588,1436,0,0
371,-412,0,0,0,0,0,0,0,0,0,-1,1595,1436,0,0
378,-412,0,0,0,0,0,0,0,0,0,-1,1602,1436,0,0
385,-412,0,0,0,0,0,0,0,0,0,-1,1609,1436,0,0
392,-412,0,0,0,0,0,0,0,0,0,-1,1616,1436,0,0
399,-412,0,0,0,0,0,0,0,0,0,-1,1623,1436,0,0
406,-412,0,0,0,0,0,0,0,0,0,-1,1630,1436,0,0
413,-412,0,0,0,0,0,0,0,0,0,-1,1637,1436,0,0
420,-412,0,0,0,0,0,0,0,0,0,-1,1644,1436,0,0
427,-412,0,0,0,0,0,0,0,0,0,-1,1651,1436,0,0
434,-412,0,0,0,0,0,0,0,0,0,-1,1658,1436,0,0
441,-412,0,0,0,0,0,0,0,0,0,-1,1665,1436,0,0
448,-412,0,0,0,0,0,0,0,0,0,-1,1672,1436,0,0
455,-412,0,0,0,0,0,0,0,0,0,-1,1679,1436,0,0
462,-412,0,0,0,0,0,0,0,0,0,-1,1686,1436,0,0
469,-412,0,0,0,0,0,0,0,0,0,-1,1693,1436,0,0
476,-412,0,0,0,0,0,0,0,0,0,-1,1700,1436,0,0
483,-412,0,0,0,0,0,0,0,0,0,-1,1707,1436,0,0
490,-412,0,0,0,0,0,0,0,0,0,-1,1714,1436,0,0
497,-412,0,0,0,0,0,0,0,0,0,-1,1721,1436,0,0
504,-412,0,0,0,0,0,0,0,0,0,-1,1728,1436,0,0
511,-412,0,0,0,0,0,0,0,0,0,-1,1735,1436,0,0
518,-412,30.1038,-2.43384,0,0,0,0,0,0,0,-1,1742,1436,30.1038,2.43383
525,-412,29.5283,-1.42493,0,0,0,0,0,0,0,-1,1749,1436,29.5283,1.42495
532,-412,28.8533,-0.386597,0,0,0,0,0,0,0,-1,1756,1436,28.8533,0.386632
539,-412,25.8654,2.74683,0,0,0,0,0,0,0,-1,1763,1436,25.8654,-2.74685
546,-412,25.4265,2.4342,0,0,0,0,0,0,0,-1,1770,1436,25.4265,-2.4342
553,-412,26.3595,7.49255,0,0,0,0,0,0,0,-1,1777,1436,26.3595,-7.4925
560,-412,24.9116,7.94324,0,0,0,0,0,0,0,-1,1784,1436,24.9116,-7.94327
567,-412,23.668,7.94531,0,0,0,0,0,0,0,-1,1791,1436,23.6679,-7.94534
574,-412,23.0142,9.17236,0,0,0,0,0,0,0,-1,1798,1436,23.0141,-9.17235
581,-412,22.2615,10.0349,0,0,0,0,0,0,0,-1,1805,1436,22.2615,-10.0349
588,-412,21.6893,10.8069,0,0,0,0,0,0,0,-1,1812,1436,21.6893,-10.8069
595,-412,21.5137,14.3157,0,0,0,0,0,0,0,-1,1819,1436,21.5137,-14.3157
602,-412,32.6344,21.4127,0,0,0,0,0,0,0,-1,1826,1436,32.6344,-21.4127
609,-412,32.6643,20.6517,0.00402071,0.00187902,-0.00250623,0.00567528,0.00022445,-0.5835,0.00371097,0.0444279,1833,1436,32.6642,-20.6517
616,-412,32.6508,20.0084,0.00304442,0.000973525,-0.00169621,0.00399625,2.16954e-05,-0.511365,0.00265696,0.0133343,1840,1436,32.6508,-20.0085
623,-412,32.5936,19.3701,0.00234215,0.000562767,-0.00123383,0.00297361,-6.86909e-05,-0.473031,0.0020057,0.00997806,1847,1436,32.5936,-19.3701
630,-412,32.5791,18.694,0.0020037,0.000334927,-0.000959178,0.00244062,-0.000101994,-0.427432,0.00166212,0.011754,1854,1436,32.5791,-18.694
637,-412,32.5962,17.9962,0.00180125,0.00014635,-0.00075699,0.00209527,-0.000147676,-0.370479,0.00144858,0.0145935,1861,1436,32.5962,-17.9963
644,-412,32.5684,17.3613,0.00179487,-8.16145e-05,-0.000525622,0.00193207,-0.000218815,-0.255328,0.00136684,0.0169445,1868,1436,32.5683,-17.3613
651,-412,32.4745,16.7053,0.00195729,-0.000265037,-0.000320623,0.00200263,-0.00031037,-0.140458,0.00144966,0.0276801,1875,1436,32.4745,-16.7053
658,-412,32.457,16.0758,0.00224617,-0.000526588,-7.29803e-05,0.00224809,-0.000528507,-0.0262962,0.00170246,0.0178023,1882,1436,32.457,-16.0758
665,-412,32.4406,15.4303,0.00266743,-0.000931528,0.000315375,0.00269486,-0.000958956,0.0867485,0.00218745,0.0223099,1889,1436,32.4405,-15.4303
672,-412,32.4849,14.7679,0.00316777,-0.00157854,0.000946457,0.00334954,-0.00176031,0.189744,0.00299736,0.0317511,1896,1436,32.4849,-14.768
679,-412,32.5721,14.1162,0,0,0,0,0,0,0,-1,1903,1436,32.5721,-14.1162
686,-412,32.5468,14.0128,0,0,0,0,0,0,0,-1,1910,1436,32.5468,-14.0128
693,-412,11.9346,6.02344,0,0,0,0,0,0,0,-1,1917,1436,11.9346,-6.02343
700,-412,8.82764,5.8844,0,0,0,0,0,0,0,-1,1924,1436,8.82761,-5.88444
707,-412,6.59998,1.68994,0,0,0,0,0,0,0,-1,1931,1436,6.60002,-1.68995
714,-412,4.77283,-2.39832,0,0,0,0,0,0,0,-1,1938,1436,4.77288,2.39835
721,-412,0,0,0,0,0,0,0,0,0,-1,1945,1436,0,0
728,-412,0,0,0,0,0,0,0,0,0,-1,1952,1436,0,0
735,-412,0,0,0,0,0,0,0,0,0,-1,1959,1436,0,0
742,-412,0,0,0,0,0,0,0,0,0,-1,1966,1436,0,0
749,-412,0,0,0,0,0,0,0,0,0,-1,1973,1436,0,0
756,-412,0,0,0,0,0,0,0,0,0,-1,1980,1436,0,0
763,-412,0,0,0,0,0,0,0,0,0,-1,1987,1436,0,0
770,-412,0,0,0,0,0,0,0,0,0,-1,1994,1436,0,0
777,-412,0,0,0,0,0,0,0,0,0,-1,2001,1436,0,0
784,-412,0,0,0,0,0,0,0,0,0,-1,2008,1436,0,0
791,-412,0,0,0,0,0,0,0,0,0,-1,2015,1436,0,0
798,-412,0,0,0,0,0,0,0,0,0,-1,2022,1436,0,0
805,-412,0,0,0,0,0,0,0,0,0,-1,2029,1436,0,0
812,-412,0,0,0,0,0,0,0,0,0,-1,2036,1436,0,0
-700,-419,0,0,0,0,0,0,0,0,0,-1,524,1443,0,0
-693,-419,0,0,0,0,0,0,0,0,0,-1,531,1443,0,0
-686,-419,0,0,0,0,0,0,0,0,0,-1,538,1443,0,0
-679,-419,0,0,0,0,0,0,0,0,0,-1,545,1443,0,0
-672,-419,0,0,0,0,0,0,0,0,0,-1,552,1443,0,0
-665,-419,0,0,0,0,0,0,0,0,0,-1,559,1443,0,0
-658,-419,0,0,0,0,0,0,0,0,0,-1,566,1443,0,0
-651,-419,0,0,0,0,0,0,0,0,0,-1,573,1443,0,0
-644,-419,0,0,0,0,0,0,0,0,0,-1,580,1443,0,0
-637,-419,0,0,0,0,0,0,0,0,0,-1,587,1443,0,0
-630,-419,0,0,0,0,0,0,0,0,0,-1,594,1443,0,0
-623,-419,0,0,0,0,0,0,0,0,0,-1,601,1443,0,0
-616,-419,0,0,0,0,0,0,0,0,0,-1,608,1443,0,0
-609,-419,0,0,0,0,0,0,0,0,0,-1,615,1443,0,0
-602,-419,0,0,0,0,0,0,0,0,0,-1,622,1443,0,0
-595,-419,-11.4904,-0.622681,0,0,0,0,0,0,0,-1,629,1443,-11.4903,0.622714
-588,-419,-9.09369,0.742432,0,0,0,0,0,0,0,-1,636,1443,-9.09366,-0.742482
-581,-419,-6.39172,2.14673,0,0,0,0,0,0,0,-1,643,1443,-6.39175,-2.14668
-574,-419,-4.09772,3.54773,0,0,0,0,0,0,0,-1,650,1443,-4.09772,-3.54767
-567,-419,-6.14038,3.22498,0,0,0,0,0,0,0,-1,657,1443,-6.14037,-3.22497
-560,-419,-4.52814,5.22253,0,0,0,0,0,0,0,-1,664,1443,-4.52816,-5.22251
-553,-419,-5.08331,6.11829,0,0,0,0,0,0,0,-1,671,1443,-5.08331,-6.1183
-546,-419,-10.3732,9.23279,0,0,0,0,0,0,0,-1,678,1443,-10.3732,-9.23275
-539,-419,-14.5052,13.092,0,0,0,0,0,0,0,-1,685,1443,-14.5053,-13.0921
-532,-419,-14.5627,13.9662,0.00394495,0.00347943,0.00302697,0.0067481,0.00067629,0.747026,0.0042911,0.027551,692,1443,-14.5628,-13.9662
-525,-419,-14.5585,14.7198,0.00314606,0.002626,0.00240015,0.00530023,0.000471832,0.731439,0.00338718,0.0129434,699,1443,-14.5585,-14.7199
-518,-419,-14.5469,15.4009,0.00259892,0.00205915,0.00196175,0.00430927,0.000348808,0.717041,0.00276392,0.0169018,706,1443,-14.5469,-15.4009
-511,-419,-14.5825,16.0822,0.00220688,0.00164084,0.00161837,0.00356679,0.000280933,0.698834,0.00228997,0.0195602,713,1443,-14.5825,-16.0821
-504,-419,-14.6589,16.776,0.00194676,0.00138054,0.00136722,0.00305988,0.000267426,0.683306,0.00195688,0.0192548,720,1443,-14.6589,-16.776
-497,-419,-14.7062,17.4495,0.00185877,0.00128557,0.00123666,0.00284161,0.000302735,0.671532,0.00180199,0.0145168,727,1443,-14.7062,-17.4494
-490,-419,-14.7256,18.1437,0.00194419,0.00140977,0.00126909,0.00297389,0.000380067,0.681637,0.00186883,0.0120836,734,1443,-14.7256,-18.1437
-483,-419,-14.7507,18.8401,0.00216337,0.0017408,0.00142038,0.00338809,0.000516079,0.711564,0.00210787,0.00976366,741,1443,-14.7507,-18.8401
-476,-419,-14.7258,19.601,0.00251185,0.00221549,0.00171633,0.00408639,0.000640959,0.742337,0.00253773,0.0197581,748,1443,-14.7258,-19.601
-469,-419,-14.7362,20.3898,0,0,0,0,0,0,0,-1,755,1443,-14.7362,-20.3897
-462,-419,-11.5347,18.1563,0,0,0,0,0,0,0,-1,762,1443,-11.5347,-18.1562
-455,-419,-7.35645,11.9451,0,0,0,0,0,0,0,-1,769,1443,-7.35646,-11.9451
-448,-419,-7.49109,9.92444,0,0,0,0,0,0,0,-1,776,1443,-7.49109,-9.92442
-441,-419,-7.65527,8.75574,0,0,0,0,0,0,0,-1,783,1443,-7.65525,-8.75568
-434,-419,-11.3724,12.3643,0,0,0,0,0,0,0,-1,790,1443,-11.3724,-12.3643
-427,-419,-8.23193,7.89404,0,0,0,0,0,0,0,-1,797,1443,-8.23193,-7.89404
-420,-419,-8.74091,6.36597,0,0,0,0,0,0,0,-1,804,1443,-8.74089,-6.366
-413,-419,-9.88391,6.53955,0,0,0,0,0,0,0,-1,811,1443,-9.8839,-6.53955
-406,-419,-10.3372,2.75195,0,0,0,0,0,0,0,-1,818,1443,-10.3372,-2.75201
-399,-419,-11.5999,1.40002,0,0,0,0,0,0,0,-1,825,1443,-11.5999,-1.39998
-392,-419,0,0,0,0,0,0,0,0,0,-1,832,1443,0,0
-385,-419,0,0,0,0,0,0,0,0,0,-1,839,1443,0,0
-378,-419,0,0,0,0,0,0,0,0,0,-1,846,1443,0,0
-371,-419,0,0,0,0,0,0,0,0,0,-1,853,1443,0,0
-364,-419,0,0,0,0,0,0,0,0,0,-1,860,1443,0,0
-357,-419,0,0,0,0,0,0,0,0,0,-1,867,1443,0,0
-350,-419,0,0,0,0,0,0,0,0,0,-1,874,1443,0,0
-343,-419,0,0,0,0,0,0,0,0,0,-1,881,1443,0,0
-336,-419,0,0,0,0,0,0,0,0,0,-1,888,1443,0,0
-329,-419,0,0,0,0,0,0,0,0,0,-1,895,1443,0,0
-322,-419,0,0,0,0,0,0,0,0,0,-1,902,1443,0,0
-315,-419,0,0,0,0,0,0,0,0,0,-1,909,1443,0,0
-308,-419,0,0,0,0,0,0,0,0,0,-1,916,1443,0,0
-301,-419,0,0,0,0,0,0,0,0,0,-1,923,1443,0,0
-294,-419,0,0,0,0,0,0,0,0,0,-1,930,1443,0,0
-287,-419,0,0,0,0,0,0,0,0,0,-1,937,1443,0,0
-280,-419,0,0,0,0,0,0,0,0,0,-1,944,1443,0,0
-273,-419,0,0,0,0,0,0,0,0,0,-1,951,1443,0,0
-266,-419,0,0,0,0,0,0,0,0,0,-1,958,1443,0,0
-259,-419,0,0,0,0,0,0,0,0,0,-1,965,1443,0,0
-252,-419,0,0,0,0,0,0,0,0,0,-1,972,1443,0,0
-245,-419,0,0,0,0,0,0,0,0,0,-1,979,1443,0,0
-238,-419,0,0,0,0,0,0,0,0,0,-1,986,1443,0,0
-231,-419,0,0,0,0,0,0,0,0,0,-1,993,1443,0,0
-224,-419,0,0,0,0,0,0,0,0,0,-1,1000,1443,0,0
-217,-419,0,0,0,0,0,0,0,0,0,-1,1007,1443,0,0
-210,-419,0,0,0,0,0,0,0,0,0,-1,1014,1443,0,0
-203,-419,0,0,0,0,0,0,0,0,0,-1,1021,1443,0,0
-196,-419,0,0,0,0,0,0,0,0,0,-1,1028,1443,0,0
-189,-419,0,0,0,0,0,0,0,0,0,-1,1035,1443,0,0
-182,-419,0,0,0,0,0,0,0,0,0,-1,1042,1443,0,0
-175,-419,0,0,0,0,0,0,0,0,0,-1,1049,1443,0,0
-168,-419,0,0,0,0,0,0,0,0,0,-1,1056,1443,0,0
-161,-419,0,0,0,0,0,0,0,0,0,-1,1063,1443,0,0
-154,-419,0,0,0,0,0,0,0,0,0,-1,1070,1443,0,0
-147,-419,0,0,0,0,0,0,0,0,0,-1,1077,1443,0,0
-140,-419,0,0,0,0,0,0,0,0,0,-1,1084,1443,0,0
-133,-419,0,0,0,0,0,0,0,0,0,-1,1091,1443,0,0
-126,-419,0,0,0,0,0,0,0,0,0,-1,1098,1443,0,0
-119,-419,0,0,0,0,0,0,0,0,0,-1,1105,1443,0,0
-112,-419,0,0,0,0,0,0,0,0,0,-1,1112,1443,0,0
-105,-419,0,0,0,0,0,0,0,0,0,-1,1119,1443,0,0
-98,-419,0,0,0,0,0,0,0,0,0,-1,1126,1443,0,0
-91,-419,0,0,0,0,0,0,0,0,0,-1,1133,1443,0,0
-84,-419,0,0,0,0,0,0,0,0,0,-1,1140,1443,0,0
-77,-419,0,0,0,0,0,0,0,0,0,-1,1147,1443,0,0
-70,-419,0,0,0,0,0,0,0,0,0,-1,1154,1443,0,0
-63,-419,0,0,0,0,0,0,0,0,0,-1,1161,1443,0,0
-56,-419,0,0,0,0,0,0,0,0,0,-1,1168,1443,0,0
-49,-419,0,0,0,0,0,0,0,0,0,-1,1175,1443,0,0
-42,-419,0,0,0,0,0,0,0,0,0,-1,1182,1443,0,0
-35,-419,0,0,0,0,0,0,0,0,0,-1,1189,1443,0,0
-28,-419,0,0,0,0,0,0,0,0,0,-1,1196,1443,0,0
-21,-419,0,0,0,0,0,0,0,0,0,-1,1203,1443,0,0
-14,-419,0,0,0,0,0,0,0,0,0,-1,1210,1443,0,0
-7,-419,0,0,0,0,0,0,0,0,0,-1,1217,1443,0,0
0,-419,0,0,0,0,0,0,0,0,0,-1,1224,1443,0,0
7,-419,0,0,0,0,0,0,0,0,0,-1,1231,1443,0,0
14,-419,0,0,0,0,0,0,0,0,0,-1,1238,1443,0,0
21,-419,0,0,0,0,0,0,0,0,0,-1,1245,1443,0,0
28,-419,0,0,0,0,0,0,0,0,0,-1,1252,1443,0,0
35,-419,0,0,0,0,0,0,0,0,0,-1,1259,1443,0,0
42,-419,0,0,0,0,0,0,0,0,0,-1,1266,1443,0,0
49,-419,0,0,0,0,0,0,0,0,0,-1,1273,1443,0,0
56,-419,0,0,0,0,0,0,0,0,0,-1,1280,1443,0,0
63,-419,0,0,0,0,0,0,0,0,0,-1,1287,1443,0,0
70,-419,0,0,0,0,0,0,0,0,0,-1,1294,1443,0,0
77,-419,0,0,0,0,0,0,0,0,0,-1,1301,1443,0,0
84,-419,0,0,0,0,0,0,0,0,0,-1,1308,1443,0,0
91,-419,0,0,0,0,0,0,0,0,0,-1,1315,1443,0,0
98,-419,0,0,0,0,0,0,0,0,0,-1,1322,1443,0,0
105,-419,0,0,0,0,0,0,0,0,0,-1,1329,1443,0,0
112,-419,0,0,0,0,0,0,0,0,0,-1,1336,1443,0,0
119,-419,0,0,0,0,0,0,0,0,0,-1,1343,1443,0,0
126,-419,0,0,0,0,0,0,0,0,0,-1,1350,1443,0,0
133,-419,0,0,0,0,0,0,0,0,0,-1,1357,1443,0,0
140,-419,0,0,0,0,0,0,0,0,0,-1,1364,1443,0,0
147,-419,0,0,0,0,0,0,0,0,0,-1,1371,1443,0,0
154,-419,0,0,0,0,0,0,0,0,0,-1,1378,1443,0,0
161,-419,0,0,0,0,0,0,0,0,0,-1,1385,1443,0,0
168,-419,0,0,0,0,0,0,0,0,0,-1,1392,1443,0,0
175,-419,0,0,0,0,0,0,0,0,0,-1,1399,1443,0,0
182,-419,0,0,0,0,0,0,0,0,0,-1,1406,1443,0,0
189,-419,0,0,0,0,0,0,0,0,0,-1,1413,1443,0,0
196,-419,0,0,0,0,0,0,0,0,0,-1,1420,1443,0,0
203,-419,0,0,0,0,0,0,0,0,0,-1,1427,1443,0,0
210,-419,0,0,0,0,0,0,0,0,0,-1,1434,1443,0,0
217,-419,0,0,0,0,0,0,0,0,0,-1,1441,1443,0,0
224,-419,0,0,0,0,0,0,0,0,0,-1,1448,1443,0,0
231,-419,0,0,0,0,0,0,0,0,0,-1,1455,1443,0,0
238,-419,0,0,0,0,0,0,0,0,0,-1,1462,1443,0,0
245,-419,0,0,0,0,0,0,0,0,0,-1,1469,1443,0,0
252,-419,0,0,0,0,0,0,0,0,0,-1,1476,1443,0,0
259,-419,0,0,0,0,0,0,0,0,0,-1,1483,1443,0,0
266,-419,0,0,0,0,0,0,0,0,0,-1,1490,1443,0,0
273,-419,0,0,0,0,0,0,0,0,0,-1,1497,1443,0,0
280,-419,0,0,0,0,0,0,0,0,0,-1,1504,1443,0,0
287,-419,0,0,0,0,0,0,0,0,0,-1,1511,1443,0,0
294,-419,0,0,0,0,0,0,0,0,0,-1,1518,1443,0,0
301,-419,0,0,0,0,0,0,0,0,0,-1,1525,1443,0,0
308,-419,0,0,0,0,0,0,0,0,0,-1,1532,1443,0,0
315,-419,0,0,0,0,0,0,0,0,0,-1,1539,1443,0,0
322,-419,0,0,0,0,0,0,0,0,0,-1,1546,1443,0,0
329,-419,0,0,0,0,0,0,0,0,0,-1,1553,1443,0,0
336,-419,0,0,0,0,0,0,0,0,0,-1,1560,1443,0,0
343,-419,0,0,0,0,0,0,0,0,0,-1,1567,1443,0,0
350,-419,0,0,0,0,0,0,0,0,0,-1,1574,1443,0,0
357,-419,0,0,0,0,0,0,0,0,0,-1,1581,1443,0,0
364,-419,0,0,0,0,0,0,0,0,0,-1,1588,1443,0,0
371,-419,0,0,0,0,0,0,0,0,0,-1,1595,1443,0,0
378,-419,0,0,0,0,0,0,0,0,0,-1,1602,1443,0,0
385,-419,0,0,0,0,0,0,0,0,0,-1,1609,1443,0,0
392,-419,0,0,0,0,0,0,0,0,0,-1,1616,1443,0,0
399,-419,0,0,0,0,0,0,0,0,0,-1,1623,1443,0,0
406,-419,0,0,0,0,0,0,0,0,0,-1,1630,1443,0,0
413,-419,0,0,0,0,0,0,0,0,0,-1,1637,1443,0,0
420,-419,0,0,0,0,0,0,0,0,0,-1,1644,1443,0,0
427,-419,0,0,0,0,0,0,0,0,0,-1,1651,1443,0,0
434,-419,0,0,0,0,0,0,0,0,0,-1,1658,1443,0,0
441,-419,0,0,0,0,0,0,0,0,0,-1,1665,1443,0,0
448,-419,0,0,0,0,0,0,0,0,0,-1,1672,1443,0,0
455,-419,0,0,0,0,0,0,0,0,0,-1,1679,1443,0,0
462,-419,0,0,0,0,0,0,0,0,0,-1,1686,1443,0,0
469,-419,0,0,0,0,0,0,0,0,0,-1,1693,1443,0,0
476,-419,0,0,0,0,0,0,0,0,0,-1,1700,1443,0,0
483,-419,0,0,0,0,0,0,0,0,0,-1,1707,1443,0,0
490,-419,0,0,0,0,0,0,0,0,0,-1,1714,1443,0,0
497,-419,0,0,0,0,0,0,0,0,0,-1,1721,1443,0,0
504,-419,0,0,0,0,0,0,0,0,0,-1,1728,1443,0,0
511,-419,20.3005,3.7959,0,0,0,0,0,0,0,-1,1735,1443,20.3005,-3.79584
518,-419,21.3154,2.03027,0,0,0,0,0,0,0,-1,1742,1443,21.3155,-2.03029
525,-419,28.3439,-1.24475,0,0,0,0,0,0,0,-1,1749,1443,28.3438,1.24471
532,-419,27.5902,-0.272583,0,0,0,0,0,0,0,-1,1756,1443,27.5902,0.272526
539,-419,26.5278,1.60583,0,0,0,0,0,0,0,-1,1763,1443,26.5279,-1.60579
546,-419,24.9509,2.77539,0,0,0,0,0,0,0,-1,1770,1443,24.9509,-2.77537
553,-419,24.118,3.75525,0,0,0,0,0,0,0,-1,1777,1443,24.1181,-3.75526
560,-419,11.8199,8.26343,0,0,0,0,0,0,0,-1,1784,1443,11.82,-8.26341
567,-419,21.5143,8.74719,0,0,0,0,0,0,0,-1,1791,1443,21.5143,-8.74722
574,-419,19.5886,6.46155,0,0,0,0,0,0,0,-1,1798,1443,19.5886,-6.46157
581,-419,20.7926,11.4265,0,0,0,0,0,0,0,-1,1805,1443,20.7926,-11.4265
588,-419,19.4242,12.5363,0,0,0,0,0,0,0,-1,1812,1443,19.4242,-12.5362
595,-419,22.9375,16.0151,0,0,0,0,0,0,0,-1,1819,1443,22.9375,-16.0152
602,-419,32.0522,21.3573,0,0,0,0,0,0,0,-1,1826,1443,32.0523,-21.3573
609,-419,32.0156,20.6896,0.00336476,0.00147779,-0.00213901,0.00475913,8.34262e-05,-0.577691,0.00314531,0.0240324,1833,1443,32.0156,-20.6895
616,-419,31.9769,20.0636,0.00263534,0.00088875,-0.00154113,0.00353341,-9.31404e-06,-0.527626,0.00235872,0.0133449,1840,1443,31.9769,-20.0636
623,-419,31.9507,19.4077,0.00214608,0.000568541,-0.00114532,0.00274797,-3.3345e-05,-0.483851,0.00184319,0.0110627,1847,1443,31.9507,-19.4077
630,-419,31.947,18.7247,0.00191912,0.000340957,-0.000899227,0.00232639,-6.63141e-05,-0.425273,0.0015735,0.0128455,1854,1443,31.947,-18.7247
637,-419,31.9337,18.0703,0.00180088,0.000125566,-0.000693853,0.00205093,-0.000124481,-0.345888,0.00141061,0.0145113,1861,1443,31.9338,-18.0703
644,-419,31.9093,17.4309,0.00188302,-6.36023e-05,-0.000482985,0.00199627,-0.000176849,-0.230312,0.00139354,0.0137104,1868,1443,31.9093,-17.4309
651,-419,31.8562,16.8206,0.00210315,-0.000199172,-0.000339458,0.00215215,-0.00024818,-0.143378,0.00152425,0.0129305,1875,1443,31.8562,-16.8205
658,-419,31.8114,16.1431,0.00245129,-0.000391062,-0.000170428,0.00246147,-0.000401244,-0.0596753,0.00178978,0.0133896,1882,1443,31.8114,-16.143
665,-419,31.8156,15.468,0.00290416,-0.000741057,0.000159998,0.00291117,-0.000748066,0.0437804,0.00223232,0.0203038,1889,1443,31.8155,-15.4681
672,-419,31.9028,14.7552,0.00339154,-0.00135905,0.000757024,0.00350926,-0.00147676,0.154265,0.00295733,0.0376866,1896,1443,31.9028,-14.7553
679,-419,32.1575,14.1237,0,0,0,0,0,0,0,-1,1903,1443,32.1575,-14.1236
686,-419,17.4127,8.03076,0,0,0,0,0,0,0,-1,1910,1443,17.4127,-8.03071
693,-419,8.76086,5.60535,0,0,0,0,0,0,0,-1,1917,1443,8.76091,-5.6054
700,-419,11.0498,4.85156,0,0,0,0,0,0,0,-1,1924,1443,11.0498,-4.85153
707,-419,9.5752,1.80042,0,0,0,0,0,0,0,-1,1931,1443,9.57523,-1.80037
714,-419,5.77576,-1.25061,0,0,0,0,0,0,0,-1,1938,1443,5.7757,1.25056
721,-419,0,0,0,0,0,0,0,0,0,-1,1945,1443,0,0
728,-419,0,0,0,0,0,0,0,0,0,-1,1952,1443,0,0
735,-419,0,0,0,0,0,0,0,0,0,-1,1959,1443,0,0
742,-419,0,0,0,0,0,0,0,0,0,-1,1966,1443,0,0
749,-419,0,0,0,0,0,0,0,0,0,-1,1973,1443,0,0
756,-419,0,0,0,0,0,0,0,0,0,-1,1980,1443,0,0
763,-419,0,0,0,0,0,0,0,0,0,-1,1987,1443,0,0
770,-419,0,0,0,0,0,0,0,0,0,-1,1994,1443,0,0
777,-419,0,0,0,0,0,0,0,0,0,-1,2001,1443,0,0
784,-419,0,0,0,0,0,0,0,0,0,-1,2008,1443,0,0
791,-419,0,0,0,0,0,0,0,0,0,-1,2015,1443,0,0
798,-419,0,0,0,0,0,0,0,0,0,-1,2022,1443,0,0
805,-419,0,0,0,0,0,0,0,0,0,-1,2029,1443,0,0
812,-419,0,0,0,0,0,0,0,0,0,-1,2036,1443,0,0
-700,-426,0,0,0,0,0,0,0,0,0,-1,524,1450,0,0
-693,-426,0,0,0,0,0,0,0,0,0,-1,531,1450,0,0
-686,-426,0,0,0,0,0,0,0,0,0,-1,538,1450,0,0
-679,-426,0,0,0,0,0,0,0,0,0,-1,545,1450,0,0
-672,-426,0,0,0,0,0,0,0,0,0,-1,552,1450,0,0
-665,-426,0,0,0,0,0,0,0,0,0,-1,559,1450,0,0
-658,-426,0,0,0,0,0,0,0,0,0,-1,566,1450,0,0
-651,-426,0,0,0,0,0,0,0,0,0,-1,573,1450,0,0
-644,-426,0,0,0,0,0,0,0,0,0,-1,580,1450,0,0
-637,-426,0,0,0,0,0,0,0,0,0,-1,587,1450,0,0
-630,-426,0,0,0,0,0,0,0,0,0,-1,594,1450,0,0
-623,-426,0,0,0,0,0,0,0,0,0,-1,601,1450,0,0
-616,-426,0,0,0,0,0,0,0,0,0,-1,608,1450,0,0
-609,-426,0,0,0,0,0,0,0,0,0,-1,615,1450,0,0
-602,-426,0,0,0,0,0,0,0,0,0,-1,622,1450,0,0
-595,-426,0,0,0,0,0,0,0,0,0,-1,629,1450,0,0
-588,-426,-10.184,-0.554321,0,0,0,0,0,0,0,-1,636,1450,-10.184,0.554321
-581,-426,-7.3349,1.48157,0,0,0,0,0,0,0,-1,643,1450,-7.33491,-1.48152
-574,-426,-5.02856,2.89319,0,0,0,0,0,0,0,-1,650,1450,-5.02858,-2.89319
-567,-426,-3.04797,1.72644,0,0,0,0,0,0,0,-1,657,1450,-3.04797,-1.72639
-560,-426,-5.55682,3.44397,0,0,0,0,0,0,0,-1,664,1450,-5.55684,-3.44399
-553,-426,-4.67017,6.66614,0,0,0,0,0,0,0,-1,671,1450,-4.67015,-6.66619
-546,-426,-7.58752,8.28882,0,0,0,0,0,0,0,-1,678,1450,-7.58752,-8.28878
-539,-426,-10.436,10.7441,0,0,0,0,0,0,0,-1,685,1450,-10.436,-10.7441
-532,-426,-13.9506,13.9515,0,0,0,0,0,0,0,-1,692,1450,-13.9506,-13.9515
-525,-426,-13.9102,14.6722,0.00341177,0.00326666,0.00297177,0.00631187,0.000366559,0.773193,0.00409121,0.0216755,699,1450,-13.9102,-14.6722
-518,-426,-13.8757,15.434,0.0027983,0.00255815,0.00242681,0.00510801,0.000248444,0.760679,0.00332562,0.0168465,706,1450,-13.8758,-15.4339
-511,-426,-13.896,16.142,0.00233296,0.00200473,0.00196588,0.00414156,0.000196127,0.743754,0.00269804,0.0163446,713,1450,-13.896,-16.142
-504,-426,-13.9528,16.8275,0.00197392,0.00160739,0.00158885,0.00339004,0.000191272,0.727979,0.00219904,0.0158145,720,1450,-13.9528,-16.8275
-497,-426,-13.9911,17.4974,0.00175529,0.00137392,0.00131387,0.00289224,0.000236967,0.713336,0.00185423,0.0130946,727,1450,-13.9911,-17.4974
-490,-426,-14.0114,18.1981,0.00169048,0.00135715,0.00120032,0.00273565,0.000311983,0.716414,0.00172918,0.0128952,734,1450,-14.0114,-18.1982
-483,-426,-14.0599,18.8793,0.00177862,0.00154313,0.00120565,0.00287226,0.000449493,0.736722,0.00178399,0.0119323,741,1450,-14.0599,-18.8793
-476,-426,-14.0959,19.5499,0.00202131,0.00192166,0.00138979,0.00336217,0.000580799,0.76748,0.00207512,0.00939474,748,1450,-14.096,-19.5499
-469,-426,-14.1176,20.2261,0.00247847,0.00257073,0.00175614,0.00428135,0.000767851,0.798529,0.00263583,0.0134251,755,1450,-14.1176,-20.226
-462,-426,-14.0413,20.9457,0,0,0,0,0,0,0,-1,762,1450,-14.0413,-20.9457
-455,-426,-10.215,17.7007,0,0,0,0,0,0,0,-1,769,1450,-10.215,-17.7007
-448,-426,-6.46545,10.1322,0,0,0,0,0,0,0,-1,776,1450,-6.46543,-10.1322
-441,-426,-10.9547,11.4747,0,0,0,0,0,0,0,-1,783,1450,-10.9546,-11.4748
-434,-426,-10.4998,13.6189,0,0,0,0,0,0,0,-1,790,1450,-10.4997,-13.6189
-427,-426,-9.36627,13.7396,0,0,0,0,0,0,0,-1,797,1450,-9.36628,-13.7396
-420,-426,-5.33765,7.95044,0,0,0,0,0,0,0,-1,804,1450,-5.33766,-7.95041
-413,-426,-10.1148,5.0415,0,0,0,0,0,0,0,-1,811,1450,-10.1148,-5.04152
-406,-426,-11.4199,3.6438,0,0,0,0,0,0,0,-1,818,1450,-11.4198,-3.64382
-399,-426,-12.7595,2.29004,0,0,0,0,0,0,0,-1,825,1450,-12.7595,-2.29003
-392,-426,-12.4147,0.537354,0,0,0,0,0,0,0,-1,832,1450,-12.4147,-0.53731
-385,-426,0,0,0,0,0,0,0,0,0,-1,839,1450,0,0
-378,-426,0,0,0,0,0,0,0,0,0,-1,846,1450,0,0
-371,-426,0,0,0,0,0,0,0,0,0,-1,853,1450,0,0
-364,-426,0,0,0,0,0,0,0,0,0,-1,860,1450,0,0
-357,-426,0,0,0,0,0,0,0,0,0,-1,867,1450,0,0
-350,-426,0,0,0,0,0,0,0,0,0,-1,874,1450,0,0
-343,-426,0,0,0,0,0,0,0,0,0,-1,881,1450,0,0
-336,-426,0,0,0,0,0,0,0,0,0,-1,888,1450,0,0
-329,-426,0,0,0,0,0,0,0,0,0,-1,895,1450,0,0
-322,-426,0,0,0,0,0,0,0,0,0,-1,902,1450,0,0
-315,-426,0,0,0,0,0,0,0,0,0,-1,909,1450,0,0
-308,-426,0,0,0,0,0,0,0,0,0,-1,916,1450,0,0
-301,-426,0,0,0,0,0,0,0,0,0,-1,923,1450,0,0
-294,-426,0,0,0,0,0,0,0,0,0,-1,930,1450,0,0
-287,-426,0,0,0,0,0,0,0,0,0,-1,937,1450,0,0
-280,-426,0,0,0,0,0,0,0,0,0,-1,944,1450,0,0
-273,-426,0,0,0,0,0,0,0,0,0,-1,951,1450,0,0
-266,-426,0,0,0,0,0,0,0,0,0,-1,958,1450,0,0
-259,-426,0,0,0,0,0,0,0,0,0,-1,965,1450,0,0
-252,-426,0,0,0,0,0,0,0,0,0,-1,972,1450,0,0
-245,-426,0,0,0,0,0,0,0,0,0,-1,979,1450,0,0
-238,-426,0,0,0,0,0,0,0,0,0,-1,986,1450,0,0
-231,-426,0,0,0,0,0,0,0,0,0,-1,993,1450,0,0
-224,-426,0,0,0,0,0,0,0,0,0,-1,1000,1450,0,0
-217,-426,0,0,0,0,0,0,0,0,0,-1,1007,1450,0,0
-210,-426,0,0,0,0,0,0,0,0,0,-1,1014,1450,0,0
-203,-426,0,0,0,0,0,0,0,0,0,-1,1021,1450,0,0
-196,-426,0,0,0,0,0,0,0,0,0,-1,1028,1450,0,0
-189,-426,0,0,0,0,0,0,0,0,0,-1,1035,1450,0,0
-182,-426,0,0,0,0,0,0,0,0,0,-1,1042,1450,0,0
-175,-426,0,0,0,0,0,0,0,0,0,-1,1049,1450,0,0
-168,-426,0,0,0,0,0,0,0,0,0,-1,1056,1450,0,0
-161,-426,0,0,0,0,0,0,0,0,0,-1,1063,1450,0,0
-154,-426,0,0,0,0,0,0,0,0,0,-1,1070,1450,0,0
-147,-426,0,0,0,0,0,0,0,0,0,-1,1077,1450,0,0
-140,-426,0,0,0,0,0,0,0,0,0,-1,1084,1450,0,0
-133,-426,0,0,0,0,0,0,0,0,0,-1,1091,1450,0,0
-126,-426,0,0,0,0,0,0,0,0,0,-1,1098,1450,0,0
-119,-426,0,0,0,0,0,0,0,0,0,-1,1105,1450,0,0
-112,-426,0,0,0,0,0,0,0,0,0,-1,1112,1450,0,0
-105,-426,0,0,0,0,0,0,0,0,0,-1,1119,1450,0,0
-98,-426,0,0,0,0,0,0,0,0,0,-1,1126,1450,0,0
-91,-426,0,0,0,0,0,0,0,0,0,-1,1133,1450,0,0
-84,-426,0,0,0,0,0,0,0,0,0,-1,1140,1450,0,0
-77,-426,0,0,0,0,0,0,0,0,0,-1,1147,1450,0,0
-70,-426,0,0,0,0,0,0,0,0,0,-1,1154,1450,0,0
-63,-426,0,0,0,0,0,0,0,0,0,-1,1161,1450,0,0
-56,-426,0,0,0,0,0,0,0,0,0,-1,1168,1450,0,0
-49,-426,0,0,0,0,0,0,0,0,0,-1,1175,1450,0,0
-42,-426,0,0,0,0,0,0,0,0,0,-1,1182,1450,0,0
-35,-426,0,0,0,0,0,0,0,0,0,-1,1189,1450,0,0
-28,-426,0,0,0,0,0,0,0,0,0,-1,1196,1450,0,0
-21,-426,0,0,0,0,0,0,0,0,0,-1,1203,1450,0,0
-14,-426,0,0,0,0,0,0,0,0,0,-1,1210,1450,0,0
-7,-426,0,0,0,0,0,0,0,0,0,-1,1217,1450,0,0
0,-426,0,0,0,0,0,0,0,0,0,-1,1224,1450,0,0
7,-426,0,0,0,0,0,0,0,0,0,-1,1231,1450,0,0
14,-426,0,0,0,0,0,0,0,0,0,-1,1238,1450,0,0
21,-426,0,0,0,0,0,0,0,0,0,-1,1245,1450,0,0
28,-426,0,0,0,0,0,0,0,0,0,-1,1252,1450,0,0
35,-426,0,0,0,0,0,0,0,0,0,-1,1259,1450,0,0
42,-426,0,0,0,0,0,0,0,0,0,-1,1266,1450,0,0
49,-426,0,0,0,0,0,0,0,0,0,-1,1273,1450,0,0
56,-426,0,0,0,0,0,0,0,0,0,-1,1280,1450,0,0
63,-426,0,0,0,0,0,0,0,0,0,-1,1287,1450,0,0
70,-426,0,0,0,0,0,0,0,0,0,-1,1294,1450,0,0
77,-426,0,0,0,0,0,0,0,0,0,-1,1301,1450,0,0
84,-426,0,0,0,0,0,0,0,0,0,-1,1308,1450,0,0
91,-426,0,0,0,0,0,0,0,0,0,-1,1315,1450,0,0
98,-426,0,0,0,0,0,0,0,0,0,-1,1322,1450,0,0
105,-426,0,0,0,0,0,0,0,0,0,-1,1329,1450,0,0
112,-426,0,0,0,0,0,0,0,0,0,-1,1336,1450,0,0
119,-426,0,0,0,0,0,0,0,0,0,-1,1343,1450,0,0
126,-426,0,0,0,0,0,0,0,0,0,-1,1350,1450,0,0
133,-426,0,0,0,0,0,0,0,0,0,-1,1357,1450,0,0
140,-426,0,0,0,0,0,0,0,0,0,-1,1364,1450,0,0
147,-426,0,0,0,0,0,0,0,0,0,-1,1371,1450,0,0
154,-426,0,0,0,0,0,0,0,0,0,-1,1378,1450,0,0
161,-426,0,0,0,0,0,0,0,0,0,-1,1385,1450,0,0
168,-426,0,0,0,0,0,0,0,0,0,-1,1392,1450,0,0
175,-426,0,0,0,0,0,0,0,0,0,-1,1399,1450,0,0
182,-426,0,0,0,0,0,0,0,0,0,-1,1406,1450,0,0
189,-426,0,0,0,0,0,0,0,0,0,-1,1413,1450,0,0
196,-426,0,0,0,0,0,0,0,0,0,-1,1420,1450,0,0
203,-426,0,0,0,0,0,0,0,0,0,-1,1427,1450,0,0
210,-426,0,0,0,0,0,0,0,0,0,-1,1434,1450,0,0
217,-426,0,0,0,0,0,0,0,0,0,-1,1441,1450,0,0
224,-426,0,0,0,0,0,0,0,0,0,-1,1448,1450,0,0
231,-426,0,0,0,0,0,0,0,0,0,-1,1455,1450,0,0
238,-426,0,0,0,0,0,0,0,0,0,-1,1462,1450,0,0
245,-426,0,0,0,0,0,0,0,0,0,-1,1469,1450,0,0
252,-426,0,0,0,0,0,0,0,0,0,-1,1476,1450,0,0
259,-426,0,0,0,0,0,0,0,0,0,-1,1483,1450,0,0
266,-426,0,0,0,0,0,0,0,0,0,-1,1490,1450,0,0
273,-426,0,0,0,0,0,0,0,0,0,-1,1497,1450,0,0
280,-426,0,0,0,0,0,0,0,0,0,-1,1504,1450,0,0
287,-426,0,0,0,0,0,0,0,0,0,-1,1511,1450,0,0
294,-426,0,0,0,0,0,0,0,0,0,-1,1518,1450,0,0
301,-426,0,0,0,0,0,0,0,0,0,-1,1525,1450,0,0
308,-426,0,0,0,0,0,0,0,0,0,-1,1532,1450,0,0
315,-426,0,0,0,0,0,0,0,0,0,-1,1539,1450,0,0
322,-426,0,0,0,0,0,0,0,0,0,-1,1546,1450,0,0
329,-426,0,0,0,0,0,0,0,0,0,-1,1553,1450,0,0
336,-426,0,0,0,0,0,0,0,0,0,-1,1560,1450,0,0
343,-426,0,0,0,0,0,0,0,0,0,-1,1567,1450,0,0
350,-426,0,0,0,0,0,0,0,0,0,-1,1574,1450,0,0
357,-426,0,0,0,0,0,0,0,0,0,-1,1581,1450,0,0
364,-426,0,0,0,0,0,0,0,0,0,-1,1588,1450,0,0
371,-426,0,0,0,0,0,0,0,0,0,-1,1595,1450,0,0
378,-426,0,0,0,0,0,0,0,0,0,-1,1602,1450,0,0
385,-426,0,0,0,0,0,0,0,0,0,-1,1609,1450,0,0
392,-426,0,0,0,0,0,0,0,0,0,-1,1616,1450,0,0
399,-426,0,0,0,0,0,0,0,0,0,-1,1623,1450,0,0
406,-426,0,0,0,0,0,0,0,0,0,-1,1630,1450,0,0
413,-426,0,0,0,0,0,0,0,0,0,-1,1637,1450,0,0
420,-426,0,0,0,0,0,0,0,0,0,-1,1644,1450,0,0
427,-426,0,0,0,0,0,0,0,0,0,-1,1651,1450,0,0
434,-426,0,0,0,0,0,0,0,0,0,-1,1658,1450,0,0
441,-426,0,0,0,0,0,0,0,0,0,-1,1665,1450,0,0
448,-426,0,0,0,0,0,0,0,0,0,-1,1672,1450,0,0
455,-426,0,0,0,0,0,0,0,0,0,-1,1679,1450,0,0
462,-426,0,0,0,0,0,0,0,0,0,-1,1686,1450,0,0
469,-426,0,0,0,0,0,0,0,0,0,-1,1693,1450,0,0
476,-426,0,0,0,0,0,0,0,0,0,-1,1700,1450,0,0
483,-426,0,0,0,0,0,0,0,0,0,-1,1707,1450,0,0
490,-426,0,0,0,0,0,0,0,0,0,-1,1714,1450,0,0
497,-426,0,0,0,0,0,0,0,0,0,-1,1721,1450,0,0
504,-426,20.6873,3.38367,0,0,0,0,0,0,0,-1,1728,1450,20.6873,-3.38361
511,-426,19.6676,3.53748,0,0,0,0,0,0,0,-1,1735,1450,19.6676,-3.53749
518,-426,18.6853,3.32288,0,0,0,0,0,0,0,-1,1742,1450,18.6853,-3.3229
525,-426,18.9552,2.71033,0,0,0,0,0,0,0,-1,1749,1450,18.9552,-2.71034
532,-426,19.4333,2.70764,0,0,0,0,0,0,0,-1,1756,1450,19.4334,-2.70764
539,-426,25.1482,2.56287,0,0,0,0,0,0,0,-1,1763,1450,25.1482,-2.56286
546,-426,24.1136,3.75659,0,0,0,0,0,0,0,-1,1770,1450,24.1136,-3.7566
553,-426,23.0791,4.95032,0,0,0,0,0,0,0,-1,1777,1450,23.0791,-4.95034
560,-426,12.9688,11.8289,0,0,0,0,0,0,0,-1,1784,1450,12.9688,-11.8288
567,-426,13.6388,11.5623,0,0,0,0,0,0,0,-1,1791,1450,13.6388,-11.5623
574,-426,14.3943,11.0286,0,0,0,0,0,0,0,-1,1798,1450,14.3942,-11.0285
581,-426,16.3879,11.4653,0,0,0,0,0,0,0,-1,1805,1450,16.3879,-11.4653
588,-426,18.1212,12.5547,0,0,0,0,0,0,0,-1,1812,1450,18.1212,-12.5547
595,-426,30.0474,21.0964,0,0,0,0,0,0,0,-1,1819,1450,30.0474,-21.0965
602,-426,31.3685,21.3488,0,0,0,0,0,0,0,-1,1826,1450,31.3685,-21.3488
609,-426,31.3568,20.7167,0.00309884,0.00122653,-0.00184433,0.004231,9.43677e-05,-0.55055,0.00278974,0.0143912,1833,1450,31.3568,-20.7167
616,-426,31.3348,20.0739,0.00241886,0.000811316,-0.00136741,0.00320123,2.894e-05,-0.519696,0.00212457,0.0155164,1840,1450,31.3348,-20.0738
623,-426,31.3204,19.4143,0.00204446,0.000547958,-0.00103821,0.00257596,1.64602e-05,-0.473152,0.00171184,0.01261,1847,1450,31.3204,-19.4143
630,-426,31.3281,18.7628,0.00189244,0.00033014,-0.000837962,0.00225688,-3.43001e-05,-0.410237,0.00151615,0.013202,1854,1450,31.3281,-18.7628
637,-426,31.3037,18.1184,0.00182729,0.000112808,-0.00065896,0.0020513,-0.000111195,-0.32768,0.00140606,0.0138761,1861,1450,31.3037,-18.1184
644,-426,31.2496,17.46,0.00196139,-2.04311e-05,-0.00048806,0.00207507,-0.000134105,-0.228829,0.00143018,0.0140325,1868,1450,31.2497,-17.4599
651,-426,31.1901,16.8375,0.00222234,-9.21961e-05,-0.000419693,0.00229609,-0.000165949,-0.173954,0.00158893,0.0135386,1875,1450,31.19,-16.8375
658,-426,31.188,16.1517,0.0026247,-0.000184812,-0.000337611,0.00266471,-0.000224812,-0.11793,0.00185595,0.0132763,1882,1450,31.188,-16.1517
665,-426,31.2224,15.3433,0.00310829,-0.000436809,-6.61141e-05,0.00310952,-0.000438041,-0.0186408,0.00223339,0.0325553,1889,1450,31.2224,-15.3432
672,-426,31.3289,14.5193,0,0,0,0,0,0,0,-1,1896,1450,31.3288,-14.5193
679,-426,17.1522,8.15784,0,0,0,0,0,0,0,-1,1903,1450,17.1522,-8.15784
686,-426,13.5326,8.03711,0,0,0,0,0,0,0,-1,1910,1450,13.5326,-8.03717
693,-426,11.8607,6.45215,0,0,0,0,0,0,0,-1,1917,1450,11.8607,-6.45215
700,-426,9.24304,2.95447,0,0,0,0,0,0,0,-1,1924,1450,9.24305,-2.95442
707,-426,8.44519,-1.21448,0,0,0,0,0,0,0,-1,1931,1450,8.44514,1.21454
714,-426,0,0,0,0,0,0,0,0,0,-1,1938,1450,0,0
721,-426,0,0,0,0,0,0,0,0,0,-1,1945,1450,0,0
728,-426,0,0,0,0,0,0,0,0,0,-1,1952,1450,0,0
735,-426,0,0,0,0,0,0,0,0,0,-1,1959,1450,0,0
742,-426,0,0,0,0,0,0,0,0,0,-1,1966,1450,0,0
749,-426,0,0,0,0,0,0,0,0,0,-1,1973,1450,0,0
756,-426,0,0,0,0,0,0,0,0,0,-1,1980,1450,0,0
763,-426,0,0,0,0,0,0,0,0,0,-1,1987,1450,0,0
770,-426,0,0,0,0,0,0,0,0,0,-1,1994,1450,0,0
777,-426,0,0,0,0,0,0,0,0,0,-1,2001,1450,0,0
784,-426,0,0,0,0,0,0,0,0,0,-1,2008,1450,0,0
791,-426,0,0,0,0,0,0,0,0,0,-1,2015,1450,0,0
798,-426,0,0,0,0,0,0,0,0,0,-1,2022,1450,0,0
805,-426,0,0,0,0,0,0,0,0,0,-1,2029,1450,0,0
812,-426,0,0,0,0,0,0,0,0,0,-1,2036,1450,0,0
-700,-433,0,0,0,0,0,0,0,0,0,-1,524,1457,0,0
-693,-433,0,0,0,0,0,0,0,0,0,-1,531,1457,0,0
-686,-433,0,0,0,0,0,0,0,0,0,-1,538,1457,0,0
-679,-433,0,0,0,0,0,0,0,0,0,-1,545,1457,0,0
-672,-433,0,0,0,0,0,0,0,0,0,-1,552,1457,0,0
-665,-433,0,0,0,0,0,0,0,0,0,-1,559,1457,0,0
-658,-433,0,0,0,0,0,0,0,0,0,-1,566,1457,0,0
-651,-433,0,0,0,0,0,0,0,0,0,-1,573,1457,0,0
-644,-433,0,0,0,0,0,0,0,0,0,-1,580,1457,0,0
-637,-433,0,0,0,0,0,0,0,0,0,-1,587,1457,0,0
-630,-433,0,0,0,0,0,0,0,0,0,-1,594,1457,0,0
-623,-433,0,0,0,0,0,0,0,0,0,-1,601,1457,0,0
-616,-433,0,0,0,0,0,0,0,0,0,-1,608,1457,0,0
-609,-433,0,0,0,0,0,0,0,0,0,-1,615,1457,0,0
-602,-433,0,0,0,0,0,0,0,0,0,-1,622,1457,0,0
-595,-433,0,0,0,0,0,0,0,0,0,-1,629,1457,0,0
-588,-433,-10.3756,-0.467041,0,0,0,0,0,0,0,-1,636,1457,-10.3756,0.467081
-581,-433,-8.12201,0.884033,0,0,0,0,0,0,0,-1,643,1457,-8.12204,-0.884056
-574,-433,-5.86847,2.23523,0,0,0,0,0,0,0,-1,650,1457,-5.86844,-2.23519
-567,-433,-5.42255,1.16833,0,0,0,0,0,0,0,-1,657,1457,-5.42254,-1.1683
-560,-433,-6.84027,1.86414,0,0,0,0,0,0,0,-1,664,1457,-6.84026,-1.86412
-553,-433,-5.74017,1.79163,0,0,0,0,0,0,0,-1,671,1457,-5.74015,-1.79166
-546,-433,-8.12451,7.35095,0,0,0,0,0,0,0,-1,678,1457,-8.12451,-7.35097
-539,-433,-7.3136,8.75659,0,0,0,0,0,0,0,-1,685,1457,-7.31362,-8.75659
-532,-433,-12.0881,12.7223,0,0,0,0,0,0,0,-1,692,1457,-12.0881,-12.7223
-525,-433,-13.2684,14.6815,0,0,0,0,0,0,0,-1,699,1457,-13.2684,-14.6815
-518,-433,-13.2135,15.4774,0.00324882,0.003191,0.00312215,0.0063422,9.76236e-05,0.780768,0.00419597,0.0189082,706,1457,-13.2135,-15.4775
-511,-433,-13.2538,16.1642,0.00269711,0.00249656,0.00251977,0.0051186,7.50711e-05,0.76551,0.00338765,0.0170778,713,1457,-13.2538,-16.1642
-504,-433,-13.2736,16.8582,0.00222026,0.00195138,0.00199268,0.00408304,8.86116e-05,0.751716,0.00269297,0.013353,720,1457,-13.2736,-16.8581
-497,-433,-13.2984,17.5646,0.00185958,0.00157718,0.0015645,0.00328924,0.000147525,0.740394,0.00214534,0.013444,727,1457,-13.2984,-17.5645
-490,-433,-13.3403,18.2378,0.001642,0.00141859,0.00129522,0.00283032,0.000230268,0.742384,0.001815,0.0153199,734,1457,-13.3403,-18.2378
-483,-433,-13.3744,18.9261,0.00157816,0.00145746,0.00114789,0.00266729,0.000368333,0.759134,0.00166902,0.0161183,741,1457,-13.3744,-18.9262
-476,-433,-13.4055,19.6162,0.00166411,0.00172195,0.00119244,0.00288582,0.000500239,0.797522,0.00178071,0.0110161,748,1457,-13.4055,-19.6162
-469,-433,-13.4282,20.2894,0.00192014,0.0022132,0.00140211,0.00347641,0.000656926,0.837463,0.00213263,0.0115859,755,1457,-13.4282,-20.2894
-462,-433,-13.4443,20.9547,0,0,0,0,0,0,0,-1,762,1457,-13.4443,-20.9547
-455,-433,-12.2162,21.0383,0,0,0,0,0,0,0,-1,769,1457,-12.2163,-21.0383
-448,-433,-6.94812,14.5563,0,0,0,0,0,0,0,-1,776,1457,-6.94809,-14.5562
-441,-433,-9.97485,14.0258,0,0,0,0,0,0,0,-1,783,1457,-9.97488,-14.0257
-434,-433,-9.41205,14.2297,0,0,0,0,0,0,0,-1,790,1457,-9.41205,-14.2297
-427,-433,-8.67419,13.6827,0,0,0,0,0,0,0,-1,797,1457,-8.67422,-13.6827
-420,-433,-5.74658,9.49121,0,0,0,0,0,0,0,-1,804,1457,-5.7466,-9.49119
-413,-433,-3.63074,5.5813,0,0,0,0,0,0,0,-1,811,1457,-3.63072,-5.58129
-406,-433,-12.3472,4.69373,0,0,0,0,0,0,0,-1,818,1457,-12.3472,-4.69374
-399,-433,-12.055,2.83594,0,0,0,0,0,0,0,-1,825,1457,-12.055,-2.83594
-392,-433,-12.9772,1.6228,0,0,0,0,0,0,0,-1,832,1457,-12.9772,-1.62282
-385,-433,-13.7999,0.514771,0,0,0,0,0,0,0,-1,839,1457,-13.7999,-0.514788
-378,-433,0,0,0,0,0,0,0,0,0,-1,846,1457,0,0
-371,-433,0,0,0,0,0,0,0,0,0,-1,853,1457,0,0
-364,-433,0,0,0,0,0,0,0,0,0,-1,860,1457,0,0
-357,-433,0,0,0,0,0,0,0,0,0,-1,867,1457,0,0
-350,-433,0,0,0,0,0,0,0,0,0,-1,874,1457,0,0
-343,-433,0,0,0,0,0,0,0,0,0,-1,881,1457,0,0
-336,-433,0,0,0,0,0,0,0,0,0,-1,888,1457,0,0
-329,-433,0,0,0,0,0,0,0,0,0,-1,895,1457,0,0
-322,-433,0,0,0,0,0,0,0,0,0,-1,902,1457,0,0
-315,-433,0,0,0,0,0,0,0,0,0,-1,909,1457,0,0
-308,-433,0,0,0,0,0,0,0,0,0,-1,916,1457,0,0
-301,-433,0,0,0,0,0,0,0,0,0,-1,923,1457,0,0
-294,-433,0,0,0,0,0,0,0,0,0,-1,930,1457,0,0
-287,-433,0,0,0,0,0,0,0,0,0,-1,937,1457,0,0
-280,-433,0,0,0,0,0,0,0,0,0,-1,944,1457,0,0
-273,-433,0,0,0,0,0,0,0,0,0,-1,951,1457,0,0
-266,-433,0,0,0,0,0,0,0,0,0,-1,958,1457,0,0
-259,-433,0,0,0,0,0,0,0,0,0,-1,965,1457,0,0
-252,-433,0,0,0,0,0,0,0,0,0,-1,972,1457,0,0
-245,-433,0,0,0,0,0,0,0,0,0,-1,979,1457,0,0
-238,-433,0,0,0,0,0,0,0,0,0,-1,986,1457,0,0
-231,-433,0,0,0,0,0,0,0,0,0,-1,993,1457,0,0
-224,-433,0,0,0,0,0,0,0,0,0,-1,1000,1457,0,0
-217,-433,0,0,0,0,0,0,0,0,0,-1,1007,1457,0,0
-210,-433,0,0,0,0,0,0,0,0,0,-1,1014,1457,0,0
-203,-433,0,0,0,0,0,0,0,0,0,-1,1021,1457,0,0
-196,-433,0,0,0,0,0,0,0,0,0,-1,1028,1457,0,0
-189,-433,0,0,0,0,0,0,0,0,0,-1,1035,1457,0,0
-182,-433,0,0,0,0,0,0,0,0,0,-1,1042,1457,0,0
-175,-433,0,0,0,0,0,0,0,0,0,-1,1049,1457,0,0
-168,-433,0,0,0,0,0,0,0,0,0,-1,1056,1457,0,0
-161,-433,0,0,0,0,0,0,0,0,0,-1,1063,1457,0,0
-154,-433,0,0,0,0,0,0,0,0,0,-1,1070,1457,0,0
-147,-433,0,0,0,0,0,0,0,0,0,-1,1077,1457,0,0
-140,-433,0,0,0,0,0,0,0,0,0,-1,1084,1457,0,0
-133,-433,0,0,0,0,0,0,0,0,0,-1,1091,1457,0,0
-126,-433,0,0,0,0,0,0,0,0,0,-1,1098,1457,0,0
-119,-433,0,0,0,0,0,0,0,0,0,-1,1105,1457,0,0
-112,-433,0,0,0,0,0,0,0,0,0,-1,1112,1457,0,0
-105,-433,0,0,0,0,0,0,0,0,0,-1,1119,1457,0,0
-98,-433,0,0,0,0,0,0,0,0,0,-1,1126,1457,0,0
-91,-433,0,0,0,0,0,0,0,0,0,-1,1133,1457,0,0
-84,-433,0,0,0,0,0,0,0,0,0,-1,1140,1457,0,0
-77,-433,0,0,0,0,0,0,0,0,0,-1,1147,1457,0,0
-70,-433,0,0,0,0,0,0,0,0,0,-1,1154,1457,0,0
-63,-433,0,0,0,0,0,0,0,0,0,-1,1161,1457,0,0
-56,-433,0,0,0,0,0,0,0,0,0,-1,1168,1457,0,0
-49,-433,0,0,0,0,0,0,0,0,0,-1,1175,1457,0,0
-42,-433,0,0,0,0,0,0,0,0,0,-1,1182,1457,0,0
-35,-433,0,0,0,0,0,0,0,0,0,-1,1189,1457,0,0
-28,-433,0,0,0,0,0,0,0,0,0,-1,1196,1457,0,0
-21,-433,0,0,0,0,0,0,0,0,0,-1,1203,1457,0,0
-14,-433,0,0,0,0,0,0,0,0,0,-1,1210,1457,0,0
-7,-433,0,0,0,0,0,0,0,0,0,-1,1217,1457,0,0
0,-433,0,0,0,0,0,0,0,0,0,-1,1224,1457,0,0
7,-433,0,0,0,0,0,0,0,0,0,-1,1231,1457,0,0
14,-433,0,0,0,0,0,0,0,0,0,-1,1238,1457,0,0
21,-433,0,0,0,0,0,0,0,0,0,-1,1245,1457,0,0
28,-433,0,0,0,0,0,0,0,0,0,-1,1252,1457,0,0
35,-433,0,0,0,0,0,0,0,0,0,-1,1259,1457,0,0
42,-433,0,0,0,0,0,0,0,0,0,-1,1266,1457,0,0
49,-433,0,0,0,0,0,0,0,0,0,-1,1273,1457,0,0
56,-433,0,0,0,0,0,0,0,0,0,-1,1280,1457,0,0
63,-433,0,0,0,0,0,0,0,0,0,-1,1287,1457,0,0
70,-433,0,0,0,0,0,0,0,0,0,-1,1294,1457,0,0
77,-433,0,0,0,0,0,0,0,0,0,-1,1301,1457,0,0
84,-433,0,0,0,0,0,0,0,0,0,-1,1308,1457,0,0
91,-433,0,0,0,0,0,0,0,0,0,-1,1315,1457,0,0
98,-433,0,0,0,0,0,0,0,0,0,-1,1322,1457,0,0
105,-433,0,0,0,0,0,0,0,0,0,-1,1329,1457,0,0
112,-433,0,0,0,0,0,0,0,0,0,-1,1336,1457,0,0
119,-433,0,0,0,0,0,0,0,0,0,-1,1343,1457,0,0
126,-433,0,0,0,0,0,0,0,0,0,-1,1350,1457,0,0
133,-433,0,0,0,0,0,0,0,0,0,-1,1357,1457,0,0
140,-433,0,0,0,0,0,0,0,0,0,-1,1364,1457,0,0
147,-433,0,0,0,0,0,0,0,0,0,-1,1371,1457,0,0
154,-433,0,0,0,0,0,0,0,0,0,-1,1378,1457,0,0
161,-433,0,0,0,0,0,0,0,0,0,-1,1385,1457,0,0
168,-433,0,0,0,0,0,0,0,0,0,-1,1392,1457,0,0
175,-433,0,0,0,0,0,0,0,0,0,-1,1399,1457,0,0
182,-433,0,0,0,0,0,0,0,0,0,-1,1406,1457,0,0
189,-433,0,0,0,0,0,0,0,0,0,-1,1413,1457,0,0
196,-433,0,0,0,0,0,0,0,0,0,-1,1420,1457,0,0
203,-433,0,0,0,0,0,0,0,0,0,-1,1427,1457,0,0
210,-433,0,0,0,0,0,0,0,0,0,-1,1434,1457,0,0
217,-433,0,0,0,0,0,0,0,0,0,-1,1441,1457,0,0
224,-433,0,0,0,0,0,0,0,0,0,-1,1448,1457,0,0
231,-433,0,0,0,0,0,0,0,0,0,-1,1455,1457,0,0
238,-433,0,0,0,0,0,0,0,0,0,-1,1462,1457,0,0
245,-433,0,0,0,0,0,0,0,0,0,-1,1469,1457,0,0
252,-433,0,0,0,0,0,0,0,0,0,-1,1476,1457,0,0
259,-433,0,0,0,0,0,0,0,0,0,-1,1483,1457,0,0
266,-433,0,0,0,0,0,0,0,0,0,-1,1490,1457,0,0
273,-433,0,0,0,0,0,0,0,0,0,-1,1497,1457,0,0
280,-433,0,0,0,0,0,0,0,0,0,-1,1504,1457,0,0
287,-433,0,0,0,0,0,0,0,0,0,-1,1511,1457,0,0
294,-433,0,0,0,0,0,0,0,0,0,-1,1518,1457,0,0
301,-433,0,0,0,0,0,0,0,0,0,-1,1525,1457,0,0
308,-433,0,0,0,0,0,0,0,0,0,-1,1532,1457,0,0
315,-433,0,0,0,0,0,0,0,0,0,-1,1539,1457,0,0
322,-433,0,0,0,0,0,0,0,0,0,-1,1546,1457,0,0
329,-433,0,0,0,0,0,0,0,0,0,-1,1553,1457,0,0
336,-433,0,0,0,0,0,0,0,0,0,-1,1560,1457,0,0
343,-433,0,0,0,0,0,0,0,0,0,-1,1567,1457,0,0
350,-433,0,0,0,0,0,0,0,0,0,-1,1574,1457,0,0
357,-433,0,0,0,0,0,0,0,0,0,-1,1581,1457,0,0
364,-433,0,0,0,0,0,0,0,0,0,-1,1588,1457,0,0
371,-433,0,0,0,0,0,0,0,0,0,-1,1595,1457,0,0
378,-433,0,0,0,0,0,0,0,0,0,-1,1602,1457,0,0
385,-433,0,0,0,0,0,0,0,0,0,-1,1609,1457,0,0
392,-433,0,0,0,0,0,0,0,0,0,-1,1616,1457,0,0
399,-433,0,0,0,0,0,0,0,0,0,-1,1623,1457,0,0
406,-433,0,0,0,0,0,0,0,0,0,-1,1630,1457,0,0
413,-433,0,0,0,0,0,0,0,0,0,-1,1637,1457,0,0
420,-433,0,0,0,0,0,0,0,0,0,-1,1644,1457,0,0
427,-433,0,0,0,0,0,0,0,0,0,-1,1651,1457,0,0
434,-433,0,0,0,0,0,0,0,0,0,-1,1658,1457,0,0
441,-433,0,0,0,0,0,0,0,0,0,-1,1665,1457,0,0
448,-433,0,0,0,0,0,0,0,0,0,-1,1672,1457,0,0
455,-433,0,0,0,0,0,0,0,0,0,-1,1679,1457,0,0
462,-433,0,0,0,0,0,0,0,0,0,-1,1686,1457,0,0
469,-433,0,0,0,0,0,0,0,0,0,-1,1693,1457,0,0
476,-433,0,0,0,0,0,0,0,0,0,-1,1700,1457,0,0
483,-433,0,0,0,0,0,0,0,0,0,-1,1707,1457,0,0
490,-433,0,0,0,0,0,0,0,0,0,-1,1714,1457,0,0
497,-433,0,0,0,0,0,0,0,0,0,-1,1721,1457,0,0
504,-433,19.9058,3.03662,0,0,0,0,0,0,0,-1,1728,1457,19.9058,-3.03656
511,-433,19.0145,3.07837,0,0,0,0,0,0,0,-1,1735,1457,19.0146,-3.07834
518,-433,18.071,3.06433,0,0,0,0,0,0,0,-1,1742,1457,18.071,-3.06432
525,-433,17.2048,3.37085,0,0,0,0,0,0,0,-1,1749,1457,17.2049,-3.37083
532,-433,16.5637,3.36646,0,0,0,0,0,0,0,-1,1756,1457,16.5637,-3.36643
539,-433,15.9193,3.30396,0,0,0,0,0,0,0,-1,1763,1457,15.9193,-3.30394
546,-433,23.1903,4.81775,0,0,0,0,0,0,0,-1,1770,1457,23.1903,-4.81775
553,-433,13.9674,11.5781,0,0,0,0,0,0,0,-1,1777,1457,13.9674,-11.5781
560,-433,13.9855,11.7341,0,0,0,0,0,0,0,-1,1784,1457,13.9855,-11.7341
567,-433,13.9264,11.3364,0,0,0,0,0,0,0,-1,1791,1457,13.9263,-11.3364
574,-433,15.5305,12.3673,0,0,0,0,0,0,0,-1,1798,1457,15.5305,-12.3673
581,-433,16.6405,12.1898,0,0,0,0,0,0,0,-1,1805,1457,16.6405,-12.1898
588,-433,26.4386,19.7478,0,0,0,0,0,0,0,-1,1812,1457,26.4386,-19.7478
595,-433,30.7734,22.1708,0,0,0,0,0,0,0,-1,1819,1457,30.7735,-22.1708
602,-433,30.7098,21.4216,0.00339859,0.00140115,-0.00200753,0.00464211,0.000157635,-0.55458,0.00304355,0.0271516,1826,1457,30.7098,-21.4216
609,-433,30.7302,20.7076,0.00268854,0.000979381,-0.00152522,0.00358227,8.56451e-05,-0.530041,0.00236015,0.0169368,1833,1457,30.7302,-20.7076
616,-433,30.7157,20.1049,0.00208079,0.000664784,-0.00113429,0.0027099,3.567e-05,-0.506393,0.00179483,0.0146091,1840,1457,30.7157,-20.1048
623,-433,30.6882,19.444,0.00181416,0.000444775,-0.000857302,0.00222663,3.23028e-05,-0.448436,0.00147377,0.0108802,1847,1457,30.6882,-19.444
630,-433,30.6616,18.7952,0.00175738,0.000242449,-0.000690867,0.00202512,-2.52938e-05,-0.369724,0.00135859,0.0137102,1854,1457,30.6616,-18.7951
637,-433,30.6345,18.1591,0.00179025,4.51441e-05,-0.000548459,0.0019483,-0.000112913,-0.280581,0.0013381,0.0154066,1861,1457,30.6345,-18.159
644,-433,30.5978,17.5082,0.00203539,-1.46781e-05,-0.000439488,0.00212563,-0.000104922,-0.202523,0.00145332,0.0171552,1868,1457,30.5978,-17.5082
651,-433,30.5629,16.834,0.00245243,2.68511e-05,-0.000488271,0.00254703,-6.77487e-05,-0.191373,0.00172105,0.0136123,1875,1457,30.5629,-16.834
658,-433,30.476,16.1508,0.00304075,8.93664e-05,-0.000540873,0.00313675,-6.63172e-06,-0.175658,0.00209338,0.0374205,1882,1457,30.4759,-16.1508
665,-433,30.7668,15.187,0,0,0,0,0,0,0,-1,1889,1457,30.7669,-15.187
672,-433,18.115,8.7207,0,0,0,0,0,0,0,-1,1896,1457,18.115,-8.72074
679,-433,17.2969,9.6355,0,0,0,0,0,0,0,-1,1903,1457,17.2968,-9.63548
686,-433,13.6356,8.61694,0,0,0,0,0,0,0,-1,1910,1457,13.6356,-8.61694
693,-433,13.4081,8.39624,0,0,0,0,0,0,0,-1,1917,1457,13.4081,-8.39624
700,-433,7.16809,-1.5166,0,0,0,0,0,0,0,-1,1924,1457,7.16806,1.51656
707,-433,8.68359,-2.82202,0,0,0,0,0,0,0,-1,1931,1457,8.68359,2.82197
714,-433,0,0,0,0,0,0,0,0,0,-1,1938,1457,0,0
721,-433,0,0,0,0,0,0,0,0,0,-1,1945,1457,0,0
728,-433,0,0,0,0,0,0,0,0,0,-1,1952,1457,0,0
735,-433,0,0,0,0,0,0,0,0,0,-1,1959,1457,0,0
742,-433,0,0,0,0,0,0,0,0,0,-1,1966,1457,0,0
749,-433,0,0,0,0,0,0,0,0,0,-1,1973,1457,0,0
756,-433,0,0,0,0,0,0,0,0,0,-1,1980,1457,0,0
763,-433,0,0,0,0,0,0,0,0,0,-1,1987,1457,0,0
770,-433,0,0,0,0,0,0,0,0,0,-1,1994,1457,0,0
777,-433,0,0,0,0,0,0,0,0,0,-1,2001,1457,0,0
784,-433,0,0,0,0,0,0,0,0,0,-1,2008,1457,0,0
791,-433,0,0,0,0,0,0,0,0,0,-1,2015,1457,0,0
798,-433,0,0,0,0,0,0,0,0,0,-1,2022,1457,0,0
805,-433,0,0,0,0,0,0,0,0,0,-1,2029,1457,0,0
812,-433,0,0,0,0,0,0,0,0,0,-1,2036,1457,0,0
-700,-440,0,0,0,0,0,0,0,0,0,-1,524,1464,0,0
-693,-440,0,0,0,0,0,0,0,0,0,-1,531,1464,0,0
-686,-440,0,0,0,0,0,0,0,0,0,-1,538,1464,0,0
-679,-440,0,0,0,0,0,0,0,0,0,-1,545,1464,0,0
-672,-440,0,0,0,0,0,0,0,0,0,-1,552,1464,0,0
-665,-440,0,0,0,0,0,0,0,0,0,-1,559,1464,0,0
-658,-440,0,0,0,0,0,0,0,0,0,-1,566,1464,0,0
-651,-440,0,0,0,0,0,0,0,0,0,-1,573,1464,0,0
-644,-440,0,0,0,0,0,0,0,0,0,-1,580,1464,0,0
-637,-440,0,0,0,0,0,0,0,0,0,-1,587,1464,0,0
-630,-440,0,0,0,0,0,0,0,0,0,-1,594,1464,0,0
-623,-440,0,0,0,0,0,0,0,0,0,-1,601,1464,0,0
-616,-440,0,0,0,0,0,0,0,0,0,-1,608,1464,0,0
-609,-440,0,0,0,0,0,0,0,0,0,-1,615,1464,0,0
-602,-440,0,0,0,0,0,0,0,0,0,-1,622,1464,0,0
-595,-440,0,0,0,0,0,0,0,0,0,-1,629,1464,0,0
-588,-440,0,0,0,0,0,0,0,0,0,-1,636,1464,0,0
-581,-440,-8.97278,0.254517,0,0,0,0,0,0,0,-1,643,1464,-8.97276,-0.254526
-574,-440,-7.00818,-0.918579,0,0,0,0,0,0,0,-1,650,1464,-7.00817,0.918538
-567,-440,-6.12152,-0.0766602,0,0,0,0,0,0,0,-1,657,1464,-6.12151,0.0767097
-560,-440,-5.46747,0.82251,0,0,0,0,0,0,0,-1,664,1464,-5.46748,-0.822551
-553,-440,-6.84729,0.0831299,0,0,0,0,0,0,0,-1,671,1464,-6.84732,-0.083136
-546,-440,-5.63446,-0.153198,0,0,0,0,0,0,0,-1,678,1464,-5.63447,0.153147
-539,-440,-6.80017,8.58252,0,0,0,0,0,0,0,-1,685,1464,-6.80015,-8.58257
-532,-440,-9.69647,11.3262,0,0,0,0,0,0,0,-1,692,1464,-9.69649,-11.3262
-525,-440,-12.6375,14.6436,0,0,0,0,0,0,0,-1,699,1464,-12.6375,-14.6436
-518,-440,-12.5823,15.4137,0.00396637,0.00392344,0.00406814,0.0080131,-0.000123286,0.78276,0.00538363,0.0269742,706,1464,-12.5823,-15.4138
-511,-440,-12.5503,16.1797,0.00326917,0.00303358,0.00327091,0.00642441,-0.000121654,0.7674,0.00432406,0.0157504,713,1464,-12.5503,-16.1797
-504,-440,-12.5693,16.8755,0.00262528,0.0022981,0.0025529,0.00501983,-9.64443e-05,0.753403,0.00337916,0.0181416,720,1464,-12.5693,-16.8755
-497,-440,-12.6111,17.5355,0.00208694,0.00175645,0.00194228,0.00387099,-2.76006e-05,0.742962,0.00258991,0.0217815,727,1464,-12.6112,-17.5356
-490,-440,-12.6484,18.172,0.00169762,0.00145226,0.00150143,0.00308137,6.85058e-05,0.744634,0.0020318,0.0227565,734,1464,-12.6484,-18.172
-483,-440,-12.7014,18.9109,0.00147972,0.0013719,0.00120573,0.00263274,0.000218879,0.763057,0.00168694,0.0202006,741,1464,-12.7014,-18.9108
-476,-440,-12.7173,19.6057,0.00142681,0.00154789,0.00113013,0.0026191,0.0003556,0.812157,0.00164043,0.0137449,748,1464,-12.7174,-19.6058
-469,-440,-12.7477,20.3032,0.00152808,0.00198802,0.00123817,0.0030174,0.000498704,0.87722,0.00186769,0.0126901,755,1464,-12.7478,-20.3033
-462,-440,-12.8168,20.978,0.00187481,0.00275403,0.00161729,0.0039904,0.000638444,0.918101,0.00247505,0.0170291,762,1464,-12.8168,-20.978
-455,-440,-12.8146,21.7117,0,0,0,0,0,0,0,-1,769,1464,-12.8146,-21.7116
-448,-440,-11.3019,21.765,0,0,0,0,0,0,0,-1,776,1464,-11.3019,-21.765
-441,-440,-7.28583,14.7465,0,0,0,0,0,0,0,-1,783,1464,-7.28584,-14.7464
-434,-440,-8.33636,14.5024,0,0,0,0,0,0,0,-1,790,1464,-8.33638,-14.5025
-427,-440,-8.28094,14.2512,0,0,0,0,0,0,0,-1,797,1464,-8.28094,-14.2512
-420,-440,-6.86603,8.09216,0,0,0,0,0,0,0,-1,804,1464,-6.86602,-8.09222
-413,-440,-3.46796,5.72278,0,0,0,0,0,0,0,-1,811,1464,-3.46797,-5.72276
-406,-440,-5.2887,5.20264,0,0,0,0,0,0,0,-1,818,1464,-5.2887,-5.20261
-399,-440,-12.7318,3.94421,0,0,0,0,0,0,0,-1,825,1464,-12.7318,-3.94419
-392,-440,-13.5565,2.51855,0,0,0,0,0,0,0,-1,832,1464,-13.5565,-2.51861
-385,-440,-14.6741,1.39795,0,0,0,0,0,0,0,-1,839,1464,-14.6741,-1.39801
-378,-440,-15.8063,0.293457,0,0,0,0,0,0,0,-1,846,1464,-15.8063,-0.293412
-371,-440,0,0,0,0,0,0,0,0,0,-1,853,1464,0,0
-364,-440,0,0,0,0,0,0,0,0,0,-1,860,1464,0,0
-357,-440,0,0,0,0,0,0,0,0,0,-1,867,1464,0,0
-350,-440,0,0,0,0,0,0,0,0,0,-1,874,1464,0,0
-343,-440,0,0,0,0,0,0,0,0,0,-1,881,1464,0,0
-336,-440,0,0,0,0,0,0,0,0,0,-1,888,1464,0,0
-329,-440,0,0,0,0,0,0,0,0,0,-1,895,1464,0,0
-322,-440,0,0,0,0,0,0,0,0,0,-1,902,1464,0,0
-315,-440,0,0,0,0,0,0,0,0,0,-1,909,1464,0,0
-308,-440,0,0,0,0,0,0,0,0,0,-1,916,1464,0,0
-301,-440,0,0,0,0,0,0,0,0,0,-1,923,1464,0,0
-294,-440,0,0,0,0,0,0,0,0,0,-1,930,1464,0,0
-287,-440,0,0,0,0,0,0,0,0,0,-1,937,1464,0,0
-280,-440,0,0,0,0,0,0,0,0,0,-1,944,1464,0,0
-273,-440,0,0,0,0,0,0,0,0,0,-1,951,1464,0,0
-266,-440,0,0,0,0,0,0,0,0,0,-1,958,1464,0,0
-259,-440,0,0,0,0,0,0,0,0,0,-1,965,1464,0,0
-252,-440,0,0,0,0,0,0,0,0,0,-1,972,1464,0,0
-245,-440,0,0,0,0,0,0,0,0,0,-1,979,1464,0,0
-238,-440,0,0,0,0,0,0,0,0,0,-1,986,1464,0,0
-231,-440,0,0,0,0,0,0,0,0,0,-1,993,1464,0,0
-224,-440,0,0,0,0,0,0,0,0,0,-1,1000,1464,0,0
-217,-440,0,0,0,0,0,0,0,0,0,-1,1007,1464,0,0
-210,-440,0,0,0,0,0,0,0,0,0,-1,1014,1464,0,0
-203,-440,0,0,0,0,0,0,0,0,0,-1,1021,1464,0,0
-196,-440,0,0,0,0,0,0,0,0,0,-1,1028,1464,0,0
-189,-440,0,0,0,0,0,0,0,0,0,-1,1035,1464,0,0
-182,-440,0,0,0,0,0,0,0,0,0,-1,1042,1464,0,0
-175,-440,0,0,0,0,0,0,0,0,0,-1,1049,1464,0,0
-168,-440,0,0,0,0,0,0,0,0,0,-1,1056,1464,0,0
-161,-440,0,0,0,0,0,0,0,0,0,-1,1063,1464,0,0
-154,-440,0,0,0,0,0,0,0,0,0,-1,1070,1464,0,0
-147,-440,0,0,0,0,0,0,0,0,0,-1,1077,1464,0,0
-140,-440,0,0,0,0,0,0,0,0,0,-1,1084,1464,0,0
-133,-440,0,0,0,0,0,0,0,0,0,-1,1091,1464,0,0
-126,-440,0,0,0,0,0,0,0,0,0,-1,1098,1464,0,0
-119,-440,0,0,0,0,0,0,0,0,0,-1,1105,1464,0,0
-112,-440,0,0,0,0,0,0,0,0,0,-1,1112,1464,0,0
-105,-440,0,0,0,0,0,0,0,0,0,-1,1119,1464,0,0
-98,-440,0,0,0,0,0,0,0,0,0,-1,1126,1464,0,0
-91,-440,0,0,0,0,0,0,0,0,0,-1,1133,1464,0,0
-84,-440,0,0,0,0,0,0,0,0,0,-1,1140,1464,0,0
-77,-440,0,0,0,0,0,0,0,0,0,-1,1147,1464,0,0
-70,-440,0,0,0,0,0,0,0,0,0,-1,1154,1464,0,0
-63,-440,0,0,0,0,0,0,0,0,0,-1,1161,1464,0,0
-56,-440,0,0,0,0,0,0,0,0,0,-1,1168,1464,0,0
-49,-440,0,0,0,0,0,0,0,0,0,-1,1175,1464,0,0
-42,-440,0,0,0,0,0,0,0,0,0,-1,1182,1464,0,0
-35,-440,0,0,0,0,0,0,0,0,0,-1,1189,1464,0,0
-28,-440,0,0,0,0,0,0,0,0,0,-1,1196,1464,0,0
-21,-440,0,0,0,0,0,0,0,0,0,-1,1203,1464,0,0
-14,-440,0,0,0,0,0,0,0,0,0,-1,1210,1464,0,0
-7,-440,0,0,0,0,0,0,0,0,0,-1,1217,1464,0,0
0,-440,0,0,0,0,0,0,0,0,0,-1,1224,1464,0,0
7,-440,0,0,0,0,0,0,0,0,0,-1,1231,1464,0,0
14,-440,0,0,0,0,0,0,0,0,0,-1,1238,1464,0,0
21,-440,0,0,0,0,0,0,0,0,0,-1,1245,1464,0,0
28,-440,0,0,0,0,0,0,0,0,0,-1,1252,1464,0,0
35,-440,0,0,0,0,0,0,0,0,0,-1,1259,1464,0,0
42,-440,0,0,0,0,0,0,0,0,0,-1,1266,1464,0,0
49,-440,0,0,0,0,0,0,0,0,0,-1,1273,1464,0,0
56,-440,0,0,0,0,0,0,0,0,0,-1,1280,1464,0,0
63,-440,0,0,0,0,0,0,0,0,0,-1,1287,1464,0,0
70,-440,0,0,0,0,0,0,0,0,0,-1,1294,1464,0,0
77,-440,0,0,0,0,0,0,0,0,0,-1,1301,1464,0,0
84,-440,0,0,0,0,0,0,0,0,0,-1,1308,1464,0,0
91,-440,0,0,0,0,0,0,0,0,0,-1,1315,1464,0,0
98,-440,0,0,0,0,0,0,0,0,0,-1,1322,1464,0,0
105,-440,0,0,0,0,0,0,0,0,0,-1,1329,1464,0,0
112,-440,0,0,0,0,0,0,0,0,0,-1,1336,1464,0,0
119,-440,0,0,0,0,0,0,0,0,0,-1,1343,1464,0,0
126,-440,0,0,0,0,0,0,0,0,0,-1,1350,1464,0,0
133,-440,0,0,0,0,0,0,0,0,0,-1,1357,1464,0,0
140,-440,0,0,0,0,0,0,0,0,0,-1,1364,1464,0,0
147,-440,0,0,0,0,0,0,0,0,0,-1,1371,1464,0,0
154,-440,0,0,0,0,0,0,0,0,0,-1,1378,1464,0,0
161,-440,0,0,0,0,0,0,0,0,0,-1,1385,1464,0,0
168,-440,0,0,0,0,0,0,0,0,0,-1,1392,1464,0,0
175,-440,0,0,0,0,0,0,0,0,0,-1,1399,1464,0,0
182,-440,0,0,0,0,0,0,0,0,0,-1,1406,1464,0,0
189,-440,0,0,0,0,0,0,0,0,0,-1,1413,1464,0,0
196,-440,0,0,0,0,0,0,0,0,0,-1,1420,1464,0,0
203,-440,0,0,0,0,0,0,0,0,0,-1,1427,1464,0,0
210,-440,0,0,0,0,0,0,0,0,0,-1,1434,1464,0,0
217,-440,0,0,0,0,0,0,0,0,0,-1,1441,1464,0,0
224,-440,0,0,0,0,0,0,0,0,0,-1,1448,1464,0,0
231,-440,0,0,0,0,0,0,0,0,0,-1,1455,1464,0,0
238,-440,0,0,0,0,0,0,0,0,0,-1,1462,1464,0,0
245,-440,0,0,0,0,0,0,0,0,0,-1,1469,1464,0,0
252,-440,0,0,0,0,0,0,0,0,0,-1,1476,1464,0,0
259,-440,0,0,0,0,0,0,0,0,0,-1,1483,1464,0,0
266,-440,0,0,0,0,0,0,0,0,0,-1,1490,1464,0,0
273,-440,0,0,0,0,0,0,0,0,0,-1,1497,1464,0,0
280,-440,0,0,0,0,0,0,0,0,0,-1,1504,1464,0,0
287,-440,0,0,0,0,0,0,0,0,0,-1,1511,1464,0,0
294,-440,0,0,0,0,0,0,0,0,0,-1,1518,1464,0,0
301,-440,0,0,0,0,0,0,0,0,0,-1,1525,1464,0,0
308,-440,0,0,0,0,0,0,0,0,0,-1,1532,1464,0,0
315,-440,0,0,0,0,0,0,0,0,0,-1,1539,1464,0,0
322,-440,0,0,0,0,0,0,0,0,0,-1,1546,1464,0,0
329,-440,0,0,0,0,0,0,0,0,0,-1,1553,1464,0,0
336,-440,0,0,0,0,0,0,0,0,0,-1,1560,1464,0,0
343,-440,0,0,0,0,0,0,0,0,0,-1,1567,1464,0,0
350,-440,0,0,0,0,0,0,0,0,0,-1,1574,1464,0,0
357,-440,0,0,0,0,0,0,0,0,0,-1,1581,1464,0,0
364,-440,0,0,0,0,0,0,0,0,0,-1,1588,1464,0,0
371,-440,0,0,0,0,0,0,0,0,0,-1,1595,1464,0,0
378,-440,0,0,0,0,0,0,0,0,0,-1,1602,1464,0,0
385,-440,0,0,0,0,0,0,0,0,0,-1,1609,1464,0,0
392,-440,0,0,0,0,0,0,0,0,0,-1,1616,1464,0,0
399,-440,0,0,0,0,0,0,0,0,0,-1,1623,1464,0,0
406,-440,0,0,0,0,0,0,0,0,0,-1,1630,1464,0,0
413,-440,0,0,0,0,0,0,0,0,0,-1,1637,1464,0,0
420,-440,0,0,0,0,0,0,0,0,0,-1,1644,1464,0,0
427,-440,0,0,0,0,0,0,0,0,0,-1,1651,1464,0,0
434,-440,0,0,0,0,0,0,0,0,0,-1,1658,1464,0,0
441,-440,0,0,0,0,0,0,0,0,0,-1,1665,1464,0,0
448,-440,0,0,0,0,0,0,0,0,0,-1,1672,1464,0,0
455,-440,0,0,0,0,0,0,0,0,0,-1,1679,1464,0,0
462,-440,0,0,0,0,0,0,0,0,0,-1,1686,1464,0,0
469,-440,0,0,0,0,0,0,0,0,0,-1,1693,1464,0,0
476,-440,0,0,0,0,0,0,0,0,0,-1,1700,1464,0,0
483,-440,0,0,0,0,0,0,0,0,0,-1,1707,1464,0,0
490,-440,0,0,0,0,0,0,0,0,0,-1,1714,1464,0,0
497,-440,16.965,-0.528442,0,0,0,0,0,0,0,-1,1721,1464,16.965,0.528492
504,-440,15.8052,0.670166,0,0,0,0,0,0,0,-1,1728,1464,15.8052,-0.670145
511,-440,17.5754,2.77832,0,0,0,0,0,0,0,-1,1735,1464,17.5754,-2.77826
518,-440,16.9017,3.07861,0,0,0,0,0,0,0,-1,1742,1464,16.9018,-3.07859
525,-440,18.4495,12.0867,0,0,0,0,0,0,0,-1,1749,1464,18.4495,-12.0867
532,-440,15.4319,3.64392,0,0,0,0,0,0,0,-1,1756,1464,15.4318,-3.64391
539,-440,14.8214,3.41321,0,0,0,0,0,0,0,-1,1763,1464,14.8214,-3.4132
546,-440,14.8651,10.7683,0,0,0,0,0,0,0,-1,1770,1464,14.8651,-10.7683
553,-440,15.1213,11.4121,0,0,0,0,0,0,0,-1,1777,1464,15.1213,-11.4121
560,-440,17.4325,12.5394,0,0,0,0,0,0,0,-1,1784,1464,17.4325,-12.5394
567,-440,16.9025,12.4249,0,0,0,0,0,0,0,-1,1791,1464,16.9025,-12.425
574,-440,19.2841,14.8679,0,0,0,0,0,0,0,-1,1798,1464,19.2841,-14.868
581,-440,26.4432,21.3477,0,0,0,0,0,0,0,-1,1805,1464,26.4432,-21.3476
588,-440,29.9734,22.9365,0,0,0,0,0,0,0,-1,1812,1464,29.9734,-22.9365
595,-440,30.0101,22.147,0.0040198,0.00142512,-0.00210059,0.00519138,0.000253536,-0.508765,0.00337958,0.0332428,1819,1464,30.0101,-22.147
602,-440,30.09,21.3853,0.00314431,0.00105603,-0.00164114,0.00404531,0.000155034,-0.502081,0.00264671,0.0194047,1826,1464,30.0899,-21.3853
609,-440,30.0596,20.7551,0.00249752,0.000724599,-0.00124538,0.00313971,8.2404e-05,-0.476098,0.00206622,0.0166302,1833,1464,30.0596,-20.7551
616,-440,30.0325,20.1217,0.00196646,0.000519695,-0.000948195,0.0024357,5.04509e-05,-0.459544,0.00160725,0.0179228,1840,1464,30.0325,-20.1217
623,-440,30.0283,19.4727,0.00177856,0.000355896,-0.000727564,0.00208475,4.97102e-05,-0.398339,0.00137356,0.0133473,1847,1464,30.0284,-19.4727
630,-440,30.0059,18.8047,0.00178171,0.000191483,-0.000590331,0.0019769,-3.70399e-06,-0.319325,0.00131917,0.0114421,1854,1464,30.0058,-18.8047
637,-440,29.9906,18.1874,0.00186806,3.78674e-05,-0.000481773,0.00198714,-8.12054e-05,-0.2423,0.00135264,0.0167285,1861,1464,29.9906,-18.1873
644,-440,29.9691,17.5463,0.00214928,7.71683e-05,-0.000430375,0.00223512,-8.66468e-06,-0.196854,0.00149297,0.0163836,1868,1464,29.9691,-17.5462
651,-440,29.9469,16.848,0.00263794,0.000246848,-0.000583042,0.00277253,0.000112255,-0.226871,0.00181209,0.0215159,1875,1464,29.9469,-16.848
658,-440,29.9951,16.064,0,0,0,0,0,0,0,-1,1882,1464,29.9951,-16.064
665,-440,24.2067,12.5813,0,0,0,0,0,0,0,-1,1889,1464,24.2067,-12.5813
672,-440,18.9385,9.6394,0,0,0,0,0,0,0,-1,1896,1464,18.9384,-9.63939
679,-440,16.9508,10.2336,0,0,0,0,0,0,0,-1,1903,1464,16.9508,-10.2337
686,-440,15.2556,8.44177,0,0,0,0,0,0,0,-1,1910,1464,15.2556,-8.44177
693,-440,9.88635,2.89795,0,0,0,0,0,0,0,-1,1917,1464,9.88638,-2.89798
700,-440,7.07825,-2.62061,0,0,0,0,0,0,0,-1,1924,1464,7.07829,2.62057
707,-440,0,0,0,0,0,0,0,0,0,-1,1931,1464,0,0
714,-440,0,0,0,0,0,0,0,0,0,-1,1938,1464,0,0
721,-440,0,0,0,0,0,0,0,0,0,-1,1945,1464,0,0
728,-440,0,0,0,0,0,0,0,0,0,-1,1952,1464,0,0
735,-440,0,0,0,0,0,0,0,0,0,-1,1959,1464,0,0
742,-440,0,0,0,0,0,0,0,0,0,-1,1966,1464,0,0
749,-440,0,0,0,0,0,0,0,0,0,-1,1973,1464,0,0
756,-440,0,0,0,0,0,0,0,0,0,-1,1980,1464,0,0
763,-440,0,0,0,0,0,0,0,0,0,-1,1987,1464,0,0
770,-440,0,0,0,0,0,0,0,0,0,-1,1994,1464,0,0
777,-440,0,0,0,0,0,0,0,0,0,-1,2001,1464,0,0
784,-440,0,0,0,0,0,0,0,0,0,-1,2008,1464,0,0
791,-440,0,0,0,0,0,0,0,0,0,-1,2015,1464,0,0
798,-440,0,0,0,0,0,0,0,0,0,-1,2022,1464,0,0
805,-440,0,0,0,0,0,0,0,0,0,-1,2029,1464,0,0
812,-440,0,0,0,0,0,0,0,0,0,-1,2036,1464,0,0
-700,-447,0,0,0,0,0,0,0,0,0,-1,524,1471,0,0
-693,-447,0,0,0,0,0,0,0,0,0,-1,531,1471,0,0
-686,-447,0,0,0,0,0,0,0,0,0,-1,538,1471,0,0
-679,-447,0,0,0,0,0,0,0,0,0,-1,545,1471,0,0
-672,-447,0,0,0,0,0,0,0,0,0,-1,552,1471,0,0
-665,-447,0,0,0,0,0,0,0,0,0,-1,559,1471,0,0
-658,-447,0,0,0,0,0,0,0,0,0,-1,566,1471,0,0
-651,-447,0,0,0,0,0,0,0,0,0,-1,573,1471,0,0
-644,-447,0,0,0,0,0,0,0,0,0,-1,580,1471,0,0
-637,-447,0,0,0,0,0,0,0,0,0,-1,587,1471,0,0
-630,-447,0,0,0,0,0,0,0,0,0,-1,594,1471,0,0
-623,-447,0,0,0,0,0,0,0,0,0,-1,601,1471,0,0
-616,-447,0,0,0,0,0,0,0,0,0,-1,608,1471,0,0
-609,-447,0,0,0,0,0,0,0,0,0,-1,615,1471,0,0
-602,-447,0,0,0,0,0,0,0,0,0,-1,622,1471,0,0
-595,-447,0,0,0,0,0,0,0,0,0,-1,629,1471,0,0
-588,-447,0,0,0,0,0,0,0,0,0,-1,636,1471,0,0
-581,-447,-7.06482,-1.50476,0,0,0,0,0,0,0,-1,643,1471,-7.0648,1.50474
-574,-447,-6.88092,-0.00585938,0,0,0,0,0,0,0,-1,650,1471,-6.88095,0.00589852
-567,-447,-6.8205,-1.32178,0,0,0,0,0,0,0,-1,657,1471,-6.82047,1.32172
-560,-447,-8.85748,2.80774,0,0,0,0,0,0,0,-1,664,1471,-8.85748,-2.80775
-553,-447,-7.60486,3.26794,0,0,0,0,0,0,0,-1,671,1471,-7.60487,-3.26799
-546,-447,-3.94501,1.8656,0,0,0,0,0,0,0,-1,678,1471,-3.945,-1.86554
-539,-447,-5.35492,4.50024,0,0,0,0,0,0,0,-1,685,1471,-5.35492,-4.50018
-532,-447,-6.12781,8.81091,0,0,0,0,0,0,0,-1,692,1471,-6.12781,-8.81094
-525,-447,-9.44501,12.098,0,0,0,0,0,0,0,-1,699,1471,-9.44502,-12.098
-518,-447,-11.9287,15.3883,0,0,0,0,0,0,0,-1,706,1471,-11.9287,-15.3882
-511,-447,-11.881,16.1555,0.00373817,0.00331472,0.00389053,0.00742273,-0.000369838,0.758215,0.00507626,0.025225,713,1471,-11.881,-16.1555
-504,-447,-11.8847,16.9491,0.00298497,0.00239382,0.00300262,0.00570653,-0.00032774,0.736336,0.00391817,0.0198097,720,1471,-11.8847,-16.9491
-497,-447,-11.9578,17.6116,0.00231832,0.00171489,0.00223812,0.00427497,-0.000241766,0.718398,0.00293389,0.0245007,727,1471,-11.9578,-17.6115
-490,-447,-11.9858,18.2362,0.0018281,0.00130823,0.0016768,0.00326499,-0.000128667,0.708502,0.00222079,0.0248738,734,1471,-11.9858,-18.2362
-483,-447,-12.0109,18.932,0.00153529,0.00118425,0.00130827,0.00267976,3.97743e-05,0.718716,0.0017734,0.0222706,741,1471,-12.0109,-18.9321
-476,-447,-12.0277,19.5997,0.00142915,0.00135956,0.00119194,0.0025868,0.000201909,0.770805,0.00166132,0.014861,748,1471,-12.0277,-19.5997
-469,-447,-12.0573,20.3093,0.00149541,0.0018389,0.00127589,0.00295455,0.000379761,0.852301,0.00185611,0.0132876,755,1471,-12.0572,-20.3093
-462,-447,-12.1025,21.028,0.00183564,0.0026387,0.00163405,0.00391983,0.000554507,0.905874,0.0024494,0.0128116,762,1471,-12.1025,-21.028
-455,-447,-12.1628,21.7194,0.00244244,0.00378908,0.00227803,0.00549122,0.000740311,0.929093,0.00344069,0.0238035,769,1471,-12.1628,-21.7193
-448,-447,-12.1872,22.4336,0,0,0,0,0,0,0,-1,776,1471,-12.1872,-22.4336
-441,-447,-8.68506,19.0931,0,0,0,0,0,0,0,-1,783,1471,-8.68504,-19.0932
-434,-447,-7.43402,15.6273,0,0,0,0,0,0,0,-1,790,1471,-7.43404,-15.6274
-427,-447,-7.21832,14.691,0,0,0,0,0,0,0,-1,797,1471,-7.21834,-14.6911
-420,-447,-8.0545,12.8055,0,0,0,0,0,0,0,-1,804,1471,-8.05452,-12.8055
-413,-447,-4.27393,6.59705,0,0,0,0,0,0,0,-1,811,1471,-4.27392,-6.59707
-406,-447,-1.04279,6.18591,0,0,0,0,0,0,0,-1,818,1471,-1.04276,-6.18586
-399,-447,0.0134888,0.687622,0,0,0,0,0,0,0,-1,825,1471,0.0134841,-0.68767
-392,-447,-14.0646,3.76147,0,0,0,0,0,0,0,-1,832,1471,-14.0646,-3.7615
-385,-447,-15.1695,2.61865,0,0,0,0,0,0,0,-1,839,1471,-15.1695,-2.61871
-378,-447,-15.9424,1.49316,0,0,0,0,0,0,0,-1,846,1471,-15.9424,-1.49313
-371,-447,-17.3655,0.73291,0,0,0,0,0,0,0,-1,853,1471,-17.3655,-0.732946
-364,-447,0,0,0,0,0,0,0,0,0,-1,860,1471,0,0
-357,-447,0,0,0,0,0,0,0,0,0,-1,867,1471,0,0
-350,-447,0,0,0,0,0,0,0,0,0,-1,874,1471,0,0
-343,-447,0,0,0,0,0,0,0,0,0,-1,881,1471,0,0
-336,-447,0,0,0,0,0,0,0,0,0,-1,888,1471,0,0
-329,-447,0,0,0,0,0,0,0,0,0,-1,895,1471,0,0
-322,-447,0,0,0,0,0,0,0,0,0,-1,902,1471,0,0
-315,-447,0,0,0,0,0,0,0,0,0,-1,909,1471,0,0
-308,-447,0,0,0,0,0,0,0,0,0,-1,916,1471,0,0
-301,-447,0,0,0,0,0,0,0,0,0,-1,923,1471,0,0
-294,-447,0,0,0,0,0,0,0,0,0,-1,930,1471,0,0
-287,-447,0,0,0,0,0,0,0,0,0,-1,937,1471,0,0
-280,-447,0,0,0,0,0,0,0,0,0,-1,944,1471,0,0
-273,-447,0,0,0,0,0,0,0,0,0,-1,951,1471,0,0
-266,-447,0,0,0,0,0,0,0,0,0,-1,958,1471,0,0
-259,-447,0,0,0,0,0,0,0,0,0,-1,965,1471,0,0
-252,-447,0,0,0,0,0,0,0,0,0,-1,972,1471,0,0
-245,-447,0,0,0,0,0,0,0,0,0,-1,979,1471,0,0
-238,-447,0,0,0,0,0,0,0,0,0,-1,986,1471,0,0
-231,-447,0,0,0,0,0,0,0,0,0,-1,993,1471,0,0
-224,-447,0,0,0,0,0,0,0,0,0,-1,1000,1471,0,0
-217,-447,0,0,0,0,0,0,0,0,0,-1,1007,1471,0,0
-210,-447,0,0,0,0,0,0,0,0,0,-1,1014,1471,0,0
-203,-447,0,0,0,0,0,0,0,0,0,-1,1021,1471,0,0
-196,-447,0,0,0,0,0,0,0,0,0,-1,1028,1471,0,0
-189,-447,0,0,0,0,0,0,0,0,0,-1,1035,1471,0,0
-182,-447,0,0,0,0,0,0,0,0,0,-1,1042,1471,0,0
-175,-447,0,0,0,0,0,0,0,0,0,-1,1049,1471,0,0
-168,-447,0,0,0,0,0,0,0,0,0,-1,1056,1471,0,0
-161,-447,0,0,0,0,0,0,0,0,0,-1,1063,1471,0,0
-154,-447,0,0,0,0,0,0,0,0,0,-1,1070,1471,0,0
-147,-447,0,0,0,0,0,0,0,0,0,-1,1077,1471,0,0
-140,-447,0,0,0,0,0,0,0,0,0,-1,1084,1471,0,0
-133,-447,0,0,0,0,0,0,0,0,0,-1,1091,1471,0,0
-126,-447,0,0,0,0,0,0,0,0,0,-1,1098,1471,0,0
-119,-447,0,0,0,0,0,0,0,0,0,-1,1105,1471,0,0
-112,-447,0,0,0,0,0,0,0,0,0,-1,1112,1471,0,0
-105,-447,0,0,0,0,0,0,0,0,0,-1,1119,1471,0,0
-98,-447,0,0,0,0,0,0,0,0,0,-1,1126,1471,0,0
-91,-447,0,0,0,0,0,0,0,0,0,-1,1133,1471,0,0
-84,-447,0,0,0,0,0,0,0,0,0,-1,1140,1471,0,0
-77,-447,0,0,0,0,0,0,0,0,0,-1,1147,1471,0,0
-70,-447,0,0,0,0,0,0,0,0,0,-1,1154,1471,0,0
-63,-447,0,0,0,0,0,0,0,0,0,-1,1161,1471,0,0
-56,-447,0,0,0,0,0,0,0,0,0,-1,1168,1471,0,0
-49,-447,0,0,0,0,0,0,0,0,0,-1,1175,1471,0,0
-42,-447,0,0,0,0,0,0,0,0,0,-1,1182,1471,0,0
-35,-447,0,0,0,0,0,0,0,0,0,-1,1189,1471,0,0
-28,-447,0,0,0,0,0,0,0,0,0,-1,1196,1471,0,0
-21,-447,0,0,0,0,0,0,0,0,0,-1,1203,1471,0,0
-14,-447,0,0,0,0,0,0,0,0,0,-1,1210,1471,0,0
-7,-447,0,0,0,0,0,0,0,0,0,-1,1217,1471,0,0
0,-447,0,0,0,0,0,0,0,0,0,-1,1224,1471,0,0
7,-447,0,0,0,0,0,0,0,0,0,-1,1231,1471,0,0
14,-447,0,0,0,0,0,0,0,0,0,-1,1238,1471,0,0
21,-447,0,0,0,0,0,0,0,0,0,-1,1245,1471,0,0
28,-447,0,0,0,0,0,0,0,0,0,-1,1252,1471,0,0
35,-447,0,0,0,0,0,0,0,0,0,-1,1259,1471,0,0
42,-447,0,0,0,0,0,0,0,0,0,-1,1266,1471,0,0
49,-447,0,0,0,0,0,0,0,0,0,-1,1273,1471,0,0
56,-447,0,0,0,0,0,0,0,0,0,-1,1280,1471,0,0
63,-447,0,0,0,0,0,0,0,0,0,-1,1287,1471,0,0
70,-447,0,0,0,0,0,0,0,0,0,-1,1294,1471,0,0
77,-447,0,0,0,0,0,0,0,0,0,-1,1301,1471,0,0
84,-447,0,0,0,0,0,0,0,0,0,-1,1308,1471,0,0
91,-447,0,0,0,0,0,0,0,0,0,-1,1315,1471,0,0
98,-447,0,0,0,0,0,0,0,0,0,-1,1322,1471,0,0
105,-447,0,0,0,0,0,0,0,0,0,-1,1329,1471,0,0
112,-447,0,0,0,0,0,0,0,0,0,-1,1336,1471,0,0
119,-447,0,0,0,0,0,0,0,0,0,-1,1343,1471,0,0
126,-447,0,0,0,0,0,0,0,0,0,-1,1350,1471,0,0
133,-447,0,0,0,0,0,0,0,0,0,-1,1357,1471,0,0
140,-447,0,0,0,0,0,0,0,0,0,-1,1364,1471,0,0
147,-447,0,0,0,0,0,0,0,0,0,-1,1371,1471,0,0
154,-447,0,0,0,0,0,0,0,0,0,-1,1378,1471,0,0
161,-447,0,0,0,0,0,0,0,0,0,-1,1385,1471,0,0
168,-447,0,0,0,0,0,0,0,0,0,-1,1392,1471,0,0
175,-447,0,0,0,0,0,0,0,0,0,-1,1399,1471,0,0
182,-447,0,0,0,0,0,0,0,0,0,-1,1406,1471,0,0
189,-447,0,0,0,0,0,0,0,0,0,-1,1413,1471,0,0
196,-447,0,0,0,0,0,0,0,0,0,-1,1420,1471,0,0
203,-447,0,0,0,0,0,0,0,0,0,-1,1427,1471,0,0
210,-447,0,0,0,0,0,0,0,0,0,-1,1434,1471,0,0
217,-447,0,0,0,0,0,0,0,0,0,-1,1441,1471,0,0
224,-447,0,0,0,0,0,0,0,0,0,-1,1448,1471,0,0
231,-447,0,0,0,0,0,0,0,0,0,-1,1455,1471,0,0
238,-447,0,0,0,0,0,0,0,0,0,-1,1462,1471,0,0
245,-447,0,0,0,0,0,0,0,0,0,-1,1469,1471,0,0
252,-447,0,0,0,0,0,0,0,0,0,-1,1476,1471,0,0
259,-447,0,0,0,0,0,0,0,0,0,-1,1483,1471,0,0
266,-447,0,0,0,0,0,0,0,0,0,-1,1490,1471,0,0
273,-447,0,0,0,0,0,0,0,0,0,-1,1497,1471,0,0
280,-447,0,0,0,0,0,0,0,0,0,-1,1504,1471,0,0
287,-447,0,0,0,0,0,0,0,0,0,-1,1511,1471,0,0
294,-447,0,0,0,0,0,0,0,0,0,-1,1518,1471,0,0
301,-447,0,0,0,0,0,0,0,0,0,-1,1525,1471,0,0
308,-447,0,0,0,0,0,0,0,0,0,-1,1532,1471,0,0
315,-447,0,0,0,0,0,0,0,0,0,-1,1539,1471,0,0
322,-447,0,0,0,0,0,0,0,0,0,-1,1546,1471,0,0
329,-447,0,0,0,0,0,0,0,0,0,-1,1553,1471,0,0
336,-447,0,0,0,0,0,0,0,0,0,-1,1560,1471,0,0
343,-447,0,0,0,0,0,0,0,0,0,-1,1567,1471,0,0
350,-447,0,0,0,0,0,0,0,0,0,-1,1574,1471,0,0
357,-447,0,0,0,0,0,0,0,0,0,-1,1581,1471,0,0
364,-447,0,0,0,0,0,0,0,0,0,-1,1588,1471,0,0
371,-447,0,0,0,0,0,0,0,0,0,-1,1595,1471,0,0
378,-447,0,0,0,0,0,0,0,0,0,-1,1602,1471,0,0
385,-447,0,0,0,0,0,0,0,0,0,-1,1609,1471,0,0
392,-447,0,0,0,0,0,0,0,0,0,-1,1616,1471,0,0
399,-447,0,0,0,0,0,0,0,0,0,-1,1623,1471,0,0
406,-447,0,0,0,0,0,0,0,0,0,-1,1630,1471,0,0
413,-447,0,0,0,0,0,0,0,0,0,-1,1637,1471,0,0
420,-447,0,0,0,0,0,0,0,0,0,-1,1644,1471,0,0
427,-447,0,0,0,0,0,0,0,0,0,-1,1651,1471,0,0
434,-447,0,0,0,0,0,0,0,0,0,-1,1658,1471,0,0
441,-447,0,0,0,0,0,0,0,0,0,-1,1665,1471,0,0
448,-447,0,0,0,0,0,0,0,0,0,-1,1672,1471,0,0
455,-447,0,0,0,0,0,0,0,0,0,-1,1679,1471,0,0
462,-447,0,0,0,0,0,0,0,0,0,-1,1686,1471,0,0
469,-447,0,0,0,0,0,0,0,0,0,-1,1693,1471,0,0
476,-447,0,0,0,0,0,0,0,0,0,-1,1700,1471,0,0
483,-447,0,0,0,0,0,0,0,0,0,-1,1707,1471,0,0
490,-447,18.2214,-0.810303,0,0,0,0,0,0,0,-1,1714,1471,18.2215,0.810307
497,-447,17.0237,0.352417,0,0,0,0,0,0,0,-1,1721,1471,17.0237,-0.352442
504,-447,15.8998,1.53479,0,0,0,0,0,0,0,-1,1728,1471,15.8997,-1.53478
511,-447,14.7201,2.76111,0,0,0,0,0,0,0,-1,1735,1471,14.7201,-2.76107
518,-447,17.7618,13.2864,0,0,0,0,0,0,0,-1,1742,1471,17.7619,-13.2863
525,-447,17.1191,11.9014,0,0,0,0,0,0,0,-1,1749,1471,17.1191,-11.9013
532,-447,16.3959,10.0455,0,0,0,0,0,0,0,-1,1756,1471,16.3959,-10.0456
539,-447,14.1699,10.0204,0,0,0,0,0,0,0,-1,1763,1471,14.1699,-10.0204
546,-447,16.3715,11.8046,0,0,0,0,0,0,0,-1,1770,1471,16.3714,-11.8046
553,-447,17.5106,13.4012,0,0,0,0,0,0,0,-1,1777,1471,17.5107,-13.4012
560,-447,17.0187,13.168,0,0,0,0,0,0,0,-1,1784,1471,17.0187,-13.168
567,-447,18.9286,15.1703,0,0,0,0,0,0,0,-1,1791,1471,18.9286,-15.1703
574,-447,28.9933,24.4989,0,0,0,0,0,0,0,-1,1798,1471,28.9933,-24.4988
581,-447,29.411,23.6299,0,0,0,0,0,0,0,-1,1805,1471,29.411,-23.6298
588,-447,29.4745,22.7892,0.00476418,0.0010845,-0.00181021,0.0055054,0.000343279,-0.38864,0.00356136,0.0321652,1812,1471,29.4744,-22.7892
595,-447,29.4834,22.0905,0.00358074,0.00102353,-0.00159566,0.00434688,0.000257396,-0.447631,0.00281604,0.0143668,1819,1471,29.4834,-22.0905
602,-447,29.4386,21.4138,0.00281526,0.000760352,-0.00129074,0.00343755,0.000138061,-0.449243,0.0022471,0.0119708,1826,1471,29.4385,-21.4138
609,-447,29.4022,20.7688,0.00228464,0.000548695,-0.00101078,0.00274898,8.43543e-05,-0.430633,0.00180519,0.0128073,1833,1471,29.4023,-20.7687
616,-447,29.3875,20.1248,0.00188314,0.000447237,-0.000815138,0.00225142,7.89544e-05,-0.424354,0.00147533,0.0146721,1840,1471,29.3874,-20.1247
623,-447,29.3873,19.5088,0.0018103,0.000336925,-0.000653406,0.00205832,8.89064e-05,-0.362779,0.00134356,0.0158017,1847,1471,29.3873,-19.5087
630,-447,29.3549,18.8516,0.00190536,0.000211983,-0.000539949,0.00206287,5.44664e-05,-0.283847,0.00135746,0.0101086,1854,1471,29.3549,-18.8516
637,-447,29.3464,18.2056,0.00207783,0.000100709,-0.000466698,0.00218246,-3.91772e-06,-0.220539,0.00145628,0.0114469,1861,1471,29.3464,-18.2055
644,-447,29.3173,17.5675,0.00242373,0.000207972,-0.000502462,0.00253235,9.93545e-05,-0.212895,0.00165611,0.0121001,1868,1471,29.3172,-17.5675
651,-447,29.3094,16.8535,0.00300681,0.000466107,-0.000791526,0.00323322,0.000239693,-0.278608,0.00208019,0.0476423,1875,1471,29.3094,-16.8535
658,-447,29.3623,16.0917,0,0,0,0,0,0,0,-1,1882,1471,29.3623,-16.0916
665,-447,18.4946,9.79919,0,0,0,0,0,0,0,-1,1889,1471,18.4946,-9.79922
672,-447,18.9784,9.66077,0,0,0,0,0,0,0,-1,1896,1471,18.9784,-9.66081
679,-447,14.844,7.4248,0,0,0,0,0,0,0,-1,1903,1471,14.844,-7.42477
686,-447,9.81079,4.30859,0,0,0,0,0,0,0,-1,1910,1471,9.8108,-4.30864
693,-447,10.48,2.08643,0,0,0,0,0,0,0,-1,1917,1471,10.48,-2.08642
700,-447,0,0,0,0,0,0,0,0,0,-1,1924,1471,0,0
707,-447,0,0,0,0,0,0,0,0,0,-1,1931,1471,0,0
714,-447,0,0,0,0,0,0,0,0,0,-1,1938,1471,0,0
721,-447,0,0,0,0,0,0,0,0,0,-1,1945,1471,0,0
728,-447,0,0,0,0,0,0,0,0,0,-1,1952,1471,0,0
735,-447,0,0,0,0,0,0,0,0,0,-1,1959,1471,0,0
742,-447,0,0,0,0,0,0,0,0,0,-1,1966,1471,0,0
749,-447,0,0,0,0,0,0,0,0,0,-1,1973,1471,0,0
756,-447,0,0,0,0,0,0,0,0,0,-1,1980,1471,0,0
763,-447,0,0,0,0,0,0,0,0,0,-1,1987,1471,0,0
770,-447,0,0,0,0,0,0,0,0,0,-1,1994,1471,0,0
777,-447,0,0,0,0,0,0,0,0,0,-1,2001,1471,0,0
784,-447,0,0,0,0,0,0,0,0,0,-1,2008,1471,0,0
791,-447,0,0,0,0,0,0,0,0,0,-1,2015,1471,0,0
798,-447,0,0,0,0,0,0,0,0,0,-1,2022,1471,0,0
805,-447,0,0,0,0,0,0,0,0,0,-1,2029,1471,0,0
812,-447,0,0,0,0,0,0,0,0,0,-1,2036,1471,0,0
-700,-454,0,0,0,0,0,0,0,0,0,-1,524,1478,0,0
-693,-454,0,0,0,0,0,0,0,0,0,-1,531,1478,0,0
-686,-454,0,0,0,0,0,0,0,0,0,-1,538,1478,0,0
-679,-454,0,0,0,0,0,0,0,0,0,-1,545,1478,0,0
-672,-454,0,0,0,0,0,0,0,0,0,-1,552,1478,0,0
-665,-454,0,0,0,0,0,0,0,0,0,-1,559,1478,0,0
-658,-454,0,0,0,0,0,0,0,0,0,-1,566,1478,0,0
-651,-454,0,0,0,0,0,0,0,0,0,-1,573,1478,0,0
-644,-454,0,0,0,0,0,0,0,0,0,-1,580,1478,0,0
-637,-454,0,0,0,0,0,0,0,0,0,-1,587,1478,0,0
-630,-454,0,0,0,0,0,0,0,0,0,-1,594,1478,0,0
-623,-454,0,0,0,0,0,0,0,0,0,-1,601,1478,0,0
-616,-454,0,0,0,0,0,0,0,0,0,-1,608,1478,0,0
-609,-454,0,0,0,0,0,0,0,0,0,-1,615,1478,0,0
-602,-454,0,0,0,0,0,0,0,0,0,-1,622,1478,0,0
-595,-454,0,0,0,0,0,0,0,0,0,-1,629,1478,0,0
-588,-454,0,0,0,0,0,0,0,0,0,-1,636,1478,0,0
-581,-454,0,0,0,0,0,0,0,0,0,-1,643,1478,0,0
-574,-454,-8.4881,-0.465942,0,0,0,0,0,0,0,-1,650,1478,-8.4881,0.465885
-567,-454,-8.10046,0.922974,0,0,0,0,0,0,0,-1,657,1478,-8.10047,-0.923034
-560,-454,-10.656,3.51172,0,0,0,0,0,0,0,-1,664,1478,-10.656,-3.51176
-553,-454,-9.01129,3.95251,0,0,0,0,0,0,0,-1,671,1478,-9.0113,-3.95256
-546,-454,-9.61896,6.05237,0,0,0,0,0,0,0,-1,678,1478,-9.61897,-6.05239
-539,-454,-7.72589,4.96533,0,0,0,0,0,0,0,-1,685,1478,-7.72592,-4.96532
-532,-454,-7.03931,7.59985,0,0,0,0,0,0,0,-1,692,1478,-7.03929,-7.59981
-525,-454,-5.78723,9.677,0,0,0,0,0,0,0,-1,699,1478,-5.78722,-9.67703
-518,-454,-9.82098,13.8295,0,0,0,0,0,0,0,-1,706,1478,-9.82098,-13.8295
-511,-454,-11.2872,16.1879,0,0,0,0,0,0,0,-1,713,1478,-11.2872,-16.1878
-504,-454,-11.227,16.9476,0.00334703,0.00261061,0.0034754,0.00647367,-0.00051603,0.732621,0.00449767,0.0195776,720,1478,-11.227,-16.9477
-497,-454,-11.2675,17.6752,0.00253365,0.00178516,0.00252975,0.00471669,-0.000397879,0.711962,0.00328512,0.0191499,727,1478,-11.2675,-17.6752
-490,-454,-11.287,18.3407,0.00193472,0.0012425,0.00182405,0.0034452,-0.000267985,0.69164,0.00239114,0.018026,734,1478,-11.287,-18.3406
-483,-454,-11.3173,19.0049,0.00156325,0.00104069,0.00137454,0.00270112,-9.71823e-05,0.691476,0.001834,0.0166379,741,1478,-11.3173,-19.0049
-476,-454,-11.3611,19.6444,0.00140693,0.0011647,0.00120612,0.002498,7.36269e-05,0.735358,0.00164134,0.0145748,748,1478,-11.3611,-19.6444
-469,-454,-11.3683,20.3409,0.00145347,0.00159834,0.0012614,0.00278939,0.000262427,0.814079,0.00177858,0.0104453,755,1478,-11.3683,-20.341
-462,-454,-11.4233,21.0649,0.00177697,0.00232819,0.0015862,0.00366255,0.000442613,0.871417,0.00230835,0.0106909,762,1478,-11.4233,-21.065
-455,-454,-11.4677,21.7498,0.00238577,0.00337841,0.00220254,0.00513986,0.000624314,0.896217,0.00323859,0.0123053,769,1478,-11.4676,-21.7498
-448,-454,-11.4575,22.4615,0.00343209,0.00499407,0.0033365,0.00763977,0.000786393,0.900366,0.00485234,0.0245576,776,1478,-11.4575,-22.4615
-441,-454,-11.3021,23.3068,0,0,0,0,0,0,0,-1,783,1478,-11.3021,-23.3067
-434,-454,-7.55743,19.4857,0,0,0,0,0,0,0,-1,790,1478,-7.55746,-19.4858
-427,-454,-6.00183,15.8636,0,0,0,0,0,0,0,-1,797,1478,-6.00184,-15.8637
-420,-454,-6.28088,15.2135,0,0,0,0,0,0,0,-1,804,1478,-6.28087,-15.2135
-413,-454,-5.4408,13.674,0,0,0,0,0,0,0,-1,811,1478,-5.44079,-13.6739
-406,-454,-2.38208,10.0308,0,0,0,0,0,0,0,-1,818,1478,-2.38209,-10.0308
-399,-454,-1.21033,6.95447,0,0,0,0,0,0,0,-1,825,1478,-1.21035,-6.95452
-392,-454,0.0967407,0.985474,0,0,0,0,0,0,0,-1,832,1478,0.0967364,-0.985529
-385,-454,2.38629,3.297,0,0,0,0,0,0,0,-1,839,1478,2.38629,-3.29702
-378,-454,-15.9756,2.83997,0,0,0,0,0,0,0,-1,846,1478,-15.9756,-2.83994
-371,-454,-17.2753,2.01453,0,0,0,0,0,0,0,-1,853,1478,-17.2753,-2.01455
-364,-454,1.08124,0.819458,0,0,0,0,0,0,0,-1,860,1478,1.08124,-0.819513
-357,-454,0,0,0,0,0,0,0,0,0,-1,867,1478,0,0
-350,-454,0,0,0,0,0,0,0,0,0,-1,874,1478,0,0
-343,-454,0,0,0,0,0,0,0,0,0,-1,881,1478,0,0
-336,-454,0,0,0,0,0,0,0,0,0,-1,888,1478,0,0
-329,-454,0,0,0,0,0,0,0,0,0,-1,895,1478,0,0
-322,-454,0,0,0,0,0,0,0,0,0,-1,902,1478,0,0
-315,-454,0,0,0,0,0,0,0,0,0,-1,909,1478,0,0
-308,-454,0,0,0,0,0,0,0,0,0,-1,916,1478,0,0
-301,-454,0,0,0,0,0,0,0,0,0,-1,923,1478,0,0
-294,-454,0,0,0,0,0,0,0,0,0,-1,930,1478,0,0
-287,-454,0,0,0,0,0,0,0,0,0,-1,937,1478,0,0
-280,-454,0,0,0,0,0,0,0,0,0,-1,944,1478,0,0
-273,-454,0,0,0,0,0,0,0,0,0,-1,951,1478,0,0
-266,-454,0,0,0,0,0,0,0,0,0,-1,958,1478,0,0
-259,-454,0,0,0,0,0,0,0,0,0,-1,965,1478,0,0
-252,-454,0,0,0,0,0,0,0,0,0,-1,972,1478,0,0
-245,-454,0,0,0,0,0,0,0,0,0,-1,979,1478,0,0
-238,-454,0,0,0,0,0,0,0,0,0,-1,986,1478,0,0
-231,-454,0,0,0,0,0,0,0,0,0,-1,993,1478,0,0
-224,-454,0,0,0,0,0,0,0,0,0,-1,1000,1478,0,0
-217,-454,0,0,0,0,0,0,0,0,0,-1,1007,1478,0,0
-210,-454,0,0,0,0,0,0,0,0,0,-1,1014,1478,0,0
-203,-454,0,0,0,0,0,0,0,0,0,-1,1021,1478,0,0
-196,-454,0,0,0,0,0,0,0,0,0,-1,1028,1478,0,0
-189,-454,0,0,0,0,0,0,0,0,0,-1,1035,1478,0,0
-182,-454,0,0,0,0,0,0,0,0,0,-1,1042,1478,0,0
-175,-454,0,0,0,0,0,0,0,0,0,-1,1049,1478,0,0
-168,-454,0,0,0,0,0,0,0,0,0,-1,1056,1478,0,0
-161,-454,0,0,0,0,0,0,0,0,0,-1,1063,1478,0,0
-154,-454,0,0,0,0,0,0,0,0,0,-1,1070,1478,0,0
-147,-454,0,0,0,0,0,0,0,0,0,-1,1077,1478,0,0
-140,-454,0,0,0,0,0,0,0,0,0,-1,1084,1478,0,0
-133,-454,0,0,0,0,0,0,0,0,0,-1,1091,1478,0,0
-126,-454,0,0,0,0,0,0,0,0,0,-1,1098,1478,0,0
-119,-454,0,0,0,0,0,0,0,0,0,-1,1105,1478,0,0
-112,-454,0,0,0,0,0,0,0,0,0,-1,1112,1478,0,0
-105,-454,0,0,0,0,0,0,0,0,0,-1,1119,1478,0,0
-98,-454,0,0,0,0,0,0,0,0,0,-1,1126,1478,0,0
-91,-454,0,0,0,0,0,0,0,0,0,-1,1133,1478,0,0
-84,-454,0,0,0,0,0,0,0,0,0,-1,1140,1478,0,0
-77,-454,0,0,0,0,0,0,0,0,0,-1,1147,1478,0,0
-70,-454,0,0,0,0,0,0,0,0,0,-1,1154,1478,0,0
-63,-454,0,0,0,0,0,0,0,0,0,-1,1161,1478,0,0
-56,-454,0,0,0,0,0,0,0,0,0,-1,1168,1478,0,0
-49,-454,0,0,0,0,0,0,0,0,0,-1,1175,1478,0,0
-42,-454,0,0,0,0,0,0,0,0,0,-1,1182,1478,0,0
-35,-454,0,0,0,0,0,0,0,0,0,-1,1189,1478,0,0
-28,-454,0,0,0,0,0,0,0,0,0,-1,1196,1478,0,0
-21,-454,0,0,0,0,0,0,0,0,0,-1,1203,1478,0,0
-14,-454,0,0,0,0,0,0,0,0,0,-1,1210,1478,0,0
-7,-454,0,0,0,0,0,0,0,0,0,-1,1217,1478,0,0
0,-454,0,0,0,0,0,0,0,0,0,-1,1224,1478,0,0
7,-454,0,0,0,0,0,0,0,0,0,-1,1231,1478,0,0
14,-454,0,0,0,0,0,0,0,0,0,-1,1238,1478,0,0
21,-454,0,0,0,0,0,0,0,0,0,-1,1245,1478,0,0
28,-454,0,0,0,0,0,0,0,0,0,-1,1252,1478,0,0
35,-454,0,0,0,0,0,0,0,0,0,-1,1259,1478,0,0
42,-454,0,0,0,0,0,0,0,0,0,-1,1266,1478,0,0
49,-454,0,0,0,0,0,0,0,0,0,-1,1273,1478,0,0
56,-454,0,0,0,0,0,0,0,0,0,-1,1280,1478,0,0
63,-454,0,0,0,0,0,0,0,0,0,-1,1287,1478,0,0
70,-454,0,0,0,0,0,0,0,0,0,-1,1294,1478,0,0
77,-454,0,0,0,0,0,0,0,0,0,-1,1301,1478,0,0
84,-454,0,0,0,0,0,0,0,0,0,-1,1308,1478,0,0
91,-454,0,0,0,0,0,0,0,0,0,-1,1315,1478,0,0
98,-454,0,0,0,0,0,0,0,0,0,-1,1322,1478,0,0
105,-454,0,0,0,0,0,0,0,0,0,-1,1329,1478,0,0
112,-454,0,0,0,0,0,0,0,0,0,-1,1336,1478,0,0
119,-454,0,0,0,0,0,0,0,0,0,-1,1343,1478,0,0
126,-454,0,0,0,0,0,0,0,0,0,-1,1350,1478,0,0
133,-454,0,0,0,0,0,0,0,0,0,-1,1357,1478,0,0
140,-454,0,0,0,0,0,0,0,0,0,-1,1364,1478,0,0
147,-454,0,0,0,0,0,0,0,0,0,-1,1371,1478,0,0
154,-454,0,0,0,0,0,0,0,0,0,-1,1378,1478,0,0
161,-454,0,0,0,0,0,0,0,0,0,-1,1385,1478,0,0
168,-454,0,0,0,0,0,0,0,0,0,-1,1392,1478,0,0
175,-454,0,0,0,0,0,0,0,0,0,-1,1399,1478,0,0
182,-454,0,0,0,0,0,0,0,0,0,-1,1406,1478,0,0
189,-454,0,0,0,0,0,0,0,0,0,-1,1413,1478,0,0
196,-454,0,0,0,0,0,0,0,0,0,-1,1420,1478,0,0
203,-454,0,0,0,0,0,0,0,0,0,-1,1427,1478,0,0
210,-454,0,0,0,0,0,0,0,0,0,-1,1434,1478,0,0
217,-454,0,0,0,0,0,0,0,0,0,-1,1441,1478,0,0
224,-454,0,0,0,0,0,0,0,0,0,-1,1448,1478,0,0
231,-454,0,0,0,0,0,0,0,0,0,-1,1455,1478,0,0
238,-454,0,0,0,0,0,0,0,0,0,-1,1462,1478,0,0
245,-454,0,0,0,0,0,0,0,0,0,-1,1469,1478,0,0
252,-454,0,0,0,0,0,0,0,0,0,-1,1476,1478,0,0
259,-454,0,0,0,0,0,0,0,0,0,-1,1483,1478,0,0
266,-454,0,0,0,0,0,0,0,0,0,-1,1490,1478,0,0
273,-454,0,0,0,0,0,0,0,0,0,-1,1497,1478,0,0
280,-454,0,0,0,0,0,0,0,0,0,-1,1504,1478,0,0
287,-454,0,0,0,0,0,0,0,0,0,-1,1511,1478,0,0
294,-454,0,0,0,0,0,0,0,0,0,-1,1518,1478,0,0
301,-454,0,0,0,0,0,0,0,0,0,-1,1525,1478,0,0
308,-454,0,0,0,0,0,0,0,0,0,-1,1532,1478,0,0
315,-454,0,0,0,0,0,0,0,0,0,-1,1539,1478,0,0
322,-454,0,0,0,0,0,0,0,0,0,-1,1546,1478,0,0
329,-454,0,0,0,0,0,0,0,0,0,-1,1553,1478,0,0
336,-454,0,0,0,0,0,0,0,0,0,-1,1560,1478,0,0
343,-454,0,0,0,0,0,0,0,0,0,-1,1567,1478,0,0
350,-454,0,0,0,0,0,0,0,0,0,-1,1574,1478,0,0
357,-454,0,0,0,0,0,0,0,0,0,-1,1581,1478,0,0
364,-454,0,0,0,0,0,0,0,0,0,-1,1588,1478,0,0
371,-454,0,0,0,0,0,0,0,0,0,-1,1595,1478,0,0
378,-454,0,0,0,0,0,0,0,0,0,-1,1602,1478,0,0
385,-454,0,0,0,0,0,0,0,0,0,-1,1609,1478,0,0
392,-454,0,0,0,0,0,0,0,0,0,-1,1616,1478,0,0
399,-454,0,0,0,0,0,0,0,0,0,-1,1623,1478,0,0
406,-454,0,0,0,0,0,0,0,0,0,-1,1630,1478,0,0
413,-454,0,0,0,0,0,0,0,0,0,-1,1637,1478,0,0
420,-454,0,0,0,0,0,0,0,0,0,-1,1644,1478,0,0
427,-454,0,0,0,0,0,0,0,0,0,-1,1651,1478,0,0
434,-454,0,0,0,0,0,0,0,0,0,-1,1658,1478,0,0
441,-454,0,0,0,0,0,0,0,0,0,-1,1665,1478,0,0
448,-454,0,0,0,0,0,0,0,0,0,-1,1672,1478,0,0
455,-454,0,0,0,0,0,0,0,0,0,-1,1679,1478,0,0
462,-454,0,0,0,0,0,0,0,0,0,-1,1686,1478,0,0
469,-454,0,0,0,0,0,0,0,0,0,-1,1693,1478,0,0
476,-454,0,0,0,0,0,0,0,0,0,-1,1700,1478,0,0
483,-454,14.2399,3.97498,0,0,0,0,0,0,0,-1,1707,1478,14.2399,-3.97502
490,-454,18.1821,-0.175781,0,0,0,0,0,0,0,-1,1714,1478,18.1821,0.175822
497,-454,16.8854,1.01208,0,0,0,0,0,0,0,-1,1721,1478,16.8854,-1.01209
504,-454,15.587,2.05994,0,0,0,0,0,0,0,-1,1728,1478,15.5871,-2.05998
511,-454,17.0273,14.5258,0,0,0,0,0,0,0,-1,1735,1478,17.0273,-14.5258
518,-454,16.4158,13.1039,0,0,0,0,0,0,0,-1,1742,1478,16.4157,-13.1038
525,-454,15.7842,11.6628,0,0,0,0,0,0,0,-1,1749,1478,15.7841,-11.6629
532,-454,15.1094,10.2476,0,0,0,0,0,0,0,-1,1756,1478,15.1094,-10.2475
539,-454,13.7905,10.9373,0,0,0,0,0,0,0,-1,1763,1478,13.7906,-10.9372
546,-454,16.2002,13.2458,0,0,0,0,0,0,0,-1,1770,1478,16.2002,-13.2459
553,-454,15.6747,12.1868,0,0,0,0,0,0,0,-1,1777,1478,15.6747,-12.1868
560,-454,16.3895,14.0527,0,0,0,0,0,0,0,-1,1784,1478,16.3895,-14.0528
567,-454,28.9358,24.6661,0,0,0,0,0,0,0,-1,1791,1478,28.9358,-24.6661
574,-454,28.7571,24.1517,0,0,0,0,0,0,0,-1,1798,1478,28.757,-24.1517
581,-454,28.8263,23.4364,0.00535952,0.000878383,-0.00149306,0.00581142,0.000426486,-0.2939,0.00374023,0.0292435,1805,1478,28.8264,-23.4364
588,-454,28.8912,22.7393,0.00415058,0.000818083,-0.00138326,0.00464992,0.000318739,-0.346433,0.00299935,0.015092,1812,1478,28.8912,-22.7392
595,-454,28.8376,22.0978,0.00317569,0.000750726,-0.0012234,0.00368566,0.000240759,-0.394941,0.00238091,0.0134915,1819,1478,28.8376,-22.0978
602,-454,28.7963,21.4379,0.00251174,0.00056954,-0.00102344,0.00295148,0.000129805,-0.405816,0.00192584,0.00935841,1826,1478,28.7963,-21.4379
609,-454,28.7927,20.8119,0.0020774,0.000444916,-0.000827636,0.00242358,9.87332e-05,-0.396165,0.00158384,0.0105494,1833,1478,28.7927,-20.8119
616,-454,28.7668,20.181,0.00178556,0.000401953,-0.000693705,0.00207346,0.000114053,-0.393386,0.0013459,0.0137915,1840,1478,28.7668,-20.1811
623,-454,28.7582,19.5559,0.00181154,0.000310994,-0.000562047,0.00199871,0.00012382,-0.321471,0.00129318,0.0145678,1847,1478,28.7582,-19.5559
630,-454,28.7391,18.9063,0.00199586,0.000204161,-0.000443333,0.00209956,0.000100465,-0.229769,0.00136745,0.014372,1854,1478,28.7391,-18.9062
637,-454,28.6594,18.2598,0.00228518,0.000140907,-0.000380692,0.00235076,7.53249e-05,-0.170596,0.00154268,0.0130543,1861,1478,28.6595,-18.2598
644,-454,28.7266,17.6056,0.0027738,0.000267015,-0.000473807,0.00286036,0.00018045,-0.180708,0.00184969,0.02293,1868,1478,28.7266,-17.6055
651,-454,28.8392,16.9293,0,0,0,0,0,0,0,-1,1875,1478,28.8392,-16.9294
658,-454,17.2583,10.0765,0,0,0,0,0,0,0,-1,1882,1478,17.2583,-10.0765
665,-454,17.683,9.67566,0,0,0,0,0,0,0,-1,1889,1478,17.683,-9.67572
672,-454,16.5476,6.41931,0,0,0,0,0,0,0,-1,1896,1478,16.5476,-6.41929
679,-454,14.2161,5.45007,0,0,0,0,0,0,0,-1,1903,1478,14.2161,-5.45013
686,-454,10.3767,2.12842,0,0,0,0,0,0,0,-1,1910,1478,10.3767,-2.12839
693,-454,11.1857,1.48486,0,0,0,0,0,0,0,-1,1917,1478,11.1857,-1.48487
700,-454,0,0,0,0,0,0,0,0,0,-1,1924,1478,0,0
707,-454,0,0,0,0,0,0,0,0,0,-1,1931,1478,0,0
714,-454,0,0,0,0,0,0,0,0,0,-1,1938,1478,0,0
721,-454,0,0,0,0,0,0,0,0,0,-1,1945,1478,0,0
728,-454,0,0,0,0,0,0,0,0,0,-1,1952,1478,0,0
735,-454,0,0,0,0,0,0,0,0,0,-1,1959,1478,0,0
742,-454,0,0,0,0,0,0,0,0,0,-1,1966,1478,0,0
749,-454,0,0,0,0,0,0,0,0,0,-1,1973,1478,0,0
756,-454,0,0,0,0,0,0,0,0,0,-1,1980,1478,0,0
763,-454,0,0,0,0,0,0,0,0,0,-1,1987,1478,0,0
770,-454,0,0,0,0,0,0,0,0,0,-1,1994,1478,0,0
777,-454,0,0,0,0,0,0,0,0,0,-1,2001,1478,0,0
784,-454,0,0,0,0,0,0,0,0,0,-1,2008,1478,0,0
791,-454,0,0,0,0,0,0,0,0,0,-1,2015,1478,0,0
798,-454,0,0,0,0,0,0,0,0,0,-1,2022,1478,0,0
805,-454,0,0,0,0,0,0,0,0,0,-1,2029,1478,0,0
812,-454,0,0,0,0,0,0,0,0,0,-1,2036,1478,0,0
-700,-461,0,0,0,0,0,0,0,0,0,-1,524,1485,0,0
-693,-461,0,0,0,0,0,0,0,0,0,-1,531,1485,0,0
-686,-461,0,0,0,0,0,0,0,0,0,-1,538,1485,0,0
-679,-461,0,0,0,0,0,0,0,0,0,-1,545,1485,0,0
-672,-461,0,0,0,0,0,0,0,0,0,-1,552,1485,0,0
-665,-461,0,0,0,0,0,0,0,0,0,-1,559,1485,0,0
-658,-461,0,0,0,0,0,0,0,0,0,-1,566,1485,0,0
-651,-461,0,0,0,0,0,0,0,0,0,-1,573,1485,0,0
-644,-461,0,0,0,0,0,0,0,0,0,-1,580,1485,0,0
-637,-461,0,0,0,0,0,0,0,0,0,-1,587,1485,0,0
-630,-461,0,0,0,0,0,0,0,0,0,-1,594,1485,0,0
-623,-461,0,0,0,0,0,0,0,0,0,-1,601,1485,0,0
-616,-461,0,0,0,0,0,0,0,0,0,-1,608,1485,0,0
-609,-461,0,0,0,0,0,0,0,0,0,-1,615,1485,0,0
-602,-461,0,0,0,0,0,0,0,0,0,-1,622,1485,0,0
-595,-461,0,0,0,0,0,0,0,0,0,-1,629,1485,0,0
-588,-461,0,0,0,0,0,0,0,0,0,-1,636,1485,0,0
-581,-461,0,0,0,0,0,0,0,0,0,-1,643,1485,0,0
-574,-461,0,0,0,0,0,0,0,0,0,-1,650,1485,0,0
-567,-461,-9.69031,0.513306,0,0,0,0,0,0,0,-1,657,1485,-9.69032,-0.513305
-560,-461,-7.28815,1.54004,0,0,0,0,0,0,0,-1,664,1485,-7.28817,-1.54005
-553,-461,-11.9607,5.27783,0,0,0,0,0,0,0,-1,671,1485,-11.9607,-5.27778
-546,-461,-11.4215,4.44666,0,0,0,0,0,0,0,-1,678,1485,-11.4215,-4.4467
-539,-461,-9.36493,5.23438,0,0,0,0,0,0,0,-1,685,1485,-9.3649,-5.23432
-532,-461,-7.82898,6.78357,0,0,0,0,0,0,0,-1,692,1485,-7.829,-6.78363
-525,-461,-6.37878,8.75659,0,0,0,0,0,0,0,-1,699,1485,-6.3788,-8.75659
-518,-461,-6.49695,10.886,0,0,0,0,0,0,0,-1,706,1485,-6.49696,-10.8859
-511,-461,-10.9064,16.0845,0,0,0,0,0,0,0,-1,713,1485,-10.9064,-16.0844
-504,-461,-10.6504,16.8691,0.00345423,0.00294595,0.00409861,0.00730658,-0.000906391,0.754434,0.00519958,0.0373297,720,1485,-10.6504,-16.8692
-497,-461,-10.5707,17.6973,0.00240049,0.00191792,0.00287951,0.0050488,-0.000730401,0.743599,0.00363389,0.0115332,727,1485,-10.5707,-17.6973
-490,-461,-10.6043,18.3818,0.00165082,0.00118766,0.00195979,0.00339266,-0.000554185,0.726588,0.00246734,0.0129464,734,1485,-10.6043,-18.3818
-483,-461,-10.6376,19.0482,0.00123178,0.000875617,0.00138905,0.00245412,-0.000346721,0.721644,0.00176305,0.0133649,741,1485,-10.6376,-19.0482
-476,-461,-10.692,19.7139,0.00108944,0.000906675,0.00113097,0.00213271,-0.000136595,0.745085,0.00146946,0.0118803,748,1485,-10.692,-19.7139
-469,-461,-10.7114,20.3983,0.00120108,0.00125261,0.00112788,0.00235502,9.8676e-05,0.796818,0.00153818,0.0133142,755,1485,-10.7114,-20.3983
-462,-461,-10.7375,21.0897,0.00159477,0.00187522,0.00138562,0.0031277,0.000342301,0.835826,0.00198091,0.0194401,762,1485,-10.7375,-21.0898
-455,-461,-10.802,21.7476,0.00225664,0.00278279,0.00191662,0.0044543,0.000585125,0.853602,0.00279498,0.0235499,769,1485,-10.802,-21.7476
-448,-461,-10.8082,22.4558,0.00329424,0.00419983,0.00289739,0.00667959,0.000814478,0.86291,0.00420792,0.0212461,776,1485,-10.8082,-22.4558
-441,-461,-10.7253,23.2617,0.00462688,0.00592027,0.00415175,0.00947539,0.00107176,0.862659,0.00599171,0.0421678,783,1485,-10.7254,-23.2617
-434,-461,-10.7169,23.9663,0,0,0,0,0,0,0,-1,790,1485,-10.7169,-23.9663
-427,-461,-8.26154,21.546,0,0,0,0,0,0,0,-1,797,1485,-8.26153,-21.5461
-420,-461,-5.70355,16.6116,0,0,0,0,0,0,0,-1,804,1485,-5.70353,-16.6115
-413,-461,-5.98798,16.0605,0,0,0,0,0,0,0,-1,811,1485,-5.98796,-16.0605
-406,-461,-5.52667,14.839,0,0,0,0,0,0,0,-1,818,1485,-5.52666,-14.839
-399,-461,-1.93439,9.82849,0,0,0,0,0,0,0,-1,825,1485,-1.9344,-9.82846
-392,-461,-0.357544,5.55225,0,0,0,0,0,0,0,-1,832,1485,-0.357536,-5.55228
-385,-461,1.71509,3.35254,0,0,0,0,0,0,0,-1,839,1485,1.71511,-3.35255
-378,-461,1.95996,3.01111,0,0,0,0,0,0,0,-1,846,1485,1.95993,-3.01111
-371,-461,0.702881,2.33459,0,0,0,0,0,0,0,-1,853,1485,0.702859,-2.33459
-364,-461,-1.93097,2.56458,0,0,0,0,0,0,0,-1,860,1485,-1.93095,-2.56456
-357,-461,-2.41516,3.49487,0,0,0,0,0,0,0,-1,867,1485,-2.41517,-3.49487
-350,-461,0,0,0,0,0,0,0,0,0,-1,874,1485,0,0
-343,-461,0,0,0,0,0,0,0,0,0,-1,881,1485,0,0
-336,-461,0,0,0,0,0,0,0,0,0,-1,888,1485,0,0
-329,-461,0,0,0,0,0,0,0,0,0,-1,895,1485,0,0
-322,-461,0,0,0,0,0,0,0,0,0,-1,902,1485,0,0
-315,-461,0,0,0,0,0,0,0,0,0,-1,909,1485,0,0
-308,-461,0,0,0,0,0,0,0,0,0,-1,916,1485,0,0
-301,-461,0,0,0,0,0,0,0,0,0,-1,923,1485,0,0
-294,-461,0,0,0,0,0,0,0,0,0,-1,930,1485,0,0
-287,-461,0,0,0,0,0,0,0,0,0,-1,937,1485,0,0
-280,-461,0,0,0,0,0,0,0,0,0,-1,944,1485,0,0
-273,-461,0,0,0,0,0,0,0,0,0,-1,951,1485,0,0
-266,-461,0,0,0,0,0,0,0,0,0,-1,958,1485,0,0
-259,-461,0,0,0,0,0,0,0,0,0,-1,965,1485,0,0
-252,-461,0,0,0,0,0,0,0,0,0,-1,972,1485,0,0
-245,-461,0,0,0,0,0,0,0,0,0,-1,979,1485,0,0
-238,-461,0,0,0,0,0,0,0,0,0,-1,986,1485,0,0
-231,-461,0,0,0,0,0,0,0,0,0,-1,993,1485,0,0
-224,-461,0,0,0,0,0,0,0,0,0,-1,1000,1485,0,0
-217,-461,0,0,0,0,0,0,0,0,0,-1,1007,1485,0,0
-210,-461,0,0,0,0,0,0,0,0,0,-1,1014,1485,0,0
-203,-461,0,0,0,0,0,0,0,0,0,-1,1021,1485,0,0
-196,-461,0,0,0,0,0,0,0,0,0,-1,1028,1485,0,0
-189,-461,0,0,0,0,0,0,0,0,0,-1,1035,1485,0,0
-182,-461,0,0,0,0,0,0,0,0,0,-1,1042,1485,0,0
-175,-461,0,0,0,0,0,0,0,0,0,-1,1049,1485,0,0
-168,-461,0,0,0,0,0,0,0,0,0,-1,1056,1485,0,0
-161,-461,0,0,0,0,0,0,0,0,0,-1,1063,1485,0,0
-154,-461,0,0,0,0,0,0,0,0,0,-1,1070,1485,0,0
-147,-461,0,0,0,0,0,0,0,0,0,-1,1077,1485,0,0
-140,-461,0,0,0,0,0,0,0,0,0,-1,1084,1485,0,0
-133,-461,0,0,0,0,0,0,0,0,0,-1,1091,1485,0,0
-126,-461,0,0,0,0,0,0,0,0,0,-1,1098,1485,0,0
-119,-461,0,0,0,0,0,0,0,0,0,-1,1105,1485,0,0
-112,-461,0,0,0,0,0,0,0,0,0,-1,1112,1485,0,0
-105,-461,0,0,0,0,0,0,0,0,0,-1,1119,1485,0,0
-98,-461,0,0,0,0,0,0,0,0,0,-1,1126,1485,0,0
-91,-461,0,0,0,0,0,0,0,0,0,-1,1133,1485,0,0
-84,-461,0,0,0,0,0,0,0,0,0,-1,1140,1485,0,0
-77,-461,0,0,0,0,0,0,0,0,0,-1,1147,1485,0,0
-70,-461,0,0,0,0,0,0,0,0,0,-1,1154,1485,0,0
-63,-461,0,0,0,0,0,0,0,0,0,-1,1161,1485,0,0
-56,-461,0,0,0,0,0,0,0,0,0,-1,1168,1485,0,0
-49,-461,0,0,0,0,0,0,0,0,0,-1,1175,1485,0,0
-42,-461,0,0,0,0,0,0,0,0,0,-1,1182,1485,0,0
-35,-461,0,0,0,0,0,0,0,0,0,-1,1189,1485,0,0
-28,-461,0,0,0,0,0,0,0,0,0,-1,1196,1485,0,0
-21,-461,0,0,0,0,0,0,0,0,0,-1,1203,1485,0,0
-14,-461,0,0,0,0,0,0,0,0,0,-1,1210,1485,0,0
-7,-461,0,0,0,0,0,0,0,0,0,-1,1217,1485,0,0
0,-461,0,0,0,0,0,0,0,0,0,-1,1224,1485,0,0
7,-461,0,0,0,0,0,0,0,0,0,-1,1231,1485,0,0
14,-461,0,0,0,0,0,0,0,0,0,-1,1238,1485,0,0
21,-461,0,0,0,0,0,0,0,0,0,-1,1245,1485,0,0
28,-461,0,0,0,0,0,0,0,0,0,-1,1252,1485,0,0
35,-461,0,0,0,0,0,0,0,0,0,-1,1259,1485,0,0
42,-461,0,0,0,0,0,0,0,0,0,-1,1266,1485,0,0
49,-461,0,0,0,0,0,0,0,0,0,-1,1273,1485,0,0
56,-461,0,0,0,0,0,0,0,0,0,-1,1280,1485,0,0
63,-461,0,0,0,0,0,0,0,0,0,-1,1287,1485,0,0
70,-461,0,0,0,0,0,0,0,0,0,-1,1294,1485,0,0
77,-461,0,0,0,0,0,0,0,0,0,-1,1301,1485,0,0
84,-461,0,0,0,0,0,0,0,0,0,-1,1308,1485,0,0
91,-461,0,0,0,0,0,0,0,0,0,-1,1315,1485,0,0
98,-461,0,0,0,0,0,0,0,0,0,-1,1322,1485,0,0
105,-461,0,0,0,0,0,0,0,0,0,-1,1329,1485,0,0
112,-461,0,0,0,0,0,0,0,0,0,-1,1336,1485,0,0
119,-461,0,0,0,0,0,0,0,0,0,-1,1343,1485,0,0
126,-461,0,0,0,0,0,0,0,0,0,-1,1350,1485,0,0
133,-461,0,0,0,0,0,0,0,0,0,-1,1357,1485,0,0
140,-461,0,0,0,0,0,0,0,0,0,-1,1364,1485,0,0
147,-461,0,0,0,0,0,0,0,0,0,-1,1371,1485,0,0
154,-461,0,0,0,0,0,0,0,0,0,-1,1378,1485,0,0
161,-461,0,0,0,0,0,0,0,0,0,-1,1385,1485,0,0
168,-461,0,0,0,0,0,0,0,0,0,-1,1392,1485,0,0
175,-461,0,0,0,0,0,0,0,0,0,-1,1399,1485,0,0
182,-461,0,0,0,0,0,0,0,0,0,-1,1406,1485,0,0
189,-461,0,0,0,0,0,0,0,0,0,-1,1413,1485,0,0
196,-461,0,0,0,0,0,0,0,0,0,-1,1420,1485,0,0
203,-461,0,0,0,0,0,0,0,0,0,-1,1427,1485,0,0
210,-461,0,0,0,0,0,0,0,0,0,-1,1434,1485,0,0
217,-461,0,0,0,0,0,0,0,0,0,-1,1441,1485,0,0
224,-461,0,0,0,0,0,0,0,0,0,-1,1448,1485,0,0
231,-461,0,0,0,0,0,0,0,0,0,-1,1455,1485,0,0
238,-461,0,0,0,0,0,0,0,0,0,-1,1462,1485,0,0
245,-461,0,0,0,0,0,0,0,0,0,-1,1469,1485,0,0
252,-461,0,0,0,0,0,0,0,0,0,-1,1476,1485,0,0
259,-461,0,0,0,0,0,0,0,0,0,-1,1483,1485,0,0
266,-461,0,0,0,0,0,0,0,0,0,-1,1490,1485,0,0
273,-461,0,0,0,0,0,0,0,0,0,-1,1497,1485,0,0
280,-461,0,0,0,0,0,0,0,0,0,-1,1504,1485,0,0
287,-461,0,0,0,0,0,0,0,0,0,-1,1511,1485,0,0
294,-461,0,0,0,0,0,0,0,0,0,-1,1518,1485,0,0
301,-461,0,0,0,0,0,0,0,0,0,-1,1525,1485,0,0
308,-461,0,0,0,0,0,0,0,0,0,-1,1532,1485,0,0
315,-461,0,0,0,0,0,0,0,0,0,-1,1539,1485,0,0
322,-461,0,0,0,0,0,0,0,0,0,-1,1546,1485,0,0
329,-461,0,0,0,0,0,0,0,0,0,-1,1553,1485,0,0
336,-461,0,0,0,0,0,0,0,0,0,-1,1560,1485,0,0
343,-461,0,0,0,0,0,0,0,0,0,-1,1567,1485,0,0
350,-461,0,0,0,0,0,0,0,0,0,-1,1574,1485,0,0
357,-461,0,0,0,0,0,0,0,0,0,-1,1581,1485,0,0
364,-461,0,0,0,0,0,0,0,0,0,-1,1588,1485,0,0
371,-461,0,0,0,0,0,0,0,0,0,-1,1595,1485,0,0
378,-461,0,0,0,0,0,0,0,0,0,-1,1602,1485,0,0
385,-461,0,0,0,0,0,0,0,0,0,-1,1609,1485,0,0
392,-461,0,0,0,0,0,0,0,0,0,-1,1616,1485,0,0
399,-461,0,0,0,0,0,0,0,0,0,-1,1623,1485,0,0
406,-461,0,0,0,0,0,0,0,0,0,-1,1630,1485,0,0
413,-461,0,0,0,0,0,0,0,0,0,-1,1637,1485,0,0
420,-461,0,0,0,0,0,0,0,0,0,-1,1644,1485,0,0
427,-461,0,0,0,0,0,0,0,0,0,-1,1651,1485,0,0
434,-461,0,0,0,0,0,0,0,0,0,-1,1658,1485,0,0
441,-461,0,0,0,0,0,0,0,0,0,-1,1665,1485,0,0
448,-461,0,0,0,0,0,0,0,0,0,-1,1672,1485,0,0
455,-461,0,0,0,0,0,0,0,0,0,-1,1679,1485,0,0
462,-461,0,0,0,0,0,0,0,0,0,-1,1686,1485,0,0
469,-461,0,0,0,0,0,0,0,0,0,-1,1693,1485,0,0
476,-461,14.1906,0.690552,0,0,0,0,0,0,0,-1,1700,1485,14.1906,-0.690525
483,-461,10.6361,3.09106,0,0,0,0,0,0,0,-1,1707,1485,10.6361,-3.091
490,-461,17.9972,0.665894,0,0,0,0,0,0,0,-1,1714,1485,17.9972,-0.665876
497,-461,16.6829,1.87732,0,0,0,0,0,0,0,-1,1721,1485,16.6828,-1.87736
504,-461,15.3884,3.09216,0,0,0,0,0,0,0,-1,1728,1485,15.3885,-3.09212
511,-461,15.4292,14.3512,0,0,0,0,0,0,0,-1,1735,1485,15.4292,-14.3512
518,-461,14.8081,10.0085,0,0,0,0,0,0,0,-1,1742,1485,14.8081,-10.0086
525,-461,14.0022,10.8033,0,0,0,0,0,0,0,-1,1749,1485,14.0022,-10.8033
532,-461,17.1704,14.077,0,0,0,0,0,0,0,-1,1756,1485,17.1704,-14.077
539,-461,17.0229,14.7386,0,0,0,0,0,0,0,-1,1763,1485,17.0229,-14.7387
546,-461,16.2106,14.1372,0,0,0,0,0,0,0,-1,1770,1485,16.2106,-14.1372
553,-461,25.9354,24.2889,0,0,0,0,0,0,0,-1,1777,1485,25.9354,-24.2889
560,-461,28.1031,25.0718,0,0,0,0,0,0,0,-1,1784,1485,28.1032,-25.0718
567,-461,28.2874,24.6122,0.00754259,0.00102304,-0.00143307,0.00784369,0.000721944,-0.207095,0.00500586,0.0342832,1791,1485,28.2873,-24.6121
574,-461,28.2921,24.0542,0.00586918,0.000847036,-0.00129759,0.00618463,0.000531586,-0.238478,0.00395781,0.0307139,1798,1485,28.2921,-24.0541
581,-461,28.2804,23.4089,0.00462366,0.000796481,-0.0012326,0.00498628,0.000433863,-0.286118,0.00318942,0.0185945,1805,1485,28.2804,-23.4089
588,-461,28.2391,22.7993,0.00361769,0.000677556,-0.00113192,0.00400298,0.000292267,-0.328083,0.00257676,0.0120317,1812,1485,28.2391,-22.7994
595,-461,28.1783,22.1626,0.00287604,0.000570052,-0.00101688,0.0032604,0.000185695,-0.361377,0.00211442,0.00978934,1819,1485,28.1783,-22.1626
602,-461,28.1622,21.4822,0.00235185,0.000422101,-0.000898578,0.00270547,6.84827e-05,-0.374917,0.00178126,0.00984226,1826,1485,28.1622,-21.4822
609,-461,28.1515,20.8342,0.00202573,0.000344918,-0.000768033,0.00232382,4.68354e-05,-0.370216,0.00153384,0.0108892,1833,1485,28.1515,-20.8343
616,-461,28.1287,20.1902,0.00184465,0.000326541,-0.000669831,0.00209794,7.32531e-05,-0.361519,0.00137486,0.0132427,1840,1485,28.1286,-20.1901
623,-461,28.1204,19.5896,0.00194243,0.000236732,-0.000543974,0.00210115,7.80183e-05,-0.283886,0.0013755,0.0163678,1847,1485,28.1204,-19.5896
630,-461,28.0784,18.9783,0.00217702,0.000143973,-0.000395379,0.00225121,6.97876e-05,-0.185473,0.00147809,0.0166497,1854,1485,28.0783,-18.9782
637,-461,28.0159,18.3058,0.00257269,0.00015701,-0.000324272,0.00261546,0.000114239,-0.131144,0.00170683,0.015706,1861,1485,28.0159,-18.3058
644,-461,28.0718,17.7208,0.00314362,0.000355996,-0.000377091,0.00319373,0.000305886,-0.132111,0.00203487,0.0297802,1868,1485,28.0718,-17.7209
651,-461,28.1719,17.1151,0,0,0,0,0,0,0,-1,1875,1485,28.1719,-17.1151
658,-461,16.8987,10.1084,0,0,0,0,0,0,0,-1,1882,1485,16.8986,-10.1084
665,-461,17.2638,9.81384,0,0,0,0,0,0,0,-1,1889,1485,17.2638,-9.81385
672,-461,14.4877,6.89429,0,0,0,0,0,0,0,-1,1896,1485,14.4876,-6.89431
679,-461,10.0535,2.16321,0,0,0,0,0,0,0,-1,1903,1485,10.0535,-2.16317
686,-461,10.8195,1.84192,0,0,0,0,0,0,0,-1,1910,1485,10.8194,-1.84195
693,-461,0,0,0,0,0,0,0,0,0,-1,1917,1485,0,0
700,-461,0,0,0,0,0,0,0,0,0,-1,1924,1485,0,0
707,-461,0,0,0,0,0,0,0,0,0,-1,1931,1485,0,0
714,-461,0,0,0,0,0,0,0,0,0,-1,1938,1485,0,0
721,-461,0,0,0,0,0,0,0,0,0,-1,1945,1485,0,0
728,-461,0,0,0,0,0,0,0,0,0,-1,1952,1485,0,0
735,-461,0,0,0,0,0,0,0,0,0,-1,1959,1485,0,0
742,-461,0,0,0,0,0,0,0,0,0,-1,1966,1485,0,0
749,-461,0,0,0,0,0,0,0,0,0,-1,1973,1485,0,0
756,-461,0,0,0,0,0,0,0,0,0,-1,1980,1485,0,0
763,-461,0,0,0,0,0,0,0,0,0,-1,1987,1485,0,0
770,-461,0,0,0,0,0,0,0,0,0,-1,1994,1485,0,0
777,-461,0,0,0,0,0,0,0,0,0,-1,2001,1485,0,0
784,-461,0,0,0,0,0,0,0,0,0,-1,2008,1485,0,0
791,-461,0,0,0,0,0,0,0,0,0,-1,2015,1485,0,0
798,-461,0,0,0,0,0,0,0,0,0,-1,2022,1485,0,0
805,-461,0,0,0,0,0,0,0,0,0,-1,2029,1485,0,0
812,-461,0,0,0,0,0,0,0,0,0,-1,2036,1485,0,0
-700,-468,0,0,0,0,0,0,0,0,0,-1,524,1492,0,0
-693,-468,0,0,0,0,0,0,0,0,0,-1,531,1492,0,0
-686,-468,0,0,0,0,0,0,0,0,0,-1,538,1492,0,0
-679,-468,0,0,0,0,0,0,0,0,0,-1,545,1492,0,0
-672,-468,0,0,0,0,0,0,0,0,0,-1,552,1492,0,0
-665,-468,0,0,0,0,0,0,0,0,0,-1,559,1492,0,0
-658,-468,0,0,0,0,0,0,0,0,0,-1,566,1492,0,0
-651,-468,0,0,0,0,0,0,0,0,0,-1,573,1492,0,0
-644,-468,0,0,0,0,0,0,0,0,0,-1,580,1492,0,0
-637,-468,0,0,0,0,0,0,0,0,0,-1,587,1492,0,0
-630,-468,0,0,0,0,0,0,0,0,0,-1,594,1492,0,0
-623,-468,0,0,0,0,0,0,0,0,0,-1,601,1492,0,0
-616,-468,0,0,0,0,0,0,0,0,0,-1,608,1492,0,0
-609,-468,0,0,0,0,0,0,0,0,0,-1,615,1492,0,0
-602,-468,0,0,0,0,0,0,0,0,0,-1,622,1492,0,0
-595,-468,0,0,0,0,0,0,0,0,0,-1,629,1492,0,0
-588,-468,0,0,0,0,0,0,0,0,0,-1,636,1492,0,0
-581,-468,0,0,0,0,0,0,0,0,0,-1,643,1492,0,0
-574,-468,0,0,0,0,0,0,0,0,0,-1,650,1492,0,0
-567,-468,-11.2603,1.8042,0,0,0,0,0,0,0,-1,657,1492,-11.2603,-1.80424
-560,-468,-8.77441,2.23694,0,0,0,0,0,0,0,-1,664,1492,-8.77443,-2.23692
-553,-468,-5.94061,9.26318,0,0,0,0,0,0,0,-1,671,1492,-5.94062,-9.26322
-546,-468,-10.47,5.43237,0,0,0,0,0,0,0,-1,678,1492,-10.47,-5.4324
-539,-468,-10.2468,5.45203,0,0,0,0,0,0,0,-1,685,1492,-10.2468,-5.45197
-532,-468,-8.39795,6.02783,0,0,0,0,0,0,0,-1,692,1492,-8.39793,-6.02789
-525,-468,-6.59332,7.15405,0,0,0,0,0,0,0,-1,699,1492,-6.59331,-7.15411
-518,-468,-6.33588,8.65393,0,0,0,0,0,0,0,-1,706,1492,-6.33588,-8.65397
-511,-468,-8.05835,13.8282,0,0,0,0,0,0,0,-1,713,1492,-8.05835,-13.8283
-504,-468,-10.0456,16.8162,0,0,0,0,0,0,0,-1,720,1492,-10.0456,-16.8162
-497,-468,-9.9364,17.646,0.00180151,0.00140908,0.00330501,0.00491612,-0.00170553,0.755749,0.00396998,0.0260899,727,1492,-9.93637,-17.646
-490,-468,-9.92371,18.4124,0.000988866,0.000561766,0.0022145,0.00300009,-0.00144946,0.73733,0.00262043,0.00855779,734,1492,-9.92373,-18.4123
-483,-468,-9.96222,19.0804,0.000601946,0.000241973,0.00153443,0.00196691,-0.00112299,0.727016,0.001806,0.00938694,741,1492,-9.96224,-19.0804
-476,-468,-10.0038,19.7622,0.000535165,0.000296898,0.00117399,0.00159605,-0.00076399,0.734833,0.00139051,0.0101438,748,1492,-10.0038,-19.7622
-469,-468,-10.0213,20.4541,0.000755974,0.000687374,0.00108633,0.00180854,-0.000365195,0.769616,0.00134407,0.0141822,755,1492,-10.0213,-20.4541
-462,-468,-10.0101,21.1249,0.00124743,0.00135076,0.0012426,0.00254277,5.54144e-05,0.806175,0.00167701,0.0253067,762,1492,-10.0102,-21.1249
-455,-468,-10.0688,21.7366,0.00197487,0.00226719,0.00164455,0.00377206,0.000469998,0.829719,0.00237361,0.0254764,769,1492,-10.0688,-21.7366
-448,-468,-10.1068,22.4625,0.00301065,0.00362079,0.00242265,0.0057575,0.000873943,0.848031,0.00358273,0.0149074,776,1492,-10.1068,-22.4626
-441,-468,-10.1559,23.1339,0.00430409,0.00520985,0.00345979,0.00824627,0.00126767,0.850477,0.00512746,0.0158149,783,1492,-10.156,-23.134
-434,-468,-10.1323,23.8921,0.00604738,0.00734438,0.00501359,0.0117512,0.00164052,0.849715,0.00734861,0.0335007,790,1492,-10.1323,-23.8921
-427,-468,-10.1146,24.6764,0,0,0,0,0,0,0,-1,797,1492,-10.1146,-24.6764
-420,-468,-7.57581,22.0538,0,0,0,0,0,0,0,-1,804,1492,-7.57582,-22.0538
-413,-468,-5.30328,17.3519,0,0,0,0,0,0,0,-1,811,1492,-5.30329,-17.352
-406,-468,-2.2356,9.396,0,0,0,0,0,0,0,-1,818,1492,-2.2356,-9.396
-399,-468,-0.940369,8.1936,0,0,0,0,0,0,0,-1,825,1492,-0.940365,-8.19357
-392,-468,-0.35144,8.14673,0,0,0,0,0,0,0,-1,832,1492,-0.351449,-8.14674
-385,-468,0.465759,5.35864,0,0,0,0,0,0,0,-1,839,1492,0.465732,-5.35864
-378,-468,1.99835,3.25391,0,0,0,0,0,0,0,-1,846,1492,1.99837,-3.2539
-371,-468,-0.31842,3.1532,0,0,0,0,0,0,0,-1,853,1492,-0.318441,-3.15324
-364,-468,-0.966736,2.14563,0,0,0,0,0,0,0,-1,860,1492,-0.966735,-2.14557
-357,-468,-3.06787,3.22742,0,0,0,0,0,0,0,-1,867,1492,-3.06784,-3.2274
-350,-468,-3.18658,4.12659,0,0,0,0,0,0,0,-1,874,1492,-3.18659,-4.12658
-343,-468,0,0,0,0,0,0,0,0,0,-1,881,1492,0,0
-336,-468,0,0,0,0,0,0,0,0,0,-1,888,1492,0,0
-329,-468,0,0,0,0,0,0,0,0,0,-1,895,1492,0,0
-322,-468,0,0,0,0,0,0,0,0,0,-1,902,1492,0,0
-315,-468,0,0,0,0,0,0,0,0,0,-1,909,1492,0,0
-308,-468,0,0,0,0,0,0,0,0,0,-1,916,1492,0,0
-301,-468,0,0,0,0,0,0,0,0,0,-1,923,1492,0,0
-294,-468,0,0,0,0,0,0,0,0,0,-1,930,1492,0,0
-287,-468,0,0,0,0,0,0,0,0,0,-1,937,1492,0,0
-280,-468,0,0,0,0,0,0,0,0,0,-1,944,1492,0,0
-273,-468,0,0,0,0,0,0,0,0,0,-1,951,1492,0,0
-266,-468,0,0,0,0,0,0,0,0,0,-1,958,1492,0,0
-259,-468,0,0,0,0,0,0,0,0,0,-1,965,1492,0,0
-252,-468,0,0,0,0,0,0,0,0,0,-1,972,1492,0,0
-245,-468,0,0,0,0,0,0,0,0,0,-1,979,1492,0,0
-238,-468,0,0,0,0,0,0,0,0,0,-1,986,1492,0,0
-231,-468,0,0,0,0,0,0,0,0,0,-1,993,1492,0,0
-224,-468,0,0,0,0,0,0,0,0,0,-1,1000,1492,0,0
-217,-468,0,0,0,0,0,0,0,0,0,-1,1007,1492,0,0
-210,-468,0,0,0,0,0,0,0,0,0,-1,1014,1492,0,0
-203,-468,0,0,0,0,0,0,0,0,0,-1,1021,1492,0,0
-196,-468,0,0,0,0,0,0,0,0,0,-1,1028,1492,0,0
-189,-468,0,0,0,0,0,0,0,0,0,-1,1035,1492,0,0
-182,-468,0,0,0,0,0,0,0,0,0,-1,1042,1492,0,0
-175,-468,0,0,0,0,0,0,0,0,0,-1,1049,1492,0,0
-168,-468,0,0,0,0,0,0,0,0,0,-1,1056,1492,0,0
-161,-468,0,0,0,0,0,0,0,0,0,-1,1063,1492,0,0
-154,-468,0,0,0,0,0,0,0,0,0,-1,1070,1492,0,0
-147,-468,0,0,0,0,0,0,0,0,0,-1,1077,1492,0,0
-140,-468,0,0,0,0,0,0,0,0,0,-1,1084,1492,0,0
-133,-468,0,0,0,0,0,0,0,0,0,-1,1091,1492,0,0
-126,-468,0,0,0,0,0,0,0,0,0,-1,1098,1492,0,0
-119,-468,0,0,0,0,0,0,0,0,0,-1,1105,1492,0,0
-112,-468,0,0,0,0,0,0,0,0,0,-1,1112,1492,0,0
-105,-468,0,0,0,0,0,0,0,0,0,-1,1119,1492,0,0
-98,-468,0,0,0,0,0,0,0,0,0,-1,1126,1492,0,0
-91,-468,0,0,0,0,0,0,0,0,0,-1,1133,1492,0,0
-84,-468,0,0,0,0,0,0,0,0,0,-1,1140,1492,0,0
-77,-468,0,0,0,0,0,0,0,0,0,-1,1147,1492,0,0
-70,-468,0,0,0,0,0,0,0,0,0,-1,1154,1492,0,0
-63,-468,0,0,0,0,0,0,0,0,0,-1,1161,1492,0,0
-56,-468,0,0,0,0,0,0,0,0,0,-1,1168,1492,0,0
-49,-468,0,0,0,0,0,0,0,0,0,-1,1175,1492,0,0
-42,-468,0,0,0,0,0,0,0,0,0,-1,1182,1492,0,0
-35,-468,0,0,0,0,0,0,0,0,0,-1,1189,1492,0,0
-28,-468,0,0,0,0,0,0,0,0,0,-1,1196,1492,0,0
-21,-468,0,0,0,0,0,0,0,0,0,-1,1203,1492,0,0
-14,-468,0,0,0,0,0,0,0,0,0,-1,1210,1492,0,0
-7,-468,0,0,0,0,0,0,0,0,0,-1,1217,1492,0,0
0,-468,0,0,0,0,0,0,0,0,0,-1,1224,1492,0,0
7,-468,0,0,0,0,0,0,0,0,0,-1,1231,1492,0,0
14,-468,0,0,0,0,0,0,0,0,0,-1,1238,1492,0,0
21,-468,0,0,0,0,0,0,0,0,0,-1,1245,1492,0,0
28,-468,0,0,0,0,0,0,0,0,0,-1,1252,1492,0,0
35,-468,0,0,0,0,0,0,0,0,0,-1,1259,1492,0,0
42,-468,0,0,0,0,0,0,0,0,0,-1,1266,1492,0,0
49,-468,0,0,0,0,0,0,0,0,0,-1,1273,1492,0,0
56,-468,0,0,0,0,0,0,0,0,0,-1,1280,1492,0,0
63,-468,0,0,0,0,0,0,0,0,0,-1,1287,1492,0,0
70,-468,0,0,0,0,0,0,0,0,0,-1,1294,1492,0,0
77,-468,0,0,0,0,0,0,0,0,0,-1,1301,1492,0,0
84,-468,0,0,0,0,0,0,0,0,0,-1,1308,1492,0,0
91,-468,0,0,0,0,0,0,0,0,0,-1,1315,1492,0,0
98,-468,0,0,0,0,0,0,0,0,0,-1,1322,1492,0,0
105,-468,0,0,0,0,0,0,0,0,0,-1,1329,1492,0,0
112,-468,0,0,0,0,0,0,0,0,0,-1,1336,1492,0,0
119,-468,0,0,0,0,0,0,0,0,0,-1,1343,1492,0,0
126,-468,0,0,0,0,0,0,0,0,0,-1,1350,1492,0,0
133,-468,0,0,0,0,0,0,0,0,0,-1,1357,1492,0,0
140,-468,0,0,0,0,0,0,0,0,0,-1,1364,1492,0,0
147,-468,0,0,0,0,0,0,0,0,0,-1,1371,1492,0,0
154,-468,0,0,0,0,0,0,0,0,0,-1,1378,1492,0,0
161,-468,0,0,0,0,0,0,0,0,0,-1,1385,1492,0,0
168,-468,0,0,0,0,0,0,0,0,0,-1,1392,1492,0,0
175,-468,0,0,0,0,0,0,0,0,0,-1,1399,1492,0,0
182,-468,0,0,0,0,0,0,0,0,0,-1,1406,1492,0,0
189,-468,0,0,0,0,0,0,0,0,0,-1,1413,1492,0,0
196,-468,0,0,0,0,0,0,0,0,0,-1,1420,1492,0,0
203,-468,0,0,0,0,0,0,0,0,0,-1,1427,1492,0,0
210,-468,0,0,0,0,0,0,0,0,0,-1,1434,1492,0,0
217,-468,0,0,0,0,0,0,0,0,0,-1,1441,1492,0,0
224,-468,0,0,0,0,0,0,0,0,0,-1,1448,1492,0,0
231,-468,0,0,0,0,0,0,0,0,0,-1,1455,1492,0,0
238,-468,0,0,0,0,0,0,0,0,0,-1,1462,1492,0,0
245,-468,0,0,0,0,0,0,0,0,0,-1,1469,1492,0,0
252,-468,0,0,0,0,0,0,0,0,0,-1,1476,1492,0,0
259,-468,0,0,0,0,0,0,0,0,0,-1,1483,1492,0,0
266,-468,0,0,0,0,0,0,0,0,0,-1,1490,1492,0,0
273,-468,0,0,0,0,0,0,0,0,0,-1,1497,1492,0,0
280,-468,0,0,0,0,0,0,0,0,0,-1,1504,1492,0,0
287,-468,0,0,0,0,0,0,0,0,0,-1,1511,1492,0,0
294,-468,0,0,0,0,0,0,0,0,0,-1,1518,1492,0,0
301,-468,0,0,0,0,0,0,0,0,0,-1,1525,1492,0,0
308,-468,0,0,0,0,0,0,0,0,0,-1,1532,1492,0,0
315,-468,0,0,0,0,0,0,0,0,0,-1,1539,1492,0,0
322,-468,0,0,0,0,0,0,0,0,0,-1,1546,1492,0,0
329,-468,0,0,0,0,0,0,0,0,0,-1,1553,1492,0,0
336,-468,0,0,0,0,0,0,0,0,0,-1,1560,1492,0,0
343,-468,0,0,0,0,0,0,0,0,0,-1,1567,1492,0,0
350,-468,0,0,0,0,0,0,0,0,0,-1,1574,1492,0,0
357,-468,0,0,0,0,0,0,0,0,0,-1,1581,1492,0,0
364,-468,0,0,0,0,0,0,0,0,0,-1,1588,1492,0,0
371,-468,0,0,0,0,0,0,0,0,0,-1,1595,1492,0,0
378,-468,0,0,0,0,0,0,0,0,0,-1,1602,1492,0,0
385,-468,0,0,0,0,0,0,0,0,0,-1,1609,1492,0,0
392,-468,0,0,0,0,0,0,0,0,0,-1,1616,1492,0,0
399,-468,0,0,0,0,0,0,0,0,0,-1,1623,1492,0,0
406,-468,0,0,0,0,0,0,0,0,0,-1,1630,1492,0,0
413,-468,0,0,0,0,0,0,0,0,0,-1,1637,1492,0,0
420,-468,0,0,0,0,0,0,0,0,0,-1,1644,1492,0,0
427,-468,0,0,0,0,0,0,0,0,0,-1,1651,1492,0,0
434,-468,0,0,0,0,0,0,0,0,0,-1,1658,1492,0,0
441,-468,0,0,0,0,0,0,0,0,0,-1,1665,1492,0,0
448,-468,0,0,0,0,0,0,0,0,0,-1,1672,1492,0,0
455,-468,0,0,0,0,0,0,0,0,0,-1,1679,1492,0,0
462,-468,0,0,0,0,0,0,0,0,0,-1,1686,1492,0,0
469,-468,15.6879,1.2677,0,0,0,0,0,0,0,-1,1693,1492,15.6879,-1.26772
476,-468,14.9318,1.61865,0,0,0,0,0,0,0,-1,1700,1492,14.9318,-1.61869
483,-468,11.265,4.64795,0,0,0,0,0,0,0,-1,1707,1492,11.265,-4.64798
490,-468,12.1316,3.51624,0,0,0,0,0,0,0,-1,1714,1492,12.1316,-3.51628
497,-468,16.5355,3.14587,0,0,0,0,0,0,0,-1,1721,1492,16.5356,-3.14583
504,-468,15.0642,4.10437,0,0,0,0,0,0,0,-1,1728,1492,15.0643,-4.10431
511,-468,15.6877,9.4801,0,0,0,0,0,0,0,-1,1735,1492,15.6878,-9.48007
518,-468,13.759,11.0887,0,0,0,0,0,0,0,-1,1742,1492,13.759,-11.0887
525,-468,16.6531,14.2238,0,0,0,0,0,0,0,-1,1749,1492,16.653,-14.2237
532,-468,16.9696,15.9641,0,0,0,0,0,0,0,-1,1756,1492,16.9696,-15.9641
539,-468,21.5308,20.7551,0,0,0,0,0,0,0,-1,1763,1492,21.5308,-20.7551
546,-468,25.5796,25.0283,0,0,0,0,0,0,0,-1,1770,1492,25.5796,-25.0284
553,-468,27.3719,25.9619,0,0,0,0,0,0,0,-1,1777,1492,27.3719,-25.9619
560,-468,27.615,25.339,0.00876416,0.00226891,-0.00228128,0.00948533,0.00154774,-0.306183,0.00587599,0.0416629,1784,1492,27.615,-25.339
567,-468,27.637,24.7423,0.00668576,0.00143269,-0.00156006,0.00711414,0.00100431,-0.267983,0.00444596,0.0211399,1791,1492,27.6369,-24.7423
574,-468,27.6598,24.0668,0.00522259,0.00103216,-0.00130643,0.00559653,0.000658224,-0.278771,0.00353211,0.0160842,1798,1492,27.6598,-24.0667
581,-468,27.6451,23.4517,0.00408532,0.000811986,-0.0011571,0.00445304,0.000444265,-0.307701,0.00283224,0.0161657,1805,1492,27.6452,-23.4516
588,-468,27.5829,22.8494,0.00322315,0.000630555,-0.0010475,0.00359348,0.000260229,-0.33982,0.00231379,0.0127814,1812,1492,27.5829,-22.8494
595,-468,27.5525,22.2032,0.00266238,0.000473603,-0.000949592,0.00301693,0.000119057,-0.357338,0.0019728,0.0110025,1819,1492,27.5524,-22.2033
602,-468,27.5266,21.532,0.00225781,0.000341519,-0.000878029,0.00259927,5.7742e-08,-0.370897,0.00173283,0.00958537,1826,1492,27.5266,-21.532
609,-468,27.4839,20.8717,0.00203278,0.00030048,-0.000793896,0.00234157,-8.31147e-06,-0.37095,0.00156382,0.00982339,1833,1492,27.4839,-20.8717
616,-468,27.457,20.2205,0.00196822,0.000294918,-0.000712933,0.00223077,3.23603e-05,-0.352865,0.00147651,0.0100187,1840,1492,27.4571,-20.2205
623,-468,27.4413,19.6132,0.00214429,0.00020105,-0.000572626,0.00230048,4.48641e-05,-0.266276,0.00151892,0.0113308,1847,1492,27.4413,-19.6132
630,-468,27.421,18.9783,0.00242055,0.000111565,-0.000370548,0.00247856,5.35562e-05,-0.155287,0.00163481,0.0124779,1854,1492,27.421,-18.9783
637,-468,27.3879,18.3047,0.00285236,9.89339e-05,-0.000212321,0.00286863,8.26578e-05,-0.0765087,0.00188547,0.0144898,1861,1492,27.3879,-18.3047
644,-468,27.4341,17.7924,0.00342419,0.000232142,-0.000110573,0.00342802,0.000228317,-0.0345848,0.00221317,0.0360595,1868,1492,27.4341,-17.7924
651,-468,27.6245,17.2861,0,0,0,0,0,0,0,-1,1875,1492,27.6246,-17.2861
658,-468,16.4969,10.0774,0,0,0,0,0,0,0,-1,1882,1492,16.497,-10.0774
665,-468,15.4673,8.59546,0,0,0,0,0,0,0,-1,1889,1492,15.4672,-8.59548
672,-468,9.96814,3.61133,0,0,0,0,0,0,0,-1,1896,1492,9.96817,-3.61139
679,-468,11.2191,1.91968,0,0,0,0,0,0,0,-1,1903,1492,11.2191,-1.91965
686,-468,11.9252,1.42285,0,0,0,0,0,0,0,-1,1910,1492,11.9252,-1.42291
693,-468,0,0,0,0,0,0,0,0,0,-1,1917,1492,0,0
700,-468,0,0,0,0,0,0,0,0,0,-1,1924,1492,0,0
707,-468,0,0,0,0,0,0,0,0,0,-1,1931,1492,0,0
714,-468,0,0,0,0,0,0,0,0,0,-1,1938,1492,0,0
721,-468,0,0,0,0,0,0,0,0,0,-1,1945,1492,0,0
728,-468,0,0,0,0,0,0,0,0,0,-1,1952,1492,0,0
735,-468,0,0,0,0,0,0,0,0,0,-1,1959,1492,0,0
742,-468,0,0,0,0,0,0,0,0,0,-1,1966,1492,0,0
749,-468,0,0,0,0,0,0,0,0,0,-1,1973,1492,0,0
756,-468,0,0,0,0,0,0,0,0,0,-1,1980,1492,0,0
763,-468,0,0,0,0,0,0,0,0,0,-1,1987,1492,0,0
770,-468,0,0,0,0,0,0,0,0,0,-1,1994,1492,0,0
777,-468,0,0,0,0,0,0,0,0,0,-1,2001,1492,0,0
784,-468,0,0,0,0,0,0,0,0,0,-1,2008,1492,0,0
791,-468,0,0,0,0,0,0,0,0,0,-1,2015,1492,0,0
798,-468,0,0,0,0,0,0,0,0,0,-1,2022,1492,0,0
805,-468,0,0,0,0,0,0,0,0,0,-1,2029,1492,0,0
812,-468,0,0,0,0,0,0,0,0,0,-1,2036,1492,0,0
-700,-475,0,0,0,0,0,0,0,0,0,-1,524,1499,0,0
-693,-475,0,0,0,0,0,0,0,0,0,-1,531,1499,0,0
-686,-475,0,0,0,0,0,0,0,0,0,-1,538,1499,0,0
-679,-475,0,0,0,0,0,0,0,0,0,-1,545,1499,0,0
-672,-475,0,0,0,0,0,0,0,0,0,-1,552,1499,0,0
-665,-475,0,0,0,0,0,0,0,0,0,-1,559,1499,0,0
-658,-475,0,0,0,0,0,0,0,0,0,-1,566,1499,0,0
-651,-475,0,0,0,0,0,0,0,0,0,-1,573,1499,0,0
-644,-475,0,0,0,0,0,0,0,0,0,-1,580,1499,0,0
-637,-475,0,0,0,0,0,0,0,0,0,-1,587,1499,0,0
-630,-475,0,0,0,0,0,0,0,0,0,-1,594,1499,0,0
-623,-475,0,0,0,0,0,0,0,0,0,-1,601,1499,0,0
-616,-475,0,0,0,0,0,0,0,0,0,-1,608,1499,0,0
-609,-475,0,0,0,0,0,0,0,0,0,-1,615,1499,0,0
-602,-475,0,0,0,0,0,0,0,0,0,-1,622,1499,0,0
-595,-475,0,0,0,0,0,0,0,0,0,-1,629,1499,0,0
-588,-475,0,0,0,0,0,0,0,0,0,-1,636,1499,0,0
-581,-475,0,0,0,0,0,0,0,0,0,-1,643,1499,0,0
-574,-475,0,0,0,0,0,0,0,0,0,-1,650,1499,0,0
-567,-475,0,0,0,0,0,0,0,0,0,-1,657,1499,0,0
-560,-475,-9.42731,9.29517,0,0,0,0,0,0,0,-1,664,1499,-9.42731,-9.29519
-553,-475,-8.15131,8.78369,0,0,0,0,0,0,0,-1,671,1499,-8.15131,-8.78367
-546,-475,-8.41254,8.20654,0,0,0,0,0,0,0,-1,678,1499,-8.41251,-8.20655
-539,-475,-4.7345,4.17419,0,0,0,0,0,0,0,-1,685,1499,-4.73449,-4.17418
-532,-475,-7.07379,4.25024,0,0,0,0,0,0,0,-1,692,1499,-7.07378,-4.2503
-525,-475,-6.13147,5.82166,0,0,0,0,0,0,0,-1,699,1499,-6.1315,-5.8216
-518,-475,-7.28784,9.31506,0,0,0,0,0,0,0,-1,706,1499,-7.28782,-9.315
-511,-475,-6.84851,12.4244,0,0,0,0,0,0,0,-1,713,1499,-6.84851,-12.4244
-504,-475,-8.80957,16.0863,0,0,0,0,0,0,0,-1,720,1499,-8.80954,-16.0862
-497,-475,-9.40259,17.5612,0,0,0,0,0,0,0,-1,727,1499,-9.4026,-17.5611
-490,-475,-9.2655,18.391,0.000381436,-0.000870876,0.00258662,0.00241661,-0.00290605,0.666645,0.00307737,0.0157302,734,1499,-9.2655,-18.391
-483,-475,-9.27496,19.1177,2.63101e-05,-0.00107697,0.00175493,0.00131425,-0.00236491,0.633119,0.00215285,0.00919776,741,1499,-9.27496,-19.1177
-476,-475,-9.30762,19.7968,-1.09535e-05,-0.000871288,0.0012548,0.000885368,-0.00176761,0.620268,0.00155967,0.0110399,748,1499,-9.30761,-19.7968
-469,-475,-9.32776,20.494,0.000241298,-0.000320831,0.00105811,0.00105503,-0.00113457,0.655581,0.00126444,0.0136511,755,1499,-9.32773,-20.494
-462,-475,-9.32056,21.1588,0.000740443,0.000493667,0.00109721,0.00172118,-0.000487069,0.729405,0.00133966,0.0188415,762,1499,-9.32055,-21.1588
-455,-475,-9.36554,21.8108,0.00143772,0.00152622,0.00136572,0.00284841,0.000115527,0.801593,0.00186162,0.0166828,769,1499,-9.36551,-21.8108
-448,-475,-9.43915,22.5049,0.00237488,0.00292798,0.00196198,0.0046328,0.000670059,0.855415,0.00289118,0.0142606,776,1499,-9.43912,-22.5049
-441,-475,-9.47894,23.1642,0.00351113,0.00449501,0.00278819,0.00683432,0.00117181,0.872718,0.0042202,0.01634,783,1499,-9.47894,-23.1641
-434,-475,-9.48138,23.819,0.00497251,0.00658909,0.00407876,0.00993888,0.00162273,0.883216,0.00615671,0.0118522,790,1499,-9.48141,-23.819
-427,-475,-9.4126,24.6105,0.00666418,0.0087707,0.00557718,0.0133932,0.00204168,0.878725,0.00833204,0.0349119,797,1499,-9.41259,-24.6105
-420,-475,-9.29608,25.3754,0,0,0,0,0,0,0,-1,804,1499,-9.2961,-25.3754
-413,-475,-6.46777,20.8481,0,0,0,0,0,0,0,-1,811,1499,-6.46776,-20.8481
-406,-475,-2.56116,12.4956,0,0,0,0,0,0,0,-1,818,1499,-2.56116,-12.4956
-399,-475,-1.39667,6.1615,0,0,0,0,0,0,0,-1,825,1499,-1.39664,-6.16155
-392,-475,0.217163,8.61389,0,0,0,0,0,0,0,-1,832,1499,0.217167,-8.6139
-385,-475,1.18372,2.73999,0,0,0,0,0,0,0,-1,839,1499,1.18372,-2.73995
-378,-475,1.31409,2.90149,0,0,0,0,0,0,0,-1,846,1499,1.31411,-2.90151
-371,-475,2.3476,3.31116,0,0,0,0,0,0,0,-1,853,1499,2.34761,-3.31121
-364,-475,1.04462,9.05823,0,0,0,0,0,0,0,-1,860,1499,1.04461,-9.05825
-357,-475,-0.262756,7.97205,0,0,0,0,0,0,0,-1,867,1499,-0.262784,-7.97205
-350,-475,-2.77173,4.35486,0,0,0,0,0,0,0,-1,874,1499,-2.77175,-4.35491
-343,-475,-5.70062,-1.34241,0,0,0,0,0,0,0,-1,881,1499,-5.70063,1.34239
-336,-475,0,0,0,0,0,0,0,0,0,-1,888,1499,0,0
-329,-475,0,0,0,0,0,0,0,0,0,-1,895,1499,0,0
-322,-475,0,0,0,0,0,0,0,0,0,-1,902,1499,0,0
-315,-475,0,0,0,0,0,0,0,0,0,-1,909,1499,0,0
-308,-475,0,0,0,0,0,0,0,0,0,-1,916,1499,0,0
-301,-475,0,0,0,0,0,0,0,0,0,-1,923,1499,0,0
-294,-475,0,0,0,0,0,0,0,0,0,-1,930,1499,0,0
-287,-475,0,0,0,0,0,0,0,0,0,-1,937,1499,0,0
-280,-475,0,0,0,0,0,0,0,0,0,-1,944,1499,0,0
-273,-475,0,0,0,0,0,0,0,0,0,-1,951,1499,0,0
-266,-475,0,0,0,0,0,0,0,0,0,-1,958,1499,0,0
-259,-475,0,0,0,0,0,0,0,0,0,-1,965,1499,0,0
-252,-475,0,0,0,0,0,0,0,0,0,-1,972,1499,0,0
-245,-475,0,0,0,0,0,0,0,0,0,-1,979,1499,0,0
-238,-475,0,0,0,0,0,0,0,0,0,-1,986,1499,0,0
-231,-475,0,0,0,0,0,0,0,0,0,-1,993,1499,0,0
-224,-475,0,0,0,0,0,0,0,0,0,-1,1000,1499,0,0
-217,-475,0,0,0,0,0,0,0,0,0,-1,1007,1499,0,0
-210,-475,0,0,0,0,0,0,0,0,0,-1,1014,1499,0,0
-203,-475,0,0,0,0,0,0,0,0,0,-1,1021,1499,0,0
-196,-475,0,0,0,0,0,0,0,0,0,-1,1028,1499,0,0
-189,-475,0,0,0,0,0,0,0,0,0,-1,1035,1499,0,0
-182,-475,0,0,0,0,0,0,0,0,0,-1,1042,1499,0,0
-175,-475,0,0,0,0,0,0,0,0,0,-1,1049,1499,0,0
-168,-475,0,0,0,0,0,0,0,0,0,-1,1056,1499,0,0
-161,-475,0,0,0,0,0,0,0,0,0,-1,1063,1499,0,0
-154,-475,0,0,0,0,0,0,0,0,0,-1,1070,1499,0,0
-147,-475,0,0,0,0,0,0,0,0,0,-1,1077,1499,0,0
-140,-475,0,0,0,0,0,0,0,0,0,-1,1084,1499,0,0
-133,-475,0,0,0,0,0,0,0,0,0,-1,1091,1499,0,0
-126,-475,0,0,0,0,0,0,0,0,0,-1,1098,1499,0,0
-119,-475,0,0,0,0,0,0,0,0,0,-1,1105,1499,0,0
-112,-475,0,0,0,0,0,0,0,0,0,-1,1112,1499,0,0
-105,-475,0,0,0,0,0,0,0,0,0,-1,1119,1499,0,0
-98,-475,0,0,0,0,0,0,0,0,0,-1,1126,1499,0,0
-91,-475,0,0,0,0,0,0,0,0,0,-1,1133,1499,0,0
-84,-475,0,0,0,0,0,0,0,0,0,-1,1140,1499,0,0
-77,-475,0,0,0,0,0,0,0,0,0,-1,1147,1499,0,0
-70,-475,0,0,0,0,0,0,0,0,0,-1,1154,1499,0,0
-63,-475,0,0,0,0,0,0,0,0,0,-1,1161,1499,0,0
-56,-475,0,0,0,0,0,0,0,0,0,-1,1168,1499,0,0
-49,-475,0,0,0,0,0,0,0,0,0,-1,1175,1499,0,0
-42,-475,0,0,0,0,0,0,0,0,0,-1,1182,1499,0,0
-35,-475,0,0,0,0,0,0,0,0,0,-1,1189,1499,0,0
-28,-475,0,0,0,0,0,0,0,0,0,-1,1196,1499,0,0
-21,-475,0,0,0,0,0,0,0,0,0,-1,1203,1499,0,0
-14,-475,0,0,0,0,0,0,0,0,0,-1,1210,1499,0,0
-7,-475,0,0,0,0,0,0,0,0,0,-1,1217,1499,0,0
0,-475,0,0,0,0,0,0,0,0,0,-1,1224,1499,0,0
7,-475,0,0,0,0,0,0,0,0,0,-1,1231,1499,0,0
14,-475,0,0,0,0,0,0,0,0,0,-1,1238,1499,0,0
21,-475,0,0,0,0,0,0,0,0,0,-1,1245,1499,0,0
28,-475,0,0,0,0,0,0,0,0,0,-1,1252,1499,0,0
35,-475,0,0,0,0,0,0,0,0,0,-1,1259,1499,0,0
42,-475,0,0,0,0,0,0,0,0,0,-1,1266,1499,0,0
49,-475,0,0,0,0,0,0,0,0,0,-1,1273,1499,0,0
56,-475,0,0,0,0,0,0,0,0,0,-1,1280,1499,0,0
63,-475,0,0,0,0,0,0,0,0,0,-1,1287,1499,0,0
70,-475,0,0,0,0,0,0,0,0,0,-1,1294,1499,0,0
77,-475,0,0,0,0,0,0,0,0,0,-1,1301,1499,0,0
84,-475,0,0,0,0,0,0,0,0,0,-1,1308,1499,0,0
91,-475,0,0,0,0,0,0,0,0,0,-1,1315,1499,0,0
98,-475,0,0,0,0,0,0,0,0,0,-1,1322,1499,0,0
105,-475,0,0,0,0,0,0,0,0,0,-1,1329,1499,0,0
112,-475,0,0,0,0,0,0,0,0,0,-1,1336,1499,0,0
119,-475,0,0,0,0,0,0,0,0,0,-1,1343,1499,0,0
126,-475,0,0,0,0,0,0,0,0,0,-1,1350,1499,0,0
133,-475,0,0,0,0,0,0,0,0,0,-1,1357,1499,0,0
140,-475,0,0,0,0,0,0,0,0,0,-1,1364,1499,0,0
147,-475,0,0,0,0,0,0,0,0,0,-1,1371,1499,0,0
154,-475,0,0,0,0,0,0,0,0,0,-1,1378,1499,0,0
161,-475,0,0,0,0,0,0,0,0,0,-1,1385,1499,0,0
168,-475,0,0,0,0,0,0,0,0,0,-1,1392,1499,0,0
175,-475,0,0,0,0,0,0,0,0,0,-1,1399,1499,0,0
182,-475,0,0,0,0,0,0,0,0,0,-1,1406,1499,0,0
189,-475,0,0,0,0,0,0,0,0,0,-1,1413,1499,0,0
196,-475,0,0,0,0,0,0,0,0,0,-1,1420,1499,0,0
203,-475,0,0,0,0,0,0,0,0,0,-1,1427,1499,0,0
210,-475,0,0,0,0,0,0,0,0,0,-1,1434,1499,0,0
217,-475,0,0,0,0,0,0,0,0,0,-1,1441,1499,0,0
224,-475,0,0,0,0,0,0,0,0,0,-1,1448,1499,0,0
231,-475,0,0,0,0,0,0,0,0,0,-1,1455,1499,0,0
238,-475,0,0,0,0,0,0,0,0,0,-1,1462,1499,0,0
245,-475,0,0,0,0,0,0,0,0,0,-1,1469,1499,0,0
252,-475,0,0,0,0,0,0,0,0,0,-1,1476,1499,0,0
259,-475,0,0,0,0,0,0,0,0,0,-1,1483,1499,0,0
266,-475,0,0,0,0,0,0,0,0,0,-1,1490,1499,0,0
273,-475,0,0,0,0,0,0,0,0,0,-1,1497,1499,0,0
280,-475,0,0,0,0,0,0,0,0,0,-1,1504,1499,0,0
287,-475,0,0,0,0,0,0,0,0,0,-1,1511,1499,0,0
294,-475,0,0,0,0,0,0,0,0,0,-1,1518,1499,0,0
301,-475,0,0,0,0,0,0,0,0,0,-1,1525,1499,0,0
308,-475,0,0,0,0,0,0,0,0,0,-1,1532,1499,0,0
315,-475,0,0,0,0,0,0,0,0,0,-1,1539,1499,0,0
322,-475,0,0,0,0,0,0,0,0,0,-1,1546,1499,0,0
329,-475,0,0,0,0,0,0,0,0,0,-1,1553,1499,0,0
336,-475,0,0,0,0,0,0,0,0,0,-1,1560,1499,0,0
343,-475,0,0,0,0,0,0,0,0,0,-1,1567,1499,0,0
350,-475,0,0,0,0,0,0,0,0,0,-1,1574,1499,0,0
357,-475,0,0,0,0,0,0,0,0,0,-1,1581,1499,0,0
364,-475,0,0,0,0,0,0,0,0,0,-1,1588,1499,0,0
371,-475,0,0,0,0,0,0,0,0,0,-1,1595,1499,0,0
378,-475,0,0,0,0,0,0,0,0,0,-1,1602,1499,0,0
385,-475,0,0,0,0,0,0,0,0,0,-1,1609,1499,0,0
392,-475,0,0,0,0,0,0,0,0,0,-1,1616,1499,0,0
399,-475,0,0,0,0,0,0,0,0,0,-1,1623,1499,0,0
406,-475,0,0,0,0,0,0,0,0,0,-1,1630,1499,0,0
413,-475,0,0,0,0,0,0,0,0,0,-1,1637,1499,0,0
420,-475,0,0,0,0,0,0,0,0,0,-1,1644,1499,0,0
427,-475,0,0,0,0,0,0,0,0,0,-1,1651,1499,0,0
434,-475,0,0,0,0,0,0,0,0,0,-1,1658,1499,0,0
441,-475,0,0,0,0,0,0,0,0,0,-1,1665,1499,0,0
448,-475,0,0,0,0,0,0,0,0,0,-1,1672,1499,0,0
455,-475,0,0,0,0,0,0,0,0,0,-1,1679,1499,0,0
462,-475,12.6372,0.275391,0,0,0,0,0,0,0,-1,1686,1499,12.6372,-0.27536
469,-475,15.6437,2.28296,0,0,0,0,0,0,0,-1,1693,1499,15.6437,-2.28293
476,-475,15.3302,2.71436,0,0,0,0,0,0,0,-1,1700,1499,15.3303,-2.7143
483,-475,10.7461,5.91479,0,0,0,0,0,0,0,-1,1707,1499,10.7461,-5.91476
490,-475,11.9305,4.4364,0,0,0,0,0,0,0,-1,1714,1499,11.9305,-4.43644
497,-475,15.3451,4.3479,0,0,0,0,0,0,0,-1,1721,1499,15.3451,-4.34789
504,-475,16.9646,7.71265,0,0,0,0,0,0,0,-1,1728,1499,16.9646,-7.71265
511,-475,18.941,12.7572,0,0,0,0,0,0,0,-1,1735,1499,18.941,-12.7572
518,-475,17.0021,13.8564,0,0,0,0,0,0,0,-1,1742,1499,17.0021,-13.8564
525,-475,17.5637,15.2103,0,0,0,0,0,0,0,-1,1749,1499,17.5637,-15.2103
532,-475,20.8623,20.8413,0,0,0,0,0,0,0,-1,1756,1499,20.8623,-20.8413
539,-475,20.5494,20.8519,0,0,0,0,0,0,0,-1,1763,1499,20.5494,-20.852
546,-475,20.4524,19.8799,0,0,0,0,0,0,0,-1,1770,1499,20.4524,-19.8798
553,-475,26.6698,26.2498,0,0,0,0,0,0,0,-1,1777,1499,26.6698,-26.2497
560,-475,26.8455,25.5087,0.0074831,0.0024709,-0.0023235,0.00839448,0.00155951,-0.373804,0.00515571,0.0317031,1784,1499,26.8454,-25.5087
567,-475,27.0494,24.7358,0.00579495,0.00156042,-0.00160826,0.00633651,0.00101887,-0.324806,0.003929,0.0162856,1791,1499,27.0494,-24.7358
574,-475,27.0021,24.1041,0.00459482,0.00108133,-0.00131425,0.00503202,0.000644132,-0.321148,0.00316192,0.0154474,1798,1499,27.0021,-24.1041
581,-475,26.9578,23.4888,0.00363357,0.000786562,-0.00113499,0.00403066,0.000389471,-0.336553,0.00256715,0.0120494,1805,1499,26.9578,-23.4887
588,-475,26.9286,22.8616,0.00293484,0.000606193,-0.00104418,0.00333447,0.00020656,-0.365525,0.00215743,0.0103646,1812,1499,26.9286,-22.8615
595,-475,26.9237,22.2075,0.00254432,0.000454231,-0.000986073,0.0029361,6.24538e-05,-0.378186,0.00193692,0.0113129,1819,1499,26.9237,-22.2075
602,-475,26.8928,21.5559,0.00226778,0.000380632,-0.000983018,0.0026868,-3.83868e-05,-0.402935,0.00180413,0.0126288,1826,1499,26.8929,-21.5559
609,-475,26.8289,20.9272,0.00215056,0.00040695,-0.000965484,0.0025796,-2.20917e-05,-0.418171,0.00172715,0.0118299,1833,1499,26.8288,-20.9273
616,-475,26.7935,20.2961,0.00222401,0.00042813,-0.000916768,0.00260933,4.28096e-05,-0.397886,0.00172546,0.0113593,1840,1499,26.7934,-20.2962
623,-475,26.8011,19.6158,0.00247769,0.000342042,-0.000773289,0.00272828,9.14487e-05,-0.313383,0.00178915,0.0122338,1847,1499,26.8011,-19.6159
630,-475,26.786,18.9609,0.00276394,0.000264571,-0.000517295,0.00286677,0.000161737,-0.196233,0.00185962,0.0144571,1854,1499,26.786,-18.9609
637,-475,26.7252,18.306,0.00317964,0.000216682,-0.000244819,0.00319973,0.00019659,-0.0818865,0.00207074,0.0250799,1861,1499,26.7253,-18.306
644,-475,26.6353,17.6661,0,0,0,0,0,0,0,-1,1868,1499,26.6352,-17.6662
651,-475,11.7965,7.57593,0,0,0,0,0,0,0,-1,1875,1499,11.7965,-7.5759
658,-475,14.6708,8.80322,0,0,0,0,0,0,0,-1,1882,1499,14.6708,-8.8032
665,-475,9.33435,5.43335,0,0,0,0,0,0,0,-1,1889,1499,9.33439,-5.43332
672,-475,9.38635,1.10474,0,0,0,0,0,0,0,-1,1896,1499,9.38629,-1.10475
679,-475,12.2594,1.31079,0,0,0,0,0,0,0,-1,1903,1499,12.2594,-1.31077
686,-475,0,0,0,0,0,0,0,0,0,-1,1910,1499,0,0
693,-475,0,0,0,0,0,0,0,0,0,-1,1917,1499,0,0
700,-475,0,0,0,0,0,0,0,0,0,-1,1924,1499,0,0
707,-475,0,0,0,0,0,0,0,0,0,-1,1931,1499,0,0
714,-475,0,0,0,0,0,0,0,0,0,-1,1938,1499,0,0
721,-475,0,0,0,0,0,0,0,0,0,-1,1945,1499,0,0
728,-475,0,0,0,0,0,0,0,0,0,-1,1952,1499,0,0
735,-475,0,0,0,0,0,0,0,0,0,-1,1959,1499,0,0
742,-475,0,0,0,0,0,0,0,0,0,-1,1966,1499,0,0
749,-475,0,0,0,0,0,0,0,0,0,-1,1973,1499,0,0
756,-475,0,0,0,0,0,0,0,0,0,-1,1980,1499,0,0
763,-475,0,0,0,0,0,0,0,0,0,-1,1987,1499,0,0
770,-475,0,0,0,0,0,0,0,0,0,-1,1994,1499,0,0
777,-475,0,0,0,0,0,0,0,0,0,-1,2001,1499,0,0
784,-475,0,0,0,0,0,0,0,0,0,-1,2008,1499,0,0
791,-475,0,0,0,0,0,0,0,0,0,-1,2015,1499,0,0
798,-475,0,0,0,0,0,0,0,0,0,-1,2022,1499,0,0
805,-475,0,0,0,0,0,0,0,0,0,-1,2029,1499,0,0
812,-475,0,0,0,0,0,0,0,0,0,-1,2036,1499,0,0
-700,-482,0,0,0,0,0,0,0,0,0,-1,524,1506,0,0
-693,-482,0,0,0,0,0,0,0,0,0,-1,531,1506,0,0
-686,-482,0,0,0,0,0,0,0,0,0,-1,538,1506,0,0
-679,-482,0,0,0,0,0,0,0,0,0,-1,545,1506,0,0
-672,-482,0,0,0,0,0,0,0,0,0,-1,552,1506,0,0
-665,-482,0,0,0,0,0,0,0,0,0,-1,559,1506,0,0
-658,-482,0,0,0,0,0,0,0,0,0,-1,566,1506,0,0
-651,-482,0,0,0,0,0,0,0,0,0,-1,573,1506,0,0
-644,-482,0,0,0,0,0,0,0,0,0,-1,580,1506,0,0
-637,-482,0,0,0,0,0,0,0,0,0,-1,587,1506,0,0
-630,-482,0,0,0,0,0,0,0,0,0,-1,594,1506,0,0
-623,-482,0,0,0,0,0,0,0,0,0,-1,601,1506,0,0
-616,-482,0,0,0,0,0,0,0,0,0,-1,608,1506,0,0
-609,-482,0,0,0,0,0,0,0,0,0,-1,615,1506,0,0
-602,-482,0,0,0,0,0,0,0,0,0,-1,622,1506,0,0
-595,-482,0,0,0,0,0,0,0,0,0,-1,629,1506,0,0
-588,-482,0,0,0,0,0,0,0,0,0,-1,636,1506,0,0
-581,-482,0,0,0,0,0,0,0,0,0,-1,643,1506,0,0
-574,-482,0,0,0,0,0,0,0,0,0,-1,650,1506,0,0
-567,-482,0,0,0,0,0,0,0,0,0,-1,657,1506,0,0
-560,-482,0,0,0,0,0,0,0,0,0,-1,664,1506,0,0
-553,-482,-9.06055,9.34314,0,0,0,0,0,0,0,-1,671,1506,-9.06056,-9.34312
-546,-482,-4.08624,8.34241,0,0,0,0,0,0,0,-1,678,1506,-4.08624,-8.3424
-539,-482,-4.29877,2.73499,0,0,0,0,0,0,0,-1,685,1506,-4.29879,-2.73494
-532,-482,-3.63611,4.23987,0,0,0,0,0,0,0,-1,692,1506,-3.63609,-4.23983
-525,-482,-6.19116,5.24927,0,0,0,0,0,0,0,-1,699,1506,-6.19117,-5.24927
-518,-482,-5.92957,6.39807,0,0,0,0,0,0,0,-1,706,1506,-5.92958,-6.39806
-511,-482,-7.74634,11.9137,0,0,0,0,0,0,0,-1,713,1506,-7.74633,-11.9137
-504,-482,-6.42358,13.4211,0,0,0,0,0,0,0,-1,720,1506,-6.42356,-13.4212
-497,-482,-8.70648,17.5579,0,0,0,0,0,0,0,-1,727,1506,-8.70648,-17.5578
-490,-482,-8.66339,18.3947,0.000488981,-0.00209352,0.00346417,0.00289472,-0.00449926,0.607002,0.0043023,0.0479795,734,1506,-8.66336,-18.3947
-483,-482,-8.61401,19.1332,0.000139042,-0.0021821,0.00248149,0.00171794,-0.003761,0.566664,0.00323575,0.0109454,741,1506,-8.61399,-19.1332
-476,-482,-8.63861,19.8253,4.19102e-05,-0.00187331,0.00180022,0.00112337,-0.00295478,0.540962,0.00243237,0.0103075,748,1506,-8.6386,-19.8253
-469,-482,-8.65912,20.5333,0.000199116,-0.0012456,0.00143316,0.00108167,-0.00212816,0.551964,0.00188574,0.0121619,755,1506,-8.65913,-20.5334
-462,-482,-8.68732,21.2007,0.00055309,-0.000382302,0.00127224,0.00144088,-0.00127009,0.609258,0.00156621,0.0135795,762,1506,-8.68732,-21.2007
-455,-482,-8.73083,21.8529,0.00106101,0.00065833,0.00131344,0.00218845,-0.00046911,0.709344,0.00163789,0.0138004,769,1506,-8.73084,-21.8529
-448,-482,-8.7608,22.533,0.00175706,0.00200292,0.00164243,0.00352701,0.000232973,0.822752,0.00227766,0.0136495,776,1506,-8.76078,-22.533
-441,-482,-8.76691,23.1936,0.00261151,0.00345125,0.00217882,0.00525029,0.000812472,0.880584,0.00326326,0.0128899,783,1506,-8.76693,-23.1936
-434,-482,-8.81305,23.8794,0.00371135,0.00536901,0.00313641,0.00778425,0.00129611,0.914575,0.00481596,0.0155875,790,1506,-8.81308,-23.8794
-427,-482,-8.83142,24.5652,0.0049685,0.00730453,0.00425301,0.010547,0.00172604,0.91941,0.00653244,0.0197893,797,1506,-8.83143,-24.5652
-420,-482,-8.87146,25.2709,0,0,0,0,0,0,0,-1,804,1506,-8.87145,-25.2708
-413,-482,-6.56415,22.3163,0,0,0,0,0,0,0,-1,811,1506,-6.56417,-22.3163
-406,-482,-2.51373,12.7556,0,0,0,0,0,0,0,-1,818,1506,-2.51376,-12.7556
-399,-482,-1.3822,9.22595,0,0,0,0,0,0,0,-1,825,1506,-1.38221,-9.22598
-392,-482,-1.06836,9.22729,0,0,0,0,0,0,0,-1,832,1506,-1.06835,-9.2273
-385,-482,0.0647583,8.90649,0,0,0,0,0,0,0,-1,839,1506,0.0647778,-8.90644
-378,-482,0.215698,5.96948,0,0,0,0,0,0,0,-1,846,1506,0.215681,-5.9695
-371,-482,-0.10907,8.10437,0,0,0,0,0,0,0,-1,853,1506,-0.109063,-8.10433
-364,-482,-0.154968,10.5032,0,0,0,0,0,0,0,-1,860,1506,-0.154976,-10.5032
-357,-482,2.14807,4.60144,0,0,0,0,0,0,0,-1,867,1506,2.14807,-4.60144
-350,-482,-7.5813,-1.45935,0,0,0,0,0,0,0,-1,874,1506,-7.58133,1.45937
-343,-482,-7.19983,-1.26416,0,0,0,0,0,0,0,-1,881,1506,-7.19981,1.26414
-336,-482,2.84302,-0.784912,0,0,0,0,0,0,0,-1,888,1506,2.84299,0.78492
-329,-482,0,0,0,0,0,0,0,0,0,-1,895,1506,0,0
-322,-482,0,0,0,0,0,0,0,0,0,-1,902,1506,0,0
-315,-482,0,0,0,0,0,0,0,0,0,-1,909,1506,0,0
-308,-482,0,0,0,0,0,0,0,0,0,-1,916,1506,0,0
-301,-482,0,0,0,0,0,0,0,0,0,-1,923,1506,0,0
-294,-482,0,0,0,0,0,0,0,0,0,-1,930,1506,0,0
-287,-482,0,0,0,0,0,0,0,0,0,-1,937,1506,0,0
-280,-482,0,0,0,0,0,0,0,0,0,-1,944,1506,0,0
-273,-482,0,0,0,0,0,0,0,0,0,-1,951,1506,0,0
-266,-482,0,0,0,0,0,0,0,0,0,-1,958,1506,0,0
-259,-482,0,0,0,0,0,0,0,0,0,-1,965,1506,0,0
-252,-482,0,0,0,0,0,0,0,0,0,-1,972,1506,0,0
-245,-482,0,0,0,0,0,0,0,0,0,-1,979,1506,0,0
-238,-482,0,0,0,0,0,0,0,0,0,-1,986,1506,0,0
-231,-482,0,0,0,0,0,0,0,0,0,-1,993,1506,0,0
-224,-482,0,0,0,0,0,0,0,0,0,-1,1000,1506,0,0
-217,-482,0,0,0,0,0,0,0,0,0,-1,1007,1506,0,0
-210,-482,0,0,0,0,0,0,0,0,0,-1,1014,1506,0,0
-203,-482,0,0,0,0,0,0,0,0,0,-1,1021,1506,0,0
-196,-482,0,0,0,0,0,0,0,0,0,-1,1028,1506,0,0
-189,-482,0,0,0,0,0,0,0,0,0,-1,1035,1506,0,0
-182,-482,0,0,0,0,0,0,0,0,0,-1,1042,1506,0,0
-175,-482,0,0,0,0,0,0,0,0,0,-1,1049,1506,0,0
-168,-482,0,0,0,0,0,0,0,0,0,-1,1056,1506,0,0
-161,-482,0,0,0,0,0,0,0,0,0,-1,1063,1506,0,0
-154,-482,0,0,0,0,0,0,0,0,0,-1,1070,1506,0,0
-147,-482,0,0,0,0,0,0,0,0,0,-1,1077,1506,0,0
-140,-482,0,0,0,0,0,0,0,0,0,-1,1084,1506,0,0
-133,-482,0,0,0,0,0,0,0,0,0,-1,1091,1506,0,0
-126,-482,0,0,0,0,0,0,0,0,0,-1,1098,1506,0,0
-119,-482,0,0,0,0,0,0,0,0,0,-1,1105,1506,0,0
-112,-482,0,0,0,0,0,0,0,0,0,-1,1112,1506,0,0
-105,-482,0,0,0,0,0,0,0,0,0,-1,1119,1506,0,0
-98,-482,0,0,0,0,0,0,0,0,0,-1,1126,1506,0,0
-91,-482,0,0,0,0,0,0,0,0,0,-1,1133,1506,0,0
-84,-482,0,0,0,0,0,0,0,0,0,-1,1140,1506,0,0
-77,-482,0,0,0,0,0,0,0,0,0,-1,1147,1506,0,0
-70,-482,0,0,0,0,0,0,0,0,0,-1,1154,1506,0,0
-63,-482,0,0,0,0,0,0,0,0,0,-1,1161,1506,0,0
-56,-482,0,0,0,0,0,0,0,0,0,-1,1168,1506,0,0
-49,-482,0,0,0,0,0,0,0,0,0,-1,1175,1506,0,0
-42,-482,0,0,0,0,0,0,0,0,0,-1,1182,1506,0,0
-35,-482,0,0,0,0,0,0,0,0,0,-1,1189,1506,0,0
-28,-482,0,0,0,0,0,0,0,0,0,-1,1196,1506,0,0
-21,-482,0,0,0,0,0,0,0,0,0,-1,1203,1506,0,0
-14,-482,0,0,0,0,0,0,0,0,0,-1,1210,1506,0,0
-7,-482,0,0,0,0,0,0,0,0,0,-1,1217,1506,0,0
0,-482,0,0,0,0,0,0,0,0,0,-1,1224,1506,0,0
7,-482,0,0,0,0,0,0,0,0,0,-1,1231,1506,0,0
14,-482,0,0,0,0,0,0,0,0,0,-1,1238,1506,0,0
21,-482,0,0,0,0,0,0,0,0,0,-1,1245,1506,0,0
28,-482,0,0,0,0,0,0,0,0,0,-1,1252,1506,0,0
35,-482,0,0,0,0,0,0,0,0,0,-1,1259,1506,0,0
42,-482,0,0,0,0,0,0,0,0,0,-1,1266,1506,0,0
49,-482,0,0,0,0,0,0,0,0,0,-1,1273,1506,0,0
56,-482,0,0,0,0,0,0,0,0,0,-1,1280,1506,0,0
63,-482,0,0,0,0,0,0,0,0,0,-1,1287,1506,0,0
70,-482,0,0,0,0,0,0,0,0,0,-1,1294,1506,0,0
77,-482,0,0,0,0,0,0,0,0,0,-1,1301,1506,0,0
84,-482,0,0,0,0,0,0,0,0,0,-1,1308,1506,0,0
91,-482,0,0,0,0,0,0,0,0,0,-1,1315,1506,0,0
98,-482,0,0,0,0,0,0,0,0,0,-1,1322,1506,0,0
105,-482,0,0,0,0,0,0,0,0,0,-1,1329,1506,0,0
112,-482,0,0,0,0,0,0,0,0,0,-1,1336,1506,0,0
119,-482,0,0,0,0,0,0,0,0,0,-1,1343,1506,0,0
126,-482,0,0,0,0,0,0,0,0,0,-1,1350,1506,0,0
133,-482,0,0,0,0,0,0,0,0,0,-1,1357,1506,0,0
140,-482,0,0,0,0,0,0,0,0,0,-1,1364,1506,0,0
147,-482,0,0,0,0,0,0,0,0,0,-1,1371,1506,0,0
154,-482,0,0,0,0,0,0,0,0,0,-1,1378,1506,0,0
161,-482,0,0,0,0,0,0,0,0,0,-1,1385,1506,0,0
168,-482,0,0,0,0,0,0,0,0,0,-1,1392,1506,0,0
175,-482,0,0,0,0,0,0,0,0,0,-1,1399,1506,0,0
182,-482,0,0,0,0,0,0,0,0,0,-1,1406,1506,0,0
189,-482,0,0,0,0,0,0,0,0,0,-1,1413,1506,0,0
196,-482,0,0,0,0,0,0,0,0,0,-1,1420,1506,0,0
203,-482,0,0,0,0,0,0,0,0,0,-1,1427,1506,0,0
210,-482,0,0,0,0,0,0,0,0,0,-1,1434,1506,0,0
217,-482,0,0,0,0,0,0,0,0,0,-1,1441,1506,0,0
224,-482,0,0,0,0,0,0,0,0,0,-1,1448,1506,0,0
231,-482,0,0,0,0,0,0,0,0,0,-1,1455,1506,0,0
238,-482,0,0,0,0,0,0,0,0,0,-1,1462,1506,0,0
245,-482,0,0,0,0,0,0,0,0,0,-1,1469,1506,0,0
252,-482,0,0,0,0,0,0,0,0,0,-1,1476,1506,0,0
259,-482,0,0,0,0,0,0,0,0,0,-1,1483,1506,0,0
266,-482,0,0,0,0,0,0,0,0,0,-1,1490,1506,0,0
273,-482,0,0,0,0,0,0,0,0,0,-1,1497,1506,0,0
280,-482,0,0,0,0,0,0,0,0,0,-1,1504,1506,0,0
287,-482,0,0,0,0,0,0,0,0,0,-1,1511,1506,0,0
294,-482,0,0,0,0,0,0,0,0,0,-1,1518,1506,0,0
301,-482,0,0,0,0,0,0,0,0,0,-1,1525,1506,0,0
308,-482,0,0,0,0,0,0,0,0,0,-1,1532,1506,0,0
315,-482,0,0,0,0,0,0,0,0,0,-1,1539,1506,0,0
322,-482,0,0,0,0,0,0,0,0,0,-1,1546,1506,0,0
329,-482,0,0,0,0,0,0,0,0,0,-1,1553,1506,0,0
336,-482,0,0,0,0,0,0,0,0,0,-1,1560,1506,0,0
343,-482,0,0,0,0,0,0,0,0,0,-1,1567,1506,0,0
350,-482,0,0,0,0,0,0,0,0,0,-1,1574,1506,0,0
357,-482,0,0,0,0,0,0,0,0,0,-1,1581,1506,0,0
364,-482,0,0,0,0,0,0,0,0,0,-1,1588,1506,0,0
371,-482,0,0,0,0,0,0,0,0,0,-1,1595,1506,0,0
378,-482,0,0,0,0,0,0,0,0,0,-1,1602,1506,0,0
385,-482,0,0,0,0,0,0,0,0,0,-1,1609,1506,0,0
392,-482,0,0,0,0,0,0,0,0,0,-1,1616,1506,0,0
399,-482,0,0,0,0,0,0,0,0,0,-1,1623,1506,0,0
406,-482,0,0,0,0,0,0,0,0,0,-1,1630,1506,0,0
413,-482,0,0,0,0,0,0,0,0,0,-1,1637,1506,0,0
420,-482,0,0,0,0,0,0,0,0,0,-1,1644,1506,0,0
427,-482,0,0,0,0,0,0,0,0,0,-1,1651,1506,0,0
434,-482,0,0,0,0,0,0,0,0,0,-1,1658,1506,0,0
441,-482,0,0,0,0,0,0,0,0,0,-1,1665,1506,0,0
448,-482,4.24146,1.55383,0,0,0,0,0,0,0,-1,1672,1506,4.24149,-1.55381
455,-482,12.4122,1.09729,0,0,0,0,0,0,0,-1,1679,1506,12.4122,-1.09734
462,-482,15.0673,3.13135,0,0,0,0,0,0,0,-1,1686,1506,15.0672,-3.13134
469,-482,15.3793,3.46301,0,0,0,0,0,0,0,-1,1693,1506,15.3793,-3.46307
476,-482,8.69751,9.18738,0,0,0,0,0,0,0,-1,1700,1506,8.69753,-9.18739
483,-482,10.0902,7.17432,0,0,0,0,0,0,0,-1,1707,1506,10.0902,-7.1743
490,-482,11.6289,5.4928,0,0,0,0,0,0,0,-1,1714,1506,11.6289,-5.49283
497,-482,15.9539,7.40222,0,0,0,0,0,0,0,-1,1721,1506,15.9538,-7.40219
504,-482,20.4233,12.006,0,0,0,0,0,0,0,-1,1728,1506,20.4233,-12.006
511,-482,18.4937,12.9175,0,0,0,0,0,0,0,-1,1735,1506,18.4936,-12.9174
518,-482,16.6002,13.9679,0,0,0,0,0,0,0,-1,1742,1506,16.6003,-13.9679
525,-482,18.495,15.9618,0,0,0,0,0,0,0,-1,1749,1506,18.495,-15.9618
532,-482,19.9375,21.0775,0,0,0,0,0,0,0,-1,1756,1506,19.9375,-21.0775
539,-482,20.2291,20.5577,0,0,0,0,0,0,0,-1,1763,1506,20.2291,-20.5578
546,-482,26.3063,27.0419,0,0,0,0,0,0,0,-1,1770,1506,26.3062,-27.0419
553,-482,26.2864,26.1384,0,0,0,0,0,0,0,-1,1777,1506,26.2864,-26.1384
560,-482,26.3047,25.4362,0.00635915,0.00257274,-0.00231854,0.00745924,0.00147264,-0.443022,0.00456188,0.0168249,1784,1506,26.3047,-25.4362
567,-482,26.3972,24.7722,0.00499577,0.00165586,-0.00164342,0.00566881,0.000982828,-0.388695,0.00349793,0.0160748,1791,1506,26.3972,-24.7722
574,-482,26.3668,24.1512,0.00404102,0.00114255,-0.00134056,0.00456597,0.000617613,-0.373231,0.00286042,0.0148017,1798,1506,26.3668,-24.1512
581,-482,26.3224,23.5286,0.00327091,0.000807289,-0.00116151,0.00373216,0.000346037,-0.378016,0.00238116,0.0100678,1805,1506,26.3224,-23.5285
588,-482,26.2876,22.8804,0.00275504,0.000638111,-0.00110793,0.00322885,0.000164306,-0.404113,0.00209994,0.0109575,1812,1506,26.2877,-22.8804
595,-482,26.2726,22.217,0.0025475,0.000515678,-0.00110783,0.00303471,2.84684e-05,-0.414327,0.00201372,0.0160737,1819,1506,26.2726,-22.217
602,-482,26.2629,21.5856,0.0024246,0.000516456,-0.00119277,0.00299793,-5.68727e-05,-0.448064,0.00201784,0.0199801,1826,1506,26.263,-21.5855
609,-482,26.2191,20.9659,0.0024352,0.000612815,-0.00126717,0.00308477,-3.67585e-05,-0.473691,0.00206888,0.0158272,1833,1506,26.2191,-20.9659
616,-482,26.1656,20.3213,0.0027003,0.00065946,-0.00127354,0.0033118,4.79603e-05,-0.447648,0.00219205,0.011882,1840,1506,26.1656,-20.3213
623,-482,26.1411,19.6506,0.00309742,0.000605742,-0.00116576,0.00355778,0.000145386,-0.376101,0.00232491,0.0183909,1847,1506,26.1411,-19.6506
630,-482,26.1066,19.0482,0.00340373,0.00056086,-0.000885911,0.0036572,0.000307387,-0.278671,0.0023424,0.0401078,1854,1506,26.1066,-19.0483
637,-482,26.1169,18.4774,0,0,0,0,0,0,0,-1,1861,1506,26.117,-18.4775
644,-482,17.5909,11.6163,0,0,0,0,0,0,0,-1,1868,1506,17.5909,-11.6163
651,-482,4.03845,7.05273,0,0,0,0,0,0,0,-1,1875,1506,4.03843,-7.05279
658,-482,10.0278,5.87903,0,0,0,0,0,0,0,-1,1882,1506,10.0279,-5.87902
665,-482,8.15198,3.22229,0,0,0,0,0,0,0,-1,1889,1506,8.15199,-3.22232
672,-482,9.87415,1.3147,0,0,0,0,0,0,0,-1,1896,1506,9.87416,-1.31473
679,-482,0,0,0,0,0,0,0,0,0,-1,1903,1506,0,0
686,-482,0,0,0,0,0,0,0,0,0,-1,1910,1506,0,0
693,-482,0,0,0,0,0,0,0,0,0,-1,1917,1506,0,0
700,-482,0,0,0,0,0,0,0,0,0,-1,1924,1506,0,0
707,-482,0,0,0,0,0,0,0,0,0,-1,1931,1506,0,0
714,-482,0,0,0,0,0,0,0,0,0,-1,1938,1506,0,0
721,-482,0,0,0,0,0,0,0,0,0,-1,1945,1506,0,0
728,-482,0,0,0,0,0,0,0,0,0,-1,1952,1506,0,0
735,-482,0,0,0,0,0,0,0,0,0,-1,1959,1506,0,0
742,-482,0,0,0,0,0,0,0,0,0,-1,1966,1506,0,0
749,-482,0,0,0,0,0,0,0,0,0,-1,1973,1506,0,0
756,-482,0,0,0,0,0,0,0,0,0,-1,1980,1506,0,0
763,-482,0,0,0,0,0,0,0,0,0,-1,1987,1506,0,0
770,-482,0,0,0,0,0,0,0,0,0,-1,1994,1506,0,0
777,-482,0,0,0,0,0,0,0,0,0,-1,2001,1506,0,0
784,-482,0,0,0,0,0,0,0,0,0,-1,2008,1506,0,0
791,-482,0,0,0,0,0,0,0,0,0,-1,2015,1506,0,0
798,-482,0,0,0,0,0,0,0,0,0,-1,2022,1506,0,0
805,-482,0,0,0,0,0,0,0,0,0,-1,2029,1506,0,0
812,-482,0,0,0,0,0,0,0,0,0,-1,2036,1506,0,0
-700,-489,0,0,0,0,0,0,0,0,0,-1,524,1513,0,0
-693,-489,0,0,0,0,0,0,0,0,0,-1,531,1513,0,0
-686,-489,0,0,0,0,0,0,0,0,0,-1,538,1513,0,0
-679,-489,0,0,0,0,0,0,0,0,0,-1,545,1513,0,0
-672,-489,0,0,0,0,0,0,0,0,0,-1,552,1513,0,0
-665,-489,0,0,0,0,0,0,0,0,0,-1,559,1513,0,0
-658,-489,0,0,0,0,0,0,0,0,0,-1,566,1513,0,0
-651,-489,0,0,0,0,0,0,0,0,0,-1,573,1513,0,0
-644,-489,0,0,0,0,0,0,0,0,0,-1,580,1513,0,0
-637,-489,0,0,0,0,0,0,0,0,0,-1,587,1513,0,0
-630,-489,0,0,0,0,0,0,0,0,0,-1,594,1513,0,0
-623,-489,0,0,0,0,0,0,0,0,0,-1,601,1513,0,0
-616,-489,0,0,0,0,0,0,0,0,0,-1,608,1513,0,0
-609,-489,0,0,0,0,0,0,0,0,0,-1,615,1513,0,0
-602,-489,0,0,0,0,0,0,0,0,0,-1,622,1513,0,0
-595,-489,0,0,0,0,0,0,0,0,0,-1,629,1513,0,0
-588,-489,0,0,0,0,0,0,0,0,0,-1,636,1513,0,0
-581,-489,0,0,0,0,0,0,0,0,0,-1,643,1513,0,0
-574,-489,0,0,0,0,0,0,0,0,0,-1,650,1513,0,0
-567,-489,0,0,0,0,0,0,0,0,0,-1,657,1513,0,0
-560,-489,0,0,0,0,0,0,0,0,0,-1,664,1513,0,0
-553,-489,-9.42206,8.5116,0,0,0,0,0,0,0,-1,671,1513,-9.42205,-8.51158
-546,-489,-7.80951,8.18506,0,0,0,0,0,0,0,-1,678,1513,-7.8095,-8.18503
-539,-489,-3.06879,2.82349,0,0,0,0,0,0,0,-1,685,1513,-3.06881,-2.82354
-532,-489,-3.14215,2.5835,0,0,0,0,0,0,0,-1,692,1513,-3.14213,-2.58353
-525,-489,-2.604,4.06274,0,0,0,0,0,0,0,-1,699,1513,-2.60399,-4.06274
-518,-489,-5.43774,7.48059,0,0,0,0,0,0,0,-1,706,1513,-5.43777,-7.48058
-511,-489,-7.52856,10.951,0,0,0,0,0,0,0,-1,713,1513,-7.52857,-10.951
-504,-489,-7.17352,12.8508,0,0,0,0,0,0,0,-1,720,1513,-7.17352,-12.8508
-497,-489,-5.51678,14.9254,0,0,0,0,0,0,0,-1,727,1513,-5.51681,-14.9254
-490,-489,-8.06604,18.3318,0,0,0,0,0,0,0,-1,734,1513,-8.06604,-18.3318
-483,-489,-7.99487,19.069,0.0014117,-0.00346918,0.00407946,0.00372497,-0.00578245,0.515841,0.00553179,0.0266976,741,1513,-7.99489,-19.069
-476,-489,-7.98975,19.8385,0.00123633,-0.00301878,0.00313665,0.0028989,-0.00468136,0.487396,0.00441661,0.0103602,748,1513,-7.98977,-19.8385
-469,-489,-8.0011,20.5353,0.00120443,-0.00230667,0.0024974,0.00250158,-0.00360382,0.479046,0.00354405,0.0106204,755,1513,-8.00111,-20.5352
-462,-489,-8.02185,21.2252,0.00127089,-0.00137621,0.00202516,0.00236664,-0.00247197,0.495964,0.00279379,0.016815,762,1513,-8.02188,-21.2252
-455,-489,-8.07446,21.9022,0.00140908,-0.000318395,0.00171976,0.00246981,-0.00137913,0.552678,0.00225173,0.0211948,769,1513,-8.07447,-21.9022
-448,-489,-8.11908,22.5482,0.00165712,0.000975169,0.00166816,0.0030188,-0.000386506,0.684585,0.00215296,0.0183756,776,1513,-8.11907,-22.5482
-441,-489,-8.10089,23.2258,0.00200931,0.00232971,0.00181362,0.00399018,0.00034883,0.829449,0.00255181,0.0153119,783,1513,-8.10092,-23.2259
-434,-489,-8.15704,23.9091,0.00255794,0.00410813,0.00236898,0.00582559,0.000840481,0.943502,0.00363609,0.0174615,790,1513,-8.15705,-23.9091
-427,-489,-8.21387,24.5692,0.00324451,0.00586509,0.00308512,0.00790664,0.00120296,0.986212,0.00491938,0.0193887,797,1513,-8.2139,-24.5693
-420,-489,-8.24213,25.3606,0.00388294,0.00782874,0.00429322,0.0105807,0.00113101,1.00078,0.00670864,0.0264053,804,1513,-8.24216,-25.3606
-413,-489,-8.16467,26.2522,0,0,0,0,0,0,0,-1,811,1513,-8.16466,-26.2521
-406,-489,-3.10559,15.8143,0,0,0,0,0,0,0,-1,818,1513,-3.10556,-15.8143
-399,-489,-1.41241,9.10718,0,0,0,0,0,0,0,-1,825,1513,-1.41244,-9.10722
-392,-489,-1.0368,9.30469,0,0,0,0,0,0,0,-1,832,1513,-1.03682,-9.30466
-385,-489,-1.75165,10.6559,0,0,0,0,0,0,0,-1,839,1513,-1.75165,-10.6559
-378,-489,-0.401428,9.87048,0,0,0,0,0,0,0,-1,846,1513,-0.401415,-9.87047
-371,-489,-1.11633,10.6606,0,0,0,0,0,0,0,-1,853,1513,-1.11633,-10.6606
-364,-489,-0.503113,8.98486,0,0,0,0,0,0,0,-1,860,1513,-0.503097,-8.98482
-357,-489,-0.609924,10.9606,0,0,0,0,0,0,0,-1,867,1513,-0.609947,-10.9605
-350,-489,-7.94659,-0.358887,0,0,0,0,0,0,0,-1,874,1513,-7.94657,0.358912
-343,-489,-7.49323,-0.437866,0,0,0,0,0,0,0,-1,881,1513,-7.49322,0.437823
-336,-489,-7.02332,-0.53125,0,0,0,0,0,0,0,-1,888,1513,-7.0233,0.531295
-329,-489,-13.2786,4.96082,0,0,0,0,0,0,0,-1,895,1513,-13.2785,-4.96077
-322,-489,0,0,0,0,0,0,0,0,0,-1,902,1513,0,0
-315,-489,0,0,0,0,0,0,0,0,0,-1,909,1513,0,0
-308,-489,0,0,0,0,0,0,0,0,0,-1,916,1513,0,0
-301,-489,0,0,0,0,0,0,0,0,0,-1,923,1513,0,0
-294,-489,0,0,0,0,0,0,0,0,0,-1,930,1513,0,0
-287,-489,0,0,0,0,0,0,0,0,0,-1,937,1513,0,0
-280,-489,0,0,0,0,0,0,0,0,0,-1,944,1513,0,0
-273,-489,0,0,0,0,0,0,0,0,0,-1,951,1513,0,0
-266,-489,0,0,0,0,0,0,0,0,0,-1,958,1513,0,0
-259,-489,0,0,0,0,0,0,0,0,0,-1,965,1513,0,0
-252,-489,0,0,0,0,0,0,0,0,0,-1,972,1513,0,0
-245,-489,0,0,0,0,0,0,0,0,0,-1,979,1513,0,0
-238,-489,0,0,0,0,0,0,0,0,0,-1,986,1513,0,0
-231,-489,0,0,0,0,0,0,0,0,0,-1,993,1513,0,0
-224,-489,0,0,0,0,0,0,0,0,0,-1,1000,1513,0,0
-217,-489,0,0,0,0,0,0,0,0,0,-1,1007,1513,0,0
-210,-489,0,0,0,0,0,0,0,0,0,-1,1014,1513,0,0
-203,-489,0,0,0,0,0,0,0,0,0,-1,1021,1513,0,0
-196,-489,0,0,0,0,0,0,0,0,0,-1,1028,1513,0,0
-189,-489,0,0,0,0,0,0,0,0,0,-1,1035,1513,0,0
-182,-489,0,0,0,0,0,0,0,0,0,-1,1042,1513,0,0
-175,-489,0,0,0,0,0,0,0,0,0,-1,1049,1513,0,0
-168,-489,0,0,0,0,0,0,0,0,0,-1,1056,1513,0,0
-161,-489,0,0,0,0,0,0,0,0,0,-1,1063,1513,0,0
-154,-489,0,0,0,0,0,0,0,0,0,-1,1070,1513,0,0
-147,-489,0,0,0,0,0,0,0,0,0,-1,1077,1513,0,0
-140,-489,0,0,0,0,0,0,0,0,0,-1,1084,1513,0,0
-133,-489,0,0,0,0,0,0,0,0,0,-1,1091,1513,0,0
-126,-489,0,0,0,0,0,0,0,0,0,-1,1098,1513,0,0
-119,-489,0,0,0,0,0,0,0,0,0,-1,1105,1513,0,0
-112,-489,0,0,0,0,0,0,0,0,0,-1,1112,1513,0,0
-105,-489,0,0,0,0,0,0,0,0,0,-1,1119,1513,0,0
-98,-489,0,0,0,0,0,0,0,0,0,-1,1126,1513,0,0
-91,-489,0,0,0,0,0,0,0,0,0,-1,1133,1513,0,0
-84,-489,0,0,0,0,0,0,0,0,0,-1,1140,1513,0,0
-77,-489,0,0,0,0,0,0,0,0,0,-1,1147,1513,0,0
-70,-489,0,0,0,0,0,0,0,0,0,-1,1154,1513,0,0
-63,-489,0,0,0,0,0,0,0,0,0,-1,1161,1513,0,0
-56,-489,0,0,0,0,0,0,0,0,0,-1,1168,1513,0,0
-49,-489,0,0,0,0,0,0,0,0,0,-1,1175,1513,0,0
-42,-489,0,0,0,0,0,0,0,0,0,-1,1182,1513,0,0
-35,-489,0,0,0,0,0,0,0,0,0,-1,1189,1513,0,0
-28,-489,0,0,0,0,0,0,0,0,0,-1,1196,1513,0,0
-21,-489,0,0,0,0,0,0,0,0,0,-1,1203,1513,0,0
-14,-489,0,0,0,0,0,0,0,0,0,-1,1210,1513,0,0
-7,-489,0,0,0,0,0,0,0,0,0,-1,1217,1513,0,0
0,-489,0,0,0,0,0,0,0,0,0,-1,1224,1513,0,0
7,-489,0,0,0,0,0,0,0,0,0,-1,1231,1513,0,0
14,-489,0,0,0,0,0,0,0,0,0,-1,1238,1513,0,0
21,-489,0,0,0,0,0,0,0,0,0,-1,1245,1513,0,0
28,-489,0,0,0,0,0,0,0,0,0,-1,1252,1513,0,0
35,-489,0,0,0,0,0,0,0,0,0,-1,1259,1513,0,0
42,-489,0,0,0,0,0,0,0,0,0,-1,1266,1513,0,0
49,-489,0,0,0,0,0,0,0,0,0,-1,1273,1513,0,0
56,-489,0,0,0,0,0,0,0,0,0,-1,1280,1513,0,0
63,-489,0,0,0,0,0,0,0,0,0,-1,1287,1513,0,0
70,-489,0,0,0,0,0,0,0,0,0,-1,1294,1513,0,0
77,-489,0,0,0,0,0,0,0,0,0,-1,1301,1513,0,0
84,-489,0,0,0,0,0,0,0,0,0,-1,1308,1513,0,0
91,-489,0,0,0,0,0,0,0,0,0,-1,1315,1513,0,0
98,-489,0,0,0,0,0,0,0,0,0,-1,1322,1513,0,0
105,-489,0,0,0,0,0,0,0,0,0,-1,1329,1513,0,0
112,-489,0,0,0,0,0,0,0,0,0,-1,1336,1513,0,0
119,-489,0,0,0,0,0,0,0,0,0,-1,1343,1513,0,0
126,-489,0,0,0,0,0,0,0,0,0,-1,1350,1513,0,0
133,-489,0,0,0,0,0,0,0,0,0,-1,1357,1513,0,0
140,-489,0,0,0,0,0,0,0,0,0,-1,1364,1513,0,0
147,-489,0,0,0,0,0,0,0,0,0,-1,1371,1513,0,0
154,-489,0,0,0,0,0,0,0,0,0,-1,1378,1513,0,0
161,-489,0,0,0,0,0,0,0,0,0,-1,1385,1513,0,0
168,-489,0,0,0,0,0,0,0,0,0,-1,1392,1513,0,0
175,-489,0,0,0,0,0,0,0,0,0,-1,1399,1513,0,0
182,-489,0,0,0,0,0,0,0,0,0,-1,1406,1513,0,0
189,-489,0,0,0,0,0,0,0,0,0,-1,1413,1513,0,0
196,-489,0,0,0,0,0,0,0,0,0,-1,1420,1513,0,0
203,-489,0,0,0,0,0,0,0,0,0,-1,1427,1513,0,0
210,-489,0,0,0,0,0,0,0,0,0,-1,1434,1513,0,0
217,-489,0,0,0,0,0,0,0,0,0,-1,1441,1513,0,0
224,-489,0,0,0,0,0,0,0,0,0,-1,1448,1513,0,0
231,-489,0,0,0,0,0,0,0,0,0,-1,1455,1513,0,0
238,-489,0,0,0,0,0,0,0,0,0,-1,1462,1513,0,0
245,-489,0,0,0,0,0,0,0,0,0,-1,1469,1513,0,0
252,-489,0,0,0,0,0,0,0,0,0,-1,1476,1513,0,0
259,-489,0,0,0,0,0,0,0,0,0,-1,1483,1513,0,0
266,-489,0,0,0,0,0,0,0,0,0,-1,1490,1513,0,0
273,-489,0,0,0,0,0,0,0,0,0,-1,1497,1513,0,0
280,-489,0,0,0,0,0,0,0,0,0,-1,1504,1513,0,0
287,-489,0,0,0,0,0,0,0,0,0,-1,1511,1513,0,0
294,-489,0,0,0,0,0,0,0,0,0,-1,1518,1513,0,0
301,-489,0,0,0,0,0,0,0,0,0,-1,1525,1513,0,0
308,-489,0,0,0,0,0,0,0,0,0,-1,1532,1513,0,0
315,-489,0,0,0,0,0,0,0,0,0,-1,1539,1513,0,0
322,-489,0,0,0,0,0,0,0,0,0,-1,1546,1513,0,0
329,-489,0,0,0,0,0,0,0,0,0,-1,1553,1513,0,0
336,-489,0,0,0,0,0,0,0,0,0,-1,1560,1513,0,0
343,-489,0,0,0,0,0,0,0,0,0,-1,1567,1513,0,0
350,-489,0,0,0,0,0,0,0,0,0,-1,1574,1513,0,0
357,-489,0,0,0,0,0,0,0,0,0,-1,1581,1513,0,0
364,-489,0,0,0,0,0,0,0,0,0,-1,1588,1513,0,0
371,-489,0,0,0,0,0,0,0,0,0,-1,1595,1513,0,0
378,-489,0,0,0,0,0,0,0,0,0,-1,1602,1513,0,0
385,-489,0,0,0,0,0,0,0,0,0,-1,1609,1513,0,0
392,-489,0,0,0,0,0,0,0,0,0,-1,1616,1513,0,0
399,-489,0,0,0,0,0,0,0,0,0,-1,1623,1513,0,0
406,-489,0,0,0,0,0,0,0,0,0,-1,1630,1513,0,0
413,-489,0,0,0,0,0,0,0,0,0,-1,1637,1513,0,0
420,-489,0,0,0,0,0,0,0,0,0,-1,1644,1513,0,0
427,-489,0,0,0,0,0,0,0,0,0,-1,1651,1513,0,0
434,-489,0,0,0,0,0,0,0,0,0,-1,1658,1513,0,0
441,-489,11.4602,2.56787,0,0,0,0,0,0,0,-1,1665,1513,11.4602,-2.56786
448,-489,12.4425,1.72351,0,0,0,0,0,0,0,-1,1672,1513,12.4425,-1.72349
455,-489,12.5575,1.37463,0,0,0,0,0,0,0,-1,1679,1513,12.5575,-1.37469
462,-489,14.9784,3.84888,0,0,0,0,0,0,0,-1,1686,1513,14.9784,-3.84892
469,-489,15.1367,4.53101,0,0,0,0,0,0,0,-1,1693,1513,15.1368,-4.531
476,-489,15.5536,5.09338,0,0,0,0,0,0,0,-1,1700,1513,15.5536,-5.09339
483,-489,8.96912,8.37805,0,0,0,0,0,0,0,-1,1707,1513,8.96909,-8.37809
490,-489,10.5366,7.49561,0,0,0,0,0,0,0,-1,1714,1513,10.5367,-7.49558
497,-489,14.6051,11.8397,0,0,0,0,0,0,0,-1,1721,1513,14.6051,-11.8397
504,-489,16.7527,14.1735,0,0,0,0,0,0,0,-1,1728,1513,16.7527,-14.1735
511,-489,17.83,17.7993,0,0,0,0,0,0,0,-1,1735,1513,17.83,-17.7993
518,-489,16.4751,14.3682,0,0,0,0,0,0,0,-1,1742,1513,16.4751,-14.3682
525,-489,17.2606,17.4949,0,0,0,0,0,0,0,-1,1749,1513,17.2606,-17.4949
532,-489,19.397,21.0182,0,0,0,0,0,0,0,-1,1756,1513,19.397,-21.0182
539,-489,25.5814,27.7605,0,0,0,0,0,0,0,-1,1763,1513,25.5814,-27.7605
546,-489,25.7655,26.9171,0.00864303,0.00547494,-0.00459077,0.0119154,0.00220261,-0.619269,0.00732067,0.0385592,1770,1513,25.7655,-26.9171
553,-489,25.7422,26.1173,0.00682227,0.00384176,-0.00323304,0.00889199,0.00177204,-0.569438,0.00543448,0.0227203,1777,1513,25.7422,-26.1173
560,-489,25.7395,25.4375,0.00537582,0.00258161,-0.00224678,0.00662445,0.00133298,-0.507241,0.00404585,0.0137765,1784,1513,25.7395,-25.4375
567,-489,25.7495,24.8065,0.00430628,0.00168826,-0.00163086,0.00508849,0.000906048,-0.447221,0.00313427,0.0155988,1791,1513,25.7495,-24.8065
574,-489,25.6989,24.1996,0.003574,0.00115246,-0.00133249,0.00416365,0.000562815,-0.41661,0.00260848,0.0154381,1798,1513,25.6989,-24.1996
581,-489,25.693,23.556,0.00299939,0.000785026,-0.00116726,0.00350105,0.000283373,-0.405903,0.00224554,0.0108374,1805,1513,25.6929,-23.556
588,-489,25.6747,22.9088,0.00267512,0.00062791,-0.00116638,0.00320336,9.96743e-05,-0.42525,0.00210313,0.0131681,1812,1513,25.6747,-22.9089
595,-489,25.6365,22.2817,0.00265639,0.000551508,-0.00124302,0.00323267,-2.47681e-05,-0.434115,0.00216342,0.0188933,1819,1513,25.6365,-22.2817
602,-489,25.6061,21.6581,0.00272416,0.000652904,-0.001435,0.00345821,-8.11445e-05,-0.47283,0.00233299,0.0242114,1826,1513,25.6061,-21.6581
609,-489,25.5773,21.0156,0.00292255,0.000839017,-0.0016418,0.00382521,-6.36448e-05,-0.502689,0.00257162,0.0173342,1833,1513,25.5773,-21.0157
616,-489,25.5574,20.3257,0.0034873,0.000972356,-0.00178891,0.00441647,4.31775e-05,-0.479055,0.00293003,0.0206558,1840,1513,25.5574,-20.3257
623,-489,25.5237,19.6589,0.00414475,0.00104498,-0.00180525,0.00497417,0.000215559,-0.430682,0.00324665,0.0436189,1847,1513,25.5237,-19.6589
630,-489,25.5199,18.8314,0,0,0,0,0,0,0,-1,1854,1513,25.5199,-18.8314
637,-489,17.2048,11.8091,0,0,0,0,0,0,0,-1,1861,1513,17.2048,-11.8091
644,-489,9.67578,8.45874,0,0,0,0,0,0,0,-1,1868,1513,9.67576,-8.45879
651,-489,6.13818,6.85095,0,0,0,0,0,0,0,-1,1875,1513,6.13823,-6.85097
658,-489,5.43848,7.75513,0,0,0,0,0,0,0,-1,1882,1513,5.43844,-7.75509
665,-489,5.48438,8.59912,0,0,0,0,0,0,0,-1,1889,1513,5.48434,-8.59907
672,-489,0,0,0,0,0,0,0,0,0,-1,1896,1513,0,0
679,-489,0,0,0,0,0,0,0,0,0,-1,1903,1513,0,0
686,-489,0,0,0,0,0,0,0,0,0,-1,1910,1513,0,0
693,-489,0,0,0,0,0,0,0,0,0,-1,1917,1513,0,0
700,-489,0,0,0,0,0,0,0,0,0,-1,1924,1513,0,0
707,-489,0,0,0,0,0,0,0,0,0,-1,1931,1513,0,0
714,-489,0,0,0,0,0,0,0,0,0,-1,1938,1513,0,0
721,-489,0,0,0,0,0,0,0,0,0,-1,1945,1513,0,0
728,-489,0,0,0,0,0,0,0,0,0,-1,1952,1513,0,0
735,-489,0,0,0,0,0,0,0,0,0,-1,1959,1513,0,0
742,-489,0,0,0,0,0,0,0,0,0,-1,1966,1513,0,0
749,-489,0,0,0,0,0,0,0,0,0,-1,1973,1513,0,0
756,-489,0,0,0,0,0,0,0,0,0,-1,1980,1513,0,0
763,-489,0,0,0,0,0,0,0,0,0,-1,1987,1513,0,0
770,-489,0,0,0,0,0,0,0,0,0,-1,1994,1513,0,0
777,-489,0,0,0,0,0,0,0,0,0,-1,2001,1513,0,0
784,-489,0,0,0,0,0,0,0,0,0,-1,2008,1513,0,0
791,-489,0,0,0,0,0,0,0,0,0,-1,2015,1513,0,0
798,-489,0,0,0,0,0,0,0,0,0,-1,2022,1513,0,0
805,-489,0,0,0,0,0,0,0,0,0,-1,2029,1513,0,0
812,-489,0,0,0,0,0,0,0,0,0,-1,2036,1513,0,0
-700,-496,0,0,0,0,0,0,0,0,0,-1,524,1520,0,0
-693,-496,0,0,0,0,0,0,0,0,0,-1,531,1520,0,0
-686,-496,0,0,0,0,0,0,0,0,0,-1,538,1520,0,0
-679,-496,0,0,0,0,0,0,0,0,0,-1,545,1520,0,0
-672,-496,0,0,0,0,0,0,0,0,0,-1,552,1520,0,0
-665,-496,0,0,0,0,0,0,0,0,0,-1,559,1520,0,0
-658,-496,0,0,0,0,0,0,0,0,0,-1,566,1520,0,0
-651,-496,0,0,0,0,0,0,0,0,0,-1,573,1520,0,0
-644,-496,0,0,0,0,0,0,0,0,0,-1,580,1520,0,0
-637,-496,0,0,0,0,0,0,0,0,0,-1,587,1520,0,0
-630,-496,0,0,0,0,0,0,0,0,0,-1,594,1520,0,0
-623,-496,0,0,0,0,0,0,0,0,0,-1,601,1520,0,0
-616,-496,0,0,0,0,0,0,0,0,0,-1,608,1520,0,0
-609,-496,0,0,0,0,0,0,0,0,0,-1,615,1520,0,0
-602,-496,0,0,0,0,0,0,0,0,0,-1,622,1520,0,0
-595,-496,0,0,0,0,0,0,0,0,0,-1,629,1520,0,0
-588,-496,0,0,0,0,0,0,0,0,0,-1,636,1520,0,0
-581,-496,0,0,0,0,0,0,0,0,0,-1,643,1520,0,0
-574,-496,0,0,0,0,0,0,0,0,0,-1,650,1520,0,0
-567,-496,0,0,0,0,0,0,0,0,0,-1,657,1520,0,0
-560,-496,0,0,0,0,0,0,0,0,0,-1,664,1520,0,0
-553,-496,0,0,0,0,0,0,0,0,0,-1,671,1520,0,0
-546,-496,-8.09711,7.94836,0,0,0,0,0,0,0,-1,678,1520,-8.09712,-7.94842
-539,-496,-3.20129,1.16052,0,0,0,0,0,0,0,-1,685,1520,-3.20131,-1.16054
-532,-496,-2.98279,2.62146,0,0,0,0,0,0,0,-1,692,1520,-2.98278,-2.62151
-525,-496,-2.75201,4.08032,0,0,0,0,0,0,0,-1,699,1520,-2.75201,-4.08031
-518,-496,-2.6333,5.36072,0,0,0,0,0,0,0,-1,706,1520,-2.63328,-5.36077
-511,-496,-7.92126,9.68604,0,0,0,0,0,0,0,-1,713,1520,-7.92127,-9.68598
-504,-496,-7.51044,11.6274,0,0,0,0,0,0,0,-1,720,1520,-7.51042,-11.6275
-497,-496,-5.30933,14.4291,0,0,0,0,0,0,0,-1,727,1520,-5.30932,-14.4291
-490,-496,-7.16504,18.5167,0,0,0,0,0,0,0,-1,734,1520,-7.16502,-18.5167
-483,-496,-7.20154,19.3374,0.00184273,-0.00525241,0.00548423,0.00482678,-0.00823645,0.498313,0.00762722,0.0466199,741,1520,-7.20152,-19.3374
-476,-496,-7.31946,19.8658,0.00173042,-0.00454583,0.00428814,0.00390605,-0.00672146,0.469518,0.00620715,0.0202981,748,1520,-7.31943,-19.8659
-469,-496,-7.3324,20.578,0.00165302,-0.00366402,0.00340853,0.0033172,-0.00532821,0.454197,0.00503624,0.0104899,755,1520,-7.33241,-20.578
-462,-496,-7.36194,21.2579,0.00161826,-0.00258466,0.00268889,0.00292946,-0.00389586,0.453708,0.00395375,0.01659,762,1520,-7.36191,-21.258
-455,-496,-7.41486,21.9423,0.00160987,-0.00143728,0.00212949,0.00270469,-0.0025321,0.474883,0.00302401,0.0224819,769,1520,-7.41483,-21.9422
-448,-496,-7.43604,22.6191,0.00167904,-0.000131304,0.00181958,0.00280616,-0.00125842,0.55459,0.00240273,0.0207661,776,1520,-7.43604,-22.6191
-441,-496,-7.42212,23.2854,0.00184839,0.00120565,0.00173283,0.0032894,-0.000235362,0.693709,0.00227545,0.015647,783,1520,-7.42209,-23.2853
-434,-496,-7.48358,23.9415,0.0022098,0.00291364,0.00207231,0.00466369,0.000459747,0.869505,0.00296777,0.0144075,790,1520,-7.48355,-23.9415
-427,-496,-7.5517,24.6133,0.0027266,0.00457724,0.00260413,0.00641556,0.000888276,0.956104,0.00401385,0.0181849,797,1520,-7.5517,-24.6132
-420,-496,-7.55145,25.2509,0.00331619,0.00633785,0.00356672,0.00870053,0.000953503,0.985736,0.00551009,0.0191111,804,1520,-7.55144,-25.2508
-413,-496,-7.46759,25.983,0.00460539,0.00857159,0.00521293,0.0121659,0.0010111,0.967155,0.00779544,0.0308022,811,1520,-7.46758,-25.983
-406,-496,-7.32672,26.7327,0,0,0,0,0,0,0,-1,818,1520,-7.3267,-26.7327
-399,-496,-6.9964,27.9027,0,0,0,0,0,0,0,-1,825,1520,-6.99642,-27.9027
-392,-496,-1.49786,12.387,0,0,0,0,0,0,0,-1,832,1520,-1.49788,-12.387
-385,-496,-1.72437,11.4985,0,0,0,0,0,0,0,-1,839,1520,-1.72436,-11.4985
-378,-496,-1.45532,14.0719,0,0,0,0,0,0,0,-1,846,1520,-1.45533,-14.0719
-371,-496,0.0877075,12.5299,0,0,0,0,0,0,0,-1,853,1520,0.0876896,-12.5299
-364,-496,0.0881348,10.6422,0,0,0,0,0,0,0,-1,860,1520,0.0881368,-10.6423
-357,-496,0.323792,7.56812,0,0,0,0,0,0,0,-1,867,1520,0.323782,-7.56806
-350,-496,2.1535,7.18945,0,0,0,0,0,0,0,-1,874,1520,2.15348,-7.1894
-343,-496,-7.56244,0.335327,0,0,0,0,0,0,0,-1,881,1520,-7.56242,-0.335322
-336,-496,-3.99249,6.02222,0,0,0,0,0,0,0,-1,888,1520,-3.99246,-6.0222
-329,-496,-6.93689,-0.100342,0,0,0,0,0,0,0,-1,895,1520,-6.93686,0.1003
-322,-496,-6.17505,0.494385,0,0,0,0,0,0,0,-1,902,1520,-6.17507,-0.49437
-315,-496,-7.539,5.78638,0,0,0,0,0,0,0,-1,909,1520,-7.53898,-5.78633
-308,-496,0,0,0,0,0,0,0,0,0,-1,916,1520,0,0
-301,-496,0,0,0,0,0,0,0,0,0,-1,923,1520,0,0
-294,-496,0,0,0,0,0,0,0,0,0,-1,930,1520,0,0
-287,-496,0,0,0,0,0,0,0,0,0,-1,937,1520,0,0
-280,-496,0,0,0,0,0,0,0,0,0,-1,944,1520,0,0
-273,-496,0,0,0,0,0,0,0,0,0,-1,951,1520,0,0
-266,-496,0,0,0,0,0,0,0,0,0,-1,958,1520,0,0
-259,-496,0,0,0,0,0,0,0,0,0,-1,965,1520,0,0
-252,-496,0,0,0,0,0,0,0,0,0,-1,972,1520,0,0
-245,-496,0,0,0,0,0,0,0,0,0,-1,979,1520,0,0
-238,-496,0,0,0,0,0,0,0,0,0,-1,986,1520,0,0
-231,-496,0,0,0,0,0,0,0,0,0,-1,993,1520,0,0
-224,-496,0,0,0,0,0,0,0,0,0,-1,1000,1520,0,0
-217,-496,0,0,0,0,0,0,0,0,0,-1,1007,1520,0,0
-210,-496,0,0,0,0,0,0,0,0,0,-1,1014,1520,0,0
-203,-496,0,0,0,0,0,0,0,0,0,-1,1021,1520,0,0
-196,-496,0,0,0,0,0,0,0,0,0,-1,1028,1520,0,0
-189,-496,0,0,0,0,0,0,0,0,0,-1,1035,1520,0,0
-182,-496,0,0,0,0,0,0,0,0,0,-1,1042,1520,0,0
-175,-496,0,0,0,0,0,0,0,0,0,-1,1049,1520,0,0
-168,-496,0,0,0,0,0,0,0,0,0,-1,1056,1520,0,0
-161,-496,0,0,0,0,0,0,0,0,0,-1,1063,1520,0,0
-154,-496,0,0,0,0,0,0,0,0,0,-1,1070,1520,0,0
-147,-496,0,0,0,0,0,0,0,0,0,-1,1077,1520,0,0
-140,-496,0,0,0,0,0,0,0,0,0,-1,1084,1520,0,0
-133,-496,0,0,0,0,0,0,0,0,0,-1,1091,1520,0,0
-126,-496,0,0,0,0,0,0,0,0,0,-1,1098,1520,0,0
-119,-496,0,0,0,0,0,0,0,0,0,-1,1105,1520,0,0
-112,-496,0,0,0,0,0,0,0,0,0,-1,1112,1520,0,0
-105,-496,0,0,0,0,0,0,0,0,0,-1,1119,1520,0,0
-98,-496,0,0,0,0,0,0,0,0,0,-1,1126,1520,0,0
-91,-496,0,0,0,0,0,0,0,0,0,-1,1133,1520,0,0
-84,-496,0,0,0,0,0,0,0,0,0,-1,1140,1520,0,0
-77,-496,0,0,0,0,0,0,0,0,0,-1,1147,1520,0,0
-70,-496,0,0,0,0,0,0,0,0,0,-1,1154,1520,0,0
-63,-496,0,0,0,0,0,0,0,0,0,-1,1161,1520,0,0
-56,-496,0,0,0,0,0,0,0,0,0,-1,1168,1520,0,0
-49,-496,0,0,0,0,0,0,0,0,0,-1,1175,1520,0,0
-42,-496,0,0,0,0,0,0,0,0,0,-1,1182,1520,0,0
-35,-496,0,0,0,0,0,0,0,0,0,-1,1189,1520,0,0
-28,-496,0,0,0,0,0,0,0,0,0,-1,1196,1520,0,0
-21,-496,0,0,0,0,0,0,0,0,0,-1,1203,1520,0,0
-14,-496,0,0,0,0,0,0,0,0,0,-1,1210,1520,0,0
-7,-496,0,0,0,0,0,0,0,0,0,-1,1217,1520,0,0
0,-496,0,0,0,0,0,0,0,0,0,-1,1224,1520,0,0
7,-496,0,0,0,0,0,0,0,0,0,-1,1231,1520,0,0
14,-496,0,0,0,0,0,0,0,0,0,-1,1238,1520,0,0
21,-496,0,0,0,0,0,0,0,0,0,-1,1245,1520,0,0
28,-496,0,0,0,0,0,0,0,0,0,-1,1252,1520,0,0
35,-496,0,0,0,0,0,0,0,0,0,-1,1259,1520,0,0
42,-496,0,0,0,0,0,0,0,0,0,-1,1266,1520,0,0
49,-496,0,0,0,0,0,0,0,0,0,-1,1273,1520,0,0
56,-496,0,0,0,0,0,0,0,0,0,-1,1280,1520,0,0
63,-496,0,0,0,0,0,0,0,0,0,-1,1287,1520,0,0
70,-496,0,0,0,0,0,0,0,0,0,-1,1294,1520,0,0
77,-496,0,0,0,0,0,0,0,0,0,-1,1301,1520,0,0
84,-496,0,0,0,0,0,0,0,0,0,-1,1308,1520,0,0
91,-496,0,0,0,0,0,0,0,0,0,-1,1315,1520,0,0
98,-496,0,0,0,0,0,0,0,0,0,-1,1322,1520,0,0
105,-496,0,0,0,0,0,0,0,0,0,-1,1329,1520,0,0
112,-496,0,0,0,0,0,0,0,0,0,-1,1336,1520,0,0
119,-496,0,0,0,0,0,0,0,0,0,-1,1343,1520,0,0
126,-496,0,0,0,0,0,0,0,0,0,-1,1350,1520,0,0
133,-496,0,0,0,0,0,0,0,0,0,-1,1357,1520,0,0
140,-496,0,0,0,0,0,0,0,0,0,-1,1364,1520,0,0
147,-496,0,0,0,0,0,0,0,0,0,-1,1371,1520,0,0
154,-496,0,0,0,0,0,0,0,0,0,-1,1378,1520,0,0
161,-496,0,0,0,0,0,0,0,0,0,-1,1385,1520,0,0
168,-496,0,0,0,0,0,0,0,0,0,-1,1392,1520,0,0
175,-496,0,0,0,0,0,0,0,0,0,-1,1399,1520,0,0
182,-496,0,0,0,0,0,0,0,0,0,-1,1406,1520,0,0
189,-496,0,0,0,0,0,0,0,0,0,-1,1413,1520,0,0
196,-496,0,0,0,0,0,0,0,0,0,-1,1420,1520,0,0
203,-496,0,0,0,0,0,0,0,0,0,-1,1427,1520,0,0
210,-496,0,0,0,0,0,0,0,0,0,-1,1434,1520,0,0
217,-496,0,0,0,0,0,0,0,0,0,-1,1441,1520,0,0
224,-496,0,0,0,0,0,0,0,0,0,-1,1448,1520,0,0
231,-496,0,0,0,0,0,0,0,0,0,-1,1455,1520,0,0
238,-496,0,0,0,0,0,0,0,0,0,-1,1462,1520,0,0
245,-496,0,0,0,0,0,0,0,0,0,-1,1469,1520,0,0
252,-496,0,0,0,0,0,0,0,0,0,-1,1476,1520,0,0
259,-496,0,0,0,0,0,0,0,0,0,-1,1483,1520,0,0
266,-496,0,0,0,0,0,0,0,0,0,-1,1490,1520,0,0
273,-496,0,0,0,0,0,0,0,0,0,-1,1497,1520,0,0
280,-496,0,0,0,0,0,0,0,0,0,-1,1504,1520,0,0
287,-496,0,0,0,0,0,0,0,0,0,-1,1511,1520,0,0
294,-496,0,0,0,0,0,0,0,0,0,-1,1518,1520,0,0
301,-496,0,0,0,0,0,0,0,0,0,-1,1525,1520,0,0
308,-496,0,0,0,0,0,0,0,0,0,-1,1532,1520,0,0
315,-496,0,0,0,0,0,0,0,0,0,-1,1539,1520,0,0
322,-496,0,0,0,0,0,0,0,0,0,-1,1546,1520,0,0
329,-496,0,0,0,0,0,0,0,0,0,-1,1553,1520,0,0
336,-496,0,0,0,0,0,0,0,0,0,-1,1560,1520,0,0
343,-496,0,0,0,0,0,0,0,0,0,-1,1567,1520,0,0
350,-496,0,0,0,0,0,0,0,0,0,-1,1574,1520,0,0
357,-496,0,0,0,0,0,0,0,0,0,-1,1581,1520,0,0
364,-496,0,0,0,0,0,0,0,0,0,-1,1588,1520,0,0
371,-496,0,0,0,0,0,0,0,0,0,-1,1595,1520,0,0
378,-496,0,0,0,0,0,0,0,0,0,-1,1602,1520,0,0
385,-496,0,0,0,0,0,0,0,0,0,-1,1609,1520,0,0
392,-496,0,0,0,0,0,0,0,0,0,-1,1616,1520,0,0
399,-496,0,0,0,0,0,0,0,0,0,-1,1623,1520,0,0
406,-496,0,0,0,0,0,0,0,0,0,-1,1630,1520,0,0
413,-496,0,0,0,0,0,0,0,0,0,-1,1637,1520,0,0
420,-496,0,0,0,0,0,0,0,0,0,-1,1644,1520,0,0
427,-496,0,0,0,0,0,0,0,0,0,-1,1651,1520,0,0
434,-496,11.0457,3.37732,0,0,0,0,0,0,0,-1,1658,1520,11.0456,-3.37736
441,-496,11.788,2.75488,0,0,0,0,0,0,0,-1,1665,1520,11.7879,-2.75485
448,-496,12.2146,2.18494,0,0,0,0,0,0,0,-1,1672,1520,12.2146,-2.18489
455,-496,12.3489,1.65173,0,0,0,0,0,0,0,-1,1679,1520,12.3489,-1.65178
462,-496,12.1912,1.32361,0,0,0,0,0,0,0,-1,1686,1520,12.1911,-1.32357
469,-496,14.8138,5.77954,0,0,0,0,0,0,0,-1,1693,1520,14.8138,-5.77958
476,-496,15.2449,6.27942,0,0,0,0,0,0,0,-1,1700,1520,15.2449,-6.27936
483,-496,9.19812,6.88367,0,0,0,0,0,0,0,-1,1707,1520,9.19812,-6.88361
490,-496,10.2123,7.97144,0,0,0,0,0,0,0,-1,1714,1520,10.2122,-7.97145
497,-496,13.9297,12.2981,0,0,0,0,0,0,0,-1,1721,1520,13.9297,-12.2982
504,-496,16.3271,16.6501,0,0,0,0,0,0,0,-1,1728,1520,16.3272,-16.6502
511,-496,17.6753,18.0685,0,0,0,0,0,0,0,-1,1735,1520,17.6753,-18.0685
518,-496,17.0537,17.3118,0,0,0,0,0,0,0,-1,1742,1520,17.0538,-17.3118
525,-496,18.2721,19.3259,0,0,0,0,0,0,0,-1,1749,1520,18.2721,-19.3259
532,-496,25.2401,27.6041,0,0,0,0,0,0,0,-1,1756,1520,25.2401,-27.6042
539,-496,24.9169,27.5778,0,0,0,0,0,0,0,-1,1763,1520,24.9169,-27.5777
546,-496,25.0302,26.8237,0.00727094,0.00511794,-0.00422006,0.0105496,0.00183924,-0.660516,0.00650724,0.0216119,1770,1520,25.0301,-26.8238
553,-496,25.1362,26.076,0.00570415,0.00358776,-0.00296435,0.00779351,0.0014984,-0.613961,0.00477522,0.0165456,1777,1520,25.1362,-26.0761
560,-496,25.1342,25.4655,0.00450995,0.00238995,-0.0020535,0.00576089,0.00113901,-0.547138,0.00352285,0.0156658,1784,1520,25.1342,-25.4655
567,-496,25.118,24.8208,0.00371093,0.00156778,-0.00153679,0.00451285,0.000765854,-0.480948,0.00278856,0.0126075,1791,1520,25.118,-24.8208
574,-496,25.0713,24.1858,0.0031987,0.00105667,-0.00128769,0.00380256,0.000452806,-0.438502,0.0023984,0.0121859,1798,1520,25.0713,-24.1858
581,-496,25.0426,23.575,0.00284085,0.000705774,-0.00117943,0.00336413,0.000182498,-0.417576,0.00218446,0.0134801,1805,1520,25.0427,-23.575
588,-496,25.0465,22.9535,0.00273533,0.000598884,-0.00127021,0.00332679,7.43009e-06,-0.43578,0.00221538,0.0159711,1812,1520,25.0465,-22.9536
595,-496,24.9977,22.3379,0.00293045,0.000610736,-0.00146652,0.00364034,-9.91555e-05,-0.450818,0.00246061,0.0172223,1819,1520,24.9977,-22.3379
602,-496,24.9513,21.7173,0.00323653,0.000862898,-0.00181108,0.00421502,-0.000115592,-0.49535,0.00284932,0.0180841,1826,1520,24.9513,-21.7173
609,-496,24.9594,21.0096,0.00366636,0.0011866,-0.00219799,0.00495007,-9.71055e-05,-0.528597,0.00333288,0.0176832,1833,1520,24.9594,-21.0096
616,-496,25.0625,20.2212,0.00461877,0.00147383,-0.00255967,0.00605039,4.22117e-05,-0.509955,0.0040196,0.044704,1840,1520,25.0624,-20.2212
623,-496,24.8888,19.2001,0,0,0,0,0,0,0,-1,1847,1520,24.8888,-19.2001
630,-496,18.5656,13.8966,0,0,0,0,0,0,0,-1,1854,1520,18.5655,-13.8967
637,-496,14.6411,10.1016,0,0,0,0,0,0,0,-1,1861,1520,14.6411,-10.1016
644,-496,12.4537,10.087,0,0,0,0,0,0,0,-1,1868,1520,12.4537,-10.0871
651,-496,8.18506,5.47803,0,0,0,0,0,0,0,-1,1875,1520,8.18505,-5.47806
658,-496,7.79993,4.02563,0,0,0,0,0,0,0,-1,1882,1520,7.79997,-4.02568
665,-496,5.47583,7.90625,0,0,0,0,0,0,0,-1,1889,1520,5.47581,-7.90628
672,-496,0,0,0,0,0,0,0,0,0,-1,1896,1520,0,0
679,-496,0,0,0,0,0,0,0,0,0,-1,1903,1520,0,0
686,-496,0,0,0,0,0,0,0,0,0,-1,1910,1520,0,0
693,-496,0,0,0,0,0,0,0,0,0,-1,1917,1520,0,0
700,-496,0,0,0,0,0,0,0,0,0,-1,1924,1520,0,0
707,-496,0,0,0,0,0,0,0,0,0,-1,1931,1520,0,0
714,-496,0,0,0,0,0,0,0,0,0,-1,1938,1520,0,0
721,-496,0,0,0,0,0,0,0,0,0,-1,1945,1520,0,0
728,-496,0,0,0,0,0,0,0,0,0,-1,1952,1520,0,0
735,-496,0,0,0,0,0,0,0,0,0,-1,1959,1520,0,0
742,-496,0,0,0,0,0,0,0,0,0,-1,1966,1520,0,0
749,-496,0,0,0,0,0,0,0,0,0,-1,1973,1520,0,0
756,-496,0,0,0,0,0,0,0,0,0,-1,1980,1520,0,0
763,-496,0,0,0,0,0,0,0,0,0,-1,1987,1520,0,0
770,-496,0,0,0,0,0,0,0,0,0,-1,1994,1520,0,0
777,-496,0,0,0,0,0,0,0,0,0,-1,2001,1520,0,0
784,-496,0,0,0,0,0,0,0,0,0,-1,2008,1520,0,0
791,-496,0,0,0,0,0,0,0,0,0,-1,2015,1520,0,0
798,-496,0,0,0,0,0,0,0,0,0,-1,2022,1520,0,0
805,-496,0,0,0,0,0,0,0,0,0,-1,2029,1520,0,0
812,-496,0,0,0,0,0,0,0,0,0,-1,2036,1520,0,0
-700,-503,0,0,0,0,0,0,0,0,0,-1,524,1527,0,0
-693,-503,0,0,0,0,0,0,0,0,0,-1,531,1527,0,0
-686,-503,0,0,0,0,0,0,0,0,0,-1,538,1527,0,0
-679,-503,0,0,0,0,0,0,0,0,0,-1,545,1527,0,0
-672,-503,0,0,0,0,0,0,0,0,0,-1,552,1527,0,0
-665,-503,0,0,0,0,0,0,0,0,0,-1,559,1527,0,0
-658,-503,0,0,0,0,0,0,0,0,0,-1,566,1527,0,0
-651,-503,0,0,0,0,0,0,0,0,0,-1,573,1527,0,0
-644,-503,0,0,0,0,0,0,0,0,0,-1,580,1527,0,0
-637,-503,0,0,0,0,0,0,0,0,0,-1,587,1527,0,0
-630,-503,0,0,0,0,0,0,0,0,0,-1,594,1527,0,0
-623,-503,0,0,0,0,0,0,0,0,0,-1,601,1527,0,0
-616,-503,0,0,0,0,0,0,0,0,0,-1,608,1527,0,0
-609,-503,0,0,0,0,0,0,0,0,0,-1,615,1527,0,0
-602,-503,0,0,0,0,0,0,0,0,0,-1,622,1527,0,0
-595,-503,0,0,0,0,0,0,0,0,0,-1,629,1527,0,0
-588,-503,0,0,0,0,0,0,0,0,0,-1,636,1527,0,0
-581,-503,0,0,0,0,0,0,0,0,0,-1,643,1527,0,0
-574,-503,0,0,0,0,0,0,0,0,0,-1,650,1527,0,0
-567,-503,0,0,0,0,0,0,0,0,0,-1,657,1527,0,0
-560,-503,0,0,0,0,0,0,0,0,0,-1,664,1527,0,0
-553,-503,0,0,0,0,0,0,0,0,0,-1,671,1527,0,0
-546,-503,0,0,0,0,0,0,0,0,0,-1,678,1527,0,0
-539,-503,3.50177,4.26428,0,0,0,0,0,0,0,-1,685,1527,3.50177,-4.26424
-532,-503,-3.13196,1.05298,0,0,0,0,0,0,0,-1,692,1527,-3.13194,-1.05299
-525,-503,-2.94293,2.59314,0,0,0,0,0,0,0,-1,699,1527,-2.94296,-2.59314
-518,-503,-2.7395,4.05872,0,0,0,0,0,0,0,-1,706,1527,-2.73948,-4.05871
-511,-503,-1.60022,7.23877,0,0,0,0,0,0,0,-1,713,1527,-1.60023,-7.23872
-504,-503,-8.1402,10.1541,0,0,0,0,0,0,0,-1,720,1527,-8.14017,-10.1541
-497,-503,-4.51758,14.0781,0,0,0,0,0,0,0,-1,727,1527,-4.5176,-14.0782
-490,-503,-4.24194,16.1982,0,0,0,0,0,0,0,-1,734,1527,-4.24196,-16.1982
-483,-503,-6.60388,19.3289,0,0,0,0,0,0,0,-1,741,1527,-6.60388,-19.3289
-476,-503,-6.52808,20.0298,0.00290845,-0.00614555,0.00601858,0.00591253,-0.00914962,0.462954,0.00876282,0.0359832,748,1527,-6.52808,-20.0297
-469,-503,-6.65637,20.614,0.00268012,-0.00507826,0.0047566,0.00493879,-0.00733693,0.443326,0.00713233,0.0136738,755,1527,-6.6564,-20.614
-462,-503,-6.70074,21.3063,0.00241952,-0.00386048,0.00365555,0.00409851,-0.00553946,0.430559,0.00558518,0.0127139,762,1527,-6.70072,-21.3063
-455,-503,-6.74567,21.9974,0.00215851,-0.00261446,0.00274634,0.00341039,-0.00386634,0.427697,0.00420397,0.0189231,769,1527,-6.74569,-21.9974
-448,-503,-6.73547,22.666,0.00195198,-0.00129596,0.00210386,0.00298574,-0.00232971,0.456713,0.00307666,0.0177295,776,1527,-6.7355,-22.666
-441,-503,-6.72906,23.3151,0.00186086,2.98817e-05,0.00174149,0.00291283,-0.00102209,0.543403,0.00235763,0.0141003,783,1527,-6.72907,-23.315
-434,-503,-6.80084,23.9509,0.00198395,0.00166998,0.00184442,0.00367805,-2.41289e-05,0.742944,0.00246012,0.0118567,790,1527,-6.80086,-23.9509
-427,-503,-6.89374,24.5819,0.00229906,0.00326054,0.00219399,0.00502585,0.000533758,0.893252,0.00318758,0.0185089,797,1527,-6.89376,-24.5818
-420,-503,-6.86774,25.2476,0.00281563,0.00489254,0.00294542,0.0069772,0.000730963,0.954877,0.00442797,0.0188861,804,1527,-6.86772,-25.2475
-413,-503,-6.86053,25.9332,0.00387863,0.00684413,0.00429162,0.00990193,0.000820836,0.951727,0.00634539,0.015985,811,1527,-6.86052,-25.9332
-406,-503,-6.87433,26.6119,0.00588988,0.00922099,0.00672854,0.0144871,0.000623822,0.906727,0.00945695,0.0256903,818,1527,-6.87433,-26.6119
-399,-503,-6.75195,27.4927,0.0085454,0.0116882,0.00919744,0.0194475,0.00078608,0.870006,0.0127111,0.0431824,825,1527,-6.75195,-27.4927
-392,-503,-6.41217,28.6074,0,0,0,0,0,0,0,-1,832,1527,-6.4122,-28.6074
-385,-503,-2.00403,14.1218,0,0,0,0,0,0,0,-1,839,1527,-2.00403,-14.1218
-378,-503,-2.07043,13.8632,0,0,0,0,0,0,0,-1,846,1527,-2.07043,-13.8631
-371,-503,-1.67285,13.8081,0,0,0,0,0,0,0,-1,853,1527,-1.67285,-13.8081
-364,-503,0.181396,12.3768,0,0,0,0,0,0,0,-1,860,1527,0.18138,-12.3768
-357,-503,0.558533,9.25452,0,0,0,0,0,0,0,-1,867,1527,0.558542,-9.25446
-350,-503,0.219971,6.84827,0,0,0,0,0,0,0,-1,874,1527,0.21996,-6.84831
-343,-503,-3.5802,4.43274,0,0,0,0,0,0,0,-1,881,1527,-3.58018,-4.43276
-336,-503,-3.2384,6.40637,0,0,0,0,0,0,0,-1,888,1527,-3.2384,-6.40643
-329,-503,-1.70691,11.886,0,0,0,0,0,0,0,-1,895,1527,-1.70689,-11.886
-322,-503,-3.31317,8.81519,0,0,0,0,0,0,0,-1,902,1527,-3.31315,-8.81524
-315,-503,-3.90265,7.73853,0,0,0,0,0,0,0,-1,909,1527,-3.90264,-7.73854
-308,-503,-1.70264,7.35413,0,0,0,0,0,0,0,-1,916,1527,-1.70262,-7.35416
-301,-503,0,0,0,0,0,0,0,0,0,-1,923,1527,0,0
-294,-503,0,0,0,0,0,0,0,0,0,-1,930,1527,0,0
-287,-503,0,0,0,0,0,0,0,0,0,-1,937,1527,0,0
-280,-503,0,0,0,0,0,0,0,0,0,-1,944,1527,0,0
-273,-503,0,0,0,0,0,0,0,0,0,-1,951,1527,0,0
-266,-503,0,0,0,0,0,0,0,0,0,-1,958,1527,0,0
-259,-503,0,0,0,0,0,0,0,0,0,-1,965,1527,0,0
-252,-503,0,0,0,0,0,0,0,0,0,-1,972,1527,0,0
-245,-503,0,0,0,0,0,0,0,0,0,-1,979,1527,0,0
-238,-503,0,0,0,0,0,0,0,0,0,-1,986,1527,0,0
-231,-503,0,0,0,0,0,0,0,0,0,-1,993,1527,0,0
-224,-503,0,0,0,0,0,0,0,0,0,-1,1000,1527,0,0
-217,-503,0,0,0,0,0,0,0,0,0,-1,1007,1527,0,0
-210,-503,0,0,0,0,0,0,0,0,0,-1,1014,1527,0,0
-203,-503,0,0,0,0,0,0,0,0,0,-1,1021,1527,0,0
-196,-503,0,0,0,0,0,0,0,0,0,-1,1028,1527,0,0
-189,-503,0,0,0,0,0,0,0,0,0,-1,1035,1527,0,0
-182,-503,0,0,0,0,0,0,0,0,0,-1,1042,1527,0,0
-175,-503,0,0,0,0,0,0,0,0,0,-1,1049,1527,0,0
-168,-503,0,0,0,0,0,0,0,0,0,-1,1056,1527,0,0
-161,-503,0,0,0,0,0,0,0,0,0,-1,1063,1527,0,0
-154,-503,0,0,0,0,0,0,0,0,0,-1,1070,1527,0,0
-147,-503,0,0,0,0,0,0,0,0,0,-1,1077,1527,0,0
-140,-503,0,0,0,0,0,0,0,0,0,-1,1084,1527,0,0
-133,-503,0,0,0,0,0,0,0,0,0,-1,1091,1527,0,0
-126,-503,0,0,0,0,0,0,0,0,0,-1,1098,1527,0,0
-119,-503,0,0,0,0,0,0,0,0,0,-1,1105,1527,0,0
-112,-503,0,0,0,0,0,0,0,0,0,-1,1112,1527,0,0
-105,-503,0,0,0,0,0,0,0,0,0,-1,1119,1527,0,0
-98,-503,0,0,0,0,0,0,0,0,0,-1,1126,1527,0,0
-91,-503,0,0,0,0,0,0,0,0,0,-1,1133,1527,0,0
-84,-503,0,0,0,0,0,0,0,0,0,-1,1140,1527,0,0
-77,-503,0,0,0,0,0,0,0,0,0,-1,1147,1527,0,0
-70,-503,0,0,0,0,0,0,0,0,0,-1,1154,1527,0,0
-63,-503,0,0,0,0,0,0,0,0,0,-1,1161,1527,0,0
-56,-503,0,0,0,0,0,0,0,0,0,-1,1168,1527,0,0
-49,-503,0,0,0,0,0,0,0,0,0,-1,1175,1527,0,0
-42,-503,0,0,0,0,0,0,0,0,0,-1,1182,1527,0,0
-35,-503,0,0,0,0,0,0,0,0,0,-1,1189,1527,0,0
-28,-503,0,0,0,0,0,0,0,0,0,-1,1196,1527,0,0
-21,-503,0,0,0,0,0,0,0,0,0,-1,1203,1527,0,0
-14,-503,0,0,0,0,0,0,0,0,0,-1,1210,1527,0,0
-7,-503,0,0,0,0,0,0,0,0,0,-1,1217,1527,0,0
0,-503,0,0,0,0,0,0,0,0,0,-1,1224,1527,0,0
7,-503,0,0,0,0,0,0,0,0,0,-1,1231,1527,0,0
14,-503,0,0,0,0,0,0,0,0,0,-1,1238,1527,0,0
21,-503,0,0,0,0,0,0,0,0,0,-1,1245,1527,0,0
28,-503,0,0,0,0,0,0,0,0,0,-1,1252,1527,0,0
35,-503,0,0,0,0,0,0,0,0,0,-1,1259,1527,0,0
42,-503,0,0,0,0,0,0,0,0,0,-1,1266,1527,0,0
49,-503,0,0,0,0,0,0,0,0,0,-1,1273,1527,0,0
56,-503,0,0,0,0,0,0,0,0,0,-1,1280,1527,0,0
63,-503,0,0,0,0,0,0,0,0,0,-1,1287,1527,0,0
70,-503,0,0,0,0,0,0,0,0,0,-1,1294,1527,0,0
77,-503,0,0,0,0,0,0,0,0,0,-1,1301,1527,0,0
84,-503,0,0,0,0,0,0,0,0,0,-1,1308,1527,0,0
91,-503,0,0,0,0,0,0,0,0,0,-1,1315,1527,0,0
98,-503,0,0,0,0,0,0,0,0,0,-1,1322,1527,0,0
105,-503,0,0,0,0,0,0,0,0,0,-1,1329,1527,0,0
112,-503,0,0,0,0,0,0,0,0,0,-1,1336,1527,0,0
119,-503,0,0,0,0,0,0,0,0,0,-1,1343,1527,0,0
126,-503,0,0,0,0,0,0,0,0,0,-1,1350,1527,0,0
133,-503,0,0,0,0,0,0,0,0,0,-1,1357,1527,0,0
140,-503,0,0,0,0,0,0,0,0,0,-1,1364,1527,0,0
147,-503,0,0,0,0,0,0,0,0,0,-1,1371,1527,0,0
154,-503,0,0,0,0,0,0,0,0,0,-1,1378,1527,0,0
161,-503,0,0,0,0,0,0,0,0,0,-1,1385,1527,0,0
168,-503,0,0,0,0,0,0,0,0,0,-1,1392,1527,0,0
175,-503,0,0,0,0,0,0,0,0,0,-1,1399,1527,0,0
182,-503,0,0,0,0,0,0,0,0,0,-1,1406,1527,0,0
189,-503,0,0,0,0,0,0,0,0,0,-1,1413,1527,0,0
196,-503,0,0,0,0,0,0,0,0,0,-1,1420,1527,0,0
203,-503,0,0,0,0,0,0,0,0,0,-1,1427,1527,0,0
210,-503,0,0,0,0,0,0,0,0,0,-1,1434,1527,0,0
217,-503,0,0,0,0,0,0,0,0,0,-1,1441,1527,0,0
224,-503,0,0,0,0,0,0,0,0,0,-1,1448,1527,0,0
231,-503,0,0,0,0,0,0,0,0,0,-1,1455,1527,0,0
238,-503,0,0,0,0,0,0,0,0,0,-1,1462,1527,0,0
245,-503,0,0,0,0,0,0,0,0,0,-1,1469,1527,0,0
252,-503,0,0,0,0,0,0,0,0,0,-1,1476,1527,0,0
259,-503,0,0,0,0,0,0,0,0,0,-1,1483,1527,0,0
266,-503,0,0,0,0,0,0,0,0,0,-1,1490,1527,0,0
273,-503,0,0,0,0,0,0,0,0,0,-1,1497,1527,0,0
280,-503,0,0,0,0,0,0,0,0,0,-1,1504,1527,0,0
287,-503,0,0,0,0,0,0,0,0,0,-1,1511,1527,0,0
294,-503,0,0,0,0,0,0,0,0,0,-1,1518,1527,0,0
301,-503,0,0,0,0,0,0,0,0,0,-1,1525,1527,0,0
308,-503,0,0,0,0,0,0,0,0,0,-1,1532,1527,0,0
315,-503,0,0,0,0,0,0,0,0,0,-1,1539,1527,0,0
322,-503,0,0,0,0,0,0,0,0,0,-1,1546,1527,0,0
329,-503,0,0,0,0,0,0,0,0,0,-1,1553,1527,0,0
336,-503,0,0,0,0,0,0,0,0,0,-1,1560,1527,0,0
343,-503,0,0,0,0,0,0,0,0,0,-1,1567,1527,0,0
350,-503,0,0,0,0,0,0,0,0,0,-1,1574,1527,0,0
357,-503,0,0,0,0,0,0,0,0,0,-1,1581,1527,0,0
364,-503,0,0,0,0,0,0,0,0,0,-1,1588,1527,0,0
371,-503,0,0,0,0,0,0,0,0,0,-1,1595,1527,0,0
378,-503,0,0,0,0,0,0,0,0,0,-1,1602,1527,0,0
385,-503,0,0,0,0,0,0,0,0,0,-1,1609,1527,0,0
392,-503,0,0,0,0,0,0,0,0,0,-1,1616,1527,0,0
399,-503,0,0,0,0,0,0,0,0,0,-1,1623,1527,0,0
406,-503,0,0,0,0,0,0,0,0,0,-1,1630,1527,0,0
413,-503,0,0,0,0,0,0,0,0,0,-1,1637,1527,0,0
420,-503,0,0,0,0,0,0,0,0,0,-1,1644,1527,0,0
427,-503,10.5968,4.9856,0,0,0,0,0,0,0,-1,1651,1527,10.5969,-4.98563
434,-503,11.4329,3.97217,0,0,0,0,0,0,0,-1,1658,1527,11.4328,-3.97222
441,-503,12.0957,2.96509,0,0,0,0,0,0,0,-1,1665,1527,12.0957,-2.96512
448,-503,12.3259,2.53894,0,0,0,0,0,0,0,-1,1672,1527,12.326,-2.53895
455,-503,12.1669,2.18762,0,0,0,0,0,0,0,-1,1679,1527,12.1668,-2.18767
462,-503,11.59,2.60791,0,0,0,0,0,0,0,-1,1686,1527,11.5899,-2.60794
469,-503,11.1625,1.61853,0,0,0,0,0,0,0,-1,1693,1527,11.1625,-1.61856
476,-503,9.07703,5.81042,0,0,0,0,0,0,0,-1,1700,1527,9.07699,-5.81047
483,-503,9.74414,6.92432,0,0,0,0,0,0,0,-1,1707,1527,9.74417,-6.9243
490,-503,10.5033,10.1071,0,0,0,0,0,0,0,-1,1714,1527,10.5032,-10.107
497,-503,15.0057,17.9476,0,0,0,0,0,0,0,-1,1721,1527,15.0058,-17.9476
504,-503,16.4764,18.4486,0,0,0,0,0,0,0,-1,1728,1527,16.4764,-18.4486
511,-503,16.8276,18.3271,0,0,0,0,0,0,0,-1,1735,1527,16.8276,-18.3272
518,-503,17.2533,18.2738,0,0,0,0,0,0,0,-1,1742,1527,17.2533,-18.2738
525,-503,21.2887,26.5785,0,0,0,0,0,0,0,-1,1749,1527,21.2887,-26.5785
532,-503,24.3877,28.2052,0,0,0,0,0,0,0,-1,1756,1527,24.3877,-28.2051
539,-503,24.494,27.4559,0.00783996,0.00617191,-0.00512909,0.0122024,0.00180948,-0.7048,0.00760388,0.0288103,1763,1527,24.494,-27.4559
546,-503,24.5004,26.7308,0.00606872,0.00458084,-0.00374626,0.00914419,0.00150536,-0.687383,0.00566145,0.0142757,1770,1527,24.5003,-26.7308
553,-503,24.5208,26.1068,0.00474453,0.00317281,-0.00262048,0.00669445,0.00122289,-0.63972,0.00411634,0.0148273,1777,1527,24.5207,-26.1068
560,-503,24.4979,25.4938,0.00378794,0.00204738,-0.00179709,0.00491439,0.00092094,-0.559905,0.00301651,0.0144871,1784,1527,24.4979,-25.4938
567,-503,24.4763,24.8457,0.00323315,0.00130728,-0.00137635,0.00394998,0.000590457,-0.48016,0.00246023,0.0132428,1791,1527,24.4763,-24.8457
574,-503,24.444,24.2086,0.00293201,0.000836829,-0.00118325,0.00346478,0.00030406,-0.423068,0.00221547,0.0126432,1798,1527,24.444,-24.2086
581,-503,24.4165,23.592,0.00280183,0.000528865,-0.00114679,0.00327988,5.08134e-05,-0.394956,0.00216985,0.0148015,1805,1527,24.4165,-23.592
588,-503,24.3995,23.0006,0.00292989,0.000497602,-0.00134333,0.0035258,-9.83075e-05,-0.417525,0.00238398,0.0188323,1812,1527,24.3995,-23.0006
595,-503,24.3644,22.3635,0.00334345,0.000629627,-0.00167713,0.00414385,-0.000170768,-0.445275,0.00282121,0.0139999,1819,1527,24.3643,-22.3635
602,-503,24.3987,21.651,0.00390624,0.00107548,-0.00219757,0.00510478,-0.000123069,-0.499302,0.00344494,0.0252758,1826,1527,24.3987,-21.651
609,-503,24.443,20.8175,0,0,0,0,0,0,0,-1,1833,1527,24.443,-20.8175
616,-503,24.58,20.2893,0,0,0,0,0,0,0,-1,1840,1527,24.5799,-20.2893
623,-503,18.7351,15.5999,0,0,0,0,0,0,0,-1,1847,1527,18.7351,-15.5999
630,-503,20.6721,13.9077,0,0,0,0,0,0,0,-1,1854,1527,20.6721,-13.9077
637,-503,14.5564,9.20496,0,0,0,0,0,0,0,-1,1861,1527,14.5564,-9.2049
644,-503,11.4802,7.57214,0,0,0,0,0,0,0,-1,1868,1527,11.4802,-7.57215
651,-503,11.5718,6.5448,0,0,0,0,0,0,0,-1,1875,1527,11.5718,-6.54476
658,-503,8.25635,3.10498,0,0,0,0,0,0,0,-1,1882,1527,8.2563,-3.10493
665,-503,0,0,0,0,0,0,0,0,0,-1,1889,1527,0,0
672,-503,0,0,0,0,0,0,0,0,0,-1,1896,1527,0,0
679,-503,0,0,0,0,0,0,0,0,0,-1,1903,1527,0,0
686,-503,0,0,0,0,0,0,0,0,0,-1,1910,1527,0,0
693,-503,0,0,0,0,0,0,0,0,0,-1,1917,1527,0,0
700,-503,0,0,0,0,0,0,0,0,0,-1,1924,1527,0,0
707,-503,0,0,0,0,0,0,0,0,0,-1,1931,1527,0,0
714,-503,0,0,0,0,0,0,0,0,0,-1,1938,1527,0,0
721,-503,0,0,0,0,0,0,0,0,0,-1,1945,1527,0,0
728,-503,0,0,0,0,0,0,0,0,0,-1,1952,1527,0,0
735,-503,0,0,0,0,0,0,0,0,0,-1,1959,1527,0,0
742,-503,0,0,0,0,0,0,0,0,0,-1,1966,1527,0,0
749,-503,0,0,0,0,0,0,0,0,0,-1,1973,1527,0,0
756,-503,0,0,0,0,0,0,0,0,0,-1,1980,1527,0,0
763,-503,0,0,0,0,0,0,0,0,0,-1,1987,1527,0,0
770,-503,0,0,0,0,0,0,0,0,0,-1,1994,1527,0,0
777,-503,0,0,0,0,0,0,0,0,0,-1,2001,1527,0,0
784,-503,0,0,0,0,0,0,0,0,0,-1,2008,1527,0,0
791,-503,0,0,0,0,0,0,0,0,0,-1,2015,1527,0,0
798,-503,0,0,0,0,0,0,0,0,0,-1,2022,1527,0,0
805,-503,0,0,0,0,0,0,0,0,0,-1,2029,1527,0,0
812,-503,0,0,0,0,0,0,0,0,0,-1,2036,1527,0,0
-700,-510,0,0,0,0,0,0,0,0,0,-1,524,1534,0,0
-693,-510,0,0,0,0,0,0,0,0,0,-1,531,1534,0,0
-686,-510,0,0,0,0,0,0,0,0,0,-1,538,1534,0,0
-679,-510,0,0,0,0,0,0,0,0,0,-1,545,1534,0,0
-672,-510,0,0,0,0,0,0,0,0,0,-1,552,1534,0,0
-665,-510,0,0,0,0,0,0,0,0,0,-1,559,1534,0,0
-658,-510,0,0,0,0,0,0,0,0,0,-1,566,1534,0,0
-651,-510,0,0,0,0,0,0,0,0,0,-1,573,1534,0,0
-644,-510,0,0,0,0,0,0,0,0,0,-1,580,1534,0,0
-637,-510,0,0,0,0,0,0,0,0,0,-1,587,1534,0,0
-630,-510,0,0,0,0,0,0,0,0,0,-1,594,1534,0,0
-623,-510,0,0,0,0,0,0,0,0,0,-1,601,1534,0,0
-616,-510,0,0,0,0,0,0,0,0,0,-1,608,1534,0,0
-609,-510,0,0,0,0,0,0,0,0,0,-1,615,1534,0,0
-602,-510,0,0,0,0,0,0,0,0,0,-1,622,1534,0,0
-595,-510,0,0,0,0,0,0,0,0,0,-1,629,1534,0,0
-588,-510,0,0,0,0,0,0,0,0,0,-1,636,1534,0,0
-581,-510,0,0,0,0,0,0,0,0,0,-1,643,1534,0,0
-574,-510,0,0,0,0,0,0,0,0,0,-1,650,1534,0,0
-567,-510,0,0,0,0,0,0,0,0,0,-1,657,1534,0,0
-560,-510,0,0,0,0,0,0,0,0,0,-1,664,1534,0,0
-553,-510,0,0,0,0,0,0,0,0,0,-1,671,1534,0,0
-546,-510,0,0,0,0,0,0,0,0,0,-1,678,1534,0,0
-539,-510,0,0,0,0,0,0,0,0,0,-1,685,1534,0,0
-532,-510,-3.95129,4.52014,0,0,0,0,0,0,0,-1,692,1534,-3.95131,-4.5202
-525,-510,-2.77411,0.316772,0,0,0,0,0,0,0,-1,699,1534,-2.77409,-0.3168
-518,-510,-2.86847,2.71423,0,0,0,0,0,0,0,-1,706,1534,-2.86849,-2.71424
-511,-510,-2.28571,4.48083,0,0,0,0,0,0,0,-1,713,1534,-2.28571,-4.48086
-504,-510,-4.86731,10.8224,0,0,0,0,0,0,0,-1,720,1534,-4.8673,-10.8224
-497,-510,-3.42352,15.5178,0,0,0,0,0,0,0,-1,727,1534,-3.42352,-15.5178
-490,-510,-5.54712,17.8553,0,0,0,0,0,0,0,-1,734,1534,-5.54713,-17.8553
-483,-510,-5.19861,19.1221,0,0,0,0,0,0,0,-1,741,1534,-5.19859,-19.122
-476,-510,-5.66376,19.9447,0.00497341,-0.00793224,0.00851218,0.00920216,-0.012161,0.461075,0.0123734,0.044808,748,1534,-5.66373,-19.9447
-469,-510,-5.98615,20.6627,0.00432553,-0.00664441,0.00664932,0.00746021,-0.00977909,0.440531,0.00998308,0.0179194,755,1534,-5.98616,-20.6627
-462,-510,-6.02759,21.3151,0.00359541,-0.00527505,0.00499257,0.00583828,-0.00751793,0.422223,0.00773151,0.0123897,762,1534,-6.02758,-21.3151
-455,-510,-6.06616,22.0199,0.00288107,-0.00393116,0.00359765,0.00442922,-0.00547931,0.406369,0.00573139,0.0149003,769,1534,-6.06618,-22.0199
-448,-510,-6.05286,22.6949,0.0022592,-0.00258992,0.00252748,0.00333701,-0.00366773,0.403089,0.00404569,0.013537,776,1534,-6.05285,-22.6949
-441,-510,-6.07861,23.3367,0.00183317,-0.00125697,0.00183118,0.00268403,-0.00210783,0.434969,0.00277324,0.0138088,783,1534,-6.07863,-23.3367
-434,-510,-6.14868,23.962,0.00169905,0.000327979,0.00165217,0.00280226,-0.000775239,0.588744,0.00217318,0.0151892,790,1534,-6.14866,-23.962
-427,-510,-6.22266,24.5795,0.001843,0.00186753,0.00179218,0.00364749,6.30419e-05,0.788819,0.00241092,0.0240855,797,1534,-6.22264,-24.5795
-420,-510,-6.22723,25.2789,0.00234417,0.00342512,0.0023177,0.00526453,0.000504767,0.899949,0.00335411,0.0228482,804,1534,-6.22724,-25.2789
-413,-510,-6.21503,25.9539,0.00327233,0.00516995,0.00336519,0.00771753,0.000724752,0.922806,0.00492126,0.0116871,811,1534,-6.21504,-25.9539
-406,-510,-6.25763,26.603,0.00499862,0.00725559,0.0052851,0.0115313,0.000722867,0.89058,0.00745829,0.0106379,818,1534,-6.25765,-26.603
-399,-510,-6.29779,27.2565,0.00725122,0.00942444,0.00727307,0.0156916,0.000984041,0.859551,0.010149,0.0158828,825,1534,-6.29779,-27.2565
-392,-510,-6.21027,27.9054,0,0,0,0,0,0,0,-1,832,1534,-6.21028,-27.9053
-385,-510,-5.92932,29.2134,0,0,0,0,0,0,0,-1,839,1534,-5.92931,-29.2134
-378,-510,-1.78308,13.8044,0,0,0,0,0,0,0,-1,846,1534,-1.78309,-13.8044
-371,-510,-1.74982,13.8027,0,0,0,0,0,0,0,-1,853,1534,-1.74981,-13.8028
-364,-510,-1.3479,13.7771,0,0,0,0,0,0,0,-1,860,1534,-1.34791,-13.7771
-357,-510,-0.254395,8.89575,0,0,0,0,0,0,0,-1,867,1534,-0.254397,-8.89569
-350,-510,0.471191,6.06458,0,0,0,0,0,0,0,-1,874,1534,0.47118,-6.06453
-343,-510,-6.96869,26.3074,0,0,0,0,0,0,0,-1,881,1534,-6.9687,-26.3074
-336,-510,-5.60437,29.5996,0,0,0,0,0,0,0,-1,888,1534,-5.60435,-29.5996
-329,-510,-4.87781,20.6893,0,0,0,0,0,0,0,-1,895,1534,-4.87782,-20.6894
-322,-510,-0.251526,11.973,0,0,0,0,0,0,0,-1,902,1534,-0.251497,-11.9731
-315,-510,-1.73047,10.9796,0,0,0,0,0,0,0,-1,909,1534,-1.73049,-10.9796
-308,-510,-2.05328,9.72034,0,0,0,0,0,0,0,-1,916,1534,-2.05327,-9.72036
-301,-510,-1.85437,11.5869,0,0,0,0,0,0,0,-1,923,1534,-1.85437,-11.5869
-294,-510,0,0,0,0,0,0,0,0,0,-1,930,1534,0,0
-287,-510,0,0,0,0,0,0,0,0,0,-1,937,1534,0,0
-280,-510,0,0,0,0,0,0,0,0,0,-1,944,1534,0,0
-273,-510,0,0,0,0,0,0,0,0,0,-1,951,1534,0,0
-266,-510,0,0,0,0,0,0,0,0,0,-1,958,1534,0,0
-259,-510,0,0,0,0,0,0,0,0,0,-1,965,1534,0,0
-252,-510,0,0,0,0,0,0,0,0,0,-1,972,1534,0,0
-245,-510,0,0,0,0,0,0,0,0,0,-1,979,1534,0,0
-238,-510,0,0,0,0,0,0,0,0,0,-1,986,1534,0,0
-231,-510,0,0,0,0,0,0,0,0,0,-1,993,1534,0,0
-224,-510,0,0,0,0,0,0,0,0,0,-1,1000,1534,0,0
-217,-510,0,0,0,0,0,0,0,0,0,-1,1007,1534,0,0
-210,-510,0,0,0,0,0,0,0,0,0,-1,1014,1534,0,0
-203,-510,0,0,0,0,0,0,0,0,0,-1,1021,1534,0,0
-196,-510,0,0,0,0,0,0,0,0,0,-1,1028,1534,0,0
-189,-510,0,0,0,0,0,0,0,0,0,-1,1035,1534,0,0
-182,-510,0,0,0,0,0,0,0,0,0,-1,1042,1534,0,0
-175,-510,0,0,0,0,0,0,0,0,0,-1,1049,1534,0,0
-168,-510,0,0,0,0,0,0,0,0,0,-1,1056,1534,0,0
-161,-510,0,0,0,0,0,0,0,0,0,-1,1063,1534,0,0
-154,-510,0,0,0,0,0,0,0,0,0,-1,1070,1534,0,0
-147,-510,0,0,0,0,0,0,0,0,0,-1,1077,1534,0,0
-140,-510,0,0,0,0,0,0,0,0,0,-1,1084,1534,0,0
-133,-510,0,0,0,0,0,0,0,0,0,-1,1091,1534,0,0
-126,-510,0,0,0,0,0,0,0,0,0,-1,1098,1534,0,0
-119,-510,0,0,0,0,0,0,0,0,0,-1,1105,1534,0,0
-112,-510,0,0,0,0,0,0,0,0,0,-1,1112,1534,0,0
-105,-510,0,0,0,0,0,0,0,0,0,-1,1119,1534,0,0
-98,-510,0,0,0,0,0,0,0,0,0,-1,1126,1534,0,0
-91,-510,0,0,0,0,0,0,0,0,0,-1,1133,1534,0,0
-84,-510,0,0,0,0,0,0,0,0,0,-1,1140,1534,0,0
-77,-510,0,0,0,0,0,0,0,0,0,-1,1147,1534,0,0
-70,-510,0,0,0,0,0,0,0,0,0,-1,1154,1534,0,0
-63,-510,0,0,0,0,0,0,0,0,0,-1,1161,1534,0,0
-56,-510,0,0,0,0,0,0,0,0,0,-1,1168,1534,0,0
-49,-510,0,0,0,0,0,0,0,0,0,-1,1175,1534,0,0
-42,-510,0,0,0,0,0,0,0,0,0,-1,1182,1534,0,0
-35,-510,0,0,0,0,0,0,0,0,0,-1,1189,1534,0,0
-28,-510,0,0,0,0,0,0,0,0,0,-1,1196,1534,0,0
-21,-510,0,0,0,0,0,0,0,0,0,-1,1203,1534,0,0
-14,-510,0,0,0,0,0,0,0,0,0,-1,1210,1534,0,0
-7,-510,0,0,0,0,0,0,0,0,0,-1,1217,1534,0,0
0,-510,0,0,0,0,0,0,0,0,0,-1,1224,1534,0,0
7,-510,0,0,0,0,0,0,0,0,0,-1,1231,1534,0,0
14,-510,0,0,0,0,0,0,0,0,0,-1,1238,1534,0,0
21,-510,0,0,0,0,0,0,0,0,0,-1,1245,1534,0,0
28,-510,0,0,0,0,0,0,0,0,0,-1,1252,1534,0,0
35,-510,0,0,0,0,0,0,0,0,0,-1,1259,1534,0,0
42,-510,0,0,0,0,0,0,0,0,0,-1,1266,1534,0,0
49,-510,0,0,0,0,0,0,0,0,0,-1,1273,1534,0,0
56,-510,0,0,0,0,0,0,0,0,0,-1,1280,1534,0,0
63,-510,0,0,0,0,0,0,0,0,0,-1,1287,1534,0,0
70,-510,0,0,0,0,0,0,0,0,0,-1,1294,1534,0,0
77,-510,0,0,0,0,0,0,0,0,0,-1,1301,1534,0,0
84,-510,0,0,0,0,0,0,0,0,0,-1,1308,1534,0,0
91,-510,0,0,0,0,0,0,0,0,0,-1,1315,1534,0,0
98,-510,0,0,0,0,0,0,0,0,0,-1,1322,1534,0,0
105,-510,0,0,0,0,0,0,0,0,0,-1,1329,1534,0,0
112,-510,0,0,0,0,0,0,0,0,0,-1,1336,1534,0,0
119,-510,0,0,0,0,0,0,0,0,0,-1,1343,1534,0,0
126,-510,0,0,0,0,0,0,0,0,0,-1,1350,1534,0,0
133,-510,0,0,0,0,0,0,0,0,0,-1,1357,1534,0,0
140,-510,0,0,0,0,0,0,0,0,0,-1,1364,1534,0,0
147,-510,0,0,0,0,0,0,0,0,0,-1,1371,1534,0,0
154,-510,0,0,0,0,0,0,0,0,0,-1,1378,1534,0,0
161,-510,0,0,0,0,0,0,0,0,0,-1,1385,1534,0,0
168,-510,0,0,0,0,0,0,0,0,0,-1,1392,1534,0,0
175,-510,0,0,0,0,0,0,0,0,0,-1,1399,1534,0,0
182,-510,0,0,0,0,0,0,0,0,0,-1,1406,1534,0,0
189,-510,0,0,0,0,0,0,0,0,0,-1,1413,1534,0,0
196,-510,0,0,0,0,0,0,0,0,0,-1,1420,1534,0,0
203,-510,0,0,0,0,0,0,0,0,0,-1,1427,1534,0,0
210,-510,0,0,0,0,0,0,0,0,0,-1,1434,1534,0,0
217,-510,0,0,0,0,0,0,0,0,0,-1,1441,1534,0,0
224,-510,0,0,0,0,0,0,0,0,0,-1,1448,1534,0,0
231,-510,0,0,0,0,0,0,0,0,0,-1,1455,1534,0,0
238,-510,0,0,0,0,0,0,0,0,0,-1,1462,1534,0,0
245,-510,0,0,0,0,0,0,0,0,0,-1,1469,1534,0,0
252,-510,0,0,0,0,0,0,0,0,0,-1,1476,1534,0,0
259,-510,0,0,0,0,0,0,0,0,0,-1,1483,1534,0,0
266,-510,0,0,0,0,0,0,0,0,0,-1,1490,1534,0,0
273,-510,0,0,0,0,0,0,0,0,0,-1,1497,1534,0,0
280,-510,0,0,0,0,0,0,0,0,0,-1,1504,1534,0,0
287,-510,0,0,0,0,0,0,0,0,0,-1,1511,1534,0,0
294,-510,0,0,0,0,0,0,0,0,0,-1,1518,1534,0,0
301,-510,0,0,0,0,0,0,0,0,0,-1,1525,1534,0,0
308,-510,0,0,0,0,0,0,0,0,0,-1,1532,1534,0,0
315,-510,0,0,0,0,0,0,0,0,0,-1,1539,1534,0,0
322,-510,0,0,0,0,0,0,0,0,0,-1,1546,1534,0,0
329,-510,0,0,0,0,0,0,0,0,0,-1,1553,1534,0,0
336,-510,0,0,0,0,0,0,0,0,0,-1,1560,1534,0,0
343,-510,0,0,0,0,0,0,0,0,0,-1,1567,1534,0,0
350,-510,0,0,0,0,0,0,0,0,0,-1,1574,1534,0,0
357,-510,0,0,0,0,0,0,0,0,0,-1,1581,1534,0,0
364,-510,0,0,0,0,0,0,0,0,0,-1,1588,1534,0,0
371,-510,0,0,0,0,0,0,0,0,0,-1,1595,1534,0,0
378,-510,0,0,0,0,0,0,0,0,0,-1,1602,1534,0,0
385,-510,0,0,0,0,0,0,0,0,0,-1,1609,1534,0,0
392,-510,0,0,0,0,0,0,0,0,0,-1,1616,1534,0,0
399,-510,0,0,0,0,0,0,0,0,0,-1,1623,1534,0,0
406,-510,0,0,0,0,0,0,0,0,0,-1,1630,1534,0,0
413,-510,0,0,0,0,0,0,0,0,0,-1,1637,1534,0,0
420,-510,14.1888,6.71936,0,0,0,0,0,0,0,-1,1644,1534,14.1889,-6.71939
427,-510,10.2134,5.59485,0,0,0,0,0,0,0,-1,1651,1534,10.2134,-5.59485
434,-510,11.8219,4.07898,0,0,0,0,0,0,0,-1,1658,1534,11.8219,-4.07895
441,-510,12.6812,3.02991,0,0,0,0,0,0,0,-1,1665,1534,12.6811,-3.0299
448,-510,13.2379,2.2804,0,0,0,0,0,0,0,-1,1672,1534,13.2379,-2.28037
455,-510,9.76892,2.20642,0,0,0,0,0,0,0,-1,1679,1534,9.76894,-2.20647
462,-510,9.84692,2.49182,0,0,0,0,0,0,0,-1,1686,1534,9.84695,-2.49185
469,-510,16.6072,7.26941,0,0,0,0,0,0,0,-1,1693,1534,16.6072,-7.26945
476,-510,15.9199,7.8645,0,0,0,0,0,0,0,-1,1700,1534,15.9199,-7.86455
483,-510,13.0833,8.10938,0,0,0,0,0,0,0,-1,1707,1534,13.0833,-8.10932
490,-510,13.0841,15.3286,0,0,0,0,0,0,0,-1,1714,1534,13.0841,-15.3286
497,-510,15.5652,18.823,0,0,0,0,0,0,0,-1,1721,1534,15.5652,-18.823
504,-510,15.998,18.7478,0,0,0,0,0,0,0,-1,1728,1534,15.998,-18.7478
511,-510,15.9443,18.0476,0,0,0,0,0,0,0,-1,1735,1534,15.9443,-18.0476
518,-510,21.5343,27.1368,0,0,0,0,0,0,0,-1,1742,1534,21.5342,-27.1368
525,-510,23.5535,28.9319,0,0,0,0,0,0,0,-1,1749,1534,23.5534,-28.9318
532,-510,23.9042,28.0732,0.0083138,0.00735229,-0.00590634,0.0137589,0.00190717,-0.744789,0.0086076,0.0284061,1756,1534,23.9042,-28.0733
539,-510,23.9725,27.3403,0.00639005,0.00542829,-0.00435922,0.0102948,0.0015235,-0.730464,0.00641597,0.0141681,1763,1534,23.9725,-27.3403
546,-510,23.9189,26.7546,0.00495375,0.00392622,-0.00317273,0.00765404,0.00122593,-0.705129,0.00474711,0.0138923,1770,1534,23.9189,-26.7547
553,-510,23.9004,26.1317,0.00386366,0.00260526,-0.00217641,0.00549999,0.000968929,-0.644685,0.00339016,0.014052,1777,1534,23.9004,-26.1318
560,-510,23.8545,25.5026,0.00313341,0.00152996,-0.00144211,0.00398167,0.000681699,-0.531703,0.00245892,0.0141417,1784,1534,23.8544,-25.5026
567,-510,23.8185,24.8634,0.00280518,0.000844357,-0.00110552,0.00330239,0.000347143,-0.422652,0.00209549,0.0140524,1791,1534,23.8184,-24.8634
574,-510,23.7944,24.2422,0.00271731,0.00039696,-0.000966409,0.00306709,4.71848e-05,-0.347266,0.00202918,0.0150683,1798,1534,23.7945,-24.2421
581,-510,23.7841,23.6527,0.00284839,0.000128369,-0.00101367,0.00318459,-0.000207839,-0.320256,0.00219562,0.0132652,1805,1534,23.7841,-23.6527
588,-510,23.7657,23.036,0.00325379,0.000171819,-0.00132531,0.00374532,-0.000319702,-0.355147,0.00260998,0.0143563,1812,1534,23.7658,-23.036
595,-510,23.8704,22.2731,0.00391525,0.000436426,-0.00181169,0.00468737,-0.000335689,-0.402874,0.00324261,0.0206556,1819,1534,23.8703,-22.2731
602,-510,23.9126,21.5518,0,0,0,0,0,0,0,-1,1826,1534,23.9126,-21.5518
609,-510,21.259,19.222,0,0,0,0,0,0,0,-1,1833,1534,21.259,-19.222
616,-510,18.7024,16.2474,0,0,0,0,0,0,0,-1,1840,1534,18.7024,-16.2474
623,-510,19.6013,14.6211,0,0,0,0,0,0,0,-1,1847,1534,19.6013,-14.6211
630,-510,13.7461,9.30334,0,0,0,0,0,0,0,-1,1854,1534,13.7461,-9.30335
637,-510,11.0155,7.38464,0,0,0,0,0,0,0,-1,1861,1534,11.0155,-7.38463
644,-510,11.5809,7.17126,0,0,0,0,0,0,0,-1,1868,1534,11.5809,-7.17123
651,-510,8.70471,3.5061,0,0,0,0,0,0,0,-1,1875,1534,8.70475,-3.50611
658,-510,0,0,0,0,0,0,0,0,0,-1,1882,1534,0,0
665,-510,0,0,0,0,0,0,0,0,0,-1,1889,1534,0,0
672,-510,0,0,0,0,0,0,0,0,0,-1,1896,1534,0,0
679,-510,0,0,0,0,0,0,0,0,0,-1,1903,1534,0,0
686,-510,0,0,0,0,0,0,0,0,0,-1,1910,1534,0,0
693,-510,0,0,0,0,0,0,0,0,0,-1,1917,1534,0,0
700,-510,0,0,0,0,0,0,0,0,0,-1,1924,1534,0,0
707,-510,0,0,0,0,0,0,0,0,0,-1,1931,1534,0,0
714,-510,0,0,0,0,0,0,0,0,0,-1,1938,1534,0,0
721,-510,0,0,0,0,0,0,0,0,0,-1,1945,1534,0,0
728,-510,0,0,0,0,0,0,0,0,0,-1,1952,1534,0,0
735,-510,0,0,0,0,0,0,0,0,0,-1,1959,1534,0,0
742,-510,0,0,0,0,0,0,0,0,0,-1,1966,1534,0,0
749,-510,0,0,0,0,0,0,0,0,0,-1,1973,1534,0,0
756,-510,0,0,0,0,0,0,0,0,0,-1,1980,1534,0,0
763,-510,0,0,0,0,0,0,0,0,0,-1,1987,1534,0,0
770,-510,0,0,0,0,0,0,0,0,0,-1,1994,1534,0,0
777,-510,0,0,0,0,0,0,0,0,0,-1,2001,1534,0,0
784,-510,0,0,0,0,0,0,0,0,0,-1,2008,1534,0,0
791,-510,0,0,0,0,0,0,0,0,0,-1,2015,1534,0,0
798,-510,0,0,0,0,0,0,0,0,0,-1,2022,1534,0,0
805,-510,0,0,0,0,0,0,0,0,0,-1,2029,1534,0,0
812,-510,0,0,0,0,0,0,0,0,0,-1,2036,1534,0,0
-700,-517,0,0,0,0,0,0,0,0,0,-1,524,1541,0,0
-693,-517,0,0,0,0,0,0,0,0,0,-1,531,1541,0,0
-686,-517,0,0,0,0,0,0,0,0,0,-1,538,1541,0,0
-679,-517,0,0,0,0,0,0,0,0,0,-1,545,1541,0,0
-672,-517,0,0,0,0,0,0,0,0,0,-1,552,1541,0,0
-665,-517,0,0,0,0,0,0,0,0,0,-1,559,1541,0,0
-658,-517,0,0,0,0,0,0,0,0,0,-1,566,1541,0,0
-651,-517,0,0,0,0,0,0,0,0,0,-1,573,1541,0,0
-644,-517,0,0,0,0,0,0,0,0,0,-1,580,1541,0,0
-637,-517,0,0,0,0,0,0,0,0,0,-1,587,1541,0,0
-630,-517,0,0,0,0,0,0,0,0,0,-1,594,1541,0,0
-623,-517,0,0,0,0,0,0,0,0,0,-1,601,1541,0,0
-616,-517,0,0,0,0,0,0,0,0,0,-1,608,1541,0,0
-609,-517,0,0,0,0,0,0,0,0,0,-1,615,1541,0,0
-602,-517,0,0,0,0,0,0,0,0,0,-1,622,1541,0,0
-595,-517,0,0,0,0,0,0,0,0,0,-1,629,1541,0,0
-588,-517,0,0,0,0,0,0,0,0,0,-1,636,1541,0,0
-581,-517,0,0,0,0,0,0,0,0,0,-1,643,1541,0,0
-574,-517,0,0,0,0,0,0,0,0,0,-1,650,1541,0,0
-567,-517,0,0,0,0,0,0,0,0,0,-1,657,1541,0,0
-560,-517,0,0,0,0,0,0,0,0,0,-1,664,1541,0,0
-553,-517,0,0,0,0,0,0,0,0,0,-1,671,1541,0,0
-546,-517,0,0,0,0,0,0,0,0,0,-1,678,1541,0,0
-539,-517,0,0,0,0,0,0,0,0,0,-1,685,1541,0,0
-532,-517,0,0,0,0,0,0,0,0,0,-1,692,1541,0,0
-525,-517,-3.62903,4.3606,0,0,0,0,0,0,0,-1,699,1541,-3.62904,-4.36056
-518,-517,-1.664,2.27209,0,0,0,0,0,0,0,-1,706,1541,-1.66399,-2.27207
-511,-517,-0.999146,5.52063,0,0,0,0,0,0,0,-1,713,1541,-0.999126,-5.52059
-504,-517,-1.06946,8.67432,0,0,0,0,0,0,0,-1,720,1541,-1.06947,-8.6743
-497,-517,-5.43036,17.4033,0,0,0,0,0,0,0,-1,727,1541,-5.43033,-17.4034
-490,-517,-4.86951,18.6393,0,0,0,0,0,0,0,-1,734,1541,-4.8695,-18.6393
-483,-517,-4.89789,19.2325,0,0,0,0,0,0,0,-1,741,1541,-4.8979,-19.2326
-476,-517,-4.9964,19.9923,0.00841337,-0.00982777,0.0120124,0.0143753,-0.0157897,0.460696,0.0174221,0.0472905,748,1541,-4.9964,-19.9923
-469,-517,-5.23633,20.705,0.00714197,-0.0082614,0.00932452,0.0115342,-0.0126536,0.440213,0.0139698,0.0219823,755,1541,-5.23634,-20.7049
-462,-517,-5.38965,21.3213,0.00572089,-0.00670892,0.00691837,0.00880592,-0.00979395,0.419455,0.0107437,0.0221113,762,1541,-5.38966,-21.3213
-455,-517,-5.39288,22.03,0.00434898,-0.00524094,0.00488228,0.00639714,-0.0072891,0.397211,0.00790735,0.0152235,769,1541,-5.39289,-22.03
-448,-517,-5.38934,22.7292,0.00312833,-0.00386889,0.00325675,0.00440954,-0.0051501,0.374806,0.00552478,0.0133741,776,1541,-5.38935,-22.7293
-441,-517,-5.435,23.3627,0.00220394,-0.00251853,0.00213138,0.00302362,-0.00333821,0.36714,0.0036745,0.0117181,783,1541,-5.43497,-23.3627
-434,-517,-5.47504,24.0074,0.00165604,-0.00100409,0.00158188,0.00239271,-0.00174076,0.43583,0.00239634,0.0141125,790,1541,-5.47502,-24.0075
-427,-517,-5.52631,24.6631,0.00148112,0.000470521,0.00144567,0.00250726,-0.000555614,0.617271,0.00188422,0.014852,797,1541,-5.52632,-24.6631
-420,-517,-5.58679,25.3395,0.00179631,0.00195106,0.00169279,0.00356824,0.000179134,0.808237,0.00232142,0.0218274,804,1541,-5.58677,-25.3395
-413,-517,-5.58411,25.9684,0.00241459,0.00348227,0.00240583,0.00541278,0.000484079,0.894576,0.00345847,0.0114344,811,1541,-5.58412,-25.9684
-406,-517,-5.61163,26.6385,0.00369549,0.00527205,0.00379721,0.00836194,0.0006056,0.887742,0.00538412,0.0111951,818,1541,-5.61162,-26.6385
-399,-517,-5.63354,27.299,0.00545642,0.00714904,0.00536843,0.0117375,0.000868009,0.863578,0.00755228,0.0111097,825,1541,-5.63353,-27.299
-392,-517,-5.63074,27.9336,0.00697657,0.00912224,0.00673771,0.014872,0.00122681,0.864349,0.00953208,0.0188392,832,1541,-5.63076,-27.9336
-385,-517,-5.52332,28.9434,0.00835503,0.0109552,0.00816294,0.017921,0.00138931,0.864369,0.0115122,0.046988,839,1541,-5.52333,-28.9433
-378,-517,-5.38116,30.1383,0,0,0,0,0,0,0,-1,846,1541,-5.38114,-30.1383
-371,-517,-1.37585,13.2646,0,0,0,0,0,0,0,-1,853,1541,-1.37586,-13.2647
-364,-517,-1.26245,12.6289,0,0,0,0,0,0,0,-1,860,1541,-1.26243,-12.6289
-357,-517,-1.23889,12.979,0,0,0,0,0,0,0,-1,867,1541,-1.23891,-12.979
-350,-517,-5.40198,23.8954,0,0,0,0,0,0,0,-1,874,1541,-5.40196,-23.8954
-343,-517,-5.45844,29.2598,0,0,0,0,0,0,0,-1,881,1541,-5.45842,-29.2598
-336,-517,-4.53223,29.6708,0,0,0,0,0,0,0,-1,888,1541,-4.53221,-29.6708
-329,-517,-3.60602,30.0817,0,0,0,0,0,0,0,-1,895,1541,-3.60601,-30.0817
-322,-517,-4.21246,19.5819,0,0,0,0,0,0,0,-1,902,1541,-4.21244,-19.5819
-315,-517,-0.987976,7.29749,0,0,0,0,0,0,0,-1,909,1541,-0.987993,-7.29743
-308,-517,3.27911,17.621,0,0,0,0,0,0,0,-1,916,1541,3.27913,-17.621
-301,-517,-1.69141,8.87488,0,0,0,0,0,0,0,-1,923,1541,-1.69141,-8.87485
-294,-517,-1.72583,9.92566,0,0,0,0,0,0,0,-1,930,1541,-1.72584,-9.92571
-287,-517,-3.09045,12.1472,0,0,0,0,0,0,0,-1,937,1541,-3.09043,-12.1472
-280,-517,0,0,0,0,0,0,0,0,0,-1,944,1541,0,0
-273,-517,0,0,0,0,0,0,0,0,0,-1,951,1541,0,0
-266,-517,0,0,0,0,0,0,0,0,0,-1,958,1541,0,0
-259,-517,0,0,0,0,0,0,0,0,0,-1,965,1541,0,0
-252,-517,0,0,0,0,0,0,0,0,0,-1,972,1541,0,0
-245,-517,0,0,0,0,0,0,0,0,0,-1,979,1541,0,0
-238,-517,0,0,0,0,0,0,0,0,0,-1,986,1541,0,0
-231,-517,0,0,0,0,0,0,0,0,0,-1,993,1541,0,0
-224,-517,0,0,0,0,0,0,0,0,0,-1,1000,1541,0,0
-217,-517,0,0,0,0,0,0,0,0,0,-1,1007,1541,0,0
-210,-517,0,0,0,0,0,0,0,0,0,-1,1014,1541,0,0
-203,-517,0,0,0,0,0,0,0,0,0,-1,1021,1541,0,0
-196,-517,0,0,0,0,0,0,0,0,0,-1,1028,1541,0,0
-189,-517,0,0,0,0,0,0,0,0,0,-1,1035,1541,0,0
-182,-517,0,0,0,0,0,0,0,0,0,-1,1042,1541,0,0
-175,-517,0,0,0,0,0,0,0,0,0,-1,1049,1541,0,0
-168,-517,0,0,0,0,0,0,0,0,0,-1,1056,1541,0,0
-161,-517,0,0,0,0,0,0,0,0,0,-1,1063,1541,0,0
-154,-517,0,0,0,0,0,0,0,0,0,-1,1070,1541,0,0
-147,-517,0,0,0,0,0,0,0,0,0,-1,1077,1541,0,0
-140,-517,0,0,0,0,0,0,0,0,0,-1,1084,1541,0,0
-133,-517,0,0,0,0,0,0,0,0,0,-1,1091,1541,0,0
-126,-517,0,0,0,0,0,0,0,0,0,-1,1098,1541,0,0
-119,-517,0,0,0,0,0,0,0,0,0,-1,1105,1541,0,0
-112,-517,0,0,0,0,0,0,0,0,0,-1,1112,1541,0,0
-105,-517,0,0,0,0,0,0,0,0,0,-1,1119,1541,0,0
-98,-517,0,0,0,0,0,0,0,0,0,-1,1126,1541,0,0
-91,-517,0,0,0,0,0,0,0,0,0,-1,1133,1541,0,0
-84,-517,0,0,0,0,0,0,0,0,0,-1,1140,1541,0,0
-77,-517,0,0,0,0,0,0,0,0,0,-1,1147,1541,0,0
-70,-517,0,0,0,0,0,0,0,0,0,-1,1154,1541,0,0
-63,-517,0,0,0,0,0,0,0,0,0,-1,1161,1541,0,0
-56,-517,0,0,0,0,0,0,0,0,0,-1,1168,1541,0,0
-49,-517,0,0,0,0,0,0,0,0,0,-1,1175,1541,0,0
-42,-517,0,0,0,0,0,0,0,0,0,-1,1182,1541,0,0
-35,-517,0,0,0,0,0,0,0,0,0,-1,1189,1541,0,0
-28,-517,0,0,0,0,0,0,0,0,0,-1,1196,1541,0,0
-21,-517,0,0,0,0,0,0,0,0,0,-1,1203,1541,0,0
-14,-517,0,0,0,0,0,0,0,0,0,-1,1210,1541,0,0
-7,-517,0,0,0,0,0,0,0,0,0,-1,1217,1541,0,0
0,-517,0,0,0,0,0,0,0,0,0,-1,1224,1541,0,0
7,-517,0,0,0,0,0,0,0,0,0,-1,1231,1541,0,0
14,-517,0,0,0,0,0,0,0,0,0,-1,1238,1541,0,0
21,-517,0,0,0,0,0,0,0,0,0,-1,1245,1541,0,0
28,-517,0,0,0,0,0,0,0,0,0,-1,1252,1541,0,0
35,-517,0,0,0,0,0,0,0,0,0,-1,1259,1541,0,0
42,-517,0,0,0,0,0,0,0,0,0,-1,1266,1541,0,0
49,-517,0,0,0,0,0,0,0,0,0,-1,1273,1541,0,0
56,-517,0,0,0,0,0,0,0,0,0,-1,1280,1541,0,0
63,-517,0,0,0,0,0,0,0,0,0,-1,1287,1541,0,0
70,-517,0,0,0,0,0,0,0,0,0,-1,1294,1541,0,0
77,-517,0,0,0,0,0,0,0,0,0,-1,1301,1541,0,0
84,-517,0,0,0,0,0,0,0,0,0,-1,1308,1541,0,0
91,-517,0,0,0,0,0,0,0,0,0,-1,1315,1541,0,0
98,-517,0,0,0,0,0,0,0,0,0,-1,1322,1541,0,0
105,-517,0,0,0,0,0,0,0,0,0,-1,1329,1541,0,0
112,-517,0,0,0,0,0,0,0,0,0,-1,1336,1541,0,0
119,-517,0,0,0,0,0,0,0,0,0,-1,1343,1541,0,0
126,-517,0,0,0,0,0,0,0,0,0,-1,1350,1541,0,0
133,-517,0,0,0,0,0,0,0,0,0,-1,1357,1541,0,0
140,-517,0,0,0,0,0,0,0,0,0,-1,1364,1541,0,0
147,-517,0,0,0,0,0,0,0,0,0,-1,1371,1541,0,0
154,-517,0,0,0,0,0,0,0,0,0,-1,1378,1541,0,0
161,-517,0,0,0,0,0,0,0,0,0,-1,1385,1541,0,0
168,-517,0,0,0,0,0,0,0,0,0,-1,1392,1541,0,0
175,-517,0,0,0,0,0,0,0,0,0,-1,1399,1541,0,0
182,-517,0,0,0,0,0,0,0,0,0,-1,1406,1541,0,0
189,-517,0,0,0,0,0,0,0,0,0,-1,1413,1541,0,0
196,-517,0,0,0,0,0,0,0,0,0,-1,1420,1541,0,0
203,-517,0,0,0,0,0,0,0,0,0,-1,1427,1541,0,0
210,-517,0,0,0,0,0,0,0,0,0,-1,1434,1541,0,0
217,-517,0,0,0,0,0,0,0,0,0,-1,1441,1541,0,0
224,-517,0,0,0,0,0,0,0,0,0,-1,1448,1541,0,0
231,-517,0,0,0,0,0,0,0,0,0,-1,1455,1541,0,0
238,-517,0,0,0,0,0,0,0,0,0,-1,1462,1541,0,0
245,-517,0,0,0,0,0,0,0,0,0,-1,1469,1541,0,0
252,-517,0,0,0,0,0,0,0,0,0,-1,1476,1541,0,0
259,-517,0,0,0,0,0,0,0,0,0,-1,1483,1541,0,0
266,-517,0,0,0,0,0,0,0,0,0,-1,1490,1541,0,0
273,-517,0,0,0,0,0,0,0,0,0,-1,1497,1541,0,0
280,-517,0,0,0,0,0,0,0,0,0,-1,1504,1541,0,0
287,-517,0,0,0,0,0,0,0,0,0,-1,1511,1541,0,0
294,-517,0,0,0,0,0,0,0,0,0,-1,1518,1541,0,0
301,-517,0,0,0,0,0,0,0,0,0,-1,1525,1541,0,0
308,-517,0,0,0,0,0,0,0,0,0,-1,1532,1541,0,0
315,-517,0,0,0,0,0,0,0,0,0,-1,1539,1541,0,0
322,-517,0,0,0,0,0,0,0,0,0,-1,1546,1541,0,0
329,-517,0,0,0,0,0,0,0,0,0,-1,1553,1541,0,0
336,-517,0,0,0,0,0,0,0,0,0,-1,1560,1541,0,0
343,-517,0,0,0,0,0,0,0,0,0,-1,1567,1541,0,0
350,-517,0,0,0,0,0,0,0,0,0,-1,1574,1541,0,0
357,-517,0,0,0,0,0,0,0,0,0,-1,1581,1541,0,0
364,-517,0,0,0,0,0,0,0,0,0,-1,1588,1541,0,0
371,-517,0,0,0,0,0,0,0,0,0,-1,1595,1541,0,0
378,-517,0,0,0,0,0,0,0,0,0,-1,1602,1541,0,0
385,-517,0,0,0,0,0,0,0,0,0,-1,1609,1541,0,0
392,-517,0,0,0,0,0,0,0,0,0,-1,1616,1541,0,0
399,-517,0,0,0,0,0,0,0,0,0,-1,1623,1541,0,0
406,-517,13.1395,7.01978,0,0,0,0,0,0,0,-1,1630,1541,13.1396,-7.01981
413,-517,12.8859,6.31592,0,0,0,0,0,0,0,-1,1637,1541,12.8858,-6.31588
420,-517,12.4789,6.20337,0,0,0,0,0,0,0,-1,1644,1541,12.4789,-6.20333
427,-517,11.647,4.66516,0,0,0,0,0,0,0,-1,1651,1541,11.647,-4.66519
434,-517,12.3719,3.92773,0,0,0,0,0,0,0,-1,1658,1541,12.3719,-3.92776
441,-517,13.146,3.14124,0,0,0,0,0,0,0,-1,1665,1541,13.146,-3.14121
448,-517,13.8861,2.36682,0,0,0,0,0,0,0,-1,1672,1541,13.8861,-2.36684
455,-517,13.6012,4.06335,0,0,0,0,0,0,0,-1,1679,1541,13.6012,-4.06335
462,-517,14.8956,7.0752,0,0,0,0,0,0,0,-1,1686,1541,14.8956,-7.07525
469,-517,13.6292,6.87744,0,0,0,0,0,0,0,-1,1693,1541,13.6292,-6.87739
476,-517,17.1632,14.1487,0,0,0,0,0,0,0,-1,1700,1541,17.1632,-14.1487
483,-517,16.5157,15.0776,0,0,0,0,0,0,0,-1,1707,1541,16.5157,-15.0777
490,-517,15.5439,18.0258,0,0,0,0,0,0,0,-1,1714,1541,15.5439,-18.0258
497,-517,16.0292,18.7786,0,0,0,0,0,0,0,-1,1721,1541,16.0291,-18.7786
504,-517,17.3815,22.3873,0,0,0,0,0,0,0,-1,1728,1541,17.3814,-22.3873
511,-517,16.9674,21.8491,0,0,0,0,0,0,0,-1,1735,1541,16.9674,-21.8491
518,-517,22.9921,29.3846,0,0,0,0,0,0,0,-1,1742,1541,22.992,-29.3846
525,-517,23.2029,28.6991,0.00880321,0.00814694,-0.00669815,0.0151813,0.00176889,-0.760923,0.00958577,0.0256506,1749,1541,23.2029,-28.6991
532,-517,23.3728,27.9539,0.00679586,0.00625406,-0.00509207,0.0116242,0.00142569,-0.758823,0.00732068,0.0126931,1756,1541,23.3728,-27.9538
539,-517,23.3635,27.3398,0.00522654,0.00460195,-0.0037198,0.00864713,0.00118136,-0.743519,0.0054141,0.0134214,1763,1541,23.3635,-27.3399
546,-517,23.3287,26.7562,0.00401887,0.00318722,-0.00260405,0.00624008,0.000966004,-0.706225,0.00387836,0.0147024,1770,1541,23.3287,-26.7562
553,-517,23.2975,26.1493,0.00308439,0.00193455,-0.00162866,0.00423662,0.000782316,-0.615725,0.00260313,0.0183745,1777,1541,23.2975,-26.1493
560,-517,23.2605,25.5472,0.00250745,0.000890438,-0.000888503,0.00290024,0.000497645,-0.416252,0.00179081,0.0175025,1784,1541,23.2605,-25.5472
567,-517,23.2302,24.9255,0.002328,0.000211722,-0.000534463,0.00245532,8.44041e-05,-0.233858,0.00160948,0.0139627,1791,1541,23.2303,-24.9255
574,-517,23.2063,24.2725,0.00239528,-0.000263609,-0.000367765,0.00244521,-0.000313539,-0.134941,0.00174407,0.0151067,1798,1541,23.2063,-24.2724
581,-517,23.1621,23.6561,0.00276097,-0.000542516,-0.000440965,0.00281882,-0.000600365,-0.130443,0.00210803,0.0161618,1805,1541,23.1622,-23.6561
588,-517,23.1541,23.0416,0.00344081,-0.000485087,-0.000816027,0.00360367,-0.000647948,-0.19699,0.00264502,0.0171924,1812,1541,23.154,-23.0416
595,-517,23.1946,22.4518,0.0043465,-0.000139237,-0.00143427,0.00476588,-0.000558622,-0.284473,0.00337889,0.0454289,1819,1541,23.1946,-22.4518
602,-517,23.46,21.5824,0,0,0,0,0,0,0,-1,1826,1541,23.46,-21.5824
609,-517,12.6417,10.8751,0,0,0,0,0,0,0,-1,1833,1541,12.6417,-10.8751
616,-517,14.205,10.3193,0,0,0,0,0,0,0,-1,1840,1541,14.205,-10.3194
623,-517,12.578,10.0779,0,0,0,0,0,0,0,-1,1847,1541,12.578,-10.0779
630,-517,11.7035,7.47815,0,0,0,0,0,0,0,-1,1854,1541,11.7035,-7.47812
637,-517,11.5172,5.79822,0,0,0,0,0,0,0,-1,1861,1541,11.5173,-5.79825
644,-517,11.4232,3.30579,0,0,0,0,0,0,0,-1,1868,1541,11.4232,-3.30574
651,-517,0,0,0,0,0,0,0,0,0,-1,1875,1541,0,0
658,-517,0,0,0,0,0,0,0,0,0,-1,1882,1541,0,0
665,-517,0,0,0,0,0,0,0,0,0,-1,1889,1541,0,0
672,-517,0,0,0,0,0,0,0,0,0,-1,1896,1541,0,0
679,-517,0,0,0,0,0,0,0,0,0,-1,1903,1541,0,0
686,-517,0,0,0,0,0,0,0,0,0,-1,1910,1541,0,0
693,-517,0,0,0,0,0,0,0,0,0,-1,1917,1541,0,0
700,-517,0,0,0,0,0,0,0,0,0,-1,1924,1541,0,0
707,-517,0,0,0,0,0,0,0,0,0,-1,1931,1541,0,0
714,-517,0,0,0,0,0,0,0,0,0,-1,1938,1541,0,0
721,-517,0,0,0,0,0,0,0,0,0,-1,1945,1541,0,0
728,-517,0,0,0,0,0,0,0,0,0,-1,1952,1541,0,0
735,-517,0,0,0,0,0,0,0,0,0,-1,1959,1541,0,0
742,-517,0,0,0,0,0,0,0,0,0,-1,1966,1541,0,0
749,-517,0,0,0,0,0,0,0,0,0,-1,1973,1541,0,0
756,-517,0,0,0,0,0,0,0,0,0,-1,1980,1541,0,0
763,-517,0,0,0,0,0,0,0,0,0,-1,1987,1541,0,0
770,-517,0,0,0,0,0,0,0,0,0,-1,1994,1541,0,0
777,-517,0,0,0,0,0,0,0,0,0,-1,2001,1541,0,0
784,-517,0,0,0,0,0,0,0,0,0,-1,2008,1541,0,0
791,-517,0,0,0,0,0,0,0,0,0,-1,2015,1541,0,0
798,-517,0,0,0,0,0,0,0,0,0,-1,2022,1541,0,0
805,-517,0,0,0,0,0,0,0,0,0,-1,2029,1541,0,0
812,-517,0,0,0,0,0,0,0,0,0,-1,2036,1541,0,0
-700,-524,0,0,0,0,0,0,0,0,0,-1,524,1548,0,0
-693,-524,0,0,0,0,0,0,0,0,0,-1,531,1548,0,0
-686,-524,0,0,0,0,0,0,0,0,0,-1,538,1548,0,0
-679,-524,0,0,0,0,0,0,0,0,0,-1,545,1548,0,0
-672,-524,0,0,0,0,0,0,0,0,0,-1,552,1548,0,0
-665,-524,0,0,0,0,0,0,0,0,0,-1,559,1548,0,0
-658,-524,0,0,0,0,0,0,0,0,0,-1,566,1548,0,0
-651,-524,0,0,0,0,0,0,0,0,0,-1,573,1548,0,0
-644,-524,0,0,0,0,0,0,0,0,0,-1,580,1548,0,0
-637,-524,0,0,0,0,0,0,0,0,0,-1,587,1548,0,0
-630,-524,0,0,0,0,0,0,0,0,0,-1,594,1548,0,0
-623,-524,0,0,0,0,0,0,0,0,0,-1,601,1548,0,0
-616,-524,0,0,0,0,0,0,0,0,0,-1,608,1548,0,0
-609,-524,0,0,0,0,0,0,0,0,0,-1,615,1548,0,0
-602,-524,0,0,0,0,0,0,0,0,0,-1,622,1548,0,0
-595,-524,0,0,0,0,0,0,0,0,0,-1,629,1548,0,0
-588,-524,0,0,0,0,0,0,0,0,0,-1,636,1548,0,0
-581,-524,0,0,0,0,0,0,0,0,0,-1,643,1548,0,0
-574,-524,0,0,0,0,0,0,0,0,0,-1,650,1548,0,0
-567,-524,0,0,0,0,0,0,0,0,0,-1,657,1548,0,0
-560,-524,0,0,0,0,0,0,0,0,0,-1,664,1548,0,0
-553,-524,0,0,0,0,0,0,0,0,0,-1,671,1548,0,0
-546,-524,0,0,0,0,0,0,0,0,0,-1,678,1548,0,0
-539,-524,0,0,0,0,0,0,0,0,0,-1,685,1548,0,0
-532,-524,0,0,0,0,0,0,0,0,0,-1,692,1548,0,0
-525,-524,-0.215515,3.97131,0,0,0,0,0,0,0,-1,699,1548,-0.215501,-3.97136
-518,-524,-0.806274,4.35632,0,0,0,0,0,0,0,-1,706,1548,-0.806259,-4.35633
-511,-524,-1.08301,4.29004,0,0,0,0,0,0,0,-1,713,1548,-1.08301,-4.29006
-504,-524,-1.28821,3.98145,0,0,0,0,0,0,0,-1,720,1548,-1.28822,-3.98151
-497,-524,-0.328491,8.63416,0,0,0,0,0,0,0,-1,727,1548,-0.328487,-8.63411
-490,-524,-4.31104,18.693,0,0,0,0,0,0,0,-1,734,1548,-4.31101,-18.6929
-483,-524,-4.59723,19.343,0,0,0,0,0,0,0,-1,741,1548,-4.59721,-19.3431
-476,-524,-4.73346,20.3726,0.0137048,-0.0116564,0.0167361,0.0220217,-0.0199733,0.4612,0.0242554,0.0461649,748,1548,-4.73349,-20.3726
-469,-524,-4.76001,20.9426,0.0112495,-0.00983137,0.0128044,0.0172938,-0.0158757,0.441038,0.0191562,0.0400106,755,1548,-4.76002,-20.9426
-462,-524,-4.66895,21.5723,0.00870549,-0.00811519,0.00935515,0.012875,-0.0122847,0.419265,0.0145273,0.034414,762,1548,-4.66896,-21.5722
-455,-524,-4.8042,22.1113,0.00635142,-0.00650321,0.00649076,0.00905867,-0.00921047,0.395155,0.0105478,0.0277013,769,1548,-4.80418,-22.1113
-448,-524,-4.76428,22.7639,0.00429531,-0.00510955,0.00417796,0.00588321,-0.00669745,0.363204,0.00726852,0.0142703,776,1548,-4.76427,-22.7639
-441,-524,-4.78564,23.4025,0.00274222,-0.00371699,0.00256482,0.00363678,-0.00461154,0.335585,0.00477324,0.0110552,783,1548,-4.78564,-23.4024
-434,-524,-4.80548,24.0482,0.00170664,-0.00226481,0.00160874,0.00227653,-0.00283469,0.34045,0.00295682,0.0122888,790,1548,-4.80545,-24.0482
-427,-524,-4.84589,24.7084,0.00118933,-0.000830268,0.00119309,0.00174259,-0.00138353,0.434207,0.00180883,0.0135122,797,1548,-4.84591,-24.7084
-420,-524,-4.89764,25.3701,0.00130524,0.00061234,0.00117826,0.00218693,-0.000269348,0.64241,0.00155553,0.0115522,804,1548,-4.89766,-25.3701
-413,-524,-4.90875,26.027,0.00163156,0.00197651,0.00158909,0.00340246,0.00020561,0.839455,0.00220297,0.0108807,811,1548,-4.90872,-26.027
-406,-524,-4.935,26.683,0.00251585,0.00352191,0.00249777,0.0055668,0.000470957,0.884766,0.0035646,0.0118538,818,1548,-4.93502,-26.683
-399,-524,-4.9693,27.3208,0.0038867,0.00517106,0.00374684,0.00833035,0.000727406,0.87027,0.00532767,0.00941616,825,1548,-4.96932,-27.3208
-392,-524,-4.99402,27.9344,0.0051862,0.00676081,0.00485407,0.010891,0.001056,0.865795,0.00693552,0.0106511,832,1548,-4.99403,-27.9345
-385,-524,-5.02423,28.6066,0.00641324,0.00817508,0.00593469,0.0132939,0.00129445,0.859078,0.00846416,0.0176778,839,1548,-5.02421,-28.6065
-378,-524,-5.04779,29.3396,0,0,0,0,0,0,0,-1,846,1548,-5.04782,-29.3397
-371,-524,-4.20789,29.1592,0,0,0,0,0,0,0,-1,853,1548,-4.2079,-29.1592
-364,-524,-0.712097,14.9871,0,0,0,0,0,0,0,-1,860,1548,-0.712116,-14.9871
-357,-524,-1.34052,14.7448,0,0,0,0,0,0,0,-1,867,1548,-1.34054,-14.7447
-350,-524,-4.31909,25.032,0,0,0,0,0,0,0,-1,874,1548,-4.31906,-25.0319
-343,-524,-3.69696,28.6923,0,0,0,0,0,0,0,-1,881,1548,-3.69694,-28.6922
-336,-524,-3.4873,29.655,0,0,0,0,0,0,0,-1,888,1548,-3.48728,-29.6551
-329,-524,-3.21936,30.5509,0,0,0,0,0,0,0,-1,895,1548,-3.21933,-30.5509
-322,-524,-4.31378,25.6389,0,0,0,0,0,0,0,-1,902,1548,-4.31379,-25.639
-315,-524,-1.90839,19.4824,0,0,0,0,0,0,0,-1,909,1548,-1.90838,-19.4824
-308,-524,-2.36938,19.3059,0,0,0,0,0,0,0,-1,916,1548,-2.3694,-19.3058
-301,-524,2.72394,17.7618,0,0,0,0,0,0,0,-1,923,1548,2.72396,-17.7619
-294,-524,-1.52515,9.05408,0,0,0,0,0,0,0,-1,930,1548,-1.52512,-9.05411
-287,-524,-0.962219,10.3199,0,0,0,0,0,0,0,-1,937,1548,-0.962241,-10.32
-280,-524,-1.36255,10.3859,0,0,0,0,0,0,0,-1,944,1548,-1.36253,-10.3859
-273,-524,0,0,0,0,0,0,0,0,0,-1,951,1548,0,0
-266,-524,0,0,0,0,0,0,0,0,0,-1,958,1548,0,0
-259,-524,0,0,0,0,0,0,0,0,0,-1,965,1548,0,0
-252,-524,0,0,0,0,0,0,0,0,0,-1,972,1548,0,0
-245,-524,0,0,0,0,0,0,0,0,0,-1,979,1548,0,0
-238,-524,0,0,0,0,0,0,0,0,0,-1,986,1548,0,0
-231,-524,0,0,0,0,0,0,0,0,0,-1,993,1548,0,0
-224,-524,0,0,0,0,0,0,0,0,0,-1,1000,1548,0,0
-217,-524,0,0,0,0,0,0,0,0,0,-1,1007,1548,0,0
-210,-524,0,0,0,0,0,0,0,0,0,-1,1014,1548,0,0
-203,-524,0,0,0,0,0,0,0,0,0,-1,1021,1548,0,0
-196,-524,0,0,0,0,0,0,0,0,0,-1,1028,1548,0,0
-189,-524,0,0,0,0,0,0,0,0,0,-1,1035,1548,0,0
-182,-524,0,0,0,0,0,0,0,0,0,-1,1042,1548,0,0
-175,-524,0,0,0,0,0,0,0,0,0,-1,1049,1548,0,0
-168,-524,0,0,0,0,0,0,0,0,0,-1,1056,1548,0,0
-161,-524,0,0,0,0,0,0,0,0,0,-1,1063,1548,0,0
-154,-524,0,0,0,0,0,0,0,0,0,-1,1070,1548,0,0
-147,-524,0,0,0,0,0,0,0,0,0,-1,1077,1548,0,0
-140,-524,0,0,0,0,0,0,0,0,0,-1,1084,1548,0,0
-133,-524,0,0,0,0,0,0,0,0,0,-1,1091,1548,0,0
-126,-524,0,0,0,0,0,0,0,0,0,-1,1098,1548,0,0
-119,-524,0,0,0,0,0,0,0,0,0,-1,1105,1548,0,0
-112,-524,0,0,0,0,0,0,0,0,0,-1,1112,1548,0,0
-105,-524,0,0,0,0,0,0,0,0,0,-1,1119,1548,0,0
-98,-524,0,0,0,0,0,0,0,0,0,-1,1126,1548,0,0
-91,-524,0,0,0,0,0,0,0,0,0,-1,1133,1548,0,0
-84,-524,0,0,0,0,0,0,0,0,0,-1,1140,1548,0,0
-77,-524,0,0,0,0,0,0,0,0,0,-1,1147,1548,0,0
-70,-524,0,0,0,0,0,0,0,0,0,-1,1154,1548,0,0
-63,-524,0,0,0,0,0,0,0,0,0,-1,1161,1548,0,0
-56,-524,0,0,0,0,0,0,0,0,0,-1,1168,1548,0,0
-49,-524,0,0,0,0,0,0,0,0,0,-1,1175,1548,0,0
-42,-524,0,0,0,0,0,0,0,0,0,-1,1182,1548,0,0
-35,-524,0,0,0,0,0,0,0,0,0,-1,1189,1548,0,0
-28,-524,0,0,0,0,0,0,0,0,0,-1,1196,1548,0,0
-21,-524,0,0,0,0,0,0,0,0,0,-1,1203,1548,0,0
-14,-524,0,0,0,0,0,0,0,0,0,-1,1210,1548,0,0
-7,-524,0,0,0,0,0,0,0,0,0,-1,1217,1548,0,0
0,-524,0,0,0,0,0,0,0,0,0,-1,1224,1548,0,0
7,-524,0,0,0,0,0,0,0,0,0,-1,1231,1548,0,0
14,-524,0,0,0,0,0,0,0,0,0,-1,1238,1548,0,0
21,-524,0,0,0,0,0,0,0,0,0,-1,1245,1548,0,0
28,-524,0,0,0,0,0,0,0,0,0,-1,1252,1548,0,0
35,-524,0,0,0,0,0,0,0,0,0,-1,1259,1548,0,0
42,-524,0,0,0,0,0,0,0,0,0,-1,1266,1548,0,0
49,-524,0,0,0,0,0,0,0,0,0,-1,1273,1548,0,0
56,-524,0,0,0,0,0,0,0,0,0,-1,1280,1548,0,0
63,-524,0,0,0,0,0,0,0,0,0,-1,1287,1548,0,0
70,-524,0,0,0,0,0,0,0,0,0,-1,1294,1548,0,0
77,-524,0,0,0,0,0,0,0,0,0,-1,1301,1548,0,0
84,-524,0,0,0,0,0,0,0,0,0,-1,1308,1548,0,0
91,-524,0,0,0,0,0,0,0,0,0,-1,1315,1548,0,0
98,-524,0,0,0,0,0,0,0,0,0,-1,1322,1548,0,0
105,-524,0,0,0,0,0,0,0,0,0,-1,1329,1548,0,0
112,-524,0,0,0,0,0,0,0,0,0,-1,1336,1548,0,0
119,-524,0,0,0,0,0,0,0,0,0,-1,1343,1548,0,0
126,-524,0,0,0,0,0,0,0,0,0,-1,1350,1548,0,0
133,-524,0,0,0,0,0,0,0,0,0,-1,1357,1548,0,0
140,-524,0,0,0,0,0,0,0,0,0,-1,1364,1548,0,0
147,-524,0,0,0,0,0,0,0,0,0,-1,1371,1548,0,0
154,-524,0,0,0,0,0,0,0,0,0,-1,1378,1548,0,0
161,-524,0,0,0,0,0,0,0,0,0,-1,1385,1548,0,0
168,-524,0,0,0,0,0,0,0,0,0,-1,1392,1548,0,0
175,-524,0,0,0,0,0,0,0,0,0,-1,1399,1548,0,0
182,-524,0,0,0,0,0,0,0,0,0,-1,1406,1548,0,0
189,-524,0,0,0,0,0,0,0,0,0,-1,1413,1548,0,0
196,-524,0,0,0,0,0,0,0,0,0,-1,1420,1548,0,0
203,-524,0,0,0,0,0,0,0,0,0,-1,1427,1548,0,0
210,-524,0,0,0,0,0,0,0,0,0,-1,1434,1548,0,0
217,-524,0,0,0,0,0,0,0,0,0,-1,1441,1548,0,0
224,-524,0,0,0,0,0,0,0,0,0,-1,1448,1548,0,0
231,-524,0,0,0,0,0,0,0,0,0,-1,1455,1548,0,0
238,-524,0,0,0,0,0,0,0,0,0,-1,1462,1548,0,0
245,-524,0,0,0,0,0,0,0,0,0,-1,1469,1548,0,0
252,-524,0,0,0,0,0,0,0,0,0,-1,1476,1548,0,0
259,-524,0,0,0,0,0,0,0,0,0,-1,1483,1548,0,0
266,-524,0,0,0,0,0,0,0,0,0,-1,1490,1548,0,0
273,-524,0,0,0,0,0,0,0,0,0,-1,1497,1548,0,0
280,-524,0,0,0,0,0,0,0,0,0,-1,1504,1548,0,0
287,-524,0,0,0,0,0,0,0,0,0,-1,1511,1548,0,0
294,-524,0,0,0,0,0,0,0,0,0,-1,1518,1548,0,0
301,-524,0,0,0,0,0,0,0,0,0,-1,1525,1548,0,0
308,-524,0,0,0,0,0,0,0,0,0,-1,1532,1548,0,0
315,-524,0,0,0,0,0,0,0,0,0,-1,1539,1548,0,0
322,-524,0,0,0,0,0,0,0,0,0,-1,1546,1548,0,0
329,-524,0,0,0,0,0,0,0,0,0,-1,1553,1548,0,0
336,-524,0,0,0,0,0,0,0,0,0,-1,1560,1548,0,0
343,-524,0,0,0,0,0,0,0,0,0,-1,1567,1548,0,0
350,-524,0,0,0,0,0,0,0,0,0,-1,1574,1548,0,0
357,-524,0,0,0,0,0,0,0,0,0,-1,1581,1548,0,0
364,-524,0,0,0,0,0,0,0,0,0,-1,1588,1548,0,0
371,-524,0,0,0,0,0,0,0,0,0,-1,1595,1548,0,0
378,-524,0,0,0,0,0,0,0,0,0,-1,1602,1548,0,0
385,-524,0,0,0,0,0,0,0,0,0,-1,1609,1548,0,0
392,-524,0,0,0,0,0,0,0,0,0,-1,1616,1548,0,0
399,-524,8.81848,5.05774,0,0,0,0,0,0,0,-1,1623,1548,8.81843,-5.05769
406,-524,8.64294,6.06799,0,0,0,0,0,0,0,-1,1630,1548,8.6429,-6.06805
413,-524,11.677,6.41858,0,0,0,0,0,0,0,-1,1637,1548,11.677,-6.41864
420,-524,11.4913,6.36401,0,0,0,0,0,0,0,-1,1644,1548,11.4913,-6.36402
427,-524,7.68335,6.17249,0,0,0,0,0,0,0,-1,1651,1548,7.68341,-6.17245
434,-524,10.432,11.6801,0,0,0,0,0,0,0,-1,1658,1548,10.432,-11.68
441,-524,8.78552,4.12305,0,0,0,0,0,0,0,-1,1665,1548,8.78553,-4.12301
448,-524,14.1854,4.78674,0,0,0,0,0,0,0,-1,1672,1548,14.1854,-4.78674
455,-524,12.4784,3.65576,0,0,0,0,0,0,0,-1,1679,1548,12.4784,-3.65572
462,-524,14.7551,9.29395,0,0,0,0,0,0,0,-1,1686,1548,14.7552,-9.29397
469,-524,16.3314,14.3779,0,0,0,0,0,0,0,-1,1693,1548,16.3314,-14.3779
476,-524,15.9106,15.1875,0,0,0,0,0,0,0,-1,1700,1548,15.9107,-15.1876
483,-524,15.2776,16.2268,0,0,0,0,0,0,0,-1,1707,1548,15.2776,-16.2269
490,-524,15.2563,18.5848,0,0,0,0,0,0,0,-1,1714,1548,15.2564,-18.5848
497,-524,17.5173,22.6123,0,0,0,0,0,0,0,-1,1721,1548,17.5174,-22.6123
504,-524,22.3033,30.9452,0,0,0,0,0,0,0,-1,1728,1548,22.3033,-30.9452
511,-524,22.7344,30.0463,0,0,0,0,0,0,0,-1,1735,1548,22.7344,-30.0463
518,-524,22.7706,29.2477,0.0091318,0.00840954,-0.00710075,0.0158806,0.00166074,-0.759991,0.0100792,0.0277869,1742,1548,22.7707,-29.2477
525,-524,22.7683,28.6381,0.00717487,0.00663359,-0.00554291,0.0124537,0.00135472,-0.761005,0.00788979,0.0142983,1749,1548,22.7683,-28.638
532,-524,22.7612,27.9956,0.00545945,0.0050158,-0.00413688,0.00938045,0.0010948,-0.758613,0.00592253,0.0105542,1756,1548,22.7612,-27.9956
539,-524,22.7313,27.3571,0.00408129,0.00360949,-0.0028915,0.0067465,0.00094428,-0.744696,0.00421829,0.0117209,1763,1548,22.7313,-27.357
546,-524,22.6978,26.7875,0.00296529,0.00230044,-0.00180256,0.00446582,0.000799914,-0.694213,0.00274964,0.0153758,1770,1548,22.6978,-26.7874
553,-524,22.6864,26.2021,0.00207687,0.00113525,-0.000808931,0.00254202,0.000670096,-0.521854,0.00152133,0.0241609,1777,1548,22.6864,-26.2022
560,-524,22.6923,25.5946,0.00155212,0.000144999,-2.00437e-05,0.00155241,0.000144713,-0.0142406,0.000990231,0.0323233,1784,1548,22.6922,-25.5946
567,-524,22.5991,24.9517,0.00142728,-0.000525433,0.000418646,0.00151325,-0.000611403,0.202535,0.00126297,0.0178654,1791,1548,22.5992,-24.9517
574,-524,22.5891,24.2957,0.00158312,-0.00103994,0.000679835,0.00174884,-0.00120566,0.239111,0.00171537,0.0135805,1798,1548,22.5892,-24.2956
581,-524,22.5762,23.6639,0.00215497,-0.00134865,0.000639494,0.00226804,-0.00146173,0.175009,0.00217009,0.0157477,1805,1548,22.5762,-23.6639
588,-524,22.6188,23.0532,0.00313157,-0.00130668,0.000249845,0.00314559,-0.0013207,0.0560577,0.00264939,0.0277302,1812,1548,22.6188,-23.0533
595,-524,22.6606,22.2556,0,0,0,0,0,0,0,-1,1819,1548,22.6607,-22.2556
602,-524,13.837,12.0682,0,0,0,0,0,0,0,-1,1826,1548,13.837,-12.0683
609,-524,13.0056,10.5138,0,0,0,0,0,0,0,-1,1833,1548,13.0056,-10.5138
616,-524,11.6941,8.65515,0,0,0,0,0,0,0,-1,1840,1548,11.6941,-8.65514
623,-524,9.38452,5.15356,0,0,0,0,0,0,0,-1,1847,1548,9.38456,-5.15359
630,-524,11.0541,3.57434,0,0,0,0,0,0,0,-1,1854,1548,11.0541,-3.57438
637,-524,11.6067,3.20728,0,0,0,0,0,0,0,-1,1861,1548,11.6067,-3.20724
644,-524,12.2134,0.727173,0,0,0,0,0,0,0,-1,1868,1548,12.2134,-0.727222
651,-524,0,0,0,0,0,0,0,0,0,-1,1875,1548,0,0
658,-524,0,0,0,0,0,0,0,0,0,-1,1882,1548,0,0
665,-524,0,0,0,0,0,0,0,0,0,-1,1889,1548,0,0
672,-524,0,0,0,0,0,0,0,0,0,-1,1896,1548,0,0
679,-524,0,0,0,0,0,0,0,0,0,-1,1903,1548,0,0
686,-524,0,0,0,0,0,0,0,0,0,-1,1910,1548,0,0
693,-524,0,0,0,0,0,0,0,0,0,-1,1917,1548,0,0
700,-524,0,0,0,0,0,0,0,0,0,-1,1924,1548,0,0
707,-524,0,0,0,0,0,0,0,0,0,-1,1931,1548,0,0
714,-524,0,0,0,0,0,0,0,0,0,-1,1938,1548,0,0
721,-524,0,0,0,0,0,0,0,0,0,-1,1945,1548,0,0
728,-524,0,0,0,0,0,0,0,0,0,-1,1952,1548,0,0
735,-524,0,0,0,0,0,0,0,0,0,-1,1959,1548,0,0
742,-524,0,0,0,0,0,0,0,0,0,-1,1966,1548,0,0
749,-524,0,0,0,0,0,0,0,0,0,-1,1973,1548,0,0
756,-524,0,0,0,0,0,0,0,0,0,-1,1980,1548,0,0
763,-524,0,0,0,0,0,0,0,0,0,-1,1987,1548,0,0
770,-524,0,0,0,0,0,0,0,0,0,-1,1994,1548,0,0
777,-524,0,0,0,0,0,0,0,0,0,-1,2001,1548,0,0
784,-524,0,0,0,0,0,0,0,0,0,-1,2008,1548,0,0
791,-524,0,0,0,0,0,0,0,0,0,-1,2015,1548,0,0
798,-524,0,0,0,0,0,0,0,0,0,-1,2022,1548,0,0
805,-524,0,0,0,0,0,0,0,0,0,-1,2029,1548,0,0
812,-524,0,0,0,0,0,0,0,0,0,-1,2036,1548,0,0
-700,-531,0,0,0,0,0,0,0,0,0,-1,524,1555,0,0
-693,-531,0,0,0,0,0,0,0,0,0,-1,531,1555,0,0
-686,-531,0,0,0,0,0,0,0,0,0,-1,538,1555,0,0
-679,-531,0,0,0,0,0,0,0,0,0,-1,545,1555,0,0
-672,-531,0,0,0,0,0,0,0,0,0,-1,552,1555,0,0
-665,-531,0,0,0,0,0,0,0,0,0,-1,559,1555,0,0
-658,-531,0,0,0,0,0,0,0,0,0,-1,566,1555,0,0
-651,-531,0,0,0,0,0,0,0,0,0,-1,573,1555,0,0
-644,-531,0,0,0,0,0,0,0,0,0,-1,580,1555,0,0
-637,-531,0,0,0,0,0,0,0,0,0,-1,587,1555,0,0
-630,-531,0,0,0,0,0,0,0,0,0,-1,594,1555,0,0
-623,-531,0,0,0,0,0,0,0,0,0,-1,601,1555,0,0
-616,-531,0,0,0,0,0,0,0,0,0,-1,608,1555,0,0
-609,-531,0,0,0,0,0,0,0,0,0,-1,615,1555,0,0
-602,-531,0,0,0,0,0,0,0,0,0,-1,622,1555,0,0
-595,-531,0,0,0,0,0,0,0,0,0,-1,629,1555,0,0
-588,-531,0,0,0,0,0,0,0,0,0,-1,636,1555,0,0
-581,-531,0,0,0,0,0,0,0,0,0,-1,643,1555,0,0
-574,-531,0,0,0,0,0,0,0,0,0,-1,650,1555,0,0
-567,-531,0,0,0,0,0,0,0,0,0,-1,657,1555,0,0
-560,-531,0,0,0,0,0,0,0,0,0,-1,664,1555,0,0
-553,-531,0,0,0,0,0,0,0,0,0,-1,671,1555,0,0
-546,-531,0,0,0,0,0,0,0,0,0,-1,678,1555,0,0
-539,-531,0,0,0,0,0,0,0,0,0,-1,685,1555,0,0
-532,-531,0,0,0,0,0,0,0,0,0,-1,692,1555,0,0
-525,-531,0,0,0,0,0,0,0,0,0,-1,699,1555,0,0
-518,-531,-1.63983,4.03821,0,0,0,0,0,0,0,-1,706,1555,-1.63982,-4.03821
-511,-531,-2.9682,8.07483,0,0,0,0,0,0,0,-1,713,1555,-2.9682,-8.07479
-504,-531,-2.95978,0.557861,0,0,0,0,0,0,0,-1,720,1555,-2.95978,-0.557917
-497,-531,-2.46039,8.07422,0,0,0,0,0,0,0,-1,727,1555,-2.46039,-8.07423
-490,-531,-0.423462,7.92065,0,0,0,0,0,0,0,-1,734,1555,-0.42344,-7.92066
-483,-531,-4.28247,19.4189,0,0,0,0,0,0,0,-1,741,1555,-4.28248,-19.4189
-476,-531,-4.48926,20.7949,0,0,0,0,0,0,0,-1,748,1555,-4.48928,-20.7949
-469,-531,-4.48059,20.8925,0.016921,-0.0113612,0.0171664,0.0250208,-0.019461,0.440866,0.0257484,0.0483032,755,1555,-4.48056,-20.8924
-462,-531,-3.93372,21.7421,0.0126187,-0.0095145,0.0122751,0.0180792,-0.0149751,0.418563,0.0191119,0.0450324,762,1555,-3.93372,-21.7421
-455,-531,-4.24115,22.4395,0.00885423,-0.00776699,0.0083301,0.0123104,-0.0112231,0.393285,0.0135919,0.0424765,769,1555,-4.24114,-22.4395
-448,-531,-4.04572,22.7705,0.0056614,-0.00635326,0.00517055,0.00758014,-0.008272,0.355338,0.00915515,0.0222974,776,1555,-4.04569,-22.7705
-441,-531,-4.15118,23.4174,0.00331048,-0.00489706,0.00298352,0.0042804,-0.00586698,0.314315,0.00588241,0.0134902,783,1555,-4.15118,-23.4173
-434,-531,-4.16644,24.0958,0.00169721,-0.00348902,0.00157912,0.00214019,-0.003932,0.273493,0.00355629,0.0115721,790,1555,-4.16643,-24.0958
-427,-531,-4.19281,24.7535,0.000810534,-0.00205455,0.000889812,0.00106439,-0.0023084,0.27791,0.00199095,0.0133891,797,1555,-4.19281,-24.7535
-420,-531,-4.22906,25.415,0.000708787,-0.000604824,0.000647444,0.000974248,-0.000870286,0.38911,0.00106551,0.0124603,804,1555,-4.22909,-25.415
-413,-531,-4.25812,26.0695,0.000762521,0.000651087,0.0008133,0.00152201,-0.000108403,0.751198,0.00105267,0.0110077,811,1555,-4.25809,-26.0694
-406,-531,-4.29962,26.7162,0.00129973,0.00201837,0.0013269,0.00303374,0.000284357,0.917624,0.00193469,0.0125712,818,1555,-4.29962,-26.7162
-399,-531,-4.31793,27.3439,0.00237483,0.00351108,0.00237555,0.0053855,0.000500409,0.902771,0.0034357,0.0134648,825,1555,-4.3179,-27.3439
-392,-531,-4.32324,27.98,0.00356672,0.004836,0.00334353,0.00760459,0.000798128,0.879188,0.00482574,0.0171765,832,1555,-4.32324,-27.98
-385,-531,-4.37958,28.6261,0.0047415,0.00597397,0.00423462,0.00963696,0.00107852,0.857653,0.00609701,0.0155025,839,1555,-4.37957,-28.6261
-378,-531,-4.42181,29.2072,0.00585858,0.00752456,0.00512635,0.0118852,0.00149799,0.86594,0.00747431,0.0184208,846,1555,-4.42181,-29.2072
-371,-531,-4.43549,29.9106,0,0,0,0,0,0,0,-1,853,1555,-4.43549,-29.9107
-364,-531,-4.1991,30.7738,0,0,0,0,0,0,0,-1,860,1555,-4.19911,-30.7738
-357,-531,-4.29193,31.5354,0,0,0,0,0,0,0,-1,867,1555,-4.29191,-31.5354
-350,-531,-3.16101,27.5791,0,0,0,0,0,0,0,-1,874,1555,-3.16099,-27.5791
-343,-531,-2.90552,28.561,0,0,0,0,0,0,0,-1,881,1555,-2.90549,-28.5611
-336,-531,-2.6698,29.5398,0,0,0,0,0,0,0,-1,888,1555,-2.66983,-29.5398
-329,-531,-2.45148,30.4781,0,0,0,0,0,0,0,-1,895,1555,-2.45148,-30.4781
-322,-531,-3.25092,28.4921,0,0,0,0,0,0,0,-1,902,1555,-3.25092,-28.4921
-315,-531,-5.51929,31.7814,0,0,0,0,0,0,0,-1,909,1555,-5.51928,-31.7813
-308,-531,-1.66455,19.0624,0,0,0,0,0,0,0,-1,916,1555,-1.66455,-19.0623
-301,-531,-2.02405,18.8912,0,0,0,0,0,0,0,-1,923,1555,-2.02407,-18.8913
-294,-531,-1.3244,8.1825,0,0,0,0,0,0,0,-1,930,1555,-1.3244,-8.18251
-287,-531,-1.78192,10.1661,0,0,0,0,0,0,0,-1,937,1555,-1.78192,-10.1661
-280,-531,-2.14508,10.3945,0,0,0,0,0,0,0,-1,944,1555,-2.14506,-10.3945
-273,-531,-2.50818,10.6229,0,0,0,0,0,0,0,-1,951,1555,-2.5082,-10.6229
-266,-531,-4.97742,17.9215,0,0,0,0,0,0,0,-1,958,1555,-4.97744,-17.9215
-259,-531,0,0,0,0,0,0,0,0,0,-1,965,1555,0,0
-252,-531,0,0,0,0,0,0,0,0,0,-1,972,1555,0,0
-245,-531,0,0,0,0,0,0,0,0,0,-1,979,1555,0,0
-238,-531,0,0,0,0,0,0,0,0,0,-1,986,1555,0,0
-231,-531,0,0,0,0,0,0,0,0,0,-1,993,1555,0,0
-224,-531,0,0,0,0,0,0,0,0,0,-1,1000,1555,0,0
-217,-531,0,0,0,0,0,0,0,0,0,-1,1007,1555,0,0
-210,-531,0,0,0,0,0,0,0,0,0,-1,1014,1555,0,0
-203,-531,0,0,0,0,0,0,0,0,0,-1,1021,1555,0,0
-196,-531,0,0,0,0,0,0,0,0,0,-1,1028,1555,0,0
-189,-531,0,0,0,0,0,0,0,0,0,-1,1035,1555,0,0
-182,-531,0,0,0,0,0,0,0,0,0,-1,1042,1555,0,0
-175,-531,0,0,0,0,0,0,0,0,0,-1,1049,1555,0,0
-168,-531,0,0,0,0,0,0,0,0,0,-1,1056,1555,0,0
-161,-531,0,0,0,0,0,0,0,0,0,-1,1063,1555,0,0
-154,-531,0,0,0,0,0,0,0,0,0,-1,1070,1555,0,0
-147,-531,0,0,0,0,0,0,0,0,0,-1,1077,1555,0,0
-140,-531,0,0,0,0,0,0,0,0,0,-1,1084,1555,0,0
-133,-531,0,0,0,0,0,0,0,0,0,-1,1091,1555,0,0
-126,-531,0,0,0,0,0,0,0,0,0,-1,1098,1555,0,0
-119,-531,0,0,0,0,0,0,0,0,0,-1,1105,1555,0,0
-112,-531,0,0,0,0,0,0,0,0,0,-1,1112,1555,0,0
-105,-531,0,0,0,0,0,0,0,0,0,-1,1119,1555,0,0
-98,-531,0,0,0,0,0,0,0,0,0,-1,1126,1555,0,0
-91,-531,0,0,0,0,0,0,0,0,0,-1,1133,1555,0,0
-84,-531,0,0,0,0,0,0,0,0,0,-1,1140,1555,0,0
-77,-531,0,0,0,0,0,0,0,0,0,-1,1147,1555,0,0
-70,-531,0,0,0,0,0,0,0,0,0,-1,1154,1555,0,0
-63,-531,0,0,0,0,0,0,0,0,0,-1,1161,1555,0,0
-56,-531,0,0,0,0,0,0,0,0,0,-1,1168,1555,0,0
-49,-531,0,0,0,0,0,0,0,0,0,-1,1175,1555,0,0
-42,-531,0,0,0,0,0,0,0,0,0,-1,1182,1555,0,0
-35,-531,0,0,0,0,0,0,0,0,0,-1,1189,1555,0,0
-28,-531,0,0,0,0,0,0,0,0,0,-1,1196,1555,0,0
-21,-531,0,0,0,0,0,0,0,0,0,-1,1203,1555,0,0
-14,-531,0,0,0,0,0,0,0,0,0,-1,1210,1555,0,0
-7,-531,0,0,0,0,0,0,0,0,0,-1,1217,1555,0,0
0,-531,0,0,0,0,0,0,0,0,0,-1,1224,1555,0,0
7,-531,0,0,0,0,0,0,0,0,0,-1,1231,1555,0,0
14,-531,0,0,0,0,0,0,0,0,0,-1,1238,1555,0,0
21,-531,0,0,0,0,0,0,0,0,0,-1,1245,1555,0,0
28,-531,0,0,0,0,0,0,0,0,0,-1,1252,1555,0,0
35,-531,0,0,0,0,0,0,0,0,0,-1,1259,1555,0,0
42,-531,0,0,0,0,0,0,0,0,0,-1,1266,1555,0,0
49,-531,0,0,0,0,0,0,0,0,0,-1,1273,1555,0,0
56,-531,0,0,0,0,0,0,0,0,0,-1,1280,1555,0,0
63,-531,0,0,0,0,0,0,0,0,0,-1,1287,1555,0,0
70,-531,0,0,0,0,0,0,0,0,0,-1,1294,1555,0,0
77,-531,0,0,0,0,0,0,0,0,0,-1,1301,1555,0,0
84,-531,0,0,0,0,0,0,0,0,0,-1,1308,1555,0,0
91,-531,0,0,0,0,0,0,0,0,0,-1,1315,1555,0,0
98,-531,0,0,0,0,0,0,0,0,0,-1,1322,1555,0,0
105,-531,0,0,0,0,0,0,0,0,0,-1,1329,1555,0,0
112,-531,0,0,0,0,0,0,0,0,0,-1,1336,1555,0,0
119,-531,0,0,0,0,0,0,0,0,0,-1,1343,1555,0,0
126,-531,0,0,0,0,0,0,0,0,0,-1,1350,1555,0,0
133,-531,0,0,0,0,0,0,0,0,0,-1,1357,1555,0,0
140,-531,0,0,0,0,0,0,0,0,0,-1,1364,1555,0,0
147,-531,0,0,0,0,0,0,0,0,0,-1,1371,1555,0,0
154,-531,0,0,0,0,0,0,0,0,0,-1,1378,1555,0,0
161,-531,0,0,0,0,0,0,0,0,0,-1,1385,1555,0,0
168,-531,0,0,0,0,0,0,0,0,0,-1,1392,1555,0,0
175,-531,0,0,0,0,0,0,0,0,0,-1,1399,1555,0,0
182,-531,0,0,0,0,0,0,0,0,0,-1,1406,1555,0,0
189,-531,0,0,0,0,0,0,0,0,0,-1,1413,1555,0,0
196,-531,0,0,0,0,0,0,0,0,0,-1,1420,1555,0,0
203,-531,0,0,0,0,0,0,0,0,0,-1,1427,1555,0,0
210,-531,0,0,0,0,0,0,0,0,0,-1,1434,1555,0,0
217,-531,0,0,0,0,0,0,0,0,0,-1,1441,1555,0,0
224,-531,0,0,0,0,0,0,0,0,0,-1,1448,1555,0,0
231,-531,0,0,0,0,0,0,0,0,0,-1,1455,1555,0,0
238,-531,0,0,0,0,0,0,0,0,0,-1,1462,1555,0,0
245,-531,0,0,0,0,0,0,0,0,0,-1,1469,1555,0,0
252,-531,0,0,0,0,0,0,0,0,0,-1,1476,1555,0,0
259,-531,0,0,0,0,0,0,0,0,0,-1,1483,1555,0,0
266,-531,0,0,0,0,0,0,0,0,0,-1,1490,1555,0,0
273,-531,0,0,0,0,0,0,0,0,0,-1,1497,1555,0,0
280,-531,0,0,0,0,0,0,0,0,0,-1,1504,1555,0,0
287,-531,0,0,0,0,0,0,0,0,0,-1,1511,1555,0,0
294,-531,0,0,0,0,0,0,0,0,0,-1,1518,1555,0,0
301,-531,0,0,0,0,0,0,0,0,0,-1,1525,1555,0,0
308,-531,0,0,0,0,0,0,0,0,0,-1,1532,1555,0,0
315,-531,0,0,0,0,0,0,0,0,0,-1,1539,1555,0,0
322,-531,0,0,0,0,0,0,0,0,0,-1,1546,1555,0,0
329,-531,0,0,0,0,0,0,0,0,0,-1,1553,1555,0,0
336,-531,0,0,0,0,0,0,0,0,0,-1,1560,1555,0,0
343,-531,0,0,0,0,0,0,0,0,0,-1,1567,1555,0,0
350,-531,0,0,0,0,0,0,0,0,0,-1,1574,1555,0,0
357,-531,0,0,0,0,0,0,0,0,0,-1,1581,1555,0,0
364,-531,0,0,0,0,0,0,0,0,0,-1,1588,1555,0,0
371,-531,0,0,0,0,0,0,0,0,0,-1,1595,1555,0,0
378,-531,0,0,0,0,0,0,0,0,0,-1,1602,1555,0,0
385,-531,3.48169,1.78625,0,0,0,0,0,0,0,-1,1609,1555,3.48165,-1.78624
392,-531,10.8781,9.09204,0,0,0,0,0,0,0,-1,1616,1555,10.8781,-9.09205
399,-531,8.26306,5.29602,0,0,0,0,0,0,0,-1,1623,1555,8.26302,-5.29607
406,-531,8.26147,5.42712,0,0,0,0,0,0,0,-1,1630,1555,8.26145,-5.42716
413,-531,8.20618,5.75012,0,0,0,0,0,0,0,-1,1637,1555,8.20619,-5.75017
420,-531,7.64868,7.09558,0,0,0,0,0,0,0,-1,1644,1555,7.64867,-7.09564
427,-531,9.93054,11.8412,0,0,0,0,0,0,0,-1,1651,1555,9.93059,-11.8412
434,-531,10.244,11.7072,0,0,0,0,0,0,0,-1,1658,1555,10.244,-11.7071
441,-531,11.4528,12.9397,0,0,0,0,0,0,0,-1,1665,1555,11.4528,-12.9397
448,-531,11.928,18.8029,0,0,0,0,0,0,0,-1,1672,1555,11.928,-18.8028
455,-531,14.4877,9.67065,0,0,0,0,0,0,0,-1,1679,1555,14.4876,-9.67066
462,-531,13.5253,12.2002,0,0,0,0,0,0,0,-1,1686,1555,13.5252,-12.2002
469,-531,15.5087,15.7894,0,0,0,0,0,0,0,-1,1693,1555,15.5086,-15.7895
476,-531,14.6582,16.2264,0,0,0,0,0,0,0,-1,1700,1555,14.6582,-16.2264
483,-531,14.755,18.5994,0,0,0,0,0,0,0,-1,1707,1555,14.7551,-18.5994
490,-531,16.9362,25.4943,0,0,0,0,0,0,0,-1,1714,1555,16.9362,-25.4942
497,-531,21.7706,31.9117,0,0,0,0,0,0,0,-1,1721,1555,21.7706,-31.9117
504,-531,22.0189,30.6451,0.0107311,0.0111495,-0.00847962,0.0194225,0.00245813,-0.797731,0.0122117,0.0438908,1728,1555,22.019,-30.6451
511,-531,22.1454,29.9292,0.00890889,0.00881081,-0.00701829,0.0158783,0.00184139,-0.781905,0.0100283,0.0174782,1735,1555,22.1454,-29.9292
518,-531,22.1605,29.2822,0.007079,0.00671944,-0.00541108,0.0123133,0.00148516,-0.768792,0.00776131,0.0148566,1742,1555,22.1606,-29.2823
525,-531,22.1656,28.6598,0.00538442,0.00512212,-0.00410246,0.00935783,0.00114871,-0.76942,0.00589309,0.0142136,1749,1555,22.1657,-28.6598
532,-531,22.1708,28.0385,0.0039115,0.00365127,-0.00289333,0.00667764,0.000885134,-0.762928,0.00418801,0.0109689,1756,1555,22.1708,-28.0385
539,-531,22.1204,27.4144,0.00272056,0.00239225,-0.0017914,0.00435531,0.000757502,-0.739709,0.00268687,0.0129776,1763,1555,22.1204,-27.4144
546,-531,22.0574,26.8016,0.00173524,0.00115313,-0.000765231,0.0022629,0.00062547,-0.603671,0.00134933,0.0165719,1770,1555,22.0574,-26.8017
553,-531,22.1129,26.2253,0.000969143,6.15505e-05,0.000197759,0.00101036,2.03319e-05,0.205487,0.0006669,0.0299012,1777,1555,22.113,-26.2254
560,-531,22.1166,25.6495,0.000580005,-0.00086371,0.000984506,0.00107894,-0.00136264,0.469061,0.00141282,0.0349198,1784,1555,22.1166,-25.6495
567,-531,21.9357,24.994,0.000586753,-0.0015125,0.00147954,0.00135117,-0.00227691,0.476885,0.00211728,0.0198576,1791,1555,21.9356,-24.994
574,-531,21.9067,24.3296,0.000915642,-0.00204507,0.0018188,0.00178039,-0.00290982,0.443813,0.00273394,0.0149863,1798,1555,21.9067,-24.3296
581,-531,21.9669,23.6687,0.00181207,-0.00233579,0.00179079,0.00247824,-0.00300196,0.356133,0.00316881,0.024378,1805,1555,21.9669,-23.6687
588,-531,22.007,23.0057,0.003267,-0.00225885,0.00139841,0.00360073,-0.00259258,0.234271,0.00359147,0.0403742,1812,1555,22.0069,-23.0058
595,-531,21.9302,22.3287,0,0,0,0,0,0,0,-1,1819,1555,21.9301,-22.3287
602,-531,13.701,11.8346,0,0,0,0,0,0,0,-1,1826,1555,13.701,-11.8347
609,-531,10.9072,8.50903,0,0,0,0,0,0,0,-1,1833,1555,10.9073,-8.50902
616,-531,10.5723,7.17859,0,0,0,0,0,0,0,-1,1840,1555,10.5723,-7.17855
623,-531,10.0674,5.08984,0,0,0,0,0,0,0,-1,1847,1555,10.0674,-5.08981
630,-531,11.672,3.18909,0,0,0,0,0,0,0,-1,1854,1555,11.672,-3.18904
637,-531,13.2546,1.38965,0,0,0,0,0,0,0,-1,1861,1555,13.2547,-1.3896
644,-531,0,0,0,0,0,0,0,0,0,-1,1868,1555,0,0
651,-531,0,0,0,0,0,0,0,0,0,-1,1875,1555,0,0
658,-531,0,0,0,0,0,0,0,0,0,-1,1882,1555,0,0
665,-531,0,0,0,0,0,0,0,0,0,-1,1889,1555,0,0
672,-531,0,0,0,0,0,0,0,0,0,-1,1896,1555,0,0
679,-531,0,0,0,0,0,0,0,0,0,-1,1903,1555,0,0
686,-531,0,0,0,0,0,0,0,0,0,-1,1910,1555,0,0
693,-531,0,0,0,0,0,0,0,0,0,-1,1917,1555,0,0
700,-531,0,0,0,0,0,0,0,0,0,-1,1924,1555,0,0
707,-531,0,0,0,0,0,0,0,0,0,-1,1931,1555,0,0
714,-531,0,0,0,0,0,0,0,0,0,-1,1938,1555,0,0
721,-531,0,0,0,0,0,0,0,0,0,-1,1945,1555,0,0
728,-531,0,0,0,0,0,0,0,0,0,-1,1952,1555,0,0
735,-531,0,0,0,0,0,0,0,0,0,-1,1959,1555,0,0
742,-531,0,0,0,0,0,0,0,0,0,-1,1966,1555,0,0
749,-531,0,0,0,0,0,0,0,0,0,-1,1973,1555,0,0
756,-531,0,0,0,0,0,0,0,0,0,-1,1980,1555,0,0
763,-531,0,0,0,0,0,0,0,0,0,-1,1987,1555,0,0
770,-531,0,0,0,0,0,0,0,0,0,-1,1994,1555,0,0
777,-531,0,0,0,0,0,0,0,0,0,-1,2001,1555,0,0
784,-531,0,0,0,0,0,0,0,0,0,-1,2008,1555,0,0
791,-531,0,0,0,0,0,0,0,0,0,-1,2015,1555,0,0
798,-531,0,0,0,0,0,0,0,0,0,-1,2022,1555,0,0
805,-531,0,0,0,0,0,0,0,0,0,-1,2029,1555,0,0
812,-531,0,0,0,0,0,0,0,0,0,-1,2036,1555,0,0
-700,-538,0,0,0,0,0,0,0,0,0,-1,524,1562,0,0
-693,-538,0,0,0,0,0,0,0,0,0,-1,531,1562,0,0
-686,-538,0,0,0,0,0,0,0,0,0,-1,538,1562,0,0
-679,-538,0,0,0,0,0,0,0,0,0,-1,545,1562,0,0
-672,-538,0,0,0,0,0,0,0,0,0,-1,552,1562,0,0
-665,-538,0,0,0,0,0,0,0,0,0,-1,559,1562,0,0
-658,-538,0,0,0,0,0,0,0,0,0,-1,566,1562,0,0
-651,-538,0,0,0,0,0,0,0,0,0,-1,573,1562,0,0
-644,-538,0,0,0,0,0,0,0,0,0,-1,580,1562,0,0
-637,-538,0,0,0,0,0,0,0,0,0,-1,587,1562,0,0
-630,-538,0,0,0,0,0,0,0,0,0,-1,594,1562,0,0
-623,-538,0,0,0,0,0,0,0,0,0,-1,601,1562,0,0
-616,-538,0,0,0,0,0,0,0,0,0,-1,608,1562,0,0
-609,-538,0,0,0,0,0,0,0,0,0,-1,615,1562,0,0
-602,-538,0,0,0,0,0,0,0,0,0,-1,622,1562,0,0
-595,-538,0,0,0,0,0,0,0,0,0,-1,629,1562,0,0
-588,-538,0,0,0,0,0,0,0,0,0,-1,636,1562,0,0
-581,-538,0,0,0,0,0,0,0,0,0,-1,643,1562,0,0
-574,-538,0,0,0,0,0,0,0,0,0,-1,650,1562,0,0
-567,-538,0,0,0,0,0,0,0,0,0,-1,657,1562,0,0
-560,-538,0,0,0,0,0,0,0,0,0,-1,664,1562,0,0
-553,-538,0,0,0,0,0,0,0,0,0,-1,671,1562,0,0
-546,-538,0,0,0,0,0,0,0,0,0,-1,678,1562,0,0
-539,-538,0,0,0,0,0,0,0,0,0,-1,685,1562,0,0
-532,-538,0,0,0,0,0,0,0,0,0,-1,692,1562,0,0
-525,-538,0,0,0,0,0,0,0,0,0,-1,699,1562,0,0
-518,-538,0,0,0,0,0,0,0,0,0,-1,706,1562,0,0
-511,-538,-2.6582,-1.54321,0,0,0,0,0,0,0,-1,713,1562,-2.65821,1.54327
-504,-538,-2.66455,-0.71167,0,0,0,0,0,0,0,-1,720,1562,-2.66456,0.711667
-497,-538,-0.763855,6.77747,0,0,0,0,0,0,0,-1,727,1562,-0.76385,-6.77743
-490,-538,-2.70453,8.01465,0,0,0,0,0,0,0,-1,734,1562,-2.70451,-8.0147
-483,-538,-0.933533,7.84644,0,0,0,0,0,0,0,-1,741,1562,-0.933548,-7.84638
-476,-538,-3.29962,15.8307,0,0,0,0,0,0,0,-1,748,1562,-3.29962,-15.8306
-469,-538,-4.18591,20.9452,0,0,0,0,0,0,0,-1,755,1562,-4.18588,-20.9452
-462,-538,-4.66071,21.6135,0.0170458,-0.0108939,0.0154524,0.023907,-0.0177552,0.417872,0.0241409,0.0454466,762,1562,-4.6607,-21.6135
-455,-538,-3.83472,22.4747,0.0114537,-0.00902583,0.0101998,0.0156669,-0.013239,0.39172,0.0167084,0.0425732,769,1562,-3.8347,-22.4748
-448,-538,-3.47144,22.7993,0,0,0,0,0,0,0,-1,776,1562,-3.47143,-22.7994
-441,-538,-3.4566,23.5667,0.00361417,-0.00603624,0.00328975,0.00462892,-0.00705099,0.299198,0.00679156,0.0269424,783,1562,-3.45659,-23.5666
-434,-538,-3.53326,24.1122,0.00138753,-0.00467402,0.00144211,0.00171313,-0.00499962,0.22206,0.00402747,0.0140031,790,1562,-3.53325,-24.1122
-427,-538,-3.56897,24.7905,0.000166088,-0.0031967,0.000531722,0.00024816,-0.00327878,0.153144,0.00227309,0.0141688,797,1562,-3.56898,-24.7906
-420,-538,-3.61902,25.441,-0.000122828,-0.0017021,0.000120184,-0.000113734,-0.0017112,0.0755211,0.00110484,0.01865,804,1562,-3.619,-25.4411
-413,-538,-3.67029,26.0929,-0.000278751,-0.000502613,0.000104385,-0.00023763,-0.000543734,0.375263,0.000314753,0.0184339,811,1562,-3.67026,-26.0929
-406,-538,-3.67505,26.7355,2.10778e-06,0.000730392,0.000304925,0.000841201,-0.000108701,1.22224,0.000600324,0.0152851,818,1562,-3.67505,-26.7355
-399,-538,-3.67999,27.3735,0.000915108,0.00210819,0.00123561,0.00288372,0.000139571,1.01029,0.00187769,0.0140889,825,1562,-3.68002,-27.3735
-392,-538,-3.66888,28.0183,0.00213672,0.00324276,0.0021338,0.00489403,0.000485442,0.912194,0.00311352,0.0148938,832,1562,-3.66888,-28.0183
-385,-538,-3.72583,28.66,0.00337556,0.00419713,0.00292206,0.00673713,0.000835554,0.855231,0.00424043,0.0127249,839,1562,-3.72585,-28.66
-378,-538,-3.76093,29.2889,0.00458039,0.00550166,0.00371851,0.00878796,0.00129409,0.847023,0.00547846,0.0100978,846,1562,-3.76093,-29.289
-371,-538,-3.789,29.8944,0.00576924,0.00664289,0.00453808,0.0107651,0.00164701,0.833379,0.00669561,0.0142874,853,1562,-3.78901,-29.8944
-364,-538,-3.72211,30.6071,0.00722914,0.00813637,0.00559261,0.0132937,0.00207178,0.825865,0.00825897,0.0211162,860,1562,-3.72213,-30.6071
-357,-538,-3.69446,31.3888,0.00889551,0.00991061,0.006828,0.0162499,0.00255622,0.822497,0.0100897,0.0498105,867,1562,-3.69443,-31.3888
-350,-538,-3.47272,32.4076,0,0,0,0,0,0,0,-1,874,1562,-3.47271,-32.4076
-343,-538,-2.47339,28.3082,0,0,0,0,0,0,0,-1,881,1562,-2.47341,-28.3083
-336,-538,-2.40161,28.5409,0,0,0,0,0,0,0,-1,888,1562,-2.40163,-28.541
-329,-538,-2.57159,28.4905,0,0,0,0,0,0,0,-1,895,1562,-2.57161,-28.4905
-322,-538,-2.83783,28.2308,0,0,0,0,0,0,0,-1,902,1562,-2.83783,-28.2308
-315,-538,-2.91827,27.7609,0,0,0,0,0,0,0,-1,909,1562,-2.91829,-27.7608
-308,-538,-4.37433,31.7996,0,0,0,0,0,0,0,-1,916,1562,-4.3743,-31.7995
-301,-538,-0.452393,18.5101,0,0,0,0,0,0,0,-1,923,1562,-0.452367,-18.5102
-294,-538,1.23138,14.0757,0,0,0,0,0,0,0,-1,930,1562,1.23137,-14.0757
-287,-538,-2.60419,10.2361,0,0,0,0,0,0,0,-1,937,1562,-2.6042,-10.2361
-280,-538,-2.93475,10.5106,0,0,0,0,0,0,0,-1,944,1562,-2.93475,-10.5106
-273,-538,-3.26532,10.785,0,0,0,0,0,0,0,-1,951,1562,-3.26531,-10.785
-266,-538,-5.03412,15.9951,0,0,0,0,0,0,0,-1,958,1562,-5.03409,-15.9951
-259,-538,-5.89642,16.5184,0,0,0,0,0,0,0,-1,965,1562,-5.89644,-16.5184
-252,-538,0,0,0,0,0,0,0,0,0,-1,972,1562,0,0
-245,-538,0,0,0,0,0,0,0,0,0,-1,979,1562,0,0
-238,-538,0,0,0,0,0,0,0,0,0,-1,986,1562,0,0
-231,-538,0,0,0,0,0,0,0,0,0,-1,993,1562,0,0
-224,-538,0,0,0,0,0,0,0,0,0,-1,1000,1562,0,0
-217,-538,0,0,0,0,0,0,0,0,0,-1,1007,1562,0,0
-210,-538,0,0,0,0,0,0,0,0,0,-1,1014,1562,0,0
-203,-538,0,0,0,0,0,0,0,0,0,-1,1021,1562,0,0
-196,-538,0,0,0,0,0,0,0,0,0,-1,1028,1562,0,0
-189,-538,0,0,0,0,0,0,0,0,0,-1,1035,1562,0,0
-182,-538,0,0,0,0,0,0,0,0,0,-1,1042,1562,0,0
-175,-538,0,0,0,0,0,0,0,0,0,-1,1049,1562,0,0
-168,-538,0,0,0,0,0,0,0,0,0,-1,1056,1562,0,0
-161,-538,0,0,0,0,0,0,0,0,0,-1,1063,1562,0,0
-154,-538,0,0,0,0,0,0,0,0,0,-1,1070,1562,0,0
-147,-538,0,0,0,0,0,0,0,0,0,-1,1077,1562,0,0
-140,-538,0,0,0,0,0,0,0,0,0,-1,1084,1562,0,0
-133,-538,0,0,0,0,0,0,0,0,0,-1,1091,1562,0,0
-126,-538,0,0,0,0,0,0,0,0,0,-1,1098,1562,0,0
-119,-538,0,0,0,0,0,0,0,0,0,-1,1105,1562,0,0
-112,-538,0,0,0,0,0,0,0,0,0,-1,1112,1562,0,0
-105,-538,0,0,0,0,0,0,0,0,0,-1,1119,1562,0,0
-98,-538,0,0,0,0,0,0,0,0,0,-1,1126,1562,0,0
-91,-538,0,0,0,0,0,0,0,0,0,-1,1133,1562,0,0
-84,-538,0,0,0,0,0,0,0,0,0,-1,1140,1562,0,0
-77,-538,0,0,0,0,0,0,0,0,0,-1,1147,1562,0,0
-70,-538,0,0,0,0,0,0,0,0,0,-1,1154,1562,0,0
-63,-538,0,0,0,0,0,0,0,0,0,-1,1161,1562,0,0
-56,-538,0,0,0,0,0,0,0,0,0,-1,1168,1562,0,0
-49,-538,0,0,0,0,0,0,0,0,0,-1,1175,1562,0,0
-42,-538,0,0,0,0,0,0,0,0,0,-1,1182,1562,0,0
-35,-538,0,0,0,0,0,0,0,0,0,-1,1189,1562,0,0
-28,-538,0,0,0,0,0,0,0,0,0,-1,1196,1562,0,0
-21,-538,0,0,0,0,0,0,0,0,0,-1,1203,1562,0,0
-14,-538,0,0,0,0,0,0,0,0,0,-1,1210,1562,0,0
-7,-538,0,0,0,0,0,0,0,0,0,-1,1217,1562,0,0
0,-538,0,0,0,0,0,0,0,0,0,-1,1224,1562,0,0
7,-538,0,0,0,0,0,0,0,0,0,-1,1231,1562,0,0
14,-538,0,0,0,0,0,0,0,0,0,-1,1238,1562,0,0
21,-538,0,0,0,0,0,0,0,0,0,-1,1245,1562,0,0
28,-538,0,0,0,0,0,0,0,0,0,-1,1252,1562,0,0
35,-538,0,0,0,0,0,0,0,0,0,-1,1259,1562,0,0
42,-538,0,0,0,0,0,0,0,0,0,-1,1266,1562,0,0
49,-538,0,0,0,0,0,0,0,0,0,-1,1273,1562,0,0
56,-538,0,0,0,0,0,0,0,0,0,-1,1280,1562,0,0
63,-538,0,0,0,0,0,0,0,0,0,-1,1287,1562,0,0
70,-538,0,0,0,0,0,0,0,0,0,-1,1294,1562,0,0
77,-538,0,0,0,0,0,0,0,0,0,-1,1301,1562,0,0
84,-538,0,0,0,0,0,0,0,0,0,-1,1308,1562,0,0
91,-538,0,0,0,0,0,0,0,0,0,-1,1315,1562,0,0
98,-538,0,0,0,0,0,0,0,0,0,-1,1322,1562,0,0
105,-538,0,0,0,0,0,0,0,0,0,-1,1329,1562,0,0
112,-538,0,0,0,0,0,0,0,0,0,-1,1336,1562,0,0
119,-538,0,0,0,0,0,0,0,0,0,-1,1343,1562,0,0
126,-538,0,0,0,0,0,0,0,0,0,-1,1350,1562,0,0
133,-538,0,0,0,0,0,0,0,0,0,-1,1357,1562,0,0
140,-538,0,0,0,0,0,0,0,0,0,-1,1364,1562,0,0
147,-538,0,0,0,0,0,0,0,0,0,-1,1371,1562,0,0
154,-538,0,0,0,0,0,0,0,0,0,-1,1378,1562,0,0
161,-538,0,0,0,0,0,0,0,0,0,-1,1385,1562,0,0
168,-538,0,0,0,0,0,0,0,0,0,-1,1392,1562,0,0
175,-538,0,0,0,0,0,0,0,0,0,-1,1399,1562,0,0
182,-538,0,0,0,0,0,0,0,0,0,-1,1406,1562,0,0
189,-538,0,0,0,0,0,0,0,0,0,-1,1413,1562,0,0
196,-538,0,0,0,0,0,0,0,0,0,-1,1420,1562,0,0
203,-538,0,0,0,0,0,0,0,0,0,-1,1427,1562,0,0
210,-538,0,0,0,0,0,0,0,0,0,-1,1434,1562,0,0
217,-538,0,0,0,0,0,0,0,0,0,-1,1441,1562,0,0
224,-538,0,0,0,0,0,0,0,0,0,-1,1448,1562,0,0
231,-538,0,0,0,0,0,0,0,0,0,-1,1455,1562,0,0
238,-538,0,0,0,0,0,0,0,0,0,-1,1462,1562,0,0
245,-538,0,0,0,0,0,0,0,0,0,-1,1469,1562,0,0
252,-538,0,0,0,0,0,0,0,0,0,-1,1476,1562,0,0
259,-538,0,0,0,0,0,0,0,0,0,-1,1483,1562,0,0
266,-538,0,0,0,0,0,0,0,0,0,-1,1490,1562,0,0
273,-538,0,0,0,0,0,0,0,0,0,-1,1497,1562,0,0
280,-538,0,0,0,0,0,0,0,0,0,-1,1504,1562,0,0
287,-538,0,0,0,0,0,0,0,0,0,-1,1511,1562,0,0
294,-538,0,0,0,0,0,0,0,0,0,-1,1518,1562,0,0
301,-538,0,0,0,0,0,0,0,0,0,-1,1525,1562,0,0
308,-538,0,0,0,0,0,0,0,0,0,-1,1532,1562,0,0
315,-538,0,0,0,0,0,0,0,0,0,-1,1539,1562,0,0
322,-538,0,0,0,0,0,0,0,0,0,-1,1546,1562,0,0
329,-538,0,0,0,0,0,0,0,0,0,-1,1553,1562,0,0
336,-538,0,0,0,0,0,0,0,0,0,-1,1560,1562,0,0
343,-538,0,0,0,0,0,0,0,0,0,-1,1567,1562,0,0
350,-538,0,0,0,0,0,0,0,0,0,-1,1574,1562,0,0
357,-538,0,0,0,0,0,0,0,0,0,-1,1581,1562,0,0
364,-538,0,0,0,0,0,0,0,0,0,-1,1588,1562,0,0
371,-538,0,0,0,0,0,0,0,0,0,-1,1595,1562,0,0
378,-538,9.65479,5.82434,0,0,0,0,0,0,0,-1,1602,1562,9.6548,-5.82439
385,-538,10.5449,7.9502,0,0,0,0,0,0,0,-1,1609,1562,10.5449,-7.95014
392,-538,8.20361,7.07214,0,0,0,0,0,0,0,-1,1616,1562,8.20362,-7.07211
399,-538,7.85425,4.70508,0,0,0,0,0,0,0,-1,1623,1562,7.85425,-4.70512
406,-538,7.77734,4.96094,0,0,0,0,0,0,0,-1,1630,1562,7.77729,-4.96097
413,-538,13.0446,13.1765,0,0,0,0,0,0,0,-1,1637,1562,13.0446,-13.1765
420,-538,9.96216,12.7653,0,0,0,0,0,0,0,-1,1644,1562,9.96221,-12.7653
427,-538,10.1732,14.5863,0,0,0,0,0,0,0,-1,1651,1562,10.1732,-14.5863
434,-538,9.64331,14.7745,0,0,0,0,0,0,0,-1,1658,1562,9.64326,-14.7746
441,-538,11.5039,20.5195,0,0,0,0,0,0,0,-1,1665,1562,11.5039,-20.5195
448,-538,12.8766,22.4932,0,0,0,0,0,0,0,-1,1672,1562,12.8766,-22.4932
455,-538,12.5693,17.4128,0,0,0,0,0,0,0,-1,1679,1562,12.5694,-17.4128
462,-538,12.1389,17.017,0,0,0,0,0,0,0,-1,1686,1562,12.1389,-17.017
469,-538,14.3802,16.6945,0,0,0,0,0,0,0,-1,1693,1562,14.3803,-16.6945
476,-538,13.724,19.0608,0,0,0,0,0,0,0,-1,1700,1562,13.724,-19.0608
483,-538,17.088,25.2936,0,0,0,0,0,0,0,-1,1707,1562,17.088,-25.2936
490,-538,21.1722,32.2704,0,0,0,0,0,0,0,-1,1714,1562,21.1722,-32.2704
497,-538,21.4661,31.2596,0.0097705,0.0117815,-0.00811475,0.0189528,0.00259921,-0.84704,0.0118641,0.0431145,1721,1562,21.466,-31.2597
504,-538,21.5944,30.4622,0.00815696,0.00898235,-0.00649701,0.0150798,0.00205956,-0.817116,0.00944183,0.018206,1728,1562,21.5943,-30.4622
511,-538,21.5544,29.8779,0.00674037,0.00694164,-0.00527093,0.0121129,0.00156911,-0.794943,0.00760637,0.0102945,1735,1562,21.5545,-29.8779
518,-538,21.5492,29.2672,0.0052294,0.00506246,-0.00390848,0.0090553,0.00123656,-0.774721,0.00566981,0.0110685,1742,1562,21.5492,-29.2672
525,-538,21.5286,28.656,0.00385577,0.00364836,-0.00279822,0.0065522,0.000951924,-0.766876,0.00408794,0.0124395,1749,1562,21.5286,-28.6561
532,-538,21.5161,28.0588,0.00265258,0.00231462,-0.00173681,0.00422862,0.000738588,-0.736904,0.00260798,0.0140677,1756,1562,21.5162,-28.0589
539,-538,21.4883,27.4794,0.00164282,0.00117221,-0.00072615,0.00217084,0.000644193,-0.628713,0.00128739,0.0172648,1763,1562,21.4882,-27.4794
546,-538,21.4409,26.8451,0.000758447,-8.13267e-06,0.000283705,0.000852021,-0.000101707,0.318595,0.000604774,0.0176986,1770,1562,21.4409,-26.8451
553,-538,21.4647,26.1659,6.0188e-05,-0.00104464,0.00126353,0.000886785,-0.00187124,0.579319,0.00162581,0.0275305,1777,1562,21.4647,-26.1659
560,-538,21.4169,25.6038,-0.000289003,-0.00192144,0.00210839,0.00115564,-0.00336609,0.600717,0.00271261,0.0325085,1784,1562,21.4168,-25.6038
567,-538,21.2881,25.0583,-0.000274214,-0.00257784,0.00274466,0.00155052,-0.00440258,0.586731,0.00356608,0.0259978,1791,1562,21.2881,-25.0584
574,-538,21.2328,24.3816,0.000100852,-0.00315554,0.00324901,0.00210681,-0.0051615,0.55312,0.00431813,0.0320615,1798,1562,21.2328,-24.3816
581,-538,21.2975,23.7526,0.00118885,-0.00343684,0.00330227,0.00290766,-0.00515565,0.479908,0.00471527,0.0455649,1805,1562,21.2975,-23.7526
588,-538,21.645,23.1223,0,0,0,0,0,0,0,-1,1812,1562,21.645,-23.1224
595,-538,15.9808,16.0894,0,0,0,0,0,0,0,-1,1819,1562,15.9808,-16.0893
602,-538,10.314,8.94238,0,0,0,0,0,0,0,-1,1826,1562,10.314,-8.94238
609,-538,10.1046,7.05713,0,0,0,0,0,0,0,-1,1833,1562,10.1046,-7.05719
616,-538,9.92249,5.43506,0,0,0,0,0,0,0,-1,1840,1562,9.92254,-5.43507
623,-538,11.1711,4.31604,0,0,0,0,0,0,0,-1,1847,1562,11.1711,-4.316
630,-538,12.6112,2.61633,0,0,0,0,0,0,0,-1,1854,1562,12.6112,-2.61637
637,-538,0,0,0,0,0,0,0,0,0,-1,1861,1562,0,0
644,-538,0,0,0,0,0,0,0,0,0,-1,1868,1562,0,0
651,-538,0,0,0,0,0,0,0,0,0,-1,1875,1562,0,0
658,-538,0,0,0,0,0,0,0,0,0,-1,1882,1562,0,0
665,-538,0,0,0,0,0,0,0,0,0,-1,1889,1562,0,0
672,-538,0,0,0,0,0,0,0,0,0,-1,1896,1562,0,0
679,-538,0,0,0,0,0,0,0,0,0,-1,1903,1562,0,0
686,-538,0,0,0,0,0,0,0,0,0,-1,1910,1562,0,0
693,-538,0,0,0,0,0,0,0,0,0,-1,1917,1562,0,0
700,-538,0,0,0,0,0,0,0,0,0,-1,1924,1562,0,0
707,-538,0,0,0,0,0,0,0,0,0,-1,1931,1562,0,0
714,-538,0,0,0,0,0,0,0,0,0,-1,1938,1562,0,0
721,-538,0,0,0,0,0,0,0,0,0,-1,1945,1562,0,0
728,-538,0,0,0,0,0,0,0,0,0,-1,1952,1562,0,0
735,-538,0,0,0,0,0,0,0,0,0,-1,1959,1562,0,0
742,-538,0,0,0,0,0,0,0,0,0,-1,1966,1562,0,0
749,-538,0,0,0,0,0,0,0,0,0,-1,1973,1562,0,0
756,-538,0,0,0,0,0,0,0,0,0,-1,1980,1562,0,0
763,-538,0,0,0,0,0,0,0,0,0,-1,1987,1562,0,0
770,-538,0,0,0,0,0,0,0,0,0,-1,1994,1562,0,0
777,-538,0,0,0,0,0,0,0,0,0,-1,2001,1562,0,0
784,-538,0,0,0,0,0,0,0,0,0,-1,2008,1562,0,0
791,-538,0,0,0,0,0,0,0,0,0,-1,2015,1562,0,0
798,-538,0,0,0,0,0,0,0,0,0,-1,2022,1562,0,0
805,-538,0,0,0,0,0,0,0,0,0,-1,2029,1562,0,0
812,-538,0,0,0,0,0,0,0,0,0,-1,2036,1562,0,0
-700,-545,0,0,0,0,0,0,0,0,0,-1,524,1569,0,0
-693,-545,0,0,0,0,0,0,0,0,0,-1,531,1569,0,0
-686,-545,0,0,0,0,0,0,0,0,0,-1,538,1569,0,0
-679,-545,0,0,0,0,0,0,0,0,0,-1,545,1569,0,0
-672,-545,0,0,0,0,0,0,0,0,0,-1,552,1569,0,0
-665,-545,0,0,0,0,0,0,0,0,0,-1,559,1569,0,0
-658,-545,0,0,0,0,0,0,0,0,0,-1,566,1569,0,0
-651,-545,0,0,0,0,0,0,0,0,0,-1,573,1569,0,0
-644,-545,0,0,0,0,0,0,0,0,0,-1,580,1569,0,0
-637,-545,0,0,0,0,0,0,0,0,0,-1,587,1569,0,0
-630,-545,0,0,0,0,0,0,0,0,0,-1,594,1569,0,0
-623,-545,0,0,0,0,0,0,0,0,0,-1,601,1569,0,0
-616,-545,0,0,0,0,0,0,0,0,0,-1,608,1569,0,0
-609,-545,0,0,0,0,0,0,0,0,0,-1,615,1569,0,0
-602,-545,0,0,0,0,0,0,0,0,0,-1,622,1569,0,0
-595,-545,0,0,0,0,0,0,0,0,0,-1,629,1569,0,0
-588,-545,0,0,0,0,0,0,0,0,0,-1,636,1569,0,0
-581,-545,0,0,0,0,0,0,0,0,0,-1,643,1569,0,0
-574,-545,0,0,0,0,0,0,0,0,0,-1,650,1569,0,0
-567,-545,0,0,0,0,0,0,0,0,0,-1,657,1569,0,0
-560,-545,0,0,0,0,0,0,0,0,0,-1,664,1569,0,0
-553,-545,0,0,0,0,0,0,0,0,0,-1,671,1569,0,0
-546,-545,0,0,0,0,0,0,0,0,0,-1,678,1569,0,0
-539,-545,0,0,0,0,0,0,0,0,0,-1,685,1569,0,0
-532,-545,0,0,0,0,0,0,0,0,0,-1,692,1569,0,0
-525,-545,0,0,0,0,0,0,0,0,0,-1,699,1569,0,0
-518,-545,0,0,0,0,0,0,0,0,0,-1,706,1569,0,0
-511,-545,0,0,0,0,0,0,0,0,0,-1,713,1569,0,0
-504,-545,-3.55237,-2.5354,0,0,0,0,0,0,0,-1,720,1569,-3.55236,2.53545
-497,-545,2.26575,5.69214,0,0,0,0,0,0,0,-1,727,1569,2.26573,-5.6922
-490,-545,-2.17334,7.81396,0,0,0,0,0,0,0,-1,734,1569,-2.17334,-7.81399
-483,-545,-1.88336,5.8446,0,0,0,0,0,0,0,-1,741,1569,-1.88334,-5.84466
-476,-545,-1.13147,6.5741,0,0,0,0,0,0,0,-1,748,1569,-1.13149,-6.57405
-469,-545,-1.03412,15.8353,0,0,0,0,0,0,0,-1,755,1569,-1.03414,-15.8353
-462,-545,-3.9234,20.9927,0,0,0,0,0,0,0,-1,762,1569,-3.92341,-20.9927
-455,-545,-3.42529,22.3568,0,0,0,0,0,0,0,-1,769,1569,-3.42531,-22.3568
-448,-545,-2.58789,22.6893,0,0,0,0,0,0,0,-1,776,1569,-2.58791,-22.6894
-441,-545,-2.66022,23.6791,0.00351396,-0.00706192,0.00345858,0.00454457,-0.00809253,0.289609,0.00739126,0.0327678,783,1569,-2.6602,-23.6791
-434,-545,-2.97083,24.2164,0.000669625,-0.00574687,0.00116369,0.000874151,-0.0059514,0.17398,0.00428878,0.0290023,790,1569,-2.97082,-24.2164
-427,-545,-2.94287,24.8304,-0.000819845,-0.00423048,7.21604e-05,-0.000818319,-0.00423201,0.0211448,0.00259199,0.0218593,797,1569,-2.94286,-24.8304
-420,-545,-2.93445,25.4534,-0.00122426,-0.00266806,-0.00045438,-0.00109316,-0.00279915,-0.280886,0.00162895,0.0248795,804,1569,-2.93446,-25.4534
-413,-545,-2.97583,26.0944,-0.00150737,-0.00149196,-0.000593468,-0.000906144,-0.00209318,-0.791891,0.00121212,0.0236154,811,1569,-2.9758,-26.0943
-406,-545,-3.01825,26.7416,-0.00139511,-0.00036486,-0.000624597,-7.0371e-05,-0.0016896,-1.13022,0.00110369,0.0170463,818,1569,-3.01825,-26.7416
-399,-545,-3.02386,27.382,-0.000559464,0.000923496,0.000248028,0.00096388,-0.000599848,1.40939,0.000910937,0.0124426,825,1569,-3.02383,-27.382
-392,-545,-3.04401,28.0078,0.000736501,0.00192688,0.00113109,0.00260982,5.35599e-05,1.0276,0.00172231,0.0123662,832,1569,-3.04401,-28.0078
-385,-545,-3.08099,28.6617,0.00205151,0.00276925,0.00188305,0.00432732,0.000493433,0.879558,0.00273528,0.010345,839,1569,-3.08101,-28.6618
-378,-545,-3.13202,29.3154,0.00334977,0.0039062,0.00265707,0.00629958,0.000956385,0.837562,0.00392001,0.0120033,846,1569,-3.13202,-29.3154
-371,-545,-3.15491,29.969,0.0045369,0.00488565,0.00336398,0.00807977,0.00134278,0.811293,0.0049994,0.0152737,853,1569,-3.15492,-29.969
-364,-545,-3.15271,30.5608,0.00587221,0.00617426,0.00424432,0.0102702,0.00177623,0.803182,0.00633826,0.0116499,860,1569,-3.15268,-30.5608
-357,-545,-3.08813,31.2981,0.0073717,0.00767265,0.00524184,0.0127662,0.00227818,0.799747,0.00786219,0.0216941,867,1569,-3.08816,-31.2981
-350,-545,-3.02924,32.0116,0.00911463,0.00949357,0.00644614,0.015753,0.00285517,0.80009,0.00969151,0.0351156,874,1569,-3.02923,-32.0116
-343,-545,-2.96173,32.6423,0,0,0,0,0,0,0,-1,881,1569,-2.96176,-32.6423
-336,-545,-2.81061,32.9634,0,0,0,0,0,0,0,-1,888,1569,-2.81058,-32.9633
-329,-545,-2.03595,27.8694,0,0,0,0,0,0,0,-1,895,1569,-2.03592,-27.8694
-322,-545,-2.42474,27.9695,0,0,0,0,0,0,0,-1,902,1569,-2.42474,-27.9695
-315,-545,-2.52954,30.1711,0,0,0,0,0,0,0,-1,909,1569,-2.52951,-30.1712
-308,-545,-1.54358,21.4457,0,0,0,0,0,0,0,-1,916,1569,-1.54357,-21.4457
-301,-545,1.52191,17.5009,0,0,0,0,0,0,0,-1,923,1569,1.52192,-17.5008
-294,-545,-2.69287,8.42102,0,0,0,0,0,0,0,-1,930,1569,-2.69287,-8.42097
-287,-545,-3.47784,9.96021,0,0,0,0,0,0,0,-1,937,1569,-3.47785,-9.96021
-280,-545,-3.7879,10.5448,0,0,0,0,0,0,0,-1,944,1569,-3.78793,-10.5448
-273,-545,-5.10333,12.864,0,0,0,0,0,0,0,-1,951,1569,-5.10331,-12.864
-266,-545,-5.78955,13.3704,0,0,0,0,0,0,0,-1,958,1569,-5.78952,-13.3703
-259,-545,-6.32184,13.8101,0,0,0,0,0,0,0,-1,965,1569,-6.32182,-13.81
-252,-545,0.369263,7.54053,0,0,0,0,0,0,0,-1,972,1569,0.369276,-7.54056
-245,-545,-0.236633,6.65564,0,0,0,0,0,0,0,-1,979,1569,-0.236605,-6.65566
-238,-545,0,0,0,0,0,0,0,0,0,-1,986,1569,0,0
-231,-545,0,0,0,0,0,0,0,0,0,-1,993,1569,0,0
-224,-545,0,0,0,0,0,0,0,0,0,-1,1000,1569,0,0
-217,-545,0,0,0,0,0,0,0,0,0,-1,1007,1569,0,0
-210,-545,0,0,0,0,0,0,0,0,0,-1,1014,1569,0,0
-203,-545,0,0,0,0,0,0,0,0,0,-1,1021,1569,0,0
-196,-545,0,0,0,0,0,0,0,0,0,-1,1028,1569,0,0
-189,-545,0,0,0,0,0,0,0,0,0,-1,1035,1569,0,0
-182,-545,0,0,0,0,0,0,0,0,0,-1,1042,1569,0,0
-175,-545,0,0,0,0,0,0,0,0,0,-1,1049,1569,0,0
-168,-545,0,0,0,0,0,0,0,0,0,-1,1056,1569,0,0
-161,-545,0,0,0,0,0,0,0,0,0,-1,1063,1569,0,0
-154,-545,0,0,0,0,0,0,0,0,0,-1,1070,1569,0,0
-147,-545,0,0,0,0,0,0,0,0,0,-1,1077,1569,0,0
-140,-545,0,0,0,0,0,0,0,0,0,-1,1084,1569,0,0
-133,-545,0,0,0,0,0,0,0,0,0,-1,1091,1569,0,0
-126,-545,0,0,0,0,0,0,0,0,0,-1,1098,1569,0,0
-119,-545,0,0,0,0,0,0,0,0,0,-1,1105,1569,0,0
-112,-545,0,0,0,0,0,0,0,0,0,-1,1112,1569,0,0
-105,-545,0,0,0,0,0,0,0,0,0,-1,1119,1569,0,0
-98,-545,0,0,0,0,0,0,0,0,0,-1,1126,1569,0,0
-91,-545,0,0,0,0,0,0,0,0,0,-1,1133,1569,0,0
-84,-545,0,0,0,0,0,0,0,0,0,-1,1140,1569,0,0
-77,-545,0,0,0,0,0,0,0,0,0,-1,1147,1569,0,0
-70,-545,0,0,0,0,0,0,0,0,0,-1,1154,1569,0,0
-63,-545,0,0,0,0,0,0,0,0,0,-1,1161,1569,0,0
-56,-545,0,0,0,0,0,0,0,0,0,-1,1168,1569,0,0
-49,-545,0,0,0,0,0,0,0,0,0,-1,1175,1569,0,0
-42,-545,0,0,0,0,0,0,0,0,0,-1,1182,1569,0,0
-35,-545,0,0,0,0,0,0,0,0,0,-1,1189,1569,0,0
-28,-545,0,0,0,0,0,0,0,0,0,-1,1196,1569,0,0
-21,-545,0,0,0,0,0,0,0,0,0,-1,1203,1569,0,0
-14,-545,0,0,0,0,0,0,0,0,0,-1,1210,1569,0,0
-7,-545,0,0,0,0,0,0,0,0,0,-1,1217,1569,0,0
0,-545,0,0,0,0,0,0,0,0,0,-1,1224,1569,0,0
7,-545,0,0,0,0,0,0,0,0,0,-1,1231,1569,0,0
14,-545,0,0,0,0,0,0,0,0,0,-1,1238,1569,0,0
21,-545,0,0,0,0,0,0,0,0,0,-1,1245,1569,0,0
28,-545,0,0,0,0,0,0,0,0,0,-1,1252,1569,0,0
35,-545,0,0,0,0,0,0,0,0,0,-1,1259,1569,0,0
42,-545,0,0,0,0,0,0,0,0,0,-1,1266,1569,0,0
49,-545,0,0,0,0,0,0,0,0,0,-1,1273,1569,0,0
56,-545,0,0,0,0,0,0,0,0,0,-1,1280,1569,0,0
63,-545,0,0,0,0,0,0,0,0,0,-1,1287,1569,0,0
70,-545,0,0,0,0,0,0,0,0,0,-1,1294,1569,0,0
77,-545,0,0,0,0,0,0,0,0,0,-1,1301,1569,0,0
84,-545,0,0,0,0,0,0,0,0,0,-1,1308,1569,0,0
91,-545,0,0,0,0,0,0,0,0,0,-1,1315,1569,0,0
98,-545,0,0,0,0,0,0,0,0,0,-1,1322,1569,0,0
105,-545,0,0,0,0,0,0,0,0,0,-1,1329,1569,0,0
112,-545,0,0,0,0,0,0,0,0,0,-1,1336,1569,0,0
119,-545,0,0,0,0,0,0,0,0,0,-1,1343,1569,0,0
126,-545,0,0,0,0,0,0,0,0,0,-1,1350,1569,0,0
133,-545,0,0,0,0,0,0,0,0,0,-1,1357,1569,0,0
140,-545,0,0,0,0,0,0,0,0,0,-1,1364,1569,0,0
147,-545,0,0,0,0,0,0,0,0,0,-1,1371,1569,0,0
154,-545,0,0,0,0,0,0,0,0,0,-1,1378,1569,0,0
161,-545,0,0,0,0,0,0,0,0,0,-1,1385,1569,0,0
168,-545,0,0,0,0,0,0,0,0,0,-1,1392,1569,0,0
175,-545,0,0,0,0,0,0,0,0,0,-1,1399,1569,0,0
182,-545,0,0,0,0,0,0,0,0,0,-1,1406,1569,0,0
189,-545,0,0,0,0,0,0,0,0,0,-1,1413,1569,0,0
196,-545,0,0,0,0,0,0,0,0,0,-1,1420,1569,0,0
203,-545,0,0,0,0,0,0,0,0,0,-1,1427,1569,0,0
210,-545,0,0,0,0,0,0,0,0,0,-1,1434,1569,0,0
217,-545,0,0,0,0,0,0,0,0,0,-1,1441,1569,0,0
224,-545,0,0,0,0,0,0,0,0,0,-1,1448,1569,0,0
231,-545,0,0,0,0,0,0,0,0,0,-1,1455,1569,0,0
238,-545,0,0,0,0,0,0,0,0,0,-1,1462,1569,0,0
245,-545,0,0,0,0,0,0,0,0,0,-1,1469,1569,0,0
252,-545,0,0,0,0,0,0,0,0,0,-1,1476,1569,0,0
259,-545,0,0,0,0,0,0,0,0,0,-1,1483,1569,0,0
266,-545,0,0,0,0,0,0,0,0,0,-1,1490,1569,0,0
273,-545,0,0,0,0,0,0,0,0,0,-1,1497,1569,0,0
280,-545,0,0,0,0,0,0,0,0,0,-1,1504,1569,0,0
287,-545,0,0,0,0,0,0,0,0,0,-1,1511,1569,0,0
294,-545,0,0,0,0,0,0,0,0,0,-1,1518,1569,0,0
301,-545,0,0,0,0,0,0,0,0,0,-1,1525,1569,0,0
308,-545,0,0,0,0,0,0,0,0,0,-1,1532,1569,0,0
315,-545,0,0,0,0,0,0,0,0,0,-1,1539,1569,0,0
322,-545,0,0,0,0,0,0,0,0,0,-1,1546,1569,0,0
329,-545,0,0,0,0,0,0,0,0,0,-1,1553,1569,0,0
336,-545,0,0,0,0,0,0,0,0,0,-1,1560,1569,0,0
343,-545,0,0,0,0,0,0,0,0,0,-1,1567,1569,0,0
350,-545,0,0,0,0,0,0,0,0,0,-1,1574,1569,0,0
357,-545,0,0,0,0,0,0,0,0,0,-1,1581,1569,0,0
364,-545,7.19495,4.88098,0,0,0,0,0,0,0,-1,1588,1569,7.19497,-4.88095
371,-545,7.82324,3.84302,0,0,0,0,0,0,0,-1,1595,1569,7.82324,-3.84307
378,-545,7.65674,5.52673,0,0,0,0,0,0,0,-1,1602,1569,7.6567,-5.52667
385,-545,8.58447,1.16125,0,0,0,0,0,0,0,-1,1609,1569,8.5845,-1.1612
392,-545,12.5654,3.89526,0,0,0,0,0,0,0,-1,1616,1569,12.5655,-3.89532
399,-545,11.5869,5.6333,0,0,0,0,0,0,0,-1,1623,1569,11.5869,-5.63326
406,-545,11.234,6.36414,0,0,0,0,0,0,0,-1,1630,1569,11.234,-6.3641
413,-545,12.1521,13.4817,0,0,0,0,0,0,0,-1,1637,1569,12.1521,-13.4817
420,-545,11.1954,13.6047,0,0,0,0,0,0,0,-1,1644,1569,11.1954,-13.6047
427,-545,9.61072,14.9135,0,0,0,0,0,0,0,-1,1651,1569,9.61076,-14.9134
434,-545,13.1598,23.9921,0,0,0,0,0,0,0,-1,1658,1569,13.1598,-23.992
441,-545,12.2833,22.2238,0,0,0,0,0,0,0,-1,1665,1569,12.2833,-22.2237
448,-545,13.0082,21.941,0,0,0,0,0,0,0,-1,1672,1569,13.0082,-21.941
455,-545,13.733,21.6583,0,0,0,0,0,0,0,-1,1679,1569,13.733,-21.6583
462,-545,12.449,20.7413,0,0,0,0,0,0,0,-1,1686,1569,12.4489,-20.7413
469,-545,12.7837,17.7919,0,0,0,0,0,0,0,-1,1693,1569,12.7837,-17.7919
476,-545,15.7562,24.8708,0,0,0,0,0,0,0,-1,1700,1569,15.7563,-24.8709
483,-545,20.9335,32.4335,0,0,0,0,0,0,0,-1,1707,1569,20.9334,-32.4335
490,-545,20.9335,31.7634,0.00948783,0.0121715,-0.00818153,0.0191205,0.00253882,-0.866678,0.0119907,0.0294361,1714,1569,20.9334,-31.7635
497,-545,20.9648,31.1509,0.00773091,0.00933906,-0.00630579,0.0148918,0.00217813,-0.848813,0.00928738,0.0233164,1721,1569,20.9649,-31.1509
504,-545,21.0389,30.5028,0.00641537,0.00693958,-0.00496118,0.0116456,0.00170937,-0.811789,0.0072613,0.0163507,1728,1569,21.0389,-30.5028
511,-545,20.981,29.8943,0.00517262,0.00520439,-0.00386978,0.00905832,0.00131869,-0.787451,0.00565084,0.0112856,1735,1569,20.981,-29.8943
518,-545,20.9617,29.2836,0.00381984,0.00356431,-0.00267308,0.00636821,0.00101594,-0.761518,0.00395061,0.0130105,1742,1569,20.9617,-29.2836
525,-545,20.9216,28.6757,0.00259302,0.00234205,-0.00167491,0.00414714,0.000787927,-0.748009,0.00254314,0.014244,1749,1569,20.9216,-28.6757
532,-545,20.8813,28.0928,0.00150138,0.00115201,-0.000676792,0.00202567,0.000627724,-0.659102,0.00119737,0.0146368,1756,1569,20.8813,-28.0928
539,-545,20.8636,27.5265,0.000539594,0.000116883,0.000326779,0.000717412,-6.0934e-05,0.498342,0.000499825,0.017598,1763,1569,20.8636,-27.5265
546,-545,20.8224,26.8826,-0.000353005,-0.00100232,0.00140052,0.00076,-0.00211532,0.671505,0.00172044,0.0189812,1770,1569,20.8224,-26.8825
553,-545,20.819,26.2141,-0.00108484,-0.00199618,0.00247905,0.00098007,-0.00406109,0.694509,0.0030864,0.0270871,1777,1569,20.819,-26.2141
560,-545,20.8167,25.5886,-0.00151516,-0.00285172,0.00347824,0.00135842,-0.0057253,0.690489,0.00434111,0.0299298,1784,1569,20.8166,-25.5886
567,-545,20.7897,24.974,0,0,0,0,0,0,0,-1,1791,1569,20.7897,-24.974
574,-545,20.809,24.2094,0,0,0,0,0,0,0,-1,1798,1569,20.809,-24.2094
581,-545,20.7557,23.6741,0,0,0,0,0,0,0,-1,1805,1569,20.7557,-23.6741
588,-545,15.4786,16.7035,0,0,0,0,0,0,0,-1,1812,1569,15.4786,-16.7035
595,-545,10.2859,9.11218,0,0,0,0,0,0,0,-1,1819,1569,10.2858,-9.11215
602,-545,8.82117,6.32214,0,0,0,0,0,0,0,-1,1826,1569,8.82121,-6.32217
609,-545,10.2406,5.22351,0,0,0,0,0,0,0,-1,1833,1569,10.2406,-5.22353
616,-545,11.701,3.93188,0,0,0,0,0,0,0,-1,1840,1569,11.701,-3.93191
623,-545,13.2139,2.32043,0,0,0,0,0,0,0,-1,1847,1569,13.2139,-2.32042
630,-545,0,0,0,0,0,0,0,0,0,-1,1854,1569,0,0
637,-545,0,0,0,0,0,0,0,0,0,-1,1861,1569,0,0
644,-545,0,0,0,0,0,0,0,0,0,-1,1868,1569,0,0
651,-545,0,0,0,0,0,0,0,0,0,-1,1875,1569,0,0
658,-545,0,0,0,0,0,0,0,0,0,-1,1882,1569,0,0
665,-545,0,0,0,0,0,0,0,0,0,-1,1889,1569,0,0
672,-545,0,0,0,0,0,0,0,0,0,-1,1896,1569,0,0
679,-545,0,0,0,0,0,0,0,0,0,-1,1903,1569,0,0
686,-545,0,0,0,0,0,0,0,0,0,-1,1910,1569,0,0
693,-545,0,0,0,0,0,0,0,0,0,-1,1917,1569,0,0
700,-545,0,0,0,0,0,0,0,0,0,-1,1924,1569,0,0
707,-545,0,0,0,0,0,0,0,0,0,-1,1931,1569,0,0
714,-545,0,0,0,0,0,0,0,0,0,-1,1938,1569,0,0
721,-545,0,0,0,0,0,0,0,0,0,-1,1945,1569,0,0
728,-545,0,0,0,0,0,0,0,0,0,-1,1952,1569,0,0
735,-545,0,0,0,0,0,0,0,0,0,-1,1959,1569,0,0
742,-545,0,0,0,0,0,0,0,0,0,-1,1966,1569,0,0
749,-545,0,0,0,0,0,0,0,0,0,-1,1973,1569,0,0
756,-545,0,0,0,0,0,0,0,0,0,-1,1980,1569,0,0
763,-545,0,0,0,0,0,0,0,0,0,-1,1987,1569,0,0
770,-545,0,0,0,0,0,0,0,0,0,-1,1994,1569,0,0
777,-545,0,0,0,0,0,0,0,0,0,-1,2001,1569,0,0
784,-545,0,0,0,0,0,0,0,0,0,-1,2008,1569,0,0
791,-545,0,0,0,0,0,0,0,0,0,-1,2015,1569,0,0
798,-545,0,0,0,0,0,0,0,0,0,-1,2022,1569,0,0
805,-545,0,0,0,0,0,0,0,0,0,-1,2029,1569,0,0
812,-545,0,0,0,0,0,0,0,0,0,-1,2036,1569,0,0
-700,-552,0,0,0,0,0,0,0,0,0,-1,524,1576,0,0
-693,-552,0,0,0,0,0,0,0,0,0,-1,531,1576,0,0
-686,-552,0,0,0,0,0,0,0,0,0,-1,538,1576,0,0
-679,-552,0,0,0,0,0,0,0,0,0,-1,545,1576,0,0
-672,-552,0,0,0,0,0,0,0,0,0,-1,552,1576,0,0
-665,-552,0,0,0,0,0,0,0,0,0,-1,559,1576,0,0
-658,-552,0,0,0,0,0,0,0,0,0,-1,566,1576,0,0
-651,-552,0,0,0,0,0,0,0,0,0,-1,573,1576,0,0
-644,-552,0,0,0,0,0,0,0,0,0,-1,580,1576,0,0
-637,-552,0,0,0,0,0,0,0,0,0,-1,587,1576,0,0
-630,-552,0,0,0,0,0,0,0,0,0,-1,594,1576,0,0
-623,-552,0,0,0,0,0,0,0,0,0,-1,601,1576,0,0
-616,-552,0,0,0,0,0,0,0,0,0,-1,608,1576,0,0
-609,-552,0,0,0,0,0,0,0,0,0,-1,615,1576,0,0
-602,-552,0,0,0,0,0,0,0,0,0,-1,622,1576,0,0
-595,-552,0,0,0,0,0,0,0,0,0,-1,629,1576,0,0
-588,-552,0,0,0,0,0,0,0,0,0,-1,636,1576,0,0
-581,-552,0,0,0,0,0,0,0,0,0,-1,643,1576,0,0
-574,-552,0,0,0,0,0,0,0,0,0,-1,650,1576,0,0
-567,-552,0,0,0,0,0,0,0,0,0,-1,657,1576,0,0
-560,-552,0,0,0,0,0,0,0,0,0,-1,664,1576,0,0
-553,-552,0,0,0,0,0,0,0,0,0,-1,671,1576,0,0
-546,-552,0,0,0,0,0,0,0,0,0,-1,678,1576,0,0
-539,-552,0,0,0,0,0,0,0,0,0,-1,685,1576,0,0
-532,-552,0,0,0,0,0,0,0,0,0,-1,692,1576,0,0
-525,-552,0,0,0,0,0,0,0,0,0,-1,699,1576,0,0
-518,-552,0,0,0,0,0,0,0,0,0,-1,706,1576,0,0
-511,-552,0,0,0,0,0,0,0,0,0,-1,713,1576,0,0
-504,-552,0,0,0,0,0,0,0,0,0,-1,720,1576,0,0
-497,-552,1.51282,3.96924,0,0,0,0,0,0,0,-1,727,1576,1.5128,-3.96924
-490,-552,-3.82312,6.32104,0,0,0,0,0,0,0,-1,734,1576,-3.82314,-6.3211
-483,-552,-3.50586,6.47986,0,0,0,0,0,0,0,-1,741,1576,-3.50587,-6.47983
-476,-552,-1.95129,4.43054,0,0,0,0,0,0,0,-1,748,1576,-1.95128,-4.43054
-469,-552,-1.40491,7.9895,0,0,0,0,0,0,0,-1,755,1576,-1.40491,-7.98947
-462,-552,0.0459595,16.3469,0,0,0,0,0,0,0,-1,762,1576,0.0459611,-16.3469
-455,-552,-1.9527,19.385,0,0,0,0,0,0,0,-1,769,1576,-1.95269,-19.385
-448,-552,-1.9024,22.3889,0,0,0,0,0,0,0,-1,776,1576,-1.90242,-22.3889
-441,-552,-1.92267,23.6372,0,0,0,0,0,0,0,-1,783,1576,-1.92265,-23.6372
-434,-552,-2.08002,24.4136,-0.000389181,-0.00648177,0.000841284,-0.000275148,-0.00659581,0.134725,0.00430842,0.0412089,790,1576,-2.07999,-24.4136
-427,-552,-2.36261,24.7656,-0.00205676,-0.00494639,-0.000321182,-0.0020215,-0.00498166,-0.109372,0.00289313,0.0353323,797,1576,-2.36262,-24.7657
-420,-552,-2.27856,25.4883,-0.00251734,-0.00328307,-0.000876757,-0.0019435,-0.00385691,-0.579538,0.00222681,0.0224932,804,1576,-2.27857,-25.4883
-413,-552,-2.28375,26.1095,-0.00285506,-0.0020903,-0.00105433,-0.00135114,-0.00359421,-0.959359,0.00209631,0.0168717,811,1576,-2.28378,-26.1095
-406,-552,-2.34741,26.7656,-0.00282682,-0.00104885,-0.00122616,-0.000423316,-0.00345236,-1.09906,0.00217425,0.0132307,818,1576,-2.34741,-26.7656
-399,-552,-2.38556,27.4045,-0.00199425,0.000148325,-0.000380137,0.00021377,-0.00205969,-1.40031,0.00144965,0.0142688,825,1576,-2.38554,-27.4045
-392,-552,-2.43738,28.0262,-0.000606003,0.00103558,0.000483942,0.00116763,-0.000738049,1.30443,0.00110952,0.0159651,832,1576,-2.43735,-28.0262
-385,-552,-2.47241,28.6787,0.000770908,0.00177165,0.00117524,0.0025486,-6.0451e-06,0.986656,0.00170109,0.0142824,839,1576,-2.47241,-28.6787
-378,-552,-2.50861,29.3096,0.0021383,0.00272004,0.00188578,0.00433725,0.00052109,0.861917,0.0027344,0.015769,846,1576,-2.50858,-29.3096
-371,-552,-2.5282,29.9536,0.00331109,0.0035237,0.00244597,0.00586568,0.000969111,0.807114,0.00363079,0.0192975,853,1576,-2.52817,-29.9536
-364,-552,-2.53076,30.5701,0.0045288,0.00455547,0.00312526,0.00766743,0.00141684,0.787531,0.0047109,0.0148859,860,1576,-2.53077,-30.5701
-357,-552,-2.52856,31.1942,0.00587308,0.0057651,0.00389788,0.00971735,0.00192084,0.778473,0.00594235,0.0107973,867,1576,-2.52854,-31.1942
-350,-552,-2.51868,31.8728,0.00739086,0.00719249,0.0048291,0.0121218,0.00246156,0.77513,0.00739845,0.0149953,874,1576,-2.51865,-31.8728
-343,-552,-2.54871,32.4387,0.00904072,0.00880177,0.0059586,0.014881,0.00296145,0.775374,0.00909569,0.0239149,881,1576,-2.54873,-32.4387
-336,-552,-2.46417,32.9427,0.0107349,0.0109233,0.00726357,0.0180933,0.0035649,0.791884,0.0110669,0.0440792,888,1576,-2.46415,-32.9427
-329,-552,-2.18085,34.3687,0,0,0,0,0,0,0,-1,895,1576,-2.18085,-34.3686
-322,-552,-1.23962,28.5371,0,0,0,0,0,0,0,-1,902,1576,-1.23964,-28.5371
-315,-552,-0.605347,28.994,0,0,0,0,0,0,0,-1,909,1576,-0.605331,-28.9941
-308,-552,-1.01624,30.3169,0,0,0,0,0,0,0,-1,916,1576,-1.01624,-30.3169
-301,-552,1.39453,18.4995,0,0,0,0,0,0,0,-1,923,1576,1.3945,-18.4995
-294,-552,0.842163,13.7863,0,0,0,0,0,0,0,-1,930,1576,0.842149,-13.7863
-287,-552,-0.663757,13.3474,0,0,0,0,0,0,0,-1,937,1576,-0.663744,-13.3474
-280,-552,-5.47241,8.96765,0,0,0,0,0,0,0,-1,944,1576,-5.47239,-8.96766
-273,-552,1.64587,10.6685,0,0,0,0,0,0,0,-1,951,1576,1.6459,-10.6685
-266,-552,-1.32678,8.05688,0,0,0,0,0,0,0,-1,958,1576,-1.32677,-8.05683
-259,-552,-5.54321,8.31213,0,0,0,0,0,0,0,-1,965,1576,-5.54324,-8.31214
-252,-552,-1.93445,7.81543,0,0,0,0,0,0,0,-1,972,1576,-1.93445,-7.81546
-245,-552,-2.53613,6.92212,0,0,0,0,0,0,0,-1,979,1576,-2.53614,-6.92216
-238,-552,-6.5365,2.81885,0,0,0,0,0,0,0,-1,986,1576,-6.53649,-2.8188
-231,-552,-4.32239,4.34583,0,0,0,0,0,0,0,-1,993,1576,-4.32239,-4.34587
-224,-552,0,0,0,0,0,0,0,0,0,-1,1000,1576,0,0
-217,-552,0,0,0,0,0,0,0,0,0,-1,1007,1576,0,0
-210,-552,0,0,0,0,0,0,0,0,0,-1,1014,1576,0,0
-203,-552,0,0,0,0,0,0,0,0,0,-1,1021,1576,0,0
-196,-552,0,0,0,0,0,0,0,0,0,-1,1028,1576,0,0
-189,-552,0,0,0,0,0,0,0,0,0,-1,1035,1576,0,0
-182,-552,0,0,0,0,0,0,0,0,0,-1,1042,1576,0,0
-175,-552,0,0,0,0,0,0,0,0,0,-1,1049,1576,0,0
-168,-552,0,0,0,0,0,0,0,0,0,-1,1056,1576,0,0
-161,-552,0,0,0,0,0,0,0,0,0,-1,1063,1576,0,0
-154,-552,0,0,0,0,0,0,0,0,0,-1,1070,1576,0,0
-147,-552,0,0,0,0,0,0,0,0,0,-1,1077,1576,0,0
-140,-552,0,0,0,0,0,0,0,0,0,-1,1084,1576,0,0
-133,-552,0,0,0,0,0,0,0,0,0,-1,1091,1576,0,0
-126,-552,0,0,0,0,0,0,0,0,0,-1,1098,1576,0,0
-119,-552,0,0,0,0,0,0,0,0,0,-1,1105,1576,0,0
-112,-552,0,0,0,0,0,0,0,0,0,-1,1112,1576,0,0
-105,-552,0,0,0,0,0,0,0,0,0,-1,1119,1576,0,0
-98,-552,0,0,0,0,0,0,0,0,0,-1,1126,1576,0,0
-91,-552,0,0,0,0,0,0,0,0,0,-1,1133,1576,0,0
-84,-552,0,0,0,0,0,0,0,0,0,-1,1140,1576,0,0
-77,-552,0,0,0,0,0,0,0,0,0,-1,1147,1576,0,0
-70,-552,0,0,0,0,0,0,0,0,0,-1,1154,1576,0,0
-63,-552,0,0,0,0,0,0,0,0,0,-1,1161,1576,0,0
-56,-552,0,0,0,0,0,0,0,0,0,-1,1168,1576,0,0
-49,-552,0,0,0,0,0,0,0,0,0,-1,1175,1576,0,0
-42,-552,0,0,0,0,0,0,0,0,0,-1,1182,1576,0,0
-35,-552,0,0,0,0,0,0,0,0,0,-1,1189,1576,0,0
-28,-552,0,0,0,0,0,0,0,0,0,-1,1196,1576,0,0
-21,-552,0,0,0,0,0,0,0,0,0,-1,1203,1576,0,0
-14,-552,0,0,0,0,0,0,0,0,0,-1,1210,1576,0,0
-7,-552,0,0,0,0,0,0,0,0,0,-1,1217,1576,0,0
0,-552,0,0,0,0,0,0,0,0,0,-1,1224,1576,0,0
7,-552,0,0,0,0,0,0,0,0,0,-1,1231,1576,0,0
14,-552,0,0,0,0,0,0,0,0,0,-1,1238,1576,0,0
21,-552,0,0,0,0,0,0,0,0,0,-1,1245,1576,0,0
28,-552,0,0,0,0,0,0,0,0,0,-1,1252,1576,0,0
35,-552,0,0,0,0,0,0,0,0,0,-1,1259,1576,0,0
42,-552,0,0,0,0,0,0,0,0,0,-1,1266,1576,0,0
49,-552,0,0,0,0,0,0,0,0,0,-1,1273,1576,0,0
56,-552,0,0,0,0,0,0,0,0,0,-1,1280,1576,0,0
63,-552,0,0,0,0,0,0,0,0,0,-1,1287,1576,0,0
70,-552,0,0,0,0,0,0,0,0,0,-1,1294,1576,0,0
77,-552,0,0,0,0,0,0,0,0,0,-1,1301,1576,0,0
84,-552,0,0,0,0,0,0,0,0,0,-1,1308,1576,0,0
91,-552,0,0,0,0,0,0,0,0,0,-1,1315,1576,0,0
98,-552,0,0,0,0,0,0,0,0,0,-1,1322,1576,0,0
105,-552,0,0,0,0,0,0,0,0,0,-1,1329,1576,0,0
112,-552,0,0,0,0,0,0,0,0,0,-1,1336,1576,0,0
119,-552,0,0,0,0,0,0,0,0,0,-1,1343,1576,0,0
126,-552,0,0,0,0,0,0,0,0,0,-1,1350,1576,0,0
133,-552,0,0,0,0,0,0,0,0,0,-1,1357,1576,0,0
140,-552,0,0,0,0,0,0,0,0,0,-1,1364,1576,0,0
147,-552,0,0,0,0,0,0,0,0,0,-1,1371,1576,0,0
154,-552,0,0,0,0,0,0,0,0,0,-1,1378,1576,0,0
161,-552,0,0,0,0,0,0,0,0,0,-1,1385,1576,0,0
168,-552,0,0,0,0,0,0,0,0,0,-1,1392,1576,0,0
175,-552,0,0,0,0,0,0,0,0,0,-1,1399,1576,0,0
182,-552,0,0,0,0,0,0,0,0,0,-1,1406,1576,0,0
189,-552,0,0,0,0,0,0,0,0,0,-1,1413,1576,0,0
196,-552,0,0,0,0,0,0,0,0,0,-1,1420,1576,0,0
203,-552,0,0,0,0,0,0,0,0,0,-1,1427,1576,0,0
210,-552,0,0,0,0,0,0,0,0,0,-1,1434,1576,0,0
217,-552,0,0,0,0,0,0,0,0,0,-1,1441,1576,0,0
224,-552,0,0,0,0,0,0,0,0,0,-1,1448,1576,0,0
231,-552,0,0,0,0,0,0,0,0,0,-1,1455,1576,0,0
238,-552,0,0,0,0,0,0,0,0,0,-1,1462,1576,0,0
245,-552,0,0,0,0,0,0,0,0,0,-1,1469,1576,0,0
252,-552,0,0,0,0,0,0,0,0,0,-1,1476,1576,0,0
259,-552,0,0,0,0,0,0,0,0,0,-1,1483,1576,0,0
266,-552,0,0,0,0,0,0,0,0,0,-1,1490,1576,0,0
273,-552,0,0,0,0,0,0,0,0,0,-1,1497,1576,0,0
280,-552,0,0,0,0,0,0,0,0,0,-1,1504,1576,0,0
287,-552,0,0,0,0,0,0,0,0,0,-1,1511,1576,0,0
294,-552,0,0,0,0,0,0,0,0,0,-1,1518,1576,0,0
301,-552,0,0,0,0,0,0,0,0,0,-1,1525,1576,0,0
308,-552,0,0,0,0,0,0,0,0,0,-1,1532,1576,0,0
315,-552,0,0,0,0,0,0,0,0,0,-1,1539,1576,0,0
322,-552,0,0,0,0,0,0,0,0,0,-1,1546,1576,0,0
329,-552,0,0,0,0,0,0,0,0,0,-1,1553,1576,0,0
336,-552,0,0,0,0,0,0,0,0,0,-1,1560,1576,0,0
343,-552,0,0,0,0,0,0,0,0,0,-1,1567,1576,0,0
350,-552,4.97876,4.09888,0,0,0,0,0,0,0,-1,1574,1576,4.97875,-4.09883
357,-552,5.18469,4.10706,0,0,0,0,0,0,0,-1,1581,1576,5.1847,-4.10702
364,-552,5.80872,5.07031,0,0,0,0,0,0,0,-1,1588,1576,5.80874,-5.07037
371,-552,7.10657,5.64783,0,0,0,0,0,0,0,-1,1595,1576,7.10651,-5.64786
378,-552,6.44446,4.91492,0,0,0,0,0,0,0,-1,1602,1576,6.44448,-4.91496
385,-552,12.8276,3.16504,0,0,0,0,0,0,0,-1,1609,1576,12.8276,-3.16503
392,-552,12.1301,4.3363,0,0,0,0,0,0,0,-1,1616,1576,12.1302,-4.33631
399,-552,11.3486,5.6012,0,0,0,0,0,0,0,-1,1623,1576,11.3486,-5.60115
406,-552,10.7863,6.42542,0,0,0,0,0,0,0,-1,1630,1576,10.7863,-6.42536
413,-552,8.39307,10.365,0,0,0,0,0,0,0,-1,1637,1576,8.3931,-10.365
420,-552,10.2306,12.7225,0,0,0,0,0,0,0,-1,1644,1576,10.2305,-12.7226
427,-552,9.73267,14.783,0,0,0,0,0,0,0,-1,1651,1576,9.73269,-14.783
434,-552,12.0377,20.1364,0,0,0,0,0,0,0,-1,1658,1576,12.0377,-20.1364
441,-552,12.4963,21.5277,0,0,0,0,0,0,0,-1,1665,1576,12.4964,-21.5277
448,-552,12.9141,21.5482,0,0,0,0,0,0,0,-1,1672,1576,12.9141,-21.5482
455,-552,13.3318,21.5687,0,0,0,0,0,0,0,-1,1679,1576,13.3317,-21.5687
462,-552,12.745,20.5947,0,0,0,0,0,0,0,-1,1686,1576,12.745,-20.5947
469,-552,17.7067,29.6902,0,0,0,0,0,0,0,-1,1693,1576,17.7067,-29.6902
476,-552,20.2675,33.1331,0,0,0,0,0,0,0,-1,1700,1576,20.2674,-33.1331
483,-552,20.4106,32.2319,0,0,0,0,0,0,0,-1,1707,1576,20.4107,-32.232
490,-552,20.415,31.6848,0.00749459,0.00993453,-0.00630202,0.0151336,0.00229554,-0.881007,0.00941759,0.0145711,1714,1576,20.4151,-31.6849
497,-552,20.4956,31.1132,0.00602337,0.00747779,-0.00484434,0.0116492,0.00185196,-0.859899,0.00722833,0.0237982,1721,1576,20.4956,-31.1131
504,-552,20.4507,30.5364,0.00487123,0.00534678,-0.00371805,0.00883465,0.00138336,-0.81733,0.00548708,0.0248,1728,1576,20.4506,-30.5364
511,-552,20.3811,29.906,0.00372356,0.0037964,-0.00271788,0.00647811,0.00104185,-0.792097,0.00401675,0.0169376,1735,1576,20.3811,-29.906
518,-552,20.3693,29.2966,0.00248606,0.00231849,-0.00165539,0.00405978,0.000744765,-0.760113,0.00249559,0.0148749,1742,1576,20.3692,-29.2967
525,-552,20.3345,28.699,0.00135201,0.00120537,-0.000730409,0.00201277,0.000544611,-0.735374,0.00120216,0.0150969,1749,1576,20.3344,-28.6989
532,-552,20.3148,28.1147,0.000318573,9.27881e-05,0.000249168,0.00047923,-6.78694e-05,0.572693,0.000344347,0.0150707,1756,1576,20.3149,-28.1147
539,-552,20.2722,27.5422,-0.000644587,-0.000901617,0.00130207,0.000535297,-0.0020815,0.736207,0.0015963,0.0184954,1763,1576,20.2723,-27.5422
546,-552,20.2191,26.9141,-0.00158406,-0.00200317,0.00250889,0.000724004,-0.00431124,0.743732,0.00314341,0.0226452,1770,1576,20.2191,-26.914
553,-552,20.2236,26.2209,-0.00239495,-0.00300254,0.00378158,0.00109502,-0.00649251,0.745317,0.00473574,0.0264034,1777,1576,20.2236,-26.2209
560,-552,20.1866,25.713,-0.00298554,-0.00389212,0.00506676,0.00164817,-0.00852583,0.740785,0.00630549,0.0442055,1784,1576,20.1866,-25.713
567,-552,20.1702,24.8363,0,0,0,0,0,0,0,-1,1791,1576,20.1701,-24.8364
574,-552,12.8835,14.8463,0,0,0,0,0,0,0,-1,1798,1576,12.8836,-14.8463
581,-552,9.74841,9.98645,0,0,0,0,0,0,0,-1,1805,1576,9.74847,-9.9864
588,-552,10.5619,9.34924,0,0,0,0,0,0,0,-1,1812,1576,10.5619,-9.34921
595,-552,5.36194,6.62744,0,0,0,0,0,0,0,-1,1819,1576,5.36193,-6.62742
602,-552,10.6863,4.31616,0,0,0,0,0,0,0,-1,1826,1576,10.6862,-4.31619
609,-552,12.146,3.18286,0,0,0,0,0,0,0,-1,1833,1576,12.1459,-3.18281
616,-552,13.8762,2.08167,0,0,0,0,0,0,0,-1,1840,1576,13.8763,-2.08167
623,-552,0,0,0,0,0,0,0,0,0,-1,1847,1576,0,0
630,-552,0,0,0,0,0,0,0,0,0,-1,1854,1576,0,0
637,-552,0,0,0,0,0,0,0,0,0,-1,1861,1576,0,0
644,-552,0,0,0,0,0,0,0,0,0,-1,1868,1576,0,0
651,-552,0,0,0,0,0,0,0,0,0,-1,1875,1576,0,0
658,-552,0,0,0,0,0,0,0,0,0,-1,1882,1576,0,0
665,-552,0,0,0,0,0,0,0,0,0,-1,1889,1576,0,0
672,-552,0,0,0,0,0,0,0,0,0,-1,1896,1576,0,0
679,-552,0,0,0,0,0,0,0,0,0,-1,1903,1576,0,0
686,-552,0,0,0,0,0,0,0,0,0,-1,1910,1576,0,0
693,-552,0,0,0,0,0,0,0,0,0,-1,1917,1576,0,0
700,-552,0,0,0,0,0,0,0,0,0,-1,1924,1576,0,0
707,-552,0,0,0,0,0,0,0,0,0,-1,1931,1576,0,0
714,-552,0,0,0,0,0,0,0,0,0,-1,1938,1576,0,0
721,-552,0,0,0,0,0,0,0,0,0,-1,1945,1576,0,0
728,-552,0,0,0,0,0,0,0,0,0,-1,1952,1576,0,0
735,-552,0,0,0,0,0,0,0,0,0,-1,1959,1576,0,0
742,-552,0,0,0,0,0,0,0,0,0,-1,1966,1576,0,0
749,-552,0,0,0,0,0,0,0,0,0,-1,1973,1576,0,0
756,-552,0,0,0,0,0,0,0,0,0,-1,1980,1576,0,0
763,-552,0,0,0,0,0,0,0,0,0,-1,1987,1576,0,0
770,-552,0,0,0,0,0,0,0,0,0,-1,1994,1576,0,0
777,-552,0,0,0,0,0,0,0,0,0,-1,2001,1576,0,0
784,-552,0,0,0,0,0,0,0,0,0,-1,2008,1576,0,0
791,-552,0,0,0,0,0,0,0,0,0,-1,2015,1576,0,0
798,-552,0,0,0,0,0,0,0,0,0,-1,2022,1576,0,0
805,-552,0,0,0,0,0,0,0,0,0,-1,2029,1576,0,0
812,-552,0,0,0,0,0,0,0,0,0,-1,2036,1576,0,0
-700,-559,0,0,0,0,0,0,0,0,0,-1,524,1583,0,0
-693,-559,0,0,0,0,0,0,0,0,0,-1,531,1583,0,0
-686,-559,0,0,0,0,0,0,0,0,0,-1,538,1583,0,0
-679,-559,0,0,0,0,0,0,0,0,0,-1,545,1583,0,0
-672,-559,0,0,0,0,0,0,0,0,0,-1,552,1583,0,0
-665,-559,0,0,0,0,0,0,0,0,0,-1,559,1583,0,0
-658,-559,0,0,0,0,0,0,0,0,0,-1,566,1583,0,0
-651,-559,0,0,0,0,0,0,0,0,0,-1,573,1583,0,0
-644,-559,0,0,0,0,0,0,0,0,0,-1,580,1583,0,0
-637,-559,0,0,0,0,0,0,0,0,0,-1,587,1583,0,0
-630,-559,0,0,0,0,0,0,0,0,0,-1,594,1583,0,0
-623,-559,0,0,0,0,0,0,0,0,0,-1,601,1583,0,0
-616,-559,0,0,0,0,0,0,0,0,0,-1,608,1583,0,0
-609,-559,0,0,0,0,0,0,0,0,0,-1,615,1583,0,0
-602,-559,0,0,0,0,0,0,0,0,0,-1,622,1583,0,0
-595,-559,0,0,0,0,0,0,0,0,0,-1,629,1583,0,0
-588,-559,0,0,0,0,0,0,0,0,0,-1,636,1583,0,0
-581,-559,0,0,0,0,0,0,0,0,0,-1,643,1583,0,0
-574,-559,0,0,0,0,0,0,0,0,0,-1,650,1583,0,0
-567,-559,0,0,0,0,0,0,0,0,0,-1,657,1583,0,0
-560,-559,0,0,0,0,0,0,0,0,0,-1,664,1583,0,0
-553,-559,0,0,0,0,0,0,0,0,0,-1,671,1583,0,0
-546,-559,0,0,0,0,0,0,0,0,0,-1,678,1583,0,0
-539,-559,0,0,0,0,0,0,0,0,0,-1,685,1583,0,0
-532,-559,0,0,0,0,0,0,0,0,0,-1,692,1583,0,0
-525,-559,0,0,0,0,0,0,0,0,0,-1,699,1583,0,0
-518,-559,0,0,0,0,0,0,0,0,0,-1,706,1583,0,0
-511,-559,0,0,0,0,0,0,0,0,0,-1,713,1583,0,0
-504,-559,0,0,0,0,0,0,0,0,0,-1,720,1583,0,0
-497,-559,0,0,0,0,0,0,0,0,0,-1,727,1583,0,0
-490,-559,-5.49835,4.47424,0,0,0,0,0,0,0,-1,734,1583,-5.49833,-4.4743
-483,-559,-5.24078,4.74561,0,0,0,0,0,0,0,-1,741,1583,-5.24079,-4.74563
-476,-559,-4.98022,4.99316,0,0,0,0,0,0,0,-1,748,1583,-4.98024,-4.99321
-469,-559,-4.6424,5.38062,0,0,0,0,0,0,0,-1,755,1583,-4.64237,-5.38058
-462,-559,-0.161865,6.49438,0,0,0,0,0,0,0,-1,762,1583,-0.161835,-6.49444
-455,-559,1.08826,7.02527,0,0,0,0,0,0,0,-1,769,1583,1.08823,-7.02529
-448,-559,-2.86023,20.0852,0,0,0,0,0,0,0,-1,776,1583,-2.86025,-20.0852
-441,-559,-0.472473,24.123,0,0,0,0,0,0,0,-1,783,1583,-0.47247,-24.123
-434,-559,-1.1405,24.5402,-0.00195296,-0.00688091,0.00054472,-0.00189346,-0.0069404,0.108787,0.00414262,0.0482467,790,1583,-1.14051,-24.5401
-427,-559,-1.53748,25.0685,-0.00362902,-0.00531844,-0.000623593,-0.00342378,-0.00552368,-0.317964,0.00321949,0.0433881,797,1583,-1.53749,-25.0685
-420,-559,-1.62701,25.4178,0,0,0,0,0,0,0,-1,804,1583,-1.627,-25.4178
-413,-559,-1.70276,26.1617,-0.0043818,-0.00240702,-0.00138118,-0.00169659,-0.00509223,-1.09572,0.00299405,0.0177101,811,1583,-1.70276,-26.1618
-406,-559,-1.7265,26.8173,-0.00434609,-0.0014823,-0.00165137,-0.00072848,-0.00509991,-1.14257,0.00318501,0.00967243,818,1583,-1.72652,-26.8172
-399,-559,-1.75323,27.4592,-0.00344064,-0.00041545,-0.000828736,-0.000203299,-0.00365279,-1.32019,0.00237034,0.0134522,825,1583,-1.75323,-27.4593
-392,-559,-1.79486,28.0825,-0.00193366,0.000366628,2.43713e-05,0.000366886,-0.00193392,1.5602,0.00142738,0.0172856,832,1583,-1.79486,-28.0825
-385,-559,-1.8396,28.7156,-0.000491509,0.00102484,0.000671151,0.00127922,-0.000745892,1.2085,0.00118264,0.0166952,839,1583,-1.83957,-28.7155
-378,-559,-1.86896,29.3384,0.000942086,0.00181543,0.00133606,0.00278436,-2.68476e-05,0.943344,0.00186526,0.0154293,846,1583,-1.86893,-29.3383
-371,-559,-1.89502,29.9884,0.00212267,0.0025027,0.00179201,0.00411475,0.000510627,0.838219,0.00258979,0.0225395,853,1583,-1.89503,-29.9884
-364,-559,-1.90863,30.592,0.00326389,0.00333774,0.00232362,0.00562473,0.000976896,0.793343,0.00347033,0.0201212,860,1583,-1.90863,-30.592
-357,-559,-1.91309,31.2064,0.00449799,0.00434462,0.00293031,0.00735262,0.00148999,0.772316,0.00448829,0.0127422,867,1583,-1.91306,-31.2064
-350,-559,-1.92145,31.8278,0.00588993,0.00549975,0.00366673,0.00936676,0.00202292,0.758821,0.00569133,0.0109938,874,1583,-1.92147,-31.8278
-343,-559,-1.93829,32.4335,0.00738645,0.00692317,0.0046093,0.0117699,0.00253969,0.760292,0.00715198,0.0118433,881,1583,-1.93832,-32.4335
-336,-559,-2.00281,33.0148,0.00886042,0.00862727,0.00561814,0.0143632,0.00312449,0.775025,0.00872254,0.0272199,888,1583,-2.0028,-33.0148
-329,-559,-1.86053,33.9283,0.0105089,0.0105653,0.00687334,0.0174105,0.00366372,0.787447,0.010599,0.0489803,895,1583,-1.86052,-33.9283
-322,-559,-1.37292,34.9614,0,0,0,0,0,0,0,-1,902,1583,-1.37295,-34.9614
-315,-559,-0.659607,29.1698,0,0,0,0,0,0,0,-1,909,1583,-0.659577,-29.1698
-308,-559,-0.755493,30.4624,0,0,0,0,0,0,0,-1,916,1583,-0.755509,-30.4625
-301,-559,-1.22174,31.0372,0,0,0,0,0,0,0,-1,923,1583,-1.22176,-31.0372
-294,-559,0.945129,18.5165,0,0,0,0,0,0,0,-1,930,1583,0.945117,-18.5165
-287,-559,-0.11792,15.4912,0,0,0,0,0,0,0,-1,937,1583,-0.117939,-15.4912
-280,-559,0.191467,13.5093,0,0,0,0,0,0,0,-1,944,1583,0.191441,-13.5093
-273,-559,2.12836,10.3059,0,0,0,0,0,0,0,-1,951,1583,2.12839,-10.3059
-266,-559,-0.597046,6.68933,0,0,0,0,0,0,0,-1,958,1583,-0.597031,-6.68937
-259,-559,-7.00311,8.62756,0,0,0,0,0,0,0,-1,965,1583,-7.00312,-8.6275
-252,-559,-9.4483,2.87805,0,0,0,0,0,0,0,-1,972,1583,-9.44829,-2.87805
-245,-559,-4.80804,7.1803,0,0,0,0,0,0,0,-1,979,1583,-4.80804,-7.18027
-238,-559,-8.45764,2.54858,0,0,0,0,0,0,0,-1,986,1583,-8.45763,-2.54862
-231,-559,-5.86914,4.34021,0,0,0,0,0,0,0,-1,993,1583,-5.86914,-4.34019
-224,-559,-3.30505,6.22864,0,0,0,0,0,0,0,-1,1000,1583,-3.30505,-6.22859
-217,-559,0,0,0,0,0,0,0,0,0,-1,1007,1583,0,0
-210,-559,0,0,0,0,0,0,0,0,0,-1,1014,1583,0,0
-203,-559,0,0,0,0,0,0,0,0,0,-1,1021,1583,0,0
-196,-559,0,0,0,0,0,0,0,0,0,-1,1028,1583,0,0
-189,-559,0,0,0,0,0,0,0,0,0,-1,1035,1583,0,0
-182,-559,0,0,0,0,0,0,0,0,0,-1,1042,1583,0,0
-175,-559,0,0,0,0,0,0,0,0,0,-1,1049,1583,0,0
-168,-559,0,0,0,0,0,0,0,0,0,-1,1056,1583,0,0
-161,-559,0,0,0,0,0,0,0,0,0,-1,1063,1583,0,0
-154,-559,0,0,0,0,0,0,0,0,0,-1,1070,1583,0,0
-147,-559,0,0,0,0,0,0,0,0,0,-1,1077,1583,0,0
-140,-559,0,0,0,0,0,0,0,0,0,-1,1084,1583,0,0
-133,-559,0,0,0,0,0,0,0,0,0,-1,1091,1583,0,0
-126,-559,0,0,0,0,0,0,0,0,0,-1,1098,1583,0,0
-119,-559,0,0,0,0,0,0,0,0,0,-1,1105,1583,0,0
-112,-559,0,0,0,0,0,0,0,0,0,-1,1112,1583,0,0
-105,-559,0,0,0,0,0,0,0,0,0,-1,1119,1583,0,0
-98,-559,0,0,0,0,0,0,0,0,0,-1,1126,1583,0,0
-91,-559,0,0,0,0,0,0,0,0,0,-1,1133,1583,0,0
-84,-559,0,0,0,0,0,0,0,0,0,-1,1140,1583,0,0
-77,-559,0,0,0,0,0,0,0,0,0,-1,1147,1583,0,0
-70,-559,0,0,0,0,0,0,0,0,0,-1,1154,1583,0,0
-63,-559,0,0,0,0,0,0,0,0,0,-1,1161,1583,0,0
-56,-559,0,0,0,0,0,0,0,0,0,-1,1168,1583,0,0
-49,-559,0,0,0,0,0,0,0,0,0,-1,1175,1583,0,0
-42,-559,0,0,0,0,0,0,0,0,0,-1,1182,1583,0,0
-35,-559,0,0,0,0,0,0,0,0,0,-1,1189,1583,0,0
-28,-559,0,0,0,0,0,0,0,0,0,-1,1196,1583,0,0
-21,-559,0,0,0,0,0,0,0,0,0,-1,1203,1583,0,0
-14,-559,0,0,0,0,0,0,0,0,0,-1,1210,1583,0,0
-7,-559,0,0,0,0,0,0,0,0,0,-1,1217,1583,0,0
0,-559,0,0,0,0,0,0,0,0,0,-1,1224,1583,0,0
7,-559,0,0,0,0,0,0,0,0,0,-1,1231,1583,0,0
14,-559,0,0,0,0,0,0,0,0,0,-1,1238,1583,0,0
21,-559,0,0,0,0,0,0,0,0,0,-1,1245,1583,0,0
28,-559,0,0,0,0,0,0,0,0,0,-1,1252,1583,0,0
35,-559,0,0,0,0,0,0,0,0,0,-1,1259,1583,0,0
42,-559,0,0,0,0,0,0,0,0,0,-1,1266,1583,0,0
49,-559,0,0,0,0,0,0,0,0,0,-1,1273,1583,0,0
56,-559,0,0,0,0,0,0,0,0,0,-1,1280,1583,0,0
63,-559,0,0,0,0,0,0,0,0,0,-1,1287,1583,0,0
70,-559,0,0,0,0,0,0,0,0,0,-1,1294,1583,0,0
77,-559,0,0,0,0,0,0,0,0,0,-1,1301,1583,0,0
84,-559,0,0,0,0,0,0,0,0,0,-1,1308,1583,0,0
91,-559,0,0,0,0,0,0,0,0,0,-1,1315,1583,0,0
98,-559,0,0,0,0,0,0,0,0,0,-1,1322,1583,0,0
105,-559,0,0,0,0,0,0,0,0,0,-1,1329,1583,0,0
112,-559,0,0,0,0,0,0,0,0,0,-1,1336,1583,0,0
119,-559,0,0,0,0,0,0,0,0,0,-1,1343,1583,0,0
126,-559,0,0,0,0,0,0,0,0,0,-1,1350,1583,0,0
133,-559,0,0,0,0,0,0,0,0,0,-1,1357,1583,0,0
140,-559,0,0,0,0,0,0,0,0,0,-1,1364,1583,0,0
147,-559,0,0,0,0,0,0,0,0,0,-1,1371,1583,0,0
154,-559,0,0,0,0,0,0,0,0,0,-1,1378,1583,0,0
161,-559,0,0,0,0,0,0,0,0,0,-1,1385,1583,0,0
168,-559,0,0,0,0,0,0,0,0,0,-1,1392,1583,0,0
175,-559,0,0,0,0,0,0,0,0,0,-1,1399,1583,0,0
182,-559,0,0,0,0,0,0,0,0,0,-1,1406,1583,0,0
189,-559,0,0,0,0,0,0,0,0,0,-1,1413,1583,0,0
196,-559,0,0,0,0,0,0,0,0,0,-1,1420,1583,0,0
203,-559,0,0,0,0,0,0,0,0,0,-1,1427,1583,0,0
210,-559,0,0,0,0,0,0,0,0,0,-1,1434,1583,0,0
217,-559,0,0,0,0,0,0,0,0,0,-1,1441,1583,0,0
224,-559,0,0,0,0,0,0,0,0,0,-1,1448,1583,0,0
231,-559,0,0,0,0,0,0,0,0,0,-1,1455,1583,0,0
238,-559,0,0,0,0,0,0,0,0,0,-1,1462,1583,0,0
245,-559,0,0,0,0,0,0,0,0,0,-1,1469,1583,0,0
252,-559,0,0,0,0,0,0,0,0,0,-1,1476,1583,0,0
259,-559,0,0,0,0,0,0,0,0,0,-1,1483,1583,0,0
266,-559,0,0,0,0,0,0,0,0,0,-1,1490,1583,0,0
273,-559,0,0,0,0,0,0,0,0,0,-1,1497,1583,0,0
280,-559,0,0,0,0,0,0,0,0,0,-1,1504,1583,0,0
287,-559,0,0,0,0,0,0,0,0,0,-1,1511,1583,0,0
294,-559,0,0,0,0,0,0,0,0,0,-1,1518,1583,0,0
301,-559,0,0,0,0,0,0,0,0,0,-1,1525,1583,0,0
308,-559,0,0,0,0,0,0,0,0,0,-1,1532,1583,0,0
315,-559,0,0,0,0,0,0,0,0,0,-1,1539,1583,0,0
322,-559,0,0,0,0,0,0,0,0,0,-1,1546,1583,0,0
329,-559,0,0,0,0,0,0,0,0,0,-1,1553,1583,0,0
336,-559,5.97668,3.09827,0,0,0,0,0,0,0,-1,1560,1583,5.97667,-3.09824
343,-559,5.44824,2.88696,0,0,0,0,0,0,0,-1,1567,1583,5.44819,-2.88693
350,-559,4.69775,3.27051,0,0,0,0,0,0,0,-1,1574,1583,4.69771,-3.27048
357,-559,3.88025,3.60999,0,0,0,0,0,0,0,-1,1581,1583,3.88027,-3.60998
364,-559,5.00928,5.32605,0,0,0,0,0,0,0,-1,1588,1583,5.00928,-5.32607
371,-559,1.84436,2.52441,0,0,0,0,0,0,0,-1,1595,1583,1.84441,-2.52447
378,-559,6.34753,1.53137,0,0,0,0,0,0,0,-1,1602,1583,6.34752,-1.53139
385,-559,6.95911,1.48181,0,0,0,0,0,0,0,-1,1609,1583,6.95916,-1.48175
392,-559,11.6949,4.77734,0,0,0,0,0,0,0,-1,1616,1583,11.6949,-4.77731
399,-559,11.1104,5.56909,0,0,0,0,0,0,0,-1,1623,1583,11.1103,-5.56905
406,-559,10.3385,6.48657,0,0,0,0,0,0,0,-1,1630,1583,10.3385,-6.48661
413,-559,9.76147,6.97571,0,0,0,0,0,0,0,-1,1637,1583,9.76143,-6.97574
420,-559,7.77124,10.5851,0,0,0,0,0,0,0,-1,1644,1583,7.77128,-10.585
427,-559,10.1022,12.5565,0,0,0,0,0,0,0,-1,1651,1583,10.1021,-12.5565
434,-559,9.62769,14.6309,0,0,0,0,0,0,0,-1,1658,1583,9.62771,-14.6309
441,-559,12.6149,21.3678,0,0,0,0,0,0,0,-1,1665,1583,12.6149,-21.3678
448,-559,13.7046,22.6677,0,0,0,0,0,0,0,-1,1672,1583,13.7046,-22.6677
455,-559,13.9427,23.0509,0,0,0,0,0,0,0,-1,1679,1583,13.9427,-23.0509
462,-559,19.4946,34.759,0,0,0,0,0,0,0,-1,1686,1583,19.4946,-34.759
469,-559,19.6084,33.6439,0,0,0,0,0,0,0,-1,1693,1583,19.6084,-33.6439
476,-559,19.7949,32.9725,0.00852168,0.0135644,-0.00800785,0.0194384,0.00264761,-0.937914,0.0121728,0.024779,1700,1583,19.795,-32.9725
483,-559,19.843,32.2837,0.00706447,0.0105582,-0.00626803,0.0153183,0.00230445,-0.921298,0.00953728,0.0132349,1707,1583,19.8431,-32.2837
490,-559,19.8094,31.6855,0.00575794,0.00793663,-0.00486921,0.0118369,0.00185771,-0.895446,0.00735068,0.0154146,1714,1583,19.8094,-31.6856
497,-559,19.8468,31.1251,0.00456651,0.005815,-0.00371716,0.00895997,0.00142155,-0.86859,0.00556037,0.019504,1721,1583,19.8468,-31.1252
504,-559,19.77,30.5493,0.00357264,0.00392777,-0.00274641,0.00650235,0.000998065,-0.81768,0.00404348,0.0242101,1728,1583,19.77,-30.5493
511,-559,19.7666,29.9279,0.0025182,0.00254361,-0.00178789,0.00431885,0.000742968,-0.788951,0.00266631,0.0207895,1735,1583,19.7666,-29.9278
518,-559,19.7926,29.3213,0.00140255,0.00123172,-0.000824221,0.00214577,0.000488501,-0.733769,0.00129867,0.0136686,1742,1583,19.7926,-29.3214
525,-559,19.7515,28.7214,0.000339445,0.000215352,6.78222e-05,0.000369321,0.000185477,0.414921,0.000213228,0.0127366,1749,1583,19.7515,-28.7215
532,-559,19.7123,28.1472,-0.000684023,-0.000827765,0.00107199,0.000318505,-0.00183029,0.751926,0.00133905,0.0141112,1756,1583,19.7122,-28.1473
539,-559,19.6588,27.5679,-0.00172522,-0.00180831,0.00222752,0.000461138,-0.00399467,0.776074,0.00282938,0.0184042,1763,1583,19.6589,-27.5679
546,-559,19.5909,26.9475,-0.00282171,-0.00291666,0.00364144,0.000772568,-0.00651093,0.77888,0.00461973,0.0164678,1770,1583,19.5909,-26.9475
553,-559,19.6643,26.2625,-0.0038736,-0.00394871,0.00521296,0.00130194,-0.00912425,0.781796,0.00656002,0.0211668,1777,1583,19.6643,-26.2625
560,-559,19.6268,25.7977,-0.00481319,-0.00491055,0.00689742,0.00203573,-0.0117595,0.781869,0.00859892,0.0396477,1784,1583,19.6269,-25.7978
567,-559,19.5437,25.1071,0,0,0,0,0,0,0,-1,1791,1583,19.5437,-25.1071
574,-559,10.5109,10.7317,0,0,0,0,0,0,0,-1,1798,1583,10.5108,-10.7317
581,-559,5.97095,5.96179,0,0,0,0,0,0,0,-1,1805,1583,5.97093,-5.96181
588,-559,5.79102,5.89954,0,0,0,0,0,0,0,-1,1812,1583,5.79098,-5.89949
595,-559,5.79089,6.24231,0,0,0,0,0,0,0,-1,1819,1583,5.7909,-6.24227
602,-559,12.478,2.35669,0,0,0,0,0,0,0,-1,1826,1583,12.4781,-2.35675
609,-559,14.0479,1.22681,0,0,0,0,0,0,0,-1,1833,1583,14.0479,-1.22681
616,-559,0,0,0,0,0,0,0,0,0,-1,1840,1583,0,0
623,-559,0,0,0,0,0,0,0,0,0,-1,1847,1583,0,0
630,-559,0,0,0,0,0,0,0,0,0,-1,1854,1583,0,0
637,-559,0,0,0,0,0,0,0,0,0,-1,1861,1583,0,0
644,-559,0,0,0,0,0,0,0,0,0,-1,1868,1583,0,0
651,-559,0,0,0,0,0,0,0,0,0,-1,1875,1583,0,0
658,-559,0,0,0,0,0,0,0,0,0,-1,1882,1583,0,0
665,-559,0,0,0,0,0,0,0,0,0,-1,1889,1583,0,0
672,-559,0,0,0,0,0,0,0,0,0,-1,1896,1583,0,0
679,-559,0,0,0,0,0,0,0,0,0,-1,1903,1583,0,0
686,-559,0,0,0,0,0,0,0,0,0,-1,1910,1583,0,0
693,-559,0,0,0,0,0,0,0,0,0,-1,1917,1583,0,0
700,-559,0,0,0,0,0,0,0,0,0,-1,1924,1583,0,0
707,-559,0,0,0,0,0,0,0,0,0,-1,1931,1583,0,0
714,-559,0,0,0,0,0,0,0,0,0,-1,1938,1583,0,0
721,-559,0,0,0,0,0,0,0,0,0,-1,1945,1583,0,0
728,-559,0,0,0,0,0,0,0,0,0,-1,1952,1583,0,0
735,-559,0,0,0,0,0,0,0,0,0,-1,1959,1583,0,0
742,-559,0,0,0,0,0,0,0,0,0,-1,1966,1583,0,0
749,-559,0,0,0,0,0,0,0,0,0,-1,1973,1583,0,0
756,-559,0,0,0,0,0,0,0,0,0,-1,1980,1583,0,0
763,-559,0,0,0,0,0,0,0,0,0,-1,1987,1583,0,0
770,-559,0,0,0,0,0,0,0,0,0,-1,1994,1583,0,0
777,-559,0,0,0,0,0,0,0,0,0,-1,2001,1583,0,0
784,-559,0,0,0,0,0,0,0,0,0,-1,2008,1583,0,0
791,-559,0,0,0,0,0,0,0,0,0,-1,2015,1583,0,0
798,-559,0,0,0,0,0,0,0,0,0,-1,2022,1583,0,0
805,-559,0,0,0,0,0,0,0,0,0,-1,2029,1583,0,0
812,-559,0,0,0,0,0,0,0,0,0,-1,2036,1583,0,0
-700,-566,0,0,0,0,0,0,0,0,0,-1,524,1590,0,0
-693,-566,0,0,0,0,0,0,0,0,0,-1,531,1590,0,0
-686,-566,0,0,0,0,0,0,0,0,0,-1,538,1590,0,0
-679,-566,0,0,0,0,0,0,0,0,0,-1,545,1590,0,0
-672,-566,0,0,0,0,0,0,0,0,0,-1,552,1590,0,0
-665,-566,0,0,0,0,0,0,0,0,0,-1,559,1590,0,0
-658,-566,0,0,0,0,0,0,0,0,0,-1,566,1590,0,0
-651,-566,0,0,0,0,0,0,0,0,0,-1,573,1590,0,0
-644,-566,0,0,0,0,0,0,0,0,0,-1,580,1590,0,0
-637,-566,0,0,0,0,0,0,0,0,0,-1,587,1590,0,0
-630,-566,0,0,0,0,0,0,0,0,0,-1,594,1590,0,0
-623,-566,0,0,0,0,0,0,0,0,0,-1,601,1590,0,0
-616,-566,0,0,0,0,0,0,0,0,0,-1,608,1590,0,0
-609,-566,0,0,0,0,0,0,0,0,0,-1,615,1590,0,0
-602,-566,0,0,0,0,0,0,0,0,0,-1,622,1590,0,0
-595,-566,0,0,0,0,0,0,0,0,0,-1,629,1590,0,0
-588,-566,0,0,0,0,0,0,0,0,0,-1,636,1590,0,0
-581,-566,0,0,0,0,0,0,0,0,0,-1,643,1590,0,0
-574,-566,0,0,0,0,0,0,0,0,0,-1,650,1590,0,0
-567,-566,0,0,0,0,0,0,0,0,0,-1,657,1590,0,0
-560,-566,0,0,0,0,0,0,0,0,0,-1,664,1590,0,0
-553,-566,0,0,0,0,0,0,0,0,0,-1,671,1590,0,0
-546,-566,0,0,0,0,0,0,0,0,0,-1,678,1590,0,0
-539,-566,0,0,0,0,0,0,0,0,0,-1,685,1590,0,0
-532,-566,0,0,0,0,0,0,0,0,0,-1,692,1590,0,0
-525,-566,0,0,0,0,0,0,0,0,0,-1,699,1590,0,0
-518,-566,0,0,0,0,0,0,0,0,0,-1,706,1590,0,0
-511,-566,0,0,0,0,0,0,0,0,0,-1,713,1590,0,0
-504,-566,0,0,0,0,0,0,0,0,0,-1,720,1590,0,0
-497,-566,0,0,0,0,0,0,0,0,0,-1,727,1590,0,0
-490,-566,0,0,0,0,0,0,0,0,0,-1,734,1590,0,0
-483,-566,-7.17084,2.78613,0,0,0,0,0,0,0,-1,741,1590,-7.17083,-2.78618
-476,-566,-7.13971,2.87183,0,0,0,0,0,0,0,-1,748,1590,-7.13971,-2.87184
-469,-566,-6.43829,3.2998,0,0,0,0,0,0,0,-1,755,1590,-6.43829,-3.2998
-462,-566,-0.459106,3.89343,0,0,0,0,0,0,0,-1,762,1590,-0.459095,-3.89341
-455,-566,0.280212,4.74023,0,0,0,0,0,0,0,-1,769,1590,0.280207,-4.74023
-448,-566,0.436951,5.51306,0,0,0,0,0,0,0,-1,776,1590,0.436971,-5.51301
-441,-566,-0.440735,12.4063,0,0,0,0,0,0,0,-1,783,1590,-0.440753,-12.4062
-434,-566,-0.463257,24.7469,0,0,0,0,0,0,0,-1,790,1590,-0.463266,-24.747
-427,-566,-0.989807,25.811,0,0,0,0,0,0,0,-1,797,1590,-0.989798,-25.811
-420,-566,-1.24933,25.4309,0,0,0,0,0,0,0,-1,804,1590,-1.24933,-25.4309
-413,-566,-1.10693,26.1819,-0.00626115,-0.00240823,-0.00165012,-0.00179813,-0.00687125,-1.21665,0.00411458,0.0324511,811,1590,-1.10693,-26.1819
-406,-566,-1.09271,26.8392,-0.00601188,-0.00155786,-0.00189068,-0.000863527,-0.00670622,-1.21885,0.00421258,0.0131259,818,1590,-1.0927,-26.8392
-399,-566,-1.13269,27.4814,-0.00488319,-0.000611679,-0.00104556,-0.000369483,-0.00512539,-1.34317,0.00330067,0.0108955,825,1590,-1.13272,-27.4814
-392,-566,-1.1756,28.118,-0.00318181,7.83642e-05,-0.000170741,8.72818e-05,-0.00319072,-1.51861,0.00215683,0.0141812,832,1590,-1.17559,-28.1181
-385,-566,-1.19171,28.7731,-0.00164156,0.000658134,0.000446674,0.000741845,-0.00172527,1.38554,0.00146163,0.0159885,839,1590,-1.19168,-28.7731
-378,-566,-1.23022,29.417,-0.000141717,0.00126612,0.00105916,0.00183394,-0.000709537,1.07868,0.00151555,0.0156478,846,1590,-1.23024,-29.417
-371,-566,-1.28778,30.0464,0.00104666,0.00181674,0.00142041,0.00290338,-3.99741e-05,0.917756,0.00194905,0.0221004,853,1590,-1.28777,-30.0463
-364,-566,-1.29828,30.6501,0.00211328,0.00244486,0.00182432,0.00411091,0.000447237,0.830712,0.00260436,0.0227559,860,1590,-1.29827,-30.6501
-357,-566,-1.30066,31.2285,0.00324163,0.00325112,0.00229655,0.00554293,0.000949818,0.786432,0.0034229,0.0195813,867,1590,-1.30066,-31.2286
-350,-566,-1.30463,31.8735,0.00450035,0.00416616,0.00287501,0.00721312,0.00145339,0.756371,0.00440495,0.0225163,874,1590,-1.30463,-31.8736
-343,-566,-1.28217,32.4601,0.00582095,0.00536588,0.00363876,0.00923928,0.00194755,0.754174,0.00562389,0.0265352,881,1590,-1.28218,-32.4601
-336,-566,-1.40558,33.0308,0.00711925,0.00672714,0.00445221,0.0113797,0.00246667,0.763395,0.00691255,0.0301561,888,1590,-1.40559,-33.0308
-329,-566,-1.34351,33.6018,0.00852084,0.00833621,0.00545107,0.0138804,0.00297667,0.776932,0.00843823,0.0280316,895,1590,-1.34352,-33.6018
-322,-566,-1.25983,34.3599,0.0102492,0.0103374,0.00683978,0.0171332,0.00345341,0.788622,0.0104628,0.0360162,902,1590,-1.25985,-34.3598
-315,-566,-1.14063,35.2927,0,0,0,0,0,0,0,-1,909,1590,-1.14065,-35.2927
-308,-566,-0.127258,29.7607,0,0,0,0,0,0,0,-1,916,1590,-0.12725,-29.7608
-301,-566,0.424011,30.6545,0,0,0,0,0,0,0,-1,923,1590,0.424036,-30.6546
-294,-566,-0.623474,37.1293,0,0,0,0,0,0,0,-1,930,1590,-0.623483,-37.1292
-287,-566,1.25391,23.4589,0,0,0,0,0,0,0,-1,937,1590,1.2539,-23.4589
-280,-566,1.59406,17.8762,0,0,0,0,0,0,0,-1,944,1590,1.59405,-17.8762
-273,-566,0.49762,11.2427,0,0,0,0,0,0,0,-1,951,1590,0.497591,-11.2426
-266,-566,0.392151,6.90295,0,0,0,0,0,0,0,-1,958,1590,0.392151,-6.90294
-259,-566,0.343628,6.47437,0,0,0,0,0,0,0,-1,965,1590,0.34363,-6.47438
-252,-566,-7.68311,1.01343,0,0,0,0,0,0,0,-1,972,1590,-7.68308,-1.01348
-245,-566,-11.1835,1.97522,0,0,0,0,0,0,0,-1,979,1590,-11.1835,-1.97527
-238,-566,-10.4883,2.40491,0,0,0,0,0,0,0,-1,986,1590,-10.4883,-2.40487
-231,-566,-7.41827,4.22803,0,0,0,0,0,0,0,-1,993,1590,-7.41827,-4.22803
-224,-566,-4.67188,6.30859,0,0,0,0,0,0,0,-1,1000,1590,-4.67185,-6.30853
-217,-566,-2.82867,7.52527,0,0,0,0,0,0,0,-1,1007,1590,-2.82869,-7.52531
-210,-566,-1.03436,8.67737,0,0,0,0,0,0,0,-1,1014,1590,-1.03439,-8.67733
-203,-566,0,0,0,0,0,0,0,0,0,-1,1021,1590,0,0
-196,-566,0,0,0,0,0,0,0,0,0,-1,1028,1590,0,0
-189,-566,0,0,0,0,0,0,0,0,0,-1,1035,1590,0,0
-182,-566,0,0,0,0,0,0,0,0,0,-1,1042,1590,0,0
-175,-566,0,0,0,0,0,0,0,0,0,-1,1049,1590,0,0
-168,-566,0,0,0,0,0,0,0,0,0,-1,1056,1590,0,0
-161,-566,0,0,0,0,0,0,0,0,0,-1,1063,1590,0,0
-154,-566,0,0,0,0,0,0,0,0,0,-1,1070,1590,0,0
-147,-566,0,0,0,0,0,0,0,0,0,-1,1077,1590,0,0
-140,-566,0,0,0,0,0,0,0,0,0,-1,1084,1590,0,0
-133,-566,0,0,0,0,0,0,0,0,0,-1,1091,1590,0,0
-126,-566,0,0,0,0,0,0,0,0,0,-1,1098,1590,0,0
-119,-566,0,0,0,0,0,0,0,0,0,-1,1105,1590,0,0
-112,-566,0,0,0,0,0,0,0,0,0,-1,1112,1590,0,0
-105,-566,0,0,0,0,0,0,0,0,0,-1,1119,1590,0,0
-98,-566,0,0,0,0,0,0,0,0,0,-1,1126,1590,0,0
-91,-566,0,0,0,0,0,0,0,0,0,-1,1133,1590,0,0
-84,-566,0,0,0,0,0,0,0,0,0,-1,1140,1590,0,0
-77,-566,0,0,0,0,0,0,0,0,0,-1,1147,1590,0,0
-70,-566,0,0,0,0,0,0,0,0,0,-1,1154,1590,0,0
-63,-566,0,0,0,0,0,0,0,0,0,-1,1161,1590,0,0
-56,-566,0,0,0,0,0,0,0,0,0,-1,1168,1590,0,0
-49,-566,0,0,0,0,0,0,0,0,0,-1,1175,1590,0,0
-42,-566,0,0,0,0,0,0,0,0,0,-1,1182,1590,0,0
-35,-566,0,0,0,0,0,0,0,0,0,-1,1189,1590,0,0
-28,-566,0,0,0,0,0,0,0,0,0,-1,1196,1590,0,0
-21,-566,0,0,0,0,0,0,0,0,0,-1,1203,1590,0,0
-14,-566,0,0,0,0,0,0,0,0,0,-1,1210,1590,0,0
-7,-566,0,0,0,0,0,0,0,0,0,-1,1217,1590,0,0
0,-566,0,0,0,0,0,0,0,0,0,-1,1224,1590,0,0
7,-566,0,0,0,0,0,0,0,0,0,-1,1231,1590,0,0
14,-566,0,0,0,0,0,0,0,0,0,-1,1238,1590,0,0
21,-566,0,0,0,0,0,0,0,0,0,-1,1245,1590,0,0
28,-566,0,0,0,0,0,0,0,0,0,-1,1252,1590,0,0
35,-566,0,0,0,0,0,0,0,0,0,-1,1259,1590,0,0
42,-566,0,0,0,0,0,0,0,0,0,-1,1266,1590,0,0
49,-566,0,0,0,0,0,0,0,0,0,-1,1273,1590,0,0
56,-566,0,0,0,0,0,0,0,0,0,-1,1280,1590,0,0
63,-566,0,0,0,0,0,0,0,0,0,-1,1287,1590,0,0
70,-566,0,0,0,0,0,0,0,0,0,-1,1294,1590,0,0
77,-566,0,0,0,0,0,0,0,0,0,-1,1301,1590,0,0
84,-566,0,0,0,0,0,0,0,0,0,-1,1308,1590,0,0
91,-566,0,0,0,0,0,0,0,0,0,-1,1315,1590,0,0
98,-566,0,0,0,0,0,0,0,0,0,-1,1322,1590,0,0
105,-566,0,0,0,0,0,0,0,0,0,-1,1329,1590,0,0
112,-566,0,0,0,0,0,0,0,0,0,-1,1336,1590,0,0
119,-566,0,0,0,0,0,0,0,0,0,-1,1343,1590,0,0
126,-566,0,0,0,0,0,0,0,0,0,-1,1350,1590,0,0
133,-566,0,0,0,0,0,0,0,0,0,-1,1357,1590,0,0
140,-566,0,0,0,0,0,0,0,0,0,-1,1364,1590,0,0
147,-566,0,0,0,0,0,0,0,0,0,-1,1371,1590,0,0
154,-566,0,0,0,0,0,0,0,0,0,-1,1378,1590,0,0
161,-566,0,0,0,0,0,0,0,0,0,-1,1385,1590,0,0
168,-566,0,0,0,0,0,0,0,0,0,-1,1392,1590,0,0
175,-566,0,0,0,0,0,0,0,0,0,-1,1399,1590,0,0
182,-566,0,0,0,0,0,0,0,0,0,-1,1406,1590,0,0
189,-566,0,0,0,0,0,0,0,0,0,-1,1413,1590,0,0
196,-566,0,0,0,0,0,0,0,0,0,-1,1420,1590,0,0
203,-566,0,0,0,0,0,0,0,0,0,-1,1427,1590,0,0
210,-566,0,0,0,0,0,0,0,0,0,-1,1434,1590,0,0
217,-566,0,0,0,0,0,0,0,0,0,-1,1441,1590,0,0
224,-566,0,0,0,0,0,0,0,0,0,-1,1448,1590,0,0
231,-566,0,0,0,0,0,0,0,0,0,-1,1455,1590,0,0
238,-566,0,0,0,0,0,0,0,0,0,-1,1462,1590,0,0
245,-566,0,0,0,0,0,0,0,0,0,-1,1469,1590,0,0
252,-566,0,0,0,0,0,0,0,0,0,-1,1476,1590,0,0
259,-566,0,0,0,0,0,0,0,0,0,-1,1483,1590,0,0
266,-566,0,0,0,0,0,0,0,0,0,-1,1490,1590,0,0
273,-566,0,0,0,0,0,0,0,0,0,-1,1497,1590,0,0
280,-566,0,0,0,0,0,0,0,0,0,-1,1504,1590,0,0
287,-566,0,0,0,0,0,0,0,0,0,-1,1511,1590,0,0
294,-566,0,0,0,0,0,0,0,0,0,-1,1518,1590,0,0
301,-566,0,0,0,0,0,0,0,0,0,-1,1525,1590,0,0
308,-566,0,0,0,0,0,0,0,0,0,-1,1532,1590,0,0
315,-566,0,0,0,0,0,0,0,0,0,-1,1539,1590,0,0
322,-566,6.07983,4.44873,0,0,0,0,0,0,0,-1,1546,1590,6.07983,-4.44873
329,-566,5.77026,3.47534,0,0,0,0,0,0,0,-1,1553,1590,5.77026,-3.47535
336,-566,5.41138,2.62915,0,0,0,0,0,0,0,-1,1560,1590,5.41138,-2.62909
343,-566,4.81873,1.79089,0,0,0,0,0,0,0,-1,1567,1590,4.81878,-1.79095
350,-566,4.41663,2.44214,0,0,0,0,0,0,0,-1,1574,1590,4.41666,-2.44214
357,-566,6.34058,5.18579,0,0,0,0,0,0,0,-1,1581,1590,6.34059,-5.1858
364,-566,6.06262,4.20251,0,0,0,0,0,0,0,-1,1588,1590,6.06259,-4.20246
371,-566,5.78455,3.21912,0,0,0,0,0,0,0,-1,1595,1590,5.7846,-3.21912
378,-566,5.7439,0.695557,0,0,0,0,0,0,0,-1,1602,1590,5.74392,-0.695531
385,-566,5.67615,-0.573975,0,0,0,0,0,0,0,-1,1609,1590,5.67612,0.573956
392,-566,5.78638,1.82434,0,0,0,0,0,0,0,-1,1616,1590,5.78637,-1.82439
399,-566,18.6853,38.6455,0,0,0,0,0,0,0,-1,1623,1590,18.6853,-38.6456
406,-566,4.30359,5.26868,0,0,0,0,0,0,0,-1,1630,1590,4.30364,-5.26867
413,-566,4.27124,5.79492,0,0,0,0,0,0,0,-1,1637,1590,4.27123,-5.7949
420,-566,18.0121,32.5314,0,0,0,0,0,0,0,-1,1644,1590,18.0121,-32.5313
427,-566,19.4491,36.9315,0,0,0,0,0,0,0,-1,1651,1590,19.4491,-36.9315
434,-566,19.338,36.7385,0,0,0,0,0,0,0,-1,1658,1590,19.338,-36.7386
441,-566,15.5841,27.5869,0,0,0,0,0,0,0,-1,1665,1590,15.5842,-27.587
448,-566,19.2988,36.1812,0,0,0,0,0,0,0,-1,1672,1590,19.2988,-36.1812
455,-566,18.916,35.243,0,0,0,0,0,0,0,-1,1679,1590,18.916,-35.243
462,-566,19.0596,34.4087,0.00840192,0.0167368,-0.00895672,0.0224482,0.00269058,-1.00315,0.0141541,0.0435269,1686,1590,19.0596,-34.4087
469,-566,19.1947,33.5034,0.00761367,0.0135874,-0.00762006,0.0187851,0.00241599,-0.972182,0.0118008,0.0190281,1693,1590,19.1948,-33.5034
476,-566,19.2634,32.8798,0.00657837,0.0107604,-0.00619881,0.0152114,0.00212741,-0.948069,0.00951143,0.0102067,1700,1590,19.2635,-32.8798
483,-566,19.2402,32.3032,0.00538742,0.00828462,-0.00486908,0.011916,0.00175602,-0.929984,0.00742819,0.0101819,1707,1590,19.2402,-32.3032
490,-566,19.2166,31.7074,0.00431452,0.00609845,-0.00374822,0.00905937,0.00135359,-0.902211,0.00564276,0.0122427,1714,1590,19.2166,-31.7074
497,-566,19.2461,31.1105,0.00333081,0.00429859,-0.00284119,0.0066968,0.000932593,-0.869744,0.00418842,0.0158486,1721,1590,19.2461,-31.1105
504,-566,19.1885,30.5454,0.00243971,0.00265523,-0.00198968,0.00454006,0.000554874,-0.812452,0.00285975,0.0197917,1728,1590,19.1885,-30.5455
511,-566,19.168,29.9657,0.00144146,0.00143731,-0.00105524,0.00249463,0.000384142,-0.784414,0.00155098,0.0196935,1735,1590,19.168,-29.9657
518,-566,19.1796,29.3763,0.000429713,0.000306814,-0.000176761,0.000555402,0.000181126,-0.618113,0.000327061,0.0117137,1742,1590,19.1796,-29.3764
525,-566,19.1444,28.7649,-0.000584831,-0.000614346,0.000704454,0.00010502,-0.0013042,0.774925,0.000906501,0.0116491,1749,1590,19.1444,-28.7649
532,-566,19.1064,28.1594,-0.00163261,-0.00158378,0.00176555,0.000157523,-0.00337392,0.792313,0.00230358,0.0141253,1756,1590,19.1065,-28.1594
539,-566,19.0499,27.5515,-0.00280946,-0.00257115,0.00307301,0.000385011,-0.00576562,0.804776,0.0039783,0.0184177,1763,1590,19.0499,-27.5515
546,-566,19.0752,26.8765,-0.00414544,-0.00368413,0.00475583,0.00084664,-0.0086762,0.809629,0.00608601,0.0217115,1770,1590,19.0752,-26.8764
553,-566,19.1006,26.4512,-0.00554514,-0.00468982,0.00668533,0.00158151,-0.0118165,0.81734,0.00845427,0.034238,1777,1590,19.1006,-26.4511
560,-566,18.9194,26.158,-0.00706162,-0.0057239,0.00893484,0.00256708,-0.0153526,0.822759,0.0111893,0.0400232,1784,1590,18.9194,-26.158
567,-566,18.8301,25.7301,0,0,0,0,0,0,0,-1,1791,1590,18.83,-25.7302
574,-566,7.99548,3.14514,0,0,0,0,0,0,0,-1,1798,1590,7.99543,-3.14511
581,-566,2.54102,5.1311,0,0,0,0,0,0,0,-1,1805,1590,2.54099,-5.13111
588,-566,-1.91321,8.39197,0,0,0,0,0,0,0,-1,1812,1590,-1.91316,-8.39199
595,-566,9.0271,4.66467,0,0,0,0,0,0,0,-1,1819,1590,9.02705,-4.66468
602,-566,9.953,3.54895,0,0,0,0,0,0,0,-1,1826,1590,9.953,-3.54898
609,-566,0,0,0,0,0,0,0,0,0,-1,1833,1590,0,0
616,-566,0,0,0,0,0,0,0,0,0,-1,1840,1590,0,0
623,-566,0,0,0,0,0,0,0,0,0,-1,1847,1590,0,0
630,-566,0,0,0,0,0,0,0,0,0,-1,1854,1590,0,0
637,-566,0,0,0,0,0,0,0,0,0,-1,1861,1590,0,0
644,-566,0,0,0,0,0,0,0,0,0,-1,1868,1590,0,0
651,-566,0,0,0,0,0,0,0,0,0,-1,1875,1590,0,0
658,-566,0,0,0,0,0,0,0,0,0,-1,1882,1590,0,0
665,-566,0,0,0,0,0,0,0,0,0,-1,1889,1590,0,0
672,-566,0,0,0,0,0,0,0,0,0,-1,1896,1590,0,0
679,-566,0,0,0,0,0,0,0,0,0,-1,1903,1590,0,0
686,-566,0,0,0,0,0,0,0,0,0,-1,1910,1590,0,0
693,-566,0,0,0,0,0,0,0,0,0,-1,1917,1590,0,0
700,-566,0,0,0,0,0,0,0,0,0,-1,1924,1590,0,0
707,-566,0,0,0,0,0,0,0,0,0,-1,1931,1590,0,0
714,-566,0,0,0,0,0,0,0,0,0,-1,1938,1590,0,0
721,-566,0,0,0,0,0,0,0,0,0,-1,1945,1590,0,0
728,-566,0,0,0,0,0,0,0,0,0,-1,1952,1590,0,0
735,-566,0,0,0,0,0,0,0,0,0,-1,1959,1590,0,0
742,-566,0,0,0,0,0,0,0,0,0,-1,1966,1590,0,0
749,-566,0,0,0,0,0,0,0,0,0,-1,1973,1590,0,0
756,-566,0,0,0,0,0,0,0,0,0,-1,1980,1590,0,0
763,-566,0,0,0,0,0,0,0,0,0,-1,1987,1590,0,0
770,-566,0,0,0,0,0,0,0,0,0,-1,1994,1590,0,0
777,-566,0,0,0,0,0,0,0,0,0,-1,2001,1590,0,0
784,-566,0,0,0,0,0,0,0,0,0,-1,2008,1590,0,0
791,-566,0,0,0,0,0,0,0,0,0,-1,2015,1590,0,0
798,-566,0,0,0,0,0,0,0,0,0,-1,2022,1590,0,0
805,-566,0,0,0,0,0,0,0,0,0,-1,2029,1590,0,0
812,-566,0,0,0,0,0,0,0,0,0,-1,2036,1590,0,0
-700,-573,0,0,0,0,0,0,0,0,0,-1,524,1597,0,0
-693,-573,0,0,0,0,0,0,0,0,0,-1,531,1597,0,0
-686,-573,0,0,0,0,0,0,0,0,0,-1,538,1597,0,0
-679,-573,0,0,0,0,0,0,0,0,0,-1,545,1597,0,0
-672,-573,0,0,0,0,0,0,0,0,0,-1,552,1597,0,0
-665,-573,0,0,0,0,0,0,0,0,0,-1,559,1597,0,0
-658,-573,0,0,0,0,0,0,0,0,0,-1,566,1597,0,0
-651,-573,0,0,0,0,0,0,0,0,0,-1,573,1597,0,0
-644,-573,0,0,0,0,0,0,0,0,0,-1,580,1597,0,0
-637,-573,0,0,0,0,0,0,0,0,0,-1,587,1597,0,0
-630,-573,0,0,0,0,0,0,0,0,0,-1,594,1597,0,0
-623,-573,0,0,0,0,0,0,0,0,0,-1,601,1597,0,0
-616,-573,0,0,0,0,0,0,0,0,0,-1,608,1597,0,0
-609,-573,0,0,0,0,0,0,0,0,0,-1,615,1597,0,0
-602,-573,0,0,0,0,0,0,0,0,0,-1,622,1597,0,0
-595,-573,0,0,0,0,0,0,0,0,0,-1,629,1597,0,0
-588,-573,0,0,0,0,0,0,0,0,0,-1,636,1597,0,0
-581,-573,0,0,0,0,0,0,0,0,0,-1,643,1597,0,0
-574,-573,0,0,0,0,0,0,0,0,0,-1,650,1597,0,0
-567,-573,0,0,0,0,0,0,0,0,0,-1,657,1597,0,0
-560,-573,0,0,0,0,0,0,0,0,0,-1,664,1597,0,0
-553,-573,0,0,0,0,0,0,0,0,0,-1,671,1597,0,0
-546,-573,0,0,0,0,0,0,0,0,0,-1,678,1597,0,0
-539,-573,0,0,0,0,0,0,0,0,0,-1,685,1597,0,0
-532,-573,0,0,0,0,0,0,0,0,0,-1,692,1597,0,0
-525,-573,0,0,0,0,0,0,0,0,0,-1,699,1597,0,0
-518,-573,0,0,0,0,0,0,0,0,0,-1,706,1597,0,0
-511,-573,0,0,0,0,0,0,0,0,0,-1,713,1597,0,0
-504,-573,0,0,0,0,0,0,0,0,0,-1,720,1597,0,0
-497,-573,0,0,0,0,0,0,0,0,0,-1,727,1597,0,0
-490,-573,0,0,0,0,0,0,0,0,0,-1,734,1597,0,0
-483,-573,0,0,0,0,0,0,0,0,0,-1,741,1597,0,0
-476,-573,-9.3327,0.972778,0,0,0,0,0,0,0,-1,748,1597,-9.33268,-0.972776
-469,-573,-1.41681,1.13379,0,0,0,0,0,0,0,-1,755,1597,-1.41681,-1.13382
-462,-573,-0.748535,2.02588,0,0,0,0,0,0,0,-1,762,1597,-0.748533,-2.02584
-455,-573,-0.112976,2.70703,0,0,0,0,0,0,0,-1,769,1597,-0.112988,-2.70697
-448,-573,-1.26172,3.33252,0,0,0,0,0,0,0,-1,776,1597,-1.26173,-3.33248
-441,-573,0.108582,5.06726,0,0,0,0,0,0,0,-1,783,1597,0.108584,-5.06721
-434,-573,1.61768,7.05444,0,0,0,0,0,0,0,-1,790,1597,1.61767,-7.05446
-427,-573,-1.37927,24.4124,0,0,0,0,0,0,0,-1,797,1597,-1.37928,-24.4124
-420,-573,-0.000427246,24.9192,0,0,0,0,0,0,0,-1,804,1597,-0.000443923,-24.9192
-413,-573,-0.568054,25.9174,0,0,0,0,0,0,0,-1,811,1597,-0.568056,-25.9173
-406,-573,-0.473755,26.7662,-0.00768494,-0.00106418,-0.00169712,-0.000654498,-0.00809461,-1.33393,0.00519201,0.0374347,818,1597,-0.473744,-26.7663
-399,-573,-0.534424,27.4961,-0.0063353,-0.000339615,-0.00091084,-0.000204298,-0.00647062,-1.42331,0.00424728,0.015659,825,1597,-0.534417,-27.4961
-392,-573,-0.548523,28.1552,-0.00447518,0.000167694,-8.62089e-05,0.000169294,-0.00447678,-1.55224,0.00304252,0.0132283,832,1597,-0.54853,-28.1552
-385,-573,-0.589233,28.7993,-0.00287268,0.000588011,0.000427609,0.000640065,-0.00292473,1.44966,0.00219451,0.0148903,839,1597,-0.589222,-28.7993
-378,-573,-0.629822,29.4366,-0.00134563,0.000940594,0.000917553,0.0012633,-0.00166833,1.23261,0.00169795,0.0153357,846,1597,-0.629846,-29.4367
-371,-573,-0.641785,30.0704,-0.00015891,0.00131187,0.00115008,0.00194158,-0.000788618,1.06985,0.00162246,0.0163229,853,1597,-0.641758,-30.0704
-364,-573,-0.648315,30.6639,0.000855076,0.00171634,0.00140987,0.00275988,-0.00018846,0.933619,0.00190585,0.01954,860,1597,-0.648287,-30.6639
-357,-573,-0.646973,31.2511,0.00191865,0.00232096,0.00175006,0.00388139,0.000358217,0.842619,0.00247684,0.0240231,867,1597,-0.646968,-31.2511
-350,-573,-0.659729,31.8873,0.00309624,0.00301801,0.00218637,0.00524385,0.000870399,0.776453,0.00324491,0.018842,874,1597,-0.659754,-31.8873
-343,-573,-0.671021,32.512,0.00430804,0.00399545,0.00278453,0.00694066,0.00136283,0.757362,0.00424637,0.0219381,881,1597,-0.671025,-32.512
-336,-573,-0.708984,33.1151,0.00549883,0.00506217,0.0034349,0.00872233,0.00183867,0.75366,0.0053092,0.0177829,888,1597,-0.709013,-33.1151
-329,-573,-0.721436,33.7101,0.00674531,0.00639016,0.00422319,0.0107947,0.00234081,0.764387,0.00655695,0.0194022,895,1597,-0.721441,-33.71
-322,-573,-0.736816,34.3202,0.00817672,0.00799386,0.00527111,0.0133572,0.00281339,0.776726,0.00813089,0.0176607,902,1597,-0.736793,-34.3201
-315,-573,-0.595886,35.1237,0.00976443,0.0104538,0.00661455,0.0167326,0.00348559,0.81143,0.0101938,0.0379039,909,1597,-0.595862,-35.1237
-308,-573,-0.279968,35.9813,0,0,0,0,0,0,0,-1,916,1597,-0.279976,-35.9813
-301,-573,-0.507202,36.3816,0,0,0,0,0,0,0,-1,923,1597,-0.507219,-36.3816
-294,-573,-0.291504,36.5417,0,0,0,0,0,0,0,-1,930,1597,-0.291507,-36.5417
-287,-573,-0.118835,37.2726,0,0,0,0,0,0,0,-1,937,1597,-0.118816,-37.2726
-280,-573,1.19684,26.4906,0,0,0,0,0,0,0,-1,944,1597,1.19685,-26.4906
-273,-573,2.24805,25.4375,0,0,0,0,0,0,0,-1,951,1597,2.24803,-25.4374
-266,-573,1.31116,7.1814,0,0,0,0,0,0,0,-1,958,1597,1.31118,-7.18142
-259,-573,1.2514,6.70959,0,0,0,0,0,0,0,-1,965,1597,1.25137,-6.70965
-252,-573,2.07874,5.27161,0,0,0,0,0,0,0,-1,972,1597,2.07875,-5.27157
-245,-573,-10.2592,1.09827,0,0,0,0,0,0,0,-1,979,1597,-10.2592,-1.09823
-238,-573,-11.5463,4.44141,0,0,0,0,0,0,0,-1,986,1597,-11.5463,-4.44146
-231,-573,-9.23431,4.14539,0,0,0,0,0,0,0,-1,993,1597,-9.23431,-4.14534
-224,-573,-6.70044,7.40857,0,0,0,0,0,0,0,-1,1000,1597,-6.70045,-7.40851
-217,-573,-4.25824,8.59119,0,0,0,0,0,0,0,-1,1007,1597,-4.25824,-8.59122
-210,-573,-2.39661,9.73914,0,0,0,0,0,0,0,-1,1014,1597,-2.39658,-9.73915
-203,-573,-0.557373,10.9005,0,0,0,0,0,0,0,-1,1021,1597,-0.557387,-10.9006
-196,-573,-1.65344,9.02246,0,0,0,0,0,0,0,-1,1028,1597,-1.65349,-9.02241
-189,-573,-6.12915,6.66882,0,0,0,0,0,0,0,-1,1035,1597,-6.12913,-6.66884
-182,-573,0,0,0,0,0,0,0,0,0,-1,1042,1597,0,0
-175,-573,0,0,0,0,0,0,0,0,0,-1,1049,1597,0,0
-168,-573,0,0,0,0,0,0,0,0,0,-1,1056,1597,0,0
-161,-573,0,0,0,0,0,0,0,0,0,-1,1063,1597,0,0
-154,-573,0,0,0,0,0,0,0,0,0,-1,1070,1597,0,0
-147,-573,0,0,0,0,0,0,0,0,0,-1,1077,1597,0,0
-140,-573,0,0,0,0,0,0,0,0,0,-1,1084,1597,0,0
-133,-573,0,0,0,0,0,0,0,0,0,-1,1091,1597,0,0
-126,-573,0,0,0,0,0,0,0,0,0,-1,1098,1597,0,0
-119,-573,0,0,0,0,0,0,0,0,0,-1,1105,1597,0,0
-112,-573,0,0,0,0,0,0,0,0,0,-1,1112,1597,0,0
-105,-573,0,0,0,0,0,0,0,0,0,-1,1119,1597,0,0
-98,-573,0,0,0,0,0,0,0,0,0,-1,1126,1597,0,0
-91,-573,0,0,0,0,0,0,0,0,0,-1,1133,1597,0,0
-84,-573,0,0,0,0,0,0,0,0,0,-1,1140,1597,0,0
-77,-573,0,0,0,0,0,0,0,0,0,-1,1147,1597,0,0
-70,-573,0,0,0,0,0,0,0,0,0,-1,1154,1597,0,0
-63,-573,0,0,0,0,0,0,0,0,0,-1,1161,1597,0,0
-56,-573,0,0,0,0,0,0,0,0,0,-1,1168,1597,0,0
-49,-573,0,0,0,0,0,0,0,0,0,-1,1175,1597,0,0
-42,-573,0,0,0,0,0,0,0,0,0,-1,1182,1597,0,0
-35,-573,0,0,0,0,0,0,0,0,0,-1,1189,1597,0,0
-28,-573,0,0,0,0,0,0,0,0,0,-1,1196,1597,0,0
-21,-573,0,0,0,0,0,0,0,0,0,-1,1203,1597,0,0
-14,-573,0,0,0,0,0,0,0,0,0,-1,1210,1597,0,0
-7,-573,0,0,0,0,0,0,0,0,0,-1,1217,1597,0,0
0,-573,0,0,0,0,0,0,0,0,0,-1,1224,1597,0,0
7,-573,0,0,0,0,0,0,0,0,0,-1,1231,1597,0,0
14,-573,0,0,0,0,0,0,0,0,0,-1,1238,1597,0,0
21,-573,0,0,0,0,0,0,0,0,0,-1,1245,1597,0,0
28,-573,0,0,0,0,0,0,0,0,0,-1,1252,1597,0,0
35,-573,0,0,0,0,0,0,0,0,0,-1,1259,1597,0,0
42,-573,0,0,0,0,0,0,0,0,0,-1,1266,1597,0,0
49,-573,0,0,0,0,0,0,0,0,0,-1,1273,1597,0,0
56,-573,0,0,0,0,0,0,0,0,0,-1,1280,1597,0,0
63,-573,0,0,0,0,0,0,0,0,0,-1,1287,1597,0,0
70,-573,0,0,0,0,0,0,0,0,0,-1,1294,1597,0,0
77,-573,0,0,0,0,0,0,0,0,0,-1,1301,1597,0,0
84,-573,0,0,0,0,0,0,0,0,0,-1,1308,1597,0,0
91,-573,0,0,0,0,0,0,0,0,0,-1,1315,1597,0,0
98,-573,0,0,0,0,0,0,0,0,0,-1,1322,1597,0,0
105,-573,0,0,0,0,0,0,0,0,0,-1,1329,1597,0,0
112,-573,0,0,0,0,0,0,0,0,0,-1,1336,1597,0,0
119,-573,0,0,0,0,0,0,0,0,0,-1,1343,1597,0,0
126,-573,0,0,0,0,0,0,0,0,0,-1,1350,1597,0,0
133,-573,0,0,0,0,0,0,0,0,0,-1,1357,1597,0,0
140,-573,0,0,0,0,0,0,0,0,0,-1,1364,1597,0,0
147,-573,0,0,0,0,0,0,0,0,0,-1,1371,1597,0,0
154,-573,0,0,0,0,0,0,0,0,0,-1,1378,1597,0,0
161,-573,0,0,0,0,0,0,0,0,0,-1,1385,1597,0,0
168,-573,0,0,0,0,0,0,0,0,0,-1,1392,1597,0,0
175,-573,0,0,0,0,0,0,0,0,0,-1,1399,1597,0,0
182,-573,0,0,0,0,0,0,0,0,0,-1,1406,1597,0,0
189,-573,0,0,0,0,0,0,0,0,0,-1,1413,1597,0,0
196,-573,0,0,0,0,0,0,0,0,0,-1,1420,1597,0,0
203,-573,0,0,0,0,0,0,0,0,0,-1,1427,1597,0,0
210,-573,0,0,0,0,0,0,0,0,0,-1,1434,1597,0,0
217,-573,0,0,0,0,0,0,0,0,0,-1,1441,1597,0,0
224,-573,0,0,0,0,0,0,0,0,0,-1,1448,1597,0,0
231,-573,0,0,0,0,0,0,0,0,0,-1,1455,1597,0,0
238,-573,0,0,0,0,0,0,0,0,0,-1,1462,1597,0,0
245,-573,0,0,0,0,0,0,0,0,0,-1,1469,1597,0,0
252,-573,0,0,0,0,0,0,0,0,0,-1,1476,1597,0,0
259,-573,0,0,0,0,0,0,0,0,0,-1,1483,1597,0,0
266,-573,0,0,0,0,0,0,0,0,0,-1,1490,1597,0,0
273,-573,0,0,0,0,0,0,0,0,0,-1,1497,1597,0,0
280,-573,0,0,0,0,0,0,0,0,0,-1,1504,1597,0,0
287,-573,0,0,0,0,0,0,0,0,0,-1,1511,1597,0,0
294,-573,0,0,0,0,0,0,0,0,0,-1,1518,1597,0,0
301,-573,0,0,0,0,0,0,0,0,0,-1,1525,1597,0,0
308,-573,5.93042,9.71143,0,0,0,0,0,0,0,-1,1532,1597,5.93046,-9.71144
315,-573,4.34204,11.719,0,0,0,0,0,0,0,-1,1539,1597,4.34205,-11.719
322,-573,10.3269,7.77563,0,0,0,0,0,0,0,-1,1546,1597,10.327,-7.77565
329,-573,4.99573,3.80273,0,0,0,0,0,0,0,-1,1553,1597,4.9957,-3.80273
336,-573,4.85693,2.53455,0,0,0,0,0,0,0,-1,1560,1597,4.8569,-2.53459
343,-573,5.5946,2.15894,0,0,0,0,0,0,0,-1,1567,1597,5.59456,-2.1589
350,-573,2.53748,1.56433,0,0,0,0,0,0,0,-1,1574,1597,2.53753,-1.5643
357,-573,7.40247,4.03613,0,0,0,0,0,0,0,-1,1581,1597,7.40244,-4.03614
364,-573,7.14551,3.02087,0,0,0,0,0,0,0,-1,1588,1597,7.14556,-3.02084
371,-573,6.88867,2.00549,0,0,0,0,0,0,0,-1,1595,1597,6.88868,-2.00553
378,-573,8.62012,6.09106,0,0,0,0,0,0,0,-1,1602,1597,8.62012,-6.09103
385,-573,6.54346,-0.951904,0,0,0,0,0,0,0,-1,1609,1597,6.54349,0.951901
392,-573,17.5164,38.3645,0,0,0,0,0,0,0,-1,1616,1597,17.5164,-38.3645
399,-573,18.3507,38.6353,0,0,0,0,0,0,0,-1,1623,1597,18.3507,-38.6352
406,-573,19.4583,38.3304,0,0,0,0,0,0,0,-1,1630,1597,19.4582,-38.3304
413,-573,18.2855,33.5858,0,0,0,0,0,0,0,-1,1637,1597,18.2855,-33.5858
420,-573,18.8063,37.0011,0,0,0,0,0,0,0,-1,1644,1597,18.8063,-37.0011
427,-573,19.0479,37.3259,0,0,0,0,0,0,0,-1,1651,1597,19.0478,-37.326
434,-573,18.9116,37.5728,0,0,0,0,0,0,0,-1,1658,1597,18.9116,-37.5727
441,-573,18.5128,36.4385,0,0,0,0,0,0,0,-1,1665,1597,18.5128,-36.4385
448,-573,18.6208,35.5769,0.00748978,0.0168017,-0.00782135,0.021248,0.00304346,-1.05387,0.0132677,0.0447492,1672,1597,18.6209,-35.5769
455,-573,18.6113,34.8062,0.00676762,0.0147067,-0.00724883,0.0190017,0.0024726,-1.0359,0.0119293,0.0331354,1679,1597,18.6113,-34.8062
462,-573,18.7001,34.0178,0.00625783,0.0129391,-0.00676537,0.0171437,0.00205327,-1.01473,0.0108099,0.0219367,1686,1597,18.7001,-34.0178
469,-573,18.6996,33.4185,0.00571724,0.0104914,-0.00582786,0.0144021,0.00180653,-0.979774,0.00905945,0.0148824,1693,1597,18.6996,-33.4184
476,-573,18.7173,32.8627,0.0049001,0.00827591,-0.00471556,0.0115966,0.00157947,-0.957265,0.00726203,0.0140306,1700,1597,18.7173,-32.8626
483,-573,18.7136,32.325,0.00394237,0.00623042,-0.00371878,0.00897717,0.00119562,-0.934621,0.00562873,0.0128214,1707,1597,18.7136,-32.325
490,-573,18.6674,31.7384,0.00307447,0.00442403,-0.00284073,0.00666902,0.000829479,-0.902006,0.00419693,0.0138303,1714,1597,18.6673,-31.7385
497,-573,18.6705,31.0984,0.00227166,0.00291956,-0.00215278,0.00477263,0.000418596,-0.860078,0.0030518,0.0210021,1721,1597,18.6705,-31.0984
504,-573,18.6091,30.5388,0.00147211,0.00153302,-0.00142908,0.00293197,7.31617e-05,-0.796052,0.00193072,0.0186256,1728,1597,18.6091,-30.5388
511,-573,18.567,29.9434,0.000523825,0.000494428,-0.000539477,0.0010488,-3.05502e-05,-0.771779,0.000709605,0.018945,1735,1597,18.567,-29.9433
518,-573,18.5521,29.3823,-0.000382525,-0.000429198,0.00023568,-0.000169029,-0.000642694,0.73605,0.000384703,0.0140246,1742,1597,18.5521,-29.3823
525,-573,18.5583,28.7933,-0.00135022,-0.00124817,0.00110348,-0.000194533,-0.00240386,0.808501,0.00154183,0.0168454,1749,1597,18.5583,-28.7934
532,-573,18.5632,28.1522,-0.00243462,-0.00213736,0.00223973,-4.13249e-05,-0.00453065,0.81853,0.00300675,0.0178892,1756,1597,18.5632,-28.1522
539,-573,18.4327,27.5739,-0.00375016,-0.0031504,0.00372692,0.000288681,-0.00718924,0.825543,0.00489189,0.0320543,1763,1597,18.4327,-27.5739
546,-573,18.585,26.99,-0.00533102,-0.0042693,0.00571126,0.000935719,-0.010536,0.83174,0.00735579,0.0462488,1770,1597,18.585,-26.99
553,-573,18.2655,26.5769,-0.00713847,-0.0052683,0.00809298,0.00194343,-0.0143502,0.842914,0.0102761,0.0496688,1777,1597,18.2655,-26.5769
560,-573,17.9869,26.1307,-0.00937829,-0.0064177,0.0110814,0.00328184,-0.0190778,0.851797,0.0139419,0.048325,1784,1597,17.987,-26.1308
567,-573,17.7704,25.726,0,0,0,0,0,0,0,-1,1791,1597,17.7703,-25.7259
574,-573,0.83374,5.7041,0,0,0,0,0,0,0,-1,1798,1597,0.833718,-5.70405
581,-573,-0.224854,7.41602,0,0,0,0,0,0,0,-1,1805,1597,-0.224904,-7.41596
588,-573,-0.134033,7.67065,0,0,0,0,0,0,0,-1,1812,1597,-0.134037,-7.67063
595,-573,-0.0825195,8.35083,0,0,0,0,0,0,0,-1,1819,1597,-0.0824684,-8.35088
602,-573,0,0,0,0,0,0,0,0,0,-1,1826,1597,0,0
609,-573,0,0,0,0,0,0,0,0,0,-1,1833,1597,0,0
616,-573,0,0,0,0,0,0,0,0,0,-1,1840,1597,0,0
623,-573,0,0,0,0,0,0,0,0,0,-1,1847,1597,0,0
630,-573,0,0,0,0,0,0,0,0,0,-1,1854,1597,0,0
637,-573,0,0,0,0,0,0,0,0,0,-1,1861,1597,0,0
644,-573,0,0,0,0,0,0,0,0,0,-1,1868,1597,0,0
651,-573,0,0,0,0,0,0,0,0,0,-1,1875,1597,0,0
658,-573,0,0,0,0,0,0,0,0,0,-1,1882,1597,0,0
665,-573,0,0,0,0,0,0,0,0,0,-1,1889,1597,0,0
672,-573,0,0,0,0,0,0,0,0,0,-1,1896,1597,0,0
679,-573,0,0,0,0,0,0,0,0,0,-1,1903,1597,0,0
686,-573,0,0,0,0,0,0,0,0,0,-1,1910,1597,0,0
693,-573,0,0,0,0,0,0,0,0,0,-1,1917,1597,0,0
700,-573,0,0,0,0,0,0,0,0,0,-1,1924,1597,0,0
707,-573,0,0,0,0,0,0,0,0,0,-1,1931,1597,0,0
714,-573,0,0,0,0,0,0,0,0,0,-1,1938,1597,0,0
721,-573,0,0,0,0,0,0,0,0,0,-1,1945,1597,0,0
728,-573,0,0,0,0,0,0,0,0,0,-1,1952,1597,0,0
735,-573,0,0,0,0,0,0,0,0,0,-1,1959,1597,0,0
742,-573,0,0,0,0,0,0,0,0,0,-1,1966,1597,0,0
749,-573,0,0,0,0,0,0,0,0,0,-1,1973,1597,0,0
756,-573,0,0,0,0,0,0,0,0,0,-1,1980,1597,0,0
763,-573,0,0,0,0,0,0,0,0,0,-1,1987,1597,0,0
770,-573,0,0,0,0,0,0,0,0,0,-1,1994,1597,0,0
777,-573,0,0,0,0,0,0,0,0,0,-1,2001,1597,0,0
784,-573,0,0,0,0,0,0,0,0,0,-1,2008,1597,0,0
791,-573,0,0,0,0,0,0,0,0,0,-1,2015,1597,0,0
798,-573,0,0,0,0,0,0,0,0,0,-1,2022,1597,0,0
805,-573,0,0,0,0,0,0,0,0,0,-1,2029,1597,0,0
812,-573,0,0,0,0,0,0,0,0,0,-1,2036,1597,0,0
-700,-580,0,0,0,0,0,0,0,0,0,-1,524,1604,0,0
-693,-580,0,0,0,0,0,0,0,0,0,-1,531,1604,0,0
-686,-580,0,0,0,0,0,0,0,0,0,-1,538,1604,0,0
-679,-580,0,0,0,0,0,0,0,0,0,-1,545,1604,0,0
-672,-580,0,0,0,0,0,0,0,0,0,-1,552,1604,0,0
-665,-580,0,0,0,0,0,0,0,0,0,-1,559,1604,0,0
-658,-580,0,0,0,0,0,0,0,0,0,-1,566,1604,0,0
-651,-580,0,0,0,0,0,0,0,0,0,-1,573,1604,0,0
-644,-580,0,0,0,0,0,0,0,0,0,-1,580,1604,0,0
-637,-580,0,0,0,0,0,0,0,0,0,-1,587,1604,0,0
-630,-580,0,0,0,0,0,0,0,0,0,-1,594,1604,0,0
-623,-580,0,0,0,0,0,0,0,0,0,-1,601,1604,0,0
-616,-580,0,0,0,0,0,0,0,0,0,-1,608,1604,0,0
-609,-580,0,0,0,0,0,0,0,0,0,-1,615,1604,0,0
-602,-580,0,0,0,0,0,0,0,0,0,-1,622,1604,0,0
-595,-580,0,0,0,0,0,0,0,0,0,-1,629,1604,0,0
-588,-580,0,0,0,0,0,0,0,0,0,-1,636,1604,0,0
-581,-580,0,0,0,0,0,0,0,0,0,-1,643,1604,0,0
-574,-580,0,0,0,0,0,0,0,0,0,-1,650,1604,0,0
-567,-580,0,0,0,0,0,0,0,0,0,-1,657,1604,0,0
-560,-580,0,0,0,0,0,0,0,0,0,-1,664,1604,0,0
-553,-580,0,0,0,0,0,0,0,0,0,-1,671,1604,0,0
-546,-580,0,0,0,0,0,0,0,0,0,-1,678,1604,0,0
-539,-580,0,0,0,0,0,0,0,0,0,-1,685,1604,0,0
-532,-580,0,0,0,0,0,0,0,0,0,-1,692,1604,0,0
-525,-580,0,0,0,0,0,0,0,0,0,-1,699,1604,0,0
-518,-580,0,0,0,0,0,0,0,0,0,-1,706,1604,0,0
-511,-580,0,0,0,0,0,0,0,0,0,-1,713,1604,0,0
-504,-580,0,0,0,0,0,0,0,0,0,-1,720,1604,0,0
-497,-580,0,0,0,0,0,0,0,0,0,-1,727,1604,0,0
-490,-580,0,0,0,0,0,0,0,0,0,-1,734,1604,0,0
-483,-580,0,0,0,0,0,0,0,0,0,-1,741,1604,0,0
-476,-580,0,0,0,0,0,0,0,0,0,-1,748,1604,0,0
-469,-580,-1.69189,-0.38916,0,0,0,0,0,0,0,-1,755,1604,-1.69192,0.389188
-462,-580,-0.859863,0.675293,0,0,0,0,0,0,0,-1,762,1604,-0.859834,-0.675245
-455,-580,-0.730164,0.651978,0,0,0,0,0,0,0,-1,769,1604,-0.730153,-0.651957
-448,-580,-3.31891,2.07544,0,0,0,0,0,0,0,-1,776,1604,-3.3189,-2.07539
-441,-580,-1.63843,3.9469,0,0,0,0,0,0,0,-1,783,1604,-1.63842,-3.94695
-434,-580,0.23291,5.97876,0,0,0,0,0,0,0,-1,790,1604,0.232901,-5.97878
-427,-580,1.62756,8.05493,0,0,0,0,0,0,0,-1,797,1604,1.62758,-8.05488
-420,-580,0.986572,11.2383,0,0,0,0,0,0,0,-1,804,1604,0.986544,-11.2382
-413,-580,0.922913,21.5701,0,0,0,0,0,0,0,-1,811,1604,0.922905,-21.5701
-406,-580,0.128357,26.735,0,0,0,0,0,0,0,-1,818,1604,0.128365,-26.7349
-399,-580,0.118591,27.5421,-0.00801305,0.000219516,-0.000662042,0.000272417,-0.00806595,-1.49106,0.00547037,0.0366176,825,1604,0.1186,-27.5421
-392,-580,0.0614014,28.1918,-0.00582858,0.000518617,0.000191931,0.000524415,-0.00583438,1.54059,0.00407565,0.0180351,832,1604,0.0613932,-28.1918
-385,-580,0.0321655,28.8234,-0.00405427,0.000766564,0.000664676,0.000856528,-0.00414423,1.43626,0.00308818,0.0125998,839,1604,0.0321415,-28.8234
-378,-580,0.0043335,29.4561,-0.00244493,0.000845148,0.00105211,0.00115282,-0.0027526,1.28629,0.002317,0.0153581,846,1604,0.00435144,-29.4561
-371,-580,-0.0183716,30.1011,-0.00121832,0.00102988,0.00117557,0.0015323,-0.00172074,1.16691,0.00187919,0.0144592,853,1604,-0.0183901,-30.1011
-364,-580,-0.0223999,30.7274,-0.000224706,0.00120809,0.00129976,0.0019758,-0.000992424,1.03727,0.00174477,0.020078,860,1604,-0.0223741,-30.7274
-357,-580,-0.0212402,31.2811,0.000789896,0.00161277,0.0015124,0.00276869,-0.00036603,0.918205,0.00197912,0.0144178,867,1604,-0.0212704,-31.2811
-350,-580,-0.0443726,31.9111,0.00188377,0.00211545,0.00180367,0.003807,0.000192223,0.817468,0.00247641,0.0112335,874,1604,-0.0443885,-31.9112
-343,-580,-0.0618896,32.5223,0.00297256,0.00289676,0.00222821,0.00516319,0.000706125,0.776895,0.00323256,0.0115131,881,1604,-0.0618963,-32.5223
-336,-580,-0.0748291,33.1217,0.00402287,0.00372488,0.00269283,0.00657082,0.00117693,0.757762,0.00404571,0.0207435,888,1604,-0.0748215,-33.1217
-329,-580,-0.090332,33.7458,0.0050715,0.00477493,0.00321965,0.00814628,0.00170015,0.762386,0.00496219,0.0197089,895,1604,-0.0903263,-33.7459
-322,-580,-0.121826,34.3429,0.00622359,0.00610794,0.00396997,0.0101361,0.00219538,0.778116,0.00615751,0.0197529,902,1604,-0.121818,-34.3429
-315,-580,-0.118164,34.9127,0.00747692,0.00812612,0.00498639,0.0127985,0.00280457,0.817901,0.00776809,0.0218354,909,1604,-0.11818,-34.9128
-308,-580,-0.0658569,35.6471,0.00870411,0.00999466,0.00598139,0.0153655,0.00333329,0.839131,0.00933313,0.0333157,916,1604,-0.0658598,-35.6471
-301,-580,0.0125122,36.1111,0.0102102,0.0120153,0.00737624,0.018544,0.00368153,0.846274,0.0113366,0.0310701,923,1604,0.0125337,-36.1111
-294,-580,-0.0393066,36.6844,0,0,0,0,0,0,0,-1,930,1604,-0.0392955,-36.6844
-287,-580,0.165405,37.8984,0,0,0,0,0,0,0,-1,937,1604,0.165416,-37.8984
-280,-580,0.549194,39.5714,0,0,0,0,0,0,0,-1,944,1604,0.549176,-39.5714
-273,-580,2.02692,40.757,0,0,0,0,0,0,0,-1,951,1604,2.0269,-40.7569
-266,-580,1.71777,25.6515,0,0,0,0,0,0,0,-1,958,1604,1.71775,-25.6515
-259,-580,1.31091,9.11536,0,0,0,0,0,0,0,-1,965,1604,1.31092,-9.11539
-252,-580,1.07629,7.74097,0,0,0,0,0,0,0,-1,972,1604,1.07627,-7.74101
-245,-580,3.80304,9.16028,0,0,0,0,0,0,0,-1,979,1604,3.80306,-9.16034
-238,-580,-10.3588,1.57556,0,0,0,0,0,0,0,-1,986,1604,-10.3588,-1.5755
-231,-580,-10.576,6.43787,0,0,0,0,0,0,0,-1,993,1604,-10.576,-6.43783
-224,-580,-8.27435,7.58972,0,0,0,0,0,0,0,-1,1000,1604,-8.27435,-7.5897
-217,-580,-5.85632,9.51221,0,0,0,0,0,0,0,-1,1007,1604,-5.85632,-9.5122
-210,-580,-3.6684,11.1569,0,0,0,0,0,0,0,-1,1014,1604,-3.66839,-11.1569
-203,-580,-1.92474,12.7845,0,0,0,0,0,0,0,-1,1021,1604,-1.92477,-12.7845
-196,-580,-2.28552,10.3289,0,0,0,0,0,0,0,-1,1028,1604,-2.28552,-10.3288
-189,-580,-4.58252,7.59058,0,0,0,0,0,0,0,-1,1035,1604,-4.58256,-7.59057
-182,-580,-5.45874,7.65942,0,0,0,0,0,0,0,-1,1042,1604,-5.45876,-7.65939
-175,-580,-6.38977,7.55005,0,0,0,0,0,0,0,-1,1049,1604,-6.38981,-7.5501
-168,-580,0,0,0,0,0,0,0,0,0,-1,1056,1604,0,0
-161,-580,0,0,0,0,0,0,0,0,0,-1,1063,1604,0,0
-154,-580,0,0,0,0,0,0,0,0,0,-1,1070,1604,0,0
-147,-580,0,0,0,0,0,0,0,0,0,-1,1077,1604,0,0
-140,-580,0,0,0,0,0,0,0,0,0,-1,1084,1604,0,0
-133,-580,0,0,0,0,0,0,0,0,0,-1,1091,1604,0,0
-126,-580,0,0,0,0,0,0,0,0,0,-1,1098,1604,0,0
-119,-580,0,0,0,0,0,0,0,0,0,-1,1105,1604,0,0
-112,-580,0,0,0,0,0,0,0,0,0,-1,1112,1604,0,0
-105,-580,0,0,0,0,0,0,0,0,0,-1,1119,1604,0,0
-98,-580,0,0,0,0,0,0,0,0,0,-1,1126,1604,0,0
-91,-580,0,0,0,0,0,0,0,0,0,-1,1133,1604,0,0
-84,-580,0,0,0,0,0,0,0,0,0,-1,1140,1604,0,0
-77,-580,0,0,0,0,0,0,0,0,0,-1,1147,1604,0,0
-70,-580,0,0,0,0,0,0,0,0,0,-1,1154,1604,0,0
-63,-580,0,0,0,0,0,0,0,0,0,-1,1161,1604,0,0
-56,-580,0,0,0,0,0,0,0,0,0,-1,1168,1604,0,0
-49,-580,0,0,0,0,0,0,0,0,0,-1,1175,1604,0,0
-42,-580,0,0,0,0,0,0,0,0,0,-1,1182,1604,0,0
-35,-580,0,0,0,0,0,0,0,0,0,-1,1189,1604,0,0
-28,-580,0,0,0,0,0,0,0,0,0,-1,1196,1604,0,0
-21,-580,0,0,0,0,0,0,0,0,0,-1,1203,1604,0,0
-14,-580,0,0,0,0,0,0,0,0,0,-1,1210,1604,0,0
-7,-580,0,0,0,0,0,0,0,0,0,-1,1217,1604,0,0
0,-580,0,0,0,0,0,0,0,0,0,-1,1224,1604,0,0
7,-580,0,0,0,0,0,0,0,0,0,-1,1231,1604,0,0
14,-580,0,0,0,0,0,0,0,0,0,-1,1238,1604,0,0
21,-580,0,0,0,0,0,0,0,0,0,-1,1245,1604,0,0
28,-580,0,0,0,0,0,0,0,0,0,-1,1252,1604,0,0
35,-580,0,0,0,0,0,0,0,0,0,-1,1259,1604,0,0
42,-580,0,0,0,0,0,0,0,0,0,-1,1266,1604,0,0
49,-580,0,0,0,0,0,0,0,0,0,-1,1273,1604,0,0
56,-580,0,0,0,0,0,0,0,0,0,-1,1280,1604,0,0
63,-580,0,0,0,0,0,0,0,0,0,-1,1287,1604,0,0
70,-580,0,0,0,0,0,0,0,0,0,-1,1294,1604,0,0
77,-580,0,0,0,0,0,0,0,0,0,-1,1301,1604,0,0
84,-580,0,0,0,0,0,0,0,0,0,-1,1308,1604,0,0
91,-580,0,0,0,0,0,0,0,0,0,-1,1315,1604,0,0
98,-580,0,0,0,0,0,0,0,0,0,-1,1322,1604,0,0
105,-580,0,0,0,0,0,0,0,0,0,-1,1329,1604,0,0
112,-580,0,0,0,0,0,0,0,0,0,-1,1336,1604,0,0
119,-580,0,0,0,0,0,0,0,0,0,-1,1343,1604,0,0
126,-580,0,0,0,0,0,0,0,0,0,-1,1350,1604,0,0
133,-580,0,0,0,0,0,0,0,0,0,-1,1357,1604,0,0
140,-580,0,0,0,0,0,0,0,0,0,-1,1364,1604,0,0
147,-580,0,0,0,0,0,0,0,0,0,-1,1371,1604,0,0
154,-580,0,0,0,0,0,0,0,0,0,-1,1378,1604,0,0
161,-580,0,0,0,0,0,0,0,0,0,-1,1385,1604,0,0
168,-580,0,0,0,0,0,0,0,0,0,-1,1392,1604,0,0
175,-580,0,0,0,0,0,0,0,0,0,-1,1399,1604,0,0
182,-580,0,0,0,0,0,0,0,0,0,-1,1406,1604,0,0
189,-580,0,0,0,0,0,0,0,0,0,-1,1413,1604,0,0
196,-580,0,0,0,0,0,0,0,0,0,-1,1420,1604,0,0
203,-580,0,0,0,0,0,0,0,0,0,-1,1427,1604,0,0
210,-580,0,0,0,0,0,0,0,0,0,-1,1434,1604,0,0
217,-580,0,0,0,0,0,0,0,0,0,-1,1441,1604,0,0
224,-580,0,0,0,0,0,0,0,0,0,-1,1448,1604,0,0
231,-580,0,0,0,0,0,0,0,0,0,-1,1455,1604,0,0
238,-580,0,0,0,0,0,0,0,0,0,-1,1462,1604,0,0
245,-580,0,0,0,0,0,0,0,0,0,-1,1469,1604,0,0
252,-580,0,0,0,0,0,0,0,0,0,-1,1476,1604,0,0
259,-580,0,0,0,0,0,0,0,0,0,-1,1483,1604,0,0
266,-580,0,0,0,0,0,0,0,0,0,-1,1490,1604,0,0
273,-580,0,0,0,0,0,0,0,0,0,-1,1497,1604,0,0
280,-580,0,0,0,0,0,0,0,0,0,-1,1504,1604,0,0
287,-580,0,0,0,0,0,0,0,0,0,-1,1511,1604,0,0
294,-580,4.0437,0.177368,0,0,0,0,0,0,0,-1,1518,1604,4.04369,-0.177371
301,-580,7.55164,8.05798,0,0,0,0,0,0,0,-1,1525,1604,7.55158,-8.05802
308,-580,5.9126,9.99341,0,0,0,0,0,0,0,-1,1532,1604,5.91255,-9.99337
315,-580,4.27356,11.9287,0,0,0,0,0,0,0,-1,1539,1604,4.27352,-11.9287
322,-580,10.2366,7.50281,0,0,0,0,0,0,0,-1,1546,1604,10.2366,-7.50282
329,-580,10.5962,8.69641,0,0,0,0,0,0,0,-1,1553,1604,10.5962,-8.69642
336,-580,3.66431,1.58862,0,0,0,0,0,0,0,-1,1560,1604,3.6643,-1.58864
343,-580,3.32227,1.39636,0,0,0,0,0,0,0,-1,1567,1604,3.32222,-1.39633
350,-580,8.71277,4.0564,0,0,0,0,0,0,0,-1,1574,1604,8.71271,-4.05638
357,-580,8.52332,3.08154,0,0,0,0,0,0,0,-1,1581,1604,8.52332,-3.08157
364,-580,8.25818,2.07605,0,0,0,0,0,0,0,-1,1588,1604,8.25812,-2.07608
371,-580,7.42114,7.14282,0,0,0,0,0,0,0,-1,1595,1604,7.42119,-7.14281
378,-580,7.9718,6.6731,0,0,0,0,0,0,0,-1,1602,1604,7.9718,-6.67307
385,-580,8.52246,6.20337,0,0,0,0,0,0,0,-1,1609,1604,8.52241,-6.20334
392,-580,17.2406,38.4575,0,0,0,0,0,0,0,-1,1616,1604,17.2406,-38.4576
399,-580,17.8944,38.3933,0,0,0,0,0,0,0,-1,1623,1604,17.8945,-38.3933
406,-580,18.6173,38.2487,0,0,0,0,0,0,0,-1,1630,1604,18.6173,-38.2486
413,-580,18.9283,37.9797,0,0,0,0,0,0,0,-1,1637,1604,18.9283,-37.9797
420,-580,17.8186,37.5458,0,0,0,0,0,0,0,-1,1644,1604,17.8186,-37.5458
427,-580,17.9465,37.1937,0,0,0,0,0,0,0,-1,1651,1604,17.9465,-37.1937
434,-580,18.2755,36.7375,0,0,0,0,0,0,0,-1,1658,1604,18.2755,-36.7375
441,-580,18.0369,35.8446,0.00630052,0.013853,-0.00596011,0.0171324,0.00302105,-1.06777,0.0105596,0.0251697,1665,1604,18.0369,-35.8446
448,-580,18.1371,35.1475,0.00569837,0.0125746,-0.00567436,0.0157712,0.0025018,-1.05777,0.00978735,0.0185229,1672,1604,18.1371,-35.1475
455,-580,18.1804,34.6051,0.00506254,0.0109977,-0.0053347,0.0141347,0.00192556,-1.03922,0.00885135,0.0207364,1679,1604,18.1804,-34.6051
462,-580,18.1234,34.0157,0.00463659,0.00962218,-0.00505288,0.0127637,0.00149506,-1.01455,0.00805716,0.0233529,1686,1604,18.1234,-34.0157
469,-580,18.0928,33.4177,0.00421687,0.00773581,-0.00440695,0.0107215,0.00123113,-0.975327,0.00677471,0.0201832,1693,1604,18.0928,-33.4177
476,-580,18.123,32.8466,0.00356728,0.00602798,-0.00355933,0.00856361,0.00103165,-0.951803,0.00539815,0.0148396,1700,1604,18.1231,-32.8466
483,-580,18.0988,32.3312,0.0027986,0.00436364,-0.00284029,0.00652723,0.000635009,-0.919818,0.00415602,0.0134313,1707,1604,18.0988,-32.3312
490,-580,18.0626,31.78,0.00209059,0.00290643,-0.00216902,0.00470556,0.00029146,-0.878345,0.00304454,0.0180676,1714,1604,18.0626,-31.78
497,-580,18.0441,31.1656,0.00143605,0.00168453,-0.00167055,0.00323546,-0.000114877,-0.822516,0.00219626,0.0143313,1721,1604,18.0441,-31.1657
504,-580,17.9971,30.5719,0.000707623,0.000565184,-0.00106991,0.00170868,-0.000435872,-0.752164,0.00130883,0.0177014,1728,1604,17.9971,-30.5719
511,-580,17.9695,30.0149,-0.000213265,-0.000290492,-0.000235467,-1.32672e-05,-0.00049049,-0.704128,0.000322662,0.0189815,1735,1604,17.9695,-30.0149
518,-580,17.9678,29.4357,-0.00104534,-0.000999265,0.00043021,-0.000591478,-0.00145313,0.81215,0.000843786,0.0174952,1742,1604,17.9678,-29.4357
525,-580,17.9607,28.8058,-0.00201267,-0.0017334,0.00129799,-0.000567555,-0.00317852,0.838982,0.00195745,0.0213964,1749,1604,17.9607,-28.8058
532,-580,17.8831,28.2144,-0.00320761,-0.00255672,0.00254319,-0.000318238,-0.00544609,0.849035,0.00352943,0.0375558,1756,1604,17.8831,-28.2143
539,-580,17.8707,27.5496,0,0,0,0,0,0,0,-1,1763,1604,17.8707,-27.5496
546,-580,18.3171,26.9176,0,0,0,0,0,0,0,-1,1770,1604,18.3171,-26.9176
553,-580,17.4662,26.5861,0,0,0,0,0,0,0,-1,1777,1604,17.4662,-26.5861
560,-580,17.1959,26.126,0,0,0,0,0,0,0,-1,1784,1604,17.1959,-26.126
567,-580,3.87708,4.0647,0,0,0,0,0,0,0,-1,1791,1604,3.87711,-4.06471
574,-580,2.31653,5.62952,0,0,0,0,0,0,0,-1,1798,1604,2.31654,-5.62947
581,-580,1.60876,6.67664,0,0,0,0,0,0,0,-1,1805,1604,1.60873,-6.67667
588,-580,1.38684,7.14441,0,0,0,0,0,0,0,-1,1812,1604,1.38689,-7.14443
595,-580,0,0,0,0,0,0,0,0,0,-1,1819,1604,0,0
602,-580,0,0,0,0,0,0,0,0,0,-1,1826,1604,0,0
609,-580,0,0,0,0,0,0,0,0,0,-1,1833,1604,0,0
616,-580,0,0,0,0,0,0,0,0,0,-1,1840,1604,0,0
623,-580,0,0,0,0,0,0,0,0,0,-1,1847,1604,0,0
630,-580,0,0,0,0,0,0,0,0,0,-1,1854,1604,0,0
637,-580,0,0,0,0,0,0,0,0,0,-1,1861,1604,0,0
644,-580,0,0,0,0,0,0,0,0,0,-1,1868,1604,0,0
651,-580,0,0,0,0,0,0,0,0,0,-1,1875,1604,0,0
658,-580,0,0,0,0,0,0,0,0,0,-1,1882,1604,0,0
665,-580,0,0,0,0,0,0,0,0,0,-1,1889,1604,0,0
672,-580,0,0,0,0,0,0,0,0,0,-1,1896,1604,0,0
679,-580,0,0,0,0,0,0,0,0,0,-1,1903,1604,0,0
686,-580,0,0,0,0,0,0,0,0,0,-1,1910,1604,0,0
693,-580,0,0,0,0,0,0,0,0,0,-1,1917,1604,0,0
700,-580,0,0,0,0,0,0,0,0,0,-1,1924,1604,0,0
707,-580,0,0,0,0,0,0,0,0,0,-1,1931,1604,0,0
714,-580,0,0,0,0,0,0,0,0,0,-1,1938,1604,0,0
721,-580,0,0,0,0,0,0,0,0,0,-1,1945,1604,0,0
728,-580,0,0,0,0,0,0,0,0,0,-1,1952,1604,0,0
735,-580,0,0,0,0,0,0,0,0,0,-1,1959,1604,0,0
742,-580,0,0,0,0,0,0,0,0,0,-1,1966,1604,0,0
749,-580,0,0,0,0,0,0,0,0,0,-1,1973,1604,0,0
756,-580,0,0,0,0,0,0,0,0,0,-1,1980,1604,0,0
763,-580,0,0,0,0,0,0,0,0,0,-1,1987,1604,0,0
770,-580,0,0,0,0,0,0,0,0,0,-1,1994,1604,0,0
777,-580,0,0,0,0,0,0,0,0,0,-1,2001,1604,0,0
784,-580,0,0,0,0,0,0,0,0,0,-1,2008,1604,0,0
791,-580,0,0,0,0,0,0,0,0,0,-1,2015,1604,0,0
798,-580,0,0,0,0,0,0,0,0,0,-1,2022,1604,0,0
805,-580,0,0,0,0,0,0,0,0,0,-1,2029,1604,0,0
812,-580,0,0,0,0,0,0,0,0,0,-1,2036,1604,0,0
-700,-587,0,0,0,0,0,0,0,0,0,-1,524,1611,0,0
-693,-587,0,0,0,0,0,0,0,0,0,-1,531,1611,0,0
-686,-587,0,0,0,0,0,0,0,0,0,-1,538,1611,0,0
-679,-587,0,0,0,0,0,0,0,0,0,-1,545,1611,0,0
-672,-587,0,0,0,0,0,0,0,0,0,-1,552,1611,0,0
-665,-587,0,0,0,0,0,0,0,0,0,-1,559,1611,0,0
-658,-587,0,0,0,0,0,0,0,0,0,-1,566,1611,0,0
-651,-587,0,0,0,0,0,0,0,0,0,-1,573,1611,0,0
-644,-587,0,0,0,0,0,0,0,0,0,-1,580,1611,0,0
-637,-587,0,0,0,0,0,0,0,0,0,-1,587,1611,0,0
-630,-587,0,0,0,0,0,0,0,0,0,-1,594,1611,0,0
-623,-587,0,0,0,0,0,0,0,0,0,-1,601,1611,0,0
-616,-587,0,0,0,0,0,0,0,0,0,-1,608,1611,0,0
-609,-587,0,0,0,0,0,0,0,0,0,-1,615,1611,0,0
-602,-587,0,0,0,0,0,0,0,0,0,-1,622,1611,0,0
-595,-587,0,0,0,0,0,0,0,0,0,-1,629,1611,0,0
-588,-587,0,0,0,0,0,0,0,0,0,-1,636,1611,0,0
-581,-587,0,0,0,0,0,0,0,0,0,-1,643,1611,0,0
-574,-587,0,0,0,0,0,0,0,0,0,-1,650,1611,0,0
-567,-587,0,0,0,0,0,0,0,0,0,-1,657,1611,0,0
-560,-587,0,0,0,0,0,0,0,0,0,-1,664,1611,0,0
-553,-587,0,0,0,0,0,0,0,0,0,-1,671,1611,0,0
-546,-587,0,0,0,0,0,0,0,0,0,-1,678,1611,0,0
-539,-587,0,0,0,0,0,0,0,0,0,-1,685,1611,0,0
-532,-587,0,0,0,0,0,0,0,0,0,-1,692,1611,0,0
-525,-587,0,0,0,0,0,0,0,0,0,-1,699,1611,0,0
-518,-587,0,0,0,0,0,0,0,0,0,-1,706,1611,0,0
-511,-587,0,0,0,0,0,0,0,0,0,-1,713,1611,0,0
-504,-587,0,0,0,0,0,0,0,0,0,-1,720,1611,0,0
-497,-587,0,0,0,0,0,0,0,0,0,-1,727,1611,0,0
-490,-587,0,0,0,0,0,0,0,0,0,-1,734,1611,0,0
-483,-587,0,0,0,0,0,0,0,0,0,-1,741,1611,0,0
-476,-587,0,0,0,0,0,0,0,0,0,-1,748,1611,0,0
-469,-587,0,0,0,0,0,0,0,0,0,-1,755,1611,0,0
-462,-587,-0.714355,-0.418457,0,0,0,0,0,0,0,-1,762,1611,-0.714359,0.418483
-455,-587,-0.619812,-0.522461,0,0,0,0,0,0,0,-1,769,1611,-0.619802,0.522515
-448,-587,-0.461731,-0.686523,0,0,0,0,0,0,0,-1,776,1611,-0.461739,0.686559
-441,-587,-3.56555,2.72253,0,0,0,0,0,0,0,-1,783,1611,-3.56555,-2.72259
-434,-587,-1.77319,4.76318,0,0,0,0,0,0,0,-1,790,1611,-1.77318,-4.76323
-427,-587,0.0346069,6.92944,0,0,0,0,0,0,0,-1,797,1611,0.034587,-6.92941
-420,-587,-0.647156,10.1157,0,0,0,0,0,0,0,-1,804,1611,-0.647128,-10.1158
-413,-587,2.13971,10.3901,0,0,0,0,0,0,0,-1,811,1611,2.13971,-10.3902
-406,-587,2.2525,19.7814,0,0,0,0,0,0,0,-1,818,1611,2.25253,-19.7814
-399,-587,0.703979,27.504,0,0,0,0,0,0,0,-1,825,1611,0.704002,-27.5041
-392,-587,0.846985,28.1282,-0.00731726,0.000958204,0.000581583,0.000998877,-0.00735793,1.50098,0.00526989,0.0487626,832,1611,0.846988,-28.1282
-385,-587,0.596252,28.7858,-0.00526063,0.00103206,0.00105315,0.00120364,-0.00543221,1.4093,0.00408227,0.0243414,839,1611,0.596227,-28.7857
-378,-587,0.590576,29.4823,-0.00349244,0.000847051,0.00134599,0.00123064,-0.00387602,1.29317,0.00307737,0.0147602,846,1611,0.590594,-29.4824
-371,-587,0.553894,30.1455,-0.00217586,0.000846579,0.00137708,0.0013799,-0.00270918,1.2013,0.00240205,0.0148929,853,1611,0.553905,-30.1456
-364,-587,0.56366,30.7405,-0.00115054,0.000802218,0.00138568,0.00152095,-0.00186928,1.09231,0.00196079,0.0178251,860,1611,0.56367,-30.7405
-357,-587,0.54364,31.2642,-0.000139398,0.00101816,0.00149016,0.00203799,-0.00115923,0.970632,0.00186901,0.0163241,867,1611,0.543621,-31.2642
-350,-587,0.510803,31.9282,0.000903568,0.0013541,0.00165626,0.00280035,-0.000542681,0.852987,0.00207162,0.00984591,874,1611,0.510779,-31.9282
-343,-587,0.485291,32.5256,0.00189851,0.00196219,0.00192664,0.00385725,3.44811e-06,0.79366,0.00257035,0.0122897,881,1611,0.485275,-32.5257
-336,-587,0.480957,33.1033,0.00283282,0.00259905,0.0022271,0.0049461,0.00048577,0.759181,0.003148,0.0128163,888,1611,0.480981,-33.1033
-329,-587,0.449463,33.6995,0.00371201,0.00340295,0.00252149,0.0060837,0.00103126,0.754793,0.00375949,0.0152464,895,1611,0.449485,-33.6994
-322,-587,0.443298,34.2915,0.00460739,0.00452418,0.00301376,0.00757982,0.00155174,0.778496,0.0046236,0.0166882,902,1611,0.443298,-34.2915
-315,-587,0.422485,34.8837,0.00556512,0.00617905,0.00374758,0.00963221,0.00211196,0.826262,0.00584607,0.013128,909,1611,0.422505,-34.8837
-308,-587,0.418213,35.4891,0.00650028,0.00768122,0.00444095,0.0115708,0.00261071,0.851491,0.00700764,0.014417,916,1611,0.418219,-35.4891
-301,-587,0.466614,36.0822,0.00767789,0.00930177,0.00546885,0.0140186,0.00296104,0.859093,0.00853177,0.0166018,923,1611,0.466614,-36.0821
-294,-587,0.533997,36.7085,0.00915638,0.0116436,0.00700329,0.0175128,0.00328713,0.873268,0.0107484,0.0272446,930,1611,0.533969,-36.7085
-287,-587,0.521057,37.3083,0,0,0,0,0,0,0,-1,937,1611,0.521046,-37.3083
-280,-587,0.852356,38.4998,0,0,0,0,0,0,0,-1,944,1611,0.852384,-38.4997
-273,-587,0.700684,39.0586,0,0,0,0,0,0,0,-1,951,1611,0.700665,-39.0586
-266,-587,0.8974,39.8872,0,0,0,0,0,0,0,-1,958,1611,0.897413,-39.8872
-259,-587,1.76306,28.5784,0,0,0,0,0,0,0,-1,965,1611,1.76307,-28.5784
-252,-587,1.30188,10.3103,0,0,0,0,0,0,0,-1,972,1611,1.30188,-10.3104
-245,-587,1.52075,27.4791,0,0,0,0,0,0,0,-1,979,1611,1.52076,-27.4791
-238,-587,2.87799,9.53821,0,0,0,0,0,0,0,-1,986,1611,2.87797,-9.53823
-231,-587,2.49548,9.14465,0,0,0,0,0,0,0,-1,993,1611,2.49551,-9.14468
-224,-587,-9.72528,9.21069,0,0,0,0,0,0,0,-1,1000,1611,-9.72529,-9.21072
-217,-587,-7.07495,10.7847,0,0,0,0,0,0,0,-1,1007,1611,-7.07495,-10.7847
-210,-587,-4.72308,12.5889,0,0,0,0,0,0,0,-1,1014,1611,-4.72307,-12.5888
-203,-587,-3.2583,13.7289,0,0,0,0,0,0,0,-1,1021,1611,-3.25828,-13.7289
-196,-587,-1.953,14.8145,0,0,0,0,0,0,0,-1,1028,1611,-1.95302,-14.8144
-189,-587,-3.04138,8.66638,0,0,0,0,0,0,0,-1,1035,1611,-3.04136,-8.66635
-182,-587,-3.97095,9.7146,0,0,0,0,0,0,0,-1,1042,1611,-3.97093,-9.71461
-175,-587,-4.80969,8.37878,0,0,0,0,0,0,0,-1,1049,1611,-4.80964,-8.37883
-168,-587,-5.91394,8.72546,0,0,0,0,0,0,0,-1,1056,1611,-5.91398,-8.72542
-161,-587,-7.06946,8.88501,0,0,0,0,0,0,0,-1,1063,1611,-7.06947,-8.885
-154,-587,-2.24731,6.56519,0,0,0,0,0,0,0,-1,1070,1611,-2.24728,-6.56517
-147,-587,0,0,0,0,0,0,0,0,0,-1,1077,1611,0,0
-140,-587,0,0,0,0,0,0,0,0,0,-1,1084,1611,0,0
-133,-587,0,0,0,0,0,0,0,0,0,-1,1091,1611,0,0
-126,-587,0,0,0,0,0,0,0,0,0,-1,1098,1611,0,0
-119,-587,0,0,0,0,0,0,0,0,0,-1,1105,1611,0,0
-112,-587,0,0,0,0,0,0,0,0,0,-1,1112,1611,0,0
-105,-587,0,0,0,0,0,0,0,0,0,-1,1119,1611,0,0
-98,-587,0,0,0,0,0,0,0,0,0,-1,1126,1611,0,0
-91,-587,0,0,0,0,0,0,0,0,0,-1,1133,1611,0,0
-84,-587,0,0,0,0,0,0,0,0,0,-1,1140,1611,0,0
-77,-587,0,0,0,0,0,0,0,0,0,-1,1147,1611,0,0
-70,-587,0,0,0,0,0,0,0,0,0,-1,1154,1611,0,0
-63,-587,0,0,0,0,0,0,0,0,0,-1,1161,1611,0,0
-56,-587,0,0,0,0,0,0,0,0,0,-1,1168,1611,0,0
-49,-587,0,0,0,0,0,0,0,0,0,-1,1175,1611,0,0
-42,-587,0,0,0,0,0,0,0,0,0,-1,1182,1611,0,0
-35,-587,0,0,0,0,0,0,0,0,0,-1,1189,1611,0,0
-28,-587,0,0,0,0,0,0,0,0,0,-1,1196,1611,0,0
-21,-587,0,0,0,0,0,0,0,0,0,-1,1203,1611,0,0
-14,-587,0,0,0,0,0,0,0,0,0,-1,1210,1611,0,0
-7,-587,0,0,0,0,0,0,0,0,0,-1,1217,1611,0,0
0,-587,0,0,0,0,0,0,0,0,0,-1,1224,1611,0,0
7,-587,0,0,0,0,0,0,0,0,0,-1,1231,1611,0,0
14,-587,0,0,0,0,0,0,0,0,0,-1,1238,1611,0,0
21,-587,0,0,0,0,0,0,0,0,0,-1,1245,1611,0,0
28,-587,0,0,0,0,0,0,0,0,0,-1,1252,1611,0,0
35,-587,0,0,0,0,0,0,0,0,0,-1,1259,1611,0,0
42,-587,0,0,0,0,0,0,0,0,0,-1,1266,1611,0,0
49,-587,0,0,0,0,0,0,0,0,0,-1,1273,1611,0,0
56,-587,0,0,0,0,0,0,0,0,0,-1,1280,1611,0,0
63,-587,0,0,0,0,0,0,0,0,0,-1,1287,1611,0,0
70,-587,0,0,0,0,0,0,0,0,0,-1,1294,1611,0,0
77,-587,0,0,0,0,0,0,0,0,0,-1,1301,1611,0,0
84,-587,0,0,0,0,0,0,0,0,0,-1,1308,1611,0,0
91,-587,0,0,0,0,0,0,0,0,0,-1,1315,1611,0,0
98,-587,0,0,0,0,0,0,0,0,0,-1,1322,1611,0,0
105,-587,0,0,0,0,0,0,0,0,0,-1,1329,1611,0,0
112,-587,0,0,0,0,0,0,0,0,0,-1,1336,1611,0,0
119,-587,0,0,0,0,0,0,0,0,0,-1,1343,1611,0,0
126,-587,0,0,0,0,0,0,0,0,0,-1,1350,1611,0,0
133,-587,0,0,0,0,0,0,0,0,0,-1,1357,1611,0,0
140,-587,0,0,0,0,0,0,0,0,0,-1,1364,1611,0,0
147,-587,0,0,0,0,0,0,0,0,0,-1,1371,1611,0,0
154,-587,0,0,0,0,0,0,0,0,0,-1,1378,1611,0,0
161,-587,0,0,0,0,0,0,0,0,0,-1,1385,1611,0,0
168,-587,0,0,0,0,0,0,0,0,0,-1,1392,1611,0,0
175,-587,0,0,0,0,0,0,0,0,0,-1,1399,1611,0,0
182,-587,0,0,0,0,0,0,0,0,0,-1,1406,1611,0,0
189,-587,0,0,0,0,0,0,0,0,0,-1,1413,1611,0,0
196,-587,0,0,0,0,0,0,0,0,0,-1,1420,1611,0,0
203,-587,0,0,0,0,0,0,0,0,0,-1,1427,1611,0,0
210,-587,0,0,0,0,0,0,0,0,0,-1,1434,1611,0,0
217,-587,0,0,0,0,0,0,0,0,0,-1,1441,1611,0,0
224,-587,0,0,0,0,0,0,0,0,0,-1,1448,1611,0,0
231,-587,0,0,0,0,0,0,0,0,0,-1,1455,1611,0,0
238,-587,0,0,0,0,0,0,0,0,0,-1,1462,1611,0,0
245,-587,0,0,0,0,0,0,0,0,0,-1,1469,1611,0,0
252,-587,0,0,0,0,0,0,0,0,0,-1,1476,1611,0,0
259,-587,0,0,0,0,0,0,0,0,0,-1,1483,1611,0,0
266,-587,0,0,0,0,0,0,0,0,0,-1,1490,1611,0,0
273,-587,10.2936,6.35083,0,0,0,0,0,0,0,-1,1497,1611,10.2936,-6.35087
280,-587,2.09204,1.1217,0,0,0,0,0,0,0,-1,1504,1611,2.092,-1.12176
287,-587,3.2865,0.671509,0,0,0,0,0,0,0,-1,1511,1611,3.28656,-0.671538
294,-587,4.24646,1.58765,0,0,0,0,0,0,0,-1,1518,1611,4.24648,-1.58761
301,-587,7.60474,8.37085,0,0,0,0,0,0,0,-1,1525,1611,7.60478,-8.37084
308,-587,5.99316,10.2291,0,0,0,0,0,0,0,-1,1532,1611,5.99315,-10.2291
315,-587,4.34558,12.3289,0,0,0,0,0,0,0,-1,1539,1611,4.34556,-12.3288
322,-587,10.4526,6.38245,0,0,0,0,0,0,0,-1,1546,1611,10.4526,-6.38245
329,-587,10.7738,8.42444,0,0,0,0,0,0,0,-1,1553,1611,10.7738,-8.42438
336,-587,7.5531,5.96619,0,0,0,0,0,0,0,-1,1560,1611,7.55311,-5.96617
343,-587,9.57495,4.38391,0,0,0,0,0,0,0,-1,1567,1611,9.57494,-4.38397
350,-587,9.50378,3.45093,0,0,0,0,0,0,0,-1,1574,1611,9.50376,-3.4509
357,-587,9.40027,2.50806,0,0,0,0,0,0,0,-1,1581,1611,9.40022,-2.50803
364,-587,9.26477,1.34131,0,0,0,0,0,0,0,-1,1588,1611,9.26479,-1.34126
371,-587,6.98926,7.87561,0,0,0,0,0,0,0,-1,1595,1611,6.98928,-7.87564
378,-587,9.25146,13.8358,0,0,0,0,0,0,0,-1,1602,1611,9.2515,-13.8359
385,-587,16.5959,40.3564,0,0,0,0,0,0,0,-1,1609,1611,16.5959,-40.3564
392,-587,18.4487,39.5179,0,0,0,0,0,0,0,-1,1616,1611,18.4487,-39.518
399,-587,17.5503,39.3044,0,0,0,0,0,0,0,-1,1623,1611,17.5503,-39.3045
406,-587,17.7587,38.4131,0.0102122,0.0126575,-0.00471474,0.0163056,0.00656417,-0.912267,0.0094734,0.0406187,1630,1611,17.7587,-38.4131
413,-587,17.7233,38.0771,0.00869947,0.0124312,-0.00469925,0.0156215,0.00550922,-0.974383,0.00914866,0.0408968,1637,1611,17.7232,-38.0772
420,-587,17.5184,37.4272,0.00747158,0.011959,-0.00465358,0.0148816,0.00454906,-1.01003,0.0088055,0.0403722,1644,1611,17.5185,-37.4273
427,-587,17.5623,36.9198,0.00643166,0.0113848,-0.0044585,0.0140084,0.00380807,-1.03891,0.00836372,0.0327927,1651,1611,17.5623,-36.9198
434,-587,17.5577,36.392,0,0,0,0,0,0,0,-1,1658,1611,17.5577,-36.3919
441,-587,17.5917,35.618,0.00486659,0.0100433,-0.00420058,0.0123889,0.00252094,-1.06152,0.0075604,0.02559,1665,1611,17.5917,-35.618
448,-587,17.6216,35.1639,0.00429808,0.0090764,-0.00405339,0.0113923,0.00198213,-1.0517,0.00702799,0.0172886,1672,1611,17.6216,-35.1639
455,-587,17.6115,34.6193,0.00371349,0.00787007,-0.00385762,0.0101736,0.00140993,-1.03248,0.00636471,0.0153293,1679,1611,17.6114,-34.6193
462,-587,17.5803,34.052,0.00332379,0.00678568,-0.00370384,0.00914309,0.000966381,-1.00399,0.00580016,0.0194931,1686,1611,17.5804,-34.0519
469,-587,17.5345,33.4838,0.00296149,0.00533296,-0.00326342,0.00761939,0.000675065,-0.959654,0.00487019,0.017144,1693,1611,17.5345,-33.4838
476,-587,17.52,32.9338,0.00242845,0.0040433,-0.00263517,0.00599197,0.000479785,-0.934058,0.00384471,0.0106304,1700,1611,17.52,-32.9339
483,-587,17.4888,32.3462,0.00181495,0.00269899,-0.00214905,0.004451,6.29344e-05,-0.886824,0.00294658,0.0131939,1707,1611,17.4887,-32.3462
490,-587,17.4764,31.7703,0.00124096,0.001552,-0.00166307,0.0030668,-0.000273843,-0.83202,0.00214166,0.01629,1714,1611,17.4765,-31.7703
497,-587,17.4528,31.1956,0.000721424,0.000598394,-0.00133988,0.0020012,-0.000681384,-0.762459,0.00161006,0.0133668,1721,1611,17.4527,-31.1955
504,-587,17.4016,30.6385,7.82624e-05,-0.000232897,-0.000883294,0.000819574,-0.000974208,-0.698224,0.00103692,0.0128313,1728,1611,17.4017,-30.6386
511,-587,17.3868,30.0958,-0.000782978,-0.000871208,-0.000151671,-0.000669137,-0.000985049,-0.643873,0.000580779,0.0157487,1735,1611,17.3869,-30.0959
518,-587,17.4131,29.4968,-0.00151302,-0.00133687,0.000364347,-0.00105011,-0.00179979,0.903989,0.00104392,0.016146,1742,1611,17.4131,-29.4968
525,-587,17.431,28.9302,-0.00245938,-0.00192637,0.0011964,-0.00096715,-0.0034186,0.894987,0.00203479,0.0276532,1749,1611,17.431,-28.9302
532,-587,17.6201,28.3306,-0.00373772,-0.00258612,0.00253499,-0.000562361,-0.00576148,0.897074,0.00366793,0.04409,1756,1611,17.6201,-28.3306
539,-587,17.9745,27.4424,0,0,0,0,0,0,0,-1,1763,1611,17.9745,-27.4424
546,-587,17.6716,25.2673,0,0,0,0,0,0,0,-1,1770,1611,17.6716,-25.2674
553,-587,7.5813,8.45068,0,0,0,0,0,0,0,-1,1777,1611,7.58125,-8.45068
560,-587,4.21179,5.23547,0,0,0,0,0,0,0,-1,1784,1611,4.21185,-5.23553
567,-587,4.03711,5.46387,0,0,0,0,0,0,0,-1,1791,1611,4.03715,-5.46382
574,-587,3.83142,5.68884,0,0,0,0,0,0,0,-1,1798,1611,3.83141,-5.68881
581,-587,3.47168,6.00977,0,0,0,0,0,0,0,-1,1805,1611,3.47167,-6.00983
588,-587,0,0,0,0,0,0,0,0,0,-1,1812,1611,0,0
595,-587,0,0,0,0,0,0,0,0,0,-1,1819,1611,0,0
602,-587,0,0,0,0,0,0,0,0,0,-1,1826,1611,0,0
609,-587,0,0,0,0,0,0,0,0,0,-1,1833,1611,0,0
616,-587,0,0,0,0,0,0,0,0,0,-1,1840,1611,0,0
623,-587,0,0,0,0,0,0,0,0,0,-1,1847,1611,0,0
630,-587,0,0,0,0,0,0,0,0,0,-1,1854,1611,0,0
637,-587,0,0,0,0,0,0,0,0,0,-1,1861,1611,0,0
644,-587,0,0,0,0,0,0,0,0,0,-1,1868,1611,0,0
651,-587,0,0,0,0,0,0,0,0,0,-1,1875,1611,0,0
658,-587,0,0,0,0,0,0,0,0,0,-1,1882,1611,0,0
665,-587,0,0,0,0,0,0,0,0,0,-1,1889,1611,0,0
672,-587,0,0,0,0,0,0,0,0,0,-1,1896,1611,0,0
679,-587,0,0,0,0,0,0,0,0,0,-1,1903,1611,0,0
686,-587,0,0,0,0,0,0,0,0,0,-1,1910,1611,0,0
693,-587,0,0,0,0,0,0,0,0,0,-1,1917,1611,0,0
700,-587,0,0,0,0,0,0,0,0,0,-1,1924,1611,0,0
707,-587,0,0,0,0,0,0,0,0,0,-1,1931,1611,0,0
714,-587,0,0,0,0,0,0,0,0,0,-1,1938,1611,0,0
721,-587,0,0,0,0,0,0,0,0,0,-1,1945,1611,0,0
728,-587,0,0,0,0,0,0,0,0,0,-1,1952,1611,0,0
735,-587,0,0,0,0,0,0,0,0,0,-1,1959,1611,0,0
742,-587,0,0,0,0,0,0,0,0,0,-1,1966,1611,0,0
749,-587,0,0,0,0,0,0,0,0,0,-1,1973,1611,0,0
756,-587,0,0,0,0,0,0,0,0,0,-1,1980,1611,0,0
763,-587,0,0,0,0,0,0,0,0,0,-1,1987,1611,0,0
770,-587,0,0,0,0,0,0,0,0,0,-1,1994,1611,0,0
777,-587,0,0,0,0,0,0,0,0,0,-1,2001,1611,0,0
784,-587,0,0,0,0,0,0,0,0,0,-1,2008,1611,0,0
791,-587,0,0,0,0,0,0,0,0,0,-1,2015,1611,0,0
798,-587,0,0,0,0,0,0,0,0,0,-1,2022,1611,0,0
805,-587,0,0,0,0,0,0,0,0,0,-1,2029,1611,0,0
812,-587,0,0,0,0,0,0,0,0,0,-1,2036,1611,0,0
-700,-594,0,0,0,0,0,0,0,0,0,-1,524,1618,0,0
-693,-594,0,0,0,0,0,0,0,0,0,-1,531,1618,0,0
-686,-594,0,0,0,0,0,0,0,0,0,-1,538,1618,0,0
-679,-594,0,0,0,0,0,0,0,0,0,-1,545,1618,0,0
-672,-594,0,0,0,0,0,0,0,0,0,-1,552,1618,0,0
-665,-594,0,0,0,0,0,0,0,0,0,-1,559,1618,0,0
-658,-594,0,0,0,0,0,0,0,0,0,-1,566,1618,0,0
-651,-594,0,0,0,0,0,0,0,0,0,-1,573,1618,0,0
-644,-594,0,0,0,0,0,0,0,0,0,-1,580,1618,0,0
-637,-594,0,0,0,0,0,0,0,0,0,-1,587,1618,0,0
-630,-594,0,0,0,0,0,0,0,0,0,-1,594,1618,0,0
-623,-594,0,0,0,0,0,0,0,0,0,-1,601,1618,0,0
-616,-594,0,0,0,0,0,0,0,0,0,-1,608,1618,0,0
-609,-594,0,0,0,0,0,0,0,0,0,-1,615,1618,0,0
-602,-594,0,0,0,0,0,0,0,0,0,-1,622,1618,0,0
-595,-594,0,0,0,0,0,0,0,0,0,-1,629,1618,0,0
-588,-594,0,0,0,0,0,0,0,0,0,-1,636,1618,0,0
-581,-594,0,0,0,0,0,0,0,0,0,-1,643,1618,0,0
-574,-594,0,0,0,0,0,0,0,0,0,-1,650,1618,0,0
-567,-594,0,0,0,0,0,0,0,0,0,-1,657,1618,0,0
-560,-594,0,0,0,0,0,0,0,0,0,-1,664,1618,0,0
-553,-594,0,0,0,0,0,0,0,0,0,-1,671,1618,0,0
-546,-594,0,0,0,0,0,0,0,0,0,-1,678,1618,0,0
-539,-594,0,0,0,0,0,0,0,0,0,-1,685,1618,0,0
-532,-594,0,0,0,0,0,0,0,0,0,-1,692,1618,0,0
-525,-594,0,0,0,0,0,0,0,0,0,-1,699,1618,0,0
-518,-594,0,0,0,0,0,0,0,0,0,-1,706,1618,0,0
-511,-594,0,0,0,0,0,0,0,0,0,-1,713,1618,0,0
-504,-594,0,0,0,0,0,0,0,0,0,-1,720,1618,0,0
-497,-594,0,0,0,0,0,0,0,0,0,-1,727,1618,0,0
-490,-594,0,0,0,0,0,0,0,0,0,-1,734,1618,0,0
-483,-594,0,0,0,0,0,0,0,0,0,-1,741,1618,0,0
-476,-594,0,0,0,0,0,0,0,0,0,-1,748,1618,0,0
-469,-594,0,0,0,0,0,0,0,0,0,-1,755,1618,0,0
-462,-594,0,0,0,0,0,0,0,0,0,-1,762,1618,0,0
-455,-594,-0.509216,-1.58411,0,0,0,0,0,0,0,-1,769,1618,-0.509245,1.58415
-448,-594,-7.71887,-0.0559082,0,0,0,0,0,0,0,-1,776,1618,-7.71885,0.055939
-441,-594,-5.78473,1.18298,0,0,0,0,0,0,0,-1,783,1618,-5.78474,-1.18295
-434,-594,-3.93628,3.06213,0,0,0,0,0,0,0,-1,790,1618,-3.93631,-3.06208
-427,-594,-3.97693,6.77759,0,0,0,0,0,0,0,-1,797,1618,-3.97695,-6.77764
-420,-594,-2.53046,7.71606,0,0,0,0,0,0,0,-1,804,1618,-2.53047,-7.71609
-413,-594,-0.860413,8.00391,0,0,0,0,0,0,0,-1,811,1618,-0.860423,-8.00389
-406,-594,2.45746,13.6218,0,0,0,0,0,0,0,-1,818,1618,2.45747,-13.6218
-399,-594,1.30414,24.9963,0,0,0,0,0,0,0,-1,825,1618,1.30415,-24.9963
-392,-594,1.52521,28.4315,0,0,0,0,0,0,0,-1,832,1618,1.52521,-28.4315
-385,-594,1.35284,28.9797,-0.00648016,0.00160974,0.00176686,0.00197879,-0.00684921,1.36488,0.00534916,0.0387193,839,1618,1.35287,-28.9798
-378,-594,1.15735,29.4918,-0.00454515,0.00104471,0.00186347,0.00160896,-0.00510941,1.27677,0.00405055,0.0179856,846,1618,1.15734,-29.4918
-371,-594,1.17938,30.1566,-0.00313944,0.000774823,0.00173175,0.00143099,-0.00379561,1.20861,0.00311882,0.0132345,853,1618,1.1794,-30.1566
-364,-594,1.17694,30.7445,-0.00206727,0.00048147,0.00158205,0.00123857,-0.00282438,1.12445,0.00240457,0.0105949,860,1618,1.17696,-30.7445
-357,-594,1.14148,31.3457,-0.00102778,0.000506849,0.00155706,0.00147539,-0.00199633,1.01433,0.0020119,0.0100542,867,1618,1.14146,-31.3457
-350,-594,1.10138,31.9716,-3.69362e-06,0.000688876,0.00160037,0.00198,-0.00129482,0.891945,0.00190446,0.0145857,874,1618,1.10141,-31.9716
-343,-594,1.06116,32.5704,0.000945335,0.00114208,0.00173849,0.00278498,-0.000697558,0.813661,0.00212764,0.0169061,881,1618,1.06117,-32.5704
-336,-594,1.02411,33.1469,0.00183013,0.00162995,0.00191733,0.00364997,-0.000189899,0.75932,0.00249902,0.0145139,888,1618,1.02409,-33.1468
-329,-594,1.0152,33.7283,0.00262521,0.00223921,0.00204925,0.00449053,0.000373892,0.738446,0.00287716,0.0149057,895,1618,1.0152,-33.7283
-322,-594,1.04004,34.3196,0.00336626,0.00319648,0.00236504,0.00564793,0.000914805,0.767458,0.00350043,0.0161409,902,1618,1.04004,-34.3196
-315,-594,1.03894,34.9038,0.0041302,0.00453235,0.00288683,0.0072251,0.00143745,0.820168,0.00441626,0.015753,909,1618,1.03897,-34.9038
-308,-594,1.01184,35.5032,0.00488618,0.00574785,0.00336806,0.00871252,0.00192151,0.849011,0.00528558,0.0151465,916,1618,1.01187,-35.5032
-301,-594,0.980164,36.056,0.00584141,0.00705321,0.00412567,0.0106172,0.00227739,0.858308,0.00645437,0.0124151,923,1618,0.980178,-36.056
-294,-594,1.01129,36.6052,0.0070433,0.00894644,0.00530341,0.013383,0.00260677,0.874166,0.00819248,0.0140309,930,1618,1.0113,-36.6053
-287,-594,0.954651,37.1597,0.00847016,0.0113213,0.0068387,0.0168814,0.00291,0.888153,0.0104206,0.0235713,937,1618,0.954658,-37.1597
-280,-594,0.937134,37.8243,0,0,0,0,0,0,0,-1,944,1618,0.937126,-37.8243
-273,-594,1.07813,38.5581,0.0120133,0.0166765,0.0106325,0.02523,0.00345977,0.893336,0.0157936,0.0339073,951,1618,1.07815,-38.5582
-266,-594,1.21765,39.3682,0.0140056,0.0200214,0.0129918,0.030349,0.00367803,0.899154,0.0191249,0.0394712,958,1618,1.21763,-39.3682
-259,-594,1.27026,40.0322,0,0,0,0,0,0,0,-1,965,1618,1.27026,-40.0322
-252,-594,1.55432,40.2866,0,0,0,0,0,0,0,-1,972,1618,1.55429,-40.2866
-245,-594,2.27759,35.1766,0,0,0,0,0,0,0,-1,979,1618,2.27756,-35.1766
-238,-594,2.09015,28.0121,0,0,0,0,0,0,0,-1,986,1618,2.09012,-28.0121
-231,-594,1.93774,9.35388,0,0,0,0,0,0,0,-1,993,1618,1.93776,-9.35393
-224,-594,1.81824,8.62744,0,0,0,0,0,0,0,-1,1000,1618,1.81822,-8.62745
-217,-594,-8.24066,12.0752,0,0,0,0,0,0,0,-1,1007,1618,-8.24068,-12.0751
-210,-594,-5.61438,14.2119,0,0,0,0,0,0,0,-1,1014,1618,-5.6144,-14.212
-203,-594,-3.94507,15.5768,0,0,0,0,0,0,0,-1,1021,1618,-3.94506,-15.5768
-196,-594,2.78613,10.5815,0,0,0,0,0,0,0,-1,1028,1618,2.78612,-10.5815
-189,-594,2.60913,9.48865,0,0,0,0,0,0,0,-1,1035,1618,2.6091,-9.48871
-182,-594,1.2395,9.38806,0,0,0,0,0,0,0,-1,1042,1618,1.23951,-9.38804
-175,-594,0.234863,8.73792,0,0,0,0,0,0,0,-1,1049,1618,0.234812,-8.73786
-168,-594,-0.495483,8.46289,0,0,0,0,0,0,0,-1,1056,1618,-0.495513,-8.46285
-161,-594,-1.39734,8.28699,0,0,0,0,0,0,0,-1,1063,1618,-1.39729,-8.28699
-154,-594,-0.000854492,7.68445,0,0,0,0,0,0,0,-1,1070,1618,-0.000805755,-7.6845
-147,-594,0.348267,9.3385,0,0,0,0,0,0,0,-1,1077,1618,0.348237,-9.33849
-140,-594,0.675171,11.5884,0,0,0,0,0,0,0,-1,1084,1618,0.675204,-11.5884
-133,-594,0,0,0,0,0,0,0,0,0,-1,1091,1618,0,0
-126,-594,0,0,0,0,0,0,0,0,0,-1,1098,1618,0,0
-119,-594,0,0,0,0,0,0,0,0,0,-1,1105,1618,0,0
-112,-594,0,0,0,0,0,0,0,0,0,-1,1112,1618,0,0
-105,-594,0,0,0,0,0,0,0,0,0,-1,1119,1618,0,0
-98,-594,0,0,0,0,0,0,0,0,0,-1,1126,1618,0,0
-91,-594,0,0,0,0,0,0,0,0,0,-1,1133,1618,0,0
-84,-594,0,0,0,0,0,0,0,0,0,-1,1140,1618,0,0
-77,-594,0,0,0,0,0,0,0,0,0,-1,1147,1618,0,0
-70,-594,0,0,0,0,0,0,0,0,0,-1,1154,1618,0,0
-63,-594,0,0,0,0,0,0,0,0,0,-1,1161,1618,0,0
-56,-594,0,0,0,0,0,0,0,0,0,-1,1168,1618,0,0
-49,-594,0,0,0,0,0,0,0,0,0,-1,1175,1618,0,0
-42,-594,0,0,0,0,0,0,0,0,0,-1,1182,1618,0,0
-35,-594,0,0,0,0,0,0,0,0,0,-1,1189,1618,0,0
-28,-594,0,0,0,0,0,0,0,0,0,-1,1196,1618,0,0
-21,-594,0,0,0,0,0,0,0,0,0,-1,1203,1618,0,0
-14,-594,0,0,0,0,0,0,0,0,0,-1,1210,1618,0,0
-7,-594,0,0,0,0,0,0,0,0,0,-1,1217,1618,0,0
0,-594,0,0,0,0,0,0,0,0,0,-1,1224,1618,0,0
7,-594,0,0,0,0,0,0,0,0,0,-1,1231,1618,0,0
14,-594,0,0,0,0,0,0,0,0,0,-1,1238,1618,0,0
21,-594,0,0,0,0,0,0,0,0,0,-1,1245,1618,0,0
28,-594,0,0,0,0,0,0,0,0,0,-1,1252,1618,0,0
35,-594,0,0,0,0,0,0,0,0,0,-1,1259,1618,0,0
42,-594,0,0,0,0,0,0,0,0,0,-1,1266,1618,0,0
49,-594,0,0,0,0,0,0,0,0,0,-1,1273,1618,0,0
56,-594,0,0,0,0,0,0,0,0,0,-1,1280,1618,0,0
63,-594,0,0,0,0,0,0,0,0,0,-1,1287,1618,0,0
70,-594,0,0,0,0,0,0,0,0,0,-1,1294,1618,0,0
77,-594,0,0,0,0,0,0,0,0,0,-1,1301,1618,0,0
84,-594,0,0,0,0,0,0,0,0,0,-1,1308,1618,0,0
91,-594,0,0,0,0,0,0,0,0,0,-1,1315,1618,0,0
98,-594,0,0,0,0,0,0,0,0,0,-1,1322,1618,0,0
105,-594,0,0,0,0,0,0,0,0,0,-1,1329,1618,0,0
112,-594,0,0,0,0,0,0,0,0,0,-1,1336,1618,0,0
119,-594,0,0,0,0,0,0,0,0,0,-1,1343,1618,0,0
126,-594,0,0,0,0,0,0,0,0,0,-1,1350,1618,0,0
133,-594,0,0,0,0,0,0,0,0,0,-1,1357,1618,0,0
140,-594,0,0,0,0,0,0,0,0,0,-1,1364,1618,0,0
147,-594,0,0,0,0,0,0,0,0,0,-1,1371,1618,0,0
154,-594,0,0,0,0,0,0,0,0,0,-1,1378,1618,0,0
161,-594,0,0,0,0,0,0,0,0,0,-1,1385,1618,0,0
168,-594,0,0,0,0,0,0,0,0,0,-1,1392,1618,0,0
175,-594,0,0,0,0,0,0,0,0,0,-1,1399,1618,0,0
182,-594,0,0,0,0,0,0,0,0,0,-1,1406,1618,0,0
189,-594,0,0,0,0,0,0,0,0,0,-1,1413,1618,0,0
196,-594,0,0,0,0,0,0,0,0,0,-1,1420,1618,0,0
203,-594,0,0,0,0,0,0,0,0,0,-1,1427,1618,0,0
210,-594,0,0,0,0,0,0,0,0,0,-1,1434,1618,0,0
217,-594,0,0,0,0,0,0,0,0,0,-1,1441,1618,0,0
224,-594,0,0,0,0,0,0,0,0,0,-1,1448,1618,0,0
231,-594,0,0,0,0,0,0,0,0,0,-1,1455,1618,0,0
238,-594,0,0,0,0,0,0,0,0,0,-1,1462,1618,0,0
245,-594,0,0,0,0,0,0,0,0,0,-1,1469,1618,0,0
252,-594,3.03674,1.20996,0,0,0,0,0,0,0,-1,1476,1618,3.0368,-1.20999
259,-594,4.79834,1.53113,0,0,0,0,0,0,0,-1,1483,1618,4.79837,-1.53118
266,-594,3.71606,2.68152,0,0,0,0,0,0,0,-1,1490,1618,3.71609,-2.68149
273,-594,9.7655,6.33557,0,0,0,0,0,0,0,-1,1497,1618,9.76555,-6.33554
280,-594,3.13281,0.911255,0,0,0,0,0,0,0,-1,1504,1618,3.13277,-0.911207
287,-594,4.42749,1.51563,0,0,0,0,0,0,0,-1,1511,1618,4.42747,-1.51564
294,-594,5.36475,3.34937,0,0,0,0,0,0,0,-1,1518,1618,5.36475,-3.3494
301,-594,7.97144,9.04333,0,0,0,0,0,0,0,-1,1525,1618,7.9714,-9.04328
308,-594,6.30347,10.4633,0,0,0,0,0,0,0,-1,1532,1618,6.30351,-10.4633
315,-594,4.62012,11.934,0,0,0,0,0,0,0,-1,1539,1618,4.62006,-11.934
322,-594,2.91528,13.3134,0,0,0,0,0,0,0,-1,1546,1618,2.91523,-13.3133
329,-594,4.19861,9.77258,0,0,0,0,0,0,0,-1,1553,1618,4.19865,-9.77264
336,-594,10.1353,4.66528,0,0,0,0,0,0,0,-1,1560,1618,10.1353,-4.66533
343,-594,10.5729,3.71228,0,0,0,0,0,0,0,-1,1567,1618,10.5729,-3.71232
350,-594,10.219,2.98792,0,0,0,0,0,0,0,-1,1574,1618,10.219,-2.98797
357,-594,9.83154,1.96326,0,0,0,0,0,0,0,-1,1581,1618,9.8315,-1.96321
364,-594,9.74939,0.700562,0,0,0,0,0,0,0,-1,1588,1618,9.74939,-0.700615
371,-594,8.54297,14.3988,0,0,0,0,0,0,0,-1,1595,1618,8.54296,-14.3989
378,-594,15.9231,40.5479,0,0,0,0,0,0,0,-1,1602,1618,15.923,-40.5478
385,-594,16.2881,40.2263,0,0,0,0,0,0,0,-1,1609,1618,16.2881,-40.2263
392,-594,16.8461,39.7358,0,0,0,0,0,0,0,-1,1616,1618,16.8461,-39.7358
399,-594,17.0085,39.1654,0.0108753,0.0134328,-0.00552857,0.0178286,0.00647951,-0.899046,0.0104205,0.0441902,1623,1618,17.0086,-39.1655
406,-594,17.0952,38.5892,0.00891474,0.0108245,-0.00410046,0.0140798,0.00565945,-0.899795,0.0081809,0.0265359,1630,1618,17.0952,-38.5892
413,-594,17.1173,38.0621,0.00741287,0.00979993,-0.0035976,0.0123968,0.00481599,-0.945564,0.0072164,0.0189843,1637,1618,17.1173,-38.0621
420,-594,17.0898,37.4764,0.00623786,0.00903144,-0.0033519,0.0112659,0.00400336,-0.982815,0.0065945,0.0173864,1644,1618,17.0898,-37.4764
427,-594,17.0967,36.894,0.00522219,0.00828617,-0.00307443,0.0101892,0.0033192,-1.01654,0.0060006,0.0139165,1651,1618,17.0967,-36.894
434,-594,17.0627,36.3506,0.0044509,0.00777265,-0.00305334,0.00958761,0.00263594,-1.03449,0.00571929,0.0190308,1658,1618,17.0628,-36.3506
441,-594,17.0237,35.7701,0.00376039,0.00717034,-0.00294582,0.008869,0.00206172,-1.04773,0.00535929,0.0167633,1665,1618,17.0237,-35.7701
448,-594,17.0686,35.1877,0.0032322,0.00639587,-0.0029051,0.00812187,0.0015062,-1.0347,0.00498889,0.0169939,1672,1618,17.0686,-35.1878
455,-594,17.0494,34.6292,0.00273482,0.00547395,-0.00285653,0.00727226,0.000936507,-1.00893,0.00456812,0.0129489,1679,1618,17.0494,-34.6291
462,-594,17.0177,34.076,0.00239478,0.00459603,-0.00281902,0.00652167,0.000469145,-0.971512,0.00420014,0.0146499,1686,1618,17.0177,-34.0761
469,-594,16.9821,33.5342,0.00207419,0.00347958,-0.00255972,0.0054313,0.000122469,-0.919359,0.00358074,0.0128307,1693,1618,16.9821,-33.5341
476,-594,16.9541,32.9761,0.0016361,0.0025242,-0.00213029,0.00425623,-9.59206e-05,-0.88815,0.00286999,0.0126654,1700,1618,16.9541,-32.9761
483,-594,16.9413,32.3975,0.00115473,0.00144749,-0.00184684,0.00315374,-0.000551515,-0.824946,0.0023084,0.0154985,1707,1618,16.9412,-32.3974
490,-594,16.9174,31.8003,0.000683646,0.000563826,-0.00152441,0.00214932,-0.00090185,-0.765758,0.00181001,0.013674,1714,1618,16.9174,-31.8003
497,-594,16.8834,31.2194,0.000276029,-0.000152021,-0.0013508,0.00142965,-0.00130565,-0.70683,0.00157977,0.0106617,1721,1618,16.8834,-31.2194
504,-594,16.858,30.645,-0.000288297,-0.000696162,-0.00103942,0.000567003,-0.00155146,-0.688529,0.00126635,0.011077,1728,1618,16.858,-30.645
511,-594,16.8528,30.0522,-0.00112772,-0.00112978,-0.00039678,-0.000731967,-0.00152553,-0.784104,0.000881004,0.0173466,1735,1618,16.8528,-30.0523
518,-594,16.7729,29.4327,-0.00184222,-0.00142821,7.11952e-06,-0.00142809,-0.00184234,1.55361,0.00111607,0.0237849,1742,1618,16.773,-29.4328
525,-594,16.6975,28.7511,-0.00279352,-0.00182957,0.000766205,-0.00140636,-0.00321674,1.06615,0.00186206,0.0401897,1749,1618,16.6975,-28.7511
532,-594,17.7125,28.0491,0,0,0,0,0,0,0,-1,1756,1618,17.7125,-28.0491
539,-594,20.4009,25.0177,0,0,0,0,0,0,0,-1,1763,1618,20.4008,-25.0177
546,-594,7.48645,8.54785,0,0,0,0,0,0,0,-1,1770,1618,7.48639,-8.54789
553,-594,3.69714,5.68762,0,0,0,0,0,0,0,-1,1777,1618,3.69715,-5.68764
560,-594,6.06616,4.44482,0,0,0,0,0,0,0,-1,1784,1618,6.06621,-4.44477
567,-594,5.97266,4.73303,0,0,0,0,0,0,0,-1,1791,1618,5.97271,-4.73309
574,-594,5.9906,4.96326,0,0,0,0,0,0,0,-1,1798,1618,5.99065,-4.96326
581,-594,0,0,0,0,0,0,0,0,0,-1,1805,1618,0,0
588,-594,0,0,0,0,0,0,0,0,0,-1,1812,1618,0,0
595,-594,0,0,0,0,0,0,0,0,0,-1,1819,1618,0,0
602,-594,0,0,0,0,0,0,0,0,0,-1,1826,1618,0,0
609,-594,0,0,0,0,0,0,0,0,0,-1,1833,1618,0,0
616,-594,0,0,0,0,0,0,0,0,0,-1,1840,1618,0,0
623,-594,0,0,0,0,0,0,0,0,0,-1,1847,1618,0,0
630,-594,0,0,0,0,0,0,0,0,0,-1,1854,1618,0,0
637,-594,0,0,0,0,0,0,0,0,0,-1,1861,1618,0,0
644,-594,0,0,0,0,0,0,0,0,0,-1,1868,1618,0,0
651,-594,0,0,0,0,0,0,0,0,0,-1,1875,1618,0,0
658,-594,0,0,0,0,0,0,0,0,0,-1,1882,1618,0,0
665,-594,0,0,0,0,0,0,0,0,0,-1,1889,1618,0,0
672,-594,0,0,0,0,0,0,0,0,0,-1,1896,1618,0,0
679,-594,0,0,0,0,0,0,0,0,0,-1,1903,1618,0,0
686,-594,0,0,0,0,0,0,0,0,0,-1,1910,1618,0,0
693,-594,0,0,0,0,0,0,0,0,0,-1,1917,1618,0,0
700,-594,0,0,0,0,0,0,0,0,0,-1,1924,1618,0,0
707,-594,0,0,0,0,0,0,0,0,0,-1,1931,1618,0,0
714,-594,0,0,0,0,0,0,0,0,0,-1,1938,1618,0,0
721,-594,0,0,0,0,0,0,0,0,0,-1,1945,1618,0,0
728,-594,0,0,0,0,0,0,0,0,0,-1,1952,1618,0,0
735,-594,0,0,0,0,0,0,0,0,0,-1,1959,1618,0,0
742,-594,0,0,0,0,0,0,0,0,0,-1,1966,1618,0,0
749,-594,0,0,0,0,0,0,0,0,0,-1,1973,1618,0,0
756,-594,0,0,0,0,0,0,0,0,0,-1,1980,1618,0,0
763,-594,0,0,0,0,0,0,0,0,0,-1,1987,1618,0,0
770,-594,0,0,0,0,0,0,0,0,0,-1,1994,1618,0,0
777,-594,0,0,0,0,0,0,0,0,0,-1,2001,1618,0,0
784,-594,0,0,0,0,0,0,0,0,0,-1,2008,1618,0,0
791,-594,0,0,0,0,0,0,0,0,0,-1,2015,1618,0,0
798,-594,0,0,0,0,0,0,0,0,0,-1,2022,1618,0,0
805,-594,0,0,0,0,0,0,0,0,0,-1,2029,1618,0,0
812,-594,0,0,0,0,0,0,0,0,0,-1,2036,1618,0,0
-700,-601,0,0,0,0,0,0,0,0,0,-1,524,1625,0,0
-693,-601,0,0,0,0,0,0,0,0,0,-1,531,1625,0,0
-686,-601,0,0,0,0,0,0,0,0,0,-1,538,1625,0,0
-679,-601,0,0,0,0,0,0,0,0,0,-1,545,1625,0,0
-672,-601,0,0,0,0,0,0,0,0,0,-1,552,1625,0,0
-665,-601,0,0,0,0,0,0,0,0,0,-1,559,1625,0,0
-658,-601,0,0,0,0,0,0,0,0,0,-1,566,1625,0,0
-651,-601,0,0,0,0,0,0,0,0,0,-1,573,1625,0,0
-644,-601,0,0,0,0,0,0,0,0,0,-1,580,1625,0,0
-637,-601,0,0,0,0,0,0,0,0,0,-1,587,1625,0,0
-630,-601,0,0,0,0,0,0,0,0,0,-1,594,1625,0,0
-623,-601,0,0,0,0,0,0,0,0,0,-1,601,1625,0,0
-616,-601,0,0,0,0,0,0,0,0,0,-1,608,1625,0,0
-609,-601,0,0,0,0,0,0,0,0,0,-1,615,1625,0,0
-602,-601,0,0,0,0,0,0,0,0,0,-1,622,1625,0,0
-595,-601,0,0,0,0,0,0,0,0,0,-1,629,1625,0,0
-588,-601,0,0,0,0,0,0,0,0,0,-1,636,1625,0,0
-581,-601,0,0,0,0,0,0,0,0,0,-1,643,1625,0,0
-574,-601,0,0,0,0,0,0,0,0,0,-1,650,1625,0,0
-567,-601,0,0,0,0,0,0,0,0,0,-1,657,1625,0,0
-560,-601,0,0,0,0,0,0,0,0,0,-1,664,1625,0,0
-553,-601,0,0,0,0,0,0,0,0,0,-1,671,1625,0,0
-546,-601,0,0,0,0,0,0,0,0,0,-1,678,1625,0,0
-539,-601,0,0,0,0,0,0,0,0,0,-1,685,1625,0,0
-532,-601,0,0,0,0,0,0,0,0,0,-1,692,1625,0,0
-525,-601,0,0,0,0,0,0,0,0,0,-1,699,1625,0,0
-518,-601,0,0,0,0,0,0,0,0,0,-1,706,1625,0,0
-511,-601,0,0,0,0,0,0,0,0,0,-1,713,1625,0,0
-504,-601,0,0,0,0,0,0,0,0,0,-1,720,1625,0,0
-497,-601,0,0,0,0,0,0,0,0,0,-1,727,1625,0,0
-490,-601,0,0,0,0,0,0,0,0,0,-1,734,1625,0,0
-483,-601,0,0,0,0,0,0,0,0,0,-1,741,1625,0,0
-476,-601,0,0,0,0,0,0,0,0,0,-1,748,1625,0,0
-469,-601,0,0,0,0,0,0,0,0,0,-1,755,1625,0,0
-462,-601,0,0,0,0,0,0,0,0,0,-1,762,1625,0,0
-455,-601,0,0,0,0,0,0,0,0,0,-1,769,1625,0,0
-448,-601,-7.07623,2.7616,0,0,0,0,0,0,0,-1,776,1625,-7.07626,-2.76161
-441,-601,-6.06689,3.33447,0,0,0,0,0,0,0,-1,783,1625,-6.06691,-3.33448
-434,-601,-5.02655,3.8468,0,0,0,0,0,0,0,-1,790,1625,-5.02657,-3.84674
-427,-601,-5.78601,4.2406,0,0,0,0,0,0,0,-1,797,1625,-5.786,-4.24058
-420,-601,-5.5191,5.60364,0,0,0,0,0,0,0,-1,804,1625,-5.51907,-5.60368
-413,-601,-4.30756,5.86047,0,0,0,0,0,0,0,-1,811,1625,-4.30757,-5.86046
-406,-601,-1.67493,7.20422,0,0,0,0,0,0,0,-1,818,1625,-1.67493,-7.20428
-399,-601,1.40094,15.3108,0,0,0,0,0,0,0,-1,825,1625,1.40096,-15.3107
-392,-601,1.89734,27.7758,0,0,0,0,0,0,0,-1,832,1625,1.89734,-27.7758
-385,-601,1.90967,28.7621,-0.00759772,0.0026993,0.00294169,0.00348044,-0.00837886,1.31125,0.00703896,0.0499934,839,1625,1.90965,-28.7621
-378,-601,1.8219,29.6581,-0.00546654,0.00156215,0.00271886,0.0024911,-0.00639549,1.24156,0.00529317,0.04524,846,1625,1.82192,-29.6581
-371,-601,1.78461,30.1292,-0.00400695,0.000881757,0.00230485,0.00179705,-0.00492224,1.19278,0.00401682,0.0255119,853,1625,1.7846,-30.1292
-364,-601,1.77051,30.7581,-0.00288313,0.000295912,0.00193438,0.00121007,-0.00379729,1.12932,0.00301689,0.0139463,860,1625,1.77052,-30.758
-357,-601,1.71893,31.3973,-0.00179788,0.000121984,0.00175303,0.0011607,-0.0028366,1.03589,0.00237449,0.0103367,867,1625,1.71893,-31.3974
-350,-601,1.72937,32.0488,-0.000794363,0.000147976,0.00166562,0.00140778,-0.00205417,0.923237,0.00201034,0.0203113,874,1625,1.72938,-32.0488
-343,-601,1.66486,32.6472,0.000118567,0.000450654,0.00167251,0.00196535,-0.00139613,0.834875,0.00195,0.023133,881,1625,1.66483,-32.6472
-336,-601,1.57861,33.2231,0.000975592,0.000819865,0.00174576,0.00264523,-0.00084977,0.763112,0.00210472,0.0207726,888,1625,1.57859,-33.2232
-329,-601,1.59113,33.7977,0.00171958,0.00127554,0.00175304,0.0032646,-0.000269482,0.722408,0.00227156,0.0177294,895,1625,1.59113,-33.7977
-322,-601,1.61511,34.3696,0.00235332,0.00210061,0.00193562,0.0041667,0.000287225,0.752805,0.00268718,0.0132346,902,1625,1.61511,-34.3696
-315,-601,1.60931,34.9165,0.00297806,0.00316927,0.0022887,0.00536436,0.000782972,0.806273,0.00334593,0.0128722,909,1625,1.60932,-34.9164
-308,-601,1.57239,35.5089,0.00361476,0.00415659,0.00260424,0.00650397,0.00126738,0.837227,0.00398134,0.0124423,916,1625,1.57239,-35.5089
-301,-601,1.5733,36.0988,0.00441563,0.00521469,0.00314859,0.00798899,0.00164132,0.848506,0.00487194,0.0102991,923,1625,1.57331,-36.0987
-294,-601,1.56714,36.6451,0.00542192,0.00676382,0.00405462,0.0102026,0.00198311,0.867394,0.00624654,0.0103315,930,1625,1.56715,-36.6451
-287,-601,1.51758,37.2166,0.00655238,0.00864351,0.00515294,0.0128559,0.00234,0.885493,0.00790687,0.0115498,937,1625,1.51759,-37.2166
-280,-601,1.52405,37.7842,0.00789621,0.0107839,0.00648272,0.0159816,0.0026985,0.894971,0.00987855,0.0149925,944,1625,1.52405,-37.7842
-273,-601,1.54279,38.3782,0.00936227,0.0127405,0.0078918,0.0191219,0.00298087,0.890826,0.0118797,0.0163255,951,1625,1.54278,-38.3781
-266,-601,1.58765,38.9749,0.0108633,0.0152094,0.00954413,0.0228247,0.00324794,0.897333,0.0142577,0.0187343,958,1625,1.58764,-38.9749
-259,-601,1.65637,39.3704,0,0,0,0,0,0,0,-1,965,1625,1.65638,-39.3704
-252,-601,1.91394,40.1929,0,0,0,0,0,0,0,-1,972,1625,1.91396,-40.1929
-245,-601,2.17151,41.0155,0,0,0,0,0,0,0,-1,979,1625,2.17153,-41.0155
-238,-601,2.75482,35.777,0,0,0,0,0,0,0,-1,986,1625,2.75481,-35.777
-231,-601,2.66772,13.7051,0,0,0,0,0,0,0,-1,993,1625,2.6677,-13.7051
-224,-601,-0.0305176,9.13684,0,0,0,0,0,0,0,-1,1000,1625,-0.030498,-9.13681
-217,-601,3.39429,10.3898,0,0,0,0,0,0,0,-1,1007,1625,3.39431,-10.3898
-210,-601,-6.53699,15.7931,0,0,0,0,0,0,0,-1,1014,1625,-6.53697,-15.7931
-203,-601,2.69348,15.9099,0,0,0,0,0,0,0,-1,1021,1625,2.69351,-15.91
-196,-601,2.66992,16.1815,0,0,0,0,0,0,0,-1,1028,1625,2.66995,-16.1815
-189,-601,2.849,16.6105,0,0,0,0,0,0,0,-1,1035,1625,2.84902,-16.6104
-182,-601,1.82153,13.9752,0,0,0,0,0,0,0,-1,1042,1625,1.82155,-13.9752
-175,-601,0.544922,9.28687,0,0,0,0,0,0,0,-1,1049,1625,0.544879,-9.28685
-168,-601,-0.247559,8.97461,0,0,0,0,0,0,0,-1,1056,1625,-0.247598,-8.97466
-161,-601,-1.16833,8.80078,0,0,0,0,0,0,0,-1,1063,1625,-1.16837,-8.80081
-154,-601,1.12756,7.94861,0,0,0,0,0,0,0,-1,1070,1625,1.12762,-7.94855
-147,-601,1.35352,9.55432,0,0,0,0,0,0,0,-1,1077,1625,1.35351,-9.55429
-140,-601,1.72437,11.1498,0,0,0,0,0,0,0,-1,1084,1625,1.72432,-11.1498
-133,-601,2.13281,12.8347,0,0,0,0,0,0,0,-1,1091,1625,2.13287,-12.8348
-126,-601,3.09534,15.427,0,0,0,0,0,0,0,-1,1098,1625,3.0953,-15.4271
-119,-601,1.22485,9.43457,0,0,0,0,0,0,0,-1,1105,1625,1.22489,-9.43456
-112,-601,0,0,0,0,0,0,0,0,0,-1,1112,1625,0,0
-105,-601,0,0,0,0,0,0,0,0,0,-1,1119,1625,0,0
-98,-601,0,0,0,0,0,0,0,0,0,-1,1126,1625,0,0
-91,-601,0,0,0,0,0,0,0,0,0,-1,1133,1625,0,0
-84,-601,0,0,0,0,0,0,0,0,0,-1,1140,1625,0,0
-77,-601,0,0,0,0,0,0,0,0,0,-1,1147,1625,0,0
-70,-601,0,0,0,0,0,0,0,0,0,-1,1154,1625,0,0
-63,-601,0,0,0,0,0,0,0,0,0,-1,1161,1625,0,0
-56,-601,0,0,0,0,0,0,0,0,0,-1,1168,1625,0,0
-49,-601,0,0,0,0,0,0,0,0,0,-1,1175,1625,0,0
-42,-601,0,0,0,0,0,0,0,0,0,-1,1182,1625,0,0
-35,-601,0,0,0,0,0,0,0,0,0,-1,1189,1625,0,0
-28,-601,0,0,0,0,0,0,0,0,0,-1,1196,1625,0,0
-21,-601,0,0,0,0,0,0,0,0,0,-1,1203,1625,0,0
-14,-601,0,0,0,0,0,0,0,0,0,-1,1210,1625,0,0
-7,-601,0,0,0,0,0,0,0,0,0,-1,1217,1625,0,0
0,-601,0,0,0,0,0,0,0,0,0,-1,1224,1625,0,0
7,-601,0,0,0,0,0,0,0,0,0,-1,1231,1625,0,0
14,-601,0,0,0,0,0,0,0,0,0,-1,1238,1625,0,0
21,-601,0,0,0,0,0,0,0,0,0,-1,1245,1625,0,0
28,-601,0,0,0,0,0,0,0,0,0,-1,1252,1625,0,0
35,-601,0,0,0,0,0,0,0,0,0,-1,1259,1625,0,0
42,-601,0,0,0,0,0,0,0,0,0,-1,1266,1625,0,0
49,-601,0,0,0,0,0,0,0,0,0,-1,1273,1625,0,0
56,-601,0,0,0,0,0,0,0,0,0,-1,1280,1625,0,0
63,-601,0,0,0,0,0,0,0,0,0,-1,1287,1625,0,0
70,-601,0,0,0,0,0,0,0,0,0,-1,1294,1625,0,0
77,-601,0,0,0,0,0,0,0,0,0,-1,1301,1625,0,0
84,-601,0,0,0,0,0,0,0,0,0,-1,1308,1625,0,0
91,-601,0,0,0,0,0,0,0,0,0,-1,1315,1625,0,0
98,-601,0,0,0,0,0,0,0,0,0,-1,1322,1625,0,0
105,-601,0,0,0,0,0,0,0,0,0,-1,1329,1625,0,0
112,-601,0,0,0,0,0,0,0,0,0,-1,1336,1625,0,0
119,-601,0,0,0,0,0,0,0,0,0,-1,1343,1625,0,0
126,-601,0,0,0,0,0,0,0,0,0,-1,1350,1625,0,0
133,-601,0,0,0,0,0,0,0,0,0,-1,1357,1625,0,0
140,-601,0,0,0,0,0,0,0,0,0,-1,1364,1625,0,0
147,-601,0,0,0,0,0,0,0,0,0,-1,1371,1625,0,0
154,-601,0,0,0,0,0,0,0,0,0,-1,1378,1625,0,0
161,-601,0,0,0,0,0,0,0,0,0,-1,1385,1625,0,0
168,-601,0,0,0,0,0,0,0,0,0,-1,1392,1625,0,0
175,-601,0,0,0,0,0,0,0,0,0,-1,1399,1625,0,0
182,-601,0,0,0,0,0,0,0,0,0,-1,1406,1625,0,0
189,-601,0,0,0,0,0,0,0,0,0,-1,1413,1625,0,0
196,-601,0,0,0,0,0,0,0,0,0,-1,1420,1625,0,0
203,-601,0,0,0,0,0,0,0,0,0,-1,1427,1625,0,0
210,-601,0,0,0,0,0,0,0,0,0,-1,1434,1625,0,0
217,-601,0,0,0,0,0,0,0,0,0,-1,1441,1625,0,0
224,-601,0,0,0,0,0,0,0,0,0,-1,1448,1625,0,0
231,-601,-0.0371094,0.525879,0,0,0,0,0,0,0,-1,1455,1625,-0.0371518,-0.525824
238,-601,2.03369,-1.32861,0,0,0,0,0,0,0,-1,1462,1625,2.03364,1.32858
245,-601,2.71375,2.44983,0,0,0,0,0,0,0,-1,1469,1625,2.71371,-2.44979
252,-601,4.66943,2.28381,0,0,0,0,0,0,0,-1,1476,1625,4.66947,-2.28376
259,-601,6.42712,2.61987,0,0,0,0,0,0,0,-1,1483,1625,6.42711,-2.61985
266,-601,6.75317,1.68701,0,0,0,0,0,0,0,-1,1490,1625,6.75323,-1.687
273,-601,5.4314,2.92053,0,0,0,0,0,0,0,-1,1497,1625,5.43144,-2.92051
280,-601,4.64722,1.17786,0,0,0,0,0,0,0,-1,1504,1625,4.64722,-1.1779
287,-601,5.32532,2.6217,0,0,0,0,0,0,0,-1,1511,1625,5.32535,-2.62171
294,-601,5.97693,4.22693,0,0,0,0,0,0,0,-1,1518,1625,5.97697,-4.22694
301,-601,7.28162,9.50024,0,0,0,0,0,0,0,-1,1525,1625,7.28162,-9.50025
308,-601,6.53528,10.3927,0,0,0,0,0,0,0,-1,1532,1625,6.53529,-10.3927
315,-601,4.88013,11.7184,0,0,0,0,0,0,0,-1,1539,1625,4.88015,-11.7184
322,-601,3.38098,12.7864,0,0,0,0,0,0,0,-1,1546,1625,3.38104,-12.7864
329,-601,1.8772,13.8768,0,0,0,0,0,0,0,-1,1553,1625,1.87716,-13.8768
336,-601,4.67847,9.53308,0,0,0,0,0,0,0,-1,1560,1625,4.67848,-9.53309
343,-601,11.1404,3.14575,0,0,0,0,0,0,0,-1,1567,1625,11.1404,-3.1458
350,-601,10.9462,2.37769,0,0,0,0,0,0,0,-1,1574,1625,10.9461,-2.37764
357,-601,10.7518,1.6095,0,0,0,0,0,0,0,-1,1581,1625,10.7518,-1.60948
364,-601,5.33643,9.74426,0,0,0,0,0,0,0,-1,1588,1625,5.33637,-9.74429
371,-601,15.0125,41.9064,0,0,0,0,0,0,0,-1,1595,1625,15.0124,-41.9063
378,-601,15.8503,40.7692,0,0,0,0,0,0,0,-1,1602,1625,15.8504,-40.7692
385,-601,15.9952,40.0991,0.01305,0.0195124,-0.00926878,0.0260971,0.00646535,-0.953118,0.0156933,0.045596,1609,1625,15.9952,-40.0991
392,-601,16.2205,39.6344,0.0110605,0.0148799,-0.00678266,0.0200166,0.00592382,-0.922625,0.011873,0.0406194,1616,1625,16.2204,-39.6344
399,-601,16.4546,39.0631,0.00912801,0.0116217,-0.00489944,0.0154305,0.00531926,-0.909997,0.00905085,0.0222728,1623,1625,16.4546,-39.0631
406,-601,16.5646,38.4707,0.00742642,0.00891004,-0.00346196,0.0117088,0.00462768,-0.89094,0.00680935,0.0144223,1630,1625,16.5645,-38.4707
413,-601,16.5439,37.9363,0.0061463,0.00767998,-0.00285591,0.00987021,0.00395607,-0.916559,0.00573582,0.0128789,1637,1625,16.5439,-37.9363
420,-601,16.53,37.382,0.00512441,0.00681991,-0.00255179,0.00866108,0.00328324,-0.945772,0.00504899,0.0116367,1644,1625,16.53,-37.382
427,-601,16.5525,36.8492,0.00422438,0.006032,-0.00227444,0.00757563,0.00268075,-0.97452,0.00443563,0.0154123,1651,1625,16.5526,-36.8493
434,-601,16.5222,36.3043,0.00356693,0.00559277,-0.0022941,0.00708762,0.00207208,-0.993293,0.00420802,0.0160361,1658,1625,16.5222,-36.3043
441,-601,16.4974,35.7554,0.00299752,0.00511879,-0.00228784,0.0065799,0.00153641,-1.00245,0.00397471,0.0174895,1665,1625,16.4974,-35.7554
448,-601,16.4951,35.2122,0.00259379,0.00447355,-0.00234324,0.00605838,0.00100896,-0.976126,0.00374814,0.0142498,1672,1625,16.4951,-35.2122
455,-601,16.4932,34.6425,0.00223761,0.0037596,-0.00241538,0.00553103,0.000466178,-0.938006,0.0035422,0.0130662,1679,1625,16.4932,-34.6425
462,-601,16.4645,34.0909,0.00197858,0.0030115,-0.00245216,0.00500099,-1.09212e-05,-0.889188,0.00333764,0.0121199,1686,1625,16.4645,-34.091
469,-601,16.4286,33.5577,0.00170314,0.0021315,-0.00231911,0.0042463,-0.000411659,-0.831445,0.00297759,0.0117557,1693,1625,16.4286,-33.5578
476,-601,16.4053,32.9993,0.00134012,0.00140937,-0.00203677,0.00341181,-0.000662316,-0.793897,0.00252444,0.0136681,1700,1625,16.4052,-32.9993
483,-601,16.3774,32.4279,0.00095487,0.000528301,-0.00189492,0.00264847,-0.0011653,-0.729356,0.0022567,0.0166342,1707,1625,16.3774,-32.4279
490,-601,16.3517,31.8448,0.00053114,-0.000157387,-0.00168169,0.00190344,-0.00152968,-0.684436,0.00198603,0.0129112,1714,1625,16.3517,-31.8449
497,-601,16.3307,31.2527,0.000183822,-0.000678589,-0.00161331,0.00142256,-0.00191733,-0.654811,0.00193533,0.0109842,1721,1625,16.3307,-31.2526
504,-601,16.3558,30.6563,-0.000397339,-0.000955071,-0.00141937,0.000770303,-0.00212271,-0.688398,0.00173005,0.0219088,1728,1625,16.3558,-30.6562
511,-601,16.2274,30.1627,-0.00141632,-0.00120684,-0.00078509,-0.000519538,-0.00210363,-0.851712,0.00126531,0.0371607,1735,1625,16.2274,-30.1627
518,-601,16.1146,29.4364,-0.00219845,-0.00134559,-0.000522324,-0.00109774,-0.00244631,-1.12773,0.00141485,0.0461462,1742,1625,16.1146,-29.4364
525,-601,16.1256,28.7347,0,0,0,0,0,0,0,-1,1749,1625,16.1256,-28.7347
532,-601,16.3573,21.5406,0,0,0,0,0,0,0,-1,1756,1625,16.3573,-21.5406
539,-601,7.77112,11.4299,0,0,0,0,0,0,0,-1,1763,1625,7.77116,-11.4299
546,-601,6.56873,3.62354,0,0,0,0,0,0,0,-1,1770,1625,6.56867,-3.62352
553,-601,7.03015,4.25049,0,0,0,0,0,0,0,-1,1777,1625,7.03011,-4.25048
560,-601,7.50745,4.83374,0,0,0,0,0,0,0,-1,1784,1625,7.50744,-4.83376
567,-601,7.82043,3.83301,0,0,0,0,0,0,0,-1,1791,1625,7.82041,-3.83303
574,-601,0,0,0,0,0,0,0,0,0,-1,1798,1625,0,0
581,-601,0,0,0,0,0,0,0,0,0,-1,1805,1625,0,0
588,-601,0,0,0,0,0,0,0,0,0,-1,1812,1625,0,0
595,-601,0,0,0,0,0,0,0,0,0,-1,1819,1625,0,0
602,-601,0,0,0,0,0,0,0,0,0,-1,1826,1625,0,0
609,-601,0,0,0,0,0,0,0,0,0,-1,1833,1625,0,0
616,-601,0,0,0,0,0,0,0,0,0,-1,1840,1625,0,0
623,-601,0,0,0,0,0,0,0,0,0,-1,1847,1625,0,0
630,-601,0,0,0,0,0,0,0,0,0,-1,1854,1625,0,0
637,-601,0,0,0,0,0,0,0,0,0,-1,1861,1625,0,0
644,-601,0,0,0,0,0,0,0,0,0,-1,1868,1625,0,0
651,-601,0,0,0,0,0,0,0,0,0,-1,1875,1625,0,0
658,-601,0,0,0,0,0,0,0,0,0,-1,1882,1625,0,0
665,-601,0,0,0,0,0,0,0,0,0,-1,1889,1625,0,0
672,-601,0,0,0,0,0,0,0,0,0,-1,1896,1625,0,0
679,-601,0,0,0,0,0,0,0,0,0,-1,1903,1625,0,0
686,-601,0,0,0,0,0,0,0,0,0,-1,1910,1625,0,0
693,-601,0,0,0,0,0,0,0,0,0,-1,1917,1625,0,0
700,-601,0,0,0,0,0,0,0,0,0,-1,1924,1625,0,0
707,-601,0,0,0,0,0,0,0,0,0,-1,1931,1625,0,0
714,-601,0,0,0,0,0,0,0,0,0,-1,1938,1625,0,0
721,-601,0,0,0,0,0,0,0,0,0,-1,1945,1625,0,0
728,-601,0,0,0,0,0,0,0,0,0,-1,1952,1625,0,0
735,-601,0,0,0,0,0,0,0,0,0,-1,1959,1625,0,0
742,-601,0,0,0,0,0,0,0,0,0,-1,1966,1625,0,0
749,-601,0,0,0,0,0,0,0,0,0,-1,1973,1625,0,0
756,-601,0,0,0,0,0,0,0,0,0,-1,1980,1625,0,0
763,-601,0,0,0,0,0,0,0,0,0,-1,1987,1625,0,0
770,-601,0,0,0,0,0,0,0,0,0,-1,1994,1625,0,0
777,-601,0,0,0,0,0,0,0,0,0,-1,2001,1625,0,0
784,-601,0,0,0,0,0,0,0,0,0,-1,2008,1625,0,0
791,-601,0,0,0,0,0,0,0,0,0,-1,2015,1625,0,0
798,-601,0,0,0,0,0,0,0,0,0,-1,2022,1625,0,0
805,-601,0,0,0,0,0,0,0,0,0,-1,2029,1625,0,0
812,-601,0,0,0,0,0,0,0,0,0,-1,2036,1625,0,0
-700,-608,0,0,0,0,0,0,0,0,0,-1,524,1632,0,0
-693,-608,0,0,0,0,0,0,0,0,0,-1,531,1632,0,0
-686,-608,0,0,0,0,0,0,0,0,0,-1,538,1632,0,0
-679,-608,0,0,0,0,0,0,0,0,0,-1,545,1632,0,0
-672,-608,0,0,0,0,0,0,0,0,0,-1,552,1632,0,0
-665,-608,0,0,0,0,0,0,0,0,0,-1,559,1632,0,0
-658,-608,0,0,0,0,0,0,0,0,0,-1,566,1632,0,0
-651,-608,0,0,0,0,0,0,0,0,0,-1,573,1632,0,0
-644,-608,0,0,0,0,0,0,0,0,0,-1,580,1632,0,0
-637,-608,0,0,0,0,0,0,0,0,0,-1,587,1632,0,0
-630,-608,0,0,0,0,0,0,0,0,0,-1,594,1632,0,0
-623,-608,0,0,0,0,0,0,0,0,0,-1,601,1632,0,0
-616,-608,0,0,0,0,0,0,0,0,0,-1,608,1632,0,0
-609,-608,0,0,0,0,0,0,0,0,0,-1,615,1632,0,0
-602,-608,0,0,0,0,0,0,0,0,0,-1,622,1632,0,0
-595,-608,0,0,0,0,0,0,0,0,0,-1,629,1632,0,0
-588,-608,0,0,0,0,0,0,0,0,0,-1,636,1632,0,0
-581,-608,0,0,0,0,0,0,0,0,0,-1,643,1632,0,0
-574,-608,0,0,0,0,0,0,0,0,0,-1,650,1632,0,0
-567,-608,0,0,0,0,0,0,0,0,0,-1,657,1632,0,0
-560,-608,0,0,0,0,0,0,0,0,0,-1,664,1632,0,0
-553,-608,0,0,0,0,0,0,0,0,0,-1,671,1632,0,0
-546,-608,0,0,0,0,0,0,0,0,0,-1,678,1632,0,0
-539,-608,0,0,0,0,0,0,0,0,0,-1,685,1632,0,0
-532,-608,0,0,0,0,0,0,0,0,0,-1,692,1632,0,0
-525,-608,0,0,0,0,0,0,0,0,0,-1,699,1632,0,0
-518,-608,0,0,0,0,0,0,0,0,0,-1,706,1632,0,0
-511,-608,0,0,0,0,0,0,0,0,0,-1,713,1632,0,0
-504,-608,0,0,0,0,0,0,0,0,0,-1,720,1632,0,0
-497,-608,0,0,0,0,0,0,0,0,0,-1,727,1632,0,0
-490,-608,0,0,0,0,0,0,0,0,0,-1,734,1632,0,0
-483,-608,0,0,0,0,0,0,0,0,0,-1,741,1632,0,0
-476,-608,0,0,0,0,0,0,0,0,0,-1,748,1632,0,0
-469,-608,0,0,0,0,0,0,0,0,0,-1,755,1632,0,0
-462,-608,0,0,0,0,0,0,0,0,0,-1,762,1632,0,0
-455,-608,0,0,0,0,0,0,0,0,0,-1,769,1632,0,0
-448,-608,0,0,0,0,0,0,0,0,0,-1,776,1632,0,0
-441,-608,-7.34601,2.78052,0,0,0,0,0,0,0,-1,783,1632,-7.346,-2.78056
-434,-608,-6.34558,3.27405,0,0,0,0,0,0,0,-1,790,1632,-6.34555,-3.27406
-427,-608,-7.74335,4.17688,0,0,0,0,0,0,0,-1,797,1632,-7.74334,-4.17693
-420,-608,-6.82794,4.34839,0,0,0,0,0,0,0,-1,804,1632,-6.82794,-4.34838
-413,-608,-5.41919,5.66138,0,0,0,0,0,0,0,-1,811,1632,-5.41917,-5.66133
-406,-608,-4.79681,4.98999,0,0,0,0,0,0,0,-1,818,1632,-4.79684,-4.98997
-399,-608,-2.60645,6.34167,0,0,0,0,0,0,0,-1,825,1632,-2.60643,-6.34169
-392,-608,2.08356,15.437,0,0,0,0,0,0,0,-1,832,1632,2.08354,-15.437
-385,-608,2.43921,28.5863,0,0,0,0,0,0,0,-1,839,1632,2.43919,-28.5863
-378,-608,2.48389,29.7122,0,0,0,0,0,0,0,-1,846,1632,2.4839,-29.7121
-371,-608,2.54114,30.0031,0,0,0,0,0,0,0,-1,853,1632,2.54115,-30.0031
-364,-608,2.42413,30.6819,-0.00347745,0.000145668,0.00246756,0.00139525,-0.00472703,1.10204,0.00370507,0.0290289,860,1632,2.42416,-30.6819
-357,-608,2.30176,31.3804,-0.0022991,-0.000184243,0.00218514,0.00118587,-0.00366922,1.01075,0.00292276,0.0185897,867,1632,2.30178,-31.3804
-350,-608,2.31012,32.0369,-0.00130822,-0.000276251,0.00201509,0.00128786,-0.00287233,0.910735,0.00245927,0.0194326,874,1632,2.31011,-32.0369
-343,-608,2.28601,32.6447,-0.000430558,-0.000107582,0.00190628,0.00164404,-0.00218218,0.827654,0.00221634,0.0244662,881,1632,2.28602,-32.6446
-336,-608,2.22211,33.25,0.000393854,0.000181325,0.0018806,0.00217119,-0.00159601,0.757175,0.00218343,0.017727,888,1632,2.22214,-33.25
-329,-608,2.1687,33.8539,0.00107896,0.000524126,0.00177296,0.00259607,-0.000992992,0.707793,0.00213994,0.0165936,895,1632,2.16868,-33.8539
-322,-608,2.1524,34.4125,0.0016023,0.00124189,0.00181801,0.00324901,-0.000404821,0.735999,0.00231279,0.0163526,902,1632,2.15238,-34.4124
-315,-608,2.1651,34.941,0.00209164,0.00208788,0.00199435,0.00408411,9.54131e-05,0.784927,0.0026915,0.0150077,909,1632,2.16511,-34.941
-308,-608,2.13049,35.548,0.00260958,0.00290296,0.00213994,0.00490123,0.000611304,0.819619,0.00308398,0.0151995,916,1632,2.1305,-35.548
-301,-608,2.11987,36.1381,0.00325872,0.00377174,0.00247352,0.00600201,0.00102845,0.837065,0.0037064,0.0106672,923,1632,2.11987,-36.1381
-294,-608,2.1311,36.6801,0.00409172,0.00504464,0.00312702,0.00773129,0.00140507,0.861001,0.00475554,0.0109915,930,1632,2.1311,-36.6801
-287,-608,2.09698,37.2261,0.00498899,0.00656275,0.00387489,0.00972985,0.00182189,0.885572,0.00597262,0.010734,937,1632,2.09696,-37.226
-280,-608,2.09497,37.7655,0.00605982,0.00821422,0.00481281,0.0120689,0.00220513,0.895493,0.00742092,0.00883181,944,1632,2.09494,-37.7655
-273,-608,2.0824,38.3214,0.00722764,0.0097508,0.00583743,0.0144614,0.00251702,0.891821,0.0089211,0.010455,951,1632,2.0824,-38.3214
-266,-608,2.09277,38.9044,0.0083889,0.0116026,0.00700295,0.0171807,0.00281081,0.898172,0.0106413,0.0118948,958,1632,2.09275,-38.9045
-259,-608,2.14563,39.4519,0.00971913,0.0135763,0.00833156,0.0201996,0.00309585,0.899135,0.0125622,0.0164101,965,1632,2.14566,-39.452
-252,-608,2.28125,39.9955,0.0113423,0.0157896,0.00979288,0.0236081,0.0035238,0.897038,0.0147056,0.0321528,972,1632,2.28124,-39.9954
-245,-608,2.40771,40.8945,0.0129087,0.0178541,0.0112578,0.0269076,0.0038552,0.893501,0.0168014,0.0479885,979,1632,2.40774,-40.8946
-238,-608,2.46887,41.7826,0,0,0,0,0,0,0,-1,986,1632,2.46886,-41.7826
-231,-608,3.26025,27.5262,0,0,0,0,0,0,0,-1,993,1632,3.26023,-27.5263
-224,-608,2.51642,15.3452,0,0,0,0,0,0,0,-1,1000,1632,2.5164,-15.3452
-217,-608,1.04419,12.8451,0,0,0,0,0,0,0,-1,1007,1632,1.04418,-12.8451
-210,-608,2.75903,15.9414,0,0,0,0,0,0,0,-1,1014,1632,2.75903,-15.9414
-203,-608,2.76776,16.217,0,0,0,0,0,0,0,-1,1021,1632,2.76773,-16.217
-196,-608,1.53955,18.6058,0,0,0,0,0,0,0,-1,1028,1632,1.53959,-18.6058
-189,-608,1.37634,19.119,0,0,0,0,0,0,0,-1,1035,1632,1.37634,-19.1191
-182,-608,2.89221,16.7092,0,0,0,0,0,0,0,-1,1042,1632,2.89224,-16.7093
-175,-608,0.219116,15.1643,0,0,0,0,0,0,0,-1,1049,1632,0.219173,-15.1644
-168,-608,0.000366211,9.48645,0,0,0,0,0,0,0,-1,1056,1632,0.000317105,-9.48648
-161,-608,2.27832,15.4423,0,0,0,0,0,0,0,-1,1063,1632,2.27826,-15.4423
-154,-608,1.3999,16.4037,0,0,0,0,0,0,0,-1,1070,1632,1.39987,-16.4037
-147,-608,2.4386,9.50317,0,0,0,0,0,0,0,-1,1077,1632,2.43858,-9.50313
-140,-608,2.60132,10.8401,0,0,0,0,0,0,0,-1,1084,1632,2.60134,-10.8401
-133,-608,3.2312,12.4738,0,0,0,0,0,0,0,-1,1091,1632,3.23116,-12.4738
-126,-608,3.76465,13.9644,0,0,0,0,0,0,0,-1,1098,1632,3.76466,-13.9644
-119,-608,4.28906,15.4196,0,0,0,0,0,0,0,-1,1105,1632,4.28911,-15.4195
-112,-608,0.745117,10.5587,0,0,0,0,0,0,0,-1,1112,1632,0.745145,-10.5587
-105,-608,-0.252319,1.42419,0,0,0,0,0,0,0,-1,1119,1632,-0.252331,-1.42418
-98,-608,-2.8595,3.0863,0,0,0,0,0,0,0,-1,1126,1632,-2.85948,-3.08625
-91,-608,-3.71948,1.73608,0,0,0,0,0,0,0,-1,1133,1632,-3.7195,-1.73607
-84,-608,0,0,0,0,0,0,0,0,0,-1,1140,1632,0,0
-77,-608,0,0,0,0,0,0,0,0,0,-1,1147,1632,0,0
-70,-608,0,0,0,0,0,0,0,0,0,-1,1154,1632,0,0
-63,-608,0,0,0,0,0,0,0,0,0,-1,1161,1632,0,0
-56,-608,0,0,0,0,0,0,0,0,0,-1,1168,1632,0,0
-49,-608,0,0,0,0,0,0,0,0,0,-1,1175,1632,0,0
-42,-608,0,0,0,0,0,0,0,0,0,-1,1182,1632,0,0
-35,-608,0,0,0,0,0,0,0,0,0,-1,1189,1632,0,0
-28,-608,0,0,0,0,0,0,0,0,0,-1,1196,1632,0,0
-21,-608,0,0,0,0,0,0,0,0,0,-1,1203,1632,0,0
-14,-608,0,0,0,0,0,0,0,0,0,-1,1210,1632,0,0
-7,-608,0,0,0,0,0,0,0,0,0,-1,1217,1632,0,0
0,-608,0,0,0,0,0,0,0,0,0,-1,1224,1632,0,0
7,-608,0,0,0,0,0,0,0,0,0,-1,1231,1632,0,0
14,-608,0,0,0,0,0,0,0,0,0,-1,1238,1632,0,0
21,-608,0,0,0,0,0,0,0,0,0,-1,1245,1632,0,0
28,-608,0,0,0,0,0,0,0,0,0,-1,1252,1632,0,0
35,-608,0,0,0,0,0,0,0,0,0,-1,1259,1632,0,0
42,-608,0,0,0,0,0,0,0,0,0,-1,1266,1632,0,0
49,-608,0,0,0,0,0,0,0,0,0,-1,1273,1632,0,0
56,-608,0,0,0,0,0,0,0,0,0,-1,1280,1632,0,0
63,-608,0,0,0,0,0,0,0,0,0,-1,1287,1632,0,0
70,-608,0,0,0,0,0,0,0,0,0,-1,1294,1632,0,0
77,-608,0,0,0,0,0,0,0,0,0,-1,1301,1632,0,0
84,-608,0,0,0,0,0,0,0,0,0,-1,1308,1632,0,0
91,-608,0,0,0,0,0,0,0,0,0,-1,1315,1632,0,0
98,-608,0,0,0,0,0,0,0,0,0,-1,1322,1632,0,0
105,-608,0,0,0,0,0,0,0,0,0,-1,1329,1632,0,0
112,-608,0,0,0,0,0,0,0,0,0,-1,1336,1632,0,0
119,-608,0,0,0,0,0,0,0,0,0,-1,1343,1632,0,0
126,-608,0,0,0,0,0,0,0,0,0,-1,1350,1632,0,0
133,-608,0,0,0,0,0,0,0,0,0,-1,1357,1632,0,0
140,-608,0,0,0,0,0,0,0,0,0,-1,1364,1632,0,0
147,-608,0,0,0,0,0,0,0,0,0,-1,1371,1632,0,0
154,-608,0,0,0,0,0,0,0,0,0,-1,1378,1632,0,0
161,-608,0,0,0,0,0,0,0,0,0,-1,1385,1632,0,0
168,-608,0,0,0,0,0,0,0,0,0,-1,1392,1632,0,0
175,-608,0,0,0,0,0,0,0,0,0,-1,1399,1632,0,0
182,-608,0,0,0,0,0,0,0,0,0,-1,1406,1632,0,0
189,-608,0,0,0,0,0,0,0,0,0,-1,1413,1632,0,0
196,-608,0,0,0,0,0,0,0,0,0,-1,1420,1632,0,0
203,-608,0,0,0,0,0,0,0,0,0,-1,1427,1632,0,0
210,-608,5.7157,-0.333008,0,0,0,0,0,0,0,-1,1434,1632,5.71566,0.333004
217,-608,4.49402,-0.831787,0,0,0,0,0,0,0,-1,1441,1632,4.49396,0.831738
224,-608,4.18018,-1.11792,0,0,0,0,0,0,0,-1,1448,1632,4.1802,1.11796
231,-608,0.361816,0.825195,0,0,0,0,0,0,0,-1,1455,1632,0.36185,-0.825226
238,-608,2.85388,-0.28833,0,0,0,0,0,0,0,-1,1462,1632,2.85391,0.288282
245,-608,3.87537,4.02173,0,0,0,0,0,0,0,-1,1469,1632,3.87538,-4.02168
252,-608,5.66956,3.5282,0,0,0,0,0,0,0,-1,1476,1632,5.6696,-3.52815
259,-608,7.47437,3.07178,0,0,0,0,0,0,0,-1,1483,1632,7.4744,-3.07172
266,-608,9.46936,2.34766,0,0,0,0,0,0,0,-1,1490,1632,9.46932,-2.34764
273,-608,6.03003,3.34241,0,0,0,0,0,0,0,-1,1497,1632,6.02997,-3.34245
280,-608,5.72461,2.0769,0,0,0,0,0,0,0,-1,1504,1632,5.72457,-2.07688
287,-608,6.20581,3.59338,0,0,0,0,0,0,0,-1,1511,1632,6.20585,-3.59341
294,-608,6.94922,5.17151,0,0,0,0,0,0,0,-1,1518,1632,6.94925,-5.17151
301,-608,7.60083,6.68018,0,0,0,0,0,0,0,-1,1525,1632,7.60086,-6.68013
308,-608,7.64746,9.93848,0,0,0,0,0,0,0,-1,1532,1632,7.64745,-9.93842
315,-608,5.30688,11.2054,0,0,0,0,0,0,0,-1,1539,1632,5.30694,-11.2054
322,-608,5.32617,13.7581,0,0,0,0,0,0,0,-1,1546,1632,5.32613,-13.758
329,-608,7.12231,13.9607,0,0,0,0,0,0,0,-1,1553,1632,7.12231,-13.9607
336,-608,5.48633,7.82446,0,0,0,0,0,0,0,-1,1560,1632,5.48634,-7.82446
343,-608,5.47192,5.61047,0,0,0,0,0,0,0,-1,1567,1632,5.47192,-5.61045
350,-608,11.6957,1.71387,0,0,0,0,0,0,0,-1,1574,1632,11.6957,-1.71388
357,-608,3.77002,5.10046,0,0,0,0,0,0,0,-1,1581,1632,3.77002,-5.10043
364,-608,14.5557,42.9116,0,0,0,0,0,0,0,-1,1588,1632,14.5557,-42.9117
371,-608,15.0544,41.8517,0,0,0,0,0,0,0,-1,1595,1632,15.0544,-41.8516
378,-608,15.5531,40.7916,0,0,0,0,0,0,0,-1,1602,1632,15.5531,-40.7916
385,-608,15.7756,40.0931,0.010504,0.0169896,-0.00782001,0.0222125,0.00528111,-0.981947,0.0133995,0.0344425,1609,1632,15.7756,-40.0931
392,-608,15.9055,39.5614,0.00900208,0.0129389,-0.00582082,0.0171151,0.00482585,-0.948445,0.0101898,0.0247801,1616,1632,15.9055,-39.5614
399,-608,15.9897,38.9617,0.00750657,0.00981565,-0.00420358,0.0130204,0.00430186,-0.919422,0.00766011,0.0123467,1623,1632,15.9897,-38.9616
406,-608,16.041,38.4139,0.00618446,0.00725348,-0.00297222,0.00973887,0.00369906,-0.874365,0.00567662,0.0102482,1630,1632,16.041,-38.4139
413,-608,16.0248,37.9045,0.00515027,0.00601145,-0.00240261,0.00802174,0.00313997,-0.874066,0.00466761,0.0105451,1637,1632,16.0248,-37.9045
420,-608,15.9559,37.3982,0.00430025,0.0051543,-0.00211886,0.00688873,0.00256581,-0.884834,0.00402011,0.0190957,1644,1632,15.9559,-37.3982
427,-608,15.9635,36.858,0.00352799,0.00439071,-0.00188795,0.00589595,0.00202275,-0.89771,0.00345946,0.0199594,1651,1632,15.9635,-36.858
434,-608,15.9712,36.3094,0.00296815,0.00402943,-0.00195653,0.005526,0.00147157,-0.917821,0.00330456,0.0153288,1658,1632,15.9712,-36.3094
441,-608,15.9579,35.7714,0.00248932,0.00366504,-0.00204001,0.0052002,0.000954154,-0.925679,0.00319658,0.014281,1665,1632,15.9578,-35.7714
448,-608,15.953,35.2515,0.00217065,0.00313778,-0.00217649,0.00488378,0.000424656,-0.894711,0.00312394,0.0176436,1672,1632,15.953,-35.2515
455,-608,15.969,34.6814,0.00191466,0.00259903,-0.00234251,0.00462421,-0.000110526,-0.857923,0.0031203,0.0129637,1679,1632,15.969,-34.6815
462,-608,15.9261,34.123,0.00170352,0.00196362,-0.00242913,0.00426617,-0.000599038,-0.812142,0.00306338,0.0112142,1686,1632,15.9262,-34.1231
469,-608,15.8738,33.5854,0.00144136,0.00127999,-0.00238522,0.00374726,-0.00102591,-0.768491,0.00290125,0.00856161,1693,1632,15.8738,-33.5854
476,-608,15.843,33.0267,0.00112519,0.00073552,-0.00221472,0.00315363,-0.00129292,-0.741524,0.00264108,0.00888404,1700,1632,15.843,-33.0267
483,-608,15.8278,32.4597,0.000814371,1.11565e-05,-0.00217037,0.00261998,-0.00179445,-0.693913,0.00256349,0.00861844,1707,1632,15.8278,-32.4598
490,-608,15.8292,31.8707,0.000431851,-0.000514647,-0.00202392,0.00203712,-0.00211991,-0.670548,0.00240022,0.0104119,1714,1632,15.8292,-31.8707
497,-608,15.8461,31.2583,0.00018062,-0.000882955,-0.00201676,0.00173453,-0.00243686,-0.65649,0.0024197,0.0236655,1721,1632,15.8461,-31.2583
504,-608,15.9774,30.5741,0,0,0,0,0,0,0,-1,1728,1632,15.9774,-30.5741
511,-608,15.5946,30.3369,0,0,0,0,0,0,0,-1,1735,1632,15.5945,-30.3369
518,-608,15.6014,29.3511,0,0,0,0,0,0,0,-1,1742,1632,15.6014,-29.351
525,-608,11.2109,16.2579,0,0,0,0,0,0,0,-1,1749,1632,11.2109,-16.2579
532,-608,8.27917,11.6693,0,0,0,0,0,0,0,-1,1756,1632,8.27919,-11.6694
539,-608,9.40796,1.43457,0,0,0,0,0,0,0,-1,1763,1632,9.40801,-1.43463
546,-608,9.94031,2.1134,0,0,0,0,0,0,0,-1,1770,1632,9.94031,-2.11346
553,-608,10.363,2.81335,0,0,0,0,0,0,0,-1,1777,1632,10.3631,-2.81333
560,-608,9.23999,4.5636,0,0,0,0,0,0,0,-1,1784,1632,9.24,-4.56354
567,-608,0,0,0,0,0,0,0,0,0,-1,1791,1632,0,0
574,-608,0,0,0,0,0,0,0,0,0,-1,1798,1632,0,0
581,-608,0,0,0,0,0,0,0,0,0,-1,1805,1632,0,0
588,-608,0,0,0,0,0,0,0,0,0,-1,1812,1632,0,0
595,-608,0,0,0,0,0,0,0,0,0,-1,1819,1632,0,0
602,-608,0,0,0,0,0,0,0,0,0,-1,1826,1632,0,0
609,-608,0,0,0,0,0,0,0,0,0,-1,1833,1632,0,0
616,-608,0,0,0,0,0,0,0,0,0,-1,1840,1632,0,0
623,-608,0,0,0,0,0,0,0,0,0,-1,1847,1632,0,0
630,-608,0,0,0,0,0,0,0,0,0,-1,1854,1632,0,0
637,-608,0,0,0,0,0,0,0,0,0,-1,1861,1632,0,0
644,-608,0,0,0,0,0,0,0,0,0,-1,1868,1632,0,0
651,-608,0,0,0,0,0,0,0,0,0,-1,1875,1632,0,0
658,-608,0,0,0,0,0,0,0,0,0,-1,1882,1632,0,0
665,-608,0,0,0,0,0,0,0,0,0,-1,1889,1632,0,0
672,-608,0,0,0,0,0,0,0,0,0,-1,1896,1632,0,0
679,-608,0,0,0,0,0,0,0,0,0,-1,1903,1632,0,0
686,-608,0,0,0,0,0,0,0,0,0,-1,1910,1632,0,0
693,-608,0,0,0,0,0,0,0,0,0,-1,1917,1632,0,0
700,-608,0,0,0,0,0,0,0,0,0,-1,1924,1632,0,0
707,-608,0,0,0,0,0,0,0,0,0,-1,1931,1632,0,0
714,-608,0,0,0,0,0,0,0,0,0,-1,1938,1632,0,0
721,-608,0,0,0,0,0,0,0,0,0,-1,1945,1632,0,0
728,-608,0,0,0,0,0,0,0,0,0,-1,1952,1632,0,0
735,-608,0,0,0,0,0,0,0,0,0,-1,1959,1632,0,0
742,-608,0,0,0,0,0,0,0,0,0,-1,1966,1632,0,0
749,-608,0,0,0,0,0,0,0,0,0,-1,1973,1632,0,0
756,-608,0,0,0,0,0,0,0,0,0,-1,1980,1632,0,0
763,-608,0,0,0,0,0,0,0,0,0,-1,1987,1632,0,0
770,-608,0,0,0,0,0,0,0,0,0,-1,1994,1632,0,0
777,-608,0,0,0,0,0,0,0,0,0,-1,2001,1632,0,0
784,-608,0,0,0,0,0,0,0,0,0,-1,2008,1632,0,0
791,-608,0,0,0,0,0,0,0,0,0,-1,2015,1632,0,0
798,-608,0,0,0,0,0,0,0,0,0,-1,2022,1632,0,0
805,-608,0,0,0,0,0,0,0,0,0,-1,2029,1632,0,0
812,-608,0,0,0,0,0,0,0,0,0,-1,2036,1632,0,0
-700,-615,0,0,0,0,0,0,0,0,0,-1,524,1639,0,0
-693,-615,0,0,0,0,0,0,0,0,0,-1,531,1639,0,0
-686,-615,0,0,0,0,0,0,0,0,0,-1,538,1639,0,0
-679,-615,0,0,0,0,0,0,0,0,0,-1,545,1639,0,0
-672,-615,0,0,0,0,0,0,0,0,0,-1,552,1639,0,0
-665,-615,0,0,0,0,0,0,0,0,0,-1,559,1639,0,0
-658,-615,0,0,0,0,0,0,0,0,0,-1,566,1639,0,0
-651,-615,0,0,0,0,0,0,0,0,0,-1,573,1639,0,0
-644,-615,0,0,0,0,0,0,0,0,0,-1,580,1639,0,0
-637,-615,0,0,0,0,0,0,0,0,0,-1,587,1639,0,0
-630,-615,0,0,0,0,0,0,0,0,0,-1,594,1639,0,0
-623,-615,0,0,0,0,0,0,0,0,0,-1,601,1639,0,0
-616,-615,0,0,0,0,0,0,0,0,0,-1,608,1639,0,0
-609,-615,0,0,0,0,0,0,0,0,0,-1,615,1639,0,0
-602,-615,0,0,0,0,0,0,0,0,0,-1,622,1639,0,0
-595,-615,0,0,0,0,0,0,0,0,0,-1,629,1639,0,0
-588,-615,0,0,0,0,0,0,0,0,0,-1,636,1639,0,0
-581,-615,0,0,0,0,0,0,0,0,0,-1,643,1639,0,0
-574,-615,0,0,0,0,0,0,0,0,0,-1,650,1639,0,0
-567,-615,0,0,0,0,0,0,0,0,0,-1,657,1639,0,0
-560,-615,0,0,0,0,0,0,0,0,0,-1,664,1639,0,0
-553,-615,0,0,0,0,0,0,0,0,0,-1,671,1639,0,0
-546,-615,0,0,0,0,0,0,0,0,0,-1,678,1639,0,0
-539,-615,0,0,0,0,0,0,0,0,0,-1,685,1639,0,0
-532,-615,0,0,0,0,0,0,0,0,0,-1,692,1639,0,0
-525,-615,0,0,0,0,0,0,0,0,0,-1,699,1639,0,0
-518,-615,0,0,0,0,0,0,0,0,0,-1,706,1639,0,0
-511,-615,0,0,0,0,0,0,0,0,0,-1,713,1639,0,0
-504,-615,0,0,0,0,0,0,0,0,0,-1,720,1639,0,0
-497,-615,0,0,0,0,0,0,0,0,0,-1,727,1639,0,0
-490,-615,0,0,0,0,0,0,0,0,0,-1,734,1639,0,0
-483,-615,0,0,0,0,0,0,0,0,0,-1,741,1639,0,0
-476,-615,0,0,0,0,0,0,0,0,0,-1,748,1639,0,0
-469,-615,0,0,0,0,0,0,0,0,0,-1,755,1639,0,0
-462,-615,0,0,0,0,0,0,0,0,0,-1,762,1639,0,0
-455,-615,0,0,0,0,0,0,0,0,0,-1,769,1639,0,0
-448,-615,0,0,0,0,0,0,0,0,0,-1,776,1639,0,0
-441,-615,0,0,0,0,0,0,0,0,0,-1,783,1639,0,0
-434,-615,-7.64508,2.98596,0,0,0,0,0,0,0,-1,790,1639,-7.64505,-2.98594
-427,-615,-9.0011,2.89404,0,0,0,0,0,0,0,-1,797,1639,-9.00107,-2.89399
-420,-615,-8.07568,3.0752,0,0,0,0,0,0,0,-1,804,1639,-8.07569,-3.07514
-413,-615,-7.09149,3.396,0,0,0,0,0,0,0,-1,811,1639,-7.09147,-3.39599
-406,-615,-6.21368,3.7312,0,0,0,0,0,0,0,-1,818,1639,-6.21366,-3.73114
-399,-615,-4.84875,3.91907,0,0,0,0,0,0,0,-1,825,1639,-4.84877,-3.91901
-392,-615,1.7395,13.3127,0,0,0,0,0,0,0,-1,832,1639,1.73953,-13.3128
-385,-615,3.42297,14.9401,0,0,0,0,0,0,0,-1,839,1639,3.42296,-14.94
-378,-615,3.13977,29.6731,0,0,0,0,0,0,0,-1,846,1639,3.13975,-29.6731
-371,-615,2.97589,30.3215,0,0,0,0,0,0,0,-1,853,1639,2.9759,-30.3215
-364,-615,2.90338,30.9281,0,0,0,0,0,0,0,-1,860,1639,2.90339,-30.9281
-357,-615,2.82898,31.4314,0,0,0,0,0,0,0,-1,867,1639,2.82895,-31.4314
-350,-615,2.88885,32.119,-0.00152853,-0.000540136,0.00263516,0.00164677,-0.00371543,0.878091,0.00317173,0.030177,874,1639,2.88886,-32.119
-343,-615,2.84576,32.6321,-0.000734437,-0.000568028,0.00228659,0.00163687,-0.00293933,0.803584,0.0026775,0.0200752,881,1639,2.84577,-32.6321
-336,-615,2.82025,33.244,1.98106e-06,-0.000392338,0.00206185,0.00187608,-0.00226644,0.737732,0.00239522,0.011351,888,1639,2.82026,-33.244
-329,-615,2.76025,33.8479,0.000577928,-0.000186023,0.00177593,0.0020125,-0.0016206,0.67947,0.00210163,0.0113457,895,1639,2.76023,-33.8479
-322,-615,2.73315,34.4397,0.000960945,0.000395473,0.00164009,0.00234249,-0.000986074,0.700042,0.00197422,0.0126218,902,1639,2.73312,-34.4397
-315,-615,2.7406,35.0212,0.0013024,0.00102274,0.00162683,0.0027954,-0.000470253,0.742527,0.00203851,0.0153253,909,1639,2.74059,-35.0213
-308,-615,2.66681,35.615,0.00170323,0.00169595,0.00163087,0.00333046,6.87162e-05,0.784282,0.00219776,0.0220914,916,1639,2.66683,-35.615
-301,-615,2.68121,36.1537,0.00221776,0.00241691,0.00181066,0.00413073,0.000503943,0.812868,0.00260215,0.012925,923,1639,2.68121,-36.1536
-294,-615,2.67993,36.6951,0.00291779,0.00346689,0.00229578,0.00550448,0.0008802,0.844909,0.00341429,0.0106571,930,1639,2.67992,-36.695
-287,-615,2.65436,37.2368,0.00364913,0.00472854,0.00283929,0.00707897,0.00129871,0.879321,0.00435149,0.00818478,937,1639,2.65433,-37.2368
-280,-615,2.64227,37.786,0.00453231,0.00606178,0.00356431,0.00894247,0.00165162,0.891073,0.00549448,0.00960445,944,1639,2.64227,-37.786
-273,-615,2.62415,38.3364,0.00551765,0.00733346,0.00439046,0.0109089,0.00194221,0.887356,0.00671943,0.0112917,951,1639,2.62416,-38.3365
-266,-615,2.60785,38.8748,0.00647294,0.00876661,0.00527279,0.0130158,0.00222371,0.892481,0.00803917,0.0119739,958,1639,2.60782,-38.8748
-259,-615,2.62671,39.3945,0.00754408,0.0102774,0.00624256,0.0153012,0.00252034,0.893162,0.00947309,0.0135233,965,1639,2.62671,-39.3945
-252,-615,2.63324,39.9839,0.00879393,0.0119202,0.00722173,0.017746,0.00296809,0.891977,0.0109759,0.0184384,972,1639,2.63322,-39.9839
-245,-615,2.77124,40.6852,0.00998939,0.0133776,0.00814635,0.0200041,0.00336284,0.887916,0.0123685,0.0314473,979,1639,2.77121,-40.6852
-238,-615,2.81445,41.2723,0.0111717,0.0142448,0.00877449,0.0216163,0.00380026,0.872077,0.013326,0.0457781,986,1639,2.81447,-41.2723
-231,-615,2.96112,41.8052,0,0,0,0,0,0,0,-1,993,1639,2.96113,-41.8052
-224,-615,2.98132,42.0499,0,0,0,0,0,0,0,-1,1000,1639,2.98132,-42.05
-217,-615,3.99097,27.3737,0,0,0,0,0,0,0,-1,1007,1639,3.99096,-27.3736
-210,-615,2.48901,18.9324,0,0,0,0,0,0,0,-1,1014,1639,2.48902,-18.9323
-203,-615,2.13684,18.6173,0,0,0,0,0,0,0,-1,1021,1639,2.13683,-18.6173
-196,-615,4.27161,21.3264,0,0,0,0,0,0,0,-1,1028,1639,4.27165,-21.3264
-189,-615,1.8269,19.6761,0,0,0,0,0,0,0,-1,1035,1639,1.82691,-19.6761
-182,-615,1.63489,20.2278,0,0,0,0,0,0,0,-1,1042,1639,1.63492,-20.2277
-175,-615,-0.609985,13.8434,0,0,0,0,0,0,0,-1,1049,1639,-0.610016,-13.8434
-168,-615,3.85754,15.472,0,0,0,0,0,0,0,-1,1056,1639,3.85757,-15.472
-161,-615,2.14307,46.5156,0,0,0,0,0,0,0,-1,1063,1639,2.14303,-46.5156
-154,-615,1.37329,47.9545,0,0,0,0,0,0,0,-1,1070,1639,1.37327,-47.9545
-147,-615,0.0180664,48.1396,0,0,0,0,0,0,0,-1,1077,1639,0.0180157,-48.1397
-140,-615,3.73401,10.2349,0,0,0,0,0,0,0,-1,1084,1639,3.73402,-10.2348
-133,-615,2.6178,17.45,0,0,0,0,0,0,0,-1,1091,1639,2.61776,-17.4499
-126,-615,4.43408,12.5017,0,0,0,0,0,0,0,-1,1098,1639,4.43403,-12.5018
-119,-615,4.82983,13.9279,0,0,0,0,0,0,0,-1,1105,1639,4.82986,-13.9278
-112,-615,3.65698,14.4874,0,0,0,0,0,0,0,-1,1112,1639,3.65695,-14.4875
-105,-615,0.958496,2.45398,0,0,0,0,0,0,0,-1,1119,1639,0.958452,-2.45398
-98,-615,-0.647705,2.12109,0,0,0,0,0,0,0,-1,1126,1639,-0.647756,-2.12105
-91,-615,-3.07983,2.97375,0,0,0,0,0,0,0,-1,1133,1639,-3.07989,-2.97376
-84,-615,-2.46509,0.703247,0,0,0,0,0,0,0,-1,1140,1639,-2.46505,-0.703273
-77,-615,-3.17859,1.23755,0,0,0,0,0,0,0,-1,1147,1639,-3.17865,-1.23752
-70,-615,-4.03943,1.43335,0,0,0,0,0,0,0,-1,1154,1639,-4.03942,-1.43339
-63,-615,-4.8877,1.45544,0,0,0,0,0,0,0,-1,1161,1639,-4.88766,-1.45549
-56,-615,0,0,0,0,0,0,0,0,0,-1,1168,1639,0,0
-49,-615,0,0,0,0,0,0,0,0,0,-1,1175,1639,0,0
-42,-615,0,0,0,0,0,0,0,0,0,-1,1182,1639,0,0
-35,-615,0,0,0,0,0,0,0,0,0,-1,1189,1639,0,0
-28,-615,0,0,0,0,0,0,0,0,0,-1,1196,1639,0,0
-21,-615,0,0,0,0,0,0,0,0,0,-1,1203,1639,0,0
-14,-615,0,0,0,0,0,0,0,0,0,-1,1210,1639,0,0
-7,-615,0,0,0,0,0,0,0,0,0,-1,1217,1639,0,0
0,-615,0,0,0,0,0,0,0,0,0,-1,1224,1639,0,0
7,-615,0,0,0,0,0,0,0,0,0,-1,1231,1639,0,0
14,-615,0,0,0,0,0,0,0,0,0,-1,1238,1639,0,0
21,-615,0,0,0,0,0,0,0,0,0,-1,1245,1639,0,0
28,-615,0,0,0,0,0,0,0,0,0,-1,1252,1639,0,0
35,-615,0,0,0,0,0,0,0,0,0,-1,1259,1639,0,0
42,-615,0,0,0,0,0,0,0,0,0,-1,1266,1639,0,0
49,-615,0,0,0,0,0,0,0,0,0,-1,1273,1639,0,0
56,-615,0,0,0,0,0,0,0,0,0,-1,1280,1639,0,0
63,-615,0,0,0,0,0,0,0,0,0,-1,1287,1639,0,0
70,-615,0,0,0,0,0,0,0,0,0,-1,1294,1639,0,0
77,-615,0,0,0,0,0,0,0,0,0,-1,1301,1639,0,0
84,-615,0,0,0,0,0,0,0,0,0,-1,1308,1639,0,0
91,-615,0,0,0,0,0,0,0,0,0,-1,1315,1639,0,0
98,-615,0,0,0,0,0,0,0,0,0,-1,1322,1639,0,0
105,-615,0,0,0,0,0,0,0,0,0,-1,1329,1639,0,0
112,-615,0,0,0,0,0,0,0,0,0,-1,1336,1639,0,0
119,-615,0,0,0,0,0,0,0,0,0,-1,1343,1639,0,0
126,-615,0,0,0,0,0,0,0,0,0,-1,1350,1639,0,0
133,-615,0,0,0,0,0,0,0,0,0,-1,1357,1639,0,0
140,-615,0,0,0,0,0,0,0,0,0,-1,1364,1639,0,0
147,-615,0,0,0,0,0,0,0,0,0,-1,1371,1639,0,0
154,-615,0,0,0,0,0,0,0,0,0,-1,1378,1639,0,0
161,-615,0,0,0,0,0,0,0,0,0,-1,1385,1639,0,0
168,-615,0,0,0,0,0,0,0,0,0,-1,1392,1639,0,0
175,-615,5.39648,-2.00879,0,0,0,0,0,0,0,-1,1399,1639,5.3965,2.00881
182,-615,5.65393,-1.51025,0,0,0,0,0,0,0,-1,1406,1639,5.65388,1.51028
189,-615,5.58972,-1.35608,0,0,0,0,0,0,0,-1,1413,1639,5.58967,1.35607
196,-615,5.49915,-0.693604,0,0,0,0,0,0,0,-1,1420,1639,5.4991,0.693602
203,-615,5.33411,-0.226685,0,0,0,0,0,0,0,-1,1427,1639,5.33414,0.226689
210,-615,5.60278,0.108276,0,0,0,0,0,0,0,-1,1434,1639,5.60284,-0.10831
217,-615,6.26331,-0.307373,0,0,0,0,0,0,0,-1,1441,1639,6.26331,0.307372
224,-615,5.45422,-0.333984,0,0,0,0,0,0,0,-1,1448,1639,5.45422,0.333992
231,-615,4.92542,1.80298,0,0,0,0,0,0,0,-1,1455,1639,4.92537,-1.80297
238,-615,4.76355,1.96729,0,0,0,0,0,0,0,-1,1462,1639,4.76357,-1.96734
245,-615,4.08643,3.15906,0,0,0,0,0,0,0,-1,1469,1639,4.08638,-3.159
252,-615,6.37805,3.73889,0,0,0,0,0,0,0,-1,1476,1639,6.37806,-3.73891
259,-615,8.35974,3.16443,0,0,0,0,0,0,0,-1,1483,1639,8.35975,-3.16444
266,-615,10.3414,2.58997,0,0,0,0,0,0,0,-1,1490,1639,10.3414,-2.58996
273,-615,6.57043,1.84766,0,0,0,0,0,0,0,-1,1497,1639,6.5704,-1.84771
280,-615,7.10449,3.23438,0,0,0,0,0,0,0,-1,1504,1639,7.10447,-3.23435
287,-615,7.35779,4.68542,0,0,0,0,0,0,0,-1,1511,1639,7.35776,-4.68546
294,-615,7.63733,6.29114,0,0,0,0,0,0,0,-1,1518,1639,7.63735,-6.29109
301,-615,8.47925,11.452,0,0,0,0,0,0,0,-1,1525,1639,8.47922,-11.452
308,-615,6.8114,10.9059,0,0,0,0,0,0,0,-1,1532,1639,6.81137,-10.9058
315,-615,5.1427,14.7251,0,0,0,0,0,0,0,-1,1539,1639,5.14269,-14.7251
322,-615,7.17981,17.6864,0,0,0,0,0,0,0,-1,1546,1639,7.17985,-17.6864
329,-615,7.62134,20.4354,0,0,0,0,0,0,0,-1,1553,1639,7.62139,-20.4354
336,-615,6.45007,14.1138,0,0,0,0,0,0,0,-1,1560,1639,6.45011,-14.1138
343,-615,2.40491,6.50134,0,0,0,0,0,0,0,-1,1567,1639,2.40489,-6.50137
350,-615,15.5785,43.8312,0,0,0,0,0,0,0,-1,1574,1639,15.5785,-43.8312
357,-615,15.4598,42.6533,0,0,0,0,0,0,0,-1,1581,1639,15.4598,-42.6533
364,-615,15.3715,42.0507,0,0,0,0,0,0,0,-1,1588,1639,15.3714,-42.0506
371,-615,15.2688,41.4548,0.0108893,0.0240313,-0.0107317,0.0300439,0.00487673,-1.0601,0.0186178,0.0405578,1595,1639,15.2688,-41.4548
378,-615,15.4496,40.5406,0.00959943,0.0187417,-0.00850178,0.0238233,0.00451781,-1.03206,0.014611,0.020822,1602,1639,15.4496,-40.5406
385,-615,15.464,39.9696,0.00832114,0.0143228,-0.0065079,0.0184884,0.00415555,-1.00142,0.0112004,0.0131688,1609,1639,15.464,-39.9696
392,-615,15.4907,39.4556,0.00718189,0.0109048,-0.00493044,0.0143135,0.00377322,-0.965898,0.00856621,0.0124308,1616,1639,15.4907,-39.4555
399,-615,15.4807,38.947,0.00601291,0.00811183,-0.0035876,0.0108003,0.00332442,-0.92769,0.00638727,0.0136549,1623,1639,15.4807,-38.947
406,-615,15.4799,38.4424,0.00500119,0.00579941,-0.00256327,0.00799446,0.00280615,-0.86263,0.00468341,0.0121393,1630,1639,15.4799,-38.4424
413,-615,15.4863,37.9504,0.00419024,0.0046494,-0.00206655,0.00649909,0.00234056,-0.840718,0.00380087,0.0133278,1637,1639,15.4863,-37.9504
420,-615,15.4674,37.4287,0.00350831,0.00384438,-0.00182231,0.00550638,0.0018463,-0.831373,0.00323609,0.0147739,1644,1639,15.4674,-37.4287
427,-615,15.4484,36.8759,0.00287474,0.00313715,-0.00164819,0.00465934,0.00135254,-0.825117,0.00276782,0.0155288,1651,1639,15.4484,-36.8759
434,-615,15.4362,36.3411,0.00242874,0.0028482,-0.00176967,0.00442053,0.000856419,-0.84438,0.00270708,0.0143902,1658,1639,15.4362,-36.3411
441,-615,15.4309,35.7894,0.00207783,0.0025801,-0.00194714,0.00429223,0.000365697,-0.849533,0.00274771,0.0161868,1665,1639,15.4309,-35.7894
448,-615,15.416,35.2618,0.00187615,0.00216111,-0.00217561,0.0041989,-0.000161637,-0.818097,0.00285467,0.0183577,1672,1639,15.416,-35.2618
455,-615,15.4158,34.7349,0.00174878,0.00178409,-0.00244904,0.00421554,-0.000682664,-0.789003,0.00306338,0.0161556,1679,1639,15.4158,-34.7349
462,-615,15.3851,34.1896,0.0016255,0.00126961,-0.00261498,0.00406858,-0.00117347,-0.751427,0.00317663,0.014803,1686,1639,15.3852,-34.1896
469,-615,15.3384,33.6061,0.001416,0.000779473,-0.00268149,0.00379805,-0.00160258,-0.72633,0.00320279,0.0124142,1693,1639,15.3384,-33.6061
476,-615,15.3137,33.0319,0.0011825,0.000396515,-0.00267566,0.00349388,-0.00191486,-0.712481,0.00316678,0.0117535,1700,1639,15.3137,-33.0319
483,-615,15.334,32.3955,0.000969162,-0.000148499,-0.00275314,0.00321961,-0.00239895,-0.685269,0.00325539,0.0246888,1707,1639,15.334,-32.3955
490,-615,15.3175,31.839,0.000649199,-0.000472784,-0.00269257,0.0028386,-0.00266219,-0.682694,0.00317643,0.0395708,1714,1639,15.3175,-31.839
497,-615,15.2386,31.4205,0.000569348,-0.000667022,-0.00275666,0.00277628,-0.00287396,-0.675097,0.00326233,0.0496965,1721,1639,15.2387,-31.4205
504,-615,15.249,30.874,0,0,0,0,0,0,0,-1,1728,1639,15.2491,-30.874
511,-615,15.2349,30.2052,0,0,0,0,0,0,0,-1,1735,1639,15.2348,-30.2052
518,-615,13.2416,9.81812,0,0,0,0,0,0,0,-1,1742,1639,13.2416,-9.81813
525,-615,4.37524,3.90491,0,0,0,0,0,0,0,-1,1749,1639,4.37518,-3.90495
532,-615,7.3645,0.848145,0,0,0,0,0,0,0,-1,1756,1639,7.36451,-0.848093
539,-615,12.8112,-0.0476074,0,0,0,0,0,0,0,-1,1763,1639,12.8111,0.0475553
546,-615,8.33813,2.94556,0,0,0,0,0,0,0,-1,1770,1639,8.33813,-2.9455
553,-615,5.82532,-2.04199,0,0,0,0,0,0,0,-1,1777,1639,5.82534,2.04195
560,-615,0,0,0,0,0,0,0,0,0,-1,1784,1639,0,0
567,-615,0,0,0,0,0,0,0,0,0,-1,1791,1639,0,0
574,-615,0,0,0,0,0,0,0,0,0,-1,1798,1639,0,0
581,-615,0,0,0,0,0,0,0,0,0,-1,1805,1639,0,0
588,-615,0,0,0,0,0,0,0,0,0,-1,1812,1639,0,0
595,-615,0,0,0,0,0,0,0,0,0,-1,1819,1639,0,0
602,-615,0,0,0,0,0,0,0,0,0,-1,1826,1639,0,0
609,-615,0,0,0,0,0,0,0,0,0,-1,1833,1639,0,0
616,-615,0,0,0,0,0,0,0,0,0,-1,1840,1639,0,0
623,-615,0,0,0,0,0,0,0,0,0,-1,1847,1639,0,0
630,-615,0,0,0,0,0,0,0,0,0,-1,1854,1639,0,0
637,-615,0,0,0,0,0,0,0,0,0,-1,1861,1639,0,0
644,-615,0,0,0,0,0,0,0,0,0,-1,1868,1639,0,0
651,-615,0,0,0,0,0,0,0,0,0,-1,1875,1639,0,0
658,-615,0,0,0,0,0,0,0,0,0,-1,1882,1639,0,0
665,-615,0,0,0,0,0,0,0,0,0,-1,1889,1639,0,0
672,-615,0,0,0,0,0,0,0,0,0,-1,1896,1639,0,0
679,-615,0,0,0,0,0,0,0,0,0,-1,1903,1639,0,0
686,-615,0,0,0,0,0,0,0,0,0,-1,1910,1639,0,0
693,-615,0,0,0,0,0,0,0,0,0,-1,1917,1639,0,0
700,-615,0,0,0,0,0,0,0,0,0,-1,1924,1639,0,0
707,-615,0,0,0,0,0,0,0,0,0,-1,1931,1639,0,0
714,-615,0,0,0,0,0,0,0,0,0,-1,1938,1639,0,0
721,-615,0,0,0,0,0,0,0,0,0,-1,1945,1639,0,0
728,-615,0,0,0,0,0,0,0,0,0,-1,1952,1639,0,0
735,-615,0,0,0,0,0,0,0,0,0,-1,1959,1639,0,0
742,-615,0,0,0,0,0,0,0,0,0,-1,1966,1639,0,0
749,-615,0,0,0,0,0,0,0,0,0,-1,1973,1639,0,0
756,-615,0,0,0,0,0,0,0,0,0,-1,1980,1639,0,0
763,-615,0,0,0,0,0,0,0,0,0,-1,1987,1639,0,0
770,-615,0,0,0,0,0,0,0,0,0,-1,1994,1639,0,0
777,-615,0,0,0,0,0,0,0,0,0,-1,2001,1639,0,0
784,-615,0,0,0,0,0,0,0,0,0,-1,2008,1639,0,0
791,-615,0,0,0,0,0,0,0,0,0,-1,2015,1639,0,0
798,-615,0,0,0,0,0,0,0,0,0,-1,2022,1639,0,0
805,-615,0,0,0,0,0,0,0,0,0,-1,2029,1639,0,0
812,-615,0,0,0,0,0,0,0,0,0,-1,2036,1639,0,0
-700,-622,0,0,0,0,0,0,0,0,0,-1,524,1646,0,0
-693,-622,0,0,0,0,0,0,0,0,0,-1,531,1646,0,0
-686,-622,0,0,0,0,0,0,0,0,0,-1,538,1646,0,0
-679,-622,0,0,0,0,0,0,0,0,0,-1,545,1646,0,0
-672,-622,0,0,0,0,0,0,0,0,0,-1,552,1646,0,0
-665,-622,0,0,0,0,0,0,0,0,0,-1,559,1646,0,0
-658,-622,0,0,0,0,0,0,0,0,0,-1,566,1646,0,0
-651,-622,0,0,0,0,0,0,0,0,0,-1,573,1646,0,0
-644,-622,0,0,0,0,0,0,0,0,0,-1,580,1646,0,0
-637,-622,0,0,0,0,0,0,0,0,0,-1,587,1646,0,0
-630,-622,0,0,0,0,0,0,0,0,0,-1,594,1646,0,0
-623,-622,0,0,0,0,0,0,0,0,0,-1,601,1646,0,0
-616,-622,0,0,0,0,0,0,0,0,0,-1,608,1646,0,0
-609,-622,0,0,0,0,0,0,0,0,0,-1,615,1646,0,0
-602,-622,0,0,0,0,0,0,0,0,0,-1,622,1646,0,0
-595,-622,0,0,0,0,0,0,0,0,0,-1,629,1646,0,0
-588,-622,0,0,0,0,0,0,0,0,0,-1,636,1646,0,0
-581,-622,0,0,0,0,0,0,0,0,0,-1,643,1646,0,0
-574,-622,0,0,0,0,0,0,0,0,0,-1,650,1646,0,0
-567,-622,0,0,0,0,0,0,0,0,0,-1,657,1646,0,0
-560,-622,0,0,0,0,0,0,0,0,0,-1,664,1646,0,0
-553,-622,0,0,0,0,0,0,0,0,0,-1,671,1646,0,0
-546,-622,0,0,0,0,0,0,0,0,0,-1,678,1646,0,0
-539,-622,0,0,0,0,0,0,0,0,0,-1,685,1646,0,0
-532,-622,0,0,0,0,0,0,0,0,0,-1,692,1646,0,0
-525,-622,0,0,0,0,0,0,0,0,0,-1,699,1646,0,0
-518,-622,0,0,0,0,0,0,0,0,0,-1,706,1646,0,0
-511,-622,0,0,0,0,0,0,0,0,0,-1,713,1646,0,0
-504,-622,0,0,0,0,0,0,0,0,0,-1,720,1646,0,0
-497,-622,0,0,0,0,0,0,0,0,0,-1,727,1646,0,0
-490,-622,0,0,0,0,0,0,0,0,0,-1,734,1646,0,0
-483,-622,0,0,0,0,0,0,0,0,0,-1,741,1646,0,0
-476,-622,0,0,0,0,0,0,0,0,0,-1,748,1646,0,0
-469,-622,0,0,0,0,0,0,0,0,0,-1,755,1646,0,0
-462,-622,0,0,0,0,0,0,0,0,0,-1,762,1646,0,0
-455,-622,0,0,0,0,0,0,0,0,0,-1,769,1646,0,0
-448,-622,0,0,0,0,0,0,0,0,0,-1,776,1646,0,0
-441,-622,0,0,0,0,0,0,0,0,0,-1,783,1646,0,0
-434,-622,0,0,0,0,0,0,0,0,0,-1,790,1646,0,0
-427,-622,-7.62891,3.48096,0,0,0,0,0,0,0,-1,797,1646,-7.62892,-3.48092
-420,-622,-9.35791,1.77185,0,0,0,0,0,0,0,-1,804,1646,-9.35789,-1.77183
-413,-622,-8.46075,1.96777,0,0,0,0,0,0,0,-1,811,1646,-8.46074,-1.96774
-406,-622,-4.44318,2.16858,0,0,0,0,0,0,0,-1,818,1646,-4.44315,-2.16859
-399,-622,-7.06976,1.51001,0,0,0,0,0,0,0,-1,825,1646,-7.06976,-1.51005
-392,-622,3.89551,5.85376,0,0,0,0,0,0,0,-1,832,1646,3.8955,-5.85379
-385,-622,2.00543,14.0448,0,0,0,0,0,0,0,-1,839,1646,2.00544,-14.0448
-378,-622,1.49036,15.3436,0,0,0,0,0,0,0,-1,846,1646,1.49033,-15.3436
-371,-622,3.01941,30.3768,0,0,0,0,0,0,0,-1,853,1646,3.01938,-30.3768
-364,-622,3.2027,30.9113,0,0,0,0,0,0,0,-1,860,1646,3.20269,-30.9113
-357,-622,3.60364,31.3781,0,0,0,0,0,0,0,-1,867,1646,3.60363,-31.3781
-350,-622,3.5368,32.1019,-0.00146319,-0.000863123,0.00338884,0.00223894,-0.00456525,0.829551,0.00400421,0.0470387,874,1646,3.53683,-32.1019
-343,-622,3.40326,32.6814,-0.000758772,-0.00099236,0.00285882,0.00198564,-0.00373677,0.764983,0.003355,0.0247945,881,1646,3.40327,-32.6813
-336,-622,3.396,33.265,-0.000174658,-0.000858158,0.00243424,0.0019417,-0.00297452,0.715657,0.00285918,0.00995352,888,1646,3.39598,-33.2651
-329,-622,3.33655,33.8387,0.000237856,-0.000723204,0.00197469,0.00178964,-0.00227499,0.666046,0.00235229,0.00878625,895,1646,3.33653,-33.8387
-322,-622,3.30212,34.4249,0.000441206,-0.000236454,0.00164904,0.00178587,-0.00158112,0.684073,0.00194513,0.0103198,902,1646,3.30213,-34.425
-315,-622,3.29041,35.0229,0.000599858,0.000206569,0.00142554,0.00184225,-0.00103583,0.716859,0.00168326,0.0145098,909,1646,3.29041,-35.0229
-308,-622,3.27222,35.5897,0.00085092,0.000754922,0.00127325,0.00207708,-0.000471233,0.766558,0.00156562,0.0149396,916,1646,3.27223,-35.5898
-301,-622,3.25562,36.1378,0.00120994,0.00133828,0.00128189,0.0025576,-9.3847e-06,0.810407,0.0017082,0.013924,923,1646,3.25561,-36.1378
-294,-622,3.2301,36.7006,0.00177072,0.00216891,0.00158023,0.00356254,0.000377087,0.848064,0.00225984,0.0106063,930,1646,3.23008,-36.7006
-287,-622,3.21118,37.2406,0.00235557,0.00319014,0.0019266,0.00474413,0.000801586,0.892046,0.00293231,0.00836869,937,1646,3.21116,-37.2406
-280,-622,3.18427,37.7797,0.00308009,0.00425012,0.00244796,0.006182,0.00114822,0.902689,0.00379691,0.00996991,944,1646,3.18428,-37.7797
-273,-622,3.18658,38.322,0.00391993,0.00526096,0.00308931,0.00775169,0.0014292,0.892263,0.0047634,0.0152441,951,1646,3.18661,-38.322
-266,-622,3.16125,38.8713,0.00477172,0.00638142,0.0037802,0.0094415,0.00171165,0.890288,0.00580847,0.0142753,958,1646,3.16123,-38.8714
-259,-622,3.14697,39.4094,0.00569434,0.00753834,0.00450201,0.0112118,0.00202089,0.8864,0.00690026,0.0117685,965,1646,3.14697,-39.4094
-252,-622,3.13452,39.9114,0.00672128,0.00876805,0.00516368,0.0130088,0.00248056,0.883225,0.00797531,0.0121923,972,1646,3.13454,-39.9114
-245,-622,3.18152,40.4392,0.00771496,0.00983649,0.00575074,0.0146235,0.00292797,0.876602,0.00893438,0.0119745,979,1646,3.18154,-40.4392
-238,-622,3.19556,40.9718,0.00869727,0.0104588,0.00612308,0.0157642,0.00339194,0.856831,0.00958107,0.0163892,986,1646,3.19556,-40.9718
-231,-622,3.27338,41.5975,0.0102562,0.0115093,0.00656478,0.0174773,0.00428813,0.832973,0.0105177,0.0293164,993,1646,3.2734,-41.5975
-224,-622,3.35138,41.9943,0.0126853,0.0130085,0.00782423,0.0206728,0.00502098,0.795722,0.0124504,0.0436781,1000,1646,3.35139,-41.9943
-217,-622,3.49219,42.559,0,0,0,0,0,0,0,-1,1007,1646,3.4922,-42.5589
-210,-622,3.87927,28.0903,0,0,0,0,0,0,0,-1,1014,1646,3.87925,-28.0903
-203,-622,4.21375,20.9574,0,0,0,0,0,0,0,-1,1021,1646,4.21375,-20.9574
-196,-622,4.18518,21.2491,0,0,0,0,0,0,0,-1,1028,1646,4.18521,-21.2491
-189,-622,4.98254,25.8979,0,0,0,0,0,0,0,-1,1035,1646,4.98255,-25.8979
-182,-622,2.21411,20.6752,0,0,0,0,0,0,0,-1,1042,1646,2.21416,-20.6751
-175,-622,3.77185,44.1945,0,0,0,0,0,0,0,-1,1049,1646,3.77182,-44.1944
-168,-622,3.47473,48.683,0,0,0,0,0,0,0,-1,1056,1646,3.47475,-48.683
-161,-622,3.79919,48.5009,0,0,0,0,0,0,0,-1,1063,1646,3.79918,-48.5009
-154,-622,4.00757,48.1962,0,0,0,0,0,0,0,-1,1070,1646,4.00753,-48.1962
-147,-622,1.85205,49.8027,0,0,0,0,0,0,0,-1,1077,1646,1.85208,-49.8027
-140,-622,0.546997,48.6783,0,0,0,0,0,0,0,-1,1084,1646,0.547022,-48.6784
-133,-622,3.09644,17.677,0,0,0,0,0,0,0,-1,1091,1646,3.09638,-17.677
-126,-622,3.5061,19.5251,0,0,0,0,0,0,0,-1,1098,1646,3.50616,-19.5252
-119,-622,4.06384,13.1715,0,0,0,0,0,0,0,-1,1105,1646,4.06379,-13.1716
-112,-622,4.33276,14.6605,0,0,0,0,0,0,0,-1,1112,1646,4.33281,-14.6605
-105,-622,0.306519,4.38159,0,0,0,0,0,0,0,-1,1119,1646,0.306536,-4.38159
-98,-622,-0.510376,3.5033,0,0,0,0,0,0,0,-1,1126,1646,-0.510393,-3.50324
-91,-622,-1.146,0.975952,0,0,0,0,0,0,0,-1,1133,1646,-1.14599,-0.97597
-84,-622,-2.04895,1.31787,0,0,0,0,0,0,0,-1,1140,1646,-2.0489,-1.31781
-77,-622,-1.80627,0.332275,0,0,0,0,0,0,0,-1,1147,1646,-1.80622,-0.33223
-70,-622,-3.65588,2.28149,0,0,0,0,0,0,0,-1,1154,1646,-3.65589,-2.28155
-63,-622,-2.49683,1.27087,0,0,0,0,0,0,0,-1,1161,1646,-2.49679,-1.27093
-56,-622,-2.44238,-0.575562,0,0,0,0,0,0,0,-1,1168,1646,-2.44242,0.575508
-49,-622,-2.41089,1.38818,0,0,0,0,0,0,0,-1,1175,1646,-2.41088,-1.38815
-42,-622,-2.71497,2.85242,0,0,0,0,0,0,0,-1,1182,1646,-2.71491,-2.85247
-35,-622,-3.0177,4.25842,0,0,0,0,0,0,0,-1,1189,1646,-3.01773,-4.25838
-28,-622,-0.896606,0.678833,0,0,0,0,0,0,0,-1,1196,1646,-0.89661,-0.678835
-21,-622,16.4141,36.2849,0,0,0,0,0,0,0,-1,1203,1646,16.4141,-36.285
-14,-622,9.30896,45.3215,0,0,0,0,0,0,0,-1,1210,1646,9.30899,-45.3215
-7,-622,10.1254,45.4622,0,0,0,0,0,0,0,-1,1217,1646,10.1254,-45.4621
0,-622,0,0,0,0,0,0,0,0,0,-1,1224,1646,0,0
7,-622,0,0,0,0,0,0,0,0,0,-1,1231,1646,0,0
14,-622,0,0,0,0,0,0,0,0,0,-1,1238,1646,0,0
21,-622,0,0,0,0,0,0,0,0,0,-1,1245,1646,0,0
28,-622,0,0,0,0,0,0,0,0,0,-1,1252,1646,0,0
35,-622,0,0,0,0,0,0,0,0,0,-1,1259,1646,0,0
42,-622,0,0,0,0,0,0,0,0,0,-1,1266,1646,0,0
49,-622,0,0,0,0,0,0,0,0,0,-1,1273,1646,0,0
56,-622,0,0,0,0,0,0,0,0,0,-1,1280,1646,0,0
63,-622,0,0,0,0,0,0,0,0,0,-1,1287,1646,0,0
70,-622,0,0,0,0,0,0,0,0,0,-1,1294,1646,0,0
77,-622,0,0,0,0,0,0,0,0,0,-1,1301,1646,0,0
84,-622,0,0,0,0,0,0,0,0,0,-1,1308,1646,0,0
91,-622,0,0,0,0,0,0,0,0,0,-1,1315,1646,0,0
98,-622,0,0,0,0,0,0,0,0,0,-1,1322,1646,0,0
105,-622,0,0,0,0,0,0,0,0,0,-1,1329,1646,0,0
112,-622,0,0,0,0,0,0,0,0,0,-1,1336,1646,0,0
119,-622,0,0,0,0,0,0,0,0,0,-1,1343,1646,0,0
126,-622,8.04163,49.9274,-0.128404,-0.030075,0.023067,-0.0249327,-0.133547,1.35145,0.0819938,0.0470058,1350,1646,8.04161,-49.9273
133,-622,6.93262,50.6796,0,0,0,0,0,0,0,-1,1357,1646,6.93258,-50.6796
140,-622,5.82861,51.1145,-0.114648,-0.0352778,0.00842715,-0.034393,-0.115533,1.46618,0.0684991,0.0462852,1364,1646,5.8286,-51.1145
147,-622,4.62769,51.4435,0,0,0,0,0,0,0,-1,1371,1646,4.62773,-51.4435
154,-622,3.44043,52.036,0,0,0,0,0,0,0,-1,1378,1646,3.44038,-52.0361
161,-622,10.6884,6.46448,0,0,0,0,0,0,0,-1,1385,1646,10.6883,-6.46442
168,-622,12.2402,5.18091,0,0,0,0,0,0,0,-1,1392,1646,12.2403,-5.1809
175,-622,5.64355,-1.77075,0,0,0,0,0,0,0,-1,1399,1646,5.64351,1.77077
182,-622,5.88586,-1.32251,0,0,0,0,0,0,0,-1,1406,1646,5.88587,1.32256
189,-622,5.97986,-1.18005,0,0,0,0,0,0,0,-1,1413,1646,5.97986,1.18003
196,-622,5.85022,-0.244507,0,0,0,0,0,0,0,-1,1420,1646,5.85026,0.244478
203,-622,5.25159,0.138794,0,0,0,0,0,0,0,-1,1427,1646,5.25162,-0.138822
210,-622,6.66833,0.0397949,0,0,0,0,0,0,0,-1,1434,1646,6.6684,-0.0398278
217,-622,6.12061,0.0506592,0,0,0,0,0,0,0,-1,1441,1646,6.12058,-0.0507181
224,-622,5.57275,0.0616455,0,0,0,0,0,0,0,-1,1448,1646,5.57276,-0.0616084
231,-622,5.31348,1.3949,0,0,0,0,0,0,0,-1,1455,1646,5.31342,-1.39495
238,-622,3.76477,2.90686,0,0,0,0,0,0,0,-1,1462,1646,3.7648,-2.90686
245,-622,5.13794,2.67993,0,0,0,0,0,0,0,-1,1469,1646,5.13796,-2.67992
252,-622,6.66528,2.53992,0,0,0,0,0,0,0,-1,1476,1646,6.66522,-2.53991
259,-622,8.93787,3.31458,0,0,0,0,0,0,0,-1,1483,1646,8.93791,-3.31454
266,-622,5.72644,3.11926,0,0,0,0,0,0,0,-1,1490,1646,5.72647,-3.1192
273,-622,7.28076,3.61218,0,0,0,0,0,0,0,-1,1497,1646,7.28071,-3.61212
280,-622,8.43127,4.4447,0,0,0,0,0,0,0,-1,1504,1646,8.43123,-4.44467
287,-622,8.60315,5.94617,0,0,0,0,0,0,0,-1,1511,1646,8.60319,-5.94622
294,-622,7.62756,11.5143,0,0,0,0,0,0,0,-1,1518,1646,7.62762,-11.5143
301,-622,7.36548,11.6569,0,0,0,0,0,0,0,-1,1525,1646,7.36549,-11.6569
308,-622,7.10339,11.7994,0,0,0,0,0,0,0,-1,1532,1646,7.10335,-11.7995
315,-622,8.28687,16.5842,0,0,0,0,0,0,0,-1,1539,1646,8.28689,-16.5843
322,-622,7.43689,20.5786,0,0,0,0,0,0,0,-1,1546,1646,7.43685,-20.5786
329,-622,9.76477,26.4202,0,0,0,0,0,0,0,-1,1553,1646,9.7648,-26.4202
336,-622,10.4526,28.8552,0,0,0,0,0,0,0,-1,1560,1646,10.4526,-28.8552
343,-622,14.7605,44.0341,0,0,0,0,0,0,0,-1,1567,1646,14.7605,-44.034
350,-622,15.0465,43.3325,0.0116244,0.0352949,-0.014188,0.0419359,0.00498331,-1.13301,0.0264531,0.0445703,1574,1646,15.0465,-43.3325
357,-622,15.0059,42.3314,0.010482,0.0292708,-0.0118338,0.0349858,0.00476697,-1.12089,0.0219084,0.0388792,1581,1646,15.0059,-42.3315
364,-622,14.9315,41.7311,0.00947897,0.0242048,-0.0099235,0.0291986,0.00448517,-1.10457,0.0181563,0.0328292,1588,1646,14.9315,-41.7311
371,-622,14.9221,41.0623,0.00865736,0.0193276,-0.00837071,0.0239189,0.00406615,-1.06912,0.0147782,0.0207686,1595,1646,14.9221,-41.0622
378,-622,14.9587,40.4856,0.0076614,0.0152205,-0.0067491,0.0191763,0.00370561,-1.04064,0.0117455,0.0117754,1602,1646,14.9588,-40.4856
385,-622,14.9713,39.9481,0.00662834,0.0116822,-0.00525017,0.0149819,0.00332864,-1.00969,0.009084,0.0102365,1609,1646,14.9713,-39.9482
392,-622,14.9606,39.4724,0.00563264,0.00887355,-0.00402501,0.0115921,0.00291413,-0.97677,0.00696299,0.012095,1616,1646,14.9606,-39.4724
399,-622,14.9272,38.9744,0.00459348,0.00646647,-0.00292484,0.00860109,0.00245886,-0.940334,0.00511537,0.0125213,1623,1646,14.9272,-38.9743
406,-622,14.9158,38.4446,0.00372663,0.00447284,-0.00210459,0.00623715,0.00196233,-0.873127,0.0036826,0.0148497,1630,1646,14.9157,-38.4446
413,-622,14.937,37.938,0.00300349,0.00346718,-0.001684,0.00493522,0.00153545,-0.853806,0.00291633,0.0166644,1637,1646,14.9371,-37.938
420,-622,14.9359,37.4465,0.00239689,0.00276478,-0.00149045,0.00408259,0.00107908,-0.846796,0.00244281,0.0169241,1644,1646,14.9359,-37.4466
427,-622,14.9276,36.8977,0.00186995,0.00216865,-0.00140551,0.00343273,0.000605873,-0.838329,0.00211565,0.0132001,1651,1646,14.9276,-36.8977
434,-622,14.9139,36.3452,0.00153978,0.00196839,-0.00160334,0.00337168,0.000136491,-0.851835,0.0022037,0.014326,1658,1646,14.9139,-36.3452
441,-622,14.9072,35.7928,0.00135086,0.00181948,-0.0019045,0.00350403,-0.000333681,-0.846606,0.00245482,0.0169,1665,1646,14.9073,-35.7928
448,-622,14.8719,35.2894,0.00133082,0.0015493,-0.00226759,0.00371028,-0.000830161,-0.809466,0.00279169,0.015132,1672,1646,14.872,-35.2894
455,-622,14.8358,34.7435,0.00143027,0.00138728,-0.00271175,0.00412061,-0.00130306,-0.781435,0.00326917,0.0165087,1679,1646,14.8358,-34.7435
462,-622,14.8374,34.1851,0.00153268,0.00107691,-0.00306135,0.00437462,-0.00176503,-0.748247,0.0036499,0.0185382,1686,1646,14.8374,-34.1851
469,-622,14.8182,33.6357,0.00157945,0.000884159,-0.00335815,0.00460791,-0.00214429,-0.73382,0.00398394,0.0195474,1693,1646,14.8182,-33.6357
476,-622,14.885,33.0775,0.00171749,0.000766147,-0.00371156,0.00498374,-0.0025001,-0.721666,0.00439939,0.032931,1700,1646,14.885,-33.0775
483,-622,14.965,32.4069,0,0,0,0,0,0,0,-1,1707,1646,14.965,-32.4069
490,-622,14.8333,31.8774,0,0,0,0,0,0,0,-1,1714,1646,14.8332,-31.8774
497,-622,14.8682,31.7611,0,0,0,0,0,0,0,-1,1721,1646,14.8682,-31.7611
504,-622,10.8306,19.8021,0,0,0,0,0,0,0,-1,1728,1646,10.8306,-19.8022
511,-622,5.29004,4.14587,0,0,0,0,0,0,0,-1,1735,1646,5.29008,-4.14589
518,-622,5.6001,1.55359,0,0,0,0,0,0,0,-1,1742,1646,5.60015,-1.5536
525,-622,5.83093,2.01807,0,0,0,0,0,0,0,-1,1749,1646,5.83097,-2.01802
532,-622,5.44202,0.57373,0,0,0,0,0,0,0,-1,1756,1646,5.44196,-0.573705
539,-622,9.32129,1.06116,0,0,0,0,0,0,0,-1,1763,1646,9.32131,-1.0612
546,-622,6.50977,-3.45618,0,0,0,0,0,0,0,-1,1770,1646,6.50981,3.4562
553,-622,0,0,0,0,0,0,0,0,0,-1,1777,1646,0,0
560,-622,0,0,0,0,0,0,0,0,0,-1,1784,1646,0,0
567,-622,0,0,0,0,0,0,0,0,0,-1,1791,1646,0,0
574,-622,0,0,0,0,0,0,0,0,0,-1,1798,1646,0,0
581,-622,0,0,0,0,0,0,0,0,0,-1,1805,1646,0,0
588,-622,0,0,0,0,0,0,0,0,0,-1,1812,1646,0,0
595,-622,0,0,0,0,0,0,0,0,0,-1,1819,1646,0,0
602,-622,0,0,0,0,0,0,0,0,0,-1,1826,1646,0,0
609,-622,0,0,0,0,0,0,0,0,0,-1,1833,1646,0,0
616,-622,0,0,0,0,0,0,0,0,0,-1,1840,1646,0,0
623,-622,0,0,0,0,0,0,0,0,0,-1,1847,1646,0,0
630,-622,0,0,0,0,0,0,0,0,0,-1,1854,1646,0,0
637,-622,0,0,0,0,0,0,0,0,0,-1,1861,1646,0,0
644,-622,0,0,0,0,0,0,0,0,0,-1,1868,1646,0,0
651,-622,0,0,0,0,0,0,0,0,0,-1,1875,1646,0,0
658,-622,0,0,0,0,0,0,0,0,0,-1,1882,1646,0,0
665,-622,0,0,0,0,0,0,0,0,0,-1,1889,1646,0,0
672,-622,0,0,0,0,0,0,0,0,0,-1,1896,1646,0,0
679,-622,0,0,0,0,0,0,0,0,0,-1,1903,1646,0,0
686,-622,0,0,0,0,0,0,0,0,0,-1,1910,1646,0,0
693,-622,0,0,0,0,0,0,0,0,0,-1,1917,1646,0,0
700,-622,0,0,0,0,0,0,0,0,0,-1,1924,1646,0,0
707,-622,0,0,0,0,0,0,0,0,0,-1,1931,1646,0,0
714,-622,0,0,0,0,0,0,0,0,0,-1,1938,1646,0,0
721,-622,0,0,0,0,0,0,0,0,0,-1,1945,1646,0,0
728,-622,0,0,0,0,0,0,0,0,0,-1,1952,1646,0,0
735,-622,0,0,0,0,0,0,0,0,0,-1,1959,1646,0,0
742,-622,0,0,0,0,0,0,0,0,0,-1,1966,1646,0,0
749,-622,0,0,0,0,0,0,0,0,0,-1,1973,1646,0,0
756,-622,0,0,0,0,0,0,0,0,0,-1,1980,1646,0,0
763,-622,0,0,0,0,0,0,0,0,0,-1,1987,1646,0,0
770,-622,0,0,0,0,0,0,0,0,0,-1,1994,1646,0,0
777,-622,0,0,0,0,0,0,0,0,0,-1,2001,1646,0,0
784,-622,0,0,0,0,0,0,0,0,0,-1,2008,1646,0,0
791,-622,0,0,0,0,0,0,0,0,0,-1,2015,1646,0,0
798,-622,0,0,0,0,0,0,0,0,0,-1,2022,1646,0,0
805,-622,0,0,0,0,0,0,0,0,0,-1,2029,1646,0,0
812,-622,0,0,0,0,0,0,0,0,0,-1,2036,1646,0,0
-700,-629,0,0,0,0,0,0,0,0,0,-1,524,1653,0,0
-693,-629,0,0,0,0,0,0,0,0,0,-1,531,1653,0,0
-686,-629,0,0,0,0,0,0,0,0,0,-1,538,1653,0,0
-679,-629,0,0,0,0,0,0,0,0,0,-1,545,1653,0,0
-672,-629,0,0,0,0,0,0,0,0,0,-1,552,1653,0,0
-665,-629,0,0,0,0,0,0,0,0,0,-1,559,1653,0,0
-658,-629,0,0,0,0,0,0,0,0,0,-1,566,1653,0,0
-651,-629,0,0,0,0,0,0,0,0,0,-1,573,1653,0,0
-644,-629,0,0,0,0,0,0,0,0,0,-1,580,1653,0,0
-637,-629,0,0,0,0,0,0,0,0,0,-1,587,1653,0,0
-630,-629,0,0,0,0,0,0,0,0,0,-1,594,1653,0,0
-623,-629,0,0,0,0,0,0,0,0,0,-1,601,1653,0,0
-616,-629,0,0,0,0,0,0,0,0,0,-1,608,1653,0,0
-609,-629,0,0,0,0,0,0,0,0,0,-1,615,1653,0,0
-602,-629,0,0,0,0,0,0,0,0,0,-1,622,1653,0,0
-595,-629,0,0,0,0,0,0,0,0,0,-1,629,1653,0,0
-588,-629,0,0,0,0,0,0,0,0,0,-1,636,1653,0,0
-581,-629,0,0,0,0,0,0,0,0,0,-1,643,1653,0,0
-574,-629,0,0,0,0,0,0,0,0,0,-1,650,1653,0,0
-567,-629,0,0,0,0,0,0,0,0,0,-1,657,1653,0,0
-560,-629,0,0,0,0,0,0,0,0,0,-1,664,1653,0,0
-553,-629,0,0,0,0,0,0,0,0,0,-1,671,1653,0,0
-546,-629,0,0,0,0,0,0,0,0,0,-1,678,1653,0,0
-539,-629,0,0,0,0,0,0,0,0,0,-1,685,1653,0,0
-532,-629,0,0,0,0,0,0,0,0,0,-1,692,1653,0,0
-525,-629,0,0,0,0,0,0,0,0,0,-1,699,1653,0,0
-518,-629,0,0,0,0,0,0,0,0,0,-1,706,1653,0,0
-511,-629,0,0,0,0,0,0,0,0,0,-1,713,1653,0,0
-504,-629,0,0,0,0,0,0,0,0,0,-1,720,1653,0,0
-497,-629,0,0,0,0,0,0,0,0,0,-1,727,1653,0,0
-490,-629,0,0,0,0,0,0,0,0,0,-1,734,1653,0,0
-483,-629,0,0,0,0,0,0,0,0,0,-1,741,1653,0,0
-476,-629,0,0,0,0,0,0,0,0,0,-1,748,1653,0,0
-469,-629,0,0,0,0,0,0,0,0,0,-1,755,1653,0,0
-462,-629,0,0,0,0,0,0,0,0,0,-1,762,1653,0,0
-455,-629,0,0,0,0,0,0,0,0,0,-1,769,1653,0,0
-448,-629,0,0,0,0,0,0,0,0,0,-1,776,1653,0,0
-441,-629,0,0,0,0,0,0,0,0,0,-1,783,1653,0,0
-434,-629,0,0,0,0,0,0,0,0,0,-1,790,1653,0,0
-427,-629,0,0,0,0,0,0,0,0,0,-1,797,1653,0,0
-420,-629,-3.87103,3.37634,0,0,0,0,0,0,0,-1,804,1653,-3.87101,-3.37633
-413,-629,-5.69751,1.33582,0,0,0,0,0,0,0,-1,811,1653,-5.69754,-1.3358
-406,-629,2.85406,6.01501,0,0,0,0,0,0,0,-1,818,1653,2.85405,-6.01507
-399,-629,-0.455627,10.8687,0,0,0,0,0,0,0,-1,825,1653,-0.455625,-10.8687
-392,-629,1.15369,11.1295,0,0,0,0,0,0,0,-1,832,1653,1.1537,-11.1295
-385,-629,1.81976,11.6935,0,0,0,0,0,0,0,-1,839,1653,1.81975,-11.6935
-378,-629,2.19452,14.7941,0,0,0,0,0,0,0,-1,846,1653,2.19451,-14.7941
-371,-629,3.60114,14.7299,0,0,0,0,0,0,0,-1,853,1653,3.60113,-14.7299
-364,-629,3.26898,21.0801,0,0,0,0,0,0,0,-1,860,1653,3.26895,-21.08
-357,-629,4.38782,16.3444,0,0,0,0,0,0,0,-1,867,1653,4.38783,-16.3443
-350,-629,4.21454,32.0497,0,0,0,0,0,0,0,-1,874,1653,4.21455,-32.0497
-343,-629,3.87396,32.7074,-0.00044115,-0.00140262,0.00365786,0.00276743,-0.00461119,0.72006,0.00430415,0.0355232,881,1653,3.87396,-32.7074
-336,-629,3.9267,33.3065,-6.96279e-05,-0.00126992,0.00298943,0.0023793,-0.00371886,0.686337,0.00354898,0.0181586,888,1653,3.92672,-33.3065
-329,-629,3.9245,33.8662,7.26616e-05,-0.00109907,0.00227231,0.00183341,-0.00285982,0.659231,0.00273116,0.0118743,895,1653,3.9245,-33.8662
-322,-629,3.89203,34.4263,1.04096e-05,-0.000664506,0.00169316,0.00139941,-0.00205351,0.687034,0.00200543,0.0120134,902,1653,3.89203,-34.4263
-315,-629,3.8559,35.0126,-5.69832e-05,-0.000368327,0.00122517,0.00102236,-0.00144767,0.722206,0.00143311,0.0153909,909,1653,3.85588,-35.0126
-308,-629,3.82715,35.6002,1.1415e-05,7.45689e-05,0.000892641,0.000936192,-0.000850208,0.803078,0.00103178,0.0129805,916,1653,3.82714,-35.6002
-301,-629,3.81616,36.193,0.000189217,0.000538386,0.000716191,0.00110096,-0.000373362,0.904951,0.000885081,0.0113835,923,1653,3.81616,-36.1929
-294,-629,3.8009,36.733,0.000591735,0.00116943,0.000823721,0.00175348,7.68533e-06,0.95403,0.00116643,0.0121904,930,1653,3.80093,-36.733
-287,-629,3.76801,37.2623,0.0010342,0.00197234,0.000996773,0.0026049,0.000401643,1.00532,0.00161941,0.00990777,937,1653,3.768,-37.2623
-280,-629,3.73981,37.8046,0.00161654,0.00279156,0.00135964,0.0036852,0.000722905,0.989335,0.0022548,0.0111425,944,1653,3.73979,-37.8045
-273,-629,3.73096,38.3357,0.0023294,0.00356999,0.00186958,0.00491949,0.000979899,0.945575,0.00300673,0.0155928,951,1653,3.73094,-38.3357
-266,-629,3.71594,38.89,0.00311588,0.00444482,0.00244697,0.00631594,0.00124476,0.917975,0.00386314,0.0149085,958,1653,3.71592,-38.89
-259,-629,3.69159,39.4434,0.00395242,0.00532476,0.00304086,0.0077559,0.00152128,0.896365,0.0047455,0.0147023,965,1653,3.6916,-39.4433
-252,-629,3.68164,39.9365,0.00482949,0.00623429,0.00353194,0.009133,0.00193079,0.883553,0.005558,0.0112436,972,1653,3.68166,-39.9366
-245,-629,3.69806,40.4611,0.00570135,0.00704136,0.00395577,0.0103835,0.00235925,0.869289,0.00628526,0.00818622,979,1653,3.69804,-40.4611
-238,-629,3.70465,40.9735,0.006566,0.00753119,0.00423925,0.0113152,0.00278197,0.842074,0.00680833,0.0109371,986,1653,3.70465,-40.9735
-231,-629,3.67847,41.4844,0.00788263,0.0083577,0.00456157,0.0126879,0.00355242,0.811411,0.00755807,0.0170868,993,1653,3.67845,-41.4844
-224,-629,3.78314,42.1385,0.00982008,0.00964915,0.00547341,0.0152087,0.00426054,0.777592,0.0090593,0.0221952,1000,1653,3.78316,-42.1385
-217,-629,3.73627,42.5248,0.0113941,0.0106426,0.00606157,0.0170916,0.00494517,0.754444,0.0101556,0.0363279,1007,1653,3.73628,-42.5248
-210,-629,3.5907,43.4182,0,0,0,0,0,0,0,-1,1014,1653,3.59069,-43.4182
-203,-629,3.62451,44.2192,0,0,0,0,0,0,0,-1,1021,1653,3.62457,-44.2193
-196,-629,4.14355,44.1151,0,0,0,0,0,0,0,-1,1028,1653,4.14359,-44.1151
-189,-629,4.06665,44.328,0,0,0,0,0,0,0,-1,1035,1653,4.06659,-44.328
-182,-629,4.21692,45.3746,0,0,0,0,0,0,0,-1,1042,1653,4.21695,-45.3746
-175,-629,4.9884,46.2676,0,0,0,0,0,0,0,-1,1049,1653,4.9884,-46.2676
-168,-629,3.61633,48.205,0,0,0,0,0,0,0,-1,1056,1653,3.61639,-48.205
-161,-629,4.1051,47.9711,0,0,0,0,0,0,0,-1,1063,1653,4.10507,-47.971
-154,-629,4.39441,47.5436,0,0,0,0,0,0,0,-1,1070,1653,4.39441,-47.5436
-147,-629,4.69604,47.0325,0,0,0,0,0,0,0,-1,1077,1653,4.69606,-47.0324
-140,-629,2.10181,41.6577,0,0,0,0,0,0,0,-1,1084,1653,2.10175,-41.6577
-133,-629,3.41248,17.6686,0,0,0,0,0,0,0,-1,1091,1653,3.41243,-17.6686
-126,-629,4.01025,19.5328,0,0,0,0,0,0,0,-1,1098,1653,4.01022,-19.5328
-119,-629,4.94177,13.5525,0,0,0,0,0,0,0,-1,1105,1653,4.94172,-13.5525
-112,-629,5.63123,15.9187,0,0,0,0,0,0,0,-1,1112,1653,5.63118,-15.9187
-105,-629,2.15881,4.38342,0,0,0,0,0,0,0,-1,1119,1653,2.15878,-4.38347
-98,-629,0.825806,4.19385,0,0,0,0,0,0,0,-1,1126,1653,0.825779,-4.1939
-91,-629,-0.452271,3.64465,0,0,0,0,0,0,0,-1,1133,1653,-0.452278,-3.6446
-84,-629,-2.6084,0.466797,0,0,0,0,0,0,0,-1,1140,1653,-2.6084,-0.466786
-77,-629,-3.50903,2.10706,0,0,0,0,0,0,0,-1,1147,1653,-3.509,-2.10707
-70,-629,-1.20886,2.52502,0,0,0,0,0,0,0,-1,1154,1653,-1.20886,-2.525
-63,-629,-0.960693,4.30212,0,0,0,0,0,0,0,-1,1161,1653,-0.960691,-4.30215
-56,-629,-1.31934,5.64343,0,0,0,0,0,0,0,-1,1168,1653,-1.31928,-5.6434
-49,-629,-2.15662,2.57458,0,0,0,0,0,0,0,-1,1175,1653,-2.15656,-2.57459
-42,-629,-2.46326,3.91467,0,0,0,0,0,0,0,-1,1182,1653,-2.4633,-3.91466
-35,-629,-2.67261,5.24292,0,0,0,0,0,0,0,-1,1189,1653,-2.67257,-5.24298
-28,-629,-0.402954,-0.866577,0,0,0,0,0,0,0,-1,1196,1653,-0.402943,0.866612
-21,-629,3.45508,27.0596,0,0,0,0,0,0,0,-1,1203,1653,3.45508,-27.0596
-14,-629,9.93506,47.0018,0,0,0,0,0,0,0,-1,1210,1653,9.93509,-47.0019
-7,-629,5.75586,52.7451,0,0,0,0,0,0,0,-1,1217,1653,5.75587,-52.7451
0,-629,7.15015,53.8895,0.257301,0.100079,0.102636,0.307972,0.0494083,0.458592,0.190988,0.048895,1224,1653,7.15018,-53.8896
7,-629,8.47742,55.0325,0,0,0,0,0,0,0,-1,1231,1653,8.47737,-55.0324
14,-629,9.53052,56.4263,0.21993,0.0669978,0.0926442,0.263589,0.0233389,0.440387,0.168486,0.0442041,1238,1653,9.53052,-56.4263
21,-629,10.9758,57.5756,0.201286,0.0520536,0.0794958,0.235698,0.0176415,0.408526,0.151594,0.0465309,1245,1653,10.9759,-57.5755
28,-629,12.4092,58.7067,0,0,0,0,0,0,0,-1,1252,1653,12.4092,-58.7067
35,-629,10.4392,54.3311,0,0,0,0,0,0,0,-1,1259,1653,10.4393,-54.3311
42,-629,11.037,53.5841,0.14947,0.0170736,0.0375244,0.159365,0.00717785,0.257845,0.103934,0.0461963,1266,1653,11.0369,-53.5841
49,-629,11.9604,52.8579,0,0,0,0,0,0,0,-1,1273,1653,11.9604,-52.858
56,-629,11.15,55.5941,0,0,0,0,0,0,0,-1,1280,1653,11.15,-55.5942
63,-629,11.5198,54.7162,0.0863271,0.00517064,0.0126963,0.0882669,0.00323078,0.151617,0.0577978,0.0461261,1287,1653,11.5198,-54.7162
70,-629,12.1255,53.6866,0.0583792,0.000559094,0.0078756,0.0594327,-0.000494434,0.132982,0.0397877,0.0459262,1294,1653,12.1255,-53.6866
77,-629,13.1525,53.2008,0,0,0,0,0,0,0,-1,1301,1653,13.1524,-53.2009
84,-629,14.1975,52.635,0,0,0,0,0,0,0,-1,1308,1653,14.1976,-52.635
91,-629,10.8186,50.5458,-0.0167673,-0.0066646,0.012543,0.00180602,-0.025238,0.976824,0.0174585,0.0427827,1315,1653,10.8186,-50.5457
98,-629,10.0024,51.2461,-0.0412791,-0.00803451,0.0133469,-0.00333917,-0.0459744,1.23253,0.0295994,0.0446125,1322,1653,10.0025,-51.2461
105,-629,10.9237,49.7822,0,0,0,0,0,0,0,-1,1329,1653,10.9237,-49.7822
112,-629,9.96655,49.7439,0,0,0,0,0,0,0,-1,1336,1653,9.9666,-49.744
119,-629,8.99707,49.7667,-0.103904,-0.0257611,0.0145585,-0.0231369,-0.106528,1.39246,0.0647003,0.0452376,1343,1653,8.99713,-49.7667
126,-629,7.9436,50.2029,-0.115572,-0.0291578,0.0116561,-0.0276132,-0.117116,1.43905,0.0706942,0.043363,1350,1653,7.94362,-50.2029
133,-629,6.84924,50.634,0,0,0,0,0,0,0,-1,1357,1653,6.84925,-50.634
140,-629,5.79138,51.2538,0,0,0,0,0,0,0,-1,1364,1653,5.7914,-51.2538
147,-629,4.75952,51.463,0,0,0,0,0,0,0,-1,1371,1653,4.7595,-51.463
154,-629,1.58569,52.5651,0,0,0,0,0,0,0,-1,1378,1653,1.58564,-52.5651
161,-629,10.5461,6.83752,0,0,0,0,0,0,0,-1,1385,1653,10.5461,-6.83758
168,-629,12.0059,5.56348,0,0,0,0,0,0,0,-1,1392,1653,12.0059,-5.56352
175,-629,5.84485,-1.78845,0,0,0,0,0,0,0,-1,1399,1653,5.84479,1.7884
182,-629,5.99036,-1.27783,0,0,0,0,0,0,0,-1,1406,1653,5.99041,1.27778
189,-629,5.97668,-0.748535,0,0,0,0,0,0,0,-1,1413,1653,5.97671,0.748544
196,-629,4.52869,9.24695,0,0,0,0,0,0,0,-1,1420,1653,4.52869,-9.2469
203,-629,3.75085,6.88037,0,0,0,0,0,0,0,-1,1427,1653,3.75087,-6.88032
210,-629,3.5907,6.52637,0,0,0,0,0,0,0,-1,1434,1653,3.59067,-6.52642
217,-629,2.4585,4.84448,0,0,0,0,0,0,0,-1,1441,1653,2.45855,-4.84448
224,-629,1.31982,3.68481,0,0,0,0,0,0,0,-1,1448,1653,1.31986,-3.68487
231,-629,3.63025,1.73499,0,0,0,0,0,0,0,-1,1455,1653,3.6303,-1.735
238,-629,4.26428,2.11255,0,0,0,0,0,0,0,-1,1462,1653,4.26429,-2.11253
245,-629,5.61816,1.95361,0,0,0,0,0,0,0,-1,1469,1653,5.61815,-1.95359
252,-629,7.27136,2.18982,0,0,0,0,0,0,0,-1,1476,1653,7.27131,-2.18985
259,-629,8.67334,2.18628,0,0,0,0,0,0,0,-1,1483,1653,8.6733,-2.18633
266,-629,6.86475,3.72058,0,0,0,0,0,0,0,-1,1490,1653,6.86479,-3.72063
273,-629,7.9021,3.8717,0,0,0,0,0,0,0,-1,1497,1653,7.90205,-3.87171
280,-629,9.70837,4.39087,0,0,0,0,0,0,0,-1,1504,1653,9.7084,-4.39082
287,-629,9.82947,7.19348,0,0,0,0,0,0,0,-1,1511,1653,9.8295,-7.19347
294,-629,6.56555,11.6359,0,0,0,0,0,0,0,-1,1518,1653,6.5656,-11.6358
301,-629,13.903,44.4862,0,0,0,0,0,0,0,-1,1525,1653,13.903,-44.4862
308,-629,6.08264,12.1423,0,0,0,0,0,0,0,-1,1532,1653,6.08263,-12.1423
315,-629,6.82043,18.2764,0,0,0,0,0,0,0,-1,1539,1653,6.82049,-18.2764
322,-629,14.1931,43.8071,0,0,0,0,0,0,0,-1,1546,1653,14.1931,-43.8071
329,-629,14.1232,44.2141,0,0,0,0,0,0,0,-1,1553,1653,14.1232,-44.2142
336,-629,14.3362,43.6095,0,0,0,0,0,0,0,-1,1560,1653,14.3362,-43.6095
343,-629,14.3813,43.4672,0.00945552,0.0306702,-0.011267,0.0355374,0.00458833,-1.16302,0.0223199,0.0430239,1567,1653,14.3814,-43.4672
350,-629,14.5094,42.5586,0.00884844,0.0268242,-0.0101459,0.0313907,0.00428193,-1.14787,0.0196559,0.0276092,1574,1653,14.5094,-42.5586
357,-629,14.5267,41.9661,0.00799457,0.0225302,-0.00860142,0.0265232,0.00400158,-1.13618,0.0165107,0.0167592,1581,1653,14.5267,-41.9661
364,-629,14.4723,41.4662,0.00719855,0.0188578,-0.00735706,0.0224149,0.00364144,-1.12044,0.0138895,0.0148991,1588,1653,14.4722,-41.4662
371,-629,14.4425,40.9791,0.00650177,0.0152218,-0.00629462,0.0185189,0.00320463,-1.08829,0.0114285,0.0122221,1595,1653,14.4425,-40.9791
378,-629,14.4534,40.4532,0.00570255,0.0120485,-0.00515695,0.0149305,0.00282063,-1.06119,0.00915937,0.0110806,1602,1653,14.4533,-40.4533
385,-629,14.4656,39.9618,0.00485286,0.00922123,-0.00407472,0.0116602,0.00241385,-1.03143,0.00710686,0.0137916,1609,1653,14.4655,-39.9618
392,-629,14.4426,39.4755,0.00397872,0.00693337,-0.00317609,0.00895891,0.00195318,-1.00308,0.00543971,0.0126149,1616,1653,14.4426,-39.4755
399,-629,14.421,38.9767,0.0030742,0.00487317,-0.00232065,0.00646256,0.00148481,-0.970284,0.0039086,0.0124546,1623,1653,14.4211,-38.9767
406,-629,14.4257,38.459,0.00236768,0.00318905,-0.00171793,0.0045447,0.00101203,-0.902726,0.00275513,0.0147423,1630,1653,14.4256,-38.459
413,-629,14.4095,37.9315,0.00178183,0.00237932,-0.00143931,0.00355056,0.000610593,-0.887726,0.00219204,0.0234963,1637,1653,14.4095,-37.9315
420,-629,14.3757,37.4745,0.00130838,0.00180726,-0.00134608,0.00292681,0.000188825,-0.877015,0.00189141,0.0222866,1644,1653,14.3757,-37.4745
427,-629,14.3958,36.951,0.00094674,0.00135946,-0.00138923,0.00255757,-0.000251373,-0.85913,0.00179472,0.0163731,1651,1653,14.3957,-36.9511
434,-629,14.4135,36.391,0.00078577,0.00127515,-0.00169635,0.00274437,-0.000683445,-0.857027,0.00209489,0.0144421,1658,1653,14.4135,-36.3909
441,-629,14.3925,35.837,0.000803682,0.00129943,-0.00215947,0.0032252,-0.0011221,-0.84254,0.00260598,0.0164518,1665,1653,14.3925,-35.837
448,-629,14.3467,35.2911,0.00100367,0.00127681,-0.00270211,0.0038458,-0.00156532,-0.810648,0.00321526,0.0149038,1672,1653,14.3467,-35.2912
455,-629,14.3019,34.7206,0.00138164,0.00145327,-0.00336403,0.00478167,-0.00194677,-0.790721,0.00399795,0.0145068,1679,1653,14.3018,-34.7206
462,-629,14.3047,34.204,0.00178244,0.00150193,-0.0039655,0.00561017,-0.0023258,-0.767722,0.00471081,0.0184037,1686,1653,14.3046,-34.204
469,-629,14.2894,33.657,0.00209601,0.00179213,-0.0045758,0.00652238,-0.00263425,-0.768802,0.00544314,0.0259651,1693,1653,14.2894,-33.6569
476,-629,14.3326,33.0939,0,0,0,0,0,0,0,-1,1700,1653,14.3326,-33.0939
483,-629,14.0381,30.967,0,0,0,0,0,0,0,-1,1707,1653,14.0381,-30.9671
490,-629,13.9072,28.8588,0,0,0,0,0,0,0,-1,1714,1653,13.9072,-28.8587
497,-629,10.3662,19.8605,0,0,0,0,0,0,0,-1,1721,1653,10.3662,-19.8605
504,-629,7.89453,15.5316,0,0,0,0,0,0,0,-1,1728,1653,7.89447,-15.5316
511,-629,6.29138,3.40295,0,0,0,0,0,0,0,-1,1735,1653,6.29137,-3.403
518,-629,5.84387,1.41858,0,0,0,0,0,0,0,-1,1742,1653,5.84391,-1.4186
525,-629,6.4729,1.02319,0,0,0,0,0,0,0,-1,1749,1653,6.47284,-1.02316
532,-629,6.86511,0.903687,0,0,0,0,0,0,0,-1,1756,1653,6.86514,-0.903691
539,-629,6.60803,0.746704,0,0,0,0,0,0,0,-1,1763,1653,6.60809,-0.746691
546,-629,0,0,0,0,0,0,0,0,0,-1,1770,1653,0,0
553,-629,0,0,0,0,0,0,0,0,0,-1,1777,1653,0,0
560,-629,0,0,0,0,0,0,0,0,0,-1,1784,1653,0,0
567,-629,0,0,0,0,0,0,0,0,0,-1,1791,1653,0,0
574,-629,0,0,0,0,0,0,0,0,0,-1,1798,1653,0,0
581,-629,0,0,0,0,0,0,0,0,0,-1,1805,1653,0,0
588,-629,0,0,0,0,0,0,0,0,0,-1,1812,1653,0,0
595,-629,0,0,0,0,0,0,0,0,0,-1,1819,1653,0,0
602,-629,0,0,0,0,0,0,0,0,0,-1,1826,1653,0,0
609,-629,0,0,0,0,0,0,0,0,0,-1,1833,1653,0,0
616,-629,0,0,0,0,0,0,0,0,0,-1,1840,1653,0,0
623,-629,0,0,0,0,0,0,0,0,0,-1,1847,1653,0,0
630,-629,0,0,0,0,0,0,0,0,0,-1,1854,1653,0,0
637,-629,0,0,0,0,0,0,0,0,0,-1,1861,1653,0,0
644,-629,0,0,0,0,0,0,0,0,0,-1,1868,1653,0,0
651,-629,0,0,0,0,0,0,0,0,0,-1,1875,1653,0,0
658,-629,0,0,0,0,0,0,0,0,0,-1,1882,1653,0,0
665,-629,0,0,0,0,0,0,0,0,0,-1,1889,1653,0,0
672,-629,0,0,0,0,0,0,0,0,0,-1,1896,1653,0,0
679,-629,0,0,0,0,0,0,0,0,0,-1,1903,1653,0,0
686,-629,0,0,0,0,0,0,0,0,0,-1,1910,1653,0,0
693,-629,0,0,0,0,0,0,0,0,0,-1,1917,1653,0,0
700,-629,0,0,0,0,0,0,0,0,0,-1,1924,1653,0,0
707,-629,0,0,0,0,0,0,0,0,0,-1,1931,1653,0,0
714,-629,0,0,0,0,0,0,0,0,0,-1,1938,1653,0,0
721,-629,0,0,0,0,0,0,0,0,0,-1,1945,1653,0,0
728,-629,0,0,0,0,0,0,0,0,0,-1,1952,1653,0,0
735,-629,0,0,0,0,0,0,0,0,0,-1,1959,1653,0,0
742,-629,0,0,0,0,0,0,0,0,0,-1,1966,1653,0,0
749,-629,0,0,0,0,0,0,0,0,0,-1,1973,1653,0,0
756,-629,0,0,0,0,0,0,0,0,0,-1,1980,1653,0,0
763,-629,0,0,0,0,0,0,0,0,0,-1,1987,1653,0,0
770,-629,0,0,0,0,0,0,0,0,0,-1,1994,1653,0,0
777,-629,0,0,0,0,0,0,0,0,0,-1,2001,1653,0,0
784,-629,0,0,0,0,0,0,0,0,0,-1,2008,1653,0,0
791,-629,0,0,0,0,0,0,0,0,0,-1,2015,1653,0,0
798,-629,0,0,0,0,0,0,0,0,0,-1,2022,1653,0,0
805,-629,0,0,0,0,0,0,0,0,0,-1,2029,1653,0,0
812,-629,0,0,0,0,0,0,0,0,0,-1,2036,1653,0,0
-700,-636,0,0,0,0,0,0,0,0,0,-1,524,1660,0,0
-693,-636,0,0,0,0,0,0,0,0,0,-1,531,1660,0,0
-686,-636,0,0,0,0,0,0,0,0,0,-1,538,1660,0,0
-679,-636,0,0,0,0,0,0,0,0,0,-1,545,1660,0,0
-672,-636,0,0,0,0,0,0,0,0,0,-1,552,1660,0,0
-665,-636,0,0,0,0,0,0,0,0,0,-1,559,1660,0,0
-658,-636,0,0,0,0,0,0,0,0,0,-1,566,1660,0,0
-651,-636,0,0,0,0,0,0,0,0,0,-1,573,1660,0,0
-644,-636,0,0,0,0,0,0,0,0,0,-1,580,1660,0,0
-637,-636,0,0,0,0,0,0,0,0,0,-1,587,1660,0,0
-630,-636,0,0,0,0,0,0,0,0,0,-1,594,1660,0,0
-623,-636,0,0,0,0,0,0,0,0,0,-1,601,1660,0,0
-616,-636,0,0,0,0,0,0,0,0,0,-1,608,1660,0,0
-609,-636,0,0,0,0,0,0,0,0,0,-1,615,1660,0,0
-602,-636,0,0,0,0,0,0,0,0,0,-1,622,1660,0,0
-595,-636,0,0,0,0,0,0,0,0,0,-1,629,1660,0,0
-588,-636,0,0,0,0,0,0,0,0,0,-1,636,1660,0,0
-581,-636,0,0,0,0,0,0,0,0,0,-1,643,1660,0,0
-574,-636,0,0,0,0,0,0,0,0,0,-1,650,1660,0,0
-567,-636,0,0,0,0,0,0,0,0,0,-1,657,1660,0,0
-560,-636,0,0,0,0,0,0,0,0,0,-1,664,1660,0,0
-553,-636,0,0,0,0,0,0,0,0,0,-1,671,1660,0,0
-546,-636,0,0,0,0,0,0,0,0,0,-1,678,1660,0,0
-539,-636,0,0,0,0,0,0,0,0,0,-1,685,1660,0,0
-532,-636,0,0,0,0,0,0,0,0,0,-1,692,1660,0,0
-525,-636,0,0,0,0,0,0,0,0,0,-1,699,1660,0,0
-518,-636,0,0,0,0,0,0,0,0,0,-1,706,1660,0,0
-511,-636,0,0,0,0,0,0,0,0,0,-1,713,1660,0,0
-504,-636,0,0,0,0,0,0,0,0,0,-1,720,1660,0,0
-497,-636,0,0,0,0,0,0,0,0,0,-1,727,1660,0,0
-490,-636,0,0,0,0,0,0,0,0,0,-1,734,1660,0,0
-483,-636,0,0,0,0,0,0,0,0,0,-1,741,1660,0,0
-476,-636,0,0,0,0,0,0,0,0,0,-1,748,1660,0,0
-469,-636,0,0,0,0,0,0,0,0,0,-1,755,1660,0,0
-462,-636,0,0,0,0,0,0,0,0,0,-1,762,1660,0,0
-455,-636,0,0,0,0,0,0,0,0,0,-1,769,1660,0,0
-448,-636,0,0,0,0,0,0,0,0,0,-1,776,1660,0,0
-441,-636,0,0,0,0,0,0,0,0,0,-1,783,1660,0,0
-434,-636,0,0,0,0,0,0,0,0,0,-1,790,1660,0,0
-427,-636,0,0,0,0,0,0,0,0,0,-1,797,1660,0,0
-420,-636,0,0,0,0,0,0,0,0,0,-1,804,1660,0,0
-413,-636,0,0,0,0,0,0,0,0,0,-1,811,1660,0,0
-406,-636,-0.591125,10.6943,0,0,0,0,0,0,0,-1,818,1660,-0.59115,-10.6943
-399,-636,0.0766602,11.2408,0,0,0,0,0,0,0,-1,825,1660,0.076685,-11.2409
-392,-636,0.75946,11.9233,0,0,0,0,0,0,0,-1,832,1660,0.759481,-11.9233
-385,-636,1.68878,12.517,0,0,0,0,0,0,0,-1,839,1660,1.6888,-12.5169
-378,-636,2.22107,13.0013,0,0,0,0,0,0,0,-1,846,1660,2.22107,-13.0014
-371,-636,2.52185,11.9684,0,0,0,0,0,0,0,-1,853,1660,2.52184,-11.9684
-364,-636,4.51947,14.8503,0,0,0,0,0,0,0,-1,860,1660,4.51949,-14.8504
-357,-636,4.55682,15.8809,0,0,0,0,0,0,0,-1,867,1660,4.55681,-15.8808
-350,-636,4.11389,32.2273,0,0,0,0,0,0,0,-1,874,1660,4.1139,-32.2273
-343,-636,4.22485,32.8054,0.000150873,-0.00158962,0.00466905,0.00403009,-0.00546883,0.693262,0.00550513,0.0456401,881,1660,4.22482,-32.8055
-336,-636,4.2464,33.3279,0.000217646,-0.00150141,0.00364263,0.00310079,-0.00438455,0.669536,0.0043428,0.0337232,888,1660,4.24638,-33.3279
-329,-636,4.44653,33.9075,2.80617e-05,-0.00134506,0.0026212,0.00205112,-0.00336812,0.657313,0.00315945,0.0195218,895,1660,4.4465,-33.9075
-322,-636,4.44043,34.4497,-0.000333332,-0.00101551,0.00176279,0.00112107,-0.00246991,0.689832,0.00212145,0.0127274,902,1660,4.44045,-34.4497
-315,-636,4.39355,35.0245,-0.000651202,-0.000888924,0.00103991,0.000276616,-0.00181674,0.728495,0.00131312,0.0136893,909,1660,4.39354,-35.0245
-308,-636,4.36902,35.6257,-0.00077881,-0.00056691,0.000531485,-0.000130918,-0.0012148,0.883782,0.000769948,0.0117438,916,1660,4.36899,-35.6257
-301,-636,4.36243,36.2177,-0.000781172,-0.000224891,0.000178174,-0.000172716,-0.000833347,1.28593,0.000507878,0.01123,923,1660,4.36241,-36.2176
-294,-636,4.34149,36.7761,-0.000535362,0.000277416,0.000107476,0.000291387,-0.000549334,1.44152,0.000492947,0.0140887,930,1660,4.34151,-36.7761
-287,-636,4.31384,37.2992,-0.000230508,0.000920854,0.000127955,0.000934902,-0.000244557,1.46144,0.000718791,0.0125535,937,1660,4.31386,-37.2992
-280,-636,4.29224,37.8291,0.000220267,0.00157755,0.000358537,0.00166644,0.000131378,1.32777,0.00106986,0.0122386,944,1660,4.29222,-37.829
-273,-636,4.28644,38.3572,0.000823919,0.00222376,0.000766762,0.00256202,0.000485662,1.15533,0.00157134,0.0129584,951,1660,4.28643,-38.3571
-266,-636,4.27148,38.9159,0.00156054,0.00295589,0.00126479,0.00370267,0.000813761,1.03744,0.00224686,0.013899,958,1660,4.27151,-38.9158
-259,-636,4.24481,39.4777,0.00232223,0.00364274,0.00176777,0.00486953,0.00109544,0.964125,0.00294981,0.0158081,965,1660,4.24481,-39.4777
-252,-636,4.23285,39.959,0.00309427,0.00433789,0.00216417,0.00596781,0.00146435,0.92529,0.00359135,0.0123517,972,1660,4.23283,-39.9589
-245,-636,4.22559,40.4843,0.00389181,0.00496435,0.00250945,0.00699419,0.00186197,0.890665,0.00418265,0.0112301,979,1660,4.22561,-40.4843
-238,-636,4.23047,41.0022,0.0046894,0.00536638,0.00279054,0.00783888,0.0022169,0.845753,0.00466593,0.0118732,986,1660,4.23045,-41.0022
-231,-636,4.23456,41.5002,0.00584365,0.00600303,0.00309221,0.00901657,0.00283011,0.798281,0.00532458,0.0107279,993,1660,4.23453,-41.5002
-224,-636,4.25031,41.9902,0.00744594,0.00700314,0.00382851,0.0110594,0.00338964,0.756516,0.00654263,0.00984634,1000,1660,4.25033,-41.9903
-217,-636,4.22821,42.5477,0.0087281,0.00778426,0.00428434,0.0125664,0.00394592,0.730544,0.00742067,0.0185502,1007,1660,4.22824,-42.5477
-210,-636,4.21631,43.0287,0.0104897,0.00864052,0.00486012,0.0145124,0.00461784,0.691399,0.00856138,0.0312753,1014,1660,4.21631,-43.0287
-203,-636,4.1792,43.5707,0.0127786,0.00998219,0.00585922,0.0174041,0.00535664,0.668274,0.0102928,0.0334306,1021,1660,4.17922,-43.5707
-196,-636,4.39734,43.9365,0.0151232,0.0115801,0.00699474,0.0205672,0.00613606,0.661373,0.0121922,0.0333342,1028,1660,4.39737,-43.9365
-189,-636,4.41907,44.3114,0.0176209,0.0136445,0.00822417,0.0240938,0.00717164,0.666799,0.0142852,0.0300472,1035,1660,4.41902,-44.3114
-182,-636,4.54407,45.0782,0.0203109,0.0159941,0.00976768,0.0281558,0.00814917,0.676657,0.0167294,0.0426882,1042,1660,4.54404,-45.0783
-175,-636,5.20227,45.719,0.0226246,0.0190827,0.0111561,0.0321495,0.00955785,0.706685,0.0190632,0.0478495,1049,1660,5.20229,-45.719
-168,-636,4.78271,45.887,0,0,0,0,0,0,0,-1,1056,1660,4.7827,-45.887
-161,-636,4.74658,46.4231,0,0,0,0,0,0,0,-1,1063,1660,4.74653,-46.4231
-154,-636,4.94507,46.7788,0,0,0,0,0,0,0,-1,1070,1660,4.94503,-46.7788
-147,-636,5.1665,47.2334,0,0,0,0,0,0,0,-1,1077,1660,5.16646,-47.2333
-140,-636,3.4729,27.1271,0,0,0,0,0,0,0,-1,1084,1660,3.47287,-27.1271
-133,-636,4.68311,18.0922,0,0,0,0,0,0,0,-1,1091,1660,4.68316,-18.0921
-126,-636,3.79028,18.2225,0,0,0,0,0,0,0,-1,1098,1660,3.79025,-18.2226
-119,-636,1.8667,13.8916,0,0,0,0,0,0,0,-1,1105,1660,1.86668,-13.8916
-112,-636,-1.24963,9.7998,0,0,0,0,0,0,0,-1,1112,1660,-1.24968,-9.79978
-105,-636,3.51624,4.72791,0,0,0,0,0,0,0,-1,1119,1660,3.51618,-4.7279
-98,-636,1.54504,5.11914,0,0,0,0,0,0,0,-1,1126,1660,1.54503,-5.11912
-91,-636,-1.87964,-2.25012,0,0,0,0,0,0,0,-1,1133,1660,-1.87966,2.25016
-84,-636,-2.84143,0.133667,0,0,0,0,0,0,0,-1,1140,1660,-2.84144,-0.133701
-77,-636,-3.57349,2.45935,0,0,0,0,0,0,0,-1,1147,1660,-3.57345,-2.45939
-70,-636,-4.23682,4.82312,0,0,0,0,0,0,0,-1,1154,1660,-4.23681,-4.82307
-63,-636,-2.21033,6.97168,0,0,0,0,0,0,0,-1,1161,1660,-2.21034,-6.97165
-56,-636,-2.51917,8.80359,0,0,0,0,0,0,0,-1,1168,1660,-2.51916,-8.80361
-49,-636,-3.13,10.4113,0,0,0,0,0,0,0,-1,1175,1660,-3.12996,-10.4112
-42,-636,-2.27771,4.90173,0,0,0,0,0,0,0,-1,1182,1660,-2.27775,-4.90173
-35,-636,-2.27698,5.89685,0,0,0,0,0,0,0,-1,1189,1660,-2.27695,-5.89686
-28,-636,-1.70654,4.83936,0,0,0,0,0,0,0,-1,1196,1660,-1.70656,-4.8393
-21,-636,4.24683,27.7834,0,0,0,0,0,0,0,-1,1203,1660,4.24687,-27.7835
-14,-636,9.922,62.2584,0,0,0,0,0,0,0,-1,1210,1660,9.922,-62.2584
-7,-636,5.41345,52.1791,0,0,0,0,0,0,0,-1,1217,1660,5.41344,-52.179
0,-636,6.75769,53.2448,0,0,0,0,0,0,0,-1,1224,1660,6.75768,-53.2447
7,-636,7.65247,54.6521,0,0,0,0,0,0,0,-1,1231,1660,7.65251,-54.6521
14,-636,9.0553,55.7548,0.18886,0.066049,0.0754646,0.224746,0.0301636,0.443878,0.140857,0.0428973,1238,1660,9.0553,-55.7548
21,-636,10.5518,56.8348,0.170609,0.0531373,0.0656533,0.199966,0.0237809,0.420476,0.126133,0.0447379,1245,1660,10.5517,-56.8349
28,-636,12.2644,57.7804,0,0,0,0,0,0,0,-1,1252,1660,12.2644,-57.7804
35,-636,13.7642,58.853,0,0,0,0,0,0,0,-1,1259,1660,13.7642,-58.8531
42,-636,10.0483,54.2933,0,0,0,0,0,0,0,-1,1266,1660,10.0484,-54.2933
49,-636,10.5404,53.6052,0,0,0,0,0,0,0,-1,1273,1660,10.5404,-53.6053
56,-636,10.6208,54.9863,0,0,0,0,0,0,0,-1,1280,1660,10.6209,-54.9863
63,-636,11.1146,54.2675,0.0710445,0.00818685,0.0106804,0.0728097,0.00642167,0.163792,0.0465471,0.0475302,1287,1660,11.1146,-54.2675
70,-636,11.6975,53.4962,0.0479073,0.00323493,0.00625337,0.0487661,0.00237607,0.136489,0.0317484,0.0485884,1294,1660,11.6975,-53.4962
77,-636,12.3969,52.676,0,0,0,0,0,0,0,-1,1301,1660,12.3968,-52.676
84,-636,13.3096,51.6111,0,0,0,0,0,0,0,-1,1308,1660,13.3095,-51.611
91,-636,10.9724,50.5979,-0.0154538,-0.00573419,0.00798502,-0.00124635,-0.0199416,1.05876,0.012899,0.0428913,1315,1660,10.9724,-50.5979
98,-636,10.1057,51.1794,-0.0365957,-0.00819601,0.00829304,-0.0059517,-0.03884,1.3065,0.0241551,0.0452514,1322,1660,10.1057,-51.1794
105,-636,9.22839,51.7568,-0.0581541,-0.013527,0.0087038,-0.0118895,-0.0597916,1.38484,0.0365483,0.0495841,1329,1660,9.22837,-51.7568
112,-636,10.7542,50.7142,0,0,0,0,0,0,0,-1,1336,1660,10.7542,-50.7142
119,-636,8.89795,50.2417,-0.0929878,-0.0242298,0.00732963,-0.0234571,-0.0937604,1.46577,0.0563399,0.0497333,1343,1660,8.89795,-50.2417
126,-636,7.8335,50.5031,-0.102382,-0.0267329,0.00406001,-0.0265156,-0.1026,1.51733,0.0614972,0.0457708,1350,1660,7.83348,-50.5031
133,-636,7.10852,50.6038,-0.100469,-0.0270039,-0.00174306,-0.0269626,-0.10051,-1.54709,0.0600713,0.044069,1357,1660,7.10856,-50.6038
140,-636,6.29199,50.3574,0,0,0,0,0,0,0,-1,1364,1660,6.29196,-50.3575
147,-636,5.17114,59.1694,0,0,0,0,0,0,0,-1,1371,1660,5.17111,-59.1694
154,-636,4.98389,59.8845,0,0,0,0,0,0,0,-1,1378,1660,4.98385,-59.8845
161,-636,10.2961,7.13025,0,0,0,0,0,0,0,-1,1385,1660,10.2961,-7.13021
168,-636,11.7659,5.83899,0,0,0,0,0,0,0,-1,1392,1660,11.7658,-5.83899
175,-636,5.94592,-1.72888,0,0,0,0,0,0,0,-1,1399,1660,5.94598,1.72886
182,-636,5.93994,-1.11938,0,0,0,0,0,0,0,-1,1406,1660,5.93998,1.11936
189,-636,5.32544,11.9595,0,0,0,0,0,0,0,-1,1413,1660,5.32542,-11.9595
196,-636,5.3623,9.38025,0,0,0,0,0,0,0,-1,1420,1660,5.36225,-9.38027
203,-636,5.18542,9.02429,0,0,0,0,0,0,0,-1,1427,1660,5.18547,-9.0243
210,-636,4.09167,7.17041,0,0,0,0,0,0,0,-1,1434,1660,4.09173,-7.17041
217,-636,2.94897,5.28992,0,0,0,0,0,0,0,-1,1441,1660,2.94899,-5.28991
224,-636,1.49194,3.63916,0,0,0,0,0,0,0,-1,1448,1660,1.49197,-3.63918
231,-636,0.17749,2.24854,0,0,0,0,0,0,0,-1,1455,1660,0.177501,-2.24855
238,-636,-0.764648,1.00598,0,0,0,0,0,0,0,-1,1462,1660,-0.764704,-1.00595
245,-636,6.21204,1.18005,0,0,0,0,0,0,0,-1,1469,1660,6.21206,-1.18001
252,-636,7.70251,0.865723,0,0,0,0,0,0,0,-1,1476,1660,7.7025,-0.865692
259,-636,9.03601,0.787231,0,0,0,0,0,0,0,-1,1483,1660,9.03598,-0.787243
266,-636,10.1071,3.24109,0,0,0,0,0,0,0,-1,1490,1660,10.1071,-3.24103
273,-636,8.48535,5.02466,0,0,0,0,0,0,0,-1,1497,1660,8.48533,-5.02472
280,-636,11.908,32.0698,0,0,0,0,0,0,0,-1,1504,1660,11.9079,-32.0698
287,-636,12.1218,36.4158,0,0,0,0,0,0,0,-1,1511,1660,12.1218,-36.4158
294,-636,13.3706,44.9711,0,0,0,0,0,0,0,-1,1518,1660,13.3706,-44.9711
301,-636,13.751,46.0541,0,0,0,0,0,0,0,-1,1525,1660,13.751,-46.054
308,-636,13.9484,45.2999,0,0,0,0,0,0,0,-1,1532,1660,13.9484,-45.2999
315,-636,13.9023,44.8895,0,0,0,0,0,0,0,-1,1539,1660,13.9023,-44.8895
322,-636,13.8455,44.354,0,0,0,0,0,0,0,-1,1546,1660,13.8454,-44.354
329,-636,13.7866,44.0189,0.00853129,0.0271861,-0.00860396,0.0305484,0.00516899,-1.19826,0.01888,0.0343886,1553,1660,13.7866,-44.019
336,-636,13.8765,43.4618,0.00791481,0.024801,-0.00827609,0.0281808,0.00453507,-1.18309,0.0174728,0.0253441,1560,1660,13.8764,-43.4618
343,-636,13.9552,42.9698,0.00721123,0.0225064,-0.00778375,0.0257709,0.0039468,-1.17369,0.0160278,0.0202966,1567,1660,13.9552,-42.9698
350,-636,13.9437,42.4463,0.00664057,0.0198826,-0.00710591,0.022974,0.00354912,-1.16044,0.0142807,0.0126215,1574,1660,13.9437,-42.4463
357,-636,13.9792,41.9139,0.00596261,0.0168641,-0.00611408,0.0196044,0.00322236,-1.14945,0.0121389,0.0112827,1581,1660,13.9793,-41.9139
364,-636,13.9768,41.427,0.00529376,0.0142414,-0.005371,0.0167578,0.00277739,-1.13266,0.0103708,0.0120567,1588,1660,13.9768,-41.427
371,-636,13.9675,40.9695,0.00465831,0.0115919,-0.00469971,0.0139651,0.00228507,-1.10318,0.00864959,0.0103994,1595,1660,13.9676,-40.9694
378,-636,13.9662,40.4722,0.00400027,0.00918529,-0.00397848,0.0113414,0.00184416,-1.07416,0.00702734,0.0104288,1602,1660,13.9661,-40.4722
385,-636,13.9701,39.9688,0.00327805,0.00696261,-0.00327059,0.00887409,0.00136657,-1.04189,0.00551725,0.0157396,1609,1660,13.97,-39.9687
392,-636,13.9407,39.4778,0.00246553,0.00512316,-0.00266688,0.00677395,0.000814746,-1.01653,0.00427037,0.0168573,1616,1660,13.9406,-39.4777
399,-636,13.9236,38.9988,0.00163015,0.00344793,-0.00206602,0.00479614,0.000281945,-0.99262,0.00310771,0.0130089,1623,1660,13.9236,-38.9988
406,-636,13.9412,38.4937,0.00102506,0.00210726,-0.0016993,0.00334952,-0.000217211,-0.939535,0.00230883,0.0152417,1630,1660,13.9412,-38.4936
413,-636,13.9258,37.964,0.000521673,0.00153181,-0.00157653,0.00268221,-0.000628717,-0.940417,0.00203042,0.0238295,1637,1660,13.9258,-37.964
420,-636,13.8718,37.4673,0.000130586,0.00112558,-0.00158458,0.00228893,-0.00103276,-0.937506,0.00196296,0.0244819,1644,1660,13.8718,-37.4673
427,-636,13.8784,36.9435,-9.80083e-05,0.000872979,-0.0017465,0.00220021,-0.00142524,-0.920966,0.00210904,0.0169581,1651,1660,13.8784,-36.9435
434,-636,13.8772,36.4031,-9.75094e-05,0.000944257,-0.002145,0.00263071,-0.00178396,-0.904511,0.00256439,0.0159865,1658,1660,13.8772,-36.4031
441,-636,13.8521,35.8662,0.000132738,0.00117492,-0.00276792,0.00347037,-0.00216272,-0.878439,0.00328134,0.0126367,1665,1660,13.852,-35.8662
448,-636,13.8481,35.3264,0.000574827,0.00143853,-0.00347823,0.00451161,-0.00249826,-0.847161,0.00410242,0.0136178,1672,1660,13.8482,-35.3264
455,-636,13.7903,34.7778,0.00130991,0.0019928,-0.00433346,0.00599824,-0.00269553,-0.824713,0.00513867,0.0135428,1679,1660,13.7903,-34.7779
462,-636,13.7441,34.2294,0.00214658,0.00241357,-0.00514251,0.00742431,-0.00286417,-0.798375,0.00613146,0.0192983,1686,1660,13.7442,-34.2293
469,-636,13.7811,33.6454,0.00284817,0.00320541,-0.00608584,0.00911525,-0.00306167,-0.800069,0.0073142,0.0371659,1693,1660,13.7811,-33.6454
476,-636,13.9172,33.0725,0,0,0,0,0,0,0,-1,1700,1660,13.9172,-33.0725
483,-636,11.3833,24.3958,0,0,0,0,0,0,0,-1,1707,1660,11.3833,-24.3957
490,-636,10.8951,23.9569,0,0,0,0,0,0,0,-1,1714,1660,10.8951,-23.9569
497,-636,9.55579,18.0111,0,0,0,0,0,0,0,-1,1721,1660,9.55574,-18.0111
504,-636,6.26428,19.4268,0,0,0,0,0,0,0,-1,1728,1660,6.26433,-19.4268
511,-636,5.65466,9.23218,0,0,0,0,0,0,0,-1,1735,1660,5.65461,-9.23216
518,-636,6.72791,1.07605,0,0,0,0,0,0,0,-1,1742,1660,6.7279,-1.0761
525,-636,7.04309,0.93335,0,0,0,0,0,0,0,-1,1749,1660,7.04308,-0.933298
532,-636,0,0,0,0,0,0,0,0,0,-1,1756,1660,0,0
539,-636,0,0,0,0,0,0,0,0,0,-1,1763,1660,0,0
546,-636,0,0,0,0,0,0,0,0,0,-1,1770,1660,0,0
553,-636,0,0,0,0,0,0,0,0,0,-1,1777,1660,0,0
560,-636,0,0,0,0,0,0,0,0,0,-1,1784,1660,0,0
567,-636,0,0,0,0,0,0,0,0,0,-1,1791,1660,0,0
574,-636,0,0,0,0,0,0,0,0,0,-1,1798,1660,0,0
581,-636,0,0,0,0,0,0,0,0,0,-1,1805,1660,0,0
588,-636,0,0,0,0,0,0,0,0,0,-1,1812,1660,0,0
595,-636,0,0,0,0,0,0,0,0,0,-1,1819,1660,0,0
602,-636,0,0,0,0,0,0,0,0,0,-1,1826,1660,0,0
609,-636,0,0,0,0,0,0,0,0,0,-1,1833,1660,0,0
616,-636,0,0,0,0,0,0,0,0,0,-1,1840,1660,0,0
623,-636,0,0,0,0,0,0,0,0,0,-1,1847,1660,0,0
630,-636,0,0,0,0,0,0,0,0,0,-1,1854,1660,0,0
637,-636,0,0,0,0,0,0,0,0,0,-1,1861,1660,0,0
644,-636,0,0,0,0,0,0,0,0,0,-1,1868,1660,0,0
651,-636,0,0,0,0,0,0,0,0,0,-1,1875,1660,0,0
658,-636,0,0,0,0,0,0,0,0,0,-1,1882,1660,0,0
665,-636,0,0,0,0,0,0,0,0,0,-1,1889,1660,0,0
672,-636,0,0,0,0,0,0,0,0,0,-1,1896,1660,0,0
679,-636,0,0,0,0,0,0,0,0,0,-1,1903,1660,0,0
686,-636,0,0,0,0,0,0,0,0,0,-1,1910,1660,0,0
693,-636,0,0,0,0,0,0,0,0,0,-1,1917,1660,0,0
700,-636,0,0,0,0,0,0,0,0,0,-1,1924,1660,0,0
707,-636,0,0,0,0,0,0,0,0,0,-1,1931,1660,0,0
714,-636,0,0,0,0,0,0,0,0,0,-1,1938,1660,0,0
721,-636,0,0,0,0,0,0,0,0,0,-1,1945,1660,0,0
728,-636,0,0,0,0,0,0,0,0,0,-1,1952,1660,0,0
735,-636,0,0,0,0,0,0,0,0,0,-1,1959,1660,0,0
742,-636,0,0,0,0,0,0,0,0,0,-1,1966,1660,0,0
749,-636,0,0,0,0,0,0,0,0,0,-1,1973,1660,0,0
756,-636,0,0,0,0,0,0,0,0,0,-1,1980,1660,0,0
763,-636,0,0,0,0,0,0,0,0,0,-1,1987,1660,0,0
770,-636,0,0,0,0,0,0,0,0,0,-1,1994,1660,0,0
777,-636,0,0,0,0,0,0,0,0,0,-1,2001,1660,0,0
784,-636,0,0,0,0,0,0,0,0,0,-1,2008,1660,0,0
791,-636,0,0,0,0,0,0,0,0,0,-1,2015,1660,0,0
798,-636,0,0,0,0,0,0,0,0,0,-1,2022,1660,0,0
805,-636,0,0,0,0,0,0,0,0,0,-1,2029,1660,0,0
812,-636,0,0,0,0,0,0,0,0,0,-1,2036,1660,0,0
-700,-643,0,0,0,0,0,0,0,0,0,-1,524,1667,0,0
-693,-643,0,0,0,0,0,0,0,0,0,-1,531,1667,0,0
-686,-643,0,0,0,0,0,0,0,0,0,-1,538,1667,0,0
-679,-643,0,0,0,0,0,0,0,0,0,-1,545,1667,0,0
-672,-643,0,0,0,0,0,0,0,0,0,-1,552,1667,0,0
-665,-643,0,0,0,0,0,0,0,0,0,-1,559,1667,0,0
-658,-643,0,0,0,0,0,0,0,0,0,-1,566,1667,0,0
-651,-643,0,0,0,0,0,0,0,0,0,-1,573,1667,0,0
-644,-643,0,0,0,0,0,0,0,0,0,-1,580,1667,0,0
-637,-643,0,0,0,0,0,0,0,0,0,-1,587,1667,0,0
-630,-643,0,0,0,0,0,0,0,0,0,-1,594,1667,0,0
-623,-643,0,0,0,0,0,0,0,0,0,-1,601,1667,0,0
-616,-643,0,0,0,0,0,0,0,0,0,-1,608,1667,0,0
-609,-643,0,0,0,0,0,0,0,0,0,-1,615,1667,0,0
-602,-643,0,0,0,0,0,0,0,0,0,-1,622,1667,0,0
-595,-643,0,0,0,0,0,0,0,0,0,-1,629,1667,0,0
-588,-643,0,0,0,0,0,0,0,0,0,-1,636,1667,0,0
-581,-643,0,0,0,0,0,0,0,0,0,-1,643,1667,0,0
-574,-643,0,0,0,0,0,0,0,0,0,-1,650,1667,0,0
-567,-643,0,0,0,0,0,0,0,0,0,-1,657,1667,0,0
-560,-643,0,0,0,0,0,0,0,0,0,-1,664,1667,0,0
-553,-643,0,0,0,0,0,0,0,0,0,-1,671,1667,0,0
-546,-643,0,0,0,0,0,0,0,0,0,-1,678,1667,0,0
-539,-643,0,0,0,0,0,0,0,0,0,-1,685,1667,0,0
-532,-643,0,0,0,0,0,0,0,0,0,-1,692,1667,0,0
-525,-643,0,0,0,0,0,0,0,0,0,-1,699,1667,0,0
-518,-643,0,0,0,0,0,0,0,0,0,-1,706,1667,0,0
-511,-643,0,0,0,0,0,0,0,0,0,-1,713,1667,0,0
-504,-643,0,0,0,0,0,0,0,0,0,-1,720,1667,0,0
-497,-643,0,0,0,0,0,0,0,0,0,-1,727,1667,0,0
-490,-643,0,0,0,0,0,0,0,0,0,-1,734,1667,0,0
-483,-643,0,0,0,0,0,0,0,0,0,-1,741,1667,0,0
-476,-643,0,0,0,0,0,0,0,0,0,-1,748,1667,0,0
-469,-643,0,0,0,0,0,0,0,0,0,-1,755,1667,0,0
-462,-643,0,0,0,0,0,0,0,0,0,-1,762,1667,0,0
-455,-643,0,0,0,0,0,0,0,0,0,-1,769,1667,0,0
-448,-643,0,0,0,0,0,0,0,0,0,-1,776,1667,0,0
-441,-643,0,0,0,0,0,0,0,0,0,-1,783,1667,0,0
-434,-643,0,0,0,0,0,0,0,0,0,-1,790,1667,0,0
-427,-643,0,0,0,0,0,0,0,0,0,-1,797,1667,0,0
-420,-643,0,0,0,0,0,0,0,0,0,-1,804,1667,0,0
-413,-643,0,0,0,0,0,0,0,0,0,-1,811,1667,0,0
-406,-643,0,0,0,0,0,0,0,0,0,-1,818,1667,0,0
-399,-643,0.589417,11.6465,0,0,0,0,0,0,0,-1,825,1667,0.58939,-11.6465
-392,-643,0.865295,12.6523,0,0,0,0,0,0,0,-1,832,1667,0.865315,-12.6523
-385,-643,1.72968,13.2692,0,0,0,0,0,0,0,-1,839,1667,1.72967,-13.2692
-378,-643,2.66522,13.8193,0,0,0,0,0,0,0,-1,846,1667,2.66524,-13.8193
-371,-643,0.466125,3.35095,0,0,0,0,0,0,0,-1,853,1667,0.466148,-3.351
-364,-643,1.69513,9.922,0,0,0,0,0,0,0,-1,860,1667,1.69511,-9.92205
-357,-643,1.14227,10.8429,0,0,0,0,0,0,0,-1,867,1667,1.14228,-10.8429
-350,-643,2.50061,9.96948,0,0,0,0,0,0,0,-1,874,1667,2.50059,-9.96954
-343,-643,4.76001,32.7919,0,0,0,0,0,0,0,-1,881,1667,4.76,-32.7918
-336,-643,4.91309,33.4257,0,0,0,0,0,0,0,-1,888,1667,4.91307,-33.4257
-329,-643,4.95483,33.9364,-1.10927e-05,-0.00151787,0.00299425,0.00232309,-0.00385205,0.662151,0.00360147,0.0426632,895,1667,4.95486,-33.9364
-322,-643,4.99103,34.5533,-0.000754327,-0.00124273,0.00177575,0.000793935,-0.00279099,0.717067,0.00217417,0.0283059,902,1667,4.99101,-34.5533
-315,-643,4.90295,35.0767,-0.00136423,-0.00125143,0.000744302,-0.000561394,-0.00205426,0.823211,0.001226,0.0199449,909,1667,4.90295,-35.0767
-308,-643,4.93372,35.6345,-0.00170751,-0.00103434,3.82547e-05,-0.00103218,-0.00170968,1.51421,0.000994138,0.0138987,916,1667,4.9337,-35.6345
-301,-643,4.92596,36.2168,-0.00189546,-0.00080197,-0.000494681,-0.000611395,-0.00208603,-1.20307,0.00123827,0.0140947,923,1667,4.92597,-36.2168
-294,-643,4.88232,36.7644,-0.00175717,-0.000293221,-0.000647873,-4.76855e-05,-0.0020027,-1.20853,0.00131953,0.0124531,930,1667,4.88231,-36.7644
-287,-643,4.85687,37.2993,-0.00154252,0.000246104,-0.000699285,0.000487042,-0.00178346,-1.23899,0.00138027,0.0102883,937,1667,4.85687,-37.2993
-280,-643,4.83527,37.8386,-0.00118749,0.000787972,-0.0005266,0.00091958,-0.0013191,-1.32589,0.00129934,0.0140085,944,1667,4.83529,-37.8386
-273,-643,4.81311,38.3761,-0.000647494,0.00136095,-0.000146391,0.00137156,-0.000658108,-1.49842,0.00119572,0.0126442,951,1667,4.81314,-38.376
-266,-643,4.77979,38.9208,8.95816e-05,0.00200818,0.000350368,0.00207016,2.76008e-05,1.39571,0.001371,0.0125528,958,1667,4.77976,-38.9208
-259,-643,4.75275,39.4655,0.00082199,0.00254566,0.00082551,0.00287724,0.000490416,1.18886,0.00177738,0.012642,965,1667,4.75276,-39.4655
-252,-643,4.74921,39.9994,0.00153299,0.00306565,0.00118142,0.00370752,0.000891123,1.07311,0.00223467,0.013576,972,1667,4.74918,-39.9994
-245,-643,4.7323,40.5131,0.00229218,0.00355592,0.00149181,0.00454416,0.00130394,0.985722,0.00270179,0.0124737,979,1667,4.73233,-40.513
-238,-643,4.75879,41.0093,0.00305485,0.00388591,0.00177308,0.0052915,0.00164926,0.900498,0.00312644,0.0157145,986,1667,4.75878,-41.0092
-231,-643,4.73779,41.5052,0.00408804,0.00434066,0.00203979,0.00625805,0.00217066,0.81632,0.00366914,0.0113243,993,1667,4.73779,-41.5053
-224,-643,4.73755,41.9727,0.00543356,0.00505658,0.00260505,0.00785693,0.00263321,0.749284,0.00461765,0.00935288,1000,1667,4.73755,-41.9727
-217,-643,4.71997,42.4329,0.00650722,0.00562918,0.00293078,0.00903168,0.00310473,0.711053,0.00529863,0.0087945,1007,1667,4.71999,-42.4329
-210,-643,4.71271,42.9518,0.00794355,0.00634322,0.00336032,0.0105977,0.00368911,0.668514,0.00621196,0.0122295,1014,1667,4.71272,-42.9518
-203,-643,4.72717,43.5016,0.00973104,0.00736925,0.00408866,0.0128059,0.00429437,0.644813,0.00752596,0.0165658,1021,1667,4.7272,-43.5016
-196,-643,4.75842,43.9557,0.0114967,0.00856795,0.00494626,0.0151908,0.00487386,0.64148,0.00895612,0.016217,1028,1667,4.75837,-43.9557
-189,-643,4.8501,44.3654,0.0133546,0.0103968,0.0059552,0.0180118,0.00573959,0.66369,0.0106246,0.015121,1035,1667,4.85008,-44.3654
-182,-643,4.90894,44.8605,0.0152387,0.0123644,0.00702141,0.0209685,0.00663459,0.684454,0.0123752,0.0229458,1042,1667,4.90889,-44.8605
-175,-643,5.02515,45.3954,0.0168231,0.0147994,0.00789551,0.0237713,0.00785116,0.72167,0.0139854,0.0355595,1049,1667,5.02511,-45.3954
-168,-643,5.0293,45.7673,0.0183109,0.0178987,0.00891051,0.0270177,0.00919192,0.773834,0.0158619,0.0430307,1056,1667,5.0293,-45.7673
-161,-643,5.06812,46.2296,0.0194062,0.0210686,0.00954861,0.0298221,0.0106527,0.828815,0.0174503,0.0447273,1063,1667,5.06818,-46.2296
-154,-643,5.29517,46.6021,0.0196877,0.0245358,0.00953324,0.0319484,0.0122751,0.909898,0.0186095,0.0457085,1070,1667,5.29511,-46.6021
-147,-643,5.49792,47.1053,0,0,0,0,0,0,0,-1,1077,1667,5.49796,-47.1053
-140,-643,4.30322,22.9166,0,0,0,0,0,0,0,-1,1084,1667,4.30327,-22.9167
-133,-643,3.66748,21.6034,0,0,0,0,0,0,0,-1,1091,1667,3.66743,-21.6034
-126,-643,3.13904,17.689,0,0,0,0,0,0,0,-1,1098,1667,3.13909,-17.689
-119,-643,3.76282,14.1458,0,0,0,0,0,0,0,-1,1105,1667,3.76283,-14.1458
-112,-643,3.81458,16.2069,0,0,0,0,0,0,0,-1,1112,1667,3.81463,-16.2069
-105,-643,-2.23413,10.0996,0,0,0,0,0,0,0,-1,1119,1667,-2.23415,-10.0996
-98,-643,3.11035,4.68066,0,0,0,0,0,0,0,-1,1126,1667,3.11041,-4.68071
-91,-643,-1.74146,-2.5885,0,0,0,0,0,0,0,-1,1133,1667,-1.74146,2.58856
-84,-643,-3.07446,-0.199341,0,0,0,0,0,0,0,-1,1140,1667,-3.07449,0.199383
-77,-643,-3.63794,2.81165,0,0,0,0,0,0,0,-1,1147,1667,-3.63791,-2.8117
-70,-643,-3.36938,4.45203,0,0,0,0,0,0,0,-1,1154,1667,-3.36941,-4.452
-63,-643,-3.67822,6.26855,0,0,0,0,0,0,0,-1,1161,1667,-3.67823,-6.26856
-56,-643,-3.95142,8.1073,0,0,0,0,0,0,0,-1,1168,1667,-3.95139,-8.10732
-49,-643,-4.23535,9.90552,0,0,0,0,0,0,0,-1,1175,1667,-4.23537,-9.90557
-42,-643,-4.25195,10.7059,0,0,0,0,0,0,0,-1,1182,1667,-4.25192,-10.706
-35,-643,-4.10986,11.6588,0,0,0,0,0,0,0,-1,1189,1667,-4.10982,-11.6589
-28,-643,-1.38513,5.604,0,0,0,0,0,0,0,-1,1196,1667,-1.3851,-5.60403
-21,-643,1.61011,23.1276,0,0,0,0,0,0,0,-1,1203,1667,1.61011,-23.1275
-14,-643,6.74866,48.6038,0,0,0,0,0,0,0,-1,1210,1667,6.74862,-48.6037
-7,-643,10.2899,59.9087,0,0,0,0,0,0,0,-1,1217,1667,10.2899,-59.9087
0,-643,7.14453,53.7034,0,0,0,0,0,0,0,-1,1224,1667,7.14452,-53.7033
7,-643,7.80396,54.2738,0,0,0,0,0,0,0,-1,1231,1667,7.80398,-54.2738
14,-643,8.59167,55.1035,0,0,0,0,0,0,0,-1,1238,1667,8.59171,-55.1035
21,-643,9.12073,55.2671,0,0,0,0,0,0,0,-1,1245,1667,9.1207,-55.2671
28,-643,9.87244,54.968,0,0,0,0,0,0,0,-1,1252,1667,9.87243,-54.9681
35,-643,8.48267,55.7452,0.110789,0.0387368,0.0344111,0.124583,0.0249432,0.381237,0.0761155,0.0444456,1259,1667,8.48268,-55.7452
42,-643,8.88184,55.2854,0.0971229,0.0310534,0.0262399,0.106276,0.0219002,0.335631,0.0647964,0.0465783,1266,1667,8.88187,-55.2854
49,-643,9.32324,55.0931,0,0,0,0,0,0,0,-1,1273,1667,9.32318,-55.0932
56,-643,9.96997,54.537,0.0683058,0.0195106,0.0135482,0.0718151,0.0160013,0.253454,0.0435345,0.0455295,1280,1667,9.96998,-54.537
63,-643,10.5619,54,0.0544954,0.0145005,0.00911038,0.0564729,0.012523,0.213741,0.0342462,0.048181,1287,1667,10.5618,-54
70,-643,11.1031,53.3357,0.0358045,0.00835876,0.0047894,0.0366162,0.007547,0.167896,0.0223245,0.0470044,1294,1667,11.1032,-53.3357
77,-643,11.7379,52.5686,0.0166431,0.00341829,0.00289487,0.017249,0.00281237,0.206329,0.010686,0.0433205,1301,1667,11.7379,-52.5686
84,-643,12.6442,51.5587,-0.000123739,5.93333e-05,0.00290672,0.00287595,-0.00294036,0.801139,0.00335812,0.0473208,1308,1667,12.6441,-51.5587
91,-643,10.9324,51.1599,0,0,0,0,0,0,0,-1,1315,1667,10.9324,-51.1599
98,-643,10.29,51.219,-0.0340988,-0.00774294,0.0037629,-0.00721623,-0.0346255,1.43172,0.0210938,0.0441582,1322,1667,10.29,-51.219
105,-643,9.64087,51.2852,-0.0528901,-0.0127118,0.00356933,-0.0123972,-0.0532047,1.48288,0.0321444,0.0475388,1329,1667,9.64091,-51.2852
112,-643,10.158,50.8438,-0.0697412,-0.0178153,0.00289089,-0.0176548,-0.0699017,1.51535,0.0419727,0.0473957,1336,1667,10.158,-50.8437
119,-643,8.76904,50.6238,-0.0828875,-0.0222651,0.001785,-0.0222126,-0.08294,1.54139,0.0495766,0.0467566,1343,1667,8.76902,-50.6238
126,-643,8.54639,50.3436,0,0,0,0,0,0,0,-1,1350,1667,8.54639,-50.3436
133,-643,7.4408,50.7534,-0.0875004,-0.022978,-0.00517343,-0.0225659,-0.0879126,-1.49129,0.0527215,0.047068,1357,1667,7.4408,-50.7535
140,-643,7.36328,49.9993,-0.0762356,-0.0207847,-0.00950474,-0.0192008,-0.0778195,-1.40567,0.046811,0.0431438,1364,1667,7.36328,-49.9993
147,-643,7.3125,49.056,0,0,0,0,0,0,0,-1,1371,1667,7.31251,-49.056
154,-643,4.88708,58.9608,0,0,0,0,0,0,0,-1,1378,1667,4.88705,-58.9608
161,-643,5.57935,26.2754,0,0,0,0,0,0,0,-1,1385,1667,5.57931,-26.2754
168,-643,10.5563,10.9818,0,0,0,0,0,0,0,-1,1392,1667,10.5562,-10.9819
175,-643,5.88525,-1.1698,0,0,0,0,0,0,0,-1,1399,1667,5.88526,1.16977
182,-643,5.80945,-0.418701,0,0,0,0,0,0,0,-1,1406,1667,5.80949,0.418712
189,-643,5.42297,12.9208,0,0,0,0,0,0,0,-1,1413,1667,5.42298,-12.9208
196,-643,5.51953,11.2415,0,0,0,0,0,0,0,-1,1420,1667,5.51948,-11.2414
203,-643,5.60828,9.82153,0,0,0,0,0,0,0,-1,1427,1667,5.60833,-9.82148
210,-643,4.73218,7.58728,0,0,0,0,0,0,0,-1,1434,1667,4.73222,-7.58728
217,-643,3.8031,5.28955,0,0,0,0,0,0,0,-1,1441,1667,3.80305,-5.28955
224,-643,2.96436,2.97095,0,0,0,0,0,0,0,-1,1448,1667,2.96432,-2.97095
231,-643,2.13403,1.08472,0,0,0,0,0,0,0,-1,1455,1667,2.13403,-1.08467
238,-643,1.18152,-0.261963,0,0,0,0,0,0,0,-1,1462,1667,1.18152,0.26192
245,-643,-0.157471,-1.79016,0,0,0,0,0,0,0,-1,1469,1667,-0.157517,1.7901
252,-643,8.08789,0.0202637,0,0,0,0,0,0,0,-1,1476,1667,8.08791,-0.0203056
259,-643,9.02979,-0.46936,0,0,0,0,0,0,0,-1,1483,1667,9.02974,0.46933
266,-643,4.55066,5.17554,0,0,0,0,0,0,0,-1,1490,1667,4.55063,-5.17556
273,-643,10.74,31.432,0,0,0,0,0,0,0,-1,1497,1667,10.7399,-31.4319
280,-643,12.1675,42.5023,0,0,0,0,0,0,0,-1,1504,1667,12.1675,-42.5023
287,-643,12.9725,46.299,0,0,0,0,0,0,0,-1,1511,1667,12.9725,-46.299
294,-643,13.4797,46.184,0,0,0,0,0,0,0,-1,1518,1667,13.4797,-46.184
301,-643,13.2878,45.8748,0.0096892,0.0214303,-0.00541571,0.0235469,0.00757269,-1.19824,0.0138802,0.038154,1525,1667,13.2878,-45.8747
308,-643,13.4248,45.2064,0.00897474,0.0211856,-0.00554993,0.0233311,0.00682923,-1.20191,0.0138507,0.0334443,1532,1667,13.4248,-45.2065
315,-643,13.4436,44.7655,0.00808493,0.0207202,-0.00561667,0.022856,0.0059492,-1.20743,0.0136921,0.026792,1539,1667,13.4437,-44.7655
322,-643,13.4305,44.2754,0.00736838,0.020325,-0.00585535,0.022579,0.00511436,-1.20333,0.0136706,0.016188,1546,1667,13.4306,-44.2754
329,-643,13.4471,43.7788,0.00662653,0.0193058,-0.00576476,0.0215349,0.00439742,-1.20183,0.0131385,0.0118463,1553,1667,13.4471,-43.7789
336,-643,13.4296,43.3558,0.00605816,0.0177809,-0.00562328,0.0200422,0.00379692,-1.18846,0.0122929,0.0113773,1560,1667,13.4296,-43.3558
343,-643,13.455,42.9164,0.00544177,0.0162752,-0.00538352,0.0184955,0.00322154,-1.17964,0.0114091,0.0127997,1567,1667,13.4549,-42.9164
350,-643,13.5084,42.4248,0.00494568,0.014459,-0.00506364,0.0166497,0.00275494,-1.16247,0.010305,0.0120439,1574,1667,13.5085,-42.4248
357,-643,13.4951,41.9447,0.00441188,0.0123986,-0.00455528,0.0144631,0.0023474,-1.14528,0.00896266,0.0111077,1581,1667,13.4951,-41.9447
364,-643,13.4852,41.4578,0.00387544,0.01052,-0.00417147,0.0125305,0.00186492,-1.12168,0.00780664,0.0106105,1588,1667,13.4852,-41.4578
371,-643,13.4862,41.0111,0.00329185,0.00860072,-0.00374371,0.0105356,0.00135701,-1.09378,0.00661791,0.0088607,1595,1667,13.4862,-41.0112
378,-643,13.4724,40.5369,0.00273881,0.00677116,-0.0032902,0.00861378,0.00089618,-1.06028,0.00546833,0.0101234,1602,1667,13.4724,-40.5369
385,-643,13.4722,40.0198,0.00209329,0.00502251,-0.00282118,0.00673661,0.000379198,-1.02482,0.00437016,0.0156638,1609,1667,13.4721,-40.0197
392,-643,13.4462,39.5397,0.00128778,0.00357406,-0.00241035,0.00509861,-0.000236767,-1.00682,0.00348068,0.0167765,1616,1667,13.4462,-39.5397
399,-643,13.4218,39.0581,0.000456237,0.0022763,-0.00198179,0.00354702,-0.000814476,-1.00064,0.00267778,0.0150004,1623,1667,13.4217,-39.0581
406,-643,13.4283,38.5082,-0.000128568,0.00127208,-0.00178357,0.00248789,-0.00134438,-0.972476,0.00224515,0.014259,1630,1667,13.4284,-38.5081
413,-643,13.4354,37.9829,-0.000643704,0.000910324,-0.00176089,0.00205802,-0.0017914,-0.99318,0.00222424,0.020745,1637,1667,13.4355,-37.9829
420,-643,13.37,37.4889,-0.00105556,0.000660627,-0.00183866,0.00183157,-0.00222651,-1.00372,0.00234663,0.0199758,1644,1667,13.37,-37.4888
427,-643,13.3561,36.963,-0.001265,0.000602133,-0.0020969,0.0019639,-0.00262677,-0.994831,0.00265962,0.016662,1651,1667,13.356,-36.963
434,-643,13.3486,36.4448,-0.00120856,0.000822317,-0.00255102,0.00255257,-0.00293882,-0.974811,0.00317307,0.0173019,1658,1667,13.3486,-36.4449
441,-643,13.3209,35.9012,-0.000794695,0.00123355,-0.00332849,0.00369898,-0.00326013,-0.93327,0.00402051,0.015143,1665,1667,13.3209,-35.9012
448,-643,13.2917,35.3535,-0.000111678,0.00175199,-0.00422058,0.00514238,-0.00350207,-0.894047,0.00502074,0.0177764,1672,1667,13.2917,-35.3535
455,-643,13.2357,34.8044,0.00100932,0.00263445,-0.00530044,0.00718425,-0.00354048,-0.861457,0.00630993,0.0276812,1679,1667,13.2358,-34.8044
462,-643,13.3285,33.9446,0.00234897,0.00339442,-0.00641096,0.00930393,-0.00356054,-0.826076,0.00767007,0.0441874,1686,1667,13.3284,-33.9446
469,-643,13.2921,33.649,0,0,0,0,0,0,0,-1,1693,1667,13.2921,-33.6491
476,-643,10.5598,24.5066,0,0,0,0,0,0,0,-1,1700,1667,10.5598,-24.5065
483,-643,10.4502,24.3062,0,0,0,0,0,0,0,-1,1707,1667,10.4502,-24.3062
490,-643,10.6885,24.1522,0,0,0,0,0,0,0,-1,1714,1667,10.6884,-24.1522
497,-643,10.9073,23.9465,0,0,0,0,0,0,0,-1,1721,1667,10.9074,-23.9465
504,-643,8.05591,19.0656,0,0,0,0,0,0,0,-1,1728,1667,8.0559,-19.0655
511,-643,7.74719,18.1564,0,0,0,0,0,0,0,-1,1735,1667,7.74724,-18.1563
518,-643,7.40564,0.922607,0,0,0,0,0,0,0,-1,1742,1667,7.4057,-0.922598
525,-643,0,0,0,0,0,0,0,0,0,-1,1749,1667,0,0
532,-643,0,0,0,0,0,0,0,0,0,-1,1756,1667,0,0
539,-643,0,0,0,0,0,0,0,0,0,-1,1763,1667,0,0
546,-643,0,0,0,0,0,0,0,0,0,-1,1770,1667,0,0
553,-643,0,0,0,0,0,0,0,0,0,-1,1777,1667,0,0
560,-643,0,0,0,0,0,0,0,0,0,-1,1784,1667,0,0
567,-643,0,0,0,0,0,0,0,0,0,-1,1791,1667,0,0
574,-643,0,0,0,0,0,0,0,0,0,-1,1798,1667,0,0
581,-643,0,0,0,0,0,0,0,0,0,-1,1805,1667,0,0
588,-643,0,0,0,0,0,0,0,0,0,-1,1812,1667,0,0
595,-643,0,0,0,0,0,0,0,0,0,-1,1819,1667,0,0
602,-643,0,0,0,0,0,0,0,0,0,-1,1826,1667,0,0
609,-643,0,0,0,0,0,0,0,0,0,-1,1833,1667,0,0
616,-643,0,0,0,0,0,0,0,0,0,-1,1840,1667,0,0
623,-643,0,0,0,0,0,0,0,0,0,-1,1847,1667,0,0
630,-643,0,0,0,0,0,0,0,0,0,-1,1854,1667,0,0
637,-643,0,0,0,0,0,0,0,0,0,-1,1861,1667,0,0
644,-643,0,0,0,0,0,0,0,0,0,-1,1868,1667,0,0
651,-643,0,0,0,0,0,0,0,0,0,-1,1875,1667,0,0
658,-643,0,0,0,0,0,0,0,0,0,-1,1882,1667,0,0
665,-643,0,0,0,0,0,0,0,0,0,-1,1889,1667,0,0
672,-643,0,0,0,0,0,0,0,0,0,-1,1896,1667,0,0
679,-643,0,0,0,0,0,0,0,0,0,-1,1903,1667,0,0
686,-643,0,0,0,0,0,0,0,0,0,-1,1910,1667,0,0
693,-643,0,0,0,0,0,0,0,0,0,-1,1917,1667,0,0
700,-643,0,0,0,0,0,0,0,0,0,-1,1924,1667,0,0
707,-643,0,0,0,0,0,0,0,0,0,-1,1931,1667,0,0
714,-643,0,0,0,0,0,0,0,0,0,-1,1938,1667,0,0
721,-643,0,0,0,0,0,0,0,0,0,-1,1945,1667,0,0
728,-643,0,0,0,0,0,0,0,0,0,-1,1952,1667,0,0
735,-643,0,0,0,0,0,0,0,0,0,-1,1959,1667,0,0
742,-643,0,0,0,0,0,0,0,0,0,-1,1966,1667,0,0
749,-643,0,0,0,0,0,0,0,0,0,-1,1973,1667,0,0
756,-643,0,0,0,0,0,0,0,0,0,-1,1980,1667,0,0
763,-643,0,0,0,0,0,0,0,0,0,-1,1987,1667,0,0
770,-643,0,0,0,0,0,0,0,0,0,-1,1994,1667,0,0
777,-643,0,0,0,0,0,0,0,0,0,-1,2001,1667,0,0
784,-643,0,0,0,0,0,0,0,0,0,-1,2008,1667,0,0
791,-643,0,0,0,0,0,0,0,0,0,-1,2015,1667,0,0
798,-643,0,0,0,0,0,0,0,0,0,-1,2022,1667,0,0
805,-643,0,0,0,0,0,0,0,0,0,-1,2029,1667,0,0
812,-643,0,0,0,0,0,0,0,0,0,-1,2036,1667,0,0
-700,-650,0,0,0,0,0,0,0,0,0,-1,524,1674,0,0
-693,-650,0,0,0,0,0,0,0,0,0,-1,531,1674,0,0
-686,-650,0,0,0,0,0,0,0,0,0,-1,538,1674,0,0
-679,-650,0,0,0,0,0,0,0,0,0,-1,545,1674,0,0
-672,-650,0,0,0,0,0,0,0,0,0,-1,552,1674,0,0
-665,-650,0,0,0,0,0,0,0,0,0,-1,559,1674,0,0
-658,-650,0,0,0,0,0,0,0,0,0,-1,566,1674,0,0
-651,-650,0,0,0,0,0,0,0,0,0,-1,573,1674,0,0
-644,-650,0,0,0,0,0,0,0,0,0,-1,580,1674,0,0
-637,-650,0,0,0,0,0,0,0,0,0,-1,587,1674,0,0
-630,-650,0,0,0,0,0,0,0,0,0,-1,594,1674,0,0
-623,-650,0,0,0,0,0,0,0,0,0,-1,601,1674,0,0
-616,-650,0,0,0,0,0,0,0,0,0,-1,608,1674,0,0
-609,-650,0,0,0,0,0,0,0,0,0,-1,615,1674,0,0
-602,-650,0,0,0,0,0,0,0,0,0,-1,622,1674,0,0
-595,-650,0,0,0,0,0,0,0,0,0,-1,629,1674,0,0
-588,-650,0,0,0,0,0,0,0,0,0,-1,636,1674,0,0
-581,-650,0,0,0,0,0,0,0,0,0,-1,643,1674,0,0
-574,-650,0,0,0,0,0,0,0,0,0,-1,650,1674,0,0
-567,-650,0,0,0,0,0,0,0,0,0,-1,657,1674,0,0
-560,-650,0,0,0,0,0,0,0,0,0,-1,664,1674,0,0
-553,-650,0,0,0,0,0,0,0,0,0,-1,671,1674,0,0
-546,-650,0,0,0,0,0,0,0,0,0,-1,678,1674,0,0
-539,-650,0,0,0,0,0,0,0,0,0,-1,685,1674,0,0
-532,-650,0,0,0,0,0,0,0,0,0,-1,692,1674,0,0
-525,-650,0,0,0,0,0,0,0,0,0,-1,699,1674,0,0
-518,-650,0,0,0,0,0,0,0,0,0,-1,706,1674,0,0
-511,-650,0,0,0,0,0,0,0,0,0,-1,713,1674,0,0
-504,-650,0,0,0,0,0,0,0,0,0,-1,720,1674,0,0
-497,-650,0,0,0,0,0,0,0,0,0,-1,727,1674,0,0
-490,-650,0,0,0,0,0,0,0,0,0,-1,734,1674,0,0
-483,-650,0,0,0,0,0,0,0,0,0,-1,741,1674,0,0
-476,-650,0,0,0,0,0,0,0,0,0,-1,748,1674,0,0
-469,-650,0,0,0,0,0,0,0,0,0,-1,755,1674,0,0
-462,-650,0,0,0,0,0,0,0,0,0,-1,762,1674,0,0
-455,-650,0,0,0,0,0,0,0,0,0,-1,769,1674,0,0
-448,-650,0,0,0,0,0,0,0,0,0,-1,776,1674,0,0
-441,-650,0,0,0,0,0,0,0,0,0,-1,783,1674,0,0
-434,-650,0,0,0,0,0,0,0,0,0,-1,790,1674,0,0
-427,-650,0,0,0,0,0,0,0,0,0,-1,797,1674,0,0
-420,-650,0,0,0,0,0,0,0,0,0,-1,804,1674,0,0
-413,-650,0,0,0,0,0,0,0,0,0,-1,811,1674,0,0
-406,-650,0,0,0,0,0,0,0,0,0,-1,818,1674,0,0
-399,-650,0,0,0,0,0,0,0,0,0,-1,825,1674,0,0
-392,-650,5.44415,6.85669,0,0,0,0,0,0,0,-1,832,1674,5.44414,-6.85674
-385,-650,1.74451,14.0183,0,0,0,0,0,0,0,-1,839,1674,1.74453,-14.0183
-378,-650,0.997986,4.11108,0,0,0,0,0,0,0,-1,846,1674,0.998006,-4.11113
-371,-650,-1.80096,3.78625,0,0,0,0,0,0,0,-1,853,1674,-1.80094,-3.78625
-364,-650,-2.95679,2.57507,0,0,0,0,0,0,0,-1,860,1674,-2.95681,-2.57506
-357,-650,1.97833,10.8362,0,0,0,0,0,0,0,-1,867,1674,1.97835,-10.8362
-350,-650,-5.30243,0.159912,0,0,0,0,0,0,0,-1,874,1674,-5.30244,-0.159866
-343,-650,-6.21338,-1.4425,0,0,0,0,0,0,0,-1,881,1674,-6.21341,1.44248
-336,-650,4.6756,33.0721,0,0,0,0,0,0,0,-1,888,1674,4.67559,-33.0722
-329,-650,5.47339,33.9558,0,0,0,0,0,0,0,-1,895,1674,5.47337,-33.9558
-322,-650,5.51489,34.668,-0.00150329,-0.00154402,0.00151419,-9.33046e-06,-0.00303798,0.778675,0.00202222,0.0484592,902,1674,5.51489,-34.6679
-315,-650,5.35919,34.986,-0.0023476,-0.00142521,0.000255871,-0.00135899,-0.00241382,1.31753,0.00139731,0.0440049,909,1674,5.35918,-34.9859
-308,-650,5.47162,35.5343,-0.00288901,-0.00126588,-0.000635926,-0.0010464,-0.00310848,-1.23847,0.00182634,0.0269403,916,1674,5.47165,-35.5343
-301,-650,5.47943,36.25,-0.00323233,-0.00112388,-0.00133375,-0.000478024,-0.00387818,-1.11984,0.00244176,0.0142648,923,1674,5.47944,-36.25
-294,-650,5.41583,36.7853,-0.00317176,-0.000604675,-0.00156102,0.000132736,-0.00390918,-1.12948,0.00265147,0.0107664,930,1674,5.41584,-36.7853
-287,-650,5.39746,37.3352,-0.0030075,-0.000184091,-0.00165918,0.00058269,-0.00377428,-1.13789,0.00273121,0.012712,937,1674,5.39744,-37.3352
-280,-650,5.35791,37.8607,-0.00272555,0.000205565,-0.00153351,0.000861214,-0.0033812,-1.16677,0.00258939,0.0139095,944,1674,5.35791,-37.8608
-273,-650,5.33038,38.4161,-0.00222386,0.000681366,-0.00115821,0.00108659,-0.00262908,-1.23424,0.002206,0.0142523,951,1674,5.3304,-38.4161
-266,-650,5.26685,38.9556,-0.00146298,0.00123648,-0.00062796,0.00137541,-0.00160191,-1.35307,0.00172061,0.0117693,958,1674,5.26688,-38.9556
-259,-650,5.24243,39.4799,-0.000730187,0.00164458,-0.000140092,0.00165282,-0.000738423,-1.51208,0.00141383,0.0144811,965,1674,5.24241,-39.4799
-252,-650,5.24933,40.0088,-4.58326e-05,0.00202885,0.000234992,0.00205513,-7.21161e-05,1.45941,0.00139475,0.0130363,972,1674,5.24934,-40.0088
-245,-650,5.25488,40.4941,0.000709242,0.00245737,0.000588626,0.00263709,0.000529519,1.27446,0.00161083,0.0115173,979,1674,5.25491,-40.4941
-238,-650,5.26025,41.0109,0.00147612,0.00279788,0.000957145,0.00330014,0.000973865,1.08755,0.00195794,0.0132873,986,1674,5.26023,-41.0109
-231,-650,5.20886,41.5386,0.00244562,0.00316416,0.00128527,0.00413942,0.00147035,0.921685,0.00242307,0.0181988,993,1674,5.20885,-41.5386
-224,-650,5.19696,42.0194,0.00362517,0.00368875,0.00178695,0.00544419,0.00186972,0.794291,0.00319416,0.0144568,1000,1674,5.19699,-42.0194
-217,-650,5.20007,42.4617,0.00458635,0.00413658,0.00208391,0.00645748,0.00226545,0.731648,0.00378313,0.00950315,1007,1674,5.20006,-42.4617
-210,-650,5.20343,42.9489,0.00580055,0.0047516,0.0024492,0.0077808,0.00277135,0.679921,0.00455377,0.00916686,1014,1674,5.2034,-42.9488
-203,-650,5.2428,43.4333,0.00722046,0.0055109,0.00298348,0.00946919,0.00326217,0.645883,0.00555447,0.0138774,1021,1674,5.24278,-43.4334
-196,-650,5.25354,43.8788,0.00857866,0.00637601,0.00361899,0.0112602,0.00369448,0.637691,0.00662791,0.0137338,1028,1674,5.25348,-43.8788
-189,-650,5.25476,44.3171,0.00994879,0.00776075,0.00433336,0.0133241,0.00438544,0.661749,0.00784096,0.0109231,1035,1674,5.25476,-44.3171
-182,-650,5.30579,44.8252,0.0112983,0.00932444,0.00502114,0.0154285,0.00519414,0.68836,0.00906473,0.0106778,1042,1674,5.30583,-44.8252
-175,-650,5.32581,45.2211,0.0124412,0.0112199,0.00554571,0.0174098,0.00625132,0.730562,0.0101838,0.0173747,1049,1674,5.32581,-45.2211
-168,-650,5.30225,45.6395,0.0134832,0.0136416,0.00619689,0.0197598,0.00736501,0.791787,0.0115309,0.0225504,1056,1674,5.3022,-45.6395
-161,-650,5.36389,46.0398,0.0142512,0.0161649,0.00658495,0.0218622,0.00855393,0.85755,0.0127212,0.0307249,1063,1674,5.36391,-46.0398
-154,-650,5.52209,46.4337,0.0145212,0.0189505,0.00652447,0.0236259,0.00984573,0.949017,0.0137033,0.0361507,1070,1674,5.52208,-46.4338
-147,-650,5.48877,47.0148,0,0,0,0,0,0,0,-1,1077,1674,5.48879,-47.0148
-140,-650,5.33154,48.355,0,0,0,0,0,0,0,-1,1084,1674,5.33148,-48.355
-133,-650,5.11548,48.2588,0,0,0,0,0,0,0,-1,1091,1674,5.11545,-48.2588
-126,-650,4.98364,48.4218,0,0,0,0,0,0,0,-1,1098,1674,4.98358,-48.4217
-119,-650,5.16663,20.6232,0,0,0,0,0,0,0,-1,1105,1674,5.16665,-20.6232
-112,-650,3.86292,14.4513,0,0,0,0,0,0,0,-1,1112,1674,3.8629,-14.4513
-105,-650,7.92102,38.1313,0,0,0,0,0,0,0,-1,1119,1674,7.92104,-38.1314
-98,-650,3.3761,6.78003,0,0,0,0,0,0,0,-1,1126,1674,3.37611,-6.78009
-91,-650,3.66809,7.04443,0,0,0,0,0,0,0,-1,1133,1674,3.66806,-7.04439
-84,-650,-3.82666,-1.59521,0,0,0,0,0,0,0,-1,1140,1674,-3.82661,1.59517
-77,-650,-4.70557,1.90198,0,0,0,0,0,0,0,-1,1147,1674,-4.7056,-1.90194
-70,-650,-4.88171,3.81653,0,0,0,0,0,0,0,-1,1154,1674,-4.88176,-3.81651
-63,-650,-5.14612,5.56543,0,0,0,0,0,0,0,-1,1161,1674,-5.14612,-5.56547
-56,-650,-5.38367,7.41101,0,0,0,0,0,0,0,-1,1168,1674,-5.38361,-7.41102
-49,-650,-5.11316,8.23706,0,0,0,0,0,0,0,-1,1175,1674,-5.11317,-8.23708
-42,-650,-4.99487,9.6792,0,0,0,0,0,0,0,-1,1182,1674,-4.99484,-9.67921
-35,-650,-4.77771,11.3369,0,0,0,0,0,0,0,-1,1189,1674,-4.77769,-11.3369
-28,-650,-4.1936,13.1501,0,0,0,0,0,0,0,-1,1196,1674,-4.19358,-13.1501
-21,-650,7.52466,48.5822,0,0,0,0,0,0,0,-1,1203,1674,7.52469,-48.5821
-14,-650,5.25244,53.3812,0,0,0,0,0,0,0,-1,1210,1674,5.25247,-53.3813
-7,-650,6.46851,53.0328,0,0,0,0,0,0,0,-1,1217,1674,6.46854,-53.0328
0,-650,7.04822,53.5049,0.148919,0.0762651,0.0444506,0.169998,0.0551855,0.442816,0.100141,0.0427958,1224,1674,7.04822,-53.5049
7,-650,7.69238,54.0332,0,0,0,0,0,0,0,-1,1231,1674,7.69236,-54.0332
14,-650,8.41833,54.5486,0.124489,0.0662872,0.0454909,0.14939,0.0413854,0.500846,0.0890635,0.0409149,1238,1674,8.41836,-54.5486
21,-650,8.99731,55.0483,0.110619,0.0589659,0.0409716,0.133225,0.0363601,0.504179,0.0795174,0.0441352,1245,1674,8.99727,-55.0483
28,-650,9.32397,55.3616,0.098149,0.0514127,0.0348763,0.116762,0.0327996,0.490234,0.0695364,0.0449134,1252,1674,9.32399,-55.3615
35,-650,9.78418,55.6248,0.0881946,0.0437508,0.0282195,0.101891,0.030054,0.451873,0.0604533,0.0441932,1259,1674,9.78414,-55.6248
42,-650,7.92151,56.0862,0.077126,0.0370333,0.021941,0.0867994,0.0273599,0.415246,0.0512418,0.0453946,1266,1674,7.92152,-56.0862
49,-650,8.54919,55.3694,0.0654208,0.030315,0.0176509,0.0727609,0.022975,0.394092,0.0429486,0.046642,1273,1674,8.54923,-55.3694
56,-650,9.16296,54.6691,0.0537674,0.0249279,0.0119445,0.058072,0.0206233,0.345894,0.0339937,0.0499537,1280,1674,9.16302,-54.6691
63,-650,9.77344,53.9287,0.0420124,0.0190065,0.00777844,0.0443955,0.0166235,0.297291,0.0258997,0.0495452,1287,1674,9.77341,-53.9287
70,-650,10.4099,53.2075,0.0266879,0.0121525,0.00367066,0.0275623,0.0112782,0.233845,0.0160003,0.0480724,1294,1674,10.4099,-53.2075
77,-650,11.0614,52.4418,0.0114083,0.00649979,0.00163793,0.0119047,0.00600342,0.294249,0.00687326,0.0437737,1301,1674,11.0614,-52.4418
84,-650,11.6461,51.7855,-0.0023826,0.00205302,0.000906428,0.0022311,-0.00256068,1.3768,0.00276872,0.0454301,1308,1674,11.6461,-51.7855
91,-650,10.9814,52.0656,0,0,0,0,0,0,0,-1,1315,1674,10.9815,-52.0655
98,-650,10.3036,51.6865,-0.0305332,-0.00717743,0.000847879,-0.00714669,-0.0305639,1.53456,0.0184608,0.0439511,1322,1674,10.3036,-51.6865
105,-650,9.88831,51.1625,-0.0462323,-0.0117759,0.000357504,-0.0117722,-0.046236,1.56042,0.0277453,0.0456591,1329,1674,9.88826,-51.1625
112,-650,9.52722,50.9735,-0.0603767,-0.0165218,-0.000296262,-0.0165198,-0.0603787,-1.56404,0.0360312,0.0429097,1336,1674,9.52719,-50.9735
119,-650,8.73145,50.7883,-0.0712273,-0.0201281,-0.00123953,-0.0200981,-0.0712573,-1.54656,0.0424233,0.042976,1343,1674,8.7315,-50.7884
126,-650,8.14258,50.5791,-0.0767228,-0.0209556,-0.00317454,-0.0207755,-0.0769029,-1.51412,0.0459371,0.0499096,1350,1674,8.14254,-50.5792
133,-650,7.56921,50.353,0,0,0,0,0,0,0,-1,1357,1674,7.56925,-50.353
140,-650,7.67798,50.2593,-0.0673922,-0.0166634,-0.00827045,-0.0153491,-0.0687065,-1.4132,0.0416418,0.0474089,1364,1674,7.67796,-50.2593
147,-650,7.63269,49.3719,0,0,0,0,0,0,0,-1,1371,1674,7.63273,-49.372
154,-650,7.57715,48.4316,0,0,0,0,0,0,0,-1,1378,1674,7.5771,-48.4316
161,-650,4.09106,30.3021,0,0,0,0,0,0,0,-1,1385,1674,4.09104,-30.3021
168,-650,11.2113,7.87231,0,0,0,0,0,0,0,-1,1392,1674,11.2113,-7.87236
175,-650,5.62537,-0.230713,0,0,0,0,0,0,0,-1,1399,1674,5.62538,0.230745
182,-650,5.56006,0.421631,0,0,0,0,0,0,0,-1,1406,1674,5.56,-0.421652
189,-650,4.81543,11.0654,0,0,0,0,0,0,0,-1,1413,1674,4.81542,-11.0654
196,-650,5.39575,11.9077,0,0,0,0,0,0,0,-1,1420,1674,5.39575,-11.9078
203,-650,3.93628,11.8215,0,0,0,0,0,0,0,-1,1427,1674,3.93624,-11.8216
210,-650,5.40955,8.08594,0,0,0,0,0,0,0,-1,1434,1674,5.40958,-8.086
217,-650,5.12451,4.69739,0,0,0,0,0,0,0,-1,1441,1674,5.12451,-4.69738
224,-650,4.79041,1.45813,0,0,0,0,0,0,0,-1,1448,1674,4.79046,-1.45816
231,-650,4.04102,-0.642212,0,0,0,0,0,0,0,-1,1455,1674,4.04101,0.642209
238,-650,3.23022,-1.43396,0,0,0,0,0,0,0,-1,1462,1674,3.23023,1.43394
245,-650,1.65894,-2.55042,0,0,0,0,0,0,0,-1,1469,1674,1.65889,2.55036
252,-650,8.75342,0.355103,0,0,0,0,0,0,0,-1,1476,1674,8.75337,-0.355147
259,-650,5.61255,3.17566,0,0,0,0,0,0,0,-1,1483,1674,5.61257,-3.17572
266,-650,4.00403,6.10229,0,0,0,0,0,0,0,-1,1490,1674,4.00401,-6.10225
273,-650,11.9524,42.7109,0,0,0,0,0,0,0,-1,1497,1674,11.9524,-42.7109
280,-650,12.3011,46.7283,0,0,0,0,0,0,0,-1,1504,1674,12.3011,-46.7283
287,-650,12.7501,46.3784,0,0,0,0,0,0,0,-1,1511,1674,12.7501,-46.3784
294,-650,12.9478,46.0906,0.00819083,0.0146417,-0.00344576,0.0161361,0.00669645,-1.16159,0.00936094,0.0455262,1518,1674,12.9477,-46.0906
301,-650,12.8983,45.6003,0.00777965,0.0150279,-0.00365623,0.0165518,0.00625574,-1.17589,0.00965063,0.0323167,1525,1674,12.8983,-45.6003
308,-650,12.9136,45.1221,0.00721649,0.0149399,-0.00365624,0.0163962,0.00576022,-1.19176,0.00960485,0.0179009,1532,1674,12.9136,-45.122
315,-650,12.9791,44.6544,0.00650624,0.0146908,-0.00359125,0.0160431,0.00515391,-1.21065,0.00945774,0.0106616,1539,1674,12.9792,-44.6544
322,-650,12.9952,44.2216,0.00583237,0.0144228,-0.00379684,0.0158604,0.0043948,-1.20885,0.00945547,0.010599,1546,1674,12.9952,-44.2215
329,-650,12.9995,43.75,0.00520769,0.0137189,-0.00383332,0.0151908,0.00373577,-1.20418,0.00914007,0.0159476,1553,1674,12.9996,-43.75
336,-650,13.0009,43.3345,0.00471296,0.0126556,-0.0038269,0.0141994,0.00316915,-1.18735,0.0086066,0.0142552,1560,1674,13.0009,-43.3345
343,-650,13.0157,42.8921,0.00419157,0.0115665,-0.0037898,0.0131668,0.00259132,-1.17125,0.00805424,0.0141078,1567,1674,13.0158,-42.8921
350,-650,13.0464,42.427,0.00374278,0.0101944,-0.00376475,0.0119264,0.00201085,-1.13963,0.00737261,0.0158371,1574,1674,13.0464,-42.427
357,-650,13.0171,41.9515,0.00325825,0.00866183,-0.00361541,0.0104734,0.00144663,-1.10628,0.00655352,0.0136687,1581,1674,13.0171,-41.9515
364,-650,13.001,41.4774,0.00274259,0.0072054,-0.00351338,0.00913608,0.000811896,-1.06832,0.00583894,0.0102492,1588,1674,13.001,-41.4774
371,-650,12.9935,41.0197,0.00209869,0.00574945,-0.00327399,0.00767253,0.000175603,-1.03971,0.0050575,0.0123837,1595,1674,12.9936,-41.0196
378,-650,12.9727,40.5333,0.00155525,0.00432074,-0.00302684,0.00626571,-0.000389728,-0.999657,0.00431292,0.0122924,1602,1674,12.9727,-40.5333
385,-650,12.9758,40.0284,0.000900872,0.00294181,-0.00273747,0.00484283,-0.00100015,-0.963809,0.00360844,0.0132806,1609,1674,12.9758,-40.0285
392,-650,12.9691,39.5526,2.43051e-05,0.00183385,-0.00245792,0.00354824,-0.00169008,-0.961754,0.00308712,0.0175752,1616,1674,12.9691,-39.5527
399,-650,12.9486,39.0681,-0.000871357,0.000906724,-0.00215037,0.00234459,-0.00230922,-0.981416,0.00268691,0.016778,1623,1674,12.9487,-39.0681
406,-650,12.9075,38.531,-0.00149833,0.000287301,-0.00206992,0.00164874,-0.00285977,-0.989007,0.00263411,0.0155902,1630,1674,12.9074,-38.531
413,-650,12.899,38.0071,-0.00207302,0.000222085,-0.0020915,0.00146017,-0.00331111,-1.03631,0.00282295,0.0160456,1637,1674,12.899,-38.0071
420,-650,12.8584,37.5271,-0.00255392,0.000227712,-0.00216354,0.00140891,-0.00373512,-1.07106,0.00306946,0.0161676,1644,1674,12.8583,-37.5271
427,-650,12.8387,37.0273,-0.00280796,0.000417057,-0.00253843,0.00181184,-0.00420275,-1.06836,0.0035628,0.0150509,1651,1674,12.8387,-37.0273
434,-650,12.8416,36.506,-0.00270408,0.000824735,-0.00305098,0.00258476,-0.0044641,-1.04756,0.00411759,0.0185771,1658,1674,12.8415,-36.5059
441,-650,12.8123,35.9722,-0.00210709,0.00147241,-0.00400198,0.00406661,-0.0047013,-0.995666,0.00506658,0.0281865,1665,1674,12.8122,-35.9722
448,-650,12.7386,35.4303,-0.0011534,0.00232925,-0.00511476,0.00599098,-0.00481513,-0.94947,0.00625121,0.0369695,1672,1674,12.7387,-35.4303
455,-650,13.0347,34.7323,0.000417537,0.00358953,-0.00645701,0.00865247,-0.0046454,-0.905826,0.00779285,0.0442431,1679,1674,13.0347,-34.7323
462,-650,13.2089,34.1812,0,0,0,0,0,0,0,-1,1686,1674,13.2089,-34.1812
469,-650,11.3628,29.8889,0,0,0,0,0,0,0,-1,1693,1674,11.3628,-29.8889
476,-650,10.9189,27.1289,0,0,0,0,0,0,0,-1,1700,1674,10.919,-27.1289
483,-650,10.2426,24.5127,0,0,0,0,0,0,0,-1,1707,1674,10.2425,-24.5127
490,-650,10.4818,24.3475,0,0,0,0,0,0,0,-1,1714,1674,10.4818,-24.3475
497,-650,10.4985,20.1362,0,0,0,0,0,0,0,-1,1721,1674,10.4986,-20.1362
504,-650,9.69458,18.7721,0,0,0,0,0,0,0,-1,1728,1674,9.6946,-18.772
511,-650,9.37158,17.7506,0,0,0,0,0,0,0,-1,1735,1674,9.37159,-17.7506
518,-650,0,0,0,0,0,0,0,0,0,-1,1742,1674,0,0
525,-650,0,0,0,0,0,0,0,0,0,-1,1749,1674,0,0
532,-650,0,0,0,0,0,0,0,0,0,-1,1756,1674,0,0
539,-650,0,0,0,0,0,0,0,0,0,-1,1763,1674,0,0
546,-650,0,0,0,0,0,0,0,0,0,-1,1770,1674,0,0
553,-650,0,0,0,0,0,0,0,0,0,-1,1777,1674,0,0
560,-650,0,0,0,0,0,0,0,0,0,-1,1784,1674,0,0
567,-650,0,0,0,0,0,0,0,0,0,-1,1791,1674,0,0
574,-650,0,0,0,0,0,0,0,0,0,-1,1798,1674,0,0
581,-650,0,0,0,0,0,0,0,0,0,-1,1805,1674,0,0
588,-650,0,0,0,0,0,0,0,0,0,-1,1812,1674,0,0
595,-650,0,0,0,0,0,0,0,0,0,-1,1819,1674,0,0
602,-650,0,0,0,0,0,0,0,0,0,-1,1826,1674,0,0
609,-650,0,0,0,0,0,0,0,0,0,-1,1833,1674,0,0
616,-650,0,0,0,0,0,0,0,0,0,-1,1840,1674,0,0
623,-650,0,0,0,0,0,0,0,0,0,-1,1847,1674,0,0
630,-650,0,0,0,0,0,0,0,0,0,-1,1854,1674,0,0
637,-650,0,0,0,0,0,0,0,0,0,-1,1861,1674,0,0
644,-650,0,0,0,0,0,0,0,0,0,-1,1868,1674,0,0
651,-650,0,0,0,0,0,0,0,0,0,-1,1875,1674,0,0
658,-650,0,0,0,0,0,0,0,0,0,-1,1882,1674,0,0
665,-650,0,0,0,0,0,0,0,0,0,-1,1889,1674,0,0
672,-650,0,0,0,0,0,0,0,0,0,-1,1896,1674,0,0
679,-650,0,0,0,0,0,0,0,0,0,-1,1903,1674,0,0
686,-650,0,0,0,0,0,0,0,0,0,-1,1910,1674,0,0
693,-650,0,0,0,0,0,0,0,0,0,-1,1917,1674,0,0
700,-650,0,0,0,0,0,0,0,0,0,-1,1924,1674,0,0
707,-650,0,0,0,0,0,0,0,0,0,-1,1931,1674,0,0
714,-650,0,0,0,0,0,0,0,0,0,-1,1938,1674,0,0
721,-650,0,0,0,0,0,0,0,0,0,-1,1945,1674,0,0
728,-650,0,0,0,0,0,0,0,0,0,-1,1952,1674,0,0
735,-650,0,0,0,0,0,0,0,0,0,-1,1959,1674,0,0
742,-650,0,0,0,0,0,0,0,0,0,-1,1966,1674,0,0
749,-650,0,0,0,0,0,0,0,0,0,-1,1973,1674,0,0
756,-650,0,0,0,0,0,0,0,0,0,-1,1980,1674,0,0
763,-650,0,0,0,0,0,0,0,0,0,-1,1987,1674,0,0
770,-650,0,0,0,0,0,0,0,0,0,-1,1994,1674,0,0
777,-650,0,0,0,0,0,0,0,0,0,-1,2001,1674,0,0
784,-650,0,0,0,0,0,0,0,0,0,-1,2008,1674,0,0
791,-650,0,0,0,0,0,0,0,0,0,-1,2015,1674,0,0
798,-650,0,0,0,0,0,0,0,0,0,-1,2022,1674,0,0
805,-650,0,0,0,0,0,0,0,0,0,-1,2029,1674,0,0
812,-650,0,0,0,0,0,0,0,0,0,-1,2036,1674,0,0
-700,-657,0,0,0,0,0,0,0,0,0,-1,524,1681,0,0
-693,-657,0,0,0,0,0,0,0,0,0,-1,531,1681,0,0
-686,-657,0,0,0,0,0,0,0,0,0,-1,538,1681,0,0
-679,-657,0,0,0,0,0,0,0,0,0,-1,545,1681,0,0
-672,-657,0,0,0,0,0,0,0,0,0,-1,552,1681,0,0
-665,-657,0,0,0,0,0,0,0,0,0,-1,559,1681,0,0
-658,-657,0,0,0,0,0,0,0,0,0,-1,566,1681,0,0
-651,-657,0,0,0,0,0,0,0,0,0,-1,573,1681,0,0
-644,-657,0,0,0,0,0,0,0,0,0,-1,580,1681,0,0
-637,-657,0,0,0,0,0,0,0,0,0,-1,587,1681,0,0
-630,-657,0,0,0,0,0,0,0,0,0,-1,594,1681,0,0
-623,-657,0,0,0,0,0,0,0,0,0,-1,601,1681,0,0
-616,-657,0,0,0,0,0,0,0,0,0,-1,608,1681,0,0
-609,-657,0,0,0,0,0,0,0,0,0,-1,615,1681,0,0
-602,-657,0,0,0,0,0,0,0,0,0,-1,622,1681,0,0
-595,-657,0,0,0,0,0,0,0,0,0,-1,629,1681,0,0
-588,-657,0,0,0,0,0,0,0,0,0,-1,636,1681,0,0
-581,-657,0,0,0,0,0,0,0,0,0,-1,643,1681,0,0
-574,-657,0,0,0,0,0,0,0,0,0,-1,650,1681,0,0
-567,-657,0,0,0,0,0,0,0,0,0,-1,657,1681,0,0
-560,-657,0,0,0,0,0,0,0,0,0,-1,664,1681,0,0
-553,-657,0,0,0,0,0,0,0,0,0,-1,671,1681,0,0
-546,-657,0,0,0,0,0,0,0,0,0,-1,678,1681,0,0
-539,-657,0,0,0,0,0,0,0,0,0,-1,685,1681,0,0
-532,-657,0,0,0,0,0,0,0,0,0,-1,692,1681,0,0
-525,-657,0,0,0,0,0,0,0,0,0,-1,699,1681,0,0
-518,-657,0,0,0,0,0,0,0,0,0,-1,706,1681,0,0
-511,-657,0,0,0,0,0,0,0,0,0,-1,713,1681,0,0
-504,-657,0,0,0,0,0,0,0,0,0,-1,720,1681,0,0
-497,-657,0,0,0,0,0,0,0,0,0,-1,727,1681,0,0
-490,-657,0,0,0,0,0,0,0,0,0,-1,734,1681,0,0
-483,-657,0,0,0,0,0,0,0,0,0,-1,741,1681,0,0
-476,-657,0,0,0,0,0,0,0,0,0,-1,748,1681,0,0
-469,-657,0,0,0,0,0,0,0,0,0,-1,755,1681,0,0
-462,-657,0,0,0,0,0,0,0,0,0,-1,762,1681,0,0
-455,-657,0,0,0,0,0,0,0,0,0,-1,769,1681,0,0
-448,-657,0,0,0,0,0,0,0,0,0,-1,776,1681,0,0
-441,-657,0,0,0,0,0,0,0,0,0,-1,783,1681,0,0
-434,-657,0,0,0,0,0,0,0,0,0,-1,790,1681,0,0
-427,-657,0,0,0,0,0,0,0,0,0,-1,797,1681,0,0
-420,-657,0,0,0,0,0,0,0,0,0,-1,804,1681,0,0
-413,-657,0,0,0,0,0,0,0,0,0,-1,811,1681,0,0
-406,-657,0,0,0,0,0,0,0,0,0,-1,818,1681,0,0
-399,-657,0,0,0,0,0,0,0,0,0,-1,825,1681,0,0
-392,-657,0,0,0,0,0,0,0,0,0,-1,832,1681,0,0
-385,-657,1.09814,6.18896,0,0,0,0,0,0,0,-1,839,1681,1.09814,-6.18894
-378,-657,0.31488,4.46753,0,0,0,0,0,0,0,-1,846,1681,0.31487,-4.46755
-371,-657,-0.519043,2.69421,0,0,0,0,0,0,0,-1,853,1681,-0.519064,-2.69422
-364,-657,-3.42017,4.18323,0,0,0,0,0,0,0,-1,860,1681,-3.42019,-4.18319
-357,-657,-4.41913,2.97168,0,0,0,0,0,0,0,-1,867,1681,-4.41913,-2.97165
-350,-657,-5.42291,1.70276,0,0,0,0,0,0,0,-1,874,1681,-5.42291,-1.70277
-343,-657,-6.51294,0.397339,0,0,0,0,0,0,0,-1,881,1681,-6.51295,-0.397335
-336,-657,5.11139,31.3381,0,0,0,0,0,0,0,-1,888,1681,5.11137,-31.3382
-329,-657,6.33533,33.4744,0,0,0,0,0,0,0,-1,895,1681,6.33533,-33.4743
-322,-657,6.05139,34.7853,0,0,0,0,0,0,0,-1,902,1681,6.05138,-34.7852
-315,-657,5.86652,34.7896,0,0,0,0,0,0,0,-1,909,1681,5.8665,-34.7896
-308,-657,6.00305,35.3965,-0.00461164,-0.00146339,-0.00188508,-0.000581622,-0.0054934,-1.13327,0.00348461,0.0400479,916,1681,6.00308,-35.3965
-301,-657,5.99011,36.2865,-0.00504116,-0.00134534,-0.00266904,5.30609e-05,-0.00643956,-1.08819,0.00431084,0.0325529,923,1681,5.99013,-36.2865
-294,-657,5.91443,36.894,-0.00494902,-0.000638543,-0.00281439,0.000751049,-0.00633861,-1.11216,0.00449705,0.0187412,930,1681,5.91444,-36.894
-287,-657,5.89209,37.3914,-0.00473252,-0.000258043,-0.00282201,0.00110597,-0.00609653,-1.12056,0.00447876,0.0118163,937,1681,5.8921,-37.3914
-280,-657,5.85278,37.8865,-0.00441792,4.3391e-05,-0.00261368,0.00124889,-0.00562342,-1.13865,0.00422719,0.0132574,944,1681,5.85276,-37.8865
-273,-657,5.83264,38.4408,-0.00384052,0.000457239,-0.00209818,0.0013117,-0.00469498,-1.18407,0.00364672,0.0105866,951,1681,5.83261,-38.4408
-266,-657,5.79047,38.9702,-0.0029491,0.000963493,-0.00142651,0.00142836,-0.00341396,-1.25577,0.00287299,0.0147915,958,1681,5.79046,-38.9702
-259,-657,5.77551,39.4839,-0.00212868,0.0012785,-0.000845756,0.00147689,-0.00232707,-1.34039,0.00221442,0.0182027,965,1681,5.77553,-39.4839
-252,-657,5.73798,39.9885,-0.00141596,0.00154063,-0.000390752,0.0015914,-0.00146673,-1.44159,0.0017661,0.0127507,972,1681,5.73797,-39.9885
-245,-657,5.75629,40.5085,-0.000640553,0.00188967,4.73957e-05,0.00189056,-0.00064144,1.55207,0.00151999,0.0141665,979,1681,5.75629,-40.5086
-238,-657,5.76245,41.0587,0.000132459,0.00221613,0.000514055,0.00233605,1.25394e-05,1.34161,0.0015532,0.0185597,986,1681,5.76245,-41.0587
-231,-657,5.74158,41.5592,0.00104229,0.00248268,0.000901192,0.0029161,0.000608868,1.12251,0.00177624,0.0198159,993,1681,5.74155,-41.5592
-224,-657,5.69965,42.0369,0.00206437,0.00280457,0.00133541,0.00382021,0.00104873,0.920579,0.00227913,0.0156203,1000,1681,5.69966,-42.0368
-217,-657,5.68878,42.5182,0.00289892,0.00310857,0.00156772,0.00457496,0.00143252,0.818781,0.00270215,0.0095735,1007,1681,5.68878,-42.5182
-210,-657,5.69086,42.9935,0.00389804,0.00357105,0.0018322,0.00557402,0.00189507,0.740898,0.00327264,0.0106116,1014,1681,5.69088,-42.9936
-203,-657,5.68445,43.4619,0.00502544,0.00411486,0.00220534,0.006822,0.0023183,0.683603,0.00400548,0.0130102,1021,1681,5.68447,-43.462
-196,-657,5.69226,43.9039,0.00608482,0.00472019,0.00265257,0.00814143,0.00266359,0.659513,0.00479315,0.0141286,1028,1681,5.6922,-43.9039
-189,-657,5.70752,44.3392,0.00712364,0.00570058,0.00311945,0.00961168,0.00321253,0.673269,0.00565005,0.0102887,1035,1681,5.70757,-44.3393
-182,-657,5.71704,44.7981,0.00814431,0.00691573,0.00354316,0.011126,0.00393401,0.699564,0.00651478,0.00815982,1042,1681,5.71705,-44.7981
-175,-657,5.74231,45.2277,0.00904242,0.00837397,0.00385804,0.0125807,0.0048357,0.74219,0.00732791,0.0110624,1049,1681,5.74232,-45.2277
-168,-657,5.71021,45.6667,0.00983807,0.0102341,0.00427931,0.01432,0.00575221,0.808519,0.00832075,0.0136266,1056,1681,5.71014,-45.6668
-161,-657,5.73218,46.1182,0.0104389,0.0121783,0.00449647,0.0158884,0.00672881,0.88093,0.00920891,0.0145012,1063,1681,5.73223,-46.1181
-154,-657,5.8175,46.4934,0.0107404,0.0143339,0.0044112,0.0173002,0.00777406,0.978799,0.0100054,0.0179268,1070,1681,5.81746,-46.4934
-147,-657,5.82214,46.9012,0.0107473,0.0167156,0.00412393,0.0188218,0.00864103,1.0986,0.0108789,0.034564,1077,1681,5.82212,-46.9012
-140,-657,5.79041,47.7124,0.0104971,0.0191519,0.00354241,0.0204169,0.00923209,1.22781,0.0118057,0.0485478,1084,1681,5.79044,-47.7124
-133,-657,5.67163,48.0179,0.0101805,0.0216993,0.00272243,0.0223103,0.0095695,1.35001,0.0129242,0.048806,1091,1681,5.67167,-48.018
-126,-657,5.64319,48.386,0.009547,0.0237258,0.00163602,0.0239121,0.00936068,1.4574,0.0139137,0.0460954,1098,1681,5.64317,-48.386
-119,-657,5.77014,48.8904,0,0,0,0,0,0,0,-1,1105,1681,5.77018,-48.8903
-112,-657,6.24219,42.9092,0,0,0,0,0,0,0,-1,1112,1681,6.24217,-42.9092
-105,-657,7.37256,41.0361,0,0,0,0,0,0,0,-1,1119,1681,7.37254,-41.0362
-98,-657,8.14404,38.4435,0,0,0,0,0,0,0,-1,1126,1681,8.14405,-38.4435
-91,-657,3.6521,16.6017,0,0,0,0,0,0,0,-1,1133,1681,3.65215,-16.6017
-84,-657,4.08008,10.4579,0,0,0,0,0,0,0,-1,1140,1681,4.08006,-10.4579
-77,-657,-5.29846,0.396606,0,0,0,0,0,0,0,-1,1147,1681,-5.29842,-0.396573
-70,-657,-4.14893,2.14575,0,0,0,0,0,0,0,-1,1154,1681,-4.14893,-2.1458
-63,-657,-4.1239,3.177,0,0,0,0,0,0,0,-1,1161,1681,-4.12391,-3.17698
-56,-657,-6.40576,5.73987,0,0,0,0,0,0,0,-1,1168,1681,-6.40577,-5.7399
-49,-657,-5.98462,7.54053,0,0,0,0,0,0,0,-1,1175,1681,-5.98466,-7.5405
-42,-657,-5.71948,9.28955,0,0,0,0,0,0,0,-1,1182,1681,-5.71951,-9.2895
-35,-657,-5.44556,11.015,0,0,0,0,0,0,0,-1,1189,1681,-5.44555,-11.015
-28,-657,-1.3446,8.92847,0,0,0,0,0,0,0,-1,1196,1681,-1.34459,-8.92848
-21,-657,3.86218,53.3218,0,0,0,0,0,0,0,-1,1203,1681,3.8622,-53.3218
-14,-657,4.97937,53.2169,0,0,0,0,0,0,0,-1,1210,1681,4.97936,-53.2169
-7,-657,6.28943,52.7782,0,0,0,0,0,0,0,-1,1217,1681,6.28937,-52.7782
0,-657,6.92529,53.2698,0,0,0,0,0,0,0,-1,1224,1681,6.92525,-53.2697
7,-657,7.66589,53.1938,0,0,0,0,0,0,0,-1,1231,1681,7.6659,-53.1938
14,-657,8.1748,53.89,0.0996926,0.0626354,0.035421,0.121138,0.0411895,0.544422,0.0711226,0.041927,1238,1681,8.17475,-53.89
21,-657,8.83911,54.6201,0.0887561,0.0574421,0.0325596,0.109228,0.0369705,0.561284,0.0641501,0.043948,1245,1681,8.83911,-54.6201
28,-657,9.20508,55.5225,0.0788761,0.0516077,0.028209,0.0965731,0.0339107,0.560288,0.0565742,0.0449257,1252,1681,9.20508,-55.5224
35,-657,10.3303,55.7927,0.0706792,0.0453432,0.0233115,0.0845424,0.0314801,0.536508,0.0493379,0.0428908,1259,1681,10.3303,-55.7928
42,-657,6.97693,56.8682,0.0618301,0.0395319,0.0185258,0.0723029,0.0290591,0.514521,0.042011,0.0439133,1266,1681,6.97693,-56.8681
49,-657,7.87866,55.9004,0.0524565,0.0331268,0.015325,0.0609097,0.0246736,0.504069,0.0353768,0.0466987,1273,1681,7.8786,-55.9004
56,-657,8.43945,54.6042,0,0,0,0,0,0,0,-1,1280,1681,8.4394,-54.6043
63,-657,9.79395,53.2893,0.0326241,0.021314,0.00669466,0.0357325,0.0182056,0.434691,0.0206314,0.0495471,1287,1681,9.79395,-53.2894
70,-657,10.0216,52.9907,0.0199405,0.0142197,0.00288705,0.0211442,0.013016,0.395016,0.0123159,0.0486622,1294,1681,10.0216,-52.9907
77,-657,10.4875,52.6354,0.00768884,0.00823283,0.00088096,0.00888283,0.00703884,0.935128,0.00541295,0.045442,1301,1681,10.4875,-52.6354
84,-657,11.8269,53.0358,-0.00362557,0.00320839,-0.000249927,0.00321752,-0.0036347,-1.53429,0.00395858,0.0450236,1308,1681,11.8269,-53.0358
91,-657,10.8789,52.386,0,0,0,0,0,0,0,-1,1315,1681,10.8789,-52.386
98,-657,10.1464,52.1266,-0.0266362,-0.0066044,-0.000851682,-0.00656825,-0.0266724,-1.52838,0.0160467,0.0468534,1322,1681,10.1464,-52.1266
105,-657,9.60059,51.7776,-0.0393021,-0.010762,-0.00147447,-0.010686,-0.0393781,-1.51932,0.0235139,0.0481749,1329,1681,9.60064,-51.7776
112,-657,9.04736,51.395,-0.050769,-0.0150261,-0.0020302,-0.0149112,-0.0508839,-1.51424,0.030205,0.0455413,1336,1681,9.04741,-51.395
119,-657,8.40027,50.988,-0.0595911,-0.0179253,-0.00273567,-0.0177465,-0.0597699,-1.50551,0.0354443,0.0467537,1343,1681,8.40029,-50.988
126,-657,7.83081,50.655,-0.0641207,-0.0183602,-0.00405615,-0.0180035,-0.0644774,-1.48307,0.0384167,0.0484332,1350,1681,7.83086,-50.655
133,-657,7.22595,50.4725,0,0,0,0,0,0,0,-1,1357,1681,7.2259,-50.4726
140,-657,7.948,50.5331,0,0,0,0,0,0,0,-1,1364,1681,7.94806,-50.5331
147,-657,7.83972,49.7368,0,0,0,0,0,0,0,-1,1371,1681,7.83969,-49.7369
154,-657,10.9187,42.5811,0,0,0,0,0,0,0,-1,1378,1681,10.9187,-42.5811
161,-657,4.2926,24.9226,0,0,0,0,0,0,0,-1,1385,1681,4.29264,-24.9226
168,-657,5.21643,0.70105,0,0,0,0,0,0,0,-1,1392,1681,5.21648,-0.7011
175,-657,5.52771,0.649048,0,0,0,0,0,0,0,-1,1399,1681,5.52774,-0.649019
182,-657,5.73999,1.02612,0,0,0,0,0,0,0,-1,1406,1681,5.73995,-1.02611
189,-657,5.92126,1.44116,0,0,0,0,0,0,0,-1,1413,1681,5.92126,-1.44115
196,-657,4.92834,9.59021,0,0,0,0,0,0,0,-1,1420,1681,4.9284,-9.59018
203,-657,6.26343,5.16492,0,0,0,0,0,0,0,-1,1427,1681,6.26345,-5.16488
210,-657,3.9856,5.28088,0,0,0,0,0,0,0,-1,1434,1681,3.98555,-5.28084
217,-657,3.95178,5.2843,0,0,0,0,0,0,0,-1,1441,1681,3.95174,-5.28431
224,-657,6.66736,-0.250244,0,0,0,0,0,0,0,-1,1448,1681,6.66737,0.250229
231,-657,6.85498,-1.70752,0,0,0,0,0,0,0,-1,1455,1681,6.855,1.70758
238,-657,5.34143,-2.89819,0,0,0,0,0,0,0,-1,1462,1681,5.34143,2.89813
245,-657,8.66003,-0.102783,0,0,0,0,0,0,0,-1,1469,1681,8.66,0.102824
252,-657,4.78955,0.623779,0,0,0,0,0,0,0,-1,1476,1681,4.7895,-0.623826
259,-657,2.61523,4.31909,0,0,0,0,0,0,0,-1,1483,1681,2.61523,-4.31908
266,-657,5.35437,11.4742,0,0,0,0,0,0,0,-1,1490,1681,5.35441,-11.4742
273,-657,11.9164,46.0638,0,0,0,0,0,0,0,-1,1497,1681,11.9164,-46.0638
280,-657,12.14,46.7262,0,0,0,0,0,0,0,-1,1504,1681,12.14,-46.7261
287,-657,12.3494,46.3414,0.00692621,0.0102656,-0.00220467,0.0113615,0.00583031,-1.10949,0.00656031,0.0362239,1511,1681,12.3494,-46.3415
294,-657,12.3909,45.9747,0.00662212,0.0100462,-0.00238747,0.0112721,0.00539629,-1.09645,0.00650988,0.0319296,1518,1681,12.3909,-45.9747
301,-657,12.4854,45.5826,0.0060811,0.0102857,-0.00258907,0.0115185,0.00484829,-1.1264,0.00667789,0.0238943,1525,1681,12.4853,-45.5826
308,-657,12.4886,45.1051,0.00537678,0.0104104,-0.00256503,0.0114871,0.00430003,-1.17335,0.00670157,0.0153202,1532,1681,12.4886,-45.1051
315,-657,12.526,44.6477,0.00466891,0.0103378,-0.00241315,0.0112259,0.0037808,-1.21815,0.00659536,0.0115865,1539,1681,12.5259,-44.6477
322,-657,12.5699,44.205,0.00421515,0.0101334,-0.002603,0.0111153,0.0032332,-1.21007,0.00660189,0.0138771,1546,1681,12.57,-44.2049
329,-657,12.5687,43.7573,0.00388586,0.00957209,-0.00275616,0.0106887,0.00276922,-1.18586,0.0064055,0.0185772,1553,1681,12.5687,-43.7573
336,-657,12.5646,43.3162,0.00368203,0.0087309,-0.00286267,0.0100232,0.0023897,-1.14675,0.00604514,0.0161553,1560,1681,12.5646,-43.3162
343,-657,12.576,42.8846,0.00349772,0.00780943,-0.00299797,0.00934621,0.00196094,-1.09711,0.00569091,0.0146726,1567,1681,12.576,-42.8846
350,-657,12.5654,42.4336,0.00334751,0.00660421,-0.00321512,0.00857981,0.0013719,-1.0198,0.00532185,0.015865,1574,1681,12.5654,-42.4335
357,-657,12.5447,41.9575,0.00312098,0.00532132,-0.00337826,0.00777403,0.000668264,-0.942813,0.00497492,0.0144258,1581,1681,12.5447,-41.9576
364,-657,12.5398,41.4921,0.00279411,0.00406012,-0.00353653,0.00701985,-0.000165623,-0.873955,0.00473608,0.0110505,1588,1681,12.5398,-41.4921
371,-657,12.5244,41.036,0.00217465,0.00288212,-0.0034778,0.00602413,-0.000967355,-0.83608,0.00437434,0.0155331,1595,1681,12.5245,-41.036
378,-657,12.4845,40.551,0.0016354,0.00171001,-0.00342762,0.00510053,-0.00175512,-0.790839,0.0041122,0.0144837,1602,1681,12.4845,-40.551
385,-657,12.4636,40.031,0.000888816,0.000632493,-0.00330074,0.00406389,-0.00254258,-0.765994,0.0038478,0.0124975,1609,1681,12.4636,-40.031
392,-657,12.4674,39.5406,-0.000189402,-0.000180564,-0.00313217,0.00294719,-0.00331716,-0.786104,0.00361883,0.013325,1616,1681,12.4674,-39.5406
399,-657,12.4762,39.0583,-0.00132957,-0.000737768,-0.00294685,0.001928,-0.00399534,-0.835437,0.00348858,0.0130285,1623,1681,12.4762,-39.0583
406,-657,12.4401,38.5414,-0.00226794,-0.000877521,-0.00297893,0.00148625,-0.00463171,-0.900034,0.00368454,0.0140864,1630,1681,12.4401,-38.5413
413,-657,12.3969,38.0137,-0.00327528,-0.000473109,-0.00296279,0.00140318,-0.00515157,-1.00626,0.00398532,0.013605,1637,1681,12.3968,-38.0137
420,-657,12.3741,37.5142,-0.0042418,-2.72494e-05,-0.00279029,0.00136209,-0.00563114,-1.10881,0.00428098,0.0144596,1644,1681,12.3742,-37.5141
427,-657,12.3497,36.9905,-0.00463756,0.000447252,-0.0032611,0.00203989,-0.0062302,-1.11649,0.00497485,0.019318,1651,1681,12.3497,-36.9904
434,-657,12.4487,36.4581,-0.00458225,0.00108615,-0.00378631,0.00298152,-0.00647762,-1.10668,0.00558419,0.0277386,1658,1681,12.4487,-36.4582
441,-657,12.347,35.9485,-0.00390582,0.00201374,-0.00483653,0.00472427,-0.00661634,-1.05998,0.00657781,0.0421185,1665,1681,12.3471,-35.9484
448,-657,12.2076,35.3508,-0.00280051,0.00324697,-0.00607124,0.00700578,-0.00655932,-1.01644,0.00783323,0.0484271,1672,1681,12.2076,-35.3508
455,-657,12.2715,34.9208,0,0,0,0,0,0,0,-1,1679,1681,12.2714,-34.9208
462,-657,10.2832,30.1719,0,0,0,0,0,0,0,-1,1686,1681,10.2831,-30.1718
469,-657,9.22205,26.4175,0,0,0,0,0,0,0,-1,1693,1681,9.2221,-26.4175
476,-657,8.9519,20.5712,0,0,0,0,0,0,0,-1,1700,1681,8.95194,-20.5712
483,-657,10.0663,21.8628,0,0,0,0,0,0,0,-1,1707,1681,10.0663,-21.8628
490,-657,11.6039,21.2185,0,0,0,0,0,0,0,-1,1714,1681,11.6038,-21.2185
497,-657,9.20862,17.8127,0,0,0,0,0,0,0,-1,1721,1681,9.2086,-17.8127
504,-657,0,0,0,0,0,0,0,0,0,-1,1728,1681,0,0
511,-657,0,0,0,0,0,0,0,0,0,-1,1735,1681,0,0
518,-657,0,0,0,0,0,0,0,0,0,-1,1742,1681,0,0
525,-657,0,0,0,0,0,0,0,0,0,-1,1749,1681,0,0
532,-657,0,0,0,0,0,0,0,0,0,-1,1756,1681,0,0
539,-657,0,0,0,0,0,0,0,0,0,-1,1763,1681,0,0
546,-657,0,0,0,0,0,0,0,0,0,-1,1770,1681,0,0
553,-657,0,0,0,0,0,0,0,0,0,-1,1777,1681,0,0
560,-657,0,0,0,0,0,0,0,0,0,-1,1784,1681,0,0
567,-657,0,0,0,0,0,0,0,0,0,-1,1791,1681,0,0
574,-657,0,0,0,0,0,0,0,0,0,-1,1798,1681,0,0
581,-657,0,0,0,0,0,0,0,0,0,-1,1805,1681,0,0
588,-657,0,0,0,0,0,0,0,0,0,-1,1812,1681,0,0
595,-657,0,0,0,0,0,0,0,0,0,-1,1819,1681,0,0
602,-657,0,0,0,0,0,0,0,0,0,-1,1826,1681,0,0
609,-657,0,0,0,0,0,0,0,0,0,-1,1833,1681,0,0
616,-657,0,0,0,0,0,0,0,0,0,-1,1840,1681,0,0
623,-657,0,0,0,0,0,0,0,0,0,-1,1847,1681,0,0
630,-657,0,0,0,0,0,0,0,0,0,-1,1854,1681,0,0
637,-657,0,0,0,0,0,0,0,0,0,-1,1861,1681,0,0
644,-657,0,0,0,0,0,0,0,0,0,-1,1868,1681,0,0
651,-657,0,0,0,0,0,0,0,0,0,-1,1875,1681,0,0
658,-657,0,0,0,0,0,0,0,0,0,-1,1882,1681,0,0
665,-657,0,0,0,0,0,0,0,0,0,-1,1889,1681,0,0
672,-657,0,0,0,0,0,0,0,0,0,-1,1896,1681,0,0
679,-657,0,0,0,0,0,0,0,0,0,-1,1903,1681,0,0
686,-657,0,0,0,0,0,0,0,0,0,-1,1910,1681,0,0
693,-657,0,0,0,0,0,0,0,0,0,-1,1917,1681,0,0
700,-657,0,0,0,0,0,0,0,0,0,-1,1924,1681,0,0
707,-657,0,0,0,0,0,0,0,0,0,-1,1931,1681,0,0
714,-657,0,0,0,0,0,0,0,0,0,-1,1938,1681,0,0
721,-657,0,0,0,0,0,0,0,0,0,-1,1945,1681,0,0
728,-657,0,0,0,0,0,0,0,0,0,-1,1952,1681,0,0
735,-657,0,0,0,0,0,0,0,0,0,-1,1959,1681,0,0
742,-657,0,0,0,0,0,0,0,0,0,-1,1966,1681,0,0
749,-657,0,0,0,0,0,0,0,0,0,-1,1973,1681,0,0
756,-657,0,0,0,0,0,0,0,0,0,-1,1980,1681,0,0
763,-657,0,0,0,0,0,0,0,0,0,-1,1987,1681,0,0
770,-657,0,0,0,0,0,0,0,0,0,-1,1994,1681,0,0
777,-657,0,0,0,0,0,0,0,0,0,-1,2001,1681,0,0
784,-657,0,0,0,0,0,0,0,0,0,-1,2008,1681,0,0
791,-657,0,0,0,0,0,0,0,0,0,-1,2015,1681,0,0
798,-657,0,0,0,0,0,0,0,0,0,-1,2022,1681,0,0
805,-657,0,0,0,0,0,0,0,0,0,-1,2029,1681,0,0
812,-657,0,0,0,0,0,0,0,0,0,-1,2036,1681,0,0
-700,-664,0,0,0,0,0,0,0,0,0,-1,524,1688,0,0
-693,-664,0,0,0,0,0,0,0,0,0,-1,531,1688,0,0
-686,-664,0,0,0,0,0,0,0,0,0,-1,538,1688,0,0
-679,-664,0,0,0,0,0,0,0,0,0,-1,545,1688,0,0
-672,-664,0,0,0,0,0,0,0,0,0,-1,552,1688,0,0
-665,-664,0,0,0,0,0,0,0,0,0,-1,559,1688,0,0
-658,-664,0,0,0,0,0,0,0,0,0,-1,566,1688,0,0
-651,-664,0,0,0,0,0,0,0,0,0,-1,573,1688,0,0
-644,-664,0,0,0,0,0,0,0,0,0,-1,580,1688,0,0
-637,-664,0,0,0,0,0,0,0,0,0,-1,587,1688,0,0
-630,-664,0,0,0,0,0,0,0,0,0,-1,594,1688,0,0
-623,-664,0,0,0,0,0,0,0,0,0,-1,601,1688,0,0
-616,-664,0,0,0,0,0,0,0,0,0,-1,608,1688,0,0
-609,-664,0,0,0,0,0,0,0,0,0,-1,615,1688,0,0
-602,-664,0,0,0,0,0,0,0,0,0,-1,622,1688,0,0
-595,-664,0,0,0,0,0,0,0,0,0,-1,629,1688,0,0
-588,-664,0,0,0,0,0,0,0,0,0,-1,636,1688,0,0
-581,-664,0,0,0,0,0,0,0,0,0,-1,643,1688,0,0
-574,-664,0,0,0,0,0,0,0,0,0,-1,650,1688,0,0
-567,-664,0,0,0,0,0,0,0,0,0,-1,657,1688,0,0
-560,-664,0,0,0,0,0,0,0,0,0,-1,664,1688,0,0
-553,-664,0,0,0,0,0,0,0,0,0,-1,671,1688,0,0
-546,-664,0,0,0,0,0,0,0,0,0,-1,678,1688,0,0
-539,-664,0,0,0,0,0,0,0,0,0,-1,685,1688,0,0
-532,-664,0,0,0,0,0,0,0,0,0,-1,692,1688,0,0
-525,-664,0,0,0,0,0,0,0,0,0,-1,699,1688,0,0
-518,-664,0,0,0,0,0,0,0,0,0,-1,706,1688,0,0
-511,-664,0,0,0,0,0,0,0,0,0,-1,713,1688,0,0
-504,-664,0,0,0,0,0,0,0,0,0,-1,720,1688,0,0
-497,-664,0,0,0,0,0,0,0,0,0,-1,727,1688,0,0
-490,-664,0,0,0,0,0,0,0,0,0,-1,734,1688,0,0
-483,-664,0,0,0,0,0,0,0,0,0,-1,741,1688,0,0
-476,-664,0,0,0,0,0,0,0,0,0,-1,748,1688,0,0
-469,-664,0,0,0,0,0,0,0,0,0,-1,755,1688,0,0
-462,-664,0,0,0,0,0,0,0,0,0,-1,762,1688,0,0
-455,-664,0,0,0,0,0,0,0,0,0,-1,769,1688,0,0
-448,-664,0,0,0,0,0,0,0,0,0,-1,776,1688,0,0
-441,-664,0,0,0,0,0,0,0,0,0,-1,783,1688,0,0
-434,-664,0,0,0,0,0,0,0,0,0,-1,790,1688,0,0
-427,-664,0,0,0,0,0,0,0,0,0,-1,797,1688,0,0
-420,-664,0,0,0,0,0,0,0,0,0,-1,804,1688,0,0
-413,-664,0,0,0,0,0,0,0,0,0,-1,811,1688,0,0
-406,-664,0,0,0,0,0,0,0,0,0,-1,818,1688,0,0
-399,-664,0,0,0,0,0,0,0,0,0,-1,825,1688,0,0
-392,-664,0,0,0,0,0,0,0,0,0,-1,832,1688,0,0
-385,-664,0,0,0,0,0,0,0,0,0,-1,839,1688,0,0
-378,-664,0,0,0,0,0,0,0,0,0,-1,846,1688,0,0
-371,-664,-1.61676,5.92737,0,0,0,0,0,0,0,-1,853,1688,-1.61675,-5.92735
-364,-664,-3.901,5.87024,0,0,0,0,0,0,0,-1,860,1688,-3.90097,-5.87027
-357,-664,-4.81012,4.53479,0,0,0,0,0,0,0,-1,867,1688,-4.81012,-4.5348
-350,-664,-5.7193,3.19934,0,0,0,0,0,0,0,-1,874,1688,-5.71927,-3.19932
-343,-664,5.97418,34.5831,0,0,0,0,0,0,0,-1,881,1688,5.97418,-34.5831
-336,-664,5.44196,30.9269,0,0,0,0,0,0,0,-1,888,1688,5.44197,-30.9269
-329,-664,6.95856,33.265,0,0,0,0,0,0,0,-1,895,1688,6.95856,-33.2651
-322,-664,7.04785,33.7714,0,0,0,0,0,0,0,-1,902,1688,7.04783,-33.7714
-315,-664,7.11206,34.4106,0,0,0,0,0,0,0,-1,909,1688,7.11208,-34.4107
-308,-664,6.70209,35.3654,0,0,0,0,0,0,0,-1,916,1688,6.7021,-35.3654
-301,-664,6.48828,36.2911,0,0,0,0,0,0,0,-1,923,1688,6.48829,-36.2911
-294,-664,6.64587,37.1499,-0.00705636,-0.000315816,-0.00440736,0.0018622,-0.00923438,-1.11182,0.00686174,0.0437046,930,1688,6.64585,-37.1499
-287,-664,6.5498,37.4749,-0.00667931,9.58183e-05,-0.00417034,0.00208109,-0.00866458,-1.1265,0.0065807,0.0299694,937,1688,6.5498,-37.4748
-280,-664,6.39471,37.9298,-0.00626064,0.000337941,-0.00376922,0.00204787,-0.00797057,-1.14491,0.00611179,0.0203901,944,1688,6.39472,-37.9299
-273,-664,6.34003,38.4563,-0.00554669,0.000712632,-0.00302761,0.00193742,-0.00677148,-1.18638,0.00527997,0.016154,951,1688,6.34003,-38.4563
-266,-664,6.31091,38.9723,-0.00448864,0.00117184,-0.00215635,0.00189971,-0.0052165,-1.24526,0.0042547,0.0223075,958,1688,6.31093,-38.9722
-259,-664,6.2818,39.4985,-0.00355858,0.00138522,-0.00145076,0.0017795,-0.00395286,-1.30543,0.00338794,0.0189723,965,1688,6.2818,-39.4985
-252,-664,6.27368,40.0364,-0.0028017,0.00150564,-0.000901978,0.00168689,-0.00298295,-1.37249,0.00273053,0.0158763,972,1688,6.27366,-40.0364
-245,-664,6.25543,40.5573,-0.00200154,0.00170002,-0.000383668,0.00173937,-0.00204089,-1.46859,0.00218485,0.0188423,979,1688,6.25544,-40.5572
-238,-664,6.27856,41.0848,-0.00122012,0.00195661,0.000163169,0.00196497,-0.00122848,1.51961,0.00186001,0.0216912,986,1688,6.27859,-41.0849
-231,-664,6.25775,41.5529,-0.000342677,0.00207236,0.000607893,0.00221674,-0.000487059,1.3376,0.00166411,0.0187106,993,1688,6.25774,-41.5528
-224,-664,6.20349,42.0402,0.000588534,0.00215578,0.000985086,0.00263091,0.000113404,1.12139,0.00171739,0.0132057,1000,1688,6.20351,-42.0401
-217,-664,6.18176,42.5424,0.00135431,0.00229218,0.00116884,0.00308264,0.000563847,0.976167,0.00189531,0.0102661,1007,1688,6.18174,-42.5424
-210,-664,6.17987,43.0151,0.00220098,0.00258963,0.00136498,0.00377405,0.00101656,0.856106,0.0022549,0.0115828,1014,1688,6.17987,-43.0151
-203,-664,6.15405,43.4775,0.00312465,0.00297124,0.00163254,0.00468229,0.0014136,0.761923,0.00277314,0.013875,1021,1688,6.15405,-43.4776
-196,-664,6.14539,43.9177,0.00399344,0.00339337,0.00196481,0.00568099,0.00170581,0.709631,0.00336602,0.014636,1028,1688,6.14544,-43.9178
-189,-664,6.14026,44.3593,0.00482361,0.00405644,0.00227256,0.00674473,0.00213532,0.701791,0.00398044,0.0102951,1035,1688,6.14024,-44.3593
-182,-664,6.15564,44.8007,0.00564113,0.0050235,0.00253252,0.00788359,0.00278104,0.724728,0.00461691,0.0093002,1042,1688,6.15563,-44.8007
-175,-664,6.1792,45.2007,0.0063932,0.00618869,0.00273574,0.0090286,0.00355329,0.766718,0.00525189,0.0124313,1049,1688,6.17922,-45.2006
-168,-664,6.19263,45.6154,0.00702355,0.00766333,0.00300657,0.010367,0.00431989,0.838398,0.00601301,0.0134441,1056,1688,6.19258,-45.6153
-161,-664,6.17639,46.0387,0.00749294,0.00916425,0.00312162,0.0115601,0.00509706,0.916182,0.00668976,0.0107662,1063,1688,6.17643,-46.0387
-154,-664,6.23059,46.4401,0.0077945,0.0108211,0.00304026,0.0127039,0.00591175,1.01633,0.00734047,0.0119002,1070,1688,6.23065,-46.4401
-147,-664,6.21826,46.8433,0.00791181,0.0126201,0.00281337,0.0139343,0.00659757,1.13378,0.00804877,0.0203937,1077,1688,6.21822,-46.8433
-140,-664,6.23804,47.2848,0.00785911,0.0143585,0.00237889,0.0151362,0.00708144,1.25484,0.00874489,0.0242468,1084,1688,6.23801,-47.2848
-133,-664,6.22705,47.7898,0.00778312,0.0161836,0.00180826,0.0165563,0.00741041,1.36753,0.00957628,0.0228619,1091,1688,6.22706,-47.7898
-126,-664,6.3446,48.2368,0.00758043,0.0175651,0.00110894,0.0176868,0.00745875,1.46151,0.0102531,0.035922,1098,1688,6.34455,-48.2368
-119,-664,6.45264,48.6593,0,0,0,0,0,0,0,-1,1105,1688,6.4526,-48.6592
-112,-664,6.58081,49.3341,0,0,0,0,0,0,0,-1,1112,1688,6.58078,-49.3341
-105,-664,6.87256,43.2527,0,0,0,0,0,0,0,-1,1119,1688,6.87258,-43.2527
-98,-664,7.69324,41.3359,0,0,0,0,0,0,0,-1,1126,1688,7.69321,-41.3359
-91,-664,5.41931,25.6302,0,0,0,0,0,0,0,-1,1133,1688,5.41932,-25.6302
-84,-664,3.48389,16.6913,0,0,0,0,0,0,0,-1,1140,1688,3.4839,-16.6913
-77,-664,4.52014,11.2122,0,0,0,0,0,0,0,-1,1147,1688,4.5202,-11.2122
-70,-664,4.20374,8.24524,0,0,0,0,0,0,0,-1,1154,1688,4.20379,-8.24519
-63,-664,-4.677,2.40503,0,0,0,0,0,0,0,-1,1161,1688,-4.67702,-2.40498
-56,-664,-4.66504,3.32727,0,0,0,0,0,0,0,-1,1168,1688,-4.6651,-3.32724
-49,-664,-2.54297,3.31848,0,0,0,0,0,0,0,-1,1175,1688,-2.54297,-3.31852
-42,-664,-0.359253,4.38684,0,0,0,0,0,0,0,-1,1182,1688,-0.359261,-4.38685
-35,-664,-0.705566,3.55017,0,0,0,0,0,0,0,-1,1189,1688,-0.705567,-3.55023
-28,-664,-1.54236,10.2538,0,0,0,0,0,0,0,-1,1196,1688,-1.54236,-10.2538
-21,-664,3.49109,53.3292,0,0,0,0,0,0,0,-1,1203,1688,3.49109,-53.3293
-14,-664,4.48303,53.0902,0,0,0,0,0,0,0,-1,1210,1688,4.48303,-53.0902
-7,-664,5.41296,52.7493,0.0957764,0.0586005,0.02174,0.105792,0.0485853,0.431701,0.0611464,0.0473246,1217,1688,5.41294,-52.7492
0,-664,6.61633,52.8419,0.0928115,0.0602101,0.0250922,0.106433,0.0465887,0.49734,0.0616077,0.0461969,1224,1688,6.61628,-52.842
7,-664,8.21802,52.9692,0.0869701,0.0593569,0.0275936,0.104018,0.0423085,0.553432,0.0604023,0.0464715,1231,1688,8.218,-52.9692
14,-664,8.12573,53.574,0,0,0,0,0,0,0,-1,1238,1688,8.12571,-53.574
21,-664,8.71448,54.1932,0.0709606,0.0538434,0.0259706,0.0897465,0.0350575,0.626228,0.0522267,0.0461561,1245,1688,8.71453,-54.1933
28,-664,9.31384,54.8917,0.0633815,0.0494338,0.0228811,0.080328,0.0324874,0.637477,0.0466589,0.0460627,1252,1688,9.31379,-54.8917
35,-664,10.022,55.229,0.0568087,0.0443686,0.0192943,0.0708608,0.0303165,0.629469,0.0410533,0.0465541,1259,1688,10.0219,-55.229
42,-664,10.8898,55.598,0.0498005,0.0394358,0.0156618,0.0611151,0.0281213,0.625623,0.0353222,0.044517,1266,1688,10.8898,-55.598
49,-664,6.92578,56.5913,0.0422611,0.0335299,0.0132254,0.0518229,0.0239682,0.625982,0.029948,0.0481037,1273,1688,6.92582,-56.5914
56,-664,7.66528,55.8129,0,0,0,0,0,0,0,-1,1280,1688,7.66532,-55.8128
63,-664,10.7164,54.0818,0,0,0,0,0,0,0,-1,1287,1688,10.7164,-54.0818
70,-664,10.1328,53.5044,0,0,0,0,0,0,0,-1,1294,1688,10.1328,-53.5044
77,-664,10.1713,52.9323,0.00510331,0.0089579,0.000420165,0.00900317,0.00505804,1.46347,0.0052112,0.0446348,1301,1688,10.1713,-52.9323
84,-664,10.5292,52.1014,-0.00413349,0.0037575,-0.000885021,0.00385554,-0.00423153,-1.46047,0.00467076,0.0459549,1308,1688,10.5292,-52.1015
91,-664,9.62756,52.0732,0,0,0,0,0,0,0,-1,1315,1688,9.62759,-52.0732
98,-664,9.87561,52.1587,-0.0226587,-0.00598782,-0.0017795,-0.00579999,-0.0228465,-1.46563,0.0137128,0.0499828,1322,1688,9.87565,-52.1587
105,-664,9.34375,51.5774,-0.0325315,-0.0096603,-0.00243513,-0.0094039,-0.0327879,-1.46589,0.0194953,0.0483883,1329,1688,9.34372,-51.5774
112,-664,8.4762,51.6381,-0.0415261,-0.0134059,-0.00287904,-0.0131142,-0.0418178,-1.46981,0.0246964,0.0432539,1336,1688,8.47618,-51.638
119,-664,7.57629,51.2815,-0.0485762,-0.0157355,-0.00337073,-0.0153931,-0.0489186,-1.46956,0.0288826,0.0487961,1343,1688,7.57634,-51.2815
126,-664,6.80481,50.6411,0,0,0,0,0,0,0,-1,1350,1688,6.80486,-50.6411
133,-664,9.80823,51.5897,0,0,0,0,0,0,0,-1,1357,1688,9.80822,-51.5897
140,-664,9.63049,51.5742,0,0,0,0,0,0,0,-1,1364,1688,9.63049,-51.5742
147,-664,9.96594,51.7871,0,0,0,0,0,0,0,-1,1371,1688,9.96594,-51.7871
154,-664,11.9696,51.5223,0,0,0,0,0,0,0,-1,1378,1688,11.9696,-51.5223
161,-664,4.60132,1.56238,0,0,0,0,0,0,0,-1,1385,1688,4.60134,-1.56233
168,-664,5.172,1.25488,0,0,0,0,0,0,0,-1,1392,1688,5.17203,-1.25484
175,-664,5.58313,1.16467,0,0,0,0,0,0,0,-1,1399,1688,5.58317,-1.16466
182,-664,5.74268,1.41113,0,0,0,0,0,0,0,-1,1406,1688,5.74263,-1.41115
189,-664,5.87744,1.87061,0,0,0,0,0,0,0,-1,1413,1688,5.87745,-1.87065
196,-664,6.7594,5.97473,0,0,0,0,0,0,0,-1,1420,1688,6.75943,-5.97478
203,-664,5.38452,5.22034,0,0,0,0,0,0,0,-1,1427,1688,5.38453,-5.2203
210,-664,5.25549,6.45715,0,0,0,0,0,0,0,-1,1434,1688,5.25549,-6.45721
217,-664,5.72009,6.73975,0,0,0,0,0,0,0,-1,1441,1688,5.72014,-6.73972
224,-664,5.05725,7.42908,0,0,0,0,0,0,0,-1,1448,1688,5.05723,-7.42912
231,-664,5.13318,7.60864,0,0,0,0,0,0,0,-1,1455,1688,5.13313,-7.60862
238,-664,4.23193,6.45471,0,0,0,0,0,0,0,-1,1462,1688,4.23197,-6.45476
245,-664,4.42004,6.80896,0,0,0,0,0,0,0,-1,1469,1688,4.4201,-6.80901
252,-664,3.67346,6.85461,0,0,0,0,0,0,0,-1,1476,1688,3.6734,-6.85462
259,-664,4.55823,11.7435,0,0,0,0,0,0,0,-1,1483,1688,4.55826,-11.7435
266,-664,11.7378,47.1025,0,0,0,0,0,0,0,-1,1490,1688,11.7378,-47.1026
273,-664,11.9675,47.214,0,0,0,0,0,0,0,-1,1497,1688,11.9676,-47.214
280,-664,11.9456,46.8196,0.00575691,0.00752174,-0.0014638,0.00834852,0.00493012,-1.05664,0.00484629,0.0310677,1504,1688,11.9456,-46.8196
287,-664,11.9039,46.3595,0.00543429,0.00711619,-0.00142276,0.00792795,0.00462253,-1.05231,0.00459821,0.0294462,1511,1688,11.9039,-46.3595
294,-664,12.0016,45.9269,0.0051462,0.00701962,-0.00159976,0.00793674,0.00422909,-1.05025,0.00458557,0.0213404,1518,1688,12.0015,-45.9268
301,-664,12.0754,45.4976,0.00469023,0.00715712,-0.00178306,0.00809178,0.00375557,-1.08798,0.0046758,0.0137695,1525,1688,12.0754,-45.4976
308,-664,12.092,45.0507,0.00416951,0.00725771,-0.00185024,0.00812351,0.00330371,-1.13312,0.00471726,0.0119631,1532,1688,12.0921,-45.0506
315,-664,12.1074,44.6279,0.00373501,0.0071415,-0.0018933,0.00798495,0.00289156,-1.1517,0.00466817,0.0122683,1539,1688,12.1074,-44.6279
322,-664,12.1418,44.2391,0.00348111,0.00691024,-0.00212457,0.0079258,0.00246556,-1.1249,0.00468357,0.0158032,1546,1688,12.1418,-44.2391
329,-664,12.1377,43.8375,0.00337715,0.00636626,-0.00239948,0.00769858,0.00204484,-1.06393,0.00460469,0.0179183,1553,1688,12.1377,-43.8375
336,-664,12.1105,43.3578,0.00339057,0.005568,-0.00260687,0.00730436,0.00165421,-0.983206,0.00442253,0.0145039,1560,1688,12.1105,-43.3578
343,-664,12.0961,42.9017,0.00345144,0.00466547,-0.00287248,0.00699437,0.00112254,-0.889526,0.00433742,0.0126816,1567,1688,12.0961,-42.9017
350,-664,12.0819,42.4557,0.00349669,0.00351149,-0.00326339,0.00676749,0.000240699,-0.786532,0.0044336,0.0143727,1574,1688,12.0819,-42.4557
357,-664,12.0656,41.9792,0.0034098,0.00240124,-0.00367845,0.00661838,-0.000807339,-0.717277,0.00470451,0.0128074,1581,1688,12.0655,-41.9792
364,-664,12.0824,41.4976,0.00316707,0.00128732,-0.00404479,0.00637975,-0.00192536,-0.671241,0.00501958,0.0105477,1588,1688,12.0824,-41.4976
371,-664,12.075,41.0419,0.002493,0.000356061,-0.00411451,0.00567551,-0.00282644,-0.658362,0.00499963,0.0133362,1595,1688,12.0749,-41.0419
378,-664,12.0323,40.5618,0.00189908,-0.000623341,-0.00421281,0.00503542,-0.00375967,-0.639956,0.00509562,0.0125924,1602,1688,12.0323,-40.5617
385,-664,12.001,40.0586,0.00101182,-0.00141408,-0.00425189,0.00422038,-0.00462264,-0.646453,0.00510728,0.013685,1609,1688,12.001,-40.0586
392,-664,11.9586,39.5902,-0.000308592,-0.00195234,-0.00420981,0.00315882,-0.00541975,-0.688996,0.00500985,0.01728,1616,1688,11.9586,-39.5903
399,-664,11.9829,39.0808,-0.00174675,-0.00216201,-0.00416446,0.00221526,-0.00612401,-0.76049,0.00498786,0.0141378,1623,1688,11.983,-39.0808
406,-664,11.9735,38.5731,-0.00307689,-0.00185772,-0.00431707,0.00189259,-0.0068272,-0.855536,0.00529628,0.0118606,1630,1688,11.9735,-38.5731
413,-664,11.941,38.0468,-0.00462279,-0.00102567,-0.00426564,0.00180507,-0.00745354,-0.984908,0.00566736,0.0111318,1637,1688,11.941,-38.0468
420,-664,11.8721,37.531,-0.0062431,-0.000155036,-0.00382713,0.00169103,-0.00808916,-1.12136,0.00603594,0.0252333,1644,1688,11.8721,-37.531
427,-664,11.7993,37.0869,-0.00704538,0.000576437,-0.0043773,0.0025693,-0.00903824,-1.14357,0.00703998,0.0431844,1651,1688,11.7994,-37.087
434,-664,11.8781,36.6201,-0.00728716,0.00140162,-0.00483401,0.00355656,-0.0094421,-1.15145,0.00775697,0.0431499,1658,1688,11.8781,-36.6201
441,-664,11.7383,36.0082,-0.00670162,0.00249505,-0.00587169,0.00535469,-0.00956126,-1.11759,0.00872514,0.0466197,1665,1688,11.7383,-36.0082
448,-664,11.6012,35.1592,0,0,0,0,0,0,0,-1,1672,1688,11.6013,-35.1592
455,-664,7.53198,11.3838,0,0,0,0,0,0,0,-1,1679,1688,7.53195,-11.3838
462,-664,4.3147,4.25439,0,0,0,0,0,0,0,-1,1686,1688,4.31467,-4.25435
469,-664,6.05469,7.49341,0,0,0,0,0,0,0,-1,1693,1688,6.05474,-7.49339
476,-664,10.2377,22.7128,0,0,0,0,0,0,0,-1,1700,1688,10.2377,-22.7128
483,-664,8.41895,10.9768,0,0,0,0,0,0,0,-1,1707,1688,8.41897,-10.9769
490,-664,3.90771,13.2842,0,0,0,0,0,0,0,-1,1714,1688,3.90776,-13.2841
497,-664,0,0,0,0,0,0,0,0,0,-1,1721,1688,0,0
504,-664,0,0,0,0,0,0,0,0,0,-1,1728,1688,0,0
511,-664,0,0,0,0,0,0,0,0,0,-1,1735,1688,0,0
518,-664,0,0,0,0,0,0,0,0,0,-1,1742,1688,0,0
525,-664,0,0,0,0,0,0,0,0,0,-1,1749,1688,0,0
532,-664,0,0,0,0,0,0,0,0,0,-1,1756,1688,0,0
539,-664,0,0,0,0,0,0,0,0,0,-1,1763,1688,0,0
546,-664,0,0,0,0,0,0,0,0,0,-1,1770,1688,0,0
553,-664,0,0,0,0,0,0,0,0,0,-1,1777,1688,0,0
560,-664,0,0,0,0,0,0,0,0,0,-1,1784,1688,0,0
567,-664,0,0,0,0,0,0,0,0,0,-1,1791,1688,0,0
574,-664,0,0,0,0,0,0,0,0,0,-1,1798,1688,0,0
581,-664,0,0,0,0,0,0,0,0,0,-1,1805,1688,0,0
588,-664,0,0,0,0,0,0,0,0,0,-1,1812,1688,0,0
595,-664,0,0,0,0,0,0,0,0,0,-1,1819,1688,0,0
602,-664,0,0,0,0,0,0,0,0,0,-1,1826,1688,0,0
609,-664,0,0,0,0,0,0,0,0,0,-1,1833,1688,0,0
616,-664,0,0,0,0,0,0,0,0,0,-1,1840,1688,0,0
623,-664,0,0,0,0,0,0,0,0,0,-1,1847,1688,0,0
630,-664,0,0,0,0,0,0,0,0,0,-1,1854,1688,0,0
637,-664,0,0,0,0,0,0,0,0,0,-1,1861,1688,0,0
644,-664,0,0,0,0,0,0,0,0,0,-1,1868,1688,0,0
651,-664,0,0,0,0,0,0,0,0,0,-1,1875,1688,0,0
658,-664,0,0,0,0,0,0,0,0,0,-1,1882,1688,0,0
665,-664,0,0,0,0,0,0,0,0,0,-1,1889,1688,0,0
672,-664,0,0,0,0,0,0,0,0,0,-1,1896,1688,0,0
679,-664,0,0,0,0,0,0,0,0,0,-1,1903,1688,0,0
686,-664,0,0,0,0,0,0,0,0,0,-1,1910,1688,0,0
693,-664,0,0,0,0,0,0,0,0,0,-1,1917,1688,0,0
700,-664,0,0,0,0,0,0,0,0,0,-1,1924,1688,0,0
707,-664,0,0,0,0,0,0,0,0,0,-1,1931,1688,0,0
714,-664,0,0,0,0,0,0,0,0,0,-1,1938,1688,0,0
721,-664,0,0,0,0,0,0,0,0,0,-1,1945,1688,0,0
728,-664,0,0,0,0,0,0,0,0,0,-1,1952,1688,0,0
735,-664,0,0,0,0,0,0,0,0,0,-1,1959,1688,0,0
742,-664,0,0,0,0,0,0,0,0,0,-1,1966,1688,0,0
749,-664,0,0,0,0,0,0,0,0,0,-1,1973,1688,0,0
756,-664,0,0,0,0,0,0,0,0,0,-1,1980,1688,0,0
763,-664,0,0,0,0,0,0,0,0,0,-1,1987,1688,0,0
770,-664,0,0,0,0,0,0,0,0,0,-1,1994,1688,0,0
777,-664,0,0,0,0,0,0,0,0,0,-1,2001,1688,0,0
784,-664,0,0,0,0,0,0,0,0,0,-1,2008,1688,0,0
791,-664,0,0,0,0,0,0,0,0,0,-1,2015,1688,0,0
798,-664,0,0,0,0,0,0,0,0,0,-1,2022,1688,0,0
805,-664,0,0,0,0,0,0,0,0,0,-1,2029,1688,0,0
812,-664,0,0,0,0,0,0,0,0,0,-1,2036,1688,0,0
-700,-671,0,0,0,0,0,0,0,0,0,-1,524,1695,0,0
-693,-671,0,0,0,0,0,0,0,0,0,-1,531,1695,0,0
-686,-671,0,0,0,0,0,0,0,0,0,-1,538,1695,0,0
-679,-671,0,0,0,0,0,0,0,0,0,-1,545,1695,0,0
-672,-671,0,0,0,0,0,0,0,0,0,-1,552,1695,0,0
-665,-671,0,0,0,0,0,0,0,0,0,-1,559,1695,0,0
-658,-671,0,0,0,0,0,0,0,0,0,-1,566,1695,0,0
-651,-671,0,0,0,0,0,0,0,0,0,-1,573,1695,0,0
-644,-671,0,0,0,0,0,0,0,0,0,-1,580,1695,0,0
-637,-671,0,0,0,0,0,0,0,0,0,-1,587,1695,0,0
-630,-671,0,0,0,0,0,0,0,0,0,-1,594,1695,0,0
-623,-671,0,0,0,0,0,0,0,0,0,-1,601,1695,0,0
-616,-671,0,0,0,0,0,0,0,0,0,-1,608,1695,0,0
-609,-671,0,0,0,0,0,0,0,0,0,-1,615,1695,0,0
-602,-671,0,0,0,0,0,0,0,0,0,-1,622,1695,0,0
-595,-671,0,0,0,0,0,0,0,0,0,-1,629,1695,0,0
-588,-671,0,0,0,0,0,0,0,0,0,-1,636,1695,0,0
-581,-671,0,0,0,0,0,0,0,0,0,-1,643,1695,0,0
-574,-671,0,0,0,0,0,0,0,0,0,-1,650,1695,0,0
-567,-671,0,0,0,0,0,0,0,0,0,-1,657,1695,0,0
-560,-671,0,0,0,0,0,0,0,0,0,-1,664,1695,0,0
-553,-671,0,0,0,0,0,0,0,0,0,-1,671,1695,0,0
-546,-671,0,0,0,0,0,0,0,0,0,-1,678,1695,0,0
-539,-671,0,0,0,0,0,0,0,0,0,-1,685,1695,0,0
-532,-671,0,0,0,0,0,0,0,0,0,-1,692,1695,0,0
-525,-671,0,0,0,0,0,0,0,0,0,-1,699,1695,0,0
-518,-671,0,0,0,0,0,0,0,0,0,-1,706,1695,0,0
-511,-671,0,0,0,0,0,0,0,0,0,-1,713,1695,0,0
-504,-671,0,0,0,0,0,0,0,0,0,-1,720,1695,0,0
-497,-671,0,0,0,0,0,0,0,0,0,-1,727,1695,0,0
-490,-671,0,0,0,0,0,0,0,0,0,-1,734,1695,0,0
-483,-671,0,0,0,0,0,0,0,0,0,-1,741,1695,0,0
-476,-671,0,0,0,0,0,0,0,0,0,-1,748,1695,0,0
-469,-671,0,0,0,0,0,0,0,0,0,-1,755,1695,0,0
-462,-671,0,0,0,0,0,0,0,0,0,-1,762,1695,0,0
-455,-671,0,0,0,0,0,0,0,0,0,-1,769,1695,0,0
-448,-671,0,0,0,0,0,0,0,0,0,-1,776,1695,0,0
-441,-671,0,0,0,0,0,0,0,0,0,-1,783,1695,0,0
-434,-671,0,0,0,0,0,0,0,0,0,-1,790,1695,0,0
-427,-671,0,0,0,0,0,0,0,0,0,-1,797,1695,0,0
-420,-671,0,0,0,0,0,0,0,0,0,-1,804,1695,0,0
-413,-671,0,0,0,0,0,0,0,0,0,-1,811,1695,0,0
-406,-671,0,0,0,0,0,0,0,0,0,-1,818,1695,0,0
-399,-671,0,0,0,0,0,0,0,0,0,-1,825,1695,0,0
-392,-671,0,0,0,0,0,0,0,0,0,-1,832,1695,0,0
-385,-671,0,0,0,0,0,0,0,0,0,-1,839,1695,0,0
-378,-671,0,0,0,0,0,0,0,0,0,-1,846,1695,0,0
-371,-671,0,0,0,0,0,0,0,0,0,-1,853,1695,0,0
-364,-671,-4.18738,7.51416,0,0,0,0,0,0,0,-1,860,1695,-4.18739,-7.51419
-357,-671,-5.02393,6.07129,0,0,0,0,0,0,0,-1,867,1695,-5.0239,-6.07135
-350,-671,6.93323,33.8943,0,0,0,0,0,0,0,-1,874,1695,6.93325,-33.8943
-343,-671,7.216,34.2831,0,0,0,0,0,0,0,-1,881,1695,7.21599,-34.2831
-336,-671,7.48438,34.6631,0,0,0,0,0,0,0,-1,888,1695,7.4844,-34.663
-329,-671,6.10327,30.4865,0,0,0,0,0,0,0,-1,895,1695,6.10329,-30.4864
-322,-671,7.50946,33.8042,0,0,0,0,0,0,0,-1,902,1695,7.50944,-33.8042
-315,-671,7.78925,34.3679,0,0,0,0,0,0,0,-1,909,1695,7.78924,-34.3679
-308,-671,7.42792,35.423,0,0,0,0,0,0,0,-1,916,1695,7.42789,-35.423
-301,-671,6.96222,36.4163,0,0,0,0,0,0,0,-1,923,1695,6.96225,-36.4163
-294,-671,7.35144,37.4265,0,0,0,0,0,0,0,-1,930,1695,7.35146,-37.4265
-287,-671,7.32526,37.5878,-0.00913073,0.00131344,-0.00591407,0.00398099,-0.0117983,-1.14707,0.0094755,0.0445328,937,1695,7.32527,-37.5878
-280,-671,7.0827,38.0079,-0.00844855,0.00143757,-0.00513476,0.0036219,-0.0106329,-1.16859,0.00855537,0.0381822,944,1695,7.08268,-38.0079
-273,-671,6.96826,38.4677,-0.00744648,0.00170294,-0.00398697,0.0031965,-0.00894004,-1.21237,0.00726387,0.0352315,951,1695,6.96826,-38.4676
-266,-671,6.92804,39.0063,-0.00610108,0.00205721,-0.00278931,0.00291969,-0.00696357,-1.27091,0.00586315,0.0253382,958,1695,6.92803,-39.0064
-259,-671,6.79535,39.4911,-0.00496804,0.00210991,-0.00187586,0.00257634,-0.00543447,-1.32709,0.00472214,0.0217194,965,1695,6.79537,-39.4911
-252,-671,6.76782,40.0719,-0.00410361,0.00201747,-0.00117596,0.00223562,-0.00432175,-1.38738,0.00384923,0.0170137,972,1695,6.76783,-40.0719
-245,-671,6.74622,40.5728,-0.00324715,0.00197747,-0.000547454,0.00203422,-0.00330389,-1.46751,0.00311088,0.0190433,979,1695,6.74621,-40.5727
-238,-671,6.75531,41.0873,-0.00244517,0.00207863,7.82131e-05,0.00207999,-0.00244652,1.55351,0.00261623,0.019443,986,1695,6.75529,-41.0872
-231,-671,6.71948,41.5809,-0.00146289,0.00184929,0.000655528,0.00197431,-0.0015879,1.38234,0.00206067,0.0150332,993,1695,6.7195,-41.5809
-224,-671,6.66669,42.0603,-0.000520249,0.00154305,0.00105166,0.00198459,-0.000961789,1.1733,0.00173492,0.011878,1000,1695,6.66669,-42.0603
-217,-671,6.64703,42.546,0.00020856,0.00138256,0.00125059,0.00217706,-0.00058594,1.00482,0.00168108,0.0116474,1007,1695,6.64701,-42.546
-210,-671,6.63177,43.0276,0.000949034,0.0014191,0.00143603,0.0026392,-0.000271069,0.866513,0.00185643,0.0112832,1014,1695,6.63179,-43.0276
-203,-671,6.59998,43.4752,0.0017346,0.00158313,0.00165117,0.00331177,5.95243e-06,0.762481,0.00220587,0.0191208,1021,1695,6.59992,-43.4752
-196,-671,6.59851,43.9397,0.00246807,0.00182958,0.00190306,0.00407848,0.000219173,0.702296,0.00264896,0.0164177,1028,1695,6.5985,-43.9397
-189,-671,6.5896,44.4059,0.00314226,0.00219406,0.00206668,0.00478852,0.000547806,0.672648,0.00302632,0.0120747,1035,1695,6.58955,-44.4058
-182,-671,6.59778,44.8291,0.00381253,0.00301712,0.00220572,0.00565612,0.00117354,0.696204,0.00344681,0.00981601,1042,1695,6.5978,-44.8291
-175,-671,6.60901,45.2263,0.00444985,0.00403264,0.00230536,0.00655602,0.00192647,0.740278,0.00389088,0.0131473,1049,1695,6.609,-45.2263
-168,-671,6.59814,45.6299,0.00492802,0.00532445,0.0023981,0.00753251,0.00271996,0.826632,0.00440448,0.0138831,1056,1695,6.59815,-45.6299
-161,-671,6.58765,46.0454,0.00525225,0.00663272,0.00233985,0.00838201,0.00350295,0.928825,0.00486105,0.00986322,1063,1695,6.58766,-46.0455
-154,-671,6.60913,46.449,0.00549374,0.00807192,0.002135,0.00927682,0.00428884,1.057,0.00536104,0.00925612,1070,1695,6.60913,-46.449
-147,-671,6.60205,46.866,0.00563459,0.00958711,0.00180729,0.0102889,0.00493281,1.20041,0.00594197,0.0106216,1077,1695,6.60206,-46.866
-140,-671,6.64856,47.2423,0.00567408,0.0109497,0.00133082,0.0112664,0.00535738,1.33717,0.00650726,0.0136437,1084,1695,6.64854,-47.2423
-133,-671,6.68054,47.5914,0.00573808,0.0122518,0.000806035,0.01235,0.00563982,1.44949,0.00713922,0.0188891,1091,1695,6.68059,-47.5914
-126,-671,6.71313,48.0734,0.00598572,0.0129481,0.00039206,0.0129701,0.00596371,1.51472,0.00749635,0.0303504,1098,1695,6.7131,-48.0734
-119,-671,6.91602,48.5625,0,0,0,0,0,0,0,-1,1105,1695,6.91602,-48.5625
-112,-671,6.58704,44.6255,0,0,0,0,0,0,0,-1,1112,1695,6.58701,-44.6255
-105,-671,7.33252,41.3418,0,0,0,0,0,0,0,-1,1119,1695,7.33247,-41.3418
-98,-671,6.34534,45.6299,0,0,0,0,0,0,0,-1,1126,1695,6.34533,-45.6299
-91,-671,6.40063,38.2443,0,0,0,0,0,0,0,-1,1133,1695,6.40059,-38.2442
-84,-671,5.4209,26.2415,0,0,0,0,0,0,0,-1,1140,1695,5.42096,-26.2414
-77,-671,4.31763,16.489,0,0,0,0,0,0,0,-1,1147,1695,4.31757,-16.489
-70,-671,3.06067,10.7737,0,0,0,0,0,0,0,-1,1154,1695,3.0607,-10.7737
-63,-671,2.94592,6.90198,0,0,0,0,0,0,0,-1,1161,1695,2.94594,-6.90198
-56,-671,-3.07678,2.87976,0,0,0,0,0,0,0,-1,1168,1695,-3.07675,-2.87979
-49,-671,-1.05957,4.76917,0,0,0,0,0,0,0,-1,1175,1695,-1.05958,-4.76921
-42,-671,0.539307,3.7865,0,0,0,0,0,0,0,-1,1182,1695,0.539266,-3.78648
-35,-671,-0.272461,0.347534,0,0,0,0,0,0,0,-1,1189,1695,-0.272434,-0.347569
-28,-671,-10.4878,17.2009,0,0,0,0,0,0,0,-1,1196,1695,-10.4878,-17.2009
-21,-671,8.77966,51.1119,0,0,0,0,0,0,0,-1,1203,1695,8.77967,-51.112
-14,-671,7.68457,51.6964,0,0,0,0,0,0,0,-1,1210,1695,7.68456,-51.6965
-7,-671,8.12537,52.436,0.0741925,0.050854,0.0161042,0.0824109,0.0426357,0.471872,0.0475895,0.0483288,1217,1695,8.12533,-52.436
0,-671,6.61841,52.2885,0.0718911,0.051902,0.0190325,0.0833936,0.0403994,0.543623,0.0481551,0.0452026,1224,1695,6.61837,-52.2885
7,-671,8.31262,52.116,0.0678883,0.0520315,0.0212694,0.0826589,0.0372609,0.606995,0.0478002,0.0440993,1231,1695,8.31258,-52.1159
14,-671,8.33984,55.24,0.0624774,0.0510798,0.0217155,0.0792294,0.0343277,0.657077,0.0458787,0.0461197,1238,1695,8.33985,-55.24
21,-671,8.49768,55.2933,0,0,0,0,0,0,0,-1,1245,1695,8.49774,-55.2933
28,-671,9.13477,54.6118,0.0507531,0.0456098,0.0185086,0.0668679,0.029495,0.716368,0.0386954,0.0463617,1252,1695,9.1348,-54.6118
35,-671,9.77002,55.3008,0.0455903,0.0415956,0.0158969,0.0596149,0.027571,0.722903,0.0344509,0.048975,1259,1695,9.77,-55.3008
42,-671,10.5751,55.115,0.0400882,0.0375141,0.0131528,0.0520167,0.0255855,0.736626,0.0300332,0.0472173,1266,1695,10.5751,-55.115
49,-671,5.97815,57.2706,0,0,0,0,0,0,0,-1,1273,1695,5.97817,-57.2706
56,-671,11.0303,54.0164,0.0272244,0.0270693,0.00791809,0.0350653,0.0192284,0.780504,0.0202765,0.0437547,1280,1695,11.0303,-54.0164
63,-671,10.4111,53.6245,0,0,0,0,0,0,0,-1,1287,1695,10.4111,-53.6245
70,-671,10.2789,53.0895,0.0112102,0.0147014,0.00180778,0.0154688,0.0104428,1.16935,0.00911161,0.0456962,1294,1695,10.2789,-53.0895
77,-671,10.0985,52.5513,0.00337564,0.00896707,0.000128035,0.00897,0.00337271,1.54791,0.00523165,0.04369,1301,1695,10.0986,-52.5512
84,-671,9.8009,52.1061,-0.00409635,0.00388346,-0.00120166,0.00406049,-0.00427338,-1.42453,0.00481208,0.0474511,1308,1695,9.80085,-52.1061
91,-671,9.59875,52.1428,-0.011417,-0.000982912,-0.00195664,-0.000628064,-0.0117718,-1.39139,0.00764712,0.0458451,1315,1695,9.5987,-52.1428
98,-671,9.50623,52.235,-0.0187358,-0.00532723,-0.00221847,-0.00496971,-0.0190933,-1.41102,0.0114381,0.0416795,1322,1695,9.50628,-52.2349
105,-671,9.4093,51.8586,-0.0261557,-0.00849618,-0.00284778,-0.0080483,-0.0266036,-1.4148,0.0157538,0.0426642,1329,1695,9.40925,-51.8586
112,-671,9.29846,51.7416,-0.032969,-0.011728,-0.00318629,-0.0112604,-0.0334367,-1.42506,0.0196446,0.040889,1336,1695,9.29848,-51.7415
119,-671,6.70776,51.5775,-0.0384657,-0.0136062,-0.00350766,-0.0131207,-0.0389512,-1.43327,0.022884,0.0426821,1343,1695,6.70776,-51.5775
126,-671,5.58228,51.0219,0,0,0,0,0,0,0,-1,1350,1695,5.58233,-51.0218
133,-671,9.84558,51.6011,-0.0422576,-0.0125072,-0.00475445,-0.0117658,-0.0429989,-1.41612,0.0256595,0.0490416,1357,1695,9.84564,-51.6011
140,-671,9.8855,51.6115,-0.0411409,-0.010372,-0.00547823,-0.00942577,-0.0420872,-1.39975,0.0255036,0.0465568,1364,1695,9.88545,-51.6115
147,-671,9.80835,51.5853,-0.0387057,-0.00844629,-0.00611703,-0.0072565,-0.0398955,-1.37869,0.0245385,0.0472301,1371,1695,9.80837,-51.5853
154,-671,9.98901,51.4144,0,0,0,0,0,0,0,-1,1378,1695,9.98899,-51.4145
161,-671,4.49292,4.91272,0,0,0,0,0,0,0,-1,1385,1695,4.49297,-4.91273
168,-671,5.17639,6.1416,0,0,0,0,0,0,0,-1,1392,1695,5.1764,-6.14164
175,-671,5.6731,1.64685,0,0,0,0,0,0,0,-1,1399,1695,5.67313,-1.64691
182,-671,5.56812,1.71692,0,0,0,0,0,0,0,-1,1406,1695,5.56809,-1.71686
189,-671,6.98315,6.36169,0,0,0,0,0,0,0,-1,1413,1695,6.98312,-6.36175
196,-671,5.38123,5.69775,0,0,0,0,0,0,0,-1,1420,1695,5.38125,-5.69769
203,-671,5.95117,8.11658,0,0,0,0,0,0,0,-1,1427,1695,5.9512,-8.11662
210,-671,4.73596,8.39624,0,0,0,0,0,0,0,-1,1434,1695,4.736,-8.39618
217,-671,5.37097,11.863,0,0,0,0,0,0,0,-1,1441,1695,5.37094,-11.863
224,-671,5.08167,13.6694,0,0,0,0,0,0,0,-1,1448,1695,5.08165,-13.6695
231,-671,5.66663,15.3348,0,0,0,0,0,0,0,-1,1455,1695,5.66667,-15.3349
238,-671,6.32959,16.2036,0,0,0,0,0,0,0,-1,1462,1695,6.32961,-16.2037
245,-671,11.6053,48.1979,0,0,0,0,0,0,0,-1,1469,1695,11.6053,-48.1979
252,-671,11.5074,48.0068,0,0,0,0,0,0,0,-1,1476,1695,11.5075,-48.0068
259,-671,11.5299,47.8721,0,0,0,0,0,0,0,-1,1483,1695,11.53,-47.8721
266,-671,11.5444,47.3658,0.00488547,0.00557732,-0.00105106,0.00633792,0.00412487,-0.944374,0.00371428,0.0339539,1490,1695,11.5444,-47.3659
273,-671,11.6198,47.0424,0.00463465,0.00526636,-0.000972952,0.00597344,0.00392757,-0.942349,0.00350534,0.0101868,1497,1695,11.6198,-47.0423
280,-671,11.6222,46.6748,0.00439483,0.00521693,-0.00107674,0.00595841,0.00365334,-0.967737,0.00346932,0.00944119,1504,1695,11.6222,-46.6748
287,-671,11.6232,46.2163,0.00412441,0.00500494,-0.00111759,0.00576586,0.00336349,-0.973035,0.0033443,0.0118227,1511,1695,11.6231,-46.2163
294,-671,11.6261,45.8219,0.00387503,0.0049941,-0.00128296,0.00583423,0.0030349,-0.991027,0.00336931,0.01184,1518,1695,11.6261,-45.8219
301,-671,11.6576,45.4739,0.00351494,0.0050557,-0.0014366,0.00591545,0.00265519,-1.03151,0.00342124,0.011404,1525,1695,11.6575,-45.4738
308,-671,11.6718,45.0786,0.003189,0.00506158,-0.00156639,0.00595018,0.0023004,-1.05478,0.00346466,0.0126499,1532,1695,11.6717,-45.0787
315,-671,11.681,44.6525,0.00306142,0.00480728,-0.0018097,0.00594358,0.00192512,-1.01012,0.00350175,0.014024,1539,1695,11.681,-44.6525
322,-671,11.7031,44.265,0.0030356,0.00444655,-0.00205501,0.0059138,0.00156834,-0.950743,0.0035376,0.0162596,1546,1695,11.7031,-44.2651
329,-671,11.6793,43.8809,0.00319824,0.00381693,-0.00243421,0.00596138,0.00105379,-0.8486,0.00367372,0.0155659,1553,1695,11.6793,-43.8808
336,-671,11.6511,43.4117,0.00349798,0.00293848,-0.00275947,0.00599185,0.000444614,-0.734882,0.00385492,0.0118813,1560,1695,11.6511,-43.4117
343,-671,11.6714,42.9136,0.0038809,0.00193135,-0.0031786,0.00623083,-0.00041859,-0.636617,0.00430022,0.0129516,1567,1695,11.6714,-42.9135
350,-671,11.6509,42.4923,0.00420213,0.000700608,-0.00376829,0.00660651,-0.00170377,-0.567932,0.00506863,0.0136185,1574,1695,11.6508,-42.4923
357,-671,11.6155,41.9939,0.0043284,-0.000344805,-0.00447426,0.00703944,-0.00305584,-0.54476,0.00597786,0.0120263,1581,1695,11.6155,-41.9939
364,-671,11.6201,41.5126,0.00424963,-0.0014119,-0.00510094,0.00725263,-0.0044149,-0.532081,0.00680234,0.0121408,1588,1695,11.6201,-41.5126
371,-671,11.5946,41.0629,0.00359225,-0.00219102,-0.00536874,0.00679856,-0.00539733,-0.538372,0.00705677,0.0140238,1595,1695,11.5945,-41.0629
378,-671,11.5594,40.578,0.00297877,-0.00303751,-0.00568771,0.00640483,-0.00646357,-0.542155,0.0074296,0.0120688,1602,1695,11.5595,-40.578
385,-671,11.5309,40.0681,0.0019433,-0.00358011,-0.00595691,0.00574755,-0.00738436,-0.56834,0.00760132,0.0134791,1609,1695,11.5309,-40.0681
392,-671,11.5067,39.5759,0.000332224,-0.00386588,-0.00610132,0.00468547,-0.00821912,-0.619724,0.007543,0.018371,1616,1695,11.5067,-39.5759
399,-671,11.48,39.1122,-0.0015128,-0.00373142,-0.00625972,0.00373514,-0.00897936,-0.697702,0.00754599,0.0147898,1623,1695,11.4799,-39.1122
406,-671,11.4683,38.5706,-0.00344798,-0.00292275,-0.0065783,0.00339817,-0.00976891,-0.805348,0.00789305,0.0184746,1630,1695,11.4683,-38.5705
413,-671,11.4099,38.0507,-0.00587393,-0.00152793,-0.00645751,0.00311239,-0.0105143,-0.9477,0.00824516,0.0277087,1637,1695,11.4099,-38.0507
420,-671,10.6475,37.5134,-0.00863764,-5.03715e-05,-0.00552574,0.00265379,-0.0113418,-1.11568,0.00858365,0.0445843,1644,1695,10.6475,-37.5134
427,-671,11.2394,37.2874,0,0,0,0,0,0,0,-1,1651,1695,11.2394,-37.2873
434,-671,11.3566,36.9467,0,0,0,0,0,0,0,-1,1658,1695,11.3565,-36.9466
441,-671,11.1353,36.4827,0,0,0,0,0,0,0,-1,1665,1695,11.1353,-36.4827
448,-671,7.44873,20.2306,0,0,0,0,0,0,0,-1,1672,1695,7.44872,-20.2306
455,-671,6.62805,19.8612,0,0,0,0,0,0,0,-1,1679,1695,6.62811,-19.8612
462,-671,5.86255,4.47961,0,0,0,0,0,0,0,-1,1686,1695,5.8625,-4.4796
469,-671,3.71301,3.76978,0,0,0,0,0,0,0,-1,1693,1695,3.71297,-3.76974
476,-671,3.75574,3.18848,0,0,0,0,0,0,0,-1,1700,1695,3.7558,-3.18847
483,-671,7.81824,12.1041,0,0,0,0,0,0,0,-1,1707,1695,7.81826,-12.1041
490,-671,0,0,0,0,0,0,0,0,0,-1,1714,1695,0,0
497,-671,0,0,0,0,0,0,0,0,0,-1,1721,1695,0,0
504,-671,0,0,0,0,0,0,0,0,0,-1,1728,1695,0,0
511,-671,0,0,0,0,0,0,0,0,0,-1,1735,1695,0,0
518,-671,0,0,0,0,0,0,0,0,0,-1,1742,1695,0,0
525,-671,0,0,0,0,0,0,0,0,0,-1,1749,1695,0,0
532,-671,0,0,0,0,0,0,0,0,0,-1,1756,1695,0,0
539,-671,0,0,0,0,0,0,0,0,0,-1,1763,1695,0,0
546,-671,0,0,0,0,0,0,0,0,0,-1,1770,1695,0,0
553,-671,0,0,0,0,0,0,0,0,0,-1,1777,1695,0,0
560,-671,0,0,0,0,0,0,0,0,0,-1,1784,1695,0,0
567,-671,0,0,0,0,0,0,0,0,0,-1,1791,1695,0,0
574,-671,0,0,0,0,0,0,0,0,0,-1,1798,1695,0,0
581,-671,0,0,0,0,0,0,0,0,0,-1,1805,1695,0,0
588,-671,0,0,0,0,0,0,0,0,0,-1,1812,1695,0,0
595,-671,0,0,0,0,0,0,0,0,0,-1,1819,1695,0,0
602,-671,0,0,0,0,0,0,0,0,0,-1,1826,1695,0,0
609,-671,0,0,0,0,0,0,0,0,0,-1,1833,1695,0,0
616,-671,0,0,0,0,0,0,0,0,0,-1,1840,1695,0,0
623,-671,0,0,0,0,0,0,0,0,0,-1,1847,1695,0,0
630,-671,0,0,0,0,0,0,0,0,0,-1,1854,1695,0,0
637,-671,0,0,0,0,0,0,0,0,0,-1,1861,1695,0,0
644,-671,0,0,0,0,0,0,0,0,0,-1,1868,1695,0,0
651,-671,0,0,0,0,0,0,0,0,0,-1,1875,1695,0,0
658,-671,0,0,0,0,0,0,0,0,0,-1,1882,1695,0,0
665,-671,0,0,0,0,0,0,0,0,0,-1,1889,1695,0,0
672,-671,0,0,0,0,0,0,0,0,0,-1,1896,1695,0,0
679,-671,0,0,0,0,0,0,0,0,0,-1,1903,1695,0,0
686,-671,0,0,0,0,0,0,0,0,0,-1,1910,1695,0,0
693,-671,0,0,0,0,0,0,0,0,0,-1,1917,1695,0,0
700,-671,0,0,0,0,0,0,0,0,0,-1,1924,1695,0,0
707,-671,0,0,0,0,0,0,0,0,0,-1,1931,1695,0,0
714,-671,0,0,0,0,0,0,0,0,0,-1,1938,1695,0,0
721,-671,0,0,0,0,0,0,0,0,0,-1,1945,1695,0,0
728,-671,0,0,0,0,0,0,0,0,0,-1,1952,1695,0,0
735,-671,0,0,0,0,0,0,0,0,0,-1,1959,1695,0,0
742,-671,0,0,0,0,0,0,0,0,0,-1,1966,1695,0,0
749,-671,0,0,0,0,0,0,0,0,0,-1,1973,1695,0,0
756,-671,0,0,0,0,0,0,0,0,0,-1,1980,1695,0,0
763,-671,0,0,0,0,0,0,0,0,0,-1,1987,1695,0,0
770,-671,0,0,0,0,0,0,0,0,0,-1,1994,1695,0,0
777,-671,0,0,0,0,0,0,0,0,0,-1,2001,1695,0,0
784,-671,0,0,0,0,0,0,0,0,0,-1,2008,1695,0,0
791,-671,0,0,0,0,0,0,0,0,0,-1,2015,1695,0,0
798,-671,0,0,0,0,0,0,0,0,0,-1,2022,1695,0,0
805,-671,0,0,0,0,0,0,0,0,0,-1,2029,1695,0,0
812,-671,0,0,0,0,0,0,0,0,0,-1,2036,1695,0,0
-700,-678,0,0,0,0,0,0,0,0,0,-1,524,1702,0,0
-693,-678,0,0,0,0,0,0,0,0,0,-1,531,1702,0,0
-686,-678,0,0,0,0,0,0,0,0,0,-1,538,1702,0,0
-679,-678,0,0,0,0,0,0,0,0,0,-1,545,1702,0,0
-672,-678,0,0,0,0,0,0,0,0,0,-1,552,1702,0,0
-665,-678,0,0,0,0,0,0,0,0,0,-1,559,1702,0,0
-658,-678,0,0,0,0,0,0,0,0,0,-1,566,1702,0,0
-651,-678,0,0,0,0,0,0,0,0,0,-1,573,1702,0,0
-644,-678,0,0,0,0,0,0,0,0,0,-1,580,1702,0,0
-637,-678,0,0,0,0,0,0,0,0,0,-1,587,1702,0,0
-630,-678,0,0,0,0,0,0,0,0,0,-1,594,1702,0,0
-623,-678,0,0,0,0,0,0,0,0,0,-1,601,1702,0,0
-616,-678,0,0,0,0,0,0,0,0,0,-1,608,1702,0,0
-609,-678,0,0,0,0,0,0,0,0,0,-1,615,1702,0,0
-602,-678,0,0,0,0,0,0,0,0,0,-1,622,1702,0,0
-595,-678,0,0,0,0,0,0,0,0,0,-1,629,1702,0,0
-588,-678,0,0,0,0,0,0,0,0,0,-1,636,1702,0,0
-581,-678,0,0,0,0,0,0,0,0,0,-1,643,1702,0,0
-574,-678,0,0,0,0,0,0,0,0,0,-1,650,1702,0,0
-567,-678,0,0,0,0,0,0,0,0,0,-1,657,1702,0,0
-560,-678,0,0,0,0,0,0,0,0,0,-1,664,1702,0,0
-553,-678,0,0,0,0,0,0,0,0,0,-1,671,1702,0,0
-546,-678,0,0,0,0,0,0,0,0,0,-1,678,1702,0,0
-539,-678,0,0,0,0,0,0,0,0,0,-1,685,1702,0,0
-532,-678,0,0,0,0,0,0,0,0,0,-1,692,1702,0,0
-525,-678,0,0,0,0,0,0,0,0,0,-1,699,1702,0,0
-518,-678,0,0,0,0,0,0,0,0,0,-1,706,1702,0,0
-511,-678,0,0,0,0,0,0,0,0,0,-1,713,1702,0,0
-504,-678,0,0,0,0,0,0,0,0,0,-1,720,1702,0,0
-497,-678,0,0,0,0,0,0,0,0,0,-1,727,1702,0,0
-490,-678,0,0,0,0,0,0,0,0,0,-1,734,1702,0,0
-483,-678,0,0,0,0,0,0,0,0,0,-1,741,1702,0,0
-476,-678,0,0,0,0,0,0,0,0,0,-1,748,1702,0,0
-469,-678,0,0,0,0,0,0,0,0,0,-1,755,1702,0,0
-462,-678,0,0,0,0,0,0,0,0,0,-1,762,1702,0,0
-455,-678,0,0,0,0,0,0,0,0,0,-1,769,1702,0,0
-448,-678,0,0,0,0,0,0,0,0,0,-1,776,1702,0,0
-441,-678,0,0,0,0,0,0,0,0,0,-1,783,1702,0,0
-434,-678,0,0,0,0,0,0,0,0,0,-1,790,1702,0,0
-427,-678,0,0,0,0,0,0,0,0,0,-1,797,1702,0,0
-420,-678,0,0,0,0,0,0,0,0,0,-1,804,1702,0,0
-413,-678,0,0,0,0,0,0,0,0,0,-1,811,1702,0,0
-406,-678,0,0,0,0,0,0,0,0,0,-1,818,1702,0,0
-399,-678,0,0,0,0,0,0,0,0,0,-1,825,1702,0,0
-392,-678,0,0,0,0,0,0,0,0,0,-1,832,1702,0,0
-385,-678,0,0,0,0,0,0,0,0,0,-1,839,1702,0,0
-378,-678,0,0,0,0,0,0,0,0,0,-1,846,1702,0,0
-371,-678,0,0,0,0,0,0,0,0,0,-1,853,1702,0,0
-364,-678,0,0,0,0,0,0,0,0,0,-1,860,1702,0,0
-357,-678,0,0,0,0,0,0,0,0,0,-1,867,1702,0,0
-350,-678,-5.79944,6.11865,0,0,0,0,0,0,0,-1,874,1702,-5.79942,-6.11864
-343,-678,8.79578,34.4388,0,0,0,0,0,0,0,-1,881,1702,8.79579,-34.4388
-336,-678,9.06317,34.813,0,0,0,0,0,0,0,-1,888,1702,9.06318,-34.8129
-329,-678,8.68359,35.6151,0,0,0,0,0,0,0,-1,895,1702,8.68362,-35.6152
-322,-678,8.50494,35.5048,0,0,0,0,0,0,0,-1,902,1702,8.50495,-35.5047
-315,-678,8.74017,35.6564,0,0,0,0,0,0,0,-1,909,1702,8.74018,-35.6563
-308,-678,7.96051,35.4503,0,0,0,0,0,0,0,-1,916,1702,7.96048,-35.4503
-301,-678,6.54053,36.3934,0,0,0,0,0,0,0,-1,923,1702,6.54055,-36.3934
-294,-678,6.54669,37.0785,0,0,0,0,0,0,0,-1,930,1702,6.54668,-37.0785
-287,-678,8.05957,37.6675,0,0,0,0,0,0,0,-1,937,1702,8.05956,-37.6675
-280,-678,7.74652,38.0714,-0.0111212,0.00344503,-0.00695601,0.00623315,-0.0139093,-1.18958,0.0119074,0.048085,944,1702,7.74649,-38.0714
-273,-678,7.5459,38.4006,-0.00963796,0.00342861,-0.00518273,0.00523466,-0.011444,-1.23548,0.00984937,0.0449056,951,1702,7.54592,-38.4006
-266,-678,8.00262,38.7013,0,0,0,0,0,0,0,-1,958,1702,8.0026,-38.7013
-259,-678,7.26129,39.6049,-0.00641022,0.00345432,-0.00224774,0.00394235,-0.00689825,-1.357,0.0063359,0.0233117,965,1702,7.26132,-39.6048
-252,-678,7.25897,40.0803,-0.00537521,0.00309282,-0.00131377,0.00329196,-0.00557435,-1.42036,0.00517519,0.0179278,972,1702,7.25897,-40.0804
-245,-678,7.22766,40.5797,-0.00443743,0.00273128,-0.000527537,0.0027699,-0.00447604,-1.49773,0.00422192,0.0188855,979,1702,7.22767,-40.5797
-238,-678,7.18933,41.0994,-0.00360934,0.00261126,0.000185121,0.00261676,-0.00361484,1.54107,0.00361317,0.0155592,986,1702,7.18936,-41.0994
-231,-678,7.1355,41.6033,-0.00235205,0.0016968,0.00104592,0.00195103,-0.00260628,1.33236,0.00264021,0.013286,993,1702,7.1355,-41.6032
-224,-678,7.09247,42.0684,-0.00121192,0.000795333,0.00150163,0.00159785,-0.00201444,1.07998,0.00209017,0.0130369,1000,1702,7.09246,-42.0683
-217,-678,7.09753,42.5498,-0.000331622,0.000135354,0.00181077,0.00172762,-0.00192389,0.849517,0.00210922,0.0135157,1007,1702,7.09754,-42.5498
-210,-678,7.06653,43.0463,0.000506553,-0.000253773,0.00203292,0.00219455,-0.00194177,0.692964,0.00238959,0.0139082,1014,1702,7.06654,-43.0463
-203,-678,7.04553,43.4838,0.00131513,-0.000433696,0.00225657,0.00286078,-0.00197935,0.600558,0.00280985,0.0188253,1021,1702,7.04552,-43.4837
-196,-678,7.03101,43.9436,0.00204587,-0.000409146,0.00248693,0.00359174,-0.00195501,0.556147,0.00324856,0.0189387,1028,1702,7.03098,-43.9436
-189,-678,7.02271,44.4159,0.00267403,-0.000357781,0.00256849,0.00414059,-0.00182434,0.518809,0.00352934,0.0104368,1035,1702,7.02265,-44.4159
-182,-678,7.03796,44.8531,0.00326653,0.000354226,0.00264073,0.00482597,-0.00120522,0.533432,0.00368534,0.00984154,1042,1702,7.03792,-44.8531
-175,-678,7.03796,45.2686,0.00379006,0.00134479,0.0026844,0.00551714,-0.000382298,0.571706,0.00381192,0.0116909,1049,1702,7.03801,-45.2685
-168,-678,7.01855,45.6725,0.00405876,0.00261787,0.00262611,0.00606145,0.000615178,0.651523,0.00385232,0.0109554,1056,1702,7.01855,-45.6725
-161,-678,7.00903,46.0765,0.00410727,0.00396015,0.0024044,0.00643924,0.00162818,0.770106,0.00386612,0.00940519,1063,1702,7.00901,-46.0765
-154,-678,7.00647,46.4877,0.00408515,0.00542811,0.00206454,0.00692762,0.00258564,0.942624,0.00404229,0.00901673,1070,1702,7.00651,-46.4877
-147,-678,6.98572,46.9004,0.00400504,0.00690678,0.00161048,0.00762355,0.00328827,1.15205,0.00441527,0.0109476,1077,1702,6.98569,-46.9004
-140,-678,7.04102,47.2639,0.00388188,0.00813572,0.00104804,0.00837991,0.00363769,1.34188,0.00485213,0.0113502,1084,1702,7.04108,-47.264
-133,-678,7.07959,47.6075,0.00383351,0.00913858,0.000490836,0.00918361,0.00378848,1.47931,0.00532914,0.0124926,1091,1702,7.07955,-47.6075
-126,-678,7.06165,48.0187,0.00412414,0.00935775,0.000163175,0.00936283,0.00411906,1.53966,0.00541862,0.0143599,1098,1702,7.0616,-48.0187
-119,-678,7.10437,48.6962,0.00454979,0.00926434,-0.000365939,0.00929258,0.00452156,-1.49379,0.00536571,0.0425858,1105,1702,7.10431,-48.6962
-112,-678,7.15015,48.6414,0,0,0,0,0,0,0,-1,1112,1702,7.15015,-48.6414
-105,-678,7.13806,48.9915,0,0,0,0,0,0,0,-1,1119,1702,7.13806,-48.9915
-98,-678,7.16296,49.4377,0,0,0,0,0,0,0,-1,1126,1702,7.16291,-49.4378
-91,-678,7.28442,49.6368,0,0,0,0,0,0,0,-1,1133,1702,7.28443,-49.6368
-84,-678,6.58545,36.5073,0,0,0,0,0,0,0,-1,1140,1702,6.58544,-36.5073
-77,-678,5.95154,29.1879,0,0,0,0,0,0,0,-1,1147,1702,5.95156,-29.1878
-70,-678,4.75891,19.6552,0,0,0,0,0,0,0,-1,1154,1702,4.75895,-19.6551
-63,-678,3.41687,11.0365,0,0,0,0,0,0,0,-1,1161,1702,3.41682,-11.0365
-56,-678,1.72388,6.13159,0,0,0,0,0,0,0,-1,1168,1702,1.72388,-6.13157
-49,-678,-0.241699,5.29895,0,0,0,0,0,0,0,-1,1175,1702,-0.241682,-5.29897
-42,-678,0.297119,3.90649,0,0,0,0,0,0,0,-1,1182,1702,0.297139,-3.90655
-35,-678,0.498413,3.64038,0,0,0,0,0,0,0,-1,1189,1702,0.498471,-3.64038
-28,-678,0.132446,3.55994,0,0,0,0,0,0,0,-1,1196,1702,0.132432,-3.55993
-21,-678,7.8429,51.5432,0,0,0,0,0,0,0,-1,1203,1702,7.84293,-51.5432
-14,-678,7.96875,51.787,0.0575931,0.041349,0.00971289,0.0621324,0.0368098,0.437181,0.0360759,0.0442568,1210,1702,7.9688,-51.787
-7,-678,8.25452,52.1533,0.0564653,0.0425315,0.0119273,0.0633114,0.0356854,0.521071,0.0366514,0.0457968,1217,1702,8.25449,-52.1533
0,-678,8.51709,52.5002,0,0,0,0,0,0,0,-1,1224,1702,8.51714,-52.5002
7,-678,7.75818,52.3361,0,0,0,0,0,0,0,-1,1231,1702,7.75816,-52.336
14,-678,8.5437,54.079,0.0487367,0.0441028,0.0169169,0.0634946,0.0293449,0.717342,0.0366936,0.0459036,1238,1702,8.5437,-54.0789
21,-678,8.6676,54.1674,0.0444489,0.0428732,0.0163685,0.0600485,0.0272737,0.761351,0.0347175,0.0431196,1245,1702,8.66755,-54.1674
28,-678,8.95239,54.1552,0.0403143,0.0406095,0.0148352,0.0552978,0.0256259,0.790373,0.0319547,0.0426767,1252,1702,8.95245,-54.1552
35,-678,9.73804,54.4857,0.0363411,0.0375293,0.0129581,0.0499069,0.0239635,0.808305,0.0288213,0.0442412,1259,1702,9.73804,-54.4857
42,-678,10.3585,54.9844,0,0,0,0,0,0,0,-1,1266,1702,10.3585,-54.9844
49,-678,11.4663,53.0342,0,0,0,0,0,0,0,-1,1273,1702,11.4663,-53.0342
56,-678,10.6622,52.4935,0,0,0,0,0,0,0,-1,1280,1702,10.6622,-52.4935
63,-678,7.49854,53.3162,0,0,0,0,0,0,0,-1,1287,1702,7.49858,-53.3162
70,-678,9.97437,52.5121,0.00845965,0.0136722,0.0013926,0.0140209,0.00811093,1.32543,0.00812817,0.0452632,1294,1702,9.97437,-52.512
77,-678,9.93091,52.0911,0.00236681,0.00838337,-0.000105848,0.00838523,0.00236495,-1.55321,0.00499219,0.043545,1301,1702,9.93088,-52.0911
84,-678,9.85852,52.026,-0.0035703,0.00362373,-0.00137976,0.00387928,-0.00382585,-1.38766,0.00444859,0.0461413,1308,1702,9.85854,-52.026
91,-678,9.58142,52.2892,-0.00929878,-0.000816769,-0.00221027,-0.000275366,-0.00984019,-1.33058,0.00647029,0.0462475,1315,1702,9.58138,-52.2892
98,-678,9.34583,52.3363,-0.0147619,-0.00471931,-0.00249141,-0.0041352,-0.015346,-1.34051,0.00916856,0.0421576,1322,1702,9.34588,-52.3363
105,-678,9.32837,52.1464,-0.0200778,-0.00738188,-0.00311452,-0.00665899,-0.0208007,-1.34273,0.0122655,0.0404087,1329,1702,9.32838,-52.1463
112,-678,9.61829,51.9534,-0.0249882,-0.010097,-0.0034307,-0.00934466,-0.0257406,-1.35491,0.015046,0.0408143,1336,1702,9.61834,-51.9534
119,-678,9.86816,51.4526,0,0,0,0,0,0,0,-1,1343,1702,9.86822,-51.4526
126,-678,10.1196,51.7772,0,0,0,0,0,0,0,-1,1350,1702,10.1196,-51.7772
133,-678,10.0586,51.6716,-0.0322246,-0.0107788,-0.00466811,-0.00980679,-0.0331966,-1.3655,0.0196936,0.0486834,1357,1702,10.0586,-51.6716
140,-678,10.0665,51.5605,-0.0316583,-0.00899675,-0.0053348,-0.00780369,-0.0328514,-1.35078,0.0198186,0.0472139,1364,1702,10.0665,-51.5606
147,-678,9.64648,51.3741,-0.0294046,-0.00719417,-0.00589056,-0.00572861,-0.0308701,-1.32695,0.0189612,0.0435647,1371,1702,9.64654,-51.3742
154,-678,9.8429,51.1383,0,0,0,0,0,0,0,-1,1378,1702,9.84292,-51.1383
161,-678,8.81226,34.8624,0,0,0,0,0,0,0,-1,1385,1702,8.81229,-34.8624
168,-678,4.21863,5.25781,0,0,0,0,0,0,0,-1,1392,1702,4.21865,-5.25781
175,-678,5.21899,5.9635,0,0,0,0,0,0,0,-1,1399,1702,5.21894,-5.96346
182,-678,7.31262,6.75122,0,0,0,0,0,0,0,-1,1406,1702,7.3126,-6.75123
189,-678,5.96021,6.36853,0,0,0,0,0,0,0,-1,1413,1702,5.96018,-6.36851
196,-678,5.01599,8.15771,0,0,0,0,0,0,0,-1,1420,1702,5.01596,-8.15767
203,-678,4.64771,13.0559,0,0,0,0,0,0,0,-1,1427,1702,4.64766,-13.0559
210,-678,5.6532,18.5957,0,0,0,0,0,0,0,-1,1434,1702,5.65318,-18.5958
217,-678,6.88049,23.4835,0,0,0,0,0,0,0,-1,1441,1702,6.88047,-23.4835
224,-678,8.521,32.0977,0,0,0,0,0,0,0,-1,1448,1702,8.52098,-32.0977
231,-678,9.96838,42.3734,0,0,0,0,0,0,0,-1,1455,1702,9.96844,-42.3734
238,-678,11.1044,49.1057,0,0,0,0,0,0,0,-1,1462,1702,11.1043,-49.1057
245,-678,11.1658,48.585,0.00502279,0.00317581,6.89191e-05,0.00502536,0.00317324,0.0372453,0.00293462,0.0376653,1469,1702,11.1658,-48.5849
252,-678,11.1958,48.145,0.0047578,0.00368308,-0.000377043,0.00487688,0.003564,-0.30592,0.00291394,0.0265051,1476,1702,11.1959,-48.1451
259,-678,11.2076,47.8007,0.00433192,0.00376606,-0.000684429,0.00478959,0.00330839,-0.589406,0.00283155,0.0173489,1483,1702,11.2076,-47.8007
266,-678,11.2416,47.4268,0.00391471,0.00385296,-0.000822178,0.00470659,0.00306108,-0.766629,0.00275802,0.0123541,1490,1702,11.2416,-47.4268
273,-678,11.2637,47.0748,0.003583,0.00367349,-0.000843825,0.00447328,0.00278321,-0.812184,0.00260823,0.0109972,1497,1702,11.2637,-47.0749
280,-678,11.2448,46.7137,0.00325817,0.00363889,-0.000981538,0.00444836,0.0024487,-0.881181,0.00257262,0.0111445,1504,1702,11.2447,-46.7138
287,-678,11.2495,46.3055,0.00294741,0.00353507,-0.00107139,0.00435219,0.00213029,-0.919234,0.00251292,0.0114842,1511,1702,11.2495,-46.3055
294,-678,11.2517,45.8844,0.00267825,0.00359523,-0.00121216,0.00443272,0.00184077,-0.966202,0.00257145,0.0124452,1518,1702,11.2518,-45.8844
301,-678,11.2455,45.4937,0.00239983,0.00353086,-0.00130347,0.00438621,0.00154449,-0.99007,0.00256903,0.0125868,1525,1702,11.2455,-45.4936
308,-678,11.2568,45.1013,0.00230188,0.003366,-0.00148308,0.00440957,0.00125831,-0.957624,0.0026229,0.0145995,1532,1702,11.2569,-45.1013
315,-678,11.2446,44.6808,0.00255409,0.00289321,-0.00196576,0.00469672,0.000750591,-0.82842,0.00291336,0.0157316,1539,1702,11.2447,-44.6807
322,-678,11.2373,44.312,0.00285517,0.00239924,-0.00227952,0.00491809,0.000336316,-0.735561,0.00317257,0.0186056,1546,1702,11.2373,-44.312
329,-678,11.2163,43.8705,0.00340331,0.00163841,-0.00281458,0.00547053,-0.000428808,-0.633488,0.00379803,0.0161344,1553,1702,11.2163,-43.8705
336,-678,11.1989,43.3931,0.00412229,0.000632742,-0.00333197,0.00613867,-0.00138363,-0.544205,0.0046232,0.0134573,1560,1702,11.1989,-43.393
343,-678,11.215,42.9347,0.00493695,-0.000533294,-0.00397904,0.00703025,-0.0026266,-0.484295,0.00576538,0.0146684,1567,1702,11.215,-42.9347
350,-678,11.2029,42.4766,0.00565665,-0.00190198,-0.00484653,0.00802323,-0.00426856,-0.454248,0.00720618,0.0148752,1574,1702,11.2029,-42.4765
357,-678,11.1666,42.0183,0.00611242,-0.0029565,-0.00592786,0.00904126,-0.00588535,-0.458901,0.00868185,0.0109707,1581,1702,11.1667,-42.0183
364,-678,11.1541,41.5543,0.00631624,-0.00403862,-0.00692033,0.00978154,-0.00750392,-0.464241,0.0100086,0.0115314,1588,1702,11.1541,-41.5543
371,-678,11.1088,41.085,0.00577247,-0.00471588,-0.00750081,0.00968053,-0.00862395,-0.480321,0.010574,0.0128403,1595,1702,11.1088,-41.085
378,-678,11.0613,40.5947,0.00517356,-0.00548252,-0.00813454,0.00956965,-0.00987862,-0.495461,0.0112289,0.0128513,1602,1702,11.0612,-40.5948
385,-678,11.0566,40.1182,0.00395282,-0.00577774,-0.00872762,0.00907965,-0.0109046,-0.531123,0.0115539,0.0122327,1609,1702,11.0567,-40.1182
392,-678,11.1031,39.6838,0.00195643,-0.00581613,-0.00913388,0.00799643,-0.0118561,-0.58426,0.0115339,0.0219258,1616,1702,11.1031,-39.6838
399,-678,11.0823,39.1938,-0.000463393,-0.00533931,-0.00957308,0.00697729,-0.01278,-0.660715,0.0115697,0.0346907,1623,1702,11.0823,-39.1939
406,-678,10.8817,38.5044,-0.00329479,-0.00416488,-0.0100249,0.00630454,-0.0137642,-0.763714,0.0118505,0.0381514,1630,1702,10.8817,-38.5044
413,-678,10.3326,36.8644,0,0,0,0,0,0,0,-1,1637,1702,10.3326,-36.8644
420,-678,9.65198,37.5947,0,0,0,0,0,0,0,-1,1644,1702,9.65192,-37.5947
427,-678,10.7946,36.8768,0,0,0,0,0,0,0,-1,1651,1702,10.7945,-36.8769
434,-678,9.48169,21.6665,0,0,0,0,0,0,0,-1,1658,1702,9.48169,-21.6665
441,-678,8.64539,21.1864,0,0,0,0,0,0,0,-1,1665,1702,8.64536,-21.1865
448,-678,7.62244,20.7195,0,0,0,0,0,0,0,-1,1672,1702,7.6224,-20.7195
455,-678,5.44678,5.54297,0,0,0,0,0,0,0,-1,1679,1702,5.44676,-5.54294
462,-678,3.86792,2.87402,0,0,0,0,0,0,0,-1,1686,1702,3.86796,-2.87406
469,-678,2.26587,1.98755,0,0,0,0,0,0,0,-1,1693,1702,2.26592,-1.98755
476,-678,0,0,0,0,0,0,0,0,0,-1,1700,1702,0,0
483,-678,0,0,0,0,0,0,0,0,0,-1,1707,1702,0,0
490,-678,0,0,0,0,0,0,0,0,0,-1,1714,1702,0,0
497,-678,0,0,0,0,0,0,0,0,0,-1,1721,1702,0,0
504,-678,0,0,0,0,0,0,0,0,0,-1,1728,1702,0,0
511,-678,0,0,0,0,0,0,0,0,0,-1,1735,1702,0,0
518,-678,0,0,0,0,0,0,0,0,0,-1,1742,1702,0,0
525,-678,0,0,0,0,0,0,0,0,0,-1,1749,1702,0,0
532,-678,0,0,0,0,0,0,0,0,0,-1,1756,1702,0,0
539,-678,0,0,0,0,0,0,0,0,0,-1,1763,1702,0,0
546,-678,0,0,0,0,0,0,0,0,0,-1,1770,1702,0,0
553,-678,0,0,0,0,0,0,0,0,0,-1,1777,1702,0,0
560,-678,0,0,0,0,0,0,0,0,0,-1,1784,1702,0,0
567,-678,0,0,0,0,0,0,0,0,0,-1,1791,1702,0,0
574,-678,0,0,0,0,0,0,0,0,0,-1,1798,1702,0,0
581,-678,0,0,0,0,0,0,0,0,0,-1,1805,1702,0,0
588,-678,0,0,0,0,0,0,0,0,0,-1,1812,1702,0,0
595,-678,0,0,0,0,0,0,0,0,0,-1,1819,1702,0,0
602,-678,0,0,0,0,0,0,0,0,0,-1,1826,1702,0,0
609,-678,0,0,0,0,0,0,0,0,0,-1,1833,1702,0,0
616,-678,0,0,0,0,0,0,0,0,0,-1,1840,1702,0,0
623,-678,0,0,0,0,0,0,0,0,0,-1,1847,1702,0,0
630,-678,0,0,0,0,0,0,0,0,0,-1,1854,1702,0,0
637,-678,0,0,0,0,0,0,0,0,0,-1,1861,1702,0,0
644,-678,0,0,0,0,0,0,0,0,0,-1,1868,1702,0,0
651,-678,0,0,0,0,0,0,0,0,0,-1,1875,1702,0,0
658,-678,0,0,0,0,0,0,0,0,0,-1,1882,1702,0,0
665,-678,0,0,0,0,0,0,0,0,0,-1,1889,1702,0,0
672,-678,0,0,0,0,0,0,0,0,0,-1,1896,1702,0,0
679,-678,0,0,0,0,0,0,0,0,0,-1,1903,1702,0,0
686,-678,0,0,0,0,0,0,0,0,0,-1,1910,1702,0,0
693,-678,0,0,0,0,0,0,0,0,0,-1,1917,1702,0,0
700,-678,0,0,0,0,0,0,0,0,0,-1,1924,1702,0,0
707,-678,0,0,0,0,0,0,0,0,0,-1,1931,1702,0,0
714,-678,0,0,0,0,0,0,0,0,0,-1,1938,1702,0,0
721,-678,0,0,0,0,0,0,0,0,0,-1,1945,1702,0,0
728,-678,0,0,0,0,0,0,0,0,0,-1,1952,1702,0,0
735,-678,0,0,0,0,0,0,0,0,0,-1,1959,1702,0,0
742,-678,0,0,0,0,0,0,0,0,0,-1,1966,1702,0,0
749,-678,0,0,0,0,0,0,0,0,0,-1,1973,1702,0,0
756,-678,0,0,0,0,0,0,0,0,0,-1,1980,1702,0,0
763,-678,0,0,0,0,0,0,0,0,0,-1,1987,1702,0,0
770,-678,0,0,0,0,0,0,0,0,0,-1,1994,1702,0,0
777,-678,0,0,0,0,0,0,0,0,0,-1,2001,1702,0,0
784,-678,0,0,0,0,0,0,0,0,0,-1,2008,1702,0,0
791,-678,0,0,0,0,0,0,0,0,0,-1,2015,1702,0,0
798,-678,0,0,0,0,0,0,0,0,0,-1,2022,1702,0,0
805,-678,0,0,0,0,0,0,0,0,0,-1,2029,1702,0,0
812,-678,0,0,0,0,0,0,0,0,0,-1,2036,1702,0,0
-700,-685,0,0,0,0,0,0,0,0,0,-1,524,1709,0,0
-693,-685,0,0,0,0,0,0,0,0,0,-1,531,1709,0,0
-686,-685,0,0,0,0,0,0,0,0,0,-1,538,1709,0,0
-679,-685,0,0,0,0,0,0,0,0,0,-1,545,1709,0,0
-672,-685,0,0,0,0,0,0,0,0,0,-1,552,1709,0,0
-665,-685,0,0,0,0,0,0,0,0,0,-1,559,1709,0,0
-658,-685,0,0,0,0,0,0,0,0,0,-1,566,1709,0,0
-651,-685,0,0,0,0,0,0,0,0,0,-1,573,1709,0,0
-644,-685,0,0,0,0,0,0,0,0,0,-1,580,1709,0,0
-637,-685,0,0,0,0,0,0,0,0,0,-1,587,1709,0,0
-630,-685,0,0,0,0,0,0,0,0,0,-1,594,1709,0,0
-623,-685,0,0,0,0,0,0,0,0,0,-1,601,1709,0,0
-616,-685,0,0,0,0,0,0,0,0,0,-1,608,1709,0,0
-609,-685,0,0,0,0,0,0,0,0,0,-1,615,1709,0,0
-602,-685,0,0,0,0,0,0,0,0,0,-1,622,1709,0,0
-595,-685,0,0,0,0,0,0,0,0,0,-1,629,1709,0,0
-588,-685,0,0,0,0,0,0,0,0,0,-1,636,1709,0,0
-581,-685,0,0,0,0,0,0,0,0,0,-1,643,1709,0,0
-574,-685,0,0,0,0,0,0,0,0,0,-1,650,1709,0,0
-567,-685,0,0,0,0,0,0,0,0,0,-1,657,1709,0,0
-560,-685,0,0,0,0,0,0,0,0,0,-1,664,1709,0,0
-553,-685,0,0,0,0,0,0,0,0,0,-1,671,1709,0,0
-546,-685,0,0,0,0,0,0,0,0,0,-1,678,1709,0,0
-539,-685,0,0,0,0,0,0,0,0,0,-1,685,1709,0,0
-532,-685,0,0,0,0,0,0,0,0,0,-1,692,1709,0,0
-525,-685,0,0,0,0,0,0,0,0,0,-1,699,1709,0,0
-518,-685,0,0,0,0,0,0,0,0,0,-1,706,1709,0,0
-511,-685,0,0,0,0,0,0,0,0,0,-1,713,1709,0,0
-504,-685,0,0,0,0,0,0,0,0,0,-1,720,1709,0,0
-497,-685,0,0,0,0,0,0,0,0,0,-1,727,1709,0,0
-490,-685,0,0,0,0,0,0,0,0,0,-1,734,1709,0,0
-483,-685,0,0,0,0,0,0,0,0,0,-1,741,1709,0,0
-476,-685,0,0,0,0,0,0,0,0,0,-1,748,1709,0,0
-469,-685,0,0,0,0,0,0,0,0,0,-1,755,1709,0,0
-462,-685,0,0,0,0,0,0,0,0,0,-1,762,1709,0,0
-455,-685,0,0,0,0,0,0,0,0,0,-1,769,1709,0,0
-448,-685,0,0,0,0,0,0,0,0,0,-1,776,1709,0,0
-441,-685,0,0,0,0,0,0,0,0,0,-1,783,1709,0,0
-434,-685,0,0,0,0,0,0,0,0,0,-1,790,1709,0,0
-427,-685,0,0,0,0,0,0,0,0,0,-1,797,1709,0,0
-420,-685,0,0,0,0,0,0,0,0,0,-1,804,1709,0,0
-413,-685,0,0,0,0,0,0,0,0,0,-1,811,1709,0,0
-406,-685,0,0,0,0,0,0,0,0,0,-1,818,1709,0,0
-399,-685,0,0,0,0,0,0,0,0,0,-1,825,1709,0,0
-392,-685,0,0,0,0,0,0,0,0,0,-1,832,1709,0,0
-385,-685,0,0,0,0,0,0,0,0,0,-1,839,1709,0,0
-378,-685,0,0,0,0,0,0,0,0,0,-1,846,1709,0,0
-371,-685,0,0,0,0,0,0,0,0,0,-1,853,1709,0,0
-364,-685,0,0,0,0,0,0,0,0,0,-1,860,1709,0,0
-357,-685,0,0,0,0,0,0,0,0,0,-1,867,1709,0,0
-350,-685,0,0,0,0,0,0,0,0,0,-1,874,1709,0,0
-343,-685,-5.98505,6.56335,0,0,0,0,0,0,0,-1,881,1709,-5.98505,-6.56329
-336,-685,-6.51312,5.10571,0,0,0,0,0,0,0,-1,888,1709,-6.51311,-5.10575
-329,-685,9.98907,36.2474,0,0,0,0,0,0,0,-1,895,1709,9.98909,-36.2475
-322,-685,3.83191,16.7219,0,0,0,0,0,0,0,-1,902,1709,3.8319,-16.7219
-315,-685,5.15784,21.4388,0,0,0,0,0,0,0,-1,909,1709,5.15783,-21.4389
-308,-685,6.36969,21.0303,0,0,0,0,0,0,0,-1,916,1709,6.36968,-21.0302
-301,-685,6.70862,36.4365,0,0,0,0,0,0,0,-1,923,1709,6.70864,-36.4365
-294,-685,6.77643,37.1445,0,0,0,0,0,0,0,-1,930,1709,6.77642,-37.1445
-287,-685,9.07538,37.373,0,0,0,0,0,0,0,-1,937,1709,9.07539,-37.3731
-280,-685,8.59692,37.597,0,0,0,0,0,0,0,-1,944,1709,8.59694,-37.597
-273,-685,8.28247,38.2565,0,0,0,0,0,0,0,-1,951,1709,8.2825,-38.2565
-266,-685,7.70447,39.1365,0,0,0,0,0,0,0,-1,958,1709,7.70448,-39.1365
-259,-685,7.81836,39.668,-0.0080202,0.00532047,-0.00261233,0.00581377,-0.0085135,-1.38416,0.00832066,0.0453584,965,1709,7.81835,-39.668
-252,-685,7.78796,40.1614,-0.00673894,0.00462038,-0.00137603,0.00478469,-0.00690325,-1.45195,0.00678488,0.0382401,972,1709,7.78794,-40.1614
-245,-685,7.82086,40.5713,-0.0056736,0.00382859,-0.000400845,0.00384547,-0.00569048,-1.52871,0.00553982,0.0360433,979,1709,7.82089,-40.5713
-238,-685,7.71045,41.1418,-0.00479016,0.00341438,0.000397338,0.00343358,-0.00480935,1.52252,0.0047811,0.0296402,986,1709,7.71047,-41.1419
-231,-685,7.60675,41.6471,-0.00316842,0.00171825,0.00156992,0.00217914,-0.00362931,1.28524,0.00338817,0.0183858,993,1709,7.60675,-41.6471
-224,-685,7.56641,42.0789,-0.00177423,0.000185433,0.00210472,0.00152722,-0.00311602,1.00325,0.00273258,0.0151319,1000,1709,7.5664,-42.0789
-217,-685,7.57697,42.578,-0.000737452,-0.000985315,0.00253023,0.00167187,-0.00339464,0.760927,0.00298099,0.0117099,1007,1709,7.57697,-42.578
-210,-685,7.54535,43.0477,0.0002045,-0.00180762,0.00281236,0.00218533,-0.00378845,0.613627,0.00349012,0.015477,1014,1709,7.54534,-43.0477
-203,-685,7.51917,43.5076,0.00106652,-0.00233398,0.00306946,0.00287517,-0.00414264,0.532472,0.0040737,0.0164569,1021,1709,7.51919,-43.5075
-196,-685,7.48669,43.9812,0.00182717,-0.0025468,0.00331027,0.00360766,-0.00432728,0.49348,0.00458752,0.0141859,1028,1709,7.48675,-43.9812
-189,-685,7.47009,44.4026,0.00244696,-0.00283465,0.00334511,0.00406803,-0.00445573,0.45126,0.00492289,0.00940973,1035,1709,7.4701,-44.4026
-182,-685,7.45349,44.8365,0.00298224,-0.00224662,0.00337537,0.00463728,-0.00390167,0.455881,0.00493606,0.0137749,1042,1709,7.45351,-44.8366
-175,-685,7.43787,45.2722,0.00343059,-0.00127533,0.00339716,0.00521007,-0.00305481,0.482519,0.00482551,0.014369,1049,1709,7.43786,-45.2722
-168,-685,7.44165,45.6959,0.00356594,-1.12079e-05,0.00324345,0.00548128,-0.00192655,0.533423,0.00443801,0.0113334,1056,1709,7.44164,-45.6959
-161,-685,7.44299,46.1102,0.00343739,0.00133607,0.00291201,0.00548248,-0.000709021,0.612265,0.0039128,0.0115804,1063,1709,7.44295,-46.1102
-154,-685,7.42908,46.5281,0.00326328,0.00282815,0.00248912,0.00554432,0.000547106,0.741805,0.00352801,0.0106463,1070,1709,7.42907,-46.5281
-147,-685,7.4071,46.9103,0.00307612,0.00430986,0.00195797,0.00574583,0.00164014,0.938004,0.00341764,0.0100228,1077,1709,7.40706,-46.9103
-140,-685,7.41797,47.254,0.0028949,0.00551412,0.00135176,0.00608662,0.0023224,1.17018,0.00354683,0.0119638,1084,1709,7.41799,-47.254
-133,-685,7.44238,47.6196,0.0028161,0.00639445,0.000785609,0.00655933,0.00265122,1.36392,0.00381013,0.0111374,1091,1709,7.44242,-47.6197
-126,-685,7.43835,48.0084,0.00300482,0.00664603,0.000386971,0.0066867,0.00296415,1.46608,0.00386884,0.0093132,1098,1709,7.43836,-48.0084
-119,-685,7.46619,48.3605,0.00341983,0.00651211,-2.59089e-05,0.00651233,0.00341962,-1.56242,0.00376147,0.013324,1105,1709,7.46624,-48.3605
-112,-685,7.49182,48.6801,0.00388816,0.0060649,-0.000248572,0.00609292,0.00386013,-1.45853,0.00355933,0.013835,1112,1709,7.49184,-48.68
-105,-685,7.48462,48.9991,0.00423756,0.00536186,-0.000577785,0.00560584,0.00399358,-1.17124,0.00333245,0.0155435,1119,1709,7.48462,-48.9992
-98,-685,7.53198,49.3159,0.00450455,0.00463905,-0.00102906,0.00560305,0.00354054,-0.818027,0.00327223,0.0219796,1126,1709,7.53204,-49.3159
-91,-685,7.52649,49.5013,0.00502782,0.00395266,-0.00132508,0.00592022,0.00306026,-0.592693,0.00341869,0.0423986,1133,1709,7.52649,-49.5014
-84,-685,7.53064,49.8296,0,0,0,0,0,0,0,-1,1140,1709,7.53065,-49.8296
-77,-685,7.61255,50.2496,0,0,0,0,0,0,0,-1,1147,1709,7.6126,-50.2496
-70,-685,7.78577,50.8202,0,0,0,0,0,0,0,-1,1154,1709,7.78574,-50.8202
-63,-685,6.03015,29.7728,0,0,0,0,0,0,0,-1,1161,1709,6.0302,-29.7728
-56,-685,3.93909,15.8704,0,0,0,0,0,0,0,-1,1168,1709,3.93905,-15.8704
-49,-685,3.07471,9.86011,0,0,0,0,0,0,0,-1,1175,1709,3.07467,-9.86009
-42,-685,2.70618,7.54504,0,0,0,0,0,0,0,-1,1182,1709,2.7062,-7.54504
-35,-685,2.95264,7.91516,0,0,0,0,0,0,0,-1,1189,1709,2.95262,-7.91517
-28,-685,8.01318,50.5845,0,0,0,0,0,0,0,-1,1196,1709,8.01316,-50.5845
-21,-685,8.18665,51.6428,0,0,0,0,0,0,0,-1,1203,1709,8.18669,-51.6428
-14,-685,8.24048,51.9242,0.0403406,0.032344,0.00510467,0.0428264,0.0298582,0.453172,0.0253587,0.0315376,1210,1709,8.24044,-51.9242
-7,-685,8.30725,52.1844,0.0400074,0.0343912,0.00698699,0.0447295,0.0296692,0.594326,0.0262797,0.0462982,1217,1709,8.30727,-52.1845
0,-685,8.30029,52.4265,0,0,0,0,0,0,0,-1,1224,1709,8.30032,-52.4265
7,-685,8.18555,52.3662,0,0,0,0,0,0,0,-1,1231,1709,8.18554,-52.3662
14,-685,8.45178,52.5117,0,0,0,0,0,0,0,-1,1238,1709,8.45176,-52.5117
21,-685,8.94507,53.4028,0.0328331,0.0367923,0.0119197,0.0468957,0.0227297,0.867686,0.0270795,0.0448787,1245,1709,8.94504,-53.4029
28,-685,8.88416,53.4861,0.0300339,0.0353247,0.0110593,0.0440506,0.021308,0.902794,0.0254371,0.0469461,1252,1709,8.88413,-53.4861
35,-685,8.91296,53.0421,0,0,0,0,0,0,0,-1,1259,1709,8.91291,-53.0421
42,-685,9.04248,53.2766,0,0,0,0,0,0,0,-1,1266,1709,9.0425,-53.2766
49,-685,9.16418,53.1617,0,0,0,0,0,0,0,-1,1273,1709,9.16415,-53.1617
56,-685,9.0094,53.1025,0,0,0,0,0,0,0,-1,1280,1709,9.00937,-53.1025
63,-685,8.28406,52.985,0,0,0,0,0,0,0,-1,1287,1709,8.28405,-52.985
70,-685,9.32666,53.5375,0,0,0,0,0,0,0,-1,1294,1709,9.3267,-53.5374
77,-685,9.61536,53.2295,0,0,0,0,0,0,0,-1,1301,1709,9.61533,-53.2295
84,-685,9.849,52.2139,0,0,0,0,0,0,0,-1,1308,1709,9.84902,-52.2139
91,-685,9.46521,52.7599,0,0,0,0,0,0,0,-1,1315,1709,9.46517,-52.7599
98,-685,9.45703,52.3893,-0.0110652,-0.0042388,-0.00266543,-0.00332136,-0.0119827,-1.2393,0.00714352,0.0409359,1322,1709,9.45705,-52.3892
105,-685,9.25061,52.2964,-0.0146628,-0.0063663,-0.00325653,-0.00524075,-0.0157884,-1.23802,0.00928549,0.0420506,1329,1709,9.25062,-52.2963
112,-685,9.55396,52.2638,0,0,0,0,0,0,0,-1,1336,1709,9.55397,-52.2638
119,-685,9.79785,51.7054,0,0,0,0,0,0,0,-1,1343,1709,9.79784,-51.7054
126,-685,9.94287,51.9954,0,0,0,0,0,0,0,-1,1350,1709,9.94288,-51.9953
133,-685,10.1389,51.9437,0,0,0,0,0,0,0,-1,1357,1709,10.1389,-51.9438
140,-685,10.0997,51.9104,0,0,0,0,0,0,0,-1,1364,1709,10.0998,-51.9104
147,-685,10.1212,52.0137,0,0,0,0,0,0,0,-1,1371,1709,10.1212,-52.0136
154,-685,10.0676,51.953,0,0,0,0,0,0,0,-1,1378,1709,10.0677,-51.953
161,-685,10.3951,51.8903,0,0,0,0,0,0,0,-1,1385,1709,10.3952,-51.8902
168,-685,4.37524,10.8778,0,0,0,0,0,0,0,-1,1392,1709,4.37525,-10.8778
175,-685,3.97522,8.94324,0,0,0,0,0,0,0,-1,1399,1709,3.97519,-8.94328
182,-685,3.98218,9.19739,0,0,0,0,0,0,0,-1,1406,1709,3.98221,-9.1974
189,-685,4.53479,15.2343,0,0,0,0,0,0,0,-1,1413,1709,4.53474,-15.2343
196,-685,10.5594,50.7629,0,0,0,0,0,0,0,-1,1420,1709,10.5594,-50.7629
203,-685,10.618,50.3652,0,0,0,0,0,0,0,-1,1427,1709,10.618,-50.3653
210,-685,10.8209,50.0236,0,0,0,0,0,0,0,-1,1434,1709,10.8209,-50.0236
217,-685,10.7366,49.6172,0,0,0,0,0,0,0,-1,1441,1709,10.7365,-49.6172
224,-685,10.6753,49.3856,0,0,0,0,0,0,0,-1,1448,1709,10.6753,-49.3856
231,-685,10.6992,49.0927,0,0,0,0,0,0,0,-1,1455,1709,10.6992,-49.0927
238,-685,10.8191,48.7898,0.0039753,0.00217862,6.13285e-05,0.00397739,0.00217653,0.0340816,0.00229976,0.0286511,1462,1709,10.8191,-48.7898
245,-685,10.8208,48.4268,0.00360043,0.00233791,-6.68304e-05,0.00360396,0.00233438,-0.0527376,0.0021108,0.0202881,1469,1709,10.8208,-48.4268
252,-685,10.8439,48.14,0.00334906,0.00260795,-0.000399296,0.00352325,0.00243376,-0.411357,0.00208292,0.0138984,1476,1709,10.8438,-48.1401
259,-685,10.858,47.782,0.00300966,0.00261514,-0.000651071,0.0034927,0.00213211,-0.638306,0.00203284,0.0107101,1483,1709,10.858,-47.782
266,-685,10.8834,47.4292,0.00267854,0.00259279,-0.000800308,0.00343712,0.00183421,-0.758638,0.00198592,0.0130387,1490,1709,10.8835,-47.4292
273,-685,10.8844,47.0764,0.00239431,0.00249818,-0.00089198,0.00333973,0.00155275,-0.814478,0.00192978,0.0144505,1497,1709,10.8844,-47.0764
280,-685,10.8519,46.7089,0.0020969,0.00247299,-0.00105511,0.00335668,0.00121321,-0.873584,0.00196263,0.0154341,1504,1709,10.8519,-46.7088
287,-685,10.8588,46.3324,0.00182107,0.0024802,-0.0011893,0.00338475,0.00091652,-0.92056,0.00202148,0.0123581,1511,1709,10.8588,-46.3325
294,-685,10.8561,45.9266,0.00157622,0.00262281,-0.00129243,0.00349386,0.000705164,-0.977757,0.00213339,0.0104927,1518,1709,10.8561,-45.9266
301,-685,10.8492,45.5165,0.00141601,0.00257076,-0.00136332,0.00347392,0.000512847,-0.985701,0.00216534,0.0127099,1525,1709,10.8493,-45.5165
308,-685,10.8558,45.1097,0.00159376,0.00228199,-0.00164429,0.00361778,0.00025796,-0.888549,0.00233063,0.0145252,1532,1709,10.8559,-45.1097
315,-685,10.8649,44.7045,0.00228818,0.00161046,-0.00246857,0.00444104,-0.000542403,-0.717189,0.00315706,0.0129737,1539,1709,10.8649,-44.7044
322,-685,10.8311,44.2847,0.00297215,0.00103649,-0.00291821,0.00507883,-0.00107019,-0.625281,0.00379328,0.0204985,1546,1709,10.831,-44.2847
329,-685,10.7894,43.8552,0.00399693,0.000147184,-0.00367645,0.00622193,-0.00207781,-0.544236,0.00498699,0.019911,1553,1709,10.7895,-43.8553
336,-685,10.7793,43.3888,0.00525377,-0.00101742,-0.00446855,0.0075771,-0.00334075,-0.479464,0.00645966,0.0134835,1560,1709,10.7793,-43.3888
343,-685,10.7654,42.9343,0.00665415,-0.00242463,-0.00542754,0.00919037,-0.00496085,-0.437136,0.00829096,0.0124108,1567,1709,10.7654,-42.9344
350,-685,10.7461,42.4708,0.00796341,-0.00406185,-0.00665469,0.0109194,-0.00701787,-0.41802,0.0104374,0.0128537,1574,1709,10.7461,-42.4708
357,-685,10.7102,42.0416,0.00895565,-0.00529151,-0.00820342,0.0126968,-0.00903262,-0.427868,0.0126048,0.0101311,1581,1709,10.7103,-42.0416
364,-685,10.6796,41.603,0.00966345,-0.00658035,-0.00966557,0.0141665,-0.0110834,-0.435983,0.0146142,0.0115587,1588,1709,10.6796,-41.603
371,-685,10.6743,41.1228,0.0094391,-0.0073574,-0.0106664,0.0146167,-0.012535,-0.451907,0.0156914,0.0203567,1595,1709,10.6743,-41.1229
378,-685,10.6674,40.5769,0.00899178,-0.00827139,-0.0117003,0.0148998,-0.0141794,-0.467599,0.0167906,0.0233959,1602,1709,10.6674,-40.5769
385,-685,10.6445,40.1328,0.00763243,-0.00846289,-0.0127238,0.01464,-0.0154704,-0.503414,0.0173864,0.0329018,1609,1709,10.6445,-40.1328
392,-685,10.8208,39.7792,0.00522265,-0.00837796,-0.0135046,0.0135425,-0.0166978,-0.552155,0.0174909,0.0361358,1616,1709,10.8208,-39.7792
399,-685,10.916,39.306,0.00204682,-0.00782858,-0.0142483,0.0121888,-0.0179705,-0.618601,0.0175188,0.0437274,1623,1709,10.916,-39.3061
406,-685,10.6156,38.4083,-0.00203186,-0.00628941,-0.0149891,0.0109788,-0.0193001,-0.714859,0.0177002,0.0460258,1630,1709,10.6156,-38.4083
413,-685,10.3667,37.287,0,0,0,0,0,0,0,-1,1637,1709,10.3667,-37.287
420,-685,10.2242,36.2164,0,0,0,0,0,0,0,-1,1644,1709,10.2242,-36.2164
427,-685,6.05151,9.21155,0,0,0,0,0,0,0,-1,1651,1709,6.05156,-9.21156
434,-685,4.87769,8.91418,0,0,0,0,0,0,0,-1,1658,1709,4.87768,-8.91413
441,-685,5.62,8.75549,0,0,0,0,0,0,0,-1,1665,1709,5.61996,-8.75545
448,-685,6.4043,8.58972,0,0,0,0,0,0,0,-1,1672,1709,6.40435,-8.58971
455,-685,2.31958,4.09802,0,0,0,0,0,0,0,-1,1679,1709,2.31957,-4.09803
462,-685,0,0,0,0,0,0,0,0,0,-1,1686,1709,0,0
469,-685,0,0,0,0,0,0,0,0,0,-1,1693,1709,0,0
476,-685,0,0,0,0,0,0,0,0,0,-1,1700,1709,0,0
483,-685,0,0,0,0,0,0,0,0,0,-1,1707,1709,0,0
490,-685,0,0,0,0,0,0,0,0,0,-1,1714,1709,0,0
497,-685,0,0,0,0,0,0,0,0,0,-1,1721,1709,0,0
504,-685,0,0,0,0,0,0,0,0,0,-1,1728,1709,0,0
511,-685,0,0,0,0,0,0,0,0,0,-1,1735,1709,0,0
518,-685,0,0,0,0,0,0,0,0,0,-1,1742,1709,0,0
525,-685,0,0,0,0,0,0,0,0,0,-1,1749,1709,0,0
532,-685,0,0,0,0,0,0,0,0,0,-1,1756,1709,0,0
539,-685,0,0,0,0,0,0,0,0,0,-1,1763,1709,0,0
546,-685,0,0,0,0,0,0,0,0,0,-1,1770,1709,0,0
553,-685,0,0,0,0,0,0,0,0,0,-1,1777,1709,0,0
560,-685,0,0,0,0,0,0,0,0,0,-1,1784,1709,0,0
567,-685,0,0,0,0,0,0,0,0,0,-1,1791,1709,0,0
574,-685,0,0,0,0,0,0,0,0,0,-1,1798,1709,0,0
581,-685,0,0,0,0,0,0,0,0,0,-1,1805,1709,0,0
588,-685,0,0,0,0,0,0,0,0,0,-1,1812,1709,0,0
595,-685,0,0,0,0,0,0,0,0,0,-1,1819,1709,0,0
602,-685,0,0,0,0,0,0,0,0,0,-1,1826,1709,0,0
609,-685,0,0,0,0,0,0,0,0,0,-1,1833,1709,0,0
616,-685,0,0,0,0,0,0,0,0,0,-1,1840,1709,0,0
623,-685,0,0,0,0,0,0,0,0,0,-1,1847,1709,0,0
630,-685,0,0,0,0,0,0,0,0,0,-1,1854,1709,0,0
637,-685,0,0,0,0,0,0,0,0,0,-1,1861,1709,0,0
644,-685,0,0,0,0,0,0,0,0,0,-1,1868,1709,0,0
651,-685,0,0,0,0,0,0,0,0,0,-1,1875,1709,0,0
658,-685,0,0,0,0,0,0,0,0,0,-1,1882,1709,0,0
665,-685,0,0,0,0,0,0,0,0,0,-1,1889,1709,0,0
672,-685,0,0,0,0,0,0,0,0,0,-1,1896,1709,0,0
679,-685,0,0,0,0,0,0,0,0,0,-1,1903,1709,0,0
686,-685,0,0,0,0,0,0,0,0,0,-1,1910,1709,0,0
693,-685,0,0,0,0,0,0,0,0,0,-1,1917,1709,0,0
700,-685,0,0,0,0,0,0,0,0,0,-1,1924,1709,0,0
707,-685,0,0,0,0,0,0,0,0,0,-1,1931,1709,0,0
714,-685,0,0,0,0,0,0,0,0,0,-1,1938,1709,0,0
721,-685,0,0,0,0,0,0,0,0,0,-1,1945,1709,0,0
728,-685,0,0,0,0,0,0,0,0,0,-1,1952,1709,0,0
735,-685,0,0,0,0,0,0,0,0,0,-1,1959,1709,0,0
742,-685,0,0,0,0,0,0,0,0,0,-1,1966,1709,0,0
749,-685,0,0,0,0,0,0,0,0,0,-1,1973,1709,0,0
756,-685,0,0,0,0,0,0,0,0,0,-1,1980,1709,0,0
763,-685,0,0,0,0,0,0,0,0,0,-1,1987,1709,0,0
770,-685,0,0,0,0,0,0,0,0,0,-1,1994,1709,0,0
777,-685,0,0,0,0,0,0,0,0,0,-1,2001,1709,0,0
784,-685,0,0,0,0,0,0,0,0,0,-1,2008,1709,0,0
791,-685,0,0,0,0,0,0,0,0,0,-1,2015,1709,0,0
798,-685,0,0,0,0,0,0,0,0,0,-1,2022,1709,0,0
805,-685,0,0,0,0,0,0,0,0,0,-1,2029,1709,0,0
812,-685,0,0,0,0,0,0,0,0,0,-1,2036,1709,0,0
-700,-692,0,0,0,0,0,0,0,0,0,-1,524,1716,0,0
-693,-692,0,0,0,0,0,0,0,0,0,-1,531,1716,0,0
-686,-692,0,0,0,0,0,0,0,0,0,-1,538,1716,0,0
-679,-692,0,0,0,0,0,0,0,0,0,-1,545,1716,0,0
-672,-692,0,0,0,0,0,0,0,0,0,-1,552,1716,0,0
-665,-692,0,0,0,0,0,0,0,0,0,-1,559,1716,0,0
-658,-692,0,0,0,0,0,0,0,0,0,-1,566,1716,0,0
-651,-692,0,0,0,0,0,0,0,0,0,-1,573,1716,0,0
-644,-692,0,0,0,0,0,0,0,0,0,-1,580,1716,0,0
-637,-692,0,0,0,0,0,0,0,0,0,-1,587,1716,0,0
-630,-692,0,0,0,0,0,0,0,0,0,-1,594,1716,0,0
-623,-692,0,0,0,0,0,0,0,0,0,-1,601,1716,0,0
-616,-692,0,0,0,0,0,0,0,0,0,-1,608,1716,0,0
-609,-692,0,0,0,0,0,0,0,0,0,-1,615,1716,0,0
-602,-692,0,0,0,0,0,0,0,0,0,-1,622,1716,0,0
-595,-692,0,0,0,0,0,0,0,0,0,-1,629,1716,0,0
-588,-692,0,0,0,0,0,0,0,0,0,-1,636,1716,0,0
-581,-692,0,0,0,0,0,0,0,0,0,-1,643,1716,0,0
-574,-692,0,0,0,0,0,0,0,0,0,-1,650,1716,0,0
-567,-692,0,0,0,0,0,0,0,0,0,-1,657,1716,0,0
-560,-692,0,0,0,0,0,0,0,0,0,-1,664,1716,0,0
-553,-692,0,0,0,0,0,0,0,0,0,-1,671,1716,0,0
-546,-692,0,0,0,0,0,0,0,0,0,-1,678,1716,0,0
-539,-692,0,0,0,0,0,0,0,0,0,-1,685,1716,0,0
-532,-692,0,0,0,0,0,0,0,0,0,-1,692,1716,0,0
-525,-692,0,0,0,0,0,0,0,0,0,-1,699,1716,0,0
-518,-692,0,0,0,0,0,0,0,0,0,-1,706,1716,0,0
-511,-692,0,0,0,0,0,0,0,0,0,-1,713,1716,0,0
-504,-692,0,0,0,0,0,0,0,0,0,-1,720,1716,0,0
-497,-692,0,0,0,0,0,0,0,0,0,-1,727,1716,0,0
-490,-692,0,0,0,0,0,0,0,0,0,-1,734,1716,0,0
-483,-692,0,0,0,0,0,0,0,0,0,-1,741,1716,0,0
-476,-692,0,0,0,0,0,0,0,0,0,-1,748,1716,0,0
-469,-692,0,0,0,0,0,0,0,0,0,-1,755,1716,0,0
-462,-692,0,0,0,0,0,0,0,0,0,-1,762,1716,0,0
-455,-692,0,0,0,0,0,0,0,0,0,-1,769,1716,0,0
-448,-692,0,0,0,0,0,0,0,0,0,-1,776,1716,0,0
-441,-692,0,0,0,0,0,0,0,0,0,-1,783,1716,0,0
-434,-692,0,0,0,0,0,0,0,0,0,-1,790,1716,0,0
-427,-692,0,0,0,0,0,0,0,0,0,-1,797,1716,0,0
-420,-692,0,0,0,0,0,0,0,0,0,-1,804,1716,0,0
-413,-692,0,0,0,0,0,0,0,0,0,-1,811,1716,0,0
-406,-692,0,0,0,0,0,0,0,0,0,-1,818,1716,0,0
-399,-692,0,0,0,0,0,0,0,0,0,-1,825,1716,0,0
-392,-692,0,0,0,0,0,0,0,0,0,-1,832,1716,0,0
-385,-692,0,0,0,0,0,0,0,0,0,-1,839,1716,0,0
-378,-692,0,0,0,0,0,0,0,0,0,-1,846,1716,0,0
-371,-692,0,0,0,0,0,0,0,0,0,-1,853,1716,0,0
-364,-692,0,0,0,0,0,0,0,0,0,-1,860,1716,0,0
-357,-692,0,0,0,0,0,0,0,0,0,-1,867,1716,0,0
-350,-692,0,0,0,0,0,0,0,0,0,-1,874,1716,0,0
-343,-692,0,0,0,0,0,0,0,0,0,-1,881,1716,0,0
-336,-692,0,0,0,0,0,0,0,0,0,-1,888,1716,0,0
-329,-692,3.03107,4.10266,0,0,0,0,0,0,0,-1,895,1716,3.03105,-4.10267
-322,-692,4.43713,18.5242,0,0,0,0,0,0,0,-1,902,1716,4.43711,-18.5241
-315,-692,5.38965,17.975,0,0,0,0,0,0,0,-1,909,1716,5.38963,-17.975
-308,-692,5.86938,17.4392,0,0,0,0,0,0,0,-1,916,1716,5.86937,-17.4392
-301,-692,8.65558,20.7662,0,0,0,0,0,0,0,-1,923,1716,8.65556,-20.7663
-294,-692,8.41125,35.4742,0,0,0,0,0,0,0,-1,930,1716,8.41125,-35.4742
-287,-692,6.8009,35.0042,0,0,0,0,0,0,0,-1,937,1716,6.80088,-35.0041
-280,-692,9.55341,37.0057,0,0,0,0,0,0,0,-1,944,1716,9.55343,-37.0057
-273,-692,8.33417,37.6238,0,0,0,0,0,0,0,-1,951,1716,8.33419,-37.6238
-266,-692,8.77222,39.244,0,0,0,0,0,0,0,-1,958,1716,8.77221,-39.244
-259,-692,8.42938,39.7469,0,0,0,0,0,0,0,-1,965,1716,8.42935,-39.747
-252,-692,8.31921,40.2577,0,0,0,0,0,0,0,-1,972,1716,8.31922,-40.2577
-245,-692,8.32111,39.9547,-0.00689696,0.00554541,-0.000167215,0.00554765,-0.0068992,-1.55736,0.0072003,0.0487926,979,1716,8.32112,-39.9547
-238,-692,8.3725,41.1267,-0.00593163,0.00465914,0.000720426,0.00470793,-0.00598042,1.50319,0.00618548,0.0469388,986,1716,8.37251,-41.1268
-231,-692,8.19354,41.7317,-0.00357307,0.00173247,0.00244724,0.00268888,-0.00452948,1.19824,0.00421244,0.0387935,993,1716,8.19357,-41.7317
-224,-692,8.03864,42.1315,-0.00162333,-0.000662602,0.00320371,0.00209655,-0.00438249,0.859814,0.00381749,0.0192279,1000,1716,8.03864,-42.1315
-217,-692,8.02014,42.5951,-0.000357977,-0.00256124,0.00382231,0.00251828,-0.0054375,0.645095,0.00469522,0.0135745,1007,1716,8.02015,-42.5951
-210,-692,7.98389,43.0479,0.000727084,-0.00395013,0.00418579,0.00318326,-0.0064063,0.530649,0.00563981,0.0140278,1014,1716,7.98386,-43.0479
-203,-692,7.97717,43.5044,0.00164918,-0.00489225,0.00448425,0.00392878,-0.00717186,0.470312,0.00649949,0.0161055,1021,1716,7.97711,-43.5045
-196,-692,7.94104,44.0011,0.00239964,-0.00533997,0.00472655,0.00463849,-0.00757882,0.442367,0.00712143,0.0182307,1028,1716,7.941,-44.0011
-189,-692,7.88086,44.4048,0.00294885,-0.00591215,0.00469522,0.00497393,-0.00793722,0.407199,0.00751942,0.009541,1035,1716,7.88091,-44.4047
-182,-692,7.85486,44.8492,0.0033497,-0.00537404,0.00464523,0.00535996,-0.0073843,0.408423,0.00738878,0.0146437,1042,1716,7.85482,-44.8492
-175,-692,7.8252,45.3143,0.00363922,-0.00433938,0.00459219,0.00573291,-0.00643307,0.427769,0.00702791,0.0153162,1049,1716,7.82524,-45.3144
-168,-692,7.85022,45.7207,0.00356992,-0.00299329,0.00429606,0.00569434,-0.00511771,0.459241,0.0062453,0.0119552,1056,1716,7.85028,-45.7208
-161,-692,7.86584,46.1338,0.00320455,-0.00151917,0.00381959,0.00533353,-0.00364815,0.508495,0.00521591,0.0136755,1063,1716,7.86588,-46.1338
-154,-692,7.82996,46.5562,0.00280509,0.000131304,0.00326908,0.00500007,-0.00206368,0.591299,0.00419407,0.0144669,1070,1716,7.8299,-46.5561
-147,-692,7.8103,46.9332,0.0024401,0.00177014,0.00261318,0.00473968,-0.000529444,0.721652,0.00335024,0.0135341,1077,1716,7.81026,-46.9332
-140,-692,7.79858,47.281,0.00212912,0.0031277,0.00191833,0.00461065,0.000646167,0.912711,0.00288262,0.0100208,1084,1716,7.79854,-47.281
-133,-692,7.79834,47.6481,0.00193939,0.00408248,0.0012954,0.00469209,0.00132978,1.13095,0.00279241,0.0091911,1091,1716,7.79832,-47.6481
-126,-692,7.80103,48.0188,0.0019088,0.00464841,0.000747512,0.0048391,0.00171811,1.32103,0.00283272,0.00788495,1098,1716,7.80105,-48.0188
-119,-692,7.802,48.3724,0.00223475,0.00470069,0.000410405,0.0047672,0.00216824,1.41013,0.00275608,0.0124148,1105,1716,7.80195,-48.3724
-112,-692,7.81982,48.6951,0.00264753,0.00437896,0.000169496,0.0043954,0.00263109,1.47413,0.00255408,0.012055,1112,1716,7.81982,-48.6951
-105,-692,7.83716,49.0269,0.00301075,0.00376673,-0.000123306,0.00378633,0.00299115,-1.41313,0.00230534,0.0157305,1119,1716,7.83716,-49.0269
-98,-692,7.87146,49.3013,0.00334928,0.00310845,-0.000479286,0.00372305,0.00273468,-0.662326,0.00222693,0.0179877,1126,1716,7.8715,-49.3012
-91,-692,7.84692,49.5692,0.00382051,0.00247962,-0.00072312,0.00413617,0.00216397,-0.41159,0.00238887,0.0200845,1133,1716,7.84694,-49.5692
-84,-692,7.88745,49.8373,0.00434989,0.00142414,-0.00092901,0.00461995,0.00115408,-0.282899,0.00277641,0.0235058,1140,1716,7.88751,-49.8373
-77,-692,7.91589,50.2211,0.0048511,0.000339443,-0.00105324,0.00508487,0.000105676,-0.218409,0.00335524,0.0197968,1147,1716,7.91594,-50.2211
-70,-692,8.00073,50.5858,0.00522756,-0.000969667,-0.0010914,0.00541415,-0.00115626,-0.169326,0.00405024,0.0372526,1154,1716,8.00077,-50.5858
-63,-692,8.04712,50.7124,0,0,0,0,0,0,0,-1,1161,1716,8.04717,-50.7125
-56,-692,7.99512,50.9155,0,0,0,0,0,0,0,-1,1168,1716,7.99509,-50.9156
-49,-692,7.99609,51.1499,0,0,0,0,0,0,0,-1,1175,1716,7.99604,-51.1499
-42,-692,8.10486,51.4237,0,0,0,0,0,0,0,-1,1182,1716,8.1049,-51.4238
-35,-692,8.21973,51.7285,0,0,0,0,0,0,0,-1,1189,1716,8.21971,-51.7286
-28,-692,8.32166,51.834,0,0,0,0,0,0,0,-1,1196,1716,8.32169,-51.834
-21,-692,8.3324,51.851,0.0261643,0.02129,0.00186942,0.0267987,0.0206556,0.327163,0.0162108,0.0345531,1203,1716,8.33234,-51.851
-14,-692,8.38757,52.0005,0.0276659,0.0234447,0.00316679,0.029361,0.0217496,0.491459,0.0175945,0.0172874,1210,1716,8.38758,-52.0005
-7,-692,8.42383,52.2072,0.0278959,0.0257559,0.00451577,0.0314667,0.0221851,0.669069,0.0186695,0.0169597,1217,1716,8.42387,-52.2071
0,-692,8.44568,52.3463,0.0275704,0.0270509,0.00626653,0.0335826,0.0210388,0.764686,0.0195946,0.024249,1224,1716,8.44573,-52.3463
7,-692,8.52856,52.416,0.0268782,0.0287104,0.00764255,0.0354916,0.0200971,0.845048,0.020551,0.0325302,1231,1716,8.5286,-52.4161
14,-692,8.69763,52.6995,0.0257214,0.0295471,0.00847378,0.0363212,0.0189472,0.896407,0.0209766,0.0334105,1238,1716,8.69764,-52.6995
21,-692,8.84961,52.8353,0.0239127,0.0297394,0.00865422,0.0359575,0.0176946,0.947761,0.0207609,0.030685,1245,1716,8.84958,-52.8354
28,-692,8.87378,52.7876,0.022077,0.028942,0.0081675,0.0343689,0.01665,0.984324,0.0198461,0.0321797,1252,1716,8.87384,-52.7877
35,-692,8.91455,52.9012,0.0201061,0.0274134,0.0074774,0.032082,0.0154374,1.01265,0.0185269,0.0311497,1259,1716,8.91453,-52.9013
42,-692,9.00269,53.0408,0.0180137,0.0256195,0.00653795,0.0293801,0.0142531,1.04881,0.0169651,0.0299086,1266,1716,9.00265,-53.0408
49,-692,9.09644,53.0205,0.0154691,0.0224603,0.00577885,0.0257186,0.0122109,1.0574,0.0148549,0.0374517,1273,1716,9.09638,-53.0205
56,-692,9.12939,53.0044,0.0123353,0.0188388,0.00410268,0.0208221,0.010352,1.1205,0.0120217,0.0490498,1280,1716,9.12941,-53.0043
63,-692,9.09009,53.0128,0.0086525,0.0148069,0.002285,0.0155625,0.0078969,1.25144,0.00898534,0.0483027,1287,1716,9.09011,-53.0129
70,-692,9.23755,53.1462,0.00476342,0.0102278,0.000562848,0.0102851,0.00470605,1.46921,0.00594525,0.0385889,1294,1716,9.23757,-53.1462
77,-692,9.41724,53.0135,0.00172047,0.00612638,-0.000451488,0.00617217,0.00167468,-1.46972,0.00368564,0.0443808,1301,1716,9.41723,-53.0135
84,-692,9.49792,52.9705,0,0,0,0,0,0,0,-1,1308,1716,9.49795,-52.9705
91,-692,9.42554,52.7443,-0.0047415,-0.00106387,-0.00234224,7.51195e-05,-0.00588049,-1.11818,0.00394561,0.0485966,1315,1716,9.4256,-52.7442
98,-692,9.52393,52.5984,-0.00732453,-0.00393426,-0.00259764,-0.00252759,-0.00873121,-1.07449,0.00518775,0.0366203,1322,1716,9.52392,-52.5984
105,-692,9.50854,52.5247,-0.00960413,-0.0056288,-0.00309794,-0.0039357,-0.0112972,-1.07063,0.00662167,0.0440879,1329,1716,9.50853,-52.5246
112,-692,9.61853,52.4443,-0.0117819,-0.00740337,-0.00327535,-0.00565299,-0.0135323,-1.08,0.00784802,0.0468725,1336,1716,9.61853,-52.4443
119,-692,9.72119,52.3236,-0.0135915,-0.00817702,-0.00337873,-0.00655472,-0.0152138,-1.12315,0.00881167,0.0397091,1343,1716,9.72114,-52.3236
126,-692,9.83411,52.1757,-0.0146174,-0.00841522,-0.00347685,-0.00685741,-0.0161752,-1.14956,0.00937468,0.0414054,1350,1716,9.83412,-52.1757
133,-692,9.95618,52.1042,-0.015121,-0.00775607,-0.00353929,-0.00633098,-0.0165461,-1.18801,0.00964021,0.0318688,1357,1716,9.95621,-52.1043
140,-692,9.92554,52.0657,-0.014702,-0.00646602,-0.00374641,-0.00501684,-0.0161512,-1.2017,0.00954526,0.0351129,1364,1716,9.92554,-52.0657
147,-692,9.97986,51.9969,-0.0129974,-0.00486203,-0.00368587,-0.00344048,-0.014419,-1.2027,0.00869574,0.0413253,1371,1716,9.97985,-51.997
154,-692,9.95923,51.8607,-0.0108493,-0.00330294,-0.00344527,-0.00196665,-0.0121856,-1.2008,0.00755403,0.0352958,1378,1716,9.95921,-51.8607
161,-692,10.1432,51.7683,-0.00859974,-0.00188359,-0.00292067,-0.000791164,-0.00969217,-1.21287,0.00621453,0.0434079,1385,1716,10.1432,-51.7683
168,-692,10.192,51.5095,0,0,0,0,0,0,0,-1,1392,1716,10.1921,-51.5096
175,-692,10.3765,51.3036,0,0,0,0,0,0,0,-1,1399,1716,10.3765,-51.3035
182,-692,10.3087,51.0256,0,0,0,0,0,0,0,-1,1406,1716,10.3087,-51.0256
189,-692,10.4208,50.866,0,0,0,0,0,0,0,-1,1413,1716,10.4208,-50.8659
196,-692,10.3158,50.5461,0.00398737,0.00318861,0.00183221,0.00546322,0.00171275,0.678088,0.0032265,0.037736,1420,1716,10.3158,-50.5462
203,-692,10.3518,50.2963,0.00544741,0.00187781,0.00161991,0.00607293,0.00125229,0.368504,0.00370247,0.0251502,1427,1716,10.3518,-50.2962
210,-692,10.4492,50.031,0.00467751,0.00172505,0.00132911,0.00518768,0.00121488,0.366502,0.00313302,0.019996,1434,1716,10.4492,-50.031
217,-692,10.4415,49.7006,0.00386361,0.00135632,0.000868886,0.00413528,0.00108465,0.303036,0.00247581,0.017719,1441,1716,10.4415,-49.7005
224,-692,10.4452,49.4247,0.00351113,0.00137642,0.000597851,0.00366716,0.00122039,0.255291,0.00215634,0.0140622,1448,1716,10.4452,-49.4247
231,-692,10.4438,49.1339,0.00315495,0.00158241,0.0001668,0.00317244,0.00156491,0.104521,0.00183167,0.0123935,1455,1716,10.4438,-49.1339
238,-692,10.4597,48.7444,0.00280169,0.00160823,-0.000132352,0.00281619,0.00159373,-0.109131,0.00163063,0.0193142,1462,1716,10.4597,-48.7444
245,-692,10.4569,48.4266,0.00245814,0.0016726,-0.000291149,0.00255428,0.00157645,-0.318944,0.00148815,0.0214599,1469,1716,10.4569,-48.4267
252,-692,10.4933,48.1418,0.00217541,0.00178069,-0.000543506,0.00255628,0.00139982,-0.611241,0.0014781,0.0184995,1476,1716,10.4933,-48.1418
259,-692,10.5027,47.7963,0.00185729,0.00173299,-0.00074205,0.00253979,0.0010505,-0.743619,0.00147363,0.0101771,1483,1716,10.5027,-47.7963
266,-692,10.4902,47.4581,0.00155188,0.00162636,-0.000901269,0.00249115,0.000687078,-0.806047,0.00148568,0.0110996,1490,1716,10.4902,-47.4581
273,-692,10.4835,47.0797,0.00127452,0.00163763,-0.00107475,0.00254605,0.00036609,-0.869073,0.00158946,0.0147731,1497,1716,10.4835,-47.0798
280,-692,10.4895,46.6899,0.000977155,0.00163226,-0.00126762,0.00261396,-4.55196e-06,-0.911832,0.00174416,0.0133516,1504,1716,10.4895,-46.6899
287,-692,10.488,46.3242,0.000717719,0.00176639,-0.00145109,0.00278497,-0.000300859,-0.958769,0.00196463,0.0107761,1511,1716,10.488,-46.3243
294,-692,10.4722,45.948,0.000515484,0.00209059,-0.00156081,0.00305128,-0.000445212,-1.01905,0.00219768,0.0102582,1518,1716,10.4721,-45.948
301,-692,10.4684,45.5525,0.000515684,0.00214208,-0.00163254,0.00315274,-0.000494982,-1.01647,0.00228477,0.0130751,1525,1716,10.4684,-45.5525
308,-692,10.4436,45.158,0.0010413,0.00175928,-0.00204383,0.0034754,-0.00067483,-0.872335,0.00257157,0.0168631,1532,1716,10.4436,-45.1579
315,-692,10.465,44.7477,0.00228948,0.000891057,-0.00329312,0.0049568,-0.00177627,-0.68079,0.00402932,0.0158799,1539,1716,10.4649,-44.7477
322,-692,10.4255,44.2877,0.00345903,0.000241505,-0.00392754,0.00609452,-0.00239398,-0.591016,0.00505369,0.0209042,1546,1716,10.4255,-44.2877
329,-692,10.3755,43.8403,0.00510437,-0.000810206,-0.00496407,0.00792528,-0.00363111,-0.516758,0.0068239,0.0191394,1553,1716,10.3755,-43.8403
336,-692,10.3549,43.403,0.00709493,-0.00222005,-0.00611986,0.010128,-0.00525313,-0.460132,0.00902775,0.0130026,1560,1716,10.3549,-43.403
343,-692,10.3427,42.9764,0.00930106,-0.004029,-0.0074855,0.0126588,-0.00738671,-0.421657,0.0117059,0.0140524,1567,1716,10.3427,-42.9764
350,-692,10.3247,42.5332,0.0114821,-0.00617769,-0.00917491,0.0153858,-0.0100815,-0.40228,0.0148095,0.0183145,1574,1716,10.3247,-42.5332
357,-692,10.2399,41.9827,0.0133252,-0.00788569,-0.0113233,0.018234,-0.0127945,-0.409061,0.0180058,0.0271376,1581,1716,10.2398,-41.9827
364,-692,10.1768,41.4531,0.0148689,-0.00973043,-0.013419,0.0207723,-0.0156339,-0.414447,0.0210888,0.0339684,1588,1716,10.1767,-41.4532
371,-692,10.2939,41.0485,0.0152845,-0.0109689,-0.0150225,0.0221074,-0.0177918,-0.426322,0.0230807,0.0398735,1595,1716,10.2939,-41.0485
378,-692,10.5756,40.6532,0.0152311,-0.0124276,-0.0166247,0.0230265,-0.020223,-0.438465,0.0249876,0.0470546,1602,1716,10.5756,-40.6533
385,-692,10.213,40.1566,0,0,0,0,0,0,0,-1,1609,1716,10.213,-40.1566
392,-692,10.7367,39.7894,0,0,0,0,0,0,0,-1,1616,1716,10.7367,-39.7894
399,-692,10.6439,39.3657,0,0,0,0,0,0,0,-1,1623,1716,10.6439,-39.3657
406,-692,10.7207,38.7635,0,0,0,0,0,0,0,-1,1630,1716,10.7207,-38.7635
413,-692,10.4006,37.7096,0,0,0,0,0,0,0,-1,1637,1716,10.4007,-37.7097
420,-692,9.37878,36.9653,0,0,0,0,0,0,0,-1,1644,1716,9.37872,-36.9654
427,-692,3.79578,8.60339,0,0,0,0,0,0,0,-1,1651,1716,3.79577,-8.6034
434,-692,4.78516,8.64636,0,0,0,0,0,0,0,-1,1658,1716,4.78512,-8.64634
441,-692,5.8208,8.74036,0,0,0,0,0,0,0,-1,1665,1716,5.82084,-8.7404
448,-692,6.73792,8.51013,0,0,0,0,0,0,0,-1,1672,1716,6.73793,-8.5101
455,-692,0,0,0,0,0,0,0,0,0,-1,1679,1716,0,0
462,-692,0,0,0,0,0,0,0,0,0,-1,1686,1716,0,0
469,-692,0,0,0,0,0,0,0,0,0,-1,1693,1716,0,0
476,-692,0,0,0,0,0,0,0,0,0,-1,1700,1716,0,0
483,-692,0,0,0,0,0,0,0,0,0,-1,1707,1716,0,0
490,-692,0,0,0,0,0,0,0,0,0,-1,1714,1716,0,0
497,-692,0,0,0,0,0,0,0,0,0,-1,1721,1716,0,0
504,-692,0,0,0,0,0,0,0,0,0,-1,1728,1716,0,0
511,-692,0,0,0,0,0,0,0,0,0,-1,1735,1716,0,0
518,-692,0,0,0,0,0,0,0,0,0,-1,1742,1716,0,0
525,-692,0,0,0,0,0,0,0,0,0,-1,1749,1716,0,0
532,-692,0,0,0,0,0,0,0,0,0,-1,1756,1716,0,0
539,-692,0,0,0,0,0,0,0,0,0,-1,1763,1716,0,0
546,-692,0,0,0,0,0,0,0,0,0,-1,1770,1716,0,0
553,-692,0,0,0,0,0,0,0,0,0,-1,1777,1716,0,0
560,-692,0,0,0,0,0,0,0,0,0,-1,1784,1716,0,0
567,-692,0,0,0,0,0,0,0,0,0,-1,1791,1716,0,0
574,-692,0,0,0,0,0,0,0,0,0,-1,1798,1716,0,0
581,-692,0,0,0,0,0,0,0,0,0,-1,1805,1716,0,0
588,-692,0,0,0,0,0,0,0,0,0,-1,1812,1716,0,0
595,-692,0,0,0,0,0,0,0,0,0,-1,1819,1716,0,0
602,-692,0,0,0,0,0,0,0,0,0,-1,1826,1716,0,0
609,-692,0,0,0,0,0,0,0,0,0,-1,1833,1716,0,0
616,-692,0,0,0,0,0,0,0,0,0,-1,1840,1716,0,0
623,-692,0,0,0,0,0,0,0,0,0,-1,1847,1716,0,0
630,-692,0,0,0,0,0,0,0,0,0,-1,1854,1716,0,0
637,-692,0,0,0,0,0,0,0,0,0,-1,1861,1716,0,0
644,-692,0,0,0,0,0,0,0,0,0,-1,1868,1716,0,0
651,-692,0,0,0,0,0,0,0,0,0,-1,1875,1716,0,0
658,-692,0,0,0,0,0,0,0,0,0,-1,1882,1716,0,0
665,-692,0,0,0,0,0,0,0,0,0,-1,1889,1716,0,0
672,-692,0,0,0,0,0,0,0,0,0,-1,1896,1716,0,0
679,-692,0,0,0,0,0,0,0,0,0,-1,1903,1716,0,0
686,-692,0,0,0,0,0,0,0,0,0,-1,1910,1716,0,0
693,-692,0,0,0,0,0,0,0,0,0,-1,1917,1716,0,0
700,-692,0,0,0,0,0,0,0,0,0,-1,1924,1716,0,0
707,-692,0,0,0,0,0,0,0,0,0,-1,1931,1716,0,0
714,-692,0,0,0,0,0,0,0,0,0,-1,1938,1716,0,0
721,-692,0,0,0,0,0,0,0,0,0,-1,1945,1716,0,0
728,-692,0,0,0,0,0,0,0,0,0,-1,1952,1716,0,0
735,-692,0,0,0,0,0,0,0,0,0,-1,1959,1716,0,0
742,-692,0,0,0,0,0,0,0,0,0,-1,1966,1716,0,0
749,-692,0,0,0,0,0,0,0,0,0,-1,1973,1716,0,0
756,-692,0,0,0,0,0,0,0,0,0,-1,1980,1716,0,0
763,-692,0,0,0,0,0,0,0,0,0,-1,1987,1716,0,0
770,-692,0,0,0,0,0,0,0,0,0,-1,1994,1716,0,0
777,-692,0,0,0,0,0,0,0,0,0,-1,2001,1716,0,0
784,-692,0,0,0,0,0,0,0,0,0,-1,2008,1716,0,0
791,-692,0,0,0,0,0,0,0,0,0,-1,2015,1716,0,0
798,-692,0,0,0,0,0,0,0,0,0,-1,2022,1716,0,0
805,-692,0,0,0,0,0,0,0,0,0,-1,2029,1716,0,0
812,-692,0,0,0,0,0,0,0,0,0,-1,2036,1716,0,0
-700,-699,0,0,0,0,0,0,0,0,0,-1,524,1723,0,0
-693,-699,0,0,0,0,0,0,0,0,0,-1,531,1723,0,0
-686,-699,0,0,0,0,0,0,0,0,0,-1,538,1723,0,0
-679,-699,0,0,0,0,0,0,0,0,0,-1,545,1723,0,0
-672,-699,0,0,0,0,0,0,0,0,0,-1,552,1723,0,0
-665,-699,0,0,0,0,0,0,0,0,0,-1,559,1723,0,0
-658,-699,0,0,0,0,0,0,0,0,0,-1,566,1723,0,0
-651,-699,0,0,0,0,0,0,0,0,0,-1,573,1723,0,0
-644,-699,0,0,0,0,0,0,0,0,0,-1,580,1723,0,0
-637,-699,0,0,0,0,0,0,0,0,0,-1,587,1723,0,0
-630,-699,0,0,0,0,0,0,0,0,0,-1,594,1723,0,0
-623,-699,0,0,0,0,0,0,0,0,0,-1,601,1723,0,0
-616,-699,0,0,0,0,0,0,0,0,0,-1,608,1723,0,0
-609,-699,0,0,0,0,0,0,0,0,0,-1,615,1723,0,0
-602,-699,0,0,0,0,0,0,0,0,0,-1,622,1723,0,0
-595,-699,0,0,0,0,0,0,0,0,0,-1,629,1723,0,0
-588,-699,0,0,0,0,0,0,0,0,0,-1,636,1723,0,0
-581,-699,0,0,0,0,0,0,0,0,0,-1,643,1723,0,0
-574,-699,0,0,0,0,0,0,0,0,0,-1,650,1723,0,0
-567,-699,0,0,0,0,0,0,0,0,0,-1,657,1723,0,0
-560,-699,0,0,0,0,0,0,0,0,0,-1,664,1723,0,0
-553,-699,0,0,0,0,0,0,0,0,0,-1,671,1723,0,0
-546,-699,0,0,0,0,0,0,0,0,0,-1,678,1723,0,0
-539,-699,0,0,0,0,0,0,0,0,0,-1,685,1723,0,0
-532,-699,0,0,0,0,0,0,0,0,0,-1,692,1723,0,0
-525,-699,0,0,0,0,0,0,0,0,0,-1,699,1723,0,0
-518,-699,0,0,0,0,0,0,0,0,0,-1,706,1723,0,0
-511,-699,0,0,0,0,0,0,0,0,0,-1,713,1723,0,0
-504,-699,0,0,0,0,0,0,0,0,0,-1,720,1723,0,0
-497,-699,0,0,0,0,0,0,0,0,0,-1,727,1723,0,0
-490,-699,0,0,0,0,0,0,0,0,0,-1,734,1723,0,0
-483,-699,0,0,0,0,0,0,0,0,0,-1,741,1723,0,0
-476,-699,0,0,0,0,0,0,0,0,0,-1,748,1723,0,0
-469,-699,0,0,0,0,0,0,0,0,0,-1,755,1723,0,0
-462,-699,0,0,0,0,0,0,0,0,0,-1,762,1723,0,0
-455,-699,0,0,0,0,0,0,0,0,0,-1,769,1723,0,0
-448,-699,0,0,0,0,0,0,0,0,0,-1,776,1723,0,0
-441,-699,0,0,0,0,0,0,0,0,0,-1,783,1723,0,0
-434,-699,0,0,0,0,0,0,0,0,0,-1,790,1723,0,0
-427,-699,0,0,0,0,0,0,0,0,0,-1,797,1723,0,0
-420,-699,0,0,0,0,0,0,0,0,0,-1,804,1723,0,0
-413,-699,0,0,0,0,0,0,0,0,0,-1,811,1723,0,0
-406,-699,0,0,0,0,0,0,0,0,0,-1,818,1723,0,0
-399,-699,0,0,0,0,0,0,0,0,0,-1,825,1723,0,0
-392,-699,0,0,0,0,0,0,0,0,0,-1,832,1723,0,0
-385,-699,0,0,0,0,0,0,0,0,0,-1,839,1723,0,0
-378,-699,0,0,0,0,0,0,0,0,0,-1,846,1723,0,0
-371,-699,0,0,0,0,0,0,0,0,0,-1,853,1723,0,0
-364,-699,0,0,0,0,0,0,0,0,0,-1,860,1723,0,0
-357,-699,0,0,0,0,0,0,0,0,0,-1,867,1723,0,0
-350,-699,0,0,0,0,0,0,0,0,0,-1,874,1723,0,0
-343,-699,0,0,0,0,0,0,0,0,0,-1,881,1723,0,0
-336,-699,0,0,0,0,0,0,0,0,0,-1,888,1723,0,0
-329,-699,0,0,0,0,0,0,0,0,0,-1,895,1723,0,0
-322,-699,0,0,0,0,0,0,0,0,0,-1,902,1723,0,0
-315,-699,6.20001,19.5193,0,0,0,0,0,0,0,-1,909,1723,6.20001,-19.5193
-308,-699,6.98151,18.9218,0,0,0,0,0,0,0,-1,916,1723,6.98151,-18.9217
-301,-699,4.72729,12.8752,0,0,0,0,0,0,0,-1,923,1723,4.72732,-12.8752
-294,-699,6.90332,19.8601,0,0,0,0,0,0,0,-1,930,1723,6.90332,-19.8601
-287,-699,9.0968,36.3315,0,0,0,0,0,0,0,-1,937,1723,9.09678,-36.3315
-280,-699,9.30219,35.7897,0,0,0,0,0,0,0,-1,944,1723,9.30221,-35.7896
-273,-699,10.2987,33.8755,0,0,0,0,0,0,0,-1,951,1723,10.2987,-33.8755
-266,-699,6.81915,20.8951,0,0,0,0,0,0,0,-1,958,1723,6.81914,-20.8952
-259,-699,5.39758,14.5466,0,0,0,0,0,0,0,-1,965,1723,5.39759,-14.5466
-252,-699,8.3866,31.6284,0,0,0,0,0,0,0,-1,972,1723,8.38657,-31.6284
-245,-699,8.81055,39.5229,0,0,0,0,0,0,0,-1,979,1723,8.81054,-39.5229
-238,-699,8.94501,41.6091,0,0,0,0,0,0,0,-1,986,1723,8.945,-41.6092
-231,-699,8.73413,41.8508,-0.00353054,0.00139912,0.00380948,0.00347163,-0.00560306,1.07254,0.00528723,0.045361,993,1723,8.73414,-41.8508
-224,-699,8.53528,42.1111,-0.000815566,-0.00215982,0.00488695,0.00344526,-0.00642065,0.717059,0.00578179,0.0389326,1000,1723,8.53527,-42.1111
-217,-699,8.44366,42.5952,0.000843602,-0.00499305,0.00586054,0.00447223,-0.00862168,0.55439,0.00768526,0.0256706,1007,1723,8.44369,-42.5952
-210,-699,8.39984,43.0514,0.00227602,-0.00705033,0.00639673,0.00552887,-0.0103032,0.470438,0.00927814,0.0175623,1014,1723,8.39986,-43.0514
-203,-699,8.4259,43.4874,0.00343608,-0.00847068,0.00681785,0.00653398,-0.0115686,0.426492,0.0105854,0.0214299,1021,1723,8.42586,-43.4874
-196,-699,8.37659,44.0027,0.00427139,-0.00913545,0.00710641,0.00733715,-0.0122012,0.407286,0.0113964,0.0183311,1028,1723,8.37654,-44.0027
-189,-699,8.31519,44.4469,0.00479451,-0.00991127,0.0070251,0.00761104,-0.0127278,0.381302,0.0118659,0.00973985,1035,1723,8.31516,-44.4469
-182,-699,8.27515,44.8835,0.0050243,-0.00928505,0.00685578,0.00777877,-0.0120395,0.382034,0.0115299,0.0133354,1042,1723,8.27514,-44.8835
-175,-699,8.2627,45.3568,0.00506343,-0.00801291,0.00665633,0.00785556,-0.010805,0.397177,0.0108185,0.0151463,1049,1723,8.2627,-45.3569
-168,-699,8.27161,45.7467,0.0046835,-0.00641409,0.00613569,0.0074073,-0.00913789,0.417792,0.00956977,0.0155754,1056,1723,8.27161,-45.7467
-161,-699,8.25085,46.1337,0.00395264,-0.00462512,0.00542637,0.0065804,-0.00725288,0.450975,0.00798979,0.0133429,1063,1723,8.25091,-46.1337
-154,-699,8.20911,46.5428,0.00318023,-0.00263192,0.00465476,0.0057616,-0.00521329,0.506342,0.00633899,0.0132254,1070,1723,8.20908,-46.5428
-147,-699,8.1803,46.927,0.00247724,-0.000663309,0.00378559,0.00500531,-0.00319138,0.588797,0.00477083,0.014097,1077,1723,8.18034,-46.927
-140,-699,8.1571,47.2849,0.00188567,0.00101361,0.00291702,0.00439907,-0.00149979,0.711208,0.00354018,0.00988061,1084,1723,8.1571,-47.2849
-133,-699,8.16272,47.682,0.00145044,0.00219365,0.00214974,0.00400367,-0.00035958,0.870981,0.00279669,0.00891887,1091,1723,8.16267,-47.682
-126,-699,8.17529,48.0428,0.000997832,0.00323703,0.00132742,0.00385396,0.000380902,1.13574,0.00245222,0.0115124,1098,1723,8.17528,-48.0428
-119,-699,8.14734,48.384,0.00102854,0.00354503,0.000940972,0.00385797,0.000715602,1.24974,0.00236974,0.0179199,1105,1723,8.14738,-48.384
-112,-699,8.1322,48.715,0.00135879,0.0034386,0.000641548,0.00362058,0.00117682,1.29441,0.00213257,0.0123737,1112,1723,8.13219,-48.715
-105,-699,8.13892,49.0516,0.00170169,0.00295914,0.000377149,0.00306359,0.00159725,1.30064,0.0017693,0.0115442,1119,1723,8.13888,-49.0516
-98,-699,8.19019,49.3405,0.00209272,0.00238387,0.000105817,0.00241827,0.00205832,1.25653,0.0015066,0.0141558,1126,1723,8.19023,-49.3404
-91,-699,8.19629,49.6027,0.00252909,0.00178494,-0.000107692,0.00254437,0.00176967,-0.140867,0.00150596,0.0221451,1133,1723,8.19623,-49.6027
-84,-699,8.21033,49.907,0.00296884,0.00106194,-0.000300975,0.00301522,0.00101556,-0.152885,0.00177147,0.0270526,1140,1723,8.21028,-49.9069
-77,-699,8.22705,50.2045,0.00338323,0.000351856,-0.000448313,0.00344814,0.000286945,-0.143791,0.00220933,0.0178288,1147,1723,8.22706,-50.2045
-70,-699,8.25928,50.4749,0.00372265,-0.000484594,-0.000556854,0.0037951,-0.000557049,-0.129388,0.00273473,0.0185339,1154,1723,8.25927,-50.4748
-63,-699,8.28455,50.7388,0.00454329,-0.00170253,-0.000457965,0.00457669,-0.00173593,-0.0728044,0.0037656,0.016364,1161,1723,8.28449,-50.7388
-56,-699,8.26001,50.9558,0.00480912,0.000485662,-0.00276567,0.00615766,-0.000862882,-0.453679,0.00442089,0.0120975,1168,1723,8.25998,-50.9558
-49,-699,8.26892,51.1841,0.00742461,0.00239841,-0.00294768,0.00878507,0.00103795,-0.432406,0.00554322,0.0259148,1175,1723,8.26892,-51.1841
-42,-699,8.35986,51.3969,0.011223,0.00475987,-0.00245041,0.012047,0.00393587,-0.324389,0.00709319,0.0297324,1182,1723,8.35992,-51.3968
-35,-699,8.3717,51.6583,0.013777,0.00864273,-0.000523969,0.0138299,0.0085898,-0.10067,0.0080624,0.0278672,1189,1723,8.37171,-51.6583
-28,-699,8.45862,51.8051,0.0156082,0.0115836,0.000342916,0.0156373,0.0115546,0.0843936,0.00936543,0.0225863,1196,1723,8.4586,-51.805
-21,-699,8.48523,51.9116,0.0176607,0.0139613,0.00149949,0.0181921,0.0134298,0.340606,0.0108934,0.0147597,1203,1723,8.48518,-51.9116
-14,-699,8.51758,52.077,0.0192101,0.0160844,0.00265961,0.0207321,0.0145624,0.519758,0.0122923,0.0123203,1210,1723,8.51752,-52.077
-7,-699,8.55383,52.2457,0.0198201,0.0185022,0.0036217,0.0228423,0.01548,0.695414,0.0134627,0.00923036,1217,1723,8.55381,-52.2457
0,-699,8.61987,52.3873,0.0198957,0.0200389,0.00494648,0.0249143,0.0150203,0.792635,0.0144854,0.0137974,1224,1723,8.61983,-52.3873
7,-699,8.73792,52.4487,0.0196489,0.0219362,0.006012,0.0269124,0.0146727,0.879392,0.015559,0.0239485,1231,1723,8.73794,-52.4487
14,-699,8.80396,52.5742,0.0190378,0.02312,0.00670858,0.0280911,0.0140666,0.933075,0.0162184,0.0232235,1238,1723,8.80391,-52.5742
21,-699,8.7887,52.6654,0.017833,0.0237925,0.00692279,0.0283496,0.0132759,0.988627,0.0163786,0.0184869,1245,1723,8.7887,-52.6654
28,-699,8.87207,52.6907,0.0164741,0.0236053,0.00662554,0.0275638,0.0125157,1.03225,0.0159363,0.0175308,1252,1723,8.87211,-52.6907
35,-699,8.91736,52.8217,0.0148711,0.0227969,0.00614864,0.0261491,0.0115189,1.07165,0.0151328,0.0146576,1259,1723,8.91738,-52.8216
42,-699,8.98352,52.8953,0.0131199,0.0215808,0.00544279,0.0242439,0.0104569,1.11576,0.0140411,0.0139945,1266,1723,8.98348,-52.8953
49,-699,9.0658,52.9315,0.0110599,0.0191397,0.00481956,0.0213886,0.00881101,1.13421,0.0124124,0.0168096,1273,1723,9.06583,-52.9315
56,-699,9.15784,52.964,0.00849736,0.016106,0.00347395,0.0174535,0.00714987,1.20078,0.0101315,0.0172697,1280,1723,9.15778,-52.964
63,-699,9.19238,52.9319,0.00556089,0.0127197,0.00193719,0.0132103,0.0050703,1.32276,0.00769531,0.0148791,1287,1723,9.19233,-52.9319
70,-699,9.20972,52.9232,0.00258793,0.00882247,0.000504426,0.00886301,0.00254739,1.49058,0.00526897,0.0125751,1294,1723,9.20966,-52.9233
77,-699,9.24939,52.8999,0.00034845,0.00525915,-0.000340537,0.00528265,0.000324947,-1.50189,0.00341861,0.0127995,1301,1723,9.24937,-52.8998
84,-699,9.28967,52.842,-0.00203709,0.0019299,-0.00120118,0.00226527,-0.00237245,-1.29854,0.00267782,0.0149171,1308,1723,9.28966,-52.842
91,-699,9.38879,52.8003,-0.00418956,-0.000910929,-0.00186062,-7.04732e-05,-0.00503002,-1.14652,0.0033301,0.0142128,1315,1723,9.38885,-52.8003
98,-699,9.46899,52.7516,-0.0057588,-0.00334798,-0.00193661,-0.00227228,-0.0068345,-1.06377,0.00401905,0.0123931,1322,1723,9.46893,-52.7516
105,-699,9.50879,52.7162,-0.0070137,-0.00470336,-0.00222259,-0.00335367,-0.00836339,-1.02505,0.00486006,0.0169784,1329,1723,9.50882,-52.7162
112,-699,9.58264,52.6398,-0.00817459,-0.00611834,-0.00220001,-0.00471808,-0.00957486,-1.00398,0.00552824,0.0233627,1336,1723,9.5826,-52.6398
119,-699,9.60144,52.5155,-0.00915545,-0.00666702,-0.00210396,-0.0054669,-0.0103556,-1.05242,0.00598189,0.0170757,1343,1723,9.60147,-52.5155
126,-699,9.68066,52.3842,-0.00961165,-0.00686329,-0.00198285,-0.00582499,-0.0106499,-1.08842,0.00615778,0.0199531,1350,1723,9.68069,-52.3841
133,-699,9.77905,52.2706,-0.00971506,-0.00629228,-0.00182299,-0.00550324,-0.0105041,-1.16232,0.00606685,0.0182811,1357,1723,9.77906,-52.2706
140,-699,9.82788,52.1434,-0.0090761,-0.00516421,-0.00177254,-0.00448053,-0.00975978,-1.20267,0.0056411,0.0184232,1364,1723,9.82794,-52.1435
147,-699,9.84314,51.9988,-0.00770659,-0.00373156,-0.00158101,-0.00317943,-0.00825872,-1.23481,0.00481005,0.0151433,1371,1723,9.84315,-51.9988
154,-699,9.84485,51.8344,-0.00599783,-0.00231212,-0.00124871,-0.0019289,-0.00638104,-1.27303,0.00377889,0.0146663,1378,1723,9.84489,-51.8344
161,-699,9.89783,51.6499,-0.00418284,-0.000861186,-0.000786716,-0.000684279,-0.00435975,-1.34961,0.00270739,0.0105683,1385,1723,9.89787,-51.6499
168,-699,9.96436,51.465,-0.00176214,0.000341786,-0.000250722,0.000371251,-0.00179161,-1.45381,0.00133547,0.0120526,1392,1723,9.96431,-51.465
175,-699,10.0042,51.2906,0.00169287,0.00140824,-0.000328647,0.00190869,0.00119242,-0.581074,0.00111335,0.0183242,1399,1723,10.0041,-51.2907
182,-699,10.0321,51.0488,0.00255492,0.00184513,-0.000101628,0.00256918,0.00183086,-0.139449,0.00152737,0.0192875,1406,1723,10.0321,-51.0489
189,-699,10.0288,50.7939,0.00265873,0.00215061,0.000342626,0.00283121,0.00197813,0.46638,0.00167707,0.016722,1413,1723,10.0288,-50.794
196,-699,10.0532,50.5439,0.00320884,0.00235499,0.00113002,0.00398989,0.00157394,0.604786,0.0023206,0.0158457,1420,1723,10.0533,-50.544
203,-699,10.0631,50.3024,0.00391805,0.00155765,0.000956413,0.00425693,0.00121877,0.34052,0.00253146,0.0127407,1427,1723,10.0631,-50.3024
210,-699,10.1082,50.0408,0.00330736,0.00143316,0.000726016,0.0035557,0.00118483,0.329576,0.00209061,0.013321,1434,1723,10.1082,-50.0408
217,-699,10.1317,49.75,0.00266906,0.00116414,0.000371587,0.00275581,0.00107739,0.229349,0.00160363,0.0150733,1441,1723,10.1317,-49.75
224,-699,10.1433,49.4489,0.00233918,0.00115273,0.000124592,0.00235213,0.00113979,0.103508,0.00135822,0.0166968,1448,1723,10.1433,-49.4488
231,-699,10.1542,49.1458,0.0019884,0.00122288,-0.000189663,0.00203281,0.00117847,-0.230027,0.00117861,0.0132622,1455,1723,10.1542,-49.1457
238,-699,10.1243,48.7964,0.00166412,0.00118775,-0.000426887,0.00191477,0.000937096,-0.530935,0.00110558,0.0116926,1462,1723,10.1242,-48.7964
245,-699,10.1389,48.4688,0.00134926,0.00118194,-0.000603889,0.00187526,0.000655948,-0.716568,0.00109885,0.0126501,1469,1723,10.1389,-48.4687
252,-699,10.1572,48.1614,0.00102566,0.00114321,-0.000781679,0.00186832,0.000300552,-0.822921,0.00115843,0.010869,1476,1723,10.1572,-48.1614
259,-699,10.1208,47.8301,0.00071659,0.00104108,-0.000924452,0.00181742,-5.97467e-05,-0.872265,0.00123201,0.011017,1483,1723,10.1208,-47.8301
266,-699,10.101,47.4795,0.000433431,0.000852527,-0.00108897,0.00175192,-0.000465965,-0.880451,0.00135034,0.0133713,1490,1723,10.1009,-47.4795
273,-699,10.1155,47.1002,0.000167822,0.000981254,-0.00135208,0.00198646,-0.000837388,-0.931497,0.00167474,0.0128911,1497,1723,10.1155,-47.1002
280,-699,10.129,46.7069,-0.000111835,0.00104478,-0.00160374,0.0021713,-0.00123835,-0.958441,0.00199298,0.0127297,1504,1723,10.129,-46.707
287,-699,10.1093,46.3141,-0.000338461,0.00135436,-0.00186335,0.00255453,-0.00153863,-0.998586,0.00238732,0.0107363,1511,1723,10.1093,-46.314
294,-699,10.0817,45.9456,-0.000482965,0.00195265,-0.00200636,0.00308187,-0.00161218,-1.05816,0.00275404,0.0110016,1518,1723,10.0817,-45.9456
301,-699,10.0753,45.5729,-0.000283873,0.00218288,-0.00209757,0.00338282,-0.00148382,-1.05117,0.00288017,0.0122631,1525,1723,10.0753,-45.5729
308,-699,10.0643,45.1747,0.000675884,0.0017336,-0.00267045,0.00392705,-0.00151757,-0.883154,0.00324444,0.0168136,1532,1723,10.0643,-45.1747
315,-699,10.0735,44.7441,0.00261466,0.000645186,-0.00444571,0.00618339,-0.00292355,-0.676407,0.005369,0.0195924,1539,1723,10.0735,-44.7441
322,-699,10.026,44.291,0.00441159,-9.68259e-05,-0.00533082,0.00794522,-0.00363046,-0.585369,0.00683623,0.020612,1546,1723,10.026,-44.291
329,-699,9.9458,43.8643,0.00690014,-0.0014028,-0.00672578,0.0106525,-0.00515518,-0.508896,0.00930872,0.017495,1553,1723,9.94579,-43.8643
336,-699,9.92322,43.4729,0.00993381,-0.00322377,-0.00838353,0.0140117,-0.00730162,-0.452719,0.0125069,0.0213265,1560,1723,9.92322,-43.4729
343,-699,9.97937,43.0415,0.0132902,-0.00570961,-0.0103073,0.0178077,-0.0102271,-0.413068,0.016382,0.0326607,1567,1723,9.97936,-43.0415
350,-699,9.95776,42.4918,0.0167784,-0.00874922,-0.0126323,0.0219726,-0.0139434,-0.390109,0.0209081,0.0458154,1574,1723,9.95773,-42.4918
357,-699,9.93311,41.8395,0.0198741,-0.0113924,-0.0155417,0.026285,-0.0178033,-0.391231,0.0256109,0.0461158,1581,1723,9.93315,-41.8395
364,-699,9.68396,41.469,0.0226824,-0.0142425,-0.0184974,0.0303545,-0.0219146,-0.393172,0.0303084,0.0429575,1588,1723,9.68391,-41.469
371,-699,9.78931,41.1581,0.0241852,-0.0163916,-0.0209563,0.033065,-0.0252715,-0.400795,0.0337806,0.0492449,1595,1723,9.78932,-41.1581
378,-699,10.1375,40.6467,0,0,0,0,0,0,0,-1,1602,1723,10.1375,-40.6467
385,-699,8.61072,39.2738,0,0,0,0,0,0,0,-1,1609,1723,8.61071,-39.2738
392,-699,10.5923,39.9565,0,0,0,0,0,0,0,-1,1616,1723,10.5923,-39.9566
399,-699,9.41626,39.5541,0,0,0,0,0,0,0,-1,1623,1723,9.41629,-39.5541
406,-699,10.1229,39.0017,0,0,0,0,0,0,0,-1,1630,1723,10.123,-39.0017
413,-699,8.81848,38.9709,0,0,0,0,0,0,0,-1,1637,1723,8.81852,-38.971
420,-699,8.41907,38.2246,0,0,0,0,0,0,0,-1,1644,1723,8.41902,-38.2247
427,-699,2.98743,11.8593,0,0,0,0,0,0,0,-1,1651,1723,2.98746,-11.8592
434,-699,4.66455,8.90222,0,0,0,0,0,0,0,-1,1658,1723,4.66456,-8.90223
441,-699,0,0,0,0,0,0,0,0,0,-1,1665,1723,0,0
448,-699,0,0,0,0,0,0,0,0,0,-1,1672,1723,0,0
455,-699,0,0,0,0,0,0,0,0,0,-1,1679,1723,0,0
462,-699,0,0,0,0,0,0,0,0,0,-1,1686,1723,0,0
469,-699,0,0,0,0,0,0,0,0,0,-1,1693,1723,0,0
476,-699,0,0,0,0,0,0,0,0,0,-1,1700,1723,0,0
483,-699,0,0,0,0,0,0,0,0,0,-1,1707,1723,0,0
490,-699,0,0,0,0,0,0,0,0,0,-1,1714,1723,0,0
497,-699,0,0,0,0,0,0,0,0,0,-1,1721,1723,0,0
504,-699,0,0,0,0,0,0,0,0,0,-1,1728,1723,0,0
511,-699,0,0,0,0,0,0,0,0,0,-1,1735,1723,0,0
518,-699,0,0,0,0,0,0,0,0,0,-1,1742,1723,0,0
525,-699,0,0,0,0,0,0,0,0,0,-1,1749,1723,0,0
532,-699,0,0,0,0,0,0,0,0,0,-1,1756,1723,0,0
539,-699,0,0,0,0,0,0,0,0,0,-1,1763,1723,0,0
546,-699,0,0,0,0,0,0,0,0,0,-1,1770,1723,0,0
553,-699,0,0,0,0,0,0,0,0,0,-1,1777,1723,0,0
560,-699,0,0,0,0,0,0,0,0,0,-1,1784,1723,0,0
567,-699,0,0,0,0,0,0,0,0,0,-1,1791,1723,0,0
574,-699,0,0,0,0,0,0,0,0,0,-1,1798,1723,0,0
581,-699,0,0,0,0,0,0,0,0,0,-1,1805,1723,0,0
588,-699,0,0,0,0,0,0,0,0,0,-1,1812,1723,0,0
595,-699,0,0,0,0,0,0,0,0,0,-1,1819,1723,0,0
602,-699,0,0,0,0,0,0,0,0,0,-1,1826,1723,0,0
609,-699,0,0,0,0,0,0,0,0,0,-1,1833,1723,0,0
616,-699,0,0,0,0,0,0,0,0,0,-1,1840,1723,0,0
623,-699,0,0,0,0,0,0,0,0,0,-1,1847,1723,0,0
630,-699,0,0,0,0,0,0,0,0,0,-1,1854,1723,0,0
637,-699,0,0,0,0,0,0,0,0,0,-1,1861,1723,0,0
644,-699,0,0,0,0,0,0,0,0,0,-1,1868,1723,0,0
651,-699,0,0,0,0,0,0,0,0,0,-1,1875,1723,0,0
658,-699,0,0,0,0,0,0,0,0,0,-1,1882,1723,0,0
665,-699,0,0,0,0,0,0,0,0,0,-1,1889,1723,0,0
672,-699,0,0,0,0,0,0,0,0,0,-1,1896,1723,0,0
679,-699,0,0,0,0,0,0,0,0,0,-1,1903,1723,0,0
686,-699,0,0,0,0,0,0,0,0,0,-1,1910,1723,0,0
693,-699,0,0,0,0,0,0,0,0,0,-1,1917,1723,0,0
700,-699,0,0,0,0,0,0,0,0,0,-1,1924,1723,0,0
707,-699,0,0,0,0,0,0,0,0,0,-1,1931,1723,0,0
714,-699,0,0,0,0,0,0,0,0,0,-1,1938,1723,0,0
721,-699,0,0,0,0,0,0,0,0,0,-1,1945,1723,0,0
728,-699,0,0,0,0,0,0,0,0,0,-1,1952,1723,0,0
735,-699,0,0,0,0,0,0,0,0,0,-1,1959,1723,0,0
742,-699,0,0,0,0,0,0,0,0,0,-1,1966,1723,0,0
749,-699,0,0,0,0,0,0,0,0,0,-1,1973,1723,0,0
756,-699,0,0,0,0,0,0,0,0,0,-1,1980,1723,0,0
763,-699,0,0,0,0,0,0,0,0,0,-1,1987,1723,0,0
770,-699,0,0,0,0,0,0,0,0,0,-1,1994,1723,0,0
777,-699,0,0,0,0,0,0,0,0,0,-1,2001,1723,0,0
784,-699,0,0,0,0,0,0,0,0,0,-1,2008,1723,0,0
791,-699,0,0,0,0,0,0,0,0,0,-1,2015,1723,0,0
798,-699,0,0,0,0,0,0,0,0,0,-1,2022,1723,0,0
805,-699,0,0,0,0,0,0,0,0,0,-1,2029,1723,0,0
812,-699,0,0,0,0,0,0,0,0,0,-1,2036,1723,0,0
-700,-706,0,0,0,0,0,0,0,0,0,-1,524,1730,0,0
-693,-706,0,0,0,0,0,0,0,0,0,-1,531,1730,0,0
-686,-706,0,0,0,0,0,0,0,0,0,-1,538,1730,0,0
-679,-706,0,0,0,0,0,0,0,0,0,-1,545,1730,0,0
-672,-706,0,0,0,0,0,0,0,0,0,-1,552,1730,0,0
-665,-706,0,0,0,0,0,0,0,0,0,-1,559,1730,0,0
-658,-706,0,0,0,0,0,0,0,0,0,-1,566,1730,0,0
-651,-706,0,0,0,0,0,0,0,0,0,-1,573,1730,0,0
-644,-706,0,0,0,0,0,0,0,0,0,-1,580,1730,0,0
-637,-706,0,0,0,0,0,0,0,0,0,-1,587,1730,0,0
-630,-706,0,0,0,0,0,0,0,0,0,-1,594,1730,0,0
-623,-706,0,0,0,0,0,0,0,0,0,-1,601,1730,0,0
-616,-706,0,0,0,0,0,0,0,0,0,-1,608,1730,0,0
-609,-706,0,0,0,0,0,0,0,0,0,-1,615,1730,0,0
-602,-706,0,0,0,0,0,0,0,0,0,-1,622,1730,0,0
-595,-706,0,0,0,0,0,0,0,0,0,-1,629,1730,0,0
-588,-706,0,0,0,0,0,0,0,0,0,-1,636,1730,0,0
-581,-706,0,0,0,0,0,0,0,0,0,-1,643,1730,0,0
-574,-706,0,0,0,0,0,0,0,0,0,-1,650,1730,0,0
-567,-706,0,0,0,0,0,0,0,0,0,-1,657,1730,0,0
-560,-706,0,0,0,0,0,0,0,0,0,-1,664,1730,0,0
-553,-706,0,0,0,0,0,0,0,0,0,-1,671,1730,0,0
-546,-706,0,0,0,0,0,0,0,0,0,-1,678,1730,0,0
-539,-706,0,0,0,0,0,0,0,0,0,-1,685,1730,0,0
-532,-706,0,0,0,0,0,0,0,0,0,-1,692,1730,0,0
-525,-706,0,0,0,0,0,0,0,0,0,-1,699,1730,0,0
-518,-706,0,0,0,0,0,0,0,0,0,-1,706,1730,0,0
-511,-706,0,0,0,0,0,0,0,0,0,-1,713,1730,0,0
-504,-706,0,0,0,0,0,0,0,0,0,-1,720,1730,0,0
-497,-706,0,0,0,0,0,0,0,0,0,-1,727,1730,0,0
-490,-706,0,0,0,0,0,0,0,0,0,-1,734,1730,0,0
-483,-706,0,0,0,0,0,0,0,0,0,-1,741,1730,0,0
-476,-706,0,0,0,0,0,0,0,0,0,-1,748,1730,0,0
-469,-706,0,0,0,0,0,0,0,0,0,-1,755,1730,0,0
-462,-706,0,0,0,0,0,0,0,0,0,-1,762,1730,0,0
-455,-706,0,0,0,0,0,0,0,0,0,-1,769,1730,0,0
-448,-706,0,0,0,0,0,0,0,0,0,-1,776,1730,0,0
-441,-706,0,0,0,0,0,0,0,0,0,-1,783,1730,0,0
-434,-706,0,0,0,0,0,0,0,0,0,-1,790,1730,0,0
-427,-706,0,0,0,0,0,0,0,0,0,-1,797,1730,0,0
-420,-706,0,0,0,0,0,0,0,0,0,-1,804,1730,0,0
-413,-706,0,0,0,0,0,0,0,0,0,-1,811,1730,0,0
-406,-706,0,0,0,0,0,0,0,0,0,-1,818,1730,0,0
-399,-706,0,0,0,0,0,0,0,0,0,-1,825,1730,0,0
-392,-706,0,0,0,0,0,0,0,0,0,-1,832,1730,0,0
-385,-706,0,0,0,0,0,0,0,0,0,-1,839,1730,0,0
-378,-706,0,0,0,0,0,0,0,0,0,-1,846,1730,0,0
-371,-706,0,0,0,0,0,0,0,0,0,-1,853,1730,0,0
-364,-706,0,0,0,0,0,0,0,0,0,-1,860,1730,0,0
-357,-706,0,0,0,0,0,0,0,0,0,-1,867,1730,0,0
-350,-706,0,0,0,0,0,0,0,0,0,-1,874,1730,0,0
-343,-706,0,0,0,0,0,0,0,0,0,-1,881,1730,0,0
-336,-706,0,0,0,0,0,0,0,0,0,-1,888,1730,0,0
-329,-706,0,0,0,0,0,0,0,0,0,-1,895,1730,0,0
-322,-706,0,0,0,0,0,0,0,0,0,-1,902,1730,0,0
-315,-706,0,0,0,0,0,0,0,0,0,-1,909,1730,0,0
-308,-706,5.08191,14.6245,0,0,0,0,0,0,0,-1,916,1730,5.08188,-14.6245
-301,-706,7.45007,21.1975,0,0,0,0,0,0,0,-1,923,1730,7.45005,-21.1976
-294,-706,11.8603,21.026,0,0,0,0,0,0,0,-1,930,1730,11.8603,-21.026
-287,-706,10.3292,20.8425,0,0,0,0,0,0,0,-1,937,1730,10.3292,-20.8425
-280,-706,7.9162,21.8951,0,0,0,0,0,0,0,-1,944,1730,7.9162,-21.8952
-273,-706,7.38953,20.6355,0,0,0,0,0,0,0,-1,951,1730,7.38955,-20.6355
-266,-706,9.66724,22.8231,0,0,0,0,0,0,0,-1,958,1730,9.66722,-22.8231
-259,-706,3.47852,20.7363,0,0,0,0,0,0,0,-1,965,1730,3.47851,-20.7364
-252,-706,3.84259,20.1979,0,0,0,0,0,0,0,-1,972,1730,3.84256,-20.1979
-245,-706,4.698,19.2992,0,0,0,0,0,0,0,-1,979,1730,4.69799,-19.2991
-238,-706,8.12567,36.8694,0,0,0,0,0,0,0,-1,986,1730,8.12568,-36.8694
-231,-706,9.32336,41.9623,0,0,0,0,0,0,0,-1,993,1730,9.32334,-41.9622
-224,-706,8.89551,42.1464,0.00118467,-0.00530356,0.00737157,0.0059944,-0.0101133,0.578109,0.00940058,0.0465772,1000,1730,8.8955,-42.1463
-217,-706,8.86926,42.5393,0.00338397,-0.00931676,0.00888389,0.0079538,-0.0138866,0.475097,0.0127637,0.0385329,1007,1730,8.86925,-42.5393
-210,-706,9.00562,43.0226,0.00532286,-0.0121239,0.00966261,0.0096173,-0.0164183,0.41822,0.0152016,0.0372373,1014,1730,9.00561,-43.0225
-203,-706,8.91724,43.5209,0.00683219,-0.0140454,0.0102853,0.0110479,-0.0182611,0.388995,0.0170916,0.0319496,1021,1730,8.9172,-43.5209
-196,-706,8.8158,43.9429,0.0077493,-0.0147918,0.0106439,0.0119809,-0.0190234,0.378405,0.0180536,0.0241977,1028,1730,8.81579,-43.9429
-189,-706,8.70264,44.4296,0.00819128,-0.0155514,0.0105084,0.0121741,-0.0195343,0.362286,0.0184705,0.0212733,1035,1730,8.70267,-44.4295
-182,-706,8.65637,44.8954,0.00810593,-0.0145471,0.0101455,0.0119854,-0.0184265,0.365226,0.0176891,0.0174179,1042,1730,8.65636,-44.8953
-175,-706,8.67725,45.3584,0.00771593,-0.0127127,0.0096951,0.0115845,-0.0165813,0.379662,0.0163466,0.0163762,1049,1730,8.67721,-45.3583
-168,-706,8.66992,45.7557,0.0068586,-0.0105559,0.00884678,0.0105643,-0.0142616,0.396673,0.0143862,0.0162756,1056,1730,8.66993,-45.7557
-161,-706,8.62561,46.1482,0.00559712,-0.00815203,0.00779951,0.00911928,-0.0116742,0.424173,0.0120353,0.0138189,1063,1730,8.62556,-46.1482
-154,-706,8.58142,46.5663,0.00428354,-0.0055314,0.00669643,0.0076782,-0.00892607,0.469182,0.0095955,0.0131027,1070,1730,8.58144,-46.5662
-147,-706,8.54736,46.9136,0.00308389,-0.00298525,0.0055104,0.00634003,-0.0062414,0.533708,0.00726396,0.0125841,1077,1730,8.54732,-46.9136
-140,-706,8.52466,47.2981,0.00206989,-0.000780487,0.00437482,0.00524581,-0.00395641,0.627934,0.00533026,0.0123197,1084,1730,8.52464,-47.2981
-133,-706,8.52502,47.684,0.00126801,0.000793815,0.00337795,0.00441717,-0.00235535,0.750361,0.00397006,0.0100565,1091,1730,8.52503,-47.6839
-126,-706,8.51563,48.0345,0.000252958,0.00249687,0.0021695,0.00381735,-0.00106752,1.02403,0.0029655,0.0146711,1098,1730,8.51557,-48.0345
-119,-706,8.49744,48.39,-9.66424e-05,0.00312751,0.00165708,0.00382729,-0.000796429,1.17121,0.00285429,0.0185605,1105,1730,8.49744,-48.39
-112,-706,8.48108,48.7369,0.000114517,0.00329362,0.00124114,0.00372078,-0.00031264,1.23933,0.00259103,0.0128374,1112,1730,8.48106,-48.7369
-105,-706,8.48779,49.0792,0.000376914,0.00293222,0.000982523,0.00326632,4.28137e-05,1.24302,0.00216342,0.00922996,1119,1730,8.48784,-49.0792
-98,-706,8.52002,49.3777,0.000760163,0.00239758,0.000761256,0.00269681,0.000460929,1.19627,0.00166563,0.0111511,1126,1730,8.52002,-49.3777
-91,-706,8.51965,49.6763,0.00118211,0.00178566,0.000560737,0.00212067,0.0008471,1.03226,0.0012326,0.0160151,1133,1730,8.51961,-49.6763
-84,-706,8.4873,49.9722,0.0015696,0.00125466,0.000364118,0.00180884,0.00101542,0.581312,0.00104695,0.019535,1140,1730,8.48726,-49.9722
-77,-706,8.48877,50.2151,0.00195599,0.0007636,0.000219575,0.00199514,0.000724452,0.17644,0.00116619,0.0169426,1147,1730,8.48871,-50.2151
-70,-706,8.4928,50.5076,0.0022764,0.00016095,5.08738e-05,0.00227763,0.000159727,0.0240301,0.00146808,0.0180526,1154,1730,8.49276,-50.5076
-63,-706,8.50635,50.7537,0.00283799,-0.000637883,1.01992e-05,0.00283802,-0.000637913,0.00293426,0.00213663,0.0139301,1161,1730,8.50638,-50.7536
-56,-706,8.51587,50.9832,0.00312495,0.000272234,-0.00104805,0.00346859,-7.14097e-05,-0.316843,0.00233656,0.0138351,1168,1730,8.51586,-50.9832
-49,-706,8.51392,51.2174,0.0043749,0.0010864,-0.00138919,0.00488319,0.000578114,-0.350756,0.00308089,0.0153059,1175,1730,8.51394,-51.2175
-42,-706,8.54773,51.4451,0.00653851,0.00227576,-0.00122968,0.0068678,0.00194647,-0.261647,0.00408724,0.0196331,1182,1730,8.5477,-51.445
-35,-706,8.56799,51.6351,0.00813129,0.00446568,-0.000321831,0.00815933,0.00443764,-0.0869115,0.00471683,0.0187817,1189,1730,8.56797,-51.6351
-28,-706,8.61804,51.7991,0.00938543,0.00646987,6.49991e-05,0.00938688,0.00646842,0.022279,0.0055472,0.0122924,1196,1730,8.61803,-51.7991
-21,-706,8.63623,51.9563,0.0108862,0.00841404,0.000754182,0.0110981,0.00820212,0.273921,0.00664713,0.0120921,1203,1730,8.63627,-51.9563
-14,-706,8.67651,52.1136,0.0123543,0.0102454,0.00157432,0.0131946,0.00940501,0.490324,0.00784452,0.0112254,1210,1730,8.67652,-52.1136
-7,-706,8.71753,52.2688,0.0132112,0.0124235,0.00220565,0.0150579,0.0105768,0.697051,0.00892798,0.00941652,1217,1730,8.71748,-52.2688
0,-706,8.76245,52.4199,0.0135689,0.0141031,0.00317018,0.0170174,0.0106546,0.827423,0.00992863,0.0141853,1224,1730,8.76247,-52.4199
7,-706,8.79248,52.5389,0.0136683,0.0160558,0.00397062,0.0190082,0.0107158,0.931422,0.0110041,0.0168585,1231,1730,8.79253,-52.5389
14,-706,8.82922,52.6141,0.0134802,0.0174275,0.00454516,0.020409,0.0104987,0.990228,0.0117848,0.0161754,1238,1730,8.82927,-52.6141
21,-706,8.87427,52.7036,0.0127687,0.0184116,0.00478525,0.0211453,0.0100351,1.05177,0.0122135,0.0128508,1245,1730,8.87423,-52.7036
28,-706,8.9231,52.796,0.0118441,0.0186915,0.00465508,0.0210463,0.00948928,1.10247,0.0121706,0.0130624,1252,1730,8.92311,-52.796
35,-706,8.95471,52.8771,0.0106369,0.0184988,0.00440151,0.0204692,0.00866657,1.14989,0.0118641,0.0146618,1259,1730,8.95468,-52.8771
42,-706,9.00427,52.9125,0.00923962,0.0177916,0.00393659,0.0193277,0.00770348,1.19875,0.0112351,0.0123035,1266,1730,9.00425,-52.9125
49,-706,9.06165,52.942,0.00760776,0.016019,0.00354922,0.0173165,0.00631027,1.22032,0.0101195,0.014756,1273,1730,9.0616,-52.9421
56,-706,9.12317,52.9681,0.00563821,0.0136226,0.00260631,0.0143981,0.00486275,1.28161,0.0084574,0.0143379,1280,1730,9.12316,-52.9682
63,-706,9.15967,52.9612,0.00339521,0.0109386,0.0014434,0.0112054,0.00312846,1.38805,0.00667641,0.0125167,1287,1730,9.15965,-52.9612
70,-706,9.17456,52.9501,0.00123513,0.00781526,0.000394017,0.00783877,0.00121162,1.5112,0.00487245,0.0130091,1294,1730,9.17461,-52.9501
77,-706,9.19714,52.9296,-0.00025149,0.00488742,-0.000212408,0.00489618,-0.000260254,-1.52956,0.00335424,0.0115092,1301,1730,9.19717,-52.9296
84,-706,9.25818,52.9011,-0.0018185,0.00209753,-0.000855873,0.00227642,-0.00199738,-1.36475,0.00246923,0.00952758,1308,1730,9.25812,-52.9011
91,-706,9.34912,52.8636,-0.00323219,-0.000183798,-0.00131756,0.000306734,-0.00372273,-1.21439,0.00259012,0.0108498,1315,1730,9.34912,-52.8637
98,-706,9.38354,52.8217,-0.00408594,-0.00216101,-0.00130855,-0.00149909,-0.00474786,-1.10248,0.00280254,0.0154615,1322,1730,9.38349,-52.8217
105,-706,9.39954,52.7791,-0.00454036,-0.0032663,-0.00148545,-0.00228705,-0.00551962,-0.98796,0.0032023,0.0188256,1329,1730,9.39948,-52.7791
112,-706,9.4502,52.7083,-0.00497457,-0.00436553,-0.00141401,-0.00322362,-0.00611648,-0.891457,0.00353307,0.0165703,1336,1730,9.45016,-52.7082
119,-706,9.46362,52.6123,-0.00535114,-0.00475819,-0.00129599,-0.00372519,-0.00638413,-0.897845,0.00370298,0.0127191,1343,1730,9.46365,-52.6123
126,-706,9.49683,52.4824,-0.0053909,-0.00494539,-0.00113856,-0.004008,-0.00632829,-0.882001,0.0036967,0.0152666,1350,1730,9.49678,-52.4824
133,-706,9.57019,52.3154,-0.00522604,-0.00452211,-0.000948606,-0.00386228,-0.00588587,-0.963042,0.00345304,0.0138181,1357,1730,9.57024,-52.3155
140,-706,9.62292,52.1505,-0.00456548,-0.00366592,-0.000849345,-0.00315461,-0.00507679,-1.02891,0.00295974,0.013137,1364,1730,9.6229,-52.1505
147,-706,9.67554,51.9882,-0.00358707,-0.00251434,-0.000669155,-0.00219312,-0.00390829,-1.12324,0.00226207,0.0226079,1371,1730,9.67554,-51.9881
154,-706,9.70764,51.8451,-0.00240194,-0.00138814,-0.000425203,-0.00123342,-0.00255667,-1.22181,0.0014764,0.021551,1378,1730,9.70761,-51.8451
161,-706,9.70508,51.6603,-0.00124956,-0.000237305,-0.000105688,-0.000226388,-0.00126047,-1.46787,0.000775941,0.011206,1385,1730,9.70507,-51.6603
168,-706,9.72668,51.4552,0.000102524,0.000622636,0.000272574,0.00073931,-1.41502e-05,1.16635,0.000497657,0.0107381,1392,1730,9.72664,-51.4552
175,-706,9.75293,51.2572,0.00185796,0.00131279,0.000195391,0.00192075,0.00124999,0.310958,0.00112563,0.010438,1399,1730,9.75291,-51.2573
182,-706,9.75513,51.0291,0.00201896,0.00160139,0.000237455,0.00212637,0.00149398,0.424773,0.00126081,0.0112266,1406,1730,9.75514,-51.029
189,-706,9.78223,50.7793,0.00197794,0.00178894,0.000351778,0.00224769,0.00151919,0.654179,0.0013242,0.0144378,1413,1730,9.78217,-50.7793
196,-706,9.80005,50.5267,0.00216081,0.00177985,0.000443106,0.00245264,0.00148802,0.582405,0.00142674,0.0123204,1420,1730,9.80008,-50.5268
203,-706,9.80127,50.2852,0.00239867,0.00136964,0.000282383,0.00247106,0.00129724,0.250974,0.00142726,0.0131676,1427,1730,9.80121,-50.2851
210,-706,9.81104,50.0187,0.00196751,0.0013082,8.78027e-05,0.001979,0.0012967,0.130152,0.00116079,0.012887,1434,1730,9.81107,-50.0186
217,-706,9.81702,49.7427,0.00153136,0.00110559,-0.000194252,0.00160666,0.00103028,-0.369835,0.000939865,0.0148082,1441,1730,9.81696,-49.7427
224,-706,9.81091,49.4636,0.00123201,0.00105321,-0.00041994,0.00157196,0.000713259,-0.680521,0.000908865,0.0196073,1448,1730,9.81085,-49.4636
231,-706,9.83069,49.1421,0.000863459,0.00100561,-0.000631428,0.00156995,0.00029912,-0.841445,0.000962547,0.0147347,1455,1730,9.83068,-49.1421
238,-706,9.8175,48.8153,0.000569499,0.000898155,-0.000809803,0.00156013,-9.24802e-05,-0.885501,0.00107225,0.00966807,1462,1730,9.81753,-48.8153
245,-706,9.83167,48.4749,0.000289107,0.000827361,-0.000998996,0.00159285,-0.000476378,-0.916973,0.00125129,0.0119665,1469,1730,9.83161,-48.4749
252,-706,9.82983,48.1467,-4.52635e-05,0.000720805,-0.00115155,0.00155135,-0.000875813,-0.945954,0.0014193,0.012434,1476,1730,9.82983,-48.1467
259,-706,9.80579,47.8202,-0.00034251,0.000590885,-0.0012523,0.00146062,-0.00121225,-0.963763,0.0015454,0.013133,1483,1730,9.80579,-47.8201
266,-706,9.7688,47.4789,-0.00061288,0.000353271,-0.00142585,0.00137566,-0.00163527,-0.948728,0.00174051,0.0127034,1490,1730,9.76881,-47.4788
273,-706,9.75183,47.1064,-0.00087134,0.000625997,-0.00179323,0.00182057,-0.00206591,-0.983147,0.00224535,0.0129786,1497,1730,9.75182,-47.1064
280,-706,9.75098,46.7196,-0.0011422,0.0007978,-0.00211782,0.00215719,-0.00250159,-1.00015,0.0026922,0.0109873,1504,1730,9.75102,-46.7196
287,-706,9.72351,46.3335,-0.00135435,0.00132407,-0.00246651,0.00279149,-0.00282177,-1.03411,0.00324083,0.0117415,1511,1730,9.72352,-46.3335
294,-706,9.7113,45.9574,-0.001457,0.00225313,-0.00265161,0.00363416,-0.00283803,-1.09063,0.00374613,0.0114722,1518,1730,9.71127,-45.9574
301,-706,9.69446,45.5558,-0.0010455,0.00271758,-0.00275945,0.00417592,-0.00250384,-1.08462,0.00389663,0.0104098,1525,1730,9.69442,-45.5558
308,-706,9.66431,45.147,0.000431245,0.00219362,-0.00350479,0.0049263,-0.00230143,-0.908557,0.00426367,0.0118506,1532,1730,9.66429,-45.147
315,-706,9.65027,44.7344,0.00322834,0.000805926,-0.00591598,0.00805583,-0.00402156,-0.684426,0.00710138,0.0189082,1539,1730,9.65026,-44.7343
322,-706,9.59253,44.3221,0.00584295,-8.33033e-05,-0.00712543,0.0105968,-0.00483717,-0.58835,0.00911529,0.0227918,1546,1730,9.59249,-44.3222
329,-706,9.56958,43.8308,0.00949671,-0.00178935,-0.00897946,0.0144591,-0.00675172,-0.504864,0.0125126,0.0268158,1553,1730,9.56954,-43.8308
336,-706,9.46375,43.2456,0.0140337,-0.00424969,-0.0113294,0.0194497,-0.00966569,-0.445931,0.0171232,0.0475387,1560,1730,9.46377,-43.2456
343,-706,9.38269,42.7339,0.019049,-0.00777706,-0.0140245,0.025042,-0.0137701,-0.403841,0.022721,0.0456686,1567,1730,9.38272,-42.7339
350,-706,9.46985,42.7505,0.0244298,-0.0121924,-0.0171979,0.0312397,-0.0190023,-0.377029,0.0292927,0.046159,1574,1730,9.46989,-42.7504
357,-706,10.2313,42.6547,0.0294631,-0.0162973,-0.0211474,0.0377392,-0.0245734,-0.373031,0.0362429,0.0460205,1581,1730,10.2314,-42.6546
364,-706,11.4546,42.5376,0.0342402,-0.0207019,-0.0253121,0.0441237,-0.0305854,-0.372259,0.0433687,0.0495516,1588,1730,11.4546,-42.5376
371,-706,12.9121,42.2726,0,0,0,0,0,0,0,-1,1595,1730,12.9121,-42.2726
378,-706,7.25085,37.1644,0,0,0,0,0,0,0,-1,1602,1730,7.25091,-37.1644
385,-706,8.13733,39.9003,0,0,0,0,0,0,0,-1,1609,1730,8.13735,-39.9003
392,-706,6.43359,36.5219,0,0,0,0,0,0,0,-1,1616,1730,6.43354,-36.5218
399,-706,6.06824,36.3298,0,0,0,0,0,0,0,-1,1623,1730,6.06819,-36.3299
406,-706,8.80493,41.0588,0,0,0,0,0,0,0,-1,1630,1730,8.80494,-41.0588
413,-706,8.43433,40.3345,0,0,0,0,0,0,0,-1,1637,1730,8.43428,-40.3344
420,-706,8.0636,39.6101,0,0,0,0,0,0,0,-1,1644,1730,8.06362,-39.6101
427,-706,0,0,0,0,0,0,0,0,0,-1,1651,1730,0,0
434,-706,0,0,0,0,0,0,0,0,0,-1,1658,1730,0,0
441,-706,0,0,0,0,0,0,0,0,0,-1,1665,1730,0,0
448,-706,0,0,0,0,0,0,0,0,0,-1,1672,1730,0,0
455,-706,0,0,0,0,0,0,0,0,0,-1,1679,1730,0,0
462,-706,0,0,0,0,0,0,0,0,0,-1,1686,1730,0,0
469,-706,0,0,0,0,0,0,0,0,0,-1,1693,1730,0,0
476,-706,0,0,0,0,0,0,0,0,0,-1,1700,1730,0,0
483,-706,0,0,0,0,0,0,0,0,0,-1,1707,1730,0,0
490,-706,0,0,0,0,0,0,0,0,0,-1,1714,1730,0,0
497,-706,0,0,0,0,0,0,0,0,0,-1,1721,1730,0,0
504,-706,0,0,0,0,0,0,0,0,0,-1,1728,1730,0,0
511,-706,0,0,0,0,0,0,0,0,0,-1,1735,1730,0,0
518,-706,0,0,0,0,0,0,0,0,0,-1,1742,1730,0,0
525,-706,0,0,0,0,0,0,0,0,0,-1,1749,1730,0,0
532,-706,0,0,0,0,0,0,0,0,0,-1,1756,1730,0,0
539,-706,0,0,0,0,0,0,0,0,0,-1,1763,1730,0,0
546,-706,0,0,0,0,0,0,0,0,0,-1,1770,1730,0,0
553,-706,0,0,0,0,0,0,0,0,0,-1,1777,1730,0,0
560,-706,0,0,0,0,0,0,0,0,0,-1,1784,1730,0,0
567,-706,0,0,0,0,0,0,0,0,0,-1,1791,1730,0,0
574,-706,0,0,0,0,0,0,0,0,0,-1,1798,1730,0,0
581,-706,0,0,0,0,0,0,0,0,0,-1,1805,1730,0,0
588,-706,0,0,0,0,0,0,0,0,0,-1,1812,1730,0,0
595,-706,0,0,0,0,0,0,0,0,0,-1,1819,1730,0,0
602,-706,0,0,0,0,0,0,0,0,0,-1,1826,1730,0,0
609,-706,0,0,0,0,0,0,0,0,0,-1,1833,1730,0,0
616,-706,0,0,0,0,0,0,0,0,0,-1,1840,1730,0,0
623,-706,0,0,0,0,0,0,0,0,0,-1,1847,1730,0,0
630,-706,0,0,0,0,0,0,0,0,0,-1,1854,1730,0,0
637,-706,0,0,0,0,0,0,0,0,0,-1,1861,1730,0,0
644,-706,0,0,0,0,0,0,0,0,0,-1,1868,1730,0,0
651,-706,0,0,0,0,0,0,0,0,0,-1,1875,1730,0,0
658,-706,0,0,0,0,0,0,0,0,0,-1,1882,1730,0,0
665,-706,0,0,0,0,0,0,0,0,0,-1,1889,1730,0,0
672,-706,0,0,0,0,0,0,0,0,0,-1,1896,1730,0,0
679,-706,0,0,0,0,0,0,0,0,0,-1,1903,1730,0,0
686,-706,0,0,0,0,0,0,0,0,0,-1,1910,1730,0,0
693,-706,0,0,0,0,0,0,0,0,0,-1,1917,1730,0,0
700,-706,0,0,0,0,0,0,0,0,0,-1,1924,1730,0,0
707,-706,0,0,0,0,0,0,0,0,0,-1,1931,1730,0,0
714,-706,0,0,0,0,0,0,0,0,0,-1,1938,1730,0,0
721,-706,0,0,0,0,0,0,0,0,0,-1,1945,1730,0,0
728,-706,0,0,0,0,0,0,0,0,0,-1,1952,1730,0,0
735,-706,0,0,0,0,0,0,0,0,0,-1,1959,1730,0,0
742,-706,0,0,0,0,0,0,0,0,0,-1,1966,1730,0,0
749,-706,0,0,0,0,0,0,0,0,0,-1,1973,1730,0,0
756,-706,0,0,0,0,0,0,0,0,0,-1,1980,1730,0,0
763,-706,0,0,0,0,0,0,0,0,0,-1,1987,1730,0,0
770,-706,0,0,0,0,0,0,0,0,0,-1,1994,1730,0,0
777,-706,0,0,0,0,0,0,0,0,0,-1,2001,1730,0,0
784,-706,0,0,0,0,0,0,0,0,0,-1,2008,1730,0,0
791,-706,0,0,0,0,0,0,0,0,0,-1,2015,1730,0,0
798,-706,0,0,0,0,0,0,0,0,0,-1,2022,1730,0,0
805,-706,0,0,0,0,0,0,0,0,0,-1,2029,1730,0,0
812,-706,0,0,0,0,0,0,0,0,0,-1,2036,1730,0,0
-700,-713,0,0,0,0,0,0,0,0,0,-1,524,1737,0,0
-693,-713,0,0,0,0,0,0,0,0,0,-1,531,1737,0,0
-686,-713,0,0,0,0,0,0,0,0,0,-1,538,1737,0,0
-679,-713,0,0,0,0,0,0,0,0,0,-1,545,1737,0,0
-672,-713,0,0,0,0,0,0,0,0,0,-1,552,1737,0,0
-665,-713,0,0,0,0,0,0,0,0,0,-1,559,1737,0,0
-658,-713,0,0,0,0,0,0,0,0,0,-1,566,1737,0,0
-651,-713,0,0,0,0,0,0,0,0,0,-1,573,1737,0,0
-644,-713,0,0,0,0,0,0,0,0,0,-1,580,1737,0,0
-637,-713,0,0,0,0,0,0,0,0,0,-1,587,1737,0,0
-630,-713,0,0,0,0,0,0,0,0,0,-1,594,1737,0,0
-623,-713,0,0,0,0,0,0,0,0,0,-1,601,1737,0,0
-616,-713,0,0,0,0,0,0,0,0,0,-1,608,1737,0,0
-609,-713,0,0,0,0,0,0,0,0,0,-1,615,1737,0,0
-602,-713,0,0,0,0,0,0,0,0,0,-1,622,1737,0,0
-595,-713,0,0,0,0,0,0,0,0,0,-1,629,1737,0,0
-588,-713,0,0,0,0,0,0,0,0,0,-1,636,1737,0,0
-581,-713,0,0,0,0,0,0,0,0,0,-1,643,1737,0,0
-574,-713,0,0,0,0,0,0,0,0,0,-1,650,1737,0,0
-567,-713,0,0,0,0,0,0,0,0,0,-1,657,1737,0,0
-560,-713,0,0,0,0,0,0,0,0,0,-1,664,1737,0,0
-553,-713,0,0,0,0,0,0,0,0,0,-1,671,1737,0,0
-546,-713,0,0,0,0,0,0,0,0,0,-1,678,1737,0,0
-539,-713,0,0,0,0,0,0,0,0,0,-1,685,1737,0,0
-532,-713,0,0,0,0,0,0,0,0,0,-1,692,1737,0,0
-525,-713,0,0,0,0,0,0,0,0,0,-1,699,1737,0,0
-518,-713,0,0,0,0,0,0,0,0,0,-1,706,1737,0,0
-511,-713,0,0,0,0,0,0,0,0,0,-1,713,1737,0,0
-504,-713,0,0,0,0,0,0,0,0,0,-1,720,1737,0,0
-497,-713,0,0,0,0,0,0,0,0,0,-1,727,1737,0,0
-490,-713,0,0,0,0,0,0,0,0,0,-1,734,1737,0,0
-483,-713,0,0,0,0,0,0,0,0,0,-1,741,1737,0,0
-476,-713,0,0,0,0,0,0,0,0,0,-1,748,1737,0,0
-469,-713,0,0,0,0,0,0,0,0,0,-1,755,1737,0,0
-462,-713,0,0,0,0,0,0,0,0,0,-1,762,1737,0,0
-455,-713,0,0,0,0,0,0,0,0,0,-1,769,1737,0,0
-448,-713,0,0,0,0,0,0,0,0,0,-1,776,1737,0,0
-441,-713,0,0,0,0,0,0,0,0,0,-1,783,1737,0,0
-434,-713,0,0,0,0,0,0,0,0,0,-1,790,1737,0,0
-427,-713,0,0,0,0,0,0,0,0,0,-1,797,1737,0,0
-420,-713,0,0,0,0,0,0,0,0,0,-1,804,1737,0,0
-413,-713,0,0,0,0,0,0,0,0,0,-1,811,1737,0,0
-406,-713,0,0,0,0,0,0,0,0,0,-1,818,1737,0,0
-399,-713,0,0,0,0,0,0,0,0,0,-1,825,1737,0,0
-392,-713,0,0,0,0,0,0,0,0,0,-1,832,1737,0,0
-385,-713,0,0,0,0,0,0,0,0,0,-1,839,1737,0,0
-378,-713,0,0,0,0,0,0,0,0,0,-1,846,1737,0,0
-371,-713,0,0,0,0,0,0,0,0,0,-1,853,1737,0,0
-364,-713,0,0,0,0,0,0,0,0,0,-1,860,1737,0,0
-357,-713,0,0,0,0,0,0,0,0,0,-1,867,1737,0,0
-350,-713,0,0,0,0,0,0,0,0,0,-1,874,1737,0,0
-343,-713,0,0,0,0,0,0,0,0,0,-1,881,1737,0,0
-336,-713,0,0,0,0,0,0,0,0,0,-1,888,1737,0,0
-329,-713,0,0,0,0,0,0,0,0,0,-1,895,1737,0,0
-322,-713,0,0,0,0,0,0,0,0,0,-1,902,1737,0,0
-315,-713,0,0,0,0,0,0,0,0,0,-1,909,1737,0,0
-308,-713,0,0,0,0,0,0,0,0,0,-1,916,1737,0,0
-301,-713,0,0,0,0,0,0,0,0,0,-1,923,1737,0,0
-294,-713,7.17883,22.0453,0,0,0,0,0,0,0,-1,930,1737,7.17881,-22.0453
-287,-713,11.8916,21.5834,0,0,0,0,0,0,0,-1,937,1737,11.8916,-21.5833
-280,-713,10.2786,21.3551,0,0,0,0,0,0,0,-1,944,1737,10.2787,-21.3551
-273,-713,11.1981,23.8683,0,0,0,0,0,0,0,-1,951,1737,11.198,-23.8683
-266,-713,3.17981,19.8851,0,0,0,0,0,0,0,-1,958,1737,3.17983,-19.8851
-259,-713,3.5921,19.6868,0,0,0,0,0,0,0,-1,965,1737,3.59207,-19.6868
-252,-713,4.55469,20.5758,0,0,0,0,0,0,0,-1,972,1737,4.55466,-20.5758
-245,-713,3.89014,25.9825,0,0,0,0,0,0,0,-1,979,1737,3.89013,-25.9826
-238,-713,6.62506,30.5463,0,0,0,0,0,0,0,-1,986,1737,6.62509,-30.5462
-231,-713,8.72723,42.1328,0,0,0,0,0,0,0,-1,993,1737,8.72726,-42.1328
-224,-713,8.90118,42.2382,0,0,0,0,0,0,0,-1,1000,1737,8.9012,-42.2382
-217,-713,9.07513,42.3436,0,0,0,0,0,0,0,-1,1007,1737,9.07514,-42.3437
-210,-713,9.65192,43.0206,0,0,0,0,0,0,0,-1,1014,1737,9.65192,-43.0206
-203,-713,9.1853,43.6923,0,0,0,0,0,0,0,-1,1021,1737,9.18535,-43.6923
-196,-713,9.03015,44.1814,0.0134918,-0.0235051,0.0157766,0.0193058,-0.0293191,0.353076,0.0282713,0.0469256,1028,1737,9.03012,-44.1814
-189,-713,8.99658,44.4081,0.0137137,-0.0238185,0.0155635,0.0193277,-0.0294326,0.346189,0.0283525,0.0413974,1035,1737,8.99653,-44.408
-182,-713,8.93323,44.7797,0.0130496,-0.0219683,0.0148418,0.0184937,-0.0274124,0.351569,0.0266701,0.0275074,1042,1737,8.93322,-44.7797
-175,-713,9.0647,45.2012,0.0119385,-0.0190786,0.0139369,0.0172806,-0.0244207,0.366037,0.0241936,0.0257872,1049,1737,9.06473,-45.2012
-168,-713,9.19336,45.6362,0.0103185,-0.0159012,0.0125716,0.0153722,-0.0209548,0.38222,0.0210558,0.0300832,1056,1737,9.19334,-45.6362
-161,-713,9.02466,46.1417,0.00825406,-0.012436,0.0110054,0.0130133,-0.0171952,0.408159,0.0174965,0.014986,1063,1737,9.0246,-46.1417
-154,-713,8.96094,46.5347,0.00613871,-0.00878071,0.0093977,0.0106775,-0.0133195,0.44993,0.0138826,0.0116673,1070,1737,8.96092,-46.5347
-147,-713,8.90967,46.9196,0.00421539,-0.00531876,0.0077455,0.00854325,-0.00964662,0.509542,0.0105084,0.0194814,1077,1737,8.9097,-46.9195
-140,-713,8.90454,47.3401,0.00259605,-0.00232183,0.00622446,0.00682966,-0.00655544,0.597284,0.00772843,0.0203227,1084,1737,8.90449,-47.3401
-133,-713,8.86316,47.6929,0.00128711,-0.000155243,0.00490295,0.00552164,-0.00438977,0.712377,0.00573478,0.0132873,1091,1737,8.86311,-47.6929
-126,-713,8.85315,48.0093,-0.000427022,0.00240889,0.00320675,0.00449719,-0.00251533,0.993563,0.00410222,0.0195369,1098,1737,8.85311,-48.0092
-119,-713,8.85022,48.324,-0.00122516,0.00343883,0.00252286,0.00454239,-0.00232872,1.15845,0.00403508,0.0258251,1105,1737,8.85021,-48.324
-112,-713,8.82068,48.7444,-0.0011574,0.00392124,0.00195269,0.00458522,-0.00182138,1.24303,0.00381186,0.0133814,1112,1737,8.82074,-48.7443
-105,-713,8.8186,49.0594,-0.00100737,0.0036545,0.0016974,0.00420703,-0.0015599,1.25609,0.00344448,0.0110197,1119,1737,8.81863,-49.0594
-98,-713,8.81616,49.3757,-0.000637233,0.00310473,0.00150812,0.00363687,-0.00116937,1.23159,0.00289422,0.0106729,1126,1737,8.81617,-49.3757
-91,-713,8.77429,49.6724,-0.000199325,0.00240478,0.00130891,0.00294896,-0.00074351,1.17678,0.00225505,0.0108784,1133,1737,8.77431,-49.6724
-84,-713,8.75073,49.9633,0.000175385,0.00191806,0.00110054,0.00245044,-0.000356993,1.12024,0.0017647,0.0101983,1140,1737,8.75076,-49.9632
-77,-713,8.75305,50.2292,0.00058581,0.0015056,0.000976968,0.00212551,-3.40944e-05,1.00538,0.00142851,0.0123355,1147,1737,8.75302,-50.2292
-70,-713,8.75879,50.498,0.000901192,0.000963099,0.000741725,0.00167452,0.000189775,0.806252,0.00105877,0.0137025,1154,1737,8.75883,-50.4981
-63,-713,8.7561,50.76,0.00125145,0.000299269,0.000588826,0.00153258,1.81421e-05,0.445434,0.00101572,0.0125558,1161,1737,8.75615,-50.7601
-56,-713,8.7572,50.9908,0.00155046,0.000366,0.000201739,0.00158388,0.000332582,0.164158,0.000964366,0.0131294,1168,1737,8.75724,-50.9908
-49,-713,8.73389,51.2218,0.00213687,0.00049674,-6.87017e-05,0.00213975,0.000493867,-0.0417903,0.00129369,0.0163132,1175,1737,8.73389,-51.2218
-42,-713,8.74976,51.4125,0.00319517,0.000873828,-0.000123423,0.00320172,0.000867284,-0.0529698,0.00191211,0.0187506,1182,1737,8.7497,-51.4125
-35,-713,8.78503,51.6023,0.00411605,0.00179872,0.000126525,0.00412294,0.00179183,0.0543839,0.00238716,0.0154082,1189,1737,8.78502,-51.6023
-28,-713,8.8064,51.8113,0.00490563,0.00289837,0.000173014,0.00492043,0.00288356,0.0853551,0.0028548,0.0134125,1196,1737,8.80641,-51.8113
-21,-713,8.79016,51.9839,0.00584592,0.00416153,0.000440755,0.00595429,0.00405317,0.241073,0.00351176,0.00957009,1203,1737,8.79018,-51.9839
-14,-713,8.81372,52.13,0.0069733,0.00548647,0.000832561,0.00734605,0.00511372,0.420951,0.00434864,0.0106511,1210,1737,8.81374,-52.13
-7,-713,8.86047,52.2804,0.00780153,0.00700605,0.00120594,0.00867362,0.00613395,0.626106,0.00514905,0.0104857,1217,1737,8.8605,-52.2804
0,-713,8.8916,52.422,0.0082253,0.00846999,0.00180582,0.0101576,0.00653769,0.819222,0.0059446,0.0160003,1224,1737,8.89163,-52.422
7,-713,8.90503,52.5398,0.00849479,0.0100846,0.00232863,0.0117503,0.00682912,0.949877,0.00681376,0.0183132,1231,1737,8.90498,-52.5398
14,-713,8.92725,52.6366,0.00856852,0.0112953,0.00273142,0.0129847,0.00687912,1.01688,0.00750113,0.0130531,1238,1737,8.9272,-52.6366
21,-713,8.95605,52.7332,0.00825535,0.012279,0.00292668,0.0138187,0.00671571,1.08651,0.00797925,0.0110691,1245,1737,8.95602,-52.7331
28,-713,8.97461,52.8318,0.00770103,0.0128173,0.00286186,0.0140977,0.00642065,1.15011,0.0081501,0.0113139,1252,1737,8.97456,-52.8318
35,-713,9.00427,52.8918,0.00695436,0.0129736,0.0027113,0.0140148,0.00591318,1.20415,0.00812425,0.0109212,1259,1737,9.00426,-52.8918
42,-713,9.04822,52.9346,0.00599757,0.0126538,0.0024051,0.0134319,0.00521949,1.25791,0.00781883,0.0107537,1266,1737,9.04818,-52.9345
49,-713,9.08008,52.9437,0.00488994,0.0115128,0.0021515,0.0121504,0.00425238,1.28271,0.00711949,0.0121285,1273,1737,9.08002,-52.9437
56,-713,9.11255,52.9684,0.00356194,0.00990606,0.00150677,0.0102457,0.00322226,1.34907,0.00604956,0.013731,1280,1737,9.11253,-52.9683
63,-713,9.14746,52.9788,0.00206736,0.00809973,0.000684901,0.00817652,0.00199057,1.45915,0.0049235,0.0141933,1287,1737,9.14747,-52.9788
70,-713,9.17139,52.9663,0.000710417,0.00599822,-2.77222e-05,0.00599837,0.000710272,-1.56555,0.00378444,0.0126399,1294,1737,9.17134,-52.9663
77,-713,9.19153,52.9652,-0.000120933,0.00390413,-0.000429132,0.00394937,-0.000166176,-1.46575,0.00269002,0.0122651,1301,1737,9.19156,-52.9652
84,-713,9.23657,52.9647,-0.0010061,0.00188731,-0.000871979,0.00212978,-0.00124857,-1.29958,0.00197248,0.0128209,1308,1737,9.23653,-52.9648
91,-713,9.2666,52.9198,-0.00185238,0.000293971,-0.00115357,0.000796372,-0.00235478,-1.16005,0.00189203,0.0131942,1315,1737,9.26664,-52.9197
98,-713,9.29395,52.8523,-0.00226149,-0.00102503,-0.00114968,-0.000337895,-0.00294862,-1.03209,0.00186335,0.0134126,1322,1737,9.29395,-52.8523
105,-713,9.32532,52.7814,-0.00223883,-0.00186099,-0.00119961,-0.000835513,-0.0032643,-0.8635,0.00195805,0.0158211,1329,1737,9.32533,-52.7814
112,-713,9.35596,52.7129,-0.00231262,-0.00266425,-0.00107298,-0.00140114,-0.00357573,-0.704191,0.00208048,0.0148877,1336,1737,9.35595,-52.7129
119,-713,9.36279,52.6265,-0.00237217,-0.00292933,-0.00092416,-0.00168552,-0.00361599,-0.63901,0.00208929,0.0138151,1343,1737,9.36276,-52.6265
126,-713,9.37097,52.5311,-0.00223585,-0.00310397,-0.000747167,-0.00180581,-0.00353401,-0.522254,0.00204052,0.0135354,1350,1737,9.37096,-52.5311
133,-713,9.40601,52.3651,-0.00198943,-0.00284831,-0.00055935,-0.00171368,-0.00312406,-0.458017,0.00180651,0.0132205,1357,1737,9.40606,-52.3651
140,-713,9.4563,52.1796,-0.00154751,-0.00222151,-0.000449953,-0.00132235,-0.00244667,-0.463979,0.00141413,0.0140086,1364,1737,9.4563,-52.1795
147,-713,9.44763,51.9935,-0.00101306,-0.00142085,-0.000330371,-0.000828731,-0.00160518,-0.508926,0.000926913,0.0150483,1371,1737,9.44761,-51.9935
154,-713,9.45007,51.8723,-0.000416123,-0.000638266,-0.000198685,-0.000299571,-0.000754818,-0.530522,0.000438873,0.0151918,1378,1737,9.45005,-51.8723
161,-713,9.48926,51.6683,9.89944e-05,0.000130185,-3.93196e-05,0.000156889,7.22901e-05,-0.974195,9.06728e-05,0.0114715,1385,1737,9.4893,-51.6684
168,-713,9.50842,51.4484,0.000630588,0.000626037,0.00012413,0.000752463,0.000504163,0.776233,0.000442727,0.0111212,1392,1737,9.50837,-51.4484
175,-713,9.52148,51.233,0.00125121,0.000989153,5.24904e-05,0.00126133,0.00097903,0.190511,0.000764368,0.0141455,1399,1737,9.52145,-51.2331
182,-713,9.51294,51.0214,0.00113118,0.00119259,-1.39645e-05,0.00119562,0.00112815,-1.35739,0.000775568,0.0127138,1406,1737,9.51297,-51.0213
189,-713,9.53528,50.7896,0.00102435,0.0013347,-8.43125e-05,0.00135612,0.00100293,-1.32194,0.000812361,0.0118909,1413,1737,9.53525,-50.7896
196,-713,9.55969,50.5292,0.000981992,0.00136128,-0.000206341,0.00145189,0.000891383,-1.15702,0.000845472,0.0137478,1420,1737,9.55974,-50.5292
203,-713,9.54773,50.2799,0.000897951,0.00127155,-0.000401518,0.00152759,0.000641906,-1.00312,0.000885692,0.0185323,1427,1737,9.54776,-50.2799
210,-713,9.53809,50.0054,0.000662833,0.00132784,-0.000585706,0.00166884,0.000321832,-1.04356,0.00102231,0.0142107,1434,1737,9.53808,-50.0053
217,-713,9.55615,49.7262,0.000450576,0.00116275,-0.000820168,0.0017008,-8.74691e-05,-0.990202,0.00116412,0.0112676,1441,1737,9.55612,-49.7262
224,-713,9.54175,49.4586,0.000192125,0.00106293,-0.0010269,0.00174292,-0.000487861,-0.98591,0.00135418,0.0119465,1448,1737,9.54171,-49.4586
231,-713,9.53589,49.1555,-0.00021173,0.000911021,-0.00114596,0.00162572,-0.000926426,-1.01316,0.0014918,0.011513,1455,1737,9.53585,-49.1556
238,-713,9.51453,48.8237,-0.000472475,0.000720677,-0.00126864,0.00152601,-0.00127781,-1.00518,0.0016209,0.00893499,1462,1737,9.51455,-48.8237
245,-713,9.51843,48.4806,-0.000724236,0.000607714,-0.00146062,0.00154702,-0.00166354,-0.999295,0.00185403,0.0117145,1469,1737,9.51841,-48.4806
252,-713,9.50867,48.1418,-0.00107948,0.000453883,-0.00159792,0.00145953,-0.00208513,-1.00908,0.00205711,0.0129024,1476,1737,9.50865,-48.1418
259,-713,9.49536,47.8058,-0.00137894,0.000301606,-0.00165952,0.00132146,-0.00239879,-1.01975,0.0021777,0.012741,1483,1737,9.49538,-47.8058
266,-713,9.4519,47.4852,-0.0016443,2.4363e-05,-0.00183604,0.00120675,-0.00282669,-0.998659,0.0023905,0.0110392,1490,1737,9.45187,-47.4852
273,-713,9.4071,47.1315,-0.00189506,0.000443038,-0.00230876,0.00186185,-0.00331388,-1.01976,0.00302715,0.00918508,1497,1737,9.40707,-47.1315
280,-713,9.38794,46.7528,-0.00214849,0.000730441,-0.00271206,0.00236137,-0.00377942,-1.02938,0.00357676,0.0104602,1504,1737,9.38788,-46.7529
287,-713,9.37354,46.3665,-0.00233219,0.00148749,-0.00316516,0.00327437,-0.00411907,-1.05685,0.00427788,0.0119729,1511,1737,9.37358,-46.3664
294,-713,9.36279,45.9773,-0.00236801,0.00278195,-0.00341301,0.00448238,-0.00406844,-1.10857,0.00493875,0.0166961,1518,1737,9.36281,-45.9773
301,-713,9.26526,45.5377,-0.00168187,0.00352861,-0.00354858,0.00532561,-0.00347887,-1.10204,0.0051204,0.0204436,1525,1737,9.26527,-45.5378
308,-713,9.22473,45.1506,0.000460719,0.00291484,-0.00449689,0.00634907,-0.00297352,-0.91859,0.00549875,0.0246076,1532,1737,9.22476,-45.1506
315,-713,9.29871,44.8544,0.00436791,0.00112486,-0.00770774,0.0106228,-0.00513008,-0.681722,0.00927742,0.0326982,1539,1737,9.29872,-44.8544
322,-713,9.27856,43.9884,0.00808416,3.01645e-05,-0.00937197,0.0142577,-0.00614335,-0.582482,0.0120851,0.0495372,1546,1737,9.27862,-43.9884
329,-713,9.34705,43.5851,0,0,0,0,0,0,0,-1,1553,1737,9.34701,-43.5851
336,-713,9.18103,43.1263,0,0,0,0,0,0,0,-1,1560,1737,9.18104,-43.1264
343,-713,8.45886,42.6257,0,0,0,0,0,0,0,-1,1567,1737,8.45891,-42.6257
350,-713,8.5199,43.0769,0,0,0,0,0,0,0,-1,1574,1737,8.51984,-43.0769
357,-713,9.54712,43.1355,0,0,0,0,0,0,0,-1,1581,1737,9.54716,-43.1356
364,-713,10.9951,42.7886,0,0,0,0,0,0,0,-1,1588,1737,10.9951,-42.7886
371,-713,3.07507,25.4108,0,0,0,0,0,0,0,-1,1595,1737,3.07502,-25.4107
378,-713,5.16516,38.248,0,0,0,0,0,0,0,-1,1602,1737,5.16511,-38.248
385,-713,5.6416,36.8367,0,0,0,0,0,0,0,-1,1609,1737,5.64155,-36.8367
392,-713,5.11096,36.6809,0,0,0,0,0,0,0,-1,1616,1737,5.11091,-36.6809
399,-713,4.47375,36.4706,0,0,0,0,0,0,0,-1,1623,1737,4.47376,-36.4706
406,-713,2.30334,27.5551,0,0,0,0,0,0,0,-1,1630,1737,2.30332,-27.555
413,-713,8.05823,41.6907,0,0,0,0,0,0,0,-1,1637,1737,8.05819,-41.6907
420,-713,0,0,0,0,0,0,0,0,0,-1,1644,1737,0,0
427,-713,0,0,0,0,0,0,0,0,0,-1,1651,1737,0,0
434,-713,0,0,0,0,0,0,0,0,0,-1,1658,1737,0,0
441,-713,0,0,0,0,0,0,0,0,0,-1,1665,1737,0,0
448,-713,0,0,0,0,0,0,0,0,0,-1,1672,1737,0,0
455,-713,0,0,0,0,0,0,0,0,0,-1,1679,1737,0,0
462,-713,0,0,0,0,0,0,0,0,0,-1,1686,1737,0,0
469,-713,0,0,0,0,0,0,0,0,0,-1,1693,1737,0,0
476,-713,0,0,0,0,0,0,0,0,0,-1,1700,1737,0,0
483,-713,0,0,0,0,0,0,0,0,0,-1,1707,1737,0,0
490,-713,0,0,0,0,0,0,0,0,0,-1,1714,1737,0,0
497,-713,0,0,0,0,0,0,0,0,0,-1,1721,1737,0,0
504,-713,0,0,0,0,0,0,0,0,0,-1,1728,1737,0,0
511,-713,0,0,0,0,0,0,0,0,0,-1,1735,1737,0,0
518,-713,0,0,0,0,0,0,0,0,0,-1,1742,1737,0,0
525,-713,0,0,0,0,0,0,0,0,0,-1,1749,1737,0,0
532,-713,0,0,0,0,0,0,0,0,0,-1,1756,1737,0,0
539,-713,0,0,0,0,0,0,0,0,0,-1,1763,1737,0,0
546,-713,0,0,0,0,0,0,0,0,0,-1,1770,1737,0,0
553,-713,0,0,0,0,0,0,0,0,0,-1,1777,1737,0,0
560,-713,0,0,0,0,0,0,0,0,0,-1,1784,1737,0,0
567,-713,0,0,0,0,0,0,0,0,0,-1,1791,1737,0,0
574,-713,0,0,0,0,0,0,0,0,0,-1,1798,1737,0,0
581,-713,0,0,0,0,0,0,0,0,0,-1,1805,1737,0,0
588,-713,0,0,0,0,0,0,0,0,0,-1,1812,1737,0,0
595,-713,0,0,0,0,0,0,0,0,0,-1,1819,1737,0,0
602,-713,0,0,0,0,0,0,0,0,0,-1,1826,1737,0,0
609,-713,0,0,0,0,0,0,0,0,0,-1,1833,1737,0,0
616,-713,0,0,0,0,0,0,0,0,0,-1,1840,1737,0,0
623,-713,0,0,0,0,0,0,0,0,0,-1,1847,1737,0,0
630,-713,0,0,0,0,0,0,0,0,0,-1,1854,1737,0,0
637,-713,0,0,0,0,0,0,0,0,0,-1,1861,1737,0,0
644,-713,0,0,0,0,0,0,0,0,0,-1,1868,1737,0,0
651,-713,0,0,0,0,0,0,0,0,0,-1,1875,1737,0,0
658,-713,0,0,0,0,0,0,0,0,0,-1,1882,1737,0,0
665,-713,0,0,0,0,0,0,0,0,0,-1,1889,1737,0,0
672,-713,0,0,0,0,0,0,0,0,0,-1,1896,1737,0,0
679,-713,0,0,0,0,0,0,0,0,0,-1,1903,1737,0,0
686,-713,0,0,0,0,0,0,0,0,0,-1,1910,1737,0,0
693,-713,0,0,0,0,0,0,0,0,0,-1,1917,1737,0,0
700,-713,0,0,0,0,0,0,0,0,0,-1,1924,1737,0,0
707,-713,0,0,0,0,0,0,0,0,0,-1,1931,1737,0,0
714,-713,0,0,0,0,0,0,0,0,0,-1,1938,1737,0,0
721,-713,0,0,0,0,0,0,0,0,0,-1,1945,1737,0,0
728,-713,0,0,0,0,0,0,0,0,0,-1,1952,1737,0,0
735,-713,0,0,0,0,0,0,0,0,0,-1,1959,1737,0,0
742,-713,0,0,0,0,0,0,0,0,0,-1,1966,1737,0,0
749,-713,0,0,0,0,0,0,0,0,0,-1,1973,1737,0,0
756,-713,0,0,0,0,0,0,0,0,0,-1,1980,1737,0,0
763,-713,0,0,0,0,0,0,0,0,0,-1,1987,1737,0,0
770,-713,0,0,0,0,0,0,0,0,0,-1,1994,1737,0,0
777,-713,0,0,0,0,0,0,0,0,0,-1,2001,1737,0,0
784,-713,0,0,0,0,0,0,0,0,0,-1,2008,1737,0,0
791,-713,0,0,0,0,0,0,0,0,0,-1,2015,1737,0,0
798,-713,0,0,0,0,0,0,0,0,0,-1,2022,1737,0,0
805,-713,0,0,0,0,0,0,0,0,0,-1,2029,1737,0,0
812,-713,0,0,0,0,0,0,0,0,0,-1,2036,1737,0,0
-700,-720,0,0,0,0,0,0,0,0,0,-1,524,1744,0,0
-693,-720,0,0,0,0,0,0,0,0,0,-1,531,1744,0,0
-686,-720,0,0,0,0,0,0,0,0,0,-1,538,1744,0,0
-679,-720,0,0,0,0,0,0,0,0,0,-1,545,1744,0,0
-672,-720,0,0,0,0,0,0,0,0,0,-1,552,1744,0,0
-665,-720,0,0,0,0,0,0,0,0,0,-1,559,1744,0,0
-658,-720,0,0,0,0,0,0,0,0,0,-1,566,1744,0,0
-651,-720,0,0,0,0,0,0,0,0,0,-1,573,1744,0,0
-644,-720,0,0,0,0,0,0,0,0,0,-1,580,1744,0,0
-637,-720,0,0,0,0,0,0,0,0,0,-1,587,1744,0,0
-630,-720,0,0,0,0,0,0,0,0,0,-1,594,1744,0,0
-623,-720,0,0,0,0,0,0,0,0,0,-1,601,1744,0,0
-616,-720,0,0,0,0,0,0,0,0,0,-1,608,1744,0,0
-609,-720,0,0,0,0,0,0,0,0,0,-1,615,1744,0,0
-602,-720,0,0,0,0,0,0,0,0,0,-1,622,1744,0,0
-595,-720,0,0,0,0,0,0,0,0,0,-1,629,1744,0,0
-588,-720,0,0,0,0,0,0,0,0,0,-1,636,1744,0,0
-581,-720,0,0,0,0,0,0,0,0,0,-1,643,1744,0,0
-574,-720,0,0,0,0,0,0,0,0,0,-1,650,1744,0,0
-567,-720,0,0,0,0,0,0,0,0,0,-1,657,1744,0,0
-560,-720,0,0,0,0,0,0,0,0,0,-1,664,1744,0,0
-553,-720,0,0,0,0,0,0,0,0,0,-1,671,1744,0,0
-546,-720,0,0,0,0,0,0,0,0,0,-1,678,1744,0,0
-539,-720,0,0,0,0,0,0,0,0,0,-1,685,1744,0,0
-532,-720,0,0,0,0,0,0,0,0,0,-1,692,1744,0,0
-525,-720,0,0,0,0,0,0,0,0,0,-1,699,1744,0,0
-518,-720,0,0,0,0,0,0,0,0,0,-1,706,1744,0,0
-511,-720,0,0,0,0,0,0,0,0,0,-1,713,1744,0,0
-504,-720,0,0,0,0,0,0,0,0,0,-1,720,1744,0,0
-497,-720,0,0,0,0,0,0,0,0,0,-1,727,1744,0,0
-490,-720,0,0,0,0,0,0,0,0,0,-1,734,1744,0,0
-483,-720,0,0,0,0,0,0,0,0,0,-1,741,1744,0,0
-476,-720,0,0,0,0,0,0,0,0,0,-1,748,1744,0,0
-469,-720,0,0,0,0,0,0,0,0,0,-1,755,1744,0,0
-462,-720,0,0,0,0,0,0,0,0,0,-1,762,1744,0,0
-455,-720,0,0,0,0,0,0,0,0,0,-1,769,1744,0,0
-448,-720,0,0,0,0,0,0,0,0,0,-1,776,1744,0,0
-441,-720,0,0,0,0,0,0,0,0,0,-1,783,1744,0,0
-434,-720,0,0,0,0,0,0,0,0,0,-1,790,1744,0,0
-427,-720,0,0,0,0,0,0,0,0,0,-1,797,1744,0,0
-420,-720,0,0,0,0,0,0,0,0,0,-1,804,1744,0,0
-413,-720,0,0,0,0,0,0,0,0,0,-1,811,1744,0,0
-406,-720,0,0,0,0,0,0,0,0,0,-1,818,1744,0,0
-399,-720,0,0,0,0,0,0,0,0,0,-1,825,1744,0,0
-392,-720,0,0,0,0,0,0,0,0,0,-1,832,1744,0,0
-385,-720,0,0,0,0,0,0,0,0,0,-1,839,1744,0,0
-378,-720,0,0,0,0,0,0,0,0,0,-1,846,1744,0,0
-371,-720,0,0,0,0,0,0,0,0,0,-1,853,1744,0,0
-364,-720,0,0,0,0,0,0,0,0,0,-1,860,1744,0,0
-357,-720,0,0,0,0,0,0,0,0,0,-1,867,1744,0,0
-350,-720,0,0,0,0,0,0,0,0,0,-1,874,1744,0,0
-343,-720,0,0,0,0,0,0,0,0,0,-1,881,1744,0,0
-336,-720,0,0,0,0,0,0,0,0,0,-1,888,1744,0,0
-329,-720,0,0,0,0,0,0,0,0,0,-1,895,1744,0,0
-322,-720,0,0,0,0,0,0,0,0,0,-1,902,1744,0,0
-315,-720,0,0,0,0,0,0,0,0,0,-1,909,1744,0,0
-308,-720,0,0,0,0,0,0,0,0,0,-1,916,1744,0,0
-301,-720,0,0,0,0,0,0,0,0,0,-1,923,1744,0,0
-294,-720,0,0,0,0,0,0,0,0,0,-1,930,1744,0,0
-287,-720,0,0,0,0,0,0,0,0,0,-1,937,1744,0,0
-280,-720,6.46796,22.6417,0,0,0,0,0,0,0,-1,944,1744,6.46793,-22.6417
-273,-720,8.54633,13.262,0,0,0,0,0,0,0,-1,951,1744,8.54636,-13.2619
-266,-720,7.28027,13.3165,0,0,0,0,0,0,0,-1,958,1744,7.28026,-13.3166
-259,-720,3.70563,18.6372,0,0,0,0,0,0,0,-1,965,1744,3.70564,-18.6372
-252,-720,4.00989,18.5059,0,0,0,0,0,0,0,-1,972,1744,4.00988,-18.5058
-245,-720,7.05634,33.8489,0,0,0,0,0,0,0,-1,979,1744,7.05634,-33.8489
-238,-720,5.02216,24.1455,0,0,0,0,0,0,0,-1,986,1744,5.02217,-24.1455
-231,-720,7.35455,28.3225,0,0,0,0,0,0,0,-1,993,1744,7.35453,-28.3225
-224,-720,8.8999,42.3751,0,0,0,0,0,0,0,-1,1000,1744,8.89992,-42.3751
-217,-720,10.0052,42.8075,0,0,0,0,0,0,0,-1,1007,1744,10.0052,-42.8074
-210,-720,8.74036,38.6686,0,0,0,0,0,0,0,-1,1014,1744,8.74035,-38.6686
-203,-720,7.89978,34.8447,0,0,0,0,0,0,0,-1,1021,1744,7.89975,-34.8447
-196,-720,9.24255,44.5237,0,0,0,0,0,0,0,-1,1028,1744,9.24256,-44.5236
-189,-720,9.32227,44.6272,0,0,0,0,0,0,0,-1,1035,1744,9.32232,-44.6272
-182,-720,9.14087,44.9847,0.0207264,-0.0325804,0.0213232,0.0282063,-0.0400603,0.337376,0.0396113,0.0421607,1042,1744,9.14085,-44.9848
-175,-720,9.84302,45.4242,0.018478,-0.0279151,0.0196995,0.0257142,-0.0351513,0.352027,0.0352812,0.0416562,1049,1744,9.84307,-45.4242
-168,-720,9.65442,45.7119,0.0156476,-0.0230181,0.0175454,0.0224222,-0.0297927,0.368483,0.0302462,0.0400937,1056,1744,9.65443,-45.7119
-161,-720,9.1958,46.1229,0.0123671,-0.0178313,0.0152153,0.0187037,-0.0241678,0.394615,0.0248188,0.0292056,1063,1744,9.19579,-46.123
-154,-720,9.34631,46.562,0.00905954,-0.0125356,0.0128759,0.015066,-0.0185421,0.436482,0.0194382,0.0220266,1070,1744,9.34627,-46.562
-147,-720,9.28748,46.9961,0.00607065,-0.00764582,0.0105634,0.0118069,-0.0133821,0.497477,0.0145523,0.0207116,1077,1744,9.28747,-46.9961
-140,-720,9.26709,47.4055,0.00356708,-0.00345469,0.00850054,0.00925324,-0.00914084,0.589559,0.0106199,0.0189643,1084,1744,9.26705,-47.4055
-133,-720,9.20007,47.7173,0.0015394,-0.000395111,0.00673134,0.00737263,-0.00622834,0.71404,0.00786178,0.0154389,1091,1744,9.20005,-47.7173
-126,-720,9.18042,48.0613,-0.00104876,0.00328472,0.00443004,0.00604952,-0.00381356,1.01284,0.00574302,0.0152589,1098,1744,9.1804,-48.0613
-119,-720,9.17126,48.4087,-0.00237889,0.00479106,0.00352469,0.00623356,-0.00382139,1.18234,0.00586065,0.0148833,1105,1744,9.17125,-48.4087
-112,-720,9.11987,48.7286,-0.00248615,0.00561859,0.00277012,0.00647491,-0.00334247,1.27099,0.00576344,0.013079,1112,1744,9.11982,-48.7286
-105,-720,9.09814,49.0342,-0.00247369,0.00538363,0.00252371,0.00612439,-0.00321445,1.28529,0.00547834,0.0130361,1119,1744,9.09814,-49.0341
-98,-720,9.08386,49.3486,-0.00210404,0.00472169,0.00235422,0.00545491,-0.00283725,1.26887,0.00486634,0.0105941,1126,1744,9.08382,-49.3486
-91,-720,9.04321,49.641,-0.00162207,0.0038107,0.00213203,0.00454747,-0.00235884,1.23807,0.00405355,0.00970071,1133,1744,9.04325,-49.641
-84,-720,9.02954,49.9365,-0.00122063,0.00313416,0.0018861,0.00383746,-0.00192393,1.21388,0.00338695,0.0102253,1140,1744,9.02948,-49.9365
-77,-720,9.03052,50.2524,-0.00072772,0.00259145,0.00180213,0.00338174,-0.00151801,1.15752,0.00289628,0.0122884,1147,1744,9.03052,-50.2524
-70,-720,9.01208,50.5217,-0.000395472,0.00189574,0.00151653,0.00265073,-0.00115046,1.10888,0.00225088,0.0112288,1154,1744,9.0121,-50.5217
-63,-720,8.97473,50.7518,-0.000224354,0.00115997,0.00126244,0.00190755,-0.000971927,1.03616,0.00169147,0.0109532,1161,1744,8.97475,-50.7519
-56,-720,8.98486,50.989,0.000135131,0.000730653,0.00108509,0.00155809,-0.000692308,0.919308,0.00133094,0.0132776,1168,1744,8.98486,-50.9891
-49,-720,8.97742,51.2084,0.000286496,0.000371876,0.000860899,0.00119114,-0.000532771,0.810172,0.00101921,0.0192263,1175,1744,8.97747,-51.2084
-42,-720,8.98743,51.3872,0.000560011,0.000181768,0.000787901,0.00118117,-0.000439391,0.66761,0.000967752,0.0208454,1182,1744,8.98743,-51.3872
-35,-720,8.99524,51.5817,0.000931517,0.00013958,0.000820708,0.00144679,-0.000375688,0.560635,0.00111113,0.0188284,1189,1744,8.99529,-51.5816
-28,-720,8.97681,51.8075,0.0012188,0.000420222,0.000836911,0.00174679,-0.00010777,0.562819,0.00120206,0.0111426,1196,1744,8.97678,-51.8074
-21,-720,8.96704,51.9993,0.00159932,0.000970397,0.000963357,0.00229824,0.000271477,0.627639,0.00145016,0.00900807,1203,1744,8.96704,-51.9993
-14,-720,8.97327,52.1357,0.00212444,0.00171751,0.00117391,0.00311239,0.000729561,0.69959,0.00187954,0.0111507,1210,1744,8.97325,-52.1357
-7,-720,8.99744,52.2993,0.00266279,0.0025792,0.00137894,0.00400057,0.00124143,0.770248,0.00236448,0.0126767,1217,1744,8.99747,-52.2994
0,-720,9.01807,52.4531,0.00325586,0.00367112,0.00163177,0.00510842,0.00181856,0.84868,0.00298984,0.013301,1224,1744,9.01811,-52.4532
7,-720,9.026,52.5549,0.00373358,0.00497559,0.00180507,0.00626349,0.00244568,0.951074,0.00364504,0.0151672,1231,1744,9.02599,-52.5549
14,-720,9.04175,52.6362,0.00414504,0.00608984,0.0018454,0.00720336,0.00303153,1.02788,0.0041762,0.0140986,1238,1744,9.04175,-52.6362
21,-720,9.04675,52.7356,0.00437468,0.00710398,0.00172783,0.00794107,0.00353759,1.11964,0.00459385,0.0113504,1245,1744,9.0468,-52.7356
28,-720,9.05322,52.8314,0.00444801,0.00791326,0.00148393,0.00846187,0.0038994,1.21668,0.00489046,0.0112184,1252,1744,9.05323,-52.8314
35,-720,9.07666,52.8983,0.00435789,0.00837917,0.00119714,0.00870858,0.00402848,1.30228,0.00503259,0.0106908,1259,1744,9.0767,-52.8983
42,-720,9.08069,52.9402,0.00405313,0.00852179,0.000829104,0.00867066,0.00390426,1.39313,0.00501425,0.011048,1266,1744,9.08064,-52.9402
49,-720,9.10144,52.952,0.00365373,0.00806343,0.000480313,0.00811514,0.00360202,1.46355,0.00469511,0.0122012,1273,1744,9.1015,-52.952
56,-720,9.12317,52.9789,0.00303481,0.00725356,5.8902e-05,0.00725439,0.00303399,1.55684,0.00420695,0.0115119,1280,1744,9.1232,-52.9789
63,-720,9.14844,52.9899,0.00224811,0.00630857,-0.000467775,0.00636176,0.00219491,-1.45757,0.00373132,0.0130875,1287,1744,9.14848,-52.9899
70,-720,9.17798,52.9817,0.00142168,0.00511259,-0.000895822,0.00531853,0.00121575,-1.34484,0.00321792,0.0127695,1294,1744,9.17794,-52.9817
77,-720,9.18604,52.9735,0.000923425,0.00374391,-0.00104212,0.00408718,0.000580156,-1.2526,0.00255346,0.0146787,1301,1744,9.18601,-52.9736
84,-720,9.19946,52.9203,0.00036324,0.00238916,-0.00122093,0.00296262,-0.000210228,-1.13168,0.00204876,0.0148575,1308,1744,9.19946,-52.9203
91,-720,9.20227,52.8794,-0.000137881,0.00132795,-0.00126359,0.00205579,-0.000865723,-1.0482,0.00173276,0.0144035,1315,1744,9.20225,-52.8793
98,-720,9.18213,52.8409,-0.000451164,0.000465493,-0.00117435,0.00126778,-0.00125346,-0.971449,0.00145565,0.0131013,1322,1744,9.18219,-52.8409
105,-720,9.22546,52.7708,-0.000570453,-0.000216754,-0.00103296,0.000654381,-0.00144159,-0.87018,0.00123823,0.0119256,1329,1744,9.2255,-52.7707
112,-720,9.26099,52.6885,-0.000522061,-0.000893276,-0.000840468,0.00015305,-0.00156839,-0.676723,0.00110016,0.0114866,1336,1744,9.26096,-52.6884
119,-720,9.25781,52.605,-0.000497634,-0.00118538,-0.000660674,-9.66995e-05,-0.00158632,-0.545446,0.00102683,0.0116182,1343,1744,9.25786,-52.605
126,-720,9.27185,52.4921,-0.000392457,-0.00137007,-0.000465652,-0.00020616,-0.00155637,-0.380571,0.000976142,0.0113624,1350,1744,9.27183,-52.4921
133,-720,9.29529,52.3617,-0.00026703,-0.00123881,-0.000304155,-0.000179683,-0.00132615,-0.279651,0.000830711,0.0134139,1357,1744,9.29534,-52.3617
140,-720,9.32581,52.2063,-0.000100588,-0.000785108,-0.000178194,-5.69785e-05,-0.000828718,-0.240011,0.000534499,0.0187953,1364,1744,9.32586,-52.2063
147,-720,9.30615,52.0093,5.62385e-05,-0.000310235,-6.58317e-05,6.77054e-05,-0.000321701,-0.172455,0.000240238,0.0191008,1371,1744,9.30615,-52.0093
154,-720,9.28967,51.8364,0.000200319,0.000148959,-6.4591e-06,0.000201119,0.000148159,-0.123205,0.000120374,0.0136442,1378,1744,9.28962,-51.8364
161,-720,9.32178,51.6555,0.000296593,0.00055975,2.88728e-05,0.000562881,0.000293463,1.46279,0.000325078,0.0106081,1385,1744,9.32182,-51.6555
168,-720,9.32031,51.453,0.000331602,0.000716425,2.56856e-05,0.000718132,0.000329895,1.50444,0.00041507,0.0106271,1392,1744,9.32031,-51.453
175,-720,9.30933,51.2406,0.000281044,0.000763585,-6.18816e-05,0.000771395,0.000273235,-1.44526,0.000451632,0.0160729,1399,1744,9.30936,-51.2407
182,-720,9.29919,51.0278,0.000125226,0.000902963,-0.00023086,0.000966328,6.18611e-05,-1.30292,0.00062462,0.0157849,1406,1744,9.29923,-51.0278
189,-720,9.30933,50.8049,-1.46963e-05,0.00101965,-0.000463959,0.00119726,-0.000192308,-1.20519,0.000869396,0.0137638,1413,1744,9.30931,-50.805
196,-720,9.31909,50.55,-0.000252096,0.00107826,-0.000817917,0.00146734,-0.000641172,-1.12679,0.00124811,0.0155416,1420,1744,9.31904,-50.5501
203,-720,9.28735,50.2822,-0.000585665,0.0012583,-0.00109213,0.00176558,-0.00109295,-1.13596,0.00166553,0.0181547,1427,1744,9.2873,-50.2823
210,-720,9.25781,50.0327,-0.000608174,0.00147352,-0.00128727,0.0020881,-0.00122275,-1.12537,0.00193316,0.014796,1434,1744,9.25781,-50.0327
217,-720,9.26404,49.7412,-0.000571369,0.00131955,-0.00149948,0.00214675,-0.00139858,-1.06668,0.00206203,0.0128931,1441,1744,9.26401,-49.7412
224,-720,9.25623,49.4451,-0.00077554,0.00116752,-0.00168903,0.00214451,-0.00175252,-1.04639,0.00225374,0.00934331,1448,1744,9.25627,-49.4451
231,-720,9.24414,49.1483,-0.00123341,0.000937761,-0.00173245,0.00189665,-0.0021923,-1.06528,0.00236282,0.0101154,1455,1744,9.24418,-49.1483
238,-720,9.21851,48.8154,-0.00145659,0.00066999,-0.00181056,0.00170639,-0.00249299,-1.0509,0.00243865,0.00942231,1462,1744,9.21847,-48.8154
245,-720,9.19788,48.4988,-0.00166119,0.000528617,-0.00201123,0.00172366,-0.00285623,-1.03466,0.00267102,0.0123045,1469,1744,9.19782,-48.4988
252,-720,9.18982,48.1676,-0.00203211,0.000338293,-0.00215023,0.00160832,-0.00330215,-1.03728,0.00289074,0.0121119,1476,1744,9.18983,-48.1676
259,-720,9.16113,47.8329,-0.00234755,0.000172428,-0.0021927,0.00144137,-0.00361649,-1.04618,0.00300882,0.0103482,1483,1744,9.16119,-47.8328
266,-720,9.11511,47.4988,-0.00262082,-0.000125784,-0.00238473,0.00131803,-0.00406463,-1.02639,0.00323973,0.00827683,1490,1744,9.11506,-47.4988
273,-720,9.06995,47.1378,-0.00287177,0.000448131,-0.0029817,0.0022008,-0.00462443,-1.03939,0.00402251,0.012805,1497,1744,9.06999,-47.1378
280,-720,9.00073,46.7542,-0.00311389,0.000885447,-0.00350182,0.00291832,-0.00514677,-1.04482,0.00471526,0.0161452,1504,1744,9.00072,-46.7541
287,-720,9.005,46.3512,-0.00327508,0.00192423,-0.00411752,0.00419409,-0.00554494,-1.06698,0.00564083,0.026924,1511,1744,9.00497,-46.3513
294,-720,9.07251,45.8597,-0.00324209,0.00366827,-0.00449771,0.00588474,-0.00545857,-1.11292,0.0065506,0.0376431,1518,1744,9.07248,-45.8597
301,-720,9.11462,45.2405,0,0,0,0,0,0,0,-1,1525,1744,9.11461,-45.2405
308,-720,8.83044,45.2322,0,0,0,0,0,0,0,-1,1532,1744,8.83048,-45.2322
315,-720,8.95239,45.0541,0,0,0,0,0,0,0,-1,1539,1744,8.95243,-45.0541
322,-720,8.98181,43.5223,0,0,0,0,0,0,0,-1,1546,1744,8.98176,-43.5223
329,-720,9.15906,34.7668,0,0,0,0,0,0,0,-1,1553,1744,9.1591,-34.7669
336,-720,6.14148,26.5682,0,0,0,0,0,0,0,-1,1560,1744,6.14151,-26.5683
343,-720,6.78552,21.3625,0,0,0,0,0,0,0,-1,1567,1744,6.78551,-21.3625
350,-720,4.0741,11.1836,0,0,0,0,0,0,0,-1,1574,1744,4.07412,-11.1836
357,-720,6.90833,21.4504,0,0,0,0,0,0,0,-1,1581,1744,6.90827,-21.4505
364,-720,5.83777,24.1599,0,0,0,0,0,0,0,-1,1588,1744,5.83773,-24.1599
371,-720,5.46997,23.6176,0,0,0,0,0,0,0,-1,1595,1744,5.47001,-23.6176
378,-720,3.88257,25.5404,0,0,0,0,0,0,0,-1,1602,1744,3.88262,-25.5404
385,-720,4.672,37.3854,0,0,0,0,0,0,0,-1,1609,1744,4.67202,-37.3854
392,-720,4.89319,36.2684,0,0,0,0,0,0,0,-1,1616,1744,4.89323,-36.2684
399,-720,2.37317,24.7166,0,0,0,0,0,0,0,-1,1623,1744,2.37317,-24.7166
406,-720,0,0,0,0,0,0,0,0,0,-1,1630,1744,0,0
413,-720,0,0,0,0,0,0,0,0,0,-1,1637,1744,0,0
420,-720,0,0,0,0,0,0,0,0,0,-1,1644,1744,0,0
427,-720,0,0,0,0,0,0,0,0,0,-1,1651,1744,0,0
434,-720,0,0,0,0,0,0,0,0,0,-1,1658,1744,0,0
441,-720,0,0,0,0,0,0,0,0,0,-1,1665,1744,0,0
448,-720,0,0,0,0,0,0,0,0,0,-1,1672,1744,0,0
455,-720,0,0,0,0,0,0,0,0,0,-1,1679,1744,0,0
462,-720,0,0,0,0,0,0,0,0,0,-1,1686,1744,0,0
469,-720,0,0,0,0,0,0,0,0,0,-1,1693,1744,0,0
476,-720,0,0,0,0,0,0,0,0,0,-1,1700,1744,0,0
483,-720,0,0,0,0,0,0,0,0,0,-1,1707,1744,0,0
490,-720,0,0,0,0,0,0,0,0,0,-1,1714,1744,0,0
497,-720,0,0,0,0,0,0,0,0,0,-1,1721,1744,0,0
504,-720,0,0,0,0,0,0,0,0,0,-1,1728,1744,0,0
511,-720,0,0,0,0,0,0,0,0,0,-1,1735,1744,0,0
518,-720,0,0,0,0,0,0,0,0,0,-1,1742,1744,0,0
525,-720,0,0,0,0,0,0,0,0,0,-1,1749,1744,0,0
532,-720,0,0,0,0,0,0,0,0,0,-1,1756,1744,0,0
539,-720,0,0,0,0,0,0,0,0,0,-1,1763,1744,0,0
546,-720,0,0,0,0,0,0,0,0,0,-1,1770,1744,0,0
553,-720,0,0,0,0,0,0,0,0,0,-1,1777,1744,0,0
560,-720,0,0,0,0,0,0,0,0,0,-1,1784,1744,0,0
567,-720,0,0,0,0,0,0,0,0,0,-1,1791,1744,0,0
574,-720,0,0,0,0,0,0,0,0,0,-1,1798,1744,0,0
581,-720,0,0,0,0,0,0,0,0,0,-1,1805,1744,0,0
588,-720,0,0,0,0,0,0,0,0,0,-1,1812,1744,0,0
595,-720,0,0,0,0,0,0,0,0,0,-1,1819,1744,0,0
602,-720,0,0,0,0,0,0,0,0,0,-1,1826,1744,0,0
609,-720,0,0,0,0,0,0,0,0,0,-1,1833,1744,0,0
616,-720,0,0,0,0,0,0,0,0,0,-1,1840,1744,0,0
623,-720,0,0,0,0,0,0,0,0,0,-1,1847,1744,0,0
630,-720,0,0,0,0,0,0,0,0,0,-1,1854,1744,0,0
637,-720,0,0,0,0,0,0,0,0,0,-1,1861,1744,0,0
644,-720,0,0,0,0,0,0,0,0,0,-1,1868,1744,0,0
651,-720,0,0,0,0,0,0,0,0,0,-1,1875,1744,0,0
658,-720,0,0,0,0,0,0,0,0,0,-1,1882,1744,0,0
665,-720,0,0,0,0,0,0,0,0,0,-1,1889,1744,0,0
672,-720,0,0,0,0,0,0,0,0,0,-1,1896,1744,0,0
679,-720,0,0,0,0,0,0,0,0,0,-1,1903,1744,0,0
686,-720,0,0,0,0,0,0,0,0,0,-1,1910,1744,0,0
693,-720,0,0,0,0,0,0,0,0,0,-1,1917,1744,0,0
700,-720,0,0,0,0,0,0,0,0,0,-1,1924,1744,0,0
707,-720,0,0,0,0,0,0,0,0,0,-1,1931,1744,0,0
714,-720,0,0,0,0,0,0,0,0,0,-1,1938,1744,0,0
721,-720,0,0,0,0,0,0,0,0,0,-1,1945,1744,0,0
728,-720,0,0,0,0,0,0,0,0,0,-1,1952,1744,0,0
735,-720,0,0,0,0,0,0,0,0,0,-1,1959,1744,0,0
742,-720,0,0,0,0,0,0,0,0,0,-1,1966,1744,0,0
749,-720,0,0,0,0,0,0,0,0,0,-1,1973,1744,0,0
756,-720,0,0,0,0,0,0,0,0,0,-1,1980,1744,0,0
763,-720,0,0,0,0,0,0,0,0,0,-1,1987,1744,0,0
770,-720,0,0,0,0,0,0,0,0,0,-1,1994,1744,0,0
777,-720,0,0,0,0,0,0,0,0,0,-1,2001,1744,0,0
784,-720,0,0,0,0,0,0,0,0,0,-1,2008,1744,0,0
791,-720,0,0,0,0,0,0,0,0,0,-1,2015,1744,0,0
798,-720,0,0,0,0,0,0,0,0,0,-1,2022,1744,0,0
805,-720,0,0,0,0,0,0,0,0,0,-1,2029,1744,0,0
812,-720,0,0,0,0,0,0,0,0,0,-1,2036,1744,0,0
-700,-727,0,0,0,0,0,0,0,0,0,-1,524,1751,0,0
-693,-727,0,0,0,0,0,0,0,0,0,-1,531,1751,0,0
-686,-727,0,0,0,0,0,0,0,0,0,-1,538,1751,0,0
-679,-727,0,0,0,0,0,0,0,0,0,-1,545,1751,0,0
-672,-727,0,0,0,0,0,0,0,0,0,-1,552,1751,0,0
-665,-727,0,0,0,0,0,0,0,0,0,-1,559,1751,0,0
-658,-727,0,0,0,0,0,0,0,0,0,-1,566,1751,0,0
-651,-727,0,0,0,0,0,0,0,0,0,-1,573,1751,0,0
-644,-727,0,0,0,0,0,0,0,0,0,-1,580,1751,0,0
-637,-727,0,0,0,0,0,0,0,0,0,-1,587,1751,0,0
-630,-727,0,0,0,0,0,0,0,0,0,-1,594,1751,0,0
-623,-727,0,0,0,0,0,0,0,0,0,-1,601,1751,0,0
-616,-727,0,0,0,0,0,0,0,0,0,-1,608,1751,0,0
-609,-727,0,0,0,0,0,0,0,0,0,-1,615,1751,0,0
-602,-727,0,0,0,0,0,0,0,0,0,-1,622,1751,0,0
-595,-727,0,0,0,0,0,0,0,0,0,-1,629,1751,0,0
-588,-727,0,0,0,0,0,0,0,0,0,-1,636,1751,0,0
-581,-727,0,0,0,0,0,0,0,0,0,-1,643,1751,0,0
-574,-727,0,0,0,0,0,0,0,0,0,-1,650,1751,0,0
-567,-727,0,0,0,0,0,0,0,0,0,-1,657,1751,0,0
-560,-727,0,0,0,0,0,0,0,0,0,-1,664,1751,0,0
-553,-727,0,0,0,0,0,0,0,0,0,-1,671,1751,0,0
-546,-727,0,0,0,0,0,0,0,0,0,-1,678,1751,0,0
-539,-727,0,0,0,0,0,0,0,0,0,-1,685,1751,0,0
-532,-727,0,0,0,0,0,0,0,0,0,-1,692,1751,0,0
-525,-727,0,0,0,0,0,0,0,0,0,-1,699,1751,0,0
-518,-727,0,0,0,0,0,0,0,0,0,-1,706,1751,0,0
-511,-727,0,0,0,0,0,0,0,0,0,-1,713,1751,0,0
-504,-727,0,0,0,0,0,0,0,0,0,-1,720,1751,0,0
-497,-727,0,0,0,0,0,0,0,0,0,-1,727,1751,0,0
-490,-727,0,0,0,0,0,0,0,0,0,-1,734,1751,0,0
-483,-727,0,0,0,0,0,0,0,0,0,-1,741,1751,0,0
-476,-727,0,0,0,0,0,0,0,0,0,-1,748,1751,0,0
-469,-727,0,0,0,0,0,0,0,0,0,-1,755,1751,0,0
-462,-727,0,0,0,0,0,0,0,0,0,-1,762,1751,0,0
-455,-727,0,0,0,0,0,0,0,0,0,-1,769,1751,0,0
-448,-727,0,0,0,0,0,0,0,0,0,-1,776,1751,0,0
-441,-727,0,0,0,0,0,0,0,0,0,-1,783,1751,0,0
-434,-727,0,0,0,0,0,0,0,0,0,-1,790,1751,0,0
-427,-727,0,0,0,0,0,0,0,0,0,-1,797,1751,0,0
-420,-727,0,0,0,0,0,0,0,0,0,-1,804,1751,0,0
-413,-727,0,0,0,0,0,0,0,0,0,-1,811,1751,0,0
-406,-727,0,0,0,0,0,0,0,0,0,-1,818,1751,0,0
-399,-727,0,0,0,0,0,0,0,0,0,-1,825,1751,0,0
-392,-727,0,0,0,0,0,0,0,0,0,-1,832,1751,0,0
-385,-727,0,0,0,0,0,0,0,0,0,-1,839,1751,0,0
-378,-727,0,0,0,0,0,0,0,0,0,-1,846,1751,0,0
-371,-727,0,0,0,0,0,0,0,0,0,-1,853,1751,0,0
-364,-727,0,0,0,0,0,0,0,0,0,-1,860,1751,0,0
-357,-727,0,0,0,0,0,0,0,0,0,-1,867,1751,0,0
-350,-727,0,0,0,0,0,0,0,0,0,-1,874,1751,0,0
-343,-727,0,0,0,0,0,0,0,0,0,-1,881,1751,0,0
-336,-727,0,0,0,0,0,0,0,0,0,-1,888,1751,0,0
-329,-727,0,0,0,0,0,0,0,0,0,-1,895,1751,0,0
-322,-727,0,0,0,0,0,0,0,0,0,-1,902,1751,0,0
-315,-727,0,0,0,0,0,0,0,0,0,-1,909,1751,0,0
-308,-727,0,0,0,0,0,0,0,0,0,-1,916,1751,0,0
-301,-727,0,0,0,0,0,0,0,0,0,-1,923,1751,0,0
-294,-727,0,0,0,0,0,0,0,0,0,-1,930,1751,0,0
-287,-727,0,0,0,0,0,0,0,0,0,-1,937,1751,0,0
-280,-727,0,0,0,0,0,0,0,0,0,-1,944,1751,0,0
-273,-727,0,0,0,0,0,0,0,0,0,-1,951,1751,0,0
-266,-727,4.24805,7.61145,0,0,0,0,0,0,0,-1,958,1751,4.24802,-7.6115
-259,-727,3.65228,5.4082,0,0,0,0,0,0,0,-1,965,1751,3.65229,-5.40818
-252,-727,5.8797,32.9292,0,0,0,0,0,0,0,-1,972,1751,5.87972,-32.9292
-245,-727,6.59198,32.2588,0,0,0,0,0,0,0,-1,979,1751,6.59195,-32.2587
-238,-727,6.6189,30.4597,0,0,0,0,0,0,0,-1,986,1751,6.61889,-30.4598
-231,-727,6.70105,28.9473,0,0,0,0,0,0,0,-1,993,1751,6.70103,-28.9472
-224,-727,7.0614,27.79,0,0,0,0,0,0,0,-1,1000,1751,7.06139,-27.79
-217,-727,9.07013,38.8207,0,0,0,0,0,0,0,-1,1007,1751,9.07015,-38.8207
-210,-727,5.0921,32.4524,0,0,0,0,0,0,0,-1,1014,1751,5.09209,-32.4523
-203,-727,9.05786,39.0233,0,0,0,0,0,0,0,-1,1021,1751,9.05789,-39.0233
-196,-727,9.35156,43.2854,0,0,0,0,0,0,0,-1,1028,1751,9.35156,-43.2854
-189,-727,6.93921,46.9668,0,0,0,0,0,0,0,-1,1035,1751,6.93924,-46.9668
-182,-727,7.5708,46.7576,0.0322878,-0.0483605,0.0303101,0.0424091,-0.0584818,0.322281,0.0584952,0.0461425,1042,1751,7.57074,-46.7576
-175,-727,8.30457,46.5229,0.028191,-0.0408296,0.0275584,0.0378444,-0.0504829,0.33693,0.0511695,0.0459792,1049,1751,8.30451,-46.523
-168,-727,8.7832,46.3794,0.023428,-0.0331044,0.0241591,0.0323457,-0.0420221,0.353608,0.0430572,0.0471453,1056,1751,8.78319,-46.3794
-161,-727,9.2323,46.3561,0.0183098,-0.0252153,0.0206808,0.026569,-0.0334745,0.379958,0.0347424,0.0468334,1063,1751,9.23228,-46.3561
-154,-727,9.70837,46.5515,0,0,0,0,0,0,0,-1,1070,1751,9.70839,-46.5515
-147,-727,9.60864,46.6833,0.00874152,-0.0104175,0.0140427,0.016161,-0.017837,0.486069,0.0196367,0.0451384,1077,1751,9.60862,-46.6833
-140,-727,9.50183,47.1603,0.00499633,-0.00452687,0.0112412,0.0124428,-0.0119734,0.585063,0.0140975,0.0304234,1084,1751,9.50177,-47.1603
-133,-727,9.56055,47.5959,0.00200312,-0.000222336,0.00889024,0.00984999,-0.00806921,0.723141,0.0103627,0.0241387,1091,1751,9.56052,-47.596
-126,-727,9.45825,48.0002,-0.00161675,0.0048051,0.00589334,0.00830547,-0.00511712,1.03483,0.00782207,0.0173577,1098,1751,9.45827,-48.0003
-119,-727,9.43823,48.418,-0.00353608,0.00683584,0.00473385,0.00867153,-0.00537176,1.20087,0.00818217,0.0128484,1105,1751,9.43823,-48.418
-112,-727,9.41345,48.6934,-0.00383514,0.00803172,0.00379031,0.00913903,-0.00494245,1.28656,0.00824942,0.0141135,1112,1751,9.41348,-48.6933
-105,-727,9.34717,49.0114,-0.00396685,0.00777281,0.00356565,0.00877093,-0.00496497,1.29786,0.00803126,0.0150821,1119,1751,9.34713,-49.0113
-98,-727,9.34778,49.3517,-0.00357282,0.00692855,0.00339792,0.00793211,-0.00457638,1.28362,0.0073079,0.0123272,1126,1751,9.34779,-49.3516
-91,-727,9.33838,49.6304,-0.00302377,0.00572765,0.00313427,0.00673436,-0.00403048,1.26001,0.0062801,0.0115793,1133,1751,9.33841,-49.6304
-84,-727,9.31238,49.9137,-0.00257399,0.00475007,0.00282645,0.00571398,-0.0035379,1.24213,0.0053906,0.0118989,1140,1751,9.31242,-49.9137
-77,-727,9.28699,50.2175,-0.00195975,0.00393929,0.00275713,0.00502728,-0.00304774,1.19495,0.00470858,0.0131316,1147,1751,9.28698,-50.2175
-70,-727,9.26428,50.5188,-0.00160697,0.00293556,0.00237685,0.00395186,-0.00262326,1.16674,0.00382189,0.0144257,1154,1751,9.26428,-50.5189
-63,-727,9.23425,50.7751,-0.00159997,0.00192531,0.00204363,0.00286144,-0.00253609,1.14125,0.00311815,0.0113545,1161,1751,9.2343,-50.7752
-56,-727,9.20959,51.0009,-0.00148182,0.00137329,0.0016341,0.00211557,-0.0022241,1.14442,0.00250577,0.0115698,1168,1751,9.20959,-51.0008
-49,-727,9.19775,51.2239,-0.0013934,0.000863874,0.00129171,0.00145056,-0.00198008,1.14446,0.00198853,0.0135712,1175,1751,9.19773,-51.2239
-42,-727,9.19006,51.4187,-0.00107556,0.000581942,0.00126724,0.00126736,-0.00176098,1.07498,0.00175614,0.016321,1182,1751,9.19002,-51.4187
-35,-727,9.18323,51.5952,-0.000707057,-8.98079e-05,0.00120484,0.000845312,-0.00164218,0.910779,0.00146051,0.0154324,1189,1751,9.18328,-51.5953
-28,-727,9.14246,51.795,-0.000386099,-0.000551074,0.00109227,0.000626795,-0.00156397,0.74771,0.00130284,0.00939338,1196,1751,9.14246,-51.795
-21,-727,9.1377,51.9792,-4.90143e-05,-0.000705153,0.000979165,0.00065558,-0.00140975,0.623751,0.00121863,0.0105955,1203,1751,9.13773,-51.9793
-14,-727,9.13611,52.1205,0.000315346,-0.000601728,0.000910196,0.000875981,-0.00116236,0.552065,0.0011807,0.0119609,1210,1751,9.13607,-52.1205
-7,-727,9.14099,52.2867,0.000626552,-0.000338643,0.000826947,0.00110142,-0.000813512,0.521265,0.00110974,0.0147156,1217,1751,9.14101,-52.2868
0,-727,9.13611,52.4489,0.00115713,0.000231959,0.000639198,0.00148357,-9.44792e-05,0.472171,0.001022,0.0138602,1224,1751,9.13606,-52.4489
7,-727,9.13794,52.5527,0.00163081,0.00120374,0.000381566,0.00185453,0.000980022,0.530296,0.00107129,0.0135338,1231,1751,9.13796,-52.5528
14,-727,9.14478,52.6421,0.00197826,0.00220772,7.93063e-05,0.00223247,0.00195352,1.26839,0.00140459,0.0139737,1238,1751,9.14474,-52.642
21,-727,9.13171,52.7502,0.00225502,0.0032061,-0.000301383,0.00329356,0.00216756,-1.28836,0.00193297,0.0121579,1245,1751,9.13167,-52.7502
28,-727,9.1416,52.8223,0.00246071,0.00415526,-0.000689496,0.00440036,0.00221561,-1.22925,0.00254057,0.0114184,1252,1751,9.14155,-52.8223
35,-727,9.16992,52.8872,0.00257251,0.00487252,-0.00104534,0.00527662,0.00216841,-1.20192,0.00306252,0.0120179,1259,1751,9.16993,-52.8872
42,-727,9.13745,52.9269,0.00253728,0.00543119,-0.00140799,0.00600317,0.00196529,-1.18492,0.00353412,0.0119576,1266,1751,9.13751,-52.9269
49,-727,9.11328,52.9515,0.00235218,0.0055568,-0.0017008,0.00629118,0.0016178,-1.16319,0.00377232,0.0111022,1273,1751,9.11323,-52.9515
56,-727,9.11316,53.0048,0.00211802,0.00546542,-0.00191919,0.0063382,0.00124524,-1.14399,0.00387762,0.00981879,1280,1751,9.11319,-53.0048
63,-727,9.15271,53.0103,0.00187247,0.00527198,-0.00211184,0.00628314,0.000861315,-1.12425,0.00393322,0.0114374,1287,1751,9.15275,-53.0103
70,-727,9.18103,52.9817,0.00165621,0.00487306,-0.0021644,0.00596123,0.000568033,-1.10494,0.00379899,0.0133151,1294,1751,9.18101,-52.9817
77,-727,9.1709,52.9672,0.00144491,0.00414297,-0.00210411,0.00529337,0.000294512,-1.07046,0.00343496,0.0159259,1301,1751,9.17093,-52.9671
84,-727,9.17151,52.8922,0.00119055,0.00337222,-0.00199977,0.00455932,3.44776e-06,-1.03508,0.0030384,0.0166182,1308,1751,9.17156,-52.8922
91,-727,9.15698,52.8188,0.000991628,0.0027449,-0.00177834,0.00385093,-0.000114409,-1.01439,0.00260626,0.0178729,1315,1751,9.15696,-52.8188
98,-727,9.13623,52.814,0.00091252,0.00208946,-0.00150251,0.00311463,-0.000112649,-0.972045,0.00211497,0.0149199,1322,1751,9.13629,-52.8139
105,-727,9.15833,52.739,0.00074423,0.00155572,-0.00112878,0.00234947,-4.95177e-05,-0.957934,0.00158308,0.0131859,1329,1751,9.15831,-52.739
112,-727,9.17664,52.6658,0.000705272,0.000910192,-0.000772231,0.00158673,2.87331e-05,-0.851353,0.00104837,0.0114036,1336,1751,9.17667,-52.6657
119,-727,9.17334,52.5823,0.000706488,0.000469997,-0.000519699,0.00112122,5.52611e-05,-0.673539,0.00072976,0.00952163,1343,1751,9.17336,-52.5822
126,-727,9.17896,52.4552,0.000690252,0.000202842,-0.000261785,0.000804211,8.8883e-05,-0.410575,0.000509106,0.0111572,1350,1751,9.17898,-52.4552
133,-727,9.18372,52.3452,0.000600067,0.000162789,-8.6193e-05,0.000616443,0.000146413,-0.187759,0.000371892,0.0165332,1357,1751,9.18368,-52.3452
140,-727,9.20203,52.2228,0.000452873,0.000382043,4.87751e-05,0.000477734,0.000357182,0.47139,0.000286877,0.0220821,1364,1751,9.20207,-52.2227
147,-727,9.17578,52.0116,0.000279449,0.000576546,0.000171418,0.000654825,0.00020117,1.14242,0.000387318,0.0176942,1371,1751,9.17576,-52.0116
154,-727,9.15735,51.8046,6.26875e-05,0.000759312,0.000179226,0.000802718,1.92815e-05,1.33318,0.000528835,0.0121391,1378,1751,9.15735,-51.8045
161,-727,9.15552,51.6484,-0.000130359,0.000891545,0.000113657,0.000904034,-0.000142847,1.46136,0.000655514,0.010205,1385,1751,9.15552,-51.6484
168,-727,9.11328,51.4727,-0.000413161,0.00073769,1.784e-05,0.000737967,-0.000413437,1.5553,0.000673508,0.0121641,1392,1751,9.11325,-51.4726
175,-727,9.11157,51.2606,-0.000805559,0.000630767,-0.000119881,0.000640704,-0.000815496,-1.4881,0.000842754,0.0171049,1399,1751,9.11161,-51.2606
182,-727,9.12573,51.043,-0.000986844,0.000724908,-0.000403694,0.000815336,-0.00107727,-1.35043,0.00109618,0.0192058,1406,1751,9.12573,-51.0429
189,-727,9.07397,50.7891,-0.00112746,0.000855729,-0.00077363,0.00112182,-0.00139355,-1.23952,0.00145507,0.0126052,1413,1751,9.07399,-50.789
196,-727,9.06128,50.5438,-0.00153057,0.000933002,-0.00136909,0.00154288,-0.00214044,-1.15173,0.00213587,0.0143416,1420,1751,9.06127,-50.5438
203,-727,9.0249,50.2797,-0.0020572,0.00130787,-0.00177873,0.00207377,-0.00282309,-1.1642,0.00283822,0.0183599,1427,1751,9.02484,-50.2797
210,-727,8.99658,50.0308,-0.00184604,0.00173057,-0.00201026,0.00263284,-0.00274831,-1.14891,0.00310704,0.0178597,1434,1751,8.9966,-50.0308
217,-727,8.98279,49.7554,-0.00152077,0.00155026,-0.00223194,0.00272387,-0.00269438,-1.0867,0.00312824,0.0124496,1441,1751,8.98276,-49.7554
224,-727,8.96094,49.4335,-0.00164214,0.0013314,-0.00240874,0.00267527,-0.00298601,-1.0619,0.00327018,0.0126655,1448,1751,8.96096,-49.4335
231,-727,8.94446,49.126,-0.00214972,0.001029,-0.00239012,0.00230996,-0.00343068,-1.07881,0.00333535,0.0108286,1455,1751,8.94449,-49.126
238,-727,8.93726,48.7711,-0.00231637,0.000667908,-0.00243938,0.00203532,-0.00368378,-1.05988,0.00334734,0.0127155,1462,1751,8.93724,-48.7711
245,-727,8.93347,48.4703,-0.00245006,0.000466873,-0.00265075,0.0020339,-0.00401708,-1.0369,0.00355553,0.0137598,1469,1751,8.93342,-48.4703
252,-727,8.87976,48.1564,-0.00282265,0.00020309,-0.00279838,0.00187136,-0.00449092,-1.03321,0.00377563,0.0128794,1476,1751,8.87978,-48.1563
259,-727,8.84058,47.813,-0.0031627,-2.27558e-05,-0.00282837,0.00164216,-0.00482761,-1.03877,0.00388331,0.0144006,1483,1751,8.84063,-47.813
266,-727,8.84119,47.5238,-0.00345792,-0.000384112,-0.00302716,0.00147395,-0.00531598,-1.02029,0.00412406,0.0191152,1490,1751,8.84121,-47.5238
273,-727,8.81201,47.1785,-0.00372369,0.000279667,-0.00373729,0.00251757,-0.00596159,-1.03126,0.00502825,0.0324644,1497,1751,8.81199,-47.1785
280,-727,8.5343,46.7908,-0.00396831,0.000833279,-0.00437938,0.00342676,-0.00656179,-1.03613,0.00586081,0.0490993,1504,1751,8.53432,-46.7907
287,-727,8.2915,46.4135,0,0,0,0,0,0,0,-1,1511,1751,8.29147,-46.4134
294,-727,8.76965,45.6486,0,0,0,0,0,0,0,-1,1518,1751,8.76966,-45.6485
301,-727,8.65515,45.0259,0,0,0,0,0,0,0,-1,1525,1751,8.65517,-45.0258
308,-727,8.77002,44.8007,0,0,0,0,0,0,0,-1,1532,1751,8.76996,-44.8006
315,-727,8.10571,41.24,0,0,0,0,0,0,0,-1,1539,1751,8.10567,-41.2399
322,-727,8.24133,40.2081,0,0,0,0,0,0,0,-1,1546,1751,8.24136,-40.2082
329,-727,5.54419,31.0325,0,0,0,0,0,0,0,-1,1553,1751,5.54425,-31.0325
336,-727,5.55823,20.2439,0,0,0,0,0,0,0,-1,1560,1751,5.55829,-20.2438
343,-727,2.41699,8.72095,0,0,0,0,0,0,0,-1,1567,1751,2.41702,-8.72098
350,-727,3.89783,7.50195,0,0,0,0,0,0,0,-1,1574,1751,3.89782,-7.50193
357,-727,4.48462,10.2948,0,0,0,0,0,0,0,-1,1581,1751,4.48464,-10.2948
364,-727,6.96729,17.2365,0,0,0,0,0,0,0,-1,1588,1751,6.96732,-17.2365
371,-727,5.04565,23.2227,0,0,0,0,0,0,0,-1,1595,1751,5.04564,-23.2227
378,-727,4.56726,23.0574,0,0,0,0,0,0,0,-1,1602,1751,4.56727,-23.0574
385,-727,3.52307,22.6431,0,0,0,0,0,0,0,-1,1609,1751,3.52303,-22.643
392,-727,0,0,0,0,0,0,0,0,0,-1,1616,1751,0,0
399,-727,0,0,0,0,0,0,0,0,0,-1,1623,1751,0,0
406,-727,0,0,0,0,0,0,0,0,0,-1,1630,1751,0,0
413,-727,0,0,0,0,0,0,0,0,0,-1,1637,1751,0,0
420,-727,0,0,0,0,0,0,0,0,0,-1,1644,1751,0,0
427,-727,0,0,0,0,0,0,0,0,0,-1,1651,1751,0,0
434,-727,0,0,0,0,0,0,0,0,0,-1,1658,1751,0,0
441,-727,0,0,0,0,0,0,0,0,0,-1,1665,1751,0,0
448,-727,0,0,0,0,0,0,0,0,0,-1,1672,1751,0,0
455,-727,0,0,0,0,0,0,0,0,0,-1,1679,1751,0,0
462,-727,0,0,0,0,0,0,0,0,0,-1,1686,1751,0,0
469,-727,0,0,0,0,0,0,0,0,0,-1,1693,1751,0,0
476,-727,0,0,0,0,0,0,0,0,0,-1,1700,1751,0,0
483,-727,0,0,0,0,0,0,0,0,0,-1,1707,1751,0,0
490,-727,0,0,0,0,0,0,0,0,0,-1,1714,1751,0,0
497,-727,0,0,0,0,0,0,0,0,0,-1,1721,1751,0,0
504,-727,0,0,0,0,0,0,0,0,0,-1,1728,1751,0,0
511,-727,0,0,0,0,0,0,0,0,0,-1,1735,1751,0,0
518,-727,0,0,0,0,0,0,0,0,0,-1,1742,1751,0,0
525,-727,0,0,0,0,0,0,0,0,0,-1,1749,1751,0,0
532,-727,0,0,0,0,0,0,0,0,0,-1,1756,1751,0,0
539,-727,0,0,0,0,0,0,0,0,0,-1,1763,1751,0,0
546,-727,0,0,0,0,0,0,0,0,0,-1,1770,1751,0,0
553,-727,0,0,0,0,0,0,0,0,0,-1,1777,1751,0,0
560,-727,0,0,0,0,0,0,0,0,0,-1,1784,1751,0,0
567,-727,0,0,0,0,0,0,0,0,0,-1,1791,1751,0,0
574,-727,0,0,0,0,0,0,0,0,0,-1,1798,1751,0,0
581,-727,0,0,0,0,0,0,0,0,0,-1,1805,1751,0,0
588,-727,0,0,0,0,0,0,0,0,0,-1,1812,1751,0,0
595,-727,0,0,0,0,0,0,0,0,0,-1,1819,1751,0,0
602,-727,0,0,0,0,0,0,0,0,0,-1,1826,1751,0,0
609,-727,0,0,0,0,0,0,0,0,0,-1,1833,1751,0,0
616,-727,0,0,0,0,0,0,0,0,0,-1,1840,1751,0,0
623,-727,0,0,0,0,0,0,0,0,0,-1,1847,1751,0,0
630,-727,0,0,0,0,0,0,0,0,0,-1,1854,1751,0,0
637,-727,0,0,0,0,0,0,0,0,0,-1,1861,1751,0,0
644,-727,0,0,0,0,0,0,0,0,0,-1,1868,1751,0,0
651,-727,0,0,0,0,0,0,0,0,0,-1,1875,1751,0,0
658,-727,0,0,0,0,0,0,0,0,0,-1,1882,1751,0,0
665,-727,0,0,0,0,0,0,0,0,0,-1,1889,1751,0,0
672,-727,0,0,0,0,0,0,0,0,0,-1,1896,1751,0,0
679,-727,0,0,0,0,0,0,0,0,0,-1,1903,1751,0,0
686,-727,0,0,0,0,0,0,0,0,0,-1,1910,1751,0,0
693,-727,0,0,0,0,0,0,0,0,0,-1,1917,1751,0,0
700,-727,0,0,0,0,0,0,0,0,0,-1,1924,1751,0,0
707,-727,0,0,0,0,0,0,0,0,0,-1,1931,1751,0,0
714,-727,0,0,0,0,0,0,0,0,0,-1,1938,1751,0,0
721,-727,0,0,0,0,0,0,0,0,0,-1,1945,1751,0,0
728,-727,0,0,0,0,0,0,0,0,0,-1,1952,1751,0,0
735,-727,0,0,0,0,0,0,0,0,0,-1,1959,1751,0,0
742,-727,0,0,0,0,0,0,0,0,0,-1,1966,1751,0,0
749,-727,0,0,0,0,0,0,0,0,0,-1,1973,1751,0,0
756,-727,0,0,0,0,0,0,0,0,0,-1,1980,1751,0,0
763,-727,0,0,0,0,0,0,0,0,0,-1,1987,1751,0,0
770,-727,0,0,0,0,0,0,0,0,0,-1,1994,1751,0,0
777,-727,0,0,0,0,0,0,0,0,0,-1,2001,1751,0,0
784,-727,0,0,0,0,0,0,0,0,0,-1,2008,1751,0,0
791,-727,0,0,0,0,0,0,0,0,0,-1,2015,1751,0,0
798,-727,0,0,0,0,0,0,0,0,0,-1,2022,1751,0,0
805,-727,0,0,0,0,0,0,0,0,0,-1,2029,1751,0,0
812,-727,0,0,0,0,0,0,0,0,0,-1,2036,1751,0,0
-700,-734,0,0,0,0,0,0,0,0,0,-1,524,1758,0,0
-693,-734,0,0,0,0,0,0,0,0,0,-1,531,1758,0,0
-686,-734,0,0,0,0,0,0,0,0,0,-1,538,1758,0,0
-679,-734,0,0,0,0,0,0,0,0,0,-1,545,1758,0,0
-672,-734,0,0,0,0,0,0,0,0,0,-1,552,1758,0,0
-665,-734,0,0,0,0,0,0,0,0,0,-1,559,1758,0,0
-658,-734,0,0,0,0,0,0,0,0,0,-1,566,1758,0,0
-651,-734,0,0,0,0,0,0,0,0,0,-1,573,1758,0,0
-644,-734,0,0,0,0,0,0,0,0,0,-1,580,1758,0,0
-637,-734,0,0,0,0,0,0,0,0,0,-1,587,1758,0,0
-630,-734,0,0,0,0,0,0,0,0,0,-1,594,1758,0,0
-623,-734,0,0,0,0,0,0,0,0,0,-1,601,1758,0,0
-616,-734,0,0,0,0,0,0,0,0,0,-1,608,1758,0,0
-609,-734,0,0,0,0,0,0,0,0,0,-1,615,1758,0,0
-602,-734,0,0,0,0,0,0,0,0,0,-1,622,1758,0,0
-595,-734,0,0,0,0,0,0,0,0,0,-1,629,1758,0,0
-588,-734,0,0,0,0,0,0,0,0,0,-1,636,1758,0,0
-581,-734,0,0,0,0,0,0,0,0,0,-1,643,1758,0,0
-574,-734,0,0,0,0,0,0,0,0,0,-1,650,1758,0,0
-567,-734,0,0,0,0,0,0,0,0,0,-1,657,1758,0,0
-560,-734,0,0,0,0,0,0,0,0,0,-1,664,1758,0,0
-553,-734,0,0,0,0,0,0,0,0,0,-1,671,1758,0,0
-546,-734,0,0,0,0,0,0,0,0,0,-1,678,1758,0,0
-539,-734,0,0,0,0,0,0,0,0,0,-1,685,1758,0,0
-532,-734,0,0,0,0,0,0,0,0,0,-1,692,1758,0,0
-525,-734,0,0,0,0,0,0,0,0,0,-1,699,1758,0,0
-518,-734,0,0,0,0,0,0,0,0,0,-1,706,1758,0,0
-511,-734,0,0,0,0,0,0,0,0,0,-1,713,1758,0,0
-504,-734,0,0,0,0,0,0,0,0,0,-1,720,1758,0,0
-497,-734,0,0,0,0,0,0,0,0,0,-1,727,1758,0,0
-490,-734,0,0,0,0,0,0,0,0,0,-1,734,1758,0,0
-483,-734,0,0,0,0,0,0,0,0,0,-1,741,1758,0,0
-476,-734,0,0,0,0,0,0,0,0,0,-1,748,1758,0,0
-469,-734,0,0,0,0,0,0,0,0,0,-1,755,1758,0,0
-462,-734,0,0,0,0,0,0,0,0,0,-1,762,1758,0,0
-455,-734,0,0,0,0,0,0,0,0,0,-1,769,1758,0,0
-448,-734,0,0,0,0,0,0,0,0,0,-1,776,1758,0,0
-441,-734,0,0,0,0,0,0,0,0,0,-1,783,1758,0,0
-434,-734,0,0,0,0,0,0,0,0,0,-1,790,1758,0,0
-427,-734,0,0,0,0,0,0,0,0,0,-1,797,1758,0,0
-420,-734,0,0,0,0,0,0,0,0,0,-1,804,1758,0,0
-413,-734,0,0,0,0,0,0,0,0,0,-1,811,1758,0,0
-406,-734,0,0,0,0,0,0,0,0,0,-1,818,1758,0,0
-399,-734,0,0,0,0,0,0,0,0,0,-1,825,1758,0,0
-392,-734,0,0,0,0,0,0,0,0,0,-1,832,1758,0,0
-385,-734,0,0,0,0,0,0,0,0,0,-1,839,1758,0,0
-378,-734,0,0,0,0,0,0,0,0,0,-1,846,1758,0,0
-371,-734,0,0,0,0,0,0,0,0,0,-1,853,1758,0,0
-364,-734,0,0,0,0,0,0,0,0,0,-1,860,1758,0,0
-357,-734,0,0,0,0,0,0,0,0,0,-1,867,1758,0,0
-350,-734,0,0,0,0,0,0,0,0,0,-1,874,1758,0,0
-343,-734,0,0,0,0,0,0,0,0,0,-1,881,1758,0,0
-336,-734,0,0,0,0,0,0,0,0,0,-1,888,1758,0,0
-329,-734,0,0,0,0,0,0,0,0,0,-1,895,1758,0,0
-322,-734,0,0,0,0,0,0,0,0,0,-1,902,1758,0,0
-315,-734,0,0,0,0,0,0,0,0,0,-1,909,1758,0,0
-308,-734,0,0,0,0,0,0,0,0,0,-1,916,1758,0,0
-301,-734,0,0,0,0,0,0,0,0,0,-1,923,1758,0,0
-294,-734,0,0,0,0,0,0,0,0,0,-1,930,1758,0,0
-287,-734,0,0,0,0,0,0,0,0,0,-1,937,1758,0,0
-280,-734,0,0,0,0,0,0,0,0,0,-1,944,1758,0,0
-273,-734,0,0,0,0,0,0,0,0,0,-1,951,1758,0,0
-266,-734,0,0,0,0,0,0,0,0,0,-1,958,1758,0,0
-259,-734,0,0,0,0,0,0,0,0,0,-1,965,1758,0,0
-252,-734,5.73883,31.5245,0,0,0,0,0,0,0,-1,972,1758,5.73884,-31.5246
-245,-734,6.32513,30.9761,0,0,0,0,0,0,0,-1,979,1758,6.32511,-30.9761
-238,-734,6.82385,30.0449,0,0,0,0,0,0,0,-1,986,1758,6.82387,-30.0449
-231,-734,7.1958,29.1666,0,0,0,0,0,0,0,-1,993,1758,7.19578,-29.1666
-224,-734,7.36169,28.5652,0,0,0,0,0,0,0,-1,1000,1758,7.36172,-28.5651
-217,-734,7.45984,28.4386,0,0,0,0,0,0,0,-1,1007,1758,7.45986,-28.4386
-210,-734,7.45483,28.4388,0,0,0,0,0,0,0,-1,1014,1758,7.45482,-28.4388
-203,-734,7.93079,29.6151,0,0,0,0,0,0,0,-1,1021,1758,7.93076,-29.6151
-196,-734,8.56799,45.7534,0,0,0,0,0,0,0,-1,1028,1758,8.56803,-45.7534
-189,-734,9.04846,45.9619,0,0,0,0,0,0,0,-1,1035,1758,9.04847,-45.9619
-182,-734,8.24573,47.5787,0,0,0,0,0,0,0,-1,1042,1758,8.2457,-47.5788
-175,-734,9.18091,47.0735,0,0,0,0,0,0,0,-1,1049,1758,9.18086,-47.0735
-168,-734,9.08081,46.9479,0,0,0,0,0,0,0,-1,1056,1758,9.08085,-46.9478
-161,-734,9.46082,46.7725,0,0,0,0,0,0,0,-1,1063,1758,9.46082,-46.7725
-154,-734,11.3184,46.7794,0,0,0,0,0,0,0,-1,1070,1758,11.3184,-46.7794
-147,-734,10.095,46.5146,0,0,0,0,0,0,0,-1,1077,1758,10.095,-46.5147
-140,-734,9.87317,47.1051,0,0,0,0,0,0,0,-1,1084,1758,9.87321,-47.1051
-133,-734,9.93542,47.5518,0.00270463,0.000846644,0.0116498,0.0134624,-0.00991113,0.745611,0.0135465,0.0468545,1091,1758,9.93545,-47.5517
-126,-734,9.75732,47.8196,-0.00212585,0.00747844,0.0078805,0.0119047,-0.00655207,1.05904,0.0108043,0.043324,1098,1758,9.7573,-47.8196
-119,-734,9.72864,48.256,-0.00467811,0.0100527,0.00644518,0.0124745,-0.00709992,1.21136,0.0114424,0.0446152,1105,1758,9.72868,-48.256
-112,-734,9.68738,48.6158,0,0,0,0,0,0,0,-1,1112,1758,9.68738,-48.6159
-105,-734,9.5625,48.9673,0,0,0,0,0,0,0,-1,1119,1758,9.56256,-48.9673
-98,-734,9.60474,49.3528,0,0,0,0,0,0,0,-1,1126,1758,9.60473,-49.3528
-91,-734,9.64307,49.6182,0,0,0,0,0,0,0,-1,1133,1758,9.64307,-49.6181
-84,-734,9.57605,49.8828,0,0,0,0,0,0,0,-1,1140,1758,9.57611,-49.8828
-77,-734,9.53296,50.2084,0,0,0,0,0,0,0,-1,1147,1758,9.53291,-50.2084
-70,-734,9.53235,50.5276,0,0,0,0,0,0,0,-1,1154,1758,9.5323,-50.5275
-63,-734,9.39246,50.5698,-0.0027636,0.00252352,0.00298499,0.00386726,-0.00410735,1.1478,0.00460484,0.0361062,1161,1758,9.3924,-50.5699
-56,-734,9.43384,51.011,-0.0026723,0.00186988,0.00248719,0.00296687,-0.00376929,1.1554,0.00389831,0.0178762,1168,1758,9.43389,-51.011
-49,-734,9.396,51.23,-0.00272331,0.00119355,0.00198652,0.00202469,-0.00355445,1.17454,0.00326123,0.0136397,1175,1758,9.39594,-51.23
-42,-734,9.36243,51.4412,-0.00239789,0.000938911,0.00203239,0.00189999,-0.00335897,1.12908,0.00307496,0.0135075,1182,1758,9.36244,-51.4412
-35,-734,9.35022,51.6217,-0.00205178,0.000125837,0.00192274,0.00124665,-0.0031726,1.04303,0.00263098,0.0140972,1189,1758,9.35028,-51.6217
-28,-734,9.34412,51.7939,-0.00157404,-0.000784108,0.00165449,0.000521904,-0.00288005,0.902567,0.00211557,0.00967156,1196,1758,9.34407,-51.794
-21,-734,9.37952,51.9694,-0.00112005,-0.00142172,0.00139757,0.000134804,-0.00267657,0.731644,0.00183097,0.0158022,1203,1758,9.37951,-51.9694
-14,-734,9.31763,52.1676,-0.000723628,-0.00176865,0.00118115,4.5425e-05,-0.0025377,0.577151,0.00170715,0.0163689,1210,1758,9.31767,-52.1676
-7,-734,9.28687,52.3016,-0.000428956,-0.00198521,0.00097619,4.12876e-05,-0.00245545,0.448912,0.0016509,0.01668,1217,1758,9.28685,-52.3017
0,-734,9.2627,52.4215,0.000584365,-0.00188923,0.000322658,0.000625761,-0.00193062,0.127597,0.00153868,0.0164726,1224,1758,9.26275,-52.4215
7,-734,9.23682,52.546,0.00159188,-0.000992321,-0.000546205,0.00170258,-0.00110303,-0.199972,0.0016321,0.0131093,1231,1758,9.2368,-52.546
14,-734,9.21692,52.6543,0.00222536,-3.83253e-05,-0.00125729,0.00278522,-0.000598183,-0.418929,0.00208501,0.0139206,1238,1758,9.21691,-52.6543
21,-734,9.19055,52.7421,0.00279971,0.00101296,-0.00206934,0.00416028,-0.000347615,-0.581624,0.00289635,0.011813,1245,1758,9.19054,-52.7421
28,-734,9.19543,52.8295,0.00330142,0.00218831,-0.00286436,0.0056628,-0.000173063,-0.689442,0.00383419,0.0114516,1252,1758,9.19545,-52.8295
35,-734,9.1947,52.9125,0.00365949,0.0032482,-0.00356063,0.00702041,-0.000112722,-0.756552,0.0047183,0.0145305,1259,1758,9.19469,-52.9124
42,-734,9.19922,52.9331,0.00383883,0.00430363,-0.00421236,0.00829,-0.000147539,-0.812956,0.0055765,0.0122819,1266,1758,9.19926,-52.9331
49,-734,9.15942,52.9619,0.00382821,0.00505227,-0.00466283,0.00914307,-0.000262581,-0.850654,0.00618476,0.0105453,1273,1758,9.15937,-52.9619
56,-734,9.13708,53.0039,0.00361029,0.00562104,-0.00490852,0.00962608,-0.000394756,-0.886412,0.00655294,0.0100694,1280,1758,9.13704,-53.0039
63,-734,9.15576,52.9949,0.00323501,0.00604874,-0.00498595,0.00982251,-0.000538763,-0.922906,0.00673512,0.0124098,1287,1758,9.15572,-52.9949
70,-734,9.14136,52.9882,0.00285434,0.00631248,-0.00480451,0.00968958,-0.000522761,-0.958125,0.00664083,0.0125579,1294,1758,9.14136,-52.9882
77,-734,9.12878,53.0013,0.00234969,0.00616441,-0.00443304,0.00908301,-0.000568911,-0.988557,0.00625361,0.0169683,1301,1758,9.12878,-53.0013
84,-734,9.12537,52.9352,0.00193396,0.00586456,-0.00384832,0.00822037,-0.00042185,-1.02148,0.00562614,0.0162646,1308,1758,9.12534,-52.9352
91,-734,9.12744,52.8676,0.0017331,0.00552115,-0.00304399,0.00721226,4.19908e-05,-1.0637,0.00479424,0.0182411,1315,1758,9.12739,-52.8676
98,-734,9.11572,52.8464,0.0015939,0.00483949,-0.00227954,0.00601487,0.000418521,-1.09473,0.00387794,0.0142263,1322,1758,9.11572,-52.8464
105,-734,9.11255,52.7695,0.00112847,0.00435649,-0.0012989,0.00481424,0.000670719,-1.23198,0.00301092,0.0149613,1329,1758,9.11255,-52.7696
112,-734,9.10815,52.6642,0.000988017,0.00343974,-0.000374483,0.00349567,0.000932093,-1.42256,0.00209021,0.012858,1336,1758,9.10811,-52.6642
119,-734,9.08484,52.55,0.00130178,0.00286228,0.000106902,0.00286957,0.00129449,1.50272,0.00165939,0.0139572,1343,1758,9.08482,-52.55
126,-734,9.07275,52.4263,0.00159578,0.00250207,0.000588407,0.0027916,0.00130625,1.11353,0.00161284,0.0167376,1350,1758,9.07281,-52.4263
133,-734,9.04321,52.2971,0.00176687,0.00229993,0.000921044,0.00299223,0.00107457,0.926239,0.00175027,0.0157463,1357,1758,9.04326,-52.2971
140,-734,9.03931,52.1498,0.00179173,0.00235236,0.00115237,0.00325801,0.000886077,0.904706,0.00194513,0.019869,1364,1758,9.03933,-52.1497
147,-734,9.0116,51.9935,0.00170279,0.00233995,0.00134841,0.00340691,0.000635835,0.901403,0.00209179,0.0136648,1371,1758,9.01161,-51.9936
154,-734,8.98352,51.8425,0.0014138,0.00229019,0.00132908,0.00325144,0.00045254,0.944636,0.00203364,0.0103085,1378,1758,8.9835,-51.8426
161,-734,8.96643,51.6771,0.00109677,0.00220949,0.00117446,0.0029527,0.000353558,1.0066,0.00186184,0.00929928,1385,1758,8.9664,-51.6771
168,-734,8.89941,51.478,0.000573647,0.00177575,0.00102921,0.00236657,-1.71649e-05,1.04968,0.00158346,0.0134606,1392,1758,8.8994,-51.478
175,-734,8.88977,51.2643,-0.000201516,0.00146665,0.000799077,0.00178765,-0.000522517,1.18881,0.00139886,0.0167961,1399,1758,8.88983,-51.2642
182,-734,8.92371,51.0142,-0.000648591,0.00141874,0.000277375,0.00145531,-0.00068516,1.43971,0.00126218,0.0158809,1406,1758,8.92377,-51.0142
189,-734,8.8667,50.7659,-0.0015626,0.00112505,-0.000558303,0.00123641,-0.00167396,-1.37392,0.00168662,0.0117838,1413,1758,8.8667,-50.7659
196,-734,8.81213,50.5354,-0.00293469,0.000919439,-0.00187969,0.00168436,-0.00369962,-1.18432,0.0031802,0.01384,1420,1758,8.81218,-50.5354
203,-734,8.83423,50.2682,-0.00352788,0.00145945,-0.00248149,0.00248376,-0.00455219,-1.17932,0.0041203,0.0207568,1427,1758,8.8342,-50.2682
210,-734,8.81628,49.9811,-0.00305573,0.0022147,-0.00281479,0.00343532,-0.00427634,-1.16163,0.00446115,0.0361184,1434,1758,8.81623,-49.9811
217,-734,8.72363,49.7783,0,0,0,0,0,0,0,-1,1441,1758,8.72362,-49.7784
224,-734,8.68896,49.4746,0,0,0,0,0,0,0,-1,1448,1758,8.68894,-49.4747
231,-734,8.62683,49.1072,0,0,0,0,0,0,0,-1,1455,1758,8.62689,-49.1072
238,-734,8.63452,48.7007,0,0,0,0,0,0,0,-1,1462,1758,8.63455,-48.7007
245,-734,8.69141,48.3412,0,0,0,0,0,0,0,-1,1469,1758,8.69136,-48.3411
252,-734,8.6676,47.9675,0,0,0,0,0,0,0,-1,1476,1758,8.66759,-47.9675
259,-734,8.65369,47.7975,-0.00382792,-0.000122328,-0.00370141,0.00216412,-0.00611436,-1.01745,0.00495764,0.0462509,1483,1758,8.65367,-47.7975
266,-734,8.72607,47.6295,-0.00419184,-0.000651474,-0.00388548,0.00184807,-0.00669138,-0.999144,0.00518785,0.049955,1490,1758,8.72602,-47.6295
273,-734,8.66333,47.5198,0,0,0,0,0,0,0,-1,1497,1758,8.66336,-47.5198
280,-734,8.12036,47.0182,0,0,0,0,0,0,0,-1,1504,1758,8.12041,-47.0182
287,-734,8.58838,45.4618,0,0,0,0,0,0,0,-1,1511,1758,8.58844,-45.4618
294,-734,7.31262,42.9679,0,0,0,0,0,0,0,-1,1518,1758,7.31266,-42.9679
301,-734,7.21814,42.6078,0,0,0,0,0,0,0,-1,1525,1758,7.21809,-42.6078
308,-734,8.0509,41.5156,0,0,0,0,0,0,0,-1,1532,1758,8.05087,-41.5157
315,-734,7.93787,40.8274,0,0,0,0,0,0,0,-1,1539,1758,7.93784,-40.8273
322,-734,7.82483,40.139,0,0,0,0,0,0,0,-1,1546,1758,7.82481,-40.139
329,-734,5.73267,19.656,0,0,0,0,0,0,0,-1,1553,1758,5.73262,-19.656
336,-734,6.71375,23.7469,0,0,0,0,0,0,0,-1,1560,1758,6.71372,-23.7469
343,-734,5.54968,5.14221,0,0,0,0,0,0,0,-1,1567,1758,5.54973,-5.14225
350,-734,5.07397,6.73242,0,0,0,0,0,0,0,-1,1574,1758,5.07402,-6.73243
357,-734,5.05542,7.19189,0,0,0,0,0,0,0,-1,1581,1758,5.05541,-7.19184
364,-734,4.43896,10.4904,0,0,0,0,0,0,0,-1,1588,1758,4.43893,-10.4904
371,-734,7.36975,17.4751,0,0,0,0,0,0,0,-1,1595,1758,7.36972,-17.4752
378,-734,0,0,0,0,0,0,0,0,0,-1,1602,1758,0,0
385,-734,0,0,0,0,0,0,0,0,0,-1,1609,1758,0,0
392,-734,0,0,0,0,0,0,0,0,0,-1,1616,1758,0,0
399,-734,0,0,0,0,0,0,0,0,0,-1,1623,1758,0,0
406,-734,0,0,0,0,0,0,0,0,0,-1,1630,1758,0,0
413,-734,0,0,0,0,0,0,0,0,0,-1,1637,1758,0,0
420,-734,0,0,0,0,0,0,0,0,0,-1,1644,1758,0,0
427,-734,0,0,0,0,0,0,0,0,0,-1,1651,1758,0,0
434,-734,0,0,0,0,0,0,0,0,0,-1,1658,1758,0,0
441,-734,0,0,0,0,0,0,0,0,0,-1,1665,1758,0,0
448,-734,0,0,0,0,0,0,0,0,0,-1,1672,1758,0,0
455,-734,0,0,0,0,0,0,0,0,0,-1,1679,1758,0,0
462,-734,0,0,0,0,0,0,0,0,0,-1,1686,1758,0,0
469,-734,0,0,0,0,0,0,0,0,0,-1,1693,1758,0,0
476,-734,0,0,0,0,0,0,0,0,0,-1,1700,1758,0,0
483,-734,0,0,0,0,0,0,0,0,0,-1,1707,1758,0,0
490,-734,0,0,0,0,0,0,0,0,0,-1,1714,1758,0,0
497,-734,0,0,0,0,0,0,0,0,0,-1,1721,1758,0,0
504,-734,0,0,0,0,0,0,0,0,0,-1,1728,1758,0,0
511,-734,0,0,0,0,0,0,0,0,0,-1,1735,1758,0,0
518,-734,0,0,0,0,0,0,0,0,0,-1,1742,1758,0,0
525,-734,0,0,0,0,0,0,0,0,0,-1,1749,1758,0,0
532,-734,0,0,0,0,0,0,0,0,0,-1,1756,1758,0,0
539,-734,0,0,0,0,0,0,0,0,0,-1,1763,1758,0,0
546,-734,0,0,0,0,0,0,0,0,0,-1,1770,1758,0,0
553,-734,0,0,0,0,0,0,0,0,0,-1,1777,1758,0,0
560,-734,0,0,0,0,0,0,0,0,0,-1,1784,1758,0,0
567,-734,0,0,0,0,0,0,0,0,0,-1,1791,1758,0,0
574,-734,0,0,0,0,0,0,0,0,0,-1,1798,1758,0,0
581,-734,0,0,0,0,0,0,0,0,0,-1,1805,1758,0,0
588,-734,0,0,0,0,0,0,0,0,0,-1,1812,1758,0,0
595,-734,0,0,0,0,0,0,0,0,0,-1,1819,1758,0,0
602,-734,0,0,0,0,0,0,0,0,0,-1,1826,1758,0,0
609,-734,0,0,0,0,0,0,0,0,0,-1,1833,1758,0,0
616,-734,0,0,0,0,0,0,0,0,0,-1,1840,1758,0,0
623,-734,0,0,0,0,0,0,0,0,0,-1,1847,1758,0,0
630,-734,0,0,0,0,0,0,0,0,0,-1,1854,1758,0,0
637,-734,0,0,0,0,0,0,0,0,0,-1,1861,1758,0,0
644,-734,0,0,0,0,0,0,0,0,0,-1,1868,1758,0,0
651,-734,0,0,0,0,0,0,0,0,0,-1,1875,1758,0,0
658,-734,0,0,0,0,0,0,0,0,0,-1,1882,1758,0,0
665,-734,0,0,0,0,0,0,0,0,0,-1,1889,1758,0,0
672,-734,0,0,0,0,0,0,0,0,0,-1,1896,1758,0,0
679,-734,0,0,0,0,0,0,0,0,0,-1,1903,1758,0,0
686,-734,0,0,0,0,0,0,0,0,0,-1,1910,1758,0,0
693,-734,0,0,0,0,0,0,0,0,0,-1,1917,1758,0,0
700,-734,0,0,0,0,0,0,0,0,0,-1,1924,1758,0,0
707,-734,0,0,0,0,0,0,0,0,0,-1,1931,1758,0,0
714,-734,0,0,0,0,0,0,0,0,0,-1,1938,1758,0,0
721,-734,0,0,0,0,0,0,0,0,0,-1,1945,1758,0,0
728,-734,0,0,0,0,0,0,0,0,0,-1,1952,1758,0,0
735,-734,0,0,0,0,0,0,0,0,0,-1,1959,1758,0,0
742,-734,0,0,0,0,0,0,0,0,0,-1,1966,1758,0,0
749,-734,0,0,0,0,0,0,0,0,0,-1,1973,1758,0,0
756,-734,0,0,0,0,0,0,0,0,0,-1,1980,1758,0,0
763,-734,0,0,0,0,0,0,0,0,0,-1,1987,1758,0,0
770,-734,0,0,0,0,0,0,0,0,0,-1,1994,1758,0,0
777,-734,0,0,0,0,0,0,0,0,0,-1,2001,1758,0,0
784,-734,0,0,0,0,0,0,0,0,0,-1,2008,1758,0,0
791,-734,0,0,0,0,0,0,0,0,0,-1,2015,1758,0,0
798,-734,0,0,0,0,0,0,0,0,0,-1,2022,1758,0,0
805,-734,0,0,0,0,0,0,0,0,0,-1,2029,1758,0,0
812,-734,0,0,0,0,0,0,0,0,0,-1,2036,1758,0,0
-700,-741,0,0,0,0,0,0,0,0,0,-1,524,1765,0,0
-693,-741,0,0,0,0,0,0,0,0,0,-1,531,1765,0,0
-686,-741,0,0,0,0,0,0,0,0,0,-1,538,1765,0,0
-679,-741,0,0,0,0,0,0,0,0,0,-1,545,1765,0,0
-672,-741,0,0,0,0,0,0,0,0,0,-1,552,1765,0,0
-665,-741,0,0,0,0,0,0,0,0,0,-1,559,1765,0,0
-658,-741,0,0,0,0,0,0,0,0,0,-1,566,1765,0,0
-651,-741,0,0,0,0,0,0,0,0,0,-1,573,1765,0,0
-644,-741,0,0,0,0,0,0,0,0,0,-1,580,1765,0,0
-637,-741,0,0,0,0,0,0,0,0,0,-1,587,1765,0,0
-630,-741,0,0,0,0,0,0,0,0,0,-1,594,1765,0,0
-623,-741,0,0,0,0,0,0,0,0,0,-1,601,1765,0,0
-616,-741,0,0,0,0,0,0,0,0,0,-1,608,1765,0,0
-609,-741,0,0,0,0,0,0,0,0,0,-1,615,1765,0,0
-602,-741,0,0,0,0,0,0,0,0,0,-1,622,1765,0,0
-595,-741,0,0,0,0,0,0,0,0,0,-1,629,1765,0,0
-588,-741,0,0,0,0,0,0,0,0,0,-1,636,1765,0,0
-581,-741,0,0,0,0,0,0,0,0,0,-1,643,1765,0,0
-574,-741,0,0,0,0,0,0,0,0,0,-1,650,1765,0,0
-567,-741,0,0,0,0,0,0,0,0,0,-1,657,1765,0,0
-560,-741,0,0,0,0,0,0,0,0,0,-1,664,1765,0,0
-553,-741,0,0,0,0,0,0,0,0,0,-1,671,1765,0,0
-546,-741,0,0,0,0,0,0,0,0,0,-1,678,1765,0,0
-539,-741,0,0,0,0,0,0,0,0,0,-1,685,1765,0,0
-532,-741,0,0,0,0,0,0,0,0,0,-1,692,1765,0,0
-525,-741,0,0,0,0,0,0,0,0,0,-1,699,1765,0,0
-518,-741,0,0,0,0,0,0,0,0,0,-1,706,1765,0,0
-511,-741,0,0,0,0,0,0,0,0,0,-1,713,1765,0,0
-504,-741,0,0,0,0,0,0,0,0,0,-1,720,1765,0,0
-497,-741,0,0,0,0,0,0,0,0,0,-1,727,1765,0,0
-490,-741,0,0,0,0,0,0,0,0,0,-1,734,1765,0,0
-483,-741,0,0,0,0,0,0,0,0,0,-1,741,1765,0,0
-476,-741,0,0,0,0,0,0,0,0,0,-1,748,1765,0,0
-469,-741,0,0,0,0,0,0,0,0,0,-1,755,1765,0,0
-462,-741,0,0,0,0,0,0,0,0,0,-1,762,1765,0,0
-455,-741,0,0,0,0,0,0,0,0,0,-1,769,1765,0,0
-448,-741,0,0,0,0,0,0,0,0,0,-1,776,1765,0,0
-441,-741,0,0,0,0,0,0,0,0,0,-1,783,1765,0,0
-434,-741,0,0,0,0,0,0,0,0,0,-1,790,1765,0,0
-427,-741,0,0,0,0,0,0,0,0,0,-1,797,1765,0,0
-420,-741,0,0,0,0,0,0,0,0,0,-1,804,1765,0,0
-413,-741,0,0,0,0,0,0,0,0,0,-1,811,1765,0,0
-406,-741,0,0,0,0,0,0,0,0,0,-1,818,1765,0,0
-399,-741,0,0,0,0,0,0,0,0,0,-1,825,1765,0,0
-392,-741,0,0,0,0,0,0,0,0,0,-1,832,1765,0,0
-385,-741,0,0,0,0,0,0,0,0,0,-1,839,1765,0,0
-378,-741,0,0,0,0,0,0,0,0,0,-1,846,1765,0,0
-371,-741,0,0,0,0,0,0,0,0,0,-1,853,1765,0,0
-364,-741,0,0,0,0,0,0,0,0,0,-1,860,1765,0,0
-357,-741,0,0,0,0,0,0,0,0,0,-1,867,1765,0,0
-350,-741,0,0,0,0,0,0,0,0,0,-1,874,1765,0,0
-343,-741,0,0,0,0,0,0,0,0,0,-1,881,1765,0,0
-336,-741,0,0,0,0,0,0,0,0,0,-1,888,1765,0,0
-329,-741,0,0,0,0,0,0,0,0,0,-1,895,1765,0,0
-322,-741,0,0,0,0,0,0,0,0,0,-1,902,1765,0,0
-315,-741,0,0,0,0,0,0,0,0,0,-1,909,1765,0,0
-308,-741,0,0,0,0,0,0,0,0,0,-1,916,1765,0,0
-301,-741,0,0,0,0,0,0,0,0,0,-1,923,1765,0,0
-294,-741,0,0,0,0,0,0,0,0,0,-1,930,1765,0,0
-287,-741,0,0,0,0,0,0,0,0,0,-1,937,1765,0,0
-280,-741,0,0,0,0,0,0,0,0,0,-1,944,1765,0,0
-273,-741,0,0,0,0,0,0,0,0,0,-1,951,1765,0,0
-266,-741,0,0,0,0,0,0,0,0,0,-1,958,1765,0,0
-259,-741,0,0,0,0,0,0,0,0,0,-1,965,1765,0,0
-252,-741,0,0,0,0,0,0,0,0,0,-1,972,1765,0,0
-245,-741,0,0,0,0,0,0,0,0,0,-1,979,1765,0,0
-238,-741,7.13855,29.8348,0,0,0,0,0,0,0,-1,986,1765,7.13856,-29.8348
-231,-741,7.74182,29.3066,0,0,0,0,0,0,0,-1,993,1765,7.74183,-29.3066
-224,-741,7.80078,29.0964,0,0,0,0,0,0,0,-1,1000,1765,7.80079,-29.0964
-217,-741,8.15863,29.113,0,0,0,0,0,0,0,-1,1007,1765,8.15863,-29.1131
-210,-741,8.37024,29.3896,0,0,0,0,0,0,0,-1,1014,1765,8.37022,-29.3896
-203,-741,8.33801,29.8871,0,0,0,0,0,0,0,-1,1021,1765,8.33805,-29.8871
-196,-741,2.04846,42.2267,0,0,0,0,0,0,0,-1,1028,1765,2.04845,-42.2267
-189,-741,9.46558,46.8121,0,0,0,0,0,0,0,-1,1035,1765,9.46555,-46.8121
-182,-741,10.1244,46.8065,0,0,0,0,0,0,0,-1,1042,1765,10.1244,-46.8066
-175,-741,9.80457,47.8402,0,0,0,0,0,0,0,-1,1049,1765,9.80463,-47.8403
-168,-741,11.0044,47.1123,0,0,0,0,0,0,0,-1,1056,1765,11.0044,-47.1123
-161,-741,11.6957,47.6057,0,0,0,0,0,0,0,-1,1063,1765,11.6957,-47.6057
-154,-741,12.6467,48.1807,0,0,0,0,0,0,0,-1,1070,1765,12.6467,-48.1806
-147,-741,11.3824,46.1283,0,0,0,0,0,0,0,-1,1077,1765,11.3824,-46.1282
-140,-741,9.97888,47.2156,0,0,0,0,0,0,0,-1,1084,1765,9.97885,-47.2156
-133,-741,10.3953,47.7444,0,0,0,0,0,0,0,-1,1091,1765,10.3953,-47.7444
-126,-741,10.1017,47.7722,0,0,0,0,0,0,0,-1,1098,1765,10.1017,-47.7722
-119,-741,10.0277,48.123,0,0,0,0,0,0,0,-1,1105,1765,10.0278,-48.123
-112,-741,9.6283,47.2815,0,0,0,0,0,0,0,-1,1112,1765,9.62827,-47.2815
-105,-741,9.61792,45.9158,0,0,0,0,0,0,0,-1,1119,1765,9.61797,-45.9158
-98,-741,9.19971,40.25,0,0,0,0,0,0,0,-1,1126,1765,9.19971,-40.25
-91,-741,8.40002,36.3687,0,0,0,0,0,0,0,-1,1133,1765,8.40002,-36.3687
-84,-741,7.8877,35.0892,0,0,0,0,0,0,0,-1,1140,1765,7.88776,-35.0892
-77,-741,7.73303,34.1174,0,0,0,0,0,0,0,-1,1147,1765,7.73304,-34.1174
-70,-741,7.5437,32.0275,0,0,0,0,0,0,0,-1,1154,1765,7.5437,-32.0275
-63,-741,9.36633,50.2008,0,0,0,0,0,0,0,-1,1161,1765,9.36636,-50.2007
-56,-741,9.66821,50.9979,0,0,0,0,0,0,0,-1,1168,1765,9.66817,-50.9979
-49,-741,9.61572,51.2523,0,0,0,0,0,0,0,-1,1175,1765,9.61567,-51.2523
-42,-741,9.52234,51.4639,0,0,0,0,0,0,0,-1,1182,1765,9.52236,-51.4638
-35,-741,9.53296,51.6241,-0.00304529,-4.83136e-05,0.00291422,0.00173011,-0.00482372,1.02287,0.00392185,0.0247612,1189,1765,9.53293,-51.6241
-28,-741,9.53369,51.8108,-0.00221699,-0.00134928,0.00240762,0.000663258,-0.00422953,0.874541,0.00306479,0.014996,1196,1765,9.53366,-51.8108
-21,-741,9.5332,51.9955,-0.00144956,-0.00239773,0.00194481,7.8112e-05,-0.0039254,0.665845,0.00264336,0.0187176,1203,1765,9.53324,-51.9955
-14,-741,9.46655,52.1722,-0.000747403,-0.00289453,0.0013747,-7.67349e-05,-0.0035652,0.453892,0.00235164,0.0188916,1210,1765,9.4665,-52.1722
-7,-741,9.43823,52.2876,-0.000281177,-0.00337671,0.000986163,6.29434e-06,-0.00366418,0.283645,0.00244489,0.0150093,1217,1765,9.4382,-52.2876
0,-741,9.40271,52.3867,0.0012774,-0.00351366,-0.000135942,0.00128126,-0.00351752,-0.0283437,0.0028691,0.015646,1224,1765,9.40273,-52.3868
7,-741,9.34839,52.5216,0.00280566,-0.00251063,-0.00156445,0.00323187,-0.00293684,-0.265978,0.00356286,0.0179115,1231,1765,9.34836,-52.5216
14,-741,9.30762,52.6674,0.00375474,-0.00141992,-0.00269399,0.00490263,-0.00256781,-0.402796,0.00438272,0.0163623,1238,1765,9.30766,-52.6674
21,-741,9.26501,52.7327,0.00456189,-0.000123423,-0.00396121,0.00682132,-0.00238286,-0.518363,0.00551615,0.0126721,1245,1765,9.26504,-52.7327
28,-741,9.24597,52.8424,0.00522935,0.00142215,-0.00518896,0.00885287,-0.00220136,-0.609592,0.00675632,0.0131251,1252,1765,9.24595,-52.8424
35,-741,9.24597,52.8934,0.00566045,0.00291314,-0.00627512,0.0107105,-0.00213691,-0.677645,0.00794897,0.015014,1259,1765,9.24597,-52.8935
42,-741,9.23816,52.9158,0.005823,0.00453032,-0.0072585,0.0124639,-0.00211056,-0.740992,0.00909478,0.0157292,1266,1765,9.23817,-52.9157
49,-741,9.20837,52.9537,0.00573202,0.00590263,-0.00793695,0.0137547,-0.00212008,-0.790772,0.00995207,0.0105338,1273,1765,9.20841,-52.9537
56,-741,9.16882,52.9893,0.00529853,0.00707327,-0.00826779,0.0145012,-0.00212938,-0.838858,0.0104498,0.0102129,1280,1765,9.16878,-52.9893
63,-741,9.14075,52.9845,0.00462333,0.00802172,-0.00832627,0.0148204,-0.00217536,-0.886054,0.0106795,0.0140411,1287,1765,9.14073,-52.9845
70,-741,9.10645,53.0038,0.00417155,0.00872444,-0.00783502,0.014607,-0.00171103,-0.926779,0.0103556,0.0161934,1294,1765,9.10645,-53.0038
77,-741,9.08362,53.0117,0.00364631,0.00897416,-0.00699295,0.0137934,-0.00117294,-0.967384,0.00961047,0.0135557,1301,1765,9.08368,-53.0117
84,-741,9.06238,52.9644,0.00341492,0.0090483,-0.00574065,0.012626,-0.000162827,-1.01347,0.00847216,0.0154643,1308,1765,9.06235,-52.9644
91,-741,9.05042,52.9164,0.00362629,0.00876572,-0.00403372,0.0109787,0.0014133,-1.06901,0.00689648,0.0136056,1315,1765,9.0504,-52.9164
98,-741,9.0459,52.8386,0.00395789,0.00799448,-0.002505,0.0091931,0.00275927,-1.1245,0.00544714,0.0104921,1322,1765,9.04586,-52.8387
105,-741,9.03125,52.7432,0.00387127,0.00749506,-0.000621517,0.00759869,0.00376764,-1.40557,0.00438716,0.0104059,1329,1765,9.03122,-52.7432
112,-741,9.03625,52.6422,0.00431179,0.00630726,0.0011904,0.00686276,0.0037563,1.13419,0.00396813,0.0105957,1336,1765,9.0362,-52.6422
119,-741,8.99988,52.5155,0.00547515,0.00561347,0.00230287,0.00784822,0.00324041,0.80041,0.00455404,0.0136814,1343,1765,8.99983,-52.5155
126,-741,8.97156,52.3975,0.00657545,0.00520866,0.00342977,0.00938924,0.00239487,0.687059,0.00563352,0.0191637,1350,1765,8.97153,-52.3974
133,-741,8.95508,52.2744,0.00737738,0.00494951,0.00427513,0.0106076,0.00171931,0.647063,0.00657399,0.0147071,1357,1765,8.95503,-52.2744
140,-741,8.87231,52.1388,0.00782006,0.00496478,0.00490159,0.0114977,0.00128715,0.643688,0.00727413,0.0110403,1364,1765,8.87237,-52.1388
147,-741,8.84546,51.9893,0.00794963,0.00481939,0.00538707,0.0119943,0.000774689,0.644024,0.00775091,0.0101661,1371,1765,8.84549,-51.9892
154,-741,8.82495,51.85,0.00757958,0.00462235,0.00540668,0.0117062,0.000495751,0.651922,0.00764423,0.00899827,1378,1765,8.82492,-51.85
161,-741,8.78833,51.6681,0.00709203,0.00441684,0.00517824,0.0111026,0.000406232,0.659006,0.00727014,0.0107293,1385,1765,8.78836,-51.6681
168,-741,8.74097,51.4669,0.00627094,0.00376272,0.00497377,0.0101463,-0.000112612,0.6619,0.00680202,0.0253759,1392,1765,8.741,-51.467
175,-741,8.68396,51.2794,0,0,0,0,0,0,0,-1,1399,1765,8.68401,-51.2794
182,-741,8.71082,50.9983,0,0,0,0,0,0,0,-1,1406,1765,8.71087,-50.9983
189,-741,8.63904,50.7982,0,0,0,0,0,0,0,-1,1413,1765,8.63898,-50.7982
196,-741,8.57458,50.5682,0,0,0,0,0,0,0,-1,1420,1765,8.57457,-50.5683
203,-741,8.59082,50.2019,0,0,0,0,0,0,0,-1,1427,1765,8.59085,-50.2019
210,-741,8.56775,49.6974,0,0,0,0,0,0,0,-1,1434,1765,8.56774,-49.6973
217,-741,8.4032,40.1213,0,0,0,0,0,0,0,-1,1441,1765,8.40325,-40.1214
224,-741,8.0719,38.4249,0,0,0,0,0,0,0,-1,1448,1765,8.07187,-38.4249
231,-741,7.95923,39.0671,0,0,0,0,0,0,0,-1,1455,1765,7.9592,-39.0671
238,-741,7.96619,42.4865,0,0,0,0,0,0,0,-1,1462,1765,7.96621,-42.4864
245,-741,8.53577,45.7744,0,0,0,0,0,0,0,-1,1469,1765,8.53581,-45.7744
252,-741,8.59167,47.473,0,0,0,0,0,0,0,-1,1476,1765,8.59162,-47.473
259,-741,8.43433,47.8422,0,0,0,0,0,0,0,-1,1483,1765,8.43437,-47.8422
266,-741,8.5293,47.8448,0,0,0,0,0,0,0,-1,1490,1765,8.52933,-47.8448
273,-741,7.90894,46.7296,0,0,0,0,0,0,0,-1,1497,1765,7.90895,-46.7296
280,-741,6.99475,46.886,0,0,0,0,0,0,0,-1,1504,1765,6.99474,-46.886
287,-741,6.29468,43.7202,0,0,0,0,0,0,0,-1,1511,1765,6.29464,-43.7202
294,-741,5.91187,43.7742,0,0,0,0,0,0,0,-1,1518,1765,5.91188,-43.7742
301,-741,6.20667,38.5165,0,0,0,0,0,0,0,-1,1525,1765,6.20667,-38.5165
308,-741,7.99036,42.5969,0,0,0,0,0,0,0,-1,1532,1765,7.99037,-42.5969
315,-741,7.83838,41.6693,0,0,0,0,0,0,0,-1,1539,1765,7.83835,-41.6694
322,-741,7.68628,40.7418,0,0,0,0,0,0,0,-1,1546,1765,7.68633,-40.7418
329,-741,4.74414,17.928,0,0,0,0,0,0,0,-1,1553,1765,4.74414,-17.928
336,-741,5.74304,22.0945,0,0,0,0,0,0,0,-1,1560,1765,5.74306,-22.0945
343,-741,7.09888,26.501,0,0,0,0,0,0,0,-1,1567,1765,7.09885,-26.501
350,-741,4.90369,5.44666,0,0,0,0,0,0,0,-1,1574,1765,4.90368,-5.44664
357,-741,4.02063,5.16626,0,0,0,0,0,0,0,-1,1581,1765,4.02058,-5.1662
364,-741,0,0,0,0,0,0,0,0,0,-1,1588,1765,0,0
371,-741,0,0,0,0,0,0,0,0,0,-1,1595,1765,0,0
378,-741,0,0,0,0,0,0,0,0,0,-1,1602,1765,0,0
385,-741,0,0,0,0,0,0,0,0,0,-1,1609,1765,0,0
392,-741,0,0,0,0,0,0,0,0,0,-1,1616,1765,0,0
399,-741,0,0,0,0,0,0,0,0,0,-1,1623,1765,0,0
406,-741,0,0,0,0,0,0,0,0,0,-1,1630,1765,0,0
413,-741,0,0,0,0,0,0,0,0,0,-1,1637,1765,0,0
420,-741,0,0,0,0,0,0,0,0,0,-1,1644,1765,0,0
427,-741,0,0,0,0,0,0,0,0,0,-1,1651,1765,0,0
434,-741,0,0,0,0,0,0,0,0,0,-1,1658,1765,0,0
441,-741,0,0,0,0,0,0,0,0,0,-1,1665,1765,0,0
448,-741,0,0,0,0,0,0,0,0,0,-1,1672,1765,0,0
455,-741,0,0,0,0,0,0,0,0,0,-1,1679,1765,0,0
462,-741,0,0,0,0,0,0,0,0,0,-1,1686,1765,0,0
469,-741,0,0,0,0,0,0,0,0,0,-1,1693,1765,0,0
476,-741,0,0,0,0,0,0,0,0,0,-1,1700,1765,0,0
483,-741,0,0,0,0,0,0,0,0,0,-1,1707,1765,0,0
490,-741,0,0,0,0,0,0,0,0,0,-1,1714,1765,0,0
497,-741,0,0,0,0,0,0,0,0,0,-1,1721,1765,0,0
504,-741,0,0,0,0,0,0,0,0,0,-1,1728,1765,0,0
511,-741,0,0,0,0,0,0,0,0,0,-1,1735,1765,0,0
518,-741,0,0,0,0,0,0,0,0,0,-1,1742,1765,0,0
525,-741,0,0,0,0,0,0,0,0,0,-1,1749,1765,0,0
532,-741,0,0,0,0,0,0,0,0,0,-1,1756,1765,0,0
539,-741,0,0,0,0,0,0,0,0,0,-1,1763,1765,0,0
546,-741,0,0,0,0,0,0,0,0,0,-1,1770,1765,0,0
553,-741,0,0,0,0,0,0,0,0,0,-1,1777,1765,0,0
560,-741,0,0,0,0,0,0,0,0,0,-1,1784,1765,0,0
567,-741,0,0,0,0,0,0,0,0,0,-1,1791,1765,0,0
574,-741,0,0,0,0,0,0,0,0,0,-1,1798,1765,0,0
581,-741,0,0,0,0,0,0,0,0,0,-1,1805,1765,0,0
588,-741,0,0,0,0,0,0,0,0,0,-1,1812,1765,0,0
595,-741,0,0,0,0,0,0,0,0,0,-1,1819,1765,0,0
602,-741,0,0,0,0,0,0,0,0,0,-1,1826,1765,0,0
609,-741,0,0,0,0,0,0,0,0,0,-1,1833,1765,0,0
616,-741,0,0,0,0,0,0,0,0,0,-1,1840,1765,0,0
623,-741,0,0,0,0,0,0,0,0,0,-1,1847,1765,0,0
630,-741,0,0,0,0,0,0,0,0,0,-1,1854,1765,0,0
637,-741,0,0,0,0,0,0,0,0,0,-1,1861,1765,0,0
644,-741,0,0,0,0,0,0,0,0,0,-1,1868,1765,0,0
651,-741,0,0,0,0,0,0,0,0,0,-1,1875,1765,0,0
658,-741,0,0,0,0,0,0,0,0,0,-1,1882,1765,0,0
665,-741,0,0,0,0,0,0,0,0,0,-1,1889,1765,0,0
672,-741,0,0,0,0,0,0,0,0,0,-1,1896,1765,0,0
679,-741,0,0,0,0,0,0,0,0,0,-1,1903,1765,0,0
686,-741,0,0,0,0,0,0,0,0,0,-1,1910,1765,0,0
693,-741,0,0,0,0,0,0,0,0,0,-1,1917,1765,0,0
700,-741,0,0,0,0,0,0,0,0,0,-1,1924,1765,0,0
707,-741,0,0,0,0,0,0,0,0,0,-1,1931,1765,0,0
714,-741,0,0,0,0,0,0,0,0,0,-1,1938,1765,0,0
721,-741,0,0,0,0,0,0,0,0,0,-1,1945,1765,0,0
728,-741,0,0,0,0,0,0,0,0,0,-1,1952,1765,0,0
735,-741,0,0,0,0,0,0,0,0,0,-1,1959,1765,0,0
742,-741,0,0,0,0,0,0,0,0,0,-1,1966,1765,0,0
749,-741,0,0,0,0,0,0,0,0,0,-1,1973,1765,0,0
756,-741,0,0,0,0,0,0,0,0,0,-1,1980,1765,0,0
763,-741,0,0,0,0,0,0,0,0,0,-1,1987,1765,0,0
770,-741,0,0,0,0,0,0,0,0,0,-1,1994,1765,0,0
777,-741,0,0,0,0,0,0,0,0,0,-1,2001,1765,0,0
784,-741,0,0,0,0,0,0,0,0,0,-1,2008,1765,0,0
791,-741,0,0,0,0,0,0,0,0,0,-1,2015,1765,0,0
798,-741,0,0,0,0,0,0,0,0,0,-1,2022,1765,0,0
805,-741,0,0,0,0,0,0,0,0,0,-1,2029,1765,0,0
812,-741,0,0,0,0,0,0,0,0,0,-1,2036,1765,0,0
-700,-748,0,0,0,0,0,0,0,0,0,-1,524,1772,0,0
-693,-748,0,0,0,0,0,0,0,0,0,-1,531,1772,0,0
-686,-748,0,0,0,0,0,0,0,0,0,-1,538,1772,0,0
-679,-748,0,0,0,0,0,0,0,0,0,-1,545,1772,0,0
-672,-748,0,0,0,0,0,0,0,0,0,-1,552,1772,0,0
-665,-748,0,0,0,0,0,0,0,0,0,-1,559,1772,0,0
-658,-748,0,0,0,0,0,0,0,0,0,-1,566,1772,0,0
-651,-748,0,0,0,0,0,0,0,0,0,-1,573,1772,0,0
-644,-748,0,0,0,0,0,0,0,0,0,-1,580,1772,0,0
-637,-748,0,0,0,0,0,0,0,0,0,-1,587,1772,0,0
-630,-748,0,0,0,0,0,0,0,0,0,-1,594,1772,0,0
-623,-748,0,0,0,0,0,0,0,0,0,-1,601,1772,0,0
-616,-748,0,0,0,0,0,0,0,0,0,-1,608,1772,0,0
-609,-748,0,0,0,0,0,0,0,0,0,-1,615,1772,0,0
-602,-748,0,0,0,0,0,0,0,0,0,-1,622,1772,0,0
-595,-748,0,0,0,0,0,0,0,0,0,-1,629,1772,0,0
-588,-748,0,0,0,0,0,0,0,0,0,-1,636,1772,0,0
-581,-748,0,0,0,0,0,0,0,0,0,-1,643,1772,0,0
-574,-748,0,0,0,0,0,0,0,0,0,-1,650,1772,0,0
-567,-748,0,0,0,0,0,0,0,0,0,-1,657,1772,0,0
-560,-748,0,0,0,0,0,0,0,0,0,-1,664,1772,0,0
-553,-748,0,0,0,0,0,0,0,0,0,-1,671,1772,0,0
-546,-748,0,0,0,0,0,0,0,0,0,-1,678,1772,0,0
-539,-748,0,0,0,0,0,0,0,0,0,-1,685,1772,0,0
-532,-748,0,0,0,0,0,0,0,0,0,-1,692,1772,0,0
-525,-748,0,0,0,0,0,0,0,0,0,-1,699,1772,0,0
-518,-748,0,0,0,0,0,0,0,0,0,-1,706,1772,0,0
-511,-748,0,0,0,0,0,0,0,0,0,-1,713,1772,0,0
-504,-748,0,0,0,0,0,0,0,0,0,-1,720,1772,0,0
-497,-748,0,0,0,0,0,0,0,0,0,-1,727,1772,0,0
-490,-748,0,0,0,0,0,0,0,0,0,-1,734,1772,0,0
-483,-748,0,0,0,0,0,0,0,0,0,-1,741,1772,0,0
-476,-748,0,0,0,0,0,0,0,0,0,-1,748,1772,0,0
-469,-748,0,0,0,0,0,0,0,0,0,-1,755,1772,0,0
-462,-748,0,0,0,0,0,0,0,0,0,-1,762,1772,0,0
-455,-748,0,0,0,0,0,0,0,0,0,-1,769,1772,0,0
-448,-748,0,0,0,0,0,0,0,0,0,-1,776,1772,0,0
-441,-748,0,0,0,0,0,0,0,0,0,-1,783,1772,0,0
-434,-748,0,0,0,0,0,0,0,0,0,-1,790,1772,0,0
-427,-748,0,0,0,0,0,0,0,0,0,-1,797,1772,0,0
-420,-748,0,0,0,0,0,0,0,0,0,-1,804,1772,0,0
-413,-748,0,0,0,0,0,0,0,0,0,-1,811,1772,0,0
-406,-748,0,0,0,0,0,0,0,0,0,-1,818,1772,0,0
-399,-748,0,0,0,0,0,0,0,0,0,-1,825,1772,0,0
-392,-748,0,0,0,0,0,0,0,0,0,-1,832,1772,0,0
-385,-748,0,0,0,0,0,0,0,0,0,-1,839,1772,0,0
-378,-748,0,0,0,0,0,0,0,0,0,-1,846,1772,0,0
-371,-748,0,0,0,0,0,0,0,0,0,-1,853,1772,0,0
-364,-748,0,0,0,0,0,0,0,0,0,-1,860,1772,0,0
-357,-748,0,0,0,0,0,0,0,0,0,-1,867,1772,0,0
-350,-748,0,0,0,0,0,0,0,0,0,-1,874,1772,0,0
-343,-748,0,0,0,0,0,0,0,0,0,-1,881,1772,0,0
-336,-748,0,0,0,0,0,0,0,0,0,-1,888,1772,0,0
-329,-748,0,0,0,0,0,0,0,0,0,-1,895,1772,0,0
-322,-748,0,0,0,0,0,0,0,0,0,-1,902,1772,0,0
-315,-748,0,0,0,0,0,0,0,0,0,-1,909,1772,0,0
-308,-748,0,0,0,0,0,0,0,0,0,-1,916,1772,0,0
-301,-748,0,0,0,0,0,0,0,0,0,-1,923,1772,0,0
-294,-748,0,0,0,0,0,0,0,0,0,-1,930,1772,0,0
-287,-748,0,0,0,0,0,0,0,0,0,-1,937,1772,0,0
-280,-748,0,0,0,0,0,0,0,0,0,-1,944,1772,0,0
-273,-748,0,0,0,0,0,0,0,0,0,-1,951,1772,0,0
-266,-748,0,0,0,0,0,0,0,0,0,-1,958,1772,0,0
-259,-748,0,0,0,0,0,0,0,0,0,-1,965,1772,0,0
-252,-748,0,0,0,0,0,0,0,0,0,-1,972,1772,0,0
-245,-748,0,0,0,0,0,0,0,0,0,-1,979,1772,0,0
-238,-748,0,0,0,0,0,0,0,0,0,-1,986,1772,0,0
-231,-748,0,0,0,0,0,0,0,0,0,-1,993,1772,0,0
-224,-748,0,0,0,0,0,0,0,0,0,-1,1000,1772,0,0
-217,-748,8.97742,29.9884,0,0,0,0,0,0,0,-1,1007,1772,8.97744,-29.9884
-210,-748,8.8941,30.14,0,0,0,0,0,0,0,-1,1014,1772,8.8941,-30.14
-203,-748,-0.821899,39.5326,0,0,0,0,0,0,0,-1,1021,1772,-0.821892,-39.5326
-196,-748,0.60083,40.5905,0,0,0,0,0,0,0,-1,1028,1772,0.600866,-40.5905
-189,-748,2.17188,41.5771,0,0,0,0,0,0,0,-1,1035,1772,2.17191,-41.5772
-182,-748,13.4258,44.5267,0,0,0,0,0,0,0,-1,1042,1772,13.4258,-44.5268
-175,-748,15.0717,44.8014,0,0,0,0,0,0,0,-1,1049,1772,15.0716,-44.8014
-168,-748,15.6296,44.9393,0,0,0,0,0,0,0,-1,1056,1772,15.6297,-44.9393
-161,-748,16.1071,45.1337,0,0,0,0,0,0,0,-1,1063,1772,16.107,-45.1337
-154,-748,11.72,45.9659,0,0,0,0,0,0,0,-1,1070,1772,11.7199,-45.966
-147,-748,12.1674,46.7341,0,0,0,0,0,0,0,-1,1077,1772,12.1673,-46.7341
-140,-748,10.4108,44.9001,0,0,0,0,0,0,0,-1,1084,1772,10.4107,-44.9001
-133,-748,7.44727,22.0308,0,0,0,0,0,0,0,-1,1091,1772,7.44728,-22.0308
-126,-748,5.98035,22.6067,0,0,0,0,0,0,0,-1,1098,1772,5.9803,-22.6067
-119,-748,6.63342,26.309,0,0,0,0,0,0,0,-1,1105,1772,6.6334,-26.3089
-112,-748,6.91333,24.923,0,0,0,0,0,0,0,-1,1112,1772,6.91339,-24.923
-105,-748,6.83313,25.0537,0,0,0,0,0,0,0,-1,1119,1772,6.83311,-25.0537
-98,-748,8.13623,30.8743,0,0,0,0,0,0,0,-1,1126,1772,8.13628,-30.8742
-91,-748,4.85352,15.3033,0,0,0,0,0,0,0,-1,1133,1772,4.85351,-15.3033
-84,-748,-0.192017,7.26196,0,0,0,0,0,0,0,-1,1140,1772,-0.192047,-7.26201
-77,-748,4.42615,13.5537,0,0,0,0,0,0,0,-1,1147,1772,4.4261,-13.5538
-70,-748,4.46191,13.7446,0,0,0,0,0,0,0,-1,1154,1772,4.4619,-13.7446
-63,-748,4.49768,13.9355,0,0,0,0,0,0,0,-1,1161,1772,4.49769,-13.9355
-56,-748,3.05762,7.87817,0,0,0,0,0,0,0,-1,1168,1772,3.05768,-7.87822
-49,-748,3.04102,7.82471,0,0,0,0,0,0,0,-1,1175,1772,3.04096,-7.82468
-42,-748,0.793457,14.9474,0,0,0,0,0,0,0,-1,1182,1772,0.793413,-14.9474
-35,-748,9.6488,51.6665,0,0,0,0,0,0,0,-1,1189,1772,9.64884,-51.6664
-28,-748,9.70056,51.8354,-0.00161321,-0.0024962,0.00369196,0.00166355,-0.00577297,0.725889,0.0045067,0.0492161,1196,1772,9.70055,-51.8354
-21,-748,9.67139,52.0187,0.0001383,-0.00423632,0.00273631,0.0014541,-0.00555211,0.448222,0.00426946,0.0231863,1203,1772,9.67134,-52.0187
-14,-748,9.60266,52.1217,0.00148729,-0.00451509,0.00134996,0.00177693,-0.00480472,0.211348,0.00393166,0.0168151,1210,1772,9.60261,-52.1217
-7,-748,9.57764,52.2467,0.00200234,-0.00531026,0.000672221,0.00206362,-0.00537154,0.0909111,0.00443205,0.0162867,1217,1772,9.57759,-52.2468
0,-748,9.51306,52.3674,0.00377775,-0.00557129,-0.000917009,0.00386685,-0.00566039,-0.0968559,0.00553295,0.0164841,1224,1772,9.51303,-52.3674
7,-748,9.45032,52.4784,0.00563375,-0.00447049,-0.00294082,0.00642734,-0.00526408,-0.263575,0.00676117,0.0157004,1231,1772,9.45037,-52.4784
14,-748,9.40515,52.6381,0.00672684,-0.00323604,-0.00455925,0.00849829,-0.00500749,-0.370588,0.00788391,0.0157675,1238,1772,9.40516,-52.638
21,-748,9.36963,52.7312,0.00754503,-0.00167488,-0.00631587,0.0107544,-0.00488425,-0.470142,0.00923857,0.011293,1245,1772,9.36968,-52.7312
28,-748,9.32776,52.8142,0.00816118,0.000231612,-0.008005,0.0131295,-0.00473666,-0.555462,0.0106877,0.0119552,1252,1772,9.32776,-52.8142
35,-748,9.29785,52.8618,0.00844011,0.00215809,-0.00951665,0.0153207,-0.0047225,-0.626,0.0120992,0.0134672,1259,1772,9.29789,-52.8618
42,-748,9.27844,52.8986,0.00831957,0.00432063,-0.0108224,0.0173256,-0.00468542,-0.694051,0.0133884,0.0153378,1266,1772,9.27844,-52.8985
49,-748,9.24792,52.9261,0.00793298,0.00628521,-0.0117502,0.0188881,-0.00466993,-0.750397,0.0144033,0.0117293,1273,1772,9.24791,-52.9262
56,-748,9.18542,52.9749,0.00710867,0.00802861,-0.0122013,0.0197786,-0.00464136,-0.804238,0.0149746,0.0105148,1280,1772,9.18538,-52.9748
63,-748,9.14001,52.9738,0.00601233,0.00949419,-0.0122606,0.0201368,-0.00463033,-0.855924,0.0152049,0.011747,1287,1772,9.14,-52.9738
70,-748,9.11682,52.9714,0.00558814,0.0106175,-0.0113964,0.0197733,-0.00356767,-0.893986,0.0145183,0.0142022,1294,1772,9.11685,-52.9715
77,-748,9.08643,52.9618,0.00530411,0.0112502,-0.00994716,0.0186591,-0.00210479,-0.930615,0.0131971,0.0128968,1301,1772,9.08645,-52.9618
84,-748,9.03528,52.9426,0.00532878,0.0117416,-0.00791451,0.0170746,-4.1537e-06,-0.97786,0.0113844,0.0141632,1308,1772,9.03532,-52.9426
91,-748,9.00403,52.8958,0.00613374,0.0115013,-0.00512451,0.0146023,0.00303278,-1.02662,0.00889791,0.0125261,1315,1772,9.00406,-52.8957
98,-748,8.96802,52.8098,0.00738315,0.0108036,-0.00268844,0.0122797,0.00590706,-1.06868,0.00709136,0.0109622,1322,1772,8.96805,-52.8098
105,-748,8.94141,52.705,0.00815942,0.0103234,0.000252099,0.0103524,0.00813043,1.45634,0.00629309,0.011056,1329,1772,8.9414,-52.7049
112,-748,8.94226,52.6202,0.00953328,0.00884819,0.00319385,0.0124029,0.00597857,0.731976,0.00716236,0.0142711,1336,1772,8.94224,-52.6203
119,-748,8.90686,52.5142,0.0119453,0.00803691,0.00517115,0.0155192,0.00446301,0.604743,0.00922559,0.0134876,1343,1772,8.90686,-52.5141
126,-748,8.87085,52.4126,0.0143065,0.007598,0.00721544,0.0189092,0.00299526,0.567823,0.0117358,0.0151052,1350,1772,8.87086,-52.4125
133,-748,8.79956,52.2831,0.0161588,0.00730174,0.00885214,0.0216283,0.00183216,0.553464,0.0138486,0.00947671,1357,1772,8.79958,-52.2831
140,-748,8.73889,52.1334,0.0174657,0.0072886,0.0101742,0.0237529,0.0010014,0.553517,0.0155123,0.0119962,1364,1772,8.73895,-52.1334
147,-748,8.71655,51.9752,0.0182593,0.00700967,0.0112347,0.0251986,7.03745e-05,0.553309,0.0167756,0.0134752,1371,1772,8.71661,-51.9752
154,-748,8.64832,51.821,0.0179514,0.00672204,0.0114116,0.0250548,-0.000381383,0.55678,0.0168318,0.0122373,1378,1772,8.64837,-51.8211
161,-748,8.59021,51.6697,0.0173594,0.00650022,0.0112042,0.0243803,-0.000520676,0.559771,0.0164298,0.0189875,1385,1772,8.59018,-51.6697
168,-748,8.54565,51.5313,0,0,0,0,0,0,0,-1,1392,1772,8.5456,-51.5312
175,-748,11.6235,16.8242,0,0,0,0,0,0,0,-1,1399,1772,11.6236,-16.8242
182,-748,7.62476,10.3058,0,0,0,0,0,0,0,-1,1406,1772,7.62476,-10.3058
189,-748,6.15857,6.95898,0,0,0,0,0,0,0,-1,1413,1772,6.15862,-6.95896
196,-748,3.9425,8.46021,0,0,0,0,0,0,0,-1,1420,1772,3.9425,-8.46026
203,-748,3.9668,12.9835,0,0,0,0,0,0,0,-1,1427,1772,3.96678,-12.9836
210,-748,4.71472,16.8318,0,0,0,0,0,0,0,-1,1434,1772,4.71471,-16.8317
217,-748,5.38452,21.5551,0,0,0,0,0,0,0,-1,1441,1772,5.38455,-21.555
224,-748,6.14258,25.2345,0,0,0,0,0,0,0,-1,1448,1772,6.14263,-25.2345
231,-748,6.46045,29.7867,0,0,0,0,0,0,0,-1,1455,1772,6.46049,-29.7867
238,-748,7.41565,32.8574,0,0,0,0,0,0,0,-1,1462,1772,7.41562,-32.8574
245,-748,7.84912,32.0914,0,0,0,0,0,0,0,-1,1469,1772,7.84914,-32.0914
252,-748,7.57336,29.4369,0,0,0,0,0,0,0,-1,1476,1772,7.57337,-29.4369
259,-748,9.47351,46.1896,0,0,0,0,0,0,0,-1,1483,1772,9.4735,-46.1895
266,-748,9.15112,46.7681,0,0,0,0,0,0,0,-1,1490,1772,9.1511,-46.768
273,-748,7.31421,46.6743,0,0,0,0,0,0,0,-1,1497,1772,7.31415,-46.6743
280,-748,8.76538,40.4501,0,0,0,0,0,0,0,-1,1504,1772,8.76537,-40.45
287,-748,14.161,8.32813,0,0,0,0,0,0,0,-1,1511,1772,14.161,-8.32808
294,-748,6.38525,32.4724,0,0,0,0,0,0,0,-1,1518,1772,6.38521,-32.4725
301,-748,5.40393,38.9807,0,0,0,0,0,0,0,-1,1525,1772,5.40397,-38.9807
308,-748,5.95227,37.1827,0,0,0,0,0,0,0,-1,1532,1772,5.95229,-37.1827
315,-748,7.71741,42.637,0,0,0,0,0,0,0,-1,1539,1772,7.71738,-42.637
322,-748,4.26538,29.0557,0,0,0,0,0,0,0,-1,1546,1772,4.26537,-29.0556
329,-748,3.87256,16.1473,0,0,0,0,0,0,0,-1,1553,1772,3.87259,-16.1474
336,-748,4.81006,19.6141,0,0,0,0,0,0,0,-1,1560,1772,4.81011,-19.6141
343,-748,0,0,0,0,0,0,0,0,0,-1,1567,1772,0,0
350,-748,0,0,0,0,0,0,0,0,0,-1,1574,1772,0,0
357,-748,0,0,0,0,0,0,0,0,0,-1,1581,1772,0,0
364,-748,0,0,0,0,0,0,0,0,0,-1,1588,1772,0,0
371,-748,0,0,0,0,0,0,0,0,0,-1,1595,1772,0,0
378,-748,0,0,0,0,0,0,0,0,0,-1,1602,1772,0,0
385,-748,0,0,0,0,0,0,0,0,0,-1,1609,1772,0,0
392,-748,0,0,0,0,0,0,0,0,0,-1,1616,1772,0,0
399,-748,0,0,0,0,0,0,0,0,0,-1,1623,1772,0,0
406,-748,0,0,0,0,0,0,0,0,0,-1,1630,1772,0,0
413,-748,0,0,0,0,0,0,0,0,0,-1,1637,1772,0,0
420,-748,0,0,0,0,0,0,0,0,0,-1,1644,1772,0,0
427,-748,0,0,0,0,0,0,0,0,0,-1,1651,1772,0,0
434,-748,0,0,0,0,0,0,0,0,0,-1,1658,1772,0,0
441,-748,0,0,0,0,0,0,0,0,0,-1,1665,1772,0,0
448,-748,0,0,0,0,0,0,0,0,0,-1,1672,1772,0,0
455,-748,0,0,0,0,0,0,0,0,0,-1,1679,1772,0,0
462,-748,0,0,0,0,0,0,0,0,0,-1,1686,1772,0,0
469,-748,0,0,0,0,0,0,0,0,0,-1,1693,1772,0,0
476,-748,0,0,0,0,0,0,0,0,0,-1,1700,1772,0,0
483,-748,0,0,0,0,0,0,0,0,0,-1,1707,1772,0,0
490,-748,0,0,0,0,0,0,0,0,0,-1,1714,1772,0,0
497,-748,0,0,0,0,0,0,0,0,0,-1,1721,1772,0,0
504,-748,0,0,0,0,0,0,0,0,0,-1,1728,1772,0,0
511,-748,0,0,0,0,0,0,0,0,0,-1,1735,1772,0,0
518,-748,0,0,0,0,0,0,0,0,0,-1,1742,1772,0,0
525,-748,0,0,0,0,0,0,0,0,0,-1,1749,1772,0,0
532,-748,0,0,0,0,0,0,0,0,0,-1,1756,1772,0,0
539,-748,0,0,0,0,0,0,0,0,0,-1,1763,1772,0,0
546,-748,0,0,0,0,0,0,0,0,0,-1,1770,1772,0,0
553,-748,0,0,0,0,0,0,0,0,0,-1,1777,1772,0,0
560,-748,0,0,0,0,0,0,0,0,0,-1,1784,1772,0,0
567,-748,0,0,0,0,0,0,0,0,0,-1,1791,1772,0,0
574,-748,0,0,0,0,0,0,0,0,0,-1,1798,1772,0,0
581,-748,0,0,0,0,0,0,0,0,0,-1,1805,1772,0,0
588,-748,0,0,0,0,0,0,0,0,0,-1,1812,1772,0,0
595,-748,0,0,0,0,0,0,0,0,0,-1,1819,1772,0,0
602,-748,0,0,0,0,0,0,0,0,0,-1,1826,1772,0,0
609,-748,0,0,0,0,0,0,0,0,0,-1,1833,1772,0,0
616,-748,0,0,0,0,0,0,0,0,0,-1,1840,1772,0,0
623,-748,0,0,0,0,0,0,0,0,0,-1,1847,1772,0,0
630,-748,0,0,0,0,0,0,0,0,0,-1,1854,1772,0,0
637,-748,0,0,0,0,0,0,0,0,0,-1,1861,1772,0,0
644,-748,0,0,0,0,0,0,0,0,0,-1,1868,1772,0,0
651,-748,0,0,0,0,0,0,0,0,0,-1,1875,1772,0,0
658,-748,0,0,0,0,0,0,0,0,0,-1,1882,1772,0,0
665,-748,0,0,0,0,0,0,0,0,0,-1,1889,1772,0,0
672,-748,0,0,0,0,0,0,0,0,0,-1,1896,1772,0,0
679,-748,0,0,0,0,0,0,0,0,0,-1,1903,1772,0,0
686,-748,0,0,0,0,0,0,0,0,0,-1,1910,1772,0,0
693,-748,0,0,0,0,0,0,0,0,0,-1,1917,1772,0,0
700,-748,0,0,0,0,0,0,0,0,0,-1,1924,1772,0,0
707,-748,0,0,0,0,0,0,0,0,0,-1,1931,1772,0,0
714,-748,0,0,0,0,0,0,0,0,0,-1,1938,1772,0,0
721,-748,0,0,0,0,0,0,0,0,0,-1,1945,1772,0,0
728,-748,0,0,0,0,0,0,0,0,0,-1,1952,1772,0,0
735,-748,0,0,0,0,0,0,0,0,0,-1,1959,1772,0,0
742,-748,0,0,0,0,0,0,0,0,0,-1,1966,1772,0,0
749,-748,0,0,0,0,0,0,0,0,0,-1,1973,1772,0,0
756,-748,0,0,0,0,0,0,0,0,0,-1,1980,1772,0,0
763,-748,0,0,0,0,0,0,0,0,0,-1,1987,1772,0,0
770,-748,0,0,0,0,0,0,0,0,0,-1,1994,1772,0,0
777,-748,0,0,0,0,0,0,0,0,0,-1,2001,1772,0,0
784,-748,0,0,0,0,0,0,0,0,0,-1,2008,1772,0,0
791,-748,0,0,0,0,0,0,0,0,0,-1,2015,1772,0,0
798,-748,0,0,0,0,0,0,0,0,0,-1,2022,1772,0,0
805,-748,0,0,0,0,0,0,0,0,0,-1,2029,1772,0,0
812,-748,0,0,0,0,0,0,0,0,0,-1,2036,1772,0,0
-700,-755,0,0,0,0,0,0,0,0,0,-1,524,1779,0,0
-693,-755,0,0,0,0,0,0,0,0,0,-1,531,1779,0,0
-686,-755,0,0,0,0,0,0,0,0,0,-1,538,1779,0,0
-679,-755,0,0,0,0,0,0,0,0,0,-1,545,1779,0,0
-672,-755,0,0,0,0,0,0,0,0,0,-1,552,1779,0,0
-665,-755,0,0,0,0,0,0,0,0,0,-1,559,1779,0,0
-658,-755,0,0,0,0,0,0,0,0,0,-1,566,1779,0,0
-651,-755,0,0,0,0,0,0,0,0,0,-1,573,1779,0,0
-644,-755,0,0,0,0,0,0,0,0,0,-1,580,1779,0,0
-637,-755,0,0,0,0,0,0,0,0,0,-1,587,1779,0,0
-630,-755,0,0,0,0,0,0,0,0,0,-1,594,1779,0,0
-623,-755,0,0,0,0,0,0,0,0,0,-1,601,1779,0,0
-616,-755,0,0,0,0,0,0,0,0,0,-1,608,1779,0,0
-609,-755,0,0,0,0,0,0,0,0,0,-1,615,1779,0,0
-602,-755,0,0,0,0,0,0,0,0,0,-1,622,1779,0,0
-595,-755,0,0,0,0,0,0,0,0,0,-1,629,1779,0,0
-588,-755,0,0,0,0,0,0,0,0,0,-1,636,1779,0,0
-581,-755,0,0,0,0,0,0,0,0,0,-1,643,1779,0,0
-574,-755,0,0,0,0,0,0,0,0,0,-1,650,1779,0,0
-567,-755,0,0,0,0,0,0,0,0,0,-1,657,1779,0,0
-560,-755,0,0,0,0,0,0,0,0,0,-1,664,1779,0,0
-553,-755,0,0,0,0,0,0,0,0,0,-1,671,1779,0,0
-546,-755,0,0,0,0,0,0,0,0,0,-1,678,1779,0,0
-539,-755,0,0,0,0,0,0,0,0,0,-1,685,1779,0,0
-532,-755,0,0,0,0,0,0,0,0,0,-1,692,1779,0,0
-525,-755,0,0,0,0,0,0,0,0,0,-1,699,1779,0,0
-518,-755,0,0,0,0,0,0,0,0,0,-1,706,1779,0,0
-511,-755,0,0,0,0,0,0,0,0,0,-1,713,1779,0,0
-504,-755,0,0,0,0,0,0,0,0,0,-1,720,1779,0,0
-497,-755,0,0,0,0,0,0,0,0,0,-1,727,1779,0,0
-490,-755,0,0,0,0,0,0,0,0,0,-1,734,1779,0,0
-483,-755,0,0,0,0,0,0,0,0,0,-1,741,1779,0,0
-476,-755,0,0,0,0,0,0,0,0,0,-1,748,1779,0,0
-469,-755,0,0,0,0,0,0,0,0,0,-1,755,1779,0,0
-462,-755,0,0,0,0,0,0,0,0,0,-1,762,1779,0,0
-455,-755,0,0,0,0,0,0,0,0,0,-1,769,1779,0,0
-448,-755,0,0,0,0,0,0,0,0,0,-1,776,1779,0,0
-441,-755,0,0,0,0,0,0,0,0,0,-1,783,1779,0,0
-434,-755,0,0,0,0,0,0,0,0,0,-1,790,1779,0,0
-427,-755,0,0,0,0,0,0,0,0,0,-1,797,1779,0,0
-420,-755,0,0,0,0,0,0,0,0,0,-1,804,1779,0,0
-413,-755,0,0,0,0,0,0,0,0,0,-1,811,1779,0,0
-406,-755,0,0,0,0,0,0,0,0,0,-1,818,1779,0,0
-399,-755,0,0,0,0,0,0,0,0,0,-1,825,1779,0,0
-392,-755,0,0,0,0,0,0,0,0,0,-1,832,1779,0,0
-385,-755,0,0,0,0,0,0,0,0,0,-1,839,1779,0,0
-378,-755,0,0,0,0,0,0,0,0,0,-1,846,1779,0,0
-371,-755,0,0,0,0,0,0,0,0,0,-1,853,1779,0,0
-364,-755,0,0,0,0,0,0,0,0,0,-1,860,1779,0,0
-357,-755,0,0,0,0,0,0,0,0,0,-1,867,1779,0,0
-350,-755,0,0,0,0,0,0,0,0,0,-1,874,1779,0,0
-343,-755,0,0,0,0,0,0,0,0,0,-1,881,1779,0,0
-336,-755,0,0,0,0,0,0,0,0,0,-1,888,1779,0,0
-329,-755,0,0,0,0,0,0,0,0,0,-1,895,1779,0,0
-322,-755,0,0,0,0,0,0,0,0,0,-1,902,1779,0,0
-315,-755,0,0,0,0,0,0,0,0,0,-1,909,1779,0,0
-308,-755,0,0,0,0,0,0,0,0,0,-1,916,1779,0,0
-301,-755,0,0,0,0,0,0,0,0,0,-1,923,1779,0,0
-294,-755,0,0,0,0,0,0,0,0,0,-1,930,1779,0,0
-287,-755,0,0,0,0,0,0,0,0,0,-1,937,1779,0,0
-280,-755,0,0,0,0,0,0,0,0,0,-1,944,1779,0,0
-273,-755,0,0,0,0,0,0,0,0,0,-1,951,1779,0,0
-266,-755,0,0,0,0,0,0,0,0,0,-1,958,1779,0,0
-259,-755,0,0,0,0,0,0,0,0,0,-1,965,1779,0,0
-252,-755,0,0,0,0,0,0,0,0,0,-1,972,1779,0,0
-245,-755,0,0,0,0,0,0,0,0,0,-1,979,1779,0,0
-238,-755,0,0,0,0,0,0,0,0,0,-1,986,1779,0,0
-231,-755,0,0,0,0,0,0,0,0,0,-1,993,1779,0,0
-224,-755,0,0,0,0,0,0,0,0,0,-1,1000,1779,0,0
-217,-755,0,0,0,0,0,0,0,0,0,-1,1007,1779,0,0
-210,-755,0,0,0,0,0,0,0,0,0,-1,1014,1779,0,0
-203,-755,8.97363,30.5414,0,0,0,0,0,0,0,-1,1021,1779,8.97362,-30.5414
-196,-755,-0.84668,38.9543,0,0,0,0,0,0,0,-1,1028,1779,-0.84672,-38.9543
-189,-755,0.725098,39.8892,0,0,0,0,0,0,0,-1,1035,1779,0.725055,-39.8891
-182,-755,1.80835,40.9692,0,0,0,0,0,0,0,-1,1042,1779,1.80838,-40.9692
-175,-755,3.04749,41.9612,0,0,0,0,0,0,0,-1,1049,1779,3.0475,-41.9612
-168,-755,4.8302,42.7631,0,0,0,0,0,0,0,-1,1056,1779,4.8302,-42.7631
-161,-755,6.46777,44.0007,0,0,0,0,0,0,0,-1,1063,1779,6.46773,-44.0007
-154,-755,7.71094,44.9023,0,0,0,0,0,0,0,-1,1070,1779,7.71089,-44.9023
-147,-755,-6.45593,10.2422,0,0,0,0,0,0,0,-1,1077,1779,-6.45594,-10.2422
-140,-755,1.33521,21.3856,0,0,0,0,0,0,0,-1,1084,1779,1.33522,-21.3857
-133,-755,2.89417,21.0964,0,0,0,0,0,0,0,-1,1091,1779,2.89422,-21.0964
-126,-755,3.26404,20.9304,0,0,0,0,0,0,0,-1,1098,1779,3.26399,-20.9305
-119,-755,5.17761,21.9325,0,0,0,0,0,0,0,-1,1105,1779,5.17761,-21.9325
-112,-755,5.40247,24.5646,0,0,0,0,0,0,0,-1,1112,1779,5.40244,-24.5646
-105,-755,7.01294,20.1539,0,0,0,0,0,0,0,-1,1119,1779,7.01295,-20.154
-98,-755,5.50708,16.9628,0,0,0,0,0,0,0,-1,1126,1779,5.5071,-16.9628
-91,-755,5.51025,12.0438,0,0,0,0,0,0,0,-1,1133,1779,5.51022,-12.0439
-84,-755,0.169312,8.66443,0,0,0,0,0,0,0,-1,1140,1779,0.16932,-8.66446
-77,-755,-0.0491943,6.87439,0,0,0,0,0,0,0,-1,1147,1779,-0.0491385,-6.87443
-70,-755,4.5686,13.2169,0,0,0,0,0,0,0,-1,1154,1779,4.56865,-13.2169
-63,-755,-1.36316,7.3147,0,0,0,0,0,0,0,-1,1161,1779,-1.36312,-7.31473
-56,-755,0.0483398,5.06079,0,0,0,0,0,0,0,-1,1168,1779,0.0483138,-5.06084
-49,-755,-1.32263,5.33716,0,0,0,0,0,0,0,-1,1175,1779,-1.32264,-5.33718
-42,-755,-2.03613,4.01672,0,0,0,0,0,0,0,-1,1182,1779,-2.0361,-4.01671
-35,-755,-2.72498,2.37476,0,0,0,0,0,0,0,-1,1189,1779,-2.72502,-2.37473
-28,-755,9.74585,51.8982,0,0,0,0,0,0,0,-1,1196,1779,9.74588,-51.8981
-21,-755,9.77209,52.0872,0,0,0,0,0,0,0,-1,1203,1779,9.77212,-52.0872
-14,-755,9.73035,52.1149,0.0040973,-0.0067233,0.00142252,0.00428118,-0.00690719,0.128554,0.00651865,0.0343284,1210,1779,9.73029,-52.1148
-7,-755,9.66504,52.2023,0.0040895,-0.00781576,0.000555067,0.00411533,-0.00784159,0.0464892,0.00701418,0.0260395,1217,1779,9.66507,-52.2022
0,-755,9.60303,52.3181,0.00564025,-0.00801892,-0.00142787,0.00578792,-0.00816659,-0.103051,0.00809556,0.0159863,1224,1779,9.60299,-52.3182
7,-755,9.54468,52.4346,0.00764234,-0.00678658,-0.00400825,0.00868103,-0.00782527,-0.253561,0.00953418,0.0136136,1231,1779,9.54464,-52.4346
14,-755,9.52612,52.5787,0.00879256,-0.00532473,-0.00616815,0.0111078,-0.00764002,-0.359087,0.0108856,0.012081,1238,1779,9.5261,-52.5787
21,-755,9.4668,52.7159,0.00961731,-0.00337857,-0.00846555,0.0137912,-0.0075525,-0.458071,0.0124971,0.0163553,1245,1779,9.46674,-52.7159
28,-755,9.43091,52.7479,0.010217,-0.00101657,-0.010705,0.0166893,-0.00748887,-0.543798,0.0142922,0.0202846,1252,1779,9.43093,-52.748
35,-755,9.40344,52.8333,0.0104249,0.00143769,-0.0127359,0.0194367,-0.00757412,-0.615802,0.0160882,0.0223603,1259,1779,9.40344,-52.8333
42,-755,9.34729,52.8732,0.0101853,0.00418487,-0.0144449,0.0219382,-0.00756804,-0.683003,0.0176961,0.0164599,1266,1779,9.34731,-52.8732
49,-755,9.29431,52.8745,0.00966845,0.00674005,-0.0157158,0.0239881,-0.0075796,-0.738949,0.0190286,0.0111624,1273,1779,9.29426,-52.8745
56,-755,9.21338,52.9305,0.00864879,0.0090119,-0.0163812,0.0252126,-0.00755191,-0.790939,0.0198114,0.0101022,1280,1779,9.21332,-52.9305
63,-755,9.17236,52.9585,0.00735406,0.0109208,-0.016523,0.0257564,-0.00748152,-0.839157,0.0201336,0.0103433,1287,1779,9.1724,-52.9585
70,-755,9.15442,52.9225,0.00712572,0.01234,-0.0153974,0.0253495,-0.00588375,-0.869264,0.0191644,0.013823,1294,1779,9.15448,-52.9225
77,-755,9.0769,52.8748,0.00720401,0.0132273,-0.0134668,0.0240151,-0.00358377,-0.895406,0.0173286,0.0129474,1301,1779,9.07692,-52.8747
84,-755,9.01892,52.8853,0.00775295,0.0140686,-0.010714,0.0220805,-0.00025891,-0.92871,0.0148074,0.013557,1308,1779,9.01894,-52.8853
91,-755,8.95837,52.8252,0.00948237,0.0139246,-0.00692307,0.0189741,0.00443284,-0.940626,0.0114612,0.0137799,1315,1779,8.95832,-52.8252
98,-755,8.86841,52.7722,0.0118552,0.0134471,-0.0034998,0.0162403,0.00906197,-0.897211,0.00939734,0.0144326,1322,1779,8.86836,-52.7723
105,-755,8.86365,52.7028,0.0136795,0.0130845,0.000691726,0.014135,0.012629,0.582293,0.0089636,0.0172061,1329,1779,8.86366,-52.7028
112,-755,8.80896,52.5946,0.016126,0.0114043,0.00504885,0.0193387,0.00819156,0.566699,0.0112086,0.0227903,1336,1779,8.80901,-52.5946
119,-755,8.73987,52.4792,0.0200466,0.0105921,0.00819693,0.0247817,0.00585701,0.52384,0.0149561,0.0234679,1343,1779,8.73984,-52.4793
126,-755,8.74866,52.4553,0.0240225,0.0102908,0.0115561,0.0305985,0.00371485,0.517352,0.0192804,0.0263679,1350,1779,8.74862,-52.4553
133,-755,8.66492,52.3258,0.0273654,0.0101553,0.0144511,0.0355794,0.0019413,0.516861,0.0230997,0.027228,1357,1779,8.66496,-52.3258
140,-755,8.50586,52.1456,0.0299995,0.0102665,0.0169432,0.0397397,0.000526335,0.521736,0.0263194,0.036426,1364,1779,8.50582,-52.1456
147,-755,8.55591,52.0376,0.0318481,0.00999222,0.018846,0.0427053,-0.000864958,0.52266,0.0287629,0.0393039,1371,1779,8.55592,-52.0376
154,-755,8.49194,51.9331,0.0320259,0.00974495,0.019458,0.043307,-0.00153612,0.525407,0.0293967,0.0392027,1378,1779,8.49196,-51.9331
161,-755,8.30688,51.821,0,0,0,0,0,0,0,-1,1385,1779,8.30688,-51.8211
168,-755,3.98181,7.35901,0,0,0,0,0,0,0,-1,1392,1779,3.98184,-7.35904
175,-755,8.17065,1.34363,0,0,0,0,0,0,0,-1,1399,1779,8.1706,-1.34368
182,-755,8.09216,2.96924,0,0,0,0,0,0,0,-1,1406,1779,8.09213,-2.9693
189,-755,8.04419,4.68042,0,0,0,0,0,0,0,-1,1413,1779,8.04419,-4.68046
196,-755,7.74841,7.4541,0,0,0,0,0,0,0,-1,1420,1779,7.74842,-7.45405
203,-755,4.80554,6.88696,0,0,0,0,0,0,0,-1,1427,1779,4.80554,-6.88697
210,-755,25.1694,7.35693,0,0,0,0,0,0,0,-1,1434,1779,25.1694,-7.35688
217,-755,5.01648,16.411,0,0,0,0,0,0,0,-1,1441,1779,5.01646,-16.411
224,-755,5.18103,22.6283,0,0,0,0,0,0,0,-1,1448,1779,5.18101,-22.6283
231,-755,5.7489,30.15,0,0,0,0,0,0,0,-1,1455,1779,5.74885,-30.15
238,-755,6.56323,29.2726,0,0,0,0,0,0,0,-1,1462,1779,6.56327,-29.2726
245,-755,8.29639,28.2113,0,0,0,0,0,0,0,-1,1469,1779,8.29639,-28.2113
252,-755,6.8877,28.8699,0,0,0,0,0,0,0,-1,1476,1779,6.88774,-28.8698
259,-755,6.42676,30.8574,0,0,0,0,0,0,0,-1,1483,1779,6.42677,-30.8575
266,-755,17.255,7.86096,0,0,0,0,0,0,0,-1,1490,1779,17.255,-7.86092
273,-755,15.7932,7.59778,0,0,0,0,0,0,0,-1,1497,1779,15.7932,-7.59777
280,-755,14.6255,7.34802,0,0,0,0,0,0,0,-1,1504,1779,14.6254,-7.34806
287,-755,13.8279,7.83105,0,0,0,0,0,0,0,-1,1511,1779,13.8279,-7.83104
294,-755,12.5695,7.96814,0,0,0,0,0,0,0,-1,1518,1779,12.5694,-7.9682
301,-755,11.2659,8.27087,0,0,0,0,0,0,0,-1,1525,1779,11.2658,-8.27087
308,-755,5.17737,37.2896,0,0,0,0,0,0,0,-1,1532,1779,5.17742,-37.2896
315,-755,0.828613,31.032,0,0,0,0,0,0,0,-1,1539,1779,0.828668,-31.032
322,-755,0,0,0,0,0,0,0,0,0,-1,1546,1779,0,0
329,-755,0,0,0,0,0,0,0,0,0,-1,1553,1779,0,0
336,-755,0,0,0,0,0,0,0,0,0,-1,1560,1779,0,0
343,-755,0,0,0,0,0,0,0,0,0,-1,1567,1779,0,0
350,-755,0,0,0,0,0,0,0,0,0,-1,1574,1779,0,0
357,-755,0,0,0,0,0,0,0,0,0,-1,1581,1779,0,0
364,-755,0,0,0,0,0,0,0,0,0,-1,1588,1779,0,0
371,-755,0,0,0,0,0,0,0,0,0,-1,1595,1779,0,0
378,-755,0,0,0,0,0,0,0,0,0,-1,1602,1779,0,0
385,-755,0,0,0,0,0,0,0,0,0,-1,1609,1779,0,0
392,-755,0,0,0,0,0,0,0,0,0,-1,1616,1779,0,0
399,-755,0,0,0,0,0,0,0,0,0,-1,1623,1779,0,0
406,-755,0,0,0,0,0,0,0,0,0,-1,1630,1779,0,0
413,-755,0,0,0,0,0,0,0,0,0,-1,1637,1779,0,0
420,-755,0,0,0,0,0,0,0,0,0,-1,1644,1779,0,0
427,-755,0,0,0,0,0,0,0,0,0,-1,1651,1779,0,0
434,-755,0,0,0,0,0,0,0,0,0,-1,1658,1779,0,0
441,-755,0,0,0,0,0,0,0,0,0,-1,1665,1779,0,0
448,-755,0,0,0,0,0,0,0,0,0,-1,1672,1779,0,0
455,-755,0,0,0,0,0,0,0,0,0,-1,1679,1779,0,0
462,-755,0,0,0,0,0,0,0,0,0,-1,1686,1779,0,0
469,-755,0,0,0,0,0,0,0,0,0,-1,1693,1779,0,0
476,-755,0,0,0,0,0,0,0,0,0,-1,1700,1779,0,0
483,-755,0,0,0,0,0,0,0,0,0,-1,1707,1779,0,0
490,-755,0,0,0,0,0,0,0,0,0,-1,1714,1779,0,0
497,-755,0,0,0,0,0,0,0,0,0,-1,1721,1779,0,0
504,-755,0,0,0,0,0,0,0,0,0,-1,1728,1779,0,0
511,-755,0,0,0,0,0,0,0,0,0,-1,1735,1779,0,0
518,-755,0,0,0,0,0,0,0,0,0,-1,1742,1779,0,0
525,-755,0,0,0,0,0,0,0,0,0,-1,1749,1779,0,0
532,-755,0,0,0,0,0,0,0,0,0,-1,1756,1779,0,0
539,-755,0,0,0,0,0,0,0,0,0,-1,1763,1779,0,0
546,-755,0,0,0,0,0,0,0,0,0,-1,1770,1779,0,0
553,-755,0,0,0,0,0,0,0,0,0,-1,1777,1779,0,0
560,-755,0,0,0,0,0,0,0,0,0,-1,1784,1779,0,0
567,-755,0,0,0,0,0,0,0,0,0,-1,1791,1779,0,0
574,-755,0,0,0,0,0,0,0,0,0,-1,1798,1779,0,0
581,-755,0,0,0,0,0,0,0,0,0,-1,1805,1779,0,0
588,-755,0,0,0,0,0,0,0,0,0,-1,1812,1779,0,0
595,-755,0,0,0,0,0,0,0,0,0,-1,1819,1779,0,0
602,-755,0,0,0,0,0,0,0,0,0,-1,1826,1779,0,0
609,-755,0,0,0,0,0,0,0,0,0,-1,1833,1779,0,0
616,-755,0,0,0,0,0,0,0,0,0,-1,1840,1779,0,0
623,-755,0,0,0,0,0,0,0,0,0,-1,1847,1779,0,0
630,-755,0,0,0,0,0,0,0,0,0,-1,1854,1779,0,0
637,-755,0,0,0,0,0,0,0,0,0,-1,1861,1779,0,0
644,-755,0,0,0,0,0,0,0,0,0,-1,1868,1779,0,0
651,-755,0,0,0,0,0,0,0,0,0,-1,1875,1779,0,0
658,-755,0,0,0,0,0,0,0,0,0,-1,1882,1779,0,0
665,-755,0,0,0,0,0,0,0,0,0,-1,1889,1779,0,0
672,-755,0,0,0,0,0,0,0,0,0,-1,1896,1779,0,0
679,-755,0,0,0,0,0,0,0,0,0,-1,1903,1779,0,0
686,-755,0,0,0,0,0,0,0,0,0,-1,1910,1779,0,0
693,-755,0,0,0,0,0,0,0,0,0,-1,1917,1779,0,0
700,-755,0,0,0,0,0,0,0,0,0,-1,1924,1779,0,0
707,-755,0,0,0,0,0,0,0,0,0,-1,1931,1779,0,0
714,-755,0,0,0,0,0,0,0,0,0,-1,1938,1779,0,0
721,-755,0,0,0,0,0,0,0,0,0,-1,1945,1779,0,0
728,-755,0,0,0,0,0,0,0,0,0,-1,1952,1779,0,0
735,-755,0,0,0,0,0,0,0,0,0,-1,1959,1779,0,0
742,-755,0,0,0,0,0,0,0,0,0,-1,1966,1779,0,0
749,-755,0,0,0,0,0,0,0,0,0,-1,1973,1779,0,0
756,-755,0,0,0,0,0,0,0,0,0,-1,1980,1779,0,0
763,-755,0,0,0,0,0,0,0,0,0,-1,1987,1779,0,0
770,-755,0,0,0,0,0,0,0,0,0,-1,1994,1779,0,0
777,-755,0,0,0,0,0,0,0,0,0,-1,2001,1779,0,0
784,-755,0,0,0,0,0,0,0,0,0,-1,2008,1779,0,0
791,-755,0,0,0,0,0,0,0,0,0,-1,2015,1779,0,0
798,-755,0,0,0,0,0,0,0,0,0,-1,2022,1779,0,0
805,-755,0,0,0,0,0,0,0,0,0,-1,2029,1779,0,0
812,-755,0,0,0,0,0,0,0,0,0,-1,2036,1779,0,0
-700,-762,0,0,0,0,0,0,0,0,0,-1,524,1786,0,0
-693,-762,0,0,0,0,0,0,0,0,0,-1,531,1786,0,0
-686,-762,0,0,0,0,0,0,0,0,0,-1,538,1786,0,0
-679,-762,0,0,0,0,0,0,0,0,0,-1,545,1786,0,0
-672,-762,0,0,0,0,0,0,0,0,0,-1,552,1786,0,0
-665,-762,0,0,0,0,0,0,0,0,0,-1,559,1786,0,0
-658,-762,0,0,0,0,0,0,0,0,0,-1,566,1786,0,0
-651,-762,0,0,0,0,0,0,0,0,0,-1,573,1786,0,0
-644,-762,0,0,0,0,0,0,0,0,0,-1,580,1786,0,0
-637,-762,0,0,0,0,0,0,0,0,0,-1,587,1786,0,0
-630,-762,0,0,0,0,0,0,0,0,0,-1,594,1786,0,0
-623,-762,0,0,0,0,0,0,0,0,0,-1,601,1786,0,0
-616,-762,0,0,0,0,0,0,0,0,0,-1,608,1786,0,0
-609,-762,0,0,0,0,0,0,0,0,0,-1,615,1786,0,0
-602,-762,0,0,0,0,0,0,0,0,0,-1,622,1786,0,0
-595,-762,0,0,0,0,0,0,0,0,0,-1,629,1786,0,0
-588,-762,0,0,0,0,0,0,0,0,0,-1,636,1786,0,0
-581,-762,0,0,0,0,0,0,0,0,0,-1,643,1786,0,0
-574,-762,0,0,0,0,0,0,0,0,0,-1,650,1786,0,0
-567,-762,0,0,0,0,0,0,0,0,0,-1,657,1786,0,0
-560,-762,0,0,0,0,0,0,0,0,0,-1,664,1786,0,0
-553,-762,0,0,0,0,0,0,0,0,0,-1,671,1786,0,0
-546,-762,0,0,0,0,0,0,0,0,0,-1,678,1786,0,0
-539,-762,0,0,0,0,0,0,0,0,0,-1,685,1786,0,0
-532,-762,0,0,0,0,0,0,0,0,0,-1,692,1786,0,0
-525,-762,0,0,0,0,0,0,0,0,0,-1,699,1786,0,0
-518,-762,0,0,0,0,0,0,0,0,0,-1,706,1786,0,0
-511,-762,0,0,0,0,0,0,0,0,0,-1,713,1786,0,0
-504,-762,0,0,0,0,0,0,0,0,0,-1,720,1786,0,0
-497,-762,0,0,0,0,0,0,0,0,0,-1,727,1786,0,0
-490,-762,0,0,0,0,0,0,0,0,0,-1,734,1786,0,0
-483,-762,0,0,0,0,0,0,0,0,0,-1,741,1786,0,0
-476,-762,0,0,0,0,0,0,0,0,0,-1,748,1786,0,0
-469,-762,0,0,0,0,0,0,0,0,0,-1,755,1786,0,0
-462,-762,0,0,0,0,0,0,0,0,0,-1,762,1786,0,0
-455,-762,0,0,0,0,0,0,0,0,0,-1,769,1786,0,0
-448,-762,0,0,0,0,0,0,0,0,0,-1,776,1786,0,0
-441,-762,0,0,0,0,0,0,0,0,0,-1,783,1786,0,0
-434,-762,0,0,0,0,0,0,0,0,0,-1,790,1786,0,0
-427,-762,0,0,0,0,0,0,0,0,0,-1,797,1786,0,0
-420,-762,0,0,0,0,0,0,0,0,0,-1,804,1786,0,0
-413,-762,0,0,0,0,0,0,0,0,0,-1,811,1786,0,0
-406,-762,0,0,0,0,0,0,0,0,0,-1,818,1786,0,0
-399,-762,0,0,0,0,0,0,0,0,0,-1,825,1786,0,0
-392,-762,0,0,0,0,0,0,0,0,0,-1,832,1786,0,0
-385,-762,0,0,0,0,0,0,0,0,0,-1,839,1786,0,0
-378,-762,0,0,0,0,0,0,0,0,0,-1,846,1786,0,0
-371,-762,0,0,0,0,0,0,0,0,0,-1,853,1786,0,0
-364,-762,0,0,0,0,0,0,0,0,0,-1,860,1786,0,0
-357,-762,0,0,0,0,0,0,0,0,0,-1,867,1786,0,0
-350,-762,0,0,0,0,0,0,0,0,0,-1,874,1786,0,0
-343,-762,0,0,0,0,0,0,0,0,0,-1,881,1786,0,0
-336,-762,0,0,0,0,0,0,0,0,0,-1,888,1786,0,0
-329,-762,0,0,0,0,0,0,0,0,0,-1,895,1786,0,0
-322,-762,0,0,0,0,0,0,0,0,0,-1,902,1786,0,0
-315,-762,0,0,0,0,0,0,0,0,0,-1,909,1786,0,0
-308,-762,0,0,0,0,0,0,0,0,0,-1,916,1786,0,0
-301,-762,0,0,0,0,0,0,0,0,0,-1,923,1786,0,0
-294,-762,0,0,0,0,0,0,0,0,0,-1,930,1786,0,0
-287,-762,0,0,0,0,0,0,0,0,0,-1,937,1786,0,0
-280,-762,0,0,0,0,0,0,0,0,0,-1,944,1786,0,0
-273,-762,0,0,0,0,0,0,0,0,0,-1,951,1786,0,0
-266,-762,0,0,0,0,0,0,0,0,0,-1,958,1786,0,0
-259,-762,0,0,0,0,0,0,0,0,0,-1,965,1786,0,0
-252,-762,0,0,0,0,0,0,0,0,0,-1,972,1786,0,0
-245,-762,0,0,0,0,0,0,0,0,0,-1,979,1786,0,0
-238,-762,0,0,0,0,0,0,0,0,0,-1,986,1786,0,0
-231,-762,0,0,0,0,0,0,0,0,0,-1,993,1786,0,0
-224,-762,0,0,0,0,0,0,0,0,0,-1,1000,1786,0,0
-217,-762,0,0,0,0,0,0,0,0,0,-1,1007,1786,0,0
-210,-762,0,0,0,0,0,0,0,0,0,-1,1014,1786,0,0
-203,-762,0,0,0,0,0,0,0,0,0,-1,1021,1786,0,0
-196,-762,0,0,0,0,0,0,0,0,0,-1,1028,1786,0,0
-189,-762,0,0,0,0,0,0,0,0,0,-1,1035,1786,0,0
-182,-762,4.44226,13.2462,0,0,0,0,0,0,0,-1,1042,1786,4.44227,-13.2462
-175,-762,1.14465,40.1932,0,0,0,0,0,0,0,-1,1049,1786,1.1447,-40.1932
-168,-762,3.26794,41.3881,0,0,0,0,0,0,0,-1,1056,1786,3.26794,-41.388
-161,-762,-3.29077,11.9508,0,0,0,0,0,0,0,-1,1063,1786,-3.29076,-11.9508
-154,-762,-4.55823,11.1176,0,0,0,0,0,0,0,-1,1070,1786,-4.55828,-11.1175
-147,-762,-6.52454,9.41418,0,0,0,0,0,0,0,-1,1077,1786,-6.52458,-9.41419
-140,-762,4.99792,5.28589,0,0,0,0,0,0,0,-1,1084,1786,4.99793,-5.28587
-133,-762,0.689819,19.2172,0,0,0,0,0,0,0,-1,1091,1786,0.689867,-19.2171
-126,-762,1.48743,19.9288,0,0,0,0,0,0,0,-1,1098,1786,1.48738,-19.9289
-119,-762,2.65637,20.208,0,0,0,0,0,0,0,-1,1105,1786,2.65632,-20.208
-112,-762,6.84705,25.5554,0,0,0,0,0,0,0,-1,1112,1786,6.84706,-25.5554
-105,-762,5.57947,21.618,0,0,0,0,0,0,0,-1,1119,1786,5.57948,-21.618
-98,-762,5.0636,17.9901,0,0,0,0,0,0,0,-1,1126,1786,5.06361,-17.9901
-91,-762,4.54773,14.3622,0,0,0,0,0,0,0,-1,1133,1786,4.54774,-14.3622
-84,-762,3.96375,10.4547,0,0,0,0,0,0,0,-1,1140,1786,3.96371,-10.4548
-77,-762,0.305054,8.49365,0,0,0,0,0,0,0,-1,1147,1786,0.305008,-8.49362
-70,-762,0.183716,6.74622,0,0,0,0,0,0,0,-1,1154,1786,0.183696,-6.74621
-63,-762,-0.883057,9.08813,0,0,0,0,0,0,0,-1,1161,1786,-0.88311,-9.08808
-56,-762,-0.578979,5.10254,0,0,0,0,0,0,0,-1,1168,1786,-0.578951,-5.10249
-49,-762,-2.04541,3.66321,0,0,0,0,0,0,0,-1,1175,1786,-2.0454,-3.66319
-42,-762,-2.23462,3.474,0,0,0,0,0,0,0,-1,1182,1786,-2.23459,-3.47399
-35,-762,-3.28992,1.68164,0,0,0,0,0,0,0,-1,1189,1786,-3.28998,-1.68164
-28,-762,-3.75378,1.37769,0,0,0,0,0,0,0,-1,1196,1786,-3.75373,-1.37767
-21,-762,9.24207,52.7686,0,0,0,0,0,0,0,-1,1203,1786,9.24205,-52.7686
-14,-762,9.08081,52.8287,0,0,0,0,0,0,0,-1,1210,1786,9.08075,-52.8288
-7,-762,9.67969,52.1563,0,0,0,0,0,0,0,-1,1217,1786,9.67968,-52.1563
0,-762,9.76379,52.3811,0.00926398,-0.0113187,-0.00210812,0.00947768,-0.0115324,-0.101024,0.0121495,0.0398298,1224,1786,9.76385,-52.3811
7,-762,9.69604,52.4596,0.0113634,-0.0100694,-0.00525001,0.0125803,-0.0112863,-0.227769,0.0137862,0.0226045,1231,1786,9.69608,-52.4595
14,-762,9.68506,52.7931,0.0126922,-0.0083317,-0.00813938,0.015475,-0.0111145,-0.329435,0.0154201,0.0375765,1238,1786,9.68507,-52.793
21,-762,9.47717,52.7924,0.0135854,-0.00586156,-0.0111554,0.0186602,-0.0109363,-0.426935,0.0172804,0.046705,1245,1786,9.47721,-52.7923
28,-762,9.48206,52.7871,0.0141951,-0.00285483,-0.0141091,0.0221548,-0.0108145,-0.513641,0.0194065,0.0487421,1252,1786,9.48208,-52.7871
35,-762,9.54651,52.8723,0,0,0,0,0,0,0,-1,1259,1786,9.54655,-52.8723
42,-762,9.5072,52.9541,0,0,0,0,0,0,0,-1,1266,1786,9.50725,-52.9541
49,-762,9.32092,52.9563,0.0130345,0.00719442,-0.0206845,0.0310041,-0.0107751,-0.715276,0.025046,0.0437631,1273,1786,9.32087,-52.9562
56,-762,9.33142,52.9286,0.0116092,0.0101291,-0.0215832,0.032465,-0.0107267,-0.768261,0.0259682,0.0327185,1280,1786,9.33136,-52.9286
63,-762,9.26697,52.9362,0.00988259,0.0125538,-0.0217696,0.0330287,-0.0105923,-0.816036,0.0262716,0.0303646,1287,1786,9.26696,-52.9361
70,-762,9.13928,52.9337,0.00984537,0.0142345,-0.0201857,0.0323446,-0.00826472,-0.839545,0.0247817,0.0301589,1294,1786,9.13924,-52.9337
77,-762,9.07471,52.8608,0.0103918,0.0153442,-0.0174899,0.0305324,-0.00479631,-0.85572,0.0221276,0.0376002,1301,1786,9.07471,-52.8609
84,-762,9.1239,52.8601,0.0116183,0.0165822,-0.0136769,0.0280006,0.000199922,-0.875157,0.0186008,0.0449393,1308,1786,9.12387,-52.8601
91,-762,8.98682,52.7245,0,0,0,0,0,0,0,-1,1315,1786,8.98678,-52.7245
98,-762,8.73828,52.7042,0,0,0,0,0,0,0,-1,1322,1786,8.73824,-52.7042
105,-762,8.68494,52.6388,0.0217088,0.0159294,0.00214103,0.0224156,0.0152226,0.318829,0.0132155,0.0480755,1329,1786,8.68488,-52.6387
112,-762,8.43665,52.4508,0.0257544,0.0140916,0.00833426,0.0300948,0.00975123,0.48014,0.0177303,0.0442176,1336,1786,8.43666,-52.4508
119,-762,8.48328,52.3354,0.0317932,0.0133957,0.0130269,0.0385418,0.00664712,0.477981,0.0237904,0.0475591,1343,1786,8.48326,-52.3355
126,-762,8.51355,52.2802,0,0,0,0,0,0,0,-1,1350,1786,8.51354,-52.2801
133,-762,8.55725,52.3984,0,0,0,0,0,0,0,-1,1357,1786,8.55726,-52.3984
140,-762,8.14526,52.0747,0.0479331,0.0140498,0.0266018,0.0625299,-0.000547063,0.501857,0.0418702,0.0485346,1364,1786,8.14521,-52.0747
147,-762,8.37622,52.0591,0.0512965,0.0139601,0.0296805,0.0676916,-0.00243503,0.504673,0.0459609,0.0473356,1371,1786,8.37624,-52.0591
154,-762,8.26331,52.1045,0,0,0,0,0,0,0,-1,1378,1786,8.26329,-52.1045
161,-762,8.65051,34.8102,0,0,0,0,0,0,0,-1,1385,1786,8.65054,-34.8101
168,-762,8.19287,0.880615,0,0,0,0,0,0,0,-1,1392,1786,8.19291,-0.880603
175,-762,8.33997,1.95947,0,0,0,0,0,0,0,-1,1399,1786,8.33997,-1.95942
182,-762,8.28418,3.56482,0,0,0,0,0,0,0,-1,1406,1786,8.28415,-3.56485
189,-762,8.21179,5.23389,0,0,0,0,0,0,0,-1,1413,1786,8.21183,-5.23383
196,-762,8.05969,6.95483,0,0,0,0,0,0,0,-1,1420,1786,8.05972,-6.9548
203,-762,24.0077,7.10425,0,0,0,0,0,0,0,-1,1427,1786,24.0077,-7.10426
210,-762,23.8073,7.6499,0,0,0,0,0,0,0,-1,1434,1786,23.8073,-7.64987
217,-762,23.3193,8.24426,0,0,0,0,0,0,0,-1,1441,1786,23.3194,-8.2442
224,-762,2.65149,20.6106,0,0,0,0,0,0,0,-1,1448,1786,2.65153,-20.6106
231,-762,5.46655,23.521,0,0,0,0,0,0,0,-1,1455,1786,5.46653,-23.521
238,-762,5.35632,29.7203,0,0,0,0,0,0,0,-1,1462,1786,5.35629,-29.7203
245,-762,6.93054,27.8312,0,0,0,0,0,0,0,-1,1469,1786,6.93058,-27.8312
252,-762,6.20215,28.3027,0,0,0,0,0,0,0,-1,1476,1786,6.20211,-28.3027
259,-762,5.46472,28.8762,0,0,0,0,0,0,0,-1,1483,1786,5.46476,-28.8762
266,-762,16.451,7.67773,0,0,0,0,0,0,0,-1,1490,1786,16.4511,-7.67773
273,-762,15.287,7.5304,0,0,0,0,0,0,0,-1,1497,1786,15.2869,-7.53044
280,-762,14.1501,7.38379,0,0,0,0,0,0,0,-1,1504,1786,14.1502,-7.38376
287,-762,12.6891,7.99133,0,0,0,0,0,0,0,-1,1511,1786,12.6891,-7.99135
294,-762,12.6959,8.30371,0,0,0,0,0,0,0,-1,1518,1786,12.6959,-8.30368
301,-762,11.4222,8.84143,0,0,0,0,0,0,0,-1,1525,1786,11.4223,-8.84149
308,-762,0,0,0,0,0,0,0,0,0,-1,1532,1786,0,0
315,-762,0,0,0,0,0,0,0,0,0,-1,1539,1786,0,0
322,-762,0,0,0,0,0,0,0,0,0,-1,1546,1786,0,0
329,-762,0,0,0,0,0,0,0,0,0,-1,1553,1786,0,0
336,-762,0,0,0,0,0,0,0,0,0,-1,1560,1786,0,0
343,-762,0,0,0,0,0,0,0,0,0,-1,1567,1786,0,0
350,-762,0,0,0,0,0,0,0,0,0,-1,1574,1786,0,0
357,-762,0,0,0,0,0,0,0,0,0,-1,1581,1786,0,0
364,-762,0,0,0,0,0,0,0,0,0,-1,1588,1786,0,0
371,-762,0,0,0,0,0,0,0,0,0,-1,1595,1786,0,0
378,-762,0,0,0,0,0,0,0,0,0,-1,1602,1786,0,0
385,-762,0,0,0,0,0,0,0,0,0,-1,1609,1786,0,0
392,-762,0,0,0,0,0,0,0,0,0,-1,1616,1786,0,0
399,-762,0,0,0,0,0,0,0,0,0,-1,1623,1786,0,0
406,-762,0,0,0,0,0,0,0,0,0,-1,1630,1786,0,0
413,-762,0,0,0,0,0,0,0,0,0,-1,1637,1786,0,0
420,-762,0,0,0,0,0,0,0,0,0,-1,1644,1786,0,0
427,-762,0,0,0,0,0,0,0,0,0,-1,1651,1786,0,0
434,-762,0,0,0,0,0,0,0,0,0,-1,1658,1786,0,0
441,-762,0,0,0,0,0,0,0,0,0,-1,1665,1786,0,0
448,-762,0,0,0,0,0,0,0,0,0,-1,1672,1786,0,0
455,-762,0,0,0,0,0,0,0,0,0,-1,1679,1786,0,0
462,-762,0,0,0,0,0,0,0,0,0,-1,1686,1786,0,0
469,-762,0,0,0,0,0,0,0,0,0,-1,1693,1786,0,0
476,-762,0,0,0,0,0,0,0,0,0,-1,1700,1786,0,0
483,-762,0,0,0,0,0,0,0,0,0,-1,1707,1786,0,0
490,-762,0,0,0,0,0,0,0,0,0,-1,1714,1786,0,0
497,-762,0,0,0,0,0,0,0,0,0,-1,1721,1786,0,0
504,-762,0,0,0,0,0,0,0,0,0,-1,1728,1786,0,0
511,-762,0,0,0,0,0,0,0,0,0,-1,1735,1786,0,0
518,-762,0,0,0,0,0,0,0,0,0,-1,1742,1786,0,0
525,-762,0,0,0,0,0,0,0,0,0,-1,1749,1786,0,0
532,-762,0,0,0,0,0,0,0,0,0,-1,1756,1786,0,0
539,-762,0,0,0,0,0,0,0,0,0,-1,1763,1786,0,0
546,-762,0,0,0,0,0,0,0,0,0,-1,1770,1786,0,0
553,-762,0,0,0,0,0,0,0,0,0,-1,1777,1786,0,0
560,-762,0,0,0,0,0,0,0,0,0,-1,1784,1786,0,0
567,-762,0,0,0,0,0,0,0,0,0,-1,1791,1786,0,0
574,-762,0,0,0,0,0,0,0,0,0,-1,1798,1786,0,0
581,-762,0,0,0,0,0,0,0,0,0,-1,1805,1786,0,0
588,-762,0,0,0,0,0,0,0,0,0,-1,1812,1786,0,0
595,-762,0,0,0,0,0,0,0,0,0,-1,1819,1786,0,0
602,-762,0,0,0,0,0,0,0,0,0,-1,1826,1786,0,0
609,-762,0,0,0,0,0,0,0,0,0,-1,1833,1786,0,0
616,-762,0,0,0,0,0,0,0,0,0,-1,1840,1786,0,0
623,-762,0,0,0,0,0,0,0,0,0,-1,1847,1786,0,0
630,-762,0,0,0,0,0,0,0,0,0,-1,1854,1786,0,0
637,-762,0,0,0,0,0,0,0,0,0,-1,1861,1786,0,0
644,-762,0,0,0,0,0,0,0,0,0,-1,1868,1786,0,0
651,-762,0,0,0,0,0,0,0,0,0,-1,1875,1786,0,0
658,-762,0,0,0,0,0,0,0,0,0,-1,1882,1786,0,0
665,-762,0,0,0,0,0,0,0,0,0,-1,1889,1786,0,0
672,-762,0,0,0,0,0,0,0,0,0,-1,1896,1786,0,0
679,-762,0,0,0,0,0,0,0,0,0,-1,1903,1786,0,0
686,-762,0,0,0,0,0,0,0,0,0,-1,1910,1786,0,0
693,-762,0,0,0,0,0,0,0,0,0,-1,1917,1786,0,0
700,-762,0,0,0,0,0,0,0,0,0,-1,1924,1786,0,0
707,-762,0,0,0,0,0,0,0,0,0,-1,1931,1786,0,0
714,-762,0,0,0,0,0,0,0,0,0,-1,1938,1786,0,0
721,-762,0,0,0,0,0,0,0,0,0,-1,1945,1786,0,0
728,-762,0,0,0,0,0,0,0,0,0,-1,1952,1786,0,0
735,-762,0,0,0,0,0,0,0,0,0,-1,1959,1786,0,0
742,-762,0,0,0,0,0,0,0,0,0,-1,1966,1786,0,0
749,-762,0,0,0,0,0,0,0,0,0,-1,1973,1786,0,0
756,-762,0,0,0,0,0,0,0,0,0,-1,1980,1786,0,0
763,-762,0,0,0,0,0,0,0,0,0,-1,1987,1786,0,0
770,-762,0,0,0,0,0,0,0,0,0,-1,1994,1786,0,0
777,-762,0,0,0,0,0,0,0,0,0,-1,2001,1786,0,0
784,-762,0,0,0,0,0,0,0,0,0,-1,2008,1786,0,0
791,-762,0,0,0,0,0,0,0,0,0,-1,2015,1786,0,0
798,-762,0,0,0,0,0,0,0,0,0,-1,2022,1786,0,0
805,-762,0,0,0,0,0,0,0,0,0,-1,2029,1786,0,0
812,-762,0,0,0,0,0,0,0,0,0,-1,2036,1786,0,0
-700,-769,0,0,0,0,0,0,0,0,0,-1,524,1793,0,0
-693,-769,0,0,0,0,0,0,0,0,0,-1,531,1793,0,0
-686,-769,0,0,0,0,0,0,0,0,0,-1,538,1793,0,0
-679,-769,0,0,0,0,0,0,0,0,0,-1,545,1793,0,0
-672,-769,0,0,0,0,0,0,0,0,0,-1,552,1793,0,0
-665,-769,0,0,0,0,0,0,0,0,0,-1,559,1793,0,0
-658,-769,0,0,0,0,0,0,0,0,0,-1,566,1793,0,0
-651,-769,0,0,0,0,0,0,0,0,0,-1,573,1793,0,0
-644,-769,0,0,0,0,0,0,0,0,0,-1,580,1793,0,0
-637,-769,0,0,0,0,0,0,0,0,0,-1,587,1793,0,0
-630,-769,0,0,0,0,0,0,0,0,0,-1,594,1793,0,0
-623,-769,0,0,0,0,0,0,0,0,0,-1,601,1793,0,0
-616,-769,0,0,0,0,0,0,0,0,0,-1,608,1793,0,0
-609,-769,0,0,0,0,0,0,0,0,0,-1,615,1793,0,0
-602,-769,0,0,0,0,0,0,0,0,0,-1,622,1793,0,0
-595,-769,0,0,0,0,0,0,0,0,0,-1,629,1793,0,0
-588,-769,0,0,0,0,0,0,0,0,0,-1,636,1793,0,0
-581,-769,0,0,0,0,0,0,0,0,0,-1,643,1793,0,0
-574,-769,0,0,0,0,0,0,0,0,0,-1,650,1793,0,0
-567,-769,0,0,0,0,0,0,0,0,0,-1,657,1793,0,0
-560,-769,0,0,0,0,0,0,0,0,0,-1,664,1793,0,0
-553,-769,0,0,0,0,0,0,0,0,0,-1,671,1793,0,0
-546,-769,0,0,0,0,0,0,0,0,0,-1,678,1793,0,0
-539,-769,0,0,0,0,0,0,0,0,0,-1,685,1793,0,0
-532,-769,0,0,0,0,0,0,0,0,0,-1,692,1793,0,0
-525,-769,0,0,0,0,0,0,0,0,0,-1,699,1793,0,0
-518,-769,0,0,0,0,0,0,0,0,0,-1,706,1793,0,0
-511,-769,0,0,0,0,0,0,0,0,0,-1,713,1793,0,0
-504,-769,0,0,0,0,0,0,0,0,0,-1,720,1793,0,0
-497,-769,0,0,0,0,0,0,0,0,0,-1,727,1793,0,0
-490,-769,0,0,0,0,0,0,0,0,0,-1,734,1793,0,0
-483,-769,0,0,0,0,0,0,0,0,0,-1,741,1793,0,0
-476,-769,0,0,0,0,0,0,0,0,0,-1,748,1793,0,0
-469,-769,0,0,0,0,0,0,0,0,0,-1,755,1793,0,0
-462,-769,0,0,0,0,0,0,0,0,0,-1,762,1793,0,0
-455,-769,0,0,0,0,0,0,0,0,0,-1,769,1793,0,0
-448,-769,0,0,0,0,0,0,0,0,0,-1,776,1793,0,0
-441,-769,0,0,0,0,0,0,0,0,0,-1,783,1793,0,0
-434,-769,0,0,0,0,0,0,0,0,0,-1,790,1793,0,0
-427,-769,0,0,0,0,0,0,0,0,0,-1,797,1793,0,0
-420,-769,0,0,0,0,0,0,0,0,0,-1,804,1793,0,0
-413,-769,0,0,0,0,0,0,0,0,0,-1,811,1793,0,0
-406,-769,0,0,0,0,0,0,0,0,0,-1,818,1793,0,0
-399,-769,0,0,0,0,0,0,0,0,0,-1,825,1793,0,0
-392,-769,0,0,0,0,0,0,0,0,0,-1,832,1793,0,0
-385,-769,0,0,0,0,0,0,0,0,0,-1,839,1793,0,0
-378,-769,0,0,0,0,0,0,0,0,0,-1,846,1793,0,0
-371,-769,0,0,0,0,0,0,0,0,0,-1,853,1793,0,0
-364,-769,0,0,0,0,0,0,0,0,0,-1,860,1793,0,0
-357,-769,0,0,0,0,0,0,0,0,0,-1,867,1793,0,0
-350,-769,0,0,0,0,0,0,0,0,0,-1,874,1793,0,0
-343,-769,0,0,0,0,0,0,0,0,0,-1,881,1793,0,0
-336,-769,0,0,0,0,0,0,0,0,0,-1,888,1793,0,0
-329,-769,0,0,0,0,0,0,0,0,0,-1,895,1793,0,0
-322,-769,0,0,0,0,0,0,0,0,0,-1,902,1793,0,0
-315,-769,0,0,0,0,0,0,0,0,0,-1,909,1793,0,0
-308,-769,0,0,0,0,0,0,0,0,0,-1,916,1793,0,0
-301,-769,0,0,0,0,0,0,0,0,0,-1,923,1793,0,0
-294,-769,0,0,0,0,0,0,0,0,0,-1,930,1793,0,0
-287,-769,0,0,0,0,0,0,0,0,0,-1,937,1793,0,0
-280,-769,0,0,0,0,0,0,0,0,0,-1,944,1793,0,0
-273,-769,0,0,0,0,0,0,0,0,0,-1,951,1793,0,0
-266,-769,0,0,0,0,0,0,0,0,0,-1,958,1793,0,0
-259,-769,0,0,0,0,0,0,0,0,0,-1,965,1793,0,0
-252,-769,0,0,0,0,0,0,0,0,0,-1,972,1793,0,0
-245,-769,0,0,0,0,0,0,0,0,0,-1,979,1793,0,0
-238,-769,0,0,0,0,0,0,0,0,0,-1,986,1793,0,0
-231,-769,0,0,0,0,0,0,0,0,0,-1,993,1793,0,0
-224,-769,0,0,0,0,0,0,0,0,0,-1,1000,1793,0,0
-217,-769,0,0,0,0,0,0,0,0,0,-1,1007,1793,0,0
-210,-769,0,0,0,0,0,0,0,0,0,-1,1014,1793,0,0
-203,-769,0,0,0,0,0,0,0,0,0,-1,1021,1793,0,0
-196,-769,0,0,0,0,0,0,0,0,0,-1,1028,1793,0,0
-189,-769,0,0,0,0,0,0,0,0,0,-1,1035,1793,0,0
-182,-769,0,0,0,0,0,0,0,0,0,-1,1042,1793,0,0
-175,-769,0,0,0,0,0,0,0,0,0,-1,1049,1793,0,0
-168,-769,0,0,0,0,0,0,0,0,0,-1,1056,1793,0,0
-161,-769,-3.61145,12.4761,0,0,0,0,0,0,0,-1,1063,1793,-3.6114,-12.476
-154,-769,-0.813232,5.32874,0,0,0,0,0,0,0,-1,1070,1793,-0.813269,-5.32872
-147,-769,4.26587,4.7002,0,0,0,0,0,0,0,-1,1077,1793,4.26593,-4.70022
-140,-769,4.10376,5.28589,0,0,0,0,0,0,0,-1,1084,1793,4.10371,-5.28584
-133,-769,6.422,8.21777,0,0,0,0,0,0,0,-1,1091,1793,6.42198,-8.21773
-126,-769,-0.352295,19.326,0,0,0,0,0,0,0,-1,1098,1793,-0.352235,-19.326
-119,-769,6.01685,16.2577,0,0,0,0,0,0,0,-1,1105,1793,6.01689,-16.2576
-112,-769,5.76416,27.2615,0,0,0,0,0,0,0,-1,1112,1793,5.7642,-27.2615
-105,-769,4.97009,22.8479,0,0,0,0,0,0,0,-1,1119,1793,4.97006,-22.8479
-98,-769,4.69373,18.9142,0,0,0,0,0,0,0,-1,1126,1793,4.69376,-18.9142
-91,-769,4.41748,14.9805,0,0,0,0,0,0,0,-1,1133,1793,4.41746,-14.9805
-84,-769,3.2207,12.4565,0,0,0,0,0,0,0,-1,1140,1793,3.22066,-12.4565
-77,-769,2.48816,8.98486,0,0,0,0,0,0,0,-1,1147,1793,2.48815,-8.98489
-70,-769,1.04944,11.9852,0,0,0,0,0,0,0,-1,1154,1793,1.04947,-11.9852
-63,-769,-2.39709,9.60339,0,0,0,0,0,0,0,-1,1161,1793,-2.39706,-9.6034
-56,-769,-5.84363,7.22156,0,0,0,0,0,0,0,-1,1168,1793,-5.84359,-7.22157
-49,-769,-2.41443,3.95471,0,0,0,0,0,0,0,-1,1175,1793,-2.41446,-3.95471
-42,-769,-3.1991,2.64941,0,0,0,0,0,0,0,-1,1182,1793,-3.19914,-2.64944
-35,-769,-3.50183,1.73389,0,0,0,0,0,0,0,-1,1189,1793,-3.50189,-1.7339
-28,-769,-3.96985,1.14075,0,0,0,0,0,0,0,-1,1196,1793,-3.96985,-1.14078
-21,-769,9.71558,46.531,0,0,0,0,0,0,0,-1,1203,1793,9.71561,-46.5311
-14,-769,8.44434,53.3977,0,0,0,0,0,0,0,-1,1210,1793,8.44432,-53.3977
-7,-769,9.97217,51.4353,0,0,0,0,0,0,0,-1,1217,1793,9.97222,-51.4353
0,-769,9.90393,52.4398,0,0,0,0,0,0,0,-1,1224,1793,9.90397,-52.4398
7,-769,9.66711,52.3286,0.0154872,-0.0142357,-0.00616195,0.016714,-0.0154625,-0.196526,0.0185818,0.0459779,1231,1793,9.6671,-52.3287
14,-769,9.9104,53.0234,0.0170028,-0.012358,-0.00996115,0.0200633,-0.0154185,-0.298087,0.0205438,0.0438012,1238,1793,9.91045,-53.0234
21,-769,9.52246,52.8075,0,0,0,0,0,0,0,-1,1245,1793,9.52246,-52.8075
28,-769,9.52368,52.7177,0,0,0,0,0,0,0,-1,1252,1793,9.52372,-52.7177
35,-769,9.3562,53.5,0.0184936,-0.00170102,-0.0211125,0.0317991,-0.0150065,-0.562344,0.0275969,0.0471309,1259,1793,9.35618,-53.5001
42,-769,9.33667,53.3595,0,0,0,0,0,0,0,-1,1266,1793,9.33668,-53.3595
49,-769,9.36035,53.1293,0.0165718,0.00680605,-0.0260187,0.0381619,-0.014784,-0.692643,0.0315459,0.0461649,1273,1793,9.36036,-53.1293
56,-769,9.64917,52.1427,0.0146682,0.0104401,-0.0271909,0.0398272,-0.0147188,-0.746602,0.0325853,0.044314,1280,1793,9.64922,-52.1427
63,-769,9.66443,52.1552,0.0124617,0.0133955,-0.0274348,0.0403674,-0.0145102,-0.793907,0.032835,0.0443442,1287,1793,9.66442,-52.1551
70,-769,9.41223,52.3141,0.0128155,0.0152883,-0.0252774,0.0393595,-0.0112557,-0.809835,0.0306875,0.0436626,1294,1793,9.41229,-52.3141
77,-769,9.5177,52.2849,0.0141609,0.0166011,-0.0216385,0.0370539,-0.00629185,-0.813562,0.0270449,0.0467905,1301,1793,9.51769,-52.2849
84,-769,9.21753,52.8214,0.0164157,0.0183329,-0.0165708,0.0339728,0.000775846,-0.81429,0.0223944,0.0472034,1308,1793,9.21755,-52.8214
91,-769,9.13464,52.7805,0.0208858,0.0183211,-0.0097325,0.0294201,0.00978683,-0.719894,0.0172999,0.0457111,1315,1793,9.1346,-52.7806
98,-769,9.05957,52.7808,0,0,0,0,0,0,0,-1,1322,1793,9.05957,-52.7808
105,-769,8.43127,52.3965,0,0,0,0,0,0,0,-1,1329,1793,8.43129,-52.3964
112,-769,8.07568,52.1261,0.0385986,0.0166512,0.0128675,0.0445363,0.0107135,0.432334,0.0268421,0.0471715,1336,1793,8.07571,-52.1261
119,-769,8.2168,51.506,0.0473621,0.0163151,0.0195654,0.0568143,0.00686299,0.450041,0.0358084,0.0458928,1343,1793,8.2168,-51.5059
126,-769,8.70398,50.9358,0,0,0,0,0,0,0,-1,1350,1793,8.70403,-50.9358
133,-769,9.13367,50.4395,0,0,0,0,0,0,0,-1,1357,1793,9.13372,-50.4395
140,-769,8.07056,52.0863,0,0,0,0,0,0,0,-1,1364,1793,8.07054,-52.0862
147,-769,8.12866,52.0146,0,0,0,0,0,0,0,-1,1371,1793,8.12865,-52.0146
154,-769,7.76904,34.4832,0,0,0,0,0,0,0,-1,1378,1793,7.7691,-34.4832
161,-769,6.57019,1.53223,0,0,0,0,0,0,0,-1,1385,1793,6.57019,-1.53226
168,-769,8.27637,0.756958,0,0,0,0,0,0,0,-1,1392,1793,8.27639,-0.756944
175,-769,8.47144,2.41174,0,0,0,0,0,0,0,-1,1399,1793,8.47147,-2.4118
182,-769,8.41479,4.05994,0,0,0,0,0,0,0,-1,1406,1793,8.41479,-4.05997
189,-769,8.25049,5.68433,0,0,0,0,0,0,0,-1,1413,1793,8.25054,-5.68428
196,-769,7.97729,7.42847,0,0,0,0,0,0,0,-1,1420,1793,7.9773,-7.42848
203,-769,22.0977,6.73889,0,0,0,0,0,0,0,-1,1427,1793,22.0977,-6.7389
210,-769,22.1115,7.77246,0,0,0,0,0,0,0,-1,1434,1793,22.1115,-7.77248
217,-769,22.4723,8.79102,0,0,0,0,0,0,0,-1,1441,1793,22.4723,-8.79099
224,-769,22.1348,9.35278,0,0,0,0,0,0,0,-1,1448,1793,22.1348,-9.35283
231,-769,3.13318,19.7184,0,0,0,0,0,0,0,-1,1455,1793,3.13323,-19.7184
238,-769,5.74512,18.6597,0,0,0,0,0,0,0,-1,1462,1793,5.74512,-18.6596
245,-769,5.80798,22.87,0,0,0,0,0,0,0,-1,1469,1793,5.80796,-22.87
252,-769,6.20837,28.394,0,0,0,0,0,0,0,-1,1476,1793,6.20833,-28.3941
259,-769,10.974,17.7698,0,0,0,0,0,0,0,-1,1483,1793,10.974,-17.7698
266,-769,15.8488,7.3905,0,0,0,0,0,0,0,-1,1490,1793,15.8488,-7.39046
273,-769,14.8075,7.56152,0,0,0,0,0,0,0,-1,1497,1793,14.8075,-7.56152
280,-769,13.6519,7.43054,0,0,0,0,0,0,0,-1,1504,1793,13.6518,-7.43058
287,-769,0,0,0,0,0,0,0,0,0,-1,1511,1793,0,0
294,-769,0,0,0,0,0,0,0,0,0,-1,1518,1793,0,0
301,-769,0,0,0,0,0,0,0,0,0,-1,1525,1793,0,0
308,-769,0,0,0,0,0,0,0,0,0,-1,1532,1793,0,0
315,-769,0,0,0,0,0,0,0,0,0,-1,1539,1793,0,0
322,-769,0,0,0,0,0,0,0,0,0,-1,1546,1793,0,0
329,-769,0,0,0,0,0,0,0,0,0,-1,1553,1793,0,0
336,-769,0,0,0,0,0,0,0,0,0,-1,1560,1793,0,0
343,-769,0,0,0,0,0,0,0,0,0,-1,1567,1793,0,0
350,-769,0,0,0,0,0,0,0,0,0,-1,1574,1793,0,0
357,-769,0,0,0,0,0,0,0,0,0,-1,1581,1793,0,0
364,-769,0,0,0,0,0,0,0,0,0,-1,1588,1793,0,0
371,-769,0,0,0,0,0,0,0,0,0,-1,1595,1793,0,0
378,-769,0,0,0,0,0,0,0,0,0,-1,1602,1793,0,0
385,-769,0,0,0,0,0,0,0,0,0,-1,1609,1793,0,0
392,-769,0,0,0,0,0,0,0,0,0,-1,1616,1793,0,0
399,-769,0,0,0,0,0,0,0,0,0,-1,1623,1793,0,0
406,-769,0,0,0,0,0,0,0,0,0,-1,1630,1793,0,0
413,-769,0,0,0,0,0,0,0,0,0,-1,1637,1793,0,0
420,-769,0,0,0,0,0,0,0,0,0,-1,1644,1793,0,0
427,-769,0,0,0,0,0,0,0,0,0,-1,1651,1793,0,0
434,-769,0,0,0,0,0,0,0,0,0,-1,1658,1793,0,0
441,-769,0,0,0,0,0,0,0,0,0,-1,1665,1793,0,0
448,-769,0,0,0,0,0,0,0,0,0,-1,1672,1793,0,0
455,-769,0,0,0,0,0,0,0,0,0,-1,1679,1793,0,0
462,-769,0,0,0,0,0,0,0,0,0,-1,1686,1793,0,0
469,-769,0,0,0,0,0,0,0,0,0,-1,1693,1793,0,0
476,-769,0,0,0,0,0,0,0,0,0,-1,1700,1793,0,0
483,-769,0,0,0,0,0,0,0,0,0,-1,1707,1793,0,0
490,-769,0,0,0,0,0,0,0,0,0,-1,1714,1793,0,0
497,-769,0,0,0,0,0,0,0,0,0,-1,1721,1793,0,0
504,-769,0,0,0,0,0,0,0,0,0,-1,1728,1793,0,0
511,-769,0,0,0,0,0,0,0,0,0,-1,1735,1793,0,0
518,-769,0,0,0,0,0,0,0,0,0,-1,1742,1793,0,0
525,-769,0,0,0,0,0,0,0,0,0,-1,1749,1793,0,0
532,-769,0,0,0,0,0,0,0,0,0,-1,1756,1793,0,0
539,-769,0,0,0,0,0,0,0,0,0,-1,1763,1793,0,0
546,-769,0,0,0,0,0,0,0,0,0,-1,1770,1793,0,0
553,-769,0,0,0,0,0,0,0,0,0,-1,1777,1793,0,0
560,-769,0,0,0,0,0,0,0,0,0,-1,1784,1793,0,0
567,-769,0,0,0,0,0,0,0,0,0,-1,1791,1793,0,0
574,-769,0,0,0,0,0,0,0,0,0,-1,1798,1793,0,0
581,-769,0,0,0,0,0,0,0,0,0,-1,1805,1793,0,0
588,-769,0,0,0,0,0,0,0,0,0,-1,1812,1793,0,0
595,-769,0,0,0,0,0,0,0,0,0,-1,1819,1793,0,0
602,-769,0,0,0,0,0,0,0,0,0,-1,1826,1793,0,0
609,-769,0,0,0,0,0,0,0,0,0,-1,1833,1793,0,0
616,-769,0,0,0,0,0,0,0,0,0,-1,1840,1793,0,0
623,-769,0,0,0,0,0,0,0,0,0,-1,1847,1793,0,0
630,-769,0,0,0,0,0,0,0,0,0,-1,1854,1793,0,0
637,-769,0,0,0,0,0,0,0,0,0,-1,1861,1793,0,0
644,-769,0,0,0,0,0,0,0,0,0,-1,1868,1793,0,0
651,-769,0,0,0,0,0,0,0,0,0,-1,1875,1793,0,0
658,-769,0,0,0,0,0,0,0,0,0,-1,1882,1793,0,0
665,-769,0,0,0,0,0,0,0,0,0,-1,1889,1793,0,0
672,-769,0,0,0,0,0,0,0,0,0,-1,1896,1793,0,0
679,-769,0,0,0,0,0,0,0,0,0,-1,1903,1793,0,0
686,-769,0,0,0,0,0,0,0,0,0,-1,1910,1793,0,0
693,-769,0,0,0,0,0,0,0,0,0,-1,1917,1793,0,0
700,-769,0,0,0,0,0,0,0,0,0,-1,1924,1793,0,0
707,-769,0,0,0,0,0,0,0,0,0,-1,1931,1793,0,0
714,-769,0,0,0,0,0,0,0,0,0,-1,1938,1793,0,0
721,-769,0,0,0,0,0,0,0,0,0,-1,1945,1793,0,0
728,-769,0,0,0,0,0,0,0,0,0,-1,1952,1793,0,0
735,-769,0,0,0,0,0,0,0,0,0,-1,1959,1793,0,0
742,-769,0,0,0,0,0,0,0,0,0,-1,1966,1793,0,0
749,-769,0,0,0,0,0,0,0,0,0,-1,1973,1793,0,0
756,-769,0,0,0,0,0,0,0,0,0,-1,1980,1793,0,0
763,-769,0,0,0,0,0,0,0,0,0,-1,1987,1793,0,0
770,-769,0,0,0,0,0,0,0,0,0,-1,1994,1793,0,0
777,-769,0,0,0,0,0,0,0,0,0,-1,2001,1793,0,0
784,-769,0,0,0,0,0,0,0,0,0,-1,2008,1793,0,0
791,-769,0,0,0,0,0,0,0,0,0,-1,2015,1793,0,0
798,-769,0,0,0,0,0,0,0,0,0,-1,2022,1793,0,0
805,-769,0,0,0,0,0,0,0,0,0,-1,2029,1793,0,0
812,-769,0,0,0,0,0,0,0,0,0,-1,2036,1793,0,0
-700,-776,0,0,0,0,0,0,0,0,0,-1,524,1800,0,0
-693,-776,0,0,0,0,0,0,0,0,0,-1,531,1800,0,0
-686,-776,0,0,0,0,0,0,0,0,0,-1,538,1800,0,0
-679,-776,0,0,0,0,0,0,0,0,0,-1,545,1800,0,0
-672,-776,0,0,0,0,0,0,0,0,0,-1,552,1800,0,0
-665,-776,0,0,0,0,0,0,0,0,0,-1,559,1800,0,0
-658,-776,0,0,0,0,0,0,0,0,0,-1,566,1800,0,0
-651,-776,0,0,0,0,0,0,0,0,0,-1,573,1800,0,0
-644,-776,0,0,0,0,0,0,0,0,0,-1,580,1800,0,0
-637,-776,0,0,0,0,0,0,0,0,0,-1,587,1800,0,0
-630,-776,0,0,0,0,0,0,0,0,0,-1,594,1800,0,0
-623,-776,0,0,0,0,0,0,0,0,0,-1,601,1800,0,0
-616,-776,0,0,0,0,0,0,0,0,0,-1,608,1800,0,0
-609,-776,0,0,0,0,0,0,0,0,0,-1,615,1800,0,0
-602,-776,0,0,0,0,0,0,0,0,0,-1,622,1800,0,0
-595,-776,0,0,0,0,0,0,0,0,0,-1,629,1800,0,0
-588,-776,0,0,0,0,0,0,0,0,0,-1,636,1800,0,0
-581,-776,0,0,0,0,0,0,0,0,0,-1,643,1800,0,0
-574,-776,0,0,0,0,0,0,0,0,0,-1,650,1800,0,0
-567,-776,0,0,0,0,0,0,0,0,0,-1,657,1800,0,0
-560,-776,0,0,0,0,0,0,0,0,0,-1,664,1800,0,0
-553,-776,0,0,0,0,0,0,0,0,0,-1,671,1800,0,0
-546,-776,0,0,0,0,0,0,0,0,0,-1,678,1800,0,0
-539,-776,0,0,0,0,0,0,0,0,0,-1,685,1800,0,0
-532,-776,0,0,0,0,0,0,0,0,0,-1,692,1800,0,0
-525,-776,0,0,0,0,0,0,0,0,0,-1,699,1800,0,0
-518,-776,0,0,0,0,0,0,0,0,0,-1,706,1800,0,0
-511,-776,0,0,0,0,0,0,0,0,0,-1,713,1800,0,0
-504,-776,0,0,0,0,0,0,0,0,0,-1,720,1800,0,0
-497,-776,0,0,0,0,0,0,0,0,0,-1,727,1800,0,0
-490,-776,0,0,0,0,0,0,0,0,0,-1,734,1800,0,0
-483,-776,0,0,0,0,0,0,0,0,0,-1,741,1800,0,0
-476,-776,0,0,0,0,0,0,0,0,0,-1,748,1800,0,0
-469,-776,0,0,0,0,0,0,0,0,0,-1,755,1800,0,0
-462,-776,0,0,0,0,0,0,0,0,0,-1,762,1800,0,0
-455,-776,0,0,0,0,0,0,0,0,0,-1,769,1800,0,0
-448,-776,0,0,0,0,0,0,0,0,0,-1,776,1800,0,0
-441,-776,0,0,0,0,0,0,0,0,0,-1,783,1800,0,0
-434,-776,0,0,0,0,0,0,0,0,0,-1,790,1800,0,0
-427,-776,0,0,0,0,0,0,0,0,0,-1,797,1800,0,0
-420,-776,0,0,0,0,0,0,0,0,0,-1,804,1800,0,0
-413,-776,0,0,0,0,0,0,0,0,0,-1,811,1800,0,0
-406,-776,0,0,0,0,0,0,0,0,0,-1,818,1800,0,0
-399,-776,0,0,0,0,0,0,0,0,0,-1,825,1800,0,0
-392,-776,0,0,0,0,0,0,0,0,0,-1,832,1800,0,0
-385,-776,0,0,0,0,0,0,0,0,0,-1,839,1800,0,0
-378,-776,0,0,0,0,0,0,0,0,0,-1,846,1800,0,0
-371,-776,0,0,0,0,0,0,0,0,0,-1,853,1800,0,0
-364,-776,0,0,0,0,0,0,0,0,0,-1,860,1800,0,0
-357,-776,0,0,0,0,0,0,0,0,0,-1,867,1800,0,0
-350,-776,0,0,0,0,0,0,0,0,0,-1,874,1800,0,0
-343,-776,0,0,0,0,0,0,0,0,0,-1,881,1800,0,0
-336,-776,0,0,0,0,0,0,0,0,0,-1,888,1800,0,0
-329,-776,0,0,0,0,0,0,0,0,0,-1,895,1800,0,0
-322,-776,0,0,0,0,0,0,0,0,0,-1,902,1800,0,0
-315,-776,0,0,0,0,0,0,0,0,0,-1,909,1800,0,0
-308,-776,0,0,0,0,0,0,0,0,0,-1,916,1800,0,0
-301,-776,0,0,0,0,0,0,0,0,0,-1,923,1800,0,0
-294,-776,0,0,0,0,0,0,0,0,0,-1,930,1800,0,0
-287,-776,0,0,0,0,0,0,0,0,0,-1,937,1800,0,0
-280,-776,0,0,0,0,0,0,0,0,0,-1,944,1800,0,0
-273,-776,0,0,0,0,0,0,0,0,0,-1,951,1800,0,0
-266,-776,0,0,0,0,0,0,0,0,0,-1,958,1800,0,0
-259,-776,0,0,0,0,0,0,0,0,0,-1,965,1800,0,0
-252,-776,0,0,0,0,0,0,0,0,0,-1,972,1800,0,0
-245,-776,0,0,0,0,0,0,0,0,0,-1,979,1800,0,0
-238,-776,0,0,0,0,0,0,0,0,0,-1,986,1800,0,0
-231,-776,0,0,0,0,0,0,0,0,0,-1,993,1800,0,0
-224,-776,0,0,0,0,0,0,0,0,0,-1,1000,1800,0,0
-217,-776,0,0,0,0,0,0,0,0,0,-1,1007,1800,0,0
-210,-776,0,0,0,0,0,0,0,0,0,-1,1014,1800,0,0
-203,-776,0,0,0,0,0,0,0,0,0,-1,1021,1800,0,0
-196,-776,0,0,0,0,0,0,0,0,0,-1,1028,1800,0,0
-189,-776,0,0,0,0,0,0,0,0,0,-1,1035,1800,0,0
-182,-776,0,0,0,0,0,0,0,0,0,-1,1042,1800,0,0
-175,-776,0,0,0,0,0,0,0,0,0,-1,1049,1800,0,0
-168,-776,0,0,0,0,0,0,0,0,0,-1,1056,1800,0,0
-161,-776,0,0,0,0,0,0,0,0,0,-1,1063,1800,0,0
-154,-776,0,0,0,0,0,0,0,0,0,-1,1070,1800,0,0
-147,-776,0,0,0,0,0,0,0,0,0,-1,1077,1800,0,0
-140,-776,2.98499,5.20911,0,0,0,0,0,0,0,-1,1084,1800,2.98493,-5.2091
-133,-776,6.72363,9.35828,0,0,0,0,0,0,0,-1,1091,1800,6.72358,-9.35824
-126,-776,6.55029,13.7832,0,0,0,0,0,0,0,-1,1098,1800,6.55029,-13.7832
-119,-776,5.72107,13.7787,0,0,0,0,0,0,0,-1,1105,1800,5.72106,-13.7787
-112,-776,6.84998,20.4421,0,0,0,0,0,0,0,-1,1112,1800,6.84993,-20.4421
-105,-776,4.46863,24.6742,0,0,0,0,0,0,0,-1,1119,1800,4.46868,-24.6742
-98,-776,4.31616,19.7659,0,0,0,0,0,0,0,-1,1126,1800,4.31619,-19.7659
-91,-776,3.30225,18.134,0,0,0,0,0,0,0,-1,1133,1800,3.30222,-18.134
-84,-776,2.67932,14.3162,0,0,0,0,0,0,0,-1,1140,1800,2.67926,-14.3161
-77,-776,0.580078,11.1272,0,0,0,0,0,0,0,-1,1147,1800,0.58002,-11.1272
-70,-776,-0.562866,12.3163,0,0,0,0,0,0,0,-1,1154,1800,-0.562897,-12.3163
-63,-776,-3.96106,9.97656,0,0,0,0,0,0,0,-1,1161,1800,-3.961,-9.97654
-56,-776,-7.35913,7.63672,0,0,0,0,0,0,0,-1,1168,1800,-7.3591,-7.63676
-49,-776,-7.62952,3.1908,0,0,0,0,0,0,0,-1,1175,1800,-7.62955,-3.19076
-42,-776,-3.41272,3.0249,0,0,0,0,0,0,0,-1,1182,1800,-3.41269,-3.02488
-35,-776,-3.71753,1.63635,0,0,0,0,0,0,0,-1,1189,1800,-3.71755,-1.63631
-28,-776,-4.03979,0.716064,0,0,0,0,0,0,0,-1,1196,1800,-4.03977,-0.716055
-21,-776,10.446,50.6422,0,0,0,0,0,0,0,-1,1203,1800,10.4461,-50.6422
-14,-776,9.45532,50.5637,0,0,0,0,0,0,0,-1,1210,1800,9.4553,-50.5638
-7,-776,9.51624,50.9768,0,0,0,0,0,0,0,-1,1217,1800,9.5162,-50.9769
0,-776,9.45374,51.3453,0,0,0,0,0,0,0,-1,1224,1800,9.45377,-51.3453
7,-776,9.6106,52.1879,0,0,0,0,0,0,0,-1,1231,1800,9.61061,-52.1878
14,-776,10.0325,53.207,0,0,0,0,0,0,0,-1,1238,1800,10.0325,-53.2071
21,-776,8.97668,54.3666,0.0221852,-0.0139697,-0.0161855,0.0283723,-0.0201567,-0.365118,0.0281518,0.0438079,1245,1800,8.97665,-54.3666
28,-776,9.18628,54.0046,0.0227012,-0.00960629,-0.0209983,0.0330404,-0.0199454,-0.457532,0.0309012,0.0457692,1252,1800,9.18624,-54.0046
35,-776,9.32935,53.7407,0.0224231,-0.0047658,-0.0253578,0.0376006,-0.0199433,-0.539342,0.0337403,0.0458022,1259,1800,9.32929,-53.7407
42,-776,9.7417,53.3827,0,0,0,0,0,0,0,-1,1266,1800,9.74165,-53.3826
49,-776,9.49878,53.1904,0.019698,0.00536859,-0.0313715,0.0447126,-0.019646,-0.673132,0.0380853,0.0470867,1273,1800,9.4988,-53.1904
56,-776,10.2949,51.2262,0.0172695,0.00969057,-0.0328515,0.0465493,-0.0195893,-0.727977,0.0392284,0.043631,1280,1800,10.2949,-51.2262
63,-776,10.3181,51.6082,0.0145653,0.0131621,-0.0331735,0.0470446,-0.0193172,-0.774825,0.039413,0.0452028,1287,1800,10.3182,-51.6081
70,-776,10.3484,51.9492,0.0155791,0.0152093,-0.0303285,0.0457232,-0.0149349,-0.78235,0.0364937,0.0482011,1294,1800,10.3484,-51.9493
77,-776,9.77991,51.5958,0,0,0,0,0,0,0,-1,1301,1800,9.77994,-51.5959
84,-776,9.49194,52.6488,0,0,0,0,0,0,0,-1,1308,1800,9.49195,-52.6488
91,-776,9.40173,52.6946,0.0283589,0.019178,-0.0104956,0.035224,0.0123129,-0.57925,0.0206412,0.0453405,1315,1800,9.40178,-52.6946
98,-776,9.33557,52.7927,0,0,0,0,0,0,0,-1,1322,1800,9.33556,-52.7927
105,-776,9.2384,52.7361,0,0,0,0,0,0,0,-1,1329,1800,9.2384,-52.7361
112,-776,8.16174,51.9612,0.0546528,0.01897,0.0187313,0.0626799,0.010943,0.404862,0.0386587,0.0464712,1336,1800,8.1618,-51.9612
119,-776,8.41443,52.0249,0.0667782,0.0192888,0.0279376,0.0796984,0.00636856,0.433175,0.0511418,0.0447081,1343,1800,8.41442,-52.0249
126,-776,8.97363,50.448,0,0,0,0,0,0,0,-1,1350,1800,8.97364,-50.448
133,-776,9.41956,49.933,0,0,0,0,0,0,0,-1,1357,1800,9.41957,-49.933
140,-776,9.79456,49.4994,0,0,0,0,0,0,0,-1,1364,1800,9.7945,-49.4994
147,-776,9.96863,47.0739,0,0,0,0,0,0,0,-1,1371,1800,9.96859,-47.0739
154,-776,38.4338,21.854,0,0,0,0,0,0,0,-1,1378,1800,38.4339,-21.854
161,-776,6.50293,1.1731,0,0,0,0,0,0,0,-1,1385,1800,6.5029,-1.17313
168,-776,8.44971,1.22913,0,0,0,0,0,0,0,-1,1392,1800,8.44974,-1.22915
175,-776,8.61523,2.87061,0,0,0,0,0,0,0,-1,1399,1800,8.6152,-2.87063
182,-776,8.54065,4.60645,0,0,0,0,0,0,0,-1,1406,1800,8.5407,-4.60643
189,-776,8.35303,6.28223,0,0,0,0,0,0,0,-1,1413,1800,8.35297,-6.28225
196,-776,8.0387,8.21704,0,0,0,0,0,0,0,-1,1420,1800,8.03865,-8.217
203,-776,7.91736,9.79919,0,0,0,0,0,0,0,-1,1427,1800,7.91735,-9.79922
210,-776,20.2479,7.85718,0,0,0,0,0,0,0,-1,1434,1800,20.248,-7.85719
217,-776,21.5171,9.3418,0,0,0,0,0,0,0,-1,1441,1800,21.5171,-9.34182
224,-776,3.09253,14.9313,0,0,0,0,0,0,0,-1,1448,1800,3.09254,-14.9313
231,-776,20.8671,9.21057,0,0,0,0,0,0,0,-1,1455,1800,20.867,-9.21054
238,-776,20.7511,9.05847,0,0,0,0,0,0,0,-1,1462,1800,20.7511,-9.05848
245,-776,3.80823,15.4108,0,0,0,0,0,0,0,-1,1469,1800,3.80826,-15.4108
252,-776,8.57837,20.2009,0,0,0,0,0,0,0,-1,1476,1800,8.57841,-20.2009
259,-776,14.1882,7.69055,0,0,0,0,0,0,0,-1,1483,1800,14.1882,-7.69061
266,-776,0,0,0,0,0,0,0,0,0,-1,1490,1800,0,0
273,-776,0,0,0,0,0,0,0,0,0,-1,1497,1800,0,0
280,-776,0,0,0,0,0,0,0,0,0,-1,1504,1800,0,0
287,-776,0,0,0,0,0,0,0,0,0,-1,1511,1800,0,0
294,-776,0,0,0,0,0,0,0,0,0,-1,1518,1800,0,0
301,-776,0,0,0,0,0,0,0,0,0,-1,1525,1800,0,0
308,-776,0,0,0,0,0,0,0,0,0,-1,1532,1800,0,0
315,-776,0,0,0,0,0,0,0,0,0,-1,1539,1800,0,0
322,-776,0,0,0,0,0,0,0,0,0,-1,1546,1800,0,0
329,-776,0,0,0,0,0,0,0,0,0,-1,1553,1800,0,0
336,-776,0,0,0,0,0,0,0,0,0,-1,1560,1800,0,0
343,-776,0,0,0,0,0,0,0,0,0,-1,1567,1800,0,0
350,-776,0,0,0,0,0,0,0,0,0,-1,1574,1800,0,0
357,-776,0,0,0,0,0,0,0,0,0,-1,1581,1800,0,0
364,-776,0,0,0,0,0,0,0,0,0,-1,1588,1800,0,0
371,-776,0,0,0,0,0,0,0,0,0,-1,1595,1800,0,0
378,-776,0,0,0,0,0,0,0,0,0,-1,1602,1800,0,0
385,-776,0,0,0,0,0,0,0,0,0,-1,1609,1800,0,0
392,-776,0,0,0,0,0,0,0,0,0,-1,1616,1800,0,0
399,-776,0,0,0,0,0,0,0,0,0,-1,1623,1800,0,0
406,-776,0,0,0,0,0,0,0,0,0,-1,1630,1800,0,0
413,-776,0,0,0,0,0,0,0,0,0,-1,1637,1800,0,0
420,-776,0,0,0,0,0,0,0,0,0,-1,1644,1800,0,0
427,-776,0,0,0,0,0,0,0,0,0,-1,1651,1800,0,0
434,-776,0,0,0,0,0,0,0,0,0,-1,1658,1800,0,0
441,-776,0,0,0,0,0,0,0,0,0,-1,1665,1800,0,0
448,-776,0,0,0,0,0,0,0,0,0,-1,1672,1800,0,0
455,-776,0,0,0,0,0,0,0,0,0,-1,1679,1800,0,0
462,-776,0,0,0,0,0,0,0,0,0,-1,1686,1800,0,0
469,-776,0,0,0,0,0,0,0,0,0,-1,1693,1800,0,0
476,-776,0,0,0,0,0,0,0,0,0,-1,1700,1800,0,0
483,-776,0,0,0,0,0,0,0,0,0,-1,1707,1800,0,0
490,-776,0,0,0,0,0,0,0,0,0,-1,1714,1800,0,0
497,-776,0,0,0,0,0,0,0,0,0,-1,1721,1800,0,0
504,-776,0,0,0,0,0,0,0,0,0,-1,1728,1800,0,0
511,-776,0,0,0,0,0,0,0,0,0,-1,1735,1800,0,0
518,-776,0,0,0,0,0,0,0,0,0,-1,1742,1800,0,0
525,-776,0,0,0,0,0,0,0,0,0,-1,1749,1800,0,0
532,-776,0,0,0,0,0,0,0,0,0,-1,1756,1800,0,0
539,-776,0,0,0,0,0,0,0,0,0,-1,1763,1800,0,0
546,-776,0,0,0,0,0,0,0,0,0,-1,1770,1800,0,0
553,-776,0,0,0,0,0,0,0,0,0,-1,1777,1800,0,0
560,-776,0,0,0,0,0,0,0,0,0,-1,1784,1800,0,0
567,-776,0,0,0,0,0,0,0,0,0,-1,1791,1800,0,0
574,-776,0,0,0,0,0,0,0,0,0,-1,1798,1800,0,0
581,-776,0,0,0,0,0,0,0,0,0,-1,1805,1800,0,0
588,-776,0,0,0,0,0,0,0,0,0,-1,1812,1800,0,0
595,-776,0,0,0,0,0,0,0,0,0,-1,1819,1800,0,0
602,-776,0,0,0,0,0,0,0,0,0,-1,1826,1800,0,0
609,-776,0,0,0,0,0,0,0,0,0,-1,1833,1800,0,0
616,-776,0,0,0,0,0,0,0,0,0,-1,1840,1800,0,0
623,-776,0,0,0,0,0,0,0,0,0,-1,1847,1800,0,0
630,-776,0,0,0,0,0,0,0,0,0,-1,1854,1800,0,0
637,-776,0,0,0,0,0,0,0,0,0,-1,1861,1800,0,0
644,-776,0,0,0,0,0,0,0,0,0,-1,1868,1800,0,0
651,-776,0,0,0,0,0,0,0,0,0,-1,1875,1800,0,0
658,-776,0,0,0,0,0,0,0,0,0,-1,1882,1800,0,0
665,-776,0,0,0,0,0,0,0,0,0,-1,1889,1800,0,0
672,-776,0,0,0,0,0,0,0,0,0,-1,1896,1800,0,0
679,-776,0,0,0,0,0,0,0,0,0,-1,1903,1800,0,0
686,-776,0,0,0,0,0,0,0,0,0,-1,1910,1800,0,0
693,-776,0,0,0,0,0,0,0,0,0,-1,1917,1800,0,0
700,-776,0,0,0,0,0,0,0,0,0,-1,1924,1800,0,0
707,-776,0,0,0,0,0,0,0,0,0,-1,1931,1800,0,0
714,-776,0,0,0,0,0,0,0,0,0,-1,1938,1800,0,0
721,-776,0,0,0,0,0,0,0,0,0,-1,1945,1800,0,0
728,-776,0,0,0,0,0,0,0,0,0,-1,1952,1800,0,0
735,-776,0,0,0,0,0,0,0,0,0,-1,1959,1800,0,0
742,-776,0,0,0,0,0,0,0,0,0,-1,1966,1800,0,0
749,-776,0,0,0,0,0,0,0,0,0,-1,1973,1800,0,0
756,-776,0,0,0,0,0,0,0,0,0,-1,1980,1800,0,0
763,-776,0,0,0,0,0,0,0,0,0,-1,1987,1800,0,0
770,-776,0,0,0,0,0,0,0,0,0,-1,1994,1800,0,0
777,-776,0,0,0,0,0,0,0,0,0,-1,2001,1800,0,0
784,-776,0,0,0,0,0,0,0,0,0,-1,2008,1800,0,0
791,-776,0,0,0,0,0,0,0,0,0,-1,2015,1800,0,0
798,-776,0,0,0,0,0,0,0,0,0,-1,2022,1800,0,0
805,-776,0,0,0,0,0,0,0,0,0,-1,2029,1800,0,0
812,-776,0,0,0,0,0,0,0,0,0,-1,2036,1800,0,0
-700,-783,0,0,0,0,0,0,0,0,0,-1,524,1807,0,0
-693,-783,0,0,0,0,0,0,0,0,0,-1,531,1807,0,0
-686,-783,0,0,0,0,0,0,0,0,0,-1,538,1807,0,0
-679,-783,0,0,0,0,0,0,0,0,0,-1,545,1807,0,0
-672,-783,0,0,0,0,0,0,0,0,0,-1,552,1807,0,0
-665,-783,0,0,0,0,0,0,0,0,0,-1,559,1807,0,0
-658,-783,0,0,0,0,0,0,0,0,0,-1,566,1807,0,0
-651,-783,0,0,0,0,0,0,0,0,0,-1,573,1807,0,0
-644,-783,0,0,0,0,0,0,0,0,0,-1,580,1807,0,0
-637,-783,0,0,0,0,0,0,0,0,0,-1,587,1807,0,0
-630,-783,0,0,0,0,0,0,0,0,0,-1,594,1807,0,0
-623,-783,0,0,0,0,0,0,0,0,0,-1,601,1807,0,0
-616,-783,0,0,0,0,0,0,0,0,0,-1,608,1807,0,0
-609,-783,0,0,0,0,0,0,0,0,0,-1,615,1807,0,0
-602,-783,0,0,0,0,0,0,0,0,0,-1,622,1807,0,0
-595,-783,0,0,0,0,0,0,0,0,0,-1,629,1807,0,0
-588,-783,0,0,0,0,0,0,0,0,0,-1,636,1807,0,0
-581,-783,0,0,0,0,0,0,0,0,0,-1,643,1807,0,0
-574,-783,0,0,0,0,0,0,0,0,0,-1,650,1807,0,0
-567,-783,0,0,0,0,0,0,0,0,0,-1,657,1807,0,0
-560,-783,0,0,0,0,0,0,0,0,0,-1,664,1807,0,0
-553,-783,0,0,0,0,0,0,0,0,0,-1,671,1807,0,0
-546,-783,0,0,0,0,0,0,0,0,0,-1,678,1807,0,0
-539,-783,0,0,0,0,0,0,0,0,0,-1,685,1807,0,0
-532,-783,0,0,0,0,0,0,0,0,0,-1,692,1807,0,0
-525,-783,0,0,0,0,0,0,0,0,0,-1,699,1807,0,0
-518,-783,0,0,0,0,0,0,0,0,0,-1,706,1807,0,0
-511,-783,0,0,0,0,0,0,0,0,0,-1,713,1807,0,0
-504,-783,0,0,0,0,0,0,0,0,0,-1,720,1807,0,0
-497,-783,0,0,0,0,0,0,0,0,0,-1,727,1807,0,0
-490,-783,0,0,0,0,0,0,0,0,0,-1,734,1807,0,0
-483,-783,0,0,0,0,0,0,0,0,0,-1,741,1807,0,0
-476,-783,0,0,0,0,0,0,0,0,0,-1,748,1807,0,0
-469,-783,0,0,0,0,0,0,0,0,0,-1,755,1807,0,0
-462,-783,0,0,0,0,0,0,0,0,0,-1,762,1807,0,0
-455,-783,0,0,0,0,0,0,0,0,0,-1,769,1807,0,0
-448,-783,0,0,0,0,0,0,0,0,0,-1,776,1807,0,0
-441,-783,0,0,0,0,0,0,0,0,0,-1,783,1807,0,0
-434,-783,0,0,0,0,0,0,0,0,0,-1,790,1807,0,0
-427,-783,0,0,0,0,0,0,0,0,0,-1,797,1807,0,0
-420,-783,0,0,0,0,0,0,0,0,0,-1,804,1807,0,0
-413,-783,0,0,0,0,0,0,0,0,0,-1,811,1807,0,0
-406,-783,0,0,0,0,0,0,0,0,0,-1,818,1807,0,0
-399,-783,0,0,0,0,0,0,0,0,0,-1,825,1807,0,0
-392,-783,0,0,0,0,0,0,0,0,0,-1,832,1807,0,0
-385,-783,0,0,0,0,0,0,0,0,0,-1,839,1807,0,0
-378,-783,0,0,0,0,0,0,0,0,0,-1,846,1807,0,0
-371,-783,0,0,0,0,0,0,0,0,0,-1,853,1807,0,0
-364,-783,0,0,0,0,0,0,0,0,0,-1,860,1807,0,0
-357,-783,0,0,0,0,0,0,0,0,0,-1,867,1807,0,0
-350,-783,0,0,0,0,0,0,0,0,0,-1,874,1807,0,0
-343,-783,0,0,0,0,0,0,0,0,0,-1,881,1807,0,0
-336,-783,0,0,0,0,0,0,0,0,0,-1,888,1807,0,0
-329,-783,0,0,0,0,0,0,0,0,0,-1,895,1807,0,0
-322,-783,0,0,0,0,0,0,0,0,0,-1,902,1807,0,0
-315,-783,0,0,0,0,0,0,0,0,0,-1,909,1807,0,0
-308,-783,0,0,0,0,0,0,0,0,0,-1,916,1807,0,0
-301,-783,0,0,0,0,0,0,0,0,0,-1,923,1807,0,0
-294,-783,0,0,0,0,0,0,0,0,0,-1,930,1807,0,0
-287,-783,0,0,0,0,0,0,0,0,0,-1,937,1807,0,0
-280,-783,0,0,0,0,0,0,0,0,0,-1,944,1807,0,0
-273,-783,0,0,0,0,0,0,0,0,0,-1,951,1807,0,0
-266,-783,0,0,0,0,0,0,0,0,0,-1,958,1807,0,0
-259,-783,0,0,0,0,0,0,0,0,0,-1,965,1807,0,0
-252,-783,0,0,0,0,0,0,0,0,0,-1,972,1807,0,0
-245,-783,0,0,0,0,0,0,0,0,0,-1,979,1807,0,0
-238,-783,0,0,0,0,0,0,0,0,0,-1,986,1807,0,0
-231,-783,0,0,0,0,0,0,0,0,0,-1,993,1807,0,0
-224,-783,0,0,0,0,0,0,0,0,0,-1,1000,1807,0,0
-217,-783,0,0,0,0,0,0,0,0,0,-1,1007,1807,0,0
-210,-783,0,0,0,0,0,0,0,0,0,-1,1014,1807,0,0
-203,-783,0,0,0,0,0,0,0,0,0,-1,1021,1807,0,0
-196,-783,0,0,0,0,0,0,0,0,0,-1,1028,1807,0,0
-189,-783,0,0,0,0,0,0,0,0,0,-1,1035,1807,0,0
-182,-783,0,0,0,0,0,0,0,0,0,-1,1042,1807,0,0
-175,-783,0,0,0,0,0,0,0,0,0,-1,1049,1807,0,0
-168,-783,0,0,0,0,0,0,0,0,0,-1,1056,1807,0,0
-161,-783,0,0,0,0,0,0,0,0,0,-1,1063,1807,0,0
-154,-783,0,0,0,0,0,0,0,0,0,-1,1070,1807,0,0
-147,-783,0,0,0,0,0,0,0,0,0,-1,1077,1807,0,0
-140,-783,0,0,0,0,0,0,0,0,0,-1,1084,1807,0,0
-133,-783,0,0,0,0,0,0,0,0,0,-1,1091,1807,0,0
-126,-783,0,0,0,0,0,0,0,0,0,-1,1098,1807,0,0
-119,-783,0,0,0,0,0,0,0,0,0,-1,1105,1807,0,0
-112,-783,5.33936,14.7699,0,0,0,0,0,0,0,-1,1112,1807,5.33931,-14.7699
-105,-783,6.44263,21.2224,0,0,0,0,0,0,0,-1,1119,1807,6.44263,-21.2224
-98,-783,5.54773,20.5695,0,0,0,0,0,0,0,-1,1126,1807,5.54772,-20.5695
-91,-783,2.6106,20.2491,0,0,0,0,0,0,0,-1,1133,1807,2.61056,-20.2492
-84,-783,-0.0491943,14.5743,0,0,0,0,0,0,0,-1,1140,1807,-0.0491562,-14.5743
-77,-783,0.332764,12.7788,0,0,0,0,0,0,0,-1,1147,1807,0.332743,-12.7788
-70,-783,-1.93176,5.12817,0,0,0,0,0,0,0,-1,1154,1807,-1.93171,-5.12813
-63,-783,-5.31702,10.54,0,0,0,0,0,0,0,-1,1161,1807,-5.31703,-10.54
-56,-783,-6.26135,6.9679,0,0,0,0,0,0,0,-1,1168,1807,-6.26136,-6.96785
-49,-783,-3.17688,4.59705,0,0,0,0,0,0,0,-1,1175,1807,-3.17685,-4.5971
-42,-783,-3.72876,3.1405,0,0,0,0,0,0,0,-1,1182,1807,-3.72874,-3.14055
-35,-783,-3.97046,1.59399,0,0,0,0,0,0,0,-1,1189,1807,-3.97041,-1.59401
-28,-783,-4.12195,0.270386,0,0,0,0,0,0,0,-1,1196,1807,-4.12197,-0.270408
-21,-783,10.2384,50.5275,0,0,0,0,0,0,0,-1,1203,1807,10.2384,-50.5274
-14,-783,9.26831,50.5885,0,0,0,0,0,0,0,-1,1210,1807,9.26829,-50.5885
-7,-783,9.34741,50.967,0,0,0,0,0,0,0,-1,1217,1807,9.34747,-50.9671
0,-783,9.36401,51.2856,0,0,0,0,0,0,0,-1,1224,1807,9.36407,-51.2856
7,-783,9.41003,51.6932,0,0,0,0,0,0,0,-1,1231,1807,9.41005,-51.6933
14,-783,8.76221,54.9246,0,0,0,0,0,0,0,-1,1238,1807,8.76226,-54.9246
21,-783,8.72302,54.6978,0.0255636,-0.0196147,-0.0177823,0.031723,-0.0257741,-0.333444,0.0332552,0.0470573,1245,1807,8.72296,-54.6977
28,-783,9.13196,54.3239,0.0259435,-0.0145977,-0.0237935,0.0369304,-0.0255846,-0.432589,0.0362906,0.0468435,1252,1807,9.13198,-54.3238
35,-783,9.15039,54.0199,0.0253408,-0.00895168,-0.0291357,0.0420011,-0.025612,-0.519439,0.0394168,0.0487301,1259,1807,9.15036,-54.0199
42,-783,10.1349,52.9681,0,0,0,0,0,0,0,-1,1266,1807,10.1348,-52.9681
49,-783,9.23962,53.3235,0.0216681,0.00263499,-0.0362904,0.049669,-0.0253659,-0.657169,0.0440723,0.0473239,1273,1807,9.23968,-53.3235
56,-783,10.7584,50.4298,0.0187201,0.00758194,-0.0381099,0.0516657,-0.0253636,-0.712845,0.0453289,0.0453488,1280,1807,10.7584,-50.4298
63,-783,10.8337,50.7852,0,0,0,0,0,0,0,-1,1287,1807,10.8338,-50.7852
70,-783,10.8387,51.338,0,0,0,0,0,0,0,-1,1294,1807,10.8387,-51.338
77,-783,9.82959,52.6404,0,0,0,0,0,0,0,-1,1301,1807,9.82954,-52.6404
84,-783,9.64185,52.6193,0,0,0,0,0,0,0,-1,1308,1807,9.64181,-52.6192
91,-783,9.64075,52.6755,0,0,0,0,0,0,0,-1,1315,1807,9.64069,-52.6755
98,-783,9.63953,52.7318,0,0,0,0,0,0,0,-1,1322,1807,9.63957,-52.7318
105,-783,9.47778,52.6278,0,0,0,0,0,0,0,-1,1329,1807,9.47776,-52.6279
112,-783,8.54858,51.6423,0,0,0,0,0,0,0,-1,1336,1807,8.54856,-51.6423
119,-783,6.97827,46.4343,0,0,0,0,0,0,0,-1,1343,1807,6.97825,-46.4343
126,-783,8.44324,48.7944,0,0,0,0,0,0,0,-1,1350,1807,8.44328,-48.7944
133,-783,9.34143,49.5348,0.122145,0.0277044,0.0637478,0.154256,-0.00440722,0.466626,0.104338,0.0481532,1357,1807,9.3414,-49.5348
140,-783,10.2681,50.3599,0.134654,0.0300552,0.074925,0.173728,-0.00901816,0.480699,0.118938,0.047847,1364,1807,10.2681,-50.3599
147,-783,11.1248,51.0695,0,0,0,0,0,0,0,-1,1371,1807,11.1248,-51.0694
154,-783,38.2109,17.545,0,0,0,0,0,0,0,-1,1378,1807,38.2109,-17.545
161,-783,39.5087,17.5449,0,0,0,0,0,0,0,-1,1385,1807,39.5087,-17.545
168,-783,8.62561,1.79944,0,0,0,0,0,0,0,-1,1392,1807,8.62561,-1.79946
175,-783,8.78699,3.40857,0,0,0,0,0,0,0,-1,1399,1807,8.78697,-3.40854
182,-783,8.70984,5.14661,0,0,0,0,0,0,0,-1,1406,1807,8.70989,-5.14666
189,-783,8.55762,6.79871,0,0,0,0,0,0,0,-1,1413,1807,8.55766,-6.79872
196,-783,8.25488,8.66626,0,0,0,0,0,0,0,-1,1420,1807,8.25492,-8.66628
203,-783,7.86755,10.5735,0,0,0,0,0,0,0,-1,1427,1807,7.8676,-10.5734
210,-783,5.6969,8.99231,0,0,0,0,0,0,0,-1,1434,1807,5.69693,-8.99234
217,-783,5.28503,3.80872,0,0,0,0,0,0,0,-1,1441,1807,5.285,-3.80868
224,-783,3.22571,6.62903,0,0,0,0,0,0,0,-1,1448,1807,3.2257,-6.62907
231,-783,4.27942,4.56262,0,0,0,0,0,0,0,-1,1455,1807,4.27948,-4.56267
238,-783,0,0,0,0,0,0,0,0,0,-1,1462,1807,0,0
245,-783,0,0,0,0,0,0,0,0,0,-1,1469,1807,0,0
252,-783,0,0,0,0,0,0,0,0,0,-1,1476,1807,0,0
259,-783,0,0,0,0,0,0,0,0,0,-1,1483,1807,0,0
266,-783,0,0,0,0,0,0,0,0,0,-1,1490,1807,0,0
273,-783,0,0,0,0,0,0,0,0,0,-1,1497,1807,0,0
280,-783,0,0,0,0,0,0,0,0,0,-1,1504,1807,0,0
287,-783,0,0,0,0,0,0,0,0,0,-1,1511,1807,0,0
294,-783,0,0,0,0,0,0,0,0,0,-1,1518,1807,0,0
301,-783,0,0,0,0,0,0,0,0,0,-1,1525,1807,0,0
308,-783,0,0,0,0,0,0,0,0,0,-1,1532,1807,0,0
315,-783,0,0,0,0,0,0,0,0,0,-1,1539,1807,0,0
322,-783,0,0,0,0,0,0,0,0,0,-1,1546,1807,0,0
329,-783,0,0,0,0,0,0,0,0,0,-1,1553,1807,0,0
336,-783,0,0,0,0,0,0,0,0,0,-1,1560,1807,0,0
343,-783,0,0,0,0,0,0,0,0,0,-1,1567,1807,0,0
350,-783,0,0,0,0,0,0,0,0,0,-1,1574,1807,0,0
357,-783,0,0,0,0,0,0,0,0,0,-1,1581,1807,0,0
364,-783,0,0,0,0,0,0,0,0,0,-1,1588,1807,0,0
371,-783,0,0,0,0,0,0,0,0,0,-1,1595,1807,0,0
378,-783,0,0,0,0,0,0,0,0,0,-1,1602,1807,0,0
385,-783,0,0,0,0,0,0,0,0,0,-1,1609,1807,0,0
392,-783,0,0,0,0,0,0,0,0,0,-1,1616,1807,0,0
399,-783,0,0,0,0,0,0,0,0,0,-1,1623,1807,0,0
406,-783,0,0,0,0,0,0,0,0,0,-1,1630,1807,0,0
413,-783,0,0,0,0,0,0,0,0,0,-1,1637,1807,0,0
420,-783,0,0,0,0,0,0,0,0,0,-1,1644,1807,0,0
427,-783,0,0,0,0,0,0,0,0,0,-1,1651,1807,0,0
434,-783,0,0,0,0,0,0,0,0,0,-1,1658,1807,0,0
441,-783,0,0,0,0,0,0,0,0,0,-1,1665,1807,0,0
448,-783,0,0,0,0,0,0,0,0,0,-1,1672,1807,0,0
455,-783,0,0,0,0,0,0,0,0,0,-1,1679,1807,0,0
462,-783,0,0,0,0,0,0,0,0,0,-1,1686,1807,0,0
469,-783,0,0,0,0,0,0,0,0,0,-1,1693,1807,0,0
476,-783,0,0,0,0,0,0,0,0,0,-1,1700,1807,0,0
483,-783,0,0,0,0,0,0,0,0,0,-1,1707,1807,0,0
490,-783,0,0,0,0,0,0,0,0,0,-1,1714,1807,0,0
497,-783,0,0,0,0,0,0,0,0,0,-1,1721,1807,0,0
504,-783,0,0,0,0,0,0,0,0,0,-1,1728,1807,0,0
511,-783,0,0,0,0,0,0,0,0,0,-1,1735,1807,0,0
518,-783,0,0,0,0,0,0,0,0,0,-1,1742,1807,0,0
525,-783,0,0,0,0,0,0,0,0,0,-1,1749,1807,0,0
532,-783,0,0,0,0,0,0,0,0,0,-1,1756,1807,0,0
539,-783,0,0,0,0,0,0,0,0,0,-1,1763,1807,0,0
546,-783,0,0,0,0,0,0,0,0,0,-1,1770,1807,0,0
553,-783,0,0,0,0,0,0,0,0,0,-1,1777,1807,0,0
560,-783,0,0,0,0,0,0,0,0,0,-1,1784,1807,0,0
567,-783,0,0,0,0,0,0,0,0,0,-1,1791,1807,0,0
574,-783,0,0,0,0,0,0,0,0,0,-1,1798,1807,0,0
581,-783,0,0,0,0,0,0,0,0,0,-1,1805,1807,0,0
588,-783,0,0,0,0,0,0,0,0,0,-1,1812,1807,0,0
595,-783,0,0,0,0,0,0,0,0,0,-1,1819,1807,0,0
602,-783,0,0,0,0,0,0,0,0,0,-1,1826,1807,0,0
609,-783,0,0,0,0,0,0,0,0,0,-1,1833,1807,0,0
616,-783,0,0,0,0,0,0,0,0,0,-1,1840,1807,0,0
623,-783,0,0,0,0,0,0,0,0,0,-1,1847,1807,0,0
630,-783,0,0,0,0,0,0,0,0,0,-1,1854,1807,0,0
637,-783,0,0,0,0,0,0,0,0,0,-1,1861,1807,0,0
644,-783,0,0,0,0,0,0,0,0,0,-1,1868,1807,0,0
651,-783,0,0,0,0,0,0,0,0,0,-1,1875,1807,0,0
658,-783,0,0,0,0,0,0,0,0,0,-1,1882,1807,0,0
665,-783,0,0,0,0,0,0,0,0,0,-1,1889,1807,0,0
672,-783,0,0,0,0,0,0,0,0,0,-1,1896,1807,0,0
679,-783,0,0,0,0,0,0,0,0,0,-1,1903,1807,0,0
686,-783,0,0,0,0,0,0,0,0,0,-1,1910,1807,0,0
693,-783,0,0,0,0,0,0,0,0,0,-1,1917,1807,0,0
700,-783,0,0,0,0,0,0,0,0,0,-1,1924,1807,0,0
707,-783,0,0,0,0,0,0,0,0,0,-1,1931,1807,0,0
714,-783,0,0,0,0,0,0,0,0,0,-1,1938,1807,0,0
721,-783,0,0,0,0,0,0,0,0,0,-1,1945,1807,0,0
728,-783,0,0,0,0,0,0,0,0,0,-1,1952,1807,0,0
735,-783,0,0,0,0,0,0,0,0,0,-1,1959,1807,0,0
742,-783,0,0,0,0,0,0,0,0,0,-1,1966,1807,0,0
749,-783,0,0,0,0,0,0,0,0,0,-1,1973,1807,0,0
756,-783,0,0,0,0,0,0,0,0,0,-1,1980,1807,0,0
763,-783,0,0,0,0,0,0,0,0,0,-1,1987,1807,0,0
770,-783,0,0,0,0,0,0,0,0,0,-1,1994,1807,0,0
777,-783,0,0,0,0,0,0,0,0,0,-1,2001,1807,0,0
784,-783,0,0,0,0,0,0,0,0,0,-1,2008,1807,0,0
791,-783,0,0,0,0,0,0,0,0,0,-1,2015,1807,0,0
798,-783,0,0,0,0,0,0,0,0,0,-1,2022,1807,0,0
805,-783,0,0,0,0,0,0,0,0,0,-1,2029,1807,0,0
812,-783,0,0,0,0,0,0,0,0,0,-1,2036,1807,0,0
-700,-790,0,0,0,0,0,0,0,0,0,-1,524,1814,0,0
-693,-790,0,0,0,0,0,0,0,0,0,-1,531,1814,0,0
-686,-790,0,0,0,0,0,0,0,0,0,-1,538,1814,0,0
-679,-790,0,0,0,0,0,0,0,0,0,-1,545,1814,0,0
-672,-790,0,0,0,0,0,0,0,0,0,-1,552,1814,0,0
-665,-790,0,0,0,0,0,0,0,0,0,-1,559,1814,0,0
-658,-790,0,0,0,0,0,0,0,0,0,-1,566,1814,0,0
-651,-790,0,0,0,0,0,0,0,0,0,-1,573,1814,0,0
-644,-790,0,0,0,0,0,0,0,0,0,-1,580,1814,0,0
-637,-790,0,0,0,0,0,0,0,0,0,-1,587,1814,0,0
-630,-790,0,0,0,0,0,0,0,0,0,-1,594,1814,0,0
-623,-790,0,0,0,0,0,0,0,0,0,-1,601,1814,0,0
-616,-790,0,0,0,0,0,0,0,0,0,-1,608,1814,0,0
-609,-790,0,0,0,0,0,0,0,0,0,-1,615,1814,0,0
-602,-790,0,0,0,0,0,0,0,0,0,-1,622,1814,0,0
-595,-790,0,0,0,0,0,0,0,0,0,-1,629,1814,0,0
-588,-790,0,0,0,0,0,0,0,0,0,-1,636,1814,0,0
-581,-790,0,0,0,0,0,0,0,0,0,-1,643,1814,0,0
-574,-790,0,0,0,0,0,0,0,0,0,-1,650,1814,0,0
-567,-790,0,0,0,0,0,0,0,0,0,-1,657,1814,0,0
-560,-790,0,0,0,0,0,0,0,0,0,-1,664,1814,0,0
-553,-790,0,0,0,0,0,0,0,0,0,-1,671,1814,0,0
-546,-790,0,0,0,0,0,0,0,0,0,-1,678,1814,0,0
-539,-790,0,0,0,0,0,0,0,0,0,-1,685,1814,0,0
-532,-790,0,0,0,0,0,0,0,0,0,-1,692,1814,0,0
-525,-790,0,0,0,0,0,0,0,0,0,-1,699,1814,0,0
-518,-790,0,0,0,0,0,0,0,0,0,-1,706,1814,0,0
-511,-790,0,0,0,0,0,0,0,0,0,-1,713,1814,0,0
-504,-790,0,0,0,0,0,0,0,0,0,-1,720,1814,0,0
-497,-790,0,0,0,0,0,0,0,0,0,-1,727,1814,0,0
-490,-790,0,0,0,0,0,0,0,0,0,-1,734,1814,0,0
-483,-790,0,0,0,0,0,0,0,0,0,-1,741,1814,0,0
-476,-790,0,0,0,0,0,0,0,0,0,-1,748,1814,0,0
-469,-790,0,0,0,0,0,0,0,0,0,-1,755,1814,0,0
-462,-790,0,0,0,0,0,0,0,0,0,-1,762,1814,0,0
-455,-790,0,0,0,0,0,0,0,0,0,-1,769,1814,0,0
-448,-790,0,0,0,0,0,0,0,0,0,-1,776,1814,0,0
-441,-790,0,0,0,0,0,0,0,0,0,-1,783,1814,0,0
-434,-790,0,0,0,0,0,0,0,0,0,-1,790,1814,0,0
-427,-790,0,0,0,0,0,0,0,0,0,-1,797,1814,0,0
-420,-790,0,0,0,0,0,0,0,0,0,-1,804,1814,0,0
-413,-790,0,0,0,0,0,0,0,0,0,-1,811,1814,0,0
-406,-790,0,0,0,0,0,0,0,0,0,-1,818,1814,0,0
-399,-790,0,0,0,0,0,0,0,0,0,-1,825,1814,0,0
-392,-790,0,0,0,0,0,0,0,0,0,-1,832,1814,0,0
-385,-790,0,0,0,0,0,0,0,0,0,-1,839,1814,0,0
-378,-790,0,0,0,0,0,0,0,0,0,-1,846,1814,0,0
-371,-790,0,0,0,0,0,0,0,0,0,-1,853,1814,0,0
-364,-790,0,0,0,0,0,0,0,0,0,-1,860,1814,0,0
-357,-790,0,0,0,0,0,0,0,0,0,-1,867,1814,0,0
-350,-790,0,0,0,0,0,0,0,0,0,-1,874,1814,0,0
-343,-790,0,0,0,0,0,0,0,0,0,-1,881,1814,0,0
-336,-790,0,0,0,0,0,0,0,0,0,-1,888,1814,0,0
-329,-790,0,0,0,0,0,0,0,0,0,-1,895,1814,0,0
-322,-790,0,0,0,0,0,0,0,0,0,-1,902,1814,0,0
-315,-790,0,0,0,0,0,0,0,0,0,-1,909,1814,0,0
-308,-790,0,0,0,0,0,0,0,0,0,-1,916,1814,0,0
-301,-790,0,0,0,0,0,0,0,0,0,-1,923,1814,0,0
-294,-790,0,0,0,0,0,0,0,0,0,-1,930,1814,0,0
-287,-790,0,0,0,0,0,0,0,0,0,-1,937,1814,0,0
-280,-790,0,0,0,0,0,0,0,0,0,-1,944,1814,0,0
-273,-790,0,0,0,0,0,0,0,0,0,-1,951,1814,0,0
-266,-790,0,0,0,0,0,0,0,0,0,-1,958,1814,0,0
-259,-790,0,0,0,0,0,0,0,0,0,-1,965,1814,0,0
-252,-790,0,0,0,0,0,0,0,0,0,-1,972,1814,0,0
-245,-790,0,0,0,0,0,0,0,0,0,-1,979,1814,0,0
-238,-790,0,0,0,0,0,0,0,0,0,-1,986,1814,0,0
-231,-790,0,0,0,0,0,0,0,0,0,-1,993,1814,0,0
-224,-790,0,0,0,0,0,0,0,0,0,-1,1000,1814,0,0
-217,-790,0,0,0,0,0,0,0,0,0,-1,1007,1814,0,0
-210,-790,0,0,0,0,0,0,0,0,0,-1,1014,1814,0,0
-203,-790,0,0,0,0,0,0,0,0,0,-1,1021,1814,0,0
-196,-790,0,0,0,0,0,0,0,0,0,-1,1028,1814,0,0
-189,-790,0,0,0,0,0,0,0,0,0,-1,1035,1814,0,0
-182,-790,0,0,0,0,0,0,0,0,0,-1,1042,1814,0,0
-175,-790,0,0,0,0,0,0,0,0,0,-1,1049,1814,0,0
-168,-790,0,0,0,0,0,0,0,0,0,-1,1056,1814,0,0
-161,-790,0,0,0,0,0,0,0,0,0,-1,1063,1814,0,0
-154,-790,0,0,0,0,0,0,0,0,0,-1,1070,1814,0,0
-147,-790,0,0,0,0,0,0,0,0,0,-1,1077,1814,0,0
-140,-790,0,0,0,0,0,0,0,0,0,-1,1084,1814,0,0
-133,-790,0,0,0,0,0,0,0,0,0,-1,1091,1814,0,0
-126,-790,0,0,0,0,0,0,0,0,0,-1,1098,1814,0,0
-119,-790,0,0,0,0,0,0,0,0,0,-1,1105,1814,0,0
-112,-790,0,0,0,0,0,0,0,0,0,-1,1112,1814,0,0
-105,-790,0,0,0,0,0,0,0,0,0,-1,1119,1814,0,0
-98,-790,0,0,0,0,0,0,0,0,0,-1,1126,1814,0,0
-91,-790,0,0,0,0,0,0,0,0,0,-1,1133,1814,0,0
-84,-790,0,0,0,0,0,0,0,0,0,-1,1140,1814,0,0
-77,-790,-0.969238,5.30847,0,0,0,0,0,0,0,-1,1147,1814,-0.969277,-5.3085
-70,-790,-1.23169,4.98914,0,0,0,0,0,0,0,-1,1154,1814,-1.23163,-4.98916
-63,-790,-1.69128,4.32263,0,0,0,0,0,0,0,-1,1161,1814,-1.69128,-4.32258
-56,-790,-2.24756,3.75305,0,0,0,0,0,0,0,-1,1168,1814,-2.24758,-3.75302
-49,-790,-3.11011,3.35779,0,0,0,0,0,0,0,-1,1175,1814,-3.11006,-3.35781
-42,-790,0.593262,1.19165,0,0,0,0,0,0,0,-1,1182,1814,0.593225,-1.19165
-35,-790,0.307129,-0.20105,0,0,0,0,0,0,0,-1,1189,1814,0.307178,0.201006
-28,-790,-2.78467,0.785156,0,0,0,0,0,0,0,-1,1196,1814,-2.78471,-0.785183
-21,-790,7.6814,50.5602,0,0,0,0,0,0,0,-1,1203,1814,7.68145,-50.5602
-14,-790,8.42151,50.6047,0,0,0,0,0,0,0,-1,1210,1814,8.42153,-50.6047
-7,-790,9.04456,50.7338,0,0,0,0,0,0,0,-1,1217,1814,9.04461,-50.7338
0,-790,9.2583,51.168,0,0,0,0,0,0,0,-1,1224,1814,9.2583,-51.168
7,-790,8.29443,55.8214,0,0,0,0,0,0,0,-1,1231,1814,8.2944,-55.8214
14,-790,8.4989,55.384,0.0258793,-0.0304515,-0.00982606,0.0275442,-0.0321163,-0.167834,0.0344787,0.0447744,1238,1814,8.49886,-55.384
21,-790,8.68774,55.0632,0.0272346,-0.0262636,-0.0181486,0.0328102,-0.0318392,-0.298067,0.0373267,0.0435705,1245,1814,8.68771,-55.0633
28,-790,8.79077,54.8182,0.0273191,-0.0206884,-0.0255372,0.0383629,-0.0317322,-0.408171,0.0405297,0.0443239,1252,1814,8.79073,-54.8182
35,-790,9.22717,54.283,0.0262356,-0.0143737,-0.0318969,0.0437422,-0.0318803,-0.50196,0.0438393,0.0467462,1259,1814,9.22721,-54.283
42,-790,10.087,52.9468,0,0,0,0,0,0,0,-1,1266,1814,10.087,-52.9467
49,-790,9.08655,53.3582,0,0,0,0,0,0,0,-1,1273,1814,9.08649,-53.3582
56,-790,11.1913,49.5673,0,0,0,0,0,0,0,-1,1280,1814,11.1912,-49.5673
63,-790,10.3049,52.851,0,0,0,0,0,0,0,-1,1287,1814,10.3049,-52.8509
70,-790,10.24,52.7568,0.0181043,0.0102244,-0.0385907,0.0529556,-0.024627,-0.734526,0.0457768,0.0422372,1294,1814,10.24,-52.7568
77,-790,10.1134,52.6479,0.0248159,0.0120356,-0.0313688,0.0504388,-0.0135873,-0.684918,0.038953,0.0437533,1301,1814,10.1134,-52.6479
84,-790,9.91394,52.5992,0.0328728,0.0157666,-0.021938,0.047866,0.00077335,-0.599524,0.031656,0.0470023,1308,1814,9.91392,-52.5992
91,-790,9.92969,52.6088,0.0450259,0.0163837,-0.00967953,0.0479902,0.0134193,-0.297181,0.0285902,0.0471976,1315,1814,9.92972,-52.6088
98,-790,9.97888,52.5052,0,0,0,0,0,0,0,-1,1322,1814,9.97882,-52.5052
105,-790,9.77026,52.4548,0,0,0,0,0,0,0,-1,1329,1814,9.77023,-52.4548
112,-790,5.42603,44.9364,0,0,0,0,0,0,0,-1,1336,1814,5.42599,-44.9364
119,-790,6.72595,46.2394,0.117103,0.0244349,0.0506192,0.139392,0.00214563,0.414784,0.0922211,0.0452558,1343,1814,6.72598,-46.2393
126,-790,8.07922,47.577,0.138674,0.0284468,0.0672544,0.170512,-0.00339174,0.442146,0.114822,0.044246,1350,1814,8.0792,-47.577
133,-790,9.26453,48.8949,0.158554,0.0330613,0.0837139,0.200426,-0.00881142,0.463798,0.136649,0.0468855,1357,1814,9.26449,-48.8948
140,-790,10.0006,50.0187,0.174122,0.0363966,0.0982008,0.225199,-0.0146801,0.479618,0.155257,0.0451094,1364,1814,10.0006,-50.0187
147,-790,10.6688,50.894,0,0,0,0,0,0,0,-1,1371,1814,10.6688,-50.894
154,-790,40.215,13.2396,0,0,0,0,0,0,0,-1,1378,1814,40.2149,-13.2396
161,-790,39.3429,13.0336,0,0,0,0,0,0,0,-1,1385,1814,39.3429,-13.0336
168,-790,7.04077,2.23279,0,0,0,0,0,0,0,-1,1392,1814,7.04082,-2.23275
175,-790,9.03918,3.98535,0,0,0,0,0,0,0,-1,1399,1814,9.0392,-3.98535
182,-790,8.96997,5.67896,0,0,0,0,0,0,0,-1,1406,1814,8.97001,-5.6789
189,-790,8.59729,6.86975,0,0,0,0,0,0,0,-1,1413,1814,8.59728,-6.86972
196,-790,8.21924,9.29053,0,0,0,0,0,0,0,-1,1420,1814,8.21924,-9.29048
203,-790,0,0,0,0,0,0,0,0,0,-1,1427,1814,0,0
210,-790,0,0,0,0,0,0,0,0,0,-1,1434,1814,0,0
217,-790,0,0,0,0,0,0,0,0,0,-1,1441,1814,0,0
224,-790,0,0,0,0,0,0,0,0,0,-1,1448,1814,0,0
231,-790,0,0,0,0,0,0,0,0,0,-1,1455,1814,0,0
238,-790,0,0,0,0,0,0,0,0,0,-1,1462,1814,0,0
245,-790,0,0,0,0,0,0,0,0,0,-1,1469,1814,0,0
252,-790,0,0,0,0,0,0,0,0,0,-1,1476,1814,0,0
259,-790,0,0,0,0,0,0,0,0,0,-1,1483,1814,0,0
266,-790,0,0,0,0,0,0,0,0,0,-1,1490,1814,0,0
273,-790,0,0,0,0,0,0,0,0,0,-1,1497,1814,0,0
280,-790,0,0,0,0,0,0,0,0,0,-1,1504,1814,0,0
287,-790,0,0,0,0,0,0,0,0,0,-1,1511,1814,0,0
294,-790,0,0,0,0,0,0,0,0,0,-1,1518,1814,0,0
301,-790,0,0,0,0,0,0,0,0,0,-1,1525,1814,0,0
308,-790,0,0,0,0,0,0,0,0,0,-1,1532,1814,0,0
315,-790,0,0,0,0,0,0,0,0,0,-1,1539,1814,0,0
322,-790,0,0,0,0,0,0,0,0,0,-1,1546,1814,0,0
329,-790,0,0,0,0,0,0,0,0,0,-1,1553,1814,0,0
336,-790,0,0,0,0,0,0,0,0,0,-1,1560,1814,0,0
343,-790,0,0,0,0,0,0,0,0,0,-1,1567,1814,0,0
350,-790,0,0,0,0,0,0,0,0,0,-1,1574,1814,0,0
357,-790,0,0,0,0,0,0,0,0,0,-1,1581,1814,0,0
364,-790,0,0,0,0,0,0,0,0,0,-1,1588,1814,0,0
371,-790,0,0,0,0,0,0,0,0,0,-1,1595,1814,0,0
378,-790,0,0,0,0,0,0,0,0,0,-1,1602,1814,0,0
385,-790,0,0,0,0,0,0,0,0,0,-1,1609,1814,0,0
392,-790,0,0,0,0,0,0,0,0,0,-1,1616,1814,0,0
399,-790,0,0,0,0,0,0,0,0,0,-1,1623,1814,0,0
406,-790,0,0,0,0,0,0,0,0,0,-1,1630,1814,0,0
413,-790,0,0,0,0,0,0,0,0,0,-1,1637,1814,0,0
420,-790,0,0,0,0,0,0,0,0,0,-1,1644,1814,0,0
427,-790,0,0,0,0,0,0,0,0,0,-1,1651,1814,0,0
434,-790,0,0,0,0,0,0,0,0,0,-1,1658,1814,0,0
441,-790,0,0,0,0,0,0,0,0,0,-1,1665,1814,0,0
448,-790,0,0,0,0,0,0,0,0,0,-1,1672,1814,0,0
455,-790,0,0,0,0,0,0,0,0,0,-1,1679,1814,0,0
462,-790,0,0,0,0,0,0,0,0,0,-1,1686,1814,0,0
469,-790,0,0,0,0,0,0,0,0,0,-1,1693,1814,0,0
476,-790,0,0,0,0,0,0,0,0,0,-1,1700,1814,0,0
483,-790,0,0,0,0,0,0,0,0,0,-1,1707,1814,0,0
490,-790,0,0,0,0,0,0,0,0,0,-1,1714,1814,0,0
497,-790,0,0,0,0,0,0,0,0,0,-1,1721,1814,0,0
504,-790,0,0,0,0,0,0,0,0,0,-1,1728,1814,0,0
511,-790,0,0,0,0,0,0,0,0,0,-1,1735,1814,0,0
518,-790,0,0,0,0,0,0,0,0,0,-1,1742,1814,0,0
525,-790,0,0,0,0,0,0,0,0,0,-1,1749,1814,0,0
532,-790,0,0,0,0,0,0,0,0,0,-1,1756,1814,0,0
539,-790,0,0,0,0,0,0,0,0,0,-1,1763,1814,0,0
546,-790,0,0,0,0,0,0,0,0,0,-1,1770,1814,0,0
553,-790,0,0,0,0,0,0,0,0,0,-1,1777,1814,0,0
560,-790,0,0,0,0,0,0,0,0,0,-1,1784,1814,0,0
567,-790,0,0,0,0,0,0,0,0,0,-1,1791,1814,0,0
574,-790,0,0,0,0,0,0,0,0,0,-1,1798,1814,0,0
581,-790,0,0,0,0,0,0,0,0,0,-1,1805,1814,0,0
588,-790,0,0,0,0,0,0,0,0,0,-1,1812,1814,0,0
595,-790,0,0,0,0,0,0,0,0,0,-1,1819,1814,0,0
602,-790,0,0,0,0,0,0,0,0,0,-1,1826,1814,0,0
609,-790,0,0,0,0,0,0,0,0,0,-1,1833,1814,0,0
616,-790,0,0,0,0,0,0,0,0,0,-1,1840,1814,0,0
623,-790,0,0,0,0,0,0,0,0,0,-1,1847,1814,0,0
630,-790,0,0,0,0,0,0,0,0,0,-1,1854,1814,0,0
637,-790,0,0,0,0,0,0,0,0,0,-1,1861,1814,0,0
644,-790,0,0,0,0,0,0,0,0,0,-1,1868,1814,0,0
651,-790,0,0,0,0,0,0,0,0,0,-1,1875,1814,0,0
658,-790,0,0,0,0,0,0,0,0,0,-1,1882,1814,0,0
665,-790,0,0,0,0,0,0,0,0,0,-1,1889,1814,0,0
672,-790,0,0,0,0,0,0,0,0,0,-1,1896,1814,0,0
679,-790,0,0,0,0,0,0,0,0,0,-1,1903,1814,0,0
686,-790,0,0,0,0,0,0,0,0,0,-1,1910,1814,0,0
693,-790,0,0,0,0,0,0,0,0,0,-1,1917,1814,0,0
700,-790,0,0,0,0,0,0,0,0,0,-1,1924,1814,0,0
707,-790,0,0,0,0,0,0,0,0,0,-1,1931,1814,0,0
714,-790,0,0,0,0,0,0,0,0,0,-1,1938,1814,0,0
721,-790,0,0,0,0,0,0,0,0,0,-1,1945,1814,0,0
728,-790,0,0,0,0,0,0,0,0,0,-1,1952,1814,0,0
735,-790,0,0,0,0,0,0,0,0,0,-1,1959,1814,0,0
742,-790,0,0,0,0,0,0,0,0,0,-1,1966,1814,0,0
749,-790,0,0,0,0,0,0,0,0,0,-1,1973,1814,0,0
756,-790,0,0,0,0,0,0,0,0,0,-1,1980,1814,0,0
763,-790,0,0,0,0,0,0,0,0,0,-1,1987,1814,0,0
770,-790,0,0,0,0,0,0,0,0,0,-1,1994,1814,0,0
777,-790,0,0,0,0,0,0,0,0,0,-1,2001,1814,0,0
784,-790,0,0,0,0,0,0,0,0,0,-1,2008,1814,0,0
791,-790,0,0,0,0,0,0,0,0,0,-1,2015,1814,0,0
798,-790,0,0,0,0,0,0,0,0,0,-1,2022,1814,0,0
805,-790,0,0,0,0,0,0,0,0,0,-1,2029,1814,0,0
812,-790,0,0,0,0,0,0,0,0,0,-1,2036,1814,0,0
-700,-797,0,0,0,0,0,0,0,0,0,-1,524,1821,0,0
-693,-797,0,0,0,0,0,0,0,0,0,-1,531,1821,0,0
-686,-797,0,0,0,0,0,0,0,0,0,-1,538,1821,0,0
-679,-797,0,0,0,0,0,0,0,0,0,-1,545,1821,0,0
-672,-797,0,0,0,0,0,0,0,0,0,-1,552,1821,0,0
-665,-797,0,0,0,0,0,0,0,0,0,-1,559,1821,0,0
-658,-797,0,0,0,0,0,0,0,0,0,-1,566,1821,0,0
-651,-797,0,0,0,0,0,0,0,0,0,-1,573,1821,0,0
-644,-797,0,0,0,0,0,0,0,0,0,-1,580,1821,0,0
-637,-797,0,0,0,0,0,0,0,0,0,-1,587,1821,0,0
-630,-797,0,0,0,0,0,0,0,0,0,-1,594,1821,0,0
-623,-797,0,0,0,0,0,0,0,0,0,-1,601,1821,0,0
-616,-797,0,0,0,0,0,0,0,0,0,-1,608,1821,0,0
-609,-797,0,0,0,0,0,0,0,0,0,-1,615,1821,0,0
-602,-797,0,0,0,0,0,0,0,0,0,-1,622,1821,0,0
-595,-797,0,0,0,0,0,0,0,0,0,-1,629,1821,0,0
-588,-797,0,0,0,0,0,0,0,0,0,-1,636,1821,0,0
-581,-797,0,0,0,0,0,0,0,0,0,-1,643,1821,0,0
-574,-797,0,0,0,0,0,0,0,0,0,-1,650,1821,0,0
-567,-797,0,0,0,0,0,0,0,0,0,-1,657,1821,0,0
-560,-797,0,0,0,0,0,0,0,0,0,-1,664,1821,0,0
-553,-797,0,0,0,0,0,0,0,0,0,-1,671,1821,0,0
-546,-797,0,0,0,0,0,0,0,0,0,-1,678,1821,0,0
-539,-797,0,0,0,0,0,0,0,0,0,-1,685,1821,0,0
-532,-797,0,0,0,0,0,0,0,0,0,-1,692,1821,0,0
-525,-797,0,0,0,0,0,0,0,0,0,-1,699,1821,0,0
-518,-797,0,0,0,0,0,0,0,0,0,-1,706,1821,0,0
-511,-797,0,0,0,0,0,0,0,0,0,-1,713,1821,0,0
-504,-797,0,0,0,0,0,0,0,0,0,-1,720,1821,0,0
-497,-797,0,0,0,0,0,0,0,0,0,-1,727,1821,0,0
-490,-797,0,0,0,0,0,0,0,0,0,-1,734,1821,0,0
-483,-797,0,0,0,0,0,0,0,0,0,-1,741,1821,0,0
-476,-797,0,0,0,0,0,0,0,0,0,-1,748,1821,0,0
-469,-797,0,0,0,0,0,0,0,0,0,-1,755,1821,0,0
-462,-797,0,0,0,0,0,0,0,0,0,-1,762,1821,0,0
-455,-797,0,0,0,0,0,0,0,0,0,-1,769,1821,0,0
-448,-797,0,0,0,0,0,0,0,0,0,-1,776,1821,0,0
-441,-797,0,0,0,0,0,0,0,0,0,-1,783,1821,0,0
-434,-797,0,0,0,0,0,0,0,0,0,-1,790,1821,0,0
-427,-797,0,0,0,0,0,0,0,0,0,-1,797,1821,0,0
-420,-797,0,0,0,0,0,0,0,0,0,-1,804,1821,0,0
-413,-797,0,0,0,0,0,0,0,0,0,-1,811,1821,0,0
-406,-797,0,0,0,0,0,0,0,0,0,-1,818,1821,0,0
-399,-797,0,0,0,0,0,0,0,0,0,-1,825,1821,0,0
-392,-797,0,0,0,0,0,0,0,0,0,-1,832,1821,0,0
-385,-797,0,0,0,0,0,0,0,0,0,-1,839,1821,0,0
-378,-797,0,0,0,0,0,0,0,0,0,-1,846,1821,0,0
-371,-797,0,0,0,0,0,0,0,0,0,-1,853,1821,0,0
-364,-797,0,0,0,0,0,0,0,0,0,-1,860,1821,0,0
-357,-797,0,0,0,0,0,0,0,0,0,-1,867,1821,0,0
-350,-797,0,0,0,0,0,0,0,0,0,-1,874,1821,0,0
-343,-797,0,0,0,0,0,0,0,0,0,-1,881,1821,0,0
-336,-797,0,0,0,0,0,0,0,0,0,-1,888,1821,0,0
-329,-797,0,0,0,0,0,0,0,0,0,-1,895,1821,0,0
-322,-797,0,0,0,0,0,0,0,0,0,-1,902,1821,0,0
-315,-797,0,0,0,0,0,0,0,0,0,-1,909,1821,0,0
-308,-797,0,0,0,0,0,0,0,0,0,-1,916,1821,0,0
-301,-797,0,0,0,0,0,0,0,0,0,-1,923,1821,0,0
-294,-797,0,0,0,0,0,0,0,0,0,-1,930,1821,0,0
-287,-797,0,0,0,0,0,0,0,0,0,-1,937,1821,0,0
-280,-797,0,0,0,0,0,0,0,0,0,-1,944,1821,0,0
-273,-797,0,0,0,0,0,0,0,0,0,-1,951,1821,0,0
-266,-797,0,0,0,0,0,0,0,0,0,-1,958,1821,0,0
-259,-797,0,0,0,0,0,0,0,0,0,-1,965,1821,0,0
-252,-797,0,0,0,0,0,0,0,0,0,-1,972,1821,0,0
-245,-797,0,0,0,0,0,0,0,0,0,-1,979,1821,0,0
-238,-797,0,0,0,0,0,0,0,0,0,-1,986,1821,0,0
-231,-797,0,0,0,0,0,0,0,0,0,-1,993,1821,0,0
-224,-797,0,0,0,0,0,0,0,0,0,-1,1000,1821,0,0
-217,-797,0,0,0,0,0,0,0,0,0,-1,1007,1821,0,0
-210,-797,0,0,0,0,0,0,0,0,0,-1,1014,1821,0,0
-203,-797,0,0,0,0,0,0,0,0,0,-1,1021,1821,0,0
-196,-797,0,0,0,0,0,0,0,0,0,-1,1028,1821,0,0
-189,-797,0,0,0,0,0,0,0,0,0,-1,1035,1821,0,0
-182,-797,0,0,0,0,0,0,0,0,0,-1,1042,1821,0,0
-175,-797,0,0,0,0,0,0,0,0,0,-1,1049,1821,0,0
-168,-797,0,0,0,0,0,0,0,0,0,-1,1056,1821,0,0
-161,-797,0,0,0,0,0,0,0,0,0,-1,1063,1821,0,0
-154,-797,0,0,0,0,0,0,0,0,0,-1,1070,1821,0,0
-147,-797,0,0,0,0,0,0,0,0,0,-1,1077,1821,0,0
-140,-797,0,0,0,0,0,0,0,0,0,-1,1084,1821,0,0
-133,-797,0,0,0,0,0,0,0,0,0,-1,1091,1821,0,0
-126,-797,0,0,0,0,0,0,0,0,0,-1,1098,1821,0,0
-119,-797,0,0,0,0,0,0,0,0,0,-1,1105,1821,0,0
-112,-797,0,0,0,0,0,0,0,0,0,-1,1112,1821,0,0
-105,-797,0,0,0,0,0,0,0,0,0,-1,1119,1821,0,0
-98,-797,0,0,0,0,0,0,0,0,0,-1,1126,1821,0,0
-91,-797,0,0,0,0,0,0,0,0,0,-1,1133,1821,0,0
-84,-797,0,0,0,0,0,0,0,0,0,-1,1140,1821,0,0
-77,-797,0,0,0,0,0,0,0,0,0,-1,1147,1821,0,0
-70,-797,0,0,0,0,0,0,0,0,0,-1,1154,1821,0,0
-63,-797,0,0,0,0,0,0,0,0,0,-1,1161,1821,0,0
-56,-797,0,0,0,0,0,0,0,0,0,-1,1168,1821,0,0
-49,-797,0,0,0,0,0,0,0,0,0,-1,1175,1821,0,0
-42,-797,0.579834,0.692871,0,0,0,0,0,0,0,-1,1182,1821,0.579856,-0.692816
-35,-797,-0.185425,5.55396,0,0,0,0,0,0,0,-1,1189,1821,-0.18542,-5.55396
-28,-797,-0.310181,4.71509,0,0,0,0,0,0,0,-1,1196,1821,-0.310228,-4.71503
-21,-797,7.15015,50.1357,0,0,0,0,0,0,0,-1,1203,1821,7.1501,-50.1358
-14,-797,8.00085,50.2369,0,0,0,0,0,0,0,-1,1210,1821,8.00084,-50.2369
-7,-797,8.82263,50.5653,0,0,0,0,0,0,0,-1,1217,1821,8.82258,-50.5653
0,-797,9.73621,51.106,0,0,0,0,0,0,0,-1,1224,1821,9.7362,-51.1059
7,-797,8.01196,55.7863,0,0,0,0,0,0,0,-1,1231,1821,8.01199,-55.7862
14,-797,8.27014,55.3562,0.0245465,-0.0382909,-0.00563645,0.0250481,-0.0387924,-0.0887548,0.037142,0.044958,1238,1821,8.27018,-55.3563
21,-797,8.56335,55.4685,0.0258177,-0.0337666,-0.016653,0.0301561,-0.038105,-0.254853,0.0394995,0.0430305,1245,1821,8.5634,-55.4685
28,-797,8.68237,55.5531,0.025252,-0.0278266,-0.0255223,0.0355328,-0.0381074,-0.382933,0.0425249,0.0415407,1252,1821,8.68232,-55.5532
35,-797,10.3464,53.3165,0.0234733,-0.0211261,-0.0328256,0.0408573,-0.0385101,-0.487036,0.0458295,0.0485331,1259,1821,10.3465,-53.3165
42,-797,10.0238,52.6984,0.0206871,-0.0144512,-0.0379995,0.0449824,-0.0387465,-0.568859,0.0483856,0.0463261,1266,1821,10.0238,-52.6983
49,-797,9.02063,53.3118,0.0176688,-0.00815084,-0.042011,0.0487089,-0.0391909,-0.636329,0.050848,0.0459322,1273,1821,9.02057,-53.3117
56,-797,7.97717,53.5754,0,0,0,0,0,0,0,-1,1280,1821,7.97719,-53.5754
63,-797,10.5486,52.8516,0,0,0,0,0,0,0,-1,1287,1821,10.5485,-52.8516
70,-797,10.5371,52.7769,0.0161171,0.00432942,-0.0405786,0.0512276,-0.0307811,-0.71328,0.0478358,0.0446745,1294,1821,10.5371,-52.7769
77,-797,10.4781,52.7053,0.0260037,0.00627573,-0.0322036,0.0498202,-0.0175407,-0.636784,0.0403518,0.0429522,1301,1821,10.4781,-52.7053
84,-797,10.5363,52.7064,0.037154,0.0107439,-0.021425,0.0491165,-0.00121864,-0.509225,0.033158,0.0468105,1308,1821,10.5363,-52.7064
91,-797,10.2551,52.3823,0.0530687,0.0116307,-0.00751141,0.0543883,0.0103111,-0.1739,0.0333573,0.0498617,1315,1821,10.2552,-52.3823
98,-797,10.2734,52.377,0,0,0,0,0,0,0,-1,1322,1821,10.2735,-52.3769
105,-797,4.55884,43.7511,0,0,0,0,0,0,0,-1,1329,1821,4.55883,-43.7511
112,-797,5.26929,44.8019,0,0,0,0,0,0,0,-1,1336,1821,5.26928,-44.8019
119,-797,6.43762,46.0836,0.14817,0.0260143,0.0652147,0.176442,-0.00225803,0.409071,0.118388,0.043372,1343,1821,6.43757,-46.0836
126,-797,7.86389,47.6427,0.175236,0.0318245,0.0860968,0.215576,-0.00851613,0.438172,0.146639,0.0455724,1350,1821,7.86395,-47.6427
133,-797,9.12305,48.5438,0,0,0,0,0,0,0,-1,1357,1821,9.12304,-48.5438
140,-797,9.57678,49.6885,0,0,0,0,0,0,0,-1,1364,1821,9.5768,-49.6885
147,-797,10.1891,50.5966,0,0,0,0,0,0,0,-1,1371,1821,10.189,-50.5965
154,-797,40.2623,8.88733,0,0,0,0,0,0,0,-1,1378,1821,40.2623,-8.88731
161,-797,42.2798,8.17371,0,0,0,0,0,0,0,-1,1385,1821,42.2798,-8.17367
168,-797,0,0,0,0,0,0,0,0,0,-1,1392,1821,0,0
175,-797,0,0,0,0,0,0,0,0,0,-1,1399,1821,0,0
182,-797,0,0,0,0,0,0,0,0,0,-1,1406,1821,0,0
189,-797,0,0,0,0,0,0,0,0,0,-1,1413,1821,0,0
196,-797,0,0,0,0,0,0,0,0,0,-1,1420,1821,0,0
203,-797,0,0,0,0,0,0,0,0,0,-1,1427,1821,0,0
210,-797,0,0,0,0,0,0,0,0,0,-1,1434,1821,0,0
217,-797,0,0,0,0,0,0,0,0,0,-1,1441,1821,0,0
224,-797,0,0,0,0,0,0,0,0,0,-1,1448,1821,0,0
231,-797,0,0,0,0,0,0,0,0,0,-1,1455,1821,0,0
238,-797,0,0,0,0,0,0,0,0,0,-1,1462,1821,0,0
245,-797,0,0,0,0,0,0,0,0,0,-1,1469,1821,0,0
252,-797,0,0,0,0,0,0,0,0,0,-1,1476,1821,0,0
259,-797,0,0,0,0,0,0,0,0,0,-1,1483,1821,0,0
266,-797,0,0,0,0,0,0,0,0,0,-1,1490,1821,0,0
273,-797,0,0,0,0,0,0,0,0,0,-1,1497,1821,0,0
280,-797,0,0,0,0,0,0,0,0,0,-1,1504,1821,0,0
287,-797,0,0,0,0,0,0,0,0,0,-1,1511,1821,0,0
294,-797,0,0,0,0,0,0,0,0,0,-1,1518,1821,0,0
301,-797,0,0,0,0,0,0,0,0,0,-1,1525,1821,0,0
308,-797,0,0,0,0,0,0,0,0,0,-1,1532,1821,0,0
315,-797,0,0,0,0,0,0,0,0,0,-1,1539,1821,0,0
322,-797,0,0,0,0,0,0,0,0,0,-1,1546,1821,0,0
329,-797,0,0,0,0,0,0,0,0,0,-1,1553,1821,0,0
336,-797,0,0,0,0,0,0,0,0,0,-1,1560,1821,0,0
343,-797,0,0,0,0,0,0,0,0,0,-1,1567,1821,0,0
350,-797,0,0,0,0,0,0,0,0,0,-1,1574,1821,0,0
357,-797,0,0,0,0,0,0,0,0,0,-1,1581,1821,0,0
364,-797,0,0,0,0,0,0,0,0,0,-1,1588,1821,0,0
371,-797,0,0,0,0,0,0,0,0,0,-1,1595,1821,0,0
378,-797,0,0,0,0,0,0,0,0,0,-1,1602,1821,0,0
385,-797,0,0,0,0,0,0,0,0,0,-1,1609,1821,0,0
392,-797,0,0,0,0,0,0,0,0,0,-1,1616,1821,0,0
399,-797,0,0,0,0,0,0,0,0,0,-1,1623,1821,0,0
406,-797,0,0,0,0,0,0,0,0,0,-1,1630,1821,0,0
413,-797,0,0,0,0,0,0,0,0,0,-1,1637,1821,0,0
420,-797,0,0,0,0,0,0,0,0,0,-1,1644,1821,0,0
427,-797,0,0,0,0,0,0,0,0,0,-1,1651,1821,0,0
434,-797,0,0,0,0,0,0,0,0,0,-1,1658,1821,0,0
441,-797,0,0,0,0,0,0,0,0,0,-1,1665,1821,0,0
448,-797,0,0,0,0,0,0,0,0,0,-1,1672,1821,0,0
455,-797,0,0,0,0,0,0,0,0,0,-1,1679,1821,0,0
462,-797,0,0,0,0,0,0,0,0,0,-1,1686,1821,0,0
469,-797,0,0,0,0,0,0,0,0,0,-1,1693,1821,0,0
476,-797,0,0,0,0,0,0,0,0,0,-1,1700,1821,0,0
483,-797,0,0,0,0,0,0,0,0,0,-1,1707,1821,0,0
490,-797,0,0,0,0,0,0,0,0,0,-1,1714,1821,0,0
497,-797,0,0,0,0,0,0,0,0,0,-1,1721,1821,0,0
504,-797,0,0,0,0,0,0,0,0,0,-1,1728,1821,0,0
511,-797,0,0,0,0,0,0,0,0,0,-1,1735,1821,0,0
518,-797,0,0,0,0,0,0,0,0,0,-1,1742,1821,0,0
525,-797,0,0,0,0,0,0,0,0,0,-1,1749,1821,0,0
532,-797,0,0,0,0,0,0,0,0,0,-1,1756,1821,0,0
539,-797,0,0,0,0,0,0,0,0,0,-1,1763,1821,0,0
546,-797,0,0,0,0,0,0,0,0,0,-1,1770,1821,0,0
553,-797,0,0,0,0,0,0,0,0,0,-1,1777,1821,0,0
560,-797,0,0,0,0,0,0,0,0,0,-1,1784,1821,0,0
567,-797,0,0,0,0,0,0,0,0,0,-1,1791,1821,0,0
574,-797,0,0,0,0,0,0,0,0,0,-1,1798,1821,0,0
581,-797,0,0,0,0,0,0,0,0,0,-1,1805,1821,0,0
588,-797,0,0,0,0,0,0,0,0,0,-1,1812,1821,0,0
595,-797,0,0,0,0,0,0,0,0,0,-1,1819,1821,0,0
602,-797,0,0,0,0,0,0,0,0,0,-1,1826,1821,0,0
609,-797,0,0,0,0,0,0,0,0,0,-1,1833,1821,0,0
616,-797,0,0,0,0,0,0,0,0,0,-1,1840,1821,0,0
623,-797,0,0,0,0,0,0,0,0,0,-1,1847,1821,0,0
630,-797,0,0,0,0,0,0,0,0,0,-1,1854,1821,0,0
637,-797,0,0,0,0,0,0,0,0,0,-1,1861,1821,0,0
644,-797,0,0,0,0,0,0,0,0,0,-1,1868,1821,0,0
651,-797,0,0,0,0,0,0,0,0,0,-1,1875,1821,0,0
658,-797,0,0,0,0,0,0,0,0,0,-1,1882,1821,0,0
665,-797,0,0,0,0,0,0,0,0,0,-1,1889,1821,0,0
672,-797,0,0,0,0,0,0,0,0,0,-1,1896,1821,0,0
679,-797,0,0,0,0,0,0,0,0,0,-1,1903,1821,0,0
686,-797,0,0,0,0,0,0,0,0,0,-1,1910,1821,0,0
693,-797,0,0,0,0,0,0,0,0,0,-1,1917,1821,0,0
700,-797,0,0,0,0,0,0,0,0,0,-1,1924,1821,0,0
707,-797,0,0,0,0,0,0,0,0,0,-1,1931,1821,0,0
714,-797,0,0,0,0,0,0,0,0,0,-1,1938,1821,0,0
721,-797,0,0,0,0,0,0,0,0,0,-1,1945,1821,0,0
728,-797,0,0,0,0,0,0,0,0,0,-1,1952,1821,0,0
735,-797,0,0,0,0,0,0,0,0,0,-1,1959,1821,0,0
742,-797,0,0,0,0,0,0,0,0,0,-1,1966,1821,0,0
749,-797,0,0,0,0,0,0,0,0,0,-1,1973,1821,0,0
756,-797,0,0,0,0,0,0,0,0,0,-1,1980,1821,0,0
763,-797,0,0,0,0,0,0,0,0,0,-1,1987,1821,0,0
770,-797,0,0,0,0,0,0,0,0,0,-1,1994,1821,0,0
777,-797,0,0,0,0,0,0,0,0,0,-1,2001,1821,0,0
784,-797,0,0,0,0,0,0,0,0,0,-1,2008,1821,0,0
791,-797,0,0,0,0,0,0,0,0,0,-1,2015,1821,0,0
798,-797,0,0,0,0,0,0,0,0,0,-1,2022,1821,0,0
805,-797,0,0,0,0,0,0,0,0,0,-1,2029,1821,0,0
812,-797,0,0,0,0,0,0,0,0,0,-1,2036,1821,0,0
-700,-804,0,0,0,0,0,0,0,0,0,-1,524,1828,0,0
-693,-804,0,0,0,0,0,0,0,0,0,-1,531,1828,0,0
-686,-804,0,0,0,0,0,0,0,0,0,-1,538,1828,0,0
-679,-804,0,0,0,0,0,0,0,0,0,-1,545,1828,0,0
-672,-804,0,0,0,0,0,0,0,0,0,-1,552,1828,0,0
-665,-804,0,0,0,0,0,0,0,0,0,-1,559,1828,0,0
-658,-804,0,0,0,0,0,0,0,0,0,-1,566,1828,0,0
-651,-804,0,0,0,0,0,0,0,0,0,-1,573,1828,0,0
-644,-804,0,0,0,0,0,0,0,0,0,-1,580,1828,0,0
-637,-804,0,0,0,0,0,0,0,0,0,-1,587,1828,0,0
-630,-804,0,0,0,0,0,0,0,0,0,-1,594,1828,0,0
-623,-804,0,0,0,0,0,0,0,0,0,-1,601,1828,0,0
-616,-804,0,0,0,0,0,0,0,0,0,-1,608,1828,0,0
-609,-804,0,0,0,0,0,0,0,0,0,-1,615,1828,0,0
-602,-804,0,0,0,0,0,0,0,0,0,-1,622,1828,0,0
-595,-804,0,0,0,0,0,0,0,0,0,-1,629,1828,0,0
-588,-804,0,0,0,0,0,0,0,0,0,-1,636,1828,0,0
-581,-804,0,0,0,0,0,0,0,0,0,-1,643,1828,0,0
-574,-804,0,0,0,0,0,0,0,0,0,-1,650,1828,0,0
-567,-804,0,0,0,0,0,0,0,0,0,-1,657,1828,0,0
-560,-804,0,0,0,0,0,0,0,0,0,-1,664,1828,0,0
-553,-804,0,0,0,0,0,0,0,0,0,-1,671,1828,0,0
-546,-804,0,0,0,0,0,0,0,0,0,-1,678,1828,0,0
-539,-804,0,0,0,0,0,0,0,0,0,-1,685,1828,0,0
-532,-804,0,0,0,0,0,0,0,0,0,-1,692,1828,0,0
-525,-804,0,0,0,0,0,0,0,0,0,-1,699,1828,0,0
-518,-804,0,0,0,0,0,0,0,0,0,-1,706,1828,0,0
-511,-804,0,0,0,0,0,0,0,0,0,-1,713,1828,0,0
-504,-804,0,0,0,0,0,0,0,0,0,-1,720,1828,0,0
-497,-804,0,0,0,0,0,0,0,0,0,-1,727,1828,0,0
-490,-804,0,0,0,0,0,0,0,0,0,-1,734,1828,0,0
-483,-804,0,0,0,0,0,0,0,0,0,-1,741,1828,0,0
-476,-804,0,0,0,0,0,0,0,0,0,-1,748,1828,0,0
-469,-804,0,0,0,0,0,0,0,0,0,-1,755,1828,0,0
-462,-804,0,0,0,0,0,0,0,0,0,-1,762,1828,0,0
-455,-804,0,0,0,0,0,0,0,0,0,-1,769,1828,0,0
-448,-804,0,0,0,0,0,0,0,0,0,-1,776,1828,0,0
-441,-804,0,0,0,0,0,0,0,0,0,-1,783,1828,0,0
-434,-804,0,0,0,0,0,0,0,0,0,-1,790,1828,0,0
-427,-804,0,0,0,0,0,0,0,0,0,-1,797,1828,0,0
-420,-804,0,0,0,0,0,0,0,0,0,-1,804,1828,0,0
-413,-804,0,0,0,0,0,0,0,0,0,-1,811,1828,0,0
-406,-804,0,0,0,0,0,0,0,0,0,-1,818,1828,0,0
-399,-804,0,0,0,0,0,0,0,0,0,-1,825,1828,0,0
-392,-804,0,0,0,0,0,0,0,0,0,-1,832,1828,0,0
-385,-804,0,0,0,0,0,0,0,0,0,-1,839,1828,0,0
-378,-804,0,0,0,0,0,0,0,0,0,-1,846,1828,0,0
-371,-804,0,0,0,0,0,0,0,0,0,-1,853,1828,0,0
-364,-804,0,0,0,0,0,0,0,0,0,-1,860,1828,0,0
-357,-804,0,0,0,0,0,0,0,0,0,-1,867,1828,0,0
-350,-804,0,0,0,0,0,0,0,0,0,-1,874,1828,0,0
-343,-804,0,0,0,0,0,0,0,0,0,-1,881,1828,0,0
-336,-804,0,0,0,0,0,0,0,0,0,-1,888,1828,0,0
-329,-804,0,0,0,0,0,0,0,0,0,-1,895,1828,0,0
-322,-804,0,0,0,0,0,0,0,0,0,-1,902,1828,0,0
-315,-804,0,0,0,0,0,0,0,0,0,-1,909,1828,0,0
-308,-804,0,0,0,0,0,0,0,0,0,-1,916,1828,0,0
-301,-804,0,0,0,0,0,0,0,0,0,-1,923,1828,0,0
-294,-804,0,0,0,0,0,0,0,0,0,-1,930,1828,0,0
-287,-804,0,0,0,0,0,0,0,0,0,-1,937,1828,0,0
-280,-804,0,0,0,0,0,0,0,0,0,-1,944,1828,0,0
-273,-804,0,0,0,0,0,0,0,0,0,-1,951,1828,0,0
-266,-804,0,0,0,0,0,0,0,0,0,-1,958,1828,0,0
-259,-804,0,0,0,0,0,0,0,0,0,-1,965,1828,0,0
-252,-804,0,0,0,0,0,0,0,0,0,-1,972,1828,0,0
-245,-804,0,0,0,0,0,0,0,0,0,-1,979,1828,0,0
-238,-804,0,0,0,0,0,0,0,0,0,-1,986,1828,0,0
-231,-804,0,0,0,0,0,0,0,0,0,-1,993,1828,0,0
-224,-804,0,0,0,0,0,0,0,0,0,-1,1000,1828,0,0
-217,-804,0,0,0,0,0,0,0,0,0,-1,1007,1828,0,0
-210,-804,0,0,0,0,0,0,0,0,0,-1,1014,1828,0,0
-203,-804,0,0,0,0,0,0,0,0,0,-1,1021,1828,0,0
-196,-804,0,0,0,0,0,0,0,0,0,-1,1028,1828,0,0
-189,-804,0,0,0,0,0,0,0,0,0,-1,1035,1828,0,0
-182,-804,0,0,0,0,0,0,0,0,0,-1,1042,1828,0,0
-175,-804,0,0,0,0,0,0,0,0,0,-1,1049,1828,0,0
-168,-804,0,0,0,0,0,0,0,0,0,-1,1056,1828,0,0
-161,-804,0,0,0,0,0,0,0,0,0,-1,1063,1828,0,0
-154,-804,0,0,0,0,0,0,0,0,0,-1,1070,1828,0,0
-147,-804,0,0,0,0,0,0,0,0,0,-1,1077,1828,0,0
-140,-804,0,0,0,0,0,0,0,0,0,-1,1084,1828,0,0
-133,-804,0,0,0,0,0,0,0,0,0,-1,1091,1828,0,0
-126,-804,0,0,0,0,0,0,0,0,0,-1,1098,1828,0,0
-119,-804,0,0,0,0,0,0,0,0,0,-1,1105,1828,0,0
-112,-804,0,0,0,0,0,0,0,0,0,-1,1112,1828,0,0
-105,-804,0,0,0,0,0,0,0,0,0,-1,1119,1828,0,0
-98,-804,0,0,0,0,0,0,0,0,0,-1,1126,1828,0,0
-91,-804,0,0,0,0,0,0,0,0,0,-1,1133,1828,0,0
-84,-804,0,0,0,0,0,0,0,0,0,-1,1140,1828,0,0
-77,-804,0,0,0,0,0,0,0,0,0,-1,1147,1828,0,0
-70,-804,0,0,0,0,0,0,0,0,0,-1,1154,1828,0,0
-63,-804,0,0,0,0,0,0,0,0,0,-1,1161,1828,0,0
-56,-804,0,0,0,0,0,0,0,0,0,-1,1168,1828,0,0
-49,-804,0,0,0,0,0,0,0,0,0,-1,1175,1828,0,0
-42,-804,0,0,0,0,0,0,0,0,0,-1,1182,1828,0,0
-35,-804,0,0,0,0,0,0,0,0,0,-1,1189,1828,0,0
-28,-804,0,0,0,0,0,0,0,0,0,-1,1196,1828,0,0
-21,-804,0,0,0,0,0,0,0,0,0,-1,1203,1828,0,0
-14,-804,0,0,0,0,0,0,0,0,0,-1,1210,1828,0,0
-7,-804,0,0,0,0,0,0,0,0,0,-1,1217,1828,0,0
0,-804,0,0,0,0,0,0,0,0,0,-1,1224,1828,0,0
7,-804,0,0,0,0,0,0,0,0,0,-1,1231,1828,0,0
14,-804,0,0,0,0,0,0,0,0,0,-1,1238,1828,0,0
21,-804,0,0,0,0,0,0,0,0,0,-1,1245,1828,0,0
28,-804,0,0,0,0,0,0,0,0,0,-1,1252,1828,0,0
35,-804,10.7729,52.9515,0.013889,-0.0293284,-0.0303784,0.0295601,-0.0449994,-0.476257,0.0433535,0.0457275,1259,1828,10.7729,-52.9516
42,-804,10.0559,53.3809,0.0104961,-0.023059,-0.0359031,0.0333484,-0.0459112,-0.566824,0.0459518,0.0471917,1266,1828,10.0559,-53.3809
49,-804,9.20032,53.4324,0.00734465,-0.0172681,-0.0401627,0.0370441,-0.0469675,-0.636733,0.0486168,0.0433935,1273,1828,9.20028,-53.4324
56,-804,8.42175,53.5007,0,0,0,0,0,0,0,-1,1280,1828,8.42174,-53.5007
63,-804,10.8295,52.7689,0,0,0,0,0,0,0,-1,1287,1828,10.8295,-52.769
70,-804,10.8867,52.8038,0.00962519,-0.00498949,-0.0395945,0.042581,-0.0379453,-0.694148,0.0465176,0.0493836,1294,1828,10.8867,-52.8039
77,-804,11.181,52.7993,0.0236451,-0.00300247,-0.0303888,0.0435027,-0.02286,-0.578797,0.0389275,0.0464051,1301,1828,11.181,-52.7993
84,-804,11.3395,52.6792,0.0386671,0.00202005,-0.0185789,0.0464382,-0.00575104,-0.39616,0.033043,0.0460117,1308,1828,11.3395,-52.6792
91,-804,0,0,0,0,0,0,0,0,0,-1,1315,1828,0,0
98,-804,0,0,0,0,0,0,0,0,0,-1,1322,1828,0,0
105,-804,0,0,0,0,0,0,0,0,0,-1,1329,1828,0,0
112,-804,0,0,0,0,0,0,0,0,0,-1,1336,1828,0,0
119,-804,0,0,0,0,0,0,0,0,0,-1,1343,1828,0,0
126,-804,0,0,0,0,0,0,0,0,0,-1,1350,1828,0,0
133,-804,0,0,0,0,0,0,0,0,0,-1,1357,1828,0,0
140,-804,0,0,0,0,0,0,0,0,0,-1,1364,1828,0,0
147,-804,0,0,0,0,0,0,0,0,0,-1,1371,1828,0,0
154,-804,0,0,0,0,0,0,0,0,0,-1,1378,1828,0,0
161,-804,0,0,0,0,0,0,0,0,0,-1,1385,1828,0,0
168,-804,0,0,0,0,0,0,0,0,0,-1,1392,1828,0,0
175,-804,0,0,0,0,0,0,0,0,0,-1,1399,1828,0,0
182,-804,0,0,0,0,0,0,0,0,0,-1,1406,1828,0,0
189,-804,0,0,0,0,0,0,0,0,0,-1,1413,1828,0,0
196,-804,0,0,0,0,0,0,0,0,0,-1,1420,1828,0,0
203,-804,0,0,0,0,0,0,0,0,0,-1,1427,1828,0,0
210,-804,0,0,0,0,0,0,0,0,0,-1,1434,1828,0,0
217,-804,0,0,0,0,0,0,0,0,0,-1,1441,1828,0,0
224,-804,0,0,0,0,0,0,0,0,0,-1,1448,1828,0,0
231,-804,0,0,0,0,0,0,0,0,0,-1,1455,1828,0,0
238,-804,0,0,0,0,0,0,0,0,0,-1,1462,1828,0,0
245,-804,0,0,0,0,0,0,0,0,0,-1,1469,1828,0,0
252,-804,0,0,0,0,0,0,0,0,0,-1,1476,1828,0,0
259,-804,0,0,0,0,0,0,0,0,0,-1,1483,1828,0,0
266,-804,0,0,0,0,0,0,0,0,0,-1,1490,1828,0,0
273,-804,0,0,0,0,0,0,0,0,0,-1,1497,1828,0,0
280,-804,0,0,0,0,0,0,0,0,0,-1,1504,1828,0,0
287,-804,0,0,0,0,0,0,0,0,0,-1,1511,1828,0,0
294,-804,0,0,0,0,0,0,0,0,0,-1,1518,1828,0,0
301,-804,0,0,0,0,0,0,0,0,0,-1,1525,1828,0,0
308,-804,0,0,0,0,0,0,0,0,0,-1,1532,1828,0,0
315,-804,0,0,0,0,0,0,0,0,0,-1,1539,1828,0,0
322,-804,0,0,0,0,0,0,0,0,0,-1,1546,1828,0,0
329,-804,0,0,0,0,0,0,0,0,0,-1,1553,1828,0,0
336,-804,0,0,0,0,0,0,0,0,0,-1,1560,1828,0,0
343,-804,0,0,0,0,0,0,0,0,0,-1,1567,1828,0,0
350,-804,0,0,0,0,0,0,0,0,0,-1,1574,1828,0,0
357,-804,0,0,0,0,0,0,0,0,0,-1,1581,1828,0,0
364,-804,0,0,0,0,0,0,0,0,0,-1,1588,1828,0,0
371,-804,0,0,0,0,0,0,0,0,0,-1,1595,1828,0,0
378,-804,0,0,0,0,0,0,0,0,0,-1,1602,1828,0,0
385,-804,0,0,0,0,0,0,0,0,0,-1,1609,1828,0,0
392,-804,0,0,0,0,0,0,0,0,0,-1,1616,1828,0,0
399,-804,0,0,0,0,0,0,0,0,0,-1,1623,1828,0,0
406,-804,0,0,0,0,0,0,0,0,0,-1,1630,1828,0,0
413,-804,0,0,0,0,0,0,0,0,0,-1,1637,1828,0,0
420,-804,0,0,0,0,0,0,0,0,0,-1,1644,1828,0,0
427,-804,0,0,0,0,0,0,0,0,0,-1,1651,1828,0,0
434,-804,0,0,0,0,0,0,0,0,0,-1,1658,1828,0,0
441,-804,0,0,0,0,0,0,0,0,0,-1,1665,1828,0,0
448,-804,0,0,0,0,0,0,0,0,0,-1,1672,1828,0,0
455,-804,0,0,0,0,0,0,0,0,0,-1,1679,1828,0,0
462,-804,0,0,0,0,0,0,0,0,0,-1,1686,1828,0,0
469,-804,0,0,0,0,0,0,0,0,0,-1,1693,1828,0,0
476,-804,0,0,0,0,0,0,0,0,0,-1,1700,1828,0,0
483,-804,0,0,0,0,0,0,0,0,0,-1,1707,1828,0,0
490,-804,0,0,0,0,0,0,0,0,0,-1,1714,1828,0,0
497,-804,0,0,0,0,0,0,0,0,0,-1,1721,1828,0,0
504,-804,0,0,0,0,0,0,0,0,0,-1,1728,1828,0,0
511,-804,0,0,0,0,0,0,0,0,0,-1,1735,1828,0,0
518,-804,0,0,0,0,0,0,0,0,0,-1,1742,1828,0,0
525,-804,0,0,0,0,0,0,0,0,0,-1,1749,1828,0,0
532,-804,0,0,0,0,0,0,0,0,0,-1,1756,1828,0,0
539,-804,0,0,0,0,0,0,0,0,0,-1,1763,1828,0,0
546,-804,0,0,0,0,0,0,0,0,0,-1,1770,1828,0,0
553,-804,0,0,0,0,0,0,0,0,0,-1,1777,1828,0,0
560,-804,0,0,0,0,0,0,0,0,0,-1,1784,1828,0,0
567,-804,0,0,0,0,0,0,0,0,0,-1,1791,1828,0,0
574,-804,0,0,0,0,0,0,0,0,0,-1,1798,1828,0,0
581,-804,0,0,0,0,0,0,0,0,0,-1,1805,1828,0,0
588,-804,0,0,0,0,0,0,0,0,0,-1,1812,1828,0,0
595,-804,0,0,0,0,0,0,0,0,0,-1,1819,1828,0,0
602,-804,0,0,0,0,0,0,0,0,0,-1,1826,1828,0,0
609,-804,0,0,0,0,0,0,0,0,0,-1,1833,1828,0,0
616,-804,0,0,0,0,0,0,0,0,0,-1,1840,1828,0,0
623,-804,0,0,0,0,0,0,0,0,0,-1,1847,1828,0,0
630,-804,0,0,0,0,0,0,0,0,0,-1,1854,1828,0,0
637,-804,0,0,0,0,0,0,0,0,0,-1,1861,1828,0,0
644,-804,0,0,0,0,0,0,0,0,0,-1,1868,1828,0,0
651,-804,0,0,0,0,0,0,0,0,0,-1,1875,1828,0,0
658,-804,0,0,0,0,0,0,0,0,0,-1,1882,1828,0,0
665,-804,0,0,0,0,0,0,0,0,0,-1,1889,1828,0,0
672,-804,0,0,0,0,0,0,0,0,0,-1,1896,1828,0,0
679,-804,0,0,0,0,0,0,0,0,0,-1,1903,1828,0,0
686,-804,0,0,0,0,0,0,0,0,0,-1,1910,1828,0,0
693,-804,0,0,0,0,0,0,0,0,0,-1,1917,1828,0,0
700,-804,0,0,0,0,0,0,0,0,0,-1,1924,1828,0,0
707,-804,0,0,0,0,0,0,0,0,0,-1,1931,1828,0,0
714,-804,0,0,0,0,0,0,0,0,0,-1,1938,1828,0,0
721,-804,0,0,0,0,0,0,0,0,0,-1,1945,1828,0,0
728,-804,0,0,0,0,0,0,0,0,0,-1,1952,1828,0,0
735,-804,0,0,0,0,0,0,0,0,0,-1,1959,1828,0,0
742,-804,0,0,0,0,0,0,0,0,0,-1,1966,1828,0,0
749,-804,0,0,0,0,0,0,0,0,0,-1,1973,1828,0,0
756,-804,0,0,0,0,0,0,0,0,0,-1,1980,1828,0,0
763,-804,0,0,0,0,0,0,0,0,0,-1,1987,1828,0,0
770,-804,0,0,0,0,0,0,0,0,0,-1,1994,1828,0,0
777,-804,0,0,0,0,0,0,0,0,0,-1,2001,1828,0,0
784,-804,0,0,0,0,0,0,0,0,0,-1,2008,1828,0,0
791,-804,0,0,0,0,0,0,0,0,0,-1,2015,1828,0,0
798,-804,0,0,0,0,0,0,0,0,0,-1,2022,1828,0,0
805,-804,0,0,0,0,0,0,0,0,0,-1,2029,1828,0,0
812,-804,0,0,0,0,0,0,0,0,0,-1,2036,1828,0,0

