 "x_c",  "y_c",  "u_c",  "v_c",  "exx",  "eyy",  "exy",  "e1",  "e2",  "gamma",  "e_vonmises",  "sigma",  "x",  "y",  "u",  "v"
-700,715,0,0,0,0,0,0,0,0,0,-1,524,309,0,0
-693,715,0,0,0,0,0,0,0,0,0,-1,531,309,0,0
-686,715,0,0,0,0,0,0,0,0,0,-1,538,309,0,0
-679,715,0,0,0,0,0,0,0,0,0,-1,545,309,0,0
-672,715,0,0,0,0,0,0,0,0,0,-1,552,309,0,0
-665,715,0,0,0,0,0,0,0,0,0,-1,559,309,0,0
-658,715,0,0,0,0,0,0,0,0,0,-1,566,309,0,0
-651,715,0,0,0,0,0,0,0,0,0,-1,573,309,0,0
-644,715,0,0,0,0,0,0,0,0,0,-1,580,309,0,0
-637,715,0,0,0,0,0,0,0,0,0,-1,587,309,0,0
-630,715,0,0,0,0,0,0,0,0,0,-1,594,309,0,0
-623,715,0,0,0,0,0,0,0,0,0,-1,601,309,0,0
-616,715,0,0,0,0,0,0,0,0,0,-1,608,309,0,0
-609,715,0,0,0,0,0,0,0,0,0,-1,615,309,0,0
-602,715,0,0,0,0,0,0,0,0,0,-1,622,309,0,0
-595,715,0,0,0,0,0,0,0,0,0,-1,629,309,0,0
-588,715,0,0,0,0,0,0,0,0,0,-1,636,309,0,0
-581,715,0,0,0,0,0,0,0,0,0,-1,643,309,0,0
-574,715,0,0,0,0,0,0,0,0,0,-1,650,309,0,0
-567,715,0,0,0,0,0,0,0,0,0,-1,657,309,0,0
-560,715,0,0,0,0,0,0,0,0,0,-1,664,309,0,0
-553,715,0,0,0,0,0,0,0,0,0,-1,671,309,0,0
-546,715,0,0,0,0,0,0,0,0,0,-1,678,309,0,0
-539,715,0,0,0,0,0,0,0,0,0,-1,685,309,0,0
-532,715,0,0,0,0,0,0,0,0,0,-1,692,309,0,0
-525,715,0,0,0,0,0,0,0,0,0,-1,699,309,0,0
-518,715,0,0,0,0,0,0,0,0,0,-1,706,309,0,0
-511,715,0,0,0,0,0,0,0,0,0,-1,713,309,0,0
-504,715,0,0,0,0,0,0,0,0,0,-1,720,309,0,0
-497,715,0,0,0,0,0,0,0,0,0,-1,727,309,0,0
-490,715,0,0,0,0,0,0,0,0,0,-1,734,309,0,0
-483,715,0,0,0,0,0,0,0,0,0,-1,741,309,0,0
-476,715,0,0,0,0,0,0,0,0,0,-1,748,309,0,0
-469,715,0,0,0,0,0,0,0,0,0,-1,755,309,0,0
-462,715,0,0,0,0,0,0,0,0,0,-1,762,309,0,0
-455,715,0,0,0,0,0,0,0,0,0,-1,769,309,0,0
-448,715,0,0,0,0,0,0,0,0,0,-1,776,309,0,0
-441,715,0,0,0,0,0,0,0,0,0,-1,783,309,0,0
-434,715,0,0,0,0,0,0,0,0,0,-1,790,309,0,0
-427,715,0,0,0,0,0,0,0,0,0,-1,797,309,0,0
-420,715,0,0,0,0,0,0,0,0,0,-1,804,309,0,0
-413,715,0,0,0,0,0,0,0,0,0,-1,811,309,0,0
-406,715,0,0,0,0,0,0,0,0,0,-1,818,309,0,0
-399,715,0,0,0,0,0,0,0,0,0,-1,825,309,0,0
-392,715,0,0,0,0,0,0,0,0,0,-1,832,309,0,0
-385,715,0,0,0,0,0,0,0,0,0,-1,839,309,0,0
-378,715,0,0,0,0,0,0,0,0,0,-1,846,309,0,0
-371,715,0,0,0,0,0,0,0,0,0,-1,853,309,0,0
-364,715,0,0,0,0,0,0,0,0,0,-1,860,309,0,0
-357,715,0,0,0,0,0,0,0,0,0,-1,867,309,0,0
-350,715,0,0,0,0,0,0,0,0,0,-1,874,309,0,0
-343,715,0,0,0,0,0,0,0,0,0,-1,881,309,0,0
-336,715,0,0,0,0,0,0,0,0,0,-1,888,309,0,0
-329,715,0,0,0,0,0,0,0,0,0,-1,895,309,0,0
-322,715,0,0,0,0,0,0,0,0,0,-1,902,309,0,0
-315,715,0,0,0,0,0,0,0,0,0,-1,909,309,0,0
-308,715,0,0,0,0,0,0,0,0,0,-1,916,309,0,0
-301,715,0,0,0,0,0,0,0,0,0,-1,923,309,0,0
-294,715,0,0,0,0,0,0,0,0,0,-1,930,309,0,0
-287,715,0,0,0,0,0,0,0,0,0,-1,937,309,0,0
-280,715,0,0,0,0,0,0,0,0,0,-1,944,309,0,0
-273,715,0,0,0,0,0,0,0,0,0,-1,951,309,0,0
-266,715,0,0,0,0,0,0,0,0,0,-1,958,309,0,0
-259,715,0,0,0,0,0,0,0,0,0,-1,965,309,0,0
-252,715,0,0,0,0,0,0,0,0,0,-1,972,309,0,0
-245,715,0,0,0,0,0,0,0,0,0,-1,979,309,0,0
-238,715,0,0,0,0,0,0,0,0,0,-1,986,309,0,0
-231,715,0,0,0,0,0,0,0,0,0,-1,993,309,0,0
-224,715,0,0,0,0,0,0,0,0,0,-1,1000,309,0,0
-217,715,0,0,0,0,0,0,0,0,0,-1,1007,309,0,0
-210,715,0,0,0,0,0,0,0,0,0,-1,1014,309,0,0
-203,715,0,0,0,0,0,0,0,0,0,-1,1021,309,0,0
-196,715,0,0,0,0,0,0,0,0,0,-1,1028,309,0,0
-189,715,0,0,0,0,0,0,0,0,0,-1,1035,309,0,0
-182,715,0,0,0,0,0,0,0,0,0,-1,1042,309,0,0
-175,715,0,0,0,0,0,0,0,0,0,-1,1049,309,0,0
-168,715,0,0,0,0,0,0,0,0,0,-1,1056,309,0,0
-161,715,0,0,0,0,0,0,0,0,0,-1,1063,309,0,0
-154,715,0,0,0,0,0,0,0,0,0,-1,1070,309,0,0
-147,715,0,0,0,0,0,0,0,0,0,-1,1077,309,0,0
-140,715,0,0,0,0,0,0,0,0,0,-1,1084,309,0,0
-133,715,0,0,0,0,0,0,0,0,0,-1,1091,309,0,0
-126,715,0,0,0,0,0,0,0,0,0,-1,1098,309,0,0
-119,715,0,0,0,0,0,0,0,0,0,-1,1105,309,0,0
-112,715,0,0,0,0,0,0,0,0,0,-1,1112,309,0,0
-105,715,0,0,0,0,0,0,0,0,0,-1,1119,309,0,0
-98,715,0,0,0,0,0,0,0,0,0,-1,1126,309,0,0
-91,715,0,0,0,0,0,0,0,0,0,-1,1133,309,0,0
-84,715,0,0,0,0,0,0,0,0,0,-1,1140,309,0,0
-77,715,0,0,0,0,0,0,0,0,0,-1,1147,309,0,0
-70,715,0,0,0,0,0,0,0,0,0,-1,1154,309,0,0
-63,715,0,0,0,0,0,0,0,0,0,-1,1161,309,0,0
-56,715,0,0,0,0,0,0,0,0,0,-1,1168,309,0,0
-49,715,0,0,0,0,0,0,0,0,0,-1,1175,309,0,0
-42,715,0,0,0,0,0,0,0,0,0,-1,1182,309,0,0
-35,715,0,0,0,0,0,0,0,0,0,-1,1189,309,0,0
-28,715,0,0,0,0,0,0,0,0,0,-1,1196,309,0,0
-21,715,0,0,0,0,0,0,0,0,0,-1,1203,309,0,0
-14,715,0,0,0,0,0,0,0,0,0,-1,1210,309,0,0
-7,715,0,0,0,0,0,0,0,0,0,-1,1217,309,0,0
0,715,0,0,0,0,0,0,0,0,0,-1,1224,309,0,0
7,715,0,0,0,0,0,0,0,0,0,-1,1231,309,0,0
14,715,0,0,0,0,0,0,0,0,0,-1,1238,309,0,0
21,715,0,0,0,0,0,0,0,0,0,-1,1245,309,0,0
28,715,0,0,0,0,0,0,0,0,0,-1,1252,309,0,0
35,715,0,0,0,0,0,0,0,0,0,-1,1259,309,0,0
42,715,0,0,0,0,0,0,0,0,0,-1,1266,309,0,0
49,715,0,0,0,0,0,0,0,0,0,-1,1273,309,0,0
56,715,0,0,0,0,0,0,0,0,0,-1,1280,309,0,0
63,715,7.90259,-69.6998,0.125259,0.0956415,-0.101201,0.212729,0.00817107,-0.712749,0.139176,0.0468778,1287,309,7.90264,69.6998
70,715,9.35364,-70.7602,0.114806,0.0938783,-0.0872665,0.192234,0.0164506,-0.725729,0.123039,0.0463643,1294,309,9.35369,70.7602
77,715,0,0,0,0,0,0,0,0,0,-1,1301,309,0,0
84,715,0,0,0,0,0,0,0,0,0,-1,1308,309,0,0
91,715,0,0,0,0,0,0,0,0,0,-1,1315,309,0,0
98,715,0,0,0,0,0,0,0,0,0,-1,1322,309,0,0
105,715,0,0,0,0,0,0,0,0,0,-1,1329,309,0,0
112,715,0,0,0,0,0,0,0,0,0,-1,1336,309,0,0
119,715,0,0,0,0,0,0,0,0,0,-1,1343,309,0,0
126,715,0,0,0,0,0,0,0,0,0,-1,1350,309,0,0
133,715,0,0,0,0,0,0,0,0,0,-1,1357,309,0,0
140,715,0,0,0,0,0,0,0,0,0,-1,1364,309,0,0
147,715,0,0,0,0,0,0,0,0,0,-1,1371,309,0,0
154,715,0,0,0,0,0,0,0,0,0,-1,1378,309,0,0
161,715,0,0,0,0,0,0,0,0,0,-1,1385,309,0,0
168,715,0,0,0,0,0,0,0,0,0,-1,1392,309,0,0
175,715,0,0,0,0,0,0,0,0,0,-1,1399,309,0,0
182,715,0,0,0,0,0,0,0,0,0,-1,1406,309,0,0
189,715,0,0,0,0,0,0,0,0,0,-1,1413,309,0,0
196,715,0,0,0,0,0,0,0,0,0,-1,1420,309,0,0
203,715,0,0,0,0,0,0,0,0,0,-1,1427,309,0,0
210,715,0,0,0,0,0,0,0,0,0,-1,1434,309,0,0
217,715,0,0,0,0,0,0,0,0,0,-1,1441,309,0,0
224,715,0,0,0,0,0,0,0,0,0,-1,1448,309,0,0
231,715,0,0,0,0,0,0,0,0,0,-1,1455,309,0,0
238,715,0,0,0,0,0,0,0,0,0,-1,1462,309,0,0
245,715,0,0,0,0,0,0,0,0,0,-1,1469,309,0,0
252,715,0,0,0,0,0,0,0,0,0,-1,1476,309,0,0
259,715,0,0,0,0,0,0,0,0,0,-1,1483,309,0,0
266,715,0,0,0,0,0,0,0,0,0,-1,1490,309,0,0
273,715,0,0,0,0,0,0,0,0,0,-1,1497,309,0,0
280,715,0,0,0,0,0,0,0,0,0,-1,1504,309,0,0
287,715,0,0,0,0,0,0,0,0,0,-1,1511,309,0,0
294,715,0,0,0,0,0,0,0,0,0,-1,1518,309,0,0
301,715,0,0,0,0,0,0,0,0,0,-1,1525,309,0,0
308,715,0,0,0,0,0,0,0,0,0,-1,1532,309,0,0
315,715,0,0,0,0,0,0,0,0,0,-1,1539,309,0,0
322,715,0,0,0,0,0,0,0,0,0,-1,1546,309,0,0
329,715,0,0,0,0,0,0,0,0,0,-1,1553,309,0,0
336,715,0,0,0,0,0,0,0,0,0,-1,1560,309,0,0
343,715,0,0,0,0,0,0,0,0,0,-1,1567,309,0,0
350,715,0,0,0,0,0,0,0,0,0,-1,1574,309,0,0
357,715,0,0,0,0,0,0,0,0,0,-1,1581,309,0,0
364,715,0,0,0,0,0,0,0,0,0,-1,1588,309,0,0
371,715,0,0,0,0,0,0,0,0,0,-1,1595,309,0,0
378,715,0,0,0,0,0,0,0,0,0,-1,1602,309,0,0
385,715,0,0,0,0,0,0,0,0,0,-1,1609,309,0,0
392,715,0,0,0,0,0,0,0,0,0,-1,1616,309,0,0
399,715,0,0,0,0,0,0,0,0,0,-1,1623,309,0,0
406,715,0,0,0,0,0,0,0,0,0,-1,1630,309,0,0
413,715,0,0,0,0,0,0,0,0,0,-1,1637,309,0,0
420,715,0,0,0,0,0,0,0,0,0,-1,1644,309,0,0
427,715,0,0,0,0,0,0,0,0,0,-1,1651,309,0,0
434,715,0,0,0,0,0,0,0,0,0,-1,1658,309,0,0
441,715,0,0,0,0,0,0,0,0,0,-1,1665,309,0,0
448,715,0,0,0,0,0,0,0,0,0,-1,1672,309,0,0
455,715,0,0,0,0,0,0,0,0,0,-1,1679,309,0,0
462,715,0,0,0,0,0,0,0,0,0,-1,1686,309,0,0
469,715,0,0,0,0,0,0,0,0,0,-1,1693,309,0,0
476,715,0,0,0,0,0,0,0,0,0,-1,1700,309,0,0
483,715,0,0,0,0,0,0,0,0,0,-1,1707,309,0,0
490,715,0,0,0,0,0,0,0,0,0,-1,1714,309,0,0
497,715,0,0,0,0,0,0,0,0,0,-1,1721,309,0,0
504,715,0,0,0,0,0,0,0,0,0,-1,1728,309,0,0
511,715,0,0,0,0,0,0,0,0,0,-1,1735,309,0,0
518,715,0,0,0,0,0,0,0,0,0,-1,1742,309,0,0
525,715,0,0,0,0,0,0,0,0,0,-1,1749,309,0,0
532,715,0,0,0,0,0,0,0,0,0,-1,1756,309,0,0
539,715,0,0,0,0,0,0,0,0,0,-1,1763,309,0,0
546,715,0,0,0,0,0,0,0,0,0,-1,1770,309,0,0
553,715,0,0,0,0,0,0,0,0,0,-1,1777,309,0,0
560,715,0,0,0,0,0,0,0,0,0,-1,1784,309,0,0
567,715,0,0,0,0,0,0,0,0,0,-1,1791,309,0,0
574,715,0,0,0,0,0,0,0,0,0,-1,1798,309,0,0
581,715,0,0,0,0,0,0,0,0,0,-1,1805,309,0,0
588,715,0,0,0,0,0,0,0,0,0,-1,1812,309,0,0
595,715,0,0,0,0,0,0,0,0,0,-1,1819,309,0,0
602,715,0,0,0,0,0,0,0,0,0,-1,1826,309,0,0
609,715,0,0,0,0,0,0,0,0,0,-1,1833,309,0,0
616,715,0,0,0,0,0,0,0,0,0,-1,1840,309,0,0
623,715,0,0,0,0,0,0,0,0,0,-1,1847,309,0,0
630,715,0,0,0,0,0,0,0,0,0,-1,1854,309,0,0
637,715,0,0,0,0,0,0,0,0,0,-1,1861,309,0,0
644,715,0,0,0,0,0,0,0,0,0,-1,1868,309,0,0
651,715,0,0,0,0,0,0,0,0,0,-1,1875,309,0,0
658,715,0,0,0,0,0,0,0,0,0,-1,1882,309,0,0
665,715,0,0,0,0,0,0,0,0,0,-1,1889,309,0,0
672,715,0,0,0,0,0,0,0,0,0,-1,1896,309,0,0
679,715,0,0,0,0,0,0,0,0,0,-1,1903,309,0,0
686,715,0,0,0,0,0,0,0,0,0,-1,1910,309,0,0
693,715,0,0,0,0,0,0,0,0,0,-1,1917,309,0,0
700,715,0,0,0,0,0,0,0,0,0,-1,1924,309,0,0
707,715,0,0,0,0,0,0,0,0,0,-1,1931,309,0,0
714,715,0,0,0,0,0,0,0,0,0,-1,1938,309,0,0
721,715,0,0,0,0,0,0,0,0,0,-1,1945,309,0,0
728,715,0,0,0,0,0,0,0,0,0,-1,1952,309,0,0
735,715,0,0,0,0,0,0,0,0,0,-1,1959,309,0,0
742,715,0,0,0,0,0,0,0,0,0,-1,1966,309,0,0
749,715,0,0,0,0,0,0,0,0,0,-1,1973,309,0,0
756,715,0,0,0,0,0,0,0,0,0,-1,1980,309,0,0
763,715,0,0,0,0,0,0,0,0,0,-1,1987,309,0,0
770,715,0,0,0,0,0,0,0,0,0,-1,1994,309,0,0
777,715,0,0,0,0,0,0,0,0,0,-1,2001,309,0,0
784,715,0,0,0,0,0,0,0,0,0,-1,2008,309,0,0
791,715,0,0,0,0,0,0,0,0,0,-1,2015,309,0,0
798,715,0,0,0,0,0,0,0,0,0,-1,2022,309,0,0
805,715,0,0,0,0,0,0,0,0,0,-1,2029,309,0,0
812,715,0,0,0,0,0,0,0,0,0,-1,2036,309,0,0
-700,708,0,0,0,0,0,0,0,0,0,-1,524,316,0,0
-693,708,0,0,0,0,0,0,0,0,0,-1,531,316,0,0
-686,708,0,0,0,0,0,0,0,0,0,-1,538,316,0,0
-679,708,0,0,0,0,0,0,0,0,0,-1,545,316,0,0
-672,708,0,0,0,0,0,0,0,0,0,-1,552,316,0,0
-665,708,0,0,0,0,0,0,0,0,0,-1,559,316,0,0
-658,708,0,0,0,0,0,0,0,0,0,-1,566,316,0,0
-651,708,0,0,0,0,0,0,0,0,0,-1,573,316,0,0
-644,708,0,0,0,0,0,0,0,0,0,-1,580,316,0,0
-637,708,0,0,0,0,0,0,0,0,0,-1,587,316,0,0
-630,708,0,0,0,0,0,0,0,0,0,-1,594,316,0,0
-623,708,0,0,0,0,0,0,0,0,0,-1,601,316,0,0
-616,708,0,0,0,0,0,0,0,0,0,-1,608,316,0,0
-609,708,0,0,0,0,0,0,0,0,0,-1,615,316,0,0
-602,708,0,0,0,0,0,0,0,0,0,-1,622,316,0,0
-595,708,0,0,0,0,0,0,0,0,0,-1,629,316,0,0
-588,708,0,0,0,0,0,0,0,0,0,-1,636,316,0,0
-581,708,0,0,0,0,0,0,0,0,0,-1,643,316,0,0
-574,708,0,0,0,0,0,0,0,0,0,-1,650,316,0,0
-567,708,0,0,0,0,0,0,0,0,0,-1,657,316,0,0
-560,708,0,0,0,0,0,0,0,0,0,-1,664,316,0,0
-553,708,0,0,0,0,0,0,0,0,0,-1,671,316,0,0
-546,708,0,0,0,0,0,0,0,0,0,-1,678,316,0,0
-539,708,0,0,0,0,0,0,0,0,0,-1,685,316,0,0
-532,708,0,0,0,0,0,0,0,0,0,-1,692,316,0,0
-525,708,0,0,0,0,0,0,0,0,0,-1,699,316,0,0
-518,708,0,0,0,0,0,0,0,0,0,-1,706,316,0,0
-511,708,0,0,0,0,0,0,0,0,0,-1,713,316,0,0
-504,708,0,0,0,0,0,0,0,0,0,-1,720,316,0,0
-497,708,0,0,0,0,0,0,0,0,0,-1,727,316,0,0
-490,708,0,0,0,0,0,0,0,0,0,-1,734,316,0,0
-483,708,0,0,0,0,0,0,0,0,0,-1,741,316,0,0
-476,708,0,0,0,0,0,0,0,0,0,-1,748,316,0,0
-469,708,0,0,0,0,0,0,0,0,0,-1,755,316,0,0
-462,708,0,0,0,0,0,0,0,0,0,-1,762,316,0,0
-455,708,0,0,0,0,0,0,0,0,0,-1,769,316,0,0
-448,708,0,0,0,0,0,0,0,0,0,-1,776,316,0,0
-441,708,0,0,0,0,0,0,0,0,0,-1,783,316,0,0
-434,708,0,0,0,0,0,0,0,0,0,-1,790,316,0,0
-427,708,0,0,0,0,0,0,0,0,0,-1,797,316,0,0
-420,708,0,0,0,0,0,0,0,0,0,-1,804,316,0,0
-413,708,0,0,0,0,0,0,0,0,0,-1,811,316,0,0
-406,708,0,0,0,0,0,0,0,0,0,-1,818,316,0,0
-399,708,0,0,0,0,0,0,0,0,0,-1,825,316,0,0
-392,708,0,0,0,0,0,0,0,0,0,-1,832,316,0,0
-385,708,0,0,0,0,0,0,0,0,0,-1,839,316,0,0
-378,708,0,0,0,0,0,0,0,0,0,-1,846,316,0,0
-371,708,0,0,0,0,0,0,0,0,0,-1,853,316,0,0
-364,708,0,0,0,0,0,0,0,0,0,-1,860,316,0,0
-357,708,0,0,0,0,0,0,0,0,0,-1,867,316,0,0
-350,708,0,0,0,0,0,0,0,0,0,-1,874,316,0,0
-343,708,0,0,0,0,0,0,0,0,0,-1,881,316,0,0
-336,708,0,0,0,0,0,0,0,0,0,-1,888,316,0,0
-329,708,0,0,0,0,0,0,0,0,0,-1,895,316,0,0
-322,708,0,0,0,0,0,0,0,0,0,-1,902,316,0,0
-315,708,0,0,0,0,0,0,0,0,0,-1,909,316,0,0
-308,708,0,0,0,0,0,0,0,0,0,-1,916,316,0,0
-301,708,0,0,0,0,0,0,0,0,0,-1,923,316,0,0
-294,708,0,0,0,0,0,0,0,0,0,-1,930,316,0,0
-287,708,0,0,0,0,0,0,0,0,0,-1,937,316,0,0
-280,708,0,0,0,0,0,0,0,0,0,-1,944,316,0,0
-273,708,0,0,0,0,0,0,0,0,0,-1,951,316,0,0
-266,708,0,0,0,0,0,0,0,0,0,-1,958,316,0,0
-259,708,0,0,0,0,0,0,0,0,0,-1,965,316,0,0
-252,708,0,0,0,0,0,0,0,0,0,-1,972,316,0,0
-245,708,0,0,0,0,0,0,0,0,0,-1,979,316,0,0
-238,708,0,0,0,0,0,0,0,0,0,-1,986,316,0,0
-231,708,0,0,0,0,0,0,0,0,0,-1,993,316,0,0
-224,708,0,0,0,0,0,0,0,0,0,-1,1000,316,0,0
-217,708,0,0,0,0,0,0,0,0,0,-1,1007,316,0,0
-210,708,0,0,0,0,0,0,0,0,0,-1,1014,316,0,0
-203,708,0,0,0,0,0,0,0,0,0,-1,1021,316,0,0
-196,708,0,0,0,0,0,0,0,0,0,-1,1028,316,0,0
-189,708,0,0,0,0,0,0,0,0,0,-1,1035,316,0,0
-182,708,0,0,0,0,0,0,0,0,0,-1,1042,316,0,0
-175,708,0,0,0,0,0,0,0,0,0,-1,1049,316,0,0
-168,708,0,0,0,0,0,0,0,0,0,-1,1056,316,0,0
-161,708,0,0,0,0,0,0,0,0,0,-1,1063,316,0,0
-154,708,0,0,0,0,0,0,0,0,0,-1,1070,316,0,0
-147,708,0,0,0,0,0,0,0,0,0,-1,1077,316,0,0
-140,708,0,0,0,0,0,0,0,0,0,-1,1084,316,0,0
-133,708,0,0,0,0,0,0,0,0,0,-1,1091,316,0,0
-126,708,0,0,0,0,0,0,0,0,0,-1,1098,316,0,0
-119,708,0,0,0,0,0,0,0,0,0,-1,1105,316,0,0
-112,708,0,0,0,0,0,0,0,0,0,-1,1112,316,0,0
-105,708,0,0,0,0,0,0,0,0,0,-1,1119,316,0,0
-98,708,0,0,0,0,0,0,0,0,0,-1,1126,316,0,0
-91,708,0,0,0,0,0,0,0,0,0,-1,1133,316,0,0
-84,708,0,0,0,0,0,0,0,0,0,-1,1140,316,0,0
-77,708,0,0,0,0,0,0,0,0,0,-1,1147,316,0,0
-70,708,0,0,0,0,0,0,0,0,0,-1,1154,316,0,0
-63,708,0,0,0,0,0,0,0,0,0,-1,1161,316,0,0
-56,708,0,0,0,0,0,0,0,0,0,-1,1168,316,0,0
-49,708,0,0,0,0,0,0,0,0,0,-1,1175,316,0,0
-42,708,0,0,0,0,0,0,0,0,0,-1,1182,316,0,0
-35,708,-2.71204,-6.31558,0,0,0,0,0,0,0,-1,1189,316,-2.712,6.3156
-28,708,-2.92371,-5.53253,0,0,0,0,0,0,0,-1,1196,316,-2.92375,5.53254
-21,708,-0.417969,-24.5911,0,0,0,0,0,0,0,-1,1203,316,-0.418022,24.5911
-14,708,11.7274,-60.7079,0,0,0,0,0,0,0,-1,1210,316,11.7274,60.7079
-7,708,11.2124,-61.6679,0,0,0,0,0,0,0,-1,1217,316,11.2125,61.6679
0,708,9.54346,-62.1933,0,0,0,0,0,0,0,-1,1224,316,9.54352,62.1933
7,708,9.60168,-61.9107,0,0,0,0,0,0,0,-1,1231,316,9.60174,61.9107
14,708,9.49951,-63.0258,0.0041754,0.188309,-0.103842,0.235021,-0.0425365,-1.14808,0.172615,0.0435755,1238,316,9.49949,63.0258
21,708,9.5166,-64.5847,0.0270804,0.164347,-0.108309,0.223937,-0.0325103,-1.06781,0.161225,0.0445243,1245,316,9.51656,64.5847
28,708,1.72717,-63.9305,0.0466457,0.145524,-0.108852,0.215638,-0.0234688,-0.998562,0.152186,0.0455017,1252,316,1.72713,63.9305
35,708,2.8877,-64.9042,0.0677741,0.133772,-0.109189,0.214839,-0.0132932,-0.932143,0.147856,0.0460639,1259,316,2.88775,64.9042
42,708,4.11853,-65.8065,0.0826044,0.12213,-0.104062,0.208289,-0.00355478,-0.879238,0.14006,0.0457889,1266,316,4.11857,65.8064
49,708,5.57141,-66.813,0.0877784,0.114323,-0.0955539,0.197522,0.00457961,-0.854406,0.130182,0.0441651,1273,316,5.57141,66.813
56,708,7.03259,-68.0695,0,0,0,0,0,0,0,-1,1280,316,7.03257,68.0695
63,708,8.30627,-69.0783,0.0822329,0.109182,-0.0740757,0.170999,0.0204162,-0.875366,0.10784,0.0446554,1287,316,8.30625,69.0783
70,708,9.63293,-70.0092,0.06899,0.110698,-0.0589703,0.152393,0.0272951,-0.955355,0.09383,0.0444059,1294,316,9.63288,70.0092
77,708,10.8885,-71.1068,0,0,0,0,0,0,0,-1,1301,316,10.8885,71.1068
84,708,6.76379,-57.0004,0.029063,0.106537,-0.0242224,0.113487,0.0221133,-1.29139,0.0694701,0.0399936,1308,316,6.76376,57.0004
91,708,8.59094,-59.5354,-0.00219602,0.117136,-0.00727908,0.117578,-0.0026384,-1.5101,0.0792795,0.0456107,1315,316,8.59089,59.5354
98,708,7.31409,-59.9729,-0.0375267,0.122951,0.0124099,0.123905,-0.0384807,1.49407,0.0979823,0.0460714,1322,316,7.31407,59.9729
105,708,6.09851,-60.3325,-0.0701571,0.122658,0.0304777,0.127361,-0.0748599,1.4177,0.118056,0.0495152,1329,316,6.09853,60.3325
112,708,4.922,-60.722,0,0,0,0,0,0,0,-1,1336,316,4.92205,60.722
119,708,4.00708,-58.9098,-0.115609,0.10419,0.0614691,0.120212,-0.131632,1.31581,0.145452,0.0420867,1343,316,4.00712,58.9098
126,708,2.86316,-58.9389,-0.129854,0.0938446,0.074554,0.116415,-0.152424,1.27683,0.155678,0.0427722,1350,316,2.86318,58.9389
133,708,1.92981,-59.2922,-0.131226,0.0791383,0.0820855,0.107378,-0.159465,1.23945,0.155037,0.0457648,1357,316,1.92981,59.2922
140,708,0.726196,-59.6042,0,0,0,0,0,0,0,-1,1364,316,0.726168,59.6042
147,708,-0.532593,-60.0074,0,0,0,0,0,0,0,-1,1371,316,-0.532633,60.0074
154,708,0,0,0,0,0,0,0,0,0,-1,1378,316,0,0
161,708,0,0,0,0,0,0,0,0,0,-1,1385,316,0,0
168,708,0,0,0,0,0,0,0,0,0,-1,1392,316,0,0
175,708,0,0,0,0,0,0,0,0,0,-1,1399,316,0,0
182,708,0,0,0,0,0,0,0,0,0,-1,1406,316,0,0
189,708,0,0,0,0,0,0,0,0,0,-1,1413,316,0,0
196,708,0,0,0,0,0,0,0,0,0,-1,1420,316,0,0
203,708,0,0,0,0,0,0,0,0,0,-1,1427,316,0,0
210,708,0,0,0,0,0,0,0,0,0,-1,1434,316,0,0
217,708,0,0,0,0,0,0,0,0,0,-1,1441,316,0,0
224,708,0,0,0,0,0,0,0,0,0,-1,1448,316,0,0
231,708,0,0,0,0,0,0,0,0,0,-1,1455,316,0,0
238,708,0,0,0,0,0,0,0,0,0,-1,1462,316,0,0
245,708,0,0,0,0,0,0,0,0,0,-1,1469,316,0,0
252,708,0,0,0,0,0,0,0,0,0,-1,1476,316,0,0
259,708,0,0,0,0,0,0,0,0,0,-1,1483,316,0,0
266,708,0,0,0,0,0,0,0,0,0,-1,1490,316,0,0
273,708,0,0,0,0,0,0,0,0,0,-1,1497,316,0,0
280,708,0,0,0,0,0,0,0,0,0,-1,1504,316,0,0
287,708,0,0,0,0,0,0,0,0,0,-1,1511,316,0,0
294,708,0,0,0,0,0,0,0,0,0,-1,1518,316,0,0
301,708,0,0,0,0,0,0,0,0,0,-1,1525,316,0,0
308,708,0,0,0,0,0,0,0,0,0,-1,1532,316,0,0
315,708,0,0,0,0,0,0,0,0,0,-1,1539,316,0,0
322,708,0,0,0,0,0,0,0,0,0,-1,1546,316,0,0
329,708,0,0,0,0,0,0,0,0,0,-1,1553,316,0,0
336,708,0,0,0,0,0,0,0,0,0,-1,1560,316,0,0
343,708,0,0,0,0,0,0,0,0,0,-1,1567,316,0,0
350,708,0,0,0,0,0,0,0,0,0,-1,1574,316,0,0
357,708,0,0,0,0,0,0,0,0,0,-1,1581,316,0,0
364,708,0,0,0,0,0,0,0,0,0,-1,1588,316,0,0
371,708,0,0,0,0,0,0,0,0,0,-1,1595,316,0,0
378,708,0,0,0,0,0,0,0,0,0,-1,1602,316,0,0
385,708,0,0,0,0,0,0,0,0,0,-1,1609,316,0,0
392,708,0,0,0,0,0,0,0,0,0,-1,1616,316,0,0
399,708,0,0,0,0,0,0,0,0,0,-1,1623,316,0,0
406,708,0,0,0,0,0,0,0,0,0,-1,1630,316,0,0
413,708,0,0,0,0,0,0,0,0,0,-1,1637,316,0,0
420,708,0,0,0,0,0,0,0,0,0,-1,1644,316,0,0
427,708,0,0,0,0,0,0,0,0,0,-1,1651,316,0,0
434,708,0,0,0,0,0,0,0,0,0,-1,1658,316,0,0
441,708,0,0,0,0,0,0,0,0,0,-1,1665,316,0,0
448,708,0,0,0,0,0,0,0,0,0,-1,1672,316,0,0
455,708,0,0,0,0,0,0,0,0,0,-1,1679,316,0,0
462,708,0,0,0,0,0,0,0,0,0,-1,1686,316,0,0
469,708,0,0,0,0,0,0,0,0,0,-1,1693,316,0,0
476,708,0,0,0,0,0,0,0,0,0,-1,1700,316,0,0
483,708,0,0,0,0,0,0,0,0,0,-1,1707,316,0,0
490,708,0,0,0,0,0,0,0,0,0,-1,1714,316,0,0
497,708,0,0,0,0,0,0,0,0,0,-1,1721,316,0,0
504,708,0,0,0,0,0,0,0,0,0,-1,1728,316,0,0
511,708,0,0,0,0,0,0,0,0,0,-1,1735,316,0,0
518,708,0,0,0,0,0,0,0,0,0,-1,1742,316,0,0
525,708,0,0,0,0,0,0,0,0,0,-1,1749,316,0,0
532,708,0,0,0,0,0,0,0,0,0,-1,1756,316,0,0
539,708,0,0,0,0,0,0,0,0,0,-1,1763,316,0,0
546,708,0,0,0,0,0,0,0,0,0,-1,1770,316,0,0
553,708,0,0,0,0,0,0,0,0,0,-1,1777,316,0,0
560,708,0,0,0,0,0,0,0,0,0,-1,1784,316,0,0
567,708,0,0,0,0,0,0,0,0,0,-1,1791,316,0,0
574,708,0,0,0,0,0,0,0,0,0,-1,1798,316,0,0
581,708,0,0,0,0,0,0,0,0,0,-1,1805,316,0,0
588,708,0,0,0,0,0,0,0,0,0,-1,1812,316,0,0
595,708,0,0,0,0,0,0,0,0,0,-1,1819,316,0,0
602,708,0,0,0,0,0,0,0,0,0,-1,1826,316,0,0
609,708,0,0,0,0,0,0,0,0,0,-1,1833,316,0,0
616,708,0,0,0,0,0,0,0,0,0,-1,1840,316,0,0
623,708,0,0,0,0,0,0,0,0,0,-1,1847,316,0,0
630,708,0,0,0,0,0,0,0,0,0,-1,1854,316,0,0
637,708,0,0,0,0,0,0,0,0,0,-1,1861,316,0,0
644,708,0,0,0,0,0,0,0,0,0,-1,1868,316,0,0
651,708,0,0,0,0,0,0,0,0,0,-1,1875,316,0,0
658,708,0,0,0,0,0,0,0,0,0,-1,1882,316,0,0
665,708,0,0,0,0,0,0,0,0,0,-1,1889,316,0,0
672,708,0,0,0,0,0,0,0,0,0,-1,1896,316,0,0
679,708,0,0,0,0,0,0,0,0,0,-1,1903,316,0,0
686,708,0,0,0,0,0,0,0,0,0,-1,1910,316,0,0
693,708,0,0,0,0,0,0,0,0,0,-1,1917,316,0,0
700,708,0,0,0,0,0,0,0,0,0,-1,1924,316,0,0
707,708,0,0,0,0,0,0,0,0,0,-1,1931,316,0,0
714,708,0,0,0,0,0,0,0,0,0,-1,1938,316,0,0
721,708,0,0,0,0,0,0,0,0,0,-1,1945,316,0,0
728,708,0,0,0,0,0,0,0,0,0,-1,1952,316,0,0
735,708,0,0,0,0,0,0,0,0,0,-1,1959,316,0,0
742,708,0,0,0,0,0,0,0,0,0,-1,1966,316,0,0
749,708,0,0,0,0,0,0,0,0,0,-1,1973,316,0,0
756,708,0,0,0,0,0,0,0,0,0,-1,1980,316,0,0
763,708,0,0,0,0,0,0,0,0,0,-1,1987,316,0,0
770,708,0,0,0,0,0,0,0,0,0,-1,1994,316,0,0
777,708,0,0,0,0,0,0,0,0,0,-1,2001,316,0,0
784,708,0,0,0,0,0,0,0,0,0,-1,2008,316,0,0
791,708,0,0,0,0,0,0,0,0,0,-1,2015,316,0,0
798,708,0,0,0,0,0,0,0,0,0,-1,2022,316,0,0
805,708,0,0,0,0,0,0,0,0,0,-1,2029,316,0,0
812,708,0,0,0,0,0,0,0,0,0,-1,2036,316,0,0
-700,701,0,0,0,0,0,0,0,0,0,-1,524,323,0,0
-693,701,0,0,0,0,0,0,0,0,0,-1,531,323,0,0
-686,701,0,0,0,0,0,0,0,0,0,-1,538,323,0,0
-679,701,0,0,0,0,0,0,0,0,0,-1,545,323,0,0
-672,701,0,0,0,0,0,0,0,0,0,-1,552,323,0,0
-665,701,0,0,0,0,0,0,0,0,0,-1,559,323,0,0
-658,701,0,0,0,0,0,0,0,0,0,-1,566,323,0,0
-651,701,0,0,0,0,0,0,0,0,0,-1,573,323,0,0
-644,701,0,0,0,0,0,0,0,0,0,-1,580,323,0,0
-637,701,0,0,0,0,0,0,0,0,0,-1,587,323,0,0
-630,701,0,0,0,0,0,0,0,0,0,-1,594,323,0,0
-623,701,0,0,0,0,0,0,0,0,0,-1,601,323,0,0
-616,701,0,0,0,0,0,0,0,0,0,-1,608,323,0,0
-609,701,0,0,0,0,0,0,0,0,0,-1,615,323,0,0
-602,701,0,0,0,0,0,0,0,0,0,-1,622,323,0,0
-595,701,0,0,0,0,0,0,0,0,0,-1,629,323,0,0
-588,701,0,0,0,0,0,0,0,0,0,-1,636,323,0,0
-581,701,0,0,0,0,0,0,0,0,0,-1,643,323,0,0
-574,701,0,0,0,0,0,0,0,0,0,-1,650,323,0,0
-567,701,0,0,0,0,0,0,0,0,0,-1,657,323,0,0
-560,701,0,0,0,0,0,0,0,0,0,-1,664,323,0,0
-553,701,0,0,0,0,0,0,0,0,0,-1,671,323,0,0
-546,701,0,0,0,0,0,0,0,0,0,-1,678,323,0,0
-539,701,0,0,0,0,0,0,0,0,0,-1,685,323,0,0
-532,701,0,0,0,0,0,0,0,0,0,-1,692,323,0,0
-525,701,0,0,0,0,0,0,0,0,0,-1,699,323,0,0
-518,701,0,0,0,0,0,0,0,0,0,-1,706,323,0,0
-511,701,0,0,0,0,0,0,0,0,0,-1,713,323,0,0
-504,701,0,0,0,0,0,0,0,0,0,-1,720,323,0,0
-497,701,0,0,0,0,0,0,0,0,0,-1,727,323,0,0
-490,701,0,0,0,0,0,0,0,0,0,-1,734,323,0,0
-483,701,0,0,0,0,0,0,0,0,0,-1,741,323,0,0
-476,701,0,0,0,0,0,0,0,0,0,-1,748,323,0,0
-469,701,0,0,0,0,0,0,0,0,0,-1,755,323,0,0
-462,701,0,0,0,0,0,0,0,0,0,-1,762,323,0,0
-455,701,0,0,0,0,0,0,0,0,0,-1,769,323,0,0
-448,701,0,0,0,0,0,0,0,0,0,-1,776,323,0,0
-441,701,0,0,0,0,0,0,0,0,0,-1,783,323,0,0
-434,701,0,0,0,0,0,0,0,0,0,-1,790,323,0,0
-427,701,0,0,0,0,0,0,0,0,0,-1,797,323,0,0
-420,701,0,0,0,0,0,0,0,0,0,-1,804,323,0,0
-413,701,0,0,0,0,0,0,0,0,0,-1,811,323,0,0
-406,701,0,0,0,0,0,0,0,0,0,-1,818,323,0,0
-399,701,0,0,0,0,0,0,0,0,0,-1,825,323,0,0
-392,701,0,0,0,0,0,0,0,0,0,-1,832,323,0,0
-385,701,0,0,0,0,0,0,0,0,0,-1,839,323,0,0
-378,701,0,0,0,0,0,0,0,0,0,-1,846,323,0,0
-371,701,0,0,0,0,0,0,0,0,0,-1,853,323,0,0
-364,701,0,0,0,0,0,0,0,0,0,-1,860,323,0,0
-357,701,0,0,0,0,0,0,0,0,0,-1,867,323,0,0
-350,701,0,0,0,0,0,0,0,0,0,-1,874,323,0,0
-343,701,0,0,0,0,0,0,0,0,0,-1,881,323,0,0
-336,701,0,0,0,0,0,0,0,0,0,-1,888,323,0,0
-329,701,0,0,0,0,0,0,0,0,0,-1,895,323,0,0
-322,701,0,0,0,0,0,0,0,0,0,-1,902,323,0,0
-315,701,0,0,0,0,0,0,0,0,0,-1,909,323,0,0
-308,701,0,0,0,0,0,0,0,0,0,-1,916,323,0,0
-301,701,0,0,0,0,0,0,0,0,0,-1,923,323,0,0
-294,701,0,0,0,0,0,0,0,0,0,-1,930,323,0,0
-287,701,0,0,0,0,0,0,0,0,0,-1,937,323,0,0
-280,701,0,0,0,0,0,0,0,0,0,-1,944,323,0,0
-273,701,0,0,0,0,0,0,0,0,0,-1,951,323,0,0
-266,701,0,0,0,0,0,0,0,0,0,-1,958,323,0,0
-259,701,0,0,0,0,0,0,0,0,0,-1,965,323,0,0
-252,701,0,0,0,0,0,0,0,0,0,-1,972,323,0,0
-245,701,0,0,0,0,0,0,0,0,0,-1,979,323,0,0
-238,701,0,0,0,0,0,0,0,0,0,-1,986,323,0,0
-231,701,0,0,0,0,0,0,0,0,0,-1,993,323,0,0
-224,701,0,0,0,0,0,0,0,0,0,-1,1000,323,0,0
-217,701,0,0,0,0,0,0,0,0,0,-1,1007,323,0,0
-210,701,0,0,0,0,0,0,0,0,0,-1,1014,323,0,0
-203,701,0,0,0,0,0,0,0,0,0,-1,1021,323,0,0
-196,701,0,0,0,0,0,0,0,0,0,-1,1028,323,0,0
-189,701,0,0,0,0,0,0,0,0,0,-1,1035,323,0,0
-182,701,0,0,0,0,0,0,0,0,0,-1,1042,323,0,0
-175,701,0,0,0,0,0,0,0,0,0,-1,1049,323,0,0
-168,701,0,0,0,0,0,0,0,0,0,-1,1056,323,0,0
-161,701,0,0,0,0,0,0,0,0,0,-1,1063,323,0,0
-154,701,0,0,0,0,0,0,0,0,0,-1,1070,323,0,0
-147,701,0,0,0,0,0,0,0,0,0,-1,1077,323,0,0
-140,701,0,0,0,0,0,0,0,0,0,-1,1084,323,0,0
-133,701,0,0,0,0,0,0,0,0,0,-1,1091,323,0,0
-126,701,0,0,0,0,0,0,0,0,0,-1,1098,323,0,0
-119,701,0,0,0,0,0,0,0,0,0,-1,1105,323,0,0
-112,701,0,0,0,0,0,0,0,0,0,-1,1112,323,0,0
-105,701,0,0,0,0,0,0,0,0,0,-1,1119,323,0,0
-98,701,0,0,0,0,0,0,0,0,0,-1,1126,323,0,0
-91,701,0,0,0,0,0,0,0,0,0,-1,1133,323,0,0
-84,701,0,0,0,0,0,0,0,0,0,-1,1140,323,0,0
-77,701,0,0,0,0,0,0,0,0,0,-1,1147,323,0,0
-70,701,-12.7566,-30.413,0,0,0,0,0,0,0,-1,1154,323,-12.7566,30.413
-63,701,-18.3169,-21.2322,0,0,0,0,0,0,0,-1,1161,323,-18.3169,21.2322
-56,701,-0.420166,-0.101776,0,0,0,0,0,0,0,-1,1168,323,-0.420119,0.101777
-49,701,-1.09021,-0.155762,0,0,0,0,0,0,0,-1,1175,323,-1.09024,0.155768
-42,701,-0.210327,-0.299133,0,0,0,0,0,0,0,-1,1182,323,-0.210379,0.29914
-35,701,-2.9635,-7.98676,0,0,0,0,0,0,0,-1,1189,323,-2.9635,7.98676
-28,701,-6.64417,-5.4917,0,0,0,0,0,0,0,-1,1196,323,-6.64411,5.4917
-21,701,9.13025,-52.7033,0,0,0,0,0,0,0,-1,1203,323,9.1303,52.7033
-14,701,10.4156,-62.744,0,0,0,0,0,0,0,-1,1210,323,10.4157,62.744
-7,701,9.60681,-62.3626,0,0,0,0,0,0,0,-1,1217,323,9.60679,62.3626
0,701,9.44397,-62.929,-0.0186343,0.176901,-0.0727759,0.201014,-0.0427471,-1.25085,0.150299,0.0498373,1224,323,9.444,62.929
7,701,9.43506,-62.9524,-0.0109759,0.17317,-0.0806812,0.203518,-0.0413238,-1.21102,0.151346,0.0435841,1231,323,9.43505,62.9524
14,701,9.46716,-63.9494,0.00345123,0.160184,-0.0861118,0.19825,-0.034615,-1.15457,0.145088,0.0445928,1238,323,9.46714,63.9494
21,701,9.3728,-65.1667,0.0198454,0.143693,-0.0886497,0.189905,-0.0263664,-1.09027,0.136245,0.0475536,1245,323,9.37285,65.1668
28,701,9.27698,-66.0441,0.033692,0.131053,-0.0882384,0.183149,-0.0184035,-1.03747,0.128673,0.0439396,1252,323,9.27699,66.0441
35,701,3.37793,-64.6629,0.0491098,0.123327,-0.0877722,0.181513,-0.00907578,-0.985395,0.124145,0.0445669,1259,323,3.37792,64.6629
42,701,4.77124,-65.6223,0.0593069,0.115652,-0.0827076,0.174853,0.000105225,-0.949548,0.116534,0.0448101,1266,323,4.77129,65.6223
49,701,6.10339,-66.5651,0.0613569,0.11117,-0.0747194,0.165024,0.00750221,-0.946273,0.107603,0.0418986,1273,323,6.10334,66.5651
56,701,7.86877,-65.9267,0,0,0,0,0,0,0,-1,1280,323,7.86883,65.9267
63,701,8.68091,-68.4376,0,0,0,0,0,0,0,-1,1287,323,8.68093,68.4376
70,701,8.48828,-59.418,0,0,0,0,0,0,0,-1,1294,323,8.48822,59.418
77,701,7.51636,-59.333,0.0209893,0.118758,-0.0242438,0.12444,0.0153077,-1.3406,0.0783572,0.0424724,1301,323,7.5163,59.333
84,701,7.12073,-59.5762,0.000526255,0.113646,-0.00622756,0.113988,0.000184447,-1.51596,0.0759303,0.0436149,1308,323,7.12068,59.5762
91,701,7.36328,-60.4002,-0.0251461,0.121551,0.00935275,0.122144,-0.02574,1.50738,0.0912282,0.0430991,1315,323,7.36328,60.4002
98,701,6.31677,-60.8209,-0.0522345,0.125318,0.0264498,0.129175,-0.056091,1.42601,0.109702,0.0441554,1322,323,6.31676,60.8209
105,701,5.18445,-60.9401,-0.0761292,0.124826,0.0415148,0.133065,-0.0843678,1.37489,0.12658,0.0490413,1329,323,5.18447,60.9401
112,701,4.06787,-60.9525,0,0,0,0,0,0,0,-1,1336,323,4.06787,60.9525
119,701,2.94092,-59.4848,-0.106423,0.110077,0.066077,0.128651,-0.124996,1.29678,0.146448,0.0445738,1343,323,2.94091,59.4848
126,701,1.88,-59.3647,-0.114382,0.101521,0.0760282,0.125607,-0.138468,1.264,0.152524,0.0468215,1350,323,1.87996,59.3647
133,701,0.943237,-59.282,-0.113336,0.0909359,0.0819972,0.119778,-0.142178,1.23257,0.151425,0.0483101,1357,323,0.94326,59.2819
140,701,-0.0732422,-59.1724,0,0,0,0,0,0,0,-1,1364,323,-0.0732037,59.1724
147,701,-1.33118,-60.8159,0,0,0,0,0,0,0,-1,1371,323,-1.3312,60.816
154,701,-2.85742,-60.9789,0,0,0,0,0,0,0,-1,1378,323,-2.8574,60.9789
161,701,-4.83057,-59.3711,0,0,0,0,0,0,0,-1,1385,323,-4.83061,59.3711
168,701,30.7272,1.76184,0,0,0,0,0,0,0,-1,1392,323,30.7272,-1.76184
175,701,31.5035,2.25711,0,0,0,0,0,0,0,-1,1399,323,31.5036,-2.25712
182,701,8.80652,5.42807,0,0,0,0,0,0,0,-1,1406,323,8.8065,-5.42808
189,701,8.58081,4.24493,0,0,0,0,0,0,0,-1,1413,323,8.58082,-4.24494
196,701,0,0,0,0,0,0,0,0,0,-1,1420,323,0,0
203,701,0,0,0,0,0,0,0,0,0,-1,1427,323,0,0
210,701,0,0,0,0,0,0,0,0,0,-1,1434,323,0,0
217,701,0,0,0,0,0,0,0,0,0,-1,1441,323,0,0
224,701,0,0,0,0,0,0,0,0,0,-1,1448,323,0,0
231,701,0,0,0,0,0,0,0,0,0,-1,1455,323,0,0
238,701,0,0,0,0,0,0,0,0,0,-1,1462,323,0,0
245,701,0,0,0,0,0,0,0,0,0,-1,1469,323,0,0
252,701,0,0,0,0,0,0,0,0,0,-1,1476,323,0,0
259,701,0,0,0,0,0,0,0,0,0,-1,1483,323,0,0
266,701,0,0,0,0,0,0,0,0,0,-1,1490,323,0,0
273,701,0,0,0,0,0,0,0,0,0,-1,1497,323,0,0
280,701,0,0,0,0,0,0,0,0,0,-1,1504,323,0,0
287,701,0,0,0,0,0,0,0,0,0,-1,1511,323,0,0
294,701,0,0,0,0,0,0,0,0,0,-1,1518,323,0,0
301,701,0,0,0,0,0,0,0,0,0,-1,1525,323,0,0
308,701,0,0,0,0,0,0,0,0,0,-1,1532,323,0,0
315,701,0,0,0,0,0,0,0,0,0,-1,1539,323,0,0
322,701,0,0,0,0,0,0,0,0,0,-1,1546,323,0,0
329,701,0,0,0,0,0,0,0,0,0,-1,1553,323,0,0
336,701,0,0,0,0,0,0,0,0,0,-1,1560,323,0,0
343,701,0,0,0,0,0,0,0,0,0,-1,1567,323,0,0
350,701,0,0,0,0,0,0,0,0,0,-1,1574,323,0,0
357,701,0,0,0,0,0,0,0,0,0,-1,1581,323,0,0
364,701,0,0,0,0,0,0,0,0,0,-1,1588,323,0,0
371,701,0,0,0,0,0,0,0,0,0,-1,1595,323,0,0
378,701,0,0,0,0,0,0,0,0,0,-1,1602,323,0,0
385,701,0,0,0,0,0,0,0,0,0,-1,1609,323,0,0
392,701,0,0,0,0,0,0,0,0,0,-1,1616,323,0,0
399,701,0,0,0,0,0,0,0,0,0,-1,1623,323,0,0
406,701,0,0,0,0,0,0,0,0,0,-1,1630,323,0,0
413,701,0,0,0,0,0,0,0,0,0,-1,1637,323,0,0
420,701,0,0,0,0,0,0,0,0,0,-1,1644,323,0,0
427,701,0,0,0,0,0,0,0,0,0,-1,1651,323,0,0
434,701,0,0,0,0,0,0,0,0,0,-1,1658,323,0,0
441,701,0,0,0,0,0,0,0,0,0,-1,1665,323,0,0
448,701,0,0,0,0,0,0,0,0,0,-1,1672,323,0,0
455,701,0,0,0,0,0,0,0,0,0,-1,1679,323,0,0
462,701,0,0,0,0,0,0,0,0,0,-1,1686,323,0,0
469,701,0,0,0,0,0,0,0,0,0,-1,1693,323,0,0
476,701,0,0,0,0,0,0,0,0,0,-1,1700,323,0,0
483,701,0,0,0,0,0,0,0,0,0,-1,1707,323,0,0
490,701,0,0,0,0,0,0,0,0,0,-1,1714,323,0,0
497,701,0,0,0,0,0,0,0,0,0,-1,1721,323,0,0
504,701,0,0,0,0,0,0,0,0,0,-1,1728,323,0,0
511,701,0,0,0,0,0,0,0,0,0,-1,1735,323,0,0
518,701,0,0,0,0,0,0,0,0,0,-1,1742,323,0,0
525,701,0,0,0,0,0,0,0,0,0,-1,1749,323,0,0
532,701,0,0,0,0,0,0,0,0,0,-1,1756,323,0,0
539,701,0,0,0,0,0,0,0,0,0,-1,1763,323,0,0
546,701,0,0,0,0,0,0,0,0,0,-1,1770,323,0,0
553,701,0,0,0,0,0,0,0,0,0,-1,1777,323,0,0
560,701,0,0,0,0,0,0,0,0,0,-1,1784,323,0,0
567,701,0,0,0,0,0,0,0,0,0,-1,1791,323,0,0
574,701,0,0,0,0,0,0,0,0,0,-1,1798,323,0,0
581,701,0,0,0,0,0,0,0,0,0,-1,1805,323,0,0
588,701,0,0,0,0,0,0,0,0,0,-1,1812,323,0,0
595,701,0,0,0,0,0,0,0,0,0,-1,1819,323,0,0
602,701,0,0,0,0,0,0,0,0,0,-1,1826,323,0,0
609,701,0,0,0,0,0,0,0,0,0,-1,1833,323,0,0
616,701,0,0,0,0,0,0,0,0,0,-1,1840,323,0,0
623,701,0,0,0,0,0,0,0,0,0,-1,1847,323,0,0
630,701,0,0,0,0,0,0,0,0,0,-1,1854,323,0,0
637,701,0,0,0,0,0,0,0,0,0,-1,1861,323,0,0
644,701,0,0,0,0,0,0,0,0,0,-1,1868,323,0,0
651,701,0,0,0,0,0,0,0,0,0,-1,1875,323,0,0
658,701,0,0,0,0,0,0,0,0,0,-1,1882,323,0,0
665,701,0,0,0,0,0,0,0,0,0,-1,1889,323,0,0
672,701,0,0,0,0,0,0,0,0,0,-1,1896,323,0,0
679,701,0,0,0,0,0,0,0,0,0,-1,1903,323,0,0
686,701,0,0,0,0,0,0,0,0,0,-1,1910,323,0,0
693,701,0,0,0,0,0,0,0,0,0,-1,1917,323,0,0
700,701,0,0,0,0,0,0,0,0,0,-1,1924,323,0,0
707,701,0,0,0,0,0,0,0,0,0,-1,1931,323,0,0
714,701,0,0,0,0,0,0,0,0,0,-1,1938,323,0,0
721,701,0,0,0,0,0,0,0,0,0,-1,1945,323,0,0
728,701,0,0,0,0,0,0,0,0,0,-1,1952,323,0,0
735,701,0,0,0,0,0,0,0,0,0,-1,1959,323,0,0
742,701,0,0,0,0,0,0,0,0,0,-1,1966,323,0,0
749,701,0,0,0,0,0,0,0,0,0,-1,1973,323,0,0
756,701,0,0,0,0,0,0,0,0,0,-1,1980,323,0,0
763,701,0,0,0,0,0,0,0,0,0,-1,1987,323,0,0
770,701,0,0,0,0,0,0,0,0,0,-1,1994,323,0,0
777,701,0,0,0,0,0,0,0,0,0,-1,2001,323,0,0
784,701,0,0,0,0,0,0,0,0,0,-1,2008,323,0,0
791,701,0,0,0,0,0,0,0,0,0,-1,2015,323,0,0
798,701,0,0,0,0,0,0,0,0,0,-1,2022,323,0,0
805,701,0,0,0,0,0,0,0,0,0,-1,2029,323,0,0
812,701,0,0,0,0,0,0,0,0,0,-1,2036,323,0,0
-700,694,0,0,0,0,0,0,0,0,0,-1,524,330,0,0
-693,694,0,0,0,0,0,0,0,0,0,-1,531,330,0,0
-686,694,0,0,0,0,0,0,0,0,0,-1,538,330,0,0
-679,694,0,0,0,0,0,0,0,0,0,-1,545,330,0,0
-672,694,0,0,0,0,0,0,0,0,0,-1,552,330,0,0
-665,694,0,0,0,0,0,0,0,0,0,-1,559,330,0,0
-658,694,0,0,0,0,0,0,0,0,0,-1,566,330,0,0
-651,694,0,0,0,0,0,0,0,0,0,-1,573,330,0,0
-644,694,0,0,0,0,0,0,0,0,0,-1,580,330,0,0
-637,694,0,0,0,0,0,0,0,0,0,-1,587,330,0,0
-630,694,0,0,0,0,0,0,0,0,0,-1,594,330,0,0
-623,694,0,0,0,0,0,0,0,0,0,-1,601,330,0,0
-616,694,0,0,0,0,0,0,0,0,0,-1,608,330,0,0
-609,694,0,0,0,0,0,0,0,0,0,-1,615,330,0,0
-602,694,0,0,0,0,0,0,0,0,0,-1,622,330,0,0
-595,694,0,0,0,0,0,0,0,0,0,-1,629,330,0,0
-588,694,0,0,0,0,0,0,0,0,0,-1,636,330,0,0
-581,694,0,0,0,0,0,0,0,0,0,-1,643,330,0,0
-574,694,0,0,0,0,0,0,0,0,0,-1,650,330,0,0
-567,694,0,0,0,0,0,0,0,0,0,-1,657,330,0,0
-560,694,0,0,0,0,0,0,0,0,0,-1,664,330,0,0
-553,694,0,0,0,0,0,0,0,0,0,-1,671,330,0,0
-546,694,0,0,0,0,0,0,0,0,0,-1,678,330,0,0
-539,694,0,0,0,0,0,0,0,0,0,-1,685,330,0,0
-532,694,0,0,0,0,0,0,0,0,0,-1,692,330,0,0
-525,694,0,0,0,0,0,0,0,0,0,-1,699,330,0,0
-518,694,0,0,0,0,0,0,0,0,0,-1,706,330,0,0
-511,694,0,0,0,0,0,0,0,0,0,-1,713,330,0,0
-504,694,0,0,0,0,0,0,0,0,0,-1,720,330,0,0
-497,694,0,0,0,0,0,0,0,0,0,-1,727,330,0,0
-490,694,0,0,0,0,0,0,0,0,0,-1,734,330,0,0
-483,694,0,0,0,0,0,0,0,0,0,-1,741,330,0,0
-476,694,0,0,0,0,0,0,0,0,0,-1,748,330,0,0
-469,694,0,0,0,0,0,0,0,0,0,-1,755,330,0,0
-462,694,0,0,0,0,0,0,0,0,0,-1,762,330,0,0
-455,694,0,0,0,0,0,0,0,0,0,-1,769,330,0,0
-448,694,0,0,0,0,0,0,0,0,0,-1,776,330,0,0
-441,694,0,0,0,0,0,0,0,0,0,-1,783,330,0,0
-434,694,0,0,0,0,0,0,0,0,0,-1,790,330,0,0
-427,694,0,0,0,0,0,0,0,0,0,-1,797,330,0,0
-420,694,0,0,0,0,0,0,0,0,0,-1,804,330,0,0
-413,694,0,0,0,0,0,0,0,0,0,-1,811,330,0,0
-406,694,0,0,0,0,0,0,0,0,0,-1,818,330,0,0
-399,694,0,0,0,0,0,0,0,0,0,-1,825,330,0,0
-392,694,0,0,0,0,0,0,0,0,0,-1,832,330,0,0
-385,694,0,0,0,0,0,0,0,0,0,-1,839,330,0,0
-378,694,0,0,0,0,0,0,0,0,0,-1,846,330,0,0
-371,694,0,0,0,0,0,0,0,0,0,-1,853,330,0,0
-364,694,0,0,0,0,0,0,0,0,0,-1,860,330,0,0
-357,694,0,0,0,0,0,0,0,0,0,-1,867,330,0,0
-350,694,0,0,0,0,0,0,0,0,0,-1,874,330,0,0
-343,694,0,0,0,0,0,0,0,0,0,-1,881,330,0,0
-336,694,0,0,0,0,0,0,0,0,0,-1,888,330,0,0
-329,694,0,0,0,0,0,0,0,0,0,-1,895,330,0,0
-322,694,0,0,0,0,0,0,0,0,0,-1,902,330,0,0
-315,694,0,0,0,0,0,0,0,0,0,-1,909,330,0,0
-308,694,0,0,0,0,0,0,0,0,0,-1,916,330,0,0
-301,694,0,0,0,0,0,0,0,0,0,-1,923,330,0,0
-294,694,0,0,0,0,0,0,0,0,0,-1,930,330,0,0
-287,694,0,0,0,0,0,0,0,0,0,-1,937,330,0,0
-280,694,0,0,0,0,0,0,0,0,0,-1,944,330,0,0
-273,694,0,0,0,0,0,0,0,0,0,-1,951,330,0,0
-266,694,0,0,0,0,0,0,0,0,0,-1,958,330,0,0
-259,694,0,0,0,0,0,0,0,0,0,-1,965,330,0,0
-252,694,0,0,0,0,0,0,0,0,0,-1,972,330,0,0
-245,694,0,0,0,0,0,0,0,0,0,-1,979,330,0,0
-238,694,0,0,0,0,0,0,0,0,0,-1,986,330,0,0
-231,694,0,0,0,0,0,0,0,0,0,-1,993,330,0,0
-224,694,0,0,0,0,0,0,0,0,0,-1,1000,330,0,0
-217,694,0,0,0,0,0,0,0,0,0,-1,1007,330,0,0
-210,694,0,0,0,0,0,0,0,0,0,-1,1014,330,0,0
-203,694,0,0,0,0,0,0,0,0,0,-1,1021,330,0,0
-196,694,0,0,0,0,0,0,0,0,0,-1,1028,330,0,0
-189,694,0,0,0,0,0,0,0,0,0,-1,1035,330,0,0
-182,694,0,0,0,0,0,0,0,0,0,-1,1042,330,0,0
-175,694,0,0,0,0,0,0,0,0,0,-1,1049,330,0,0
-168,694,0,0,0,0,0,0,0,0,0,-1,1056,330,0,0
-161,694,0,0,0,0,0,0,0,0,0,-1,1063,330,0,0
-154,694,0,0,0,0,0,0,0,0,0,-1,1070,330,0,0
-147,694,0,0,0,0,0,0,0,0,0,-1,1077,330,0,0
-140,694,0,0,0,0,0,0,0,0,0,-1,1084,330,0,0
-133,694,0,0,0,0,0,0,0,0,0,-1,1091,330,0,0
-126,694,0,0,0,0,0,0,0,0,0,-1,1098,330,0,0
-119,694,0,0,0,0,0,0,0,0,0,-1,1105,330,0,0
-112,694,0,0,0,0,0,0,0,0,0,-1,1112,330,0,0
-105,694,2.5188,-19.3963,0,0,0,0,0,0,0,-1,1119,330,2.51882,19.3963
-98,694,1.34875,-10.1051,0,0,0,0,0,0,0,-1,1126,330,1.34874,10.1051
-91,694,6.62366,-46.8039,0,0,0,0,0,0,0,-1,1133,330,6.62363,46.8039
-84,694,0.0577393,-40.8823,0,0,0,0,0,0,0,-1,1140,330,0.0577026,40.8823
-77,694,-5.51379,-31.2714,0,0,0,0,0,0,0,-1,1147,330,-5.51383,31.2714
-70,694,-11.9945,-25.5143,0,0,0,0,0,0,0,-1,1154,330,-11.9945,25.5143
-63,694,-18.4752,-19.7572,0,0,0,0,0,0,0,-1,1161,330,-18.4752,19.7572
-56,694,-6.50623,-0.649139,0,0,0,0,0,0,0,-1,1168,330,-6.5062,0.649126
-49,694,-1.11426,0.0341797,0,0,0,0,0,0,0,-1,1175,330,-1.11424,-0.0341846
-42,694,-0.346313,-0.709595,0,0,0,0,0,0,0,-1,1182,330,-0.346298,0.709581
-35,694,-0.459106,-1.24713,0,0,0,0,0,0,0,-1,1189,330,-0.459142,1.24714
-28,694,-6.48413,-3.95972,0,0,0,0,0,0,0,-1,1196,330,-6.48414,3.9597
-21,694,9.71411,-53.743,0,0,0,0,0,0,0,-1,1203,330,9.71411,53.743
-14,694,9.66321,-62.2581,0,0,0,0,0,0,0,-1,1210,330,9.66323,62.2581
-7,694,9.5061,-62.9124,0,0,0,0,0,0,0,-1,1217,330,9.50609,62.9124
0,694,9.34717,-63.4862,-0.0148404,0.147911,-0.0612367,0.168378,-0.0353075,-1.24824,0.125685,0.045291,1224,330,9.34711,63.4862
7,694,9.23999,-63.9883,-0.00878843,0.144525,-0.0662573,0.169191,-0.0334544,-1.21442,0.125441,0.0446614,1231,330,9.24003,63.9883
14,694,9.26453,-65.2375,0.00201636,0.134427,-0.0700425,0.164602,-0.0281582,-1.16402,0.120225,0.0466898,1238,330,9.26455,65.2376
21,694,9.23376,-66.2209,0,0,0,0,0,0,0,-1,1245,330,9.23377,66.2209
28,694,9.93152,-67.2522,0,0,0,0,0,0,0,-1,1252,330,9.93148,67.2522
35,694,4.39392,-64.6369,0,0,0,0,0,0,0,-1,1259,330,4.39389,64.6369
42,694,5.52869,-65.4821,0.0414584,0.10521,-0.064664,0.145428,0.00124045,-1.01439,0.0965409,0.0437717,1266,330,5.52867,65.4821
49,694,6.77075,-66.4236,0.0416204,0.102904,-0.0575143,0.13743,0.0070947,-1.03016,0.0893491,0.0409724,1273,330,6.77071,66.4236
56,694,7.97998,-66.0952,0.0381411,0.102636,-0.0488368,0.128912,0.0118657,-1.07719,0.0822715,0.0447429,1280,330,7.98001,66.0952
63,694,8.96985,-65.7336,0,0,0,0,0,0,0,-1,1287,330,8.96984,65.7336
70,694,8.03357,-61.2192,0.018535,0.108659,-0.02486,0.115061,0.0121324,-1.31873,0.0730003,0.0430753,1294,330,8.03357,61.2192
77,694,7.35217,-60.8661,0.00237036,0.113445,-0.0116437,0.114652,0.00116291,-1.46747,0.0760502,0.0457338,1301,330,7.35211,60.8661
84,694,6.86633,-60.9298,-0.0152513,0.110529,0.00411139,0.110663,-0.0153855,1.53816,0.0794023,0.0448489,1308,330,6.86628,60.9298
91,694,6.1814,-61.2074,-0.0356199,0.116192,0.0176018,0.118206,-0.037634,1.45686,0.093897,0.0426767,1315,330,6.18135,61.2074
98,694,5.08325,-61.2633,-0.0560042,0.118492,0.0318375,0.12412,-0.0616316,1.39585,0.109248,0.04202,1322,330,5.08323,61.2633
105,694,3.92578,-60.9682,-0.0733782,0.117998,0.0440678,0.127658,-0.083038,1.35501,0.122551,0.0438287,1329,330,3.92584,60.9682
112,694,2.83728,-60.6123,-0.0847386,0.112413,0.0536169,0.126051,-0.0983767,1.32172,0.129901,0.0448337,1336,330,2.8373,60.6123
119,694,1.83887,-60.0458,-0.0936549,0.106689,0.063177,0.124948,-0.111913,1.28946,0.136821,0.0459498,1343,330,1.83886,60.0458
126,694,1.06104,-59.4945,-0.0981558,0.0997958,0.0707429,0.122478,-0.120838,1.26052,0.14048,0.0459138,1350,330,1.06101,59.4945
133,694,0.200928,-58.8346,-0.0961203,0.091933,0.0754968,0.118491,-0.122679,1.23253,0.139247,0.0479889,1357,330,0.200933,58.8346
140,694,-0.807373,-58.2074,-0.0933759,0.0852728,0.0787324,0.115018,-0.123121,1.20957,0.137517,0.0487624,1364,330,-0.807413,58.2074
147,694,-1.75488,-57.4932,0,0,0,0,0,0,0,-1,1371,330,-1.75486,57.4932
154,694,-2.52258,-57.0834,0,0,0,0,0,0,0,-1,1378,330,-2.52253,57.0834
161,694,0.0187988,-38.6779,0,0,0,0,0,0,0,-1,1385,330,0.0187579,38.6779
168,694,30.451,0.196686,0,0,0,0,0,0,0,-1,1392,330,30.4511,-0.196674
175,694,31.0701,0.869873,0,0,0,0,0,0,0,-1,1399,330,31.07,-0.869874
182,694,8.29028,5.75238,0,0,0,0,0,0,0,-1,1406,330,8.29034,-5.75237
189,694,7.9801,4.46118,0,0,0,0,0,0,0,-1,1413,330,7.9801,-4.46118
196,694,7.39331,3.32632,0,0,0,0,0,0,0,-1,1420,330,7.39329,-3.32633
203,694,7.04492,2.20529,0,0,0,0,0,0,0,-1,1427,330,7.04496,-2.20529
210,694,6.44714,0.646912,0,0,0,0,0,0,0,-1,1434,330,6.44717,-0.646903
217,694,7.12061,-0.644958,0,0,0,0,0,0,0,-1,1441,330,7.12059,0.644961
224,694,6.74011,-1.70544,0,0,0,0,0,0,0,-1,1448,330,6.74013,1.70546
231,694,0,0,0,0,0,0,0,0,0,-1,1455,330,0,0
238,694,0,0,0,0,0,0,0,0,0,-1,1462,330,0,0
245,694,0,0,0,0,0,0,0,0,0,-1,1469,330,0,0
252,694,0,0,0,0,0,0,0,0,0,-1,1476,330,0,0
259,694,0,0,0,0,0,0,0,0,0,-1,1483,330,0,0
266,694,0,0,0,0,0,0,0,0,0,-1,1490,330,0,0
273,694,0,0,0,0,0,0,0,0,0,-1,1497,330,0,0
280,694,0,0,0,0,0,0,0,0,0,-1,1504,330,0,0
287,694,0,0,0,0,0,0,0,0,0,-1,1511,330,0,0
294,694,0,0,0,0,0,0,0,0,0,-1,1518,330,0,0
301,694,0,0,0,0,0,0,0,0,0,-1,1525,330,0,0
308,694,0,0,0,0,0,0,0,0,0,-1,1532,330,0,0
315,694,0,0,0,0,0,0,0,0,0,-1,1539,330,0,0
322,694,0,0,0,0,0,0,0,0,0,-1,1546,330,0,0
329,694,0,0,0,0,0,0,0,0,0,-1,1553,330,0,0
336,694,0,0,0,0,0,0,0,0,0,-1,1560,330,0,0
343,694,0,0,0,0,0,0,0,0,0,-1,1567,330,0,0
350,694,0,0,0,0,0,0,0,0,0,-1,1574,330,0,0
357,694,0,0,0,0,0,0,0,0,0,-1,1581,330,0,0
364,694,0,0,0,0,0,0,0,0,0,-1,1588,330,0,0
371,694,0,0,0,0,0,0,0,0,0,-1,1595,330,0,0
378,694,0,0,0,0,0,0,0,0,0,-1,1602,330,0,0
385,694,0,0,0,0,0,0,0,0,0,-1,1609,330,0,0
392,694,0,0,0,0,0,0,0,0,0,-1,1616,330,0,0
399,694,0,0,0,0,0,0,0,0,0,-1,1623,330,0,0
406,694,0,0,0,0,0,0,0,0,0,-1,1630,330,0,0
413,694,0,0,0,0,0,0,0,0,0,-1,1637,330,0,0
420,694,0,0,0,0,0,0,0,0,0,-1,1644,330,0,0
427,694,0,0,0,0,0,0,0,0,0,-1,1651,330,0,0
434,694,0,0,0,0,0,0,0,0,0,-1,1658,330,0,0
441,694,0,0,0,0,0,0,0,0,0,-1,1665,330,0,0
448,694,0,0,0,0,0,0,0,0,0,-1,1672,330,0,0
455,694,0,0,0,0,0,0,0,0,0,-1,1679,330,0,0
462,694,0,0,0,0,0,0,0,0,0,-1,1686,330,0,0
469,694,0,0,0,0,0,0,0,0,0,-1,1693,330,0,0
476,694,0,0,0,0,0,0,0,0,0,-1,1700,330,0,0
483,694,0,0,0,0,0,0,0,0,0,-1,1707,330,0,0
490,694,0,0,0,0,0,0,0,0,0,-1,1714,330,0,0
497,694,0,0,0,0,0,0,0,0,0,-1,1721,330,0,0
504,694,0,0,0,0,0,0,0,0,0,-1,1728,330,0,0
511,694,0,0,0,0,0,0,0,0,0,-1,1735,330,0,0
518,694,0,0,0,0,0,0,0,0,0,-1,1742,330,0,0
525,694,0,0,0,0,0,0,0,0,0,-1,1749,330,0,0
532,694,0,0,0,0,0,0,0,0,0,-1,1756,330,0,0
539,694,0,0,0,0,0,0,0,0,0,-1,1763,330,0,0
546,694,0,0,0,0,0,0,0,0,0,-1,1770,330,0,0
553,694,0,0,0,0,0,0,0,0,0,-1,1777,330,0,0
560,694,0,0,0,0,0,0,0,0,0,-1,1784,330,0,0
567,694,0,0,0,0,0,0,0,0,0,-1,1791,330,0,0
574,694,0,0,0,0,0,0,0,0,0,-1,1798,330,0,0
581,694,0,0,0,0,0,0,0,0,0,-1,1805,330,0,0
588,694,0,0,0,0,0,0,0,0,0,-1,1812,330,0,0
595,694,0,0,0,0,0,0,0,0,0,-1,1819,330,0,0
602,694,0,0,0,0,0,0,0,0,0,-1,1826,330,0,0
609,694,0,0,0,0,0,0,0,0,0,-1,1833,330,0,0
616,694,0,0,0,0,0,0,0,0,0,-1,1840,330,0,0
623,694,0,0,0,0,0,0,0,0,0,-1,1847,330,0,0
630,694,0,0,0,0,0,0,0,0,0,-1,1854,330,0,0
637,694,0,0,0,0,0,0,0,0,0,-1,1861,330,0,0
644,694,0,0,0,0,0,0,0,0,0,-1,1868,330,0,0
651,694,0,0,0,0,0,0,0,0,0,-1,1875,330,0,0
658,694,0,0,0,0,0,0,0,0,0,-1,1882,330,0,0
665,694,0,0,0,0,0,0,0,0,0,-1,1889,330,0,0
672,694,0,0,0,0,0,0,0,0,0,-1,1896,330,0,0
679,694,0,0,0,0,0,0,0,0,0,-1,1903,330,0,0
686,694,0,0,0,0,0,0,0,0,0,-1,1910,330,0,0
693,694,0,0,0,0,0,0,0,0,0,-1,1917,330,0,0
700,694,0,0,0,0,0,0,0,0,0,-1,1924,330,0,0
707,694,0,0,0,0,0,0,0,0,0,-1,1931,330,0,0
714,694,0,0,0,0,0,0,0,0,0,-1,1938,330,0,0
721,694,0,0,0,0,0,0,0,0,0,-1,1945,330,0,0
728,694,0,0,0,0,0,0,0,0,0,-1,1952,330,0,0
735,694,0,0,0,0,0,0,0,0,0,-1,1959,330,0,0
742,694,0,0,0,0,0,0,0,0,0,-1,1966,330,0,0
749,694,0,0,0,0,0,0,0,0,0,-1,1973,330,0,0
756,694,0,0,0,0,0,0,0,0,0,-1,1980,330,0,0
763,694,0,0,0,0,0,0,0,0,0,-1,1987,330,0,0
770,694,0,0,0,0,0,0,0,0,0,-1,1994,330,0,0
777,694,0,0,0,0,0,0,0,0,0,-1,2001,330,0,0
784,694,0,0,0,0,0,0,0,0,0,-1,2008,330,0,0
791,694,0,0,0,0,0,0,0,0,0,-1,2015,330,0,0
798,694,0,0,0,0,0,0,0,0,0,-1,2022,330,0,0
805,694,0,0,0,0,0,0,0,0,0,-1,2029,330,0,0
812,694,0,0,0,0,0,0,0,0,0,-1,2036,330,0,0
-700,687,0,0,0,0,0,0,0,0,0,-1,524,337,0,0
-693,687,0,0,0,0,0,0,0,0,0,-1,531,337,0,0
-686,687,0,0,0,0,0,0,0,0,0,-1,538,337,0,0
-679,687,0,0,0,0,0,0,0,0,0,-1,545,337,0,0
-672,687,0,0,0,0,0,0,0,0,0,-1,552,337,0,0
-665,687,0,0,0,0,0,0,0,0,0,-1,559,337,0,0
-658,687,0,0,0,0,0,0,0,0,0,-1,566,337,0,0
-651,687,0,0,0,0,0,0,0,0,0,-1,573,337,0,0
-644,687,0,0,0,0,0,0,0,0,0,-1,580,337,0,0
-637,687,0,0,0,0,0,0,0,0,0,-1,587,337,0,0
-630,687,0,0,0,0,0,0,0,0,0,-1,594,337,0,0
-623,687,0,0,0,0,0,0,0,0,0,-1,601,337,0,0
-616,687,0,0,0,0,0,0,0,0,0,-1,608,337,0,0
-609,687,0,0,0,0,0,0,0,0,0,-1,615,337,0,0
-602,687,0,0,0,0,0,0,0,0,0,-1,622,337,0,0
-595,687,0,0,0,0,0,0,0,0,0,-1,629,337,0,0
-588,687,0,0,0,0,0,0,0,0,0,-1,636,337,0,0
-581,687,0,0,0,0,0,0,0,0,0,-1,643,337,0,0
-574,687,0,0,0,0,0,0,0,0,0,-1,650,337,0,0
-567,687,0,0,0,0,0,0,0,0,0,-1,657,337,0,0
-560,687,0,0,0,0,0,0,0,0,0,-1,664,337,0,0
-553,687,0,0,0,0,0,0,0,0,0,-1,671,337,0,0
-546,687,0,0,0,0,0,0,0,0,0,-1,678,337,0,0
-539,687,0,0,0,0,0,0,0,0,0,-1,685,337,0,0
-532,687,0,0,0,0,0,0,0,0,0,-1,692,337,0,0
-525,687,0,0,0,0,0,0,0,0,0,-1,699,337,0,0
-518,687,0,0,0,0,0,0,0,0,0,-1,706,337,0,0
-511,687,0,0,0,0,0,0,0,0,0,-1,713,337,0,0
-504,687,0,0,0,0,0,0,0,0,0,-1,720,337,0,0
-497,687,0,0,0,0,0,0,0,0,0,-1,727,337,0,0
-490,687,0,0,0,0,0,0,0,0,0,-1,734,337,0,0
-483,687,0,0,0,0,0,0,0,0,0,-1,741,337,0,0
-476,687,0,0,0,0,0,0,0,0,0,-1,748,337,0,0
-469,687,0,0,0,0,0,0,0,0,0,-1,755,337,0,0
-462,687,0,0,0,0,0,0,0,0,0,-1,762,337,0,0
-455,687,0,0,0,0,0,0,0,0,0,-1,769,337,0,0
-448,687,0,0,0,0,0,0,0,0,0,-1,776,337,0,0
-441,687,0,0,0,0,0,0,0,0,0,-1,783,337,0,0
-434,687,0,0,0,0,0,0,0,0,0,-1,790,337,0,0
-427,687,0,0,0,0,0,0,0,0,0,-1,797,337,0,0
-420,687,0,0,0,0,0,0,0,0,0,-1,804,337,0,0
-413,687,0,0,0,0,0,0,0,0,0,-1,811,337,0,0
-406,687,0,0,0,0,0,0,0,0,0,-1,818,337,0,0
-399,687,0,0,0,0,0,0,0,0,0,-1,825,337,0,0
-392,687,0,0,0,0,0,0,0,0,0,-1,832,337,0,0
-385,687,0,0,0,0,0,0,0,0,0,-1,839,337,0,0
-378,687,0,0,0,0,0,0,0,0,0,-1,846,337,0,0
-371,687,0,0,0,0,0,0,0,0,0,-1,853,337,0,0
-364,687,0,0,0,0,0,0,0,0,0,-1,860,337,0,0
-357,687,0,0,0,0,0,0,0,0,0,-1,867,337,0,0
-350,687,0,0,0,0,0,0,0,0,0,-1,874,337,0,0
-343,687,0,0,0,0,0,0,0,0,0,-1,881,337,0,0
-336,687,0,0,0,0,0,0,0,0,0,-1,888,337,0,0
-329,687,0,0,0,0,0,0,0,0,0,-1,895,337,0,0
-322,687,0,0,0,0,0,0,0,0,0,-1,902,337,0,0
-315,687,0,0,0,0,0,0,0,0,0,-1,909,337,0,0
-308,687,0,0,0,0,0,0,0,0,0,-1,916,337,0,0
-301,687,0,0,0,0,0,0,0,0,0,-1,923,337,0,0
-294,687,0,0,0,0,0,0,0,0,0,-1,930,337,0,0
-287,687,0,0,0,0,0,0,0,0,0,-1,937,337,0,0
-280,687,0,0,0,0,0,0,0,0,0,-1,944,337,0,0
-273,687,0,0,0,0,0,0,0,0,0,-1,951,337,0,0
-266,687,0,0,0,0,0,0,0,0,0,-1,958,337,0,0
-259,687,0,0,0,0,0,0,0,0,0,-1,965,337,0,0
-252,687,0,0,0,0,0,0,0,0,0,-1,972,337,0,0
-245,687,0,0,0,0,0,0,0,0,0,-1,979,337,0,0
-238,687,0,0,0,0,0,0,0,0,0,-1,986,337,0,0
-231,687,0,0,0,0,0,0,0,0,0,-1,993,337,0,0
-224,687,0,0,0,0,0,0,0,0,0,-1,1000,337,0,0
-217,687,0,0,0,0,0,0,0,0,0,-1,1007,337,0,0
-210,687,0,0,0,0,0,0,0,0,0,-1,1014,337,0,0
-203,687,0,0,0,0,0,0,0,0,0,-1,1021,337,0,0
-196,687,0,0,0,0,0,0,0,0,0,-1,1028,337,0,0
-189,687,0,0,0,0,0,0,0,0,0,-1,1035,337,0,0
-182,687,0,0,0,0,0,0,0,0,0,-1,1042,337,0,0
-175,687,0,0,0,0,0,0,0,0,0,-1,1049,337,0,0
-168,687,0,0,0,0,0,0,0,0,0,-1,1056,337,0,0
-161,687,0,0,0,0,0,0,0,0,0,-1,1063,337,0,0
-154,687,0,0,0,0,0,0,0,0,0,-1,1070,337,0,0
-147,687,0,0,0,0,0,0,0,0,0,-1,1077,337,0,0
-140,687,0,0,0,0,0,0,0,0,0,-1,1084,337,0,0
-133,687,7.93958,-37.548,0,0,0,0,0,0,0,-1,1091,337,7.93957,37.548
-126,687,0.688477,-38.7298,0,0,0,0,0,0,0,-1,1098,337,0.688509,38.7298
-119,687,7.70825,-33.9236,0,0,0,0,0,0,0,-1,1105,337,7.70826,33.9236
-112,687,7.99866,-32.2983,0,0,0,0,0,0,0,-1,1112,337,7.99866,32.2983
-105,687,1.3208,-29.8313,0,0,0,0,0,0,0,-1,1119,337,1.3208,29.8313
-98,687,13.7111,-47.5645,0,0,0,0,0,0,0,-1,1126,337,13.711,47.5645
-91,687,7.22083,-41.1667,0,0,0,0,0,0,0,-1,1133,337,7.22079,41.1666
-84,687,0.745117,-35.0345,0,0,0,0,0,0,0,-1,1140,337,0.745155,35.0345
-77,687,-5.74353,-28.9553,0,0,0,0,0,0,0,-1,1147,337,-5.74357,28.9553
-70,687,-11.6842,-19.8473,0,0,0,0,0,0,0,-1,1154,337,-11.6842,19.8473
-63,687,-17.6757,-14.8966,0,0,0,0,0,0,0,-1,1161,337,-17.6756,14.8966
-56,687,-18.104,7.81931,0,0,0,0,0,0,0,-1,1168,337,-18.104,-7.81931
-49,687,-15.6449,-9.94391,0,0,0,0,0,0,0,-1,1175,337,-15.6449,9.94392
-42,687,-4.2019,-0.405609,0,0,0,0,0,0,0,-1,1182,337,-4.20192,0.405614
-35,687,-4.42273,-0.688171,0,0,0,0,0,0,0,-1,1189,337,-4.42276,0.688178
-28,687,-1.14038,-1.39072,0,0,0,0,0,0,0,-1,1196,337,-1.14035,1.3907
-21,687,7.92114,-61.5529,0,0,0,0,0,0,0,-1,1203,337,7.92111,61.5529
-14,687,9.52466,-64.2201,0,0,0,0,0,0,0,-1,1210,337,9.52471,64.2201
-7,687,9.44336,-63.6452,0,0,0,0,0,0,0,-1,1217,337,9.44337,63.6452
0,687,9.33899,-64.1935,-0.0126924,0.121686,-0.049806,0.138133,-0.0291395,-1.25185,0.103183,0.0476657,1224,337,9.33894,64.1935
7,687,9.08704,-64.957,-0.00779612,0.118799,-0.0529802,0.138045,-0.0270424,-1.22235,0.102243,0.0474396,1231,337,9.08701,64.957
14,687,9.02844,-65.7145,0,0,0,0,0,0,0,-1,1238,337,9.02841,65.7145
21,687,11.6021,-64.3139,0,0,0,0,0,0,0,-1,1245,337,11.6021,64.3139
28,687,10.5127,-68.5054,0,0,0,0,0,0,0,-1,1252,337,10.5127,68.5054
35,687,8.01794,-65.2825,0,0,0,0,0,0,0,-1,1259,337,8.01789,65.2825
42,687,8.05005,-65.2015,0.0277224,0.0928696,-0.0494349,0.119498,0.00109427,-1.07671,0.0793029,0.047802,1266,337,8.05008,65.2015
49,687,7.41614,-66.2709,0.0268188,0.0919623,-0.0432867,0.113563,0.0052181,-1.10794,0.0740306,0.0443104,1273,337,7.41611,66.2709
56,687,8.1167,-66.2693,0.0230398,0.09269,-0.0355631,0.10764,0.00809027,-1.17286,0.0692208,0.0454377,1280,337,8.11665,66.2692
63,687,7.96057,-66.0051,0,0,0,0,0,0,0,-1,1287,337,7.96053,66.0051
70,687,7.69958,-63.2776,0.00525625,0.0991404,-0.0148096,0.101421,0.00297555,-1.41799,0.0666443,0.0426745,1294,337,7.69958,63.2776
77,687,7.12952,-62.8266,-0.0085142,0.103298,-0.00364561,0.103416,-0.00863294,-1.53824,0.0719947,0.0444283,1301,337,7.12956,62.8266
84,687,6.50671,-62.4672,0,0,0,0,0,0,0,-1,1308,337,6.50676,62.4672
91,687,5.19568,-61.9884,-0.0387627,0.105738,0.0208414,0.108684,-0.0417086,1.43038,0.0896533,0.0426247,1315,337,5.19564,61.9884
98,687,3.97546,-62.0659,-0.0539105,0.107116,0.0324243,0.113399,-0.0601943,1.37937,0.101781,0.0437317,1322,337,3.97543,62.066
105,687,2.60706,-62.0202,-0.0664863,0.106787,0.0422312,0.116532,-0.0762311,1.34402,0.1121,0.0468315,1329,337,2.60703,62.0202
112,687,1.58655,-61.2304,-0.0743992,0.102735,0.0496251,0.11569,-0.0873544,1.31543,0.117608,0.0458813,1336,337,1.58652,61.2304
119,687,0.548706,-60.726,0,0,0,0,0,0,0,-1,1343,337,0.548734,60.726
126,687,0.215942,-60.1407,0,0,0,0,0,0,0,-1,1350,337,0.215947,60.1407
133,687,-0.472046,-59.5917,-0.080149,0.086813,0.0665033,0.110064,-0.1034,1.23446,0.123264,0.0478513,1357,337,-0.472082,59.5917
140,687,-1.38025,-58.9224,-0.0778678,0.0817607,0.0697273,0.107929,-0.104036,1.21177,0.122384,0.047781,1364,337,-1.38021,58.9224
147,687,-2.2915,-58.2367,0,0,0,0,0,0,0,-1,1371,337,-2.29156,58.2367
154,687,3.95959,-63.4899,0,0,0,0,0,0,0,-1,1378,337,3.95956,63.4899
161,687,29.3895,-1.90628,0,0,0,0,0,0,0,-1,1385,337,29.3895,1.90628
168,687,29.8564,-1.19434,0,0,0,0,0,0,0,-1,1392,337,29.8564,1.19434
175,687,30.3419,-0.453583,0,0,0,0,0,0,0,-1,1399,337,30.3419,0.45357
182,687,6.67249,0.289917,0,0,0,0,0,0,0,-1,1406,337,6.67247,-0.289916
189,687,7.76062,4.53635,0,0,0,0,0,0,0,-1,1413,337,7.76064,-4.53636
196,687,6.99048,3.2966,0,0,0,0,0,0,0,-1,1420,337,6.99046,-3.2966
203,687,6.36499,2.1445,0,0,0,0,0,0,0,-1,1427,337,6.36499,-2.14451
210,687,6.68066,0.674652,0,0,0,0,0,0,0,-1,1434,337,6.68062,-0.674655
217,687,5.99683,-0.630493,0,0,0,0,0,0,0,-1,1441,337,5.99684,0.630497
224,687,5.52917,0.524902,0,0,0,0,0,0,0,-1,1448,337,5.5292,-0.524915
231,687,5.85583,-1.73651,0,0,0,0,0,0,0,-1,1455,337,5.85577,1.73651
238,687,5.96582,-2.96774,0,0,0,0,0,0,0,-1,1462,337,5.96577,2.96773
245,687,1.28259,2.32211,0,0,0,0,0,0,0,-1,1469,337,1.28258,-2.32211
252,687,1.97278,3.88422,0,0,0,0,0,0,0,-1,1476,337,1.97281,-3.88421
259,687,0,0,0,0,0,0,0,0,0,-1,1483,337,0,0
266,687,0,0,0,0,0,0,0,0,0,-1,1490,337,0,0
273,687,0,0,0,0,0,0,0,0,0,-1,1497,337,0,0
280,687,0,0,0,0,0,0,0,0,0,-1,1504,337,0,0
287,687,0,0,0,0,0,0,0,0,0,-1,1511,337,0,0
294,687,0,0,0,0,0,0,0,0,0,-1,1518,337,0,0
301,687,0,0,0,0,0,0,0,0,0,-1,1525,337,0,0
308,687,0,0,0,0,0,0,0,0,0,-1,1532,337,0,0
315,687,0,0,0,0,0,0,0,0,0,-1,1539,337,0,0
322,687,0,0,0,0,0,0,0,0,0,-1,1546,337,0,0
329,687,0,0,0,0,0,0,0,0,0,-1,1553,337,0,0
336,687,0,0,0,0,0,0,0,0,0,-1,1560,337,0,0
343,687,0,0,0,0,0,0,0,0,0,-1,1567,337,0,0
350,687,0,0,0,0,0,0,0,0,0,-1,1574,337,0,0
357,687,0,0,0,0,0,0,0,0,0,-1,1581,337,0,0
364,687,0,0,0,0,0,0,0,0,0,-1,1588,337,0,0
371,687,0,0,0,0,0,0,0,0,0,-1,1595,337,0,0
378,687,0,0,0,0,0,0,0,0,0,-1,1602,337,0,0
385,687,0,0,0,0,0,0,0,0,0,-1,1609,337,0,0
392,687,0,0,0,0,0,0,0,0,0,-1,1616,337,0,0
399,687,0,0,0,0,0,0,0,0,0,-1,1623,337,0,0
406,687,0,0,0,0,0,0,0,0,0,-1,1630,337,0,0
413,687,0,0,0,0,0,0,0,0,0,-1,1637,337,0,0
420,687,0,0,0,0,0,0,0,0,0,-1,1644,337,0,0
427,687,0,0,0,0,0,0,0,0,0,-1,1651,337,0,0
434,687,0,0,0,0,0,0,0,0,0,-1,1658,337,0,0
441,687,0,0,0,0,0,0,0,0,0,-1,1665,337,0,0
448,687,0,0,0,0,0,0,0,0,0,-1,1672,337,0,0
455,687,0,0,0,0,0,0,0,0,0,-1,1679,337,0,0
462,687,0,0,0,0,0,0,0,0,0,-1,1686,337,0,0
469,687,0,0,0,0,0,0,0,0,0,-1,1693,337,0,0
476,687,0,0,0,0,0,0,0,0,0,-1,1700,337,0,0
483,687,0,0,0,0,0,0,0,0,0,-1,1707,337,0,0
490,687,0,0,0,0,0,0,0,0,0,-1,1714,337,0,0
497,687,0,0,0,0,0,0,0,0,0,-1,1721,337,0,0
504,687,0,0,0,0,0,0,0,0,0,-1,1728,337,0,0
511,687,0,0,0,0,0,0,0,0,0,-1,1735,337,0,0
518,687,0,0,0,0,0,0,0,0,0,-1,1742,337,0,0
525,687,0,0,0,0,0,0,0,0,0,-1,1749,337,0,0
532,687,0,0,0,0,0,0,0,0,0,-1,1756,337,0,0
539,687,0,0,0,0,0,0,0,0,0,-1,1763,337,0,0
546,687,0,0,0,0,0,0,0,0,0,-1,1770,337,0,0
553,687,0,0,0,0,0,0,0,0,0,-1,1777,337,0,0
560,687,0,0,0,0,0,0,0,0,0,-1,1784,337,0,0
567,687,0,0,0,0,0,0,0,0,0,-1,1791,337,0,0
574,687,0,0,0,0,0,0,0,0,0,-1,1798,337,0,0
581,687,0,0,0,0,0,0,0,0,0,-1,1805,337,0,0
588,687,0,0,0,0,0,0,0,0,0,-1,1812,337,0,0
595,687,0,0,0,0,0,0,0,0,0,-1,1819,337,0,0
602,687,0,0,0,0,0,0,0,0,0,-1,1826,337,0,0
609,687,0,0,0,0,0,0,0,0,0,-1,1833,337,0,0
616,687,0,0,0,0,0,0,0,0,0,-1,1840,337,0,0
623,687,0,0,0,0,0,0,0,0,0,-1,1847,337,0,0
630,687,0,0,0,0,0,0,0,0,0,-1,1854,337,0,0
637,687,0,0,0,0,0,0,0,0,0,-1,1861,337,0,0
644,687,0,0,0,0,0,0,0,0,0,-1,1868,337,0,0
651,687,0,0,0,0,0,0,0,0,0,-1,1875,337,0,0
658,687,0,0,0,0,0,0,0,0,0,-1,1882,337,0,0
665,687,0,0,0,0,0,0,0,0,0,-1,1889,337,0,0
672,687,0,0,0,0,0,0,0,0,0,-1,1896,337,0,0
679,687,0,0,0,0,0,0,0,0,0,-1,1903,337,0,0
686,687,0,0,0,0,0,0,0,0,0,-1,1910,337,0,0
693,687,0,0,0,0,0,0,0,0,0,-1,1917,337,0,0
700,687,0,0,0,0,0,0,0,0,0,-1,1924,337,0,0
707,687,0,0,0,0,0,0,0,0,0,-1,1931,337,0,0
714,687,0,0,0,0,0,0,0,0,0,-1,1938,337,0,0
721,687,0,0,0,0,0,0,0,0,0,-1,1945,337,0,0
728,687,0,0,0,0,0,0,0,0,0,-1,1952,337,0,0
735,687,0,0,0,0,0,0,0,0,0,-1,1959,337,0,0
742,687,0,0,0,0,0,0,0,0,0,-1,1966,337,0,0
749,687,0,0,0,0,0,0,0,0,0,-1,1973,337,0,0
756,687,0,0,0,0,0,0,0,0,0,-1,1980,337,0,0
763,687,0,0,0,0,0,0,0,0,0,-1,1987,337,0,0
770,687,0,0,0,0,0,0,0,0,0,-1,1994,337,0,0
777,687,0,0,0,0,0,0,0,0,0,-1,2001,337,0,0
784,687,0,0,0,0,0,0,0,0,0,-1,2008,337,0,0
791,687,0,0,0,0,0,0,0,0,0,-1,2015,337,0,0
798,687,0,0,0,0,0,0,0,0,0,-1,2022,337,0,0
805,687,0,0,0,0,0,0,0,0,0,-1,2029,337,0,0
812,687,0,0,0,0,0,0,0,0,0,-1,2036,337,0,0
-700,680,0,0,0,0,0,0,0,0,0,-1,524,344,0,0
-693,680,0,0,0,0,0,0,0,0,0,-1,531,344,0,0
-686,680,0,0,0,0,0,0,0,0,0,-1,538,344,0,0
-679,680,0,0,0,0,0,0,0,0,0,-1,545,344,0,0
-672,680,0,0,0,0,0,0,0,0,0,-1,552,344,0,0
-665,680,0,0,0,0,0,0,0,0,0,-1,559,344,0,0
-658,680,0,0,0,0,0,0,0,0,0,-1,566,344,0,0
-651,680,0,0,0,0,0,0,0,0,0,-1,573,344,0,0
-644,680,0,0,0,0,0,0,0,0,0,-1,580,344,0,0
-637,680,0,0,0,0,0,0,0,0,0,-1,587,344,0,0
-630,680,0,0,0,0,0,0,0,0,0,-1,594,344,0,0
-623,680,0,0,0,0,0,0,0,0,0,-1,601,344,0,0
-616,680,0,0,0,0,0,0,0,0,0,-1,608,344,0,0
-609,680,0,0,0,0,0,0,0,0,0,-1,615,344,0,0
-602,680,0,0,0,0,0,0,0,0,0,-1,622,344,0,0
-595,680,0,0,0,0,0,0,0,0,0,-1,629,344,0,0
-588,680,0,0,0,0,0,0,0,0,0,-1,636,344,0,0
-581,680,0,0,0,0,0,0,0,0,0,-1,643,344,0,0
-574,680,0,0,0,0,0,0,0,0,0,-1,650,344,0,0
-567,680,0,0,0,0,0,0,0,0,0,-1,657,344,0,0
-560,680,0,0,0,0,0,0,0,0,0,-1,664,344,0,0
-553,680,0,0,0,0,0,0,0,0,0,-1,671,344,0,0
-546,680,0,0,0,0,0,0,0,0,0,-1,678,344,0,0
-539,680,0,0,0,0,0,0,0,0,0,-1,685,344,0,0
-532,680,0,0,0,0,0,0,0,0,0,-1,692,344,0,0
-525,680,0,0,0,0,0,0,0,0,0,-1,699,344,0,0
-518,680,0,0,0,0,0,0,0,0,0,-1,706,344,0,0
-511,680,0,0,0,0,0,0,0,0,0,-1,713,344,0,0
-504,680,0,0,0,0,0,0,0,0,0,-1,720,344,0,0
-497,680,0,0,0,0,0,0,0,0,0,-1,727,344,0,0
-490,680,0,0,0,0,0,0,0,0,0,-1,734,344,0,0
-483,680,0,0,0,0,0,0,0,0,0,-1,741,344,0,0
-476,680,0,0,0,0,0,0,0,0,0,-1,748,344,0,0
-469,680,0,0,0,0,0,0,0,0,0,-1,755,344,0,0
-462,680,0,0,0,0,0,0,0,0,0,-1,762,344,0,0
-455,680,0,0,0,0,0,0,0,0,0,-1,769,344,0,0
-448,680,0,0,0,0,0,0,0,0,0,-1,776,344,0,0
-441,680,0,0,0,0,0,0,0,0,0,-1,783,344,0,0
-434,680,0,0,0,0,0,0,0,0,0,-1,790,344,0,0
-427,680,0,0,0,0,0,0,0,0,0,-1,797,344,0,0
-420,680,0,0,0,0,0,0,0,0,0,-1,804,344,0,0
-413,680,0,0,0,0,0,0,0,0,0,-1,811,344,0,0
-406,680,0,0,0,0,0,0,0,0,0,-1,818,344,0,0
-399,680,0,0,0,0,0,0,0,0,0,-1,825,344,0,0
-392,680,0,0,0,0,0,0,0,0,0,-1,832,344,0,0
-385,680,0,0,0,0,0,0,0,0,0,-1,839,344,0,0
-378,680,0,0,0,0,0,0,0,0,0,-1,846,344,0,0
-371,680,0,0,0,0,0,0,0,0,0,-1,853,344,0,0
-364,680,0,0,0,0,0,0,0,0,0,-1,860,344,0,0
-357,680,0,0,0,0,0,0,0,0,0,-1,867,344,0,0
-350,680,0,0,0,0,0,0,0,0,0,-1,874,344,0,0
-343,680,0,0,0,0,0,0,0,0,0,-1,881,344,0,0
-336,680,0,0,0,0,0,0,0,0,0,-1,888,344,0,0
-329,680,0,0,0,0,0,0,0,0,0,-1,895,344,0,0
-322,680,0,0,0,0,0,0,0,0,0,-1,902,344,0,0
-315,680,0,0,0,0,0,0,0,0,0,-1,909,344,0,0
-308,680,0,0,0,0,0,0,0,0,0,-1,916,344,0,0
-301,680,0,0,0,0,0,0,0,0,0,-1,923,344,0,0
-294,680,0,0,0,0,0,0,0,0,0,-1,930,344,0,0
-287,680,0,0,0,0,0,0,0,0,0,-1,937,344,0,0
-280,680,0,0,0,0,0,0,0,0,0,-1,944,344,0,0
-273,680,0,0,0,0,0,0,0,0,0,-1,951,344,0,0
-266,680,0,0,0,0,0,0,0,0,0,-1,958,344,0,0
-259,680,0,0,0,0,0,0,0,0,0,-1,965,344,0,0
-252,680,0,0,0,0,0,0,0,0,0,-1,972,344,0,0
-245,680,0,0,0,0,0,0,0,0,0,-1,979,344,0,0
-238,680,0,0,0,0,0,0,0,0,0,-1,986,344,0,0
-231,680,0,0,0,0,0,0,0,0,0,-1,993,344,0,0
-224,680,0,0,0,0,0,0,0,0,0,-1,1000,344,0,0
-217,680,0,0,0,0,0,0,0,0,0,-1,1007,344,0,0
-210,680,0,0,0,0,0,0,0,0,0,-1,1014,344,0,0
-203,680,0,0,0,0,0,0,0,0,0,-1,1021,344,0,0
-196,680,0,0,0,0,0,0,0,0,0,-1,1028,344,0,0
-189,680,0,0,0,0,0,0,0,0,0,-1,1035,344,0,0
-182,680,0,0,0,0,0,0,0,0,0,-1,1042,344,0,0
-175,680,0,0,0,0,0,0,0,0,0,-1,1049,344,0,0
-168,680,0,0,0,0,0,0,0,0,0,-1,1056,344,0,0
-161,680,0,0,0,0,0,0,0,0,0,-1,1063,344,0,0
-154,680,2.25244,-29.1442,0,0,0,0,0,0,0,-1,1070,344,2.25241,29.1442
-147,680,9.29614,-33.0369,0,0,0,0,0,0,0,-1,1077,344,9.29612,33.0369
-140,680,6.98022,-36.6899,0,0,0,0,0,0,0,-1,1084,344,6.98023,36.6899
-133,680,1.85693,-39.7233,0,0,0,0,0,0,0,-1,1091,344,1.85699,39.7233
-126,680,2.30017,-38.3751,0,0,0,0,0,0,0,-1,1098,344,2.30011,38.3751
-119,680,2.74329,-37.0269,0,0,0,0,0,0,0,-1,1105,344,2.74323,37.0269
-112,680,7.7467,-32.4407,0,0,0,0,0,0,0,-1,1112,344,7.74668,32.4407
-105,680,20.6371,-48.461,0,0,0,0,0,0,0,-1,1119,344,20.6371,48.461
-98,680,14.2684,-41.9997,0,0,0,0,0,0,0,-1,1126,344,14.2685,41.9997
-91,680,7.89648,-35.5147,0,0,0,0,0,0,0,-1,1133,344,7.8965,35.5147
-84,680,1.47168,-29.471,0,0,0,0,0,0,0,-1,1140,344,1.47163,29.471
-77,680,-4.95337,-23.3355,0,0,0,0,0,0,0,-1,1147,344,-4.9534,23.3356
-70,680,-11.5099,-17.4337,0,0,0,0,0,0,0,-1,1154,344,-11.5098,17.4338
-63,680,-17.2391,-1.43134,0,0,0,0,0,0,0,-1,1161,344,-17.2392,1.43133
-56,680,-6.96912,-8.83356,0,0,0,0,0,0,0,-1,1168,344,-6.96907,8.83354
-49,680,-6.7677,-2.24063,0,0,0,0,0,0,0,-1,1175,344,-6.76772,2.24063
-42,680,-1.02368,0.618805,0,0,0,0,0,0,0,-1,1182,344,-1.0237,-0.618797
-35,680,-0.947876,-0.942719,0,0,0,0,0,0,0,-1,1189,344,-0.947842,0.942731
-28,680,-1.46118,-1.10574,0,0,0,0,0,0,0,-1,1196,344,-1.4612,1.10575
-21,680,9.33826,-63.3087,0,0,0,0,0,0,0,-1,1203,344,9.3382,63.3087
-14,680,9.62207,-64.636,0,0,0,0,0,0,0,-1,1210,344,9.62206,64.6359
-7,680,9.46729,-64.6378,-0.0154199,0.0997477,-0.0359038,0.110024,-0.0256961,-1.29203,0.0832472,0.0458056,1217,344,9.46723,64.6377
0,680,9.43652,-65.2177,-0.0114002,0.0981339,-0.0389967,0.110599,-0.0238653,-1.26141,0.0828417,0.0481136,1224,344,9.4365,65.2177
7,680,9.35791,-65.8427,0,0,0,0,0,0,0,-1,1231,344,9.35785,65.8427
14,680,9.50684,-64.7299,0,0,0,0,0,0,0,-1,1238,344,9.50683,64.7299
21,680,8.91699,-65.67,0,0,0,0,0,0,0,-1,1245,344,8.917,65.6699
28,680,8.86255,-65.8379,0,0,0,0,0,0,0,-1,1252,344,8.86256,65.8379
35,680,8.28613,-65.7422,0,0,0,0,0,0,0,-1,1259,344,8.28612,65.7422
42,680,8.15491,-65.907,0.0173305,0.0797467,-0.0367224,0.0967307,0.000346489,-1.1376,0.064372,0.0461697,1266,344,8.15494,65.907
49,680,7.83447,-66.4652,0.0159254,0.0797093,-0.0316386,0.0927405,0.00289408,-1.18009,0.0608853,0.0414167,1273,344,7.83446,66.4652
56,680,7.92676,-66.361,0.0122642,0.0809668,-0.0250504,0.0891306,0.00410037,-1.25575,0.0581018,0.0437678,1280,344,7.92674,66.361
63,680,7.97546,-66.224,0.00629447,0.083899,-0.0169625,0.0874446,0.00274886,-1.36474,0.0574021,0.0425816,1287,344,7.97548,66.224
70,680,7.76758,-65.0929,-0.00289143,0.0871129,-0.00789609,0.0878003,-0.00357891,-1.48395,0.0597623,0.0400812,1294,344,7.76758,65.0929
77,680,7.86462,-65.2372,0,0,0,0,0,0,0,-1,1301,344,7.86463,65.2372
84,680,7.77686,-65.558,0,0,0,0,0,0,0,-1,1308,344,7.7768,65.558
91,680,4.23438,-62.7383,0,0,0,0,0,0,0,-1,1315,344,4.23441,62.7383
98,680,3.35864,-63.2236,-0.0485639,0.0935743,0.0302375,0.0997394,-0.0547291,1.36966,0.0904357,0.0454419,1322,344,3.35861,63.2236
105,680,1.1449,-62.9841,-0.0576124,0.0934628,0.0380206,0.102492,-0.0666413,1.33764,0.0983775,0.0431737,1329,344,1.14492,62.9841
112,680,0.44812,-62.1132,-0.0631294,0.0906369,0.0437213,0.102199,-0.0746916,1.31226,0.102539,0.0460796,1336,344,0.448064,62.1132
119,680,-0.506714,-61.519,0,0,0,0,0,0,0,-1,1343,344,-0.506719,61.5189
126,680,-1.43665,-61.0116,0,0,0,0,0,0,0,-1,1350,344,-1.43668,61.0116
133,680,-2.25989,-61.0839,-0.0654384,0.0781213,0.0565434,0.097717,-0.0850342,1.23719,0.105596,0.0427856,1357,344,-2.25991,61.0839
140,680,-1.92139,-59.6837,-0.0633746,0.0742287,0.0593482,0.0962889,-0.0854348,1.21491,0.104981,0.0474012,1364,344,-1.92143,59.6838
147,680,5.63281,-64.1545,0,0,0,0,0,0,0,-1,1371,344,5.63282,64.1545
154,680,5.95203,-62.9796,0,0,0,0,0,0,0,-1,1378,344,5.95202,62.9796
161,680,5.30676,-60.3476,0,0,0,0,0,0,0,-1,1385,344,5.30681,60.3476
168,680,29.4142,-2.51651,0,0,0,0,0,0,0,-1,1392,344,29.4142,2.51652
175,680,6.66541,0.942078,0,0,0,0,0,0,0,-1,1399,344,6.66538,-0.942088
182,680,6.52917,0.532379,0,0,0,0,0,0,0,-1,1406,344,6.52922,-0.532385
189,680,7.55884,4.77695,0,0,0,0,0,0,0,-1,1413,344,7.55886,-4.77694
196,680,6.55627,3.35254,0,0,0,0,0,0,0,-1,1420,344,6.55622,-3.35255
203,680,5.7334,1.90753,0,0,0,0,0,0,0,-1,1427,344,5.73341,-1.90754
210,680,5.27515,0.493622,0,0,0,0,0,0,0,-1,1434,344,5.27514,-0.493632
217,680,6.56384,-0.374176,0,0,0,0,0,0,0,-1,1441,344,6.56379,0.374176
224,680,3.9491,-0.640228,0,0,0,0,0,0,0,-1,1448,344,3.94908,0.64024
231,680,4.24866,-1.96881,0,0,0,0,0,0,0,-1,1455,344,4.2486,1.96882
238,680,4.29333,-3.23984,0,0,0,0,0,0,0,-1,1462,344,4.29332,3.23984
245,680,2.44397,0.985382,0,0,0,0,0,0,0,-1,1469,344,2.44402,-0.985394
252,680,3.07349,2.18951,0,0,0,0,0,0,0,-1,1476,344,3.0735,-2.18952
259,680,2.82971,1.30682,0,0,0,0,0,0,0,-1,1483,344,2.82972,-1.30684
266,680,2.67554,1.44067,0,0,0,0,0,0,0,-1,1490,344,2.67551,-1.44066
273,680,2.46411,1.54666,0,0,0,0,0,0,0,-1,1497,344,2.46407,-1.54666
280,680,0,0,0,0,0,0,0,0,0,-1,1504,344,0,0
287,680,0,0,0,0,0,0,0,0,0,-1,1511,344,0,0
294,680,0,0,0,0,0,0,0,0,0,-1,1518,344,0,0
301,680,0,0,0,0,0,0,0,0,0,-1,1525,344,0,0
308,680,0,0,0,0,0,0,0,0,0,-1,1532,344,0,0
315,680,0,0,0,0,0,0,0,0,0,-1,1539,344,0,0
322,680,0,0,0,0,0,0,0,0,0,-1,1546,344,0,0
329,680,0,0,0,0,0,0,0,0,0,-1,1553,344,0,0
336,680,0,0,0,0,0,0,0,0,0,-1,1560,344,0,0
343,680,0,0,0,0,0,0,0,0,0,-1,1567,344,0,0
350,680,0,0,0,0,0,0,0,0,0,-1,1574,344,0,0
357,680,0,0,0,0,0,0,0,0,0,-1,1581,344,0,0
364,680,0,0,0,0,0,0,0,0,0,-1,1588,344,0,0
371,680,0,0,0,0,0,0,0,0,0,-1,1595,344,0,0
378,680,0,0,0,0,0,0,0,0,0,-1,1602,344,0,0
385,680,0,0,0,0,0,0,0,0,0,-1,1609,344,0,0
392,680,0,0,0,0,0,0,0,0,0,-1,1616,344,0,0
399,680,0,0,0,0,0,0,0,0,0,-1,1623,344,0,0
406,680,0,0,0,0,0,0,0,0,0,-1,1630,344,0,0
413,680,0,0,0,0,0,0,0,0,0,-1,1637,344,0,0
420,680,0,0,0,0,0,0,0,0,0,-1,1644,344,0,0
427,680,0,0,0,0,0,0,0,0,0,-1,1651,344,0,0
434,680,0,0,0,0,0,0,0,0,0,-1,1658,344,0,0
441,680,0,0,0,0,0,0,0,0,0,-1,1665,344,0,0
448,680,0,0,0,0,0,0,0,0,0,-1,1672,344,0,0
455,680,0,0,0,0,0,0,0,0,0,-1,1679,344,0,0
462,680,0,0,0,0,0,0,0,0,0,-1,1686,344,0,0
469,680,0,0,0,0,0,0,0,0,0,-1,1693,344,0,0
476,680,0,0,0,0,0,0,0,0,0,-1,1700,344,0,0
483,680,0,0,0,0,0,0,0,0,0,-1,1707,344,0,0
490,680,0,0,0,0,0,0,0,0,0,-1,1714,344,0,0
497,680,0,0,0,0,0,0,0,0,0,-1,1721,344,0,0
504,680,0,0,0,0,0,0,0,0,0,-1,1728,344,0,0
511,680,0,0,0,0,0,0,0,0,0,-1,1735,344,0,0
518,680,0,0,0,0,0,0,0,0,0,-1,1742,344,0,0
525,680,0,0,0,0,0,0,0,0,0,-1,1749,344,0,0
532,680,0,0,0,0,0,0,0,0,0,-1,1756,344,0,0
539,680,0,0,0,0,0,0,0,0,0,-1,1763,344,0,0
546,680,0,0,0,0,0,0,0,0,0,-1,1770,344,0,0
553,680,0,0,0,0,0,0,0,0,0,-1,1777,344,0,0
560,680,0,0,0,0,0,0,0,0,0,-1,1784,344,0,0
567,680,0,0,0,0,0,0,0,0,0,-1,1791,344,0,0
574,680,0,0,0,0,0,0,0,0,0,-1,1798,344,0,0
581,680,0,0,0,0,0,0,0,0,0,-1,1805,344,0,0
588,680,0,0,0,0,0,0,0,0,0,-1,1812,344,0,0
595,680,0,0,0,0,0,0,0,0,0,-1,1819,344,0,0
602,680,0,0,0,0,0,0,0,0,0,-1,1826,344,0,0
609,680,0,0,0,0,0,0,0,0,0,-1,1833,344,0,0
616,680,0,0,0,0,0,0,0,0,0,-1,1840,344,0,0
623,680,0,0,0,0,0,0,0,0,0,-1,1847,344,0,0
630,680,0,0,0,0,0,0,0,0,0,-1,1854,344,0,0
637,680,0,0,0,0,0,0,0,0,0,-1,1861,344,0,0
644,680,0,0,0,0,0,0,0,0,0,-1,1868,344,0,0
651,680,0,0,0,0,0,0,0,0,0,-1,1875,344,0,0
658,680,0,0,0,0,0,0,0,0,0,-1,1882,344,0,0
665,680,0,0,0,0,0,0,0,0,0,-1,1889,344,0,0
672,680,0,0,0,0,0,0,0,0,0,-1,1896,344,0,0
679,680,0,0,0,0,0,0,0,0,0,-1,1903,344,0,0
686,680,0,0,0,0,0,0,0,0,0,-1,1910,344,0,0
693,680,0,0,0,0,0,0,0,0,0,-1,1917,344,0,0
700,680,0,0,0,0,0,0,0,0,0,-1,1924,344,0,0
707,680,0,0,0,0,0,0,0,0,0,-1,1931,344,0,0
714,680,0,0,0,0,0,0,0,0,0,-1,1938,344,0,0
721,680,0,0,0,0,0,0,0,0,0,-1,1945,344,0,0
728,680,0,0,0,0,0,0,0,0,0,-1,1952,344,0,0
735,680,0,0,0,0,0,0,0,0,0,-1,1959,344,0,0
742,680,0,0,0,0,0,0,0,0,0,-1,1966,344,0,0
749,680,0,0,0,0,0,0,0,0,0,-1,1973,344,0,0
756,680,0,0,0,0,0,0,0,0,0,-1,1980,344,0,0
763,680,0,0,0,0,0,0,0,0,0,-1,1987,344,0,0
770,680,0,0,0,0,0,0,0,0,0,-1,1994,344,0,0
777,680,0,0,0,0,0,0,0,0,0,-1,2001,344,0,0
784,680,0,0,0,0,0,0,0,0,0,-1,2008,344,0,0
791,680,0,0,0,0,0,0,0,0,0,-1,2015,344,0,0
798,680,0,0,0,0,0,0,0,0,0,-1,2022,344,0,0
805,680,0,0,0,0,0,0,0,0,0,-1,2029,344,0,0
812,680,0,0,0,0,0,0,0,0,0,-1,2036,344,0,0
-700,673,0,0,0,0,0,0,0,0,0,-1,524,351,0,0
-693,673,0,0,0,0,0,0,0,0,0,-1,531,351,0,0
-686,673,0,0,0,0,0,0,0,0,0,-1,538,351,0,0
-679,673,0,0,0,0,0,0,0,0,0,-1,545,351,0,0
-672,673,0,0,0,0,0,0,0,0,0,-1,552,351,0,0
-665,673,0,0,0,0,0,0,0,0,0,-1,559,351,0,0
-658,673,0,0,0,0,0,0,0,0,0,-1,566,351,0,0
-651,673,0,0,0,0,0,0,0,0,0,-1,573,351,0,0
-644,673,0,0,0,0,0,0,0,0,0,-1,580,351,0,0
-637,673,0,0,0,0,0,0,0,0,0,-1,587,351,0,0
-630,673,0,0,0,0,0,0,0,0,0,-1,594,351,0,0
-623,673,0,0,0,0,0,0,0,0,0,-1,601,351,0,0
-616,673,0,0,0,0,0,0,0,0,0,-1,608,351,0,0
-609,673,0,0,0,0,0,0,0,0,0,-1,615,351,0,0
-602,673,0,0,0,0,0,0,0,0,0,-1,622,351,0,0
-595,673,0,0,0,0,0,0,0,0,0,-1,629,351,0,0
-588,673,0,0,0,0,0,0,0,0,0,-1,636,351,0,0
-581,673,0,0,0,0,0,0,0,0,0,-1,643,351,0,0
-574,673,0,0,0,0,0,0,0,0,0,-1,650,351,0,0
-567,673,0,0,0,0,0,0,0,0,0,-1,657,351,0,0
-560,673,0,0,0,0,0,0,0,0,0,-1,664,351,0,0
-553,673,0,0,0,0,0,0,0,0,0,-1,671,351,0,0
-546,673,0,0,0,0,0,0,0,0,0,-1,678,351,0,0
-539,673,0,0,0,0,0,0,0,0,0,-1,685,351,0,0
-532,673,0,0,0,0,0,0,0,0,0,-1,692,351,0,0
-525,673,0,0,0,0,0,0,0,0,0,-1,699,351,0,0
-518,673,0,0,0,0,0,0,0,0,0,-1,706,351,0,0
-511,673,0,0,0,0,0,0,0,0,0,-1,713,351,0,0
-504,673,0,0,0,0,0,0,0,0,0,-1,720,351,0,0
-497,673,0,0,0,0,0,0,0,0,0,-1,727,351,0,0
-490,673,0,0,0,0,0,0,0,0,0,-1,734,351,0,0
-483,673,0,0,0,0,0,0,0,0,0,-1,741,351,0,0
-476,673,0,0,0,0,0,0,0,0,0,-1,748,351,0,0
-469,673,0,0,0,0,0,0,0,0,0,-1,755,351,0,0
-462,673,0,0,0,0,0,0,0,0,0,-1,762,351,0,0
-455,673,0,0,0,0,0,0,0,0,0,-1,769,351,0,0
-448,673,0,0,0,0,0,0,0,0,0,-1,776,351,0,0
-441,673,0,0,0,0,0,0,0,0,0,-1,783,351,0,0
-434,673,0,0,0,0,0,0,0,0,0,-1,790,351,0,0
-427,673,0,0,0,0,0,0,0,0,0,-1,797,351,0,0
-420,673,0,0,0,0,0,0,0,0,0,-1,804,351,0,0
-413,673,0,0,0,0,0,0,0,0,0,-1,811,351,0,0
-406,673,0,0,0,0,0,0,0,0,0,-1,818,351,0,0
-399,673,0,0,0,0,0,0,0,0,0,-1,825,351,0,0
-392,673,0,0,0,0,0,0,0,0,0,-1,832,351,0,0
-385,673,0,0,0,0,0,0,0,0,0,-1,839,351,0,0
-378,673,0,0,0,0,0,0,0,0,0,-1,846,351,0,0
-371,673,0,0,0,0,0,0,0,0,0,-1,853,351,0,0
-364,673,0,0,0,0,0,0,0,0,0,-1,860,351,0,0
-357,673,0,0,0,0,0,0,0,0,0,-1,867,351,0,0
-350,673,0,0,0,0,0,0,0,0,0,-1,874,351,0,0
-343,673,0,0,0,0,0,0,0,0,0,-1,881,351,0,0
-336,673,0,0,0,0,0,0,0,0,0,-1,888,351,0,0
-329,673,0,0,0,0,0,0,0,0,0,-1,895,351,0,0
-322,673,0,0,0,0,0,0,0,0,0,-1,902,351,0,0
-315,673,0,0,0,0,0,0,0,0,0,-1,909,351,0,0
-308,673,0,0,0,0,0,0,0,0,0,-1,916,351,0,0
-301,673,0,0,0,0,0,0,0,0,0,-1,923,351,0,0
-294,673,0,0,0,0,0,0,0,0,0,-1,930,351,0,0
-287,673,0,0,0,0,0,0,0,0,0,-1,937,351,0,0
-280,673,0,0,0,0,0,0,0,0,0,-1,944,351,0,0
-273,673,0,0,0,0,0,0,0,0,0,-1,951,351,0,0
-266,673,0,0,0,0,0,0,0,0,0,-1,958,351,0,0
-259,673,0,0,0,0,0,0,0,0,0,-1,965,351,0,0
-252,673,0,0,0,0,0,0,0,0,0,-1,972,351,0,0
-245,673,0,0,0,0,0,0,0,0,0,-1,979,351,0,0
-238,673,0,0,0,0,0,0,0,0,0,-1,986,351,0,0
-231,673,0,0,0,0,0,0,0,0,0,-1,993,351,0,0
-224,673,0,0,0,0,0,0,0,0,0,-1,1000,351,0,0
-217,673,0,0,0,0,0,0,0,0,0,-1,1007,351,0,0
-210,673,0,0,0,0,0,0,0,0,0,-1,1014,351,0,0
-203,673,0,0,0,0,0,0,0,0,0,-1,1021,351,0,0
-196,673,0,0,0,0,0,0,0,0,0,-1,1028,351,0,0
-189,673,0,0,0,0,0,0,0,0,0,-1,1035,351,0,0
-182,673,0,0,0,0,0,0,0,0,0,-1,1042,351,0,0
-175,673,7.10449,-31.8279,0,0,0,0,0,0,0,-1,1049,351,7.10448,31.8279
-168,673,7.33081,-32.7122,0,0,0,0,0,0,0,-1,1056,351,7.33085,32.7122
-161,673,7.8938,-33.5352,0,0,0,0,0,0,0,-1,1063,351,7.89385,33.5352
-154,673,8.80566,-35.3518,0,0,0,0,0,0,0,-1,1070,351,8.80563,35.3518
-147,673,2.89221,-37.7351,0,0,0,0,0,0,0,-1,1077,351,2.89224,37.7351
-140,673,3.35046,-37.7151,0,0,0,0,0,0,0,-1,1084,351,3.35046,37.715
-133,673,3.35339,-39.0288,0,0,0,0,0,0,0,-1,1091,351,3.35342,39.0288
-126,673,3.7533,-38.0453,0,0,0,0,0,0,0,-1,1098,351,3.7533,38.0453
-119,673,4.1532,-37.0618,0,0,0,0,0,0,0,-1,1105,351,4.15318,37.0618
-112,673,7.27234,-32.5801,0,0,0,0,0,0,0,-1,1112,351,7.27231,32.5801
-105,673,21.1144,-43.3143,0,0,0,0,0,0,0,-1,1119,351,21.1143,43.3143
-98,673,14.8014,-36.7519,0,0,0,0,0,0,0,-1,1126,351,14.8014,36.7519
-91,673,8.54944,-29.9639,0,0,0,0,0,0,0,-1,1133,351,8.54949,29.9639
-84,673,2.17102,-24.3204,0,0,0,0,0,0,0,-1,1140,351,2.17107,24.3204
-77,673,-4.25378,-18.8346,0,0,0,0,0,0,0,-1,1147,351,-4.25381,18.8346
-70,673,-10.7933,-13.6681,0,0,0,0,0,0,0,-1,1154,351,-10.7934,13.6681
-63,673,-17.3896,-8.24469,0,0,0,0,0,0,0,-1,1161,351,-17.3896,8.2447
-56,673,-18.0282,2.79053,0,0,0,0,0,0,0,-1,1168,351,-18.0283,-2.79052
-49,673,-0.926758,-0.115448,0,0,0,0,0,0,0,-1,1175,351,-0.926732,0.115444
-42,673,-1.15015,0.289917,0,0,0,0,0,0,0,-1,1182,351,-1.15017,-0.289932
-35,673,-0.919556,-1.00711,0,0,0,0,0,0,0,-1,1189,351,-0.919514,1.00711
-28,673,5.28918,-39.2331,0,0,0,0,0,0,0,-1,1196,351,5.28924,39.2331
-21,673,9.54102,-64.6013,0,0,0,0,0,0,0,-1,1203,351,9.54103,64.6013
-14,673,9.34253,-64.989,-0.0160417,0.0779796,-0.0238702,0.0836927,-0.0217547,-1.33588,0.0642856,0.0492548,1210,351,9.34257,64.989
-7,673,9.16748,-65.4506,-0.0136897,0.0784946,-0.0268399,0.0857398,-0.0209348,-1.30714,0.0652671,0.0466447,1217,351,9.16743,65.4506
0,673,8.87317,-65.703,0,0,0,0,0,0,0,-1,1224,351,8.8732,65.703
7,673,8.6792,-65.709,0,0,0,0,0,0,0,-1,1231,351,8.67914,65.709
14,673,8.99121,-65.5063,-0.00297392,0.071774,-0.0316902,0.0834009,-0.0146008,-1.21915,0.0610523,0.0484473,1238,351,8.99118,65.5063
21,673,8.62292,-66.0815,0.000964198,0.0694746,-0.0312846,0.0816106,-0.0111718,-1.20074,0.0584878,0.0365609,1245,351,8.62288,66.0815
28,673,8.59546,-66.2543,0.00408752,0.0679735,-0.0301022,0.0799223,-0.00786136,-1.19293,0.056086,0.0366526,1252,351,8.5955,66.2543
35,673,8.5929,-66.0849,0,0,0,0,0,0,0,-1,1259,351,8.59286,66.0849
42,673,8.20642,-66.3834,0.00979291,0.0665811,-0.0263441,0.0769199,-0.000545871,-1.19681,0.0514629,0.0436949,1266,351,8.20636,66.3834
49,673,8.06763,-66.5707,0.00826867,0.067048,-0.0223087,0.0745559,0.000760786,-1.24616,0.0494523,0.0267396,1273,351,8.06763,66.5707
56,673,8.00842,-66.5769,0.00500875,0.0685073,-0.0169344,0.0727412,0.000774845,-1.3258,0.048238,0.02028,1280,351,8.00842,66.5769
63,673,8.01855,-66.2865,1.20537e-05,0.0711872,-0.0104432,0.0726878,-0.0014886,-1.42808,0.0489623,0.0258928,1287,351,8.01857,66.2865
70,673,7.9198,-66.2133,-0.00720335,0.0739131,-0.00338445,0.0740541,-0.00734432,-1.52917,0.0519907,0.0396189,1294,351,7.91978,66.2133
77,673,7.83386,-66.0396,-0.015812,0.0767055,0.00359834,0.0768453,-0.0159518,1.53198,0.0572925,0.0442505,1301,351,7.83382,66.0395
84,673,7.80505,-66.1911,-0.0245798,0.0766769,0.0120465,0.0780903,-0.0259932,1.454,0.0625515,0.0491452,1308,351,7.80505,66.1911
91,673,7.61792,-66.6534,0,0,0,0,0,0,0,-1,1315,351,7.61796,66.6534
98,673,7.30762,-66.5718,0,0,0,0,0,0,0,-1,1322,351,7.30763,66.5718
105,673,6.9314,-66.3093,0,0,0,0,0,0,0,-1,1329,351,6.93145,66.3093
112,673,-0.670288,-62.8499,0,0,0,0,0,0,0,-1,1336,351,-0.670261,62.85
119,673,-1.63599,-62.4211,0,0,0,0,0,0,0,-1,1343,351,-1.63593,62.4211
126,673,-2.65002,-62.0485,0,0,0,0,0,0,0,-1,1350,351,-2.65004,62.0485
133,673,-3.97559,-62.4954,0,0,0,0,0,0,0,-1,1357,351,-3.97563,62.4954
140,673,6.1947,-65.1238,0,0,0,0,0,0,0,-1,1364,351,6.19469,65.1238
147,673,6.08691,-64.6421,-0.0463583,0.0632858,0.0486767,0.0817773,-0.0648498,1.20775,0.084843,0.0497855,1371,351,6.08691,64.6421
154,673,6.21863,-63.7372,-0.0415024,0.0619626,0.0479144,0.0807428,-0.0602826,1.19725,0.0817062,0.0460852,1378,351,6.21864,63.7372
161,673,6.13257,-63.1213,0,0,0,0,0,0,0,-1,1385,351,6.13259,63.1213
168,673,6.87061,1.83954,0,0,0,0,0,0,0,-1,1392,351,6.87063,-1.83953
175,673,6.6228,1.1459,0,0,0,0,0,0,0,-1,1399,351,6.62276,-1.14591
182,673,6.37244,0.796112,0,0,0,0,0,0,0,-1,1406,351,6.3724,-0.796102
189,673,6.12097,0.265472,0,0,0,0,0,0,0,-1,1413,351,6.121,-0.265482
196,673,6.02173,3.12717,0,0,0,0,0,0,0,-1,1420,351,6.02176,-3.12717
203,673,5.04456,1.6351,0,0,0,0,0,0,0,-1,1427,351,5.04455,-1.63509
210,673,4.79224,0.447479,0,0,0,0,0,0,0,-1,1434,351,4.79229,-0.447469
217,673,2.01648,0.972687,0,0,0,0,0,0,0,-1,1441,351,2.01644,-0.972691
224,673,2.3689,-1.80539,0,0,0,0,0,0,0,-1,1448,351,2.36896,1.80539
231,673,2.65857,-2.18497,0,0,0,0,0,0,0,-1,1455,351,2.65852,2.18496
238,673,3.77844,-2.06088,0,0,0,0,0,0,0,-1,1462,351,3.77839,2.06088
245,673,3.5376,-0.190399,0,0,0,0,0,0,0,-1,1469,351,3.53759,0.1904
252,673,3.80518,0.55603,0,0,0,0,0,0,0,-1,1476,351,3.80519,-0.556022
259,673,3.88562,1.29617,0,0,0,0,0,0,0,-1,1483,351,3.88562,-1.29618
266,673,4.22424,2.04834,0,0,0,0,0,0,0,-1,1490,351,4.22429,-2.04834
273,673,6.07886,0.385895,0,0,0,0,0,0,0,-1,1497,351,6.0789,-0.385906
280,673,6.97534,-0.0820007,0,0,0,0,0,0,0,-1,1504,351,6.97536,0.0820122
287,673,7.66968,-0.348541,0,0,0,0,0,0,0,-1,1511,351,7.66969,0.348534
294,673,8.20996,0.28537,0,0,0,0,0,0,0,-1,1518,351,8.20993,-0.28536
301,673,0,0,0,0,0,0,0,0,0,-1,1525,351,0,0
308,673,0,0,0,0,0,0,0,0,0,-1,1532,351,0,0
315,673,0,0,0,0,0,0,0,0,0,-1,1539,351,0,0
322,673,0,0,0,0,0,0,0,0,0,-1,1546,351,0,0
329,673,0,0,0,0,0,0,0,0,0,-1,1553,351,0,0
336,673,0,0,0,0,0,0,0,0,0,-1,1560,351,0,0
343,673,0,0,0,0,0,0,0,0,0,-1,1567,351,0,0
350,673,0,0,0,0,0,0,0,0,0,-1,1574,351,0,0
357,673,0,0,0,0,0,0,0,0,0,-1,1581,351,0,0
364,673,0,0,0,0,0,0,0,0,0,-1,1588,351,0,0
371,673,0,0,0,0,0,0,0,0,0,-1,1595,351,0,0
378,673,0,0,0,0,0,0,0,0,0,-1,1602,351,0,0
385,673,0,0,0,0,0,0,0,0,0,-1,1609,351,0,0
392,673,0,0,0,0,0,0,0,0,0,-1,1616,351,0,0
399,673,0,0,0,0,0,0,0,0,0,-1,1623,351,0,0
406,673,0,0,0,0,0,0,0,0,0,-1,1630,351,0,0
413,673,0,0,0,0,0,0,0,0,0,-1,1637,351,0,0
420,673,0,0,0,0,0,0,0,0,0,-1,1644,351,0,0
427,673,0,0,0,0,0,0,0,0,0,-1,1651,351,0,0
434,673,0,0,0,0,0,0,0,0,0,-1,1658,351,0,0
441,673,0,0,0,0,0,0,0,0,0,-1,1665,351,0,0
448,673,0,0,0,0,0,0,0,0,0,-1,1672,351,0,0
455,673,0,0,0,0,0,0,0,0,0,-1,1679,351,0,0
462,673,0,0,0,0,0,0,0,0,0,-1,1686,351,0,0
469,673,0,0,0,0,0,0,0,0,0,-1,1693,351,0,0
476,673,0,0,0,0,0,0,0,0,0,-1,1700,351,0,0
483,673,0,0,0,0,0,0,0,0,0,-1,1707,351,0,0
490,673,0,0,0,0,0,0,0,0,0,-1,1714,351,0,0
497,673,0,0,0,0,0,0,0,0,0,-1,1721,351,0,0
504,673,0,0,0,0,0,0,0,0,0,-1,1728,351,0,0
511,673,0,0,0,0,0,0,0,0,0,-1,1735,351,0,0
518,673,0,0,0,0,0,0,0,0,0,-1,1742,351,0,0
525,673,0,0,0,0,0,0,0,0,0,-1,1749,351,0,0
532,673,0,0,0,0,0,0,0,0,0,-1,1756,351,0,0
539,673,0,0,0,0,0,0,0,0,0,-1,1763,351,0,0
546,673,0,0,0,0,0,0,0,0,0,-1,1770,351,0,0
553,673,0,0,0,0,0,0,0,0,0,-1,1777,351,0,0
560,673,0,0,0,0,0,0,0,0,0,-1,1784,351,0,0
567,673,0,0,0,0,0,0,0,0,0,-1,1791,351,0,0
574,673,0,0,0,0,0,0,0,0,0,-1,1798,351,0,0
581,673,0,0,0,0,0,0,0,0,0,-1,1805,351,0,0
588,673,0,0,0,0,0,0,0,0,0,-1,1812,351,0,0
595,673,0,0,0,0,0,0,0,0,0,-1,1819,351,0,0
602,673,0,0,0,0,0,0,0,0,0,-1,1826,351,0,0
609,673,0,0,0,0,0,0,0,0,0,-1,1833,351,0,0
616,673,0,0,0,0,0,0,0,0,0,-1,1840,351,0,0
623,673,0,0,0,0,0,0,0,0,0,-1,1847,351,0,0
630,673,0,0,0,0,0,0,0,0,0,-1,1854,351,0,0
637,673,0,0,0,0,0,0,0,0,0,-1,1861,351,0,0
644,673,0,0,0,0,0,0,0,0,0,-1,1868,351,0,0
651,673,0,0,0,0,0,0,0,0,0,-1,1875,351,0,0
658,673,0,0,0,0,0,0,0,0,0,-1,1882,351,0,0
665,673,0,0,0,0,0,0,0,0,0,-1,1889,351,0,0
672,673,0,0,0,0,0,0,0,0,0,-1,1896,351,0,0
679,673,0,0,0,0,0,0,0,0,0,-1,1903,351,0,0
686,673,0,0,0,0,0,0,0,0,0,-1,1910,351,0,0
693,673,0,0,0,0,0,0,0,0,0,-1,1917,351,0,0
700,673,0,0,0,0,0,0,0,0,0,-1,1924,351,0,0
707,673,0,0,0,0,0,0,0,0,0,-1,1931,351,0,0
714,673,0,0,0,0,0,0,0,0,0,-1,1938,351,0,0
721,673,0,0,0,0,0,0,0,0,0,-1,1945,351,0,0
728,673,0,0,0,0,0,0,0,0,0,-1,1952,351,0,0
735,673,0,0,0,0,0,0,0,0,0,-1,1959,351,0,0
742,673,0,0,0,0,0,0,0,0,0,-1,1966,351,0,0
749,673,0,0,0,0,0,0,0,0,0,-1,1973,351,0,0
756,673,0,0,0,0,0,0,0,0,0,-1,1980,351,0,0
763,673,0,0,0,0,0,0,0,0,0,-1,1987,351,0,0
770,673,0,0,0,0,0,0,0,0,0,-1,1994,351,0,0
777,673,0,0,0,0,0,0,0,0,0,-1,2001,351,0,0
784,673,0,0,0,0,0,0,0,0,0,-1,2008,351,0,0
791,673,0,0,0,0,0,0,0,0,0,-1,2015,351,0,0
798,673,0,0,0,0,0,0,0,0,0,-1,2022,351,0,0
805,673,0,0,0,0,0,0,0,0,0,-1,2029,351,0,0
812,673,0,0,0,0,0,0,0,0,0,-1,2036,351,0,0
-700,666,0,0,0,0,0,0,0,0,0,-1,524,358,0,0
-693,666,0,0,0,0,0,0,0,0,0,-1,531,358,0,0
-686,666,0,0,0,0,0,0,0,0,0,-1,538,358,0,0
-679,666,0,0,0,0,0,0,0,0,0,-1,545,358,0,0
-672,666,0,0,0,0,0,0,0,0,0,-1,552,358,0,0
-665,666,0,0,0,0,0,0,0,0,0,-1,559,358,0,0
-658,666,0,0,0,0,0,0,0,0,0,-1,566,358,0,0
-651,666,0,0,0,0,0,0,0,0,0,-1,573,358,0,0
-644,666,0,0,0,0,0,0,0,0,0,-1,580,358,0,0
-637,666,0,0,0,0,0,0,0,0,0,-1,587,358,0,0
-630,666,0,0,0,0,0,0,0,0,0,-1,594,358,0,0
-623,666,0,0,0,0,0,0,0,0,0,-1,601,358,0,0
-616,666,0,0,0,0,0,0,0,0,0,-1,608,358,0,0
-609,666,0,0,0,0,0,0,0,0,0,-1,615,358,0,0
-602,666,0,0,0,0,0,0,0,0,0,-1,622,358,0,0
-595,666,0,0,0,0,0,0,0,0,0,-1,629,358,0,0
-588,666,0,0,0,0,0,0,0,0,0,-1,636,358,0,0
-581,666,0,0,0,0,0,0,0,0,0,-1,643,358,0,0
-574,666,0,0,0,0,0,0,0,0,0,-1,650,358,0,0
-567,666,0,0,0,0,0,0,0,0,0,-1,657,358,0,0
-560,666,0,0,0,0,0,0,0,0,0,-1,664,358,0,0
-553,666,0,0,0,0,0,0,0,0,0,-1,671,358,0,0
-546,666,0,0,0,0,0,0,0,0,0,-1,678,358,0,0
-539,666,0,0,0,0,0,0,0,0,0,-1,685,358,0,0
-532,666,0,0,0,0,0,0,0,0,0,-1,692,358,0,0
-525,666,0,0,0,0,0,0,0,0,0,-1,699,358,0,0
-518,666,0,0,0,0,0,0,0,0,0,-1,706,358,0,0
-511,666,0,0,0,0,0,0,0,0,0,-1,713,358,0,0
-504,666,0,0,0,0,0,0,0,0,0,-1,720,358,0,0
-497,666,0,0,0,0,0,0,0,0,0,-1,727,358,0,0
-490,666,0,0,0,0,0,0,0,0,0,-1,734,358,0,0
-483,666,0,0,0,0,0,0,0,0,0,-1,741,358,0,0
-476,666,0,0,0,0,0,0,0,0,0,-1,748,358,0,0
-469,666,0,0,0,0,0,0,0,0,0,-1,755,358,0,0
-462,666,0,0,0,0,0,0,0,0,0,-1,762,358,0,0
-455,666,0,0,0,0,0,0,0,0,0,-1,769,358,0,0
-448,666,0,0,0,0,0,0,0,0,0,-1,776,358,0,0
-441,666,0,0,0,0,0,0,0,0,0,-1,783,358,0,0
-434,666,0,0,0,0,0,0,0,0,0,-1,790,358,0,0
-427,666,0,0,0,0,0,0,0,0,0,-1,797,358,0,0
-420,666,0,0,0,0,0,0,0,0,0,-1,804,358,0,0
-413,666,0,0,0,0,0,0,0,0,0,-1,811,358,0,0
-406,666,0,0,0,0,0,0,0,0,0,-1,818,358,0,0
-399,666,0,0,0,0,0,0,0,0,0,-1,825,358,0,0
-392,666,0,0,0,0,0,0,0,0,0,-1,832,358,0,0
-385,666,0,0,0,0,0,0,0,0,0,-1,839,358,0,0
-378,666,0,0,0,0,0,0,0,0,0,-1,846,358,0,0
-371,666,0,0,0,0,0,0,0,0,0,-1,853,358,0,0
-364,666,0,0,0,0,0,0,0,0,0,-1,860,358,0,0
-357,666,0,0,0,0,0,0,0,0,0,-1,867,358,0,0
-350,666,0,0,0,0,0,0,0,0,0,-1,874,358,0,0
-343,666,0,0,0,0,0,0,0,0,0,-1,881,358,0,0
-336,666,0,0,0,0,0,0,0,0,0,-1,888,358,0,0
-329,666,0,0,0,0,0,0,0,0,0,-1,895,358,0,0
-322,666,0,0,0,0,0,0,0,0,0,-1,902,358,0,0
-315,666,0,0,0,0,0,0,0,0,0,-1,909,358,0,0
-308,666,0,0,0,0,0,0,0,0,0,-1,916,358,0,0
-301,666,0,0,0,0,0,0,0,0,0,-1,923,358,0,0
-294,666,0,0,0,0,0,0,0,0,0,-1,930,358,0,0
-287,666,0,0,0,0,0,0,0,0,0,-1,937,358,0,0
-280,666,0,0,0,0,0,0,0,0,0,-1,944,358,0,0
-273,666,0,0,0,0,0,0,0,0,0,-1,951,358,0,0
-266,666,0,0,0,0,0,0,0,0,0,-1,958,358,0,0
-259,666,0,0,0,0,0,0,0,0,0,-1,965,358,0,0
-252,666,0,0,0,0,0,0,0,0,0,-1,972,358,0,0
-245,666,0,0,0,0,0,0,0,0,0,-1,979,358,0,0
-238,666,0,0,0,0,0,0,0,0,0,-1,986,358,0,0
-231,666,0,0,0,0,0,0,0,0,0,-1,993,358,0,0
-224,666,0,0,0,0,0,0,0,0,0,-1,1000,358,0,0
-217,666,0,0,0,0,0,0,0,0,0,-1,1007,358,0,0
-210,666,0,0,0,0,0,0,0,0,0,-1,1014,358,0,0
-203,666,0,0,0,0,0,0,0,0,0,-1,1021,358,0,0
-196,666,4.03418,-28.8724,0,0,0,0,0,0,0,-1,1028,358,4.03422,28.8724
-189,666,5.00366,-29.597,0,0,0,0,0,0,0,-1,1035,358,5.00363,29.597
-182,666,6.83252,-30.9843,0,0,0,0,0,0,0,-1,1042,358,6.83247,30.9844
-175,666,7.01611,-31.8763,0,0,0,0,0,0,0,-1,1049,358,7.01617,31.8762
-168,666,7.21545,-32.7414,0,0,0,0,0,0,0,-1,1056,358,7.2154,32.7414
-161,666,7.69116,-33.6269,0,0,0,0,0,0,0,-1,1063,358,7.69121,33.6269
-154,666,3.79041,-37.9204,0,0,0,0,0,0,0,-1,1070,358,3.79034,37.9204
-147,666,4.17908,-37.7466,0,0,0,0,0,0,0,-1,1077,358,4.17912,37.7466
-140,666,4.54309,-37.735,0,0,0,0,0,0,0,-1,1084,358,4.54304,37.735
-133,666,4.65723,-39.0643,0,0,0,0,0,0,0,-1,1091,358,4.65727,39.0643
-126,666,5.02368,-38.0699,0,0,0,0,0,0,0,-1,1098,358,5.02363,38.0698
-119,666,5.39001,-37.0754,0,0,0,0,0,0,0,-1,1105,358,5.38999,37.0754
-112,666,6.77014,-32.8165,0,0,0,0,0,0,0,-1,1112,358,6.77013,32.8165
-105,666,6.30908,-29.0855,0,0,0,0,0,0,0,-1,1119,358,6.30905,29.0855
-98,666,15.4427,-31.5168,0,0,0,0,0,0,0,-1,1126,358,15.4428,31.5168
-91,666,9.5127,-25.1347,0,0,0,0,0,0,0,-1,1133,358,9.51269,25.1347
-84,666,2.91589,-19.4071,0,0,0,0,0,0,0,-1,1140,358,2.91592,19.4071
-77,666,-3.48083,-14.0782,0,0,0,0,0,0,0,-1,1147,358,-3.48081,14.0782
-70,666,-9.99438,-8.90146,0,0,0,0,0,0,0,-1,1154,358,-9.99433,8.90146
-63,666,-11.7778,-0.975189,0,0,0,0,0,0,0,-1,1161,358,-11.7778,0.97519
-56,666,0.424683,-2.04132,0,0,0,0,0,0,0,-1,1168,358,0.424665,2.04132
-49,666,0.754395,-2.23169,0,0,0,0,0,0,0,-1,1175,358,0.754383,2.23169
-42,666,1.34473,-3.53897,0,0,0,0,0,0,0,-1,1182,358,1.34476,3.53896
-35,666,9.04944,-64.859,0,0,0,0,0,0,0,-1,1189,358,9.04939,64.859
-28,666,9.16614,-65.0135,0,0,0,0,0,0,0,-1,1196,358,9.16618,65.0135
-21,666,9.07471,-65.0737,-0.0137823,0.0571098,-0.0155289,0.0603622,-0.0170347,-1.36434,0.0469611,0.0453238,1203,358,9.07465,65.0737
-14,666,8.88074,-65.3233,-0.0135996,0.0590075,-0.0166189,0.0626305,-0.0172227,-1.35615,0.0485243,0.0428086,1210,358,8.88075,65.3233
-7,666,8.7655,-65.6563,-0.0117725,0.0597802,-0.0190575,0.0645395,-0.0165318,-1.32607,0.0494665,0.0264875,1217,358,8.76546,65.6563
0,666,8.72681,-65.9937,-0.00918644,0.0590127,-0.0209138,0.0649152,-0.0150889,-1.29572,0.0490857,0.0173224,1224,358,8.72676,65.9937
7,666,8.60352,-66.1125,-0.0067255,0.0580221,-0.0217893,0.0646718,-0.0133752,-1.27459,0.0481956,0.02412,1231,358,8.60354,66.1125
14,666,8.50769,-66.2037,-0.00376636,0.0555893,-0.0225281,0.0631712,-0.0113483,-1.24615,0.0463622,0.0224187,1238,358,8.50768,66.2037
21,666,8.42053,-66.4999,-0.00111567,0.0546582,-0.0220689,0.0623341,-0.00879159,-1.23607,0.0447752,0.0171535,1245,358,8.42054,66.4999
28,666,8.34619,-66.6954,0.000997597,0.0541365,-0.0210869,0.0614875,-0.00635337,-1.23537,0.0432652,0.0242456,1252,358,8.34616,66.6954
35,666,8.29712,-66.7036,0.0036219,0.0540709,-0.0202332,0.061183,-0.00349022,-1.23278,0.0420004,0.0221596,1259,358,8.2971,66.7036
42,666,8.17151,-66.8264,0.00476451,0.0538733,-0.0181401,0.0598473,-0.00120947,-1.25266,0.0403074,0.0183454,1266,358,8.17156,66.8264
49,666,8.06274,-66.9294,0.00336182,0.0545779,-0.0150682,0.0586822,-0.000742476,-1.30487,0.0393713,0.0179858,1273,358,8.0627,66.9294
56,666,8.00269,-66.9716,0.00066443,0.0560092,-0.0108863,0.0580735,-0.0013999,-1.38339,0.0391907,0.0186212,1280,358,8.00266,66.9716
63,666,7.95117,-67.0775,-0.00326861,0.0582819,-0.00591704,0.0588456,-0.00383227,-1.47582,0.0405682,0.0221351,1287,358,7.95114,67.0776
70,666,7.85583,-67.0531,-0.00866308,0.0604588,-0.000661683,0.0604652,-0.00866941,-1.56122,0.0434889,0.0211623,1294,358,7.85586,67.0531
77,666,7.81091,-66.8628,-0.0150275,0.0626377,0.0045282,0.0629008,-0.0152906,1.51275,0.0478521,0.0218907,1301,358,7.81088,66.8628
84,666,7.79321,-66.8624,-0.0214929,0.0629661,0.0109273,0.0643569,-0.0228838,1.44419,0.0522311,0.0297699,1308,358,7.79316,66.8624
91,666,7.61194,-66.8944,-0.0278842,0.0643623,0.0163748,0.0671828,-0.0307047,1.40023,0.0578086,0.0284693,1315,358,7.61198,66.8944
98,666,7.39697,-66.7653,-0.0336437,0.0647199,0.0219279,0.0693868,-0.0383106,1.3611,0.0630361,0.0242527,1322,358,7.39699,66.7653
105,666,7.20947,-66.5573,-0.0381447,0.0649168,0.0265866,0.0713711,-0.044599,1.33264,0.0675475,0.0284969,1329,358,7.20942,66.5573
112,666,7.20642,-66.3862,0,0,0,0,0,0,0,-1,1336,358,7.20641,66.3862
119,666,7.11938,-66.1815,0,0,0,0,0,0,0,-1,1343,358,7.1194,66.1816
126,666,7.03772,-65.9086,0,0,0,0,0,0,0,-1,1350,358,7.03773,65.9086
133,666,6.87659,-65.6954,0,0,0,0,0,0,0,-1,1357,358,6.87656,65.6954
140,666,6.68909,-65.3433,-0.0378924,0.0536304,0.0381208,0.0674282,-0.0516902,1.22352,0.0689728,0.0474137,1364,358,6.68905,65.3433
147,666,6.5072,-65.0477,-0.0346437,0.0526831,0.037953,0.0668723,-0.0488329,1.21302,0.0670725,0.0348618,1371,358,6.50721,65.0477
154,666,6.48438,-64.4379,-0.0301822,0.0513766,0.0370684,0.0657064,-0.044512,1.20191,0.0640256,0.0310845,1378,358,6.48433,64.4379
161,666,6.4928,-64.0164,-0.0263197,0.0503179,0.0353516,0.0641342,-0.040136,1.19822,0.0607296,0.039745,1385,358,6.49285,64.0163
168,666,6.37073,-64.0046,0,0,0,0,0,0,0,-1,1392,358,6.37067,64.0046
175,666,6.4198,-63.7237,0,0,0,0,0,0,0,-1,1399,358,6.41982,63.7237
182,666,2.60876,-5.17068,0,0,0,0,0,0,0,-1,1406,358,2.6088,5.17068
189,666,2.46973,-5.49979,0,0,0,0,0,0,0,-1,1413,358,2.46975,5.49979
196,666,2.32458,-5.23651,0,0,0,0,0,0,0,-1,1420,358,2.32461,5.23653
203,666,2.28064,-3.88004,0,0,0,0,0,0,0,-1,1427,358,2.28059,3.88003
210,666,3.02576,-5.83548,0,0,0,0,0,0,0,-1,1434,358,3.02581,5.83547
217,666,2.30444,-5.36011,0,0,0,0,0,0,0,-1,1441,358,2.30447,5.3601
224,666,1.82324,-6.03101,0,0,0,0,0,0,0,-1,1448,358,1.82322,6.031
231,666,2.29797,-10.1093,0,0,0,0,0,0,0,-1,1455,358,2.29801,10.1093
238,666,2.52429,-6.10568,0,0,0,0,0,0,0,-1,1462,358,2.52423,6.10567
245,666,4.53345,-1.38205,0,0,0,0,0,0,0,-1,1469,358,4.53349,1.38204
252,666,4.77405,-0.246979,0,0,0,0,0,0,0,-1,1476,358,4.77405,0.246993
259,666,4.83655,1.14087,0,0,0,0,0,0,0,-1,1483,358,4.83652,-1.14087
266,666,6.14148,0.749512,0,0,0,0,0,0,0,-1,1490,358,6.14144,-0.749519
273,666,3.17737,-33.7881,0,0,0,0,0,0,0,-1,1497,358,3.17735,33.7881
280,666,3.37268,-35.2123,0,0,0,0,0,0,0,-1,1504,358,3.37266,35.2123
287,666,-7.06934,-20.3464,0,0,0,0,0,0,0,-1,1511,358,-7.06933,20.3464
294,666,-2.11157,-23.2753,0,0,0,0,0,0,0,-1,1518,358,-2.11162,23.2753
301,666,-3.16162,-22.2271,0,0,0,0,0,0,0,-1,1525,358,-3.16161,22.2271
308,666,-4.24951,-20.9112,0,0,0,0,0,0,0,-1,1532,358,-4.24948,20.9112
315,666,-5.64954,-19.5784,0,0,0,0,0,0,0,-1,1539,358,-5.64959,19.5784
322,666,0,0,0,0,0,0,0,0,0,-1,1546,358,0,0
329,666,0,0,0,0,0,0,0,0,0,-1,1553,358,0,0
336,666,0,0,0,0,0,0,0,0,0,-1,1560,358,0,0
343,666,0,0,0,0,0,0,0,0,0,-1,1567,358,0,0
350,666,0,0,0,0,0,0,0,0,0,-1,1574,358,0,0
357,666,0,0,0,0,0,0,0,0,0,-1,1581,358,0,0
364,666,0,0,0,0,0,0,0,0,0,-1,1588,358,0,0
371,666,0,0,0,0,0,0,0,0,0,-1,1595,358,0,0
378,666,0,0,0,0,0,0,0,0,0,-1,1602,358,0,0
385,666,0,0,0,0,0,0,0,0,0,-1,1609,358,0,0
392,666,0,0,0,0,0,0,0,0,0,-1,1616,358,0,0
399,666,0,0,0,0,0,0,0,0,0,-1,1623,358,0,0
406,666,0,0,0,0,0,0,0,0,0,-1,1630,358,0,0
413,666,0,0,0,0,0,0,0,0,0,-1,1637,358,0,0
420,666,0,0,0,0,0,0,0,0,0,-1,1644,358,0,0
427,666,0,0,0,0,0,0,0,0,0,-1,1651,358,0,0
434,666,0,0,0,0,0,0,0,0,0,-1,1658,358,0,0
441,666,0,0,0,0,0,0,0,0,0,-1,1665,358,0,0
448,666,0,0,0,0,0,0,0,0,0,-1,1672,358,0,0
455,666,0,0,0,0,0,0,0,0,0,-1,1679,358,0,0
462,666,0,0,0,0,0,0,0,0,0,-1,1686,358,0,0
469,666,0,0,0,0,0,0,0,0,0,-1,1693,358,0,0
476,666,0,0,0,0,0,0,0,0,0,-1,1700,358,0,0
483,666,0,0,0,0,0,0,0,0,0,-1,1707,358,0,0
490,666,0,0,0,0,0,0,0,0,0,-1,1714,358,0,0
497,666,0,0,0,0,0,0,0,0,0,-1,1721,358,0,0
504,666,0,0,0,0,0,0,0,0,0,-1,1728,358,0,0
511,666,0,0,0,0,0,0,0,0,0,-1,1735,358,0,0
518,666,0,0,0,0,0,0,0,0,0,-1,1742,358,0,0
525,666,0,0,0,0,0,0,0,0,0,-1,1749,358,0,0
532,666,0,0,0,0,0,0,0,0,0,-1,1756,358,0,0
539,666,0,0,0,0,0,0,0,0,0,-1,1763,358,0,0
546,666,0,0,0,0,0,0,0,0,0,-1,1770,358,0,0
553,666,0,0,0,0,0,0,0,0,0,-1,1777,358,0,0
560,666,0,0,0,0,0,0,0,0,0,-1,1784,358,0,0
567,666,0,0,0,0,0,0,0,0,0,-1,1791,358,0,0
574,666,0,0,0,0,0,0,0,0,0,-1,1798,358,0,0
581,666,0,0,0,0,0,0,0,0,0,-1,1805,358,0,0
588,666,0,0,0,0,0,0,0,0,0,-1,1812,358,0,0
595,666,0,0,0,0,0,0,0,0,0,-1,1819,358,0,0
602,666,0,0,0,0,0,0,0,0,0,-1,1826,358,0,0
609,666,0,0,0,0,0,0,0,0,0,-1,1833,358,0,0
616,666,0,0,0,0,0,0,0,0,0,-1,1840,358,0,0
623,666,0,0,0,0,0,0,0,0,0,-1,1847,358,0,0
630,666,0,0,0,0,0,0,0,0,0,-1,1854,358,0,0
637,666,0,0,0,0,0,0,0,0,0,-1,1861,358,0,0
644,666,0,0,0,0,0,0,0,0,0,-1,1868,358,0,0
651,666,0,0,0,0,0,0,0,0,0,-1,1875,358,0,0
658,666,0,0,0,0,0,0,0,0,0,-1,1882,358,0,0
665,666,0,0,0,0,0,0,0,0,0,-1,1889,358,0,0
672,666,0,0,0,0,0,0,0,0,0,-1,1896,358,0,0
679,666,0,0,0,0,0,0,0,0,0,-1,1903,358,0,0
686,666,0,0,0,0,0,0,0,0,0,-1,1910,358,0,0
693,666,0,0,0,0,0,0,0,0,0,-1,1917,358,0,0
700,666,0,0,0,0,0,0,0,0,0,-1,1924,358,0,0
707,666,0,0,0,0,0,0,0,0,0,-1,1931,358,0,0
714,666,0,0,0,0,0,0,0,0,0,-1,1938,358,0,0
721,666,0,0,0,0,0,0,0,0,0,-1,1945,358,0,0
728,666,0,0,0,0,0,0,0,0,0,-1,1952,358,0,0
735,666,0,0,0,0,0,0,0,0,0,-1,1959,358,0,0
742,666,0,0,0,0,0,0,0,0,0,-1,1966,358,0,0
749,666,0,0,0,0,0,0,0,0,0,-1,1973,358,0,0
756,666,0,0,0,0,0,0,0,0,0,-1,1980,358,0,0
763,666,0,0,0,0,0,0,0,0,0,-1,1987,358,0,0
770,666,0,0,0,0,0,0,0,0,0,-1,1994,358,0,0
777,666,0,0,0,0,0,0,0,0,0,-1,2001,358,0,0
784,666,0,0,0,0,0,0,0,0,0,-1,2008,358,0,0
791,666,0,0,0,0,0,0,0,0,0,-1,2015,358,0,0
798,666,0,0,0,0,0,0,0,0,0,-1,2022,358,0,0
805,666,0,0,0,0,0,0,0,0,0,-1,2029,358,0,0
812,666,0,0,0,0,0,0,0,0,0,-1,2036,358,0,0
-700,659,0,0,0,0,0,0,0,0,0,-1,524,365,0,0
-693,659,0,0,0,0,0,0,0,0,0,-1,531,365,0,0
-686,659,0,0,0,0,0,0,0,0,0,-1,538,365,0,0
-679,659,0,0,0,0,0,0,0,0,0,-1,545,365,0,0
-672,659,0,0,0,0,0,0,0,0,0,-1,552,365,0,0
-665,659,0,0,0,0,0,0,0,0,0,-1,559,365,0,0
-658,659,0,0,0,0,0,0,0,0,0,-1,566,365,0,0
-651,659,0,0,0,0,0,0,0,0,0,-1,573,365,0,0
-644,659,0,0,0,0,0,0,0,0,0,-1,580,365,0,0
-637,659,0,0,0,0,0,0,0,0,0,-1,587,365,0,0
-630,659,0,0,0,0,0,0,0,0,0,-1,594,365,0,0
-623,659,0,0,0,0,0,0,0,0,0,-1,601,365,0,0
-616,659,0,0,0,0,0,0,0,0,0,-1,608,365,0,0
-609,659,0,0,0,0,0,0,0,0,0,-1,615,365,0,0
-602,659,0,0,0,0,0,0,0,0,0,-1,622,365,0,0
-595,659,0,0,0,0,0,0,0,0,0,-1,629,365,0,0
-588,659,0,0,0,0,0,0,0,0,0,-1,636,365,0,0
-581,659,0,0,0,0,0,0,0,0,0,-1,643,365,0,0
-574,659,0,0,0,0,0,0,0,0,0,-1,650,365,0,0
-567,659,0,0,0,0,0,0,0,0,0,-1,657,365,0,0
-560,659,0,0,0,0,0,0,0,0,0,-1,664,365,0,0
-553,659,0,0,0,0,0,0,0,0,0,-1,671,365,0,0
-546,659,0,0,0,0,0,0,0,0,0,-1,678,365,0,0
-539,659,0,0,0,0,0,0,0,0,0,-1,685,365,0,0
-532,659,0,0,0,0,0,0,0,0,0,-1,692,365,0,0
-525,659,0,0,0,0,0,0,0,0,0,-1,699,365,0,0
-518,659,0,0,0,0,0,0,0,0,0,-1,706,365,0,0
-511,659,0,0,0,0,0,0,0,0,0,-1,713,365,0,0
-504,659,0,0,0,0,0,0,0,0,0,-1,720,365,0,0
-497,659,0,0,0,0,0,0,0,0,0,-1,727,365,0,0
-490,659,0,0,0,0,0,0,0,0,0,-1,734,365,0,0
-483,659,0,0,0,0,0,0,0,0,0,-1,741,365,0,0
-476,659,0,0,0,0,0,0,0,0,0,-1,748,365,0,0
-469,659,0,0,0,0,0,0,0,0,0,-1,755,365,0,0
-462,659,0,0,0,0,0,0,0,0,0,-1,762,365,0,0
-455,659,0,0,0,0,0,0,0,0,0,-1,769,365,0,0
-448,659,0,0,0,0,0,0,0,0,0,-1,776,365,0,0
-441,659,0,0,0,0,0,0,0,0,0,-1,783,365,0,0
-434,659,0,0,0,0,0,0,0,0,0,-1,790,365,0,0
-427,659,0,0,0,0,0,0,0,0,0,-1,797,365,0,0
-420,659,0,0,0,0,0,0,0,0,0,-1,804,365,0,0
-413,659,0,0,0,0,0,0,0,0,0,-1,811,365,0,0
-406,659,0,0,0,0,0,0,0,0,0,-1,818,365,0,0
-399,659,0,0,0,0,0,0,0,0,0,-1,825,365,0,0
-392,659,0,0,0,0,0,0,0,0,0,-1,832,365,0,0
-385,659,0,0,0,0,0,0,0,0,0,-1,839,365,0,0
-378,659,0,0,0,0,0,0,0,0,0,-1,846,365,0,0
-371,659,0,0,0,0,0,0,0,0,0,-1,853,365,0,0
-364,659,0,0,0,0,0,0,0,0,0,-1,860,365,0,0
-357,659,0,0,0,0,0,0,0,0,0,-1,867,365,0,0
-350,659,0,0,0,0,0,0,0,0,0,-1,874,365,0,0
-343,659,0,0,0,0,0,0,0,0,0,-1,881,365,0,0
-336,659,0,0,0,0,0,0,0,0,0,-1,888,365,0,0
-329,659,0,0,0,0,0,0,0,0,0,-1,895,365,0,0
-322,659,0,0,0,0,0,0,0,0,0,-1,902,365,0,0
-315,659,0,0,0,0,0,0,0,0,0,-1,909,365,0,0
-308,659,0,0,0,0,0,0,0,0,0,-1,916,365,0,0
-301,659,0,0,0,0,0,0,0,0,0,-1,923,365,0,0
-294,659,0,0,0,0,0,0,0,0,0,-1,930,365,0,0
-287,659,0,0,0,0,0,0,0,0,0,-1,937,365,0,0
-280,659,0,0,0,0,0,0,0,0,0,-1,944,365,0,0
-273,659,0,0,0,0,0,0,0,0,0,-1,951,365,0,0
-266,659,0,0,0,0,0,0,0,0,0,-1,958,365,0,0
-259,659,0,0,0,0,0,0,0,0,0,-1,965,365,0,0
-252,659,0,0,0,0,0,0,0,0,0,-1,972,365,0,0
-245,659,0,0,0,0,0,0,0,0,0,-1,979,365,0,0
-238,659,0,0,0,0,0,0,0,0,0,-1,986,365,0,0
-231,659,0,0,0,0,0,0,0,0,0,-1,993,365,0,0
-224,659,0,0,0,0,0,0,0,0,0,-1,1000,365,0,0
-217,659,10.1305,-25.2622,0,0,0,0,0,0,0,-1,1007,365,10.1305,25.2622
-210,659,9.65643,-25.515,0,0,0,0,0,0,0,-1,1014,365,9.65642,25.515
-203,659,8.58911,-25.7432,0,0,0,0,0,0,0,-1,1021,365,8.58916,25.7432
-196,659,2.68323,-27.8121,0,0,0,0,0,0,0,-1,1028,365,2.6832,27.8121
-189,659,6.88049,-28.9412,0,0,0,0,0,0,0,-1,1035,365,6.88045,28.9412
-182,659,6.94189,-30.6316,0,0,0,0,0,0,0,-1,1042,365,6.94189,30.6316
-175,659,6.948,-32.0092,0,0,0,0,0,0,0,-1,1049,365,6.94798,32.0093
-168,659,7.1416,-32.7405,0,0,0,0,0,0,0,-1,1056,365,7.14157,32.7405
-161,659,7.57361,-33.7099,0,0,0,0,0,0,0,-1,1063,365,7.57355,33.7099
-154,659,7.71448,-34.8995,0,0,0,0,0,0,0,-1,1070,365,7.7145,34.8995
-147,659,5.46606,-37.758,0,0,0,0,0,0,0,-1,1077,365,5.46601,37.758
-140,659,5.7356,-37.755,0,0,0,0,0,0,0,-1,1084,365,5.73562,37.755
-133,659,5.91455,-37.9017,0,0,0,0,0,0,0,-1,1091,365,5.9146,37.9017
-126,659,6.31226,-37.9904,0,0,0,0,0,0,0,-1,1098,365,6.3122,37.9904
-119,659,6.26941,-35.0837,0,0,0,0,0,0,0,-1,1105,365,6.26943,35.0837
-112,659,6.24353,-35.0562,0,0,0,0,0,0,0,-1,1112,365,6.24349,35.0562
-105,659,5.38696,-30.5854,0,0,0,0,0,0,0,-1,1119,365,5.387,30.5854
-98,659,4.68042,-26.2438,0,0,0,0,0,0,0,-1,1126,365,4.68041,26.2438
-91,659,4.20776,-20.8654,0,0,0,0,0,0,0,-1,1133,365,4.20777,20.8654
-84,659,2.8584,-17.8303,0,0,0,0,0,0,0,-1,1140,365,2.85836,17.8303
-77,659,2.80139,-15.3457,0,0,0,0,0,0,0,-1,1147,365,2.80139,15.3457
-70,659,2.9353,-12.7028,0,0,0,0,0,0,0,-1,1154,365,2.93533,12.7028
-63,659,2.11267,-9.7796,0,0,0,0,0,0,0,-1,1161,365,2.11266,9.7796
-56,659,2.11182,-9.91541,0,0,0,0,0,0,0,-1,1168,365,2.11178,9.91541
-49,659,9.09387,-64.0251,0,0,0,0,0,0,0,-1,1175,365,9.09387,64.025
-42,659,9.06348,-64.3904,0,0,0,0,0,0,0,-1,1182,365,9.06349,64.3904
-35,659,8.94763,-64.7726,-0.010546,0.0334323,-0.00771313,0.0347458,-0.0118595,-1.40212,0.0279681,0.0420074,1189,365,8.94767,64.7726
-28,659,8.91772,-65.0343,-0.0106218,0.0357771,-0.0086019,0.0373205,-0.0121652,-1.39326,0.0297756,0.0178356,1196,365,8.91767,65.0343
-21,659,8.8158,-65.3904,-0.0111406,0.0413023,-0.0102446,0.0432325,-0.0130708,-1.38457,0.034026,0.0169406,1203,365,8.81576,65.3904
-14,659,8.69189,-65.7202,-0.0108876,0.0430344,-0.0110175,0.0451987,-0.0130519,-1.37683,0.0352968,0.0143594,1210,365,8.69189,65.7201
-7,659,8.60242,-65.97,-0.00953726,0.0439557,-0.0128468,0.046881,-0.0124625,-1.34691,0.0361319,0.0131748,1217,365,8.60243,65.97
0,659,8.55127,-66.1989,-0.0076242,0.0436066,-0.014221,0.0472894,-0.011307,-1.31739,0.0358939,0.0106732,1224,365,8.55127,66.1989
7,659,8.49976,-66.3947,-0.00577067,0.0430437,-0.0148247,0.0471932,-0.00992016,-1.29788,0.0352374,0.0108629,1231,365,8.4998,66.3948
14,659,8.40991,-66.5247,-0.00394398,0.0417225,-0.0152558,0.0463501,-0.00857157,-1.27629,0.0341181,0.0134778,1238,365,8.4099,66.5246
21,659,8.32849,-66.6972,-0.0024245,0.0417891,-0.0148,0.0462859,-0.00692127,-1.27582,0.0334042,0.0128005,1245,365,8.32848,66.6972
28,659,8.22827,-66.8743,-0.00112893,0.0419252,-0.013999,0.0460766,-0.00528041,-1.2825,0.0326207,0.0120569,1252,365,8.2283,66.8743
35,659,8.17249,-66.9928,0.000489377,0.0422845,-0.0132863,0.0461505,-0.00337663,-1.28764,0.0319521,0.0136201,1259,365,8.1725,66.9928
42,659,8.12061,-67.0811,0.0010202,0.0425457,-0.0116966,0.0456137,-0.00204777,-1.31428,0.0311142,0.0148535,1266,365,8.12055,67.0812
49,659,8.03821,-67.1642,-0.000312419,0.0434572,-0.00938804,0.0453859,-0.00224105,-1.36818,0.0310312,0.0165162,1273,365,8.03823,67.1643
56,659,7.94519,-67.2202,-0.00255002,0.0448596,-0.0062189,0.0456618,-0.0033522,-1.44251,0.0316179,0.0201897,1280,365,7.94515,67.2203
63,659,7.90759,-67.2663,-0.00557842,0.0467713,-0.00253928,0.0468941,-0.0057013,-1.52244,0.0333262,0.0178552,1287,365,7.9076,67.2663
70,659,7.80542,-67.2722,-0.00946303,0.0484613,0.00122768,0.0484874,-0.00948904,1.54961,0.0359083,0.0183522,1294,365,7.80538,67.2723
77,659,7.6593,-67.2616,-0.013915,0.0500996,0.00491597,0.0504749,-0.0142903,1.4946,0.0392894,0.0196305,1301,365,7.65931,67.2616
84,659,7.6687,-67.1521,-0.0183818,0.0504833,0.00952936,0.0517776,-0.0196761,1.4358,0.042619,0.0149883,1308,365,7.66874,67.1521
91,659,7.60046,-67.0773,-0.0227278,0.0513389,0.0134471,0.0537047,-0.0250936,1.39664,0.0464831,0.0133701,1315,365,7.60045,67.0773
98,659,7.49365,-66.9361,-0.0266133,0.0514524,0.0175116,0.0552007,-0.0303615,1.35994,0.0500884,0.00960302,1322,365,7.4936,66.9361
105,659,7.4259,-66.7516,-0.0295348,0.051556,0.0209125,0.0566315,-0.0346102,1.3327,0.0531874,0.010635,1329,365,7.42589,66.7516
112,659,7.36609,-66.5675,-0.0310968,0.0506385,0.0232323,0.0567805,-0.0372387,1.31234,0.0546714,0.0157712,1336,365,7.36608,66.5675
119,659,7.26025,-66.3674,-0.0312328,0.0491449,0.0251876,0.0563855,-0.0384735,1.29088,0.0550914,0.0177949,1343,365,7.26026,66.3674
126,659,7.172,-66.1021,-0.030501,0.046415,0.0265226,0.0546739,-0.0387599,1.26892,0.0542042,0.0183313,1350,365,7.17203,66.1021
133,659,7.06384,-65.8363,-0.0288686,0.0442,0.0275511,0.053424,-0.0380926,1.24773,0.0530837,0.018982,1357,365,7.0638,65.8363
140,659,6.96619,-65.6143,-0.0272504,0.0425232,0.0284764,0.0526697,-0.0373969,1.22851,0.0522486,0.014158,1364,365,6.96615,65.6143
147,659,6.89526,-65.3449,-0.0245406,0.0418169,0.0281191,0.0521297,-0.0348534,1.21927,0.0505488,0.0117677,1371,365,6.89522,65.3449
154,659,6.78687,-64.975,-0.0208595,0.0407159,0.0271871,0.0510016,-0.0311452,1.20911,0.0478871,0.0141761,1378,365,6.78689,64.975
161,659,6.71985,-64.5807,-0.017741,0.0397312,0.0255323,0.0494355,-0.0274453,1.20758,0.0449883,0.0155784,1385,365,6.7198,64.5807
168,659,6.66589,-64.1652,-0.0156303,0.0383271,0.0232596,0.0469695,-0.0242726,1.21504,0.0418217,0.0203353,1392,365,6.66593,64.1652
175,659,6.60095,-63.7775,-0.0137674,0.0372505,0.0215806,0.0451546,-0.0216714,1.21971,0.0393681,0.0429414,1399,365,6.60097,63.7775
182,659,6.43372,-63.3816,0,0,0,0,0,0,0,-1,1406,365,6.43376,63.3816
189,659,6.42725,-62.865,0,0,0,0,0,0,0,-1,1413,365,6.42728,62.865
196,659,2.41248,-13.4371,0,0,0,0,0,0,0,-1,1420,365,2.41243,13.4371
203,659,2.38623,-12.2163,0,0,0,0,0,0,0,-1,1427,365,2.38617,12.2163
210,659,2.20789,-13.9792,0,0,0,0,0,0,0,-1,1434,365,2.20794,13.9792
217,659,2.24121,-13.487,0,0,0,0,0,0,0,-1,1441,365,2.24116,13.487
224,659,2.3479,-15.2926,0,0,0,0,0,0,0,-1,1448,365,2.34793,15.2926
231,659,2.47974,-17.8629,0,0,0,0,0,0,0,-1,1455,365,2.47976,17.8628
238,659,3.57886,-21.1258,0,0,0,0,0,0,0,-1,1462,365,3.57889,21.1258
245,659,3.29883,-25.0283,0,0,0,0,0,0,0,-1,1469,365,3.29889,25.0283
252,659,2.81909,-24.1604,0,0,0,0,0,0,0,-1,1476,365,2.81905,24.1604
259,659,2.33069,-3.36703,0,0,0,0,0,0,0,-1,1483,365,2.33073,3.36702
266,659,3.40918,-35.2544,0,0,0,0,0,0,0,-1,1490,365,3.40913,35.2544
273,659,4.45557,-42.3683,0,0,0,0,0,0,0,-1,1497,365,4.45554,42.3683
280,659,4.87903,-41.4995,0,0,0,0,0,0,0,-1,1504,365,4.87898,41.4995
287,659,1.09851,-23.7787,0,0,0,0,0,0,0,-1,1511,365,1.09847,23.7787
294,659,0.115601,-24.0352,0,0,0,0,0,0,0,-1,1518,365,0.115612,24.0352
301,659,-1.21362,-22.6162,0,0,0,0,0,0,0,-1,1525,365,-1.21358,22.6162
308,659,-2.32605,-21.2737,0,0,0,0,0,0,0,-1,1532,365,-2.32606,21.2737
315,659,-3.69629,-19.8803,0,0,0,0,0,0,0,-1,1539,365,-3.69631,19.8803
322,659,-4.9646,-18.5258,0,0,0,0,0,0,0,-1,1546,365,-4.96464,18.5257
329,659,-7.67749,-23.0449,0,0,0,0,0,0,0,-1,1553,365,-7.67745,23.0449
336,659,-7.71436,-22.4188,0,0,0,0,0,0,0,-1,1560,365,-7.71432,22.4188
343,659,0,0,0,0,0,0,0,0,0,-1,1567,365,0,0
350,659,0,0,0,0,0,0,0,0,0,-1,1574,365,0,0
357,659,0,0,0,0,0,0,0,0,0,-1,1581,365,0,0
364,659,0,0,0,0,0,0,0,0,0,-1,1588,365,0,0
371,659,0,0,0,0,0,0,0,0,0,-1,1595,365,0,0
378,659,0,0,0,0,0,0,0,0,0,-1,1602,365,0,0
385,659,0,0,0,0,0,0,0,0,0,-1,1609,365,0,0
392,659,0,0,0,0,0,0,0,0,0,-1,1616,365,0,0
399,659,0,0,0,0,0,0,0,0,0,-1,1623,365,0,0
406,659,0,0,0,0,0,0,0,0,0,-1,1630,365,0,0
413,659,0,0,0,0,0,0,0,0,0,-1,1637,365,0,0
420,659,0,0,0,0,0,0,0,0,0,-1,1644,365,0,0
427,659,0,0,0,0,0,0,0,0,0,-1,1651,365,0,0
434,659,0,0,0,0,0,0,0,0,0,-1,1658,365,0,0
441,659,0,0,0,0,0,0,0,0,0,-1,1665,365,0,0
448,659,0,0,0,0,0,0,0,0,0,-1,1672,365,0,0
455,659,0,0,0,0,0,0,0,0,0,-1,1679,365,0,0
462,659,0,0,0,0,0,0,0,0,0,-1,1686,365,0,0
469,659,0,0,0,0,0,0,0,0,0,-1,1693,365,0,0
476,659,0,0,0,0,0,0,0,0,0,-1,1700,365,0,0
483,659,0,0,0,0,0,0,0,0,0,-1,1707,365,0,0
490,659,0,0,0,0,0,0,0,0,0,-1,1714,365,0,0
497,659,0,0,0,0,0,0,0,0,0,-1,1721,365,0,0
504,659,0,0,0,0,0,0,0,0,0,-1,1728,365,0,0
511,659,0,0,0,0,0,0,0,0,0,-1,1735,365,0,0
518,659,0,0,0,0,0,0,0,0,0,-1,1742,365,0,0
525,659,0,0,0,0,0,0,0,0,0,-1,1749,365,0,0
532,659,0,0,0,0,0,0,0,0,0,-1,1756,365,0,0
539,659,0,0,0,0,0,0,0,0,0,-1,1763,365,0,0
546,659,0,0,0,0,0,0,0,0,0,-1,1770,365,0,0
553,659,0,0,0,0,0,0,0,0,0,-1,1777,365,0,0
560,659,0,0,0,0,0,0,0,0,0,-1,1784,365,0,0
567,659,0,0,0,0,0,0,0,0,0,-1,1791,365,0,0
574,659,0,0,0,0,0,0,0,0,0,-1,1798,365,0,0
581,659,0,0,0,0,0,0,0,0,0,-1,1805,365,0,0
588,659,0,0,0,0,0,0,0,0,0,-1,1812,365,0,0
595,659,0,0,0,0,0,0,0,0,0,-1,1819,365,0,0
602,659,0,0,0,0,0,0,0,0,0,-1,1826,365,0,0
609,659,0,0,0,0,0,0,0,0,0,-1,1833,365,0,0
616,659,0,0,0,0,0,0,0,0,0,-1,1840,365,0,0
623,659,0,0,0,0,0,0,0,0,0,-1,1847,365,0,0
630,659,0,0,0,0,0,0,0,0,0,-1,1854,365,0,0
637,659,0,0,0,0,0,0,0,0,0,-1,1861,365,0,0
644,659,0,0,0,0,0,0,0,0,0,-1,1868,365,0,0
651,659,0,0,0,0,0,0,0,0,0,-1,1875,365,0,0
658,659,0,0,0,0,0,0,0,0,0,-1,1882,365,0,0
665,659,0,0,0,0,0,0,0,0,0,-1,1889,365,0,0
672,659,0,0,0,0,0,0,0,0,0,-1,1896,365,0,0
679,659,0,0,0,0,0,0,0,0,0,-1,1903,365,0,0
686,659,0,0,0,0,0,0,0,0,0,-1,1910,365,0,0
693,659,0,0,0,0,0,0,0,0,0,-1,1917,365,0,0
700,659,0,0,0,0,0,0,0,0,0,-1,1924,365,0,0
707,659,0,0,0,0,0,0,0,0,0,-1,1931,365,0,0
714,659,0,0,0,0,0,0,0,0,0,-1,1938,365,0,0
721,659,0,0,0,0,0,0,0,0,0,-1,1945,365,0,0
728,659,0,0,0,0,0,0,0,0,0,-1,1952,365,0,0
735,659,0,0,0,0,0,0,0,0,0,-1,1959,365,0,0
742,659,0,0,0,0,0,0,0,0,0,-1,1966,365,0,0
749,659,0,0,0,0,0,0,0,0,0,-1,1973,365,0,0
756,659,0,0,0,0,0,0,0,0,0,-1,1980,365,0,0
763,659,0,0,0,0,0,0,0,0,0,-1,1987,365,0,0
770,659,0,0,0,0,0,0,0,0,0,-1,1994,365,0,0
777,659,0,0,0,0,0,0,0,0,0,-1,2001,365,0,0
784,659,0,0,0,0,0,0,0,0,0,-1,2008,365,0,0
791,659,0,0,0,0,0,0,0,0,0,-1,2015,365,0,0
798,659,0,0,0,0,0,0,0,0,0,-1,2022,365,0,0
805,659,0,0,0,0,0,0,0,0,0,-1,2029,365,0,0
812,659,0,0,0,0,0,0,0,0,0,-1,2036,365,0,0
-700,652,0,0,0,0,0,0,0,0,0,-1,524,372,0,0
-693,652,0,0,0,0,0,0,0,0,0,-1,531,372,0,0
-686,652,0,0,0,0,0,0,0,0,0,-1,538,372,0,0
-679,652,0,0,0,0,0,0,0,0,0,-1,545,372,0,0
-672,652,0,0,0,0,0,0,0,0,0,-1,552,372,0,0
-665,652,0,0,0,0,0,0,0,0,0,-1,559,372,0,0
-658,652,0,0,0,0,0,0,0,0,0,-1,566,372,0,0
-651,652,0,0,0,0,0,0,0,0,0,-1,573,372,0,0
-644,652,0,0,0,0,0,0,0,0,0,-1,580,372,0,0
-637,652,0,0,0,0,0,0,0,0,0,-1,587,372,0,0
-630,652,0,0,0,0,0,0,0,0,0,-1,594,372,0,0
-623,652,0,0,0,0,0,0,0,0,0,-1,601,372,0,0
-616,652,0,0,0,0,0,0,0,0,0,-1,608,372,0,0
-609,652,0,0,0,0,0,0,0,0,0,-1,615,372,0,0
-602,652,0,0,0,0,0,0,0,0,0,-1,622,372,0,0
-595,652,0,0,0,0,0,0,0,0,0,-1,629,372,0,0
-588,652,0,0,0,0,0,0,0,0,0,-1,636,372,0,0
-581,652,0,0,0,0,0,0,0,0,0,-1,643,372,0,0
-574,652,0,0,0,0,0,0,0,0,0,-1,650,372,0,0
-567,652,0,0,0,0,0,0,0,0,0,-1,657,372,0,0
-560,652,0,0,0,0,0,0,0,0,0,-1,664,372,0,0
-553,652,0,0,0,0,0,0,0,0,0,-1,671,372,0,0
-546,652,0,0,0,0,0,0,0,0,0,-1,678,372,0,0
-539,652,0,0,0,0,0,0,0,0,0,-1,685,372,0,0
-532,652,0,0,0,0,0,0,0,0,0,-1,692,372,0,0
-525,652,0,0,0,0,0,0,0,0,0,-1,699,372,0,0
-518,652,0,0,0,0,0,0,0,0,0,-1,706,372,0,0
-511,652,0,0,0,0,0,0,0,0,0,-1,713,372,0,0
-504,652,0,0,0,0,0,0,0,0,0,-1,720,372,0,0
-497,652,0,0,0,0,0,0,0,0,0,-1,727,372,0,0
-490,652,0,0,0,0,0,0,0,0,0,-1,734,372,0,0
-483,652,0,0,0,0,0,0,0,0,0,-1,741,372,0,0
-476,652,0,0,0,0,0,0,0,0,0,-1,748,372,0,0
-469,652,0,0,0,0,0,0,0,0,0,-1,755,372,0,0
-462,652,0,0,0,0,0,0,0,0,0,-1,762,372,0,0
-455,652,0,0,0,0,0,0,0,0,0,-1,769,372,0,0
-448,652,0,0,0,0,0,0,0,0,0,-1,776,372,0,0
-441,652,0,0,0,0,0,0,0,0,0,-1,783,372,0,0
-434,652,0,0,0,0,0,0,0,0,0,-1,790,372,0,0
-427,652,0,0,0,0,0,0,0,0,0,-1,797,372,0,0
-420,652,0,0,0,0,0,0,0,0,0,-1,804,372,0,0
-413,652,0,0,0,0,0,0,0,0,0,-1,811,372,0,0
-406,652,0,0,0,0,0,0,0,0,0,-1,818,372,0,0
-399,652,0,0,0,0,0,0,0,0,0,-1,825,372,0,0
-392,652,0,0,0,0,0,0,0,0,0,-1,832,372,0,0
-385,652,0,0,0,0,0,0,0,0,0,-1,839,372,0,0
-378,652,0,0,0,0,0,0,0,0,0,-1,846,372,0,0
-371,652,0,0,0,0,0,0,0,0,0,-1,853,372,0,0
-364,652,0,0,0,0,0,0,0,0,0,-1,860,372,0,0
-357,652,0,0,0,0,0,0,0,0,0,-1,867,372,0,0
-350,652,0,0,0,0,0,0,0,0,0,-1,874,372,0,0
-343,652,0,0,0,0,0,0,0,0,0,-1,881,372,0,0
-336,652,0,0,0,0,0,0,0,0,0,-1,888,372,0,0
-329,652,0,0,0,0,0,0,0,0,0,-1,895,372,0,0
-322,652,0,0,0,0,0,0,0,0,0,-1,902,372,0,0
-315,652,0,0,0,0,0,0,0,0,0,-1,909,372,0,0
-308,652,0,0,0,0,0,0,0,0,0,-1,916,372,0,0
-301,652,0,0,0,0,0,0,0,0,0,-1,923,372,0,0
-294,652,0,0,0,0,0,0,0,0,0,-1,930,372,0,0
-287,652,0,0,0,0,0,0,0,0,0,-1,937,372,0,0
-280,652,0,0,0,0,0,0,0,0,0,-1,944,372,0,0
-273,652,0,0,0,0,0,0,0,0,0,-1,951,372,0,0
-266,652,0,0,0,0,0,0,0,0,0,-1,958,372,0,0
-259,652,0,0,0,0,0,0,0,0,0,-1,965,372,0,0
-252,652,0,0,0,0,0,0,0,0,0,-1,972,372,0,0
-245,652,0,0,0,0,0,0,0,0,0,-1,979,372,0,0
-238,652,0,0,0,0,0,0,0,0,0,-1,986,372,0,0
-231,652,8.79358,-27.1656,0,0,0,0,0,0,0,-1,993,372,8.79357,27.1656
-224,652,8.84552,-27.675,0,0,0,0,0,0,0,-1,1000,372,8.84555,27.675
-217,652,9.03113,-27.7474,0,0,0,0,0,0,0,-1,1007,372,9.0311,27.7474
-210,652,9.72803,-30.4624,0,0,0,0,0,0,0,-1,1014,372,9.72805,30.4624
-203,652,7.2677,-26.0732,0,0,0,0,0,0,0,-1,1021,372,7.26775,26.0732
-196,652,5.90686,-26.957,0,0,0,0,0,0,0,-1,1028,372,5.9068,26.957
-189,652,6.21326,-28.3035,0,0,0,0,0,0,0,-1,1035,372,6.21331,28.3035
-182,652,6.45068,-29.9377,0,0,0,0,0,0,0,-1,1042,372,6.45074,29.9377
-175,652,6.72559,-31.6948,0,0,0,0,0,0,0,-1,1049,372,6.72563,31.6948
-168,652,7.08533,-32.8669,0,0,0,0,0,0,0,-1,1056,372,7.08532,32.8669
-161,652,7.85291,-37.3545,0,0,0,0,0,0,0,-1,1063,372,7.85294,37.3545
-154,652,7.54639,-37.9586,0,0,0,0,0,0,0,-1,1070,372,7.54642,37.9586
-147,652,7.85571,-42.3712,0,0,0,0,0,0,0,-1,1077,372,7.8557,42.3712
-140,652,5.6842,-33.9781,0,0,0,0,0,0,0,-1,1084,372,5.68421,33.9781
-133,652,6.3009,-35.2887,0,0,0,0,0,0,0,-1,1091,372,6.30093,35.2887
-126,652,5.86841,-37.0981,0,0,0,0,0,0,0,-1,1098,372,5.86845,37.0981
-119,652,8.18018,-49.52,0,0,0,0,0,0,0,-1,1105,372,8.18015,49.52
-112,652,7.81982,-48.4793,0,0,0,0,0,0,0,-1,1112,372,7.81981,48.4793
-105,652,6.63855,-39.9965,0,0,0,0,0,0,0,-1,1119,372,6.63852,39.9965
-98,652,5.84302,-35.2455,0,0,0,0,0,0,0,-1,1126,372,5.84307,35.2455
-91,652,5.66296,-32.9003,0,0,0,0,0,0,0,-1,1133,372,5.66297,32.9003
-84,652,5.46057,-34.9186,0,0,0,0,0,0,0,-1,1140,372,5.46057,34.9186
-77,652,9.14185,-62.0251,0,0,0,0,0,0,0,-1,1147,372,9.14186,62.0251
-70,652,9.0481,-62.5991,0,0,0,0,0,0,0,-1,1154,372,9.04809,62.5991
-63,652,9.00977,-63.0882,0,0,0,0,0,0,0,-1,1161,372,9.00978,63.0882
-56,652,8.87781,-63.6001,0,0,0,0,0,0,0,-1,1168,372,8.87775,63.6001
-49,652,8.81335,-64.0391,-0.00981666,0.0172149,-0.00329815,0.0176115,-0.0102133,-1.45112,0.0162528,0.0373017,1175,372,8.81337,64.0391
-42,652,8.73511,-64.3728,-0.00906031,0.0202417,-0.00403358,0.0207868,-0.00960541,-1.43647,0.0179384,0.0139007,1182,372,8.73513,64.3728
-35,652,8.67957,-64.7337,-0.00850577,0.0231367,-0.00474054,0.0238316,-0.00920071,-1.42524,0.0196849,0.0110062,1189,372,8.67957,64.7337
-28,652,8.60583,-65.0817,-0.00801817,0.024979,-0.0052196,0.025785,-0.00882414,-1.41759,0.020766,0.00917146,1196,372,8.60589,65.0817
-21,652,8.52405,-65.444,-0.00787988,0.027417,-0.00576621,0.0283351,-0.00879799,-1.4129,0.0224061,0.0101426,1203,372,8.52409,65.444
-14,652,8.46191,-65.7602,-0.0077216,0.0286582,-0.00605831,0.0296406,-0.00870396,-1.41004,0.0232122,0.0126177,1210,372,8.46189,65.7602
-7,652,8.38708,-66.0363,-0.00692254,0.0294107,-0.00715842,0.0307702,-0.00828203,-1.38312,0.0237602,0.0151767,1217,372,8.38709,66.0363
0,652,8.33228,-66.2654,-0.00578499,0.0291778,-0.00796809,0.0309081,-0.0075153,-1.35696,0.0235143,0.0146768,1224,372,8.33225,66.2654
7,652,8.28601,-66.4156,-0.00453621,0.028699,-0.00827342,0.0306447,-0.00648186,-1.33983,0.0228983,0.0148163,1231,372,8.28598,66.4156
14,652,8.23352,-66.6124,-0.00360933,0.0278925,-0.00839409,0.0299897,-0.00570644,-1.32598,0.0221417,0.0119209,1238,372,8.23354,66.6124
21,652,8.15125,-66.8116,-0.00298501,0.0284105,-0.00790429,0.0302882,-0.00486273,-1.33756,0.021993,0.0112237,1245,372,8.15126,66.8115
28,652,8.1095,-66.9946,-0.00239721,0.0289199,-0.00725897,0.0305207,-0.00399794,-1.35375,0.0218023,0.0105548,1252,372,8.10953,66.9946
35,652,8.07019,-67.1134,-0.00182745,0.0293705,-0.00656032,0.0306938,-0.00315083,-1.37174,0.0215896,0.0117433,1259,372,8.07017,67.1134
42,652,8.0072,-67.1896,-0.00195012,0.0299064,-0.00538212,0.0307911,-0.00283485,-1.40787,0.0215347,0.0130016,1266,372,8.00716,67.1896
49,652,8.00305,-67.2547,-0.00323269,0.0309278,-0.00375978,0.0313367,-0.00364161,-1.46246,0.0222048,0.015605,1273,372,8.00307,67.2547
56,652,7.95276,-67.2749,-0.00502737,0.0322792,-0.00153906,0.0323426,-0.00509076,-1.52964,0.0234436,0.0172941,1280,372,7.95278,67.2749
63,652,7.87537,-67.3302,-0.00725516,0.0339013,0.000954894,0.0339234,-0.0072773,1.54761,0.0253914,0.0206337,1287,372,7.87542,67.3302
70,652,7.79089,-67.2979,-0.00980009,0.0352668,0.00334037,0.0355131,-0.0100463,1.49721,0.0276396,0.01844,1294,372,7.79088,67.2979
77,652,7.70081,-67.2794,-0.0126714,0.036572,0.0057067,0.0372247,-0.013324,1.45692,0.0302522,0.0167505,1301,372,7.70076,67.2795
84,652,7.72131,-67.2378,-0.0153763,0.037435,0.00865189,0.0388163,-0.0167575,1.41248,0.0329173,0.0151928,1308,372,7.72126,67.2378
91,652,7.67126,-67.2068,-0.0178512,0.0378999,0.0112155,0.0400715,-0.0200229,1.37953,0.0353333,0.0190241,1315,372,7.67127,67.2068
98,652,7.63196,-67.0637,-0.0200664,0.0379524,0.0139905,0.0411499,-0.0232639,1.34611,0.0376642,0.015188,1322,372,7.63192,67.0637
105,652,7.56372,-66.869,-0.0215783,0.0381556,0.016315,0.0423212,-0.0257439,1.32082,0.039684,0.0123527,1329,372,7.56372,66.869
112,652,7.49902,-66.6767,-0.0223357,0.0377305,0.0179258,0.0426734,-0.0272786,1.30174,0.0407115,0.0107074,1336,372,7.49903,66.6767
119,652,7.4364,-66.4749,-0.0218023,0.0367011,0.0191139,0.0423923,-0.0274935,1.2814,0.0406531,0.011521,1343,372,7.43638,66.4749
126,652,7.35938,-66.2137,-0.0206812,0.0346044,0.0198217,0.0409766,-0.0270535,1.25975,0.0395504,0.0137043,1350,372,7.35942,66.2137
133,652,7.28516,-65.951,-0.0192156,0.0331387,0.0204221,0.0401625,-0.0262394,1.23954,0.038617,0.0135435,1357,372,7.28514,65.951
140,652,7.23682,-65.7042,-0.0174575,0.0323271,0.0206543,0.0397802,-0.0249106,1.22449,0.0376767,0.00998804,1364,372,7.23686,65.7042
147,652,7.1897,-65.4102,-0.0151896,0.0319287,0.0201319,0.0393586,-0.0226196,1.21724,0.0362156,0.00964179,1371,372,7.18974,65.4102
154,652,7.12048,-65.0609,-0.0124871,0.0311304,0.0192115,0.0383854,-0.0197421,1.20971,0.0341305,0.0105489,1378,372,7.12046,65.0609
161,652,7.04773,-64.6877,-0.0103736,0.030351,0.0177546,0.0370044,-0.017027,1.21225,0.0318979,0.0123995,1385,372,7.04774,64.6877
168,652,6.98022,-64.2906,-0.00903577,0.0292461,0.0159894,0.0350458,-0.0148355,1.22283,0.0295764,0.0133199,1392,372,6.98023,64.2907
175,652,6.92004,-63.8716,-0.00831385,0.0283619,0.014744,0.0335541,-0.013506,1.2322,0.0279799,0.0132303,1399,372,6.92009,63.8716
182,652,6.8407,-63.4836,-0.00773938,0.0276356,0.0135568,0.0322334,-0.0123372,1.24382,0.0265738,0.0192166,1406,372,6.84076,63.4836
189,652,6.80627,-63.0052,-0.00694143,0.0248869,0.0104996,0.0280385,-0.010093,1.27919,0.0228134,0.0320376,1413,372,6.80625,63.0052
196,652,6.70081,-62.5601,0,0,0,0,0,0,0,-1,1420,372,6.70085,62.56
203,652,6.63196,-62.0042,0,0,0,0,0,0,0,-1,1427,372,6.63199,62.0042
210,652,6.65247,-61.3364,0,0,0,0,0,0,0,-1,1434,372,6.65246,61.3364
217,652,6.51001,-59.8002,0,0,0,0,0,0,0,-1,1441,372,6.51005,59.8002
224,652,3.63794,-31.2791,0,0,0,0,0,0,0,-1,1448,372,3.63799,31.2791
231,652,3.83936,-30.4812,0,0,0,0,0,0,0,-1,1455,372,3.8393,30.4812
238,652,4.42358,-36.4103,0,0,0,0,0,0,0,-1,1462,372,4.4236,36.4103
245,652,4.53296,-41.8512,0,0,0,0,0,0,0,-1,1469,372,4.5329,41.8512
252,652,5.00793,-47.7065,0,0,0,0,0,0,0,-1,1476,372,5.00791,47.7064
259,652,3.44922,-31.2655,0,0,0,0,0,0,0,-1,1483,372,3.44921,31.2655
266,652,5.5387,-50.3915,0,0,0,0,0,0,0,-1,1490,372,5.53875,50.3915
273,652,5.49658,-55.8166,0,0,0,0,0,0,0,-1,1497,372,5.49655,55.8166
280,652,4.05066,-24.6993,0,0,0,0,0,0,0,-1,1504,372,4.05066,24.6993
287,652,3.0979,-23.6951,0,0,0,0,0,0,0,-1,1511,372,3.09796,23.6951
294,652,2.06946,-24.1711,0,0,0,0,0,0,0,-1,1518,372,2.0694,24.1711
301,652,0.770264,-23.0697,0,0,0,0,0,0,0,-1,1525,372,0.770217,23.0697
308,652,-0.706299,-22.1083,0,0,0,0,0,0,0,-1,1532,372,-0.706291,22.1083
315,652,-1.65198,-21.8662,0,0,0,0,0,0,0,-1,1539,372,-1.65204,21.8662
322,652,-2.66101,-21.728,0,0,0,0,0,0,0,-1,1546,372,-2.66097,21.728
329,652,-7.12329,-21.7065,0,0,0,0,0,0,0,-1,1553,372,-7.12334,21.7065
336,652,-3.56519,-22.3688,0,0,0,0,0,0,0,-1,1560,372,-3.56517,22.3688
343,652,-3.58069,-21.9185,0,0,0,0,0,0,0,-1,1567,372,-3.58069,21.9185
350,652,5.28394,-25.6715,0,0,0,0,0,0,0,-1,1574,372,5.28393,25.6715
357,652,0,0,0,0,0,0,0,0,0,-1,1581,372,0,0
364,652,0,0,0,0,0,0,0,0,0,-1,1588,372,0,0
371,652,0,0,0,0,0,0,0,0,0,-1,1595,372,0,0
378,652,0,0,0,0,0,0,0,0,0,-1,1602,372,0,0
385,652,0,0,0,0,0,0,0,0,0,-1,1609,372,0,0
392,652,0,0,0,0,0,0,0,0,0,-1,1616,372,0,0
399,652,0,0,0,0,0,0,0,0,0,-1,1623,372,0,0
406,652,0,0,0,0,0,0,0,0,0,-1,1630,372,0,0
413,652,0,0,0,0,0,0,0,0,0,-1,1637,372,0,0
420,652,0,0,0,0,0,0,0,0,0,-1,1644,372,0,0
427,652,0,0,0,0,0,0,0,0,0,-1,1651,372,0,0
434,652,0,0,0,0,0,0,0,0,0,-1,1658,372,0,0
441,652,0,0,0,0,0,0,0,0,0,-1,1665,372,0,0
448,652,0,0,0,0,0,0,0,0,0,-1,1672,372,0,0
455,652,0,0,0,0,0,0,0,0,0,-1,1679,372,0,0
462,652,0,0,0,0,0,0,0,0,0,-1,1686,372,0,0
469,652,0,0,0,0,0,0,0,0,0,-1,1693,372,0,0
476,652,0,0,0,0,0,0,0,0,0,-1,1700,372,0,0
483,652,0,0,0,0,0,0,0,0,0,-1,1707,372,0,0
490,652,0,0,0,0,0,0,0,0,0,-1,1714,372,0,0
497,652,0,0,0,0,0,0,0,0,0,-1,1721,372,0,0
504,652,0,0,0,0,0,0,0,0,0,-1,1728,372,0,0
511,652,0,0,0,0,0,0,0,0,0,-1,1735,372,0,0
518,652,0,0,0,0,0,0,0,0,0,-1,1742,372,0,0
525,652,0,0,0,0,0,0,0,0,0,-1,1749,372,0,0
532,652,0,0,0,0,0,0,0,0,0,-1,1756,372,0,0
539,652,0,0,0,0,0,0,0,0,0,-1,1763,372,0,0
546,652,0,0,0,0,0,0,0,0,0,-1,1770,372,0,0
553,652,0,0,0,0,0,0,0,0,0,-1,1777,372,0,0
560,652,0,0,0,0,0,0,0,0,0,-1,1784,372,0,0
567,652,0,0,0,0,0,0,0,0,0,-1,1791,372,0,0
574,652,0,0,0,0,0,0,0,0,0,-1,1798,372,0,0
581,652,0,0,0,0,0,0,0,0,0,-1,1805,372,0,0
588,652,0,0,0,0,0,0,0,0,0,-1,1812,372,0,0
595,652,0,0,0,0,0,0,0,0,0,-1,1819,372,0,0
602,652,0,0,0,0,0,0,0,0,0,-1,1826,372,0,0
609,652,0,0,0,0,0,0,0,0,0,-1,1833,372,0,0
616,652,0,0,0,0,0,0,0,0,0,-1,1840,372,0,0
623,652,0,0,0,0,0,0,0,0,0,-1,1847,372,0,0
630,652,0,0,0,0,0,0,0,0,0,-1,1854,372,0,0
637,652,0,0,0,0,0,0,0,0,0,-1,1861,372,0,0
644,652,0,0,0,0,0,0,0,0,0,-1,1868,372,0,0
651,652,0,0,0,0,0,0,0,0,0,-1,1875,372,0,0
658,652,0,0,0,0,0,0,0,0,0,-1,1882,372,0,0
665,652,0,0,0,0,0,0,0,0,0,-1,1889,372,0,0
672,652,0,0,0,0,0,0,0,0,0,-1,1896,372,0,0
679,652,0,0,0,0,0,0,0,0,0,-1,1903,372,0,0
686,652,0,0,0,0,0,0,0,0,0,-1,1910,372,0,0
693,652,0,0,0,0,0,0,0,0,0,-1,1917,372,0,0
700,652,0,0,0,0,0,0,0,0,0,-1,1924,372,0,0
707,652,0,0,0,0,0,0,0,0,0,-1,1931,372,0,0
714,652,0,0,0,0,0,0,0,0,0,-1,1938,372,0,0
721,652,0,0,0,0,0,0,0,0,0,-1,1945,372,0,0
728,652,0,0,0,0,0,0,0,0,0,-1,1952,372,0,0
735,652,0,0,0,0,0,0,0,0,0,-1,1959,372,0,0
742,652,0,0,0,0,0,0,0,0,0,-1,1966,372,0,0
749,652,0,0,0,0,0,0,0,0,0,-1,1973,372,0,0
756,652,0,0,0,0,0,0,0,0,0,-1,1980,372,0,0
763,652,0,0,0,0,0,0,0,0,0,-1,1987,372,0,0
770,652,0,0,0,0,0,0,0,0,0,-1,1994,372,0,0
777,652,0,0,0,0,0,0,0,0,0,-1,2001,372,0,0
784,652,0,0,0,0,0,0,0,0,0,-1,2008,372,0,0
791,652,0,0,0,0,0,0,0,0,0,-1,2015,372,0,0
798,652,0,0,0,0,0,0,0,0,0,-1,2022,372,0,0
805,652,0,0,0,0,0,0,0,0,0,-1,2029,372,0,0
812,652,0,0,0,0,0,0,0,0,0,-1,2036,372,0,0
-700,645,0,0,0,0,0,0,0,0,0,-1,524,379,0,0
-693,645,0,0,0,0,0,0,0,0,0,-1,531,379,0,0
-686,645,0,0,0,0,0,0,0,0,0,-1,538,379,0,0
-679,645,0,0,0,0,0,0,0,0,0,-1,545,379,0,0
-672,645,0,0,0,0,0,0,0,0,0,-1,552,379,0,0
-665,645,0,0,0,0,0,0,0,0,0,-1,559,379,0,0
-658,645,0,0,0,0,0,0,0,0,0,-1,566,379,0,0
-651,645,0,0,0,0,0,0,0,0,0,-1,573,379,0,0
-644,645,0,0,0,0,0,0,0,0,0,-1,580,379,0,0
-637,645,0,0,0,0,0,0,0,0,0,-1,587,379,0,0
-630,645,0,0,0,0,0,0,0,0,0,-1,594,379,0,0
-623,645,0,0,0,0,0,0,0,0,0,-1,601,379,0,0
-616,645,0,0,0,0,0,0,0,0,0,-1,608,379,0,0
-609,645,0,0,0,0,0,0,0,0,0,-1,615,379,0,0
-602,645,0,0,0,0,0,0,0,0,0,-1,622,379,0,0
-595,645,0,0,0,0,0,0,0,0,0,-1,629,379,0,0
-588,645,0,0,0,0,0,0,0,0,0,-1,636,379,0,0
-581,645,0,0,0,0,0,0,0,0,0,-1,643,379,0,0
-574,645,0,0,0,0,0,0,0,0,0,-1,650,379,0,0
-567,645,0,0,0,0,0,0,0,0,0,-1,657,379,0,0
-560,645,0,0,0,0,0,0,0,0,0,-1,664,379,0,0
-553,645,0,0,0,0,0,0,0,0,0,-1,671,379,0,0
-546,645,0,0,0,0,0,0,0,0,0,-1,678,379,0,0
-539,645,0,0,0,0,0,0,0,0,0,-1,685,379,0,0
-532,645,0,0,0,0,0,0,0,0,0,-1,692,379,0,0
-525,645,0,0,0,0,0,0,0,0,0,-1,699,379,0,0
-518,645,0,0,0,0,0,0,0,0,0,-1,706,379,0,0
-511,645,0,0,0,0,0,0,0,0,0,-1,713,379,0,0
-504,645,0,0,0,0,0,0,0,0,0,-1,720,379,0,0
-497,645,0,0,0,0,0,0,0,0,0,-1,727,379,0,0
-490,645,0,0,0,0,0,0,0,0,0,-1,734,379,0,0
-483,645,0,0,0,0,0,0,0,0,0,-1,741,379,0,0
-476,645,0,0,0,0,0,0,0,0,0,-1,748,379,0,0
-469,645,0,0,0,0,0,0,0,0,0,-1,755,379,0,0
-462,645,0,0,0,0,0,0,0,0,0,-1,762,379,0,0
-455,645,0,0,0,0,0,0,0,0,0,-1,769,379,0,0
-448,645,0,0,0,0,0,0,0,0,0,-1,776,379,0,0
-441,645,0,0,0,0,0,0,0,0,0,-1,783,379,0,0
-434,645,0,0,0,0,0,0,0,0,0,-1,790,379,0,0
-427,645,0,0,0,0,0,0,0,0,0,-1,797,379,0,0
-420,645,0,0,0,0,0,0,0,0,0,-1,804,379,0,0
-413,645,0,0,0,0,0,0,0,0,0,-1,811,379,0,0
-406,645,0,0,0,0,0,0,0,0,0,-1,818,379,0,0
-399,645,0,0,0,0,0,0,0,0,0,-1,825,379,0,0
-392,645,0,0,0,0,0,0,0,0,0,-1,832,379,0,0
-385,645,0,0,0,0,0,0,0,0,0,-1,839,379,0,0
-378,645,0,0,0,0,0,0,0,0,0,-1,846,379,0,0
-371,645,0,0,0,0,0,0,0,0,0,-1,853,379,0,0
-364,645,0,0,0,0,0,0,0,0,0,-1,860,379,0,0
-357,645,0,0,0,0,0,0,0,0,0,-1,867,379,0,0
-350,645,0,0,0,0,0,0,0,0,0,-1,874,379,0,0
-343,645,0,0,0,0,0,0,0,0,0,-1,881,379,0,0
-336,645,0,0,0,0,0,0,0,0,0,-1,888,379,0,0
-329,645,0,0,0,0,0,0,0,0,0,-1,895,379,0,0
-322,645,0,0,0,0,0,0,0,0,0,-1,902,379,0,0
-315,645,0,0,0,0,0,0,0,0,0,-1,909,379,0,0
-308,645,0,0,0,0,0,0,0,0,0,-1,916,379,0,0
-301,645,0,0,0,0,0,0,0,0,0,-1,923,379,0,0
-294,645,0,0,0,0,0,0,0,0,0,-1,930,379,0,0
-287,645,0,0,0,0,0,0,0,0,0,-1,937,379,0,0
-280,645,0,0,0,0,0,0,0,0,0,-1,944,379,0,0
-273,645,0,0,0,0,0,0,0,0,0,-1,951,379,0,0
-266,645,0,0,0,0,0,0,0,0,0,-1,958,379,0,0
-259,645,0,0,0,0,0,0,0,0,0,-1,965,379,0,0
-252,645,2.95691,-26.9133,0,0,0,0,0,0,0,-1,972,379,2.9569,26.9133
-245,645,2.73169,-27.0215,0,0,0,0,0,0,0,-1,979,379,2.73172,27.0215
-238,645,2.6665,-26.9464,0,0,0,0,0,0,0,-1,986,379,2.66649,26.9464
-231,645,7.26807,-29.1054,0,0,0,0,0,0,0,-1,993,379,7.26806,29.1054
-224,645,7.69073,-29.5737,0,0,0,0,0,0,0,-1,1000,379,7.69071,29.5737
-217,645,8.65485,-33.4136,0,0,0,0,0,0,0,-1,1007,379,8.65487,33.4136
-210,645,9.21594,-32.5157,0,0,0,0,0,0,0,-1,1014,379,9.21591,32.5156
-203,645,9.77698,-31.6176,0,0,0,0,0,0,0,-1,1021,379,9.77696,31.6177
-196,645,10.2664,-29.7741,0,0,0,0,0,0,0,-1,1028,379,10.2664,29.7741
-189,645,5.88062,-28.2191,0,0,0,0,0,0,0,-1,1035,379,5.88062,28.2191
-182,645,6.34167,-29.2525,0,0,0,0,0,0,0,-1,1042,379,6.3417,29.2525
-175,645,6.36462,-35.5586,0,0,0,0,0,0,0,-1,1049,379,6.3646,35.5586
-168,645,7.19116,-39.5785,0,0,0,0,0,0,0,-1,1056,379,7.19115,39.5785
-161,645,7.22083,-37.6093,0,0,0,0,0,0,0,-1,1063,379,7.22085,37.6094
-154,645,7.42102,-41.6806,0,0,0,0,0,0,0,-1,1070,379,7.42105,41.6806
-147,645,8.89526,-50.6488,0,0,0,0,0,0,0,-1,1077,379,8.89521,50.6488
-140,645,9.23975,-56.4255,0,0,0,0,0,0,0,-1,1084,379,9.23971,56.4255
-133,645,9.32861,-57.3441,0,0,0,0,0,0,0,-1,1091,379,9.32855,57.3442
-126,645,9.32068,-57.931,0,0,0,0,0,0,0,-1,1098,379,9.32064,57.931
-119,645,9.12488,-58.528,0,0,0,0,0,0,0,-1,1105,379,9.12488,58.5281
-112,645,9.04688,-59.3376,0,0,0,0,0,0,0,-1,1112,379,9.0469,59.3376
-105,645,8.95557,-60.0635,0,0,0,0,0,0,0,-1,1119,379,8.95561,60.0635
-98,645,8.83728,-60.644,0,0,0,0,0,0,0,-1,1126,379,8.8373,60.644
-91,645,8.72021,-61.2176,0,0,0,0,0,0,0,-1,1133,379,8.72018,61.2176
-84,645,8.67688,-61.7441,0,0,0,0,0,0,0,-1,1140,379,8.67685,61.7441
-77,645,8.73413,-62.2526,-0.00812335,0.0053838,-0.00189638,0.005645,-0.00838455,-1.43392,0.00815128,0.0442811,1147,379,8.73415,62.2526
-70,645,8.63123,-62.7109,-0.00800902,0.00599167,-0.0017169,0.00619914,-0.00821649,-1.45054,0.00834999,0.0161475,1154,379,8.63119,62.7109
-63,645,8.56335,-63.1523,-0.00787775,0.00737143,-0.00160243,0.007538,-0.00804432,-1.46722,0.00899804,0.0123152,1161,379,8.56337,63.1523
-56,645,8.48889,-63.5706,-0.00750618,0.00947156,-0.0017701,0.00965415,-0.00768877,-1.46801,0.0100343,0.0142664,1168,379,8.48891,63.5706
-49,645,8.44836,-64.0021,-0.00695133,0.0116008,-0.00231605,0.0118856,-0.00723609,-1.44846,0.0111482,0.0117744,1175,379,8.44835,64.0021
-42,645,8.37854,-64.3816,-0.00639761,0.0131373,-0.00261312,0.0134808,-0.00674112,-1.44009,0.0118893,0.0114796,1182,379,8.37856,64.3816
-35,645,8.32239,-64.7754,-0.00599671,0.0147641,-0.00283251,0.0151436,-0.00637623,-1.4376,0.0127635,0.0116876,1189,379,8.32238,64.7754
-28,645,8.2605,-65.1595,-0.00561078,0.0158364,-0.00299568,0.016247,-0.00602134,-1.43459,0.0133008,0.00982206,1196,379,8.26055,65.1595
-21,645,8.20227,-65.4886,-0.00514131,0.0167381,-0.00313482,0.0171784,-0.0055816,-1.43126,0.0136973,0.0114974,1203,379,8.20232,65.4885
-14,645,8.17578,-65.8154,-0.0047507,0.0174145,-0.00322724,0.0178748,-0.00521103,-1.42911,0.0139811,0.0115823,1210,379,8.1758,65.8154
-7,645,8.17163,-66.1089,-0.00423177,0.0178104,-0.00378607,0.0184426,-0.00486395,-1.40535,0.0141969,0.0158096,1217,379,8.17161,66.1089
0,645,8.15283,-66.2974,-0.00354884,0.0175371,-0.00417242,0.0183327,-0.00434445,-1.38238,0.0138981,0.0293931,1224,379,8.15289,66.2974
7,645,8.06909,-66.4812,-0.00272416,0.0171434,-0.00427968,0.0180261,-0.00360683,-1.3674,0.0133827,0.0187397,1231,379,8.06908,66.4812
14,645,8.02844,-66.6645,-0.00218389,0.0166421,-0.00424182,0.0175537,-0.0030955,-1.35911,0.0128591,0.016754,1238,379,8.02845,66.6645
21,645,7.96045,-66.8735,-0.00185948,0.0171305,-0.00382984,0.0178738,-0.00260278,-1.3791,0.0128715,0.0115262,1245,379,7.96047,66.8735
28,645,7.96033,-67.0515,-0.00153196,0.0175587,-0.00336402,0.0181341,-0.0021074,-1.40138,0.0128496,0.00983279,1252,379,7.96032,67.0515
35,645,7.9491,-67.1758,-0.00124594,0.0178744,-0.00287422,0.0182971,-0.00166866,-1.42477,0.0127906,0.00978551,1259,379,7.94913,67.1758
42,645,7.92395,-67.2745,-0.00140563,0.0183446,-0.00212994,0.0185717,-0.00163272,-1.46458,0.0129597,0.0103472,1266,379,7.92394,67.2746
49,645,7.95007,-67.3388,-0.00225382,0.0191862,-0.00114264,0.019247,-0.00231454,-1.5177,0.0136683,0.013676,1273,379,7.95013,67.3388
56,645,7.93335,-67.3497,-0.0033428,0.0202547,0.000195952,0.0202563,-0.00334442,1.56249,0.014746,0.0136572,1280,379,7.93334,67.3497
63,645,7.86951,-67.3817,-0.00465501,0.0214609,0.00164289,0.0215638,-0.00475795,1.50822,0.0161965,0.0135816,1287,379,7.86949,67.3817
70,645,7.8125,-67.364,-0.00601111,0.0224278,0.00291238,0.022723,-0.0063063,1.46978,0.0176308,0.0177114,1294,379,7.81248,67.364
77,645,7.78516,-67.3334,-0.0074909,0.0233932,0.00417518,0.0239477,-0.00804538,1.43876,0.0192167,0.0197726,1301,379,7.7852,67.3334
84,645,7.82471,-67.2661,-0.00895482,0.0243012,0.00580691,0.025286,-0.00993961,1.4028,0.020971,0.0149927,1308,379,7.82469,67.2661
91,645,7.75562,-67.2046,-0.0103107,0.0245628,0.0072614,0.0260144,-0.0117623,1.3735,0.0223218,0.0178144,1315,379,7.75567,67.2046
98,645,7.71973,-67.0663,-0.0113796,0.024641,0.0088655,0.0267047,-0.0134434,1.34208,0.0235972,0.0153045,1322,379,7.71973,67.0663
105,645,7.68762,-66.8907,-0.0120024,0.024965,0.0102473,0.0276154,-0.0146529,1.31769,0.0247832,0.0110077,1329,379,7.6876,66.8907
112,645,7.65125,-66.7304,-0.0123814,0.0249154,0.0112746,0.0280587,-0.0155247,1.2989,0.0255074,0.00965749,1336,379,7.65125,66.7304
119,645,7.63416,-66.5252,-0.0119569,0.0244178,0.0120252,0.0280338,-0.0155728,1.2787,0.0255166,0.00973822,1343,379,7.63419,66.5252
126,645,7.5791,-66.2758,-0.0111848,0.0231849,0.0124623,0.027228,-0.0152279,1.25708,0.0248362,0.012576,1350,379,7.57906,66.2758
133,645,7.55554,-66.025,-0.0102511,0.0224778,0.0128193,0.0269011,-0.0146743,1.23854,0.0243471,0.01286,1357,379,7.55553,66.025
140,645,7.54285,-65.7567,-0.00914382,0.0222504,0.0129317,0.0268912,-0.0137846,1.22625,0.0238871,0.0124964,1364,379,7.54288,65.7567
147,645,7.4729,-65.4498,-0.00776737,0.022128,0.0125951,0.0267269,-0.0123663,1.2207,0.0230725,0.0142532,1371,379,7.47292,65.4498
154,645,7.43823,-65.1067,-0.00620746,0.0216777,0.0120137,0.0261396,-0.0106693,1.21519,0.0218683,0.0132386,1378,379,7.43822,65.1067
161,645,7.38318,-64.743,-0.00513327,0.021248,0.0111374,0.025321,-0.00920629,1.2202,0.0206454,0.0156797,1385,379,7.38324,64.743
168,645,7.34424,-64.3595,-0.00455842,0.0206381,0.0101044,0.0241896,-0.00810993,1.2328,0.0194031,0.0186538,1392,379,7.34419,64.3595
175,645,7.35034,-63.9553,-0.00459123,0.020199,0.00949557,0.0234182,-0.00781036,1.24394,0.0187654,0.0160137,1399,379,7.35034,63.9552
182,645,7.26868,-63.5356,-0.00475014,0.0197896,0.0089371,0.0226994,-0.00765991,1.25604,0.0182308,0.0116232,1406,379,7.26866,63.5356
189,645,7.19739,-63.0476,-0.00479708,0.0180029,0.00732349,0.0201526,-0.00694675,1.28529,0.0162533,0.012642,1413,379,7.19736,63.0476
196,645,7.11218,-62.6045,-0.00467726,0.0167439,0.00631111,0.018465,-0.00639836,1.30456,0.0149078,0.0126507,1420,379,7.11219,62.6045
203,645,7.01868,-62.0852,-0.00535034,0.0160227,0.0063903,0.0177876,-0.00711523,1.30133,0.0148112,0.0131506,1427,379,7.0187,62.0852
210,645,7.0105,-61.432,-0.00590968,0.0144853,0.00619773,0.016221,-0.00764536,1.29774,0.0140727,0.0238674,1434,379,7.01046,61.432
217,645,6.91296,-61.0419,0,0,0,0,0,0,0,-1,1441,379,6.91302,61.0419
224,645,6.87024,-60.4425,0,0,0,0,0,0,0,-1,1448,379,6.87028,60.4425
231,645,6.74744,-59.8195,0,0,0,0,0,0,0,-1,1455,379,6.74741,59.8195
238,645,6.62244,-59.2047,0,0,0,0,0,0,0,-1,1462,379,6.62246,59.2047
245,645,6.63159,-58.3806,0,0,0,0,0,0,0,-1,1469,379,6.63157,58.3806
252,645,6.27942,-52.6305,0,0,0,0,0,0,0,-1,1476,379,6.27947,52.6305
259,645,6.5321,-54.0518,0,0,0,0,0,0,0,-1,1483,379,6.53211,54.0518
266,645,6.28882,-56.6808,0,0,0,0,0,0,0,-1,1490,379,6.28886,56.6808
273,645,6.20752,-55.9937,0,0,0,0,0,0,0,-1,1497,379,6.20748,55.9937
280,645,6.39526,-55.2805,0,0,0,0,0,0,0,-1,1504,379,6.39532,55.2805
287,645,6.45398,-54.135,0,0,0,0,0,0,0,-1,1511,379,6.45402,54.135
294,645,3.76428,-22.9539,0,0,0,0,0,0,0,-1,1518,379,3.7643,22.9539
301,645,2.74219,-23.503,0,0,0,0,0,0,0,-1,1525,379,2.74222,23.503
308,645,1.82227,-23.9479,0,0,0,0,0,0,0,-1,1532,379,1.82227,23.9479
315,645,0.990356,-24.8735,0,0,0,0,0,0,0,-1,1539,379,0.990376,24.8735
322,645,-0.256714,-24.7577,0,0,0,0,0,0,0,-1,1546,379,-0.256653,24.7577
329,645,-4.45581,-22.707,0,0,0,0,0,0,0,-1,1553,379,-4.45579,22.707
336,645,-5.83154,-22.8404,0,0,0,0,0,0,0,-1,1560,379,-5.83149,22.8404
343,645,4.03186,-38.0623,0,0,0,0,0,0,0,-1,1567,379,4.03187,38.0623
350,645,4.76404,-22.1987,0,0,0,0,0,0,0,-1,1574,379,4.76399,22.1987
357,645,4.61316,-21.967,0,0,0,0,0,0,0,-1,1581,379,4.61316,21.967
364,645,-0.0794678,-3.22021,0,0,0,0,0,0,0,-1,1588,379,-0.0794987,3.22021
371,645,0,0,0,0,0,0,0,0,0,-1,1595,379,0,0
378,645,0,0,0,0,0,0,0,0,0,-1,1602,379,0,0
385,645,0,0,0,0,0,0,0,0,0,-1,1609,379,0,0
392,645,0,0,0,0,0,0,0,0,0,-1,1616,379,0,0
399,645,0,0,0,0,0,0,0,0,0,-1,1623,379,0,0
406,645,0,0,0,0,0,0,0,0,0,-1,1630,379,0,0
413,645,0,0,0,0,0,0,0,0,0,-1,1637,379,0,0
420,645,0,0,0,0,0,0,0,0,0,-1,1644,379,0,0
427,645,0,0,0,0,0,0,0,0,0,-1,1651,379,0,0
434,645,0,0,0,0,0,0,0,0,0,-1,1658,379,0,0
441,645,0,0,0,0,0,0,0,0,0,-1,1665,379,0,0
448,645,0,0,0,0,0,0,0,0,0,-1,1672,379,0,0
455,645,0,0,0,0,0,0,0,0,0,-1,1679,379,0,0
462,645,0,0,0,0,0,0,0,0,0,-1,1686,379,0,0
469,645,0,0,0,0,0,0,0,0,0,-1,1693,379,0,0
476,645,0,0,0,0,0,0,0,0,0,-1,1700,379,0,0
483,645,0,0,0,0,0,0,0,0,0,-1,1707,379,0,0
490,645,0,0,0,0,0,0,0,0,0,-1,1714,379,0,0
497,645,0,0,0,0,0,0,0,0,0,-1,1721,379,0,0
504,645,0,0,0,0,0,0,0,0,0,-1,1728,379,0,0
511,645,0,0,0,0,0,0,0,0,0,-1,1735,379,0,0
518,645,0,0,0,0,0,0,0,0,0,-1,1742,379,0,0
525,645,0,0,0,0,0,0,0,0,0,-1,1749,379,0,0
532,645,0,0,0,0,0,0,0,0,0,-1,1756,379,0,0
539,645,0,0,0,0,0,0,0,0,0,-1,1763,379,0,0
546,645,0,0,0,0,0,0,0,0,0,-1,1770,379,0,0
553,645,0,0,0,0,0,0,0,0,0,-1,1777,379,0,0
560,645,0,0,0,0,0,0,0,0,0,-1,1784,379,0,0
567,645,0,0,0,0,0,0,0,0,0,-1,1791,379,0,0
574,645,0,0,0,0,0,0,0,0,0,-1,1798,379,0,0
581,645,0,0,0,0,0,0,0,0,0,-1,1805,379,0,0
588,645,0,0,0,0,0,0,0,0,0,-1,1812,379,0,0
595,645,0,0,0,0,0,0,0,0,0,-1,1819,379,0,0
602,645,0,0,0,0,0,0,0,0,0,-1,1826,379,0,0
609,645,0,0,0,0,0,0,0,0,0,-1,1833,379,0,0
616,645,0,0,0,0,0,0,0,0,0,-1,1840,379,0,0
623,645,0,0,0,0,0,0,0,0,0,-1,1847,379,0,0
630,645,0,0,0,0,0,0,0,0,0,-1,1854,379,0,0
637,645,0,0,0,0,0,0,0,0,0,-1,1861,379,0,0
644,645,0,0,0,0,0,0,0,0,0,-1,1868,379,0,0
651,645,0,0,0,0,0,0,0,0,0,-1,1875,379,0,0
658,645,0,0,0,0,0,0,0,0,0,-1,1882,379,0,0
665,645,0,0,0,0,0,0,0,0,0,-1,1889,379,0,0
672,645,0,0,0,0,0,0,0,0,0,-1,1896,379,0,0
679,645,0,0,0,0,0,0,0,0,0,-1,1903,379,0,0
686,645,0,0,0,0,0,0,0,0,0,-1,1910,379,0,0
693,645,0,0,0,0,0,0,0,0,0,-1,1917,379,0,0
700,645,0,0,0,0,0,0,0,0,0,-1,1924,379,0,0
707,645,0,0,0,0,0,0,0,0,0,-1,1931,379,0,0
714,645,0,0,0,0,0,0,0,0,0,-1,1938,379,0,0
721,645,0,0,0,0,0,0,0,0,0,-1,1945,379,0,0
728,645,0,0,0,0,0,0,0,0,0,-1,1952,379,0,0
735,645,0,0,0,0,0,0,0,0,0,-1,1959,379,0,0
742,645,0,0,0,0,0,0,0,0,0,-1,1966,379,0,0
749,645,0,0,0,0,0,0,0,0,0,-1,1973,379,0,0
756,645,0,0,0,0,0,0,0,0,0,-1,1980,379,0,0
763,645,0,0,0,0,0,0,0,0,0,-1,1987,379,0,0
770,645,0,0,0,0,0,0,0,0,0,-1,1994,379,0,0
777,645,0,0,0,0,0,0,0,0,0,-1,2001,379,0,0
784,645,0,0,0,0,0,0,0,0,0,-1,2008,379,0,0
791,645,0,0,0,0,0,0,0,0,0,-1,2015,379,0,0
798,645,0,0,0,0,0,0,0,0,0,-1,2022,379,0,0
805,645,0,0,0,0,0,0,0,0,0,-1,2029,379,0,0
812,645,0,0,0,0,0,0,0,0,0,-1,2036,379,0,0
-700,638,0,0,0,0,0,0,0,0,0,-1,524,386,0,0
-693,638,0,0,0,0,0,0,0,0,0,-1,531,386,0,0
-686,638,0,0,0,0,0,0,0,0,0,-1,538,386,0,0
-679,638,0,0,0,0,0,0,0,0,0,-1,545,386,0,0
-672,638,0,0,0,0,0,0,0,0,0,-1,552,386,0,0
-665,638,0,0,0,0,0,0,0,0,0,-1,559,386,0,0
-658,638,0,0,0,0,0,0,0,0,0,-1,566,386,0,0
-651,638,0,0,0,0,0,0,0,0,0,-1,573,386,0,0
-644,638,0,0,0,0,0,0,0,0,0,-1,580,386,0,0
-637,638,0,0,0,0,0,0,0,0,0,-1,587,386,0,0
-630,638,0,0,0,0,0,0,0,0,0,-1,594,386,0,0
-623,638,0,0,0,0,0,0,0,0,0,-1,601,386,0,0
-616,638,0,0,0,0,0,0,0,0,0,-1,608,386,0,0
-609,638,0,0,0,0,0,0,0,0,0,-1,615,386,0,0
-602,638,0,0,0,0,0,0,0,0,0,-1,622,386,0,0
-595,638,0,0,0,0,0,0,0,0,0,-1,629,386,0,0
-588,638,0,0,0,0,0,0,0,0,0,-1,636,386,0,0
-581,638,0,0,0,0,0,0,0,0,0,-1,643,386,0,0
-574,638,0,0,0,0,0,0,0,0,0,-1,650,386,0,0
-567,638,0,0,0,0,0,0,0,0,0,-1,657,386,0,0
-560,638,0,0,0,0,0,0,0,0,0,-1,664,386,0,0
-553,638,0,0,0,0,0,0,0,0,0,-1,671,386,0,0
-546,638,0,0,0,0,0,0,0,0,0,-1,678,386,0,0
-539,638,0,0,0,0,0,0,0,0,0,-1,685,386,0,0
-532,638,0,0,0,0,0,0,0,0,0,-1,692,386,0,0
-525,638,0,0,0,0,0,0,0,0,0,-1,699,386,0,0
-518,638,0,0,0,0,0,0,0,0,0,-1,706,386,0,0
-511,638,0,0,0,0,0,0,0,0,0,-1,713,386,0,0
-504,638,0,0,0,0,0,0,0,0,0,-1,720,386,0,0
-497,638,0,0,0,0,0,0,0,0,0,-1,727,386,0,0
-490,638,0,0,0,0,0,0,0,0,0,-1,734,386,0,0
-483,638,0,0,0,0,0,0,0,0,0,-1,741,386,0,0
-476,638,0,0,0,0,0,0,0,0,0,-1,748,386,0,0
-469,638,0,0,0,0,0,0,0,0,0,-1,755,386,0,0
-462,638,0,0,0,0,0,0,0,0,0,-1,762,386,0,0
-455,638,0,0,0,0,0,0,0,0,0,-1,769,386,0,0
-448,638,0,0,0,0,0,0,0,0,0,-1,776,386,0,0
-441,638,0,0,0,0,0,0,0,0,0,-1,783,386,0,0
-434,638,0,0,0,0,0,0,0,0,0,-1,790,386,0,0
-427,638,0,0,0,0,0,0,0,0,0,-1,797,386,0,0
-420,638,0,0,0,0,0,0,0,0,0,-1,804,386,0,0
-413,638,0,0,0,0,0,0,0,0,0,-1,811,386,0,0
-406,638,0,0,0,0,0,0,0,0,0,-1,818,386,0,0
-399,638,0,0,0,0,0,0,0,0,0,-1,825,386,0,0
-392,638,0,0,0,0,0,0,0,0,0,-1,832,386,0,0
-385,638,0,0,0,0,0,0,0,0,0,-1,839,386,0,0
-378,638,0,0,0,0,0,0,0,0,0,-1,846,386,0,0
-371,638,0,0,0,0,0,0,0,0,0,-1,853,386,0,0
-364,638,0,0,0,0,0,0,0,0,0,-1,860,386,0,0
-357,638,0,0,0,0,0,0,0,0,0,-1,867,386,0,0
-350,638,0,0,0,0,0,0,0,0,0,-1,874,386,0,0
-343,638,0,0,0,0,0,0,0,0,0,-1,881,386,0,0
-336,638,0,0,0,0,0,0,0,0,0,-1,888,386,0,0
-329,638,0,0,0,0,0,0,0,0,0,-1,895,386,0,0
-322,638,0,0,0,0,0,0,0,0,0,-1,902,386,0,0
-315,638,0,0,0,0,0,0,0,0,0,-1,909,386,0,0
-308,638,0,0,0,0,0,0,0,0,0,-1,916,386,0,0
-301,638,0,0,0,0,0,0,0,0,0,-1,923,386,0,0
-294,638,0,0,0,0,0,0,0,0,0,-1,930,386,0,0
-287,638,0,0,0,0,0,0,0,0,0,-1,937,386,0,0
-280,638,0,0,0,0,0,0,0,0,0,-1,944,386,0,0
-273,638,0,0,0,0,0,0,0,0,0,-1,951,386,0,0
-266,638,10.1613,-36.3326,0,0,0,0,0,0,0,-1,958,386,10.1612,36.3326
-259,638,9.95282,-34.6103,0,0,0,0,0,0,0,-1,965,386,9.9528,34.6103
-252,638,9.95746,-33.6964,0,0,0,0,0,0,0,-1,972,386,9.95744,33.6965
-245,638,9.84143,-32.9009,0,0,0,0,0,0,0,-1,979,386,9.84145,32.9009
-238,638,2.93518,-26.3649,0,0,0,0,0,0,0,-1,986,386,2.93516,26.3649
-231,638,2.36829,-26.0088,0,0,0,0,0,0,0,-1,993,386,2.3683,26.0088
-224,638,6.3465,-30.9124,0,0,0,0,0,0,0,-1,1000,386,6.34648,30.9124
-217,638,7.41205,-32.7263,0,0,0,0,0,0,0,-1,1007,386,7.41204,32.7262
-210,638,8.7038,-34.5688,0,0,0,0,0,0,0,-1,1014,386,8.70378,34.5689
-203,638,4.32593,-27.5803,0,0,0,0,0,0,0,-1,1021,386,4.32594,27.5803
-196,638,6.0614,-28.4651,0,0,0,0,0,0,0,-1,1028,386,6.06143,28.4651
-189,638,11.4561,-30.1556,0,0,0,0,0,0,0,-1,1035,386,11.456,30.1556
-182,638,6.45471,-33.4271,0,0,0,0,0,0,0,-1,1042,386,6.45473,33.427
-175,638,8.39648,-48.7238,0,0,0,0,0,0,0,-1,1049,386,8.39643,48.7238
-168,638,9.03455,-54.4654,0,0,0,0,0,0,0,-1,1056,386,9.03454,54.4654
-161,638,9.07593,-55.2179,0,0,0,0,0,0,0,-1,1063,386,9.07597,55.2179
-154,638,8.93726,-55.8571,0,0,0,0,0,0,0,-1,1070,386,8.9373,55.8571
-147,638,8.87964,-56.4592,0,0,0,0,0,0,0,-1,1077,386,8.87967,56.4592
-140,638,8.80322,-56.7089,-0.00483515,0.0153738,-0.00874722,0.018634,-0.00809534,-1.21403,0.015827,0.0446241,1084,386,8.80319,56.7089
-133,638,8.7301,-57.6206,-0.00505723,0.0140184,-0.00779411,0.016798,-0.0078368,-1.22823,0.0145332,0.0380729,1091,386,8.73016,57.6206
-126,638,8.6217,-58.232,-0.00539027,0.0124631,-0.00672318,0.0147117,-0.00763886,-1.24804,0.0131177,0.0310652,1098,386,8.6217,58.232
-119,638,8.54211,-58.8722,-0.00571792,0.010712,-0.00567778,0.0124832,-0.00748909,-1.26842,0.0116505,0.032918,1105,386,8.54214,58.8722
-112,638,8.52063,-59.4999,-0.00588864,0.0092498,-0.00480058,0.0106438,-0.0072826,-1.28819,0.0104103,0.0251184,1112,386,8.52059,59.4999
-105,638,8.48376,-60.121,-0.00588577,0.00806627,-0.00408783,0.00917574,-0.00699524,-1.30577,0.00936457,0.0194722,1119,386,8.48379,60.121
-98,638,8.39465,-60.6888,-0.00584433,0.00697681,-0.00338803,0.00781704,-0.00668456,-1.3277,0.00838101,0.0168861,1126,386,8.39468,60.6888
-91,638,8.25916,-61.2432,-0.00574271,0.00605389,-0.0027654,0.00666999,-0.00635881,-1.35159,0.0075229,0.0122083,1133,386,8.25922,61.2432
-84,638,8.22083,-61.7485,-0.00553846,0.00450923,-0.0020528,0.00491245,-0.00594168,-1.37684,0.00627602,0.0139654,1140,386,8.22088,61.7485
-77,638,8.17346,-62.2542,-0.00525827,0.00417904,-0.0016773,0.00446828,-0.00554751,-1.40003,0.0057938,0.0127447,1147,386,8.17342,62.2542
-70,638,8.12268,-62.7331,-0.00504211,0.00443265,-0.00148786,0.0046608,-0.00527026,-1.41864,0.0057373,0.0140482,1154,386,8.12265,62.7331
-63,638,8.09619,-63.1971,-0.00478201,0.00512162,-0.00133582,0.00529863,-0.00495902,-1.43905,0.00592334,0.0134833,1161,386,8.09614,63.1971
-56,638,8.0769,-63.6259,-0.00439236,0.00612981,-0.00132124,0.00629318,-0.00455573,-1.44777,0.00629034,0.0153497,1168,386,8.07689,63.6258
-49,638,8.04749,-64.0466,-0.00391158,0.00699086,-0.00141909,0.00717254,-0.00409327,-1.44346,0.00658481,0.0124834,1175,386,8.04751,64.0466
-42,638,8.00891,-64.419,-0.00340682,0.00748768,-0.00137787,0.00765924,-0.00357838,-1.44692,0.00662911,0.0116712,1182,386,8.00887,64.419
-35,638,7.97302,-64.8058,-0.00302595,0.00808942,-0.00129912,0.00823924,-0.00317577,-1.45598,0.00680315,0.011561,1189,386,7.97298,64.8059
-28,638,7.94141,-65.175,-0.00263522,0.00839111,-0.0013047,0.00854339,-0.0027875,-1.45461,0.00681744,0.0116253,1196,386,7.94146,65.175
-21,638,7.89478,-65.4966,-0.00218318,0.00859012,-0.00134682,0.00875594,-0.002349,-1.44829,0.00675778,0.0127322,1203,386,7.89475,65.4966
-14,638,7.87,-65.8392,-0.00178482,0.00873428,-0.00137319,0.00891059,-0.00196112,-1.4431,0.0066906,0.0123584,1210,386,7.86996,65.8392
-7,638,7.90283,-66.178,-0.00144853,0.00868181,-0.00156755,0.00891882,-0.00168555,-1.42073,0.00658009,0.0193534,1217,386,7.90284,66.178
0,638,7.92688,-66.2675,-0.00113582,0.00821222,-0.0017322,0.00852288,-0.00144647,-1.39334,0.00622039,0.0370587,1224,386,7.92688,66.2675
7,638,7.84265,-66.4921,-0.000847565,0.00785592,-0.00178765,0.00820879,-0.00120043,-1.37591,0.00591342,0.0281793,1231,386,7.84263,66.4921
14,638,7.81702,-66.7288,-0.000695213,0.00761612,-0.00174115,0.00796613,-0.00104523,-1.37241,0.00569125,0.0151083,1238,386,7.81697,66.7288
21,638,7.81299,-66.9071,-0.000599268,0.00778119,-0.00151966,0.00804825,-0.000866325,-1.39684,0.00567636,0.0127387,1245,386,7.81297,66.9071
28,638,7.82703,-67.0831,-0.000481272,0.00797576,-0.00126794,0.00816176,-0.000667279,-1.42513,0.00567669,0.00982697,1252,386,7.82701,67.0831
35,638,7.83594,-67.2014,-0.000448317,0.00818106,-0.00102138,0.0083003,-0.000567561,-1.45457,0.0057321,0.0113219,1259,386,7.83593,67.2014
42,638,7.85291,-67.2933,-0.000658221,0.00858319,-0.000654317,0.00862929,-0.000704318,-1.50046,0.00600142,0.0110879,1266,386,7.85295,67.2934
49,638,7.89404,-67.3587,-0.00113948,0.00925325,-0.000186233,0.00925659,-0.00114281,-1.55288,0.00658513,0.00963866,1273,386,7.89409,67.3587
56,638,7.88489,-67.3878,-0.00166909,0.0101688,0.000539234,0.0101934,-0.0016936,1.52537,0.00742477,0.0126716,1280,386,7.88483,67.3878
63,638,7.84082,-67.41,-0.00231409,0.0112682,0.00126897,0.0113858,-0.00243163,1.47843,0.00851755,0.0154018,1287,386,7.84085,67.41
70,638,7.82397,-67.4136,-0.00293274,0.0122283,0.00186113,0.0124534,-0.00315786,1.45042,0.00953088,0.0199809,1294,386,7.82402,67.4136
77,638,7.85132,-67.3554,-0.00362059,0.0133293,0.00252136,0.0136964,-0.0039877,1.42621,0.0107105,0.0192287,1301,386,7.85137,67.3554
84,638,7.90259,-67.2816,-0.00425003,0.0142308,0.0033627,0.0148236,-0.00484287,1.39629,0.0118318,0.0149254,1308,386,7.90259,67.2816
91,638,7.88916,-67.1731,-0.00488586,0.0145841,0.00407752,0.0154035,-0.00570531,1.37247,0.0126087,0.0180363,1315,386,7.88918,67.1731
98,638,7.84851,-67.0349,-0.0052584,0.0147772,0.00484322,0.0158865,-0.00636774,1.34563,0.0132345,0.0152725,1322,386,7.8485,67.0349
105,638,7.83203,-66.9215,-0.00530215,0.0151505,0.00554991,0.0165594,-0.00671109,1.32218,0.0138305,0.0107917,1329,386,7.83201,66.9215
112,638,7.83289,-66.7625,-0.00521756,0.0151098,0.00603474,0.0167664,-0.00687414,1.30289,0.0140415,0.0104606,1336,386,7.83295,66.7624
119,638,7.84583,-66.5535,-0.00477665,0.0147025,0.00635477,0.0165923,-0.00666645,1.28174,0.0138301,0.0128837,1343,386,7.84577,66.5535
126,638,7.84595,-66.317,-0.00418334,0.0139978,0.0064769,0.0160691,-0.00625471,1.26127,0.0132974,0.0169016,1350,386,7.8459,66.317
133,638,7.83044,-66.0645,-0.00357967,0.0135523,0.00657801,0.0157866,-0.00581397,1.24336,0.0129066,0.016953,1357,386,7.83046,66.0645
140,638,7.79138,-65.808,-0.00291505,0.0133634,0.00658173,0.0156916,-0.00524321,1.2308,0.0125785,0.0176092,1364,386,7.79135,65.808
147,638,7.75049,-65.5016,-0.0021743,0.0131806,0.00636052,0.0154731,-0.00446678,1.22487,0.0120827,0.0202519,1371,386,7.75053,65.5016
154,638,7.74548,-65.1795,-0.0014292,0.0128452,0.00604682,0.0150624,-0.00364634,1.21936,0.0114522,0.0179158,1378,386,7.7455,65.1795
161,638,7.71729,-64.7796,-0.00103862,0.012661,0.00565774,0.0146954,-0.00307307,1.22561,0.0109658,0.0195464,1385,386,7.71734,64.7796
168,638,7.75244,-64.3399,-0.00102898,0.0124968,0.00529335,0.0143221,-0.00285423,1.23874,0.010628,0.0258418,1392,386,7.75239,64.3399
175,638,7.7738,-63.9737,-0.00143791,0.0125443,0.0052305,0.0142844,-0.003178,1.24963,0.0107401,0.0215766,1399,386,7.77384,63.9737
182,638,7.6731,-63.5548,-0.00198513,0.0126394,0.00520417,0.0143023,-0.00364798,1.26153,0.0109552,0.0141313,1406,386,7.67305,63.5548
189,638,7.60449,-63.0927,-0.00244473,0.0119651,0.00462466,0.0133217,-0.00380126,1.28548,0.0103828,0.0132698,1413,386,7.6045,63.0927
196,638,7.55383,-62.613,-0.00277701,0.0117282,0.00442426,0.0129712,-0.00401995,1.29692,0.0102536,0.0159429,1420,386,7.55378,62.613
203,638,7.47046,-62.1592,-0.00334576,0.0115806,0.00461556,0.0128926,-0.00465768,1.29386,0.0104979,0.0229303,1427,386,7.47041,62.1592
210,638,7.43823,-61.6436,-0.00383761,0.0109293,0.0046467,0.0122698,-0.0051781,1.28994,0.0103472,0.0180874,1434,386,7.43825,61.6436
217,638,7.41638,-61.0691,-0.0039856,0.010742,0.00470924,0.0121191,-0.00536265,1.28631,0.0103413,0.012931,1441,386,7.41639,61.0691
224,638,7.37305,-60.4769,-0.00392638,0.0112117,0.00480036,0.0126056,-0.00532025,1.2882,0.0106306,0.0119492,1448,386,7.37308,60.4769
231,638,7.26465,-59.8889,-0.00359673,0.0115881,0.00518919,0.013192,-0.00520065,1.27102,0.010948,0.0126735,1455,386,7.26464,59.8889
238,638,7.17358,-59.3057,-0.00315555,0.0129565,0.00612568,0.015021,-0.00521997,1.24574,0.0121342,0.0157655,1462,386,7.17357,59.3057
245,638,7.16003,-58.6162,-0.00299692,0.0141259,0.00671697,0.0164464,-0.0053174,1.23817,0.0131015,0.0336887,1469,386,7.16002,58.6162
252,638,7.18262,-57.802,0,0,0,0,0,0,0,-1,1476,386,7.18266,57.802
259,638,6.97571,-57.4431,0,0,0,0,0,0,0,-1,1483,386,6.97566,57.4431
266,638,6.88843,-56.7869,-0.000379378,0.0196278,0.0103983,0.0240532,-0.00480483,1.16842,0.0178539,0.0290121,1490,386,6.88842,56.7869
273,638,6.84131,-56.1179,0.000560358,0.0219384,0.0120997,0.0273943,-0.00489553,1.14719,0.0200945,0.0147898,1497,386,6.84125,56.1179
280,638,6.90112,-55.386,0.0017954,0.0245123,0.0139557,0.0311476,-0.00483989,1.12698,0.0225522,0.0234989,1504,386,6.9011,55.386
287,638,6.9259,-54.3503,0.00322978,0.0276294,0.0160852,0.0356179,-0.00475878,1.10984,0.0254801,0.0463308,1511,386,6.92587,54.3503
294,638,6.82397,-53.4704,0,0,0,0,0,0,0,-1,1518,386,6.82403,53.4704
301,638,6.3689,-52.8791,0,0,0,0,0,0,0,-1,1525,386,6.36892,52.8791
308,638,7.00427,-51.6479,0,0,0,0,0,0,0,-1,1532,386,7.00432,51.6479
315,638,3.3927,-28.2032,0,0,0,0,0,0,0,-1,1539,386,3.39269,28.2032
322,638,6.1698,-44.6835,0,0,0,0,0,0,0,-1,1546,386,6.16984,44.6835
329,638,6.06885,-44.2856,0,0,0,0,0,0,0,-1,1553,386,6.06881,44.2855
336,638,5.15234,-38.1966,0,0,0,0,0,0,0,-1,1560,386,5.15238,38.1966
343,638,4.8208,-37.2159,0,0,0,0,0,0,0,-1,1567,386,4.82078,37.2159
350,638,4.35254,-37.1565,0,0,0,0,0,0,0,-1,1574,386,4.35259,37.1565
357,638,0.387329,-3.01077,0,0,0,0,0,0,0,-1,1581,386,0.387332,3.01077
364,638,3.78149,-6.45215,0,0,0,0,0,0,0,-1,1588,386,3.78155,6.45216
371,638,4.18604,-6.71164,0,0,0,0,0,0,0,-1,1595,386,4.18598,6.71164
378,638,4.59045,-6.97113,0,0,0,0,0,0,0,-1,1602,386,4.5904,6.97112
385,638,0,0,0,0,0,0,0,0,0,-1,1609,386,0,0
392,638,0,0,0,0,0,0,0,0,0,-1,1616,386,0,0
399,638,0,0,0,0,0,0,0,0,0,-1,1623,386,0,0
406,638,0,0,0,0,0,0,0,0,0,-1,1630,386,0,0
413,638,0,0,0,0,0,0,0,0,0,-1,1637,386,0,0
420,638,0,0,0,0,0,0,0,0,0,-1,1644,386,0,0
427,638,0,0,0,0,0,0,0,0,0,-1,1651,386,0,0
434,638,0,0,0,0,0,0,0,0,0,-1,1658,386,0,0
441,638,0,0,0,0,0,0,0,0,0,-1,1665,386,0,0
448,638,0,0,0,0,0,0,0,0,0,-1,1672,386,0,0
455,638,0,0,0,0,0,0,0,0,0,-1,1679,386,0,0
462,638,0,0,0,0,0,0,0,0,0,-1,1686,386,0,0
469,638,0,0,0,0,0,0,0,0,0,-1,1693,386,0,0
476,638,0,0,0,0,0,0,0,0,0,-1,1700,386,0,0
483,638,0,0,0,0,0,0,0,0,0,-1,1707,386,0,0
490,638,0,0,0,0,0,0,0,0,0,-1,1714,386,0,0
497,638,0,0,0,0,0,0,0,0,0,-1,1721,386,0,0
504,638,0,0,0,0,0,0,0,0,0,-1,1728,386,0,0
511,638,0,0,0,0,0,0,0,0,0,-1,1735,386,0,0
518,638,0,0,0,0,0,0,0,0,0,-1,1742,386,0,0
525,638,0,0,0,0,0,0,0,0,0,-1,1749,386,0,0
532,638,0,0,0,0,0,0,0,0,0,-1,1756,386,0,0
539,638,0,0,0,0,0,0,0,0,0,-1,1763,386,0,0
546,638,0,0,0,0,0,0,0,0,0,-1,1770,386,0,0
553,638,0,0,0,0,0,0,0,0,0,-1,1777,386,0,0
560,638,0,0,0,0,0,0,0,0,0,-1,1784,386,0,0
567,638,0,0,0,0,0,0,0,0,0,-1,1791,386,0,0
574,638,0,0,0,0,0,0,0,0,0,-1,1798,386,0,0
581,638,0,0,0,0,0,0,0,0,0,-1,1805,386,0,0
588,638,0,0,0,0,0,0,0,0,0,-1,1812,386,0,0
595,638,0,0,0,0,0,0,0,0,0,-1,1819,386,0,0
602,638,0,0,0,0,0,0,0,0,0,-1,1826,386,0,0
609,638,0,0,0,0,0,0,0,0,0,-1,1833,386,0,0
616,638,0,0,0,0,0,0,0,0,0,-1,1840,386,0,0
623,638,0,0,0,0,0,0,0,0,0,-1,1847,386,0,0
630,638,0,0,0,0,0,0,0,0,0,-1,1854,386,0,0
637,638,0,0,0,0,0,0,0,0,0,-1,1861,386,0,0
644,638,0,0,0,0,0,0,0,0,0,-1,1868,386,0,0
651,638,0,0,0,0,0,0,0,0,0,-1,1875,386,0,0
658,638,0,0,0,0,0,0,0,0,0,-1,1882,386,0,0
665,638,0,0,0,0,0,0,0,0,0,-1,1889,386,0,0
672,638,0,0,0,0,0,0,0,0,0,-1,1896,386,0,0
679,638,0,0,0,0,0,0,0,0,0,-1,1903,386,0,0
686,638,0,0,0,0,0,0,0,0,0,-1,1910,386,0,0
693,638,0,0,0,0,0,0,0,0,0,-1,1917,386,0,0
700,638,0,0,0,0,0,0,0,0,0,-1,1924,386,0,0
707,638,0,0,0,0,0,0,0,0,0,-1,1931,386,0,0
714,638,0,0,0,0,0,0,0,0,0,-1,1938,386,0,0
721,638,0,0,0,0,0,0,0,0,0,-1,1945,386,0,0
728,638,0,0,0,0,0,0,0,0,0,-1,1952,386,0,0
735,638,0,0,0,0,0,0,0,0,0,-1,1959,386,0,0
742,638,0,0,0,0,0,0,0,0,0,-1,1966,386,0,0
749,638,0,0,0,0,0,0,0,0,0,-1,1973,386,0,0
756,638,0,0,0,0,0,0,0,0,0,-1,1980,386,0,0
763,638,0,0,0,0,0,0,0,0,0,-1,1987,386,0,0
770,638,0,0,0,0,0,0,0,0,0,-1,1994,386,0,0
777,638,0,0,0,0,0,0,0,0,0,-1,2001,386,0,0
784,638,0,0,0,0,0,0,0,0,0,-1,2008,386,0,0
791,638,0,0,0,0,0,0,0,0,0,-1,2015,386,0,0
798,638,0,0,0,0,0,0,0,0,0,-1,2022,386,0,0
805,638,0,0,0,0,0,0,0,0,0,-1,2029,386,0,0
812,638,0,0,0,0,0,0,0,0,0,-1,2036,386,0,0
-700,631,0,0,0,0,0,0,0,0,0,-1,524,393,0,0
-693,631,0,0,0,0,0,0,0,0,0,-1,531,393,0,0
-686,631,0,0,0,0,0,0,0,0,0,-1,538,393,0,0
-679,631,0,0,0,0,0,0,0,0,0,-1,545,393,0,0
-672,631,0,0,0,0,0,0,0,0,0,-1,552,393,0,0
-665,631,0,0,0,0,0,0,0,0,0,-1,559,393,0,0
-658,631,0,0,0,0,0,0,0,0,0,-1,566,393,0,0
-651,631,0,0,0,0,0,0,0,0,0,-1,573,393,0,0
-644,631,0,0,0,0,0,0,0,0,0,-1,580,393,0,0
-637,631,0,0,0,0,0,0,0,0,0,-1,587,393,0,0
-630,631,0,0,0,0,0,0,0,0,0,-1,594,393,0,0
-623,631,0,0,0,0,0,0,0,0,0,-1,601,393,0,0
-616,631,0,0,0,0,0,0,0,0,0,-1,608,393,0,0
-609,631,0,0,0,0,0,0,0,0,0,-1,615,393,0,0
-602,631,0,0,0,0,0,0,0,0,0,-1,622,393,0,0
-595,631,0,0,0,0,0,0,0,0,0,-1,629,393,0,0
-588,631,0,0,0,0,0,0,0,0,0,-1,636,393,0,0
-581,631,0,0,0,0,0,0,0,0,0,-1,643,393,0,0
-574,631,0,0,0,0,0,0,0,0,0,-1,650,393,0,0
-567,631,0,0,0,0,0,0,0,0,0,-1,657,393,0,0
-560,631,0,0,0,0,0,0,0,0,0,-1,664,393,0,0
-553,631,0,0,0,0,0,0,0,0,0,-1,671,393,0,0
-546,631,0,0,0,0,0,0,0,0,0,-1,678,393,0,0
-539,631,0,0,0,0,0,0,0,0,0,-1,685,393,0,0
-532,631,0,0,0,0,0,0,0,0,0,-1,692,393,0,0
-525,631,0,0,0,0,0,0,0,0,0,-1,699,393,0,0
-518,631,0,0,0,0,0,0,0,0,0,-1,706,393,0,0
-511,631,0,0,0,0,0,0,0,0,0,-1,713,393,0,0
-504,631,0,0,0,0,0,0,0,0,0,-1,720,393,0,0
-497,631,0,0,0,0,0,0,0,0,0,-1,727,393,0,0
-490,631,0,0,0,0,0,0,0,0,0,-1,734,393,0,0
-483,631,0,0,0,0,0,0,0,0,0,-1,741,393,0,0
-476,631,0,0,0,0,0,0,0,0,0,-1,748,393,0,0
-469,631,0,0,0,0,0,0,0,0,0,-1,755,393,0,0
-462,631,0,0,0,0,0,0,0,0,0,-1,762,393,0,0
-455,631,0,0,0,0,0,0,0,0,0,-1,769,393,0,0
-448,631,0,0,0,0,0,0,0,0,0,-1,776,393,0,0
-441,631,0,0,0,0,0,0,0,0,0,-1,783,393,0,0
-434,631,0,0,0,0,0,0,0,0,0,-1,790,393,0,0
-427,631,0,0,0,0,0,0,0,0,0,-1,797,393,0,0
-420,631,0,0,0,0,0,0,0,0,0,-1,804,393,0,0
-413,631,0,0,0,0,0,0,0,0,0,-1,811,393,0,0
-406,631,0,0,0,0,0,0,0,0,0,-1,818,393,0,0
-399,631,0,0,0,0,0,0,0,0,0,-1,825,393,0,0
-392,631,0,0,0,0,0,0,0,0,0,-1,832,393,0,0
-385,631,0,0,0,0,0,0,0,0,0,-1,839,393,0,0
-378,631,0,0,0,0,0,0,0,0,0,-1,846,393,0,0
-371,631,0,0,0,0,0,0,0,0,0,-1,853,393,0,0
-364,631,0,0,0,0,0,0,0,0,0,-1,860,393,0,0
-357,631,0,0,0,0,0,0,0,0,0,-1,867,393,0,0
-350,631,0,0,0,0,0,0,0,0,0,-1,874,393,0,0
-343,631,0,0,0,0,0,0,0,0,0,-1,881,393,0,0
-336,631,0,0,0,0,0,0,0,0,0,-1,888,393,0,0
-329,631,0,0,0,0,0,0,0,0,0,-1,895,393,0,0
-322,631,0,0,0,0,0,0,0,0,0,-1,902,393,0,0
-315,631,0,0,0,0,0,0,0,0,0,-1,909,393,0,0
-308,631,0,0,0,0,0,0,0,0,0,-1,916,393,0,0
-301,631,0,0,0,0,0,0,0,0,0,-1,923,393,0,0
-294,631,0,0,0,0,0,0,0,0,0,-1,930,393,0,0
-287,631,0,0,0,0,0,0,0,0,0,-1,937,393,0,0
-280,631,7.71283,-34.969,0,0,0,0,0,0,0,-1,944,393,7.71282,34.969
-273,631,8.04437,-34.934,0,0,0,0,0,0,0,-1,951,393,8.04436,34.9339
-266,631,8.40277,-34.7584,0,0,0,0,0,0,0,-1,958,393,8.40275,34.7584
-259,631,8.56659,-34.037,0,0,0,0,0,0,0,-1,965,393,8.56662,34.037
-252,631,8.44446,-33.2643,0,0,0,0,0,0,0,-1,972,393,8.44445,33.2644
-245,631,8.34705,-32.527,0,0,0,0,0,0,0,-1,979,393,8.34704,32.527
-238,631,8.41888,-31.8855,0,0,0,0,0,0,0,-1,986,393,8.41887,31.8855
-231,631,2.14966,-25.2306,0,0,0,0,0,0,0,-1,993,393,2.14968,25.2306
-224,631,6.83575,-19.7909,0,0,0,0,0,0,0,-1,1000,393,6.83575,19.7909
-217,631,5.05188,-18.3867,0,0,0,0,0,0,0,-1,1007,393,5.0519,18.3866
-210,631,3.37842,-26.3769,0,0,0,0,0,0,0,-1,1014,393,3.37839,26.3769
-203,631,8.59509,-47.1953,0,0,0,0,0,0,0,-1,1021,393,8.5951,47.1954
-196,631,8.51001,-47.9163,0,0,0,0,0,0,0,-1,1028,393,8.50997,47.9163
-189,631,6.57983,-42.4494,0,0,0,0,0,0,0,-1,1035,393,6.57983,42.4494
-182,631,8.0531,-47.8031,0,0,0,0,0,0,0,-1,1042,393,8.05311,47.8031
-175,631,8.26465,-53.1226,0,0,0,0,0,0,0,-1,1049,393,8.2646,53.1226
-168,631,8.43982,-54.2172,-0.00305285,0.0166448,-0.0107116,0.0213472,-0.0077552,-1.15713,0.0174024,0.0448738,1056,393,8.43982,54.2172
-161,631,8.40894,-55.0372,-0.00311486,0.0153278,-0.0096638,0.0194639,-0.00725101,-1.16638,0.0159521,0.023762,1063,393,8.40899,55.0372
-154,631,8.33789,-55.8152,-0.00320278,0.0141025,-0.00871194,0.0177286,-0.00682882,-1.17639,0.0146363,0.020608,1070,393,8.33792,55.8153
-147,631,8.2677,-56.4443,-0.00345246,0.0128959,-0.00775893,0.0159919,-0.00654852,-1.19112,0.013389,0.0173273,1077,393,8.26775,56.4443
-140,631,8.20825,-57.0947,-0.00356343,0.0116896,-0.00691497,0.0143577,-0.0062316,-1.20254,0.012192,0.0119015,1084,393,8.20828,57.0947
-133,631,8.11462,-57.7267,-0.0035848,0.0106098,-0.00611363,0.0128799,-0.00585489,-1.21526,0.0110671,0.00918263,1091,393,8.11458,57.7267
-126,631,8.06592,-58.3407,-0.00368037,0.00942252,-0.00526405,0.0112753,-0.00553319,-1.23236,0.00989137,0.0128012,1098,393,8.06594,58.3407
-119,631,8.00806,-58.9226,-0.00377533,0.00804893,-0.00441491,0.00951547,-0.00524187,-1.25009,0.00863842,0.0163949,1105,393,8.0081,58.9226
-112,631,7.94788,-59.5285,-0.00373978,0.00690085,-0.00372427,0.00807483,-0.00491376,-1.26543,0.00757263,0.0157356,1112,393,7.94785,59.5285
-105,631,7.98621,-60.1349,-0.00358278,0.00597133,-0.00318871,0.0069378,-0.00454926,-1.2765,0.00667968,0.0208211,1119,393,7.98617,60.1349
-98,631,7.8938,-60.7034,-0.00338216,0.00513908,-0.00267993,0.00591184,-0.00415491,-1.29006,0.00584147,0.0179141,1126,393,7.89386,60.7034
-91,631,7.8031,-61.2566,-0.00313725,0.00442984,-0.00220729,0.00502663,-0.00373404,-1.30674,0.00507629,0.0181628,1133,393,7.80314,61.2566
-84,631,7.77527,-61.7773,-0.00282756,0.00331195,-0.00166578,0.00373479,-0.0032504,-1.32221,0.00403613,0.0171329,1140,393,7.77524,61.7773
-77,631,7.69812,-62.2618,-0.00245841,0.00296555,-0.00136178,0.00328825,-0.00278111,-1.33812,0.00350822,0.0125756,1147,393,7.6981,62.2618
-70,631,7.66187,-62.7317,-0.00210889,0.00292042,-0.0011685,0.00317864,-0.00236712,-1.3533,0.00321325,0.0156164,1154,393,7.66188,62.7317
-63,631,7.65723,-63.2183,-0.00170672,0.00301808,-0.000978017,0.00321253,-0.00190116,-1.37454,0.00298457,0.0158123,1161,393,7.65722,63.2183
-56,631,7.63843,-63.6884,-0.00127418,0.00316909,-0.00083238,0.0033199,-0.001425,-1.39156,0.00281134,0.0164541,1168,393,7.63846,63.6884
-49,631,7.6438,-64.0705,-0.000795396,0.00313807,-0.000677506,0.0032515,-0.00090882,-1.40492,0.00252571,0.0122824,1175,393,7.64385,64.0705
-42,631,7.63538,-64.4439,-0.000262408,0.00307708,-0.000623939,0.00318985,-0.000375174,-1.39199,0.00226202,0.00971262,1182,393,7.63533,64.4439
-35,631,7.61597,-64.8156,0.000204749,0.00324157,-0.000787916,0.00343382,1.24919e-05,-1.33147,0.00228506,0.0108458,1189,393,7.61595,64.8156
-28,631,7.62476,-65.1637,0.000684251,0.00314859,-0.00120125,0.00363725,0.000195594,-1.18445,0.00236233,0.0140081,1196,393,7.6247,65.1637
-21,631,7.58948,-65.4908,0.0012502,0.0030885,-0.00183841,0.00422474,0.000113967,-1.01721,0.00277928,0.0123248,1203,393,7.58947,65.4908
-14,631,7.56909,-65.8327,0.00176256,0.00318049,-0.00250576,0.00507565,-0.000132604,-0.923261,0.00342882,0.0142234,1210,393,7.56914,65.8327
-7,631,7.62048,-66.1876,0.00226112,0.00298568,-0.00321038,0.00585416,-0.000607355,-0.841584,0.00412017,0.0237571,1217,393,7.62053,66.1876
0,631,7.57031,-66.3928,0.00255345,0.00255771,-0.00382186,0.00637744,-0.00126628,-0.785677,0.00473055,0.0289892,1224,393,7.57037,66.3928
7,631,7.58325,-66.5511,0.00268516,0.00233548,-0.00420005,0.006714,-0.00169336,-0.764596,0.0051344,0.0224247,1231,393,7.58327,66.5511
14,631,7.65527,-66.7729,0.00271419,0.00234093,-0.00430557,0.00683717,-0.00178205,-0.763739,0.00525386,0.0127992,1238,393,7.65533,66.7729
21,631,7.68713,-66.9416,0.00274106,0.00228381,-0.00420522,0.00672387,-0.001699,-0.758242,0.00514332,0.0158552,1245,393,7.68719,66.9416
28,631,7.6842,-67.0686,0.00272664,0.00224887,-0.00389983,0.00639489,-0.00141939,-0.754809,0.00480676,0.0174159,1252,393,7.68424,67.0686
35,631,7.74719,-67.1666,0.00243054,0.00230107,-0.00339785,0.00576427,-0.00103266,-0.775874,0.00422931,0.016221,1259,393,7.74716,67.1666
42,631,7.78601,-67.2639,0.00196112,0.002513,-0.00272962,0.00498059,-0.000506474,-0.835772,0.00350145,0.0141702,1266,393,7.78601,67.2639
49,631,7.81812,-67.3521,0.00138009,0.00285743,-0.00201715,0.00426691,-2.93835e-05,-0.960912,0.00285445,0.0123451,1273,393,7.81815,67.3521
56,631,7.86108,-67.4385,0.000769475,0.00355837,-0.00105967,0.00391532,0.000412525,-1.24589,0.00248415,0.0148126,1280,393,7.86111,67.4385
63,631,7.8623,-67.482,0.000113511,0.00431099,-4.22397e-05,0.00431141,0.000113087,-1.56073,0.00283733,0.0172172,1287,393,7.86228,67.482
70,631,7.86047,-67.4369,-0.000540097,0.00519877,0.000756842,0.00529691,-0.000638231,1.44185,0.0037621,0.0172819,1294,393,7.86048,67.4369
77,631,7.90918,-67.3722,-0.00125365,0.00645451,0.00149253,0.00673341,-0.00153256,1.38606,0.00507749,0.0164286,1301,393,7.90915,67.3722
84,631,7.94958,-67.3119,-0.00178445,0.00740517,0.00218706,0.00789912,-0.0022784,1.34867,0.00616746,0.0143106,1308,393,7.94959,67.3118
91,631,7.97229,-67.2014,-0.00222497,0.00797818,0.00263961,0.00862061,-0.00286741,1.33206,0.00690429,0.0186004,1315,393,7.97225,67.2014
98,631,8.00452,-67.0766,-0.00247293,0.00842096,0.0030505,0.00921699,-0.00326896,1.31554,0.00747646,0.0157707,1322,393,8.00452,67.0766
105,631,7.98853,-66.9358,-0.00236823,0.0089043,0.00349592,0.00990045,-0.00336438,1.29321,0.00796232,0.0123387,1329,393,7.98858,66.9358
112,631,8.0022,-66.7598,-0.00212876,0.00892737,0.00377475,0.0100932,-0.00329459,1.27124,0.00805481,0.0125473,1336,393,8.00226,66.7598
119,631,8.03137,-66.5734,-0.00172074,0.0085596,0.00393154,0.00989078,-0.00305192,1.24432,0.00781246,0.0133987,1343,393,8.03132,66.5734
126,631,8.06641,-66.3379,-0.00122344,0.00819578,0.00393061,0.00962051,-0.00264816,1.22306,0.00745486,0.0190356,1350,393,8.06641,66.3379
133,631,8.08362,-66.0695,-0.000742144,0.00784594,0.00388105,0.00933993,-0.00223614,1.20333,0.00709053,0.0209599,1357,393,8.08362,66.0695
140,631,8.052,-65.8413,-0.000178933,0.0074978,0.00377216,0.00904109,-0.00172222,1.18245,0.00667593,0.0216084,1364,393,8.05201,65.8413
147,631,8.00623,-65.5153,0.00034449,0.0070901,0.00348624,0.00856804,-0.00113344,1.16983,0.0061249,0.0247947,1371,393,8.00625,65.5153
154,631,8.03442,-65.1561,0.000782272,0.00666178,0.00312899,0.00801536,-0.000571308,1.16251,0.00554383,0.0237385,1378,393,8.03447,65.1561
161,631,8.08618,-64.7447,0.0010171,0.00635054,0.00271663,0.00749059,-0.000122944,1.17346,0.00503521,0.0243119,1385,393,8.08621,64.7447
168,631,8.11731,-64.2953,0.0010165,0.00613576,0.00248791,0.00714564,6.6217e-06,1.1852,0.00476155,0.0281047,1392,393,8.11732,64.2952
175,631,8.15503,-63.9704,0.000775361,0.00618863,0.00242945,0.00711904,-0.00015505,1.20506,0.00479854,0.0216952,1399,393,8.15499,63.9704
182,631,8.0625,-63.5759,0.000345743,0.00645694,0.0024409,0.00731218,-0.000509498,1.23378,0.00505319,0.0126115,1406,393,8.06253,63.5759
189,631,8.02319,-63.0965,-0.000218494,0.00672575,0.00242482,0.00748865,-0.000981391,1.26598,0.00534965,0.0132501,1413,393,8.02321,63.0965
196,631,7.99915,-62.6213,-0.000678241,0.0072323,0.00264251,0.00803382,-0.00147976,1.2763,0.0059112,0.0134964,1420,393,7.9991,62.6213
203,631,8,-62.1576,-0.00119867,0.00759617,0.00292806,0.00848182,-0.00208432,1.27707,0.00646235,0.0157941,1427,393,8.00003,62.1576
210,631,7.96191,-61.649,-0.00171736,0.00760677,0.00312218,0.00855566,-0.00266625,1.27575,0.00676986,0.0168843,1434,393,7.96194,61.649
217,631,7.91565,-61.1169,-0.00199876,0.00779885,0.00329977,0.00880655,-0.00300646,1.27441,0.00708898,0.0167883,1441,393,7.91568,61.1169
224,631,7.88074,-60.5568,-0.00212642,0.00830184,0.00348819,0.00936104,-0.00318562,1.27599,0.00753062,0.0137883,1448,393,7.88069,60.5568
231,631,7.80725,-59.9767,-0.00205741,0.00871223,0.00388764,0.00996895,-0.00331413,1.25814,0.00798337,0.0116662,1455,393,7.80728,59.9767
238,631,7.75977,-59.3633,-0.00187365,0.00979057,0.0046487,0.0114166,-0.00349969,1.23432,0.00900719,0.0176285,1462,393,7.75974,59.3634
245,631,7.73706,-58.7631,-0.00188569,0.0107367,0.00517289,0.0125858,-0.00373476,1.2275,0.00987376,0.0189446,1469,393,7.73706,58.7631
252,631,7.65784,-58.1555,-0.001559,0.0119714,0.00588119,0.0141704,-0.00375797,1.21299,0.0109173,0.0190693,1476,393,7.65781,58.1555
259,631,7.61633,-57.5169,-0.000807225,0.0138091,0.007137,0.0167159,-0.00371405,1.18402,0.0125663,0.01404,1483,393,7.61639,57.5169
266,631,7.5603,-56.8546,-0.000438609,0.0152018,0.00819177,0.0187068,-0.00394363,1.1665,0.0139725,0.012833,1490,393,7.56025,56.8546
273,631,7.50757,-56.1683,8.73175e-05,0.0169976,0.00949174,0.0212539,-0.00416906,1.14925,0.0157441,0.0163739,1497,393,7.50761,56.1683
280,631,7.46167,-55.4245,0.000849989,0.0189674,0.0108991,0.0240809,-0.00426347,1.13212,0.0176476,0.0152717,1504,393,7.4617,55.4245
287,631,7.36646,-54.7151,0.00176911,0.0213429,0.0125082,0.027438,-0.00432601,1.11737,0.0198914,0.0170512,1511,393,7.36649,54.7151
294,631,7.24841,-53.8761,0.00257194,0.0236331,0.0140299,0.0306447,-0.00443971,1.10734,0.0220592,0.0218509,1518,393,7.24841,53.8761
301,631,7.10608,-53.0364,0.00339174,0.0257825,0.0154847,0.033695,-0.00452077,1.0984,0.024112,0.0351339,1525,393,7.10603,53.0364
308,631,7.45605,-52.0115,0.00436086,0.0284548,0.0168923,0.0371558,-0.00434013,1.09515,0.0263367,0.0473062,1532,393,7.45605,52.0115
315,631,7.57373,-51.2042,0,0,0,0,0,0,0,-1,1539,393,7.5737,51.2042
322,631,7.19458,-51.1884,0,0,0,0,0,0,0,-1,1546,393,7.19456,51.1884
329,631,5.70972,-38.2651,0,0,0,0,0,0,0,-1,1553,393,5.70967,38.2651
336,631,5.38281,-39.6306,0,0,0,0,0,0,0,-1,1560,393,5.38277,39.6306
343,631,6.21558,-38.7278,0,0,0,0,0,0,0,-1,1567,393,6.21558,38.7278
350,631,5.18359,-35.9677,0,0,0,0,0,0,0,-1,1574,393,5.18355,35.9677
357,631,2.6449,-9.60303,0,0,0,0,0,0,0,-1,1581,393,2.64491,9.60304
364,631,3.39136,-5.7594,0,0,0,0,0,0,0,-1,1588,393,3.39137,5.75939
371,631,3.72839,-6.0574,0,0,0,0,0,0,0,-1,1595,393,3.72845,6.05742
378,631,4.06555,-6.35544,0,0,0,0,0,0,0,-1,1602,393,4.06553,6.35544
385,631,3.90442,-3.58298,0,0,0,0,0,0,0,-1,1609,393,3.90437,3.58299
392,631,0.352295,-2.21301,0,0,0,0,0,0,0,-1,1616,393,0.352345,2.213
399,631,0,0,0,0,0,0,0,0,0,-1,1623,393,0,0
406,631,0,0,0,0,0,0,0,0,0,-1,1630,393,0,0
413,631,0,0,0,0,0,0,0,0,0,-1,1637,393,0,0
420,631,0,0,0,0,0,0,0,0,0,-1,1644,393,0,0
427,631,0,0,0,0,0,0,0,0,0,-1,1651,393,0,0
434,631,0,0,0,0,0,0,0,0,0,-1,1658,393,0,0
441,631,0,0,0,0,0,0,0,0,0,-1,1665,393,0,0
448,631,0,0,0,0,0,0,0,0,0,-1,1672,393,0,0
455,631,0,0,0,0,0,0,0,0,0,-1,1679,393,0,0
462,631,0,0,0,0,0,0,0,0,0,-1,1686,393,0,0
469,631,0,0,0,0,0,0,0,0,0,-1,1693,393,0,0
476,631,0,0,0,0,0,0,0,0,0,-1,1700,393,0,0
483,631,0,0,0,0,0,0,0,0,0,-1,1707,393,0,0
490,631,0,0,0,0,0,0,0,0,0,-1,1714,393,0,0
497,631,0,0,0,0,0,0,0,0,0,-1,1721,393,0,0
504,631,0,0,0,0,0,0,0,0,0,-1,1728,393,0,0
511,631,0,0,0,0,0,0,0,0,0,-1,1735,393,0,0
518,631,0,0,0,0,0,0,0,0,0,-1,1742,393,0,0
525,631,0,0,0,0,0,0,0,0,0,-1,1749,393,0,0
532,631,0,0,0,0,0,0,0,0,0,-1,1756,393,0,0
539,631,0,0,0,0,0,0,0,0,0,-1,1763,393,0,0
546,631,0,0,0,0,0,0,0,0,0,-1,1770,393,0,0
553,631,0,0,0,0,0,0,0,0,0,-1,1777,393,0,0
560,631,0,0,0,0,0,0,0,0,0,-1,1784,393,0,0
567,631,0,0,0,0,0,0,0,0,0,-1,1791,393,0,0
574,631,0,0,0,0,0,0,0,0,0,-1,1798,393,0,0
581,631,0,0,0,0,0,0,0,0,0,-1,1805,393,0,0
588,631,0,0,0,0,0,0,0,0,0,-1,1812,393,0,0
595,631,0,0,0,0,0,0,0,0,0,-1,1819,393,0,0
602,631,0,0,0,0,0,0,0,0,0,-1,1826,393,0,0
609,631,0,0,0,0,0,0,0,0,0,-1,1833,393,0,0
616,631,0,0,0,0,0,0,0,0,0,-1,1840,393,0,0
623,631,0,0,0,0,0,0,0,0,0,-1,1847,393,0,0
630,631,0,0,0,0,0,0,0,0,0,-1,1854,393,0,0
637,631,0,0,0,0,0,0,0,0,0,-1,1861,393,0,0
644,631,0,0,0,0,0,0,0,0,0,-1,1868,393,0,0
651,631,0,0,0,0,0,0,0,0,0,-1,1875,393,0,0
658,631,0,0,0,0,0,0,0,0,0,-1,1882,393,0,0
665,631,0,0,0,0,0,0,0,0,0,-1,1889,393,0,0
672,631,0,0,0,0,0,0,0,0,0,-1,1896,393,0,0
679,631,0,0,0,0,0,0,0,0,0,-1,1903,393,0,0
686,631,0,0,0,0,0,0,0,0,0,-1,1910,393,0,0
693,631,0,0,0,0,0,0,0,0,0,-1,1917,393,0,0
700,631,0,0,0,0,0,0,0,0,0,-1,1924,393,0,0
707,631,0,0,0,0,0,0,0,0,0,-1,1931,393,0,0
714,631,0,0,0,0,0,0,0,0,0,-1,1938,393,0,0
721,631,0,0,0,0,0,0,0,0,0,-1,1945,393,0,0
728,631,0,0,0,0,0,0,0,0,0,-1,1952,393,0,0
735,631,0,0,0,0,0,0,0,0,0,-1,1959,393,0,0
742,631,0,0,0,0,0,0,0,0,0,-1,1966,393,0,0
749,631,0,0,0,0,0,0,0,0,0,-1,1973,393,0,0
756,631,0,0,0,0,0,0,0,0,0,-1,1980,393,0,0
763,631,0,0,0,0,0,0,0,0,0,-1,1987,393,0,0
770,631,0,0,0,0,0,0,0,0,0,-1,1994,393,0,0
777,631,0,0,0,0,0,0,0,0,0,-1,2001,393,0,0
784,631,0,0,0,0,0,0,0,0,0,-1,2008,393,0,0
791,631,0,0,0,0,0,0,0,0,0,-1,2015,393,0,0
798,631,0,0,0,0,0,0,0,0,0,-1,2022,393,0,0
805,631,0,0,0,0,0,0,0,0,0,-1,2029,393,0,0
812,631,0,0,0,0,0,0,0,0,0,-1,2036,393,0,0
-700,624,0,0,0,0,0,0,0,0,0,-1,524,400,0,0
-693,624,0,0,0,0,0,0,0,0,0,-1,531,400,0,0
-686,624,0,0,0,0,0,0,0,0,0,-1,538,400,0,0
-679,624,0,0,0,0,0,0,0,0,0,-1,545,400,0,0
-672,624,0,0,0,0,0,0,0,0,0,-1,552,400,0,0
-665,624,0,0,0,0,0,0,0,0,0,-1,559,400,0,0
-658,624,0,0,0,0,0,0,0,0,0,-1,566,400,0,0
-651,624,0,0,0,0,0,0,0,0,0,-1,573,400,0,0
-644,624,0,0,0,0,0,0,0,0,0,-1,580,400,0,0
-637,624,0,0,0,0,0,0,0,0,0,-1,587,400,0,0
-630,624,0,0,0,0,0,0,0,0,0,-1,594,400,0,0
-623,624,0,0,0,0,0,0,0,0,0,-1,601,400,0,0
-616,624,0,0,0,0,0,0,0,0,0,-1,608,400,0,0
-609,624,0,0,0,0,0,0,0,0,0,-1,615,400,0,0
-602,624,0,0,0,0,0,0,0,0,0,-1,622,400,0,0
-595,624,0,0,0,0,0,0,0,0,0,-1,629,400,0,0
-588,624,0,0,0,0,0,0,0,0,0,-1,636,400,0,0
-581,624,0,0,0,0,0,0,0,0,0,-1,643,400,0,0
-574,624,0,0,0,0,0,0,0,0,0,-1,650,400,0,0
-567,624,0,0,0,0,0,0,0,0,0,-1,657,400,0,0
-560,624,0,0,0,0,0,0,0,0,0,-1,664,400,0,0
-553,624,0,0,0,0,0,0,0,0,0,-1,671,400,0,0
-546,624,0,0,0,0,0,0,0,0,0,-1,678,400,0,0
-539,624,0,0,0,0,0,0,0,0,0,-1,685,400,0,0
-532,624,0,0,0,0,0,0,0,0,0,-1,692,400,0,0
-525,624,0,0,0,0,0,0,0,0,0,-1,699,400,0,0
-518,624,0,0,0,0,0,0,0,0,0,-1,706,400,0,0
-511,624,0,0,0,0,0,0,0,0,0,-1,713,400,0,0
-504,624,0,0,0,0,0,0,0,0,0,-1,720,400,0,0
-497,624,0,0,0,0,0,0,0,0,0,-1,727,400,0,0
-490,624,0,0,0,0,0,0,0,0,0,-1,734,400,0,0
-483,624,0,0,0,0,0,0,0,0,0,-1,741,400,0,0
-476,624,0,0,0,0,0,0,0,0,0,-1,748,400,0,0
-469,624,0,0,0,0,0,0,0,0,0,-1,755,400,0,0
-462,624,0,0,0,0,0,0,0,0,0,-1,762,400,0,0
-455,624,0,0,0,0,0,0,0,0,0,-1,769,400,0,0
-448,624,0,0,0,0,0,0,0,0,0,-1,776,400,0,0
-441,624,0,0,0,0,0,0,0,0,0,-1,783,400,0,0
-434,624,0,0,0,0,0,0,0,0,0,-1,790,400,0,0
-427,624,0,0,0,0,0,0,0,0,0,-1,797,400,0,0
-420,624,0,0,0,0,0,0,0,0,0,-1,804,400,0,0
-413,624,0,0,0,0,0,0,0,0,0,-1,811,400,0,0
-406,624,0,0,0,0,0,0,0,0,0,-1,818,400,0,0
-399,624,0,0,0,0,0,0,0,0,0,-1,825,400,0,0
-392,624,0,0,0,0,0,0,0,0,0,-1,832,400,0,0
-385,624,0,0,0,0,0,0,0,0,0,-1,839,400,0,0
-378,624,0,0,0,0,0,0,0,0,0,-1,846,400,0,0
-371,624,0,0,0,0,0,0,0,0,0,-1,853,400,0,0
-364,624,0,0,0,0,0,0,0,0,0,-1,860,400,0,0
-357,624,0,0,0,0,0,0,0,0,0,-1,867,400,0,0
-350,624,0,0,0,0,0,0,0,0,0,-1,874,400,0,0
-343,624,0,0,0,0,0,0,0,0,0,-1,881,400,0,0
-336,624,0,0,0,0,0,0,0,0,0,-1,888,400,0,0
-329,624,0,0,0,0,0,0,0,0,0,-1,895,400,0,0
-322,624,0,0,0,0,0,0,0,0,0,-1,902,400,0,0
-315,624,0,0,0,0,0,0,0,0,0,-1,909,400,0,0
-308,624,0,0,0,0,0,0,0,0,0,-1,916,400,0,0
-301,624,0,0,0,0,0,0,0,0,0,-1,923,400,0,0
-294,624,5.08527,-28.5311,0,0,0,0,0,0,0,-1,930,400,5.08525,28.5311
-287,624,6.70825,-33.8,0,0,0,0,0,0,0,-1,937,400,6.70827,33.8
-280,624,6.92474,-33.8738,0,0,0,0,0,0,0,-1,944,400,6.92477,33.8739
-273,624,8.617,-37.3463,0,0,0,0,0,0,0,-1,951,400,8.61697,37.3463
-266,624,7.71747,-37.0599,0,0,0,0,0,0,0,-1,958,400,7.7175,37.0599
-259,624,7.33569,-33.1199,0,0,0,0,0,0,0,-1,965,400,7.33567,33.1199
-252,624,7.5528,-32.8158,0,0,0,0,0,0,0,-1,972,400,7.5528,32.8158
-245,624,6.8396,-32.02,0,0,0,0,0,0,0,-1,979,400,6.83963,32.02
-238,624,6.99402,-31.5278,0,0,0,0,0,0,0,-1,986,400,6.99404,31.5278
-231,624,3.86121,-29.6032,0,0,0,0,0,0,0,-1,993,400,3.86122,29.6032
-224,624,4.59351,-27.4048,0,0,0,0,0,0,0,-1,1000,400,4.59353,27.4048
-217,624,5.90167,-32.048,0,0,0,0,0,0,0,-1,1007,400,5.90167,32.048
-210,624,8.27338,-49.5991,0,0,0,0,0,0,0,-1,1014,400,8.27338,49.5991
-203,624,8.151,-50.3663,0,0,0,0,0,0,0,-1,1021,400,8.151,50.3663
-196,624,8.1499,-51.1385,0,0,0,0,0,0,0,-1,1028,400,8.14985,51.1385
-189,624,8.01587,-52.0756,0,0,0,0,0,0,0,-1,1035,400,8.01582,52.0756
-182,624,7.52441,-52.547,0,0,0,0,0,0,0,-1,1042,400,7.52437,52.547
-175,624,7.75134,-53.4277,-0.00232188,0.0144444,-0.00935018,0.0186192,-0.00649673,-1.15086,0.0150532,0.0319421,1049,400,7.75137,53.4277
-168,624,7.8324,-54.3257,-0.00239964,0.0128141,-0.00839767,0.016538,-0.00612349,-1.15341,0.0135363,0.0228507,1056,400,7.83243,54.3257
-161,624,7.74963,-55.0741,-0.00232662,0.0116381,-0.00752818,0.0149235,-0.00561202,-1.1593,0.0122557,0.0118487,1063,400,7.74965,55.0741
-154,624,7.70642,-55.7624,-0.00226305,0.0105493,-0.00670733,0.0134182,-0.00513197,-1.16662,0.0110604,0.0102679,1070,400,7.70644,55.7624
-147,624,7.65833,-56.4357,-0.002316,0.00949599,-0.00590304,0.0119402,-0.00476025,-1.17822,0.00993463,0.0115788,1077,400,7.65833,56.4357
-140,624,7.5885,-57.0896,-0.00226804,0.00842416,-0.00517962,0.0105218,-0.00436568,-1.186,0.00883685,0.0108728,1084,400,7.58854,57.0896
-133,624,7.50781,-57.7375,-0.00214732,0.0074965,-0.00449491,0.00926663,-0.00391745,-1.19564,0.00781788,0.0118934,1091,400,7.50778,57.7374
-126,624,7.47058,-58.3414,-0.00205831,0.00654212,-0.00381392,0.00798976,-0.00350595,-1.20803,0.00680326,0.0134435,1098,400,7.47054,58.3414
-119,624,7.42004,-58.9352,-0.0019473,0.00546238,-0.00313121,0.00660834,-0.00309327,-1.21996,0.00572246,0.0161732,1105,400,7.4201,58.9352
-112,624,7.39807,-59.5259,-0.00172496,0.00457615,-0.00259869,0.00550961,-0.00265843,-1.22594,0.00481063,0.0190623,1112,400,7.39803,59.5259
-105,624,7.42615,-60.1046,-0.00141731,0.0038798,-0.0022153,0.00468413,-0.00222164,-1.22252,0.00407066,0.0145219,1119,400,7.42613,60.1046
-98,624,7.35767,-60.6544,-0.00105615,0.00328052,-0.00186921,0.00397499,-0.00175062,-1.21507,0.00338782,0.0148255,1126,400,7.35768,60.6544
-91,624,7.33423,-61.2163,-0.000654104,0.00278637,-0.00154243,0.00337661,-0.00124435,-1.20532,0.00276096,0.0212565,1133,400,7.3342,61.2163
-84,624,7.32813,-61.7747,-0.000196348,0.00207934,-0.00117649,0.0025782,-0.000695213,-1.16975,0.00199141,0.0194884,1140,400,7.32819,61.7747
-77,624,7.28308,-62.2729,0.000309417,0.00174263,-0.000961371,0.00222509,-0.000173042,-1.10567,0.00154431,0.0148293,1147,400,7.28314,62.2729
-70,624,7.28064,-62.7104,0.000813969,0.00144636,-0.000771755,0.00196418,0.000296146,-0.979822,0.00122275,0.0170507,1154,400,7.2807,62.7104
-63,624,7.29309,-63.1969,0.00136012,0.00102173,-0.000533814,0.00175091,0.00063094,-0.63193,0.00102395,0.019744,1161,400,7.29309,63.1969
-56,624,7.23486,-63.647,0.00196277,0.000941492,-0.000639773,0.0022707,0.000633558,-0.448591,0.001353,0.0162754,1168,400,7.23485,63.647
-49,624,7.24426,-64.0794,0.00250692,0.000623845,-0.000602356,0.00268311,0.000447651,-0.284571,0.00165977,0.0118148,1175,400,7.24427,64.0794
-42,624,7.24939,-64.4498,0.00308327,0.00120839,-0.00148288,0.00390018,0.000391481,-0.503527,0.00247995,0.0101775,1182,400,7.24938,64.4498
-35,624,7.23254,-64.8005,0.00371054,0.00174533,-0.00279887,0.00569428,-0.000238412,-0.616583,0.0038781,0.0158077,1189,400,7.23251,64.8005
-28,624,7.25452,-65.1754,0.00438481,0.00197207,-0.00443162,0.00777132,-0.00141444,-0.652509,0.00571105,0.0203092,1196,400,7.2545,65.1754
-21,624,7.28027,-65.4955,0.00513636,0.00228517,-0.00629525,0.0101654,-0.00274388,-0.674049,0.00785302,0.0144946,1203,400,7.2803,65.4955
-14,624,7.32422,-65.818,0.00579707,0.00282716,-0.00816224,0.0126083,-0.0039841,-0.695417,0.0100017,0.0157605,1210,400,7.32417,65.818
-7,624,7.35913,-66.0835,0.00639615,0.00279145,-0.00981517,0.0145731,-0.00538547,-0.694595,0.0119231,0.0215003,1217,400,7.35909,66.0835
0,624,7.38098,-66.3257,0.00652322,0.00248524,-0.010947,0.0156359,-0.00662741,-0.694207,0.0131998,0.0234499,1224,400,7.38097,66.3257
7,624,7.37524,-66.5253,0.0064221,0.00218889,-0.0114805,0.0159794,-0.00736845,-0.694239,0.0137821,0.0170719,1231,400,7.3752,66.5253
14,624,7.49792,-66.7771,0.00620722,0.00208926,-0.0114214,0.0157538,-0.00745729,-0.696219,0.0136833,0.0141146,1238,400,7.49794,66.7771
21,624,7.53174,-66.9365,0.00597711,0.00168972,-0.0110513,0.0150907,-0.00742386,-0.689599,0.0132476,0.0159383,1245,400,7.53168,66.9365
28,624,7.54358,-67.0706,0.00568483,0.00131791,-0.0102126,0.0139448,-0.00694206,-0.680084,0.0122829,0.0159447,1252,400,7.54357,67.0706
35,624,7.59827,-67.1498,0.00500819,0.000965598,-0.00886997,0.0120843,-0.00611047,-0.673371,0.0106918,0.0188068,1259,400,7.59832,67.1498
42,624,7.67004,-67.247,0.00409836,0.000749254,-0.00731163,0.00992475,-0.00507713,-0.672827,0.00881078,0.0187337,1266,400,7.67006,67.247
49,624,7.76733,-67.2901,0.00323931,0.000370957,-0.00561218,0.00759767,-0.00398739,-0.660302,0.00679604,0.0187862,1273,400,7.76729,67.2901
56,624,7.81348,-67.4225,0.00247982,0.000840239,-0.00378518,0.00553296,-0.00221291,-0.678756,0.00460698,0.020435,1280,400,7.81344,67.4225
63,624,7.87512,-67.455,0.00168196,0.00111265,-0.00184536,0.00326449,-0.000469876,-0.708874,0.00234867,0.0171397,1287,400,7.87509,67.455
70,624,7.89124,-67.4687,0.000840951,0.00193319,-0.000307116,0.00201362,0.000760519,-1.31465,0.0011741,0.0152668,1294,400,7.89127,67.4687
77,624,7.94873,-67.4119,-1.58227e-05,0.0032429,0.000961577,0.00350548,-0.000278405,1.30422,0.0024351,0.0161022,1301,400,7.94879,67.4119
84,624,8.00525,-67.3361,-0.000631807,0.00425535,0.00199533,0.00496652,-0.00134297,1.22842,0.00383781,0.0139581,1308,400,8.00528,67.3361
91,624,8.06421,-67.2046,-0.00109055,0.0050425,0.00262371,0.00601174,-0.0020598,1.21693,0.00484272,0.0144831,1315,400,8.0642,67.2046
98,624,8.1178,-67.0835,-0.00137058,0.00576813,0.003003,0.00686335,-0.0024658,1.22108,0.00558209,0.0146149,1322,400,8.1178,67.0835
105,624,8.16284,-66.9636,-0.00129244,0.00641464,0.00346109,0.00774076,-0.00261857,1.2049,0.0062199,0.0156938,1329,400,8.16282,66.9636
112,624,8.19739,-66.8169,-0.00114228,0.00663385,0.00376356,0.00815702,-0.00266545,1.18623,0.00651097,0.0158296,1336,400,8.19734,66.8169
119,624,8.24402,-66.6591,-0.000897936,0.00638772,0.0039708,0.00813353,-0.00264375,1.15657,0.00648577,0.0159333,1343,400,8.24399,66.6591
126,624,8.25439,-66.3742,-0.000514023,0.00626883,0.00398185,0.00810779,-0.00235298,1.13814,0.00633685,0.0198236,1350,400,8.25437,66.3742
133,624,8.33752,-66.0526,-0.000125,0.00591701,0.00387811,0.00781192,-0.00201991,1.1163,0.00599576,0.0207331,1357,400,8.33753,66.0526
140,624,8.34937,-65.8217,0.000449971,0.00549127,0.00371925,0.00746356,-0.00152232,1.08321,0.00555314,0.0198419,1364,400,8.3494,65.8217
147,624,8.3114,-65.497,0.00109999,0.00484724,0.00336281,0.00682315,-0.000875925,1.03956,0.00486709,0.0232042,1371,400,8.3114,65.497
154,624,8.42261,-65.1629,0.00155172,0.00416462,0.0028396,0.00598389,-0.000267552,1.001,0.00408137,0.0256153,1378,400,8.42259,65.1629
161,624,8.47534,-64.8046,0.00194757,0.00337506,0.00204674,0.00482893,0.000493688,0.953166,0.003068,0.024531,1385,400,8.47533,64.8046
168,624,8.4762,-64.3772,0.00226834,0.00265724,0.00156443,0.00403925,0.000886322,0.847228,0.0024514,0.0235788,1392,400,8.4762,64.3772
175,624,8.52832,-64.0102,0.00243292,0.00221145,0.00119861,0.0035259,0.00111847,0.739335,0.00208052,0.0178795,1399,400,8.52831,64.0102
182,624,8.49243,-63.5841,0.0023066,0.00213452,0.000908972,0.00313359,0.00130752,0.738211,0.00181742,0.0118254,1406,400,8.49249,63.5841
189,624,8.45313,-63.1045,0.00190024,0.00249504,0.000775594,0.0030283,0.00136698,0.968475,0.00175114,0.0120107,1413,400,8.45317,63.1045
196,624,8.43579,-62.6333,0.00155964,0.00312327,0.000914112,0.0035443,0.00113861,1.13917,0.00208943,0.0128688,1420,400,8.43578,62.6333
203,624,8.45361,-62.1374,0.00104636,0.00394871,0.00128797,0.00443784,0.000557227,1.20785,0.00279142,0.0161547,1427,400,8.45361,62.1373
210,624,8.46777,-61.6284,0.000437114,0.00445715,0.00160802,0.00502122,-0.000126951,1.23343,0.00339059,0.019274,1434,400,8.46771,61.6284
217,624,8.42188,-61.0863,-3.36871e-06,0.0049674,0.00191051,0.00561685,-0.000652817,1.24312,0.00398006,0.0204437,1441,400,8.42192,61.0863
224,624,8.39514,-60.5399,-0.000315358,0.00555924,0.00221294,0.00629955,-0.00105567,1.24796,0.00459222,0.0161284,1448,400,8.39516,60.5399
231,624,8.39124,-59.9893,-0.000484673,0.00605094,0.00265524,0.0069937,-0.00142743,1.22962,0.00520395,0.0129434,1455,400,8.39128,59.9893
238,624,8.36243,-59.4146,-0.000503284,0.00693268,0.00328678,0.00817718,-0.00174779,1.20884,0.00611785,0.0182466,1462,400,8.36239,59.4147
245,624,8.33972,-58.8355,-0.000629517,0.00774905,0.0037577,0.00918741,-0.00206788,1.20522,0.00691803,0.0187452,1469,400,8.33978,58.8356
252,624,8.27197,-58.1856,-0.000560473,0.00878181,0.00435216,0.0104951,-0.00227375,1.19577,0.00786498,0.0138704,1476,400,8.27202,58.1856
259,624,8.22058,-57.5404,-0.000203605,0.0102474,0.00535181,0.0125017,-0.00245792,1.17213,0.00926315,0.00974208,1483,400,8.22053,57.5404
266,624,8.20166,-56.8687,-9.59542e-05,0.0113903,0.0062016,0.0140996,-0.00280525,1.15891,0.0104609,0.0139743,1490,400,8.20171,56.8687
273,624,8.14526,-56.192,0.000133821,0.0128267,0.0072008,0.0160786,-0.00311811,1.14661,0.0118955,0.0175807,1497,400,8.14532,56.1921
280,624,8.06042,-55.5074,0.000552721,0.014387,0.00828432,0.0182623,-0.00332258,1.13325,0.0134202,0.0162075,1504,400,8.0604,55.5074
287,624,7.99133,-54.8434,0.00110617,0.01625,0.00952208,0.0208438,-0.0034876,1.1213,0.0151924,0.0124393,1511,400,7.99136,54.8434
294,624,7.93396,-54.1158,0.00154737,0.0179909,0.0106658,0.023236,-0.00369775,1.11376,0.016859,0.0113571,1518,400,7.93392,54.1158
301,624,7.85303,-53.3163,0.00198825,0.0196184,0.011757,0.025498,-0.00389133,1.10708,0.0184332,0.0135944,1525,400,7.85308,53.3163
308,624,7.83057,-52.506,0.00255343,0.0216912,0.0128011,0.0281045,-0.00385988,1.10635,0.0201466,0.0203321,1532,400,7.83052,52.506
315,624,7.81506,-51.7652,0.00317739,0.023635,0.0137161,0.0305164,-0.00370407,1.10579,0.0216847,0.0268252,1539,400,7.81504,51.7652
322,624,7.74451,-51.0552,0.00375812,0.0256752,0.0146735,0.0330306,-0.00359731,1.10613,0.0233122,0.048789,1546,400,7.74448,51.0552
329,624,7.70264,-50.347,0,0,0,0,0,0,0,-1,1553,400,7.70259,50.347
336,624,7.53162,-48.9603,0,0,0,0,0,0,0,-1,1560,400,7.53167,48.9603
343,624,6.53369,-39.5615,0,0,0,0,0,0,0,-1,1567,400,6.53364,39.5615
350,624,1.99194,-7.29742,0,0,0,0,0,0,0,-1,1574,400,1.99198,7.29741
357,624,2.64075,-3.13092,0,0,0,0,0,0,0,-1,1581,400,2.64076,3.13091
364,624,3.16565,-4.9458,0,0,0,0,0,0,0,-1,1588,400,3.16564,4.94579
371,624,3.37561,-5.23529,0,0,0,0,0,0,0,-1,1595,400,3.37563,5.23529
378,624,1.50439,-5.22165,0,0,0,0,0,0,0,-1,1602,400,1.50438,5.22164
385,624,1.2301,-10.5866,0,0,0,0,0,0,0,-1,1609,400,1.2301,10.5866
392,624,4.26819,-5.14236,0,0,0,0,0,0,0,-1,1616,400,4.26818,5.14236
399,624,2.22168,-9.19293,0,0,0,0,0,0,0,-1,1623,400,2.22173,9.19294
406,624,2.68213,-9.91171,0,0,0,0,0,0,0,-1,1630,400,2.68213,9.91171
413,624,0,0,0,0,0,0,0,0,0,-1,1637,400,0,0
420,624,0,0,0,0,0,0,0,0,0,-1,1644,400,0,0
427,624,0,0,0,0,0,0,0,0,0,-1,1651,400,0,0
434,624,0,0,0,0,0,0,0,0,0,-1,1658,400,0,0
441,624,0,0,0,0,0,0,0,0,0,-1,1665,400,0,0
448,624,0,0,0,0,0,0,0,0,0,-1,1672,400,0,0
455,624,0,0,0,0,0,0,0,0,0,-1,1679,400,0,0
462,624,0,0,0,0,0,0,0,0,0,-1,1686,400,0,0
469,624,0,0,0,0,0,0,0,0,0,-1,1693,400,0,0
476,624,0,0,0,0,0,0,0,0,0,-1,1700,400,0,0
483,624,0,0,0,0,0,0,0,0,0,-1,1707,400,0,0
490,624,0,0,0,0,0,0,0,0,0,-1,1714,400,0,0
497,624,0,0,0,0,0,0,0,0,0,-1,1721,400,0,0
504,624,0,0,0,0,0,0,0,0,0,-1,1728,400,0,0
511,624,0,0,0,0,0,0,0,0,0,-1,1735,400,0,0
518,624,0,0,0,0,0,0,0,0,0,-1,1742,400,0,0
525,624,0,0,0,0,0,0,0,0,0,-1,1749,400,0,0
532,624,0,0,0,0,0,0,0,0,0,-1,1756,400,0,0
539,624,0,0,0,0,0,0,0,0,0,-1,1763,400,0,0
546,624,0,0,0,0,0,0,0,0,0,-1,1770,400,0,0
553,624,0,0,0,0,0,0,0,0,0,-1,1777,400,0,0
560,624,0,0,0,0,0,0,0,0,0,-1,1784,400,0,0
567,624,0,0,0,0,0,0,0,0,0,-1,1791,400,0,0
574,624,0,0,0,0,0,0,0,0,0,-1,1798,400,0,0
581,624,0,0,0,0,0,0,0,0,0,-1,1805,400,0,0
588,624,0,0,0,0,0,0,0,0,0,-1,1812,400,0,0
595,624,0,0,0,0,0,0,0,0,0,-1,1819,400,0,0
602,624,0,0,0,0,0,0,0,0,0,-1,1826,400,0,0
609,624,0,0,0,0,0,0,0,0,0,-1,1833,400,0,0
616,624,0,0,0,0,0,0,0,0,0,-1,1840,400,0,0
623,624,0,0,0,0,0,0,0,0,0,-1,1847,400,0,0
630,624,0,0,0,0,0,0,0,0,0,-1,1854,400,0,0
637,624,0,0,0,0,0,0,0,0,0,-1,1861,400,0,0
644,624,0,0,0,0,0,0,0,0,0,-1,1868,400,0,0
651,624,0,0,0,0,0,0,0,0,0,-1,1875,400,0,0
658,624,0,0,0,0,0,0,0,0,0,-1,1882,400,0,0
665,624,0,0,0,0,0,0,0,0,0,-1,1889,400,0,0
672,624,0,0,0,0,0,0,0,0,0,-1,1896,400,0,0
679,624,0,0,0,0,0,0,0,0,0,-1,1903,400,0,0
686,624,0,0,0,0,0,0,0,0,0,-1,1910,400,0,0
693,624,0,0,0,0,0,0,0,0,0,-1,1917,400,0,0
700,624,0,0,0,0,0,0,0,0,0,-1,1924,400,0,0
707,624,0,0,0,0,0,0,0,0,0,-1,1931,400,0,0
714,624,0,0,0,0,0,0,0,0,0,-1,1938,400,0,0
721,624,0,0,0,0,0,0,0,0,0,-1,1945,400,0,0
728,624,0,0,0,0,0,0,0,0,0,-1,1952,400,0,0
735,624,0,0,0,0,0,0,0,0,0,-1,1959,400,0,0
742,624,0,0,0,0,0,0,0,0,0,-1,1966,400,0,0
749,624,0,0,0,0,0,0,0,0,0,-1,1973,400,0,0
756,624,0,0,0,0,0,0,0,0,0,-1,1980,400,0,0
763,624,0,0,0,0,0,0,0,0,0,-1,1987,400,0,0
770,624,0,0,0,0,0,0,0,0,0,-1,1994,400,0,0
777,624,0,0,0,0,0,0,0,0,0,-1,2001,400,0,0
784,624,0,0,0,0,0,0,0,0,0,-1,2008,400,0,0
791,624,0,0,0,0,0,0,0,0,0,-1,2015,400,0,0
798,624,0,0,0,0,0,0,0,0,0,-1,2022,400,0,0
805,624,0,0,0,0,0,0,0,0,0,-1,2029,400,0,0
812,624,0,0,0,0,0,0,0,0,0,-1,2036,400,0,0
-700,617,0,0,0,0,0,0,0,0,0,-1,524,407,0,0
-693,617,0,0,0,0,0,0,0,0,0,-1,531,407,0,0
-686,617,0,0,0,0,0,0,0,0,0,-1,538,407,0,0
-679,617,0,0,0,0,0,0,0,0,0,-1,545,407,0,0
-672,617,0,0,0,0,0,0,0,0,0,-1,552,407,0,0
-665,617,0,0,0,0,0,0,0,0,0,-1,559,407,0,0
-658,617,0,0,0,0,0,0,0,0,0,-1,566,407,0,0
-651,617,0,0,0,0,0,0,0,0,0,-1,573,407,0,0
-644,617,0,0,0,0,0,0,0,0,0,-1,580,407,0,0
-637,617,0,0,0,0,0,0,0,0,0,-1,587,407,0,0
-630,617,0,0,0,0,0,0,0,0,0,-1,594,407,0,0
-623,617,0,0,0,0,0,0,0,0,0,-1,601,407,0,0
-616,617,0,0,0,0,0,0,0,0,0,-1,608,407,0,0
-609,617,0,0,0,0,0,0,0,0,0,-1,615,407,0,0
-602,617,0,0,0,0,0,0,0,0,0,-1,622,407,0,0
-595,617,0,0,0,0,0,0,0,0,0,-1,629,407,0,0
-588,617,0,0,0,0,0,0,0,0,0,-1,636,407,0,0
-581,617,0,0,0,0,0,0,0,0,0,-1,643,407,0,0
-574,617,0,0,0,0,0,0,0,0,0,-1,650,407,0,0
-567,617,0,0,0,0,0,0,0,0,0,-1,657,407,0,0
-560,617,0,0,0,0,0,0,0,0,0,-1,664,407,0,0
-553,617,0,0,0,0,0,0,0,0,0,-1,671,407,0,0
-546,617,0,0,0,0,0,0,0,0,0,-1,678,407,0,0
-539,617,0,0,0,0,0,0,0,0,0,-1,685,407,0,0
-532,617,0,0,0,0,0,0,0,0,0,-1,692,407,0,0
-525,617,0,0,0,0,0,0,0,0,0,-1,699,407,0,0
-518,617,0,0,0,0,0,0,0,0,0,-1,706,407,0,0
-511,617,0,0,0,0,0,0,0,0,0,-1,713,407,0,0
-504,617,0,0,0,0,0,0,0,0,0,-1,720,407,0,0
-497,617,0,0,0,0,0,0,0,0,0,-1,727,407,0,0
-490,617,0,0,0,0,0,0,0,0,0,-1,734,407,0,0
-483,617,0,0,0,0,0,0,0,0,0,-1,741,407,0,0
-476,617,0,0,0,0,0,0,0,0,0,-1,748,407,0,0
-469,617,0,0,0,0,0,0,0,0,0,-1,755,407,0,0
-462,617,0,0,0,0,0,0,0,0,0,-1,762,407,0,0
-455,617,0,0,0,0,0,0,0,0,0,-1,769,407,0,0
-448,617,0,0,0,0,0,0,0,0,0,-1,776,407,0,0
-441,617,0,0,0,0,0,0,0,0,0,-1,783,407,0,0
-434,617,0,0,0,0,0,0,0,0,0,-1,790,407,0,0
-427,617,0,0,0,0,0,0,0,0,0,-1,797,407,0,0
-420,617,0,0,0,0,0,0,0,0,0,-1,804,407,0,0
-413,617,0,0,0,0,0,0,0,0,0,-1,811,407,0,0
-406,617,0,0,0,0,0,0,0,0,0,-1,818,407,0,0
-399,617,0,0,0,0,0,0,0,0,0,-1,825,407,0,0
-392,617,0,0,0,0,0,0,0,0,0,-1,832,407,0,0
-385,617,0,0,0,0,0,0,0,0,0,-1,839,407,0,0
-378,617,0,0,0,0,0,0,0,0,0,-1,846,407,0,0
-371,617,0,0,0,0,0,0,0,0,0,-1,853,407,0,0
-364,617,0,0,0,0,0,0,0,0,0,-1,860,407,0,0
-357,617,0,0,0,0,0,0,0,0,0,-1,867,407,0,0
-350,617,0,0,0,0,0,0,0,0,0,-1,874,407,0,0
-343,617,0,0,0,0,0,0,0,0,0,-1,881,407,0,0
-336,617,0,0,0,0,0,0,0,0,0,-1,888,407,0,0
-329,617,0,0,0,0,0,0,0,0,0,-1,895,407,0,0
-322,617,0,0,0,0,0,0,0,0,0,-1,902,407,0,0
-315,617,0,0,0,0,0,0,0,0,0,-1,909,407,0,0
-308,617,0,0,0,0,0,0,0,0,0,-1,916,407,0,0
-301,617,6.81897,-24.525,0,0,0,0,0,0,0,-1,923,407,6.81899,24.525
-294,617,6.19263,-26.917,0,0,0,0,0,0,0,-1,930,407,6.19261,26.917
-287,617,7.00409,-31.9773,0,0,0,0,0,0,0,-1,937,407,7.00406,31.9773
-280,617,9.1106,-36.5021,0,0,0,0,0,0,0,-1,944,407,9.11059,36.5021
-273,617,8.35004,-36.2751,0,0,0,0,0,0,0,-1,951,407,8.35003,36.2751
-266,617,7.61749,-36.1671,0,0,0,0,0,0,0,-1,958,407,7.61746,36.1671
-259,617,6.83643,-36.3605,0,0,0,0,0,0,0,-1,965,407,6.83643,36.3605
-252,617,6.02264,-36.5001,0,0,0,0,0,0,0,-1,972,407,6.02265,36.5001
-245,617,6.72626,-34.4465,0,0,0,0,0,0,0,-1,979,407,6.72627,34.4465
-238,617,5.6474,-34.6842,0,0,0,0,0,0,0,-1,986,407,5.64741,34.6842
-231,617,7.67633,-46.5875,0,0,0,0,0,0,0,-1,993,407,7.67634,46.5875
-224,617,7.61487,-47.7177,0,0,0,0,0,0,0,-1,1000,407,7.61485,47.7177
-217,617,7.66974,-48.7825,0,0,0,0,0,0,0,-1,1007,407,7.66977,48.7825
-210,617,7.57544,-49.7725,-0.00177472,0.0242875,-0.0118567,0.0288743,-0.00636149,-1.20168,0.0216834,0.0321629,1014,407,7.57542,49.7725
-203,617,7.4856,-50.5876,-0.00184314,0.0204491,-0.0106307,0.0247058,-0.00609985,-1.18993,0.018836,0.0257995,1021,407,7.48559,50.5876
-196,617,7.4364,-51.2989,-0.00192728,0.0170722,-0.00949465,0.0210035,-0.0058586,-1.17823,0.0163098,0.0198211,1028,407,7.43638,51.2988
-189,617,7.31702,-52.1571,-0.00185798,0.0148546,-0.00877417,0.018615,-0.00561836,-1.1659,0.0146465,0.0176107,1035,407,7.31703,52.1571
-182,617,7.23315,-52.9169,-0.00179978,0.0128363,-0.00794956,0.0163233,-0.0052868,-1.15743,0.0130077,0.0185778,1042,407,7.23317,52.9169
-175,617,7.22095,-53.6323,-0.00181857,0.0107591,-0.00699708,0.0138781,-0.00493764,-1.15147,0.0112647,0.0167331,1049,407,7.22099,53.6323
-168,617,7.16211,-54.3663,-0.00176442,0.00927242,-0.00620194,0.0120556,-0.00454762,-1.14897,0.0099072,0.0132628,1056,407,7.16206,54.3663
-161,617,7.08887,-55.0966,-0.00157111,0.00816107,-0.00546872,0.0106152,-0.00402524,-1.14898,0.00873343,0.0124794,1063,407,7.08889,55.0966
-154,617,7.04919,-55.7664,-0.00136686,0.00714698,-0.00475676,0.00927349,-0.00349336,-1.1504,0.0076186,0.0126023,1070,407,7.04921,55.7664
-147,617,6.9895,-56.4185,-0.00123343,0.00620166,-0.00407842,0.0080026,-0.00303437,-1.15497,0.00658388,0.0171144,1077,407,6.98956,56.4185
-140,617,6.93628,-57.1344,-0.00103171,0.00524067,-0.00346146,0.00677539,-0.00256643,-1.15347,0.00557299,0.013687,1084,407,6.93626,57.1344
-133,617,6.89673,-57.7596,-0.000774104,0.00443607,-0.00288738,0.00571987,-0.0020579,-1.15242,0.00465345,0.0154806,1091,407,6.89674,57.7597
-126,617,6.86597,-58.3192,-0.000512558,0.00367194,-0.00235736,0.00473162,-0.00157223,-1.14834,0.00378884,0.0149749,1098,407,6.86601,58.3192
-119,617,6.8197,-58.9305,-0.000198583,0.00286587,-0.00183539,0.00372454,-0.00105725,-1.13321,0.0029004,0.0155883,1105,407,6.81966,58.9305
-112,617,6.81873,-59.5161,0.000209375,0.00224474,-0.00145238,0.00300049,-0.000546378,-1.091,0.00220513,0.0170247,1112,407,6.8187,59.5161
-105,617,6.82849,-60.0693,0.00066657,0.0018032,-0.00120989,0.00257161,-0.000101838,-1.00496,0.00174934,0.0181591,1119,407,6.82849,60.0693
-98,617,6.79089,-60.6325,0.00117722,0.00143019,-0.0010036,0.00231524,0.000292169,-0.848082,0.00145591,0.0142116,1126,407,6.79088,60.6325
-91,617,6.79224,-61.1768,0.00172827,0.00115223,-0.000804515,0.00229477,0.000585735,-0.613505,0.00137678,0.0197838,1133,407,6.79226,61.1768
-84,617,6.8114,-61.7444,0.00236778,0.000848443,-0.000615352,0.00258574,0.000630485,-0.340413,0.00155682,0.0191985,1140,407,6.81135,61.7444
-77,617,6.78589,-62.255,0.00304575,0.00054063,-0.000496074,0.00314041,0.000445972,-0.188547,0.00196192,0.0156272,1147,407,6.78593,62.255
-70,617,6.82825,-62.7178,0.00372503,1.33288e-05,-0.000305272,0.00374997,-1.16109e-05,-0.0815158,0.00250386,0.0180031,1154,407,6.82821,62.7178
-63,617,6.89856,-63.1998,0.00457843,0.000220743,-0.000563979,0.00465024,0.000148935,-0.126642,0.00305173,0.0223997,1161,407,6.89857,63.1998
-56,617,6.83032,-63.6365,0.00565164,0.00193207,-0.00224396,0.00670633,0.000877378,-0.439371,0.00420902,0.0170687,1168,407,6.83027,63.6365
-49,617,6.8363,-64.0886,0.00639806,0.00240538,-0.00292785,0.0079454,0.000858041,-0.486179,0.00503534,0.0123444,1175,407,6.83626,64.0886
-42,617,6.8822,-64.4647,0.00706506,0.00471405,-0.00550115,0.0115149,0.000264218,-0.680139,0.00759006,0.0118707,1182,407,6.88214,64.4647
-35,617,6.90491,-64.8126,0.00787271,0.00635424,-0.00849642,0.0156437,-0.00141681,-0.740837,0.0109321,0.0179837,1189,407,6.90492,64.8126
-28,617,6.90759,-65.1641,0.00878106,0.00727696,-0.0115862,0.0196396,-0.00358157,-0.752989,0.0144358,0.0202494,1196,407,6.90764,65.1641
-21,617,6.99487,-65.4709,0.00974942,0.00819103,-0.0147894,0.0237802,-0.00583971,-0.759079,0.0181165,0.0140924,1203,407,6.99489,65.4708
-14,617,7.04492,-65.7598,0.0105091,0.00901522,-0.0177137,0.0274916,-0.00796727,-0.764327,0.0214818,0.0163748,1210,407,7.04494,65.7598
-7,617,7.06824,-65.9841,0.0110931,0.00900648,-0.0200436,0.0301205,-0.010021,-0.759396,0.0241247,0.0198268,1217,407,7.06818,65.9841
0,617,7.13196,-66.2253,0.0109407,0.00840913,-0.0211989,0.0309116,-0.0115618,-0.755579,0.0253561,0.0173977,1224,407,7.132,66.2253
7,617,7.22693,-66.5453,0.0105533,0.00740959,-0.0214296,0.0304686,-0.0125057,-0.748789,0.0255235,0.0137468,1231,407,7.22692,66.5454
14,617,7.30139,-66.7797,0.0100095,0.00691768,-0.0207513,0.0292724,-0.0123452,-0.748218,0.0246815,0.0163792,1238,407,7.30136,66.7797
21,617,7.37842,-66.9126,0.00945856,0.00588088,-0.0196629,0.0274139,-0.0120744,-0.740035,0.0233649,0.0149397,1245,407,7.3784,66.9126
28,617,7.42847,-67.0876,0.00882899,0.00488622,-0.0179143,0.0248801,-0.0111649,-0.730596,0.0213068,0.0141601,1252,407,7.42847,67.0876
35,617,7.43188,-67.2338,0.00773064,0.00392241,-0.0154325,0.0213761,-0.009723,-0.724017,0.0183704,0.0164868,1259,407,7.43189,67.2338
42,617,7.60022,-67.2693,0.00634513,0.00283465,-0.0126764,0.0173872,-0.00820746,-0.716603,0.0150906,0.0221192,1266,407,7.60025,67.2693
49,617,7.73376,-67.3203,0.00506415,0.00166412,-0.00978005,0.0132908,-0.00656258,-0.699346,0.0116797,0.0215353,1273,407,7.73381,67.3203
56,617,7.79065,-67.3911,0.00400993,0.00184501,-0.0069685,0.00997954,-0.0041246,-0.708346,0.00837364,0.0160834,1280,407,7.79063,67.3911
63,617,7.81885,-67.4338,0.00291145,0.00169238,-0.00403603,0.0063837,-0.00177988,-0.710453,0.00495679,0.0125138,1287,407,7.8188,67.4338
70,617,7.90271,-67.4543,0.00171405,0.00229271,-0.00166628,0.00369459,0.000312169,-0.871361,0.00236588,0.0185366,1294,407,7.90271,67.4543
77,617,8.03589,-67.3829,0.000470017,0.00350166,0.000300263,0.00353112,0.000440564,1.47302,0.00222183,0.0179515,1301,407,8.03587,67.3829
84,617,8.1095,-67.3058,-0.000497028,0.00436811,0.00212313,0.00516433,-0.00129324,1.21201,0.00394526,0.0134652,1308,407,8.10949,67.3057
91,617,8.16553,-67.215,-0.00120982,0.0051949,0.00337346,0.00664392,-0.00265883,1.16509,0.00553278,0.0117028,1315,407,8.16557,67.215
98,617,8.24683,-67.095,-0.00173297,0.00602961,0.00415041,0.00783078,-0.00353413,1.16135,0.00671602,0.0124598,1322,407,8.24686,67.095
105,617,8.34021,-66.9492,-0.00183443,0.00679702,0.00496231,0.00905777,-0.00409518,1.14331,0.00777194,0.0145455,1329,407,8.34017,66.9492
112,617,8.42346,-66.8217,-0.00183215,0.00732413,0.00555464,0.00994414,-0.00445217,1.13006,0.00851092,0.0183071,1336,407,8.42341,66.8217
119,617,8.46948,-66.6258,-0.00171631,0.00704895,0.00608687,0.0101668,-0.00483417,1.09741,0.00884136,0.0208177,1343,407,8.46943,66.6258
126,617,8.52588,-66.3455,-0.0012979,0.00716977,0.00621145,0.0104531,-0.00458121,1.08454,0.00889799,0.0226131,1350,407,8.52589,66.3455
133,617,8.61914,-66.0468,-0.000777779,0.00682961,0.00612251,0.0102338,-0.00418194,1.06335,0.0085639,0.0201173,1357,407,8.61917,66.0468
140,617,8.68506,-65.796,6.85483e-05,0.00619231,0.00586084,0.00974288,-0.00348202,1.02611,0.00791547,0.0171845,1364,407,8.68505,65.796
147,617,8.68152,-65.4924,0.0011038,0.00523813,0.00532545,0.00888354,-0.00254162,0.97053,0.00692678,0.0198278,1371,407,8.68149,65.4924
154,617,8.80334,-65.1794,0.001928,0.00411839,0.00445851,0.00761425,-0.00156786,0.905835,0.00567149,0.0229728,1378,407,8.80328,65.1794
161,617,8.85742,-64.8423,0.0027156,0.00263203,0.00300825,0.00568235,-0.000334722,0.778454,0.00390459,0.0250145,1385,407,8.85748,64.8423
168,617,8.87805,-64.4805,0.00352905,0.00113168,0.00202261,0.00468149,-2.07636e-05,0.517902,0.00312794,0.0227875,1392,407,8.87804,64.4805
175,617,8.90881,-64.0797,0.00423183,-7.91397e-05,0.00115985,0.00452408,-0.00037138,0.246827,0.00314716,0.0180731,1399,407,8.90885,64.0797
182,617,8.94409,-63.5923,0.00451904,-0.000827884,0.000348292,0.00454163,-0.000850476,0.0647739,0.00334745,0.0121742,1406,407,8.94415,63.5923
189,617,8.92102,-63.1266,0.00421587,-0.000943971,-0.000424974,0.00425063,-0.000978739,-0.0816288,0.00321013,0.0122566,1413,407,8.92104,63.1266
196,617,8.90063,-62.6532,0.00391132,-0.000670489,-0.000778897,0.00404011,-0.000799279,-0.163867,0.00299559,0.0165856,1420,407,8.90062,62.6532
203,617,8.90222,-62.1707,0.00335621,0.00055716,-0.000326701,0.00339384,0.000519534,-0.114665,0.0021108,0.0172221,1427,407,8.90216,62.1707
210,617,8.94019,-61.6418,0.00260264,0.00144085,9.6935e-05,0.00261067,0.00143282,0.0826741,0.00150967,0.0160477,1434,407,8.94022,61.6418
217,617,8.95459,-61.0813,0.00197982,0.00223938,0.000534419,0.00265955,0.00155965,0.904514,0.00154312,0.0201219,1441,407,8.95463,61.0813
224,617,8.93921,-60.5536,0.00148273,0.00297696,0.00096262,0.00344838,0.00101132,1.1154,0.00204686,0.0201177,1448,407,8.9392,60.5536
231,617,8.95374,-59.9901,0.00108982,0.00360176,0.00148817,0.00429313,0.000398459,1.13589,0.00273894,0.0160814,1455,407,8.95377,59.9901
238,617,8.93848,-59.4272,0.000910495,0.00433181,0.00201719,0.00526603,-2.37324e-05,1.13708,0.00351863,0.0167401,1462,407,8.93845,59.4272
245,617,8.92981,-58.8493,0.000706417,0.00504285,0.00243365,0.00613405,-0.000384785,1.14929,0.00422348,0.0140018,1469,407,8.92975,58.8493
252,617,8.90027,-58.1933,0.000570953,0.00590757,0.00293003,0.00720221,-0.000723687,1.15474,0.00505998,0.0149814,1476,407,8.90024,58.1933
259,617,8.83447,-57.5406,0.000604113,0.00704411,0.00370324,0.00873149,-0.00108327,1.14325,0.00621364,0.0122544,1483,407,8.83449,57.5406
266,617,8.79333,-56.8692,0.000516155,0.00798431,0.00438316,0.0100083,-0.00150784,1.1382,0.00722744,0.0145441,1490,407,8.79336,56.8692
273,617,8.76917,-56.1796,0.000530459,0.00917447,0.0051592,0.0115828,-0.00187784,1.13406,0.00841791,0.0156506,1497,407,8.76917,56.1796
280,617,8.69897,-55.498,0.000695095,0.0104692,0.0060132,0.0133308,-0.00216651,1.12662,0.00969046,0.01418,1504,407,8.69903,55.4981
287,617,8.62878,-54.8177,0.000984983,0.0119949,0.00698869,0.0153864,-0.00240647,1.119,0.0111467,0.0131722,1511,407,8.62876,54.8177
294,617,8.59302,-54.1049,0.00118129,0.0134144,0.00787838,0.0172718,-0.00267618,1.11548,0.0125025,0.0112836,1518,407,8.59301,54.1049
301,617,8.54773,-53.3672,0.0013685,0.0147597,0.00873186,0.0190676,-0.00293937,1.11248,0.0137963,0.0089361,1525,407,8.54775,53.3671
308,617,8.47009,-52.6274,0.00166233,0.0164899,0.00954948,0.0211656,-0.00301342,1.11548,0.0152147,0.00894523,1532,407,8.47007,52.6274
315,617,8.3905,-51.8826,0.00202319,0.0180993,0.0102672,0.0231007,-0.00297814,1.11751,0.0164831,0.0106278,1539,407,8.39047,51.8826
322,617,8.3103,-51.1028,0.00229167,0.0197137,0.0109819,0.0250199,-0.00301455,1.12069,0.0177703,0.0168884,1546,407,8.3103,51.1028
329,617,8.28503,-50.3245,0.00254354,0.0212509,0.0116532,0.0268401,-0.0030456,1.12358,0.0189902,0.0225625,1553,407,8.28498,50.3245
336,617,8.33411,-49.3315,0.00290534,0.0231683,0.0123558,0.0290153,-0.00294172,1.1288,0.020395,0.0446227,1560,407,8.33416,49.3316
343,617,8.33752,-48.5407,0,0,0,0,0,0,0,-1,1567,407,8.33755,48.5407
350,617,8.00427,-47.8378,0,0,0,0,0,0,0,-1,1574,407,8.00428,47.8378
357,617,7.98706,-46.4435,0,0,0,0,0,0,0,-1,1581,407,7.98703,46.4435
364,617,8.14282,-45.9234,0,0,0,0,0,0,0,-1,1588,407,8.14276,45.9234
371,617,2.60266,-6.20667,0,0,0,0,0,0,0,-1,1595,407,2.60261,6.20668
378,617,1.56921,-10.3601,0,0,0,0,0,0,0,-1,1602,407,1.56918,10.3601
385,617,1.74146,-10.3561,0,0,0,0,0,0,0,-1,1609,407,1.7414,10.3561
392,617,1.96936,-5.10449,0,0,0,0,0,0,0,-1,1616,407,1.96931,5.10451
399,617,2.48889,-5.81256,0,0,0,0,0,0,0,-1,1623,407,2.48888,5.81255
406,617,3.01465,-6.51642,0,0,0,0,0,0,0,-1,1630,407,3.01461,6.51643
413,617,3.6427,-7.2074,0,0,0,0,0,0,0,-1,1637,407,3.64274,7.20739
420,617,3.42737,-4.47391,0,0,0,0,0,0,0,-1,1644,407,3.42737,4.47391
427,617,0,0,0,0,0,0,0,0,0,-1,1651,407,0,0
434,617,0,0,0,0,0,0,0,0,0,-1,1658,407,0,0
441,617,0,0,0,0,0,0,0,0,0,-1,1665,407,0,0
448,617,0,0,0,0,0,0,0,0,0,-1,1672,407,0,0
455,617,0,0,0,0,0,0,0,0,0,-1,1679,407,0,0
462,617,0,0,0,0,0,0,0,0,0,-1,1686,407,0,0
469,617,0,0,0,0,0,0,0,0,0,-1,1693,407,0,0
476,617,0,0,0,0,0,0,0,0,0,-1,1700,407,0,0
483,617,0,0,0,0,0,0,0,0,0,-1,1707,407,0,0
490,617,0,0,0,0,0,0,0,0,0,-1,1714,407,0,0
497,617,0,0,0,0,0,0,0,0,0,-1,1721,407,0,0
504,617,0,0,0,0,0,0,0,0,0,-1,1728,407,0,0
511,617,0,0,0,0,0,0,0,0,0,-1,1735,407,0,0
518,617,0,0,0,0,0,0,0,0,0,-1,1742,407,0,0
525,617,0,0,0,0,0,0,0,0,0,-1,1749,407,0,0
532,617,0,0,0,0,0,0,0,0,0,-1,1756,407,0,0
539,617,0,0,0,0,0,0,0,0,0,-1,1763,407,0,0
546,617,0,0,0,0,0,0,0,0,0,-1,1770,407,0,0
553,617,0,0,0,0,0,0,0,0,0,-1,1777,407,0,0
560,617,0,0,0,0,0,0,0,0,0,-1,1784,407,0,0
567,617,0,0,0,0,0,0,0,0,0,-1,1791,407,0,0
574,617,0,0,0,0,0,0,0,0,0,-1,1798,407,0,0
581,617,0,0,0,0,0,0,0,0,0,-1,1805,407,0,0
588,617,0,0,0,0,0,0,0,0,0,-1,1812,407,0,0
595,617,0,0,0,0,0,0,0,0,0,-1,1819,407,0,0
602,617,0,0,0,0,0,0,0,0,0,-1,1826,407,0,0
609,617,0,0,0,0,0,0,0,0,0,-1,1833,407,0,0
616,617,0,0,0,0,0,0,0,0,0,-1,1840,407,0,0
623,617,0,0,0,0,0,0,0,0,0,-1,1847,407,0,0
630,617,0,0,0,0,0,0,0,0,0,-1,1854,407,0,0
637,617,0,0,0,0,0,0,0,0,0,-1,1861,407,0,0
644,617,0,0,0,0,0,0,0,0,0,-1,1868,407,0,0
651,617,0,0,0,0,0,0,0,0,0,-1,1875,407,0,0
658,617,0,0,0,0,0,0,0,0,0,-1,1882,407,0,0
665,617,0,0,0,0,0,0,0,0,0,-1,1889,407,0,0
672,617,0,0,0,0,0,0,0,0,0,-1,1896,407,0,0
679,617,0,0,0,0,0,0,0,0,0,-1,1903,407,0,0
686,617,0,0,0,0,0,0,0,0,0,-1,1910,407,0,0
693,617,0,0,0,0,0,0,0,0,0,-1,1917,407,0,0
700,617,0,0,0,0,0,0,0,0,0,-1,1924,407,0,0
707,617,0,0,0,0,0,0,0,0,0,-1,1931,407,0,0
714,617,0,0,0,0,0,0,0,0,0,-1,1938,407,0,0
721,617,0,0,0,0,0,0,0,0,0,-1,1945,407,0,0
728,617,0,0,0,0,0,0,0,0,0,-1,1952,407,0,0
735,617,0,0,0,0,0,0,0,0,0,-1,1959,407,0,0
742,617,0,0,0,0,0,0,0,0,0,-1,1966,407,0,0
749,617,0,0,0,0,0,0,0,0,0,-1,1973,407,0,0
756,617,0,0,0,0,0,0,0,0,0,-1,1980,407,0,0
763,617,0,0,0,0,0,0,0,0,0,-1,1987,407,0,0
770,617,0,0,0,0,0,0,0,0,0,-1,1994,407,0,0
777,617,0,0,0,0,0,0,0,0,0,-1,2001,407,0,0
784,617,0,0,0,0,0,0,0,0,0,-1,2008,407,0,0
791,617,0,0,0,0,0,0,0,0,0,-1,2015,407,0,0
798,617,0,0,0,0,0,0,0,0,0,-1,2022,407,0,0
805,617,0,0,0,0,0,0,0,0,0,-1,2029,407,0,0
812,617,0,0,0,0,0,0,0,0,0,-1,2036,407,0,0
-700,610,0,0,0,0,0,0,0,0,0,-1,524,414,0,0
-693,610,0,0,0,0,0,0,0,0,0,-1,531,414,0,0
-686,610,0,0,0,0,0,0,0,0,0,-1,538,414,0,0
-679,610,0,0,0,0,0,0,0,0,0,-1,545,414,0,0
-672,610,0,0,0,0,0,0,0,0,0,-1,552,414,0,0
-665,610,0,0,0,0,0,0,0,0,0,-1,559,414,0,0
-658,610,0,0,0,0,0,0,0,0,0,-1,566,414,0,0
-651,610,0,0,0,0,0,0,0,0,0,-1,573,414,0,0
-644,610,0,0,0,0,0,0,0,0,0,-1,580,414,0,0
-637,610,0,0,0,0,0,0,0,0,0,-1,587,414,0,0
-630,610,0,0,0,0,0,0,0,0,0,-1,594,414,0,0
-623,610,0,0,0,0,0,0,0,0,0,-1,601,414,0,0
-616,610,0,0,0,0,0,0,0,0,0,-1,608,414,0,0
-609,610,0,0,0,0,0,0,0,0,0,-1,615,414,0,0
-602,610,0,0,0,0,0,0,0,0,0,-1,622,414,0,0
-595,610,0,0,0,0,0,0,0,0,0,-1,629,414,0,0
-588,610,0,0,0,0,0,0,0,0,0,-1,636,414,0,0
-581,610,0,0,0,0,0,0,0,0,0,-1,643,414,0,0
-574,610,0,0,0,0,0,0,0,0,0,-1,650,414,0,0
-567,610,0,0,0,0,0,0,0,0,0,-1,657,414,0,0
-560,610,0,0,0,0,0,0,0,0,0,-1,664,414,0,0
-553,610,0,0,0,0,0,0,0,0,0,-1,671,414,0,0
-546,610,0,0,0,0,0,0,0,0,0,-1,678,414,0,0
-539,610,0,0,0,0,0,0,0,0,0,-1,685,414,0,0
-532,610,0,0,0,0,0,0,0,0,0,-1,692,414,0,0
-525,610,0,0,0,0,0,0,0,0,0,-1,699,414,0,0
-518,610,0,0,0,0,0,0,0,0,0,-1,706,414,0,0
-511,610,0,0,0,0,0,0,0,0,0,-1,713,414,0,0
-504,610,0,0,0,0,0,0,0,0,0,-1,720,414,0,0
-497,610,0,0,0,0,0,0,0,0,0,-1,727,414,0,0
-490,610,0,0,0,0,0,0,0,0,0,-1,734,414,0,0
-483,610,0,0,0,0,0,0,0,0,0,-1,741,414,0,0
-476,610,0,0,0,0,0,0,0,0,0,-1,748,414,0,0
-469,610,0,0,0,0,0,0,0,0,0,-1,755,414,0,0
-462,610,0,0,0,0,0,0,0,0,0,-1,762,414,0,0
-455,610,0,0,0,0,0,0,0,0,0,-1,769,414,0,0
-448,610,0,0,0,0,0,0,0,0,0,-1,776,414,0,0
-441,610,0,0,0,0,0,0,0,0,0,-1,783,414,0,0
-434,610,0,0,0,0,0,0,0,0,0,-1,790,414,0,0
-427,610,0,0,0,0,0,0,0,0,0,-1,797,414,0,0
-420,610,0,0,0,0,0,0,0,0,0,-1,804,414,0,0
-413,610,0,0,0,0,0,0,0,0,0,-1,811,414,0,0
-406,610,0,0,0,0,0,0,0,0,0,-1,818,414,0,0
-399,610,0,0,0,0,0,0,0,0,0,-1,825,414,0,0
-392,610,0,0,0,0,0,0,0,0,0,-1,832,414,0,0
-385,610,0,0,0,0,0,0,0,0,0,-1,839,414,0,0
-378,610,0,0,0,0,0,0,0,0,0,-1,846,414,0,0
-371,610,0,0,0,0,0,0,0,0,0,-1,853,414,0,0
-364,610,0,0,0,0,0,0,0,0,0,-1,860,414,0,0
-357,610,0,0,0,0,0,0,0,0,0,-1,867,414,0,0
-350,610,0,0,0,0,0,0,0,0,0,-1,874,414,0,0
-343,610,0,0,0,0,0,0,0,0,0,-1,881,414,0,0
-336,610,0,0,0,0,0,0,0,0,0,-1,888,414,0,0
-329,610,0,0,0,0,0,0,0,0,0,-1,895,414,0,0
-322,610,0,0,0,0,0,0,0,0,0,-1,902,414,0,0
-315,610,7.68475,-21.5402,0,0,0,0,0,0,0,-1,909,414,7.68475,21.5402
-308,610,3.97211,-23.4133,0,0,0,0,0,0,0,-1,916,414,3.9721,23.4133
-301,610,7.38513,-22.4166,0,0,0,0,0,0,0,-1,923,414,7.38516,22.4166
-294,610,6.77832,-24.1945,0,0,0,0,0,0,0,-1,930,414,6.77829,24.1946
-287,610,3.39276,-28.5804,0,0,0,0,0,0,0,-1,937,414,3.39276,28.5803
-280,610,8.8728,-35.4336,0,0,0,0,0,0,0,-1,944,414,8.87283,35.4336
-273,610,8.14722,-35.5264,0,0,0,0,0,0,0,-1,951,414,8.14723,35.5264
-266,610,7.38361,-35.6366,0,0,0,0,0,0,0,-1,958,414,7.38359,35.6366
-259,610,6.47375,-35.762,0,0,0,0,0,0,0,-1,965,414,6.47373,35.762
-252,610,5.65308,-35.8931,0,0,0,0,0,0,0,-1,972,414,5.65305,35.8931
-245,610,7.40894,-45.4282,0,0,0,0,0,0,0,-1,979,414,7.40896,45.4282
-238,610,7.0401,-46.1017,0,0,0,0,0,0,0,-1,986,414,7.04011,46.1016
-231,610,6.97028,-46.9894,-0.00184455,0.0282079,-0.0121735,0.0325203,-0.00615694,-1.23035,0.0239972,0.0483308,993,414,6.97025,46.9894
-224,610,6.9425,-48.0066,-0.00166581,0.0251748,-0.0111068,0.0291748,-0.00566576,-1.22512,0.0215877,0.0318367,1000,414,6.9425,48.0066
-217,610,6.92078,-48.9655,-0.00152372,0.021957,-0.010085,0.0256938,-0.00526054,-1.21595,0.0191254,0.021364,1007,414,6.92078,48.9655
-210,610,6.854,-49.8882,-0.00144371,0.0189349,-0.00910482,0.0224102,-0.00491894,-1.20617,0.0168212,0.0146296,1014,414,6.85398,49.8882
-203,610,6.79944,-50.6911,-0.00138659,0.015953,-0.00812215,0.0191632,-0.0045968,-1.1944,0.0145518,0.0162808,1021,414,6.79949,50.6911
-196,610,6.72131,-51.4294,-0.00133072,0.0132348,-0.00721413,0.016203,-0.00429893,-1.18046,0.0124842,0.0156523,1028,414,6.72137,51.4294
-189,610,6.64807,-52.1925,-0.00116422,0.0111797,-0.00659119,0.0140375,-0.00402204,-1.16168,0.0109481,0.0131877,1035,414,6.64809,52.1925
-182,610,6.60535,-52.915,-0.000994873,0.00931297,-0.00588711,0.0119834,-0.00366533,-1.14494,0.0094507,0.0142104,1042,414,6.60535,52.915
-175,610,6.57129,-53.6273,-0.000892885,0.00740015,-0.00507543,0.00980753,-0.00330027,-1.1279,0.00787251,0.0150712,1049,414,6.57135,53.6273
-168,610,6.48975,-54.3578,-0.000748594,0.00599589,-0.00438428,0.00815482,-0.00290753,-1.11323,0.00662202,0.0141101,1056,414,6.4898,54.3578
-161,610,6.43323,-55.1083,-0.000488227,0.00490974,-0.00373234,0.00681672,-0.00239521,-1.09844,0.00551894,0.0133329,1063,414,6.43324,55.1083
-154,610,6.41553,-55.758,-0.000202649,0.00393753,-0.00308118,0.00557945,-0.00184456,-1.08119,0.0044634,0.0165071,1070,414,6.41552,55.7579
-147,610,6.37891,-56.3677,5.33533e-05,0.00307339,-0.00247621,0.00446368,-0.00133693,-1.0592,0.00350741,0.0178304,1077,414,6.37891,56.3677
-140,610,6.32568,-57.0866,0.000351651,0.00220827,-0.00192107,0.00341356,-0.000853647,-1.01047,0.00260726,0.0144412,1084,414,6.32571,57.0866
-133,610,6.29895,-57.7118,0.00069139,0.00150876,-0.00141799,0.00257578,-0.000375638,-0.925702,0.00185512,0.0154961,1091,414,6.29899,57.7118
-126,610,6.26965,-58.2797,0.00107778,0.000916288,-0.00098967,0.00198999,4.07349e-06,-0.744695,0.0013253,0.0134064,1098,414,6.26962,58.2797
-119,610,6.25073,-58.8891,0.00156814,0.00036404,-0.000597155,0.00181407,0.000118117,-0.390657,0.00117199,0.011739,1105,414,6.25072,58.8891
-112,610,6.2533,-59.4788,0.00212963,-8.80531e-06,-0.000338619,0.00218197,-6.11445e-05,-0.153352,0.00147545,0.0207961,1112,414,6.2533,59.4788
-105,610,6.22534,-60.0409,0.00270995,-0.000202479,-0.000211175,0.00272518,-0.000217711,-0.0720064,0.00189353,0.0209812,1119,414,6.2253,60.0409
-98,610,6.24097,-60.6031,0.00333908,-0.000377502,-0.000110242,0.00334235,-0.000380769,-0.0296274,0.00236539,0.0147201,1126,414,6.24099,60.6031
-91,610,6.25464,-61.1683,0.00401935,-0.000458175,-1.39383e-05,0.00401939,-0.000458218,-0.00311291,0.00284466,0.016207,1133,414,6.2546,61.1683
-84,610,6.26672,-61.701,0.00485814,-0.000380497,7.77877e-06,0.00485815,-0.000380509,0.00148488,0.00337276,0.0157901,1140,414,6.26667,61.701
-77,610,6.27112,-62.2596,0.00573864,-0.000632011,2.57846e-05,0.00573874,-0.000632116,0.00404732,0.004053,0.0135192,1147,414,6.27114,62.2596
-70,610,6.32593,-62.7472,0.00660538,-0.00132651,0.000223776,0.00661169,-0.00133282,0.0281823,0.00491271,0.0168489,1154,414,6.32587,62.7472
-63,610,6.36877,-63.1815,0.0078375,7.31831e-05,-0.000751281,0.00790952,1.1567e-06,-0.0955793,0.00527263,0.0169762,1161,414,6.36873,63.1815
-56,610,6.40088,-63.624,0.00957741,0.00461696,-0.00473607,0.0124434,0.00175098,-0.544189,0.00777791,0.0157173,1168,414,6.40093,63.624
-49,610,6.42456,-64.042,0.0105771,0.00619334,-0.00632042,0.0150749,0.00169552,-0.61849,0.00953516,0.0146852,1175,414,6.42451,64.042
-42,610,6.48572,-64.4092,0.0112671,0.01093,-0.0112742,0.0223741,-0.00017695,-0.777924,0.0149754,0.015557,1182,414,6.48573,64.4092
-35,610,6.55847,-64.7774,0.0122369,0.0139119,-0.016512,0.0296076,-0.0034588,-0.810736,0.0209866,0.017127,1189,414,6.55844,64.7774
-28,610,6.61548,-65.1225,0.0134165,0.0156256,-0.0214921,0.0360415,-0.00699937,-0.811072,0.0266687,0.0151705,1196,414,6.6155,65.1225
-21,610,6.68591,-65.4144,0.0142939,0.0176289,-0.0260973,0.042112,-0.0101891,-0.817303,0.0320161,0.0117696,1203,414,6.68592,65.4144
-14,610,6.7395,-65.6986,0.0147493,0.0190851,-0.0299535,0.046949,-0.0131147,-0.821523,0.0364657,0.013666,1210,414,6.73953,65.6986
-7,610,6.83105,-65.9391,0.0148724,0.019581,-0.0327768,0.050088,-0.0156346,-0.821251,0.0396448,0.0165679,1217,414,6.83103,65.939
0,610,6.90723,-66.2135,0.0141216,0.0190097,-0.0335961,0.0502505,-0.0171193,-0.821708,0.0404334,0.0133661,1224,414,6.90719,66.2135
7,610,6.99634,-66.5149,0.0132956,0.0177664,-0.0331518,0.0487581,-0.0176961,-0.819062,0.0397399,0.0172645,1231,414,6.99628,66.5149
14,610,7.21594,-66.6496,0.012257,0.0176156,-0.0314636,0.0465137,-0.0166411,-0.827873,0.0377977,0.0248482,1238,414,7.21596,66.6496
21,610,7.27148,-66.7527,0.0110771,0.0162804,-0.0290277,0.0428228,-0.0154653,-0.830092,0.0348663,0.0239932,1245,414,7.27147,66.7527
28,610,7.25061,-66.963,0.00999229,0.014992,-0.0260131,0.0386251,-0.0136408,-0.833301,0.0313039,0.0202137,1252,414,7.25057,66.9629
35,610,7.43201,-67.1419,0.00841346,0.0135467,-0.0220488,0.0331777,-0.0112176,-0.843341,0.0266564,0.022212,1259,414,7.43198,67.1419
42,610,7.48157,-67.1842,0.0065778,0.0116993,-0.0178027,0.0271245,-0.00884735,-0.856829,0.0216435,0.0210904,1266,414,7.48161,67.1842
49,610,7.54565,-67.283,0.00490337,0.00973605,-0.0134819,0.0210164,-0.00637698,-0.874071,0.0165513,0.0226292,1273,414,7.54562,67.283
56,610,7.64099,-67.3179,0.00361195,0.00917578,-0.00940891,0.0162054,-0.00341769,-0.929137,0.0121048,0.0227152,1280,414,7.64097,67.3179
63,610,7.71985,-67.3683,0.00244783,0.00805461,-0.00538901,0.0113258,-0.000823347,-1.02524,0.0078394,0.0302913,1287,414,7.71989,67.3683
70,610,7.89258,-67.3437,0.00123612,0.00772482,-0.00218369,0.00839126,0.000569671,-1.27458,0.00541429,0.0435085,1294,414,7.89262,67.3437
77,610,8.12244,-67.3496,0,0,0,0,0,0,0,-1,1301,414,8.1224,67.3496
84,610,8.20898,-67.0787,-0.00110219,0.0080866,0.0029744,0.00896537,-0.00198096,1.28352,0.00673505,0.0460993,1308,414,8.20901,67.0787
91,610,8.23413,-67.2209,-0.00172984,0.00818562,0.00475974,0.0101006,-0.00364483,1.18828,0.00822252,0.0313591,1315,414,8.23407,67.2209
98,610,8.43994,-67.149,-0.00216623,0.00845863,0.00587879,0.0110697,-0.00477732,1.15281,0.00938664,0.0269186,1322,414,8.43997,67.149
105,610,8.56897,-66.9202,-0.00221749,0.00891515,0.00697973,0.0122763,-0.00557869,1.122,0.0105476,0.0230078,1329,414,8.56894,66.9202
112,610,8.64465,-66.7361,-0.00224598,0.00933367,0.00781173,0.0132673,-0.0061796,1.10431,0.0114735,0.0153514,1336,414,8.64466,66.736
119,610,8.71533,-66.5684,-0.0020834,0.00861038,0.00860497,0.0133944,-0.0068674,1.06339,0.0118987,0.0210706,1343,414,8.7153,66.5684
126,610,8.84985,-66.3107,-0.00144122,0.00914156,0.00870382,0.0140362,-0.00633586,1.05852,0.0120386,0.0297926,1350,414,8.8498,66.3107
133,610,8.94897,-66.0652,-0.00084808,0.00903589,0.00878906,0.0141771,-0.00598929,1.04151,0.0119587,0.0230365,1357,414,8.94895,66.0652
140,610,9.01599,-65.8169,0.000178102,0.00844458,0.0086107,0.0138627,-0.00523999,1.00916,0.0113973,0.0201486,1364,414,9.01603,65.8169
147,610,9.01953,-65.4545,0.00147429,0.00756105,0.00807566,0.0131478,-0.00411242,0.965598,0.0104104,0.0210434,1371,414,9.01952,65.4545
154,610,9.07019,-65.0867,0.00253196,0.00626514,0.00699623,0.0116395,-0.0028424,0.915761,0.00886044,0.0249513,1378,414,9.07017,65.0867
161,610,9.18079,-64.7387,0.00359182,0.00422327,0.00492504,0.00884269,-0.00102761,0.817407,0.00626582,0.0297544,1385,414,9.18078,64.7387
168,610,9.2312,-64.3997,0.00462098,0.00199208,0.00355965,0.00710112,-0.000488054,0.608532,0.00490486,0.0281724,1392,414,9.23114,64.3997
175,610,9.30457,-64.0133,0.00575036,-0.000123338,0.00218538,0.00647424,-0.000847223,0.319865,0.00462451,0.0224893,1399,414,9.3046,64.0133
182,610,9.38782,-63.5853,0.0066731,-0.00204781,0.000599483,0.00671411,-0.00208882,0.0683127,0.00531108,0.0167157,1406,414,9.38784,63.5853
189,610,9.3844,-63.0975,0.00657443,-0.00325642,-0.00123224,0.00672653,-0.00340852,-0.122814,0.00595508,0.015193,1413,414,9.3844,63.0975
196,610,9.42273,-62.6274,0.00637074,-0.00398191,-0.00244101,0.00691742,-0.00452859,-0.220324,0.00665616,0.0154969,1420,414,9.42268,62.6274
203,610,9.43457,-62.1189,0.00573215,-0.0024814,-0.00190536,0.00615263,-0.00290188,-0.217199,0.00533874,0.0172912,1427,414,9.4346,62.1189
210,610,9.42834,-61.6605,0.00476659,-0.00142126,-0.00140978,0.00507264,-0.00172731,-0.213775,0.00408125,0.0127855,1434,414,9.42836,61.6605
217,610,9.50208,-61.0866,0.00393534,-0.00038678,-0.00083419,0.00409076,-0.000542194,-0.184194,0.0029247,0.0188814,1441,414,9.50205,61.0866
224,610,9.53259,-60.5498,0.00325529,0.000548568,-0.000272093,0.00328237,0.000521486,-0.0992026,0.00203679,0.022422,1448,414,9.53264,60.5498
231,610,9.53284,-59.9858,0.00265898,0.00133941,0.000370852,0.00275606,0.00124233,0.256035,0.00159378,0.017799,1455,414,9.53286,59.9858
238,610,9.49805,-59.3867,0.00227867,0.00192721,0.000830744,0.00295207,0.00125381,0.681166,0.0017108,0.0128467,1462,414,9.49806,59.3867
245,610,9.50684,-58.7729,0.00198151,0.00245867,0.00121371,0.00345702,0.000983152,0.882446,0.00205684,0.0129669,1469,414,9.50682,58.7729
252,610,9.50378,-58.1646,0.00167364,0.00310071,0.00163085,0.00416729,0.000607058,0.991613,0.00259958,0.015188,1476,414,9.50382,58.1646
259,610,9.47583,-57.5136,0.00144139,0.00389312,0.00220431,0.0051895,0.000145006,1.03916,0.00341236,0.014554,1483,414,9.47581,57.5137
266,610,9.42383,-56.8391,0.00120417,0.00462724,0.00274181,0.00614786,-0.000316455,1.06442,0.00420803,0.0135524,1490,414,9.42379,56.8391
273,610,9.40344,-56.1707,0.00105993,0.00560259,0.00334768,0.00737675,-0.000714222,1.08347,0.00517237,0.011058,1497,414,9.40343,56.1707
280,610,9.36987,-55.4648,0.00104491,0.00669292,0.00403877,0.00879707,-0.00105924,1.0905,0.0062478,0.01067,1504,414,9.36989,55.4648
287,610,9.28308,-54.7596,0.00115991,0.0079678,0.00482516,0.0104688,-0.00134115,1.09259,0.00746654,0.0135754,1511,414,9.28307,54.7596
294,610,9.26343,-54.0652,0.00121451,0.00919734,0.00554624,0.0120391,-0.00162724,1.0973,0.00861983,0.0121242,1518,414,9.26348,54.0652
301,610,9.27209,-53.402,0.00125879,0.010403,0.00625036,0.013575,-0.00191321,1.10117,0.00975052,0.011788,1525,414,9.27207,53.402
308,610,9.19165,-52.6459,0.00139298,0.0119477,0.00693483,0.0153848,-0.00204416,1.11065,0.0110014,0.0133339,1532,414,9.19166,52.6459
315,610,9.10498,-51.9055,0.00159005,0.0134014,0.00754711,0.0170789,-0.00208737,1.11739,0.0121417,0.0141678,1539,414,9.10493,51.9055
322,610,9.04138,-51.1277,0.00166826,0.014821,0.00814512,0.0187132,-0.00222398,1.12502,0.013279,0.0137596,1546,414,9.04134,51.1277
329,610,8.98901,-50.3516,0.00173455,0.0161452,0.00873218,0.020261,-0.00238125,1.13034,0.014367,0.0127095,1553,414,8.989,50.3516
336,610,8.96021,-49.5817,0.00191202,0.0177469,0.00937429,0.0220999,-0.00244096,1.13607,0.0156107,0.0138939,1560,414,8.96018,49.5817
343,610,8.88,-48.7773,0.0020262,0.0191059,0.00982162,0.0235811,-0.00244907,1.14325,0.0165975,0.0211936,1567,414,8.88002,48.7773
350,610,8.76636,-47.8779,0.00261336,0.0213036,0.010571,0.026068,-0.00215098,1.14736,0.0181382,0.0314093,1574,414,8.76633,47.8779
357,610,8.72864,-46.7559,0.00297943,0.0234064,0.0113802,0.0284842,-0.0020984,1.15111,0.0197262,0.0380722,1581,414,8.72867,46.7559
364,610,8.82935,-46.0357,0.00319802,0.0255656,0.0117399,0.0305961,-0.00183244,1.16597,0.0210348,0.042959,1588,414,8.82939,46.0357
371,610,8.91882,-44.9987,0,0,0,0,0,0,0,-1,1595,414,8.91886,44.9987
378,610,8.70972,-44.4959,0,0,0,0,0,0,0,-1,1602,414,8.7097,44.4959
385,610,2.57104,-10.3878,0,0,0,0,0,0,0,-1,1609,414,2.57109,10.3878
392,610,1.99744,-1.83582,0,0,0,0,0,0,0,-1,1616,414,1.99741,1.8358
399,610,2.77136,-2.60333,0,0,0,0,0,0,0,-1,1623,414,2.77133,2.60332
406,610,3.54529,-3.37085,0,0,0,0,0,0,0,-1,1630,414,3.54525,3.37084
413,610,3.01929,-3.20306,0,0,0,0,0,0,0,-1,1637,414,3.01929,3.20306
420,610,4.78149,-3.64041,0,0,0,0,0,0,0,-1,1644,414,4.78152,3.64042
427,610,8.85168,-23.3853,0,0,0,0,0,0,0,-1,1651,414,8.85174,23.3853
434,610,8.73706,-22.6227,0,0,0,0,0,0,0,-1,1658,414,8.73703,22.6227
441,610,0,0,0,0,0,0,0,0,0,-1,1665,414,0,0
448,610,0,0,0,0,0,0,0,0,0,-1,1672,414,0,0
455,610,0,0,0,0,0,0,0,0,0,-1,1679,414,0,0
462,610,0,0,0,0,0,0,0,0,0,-1,1686,414,0,0
469,610,0,0,0,0,0,0,0,0,0,-1,1693,414,0,0
476,610,0,0,0,0,0,0,0,0,0,-1,1700,414,0,0
483,610,0,0,0,0,0,0,0,0,0,-1,1707,414,0,0
490,610,0,0,0,0,0,0,0,0,0,-1,1714,414,0,0
497,610,0,0,0,0,0,0,0,0,0,-1,1721,414,0,0
504,610,0,0,0,0,0,0,0,0,0,-1,1728,414,0,0
511,610,0,0,0,0,0,0,0,0,0,-1,1735,414,0,0
518,610,0,0,0,0,0,0,0,0,0,-1,1742,414,0,0
525,610,0,0,0,0,0,0,0,0,0,-1,1749,414,0,0
532,610,0,0,0,0,0,0,0,0,0,-1,1756,414,0,0
539,610,0,0,0,0,0,0,0,0,0,-1,1763,414,0,0
546,610,0,0,0,0,0,0,0,0,0,-1,1770,414,0,0
553,610,0,0,0,0,0,0,0,0,0,-1,1777,414,0,0
560,610,0,0,0,0,0,0,0,0,0,-1,1784,414,0,0
567,610,0,0,0,0,0,0,0,0,0,-1,1791,414,0,0
574,610,0,0,0,0,0,0,0,0,0,-1,1798,414,0,0
581,610,0,0,0,0,0,0,0,0,0,-1,1805,414,0,0
588,610,0,0,0,0,0,0,0,0,0,-1,1812,414,0,0
595,610,0,0,0,0,0,0,0,0,0,-1,1819,414,0,0
602,610,0,0,0,0,0,0,0,0,0,-1,1826,414,0,0
609,610,0,0,0,0,0,0,0,0,0,-1,1833,414,0,0
616,610,0,0,0,0,0,0,0,0,0,-1,1840,414,0,0
623,610,0,0,0,0,0,0,0,0,0,-1,1847,414,0,0
630,610,0,0,0,0,0,0,0,0,0,-1,1854,414,0,0
637,610,0,0,0,0,0,0,0,0,0,-1,1861,414,0,0
644,610,0,0,0,0,0,0,0,0,0,-1,1868,414,0,0
651,610,0,0,0,0,0,0,0,0,0,-1,1875,414,0,0
658,610,0,0,0,0,0,0,0,0,0,-1,1882,414,0,0
665,610,0,0,0,0,0,0,0,0,0,-1,1889,414,0,0
672,610,0,0,0,0,0,0,0,0,0,-1,1896,414,0,0
679,610,0,0,0,0,0,0,0,0,0,-1,1903,414,0,0
686,610,0,0,0,0,0,0,0,0,0,-1,1910,414,0,0
693,610,0,0,0,0,0,0,0,0,0,-1,1917,414,0,0
700,610,0,0,0,0,0,0,0,0,0,-1,1924,414,0,0
707,610,0,0,0,0,0,0,0,0,0,-1,1931,414,0,0
714,610,0,0,0,0,0,0,0,0,0,-1,1938,414,0,0
721,610,0,0,0,0,0,0,0,0,0,-1,1945,414,0,0
728,610,0,0,0,0,0,0,0,0,0,-1,1952,414,0,0
735,610,0,0,0,0,0,0,0,0,0,-1,1959,414,0,0
742,610,0,0,0,0,0,0,0,0,0,-1,1966,414,0,0
749,610,0,0,0,0,0,0,0,0,0,-1,1973,414,0,0
756,610,0,0,0,0,0,0,0,0,0,-1,1980,414,0,0
763,610,0,0,0,0,0,0,0,0,0,-1,1987,414,0,0
770,610,0,0,0,0,0,0,0,0,0,-1,1994,414,0,0
777,610,0,0,0,0,0,0,0,0,0,-1,2001,414,0,0
784,610,0,0,0,0,0,0,0,0,0,-1,2008,414,0,0
791,610,0,0,0,0,0,0,0,0,0,-1,2015,414,0,0
798,610,0,0,0,0,0,0,0,0,0,-1,2022,414,0,0
805,610,0,0,0,0,0,0,0,0,0,-1,2029,414,0,0
812,610,0,0,0,0,0,0,0,0,0,-1,2036,414,0,0
-700,603,0,0,0,0,0,0,0,0,0,-1,524,421,0,0
-693,603,0,0,0,0,0,0,0,0,0,-1,531,421,0,0
-686,603,0,0,0,0,0,0,0,0,0,-1,538,421,0,0
-679,603,0,0,0,0,0,0,0,0,0,-1,545,421,0,0
-672,603,0,0,0,0,0,0,0,0,0,-1,552,421,0,0
-665,603,0,0,0,0,0,0,0,0,0,-1,559,421,0,0
-658,603,0,0,0,0,0,0,0,0,0,-1,566,421,0,0
-651,603,0,0,0,0,0,0,0,0,0,-1,573,421,0,0
-644,603,0,0,0,0,0,0,0,0,0,-1,580,421,0,0
-637,603,0,0,0,0,0,0,0,0,0,-1,587,421,0,0
-630,603,0,0,0,0,0,0,0,0,0,-1,594,421,0,0
-623,603,0,0,0,0,0,0,0,0,0,-1,601,421,0,0
-616,603,0,0,0,0,0,0,0,0,0,-1,608,421,0,0
-609,603,0,0,0,0,0,0,0,0,0,-1,615,421,0,0
-602,603,0,0,0,0,0,0,0,0,0,-1,622,421,0,0
-595,603,0,0,0,0,0,0,0,0,0,-1,629,421,0,0
-588,603,0,0,0,0,0,0,0,0,0,-1,636,421,0,0
-581,603,0,0,0,0,0,0,0,0,0,-1,643,421,0,0
-574,603,0,0,0,0,0,0,0,0,0,-1,650,421,0,0
-567,603,0,0,0,0,0,0,0,0,0,-1,657,421,0,0
-560,603,0,0,0,0,0,0,0,0,0,-1,664,421,0,0
-553,603,0,0,0,0,0,0,0,0,0,-1,671,421,0,0
-546,603,0,0,0,0,0,0,0,0,0,-1,678,421,0,0
-539,603,0,0,0,0,0,0,0,0,0,-1,685,421,0,0
-532,603,0,0,0,0,0,0,0,0,0,-1,692,421,0,0
-525,603,0,0,0,0,0,0,0,0,0,-1,699,421,0,0
-518,603,0,0,0,0,0,0,0,0,0,-1,706,421,0,0
-511,603,0,0,0,0,0,0,0,0,0,-1,713,421,0,0
-504,603,0,0,0,0,0,0,0,0,0,-1,720,421,0,0
-497,603,0,0,0,0,0,0,0,0,0,-1,727,421,0,0
-490,603,0,0,0,0,0,0,0,0,0,-1,734,421,0,0
-483,603,0,0,0,0,0,0,0,0,0,-1,741,421,0,0
-476,603,0,0,0,0,0,0,0,0,0,-1,748,421,0,0
-469,603,0,0,0,0,0,0,0,0,0,-1,755,421,0,0
-462,603,0,0,0,0,0,0,0,0,0,-1,762,421,0,0
-455,603,0,0,0,0,0,0,0,0,0,-1,769,421,0,0
-448,603,0,0,0,0,0,0,0,0,0,-1,776,421,0,0
-441,603,0,0,0,0,0,0,0,0,0,-1,783,421,0,0
-434,603,0,0,0,0,0,0,0,0,0,-1,790,421,0,0
-427,603,0,0,0,0,0,0,0,0,0,-1,797,421,0,0
-420,603,0,0,0,0,0,0,0,0,0,-1,804,421,0,0
-413,603,0,0,0,0,0,0,0,0,0,-1,811,421,0,0
-406,603,0,0,0,0,0,0,0,0,0,-1,818,421,0,0
-399,603,0,0,0,0,0,0,0,0,0,-1,825,421,0,0
-392,603,0,0,0,0,0,0,0,0,0,-1,832,421,0,0
-385,603,0,0,0,0,0,0,0,0,0,-1,839,421,0,0
-378,603,0,0,0,0,0,0,0,0,0,-1,846,421,0,0
-371,603,0,0,0,0,0,0,0,0,0,-1,853,421,0,0
-364,603,0,0,0,0,0,0,0,0,0,-1,860,421,0,0
-357,603,0,0,0,0,0,0,0,0,0,-1,867,421,0,0
-350,603,0,0,0,0,0,0,0,0,0,-1,874,421,0,0
-343,603,0,0,0,0,0,0,0,0,0,-1,881,421,0,0
-336,603,0,0,0,0,0,0,0,0,0,-1,888,421,0,0
-329,603,4.09686,-17.9702,0,0,0,0,0,0,0,-1,895,421,4.09687,17.9702
-322,603,8.83179,-28.7376,0,0,0,0,0,0,0,-1,902,421,8.83179,28.7376
-315,603,5.99744,-20.4501,0,0,0,0,0,0,0,-1,909,421,5.99745,20.4501
-308,603,5.92249,-20.778,0,0,0,0,0,0,0,-1,916,421,5.92248,20.778
-301,603,2.72424,-20.9059,0,0,0,0,0,0,0,-1,923,421,2.72424,20.9059
-294,603,2.41553,-20.6767,0,0,0,0,0,0,0,-1,930,421,2.41554,20.6767
-287,603,1.91766,-21.2242,0,0,0,0,0,0,0,-1,937,421,1.91767,21.2242
-280,603,2.36121,-27.3314,0,0,0,0,0,0,0,-1,944,421,2.36119,27.3314
-273,603,7.96613,-34.8225,0,0,0,0,0,0,0,-1,951,421,7.96613,34.8225
-266,603,7.18787,-34.9736,0,0,0,0,0,0,0,-1,958,421,7.18788,34.9736
-259,603,5.44666,-36.8901,0,0,0,0,0,0,0,-1,965,421,5.44664,36.8901
-252,603,6.50952,-44.8501,0,0,0,0,0,0,0,-1,972,421,6.50954,44.8501
-245,603,6.487,-45.6182,-0.00111191,0.0264728,-0.0120444,0.0309915,-0.00563068,-1.21187,0.0227712,0.0406414,979,421,6.487,45.6182
-238,603,6.36633,-46.5306,-0.00135553,0.024005,-0.0108443,0.0280097,-0.00536024,-1.21704,0.0206926,0.0230025,986,421,6.36632,46.5306
-231,603,6.28021,-47.4268,-0.00158856,0.0215799,-0.0095468,0.0250069,-0.00501551,-1.22616,0.0185703,0.0150848,993,421,6.28022,47.4268
-224,603,6.22882,-48.2825,-0.00140644,0.0192465,-0.00863376,0.0223803,-0.00454021,-1.22262,0.0166413,0.0160087,1000,421,6.22879,48.2825
-217,603,6.19385,-49.0818,-0.00121964,0.0166886,-0.00775896,0.0195826,-0.00411364,-1.21379,0.0146204,0.0150807,1007,421,6.19383,49.0818
-210,603,6.12433,-49.8795,-0.00104912,0.0142062,-0.00692728,0.0168824,-0.00372526,-1.20214,0.0126804,0.0120957,1014,421,6.12434,49.8795
-203,603,6.07336,-50.7057,-0.000859538,0.011742,-0.00608909,0.0142034,-0.003321,-1.18664,0.0107484,0.017355,1021,421,6.07341,50.7058
-196,603,6.04602,-51.4887,-0.000651517,0.00943856,-0.00531643,0.0117227,-0.00293566,-1.165,0.00895554,0.0210821,1028,421,6.04605,51.4887
-189,603,6.01331,-52.179,-0.000368828,0.00749199,-0.00473039,0.00971176,-0.0025886,-1.13204,0.00748803,0.0178594,1035,421,6.01334,52.179
-182,603,5.93323,-52.8869,-7.10411e-05,0.00571109,-0.00407968,0.00782023,-0.00218018,-1.09365,0.00607211,0.0123189,1042,421,5.93326,52.8869
-175,603,5.87476,-53.6109,0.000168824,0.00393464,-0.00335311,0.00589734,-0.00179387,-1.04123,0.00464642,0.0118926,1049,421,5.87475,53.6109
-168,603,5.81555,-54.3316,0.000420814,0.00260849,-0.00272287,0.00444902,-0.00141972,-0.976393,0.00353558,0.01516,1056,421,5.81555,54.3316
-161,603,5.77039,-55.0657,0.000758052,0.00156074,-0.00211803,0.00331511,-0.000996322,-0.879033,0.00260645,0.0154773,1063,421,5.77035,55.0657
-154,603,5.75562,-55.7268,0.00112288,0.000653517,-0.00150606,0.00241243,-0.000636038,-0.708108,0.00185697,0.0142832,1070,421,5.75565,55.7268
-147,603,5.73206,-56.3438,0.00148497,-9.55249e-05,-0.000955931,0.001935,-0.000545558,-0.439999,0.00150518,0.0149651,1077,421,5.73207,56.3438
-140,603,5.72974,-57.0249,0.00185225,-0.000840732,-0.000443649,0.00192346,-0.000911937,-0.159141,0.00167138,0.0139343,1084,421,5.72971,57.0249
-133,603,5.6897,-57.6641,0.00223043,-0.00141139,-9.14172e-07,0.00223043,-0.00141139,-0.00025102,0.00212026,0.0135134,1091,421,5.68971,57.6641
-126,603,5.68176,-58.2455,0.00268818,-0.00178828,0.000342888,0.00271429,-0.00181439,0.0760072,0.00263179,0.0114601,1098,421,5.68174,58.2455
-119,603,5.68481,-58.8453,0.00333695,-0.00210415,0.00062138,0.00340701,-0.00217421,0.112275,0.00324842,0.0126072,1105,421,5.68479,58.8453
-112,603,5.6698,-59.4499,0.00403178,-0.00224014,0.000767742,0.00412439,-0.00233275,0.120048,0.00377556,0.018852,1112,421,5.66976,59.4499
-105,603,5.66235,-60.0223,0.00471683,-0.0021885,0.000795138,0.00480721,-0.00227887,0.113175,0.00417706,0.0181761,1119,421,5.66238,60.0223
-98,603,5.68201,-60.5601,0.00543437,-0.00218746,0.000819288,0.00552144,-0.00227454,0.105881,0.00462931,0.0155541,1126,421,5.68202,60.5601
-91,603,5.70959,-61.1126,0.00621288,-0.00208912,0.000840135,0.00629705,-0.00217328,0.0998479,0.00507986,0.0115017,1133,421,5.70957,61.1126
-84,603,5.745,-61.6767,0.00726813,-0.00165165,0.000701167,0.00732291,-0.00170643,0.0779698,0.00553907,0.0123629,1140,421,5.74504,61.6767
-77,603,5.82214,-62.2524,0.00839078,-0.00179492,0.000607746,0.00842692,-0.00183105,0.0593857,0.00631738,0.0187157,1147,421,5.82214,62.2524
-70,603,5.79126,-62.7037,0,0,0,0,0,0,0,-1,1154,421,5.79128,62.7037
-63,603,5.79663,-63.0479,0,0,0,0,0,0,0,-1,1161,421,5.79662,63.0479
-56,603,5.92395,-63.5317,0,0,0,0,0,0,0,-1,1168,421,5.92391,63.5317
-49,603,6.01172,-63.9788,0,0,0,0,0,0,0,-1,1175,421,6.01176,63.9788
-42,603,6.08691,-64.3276,0,0,0,0,0,0,0,-1,1182,421,6.08697,64.3276
-35,603,6.13086,-64.6558,0.0174594,0.028052,-0.0295848,0.0528108,-0.00729947,-0.873971,0.0378756,0.0447052,1189,421,6.13085,64.6558
-28,603,6.21545,-64.9376,0.0189196,0.0308336,-0.0368844,0.062239,-0.0124858,-0.865459,0.0462202,0.0318876,1196,421,6.21551,64.9376
-21,603,6.28821,-65.2914,0.019333,0.0347503,-0.0421854,0.0699256,-0.0158423,-0.875768,0.0526977,0.0266396,1203,421,6.28818,65.2913
-14,603,6.37793,-65.564,0.0191377,0.0372501,-0.04602,0.0750965,-0.0187087,-0.882551,0.0573274,0.0242722,1210,421,6.37795,65.564
-7,603,6.54053,-65.8452,0.0185532,0.0385709,-0.0484049,0.0779909,-0.0208667,-0.887348,0.060168,0.0292719,1217,421,6.54049,65.8452
0,603,6.65247,-66.1758,0.0172215,0.0377954,-0.0483165,0.0769078,-0.021891,-0.890286,0.059917,0.0380526,1224,421,6.65249,66.1758
7,603,6.72778,-66.3217,0,0,0,0,0,0,0,-1,1231,421,6.72773,66.3217
14,603,7.00012,-66.1846,0,0,0,0,0,0,0,-1,1238,421,7.00016,66.1846
21,603,7.06433,-66.0814,0.0127975,0.0330218,-0.039968,0.064137,-0.0183178,-0.909301,0.0499953,0.0443551,1245,421,7.06427,66.0814
28,603,7.21265,-66.4048,0.0113119,0.0307561,-0.0354703,0.0578126,-0.0157445,-0.919159,0.0447235,0.0479781,1252,421,7.21263,66.4049
35,603,7.5426,-66.9001,0,0,0,0,0,0,0,-1,1259,421,7.54264,66.9001
42,603,7.44141,-66.4529,0.00711612,0.0246389,-0.024119,0.0415385,-0.0097835,-0.959616,0.0314646,0.0453938,1266,421,7.44136,66.4529
49,603,7.36487,-66.6195,0.00504024,0.0210891,-0.0182452,0.0329965,-0.00686714,-0.992573,0.0246082,0.0251466,1273,421,7.36492,66.6195
56,603,7.39612,-66.9462,0,0,0,0,0,0,0,-1,1280,421,7.39615,66.9462
63,603,7.55872,-67.2447,0,0,0,0,0,0,0,-1,1287,421,7.55874,67.2447
70,603,7.79895,-67.1702,0,0,0,0,0,0,0,-1,1294,421,7.79894,67.1702
77,603,5.69348,-66.1464,0,0,0,0,0,0,0,-1,1301,421,5.69344,66.1464
84,603,8.2832,-66.9133,0,0,0,0,0,0,0,-1,1308,421,8.2832,66.9133
91,603,8.27234,-67.2318,0,0,0,0,0,0,0,-1,1315,421,8.27231,67.2317
98,603,8.65222,-67.3257,0,0,0,0,0,0,0,-1,1322,421,8.65219,67.3257
105,603,8.82336,-67.0125,0,0,0,0,0,0,0,-1,1329,421,8.82334,67.0125
112,603,8.99561,-66.3992,0.00167186,0.00831641,0.0078935,0.0135583,-0.00357002,0.984589,0.0104345,0.046617,1336,421,8.99558,66.3992
119,603,9.20386,-66.2876,0.00284889,0.00676513,0.00854312,0.0135717,-0.00395765,0.898055,0.0106158,0.0480952,1343,421,9.20388,66.2876
126,603,9.29956,-66.0085,0,0,0,0,0,0,0,-1,1350,421,9.29952,66.0085
133,603,9.36389,-65.6936,0.00609576,0.00635924,0.00835392,0.0145825,-0.00212745,0.793283,0.0105029,0.0475555,1357,421,9.36386,65.6936
140,603,9.46045,-65.3228,0.00797612,0.00524394,0.00799312,0.0147191,-0.00149898,0.700762,0.0103486,0.0434294,1364,421,9.46045,65.3227
147,603,9.36987,-65.0829,0.00991809,0.00405589,0.00736081,0.0149099,-0.000935945,0.59592,0.0102662,0.0347965,1371,421,9.36983,65.0829
154,603,9.3136,-64.9812,0.0111691,0.00265221,0.00626136,0.0144829,-0.000661588,0.48677,0.00988321,0.0408218,1378,421,9.31361,64.9812
161,603,9.573,-64.6443,0.0120722,0.000708029,0.00420876,0.0134612,-0.000680934,0.318763,0.00920948,0.037462,1385,421,9.57298,64.6443
168,603,9.67969,-64.2527,0.0127499,-0.00155761,0.00298285,0.0133468,-0.00215458,0.197522,0.00969621,0.0378518,1392,421,9.67975,64.2527
175,603,9.96069,-63.896,0.013396,-0.00380566,0.00170583,0.0135635,-0.00397319,0.0978967,0.0106175,0.042364,1399,421,9.96069,63.896
182,603,10.0502,-63.4675,0.0134075,-0.00586762,-1.79349e-05,0.0134075,-0.00586764,-0.000930468,0.0114088,0.0488297,1406,421,10.0502,63.4675
189,603,9.96191,-62.9685,0.0120933,-0.00760681,-0.00258456,0.0124267,-0.00794025,-0.128303,0.0118536,0.0408803,1413,421,9.96187,62.9685
196,603,9.92822,-62.4741,0.0104549,-0.00889408,-0.00447724,0.0114407,-0.00987986,-0.216719,0.0123204,0.0292826,1420,421,9.92824,62.4741
203,603,9.96802,-62.0678,0.00807783,-0.00534247,-0.00352052,0.00894529,-0.00620993,-0.241589,0.00879725,0.0179111,1427,421,9.96802,62.0678
210,603,9.98376,-61.7104,0.00689509,-0.00414999,-0.00291865,0.0076189,-0.0048738,-0.243093,0.00727048,0.015148,1434,421,9.98377,61.7104
217,603,9.98718,-61.0958,0.0058484,-0.00289681,-0.0022012,0.00637119,-0.00341961,-0.233184,0.0057377,0.0160209,1441,421,9.98718,61.0958
224,603,10.0739,-60.5158,0.0049902,-0.00171984,-0.00150401,0.00531189,-0.00204153,-0.210714,0.00438322,0.0193681,1448,421,10.0739,60.5158
231,603,10.0939,-59.9536,0.00421294,-0.000736368,-0.000709489,0.00431264,-0.000836066,-0.139606,0.00319051,0.0168952,1455,421,10.0939,59.9535
238,603,10.1008,-59.3617,0.00365264,-0.000285628,-0.000295367,0.00367467,-0.000307657,-0.0744441,0.00255851,0.0124999,1462,421,10.1008,59.3617
245,603,10.1033,-58.7589,0.00326999,3.41965e-05,6.45789e-05,0.00327128,3.29082e-05,0.0199471,0.00216997,0.0122529,1469,421,10.1033,58.7589
252,603,10.1141,-58.1282,0.00280974,0.000431992,0.000418817,0.00288135,0.000360378,0.169352,0.00181276,0.0116299,1476,421,10.1141,58.1282
259,603,10.1034,-57.486,0.00234881,0.000875868,0.000819053,0.00271381,0.000510868,0.419219,0.00166525,0.0124933,1483,421,10.1034,57.486
266,603,10.0695,-56.817,0.00197816,0.00139372,0.00123335,0.00295343,0.000418446,0.669079,0.00184536,0.0126067,1490,421,10.0694,56.817
273,603,10.0685,-56.1482,0.00167504,0.00212262,0.00168349,0.00359713,0.000200528,0.851477,0.00233411,0.010693,1497,421,10.0685,56.1482
280,603,10.0638,-55.4591,0.00148776,0.00300303,0.00223748,0.00460767,-0.000116879,0.948645,0.00311147,0.0121965,1504,421,10.0638,55.4591
287,603,10.0104,-54.7244,0.00144213,0.00403933,0.00286622,0.00588741,-0.00040595,0.9981,0.00406701,0.0117677,1511,421,10.0104,54.7244
294,603,9.95227,-54.0358,0.00137368,0.00511326,0.00345717,0.00717388,-0.000686944,1.03329,0.00502724,0.010203,1518,421,9.95222,54.0358
301,603,9.94177,-53.3407,0.00130463,0.0062119,0.00405526,0.00849804,-0.000981515,1.05746,0.00601926,0.0122008,1525,421,9.94175,53.3407
308,603,9.89063,-52.6103,0.0013226,0.00761445,0.00465459,0.0100865,-0.00114949,1.08257,0.00713844,0.0176084,1532,421,9.89063,52.6103
315,603,9.82263,-51.8824,0.00141249,0.00897499,0.00521424,0.0116347,-0.00124723,1.09911,0.00820388,0.0161344,1539,421,9.82269,51.8824
322,603,9.76929,-51.1021,0.00138864,0.0102975,0.00577355,0.0131353,-0.0014491,1.11397,0.00927768,0.0165187,1546,421,9.76931,51.1021
329,603,9.72827,-50.3363,0.00136973,0.0115419,0.00635239,0.0145934,-0.00168182,1.12297,0.0103353,0.0122034,1553,421,9.72823,50.3363
336,603,9.70142,-49.5829,0.00146068,0.0130004,0.00699926,0.0163014,-0.00184034,1.13011,0.0115301,0.0101192,1560,421,9.70137,49.5829
343,603,9.65112,-48.7907,0.00150184,0.0143462,0.00753187,0.0178221,-0.00197414,1.13842,0.0125912,0.0118627,1567,421,9.6511,48.7907
350,603,9.58179,-47.9698,0.00189159,0.0163499,0.00826935,0.0201045,-0.00186301,1.14459,0.0140652,0.0137605,1574,421,9.58178,47.9698
357,603,9.48975,-47.1368,0.00212995,0.0182097,0.0090616,0.022284,-0.0019443,1.14826,0.0155447,0.0149821,1581,421,9.48976,47.1368
364,603,9.46753,-46.2441,0.00232285,0.0201066,0.00958334,0.0242878,-0.00185837,1.15939,0.0168455,0.0167322,1588,421,9.46749,46.2441
371,603,9.41162,-45.3982,0.00301486,0.0228813,0.0104724,0.0273821,-0.00148589,1.16489,0.0187696,0.0223436,1595,421,9.41157,45.3982
378,603,9.35938,-44.6104,0.00372485,0.0258604,0.0113599,0.0306528,-0.00106752,1.17158,0.0208002,0.0384344,1602,421,9.35935,44.6104
385,603,9.25574,-43.8504,0,0,0,0,0,0,0,-1,1609,421,9.25575,43.8504
392,603,9.13477,-42.9482,0,0,0,0,0,0,0,-1,1616,421,9.13476,42.9482
399,603,9.23059,-41.1418,0,0,0,0,0,0,0,-1,1623,421,9.23055,41.1418
406,603,9.4071,-40.407,0,0,0,0,0,0,0,-1,1630,421,9.40709,40.407
413,603,2.38928,-2.41275,0,0,0,0,0,0,0,-1,1637,421,2.38926,2.41274
420,603,8.22217,-23.7068,0,0,0,0,0,0,0,-1,1644,421,8.22215,23.7068
427,603,8.20386,-23.1278,0,0,0,0,0,0,0,-1,1651,421,8.2039,23.1278
434,603,8.01489,-22.5655,0,0,0,0,0,0,0,-1,1658,421,8.01493,22.5655
441,603,8.00122,-22.3072,0,0,0,0,0,0,0,-1,1665,421,8.00116,22.3071
448,603,1.14355,-4.59842,0,0,0,0,0,0,0,-1,1672,421,1.14355,4.59841
455,603,0,0,0,0,0,0,0,0,0,-1,1679,421,0,0
462,603,0,0,0,0,0,0,0,0,0,-1,1686,421,0,0
469,603,0,0,0,0,0,0,0,0,0,-1,1693,421,0,0
476,603,0,0,0,0,0,0,0,0,0,-1,1700,421,0,0
483,603,0,0,0,0,0,0,0,0,0,-1,1707,421,0,0
490,603,0,0,0,0,0,0,0,0,0,-1,1714,421,0,0
497,603,0,0,0,0,0,0,0,0,0,-1,1721,421,0,0
504,603,0,0,0,0,0,0,0,0,0,-1,1728,421,0,0
511,603,0,0,0,0,0,0,0,0,0,-1,1735,421,0,0
518,603,0,0,0,0,0,0,0,0,0,-1,1742,421,0,0
525,603,0,0,0,0,0,0,0,0,0,-1,1749,421,0,0
532,603,0,0,0,0,0,0,0,0,0,-1,1756,421,0,0
539,603,0,0,0,0,0,0,0,0,0,-1,1763,421,0,0
546,603,0,0,0,0,0,0,0,0,0,-1,1770,421,0,0
553,603,0,0,0,0,0,0,0,0,0,-1,1777,421,0,0
560,603,0,0,0,0,0,0,0,0,0,-1,1784,421,0,0
567,603,0,0,0,0,0,0,0,0,0,-1,1791,421,0,0
574,603,0,0,0,0,0,0,0,0,0,-1,1798,421,0,0
581,603,0,0,0,0,0,0,0,0,0,-1,1805,421,0,0
588,603,0,0,0,0,0,0,0,0,0,-1,1812,421,0,0
595,603,0,0,0,0,0,0,0,0,0,-1,1819,421,0,0
602,603,0,0,0,0,0,0,0,0,0,-1,1826,421,0,0
609,603,0,0,0,0,0,0,0,0,0,-1,1833,421,0,0
616,603,0,0,0,0,0,0,0,0,0,-1,1840,421,0,0
623,603,0,0,0,0,0,0,0,0,0,-1,1847,421,0,0
630,603,0,0,0,0,0,0,0,0,0,-1,1854,421,0,0
637,603,0,0,0,0,0,0,0,0,0,-1,1861,421,0,0
644,603,0,0,0,0,0,0,0,0,0,-1,1868,421,0,0
651,603,0,0,0,0,0,0,0,0,0,-1,1875,421,0,0
658,603,0,0,0,0,0,0,0,0,0,-1,1882,421,0,0
665,603,0,0,0,0,0,0,0,0,0,-1,1889,421,0,0
672,603,0,0,0,0,0,0,0,0,0,-1,1896,421,0,0
679,603,0,0,0,0,0,0,0,0,0,-1,1903,421,0,0
686,603,0,0,0,0,0,0,0,0,0,-1,1910,421,0,0
693,603,0,0,0,0,0,0,0,0,0,-1,1917,421,0,0
700,603,0,0,0,0,0,0,0,0,0,-1,1924,421,0,0
707,603,0,0,0,0,0,0,0,0,0,-1,1931,421,0,0
714,603,0,0,0,0,0,0,0,0,0,-1,1938,421,0,0
721,603,0,0,0,0,0,0,0,0,0,-1,1945,421,0,0
728,603,0,0,0,0,0,0,0,0,0,-1,1952,421,0,0
735,603,0,0,0,0,0,0,0,0,0,-1,1959,421,0,0
742,603,0,0,0,0,0,0,0,0,0,-1,1966,421,0,0
749,603,0,0,0,0,0,0,0,0,0,-1,1973,421,0,0
756,603,0,0,0,0,0,0,0,0,0,-1,1980,421,0,0
763,603,0,0,0,0,0,0,0,0,0,-1,1987,421,0,0
770,603,0,0,0,0,0,0,0,0,0,-1,1994,421,0,0
777,603,0,0,0,0,0,0,0,0,0,-1,2001,421,0,0
784,603,0,0,0,0,0,0,0,0,0,-1,2008,421,0,0
791,603,0,0,0,0,0,0,0,0,0,-1,2015,421,0,0
798,603,0,0,0,0,0,0,0,0,0,-1,2022,421,0,0
805,603,0,0,0,0,0,0,0,0,0,-1,2029,421,0,0
812,603,0,0,0,0,0,0,0,0,0,-1,2036,421,0,0
-700,596,0,0,0,0,0,0,0,0,0,-1,524,428,0,0
-693,596,0,0,0,0,0,0,0,0,0,-1,531,428,0,0
-686,596,0,0,0,0,0,0,0,0,0,-1,538,428,0,0
-679,596,0,0,0,0,0,0,0,0,0,-1,545,428,0,0
-672,596,0,0,0,0,0,0,0,0,0,-1,552,428,0,0
-665,596,0,0,0,0,0,0,0,0,0,-1,559,428,0,0
-658,596,0,0,0,0,0,0,0,0,0,-1,566,428,0,0
-651,596,0,0,0,0,0,0,0,0,0,-1,573,428,0,0
-644,596,0,0,0,0,0,0,0,0,0,-1,580,428,0,0
-637,596,0,0,0,0,0,0,0,0,0,-1,587,428,0,0
-630,596,0,0,0,0,0,0,0,0,0,-1,594,428,0,0
-623,596,0,0,0,0,0,0,0,0,0,-1,601,428,0,0
-616,596,0,0,0,0,0,0,0,0,0,-1,608,428,0,0
-609,596,0,0,0,0,0,0,0,0,0,-1,615,428,0,0
-602,596,0,0,0,0,0,0,0,0,0,-1,622,428,0,0
-595,596,0,0,0,0,0,0,0,0,0,-1,629,428,0,0
-588,596,0,0,0,0,0,0,0,0,0,-1,636,428,0,0
-581,596,0,0,0,0,0,0,0,0,0,-1,643,428,0,0
-574,596,0,0,0,0,0,0,0,0,0,-1,650,428,0,0
-567,596,0,0,0,0,0,0,0,0,0,-1,657,428,0,0
-560,596,0,0,0,0,0,0,0,0,0,-1,664,428,0,0
-553,596,0,0,0,0,0,0,0,0,0,-1,671,428,0,0
-546,596,0,0,0,0,0,0,0,0,0,-1,678,428,0,0
-539,596,0,0,0,0,0,0,0,0,0,-1,685,428,0,0
-532,596,0,0,0,0,0,0,0,0,0,-1,692,428,0,0
-525,596,0,0,0,0,0,0,0,0,0,-1,699,428,0,0
-518,596,0,0,0,0,0,0,0,0,0,-1,706,428,0,0
-511,596,0,0,0,0,0,0,0,0,0,-1,713,428,0,0
-504,596,0,0,0,0,0,0,0,0,0,-1,720,428,0,0
-497,596,0,0,0,0,0,0,0,0,0,-1,727,428,0,0
-490,596,0,0,0,0,0,0,0,0,0,-1,734,428,0,0
-483,596,0,0,0,0,0,0,0,0,0,-1,741,428,0,0
-476,596,0,0,0,0,0,0,0,0,0,-1,748,428,0,0
-469,596,0,0,0,0,0,0,0,0,0,-1,755,428,0,0
-462,596,0,0,0,0,0,0,0,0,0,-1,762,428,0,0
-455,596,0,0,0,0,0,0,0,0,0,-1,769,428,0,0
-448,596,0,0,0,0,0,0,0,0,0,-1,776,428,0,0
-441,596,0,0,0,0,0,0,0,0,0,-1,783,428,0,0
-434,596,0,0,0,0,0,0,0,0,0,-1,790,428,0,0
-427,596,0,0,0,0,0,0,0,0,0,-1,797,428,0,0
-420,596,0,0,0,0,0,0,0,0,0,-1,804,428,0,0
-413,596,0,0,0,0,0,0,0,0,0,-1,811,428,0,0
-406,596,0,0,0,0,0,0,0,0,0,-1,818,428,0,0
-399,596,0,0,0,0,0,0,0,0,0,-1,825,428,0,0
-392,596,0,0,0,0,0,0,0,0,0,-1,832,428,0,0
-385,596,0,0,0,0,0,0,0,0,0,-1,839,428,0,0
-378,596,0,0,0,0,0,0,0,0,0,-1,846,428,0,0
-371,596,0,0,0,0,0,0,0,0,0,-1,853,428,0,0
-364,596,0,0,0,0,0,0,0,0,0,-1,860,428,0,0
-357,596,0,0,0,0,0,0,0,0,0,-1,867,428,0,0
-350,596,0,0,0,0,0,0,0,0,0,-1,874,428,0,0
-343,596,0,0,0,0,0,0,0,0,0,-1,881,428,0,0
-336,596,6.81445,-30.5258,0,0,0,0,0,0,0,-1,888,428,6.81446,30.5258
-329,596,6.84772,-28.9253,0,0,0,0,0,0,0,-1,895,428,6.84773,28.9253
-322,596,6.97449,-27.9047,0,0,0,0,0,0,0,-1,902,428,6.97451,27.9047
-315,596,7.10132,-26.8841,0,0,0,0,0,0,0,-1,909,428,7.10129,26.8841
-308,596,0.254761,-20.841,0,0,0,0,0,0,0,-1,916,428,0.254731,20.841
-301,596,3.43213,-26.756,0,0,0,0,0,0,0,-1,923,428,3.43214,26.756
-294,596,4.1767,-27.6454,0,0,0,0,0,0,0,-1,930,428,4.17667,27.6454
-287,596,4.36041,-27.6119,0,0,0,0,0,0,0,-1,937,428,4.3604,27.6119
-280,596,6.02704,-41.5144,0,0,0,0,0,0,0,-1,944,428,6.02702,41.5144
-273,596,5.80688,-42.2733,0,0,0,0,0,0,0,-1,951,428,5.8069,42.2733
-266,596,5.72913,-43.1437,0,0,0,0,0,0,0,-1,958,428,5.72913,43.1437
-259,596,5.73169,-44.1222,0,0,0,0,0,0,0,-1,965,428,5.73167,44.1222
-252,596,5.67554,-44.9626,-0.000946471,0.0217201,-0.0105594,0.025877,-0.00510333,-1.19576,0.0191801,0.023147,972,428,5.67556,44.9626
-245,596,5.63318,-45.8626,-0.000852498,0.0199148,-0.00954688,0.0236366,-0.00457427,-1.19908,0.0174831,0.0148731,979,428,5.63319,45.8626
-238,596,5.59229,-46.7023,-0.00088769,0.0179222,-0.00852127,0.0212084,-0.00417389,-1.20272,0.0157161,0.0124628,986,428,5.59228,46.7023
-231,596,5.5072,-47.5191,-0.000953486,0.0159033,-0.00739243,0.0186859,-0.00373605,-1.21079,0.0138714,0.0144304,993,428,5.50719,47.5191
-224,596,5.495,-48.3454,-0.000745765,0.0139184,-0.00654163,0.0164125,-0.00323978,-1.20655,0.0121662,0.0146675,1000,428,5.49501,48.3454
-217,596,5.43567,-49.1291,-0.00051466,0.0117062,-0.0057201,0.0139658,-0.00277423,-1.19459,0.0103598,0.015226,1007,428,5.43569,49.1291
-210,596,5.39105,-49.8849,-0.000279323,0.00951125,-0.00494699,0.0115756,-0.00234367,-1.17547,0.00860534,0.0134009,1014,428,5.39103,49.8849
-203,596,5.33997,-50.6493,1.37726e-06,0.00735864,-0.00418225,0.00924988,-0.00188987,-1.14611,0.00688357,0.0174114,1021,428,5.34,50.6493
-196,596,5.31287,-51.4006,0.000317612,0.00534425,-0.00349271,0.00713393,-0.00147207,-1.09727,0.00531504,0.0190495,1028,428,5.31287,51.4006
-189,596,5.27014,-52.1283,0.000674355,0.00352111,-0.002924,0.00534978,-0.00115431,-1.01191,0.0040071,0.0153856,1035,428,5.27019,52.1283
-182,596,5.21069,-52.8419,0.00105581,0.0018479,-0.00231322,0.00379873,-0.000895018,-0.870181,0.0028776,0.0124641,1042,428,5.21065,52.842
-175,596,5.16492,-53.5745,0.0013973,0.000250806,-0.00167005,0.00258975,-0.000941638,-0.620072,0.00211156,0.0149195,1049,428,5.16487,53.5745
-168,596,5.14087,-54.3044,0.00173161,-0.000945994,-0.00110921,0.0021314,-0.00134579,-0.345942,0.00202457,0.0182037,1056,428,5.14087,54.3044
-161,596,5.10803,-55.0148,0.00212758,-0.00189871,-0.000562553,0.0022047,-0.00197583,-0.136244,0.00241484,0.0166098,1063,428,5.10807,55.0148
-154,596,5.08435,-55.6878,0.00256049,-0.00269282,-4.34525e-06,0.00256049,-0.00269283,-0.000827145,0.00303333,0.0138633,1070,428,5.0843,55.6878
-147,596,5.09961,-56.3289,0.00302108,-0.00327296,0.000478194,0.00305721,-0.00330908,0.0753989,0.00367654,0.0143559,1077,428,5.09967,56.3289
-140,596,5.10779,-56.9786,0.00343858,-0.00389267,0.000964782,0.00356342,-0.00401751,0.12868,0.00437947,0.0166201,1084,428,5.10774,56.9786
-133,596,5.08557,-57.6383,0.00383226,-0.00433508,0.00136687,0.00405494,-0.00455777,0.161497,0.00497537,0.0163802,1091,428,5.08558,57.6384
-126,596,5.08728,-58.2319,0.00433735,-0.00449949,0.00165198,0.00463608,-0.00479821,0.178896,0.00544716,0.0123215,1098,428,5.08726,58.2319
-119,596,5.09375,-58.8534,0.00512886,-0.00459445,0.00183412,0.00546333,-0.00492892,0.180377,0.00600261,0.0160022,1105,428,5.09373,58.8534
-112,596,5.05896,-59.4566,0.00593547,-0.00450368,0.00187918,0.00626344,-0.00483165,0.172789,0.00642351,0.0187103,1112,428,5.05896,59.4566
-105,596,5.07507,-60.0229,0.0067041,-0.00420785,0.00181975,0.00699957,-0.00450332,0.160965,0.00669312,0.0260909,1119,428,5.07513,60.0229
-98,596,5.16321,-60.6127,0.00746914,-0.00406043,0.00180049,0.00774377,-0.00433506,0.151363,0.00706567,0.0351654,1126,428,5.16318,60.6127
-91,596,5.11877,-61.1117,0,0,0,0,0,0,0,-1,1133,428,5.11877,61.1117
-84,596,5.21887,-61.661,0,0,0,0,0,0,0,-1,1140,428,5.21883,61.661
-77,596,5.39514,-62.3061,0,0,0,0,0,0,0,-1,1147,428,5.39509,62.3061
-70,596,3.50696,-32.137,0,0,0,0,0,0,0,-1,1154,428,3.50696,32.137
-63,596,1.95569,-12.2758,0,0,0,0,0,0,0,-1,1161,428,1.95563,12.2759
-56,596,1.60107,-10.5827,0,0,0,0,0,0,0,-1,1168,428,1.60108,10.5827
-49,596,1.59473,-10.0393,0,0,0,0,0,0,0,-1,1175,428,1.59472,10.0393
-42,596,1.99585,-6.6246,0,0,0,0,0,0,0,-1,1182,428,1.99586,6.62459
-35,596,5.56287,-64.3607,0,0,0,0,0,0,0,-1,1189,428,5.56285,64.3607
-28,596,5.82373,-64.7177,0,0,0,0,0,0,0,-1,1196,428,5.82374,64.7176
-21,596,5.86011,-65.1338,0,0,0,0,0,0,0,-1,1203,428,5.86008,65.1338
-14,596,5.97571,-65.3897,0,0,0,0,0,0,0,-1,1210,428,5.97573,65.3897
-7,596,6.21338,-65.6862,0,0,0,0,0,0,0,-1,1217,428,6.21341,65.6863
0,596,6.3844,-66.1365,0,0,0,0,0,0,0,-1,1224,428,6.3844,66.1365
7,596,1.87036,-62.6725,0,0,0,0,0,0,0,-1,1231,428,1.87031,62.6725
14,596,2.79126,-62.859,0,0,0,0,0,0,0,-1,1238,428,2.79121,62.859
21,596,6.83105,-65.0341,0,0,0,0,0,0,0,-1,1245,428,6.83101,65.0341
28,596,7.13025,-65.6719,0,0,0,0,0,0,0,-1,1252,428,7.13019,65.6719
35,596,5.4801,-62.8796,0,0,0,0,0,0,0,-1,1259,428,5.48007,62.8796
42,596,7.30115,-65.7894,0,0,0,0,0,0,0,-1,1266,428,7.30109,65.7894
49,596,7.28308,-65.9813,0.00510255,0.0332323,-0.0238198,0.0468297,-0.00849487,-1.05209,0.0344028,0.0472446,1273,428,7.28311,65.9813
56,596,6.91614,-66.1518,0.00357522,0.0292437,-0.0167403,0.0375034,-0.00468451,-1.11244,0.0267011,0.0446213,1280,428,6.91609,66.1518
63,596,6.62695,-65.6303,0.00253319,0.0245159,-0.0102323,0.0285416,-0.00149245,-1.19597,0.0195442,0.0449044,1287,428,6.62697,65.6303
70,596,6.67639,-65.1625,0,0,0,0,0,0,0,-1,1294,428,6.67637,65.1625
77,596,6.85693,-64.8811,0,0,0,0,0,0,0,-1,1301,428,6.85697,64.8811
84,596,9.83618,-66.5215,0,0,0,0,0,0,0,-1,1308,428,9.83619,66.5215
91,596,9.32739,-67.4203,0,0,0,0,0,0,0,-1,1315,428,9.32735,67.4203
98,596,8.65808,-68.5161,0,0,0,0,0,0,0,-1,1322,428,8.65803,68.5161
105,596,10.3352,-68.5081,0,0,0,0,0,0,0,-1,1329,428,10.3352,68.5082
112,596,9.34607,-66.0533,0,0,0,0,0,0,0,-1,1336,428,9.34611,66.0533
119,596,9.74316,-65.8968,0,0,0,0,0,0,0,-1,1343,428,9.74316,65.8968
126,596,8.70459,-70.6673,0,0,0,0,0,0,0,-1,1350,428,8.70459,70.6673
133,596,9.86707,-65.2152,0,0,0,0,0,0,0,-1,1357,428,9.8671,65.2152
140,596,9.97998,-64.5378,0,0,0,0,0,0,0,-1,1364,428,9.97998,64.5378
147,596,9.67944,-64.2661,0,0,0,0,0,0,0,-1,1371,428,9.67938,64.2661
154,596,9.4104,-64.6471,0,0,0,0,0,0,0,-1,1378,428,9.41041,64.6471
161,596,10.1107,-64.3907,0,0,0,0,0,0,0,-1,1385,428,10.1108,64.3907
168,596,10.3218,-63.7946,0,0,0,0,0,0,0,-1,1392,428,10.3218,63.7946
175,596,10.483,-63.4208,0,0,0,0,0,0,0,-1,1399,428,10.483,63.4208
182,596,10.5731,-63.1856,0,0,0,0,0,0,0,-1,1406,428,10.5732,63.1856
189,596,10.5222,-62.8062,0,0,0,0,0,0,0,-1,1413,428,10.5223,62.8062
196,596,10.4904,-62.1559,0,0,0,0,0,0,0,-1,1420,428,10.4904,62.1559
203,596,10.4376,-61.9898,0,0,0,0,0,0,0,-1,1427,428,10.4376,61.9898
210,596,10.4933,-61.7398,0,0,0,0,0,0,0,-1,1434,428,10.4933,61.7398
217,596,10.4941,-61.0892,0,0,0,0,0,0,0,-1,1441,428,10.4942,61.0892
224,596,10.6123,-60.4867,0,0,0,0,0,0,0,-1,1448,428,10.6123,60.4867
231,596,10.736,-59.9526,0.0057464,-0.00263207,-0.00176273,0.00610216,-0.00298782,-0.199144,0.00534979,0.0284648,1455,428,10.736,59.9526
238,596,10.6965,-59.326,0.00498056,-0.00234291,-0.00137422,0.00522994,-0.00259228,-0.179513,0.00460095,0.0180138,1462,428,10.6965,59.326
245,596,10.7073,-58.7392,0.00450387,-0.00230781,-0.00102252,0.00465405,-0.00245799,-0.145831,0.00417088,0.0149298,1469,428,10.7072,58.7392
252,596,10.7362,-58.1087,0.0039147,-0.00218963,-0.000716459,0.00399767,-0.00227259,-0.115282,0.00366552,0.0113883,1476,428,10.7363,58.1087
259,596,10.7419,-57.434,0.00327128,-0.00209079,-0.000463676,0.00331108,-0.00213059,-0.0856264,0.0031663,0.0100284,1483,428,10.742,57.434
266,596,10.7145,-56.7841,0.00279027,-0.00178925,-0.000155969,0.00279558,-0.00179456,-0.0340054,0.00267104,0.0111274,1490,428,10.7145,56.7841
273,596,10.729,-56.1329,0.00234862,-0.00130043,0.000160967,0.0023557,-0.00130752,0.0439983,0.00214363,0.0119077,1497,428,10.729,56.1329
280,596,10.7443,-55.4704,0.0020145,-0.000613348,0.000601344,0.00214557,-0.000744419,0.214607,0.00173267,0.0132318,1504,428,10.7443,55.4704
287,596,10.7201,-54.7534,0.00183354,0.000210811,0.00109303,0.00238344,-0.000339088,0.46612,0.00171321,0.0124437,1511,428,10.7201,54.7534
294,596,10.6564,-54.0286,0.00165318,0.00119079,0.00157103,0.00300993,-0.000165971,0.712342,0.00206417,0.00984324,1518,428,10.6564,54.0286
301,596,10.6329,-53.3072,0.00148322,0.0022071,0.00207706,0.00395352,-0.000263195,0.87166,0.00272765,0.01097,1525,428,10.6329,53.3072
308,596,10.6122,-52.5915,0.00139738,0.00350378,0.00260112,0.00525683,-0.000355671,0.977761,0.00362893,0.0174136,1532,428,10.6122,52.5915
315,596,10.5226,-51.8419,0.00138759,0.00480984,0.00311504,0.00665279,-0.000455358,1.03655,0.00459451,0.0184248,1539,428,10.5226,51.8419
322,596,10.5056,-51.0707,0.00127769,0.00608344,0.00364674,0.00804777,-0.000686645,1.07671,0.00560809,0.0157198,1546,428,10.5056,51.0707
329,596,10.4711,-50.3191,0.00119199,0.00731601,0.00421903,0.00946707,-0.000959073,1.0993,0.00665415,0.011797,1553,428,10.4711,50.3191
336,596,10.4161,-49.5752,0.00121616,0.00871772,0.00485477,0.0111018,-0.00116797,1.1143,0.00781969,0.00983802,1560,428,10.4161,49.5752
343,596,10.3932,-48.7909,0.00122143,0.0101042,0.00543395,0.0126809,-0.00135529,1.12801,0.00894002,0.0116851,1567,428,10.3932,48.7909
350,596,10.3527,-47.9671,0.00148387,0.0120153,0.00615628,0.0148507,-0.0013515,1.13919,0.0103803,0.0118917,1574,428,10.3527,47.9671
357,596,10.2734,-47.1546,0.00164611,0.0137546,0.00693073,0.016903,-0.0015023,1.1444,0.0118013,0.0103044,1581,428,10.2734,47.1546
364,596,10.1978,-46.3209,0.00181158,0.0154896,0.00753545,0.0188268,-0.00152561,1.15389,0.0130894,0.0102048,1588,428,10.1978,46.3209
371,596,10.1409,-45.4981,0.00224412,0.017737,0.00833458,0.0213692,-0.00138804,1.15982,0.0147306,0.0105925,1595,428,10.1409,45.4981
378,596,10.0614,-44.6557,0.00263486,0.0200788,0.00908881,0.0239536,-0.00123997,1.1678,0.016398,0.015805,1602,428,10.0614,44.6557
385,596,10.0801,-43.5985,0.00289072,0.02239,0.0096072,0.0263281,-0.00104737,1.18178,0.0179114,0.0365884,1609,428,10.0801,43.5985
392,596,9.9679,-42.4725,0,0,0,0,0,0,0,-1,1616,428,9.96793,42.4725
399,596,10.0659,-41.4062,0.00422481,0.0269174,0.0108069,0.0312404,-9.81856e-05,1.19027,0.0208597,0.0446506,1623,428,10.0659,41.4062
406,596,10.2186,-40.7045,0,0,0,0,0,0,0,-1,1630,428,10.2186,40.7045
413,596,10.3378,-40.015,0,0,0,0,0,0,0,-1,1637,428,10.3378,40.015
420,596,2.6344,-3.06308,0,0,0,0,0,0,0,-1,1644,428,2.63439,3.06308
427,596,7.61975,-22.7222,0,0,0,0,0,0,0,-1,1651,428,7.61974,22.7222
434,596,5.09753,-22.5213,0,0,0,0,0,0,0,-1,1658,428,5.09755,22.5213
441,596,7.19043,-22.087,0,0,0,0,0,0,0,-1,1665,428,7.19046,22.087
448,596,1.0769,0.0083313,0,0,0,0,0,0,0,-1,1672,428,1.07684,-0.00832231
455,596,2.00769,-1.43329,0,0,0,0,0,0,0,-1,1679,428,2.00765,1.4333
462,596,0,0,0,0,0,0,0,0,0,-1,1686,428,0,0
469,596,0,0,0,0,0,0,0,0,0,-1,1693,428,0,0
476,596,0,0,0,0,0,0,0,0,0,-1,1700,428,0,0
483,596,0,0,0,0,0,0,0,0,0,-1,1707,428,0,0
490,596,0,0,0,0,0,0,0,0,0,-1,1714,428,0,0
497,596,0,0,0,0,0,0,0,0,0,-1,1721,428,0,0
504,596,0,0,0,0,0,0,0,0,0,-1,1728,428,0,0
511,596,0,0,0,0,0,0,0,0,0,-1,1735,428,0,0
518,596,0,0,0,0,0,0,0,0,0,-1,1742,428,0,0
525,596,0,0,0,0,0,0,0,0,0,-1,1749,428,0,0
532,596,0,0,0,0,0,0,0,0,0,-1,1756,428,0,0
539,596,0,0,0,0,0,0,0,0,0,-1,1763,428,0,0
546,596,0,0,0,0,0,0,0,0,0,-1,1770,428,0,0
553,596,0,0,0,0,0,0,0,0,0,-1,1777,428,0,0
560,596,0,0,0,0,0,0,0,0,0,-1,1784,428,0,0
567,596,0,0,0,0,0,0,0,0,0,-1,1791,428,0,0
574,596,0,0,0,0,0,0,0,0,0,-1,1798,428,0,0
581,596,0,0,0,0,0,0,0,0,0,-1,1805,428,0,0
588,596,0,0,0,0,0,0,0,0,0,-1,1812,428,0,0
595,596,0,0,0,0,0,0,0,0,0,-1,1819,428,0,0
602,596,0,0,0,0,0,0,0,0,0,-1,1826,428,0,0
609,596,0,0,0,0,0,0,0,0,0,-1,1833,428,0,0
616,596,0,0,0,0,0,0,0,0,0,-1,1840,428,0,0
623,596,0,0,0,0,0,0,0,0,0,-1,1847,428,0,0
630,596,0,0,0,0,0,0,0,0,0,-1,1854,428,0,0
637,596,0,0,0,0,0,0,0,0,0,-1,1861,428,0,0
644,596,0,0,0,0,0,0,0,0,0,-1,1868,428,0,0
651,596,0,0,0,0,0,0,0,0,0,-1,1875,428,0,0
658,596,0,0,0,0,0,0,0,0,0,-1,1882,428,0,0
665,596,0,0,0,0,0,0,0,0,0,-1,1889,428,0,0
672,596,0,0,0,0,0,0,0,0,0,-1,1896,428,0,0
679,596,0,0,0,0,0,0,0,0,0,-1,1903,428,0,0
686,596,0,0,0,0,0,0,0,0,0,-1,1910,428,0,0
693,596,0,0,0,0,0,0,0,0,0,-1,1917,428,0,0
700,596,0,0,0,0,0,0,0,0,0,-1,1924,428,0,0
707,596,0,0,0,0,0,0,0,0,0,-1,1931,428,0,0
714,596,0,0,0,0,0,0,0,0,0,-1,1938,428,0,0
721,596,0,0,0,0,0,0,0,0,0,-1,1945,428,0,0
728,596,0,0,0,0,0,0,0,0,0,-1,1952,428,0,0
735,596,0,0,0,0,0,0,0,0,0,-1,1959,428,0,0
742,596,0,0,0,0,0,0,0,0,0,-1,1966,428,0,0
749,596,0,0,0,0,0,0,0,0,0,-1,1973,428,0,0
756,596,0,0,0,0,0,0,0,0,0,-1,1980,428,0,0
763,596,0,0,0,0,0,0,0,0,0,-1,1987,428,0,0
770,596,0,0,0,0,0,0,0,0,0,-1,1994,428,0,0
777,596,0,0,0,0,0,0,0,0,0,-1,2001,428,0,0
784,596,0,0,0,0,0,0,0,0,0,-1,2008,428,0,0
791,596,0,0,0,0,0,0,0,0,0,-1,2015,428,0,0
798,596,0,0,0,0,0,0,0,0,0,-1,2022,428,0,0
805,596,0,0,0,0,0,0,0,0,0,-1,2029,428,0,0
812,596,0,0,0,0,0,0,0,0,0,-1,2036,428,0,0
-700,589,0,0,0,0,0,0,0,0,0,-1,524,435,0,0
-693,589,0,0,0,0,0,0,0,0,0,-1,531,435,0,0
-686,589,0,0,0,0,0,0,0,0,0,-1,538,435,0,0
-679,589,0,0,0,0,0,0,0,0,0,-1,545,435,0,0
-672,589,0,0,0,0,0,0,0,0,0,-1,552,435,0,0
-665,589,0,0,0,0,0,0,0,0,0,-1,559,435,0,0
-658,589,0,0,0,0,0,0,0,0,0,-1,566,435,0,0
-651,589,0,0,0,0,0,0,0,0,0,-1,573,435,0,0
-644,589,0,0,0,0,0,0,0,0,0,-1,580,435,0,0
-637,589,0,0,0,0,0,0,0,0,0,-1,587,435,0,0
-630,589,0,0,0,0,0,0,0,0,0,-1,594,435,0,0
-623,589,0,0,0,0,0,0,0,0,0,-1,601,435,0,0
-616,589,0,0,0,0,0,0,0,0,0,-1,608,435,0,0
-609,589,0,0,0,0,0,0,0,0,0,-1,615,435,0,0
-602,589,0,0,0,0,0,0,0,0,0,-1,622,435,0,0
-595,589,0,0,0,0,0,0,0,0,0,-1,629,435,0,0
-588,589,0,0,0,0,0,0,0,0,0,-1,636,435,0,0
-581,589,0,0,0,0,0,0,0,0,0,-1,643,435,0,0
-574,589,0,0,0,0,0,0,0,0,0,-1,650,435,0,0
-567,589,0,0,0,0,0,0,0,0,0,-1,657,435,0,0
-560,589,0,0,0,0,0,0,0,0,0,-1,664,435,0,0
-553,589,0,0,0,0,0,0,0,0,0,-1,671,435,0,0
-546,589,0,0,0,0,0,0,0,0,0,-1,678,435,0,0
-539,589,0,0,0,0,0,0,0,0,0,-1,685,435,0,0
-532,589,0,0,0,0,0,0,0,0,0,-1,692,435,0,0
-525,589,0,0,0,0,0,0,0,0,0,-1,699,435,0,0
-518,589,0,0,0,0,0,0,0,0,0,-1,706,435,0,0
-511,589,0,0,0,0,0,0,0,0,0,-1,713,435,0,0
-504,589,0,0,0,0,0,0,0,0,0,-1,720,435,0,0
-497,589,0,0,0,0,0,0,0,0,0,-1,727,435,0,0
-490,589,0,0,0,0,0,0,0,0,0,-1,734,435,0,0
-483,589,0,0,0,0,0,0,0,0,0,-1,741,435,0,0
-476,589,0,0,0,0,0,0,0,0,0,-1,748,435,0,0
-469,589,0,0,0,0,0,0,0,0,0,-1,755,435,0,0
-462,589,0,0,0,0,0,0,0,0,0,-1,762,435,0,0
-455,589,0,0,0,0,0,0,0,0,0,-1,769,435,0,0
-448,589,0,0,0,0,0,0,0,0,0,-1,776,435,0,0
-441,589,0,0,0,0,0,0,0,0,0,-1,783,435,0,0
-434,589,0,0,0,0,0,0,0,0,0,-1,790,435,0,0
-427,589,0,0,0,0,0,0,0,0,0,-1,797,435,0,0
-420,589,0,0,0,0,0,0,0,0,0,-1,804,435,0,0
-413,589,0,0,0,0,0,0,0,0,0,-1,811,435,0,0
-406,589,0,0,0,0,0,0,0,0,0,-1,818,435,0,0
-399,589,0,0,0,0,0,0,0,0,0,-1,825,435,0,0
-392,589,0,0,0,0,0,0,0,0,0,-1,832,435,0,0
-385,589,0,0,0,0,0,0,0,0,0,-1,839,435,0,0
-378,589,0,0,0,0,0,0,0,0,0,-1,846,435,0,0
-371,589,0,0,0,0,0,0,0,0,0,-1,853,435,0,0
-364,589,0,0,0,0,0,0,0,0,0,-1,860,435,0,0
-357,589,0,0,0,0,0,0,0,0,0,-1,867,435,0,0
-350,589,-0.799927,-20.664,0,0,0,0,0,0,0,-1,874,435,-0.799952,20.664
-343,589,5.15289,-30.4847,0,0,0,0,0,0,0,-1,881,435,5.15291,30.4847
-336,589,5.07684,-29.2368,0,0,0,0,0,0,0,-1,888,435,5.07687,29.2368
-329,589,4.9624,-28.1366,0,0,0,0,0,0,0,-1,895,435,4.96242,28.1366
-322,589,5.10156,-27.065,0,0,0,0,0,0,0,-1,902,435,5.10155,27.065
-315,589,4.22705,-27.9655,0,0,0,0,0,0,0,-1,909,435,4.22705,27.9655
-308,589,4.46698,-29.037,0,0,0,0,0,0,0,-1,916,435,4.46696,29.037
-301,589,4.94867,-33.7458,0,0,0,0,0,0,0,-1,923,435,4.94869,33.7458
-294,589,4.1037,-31.2976,0,0,0,0,0,0,0,-1,930,435,4.10371,31.2976
-287,589,5.11798,-40.4761,0,0,0,0,0,0,0,-1,937,435,5.11797,40.4761
-280,589,5.16925,-41.3925,-0.00162285,0.0237235,-0.0115315,0.0281846,-0.00608398,-1.20166,0.021112,0.0487725,944,435,5.16928,41.3925
-273,589,5.08252,-42.2845,-0.00122552,0.0217782,-0.0108301,0.0260746,-0.00552187,-1.19313,0.0194862,0.0303034,951,435,5.08252,42.2845
-266,589,5.04175,-43.2361,-0.00106679,0.0198661,-0.00999217,0.02387,-0.00507065,-1.18969,0.0178453,0.0277197,958,435,5.04177,43.2361
-259,589,4.98401,-44.1569,-0.000897541,0.0177927,-0.00910961,0.0214981,-0.00460295,-1.18448,0.0160874,0.0222978,965,435,4.98401,44.1569
-252,589,4.93866,-45.0788,-0.000721173,0.0161223,-0.00817417,0.019437,-0.00403582,-1.18556,0.0144918,0.0119759,972,435,4.93868,45.0788
-245,589,4.90295,-45.9194,-0.000525813,0.0144983,-0.00728185,0.0174484,-0.0034759,-1.18588,0.0129473,0.0111218,979,435,4.90293,45.9194
-238,589,4.82751,-46.7317,-0.000407907,0.0126908,-0.00634548,0.0152606,-0.00297771,-1.186,0.0112979,0.0146057,986,435,4.8275,46.7317
-231,589,4.76581,-47.4921,-0.000330792,0.0108055,-0.00531441,0.0129346,-0.00245986,-1.18975,0.00954923,0.01497,993,435,4.76583,47.4921
-224,589,4.72595,-48.2822,-8.16193e-05,0.00894713,-0.00449077,0.0108004,-0.00193487,-1.17941,0.00792434,0.0151095,1000,435,4.72597,48.2822
-217,589,4.67371,-49.0829,0.000208273,0.00688792,-0.00369717,0.00853041,-0.00143422,-1.15273,0.00622038,0.0166494,1007,435,4.67368,49.0829
-210,589,4.63708,-49.8541,0.000522944,0.00482796,-0.00296407,0.00633865,-0.000987743,-1.09945,0.00459057,0.0162666,1014,435,4.63711,49.8541
-203,589,4.57983,-50.6228,0.000911846,0.00286162,-0.00226664,0.00435413,-0.000580663,-0.988491,0.0031144,0.0124661,1021,435,4.57984,50.6228
-196,589,4.53638,-51.3492,0.00135691,0.00105528,-0.00166523,0.00287814,-0.000465951,-0.740238,0.00209145,0.016227,1028,435,4.53634,51.3492
-189,589,4.5238,-52.107,0.00181223,-0.000648445,-0.00113343,0.00225473,-0.00109094,-0.372211,0.0019702,0.0205155,1035,435,4.52386,52.107
-182,589,4.48828,-52.8098,0.00229863,-0.00221312,-0.000576711,0.00237118,-0.00228567,-0.125144,0.00268879,0.0133672,1042,435,4.48826,52.8099
-175,589,4.47217,-53.5314,0.00276111,-0.00361241,-3.17321e-05,0.00276127,-0.00361257,-0.00497857,0.00369086,0.0177504,1049,435,4.47217,53.5314
-168,589,4.46106,-54.2666,0.00319372,-0.00465371,0.00043375,0.00321762,-0.00467761,0.0550494,0.00458422,0.0154689,1056,435,4.46103,54.2666
-161,589,4.43555,-54.9524,0.00365685,-0.00549192,0.00090397,0.00374532,-0.00558039,0.0975508,0.00541883,0.0137699,1063,435,4.43555,54.9524
-154,589,4.38684,-55.6403,0.00415723,-0.00616406,0.00141202,0.00434691,-0.00635375,0.133538,0.00621414,0.0138868,1070,435,4.38685,55.6403
-147,589,4.42664,-56.2931,0.00470533,-0.00656602,0.00183835,0.00499758,-0.00685827,0.157658,0.00687303,0.0142482,1077,435,4.42658,56.2931
-140,589,4.45532,-56.9275,0.00515608,-0.00705156,0.002316,0.0055807,-0.00747617,0.181327,0.00756482,0.0159243,1084,435,4.45537,56.9275
-133,589,4.44775,-57.5708,0.00553503,-0.00735359,0.00269517,0.00607592,-0.00789448,0.198059,0.00808856,0.0156913,1091,435,4.44774,57.5708
-126,589,4.46509,-58.192,0.00604988,-0.00727299,0.00294487,0.00667179,-0.00789489,0.208123,0.00841995,0.0128314,1098,435,4.4651,58.192
-119,589,4.40564,-58.827,0.00696766,-0.00716528,0.00305478,0.00759968,-0.0077973,0.204015,0.00888969,0.0311586,1105,435,4.4056,58.827
-112,589,4.35901,-59.4949,0,0,0,0,0,0,0,-1,1112,435,4.35902,59.4949
-105,589,4.54053,-60.1119,0,0,0,0,0,0,0,-1,1119,435,4.54047,60.1119
-98,589,4.57654,-60.9049,0,0,0,0,0,0,0,-1,1126,435,4.57649,60.9049
-91,589,3.39563,-37.8231,0,0,0,0,0,0,0,-1,1133,435,3.39565,37.8231
-84,589,2.76538,-22.6013,0,0,0,0,0,0,0,-1,1140,435,2.76539,22.6014
-77,589,2.18152,-14.8023,0,0,0,0,0,0,0,-1,1147,435,2.18155,14.8023
-70,589,1.48267,-9.90961,0,0,0,0,0,0,0,-1,1154,435,1.48264,9.9096
-63,589,0.880127,-5.50586,0,0,0,0,0,0,0,-1,1161,435,0.880186,5.50587
-56,589,-2.78052,-7.28082,0,0,0,0,0,0,0,-1,1168,435,-2.78053,7.28082
-49,589,-0.525757,-2.76703,0,0,0,0,0,0,0,-1,1175,435,-0.525771,2.76702
-42,589,-2.7738,-2.87921,0,0,0,0,0,0,0,-1,1182,435,-2.77383,2.87922
-35,589,-2.55225,-3.27551,0,0,0,0,0,0,0,-1,1189,435,-2.55223,3.27552
-28,589,-0.0632324,-3.42938,0,0,0,0,0,0,0,-1,1196,435,-0.063241,3.42938
-21,589,-1.49963,-65.0718,0,0,0,0,0,0,0,-1,1203,435,-1.49962,65.0718
-14,589,-0.570435,-64.4053,0,0,0,0,0,0,0,-1,1210,435,-0.570432,64.4053
-7,589,0.314209,-63.6665,0,0,0,0,0,0,0,-1,1217,435,0.314256,63.6665
0,589,2.31531,-64.1806,0,0,0,0,0,0,0,-1,1224,435,2.31532,64.1806
7,589,1.4436,-61.0836,0,0,0,0,0,0,0,-1,1231,435,1.44366,61.0835
14,589,1.46228,-64.4319,0,0,0,0,0,0,0,-1,1238,435,1.46232,64.4319
21,589,1.95691,-65.0989,0,0,0,0,0,0,0,-1,1245,435,1.95696,65.0989
28,589,3.03699,-65.6913,0,0,0,0,0,0,0,-1,1252,435,3.03693,65.6913
35,589,6.61731,-65.7478,0,0,0,0,0,0,0,-1,1259,435,6.61726,65.7478
42,589,6.67627,-65.7088,0,0,0,0,0,0,0,-1,1266,435,6.67632,65.7088
49,589,7.16418,-65.4298,0,0,0,0,0,0,0,-1,1273,435,7.16413,65.4298
56,589,6.76843,-65.9826,0.00311713,0.043065,-0.0209358,0.0520266,-0.00584449,-1.16634,0.0367876,0.0456763,1280,435,6.76846,65.9826
63,589,6.84473,-66.1967,0.00221135,0.0360978,-0.0129892,0.0405039,-0.00219474,-1.24377,0.0277631,0.0484229,1287,435,6.84478,66.1967
70,589,6.2489,-64.7127,0,0,0,0,0,0,0,-1,1294,435,6.24893,64.7127
77,589,9.64807,-66.1268,0,0,0,0,0,0,0,-1,1301,435,9.64809,66.1268
84,589,8.87268,-66.6113,0.00195849,0.0197746,0.00210279,0.0200194,0.00171367,1.45489,0.0128133,0.0428484,1308,435,8.87263,66.6113
91,589,8.32446,-67.6243,0.00385662,0.0148935,0.00484355,0.0167176,0.0020325,1.21062,0.0105331,0.0454618,1315,435,8.32448,67.6243
98,589,7.7428,-68.5128,0.00675757,0.00990002,0.00607864,0.0146072,0.00205038,0.911872,0.00913174,0.0490356,1322,435,7.74277,68.5128
105,589,8.41553,-68.8833,0.00974269,0.00716095,0.00689087,0.0154626,0.00144109,0.692806,0.00986316,0.0458248,1329,435,8.41554,68.8833
112,589,7.8999,-69.3198,0.0130251,0.00495778,0.00720922,0.0172524,0.00073049,0.530339,0.011266,0.0429454,1336,435,7.89993,69.3198
119,589,7.41846,-70.4341,0.0170397,0.00100413,0.00743781,0.0199583,-0.00191454,0.373946,0.0139875,0.0436009,1343,435,7.41841,70.4341
126,589,6.80396,-71.3809,0.021993,-0.000621215,0.00665152,0.0238043,-0.00243255,0.265872,0.0167394,0.0491034,1350,435,6.80394,71.3809
133,589,7.12573,-72.7309,0,0,0,0,0,0,0,-1,1357,435,7.12576,72.7309
140,589,6.92065,-73.8575,0,0,0,0,0,0,0,-1,1364,435,6.92071,73.8574
147,589,-3.61328,-59.1745,0,0,0,0,0,0,0,-1,1371,435,-3.61333,59.1745
154,589,6.45593,-75.6108,0,0,0,0,0,0,0,-1,1378,435,6.45591,75.6108
161,589,-5.66907,-75.1069,0,0,0,0,0,0,0,-1,1385,435,-5.66909,75.1069
168,589,20.0441,-47.9614,0,0,0,0,0,0,0,-1,1392,435,20.044,47.9613
175,589,8.66992,-7.65527,0,0,0,0,0,0,0,-1,1399,435,8.66994,7.65528
182,589,3.8136,-2.45389,0,0,0,0,0,0,0,-1,1406,435,3.81363,2.4539
189,589,3.69983,-3.68149,0,0,0,0,0,0,0,-1,1413,435,3.69987,3.68147
196,589,3.31055,-5.31677,0,0,0,0,0,0,0,-1,1420,435,3.31059,5.31678
203,589,2.72559,-8.84338,0,0,0,0,0,0,0,-1,1427,435,2.72558,8.84338
210,589,3.62378,-14.4032,0,0,0,0,0,0,0,-1,1434,435,3.62378,14.4032
217,589,4.65601,-22.3745,0,0,0,0,0,0,0,-1,1441,435,4.65607,22.3745
224,589,6.79028,-33.9412,0,0,0,0,0,0,0,-1,1448,435,6.79028,33.9412
231,589,11.3744,-59.9947,0,0,0,0,0,0,0,-1,1455,435,11.3744,59.9947
238,589,11.285,-59.3071,0,0,0,0,0,0,0,-1,1462,435,11.2851,59.3071
245,589,11.3092,-58.7067,0,0,0,0,0,0,0,-1,1469,435,11.3092,58.7067
252,589,11.3671,-58.0233,0.00493599,-0.00484189,-0.00178258,0.00525083,-0.00515673,-0.174818,0.00600889,0.0360337,1476,435,11.3671,58.0233
259,589,11.376,-57.4161,0.00415397,-0.00509271,-0.00165599,0.00444159,-0.00538034,-0.171972,0.00567932,0.0130938,1483,435,11.376,57.4161
266,589,11.3649,-56.7438,0.00358276,-0.00500965,-0.0014385,0.00381719,-0.00524408,-0.161549,0.0052531,0.0107612,1490,435,11.3649,56.7438
273,589,11.3915,-56.1264,0.00301276,-0.00478017,-0.00124551,0.00320698,-0.00497439,-0.154694,0.00476012,0.0133849,1497,435,11.3915,56.1264
280,589,11.395,-55.4514,0.0025517,-0.0042858,-0.000906716,0.00266989,-0.00440399,-0.129625,0.00412481,0.0143649,1504,435,11.395,55.4514
287,589,11.3862,-54.7639,0.00225794,-0.00365158,-0.000539932,0.00230687,-0.00370051,-0.0903694,0.00349933,0.0124447,1511,435,11.3862,54.7639
294,589,11.3683,-54.0139,0.00198814,-0.00272905,-0.000164392,0.00199386,-0.00273478,-0.0347932,0.00274123,0.0108109,1518,435,11.3683,54.0139
301,589,11.3545,-53.2797,0.00173938,-0.00181653,0.000230925,0.00175432,-0.00183146,0.0645797,0.00207041,0.0112777,1525,435,11.3545,53.2797
308,589,11.323,-52.5512,0.0015614,-0.000559649,0.000673337,0.0017571,-0.000755346,0.282846,0.0014885,0.0117083,1532,435,11.323,52.5513
315,589,11.2821,-51.8109,0.00145626,0.000742305,0.00113946,0.00229336,-9.47887e-05,0.633597,0.00156146,0.011862,1539,435,11.2821,51.8109
322,589,11.2799,-51.0502,0.00127385,0.00203105,0.00165603,0.0033512,-4.63048e-05,0.897778,0.00224973,0.0126908,1546,435,11.2799,51.0502
329,589,11.2378,-50.2921,0.00113075,0.00332917,0.0022346,0.00472028,-0.000260363,1.01397,0.00323713,0.0115769,1553,435,11.2377,50.2921
336,589,11.183,-49.5492,0.00108829,0.00475602,0.00286784,0.00632621,-0.000481891,1.06986,0.00438693,0.0109443,1560,435,11.183,49.5492
343,589,11.1471,-48.783,0.00106591,0.00624002,0.00350125,0.00800631,-0.000700383,1.10358,0.00558565,0.0113487,1567,435,11.1472,48.783
350,589,11.1162,-47.9783,0.0012209,0.00812879,0.00424192,0.0101451,-0.000795401,1.12708,0.00704352,0.0158766,1574,435,11.1162,47.9783
357,589,11.0751,-47.1313,0.00131202,0.0098211,0.00504298,0.0121645,-0.00103138,1.1358,0.0084744,0.0136959,1581,435,11.0751,47.1313
364,589,11.0232,-46.3193,0.00143389,0.0114481,0.0057401,0.0140581,-0.00117608,1.14405,0.00978766,0.0116582,1588,435,11.0231,46.3193
371,589,10.9531,-45.5125,0.00169932,0.0133403,0.00652268,0.0162618,-0.00122225,1.14968,0.0112708,0.0121425,1595,435,10.9532,45.5125
378,589,10.8658,-44.6623,0.00190426,0.0152717,0.00723382,0.0184369,-0.00126089,1.15834,0.0127324,0.0135657,1602,435,10.8658,44.6623
385,589,10.8169,-43.7851,0.00200033,0.017089,0.00768858,0.0203165,-0.00122712,1.17336,0.0139713,0.0223332,1609,435,10.8169,43.7851
392,589,10.7601,-42.7578,0.00229155,0.0186144,0.00809455,0.0219478,-0.00104184,1.18015,0.0149912,0.030937,1616,435,10.7601,42.7578
399,589,10.7755,-41.7469,0.00277076,0.0203846,0.00871612,0.0239685,-0.000813145,1.18069,0.0162569,0.0390643,1623,435,10.7755,41.7469
406,589,10.6189,-40.9755,0,0,0,0,0,0,0,-1,1630,435,10.6189,40.9755
413,589,5.61377,-19.0606,0,0,0,0,0,0,0,-1,1637,435,5.61372,19.0606
420,589,2.79724,-5.79956,0,0,0,0,0,0,0,-1,1644,435,2.7973,5.79955
427,589,9.96301,-38.8046,0,0,0,0,0,0,0,-1,1651,435,9.96299,38.8046
434,589,9.14709,-34.4435,0,0,0,0,0,0,0,-1,1658,435,9.1471,34.4435
441,589,7.85901,-29.8665,0,0,0,0,0,0,0,-1,1665,435,7.85898,29.8666
448,589,0.453735,-3.2868,0,0,0,0,0,0,0,-1,1672,435,0.453701,3.28681
455,589,0.664307,-3.46848,0,0,0,0,0,0,0,-1,1679,435,0.66425,3.46846
462,589,3.46716,-4.41891,0,0,0,0,0,0,0,-1,1686,435,3.4672,4.41891
469,589,0.0238037,-3.81497,0,0,0,0,0,0,0,-1,1693,435,0.0237965,3.81498
476,589,0,0,0,0,0,0,0,0,0,-1,1700,435,0,0
483,589,0,0,0,0,0,0,0,0,0,-1,1707,435,0,0
490,589,0,0,0,0,0,0,0,0,0,-1,1714,435,0,0
497,589,0,0,0,0,0,0,0,0,0,-1,1721,435,0,0
504,589,0,0,0,0,0,0,0,0,0,-1,1728,435,0,0
511,589,0,0,0,0,0,0,0,0,0,-1,1735,435,0,0
518,589,0,0,0,0,0,0,0,0,0,-1,1742,435,0,0
525,589,0,0,0,0,0,0,0,0,0,-1,1749,435,0,0
532,589,0,0,0,0,0,0,0,0,0,-1,1756,435,0,0
539,589,0,0,0,0,0,0,0,0,0,-1,1763,435,0,0
546,589,0,0,0,0,0,0,0,0,0,-1,1770,435,0,0
553,589,0,0,0,0,0,0,0,0,0,-1,1777,435,0,0
560,589,0,0,0,0,0,0,0,0,0,-1,1784,435,0,0
567,589,0,0,0,0,0,0,0,0,0,-1,1791,435,0,0
574,589,0,0,0,0,0,0,0,0,0,-1,1798,435,0,0
581,589,0,0,0,0,0,0,0,0,0,-1,1805,435,0,0
588,589,0,0,0,0,0,0,0,0,0,-1,1812,435,0,0
595,589,0,0,0,0,0,0,0,0,0,-1,1819,435,0,0
602,589,0,0,0,0,0,0,0,0,0,-1,1826,435,0,0
609,589,0,0,0,0,0,0,0,0,0,-1,1833,435,0,0
616,589,0,0,0,0,0,0,0,0,0,-1,1840,435,0,0
623,589,0,0,0,0,0,0,0,0,0,-1,1847,435,0,0
630,589,0,0,0,0,0,0,0,0,0,-1,1854,435,0,0
637,589,0,0,0,0,0,0,0,0,0,-1,1861,435,0,0
644,589,0,0,0,0,0,0,0,0,0,-1,1868,435,0,0
651,589,0,0,0,0,0,0,0,0,0,-1,1875,435,0,0
658,589,0,0,0,0,0,0,0,0,0,-1,1882,435,0,0
665,589,0,0,0,0,0,0,0,0,0,-1,1889,435,0,0
672,589,0,0,0,0,0,0,0,0,0,-1,1896,435,0,0
679,589,0,0,0,0,0,0,0,0,0,-1,1903,435,0,0
686,589,0,0,0,0,0,0,0,0,0,-1,1910,435,0,0
693,589,0,0,0,0,0,0,0,0,0,-1,1917,435,0,0
700,589,0,0,0,0,0,0,0,0,0,-1,1924,435,0,0
707,589,0,0,0,0,0,0,0,0,0,-1,1931,435,0,0
714,589,0,0,0,0,0,0,0,0,0,-1,1938,435,0,0
721,589,0,0,0,0,0,0,0,0,0,-1,1945,435,0,0
728,589,0,0,0,0,0,0,0,0,0,-1,1952,435,0,0
735,589,0,0,0,0,0,0,0,0,0,-1,1959,435,0,0
742,589,0,0,0,0,0,0,0,0,0,-1,1966,435,0,0
749,589,0,0,0,0,0,0,0,0,0,-1,1973,435,0,0
756,589,0,0,0,0,0,0,0,0,0,-1,1980,435,0,0
763,589,0,0,0,0,0,0,0,0,0,-1,1987,435,0,0
770,589,0,0,0,0,0,0,0,0,0,-1,1994,435,0,0
777,589,0,0,0,0,0,0,0,0,0,-1,2001,435,0,0
784,589,0,0,0,0,0,0,0,0,0,-1,2008,435,0,0
791,589,0,0,0,0,0,0,0,0,0,-1,2015,435,0,0
798,589,0,0,0,0,0,0,0,0,0,-1,2022,435,0,0
805,589,0,0,0,0,0,0,0,0,0,-1,2029,435,0,0
812,589,0,0,0,0,0,0,0,0,0,-1,2036,435,0,0
-700,582,0,0,0,0,0,0,0,0,0,-1,524,442,0,0
-693,582,0,0,0,0,0,0,0,0,0,-1,531,442,0,0
-686,582,0,0,0,0,0,0,0,0,0,-1,538,442,0,0
-679,582,0,0,0,0,0,0,0,0,0,-1,545,442,0,0
-672,582,0,0,0,0,0,0,0,0,0,-1,552,442,0,0
-665,582,0,0,0,0,0,0,0,0,0,-1,559,442,0,0
-658,582,0,0,0,0,0,0,0,0,0,-1,566,442,0,0
-651,582,0,0,0,0,0,0,0,0,0,-1,573,442,0,0
-644,582,0,0,0,0,0,0,0,0,0,-1,580,442,0,0
-637,582,0,0,0,0,0,0,0,0,0,-1,587,442,0,0
-630,582,0,0,0,0,0,0,0,0,0,-1,594,442,0,0
-623,582,0,0,0,0,0,0,0,0,0,-1,601,442,0,0
-616,582,0,0,0,0,0,0,0,0,0,-1,608,442,0,0
-609,582,0,0,0,0,0,0,0,0,0,-1,615,442,0,0
-602,582,0,0,0,0,0,0,0,0,0,-1,622,442,0,0
-595,582,0,0,0,0,0,0,0,0,0,-1,629,442,0,0
-588,582,0,0,0,0,0,0,0,0,0,-1,636,442,0,0
-581,582,0,0,0,0,0,0,0,0,0,-1,643,442,0,0
-574,582,0,0,0,0,0,0,0,0,0,-1,650,442,0,0
-567,582,0,0,0,0,0,0,0,0,0,-1,657,442,0,0
-560,582,0,0,0,0,0,0,0,0,0,-1,664,442,0,0
-553,582,0,0,0,0,0,0,0,0,0,-1,671,442,0,0
-546,582,0,0,0,0,0,0,0,0,0,-1,678,442,0,0
-539,582,0,0,0,0,0,0,0,0,0,-1,685,442,0,0
-532,582,0,0,0,0,0,0,0,0,0,-1,692,442,0,0
-525,582,0,0,0,0,0,0,0,0,0,-1,699,442,0,0
-518,582,0,0,0,0,0,0,0,0,0,-1,706,442,0,0
-511,582,0,0,0,0,0,0,0,0,0,-1,713,442,0,0
-504,582,0,0,0,0,0,0,0,0,0,-1,720,442,0,0
-497,582,0,0,0,0,0,0,0,0,0,-1,727,442,0,0
-490,582,0,0,0,0,0,0,0,0,0,-1,734,442,0,0
-483,582,0,0,0,0,0,0,0,0,0,-1,741,442,0,0
-476,582,0,0,0,0,0,0,0,0,0,-1,748,442,0,0
-469,582,0,0,0,0,0,0,0,0,0,-1,755,442,0,0
-462,582,0,0,0,0,0,0,0,0,0,-1,762,442,0,0
-455,582,0,0,0,0,0,0,0,0,0,-1,769,442,0,0
-448,582,0,0,0,0,0,0,0,0,0,-1,776,442,0,0
-441,582,0,0,0,0,0,0,0,0,0,-1,783,442,0,0
-434,582,0,0,0,0,0,0,0,0,0,-1,790,442,0,0
-427,582,0,0,0,0,0,0,0,0,0,-1,797,442,0,0
-420,582,0,0,0,0,0,0,0,0,0,-1,804,442,0,0
-413,582,0,0,0,0,0,0,0,0,0,-1,811,442,0,0
-406,582,0,0,0,0,0,0,0,0,0,-1,818,442,0,0
-399,582,0,0,0,0,0,0,0,0,0,-1,825,442,0,0
-392,582,0,0,0,0,0,0,0,0,0,-1,832,442,0,0
-385,582,0,0,0,0,0,0,0,0,0,-1,839,442,0,0
-378,582,0,0,0,0,0,0,0,0,0,-1,846,442,0,0
-371,582,0,0,0,0,0,0,0,0,0,-1,853,442,0,0
-364,582,0,0,0,0,0,0,0,0,0,-1,860,442,0,0
-357,582,-1.4903,-21.5295,0,0,0,0,0,0,0,-1,867,442,-1.49031,21.5295
-350,582,-0.880859,-19.7966,0,0,0,0,0,0,0,-1,874,442,-0.880885,19.7966
-343,582,0.939941,-19.1705,0,0,0,0,0,0,0,-1,881,442,0.939935,19.1705
-336,582,3.33929,-27.9479,0,0,0,0,0,0,0,-1,888,442,3.33928,27.9479
-329,582,3.63544,-26.4736,0,0,0,0,0,0,0,-1,895,442,3.63546,26.4736
-322,582,3.67145,-27.1796,0,0,0,0,0,0,0,-1,902,442,3.67143,27.1796
-315,582,3.90686,-27.6446,0,0,0,0,0,0,0,-1,909,442,3.90689,27.6446
-308,582,4.07587,-33.1895,0,0,0,0,0,0,0,-1,916,442,4.07588,33.1895
-301,582,4.86987,-38.6336,0,0,0,0,0,0,0,-1,923,442,4.86985,38.6336
-294,582,4.65515,-39.4951,0,0,0,0,0,0,0,-1,930,442,4.65515,39.4952
-287,582,4.33594,-40.4889,-0.00239326,0.0200587,-0.00959481,0.0236003,-0.00593491,-1.21719,0.0180403,0.0393579,937,442,4.33597,40.4889
-280,582,4.36945,-41.4467,-0.00161022,0.0185981,-0.00906942,0.0220714,-0.00508356,-1.20505,0.0166692,0.0186541,944,442,4.36947,41.4467
-273,582,4.35529,-42.4615,-0.00113979,0.0169225,-0.0084913,0.0202875,-0.00450476,-1.1935,0.01525,0.0134533,951,442,4.35526,42.4615
-266,582,4.2735,-43.3327,-0.00093127,0.015143,-0.007735,0.0182605,-0.00404876,-1.18767,0.0137238,0.0118827,958,442,4.27351,43.3327
-259,582,4.2168,-44.1912,-0.00067273,0.0131406,-0.00694191,0.0160264,-0.00355852,-1.17682,0.0120469,0.00929334,965,442,4.21682,44.1912
-252,582,4.16449,-45.0638,-0.00044433,0.0114289,-0.0060497,0.0139683,-0.0029837,-1.17338,0.0104497,0.00855256,972,442,4.16447,45.0638
-245,582,4.12561,-45.8665,-0.000180554,0.00979132,-0.00519245,0.0120041,-0.00239331,-1.16795,0.0089083,0.0126894,979,442,4.12564,45.8665
-238,582,4.05872,-46.6475,5.93353e-05,0.00796118,-0.0042783,0.0098338,-0.00181328,-1.15822,0.00723642,0.0175564,986,442,4.05871,46.6475
-231,582,3.99634,-47.4359,0.000273149,0.0060049,-0.00329363,0.00750494,-0.00122689,-1.14343,0.00545841,0.0134742,993,442,3.99636,47.4358
-224,582,3.9552,-48.2476,0.000584883,0.00409773,-0.00247102,0.00537296,-0.000690352,-1.09437,0.00383287,0.0112074,1000,442,3.95518,48.2475
-217,582,3.91626,-49.0193,0.000954189,0.00203101,-0.00168629,0.00326276,-0.00027756,-0.939926,0.00227335,0.0136396,1007,442,3.91625,49.0193
-210,582,3.88208,-49.7958,0.00136728,-2.69996e-05,-0.000978273,0.0018714,-0.000531119,-0.475825,0.00145726,0.0142488,1014,442,3.88209,49.7958
-203,582,3.83997,-50.5791,0.00188329,-0.00191938,-0.000338676,0.00191322,-0.0019493,-0.0881384,0.00223006,0.011493,1021,442,3.83992,50.5791
-196,582,3.77734,-51.3407,0.00248067,-0.00359828,0.000176286,0.00248578,-0.00360339,0.0289669,0.00353527,0.018343,1028,442,3.77738,51.3407
-189,582,3.76306,-52.0875,0.00305848,-0.00522231,0.000663561,0.00311131,-0.00527514,0.079457,0.00489535,0.0261326,1035,442,3.76304,52.0875
-182,582,3.79529,-52.8236,0.00367147,-0.00667652,0.00115475,0.00379876,-0.00680382,0.109792,0.00620282,0.0172798,1042,442,3.79532,52.8236
-175,582,3.75854,-53.4945,0.00429763,-0.00780257,0.00158073,0.00450073,-0.00800566,0.12778,0.00731447,0.0153924,1049,442,3.75849,53.4945
-168,582,3.7301,-54.2231,0.00485002,-0.0086319,0.00192524,0.00511956,-0.00890144,0.139099,0.0081926,0.0127492,1056,442,3.7301,54.2231
-161,582,3.71838,-54.9069,0.00535674,-0.00932857,0.00231139,0.00571195,-0.00968378,0.152485,0.00898678,0.0140919,1063,442,3.71839,54.9069
-154,582,3.70276,-55.5942,0.00593621,-0.00982571,0.00274387,0.00640021,-0.0102897,0.16752,0.00972276,0.0138182,1070,442,3.70278,55.5942
-147,582,3.73315,-56.2595,0.00657937,-0.00996286,0.0030794,0.00713401,-0.0105175,0.178204,0.0102533,0.0131817,1077,442,3.73315,56.2595
-140,582,3.74377,-56.8589,0.00705656,-0.0102363,0.00352791,0.0077486,-0.0109283,0.1937,0.0108351,0.0148885,1084,442,3.74378,56.8589
-133,582,3.79736,-57.4811,0.00739116,-0.0102969,0.00385509,0.00819485,-0.0111006,0.205532,0.0111823,0.0202846,1091,442,3.79732,57.4811
-126,582,3.79541,-58.0324,0.00786403,-0.00981904,0.00404583,0.00874574,-0.0107007,0.214576,0.0112463,0.0221856,1098,442,3.79539,58.0324
-119,582,3.87378,-58.7488,0,0,0,0,0,0,0,-1,1105,442,3.87377,58.7488
-112,582,3.47888,-53.7394,0,0,0,0,0,0,0,-1,1112,442,3.47883,53.7394
-105,582,2.87219,-43.073,0,0,0,0,0,0,0,-1,1119,442,2.87217,43.073
-98,582,2.61938,-32.8673,0,0,0,0,0,0,0,-1,1126,442,2.61944,32.8673
-91,582,2.16492,-24.1119,0,0,0,0,0,0,0,-1,1133,442,2.16496,24.1119
-84,582,2.10278,-16.7533,0,0,0,0,0,0,0,-1,1140,442,2.10279,16.7533
-77,582,2.30212,-11.4907,0,0,0,0,0,0,0,-1,1147,442,2.30207,11.4907
-70,582,1.49255,-6.36548,0,0,0,0,0,0,0,-1,1154,442,1.49251,6.36549
-63,582,-4.62915,-4.0347,0,0,0,0,0,0,0,-1,1161,442,-4.6292,4.03471
-56,582,-5.81714,-5.24149,0,0,0,0,0,0,0,-1,1168,442,-5.81718,5.24149
-49,582,-3.88672,-10.1064,0,0,0,0,0,0,0,-1,1175,442,-3.88678,10.1064
-42,582,-0.948975,1.13968,0,0,0,0,0,0,0,-1,1182,442,-0.949003,-1.13969
-35,582,-2.58435,-3.86911,0,0,0,0,0,0,0,-1,1189,442,-2.58437,3.86912
-28,582,-0.825317,-3.45941,0,0,0,0,0,0,0,-1,1196,442,-0.825377,3.45942
-21,582,13.1615,-74.4987,0,0,0,0,0,0,0,-1,1203,442,13.1615,74.4986
-14,582,-0.812622,-64.3715,0,0,0,0,0,0,0,-1,1210,442,-0.812605,64.3715
-7,582,1.92004,-60.5197,0,0,0,0,0,0,0,-1,1217,442,1.92002,60.5197
0,582,2.52112,-61.2741,0,0,0,0,0,0,0,-1,1224,442,2.5211,61.2741
7,582,3.02698,-62.1416,0.0252875,0.117821,-0.104782,0.186097,-0.0429879,-0.993302,0.140602,0.0484914,1231,442,3.02701,62.1416
14,582,2.74438,-63.9617,0.0218901,0.112249,-0.0964083,0.173539,-0.0393998,-1.00452,0.130819,0.0483652,1238,442,2.74437,63.9617
21,582,3.17834,-64.7404,0.0180855,0.10432,-0.0859075,0.157323,-0.0349181,-1.01798,0.118253,0.0421705,1245,442,3.1784,64.7404
28,582,3.86536,-65.5529,0.0148175,0.0967033,-0.074514,0.140782,-0.0292611,-1.03661,0.104977,0.0437701,1252,442,3.86537,65.5528
35,582,6.49585,-65.511,0,0,0,0,0,0,0,-1,1259,442,6.49591,65.5111
42,582,6.52417,-65.6406,0,0,0,0,0,0,0,-1,1266,442,6.52419,65.6406
49,582,6.53528,-65.7915,0.00393546,0.069816,-0.0361651,0.0857938,-0.0120423,-1.15478,0.0616036,0.0469687,1273,442,6.53533,65.7915
56,582,6.56372,-66.002,0.00232041,0.060871,-0.0252712,0.0702696,-0.00707825,-1.21474,0.0493752,0.0471433,1280,442,6.56378,66.0021
63,582,6.63062,-66.2108,0.00180682,0.0510088,-0.015972,0.055739,-0.00292331,-1.28287,0.0381711,0.0474984,1287,442,6.63065,66.2108
70,582,6.64954,-66.3697,0,0,0,0,0,0,0,-1,1294,442,6.6495,66.3697
77,582,6.03796,-66.2953,0,0,0,0,0,0,0,-1,1301,442,6.03796,66.2953
84,582,7.84741,-66.528,0.00397843,0.0257878,0.00124762,0.0258589,0.00390729,1.51384,0.0160957,0.0441575,1308,442,7.84741,66.528
91,582,7.46838,-67.4366,0.00717371,0.0181899,0.00422651,0.0196246,0.005739,1.24355,0.0116511,0.0440942,1315,442,7.46841,67.4366
98,582,7.26782,-68.0497,0.0116282,0.0103554,0.00542661,0.0164556,0.00552797,0.727027,0.00966962,0.0460902,1322,442,7.2678,68.0496
105,582,6.47632,-68.9448,0.0159623,0.00583057,0.00602,0.0187643,0.00302857,0.435626,0.0116322,0.0441438,1329,442,6.47633,68.9448
112,582,6.07837,-70.0361,0.0207275,0.0022026,0.00605125,0.022529,0.000401123,0.289349,0.0148874,0.0439005,1336,442,6.07838,70.0361
119,582,5.67273,-70.9291,0.0265222,-0.00327119,0.00595657,0.027669,-0.00441794,0.190192,0.0200813,0.0454405,1343,442,5.67274,70.9291
126,582,5.06714,-71.8187,0.0335471,-0.00613108,0.00472699,0.0341024,-0.00668645,0.116953,0.0252605,0.0483606,1350,442,5.06713,71.8187
133,582,4.52332,-72.9968,0.04021,-0.0103404,0.00374836,0.0404865,-0.0106168,0.0736143,0.0311392,0.0486184,1357,442,4.52333,72.9968
140,582,4.31555,-74.0824,0.0468152,-0.0158468,0.00209837,0.0468854,-0.0159169,0.0334371,0.0376998,0.0487759,1364,442,4.31551,74.0824
147,582,4.11963,-75.1251,0,0,0,0,0,0,0,-1,1371,442,4.11959,75.1251
154,582,4.26392,-76.363,0,0,0,0,0,0,0,-1,1378,442,4.26396,76.363
161,582,4.16296,-78.0016,0,0,0,0,0,0,0,-1,1385,442,4.16291,78.0016
168,582,0.081665,-40.4535,0,0,0,0,0,0,0,-1,1392,442,0.0816215,40.4535
175,582,6.50549,-2.00424,0,0,0,0,0,0,0,-1,1399,442,6.50546,2.00425
182,582,5.18958,-2.18652,0,0,0,0,0,0,0,-1,1406,442,5.1896,2.18652
189,582,6.19751,-0.880951,0,0,0,0,0,0,0,-1,1413,442,6.19754,0.88096
196,582,4.87354,-2.22327,0,0,0,0,0,0,0,-1,1420,442,4.87348,2.22325
203,582,3.11401,-4.48257,0,0,0,0,0,0,0,-1,1427,442,3.11404,4.48259
210,582,2.93115,-11.0731,0,0,0,0,0,0,0,-1,1434,442,2.93113,11.0731
217,582,4.94092,-16.5476,0,0,0,0,0,0,0,-1,1441,442,4.94087,16.5476
224,582,5.21008,-20.9908,0,0,0,0,0,0,0,-1,1448,442,5.21006,20.9908
231,582,5.70032,-25.622,0,0,0,0,0,0,0,-1,1455,442,5.70026,25.6221
238,582,6.44189,-30.7028,0,0,0,0,0,0,0,-1,1462,442,6.44195,30.7028
245,582,10.0378,-45.1569,0,0,0,0,0,0,0,-1,1469,442,10.0379,45.1568
252,582,12.0756,-58.1516,0,0,0,0,0,0,0,-1,1476,442,12.0756,58.1516
259,582,11.999,-57.43,0,0,0,0,0,0,0,-1,1483,442,11.999,57.43
266,582,12.0322,-56.7646,0.00448061,-0.00829344,-0.00243504,0.00492904,-0.00874187,-0.182118,0.00799458,0.0169609,1490,442,12.0322,56.7646
273,582,12.0841,-56.0759,0.00372317,-0.008389,-0.00241997,0.00418877,-0.00885461,-0.190077,0.00768952,0.0127062,1497,442,12.0841,56.0759
280,582,12.0786,-55.422,0.00310067,-0.0081129,-0.00222703,0.00352677,-0.008539,-0.189046,0.00716373,0.01278,1504,442,12.0786,55.422
287,582,12.0916,-54.7278,0.00267778,-0.00765949,-0.00202059,0.0030587,-0.00804041,-0.186333,0.00661974,0.0115729,1511,442,12.0915,54.7278
294,582,12.099,-53.9924,0.00230985,-0.00675242,-0.00177484,0.00264505,-0.00708762,-0.186665,0.00581102,0.0096583,1518,442,12.099,53.9924
301,582,12.098,-53.2433,0.00198904,-0.00590131,-0.00150433,0.00226612,-0.00617839,-0.182146,0.00504683,0.0105446,1525,442,12.0981,53.2434
308,582,12.0784,-52.5031,0.00176844,-0.00451547,-0.00107373,0.00194684,-0.00469387,-0.164649,0.00394185,0.0130716,1532,442,12.0784,52.5031
315,582,12.0458,-51.7877,0.00162513,-0.00312149,-0.000596457,0.00169893,-0.00319529,-0.12311,0.00286937,0.0142894,1539,442,12.0458,51.7877
322,582,12.03,-51.0109,0.00140571,-0.00173838,-6.43729e-05,0.00140703,-0.00173969,-0.0204628,0.00182014,0.0113939,1546,442,12.0301,51.0109
329,582,11.9927,-50.2645,0.00123822,-0.000304427,0.000540393,0.00140868,-0.000474891,0.305566,0.00113115,0.0112993,1553,442,11.9927,50.2645
336,582,11.9478,-49.508,0.00115058,0.00120395,0.00117807,0.00235563,-1.10804e-06,0.796723,0.00157079,0.0121683,1560,442,11.9477,49.508
343,582,11.9166,-48.7065,0.0011179,0.00281905,0.00185597,0.00401007,-7.3117e-05,1.00026,0.00269808,0.0142808,1567,442,11.9167,48.7065
350,582,11.8958,-47.9221,0.00116811,0.00469063,0.00257738,0.00605105,-0.000192315,1.08513,0.00409964,0.0171303,1574,442,11.8957,47.9222
357,582,11.861,-47.0747,0.00116585,0.00631838,0.00334629,0.00796524,-0.000481009,1.11345,0.00547754,0.0139306,1581,442,11.8609,47.0747
364,582,11.8107,-46.2679,0.0011995,0.00780212,0.00403646,0.00971537,-0.000713754,1.12817,0.00672747,0.0111752,1588,442,11.8106,46.2679
371,582,11.761,-45.4915,0.00131129,0.00938577,0.00473508,0.0115711,-0.000874027,1.13841,0.00802129,0.0169272,1595,442,11.761,45.4914
378,582,11.6764,-44.6539,0.00136808,0.011002,0.00534939,0.0133836,-0.00101351,1.15194,0.00927869,0.0179163,1602,442,11.6764,44.6539
385,582,11.6044,-43.7992,0.0013479,0.0124598,0.00571769,0.0148764,-0.00106863,1.17093,0.0102923,0.0131561,1609,442,11.6044,43.7992
392,582,11.5372,-42.9395,0.00149185,0.0136368,0.00606535,0.0161471,-0.00101841,1.17839,0.0111198,0.0115468,1616,442,11.5372,42.9395
399,582,11.4603,-42.1044,0.00177596,0.0149392,0.00660076,0.0176789,-0.000963776,1.17737,0.01212,0.018889,1623,442,11.4604,42.1044
406,582,11.4208,-41.1113,0.00171985,0.015728,0.00682515,0.0185035,-0.00105562,1.18457,0.0127022,0.0339133,1630,442,11.4208,41.1113
413,582,11.3947,-40.0778,0,0,0,0,0,0,0,-1,1637,442,11.3947,40.0778
420,582,11.2036,-39.4577,0,0,0,0,0,0,0,-1,1644,442,11.2037,39.4577
427,582,10.9993,-38.5798,0,0,0,0,0,0,0,-1,1651,442,10.9993,38.5798
434,582,10.6548,-37.606,0,0,0,0,0,0,0,-1,1658,442,10.6548,37.6059
441,582,10.8484,-36.2891,0,0,0,0,0,0,0,-1,1665,442,10.8484,36.2891
448,582,11.2651,-32.8669,0,0,0,0,0,0,0,-1,1672,442,11.2651,32.8668
455,582,6.4585,-19.4734,0,0,0,0,0,0,0,-1,1679,442,6.45854,19.4734
462,582,5.35022,-19.2616,0,0,0,0,0,0,0,-1,1686,442,5.35025,19.2616
469,582,6.28601,-21.5695,0,0,0,0,0,0,0,-1,1693,442,6.28597,21.5695
476,582,1.93579,-8.53891,0,0,0,0,0,0,0,-1,1700,442,1.93579,8.53892
483,582,0,0,0,0,0,0,0,0,0,-1,1707,442,0,0
490,582,0,0,0,0,0,0,0,0,0,-1,1714,442,0,0
497,582,0,0,0,0,0,0,0,0,0,-1,1721,442,0,0
504,582,0,0,0,0,0,0,0,0,0,-1,1728,442,0,0
511,582,0,0,0,0,0,0,0,0,0,-1,1735,442,0,0
518,582,0,0,0,0,0,0,0,0,0,-1,1742,442,0,0
525,582,0,0,0,0,0,0,0,0,0,-1,1749,442,0,0
532,582,0,0,0,0,0,0,0,0,0,-1,1756,442,0,0
539,582,0,0,0,0,0,0,0,0,0,-1,1763,442,0,0
546,582,0,0,0,0,0,0,0,0,0,-1,1770,442,0,0
553,582,0,0,0,0,0,0,0,0,0,-1,1777,442,0,0
560,582,0,0,0,0,0,0,0,0,0,-1,1784,442,0,0
567,582,0,0,0,0,0,0,0,0,0,-1,1791,442,0,0
574,582,0,0,0,0,0,0,0,0,0,-1,1798,442,0,0
581,582,0,0,0,0,0,0,0,0,0,-1,1805,442,0,0
588,582,0,0,0,0,0,0,0,0,0,-1,1812,442,0,0
595,582,0,0,0,0,0,0,0,0,0,-1,1819,442,0,0
602,582,0,0,0,0,0,0,0,0,0,-1,1826,442,0,0
609,582,0,0,0,0,0,0,0,0,0,-1,1833,442,0,0
616,582,0,0,0,0,0,0,0,0,0,-1,1840,442,0,0
623,582,0,0,0,0,0,0,0,0,0,-1,1847,442,0,0
630,582,0,0,0,0,0,0,0,0,0,-1,1854,442,0,0
637,582,0,0,0,0,0,0,0,0,0,-1,1861,442,0,0
644,582,0,0,0,0,0,0,0,0,0,-1,1868,442,0,0
651,582,0,0,0,0,0,0,0,0,0,-1,1875,442,0,0
658,582,0,0,0,0,0,0,0,0,0,-1,1882,442,0,0
665,582,0,0,0,0,0,0,0,0,0,-1,1889,442,0,0
672,582,0,0,0,0,0,0,0,0,0,-1,1896,442,0,0
679,582,0,0,0,0,0,0,0,0,0,-1,1903,442,0,0
686,582,0,0,0,0,0,0,0,0,0,-1,1910,442,0,0
693,582,0,0,0,0,0,0,0,0,0,-1,1917,442,0,0
700,582,0,0,0,0,0,0,0,0,0,-1,1924,442,0,0
707,582,0,0,0,0,0,0,0,0,0,-1,1931,442,0,0
714,582,0,0,0,0,0,0,0,0,0,-1,1938,442,0,0
721,582,0,0,0,0,0,0,0,0,0,-1,1945,442,0,0
728,582,0,0,0,0,0,0,0,0,0,-1,1952,442,0,0
735,582,0,0,0,0,0,0,0,0,0,-1,1959,442,0,0
742,582,0,0,0,0,0,0,0,0,0,-1,1966,442,0,0
749,582,0,0,0,0,0,0,0,0,0,-1,1973,442,0,0
756,582,0,0,0,0,0,0,0,0,0,-1,1980,442,0,0
763,582,0,0,0,0,0,0,0,0,0,-1,1987,442,0,0
770,582,0,0,0,0,0,0,0,0,0,-1,1994,442,0,0
777,582,0,0,0,0,0,0,0,0,0,-1,2001,442,0,0
784,582,0,0,0,0,0,0,0,0,0,-1,2008,442,0,0
791,582,0,0,0,0,0,0,0,0,0,-1,2015,442,0,0
798,582,0,0,0,0,0,0,0,0,0,-1,2022,442,0,0
805,582,0,0,0,0,0,0,0,0,0,-1,2029,442,0,0
812,582,0,0,0,0,0,0,0,0,0,-1,2036,442,0,0
-700,575,0,0,0,0,0,0,0,0,0,-1,524,449,0,0
-693,575,0,0,0,0,0,0,0,0,0,-1,531,449,0,0
-686,575,0,0,0,0,0,0,0,0,0,-1,538,449,0,0
-679,575,0,0,0,0,0,0,0,0,0,-1,545,449,0,0
-672,575,0,0,0,0,0,0,0,0,0,-1,552,449,0,0
-665,575,0,0,0,0,0,0,0,0,0,-1,559,449,0,0
-658,575,0,0,0,0,0,0,0,0,0,-1,566,449,0,0
-651,575,0,0,0,0,0,0,0,0,0,-1,573,449,0,0
-644,575,0,0,0,0,0,0,0,0,0,-1,580,449,0,0
-637,575,0,0,0,0,0,0,0,0,0,-1,587,449,0,0
-630,575,0,0,0,0,0,0,0,0,0,-1,594,449,0,0
-623,575,0,0,0,0,0,0,0,0,0,-1,601,449,0,0
-616,575,0,0,0,0,0,0,0,0,0,-1,608,449,0,0
-609,575,0,0,0,0,0,0,0,0,0,-1,615,449,0,0
-602,575,0,0,0,0,0,0,0,0,0,-1,622,449,0,0
-595,575,0,0,0,0,0,0,0,0,0,-1,629,449,0,0
-588,575,0,0,0,0,0,0,0,0,0,-1,636,449,0,0
-581,575,0,0,0,0,0,0,0,0,0,-1,643,449,0,0
-574,575,0,0,0,0,0,0,0,0,0,-1,650,449,0,0
-567,575,0,0,0,0,0,0,0,0,0,-1,657,449,0,0
-560,575,0,0,0,0,0,0,0,0,0,-1,664,449,0,0
-553,575,0,0,0,0,0,0,0,0,0,-1,671,449,0,0
-546,575,0,0,0,0,0,0,0,0,0,-1,678,449,0,0
-539,575,0,0,0,0,0,0,0,0,0,-1,685,449,0,0
-532,575,0,0,0,0,0,0,0,0,0,-1,692,449,0,0
-525,575,0,0,0,0,0,0,0,0,0,-1,699,449,0,0
-518,575,0,0,0,0,0,0,0,0,0,-1,706,449,0,0
-511,575,0,0,0,0,0,0,0,0,0,-1,713,449,0,0
-504,575,0,0,0,0,0,0,0,0,0,-1,720,449,0,0
-497,575,0,0,0,0,0,0,0,0,0,-1,727,449,0,0
-490,575,0,0,0,0,0,0,0,0,0,-1,734,449,0,0
-483,575,0,0,0,0,0,0,0,0,0,-1,741,449,0,0
-476,575,0,0,0,0,0,0,0,0,0,-1,748,449,0,0
-469,575,0,0,0,0,0,0,0,0,0,-1,755,449,0,0
-462,575,0,0,0,0,0,0,0,0,0,-1,762,449,0,0
-455,575,0,0,0,0,0,0,0,0,0,-1,769,449,0,0
-448,575,0,0,0,0,0,0,0,0,0,-1,776,449,0,0
-441,575,0,0,0,0,0,0,0,0,0,-1,783,449,0,0
-434,575,0,0,0,0,0,0,0,0,0,-1,790,449,0,0
-427,575,0,0,0,0,0,0,0,0,0,-1,797,449,0,0
-420,575,0,0,0,0,0,0,0,0,0,-1,804,449,0,0
-413,575,0,0,0,0,0,0,0,0,0,-1,811,449,0,0
-406,575,0,0,0,0,0,0,0,0,0,-1,818,449,0,0
-399,575,0,0,0,0,0,0,0,0,0,-1,825,449,0,0
-392,575,0,0,0,0,0,0,0,0,0,-1,832,449,0,0
-385,575,0,0,0,0,0,0,0,0,0,-1,839,449,0,0
-378,575,0,0,0,0,0,0,0,0,0,-1,846,449,0,0
-371,575,0.56897,-3.52304,0,0,0,0,0,0,0,-1,853,449,0.568955,3.52306
-364,575,1.49805,-4.67191,0,0,0,0,0,0,0,-1,860,449,1.49803,4.6719
-357,575,3.15521,-8.29892,0,0,0,0,0,0,0,-1,867,449,3.15521,8.29891
-350,575,-0.825928,-18.5347,0,0,0,0,0,0,0,-1,874,449,-0.825948,18.5347
-343,575,0.465393,-16.3569,0,0,0,0,0,0,0,-1,881,449,0.465397,16.3569
-336,575,3.1994,-17.5725,0,0,0,0,0,0,0,-1,888,449,3.19941,17.5725
-329,575,2.81946,-29.1576,0,0,0,0,0,0,0,-1,895,449,2.81945,29.1576
-322,575,4.28943,-27.9487,0,0,0,0,0,0,0,-1,902,449,4.28944,27.9487
-315,575,5.987,-35.1042,0,0,0,0,0,0,0,-1,909,449,5.987,35.1042
-308,575,3.80865,-37.9796,0,0,0,0,0,0,0,-1,916,449,3.80868,37.9795
-301,575,3.94568,-38.829,-0.00381873,0.0204862,-0.00886766,0.0233776,-0.00671012,-1.25561,0.018238,0.0432783,923,449,3.94569,38.829
-294,575,3.80682,-39.6696,-0.00292801,0.0178245,-0.00812708,0.0206284,-0.00573189,-1.23858,0.0160087,0.0253494,930,449,3.80682,39.6696
-287,575,3.67523,-40.6329,-0.0022553,0.0156107,-0.00742287,0.0182922,-0.00493683,-1.22413,0.0141309,0.0169982,937,449,3.67526,40.6329
-280,575,3.62781,-41.5719,-0.0015176,0.0142026,-0.00693629,0.0168255,-0.0041405,-1.20927,0.012822,0.0135908,944,449,3.6278,41.5719
-273,575,3.57312,-42.4651,-0.00102308,0.0125987,-0.00639194,0.0151283,-0.00355271,-1.19396,0.0114549,0.0128912,951,449,3.5731,42.4651
-266,575,3.50323,-43.3142,-0.000723887,0.0108765,-0.00568764,0.0131998,-0.0030472,-1.183,0.00997205,0.0145956,958,449,3.50322,43.3142
-259,575,3.43787,-44.1624,-0.000399779,0.00888406,-0.00493738,0.011019,-0.00253467,-1.16268,0.00832056,0.0134287,965,449,3.43785,44.1624
-252,575,3.35413,-44.9982,-0.000123608,0.00708248,-0.00405678,0.00890524,-0.00194637,-1.14851,0.00668081,0.0118101,972,449,3.35412,44.9982
-245,575,3.27997,-45.8156,0.000200275,0.00537572,-0.00320636,0.00690832,-0.00133232,-1.12491,0.00510791,0.0160724,979,449,3.27997,45.8156
-238,575,3.24713,-46.6077,0.000549061,0.00346975,-0.00229025,0.00472562,-0.000706812,-1.06922,0.00341052,0.0160372,986,449,3.24711,46.6077
-231,575,3.21417,-47.4028,0.000902926,0.00137796,-0.00132969,0.00249118,-0.000210292,-0.87378,0.00173514,0.0129941,993,449,3.21419,47.4028
-224,575,3.15717,-48.1973,0.00129326,-0.000642743,-0.000494217,0.00141212,-0.000761607,-0.236028,0.0012736,0.0124037,1000,449,3.15719,48.1973
-217,575,3.13855,-49.0001,0.00175196,-0.00279155,0.000304035,0.00177221,-0.00281181,0.066521,0.00266918,0.0109293,1007,449,3.13854,49.0001
-210,575,3.13995,-49.7837,0.0022712,-0.00492478,0.0010086,0.00240989,-0.00506348,0.136654,0.00440448,0.0104505,1014,449,3.13997,49.7837
-203,575,3.1095,-50.5404,0.00292202,-0.00682427,0.00160892,0.00318075,-0.007083,0.159446,0.00606686,0.0142466,1021,449,3.10945,50.5404
-196,575,3.06201,-51.287,0.00368715,-0.00843908,0.00203877,0.00402075,-0.00877268,0.16219,0.00755422,0.0185549,1028,449,3.06204,51.287
-189,575,3.03918,-52.0344,0.00440929,-0.0100115,0.00246579,0.00481926,-0.0104214,0.164755,0.00899518,0.0195738,1035,449,3.03914,52.0344
-182,575,3.03406,-52.7473,0.00517027,-0.0114059,0.00288316,0.00565744,-0.011893,0.167387,0.0103438,0.0159155,1042,449,3.03402,52.7474
-175,575,3.02759,-53.4469,0.00598462,-0.0123186,0.0031819,0.006522,-0.0128559,0.167307,0.0113853,0.0132344,1049,449,3.02761,53.4469
-168,575,2.9884,-54.1501,0.0066982,-0.0129876,0.00338197,0.00726301,-0.0135525,0.165478,0.0121993,0.0119635,1056,449,2.98837,54.1501
-161,575,2.98694,-54.8411,0.00729738,-0.0135856,0.00365795,0.00791959,-0.0142079,0.168483,0.0129461,0.0166254,1063,449,2.98696,54.8411
-154,575,3.026,-55.52,0.00800114,-0.0139382,0.00400045,0.00870782,-0.0146449,0.174847,0.0136272,0.0176207,1070,449,3.02595,55.52
-147,575,3.06384,-56.1266,0.00878057,-0.013815,0.00424075,0.00955025,-0.0145847,0.179544,0.014035,0.015829,1077,449,3.0639,56.1266
-140,575,3.03564,-56.6426,0.00929288,-0.0139279,0.00471465,0.0102136,-0.0148486,0.192865,0.0145519,0.0264952,1084,449,3.03565,56.6426
-133,575,3.05469,-57.175,0.00955286,-0.0137923,0.00506399,0.010604,-0.0148435,0.204665,0.0147599,0.0431075,1091,449,3.05467,57.175
-126,575,3.11279,-57.6857,0,0,0,0,0,0,0,-1,1098,449,3.11279,57.6857
-119,575,3.00208,-52.3971,0,0,0,0,0,0,0,-1,1105,449,3.00204,52.3971
-112,575,2.70337,-43.3701,0,0,0,0,0,0,0,-1,1112,449,2.70333,43.3701
-105,575,2.18347,-36.5414,0,0,0,0,0,0,0,-1,1119,449,2.18351,36.5414
-98,575,1.521,-25.6961,0,0,0,0,0,0,0,-1,1126,449,1.52105,25.6961
-91,575,1.60803,-16.4247,0,0,0,0,0,0,0,-1,1133,449,1.60802,16.4247
-84,575,1.16553,-11.9056,0,0,0,0,0,0,0,-1,1140,449,1.16558,11.9056
-77,575,0.205078,-11.2584,0,0,0,0,0,0,0,-1,1147,449,0.205117,11.2584
-70,575,-4.2467,-1.78738,0,0,0,0,0,0,0,-1,1154,449,-4.24674,1.78739
-63,575,-4.52209,-3.48798,0,0,0,0,0,0,0,-1,1161,449,-4.5221,3.48796
-56,575,-5.5968,-5.4928,0,0,0,0,0,0,0,-1,1168,449,-5.59683,5.49281
-49,575,-5.96863,-7.17612,0,0,0,0,0,0,0,-1,1175,449,-5.96868,7.1761
-42,575,-0.830322,0.773499,0,0,0,0,0,0,0,-1,1182,449,-0.83038,-0.77351
-35,575,-0.62085,0.205139,0,0,0,0,0,0,0,-1,1189,449,-0.620855,-0.205126
-28,575,0.49292,-3.87988,0,0,0,0,0,0,0,-1,1196,449,0.492941,3.87989
-21,575,10.019,-77.3992,0,0,0,0,0,0,0,-1,1203,449,10.0191,77.3992
-14,575,2.94934,-60.8356,0,0,0,0,0,0,0,-1,1210,449,2.94937,60.8356
-7,575,3.48047,-61.6569,0.0358737,0.178616,-0.141073,0.265345,-0.0508547,-1.01958,0.196059,0.0492486,1217,449,3.48049,61.6569
0,575,4.08374,-62.4306,0,0,0,0,0,0,0,-1,1224,449,4.08371,62.4306
7,575,4.56702,-63.2575,0.02816,0.159165,-0.127432,0.236944,-0.0496188,-1.0228,0.176838,0.0462763,1231,449,4.56705,63.2575
14,575,4.68103,-64.1156,0.0236886,0.150711,-0.11674,0.220098,-0.0456983,-1.03453,0.1641,0.0462309,1238,449,4.68098,64.1156
21,575,5.02209,-64.9043,0.018902,0.140242,-0.103462,0.19951,-0.0403665,-1.05058,0.148305,0.0436373,1245,449,5.0221,64.9043
28,575,5.1604,-65.7424,0.0147811,0.130389,-0.0891257,0.178814,-0.0336444,-1.07308,0.131863,0.0430994,1252,449,5.16046,65.7423
35,575,5.4823,-66.5031,0.0107275,0.120135,-0.0732874,0.156883,-0.0260212,-1.106,0.114255,0.0419388,1259,449,5.48231,66.503
42,575,6.33411,-65.6199,0,0,0,0,0,0,0,-1,1266,449,6.33415,65.6199
49,575,6.68567,-66.2523,0.00242856,0.0963487,-0.0421846,0.112514,-0.0137366,-1.20486,0.0799822,0.0472019,1273,449,6.68565,66.2523
56,575,6.36743,-66.0518,0.00114,0.0838762,-0.029439,0.0932819,-0.00826567,-1.26155,0.0651183,0.0477506,1280,449,6.3674,66.0518
63,575,6.37463,-66.2343,0.00146019,0.0702184,-0.0190866,0.0751613,-0.00348272,-1.31739,0.0513078,0.0477975,1287,449,6.37469,66.2343
70,575,6.46277,-66.3759,0.00248992,0.0576784,-0.0114533,0.0599609,0.000207419,-1.37409,0.039905,0.0450506,1294,449,6.46275,66.3759
77,575,6.3252,-66.5846,0.00426748,0.0455481,-0.00554101,0.0462789,0.00353666,-1.43966,0.0297439,0.0449286,1301,449,6.32518,66.5846
84,575,7.11182,-66.5718,0.00783423,0.0326192,-0.000572891,0.0326324,0.00782099,-1.5477,0.0196731,0.0455047,1308,449,7.11187,66.5718
91,575,6.87073,-67.25,0.0128476,0.0211759,0.00240411,0.02182,0.0122035,1.309,0.0126273,0.0465184,1315,449,6.87076,67.25
98,575,5.41907,-68.2234,0,0,0,0,0,0,0,-1,1322,449,5.41902,68.2235
105,575,4.48596,-68.995,0.0252251,0.00250352,0.00361143,0.0257853,0.00194332,0.153892,0.0165804,0.042511,1329,449,4.48595,68.995
112,575,4.49219,-70.0024,0.0317023,-0.00304818,0.00322379,0.0319988,-0.00334472,0.0917267,0.0225303,0.0426987,1336,449,4.49222,70.0024
119,575,4.04321,-71.1122,0.039532,-0.0104062,0.00270284,0.0396779,-0.010552,0.0539138,0.0305822,0.0448439,1343,449,4.04321,71.1122
126,575,3.44238,-71.9698,0,0,0,0,0,0,0,-1,1350,449,3.44234,71.9698
133,575,1.84839,-73.2811,0.0579166,-0.0210704,-0.000420107,0.0579189,-0.0210727,-0.00531848,0.0472307,0.0474636,1357,449,1.84834,73.2811
140,575,1.84473,-74.4602,0.0668624,-0.0290647,-0.00273888,0.0669405,-0.0291428,-0.0285207,0.0568865,0.0470317,1364,449,1.84472,74.4602
147,575,1.93469,-75.5569,0,0,0,0,0,0,0,-1,1371,449,1.93472,75.5569
154,575,1.92444,-76.8293,0,0,0,0,0,0,0,-1,1378,449,1.92438,76.8293
161,575,1.82922,-78.3181,0,0,0,0,0,0,0,-1,1385,449,1.82924,78.3181
168,575,-4.97888,-77.9566,0,0,0,0,0,0,0,-1,1392,449,-4.97891,77.9566
175,575,4.32617,1.93634,0,0,0,0,0,0,0,-1,1399,449,4.32612,-1.93634
182,575,6.3147,-2.88345,0,0,0,0,0,0,0,-1,1406,449,6.31466,2.88346
189,575,6.10449,-1.30817,0,0,0,0,0,0,0,-1,1413,449,6.10455,1.30817
196,575,5.79895,0.818359,0,0,0,0,0,0,0,-1,1420,449,5.79895,-0.81837
203,575,3.29724,-1.46378,0,0,0,0,0,0,0,-1,1427,449,3.29722,1.46377
210,575,2.32739,-7.74503,0,0,0,0,0,0,0,-1,1434,449,2.32741,7.74502
217,575,3.33618,-11.5521,0,0,0,0,0,0,0,-1,1441,449,3.3362,11.5521
224,575,5.51709,-16.3903,0,0,0,0,0,0,0,-1,1448,449,5.51713,16.3903
231,575,5.48572,-20.4595,0,0,0,0,0,0,0,-1,1455,449,5.48571,20.4595
238,575,5.33484,-22.3575,0,0,0,0,0,0,0,-1,1462,449,5.33478,22.3575
245,575,5.59741,-23.513,0,0,0,0,0,0,0,-1,1469,449,5.5974,23.513
252,575,10.5602,-44.9309,0,0,0,0,0,0,0,-1,1476,449,10.5602,44.9309
259,575,12.6493,-57.551,0,0,0,0,0,0,0,-1,1483,449,12.6493,57.551
266,575,12.7952,-56.7104,0.00532043,-0.0112921,-0.00312097,0.00588741,-0.0118591,-0.179708,0.0104375,0.0461,1490,449,12.7952,56.7104
273,575,12.8339,-56.0256,0.00444069,-0.0118552,-0.00329832,0.00508297,-0.0124975,-0.192321,0.0104466,0.0213889,1497,449,12.8339,56.0256
280,575,12.8402,-55.3021,0.00370753,-0.0118999,-0.00327073,0.00436524,-0.0125576,-0.198442,0.0101448,0.0168293,1504,449,12.8402,55.3021
287,575,12.8204,-54.6511,0.00318375,-0.0116875,-0.00325298,0.00386418,-0.012368,-0.206199,0.00979093,0.0149035,1511,449,12.8204,54.6511
294,575,12.8387,-53.9642,0.0027145,-0.0107942,-0.00316889,0.00342092,-0.0115007,-0.219337,0.00902616,0.0127406,1518,449,12.8388,53.9642
301,575,12.8511,-53.2376,0.00230904,-0.0100609,-0.00307309,0.00303043,-0.0107823,-0.230568,0.00838295,0.0109953,1525,449,12.8511,53.2377
308,575,12.8416,-52.4805,0.00202214,-0.00853474,-0.00269947,0.00267236,-0.00918496,-0.236369,0.00718178,0.0109281,1532,449,12.8415,52.4805
315,575,12.7942,-51.7522,0.00181049,-0.00703925,-0.00224811,0.00234883,-0.00757759,-0.235038,0.00599019,0.0126042,1539,449,12.7942,51.7522
322,575,12.7826,-51.0064,0.00153986,-0.00553554,-0.00171881,0.0019353,-0.00593099,-0.226134,0.00473287,0.0118154,1546,449,12.7826,51.0064
329,575,12.7502,-50.2436,0.00133938,-0.00392163,-0.00109984,0.00156006,-0.0041423,-0.198011,0.00340292,0.0119317,1553,449,12.7503,50.2436
336,575,12.7032,-49.4615,0.00120308,-0.00227684,-0.000469577,0.00126533,-0.00233909,-0.131799,0.00211157,0.0134049,1560,449,12.7033,49.4615
343,575,12.6976,-48.6345,0.00117886,-0.000493059,0.000247657,0.00121477,-0.000528973,0.144009,0.00103238,0.0143613,1567,449,12.6977,48.6345
350,575,12.677,-47.8543,0.00117379,0.00146753,0.00100153,0.0023329,0.000308424,0.858201,0.00146333,0.0135504,1574,449,12.677,47.8543
357,575,12.6315,-47.0399,0.00113762,0.00314819,0.00180357,0.00420772,7.80893e-05,1.03965,0.00277948,0.0115069,1581,449,12.6314,47.0399
364,575,12.5842,-46.243,0.00115478,0.00462091,0.00256058,0.00597978,-0.0002041,1.0829,0.00405627,0.0108401,1588,449,12.5842,46.243
371,575,12.5502,-45.4564,0.00118811,0.00604503,0.00325114,0.00767457,-0.000441425,1.10617,0.00526969,0.021999,1595,449,12.5501,45.4564
378,575,12.49,-44.6132,0.00118064,0.00752207,0.00385301,0.00934126,-0.000638548,1.12968,0.0064509,0.0206053,1602,449,12.49,44.6132
385,575,12.4053,-43.7561,0.00110998,0.00879062,0.00421321,0.0106511,-0.000750505,1.15496,0.00736367,0.0125204,1609,449,12.4053,43.7561
392,575,12.3521,-42.9384,0.00116494,0.00977427,0.00455379,0.011736,-0.000796746,1.16404,0.00810262,0.0102035,1616,449,12.352,42.9384
399,575,12.2754,-42.1382,0.00132327,0.0107866,0.00504571,0.0129722,-0.000862275,1.16204,0.00894939,0.0109931,1623,449,12.2754,42.1382
406,575,12.2224,-41.2357,0.00117697,0.0114318,0.00527742,0.0136625,-0.00105371,1.17089,0.00947911,0.0130309,1630,449,12.2224,41.2357
413,575,12.1595,-40.3458,0.000694238,0.011901,0.00535113,0.0140456,-0.00145045,1.18961,0.00988279,0.0150382,1637,449,12.1595,40.3458
420,575,12.072,-39.4601,-0.000191035,0.0119476,0.00523648,0.0138944,-0.00213778,1.21486,0.0100516,0.0154227,1644,449,12.072,39.4601
427,575,11.9639,-38.5056,-0.00142221,0.0107068,0.00480585,0.0123801,-0.00309556,1.23573,0.0094557,0.0194714,1651,449,11.9639,38.5056
434,575,11.7875,-37.6624,-0.00267117,0.00980255,0.00429051,0.0111358,-0.00400444,1.26951,0.00905869,0.0336592,1658,449,11.7875,37.6625
441,575,11.7108,-36.9959,0,0,0,0,0,0,0,-1,1665,449,11.7108,36.9959
448,575,12.288,-35.746,0,0,0,0,0,0,0,-1,1672,449,12.2879,35.746
455,575,11.7931,-31.6917,0,0,0,0,0,0,0,-1,1679,449,11.793,31.6917
462,575,7.12781,-21.7179,0,0,0,0,0,0,0,-1,1686,449,7.12778,21.7178
469,575,10.8325,-33.7474,0,0,0,0,0,0,0,-1,1693,449,10.8325,33.7474
476,575,10.3063,-31.0265,0,0,0,0,0,0,0,-1,1700,449,10.3063,31.0265
483,575,8.44177,-29.4231,0,0,0,0,0,0,0,-1,1707,449,8.44173,29.4231
490,575,7.42871,-25.5027,0,0,0,0,0,0,0,-1,1714,449,7.42869,25.5027
497,575,0,0,0,0,0,0,0,0,0,-1,1721,449,0,0
504,575,0,0,0,0,0,0,0,0,0,-1,1728,449,0,0
511,575,0,0,0,0,0,0,0,0,0,-1,1735,449,0,0
518,575,0,0,0,0,0,0,0,0,0,-1,1742,449,0,0
525,575,0,0,0,0,0,0,0,0,0,-1,1749,449,0,0
532,575,0,0,0,0,0,0,0,0,0,-1,1756,449,0,0
539,575,0,0,0,0,0,0,0,0,0,-1,1763,449,0,0
546,575,0,0,0,0,0,0,0,0,0,-1,1770,449,0,0
553,575,0,0,0,0,0,0,0,0,0,-1,1777,449,0,0
560,575,0,0,0,0,0,0,0,0,0,-1,1784,449,0,0
567,575,0,0,0,0,0,0,0,0,0,-1,1791,449,0,0
574,575,0,0,0,0,0,0,0,0,0,-1,1798,449,0,0
581,575,0,0,0,0,0,0,0,0,0,-1,1805,449,0,0
588,575,0,0,0,0,0,0,0,0,0,-1,1812,449,0,0
595,575,0,0,0,0,0,0,0,0,0,-1,1819,449,0,0
602,575,0,0,0,0,0,0,0,0,0,-1,1826,449,0,0
609,575,0,0,0,0,0,0,0,0,0,-1,1833,449,0,0
616,575,0,0,0,0,0,0,0,0,0,-1,1840,449,0,0
623,575,0,0,0,0,0,0,0,0,0,-1,1847,449,0,0
630,575,0,0,0,0,0,0,0,0,0,-1,1854,449,0,0
637,575,0,0,0,0,0,0,0,0,0,-1,1861,449,0,0
644,575,0,0,0,0,0,0,0,0,0,-1,1868,449,0,0
651,575,0,0,0,0,0,0,0,0,0,-1,1875,449,0,0
658,575,0,0,0,0,0,0,0,0,0,-1,1882,449,0,0
665,575,0,0,0,0,0,0,0,0,0,-1,1889,449,0,0
672,575,0,0,0,0,0,0,0,0,0,-1,1896,449,0,0
679,575,0,0,0,0,0,0,0,0,0,-1,1903,449,0,0
686,575,0,0,0,0,0,0,0,0,0,-1,1910,449,0,0
693,575,0,0,0,0,0,0,0,0,0,-1,1917,449,0,0
700,575,0,0,0,0,0,0,0,0,0,-1,1924,449,0,0
707,575,0,0,0,0,0,0,0,0,0,-1,1931,449,0,0
714,575,0,0,0,0,0,0,0,0,0,-1,1938,449,0,0
721,575,0,0,0,0,0,0,0,0,0,-1,1945,449,0,0
728,575,0,0,0,0,0,0,0,0,0,-1,1952,449,0,0
735,575,0,0,0,0,0,0,0,0,0,-1,1959,449,0,0
742,575,0,0,0,0,0,0,0,0,0,-1,1966,449,0,0
749,575,0,0,0,0,0,0,0,0,0,-1,1973,449,0,0
756,575,0,0,0,0,0,0,0,0,0,-1,1980,449,0,0
763,575,0,0,0,0,0,0,0,0,0,-1,1987,449,0,0
770,575,0,0,0,0,0,0,0,0,0,-1,1994,449,0,0
777,575,0,0,0,0,0,0,0,0,0,-1,2001,449,0,0
784,575,0,0,0,0,0,0,0,0,0,-1,2008,449,0,0
791,575,0,0,0,0,0,0,0,0,0,-1,2015,449,0,0
798,575,0,0,0,0,0,0,0,0,0,-1,2022,449,0,0
805,575,0,0,0,0,0,0,0,0,0,-1,2029,449,0,0
812,575,0,0,0,0,0,0,0,0,0,-1,2036,449,0,0
-700,568,0,0,0,0,0,0,0,0,0,-1,524,456,0,0
-693,568,0,0,0,0,0,0,0,0,0,-1,531,456,0,0
-686,568,0,0,0,0,0,0,0,0,0,-1,538,456,0,0
-679,568,0,0,0,0,0,0,0,0,0,-1,545,456,0,0
-672,568,0,0,0,0,0,0,0,0,0,-1,552,456,0,0
-665,568,0,0,0,0,0,0,0,0,0,-1,559,456,0,0
-658,568,0,0,0,0,0,0,0,0,0,-1,566,456,0,0
-651,568,0,0,0,0,0,0,0,0,0,-1,573,456,0,0
-644,568,0,0,0,0,0,0,0,0,0,-1,580,456,0,0
-637,568,0,0,0,0,0,0,0,0,0,-1,587,456,0,0
-630,568,0,0,0,0,0,0,0,0,0,-1,594,456,0,0
-623,568,0,0,0,0,0,0,0,0,0,-1,601,456,0,0
-616,568,0,0,0,0,0,0,0,0,0,-1,608,456,0,0
-609,568,0,0,0,0,0,0,0,0,0,-1,615,456,0,0
-602,568,0,0,0,0,0,0,0,0,0,-1,622,456,0,0
-595,568,0,0,0,0,0,0,0,0,0,-1,629,456,0,0
-588,568,0,0,0,0,0,0,0,0,0,-1,636,456,0,0
-581,568,0,0,0,0,0,0,0,0,0,-1,643,456,0,0
-574,568,0,0,0,0,0,0,0,0,0,-1,650,456,0,0
-567,568,0,0,0,0,0,0,0,0,0,-1,657,456,0,0
-560,568,0,0,0,0,0,0,0,0,0,-1,664,456,0,0
-553,568,0,0,0,0,0,0,0,0,0,-1,671,456,0,0
-546,568,0,0,0,0,0,0,0,0,0,-1,678,456,0,0
-539,568,0,0,0,0,0,0,0,0,0,-1,685,456,0,0
-532,568,0,0,0,0,0,0,0,0,0,-1,692,456,0,0
-525,568,0,0,0,0,0,0,0,0,0,-1,699,456,0,0
-518,568,0,0,0,0,0,0,0,0,0,-1,706,456,0,0
-511,568,0,0,0,0,0,0,0,0,0,-1,713,456,0,0
-504,568,0,0,0,0,0,0,0,0,0,-1,720,456,0,0
-497,568,0,0,0,0,0,0,0,0,0,-1,727,456,0,0
-490,568,0,0,0,0,0,0,0,0,0,-1,734,456,0,0
-483,568,0,0,0,0,0,0,0,0,0,-1,741,456,0,0
-476,568,0,0,0,0,0,0,0,0,0,-1,748,456,0,0
-469,568,0,0,0,0,0,0,0,0,0,-1,755,456,0,0
-462,568,0,0,0,0,0,0,0,0,0,-1,762,456,0,0
-455,568,0,0,0,0,0,0,0,0,0,-1,769,456,0,0
-448,568,0,0,0,0,0,0,0,0,0,-1,776,456,0,0
-441,568,0,0,0,0,0,0,0,0,0,-1,783,456,0,0
-434,568,0,0,0,0,0,0,0,0,0,-1,790,456,0,0
-427,568,0,0,0,0,0,0,0,0,0,-1,797,456,0,0
-420,568,0,0,0,0,0,0,0,0,0,-1,804,456,0,0
-413,568,0,0,0,0,0,0,0,0,0,-1,811,456,0,0
-406,568,0,0,0,0,0,0,0,0,0,-1,818,456,0,0
-399,568,0,0,0,0,0,0,0,0,0,-1,825,456,0,0
-392,568,0,0,0,0,0,0,0,0,0,-1,832,456,0,0
-385,568,0,0,0,0,0,0,0,0,0,-1,839,456,0,0
-378,568,0.321777,-7.29929,0,0,0,0,0,0,0,-1,846,456,0.321806,7.29927
-371,568,1.09595,-7.46707,0,0,0,0,0,0,0,-1,853,456,1.09597,7.46707
-364,568,2.70746,-23.4782,0,0,0,0,0,0,0,-1,860,456,2.70746,23.4782
-357,568,2.14166,-7.67645,0,0,0,0,0,0,0,-1,867,456,2.14167,7.67646
-350,568,2.7467,-11.2507,0,0,0,0,0,0,0,-1,874,456,2.7467,11.2507
-343,568,2.16516,-11.3762,0,0,0,0,0,0,0,-1,881,456,2.16514,11.3762
-336,568,1.14984,-29.3232,0,0,0,0,0,0,0,-1,888,456,1.14984,29.3231
-329,568,2.80359,-32.459,0,0,0,0,0,0,0,-1,895,456,2.80357,32.4591
-322,568,4.53058,-35.0034,0,0,0,0,0,0,0,-1,902,456,4.53057,35.0034
-315,568,3.74628,-36.1082,0,0,0,0,0,0,0,-1,909,456,3.7463,36.1081
-308,568,3.04224,-38.0137,0,0,0,0,0,0,0,-1,916,456,3.04225,38.0137
-301,568,3.04718,-38.9352,-0.00322002,0.0161643,-0.00694731,0.018397,-0.00545276,-1.25984,0.0144299,0.0261304,923,456,3.04719,38.9352
-294,568,2.94238,-39.8018,-0.0024504,0.0138471,-0.00625449,0.0159706,-0.00457398,-1.24348,0.0124549,0.0146738,930,456,2.94237,39.8018
-287,568,2.87329,-40.7108,-0.00185194,0.0119275,-0.00560565,0.0139198,-0.00384432,-1.2293,0.010792,0.0119845,937,456,2.87327,40.7108
-280,568,2.823,-41.6086,-0.00121658,0.0105322,-0.00512176,0.0124515,-0.00313583,-1.21227,0.00951998,0.0118891,944,456,2.82297,41.6086
-273,568,2.76355,-42.456,-0.000758,0.00893039,-0.00456459,0.0107421,-0.00256976,-1.19295,0.00815413,0.0142806,951,456,2.76357,42.456
-266,568,2.68488,-43.2803,-0.000414641,0.00718602,-0.00386365,0.00880513,-0.00203375,-1.17397,0.00665245,0.0139063,958,456,2.68487,43.2803
-259,568,2.62134,-44.1098,-6.78889e-05,0.00513018,-0.00310691,0.0065818,-0.00151952,-1.13371,0.00497238,0.0133649,965,456,2.62135,44.1098
-252,568,2.54919,-44.9332,0.000231367,0.00314444,-0.0021946,0.00432187,-0.000946057,-1.07837,0.00324293,0.013445,972,456,2.54918,44.9332
-245,568,2.49445,-45.7311,0.000595522,0.0012635,-0.00130998,0.0022814,-0.000422375,-0.910218,0.00167952,0.015939,979,456,2.49442,45.7311
-238,568,2.45789,-46.5513,0.00103546,-0.000825772,-0.000352193,0.00109988,-0.000890187,-0.180896,0.00115109,0.0145481,986,456,2.45788,46.5513
-231,568,2.40668,-47.34,0.00152933,-0.0031657,0.000622485,0.00161046,-0.00324683,0.129601,0.00285691,0.0125149,993,456,2.40668,47.34
-224,568,2.3454,-48.1171,0.00200588,-0.00541789,0.00150941,0.00230104,-0.00571305,0.19311,0.00476467,0.0132345,1000,456,2.34542,48.1171
-217,568,2.3501,-48.9201,0.00256402,-0.00774709,0.00234464,0.00307213,-0.0082552,0.21341,0.0067642,0.0112294,1007,456,2.3501,48.9201
-210,568,2.35358,-49.7182,0.0032049,-0.0100537,0.00306533,0.00387929,-0.0107281,0.216556,0.0087371,0.0126986,1014,456,2.35357,49.7182
-203,568,2.33032,-50.4874,0.00400868,-0.012066,0.00364082,0.00479486,-0.0128522,0.212668,0.0105366,0.0120708,1021,456,2.33033,50.4874
-196,568,2.3302,-51.2197,0.0049703,-0.013714,0.00399157,0.00578731,-0.014531,0.201894,0.0120874,0.0163166,1028,456,2.33025,51.2197
-189,568,2.29089,-51.9189,0.005881,-0.0153025,0.00434965,0.00673934,-0.0161609,0.194833,0.0135893,0.0161101,1035,456,2.29084,51.9189
-182,568,2.28064,-52.6718,0.0068481,-0.0166865,0.00467669,0.00774338,-0.0175818,0.189145,0.0149848,0.0148555,1042,456,2.28061,52.6718
-175,568,2.29163,-53.3796,0.00794233,-0.0173883,0.00481632,0.00882718,-0.0182732,0.181694,0.0159601,0.0160975,1049,456,2.29166,53.3796
-168,568,2.29541,-53.9671,0.00891763,-0.0179077,0.00481157,0.00975456,-0.0187446,0.172217,0.0167246,0.0228912,1056,456,2.29537,53.9671
-161,568,2.255,-54.6221,0.00968711,-0.0184523,0.00492117,0.0105229,-0.0192881,0.168236,0.0174576,0.0326336,1063,456,2.25503,54.6221
-154,568,2.3606,-55.4598,0.010619,-0.0186716,0.00512134,0.0114886,-0.0195412,0.1682,0.018115,0.037037,1070,456,2.36058,55.4598
-147,568,2.56873,-56.107,0.0116368,-0.0182582,0.00520951,0.0125186,-0.01914,0.167678,0.0184109,0.0425188,1077,456,2.56875,56.107
-140,568,2.67542,-56.6727,0,0,0,0,0,0,0,-1,1084,456,2.67542,56.6727
-133,568,2.29688,-56.5508,0,0,0,0,0,0,0,-1,1091,456,2.29683,56.5508
-126,568,2.47339,-55.9059,0,0,0,0,0,0,0,-1,1098,456,2.47343,55.9059
-119,568,1.89978,-50.8443,0,0,0,0,0,0,0,-1,1105,456,1.89978,50.8443
-112,568,1.98242,-35.0942,0,0,0,0,0,0,0,-1,1112,456,1.98247,35.0942
-105,568,2.02454,-25.038,0,0,0,0,0,0,0,-1,1119,456,2.02459,25.038
-98,568,1.58618,-14.7874,0,0,0,0,0,0,0,-1,1126,456,1.58617,14.7874
-91,568,1.11621,-11.1853,0,0,0,0,0,0,0,-1,1133,456,1.11626,11.1853
-84,568,0.461792,-9.7959,0,0,0,0,0,0,0,-1,1140,456,0.461793,9.7959
-77,568,-1.13806,-8.57822,0,0,0,0,0,0,0,-1,1147,456,-1.13807,8.57821
-70,568,-4.09766,-1.42911,0,0,0,0,0,0,0,-1,1154,456,-4.09767,1.4291
-63,568,-5.92273,-3.70752,0,0,0,0,0,0,0,-1,1161,456,-5.92272,3.70751
-56,568,-5.24158,-6.01385,0,0,0,0,0,0,0,-1,1168,456,-5.24161,6.01386
-49,568,-5.24365,-8.33557,0,0,0,0,0,0,0,-1,1175,456,-5.24371,8.33557
-42,568,-0.664795,0.521973,0,0,0,0,0,0,0,-1,1182,456,-0.664829,-0.521984
-35,568,-0.153076,-1.67731,0,0,0,0,0,0,0,-1,1189,456,-0.153068,1.67731
-28,568,1.25439,-4.48798,0,0,0,0,0,0,0,-1,1196,456,1.2544,4.48797
-21,568,4.50769,-61.0272,0,0,0,0,0,0,0,-1,1203,456,4.5077,61.0272
-14,568,4.94617,-62.1309,0.0473928,0.248334,-0.175207,0.349834,-0.0541067,-1.04573,0.253193,0.0458218,1210,456,4.94612,62.1309
-7,568,5.3573,-63.1613,0.0408436,0.237775,-0.167549,0.333649,-0.0550306,-1.05106,0.242864,0.0487751,1217,456,5.35732,63.1612
0,568,5.65283,-63.5836,0,0,0,0,0,0,0,-1,1224,456,5.65281,63.5835
7,568,6.10229,-64.3414,0,0,0,0,0,0,0,-1,1231,456,6.10227,64.3414
14,568,8.94641,-64.3066,0,0,0,0,0,0,0,-1,1238,456,8.94646,64.3066
21,568,5.77795,-66.1351,0,0,0,0,0,0,0,-1,1245,456,5.77794,66.1351
28,568,6.25549,-66.2954,0.0134333,0.172956,-0.102932,0.223413,-0.0370242,-1.11502,0.162694,0.0444953,1252,456,6.25555,66.2954
35,568,6.54236,-66.6071,0.00880402,0.160321,-0.0837287,0.197478,-0.0283527,-1.15313,0.142049,0.0428705,1259,456,6.5424,66.607
42,568,6.67944,-66.8461,0.00430285,0.145985,-0.0655155,0.171636,-0.0213482,-1.19762,0.122164,0.0445161,1266,456,6.6795,66.846
49,568,6.72717,-67.0914,-6.91406e-05,0.131406,-0.0469502,0.14645,-0.0151137,-1.2607,0.103042,0.0446145,1273,456,6.72717,67.0914
56,568,6.08972,-66.1119,0,0,0,0,0,0,0,-1,1280,456,6.08974,66.1119
63,568,6.05334,-66.2731,0.0014722,0.095499,-0.0221505,0.100456,-0.00348461,-1.35064,0.0681618,0.0493531,1287,456,6.05335,66.2731
70,568,6.15881,-66.4037,0.00449987,0.0773085,-0.0145579,0.0801114,0.00169695,-1.38059,0.052851,0.0471481,1294,456,6.15881,66.4038
77,568,6.39526,-66.5511,0.0086917,0.0591311,-0.00872429,0.0605975,0.00722533,-1.40427,0.0382182,0.0450531,1301,456,6.39528,66.5511
84,568,6.64319,-66.691,0.0148517,0.0402457,-0.00403257,0.0408707,0.0142267,-1.41703,0.023957,0.0462591,1308,456,6.64325,66.6909
91,568,6.73926,-66.9048,0.022299,0.0233339,-0.00140835,0.0243168,0.021316,-0.961451,0.0153093,0.0460928,1315,456,6.73932,66.9049
98,568,6.90503,-67.0567,0,0,0,0,0,0,0,-1,1322,456,6.90504,67.0567
105,568,2.63403,-68.7433,0,0,0,0,0,0,0,-1,1329,456,2.63406,68.7433
112,568,2.37488,-69.6722,0,0,0,0,0,0,0,-1,1336,456,2.37493,69.6722
119,568,2.4043,-71.3406,0,0,0,0,0,0,0,-1,1343,456,2.40432,71.3406
126,568,11.5493,-70.4317,0,0,0,0,0,0,0,-1,1350,456,11.5493,70.4317
133,568,-0.878418,-73.7325,0,0,0,0,0,0,0,-1,1357,456,-0.878381,73.7325
140,568,-0.683228,-75.14,0,0,0,0,0,0,0,-1,1364,456,-0.683192,75.14
147,568,-0.560303,-76.2871,0,0,0,0,0,0,0,-1,1371,456,-0.560347,76.2871
154,568,-0.260498,-77.6313,0,0,0,0,0,0,0,-1,1378,456,-0.260493,77.6313
161,568,-0.359863,-79.1044,0,0,0,0,0,0,0,-1,1385,456,-0.359849,79.1044
168,568,-11.53,-55.4321,0,0,0,0,0,0,0,-1,1392,456,-11.53,55.4321
175,568,10.5151,0.747498,0,0,0,0,0,0,0,-1,1399,456,10.5152,-0.747501
182,568,6.35095,-3.63361,0,0,0,0,0,0,0,-1,1406,456,6.35093,3.63359
189,568,6.17493,-1.70911,0,0,0,0,0,0,0,-1,1413,456,6.17497,1.70911
196,568,6.04724,0.200836,0,0,0,0,0,0,0,-1,1420,456,6.04724,-0.200835
203,568,5.9281,2.08649,0,0,0,0,0,0,0,-1,1427,456,5.92812,-2.08648
210,568,1.46216,-2.50446,0,0,0,0,0,0,0,-1,1434,456,1.46219,2.50446
217,568,2.62366,-7.86703,0,0,0,0,0,0,0,-1,1441,456,2.62365,7.86704
224,568,3.43494,-12.1555,0,0,0,0,0,0,0,-1,1448,456,3.43492,12.1555
231,568,4.38245,-9.3205,0,0,0,0,0,0,0,-1,1455,456,4.38244,9.32048
238,568,5.88879,-20.7448,0,0,0,0,0,0,0,-1,1462,456,5.88876,20.7449
245,568,3.34387,-10.6774,0,0,0,0,0,0,0,-1,1469,456,3.34389,10.6774
252,568,3.56946,-9.28928,0,0,0,0,0,0,0,-1,1476,456,3.56948,9.28928
259,568,3.38843,-8.73068,0,0,0,0,0,0,0,-1,1483,456,3.38842,8.73068
266,568,13.6127,-56.6047,0,0,0,0,0,0,0,-1,1490,456,13.6127,56.6047
273,568,13.5692,-55.9994,0,0,0,0,0,0,0,-1,1497,456,13.5692,55.9994
280,568,13.5629,-55.2616,0.00364639,-0.0165067,-0.00436266,0.00455027,-0.0174106,-0.204294,0.0133842,0.0396885,1504,456,13.5629,55.2616
287,568,13.5701,-54.3643,0.00315424,-0.0164065,-0.00452027,0.00414831,-0.0174005,-0.216468,0.0132022,0.0284809,1511,456,13.5701,54.3643
294,568,13.587,-53.7431,0.00270059,-0.0153178,-0.00457694,0.00379655,-0.0164137,-0.235026,0.0124032,0.0244732,1518,456,13.587,53.7431
301,568,13.5869,-53.1465,0.00233646,-0.0146136,-0.00465865,0.00353247,-0.0158096,-0.251303,0.0118934,0.0201776,1525,456,13.587,53.1465
308,568,13.5691,-52.4232,0.00211917,-0.0126702,-0.00426511,0.00326103,-0.0138121,-0.261585,0.0104658,0.0140604,1532,456,13.5691,52.4232
315,568,13.5496,-51.7174,0.0019519,-0.0109198,-0.00378074,0.00298025,-0.0119481,-0.26557,0.00912259,0.00961695,1539,456,13.5495,51.7174
322,568,13.5385,-50.9675,0.00171438,-0.00917977,-0.00322059,0.00259524,-0.0100606,-0.266981,0.00771899,0.0117832,1546,456,13.5385,50.9675
329,568,13.5176,-50.1792,0.00154336,-0.00729841,-0.0025686,0.00223539,-0.00799044,-0.263172,0.00620773,0.0119559,1553,456,13.5175,50.1792
336,568,13.4896,-49.3907,0.00139749,-0.00546042,-0.00193756,0.00190705,-0.00596997,-0.257166,0.00474517,0.0125037,1560,456,13.4896,49.3907
343,568,13.499,-48.5937,0.00141211,-0.00348694,-0.00118008,0.00168155,-0.00375638,-0.224475,0.00321486,0.0144894,1567,456,13.499,48.5937
350,568,13.4752,-47.8325,0.00136667,-0.00142061,-0.000397004,0.00142212,-0.00147605,-0.138759,0.00167335,0.0131227,1574,456,13.4752,47.8325
357,568,13.4205,-47.0275,0.00128776,0.000342006,0.000442174,0.00146228,0.00016748,0.375929,0.000924102,0.010683,1581,456,13.4205,47.0275
364,568,13.402,-46.2244,0.00125108,0.00181772,0.00124028,0.00280663,0.000262168,0.897689,0.00179011,0.0120026,1588,456,13.4019,46.2244
371,568,13.3517,-45.4048,0.00123654,0.00316515,0.00194182,0.00436892,3.27707e-05,1.01586,0.00290175,0.0216592,1595,456,13.3517,45.4048
378,568,13.2827,-44.553,0.00119885,0.00459076,0.00255346,0.00596017,-0.000170559,1.07854,0.0040315,0.0207901,1602,456,13.2827,44.553
385,568,13.2128,-43.7124,0.00110453,0.00575852,0.00293238,0.00717502,-0.000311976,1.1208,0.00489066,0.0111163,1609,456,13.2128,43.7124
392,568,13.1426,-42.9272,0.00109524,0.00663357,0.00328324,0.00815951,-0.000430707,1.13573,0.00558878,0.0120869,1616,456,13.1425,42.9272
399,568,13.0675,-42.1935,0.00116562,0.00746364,0.0037531,0.00921382,-0.000584561,1.13445,0.00634638,0.019614,1623,456,13.0676,42.1935
406,568,13.0656,-41.2651,0.000975058,0.00808705,0.00402217,0.00989976,-0.000837651,1.14738,0.00689603,0.0170722,1630,456,13.0656,41.2651
413,568,13.0294,-40.3001,0.000492998,0.00841888,0.00410812,0.010164,-0.00125209,1.1691,0.00722957,0.0131464,1637,456,13.0295,40.3001
420,568,12.9553,-39.4363,-0.000314624,0.00844621,0.00405358,0.010034,-0.00190242,1.19746,0.00740538,0.0126996,1644,456,12.9553,39.4363
427,568,12.8727,-38.5458,-0.00142197,0.00743374,0.00375409,0.00881098,-0.00279921,1.21918,0.00699627,0.0161591,1651,456,12.8727,38.5458
434,568,12.8231,-37.6343,-0.00251397,0.00668089,0.00343478,0.00782228,-0.00365536,1.24997,0.00677062,0.0235385,1658,456,12.8231,37.6343
441,568,12.8359,-36.8275,-0.00414746,0.0052639,0.0028464,0.0060578,-0.00494137,1.29879,0.00636127,0.031212,1665,456,12.836,36.8275
448,568,12.9486,-35.754,-0.00614734,0.00330195,0.00220995,0.00379325,-0.00663864,1.35204,0.00609708,0.0436481,1672,456,12.9486,35.754
455,568,12.8903,-34.7242,0,0,0,0,0,0,0,-1,1679,456,12.8903,34.7242
462,568,12.301,-33.9977,0,0,0,0,0,0,0,-1,1686,456,12.301,33.9977
469,568,11.9731,-33.4969,0,0,0,0,0,0,0,-1,1693,456,11.9731,33.497
476,568,12.011,-32.3677,0,0,0,0,0,0,0,-1,1700,456,12.011,32.3677
483,568,10.9017,-29.747,0,0,0,0,0,0,0,-1,1707,456,10.9018,29.747
490,568,9.21021,-25.4427,0,0,0,0,0,0,0,-1,1714,456,9.21025,25.4427
497,568,9.19275,-22.8114,0,0,0,0,0,0,0,-1,1721,456,9.19273,22.8114
504,568,0,0,0,0,0,0,0,0,0,-1,1728,456,0,0
511,568,0,0,0,0,0,0,0,0,0,-1,1735,456,0,0
518,568,0,0,0,0,0,0,0,0,0,-1,1742,456,0,0
525,568,0,0,0,0,0,0,0,0,0,-1,1749,456,0,0
532,568,0,0,0,0,0,0,0,0,0,-1,1756,456,0,0
539,568,0,0,0,0,0,0,0,0,0,-1,1763,456,0,0
546,568,0,0,0,0,0,0,0,0,0,-1,1770,456,0,0
553,568,0,0,0,0,0,0,0,0,0,-1,1777,456,0,0
560,568,0,0,0,0,0,0,0,0,0,-1,1784,456,0,0
567,568,0,0,0,0,0,0,0,0,0,-1,1791,456,0,0
574,568,0,0,0,0,0,0,0,0,0,-1,1798,456,0,0
581,568,0,0,0,0,0,0,0,0,0,-1,1805,456,0,0
588,568,0,0,0,0,0,0,0,0,0,-1,1812,456,0,0
595,568,0,0,0,0,0,0,0,0,0,-1,1819,456,0,0
602,568,0,0,0,0,0,0,0,0,0,-1,1826,456,0,0
609,568,0,0,0,0,0,0,0,0,0,-1,1833,456,0,0
616,568,0,0,0,0,0,0,0,0,0,-1,1840,456,0,0
623,568,0,0,0,0,0,0,0,0,0,-1,1847,456,0,0
630,568,0,0,0,0,0,0,0,0,0,-1,1854,456,0,0
637,568,0,0,0,0,0,0,0,0,0,-1,1861,456,0,0
644,568,0,0,0,0,0,0,0,0,0,-1,1868,456,0,0
651,568,0,0,0,0,0,0,0,0,0,-1,1875,456,0,0
658,568,0,0,0,0,0,0,0,0,0,-1,1882,456,0,0
665,568,0,0,0,0,0,0,0,0,0,-1,1889,456,0,0
672,568,0,0,0,0,0,0,0,0,0,-1,1896,456,0,0
679,568,0,0,0,0,0,0,0,0,0,-1,1903,456,0,0
686,568,0,0,0,0,0,0,0,0,0,-1,1910,456,0,0
693,568,0,0,0,0,0,0,0,0,0,-1,1917,456,0,0
700,568,0,0,0,0,0,0,0,0,0,-1,1924,456,0,0
707,568,0,0,0,0,0,0,0,0,0,-1,1931,456,0,0
714,568,0,0,0,0,0,0,0,0,0,-1,1938,456,0,0
721,568,0,0,0,0,0,0,0,0,0,-1,1945,456,0,0
728,568,0,0,0,0,0,0,0,0,0,-1,1952,456,0,0
735,568,0,0,0,0,0,0,0,0,0,-1,1959,456,0,0
742,568,0,0,0,0,0,0,0,0,0,-1,1966,456,0,0
749,568,0,0,0,0,0,0,0,0,0,-1,1973,456,0,0
756,568,0,0,0,0,0,0,0,0,0,-1,1980,456,0,0
763,568,0,0,0,0,0,0,0,0,0,-1,1987,456,0,0
770,568,0,0,0,0,0,0,0,0,0,-1,1994,456,0,0
777,568,0,0,0,0,0,0,0,0,0,-1,2001,456,0,0
784,568,0,0,0,0,0,0,0,0,0,-1,2008,456,0,0
791,568,0,0,0,0,0,0,0,0,0,-1,2015,456,0,0
798,568,0,0,0,0,0,0,0,0,0,-1,2022,456,0,0
805,568,0,0,0,0,0,0,0,0,0,-1,2029,456,0,0
812,568,0,0,0,0,0,0,0,0,0,-1,2036,456,0,0
-700,561,0,0,0,0,0,0,0,0,0,-1,524,463,0,0
-693,561,0,0,0,0,0,0,0,0,0,-1,531,463,0,0
-686,561,0,0,0,0,0,0,0,0,0,-1,538,463,0,0
-679,561,0,0,0,0,0,0,0,0,0,-1,545,463,0,0
-672,561,0,0,0,0,0,0,0,0,0,-1,552,463,0,0
-665,561,0,0,0,0,0,0,0,0,0,-1,559,463,0,0
-658,561,0,0,0,0,0,0,0,0,0,-1,566,463,0,0
-651,561,0,0,0,0,0,0,0,0,0,-1,573,463,0,0
-644,561,0,0,0,0,0,0,0,0,0,-1,580,463,0,0
-637,561,0,0,0,0,0,0,0,0,0,-1,587,463,0,0
-630,561,0,0,0,0,0,0,0,0,0,-1,594,463,0,0
-623,561,0,0,0,0,0,0,0,0,0,-1,601,463,0,0
-616,561,0,0,0,0,0,0,0,0,0,-1,608,463,0,0
-609,561,0,0,0,0,0,0,0,0,0,-1,615,463,0,0
-602,561,0,0,0,0,0,0,0,0,0,-1,622,463,0,0
-595,561,0,0,0,0,0,0,0,0,0,-1,629,463,0,0
-588,561,0,0,0,0,0,0,0,0,0,-1,636,463,0,0
-581,561,0,0,0,0,0,0,0,0,0,-1,643,463,0,0
-574,561,0,0,0,0,0,0,0,0,0,-1,650,463,0,0
-567,561,0,0,0,0,0,0,0,0,0,-1,657,463,0,0
-560,561,0,0,0,0,0,0,0,0,0,-1,664,463,0,0
-553,561,0,0,0,0,0,0,0,0,0,-1,671,463,0,0
-546,561,0,0,0,0,0,0,0,0,0,-1,678,463,0,0
-539,561,0,0,0,0,0,0,0,0,0,-1,685,463,0,0
-532,561,0,0,0,0,0,0,0,0,0,-1,692,463,0,0
-525,561,0,0,0,0,0,0,0,0,0,-1,699,463,0,0
-518,561,0,0,0,0,0,0,0,0,0,-1,706,463,0,0
-511,561,0,0,0,0,0,0,0,0,0,-1,713,463,0,0
-504,561,0,0,0,0,0,0,0,0,0,-1,720,463,0,0
-497,561,0,0,0,0,0,0,0,0,0,-1,727,463,0,0
-490,561,0,0,0,0,0,0,0,0,0,-1,734,463,0,0
-483,561,0,0,0,0,0,0,0,0,0,-1,741,463,0,0
-476,561,0,0,0,0,0,0,0,0,0,-1,748,463,0,0
-469,561,0,0,0,0,0,0,0,0,0,-1,755,463,0,0
-462,561,0,0,0,0,0,0,0,0,0,-1,762,463,0,0
-455,561,0,0,0,0,0,0,0,0,0,-1,769,463,0,0
-448,561,0,0,0,0,0,0,0,0,0,-1,776,463,0,0
-441,561,0,0,0,0,0,0,0,0,0,-1,783,463,0,0
-434,561,0,0,0,0,0,0,0,0,0,-1,790,463,0,0
-427,561,0,0,0,0,0,0,0,0,0,-1,797,463,0,0
-420,561,0,0,0,0,0,0,0,0,0,-1,804,463,0,0
-413,561,0,0,0,0,0,0,0,0,0,-1,811,463,0,0
-406,561,0,0,0,0,0,0,0,0,0,-1,818,463,0,0
-399,561,0,0,0,0,0,0,0,0,0,-1,825,463,0,0
-392,561,4.92407,-2.54578,0,0,0,0,0,0,0,-1,832,463,4.92408,2.54576
-385,561,5.55634,-1.02338,0,0,0,0,0,0,0,-1,839,463,5.55634,1.02338
-378,561,0.160522,-4.51785,0,0,0,0,0,0,0,-1,846,463,0.160542,4.51785
-371,561,2.62524,-27.795,0,0,0,0,0,0,0,-1,853,463,2.62525,27.7949
-364,561,3.24945,-29.4465,0,0,0,0,0,0,0,-1,860,463,3.24946,29.4465
-357,561,2.16742,-23.5582,0,0,0,0,0,0,0,-1,867,463,2.1674,23.5582
-350,561,1.33124,-11.9406,0,0,0,0,0,0,0,-1,874,463,1.33127,11.9406
-343,561,1.13214,-14.1837,0,0,0,0,0,0,0,-1,881,463,1.13217,14.1837
-336,561,2.58582,-34.4008,0,0,0,0,0,0,0,-1,888,463,2.58584,34.4008
-329,561,2.34454,-35.4538,0,0,0,0,0,0,0,-1,895,463,2.34452,35.4538
-322,561,2.71252,-35.8318,0,0,0,0,0,0,0,-1,902,463,2.7125,35.8317
-315,561,2.4812,-36.7454,-0.00355973,0.0179782,-0.00722498,0.0201773,-0.00575884,-1.27533,0.0157266,0.0409852,909,463,2.48118,36.7454
-308,561,2.29651,-37.7936,-0.00330047,0.0151212,-0.00603132,0.0169202,-0.00509946,-1.28092,0.0133097,0.0326788,916,463,2.29653,37.7936
-301,561,2.17798,-38.9247,-0.00261245,0.0124723,-0.00532286,0.0141614,-0.00430155,-1.26352,0.0111548,0.0183851,923,463,2.17801,38.9247
-294,561,2.08923,-39.8246,-0.00192741,0.0104418,-0.00465294,0.0119966,-0.00348226,-1.2483,0.00937659,0.0124739,930,463,2.08924,39.8246
-287,561,2.04205,-40.6781,-0.0013825,0.00874569,-0.00403083,0.010154,-0.00279086,-1.23466,0.00786644,0.01106,937,463,2.04203,40.6781
-280,561,1.97083,-41.5179,-0.000844874,0.00732516,-0.00352583,0.00863633,-0.00215605,-1.21477,0.00659478,0.0137037,944,463,1.97085,41.5178
-273,561,1.88342,-42.3694,-0.000426175,0.00567795,-0.00292396,0.00685254,-0.00160077,-1.18881,0.00518499,0.0167665,951,463,1.88343,42.3694
-266,561,1.83984,-43.1933,-3.92337e-05,0.00386364,-0.00219375,0.0048483,-0.00102389,-1.1489,0.00362206,0.010645,958,463,1.83984,43.1933
-259,561,1.79572,-44.0483,0.000320497,0.00169877,-0.00139621,0.00256665,-0.000547389,-1.01465,0.00191976,0.0106699,965,463,1.79571,44.0483
-252,561,1.75665,-44.8807,0.000635069,-0.000536921,-0.000422797,0.000771672,-0.000673524,-0.312506,0.000835026,0.0157159,972,463,1.75667,44.8807
-245,561,1.7027,-45.6776,0.00102745,-0.00268114,0.000529356,0.00110153,-0.00275522,0.139039,0.00229391,0.0184598,979,463,1.70271,45.6776
-238,561,1.66266,-46.5036,0.00154158,-0.00504684,0.00156629,0.00189498,-0.00540024,0.221915,0.00437096,0.0144699,986,463,1.66265,46.5036
-231,561,1.60541,-47.3221,0.00216964,-0.00771932,0.00259023,0.00280702,-0.0083567,0.241278,0.0067056,0.0119731,993,463,1.60539,47.3221
-224,561,1.56781,-48.0928,0.00274887,-0.0102858,0.00354682,0.00365149,-0.0111884,0.249196,0.00892854,0.0120921,1000,463,1.56779,48.0928
-217,561,1.57758,-48.8682,0.00342102,-0.012899,0.00444698,0.0045541,-0.014032,0.249488,0.0111861,0.0122803,1007,463,1.5776,48.8682
-210,561,1.57666,-49.6485,0.00419373,-0.0154915,0.00521675,0.00549075,-0.0167885,0.243686,0.0134029,0.0131415,1014,463,1.57666,49.6485
-203,561,1.56635,-50.4102,0.00516023,-0.0177513,0.00580365,0.00654647,-0.0191375,0.234462,0.0154112,0.0152492,1021,463,1.56633,50.4102
-196,561,1.46228,-51.101,0.00633575,-0.0195721,0.0061024,0.00770116,-0.0209375,0.220125,0.0171131,0.0176559,1028,463,1.46223,51.1009
-189,561,1.56287,-51.8005,0.00746136,-0.0213267,0.0064095,0.00882391,-0.0226892,0.209465,0.018772,0.0239903,1035,463,1.56288,51.8005
-182,561,1.70251,-52.4869,0.0086695,-0.0228309,0.00665725,0.0100187,-0.0241801,0.199951,0.0203011,0.0275034,1042,463,1.70246,52.4869
-175,561,1.61169,-53.1779,0.0101226,-0.0233696,0.00662815,0.0113866,-0.0246336,0.188441,0.0212599,0.0428768,1049,463,1.61163,53.1779
-168,561,1.50818,-53.8619,0,0,0,0,0,0,0,-1,1056,463,1.50819,53.8619
-161,561,1.54028,-54.4214,0,0,0,0,0,0,0,-1,1063,463,1.54031,54.4215
-154,561,1.76672,-55.4936,0,0,0,0,0,0,0,-1,1070,463,1.76667,55.4936
-147,561,2.08752,-56.1426,0,0,0,0,0,0,0,-1,1077,463,2.08753,56.1426
-140,561,1.69653,-56.0242,0,0,0,0,0,0,0,-1,1084,463,1.69657,56.0243
-133,561,1.37939,-55.0099,0,0,0,0,0,0,0,-1,1091,463,1.37945,55.01
-126,561,1.77014,-49.4318,0,0,0,0,0,0,0,-1,1098,463,1.7702,49.4318
-119,561,-0.336304,-35.422,0,0,0,0,0,0,0,-1,1105,463,-0.336245,35.422
-112,561,1.24365,-29.1982,0,0,0,0,0,0,0,-1,1112,463,1.2437,29.1981
-105,561,0.530518,-13.5379,0,0,0,0,0,0,0,-1,1119,463,0.530477,13.5379
-98,561,1.5387,-7.54352,0,0,0,0,0,0,0,-1,1126,463,1.53871,7.54351
-91,561,1.29553,-6.57968,0,0,0,0,0,0,0,-1,1133,463,1.29549,6.5797
-84,561,1.23364,-5.84555,0,0,0,0,0,0,0,-1,1140,463,1.23363,5.84556
-77,561,-2.36023,1.00204,0,0,0,0,0,0,0,-1,1147,463,-2.3602,-1.00205
-70,561,-3.90015,-1.41541,0,0,0,0,0,0,0,-1,1154,463,-3.90009,1.4154
-63,561,-6.95691,-4.02756,0,0,0,0,0,0,0,-1,1161,463,-6.95696,4.02756
-56,561,-5.37988,-6.66855,0,0,0,0,0,0,0,-1,1168,463,-5.37988,6.66854
-49,561,-5.7439,-9.11029,0,0,0,0,0,0,0,-1,1175,463,-5.74387,9.1103
-42,561,-1.72644,-5.63065,0,0,0,0,0,0,0,-1,1182,463,-1.72648,5.63064
-35,561,-1.65674,-4.87994,0,0,0,0,0,0,0,-1,1189,463,-1.6567,4.87993
-28,561,-1.91418,-3.86896,0,0,0,0,0,0,0,-1,1196,463,-1.91414,3.86895
-21,561,4.91296,-62.7432,0,0,0,0,0,0,0,-1,1203,463,4.91292,62.7432
-14,561,5.68262,-63.8733,0,0,0,0,0,0,0,-1,1210,463,5.68263,63.8733
-7,561,6.9408,-64.363,0,0,0,0,0,0,0,-1,1217,463,6.9408,64.363
0,561,4.81067,-61.697,0,0,0,0,0,0,0,-1,1224,463,4.81072,61.697
7,561,9.42566,-66.0348,0,0,0,0,0,0,0,-1,1231,463,9.4257,66.0348
14,561,8.93884,-66.4666,0,0,0,0,0,0,0,-1,1238,463,8.93889,66.4666
21,561,8.43433,-66.7614,0,0,0,0,0,0,0,-1,1245,463,8.43428,66.7614
28,561,8.07166,-66.9505,0.00957851,0.229222,-0.112687,0.276751,-0.0379501,-1.17166,0.198364,0.0437543,1252,463,8.07164,66.9505
35,561,7.65601,-67.0504,0.00449096,0.214189,-0.0900153,0.247529,-0.0288486,-1.21609,0.175428,0.040019,1259,463,7.65603,67.0503
42,561,7.25684,-67.6422,3.28863e-05,0.197434,-0.0691424,0.219243,-0.0217758,-1.26526,0.153935,0.0449597,1266,463,7.25679,67.6422
49,561,6.82483,-68.0166,-0.00414722,0.180345,-0.0480342,0.192102,-0.0159042,-1.33075,0.133685,0.0452607,1273,463,6.82481,68.0166
56,561,7.12292,-68.4984,-0.00243046,0.156888,-0.0338753,0.163792,-0.00933406,-1.36975,0.112435,0.0450702,1280,463,7.12295,68.4983
63,561,7.6521,-69.073,0.00267943,0.130124,-0.0247158,0.13475,-0.00194591,-1.38579,0.0904887,0.0475607,1287,463,7.65206,69.073
70,561,6.13501,-66.2814,0.00932346,0.103199,-0.0186739,0.106777,0.00574521,-1.38147,0.069349,0.049955,1294,463,6.13496,66.2814
77,561,5.95667,-66.5263,0,0,0,0,0,0,0,-1,1301,463,5.95665,66.5263
84,561,6.47485,-67.1347,0.0276537,0.0483227,-0.0104733,0.0527018,0.0232745,-1.17476,0.0304965,0.0475917,1308,463,6.47482,67.1347
91,561,6.23218,-66.9751,0.038166,0.0234922,-0.00870172,0.0422111,0.0194471,-0.435145,0.0243956,0.0453632,1315,463,6.23219,66.9751
98,561,6.22485,-67.1691,0,0,0,0,0,0,0,-1,1322,463,6.22481,67.1692
105,561,6.15942,-67.2387,0,0,0,0,0,0,0,-1,1329,463,6.15939,67.2387
112,561,10.8896,-69.6949,0.068032,-0.0252253,-0.0106947,0.0692427,-0.026436,-0.11273,0.0570533,0.0489408,1336,463,10.8896,69.6949
119,561,11.5762,-70.8455,0.0794644,-0.0372516,-0.0118456,0.0806545,-0.0384417,-0.10013,0.0701852,0.0448123,1343,463,11.5762,70.8455
126,561,12.2655,-72.3197,0,0,0,0,0,0,0,-1,1350,463,12.2655,72.3197
133,561,13.0699,-73.2491,0,0,0,0,0,0,0,-1,1357,463,13.0699,73.2491
140,561,-3.23291,-75.7937,0,0,0,0,0,0,0,-1,1364,463,-3.23296,75.7937
147,561,15.0569,-74.5614,0,0,0,0,0,0,0,-1,1371,463,15.0568,74.5614
154,561,-2.45325,-78.442,0,0,0,0,0,0,0,-1,1378,463,-2.4532,78.442
161,561,18.0597,-76.8166,0,0,0,0,0,0,0,-1,1385,463,18.0597,76.8166
168,561,-10.8822,-56.4584,0,0,0,0,0,0,0,-1,1392,463,-10.8822,56.4584
175,561,10.4185,0.276398,0,0,0,0,0,0,0,-1,1399,463,10.4185,-0.276394
182,561,6.45703,-4.02127,0,0,0,0,0,0,0,-1,1406,463,6.45704,4.02127
189,561,6.50854,-2.08685,0,0,0,0,0,0,0,-1,1413,463,6.50851,2.08686
196,561,6.44775,-0.27182,0,0,0,0,0,0,0,-1,1420,463,6.44773,0.271814
203,561,6.18591,1.1301,0,0,0,0,0,0,0,-1,1427,463,6.18592,-1.13009
210,561,5.68713,2.68427,0,0,0,0,0,0,0,-1,1434,463,5.6871,-2.68425
217,561,3.61743,-7.33582,0,0,0,0,0,0,0,-1,1441,463,3.61738,7.33581
224,561,4.27466,-8.59171,0,0,0,0,0,0,0,-1,1448,463,4.27466,8.59171
231,561,4.93188,-9.8476,0,0,0,0,0,0,0,-1,1455,463,4.93193,9.84761
238,561,2.18018,-5.18359,0,0,0,0,0,0,0,-1,1462,463,2.18023,5.18359
245,561,3.07568,-3.50238,0,0,0,0,0,0,0,-1,1469,463,3.0757,3.50238
252,561,3.47412,-3.71109,0,0,0,0,0,0,0,-1,1476,463,3.47413,3.71109
259,561,3.42212,-3.2334,0,0,0,0,0,0,0,-1,1483,463,3.42214,3.2334
266,561,4.44373,-5.90027,0,0,0,0,0,0,0,-1,1490,463,4.44372,5.90026
273,561,14.0209,-55.4636,0,0,0,0,0,0,0,-1,1497,463,14.0209,55.4636
280,561,14.3168,-55.173,0,0,0,0,0,0,0,-1,1504,463,14.3168,55.173
287,561,14.5101,-54.1454,0.00254429,-0.0227795,-0.00581633,0.00381628,-0.0240515,-0.215304,0.0174461,0.0477423,1511,463,14.5101,54.1454
294,561,14.202,-53.272,0.00220706,-0.0210965,-0.00602476,0.0036725,-0.022562,-0.238604,0.0164031,0.040059,1518,463,14.202,53.272
301,561,14.1948,-52.7606,0.00199785,-0.0202289,-0.00633009,0.0036742,-0.0219053,-0.25888,0.0159698,0.0349081,1525,463,14.1949,52.7606
308,561,14.3354,-52.2528,0.0019897,-0.0173482,-0.00580654,0.00359924,-0.0189578,-0.270406,0.0139934,0.0289691,1532,463,14.3354,52.2528
315,561,14.3658,-51.6483,0.00197272,-0.0150653,-0.00521444,0.00344189,-0.0165345,-0.274632,0.0123315,0.0180597,1539,463,14.3658,51.6483
322,561,14.3148,-50.9268,0.00183886,-0.0128807,-0.00459013,0.00315293,-0.0141948,-0.278824,0.0106706,0.0175399,1546,463,14.3148,50.9268
329,561,14.2902,-50.1243,0.00175025,-0.0105792,-0.00388674,0.00287323,-0.0117021,-0.281266,0.00891486,0.0127068,1553,463,14.2901,50.1243
336,561,14.2957,-49.3345,0.00162585,-0.00845113,-0.00324492,0.00258035,-0.00940563,-0.286082,0.0072845,0.0118692,1560,463,14.2956,49.3345
343,561,14.2845,-48.5798,0.00170544,-0.00623123,-0.00243911,0.0023951,-0.00692089,-0.275558,0.00558615,0.012129,1567,463,14.2846,48.5798
350,561,14.2487,-47.7864,0.00164137,-0.0040193,-0.00162429,0.00207433,-0.00445227,-0.260498,0.0038506,0.011789,1574,463,14.2487,47.7864
357,561,14.2213,-46.9628,0.00153125,-0.00215507,-0.000750683,0.00167826,-0.00230208,-0.193383,0.00230744,0.0115546,1581,463,14.2213,46.9628
364,561,14.21,-46.1951,0.00145364,-0.000661003,7.93023e-05,0.00145661,-0.000663972,0.0374315,0.0012525,0.0102743,1588,463,14.2099,46.1951
371,561,14.1445,-45.3504,0.0014086,0.000679356,0.000796461,0.00191994,0.000168022,0.570736,0.00122779,0.0167756,1595,463,14.1445,45.3504
378,561,14.0731,-44.5186,0.00136331,0.00214033,0.00143199,0.00323558,0.000268064,0.917864,0.00207348,0.0127493,1602,463,14.0731,44.5186
385,561,14.033,-43.6711,0.0012606,0.00328591,0.00185187,0.00438392,0.000162592,1.0356,0.00286995,0.0127679,1609,463,14.0329,43.6712
392,561,13.969,-42.8492,0.00120631,0.00414561,0.00223154,0.00534798,3.94741e-06,1.07659,0.003564,0.0175027,1616,463,13.969,42.8492
399,561,13.9548,-42.0461,0.00121143,0.00489549,0.00268888,0.00631278,-0.000205863,1.08571,0.00427879,0.0220889,1623,463,13.9548,42.0461
406,561,13.9427,-41.1902,0.00100897,0.00561045,0.00300979,0.00709815,-0.000478727,1.11173,0.00489948,0.0201189,1630,463,13.9427,41.1902
413,561,13.901,-40.2828,0.000560403,0.00587651,0.00311269,0.00731163,-0.000874716,1.13879,0.00519062,0.0182806,1637,463,13.901,40.2828
420,561,13.811,-39.4185,-0.000143,0.00598625,0.00312444,0.00729816,-0.00145491,1.17327,0.00541594,0.0145051,1644,463,13.811,39.4185
427,561,13.7566,-38.5105,-0.00109569,0.00525553,0.00295263,0.00641611,-0.00225627,1.19628,0.00519545,0.0116622,1651,463,13.7566,38.5105
434,561,13.707,-37.6069,-0.00201771,0.0046933,0.00279308,0.00570364,-0.00302806,1.22371,0.00511954,0.0134533,1658,463,13.707,37.6069
441,561,13.6836,-36.7354,-0.0033466,0.00372666,0.00247144,0.00450463,-0.00412458,1.26583,0.00498369,0.0159388,1665,463,13.6836,36.7354
448,561,13.6385,-35.8028,-0.00497036,0.00234793,0.00207571,0.00289568,-0.00551811,1.3128,0.00493573,0.0225918,1672,463,13.6386,35.8028
455,561,13.5623,-34.8509,-0.00708303,0.000210258,0.00146058,0.000491885,-0.00736466,1.38032,0.00508168,0.0409664,1679,463,13.5623,34.8509
462,561,13.2676,-34.0611,-0.00921228,-0.0017521,0.00076002,-0.00167546,-0.00928893,1.4703,0.00571657,0.0400435,1686,463,13.2676,34.0611
469,561,13.1078,-33.2282,-0.011443,-0.00401313,-3.19345e-05,-0.00401299,-0.0114431,-1.5665,0.00670415,0.0277949,1693,463,13.1078,33.2282
476,561,12.918,-32.7205,-0.0139476,-0.00698958,-0.00107545,-0.00682714,-0.01411,-1.42089,0.00814785,0.0445881,1700,463,12.9179,32.7205
483,561,12.6864,-32.3381,0,0,0,0,0,0,0,-1,1707,463,12.6864,32.3381
490,561,10.2549,-20.4551,0,0,0,0,0,0,0,-1,1714,463,10.2548,20.4551
497,561,11.7618,-20.3894,0,0,0,0,0,0,0,-1,1721,463,11.7618,20.3894
504,561,12.9351,-20.1285,0,0,0,0,0,0,0,-1,1728,463,12.935,20.1285
511,561,0,0,0,0,0,0,0,0,0,-1,1735,463,0,0
518,561,0,0,0,0,0,0,0,0,0,-1,1742,463,0,0
525,561,0,0,0,0,0,0,0,0,0,-1,1749,463,0,0
532,561,0,0,0,0,0,0,0,0,0,-1,1756,463,0,0
539,561,0,0,0,0,0,0,0,0,0,-1,1763,463,0,0
546,561,0,0,0,0,0,0,0,0,0,-1,1770,463,0,0
553,561,0,0,0,0,0,0,0,0,0,-1,1777,463,0,0
560,561,0,0,0,0,0,0,0,0,0,-1,1784,463,0,0
567,561,0,0,0,0,0,0,0,0,0,-1,1791,463,0,0
574,561,0,0,0,0,0,0,0,0,0,-1,1798,463,0,0
581,561,0,0,0,0,0,0,0,0,0,-1,1805,463,0,0
588,561,0,0,0,0,0,0,0,0,0,-1,1812,463,0,0
595,561,0,0,0,0,0,0,0,0,0,-1,1819,463,0,0
602,561,0,0,0,0,0,0,0,0,0,-1,1826,463,0,0
609,561,0,0,0,0,0,0,0,0,0,-1,1833,463,0,0
616,561,0,0,0,0,0,0,0,0,0,-1,1840,463,0,0
623,561,0,0,0,0,0,0,0,0,0,-1,1847,463,0,0
630,561,0,0,0,0,0,0,0,0,0,-1,1854,463,0,0
637,561,0,0,0,0,0,0,0,0,0,-1,1861,463,0,0
644,561,0,0,0,0,0,0,0,0,0,-1,1868,463,0,0
651,561,0,0,0,0,0,0,0,0,0,-1,1875,463,0,0
658,561,0,0,0,0,0,0,0,0,0,-1,1882,463,0,0
665,561,0,0,0,0,0,0,0,0,0,-1,1889,463,0,0
672,561,0,0,0,0,0,0,0,0,0,-1,1896,463,0,0
679,561,0,0,0,0,0,0,0,0,0,-1,1903,463,0,0
686,561,0,0,0,0,0,0,0,0,0,-1,1910,463,0,0
693,561,0,0,0,0,0,0,0,0,0,-1,1917,463,0,0
700,561,0,0,0,0,0,0,0,0,0,-1,1924,463,0,0
707,561,0,0,0,0,0,0,0,0,0,-1,1931,463,0,0
714,561,0,0,0,0,0,0,0,0,0,-1,1938,463,0,0
721,561,0,0,0,0,0,0,0,0,0,-1,1945,463,0,0
728,561,0,0,0,0,0,0,0,0,0,-1,1952,463,0,0
735,561,0,0,0,0,0,0,0,0,0,-1,1959,463,0,0
742,561,0,0,0,0,0,0,0,0,0,-1,1966,463,0,0
749,561,0,0,0,0,0,0,0,0,0,-1,1973,463,0,0
756,561,0,0,0,0,0,0,0,0,0,-1,1980,463,0,0
763,561,0,0,0,0,0,0,0,0,0,-1,1987,463,0,0
770,561,0,0,0,0,0,0,0,0,0,-1,1994,463,0,0
777,561,0,0,0,0,0,0,0,0,0,-1,2001,463,0,0
784,561,0,0,0,0,0,0,0,0,0,-1,2008,463,0,0
791,561,0,0,0,0,0,0,0,0,0,-1,2015,463,0,0
798,561,0,0,0,0,0,0,0,0,0,-1,2022,463,0,0
805,561,0,0,0,0,0,0,0,0,0,-1,2029,463,0,0
812,561,0,0,0,0,0,0,0,0,0,-1,2036,463,0,0
-700,554,0,0,0,0,0,0,0,0,0,-1,524,470,0,0
-693,554,0,0,0,0,0,0,0,0,0,-1,531,470,0,0
-686,554,0,0,0,0,0,0,0,0,0,-1,538,470,0,0
-679,554,0,0,0,0,0,0,0,0,0,-1,545,470,0,0
-672,554,0,0,0,0,0,0,0,0,0,-1,552,470,0,0
-665,554,0,0,0,0,0,0,0,0,0,-1,559,470,0,0
-658,554,0,0,0,0,0,0,0,0,0,-1,566,470,0,0
-651,554,0,0,0,0,0,0,0,0,0,-1,573,470,0,0
-644,554,0,0,0,0,0,0,0,0,0,-1,580,470,0,0
-637,554,0,0,0,0,0,0,0,0,0,-1,587,470,0,0
-630,554,0,0,0,0,0,0,0,0,0,-1,594,470,0,0
-623,554,0,0,0,0,0,0,0,0,0,-1,601,470,0,0
-616,554,0,0,0,0,0,0,0,0,0,-1,608,470,0,0
-609,554,0,0,0,0,0,0,0,0,0,-1,615,470,0,0
-602,554,0,0,0,0,0,0,0,0,0,-1,622,470,0,0
-595,554,0,0,0,0,0,0,0,0,0,-1,629,470,0,0
-588,554,0,0,0,0,0,0,0,0,0,-1,636,470,0,0
-581,554,0,0,0,0,0,0,0,0,0,-1,643,470,0,0
-574,554,0,0,0,0,0,0,0,0,0,-1,650,470,0,0
-567,554,0,0,0,0,0,0,0,0,0,-1,657,470,0,0
-560,554,0,0,0,0,0,0,0,0,0,-1,664,470,0,0
-553,554,0,0,0,0,0,0,0,0,0,-1,671,470,0,0
-546,554,0,0,0,0,0,0,0,0,0,-1,678,470,0,0
-539,554,0,0,0,0,0,0,0,0,0,-1,685,470,0,0
-532,554,0,0,0,0,0,0,0,0,0,-1,692,470,0,0
-525,554,0,0,0,0,0,0,0,0,0,-1,699,470,0,0
-518,554,0,0,0,0,0,0,0,0,0,-1,706,470,0,0
-511,554,0,0,0,0,0,0,0,0,0,-1,713,470,0,0
-504,554,0,0,0,0,0,0,0,0,0,-1,720,470,0,0
-497,554,0,0,0,0,0,0,0,0,0,-1,727,470,0,0
-490,554,0,0,0,0,0,0,0,0,0,-1,734,470,0,0
-483,554,0,0,0,0,0,0,0,0,0,-1,741,470,0,0
-476,554,0,0,0,0,0,0,0,0,0,-1,748,470,0,0
-469,554,0,0,0,0,0,0,0,0,0,-1,755,470,0,0
-462,554,0,0,0,0,0,0,0,0,0,-1,762,470,0,0
-455,554,0,0,0,0,0,0,0,0,0,-1,769,470,0,0
-448,554,0,0,0,0,0,0,0,0,0,-1,776,470,0,0
-441,554,0,0,0,0,0,0,0,0,0,-1,783,470,0,0
-434,554,0,0,0,0,0,0,0,0,0,-1,790,470,0,0
-427,554,0,0,0,0,0,0,0,0,0,-1,797,470,0,0
-420,554,0,0,0,0,0,0,0,0,0,-1,804,470,0,0
-413,554,0,0,0,0,0,0,0,0,0,-1,811,470,0,0
-406,554,0,0,0,0,0,0,0,0,0,-1,818,470,0,0
-399,554,-1.32275,-3.95142,0,0,0,0,0,0,0,-1,825,470,-1.32275,3.95141
-392,554,-1.35632,-3.7406,0,0,0,0,0,0,0,-1,832,470,-1.35632,3.7406
-385,554,1.54614,-28.7236,0,0,0,0,0,0,0,-1,839,470,1.54616,28.7236
-378,554,1.92175,-29.1808,0,0,0,0,0,0,0,-1,846,470,1.92174,29.1808
-371,554,1.91498,-29.786,0,0,0,0,0,0,0,-1,853,470,1.91496,29.786
-364,554,2.3067,-30.0105,0,0,0,0,0,0,0,-1,860,470,2.30673,30.0105
-357,554,2.83905,-30.0713,0,0,0,0,0,0,0,-1,867,470,2.83903,30.0712
-350,554,1.17157,-18.1341,0,0,0,0,0,0,0,-1,874,470,1.17156,18.1341
-343,554,1.89807,-33.6512,0,0,0,0,0,0,0,-1,881,470,1.89806,33.6512
-336,554,1.71698,-34.4122,-0.00218427,0.0246905,-0.0112319,0.0287665,-0.00626029,-1.22268,0.0215694,0.0437059,888,470,1.71698,34.4122
-329,554,1.53314,-35.3466,-0.00244864,0.02053,-0.00908259,0.0236864,-0.00560506,-1.23633,0.0179534,0.0237461,895,470,1.53314,35.3466
-322,554,1.43188,-36.243,-0.00263116,0.0170381,-0.00725858,0.0194267,-0.00501974,-1.25289,0.0149088,0.0178545,902,470,1.43187,36.243
-315,554,1.41656,-37.1157,-0.00260338,0.0140627,-0.00575736,0.0158582,-0.00439885,-1.2685,0.0123034,0.016973,909,470,1.41659,37.1157
-308,554,1.37073,-37.9979,-0.0024804,0.0115936,-0.00460437,0.0129661,-0.0038529,-1.2811,0.0101745,0.0164907,916,470,1.37071,37.9979
-301,554,1.30609,-38.9138,-0.00192171,0.00928991,-0.00391631,0.0105224,-0.00315422,-1.2659,0.00826936,0.0157568,923,470,1.30609,38.9138
-294,554,1.22797,-39.793,-0.00131496,0.00751175,-0.00327272,0.00859279,-0.002396,-1.25176,0.00667217,0.0129713,930,470,1.22799,39.793
-287,554,1.18274,-40.6403,-0.000823944,0.00598765,-0.00267072,0.00690992,-0.00174622,-1.23829,0.00528573,0.0134346,937,470,1.18272,40.6403
-280,554,1.1106,-41.486,-0.00040095,0.00446217,-0.00211882,0.00525581,-0.00119458,-1.21241,0.00396255,0.0132083,944,470,1.1106,41.486
-273,554,1.03052,-42.3369,-4.20785e-05,0.00269608,-0.00143603,0.00331107,-0.000657075,-1.16617,0.00245588,0.0155672,951,470,1.03052,42.3369
-266,554,0.983704,-43.1735,0.000380368,0.000755429,-0.000639256,0.00123409,-9.82962e-05,-0.928074,0.000857374,0.0117632,958,470,0.983673,43.1735
-259,554,0.942261,-43.981,0.000735384,-0.00154625,0.000234851,0.000759306,-0.00157017,0.101513,0.00137182,0.012356,965,470,0.942246,43.981
-252,554,0.917297,-44.7949,0.00105261,-0.00407531,0.00129832,0.00136258,-0.00438529,0.234366,0.00346812,0.0162027,972,470,0.917319,44.7949
-245,554,0.881042,-45.6277,0.00145608,-0.00655583,0.00235285,0.00209594,-0.00719569,0.265529,0.00562741,0.0174252,979,470,0.881062,45.6277
-238,554,0.848511,-46.4721,0.00202616,-0.00925788,0.00349107,0.00301889,-0.0102506,0.277051,0.00803145,0.0126314,986,470,0.848487,46.4721
-231,554,0.817993,-47.2937,0.00278574,-0.0123384,0.00459155,0.00407055,-0.0136232,0.272842,0.0107002,0.0109239,993,470,0.817964,47.2937
-224,554,0.805847,-48.0519,0.00348607,-0.0153111,0.00564132,0.00504914,-0.0168742,0.270294,0.013257,0.011502,1000,470,0.805876,48.0519
-217,554,0.810608,-48.8015,0.00429955,-0.0183129,0.00663061,0.00610042,-0.0201138,0.265201,0.0158392,0.0120164,1007,470,0.810611,48.8014
-210,554,0.791931,-49.5449,0.00524467,-0.0213102,0.00747107,0.00720229,-0.0232679,0.256266,0.018389,0.0158741,1014,470,0.791956,49.5448
-203,554,0.754395,-50.2304,0.00642349,-0.0239671,0.00809173,0.00844369,-0.0259873,0.24466,0.020721,0.0248894,1021,470,0.754376,50.2304
-196,554,0.772217,-50.8901,0.00788457,-0.0261219,0.00834443,0.00982176,-0.0280591,0.228112,0.0226997,0.0335293,1028,470,0.772255,50.8901
-189,554,0.86853,-51.5126,0.00931341,-0.0282304,0.00859809,0.0111888,-0.0301058,0.214756,0.0246612,0.0375147,1035,470,0.868538,51.5127
-182,554,1.1178,-51.965,0.010857,-0.0300526,0.00876911,0.0126574,-0.031853,0.202503,0.0264827,0.0454369,1042,470,1.11784,51.965
-175,554,0.974731,-52.9095,0,0,0,0,0,0,0,-1,1049,470,0.974734,52.9095
-168,554,1.8866,-48.7592,0,0,0,0,0,0,0,-1,1056,470,1.88665,48.7591
-161,554,1.09583,-42.015,0,0,0,0,0,0,0,-1,1063,470,1.09577,42.015
-154,554,1.03186,-42.7216,0,0,0,0,0,0,0,-1,1070,470,1.03187,42.7216
-147,554,1.4552,-41.5187,0,0,0,0,0,0,0,-1,1077,470,1.45525,41.5187
-140,554,0.428101,-38.9893,0,0,0,0,0,0,0,-1,1084,470,0.428152,38.9893
-133,554,2.67163,-32.8187,0,0,0,0,0,0,0,-1,1091,470,2.67161,32.8187
-126,554,0.851929,-33.5393,0,0,0,0,0,0,0,-1,1098,470,0.851942,33.5393
-119,554,-1.03479,-32.1628,0,0,0,0,0,0,0,-1,1105,470,-1.03476,32.1628
-112,554,1.03162,-24.5784,0,0,0,0,0,0,0,-1,1112,470,1.03156,24.5784
-105,554,0.608765,-21.0475,0,0,0,0,0,0,0,-1,1119,470,0.608728,21.0475
-98,554,1.51929,-7.3624,0,0,0,0,0,0,0,-1,1126,470,1.51928,7.36241
-91,554,1.41089,-6.5864,0,0,0,0,0,0,0,-1,1133,470,1.41093,6.58638
-84,554,1.62305,-5.87186,0,0,0,0,0,0,0,-1,1140,470,1.62299,5.87186
-77,554,-2.56958,1.33258,0,0,0,0,0,0,0,-1,1147,470,-2.56959,-1.33257
-70,554,-3.68164,-1.18332,0,0,0,0,0,0,0,-1,1154,470,-3.68158,1.18331
-63,554,-4.86853,-3.88708,0,0,0,0,0,0,0,-1,1161,470,-4.86853,3.88708
-56,554,-5.69958,-6.45422,0,0,0,0,0,0,0,-1,1168,470,-5.69955,6.45422
-49,554,-6.23645,-8.8569,0,0,0,0,0,0,0,-1,1175,470,-6.23643,8.85689
-42,554,-6.62524,-11.5382,0,0,0,0,0,0,0,-1,1182,470,-6.62522,11.5382
-35,554,-2.40173,-4.59482,0,0,0,0,0,0,0,-1,1189,470,-2.40169,4.59481
-28,554,-0.760132,-1.65555,0,0,0,0,0,0,0,-1,1196,470,-0.760095,1.65556
-21,554,6.35388,-60.5687,0,0,0,0,0,0,0,-1,1203,470,6.35392,60.5687
-14,554,6.58826,-65.8703,0,0,0,0,0,0,0,-1,1210,470,6.58825,65.8703
-7,554,5.94739,-60.4669,0,0,0,0,0,0,0,-1,1217,470,5.94743,60.4669
0,554,5.7572,-60.6486,0,0,0,0,0,0,0,-1,1224,470,5.7572,60.6486
7,554,5.78857,-61.075,0,0,0,0,0,0,0,-1,1231,470,5.78852,61.0749
14,554,8.93127,-68.6265,0,0,0,0,0,0,0,-1,1238,470,8.93133,68.6265
21,554,8.42908,-68.9354,0,0,0,0,0,0,0,-1,1245,470,8.42912,68.9354
28,554,8.12939,-69.2459,-0.000647553,0.306854,-0.106457,0.340112,-0.0339057,-1.26799,0.238847,0.0429919,1252,470,8.12941,69.2459
35,554,7.96851,-69.4008,-0.00548388,0.289398,-0.0816516,0.310498,-0.0265832,-1.31792,0.216404,0.0355027,1259,470,7.96848,69.4008
42,554,7.84314,-69.5643,-0.0087317,0.270278,-0.0596641,0.282501,-0.0209549,-1.36873,0.195693,0.042554,1266,470,7.84309,69.5643
49,554,6.79077,-69.0227,0,0,0,0,0,0,0,-1,1273,470,6.79072,69.0227
56,554,6.94397,-69.6296,0,0,0,0,0,0,0,-1,1280,470,6.94392,69.6296
63,554,7.07556,-69.6701,0,0,0,0,0,0,0,-1,1287,470,7.07552,69.6701
70,554,6.02759,-65.8709,0,0,0,0,0,0,0,-1,1294,470,6.02756,65.8709
77,554,6.70691,-66.7792,0,0,0,0,0,0,0,-1,1301,470,6.70695,66.7792
84,554,6.42004,-67.3564,0,0,0,0,0,0,0,-1,1308,470,6.42009,67.3564
91,554,5.73413,-67.0718,0,0,0,0,0,0,0,-1,1315,470,5.73412,67.0718
98,554,5.62036,-67.6362,0,0,0,0,0,0,0,-1,1322,470,5.62033,67.6363
105,554,10.068,-68.4237,0.0884347,-0.0332044,-0.0242716,0.093099,-0.0378686,-0.189855,0.0778231,0.0481991,1329,470,10.068,68.4237
112,554,10.554,-69.3625,0.098241,-0.0472498,-0.0257348,0.102659,-0.0516677,-0.170013,0.0907072,0.043808,1336,470,10.554,69.3625
119,554,11.1215,-70.3457,0.110188,-0.0618803,-0.026664,0.114226,-0.0659175,-0.150268,0.105245,0.0404927,1343,470,11.1215,70.3457
126,554,11.9659,-71.6325,0.123819,-0.0701884,-0.0278762,0.127745,-0.0741144,-0.139916,0.117907,0.040907,1350,470,11.966,71.6325
133,554,12.9749,-72.6145,0.138444,-0.0821353,-0.0279096,0.141921,-0.0856119,-0.123927,0.1327,0.0436763,1357,470,12.9748,72.6145
140,554,13.9919,-73.576,0.155018,-0.0992712,-0.0295223,0.1584,-0.102654,-0.114076,0.151861,0.0493394,1364,470,13.992,73.5761
147,554,15.2733,-74.712,0.171236,-0.124523,-0.0339032,0.175072,-0.12836,-0.112684,0.175877,0.0496263,1371,470,15.2733,74.712
154,554,16.6736,-75.7603,0,0,0,0,0,0,0,-1,1378,470,16.6736,75.7603
161,554,18.2649,-77.085,0,0,0,0,0,0,0,-1,1385,470,18.2649,77.085
168,554,19.8765,-78.1187,0,0,0,0,0,0,0,-1,1392,470,19.8764,78.1187
175,554,10.663,0.286957,0,0,0,0,0,0,0,-1,1399,470,10.663,-0.286966
182,554,6.71106,-4.50217,0,0,0,0,0,0,0,-1,1406,470,6.71107,4.50215
189,554,6.90479,-2.50348,0,0,0,0,0,0,0,-1,1413,470,6.90477,2.50348
196,554,6.96216,-0.740906,0,0,0,0,0,0,0,-1,1420,470,6.96214,0.740912
203,554,6.43518,0.414154,0,0,0,0,0,0,0,-1,1427,470,6.43523,-0.414141
210,554,6.21167,1.96707,0,0,0,0,0,0,0,-1,1434,470,6.21165,-1.96706
217,554,5.64551,3.4989,0,0,0,0,0,0,0,-1,1441,470,5.64555,-3.49891
224,554,4.85144,-8.85172,0,0,0,0,0,0,0,-1,1448,470,4.85146,8.85173
231,554,3.25073,-5.29642,0,0,0,0,0,0,0,-1,1455,470,3.25078,5.29642
238,554,4.28625,-3.25253,0,0,0,0,0,0,0,-1,1462,470,4.28622,3.25252
245,554,4.0752,-2.90033,0,0,0,0,0,0,0,-1,1469,470,4.07515,2.90032
252,554,3.52112,-0.934998,0,0,0,0,0,0,0,-1,1476,470,3.52113,0.934996
259,554,3.96448,-2.16425,0,0,0,0,0,0,0,-1,1483,470,3.96446,2.16424
266,554,3.0592,-2.71716,0,0,0,0,0,0,0,-1,1490,470,3.05923,2.71718
273,554,2.58521,-3.06876,0,0,0,0,0,0,0,-1,1497,470,2.58524,3.06874
280,554,15.1387,-54.192,0,0,0,0,0,0,0,-1,1504,470,15.1387,54.192
287,554,15.5786,-53.8478,0,0,0,0,0,0,0,-1,1511,470,15.5786,53.8478
294,554,14.8993,-52.61,0,0,0,0,0,0,0,-1,1518,470,14.8994,52.61
301,554,14.6945,-52.1788,0,0,0,0,0,0,0,-1,1525,470,14.6945,52.1788
308,554,15.1332,-52.1099,0,0,0,0,0,0,0,-1,1532,470,15.1332,52.1099
315,554,15.1932,-51.563,0,0,0,0,0,0,0,-1,1539,470,15.1932,51.563
322,554,15.2104,-50.4584,0.00182643,-0.0166807,-0.00594657,0.00357242,-0.0184267,-0.285587,0.0136322,0.0427104,1546,470,15.2105,50.4584
329,554,15.0966,-49.8839,0.00194998,-0.0137026,-0.00511075,0.00347092,-0.0152235,-0.289249,0.0114822,0.0282811,1553,470,15.0965,49.8839
336,554,15.0806,-49.2531,0.00193391,-0.0111201,-0.00439474,0.00327555,-0.0124618,-0.296296,0.00958805,0.0172039,1560,470,15.0806,49.253
343,554,15.0652,-48.5347,0.00214391,-0.00855837,-0.00348695,0.00317974,-0.00959421,-0.288759,0.00767874,0.0126053,1567,470,15.0652,48.5347
350,554,15.0457,-47.7219,0.00209343,-0.00616363,-0.0026092,0.00284882,-0.00691902,-0.281806,0.00580037,0.0104999,1574,470,15.0456,47.7219
357,554,15.0397,-46.9156,0.00196957,-0.0041886,-0.00168806,0.00240194,-0.00462097,-0.250744,0.00412159,0.0117174,1581,470,15.0397,46.9156
364,554,15.0094,-46.1382,0.00185417,-0.00267706,-0.000830292,0.00200152,-0.00282441,-0.175638,0.00279972,0.0094015,1588,470,15.0094,46.1382
371,554,14.9519,-45.3257,0.00177134,-0.00134882,-0.000111212,0.0017753,-0.00135278,-0.035583,0.00181148,0.00947667,1595,470,14.9519,45.3257
378,554,14.8834,-44.4619,0.0017032,0.000188325,0.000552268,0.00188316,8.36572e-06,0.315004,0.00125266,0.0107189,1602,470,14.8834,44.4619
385,554,14.8649,-43.6254,0.00157274,0.00134569,0.00102497,0.00249045,0.000427974,0.730244,0.00153763,0.0105452,1609,470,14.8648,43.6254
392,554,14.8492,-42.7829,0.00144985,0.00222039,0.00142197,0.00330836,0.000361877,0.917693,0.00209539,0.0153279,1616,470,14.8493,42.7829
399,554,14.8003,-41.9167,0.00138294,0.00294675,0.00186359,0.00418582,0.000143864,0.984028,0.00274385,0.0189472,1623,470,14.8003,41.9167
406,554,14.7717,-41.075,0.00117155,0.00381819,0.00223781,0.00509467,-0.000104931,1.05242,0.00343196,0.0177745,1630,470,14.7717,41.0749
413,554,14.7284,-40.2279,0.000762794,0.00406485,0.0023439,0.00528084,-0.000453193,1.09223,0.00368093,0.0163172,1637,470,14.7285,40.2279
420,554,14.6766,-39.3653,0.000167355,0.00430533,0.00240295,0.00540729,-0.000934603,1.14083,0.00395339,0.0166892,1644,470,14.6767,39.3653
427,554,14.632,-38.4864,-0.000636459,0.00385216,0.00233356,0.00484551,-0.00162981,1.16835,0.00388916,0.0125728,1651,470,14.6319,38.4863
434,554,14.5509,-37.6156,-0.00140996,0.00346211,0.00228415,0.00436547,-0.00231333,1.19418,0.00391621,0.011678,1658,470,14.5508,37.6156
441,554,14.4966,-36.7227,-0.00248016,0.00283042,0.00213899,0.0035848,-0.00323454,1.23174,0.00393888,0.0130095,1665,470,14.4966,36.7227
448,554,14.443,-35.7819,-0.00378208,0.00185605,0.00190389,0.00243874,-0.00436477,1.2738,0.00398012,0.016468,1672,470,14.443,35.7819
455,554,14.3553,-34.8858,-0.00538936,0.000435547,0.00152309,0.00080976,-0.00576357,1.32987,0.00413879,0.0176679,1679,470,14.3554,34.8858
462,554,14.2251,-34.0356,-0.00694424,-0.000906948,0.00107566,-0.000721023,-0.00713017,1.39964,0.00453226,0.0203177,1686,470,14.225,34.0355
469,554,13.9905,-33.1699,-0.00835965,-0.00235609,0.00057025,-0.00230241,-0.00841334,1.47693,0.0050206,0.0266247,1693,470,13.9904,33.1699
476,554,13.6991,-32.1896,-0.00986319,-0.00419335,-7.01622e-05,-0.00419248,-0.00986405,-1.55842,0.00571632,0.0462131,1700,470,13.6991,32.1896
483,554,13.4441,-31.194,0,0,0,0,0,0,0,-1,1707,470,13.4441,31.194
490,554,12.5504,-17.9805,0,0,0,0,0,0,0,-1,1714,470,12.5505,17.9805
497,554,14.3204,-17.9055,0,0,0,0,0,0,0,-1,1721,470,14.3204,17.9055
504,554,2.13257,-3.81628,0,0,0,0,0,0,0,-1,1728,470,2.1326,3.8163
511,554,1.31396,-4.02713,0,0,0,0,0,0,0,-1,1735,470,1.31398,4.02712
518,554,5.04236,-5.9472,0,0,0,0,0,0,0,-1,1742,470,5.04231,5.94721
525,554,0,0,0,0,0,0,0,0,0,-1,1749,470,0,0
532,554,0,0,0,0,0,0,0,0,0,-1,1756,470,0,0
539,554,0,0,0,0,0,0,0,0,0,-1,1763,470,0,0
546,554,0,0,0,0,0,0,0,0,0,-1,1770,470,0,0
553,554,0,0,0,0,0,0,0,0,0,-1,1777,470,0,0
560,554,0,0,0,0,0,0,0,0,0,-1,1784,470,0,0
567,554,0,0,0,0,0,0,0,0,0,-1,1791,470,0,0
574,554,0,0,0,0,0,0,0,0,0,-1,1798,470,0,0
581,554,0,0,0,0,0,0,0,0,0,-1,1805,470,0,0
588,554,0,0,0,0,0,0,0,0,0,-1,1812,470,0,0
595,554,0,0,0,0,0,0,0,0,0,-1,1819,470,0,0
602,554,0,0,0,0,0,0,0,0,0,-1,1826,470,0,0
609,554,0,0,0,0,0,0,0,0,0,-1,1833,470,0,0
616,554,0,0,0,0,0,0,0,0,0,-1,1840,470,0,0
623,554,0,0,0,0,0,0,0,0,0,-1,1847,470,0,0
630,554,0,0,0,0,0,0,0,0,0,-1,1854,470,0,0
637,554,0,0,0,0,0,0,0,0,0,-1,1861,470,0,0
644,554,0,0,0,0,0,0,0,0,0,-1,1868,470,0,0
651,554,0,0,0,0,0,0,0,0,0,-1,1875,470,0,0
658,554,0,0,0,0,0,0,0,0,0,-1,1882,470,0,0
665,554,0,0,0,0,0,0,0,0,0,-1,1889,470,0,0
672,554,0,0,0,0,0,0,0,0,0,-1,1896,470,0,0
679,554,0,0,0,0,0,0,0,0,0,-1,1903,470,0,0
686,554,0,0,0,0,0,0,0,0,0,-1,1910,470,0,0
693,554,0,0,0,0,0,0,0,0,0,-1,1917,470,0,0
700,554,0,0,0,0,0,0,0,0,0,-1,1924,470,0,0
707,554,0,0,0,0,0,0,0,0,0,-1,1931,470,0,0
714,554,0,0,0,0,0,0,0,0,0,-1,1938,470,0,0
721,554,0,0,0,0,0,0,0,0,0,-1,1945,470,0,0
728,554,0,0,0,0,0,0,0,0,0,-1,1952,470,0,0
735,554,0,0,0,0,0,0,0,0,0,-1,1959,470,0,0
742,554,0,0,0,0,0,0,0,0,0,-1,1966,470,0,0
749,554,0,0,0,0,0,0,0,0,0,-1,1973,470,0,0
756,554,0,0,0,0,0,0,0,0,0,-1,1980,470,0,0
763,554,0,0,0,0,0,0,0,0,0,-1,1987,470,0,0
770,554,0,0,0,0,0,0,0,0,0,-1,1994,470,0,0
777,554,0,0,0,0,0,0,0,0,0,-1,2001,470,0,0
784,554,0,0,0,0,0,0,0,0,0,-1,2008,470,0,0
791,554,0,0,0,0,0,0,0,0,0,-1,2015,470,0,0
798,554,0,0,0,0,0,0,0,0,0,-1,2022,470,0,0
805,554,0,0,0,0,0,0,0,0,0,-1,2029,470,0,0
812,554,0,0,0,0,0,0,0,0,0,-1,2036,470,0,0
-700,547,0,0,0,0,0,0,0,0,0,-1,524,477,0,0
-693,547,0,0,0,0,0,0,0,0,0,-1,531,477,0,0
-686,547,0,0,0,0,0,0,0,0,0,-1,538,477,0,0
-679,547,0,0,0,0,0,0,0,0,0,-1,545,477,0,0
-672,547,0,0,0,0,0,0,0,0,0,-1,552,477,0,0
-665,547,0,0,0,0,0,0,0,0,0,-1,559,477,0,0
-658,547,0,0,0,0,0,0,0,0,0,-1,566,477,0,0
-651,547,0,0,0,0,0,0,0,0,0,-1,573,477,0,0
-644,547,0,0,0,0,0,0,0,0,0,-1,580,477,0,0
-637,547,0,0,0,0,0,0,0,0,0,-1,587,477,0,0
-630,547,0,0,0,0,0,0,0,0,0,-1,594,477,0,0
-623,547,0,0,0,0,0,0,0,0,0,-1,601,477,0,0
-616,547,0,0,0,0,0,0,0,0,0,-1,608,477,0,0
-609,547,0,0,0,0,0,0,0,0,0,-1,615,477,0,0
-602,547,0,0,0,0,0,0,0,0,0,-1,622,477,0,0
-595,547,0,0,0,0,0,0,0,0,0,-1,629,477,0,0
-588,547,0,0,0,0,0,0,0,0,0,-1,636,477,0,0
-581,547,0,0,0,0,0,0,0,0,0,-1,643,477,0,0
-574,547,0,0,0,0,0,0,0,0,0,-1,650,477,0,0
-567,547,0,0,0,0,0,0,0,0,0,-1,657,477,0,0
-560,547,0,0,0,0,0,0,0,0,0,-1,664,477,0,0
-553,547,0,0,0,0,0,0,0,0,0,-1,671,477,0,0
-546,547,0,0,0,0,0,0,0,0,0,-1,678,477,0,0
-539,547,0,0,0,0,0,0,0,0,0,-1,685,477,0,0
-532,547,0,0,0,0,0,0,0,0,0,-1,692,477,0,0
-525,547,0,0,0,0,0,0,0,0,0,-1,699,477,0,0
-518,547,0,0,0,0,0,0,0,0,0,-1,706,477,0,0
-511,547,0,0,0,0,0,0,0,0,0,-1,713,477,0,0
-504,547,0,0,0,0,0,0,0,0,0,-1,720,477,0,0
-497,547,0,0,0,0,0,0,0,0,0,-1,727,477,0,0
-490,547,0,0,0,0,0,0,0,0,0,-1,734,477,0,0
-483,547,0,0,0,0,0,0,0,0,0,-1,741,477,0,0
-476,547,0,0,0,0,0,0,0,0,0,-1,748,477,0,0
-469,547,0,0,0,0,0,0,0,0,0,-1,755,477,0,0
-462,547,0,0,0,0,0,0,0,0,0,-1,762,477,0,0
-455,547,0,0,0,0,0,0,0,0,0,-1,769,477,0,0
-448,547,0,0,0,0,0,0,0,0,0,-1,776,477,0,0
-441,547,0,0,0,0,0,0,0,0,0,-1,783,477,0,0
-434,547,0,0,0,0,0,0,0,0,0,-1,790,477,0,0
-427,547,0,0,0,0,0,0,0,0,0,-1,797,477,0,0
-420,547,0,0,0,0,0,0,0,0,0,-1,804,477,0,0
-413,547,0,0,0,0,0,0,0,0,0,-1,811,477,0,0
-406,547,0.144592,-11.0292,0,0,0,0,0,0,0,-1,818,477,0.144583,11.0292
-399,547,0.775513,-10.0294,0,0,0,0,0,0,0,-1,825,477,0.775482,10.0295
-392,547,0.219055,-28.7913,0,0,0,0,0,0,0,-1,832,477,0.219056,28.7913
-385,547,0.564331,-29.2501,0,0,0,0,0,0,0,-1,839,477,0.564342,29.2501
-378,547,0.934631,-29.7303,0,0,0,0,0,0,0,-1,846,477,0.934644,29.7303
-371,547,1.07477,-30.2805,0,0,0,0,0,0,0,-1,853,477,1.07479,30.2805
-364,547,1.39392,-30.5376,0,0,0,0,0,0,0,-1,860,477,1.39392,30.5376
-357,547,1.60736,-30.6579,0,0,0,0,0,0,0,-1,867,477,1.60734,30.6579
-350,547,1.04291,-32.1094,0,0,0,0,0,0,0,-1,874,477,1.04293,32.1094
-343,547,0.901855,-33.2118,2.22024e-05,0.0245003,-0.0121321,0.0294944,-0.00497194,-1.18029,0.0215126,0.0462969,881,477,0.901869,33.2118
-336,547,0.810486,-34.3562,-0.000893808,0.0201314,-0.00963417,0.0238782,-0.00464066,-1.19988,0.01767,0.0189878,888,477,0.810455,34.3562
-329,547,0.663147,-35.2829,-0.00134909,0.0164875,-0.00763208,0.0193074,-0.00416896,-1.21688,0.0144629,0.0115099,895,477,0.663151,35.2829
-322,547,0.604858,-36.1891,-0.00167123,0.0133312,-0.00588379,0.0153635,-0.00370349,-1.23823,0.0116743,0.0121149,902,477,0.604883,36.1892
-315,547,0.549011,-37.1255,-0.00174284,0.0106925,-0.00446049,0.012127,-0.00317732,-1.25965,0.00932596,0.0106898,909,477,0.549035,37.1255
-308,547,0.497437,-37.9967,-0.00166148,0.00855253,-0.00338629,0.0095732,-0.00268215,-1.27804,0.00743914,0.0124064,916,477,0.49744,37.9967
-301,547,0.441589,-38.8597,-0.0011704,0.00657018,-0.00274042,0.00744215,-0.00204237,-1.26274,0.00576412,0.0126765,923,477,0.441616,38.8597
-294,547,0.370605,-39.7289,-0.000602127,0.00501101,-0.0021325,0.00572927,-0.00132038,-1.24592,0.00432731,0.0106576,930,477,0.370628,39.7289
-287,547,0.307678,-40.584,-0.000140494,0.00361037,-0.00154681,0.00416596,-0.000696084,-1.22596,0.00303605,0.0121898,937,477,0.307666,40.584
-280,547,0.270081,-41.446,0.000180507,0.00197323,-0.000954521,0.00238629,-0.000232548,-1.16239,0.00167377,0.0137359,944,477,0.270067,41.446
-273,547,0.213135,-42.2849,0.00048003,6.83178e-05,-0.000181612,0.00054869,-3.4296e-07,-0.361454,0.000365908,0.0133491,951,477,0.213105,42.2849
-266,547,0.154907,-43.1197,0.000937656,-0.00201655,0.000698559,0.00109451,-0.0021734,0.220877,0.0019207,0.0123598,958,477,0.154879,43.1197
-259,547,0.0978394,-43.9398,0.00127017,-0.00445294,0.0016761,0.0017249,-0.00490767,0.26493,0.00397357,0.0115583,965,477,0.0978127,43.9398
-252,547,0.0974121,-44.7657,0.00155511,-0.00730154,0.00286753,0.00240246,-0.00814889,0.287323,0.00638588,0.0123554,972,477,0.0974104,44.7658
-245,547,0.0858765,-45.5852,0.0019135,-0.0102153,0.00409008,0.00316387,-0.0114656,0.296683,0.00888812,0.0132455,979,477,0.0858824,45.5852
-238,547,0.0482178,-46.4155,0.00250433,-0.0133555,0.00538055,0.00415741,-0.0150086,0.298079,0.0116417,0.00944402,986,477,0.0482262,46.4155
-231,547,0.00128174,-47.2239,0.00337406,-0.0169777,0.00662908,0.00534285,-0.0189465,0.288697,0.0147384,0.00962574,993,477,0.00130461,47.224
-224,547,-0.0293579,-47.9644,0.00418999,-0.0205546,0.00786197,0.00647662,-0.0228412,0.283039,0.0177839,0.0122259,1000,477,-0.0293629,47.9644
-217,547,-0.0265503,-48.6509,0.00514431,-0.0241726,0.00904179,0.00770864,-0.0267369,0.276352,0.0208741,0.0174415,1007,477,-0.0265532,48.6509
-210,547,-0.00384521,-49.2492,0.00627606,-0.027837,0.0100631,0.00902335,-0.0305843,0.266511,0.0239703,0.0271217,1014,477,-0.00383481,49.2492
-203,547,-0.0326538,-49.7062,0.00769675,-0.0311933,0.0108327,0.0105106,-0.0340071,0.254136,0.0268691,0.0393905,1021,477,-0.0326293,49.7063
-196,547,0.137329,-50.4695,0,0,0,0,0,0,0,-1,1028,477,0.137293,50.4695
-189,547,0.0666504,-50.9748,0,0,0,0,0,0,0,-1,1035,477,0.0667108,50.9748
-182,547,0.514648,-51.2814,0,0,0,0,0,0,0,-1,1042,477,0.514622,51.2814
-175,547,1.37634,-47.526,0,0,0,0,0,0,0,-1,1049,477,1.3763,47.526
-168,547,0.761719,-32.9387,0,0,0,0,0,0,0,-1,1056,477,0.761738,32.9387
-161,547,0.0430908,-34.6016,0,0,0,0,0,0,0,-1,1063,477,0.0431231,34.6016
-154,547,-0.284424,-31.1176,0,0,0,0,0,0,0,-1,1070,477,-0.284395,31.1176
-147,547,3.69434,-26.413,0,0,0,0,0,0,0,-1,1077,477,3.69437,26.413
-140,547,1.55676,-22.5229,0,0,0,0,0,0,0,-1,1084,477,1.5568,22.5229
-133,547,2.31665,-17.9421,0,0,0,0,0,0,0,-1,1091,477,2.31667,17.9421
-126,547,-1.15271,-30.6984,0,0,0,0,0,0,0,-1,1098,477,-1.15267,30.6984
-119,547,0.967651,-24.9351,0,0,0,0,0,0,0,-1,1105,477,0.967657,24.9351
-112,547,1.15674,-22.2276,0,0,0,0,0,0,0,-1,1112,477,1.15677,22.2276
-105,547,0.966797,-20.5777,0,0,0,0,0,0,0,-1,1119,477,0.966804,20.5777
-98,547,0.70166,-18.9755,0,0,0,0,0,0,0,-1,1126,477,0.701713,18.9755
-91,547,1.37805,-7.12024,0,0,0,0,0,0,0,-1,1133,477,1.37804,7.12025
-84,547,1.94202,-6.66241,0,0,0,0,0,0,0,-1,1140,477,1.94201,6.66241
-77,547,-2.28357,1.8588,0,0,0,0,0,0,0,-1,1147,477,-2.28356,-1.85879
-70,547,-3.70178,-0.874908,0,0,0,0,0,0,0,-1,1154,477,-3.70182,0.874918
-63,547,-5.12012,-3.60861,0,0,0,0,0,0,0,-1,1161,477,-5.12009,3.60862
-56,547,-6.01917,-6.2399,0,0,0,0,0,0,0,-1,1168,477,-6.01921,6.23991
-49,547,-6.729,-8.60349,0,0,0,0,0,0,0,-1,1175,477,-6.72899,8.60348
-42,547,-2.41736,-5.53012,0,0,0,0,0,0,0,-1,1182,477,-2.41734,5.53011
-35,547,-2.96838,-4.45734,0,0,0,0,0,0,0,-1,1189,477,-2.96839,4.45734
-28,547,-0.869141,-1.29901,0,0,0,0,0,0,0,-1,1196,477,-0.869135,1.29901
-21,547,6.88403,-58.9171,0,0,0,0,0,0,0,-1,1203,477,6.88409,58.9171
-14,547,6.85352,-59.0939,0,0,0,0,0,0,0,-1,1210,477,6.85348,59.0939
-7,547,6.71912,-59.2775,0,0,0,0,0,0,0,-1,1217,477,6.71909,59.2775
0,547,6.46191,-59.4719,0,0,0,0,0,0,0,-1,1224,477,6.4619,59.4719
7,547,6.50476,-60.3799,0,0,0,0,0,0,0,-1,1231,477,6.50476,60.3799
14,547,0,0,0,0,0,0,0,0,0,-1,1238,477,0,0
21,547,0,0,0,0,0,0,0,0,0,-1,1245,477,0,0
28,547,0,0,0,0,0,0,0,0,0,-1,1252,477,0,0
35,547,0,0,0,0,0,0,0,0,0,-1,1259,477,0,0
42,547,0,0,0,0,0,0,0,0,0,-1,1266,477,0,0
49,547,0,0,0,0,0,0,0,0,0,-1,1273,477,0,0
56,547,0,0,0,0,0,0,0,0,0,-1,1280,477,0,0
63,547,0,0,0,0,0,0,0,0,0,-1,1287,477,0,0
70,547,0,0,0,0,0,0,0,0,0,-1,1294,477,0,0
77,547,0,0,0,0,0,0,0,0,0,-1,1301,477,0,0
84,547,0,0,0,0,0,0,0,0,0,-1,1308,477,0,0
91,547,0,0,0,0,0,0,0,0,0,-1,1315,477,0,0
98,547,0,0,0,0,0,0,0,0,0,-1,1322,477,0,0
105,547,9.76233,-67.9761,0.122083,-0.0573126,-0.0440714,0.132326,-0.0675547,-0.228344,0.117403,0.0479706,1329,477,9.76234,67.9761
112,547,10.3621,-68.9982,0.133668,-0.0773074,-0.0472859,0.143782,-0.0874207,-0.210703,0.1348,0.045086,1336,477,10.362,68.9982
119,547,10.9552,-70.0293,0.14701,-0.0978675,-0.0491753,0.156516,-0.107374,-0.190956,0.153235,0.0417154,1343,477,10.9552,70.0293
126,547,11.5134,-71.0677,0.161098,-0.106676,-0.0504928,0.170303,-0.11588,-0.180319,0.166221,0.0451499,1350,477,11.5134,71.0678
133,547,12.9036,-71.9565,0.175008,-0.117787,-0.0473795,0.182484,-0.125263,-0.156499,0.178699,0.0468293,1357,477,12.9036,71.9566
140,547,14.1495,-72.6271,0.191154,-0.133419,-0.0431756,0.196799,-0.139064,-0.130011,0.194863,0.0442432,1364,477,14.1496,72.6272
147,547,15.2135,-72.7263,0.207421,-0.159082,-0.0378192,0.211283,-0.162944,-0.10176,0.21666,0.0461056,1371,477,15.2135,72.7263
154,547,16.0217,-73.0813,0,0,0,0,0,0,0,-1,1378,477,16.0217,73.0813
161,547,18.4701,-77.3534,0,0,0,0,0,0,0,-1,1385,477,18.4701,77.3534
168,547,0.68689,-68.7853,0,0,0,0,0,0,0,-1,1392,477,0.68688,68.7854
175,547,3.35034,-0.26532,0,0,0,0,0,0,0,-1,1399,477,3.3503,0.265306
182,547,4.26038,3.72672,0,0,0,0,0,0,0,-1,1406,477,4.26039,-3.7267
189,547,3.40454,1.28671,0,0,0,0,0,0,0,-1,1413,477,3.40457,-1.28673
196,547,3.53931,1.87793,0,0,0,0,0,0,0,-1,1420,477,3.53928,-1.87794
203,547,6.49414,-0.425842,0,0,0,0,0,0,0,-1,1427,477,6.4941,0.425844
210,547,4.82092,0.53595,0,0,0,0,0,0,0,-1,1434,477,4.82096,-0.535942
217,547,4.68579,0.480072,0,0,0,0,0,0,0,-1,1441,477,4.68577,-0.480069
224,547,4.55615,0.739807,0,0,0,0,0,0,0,-1,1448,477,4.55613,-0.73981
231,547,5.90869,-3.57721,0,0,0,0,0,0,0,-1,1455,477,5.90871,3.57722
238,547,5.50049,-3.15356,0,0,0,0,0,0,0,-1,1462,477,5.50045,3.15356
245,547,5.13708,-2.65213,0,0,0,0,0,0,0,-1,1469,477,5.13708,2.65212
252,547,3.73511,-0.645233,0,0,0,0,0,0,0,-1,1476,477,3.73515,0.645237
259,547,5.86816,-3.20816,0,0,0,0,0,0,0,-1,1483,477,5.86815,3.20816
266,547,5.40222,-2.45731,0,0,0,0,0,0,0,-1,1490,477,5.40221,2.45732
273,547,3.05737,0.495789,0,0,0,0,0,0,0,-1,1497,477,3.05742,-0.49578
280,547,2.0885,1.47797,0,0,0,0,0,0,0,-1,1504,477,2.08848,-1.47795
287,547,16.7034,-52.6257,0,0,0,0,0,0,0,-1,1511,477,16.7033,52.6258
294,547,16.8954,-51.6904,0,0,0,0,0,0,0,-1,1518,477,16.8954,51.6904
301,547,16.5122,-48.5859,0,0,0,0,0,0,0,-1,1525,477,16.5122,48.5859
308,547,14.5352,-46.2472,0,0,0,0,0,0,0,-1,1532,477,14.5351,46.2472
315,547,16.3188,-48.3778,0,0,0,0,0,0,0,-1,1539,477,16.3188,48.3778
322,547,16.145,-50.0469,0,0,0,0,0,0,0,-1,1546,477,16.145,50.0469
329,547,15.8959,-49.6965,0,0,0,0,0,0,0,-1,1553,477,15.8959,49.6965
336,547,15.9425,-49.3081,0,0,0,0,0,0,0,-1,1560,477,15.9425,49.3081
343,547,16.0287,-48.5376,0.0026076,-0.0106199,-0.00431102,0.00388857,-0.0119009,-0.288829,0.00949924,0.043199,1567,477,16.0286,48.5376
350,547,15.9006,-47.7166,0.00262511,-0.0079185,-0.00332455,0.00358584,-0.00887923,-0.281318,0.00740986,0.0264611,1574,477,15.9007,47.7165
357,547,15.864,-46.8948,0.00253715,-0.00573883,-0.00233395,0.00314998,-0.00635166,-0.256775,0.00558862,0.0156573,1581,477,15.864,46.8948
364,547,15.8126,-46.0759,0.00242179,-0.00414474,-0.00144891,0.00272728,-0.00445024,-0.207799,0.00418355,0.0113826,1588,477,15.8126,46.0759
371,547,15.7775,-45.2491,0.00231978,-0.00277367,-0.000741991,0.00242567,-0.00287955,-0.141752,0.00306671,0.0109827,1595,477,15.7774,45.2491
378,547,15.7452,-44.4238,0.00223564,-0.0011429,-7.22965e-05,0.00223718,-0.00114445,-0.0213857,0.00198607,0.0116024,1602,477,15.7453,44.4238
385,547,15.7047,-43.5878,0.00211154,3.99713e-05,0.000463389,0.00221047,-5.89594e-05,0.210336,0.00149369,0.0110828,1609,477,15.7047,43.5877
392,547,15.6824,-42.7398,0.0019385,0.000905098,0.000865529,0.00242982,0.00041377,0.516302,0.00150109,0.0127598,1616,477,15.6824,42.7398
399,547,15.6293,-41.8963,0.00180039,0.0016131,0.00127506,0.00298524,0.000428254,0.748743,0.00186388,0.0150424,1623,477,15.6293,41.8963
406,547,15.6121,-41.0468,0.00157445,0.00263272,0.00168626,0.00387092,0.000336255,0.93743,0.00247615,0.0144129,1630,477,15.6121,41.0468
413,547,15.587,-40.195,0.00118482,0.00280569,0.00177749,0.00394879,4.17244e-05,0.999291,0.00261873,0.0142872,1637,477,15.5871,40.195
420,547,15.5555,-39.3486,0.00066194,0.00316778,0.00188526,0.00417849,-0.00034877,1.07868,0.0029089,0.0173285,1644,477,15.5556,39.3486
427,547,15.5114,-38.4573,-1.82613e-05,0.0029778,0.0019111,0.00390802,-0.000948478,1.11781,0.00297238,0.0178073,1651,477,15.5114,38.4573
434,547,15.4078,-37.5829,-0.000693487,0.00274194,0.00194601,0.0036199,-0.00157144,1.14698,0.00307402,0.0122415,1658,477,15.4079,37.5829
441,547,15.3167,-36.7386,-0.00157822,0.00236835,0.00192272,0.00315019,-0.00236006,1.18459,0.00319223,0.0124821,1665,477,15.3167,36.7386
448,547,15.2634,-35.8182,-0.00264535,0.00169594,0.00179925,0.00234469,-0.0032941,1.22474,0.0032709,0.0117525,1672,477,15.2635,35.8182
455,547,15.2081,-34.8994,-0.00390331,0.000771786,0.00157929,0.00125528,-0.00438681,1.27371,0.00342062,0.0122755,1679,477,15.2081,34.8994
462,547,15.1279,-34.0045,-0.0050489,-0.00010519,0.00131129,0.000221089,-0.00537518,1.32693,0.00365937,0.0128579,1686,477,15.128,34.0045
469,547,14.954,-33.1233,-0.00594438,-0.000975741,0.00102703,-0.000771819,-0.0061483,1.37479,0.00386735,0.0218919,1693,477,14.954,33.1233
476,547,14.7601,-32.0236,-0.00691679,-0.00202591,0.000667927,-0.00193634,-0.00700637,1.43748,0.00417782,0.0367184,1700,477,14.7601,32.0236
483,547,14.6407,-30.8306,0,0,0,0,0,0,0,-1,1707,477,14.6408,30.8306
490,547,3.65271,-3.71707,0,0,0,0,0,0,0,-1,1714,477,3.65277,3.71708
497,547,2.55481,-3.81421,0,0,0,0,0,0,0,-1,1721,477,2.55476,3.8142
504,547,4.01953,-2.22714,0,0,0,0,0,0,0,-1,1728,477,4.0195,2.22713
511,547,5.2146,-6.9552,0,0,0,0,0,0,0,-1,1735,477,5.21464,6.95521
518,547,5.24243,-6.56122,0,0,0,0,0,0,0,-1,1742,477,5.24241,6.56121
525,547,5.89368,-5.49866,0,0,0,0,0,0,0,-1,1749,477,5.89372,5.49866
532,547,0,0,0,0,0,0,0,0,0,-1,1756,477,0,0
539,547,0,0,0,0,0,0,0,0,0,-1,1763,477,0,0
546,547,0,0,0,0,0,0,0,0,0,-1,1770,477,0,0
553,547,0,0,0,0,0,0,0,0,0,-1,1777,477,0,0
560,547,0,0,0,0,0,0,0,0,0,-1,1784,477,0,0
567,547,0,0,0,0,0,0,0,0,0,-1,1791,477,0,0
574,547,0,0,0,0,0,0,0,0,0,-1,1798,477,0,0
581,547,0,0,0,0,0,0,0,0,0,-1,1805,477,0,0
588,547,0,0,0,0,0,0,0,0,0,-1,1812,477,0,0
595,547,0,0,0,0,0,0,0,0,0,-1,1819,477,0,0
602,547,0,0,0,0,0,0,0,0,0,-1,1826,477,0,0
609,547,0,0,0,0,0,0,0,0,0,-1,1833,477,0,0
616,547,0,0,0,0,0,0,0,0,0,-1,1840,477,0,0
623,547,0,0,0,0,0,0,0,0,0,-1,1847,477,0,0
630,547,0,0,0,0,0,0,0,0,0,-1,1854,477,0,0
637,547,0,0,0,0,0,0,0,0,0,-1,1861,477,0,0
644,547,0,0,0,0,0,0,0,0,0,-1,1868,477,0,0
651,547,0,0,0,0,0,0,0,0,0,-1,1875,477,0,0
658,547,0,0,0,0,0,0,0,0,0,-1,1882,477,0,0
665,547,0,0,0,0,0,0,0,0,0,-1,1889,477,0,0
672,547,0,0,0,0,0,0,0,0,0,-1,1896,477,0,0
679,547,0,0,0,0,0,0,0,0,0,-1,1903,477,0,0
686,547,0,0,0,0,0,0,0,0,0,-1,1910,477,0,0
693,547,0,0,0,0,0,0,0,0,0,-1,1917,477,0,0
700,547,0,0,0,0,0,0,0,0,0,-1,1924,477,0,0
707,547,0,0,0,0,0,0,0,0,0,-1,1931,477,0,0
714,547,0,0,0,0,0,0,0,0,0,-1,1938,477,0,0
721,547,0,0,0,0,0,0,0,0,0,-1,1945,477,0,0
728,547,0,0,0,0,0,0,0,0,0,-1,1952,477,0,0
735,547,0,0,0,0,0,0,0,0,0,-1,1959,477,0,0
742,547,0,0,0,0,0,0,0,0,0,-1,1966,477,0,0
749,547,0,0,0,0,0,0,0,0,0,-1,1973,477,0,0
756,547,0,0,0,0,0,0,0,0,0,-1,1980,477,0,0
763,547,0,0,0,0,0,0,0,0,0,-1,1987,477,0,0
770,547,0,0,0,0,0,0,0,0,0,-1,1994,477,0,0
777,547,0,0,0,0,0,0,0,0,0,-1,2001,477,0,0
784,547,0,0,0,0,0,0,0,0,0,-1,2008,477,0,0
791,547,0,0,0,0,0,0,0,0,0,-1,2015,477,0,0
798,547,0,0,0,0,0,0,0,0,0,-1,2022,477,0,0
805,547,0,0,0,0,0,0,0,0,0,-1,2029,477,0,0
812,547,0,0,0,0,0,0,0,0,0,-1,2036,477,0,0
-700,540,0,0,0,0,0,0,0,0,0,-1,524,484,0,0
-693,540,0,0,0,0,0,0,0,0,0,-1,531,484,0,0
-686,540,0,0,0,0,0,0,0,0,0,-1,538,484,0,0
-679,540,0,0,0,0,0,0,0,0,0,-1,545,484,0,0
-672,540,0,0,0,0,0,0,0,0,0,-1,552,484,0,0
-665,540,0,0,0,0,0,0,0,0,0,-1,559,484,0,0
-658,540,0,0,0,0,0,0,0,0,0,-1,566,484,0,0
-651,540,0,0,0,0,0,0,0,0,0,-1,573,484,0,0
-644,540,0,0,0,0,0,0,0,0,0,-1,580,484,0,0
-637,540,0,0,0,0,0,0,0,0,0,-1,587,484,0,0
-630,540,0,0,0,0,0,0,0,0,0,-1,594,484,0,0
-623,540,0,0,0,0,0,0,0,0,0,-1,601,484,0,0
-616,540,0,0,0,0,0,0,0,0,0,-1,608,484,0,0
-609,540,0,0,0,0,0,0,0,0,0,-1,615,484,0,0
-602,540,0,0,0,0,0,0,0,0,0,-1,622,484,0,0
-595,540,0,0,0,0,0,0,0,0,0,-1,629,484,0,0
-588,540,0,0,0,0,0,0,0,0,0,-1,636,484,0,0
-581,540,0,0,0,0,0,0,0,0,0,-1,643,484,0,0
-574,540,0,0,0,0,0,0,0,0,0,-1,650,484,0,0
-567,540,0,0,0,0,0,0,0,0,0,-1,657,484,0,0
-560,540,0,0,0,0,0,0,0,0,0,-1,664,484,0,0
-553,540,0,0,0,0,0,0,0,0,0,-1,671,484,0,0
-546,540,0,0,0,0,0,0,0,0,0,-1,678,484,0,0
-539,540,0,0,0,0,0,0,0,0,0,-1,685,484,0,0
-532,540,0,0,0,0,0,0,0,0,0,-1,692,484,0,0
-525,540,0,0,0,0,0,0,0,0,0,-1,699,484,0,0
-518,540,0,0,0,0,0,0,0,0,0,-1,706,484,0,0
-511,540,0,0,0,0,0,0,0,0,0,-1,713,484,0,0
-504,540,0,0,0,0,0,0,0,0,0,-1,720,484,0,0
-497,540,0,0,0,0,0,0,0,0,0,-1,727,484,0,0
-490,540,0,0,0,0,0,0,0,0,0,-1,734,484,0,0
-483,540,0,0,0,0,0,0,0,0,0,-1,741,484,0,0
-476,540,0,0,0,0,0,0,0,0,0,-1,748,484,0,0
-469,540,0,0,0,0,0,0,0,0,0,-1,755,484,0,0
-462,540,0,0,0,0,0,0,0,0,0,-1,762,484,0,0
-455,540,0,0,0,0,0,0,0,0,0,-1,769,484,0,0
-448,540,0,0,0,0,0,0,0,0,0,-1,776,484,0,0
-441,540,0,0,0,0,0,0,0,0,0,-1,783,484,0,0
-434,540,0,0,0,0,0,0,0,0,0,-1,790,484,0,0
-427,540,0,0,0,0,0,0,0,0,0,-1,797,484,0,0
-420,540,0.227051,-10.0402,0,0,0,0,0,0,0,-1,804,484,0.227063,10.0402
-413,540,-0.0393677,-10.3862,0,0,0,0,0,0,0,-1,811,484,-0.0393683,10.3862
-406,540,-0.518372,-11.5288,0,0,0,0,0,0,0,-1,818,484,-0.518402,11.5288
-399,540,0.0863037,-11.3801,0,0,0,0,0,0,0,-1,825,484,0.0863201,11.3801
-392,540,-0.517395,-10.6735,0,0,0,0,0,0,0,-1,832,484,-0.517377,10.6735
-385,540,-0.41748,-29.7767,0,0,0,0,0,0,0,-1,839,484,-0.417475,29.7767
-378,540,-0.0524292,-30.2798,0,0,0,0,0,0,0,-1,846,484,-0.0524504,30.2798
-371,540,0.192383,-30.805,0,0,0,0,0,0,0,-1,853,484,0.192363,30.805
-364,540,0.470886,-29.8611,0,0,0,0,0,0,0,-1,860,484,0.47087,29.8611
-357,540,0.291687,-30.977,0.00499334,0.0309262,-0.0171917,0.039493,-0.00357351,-1.1085,0.0275971,0.04833,867,484,0.291712,30.977
-350,540,0.0637207,-32.0911,0.00268341,0.0249516,-0.0134703,0.0312937,-0.00365868,-1.13076,0.0221828,0.0358482,874,484,0.063696,32.0911
-343,540,-0.0403442,-33.3099,0.0011233,0.0201801,-0.0105279,0.0248512,-0.00354781,-1.1532,0.0178679,0.0189184,881,484,-0.0403265,33.3099
-336,540,-0.154053,-34.4249,0.000194543,0.016295,-0.00823512,0.019761,-0.00327145,-1.17242,0.014389,0.0138005,888,484,-0.154055,34.4249
-329,540,-0.219849,-35.2972,-0.000358691,0.0130525,-0.00637202,0.0155972,-0.00290337,-1.19085,0.0114889,0.0111385,895,484,-0.219865,35.2972
-322,540,-0.284119,-36.1598,-0.000768532,0.0101678,-0.00470138,0.011911,-0.00251174,-1.21573,0.00889688,0.0146555,902,484,-0.284137,36.1598
-315,540,-0.335388,-37.0536,-0.000908145,0.00779612,-0.00335008,0.00893617,-0.0020482,-1.24278,0.00674466,0.0133585,909,484,-0.335416,37.0537
-308,540,-0.350525,-37.9335,-0.000847882,0.00591715,-0.00234799,0.00665222,-0.00158294,-1.2674,0.00504591,0.0130219,916,484,-0.350529,37.9335
-301,540,-0.42804,-38.7595,-0.000425738,0.0042119,-0.0017248,0.00478304,-0.000996877,-1.25103,0.00356772,0.0139094,923,484,-0.428032,38.7595
-294,540,-0.481567,-39.6336,8.61083e-05,0.00286514,-0.0011361,0.00327047,-0.000319221,-1.2281,0.00229414,0.0126623,930,484,-0.481576,39.6336
-287,540,-0.508972,-40.5193,0.000512339,0.00157176,-0.000555289,0.00180948,0.000274626,-1.16631,0.00112599,0.00888316,937,484,-0.508961,40.5193
-280,540,-0.579407,-41.3672,0.000730268,-0.000194168,8.76597e-05,0.000738507,-0.000202407,0.0937121,0.000571874,0.0105426,944,484,-0.579399,41.3673
-273,540,-0.606995,-42.2158,0.000973027,-0.00226379,0.000966146,0.00123948,-0.00253024,0.269095,0.00221857,0.01329,951,484,-0.607022,42.2158
-266,540,-0.637268,-43.0641,0.00148878,-0.0045231,0.00194602,0.00206371,-0.00509804,0.28727,0.00425675,0.0141121,958,484,-0.637298,43.0641
-259,540,-0.69928,-43.9128,0.00182163,-0.00711436,0.00304389,0.00275995,-0.00805268,0.29902,0.00648718,0.0127318,965,484,-0.699294,43.9128
-252,540,-0.721558,-44.7051,0.00208482,-0.0103422,0.00438728,0.00347763,-0.011735,0.3074,0.00920418,0.0129659,972,484,-0.72154,44.7052
-245,540,-0.734924,-45.5081,0.00239579,-0.0138388,0.00582914,0.00427196,-0.015715,0.31139,0.0121535,0.0135832,979,484,-0.734945,45.5081
-238,540,-0.793213,-46.3027,0.00299058,-0.0176195,0.00734275,0.00533899,-0.0199679,0.309546,0.0154032,0.0111651,986,484,-0.793216,46.3027
-231,540,-0.840027,-47.078,0.00396978,-0.022028,0.00883612,0.00668866,-0.0247469,0.298506,0.0191215,0.0150713,993,484,-0.840035,47.078
-224,540,-0.893066,-47.8043,0.00492485,-0.0265448,0.0103735,0.00803665,-0.0296566,0.291433,0.0229245,0.0204361,1000,484,-0.893097,47.8042
-217,540,-0.856506,-48.3415,0.00605,-0.0311447,0.0118797,0.00952047,-0.0346152,0.284225,0.0268196,0.0309627,1007,484,-0.856495,48.3415
-210,540,-0.785706,-48.8711,0,0,0,0,0,0,0,-1,1014,484,-0.785699,48.8711
-203,540,-0.964783,-49.2324,0,0,0,0,0,0,0,-1,1021,484,-0.964809,49.2324
-196,540,-1.19153,-49.639,0,0,0,0,0,0,0,-1,1028,484,-1.19156,49.639
-189,540,-1.2511,-49.0358,0,0,0,0,0,0,0,-1,1035,484,-1.25113,49.0358
-182,540,-0.826782,-43.3494,0,0,0,0,0,0,0,-1,1042,484,-0.826777,43.3494
-175,540,1.73413,-10.728,0,0,0,0,0,0,0,-1,1049,484,1.73414,10.728
-168,540,1.18164,-7.65347,0,0,0,0,0,0,0,-1,1056,484,1.18163,7.65347
-161,540,-0.405884,-9.86481,0,0,0,0,0,0,0,-1,1063,484,-0.405886,9.8648
-154,540,1.96863,-22.0727,0,0,0,0,0,0,0,-1,1070,484,1.96859,22.0727
-147,540,1.32764,-21.9952,0,0,0,0,0,0,0,-1,1077,484,1.32762,21.9952
-140,540,1.40735,-15.6289,0,0,0,0,0,0,0,-1,1084,484,1.4073,15.6289
-133,540,2.28345,-17.6413,0,0,0,0,0,0,0,-1,1091,484,2.2835,17.6413
-126,540,1.25293,-23.9108,0,0,0,0,0,0,0,-1,1098,484,1.25288,23.9108
-119,540,1.55969,-23.0125,0,0,0,0,0,0,0,-1,1105,484,1.55968,23.0125
-112,540,1.4801,-21.6515,0,0,0,0,0,0,0,-1,1112,484,1.4801,21.6515
-105,540,1.30078,-19.8938,0,0,0,0,0,0,0,-1,1119,484,1.30077,19.8938
-98,540,1.08105,-18.1304,0,0,0,0,0,0,0,-1,1126,484,1.08101,18.1304
-91,540,1.56519,-7.48666,0,0,0,0,0,0,0,-1,1133,484,1.56514,7.48667
-84,540,-0.945923,4.43073,0,0,0,0,0,0,0,-1,1140,484,-0.945891,-4.43074
-77,540,-2.28894,2.14368,0,0,0,0,0,0,0,-1,1147,484,-2.28894,-2.14368
-70,540,-3.75244,-0.452576,0,0,0,0,0,0,0,-1,1154,484,-3.75244,0.452576
-63,540,-5.26257,-3.04767,0,0,0,0,0,0,0,-1,1161,484,-5.26262,3.04766
-56,540,-5.19055,-6.12595,0,0,0,0,0,0,0,-1,1168,484,-5.19057,6.12595
-49,540,-5.63867,-8.52298,0,0,0,0,0,0,0,-1,1175,484,-5.63871,8.52298
-42,540,0,0,0,0,0,0,0,0,0,-1,1182,484,0,0
-35,540,0,0,0,0,0,0,0,0,0,-1,1189,484,0,0
-28,540,0,0,0,0,0,0,0,0,0,-1,1196,484,0,0
-21,540,0,0,0,0,0,0,0,0,0,-1,1203,484,0,0
-14,540,0,0,0,0,0,0,0,0,0,-1,1210,484,0,0
-7,540,0,0,0,0,0,0,0,0,0,-1,1217,484,0,0
0,540,0,0,0,0,0,0,0,0,0,-1,1224,484,0,0
7,540,0,0,0,0,0,0,0,0,0,-1,1231,484,0,0
14,540,0,0,0,0,0,0,0,0,0,-1,1238,484,0,0
21,540,0,0,0,0,0,0,0,0,0,-1,1245,484,0,0
28,540,0,0,0,0,0,0,0,0,0,-1,1252,484,0,0
35,540,0,0,0,0,0,0,0,0,0,-1,1259,484,0,0
42,540,0,0,0,0,0,0,0,0,0,-1,1266,484,0,0
49,540,0,0,0,0,0,0,0,0,0,-1,1273,484,0,0
56,540,0,0,0,0,0,0,0,0,0,-1,1280,484,0,0
63,540,0,0,0,0,0,0,0,0,0,-1,1287,484,0,0
70,540,0,0,0,0,0,0,0,0,0,-1,1294,484,0,0
77,540,0,0,0,0,0,0,0,0,0,-1,1301,484,0,0
84,540,0,0,0,0,0,0,0,0,0,-1,1308,484,0,0
91,540,0,0,0,0,0,0,0,0,0,-1,1315,484,0,0
98,540,0,0,0,0,0,0,0,0,0,-1,1322,484,0,0
105,540,0,0,0,0,0,0,0,0,0,-1,1329,484,0,0
112,540,0,0,0,0,0,0,0,0,0,-1,1336,484,0,0
119,540,0,0,0,0,0,0,0,0,0,-1,1343,484,0,0
126,540,0,0,0,0,0,0,0,0,0,-1,1350,484,0,0
133,540,0,0,0,0,0,0,0,0,0,-1,1357,484,0,0
140,540,0,0,0,0,0,0,0,0,0,-1,1364,484,0,0
147,540,0,0,0,0,0,0,0,0,0,-1,1371,484,0,0
154,540,0,0,0,0,0,0,0,0,0,-1,1378,484,0,0
161,540,0,0,0,0,0,0,0,0,0,-1,1385,484,0,0
168,540,3.05078,-0.0010376,0,0,0,0,0,0,0,-1,1392,484,3.05084,0.00102554
175,540,3.37708,0.617035,0,0,0,0,0,0,0,-1,1399,484,3.37707,-0.617046
182,540,3.32678,1.23267,0,0,0,0,0,0,0,-1,1406,484,3.32678,-1.23266
189,540,3.5813,2.15619,0,0,0,0,0,0,0,-1,1413,484,3.58129,-2.1562
196,540,1.84448,-0.801483,0,0,0,0,0,0,0,-1,1420,484,1.84446,0.80148
203,540,4.14648,0.702087,0,0,0,0,0,0,0,-1,1427,484,4.14645,-0.702089
210,540,4.50671,-0.56076,0,0,0,0,0,0,0,-1,1434,484,4.50667,0.560771
217,540,5.00452,-0.278717,0,0,0,0,0,0,0,-1,1441,484,5.00452,0.278709
224,540,6.44458,-2.83527,0,0,0,0,0,0,0,-1,1448,484,6.44457,2.83525
231,540,6.9231,-3.10504,0,0,0,0,0,0,0,-1,1455,484,6.92307,3.10505
238,540,6.4823,-2.58365,0,0,0,0,0,0,0,-1,1462,484,6.48225,2.58363
245,540,6.02087,-1.97916,0,0,0,0,0,0,0,-1,1469,484,6.02088,1.97915
252,540,6.50647,-3.56006,0,0,0,0,0,0,0,-1,1476,484,6.50649,3.56006
259,540,6.01941,-2.798,0,0,0,0,0,0,0,-1,1483,484,6.01941,2.79801
266,540,5.5332,-2.02853,0,0,0,0,0,0,0,-1,1490,484,5.53323,2.02855
273,540,5.06787,-1.28137,0,0,0,0,0,0,0,-1,1497,484,5.06786,1.28136
280,540,1.62903,-2.14609,0,0,0,0,0,0,0,-1,1504,484,1.62906,2.1461
287,540,1.97156,-2.45053,0,0,0,0,0,0,0,-1,1511,484,1.97159,2.45053
294,540,2.44165,-2.6185,0,0,0,0,0,0,0,-1,1518,484,2.44167,2.6185
301,540,4.36169,-2.54272,0,0,0,0,0,0,0,-1,1525,484,4.36165,2.54272
308,540,4.2019,-4.30469,0,0,0,0,0,0,0,-1,1532,484,4.20193,4.3047
315,540,4.45923,-5.32101,0,0,0,0,0,0,0,-1,1539,484,4.45923,5.32103
322,540,4.71655,-6.33737,0,0,0,0,0,0,0,-1,1546,484,4.71653,6.33736
329,540,15.0289,-44.3801,0,0,0,0,0,0,0,-1,1553,484,15.0289,44.3801
336,540,17.1764,-48.0145,0,0,0,0,0,0,0,-1,1560,484,17.1764,48.0145
343,540,17.0286,-48.657,0,0,0,0,0,0,0,-1,1567,484,17.0286,48.6571
350,540,16.7617,-47.0864,0.0035404,-0.00916277,-0.00356347,0.00447174,-0.0100941,-0.255638,0.00861589,0.0493918,1574,484,16.7617,47.0863
357,540,16.7557,-46.655,0.00351034,-0.00665495,-0.00250385,0.00409361,-0.00723822,-0.228866,0.00662587,0.0341331,1581,484,16.7557,46.6549
364,540,16.5972,-45.9597,0.00339183,-0.00489577,-0.00161999,0.00369724,-0.00520118,-0.186338,0.0051619,0.0202104,1588,484,16.5971,45.9597
371,540,16.5701,-45.1807,0.00323147,-0.00342065,-0.000975125,0.00337146,-0.00356065,-0.142593,0.00400275,0.016681,1595,484,16.57,45.1806
378,540,16.5809,-44.3651,0.00307202,-0.00166715,-0.000344862,0.00309698,-0.00169212,-0.0722611,0.00280436,0.0146665,1602,484,16.5809,44.365
385,540,16.5439,-43.5359,0.00288389,-0.000499749,0.000210178,0.0028969,-0.000512754,0.0617992,0.00212293,0.0149053,1609,484,16.5439,43.5359
392,540,16.4829,-42.6896,0.00257565,0.000211006,0.00051234,0.00268188,0.000104771,0.204454,0.00175404,0.0132204,1616,484,16.4829,42.6896
399,540,16.4536,-41.8746,0.00229658,0.000819196,0.0008122,0.00265576,0.00046001,0.416381,0.00163884,0.0179776,1623,484,16.4536,41.8746
406,540,16.4449,-41.0187,0.00201347,0.00189014,0.00121526,0.00316862,0.000734985,0.760047,0.00191503,0.0199538,1630,484,16.445,41.0187
413,540,16.4041,-40.1603,0.001613,0.00188117,0.00124719,0.00300146,0.000492713,0.838948,0.00185864,0.016055,1637,484,16.4041,40.1603
420,540,16.3883,-39.2532,0.0011493,0.00229755,0.00137626,0.00321463,0.000232217,0.983005,0.00207003,0.015548,1644,484,16.3882,39.2532
427,540,16.3199,-38.3843,0.00059311,0.00229664,0.00149021,0.00316133,-0.000271584,1.04503,0.00220367,0.016951,1651,484,16.3199,38.3843
434,540,16.2749,-37.5114,1.73641e-05,0.00217283,0.00160545,0.00302874,-0.000838548,1.081,0.0023491,0.0196797,1658,484,16.2749,37.5114
441,540,16.255,-36.6209,-0.000685953,0.00200075,0.00169703,0.00282177,-0.00150697,1.12019,0.00253734,0.0220278,1665,484,16.255,36.6209
448,540,16.1621,-35.7633,-0.00153544,0.00155982,0.00168156,0.00229754,-0.00227316,1.15737,0.00263891,0.0118817,1672,484,16.1621,35.7633
455,540,16.0967,-34.829,-0.00248395,0.00102488,0.00160967,0.00165143,-0.0031105,1.1996,0.00279199,0.0112449,1679,484,16.0966,34.8291
462,540,16.0132,-33.9507,-0.003305,0.000505867,0.00151197,0.00103287,-0.003832,1.23541,0.00295966,0.0124516,1686,484,16.0131,33.9507
469,540,15.922,-33.0591,-0.00380992,8.05187e-05,0.00143247,0.00055105,-0.00428045,1.25342,0.00305393,0.0164532,1693,484,15.922,33.0591
476,540,15.8529,-32.1742,-0.00437468,-0.000401751,0.00131736,-4.63077e-06,-0.0047718,1.27801,0.00317966,0.0230761,1700,484,15.8529,32.1742
483,540,15.8745,-31.2063,-0.00471705,-0.000777262,0.00121249,-0.000434018,-0.0050603,1.29492,0.00323857,0.0379195,1707,484,15.8745,31.2063
490,540,16.0306,-30.1485,0,0,0,0,0,0,0,-1,1714,484,16.0307,30.1485
497,540,10.3452,-16.9359,0,0,0,0,0,0,0,-1,1721,484,10.3453,16.9359
504,540,12.519,-18.0764,0,0,0,0,0,0,0,-1,1728,484,12.519,18.0765
511,540,5.82471,-6.83521,0,0,0,0,0,0,0,-1,1735,484,5.82465,6.83522
518,540,9.98181,-12.4608,0,0,0,0,0,0,0,-1,1742,484,9.98187,12.4608
525,540,12.4843,-16.3481,0,0,0,0,0,0,0,-1,1749,484,12.4842,16.3481
532,540,2.84265,-1.07925,0,0,0,0,0,0,0,-1,1756,484,2.84269,1.07927
539,540,0,0,0,0,0,0,0,0,0,-1,1763,484,0,0
546,540,0,0,0,0,0,0,0,0,0,-1,1770,484,0,0
553,540,0,0,0,0,0,0,0,0,0,-1,1777,484,0,0
560,540,0,0,0,0,0,0,0,0,0,-1,1784,484,0,0
567,540,0,0,0,0,0,0,0,0,0,-1,1791,484,0,0
574,540,0,0,0,0,0,0,0,0,0,-1,1798,484,0,0
581,540,0,0,0,0,0,0,0,0,0,-1,1805,484,0,0
588,540,0,0,0,0,0,0,0,0,0,-1,1812,484,0,0
595,540,0,0,0,0,0,0,0,0,0,-1,1819,484,0,0
602,540,0,0,0,0,0,0,0,0,0,-1,1826,484,0,0
609,540,0,0,0,0,0,0,0,0,0,-1,1833,484,0,0
616,540,0,0,0,0,0,0,0,0,0,-1,1840,484,0,0
623,540,0,0,0,0,0,0,0,0,0,-1,1847,484,0,0
630,540,0,0,0,0,0,0,0,0,0,-1,1854,484,0,0
637,540,0,0,0,0,0,0,0,0,0,-1,1861,484,0,0
644,540,0,0,0,0,0,0,0,0,0,-1,1868,484,0,0
651,540,0,0,0,0,0,0,0,0,0,-1,1875,484,0,0
658,540,0,0,0,0,0,0,0,0,0,-1,1882,484,0,0
665,540,0,0,0,0,0,0,0,0,0,-1,1889,484,0,0
672,540,0,0,0,0,0,0,0,0,0,-1,1896,484,0,0
679,540,0,0,0,0,0,0,0,0,0,-1,1903,484,0,0
686,540,0,0,0,0,0,0,0,0,0,-1,1910,484,0,0
693,540,0,0,0,0,0,0,0,0,0,-1,1917,484,0,0
700,540,0,0,0,0,0,0,0,0,0,-1,1924,484,0,0
707,540,0,0,0,0,0,0,0,0,0,-1,1931,484,0,0
714,540,0,0,0,0,0,0,0,0,0,-1,1938,484,0,0
721,540,0,0,0,0,0,0,0,0,0,-1,1945,484,0,0
728,540,0,0,0,0,0,0,0,0,0,-1,1952,484,0,0
735,540,0,0,0,0,0,0,0,0,0,-1,1959,484,0,0
742,540,0,0,0,0,0,0,0,0,0,-1,1966,484,0,0
749,540,0,0,0,0,0,0,0,0,0,-1,1973,484,0,0
756,540,0,0,0,0,0,0,0,0,0,-1,1980,484,0,0
763,540,0,0,0,0,0,0,0,0,0,-1,1987,484,0,0
770,540,0,0,0,0,0,0,0,0,0,-1,1994,484,0,0
777,540,0,0,0,0,0,0,0,0,0,-1,2001,484,0,0
784,540,0,0,0,0,0,0,0,0,0,-1,2008,484,0,0
791,540,0,0,0,0,0,0,0,0,0,-1,2015,484,0,0
798,540,0,0,0,0,0,0,0,0,0,-1,2022,484,0,0
805,540,0,0,0,0,0,0,0,0,0,-1,2029,484,0,0
812,540,0,0,0,0,0,0,0,0,0,-1,2036,484,0,0
-700,533,0,0,0,0,0,0,0,0,0,-1,524,491,0,0
-693,533,0,0,0,0,0,0,0,0,0,-1,531,491,0,0
-686,533,0,0,0,0,0,0,0,0,0,-1,538,491,0,0
-679,533,0,0,0,0,0,0,0,0,0,-1,545,491,0,0
-672,533,0,0,0,0,0,0,0,0,0,-1,552,491,0,0
-665,533,0,0,0,0,0,0,0,0,0,-1,559,491,0,0
-658,533,0,0,0,0,0,0,0,0,0,-1,566,491,0,0
-651,533,0,0,0,0,0,0,0,0,0,-1,573,491,0,0
-644,533,0,0,0,0,0,0,0,0,0,-1,580,491,0,0
-637,533,0,0,0,0,0,0,0,0,0,-1,587,491,0,0
-630,533,0,0,0,0,0,0,0,0,0,-1,594,491,0,0
-623,533,0,0,0,0,0,0,0,0,0,-1,601,491,0,0
-616,533,0,0,0,0,0,0,0,0,0,-1,608,491,0,0
-609,533,0,0,0,0,0,0,0,0,0,-1,615,491,0,0
-602,533,0,0,0,0,0,0,0,0,0,-1,622,491,0,0
-595,533,0,0,0,0,0,0,0,0,0,-1,629,491,0,0
-588,533,0,0,0,0,0,0,0,0,0,-1,636,491,0,0
-581,533,0,0,0,0,0,0,0,0,0,-1,643,491,0,0
-574,533,0,0,0,0,0,0,0,0,0,-1,650,491,0,0
-567,533,0,0,0,0,0,0,0,0,0,-1,657,491,0,0
-560,533,0,0,0,0,0,0,0,0,0,-1,664,491,0,0
-553,533,0,0,0,0,0,0,0,0,0,-1,671,491,0,0
-546,533,0,0,0,0,0,0,0,0,0,-1,678,491,0,0
-539,533,0,0,0,0,0,0,0,0,0,-1,685,491,0,0
-532,533,0,0,0,0,0,0,0,0,0,-1,692,491,0,0
-525,533,0,0,0,0,0,0,0,0,0,-1,699,491,0,0
-518,533,0,0,0,0,0,0,0,0,0,-1,706,491,0,0
-511,533,0,0,0,0,0,0,0,0,0,-1,713,491,0,0
-504,533,0,0,0,0,0,0,0,0,0,-1,720,491,0,0
-497,533,0,0,0,0,0,0,0,0,0,-1,727,491,0,0
-490,533,0,0,0,0,0,0,0,0,0,-1,734,491,0,0
-483,533,0,0,0,0,0,0,0,0,0,-1,741,491,0,0
-476,533,0,0,0,0,0,0,0,0,0,-1,748,491,0,0
-469,533,0,0,0,0,0,0,0,0,0,-1,755,491,0,0
-462,533,0,0,0,0,0,0,0,0,0,-1,762,491,0,0
-455,533,0,0,0,0,0,0,0,0,0,-1,769,491,0,0
-448,533,0,0,0,0,0,0,0,0,0,-1,776,491,0,0
-441,533,0,0,0,0,0,0,0,0,0,-1,783,491,0,0
-434,533,0,0,0,0,0,0,0,0,0,-1,790,491,0,0
-427,533,0.559814,-4.40222,0,0,0,0,0,0,0,-1,797,491,0.559816,4.40222
-420,533,-1.11127,-10.9054,0,0,0,0,0,0,0,-1,804,491,-1.11124,10.9054
-413,533,-0.704773,-11.0942,0,0,0,0,0,0,0,-1,811,491,-0.704742,11.0942
-406,533,-0.670898,-12.0899,0,0,0,0,0,0,0,-1,818,491,-0.670908,12.0899
-399,533,-0.455017,-12.4423,0,0,0,0,0,0,0,-1,825,491,-0.455032,12.4423
-392,533,-1.89661,-10.3905,0,0,0,0,0,0,0,-1,832,491,-1.89661,10.3905
-385,533,0.797729,-17.0485,0,0,0,0,0,0,0,-1,839,491,0.797746,17.0485
-378,533,-1.89435,-19.6771,0,0,0,0,0,0,0,-1,846,491,-1.89433,19.6771
-371,533,-0.999084,-28.8157,0,0,0,0,0,0,0,-1,853,491,-0.99907,28.8157
-364,533,-0.997986,-30.1583,0.00681441,0.0302056,-0.0178579,0.039857,-0.00283695,-1.07531,0.0275657,0.048669,860,491,-0.998001,30.1583
-357,533,-0.778442,-31.4038,0.00476356,0.0250233,-0.0144754,0.0325613,-0.00277441,-1.09069,0.0226889,0.0247775,867,491,-0.778438,31.4038
-350,533,-0.841309,-32.4217,0.0029467,0.0201758,-0.011374,0.0258293,-0.00270683,-1.10951,0.0181891,0.0139091,874,491,-0.841305,32.4217
-343,533,-0.925598,-33.4097,0.00168356,0.0161039,-0.0088359,0.0202981,-0.00251064,-1.12761,0.0144419,0.0128215,881,491,-0.92562,33.4097
-336,533,-1.0191,-34.3541,0.000856617,0.0127217,-0.00677843,0.0157971,-0.00221874,-1.14487,0.0113435,0.0174321,888,491,-1.01913,34.3541
-329,533,-1.0722,-35.2493,0.000323751,0.00988976,-0.00508195,0.0120855,-0.00187202,-1.16295,0.00874805,0.015694,895,491,-1.07219,35.2493
-322,533,-1.14465,-36.1071,-7.32607e-05,0.00730024,-0.0035276,0.00871605,-0.00148907,-1.18913,0.00636538,0.0121264,902,491,-1.14466,36.107
-315,533,-1.20923,-36.9766,-0.000196295,0.00521,-0.00228603,0.00604704,-0.00103334,-1.2198,0.00441629,0.0133107,909,491,-1.20923,36.9765
-308,533,-1.24091,-37.8785,-8.52206e-05,0.00359304,-0.00138878,0.00405849,-0.000550673,-1.24741,0.00290666,0.0125007,916,491,-1.2409,37.8785
-301,533,-1.30609,-38.7236,0.000318513,0.00217948,-0.000814744,0.00248577,1.2223e-05,-1.21121,0.00165312,0.0137364,923,491,-1.30607,38.7236
-294,533,-1.33484,-39.5852,0.000804878,0.00106132,-0.000268608,0.00123074,0.000635456,-1.00808,0.000710695,0.0131775,930,491,-1.33484,39.5852
-287,533,-1.34717,-40.4674,0.00122023,-0.000120265,0.000284776,0.00127822,-0.000178254,0.200885,0.000917357,0.0103297,937,491,-1.34717,40.4674
-280,533,-1.39618,-41.3397,0.00135362,-0.00203784,0.000963364,0.00160817,-0.00229239,0.258321,0.0022635,0.00961795,944,491,-1.39618,41.3397
-273,533,-1.44702,-42.1729,0.00155035,-0.00430563,0.00193386,0.00213134,-0.00488662,0.291852,0.00415461,0.013394,951,491,-1.447,42.1729
-266,533,-1.4928,-43.0041,0.00213981,-0.00680522,0.00301767,0.00306264,-0.00772805,0.296777,0.00642117,0.0129339,958,491,-1.49279,43.0041
-259,533,-1.52148,-43.8508,0.00248184,-0.00962261,0.00425799,0.00382961,-0.0109704,0.306549,0.00887011,0.0133129,965,491,-1.52147,43.8509
-252,533,-1.53174,-44.6556,0.00271147,-0.0133788,0.0057986,0.00458339,-0.0152507,0.312261,0.0119906,0.0186516,972,491,-1.53176,44.6557
-245,533,-1.59607,-45.4331,0.00292172,-0.0177799,0.00756886,0.00539381,-0.020252,0.315691,0.015613,0.0269235,979,491,-1.59605,45.4331
-238,533,-1.56042,-46.0605,0.00348464,-0.0225507,0.00940818,0.00652853,-0.0255946,0.312907,0.019605,0.0285844,986,491,-1.56044,46.0606
-231,533,-1.61273,-46.5938,0.00456757,-0.0281427,0.0112756,0.00807771,-0.0316528,0.301795,0.0242472,0.0370152,993,491,-1.61271,46.5938
-224,533,-1.91174,-47.2175,0.00567322,-0.0340215,0.0132514,0.00969042,-0.0380387,0.294347,0.0291315,0.0433201,1000,491,-1.91172,47.2174
-217,533,-1.72772,-48.0806,0.00696809,-0.0400583,0.0152545,0.0114829,-0.0445731,0.287753,0.0341919,0.0482079,1007,491,-1.72772,48.0806
-210,533,-1.66418,-48.6315,0,0,0,0,0,0,0,-1,1014,491,-1.66417,48.6315
-203,533,-1.77283,-48.7996,0,0,0,0,0,0,0,-1,1021,491,-1.77281,48.7996
-196,533,-2.22546,-48.6072,0,0,0,0,0,0,0,-1,1028,491,-2.22546,48.6072
-189,533,-1.75317,-43.4744,0,0,0,0,0,0,0,-1,1035,491,-1.75312,43.4744
-182,533,1.26123,-11.4969,0,0,0,0,0,0,0,-1,1042,491,1.26128,11.4969
-175,533,0.937744,-7.36966,0,0,0,0,0,0,0,-1,1049,491,0.937769,7.36965
-168,533,2.64807,-2.7543,0,0,0,0,0,0,0,-1,1056,491,2.64812,2.7543
-161,533,1.91833,-1.76553,0,0,0,0,0,0,0,-1,1063,491,1.91836,1.76554
-154,533,0.376709,-11.0633,0,0,0,0,0,0,0,-1,1070,491,0.376715,11.0632
-147,533,0.383789,-12.1586,0,0,0,0,0,0,0,-1,1077,491,0.383829,12.1586
-140,533,1.14001,-15.4608,0,0,0,0,0,0,0,-1,1084,491,1.14005,15.4608
-133,533,0.189941,-16.0795,0,0,0,0,0,0,0,-1,1091,491,0.18994,16.0795
-126,533,2.89612,-2.59003,0,0,0,0,0,0,0,-1,1098,491,2.89608,2.59003
-119,533,1.78284,-22.5394,0,0,0,0,0,0,0,-1,1105,491,1.78279,22.5394
-112,533,1.83862,-21.2401,0,0,0,0,0,0,0,-1,1112,491,1.83859,21.24
-105,533,1.67554,-19.4018,0,0,0,0,0,0,0,-1,1119,491,1.6755,19.4018
-98,533,-1.39392,-5.16367,0,0,0,0,0,0,0,-1,1126,491,-1.39394,5.16367
-91,533,0.367432,4.49753,0,0,0,0,0,0,0,-1,1133,491,0.367468,-4.49754
-84,533,-0.88623,3.03604,0,0,0,0,0,0,0,-1,1140,491,-0.886288,-3.03605
-77,533,0,0,0,0,0,0,0,0,0,-1,1147,491,0,0
-70,533,0,0,0,0,0,0,0,0,0,-1,1154,491,0,0
-63,533,0,0,0,0,0,0,0,0,0,-1,1161,491,0,0
-56,533,0,0,0,0,0,0,0,0,0,-1,1168,491,0,0
-49,533,0,0,0,0,0,0,0,0,0,-1,1175,491,0,0
-42,533,0,0,0,0,0,0,0,0,0,-1,1182,491,0,0
-35,533,0,0,0,0,0,0,0,0,0,-1,1189,491,0,0
-28,533,0,0,0,0,0,0,0,0,0,-1,1196,491,0,0
-21,533,0,0,0,0,0,0,0,0,0,-1,1203,491,0,0
-14,533,0,0,0,0,0,0,0,0,0,-1,1210,491,0,0
-7,533,0,0,0,0,0,0,0,0,0,-1,1217,491,0,0
0,533,0,0,0,0,0,0,0,0,0,-1,1224,491,0,0
7,533,0,0,0,0,0,0,0,0,0,-1,1231,491,0,0
14,533,0,0,0,0,0,0,0,0,0,-1,1238,491,0,0
21,533,0,0,0,0,0,0,0,0,0,-1,1245,491,0,0
28,533,0,0,0,0,0,0,0,0,0,-1,1252,491,0,0
35,533,0,0,0,0,0,0,0,0,0,-1,1259,491,0,0
42,533,0,0,0,0,0,0,0,0,0,-1,1266,491,0,0
49,533,0,0,0,0,0,0,0,0,0,-1,1273,491,0,0
56,533,0,0,0,0,0,0,0,0,0,-1,1280,491,0,0
63,533,0,0,0,0,0,0,0,0,0,-1,1287,491,0,0
70,533,0,0,0,0,0,0,0,0,0,-1,1294,491,0,0
77,533,0,0,0,0,0,0,0,0,0,-1,1301,491,0,0
84,533,0,0,0,0,0,0,0,0,0,-1,1308,491,0,0
91,533,0,0,0,0,0,0,0,0,0,-1,1315,491,0,0
98,533,0,0,0,0,0,0,0,0,0,-1,1322,491,0,0
105,533,0,0,0,0,0,0,0,0,0,-1,1329,491,0,0
112,533,0,0,0,0,0,0,0,0,0,-1,1336,491,0,0
119,533,0,0,0,0,0,0,0,0,0,-1,1343,491,0,0
126,533,0,0,0,0,0,0,0,0,0,-1,1350,491,0,0
133,533,0,0,0,0,0,0,0,0,0,-1,1357,491,0,0
140,533,0,0,0,0,0,0,0,0,0,-1,1364,491,0,0
147,533,0,0,0,0,0,0,0,0,0,-1,1371,491,0,0
154,533,0,0,0,0,0,0,0,0,0,-1,1378,491,0,0
161,533,0,0,0,0,0,0,0,0,0,-1,1385,491,0,0
168,533,0,0,0,0,0,0,0,0,0,-1,1392,491,0,0
175,533,0,0,0,0,0,0,0,0,0,-1,1399,491,0,0
182,533,0,0,0,0,0,0,0,0,0,-1,1406,491,0,0
189,533,0,0,0,0,0,0,0,0,0,-1,1413,491,0,0
196,533,0,0,0,0,0,0,0,0,0,-1,1420,491,0,0
203,533,3.7887,1.16193,0,0,0,0,0,0,0,-1,1427,491,3.78872,-1.16193
210,533,5.09558,-0.216034,0,0,0,0,0,0,0,-1,1434,491,5.09559,0.216028
217,533,6.91614,-2.46814,0,0,0,0,0,0,0,-1,1441,491,6.91618,2.46814
224,533,7.23621,-2.1857,0,0,0,0,0,0,0,-1,1448,491,7.23621,2.1857
231,533,7.23474,-1.92282,0,0,0,0,0,0,0,-1,1455,491,7.2347,1.92282
238,533,7.23535,-1.67258,0,0,0,0,0,0,0,-1,1462,491,7.23539,1.67258
245,533,6.86682,-1.2301,0,0,0,0,0,0,0,-1,1469,491,6.86686,1.23011
252,533,6.63354,-3.07825,0,0,0,0,0,0,0,-1,1476,491,6.6335,3.07824
259,533,6.16431,-2.35037,0,0,0,0,0,0,0,-1,1483,491,6.1643,2.35037
266,533,5.68884,-1.6214,0,0,0,0,0,0,0,-1,1490,491,5.68885,1.6214
273,533,5.21399,-0.864227,0,0,0,0,0,0,0,-1,1497,491,5.21403,0.864227
280,533,1.41089,-1.97946,0,0,0,0,0,0,0,-1,1504,491,1.41087,1.97946
287,533,1.6814,-2.44443,0,0,0,0,0,0,0,-1,1511,491,1.6814,2.44444
294,533,2.2384,-2.57626,0,0,0,0,0,0,0,-1,1518,491,2.23839,2.57625
301,533,3.39941,-4.0817,0,0,0,0,0,0,0,-1,1525,491,3.3994,4.08171
308,533,4.13733,-4.14752,0,0,0,0,0,0,0,-1,1532,491,4.13727,4.14752
315,533,4.80762,-5.29349,0,0,0,0,0,0,0,-1,1539,491,4.80762,5.29347
322,533,5.47803,-6.43942,0,0,0,0,0,0,0,-1,1546,491,5.47798,6.43943
329,533,3.88477,-3.86301,0,0,0,0,0,0,0,-1,1553,491,3.88475,3.86299
336,533,14.5214,-40.908,0,0,0,0,0,0,0,-1,1560,491,14.5214,40.908
343,533,16.3387,-44.9998,0,0,0,0,0,0,0,-1,1567,491,16.3387,44.9998
350,533,17.4077,-46.3317,0,0,0,0,0,0,0,-1,1574,491,17.4077,46.3317
357,533,17.4158,-47.045,0.00485255,-0.00673241,-0.00191225,0.00516003,-0.00703989,-0.15943,0.00707145,0.0499673,1581,491,17.4158,47.045
364,533,17.4905,-45.8183,0.00469909,-0.00473432,-0.00107647,0.00482036,-0.0048556,-0.112191,0.00558643,0.0475259,1588,491,17.4905,45.8183
371,533,17.3558,-45.1307,0,0,0,0,0,0,0,-1,1595,491,17.3559,45.1307
378,533,17.4227,-44.2806,0,0,0,0,0,0,0,-1,1602,491,17.4228,44.2806
385,533,17.4309,-43.4561,0.00385352,-0.000114504,0.000464735,0.00390723,-0.000168207,0.115046,0.00266266,0.0392996,1609,491,17.4309,43.4561
392,533,17.365,-42.6453,0.00339439,0.000335225,0.000570845,0.00349744,0.000232176,0.178597,0.00225821,0.0164417,1616,491,17.365,42.6453
399,533,17.3176,-41.8247,0.00296144,0.000746961,0.000667011,0.00314683,0.000561574,0.271094,0.00193801,0.0142414,1623,491,17.3176,41.8247
406,533,17.2919,-40.9719,0.00262186,0.00177089,0.000988018,0.00327212,0.00112063,0.582077,0.00192015,0.0176024,1630,491,17.2919,40.9719
413,533,17.2573,-40.0786,0.00220861,0.00148412,0.000884876,0.00280252,0.000890213,0.591118,0.00165351,0.0156899,1637,491,17.2573,40.0786
420,533,17.1921,-39.1909,0.00178599,0.00187681,0.000979144,0.0028116,0.000851205,0.80857,0.00166485,0.0152977,1644,491,17.1922,39.1908
427,533,17.1613,-38.3152,0.00131947,0.00196385,0.00113702,0.00282345,0.00045987,0.923458,0.00174928,0.0163301,1651,491,17.1612,38.3152
434,533,17.1133,-37.4712,0.00079444,0.0018728,0.00127772,0.00272045,-5.32067e-05,0.985055,0.00183162,0.0145229,1658,491,17.1133,37.4712
441,533,17.1073,-36.5808,0.000205521,0.00178578,0.00141896,0.00261977,-0.000628463,1.03944,0.00198937,0.0163862,1665,491,17.1073,36.5808
448,533,17.0441,-35.6834,-0.000487861,0.00148548,0.00147414,0.00227268,-0.00127506,1.08032,0.00207511,0.0171529,1672,491,17.0441,35.6834
455,533,16.9757,-34.7606,-0.00124422,0.00116617,0.00150046,0.00188551,-0.00196357,1.12375,0.00222242,0.0163451,1679,491,16.9757,34.7605
462,533,16.902,-33.8727,-0.00185182,0.000866207,0.0014993,0.00153076,-0.00251638,1.15358,0.0023596,0.0165258,1686,491,16.9019,33.8727
469,533,16.8408,-33.0231,-0.00212105,0.000706746,0.00154067,0.00138396,-0.00279827,1.15666,0.0024602,0.0110969,1693,491,16.8408,33.0231
476,533,16.792,-32.0768,-0.00245059,0.000544755,0.00157347,0.00121937,-0.0031252,1.16576,0.00258754,0.012791,1700,491,16.792,32.0769
483,533,16.7758,-31.1168,-0.00257082,0.000498244,0.00164883,0.00121614,-0.00328871,1.16015,0.00269106,0.02289,1707,491,16.7757,31.1168
490,533,16.834,-30.0011,0,0,0,0,0,0,0,-1,1714,491,16.834,30.0011
497,533,16.6541,-29.2406,0,0,0,0,0,0,0,-1,1721,491,16.654,29.2406
504,533,14.6896,-22.6455,0,0,0,0,0,0,0,-1,1728,491,14.6895,22.6455
511,533,13.6221,-19.2798,0,0,0,0,0,0,0,-1,1735,491,13.6221,19.2798
518,533,14.1954,-19.4995,0,0,0,0,0,0,0,-1,1742,491,14.1955,19.4995
525,533,13.7935,-19.6901,0,0,0,0,0,0,0,-1,1749,491,13.7934,19.6901
532,533,15.4377,-17.9016,0,0,0,0,0,0,0,-1,1756,491,15.4377,17.9015
539,533,12.8733,-18.2556,0,0,0,0,0,0,0,-1,1763,491,12.8733,18.2556
546,533,3.59607,1.65799,0,0,0,0,0,0,0,-1,1770,491,3.59605,-1.658
553,533,0,0,0,0,0,0,0,0,0,-1,1777,491,0,0
560,533,0,0,0,0,0,0,0,0,0,-1,1784,491,0,0
567,533,0,0,0,0,0,0,0,0,0,-1,1791,491,0,0
574,533,0,0,0,0,0,0,0,0,0,-1,1798,491,0,0
581,533,0,0,0,0,0,0,0,0,0,-1,1805,491,0,0
588,533,0,0,0,0,0,0,0,0,0,-1,1812,491,0,0
595,533,0,0,0,0,0,0,0,0,0,-1,1819,491,0,0
602,533,0,0,0,0,0,0,0,0,0,-1,1826,491,0,0
609,533,0,0,0,0,0,0,0,0,0,-1,1833,491,0,0
616,533,0,0,0,0,0,0,0,0,0,-1,1840,491,0,0
623,533,0,0,0,0,0,0,0,0,0,-1,1847,491,0,0
630,533,0,0,0,0,0,0,0,0,0,-1,1854,491,0,0
637,533,0,0,0,0,0,0,0,0,0,-1,1861,491,0,0
644,533,0,0,0,0,0,0,0,0,0,-1,1868,491,0,0
651,533,0,0,0,0,0,0,0,0,0,-1,1875,491,0,0
658,533,0,0,0,0,0,0,0,0,0,-1,1882,491,0,0
665,533,0,0,0,0,0,0,0,0,0,-1,1889,491,0,0
672,533,0,0,0,0,0,0,0,0,0,-1,1896,491,0,0
679,533,0,0,0,0,0,0,0,0,0,-1,1903,491,0,0
686,533,0,0,0,0,0,0,0,0,0,-1,1910,491,0,0
693,533,0,0,0,0,0,0,0,0,0,-1,1917,491,0,0
700,533,0,0,0,0,0,0,0,0,0,-1,1924,491,0,0
707,533,0,0,0,0,0,0,0,0,0,-1,1931,491,0,0
714,533,0,0,0,0,0,0,0,0,0,-1,1938,491,0,0
721,533,0,0,0,0,0,0,0,0,0,-1,1945,491,0,0
728,533,0,0,0,0,0,0,0,0,0,-1,1952,491,0,0
735,533,0,0,0,0,0,0,0,0,0,-1,1959,491,0,0
742,533,0,0,0,0,0,0,0,0,0,-1,1966,491,0,0
749,533,0,0,0,0,0,0,0,0,0,-1,1973,491,0,0
756,533,0,0,0,0,0,0,0,0,0,-1,1980,491,0,0
763,533,0,0,0,0,0,0,0,0,0,-1,1987,491,0,0
770,533,0,0,0,0,0,0,0,0,0,-1,1994,491,0,0
777,533,0,0,0,0,0,0,0,0,0,-1,2001,491,0,0
784,533,0,0,0,0,0,0,0,0,0,-1,2008,491,0,0
791,533,0,0,0,0,0,0,0,0,0,-1,2015,491,0,0
798,533,0,0,0,0,0,0,0,0,0,-1,2022,491,0,0
805,533,0,0,0,0,0,0,0,0,0,-1,2029,491,0,0
812,533,0,0,0,0,0,0,0,0,0,-1,2036,491,0,0
-700,526,0,0,0,0,0,0,0,0,0,-1,524,498,0,0
-693,526,0,0,0,0,0,0,0,0,0,-1,531,498,0,0
-686,526,0,0,0,0,0,0,0,0,0,-1,538,498,0,0
-679,526,0,0,0,0,0,0,0,0,0,-1,545,498,0,0
-672,526,0,0,0,0,0,0,0,0,0,-1,552,498,0,0
-665,526,0,0,0,0,0,0,0,0,0,-1,559,498,0,0
-658,526,0,0,0,0,0,0,0,0,0,-1,566,498,0,0
-651,526,0,0,0,0,0,0,0,0,0,-1,573,498,0,0
-644,526,0,0,0,0,0,0,0,0,0,-1,580,498,0,0
-637,526,0,0,0,0,0,0,0,0,0,-1,587,498,0,0
-630,526,0,0,0,0,0,0,0,0,0,-1,594,498,0,0
-623,526,0,0,0,0,0,0,0,0,0,-1,601,498,0,0
-616,526,0,0,0,0,0,0,0,0,0,-1,608,498,0,0
-609,526,0,0,0,0,0,0,0,0,0,-1,615,498,0,0
-602,526,0,0,0,0,0,0,0,0,0,-1,622,498,0,0
-595,526,0,0,0,0,0,0,0,0,0,-1,629,498,0,0
-588,526,0,0,0,0,0,0,0,0,0,-1,636,498,0,0
-581,526,0,0,0,0,0,0,0,0,0,-1,643,498,0,0
-574,526,0,0,0,0,0,0,0,0,0,-1,650,498,0,0
-567,526,0,0,0,0,0,0,0,0,0,-1,657,498,0,0
-560,526,0,0,0,0,0,0,0,0,0,-1,664,498,0,0
-553,526,0,0,0,0,0,0,0,0,0,-1,671,498,0,0
-546,526,0,0,0,0,0,0,0,0,0,-1,678,498,0,0
-539,526,0,0,0,0,0,0,0,0,0,-1,685,498,0,0
-532,526,0,0,0,0,0,0,0,0,0,-1,692,498,0,0
-525,526,0,0,0,0,0,0,0,0,0,-1,699,498,0,0
-518,526,0,0,0,0,0,0,0,0,0,-1,706,498,0,0
-511,526,0,0,0,0,0,0,0,0,0,-1,713,498,0,0
-504,526,0,0,0,0,0,0,0,0,0,-1,720,498,0,0
-497,526,0,0,0,0,0,0,0,0,0,-1,727,498,0,0
-490,526,0,0,0,0,0,0,0,0,0,-1,734,498,0,0
-483,526,0,0,0,0,0,0,0,0,0,-1,741,498,0,0
-476,526,0,0,0,0,0,0,0,0,0,-1,748,498,0,0
-469,526,0,0,0,0,0,0,0,0,0,-1,755,498,0,0
-462,526,0,0,0,0,0,0,0,0,0,-1,762,498,0,0
-455,526,0,0,0,0,0,0,0,0,0,-1,769,498,0,0
-448,526,0,0,0,0,0,0,0,0,0,-1,776,498,0,0
-441,526,0,0,0,0,0,0,0,0,0,-1,783,498,0,0
-434,526,-0.153564,-5.96649,0,0,0,0,0,0,0,-1,790,498,-0.153589,5.9665
-427,526,1.23206,-4.59808,0,0,0,0,0,0,0,-1,797,498,1.23208,4.59809
-420,526,-1.76373,-11.6241,0,0,0,0,0,0,0,-1,804,498,-1.76373,11.6241
-413,526,-1.38965,-11.7916,0,0,0,0,0,0,0,-1,811,498,-1.38963,11.7916
-406,526,-1.35187,-12.5182,0,0,0,0,0,0,0,-1,818,498,-1.35185,12.5181
-399,526,-1.32715,-13.2116,0,0,0,0,0,0,0,-1,825,498,-1.32713,13.2116
-392,526,0.197571,-15.303,0,0,0,0,0,0,0,-1,832,498,0.197598,15.303
-385,526,-2.69397,-19.6176,0,0,0,0,0,0,0,-1,839,498,-2.69399,19.6176
-378,526,-1.83978,-27.7197,0,0,0,0,0,0,0,-1,846,498,-1.83978,27.7197
-371,526,-1.79187,-29.0342,0.00716718,0.02815,-0.0174421,0.0380129,-0.00269571,-1.05616,0.0262866,0.0468092,853,498,-1.79184,29.0342
-364,526,-1.71515,-30.4348,0.00563677,0.0237137,-0.0144602,0.0317278,-0.0023774,-1.06472,0.0219872,0.0219736,860,498,-1.71517,30.4348
-357,526,-1.69995,-31.4879,0.00418721,0.0195984,-0.011746,0.0259407,-0.00215511,-1.0757,0.0180551,0.0132381,867,498,-1.69993,31.4879
-350,526,-1.74054,-32.4293,0.00286631,0.0157293,-0.00922907,0.0205468,-0.00195119,-1.08971,0.0143924,0.0125323,874,498,-1.74053,32.4293
-343,526,-1.83563,-33.3236,0.00193111,0.0123197,-0.00709532,0.0159188,-0.00166803,-1.10136,0.01121,0.0161819,881,498,-1.8356,33.3236
-336,526,-1.88739,-34.237,0.00126425,0.0094321,-0.00529619,0.0120361,-0.00133974,-1.11383,0.00850588,0.01726,888,498,-1.88736,34.237
-329,526,-1.92938,-35.1639,0.000815105,0.00700244,-0.00379265,0.00880316,-0.000985612,-1.12752,0.00622338,0.0183956,895,498,-1.9294,35.1639
-322,526,-1.9931,-36.043,0.000498709,0.0047539,-0.00240467,0.00583709,-0.000584476,-1.14757,0.00410013,0.0113273,902,498,-1.99311,36.043
-315,526,-2.05298,-36.9374,0.00045452,0.00297524,-0.0013198,0.00353982,-0.000110054,-1.16658,0.0023974,0.009747,909,498,-2.053,36.9375
-308,526,-2.10608,-37.86,0.000673383,0.00163239,-0.000568254,0.00189641,0.000409356,-1.13584,0.00115232,0.00940403,916,498,-2.1061,37.86
-301,526,-2.17261,-38.6961,0.00110612,0.00053528,-7.58497e-05,0.00111603,0.000525373,-0.129872,0.000644706,0.0102931,923,498,-2.17258,38.6961
-294,526,-2.19977,-39.5407,0.00160218,-0.000338806,0.000390214,0.00167769,-0.000414317,0.191148,0.00127913,0.0104676,930,498,-2.19974,39.5407
-287,526,-2.22528,-40.4066,0.00204126,-0.00141147,0.000879469,0.00225237,-0.00162258,0.235583,0.00224703,0.0109596,937,498,-2.2253,40.4066
-280,526,-2.29034,-41.2675,0.002121,-0.00352638,0.00157357,0.00252985,-0.00393523,0.254206,0.0037619,0.013502,944,498,-2.29034,41.2675
-273,526,-2.31201,-42.1153,0.00231822,-0.00605933,0.00261413,0.00306701,-0.00680812,0.278969,0.00583619,0.0115128,951,498,-2.31204,42.1153
-266,526,-2.35828,-42.9397,0.0030367,-0.0089066,0.00380949,0.00414832,-0.0100182,0.283921,0.00840984,0.0178272,958,498,-2.35826,42.9397
-259,526,-2.33411,-43.7752,0.00343789,-0.0120456,0.00522316,0.00503511,-0.0136428,0.296764,0.0111589,0.0472284,965,498,-2.33413,43.7752
-252,526,-2.33691,-44.6531,0,0,0,0,0,0,0,-1,972,498,-2.33689,44.6532
-245,526,-2.39075,-45.3961,0,0,0,0,0,0,0,-1,979,498,-2.39074,45.3961
-238,526,-2.32751,-45.8181,0,0,0,0,0,0,0,-1,986,498,-2.32751,45.8181
-231,526,-2.53351,-45.4807,0,0,0,0,0,0,0,-1,993,498,-2.53353,45.4807
-224,526,-2.85449,-46.6572,0,0,0,0,0,0,0,-1,1000,498,-2.85451,46.6572
-217,526,-2.49152,-47.9728,0,0,0,0,0,0,0,-1,1007,498,-2.49152,47.9728
-210,526,-1.77289,-44.7313,0,0,0,0,0,0,0,-1,1014,498,-1.77289,44.7313
-203,526,-0.659302,-18.8818,0,0,0,0,0,0,0,-1,1021,498,-0.659273,18.8818
-196,526,-0.328247,-12.179,0,0,0,0,0,0,0,-1,1028,498,-0.328238,12.179
-189,526,0.401245,-5.96826,0,0,0,0,0,0,0,-1,1035,498,0.401197,5.96826
-182,526,1.7323,-2.99405,0,0,0,0,0,0,0,-1,1042,498,1.73226,2.99404
-175,526,2.27637,-2.07983,0,0,0,0,0,0,0,-1,1049,498,2.27639,2.07984
-168,526,2.12036,-1.66049,0,0,0,0,0,0,0,-1,1056,498,2.12035,1.66048
-161,526,2.09082,-1.20572,0,0,0,0,0,0,0,-1,1063,498,2.09086,1.2057
-154,526,-1.3446,-5.37799,0,0,0,0,0,0,0,-1,1070,498,-1.34457,5.37799
-147,526,-0.472656,-6.64996,0,0,0,0,0,0,0,-1,1077,498,-0.472659,6.64997
-140,526,0.422852,-8.03339,0,0,0,0,0,0,0,-1,1084,498,0.422844,8.0334
-133,526,1.09583,-9.2215,0,0,0,0,0,0,0,-1,1091,498,1.09581,9.2215
-126,526,3.42529,-2.36053,0,0,0,0,0,0,0,-1,1098,498,3.42523,2.36052
-119,526,2.7771,-0.764099,0,0,0,0,0,0,0,-1,1105,498,2.7771,0.764107
-112,526,2.57715,-1.1893,0,0,0,0,0,0,0,-1,1112,498,2.57718,1.1893
-105,526,0,0,0,0,0,0,0,0,0,-1,1119,498,0,0
-98,526,0,0,0,0,0,0,0,0,0,-1,1126,498,0,0
-91,526,0,0,0,0,0,0,0,0,0,-1,1133,498,0,0
-84,526,0,0,0,0,0,0,0,0,0,-1,1140,498,0,0
-77,526,0,0,0,0,0,0,0,0,0,-1,1147,498,0,0
-70,526,0,0,0,0,0,0,0,0,0,-1,1154,498,0,0
-63,526,0,0,0,0,0,0,0,0,0,-1,1161,498,0,0
-56,526,0,0,0,0,0,0,0,0,0,-1,1168,498,0,0
-49,526,0,0,0,0,0,0,0,0,0,-1,1175,498,0,0
-42,526,0,0,0,0,0,0,0,0,0,-1,1182,498,0,0
-35,526,0,0,0,0,0,0,0,0,0,-1,1189,498,0,0
-28,526,0,0,0,0,0,0,0,0,0,-1,1196,498,0,0
-21,526,0,0,0,0,0,0,0,0,0,-1,1203,498,0,0
-14,526,0,0,0,0,0,0,0,0,0,-1,1210,498,0,0
-7,526,0,0,0,0,0,0,0,0,0,-1,1217,498,0,0
0,526,0,0,0,0,0,0,0,0,0,-1,1224,498,0,0
7,526,0,0,0,0,0,0,0,0,0,-1,1231,498,0,0
14,526,0,0,0,0,0,0,0,0,0,-1,1238,498,0,0
21,526,0,0,0,0,0,0,0,0,0,-1,1245,498,0,0
28,526,0,0,0,0,0,0,0,0,0,-1,1252,498,0,0
35,526,0,0,0,0,0,0,0,0,0,-1,1259,498,0,0
42,526,0,0,0,0,0,0,0,0,0,-1,1266,498,0,0
49,526,0,0,0,0,0,0,0,0,0,-1,1273,498,0,0
56,526,0,0,0,0,0,0,0,0,0,-1,1280,498,0,0
63,526,0,0,0,0,0,0,0,0,0,-1,1287,498,0,0
70,526,0,0,0,0,0,0,0,0,0,-1,1294,498,0,0
77,526,0,0,0,0,0,0,0,0,0,-1,1301,498,0,0
84,526,0,0,0,0,0,0,0,0,0,-1,1308,498,0,0
91,526,0,0,0,0,0,0,0,0,0,-1,1315,498,0,0
98,526,0,0,0,0,0,0,0,0,0,-1,1322,498,0,0
105,526,0,0,0,0,0,0,0,0,0,-1,1329,498,0,0
112,526,0,0,0,0,0,0,0,0,0,-1,1336,498,0,0
119,526,0,0,0,0,0,0,0,0,0,-1,1343,498,0,0
126,526,0,0,0,0,0,0,0,0,0,-1,1350,498,0,0
133,526,0,0,0,0,0,0,0,0,0,-1,1357,498,0,0
140,526,0,0,0,0,0,0,0,0,0,-1,1364,498,0,0
147,526,0,0,0,0,0,0,0,0,0,-1,1371,498,0,0
154,526,0,0,0,0,0,0,0,0,0,-1,1378,498,0,0
161,526,0,0,0,0,0,0,0,0,0,-1,1385,498,0,0
168,526,0,0,0,0,0,0,0,0,0,-1,1392,498,0,0
175,526,0,0,0,0,0,0,0,0,0,-1,1399,498,0,0
182,526,0,0,0,0,0,0,0,0,0,-1,1406,498,0,0
189,526,0,0,0,0,0,0,0,0,0,-1,1413,498,0,0
196,526,0,0,0,0,0,0,0,0,0,-1,1420,498,0,0
203,526,0,0,0,0,0,0,0,0,0,-1,1427,498,0,0
210,526,0,0,0,0,0,0,0,0,0,-1,1434,498,0,0
217,526,0,0,0,0,0,0,0,0,0,-1,1441,498,0,0
224,526,0,0,0,0,0,0,0,0,0,-1,1448,498,0,0
231,526,7.93237,-1.30618,0,0,0,0,0,0,0,-1,1455,498,7.93238,1.30618
238,526,7.97717,-1.08197,0,0,0,0,0,0,0,-1,1462,498,7.97723,1.08196
245,526,7.2793,-0.792938,0,0,0,0,0,0,0,-1,1469,498,7.27931,0.792926
252,526,6.73523,-2.23608,0,0,0,0,0,0,0,-1,1476,498,6.73525,2.23608
259,526,6.22949,-1.84967,0,0,0,0,0,0,0,-1,1483,498,6.22953,1.84968
266,526,5.72375,-1.46329,0,0,0,0,0,0,0,-1,1490,498,5.72381,1.46328
273,526,4.33984,0.49173,0,0,0,0,0,0,0,-1,1497,498,4.33979,-0.491727
280,526,1.4585,-1.59897,0,0,0,0,0,0,0,-1,1504,498,1.45846,1.59895
287,526,1.46411,-2.40134,0,0,0,0,0,0,0,-1,1511,498,1.46406,2.40133
294,526,5.57471,-4.59085,0,0,0,0,0,0,0,-1,1518,498,5.57466,4.59084
301,526,4.42786,-3.99677,0,0,0,0,0,0,0,-1,1525,498,4.42788,3.99676
308,526,5.79529,-4.19366,0,0,0,0,0,0,0,-1,1532,498,5.79528,4.19368
315,526,5.09851,-5.20068,0,0,0,0,0,0,0,-1,1539,498,5.09851,5.20068
322,526,5.50708,-4.72348,0,0,0,0,0,0,0,-1,1546,498,5.50713,4.72347
329,526,3.88672,-4.345,0,0,0,0,0,0,0,-1,1553,498,3.88674,4.34501
336,526,4.97876,-2.23828,0,0,0,0,0,0,0,-1,1560,498,4.97877,2.23828
343,526,3.31665,-2.69696,0,0,0,0,0,0,0,-1,1567,498,3.31667,2.69696
350,526,6.06287,-6.12015,0,0,0,0,0,0,0,-1,1574,498,6.06286,6.12014
357,526,18.0696,-47.5815,0,0,0,0,0,0,0,-1,1581,498,18.0695,47.5816
364,526,18.3656,-45.9172,0,0,0,0,0,0,0,-1,1588,498,18.3656,45.9172
371,526,12.4481,-29.0131,0,0,0,0,0,0,0,-1,1595,498,12.4481,29.0131
378,526,17.6067,-44.3647,0,0,0,0,0,0,0,-1,1602,498,17.6067,44.3647
385,526,18.2383,-43.6577,0,0,0,0,0,0,0,-1,1609,498,18.2382,43.6576
392,526,18.2628,-42.6552,0,0,0,0,0,0,0,-1,1616,498,18.2629,42.6551
399,526,18.1505,-41.7903,0.0036798,0.00122503,0.000741907,0.0038866,0.00101823,0.271847,0.00232714,0.0311417,1623,498,18.1505,41.7903
406,526,18.167,-40.8892,0.00329847,0.00211576,0.000944691,0.00382163,0.0015926,0.505746,0.0022166,0.0143165,1630,498,18.167,40.8891
413,526,18.1227,-40.0323,0.00287769,0.0014758,0.000675091,0.00314992,0.00120357,0.383307,0.00183538,0.0133887,1637,498,18.1227,40.0324
420,526,18.0576,-39.1591,0.00248782,0.00177835,0.00071135,0.00292798,0.00133819,0.554103,0.00169255,0.0147906,1644,498,18.0577,39.159
427,526,18.0085,-38.2847,0.00208541,0.00186902,0.000879803,0.00286365,0.00109078,0.724217,0.00166889,0.0160903,1651,498,18.0085,38.2847
434,526,17.9495,-37.4105,0.00157418,0.00175179,0.0010063,0.00267319,0.000652774,0.829409,0.00160929,0.0139423,1658,498,17.9495,37.4105
441,526,17.9225,-36.5236,0.00105337,0.00166974,0.0011495,0.00255165,0.000171456,0.916369,0.00164693,0.0122207,1665,498,17.9225,36.5236
448,526,17.8999,-35.6516,0.000461796,0.00144052,0.00123377,0.00227844,-0.000376118,0.974202,0.00165861,0.011516,1672,498,17.8999,35.6516
455,526,17.8389,-34.7553,-0.000168587,0.00124432,0.00130778,0.00202426,-0.000948524,1.03304,0.0017534,0.0148925,1679,498,17.8388,34.7553
462,526,17.788,-33.8531,-0.00063756,0.00110056,0.00137014,0.00185401,-0.00139101,1.06802,0.00187986,0.011698,1686,498,17.788,33.8531
469,526,17.752,-32.9669,-0.00078086,0.00111055,0.00148841,0.00192829,-0.0015986,1.06841,0.00203921,0.00901832,1693,498,17.752,32.9669
476,526,17.6973,-32.0437,-0.00098848,0.00113918,0.00161012,0.00200517,-0.00185448,1.07733,0.00222894,0.0110173,1700,498,17.6973,32.0437
483,526,17.6375,-31.0634,-0.0010084,0.00125964,0.00178251,0.00223828,-0.00198704,1.0687,0.00244093,0.0149703,1707,498,17.6374,31.0634
490,526,17.6484,-30.0122,-0.000909879,0.00122505,0.0019476,0.00237854,-0.00206337,1.03609,0.00256669,0.0387434,1714,498,17.6485,30.0122
497,526,17.783,-29.1662,0,0,0,0,0,0,0,-1,1721,498,17.783,29.1662
504,526,17.2335,-27.078,0,0,0,0,0,0,0,-1,1728,498,17.2335,27.078
511,526,16.8915,-24.8813,0,0,0,0,0,0,0,-1,1735,498,16.8914,24.8813
518,526,14.7889,-20.4046,0,0,0,0,0,0,0,-1,1742,498,14.7889,20.4046
525,526,14.7009,-19.7487,0,0,0,0,0,0,0,-1,1749,498,14.7009,19.7486
532,526,15.7457,-17.9624,0,0,0,0,0,0,0,-1,1756,498,15.7458,17.9624
539,526,16.1064,-16.42,0,0,0,0,0,0,0,-1,1763,498,16.1065,16.42
546,526,12.4675,-17.1617,0,0,0,0,0,0,0,-1,1770,498,12.4675,17.1617
553,526,3.40796,1.37137,0,0,0,0,0,0,0,-1,1777,498,3.40792,-1.37138
560,526,0,0,0,0,0,0,0,0,0,-1,1784,498,0,0
567,526,0,0,0,0,0,0,0,0,0,-1,1791,498,0,0
574,526,0,0,0,0,0,0,0,0,0,-1,1798,498,0,0
581,526,0,0,0,0,0,0,0,0,0,-1,1805,498,0,0
588,526,0,0,0,0,0,0,0,0,0,-1,1812,498,0,0
595,526,0,0,0,0,0,0,0,0,0,-1,1819,498,0,0
602,526,0,0,0,0,0,0,0,0,0,-1,1826,498,0,0
609,526,0,0,0,0,0,0,0,0,0,-1,1833,498,0,0
616,526,0,0,0,0,0,0,0,0,0,-1,1840,498,0,0
623,526,0,0,0,0,0,0,0,0,0,-1,1847,498,0,0
630,526,0,0,0,0,0,0,0,0,0,-1,1854,498,0,0
637,526,0,0,0,0,0,0,0,0,0,-1,1861,498,0,0
644,526,0,0,0,0,0,0,0,0,0,-1,1868,498,0,0
651,526,0,0,0,0,0,0,0,0,0,-1,1875,498,0,0
658,526,0,0,0,0,0,0,0,0,0,-1,1882,498,0,0
665,526,0,0,0,0,0,0,0,0,0,-1,1889,498,0,0
672,526,0,0,0,0,0,0,0,0,0,-1,1896,498,0,0
679,526,0,0,0,0,0,0,0,0,0,-1,1903,498,0,0
686,526,0,0,0,0,0,0,0,0,0,-1,1910,498,0,0
693,526,0,0,0,0,0,0,0,0,0,-1,1917,498,0,0
700,526,0,0,0,0,0,0,0,0,0,-1,1924,498,0,0
707,526,0,0,0,0,0,0,0,0,0,-1,1931,498,0,0
714,526,0,0,0,0,0,0,0,0,0,-1,1938,498,0,0
721,526,0,0,0,0,0,0,0,0,0,-1,1945,498,0,0
728,526,0,0,0,0,0,0,0,0,0,-1,1952,498,0,0
735,526,0,0,0,0,0,0,0,0,0,-1,1959,498,0,0
742,526,0,0,0,0,0,0,0,0,0,-1,1966,498,0,0
749,526,0,0,0,0,0,0,0,0,0,-1,1973,498,0,0
756,526,0,0,0,0,0,0,0,0,0,-1,1980,498,0,0
763,526,0,0,0,0,0,0,0,0,0,-1,1987,498,0,0
770,526,0,0,0,0,0,0,0,0,0,-1,1994,498,0,0
777,526,0,0,0,0,0,0,0,0,0,-1,2001,498,0,0
784,526,0,0,0,0,0,0,0,0,0,-1,2008,498,0,0
791,526,0,0,0,0,0,0,0,0,0,-1,2015,498,0,0
798,526,0,0,0,0,0,0,0,0,0,-1,2022,498,0,0
805,526,0,0,0,0,0,0,0,0,0,-1,2029,498,0,0
812,526,0,0,0,0,0,0,0,0,0,-1,2036,498,0,0
-700,519,0,0,0,0,0,0,0,0,0,-1,524,505,0,0
-693,519,0,0,0,0,0,0,0,0,0,-1,531,505,0,0
-686,519,0,0,0,0,0,0,0,0,0,-1,538,505,0,0
-679,519,0,0,0,0,0,0,0,0,0,-1,545,505,0,0
-672,519,0,0,0,0,0,0,0,0,0,-1,552,505,0,0
-665,519,0,0,0,0,0,0,0,0,0,-1,559,505,0,0
-658,519,0,0,0,0,0,0,0,0,0,-1,566,505,0,0
-651,519,0,0,0,0,0,0,0,0,0,-1,573,505,0,0
-644,519,0,0,0,0,0,0,0,0,0,-1,580,505,0,0
-637,519,0,0,0,0,0,0,0,0,0,-1,587,505,0,0
-630,519,0,0,0,0,0,0,0,0,0,-1,594,505,0,0
-623,519,0,0,0,0,0,0,0,0,0,-1,601,505,0,0
-616,519,0,0,0,0,0,0,0,0,0,-1,608,505,0,0
-609,519,0,0,0,0,0,0,0,0,0,-1,615,505,0,0
-602,519,0,0,0,0,0,0,0,0,0,-1,622,505,0,0
-595,519,0,0,0,0,0,0,0,0,0,-1,629,505,0,0
-588,519,0,0,0,0,0,0,0,0,0,-1,636,505,0,0
-581,519,0,0,0,0,0,0,0,0,0,-1,643,505,0,0
-574,519,0,0,0,0,0,0,0,0,0,-1,650,505,0,0
-567,519,0,0,0,0,0,0,0,0,0,-1,657,505,0,0
-560,519,0,0,0,0,0,0,0,0,0,-1,664,505,0,0
-553,519,0,0,0,0,0,0,0,0,0,-1,671,505,0,0
-546,519,0,0,0,0,0,0,0,0,0,-1,678,505,0,0
-539,519,0,0,0,0,0,0,0,0,0,-1,685,505,0,0
-532,519,0,0,0,0,0,0,0,0,0,-1,692,505,0,0
-525,519,0,0,0,0,0,0,0,0,0,-1,699,505,0,0
-518,519,0,0,0,0,0,0,0,0,0,-1,706,505,0,0
-511,519,0,0,0,0,0,0,0,0,0,-1,713,505,0,0
-504,519,0,0,0,0,0,0,0,0,0,-1,720,505,0,0
-497,519,0,0,0,0,0,0,0,0,0,-1,727,505,0,0
-490,519,0,0,0,0,0,0,0,0,0,-1,734,505,0,0
-483,519,0,0,0,0,0,0,0,0,0,-1,741,505,0,0
-476,519,0,0,0,0,0,0,0,0,0,-1,748,505,0,0
-469,519,0,0,0,0,0,0,0,0,0,-1,755,505,0,0
-462,519,0,0,0,0,0,0,0,0,0,-1,762,505,0,0
-455,519,0,0,0,0,0,0,0,0,0,-1,769,505,0,0
-448,519,0,0,0,0,0,0,0,0,0,-1,776,505,0,0
-441,519,1.34839,-5.29346,0,0,0,0,0,0,0,-1,783,505,1.3484,5.29347
-434,519,0.949585,-5.77313,0,0,0,0,0,0,0,-1,790,505,0.949598,5.77315
-427,519,-0.0523682,-9.31567,0,0,0,0,0,0,0,-1,797,505,-0.0523854,9.31568
-420,519,-2.38867,-12.1938,0,0,0,0,0,0,0,-1,804,505,-2.38867,12.1938
-413,519,-2.2298,-12.4998,0,0,0,0,0,0,0,-1,811,505,-2.22979,12.4998
-406,519,-1.44373,-12.3475,0,0,0,0,0,0,0,-1,818,505,-1.44376,12.3475
-399,519,-1.60516,-15.0849,0,0,0,0,0,0,0,-1,825,505,-1.60518,15.0849
-392,519,-1.94183,-24.8959,0,0,0,0,0,0,0,-1,832,505,-1.94183,24.8958
-385,519,-2.95648,-26.9091,0,0,0,0,0,0,0,-1,839,505,-2.95646,26.9091
-378,519,-2.71472,-28.1207,0.00657653,0.0257916,-0.0160229,0.0348667,-0.00249851,-1.05547,0.0241205,0.0406406,846,505,-2.71474,28.1207
-371,519,-2.53119,-29.3846,0.00566714,0.0218763,-0.0138075,0.0297821,-0.00223861,-1.05079,0.0206414,0.0209655,853,505,-2.53118,29.3846
-364,519,-2.5575,-30.4622,0.0046357,0.0182454,-0.0114657,0.0247735,-0.0018924,-1.05321,0.0171813,0.0122985,860,505,-2.5575,30.4622
-357,519,-2.57965,-31.4641,0.00361635,0.0148972,-0.0092584,0.020098,-0.00158446,-1.05898,0.0139568,0.0106025,867,505,-2.57965,31.4641
-350,519,-2.64258,-32.394,0.00269127,0.0117687,-0.00721582,0.0157545,-0.00129457,-1.06613,0.0109601,0.0129722,874,505,-2.64258,32.394
-343,519,-2.74792,-33.265,0.00203108,0.00888406,-0.00542327,0.0118726,-0.000957464,-1.06714,0.00825276,0.0160696,881,505,-2.74792,33.265
-336,519,-2.81299,-34.1674,0.00154215,0.00641453,-0.00387474,0.00855531,-0.000598627,-1.06604,0.00591319,0.0162158,888,505,-2.81302,34.1674
-329,519,-2.81958,-35.1033,0.00121046,0.00433306,-0.00256589,0.00577533,-0.000231806,-1.05872,0.00392977,0.0154159,895,505,-2.81957,35.1033
-322,519,-2.86798,-35.9912,0.00101514,0.00242824,-0.00137198,0.00326492,0.000178471,-1.02318,0.00211963,0.0120394,902,505,-2.86795,35.9912
-315,519,-2.91785,-36.8874,0.00108474,0.000975114,-0.000471357,0.00150446,0.000555394,-0.727514,0.000878458,0.00985582,909,505,-2.91783,36.8874
-308,519,-2.97095,-37.798,0.00144003,-7.16839e-05,0.000111398,0.00144819,-7.98487e-05,0.0731634,0.000993148,0.00916589,916,505,-2.97094,37.798
-301,519,-3.06793,-38.6506,0.0019109,-0.000805517,0.000513435,0.0020047,-0.000899323,0.18071,0.00171665,0.0134005,923,505,-3.06794,38.6506
-294,519,-3.08478,-39.4603,0.00239081,-0.00138302,0.000899807,0.00259437,-0.00158659,0.222485,0.00243714,0.0161946,930,505,-3.0848,39.4603
-287,519,-3.12677,-40.3275,0.00281261,-0.00228844,0.00131508,0.00313169,-0.00260752,0.238029,0.00331813,0.0117612,937,505,-3.12677,40.3275
-280,519,-3.21387,-41.2123,0.00279207,-0.00459289,0.00202007,0.00330852,-0.00510934,0.250298,0.00489698,0.0259883,944,505,-3.21388,41.2123
-273,519,-3.20453,-42.0936,0,0,0,0,0,0,0,-1,951,505,-3.20452,42.0937
-266,519,-3.21765,-43.0142,0,0,0,0,0,0,0,-1,958,505,-3.21766,43.0142
-259,519,-3.07446,-43.9862,0,0,0,0,0,0,0,-1,965,505,-3.07449,43.9862
-252,519,-1.84009,-26.8372,0,0,0,0,0,0,0,-1,972,505,-1.8401,26.8372
-245,519,-1.23254,-23.2696,0,0,0,0,0,0,0,-1,979,505,-1.23256,23.2696
-238,519,-1.46698,-43.2344,0,0,0,0,0,0,0,-1,986,505,-1.46695,43.2344
-231,519,-3.36981,-44.5031,0,0,0,0,0,0,0,-1,993,505,-3.36982,44.503
-224,519,-3.33752,-42.7635,0,0,0,0,0,0,0,-1,1000,505,-3.33753,42.7635
-217,519,-2.87396,-38.149,0,0,0,0,0,0,0,-1,1007,505,-2.87394,38.149
-210,519,-0.883362,-34.799,0,0,0,0,0,0,0,-1,1014,505,-0.883379,34.799
-203,519,-0.513611,-5.39017,0,0,0,0,0,0,0,-1,1021,505,-0.513585,5.39017
-196,519,-0.374023,-5.41635,0,0,0,0,0,0,0,-1,1028,505,-0.374047,5.41635
-189,519,-0.234497,-5.44254,0,0,0,0,0,0,0,-1,1035,505,-0.234508,5.44253
-182,519,2.76697,-1.19659,0,0,0,0,0,0,0,-1,1042,505,2.76696,1.19661
-175,519,2.31323,-0.960938,0,0,0,0,0,0,0,-1,1049,505,2.31319,0.960941
-168,519,2.01074,-0.721405,0,0,0,0,0,0,0,-1,1056,505,2.01072,0.721407
-161,519,2.32056,-0.522339,0,0,0,0,0,0,0,-1,1063,505,2.32057,0.522328
-154,519,2.55566,0.116669,0,0,0,0,0,0,0,-1,1070,505,2.55563,-0.116661
-147,519,-0.55127,-6.14001,0,0,0,0,0,0,0,-1,1077,505,-0.551252,6.14001
-140,519,0.240601,-7.53503,0,0,0,0,0,0,0,-1,1084,505,0.240653,7.53501
-133,519,2.70911,-4.4516,0,0,0,0,0,0,0,-1,1091,505,2.70915,4.45161
-126,519,0,0,0,0,0,0,0,0,0,-1,1098,505,0,0
-119,519,0,0,0,0,0,0,0,0,0,-1,1105,505,0,0
-112,519,0,0,0,0,0,0,0,0,0,-1,1112,505,0,0
-105,519,0,0,0,0,0,0,0,0,0,-1,1119,505,0,0
-98,519,0,0,0,0,0,0,0,0,0,-1,1126,505,0,0
-91,519,0,0,0,0,0,0,0,0,0,-1,1133,505,0,0
-84,519,0,0,0,0,0,0,0,0,0,-1,1140,505,0,0
-77,519,0,0,0,0,0,0,0,0,0,-1,1147,505,0,0
-70,519,0,0,0,0,0,0,0,0,0,-1,1154,505,0,0
-63,519,0,0,0,0,0,0,0,0,0,-1,1161,505,0,0
-56,519,0,0,0,0,0,0,0,0,0,-1,1168,505,0,0
-49,519,0,0,0,0,0,0,0,0,0,-1,1175,505,0,0
-42,519,0,0,0,0,0,0,0,0,0,-1,1182,505,0,0
-35,519,0,0,0,0,0,0,0,0,0,-1,1189,505,0,0
-28,519,0,0,0,0,0,0,0,0,0,-1,1196,505,0,0
-21,519,0,0,0,0,0,0,0,0,0,-1,1203,505,0,0
-14,519,0,0,0,0,0,0,0,0,0,-1,1210,505,0,0
-7,519,0,0,0,0,0,0,0,0,0,-1,1217,505,0,0
0,519,0,0,0,0,0,0,0,0,0,-1,1224,505,0,0
7,519,0,0,0,0,0,0,0,0,0,-1,1231,505,0,0
14,519,0,0,0,0,0,0,0,0,0,-1,1238,505,0,0
21,519,0,0,0,0,0,0,0,0,0,-1,1245,505,0,0
28,519,0,0,0,0,0,0,0,0,0,-1,1252,505,0,0
35,519,0,0,0,0,0,0,0,0,0,-1,1259,505,0,0
42,519,0,0,0,0,0,0,0,0,0,-1,1266,505,0,0
49,519,0,0,0,0,0,0,0,0,0,-1,1273,505,0,0
56,519,0,0,0,0,0,0,0,0,0,-1,1280,505,0,0
63,519,0,0,0,0,0,0,0,0,0,-1,1287,505,0,0
70,519,0,0,0,0,0,0,0,0,0,-1,1294,505,0,0
77,519,0,0,0,0,0,0,0,0,0,-1,1301,505,0,0
84,519,0,0,0,0,0,0,0,0,0,-1,1308,505,0,0
91,519,0,0,0,0,0,0,0,0,0,-1,1315,505,0,0
98,519,0,0,0,0,0,0,0,0,0,-1,1322,505,0,0
105,519,0,0,0,0,0,0,0,0,0,-1,1329,505,0,0
112,519,0,0,0,0,0,0,0,0,0,-1,1336,505,0,0
119,519,0,0,0,0,0,0,0,0,0,-1,1343,505,0,0
126,519,0,0,0,0,0,0,0,0,0,-1,1350,505,0,0
133,519,0,0,0,0,0,0,0,0,0,-1,1357,505,0,0
140,519,0,0,0,0,0,0,0,0,0,-1,1364,505,0,0
147,519,0,0,0,0,0,0,0,0,0,-1,1371,505,0,0
154,519,0,0,0,0,0,0,0,0,0,-1,1378,505,0,0
161,519,0,0,0,0,0,0,0,0,0,-1,1385,505,0,0
168,519,0,0,0,0,0,0,0,0,0,-1,1392,505,0,0
175,519,0,0,0,0,0,0,0,0,0,-1,1399,505,0,0
182,519,0,0,0,0,0,0,0,0,0,-1,1406,505,0,0
189,519,0,0,0,0,0,0,0,0,0,-1,1413,505,0,0
196,519,0,0,0,0,0,0,0,0,0,-1,1420,505,0,0
203,519,0,0,0,0,0,0,0,0,0,-1,1427,505,0,0
210,519,0,0,0,0,0,0,0,0,0,-1,1434,505,0,0
217,519,0,0,0,0,0,0,0,0,0,-1,1441,505,0,0
224,519,0,0,0,0,0,0,0,0,0,-1,1448,505,0,0
231,519,0,0,0,0,0,0,0,0,0,-1,1455,505,0,0
238,519,0,0,0,0,0,0,0,0,0,-1,1462,505,0,0
245,519,0,0,0,0,0,0,0,0,0,-1,1469,505,0,0
252,519,5.26208,0.0938416,0,0,0,0,0,0,0,-1,1476,505,5.26207,-0.0938493
259,519,6.14246,-1.36441,0,0,0,0,0,0,0,-1,1483,505,6.14241,1.36441
266,519,5.31909,-0.400787,0,0,0,0,0,0,0,-1,1490,505,5.31912,0.400773
273,519,4.02393,0.325531,0,0,0,0,0,0,0,-1,1497,505,4.0239,-0.325522
280,519,4.68848,0.53006,0,0,0,0,0,0,0,-1,1504,505,4.68842,-0.530073
287,519,7.9519,-3.80801,0,0,0,0,0,0,0,-1,1511,505,7.95193,3.808
294,519,6.92273,-3.38889,0,0,0,0,0,0,0,-1,1518,505,6.92268,3.38888
301,519,5.35669,-2.92661,0,0,0,0,0,0,0,-1,1525,505,5.35675,2.9266
308,519,7.37549,-5.64529,0,0,0,0,0,0,0,-1,1532,505,7.3755,5.64529
315,519,6.30029,-4.53754,0,0,0,0,0,0,0,-1,1539,505,6.30024,4.53753
322,519,5.84302,-5.45117,0,0,0,0,0,0,0,-1,1546,505,5.84303,5.45116
329,519,4.92407,0.62384,0,0,0,0,0,0,0,-1,1553,505,4.92403,-0.623832
336,519,3.10095,-0.329285,0,0,0,0,0,0,0,-1,1560,505,3.1009,0.329283
343,519,2.49146,-2.31119,0,0,0,0,0,0,0,-1,1567,505,2.49145,2.31119
350,519,3.47729,-2.22516,0,0,0,0,0,0,0,-1,1574,505,3.47726,2.22515
357,519,13.271,-29.6344,0,0,0,0,0,0,0,-1,1581,505,13.271,29.6344
364,519,12.8292,-28.3627,0,0,0,0,0,0,0,-1,1588,505,12.8292,28.3627
371,519,12.3875,-27.0911,0,0,0,0,0,0,0,-1,1595,505,12.3874,27.091
378,519,6.36597,-10.0967,0,0,0,0,0,0,0,-1,1602,505,6.36597,10.0967
385,519,6.24756,-9.72186,0,0,0,0,0,0,0,-1,1609,505,6.24752,9.72183
392,519,16.8391,-37.6736,0,0,0,0,0,0,0,-1,1616,505,16.8391,37.6737
399,519,18.8783,-41.8369,0,0,0,0,0,0,0,-1,1623,505,18.8782,41.8369
406,519,19.0061,-40.9259,0.00384119,0.00280309,0.000884137,0.00434738,0.0022969,0.519969,0.0025113,0.0435716,1630,505,19.0061,40.9259
413,519,19.0385,-40.0219,0.0034563,0.00174067,0.000442964,0.00356392,0.00163305,0.238335,0.00206003,0.0169702,1637,505,19.0384,40.0219
420,519,18.9514,-39.1006,0.00313497,0.00190677,0.000438825,0.00327565,0.00176609,0.310221,0.00189313,0.0159814,1644,505,18.9515,39.1006
427,519,18.9095,-38.2692,0.00281376,0.00191751,0.000626252,0.00313571,0.00159557,0.474848,0.0018105,0.015787,1651,505,18.9095,38.2692
434,519,18.8495,-37.3926,0.00230538,0.00172145,0.000730965,0.00280053,0.0012263,0.595395,0.00162104,0.0147505,1658,505,18.8495,37.3927
441,519,18.7917,-36.4713,0.00182873,0.00159032,0.000859396,0.00257715,0.000841902,0.716486,0.00151742,0.0134135,1665,505,18.7918,36.4713
448,519,18.7701,-35.6011,0.00130728,0.00138587,0.0009589,0.00230628,0.00038687,0.805876,0.00142616,0.0104368,1672,505,18.7702,35.6012
455,519,18.7034,-34.7244,0.000753749,0.00125166,0.00105225,0.002084,-7.85976e-05,0.901558,0.00141626,0.0123114,1679,505,18.7034,34.7244
462,519,18.6718,-33.8234,0.000347531,0.00119923,0.00114533,0.00199532,-0.000448558,0.963385,0.00150222,0.0115172,1686,505,18.6718,33.8234
469,519,18.6639,-32.9254,0.00024634,0.00130986,0.00131074,0.00219259,-0.000636397,0.978101,0.00171371,0.0117603,1693,505,18.6639,32.9254
476,519,18.6241,-31.9886,9.45536e-05,0.00145348,0.00149021,0.00241182,-0.000863789,0.999294,0.00196031,0.0149415,1700,505,18.6241,31.9886
483,519,18.568,-31.0577,0.000101671,0.00165955,0.00171376,0.00276309,-0.00100186,0.998702,0.00225158,0.0167146,1707,505,18.568,31.0577
490,519,18.4711,-30.0876,0.00014757,0.00170971,0.00187926,0.00296376,-0.00110647,0.982351,0.00243013,0.0140635,1714,505,18.4711,30.0876
497,519,18.399,-29.2928,0.000437271,0.00168603,0.00188559,0.00304793,-0.000924625,0.945283,0.00240028,0.0407471,1721,505,18.3991,29.2928
504,519,18.3314,-28.129,0,0,0,0,0,0,0,-1,1728,505,18.3315,28.129
511,519,18.514,-26.9655,0,0,0,0,0,0,0,-1,1735,505,18.5141,26.9654
518,519,18.5042,-25.9891,0,0,0,0,0,0,0,-1,1742,505,18.5041,25.9891
525,519,15.9647,-20.5714,0,0,0,0,0,0,0,-1,1749,505,15.9648,20.5714
532,519,15.825,-19.0025,0,0,0,0,0,0,0,-1,1756,505,15.8249,19.0025
539,519,16.5902,-16.8075,0,0,0,0,0,0,0,-1,1763,505,16.5903,16.8075
546,519,12.4001,-16.5616,0,0,0,0,0,0,0,-1,1770,505,12.4002,16.5616
553,519,4.14136,0.0667419,0,0,0,0,0,0,0,-1,1777,505,4.14141,-0.0667503
560,519,3.77856,0.279724,0,0,0,0,0,0,0,-1,1784,505,3.77861,-0.279731
567,519,0,0,0,0,0,0,0,0,0,-1,1791,505,0,0
574,519,0,0,0,0,0,0,0,0,0,-1,1798,505,0,0
581,519,0,0,0,0,0,0,0,0,0,-1,1805,505,0,0
588,519,0,0,0,0,0,0,0,0,0,-1,1812,505,0,0
595,519,0,0,0,0,0,0,0,0,0,-1,1819,505,0,0
602,519,0,0,0,0,0,0,0,0,0,-1,1826,505,0,0
609,519,0,0,0,0,0,0,0,0,0,-1,1833,505,0,0
616,519,0,0,0,0,0,0,0,0,0,-1,1840,505,0,0
623,519,0,0,0,0,0,0,0,0,0,-1,1847,505,0,0
630,519,0,0,0,0,0,0,0,0,0,-1,1854,505,0,0
637,519,0,0,0,0,0,0,0,0,0,-1,1861,505,0,0
644,519,0,0,0,0,0,0,0,0,0,-1,1868,505,0,0
651,519,0,0,0,0,0,0,0,0,0,-1,1875,505,0,0
658,519,0,0,0,0,0,0,0,0,0,-1,1882,505,0,0
665,519,0,0,0,0,0,0,0,0,0,-1,1889,505,0,0
672,519,0,0,0,0,0,0,0,0,0,-1,1896,505,0,0
679,519,0,0,0,0,0,0,0,0,0,-1,1903,505,0,0
686,519,0,0,0,0,0,0,0,0,0,-1,1910,505,0,0
693,519,0,0,0,0,0,0,0,0,0,-1,1917,505,0,0
700,519,0,0,0,0,0,0,0,0,0,-1,1924,505,0,0
707,519,0,0,0,0,0,0,0,0,0,-1,1931,505,0,0
714,519,0,0,0,0,0,0,0,0,0,-1,1938,505,0,0
721,519,0,0,0,0,0,0,0,0,0,-1,1945,505,0,0
728,519,0,0,0,0,0,0,0,0,0,-1,1952,505,0,0
735,519,0,0,0,0,0,0,0,0,0,-1,1959,505,0,0
742,519,0,0,0,0,0,0,0,0,0,-1,1966,505,0,0
749,519,0,0,0,0,0,0,0,0,0,-1,1973,505,0,0
756,519,0,0,0,0,0,0,0,0,0,-1,1980,505,0,0
763,519,0,0,0,0,0,0,0,0,0,-1,1987,505,0,0
770,519,0,0,0,0,0,0,0,0,0,-1,1994,505,0,0
777,519,0,0,0,0,0,0,0,0,0,-1,2001,505,0,0
784,519,0,0,0,0,0,0,0,0,0,-1,2008,505,0,0
791,519,0,0,0,0,0,0,0,0,0,-1,2015,505,0,0
798,519,0,0,0,0,0,0,0,0,0,-1,2022,505,0,0
805,519,0,0,0,0,0,0,0,0,0,-1,2029,505,0,0
812,519,0,0,0,0,0,0,0,0,0,-1,2036,505,0,0
-700,512,0,0,0,0,0,0,0,0,0,-1,524,512,0,0
-693,512,0,0,0,0,0,0,0,0,0,-1,531,512,0,0
-686,512,0,0,0,0,0,0,0,0,0,-1,538,512,0,0
-679,512,0,0,0,0,0,0,0,0,0,-1,545,512,0,0
-672,512,0,0,0,0,0,0,0,0,0,-1,552,512,0,0
-665,512,0,0,0,0,0,0,0,0,0,-1,559,512,0,0
-658,512,0,0,0,0,0,0,0,0,0,-1,566,512,0,0
-651,512,0,0,0,0,0,0,0,0,0,-1,573,512,0,0
-644,512,0,0,0,0,0,0,0,0,0,-1,580,512,0,0
-637,512,0,0,0,0,0,0,0,0,0,-1,587,512,0,0
-630,512,0,0,0,0,0,0,0,0,0,-1,594,512,0,0
-623,512,0,0,0,0,0,0,0,0,0,-1,601,512,0,0
-616,512,0,0,0,0,0,0,0,0,0,-1,608,512,0,0
-609,512,0,0,0,0,0,0,0,0,0,-1,615,512,0,0
-602,512,0,0,0,0,0,0,0,0,0,-1,622,512,0,0
-595,512,0,0,0,0,0,0,0,0,0,-1,629,512,0,0
-588,512,0,0,0,0,0,0,0,0,0,-1,636,512,0,0
-581,512,0,0,0,0,0,0,0,0,0,-1,643,512,0,0
-574,512,0,0,0,0,0,0,0,0,0,-1,650,512,0,0
-567,512,0,0,0,0,0,0,0,0,0,-1,657,512,0,0
-560,512,0,0,0,0,0,0,0,0,0,-1,664,512,0,0
-553,512,0,0,0,0,0,0,0,0,0,-1,671,512,0,0
-546,512,0,0,0,0,0,0,0,0,0,-1,678,512,0,0
-539,512,0,0,0,0,0,0,0,0,0,-1,685,512,0,0
-532,512,0,0,0,0,0,0,0,0,0,-1,692,512,0,0
-525,512,0,0,0,0,0,0,0,0,0,-1,699,512,0,0
-518,512,0,0,0,0,0,0,0,0,0,-1,706,512,0,0
-511,512,0,0,0,0,0,0,0,0,0,-1,713,512,0,0
-504,512,0,0,0,0,0,0,0,0,0,-1,720,512,0,0
-497,512,0,0,0,0,0,0,0,0,0,-1,727,512,0,0
-490,512,0,0,0,0,0,0,0,0,0,-1,734,512,0,0
-483,512,0,0,0,0,0,0,0,0,0,-1,741,512,0,0
-476,512,0,0,0,0,0,0,0,0,0,-1,748,512,0,0
-469,512,0,0,0,0,0,0,0,0,0,-1,755,512,0,0
-462,512,0,0,0,0,0,0,0,0,0,-1,762,512,0,0
-455,512,0,0,0,0,0,0,0,0,0,-1,769,512,0,0
-448,512,1.96283,-4.15674,0,0,0,0,0,0,0,-1,776,512,1.96285,4.15677
-441,512,1.78198,-4.88824,0,0,0,0,0,0,0,-1,783,512,1.78201,4.88826
-434,512,0.0726929,-9.85822,0,0,0,0,0,0,0,-1,790,512,0.0727008,9.85819
-427,512,-0.384583,-9.94824,0,0,0,0,0,0,0,-1,797,512,-0.384552,9.94823
-420,512,-2.93219,-12.4855,0,0,0,0,0,0,0,-1,804,512,-2.93219,12.4855
-413,512,-2.22711,-11.4485,0,0,0,0,0,0,0,-1,811,512,-2.22712,11.4485
-406,512,-2.38037,-13.5743,0,0,0,0,0,0,0,-1,818,512,-2.38034,13.5743
-399,512,-3.13367,-23.934,0,0,0,0,0,0,0,-1,825,512,-3.13368,23.934
-392,512,-3.16559,-26.7018,0,0,0,0,0,0,0,-1,832,512,-3.16557,26.7018
-385,512,-3.24359,-27.6004,0.00513374,0.0226208,-0.0139086,0.0303058,-0.0025513,-1.06601,0.0211058,0.0243835,839,512,-3.2436,27.6004
-378,512,-3.32825,-28.5054,0.00473773,0.0195391,-0.0122655,0.0264636,-0.00218685,-1.05685,0.0184147,0.0194587,846,512,-3.32822,28.5054
-371,512,-3.38428,-29.4828,0.00425148,0.0164272,-0.0105829,0.0225484,-0.00186972,-1.04641,0.0156926,0.0146496,853,512,-3.38425,29.4828
-364,512,-3.43616,-30.5015,0.0036392,0.0134483,-0.00874495,0.0185702,-0.00148265,-1.04096,0.0129027,0.0103065,860,512,-3.43614,30.5014
-357,512,-3.48798,-31.4229,0.00300503,0.0107193,-0.00695994,0.0148195,-0.0010951,-1.03843,0.0102642,0.0106889,867,512,-3.48798,31.4228
-350,512,-3.55463,-32.3353,0.00243681,0.00820365,-0.00531775,0.0113694,-0.000728955,-1.03383,0.00783391,0.0115609,874,512,-3.5546,32.3353
-343,512,-3.64996,-33.2325,0.00202823,0.00578816,-0.00382867,0.00817352,-0.000357129,-1.01362,0.00557187,0.0136446,881,512,-3.64998,33.2326
-336,512,-3.71124,-34.1553,0.00171617,0.00370212,-0.00252171,0.00541931,-1.02771e-06,-0.97296,0.00361322,0.0149355,888,512,-3.71122,34.1553
-329,512,-3.70203,-35.0577,0.0015128,0.0019452,-0.00140334,0.0031489,0.000309098,-0.861828,0.00200419,0.017573,895,512,-3.70203,35.0578
-322,512,-3.7641,-35.9344,0.00146287,0.00039092,-0.000422361,0.00160929,0.000244503,-0.333698,0.00100136,0.0143802,902,512,-3.76413,35.9344
-315,512,-3.81873,-36.8547,0.0016731,-0.000732002,0.000269925,0.00170303,-0.000761923,0.1104,0.0014573,0.0117532,909,512,-3.81872,36.8547
-308,512,-3.89154,-37.7407,0.00219781,-0.00149241,0.000665001,0.00231399,-0.00160859,0.17296,0.00227688,0.0122052,916,512,-3.89154,37.7407
-301,512,-3.94275,-38.5879,0.00273014,-0.00187522,0.000978815,0.00292955,-0.00207462,0.200967,0.00290318,0.0171729,923,512,-3.94273,38.5879
-294,512,-3.94745,-39.4151,0.00317721,-0.00219125,0.00132047,0.00348442,-0.00249846,0.228588,0.00346982,0.0174197,930,512,-3.94745,39.4151
-287,512,-3.98004,-40.2382,0,0,0,0,0,0,0,-1,937,512,-3.98002,40.2382
-280,512,-4.11884,-41.1653,0,0,0,0,0,0,0,-1,944,512,-4.11883,41.1653
-273,512,-2.90118,-34.7153,0,0,0,0,0,0,0,-1,951,512,-2.90121,34.7153
-266,512,-2.33594,-25.9839,0,0,0,0,0,0,0,-1,958,512,-2.33592,25.9839
-259,512,-0.525452,-14.0815,0,0,0,0,0,0,0,-1,965,512,-0.525475,14.0815
-252,512,1.45941,-3.43475,0,0,0,0,0,0,0,-1,972,512,1.45938,3.43475
-245,512,-1.6731,-22.8959,0,0,0,0,0,0,0,-1,979,512,-1.67312,22.8959
-238,512,0.227051,-8.92969,0,0,0,0,0,0,0,-1,986,512,0.227073,8.92968
-231,512,-1.90576,-38.0918,0,0,0,0,0,0,0,-1,993,512,-1.90575,38.0918
-224,512,-1.29974,-33.6304,0,0,0,0,0,0,0,-1,1000,512,-1.29974,33.6304
-217,512,-0.963196,-34.1697,0,0,0,0,0,0,0,-1,1007,512,-0.963226,34.1697
-210,512,-3.76642,-1.94702,0,0,0,0,0,0,0,-1,1014,512,-3.76641,1.94702
-203,512,-2.48328,-5.19061,0,0,0,0,0,0,0,-1,1021,512,-2.48328,5.19059
-196,512,-1.14929,-4.63202,0,0,0,0,0,0,0,-1,1028,512,-1.14934,4.632
-189,512,0.197998,4.55505,0,0,0,0,0,0,0,-1,1035,512,0.197996,-4.55506
-182,512,2.73938,0.0778503,0,0,0,0,0,0,0,-1,1042,512,2.73944,-0.077852
-175,512,2.29565,0.209808,0,0,0,0,0,0,0,-1,1049,512,2.29565,-0.209813
-168,512,2.09399,-0.302856,0,0,0,0,0,0,0,-1,1056,512,2.09403,0.302826
-161,512,2.76636,0.0921021,0,0,0,0,0,0,0,-1,1063,512,2.76633,-0.0921104
-154,512,3.41382,0.466187,0,0,0,0,0,0,0,-1,1070,512,3.41382,-0.466178
-147,512,0,0,0,0,0,0,0,0,0,-1,1077,512,0,0
-140,512,0,0,0,0,0,0,0,0,0,-1,1084,512,0,0
-133,512,0,0,0,0,0,0,0,0,0,-1,1091,512,0,0
-126,512,0,0,0,0,0,0,0,0,0,-1,1098,512,0,0
-119,512,0,0,0,0,0,0,0,0,0,-1,1105,512,0,0
-112,512,0,0,0,0,0,0,0,0,0,-1,1112,512,0,0
-105,512,0,0,0,0,0,0,0,0,0,-1,1119,512,0,0
-98,512,0,0,0,0,0,0,0,0,0,-1,1126,512,0,0
-91,512,0,0,0,0,0,0,0,0,0,-1,1133,512,0,0
-84,512,0,0,0,0,0,0,0,0,0,-1,1140,512,0,0
-77,512,0,0,0,0,0,0,0,0,0,-1,1147,512,0,0
-70,512,0,0,0,0,0,0,0,0,0,-1,1154,512,0,0
-63,512,0,0,0,0,0,0,0,0,0,-1,1161,512,0,0
-56,512,0,0,0,0,0,0,0,0,0,-1,1168,512,0,0
-49,512,0,0,0,0,0,0,0,0,0,-1,1175,512,0,0
-42,512,0,0,0,0,0,0,0,0,0,-1,1182,512,0,0
-35,512,0,0,0,0,0,0,0,0,0,-1,1189,512,0,0
-28,512,0,0,0,0,0,0,0,0,0,-1,1196,512,0,0
-21,512,0,0,0,0,0,0,0,0,0,-1,1203,512,0,0
-14,512,0,0,0,0,0,0,0,0,0,-1,1210,512,0,0
-7,512,0,0,0,0,0,0,0,0,0,-1,1217,512,0,0
0,512,0,0,0,0,0,0,0,0,0,-1,1224,512,0,0
7,512,0,0,0,0,0,0,0,0,0,-1,1231,512,0,0
14,512,0,0,0,0,0,0,0,0,0,-1,1238,512,0,0
21,512,0,0,0,0,0,0,0,0,0,-1,1245,512,0,0
28,512,0,0,0,0,0,0,0,0,0,-1,1252,512,0,0
35,512,0,0,0,0,0,0,0,0,0,-1,1259,512,0,0
42,512,0,0,0,0,0,0,0,0,0,-1,1266,512,0,0
49,512,0,0,0,0,0,0,0,0,0,-1,1273,512,0,0
56,512,0,0,0,0,0,0,0,0,0,-1,1280,512,0,0
63,512,0,0,0,0,0,0,0,0,0,-1,1287,512,0,0
70,512,0,0,0,0,0,0,0,0,0,-1,1294,512,0,0
77,512,0,0,0,0,0,0,0,0,0,-1,1301,512,0,0
84,512,0,0,0,0,0,0,0,0,0,-1,1308,512,0,0
91,512,0,0,0,0,0,0,0,0,0,-1,1315,512,0,0
98,512,0,0,0,0,0,0,0,0,0,-1,1322,512,0,0
105,512,0,0,0,0,0,0,0,0,0,-1,1329,512,0,0
112,512,0,0,0,0,0,0,0,0,0,-1,1336,512,0,0
119,512,0,0,0,0,0,0,0,0,0,-1,1343,512,0,0
126,512,0,0,0,0,0,0,0,0,0,-1,1350,512,0,0
133,512,0,0,0,0,0,0,0,0,0,-1,1357,512,0,0
140,512,0,0,0,0,0,0,0,0,0,-1,1364,512,0,0
147,512,0,0,0,0,0,0,0,0,0,-1,1371,512,0,0
154,512,0,0,0,0,0,0,0,0,0,-1,1378,512,0,0
161,512,0,0,0,0,0,0,0,0,0,-1,1385,512,0,0
168,512,0,0,0,0,0,0,0,0,0,-1,1392,512,0,0
175,512,0,0,0,0,0,0,0,0,0,-1,1399,512,0,0
182,512,0,0,0,0,0,0,0,0,0,-1,1406,512,0,0
189,512,0,0,0,0,0,0,0,0,0,-1,1413,512,0,0
196,512,0,0,0,0,0,0,0,0,0,-1,1420,512,0,0
203,512,0,0,0,0,0,0,0,0,0,-1,1427,512,0,0
210,512,0,0,0,0,0,0,0,0,0,-1,1434,512,0,0
217,512,0,0,0,0,0,0,0,0,0,-1,1441,512,0,0
224,512,0,0,0,0,0,0,0,0,0,-1,1448,512,0,0
231,512,0,0,0,0,0,0,0,0,0,-1,1455,512,0,0
238,512,0,0,0,0,0,0,0,0,0,-1,1462,512,0,0
245,512,0,0,0,0,0,0,0,0,0,-1,1469,512,0,0
252,512,0,0,0,0,0,0,0,0,0,-1,1476,512,0,0
259,512,0,0,0,0,0,0,0,0,0,-1,1483,512,0,0
266,512,0,0,0,0,0,0,0,0,0,-1,1490,512,0,0
273,512,4.00745,0.618622,0,0,0,0,0,0,0,-1,1497,512,4.00747,-0.618611
280,512,4.49609,0.649841,0,0,0,0,0,0,0,-1,1504,512,4.49612,-0.649834
287,512,4.77234,0.458069,0,0,0,0,0,0,0,-1,1511,512,4.77233,-0.458083
294,512,8.54956,-2.36273,0,0,0,0,0,0,0,-1,1518,512,8.54952,2.36274
301,512,6.302,-1.69092,0,0,0,0,0,0,0,-1,1525,512,6.30196,1.69093
308,512,8.2439,-6.22754,0,0,0,0,0,0,0,-1,1532,512,8.24394,6.22757
315,512,7.53687,-6.04211,0,0,0,0,0,0,0,-1,1539,512,7.53691,6.04211
322,512,6.82983,-5.85663,0,0,0,0,0,0,0,-1,1546,512,6.82988,5.85666
329,512,4.38147,-0.329651,0,0,0,0,0,0,0,-1,1553,512,4.38144,0.329662
336,512,4.41467,-0.741455,0,0,0,0,0,0,0,-1,1560,512,4.41467,0.741442
343,512,4.44727,-1.21667,0,0,0,0,0,0,0,-1,1567,512,4.44732,1.21666
350,512,4.55469,-1.65082,0,0,0,0,0,0,0,-1,1574,512,4.5547,1.65083
357,512,5.79993,-2.67456,0,0,0,0,0,0,0,-1,1581,512,5.79991,2.67454
364,512,13.118,-28.5485,0,0,0,0,0,0,0,-1,1588,512,13.1181,28.5485
371,512,5.28467,-7.69269,0,0,0,0,0,0,0,-1,1595,512,5.28464,7.69269
378,512,6.29407,-9.88055,0,0,0,0,0,0,0,-1,1602,512,6.29412,9.88057
385,512,6.45569,-9.32233,0,0,0,0,0,0,0,-1,1609,512,6.45565,9.3223
392,512,6.35522,-8.98425,0,0,0,0,0,0,0,-1,1616,512,6.35526,8.98422
399,512,16.9089,-33.7311,0,0,0,0,0,0,0,-1,1623,512,16.9089,33.7311
406,512,19.8995,-41.0736,0,0,0,0,0,0,0,-1,1630,512,19.8995,41.0736
413,512,19.8702,-40.1893,0,0,0,0,0,0,0,-1,1637,512,19.8702,40.1892
420,512,19.8782,-39.1369,0.00417256,0.00209416,0.00026424,0.00420563,0.00206109,0.124498,0.00242828,0.0307688,1644,512,19.8782,39.1369
427,512,19.8232,-38.2359,0.00375363,0.00199837,0.000417674,0.00384795,0.00190405,0.222096,0.00222165,0.0169824,1651,512,19.8233,38.2359
434,512,19.7502,-37.3554,0.00309966,0.00170811,0.000441666,0.003228,0.00157977,0.282802,0.00186383,0.0128148,1658,512,19.7503,37.3554
441,512,19.6764,-36.4275,0.00252987,0.00152458,0.000514463,0.00274647,0.00130797,0.398509,0.00158627,0.013387,1665,512,19.6764,36.4275
448,512,19.6416,-35.5608,0.00197298,0.00133652,0.000603394,0.00233692,0.000972577,0.542734,0.00135552,0.010048,1672,512,19.6415,35.5608
455,512,19.578,-34.6633,0.00141664,0.00123251,0.000688031,0.00201874,0.000630414,0.718889,0.00119259,0.0107519,1679,512,19.578,34.6634
462,512,19.5422,-33.7603,0.000998396,0.00122282,0.000787593,0.00190615,0.000315062,0.856159,0.00117986,0.0110223,1686,512,19.5422,33.7603
469,512,19.511,-32.8564,0.000862154,0.00137624,0.000978161,0.00213057,0.000107825,0.913883,0.00138583,0.0114037,1693,512,19.511,32.8564
476,512,19.4636,-31.9286,0.000721176,0.00156524,0.00119313,0.00240877,-0.000122361,0.95539,0.00164815,0.0149928,1700,512,19.4637,31.9286
483,512,19.4094,-30.9713,0.000724099,0.00177712,0.00144118,0.00278495,-0.000283732,0.960532,0.00195807,0.0150566,1707,512,19.4095,30.9713
490,512,19.366,-30.0574,0.00070469,0.00184594,0.00158679,0.00296159,-0.000410957,0.958003,0.00212467,0.0116619,1714,512,19.366,30.0574
497,512,19.2876,-29.1275,0.000913921,0.00189604,0.00165196,0.00312838,-0.000318419,0.929869,0.00219942,0.0127833,1721,512,19.2876,29.1275
504,512,19.1964,-28.1655,0.00124905,0.00194215,0.00162312,0.0032553,-6.41022e-05,0.890573,0.00219188,0.0189314,1728,512,19.1964,28.1655
511,512,19.1385,-27.1566,0.00159771,0.00188818,0.00151181,0.00326171,0.000224177,0.833284,0.00210374,0.0291529,1735,512,19.1386,27.1566
518,512,19.2939,-26.225,0.00196108,0.00172135,0.00117624,0.00302354,0.000658887,0.734621,0.00183591,0.0400247,1742,512,19.294,26.225
525,512,19.6019,-25.2786,0,0,0,0,0,0,0,-1,1749,512,19.6019,25.2786
532,512,16.6807,-19.0635,0,0,0,0,0,0,0,-1,1756,512,16.6807,19.0635
539,512,12.6367,-16.4022,0,0,0,0,0,0,0,-1,1763,512,12.6367,16.4021
546,512,2.77551,-0.66449,0,0,0,0,0,0,0,-1,1770,512,2.77548,0.664503
553,512,3.927,-0.448853,0,0,0,0,0,0,0,-1,1777,512,3.92704,0.448843
560,512,3.55762,-0.201233,0,0,0,0,0,0,0,-1,1784,512,3.55768,0.201259
567,512,3.09045,0.191193,0,0,0,0,0,0,0,-1,1791,512,3.09045,-0.191203
574,512,0,0,0,0,0,0,0,0,0,-1,1798,512,0,0
581,512,0,0,0,0,0,0,0,0,0,-1,1805,512,0,0
588,512,0,0,0,0,0,0,0,0,0,-1,1812,512,0,0
595,512,0,0,0,0,0,0,0,0,0,-1,1819,512,0,0
602,512,0,0,0,0,0,0,0,0,0,-1,1826,512,0,0
609,512,0,0,0,0,0,0,0,0,0,-1,1833,512,0,0
616,512,0,0,0,0,0,0,0,0,0,-1,1840,512,0,0
623,512,0,0,0,0,0,0,0,0,0,-1,1847,512,0,0
630,512,0,0,0,0,0,0,0,0,0,-1,1854,512,0,0
637,512,0,0,0,0,0,0,0,0,0,-1,1861,512,0,0
644,512,0,0,0,0,0,0,0,0,0,-1,1868,512,0,0
651,512,0,0,0,0,0,0,0,0,0,-1,1875,512,0,0
658,512,0,0,0,0,0,0,0,0,0,-1,1882,512,0,0
665,512,0,0,0,0,0,0,0,0,0,-1,1889,512,0,0
672,512,0,0,0,0,0,0,0,0,0,-1,1896,512,0,0
679,512,0,0,0,0,0,0,0,0,0,-1,1903,512,0,0
686,512,0,0,0,0,0,0,0,0,0,-1,1910,512,0,0
693,512,0,0,0,0,0,0,0,0,0,-1,1917,512,0,0
700,512,0,0,0,0,0,0,0,0,0,-1,1924,512,0,0
707,512,0,0,0,0,0,0,0,0,0,-1,1931,512,0,0
714,512,0,0,0,0,0,0,0,0,0,-1,1938,512,0,0
721,512,0,0,0,0,0,0,0,0,0,-1,1945,512,0,0
728,512,0,0,0,0,0,0,0,0,0,-1,1952,512,0,0
735,512,0,0,0,0,0,0,0,0,0,-1,1959,512,0,0
742,512,0,0,0,0,0,0,0,0,0,-1,1966,512,0,0
749,512,0,0,0,0,0,0,0,0,0,-1,1973,512,0,0
756,512,0,0,0,0,0,0,0,0,0,-1,1980,512,0,0
763,512,0,0,0,0,0,0,0,0,0,-1,1987,512,0,0
770,512,0,0,0,0,0,0,0,0,0,-1,1994,512,0,0
777,512,0,0,0,0,0,0,0,0,0,-1,2001,512,0,0
784,512,0,0,0,0,0,0,0,0,0,-1,2008,512,0,0
791,512,0,0,0,0,0,0,0,0,0,-1,2015,512,0,0
798,512,0,0,0,0,0,0,0,0,0,-1,2022,512,0,0
805,512,0,0,0,0,0,0,0,0,0,-1,2029,512,0,0
812,512,0,0,0,0,0,0,0,0,0,-1,2036,512,0,0
-700,505,0,0,0,0,0,0,0,0,0,-1,524,519,0,0
-693,505,0,0,0,0,0,0,0,0,0,-1,531,519,0,0
-686,505,0,0,0,0,0,0,0,0,0,-1,538,519,0,0
-679,505,0,0,0,0,0,0,0,0,0,-1,545,519,0,0
-672,505,0,0,0,0,0,0,0,0,0,-1,552,519,0,0
-665,505,0,0,0,0,0,0,0,0,0,-1,559,519,0,0
-658,505,0,0,0,0,0,0,0,0,0,-1,566,519,0,0
-651,505,0,0,0,0,0,0,0,0,0,-1,573,519,0,0
-644,505,0,0,0,0,0,0,0,0,0,-1,580,519,0,0
-637,505,0,0,0,0,0,0,0,0,0,-1,587,519,0,0
-630,505,0,0,0,0,0,0,0,0,0,-1,594,519,0,0
-623,505,0,0,0,0,0,0,0,0,0,-1,601,519,0,0
-616,505,0,0,0,0,0,0,0,0,0,-1,608,519,0,0
-609,505,0,0,0,0,0,0,0,0,0,-1,615,519,0,0
-602,505,0,0,0,0,0,0,0,0,0,-1,622,519,0,0
-595,505,0,0,0,0,0,0,0,0,0,-1,629,519,0,0
-588,505,0,0,0,0,0,0,0,0,0,-1,636,519,0,0
-581,505,0,0,0,0,0,0,0,0,0,-1,643,519,0,0
-574,505,0,0,0,0,0,0,0,0,0,-1,650,519,0,0
-567,505,0,0,0,0,0,0,0,0,0,-1,657,519,0,0
-560,505,0,0,0,0,0,0,0,0,0,-1,664,519,0,0
-553,505,0,0,0,0,0,0,0,0,0,-1,671,519,0,0
-546,505,0,0,0,0,0,0,0,0,0,-1,678,519,0,0
-539,505,0,0,0,0,0,0,0,0,0,-1,685,519,0,0
-532,505,0,0,0,0,0,0,0,0,0,-1,692,519,0,0
-525,505,0,0,0,0,0,0,0,0,0,-1,699,519,0,0
-518,505,0,0,0,0,0,0,0,0,0,-1,706,519,0,0
-511,505,0,0,0,0,0,0,0,0,0,-1,713,519,0,0
-504,505,0,0,0,0,0,0,0,0,0,-1,720,519,0,0
-497,505,0,0,0,0,0,0,0,0,0,-1,727,519,0,0
-490,505,0,0,0,0,0,0,0,0,0,-1,734,519,0,0
-483,505,0,0,0,0,0,0,0,0,0,-1,741,519,0,0
-476,505,0,0,0,0,0,0,0,0,0,-1,748,519,0,0
-469,505,0,0,0,0,0,0,0,0,0,-1,755,519,0,0
-462,505,0,0,0,0,0,0,0,0,0,-1,762,519,0,0
-455,505,2.72137,-3.26379,0,0,0,0,0,0,0,-1,769,519,2.72135,3.26377
-448,505,2.51111,-3.94989,0,0,0,0,0,0,0,-1,776,519,2.51112,3.94986
-441,505,2.80212,-6.8902,0,0,0,0,0,0,0,-1,783,519,2.80209,6.89019
-434,505,-0.155212,-10.6374,0,0,0,0,0,0,0,-1,790,519,-0.155194,10.6374
-427,505,-0.474426,-10.4702,0,0,0,0,0,0,0,-1,797,519,-0.474433,10.4702
-420,505,-0.922546,-10.1928,0,0,0,0,0,0,0,-1,804,519,-0.92257,10.1928
-413,505,-3.33948,-13.6183,0,0,0,0,0,0,0,-1,811,519,-3.33949,13.6184
-406,505,-3.2439,-18.3408,0,0,0,0,0,0,0,-1,818,519,-3.24389,18.3408
-399,505,-3.94427,-25.2372,0,0,0,0,0,0,0,-1,825,519,-3.94429,25.2373
-392,505,-4.07526,-26.5794,0.00359515,0.0197765,-0.0117662,0.0259653,-0.00259358,-1.08658,0.0182363,0.0277703,832,519,-4.07528,26.5794
-385,505,-4.18011,-27.5693,0.00350428,0.0169841,-0.0104975,0.0227191,-0.00223073,-1.07078,0.0159418,0.0117722,839,519,-4.18011,27.5693
-378,505,-4.2525,-28.5394,0.00339762,0.0144538,-0.00920573,0.0196637,-0.00181233,-1.05579,0.0137531,0.0124326,846,519,-4.25248,28.5394
-371,505,-4.28845,-29.5277,0.00317364,0.0118818,-0.00787296,0.0165245,-0.00146902,-1.03799,0.0115372,0.0140747,853,519,-4.28846,29.5277
-364,505,-4.35089,-30.4755,0.0028531,0.00932276,-0.0063817,0.0132427,-0.0010668,-1.01997,0.00920467,0.0150567,860,519,-4.35089,30.4755
-357,505,-4.39069,-31.4093,0.00250868,0.00702058,-0.00489977,0.0101588,-0.00062954,-1.00114,0.00699183,0.0123121,867,519,-4.39071,31.4093
-350,505,-4.45313,-32.3032,0.00221761,0.00495765,-0.00355712,0.00739946,-0.000224201,-0.969217,0.00500938,0.0115218,874,519,-4.45311,32.3032
-343,505,-4.53259,-33.2018,0.00200682,0.00292827,-0.00231072,0.00482374,0.000111338,-0.883801,0.00317937,0.0115556,881,519,-4.53257,33.2018
-336,505,-4.59491,-34.1183,0.00184487,0.00117616,-0.00120925,0.00276514,0.000255891,-0.65052,0.00176432,0.0148998,888,519,-4.5949,34.1183
-329,505,-4.61145,-34.9814,0.00176019,-0.000271592,-0.000260774,0.00179313,-0.000304527,-0.125635,0.00130879,0.0204772,895,519,-4.61147,34.9814
-322,505,-4.65607,-35.8798,0.00185688,-0.00142843,0.000495549,0.00193,-0.00150155,0.146496,0.00198635,0.0239758,902,519,-4.6561,35.8798
-315,505,-4.71149,-36.8123,0.00220285,-0.00214141,0.000945725,0.0023998,-0.00233837,0.205319,0.00273566,0.017284,909,519,-4.71149,36.8123
-308,505,-4.78748,-37.6641,0.00288603,-0.002501,0.00110231,0.00310286,-0.00271783,0.194225,0.00336303,0.01336,916,519,-4.78746,37.664
-301,505,-4.80017,-38.545,0.00347265,-0.00237482,0.00127649,0.00373916,-0.00264133,0.205825,0.00370191,0.0211212,923,519,-4.80017,38.545
-294,505,-4.8114,-39.3672,0,0,0,0,0,0,0,-1,930,519,-4.81139,39.3672
-287,505,-4.80145,-39.9835,0,0,0,0,0,0,0,-1,937,519,-4.80147,39.9835
-280,505,-2.79846,-27.7252,0,0,0,0,0,0,0,-1,944,519,-2.79845,27.7252
-273,505,-0.0680542,-9.44867,0,0,0,0,0,0,0,-1,951,519,-0.0680462,9.44866
-266,505,-0.036377,-9.07922,0,0,0,0,0,0,0,-1,958,519,-0.0364055,9.0792
-259,505,0.10321,-6.69824,0,0,0,0,0,0,0,-1,965,519,0.103235,6.69826
-252,505,6.82312,-15.6972,0,0,0,0,0,0,0,-1,972,519,6.82314,15.6972
-245,505,4.26727,-12.9861,0,0,0,0,0,0,0,-1,979,519,4.2673,12.9861
-238,505,1.67432,-11.2307,0,0,0,0,0,0,0,-1,986,519,1.67429,11.2307
-231,505,-0.958435,-8.3075,0,0,0,0,0,0,0,-1,993,519,-0.958421,8.30751
-224,505,-1.46399,-33.4399,0,0,0,0,0,0,0,-1,1000,519,-1.46397,33.4399
-217,505,-6.34302,-1.65533,0,0,0,0,0,0,0,-1,1007,519,-6.34299,1.65535
-210,505,-3.06128,-0.396301,0,0,0,0,0,0,0,-1,1014,519,-3.06129,0.396294
-203,505,-4.26465,2.03607,0,0,0,0,0,0,0,-1,1021,519,-4.26462,-2.03606
-196,505,-5.47595,4.27295,0,0,0,0,0,0,0,-1,1028,519,-5.47597,-4.27292
-189,505,1.51526,5.56207,0,0,0,0,0,0,0,-1,1035,519,1.51523,-5.56209
-182,505,2.97815,7.5097,0,0,0,0,0,0,0,-1,1042,519,2.97812,-7.5097
-175,505,-2.38416,-2.17548,0,0,0,0,0,0,0,-1,1049,519,-2.38411,2.1755
-168,505,0,0,0,0,0,0,0,0,0,-1,1056,519,0,0
-161,505,0,0,0,0,0,0,0,0,0,-1,1063,519,0,0
-154,505,0,0,0,0,0,0,0,0,0,-1,1070,519,0,0
-147,505,0,0,0,0,0,0,0,0,0,-1,1077,519,0,0
-140,505,0,0,0,0,0,0,0,0,0,-1,1084,519,0,0
-133,505,0,0,0,0,0,0,0,0,0,-1,1091,519,0,0
-126,505,0,0,0,0,0,0,0,0,0,-1,1098,519,0,0
-119,505,0,0,0,0,0,0,0,0,0,-1,1105,519,0,0
-112,505,0,0,0,0,0,0,0,0,0,-1,1112,519,0,0
-105,505,0,0,0,0,0,0,0,0,0,-1,1119,519,0,0
-98,505,0,0,0,0,0,0,0,0,0,-1,1126,519,0,0
-91,505,0,0,0,0,0,0,0,0,0,-1,1133,519,0,0
-84,505,0,0,0,0,0,0,0,0,0,-1,1140,519,0,0
-77,505,0,0,0,0,0,0,0,0,0,-1,1147,519,0,0
-70,505,0,0,0,0,0,0,0,0,0,-1,1154,519,0,0
-63,505,0,0,0,0,0,0,0,0,0,-1,1161,519,0,0
-56,505,0,0,0,0,0,0,0,0,0,-1,1168,519,0,0
-49,505,0,0,0,0,0,0,0,0,0,-1,1175,519,0,0
-42,505,0,0,0,0,0,0,0,0,0,-1,1182,519,0,0
-35,505,0,0,0,0,0,0,0,0,0,-1,1189,519,0,0
-28,505,0,0,0,0,0,0,0,0,0,-1,1196,519,0,0
-21,505,0,0,0,0,0,0,0,0,0,-1,1203,519,0,0
-14,505,0,0,0,0,0,0,0,0,0,-1,1210,519,0,0
-7,505,0,0,0,0,0,0,0,0,0,-1,1217,519,0,0
0,505,0,0,0,0,0,0,0,0,0,-1,1224,519,0,0
7,505,0,0,0,0,0,0,0,0,0,-1,1231,519,0,0
14,505,0,0,0,0,0,0,0,0,0,-1,1238,519,0,0
21,505,0,0,0,0,0,0,0,0,0,-1,1245,519,0,0
28,505,0,0,0,0,0,0,0,0,0,-1,1252,519,0,0
35,505,0,0,0,0,0,0,0,0,0,-1,1259,519,0,0
42,505,0,0,0,0,0,0,0,0,0,-1,1266,519,0,0
49,505,0,0,0,0,0,0,0,0,0,-1,1273,519,0,0
56,505,0,0,0,0,0,0,0,0,0,-1,1280,519,0,0
63,505,0,0,0,0,0,0,0,0,0,-1,1287,519,0,0
70,505,0,0,0,0,0,0,0,0,0,-1,1294,519,0,0
77,505,0,0,0,0,0,0,0,0,0,-1,1301,519,0,0
84,505,0,0,0,0,0,0,0,0,0,-1,1308,519,0,0
91,505,0,0,0,0,0,0,0,0,0,-1,1315,519,0,0
98,505,0,0,0,0,0,0,0,0,0,-1,1322,519,0,0
105,505,0,0,0,0,0,0,0,0,0,-1,1329,519,0,0
112,505,0,0,0,0,0,0,0,0,0,-1,1336,519,0,0
119,505,0,0,0,0,0,0,0,0,0,-1,1343,519,0,0
126,505,0,0,0,0,0,0,0,0,0,-1,1350,519,0,0
133,505,0,0,0,0,0,0,0,0,0,-1,1357,519,0,0
140,505,0,0,0,0,0,0,0,0,0,-1,1364,519,0,0
147,505,0,0,0,0,0,0,0,0,0,-1,1371,519,0,0
154,505,0,0,0,0,0,0,0,0,0,-1,1378,519,0,0
161,505,0,0,0,0,0,0,0,0,0,-1,1385,519,0,0
168,505,0,0,0,0,0,0,0,0,0,-1,1392,519,0,0
175,505,0,0,0,0,0,0,0,0,0,-1,1399,519,0,0
182,505,0,0,0,0,0,0,0,0,0,-1,1406,519,0,0
189,505,0,0,0,0,0,0,0,0,0,-1,1413,519,0,0
196,505,0,0,0,0,0,0,0,0,0,-1,1420,519,0,0
203,505,0,0,0,0,0,0,0,0,0,-1,1427,519,0,0
210,505,0,0,0,0,0,0,0,0,0,-1,1434,519,0,0
217,505,0,0,0,0,0,0,0,0,0,-1,1441,519,0,0
224,505,0,0,0,0,0,0,0,0,0,-1,1448,519,0,0
231,505,0,0,0,0,0,0,0,0,0,-1,1455,519,0,0
238,505,0,0,0,0,0,0,0,0,0,-1,1462,519,0,0
245,505,0,0,0,0,0,0,0,0,0,-1,1469,519,0,0
252,505,0,0,0,0,0,0,0,0,0,-1,1476,519,0,0
259,505,0,0,0,0,0,0,0,0,0,-1,1483,519,0,0
266,505,0,0,0,0,0,0,0,0,0,-1,1490,519,0,0
273,505,0,0,0,0,0,0,0,0,0,-1,1497,519,0,0
280,505,0,0,0,0,0,0,0,0,0,-1,1504,519,0,0
287,505,4.39478,0.499512,0,0,0,0,0,0,0,-1,1511,519,4.39476,-0.499506
294,505,4.88867,0.0822754,0,0,0,0,0,0,0,-1,1518,519,4.88871,-0.0822748
301,505,4.82153,-0.0704346,0,0,0,0,0,0,0,-1,1525,519,4.82156,0.0704312
308,505,4.67761,-0.29187,0,0,0,0,0,0,0,-1,1532,519,4.67762,0.291845
315,505,8.44055,-6.54352,0,0,0,0,0,0,0,-1,1539,519,8.44059,6.54349
322,505,4.78955,-0.594116,0,0,0,0,0,0,0,-1,1546,519,4.78957,0.594096
329,505,5.16321,0.434631,0,0,0,0,0,0,0,-1,1553,519,5.16316,-0.434614
336,505,4.94495,-0.920471,0,0,0,0,0,0,0,-1,1560,519,4.945,0.920495
343,505,5.01855,-1.4823,0,0,0,0,0,0,0,-1,1567,519,5.01851,1.48227
350,505,5.33154,-1.77838,0,0,0,0,0,0,0,-1,1574,519,5.33152,1.77838
357,505,5.56567,-1.9425,0,0,0,0,0,0,0,-1,1581,519,5.56562,1.94248
364,505,5.85205,-2.6579,0,0,0,0,0,0,0,-1,1588,519,5.85211,2.65788
371,505,5.88477,-7.00922,0,0,0,0,0,0,0,-1,1595,519,5.88473,7.00924
378,505,5.44104,-7.10162,0,0,0,0,0,0,0,-1,1602,519,5.44099,7.10162
385,505,6.64661,-8.65015,0,0,0,0,0,0,0,-1,1609,519,6.64662,8.65014
392,505,6.34558,-8.3429,0,0,0,0,0,0,0,-1,1616,519,6.34554,8.34288
399,505,7.45898,-9.70386,0,0,0,0,0,0,0,-1,1623,519,7.45899,9.70388
406,505,7.08679,-9.4928,0,0,0,0,0,0,0,-1,1630,519,7.08678,9.49278
413,505,8.4032,-14.0308,0,0,0,0,0,0,0,-1,1637,519,8.4032,14.0308
420,505,20.7336,-39.3448,0,0,0,0,0,0,0,-1,1644,519,20.7337,39.3448
427,505,20.7142,-38.3306,0.00434509,0.001848,1.89772e-05,0.00434524,0.00184785,0.00759911,0.00251805,0.0350393,1651,519,20.7142,38.3306
434,505,20.6475,-37.3354,0.00358442,0.00147951,-5.74726e-05,0.00358598,0.00147794,-0.027277,0.002081,0.0139817,1658,519,20.6474,37.3354
441,505,20.6184,-36.3528,0.00298179,0.00124224,-3.93767e-05,0.00298268,0.00124135,-0.0226206,0.0017301,0.0108209,1665,519,20.6184,36.3528
448,505,20.5397,-35.4866,0.00246497,0.00110892,7.00607e-05,0.00246858,0.00110531,0.0514824,0.00142783,0.0116019,1672,519,20.5397,35.4866
455,505,20.484,-34.5944,0.00198636,0.00106011,0.000181962,0.00202083,0.00102565,0.187186,0.00116677,0.0128878,1679,519,20.484,34.5943
462,505,20.4379,-33.6869,0.00160633,0.00112044,0.000332872,0.00177548,0.000951285,0.47016,0.00102595,0.0125076,1686,519,20.4379,33.6869
469,505,20.3901,-32.7773,0.00145564,0.00134782,0.000598499,0.00200265,0.000800807,0.740485,0.00116393,0.0110966,1693,519,20.3901,32.7773
476,505,20.3407,-31.8644,0.00135595,0.00161777,0.000900552,0.00239688,0.000576844,0.857577,0.00144455,0.0117601,1700,519,20.3407,31.8644
483,505,20.2988,-30.9398,0.00136834,0.00187996,0.00122193,0.00287257,0.000375725,0.888582,0.0018029,0.0136461,1707,519,20.2988,30.9397
490,505,20.2614,-30.0169,0.00127962,0.00202983,0.00140875,0.00311256,0.000196893,0.915512,0.00201262,0.0130871,1714,519,20.2613,30.0169
497,505,20.1901,-29.0911,0.00136452,0.00220347,0.00157097,0.00341001,0.000157988,0.915863,0.00222255,0.0127251,1721,519,20.1901,29.0911
504,505,20.1069,-28.1376,0.00154686,0.00224846,0.00164348,0.00357816,0.000217153,0.890545,0.00231645,0.0131758,1728,519,20.1069,28.1376
511,505,20.0375,-27.1913,0.0016165,0.00223375,0.00160218,0.00355675,0.000293496,0.880546,0.00227964,0.0153713,1735,519,20.0375,27.1914
518,505,20.2002,-26.36,0.00153246,0.00210097,0.00130575,0.00315304,0.000480378,0.892573,0.00196161,0.0468217,1742,519,20.2002,26.3601
525,505,20.4117,-25.3722,0,0,0,0,0,0,0,-1,1749,519,20.4118,25.3722
532,505,19.6493,-24.2051,0,0,0,0,0,0,0,-1,1756,519,19.6493,24.2051
539,505,13.9879,-13.9018,0,0,0,0,0,0,0,-1,1763,519,13.988,13.9018
546,505,7.94946,-6.64539,0,0,0,0,0,0,0,-1,1770,519,7.94947,6.64539
553,505,2.82837,0.162659,0,0,0,0,0,0,0,-1,1777,519,2.82841,-0.162672
560,505,3.66223,-0.479797,0,0,0,0,0,0,0,-1,1784,519,3.66219,0.47982
567,505,4.65271,-0.950256,0,0,0,0,0,0,0,-1,1791,519,4.65274,0.95028
574,505,5.54443,-1.19977,0,0,0,0,0,0,0,-1,1798,519,5.54443,1.19974
581,505,0,0,0,0,0,0,0,0,0,-1,1805,519,0,0
588,505,0,0,0,0,0,0,0,0,0,-1,1812,519,0,0
595,505,0,0,0,0,0,0,0,0,0,-1,1819,519,0,0
602,505,0,0,0,0,0,0,0,0,0,-1,1826,519,0,0
609,505,0,0,0,0,0,0,0,0,0,-1,1833,519,0,0
616,505,0,0,0,0,0,0,0,0,0,-1,1840,519,0,0
623,505,0,0,0,0,0,0,0,0,0,-1,1847,519,0,0
630,505,0,0,0,0,0,0,0,0,0,-1,1854,519,0,0
637,505,0,0,0,0,0,0,0,0,0,-1,1861,519,0,0
644,505,0,0,0,0,0,0,0,0,0,-1,1868,519,0,0
651,505,0,0,0,0,0,0,0,0,0,-1,1875,519,0,0
658,505,0,0,0,0,0,0,0,0,0,-1,1882,519,0,0
665,505,0,0,0,0,0,0,0,0,0,-1,1889,519,0,0
672,505,0,0,0,0,0,0,0,0,0,-1,1896,519,0,0
679,505,0,0,0,0,0,0,0,0,0,-1,1903,519,0,0
686,505,0,0,0,0,0,0,0,0,0,-1,1910,519,0,0
693,505,0,0,0,0,0,0,0,0,0,-1,1917,519,0,0
700,505,0,0,0,0,0,0,0,0,0,-1,1924,519,0,0
707,505,0,0,0,0,0,0,0,0,0,-1,1931,519,0,0
714,505,0,0,0,0,0,0,0,0,0,-1,1938,519,0,0
721,505,0,0,0,0,0,0,0,0,0,-1,1945,519,0,0
728,505,0,0,0,0,0,0,0,0,0,-1,1952,519,0,0
735,505,0,0,0,0,0,0,0,0,0,-1,1959,519,0,0
742,505,0,0,0,0,0,0,0,0,0,-1,1966,519,0,0
749,505,0,0,0,0,0,0,0,0,0,-1,1973,519,0,0
756,505,0,0,0,0,0,0,0,0,0,-1,1980,519,0,0
763,505,0,0,0,0,0,0,0,0,0,-1,1987,519,0,0
770,505,0,0,0,0,0,0,0,0,0,-1,1994,519,0,0
777,505,0,0,0,0,0,0,0,0,0,-1,2001,519,0,0
784,505,0,0,0,0,0,0,0,0,0,-1,2008,519,0,0
791,505,0,0,0,0,0,0,0,0,0,-1,2015,519,0,0
798,505,0,0,0,0,0,0,0,0,0,-1,2022,519,0,0
805,505,0,0,0,0,0,0,0,0,0,-1,2029,519,0,0
812,505,0,0,0,0,0,0,0,0,0,-1,2036,519,0,0
-700,498,0,0,0,0,0,0,0,0,0,-1,524,526,0,0
-693,498,0,0,0,0,0,0,0,0,0,-1,531,526,0,0
-686,498,0,0,0,0,0,0,0,0,0,-1,538,526,0,0
-679,498,0,0,0,0,0,0,0,0,0,-1,545,526,0,0
-672,498,0,0,0,0,0,0,0,0,0,-1,552,526,0,0
-665,498,0,0,0,0,0,0,0,0,0,-1,559,526,0,0
-658,498,0,0,0,0,0,0,0,0,0,-1,566,526,0,0
-651,498,0,0,0,0,0,0,0,0,0,-1,573,526,0,0
-644,498,0,0,0,0,0,0,0,0,0,-1,580,526,0,0
-637,498,0,0,0,0,0,0,0,0,0,-1,587,526,0,0
-630,498,0,0,0,0,0,0,0,0,0,-1,594,526,0,0
-623,498,0,0,0,0,0,0,0,0,0,-1,601,526,0,0
-616,498,0,0,0,0,0,0,0,0,0,-1,608,526,0,0
-609,498,0,0,0,0,0,0,0,0,0,-1,615,526,0,0
-602,498,0,0,0,0,0,0,0,0,0,-1,622,526,0,0
-595,498,0,0,0,0,0,0,0,0,0,-1,629,526,0,0
-588,498,0,0,0,0,0,0,0,0,0,-1,636,526,0,0
-581,498,0,0,0,0,0,0,0,0,0,-1,643,526,0,0
-574,498,0,0,0,0,0,0,0,0,0,-1,650,526,0,0
-567,498,0,0,0,0,0,0,0,0,0,-1,657,526,0,0
-560,498,0,0,0,0,0,0,0,0,0,-1,664,526,0,0
-553,498,0,0,0,0,0,0,0,0,0,-1,671,526,0,0
-546,498,0,0,0,0,0,0,0,0,0,-1,678,526,0,0
-539,498,0,0,0,0,0,0,0,0,0,-1,685,526,0,0
-532,498,0,0,0,0,0,0,0,0,0,-1,692,526,0,0
-525,498,0,0,0,0,0,0,0,0,0,-1,699,526,0,0
-518,498,0,0,0,0,0,0,0,0,0,-1,706,526,0,0
-511,498,0,0,0,0,0,0,0,0,0,-1,713,526,0,0
-504,498,0,0,0,0,0,0,0,0,0,-1,720,526,0,0
-497,498,0,0,0,0,0,0,0,0,0,-1,727,526,0,0
-490,498,0,0,0,0,0,0,0,0,0,-1,734,526,0,0
-483,498,0,0,0,0,0,0,0,0,0,-1,741,526,0,0
-476,498,0,0,0,0,0,0,0,0,0,-1,748,526,0,0
-469,498,0,0,0,0,0,0,0,0,0,-1,755,526,0,0
-462,498,6.81024,1.15515,0,0,0,0,0,0,0,-1,762,526,6.81026,-1.15514
-455,498,3.25757,-3.0592,0,0,0,0,0,0,0,-1,769,526,3.25754,3.05921
-448,498,3.05939,-3.74298,0,0,0,0,0,0,0,-1,776,526,3.05939,3.74296
-441,498,2.77191,-6.08209,0,0,0,0,0,0,0,-1,783,526,2.77189,6.08207
-434,498,2.10681,-6.95929,0,0,0,0,0,0,0,-1,790,526,2.10682,6.9593
-427,498,-0.368042,-10.7726,0,0,0,0,0,0,0,-1,797,526,-0.36807,10.7726
-420,498,-1.05035,-10.5142,0,0,0,0,0,0,0,-1,804,526,-1.05034,10.5142
-413,498,-4.52112,-18.8354,0,0,0,0,0,0,0,-1,811,526,-4.52111,18.8354
-406,498,-4.77673,-24.3863,0,0,0,0,0,0,0,-1,818,526,-4.77672,24.3863
-399,498,-4.86902,-25.511,0.00207679,0.0170115,-0.00942709,0.0215704,-0.00248214,-1.12036,0.015275,0.0341196,825,526,-4.869,25.511
-392,498,-5.02924,-26.5723,0.00224908,0.0146841,-0.0086452,0.0191154,-0.0021822,-1.09714,0.0135298,0.0175583,832,526,-5.02921,26.5723
-385,498,-5.09534,-27.5441,0.00239945,0.0124392,-0.00770373,0.0166142,-0.00177561,-1.07415,0.011713,0.010169,839,526,-5.09534,27.5441
-378,498,-5.13513,-28.5057,0.00249179,0.0103353,-0.00667989,0.0141596,-0.00133249,-1.05084,0.00991378,0.0109898,846,526,-5.13516,28.5057
-371,498,-5.17444,-29.457,0.00244414,0.00818307,-0.0056137,0.0116182,-0.000990953,-1.02166,0.008096,0.0158015,853,526,-5.17444,29.457
-364,498,-5.24615,-30.4128,0.00230468,0.0059767,-0.00438532,0.00889484,-0.00061346,-0.983647,0.0061446,0.015637,860,526,-5.24613,30.4128
-357,498,-5.29108,-31.345,0.00215872,0.00401363,-0.00314893,0.00636884,-0.000196503,-0.928614,0.00431289,0.0119147,867,526,-5.29105,31.345
-350,498,-5.35028,-32.2382,0.0020684,0.0022885,-0.00205029,0.00423169,0.000125214,-0.81221,0.00278033,0.0120109,874,526,-5.35031,32.2382
-343,498,-5.42346,-33.1923,0.00199156,0.000558737,-0.00100008,0.00250536,4.49459e-05,-0.474588,0.00165546,0.0165822,881,526,-5.42347,33.1923
-336,498,-5.45465,-34.1146,0.00193157,-0.00095382,-6.14431e-05,0.00193288,-0.000955128,-0.0212817,0.00169895,0.0215458,888,526,-5.45466,34.1146
-329,498,-5.49146,-34.9422,0.00193798,-0.00220016,0.000764123,0.00207457,-0.00233675,0.176885,0.00254838,0.0264895,895,526,-5.49143,34.9422
-322,498,-5.55945,-35.8181,0.00218174,-0.0030478,0.00133416,0.00250244,-0.0033685,0.235902,0.00340186,0.0280358,902,526,-5.55943,35.8181
-315,498,-5.62384,-36.7069,0.00268689,-0.00344367,0.00157515,0.00306792,-0.0038247,0.23734,0.00398744,0.0209651,909,526,-5.62383,36.7069
-308,498,-5.67297,-37.5886,0.00358779,-0.00348464,0.00151631,0.00389917,-0.00379602,0.20254,0.00444295,0.0229878,916,526,-5.67298,37.5886
-301,498,-5.59338,-38.5681,0.00430797,-0.002894,0.00160174,0.00464813,-0.00323416,0.209263,0.00457519,0.0470975,923,526,-5.59337,38.5681
-294,498,-5.49982,-39.5652,0,0,0,0,0,0,0,-1,930,526,-5.49979,39.5653
-287,498,-0.91394,-13.4327,0,0,0,0,0,0,0,-1,937,526,-0.913935,13.4327
-280,498,-0.341614,-8.66608,0,0,0,0,0,0,0,-1,944,526,-0.341589,8.66606
-273,498,-0.988892,-8.62921,0,0,0,0,0,0,0,-1,951,526,-0.988906,8.62922
-266,498,0.362488,-6.33545,0,0,0,0,0,0,0,-1,958,526,0.362478,6.33547
-259,498,10.9454,-17.3615,0,0,0,0,0,0,0,-1,965,526,10.9454,17.3614
-252,498,8.56586,-14.6886,0,0,0,0,0,0,0,-1,972,526,8.56584,14.6886
-245,498,5.97382,-11.928,0,0,0,0,0,0,0,-1,979,526,5.97381,11.928
-238,498,2.24841,-13.8145,0,0,0,0,0,0,0,-1,986,526,2.24838,13.8145
-231,498,0.665894,-10.4898,0,0,0,0,0,0,0,-1,993,526,0.665863,10.4898
-224,498,-2.11243,-4.76312,0,0,0,0,0,0,0,-1,1000,526,-2.11245,4.76314
-217,498,-3.82239,-1.42841,0,0,0,0,0,0,0,-1,1007,526,-3.82241,1.42843
-210,498,-1.80591,-0.358215,0,0,0,0,0,0,0,-1,1014,526,-1.8059,0.3582
-203,498,-3.17316,1.06641,0,0,0,0,0,0,0,-1,1021,526,-3.17313,-1.0664
-196,498,-0.103271,5.40527,0,0,0,0,0,0,0,-1,1028,526,-0.103285,-5.40528
-189,498,3.00256,6.47137,0,0,0,0,0,0,0,-1,1035,526,3.00256,-6.47139
-182,498,0,0,0,0,0,0,0,0,0,-1,1042,526,0,0
-175,498,0,0,0,0,0,0,0,0,0,-1,1049,526,0,0
-168,498,0,0,0,0,0,0,0,0,0,-1,1056,526,0,0
-161,498,0,0,0,0,0,0,0,0,0,-1,1063,526,0,0
-154,498,0,0,0,0,0,0,0,0,0,-1,1070,526,0,0
-147,498,0,0,0,0,0,0,0,0,0,-1,1077,526,0,0
-140,498,0,0,0,0,0,0,0,0,0,-1,1084,526,0,0
-133,498,0,0,0,0,0,0,0,0,0,-1,1091,526,0,0
-126,498,0,0,0,0,0,0,0,0,0,-1,1098,526,0,0
-119,498,0,0,0,0,0,0,0,0,0,-1,1105,526,0,0
-112,498,0,0,0,0,0,0,0,0,0,-1,1112,526,0,0
-105,498,0,0,0,0,0,0,0,0,0,-1,1119,526,0,0
-98,498,0,0,0,0,0,0,0,0,0,-1,1126,526,0,0
-91,498,0,0,0,0,0,0,0,0,0,-1,1133,526,0,0
-84,498,0,0,0,0,0,0,0,0,0,-1,1140,526,0,0
-77,498,0,0,0,0,0,0,0,0,0,-1,1147,526,0,0
-70,498,0,0,0,0,0,0,0,0,0,-1,1154,526,0,0
-63,498,0,0,0,0,0,0,0,0,0,-1,1161,526,0,0
-56,498,0,0,0,0,0,0,0,0,0,-1,1168,526,0,0
-49,498,0,0,0,0,0,0,0,0,0,-1,1175,526,0,0
-42,498,0,0,0,0,0,0,0,0,0,-1,1182,526,0,0
-35,498,0,0,0,0,0,0,0,0,0,-1,1189,526,0,0
-28,498,0,0,0,0,0,0,0,0,0,-1,1196,526,0,0
-21,498,0,0,0,0,0,0,0,0,0,-1,1203,526,0,0
-14,498,0,0,0,0,0,0,0,0,0,-1,1210,526,0,0
-7,498,0,0,0,0,0,0,0,0,0,-1,1217,526,0,0
0,498,0,0,0,0,0,0,0,0,0,-1,1224,526,0,0
7,498,0,0,0,0,0,0,0,0,0,-1,1231,526,0,0
14,498,0,0,0,0,0,0,0,0,0,-1,1238,526,0,0
21,498,0,0,0,0,0,0,0,0,0,-1,1245,526,0,0
28,498,0,0,0,0,0,0,0,0,0,-1,1252,526,0,0
35,498,0,0,0,0,0,0,0,0,0,-1,1259,526,0,0
42,498,0,0,0,0,0,0,0,0,0,-1,1266,526,0,0
49,498,0,0,0,0,0,0,0,0,0,-1,1273,526,0,0
56,498,0,0,0,0,0,0,0,0,0,-1,1280,526,0,0
63,498,0,0,0,0,0,0,0,0,0,-1,1287,526,0,0
70,498,0,0,0,0,0,0,0,0,0,-1,1294,526,0,0
77,498,0,0,0,0,0,0,0,0,0,-1,1301,526,0,0
84,498,0,0,0,0,0,0,0,0,0,-1,1308,526,0,0
91,498,0,0,0,0,0,0,0,0,0,-1,1315,526,0,0
98,498,0,0,0,0,0,0,0,0,0,-1,1322,526,0,0
105,498,0,0,0,0,0,0,0,0,0,-1,1329,526,0,0
112,498,0,0,0,0,0,0,0,0,0,-1,1336,526,0,0
119,498,0,0,0,0,0,0,0,0,0,-1,1343,526,0,0
126,498,0,0,0,0,0,0,0,0,0,-1,1350,526,0,0
133,498,0,0,0,0,0,0,0,0,0,-1,1357,526,0,0
140,498,0,0,0,0,0,0,0,0,0,-1,1364,526,0,0
147,498,0,0,0,0,0,0,0,0,0,-1,1371,526,0,0
154,498,0,0,0,0,0,0,0,0,0,-1,1378,526,0,0
161,498,0,0,0,0,0,0,0,0,0,-1,1385,526,0,0
168,498,0,0,0,0,0,0,0,0,0,-1,1392,526,0,0
175,498,0,0,0,0,0,0,0,0,0,-1,1399,526,0,0
182,498,0,0,0,0,0,0,0,0,0,-1,1406,526,0,0
189,498,0,0,0,0,0,0,0,0,0,-1,1413,526,0,0
196,498,0,0,0,0,0,0,0,0,0,-1,1420,526,0,0
203,498,0,0,0,0,0,0,0,0,0,-1,1427,526,0,0
210,498,0,0,0,0,0,0,0,0,0,-1,1434,526,0,0
217,498,0,0,0,0,0,0,0,0,0,-1,1441,526,0,0
224,498,0,0,0,0,0,0,0,0,0,-1,1448,526,0,0
231,498,0,0,0,0,0,0,0,0,0,-1,1455,526,0,0
238,498,0,0,0,0,0,0,0,0,0,-1,1462,526,0,0
245,498,0,0,0,0,0,0,0,0,0,-1,1469,526,0,0
252,498,0,0,0,0,0,0,0,0,0,-1,1476,526,0,0
259,498,0,0,0,0,0,0,0,0,0,-1,1483,526,0,0
266,498,0,0,0,0,0,0,0,0,0,-1,1490,526,0,0
273,498,0,0,0,0,0,0,0,0,0,-1,1497,526,0,0
280,498,0,0,0,0,0,0,0,0,0,-1,1504,526,0,0
287,498,0,0,0,0,0,0,0,0,0,-1,1511,526,0,0
294,498,0,0,0,0,0,0,0,0,0,-1,1518,526,0,0
301,498,0,0,0,0,0,0,0,0,0,-1,1525,526,0,0
308,498,4.77942,-0.293884,0,0,0,0,0,0,0,-1,1532,526,4.77939,0.293899
315,498,4.56091,-0.564148,0,0,0,0,0,0,0,-1,1539,526,4.56097,0.564142
322,498,4.52344,-0.447266,0,0,0,0,0,0,0,-1,1546,526,4.52341,0.447295
329,498,4.63232,-0.156982,0,0,0,0,0,0,0,-1,1553,526,4.63238,0.156991
336,498,5.22644,0.0925903,0,0,0,0,0,0,0,-1,1560,526,5.22648,-0.0926188
343,498,6.22607,-1.67615,0,0,0,0,0,0,0,-1,1567,526,6.22605,1.67617
350,498,6.19373,-1.59906,0,0,0,0,0,0,0,-1,1574,526,6.19367,1.59906
357,498,6.21472,-1.58929,0,0,0,0,0,0,0,-1,1581,526,6.21476,1.58927
364,498,5.73547,-1.2019,0,0,0,0,0,0,0,-1,1588,526,5.73547,1.20192
371,498,3.27087,-4.55334,0,0,0,0,0,0,0,-1,1595,526,3.27089,4.55332
378,498,8.42944,-4.70624,0,0,0,0,0,0,0,-1,1602,526,8.42942,4.70624
385,498,4.7793,-5.15314,0,0,0,0,0,0,0,-1,1609,526,4.77935,5.15311
392,498,9.12439,-8.57953,0,0,0,0,0,0,0,-1,1616,526,9.12443,8.57955
399,498,7.98938,-9.46021,0,0,0,0,0,0,0,-1,1623,526,7.98936,9.4602
406,498,7.58081,-9.26819,0,0,0,0,0,0,0,-1,1630,526,7.58085,9.26817
413,498,7.17236,-9.07611,0,0,0,0,0,0,0,-1,1637,526,7.17234,9.07614
420,498,11.4314,-16.1147,0,0,0,0,0,0,0,-1,1644,526,11.4313,16.1147
427,498,21.4287,-38.3876,0,0,0,0,0,0,0,-1,1651,526,21.4287,38.3876
434,498,21.4043,-37.3146,0.00373904,0.00113501,-0.00058659,0.00386507,0.00100898,-0.211646,0.00231489,0.0438677,1658,526,21.4042,37.3146
441,498,21.5043,-36.3355,0.00306477,0.000845824,-0.000648992,0.00324065,0.000669949,-0.264642,0.00197536,0.0150265,1665,526,21.5042,36.3355
448,498,21.4678,-35.417,0.00256858,0.000778444,-0.000538374,0.00271802,0.000629006,-0.270757,0.00164298,0.0124551,1672,526,21.4678,35.417
455,498,21.3833,-34.5302,0.00215874,0.000764647,-0.00043633,0.00228404,0.000639344,-0.279648,0.00136061,0.0156378,1679,526,21.3833,34.5301
462,498,21.356,-33.6473,0.00180343,0.000848361,-0.000266386,0.0018727,0.000779086,-0.25442,0.00108628,0.0165327,1686,526,21.356,33.6473
469,498,21.2997,-32.7366,0.00161133,0.00108458,3.13049e-05,0.00161318,0.00108273,0.0591536,0.00094939,0.0141651,1693,526,21.2997,32.7366
476,498,21.2625,-31.8212,0.00155194,0.00137009,0.000377265,0.00184908,0.00107295,0.667147,0.00107214,0.0109409,1700,526,21.2625,31.8212
483,498,21.2086,-30.9088,0.00157109,0.00162694,0.000727342,0.00232689,0.000871135,0.804585,0.00135749,0.00894773,1707,526,21.2086,30.9088
490,498,21.1423,-30.0037,0.00143584,0.00181749,0.000934062,0.00258002,0.00067331,0.886161,0.00154527,0.0113707,1714,526,21.1424,30.0037
497,498,21.0968,-29.0504,0.0014314,0.00207059,0.00116996,0.00296382,0.000538167,0.918727,0.00182316,0.0131858,1721,526,21.0969,29.0504
504,498,21.0438,-28.0952,0.00150804,0.00206544,0.00130226,0.00311849,0.000454994,0.890815,0.00194515,0.0146402,1728,526,21.0438,28.0952
511,498,20.9685,-27.1541,0.00141395,0.00202385,0.00130711,0.00306112,0.000376685,0.899999,0.00192749,0.0159788,1735,526,20.9685,27.1541
518,498,21.0033,-26.2023,0.00109102,0.00186491,0.00107981,0.00262501,0.000330922,0.957442,0.00165079,0.0261269,1742,526,21.0033,26.2023
525,498,20.7949,-25.2949,0.000603442,0.00153596,0.000698684,0.00190968,0.000229727,1.07963,0.00120387,0.0483088,1749,526,20.7949,25.2949
532,498,20.7365,-24.3074,0,0,0,0,0,0,0,-1,1756,526,20.7365,24.3074
539,498,20.0029,-23.3469,0,0,0,0,0,0,0,-1,1763,526,20.003,23.3469
546,498,10.2014,-8.47589,0,0,0,0,0,0,0,-1,1770,526,10.2014,8.47589
553,498,5.93958,-1.71448,0,0,0,0,0,0,0,-1,1777,526,5.93956,1.71447
560,498,3.69385,-0.615112,0,0,0,0,0,0,0,-1,1784,526,3.69381,0.615118
567,498,5.12695,-0.581604,0,0,0,0,0,0,0,-1,1791,526,5.12699,0.58159
574,498,3.88,0.0286255,0,0,0,0,0,0,0,-1,1798,526,3.87999,-0.0286535
581,498,10.8722,2.58551,0,0,0,0,0,0,0,-1,1805,526,10.8723,-2.58551
588,498,0,0,0,0,0,0,0,0,0,-1,1812,526,0,0
595,498,0,0,0,0,0,0,0,0,0,-1,1819,526,0,0
602,498,0,0,0,0,0,0,0,0,0,-1,1826,526,0,0
609,498,0,0,0,0,0,0,0,0,0,-1,1833,526,0,0
616,498,0,0,0,0,0,0,0,0,0,-1,1840,526,0,0
623,498,0,0,0,0,0,0,0,0,0,-1,1847,526,0,0
630,498,0,0,0,0,0,0,0,0,0,-1,1854,526,0,0
637,498,0,0,0,0,0,0,0,0,0,-1,1861,526,0,0
644,498,0,0,0,0,0,0,0,0,0,-1,1868,526,0,0
651,498,0,0,0,0,0,0,0,0,0,-1,1875,526,0,0
658,498,0,0,0,0,0,0,0,0,0,-1,1882,526,0,0
665,498,0,0,0,0,0,0,0,0,0,-1,1889,526,0,0
672,498,0,0,0,0,0,0,0,0,0,-1,1896,526,0,0
679,498,0,0,0,0,0,0,0,0,0,-1,1903,526,0,0
686,498,0,0,0,0,0,0,0,0,0,-1,1910,526,0,0
693,498,0,0,0,0,0,0,0,0,0,-1,1917,526,0,0
700,498,0,0,0,0,0,0,0,0,0,-1,1924,526,0,0
707,498,0,0,0,0,0,0,0,0,0,-1,1931,526,0,0
714,498,0,0,0,0,0,0,0,0,0,-1,1938,526,0,0
721,498,0,0,0,0,0,0,0,0,0,-1,1945,526,0,0
728,498,0,0,0,0,0,0,0,0,0,-1,1952,526,0,0
735,498,0,0,0,0,0,0,0,0,0,-1,1959,526,0,0
742,498,0,0,0,0,0,0,0,0,0,-1,1966,526,0,0
749,498,0,0,0,0,0,0,0,0,0,-1,1973,526,0,0
756,498,0,0,0,0,0,0,0,0,0,-1,1980,526,0,0
763,498,0,0,0,0,0,0,0,0,0,-1,1987,526,0,0
770,498,0,0,0,0,0,0,0,0,0,-1,1994,526,0,0
777,498,0,0,0,0,0,0,0,0,0,-1,2001,526,0,0
784,498,0,0,0,0,0,0,0,0,0,-1,2008,526,0,0
791,498,0,0,0,0,0,0,0,0,0,-1,2015,526,0,0
798,498,0,0,0,0,0,0,0,0,0,-1,2022,526,0,0
805,498,0,0,0,0,0,0,0,0,0,-1,2029,526,0,0
812,498,0,0,0,0,0,0,0,0,0,-1,2036,526,0,0
-700,491,0,0,0,0,0,0,0,0,0,-1,524,533,0,0
-693,491,0,0,0,0,0,0,0,0,0,-1,531,533,0,0
-686,491,0,0,0,0,0,0,0,0,0,-1,538,533,0,0
-679,491,0,0,0,0,0,0,0,0,0,-1,545,533,0,0
-672,491,0,0,0,0,0,0,0,0,0,-1,552,533,0,0
-665,491,0,0,0,0,0,0,0,0,0,-1,559,533,0,0
-658,491,0,0,0,0,0,0,0,0,0,-1,566,533,0,0
-651,491,0,0,0,0,0,0,0,0,0,-1,573,533,0,0
-644,491,0,0,0,0,0,0,0,0,0,-1,580,533,0,0
-637,491,0,0,0,0,0,0,0,0,0,-1,587,533,0,0
-630,491,0,0,0,0,0,0,0,0,0,-1,594,533,0,0
-623,491,0,0,0,0,0,0,0,0,0,-1,601,533,0,0
-616,491,0,0,0,0,0,0,0,0,0,-1,608,533,0,0
-609,491,0,0,0,0,0,0,0,0,0,-1,615,533,0,0
-602,491,0,0,0,0,0,0,0,0,0,-1,622,533,0,0
-595,491,0,0,0,0,0,0,0,0,0,-1,629,533,0,0
-588,491,0,0,0,0,0,0,0,0,0,-1,636,533,0,0
-581,491,0,0,0,0,0,0,0,0,0,-1,643,533,0,0
-574,491,0,0,0,0,0,0,0,0,0,-1,650,533,0,0
-567,491,0,0,0,0,0,0,0,0,0,-1,657,533,0,0
-560,491,0,0,0,0,0,0,0,0,0,-1,664,533,0,0
-553,491,0,0,0,0,0,0,0,0,0,-1,671,533,0,0
-546,491,0,0,0,0,0,0,0,0,0,-1,678,533,0,0
-539,491,0,0,0,0,0,0,0,0,0,-1,685,533,0,0
-532,491,0,0,0,0,0,0,0,0,0,-1,692,533,0,0
-525,491,0,0,0,0,0,0,0,0,0,-1,699,533,0,0
-518,491,0,0,0,0,0,0,0,0,0,-1,706,533,0,0
-511,491,0,0,0,0,0,0,0,0,0,-1,713,533,0,0
-504,491,0,0,0,0,0,0,0,0,0,-1,720,533,0,0
-497,491,0,0,0,0,0,0,0,0,0,-1,727,533,0,0
-490,491,0,0,0,0,0,0,0,0,0,-1,734,533,0,0
-483,491,0,0,0,0,0,0,0,0,0,-1,741,533,0,0
-476,491,0,0,0,0,0,0,0,0,0,-1,748,533,0,0
-469,491,-5.85913,4.55011,0,0,0,0,0,0,0,-1,755,533,-5.8591,-4.55009
-462,491,-9.93713,4.90381,0,0,0,0,0,0,0,-1,762,533,-9.93716,-4.9038
-455,491,1.9494,-0.27887,0,0,0,0,0,0,0,-1,769,533,1.94941,0.27885
-448,491,2.68909,-1.8999,0,0,0,0,0,0,0,-1,776,533,2.6891,1.89988
-441,491,3.46069,-3.51855,0,0,0,0,0,0,0,-1,783,533,3.46071,3.51854
-434,491,2.67145,-7.44061,0,0,0,0,0,0,0,-1,790,533,2.67146,7.44061
-427,491,2.27136,-8.34546,0,0,0,0,0,0,0,-1,797,533,2.27136,8.34546
-420,491,-6.32684,-22.1337,0,0,0,0,0,0,0,-1,804,533,-6.32687,22.1337
-413,491,-5.77716,-23.4683,0,0,0,0,0,0,0,-1,811,533,-5.77717,23.4683
-406,491,-5.75592,-24.6576,0.00102583,0.0147628,-0.007418,0.0180038,-0.00221523,-1.15887,0.012805,0.0309086,818,533,-5.7559,24.6576
-399,491,-5.81165,-25.6765,0.00117143,0.0126357,-0.00684666,0.015833,-0.00202582,-1.13391,0.0112914,0.0156683,825,533,-5.81166,25.6765
-392,491,-5.94714,-26.6227,0.00140927,0.010644,-0.00620485,0.013761,-0.00170772,-1.10527,0.00979297,0.0120407,832,533,-5.94715,26.6227
-385,491,-6.00262,-27.5405,0.00167554,0.00876732,-0.005451,0.0117243,-0.00128139,-1.07376,0.00827643,0.00954215,839,533,-6.00261,27.5405
-378,491,-6.02637,-28.4615,0.00187551,0.00695595,-0.00459546,0.00966654,-0.000835079,-1.03788,0.00673998,0.0139597,846,533,-6.02637,28.4615
-371,491,-6.08496,-29.3886,0.00194481,0.00510092,-0.00370506,0.00755,-0.00050426,-0.986722,0.00520956,0.0151961,853,533,-6.08494,29.3886
-364,491,-6.16516,-30.3455,0.00193339,0.00318098,-0.00266016,0.00528951,-0.000175131,-0.900565,0.00358614,0.0137554,860,533,-6.16516,30.3455
-357,491,-6.20526,-31.2481,0.00193645,0.00148469,-0.00161298,0.00333928,8.1848e-05,-0.715831,0.00219941,0.0126997,867,533,-6.20526,31.2481
-350,491,-6.24939,-32.1097,0.00200552,1.57232e-05,-0.000712109,0.00223411,-0.000212866,-0.310613,0.00156519,0.0150762,874,533,-6.24938,32.1097
-343,491,-6.27844,-33.0629,0.00203696,-0.00145946,0.000167459,0.00204496,-0.00146746,0.0477487,0.00203702,0.0280455,881,533,-6.27844,33.0628
-336,491,-6.34692,-34.0063,0.00206795,-0.0027794,0.000953194,0.00224865,-0.00296011,0.187352,0.00301661,0.029406,888,533,-6.3469,34.0063
-329,491,-6.39679,-34.8349,0.00216783,-0.00388081,0.00165578,0.00259142,-0.0043044,0.250456,0.00402205,0.0275416,895,533,-6.39678,34.8349
-322,491,-6.47119,-35.7328,0.00258372,-0.00446053,0.00201755,0.00312064,-0.00499745,0.260097,0.00472855,0.0236336,902,533,-6.47117,35.7328
-315,491,-6.56287,-36.5643,0.00329662,-0.00458037,0.00198421,0.00376821,-0.00505196,0.233341,0.00511028,0.0223055,909,533,-6.56287,36.5643
-308,491,-6.58185,-37.5554,0,0,0,0,0,0,0,-1,916,533,-6.58188,37.5554
-301,491,-6.54926,-39.0012,0,0,0,0,0,0,0,-1,923,533,-6.54927,39.0012
-294,491,-0.777283,-8.60913,0,0,0,0,0,0,0,-1,930,533,-0.777288,8.6091
-287,491,-0.26123,-8.69055,0,0,0,0,0,0,0,-1,937,533,-0.261204,8.69053
-280,491,0.2948,-5.99219,0,0,0,0,0,0,0,-1,944,533,0.294811,5.99221
-273,491,0.369995,-5.33691,0,0,0,0,0,0,0,-1,951,533,0.369985,5.33693
-266,491,1.1167,-5.0321,0,0,0,0,0,0,0,-1,958,533,1.11668,5.0321
-259,491,12.0862,-16.9615,0,0,0,0,0,0,0,-1,965,533,12.0862,16.9615
-252,491,9.72443,-13.8417,0,0,0,0,0,0,0,-1,972,533,9.72444,13.8418
-245,491,5.27258,-14.3619,0,0,0,0,0,0,0,-1,979,533,5.27255,14.3619
-238,491,3.65381,-11.1472,0,0,0,0,0,0,0,-1,986,533,3.6538,11.1472
-231,491,2.17719,-7.86835,0,0,0,0,0,0,0,-1,993,533,2.17719,7.86832
-224,491,0.554626,-4.61725,0,0,0,0,0,0,0,-1,1000,533,0.554608,4.61727
-217,491,-2.92743,-1.0766,0,0,0,0,0,0,0,-1,1007,533,-2.92743,1.07659
-210,491,-0.92395,0.374512,0,0,0,0,0,0,0,-1,1014,533,-0.923959,-0.374531
-203,491,0.417419,4.77161,0,0,0,0,0,0,0,-1,1021,533,0.417446,-4.77162
-196,491,0,0,0,0,0,0,0,0,0,-1,1028,533,0,0
-189,491,0,0,0,0,0,0,0,0,0,-1,1035,533,0,0
-182,491,0,0,0,0,0,0,0,0,0,-1,1042,533,0,0
-175,491,0,0,0,0,0,0,0,0,0,-1,1049,533,0,0
-168,491,0,0,0,0,0,0,0,0,0,-1,1056,533,0,0
-161,491,0,0,0,0,0,0,0,0,0,-1,1063,533,0,0
-154,491,0,0,0,0,0,0,0,0,0,-1,1070,533,0,0
-147,491,0,0,0,0,0,0,0,0,0,-1,1077,533,0,0
-140,491,0,0,0,0,0,0,0,0,0,-1,1084,533,0,0
-133,491,0,0,0,0,0,0,0,0,0,-1,1091,533,0,0
-126,491,0,0,0,0,0,0,0,0,0,-1,1098,533,0,0
-119,491,0,0,0,0,0,0,0,0,0,-1,1105,533,0,0
-112,491,0,0,0,0,0,0,0,0,0,-1,1112,533,0,0
-105,491,0,0,0,0,0,0,0,0,0,-1,1119,533,0,0
-98,491,0,0,0,0,0,0,0,0,0,-1,1126,533,0,0
-91,491,0,0,0,0,0,0,0,0,0,-1,1133,533,0,0
-84,491,0,0,0,0,0,0,0,0,0,-1,1140,533,0,0
-77,491,0,0,0,0,0,0,0,0,0,-1,1147,533,0,0
-70,491,0,0,0,0,0,0,0,0,0,-1,1154,533,0,0
-63,491,0,0,0,0,0,0,0,0,0,-1,1161,533,0,0
-56,491,0,0,0,0,0,0,0,0,0,-1,1168,533,0,0
-49,491,0,0,0,0,0,0,0,0,0,-1,1175,533,0,0
-42,491,0,0,0,0,0,0,0,0,0,-1,1182,533,0,0
-35,491,0,0,0,0,0,0,0,0,0,-1,1189,533,0,0
-28,491,0,0,0,0,0,0,0,0,0,-1,1196,533,0,0
-21,491,0,0,0,0,0,0,0,0,0,-1,1203,533,0,0
-14,491,0,0,0,0,0,0,0,0,0,-1,1210,533,0,0
-7,491,0,0,0,0,0,0,0,0,0,-1,1217,533,0,0
0,491,0,0,0,0,0,0,0,0,0,-1,1224,533,0,0
7,491,0,0,0,0,0,0,0,0,0,-1,1231,533,0,0
14,491,0,0,0,0,0,0,0,0,0,-1,1238,533,0,0
21,491,0,0,0,0,0,0,0,0,0,-1,1245,533,0,0
28,491,0,0,0,0,0,0,0,0,0,-1,1252,533,0,0
35,491,0,0,0,0,0,0,0,0,0,-1,1259,533,0,0
42,491,0,0,0,0,0,0,0,0,0,-1,1266,533,0,0
49,491,0,0,0,0,0,0,0,0,0,-1,1273,533,0,0
56,491,0,0,0,0,0,0,0,0,0,-1,1280,533,0,0
63,491,0,0,0,0,0,0,0,0,0,-1,1287,533,0,0
70,491,0,0,0,0,0,0,0,0,0,-1,1294,533,0,0
77,491,0,0,0,0,0,0,0,0,0,-1,1301,533,0,0
84,491,0,0,0,0,0,0,0,0,0,-1,1308,533,0,0
91,491,0,0,0,0,0,0,0,0,0,-1,1315,533,0,0
98,491,0,0,0,0,0,0,0,0,0,-1,1322,533,0,0
105,491,0,0,0,0,0,0,0,0,0,-1,1329,533,0,0
112,491,0,0,0,0,0,0,0,0,0,-1,1336,533,0,0
119,491,0,0,0,0,0,0,0,0,0,-1,1343,533,0,0
126,491,0,0,0,0,0,0,0,0,0,-1,1350,533,0,0
133,491,0,0,0,0,0,0,0,0,0,-1,1357,533,0,0
140,491,0,0,0,0,0,0,0,0,0,-1,1364,533,0,0
147,491,0,0,0,0,0,0,0,0,0,-1,1371,533,0,0
154,491,0,0,0,0,0,0,0,0,0,-1,1378,533,0,0
161,491,0,0,0,0,0,0,0,0,0,-1,1385,533,0,0
168,491,0,0,0,0,0,0,0,0,0,-1,1392,533,0,0
175,491,0,0,0,0,0,0,0,0,0,-1,1399,533,0,0
182,491,0,0,0,0,0,0,0,0,0,-1,1406,533,0,0
189,491,0,0,0,0,0,0,0,0,0,-1,1413,533,0,0
196,491,0,0,0,0,0,0,0,0,0,-1,1420,533,0,0
203,491,0,0,0,0,0,0,0,0,0,-1,1427,533,0,0
210,491,0,0,0,0,0,0,0,0,0,-1,1434,533,0,0
217,491,0,0,0,0,0,0,0,0,0,-1,1441,533,0,0
224,491,0,0,0,0,0,0,0,0,0,-1,1448,533,0,0
231,491,0,0,0,0,0,0,0,0,0,-1,1455,533,0,0
238,491,0,0,0,0,0,0,0,0,0,-1,1462,533,0,0
245,491,0,0,0,0,0,0,0,0,0,-1,1469,533,0,0
252,491,0,0,0,0,0,0,0,0,0,-1,1476,533,0,0
259,491,0,0,0,0,0,0,0,0,0,-1,1483,533,0,0
266,491,0,0,0,0,0,0,0,0,0,-1,1490,533,0,0
273,491,0,0,0,0,0,0,0,0,0,-1,1497,533,0,0
280,491,0,0,0,0,0,0,0,0,0,-1,1504,533,0,0
287,491,0,0,0,0,0,0,0,0,0,-1,1511,533,0,0
294,491,0,0,0,0,0,0,0,0,0,-1,1518,533,0,0
301,491,0,0,0,0,0,0,0,0,0,-1,1525,533,0,0
308,491,0,0,0,0,0,0,0,0,0,-1,1532,533,0,0
315,491,0,0,0,0,0,0,0,0,0,-1,1539,533,0,0
322,491,4.26331,-0.734314,0,0,0,0,0,0,0,-1,1546,533,4.26326,0.734324
329,491,4.25354,-0.783752,0,0,0,0,0,0,0,-1,1553,533,4.25359,0.783734
336,491,4.81604,-0.722107,0,0,0,0,0,0,0,-1,1560,533,4.81605,0.722115
343,491,6.14478,-1.44281,0,0,0,0,0,0,0,-1,1567,533,6.14474,1.44281
350,491,6.36353,-1.30792,0,0,0,0,0,0,0,-1,1574,533,6.36352,1.3079
357,491,6.69482,-1.06018,0,0,0,0,0,0,0,-1,1581,533,6.69489,1.06018
364,491,8.01086,-1.69604,0,0,0,0,0,0,0,-1,1588,533,8.01087,1.69607
371,491,8.2135,-0.539307,0,0,0,0,0,0,0,-1,1595,533,8.21348,0.53929
378,491,13.3589,2.17267,0,0,0,0,0,0,0,-1,1602,533,13.3589,-2.17264
385,491,8.08228,-4.95471,0,0,0,0,0,0,0,-1,1609,533,8.08227,4.95474
392,491,2.88721,-4.30988,0,0,0,0,0,0,0,-1,1616,533,2.88716,4.30986
399,491,8.95862,-8.55518,0,0,0,0,0,0,0,-1,1623,533,8.95864,8.55516
406,491,8.16541,-9.00806,0,0,0,0,0,0,0,-1,1630,533,8.16535,9.00807
413,491,5.31848,-3.7124,0,0,0,0,0,0,0,-1,1637,533,5.31849,3.7124
420,491,4.86389,-3.95892,0,0,0,0,0,0,0,-1,1644,533,4.86387,3.95893
427,491,11.5096,-15.2742,0,0,0,0,0,0,0,-1,1651,533,11.5096,15.2742
434,491,22.2327,-37.3129,0,0,0,0,0,0,0,-1,1658,533,22.2327,37.3129
441,491,22.3862,-36.0093,0.00296691,0.000437289,-0.00145818,0.0036324,-0.000228194,-0.428146,0.00250113,0.0416072,1665,533,22.3863,36.0093
448,491,22.3563,-35.4023,0.00245241,0.000525266,-0.00129598,0.00310378,-0.000126099,-0.46573,0.00211247,0.0240934,1672,533,22.3563,35.4024
455,491,22.2876,-34.4661,0.0020916,0.000563444,-0.00117236,0.00272689,-7.18484e-05,-0.496598,0.00184234,0.0164519,1679,533,22.2876,34.4661
462,491,22.261,-33.575,0.00172014,0.000641313,-0.00095146,0.00227445,8.69965e-05,-0.527524,0.00148815,0.0160051,1686,533,22.261,33.575
469,491,22.1803,-32.7063,0.001417,0.000820538,-0.000591407,0.00178112,0.000456422,-0.551867,0.00106828,0.0153734,1693,533,22.1803,32.7063
476,491,22.1798,-31.7945,0.00137191,0.00105272,-0.000176867,0.00145054,0.000974091,-0.418346,0.000853742,0.0120616,1700,533,22.1798,31.7945
483,491,22.1232,-30.847,0.0013874,0.0012486,0.000215114,0.00154403,0.00109197,0.629355,0.000916612,0.0130797,1707,533,22.1231,30.847
490,491,22.0637,-29.9617,0.00123493,0.00144552,0.000465935,0.00181791,0.00086254,0.896523,0.00105003,0.0116676,1714,533,22.0638,29.9617
497,491,22.0059,-29.0281,0.00118107,0.00173913,0.000786172,0.00229432,0.00062588,0.955927,0.00136946,0.0131918,1721,533,22.0059,29.0281
504,491,21.9796,-28.0664,0.00120796,0.00167285,0.000983008,0.00245052,0.000430287,0.901498,0.00151082,0.0137423,1728,533,21.9796,28.0664
511,491,21.8976,-27.1271,0.00105125,0.00160658,0.0010485,0.00241356,0.000244276,0.914836,0.00153411,0.0129011,1735,533,21.8976,27.1271
518,491,21.8218,-26.2071,0.000652616,0.00145432,0.000919244,0.00205631,5.06267e-05,0.991002,0.00135431,0.0112865,1742,533,21.8218,26.2071
525,491,21.7771,-25.2637,0.000132354,0.00116893,0.000677485,0.00150364,-0.000202357,1.11192,0.00107624,0.0124213,1749,533,21.777,25.2636
532,491,21.7343,-24.3485,-0.000578944,0.000823343,0.000338317,0.000900699,-0.000656299,1.34601,0.000902617,0.0294629,1756,533,21.7343,24.3485
539,491,21.4736,-23.5563,-0.00160033,0.000499949,-0.000268526,0.000533737,-0.00163412,-1.44563,0.00130425,0.0477048,1763,533,21.4736,23.5563
546,491,20.9723,-22.4818,0,0,0,0,0,0,0,-1,1770,533,20.9723,22.4818
553,491,10.5021,-7.77869,0,0,0,0,0,0,0,-1,1777,533,10.502,7.77871
560,491,6.28455,-1.43585,0,0,0,0,0,0,0,-1,1784,533,6.28458,1.43586
567,491,5.67651,-1.3562,0,0,0,0,0,0,0,-1,1791,533,5.67649,1.3562
574,491,8.0719,1.58325,0,0,0,0,0,0,0,-1,1798,533,8.07195,-1.58326
581,491,9.44812,1.60931,0,0,0,0,0,0,0,-1,1805,533,9.44808,-1.60933
588,491,11.0497,1.54962,0,0,0,0,0,0,0,-1,1812,533,11.0496,-1.54963
595,491,0,0,0,0,0,0,0,0,0,-1,1819,533,0,0
602,491,0,0,0,0,0,0,0,0,0,-1,1826,533,0,0
609,491,0,0,0,0,0,0,0,0,0,-1,1833,533,0,0
616,491,0,0,0,0,0,0,0,0,0,-1,1840,533,0,0
623,491,0,0,0,0,0,0,0,0,0,-1,1847,533,0,0
630,491,0,0,0,0,0,0,0,0,0,-1,1854,533,0,0
637,491,0,0,0,0,0,0,0,0,0,-1,1861,533,0,0
644,491,0,0,0,0,0,0,0,0,0,-1,1868,533,0,0
651,491,0,0,0,0,0,0,0,0,0,-1,1875,533,0,0
658,491,0,0,0,0,0,0,0,0,0,-1,1882,533,0,0
665,491,0,0,0,0,0,0,0,0,0,-1,1889,533,0,0
672,491,0,0,0,0,0,0,0,0,0,-1,1896,533,0,0
679,491,0,0,0,0,0,0,0,0,0,-1,1903,533,0,0
686,491,0,0,0,0,0,0,0,0,0,-1,1910,533,0,0
693,491,0,0,0,0,0,0,0,0,0,-1,1917,533,0,0
700,491,0,0,0,0,0,0,0,0,0,-1,1924,533,0,0
707,491,0,0,0,0,0,0,0,0,0,-1,1931,533,0,0
714,491,0,0,0,0,0,0,0,0,0,-1,1938,533,0,0
721,491,0,0,0,0,0,0,0,0,0,-1,1945,533,0,0
728,491,0,0,0,0,0,0,0,0,0,-1,1952,533,0,0
735,491,0,0,0,0,0,0,0,0,0,-1,1959,533,0,0
742,491,0,0,0,0,0,0,0,0,0,-1,1966,533,0,0
749,491,0,0,0,0,0,0,0,0,0,-1,1973,533,0,0
756,491,0,0,0,0,0,0,0,0,0,-1,1980,533,0,0
763,491,0,0,0,0,0,0,0,0,0,-1,1987,533,0,0
770,491,0,0,0,0,0,0,0,0,0,-1,1994,533,0,0
777,491,0,0,0,0,0,0,0,0,0,-1,2001,533,0,0
784,491,0,0,0,0,0,0,0,0,0,-1,2008,533,0,0
791,491,0,0,0,0,0,0,0,0,0,-1,2015,533,0,0
798,491,0,0,0,0,0,0,0,0,0,-1,2022,533,0,0
805,491,0,0,0,0,0,0,0,0,0,-1,2029,533,0,0
812,491,0,0,0,0,0,0,0,0,0,-1,2036,533,0,0
-700,484,0,0,0,0,0,0,0,0,0,-1,524,540,0,0
-693,484,0,0,0,0,0,0,0,0,0,-1,531,540,0,0
-686,484,0,0,0,0,0,0,0,0,0,-1,538,540,0,0
-679,484,0,0,0,0,0,0,0,0,0,-1,545,540,0,0
-672,484,0,0,0,0,0,0,0,0,0,-1,552,540,0,0
-665,484,0,0,0,0,0,0,0,0,0,-1,559,540,0,0
-658,484,0,0,0,0,0,0,0,0,0,-1,566,540,0,0
-651,484,0,0,0,0,0,0,0,0,0,-1,573,540,0,0
-644,484,0,0,0,0,0,0,0,0,0,-1,580,540,0,0
-637,484,0,0,0,0,0,0,0,0,0,-1,587,540,0,0
-630,484,0,0,0,0,0,0,0,0,0,-1,594,540,0,0
-623,484,0,0,0,0,0,0,0,0,0,-1,601,540,0,0
-616,484,0,0,0,0,0,0,0,0,0,-1,608,540,0,0
-609,484,0,0,0,0,0,0,0,0,0,-1,615,540,0,0
-602,484,0,0,0,0,0,0,0,0,0,-1,622,540,0,0
-595,484,0,0,0,0,0,0,0,0,0,-1,629,540,0,0
-588,484,0,0,0,0,0,0,0,0,0,-1,636,540,0,0
-581,484,0,0,0,0,0,0,0,0,0,-1,643,540,0,0
-574,484,0,0,0,0,0,0,0,0,0,-1,650,540,0,0
-567,484,0,0,0,0,0,0,0,0,0,-1,657,540,0,0
-560,484,0,0,0,0,0,0,0,0,0,-1,664,540,0,0
-553,484,0,0,0,0,0,0,0,0,0,-1,671,540,0,0
-546,484,0,0,0,0,0,0,0,0,0,-1,678,540,0,0
-539,484,0,0,0,0,0,0,0,0,0,-1,685,540,0,0
-532,484,0,0,0,0,0,0,0,0,0,-1,692,540,0,0
-525,484,0,0,0,0,0,0,0,0,0,-1,699,540,0,0
-518,484,0,0,0,0,0,0,0,0,0,-1,706,540,0,0
-511,484,0,0,0,0,0,0,0,0,0,-1,713,540,0,0
-504,484,0,0,0,0,0,0,0,0,0,-1,720,540,0,0
-497,484,0,0,0,0,0,0,0,0,0,-1,727,540,0,0
-490,484,0,0,0,0,0,0,0,0,0,-1,734,540,0,0
-483,484,0,0,0,0,0,0,0,0,0,-1,741,540,0,0
-476,484,-8.46552,1.44702,0,0,0,0,0,0,0,-1,748,540,-8.46554,-1.44702
-469,484,-7.82343,1.70355,0,0,0,0,0,0,0,-1,755,540,-7.82345,-1.70355
-462,484,-8.36987,3.08612,0,0,0,0,0,0,0,-1,762,540,-8.36988,-3.0861
-455,484,-6.77197,2.07092,0,0,0,0,0,0,0,-1,769,540,-6.77197,-2.07094
-448,484,3.54895,-1.40106,0,0,0,0,0,0,0,-1,776,540,3.54897,1.40106
-441,484,4.28906,-3.05884,0,0,0,0,0,0,0,-1,783,540,4.28905,3.05883
-434,484,-2.17548,-5.07245,0,0,0,0,0,0,0,-1,790,540,-2.17546,5.07243
-427,484,-6.56097,-21.1171,0,0,0,0,0,0,0,-1,797,540,-6.56099,21.1171
-420,484,-6.39746,-22.3431,0,0,0,0,0,0,0,-1,804,540,-6.39747,22.3431
-413,484,-6.51135,-23.4875,0.000404079,0.0128146,-0.00560116,0.0149686,-0.00174999,-1.20366,0.0106106,0.0366055,811,540,-6.51134,23.4876
-406,484,-6.64685,-24.5975,0.000639893,0.010931,-0.00535174,0.0132096,-0.00163869,-1.16828,0.00940035,0.0203193,818,540,-6.64686,24.5975
-399,484,-6.78833,-25.5898,0.00078162,0.00904719,-0.00484181,0.0112802,-0.00145137,-1.13868,0.00804765,0.0181348,825,540,-6.78832,25.5898
-392,484,-6.86041,-26.5297,0.00103492,0.00729843,-0.00428675,0.00947554,-0.0011422,-1.10087,0.00673015,0.0200131,832,540,-6.86041,26.5297
-385,484,-6.9328,-27.4858,0.00135749,0.00568366,-0.00366007,0.00777205,-0.0007309,-1.05228,0.00544139,0.0135349,839,540,-6.93281,27.4858
-378,484,-6.98981,-28.4302,0.0016086,0.00409034,-0.00291809,0.00602043,-0.000321493,-0.986433,0.00412496,0.0151653,846,540,-6.98981,28.4302
-371,484,-7.04333,-29.3411,0.0017474,0.00248867,-0.00214886,0.00429862,-6.25565e-05,-0.870798,0.00288682,0.017681,853,540,-7.04334,29.3411
-364,484,-7.1037,-30.2479,0.00180911,0.000860875,-0.00124897,0.00267092,-9.43663e-07,-0.603998,0.00178093,0.0126011,860,540,-7.10373,30.2479
-357,484,-7.15094,-31.1522,0.0018957,-0.000547668,-0.000366389,0.00194946,-0.000601426,-0.145685,0.00153978,0.0132089,867,540,-7.15095,31.1522
-350,484,-7.19446,-32.0331,0.00205543,-0.00172721,0.00035492,0.00208844,-0.00176022,0.0927499,0.00222472,0.0154937,874,540,-7.19445,32.0332
-343,484,-7.22546,-32.9559,0.00213101,-0.00286337,0.00106859,0.00235004,-0.0030824,0.202169,0.0031459,0.0223261,881,540,-7.22545,32.9559
-336,484,-7.26263,-33.8707,0.00219529,-0.00390117,0.00170066,0.00263761,-0.00434349,0.254451,0.00407046,0.0257981,888,540,-7.26265,33.8707
-329,484,-7.30707,-34.6953,0.00234955,-0.00477189,0.00226758,0.00301028,-0.00543262,0.283531,0.00494093,0.0366695,895,540,-7.30709,34.6953
-322,484,-7.31403,-35.6453,0,0,0,0,0,0,0,-1,902,540,-7.31401,35.6453
-315,484,-7.2677,-36.5834,0,0,0,0,0,0,0,-1,909,540,-7.2677,36.5834
-308,484,-1.32623,-8.9317,0,0,0,0,0,0,0,-1,916,540,-1.32626,8.93173
-301,484,-1.33453,-6.52667,0,0,0,0,0,0,0,-1,923,540,-1.33454,6.5267
-294,484,-1.61224,-8.17059,0,0,0,0,0,0,0,-1,930,540,-1.61227,8.17058
-287,484,-0.715759,-5.62103,0,0,0,0,0,0,0,-1,937,540,-0.715772,5.62105
-280,484,2.66742,-1.6795,0,0,0,0,0,0,0,-1,944,540,2.6674,1.67949
-273,484,2.53125,-2.22296,0,0,0,0,0,0,0,-1,951,540,2.53128,2.22295
-266,484,2.6778,-2.72058,0,0,0,0,0,0,0,-1,958,540,2.6778,2.72061
-259,484,2.41718,-2.59894,0,0,0,0,0,0,0,-1,965,540,2.41717,2.59892
-252,484,10.6069,-11.696,0,0,0,0,0,0,0,-1,972,540,10.6069,11.696
-245,484,6.34106,-11.6107,0,0,0,0,0,0,0,-1,979,540,6.34104,11.6107
-238,484,4.89319,-8.54059,0,0,0,0,0,0,0,-1,986,540,4.89321,8.5406
-231,484,3.47675,-5.22064,0,0,0,0,0,0,0,-1,993,540,3.47676,5.22067
-224,484,1.71344,-2.03473,0,0,0,0,0,0,0,-1,1000,540,1.71342,2.03472
-217,484,-0.745056,1.17358,0,0,0,0,0,0,0,-1,1007,540,-0.745043,-1.17359
-210,484,0,0,0,0,0,0,0,0,0,-1,1014,540,0,0
-203,484,0,0,0,0,0,0,0,0,0,-1,1021,540,0,0
-196,484,0,0,0,0,0,0,0,0,0,-1,1028,540,0,0
-189,484,0,0,0,0,0,0,0,0,0,-1,1035,540,0,0
-182,484,0,0,0,0,0,0,0,0,0,-1,1042,540,0,0
-175,484,0,0,0,0,0,0,0,0,0,-1,1049,540,0,0
-168,484,0,0,0,0,0,0,0,0,0,-1,1056,540,0,0
-161,484,0,0,0,0,0,0,0,0,0,-1,1063,540,0,0
-154,484,0,0,0,0,0,0,0,0,0,-1,1070,540,0,0
-147,484,0,0,0,0,0,0,0,0,0,-1,1077,540,0,0
-140,484,0,0,0,0,0,0,0,0,0,-1,1084,540,0,0
-133,484,0,0,0,0,0,0,0,0,0,-1,1091,540,0,0
-126,484,0,0,0,0,0,0,0,0,0,-1,1098,540,0,0
-119,484,0,0,0,0,0,0,0,0,0,-1,1105,540,0,0
-112,484,0,0,0,0,0,0,0,0,0,-1,1112,540,0,0
-105,484,0,0,0,0,0,0,0,0,0,-1,1119,540,0,0
-98,484,0,0,0,0,0,0,0,0,0,-1,1126,540,0,0
-91,484,0,0,0,0,0,0,0,0,0,-1,1133,540,0,0
-84,484,0,0,0,0,0,0,0,0,0,-1,1140,540,0,0
-77,484,0,0,0,0,0,0,0,0,0,-1,1147,540,0,0
-70,484,0,0,0,0,0,0,0,0,0,-1,1154,540,0,0
-63,484,0,0,0,0,0,0,0,0,0,-1,1161,540,0,0
-56,484,0,0,0,0,0,0,0,0,0,-1,1168,540,0,0
-49,484,0,0,0,0,0,0,0,0,0,-1,1175,540,0,0
-42,484,0,0,0,0,0,0,0,0,0,-1,1182,540,0,0
-35,484,0,0,0,0,0,0,0,0,0,-1,1189,540,0,0
-28,484,0,0,0,0,0,0,0,0,0,-1,1196,540,0,0
-21,484,0,0,0,0,0,0,0,0,0,-1,1203,540,0,0
-14,484,0,0,0,0,0,0,0,0,0,-1,1210,540,0,0
-7,484,0,0,0,0,0,0,0,0,0,-1,1217,540,0,0
0,484,0,0,0,0,0,0,0,0,0,-1,1224,540,0,0
7,484,0,0,0,0,0,0,0,0,0,-1,1231,540,0,0
14,484,0,0,0,0,0,0,0,0,0,-1,1238,540,0,0
21,484,0,0,0,0,0,0,0,0,0,-1,1245,540,0,0
28,484,0,0,0,0,0,0,0,0,0,-1,1252,540,0,0
35,484,0,0,0,0,0,0,0,0,0,-1,1259,540,0,0
42,484,0,0,0,0,0,0,0,0,0,-1,1266,540,0,0
49,484,0,0,0,0,0,0,0,0,0,-1,1273,540,0,0
56,484,0,0,0,0,0,0,0,0,0,-1,1280,540,0,0
63,484,0,0,0,0,0,0,0,0,0,-1,1287,540,0,0
70,484,0,0,0,0,0,0,0,0,0,-1,1294,540,0,0
77,484,0,0,0,0,0,0,0,0,0,-1,1301,540,0,0
84,484,0,0,0,0,0,0,0,0,0,-1,1308,540,0,0
91,484,0,0,0,0,0,0,0,0,0,-1,1315,540,0,0
98,484,0,0,0,0,0,0,0,0,0,-1,1322,540,0,0
105,484,0,0,0,0,0,0,0,0,0,-1,1329,540,0,0
112,484,0,0,0,0,0,0,0,0,0,-1,1336,540,0,0
119,484,0,0,0,0,0,0,0,0,0,-1,1343,540,0,0
126,484,0,0,0,0,0,0,0,0,0,-1,1350,540,0,0
133,484,0,0,0,0,0,0,0,0,0,-1,1357,540,0,0
140,484,0,0,0,0,0,0,0,0,0,-1,1364,540,0,0
147,484,0,0,0,0,0,0,0,0,0,-1,1371,540,0,0
154,484,0,0,0,0,0,0,0,0,0,-1,1378,540,0,0
161,484,0,0,0,0,0,0,0,0,0,-1,1385,540,0,0
168,484,0,0,0,0,0,0,0,0,0,-1,1392,540,0,0
175,484,0,0,0,0,0,0,0,0,0,-1,1399,540,0,0
182,484,0,0,0,0,0,0,0,0,0,-1,1406,540,0,0
189,484,0,0,0,0,0,0,0,0,0,-1,1413,540,0,0
196,484,0,0,0,0,0,0,0,0,0,-1,1420,540,0,0
203,484,0,0,0,0,0,0,0,0,0,-1,1427,540,0,0
210,484,0,0,0,0,0,0,0,0,0,-1,1434,540,0,0
217,484,0,0,0,0,0,0,0,0,0,-1,1441,540,0,0
224,484,0,0,0,0,0,0,0,0,0,-1,1448,540,0,0
231,484,0,0,0,0,0,0,0,0,0,-1,1455,540,0,0
238,484,0,0,0,0,0,0,0,0,0,-1,1462,540,0,0
245,484,0,0,0,0,0,0,0,0,0,-1,1469,540,0,0
252,484,0,0,0,0,0,0,0,0,0,-1,1476,540,0,0
259,484,0,0,0,0,0,0,0,0,0,-1,1483,540,0,0
266,484,0,0,0,0,0,0,0,0,0,-1,1490,540,0,0
273,484,0,0,0,0,0,0,0,0,0,-1,1497,540,0,0
280,484,0,0,0,0,0,0,0,0,0,-1,1504,540,0,0
287,484,0,0,0,0,0,0,0,0,0,-1,1511,540,0,0
294,484,0,0,0,0,0,0,0,0,0,-1,1518,540,0,0
301,484,0,0,0,0,0,0,0,0,0,-1,1525,540,0,0
308,484,0,0,0,0,0,0,0,0,0,-1,1532,540,0,0
315,484,0,0,0,0,0,0,0,0,0,-1,1539,540,0,0
322,484,0,0,0,0,0,0,0,0,0,-1,1546,540,0,0
329,484,0,0,0,0,0,0,0,0,0,-1,1553,540,0,0
336,484,4.38708,-1.64136,0,0,0,0,0,0,0,-1,1560,540,4.38704,1.64138
343,484,7.57996,-1.05457,0,0,0,0,0,0,0,-1,1567,540,7.57995,1.05454
350,484,8.10425,-1.18878,0,0,0,0,0,0,0,-1,1574,540,8.1043,1.18877
357,484,7.74902,-3.80286,0,0,0,0,0,0,0,-1,1581,540,7.74901,3.80287
364,484,6.31262,-3.87213,0,0,0,0,0,0,0,-1,1588,540,6.31263,3.87215
371,484,7.21008,0.973511,0,0,0,0,0,0,0,-1,1595,540,7.21014,-0.973541
378,484,11.0563,1.5014,0,0,0,0,0,0,0,-1,1602,540,11.0563,-1.5014
385,484,14.3469,2.5545,0,0,0,0,0,0,0,-1,1609,540,14.3469,-2.55453
392,484,7.39453,-4.95026,0,0,0,0,0,0,0,-1,1616,540,7.39448,4.95023
399,484,7.14417,-2.5639,0,0,0,0,0,0,0,-1,1623,540,7.14417,2.56391
406,484,7.88953,-2.47321,0,0,0,0,0,0,0,-1,1630,540,7.88954,2.47323
413,484,4.4895,-1.08673,0,0,0,0,0,0,0,-1,1637,540,4.48952,1.08674
420,484,4.50012,-2.11255,0,0,0,0,0,0,0,-1,1644,540,4.50012,2.11256
427,484,5.28601,-3.54053,0,0,0,0,0,0,0,-1,1651,540,5.28599,3.54051
434,484,11.1488,-13.5359,0,0,0,0,0,0,0,-1,1658,540,11.1489,13.5359
441,484,23.178,-35.5971,0,0,0,0,0,0,0,-1,1665,540,23.1779,35.5971
448,484,23.2205,-35.4829,0,0,0,0,0,0,0,-1,1672,540,23.2204,35.4829
455,484,23.2281,-34.4528,0,0,0,0,0,0,0,-1,1679,540,23.2281,34.4528
462,484,23.2052,-33.5175,0.00167967,0.00039711,-0.00183543,0.00298262,-0.000905842,-0.617332,0.00234931,0.0309716,1686,540,23.2051,33.5175
469,484,23.1815,-32.6609,0.00119471,0.000551293,-0.0013332,0.00224446,-0.000498462,-0.667009,0.00168719,0.0194507,1693,540,23.1815,32.6609
476,484,23.0895,-31.6843,0.00114647,0.000752665,-0.000777404,0.00175152,0.000147614,-0.661367,0.00112172,0.0185344,1700,540,23.0894,31.6843
483,484,23.0297,-30.7565,0.00115067,0.000923071,-0.000293579,0.00135174,0.000722008,-0.600498,0.000781032,0.0157316,1707,540,23.0296,30.7565
490,484,22.9905,-29.8943,0.0010105,0.00116761,5.31572e-05,0.0011839,0.0009942,1.27334,0.000734248,0.0151692,1714,540,22.9905,29.8944
497,484,22.9279,-28.9837,0.000930843,0.00150771,0.000480463,0.00177967,0.000658884,1.05573,0.00103896,0.0158257,1721,540,22.9279,28.9837
504,484,22.8798,-28.0393,0.000920453,0.00139684,0.000743889,0.00193974,0.000377552,0.940339,0.00118749,0.0170478,1728,540,22.8798,28.0393
511,484,22.859,-27.1078,0.000735402,0.00131451,0.000872045,0.00194382,0.000106097,0.945692,0.001262,0.0197423,1735,540,22.859,27.1078
518,484,22.7643,-26.174,0.000324321,0.00118005,0.000839795,0.00169469,-0.000190323,1.021,0.00119829,0.0174189,1742,540,22.7642,26.1739
525,484,22.6752,-25.2275,-0.000168416,0.000954892,0.000709583,0.0012982,-0.000511728,1.12017,0.00107735,0.0151903,1749,540,22.6751,25.2275
532,484,22.644,-24.2447,-0.000774127,0.000781786,0.000505195,0.000931428,-0.000923768,1.28282,0.0010711,0.0170164,1756,540,22.644,24.2447
539,484,22.53,-23.2493,-0.00156843,0.000640222,0.000152388,0.000650686,-0.0015789,1.50223,0.00132391,0.042313,1763,540,22.53,23.2493
546,484,22.4172,-22.1135,0,0,0,0,0,0,0,-1,1770,540,22.4173,22.1135
553,484,12.4246,-8.96423,0,0,0,0,0,0,0,-1,1777,540,12.4246,8.96422
560,484,10.0549,-5.47931,0,0,0,0,0,0,0,-1,1784,540,10.055,5.47928
567,484,7.78223,-1.38312,0,0,0,0,0,0,0,-1,1791,540,7.78224,1.38311
574,484,5.74463,1.50922,0,0,0,0,0,0,0,-1,1798,540,5.74463,-1.50924
581,484,10.34,2.9491,0,0,0,0,0,0,0,-1,1805,540,10.34,-2.94912
588,484,10.6669,2.88568,0,0,0,0,0,0,0,-1,1812,540,10.6669,-2.88567
595,484,10.7233,1.04767,0,0,0,0,0,0,0,-1,1819,540,10.7233,-1.04766
602,484,0,0,0,0,0,0,0,0,0,-1,1826,540,0,0
609,484,0,0,0,0,0,0,0,0,0,-1,1833,540,0,0
616,484,0,0,0,0,0,0,0,0,0,-1,1840,540,0,0
623,484,0,0,0,0,0,0,0,0,0,-1,1847,540,0,0
630,484,0,0,0,0,0,0,0,0,0,-1,1854,540,0,0
637,484,0,0,0,0,0,0,0,0,0,-1,1861,540,0,0
644,484,0,0,0,0,0,0,0,0,0,-1,1868,540,0,0
651,484,0,0,0,0,0,0,0,0,0,-1,1875,540,0,0
658,484,0,0,0,0,0,0,0,0,0,-1,1882,540,0,0
665,484,0,0,0,0,0,0,0,0,0,-1,1889,540,0,0
672,484,0,0,0,0,0,0,0,0,0,-1,1896,540,0,0
679,484,0,0,0,0,0,0,0,0,0,-1,1903,540,0,0
686,484,0,0,0,0,0,0,0,0,0,-1,1910,540,0,0
693,484,0,0,0,0,0,0,0,0,0,-1,1917,540,0,0
700,484,0,0,0,0,0,0,0,0,0,-1,1924,540,0,0
707,484,0,0,0,0,0,0,0,0,0,-1,1931,540,0,0
714,484,0,0,0,0,0,0,0,0,0,-1,1938,540,0,0
721,484,0,0,0,0,0,0,0,0,0,-1,1945,540,0,0
728,484,0,0,0,0,0,0,0,0,0,-1,1952,540,0,0
735,484,0,0,0,0,0,0,0,0,0,-1,1959,540,0,0
742,484,0,0,0,0,0,0,0,0,0,-1,1966,540,0,0
749,484,0,0,0,0,0,0,0,0,0,-1,1973,540,0,0
756,484,0,0,0,0,0,0,0,0,0,-1,1980,540,0,0
763,484,0,0,0,0,0,0,0,0,0,-1,1987,540,0,0
770,484,0,0,0,0,0,0,0,0,0,-1,1994,540,0,0
777,484,0,0,0,0,0,0,0,0,0,-1,2001,540,0,0
784,484,0,0,0,0,0,0,0,0,0,-1,2008,540,0,0
791,484,0,0,0,0,0,0,0,0,0,-1,2015,540,0,0
798,484,0,0,0,0,0,0,0,0,0,-1,2022,540,0,0
805,484,0,0,0,0,0,0,0,0,0,-1,2029,540,0,0
812,484,0,0,0,0,0,0,0,0,0,-1,2036,540,0,0
-700,477,0,0,0,0,0,0,0,0,0,-1,524,547,0,0
-693,477,0,0,0,0,0,0,0,0,0,-1,531,547,0,0
-686,477,0,0,0,0,0,0,0,0,0,-1,538,547,0,0
-679,477,0,0,0,0,0,0,0,0,0,-1,545,547,0,0
-672,477,0,0,0,0,0,0,0,0,0,-1,552,547,0,0
-665,477,0,0,0,0,0,0,0,0,0,-1,559,547,0,0
-658,477,0,0,0,0,0,0,0,0,0,-1,566,547,0,0
-651,477,0,0,0,0,0,0,0,0,0,-1,573,547,0,0
-644,477,0,0,0,0,0,0,0,0,0,-1,580,547,0,0
-637,477,0,0,0,0,0,0,0,0,0,-1,587,547,0,0
-630,477,0,0,0,0,0,0,0,0,0,-1,594,547,0,0
-623,477,0,0,0,0,0,0,0,0,0,-1,601,547,0,0
-616,477,0,0,0,0,0,0,0,0,0,-1,608,547,0,0
-609,477,0,0,0,0,0,0,0,0,0,-1,615,547,0,0
-602,477,0,0,0,0,0,0,0,0,0,-1,622,547,0,0
-595,477,0,0,0,0,0,0,0,0,0,-1,629,547,0,0
-588,477,0,0,0,0,0,0,0,0,0,-1,636,547,0,0
-581,477,0,0,0,0,0,0,0,0,0,-1,643,547,0,0
-574,477,0,0,0,0,0,0,0,0,0,-1,650,547,0,0
-567,477,0,0,0,0,0,0,0,0,0,-1,657,547,0,0
-560,477,0,0,0,0,0,0,0,0,0,-1,664,547,0,0
-553,477,0,0,0,0,0,0,0,0,0,-1,671,547,0,0
-546,477,0,0,0,0,0,0,0,0,0,-1,678,547,0,0
-539,477,0,0,0,0,0,0,0,0,0,-1,685,547,0,0
-532,477,0,0,0,0,0,0,0,0,0,-1,692,547,0,0
-525,477,0,0,0,0,0,0,0,0,0,-1,699,547,0,0
-518,477,0,0,0,0,0,0,0,0,0,-1,706,547,0,0
-511,477,0,0,0,0,0,0,0,0,0,-1,713,547,0,0
-504,477,0,0,0,0,0,0,0,0,0,-1,720,547,0,0
-497,477,0,0,0,0,0,0,0,0,0,-1,727,547,0,0
-490,477,0,0,0,0,0,0,0,0,0,-1,734,547,0,0
-483,477,-7.73151,-0.224182,0,0,0,0,0,0,0,-1,741,547,-7.73152,0.224176
-476,477,-6.25806,-0.310547,0,0,0,0,0,0,0,-1,748,547,-6.25804,0.310549
-469,477,-7.26617,0.525085,0,0,0,0,0,0,0,-1,755,547,-7.2662,-0.525111
-462,477,-6.65143,1.06042,0,0,0,0,0,0,0,-1,762,547,-6.65143,-1.06043
-455,477,-5.31757,0.429016,0,0,0,0,0,0,0,-1,769,547,-5.31756,-0.42902
-448,477,-4.0697,0.273376,0,0,0,0,0,0,0,-1,776,547,-4.06971,-0.273363
-441,477,-2.47504,-4.76971,0,0,0,0,0,0,0,-1,783,547,-2.47505,4.76973
-434,477,-7.2229,-20.8539,0,0,0,0,0,0,0,-1,790,547,-7.2229,20.8539
-427,477,-7.4436,-21.4596,-0.000273775,0.0129153,-0.00355557,0.0138127,-0.00117123,-1.32355,0.0096227,0.0482048,797,547,-7.4436,21.4596
-420,477,-7.48248,-22.2363,-9.335e-05,0.0112592,-0.00389104,0.0124648,-0.00129896,-1.27033,0.00877494,0.038849,804,547,-7.4825,22.2363
-413,477,-7.50488,-23.4946,0.000135409,0.00961023,-0.00396497,0.0110505,-0.00130489,-1.22236,0.00783827,0.0225203,811,547,-7.5049,23.4946
-406,477,-7.64801,-24.5533,0.000309031,0.00793219,-0.00370274,0.00943459,-0.00119337,-1.18534,0.00672292,0.0121203,818,547,-7.64801,24.5533
-399,477,-7.70923,-25.5018,0.000456136,0.0063073,-0.00325455,0.00775792,-0.00099448,-1.15151,0.00553331,0.0205456,825,547,-7.7092,25.5019
-392,477,-7.78339,-26.4581,0.000722337,0.00479273,-0.00278191,0.00620442,-0.000689354,-1.1012,0.00438417,0.0184962,832,547,-7.7834,26.4581
-385,477,-7.82892,-27.401,0.00108968,0.00341471,-0.0022645,0.00479766,-0.000293272,-1.02254,0.00330055,0.0159004,839,547,-7.82889,27.401
-378,477,-7.89435,-28.3431,0.00140429,0.00201879,-0.00162733,0.00336762,5.54628e-05,-0.878702,0.00222682,0.0150932,846,547,-7.89435,28.3431
-371,477,-7.94519,-29.2481,0.0016588,0.000653996,-0.000970547,0.00224927,6.35252e-05,-0.546566,0.00147879,0.0150585,853,547,-7.94519,29.2481
-364,477,-7.99579,-30.1494,0.00187006,-0.000687486,-0.000219401,0.00188875,-0.000706171,-0.0849583,0.00154917,0.014369,860,547,-7.99576,30.1494
-357,477,-8.08295,-31.0807,0.00213593,-0.00184665,0.000490513,0.00219546,-0.00190618,0.12076,0.00237004,0.0120389,867,547,-8.08292,31.0808
-350,477,-8.13373,-31.9832,0.00249957,-0.00281031,0.00102946,0.00269217,-0.00300291,0.184951,0.00328969,0.0117407,874,547,-8.13371,31.9831
-343,477,-8.1394,-32.9427,0.00274565,-0.0036693,0.00157945,0.00311344,-0.0040371,0.228786,0.00413983,0.0201593,881,547,-8.13939,32.9427
-336,477,-8.08112,-33.8781,0.00297154,-0.00452786,0.00207907,0.00350936,-0.00506567,0.253131,0.0049779,0.0399273,888,547,-8.08109,33.8781
-329,477,-7.97095,-34.7706,0,0,0,0,0,0,0,-1,895,547,-7.97093,34.7706
-322,477,-5.91638,-27.4468,0,0,0,0,0,0,0,-1,902,547,-5.91639,27.4468
-315,477,-1.67358,-9.15253,0,0,0,0,0,0,0,-1,909,547,-1.67356,9.15253
-308,477,-1.30127,-6.55188,0,0,0,0,0,0,0,-1,916,547,-1.30128,6.55185
-301,477,-1.21185,-6.28351,0,0,0,0,0,0,0,-1,923,547,-1.21184,6.28352
-294,477,-0.352905,3.27142,0,0,0,0,0,0,0,-1,930,547,-0.35292,-3.27144
-287,477,3.54364,2.15399,0,0,0,0,0,0,0,-1,937,547,3.54362,-2.15396
-280,477,1.97308,-0.954163,0,0,0,0,0,0,0,-1,944,547,1.9731,0.954178
-273,477,2.11621,-3.76709,0,0,0,0,0,0,0,-1,951,547,2.11619,3.76706
-266,477,2.04669,-3.42389,0,0,0,0,0,0,0,-1,958,547,2.04671,3.42391
-259,477,-1.33478,-3.41205,0,0,0,0,0,0,0,-1,965,547,-1.3348,3.41206
-252,477,0.597168,-5.32922,0,0,0,0,0,0,0,-1,972,547,0.597144,5.32924
-245,477,8.2309,-8.48492,0,0,0,0,0,0,0,-1,979,547,8.23091,8.48494
-238,477,6.60938,-5.64063,0,0,0,0,0,0,0,-1,986,547,6.60938,5.64063
-231,477,4.71716,-2.52484,0,0,0,0,0,0,0,-1,993,547,4.71716,2.52483
-224,477,0,0,0,0,0,0,0,0,0,-1,1000,547,0,0
-217,477,0,0,0,0,0,0,0,0,0,-1,1007,547,0,0
-210,477,0,0,0,0,0,0,0,0,0,-1,1014,547,0,0
-203,477,0,0,0,0,0,0,0,0,0,-1,1021,547,0,0
-196,477,0,0,0,0,0,0,0,0,0,-1,1028,547,0,0
-189,477,0,0,0,0,0,0,0,0,0,-1,1035,547,0,0
-182,477,0,0,0,0,0,0,0,0,0,-1,1042,547,0,0
-175,477,0,0,0,0,0,0,0,0,0,-1,1049,547,0,0
-168,477,0,0,0,0,0,0,0,0,0,-1,1056,547,0,0
-161,477,0,0,0,0,0,0,0,0,0,-1,1063,547,0,0
-154,477,0,0,0,0,0,0,0,0,0,-1,1070,547,0,0
-147,477,0,0,0,0,0,0,0,0,0,-1,1077,547,0,0
-140,477,0,0,0,0,0,0,0,0,0,-1,1084,547,0,0
-133,477,0,0,0,0,0,0,0,0,0,-1,1091,547,0,0
-126,477,0,0,0,0,0,0,0,0,0,-1,1098,547,0,0
-119,477,0,0,0,0,0,0,0,0,0,-1,1105,547,0,0
-112,477,0,0,0,0,0,0,0,0,0,-1,1112,547,0,0
-105,477,0,0,0,0,0,0,0,0,0,-1,1119,547,0,0
-98,477,0,0,0,0,0,0,0,0,0,-1,1126,547,0,0
-91,477,0,0,0,0,0,0,0,0,0,-1,1133,547,0,0
-84,477,0,0,0,0,0,0,0,0,0,-1,1140,547,0,0
-77,477,0,0,0,0,0,0,0,0,0,-1,1147,547,0,0
-70,477,0,0,0,0,0,0,0,0,0,-1,1154,547,0,0
-63,477,0,0,0,0,0,0,0,0,0,-1,1161,547,0,0
-56,477,0,0,0,0,0,0,0,0,0,-1,1168,547,0,0
-49,477,0,0,0,0,0,0,0,0,0,-1,1175,547,0,0
-42,477,0,0,0,0,0,0,0,0,0,-1,1182,547,0,0
-35,477,0,0,0,0,0,0,0,0,0,-1,1189,547,0,0
-28,477,0,0,0,0,0,0,0,0,0,-1,1196,547,0,0
-21,477,0,0,0,0,0,0,0,0,0,-1,1203,547,0,0
-14,477,0,0,0,0,0,0,0,0,0,-1,1210,547,0,0
-7,477,0,0,0,0,0,0,0,0,0,-1,1217,547,0,0
0,477,0,0,0,0,0,0,0,0,0,-1,1224,547,0,0
7,477,0,0,0,0,0,0,0,0,0,-1,1231,547,0,0
14,477,0,0,0,0,0,0,0,0,0,-1,1238,547,0,0
21,477,0,0,0,0,0,0,0,0,0,-1,1245,547,0,0
28,477,0,0,0,0,0,0,0,0,0,-1,1252,547,0,0
35,477,0,0,0,0,0,0,0,0,0,-1,1259,547,0,0
42,477,0,0,0,0,0,0,0,0,0,-1,1266,547,0,0
49,477,0,0,0,0,0,0,0,0,0,-1,1273,547,0,0
56,477,0,0,0,0,0,0,0,0,0,-1,1280,547,0,0
63,477,0,0,0,0,0,0,0,0,0,-1,1287,547,0,0
70,477,0,0,0,0,0,0,0,0,0,-1,1294,547,0,0
77,477,0,0,0,0,0,0,0,0,0,-1,1301,547,0,0
84,477,0,0,0,0,0,0,0,0,0,-1,1308,547,0,0
91,477,0,0,0,0,0,0,0,0,0,-1,1315,547,0,0
98,477,0,0,0,0,0,0,0,0,0,-1,1322,547,0,0
105,477,0,0,0,0,0,0,0,0,0,-1,1329,547,0,0
112,477,0,0,0,0,0,0,0,0,0,-1,1336,547,0,0
119,477,0,0,0,0,0,0,0,0,0,-1,1343,547,0,0
126,477,0,0,0,0,0,0,0,0,0,-1,1350,547,0,0
133,477,0,0,0,0,0,0,0,0,0,-1,1357,547,0,0
140,477,0,0,0,0,0,0,0,0,0,-1,1364,547,0,0
147,477,0,0,0,0,0,0,0,0,0,-1,1371,547,0,0
154,477,0,0,0,0,0,0,0,0,0,-1,1378,547,0,0
161,477,0,0,0,0,0,0,0,0,0,-1,1385,547,0,0
168,477,0,0,0,0,0,0,0,0,0,-1,1392,547,0,0
175,477,0,0,0,0,0,0,0,0,0,-1,1399,547,0,0
182,477,0,0,0,0,0,0,0,0,0,-1,1406,547,0,0
189,477,0,0,0,0,0,0,0,0,0,-1,1413,547,0,0
196,477,0,0,0,0,0,0,0,0,0,-1,1420,547,0,0
203,477,0,0,0,0,0,0,0,0,0,-1,1427,547,0,0
210,477,0,0,0,0,0,0,0,0,0,-1,1434,547,0,0
217,477,0,0,0,0,0,0,0,0,0,-1,1441,547,0,0
224,477,0,0,0,0,0,0,0,0,0,-1,1448,547,0,0
231,477,0,0,0,0,0,0,0,0,0,-1,1455,547,0,0
238,477,0,0,0,0,0,0,0,0,0,-1,1462,547,0,0
245,477,0,0,0,0,0,0,0,0,0,-1,1469,547,0,0
252,477,0,0,0,0,0,0,0,0,0,-1,1476,547,0,0
259,477,0,0,0,0,0,0,0,0,0,-1,1483,547,0,0
266,477,0,0,0,0,0,0,0,0,0,-1,1490,547,0,0
273,477,0,0,0,0,0,0,0,0,0,-1,1497,547,0,0
280,477,0,0,0,0,0,0,0,0,0,-1,1504,547,0,0
287,477,0,0,0,0,0,0,0,0,0,-1,1511,547,0,0
294,477,0,0,0,0,0,0,0,0,0,-1,1518,547,0,0
301,477,0,0,0,0,0,0,0,0,0,-1,1525,547,0,0
308,477,0,0,0,0,0,0,0,0,0,-1,1532,547,0,0
315,477,0,0,0,0,0,0,0,0,0,-1,1539,547,0,0
322,477,0,0,0,0,0,0,0,0,0,-1,1546,547,0,0
329,477,0,0,0,0,0,0,0,0,0,-1,1553,547,0,0
336,477,0,0,0,0,0,0,0,0,0,-1,1560,547,0,0
343,477,0,0,0,0,0,0,0,0,0,-1,1567,547,0,0
350,477,1.7699,-3.32275,0,0,0,0,0,0,0,-1,1574,547,1.7699,3.32272
357,477,3.073,-4.83313,0,0,0,0,0,0,0,-1,1581,547,3.07303,4.83316
364,477,4.30127,-4.22864,0,0,0,0,0,0,0,-1,1588,547,4.30125,4.22865
371,477,4.57703,0.283264,0,0,0,0,0,0,0,-1,1595,547,4.57706,-0.283262
378,477,8.57947,1.05969,0,0,0,0,0,0,0,-1,1602,547,8.5795,-1.05972
385,477,12.3726,2.02356,0,0,0,0,0,0,0,-1,1609,547,12.3725,-2.02355
392,477,16.4678,2.76843,0,0,0,0,0,0,0,-1,1616,547,16.4678,-2.76845
399,477,8.00037,-2.29523,0,0,0,0,0,0,0,-1,1623,547,8.00031,2.2952
406,477,4.82495,2.7475,0,0,0,0,0,0,0,-1,1630,547,4.825,-2.74752
413,477,4.88171,-0.336426,0,0,0,0,0,0,0,-1,1637,547,4.88169,0.336398
420,477,3.34875,0.102722,0,0,0,0,0,0,0,-1,1644,547,3.34871,-0.1027
427,477,1.66772,-0.373108,0,0,0,0,0,0,0,-1,1651,547,1.66768,0.373104
434,477,3.76978,-2.30798,0,0,0,0,0,0,0,-1,1658,547,3.76974,2.30801
441,477,4.05444,-2.80402,0,0,0,0,0,0,0,-1,1665,547,4.05444,2.804
448,477,10.4247,-11.7421,0,0,0,0,0,0,0,-1,1672,547,10.4247,11.7421
455,477,13.3054,-16.8109,0,0,0,0,0,0,0,-1,1679,547,13.3054,16.8109
462,477,24.1134,-33.6709,0,0,0,0,0,0,0,-1,1686,547,24.1135,33.6709
469,477,24.1552,-32.6111,0,0,0,0,0,0,0,-1,1693,547,24.1551,32.6112
476,477,24.0381,-31.6683,0.000927911,0.00041067,-0.00132628,0.00202055,-0.000681968,-0.689108,0.00162284,0.0302495,1700,547,24.038,31.6684
483,477,23.9823,-30.7218,0.000980804,0.000598145,-0.000749083,0.00156261,1.6343e-05,-0.660362,0.00103633,0.0156743,1707,547,23.9823,30.7218
490,477,23.9187,-29.8401,0.000927414,0.000942852,-0.000294426,0.00122966,0.000640606,-0.798504,0.000710152,0.0150378,1714,547,23.9188,29.8401
497,477,23.8623,-28.8998,0.000868542,0.00134497,0.000237418,0.00144307,0.000770433,1.17893,0.000833797,0.0148565,1721,547,23.8623,28.8998
504,477,23.8065,-27.981,0.000843598,0.00121248,0.000553617,0.00161157,0.000444508,0.946195,0.00096111,0.0194076,1728,547,23.8065,27.981
511,477,23.8157,-27.082,0.000664932,0.00111409,0.000730569,0.00165382,0.000125205,0.934517,0.00106327,0.024567,1735,547,23.8156,27.0819
518,477,23.7009,-26.1476,0.000285448,0.000994549,0.000779525,0.00149637,-0.000216369,0.998829,0.00107697,0.0218767,1742,547,23.7009,26.1476
525,477,23.5908,-25.1464,-0.000151939,0.000827609,0.000738881,0.0012243,-0.000548631,1.07808,0.00104809,0.0187356,1749,547,23.5909,25.1463
532,477,23.5173,-24.1628,-0.000653248,0.000765992,0.000642028,0.00101333,-0.000900582,1.20308,0.00110563,0.0208199,1756,547,23.5173,24.1629
539,477,23.4658,-23.1608,-0.00126752,0.000796731,0.000464576,0.000896469,-0.00136725,1.35932,0.00131635,0.0191362,1763,547,23.4658,23.1608
546,477,23.3158,-22.293,-0.00195536,0.00115397,0.000287883,0.0011804,-0.00198179,1.47925,0.00184513,0.0449386,1770,547,23.3158,22.293
553,477,23.3848,-21.2437,0,0,0,0,0,0,0,-1,1777,547,23.3848,21.2437
560,477,19.4597,-16.1135,0,0,0,0,0,0,0,-1,1784,547,19.4597,16.1135
567,477,13.9529,-8.70972,0,0,0,0,0,0,0,-1,1791,547,13.9529,8.7097
574,477,6.82593,-0.916992,0,0,0,0,0,0,0,-1,1798,547,6.82598,0.916977
581,477,9.29321,-0.557007,0,0,0,0,0,0,0,-1,1805,547,9.29324,0.55703
588,477,9.75195,0.422729,0,0,0,0,0,0,0,-1,1812,547,9.75198,-0.42273
595,477,9.89172,1.21326,0,0,0,0,0,0,0,-1,1819,547,9.89174,-1.21328
602,477,6.5271,-0.964417,0,0,0,0,0,0,0,-1,1826,547,6.52706,0.964427
609,477,0,0,0,0,0,0,0,0,0,-1,1833,547,0,0
616,477,0,0,0,0,0,0,0,0,0,-1,1840,547,0,0
623,477,0,0,0,0,0,0,0,0,0,-1,1847,547,0,0
630,477,0,0,0,0,0,0,0,0,0,-1,1854,547,0,0
637,477,0,0,0,0,0,0,0,0,0,-1,1861,547,0,0
644,477,0,0,0,0,0,0,0,0,0,-1,1868,547,0,0
651,477,0,0,0,0,0,0,0,0,0,-1,1875,547,0,0
658,477,0,0,0,0,0,0,0,0,0,-1,1882,547,0,0
665,477,0,0,0,0,0,0,0,0,0,-1,1889,547,0,0
672,477,0,0,0,0,0,0,0,0,0,-1,1896,547,0,0
679,477,0,0,0,0,0,0,0,0,0,-1,1903,547,0,0
686,477,0,0,0,0,0,0,0,0,0,-1,1910,547,0,0
693,477,0,0,0,0,0,0,0,0,0,-1,1917,547,0,0
700,477,0,0,0,0,0,0,0,0,0,-1,1924,547,0,0
707,477,0,0,0,0,0,0,0,0,0,-1,1931,547,0,0
714,477,0,0,0,0,0,0,0,0,0,-1,1938,547,0,0
721,477,0,0,0,0,0,0,0,0,0,-1,1945,547,0,0
728,477,0,0,0,0,0,0,0,0,0,-1,1952,547,0,0
735,477,0,0,0,0,0,0,0,0,0,-1,1959,547,0,0
742,477,0,0,0,0,0,0,0,0,0,-1,1966,547,0,0
749,477,0,0,0,0,0,0,0,0,0,-1,1973,547,0,0
756,477,0,0,0,0,0,0,0,0,0,-1,1980,547,0,0
763,477,0,0,0,0,0,0,0,0,0,-1,1987,547,0,0
770,477,0,0,0,0,0,0,0,0,0,-1,1994,547,0,0
777,477,0,0,0,0,0,0,0,0,0,-1,2001,547,0,0
784,477,0,0,0,0,0,0,0,0,0,-1,2008,547,0,0
791,477,0,0,0,0,0,0,0,0,0,-1,2015,547,0,0
798,477,0,0,0,0,0,0,0,0,0,-1,2022,547,0,0
805,477,0,0,0,0,0,0,0,0,0,-1,2029,547,0,0
812,477,0,0,0,0,0,0,0,0,0,-1,2036,547,0,0
-700,470,0,0,0,0,0,0,0,0,0,-1,524,554,0,0
-693,470,0,0,0,0,0,0,0,0,0,-1,531,554,0,0
-686,470,0,0,0,0,0,0,0,0,0,-1,538,554,0,0
-679,470,0,0,0,0,0,0,0,0,0,-1,545,554,0,0
-672,470,0,0,0,0,0,0,0,0,0,-1,552,554,0,0
-665,470,0,0,0,0,0,0,0,0,0,-1,559,554,0,0
-658,470,0,0,0,0,0,0,0,0,0,-1,566,554,0,0
-651,470,0,0,0,0,0,0,0,0,0,-1,573,554,0,0
-644,470,0,0,0,0,0,0,0,0,0,-1,580,554,0,0
-637,470,0,0,0,0,0,0,0,0,0,-1,587,554,0,0
-630,470,0,0,0,0,0,0,0,0,0,-1,594,554,0,0
-623,470,0,0,0,0,0,0,0,0,0,-1,601,554,0,0
-616,470,0,0,0,0,0,0,0,0,0,-1,608,554,0,0
-609,470,0,0,0,0,0,0,0,0,0,-1,615,554,0,0
-602,470,0,0,0,0,0,0,0,0,0,-1,622,554,0,0
-595,470,0,0,0,0,0,0,0,0,0,-1,629,554,0,0
-588,470,0,0,0,0,0,0,0,0,0,-1,636,554,0,0
-581,470,0,0,0,0,0,0,0,0,0,-1,643,554,0,0
-574,470,0,0,0,0,0,0,0,0,0,-1,650,554,0,0
-567,470,0,0,0,0,0,0,0,0,0,-1,657,554,0,0
-560,470,0,0,0,0,0,0,0,0,0,-1,664,554,0,0
-553,470,0,0,0,0,0,0,0,0,0,-1,671,554,0,0
-546,470,0,0,0,0,0,0,0,0,0,-1,678,554,0,0
-539,470,0,0,0,0,0,0,0,0,0,-1,685,554,0,0
-532,470,0,0,0,0,0,0,0,0,0,-1,692,554,0,0
-525,470,0,0,0,0,0,0,0,0,0,-1,699,554,0,0
-518,470,0,0,0,0,0,0,0,0,0,-1,706,554,0,0
-511,470,0,0,0,0,0,0,0,0,0,-1,713,554,0,0
-504,470,0,0,0,0,0,0,0,0,0,-1,720,554,0,0
-497,470,0,0,0,0,0,0,0,0,0,-1,727,554,0,0
-490,470,-9.13263,-1.03125,0,0,0,0,0,0,0,-1,734,554,-9.1326,1.03127
-483,470,-7.68677,-1.03955,0,0,0,0,0,0,0,-1,741,554,-7.68678,1.03958
-476,470,-6.17969,-1.03394,0,0,0,0,0,0,0,-1,748,554,-6.17971,1.03395
-469,470,-6.23016,-0.651855,0,0,0,0,0,0,0,-1,755,554,-6.23014,0.651829
-462,470,-4.87915,-1.03705,0,0,0,0,0,0,0,-1,762,554,-4.87914,1.03702
-455,470,-4.14777,-1.37079,0,0,0,0,0,0,0,-1,769,554,-4.14779,1.37078
-448,470,-2.9314,-5.74518,0,0,0,0,0,0,0,-1,776,554,-2.93137,5.74518
-441,470,-7.10535,-17.8693,0,0,0,0,0,0,0,-1,783,554,-7.10533,17.8693
-434,470,-8.37988,-20.5468,0,0,0,0,0,0,0,-1,790,554,-8.37986,20.5468
-427,470,-8.43097,-21.5517,-0.000267315,0.00968495,-0.00248881,0.0102726,-0.000855,-1.33891,0.00715048,0.0281723,797,554,-8.43097,21.5517
-420,470,-8.42639,-22.5535,-3.75534e-05,0.00837655,-0.00272712,0.00918312,-0.000844128,-1.28323,0.00642198,0.0182262,804,554,-8.42637,22.5535
-413,470,-8.49792,-23.5416,0.000143102,0.00702348,-0.00272422,0.00797149,-0.000804906,-1.23591,0.00560194,0.0152328,811,554,-8.4979,23.5416
-406,470,-8.56451,-24.5119,0.000261488,0.00558213,-0.00243188,0.00652616,-0.000682546,-1.20051,0.00459522,0.0134684,818,554,-8.56454,24.5119
-399,470,-8.62354,-25.4744,0.000414874,0.00421582,-0.00202719,0.00509407,-0.000463377,-1.16197,0.00356057,0.0168111,825,554,-8.62352,25.4744
-392,470,-8.66663,-26.4145,0.000696927,0.0029307,-0.00161615,0.00377835,-0.000150718,-1.08775,0.00257061,0.0150955,832,554,-8.66665,26.4145
-385,470,-8.73102,-27.329,0.00110586,0.0017763,-0.00119391,0.00268117,0.000201003,-0.922261,0.00172435,0.0120982,839,554,-8.73102,27.329
-378,470,-8.79517,-28.2803,0.00148932,0.000577764,-0.000668621,0.00184273,0.000224353,-0.48624,0.00116095,0.0183092,846,554,-8.79515,28.2803
-371,470,-8.85742,-29.1871,0.00187549,-0.000546249,-0.000141084,0.00188368,-0.000554441,-0.0579959,0.00147574,0.015829,853,554,-8.85745,29.1871
-364,470,-8.91406,-30.0707,0.00225786,-0.00158702,0.000422736,0.00230379,-0.00163295,0.108225,0.00228385,0.0159448,860,554,-8.91407,30.0707
-357,470,-9.01007,-30.9899,0.00272084,-0.00252241,0.000908347,0.00287375,-0.00267531,0.166769,0.00320443,0.0166532,867,554,-9.01008,30.9899
-350,470,-9.0481,-31.9378,0.00331561,-0.00335823,0.00121964,0.00353151,-0.00357413,0.175207,0.00410247,0.0140119,874,554,-9.04813,31.9378
-343,470,-9.04108,-32.9641,0,0,0,0,0,0,0,-1,881,554,-9.04105,32.9641
-336,470,-8.85022,-33.9557,0,0,0,0,0,0,0,-1,888,554,-8.85023,33.9557
-329,470,-2.78516,-12.3594,0,0,0,0,0,0,0,-1,895,554,-2.78517,12.3594
-322,470,-2.30829,-11.4527,0,0,0,0,0,0,0,-1,902,554,-2.30827,11.4527
-315,470,-1.04797,-8.29529,0,0,0,0,0,0,0,-1,909,554,-1.04797,8.29526
-308,470,-1.39368,-6.68152,0,0,0,0,0,0,0,-1,916,554,-1.39369,6.68149
-301,470,-0.0340576,3.34888,0,0,0,0,0,0,0,-1,923,554,-0.0340496,-3.3489
-294,470,-1.18378,3.22266,0,0,0,0,0,0,0,-1,930,554,-1.18376,-3.22268
-287,470,-2.15454,3.2204,0,0,0,0,0,0,0,-1,937,554,-2.15452,-3.22037
-280,470,-3.00537,3.099,0,0,0,0,0,0,0,-1,944,554,-3.00536,-3.09898
-273,470,-12.3932,3.65009,0,0,0,0,0,0,0,-1,951,554,-12.3932,-3.65011
-266,470,-11.5706,1.16028,0,0,0,0,0,0,0,-1,958,554,-11.5706,-1.16031
-259,470,-7.50415,-2.77167,0,0,0,0,0,0,0,-1,965,554,-7.50413,2.7717
-252,470,-0.371155,-5.87823,0,0,0,0,0,0,0,-1,972,554,-0.37114,5.87821
-245,470,1.33221,-6.81122,0,0,0,0,0,0,0,-1,979,554,1.33223,6.8112
-238,470,0,0,0,0,0,0,0,0,0,-1,986,554,0,0
-231,470,0,0,0,0,0,0,0,0,0,-1,993,554,0,0
-224,470,0,0,0,0,0,0,0,0,0,-1,1000,554,0,0
-217,470,0,0,0,0,0,0,0,0,0,-1,1007,554,0,0
-210,470,0,0,0,0,0,0,0,0,0,-1,1014,554,0,0
-203,470,0,0,0,0,0,0,0,0,0,-1,1021,554,0,0
-196,470,0,0,0,0,0,0,0,0,0,-1,1028,554,0,0
-189,470,0,0,0,0,0,0,0,0,0,-1,1035,554,0,0
-182,470,0,0,0,0,0,0,0,0,0,-1,1042,554,0,0
-175,470,0,0,0,0,0,0,0,0,0,-1,1049,554,0,0
-168,470,0,0,0,0,0,0,0,0,0,-1,1056,554,0,0
-161,470,0,0,0,0,0,0,0,0,0,-1,1063,554,0,0
-154,470,0,0,0,0,0,0,0,0,0,-1,1070,554,0,0
-147,470,0,0,0,0,0,0,0,0,0,-1,1077,554,0,0
-140,470,0,0,0,0,0,0,0,0,0,-1,1084,554,0,0
-133,470,0,0,0,0,0,0,0,0,0,-1,1091,554,0,0
-126,470,0,0,0,0,0,0,0,0,0,-1,1098,554,0,0
-119,470,0,0,0,0,0,0,0,0,0,-1,1105,554,0,0
-112,470,0,0,0,0,0,0,0,0,0,-1,1112,554,0,0
-105,470,0,0,0,0,0,0,0,0,0,-1,1119,554,0,0
-98,470,0,0,0,0,0,0,0,0,0,-1,1126,554,0,0
-91,470,0,0,0,0,0,0,0,0,0,-1,1133,554,0,0
-84,470,0,0,0,0,0,0,0,0,0,-1,1140,554,0,0
-77,470,0,0,0,0,0,0,0,0,0,-1,1147,554,0,0
-70,470,0,0,0,0,0,0,0,0,0,-1,1154,554,0,0
-63,470,0,0,0,0,0,0,0,0,0,-1,1161,554,0,0
-56,470,0,0,0,0,0,0,0,0,0,-1,1168,554,0,0
-49,470,0,0,0,0,0,0,0,0,0,-1,1175,554,0,0
-42,470,0,0,0,0,0,0,0,0,0,-1,1182,554,0,0
-35,470,0,0,0,0,0,0,0,0,0,-1,1189,554,0,0
-28,470,0,0,0,0,0,0,0,0,0,-1,1196,554,0,0
-21,470,0,0,0,0,0,0,0,0,0,-1,1203,554,0,0
-14,470,0,0,0,0,0,0,0,0,0,-1,1210,554,0,0
-7,470,0,0,0,0,0,0,0,0,0,-1,1217,554,0,0
0,470,0,0,0,0,0,0,0,0,0,-1,1224,554,0,0
7,470,0,0,0,0,0,0,0,0,0,-1,1231,554,0,0
14,470,0,0,0,0,0,0,0,0,0,-1,1238,554,0,0
21,470,0,0,0,0,0,0,0,0,0,-1,1245,554,0,0
28,470,0,0,0,0,0,0,0,0,0,-1,1252,554,0,0
35,470,0,0,0,0,0,0,0,0,0,-1,1259,554,0,0
42,470,0,0,0,0,0,0,0,0,0,-1,1266,554,0,0
49,470,0,0,0,0,0,0,0,0,0,-1,1273,554,0,0
56,470,0,0,0,0,0,0,0,0,0,-1,1280,554,0,0
63,470,0,0,0,0,0,0,0,0,0,-1,1287,554,0,0
70,470,0,0,0,0,0,0,0,0,0,-1,1294,554,0,0
77,470,0,0,0,0,0,0,0,0,0,-1,1301,554,0,0
84,470,0,0,0,0,0,0,0,0,0,-1,1308,554,0,0
91,470,0,0,0,0,0,0,0,0,0,-1,1315,554,0,0
98,470,0,0,0,0,0,0,0,0,0,-1,1322,554,0,0
105,470,0,0,0,0,0,0,0,0,0,-1,1329,554,0,0
112,470,0,0,0,0,0,0,0,0,0,-1,1336,554,0,0
119,470,0,0,0,0,0,0,0,0,0,-1,1343,554,0,0
126,470,0,0,0,0,0,0,0,0,0,-1,1350,554,0,0
133,470,0,0,0,0,0,0,0,0,0,-1,1357,554,0,0
140,470,0,0,0,0,0,0,0,0,0,-1,1364,554,0,0
147,470,0,0,0,0,0,0,0,0,0,-1,1371,554,0,0
154,470,0,0,0,0,0,0,0,0,0,-1,1378,554,0,0
161,470,0,0,0,0,0,0,0,0,0,-1,1385,554,0,0
168,470,0,0,0,0,0,0,0,0,0,-1,1392,554,0,0
175,470,0,0,0,0,0,0,0,0,0,-1,1399,554,0,0
182,470,0,0,0,0,0,0,0,0,0,-1,1406,554,0,0
189,470,0,0,0,0,0,0,0,0,0,-1,1413,554,0,0
196,470,0,0,0,0,0,0,0,0,0,-1,1420,554,0,0
203,470,0,0,0,0,0,0,0,0,0,-1,1427,554,0,0
210,470,0,0,0,0,0,0,0,0,0,-1,1434,554,0,0
217,470,0,0,0,0,0,0,0,0,0,-1,1441,554,0,0
224,470,0,0,0,0,0,0,0,0,0,-1,1448,554,0,0
231,470,0,0,0,0,0,0,0,0,0,-1,1455,554,0,0
238,470,0,0,0,0,0,0,0,0,0,-1,1462,554,0,0
245,470,0,0,0,0,0,0,0,0,0,-1,1469,554,0,0
252,470,0,0,0,0,0,0,0,0,0,-1,1476,554,0,0
259,470,0,0,0,0,0,0,0,0,0,-1,1483,554,0,0
266,470,0,0,0,0,0,0,0,0,0,-1,1490,554,0,0
273,470,0,0,0,0,0,0,0,0,0,-1,1497,554,0,0
280,470,0,0,0,0,0,0,0,0,0,-1,1504,554,0,0
287,470,0,0,0,0,0,0,0,0,0,-1,1511,554,0,0
294,470,0,0,0,0,0,0,0,0,0,-1,1518,554,0,0
301,470,0,0,0,0,0,0,0,0,0,-1,1525,554,0,0
308,470,0,0,0,0,0,0,0,0,0,-1,1532,554,0,0
315,470,0,0,0,0,0,0,0,0,0,-1,1539,554,0,0
322,470,0,0,0,0,0,0,0,0,0,-1,1546,554,0,0
329,470,0,0,0,0,0,0,0,0,0,-1,1553,554,0,0
336,470,0,0,0,0,0,0,0,0,0,-1,1560,554,0,0
343,470,0,0,0,0,0,0,0,0,0,-1,1567,554,0,0
350,470,0,0,0,0,0,0,0,0,0,-1,1574,554,0,0
357,470,0,0,0,0,0,0,0,0,0,-1,1581,554,0,0
364,470,1.33423,0.293335,0,0,0,0,0,0,0,-1,1588,554,1.33422,-0.293348
371,470,2.22498,-0.0305176,0,0,0,0,0,0,0,-1,1595,554,2.22494,0.0305046
378,470,6.27051,0.710083,0,0,0,0,0,0,0,-1,1602,554,6.27054,-0.710093
385,470,10.3657,1.47296,0,0,0,0,0,0,0,-1,1609,554,10.3657,-1.47299
392,470,15.3881,3.01935,0,0,0,0,0,0,0,-1,1616,554,15.388,-3.01937
399,470,18.4479,2.93793,0,0,0,0,0,0,0,-1,1623,554,18.4479,-2.93792
406,470,15.1896,1.36676,0,0,0,0,0,0,0,-1,1630,554,15.1896,-1.36679
413,470,6.55383,1.99207,0,0,0,0,0,0,0,-1,1637,554,6.5538,-1.99208
420,470,4.47095,0.845703,0,0,0,0,0,0,0,-1,1644,554,4.47098,-0.845718
427,470,3.51038,1.19684,0,0,0,0,0,0,0,-1,1651,554,3.51039,-1.19684
434,470,3.31775,-1.37427,0,0,0,0,0,0,0,-1,1658,554,3.31781,1.37426
441,470,2.55457,-2.05902,0,0,0,0,0,0,0,-1,1665,554,2.55461,2.05904
448,470,3.27258,-2.64032,0,0,0,0,0,0,0,-1,1672,554,3.27257,2.64029
455,470,10.3658,-9.82233,0,0,0,0,0,0,0,-1,1679,554,10.3659,9.82233
462,470,11.0651,-11.9958,0,0,0,0,0,0,0,-1,1686,554,11.0651,11.9958
469,470,15.4242,-19.0521,0,0,0,0,0,0,0,-1,1693,554,15.4242,19.0521
476,470,24.923,-31.7474,0,0,0,0,0,0,0,-1,1700,554,24.9229,31.7474
483,470,24.9332,-30.6968,0.000960595,0.000436189,-0.000984591,0.0017173,-0.000320514,-0.655265,0.00126531,0.0216645,1707,554,24.9332,30.6968
490,470,24.8494,-29.775,0.00101548,0.000855552,-0.000473438,0.00141566,0.000455373,-0.701736,0.000834481,0.0139318,1714,554,24.8494,29.775
497,470,24.7924,-28.836,0.000979153,0.00127535,0.000111694,0.00131275,0.000941756,1.24771,0.000781428,0.0141144,1721,554,24.7923,28.836
504,470,24.7462,-27.9255,0.000920648,0.00110888,0.000427627,0.00145262,0.000576903,0.893716,0.000844567,0.0201396,1728,554,24.7462,27.9255
511,470,24.6989,-27.033,0.000751287,0.000969015,0.00061287,0.00148261,0.000237687,0.873296,0.000919479,0.0285002,1735,554,24.6989,27.033
518,470,24.6307,-26.1369,0.00042094,0.000842202,0.000714534,0.0013765,-0.000113361,0.928729,0.000957695,0.0281716,1742,554,24.6307,26.1369
525,470,24.552,-25.1269,4.54048e-05,0.000717259,0.00073381,0.00118838,-0.000425715,1.00005,0.000965951,0.0170686,1749,554,24.552,25.1269
532,470,24.4888,-24.1003,-0.000356064,0.000739384,0.000711136,0.00108928,-0.000705957,1.11355,0.00104432,0.0150667,1756,554,24.4888,24.1003
539,470,24.391,-23.1169,-0.00080546,0.000894236,0.000652132,0.00111561,-0.00102683,1.24354,0.0012373,0.0182584,1763,554,24.391,23.1169
546,470,24.316,-22.1871,-0.00125685,0.00138909,0.000615764,0.00152538,-0.00139313,1.35299,0.00168558,0.0164614,1770,554,24.316,22.1871
553,470,24.3575,-21.231,-0.00162299,0.00216041,0.00066533,0.002274,-0.00173658,1.4017,0.00232243,0.0266839,1777,554,24.3576,21.231
560,470,24.4331,-20.069,0,0,0,0,0,0,0,-1,1784,554,24.4331,20.0689
567,470,24.2173,-18.9376,0,0,0,0,0,0,0,-1,1791,554,24.2173,18.9376
574,470,14.2793,-8.07147,0,0,0,0,0,0,0,-1,1798,554,14.2793,8.07147
581,470,8.24646,-4.06317,0,0,0,0,0,0,0,-1,1805,554,8.24648,4.06318
588,470,11.1803,1.74927,0,0,0,0,0,0,0,-1,1812,554,11.1803,-1.74926
595,470,4.72192,3.44116,0,0,0,0,0,0,0,-1,1819,554,4.72191,-3.44116
602,470,14.4307,2.76141,0,0,0,0,0,0,0,-1,1826,554,14.4306,-2.76139
609,470,20.9181,4.41058,0,0,0,0,0,0,0,-1,1833,554,20.9181,-4.4106
616,470,0,0,0,0,0,0,0,0,0,-1,1840,554,0,0
623,470,0,0,0,0,0,0,0,0,0,-1,1847,554,0,0
630,470,0,0,0,0,0,0,0,0,0,-1,1854,554,0,0
637,470,0,0,0,0,0,0,0,0,0,-1,1861,554,0,0
644,470,0,0,0,0,0,0,0,0,0,-1,1868,554,0,0
651,470,0,0,0,0,0,0,0,0,0,-1,1875,554,0,0
658,470,0,0,0,0,0,0,0,0,0,-1,1882,554,0,0
665,470,0,0,0,0,0,0,0,0,0,-1,1889,554,0,0
672,470,0,0,0,0,0,0,0,0,0,-1,1896,554,0,0
679,470,0,0,0,0,0,0,0,0,0,-1,1903,554,0,0
686,470,0,0,0,0,0,0,0,0,0,-1,1910,554,0,0
693,470,0,0,0,0,0,0,0,0,0,-1,1917,554,0,0
700,470,0,0,0,0,0,0,0,0,0,-1,1924,554,0,0
707,470,0,0,0,0,0,0,0,0,0,-1,1931,554,0,0
714,470,0,0,0,0,0,0,0,0,0,-1,1938,554,0,0
721,470,0,0,0,0,0,0,0,0,0,-1,1945,554,0,0
728,470,0,0,0,0,0,0,0,0,0,-1,1952,554,0,0
735,470,0,0,0,0,0,0,0,0,0,-1,1959,554,0,0
742,470,0,0,0,0,0,0,0,0,0,-1,1966,554,0,0
749,470,0,0,0,0,0,0,0,0,0,-1,1973,554,0,0
756,470,0,0,0,0,0,0,0,0,0,-1,1980,554,0,0
763,470,0,0,0,0,0,0,0,0,0,-1,1987,554,0,0
770,470,0,0,0,0,0,0,0,0,0,-1,1994,554,0,0
777,470,0,0,0,0,0,0,0,0,0,-1,2001,554,0,0
784,470,0,0,0,0,0,0,0,0,0,-1,2008,554,0,0
791,470,0,0,0,0,0,0,0,0,0,-1,2015,554,0,0
798,470,0,0,0,0,0,0,0,0,0,-1,2022,554,0,0
805,470,0,0,0,0,0,0,0,0,0,-1,2029,554,0,0
812,470,0,0,0,0,0,0,0,0,0,-1,2036,554,0,0
-700,463,0,0,0,0,0,0,0,0,0,-1,524,561,0,0
-693,463,0,0,0,0,0,0,0,0,0,-1,531,561,0,0
-686,463,0,0,0,0,0,0,0,0,0,-1,538,561,0,0
-679,463,0,0,0,0,0,0,0,0,0,-1,545,561,0,0
-672,463,0,0,0,0,0,0,0,0,0,-1,552,561,0,0
-665,463,0,0,0,0,0,0,0,0,0,-1,559,561,0,0
-658,463,0,0,0,0,0,0,0,0,0,-1,566,561,0,0
-651,463,0,0,0,0,0,0,0,0,0,-1,573,561,0,0
-644,463,0,0,0,0,0,0,0,0,0,-1,580,561,0,0
-637,463,0,0,0,0,0,0,0,0,0,-1,587,561,0,0
-630,463,0,0,0,0,0,0,0,0,0,-1,594,561,0,0
-623,463,0,0,0,0,0,0,0,0,0,-1,601,561,0,0
-616,463,0,0,0,0,0,0,0,0,0,-1,608,561,0,0
-609,463,0,0,0,0,0,0,0,0,0,-1,615,561,0,0
-602,463,0,0,0,0,0,0,0,0,0,-1,622,561,0,0
-595,463,0,0,0,0,0,0,0,0,0,-1,629,561,0,0
-588,463,0,0,0,0,0,0,0,0,0,-1,636,561,0,0
-581,463,0,0,0,0,0,0,0,0,0,-1,643,561,0,0
-574,463,0,0,0,0,0,0,0,0,0,-1,650,561,0,0
-567,463,0,0,0,0,0,0,0,0,0,-1,657,561,0,0
-560,463,0,0,0,0,0,0,0,0,0,-1,664,561,0,0
-553,463,0,0,0,0,0,0,0,0,0,-1,671,561,0,0
-546,463,0,0,0,0,0,0,0,0,0,-1,678,561,0,0
-539,463,0,0,0,0,0,0,0,0,0,-1,685,561,0,0
-532,463,0,0,0,0,0,0,0,0,0,-1,692,561,0,0
-525,463,0,0,0,0,0,0,0,0,0,-1,699,561,0,0
-518,463,0,0,0,0,0,0,0,0,0,-1,706,561,0,0
-511,463,0,0,0,0,0,0,0,0,0,-1,713,561,0,0
-504,463,0,0,0,0,0,0,0,0,0,-1,720,561,0,0
-497,463,-9.81451,-1.67126,0,0,0,0,0,0,0,-1,727,561,-9.81452,1.67127
-490,463,-8.57043,-1.58942,0,0,0,0,0,0,0,-1,734,561,-8.57045,1.58944
-483,463,-7.29224,-1.7226,0,0,0,0,0,0,0,-1,741,561,-7.29226,1.72261
-476,463,-5.77704,-1.7312,0,0,0,0,0,0,0,-1,748,561,-5.77703,1.73121
-469,463,-5.14545,-2.138,0,0,0,0,0,0,0,-1,755,561,-5.14546,2.13799
-462,463,-3.13672,-3.07977,0,0,0,0,0,0,0,-1,762,561,-3.13672,3.07974
-455,463,-2.91406,-5.61798,0,0,0,0,0,0,0,-1,769,561,-2.91406,5.61801
-448,463,-4.00177,-8.54681,0,0,0,0,0,0,0,-1,776,561,-4.00175,8.54683
-441,463,-9.39221,-19.3585,0,0,0,0,0,0,0,-1,783,561,-9.39221,19.3585
-434,463,-9.27087,-20.6062,-0.000711389,0.00780099,-0.00118977,0.00796416,-0.000874555,-1.43451,0.00562367,0.0410983,790,561,-9.27085,20.6062
-427,463,-9.32672,-21.5876,-0.000344118,0.0069099,-0.00153527,0.00722145,-0.000655669,-1.37059,0.00504707,0.0122549,797,561,-9.32671,21.5876
-420,463,-9.36011,-22.5456,-4.37032e-05,0.00596863,-0.00177509,0.00645359,-0.000528664,-1.3041,0.00448901,0.0101669,804,561,-9.36011,22.5456
-413,463,-9.43506,-23.4946,0.000175756,0.00492326,-0.00179138,0.00552335,-0.000424335,-1.24756,0.00383152,0.0109337,811,561,-9.43504,23.4946
-406,463,-9.51105,-24.4535,0.000320881,0.00375021,-0.00154331,0.00434247,-0.000271377,-1.20437,0.00298954,0.0118811,818,561,-9.51106,24.4535
-399,463,-9.56738,-25.4056,0.000541377,0.00265624,-0.00123154,0.00322204,-2.44166e-05,-1.14014,0.00215621,0.0130412,825,561,-9.56737,25.4055
-392,463,-9.63629,-26.3322,0.000890337,0.00161782,-0.000916521,0.00224014,0.000268016,-0.974302,0.00141259,0.0123224,832,561,-9.63632,26.3321
-385,463,-9.7005,-27.2723,0.00138469,0.000698929,-0.00061144,0.00174283,0.000340792,-0.529859,0.00106659,0.0122059,839,561,-9.70047,27.2723
-378,463,-9.76215,-28.2068,0.00188842,-0.000276364,-0.000220493,0.00191065,-0.000298594,-0.10048,0.00138408,0.0134252,846,561,-9.76212,28.2068
-371,463,-9.81067,-29.1433,0.00246965,-0.00111777,0.000160695,0.00247684,-0.00112495,0.0446747,0.00212776,0.0130186,853,561,-9.81065,29.1433
-364,463,-9.84436,-30.0063,0.00309366,-0.00178219,0.000513756,0.0031472,-0.00183574,0.103848,0.00290993,0.0157964,860,561,-9.84437,30.0063
-357,463,-9.95148,-30.8754,0.00381046,-0.00242685,0.000756232,0.00390084,-0.00251723,0.118948,0.00373406,0.0231375,867,561,-9.95148,30.8754
-350,463,-9.9007,-31.8817,0.00468394,-0.0031354,0.00086028,0.00477747,-0.00322893,0.108294,0.00465123,0.0452253,874,561,-9.90071,31.8817
-343,463,-9.59174,-32.9025,0,0,0,0,0,0,0,-1,881,561,-9.59176,32.9024
-336,463,-2.94928,-12.2127,0,0,0,0,0,0,0,-1,888,561,-2.94925,12.2127
-329,463,-2.64307,-12.7037,0,0,0,0,0,0,0,-1,895,561,-2.64307,12.7038
-322,463,-1.82898,-9.11957,0,0,0,0,0,0,0,-1,902,561,-1.829,9.11957
-315,463,-0.944763,-5.96234,0,0,0,0,0,0,0,-1,909,561,-0.94479,5.96237
-308,463,-1.1535,-3.17889,0,0,0,0,0,0,0,-1,916,561,-1.15352,3.17889
-301,463,-1.50366,-3.15338,0,0,0,0,0,0,0,-1,923,561,-1.50364,3.15341
-294,463,-2.35889,-3.93463,0,0,0,0,0,0,0,-1,930,561,-2.35886,3.93465
-287,463,-2.80322,2.73999,0,0,0,0,0,0,0,-1,937,561,-2.80322,-2.74
-280,463,-12.864,5.25146,0,0,0,0,0,0,0,-1,944,561,-12.864,-5.25149
-273,463,-12.4598,3.39178,0,0,0,0,0,0,0,-1,951,561,-12.4598,-3.3918
-266,463,-8.78101,-3.7356,0,0,0,0,0,0,0,-1,958,561,-8.78098,3.73562
-259,463,-6.23285,-5.68842,0,0,0,0,0,0,0,-1,965,561,-6.23288,5.68843
-252,463,0,0,0,0,0,0,0,0,0,-1,972,561,0,0
-245,463,0,0,0,0,0,0,0,0,0,-1,979,561,0,0
-238,463,0,0,0,0,0,0,0,0,0,-1,986,561,0,0
-231,463,0,0,0,0,0,0,0,0,0,-1,993,561,0,0
-224,463,0,0,0,0,0,0,0,0,0,-1,1000,561,0,0
-217,463,0,0,0,0,0,0,0,0,0,-1,1007,561,0,0
-210,463,0,0,0,0,0,0,0,0,0,-1,1014,561,0,0
-203,463,0,0,0,0,0,0,0,0,0,-1,1021,561,0,0
-196,463,0,0,0,0,0,0,0,0,0,-1,1028,561,0,0
-189,463,0,0,0,0,0,0,0,0,0,-1,1035,561,0,0
-182,463,0,0,0,0,0,0,0,0,0,-1,1042,561,0,0
-175,463,0,0,0,0,0,0,0,0,0,-1,1049,561,0,0
-168,463,0,0,0,0,0,0,0,0,0,-1,1056,561,0,0
-161,463,0,0,0,0,0,0,0,0,0,-1,1063,561,0,0
-154,463,0,0,0,0,0,0,0,0,0,-1,1070,561,0,0
-147,463,0,0,0,0,0,0,0,0,0,-1,1077,561,0,0
-140,463,0,0,0,0,0,0,0,0,0,-1,1084,561,0,0
-133,463,0,0,0,0,0,0,0,0,0,-1,1091,561,0,0
-126,463,0,0,0,0,0,0,0,0,0,-1,1098,561,0,0
-119,463,0,0,0,0,0,0,0,0,0,-1,1105,561,0,0
-112,463,0,0,0,0,0,0,0,0,0,-1,1112,561,0,0
-105,463,0,0,0,0,0,0,0,0,0,-1,1119,561,0,0
-98,463,0,0,0,0,0,0,0,0,0,-1,1126,561,0,0
-91,463,0,0,0,0,0,0,0,0,0,-1,1133,561,0,0
-84,463,0,0,0,0,0,0,0,0,0,-1,1140,561,0,0
-77,463,0,0,0,0,0,0,0,0,0,-1,1147,561,0,0
-70,463,0,0,0,0,0,0,0,0,0,-1,1154,561,0,0
-63,463,0,0,0,0,0,0,0,0,0,-1,1161,561,0,0
-56,463,0,0,0,0,0,0,0,0,0,-1,1168,561,0,0
-49,463,0,0,0,0,0,0,0,0,0,-1,1175,561,0,0
-42,463,0,0,0,0,0,0,0,0,0,-1,1182,561,0,0
-35,463,0,0,0,0,0,0,0,0,0,-1,1189,561,0,0
-28,463,0,0,0,0,0,0,0,0,0,-1,1196,561,0,0
-21,463,0,0,0,0,0,0,0,0,0,-1,1203,561,0,0
-14,463,0,0,0,0,0,0,0,0,0,-1,1210,561,0,0
-7,463,0,0,0,0,0,0,0,0,0,-1,1217,561,0,0
0,463,0,0,0,0,0,0,0,0,0,-1,1224,561,0,0
7,463,0,0,0,0,0,0,0,0,0,-1,1231,561,0,0
14,463,0,0,0,0,0,0,0,0,0,-1,1238,561,0,0
21,463,0,0,0,0,0,0,0,0,0,-1,1245,561,0,0
28,463,0,0,0,0,0,0,0,0,0,-1,1252,561,0,0
35,463,0,0,0,0,0,0,0,0,0,-1,1259,561,0,0
42,463,0,0,0,0,0,0,0,0,0,-1,1266,561,0,0
49,463,0,0,0,0,0,0,0,0,0,-1,1273,561,0,0
56,463,0,0,0,0,0,0,0,0,0,-1,1280,561,0,0
63,463,0,0,0,0,0,0,0,0,0,-1,1287,561,0,0
70,463,0,0,0,0,0,0,0,0,0,-1,1294,561,0,0
77,463,0,0,0,0,0,0,0,0,0,-1,1301,561,0,0
84,463,0,0,0,0,0,0,0,0,0,-1,1308,561,0,0
91,463,0,0,0,0,0,0,0,0,0,-1,1315,561,0,0
98,463,0,0,0,0,0,0,0,0,0,-1,1322,561,0,0
105,463,0,0,0,0,0,0,0,0,0,-1,1329,561,0,0
112,463,0,0,0,0,0,0,0,0,0,-1,1336,561,0,0
119,463,0,0,0,0,0,0,0,0,0,-1,1343,561,0,0
126,463,0,0,0,0,0,0,0,0,0,-1,1350,561,0,0
133,463,0,0,0,0,0,0,0,0,0,-1,1357,561,0,0
140,463,0,0,0,0,0,0,0,0,0,-1,1364,561,0,0
147,463,0,0,0,0,0,0,0,0,0,-1,1371,561,0,0
154,463,0,0,0,0,0,0,0,0,0,-1,1378,561,0,0
161,463,0,0,0,0,0,0,0,0,0,-1,1385,561,0,0
168,463,0,0,0,0,0,0,0,0,0,-1,1392,561,0,0
175,463,0,0,0,0,0,0,0,0,0,-1,1399,561,0,0
182,463,0,0,0,0,0,0,0,0,0,-1,1406,561,0,0
189,463,0,0,0,0,0,0,0,0,0,-1,1413,561,0,0
196,463,0,0,0,0,0,0,0,0,0,-1,1420,561,0,0
203,463,0,0,0,0,0,0,0,0,0,-1,1427,561,0,0
210,463,0,0,0,0,0,0,0,0,0,-1,1434,561,0,0
217,463,0,0,0,0,0,0,0,0,0,-1,1441,561,0,0
224,463,0,0,0,0,0,0,0,0,0,-1,1448,561,0,0
231,463,0,0,0,0,0,0,0,0,0,-1,1455,561,0,0
238,463,0,0,0,0,0,0,0,0,0,-1,1462,561,0,0
245,463,0,0,0,0,0,0,0,0,0,-1,1469,561,0,0
252,463,0,0,0,0,0,0,0,0,0,-1,1476,561,0,0
259,463,0,0,0,0,0,0,0,0,0,-1,1483,561,0,0
266,463,0,0,0,0,0,0,0,0,0,-1,1490,561,0,0
273,463,0,0,0,0,0,0,0,0,0,-1,1497,561,0,0
280,463,0,0,0,0,0,0,0,0,0,-1,1504,561,0,0
287,463,0,0,0,0,0,0,0,0,0,-1,1511,561,0,0
294,463,0,0,0,0,0,0,0,0,0,-1,1518,561,0,0
301,463,0,0,0,0,0,0,0,0,0,-1,1525,561,0,0
308,463,0,0,0,0,0,0,0,0,0,-1,1532,561,0,0
315,463,0,0,0,0,0,0,0,0,0,-1,1539,561,0,0
322,463,0,0,0,0,0,0,0,0,0,-1,1546,561,0,0
329,463,0,0,0,0,0,0,0,0,0,-1,1553,561,0,0
336,463,0,0,0,0,0,0,0,0,0,-1,1560,561,0,0
343,463,0,0,0,0,0,0,0,0,0,-1,1567,561,0,0
350,463,0,0,0,0,0,0,0,0,0,-1,1574,561,0,0
357,463,0,0,0,0,0,0,0,0,0,-1,1581,561,0,0
364,463,0,0,0,0,0,0,0,0,0,-1,1588,561,0,0
371,463,1.75842,0.152588,0,0,0,0,0,0,0,-1,1595,561,1.75844,-0.152558
378,463,4.58813,-0.0444336,0,0,0,0,0,0,0,-1,1602,561,4.58809,0.0444505
385,463,8.88574,1.65057,0,0,0,0,0,0,0,-1,1609,561,8.88575,-1.65055
392,463,14.0912,2.50513,0,0,0,0,0,0,0,-1,1616,561,14.0912,-2.5051
399,463,21.4769,2.7002,0,0,0,0,0,0,0,-1,1623,561,21.477,-2.70017
406,463,26.2987,4.32318,0,0,0,0,0,0,0,-1,1630,561,26.2987,-4.3232
413,463,26.5011,2.65222,0,0,0,0,0,0,0,-1,1637,561,26.5011,-2.65224
420,463,8.849,2.26611,0,0,0,0,0,0,0,-1,1644,561,8.84899,-2.26613
427,463,5.12207,1.69183,0,0,0,0,0,0,0,-1,1651,561,5.12206,-1.69184
434,463,4.59814,1.81995,0,0,0,0,0,0,0,-1,1658,561,4.59812,-1.81994
441,463,1.76392,-5.99225,0,0,0,0,0,0,0,-1,1665,561,1.7639,5.99225
448,463,2.49939,-4.30536,0,0,0,0,0,0,0,-1,1672,561,2.49941,4.30536
455,463,4.40295,-3.02557,0,0,0,0,0,0,0,-1,1679,561,4.40299,3.02558
462,463,5.38293,-4.06445,0,0,0,0,0,0,0,-1,1686,561,5.38289,4.06444
469,463,5.94373,-4.50647,0,0,0,0,0,0,0,-1,1693,561,5.94368,4.50646
476,463,15.2559,-17.3189,0,0,0,0,0,0,0,-1,1700,561,15.2558,17.3189
483,463,25.84,-30.7667,0,0,0,0,0,0,0,-1,1707,561,25.84,30.7667
490,463,25.8291,-29.8193,0.00115043,0.000717901,-0.000625009,0.00159554,0.000272799,-0.618835,0.000985425,0.0338418,1714,561,25.8291,29.8193
497,463,25.7185,-28.7814,0.0012232,0.00123076,4.52979e-05,0.00127244,0.00118152,0.827015,0.000819669,0.0160884,1721,561,25.7185,28.7814
504,463,25.6743,-27.8479,0.00116003,0.00109823,0.000370182,0.0015006,0.000757659,0.74376,0.000866384,0.017014,1728,561,25.6743,27.8479
511,463,25.642,-26.955,0.00102643,0.00092949,0.000563498,0.00154354,0.000412383,0.742494,0.000922809,0.0251518,1735,561,25.642,26.955
518,463,25.6172,-26.0376,0.000759306,0.00078954,0.000711329,0.00148591,6.29328e-05,0.796022,0.000970311,0.0265011,1742,561,25.6171,26.0376
525,463,25.5176,-25.0704,0.000426331,0.000697419,0.000762768,0.00133659,-0.000212842,0.87333,0.000969826,0.0200762,1749,561,25.5176,25.0704
532,463,25.4983,-24.0532,8.33745e-05,0.000763636,0.000773023,0.00126805,-0.000421039,0.992652,0.00101524,0.0179462,1756,561,25.4983,24.0532
539,463,25.3829,-23.0507,-0.000279867,0.000977183,0.000775578,0.00134694,-0.000649623,1.12592,0.00117592,0.0202564,1763,561,25.383,23.0507
546,463,25.2949,-22.1628,-0.000630333,0.00149851,0.000800328,0.00176582,-0.000897646,1.24844,0.00156475,0.0163827,1770,561,25.2949,22.1628
553,463,25.2695,-21.1649,-0.000924541,0.0022586,0.000886631,0.0024889,-0.00115484,1.31667,0.0021502,0.0121748,1777,561,25.2695,21.1649
560,463,25.2502,-20.0411,-0.00104291,0.00330196,0.00105158,0.00354308,-0.00128404,1.34539,0.00288688,0.0243602,1784,561,25.2503,20.0411
567,463,25.0322,-19.1229,-0.00108584,0.00470403,0.00137731,0.00501497,-0.00139678,1.34876,0.00389334,0.0403749,1791,561,25.0323,19.1229
574,463,25.136,-18.1406,0,0,0,0,0,0,0,-1,1798,561,25.136,18.1407
581,463,9.4939,-3.88245,0,0,0,0,0,0,0,-1,1805,561,9.49392,3.88245
588,463,1.97424,2.16016,0,0,0,0,0,0,0,-1,1812,561,1.97422,-2.16013
595,463,9.98657,2.99854,0,0,0,0,0,0,0,-1,1819,561,9.98662,-2.99856
602,463,17.2202,4.91302,0,0,0,0,0,0,0,-1,1826,561,17.2202,-4.91305
609,463,17.96,4.03131,0,0,0,0,0,0,0,-1,1833,561,17.96,-4.03132
616,463,20.8352,3.15131,0,0,0,0,0,0,0,-1,1840,561,20.8352,-3.1513
623,463,0,0,0,0,0,0,0,0,0,-1,1847,561,0,0
630,463,0,0,0,0,0,0,0,0,0,-1,1854,561,0,0
637,463,0,0,0,0,0,0,0,0,0,-1,1861,561,0,0
644,463,0,0,0,0,0,0,0,0,0,-1,1868,561,0,0
651,463,0,0,0,0,0,0,0,0,0,-1,1875,561,0,0
658,463,0,0,0,0,0,0,0,0,0,-1,1882,561,0,0
665,463,0,0,0,0,0,0,0,0,0,-1,1889,561,0,0
672,463,0,0,0,0,0,0,0,0,0,-1,1896,561,0,0
679,463,0,0,0,0,0,0,0,0,0,-1,1903,561,0,0
686,463,0,0,0,0,0,0,0,0,0,-1,1910,561,0,0
693,463,0,0,0,0,0,0,0,0,0,-1,1917,561,0,0
700,463,0,0,0,0,0,0,0,0,0,-1,1924,561,0,0
707,463,0,0,0,0,0,0,0,0,0,-1,1931,561,0,0
714,463,0,0,0,0,0,0,0,0,0,-1,1938,561,0,0
721,463,0,0,0,0,0,0,0,0,0,-1,1945,561,0,0
728,463,0,0,0,0,0,0,0,0,0,-1,1952,561,0,0
735,463,0,0,0,0,0,0,0,0,0,-1,1959,561,0,0
742,463,0,0,0,0,0,0,0,0,0,-1,1966,561,0,0
749,463,0,0,0,0,0,0,0,0,0,-1,1973,561,0,0
756,463,0,0,0,0,0,0,0,0,0,-1,1980,561,0,0
763,463,0,0,0,0,0,0,0,0,0,-1,1987,561,0,0
770,463,0,0,0,0,0,0,0,0,0,-1,1994,561,0,0
777,463,0,0,0,0,0,0,0,0,0,-1,2001,561,0,0
784,463,0,0,0,0,0,0,0,0,0,-1,2008,561,0,0
791,463,0,0,0,0,0,0,0,0,0,-1,2015,561,0,0
798,463,0,0,0,0,0,0,0,0,0,-1,2022,561,0,0
805,463,0,0,0,0,0,0,0,0,0,-1,2029,561,0,0
812,463,0,0,0,0,0,0,0,0,0,-1,2036,561,0,0
-700,456,0,0,0,0,0,0,0,0,0,-1,524,568,0,0
-693,456,0,0,0,0,0,0,0,0,0,-1,531,568,0,0
-686,456,0,0,0,0,0,0,0,0,0,-1,538,568,0,0
-679,456,0,0,0,0,0,0,0,0,0,-1,545,568,0,0
-672,456,0,0,0,0,0,0,0,0,0,-1,552,568,0,0
-665,456,0,0,0,0,0,0,0,0,0,-1,559,568,0,0
-658,456,0,0,0,0,0,0,0,0,0,-1,566,568,0,0
-651,456,0,0,0,0,0,0,0,0,0,-1,573,568,0,0
-644,456,0,0,0,0,0,0,0,0,0,-1,580,568,0,0
-637,456,0,0,0,0,0,0,0,0,0,-1,587,568,0,0
-630,456,0,0,0,0,0,0,0,0,0,-1,594,568,0,0
-623,456,0,0,0,0,0,0,0,0,0,-1,601,568,0,0
-616,456,0,0,0,0,0,0,0,0,0,-1,608,568,0,0
-609,456,0,0,0,0,0,0,0,0,0,-1,615,568,0,0
-602,456,0,0,0,0,0,0,0,0,0,-1,622,568,0,0
-595,456,0,0,0,0,0,0,0,0,0,-1,629,568,0,0
-588,456,0,0,0,0,0,0,0,0,0,-1,636,568,0,0
-581,456,0,0,0,0,0,0,0,0,0,-1,643,568,0,0
-574,456,0,0,0,0,0,0,0,0,0,-1,650,568,0,0
-567,456,0,0,0,0,0,0,0,0,0,-1,657,568,0,0
-560,456,0,0,0,0,0,0,0,0,0,-1,664,568,0,0
-553,456,0,0,0,0,0,0,0,0,0,-1,671,568,0,0
-546,456,0,0,0,0,0,0,0,0,0,-1,678,568,0,0
-539,456,0,0,0,0,0,0,0,0,0,-1,685,568,0,0
-532,456,0,0,0,0,0,0,0,0,0,-1,692,568,0,0
-525,456,0,0,0,0,0,0,0,0,0,-1,699,568,0,0
-518,456,0,0,0,0,0,0,0,0,0,-1,706,568,0,0
-511,456,0,0,0,0,0,0,0,0,0,-1,713,568,0,0
-504,456,-10.3994,-2.34839,0,0,0,0,0,0,0,-1,720,568,-10.3994,2.3484
-497,456,-9.21375,-2.38068,0,0,0,0,0,0,0,-1,727,568,-9.21372,2.38069
-490,456,-8.09058,-2.31824,0,0,0,0,0,0,0,-1,734,568,-8.09057,2.31821
-483,456,-6.66119,-2.24329,0,0,0,0,0,0,0,-1,741,568,-6.66121,2.24331
-476,456,-5.1499,-2.21185,0,0,0,0,0,0,0,-1,748,568,-5.14992,2.21184
-469,456,-2.81238,-3.51501,0,0,0,0,0,0,0,-1,755,568,-2.81237,3.51501
-462,456,-4.2431,-5.27478,0,0,0,0,0,0,0,-1,762,568,-4.24312,5.27476
-455,456,-5.98364,-8.72119,0,0,0,0,0,0,0,-1,769,568,-5.98364,8.72122
-448,456,-10.1522,-18.2604,0,0,0,0,0,0,0,-1,776,568,-10.1522,18.2604
-441,456,-10.3407,-19.3808,0,0,0,0,0,0,0,-1,783,568,-10.3407,19.3808
-434,456,-10.2341,-20.5442,-0.000714642,0.00557024,-0.000758662,0.00566052,-0.000804925,-1.45235,0.00406862,0.0246329,790,568,-10.2341,20.5442
-427,456,-10.2693,-21.515,-0.000223622,0.00491465,-0.00106863,0.00512804,-0.000437009,-1.37371,0.00357328,0.0101513,797,568,-10.2693,21.515
-420,456,-10.3203,-22.4666,0.000181215,0.00423899,-0.00129321,0.00461609,-0.000195888,-1.28706,0.00314472,0.0099468,804,568,-10.3203,22.4666
-413,456,-10.3876,-23.4259,0.00046206,0.00342777,-0.00131068,0.00392399,-3.41586e-05,-1.20888,0.00262745,0.00974864,811,568,-10.3876,23.4259
-406,456,-10.4819,-24.379,0.000652136,0.00247367,-0.00109323,0.0029858,0.000140005,-1.1327,0.00194555,0.0103232,818,568,-10.4819,24.3789
-399,456,-10.5321,-25.3019,0.000931657,0.00160675,-0.000848575,0.00218245,0.000355957,-0.974693,0.00135202,0.0124509,825,568,-10.5321,25.3019
-392,456,-10.5773,-26.2336,0.001321,0.000778463,-0.000593758,0.00170252,0.00039694,-0.571124,0.00102856,0.0117758,832,568,-10.5773,26.2336
-385,456,-10.6357,-27.1702,0.00185178,4.94288e-05,-0.000350219,0.00191744,-1.62311e-05,-0.185331,0.00128374,0.0108715,839,568,-10.6358,27.1702
-378,456,-10.7111,-28.1235,0.00241326,-0.000737794,-2.87091e-05,0.00241352,-0.000738055,-0.00910997,0.00190334,0.0123507,846,568,-10.7111,28.1236
-371,456,-10.7559,-29.0552,0.00311231,-0.00131666,0.000287108,0.00313085,-0.0013352,0.0644654,0.00264703,0.0133858,853,568,-10.7559,29.0552
-364,456,-10.773,-29.9167,0.00388886,-0.00159484,0.000515814,0.00393695,-0.00164293,0.0929765,0.00331106,0.0233156,860,568,-10.773,29.9168
-357,456,-10.7554,-30.8793,0,0,0,0,0,0,0,-1,867,568,-10.7554,30.8793
-350,456,-10.6765,-32.0634,0,0,0,0,0,0,0,-1,874,568,-10.6764,32.0634
-343,456,-3.39081,-12.0217,0,0,0,0,0,0,0,-1,881,568,-3.39078,12.0217
-336,456,-3.04517,-12.4623,0,0,0,0,0,0,0,-1,888,568,-3.04519,12.4624
-329,456,-1.06183,-10.7184,0,0,0,0,0,0,0,-1,895,568,-1.06184,10.7184
-322,456,-0.662537,-7.66632,0,0,0,0,0,0,0,-1,902,568,-0.662564,7.66633
-315,456,-0.675476,-3.38397,0,0,0,0,0,0,0,-1,909,568,-0.675473,3.38399
-308,456,-1.1618,-3.15314,0,0,0,0,0,0,0,-1,916,568,-1.16178,3.15314
-301,456,-1.83551,-3.26447,0,0,0,0,0,0,0,-1,923,568,-1.8355,3.26449
-294,456,-2.93414,-3.35449,0,0,0,0,0,0,0,-1,930,568,-2.93413,3.35451
-287,456,-3.7569,-3.53101,0,0,0,0,0,0,0,-1,937,568,-3.75692,3.53101
-280,456,-13.072,4.52856,0,0,0,0,0,0,0,-1,944,568,-13.072,-4.52855
-273,456,-8.26538,-6.66748,0,0,0,0,0,0,0,-1,951,568,-8.26536,6.66745
-266,456,-5.71527,-9.36884,0,0,0,0,0,0,0,-1,958,568,-5.71529,9.36885
-259,456,0,0,0,0,0,0,0,0,0,-1,965,568,0,0
-252,456,0,0,0,0,0,0,0,0,0,-1,972,568,0,0
-245,456,0,0,0,0,0,0,0,0,0,-1,979,568,0,0
-238,456,0,0,0,0,0,0,0,0,0,-1,986,568,0,0
-231,456,0,0,0,0,0,0,0,0,0,-1,993,568,0,0
-224,456,0,0,0,0,0,0,0,0,0,-1,1000,568,0,0
-217,456,0,0,0,0,0,0,0,0,0,-1,1007,568,0,0
-210,456,0,0,0,0,0,0,0,0,0,-1,1014,568,0,0
-203,456,0,0,0,0,0,0,0,0,0,-1,1021,568,0,0
-196,456,0,0,0,0,0,0,0,0,0,-1,1028,568,0,0
-189,456,0,0,0,0,0,0,0,0,0,-1,1035,568,0,0
-182,456,0,0,0,0,0,0,0,0,0,-1,1042,568,0,0
-175,456,0,0,0,0,0,0,0,0,0,-1,1049,568,0,0
-168,456,0,0,0,0,0,0,0,0,0,-1,1056,568,0,0
-161,456,0,0,0,0,0,0,0,0,0,-1,1063,568,0,0
-154,456,0,0,0,0,0,0,0,0,0,-1,1070,568,0,0
-147,456,0,0,0,0,0,0,0,0,0,-1,1077,568,0,0
-140,456,0,0,0,0,0,0,0,0,0,-1,1084,568,0,0
-133,456,0,0,0,0,0,0,0,0,0,-1,1091,568,0,0
-126,456,0,0,0,0,0,0,0,0,0,-1,1098,568,0,0
-119,456,0,0,0,0,0,0,0,0,0,-1,1105,568,0,0
-112,456,0,0,0,0,0,0,0,0,0,-1,1112,568,0,0
-105,456,0,0,0,0,0,0,0,0,0,-1,1119,568,0,0
-98,456,0,0,0,0,0,0,0,0,0,-1,1126,568,0,0
-91,456,0,0,0,0,0,0,0,0,0,-1,1133,568,0,0
-84,456,0,0,0,0,0,0,0,0,0,-1,1140,568,0,0
-77,456,0,0,0,0,0,0,0,0,0,-1,1147,568,0,0
-70,456,0,0,0,0,0,0,0,0,0,-1,1154,568,0,0
-63,456,0,0,0,0,0,0,0,0,0,-1,1161,568,0,0
-56,456,0,0,0,0,0,0,0,0,0,-1,1168,568,0,0
-49,456,0,0,0,0,0,0,0,0,0,-1,1175,568,0,0
-42,456,0,0,0,0,0,0,0,0,0,-1,1182,568,0,0
-35,456,0,0,0,0,0,0,0,0,0,-1,1189,568,0,0
-28,456,0,0,0,0,0,0,0,0,0,-1,1196,568,0,0
-21,456,0,0,0,0,0,0,0,0,0,-1,1203,568,0,0
-14,456,0,0,0,0,0,0,0,0,0,-1,1210,568,0,0
-7,456,0,0,0,0,0,0,0,0,0,-1,1217,568,0,0
0,456,0,0,0,0,0,0,0,0,0,-1,1224,568,0,0
7,456,0,0,0,0,0,0,0,0,0,-1,1231,568,0,0
14,456,0,0,0,0,0,0,0,0,0,-1,1238,568,0,0
21,456,0,0,0,0,0,0,0,0,0,-1,1245,568,0,0
28,456,0,0,0,0,0,0,0,0,0,-1,1252,568,0,0
35,456,0,0,0,0,0,0,0,0,0,-1,1259,568,0,0
42,456,0,0,0,0,0,0,0,0,0,-1,1266,568,0,0
49,456,0,0,0,0,0,0,0,0,0,-1,1273,568,0,0
56,456,0,0,0,0,0,0,0,0,0,-1,1280,568,0,0
63,456,0,0,0,0,0,0,0,0,0,-1,1287,568,0,0
70,456,0,0,0,0,0,0,0,0,0,-1,1294,568,0,0
77,456,0,0,0,0,0,0,0,0,0,-1,1301,568,0,0
84,456,0,0,0,0,0,0,0,0,0,-1,1308,568,0,0
91,456,0,0,0,0,0,0,0,0,0,-1,1315,568,0,0
98,456,0,0,0,0,0,0,0,0,0,-1,1322,568,0,0
105,456,0,0,0,0,0,0,0,0,0,-1,1329,568,0,0
112,456,0,0,0,0,0,0,0,0,0,-1,1336,568,0,0
119,456,0,0,0,0,0,0,0,0,0,-1,1343,568,0,0
126,456,0,0,0,0,0,0,0,0,0,-1,1350,568,0,0
133,456,0,0,0,0,0,0,0,0,0,-1,1357,568,0,0
140,456,0,0,0,0,0,0,0,0,0,-1,1364,568,0,0
147,456,0,0,0,0,0,0,0,0,0,-1,1371,568,0,0
154,456,0,0,0,0,0,0,0,0,0,-1,1378,568,0,0
161,456,0,0,0,0,0,0,0,0,0,-1,1385,568,0,0
168,456,0,0,0,0,0,0,0,0,0,-1,1392,568,0,0
175,456,0,0,0,0,0,0,0,0,0,-1,1399,568,0,0
182,456,0,0,0,0,0,0,0,0,0,-1,1406,568,0,0
189,456,0,0,0,0,0,0,0,0,0,-1,1413,568,0,0
196,456,0,0,0,0,0,0,0,0,0,-1,1420,568,0,0
203,456,0,0,0,0,0,0,0,0,0,-1,1427,568,0,0
210,456,0,0,0,0,0,0,0,0,0,-1,1434,568,0,0
217,456,0,0,0,0,0,0,0,0,0,-1,1441,568,0,0
224,456,0,0,0,0,0,0,0,0,0,-1,1448,568,0,0
231,456,0,0,0,0,0,0,0,0,0,-1,1455,568,0,0
238,456,0,0,0,0,0,0,0,0,0,-1,1462,568,0,0
245,456,0,0,0,0,0,0,0,0,0,-1,1469,568,0,0
252,456,0,0,0,0,0,0,0,0,0,-1,1476,568,0,0
259,456,0,0,0,0,0,0,0,0,0,-1,1483,568,0,0
266,456,0,0,0,0,0,0,0,0,0,-1,1490,568,0,0
273,456,0,0,0,0,0,0,0,0,0,-1,1497,568,0,0
280,456,0,0,0,0,0,0,0,0,0,-1,1504,568,0,0
287,456,0,0,0,0,0,0,0,0,0,-1,1511,568,0,0
294,456,0,0,0,0,0,0,0,0,0,-1,1518,568,0,0
301,456,0,0,0,0,0,0,0,0,0,-1,1525,568,0,0
308,456,0,0,0,0,0,0,0,0,0,-1,1532,568,0,0
315,456,0,0,0,0,0,0,0,0,0,-1,1539,568,0,0
322,456,0,0,0,0,0,0,0,0,0,-1,1546,568,0,0
329,456,0,0,0,0,0,0,0,0,0,-1,1553,568,0,0
336,456,0,0,0,0,0,0,0,0,0,-1,1560,568,0,0
343,456,0,0,0,0,0,0,0,0,0,-1,1567,568,0,0
350,456,0,0,0,0,0,0,0,0,0,-1,1574,568,0,0
357,456,0,0,0,0,0,0,0,0,0,-1,1581,568,0,0
364,456,0,0,0,0,0,0,0,0,0,-1,1588,568,0,0
371,456,0,0,0,0,0,0,0,0,0,-1,1595,568,0,0
378,456,0,0,0,0,0,0,0,0,0,-1,1602,568,0,0
385,456,5.66284,0.660645,0,0,0,0,0,0,0,-1,1609,568,5.66285,-0.660615
392,456,17.5027,4.32971,0,0,0,0,0,0,0,-1,1616,568,17.5026,-4.32971
399,456,24.1917,5.99652,0,0,0,0,0,0,0,-1,1623,568,24.1916,-5.99651
406,456,24.446,4.53003,0,0,0,0,0,0,0,-1,1630,568,24.446,-4.53005
413,456,24.9418,2.90521,0,0,0,0,0,0,0,-1,1637,568,24.9418,-2.90524
420,456,25.3048,1.04712,0,0,0,0,0,0,0,-1,1644,568,25.3048,-1.04713
427,456,6.21375,2.02905,0,0,0,0,0,0,0,-1,1651,568,6.21372,-2.02904
434,456,3.0719,-4.86285,0,0,0,0,0,0,0,-1,1658,568,3.07184,4.86287
441,456,2.90344,-4.70459,0,0,0,0,0,0,0,-1,1665,568,2.90346,4.7046
448,456,3.06995,-4.93689,0,0,0,0,0,0,0,-1,1672,568,3.06991,4.93687
455,456,3.46582,-3.43701,0,0,0,0,0,0,0,-1,1679,568,3.46585,3.43698
462,456,4.68445,-4.45831,0,0,0,0,0,0,0,-1,1686,568,4.68439,4.45833
469,456,4.93201,-2.289,0,0,0,0,0,0,0,-1,1693,568,4.93197,2.28903
476,456,4.8363,-2.79364,0,0,0,0,0,0,0,-1,1700,568,4.83636,2.79363
483,456,12.8522,-13.692,0,0,0,0,0,0,0,-1,1707,568,12.8522,13.6919
490,456,26.6442,-30.1036,0,0,0,0,0,0,0,-1,1714,568,26.6442,30.1036
497,456,26.6317,-28.736,0,0,0,0,0,0,0,-1,1721,568,26.6317,28.736
504,456,26.5834,-27.7646,0.00178762,0.0014318,0.000415329,0.00206154,0.00115788,0.583043,0.00119324,0.0176542,1728,568,26.5834,27.7647
511,456,26.5967,-26.8666,0.00155012,0.00108366,0.000552722,0.0019168,0.000716976,0.58575,0.00111831,0.0162965,1735,568,26.5967,26.8667
518,456,26.5742,-25.9266,0.00122532,0.000809863,0.000702545,0.0017502,0.000284979,0.641654,0.00108436,0.0197378,1742,568,26.5743,25.9266
525,456,26.4532,-24.9579,0.00082127,0.000657743,0.0007459,0.00148987,-1.08617e-05,0.730807,0.00099689,0.0183224,1749,568,26.4533,24.958
532,456,26.4449,-23.9492,0.000444799,0.000682372,0.000758123,0.00133096,-0.000203787,0.863109,0.000962453,0.0185422,1756,568,26.445,23.9491
539,456,26.3557,-22.95,0.000107083,0.000877881,0.000787726,0.00136943,-0.00038447,1.01291,0.00106451,0.0265138,1763,568,26.3557,22.95
546,456,26.2035,-22.024,-0.000180905,0.00135339,0.000835943,0.00172084,-0.000548357,1.15665,0.00136717,0.0302078,1770,568,26.2035,22.024
553,456,26.1261,-21.0354,-0.000424909,0.00207486,0.000940484,0.00238917,-0.000739224,1.24826,0.00188806,0.0160537,1777,568,26.1262,21.0354
560,456,26.1295,-20.1281,-0.000520292,0.00304979,0.00115119,0.0033888,-0.000859304,1.2844,0.00259353,0.0120635,1784,568,26.1295,20.1281
567,456,26.0953,-19.1309,-0.000457775,0.00436017,0.00156014,0.00482124,-0.000918851,1.28344,0.00356019,0.0234402,1791,568,26.0953,19.1309
574,456,26.054,-18.1756,0,0,0,0,0,0,0,-1,1798,568,26.054,18.1756
581,456,16.2228,-9.08563,0,0,0,0,0,0,0,-1,1805,568,16.2228,9.08562
588,456,5.23901,-0.0901489,0,0,0,0,0,0,0,-1,1812,568,5.23906,0.0901656
595,456,6.90063,3.14886,0,0,0,0,0,0,0,-1,1819,568,6.90066,-3.14887
602,456,16.894,4.10938,0,0,0,0,0,0,0,-1,1826,568,16.8941,-4.1094
609,456,14.9966,3.5708,0,0,0,0,0,0,0,-1,1833,568,14.9966,-3.57083
616,456,17.7407,2.6579,0,0,0,0,0,0,0,-1,1840,568,17.7408,-2.6579
623,456,20.6838,1.7121,0,0,0,0,0,0,0,-1,1847,568,20.6838,-1.71208
630,456,0,0,0,0,0,0,0,0,0,-1,1854,568,0,0
637,456,0,0,0,0,0,0,0,0,0,-1,1861,568,0,0
644,456,0,0,0,0,0,0,0,0,0,-1,1868,568,0,0
651,456,0,0,0,0,0,0,0,0,0,-1,1875,568,0,0
658,456,0,0,0,0,0,0,0,0,0,-1,1882,568,0,0
665,456,0,0,0,0,0,0,0,0,0,-1,1889,568,0,0
672,456,0,0,0,0,0,0,0,0,0,-1,1896,568,0,0
679,456,0,0,0,0,0,0,0,0,0,-1,1903,568,0,0
686,456,0,0,0,0,0,0,0,0,0,-1,1910,568,0,0
693,456,0,0,0,0,0,0,0,0,0,-1,1917,568,0,0
700,456,0,0,0,0,0,0,0,0,0,-1,1924,568,0,0
707,456,0,0,0,0,0,0,0,0,0,-1,1931,568,0,0
714,456,0,0,0,0,0,0,0,0,0,-1,1938,568,0,0
721,456,0,0,0,0,0,0,0,0,0,-1,1945,568,0,0
728,456,0,0,0,0,0,0,0,0,0,-1,1952,568,0,0
735,456,0,0,0,0,0,0,0,0,0,-1,1959,568,0,0
742,456,0,0,0,0,0,0,0,0,0,-1,1966,568,0,0
749,456,0,0,0,0,0,0,0,0,0,-1,1973,568,0,0
756,456,0,0,0,0,0,0,0,0,0,-1,1980,568,0,0
763,456,0,0,0,0,0,0,0,0,0,-1,1987,568,0,0
770,456,0,0,0,0,0,0,0,0,0,-1,1994,568,0,0
777,456,0,0,0,0,0,0,0,0,0,-1,2001,568,0,0
784,456,0,0,0,0,0,0,0,0,0,-1,2008,568,0,0
791,456,0,0,0,0,0,0,0,0,0,-1,2015,568,0,0
798,456,0,0,0,0,0,0,0,0,0,-1,2022,568,0,0
805,456,0,0,0,0,0,0,0,0,0,-1,2029,568,0,0
812,456,0,0,0,0,0,0,0,0,0,-1,2036,568,0,0
-700,449,0,0,0,0,0,0,0,0,0,-1,524,575,0,0
-693,449,0,0,0,0,0,0,0,0,0,-1,531,575,0,0
-686,449,0,0,0,0,0,0,0,0,0,-1,538,575,0,0
-679,449,0,0,0,0,0,0,0,0,0,-1,545,575,0,0
-672,449,0,0,0,0,0,0,0,0,0,-1,552,575,0,0
-665,449,0,0,0,0,0,0,0,0,0,-1,559,575,0,0
-658,449,0,0,0,0,0,0,0,0,0,-1,566,575,0,0
-651,449,0,0,0,0,0,0,0,0,0,-1,573,575,0,0
-644,449,0,0,0,0,0,0,0,0,0,-1,580,575,0,0
-637,449,0,0,0,0,0,0,0,0,0,-1,587,575,0,0
-630,449,0,0,0,0,0,0,0,0,0,-1,594,575,0,0
-623,449,0,0,0,0,0,0,0,0,0,-1,601,575,0,0
-616,449,0,0,0,0,0,0,0,0,0,-1,608,575,0,0
-609,449,0,0,0,0,0,0,0,0,0,-1,615,575,0,0
-602,449,0,0,0,0,0,0,0,0,0,-1,622,575,0,0
-595,449,0,0,0,0,0,0,0,0,0,-1,629,575,0,0
-588,449,0,0,0,0,0,0,0,0,0,-1,636,575,0,0
-581,449,0,0,0,0,0,0,0,0,0,-1,643,575,0,0
-574,449,0,0,0,0,0,0,0,0,0,-1,650,575,0,0
-567,449,0,0,0,0,0,0,0,0,0,-1,657,575,0,0
-560,449,0,0,0,0,0,0,0,0,0,-1,664,575,0,0
-553,449,0,0,0,0,0,0,0,0,0,-1,671,575,0,0
-546,449,0,0,0,0,0,0,0,0,0,-1,678,575,0,0
-539,449,0,0,0,0,0,0,0,0,0,-1,685,575,0,0
-532,449,0,0,0,0,0,0,0,0,0,-1,692,575,0,0
-525,449,0,0,0,0,0,0,0,0,0,-1,699,575,0,0
-518,449,0,0,0,0,0,0,0,0,0,-1,706,575,0,0
-511,449,-0.941345,-4.4519,0,0,0,0,0,0,0,-1,713,575,-0.941356,4.45191
-504,449,-14.1078,0.318237,0,0,0,0,0,0,0,-1,720,575,-14.1078,-0.318231
-497,449,-8.61292,-3.09009,0,0,0,0,0,0,0,-1,727,575,-8.61291,3.09011
-490,449,-7.50995,-2.96252,0,0,0,0,0,0,0,-1,734,575,-7.50995,2.96251
-483,449,-5.77789,-2.50061,0,0,0,0,0,0,0,-1,741,575,-5.77792,2.50059
-476,449,-4.1723,-2.07739,0,0,0,0,0,0,0,-1,748,575,-4.17228,2.0774
-469,449,-5.0976,-5.78448,0,0,0,0,0,0,0,-1,755,575,-5.09758,5.78451
-462,449,-6.54181,-9.54535,0,0,0,0,0,0,0,-1,762,575,-6.54178,9.54536
-455,449,-8.67291,-13.2226,0,0,0,0,0,0,0,-1,769,575,-8.67289,13.2226
-448,449,-11.0134,-18.434,0,0,0,0,0,0,0,-1,776,575,-11.0134,18.434
-441,449,-11.0471,-19.6011,-0.00142865,0.00428037,9.0494e-05,0.0042818,-0.00143009,1.55495,0.00343203,0.0278639,783,575,-11.0471,19.6011
-434,449,-11.1863,-20.4992,-0.000634874,0.0038676,-0.000437352,0.00390969,-0.000676963,-1.47486,0.00285896,0.0165373,790,575,-11.1863,20.4992
-427,449,-11.2394,-21.4251,-5.68358e-05,0.00342484,-0.000755417,0.00358168,-0.000213673,-1.36609,0.0024621,0.0147701,797,575,-11.2394,21.4251
-420,449,-11.2734,-22.3705,0.00043846,0.00297324,-0.000994697,0.00331696,9.47325e-05,-1.23808,0.00218042,0.0137858,804,575,-11.2734,22.3705
-413,449,-11.3243,-23.3491,0.000785212,0.00237544,-0.00103329,0.00288413,0.00027653,-1.11333,0.00183752,0.0120495,811,575,-11.3243,23.3491
-406,449,-11.4184,-24.3226,0.00103189,0.00163587,-0.000867214,0.00225217,0.000415588,-0.952947,0.00138388,0.0113995,818,575,-11.4184,24.3226
-399,449,-11.494,-25.2524,0.0013781,0.000981344,-0.000704381,0.00191151,0.000447941,-0.648135,0.00115437,0.00981781,825,575,-11.494,25.2525
-392,449,-11.5272,-26.1723,0.00181279,0.00034756,-0.000523296,0.00198049,0.000179862,-0.310125,0.00126464,0.0103269,832,575,-11.5271,26.1723
-385,449,-11.5693,-27.0928,0.00238128,-0.000229303,-0.000344388,0.00242595,-0.00027397,-0.128981,0.00171593,0.0107301,839,575,-11.5693,27.0927
-378,449,-11.647,-28.0233,0.00301856,-0.000860516,-9.89156e-05,0.00302108,-0.000863036,-0.0254777,0.00235505,0.0111704,846,575,-11.647,28.0233
-371,449,-11.6887,-28.9884,0.00386139,-0.00120594,0.000151108,0.00386589,-0.00121044,0.0297847,0.00306157,0.0191255,853,575,-11.6887,28.9884
-364,449,-11.6367,-29.9837,0,0,0,0,0,0,0,-1,860,575,-11.6367,29.9837
-357,449,-5.88049,-15.8704,0,0,0,0,0,0,0,-1,867,575,-5.88051,15.8704
-350,449,-2.8764,-9.90204,0,0,0,0,0,0,0,-1,874,575,-2.87638,9.90203
-343,449,-2.98492,-9.2254,0,0,0,0,0,0,0,-1,881,575,-2.98491,9.22541
-336,449,-1.29523,-9.54626,0,0,0,0,0,0,0,-1,888,575,-1.29525,9.54626
-329,449,-0.733398,-7.78937,0,0,0,0,0,0,0,-1,895,575,-0.733398,7.78937
-322,449,-0.628845,-3.16669,0,0,0,0,0,0,0,-1,902,575,-0.628861,3.16667
-315,449,-0.540344,-3.21918,0,0,0,0,0,0,0,-1,909,575,-0.540336,3.21917
-308,449,-1.04413,-2.99341,0,0,0,0,0,0,0,-1,916,575,-1.04415,2.99338
-301,449,-1.58691,-2.80725,0,0,0,0,0,0,0,-1,923,575,-1.58692,2.80728
-294,449,-3.71118,-2.76086,0,0,0,0,0,0,0,-1,930,575,-3.71119,2.76087
-287,449,-4.4082,-2.69525,0,0,0,0,0,0,0,-1,937,575,-4.40822,2.69526
-280,449,0.723999,-14.2697,0,0,0,0,0,0,0,-1,944,575,0.723977,14.2696
-273,449,0,0,0,0,0,0,0,0,0,-1,951,575,0,0
-266,449,0,0,0,0,0,0,0,0,0,-1,958,575,0,0
-259,449,0,0,0,0,0,0,0,0,0,-1,965,575,0,0
-252,449,0,0,0,0,0,0,0,0,0,-1,972,575,0,0
-245,449,0,0,0,0,0,0,0,0,0,-1,979,575,0,0
-238,449,0,0,0,0,0,0,0,0,0,-1,986,575,0,0
-231,449,0,0,0,0,0,0,0,0,0,-1,993,575,0,0
-224,449,0,0,0,0,0,0,0,0,0,-1,1000,575,0,0
-217,449,0,0,0,0,0,0,0,0,0,-1,1007,575,0,0
-210,449,0,0,0,0,0,0,0,0,0,-1,1014,575,0,0
-203,449,0,0,0,0,0,0,0,0,0,-1,1021,575,0,0
-196,449,0,0,0,0,0,0,0,0,0,-1,1028,575,0,0
-189,449,0,0,0,0,0,0,0,0,0,-1,1035,575,0,0
-182,449,0,0,0,0,0,0,0,0,0,-1,1042,575,0,0
-175,449,0,0,0,0,0,0,0,0,0,-1,1049,575,0,0
-168,449,0,0,0,0,0,0,0,0,0,-1,1056,575,0,0
-161,449,0,0,0,0,0,0,0,0,0,-1,1063,575,0,0
-154,449,0,0,0,0,0,0,0,0,0,-1,1070,575,0,0
-147,449,0,0,0,0,0,0,0,0,0,-1,1077,575,0,0
-140,449,0,0,0,0,0,0,0,0,0,-1,1084,575,0,0
-133,449,0,0,0,0,0,0,0,0,0,-1,1091,575,0,0
-126,449,0,0,0,0,0,0,0,0,0,-1,1098,575,0,0
-119,449,0,0,0,0,0,0,0,0,0,-1,1105,575,0,0
-112,449,0,0,0,0,0,0,0,0,0,-1,1112,575,0,0
-105,449,0,0,0,0,0,0,0,0,0,-1,1119,575,0,0
-98,449,0,0,0,0,0,0,0,0,0,-1,1126,575,0,0
-91,449,0,0,0,0,0,0,0,0,0,-1,1133,575,0,0
-84,449,0,0,0,0,0,0,0,0,0,-1,1140,575,0,0
-77,449,0,0,0,0,0,0,0,0,0,-1,1147,575,0,0
-70,449,0,0,0,0,0,0,0,0,0,-1,1154,575,0,0
-63,449,0,0,0,0,0,0,0,0,0,-1,1161,575,0,0
-56,449,0,0,0,0,0,0,0,0,0,-1,1168,575,0,0
-49,449,0,0,0,0,0,0,0,0,0,-1,1175,575,0,0
-42,449,0,0,0,0,0,0,0,0,0,-1,1182,575,0,0
-35,449,0,0,0,0,0,0,0,0,0,-1,1189,575,0,0
-28,449,0,0,0,0,0,0,0,0,0,-1,1196,575,0,0
-21,449,0,0,0,0,0,0,0,0,0,-1,1203,575,0,0
-14,449,0,0,0,0,0,0,0,0,0,-1,1210,575,0,0
-7,449,0,0,0,0,0,0,0,0,0,-1,1217,575,0,0
0,449,0,0,0,0,0,0,0,0,0,-1,1224,575,0,0
7,449,0,0,0,0,0,0,0,0,0,-1,1231,575,0,0
14,449,0,0,0,0,0,0,0,0,0,-1,1238,575,0,0
21,449,0,0,0,0,0,0,0,0,0,-1,1245,575,0,0
28,449,0,0,0,0,0,0,0,0,0,-1,1252,575,0,0
35,449,0,0,0,0,0,0,0,0,0,-1,1259,575,0,0
42,449,0,0,0,0,0,0,0,0,0,-1,1266,575,0,0
49,449,0,0,0,0,0,0,0,0,0,-1,1273,575,0,0
56,449,0,0,0,0,0,0,0,0,0,-1,1280,575,0,0
63,449,0,0,0,0,0,0,0,0,0,-1,1287,575,0,0
70,449,0,0,0,0,0,0,0,0,0,-1,1294,575,0,0
77,449,0,0,0,0,0,0,0,0,0,-1,1301,575,0,0
84,449,0,0,0,0,0,0,0,0,0,-1,1308,575,0,0
91,449,0,0,0,0,0,0,0,0,0,-1,1315,575,0,0
98,449,0,0,0,0,0,0,0,0,0,-1,1322,575,0,0
105,449,0,0,0,0,0,0,0,0,0,-1,1329,575,0,0
112,449,0,0,0,0,0,0,0,0,0,-1,1336,575,0,0
119,449,0,0,0,0,0,0,0,0,0,-1,1343,575,0,0
126,449,0,0,0,0,0,0,0,0,0,-1,1350,575,0,0
133,449,0,0,0,0,0,0,0,0,0,-1,1357,575,0,0
140,449,0,0,0,0,0,0,0,0,0,-1,1364,575,0,0
147,449,0,0,0,0,0,0,0,0,0,-1,1371,575,0,0
154,449,0,0,0,0,0,0,0,0,0,-1,1378,575,0,0
161,449,0,0,0,0,0,0,0,0,0,-1,1385,575,0,0
168,449,0,0,0,0,0,0,0,0,0,-1,1392,575,0,0
175,449,0,0,0,0,0,0,0,0,0,-1,1399,575,0,0
182,449,0,0,0,0,0,0,0,0,0,-1,1406,575,0,0
189,449,0,0,0,0,0,0,0,0,0,-1,1413,575,0,0
196,449,0,0,0,0,0,0,0,0,0,-1,1420,575,0,0
203,449,0,0,0,0,0,0,0,0,0,-1,1427,575,0,0
210,449,0,0,0,0,0,0,0,0,0,-1,1434,575,0,0
217,449,0,0,0,0,0,0,0,0,0,-1,1441,575,0,0
224,449,0,0,0,0,0,0,0,0,0,-1,1448,575,0,0
231,449,0,0,0,0,0,0,0,0,0,-1,1455,575,0,0
238,449,0,0,0,0,0,0,0,0,0,-1,1462,575,0,0
245,449,0,0,0,0,0,0,0,0,0,-1,1469,575,0,0
252,449,0,0,0,0,0,0,0,0,0,-1,1476,575,0,0
259,449,0,0,0,0,0,0,0,0,0,-1,1483,575,0,0
266,449,0,0,0,0,0,0,0,0,0,-1,1490,575,0,0
273,449,0,0,0,0,0,0,0,0,0,-1,1497,575,0,0
280,449,0,0,0,0,0,0,0,0,0,-1,1504,575,0,0
287,449,0,0,0,0,0,0,0,0,0,-1,1511,575,0,0
294,449,0,0,0,0,0,0,0,0,0,-1,1518,575,0,0
301,449,0,0,0,0,0,0,0,0,0,-1,1525,575,0,0
308,449,0,0,0,0,0,0,0,0,0,-1,1532,575,0,0
315,449,0,0,0,0,0,0,0,0,0,-1,1539,575,0,0
322,449,0,0,0,0,0,0,0,0,0,-1,1546,575,0,0
329,449,0,0,0,0,0,0,0,0,0,-1,1553,575,0,0
336,449,0,0,0,0,0,0,0,0,0,-1,1560,575,0,0
343,449,0,0,0,0,0,0,0,0,0,-1,1567,575,0,0
350,449,0,0,0,0,0,0,0,0,0,-1,1574,575,0,0
357,449,0,0,0,0,0,0,0,0,0,-1,1581,575,0,0
364,449,0,0,0,0,0,0,0,0,0,-1,1588,575,0,0
371,449,0,0,0,0,0,0,0,0,0,-1,1595,575,0,0
378,449,0,0,0,0,0,0,0,0,0,-1,1602,575,0,0
385,449,0,0,0,0,0,0,0,0,0,-1,1609,575,0,0
392,449,7.95471,3.66217,0,0,0,0,0,0,0,-1,1616,575,7.95471,-3.66218
399,449,19.9791,5.565,0,0,0,0,0,0,0,-1,1623,575,19.9791,-5.56499
406,449,24.9847,4.55969,0,0,0,0,0,0,0,-1,1630,575,24.9848,-4.55968
413,449,30.4159,3.15027,0,0,0,0,0,0,0,-1,1637,575,30.4159,-3.15028
420,449,23.9675,1.29718,0,0,0,0,0,0,0,-1,1644,575,23.9675,-1.29721
427,449,24.4276,-0.596558,0,0,0,0,0,0,0,-1,1651,575,24.4277,0.596569
434,449,25.61,-2.96594,0,0,0,0,0,0,0,-1,1658,575,25.61,2.96595
441,449,3.89856,-6.06458,0,0,0,0,0,0,0,-1,1665,575,3.89855,6.06459
448,449,4.03198,-5.18207,0,0,0,0,0,0,0,-1,1672,575,4.03197,5.18207
455,449,4.21948,-4.09467,0,0,0,0,0,0,0,-1,1679,575,4.21952,4.09465
462,449,4.23181,-2.96924,0,0,0,0,0,0,0,-1,1686,575,4.23185,2.96926
469,449,4.51672,-2.95135,0,0,0,0,0,0,0,-1,1693,575,4.51672,2.95135
476,449,4.71838,-1.86688,0,0,0,0,0,0,0,-1,1700,575,4.71842,1.86689
483,449,4.87878,-1.73126,0,0,0,0,0,0,0,-1,1707,575,4.87875,1.73128
490,449,5.73279,-2.74573,0,0,0,0,0,0,0,-1,1714,575,5.73282,2.74575
497,449,17.2095,-16.4381,0,0,0,0,0,0,0,-1,1721,575,17.2094,16.4381
504,449,27.4863,-27.7189,0,0,0,0,0,0,0,-1,1728,575,27.4864,27.7189
511,449,27.5045,-26.8071,0.00235981,0.00124493,0.000580475,0.00260716,0.00099758,0.40282,0.00151901,0.0185633,1735,575,27.5045,26.8071
518,449,27.4893,-25.8547,0.00195178,0.00085062,0.000758611,0.00233855,0.000463849,0.471489,0.00142973,0.0155457,1742,575,27.4893,25.8546
525,449,27.391,-24.876,0.0014425,0.000662102,0.00079414,0.00193713,0.000167477,0.557047,0.00123937,0.0147799,1749,575,27.3909,24.876
532,449,27.2999,-23.9325,0.000993097,0.000653977,0.000795514,0.00163692,1.01533e-05,0.680397,0.00108791,0.0130725,1756,575,27.2999,23.9325
539,449,27.2179,-22.9682,0.000638671,0.000831798,0.00082826,0.0015691,-9.86355e-05,0.843429,0.00108045,0.0190576,1763,575,27.2179,22.9682
546,449,27.1418,-21.9178,0.000356209,0.00124264,0.000864159,0.00177062,-0.000171766,1.02235,0.00124163,0.0342754,1770,575,27.1419,21.9178
553,449,27.0674,-20.9949,9.07243e-05,0.00190199,0.000940525,0.00230202,-0.000309307,1.16865,0.00164749,0.0222771,1777,575,27.0674,20.9949
560,449,27.0695,-20.1112,-8.31838e-05,0.00276572,0.00111732,0.00315165,-0.000469111,1.23822,0.00227366,0.0149881,1784,575,27.0695,20.1112
567,449,27.0222,-19.134,-0.000110484,0.00391916,0.00146597,0.00439604,-0.000587365,1.25629,0.00314482,0.0106514,1791,575,27.0223,19.134
574,449,26.9781,-18.1273,-0.000185897,0.00527688,0.00191576,0.00588175,-0.000790765,1.26497,0.00420959,0.0293597,1798,575,26.9782,18.1273
581,449,26.951,-17.0208,0,0,0,0,0,0,0,-1,1805,575,26.951,17.0208
588,449,12.3274,-4.5672,0,0,0,0,0,0,0,-1,1812,575,12.3274,4.5672
595,449,15.9352,-5.65479,0,0,0,0,0,0,0,-1,1819,575,15.9352,5.65478
602,449,9.46167,4.17444,0,0,0,0,0,0,0,-1,1826,575,9.46164,-4.17442
609,449,12.2028,3.18652,0,0,0,0,0,0,0,-1,1833,575,12.2027,-3.18655
616,449,14.9438,2.19867,0,0,0,0,0,0,0,-1,1840,575,14.9438,-2.19867
623,449,9.83789,-0.0820313,0,0,0,0,0,0,0,-1,1847,575,9.83794,0.0820443
630,449,8.90686,4.99329,0,0,0,0,0,0,0,-1,1854,575,8.90685,-4.99327
637,449,0,0,0,0,0,0,0,0,0,-1,1861,575,0,0
644,449,0,0,0,0,0,0,0,0,0,-1,1868,575,0,0
651,449,0,0,0,0,0,0,0,0,0,-1,1875,575,0,0
658,449,0,0,0,0,0,0,0,0,0,-1,1882,575,0,0
665,449,0,0,0,0,0,0,0,0,0,-1,1889,575,0,0
672,449,0,0,0,0,0,0,0,0,0,-1,1896,575,0,0
679,449,0,0,0,0,0,0,0,0,0,-1,1903,575,0,0
686,449,0,0,0,0,0,0,0,0,0,-1,1910,575,0,0
693,449,0,0,0,0,0,0,0,0,0,-1,1917,575,0,0
700,449,0,0,0,0,0,0,0,0,0,-1,1924,575,0,0
707,449,0,0,0,0,0,0,0,0,0,-1,1931,575,0,0
714,449,0,0,0,0,0,0,0,0,0,-1,1938,575,0,0
721,449,0,0,0,0,0,0,0,0,0,-1,1945,575,0,0
728,449,0,0,0,0,0,0,0,0,0,-1,1952,575,0,0
735,449,0,0,0,0,0,0,0,0,0,-1,1959,575,0,0
742,449,0,0,0,0,0,0,0,0,0,-1,1966,575,0,0
749,449,0,0,0,0,0,0,0,0,0,-1,1973,575,0,0
756,449,0,0,0,0,0,0,0,0,0,-1,1980,575,0,0
763,449,0,0,0,0,0,0,0,0,0,-1,1987,575,0,0
770,449,0,0,0,0,0,0,0,0,0,-1,1994,575,0,0
777,449,0,0,0,0,0,0,0,0,0,-1,2001,575,0,0
784,449,0,0,0,0,0,0,0,0,0,-1,2008,575,0,0
791,449,0,0,0,0,0,0,0,0,0,-1,2015,575,0,0
798,449,0,0,0,0,0,0,0,0,0,-1,2022,575,0,0
805,449,0,0,0,0,0,0,0,0,0,-1,2029,575,0,0
812,449,0,0,0,0,0,0,0,0,0,-1,2036,575,0,0
-700,442,0,0,0,0,0,0,0,0,0,-1,524,582,0,0
-693,442,0,0,0,0,0,0,0,0,0,-1,531,582,0,0
-686,442,0,0,0,0,0,0,0,0,0,-1,538,582,0,0
-679,442,0,0,0,0,0,0,0,0,0,-1,545,582,0,0
-672,442,0,0,0,0,0,0,0,0,0,-1,552,582,0,0
-665,442,0,0,0,0,0,0,0,0,0,-1,559,582,0,0
-658,442,0,0,0,0,0,0,0,0,0,-1,566,582,0,0
-651,442,0,0,0,0,0,0,0,0,0,-1,573,582,0,0
-644,442,0,0,0,0,0,0,0,0,0,-1,580,582,0,0
-637,442,0,0,0,0,0,0,0,0,0,-1,587,582,0,0
-630,442,0,0,0,0,0,0,0,0,0,-1,594,582,0,0
-623,442,0,0,0,0,0,0,0,0,0,-1,601,582,0,0
-616,442,0,0,0,0,0,0,0,0,0,-1,608,582,0,0
-609,442,0,0,0,0,0,0,0,0,0,-1,615,582,0,0
-602,442,0,0,0,0,0,0,0,0,0,-1,622,582,0,0
-595,442,0,0,0,0,0,0,0,0,0,-1,629,582,0,0
-588,442,0,0,0,0,0,0,0,0,0,-1,636,582,0,0
-581,442,0,0,0,0,0,0,0,0,0,-1,643,582,0,0
-574,442,0,0,0,0,0,0,0,0,0,-1,650,582,0,0
-567,442,0,0,0,0,0,0,0,0,0,-1,657,582,0,0
-560,442,0,0,0,0,0,0,0,0,0,-1,664,582,0,0
-553,442,0,0,0,0,0,0,0,0,0,-1,671,582,0,0
-546,442,0,0,0,0,0,0,0,0,0,-1,678,582,0,0
-539,442,0,0,0,0,0,0,0,0,0,-1,685,582,0,0
-532,442,0,0,0,0,0,0,0,0,0,-1,692,582,0,0
-525,442,0,0,0,0,0,0,0,0,0,-1,699,582,0,0
-518,442,-0.493774,-5.72943,0,0,0,0,0,0,0,-1,706,582,-0.493791,5.72946
-511,442,-1.33008,-6.18512,0,0,0,0,0,0,0,-1,713,582,-1.33006,6.18511
-504,442,-3.20807,-6.34082,0,0,0,0,0,0,0,-1,720,582,-3.2081,6.34083
-497,442,-13.6886,-0.250122,0,0,0,0,0,0,0,-1,727,582,-13.6886,0.250143
-490,442,-9.09039,-3.64862,0,0,0,0,0,0,0,-1,734,582,-9.09037,3.64861
-483,442,-7.36499,-1.01892,0,0,0,0,0,0,0,-1,741,582,-7.365,1.01895
-476,442,-4.84784,-4.44141,0,0,0,0,0,0,0,-1,748,582,-4.84787,4.44138
-469,442,-11.9595,-14.4929,0,0,0,0,0,0,0,-1,755,582,-11.9595,14.4929
-462,442,-10.2018,-14.6873,0,0,0,0,0,0,0,-1,762,582,-10.2019,14.6873
-455,442,-11.9644,-17.3779,0,0,0,0,0,0,0,-1,769,582,-11.9644,17.3779
-448,442,-11.9335,-18.4616,-0.00225485,0.00313408,0.00085966,0.00326789,-0.00238867,1.41638,0.00327894,0.0231555,776,582,-11.9335,18.4616
-441,442,-12.0493,-19.4669,-0.00121313,0.0028744,0.000213595,0.00288554,-0.00122426,1.51873,0.00243655,0.0142981,783,582,-12.0493,19.4669
-434,442,-12.1289,-20.4226,-0.000404081,0.0025837,-0.000258195,0.00260585,-0.000426229,-1.48522,0.00189535,0.0151639,790,582,-12.1289,20.4226
-427,442,-12.187,-21.3665,0.000227635,0.0022995,-0.000588176,0.00245483,7.23044e-05,-1.3126,0.00161299,0.0142832,797,582,-12.187,21.3665
-420,442,-12.2303,-22.3294,0.000783789,0.00202897,-0.000850796,0.00246064,0.000352115,-1.10126,0.00153656,0.0143268,804,582,-12.2303,22.3294
-413,442,-12.2723,-23.301,0.00117713,0.00162912,-0.000921424,0.00235186,0.000454393,-0.905656,0.00144053,0.0124815,811,582,-12.2723,23.301
-406,442,-12.3543,-24.2713,0.00147093,0.00112705,-0.000832471,0.00214903,0.000448946,-0.683557,0.00130896,0.0110559,818,582,-12.3543,24.2713
-399,442,-12.4444,-25.2081,0.00187553,0.000715734,-0.000782614,0.00226968,0.000321586,-0.466547,0.00141813,0.00907339,825,582,-12.4444,25.2081
-392,442,-12.4928,-26.111,0.00234533,0.000329798,-0.000709781,0.0025702,0.000104932,-0.306807,0.00167958,0.0107675,832,582,-12.4928,26.111
-385,442,-12.5334,-27.0251,0.00293531,-4.36082e-05,-0.000636021,0.00306542,-0.00017372,-0.201788,0.00210391,0.0128393,839,582,-12.5334,27.0252
-378,442,-12.55,-27.993,0.00364848,-0.000443822,-0.000523691,0.00371443,-0.000509776,-0.125281,0.00266253,0.019442,846,582,-12.55,27.993
-371,442,-12.6266,-29.056,0,0,0,0,0,0,0,-1,853,582,-12.6266,29.056
-364,442,-6.89764,-17.5333,0,0,0,0,0,0,0,-1,860,582,-6.89765,17.5333
-357,442,-4.9115,-11.2649,0,0,0,0,0,0,0,-1,867,582,-4.91147,11.2649
-350,442,-1.75372,-6.27618,0,0,0,0,0,0,0,-1,874,582,-1.75371,6.27618
-343,442,-1.4599,-4.63605,0,0,0,0,0,0,0,-1,881,582,-1.4599,4.63607
-336,442,-1.4054,-2.64313,0,0,0,0,0,0,0,-1,888,582,-1.40539,2.64315
-329,442,-0.952576,-2.76923,0,0,0,0,0,0,0,-1,895,582,-0.952571,2.7692
-322,442,-0.972534,-2.63208,0,0,0,0,0,0,0,-1,902,582,-0.972512,2.6321
-315,442,-0.445557,-2.89764,0,0,0,0,0,0,0,-1,909,582,-0.445582,2.89765
-308,442,-0.654175,-3.07831,0,0,0,0,0,0,0,-1,916,582,-0.654145,3.07832
-301,442,-1.37427,-2.41455,0,0,0,0,0,0,0,-1,923,582,-1.37425,2.41453
-294,442,-2.99963,-2.07855,0,0,0,0,0,0,0,-1,930,582,-2.99964,2.07857
-287,442,3.91034,-10.1913,0,0,0,0,0,0,0,-1,937,582,3.91034,10.1913
-280,442,0,0,0,0,0,0,0,0,0,-1,944,582,0,0
-273,442,0,0,0,0,0,0,0,0,0,-1,951,582,0,0
-266,442,0,0,0,0,0,0,0,0,0,-1,958,582,0,0
-259,442,0,0,0,0,0,0,0,0,0,-1,965,582,0,0
-252,442,0,0,0,0,0,0,0,0,0,-1,972,582,0,0
-245,442,0,0,0,0,0,0,0,0,0,-1,979,582,0,0
-238,442,0,0,0,0,0,0,0,0,0,-1,986,582,0,0
-231,442,0,0,0,0,0,0,0,0,0,-1,993,582,0,0
-224,442,0,0,0,0,0,0,0,0,0,-1,1000,582,0,0
-217,442,0,0,0,0,0,0,0,0,0,-1,1007,582,0,0
-210,442,0,0,0,0,0,0,0,0,0,-1,1014,582,0,0
-203,442,0,0,0,0,0,0,0,0,0,-1,1021,582,0,0
-196,442,0,0,0,0,0,0,0,0,0,-1,1028,582,0,0
-189,442,0,0,0,0,0,0,0,0,0,-1,1035,582,0,0
-182,442,0,0,0,0,0,0,0,0,0,-1,1042,582,0,0
-175,442,0,0,0,0,0,0,0,0,0,-1,1049,582,0,0
-168,442,0,0,0,0,0,0,0,0,0,-1,1056,582,0,0
-161,442,0,0,0,0,0,0,0,0,0,-1,1063,582,0,0
-154,442,0,0,0,0,0,0,0,0,0,-1,1070,582,0,0
-147,442,0,0,0,0,0,0,0,0,0,-1,1077,582,0,0
-140,442,0,0,0,0,0,0,0,0,0,-1,1084,582,0,0
-133,442,0,0,0,0,0,0,0,0,0,-1,1091,582,0,0
-126,442,0,0,0,0,0,0,0,0,0,-1,1098,582,0,0
-119,442,0,0,0,0,0,0,0,0,0,-1,1105,582,0,0
-112,442,0,0,0,0,0,0,0,0,0,-1,1112,582,0,0
-105,442,0,0,0,0,0,0,0,0,0,-1,1119,582,0,0
-98,442,0,0,0,0,0,0,0,0,0,-1,1126,582,0,0
-91,442,0,0,0,0,0,0,0,0,0,-1,1133,582,0,0
-84,442,0,0,0,0,0,0,0,0,0,-1,1140,582,0,0
-77,442,0,0,0,0,0,0,0,0,0,-1,1147,582,0,0
-70,442,0,0,0,0,0,0,0,0,0,-1,1154,582,0,0
-63,442,0,0,0,0,0,0,0,0,0,-1,1161,582,0,0
-56,442,0,0,0,0,0,0,0,0,0,-1,1168,582,0,0
-49,442,0,0,0,0,0,0,0,0,0,-1,1175,582,0,0
-42,442,0,0,0,0,0,0,0,0,0,-1,1182,582,0,0
-35,442,0,0,0,0,0,0,0,0,0,-1,1189,582,0,0
-28,442,0,0,0,0,0,0,0,0,0,-1,1196,582,0,0
-21,442,0,0,0,0,0,0,0,0,0,-1,1203,582,0,0
-14,442,0,0,0,0,0,0,0,0,0,-1,1210,582,0,0
-7,442,0,0,0,0,0,0,0,0,0,-1,1217,582,0,0
0,442,0,0,0,0,0,0,0,0,0,-1,1224,582,0,0
7,442,0,0,0,0,0,0,0,0,0,-1,1231,582,0,0
14,442,0,0,0,0,0,0,0,0,0,-1,1238,582,0,0
21,442,0,0,0,0,0,0,0,0,0,-1,1245,582,0,0
28,442,0,0,0,0,0,0,0,0,0,-1,1252,582,0,0
35,442,0,0,0,0,0,0,0,0,0,-1,1259,582,0,0
42,442,0,0,0,0,0,0,0,0,0,-1,1266,582,0,0
49,442,0,0,0,0,0,0,0,0,0,-1,1273,582,0,0
56,442,0,0,0,0,0,0,0,0,0,-1,1280,582,0,0
63,442,0,0,0,0,0,0,0,0,0,-1,1287,582,0,0
70,442,0,0,0,0,0,0,0,0,0,-1,1294,582,0,0
77,442,0,0,0,0,0,0,0,0,0,-1,1301,582,0,0
84,442,0,0,0,0,0,0,0,0,0,-1,1308,582,0,0
91,442,0,0,0,0,0,0,0,0,0,-1,1315,582,0,0
98,442,0,0,0,0,0,0,0,0,0,-1,1322,582,0,0
105,442,0,0,0,0,0,0,0,0,0,-1,1329,582,0,0
112,442,0,0,0,0,0,0,0,0,0,-1,1336,582,0,0
119,442,0,0,0,0,0,0,0,0,0,-1,1343,582,0,0
126,442,0,0,0,0,0,0,0,0,0,-1,1350,582,0,0
133,442,0,0,0,0,0,0,0,0,0,-1,1357,582,0,0
140,442,0,0,0,0,0,0,0,0,0,-1,1364,582,0,0
147,442,0,0,0,0,0,0,0,0,0,-1,1371,582,0,0
154,442,0,0,0,0,0,0,0,0,0,-1,1378,582,0,0
161,442,0,0,0,0,0,0,0,0,0,-1,1385,582,0,0
168,442,0,0,0,0,0,0,0,0,0,-1,1392,582,0,0
175,442,0,0,0,0,0,0,0,0,0,-1,1399,582,0,0
182,442,0,0,0,0,0,0,0,0,0,-1,1406,582,0,0
189,442,0,0,0,0,0,0,0,0,0,-1,1413,582,0,0
196,442,0,0,0,0,0,0,0,0,0,-1,1420,582,0,0
203,442,0,0,0,0,0,0,0,0,0,-1,1427,582,0,0
210,442,0,0,0,0,0,0,0,0,0,-1,1434,582,0,0
217,442,0,0,0,0,0,0,0,0,0,-1,1441,582,0,0
224,442,0,0,0,0,0,0,0,0,0,-1,1448,582,0,0
231,442,0,0,0,0,0,0,0,0,0,-1,1455,582,0,0
238,442,0,0,0,0,0,0,0,0,0,-1,1462,582,0,0
245,442,0,0,0,0,0,0,0,0,0,-1,1469,582,0,0
252,442,0,0,0,0,0,0,0,0,0,-1,1476,582,0,0
259,442,0,0,0,0,0,0,0,0,0,-1,1483,582,0,0
266,442,0,0,0,0,0,0,0,0,0,-1,1490,582,0,0
273,442,0,0,0,0,0,0,0,0,0,-1,1497,582,0,0
280,442,0,0,0,0,0,0,0,0,0,-1,1504,582,0,0
287,442,0,0,0,0,0,0,0,0,0,-1,1511,582,0,0
294,442,0,0,0,0,0,0,0,0,0,-1,1518,582,0,0
301,442,0,0,0,0,0,0,0,0,0,-1,1525,582,0,0
308,442,0,0,0,0,0,0,0,0,0,-1,1532,582,0,0
315,442,0,0,0,0,0,0,0,0,0,-1,1539,582,0,0
322,442,0,0,0,0,0,0,0,0,0,-1,1546,582,0,0
329,442,0,0,0,0,0,0,0,0,0,-1,1553,582,0,0
336,442,0,0,0,0,0,0,0,0,0,-1,1560,582,0,0
343,442,0,0,0,0,0,0,0,0,0,-1,1567,582,0,0
350,442,0,0,0,0,0,0,0,0,0,-1,1574,582,0,0
357,442,0,0,0,0,0,0,0,0,0,-1,1581,582,0,0
364,442,0,0,0,0,0,0,0,0,0,-1,1588,582,0,0
371,442,0,0,0,0,0,0,0,0,0,-1,1595,582,0,0
378,442,0,0,0,0,0,0,0,0,0,-1,1602,582,0,0
385,442,0,0,0,0,0,0,0,0,0,-1,1609,582,0,0
392,442,0,0,0,0,0,0,0,0,0,-1,1616,582,0,0
399,442,0,0,0,0,0,0,0,0,0,-1,1623,582,0,0
406,442,17.6321,4.08295,0,0,0,0,0,0,0,-1,1630,582,17.6321,-4.08293
413,442,25.4768,2.74445,0,0,0,0,0,0,0,-1,1637,582,25.4768,-2.74444
420,442,22.7478,1.55011,0,0,0,0,0,0,0,-1,1644,582,22.7478,-1.55009
427,442,23.2969,-0.456787,0,0,0,0,0,0,0,-1,1651,582,23.2968,0.456769
434,442,23.9512,-2.49365,0,0,0,0,0,0,0,-1,1658,582,23.9512,2.49366
441,442,24.8251,-4.43958,0,0,0,0,0,0,0,-1,1665,582,24.8251,4.43956
448,442,4.7749,-5.88562,0,0,0,0,0,0,0,-1,1672,582,4.7749,5.8856
455,442,4.87024,-4.60687,0,0,0,0,0,0,0,-1,1679,582,4.87019,4.60686
462,442,5.02307,-3.72821,0,0,0,0,0,0,0,-1,1686,582,5.02311,3.7282
469,442,5.12976,-2.98834,0,0,0,0,0,0,0,-1,1693,582,5.12971,2.98834
476,442,5.4624,1.76947,0,0,0,0,0,0,0,-1,1700,582,5.46234,-1.76944
483,442,5.98486,1.87042,0,0,0,0,0,0,0,-1,1707,582,5.98492,-1.87045
490,442,5.04407,-2.35834,0,0,0,0,0,0,0,-1,1714,582,5.04411,2.35837
497,442,6.20984,-3.07831,0,0,0,0,0,0,0,-1,1721,582,6.2098,3.07833
504,442,20.9276,-19.7709,0,0,0,0,0,0,0,-1,1728,582,20.9276,19.771
511,442,28.4136,-26.7697,0,0,0,0,0,0,0,-1,1735,582,28.4136,26.7696
518,442,28.4312,-25.7833,0.00251384,0.000882412,0.000855172,0.00287995,0.000516301,0.404505,0.0017731,0.0182736,1742,582,28.4311,25.7833
525,442,28.3186,-24.8018,0.0020046,0.000654697,0.000853299,0.00241762,0.000241679,0.450786,0.00153753,0.0119784,1749,582,28.3186,24.8017
532,442,28.2515,-23.8564,0.00154958,0.000601154,0.000819294,0.002022,0.00012873,0.523054,0.00130721,0.0129331,1756,582,28.2515,23.8564
539,442,28.1958,-22.8971,0.00122377,0.000754397,0.00083689,0.00185826,0.000119909,0.648697,0.00120086,0.0163245,1763,582,28.1958,22.8971
546,442,28.1815,-21.8992,0.000964925,0.00109281,0.000852192,0.00188346,0.00017428,0.822844,0.00120176,0.0225282,1770,582,28.1815,21.8992
553,442,28.0677,-20.9427,0.000686759,0.00167412,0.000903356,0.00220989,0.000150986,1.03547,0.0014256,0.0225335,1777,582,28.0678,20.9427
560,442,28.0486,-20.014,0.000446803,0.00241623,0.00104337,0.00286618,-3.15579e-06,1.16364,0.00191184,0.0153653,1784,582,28.0485,20.014
567,442,27.9667,-19.085,0.000340155,0.00339673,0.00133543,0.00389798,-0.000161096,1.21172,0.00265398,0.0108708,1791,582,27.9667,19.085
574,442,27.9022,-18.1224,0.000238841,0.00455084,0.00171841,0.00515188,-0.0003622,1.23433,0.00356146,0.012566,1798,582,27.9022,18.1225
581,442,27.9102,-17.0446,0.000119438,0.00593387,0.00224485,0.0066997,-0.000646393,1.24203,0.00469678,0.0315366,1805,582,27.9102,17.0445
588,442,28.0089,-15.9322,0,0,0,0,0,0,0,-1,1812,582,28.009,15.9322
595,442,16.27,-6.47083,0,0,0,0,0,0,0,-1,1819,582,16.27,6.47082
602,442,16.2213,-4.49225,0,0,0,0,0,0,0,-1,1826,582,16.2213,4.49223
609,442,12.761,2.97223,0,0,0,0,0,0,0,-1,1833,582,12.761,-2.97221
616,442,9.78345,-0.103394,0,0,0,0,0,0,0,-1,1840,582,9.78341,0.103424
623,442,9.23828,0.326721,0,0,0,0,0,0,0,-1,1847,582,9.23829,-0.326727
630,442,7.74304,2.3924,0,0,0,0,0,0,0,-1,1854,582,7.7431,-2.39238
637,442,5.87805,1.84027,0,0,0,0,0,0,0,-1,1861,582,5.87807,-1.84025
644,442,0,0,0,0,0,0,0,0,0,-1,1868,582,0,0
651,442,0,0,0,0,0,0,0,0,0,-1,1875,582,0,0
658,442,0,0,0,0,0,0,0,0,0,-1,1882,582,0,0
665,442,0,0,0,0,0,0,0,0,0,-1,1889,582,0,0
672,442,0,0,0,0,0,0,0,0,0,-1,1896,582,0,0
679,442,0,0,0,0,0,0,0,0,0,-1,1903,582,0,0
686,442,0,0,0,0,0,0,0,0,0,-1,1910,582,0,0
693,442,0,0,0,0,0,0,0,0,0,-1,1917,582,0,0
700,442,0,0,0,0,0,0,0,0,0,-1,1924,582,0,0
707,442,0,0,0,0,0,0,0,0,0,-1,1931,582,0,0
714,442,0,0,0,0,0,0,0,0,0,-1,1938,582,0,0
721,442,0,0,0,0,0,0,0,0,0,-1,1945,582,0,0
728,442,0,0,0,0,0,0,0,0,0,-1,1952,582,0,0
735,442,0,0,0,0,0,0,0,0,0,-1,1959,582,0,0
742,442,0,0,0,0,0,0,0,0,0,-1,1966,582,0,0
749,442,0,0,0,0,0,0,0,0,0,-1,1973,582,0,0
756,442,0,0,0,0,0,0,0,0,0,-1,1980,582,0,0
763,442,0,0,0,0,0,0,0,0,0,-1,1987,582,0,0
770,442,0,0,0,0,0,0,0,0,0,-1,1994,582,0,0
777,442,0,0,0,0,0,0,0,0,0,-1,2001,582,0,0
784,442,0,0,0,0,0,0,0,0,0,-1,2008,582,0,0
791,442,0,0,0,0,0,0,0,0,0,-1,2015,582,0,0
798,442,0,0,0,0,0,0,0,0,0,-1,2022,582,0,0
805,442,0,0,0,0,0,0,0,0,0,-1,2029,582,0,0
812,442,0,0,0,0,0,0,0,0,0,-1,2036,582,0,0
-700,435,0,0,0,0,0,0,0,0,0,-1,524,589,0,0
-693,435,0,0,0,0,0,0,0,0,0,-1,531,589,0,0
-686,435,0,0,0,0,0,0,0,0,0,-1,538,589,0,0
-679,435,0,0,0,0,0,0,0,0,0,-1,545,589,0,0
-672,435,0,0,0,0,0,0,0,0,0,-1,552,589,0,0
-665,435,0,0,0,0,0,0,0,0,0,-1,559,589,0,0
-658,435,0,0,0,0,0,0,0,0,0,-1,566,589,0,0
-651,435,0,0,0,0,0,0,0,0,0,-1,573,589,0,0
-644,435,0,0,0,0,0,0,0,0,0,-1,580,589,0,0
-637,435,0,0,0,0,0,0,0,0,0,-1,587,589,0,0
-630,435,0,0,0,0,0,0,0,0,0,-1,594,589,0,0
-623,435,0,0,0,0,0,0,0,0,0,-1,601,589,0,0
-616,435,0,0,0,0,0,0,0,0,0,-1,608,589,0,0
-609,435,0,0,0,0,0,0,0,0,0,-1,615,589,0,0
-602,435,0,0,0,0,0,0,0,0,0,-1,622,589,0,0
-595,435,0,0,0,0,0,0,0,0,0,-1,629,589,0,0
-588,435,0,0,0,0,0,0,0,0,0,-1,636,589,0,0
-581,435,0,0,0,0,0,0,0,0,0,-1,643,589,0,0
-574,435,0,0,0,0,0,0,0,0,0,-1,650,589,0,0
-567,435,0,0,0,0,0,0,0,0,0,-1,657,589,0,0
-560,435,0,0,0,0,0,0,0,0,0,-1,664,589,0,0
-553,435,0,0,0,0,0,0,0,0,0,-1,671,589,0,0
-546,435,0,0,0,0,0,0,0,0,0,-1,678,589,0,0
-539,435,0,0,0,0,0,0,0,0,0,-1,685,589,0,0
-532,435,0,0,0,0,0,0,0,0,0,-1,692,589,0,0
-525,435,-10.0776,10.0547,0,0,0,0,0,0,0,-1,699,589,-10.0776,-10.0547
-518,435,-1.83093,-5.82367,0,0,0,0,0,0,0,-1,706,589,-1.83093,5.8237
-511,435,-2.45154,-5.33118,0,0,0,0,0,0,0,-1,713,589,-2.45151,5.33115
-504,435,-3.07208,-4.83862,0,0,0,0,0,0,0,-1,720,589,-3.0721,4.8386
-497,435,-6.31012,-5.84698,0,0,0,0,0,0,0,-1,727,589,-6.31012,5.84697
-490,435,-5.81903,-0.458679,0,0,0,0,0,0,0,-1,734,589,-5.81902,0.458684
-483,435,-6.96503,-3.01624,0,0,0,0,0,0,0,-1,741,589,-6.96505,3.01623
-476,435,-13.1713,-13.7644,0,0,0,0,0,0,0,-1,748,589,-13.1713,13.7644
-469,435,-12.7875,-15.0094,0,0,0,0,0,0,0,-1,755,589,-12.7875,15.0094
-462,435,-12.8441,-16.0899,0,0,0,0,0,0,0,-1,762,589,-12.8441,16.0899
-455,435,-12.9158,-17.3716,-0.00317604,0.00222431,0.00161399,0.00266991,-0.00362165,1.30142,0.00364626,0.0311168,769,589,-12.9159,17.3716
-448,435,-12.9325,-18.441,-0.00190822,0.00214035,0.000793504,0.00229032,-0.00205819,1.384,0.0025118,0.0146203,776,589,-12.9325,18.441
-441,435,-13.0013,-19.4007,-0.000889291,0.00197413,0.000194069,0.00198722,-0.000902385,1.50343,0.00170705,0.0120468,783,589,-13.0013,19.4007
-434,435,-13.0753,-20.3221,-8.01263e-05,0.00178624,-0.000255106,0.00182048,-0.000114367,-1.43737,0.00125351,0.0133356,790,589,-13.0753,20.3221
-427,435,-13.1322,-21.3207,0.000586529,0.00162794,-0.000615512,0.00191345,0.000301016,-1.13647,0.00118808,0.0112634,797,589,-13.1322,21.3207
-420,435,-13.1781,-22.2779,0.00118226,0.00149575,-0.00091149,0.00226387,0.000414132,-0.870548,0.00139189,0.0113263,804,589,-13.1781,22.2779
-413,435,-13.2233,-23.2398,0.001614,0.00126114,-0.00102716,0.00247977,0.000395373,-0.700345,0.00153842,0.0118068,811,589,-13.2233,23.2398
-406,435,-13.2865,-24.1942,0.00196436,0.000982621,-0.00103992,0.00262344,0.000323535,-0.56489,0.00165171,0.0121423,818,589,-13.2865,24.1942
-399,435,-13.376,-25.1314,0.00244432,0.000787828,-0.00112763,0.00301519,0.000216954,-0.468644,0.00194185,0.0101231,825,589,-13.376,25.1314
-392,435,-13.4556,-26.0679,0.002975,0.000633719,-0.00117831,0.00346532,0.000143394,-0.394331,0.00226393,0.0109942,832,589,-13.4555,26.068
-385,435,-13.4819,-27.018,0.00361183,0.000442089,-0.00120807,0.00401976,3.41604e-05,-0.325648,0.00266852,0.0241824,839,589,-13.4819,27.018
-378,435,-13.4219,-28.0025,0,0,0,0,0,0,0,-1,846,589,-13.4219,28.0025
-371,435,-10.247,-21.7153,0,0,0,0,0,0,0,-1,853,589,-10.247,21.7153
-364,435,-5.62848,-11.5937,0,0,0,0,0,0,0,-1,860,589,-5.62847,11.5937
-357,435,-5.57343,-10.9666,0,0,0,0,0,0,0,-1,867,589,-5.57342,10.9666
-350,435,-0.86676,-3.69836,0,0,0,0,0,0,0,-1,874,589,-0.866784,3.69834
-343,435,-1.60706,-2.36835,0,0,0,0,0,0,0,-1,881,589,-1.60706,2.36838
-336,435,-2.07263,-1.94012,0,0,0,0,0,0,0,-1,888,589,-2.07265,1.94014
-329,435,-2.55963,-1.5517,0,0,0,0,0,0,0,-1,895,589,-2.5596,1.55168
-322,435,-3.08545,-1.55255,0,0,0,0,0,0,0,-1,902,589,-3.08544,1.55254
-315,435,-0.404297,-2.63763,0,0,0,0,0,0,0,-1,909,589,-0.404276,2.63761
-308,435,-1.70056,-1.90369,0,0,0,0,0,0,0,-1,916,589,-1.70056,1.90367
-301,435,-1.19391,-2.41632,0,0,0,0,0,0,0,-1,923,589,-1.1939,2.41635
-294,435,3.78278,-10.3275,0,0,0,0,0,0,0,-1,930,589,3.78281,10.3275
-287,435,0,0,0,0,0,0,0,0,0,-1,937,589,0,0
-280,435,0,0,0,0,0,0,0,0,0,-1,944,589,0,0
-273,435,0,0,0,0,0,0,0,0,0,-1,951,589,0,0
-266,435,0,0,0,0,0,0,0,0,0,-1,958,589,0,0
-259,435,0,0,0,0,0,0,0,0,0,-1,965,589,0,0
-252,435,0,0,0,0,0,0,0,0,0,-1,972,589,0,0
-245,435,0,0,0,0,0,0,0,0,0,-1,979,589,0,0
-238,435,0,0,0,0,0,0,0,0,0,-1,986,589,0,0
-231,435,0,0,0,0,0,0,0,0,0,-1,993,589,0,0
-224,435,0,0,0,0,0,0,0,0,0,-1,1000,589,0,0
-217,435,0,0,0,0,0,0,0,0,0,-1,1007,589,0,0
-210,435,0,0,0,0,0,0,0,0,0,-1,1014,589,0,0
-203,435,0,0,0,0,0,0,0,0,0,-1,1021,589,0,0
-196,435,0,0,0,0,0,0,0,0,0,-1,1028,589,0,0
-189,435,0,0,0,0,0,0,0,0,0,-1,1035,589,0,0
-182,435,0,0,0,0,0,0,0,0,0,-1,1042,589,0,0
-175,435,0,0,0,0,0,0,0,0,0,-1,1049,589,0,0
-168,435,0,0,0,0,0,0,0,0,0,-1,1056,589,0,0
-161,435,0,0,0,0,0,0,0,0,0,-1,1063,589,0,0
-154,435,0,0,0,0,0,0,0,0,0,-1,1070,589,0,0
-147,435,0,0,0,0,0,0,0,0,0,-1,1077,589,0,0
-140,435,0,0,0,0,0,0,0,0,0,-1,1084,589,0,0
-133,435,0,0,0,0,0,0,0,0,0,-1,1091,589,0,0
-126,435,0,0,0,0,0,0,0,0,0,-1,1098,589,0,0
-119,435,0,0,0,0,0,0,0,0,0,-1,1105,589,0,0
-112,435,0,0,0,0,0,0,0,0,0,-1,1112,589,0,0
-105,435,0,0,0,0,0,0,0,0,0,-1,1119,589,0,0
-98,435,0,0,0,0,0,0,0,0,0,-1,1126,589,0,0
-91,435,0,0,0,0,0,0,0,0,0,-1,1133,589,0,0
-84,435,0,0,0,0,0,0,0,0,0,-1,1140,589,0,0
-77,435,0,0,0,0,0,0,0,0,0,-1,1147,589,0,0
-70,435,0,0,0,0,0,0,0,0,0,-1,1154,589,0,0
-63,435,0,0,0,0,0,0,0,0,0,-1,1161,589,0,0
-56,435,0,0,0,0,0,0,0,0,0,-1,1168,589,0,0
-49,435,0,0,0,0,0,0,0,0,0,-1,1175,589,0,0
-42,435,0,0,0,0,0,0,0,0,0,-1,1182,589,0,0
-35,435,0,0,0,0,0,0,0,0,0,-1,1189,589,0,0
-28,435,0,0,0,0,0,0,0,0,0,-1,1196,589,0,0
-21,435,0,0,0,0,0,0,0,0,0,-1,1203,589,0,0
-14,435,0,0,0,0,0,0,0,0,0,-1,1210,589,0,0
-7,435,0,0,0,0,0,0,0,0,0,-1,1217,589,0,0
0,435,0,0,0,0,0,0,0,0,0,-1,1224,589,0,0
7,435,0,0,0,0,0,0,0,0,0,-1,1231,589,0,0
14,435,0,0,0,0,0,0,0,0,0,-1,1238,589,0,0
21,435,0,0,0,0,0,0,0,0,0,-1,1245,589,0,0
28,435,0,0,0,0,0,0,0,0,0,-1,1252,589,0,0
35,435,0,0,0,0,0,0,0,0,0,-1,1259,589,0,0
42,435,0,0,0,0,0,0,0,0,0,-1,1266,589,0,0
49,435,0,0,0,0,0,0,0,0,0,-1,1273,589,0,0
56,435,0,0,0,0,0,0,0,0,0,-1,1280,589,0,0
63,435,0,0,0,0,0,0,0,0,0,-1,1287,589,0,0
70,435,0,0,0,0,0,0,0,0,0,-1,1294,589,0,0
77,435,0,0,0,0,0,0,0,0,0,-1,1301,589,0,0
84,435,0,0,0,0,0,0,0,0,0,-1,1308,589,0,0
91,435,0,0,0,0,0,0,0,0,0,-1,1315,589,0,0
98,435,0,0,0,0,0,0,0,0,0,-1,1322,589,0,0
105,435,0,0,0,0,0,0,0,0,0,-1,1329,589,0,0
112,435,0,0,0,0,0,0,0,0,0,-1,1336,589,0,0
119,435,0,0,0,0,0,0,0,0,0,-1,1343,589,0,0
126,435,0,0,0,0,0,0,0,0,0,-1,1350,589,0,0
133,435,0,0,0,0,0,0,0,0,0,-1,1357,589,0,0
140,435,0,0,0,0,0,0,0,0,0,-1,1364,589,0,0
147,435,0,0,0,0,0,0,0,0,0,-1,1371,589,0,0
154,435,0,0,0,0,0,0,0,0,0,-1,1378,589,0,0
161,435,0,0,0,0,0,0,0,0,0,-1,1385,589,0,0
168,435,0,0,0,0,0,0,0,0,0,-1,1392,589,0,0
175,435,0,0,0,0,0,0,0,0,0,-1,1399,589,0,0
182,435,0,0,0,0,0,0,0,0,0,-1,1406,589,0,0
189,435,0,0,0,0,0,0,0,0,0,-1,1413,589,0,0
196,435,0,0,0,0,0,0,0,0,0,-1,1420,589,0,0
203,435,0,0,0,0,0,0,0,0,0,-1,1427,589,0,0
210,435,0,0,0,0,0,0,0,0,0,-1,1434,589,0,0
217,435,0,0,0,0,0,0,0,0,0,-1,1441,589,0,0
224,435,0,0,0,0,0,0,0,0,0,-1,1448,589,0,0
231,435,0,0,0,0,0,0,0,0,0,-1,1455,589,0,0
238,435,0,0,0,0,0,0,0,0,0,-1,1462,589,0,0
245,435,0,0,0,0,0,0,0,0,0,-1,1469,589,0,0
252,435,0,0,0,0,0,0,0,0,0,-1,1476,589,0,0
259,435,0,0,0,0,0,0,0,0,0,-1,1483,589,0,0
266,435,0,0,0,0,0,0,0,0,0,-1,1490,589,0,0
273,435,0,0,0,0,0,0,0,0,0,-1,1497,589,0,0
280,435,0,0,0,0,0,0,0,0,0,-1,1504,589,0,0
287,435,0,0,0,0,0,0,0,0,0,-1,1511,589,0,0
294,435,0,0,0,0,0,0,0,0,0,-1,1518,589,0,0
301,435,0,0,0,0,0,0,0,0,0,-1,1525,589,0,0
308,435,0,0,0,0,0,0,0,0,0,-1,1532,589,0,0
315,435,0,0,0,0,0,0,0,0,0,-1,1539,589,0,0
322,435,0,0,0,0,0,0,0,0,0,-1,1546,589,0,0
329,435,0,0,0,0,0,0,0,0,0,-1,1553,589,0,0
336,435,0,0,0,0,0,0,0,0,0,-1,1560,589,0,0
343,435,0,0,0,0,0,0,0,0,0,-1,1567,589,0,0
350,435,0,0,0,0,0,0,0,0,0,-1,1574,589,0,0
357,435,0,0,0,0,0,0,0,0,0,-1,1581,589,0,0
364,435,0,0,0,0,0,0,0,0,0,-1,1588,589,0,0
371,435,0,0,0,0,0,0,0,0,0,-1,1595,589,0,0
378,435,0,0,0,0,0,0,0,0,0,-1,1602,589,0,0
385,435,0,0,0,0,0,0,0,0,0,-1,1609,589,0,0
392,435,0,0,0,0,0,0,0,0,0,-1,1616,589,0,0
399,435,0,0,0,0,0,0,0,0,0,-1,1623,589,0,0
406,435,0,0,0,0,0,0,0,0,0,-1,1630,589,0,0
413,435,20.4565,3.49835,0,0,0,0,0,0,0,-1,1637,589,20.4565,-3.49836
420,435,21.4015,1.49609,0,0,0,0,0,0,0,-1,1644,589,21.4015,-1.49609
427,435,22.0464,-0.373962,0,0,0,0,0,0,0,-1,1651,589,22.0464,0.373972
434,435,22.1863,-1.54407,0,0,0,0,0,0,0,-1,1658,589,22.1862,1.54405
441,435,22.3992,-2.38287,0,0,0,0,0,0,0,-1,1665,589,22.3992,2.38289
448,435,7.4585,-0.00292969,0,0,0,0,0,0,0,-1,1672,589,7.45848,0.00294131
455,435,5.49915,-5.047,0,0,0,0,0,0,0,-1,1679,589,5.49914,5.04703
462,435,5.60669,-4.71466,0,0,0,0,0,0,0,-1,1686,589,5.60675,4.71469
469,435,5.87708,1.22351,0,0,0,0,0,0,0,-1,1693,589,5.87703,-1.22351
476,435,6.14136,1.37714,0,0,0,0,0,0,0,-1,1700,589,6.14138,-1.37712
483,435,6.49243,1.36169,0,0,0,0,0,0,0,-1,1707,589,6.49242,-1.36171
490,435,4.38391,-1.36218,0,0,0,0,0,0,0,-1,1714,589,4.38389,1.3622
497,435,7.23499,-3.64551,0,0,0,0,0,0,0,-1,1721,589,7.23495,3.64551
504,435,7.31189,-3.75909,0,0,0,0,0,0,0,-1,1728,589,7.31184,3.75911
511,435,28.9622,-27.0995,0,0,0,0,0,0,0,-1,1735,589,28.9621,27.0995
518,435,29.3026,-25.6974,0,0,0,0,0,0,0,-1,1742,589,29.3026,25.6974
525,435,29.2594,-24.7377,0.00235417,0.000427182,0.000801511,0.00264397,0.000137384,0.34694,0.00171868,0.0151035,1749,589,29.2594,24.7377
532,435,29.2222,-23.7803,0.00192889,0.000387923,0.000774091,0.00225059,6.62246e-05,0.393867,0.00147881,0.0158162,1756,589,29.2221,23.7803
539,435,29.178,-22.8066,0.00166549,0.000585954,0.000814177,0.00210257,0.000148872,0.492682,0.00135482,0.0173637,1763,589,29.178,22.8066
546,435,29.1444,-21.8759,0.00145103,0.000908747,0.000839778,0.00206235,0.000297422,0.629246,0.00128727,0.0181943,1770,589,29.1444,21.8758
553,435,29.0801,-20.937,0.00118839,0.00145862,0.000893163,0.00222683,0.000420178,0.860468,0.0013662,0.0127964,1777,589,29.0801,20.937
560,435,28.999,-19.9847,0.000920891,0.0021192,0.00101978,0.00270281,0.000337276,1.051,0.00170063,0.010062,1784,589,28.9991,19.9847
567,435,28.9232,-19.0229,0.00075863,0.00297174,0.00127811,0.00355575,0.000174619,1.14219,0.00231449,0.00941657,1791,589,28.9232,19.023
574,435,28.8521,-18.0648,0.000658755,0.00397266,0.00161194,0.00462739,4.02983e-06,1.18498,0.00308358,0.01029,1798,589,28.8521,18.0647
581,435,28.7935,-17.1266,0.000609788,0.00514738,0.00207895,0.00595584,-0.000198665,1.19992,0.00403841,0.017049,1805,589,28.7935,17.1266
588,435,28.7943,-16.0676,0,0,0,0,0,0,0,-1,1812,589,28.7943,16.0675
595,435,28.4894,-14.7839,0,0,0,0,0,0,0,-1,1819,589,28.4893,14.7838
602,435,16.8671,-6.39026,0,0,0,0,0,0,0,-1,1826,589,16.867,6.39024
609,435,15.2611,-3.42242,0,0,0,0,0,0,0,-1,1833,589,15.2611,3.42242
616,435,5.05151,-2.75269,0,0,0,0,0,0,0,-1,1840,589,5.05157,2.7527
623,435,11.7588,3.9704,0,0,0,0,0,0,0,-1,1847,589,11.7587,-3.97043
630,435,4.72742,-0.87561,0,0,0,0,0,0,0,-1,1854,589,4.7274,0.875636
637,435,5.05286,1.48792,0,0,0,0,0,0,0,-1,1861,589,5.05291,-1.48792
644,435,0,0,0,0,0,0,0,0,0,-1,1868,589,0,0
651,435,0,0,0,0,0,0,0,0,0,-1,1875,589,0,0
658,435,0,0,0,0,0,0,0,0,0,-1,1882,589,0,0
665,435,0,0,0,0,0,0,0,0,0,-1,1889,589,0,0
672,435,0,0,0,0,0,0,0,0,0,-1,1896,589,0,0
679,435,0,0,0,0,0,0,0,0,0,-1,1903,589,0,0
686,435,0,0,0,0,0,0,0,0,0,-1,1910,589,0,0
693,435,0,0,0,0,0,0,0,0,0,-1,1917,589,0,0
700,435,0,0,0,0,0,0,0,0,0,-1,1924,589,0,0
707,435,0,0,0,0,0,0,0,0,0,-1,1931,589,0,0
714,435,0,0,0,0,0,0,0,0,0,-1,1938,589,0,0
721,435,0,0,0,0,0,0,0,0,0,-1,1945,589,0,0
728,435,0,0,0,0,0,0,0,0,0,-1,1952,589,0,0
735,435,0,0,0,0,0,0,0,0,0,-1,1959,589,0,0
742,435,0,0,0,0,0,0,0,0,0,-1,1966,589,0,0
749,435,0,0,0,0,0,0,0,0,0,-1,1973,589,0,0
756,435,0,0,0,0,0,0,0,0,0,-1,1980,589,0,0
763,435,0,0,0,0,0,0,0,0,0,-1,1987,589,0,0
770,435,0,0,0,0,0,0,0,0,0,-1,1994,589,0,0
777,435,0,0,0,0,0,0,0,0,0,-1,2001,589,0,0
784,435,0,0,0,0,0,0,0,0,0,-1,2008,589,0,0
791,435,0,0,0,0,0,0,0,0,0,-1,2015,589,0,0
798,435,0,0,0,0,0,0,0,0,0,-1,2022,589,0,0
805,435,0,0,0,0,0,0,0,0,0,-1,2029,589,0,0
812,435,0,0,0,0,0,0,0,0,0,-1,2036,589,0,0
-700,428,0,0,0,0,0,0,0,0,0,-1,524,596,0,0
-693,428,0,0,0,0,0,0,0,0,0,-1,531,596,0,0
-686,428,0,0,0,0,0,0,0,0,0,-1,538,596,0,0
-679,428,0,0,0,0,0,0,0,0,0,-1,545,596,0,0
-672,428,0,0,0,0,0,0,0,0,0,-1,552,596,0,0
-665,428,0,0,0,0,0,0,0,0,0,-1,559,596,0,0
-658,428,0,0,0,0,0,0,0,0,0,-1,566,596,0,0
-651,428,0,0,0,0,0,0,0,0,0,-1,573,596,0,0
-644,428,0,0,0,0,0,0,0,0,0,-1,580,596,0,0
-637,428,0,0,0,0,0,0,0,0,0,-1,587,596,0,0
-630,428,0,0,0,0,0,0,0,0,0,-1,594,596,0,0
-623,428,0,0,0,0,0,0,0,0,0,-1,601,596,0,0
-616,428,0,0,0,0,0,0,0,0,0,-1,608,596,0,0
-609,428,0,0,0,0,0,0,0,0,0,-1,615,596,0,0
-602,428,0,0,0,0,0,0,0,0,0,-1,622,596,0,0
-595,428,0,0,0,0,0,0,0,0,0,-1,629,596,0,0
-588,428,0,0,0,0,0,0,0,0,0,-1,636,596,0,0
-581,428,0,0,0,0,0,0,0,0,0,-1,643,596,0,0
-574,428,0,0,0,0,0,0,0,0,0,-1,650,596,0,0
-567,428,0,0,0,0,0,0,0,0,0,-1,657,596,0,0
-560,428,0,0,0,0,0,0,0,0,0,-1,664,596,0,0
-553,428,0,0,0,0,0,0,0,0,0,-1,671,596,0,0
-546,428,0,0,0,0,0,0,0,0,0,-1,678,596,0,0
-539,428,0,0,0,0,0,0,0,0,0,-1,685,596,0,0
-532,428,0,0,0,0,0,0,0,0,0,-1,692,596,0,0
-525,428,-9.59918,7.58618,0,0,0,0,0,0,0,-1,699,596,-9.59918,-7.5862
-518,428,-2.92285,-4.81854,0,0,0,0,0,0,0,-1,706,596,-2.92285,4.81856
-511,428,-3.68811,-4.79474,0,0,0,0,0,0,0,-1,713,596,-3.68811,4.79474
-504,428,-4.45337,-4.77094,0,0,0,0,0,0,0,-1,720,596,-4.45337,4.77092
-497,428,-2.98108,-3.77502,0,0,0,0,0,0,0,-1,727,596,-2.98106,3.77505
-490,428,-6.39044,-2.80481,0,0,0,0,0,0,0,-1,734,596,-6.39047,2.80483
-483,428,-10.8474,-9.11322,0,0,0,0,0,0,0,-1,741,596,-10.8473,9.11321
-476,428,-13.5366,-14.4117,0,0,0,0,0,0,0,-1,748,596,-13.5365,14.4118
-469,428,-13.5168,-15.3895,-0.00557197,0.0016564,0.00332809,0.00295531,-0.00687088,1.19869,0.00582136,0.0383197,755,596,-13.5168,15.3894
-462,428,-13.7143,-16.2554,-0.00392917,0.00174237,0.00215236,0.00246669,-0.0046535,1.24618,0.00417497,0.0401789,762,596,-13.7143,16.2554
-455,428,-13.8483,-17.329,-0.00254572,0.00151267,0.00133528,0.00191259,-0.00294564,1.27979,0.00282596,0.0197397,769,596,-13.8483,17.3291
-448,428,-13.9195,-18.3174,-0.0013745,0.00144347,0.000623053,0.00157508,-0.00150611,1.36262,0.00177908,0.0131402,776,596,-13.9195,18.3174
-441,428,-13.9814,-19.3008,-0.000387633,0.00134411,6.93637e-05,0.00134688,-0.000390407,1.53083,0.00105248,0.014598,783,596,-13.9814,19.3008
-434,428,-14.0236,-20.2973,0.000420372,0.00124838,-0.000367914,0.00138823,0.000280517,-1.20754,0.0008476,0.0106667,790,596,-14.0236,20.2973
-427,428,-14.0718,-21.2769,0.0011132,0.00120585,-0.000766494,0.00192741,0.00039163,-0.81558,0.00117634,0.0116628,797,596,-14.0718,21.2769
-420,428,-14.1213,-22.2072,0.00172338,0.00119892,-0.00110375,0.00259562,0.00032668,-0.668768,0.00163245,0.0126804,804,596,-14.1213,22.2072
-413,428,-14.1683,-23.1499,0.00216951,0.00113186,-0.00128644,0.0030378,0.000263566,-0.593723,0.00194331,0.0158958,811,596,-14.1683,23.1499
-406,428,-14.2479,-24.1102,0.0025572,0.00109669,-0.00144722,0.00344797,0.000205921,-0.55174,0.00223317,0.0186004,818,596,-14.2479,24.1102
-399,428,-14.3052,-25.0695,0.00308755,0.00111823,-0.00173828,0.00410069,0.000105098,-0.527703,0.00269944,0.017556,825,596,-14.3052,25.0695
-392,428,-14.305,-26.0682,0.00363867,0.00117685,-0.00198938,0.00474716,6.83605e-05,-0.508356,0.00314223,0.0381678,832,596,-14.305,26.0682
-385,428,-14.4124,-27.2131,0,0,0,0,0,0,0,-1,839,596,-14.4123,27.2131
-378,428,-10.8172,-20.952,0,0,0,0,0,0,0,-1,846,596,-10.8172,20.952
-371,428,-5.96155,-11.0703,0,0,0,0,0,0,0,-1,853,596,-5.96154,11.0702
-364,428,-6.33643,-10.7223,0,0,0,0,0,0,0,-1,860,596,-6.33645,10.7223
-357,428,-3.20996,-4.70966,0,0,0,0,0,0,0,-1,867,596,-3.20997,4.70965
-350,428,-1.62793,-3.94055,0,0,0,0,0,0,0,-1,874,596,-1.62794,3.94055
-343,428,-0.0567017,-4.80994,0,0,0,0,0,0,0,-1,881,596,-0.0567096,4.80996
-336,428,-3.29175,-1.39569,0,0,0,0,0,0,0,-1,888,596,-3.29172,1.39568
-329,428,-3.71564,-0.791321,0,0,0,0,0,0,0,-1,895,596,-3.71564,0.791299
-322,428,-5.52863,-3.59827,0,0,0,0,0,0,0,-1,902,596,-5.52865,3.59829
-315,428,-4.57172,-1.22052,0,0,0,0,0,0,0,-1,909,596,-4.57171,1.22052
-308,428,-5.60742,-3.40961,0,0,0,0,0,0,0,-1,916,596,-5.60744,3.40959
-301,428,0,0,0,0,0,0,0,0,0,-1,923,596,0,0
-294,428,0,0,0,0,0,0,0,0,0,-1,930,596,0,0
-287,428,0,0,0,0,0,0,0,0,0,-1,937,596,0,0
-280,428,0,0,0,0,0,0,0,0,0,-1,944,596,0,0
-273,428,0,0,0,0,0,0,0,0,0,-1,951,596,0,0
-266,428,0,0,0,0,0,0,0,0,0,-1,958,596,0,0
-259,428,0,0,0,0,0,0,0,0,0,-1,965,596,0,0
-252,428,0,0,0,0,0,0,0,0,0,-1,972,596,0,0
-245,428,0,0,0,0,0,0,0,0,0,-1,979,596,0,0
-238,428,0,0,0,0,0,0,0,0,0,-1,986,596,0,0
-231,428,0,0,0,0,0,0,0,0,0,-1,993,596,0,0
-224,428,0,0,0,0,0,0,0,0,0,-1,1000,596,0,0
-217,428,0,0,0,0,0,0,0,0,0,-1,1007,596,0,0
-210,428,0,0,0,0,0,0,0,0,0,-1,1014,596,0,0
-203,428,0,0,0,0,0,0,0,0,0,-1,1021,596,0,0
-196,428,0,0,0,0,0,0,0,0,0,-1,1028,596,0,0
-189,428,0,0,0,0,0,0,0,0,0,-1,1035,596,0,0
-182,428,0,0,0,0,0,0,0,0,0,-1,1042,596,0,0
-175,428,0,0,0,0,0,0,0,0,0,-1,1049,596,0,0
-168,428,0,0,0,0,0,0,0,0,0,-1,1056,596,0,0
-161,428,0,0,0,0,0,0,0,0,0,-1,1063,596,0,0
-154,428,0,0,0,0,0,0,0,0,0,-1,1070,596,0,0
-147,428,0,0,0,0,0,0,0,0,0,-1,1077,596,0,0
-140,428,0,0,0,0,0,0,0,0,0,-1,1084,596,0,0
-133,428,0,0,0,0,0,0,0,0,0,-1,1091,596,0,0
-126,428,0,0,0,0,0,0,0,0,0,-1,1098,596,0,0
-119,428,0,0,0,0,0,0,0,0,0,-1,1105,596,0,0
-112,428,0,0,0,0,0,0,0,0,0,-1,1112,596,0,0
-105,428,0,0,0,0,0,0,0,0,0,-1,1119,596,0,0
-98,428,0,0,0,0,0,0,0,0,0,-1,1126,596,0,0
-91,428,0,0,0,0,0,0,0,0,0,-1,1133,596,0,0
-84,428,0,0,0,0,0,0,0,0,0,-1,1140,596,0,0
-77,428,0,0,0,0,0,0,0,0,0,-1,1147,596,0,0
-70,428,0,0,0,0,0,0,0,0,0,-1,1154,596,0,0
-63,428,0,0,0,0,0,0,0,0,0,-1,1161,596,0,0
-56,428,0,0,0,0,0,0,0,0,0,-1,1168,596,0,0
-49,428,0,0,0,0,0,0,0,0,0,-1,1175,596,0,0
-42,428,0,0,0,0,0,0,0,0,0,-1,1182,596,0,0
-35,428,0,0,0,0,0,0,0,0,0,-1,1189,596,0,0
-28,428,0,0,0,0,0,0,0,0,0,-1,1196,596,0,0
-21,428,0,0,0,0,0,0,0,0,0,-1,1203,596,0,0
-14,428,0,0,0,0,0,0,0,0,0,-1,1210,596,0,0
-7,428,0,0,0,0,0,0,0,0,0,-1,1217,596,0,0
0,428,0,0,0,0,0,0,0,0,0,-1,1224,596,0,0
7,428,0,0,0,0,0,0,0,0,0,-1,1231,596,0,0
14,428,0,0,0,0,0,0,0,0,0,-1,1238,596,0,0
21,428,0,0,0,0,0,0,0,0,0,-1,1245,596,0,0
28,428,0,0,0,0,0,0,0,0,0,-1,1252,596,0,0
35,428,0,0,0,0,0,0,0,0,0,-1,1259,596,0,0
42,428,0,0,0,0,0,0,0,0,0,-1,1266,596,0,0
49,428,0,0,0,0,0,0,0,0,0,-1,1273,596,0,0
56,428,0,0,0,0,0,0,0,0,0,-1,1280,596,0,0
63,428,0,0,0,0,0,0,0,0,0,-1,1287,596,0,0
70,428,0,0,0,0,0,0,0,0,0,-1,1294,596,0,0
77,428,0,0,0,0,0,0,0,0,0,-1,1301,596,0,0
84,428,0,0,0,0,0,0,0,0,0,-1,1308,596,0,0
91,428,0,0,0,0,0,0,0,0,0,-1,1315,596,0,0
98,428,0,0,0,0,0,0,0,0,0,-1,1322,596,0,0
105,428,0,0,0,0,0,0,0,0,0,-1,1329,596,0,0
112,428,0,0,0,0,0,0,0,0,0,-1,1336,596,0,0
119,428,0,0,0,0,0,0,0,0,0,-1,1343,596,0,0
126,428,0,0,0,0,0,0,0,0,0,-1,1350,596,0,0
133,428,0,0,0,0,0,0,0,0,0,-1,1357,596,0,0
140,428,0,0,0,0,0,0,0,0,0,-1,1364,596,0,0
147,428,0,0,0,0,0,0,0,0,0,-1,1371,596,0,0
154,428,0,0,0,0,0,0,0,0,0,-1,1378,596,0,0
161,428,0,0,0,0,0,0,0,0,0,-1,1385,596,0,0
168,428,0,0,0,0,0,0,0,0,0,-1,1392,596,0,0
175,428,0,0,0,0,0,0,0,0,0,-1,1399,596,0,0
182,428,0,0,0,0,0,0,0,0,0,-1,1406,596,0,0
189,428,0,0,0,0,0,0,0,0,0,-1,1413,596,0,0
196,428,0,0,0,0,0,0,0,0,0,-1,1420,596,0,0
203,428,0,0,0,0,0,0,0,0,0,-1,1427,596,0,0
210,428,0,0,0,0,0,0,0,0,0,-1,1434,596,0,0
217,428,0,0,0,0,0,0,0,0,0,-1,1441,596,0,0
224,428,0,0,0,0,0,0,0,0,0,-1,1448,596,0,0
231,428,0,0,0,0,0,0,0,0,0,-1,1455,596,0,0
238,428,0,0,0,0,0,0,0,0,0,-1,1462,596,0,0
245,428,0,0,0,0,0,0,0,0,0,-1,1469,596,0,0
252,428,0,0,0,0,0,0,0,0,0,-1,1476,596,0,0
259,428,0,0,0,0,0,0,0,0,0,-1,1483,596,0,0
266,428,0,0,0,0,0,0,0,0,0,-1,1490,596,0,0
273,428,0,0,0,0,0,0,0,0,0,-1,1497,596,0,0
280,428,0,0,0,0,0,0,0,0,0,-1,1504,596,0,0
287,428,0,0,0,0,0,0,0,0,0,-1,1511,596,0,0
294,428,0,0,0,0,0,0,0,0,0,-1,1518,596,0,0
301,428,0,0,0,0,0,0,0,0,0,-1,1525,596,0,0
308,428,0,0,0,0,0,0,0,0,0,-1,1532,596,0,0
315,428,0,0,0,0,0,0,0,0,0,-1,1539,596,0,0
322,428,0,0,0,0,0,0,0,0,0,-1,1546,596,0,0
329,428,0,0,0,0,0,0,0,0,0,-1,1553,596,0,0
336,428,0,0,0,0,0,0,0,0,0,-1,1560,596,0,0
343,428,0,0,0,0,0,0,0,0,0,-1,1567,596,0,0
350,428,0,0,0,0,0,0,0,0,0,-1,1574,596,0,0
357,428,0,0,0,0,0,0,0,0,0,-1,1581,596,0,0
364,428,0,0,0,0,0,0,0,0,0,-1,1588,596,0,0
371,428,0,0,0,0,0,0,0,0,0,-1,1595,596,0,0
378,428,0,0,0,0,0,0,0,0,0,-1,1602,596,0,0
385,428,0,0,0,0,0,0,0,0,0,-1,1609,596,0,0
392,428,0,0,0,0,0,0,0,0,0,-1,1616,596,0,0
399,428,0,0,0,0,0,0,0,0,0,-1,1623,596,0,0
406,428,0,0,0,0,0,0,0,0,0,-1,1630,596,0,0
413,428,0,0,0,0,0,0,0,0,0,-1,1637,596,0,0
420,428,19.8469,1.3399,0,0,0,0,0,0,0,-1,1644,596,19.8469,-1.33992
427,428,20.7299,-0.225281,0,0,0,0,0,0,0,-1,1651,596,20.7299,0.225262
434,428,19.8915,-0.583069,0,0,0,0,0,0,0,-1,1658,596,19.8915,0.583075
441,428,8.17993,0.607483,0,0,0,0,0,0,0,-1,1665,596,8.17997,-0.607513
448,428,7.84338,-0.385986,0,0,0,0,0,0,0,-1,1672,596,7.84336,0.385978
455,428,6.64038,2.1123,0,0,0,0,0,0,0,-1,1679,596,6.64037,-2.11229
462,428,4.84106,4.12341,0,0,0,0,0,0,0,-1,1686,596,4.84107,-4.12339
469,428,7.83789,3.10083,0,0,0,0,0,0,0,-1,1693,596,7.83785,-3.10086
476,428,7.61255,1.73956,0,0,0,0,0,0,0,-1,1700,596,7.61252,-1.73958
483,428,7.22766,1.05121,0,0,0,0,0,0,0,-1,1707,596,7.2277,-1.05121
490,428,5.4071,-3.2793,0,0,0,0,0,0,0,-1,1714,596,5.40707,3.27929
497,428,7.84106,-3.65491,0,0,0,0,0,0,0,-1,1721,596,7.84107,3.65491
504,428,6.92139,-2.83356,0,0,0,0,0,0,0,-1,1728,596,6.92137,2.83353
511,428,7.88501,-3.78723,0,0,0,0,0,0,0,-1,1735,596,7.88502,3.78722
518,428,29.993,-26.0385,0,0,0,0,0,0,0,-1,1742,596,29.993,26.0384
525,428,30.1805,-24.6901,0,0,0,0,0,0,0,-1,1749,596,30.1806,24.69
532,428,30.1558,-23.7266,0.0023916,0.000147908,0.000868289,0.00268837,-0.000148859,0.329337,0.00184387,0.022379,1756,596,30.1558,23.7266
539,428,30.1399,-22.7346,0.00209297,0.00036285,0.000833707,0.00242932,2.6495e-05,0.383472,0.00161079,0.0220696,1763,596,30.1399,22.7346
546,428,30.0862,-21.8125,0.00184085,0.000632989,0.0007991,0.00223856,0.000235274,0.461809,0.00142046,0.0175379,1770,596,30.0862,21.8125
553,428,30.0087,-20.8878,0.00153744,0.00112237,0.000807818,0.00216395,0.000495852,0.659663,0.00130904,0.0127304,1777,596,30.0087,20.8878
560,428,29.9536,-19.9279,0.00120602,0.00168283,0.000891994,0.00236773,0.000521122,0.91598,0.00143664,0.0133082,1784,596,29.9536,19.9279
567,428,29.8989,-18.9684,0.000969213,0.00240082,0.00110498,0.00300159,0.000368443,1.07281,0.00189025,0.012214,1791,596,29.899,18.9685
574,428,29.8413,-18.0267,0.000835285,0.00325173,0.00139837,0.00389154,0.000195473,1.14169,0.00253172,0.0143158,1798,596,29.8414,18.0267
581,428,29.7676,-17.0537,0.000787757,0.00424103,0.00184169,0.00503889,-1.01088e-05,1.16198,0.00336264,0.012544,1805,596,29.7676,17.0537
588,428,29.702,-16.0432,0.000859732,0.00551586,0.00247082,0.00658262,-0.000207029,1.16323,0.00445903,0.0190298,1812,596,29.7021,16.0432
595,428,29.5936,-14.992,0.0011268,0.00709669,0.00327428,0.00854241,-0.000318925,1.155,0.00580417,0.0315621,1819,596,29.5936,14.992
602,428,29.645,-13.8962,0,0,0,0,0,0,0,-1,1826,596,29.645,13.8962
609,428,17.2073,-4.82446,0,0,0,0,0,0,0,-1,1833,596,17.2073,4.82447
616,428,15.7817,-3.09558,0,0,0,0,0,0,0,-1,1840,596,15.7817,3.09556
623,428,9.53577,1.12518,0,0,0,0,0,0,0,-1,1847,596,9.5358,-1.1252
630,428,7.07996,6.88562,0,0,0,0,0,0,0,-1,1854,596,7.0799,-6.88565
637,428,3.95435,1.90857,0,0,0,0,0,0,0,-1,1861,596,3.95439,-1.90858
644,428,5.75476,0.888977,0,0,0,0,0,0,0,-1,1868,596,5.75472,-0.888955
651,428,0,0,0,0,0,0,0,0,0,-1,1875,596,0,0
658,428,0,0,0,0,0,0,0,0,0,-1,1882,596,0,0
665,428,0,0,0,0,0,0,0,0,0,-1,1889,596,0,0
672,428,0,0,0,0,0,0,0,0,0,-1,1896,596,0,0
679,428,0,0,0,0,0,0,0,0,0,-1,1903,596,0,0
686,428,0,0,0,0,0,0,0,0,0,-1,1910,596,0,0
693,428,0,0,0,0,0,0,0,0,0,-1,1917,596,0,0
700,428,0,0,0,0,0,0,0,0,0,-1,1924,596,0,0
707,428,0,0,0,0,0,0,0,0,0,-1,1931,596,0,0
714,428,0,0,0,0,0,0,0,0,0,-1,1938,596,0,0
721,428,0,0,0,0,0,0,0,0,0,-1,1945,596,0,0
728,428,0,0,0,0,0,0,0,0,0,-1,1952,596,0,0
735,428,0,0,0,0,0,0,0,0,0,-1,1959,596,0,0
742,428,0,0,0,0,0,0,0,0,0,-1,1966,596,0,0
749,428,0,0,0,0,0,0,0,0,0,-1,1973,596,0,0
756,428,0,0,0,0,0,0,0,0,0,-1,1980,596,0,0
763,428,0,0,0,0,0,0,0,0,0,-1,1987,596,0,0
770,428,0,0,0,0,0,0,0,0,0,-1,1994,596,0,0
777,428,0,0,0,0,0,0,0,0,0,-1,2001,596,0,0
784,428,0,0,0,0,0,0,0,0,0,-1,2008,596,0,0
791,428,0,0,0,0,0,0,0,0,0,-1,2015,596,0,0
798,428,0,0,0,0,0,0,0,0,0,-1,2022,596,0,0
805,428,0,0,0,0,0,0,0,0,0,-1,2029,596,0,0
812,428,0,0,0,0,0,0,0,0,0,-1,2036,596,0,0
-700,421,0,0,0,0,0,0,0,0,0,-1,524,603,0,0
-693,421,0,0,0,0,0,0,0,0,0,-1,531,603,0,0
-686,421,0,0,0,0,0,0,0,0,0,-1,538,603,0,0
-679,421,0,0,0,0,0,0,0,0,0,-1,545,603,0,0
-672,421,0,0,0,0,0,0,0,0,0,-1,552,603,0,0
-665,421,0,0,0,0,0,0,0,0,0,-1,559,603,0,0
-658,421,0,0,0,0,0,0,0,0,0,-1,566,603,0,0
-651,421,0,0,0,0,0,0,0,0,0,-1,573,603,0,0
-644,421,0,0,0,0,0,0,0,0,0,-1,580,603,0,0
-637,421,0,0,0,0,0,0,0,0,0,-1,587,603,0,0
-630,421,0,0,0,0,0,0,0,0,0,-1,594,603,0,0
-623,421,0,0,0,0,0,0,0,0,0,-1,601,603,0,0
-616,421,0,0,0,0,0,0,0,0,0,-1,608,603,0,0
-609,421,0,0,0,0,0,0,0,0,0,-1,615,603,0,0
-602,421,0,0,0,0,0,0,0,0,0,-1,622,603,0,0
-595,421,0,0,0,0,0,0,0,0,0,-1,629,603,0,0
-588,421,0,0,0,0,0,0,0,0,0,-1,636,603,0,0
-581,421,0,0,0,0,0,0,0,0,0,-1,643,603,0,0
-574,421,0,0,0,0,0,0,0,0,0,-1,650,603,0,0
-567,421,0,0,0,0,0,0,0,0,0,-1,657,603,0,0
-560,421,0,0,0,0,0,0,0,0,0,-1,664,603,0,0
-553,421,0,0,0,0,0,0,0,0,0,-1,671,603,0,0
-546,421,0,0,0,0,0,0,0,0,0,-1,678,603,0,0
-539,421,0,0,0,0,0,0,0,0,0,-1,685,603,0,0
-532,421,-8.97382,6.95636,0,0,0,0,0,0,0,-1,692,603,-8.97384,-6.95634
-525,421,-2.11481,-8.04272,0,0,0,0,0,0,0,-1,699,603,-2.11483,8.0427
-518,421,-3.05908,-5.07233,0,0,0,0,0,0,0,-1,706,603,-3.0591,5.07235
-511,421,-4.63525,-4.08447,0,0,0,0,0,0,0,-1,713,603,-4.63524,4.08449
-504,421,-5.17029,-4.94458,0,0,0,0,0,0,0,-1,720,603,-5.17029,4.9446
-497,421,-6.63141,-2.32501,0,0,0,0,0,0,0,-1,727,603,-6.6314,2.32498
-490,421,-6.7616,-4.14783,0,0,0,0,0,0,0,-1,734,603,-6.76159,4.1478
-483,421,-14.2919,-13.6537,0,0,0,0,0,0,0,-1,741,603,-14.2919,13.6537
-476,421,-14.4529,-14.4905,-0.00568135,0.00106284,0.00368988,0.00268937,-0.00730788,1.15561,0.0059737,0.0459688,748,603,-14.4529,14.4905
-469,421,-14.6844,-15.243,-0.00435337,0.00106935,0.00254304,0.00207531,-0.00535934,1.19411,0.00442978,0.0377198,755,603,-14.6844,15.243
-462,421,-14.7218,-16.3276,-0.00303742,0.00100524,0.00164062,0.00158725,-0.00361944,1.22989,0.00308146,0.0241617,762,603,-14.7218,16.3276
-455,421,-14.7706,-17.3111,-0.00186924,0.000810278,0.000945605,0.00111037,-0.00216933,1.26349,0.00192616,0.0210895,769,603,-14.7706,17.3111
-448,421,-14.8746,-18.2551,-0.000814429,0.00073612,0.000336125,0.000805849,-0.000884158,1.36625,0.000976075,0.0205319,776,603,-14.8746,18.2551
-441,421,-14.938,-19.2451,0.000132153,0.000701729,-0.000171266,0.000749261,8.46218e-05,-1.30008,0.000473825,0.0156586,783,603,-14.9381,19.2451
-434,421,-14.9888,-20.236,0.000946723,0.000727753,-0.000598064,0.00144524,0.000229235,-0.694868,0.000896901,0.0109571,790,603,-14.9888,20.236
-427,421,-15.0305,-21.1865,0.00168144,0.000864018,-0.00103029,0.00238113,0.000164327,-0.596573,0.00153558,0.0106452,797,603,-15.0305,21.1865
-420,421,-15.0822,-22.1234,0.00232845,0.0010753,-0.00140225,0.00323775,0.000166012,-0.575288,0.00210534,0.0129268,804,603,-15.0822,22.1234
-413,421,-15.1487,-23.0836,0.00283353,0.00132593,-0.00166182,0.00390452,0.000254944,-0.572477,0.00252233,0.0159958,811,603,-15.1488,23.0836
-406,421,-15.2581,-24.088,0.00333243,0.00175512,-0.00201292,0.00470568,0.000381879,-0.598691,0.00301789,0.023918,818,603,-15.2581,24.088
-399,421,-15.2353,-24.9692,0,0,0,0,0,0,0,-1,825,603,-15.2353,24.9692
-392,421,-15.0143,-26.1724,0,0,0,0,0,0,0,-1,832,603,-15.0144,26.1725
-385,421,-11.5825,-18.8583,0,0,0,0,0,0,0,-1,839,603,-11.5825,18.8583
-378,421,-4.94733,-8.87909,0,0,0,0,0,0,0,-1,846,603,-4.94731,8.87906
-371,421,-5.65082,-7.01849,0,0,0,0,0,0,0,-1,853,603,-5.65082,7.0185
-364,421,-5.94189,-7.09875,0,0,0,0,0,0,0,-1,860,603,-5.94192,7.09878
-357,421,-7.62531,-8.26337,0,0,0,0,0,0,0,-1,867,603,-7.62532,8.26337
-350,421,-5.38019,-3.75024,0,0,0,0,0,0,0,-1,874,603,-5.38017,3.75026
-343,421,-6.22797,-2.57123,0,0,0,0,0,0,0,-1,881,603,-6.22798,2.57121
-336,421,-6.22882,-2.59369,0,0,0,0,0,0,0,-1,888,603,-6.22883,2.5937
-329,421,-4.50134,-1.49469,0,0,0,0,0,0,0,-1,895,603,-4.50137,1.49468
-322,421,-7.55817,1.13263,0,0,0,0,0,0,0,-1,902,603,-7.55818,-1.13263
-315,421,-4.16144,-1.96649,0,0,0,0,0,0,0,-1,909,603,-4.16146,1.9665
-308,421,0,0,0,0,0,0,0,0,0,-1,916,603,0,0
-301,421,0,0,0,0,0,0,0,0,0,-1,923,603,0,0
-294,421,0,0,0,0,0,0,0,0,0,-1,930,603,0,0
-287,421,0,0,0,0,0,0,0,0,0,-1,937,603,0,0
-280,421,0,0,0,0,0,0,0,0,0,-1,944,603,0,0
-273,421,0,0,0,0,0,0,0,0,0,-1,951,603,0,0
-266,421,0,0,0,0,0,0,0,0,0,-1,958,603,0,0
-259,421,0,0,0,0,0,0,0,0,0,-1,965,603,0,0
-252,421,0,0,0,0,0,0,0,0,0,-1,972,603,0,0
-245,421,0,0,0,0,0,0,0,0,0,-1,979,603,0,0
-238,421,0,0,0,0,0,0,0,0,0,-1,986,603,0,0
-231,421,0,0,0,0,0,0,0,0,0,-1,993,603,0,0
-224,421,0,0,0,0,0,0,0,0,0,-1,1000,603,0,0
-217,421,0,0,0,0,0,0,0,0,0,-1,1007,603,0,0
-210,421,0,0,0,0,0,0,0,0,0,-1,1014,603,0,0
-203,421,0,0,0,0,0,0,0,0,0,-1,1021,603,0,0
-196,421,0,0,0,0,0,0,0,0,0,-1,1028,603,0,0
-189,421,0,0,0,0,0,0,0,0,0,-1,1035,603,0,0
-182,421,0,0,0,0,0,0,0,0,0,-1,1042,603,0,0
-175,421,0,0,0,0,0,0,0,0,0,-1,1049,603,0,0
-168,421,0,0,0,0,0,0,0,0,0,-1,1056,603,0,0
-161,421,0,0,0,0,0,0,0,0,0,-1,1063,603,0,0
-154,421,0,0,0,0,0,0,0,0,0,-1,1070,603,0,0
-147,421,0,0,0,0,0,0,0,0,0,-1,1077,603,0,0
-140,421,0,0,0,0,0,0,0,0,0,-1,1084,603,0,0
-133,421,0,0,0,0,0,0,0,0,0,-1,1091,603,0,0
-126,421,0,0,0,0,0,0,0,0,0,-1,1098,603,0,0
-119,421,0,0,0,0,0,0,0,0,0,-1,1105,603,0,0
-112,421,0,0,0,0,0,0,0,0,0,-1,1112,603,0,0
-105,421,0,0,0,0,0,0,0,0,0,-1,1119,603,0,0
-98,421,0,0,0,0,0,0,0,0,0,-1,1126,603,0,0
-91,421,0,0,0,0,0,0,0,0,0,-1,1133,603,0,0
-84,421,0,0,0,0,0,0,0,0,0,-1,1140,603,0,0
-77,421,0,0,0,0,0,0,0,0,0,-1,1147,603,0,0
-70,421,0,0,0,0,0,0,0,0,0,-1,1154,603,0,0
-63,421,0,0,0,0,0,0,0,0,0,-1,1161,603,0,0
-56,421,0,0,0,0,0,0,0,0,0,-1,1168,603,0,0
-49,421,0,0,0,0,0,0,0,0,0,-1,1175,603,0,0
-42,421,0,0,0,0,0,0,0,0,0,-1,1182,603,0,0
-35,421,0,0,0,0,0,0,0,0,0,-1,1189,603,0,0
-28,421,0,0,0,0,0,0,0,0,0,-1,1196,603,0,0
-21,421,0,0,0,0,0,0,0,0,0,-1,1203,603,0,0
-14,421,0,0,0,0,0,0,0,0,0,-1,1210,603,0,0
-7,421,0,0,0,0,0,0,0,0,0,-1,1217,603,0,0
0,421,0,0,0,0,0,0,0,0,0,-1,1224,603,0,0
7,421,0,0,0,0,0,0,0,0,0,-1,1231,603,0,0
14,421,0,0,0,0,0,0,0,0,0,-1,1238,603,0,0
21,421,0,0,0,0,0,0,0,0,0,-1,1245,603,0,0
28,421,0,0,0,0,0,0,0,0,0,-1,1252,603,0,0
35,421,0,0,0,0,0,0,0,0,0,-1,1259,603,0,0
42,421,0,0,0,0,0,0,0,0,0,-1,1266,603,0,0
49,421,0,0,0,0,0,0,0,0,0,-1,1273,603,0,0
56,421,0,0,0,0,0,0,0,0,0,-1,1280,603,0,0
63,421,0,0,0,0,0,0,0,0,0,-1,1287,603,0,0
70,421,0,0,0,0,0,0,0,0,0,-1,1294,603,0,0
77,421,0,0,0,0,0,0,0,0,0,-1,1301,603,0,0
84,421,0,0,0,0,0,0,0,0,0,-1,1308,603,0,0
91,421,0,0,0,0,0,0,0,0,0,-1,1315,603,0,0
98,421,0,0,0,0,0,0,0,0,0,-1,1322,603,0,0
105,421,0,0,0,0,0,0,0,0,0,-1,1329,603,0,0
112,421,0,0,0,0,0,0,0,0,0,-1,1336,603,0,0
119,421,0,0,0,0,0,0,0,0,0,-1,1343,603,0,0
126,421,0,0,0,0,0,0,0,0,0,-1,1350,603,0,0
133,421,0,0,0,0,0,0,0,0,0,-1,1357,603,0,0
140,421,0,0,0,0,0,0,0,0,0,-1,1364,603,0,0
147,421,0,0,0,0,0,0,0,0,0,-1,1371,603,0,0
154,421,0,0,0,0,0,0,0,0,0,-1,1378,603,0,0
161,421,0,0,0,0,0,0,0,0,0,-1,1385,603,0,0
168,421,0,0,0,0,0,0,0,0,0,-1,1392,603,0,0
175,421,0,0,0,0,0,0,0,0,0,-1,1399,603,0,0
182,421,0,0,0,0,0,0,0,0,0,-1,1406,603,0,0
189,421,0,0,0,0,0,0,0,0,0,-1,1413,603,0,0
196,421,0,0,0,0,0,0,0,0,0,-1,1420,603,0,0
203,421,0,0,0,0,0,0,0,0,0,-1,1427,603,0,0
210,421,0,0,0,0,0,0,0,0,0,-1,1434,603,0,0
217,421,0,0,0,0,0,0,0,0,0,-1,1441,603,0,0
224,421,0,0,0,0,0,0,0,0,0,-1,1448,603,0,0
231,421,0,0,0,0,0,0,0,0,0,-1,1455,603,0,0
238,421,0,0,0,0,0,0,0,0,0,-1,1462,603,0,0
245,421,0,0,0,0,0,0,0,0,0,-1,1469,603,0,0
252,421,0,0,0,0,0,0,0,0,0,-1,1476,603,0,0
259,421,0,0,0,0,0,0,0,0,0,-1,1483,603,0,0
266,421,0,0,0,0,0,0,0,0,0,-1,1490,603,0,0
273,421,0,0,0,0,0,0,0,0,0,-1,1497,603,0,0
280,421,0,0,0,0,0,0,0,0,0,-1,1504,603,0,0
287,421,0,0,0,0,0,0,0,0,0,-1,1511,603,0,0
294,421,0,0,0,0,0,0,0,0,0,-1,1518,603,0,0
301,421,0,0,0,0,0,0,0,0,0,-1,1525,603,0,0
308,421,0,0,0,0,0,0,0,0,0,-1,1532,603,0,0
315,421,0,0,0,0,0,0,0,0,0,-1,1539,603,0,0
322,421,0,0,0,0,0,0,0,0,0,-1,1546,603,0,0
329,421,0,0,0,0,0,0,0,0,0,-1,1553,603,0,0
336,421,0,0,0,0,0,0,0,0,0,-1,1560,603,0,0
343,421,0,0,0,0,0,0,0,0,0,-1,1567,603,0,0
350,421,0,0,0,0,0,0,0,0,0,-1,1574,603,0,0
357,421,0,0,0,0,0,0,0,0,0,-1,1581,603,0,0
364,421,0,0,0,0,0,0,0,0,0,-1,1588,603,0,0
371,421,0,0,0,0,0,0,0,0,0,-1,1595,603,0,0
378,421,0,0,0,0,0,0,0,0,0,-1,1602,603,0,0
385,421,0,0,0,0,0,0,0,0,0,-1,1609,603,0,0
392,421,0,0,0,0,0,0,0,0,0,-1,1616,603,0,0
399,421,0,0,0,0,0,0,0,0,0,-1,1623,603,0,0
406,421,0,0,0,0,0,0,0,0,0,-1,1630,603,0,0
413,421,0,0,0,0,0,0,0,0,0,-1,1637,603,0,0
420,421,0,0,0,0,0,0,0,0,0,-1,1644,603,0,0
427,421,0,0,0,0,0,0,0,0,0,-1,1651,603,0,0
434,421,3.68176,-0.0327759,0,0,0,0,0,0,0,-1,1658,603,3.6818,0.0328037
441,421,8.06689,0.527832,0,0,0,0,0,0,0,-1,1665,603,8.06693,-0.527851
448,421,6.93921,0.802246,0,0,0,0,0,0,0,-1,1672,603,6.93923,-0.802251
455,421,7.29456,2.14825,0,0,0,0,0,0,0,-1,1679,603,7.29461,-2.14827
462,421,7.86902,3.53174,0,0,0,0,0,0,0,-1,1686,603,7.869,-3.53173
469,421,8.06604,2.81213,0,0,0,0,0,0,0,-1,1693,603,8.06606,-2.81212
476,421,8.26306,2.09253,0,0,0,0,0,0,0,-1,1700,603,8.26312,-2.09251
483,421,8.05322,0.798096,0,0,0,0,0,0,0,-1,1707,603,8.05323,-0.7981
490,421,7.51233,0.213074,0,0,0,0,0,0,0,-1,1714,603,7.51235,-0.213043
497,421,7.49634,-2.86688,0,0,0,0,0,0,0,-1,1721,603,7.4963,2.86688
504,421,6.90491,-2.18671,0,0,0,0,0,0,0,-1,1728,603,6.90491,2.18669
511,421,6.31348,-1.50653,0,0,0,0,0,0,0,-1,1735,603,6.31353,1.5065
518,421,6.27588,-2.49878,0,0,0,0,0,0,0,-1,1742,603,6.2759,2.4988
525,421,30.6759,-25.1779,0,0,0,0,0,0,0,-1,1749,603,30.6759,25.1779
532,421,31.1686,-23.7032,0,0,0,0,0,0,0,-1,1756,603,31.1685,23.7033
539,421,31.1025,-22.6956,0.00246278,0.000181698,0.000828895,0.00273216,-8.76908e-05,0.31423,0.00185137,0.0262013,1763,603,31.1026,22.6956
546,421,31.0404,-21.7568,0.00218446,0.000374001,0.000742196,0.00244982,0.000108634,0.343379,0.00159824,0.0149349,1770,603,31.0404,21.7568
553,421,30.9706,-20.7989,0.00185851,0.000789623,0.000721714,0.00222212,0.000426013,0.466694,0.00136181,0.0142902,1777,603,30.9706,20.7989
560,421,30.915,-19.8218,0.00147537,0.0012398,0.00077428,0.00214077,0.000574398,0.709917,0.00127944,0.0162658,1784,603,30.9151,19.8218
567,421,30.8733,-18.8817,0.00117408,0.00181172,0.000949753,0.00249473,0.000491059,0.947332,0.00152604,0.0186634,1791,603,30.8733,18.8817
574,421,30.8157,-17.961,0.00100938,0.00252353,0.00122222,0.00320415,0.000328752,1.06269,0.00203539,0.0218211,1798,603,30.8157,17.961
581,421,30.7572,-16.9692,0.000960592,0.00335189,0.00164682,0.00419133,0.000121151,1.09939,0.00275472,0.0217803,1805,603,30.7572,16.9691
588,421,30.6926,-16.0359,0.00104472,0.00445293,0.00224608,0.0055682,-7.0544e-05,1.10992,0.00373587,0.014087,1812,603,30.6926,16.0359
595,421,30.663,-15.0574,0.00132295,0.00579433,0.00301936,0.00731561,-0.000198332,1.10408,0.00494451,0.0205331,1819,603,30.663,15.0574
602,421,30.6028,-14.018,0,0,0,0,0,0,0,-1,1826,603,30.6027,14.018
609,421,22.8762,-8.37524,0,0,0,0,0,0,0,-1,1833,603,22.8762,8.37525
616,421,17.7633,-4.72491,0,0,0,0,0,0,0,-1,1840,603,17.7633,4.7249
623,421,6.19885,0.376648,0,0,0,0,0,0,0,-1,1847,603,6.19881,-0.376624
630,421,6.54993,0.778748,0,0,0,0,0,0,0,-1,1854,603,6.54991,-0.778744
637,421,3.74512,1.65405,0,0,0,0,0,0,0,-1,1861,603,3.74517,-1.65407
644,421,3.58081,0.354675,0,0,0,0,0,0,0,-1,1868,603,3.58082,-0.354704
651,421,3.28687,3.66351,0,0,0,0,0,0,0,-1,1875,603,3.28688,-3.66353
658,421,0,0,0,0,0,0,0,0,0,-1,1882,603,0,0
665,421,0,0,0,0,0,0,0,0,0,-1,1889,603,0,0
672,421,0,0,0,0,0,0,0,0,0,-1,1896,603,0,0
679,421,0,0,0,0,0,0,0,0,0,-1,1903,603,0,0
686,421,0,0,0,0,0,0,0,0,0,-1,1910,603,0,0
693,421,0,0,0,0,0,0,0,0,0,-1,1917,603,0,0
700,421,0,0,0,0,0,0,0,0,0,-1,1924,603,0,0
707,421,0,0,0,0,0,0,0,0,0,-1,1931,603,0,0
714,421,0,0,0,0,0,0,0,0,0,-1,1938,603,0,0
721,421,0,0,0,0,0,0,0,0,0,-1,1945,603,0,0
728,421,0,0,0,0,0,0,0,0,0,-1,1952,603,0,0
735,421,0,0,0,0,0,0,0,0,0,-1,1959,603,0,0
742,421,0,0,0,0,0,0,0,0,0,-1,1966,603,0,0
749,421,0,0,0,0,0,0,0,0,0,-1,1973,603,0,0
756,421,0,0,0,0,0,0,0,0,0,-1,1980,603,0,0
763,421,0,0,0,0,0,0,0,0,0,-1,1987,603,0,0
770,421,0,0,0,0,0,0,0,0,0,-1,1994,603,0,0
777,421,0,0,0,0,0,0,0,0,0,-1,2001,603,0,0
784,421,0,0,0,0,0,0,0,0,0,-1,2008,603,0,0
791,421,0,0,0,0,0,0,0,0,0,-1,2015,603,0,0
798,421,0,0,0,0,0,0,0,0,0,-1,2022,603,0,0
805,421,0,0,0,0,0,0,0,0,0,-1,2029,603,0,0
812,421,0,0,0,0,0,0,0,0,0,-1,2036,603,0,0
-700,414,0,0,0,0,0,0,0,0,0,-1,524,610,0,0
-693,414,0,0,0,0,0,0,0,0,0,-1,531,610,0,0
-686,414,0,0,0,0,0,0,0,0,0,-1,538,610,0,0
-679,414,0,0,0,0,0,0,0,0,0,-1,545,610,0,0
-672,414,0,0,0,0,0,0,0,0,0,-1,552,610,0,0
-665,414,0,0,0,0,0,0,0,0,0,-1,559,610,0,0
-658,414,0,0,0,0,0,0,0,0,0,-1,566,610,0,0
-651,414,0,0,0,0,0,0,0,0,0,-1,573,610,0,0
-644,414,0,0,0,0,0,0,0,0,0,-1,580,610,0,0
-637,414,0,0,0,0,0,0,0,0,0,-1,587,610,0,0
-630,414,0,0,0,0,0,0,0,0,0,-1,594,610,0,0
-623,414,0,0,0,0,0,0,0,0,0,-1,601,610,0,0
-616,414,0,0,0,0,0,0,0,0,0,-1,608,610,0,0
-609,414,0,0,0,0,0,0,0,0,0,-1,615,610,0,0
-602,414,0,0,0,0,0,0,0,0,0,-1,622,610,0,0
-595,414,0,0,0,0,0,0,0,0,0,-1,629,610,0,0
-588,414,0,0,0,0,0,0,0,0,0,-1,636,610,0,0
-581,414,0,0,0,0,0,0,0,0,0,-1,643,610,0,0
-574,414,0,0,0,0,0,0,0,0,0,-1,650,610,0,0
-567,414,0,0,0,0,0,0,0,0,0,-1,657,610,0,0
-560,414,0,0,0,0,0,0,0,0,0,-1,664,610,0,0
-553,414,0,0,0,0,0,0,0,0,0,-1,671,610,0,0
-546,414,0,0,0,0,0,0,0,0,0,-1,678,610,0,0
-539,414,-7.50146,5.65619,0,0,0,0,0,0,0,-1,685,610,-7.50149,-5.65617
-532,414,-8.15204,4.01605,0,0,0,0,0,0,0,-1,692,610,-8.15206,-4.01606
-525,414,-3.47137,-3.27924,0,0,0,0,0,0,0,-1,699,610,-3.47136,3.27922
-518,414,-4.12909,-4.36908,0,0,0,0,0,0,0,-1,706,610,-4.12909,4.36909
-511,414,-3.92542,-4.97021,0,0,0,0,0,0,0,-1,713,610,-3.92542,4.97023
-504,414,-9.35394,-5.49896,0,0,0,0,0,0,0,-1,720,610,-9.35394,5.49898
-497,414,-9.67627,-6.54761,0,0,0,0,0,0,0,-1,727,610,-9.6763,6.5476
-490,414,-15.2787,-11.9947,0,0,0,0,0,0,0,-1,734,610,-15.2787,11.9947
-483,414,-15.4034,-13.3972,0,0,0,0,0,0,0,-1,741,610,-15.4034,13.3972
-476,414,-15.585,-14.3342,-0.00414256,0.000841702,0.00269846,0.00202277,-0.00532363,1.15823,0.00438184,0.026362,748,610,-15.585,14.3342
-469,414,-15.6665,-15.2535,-0.00316722,0.000719491,0.00187602,0.00147726,-0.00392499,1.18691,0.00322395,0.016375,755,610,-15.6665,15.2535
-462,414,-15.696,-16.2589,-0.00212242,0.000583689,0.00117944,0.00102558,-0.00256431,1.21232,0.00213515,0.0243217,762,610,-15.696,16.2588
-455,414,-15.7508,-17.2676,-0.00114616,0.000442633,0.000583519,0.000633914,-0.00133744,1.25403,0.00116207,0.0255388,769,610,-15.7508,17.2676
-448,414,-15.8356,-18.23,-0.000190152,0.000378237,4.80942e-05,0.000382277,-0.000194193,1.48698,0.000338679,0.0252376,776,610,-15.8355,18.23
-441,414,-15.8864,-19.2052,0.000731464,0.000401118,-0.000443045,0.00103912,9.34583e-05,-0.606973,0.000663793,0.0182256,783,610,-15.8863,19.2052
-434,414,-15.9678,-20.1691,0.00157555,0.00052514,-0.000893345,0.00208664,1.40512e-05,-0.519657,0.00138643,0.0104996,790,610,-15.9678,20.1691
-427,414,-16.0129,-21.1108,0.00237529,0.000802701,-0.00138926,0.00318534,-7.34685e-06,-0.527884,0.00212601,0.011942,797,610,-16.0129,21.1108
-420,414,-16.0555,-22.054,0.00308371,0.00118017,-0.00182309,0.00418852,7.53615e-05,-0.544826,0.00276757,0.0118192,804,610,-16.0555,22.054
-413,414,-16.1293,-23.0366,0.00370144,0.00171359,-0.00220686,0.00512787,0.000287157,-0.573813,0.003327,0.012212,811,610,-16.1293,23.0366
-406,414,-16.1368,-24.1913,0.00438645,0.00261856,-0.00282162,0.00645935,0.00054566,-0.633603,0.00413636,0.0456609,818,610,-16.1368,24.1914
-399,414,-16.0058,-25.3337,0,0,0,0,0,0,0,-1,825,610,-16.0058,25.3337
-392,414,-9.43781,-14.5624,0,0,0,0,0,0,0,-1,832,610,-9.43779,14.5624
-385,414,-8.14691,-13.0653,0,0,0,0,0,0,0,-1,839,610,-8.14692,13.0653
-378,414,-8.04907,-11.3331,0,0,0,0,0,0,0,-1,846,610,-8.04905,11.3331
-371,414,-5.20886,-8.05151,0,0,0,0,0,0,0,-1,853,610,-5.20887,8.05153
-364,414,-6.76282,-6.58759,0,0,0,0,0,0,0,-1,860,610,-6.7628,6.58756
-357,414,-9.08685,-8.86188,0,0,0,0,0,0,0,-1,867,610,-9.08688,8.86187
-350,414,-6.4502,-2.41821,0,0,0,0,0,0,0,-1,874,610,-6.45021,2.41822
-343,414,-6.80249,-2.32117,0,0,0,0,0,0,0,-1,881,610,-6.80252,2.32116
-336,414,-7.11017,-2.52026,0,0,0,0,0,0,0,-1,888,610,-7.11016,2.52026
-329,414,-7.59747,-2.70313,0,0,0,0,0,0,0,-1,895,610,-7.59747,2.70315
-322,414,-4.42236,-1.29163,0,0,0,0,0,0,0,-1,902,610,-4.42238,1.2916
-315,414,0,0,0,0,0,0,0,0,0,-1,909,610,0,0
-308,414,0,0,0,0,0,0,0,0,0,-1,916,610,0,0
-301,414,0,0,0,0,0,0,0,0,0,-1,923,610,0,0
-294,414,0,0,0,0,0,0,0,0,0,-1,930,610,0,0
-287,414,0,0,0,0,0,0,0,0,0,-1,937,610,0,0
-280,414,0,0,0,0,0,0,0,0,0,-1,944,610,0,0
-273,414,0,0,0,0,0,0,0,0,0,-1,951,610,0,0
-266,414,0,0,0,0,0,0,0,0,0,-1,958,610,0,0
-259,414,0,0,0,0,0,0,0,0,0,-1,965,610,0,0
-252,414,0,0,0,0,0,0,0,0,0,-1,972,610,0,0
-245,414,0,0,0,0,0,0,0,0,0,-1,979,610,0,0
-238,414,0,0,0,0,0,0,0,0,0,-1,986,610,0,0
-231,414,0,0,0,0,0,0,0,0,0,-1,993,610,0,0
-224,414,0,0,0,0,0,0,0,0,0,-1,1000,610,0,0
-217,414,0,0,0,0,0,0,0,0,0,-1,1007,610,0,0
-210,414,0,0,0,0,0,0,0,0,0,-1,1014,610,0,0
-203,414,0,0,0,0,0,0,0,0,0,-1,1021,610,0,0
-196,414,0,0,0,0,0,0,0,0,0,-1,1028,610,0,0
-189,414,0,0,0,0,0,0,0,0,0,-1,1035,610,0,0
-182,414,0,0,0,0,0,0,0,0,0,-1,1042,610,0,0
-175,414,0,0,0,0,0,0,0,0,0,-1,1049,610,0,0
-168,414,0,0,0,0,0,0,0,0,0,-1,1056,610,0,0
-161,414,0,0,0,0,0,0,0,0,0,-1,1063,610,0,0
-154,414,0,0,0,0,0,0,0,0,0,-1,1070,610,0,0
-147,414,0,0,0,0,0,0,0,0,0,-1,1077,610,0,0
-140,414,0,0,0,0,0,0,0,0,0,-1,1084,610,0,0
-133,414,0,0,0,0,0,0,0,0,0,-1,1091,610,0,0
-126,414,0,0,0,0,0,0,0,0,0,-1,1098,610,0,0
-119,414,0,0,0,0,0,0,0,0,0,-1,1105,610,0,0
-112,414,0,0,0,0,0,0,0,0,0,-1,1112,610,0,0
-105,414,0,0,0,0,0,0,0,0,0,-1,1119,610,0,0
-98,414,0,0,0,0,0,0,0,0,0,-1,1126,610,0,0
-91,414,0,0,0,0,0,0,0,0,0,-1,1133,610,0,0
-84,414,0,0,0,0,0,0,0,0,0,-1,1140,610,0,0
-77,414,0,0,0,0,0,0,0,0,0,-1,1147,610,0,0
-70,414,0,0,0,0,0,0,0,0,0,-1,1154,610,0,0
-63,414,0,0,0,0,0,0,0,0,0,-1,1161,610,0,0
-56,414,0,0,0,0,0,0,0,0,0,-1,1168,610,0,0
-49,414,0,0,0,0,0,0,0,0,0,-1,1175,610,0,0
-42,414,0,0,0,0,0,0,0,0,0,-1,1182,610,0,0
-35,414,0,0,0,0,0,0,0,0,0,-1,1189,610,0,0
-28,414,0,0,0,0,0,0,0,0,0,-1,1196,610,0,0
-21,414,0,0,0,0,0,0,0,0,0,-1,1203,610,0,0
-14,414,0,0,0,0,0,0,0,0,0,-1,1210,610,0,0
-7,414,0,0,0,0,0,0,0,0,0,-1,1217,610,0,0
0,414,0,0,0,0,0,0,0,0,0,-1,1224,610,0,0
7,414,0,0,0,0,0,0,0,0,0,-1,1231,610,0,0
14,414,0,0,0,0,0,0,0,0,0,-1,1238,610,0,0
21,414,0,0,0,0,0,0,0,0,0,-1,1245,610,0,0
28,414,0,0,0,0,0,0,0,0,0,-1,1252,610,0,0
35,414,0,0,0,0,0,0,0,0,0,-1,1259,610,0,0
42,414,0,0,0,0,0,0,0,0,0,-1,1266,610,0,0
49,414,0,0,0,0,0,0,0,0,0,-1,1273,610,0,0
56,414,0,0,0,0,0,0,0,0,0,-1,1280,610,0,0
63,414,0,0,0,0,0,0,0,0,0,-1,1287,610,0,0
70,414,0,0,0,0,0,0,0,0,0,-1,1294,610,0,0
77,414,0,0,0,0,0,0,0,0,0,-1,1301,610,0,0
84,414,0,0,0,0,0,0,0,0,0,-1,1308,610,0,0
91,414,0,0,0,0,0,0,0,0,0,-1,1315,610,0,0
98,414,0,0,0,0,0,0,0,0,0,-1,1322,610,0,0
105,414,0,0,0,0,0,0,0,0,0,-1,1329,610,0,0
112,414,0,0,0,0,0,0,0,0,0,-1,1336,610,0,0
119,414,0,0,0,0,0,0,0,0,0,-1,1343,610,0,0
126,414,0,0,0,0,0,0,0,0,0,-1,1350,610,0,0
133,414,0,0,0,0,0,0,0,0,0,-1,1357,610,0,0
140,414,0,0,0,0,0,0,0,0,0,-1,1364,610,0,0
147,414,0,0,0,0,0,0,0,0,0,-1,1371,610,0,0
154,414,0,0,0,0,0,0,0,0,0,-1,1378,610,0,0
161,414,0,0,0,0,0,0,0,0,0,-1,1385,610,0,0
168,414,0,0,0,0,0,0,0,0,0,-1,1392,610,0,0
175,414,0,0,0,0,0,0,0,0,0,-1,1399,610,0,0
182,414,0,0,0,0,0,0,0,0,0,-1,1406,610,0,0
189,414,0,0,0,0,0,0,0,0,0,-1,1413,610,0,0
196,414,0,0,0,0,0,0,0,0,0,-1,1420,610,0,0
203,414,0,0,0,0,0,0,0,0,0,-1,1427,610,0,0
210,414,0,0,0,0,0,0,0,0,0,-1,1434,610,0,0
217,414,0,0,0,0,0,0,0,0,0,-1,1441,610,0,0
224,414,0,0,0,0,0,0,0,0,0,-1,1448,610,0,0
231,414,0,0,0,0,0,0,0,0,0,-1,1455,610,0,0
238,414,0,0,0,0,0,0,0,0,0,-1,1462,610,0,0
245,414,0,0,0,0,0,0,0,0,0,-1,1469,610,0,0
252,414,0,0,0,0,0,0,0,0,0,-1,1476,610,0,0
259,414,0,0,0,0,0,0,0,0,0,-1,1483,610,0,0
266,414,0,0,0,0,0,0,0,0,0,-1,1490,610,0,0
273,414,0,0,0,0,0,0,0,0,0,-1,1497,610,0,0
280,414,0,0,0,0,0,0,0,0,0,-1,1504,610,0,0
287,414,0,0,0,0,0,0,0,0,0,-1,1511,610,0,0
294,414,0,0,0,0,0,0,0,0,0,-1,1518,610,0,0
301,414,0,0,0,0,0,0,0,0,0,-1,1525,610,0,0
308,414,0,0,0,0,0,0,0,0,0,-1,1532,610,0,0
315,414,0,0,0,0,0,0,0,0,0,-1,1539,610,0,0
322,414,0,0,0,0,0,0,0,0,0,-1,1546,610,0,0
329,414,0,0,0,0,0,0,0,0,0,-1,1553,610,0,0
336,414,0,0,0,0,0,0,0,0,0,-1,1560,610,0,0
343,414,0,0,0,0,0,0,0,0,0,-1,1567,610,0,0
350,414,0,0,0,0,0,0,0,0,0,-1,1574,610,0,0
357,414,0,0,0,0,0,0,0,0,0,-1,1581,610,0,0
364,414,0,0,0,0,0,0,0,0,0,-1,1588,610,0,0
371,414,0,0,0,0,0,0,0,0,0,-1,1595,610,0,0
378,414,0,0,0,0,0,0,0,0,0,-1,1602,610,0,0
385,414,0,0,0,0,0,0,0,0,0,-1,1609,610,0,0
392,414,0,0,0,0,0,0,0,0,0,-1,1616,610,0,0
399,414,0,0,0,0,0,0,0,0,0,-1,1623,610,0,0
406,414,0,0,0,0,0,0,0,0,0,-1,1630,610,0,0
413,414,0,0,0,0,0,0,0,0,0,-1,1637,610,0,0
420,414,0,0,0,0,0,0,0,0,0,-1,1644,610,0,0
427,414,0,0,0,0,0,0,0,0,0,-1,1651,610,0,0
434,414,0,0,0,0,0,0,0,0,0,-1,1658,610,0,0
441,414,7.84375,0.584412,0,0,0,0,0,0,0,-1,1665,610,7.84379,-0.584394
448,414,7.40808,1.25446,0,0,0,0,0,0,0,-1,1672,610,7.40807,-1.25446
455,414,6.3512,1.73846,0,0,0,0,0,0,0,-1,1679,610,6.3512,-1.73847
462,414,8.18103,3.22113,0,0,0,0,0,0,0,-1,1686,610,8.18108,-3.22112
469,414,8.38513,2.49579,0,0,0,0,0,0,0,-1,1693,610,8.38516,-2.49576
476,414,8.64099,1.71161,0,0,0,0,0,0,0,-1,1700,610,8.64097,-1.71164
483,414,8.62744,0.687622,0,0,0,0,0,0,0,-1,1707,610,8.62749,-0.687615
490,414,8.38831,-0.0302734,0,0,0,0,0,0,0,-1,1714,610,8.38835,0.0302913
497,414,4.71094,-0.110046,0,0,0,0,0,0,0,-1,1721,610,4.71089,0.110024
504,414,7.19568,-1.43835,0,0,0,0,0,0,0,-1,1728,610,7.19563,1.43836
511,414,5.94153,-1.28772,0,0,0,0,0,0,0,-1,1735,610,5.94151,1.28769
518,414,4.53381,-0.0996704,0,0,0,0,0,0,0,-1,1742,610,4.53378,0.0996819
525,414,6.18811,-1.64056,0,0,0,0,0,0,0,-1,1749,610,6.18814,1.64055
532,414,32.1266,-23.7161,0,0,0,0,0,0,0,-1,1756,610,32.1266,23.7161
539,414,32.0563,-22.6572,0,0,0,0,0,0,0,-1,1763,610,32.0563,22.6572
546,414,31.9861,-21.6964,0.00272171,0.000290162,0.000866468,0.00299887,1.29945e-05,0.309596,0.00199493,0.0191675,1770,610,31.986,21.6964
553,414,31.953,-20.7437,0.00227585,0.00060862,0.000803481,0.00260004,0.000284438,0.383496,0.00164675,0.0148341,1777,610,31.953,20.7437
560,414,31.9083,-19.7912,0.0017717,0.000920705,0.000797171,0.00224982,0.000442581,0.540254,0.00137628,0.0173078,1784,610,31.9084,19.7912
567,414,31.8739,-18.7822,0.00135354,0.00131871,0.000891136,0.00222743,0.000444817,0.775629,0.00136113,0.0272161,1791,610,31.8739,18.7822
574,414,31.7827,-17.8494,0.00111243,0.00188456,0.0010964,0.00266088,0.000336108,0.954678,0.00167318,0.0253701,1798,610,31.7827,17.8494
581,414,31.731,-16.8958,0.00101388,0.00256738,0.00144731,0.00343321,0.000148056,1.03168,0.00224108,0.0216803,1805,610,31.7309,16.8958
588,414,31.6639,-15.9836,0.00106245,0.0035076,0.00195316,0.00458926,-1.92113e-05,1.06504,0.00306593,0.0197767,1812,610,31.6639,15.9836
595,414,31.5551,-14.9321,0.00131788,0.00465624,0.00261747,0.00609146,-0.000117344,1.06924,0.00410065,0.0218142,1819,610,31.555,14.9321
602,414,31.4348,-13.935,0.00182375,0.0061596,0.00347908,0.00809093,-0.000107583,1.06403,0.00543017,0.028792,1826,610,31.4349,13.935
609,414,31.4127,-12.9382,0,0,0,0,0,0,0,-1,1833,610,31.4128,12.9382
616,414,31.6989,-11.638,0,0,0,0,0,0,0,-1,1840,610,31.6988,11.638
623,414,9.6969,0.0378418,0,0,0,0,0,0,0,-1,1847,610,9.69685,-0.0378644
630,414,5.47144,0.499329,0,0,0,0,0,0,0,-1,1854,610,5.47142,-0.499303
637,414,8.36707,4.16278,0,0,0,0,0,0,0,-1,1861,610,8.36709,-4.16278
644,414,5.87073,1.51422,0,0,0,0,0,0,0,-1,1868,610,5.87076,-1.51424
651,414,3.6377,0.820557,0,0,0,0,0,0,0,-1,1875,610,3.6377,-0.820543
658,414,2.29761,3.87323,0,0,0,0,0,0,0,-1,1882,610,2.29758,-3.87325
665,414,0,0,0,0,0,0,0,0,0,-1,1889,610,0,0
672,414,0,0,0,0,0,0,0,0,0,-1,1896,610,0,0
679,414,0,0,0,0,0,0,0,0,0,-1,1903,610,0,0
686,414,0,0,0,0,0,0,0,0,0,-1,1910,610,0,0
693,414,0,0,0,0,0,0,0,0,0,-1,1917,610,0,0
700,414,0,0,0,0,0,0,0,0,0,-1,1924,610,0,0
707,414,0,0,0,0,0,0,0,0,0,-1,1931,610,0,0
714,414,0,0,0,0,0,0,0,0,0,-1,1938,610,0,0
721,414,0,0,0,0,0,0,0,0,0,-1,1945,610,0,0
728,414,0,0,0,0,0,0,0,0,0,-1,1952,610,0,0
735,414,0,0,0,0,0,0,0,0,0,-1,1959,610,0,0
742,414,0,0,0,0,0,0,0,0,0,-1,1966,610,0,0
749,414,0,0,0,0,0,0,0,0,0,-1,1973,610,0,0
756,414,0,0,0,0,0,0,0,0,0,-1,1980,610,0,0
763,414,0,0,0,0,0,0,0,0,0,-1,1987,610,0,0
770,414,0,0,0,0,0,0,0,0,0,-1,1994,610,0,0
777,414,0,0,0,0,0,0,0,0,0,-1,2001,610,0,0
784,414,0,0,0,0,0,0,0,0,0,-1,2008,610,0,0
791,414,0,0,0,0,0,0,0,0,0,-1,2015,610,0,0
798,414,0,0,0,0,0,0,0,0,0,-1,2022,610,0,0
805,414,0,0,0,0,0,0,0,0,0,-1,2029,610,0,0
812,414,0,0,0,0,0,0,0,0,0,-1,2036,610,0,0
-700,407,0,0,0,0,0,0,0,0,0,-1,524,617,0,0
-693,407,0,0,0,0,0,0,0,0,0,-1,531,617,0,0
-686,407,0,0,0,0,0,0,0,0,0,-1,538,617,0,0
-679,407,0,0,0,0,0,0,0,0,0,-1,545,617,0,0
-672,407,0,0,0,0,0,0,0,0,0,-1,552,617,0,0
-665,407,0,0,0,0,0,0,0,0,0,-1,559,617,0,0
-658,407,0,0,0,0,0,0,0,0,0,-1,566,617,0,0
-651,407,0,0,0,0,0,0,0,0,0,-1,573,617,0,0
-644,407,0,0,0,0,0,0,0,0,0,-1,580,617,0,0
-637,407,0,0,0,0,0,0,0,0,0,-1,587,617,0,0
-630,407,0,0,0,0,0,0,0,0,0,-1,594,617,0,0
-623,407,0,0,0,0,0,0,0,0,0,-1,601,617,0,0
-616,407,0,0,0,0,0,0,0,0,0,-1,608,617,0,0
-609,407,0,0,0,0,0,0,0,0,0,-1,615,617,0,0
-602,407,0,0,0,0,0,0,0,0,0,-1,622,617,0,0
-595,407,0,0,0,0,0,0,0,0,0,-1,629,617,0,0
-588,407,0,0,0,0,0,0,0,0,0,-1,636,617,0,0
-581,407,0,0,0,0,0,0,0,0,0,-1,643,617,0,0
-574,407,0,0,0,0,0,0,0,0,0,-1,650,617,0,0
-567,407,0,0,0,0,0,0,0,0,0,-1,657,617,0,0
-560,407,0,0,0,0,0,0,0,0,0,-1,664,617,0,0
-553,407,0,0,0,0,0,0,0,0,0,-1,671,617,0,0
-546,407,-8.54517,-0.658142,0,0,0,0,0,0,0,-1,678,617,-8.54515,0.658112
-539,407,-6.09442,-1.01154,0,0,0,0,0,0,0,-1,685,617,-6.09441,1.01155
-532,407,-7.75665,1.62152,0,0,0,0,0,0,0,-1,692,617,-7.75667,-1.62154
-525,407,-3.78247,-2.67639,0,0,0,0,0,0,0,-1,699,617,-3.78246,2.67638
-518,407,-5.013,-5.87323,0,0,0,0,0,0,0,-1,706,617,-5.013,5.87324
-511,407,-9.42743,-4.94189,0,0,0,0,0,0,0,-1,713,617,-9.42745,4.94191
-504,407,-10.8291,-8.05927,0,0,0,0,0,0,0,-1,720,617,-10.8291,8.05927
-497,407,-9.84467,-6.81641,0,0,0,0,0,0,0,-1,727,617,-9.84468,6.8164
-490,407,-16.4739,-11.987,0,0,0,0,0,0,0,-1,734,617,-16.4739,11.987
-483,407,-16.4074,-13.258,-0.00335844,0.000628458,0.00257787,0.00189373,-0.00462371,1.11452,0.00387131,0.0332219,741,617,-16.4074,13.258
-476,407,-16.5126,-14.1995,-0.00282024,0.000565857,0.00191863,0.00143163,-0.00368601,1.14691,0.00304873,0.0167675,748,617,-16.5126,14.1995
-469,407,-16.6012,-15.1644,-0.00208687,0.000428551,0.00130956,0.000986546,-0.00264486,1.168,0.00216824,0.0136335,755,617,-16.6012,15.1645
-462,407,-16.6928,-16.1738,-0.00124268,0.000283133,0.0007555,0.000593915,-0.00155346,1.18054,0.00128038,0.0206077,762,617,-16.6928,16.1738
-455,407,-16.7698,-17.2025,-0.000404063,0.000212524,0.000222122,0.000284208,-0.000475747,1.25862,0.000443381,0.0233365,769,617,-16.7698,17.2025
-448,407,-16.7866,-18.1785,0.000481087,0.000180613,-0.00027051,0.000640279,2.14205e-05,-0.531914,0.000419895,0.0204408,776,617,-16.7865,18.1785
-441,407,-16.8565,-19.1018,0.00139284,0.000257471,-0.000764711,0.00177754,-0.000127236,-0.466105,0.00122964,0.0150711,783,617,-16.8565,19.1018
-434,407,-16.9568,-20.0584,0.00228367,0.000461684,-0.00125768,0.00292563,-0.000180274,-0.471958,0.0020132,0.0123304,790,617,-16.9568,20.0584
-427,407,-16.9944,-21.0297,0.00316226,0.000837758,-0.00182612,0.00416462,-0.000164599,-0.501999,0.00283287,0.0134672,797,617,-16.9944,21.0297
-420,407,-17.0216,-21.9879,0.00393879,0.00130963,-0.00232936,0.00529892,-5.04975e-05,-0.5285,0.00354956,0.0122319,804,617,-17.0216,21.9879
-413,407,-17.0644,-22.9507,0.0046929,0.00205393,-0.00286587,0.00652846,0.000218384,-0.569658,0.00428137,0.0204246,811,617,-17.0644,22.9507
-406,407,-17.099,-23.9343,0,0,0,0,0,0,0,-1,818,617,-17.099,23.9343
-399,407,-16.5686,-23.1791,0,0,0,0,0,0,0,-1,825,617,-16.5686,23.1791
-392,407,-8.33612,-12.195,0,0,0,0,0,0,0,-1,832,617,-8.33611,12.195
-385,407,-7.65765,-10.7744,0,0,0,0,0,0,0,-1,839,617,-7.65767,10.7744
-378,407,-6.08655,-7.42291,0,0,0,0,0,0,0,-1,846,617,-6.08652,7.42292
-371,407,-7.4007,-5.79449,0,0,0,0,0,0,0,-1,853,617,-7.40072,5.79447
-364,407,-10.0638,-6.6228,0,0,0,0,0,0,0,-1,860,617,-10.0639,6.62279
-357,407,-6.64447,-1.83337,0,0,0,0,0,0,0,-1,867,617,-6.64446,1.8334
-350,407,-7.03351,-1.77551,0,0,0,0,0,0,0,-1,874,617,-7.03349,1.77551
-343,407,-7.40967,-1.95026,0,0,0,0,0,0,0,-1,881,617,-7.40969,1.95026
-336,407,-8.10229,-2.40662,0,0,0,0,0,0,0,-1,888,617,-8.10229,2.40664
-329,407,-8.81232,-2.76331,0,0,0,0,0,0,0,-1,895,617,-8.81235,2.76331
-322,407,0,0,0,0,0,0,0,0,0,-1,902,617,0,0
-315,407,0,0,0,0,0,0,0,0,0,-1,909,617,0,0
-308,407,0,0,0,0,0,0,0,0,0,-1,916,617,0,0
-301,407,0,0,0,0,0,0,0,0,0,-1,923,617,0,0
-294,407,0,0,0,0,0,0,0,0,0,-1,930,617,0,0
-287,407,0,0,0,0,0,0,0,0,0,-1,937,617,0,0
-280,407,0,0,0,0,0,0,0,0,0,-1,944,617,0,0
-273,407,0,0,0,0,0,0,0,0,0,-1,951,617,0,0
-266,407,0,0,0,0,0,0,0,0,0,-1,958,617,0,0
-259,407,0,0,0,0,0,0,0,0,0,-1,965,617,0,0
-252,407,0,0,0,0,0,0,0,0,0,-1,972,617,0,0
-245,407,0,0,0,0,0,0,0,0,0,-1,979,617,0,0
-238,407,0,0,0,0,0,0,0,0,0,-1,986,617,0,0
-231,407,0,0,0,0,0,0,0,0,0,-1,993,617,0,0
-224,407,0,0,0,0,0,0,0,0,0,-1,1000,617,0,0
-217,407,0,0,0,0,0,0,0,0,0,-1,1007,617,0,0
-210,407,0,0,0,0,0,0,0,0,0,-1,1014,617,0,0
-203,407,0,0,0,0,0,0,0,0,0,-1,1021,617,0,0
-196,407,0,0,0,0,0,0,0,0,0,-1,1028,617,0,0
-189,407,0,0,0,0,0,0,0,0,0,-1,1035,617,0,0
-182,407,0,0,0,0,0,0,0,0,0,-1,1042,617,0,0
-175,407,0,0,0,0,0,0,0,0,0,-1,1049,617,0,0
-168,407,0,0,0,0,0,0,0,0,0,-1,1056,617,0,0
-161,407,0,0,0,0,0,0,0,0,0,-1,1063,617,0,0
-154,407,0,0,0,0,0,0,0,0,0,-1,1070,617,0,0
-147,407,0,0,0,0,0,0,0,0,0,-1,1077,617,0,0
-140,407,0,0,0,0,0,0,0,0,0,-1,1084,617,0,0
-133,407,0,0,0,0,0,0,0,0,0,-1,1091,617,0,0
-126,407,0,0,0,0,0,0,0,0,0,-1,1098,617,0,0
-119,407,0,0,0,0,0,0,0,0,0,-1,1105,617,0,0
-112,407,0,0,0,0,0,0,0,0,0,-1,1112,617,0,0
-105,407,0,0,0,0,0,0,0,0,0,-1,1119,617,0,0
-98,407,0,0,0,0,0,0,0,0,0,-1,1126,617,0,0
-91,407,0,0,0,0,0,0,0,0,0,-1,1133,617,0,0
-84,407,0,0,0,0,0,0,0,0,0,-1,1140,617,0,0
-77,407,0,0,0,0,0,0,0,0,0,-1,1147,617,0,0
-70,407,0,0,0,0,0,0,0,0,0,-1,1154,617,0,0
-63,407,0,0,0,0,0,0,0,0,0,-1,1161,617,0,0
-56,407,0,0,0,0,0,0,0,0,0,-1,1168,617,0,0
-49,407,0,0,0,0,0,0,0,0,0,-1,1175,617,0,0
-42,407,0,0,0,0,0,0,0,0,0,-1,1182,617,0,0
-35,407,0,0,0,0,0,0,0,0,0,-1,1189,617,0,0
-28,407,0,0,0,0,0,0,0,0,0,-1,1196,617,0,0
-21,407,0,0,0,0,0,0,0,0,0,-1,1203,617,0,0
-14,407,0,0,0,0,0,0,0,0,0,-1,1210,617,0,0
-7,407,0,0,0,0,0,0,0,0,0,-1,1217,617,0,0
0,407,0,0,0,0,0,0,0,0,0,-1,1224,617,0,0
7,407,0,0,0,0,0,0,0,0,0,-1,1231,617,0,0
14,407,0,0,0,0,0,0,0,0,0,-1,1238,617,0,0
21,407,0,0,0,0,0,0,0,0,0,-1,1245,617,0,0
28,407,0,0,0,0,0,0,0,0,0,-1,1252,617,0,0
35,407,0,0,0,0,0,0,0,0,0,-1,1259,617,0,0
42,407,0,0,0,0,0,0,0,0,0,-1,1266,617,0,0
49,407,0,0,0,0,0,0,0,0,0,-1,1273,617,0,0
56,407,0,0,0,0,0,0,0,0,0,-1,1280,617,0,0
63,407,0,0,0,0,0,0,0,0,0,-1,1287,617,0,0
70,407,0,0,0,0,0,0,0,0,0,-1,1294,617,0,0
77,407,0,0,0,0,0,0,0,0,0,-1,1301,617,0,0
84,407,0,0,0,0,0,0,0,0,0,-1,1308,617,0,0
91,407,0,0,0,0,0,0,0,0,0,-1,1315,617,0,0
98,407,0,0,0,0,0,0,0,0,0,-1,1322,617,0,0
105,407,0,0,0,0,0,0,0,0,0,-1,1329,617,0,0
112,407,0,0,0,0,0,0,0,0,0,-1,1336,617,0,0
119,407,0,0,0,0,0,0,0,0,0,-1,1343,617,0,0
126,407,0,0,0,0,0,0,0,0,0,-1,1350,617,0,0
133,407,0,0,0,0,0,0,0,0,0,-1,1357,617,0,0
140,407,0,0,0,0,0,0,0,0,0,-1,1364,617,0,0
147,407,0,0,0,0,0,0,0,0,0,-1,1371,617,0,0
154,407,0,0,0,0,0,0,0,0,0,-1,1378,617,0,0
161,407,0,0,0,0,0,0,0,0,0,-1,1385,617,0,0
168,407,0,0,0,0,0,0,0,0,0,-1,1392,617,0,0
175,407,0,0,0,0,0,0,0,0,0,-1,1399,617,0,0
182,407,0,0,0,0,0,0,0,0,0,-1,1406,617,0,0
189,407,0,0,0,0,0,0,0,0,0,-1,1413,617,0,0
196,407,0,0,0,0,0,0,0,0,0,-1,1420,617,0,0
203,407,0,0,0,0,0,0,0,0,0,-1,1427,617,0,0
210,407,0,0,0,0,0,0,0,0,0,-1,1434,617,0,0
217,407,0,0,0,0,0,0,0,0,0,-1,1441,617,0,0
224,407,0,0,0,0,0,0,0,0,0,-1,1448,617,0,0
231,407,0,0,0,0,0,0,0,0,0,-1,1455,617,0,0
238,407,0,0,0,0,0,0,0,0,0,-1,1462,617,0,0
245,407,0,0,0,0,0,0,0,0,0,-1,1469,617,0,0
252,407,0,0,0,0,0,0,0,0,0,-1,1476,617,0,0
259,407,0,0,0,0,0,0,0,0,0,-1,1483,617,0,0
266,407,0,0,0,0,0,0,0,0,0,-1,1490,617,0,0
273,407,0,0,0,0,0,0,0,0,0,-1,1497,617,0,0
280,407,0,0,0,0,0,0,0,0,0,-1,1504,617,0,0
287,407,0,0,0,0,0,0,0,0,0,-1,1511,617,0,0
294,407,0,0,0,0,0,0,0,0,0,-1,1518,617,0,0
301,407,0,0,0,0,0,0,0,0,0,-1,1525,617,0,0
308,407,0,0,0,0,0,0,0,0,0,-1,1532,617,0,0
315,407,0,0,0,0,0,0,0,0,0,-1,1539,617,0,0
322,407,0,0,0,0,0,0,0,0,0,-1,1546,617,0,0
329,407,0,0,0,0,0,0,0,0,0,-1,1553,617,0,0
336,407,0,0,0,0,0,0,0,0,0,-1,1560,617,0,0
343,407,0,0,0,0,0,0,0,0,0,-1,1567,617,0,0
350,407,0,0,0,0,0,0,0,0,0,-1,1574,617,0,0
357,407,0,0,0,0,0,0,0,0,0,-1,1581,617,0,0
364,407,0,0,0,0,0,0,0,0,0,-1,1588,617,0,0
371,407,0,0,0,0,0,0,0,0,0,-1,1595,617,0,0
378,407,0,0,0,0,0,0,0,0,0,-1,1602,617,0,0
385,407,0,0,0,0,0,0,0,0,0,-1,1609,617,0,0
392,407,0,0,0,0,0,0,0,0,0,-1,1616,617,0,0
399,407,0,0,0,0,0,0,0,0,0,-1,1623,617,0,0
406,407,0,0,0,0,0,0,0,0,0,-1,1630,617,0,0
413,407,0,0,0,0,0,0,0,0,0,-1,1637,617,0,0
420,407,0,0,0,0,0,0,0,0,0,-1,1644,617,0,0
427,407,0,0,0,0,0,0,0,0,0,-1,1651,617,0,0
434,407,0,0,0,0,0,0,0,0,0,-1,1658,617,0,0
441,407,0,0,0,0,0,0,0,0,0,-1,1665,617,0,0
448,407,7.02893,2.13843,0,0,0,0,0,0,0,-1,1672,617,7.02899,-2.13844
455,407,7.55237,2.29242,0,0,0,0,0,0,0,-1,1679,617,7.55236,-2.29244
462,407,8.2926,2.46173,0,0,0,0,0,0,0,-1,1686,617,8.29261,-2.46174
469,407,8.71509,2.22681,0,0,0,0,0,0,0,-1,1693,617,8.71511,-2.22681
476,407,8.89917,1.47766,0,0,0,0,0,0,0,-1,1700,617,8.89914,-1.47768
483,407,9.02612,0.682983,0,0,0,0,0,0,0,-1,1707,617,9.02608,-0.683004
490,407,9.12659,0.000671387,0,0,0,0,0,0,0,-1,1714,617,9.12653,-0.000675931
497,407,7.76819,0.855835,0,0,0,0,0,0,0,-1,1721,617,7.7682,-0.855865
504,407,4.69336,0.160706,0,0,0,0,0,0,0,-1,1728,617,4.69337,-0.1607
511,407,4.07104,-0.00140381,0,0,0,0,0,0,0,-1,1735,617,4.07109,0.00141425
518,407,6.09534,1.9411,0,0,0,0,0,0,0,-1,1742,617,6.09532,-1.94113
525,407,5.72534,-1.35986,0,0,0,0,0,0,0,-1,1749,617,5.72529,1.35988
532,407,18.5767,-10.6388,0,0,0,0,0,0,0,-1,1756,617,18.5766,10.6388
539,407,32.8552,-22.7341,0,0,0,0,0,0,0,-1,1763,617,32.8552,22.734
546,407,32.9438,-21.654,0.00303618,0.000504194,0.00110149,0.00344829,9.2085e-05,0.358013,0.00226879,0.0304624,1770,617,32.9439,21.654
553,407,32.8793,-20.7211,0.00255511,0.000661791,0.000953682,0.0029522,0.000264696,0.394547,0.0018861,0.0187719,1777,617,32.8792,20.7211
560,407,32.8687,-19.7372,0.00201386,0.000784982,0.000841971,0.00244175,0.000357091,0.470187,0.00152282,0.0201675,1784,617,32.8687,19.7372
567,407,32.8389,-18.729,0.00154244,0.000967235,0.000815047,0.00211914,0.000390536,0.615785,0.00130225,0.0343498,1791,617,32.8389,18.729
574,407,32.7445,-17.8147,0.00127009,0.00137286,0.000944122,0.002267,0.000375959,0.812585,0.00140291,0.0293537,1798,617,32.7445,17.8147
581,407,32.6552,-16.7883,0.00115563,0.0019186,0.00122738,0.00282242,0.000251816,0.936072,0.00180354,0.0210107,1805,617,32.6552,16.7883
588,407,32.5647,-15.8716,0.00120503,0.00271261,0.00166093,0.00378279,0.000134845,0.998418,0.00247814,0.0155798,1812,617,32.5647,15.8716
595,407,32.5682,-14.9202,0.00146618,0.00368663,0.00224449,0.00508047,7.2337e-05,1.01508,0.00336313,0.0302092,1819,617,32.5682,14.9202
602,407,32.4661,-13.8347,0.00197723,0.0049481,0.00300526,0.006815,0.00011034,1.01493,0.004507,0.0244559,1826,617,32.466,13.8347
609,407,32.3419,-12.8395,0.00287914,0.00655725,0.00405942,0.00917476,0.000261629,0.998085,0.00603119,0.022501,1833,617,32.3419,12.8395
616,407,32.3512,-11.7222,0.00425048,0.00855604,0.00540212,0.0122185,0.000587988,0.975007,0.00795693,0.0404022,1840,617,32.3512,11.7222
623,407,32.6492,-10.4303,0,0,0,0,0,0,0,-1,1847,617,32.6491,10.4303
630,407,7.06177,0.814575,0,0,0,0,0,0,0,-1,1854,617,7.06178,-0.814579
637,407,11.1063,0.391846,0,0,0,0,0,0,0,-1,1861,617,11.1063,-0.391862
644,407,5.09766,2.27747,0,0,0,0,0,0,0,-1,1868,617,5.09764,-2.27746
651,407,7.37524,0.0513916,0,0,0,0,0,0,0,-1,1875,617,7.3752,-0.0513923
658,407,3.76685,0.594177,0,0,0,0,0,0,0,-1,1882,617,3.76683,-0.594184
665,407,5.76123,0.375061,0,0,0,0,0,0,0,-1,1889,617,5.76118,-0.37509
672,407,0,0,0,0,0,0,0,0,0,-1,1896,617,0,0
679,407,0,0,0,0,0,0,0,0,0,-1,1903,617,0,0
686,407,0,0,0,0,0,0,0,0,0,-1,1910,617,0,0
693,407,0,0,0,0,0,0,0,0,0,-1,1917,617,0,0
700,407,0,0,0,0,0,0,0,0,0,-1,1924,617,0,0
707,407,0,0,0,0,0,0,0,0,0,-1,1931,617,0,0
714,407,0,0,0,0,0,0,0,0,0,-1,1938,617,0,0
721,407,0,0,0,0,0,0,0,0,0,-1,1945,617,0,0
728,407,0,0,0,0,0,0,0,0,0,-1,1952,617,0,0
735,407,0,0,0,0,0,0,0,0,0,-1,1959,617,0,0
742,407,0,0,0,0,0,0,0,0,0,-1,1966,617,0,0
749,407,0,0,0,0,0,0,0,0,0,-1,1973,617,0,0
756,407,0,0,0,0,0,0,0,0,0,-1,1980,617,0,0
763,407,0,0,0,0,0,0,0,0,0,-1,1987,617,0,0
770,407,0,0,0,0,0,0,0,0,0,-1,1994,617,0,0
777,407,0,0,0,0,0,0,0,0,0,-1,2001,617,0,0
784,407,0,0,0,0,0,0,0,0,0,-1,2008,617,0,0
791,407,0,0,0,0,0,0,0,0,0,-1,2015,617,0,0
798,407,0,0,0,0,0,0,0,0,0,-1,2022,617,0,0
805,407,0,0,0,0,0,0,0,0,0,-1,2029,617,0,0
812,407,0,0,0,0,0,0,0,0,0,-1,2036,617,0,0
-700,400,0,0,0,0,0,0,0,0,0,-1,524,624,0,0
-693,400,0,0,0,0,0,0,0,0,0,-1,531,624,0,0
-686,400,0,0,0,0,0,0,0,0,0,-1,538,624,0,0
-679,400,0,0,0,0,0,0,0,0,0,-1,545,624,0,0
-672,400,0,0,0,0,0,0,0,0,0,-1,552,624,0,0
-665,400,0,0,0,0,0,0,0,0,0,-1,559,624,0,0
-658,400,0,0,0,0,0,0,0,0,0,-1,566,624,0,0
-651,400,0,0,0,0,0,0,0,0,0,-1,573,624,0,0
-644,400,0,0,0,0,0,0,0,0,0,-1,580,624,0,0
-637,400,0,0,0,0,0,0,0,0,0,-1,587,624,0,0
-630,400,0,0,0,0,0,0,0,0,0,-1,594,624,0,0
-623,400,0,0,0,0,0,0,0,0,0,-1,601,624,0,0
-616,400,0,0,0,0,0,0,0,0,0,-1,608,624,0,0
-609,400,0,0,0,0,0,0,0,0,0,-1,615,624,0,0
-602,400,0,0,0,0,0,0,0,0,0,-1,622,624,0,0
-595,400,0,0,0,0,0,0,0,0,0,-1,629,624,0,0
-588,400,0,0,0,0,0,0,0,0,0,-1,636,624,0,0
-581,400,0,0,0,0,0,0,0,0,0,-1,643,624,0,0
-574,400,0,0,0,0,0,0,0,0,0,-1,650,624,0,0
-567,400,0,0,0,0,0,0,0,0,0,-1,657,624,0,0
-560,400,0,0,0,0,0,0,0,0,0,-1,664,624,0,0
-553,400,0,0,0,0,0,0,0,0,0,-1,671,624,0,0
-546,400,-8.41174,-1.4599,0,0,0,0,0,0,0,-1,678,624,-8.41173,1.45989
-539,400,-5.69104,-1.7337,0,0,0,0,0,0,0,-1,685,624,-5.69103,1.7337
-532,400,-3.03632,-2.03912,0,0,0,0,0,0,0,-1,692,624,-3.03632,2.03909
-525,400,-6.20813,-7.04071,0,0,0,0,0,0,0,-1,699,624,-6.20814,7.04071
-518,400,-5.26544,-1.58661,0,0,0,0,0,0,0,-1,706,624,-5.26544,1.58658
-511,400,-10.6307,-6.7121,0,0,0,0,0,0,0,-1,713,624,-10.6307,6.71209
-504,400,-10.2663,-6.55109,0,0,0,0,0,0,0,-1,720,624,-10.2663,6.55106
-497,400,-17.4264,-11.2426,0,0,0,0,0,0,0,-1,727,624,-17.4264,11.2425
-490,400,-17.4359,-12.0396,0,0,0,0,0,0,0,-1,734,624,-17.4359,12.0396
-483,400,-17.413,-13.1679,-0.00211851,0.000380503,0.00178189,0.00130732,-0.00304533,1.09117,0.00257892,0.0191894,741,624,-17.413,13.1679
-476,400,-17.4733,-14.1154,-0.00173758,0.000297655,0.00129918,0.000930319,-0.00237024,1.11763,0.0019651,0.0158355,748,624,-17.4733,14.1154
-469,400,-17.5328,-15.1108,-0.00115078,0.000173693,0.000819447,0.000565046,-0.00154213,1.12524,0.00125942,0.0159891,755,624,-17.5328,15.1108
-462,400,-17.6135,-16.1369,-0.000442811,2.98797e-05,0.000355082,0.000220082,-0.000633013,1.07903,0.000511406,0.0203543,762,624,-17.6135,16.1369
-455,400,-17.6955,-17.1301,0.000317232,2.32351e-05,-0.000147304,0.000378337,-3.78695e-05,-0.393217,0.000265749,0.0228149,769,624,-17.6955,17.1301
-448,400,-17.7503,-18.093,0.00116961,2.13617e-05,-0.000622313,0.00144218,-0.000251208,-0.412826,0.00105521,0.0167491,776,624,-17.7503,18.093
-441,400,-17.8289,-18.9993,0.00209512,0.00013895,-0.00113234,0.00261331,-0.000379246,-0.429181,0.00188141,0.0148236,783,624,-17.8289,18.9993
-434,400,-17.9129,-19.9566,0.00305992,0.000414963,-0.00167934,0.00387499,-0.000400111,-0.451862,0.0027265,0.013552,790,624,-17.9129,19.9566
-427,400,-17.9761,-20.9213,0.00404987,0.000869469,-0.00231662,0.00526955,-0.000350219,-0.484618,0.0036354,0.0121005,797,624,-17.9761,20.9213
-420,400,-17.9462,-21.9523,0.00492751,0.00140323,-0.00288777,0.00654832,-0.000217579,-0.511452,0.00443985,0.0253986,804,624,-17.9462,21.9523
-413,400,-17.9692,-22.8597,0,0,0,0,0,0,0,-1,811,624,-17.9692,22.8597
-406,400,-18.4421,-23.3703,0,0,0,0,0,0,0,-1,818,624,-18.4421,23.3703
-399,400,-11.0176,-13.2944,0,0,0,0,0,0,0,-1,825,624,-11.0176,13.2944
-392,400,-4.92285,-6.63354,0,0,0,0,0,0,0,-1,832,624,-4.92285,6.63354
-385,400,-3.68738,-5.04205,0,0,0,0,0,0,0,-1,839,624,-3.68736,5.04207
-378,400,-6.84064,-1.28662,0,0,0,0,0,0,0,-1,846,624,-6.84062,1.28662
-371,400,-6.98865,-1.2572,0,0,0,0,0,0,0,-1,853,624,-6.98865,1.25721
-364,400,-6.97247,-1.24133,0,0,0,0,0,0,0,-1,860,624,-6.97249,1.24135
-357,400,-7.18329,-1.23218,0,0,0,0,0,0,0,-1,867,624,-7.18327,1.2322
-350,400,-7.40186,-1.19409,0,0,0,0,0,0,0,-1,874,624,-7.40187,1.19407
-343,400,-8.09357,-1.51147,0,0,0,0,0,0,0,-1,881,624,-8.09355,1.51148
-336,400,0,0,0,0,0,0,0,0,0,-1,888,624,0,0
-329,400,0,0,0,0,0,0,0,0,0,-1,895,624,0,0
-322,400,0,0,0,0,0,0,0,0,0,-1,902,624,0,0
-315,400,0,0,0,0,0,0,0,0,0,-1,909,624,0,0
-308,400,0,0,0,0,0,0,0,0,0,-1,916,624,0,0
-301,400,0,0,0,0,0,0,0,0,0,-1,923,624,0,0
-294,400,0,0,0,0,0,0,0,0,0,-1,930,624,0,0
-287,400,0,0,0,0,0,0,0,0,0,-1,937,624,0,0
-280,400,0,0,0,0,0,0,0,0,0,-1,944,624,0,0
-273,400,0,0,0,0,0,0,0,0,0,-1,951,624,0,0
-266,400,0,0,0,0,0,0,0,0,0,-1,958,624,0,0
-259,400,0,0,0,0,0,0,0,0,0,-1,965,624,0,0
-252,400,0,0,0,0,0,0,0,0,0,-1,972,624,0,0
-245,400,0,0,0,0,0,0,0,0,0,-1,979,624,0,0
-238,400,0,0,0,0,0,0,0,0,0,-1,986,624,0,0
-231,400,0,0,0,0,0,0,0,0,0,-1,993,624,0,0
-224,400,0,0,0,0,0,0,0,0,0,-1,1000,624,0,0
-217,400,0,0,0,0,0,0,0,0,0,-1,1007,624,0,0
-210,400,0,0,0,0,0,0,0,0,0,-1,1014,624,0,0
-203,400,0,0,0,0,0,0,0,0,0,-1,1021,624,0,0
-196,400,0,0,0,0,0,0,0,0,0,-1,1028,624,0,0
-189,400,0,0,0,0,0,0,0,0,0,-1,1035,624,0,0
-182,400,0,0,0,0,0,0,0,0,0,-1,1042,624,0,0
-175,400,0,0,0,0,0,0,0,0,0,-1,1049,624,0,0
-168,400,0,0,0,0,0,0,0,0,0,-1,1056,624,0,0
-161,400,0,0,0,0,0,0,0,0,0,-1,1063,624,0,0
-154,400,0,0,0,0,0,0,0,0,0,-1,1070,624,0,0
-147,400,0,0,0,0,0,0,0,0,0,-1,1077,624,0,0
-140,400,0,0,0,0,0,0,0,0,0,-1,1084,624,0,0
-133,400,0,0,0,0,0,0,0,0,0,-1,1091,624,0,0
-126,400,0,0,0,0,0,0,0,0,0,-1,1098,624,0,0
-119,400,0,0,0,0,0,0,0,0,0,-1,1105,624,0,0
-112,400,0,0,0,0,0,0,0,0,0,-1,1112,624,0,0
-105,400,0,0,0,0,0,0,0,0,0,-1,1119,624,0,0
-98,400,0,0,0,0,0,0,0,0,0,-1,1126,624,0,0
-91,400,0,0,0,0,0,0,0,0,0,-1,1133,624,0,0
-84,400,0,0,0,0,0,0,0,0,0,-1,1140,624,0,0
-77,400,0,0,0,0,0,0,0,0,0,-1,1147,624,0,0
-70,400,0,0,0,0,0,0,0,0,0,-1,1154,624,0,0
-63,400,0,0,0,0,0,0,0,0,0,-1,1161,624,0,0
-56,400,0,0,0,0,0,0,0,0,0,-1,1168,624,0,0
-49,400,0,0,0,0,0,0,0,0,0,-1,1175,624,0,0
-42,400,0,0,0,0,0,0,0,0,0,-1,1182,624,0,0
-35,400,0,0,0,0,0,0,0,0,0,-1,1189,624,0,0
-28,400,0,0,0,0,0,0,0,0,0,-1,1196,624,0,0
-21,400,0,0,0,0,0,0,0,0,0,-1,1203,624,0,0
-14,400,0,0,0,0,0,0,0,0,0,-1,1210,624,0,0
-7,400,0,0,0,0,0,0,0,0,0,-1,1217,624,0,0
0,400,0,0,0,0,0,0,0,0,0,-1,1224,624,0,0
7,400,0,0,0,0,0,0,0,0,0,-1,1231,624,0,0
14,400,0,0,0,0,0,0,0,0,0,-1,1238,624,0,0
21,400,0,0,0,0,0,0,0,0,0,-1,1245,624,0,0
28,400,0,0,0,0,0,0,0,0,0,-1,1252,624,0,0
35,400,0,0,0,0,0,0,0,0,0,-1,1259,624,0,0
42,400,0,0,0,0,0,0,0,0,0,-1,1266,624,0,0
49,400,0,0,0,0,0,0,0,0,0,-1,1273,624,0,0
56,400,0,0,0,0,0,0,0,0,0,-1,1280,624,0,0
63,400,0,0,0,0,0,0,0,0,0,-1,1287,624,0,0
70,400,0,0,0,0,0,0,0,0,0,-1,1294,624,0,0
77,400,0,0,0,0,0,0,0,0,0,-1,1301,624,0,0
84,400,0,0,0,0,0,0,0,0,0,-1,1308,624,0,0
91,400,0,0,0,0,0,0,0,0,0,-1,1315,624,0,0
98,400,0,0,0,0,0,0,0,0,0,-1,1322,624,0,0
105,400,0,0,0,0,0,0,0,0,0,-1,1329,624,0,0
112,400,0,0,0,0,0,0,0,0,0,-1,1336,624,0,0
119,400,0,0,0,0,0,0,0,0,0,-1,1343,624,0,0
126,400,0,0,0,0,0,0,0,0,0,-1,1350,624,0,0
133,400,0,0,0,0,0,0,0,0,0,-1,1357,624,0,0
140,400,0,0,0,0,0,0,0,0,0,-1,1364,624,0,0
147,400,0,0,0,0,0,0,0,0,0,-1,1371,624,0,0
154,400,0,0,0,0,0,0,0,0,0,-1,1378,624,0,0
161,400,0,0,0,0,0,0,0,0,0,-1,1385,624,0,0
168,400,0,0,0,0,0,0,0,0,0,-1,1392,624,0,0
175,400,0,0,0,0,0,0,0,0,0,-1,1399,624,0,0
182,400,0,0,0,0,0,0,0,0,0,-1,1406,624,0,0
189,400,0,0,0,0,0,0,0,0,0,-1,1413,624,0,0
196,400,0,0,0,0,0,0,0,0,0,-1,1420,624,0,0
203,400,0,0,0,0,0,0,0,0,0,-1,1427,624,0,0
210,400,0,0,0,0,0,0,0,0,0,-1,1434,624,0,0
217,400,0,0,0,0,0,0,0,0,0,-1,1441,624,0,0
224,400,0,0,0,0,0,0,0,0,0,-1,1448,624,0,0
231,400,0,0,0,0,0,0,0,0,0,-1,1455,624,0,0
238,400,0,0,0,0,0,0,0,0,0,-1,1462,624,0,0
245,400,0,0,0,0,0,0,0,0,0,-1,1469,624,0,0
252,400,0,0,0,0,0,0,0,0,0,-1,1476,624,0,0
259,400,0,0,0,0,0,0,0,0,0,-1,1483,624,0,0
266,400,0,0,0,0,0,0,0,0,0,-1,1490,624,0,0
273,400,0,0,0,0,0,0,0,0,0,-1,1497,624,0,0
280,400,0,0,0,0,0,0,0,0,0,-1,1504,624,0,0
287,400,0,0,0,0,0,0,0,0,0,-1,1511,624,0,0
294,400,0,0,0,0,0,0,0,0,0,-1,1518,624,0,0
301,400,0,0,0,0,0,0,0,0,0,-1,1525,624,0,0
308,400,0,0,0,0,0,0,0,0,0,-1,1532,624,0,0
315,400,0,0,0,0,0,0,0,0,0,-1,1539,624,0,0
322,400,0,0,0,0,0,0,0,0,0,-1,1546,624,0,0
329,400,0,0,0,0,0,0,0,0,0,-1,1553,624,0,0
336,400,0,0,0,0,0,0,0,0,0,-1,1560,624,0,0
343,400,0,0,0,0,0,0,0,0,0,-1,1567,624,0,0
350,400,0,0,0,0,0,0,0,0,0,-1,1574,624,0,0
357,400,0,0,0,0,0,0,0,0,0,-1,1581,624,0,0
364,400,0,0,0,0,0,0,0,0,0,-1,1588,624,0,0
371,400,0,0,0,0,0,0,0,0,0,-1,1595,624,0,0
378,400,0,0,0,0,0,0,0,0,0,-1,1602,624,0,0
385,400,0,0,0,0,0,0,0,0,0,-1,1609,624,0,0
392,400,0,0,0,0,0,0,0,0,0,-1,1616,624,0,0
399,400,0,0,0,0,0,0,0,0,0,-1,1623,624,0,0
406,400,0,0,0,0,0,0,0,0,0,-1,1630,624,0,0
413,400,0,0,0,0,0,0,0,0,0,-1,1637,624,0,0
420,400,0,0,0,0,0,0,0,0,0,-1,1644,624,0,0
427,400,0,0,0,0,0,0,0,0,0,-1,1651,624,0,0
434,400,0,0,0,0,0,0,0,0,0,-1,1658,624,0,0
441,400,0,0,0,0,0,0,0,0,0,-1,1665,624,0,0
448,400,0,0,0,0,0,0,0,0,0,-1,1672,624,0,0
455,400,8.91309,2.75885,0,0,0,0,0,0,0,-1,1679,624,8.91312,-2.75885
462,400,8.90356,2.37878,0,0,0,0,0,0,0,-1,1686,624,8.90353,-2.37878
469,400,9.14429,1.76849,0,0,0,0,0,0,0,-1,1693,624,9.14432,-1.76847
476,400,9.23254,1.25995,0,0,0,0,0,0,0,-1,1700,624,9.23252,-1.25994
483,400,9.59766,0.562439,0,0,0,0,0,0,0,-1,1707,624,9.59771,-0.56242
490,400,9.92578,-0.213745,0,0,0,0,0,0,0,-1,1714,624,9.92579,0.21376
497,400,9.19141,0.175232,0,0,0,0,0,0,0,-1,1721,624,9.19138,-0.175209
504,400,9.23438,0.00823975,0,0,0,0,0,0,0,-1,1728,624,9.23436,-0.00823766
511,400,6.16687,3.3501,0,0,0,0,0,0,0,-1,1735,624,6.16682,-3.35007
518,400,6.55237,1.74994,0,0,0,0,0,0,0,-1,1742,624,6.55236,-1.74993
525,400,6.99731,1.08783,0,0,0,0,0,0,0,-1,1749,624,6.99736,-1.08785
532,400,6.96582,-1.74982,0,0,0,0,0,0,0,-1,1756,624,6.96585,1.74983
539,400,21.2305,-10.5841,0,0,0,0,0,0,0,-1,1763,624,21.2304,10.5841
546,400,33.6985,-21.7947,0,0,0,0,0,0,0,-1,1770,624,33.6985,21.7947
553,400,33.761,-20.6926,0.00304434,0.000875969,0.00108518,0.00349412,0.000426183,0.392928,0.00220115,0.0441405,1777,624,33.7609,20.6926
560,400,33.7964,-19.6595,0.00239635,0.000827667,0.000862274,0.00277765,0.000446372,0.416346,0.00172236,0.0187296,1784,624,33.7963,19.6595
567,400,33.7837,-18.7014,0.00177706,0.000803481,0.000710357,0.00215142,0.000429126,0.48501,0.00131479,0.0202696,1791,624,33.7837,18.7014
574,400,33.7013,-17.7401,0.0013858,0.0010618,0.000768586,0.00200927,0.000438326,0.681532,0.00121994,0.0224017,1798,624,33.7013,17.7401
581,400,33.5768,-16.7538,0.00118423,0.00148714,0.000984647,0.00233191,0.000339457,0.861707,0.00145472,0.0235682,1805,624,33.5768,16.7538
588,400,33.458,-15.7274,0.00118236,0.00213879,0.00135263,0.00309525,0.000225891,0.955312,0.00199248,0.0206005,1812,624,33.458,15.7274
595,400,33.4747,-14.7576,0.00140141,0.00294595,0.00186616,0.00419332,0.000154035,0.981583,0.00274565,0.0194036,1819,624,33.4747,14.7576
602,400,33.464,-13.7976,0.00185644,0.00397539,0.00253861,0.00566673,0.000165089,0.983082,0.00372401,0.0186288,1826,624,33.464,13.7976
609,400,33.2979,-12.8073,0.00261128,0.00524792,0.00342386,0.00759849,0.00026071,0.96917,0.00498103,0.0171265,1833,624,33.2979,12.8073
616,400,33.2037,-11.8286,0.00374497,0.00682892,0.0045471,0.0100884,0.000485508,0.94887,0.00656973,0.0199754,1840,624,33.2037,11.8285
623,400,33.3447,-10.4482,0,0,0,0,0,0,0,-1,1847,624,33.3447,10.4482
630,400,11.9432,0.09021,0,0,0,0,0,0,0,-1,1854,624,11.9432,-0.0902007
637,400,6.92896,1.01917,0,0,0,0,0,0,0,-1,1861,624,6.92899,-1.01918
644,400,8.65381,1.4599,0,0,0,0,0,0,0,-1,1868,624,8.65379,-1.45991
651,400,7.90601,0.424072,0,0,0,0,0,0,0,-1,1875,624,7.90598,-0.424097
658,400,8.69031,1.0484,0,0,0,0,0,0,0,-1,1882,624,8.6903,-1.0484
665,400,5.98438,0.522522,0,0,0,0,0,0,0,-1,1889,624,5.98442,-0.522552
672,400,0,0,0,0,0,0,0,0,0,-1,1896,624,0,0
679,400,0,0,0,0,0,0,0,0,0,-1,1903,624,0,0
686,400,0,0,0,0,0,0,0,0,0,-1,1910,624,0,0
693,400,0,0,0,0,0,0,0,0,0,-1,1917,624,0,0
700,400,0,0,0,0,0,0,0,0,0,-1,1924,624,0,0
707,400,0,0,0,0,0,0,0,0,0,-1,1931,624,0,0
714,400,0,0,0,0,0,0,0,0,0,-1,1938,624,0,0
721,400,0,0,0,0,0,0,0,0,0,-1,1945,624,0,0
728,400,0,0,0,0,0,0,0,0,0,-1,1952,624,0,0
735,400,0,0,0,0,0,0,0,0,0,-1,1959,624,0,0
742,400,0,0,0,0,0,0,0,0,0,-1,1966,624,0,0
749,400,0,0,0,0,0,0,0,0,0,-1,1973,624,0,0
756,400,0,0,0,0,0,0,0,0,0,-1,1980,624,0,0
763,400,0,0,0,0,0,0,0,0,0,-1,1987,624,0,0
770,400,0,0,0,0,0,0,0,0,0,-1,1994,624,0,0
777,400,0,0,0,0,0,0,0,0,0,-1,2001,624,0,0
784,400,0,0,0,0,0,0,0,0,0,-1,2008,624,0,0
791,400,0,0,0,0,0,0,0,0,0,-1,2015,624,0,0
798,400,0,0,0,0,0,0,0,0,0,-1,2022,624,0,0
805,400,0,0,0,0,0,0,0,0,0,-1,2029,624,0,0
812,400,0,0,0,0,0,0,0,0,0,-1,2036,624,0,0
-700,393,0,0,0,0,0,0,0,0,0,-1,524,631,0,0
-693,393,0,0,0,0,0,0,0,0,0,-1,531,631,0,0
-686,393,0,0,0,0,0,0,0,0,0,-1,538,631,0,0
-679,393,0,0,0,0,0,0,0,0,0,-1,545,631,0,0
-672,393,0,0,0,0,0,0,0,0,0,-1,552,631,0,0
-665,393,0,0,0,0,0,0,0,0,0,-1,559,631,0,0
-658,393,0,0,0,0,0,0,0,0,0,-1,566,631,0,0
-651,393,0,0,0,0,0,0,0,0,0,-1,573,631,0,0
-644,393,0,0,0,0,0,0,0,0,0,-1,580,631,0,0
-637,393,0,0,0,0,0,0,0,0,0,-1,587,631,0,0
-630,393,0,0,0,0,0,0,0,0,0,-1,594,631,0,0
-623,393,0,0,0,0,0,0,0,0,0,-1,601,631,0,0
-616,393,0,0,0,0,0,0,0,0,0,-1,608,631,0,0
-609,393,0,0,0,0,0,0,0,0,0,-1,615,631,0,0
-602,393,0,0,0,0,0,0,0,0,0,-1,622,631,0,0
-595,393,0,0,0,0,0,0,0,0,0,-1,629,631,0,0
-588,393,0,0,0,0,0,0,0,0,0,-1,636,631,0,0
-581,393,0,0,0,0,0,0,0,0,0,-1,643,631,0,0
-574,393,0,0,0,0,0,0,0,0,0,-1,650,631,0,0
-567,393,0,0,0,0,0,0,0,0,0,-1,657,631,0,0
-560,393,0,0,0,0,0,0,0,0,0,-1,664,631,0,0
-553,393,-2.35107,3.92633,0,0,0,0,0,0,0,-1,671,631,-2.35108,-3.92634
-546,393,-1.78778,2.4856,0,0,0,0,0,0,0,-1,678,631,-1.78778,-2.48557
-539,393,-5.2113,-2.20245,0,0,0,0,0,0,0,-1,685,631,-5.21128,2.20247
-532,393,-2.83643,-2.01624,0,0,0,0,0,0,0,-1,692,631,-2.83642,2.01626
-525,393,-5.9505,-0.952698,0,0,0,0,0,0,0,-1,699,631,-5.95053,0.95268
-518,393,-5.80219,-1.57739,0,0,0,0,0,0,0,-1,706,631,-5.80219,1.57738
-511,393,-6.15527,-2.09906,0,0,0,0,0,0,0,-1,713,631,-6.15526,2.09903
-504,393,-13.6063,-6.95947,0,0,0,0,0,0,0,-1,720,631,-13.6063,6.95946
-497,393,-18.4105,-11.0429,0,0,0,0,0,0,0,-1,727,631,-18.4104,11.0429
-490,393,-18.3552,-12.0871,-0.00126519,0.000233908,0.00152606,0.00118456,-0.00221585,1.01368,0.0019931,0.0284321,734,631,-18.3552,12.0871
-483,393,-18.3819,-13.1078,-0.00111181,0.00018457,0.00116213,0.000867058,-0.0017943,1.03979,0.00156732,0.0225108,741,631,-18.3819,13.1078
-476,393,-18.4411,-14.0527,-0.000803471,0.000122868,0.00078087,0.000567599,-0.0012482,1.05308,0.00107262,0.0193373,748,631,-18.4411,14.0527
-469,393,-18.4948,-15.032,-0.00030197,2.7099e-05,0.000381766,0.000278277,-0.000553148,0.988862,0.000488689,0.0145856,755,631,-18.4948,15.032
-462,393,-18.5836,-16.0842,0.000317046,-0.000109702,-2.29759e-05,0.00031828,-0.000110935,-0.0536329,0.000257265,0.0162234,762,631,-18.5836,16.0842
-455,393,-18.6653,-17.0683,0.00102468,-8.09312e-05,-0.000498726,0.00121641,-0.000272653,-0.367007,0.000915457,0.0155093,769,631,-18.6653,17.0683
-448,393,-18.7587,-18.0307,0.00184937,-7.95001e-05,-0.000956537,0.00224328,-0.000473409,-0.390644,0.00167576,0.0142987,776,631,-18.7586,18.0307
-441,393,-18.8225,-18.9602,0.0027794,4.56863e-05,-0.00148078,0.00342774,-0.000602651,-0.412692,0.00251027,0.0127134,783,631,-18.8225,18.9602
-434,393,-18.8754,-19.8854,0.00381015,0.000367955,-0.00208392,0.00479181,-0.000613704,-0.440232,0.00341753,0.0125332,790,631,-18.8754,19.8854
-427,393,-18.8624,-20.8923,0.00490441,0.00086056,-0.0027792,0.00631936,-0.000554392,-0.470919,0.00440934,0.0265607,797,631,-18.8625,20.8923
-420,393,-18.7525,-22.0016,0,0,0,0,0,0,0,-1,804,631,-18.7525,22.0016
-413,393,-15.0913,-18.3777,0,0,0,0,0,0,0,-1,811,631,-15.0913,18.3777
-406,393,-11.826,-12.7987,0,0,0,0,0,0,0,-1,818,631,-11.8261,12.7987
-399,393,-5.07343,-5.92365,0,0,0,0,0,0,0,-1,825,631,-5.07344,5.92364
-392,393,-2.08063,-3.02386,0,0,0,0,0,0,0,-1,832,631,-2.08063,3.02384
-385,393,-3.16931,-0.624756,0,0,0,0,0,0,0,-1,839,631,-3.16928,0.624764
-378,393,-7.33081,-0.872314,0,0,0,0,0,0,0,-1,846,631,-7.33081,0.872325
-371,393,-7.47858,-0.811096,0,0,0,0,0,0,0,-1,853,631,-7.47859,0.811075
-364,393,-7.64917,-0.662415,0,0,0,0,0,0,0,-1,860,631,-7.64917,0.662406
-357,393,-8.09686,-0.726013,0,0,0,0,0,0,0,-1,867,631,-8.09689,0.726029
-350,393,-8.38788,-0.511841,0,0,0,0,0,0,0,-1,874,631,-8.38785,0.511811
-343,393,0,0,0,0,0,0,0,0,0,-1,881,631,0,0
-336,393,0,0,0,0,0,0,0,0,0,-1,888,631,0,0
-329,393,0,0,0,0,0,0,0,0,0,-1,895,631,0,0
-322,393,0,0,0,0,0,0,0,0,0,-1,902,631,0,0
-315,393,0,0,0,0,0,0,0,0,0,-1,909,631,0,0
-308,393,0,0,0,0,0,0,0,0,0,-1,916,631,0,0
-301,393,0,0,0,0,0,0,0,0,0,-1,923,631,0,0
-294,393,0,0,0,0,0,0,0,0,0,-1,930,631,0,0
-287,393,0,0,0,0,0,0,0,0,0,-1,937,631,0,0
-280,393,0,0,0,0,0,0,0,0,0,-1,944,631,0,0
-273,393,0,0,0,0,0,0,0,0,0,-1,951,631,0,0
-266,393,0,0,0,0,0,0,0,0,0,-1,958,631,0,0
-259,393,0,0,0,0,0,0,0,0,0,-1,965,631,0,0
-252,393,0,0,0,0,0,0,0,0,0,-1,972,631,0,0
-245,393,0,0,0,0,0,0,0,0,0,-1,979,631,0,0
-238,393,0,0,0,0,0,0,0,0,0,-1,986,631,0,0
-231,393,0,0,0,0,0,0,0,0,0,-1,993,631,0,0
-224,393,0,0,0,0,0,0,0,0,0,-1,1000,631,0,0
-217,393,0,0,0,0,0,0,0,0,0,-1,1007,631,0,0
-210,393,0,0,0,0,0,0,0,0,0,-1,1014,631,0,0
-203,393,0,0,0,0,0,0,0,0,0,-1,1021,631,0,0
-196,393,0,0,0,0,0,0,0,0,0,-1,1028,631,0,0
-189,393,0,0,0,0,0,0,0,0,0,-1,1035,631,0,0
-182,393,0,0,0,0,0,0,0,0,0,-1,1042,631,0,0
-175,393,0,0,0,0,0,0,0,0,0,-1,1049,631,0,0
-168,393,0,0,0,0,0,0,0,0,0,-1,1056,631,0,0
-161,393,0,0,0,0,0,0,0,0,0,-1,1063,631,0,0
-154,393,0,0,0,0,0,0,0,0,0,-1,1070,631,0,0
-147,393,0,0,0,0,0,0,0,0,0,-1,1077,631,0,0
-140,393,0,0,0,0,0,0,0,0,0,-1,1084,631,0,0
-133,393,0,0,0,0,0,0,0,0,0,-1,1091,631,0,0
-126,393,0,0,0,0,0,0,0,0,0,-1,1098,631,0,0
-119,393,0,0,0,0,0,0,0,0,0,-1,1105,631,0,0
-112,393,0,0,0,0,0,0,0,0,0,-1,1112,631,0,0
-105,393,0,0,0,0,0,0,0,0,0,-1,1119,631,0,0
-98,393,0,0,0,0,0,0,0,0,0,-1,1126,631,0,0
-91,393,0,0,0,0,0,0,0,0,0,-1,1133,631,0,0
-84,393,0,0,0,0,0,0,0,0,0,-1,1140,631,0,0
-77,393,0,0,0,0,0,0,0,0,0,-1,1147,631,0,0
-70,393,0,0,0,0,0,0,0,0,0,-1,1154,631,0,0
-63,393,0,0,0,0,0,0,0,0,0,-1,1161,631,0,0
-56,393,0,0,0,0,0,0,0,0,0,-1,1168,631,0,0
-49,393,0,0,0,0,0,0,0,0,0,-1,1175,631,0,0
-42,393,0,0,0,0,0,0,0,0,0,-1,1182,631,0,0
-35,393,0,0,0,0,0,0,0,0,0,-1,1189,631,0,0
-28,393,0,0,0,0,0,0,0,0,0,-1,1196,631,0,0
-21,393,0,0,0,0,0,0,0,0,0,-1,1203,631,0,0
-14,393,0,0,0,0,0,0,0,0,0,-1,1210,631,0,0
-7,393,0,0,0,0,0,0,0,0,0,-1,1217,631,0,0
0,393,0,0,0,0,0,0,0,0,0,-1,1224,631,0,0
7,393,0,0,0,0,0,0,0,0,0,-1,1231,631,0,0
14,393,0,0,0,0,0,0,0,0,0,-1,1238,631,0,0
21,393,0,0,0,0,0,0,0,0,0,-1,1245,631,0,0
28,393,0,0,0,0,0,0,0,0,0,-1,1252,631,0,0
35,393,0,0,0,0,0,0,0,0,0,-1,1259,631,0,0
42,393,0,0,0,0,0,0,0,0,0,-1,1266,631,0,0
49,393,0,0,0,0,0,0,0,0,0,-1,1273,631,0,0
56,393,0,0,0,0,0,0,0,0,0,-1,1280,631,0,0
63,393,0,0,0,0,0,0,0,0,0,-1,1287,631,0,0
70,393,0,0,0,0,0,0,0,0,0,-1,1294,631,0,0
77,393,0,0,0,0,0,0,0,0,0,-1,1301,631,0,0
84,393,0,0,0,0,0,0,0,0,0,-1,1308,631,0,0
91,393,0,0,0,0,0,0,0,0,0,-1,1315,631,0,0
98,393,0,0,0,0,0,0,0,0,0,-1,1322,631,0,0
105,393,0,0,0,0,0,0,0,0,0,-1,1329,631,0,0
112,393,0,0,0,0,0,0,0,0,0,-1,1336,631,0,0
119,393,0,0,0,0,0,0,0,0,0,-1,1343,631,0,0
126,393,0,0,0,0,0,0,0,0,0,-1,1350,631,0,0
133,393,0,0,0,0,0,0,0,0,0,-1,1357,631,0,0
140,393,0,0,0,0,0,0,0,0,0,-1,1364,631,0,0
147,393,0,0,0,0,0,0,0,0,0,-1,1371,631,0,0
154,393,0,0,0,0,0,0,0,0,0,-1,1378,631,0,0
161,393,0,0,0,0,0,0,0,0,0,-1,1385,631,0,0
168,393,0,0,0,0,0,0,0,0,0,-1,1392,631,0,0
175,393,0,0,0,0,0,0,0,0,0,-1,1399,631,0,0
182,393,0,0,0,0,0,0,0,0,0,-1,1406,631,0,0
189,393,0,0,0,0,0,0,0,0,0,-1,1413,631,0,0
196,393,0,0,0,0,0,0,0,0,0,-1,1420,631,0,0
203,393,0,0,0,0,0,0,0,0,0,-1,1427,631,0,0
210,393,0,0,0,0,0,0,0,0,0,-1,1434,631,0,0
217,393,0,0,0,0,0,0,0,0,0,-1,1441,631,0,0
224,393,0,0,0,0,0,0,0,0,0,-1,1448,631,0,0
231,393,0,0,0,0,0,0,0,0,0,-1,1455,631,0,0
238,393,0,0,0,0,0,0,0,0,0,-1,1462,631,0,0
245,393,0,0,0,0,0,0,0,0,0,-1,1469,631,0,0
252,393,0,0,0,0,0,0,0,0,0,-1,1476,631,0,0
259,393,0,0,0,0,0,0,0,0,0,-1,1483,631,0,0
266,393,0,0,0,0,0,0,0,0,0,-1,1490,631,0,0
273,393,0,0,0,0,0,0,0,0,0,-1,1497,631,0,0
280,393,0,0,0,0,0,0,0,0,0,-1,1504,631,0,0
287,393,0,0,0,0,0,0,0,0,0,-1,1511,631,0,0
294,393,0,0,0,0,0,0,0,0,0,-1,1518,631,0,0
301,393,0,0,0,0,0,0,0,0,0,-1,1525,631,0,0
308,393,0,0,0,0,0,0,0,0,0,-1,1532,631,0,0
315,393,0,0,0,0,0,0,0,0,0,-1,1539,631,0,0
322,393,0,0,0,0,0,0,0,0,0,-1,1546,631,0,0
329,393,0,0,0,0,0,0,0,0,0,-1,1553,631,0,0
336,393,0,0,0,0,0,0,0,0,0,-1,1560,631,0,0
343,393,0,0,0,0,0,0,0,0,0,-1,1567,631,0,0
350,393,0,0,0,0,0,0,0,0,0,-1,1574,631,0,0
357,393,0,0,0,0,0,0,0,0,0,-1,1581,631,0,0
364,393,0,0,0,0,0,0,0,0,0,-1,1588,631,0,0
371,393,0,0,0,0,0,0,0,0,0,-1,1595,631,0,0
378,393,0,0,0,0,0,0,0,0,0,-1,1602,631,0,0
385,393,0,0,0,0,0,0,0,0,0,-1,1609,631,0,0
392,393,0,0,0,0,0,0,0,0,0,-1,1616,631,0,0
399,393,0,0,0,0,0,0,0,0,0,-1,1623,631,0,0
406,393,0,0,0,0,0,0,0,0,0,-1,1630,631,0,0
413,393,0,0,0,0,0,0,0,0,0,-1,1637,631,0,0
420,393,0,0,0,0,0,0,0,0,0,-1,1644,631,0,0
427,393,0,0,0,0,0,0,0,0,0,-1,1651,631,0,0
434,393,0,0,0,0,0,0,0,0,0,-1,1658,631,0,0
441,393,0,0,0,0,0,0,0,0,0,-1,1665,631,0,0
448,393,0,0,0,0,0,0,0,0,0,-1,1672,631,0,0
455,393,0,0,0,0,0,0,0,0,0,-1,1679,631,0,0
462,393,8.51099,1.89502,0,0,0,0,0,0,0,-1,1686,631,8.51103,-1.89504
469,393,9.39465,1.51703,0,0,0,0,0,0,0,-1,1693,631,9.39465,-1.51703
476,393,9.95569,1.185,0,0,0,0,0,0,0,-1,1700,631,9.95575,-1.18497
483,393,10.5267,0.887329,0,0,0,0,0,0,0,-1,1707,631,10.5267,-0.887321
490,393,10.9303,0.761414,0,0,0,0,0,0,0,-1,1714,631,10.9303,-0.761386
497,393,8.32153,1.88104,0,0,0,0,0,0,0,-1,1721,631,8.32148,-1.88103
504,393,9.46985,1.78711,0,0,0,0,0,0,0,-1,1728,631,9.46986,-1.78713
511,393,9.66565,-0.375977,0,0,0,0,0,0,0,-1,1735,631,9.66571,0.375949
518,393,7.01599,1.62482,0,0,0,0,0,0,0,-1,1742,631,7.01597,-1.62483
525,393,7.88245,-1.13422,0,0,0,0,0,0,0,-1,1749,631,7.88246,1.13423
532,393,7.06335,-1.18103,0,0,0,0,0,0,0,-1,1756,631,7.06332,1.18101
539,393,9.91626,-2.46301,0,0,0,0,0,0,0,-1,1763,631,9.91625,2.46302
546,393,16.4094,-8.04651,0,0,0,0,0,0,0,-1,1770,631,16.4094,8.04649
553,393,34.5754,-20.7327,0,0,0,0,0,0,0,-1,1777,631,34.5755,20.7327
560,393,34.7146,-19.6465,0.00274129,0.000868027,0.000846475,0.00306711,0.000542201,0.36744,0.00189011,0.0428327,1784,631,34.7146,19.6465
567,393,34.6937,-18.6475,0.00192191,0.000619757,0.000568869,0.00213542,0.000406245,0.359058,0.00130937,0.0170008,1791,631,34.6937,18.6475
574,393,34.6655,-17.6793,0.00138906,0.000736878,0.000558436,0.00170964,0.000416297,0.521136,0.00102945,0.0165026,1798,631,34.6655,17.6793
581,393,34.522,-16.6677,0.00109176,0.00107033,0.000705008,0.00178613,0.000375955,0.777796,0.00108732,0.0182301,1805,631,34.522,16.6676
588,393,34.4268,-15.6235,0.00105551,0.00160824,0.00100803,0.0023771,0.000286639,0.919192,0.00149836,0.0223326,1812,631,34.4268,15.6235
595,393,34.4304,-14.6819,0.00126996,0.00230357,0.00145758,0.00333326,0.000240282,0.955766,0.00214657,0.0194651,1819,631,34.4304,14.6819
602,393,34.403,-13.7439,0.00171712,0.0031871,0.00205126,0.00463107,0.000273148,0.957428,0.00300048,0.0202275,1826,631,34.403,13.7439
609,393,34.2976,-12.7738,0.00238731,0.0042679,0.00279524,0.00627676,0.00037845,0.947648,0.00406423,0.0178835,1833,631,34.2976,12.7738
616,393,34.2174,-11.7938,0.00330654,0.00562157,0.00369022,0.00833155,0.000596552,0.937374,0.00536658,0.0165694,1840,631,34.2174,11.7938
623,393,34.2083,-10.7035,0.00442214,0.00713232,0.00474518,0.0107121,0.000842358,0.924482,0.00687783,0.0361064,1847,631,34.2083,10.7035
630,393,34.4518,-9.63025,0,0,0,0,0,0,0,-1,1854,631,34.4518,9.63025
637,393,11.4626,0.608887,0,0,0,0,0,0,0,-1,1861,631,11.4627,-0.608904
644,393,8.97583,1.30585,0,0,0,0,0,0,0,-1,1868,631,8.97586,-1.30584
651,393,11.348,0.53302,0,0,0,0,0,0,0,-1,1875,631,11.348,-0.53305
658,393,9.21338,1.50836,0,0,0,0,0,0,0,-1,1882,631,9.21338,-1.50834
665,393,6.1001,2.32129,0,0,0,0,0,0,0,-1,1889,631,6.10012,-2.3213
672,393,7.14575,2.43225,0,0,0,0,0,0,0,-1,1896,631,7.14572,-2.43222
679,393,0,0,0,0,0,0,0,0,0,-1,1903,631,0,0
686,393,0,0,0,0,0,0,0,0,0,-1,1910,631,0,0
693,393,0,0,0,0,0,0,0,0,0,-1,1917,631,0,0
700,393,0,0,0,0,0,0,0,0,0,-1,1924,631,0,0
707,393,0,0,0,0,0,0,0,0,0,-1,1931,631,0,0
714,393,0,0,0,0,0,0,0,0,0,-1,1938,631,0,0
721,393,0,0,0,0,0,0,0,0,0,-1,1945,631,0,0
728,393,0,0,0,0,0,0,0,0,0,-1,1952,631,0,0
735,393,0,0,0,0,0,0,0,0,0,-1,1959,631,0,0
742,393,0,0,0,0,0,0,0,0,0,-1,1966,631,0,0
749,393,0,0,0,0,0,0,0,0,0,-1,1973,631,0,0
756,393,0,0,0,0,0,0,0,0,0,-1,1980,631,0,0
763,393,0,0,0,0,0,0,0,0,0,-1,1987,631,0,0
770,393,0,0,0,0,0,0,0,0,0,-1,1994,631,0,0
777,393,0,0,0,0,0,0,0,0,0,-1,2001,631,0,0
784,393,0,0,0,0,0,0,0,0,0,-1,2008,631,0,0
791,393,0,0,0,0,0,0,0,0,0,-1,2015,631,0,0
798,393,0,0,0,0,0,0,0,0,0,-1,2022,631,0,0
805,393,0,0,0,0,0,0,0,0,0,-1,2029,631,0,0
812,393,0,0,0,0,0,0,0,0,0,-1,2036,631,0,0
-700,386,0,0,0,0,0,0,0,0,0,-1,524,638,0,0
-693,386,0,0,0,0,0,0,0,0,0,-1,531,638,0,0
-686,386,0,0,0,0,0,0,0,0,0,-1,538,638,0,0
-679,386,0,0,0,0,0,0,0,0,0,-1,545,638,0,0
-672,386,0,0,0,0,0,0,0,0,0,-1,552,638,0,0
-665,386,0,0,0,0,0,0,0,0,0,-1,559,638,0,0
-658,386,0,0,0,0,0,0,0,0,0,-1,566,638,0,0
-651,386,0,0,0,0,0,0,0,0,0,-1,573,638,0,0
-644,386,0,0,0,0,0,0,0,0,0,-1,580,638,0,0
-637,386,0,0,0,0,0,0,0,0,0,-1,587,638,0,0
-630,386,0,0,0,0,0,0,0,0,0,-1,594,638,0,0
-623,386,0,0,0,0,0,0,0,0,0,-1,601,638,0,0
-616,386,0,0,0,0,0,0,0,0,0,-1,608,638,0,0
-609,386,0,0,0,0,0,0,0,0,0,-1,615,638,0,0
-602,386,0,0,0,0,0,0,0,0,0,-1,622,638,0,0
-595,386,0,0,0,0,0,0,0,0,0,-1,629,638,0,0
-588,386,0,0,0,0,0,0,0,0,0,-1,636,638,0,0
-581,386,0,0,0,0,0,0,0,0,0,-1,643,638,0,0
-574,386,0,0,0,0,0,0,0,0,0,-1,650,638,0,0
-567,386,0,0,0,0,0,0,0,0,0,-1,657,638,0,0
-560,386,-3.97229,-5.13898,0,0,0,0,0,0,0,-1,664,638,-3.97232,5.13897
-553,386,-4.94244,-5.54309,0,0,0,0,0,0,0,-1,671,638,-4.94242,5.5431
-546,386,-1.78668,1.72827,0,0,0,0,0,0,0,-1,678,638,-1.78668,-1.72829
-539,386,-0.879456,-2.90009,0,0,0,0,0,0,0,-1,685,638,-0.879442,2.90008
-532,386,-5.4884,1.73328,0,0,0,0,0,0,0,-1,692,638,-5.4884,-1.73325
-525,386,-6.64148,-1.50604,0,0,0,0,0,0,0,-1,699,638,-6.64149,1.50603
-518,386,-11.1217,-4.10382,0,0,0,0,0,0,0,-1,706,638,-11.1217,4.1038
-511,386,-13.0612,-5.05151,0,0,0,0,0,0,0,-1,713,638,-13.0612,5.05149
-504,386,-19.3347,-9.89771,0,0,0,0,0,0,0,-1,720,638,-19.3347,9.89772
-497,386,-19.2487,-11.1431,0,0,0,0,0,0,0,-1,727,638,-19.2486,11.1431
-490,386,-19.3081,-12.1168,-0.000372424,4.57524e-05,0.000945224,0.000804738,-0.00113141,0.894248,0.00112313,0.0146197,734,638,-19.3081,12.1168
-483,386,-19.3644,-13.0992,-0.00029317,2.71815e-05,0.000687043,0.000572473,-0.000838461,0.899922,0.000819414,0.0185771,741,638,-19.3644,13.0992
-476,386,-19.433,-14.0599,-4.58605e-05,-1.76867e-05,0.000385732,0.000354216,-0.000417763,0.80365,0.000446205,0.0181237,748,638,-19.433,14.0599
-469,386,-19.4963,-15.0064,0.000380477,-9.27e-05,5.30321e-05,0.000386348,-9.85708e-05,0.110254,0.000295946,0.0128018,755,638,-19.4963,15.0064
-462,386,-19.5635,-16.0156,0.000929619,-0.000212387,-0.000313607,0.00101007,-0.00029284,-0.251123,0.000789314,0.0113872,762,638,-19.5636,16.0156
-455,386,-19.6324,-16.9872,0.00160793,-0.000159054,-0.000778356,0.00190189,-0.000453015,-0.361109,0.00144284,0.0133435,769,638,-19.6324,16.9872
-448,386,-19.704,-17.9456,0.00242839,-0.000148142,-0.00124537,0.00293193,-0.000651684,-0.384235,0.0022042,0.0141772,776,638,-19.7041,17.9456
-441,386,-19.7678,-18.8954,0.00338964,-1.67824e-06,-0.00182563,0.0041856,-0.000797639,-0.411145,0.00309078,0.0139332,783,638,-19.7678,18.8954
-434,386,-19.7831,-19.8865,0.00452413,0.000391716,-0.0025394,0.00573172,-0.000815876,-0.443891,0.00412012,0.0321156,790,638,-19.7832,19.8865
-427,386,-19.7208,-20.9088,0,0,0,0,0,0,0,-1,797,638,-19.7207,20.9087
-420,386,-14.5338,-16.0451,0,0,0,0,0,0,0,-1,804,638,-14.5338,16.0451
-413,386,-5.45691,-5.35785,0,0,0,0,0,0,0,-1,811,638,-5.45691,5.35783
-406,386,-4.51135,-4.10999,0,0,0,0,0,0,0,-1,818,638,-4.51135,4.10996
-399,386,-3.57117,-3.42126,0,0,0,0,0,0,0,-1,825,638,-3.57116,3.42129
-392,386,-4.00977,0.403625,0,0,0,0,0,0,0,-1,832,638,-4.0098,-0.403616
-385,386,-3.2406,-0.118469,0,0,0,0,0,0,0,-1,839,638,-3.24058,0.118485
-378,386,-2.55243,-1.22748,0,0,0,0,0,0,0,-1,846,638,-2.55243,1.22748
-371,386,-7.95807,-0.330261,0,0,0,0,0,0,0,-1,853,638,-7.95806,0.330284
-364,386,-8.90637,-0.665955,0,0,0,0,0,0,0,-1,860,638,-8.90635,0.665951
-357,386,-9.10364,-0.388733,0,0,0,0,0,0,0,-1,867,638,-9.10364,0.388744
-350,386,0,0,0,0,0,0,0,0,0,-1,874,638,0,0
-343,386,0,0,0,0,0,0,0,0,0,-1,881,638,0,0
-336,386,0,0,0,0,0,0,0,0,0,-1,888,638,0,0
-329,386,0,0,0,0,0,0,0,0,0,-1,895,638,0,0
-322,386,0,0,0,0,0,0,0,0,0,-1,902,638,0,0
-315,386,0,0,0,0,0,0,0,0,0,-1,909,638,0,0
-308,386,0,0,0,0,0,0,0,0,0,-1,916,638,0,0
-301,386,0,0,0,0,0,0,0,0,0,-1,923,638,0,0
-294,386,0,0,0,0,0,0,0,0,0,-1,930,638,0,0
-287,386,0,0,0,0,0,0,0,0,0,-1,937,638,0,0
-280,386,0,0,0,0,0,0,0,0,0,-1,944,638,0,0
-273,386,0,0,0,0,0,0,0,0,0,-1,951,638,0,0
-266,386,0,0,0,0,0,0,0,0,0,-1,958,638,0,0
-259,386,0,0,0,0,0,0,0,0,0,-1,965,638,0,0
-252,386,0,0,0,0,0,0,0,0,0,-1,972,638,0,0
-245,386,0,0,0,0,0,0,0,0,0,-1,979,638,0,0
-238,386,0,0,0,0,0,0,0,0,0,-1,986,638,0,0
-231,386,0,0,0,0,0,0,0,0,0,-1,993,638,0,0
-224,386,0,0,0,0,0,0,0,0,0,-1,1000,638,0,0
-217,386,0,0,0,0,0,0,0,0,0,-1,1007,638,0,0
-210,386,0,0,0,0,0,0,0,0,0,-1,1014,638,0,0
-203,386,0,0,0,0,0,0,0,0,0,-1,1021,638,0,0
-196,386,0,0,0,0,0,0,0,0,0,-1,1028,638,0,0
-189,386,0,0,0,0,0,0,0,0,0,-1,1035,638,0,0
-182,386,0,0,0,0,0,0,0,0,0,-1,1042,638,0,0
-175,386,0,0,0,0,0,0,0,0,0,-1,1049,638,0,0
-168,386,0,0,0,0,0,0,0,0,0,-1,1056,638,0,0
-161,386,0,0,0,0,0,0,0,0,0,-1,1063,638,0,0
-154,386,0,0,0,0,0,0,0,0,0,-1,1070,638,0,0
-147,386,0,0,0,0,0,0,0,0,0,-1,1077,638,0,0
-140,386,0,0,0,0,0,0,0,0,0,-1,1084,638,0,0
-133,386,0,0,0,0,0,0,0,0,0,-1,1091,638,0,0
-126,386,0,0,0,0,0,0,0,0,0,-1,1098,638,0,0
-119,386,0,0,0,0,0,0,0,0,0,-1,1105,638,0,0
-112,386,0,0,0,0,0,0,0,0,0,-1,1112,638,0,0
-105,386,0,0,0,0,0,0,0,0,0,-1,1119,638,0,0
-98,386,0,0,0,0,0,0,0,0,0,-1,1126,638,0,0
-91,386,0,0,0,0,0,0,0,0,0,-1,1133,638,0,0
-84,386,0,0,0,0,0,0,0,0,0,-1,1140,638,0,0
-77,386,0,0,0,0,0,0,0,0,0,-1,1147,638,0,0
-70,386,0,0,0,0,0,0,0,0,0,-1,1154,638,0,0
-63,386,0,0,0,0,0,0,0,0,0,-1,1161,638,0,0
-56,386,0,0,0,0,0,0,0,0,0,-1,1168,638,0,0
-49,386,0,0,0,0,0,0,0,0,0,-1,1175,638,0,0
-42,386,0,0,0,0,0,0,0,0,0,-1,1182,638,0,0
-35,386,0,0,0,0,0,0,0,0,0,-1,1189,638,0,0
-28,386,0,0,0,0,0,0,0,0,0,-1,1196,638,0,0
-21,386,0,0,0,0,0,0,0,0,0,-1,1203,638,0,0
-14,386,0,0,0,0,0,0,0,0,0,-1,1210,638,0,0
-7,386,0,0,0,0,0,0,0,0,0,-1,1217,638,0,0
0,386,0,0,0,0,0,0,0,0,0,-1,1224,638,0,0
7,386,0,0,0,0,0,0,0,0,0,-1,1231,638,0,0
14,386,0,0,0,0,0,0,0,0,0,-1,1238,638,0,0
21,386,0,0,0,0,0,0,0,0,0,-1,1245,638,0,0
28,386,0,0,0,0,0,0,0,0,0,-1,1252,638,0,0
35,386,0,0,0,0,0,0,0,0,0,-1,1259,638,0,0
42,386,0,0,0,0,0,0,0,0,0,-1,1266,638,0,0
49,386,0,0,0,0,0,0,0,0,0,-1,1273,638,0,0
56,386,0,0,0,0,0,0,0,0,0,-1,1280,638,0,0
63,386,0,0,0,0,0,0,0,0,0,-1,1287,638,0,0
70,386,0,0,0,0,0,0,0,0,0,-1,1294,638,0,0
77,386,0,0,0,0,0,0,0,0,0,-1,1301,638,0,0
84,386,0,0,0,0,0,0,0,0,0,-1,1308,638,0,0
91,386,0,0,0,0,0,0,0,0,0,-1,1315,638,0,0
98,386,0,0,0,0,0,0,0,0,0,-1,1322,638,0,0
105,386,0,0,0,0,0,0,0,0,0,-1,1329,638,0,0
112,386,0,0,0,0,0,0,0,0,0,-1,1336,638,0,0
119,386,0,0,0,0,0,0,0,0,0,-1,1343,638,0,0
126,386,0,0,0,0,0,0,0,0,0,-1,1350,638,0,0
133,386,0,0,0,0,0,0,0,0,0,-1,1357,638,0,0
140,386,0,0,0,0,0,0,0,0,0,-1,1364,638,0,0
147,386,0,0,0,0,0,0,0,0,0,-1,1371,638,0,0
154,386,0,0,0,0,0,0,0,0,0,-1,1378,638,0,0
161,386,0,0,0,0,0,0,0,0,0,-1,1385,638,0,0
168,386,0,0,0,0,0,0,0,0,0,-1,1392,638,0,0
175,386,0,0,0,0,0,0,0,0,0,-1,1399,638,0,0
182,386,0,0,0,0,0,0,0,0,0,-1,1406,638,0,0
189,386,0,0,0,0,0,0,0,0,0,-1,1413,638,0,0
196,386,0,0,0,0,0,0,0,0,0,-1,1420,638,0,0
203,386,0,0,0,0,0,0,0,0,0,-1,1427,638,0,0
210,386,0,0,0,0,0,0,0,0,0,-1,1434,638,0,0
217,386,0,0,0,0,0,0,0,0,0,-1,1441,638,0,0
224,386,0,0,0,0,0,0,0,0,0,-1,1448,638,0,0
231,386,0,0,0,0,0,0,0,0,0,-1,1455,638,0,0
238,386,0,0,0,0,0,0,0,0,0,-1,1462,638,0,0
245,386,0,0,0,0,0,0,0,0,0,-1,1469,638,0,0
252,386,0,0,0,0,0,0,0,0,0,-1,1476,638,0,0
259,386,0,0,0,0,0,0,0,0,0,-1,1483,638,0,0
266,386,0,0,0,0,0,0,0,0,0,-1,1490,638,0,0
273,386,0,0,0,0,0,0,0,0,0,-1,1497,638,0,0
280,386,0,0,0,0,0,0,0,0,0,-1,1504,638,0,0
287,386,0,0,0,0,0,0,0,0,0,-1,1511,638,0,0
294,386,0,0,0,0,0,0,0,0,0,-1,1518,638,0,0
301,386,0,0,0,0,0,0,0,0,0,-1,1525,638,0,0
308,386,0,0,0,0,0,0,0,0,0,-1,1532,638,0,0
315,386,0,0,0,0,0,0,0,0,0,-1,1539,638,0,0
322,386,0,0,0,0,0,0,0,0,0,-1,1546,638,0,0
329,386,0,0,0,0,0,0,0,0,0,-1,1553,638,0,0
336,386,0,0,0,0,0,0,0,0,0,-1,1560,638,0,0
343,386,0,0,0,0,0,0,0,0,0,-1,1567,638,0,0
350,386,0,0,0,0,0,0,0,0,0,-1,1574,638,0,0
357,386,0,0,0,0,0,0,0,0,0,-1,1581,638,0,0
364,386,0,0,0,0,0,0,0,0,0,-1,1588,638,0,0
371,386,0,0,0,0,0,0,0,0,0,-1,1595,638,0,0
378,386,0,0,0,0,0,0,0,0,0,-1,1602,638,0,0
385,386,0,0,0,0,0,0,0,0,0,-1,1609,638,0,0
392,386,0,0,0,0,0,0,0,0,0,-1,1616,638,0,0
399,386,0,0,0,0,0,0,0,0,0,-1,1623,638,0,0
406,386,0,0,0,0,0,0,0,0,0,-1,1630,638,0,0
413,386,0,0,0,0,0,0,0,0,0,-1,1637,638,0,0
420,386,0,0,0,0,0,0,0,0,0,-1,1644,638,0,0
427,386,0,0,0,0,0,0,0,0,0,-1,1651,638,0,0
434,386,0,0,0,0,0,0,0,0,0,-1,1658,638,0,0
441,386,0,0,0,0,0,0,0,0,0,-1,1665,638,0,0
448,386,0,0,0,0,0,0,0,0,0,-1,1672,638,0,0
455,386,0,0,0,0,0,0,0,0,0,-1,1679,638,0,0
462,386,0,0,0,0,0,0,0,0,0,-1,1686,638,0,0
469,386,9.84692,1.55804,0,0,0,0,0,0,0,-1,1693,638,9.84691,-1.55807
476,386,10.6145,0.986511,0,0,0,0,0,0,0,-1,1700,638,10.6145,-0.986529
483,386,11.4113,0.732971,0,0,0,0,0,0,0,-1,1707,638,11.4112,-0.732958
490,386,7.79785,1.79572,0,0,0,0,0,0,0,-1,1714,638,7.79788,-1.7957
497,386,8.96362,1.77081,0,0,0,0,0,0,0,-1,1721,638,8.96357,-1.77081
504,386,10.0555,1.69427,0,0,0,0,0,0,0,-1,1728,638,10.0555,-1.69426
511,386,11.2172,1.534,0,0,0,0,0,0,0,-1,1735,638,11.2172,-1.53398
518,386,7.41553,1.75238,0,0,0,0,0,0,0,-1,1742,638,7.41547,-1.75238
525,386,8.82422,-1.1449,0,0,0,0,0,0,0,-1,1749,638,8.82426,1.14492
532,386,10.6432,0.617371,0,0,0,0,0,0,0,-1,1756,638,10.6432,-0.617359
539,386,9.62061,-0.393616,0,0,0,0,0,0,0,-1,1763,638,9.62059,0.393634
546,386,10.7963,-2.854,0,0,0,0,0,0,0,-1,1770,638,10.7962,2.854
553,386,16.9939,-7.27942,0,0,0,0,0,0,0,-1,1777,638,16.9939,7.27944
560,386,35.5809,-19.7379,0,0,0,0,0,0,0,-1,1784,638,35.581,19.7379
567,386,35.5876,-18.6156,0,0,0,0,0,0,0,-1,1791,638,35.5876,18.6156
574,386,35.6157,-17.5827,0.00134322,0.00048198,0.000401686,0.00150148,0.000323715,0.375324,0.000912431,0.015224,1798,638,35.6157,17.5827
581,386,35.5088,-16.6329,0.000927047,0.000707641,0.000452444,0.0012829,0.000351791,0.66646,0.00076544,0.0158709,1805,638,35.5087,16.6328
588,386,35.4607,-15.636,0.000845356,0.00110668,0.000666015,0.00165473,0.000297306,0.88226,0.00101862,0.0148662,1812,638,35.4606,15.636
595,386,35.4009,-14.6612,0.00104054,0.00168629,0.00103235,0.00244507,0.000281752,0.936958,0.00154472,0.0169885,1819,638,35.4009,14.6612
602,386,35.33,-13.7057,0.00146225,0.00243442,0.00152828,0.00355205,0.00034462,0.93937,0.00226193,0.018555,1826,638,35.3299,13.7057
609,386,35.2946,-12.7456,0.00205897,0.00334639,0.00212592,0.00492392,0.000481446,0.932406,0.00313448,0.0171185,1833,638,35.2945,12.7456
616,386,35.2361,-11.757,0.00284306,0.00448572,0.00281444,0.00659623,0.000732546,0.927369,0.00417478,0.0139249,1840,638,35.236,11.7569
623,386,35.1552,-10.7801,0.00379732,0.00575851,0.00364025,0.00854793,0.00100791,0.916963,0.00539413,0.0122111,1847,638,35.1552,10.7801
630,386,35.2404,-9.75562,0.00473883,0.00705392,0.00445144,0.0104959,0.00129689,0.9126,0.0066075,0.0380454,1854,638,35.2404,9.7556
637,386,35.402,-8.70642,0,0,0,0,0,0,0,-1,1861,638,35.402,8.70643
644,386,11.6521,0.723328,0,0,0,0,0,0,0,-1,1868,638,11.6521,-0.723355
651,386,9.3866,1.31097,0,0,0,0,0,0,0,-1,1875,638,9.3866,-1.31095
658,386,12.0731,-0.00415039,0,0,0,0,0,0,0,-1,1882,638,12.0731,0.00412803
665,386,6.33167,1.78601,0,0,0,0,0,0,0,-1,1889,638,6.33171,-1.78601
672,386,7.23352,2.14435,0,0,0,0,0,0,0,-1,1896,638,7.23353,-2.14433
679,386,8.07764,2.57104,0,0,0,0,0,0,0,-1,1903,638,8.07758,-2.57103
686,386,0,0,0,0,0,0,0,0,0,-1,1910,638,0,0
693,386,0,0,0,0,0,0,0,0,0,-1,1917,638,0,0
700,386,0,0,0,0,0,0,0,0,0,-1,1924,638,0,0
707,386,0,0,0,0,0,0,0,0,0,-1,1931,638,0,0
714,386,0,0,0,0,0,0,0,0,0,-1,1938,638,0,0
721,386,0,0,0,0,0,0,0,0,0,-1,1945,638,0,0
728,386,0,0,0,0,0,0,0,0,0,-1,1952,638,0,0
735,386,0,0,0,0,0,0,0,0,0,-1,1959,638,0,0
742,386,0,0,0,0,0,0,0,0,0,-1,1966,638,0,0
749,386,0,0,0,0,0,0,0,0,0,-1,1973,638,0,0
756,386,0,0,0,0,0,0,0,0,0,-1,1980,638,0,0
763,386,0,0,0,0,0,0,0,0,0,-1,1987,638,0,0
770,386,0,0,0,0,0,0,0,0,0,-1,1994,638,0,0
777,386,0,0,0,0,0,0,0,0,0,-1,2001,638,0,0
784,386,0,0,0,0,0,0,0,0,0,-1,2008,638,0,0
791,386,0,0,0,0,0,0,0,0,0,-1,2015,638,0,0
798,386,0,0,0,0,0,0,0,0,0,-1,2022,638,0,0
805,386,0,0,0,0,0,0,0,0,0,-1,2029,638,0,0
812,386,0,0,0,0,0,0,0,0,0,-1,2036,638,0,0
-700,379,0,0,0,0,0,0,0,0,0,-1,524,645,0,0
-693,379,0,0,0,0,0,0,0,0,0,-1,531,645,0,0
-686,379,0,0,0,0,0,0,0,0,0,-1,538,645,0,0
-679,379,0,0,0,0,0,0,0,0,0,-1,545,645,0,0
-672,379,0,0,0,0,0,0,0,0,0,-1,552,645,0,0
-665,379,0,0,0,0,0,0,0,0,0,-1,559,645,0,0
-658,379,0,0,0,0,0,0,0,0,0,-1,566,645,0,0
-651,379,0,0,0,0,0,0,0,0,0,-1,573,645,0,0
-644,379,0,0,0,0,0,0,0,0,0,-1,580,645,0,0
-637,379,0,0,0,0,0,0,0,0,0,-1,587,645,0,0
-630,379,0,0,0,0,0,0,0,0,0,-1,594,645,0,0
-623,379,0,0,0,0,0,0,0,0,0,-1,601,645,0,0
-616,379,0,0,0,0,0,0,0,0,0,-1,608,645,0,0
-609,379,0,0,0,0,0,0,0,0,0,-1,615,645,0,0
-602,379,0,0,0,0,0,0,0,0,0,-1,622,645,0,0
-595,379,0,0,0,0,0,0,0,0,0,-1,629,645,0,0
-588,379,0,0,0,0,0,0,0,0,0,-1,636,645,0,0
-581,379,0,0,0,0,0,0,0,0,0,-1,643,645,0,0
-574,379,0,0,0,0,0,0,0,0,0,-1,650,645,0,0
-567,379,-8.78058,0.59668,0,0,0,0,0,0,0,-1,657,645,-8.7806,-0.596692
-560,379,-9.53485,-0.211304,0,0,0,0,0,0,0,-1,664,645,-9.53487,0.211282
-553,379,-5.17108,-4.53119,0,0,0,0,0,0,0,-1,671,645,-5.17106,4.53117
-546,379,-6.23053,-4.92102,0,0,0,0,0,0,0,-1,678,645,-6.23054,4.92105
-539,379,-0.71698,-2.19427,0,0,0,0,0,0,0,-1,685,645,-0.716959,2.19427
-532,379,-7.69611,0.217224,0,0,0,0,0,0,0,-1,692,645,-7.69614,-0.217204
-525,379,-7.09833,-1.13043,0,0,0,0,0,0,0,-1,699,645,-7.0983,1.13041
-518,379,-13.126,-5.33893,0,0,0,0,0,0,0,-1,706,645,-13.126,5.33895
-511,379,-20.1232,-8.99768,0,0,0,0,0,0,0,-1,713,645,-20.1232,8.99769
-504,379,-20.1326,-10.0842,0.000630227,-0.000265335,0.000761503,0.00106585,-0.000700954,0.519615,0.00102729,0.0376976,720,645,-20.1326,10.0842
-497,379,-20.251,-11.0472,0.000390192,-8.58722e-05,0.000656613,0.000850587,-0.000546267,0.611508,0.000812828,0.0167744,727,645,-20.251,11.0472
-490,379,-20.2892,-12.0378,0.000278108,-5.99399e-05,0.000542271,0.000677086,-0.000458918,0.634322,0.000659892,0.0111927,734,645,-20.2892,12.0378
-483,379,-20.3568,-13.0056,0.00031059,-7.86163e-05,0.000357767,0.000523255,-0.000291282,0.53631,0.000476588,0.0134549,741,645,-20.3567,13.0056
-476,379,-20.4009,-13.9654,0.000512201,-0.00012324,0.000114349,0.000532152,-0.000143191,0.172735,0.000410901,0.0144261,748,645,-20.4009,13.9654
-469,379,-20.4673,-14.9391,0.000899344,-0.00018072,-0.000190713,0.00093203,-0.000213406,-0.169739,0.000703364,0.0133962,755,645,-20.4673,14.9392
-462,379,-20.5471,-15.9256,0.00142362,-0.000274938,-0.000554165,0.00158843,-0.000439747,-0.28907,0.00123198,0.0100255,762,645,-20.5471,15.9256
-455,379,-20.6201,-16.8926,0.00212444,-0.00020687,-0.00103611,0.00251836,-0.000600787,-0.363313,0.00191091,0.0109662,769,645,-20.6201,16.8926
-448,379,-20.661,-17.8425,0.00300151,-0.000181906,-0.00154935,0.00363107,-0.000811466,-0.385958,0.00273168,0.0144995,776,645,-20.661,17.8425
-441,379,-20.6803,-18.8445,0.00406253,-7.82016e-06,-0.0022231,0.00504134,-0.000986631,-0.414751,0.00373348,0.0248063,783,645,-20.6803,18.8445
-434,379,-20.6331,-20.0117,0,0,0,0,0,0,0,-1,790,645,-20.633,20.0117
-427,379,-4.16113,-4.13452,0,0,0,0,0,0,0,-1,797,645,-4.16116,4.1345
-420,379,-4.63953,-3.46869,0,0,0,0,0,0,0,-1,804,645,-4.63953,3.46872
-413,379,-4.62543,-3.7912,0,0,0,0,0,0,0,-1,811,645,-4.62541,3.79123
-406,379,-4.64063,-4.38489,0,0,0,0,0,0,0,-1,818,645,-4.64065,4.3849
-399,379,-2.93536,-1.40118,0,0,0,0,0,0,0,-1,825,645,-2.93534,1.40119
-392,379,-4.16711,-0.466003,0,0,0,0,0,0,0,-1,832,645,-4.16714,0.465992
-385,379,-3.51862,0.441101,0,0,0,0,0,0,0,-1,839,645,-3.51859,-0.441072
-378,379,-5.3504,0.212219,0,0,0,0,0,0,0,-1,846,645,-5.35038,-0.212241
-371,379,-4.32092,-0.186707,0,0,0,0,0,0,0,-1,853,645,-4.3209,0.186707
-364,379,-3.40887,-0.549805,0,0,0,0,0,0,0,-1,860,645,-3.4089,0.549802
-357,379,0,0,0,0,0,0,0,0,0,-1,867,645,0,0
-350,379,0,0,0,0,0,0,0,0,0,-1,874,645,0,0
-343,379,0,0,0,0,0,0,0,0,0,-1,881,645,0,0
-336,379,0,0,0,0,0,0,0,0,0,-1,888,645,0,0
-329,379,0,0,0,0,0,0,0,0,0,-1,895,645,0,0
-322,379,0,0,0,0,0,0,0,0,0,-1,902,645,0,0
-315,379,0,0,0,0,0,0,0,0,0,-1,909,645,0,0
-308,379,0,0,0,0,0,0,0,0,0,-1,916,645,0,0
-301,379,0,0,0,0,0,0,0,0,0,-1,923,645,0,0
-294,379,0,0,0,0,0,0,0,0,0,-1,930,645,0,0
-287,379,0,0,0,0,0,0,0,0,0,-1,937,645,0,0
-280,379,0,0,0,0,0,0,0,0,0,-1,944,645,0,0
-273,379,0,0,0,0,0,0,0,0,0,-1,951,645,0,0
-266,379,0,0,0,0,0,0,0,0,0,-1,958,645,0,0
-259,379,0,0,0,0,0,0,0,0,0,-1,965,645,0,0
-252,379,0,0,0,0,0,0,0,0,0,-1,972,645,0,0
-245,379,0,0,0,0,0,0,0,0,0,-1,979,645,0,0
-238,379,0,0,0,0,0,0,0,0,0,-1,986,645,0,0
-231,379,0,0,0,0,0,0,0,0,0,-1,993,645,0,0
-224,379,0,0,0,0,0,0,0,0,0,-1,1000,645,0,0
-217,379,0,0,0,0,0,0,0,0,0,-1,1007,645,0,0
-210,379,0,0,0,0,0,0,0,0,0,-1,1014,645,0,0
-203,379,0,0,0,0,0,0,0,0,0,-1,1021,645,0,0
-196,379,0,0,0,0,0,0,0,0,0,-1,1028,645,0,0
-189,379,0,0,0,0,0,0,0,0,0,-1,1035,645,0,0
-182,379,0,0,0,0,0,0,0,0,0,-1,1042,645,0,0
-175,379,0,0,0,0,0,0,0,0,0,-1,1049,645,0,0
-168,379,0,0,0,0,0,0,0,0,0,-1,1056,645,0,0
-161,379,0,0,0,0,0,0,0,0,0,-1,1063,645,0,0
-154,379,0,0,0,0,0,0,0,0,0,-1,1070,645,0,0
-147,379,0,0,0,0,0,0,0,0,0,-1,1077,645,0,0
-140,379,0,0,0,0,0,0,0,0,0,-1,1084,645,0,0
-133,379,0,0,0,0,0,0,0,0,0,-1,1091,645,0,0
-126,379,0,0,0,0,0,0,0,0,0,-1,1098,645,0,0
-119,379,0,0,0,0,0,0,0,0,0,-1,1105,645,0,0
-112,379,0,0,0,0,0,0,0,0,0,-1,1112,645,0,0
-105,379,0,0,0,0,0,0,0,0,0,-1,1119,645,0,0
-98,379,0,0,0,0,0,0,0,0,0,-1,1126,645,0,0
-91,379,0,0,0,0,0,0,0,0,0,-1,1133,645,0,0
-84,379,0,0,0,0,0,0,0,0,0,-1,1140,645,0,0
-77,379,0,0,0,0,0,0,0,0,0,-1,1147,645,0,0
-70,379,0,0,0,0,0,0,0,0,0,-1,1154,645,0,0
-63,379,0,0,0,0,0,0,0,0,0,-1,1161,645,0,0
-56,379,0,0,0,0,0,0,0,0,0,-1,1168,645,0,0
-49,379,0,0,0,0,0,0,0,0,0,-1,1175,645,0,0
-42,379,0,0,0,0,0,0,0,0,0,-1,1182,645,0,0
-35,379,0,0,0,0,0,0,0,0,0,-1,1189,645,0,0
-28,379,0,0,0,0,0,0,0,0,0,-1,1196,645,0,0
-21,379,0,0,0,0,0,0,0,0,0,-1,1203,645,0,0
-14,379,0,0,0,0,0,0,0,0,0,-1,1210,645,0,0
-7,379,0,0,0,0,0,0,0,0,0,-1,1217,645,0,0
0,379,0,0,0,0,0,0,0,0,0,-1,1224,645,0,0
7,379,0,0,0,0,0,0,0,0,0,-1,1231,645,0,0
14,379,0,0,0,0,0,0,0,0,0,-1,1238,645,0,0
21,379,0,0,0,0,0,0,0,0,0,-1,1245,645,0,0
28,379,0,0,0,0,0,0,0,0,0,-1,1252,645,0,0
35,379,0,0,0,0,0,0,0,0,0,-1,1259,645,0,0
42,379,0,0,0,0,0,0,0,0,0,-1,1266,645,0,0
49,379,0,0,0,0,0,0,0,0,0,-1,1273,645,0,0
56,379,0,0,0,0,0,0,0,0,0,-1,1280,645,0,0
63,379,0,0,0,0,0,0,0,0,0,-1,1287,645,0,0
70,379,0,0,0,0,0,0,0,0,0,-1,1294,645,0,0
77,379,0,0,0,0,0,0,0,0,0,-1,1301,645,0,0
84,379,0,0,0,0,0,0,0,0,0,-1,1308,645,0,0
91,379,0,0,0,0,0,0,0,0,0,-1,1315,645,0,0
98,379,0,0,0,0,0,0,0,0,0,-1,1322,645,0,0
105,379,0,0,0,0,0,0,0,0,0,-1,1329,645,0,0
112,379,0,0,0,0,0,0,0,0,0,-1,1336,645,0,0
119,379,0,0,0,0,0,0,0,0,0,-1,1343,645,0,0
126,379,0,0,0,0,0,0,0,0,0,-1,1350,645,0,0
133,379,0,0,0,0,0,0,0,0,0,-1,1357,645,0,0
140,379,0,0,0,0,0,0,0,0,0,-1,1364,645,0,0
147,379,0,0,0,0,0,0,0,0,0,-1,1371,645,0,0
154,379,0,0,0,0,0,0,0,0,0,-1,1378,645,0,0
161,379,0,0,0,0,0,0,0,0,0,-1,1385,645,0,0
168,379,0,0,0,0,0,0,0,0,0,-1,1392,645,0,0
175,379,0,0,0,0,0,0,0,0,0,-1,1399,645,0,0
182,379,0,0,0,0,0,0,0,0,0,-1,1406,645,0,0
189,379,0,0,0,0,0,0,0,0,0,-1,1413,645,0,0
196,379,0,0,0,0,0,0,0,0,0,-1,1420,645,0,0
203,379,0,0,0,0,0,0,0,0,0,-1,1427,645,0,0
210,379,0,0,0,0,0,0,0,0,0,-1,1434,645,0,0
217,379,0,0,0,0,0,0,0,0,0,-1,1441,645,0,0
224,379,0,0,0,0,0,0,0,0,0,-1,1448,645,0,0
231,379,0,0,0,0,0,0,0,0,0,-1,1455,645,0,0
238,379,0,0,0,0,0,0,0,0,0,-1,1462,645,0,0
245,379,0,0,0,0,0,0,0,0,0,-1,1469,645,0,0
252,379,0,0,0,0,0,0,0,0,0,-1,1476,645,0,0
259,379,0,0,0,0,0,0,0,0,0,-1,1483,645,0,0
266,379,0,0,0,0,0,0,0,0,0,-1,1490,645,0,0
273,379,0,0,0,0,0,0,0,0,0,-1,1497,645,0,0
280,379,0,0,0,0,0,0,0,0,0,-1,1504,645,0,0
287,379,0,0,0,0,0,0,0,0,0,-1,1511,645,0,0
294,379,0,0,0,0,0,0,0,0,0,-1,1518,645,0,0
301,379,0,0,0,0,0,0,0,0,0,-1,1525,645,0,0
308,379,0,0,0,0,0,0,0,0,0,-1,1532,645,0,0
315,379,0,0,0,0,0,0,0,0,0,-1,1539,645,0,0
322,379,0,0,0,0,0,0,0,0,0,-1,1546,645,0,0
329,379,0,0,0,0,0,0,0,0,0,-1,1553,645,0,0
336,379,0,0,0,0,0,0,0,0,0,-1,1560,645,0,0
343,379,0,0,0,0,0,0,0,0,0,-1,1567,645,0,0
350,379,0,0,0,0,0,0,0,0,0,-1,1574,645,0,0
357,379,0,0,0,0,0,0,0,0,0,-1,1581,645,0,0
364,379,0,0,0,0,0,0,0,0,0,-1,1588,645,0,0
371,379,0,0,0,0,0,0,0,0,0,-1,1595,645,0,0
378,379,0,0,0,0,0,0,0,0,0,-1,1602,645,0,0
385,379,0,0,0,0,0,0,0,0,0,-1,1609,645,0,0
392,379,0,0,0,0,0,0,0,0,0,-1,1616,645,0,0
399,379,0,0,0,0,0,0,0,0,0,-1,1623,645,0,0
406,379,0,0,0,0,0,0,0,0,0,-1,1630,645,0,0
413,379,0,0,0,0,0,0,0,0,0,-1,1637,645,0,0
420,379,0,0,0,0,0,0,0,0,0,-1,1644,645,0,0
427,379,0,0,0,0,0,0,0,0,0,-1,1651,645,0,0
434,379,0,0,0,0,0,0,0,0,0,-1,1658,645,0,0
441,379,0,0,0,0,0,0,0,0,0,-1,1665,645,0,0
448,379,0,0,0,0,0,0,0,0,0,-1,1672,645,0,0
455,379,0,0,0,0,0,0,0,0,0,-1,1679,645,0,0
462,379,0,0,0,0,0,0,0,0,0,-1,1686,645,0,0
469,379,0,0,0,0,0,0,0,0,0,-1,1693,645,0,0
476,379,11.1787,0.830383,0,0,0,0,0,0,0,-1,1700,645,11.1787,-0.830365
483,379,7.4231,1.54321,0,0,0,0,0,0,0,-1,1707,645,7.42314,-1.54324
490,379,8.52881,1.56677,0,0,0,0,0,0,0,-1,1714,645,8.52878,-1.56677
497,379,9.63599,1.49573,0,0,0,0,0,0,0,-1,1721,645,9.63604,-1.4957
504,379,10.0833,1.35229,0,0,0,0,0,0,0,-1,1728,645,10.0832,-1.35227
511,379,8.14343,1.59912,0,0,0,0,0,0,0,-1,1735,645,8.14347,-1.59912
518,379,12.7955,-0.324097,0,0,0,0,0,0,0,-1,1742,645,12.7955,0.324101
525,379,6.03711,1.10352,0,0,0,0,0,0,0,-1,1749,645,6.03711,-1.10351
532,379,8.70947,0.887817,0,0,0,0,0,0,0,-1,1756,645,8.70953,-0.887808
539,379,9.87097,0.111389,0,0,0,0,0,0,0,-1,1763,645,9.87095,-0.111395
546,379,8.42383,-0.730652,0,0,0,0,0,0,0,-1,1770,645,8.42378,0.730638
553,379,19.2905,-7.67834,0,0,0,0,0,0,0,-1,1777,645,19.2905,7.67837
560,379,22.5734,-10.4749,0,0,0,0,0,0,0,-1,1784,645,22.5734,10.4749
567,379,36.623,-18.5093,0,0,0,0,0,0,0,-1,1791,645,36.623,18.5093
574,379,36.5844,-17.4915,0.00123125,0.00026561,0.000189022,0.00126694,0.000229928,0.186577,0.00077937,0.0184492,1798,645,36.5843,17.4915
581,379,36.5247,-16.5435,0.000762123,0.000420156,0.00019626,0.000851434,0.000330845,0.427058,0.000495628,0.016447,1805,645,36.5247,16.5435
588,379,36.4467,-15.5737,0.000667211,0.000690877,0.000362393,0.00104163,0.000316458,0.801718,0.000616624,0.0179121,1812,645,36.4466,15.5737
595,379,36.3876,-14.6172,0.000849691,0.0011745,0.000673564,0.00170496,0.00031923,0.903697,0.00104659,0.0155126,1819,645,36.3875,14.6172
602,379,36.3331,-13.6539,0.00123724,0.00179886,0.0010896,0.00264326,0.000392849,0.911514,0.00164691,0.0189044,1826,645,36.3332,13.6539
609,379,36.2483,-12.724,0.00174037,0.00254893,0.00156851,0.00376443,0.000524875,0.911526,0.00235424,0.0221777,1833,645,36.2483,12.724
616,379,36.167,-11.7474,0.00237103,0.00347712,0.00210012,0.00509579,0.000752358,0.914146,0.00317625,0.0174639,1840,645,36.1669,11.7474
623,379,36.1398,-10.7154,0.00316194,0.00449066,0.00275244,0.00665779,0.00099481,0.903819,0.00414689,0.0140629,1847,645,36.1397,10.7154
630,379,36.0966,-9.74841,0.00390762,0.0055357,0.00337395,0.00819242,0.00125089,0.903772,0.00509608,0.0153484,1854,645,36.0965,9.74841
637,379,36.0808,-8.62134,0.0045236,0.00676221,0.00399153,0.0097884,0.00149741,0.922097,0.00608816,0.0462618,1861,645,36.0808,8.62134
644,379,36.359,-7.33234,0,0,0,0,0,0,0,-1,1868,645,36.359,7.33233
651,379,12.9515,0.220825,0,0,0,0,0,0,0,-1,1875,645,12.9515,-0.220814
658,379,13.7498,0.37439,0,0,0,0,0,0,0,-1,1882,645,13.7498,-0.374371
665,379,11.9719,0.353333,0,0,0,0,0,0,0,-1,1889,645,11.9719,-0.353321
672,379,7.57605,2.15326,0,0,0,0,0,0,0,-1,1896,645,7.57599,-2.15326
679,379,8.55078,2.50409,0,0,0,0,0,0,0,-1,1903,645,8.55073,-2.50406
686,379,0,0,0,0,0,0,0,0,0,-1,1910,645,0,0
693,379,0,0,0,0,0,0,0,0,0,-1,1917,645,0,0
700,379,0,0,0,0,0,0,0,0,0,-1,1924,645,0,0
707,379,0,0,0,0,0,0,0,0,0,-1,1931,645,0,0
714,379,0,0,0,0,0,0,0,0,0,-1,1938,645,0,0
721,379,0,0,0,0,0,0,0,0,0,-1,1945,645,0,0
728,379,0,0,0,0,0,0,0,0,0,-1,1952,645,0,0
735,379,0,0,0,0,0,0,0,0,0,-1,1959,645,0,0
742,379,0,0,0,0,0,0,0,0,0,-1,1966,645,0,0
749,379,0,0,0,0,0,0,0,0,0,-1,1973,645,0,0
756,379,0,0,0,0,0,0,0,0,0,-1,1980,645,0,0
763,379,0,0,0,0,0,0,0,0,0,-1,1987,645,0,0
770,379,0,0,0,0,0,0,0,0,0,-1,1994,645,0,0
777,379,0,0,0,0,0,0,0,0,0,-1,2001,645,0,0
784,379,0,0,0,0,0,0,0,0,0,-1,2008,645,0,0
791,379,0,0,0,0,0,0,0,0,0,-1,2015,645,0,0
798,379,0,0,0,0,0,0,0,0,0,-1,2022,645,0,0
805,379,0,0,0,0,0,0,0,0,0,-1,2029,645,0,0
812,379,0,0,0,0,0,0,0,0,0,-1,2036,645,0,0
-700,372,0,0,0,0,0,0,0,0,0,-1,524,652,0,0
-693,372,0,0,0,0,0,0,0,0,0,-1,531,652,0,0
-686,372,0,0,0,0,0,0,0,0,0,-1,538,652,0,0
-679,372,0,0,0,0,0,0,0,0,0,-1,545,652,0,0
-672,372,0,0,0,0,0,0,0,0,0,-1,552,652,0,0
-665,372,0,0,0,0,0,0,0,0,0,-1,559,652,0,0
-658,372,0,0,0,0,0,0,0,0,0,-1,566,652,0,0
-651,372,0,0,0,0,0,0,0,0,0,-1,573,652,0,0
-644,372,0,0,0,0,0,0,0,0,0,-1,580,652,0,0
-637,372,0,0,0,0,0,0,0,0,0,-1,587,652,0,0
-630,372,0,0,0,0,0,0,0,0,0,-1,594,652,0,0
-623,372,0,0,0,0,0,0,0,0,0,-1,601,652,0,0
-616,372,0,0,0,0,0,0,0,0,0,-1,608,652,0,0
-609,372,0,0,0,0,0,0,0,0,0,-1,615,652,0,0
-602,372,0,0,0,0,0,0,0,0,0,-1,622,652,0,0
-595,372,0,0,0,0,0,0,0,0,0,-1,629,652,0,0
-588,372,0,0,0,0,0,0,0,0,0,-1,636,652,0,0
-581,372,0,0,0,0,0,0,0,0,0,-1,643,652,0,0
-574,372,0,0,0,0,0,0,0,0,0,-1,650,652,0,0
-567,372,-7.93744,0.73407,0,0,0,0,0,0,0,-1,657,652,-7.93741,-0.734076
-560,372,-8.78552,-0.158203,0,0,0,0,0,0,0,-1,664,652,-8.78552,0.158216
-553,372,-7.95551,1.61694,0,0,0,0,0,0,0,-1,671,652,-7.95552,-1.61697
-546,372,-4.2403,-3.75372,0,0,0,0,0,0,0,-1,678,652,-4.24028,3.75369
-539,372,-7.92285,-0.0650024,0,0,0,0,0,0,0,-1,685,652,-7.92287,0.0649772
-532,372,-8.59589,-0.419556,0,0,0,0,0,0,0,-1,692,652,-8.59591,0.419539
-525,372,-8.03674,-1.36804,0,0,0,0,0,0,0,-1,699,652,-8.03676,1.36806
-518,372,-21.083,-7.93738,0,0,0,0,0,0,0,-1,706,652,-21.083,7.93737
-511,372,-21.0801,-9.04376,0.00140509,-0.000242162,8.70524e-05,0.00140967,-0.000246749,0.0526517,0.00103191,0.0407901,713,652,-21.0801,9.04376
-504,372,-21.1484,-9.96216,0.00115181,-0.000115593,0.000196628,0.00118161,-0.000145397,0.150433,0.000840408,0.0191406,720,652,-21.1484,9.96214
-497,372,-21.1871,-10.9843,0.000966717,-9.05525e-05,0.000210308,0.00100702,-0.00013085,0.189318,0.000718941,0.0132758,727,652,-21.1871,10.9843
-490,372,-21.2791,-11.9509,0.000873314,-0.00012239,0.000172732,0.000902428,-0.000151503,0.166979,0.00065796,0.0132849,734,652,-21.2791,11.9509
-483,372,-21.3425,-12.9171,0.000900772,-0.000164065,5.42503e-05,0.000903529,-0.000166822,0.0507718,0.000664972,0.0125115,741,652,-21.3425,12.917
-476,372,-21.3727,-13.8781,0.00106401,-0.000191695,-0.000137435,0.00107888,-0.000206561,-0.107749,0.000797076,0.014242,748,652,-21.3727,13.8781
-469,372,-21.4625,-14.829,0.00138505,-0.000206327,-0.000409677,0.00148432,-0.0003056,-0.237737,0.00110558,0.0122639,755,652,-21.4625,14.829
-462,372,-21.5245,-15.8068,0.00183834,-0.000237477,-0.00075503,0.00208391,-0.00048305,-0.314457,0.00157518,0.0108882,762,652,-21.5245,15.8068
-455,372,-21.5966,-16.7769,0.00250114,-0.000134048,-0.00123126,0.00298689,-0.0006198,-0.37577,0.0022268,0.0115069,769,652,-21.5965,16.7768
-448,372,-21.642,-17.7518,0.00333942,-5.66576e-05,-0.00177136,0.00409516,-0.000812405,-0.403265,0.00303734,0.0178079,776,652,-21.642,17.7518
-441,372,-21.624,-18.8549,0,0,0,0,0,0,0,-1,783,652,-21.624,18.8549
-434,372,-9.86865,-9.68494,0,0,0,0,0,0,0,-1,790,652,-9.86863,9.68492
-427,372,-4.54248,-3.56268,0,0,0,0,0,0,0,-1,797,652,-4.54247,3.56266
-420,372,-4.66168,-2.93597,0,0,0,0,0,0,0,-1,804,652,-4.66166,2.93599
-413,372,-4.74762,-3.29541,0,0,0,0,0,0,0,-1,811,652,-4.74763,3.29542
-406,372,-0.885437,-0.583923,0,0,0,0,0,0,0,-1,818,652,-0.885437,0.5839
-399,372,-3.97357,-0.825012,0,0,0,0,0,0,0,-1,825,652,-3.97359,0.825037
-392,372,-7.64337,0.173035,0,0,0,0,0,0,0,-1,832,652,-7.64337,-0.173019
-385,372,-6.48871,-0.0271606,0,0,0,0,0,0,0,-1,839,652,-6.48874,0.0271353
-378,372,-5.33044,-0.242432,0,0,0,0,0,0,0,-1,846,652,-5.33042,0.242457
-371,372,-4.40802,-0.495667,0,0,0,0,0,0,0,-1,853,652,-4.40802,0.495661
-364,372,0,0,0,0,0,0,0,0,0,-1,860,652,0,0
-357,372,0,0,0,0,0,0,0,0,0,-1,867,652,0,0
-350,372,0,0,0,0,0,0,0,0,0,-1,874,652,0,0
-343,372,0,0,0,0,0,0,0,0,0,-1,881,652,0,0
-336,372,0,0,0,0,0,0,0,0,0,-1,888,652,0,0
-329,372,0,0,0,0,0,0,0,0,0,-1,895,652,0,0
-322,372,0,0,0,0,0,0,0,0,0,-1,902,652,0,0
-315,372,0,0,0,0,0,0,0,0,0,-1,909,652,0,0
-308,372,0,0,0,0,0,0,0,0,0,-1,916,652,0,0
-301,372,0,0,0,0,0,0,0,0,0,-1,923,652,0,0
-294,372,0,0,0,0,0,0,0,0,0,-1,930,652,0,0
-287,372,0,0,0,0,0,0,0,0,0,-1,937,652,0,0
-280,372,0,0,0,0,0,0,0,0,0,-1,944,652,0,0
-273,372,0,0,0,0,0,0,0,0,0,-1,951,652,0,0
-266,372,0,0,0,0,0,0,0,0,0,-1,958,652,0,0
-259,372,0,0,0,0,0,0,0,0,0,-1,965,652,0,0
-252,372,0,0,0,0,0,0,0,0,0,-1,972,652,0,0
-245,372,0,0,0,0,0,0,0,0,0,-1,979,652,0,0
-238,372,0,0,0,0,0,0,0,0,0,-1,986,652,0,0
-231,372,0,0,0,0,0,0,0,0,0,-1,993,652,0,0
-224,372,0,0,0,0,0,0,0,0,0,-1,1000,652,0,0
-217,372,0,0,0,0,0,0,0,0,0,-1,1007,652,0,0
-210,372,0,0,0,0,0,0,0,0,0,-1,1014,652,0,0
-203,372,0,0,0,0,0,0,0,0,0,-1,1021,652,0,0
-196,372,0,0,0,0,0,0,0,0,0,-1,1028,652,0,0
-189,372,0,0,0,0,0,0,0,0,0,-1,1035,652,0,0
-182,372,0,0,0,0,0,0,0,0,0,-1,1042,652,0,0
-175,372,0,0,0,0,0,0,0,0,0,-1,1049,652,0,0
-168,372,0,0,0,0,0,0,0,0,0,-1,1056,652,0,0
-161,372,0,0,0,0,0,0,0,0,0,-1,1063,652,0,0
-154,372,0,0,0,0,0,0,0,0,0,-1,1070,652,0,0
-147,372,0,0,0,0,0,0,0,0,0,-1,1077,652,0,0
-140,372,0,0,0,0,0,0,0,0,0,-1,1084,652,0,0
-133,372,0,0,0,0,0,0,0,0,0,-1,1091,652,0,0
-126,372,0,0,0,0,0,0,0,0,0,-1,1098,652,0,0
-119,372,0,0,0,0,0,0,0,0,0,-1,1105,652,0,0
-112,372,0,0,0,0,0,0,0,0,0,-1,1112,652,0,0
-105,372,0,0,0,0,0,0,0,0,0,-1,1119,652,0,0
-98,372,0,0,0,0,0,0,0,0,0,-1,1126,652,0,0
-91,372,0,0,0,0,0,0,0,0,0,-1,1133,652,0,0
-84,372,0,0,0,0,0,0,0,0,0,-1,1140,652,0,0
-77,372,0,0,0,0,0,0,0,0,0,-1,1147,652,0,0
-70,372,0,0,0,0,0,0,0,0,0,-1,1154,652,0,0
-63,372,0,0,0,0,0,0,0,0,0,-1,1161,652,0,0
-56,372,0,0,0,0,0,0,0,0,0,-1,1168,652,0,0
-49,372,0,0,0,0,0,0,0,0,0,-1,1175,652,0,0
-42,372,0,0,0,0,0,0,0,0,0,-1,1182,652,0,0
-35,372,0,0,0,0,0,0,0,0,0,-1,1189,652,0,0
-28,372,0,0,0,0,0,0,0,0,0,-1,1196,652,0,0
-21,372,0,0,0,0,0,0,0,0,0,-1,1203,652,0,0
-14,372,0,0,0,0,0,0,0,0,0,-1,1210,652,0,0
-7,372,0,0,0,0,0,0,0,0,0,-1,1217,652,0,0
0,372,0,0,0,0,0,0,0,0,0,-1,1224,652,0,0
7,372,0,0,0,0,0,0,0,0,0,-1,1231,652,0,0
14,372,0,0,0,0,0,0,0,0,0,-1,1238,652,0,0
21,372,0,0,0,0,0,0,0,0,0,-1,1245,652,0,0
28,372,0,0,0,0,0,0,0,0,0,-1,1252,652,0,0
35,372,0,0,0,0,0,0,0,0,0,-1,1259,652,0,0
42,372,0,0,0,0,0,0,0,0,0,-1,1266,652,0,0
49,372,0,0,0,0,0,0,0,0,0,-1,1273,652,0,0
56,372,0,0,0,0,0,0,0,0,0,-1,1280,652,0,0
63,372,0,0,0,0,0,0,0,0,0,-1,1287,652,0,0
70,372,0,0,0,0,0,0,0,0,0,-1,1294,652,0,0
77,372,0,0,0,0,0,0,0,0,0,-1,1301,652,0,0
84,372,0,0,0,0,0,0,0,0,0,-1,1308,652,0,0
91,372,0,0,0,0,0,0,0,0,0,-1,1315,652,0,0
98,372,0,0,0,0,0,0,0,0,0,-1,1322,652,0,0
105,372,0,0,0,0,0,0,0,0,0,-1,1329,652,0,0
112,372,0,0,0,0,0,0,0,0,0,-1,1336,652,0,0
119,372,0,0,0,0,0,0,0,0,0,-1,1343,652,0,0
126,372,0,0,0,0,0,0,0,0,0,-1,1350,652,0,0
133,372,0,0,0,0,0,0,0,0,0,-1,1357,652,0,0
140,372,0,0,0,0,0,0,0,0,0,-1,1364,652,0,0
147,372,0,0,0,0,0,0,0,0,0,-1,1371,652,0,0
154,372,0,0,0,0,0,0,0,0,0,-1,1378,652,0,0
161,372,0,0,0,0,0,0,0,0,0,-1,1385,652,0,0
168,372,0,0,0,0,0,0,0,0,0,-1,1392,652,0,0
175,372,0,0,0,0,0,0,0,0,0,-1,1399,652,0,0
182,372,0,0,0,0,0,0,0,0,0,-1,1406,652,0,0
189,372,0,0,0,0,0,0,0,0,0,-1,1413,652,0,0
196,372,0,0,0,0,0,0,0,0,0,-1,1420,652,0,0
203,372,0,0,0,0,0,0,0,0,0,-1,1427,652,0,0
210,372,0,0,0,0,0,0,0,0,0,-1,1434,652,0,0
217,372,0,0,0,0,0,0,0,0,0,-1,1441,652,0,0
224,372,0,0,0,0,0,0,0,0,0,-1,1448,652,0,0
231,372,0,0,0,0,0,0,0,0,0,-1,1455,652,0,0
238,372,0,0,0,0,0,0,0,0,0,-1,1462,652,0,0
245,372,0,0,0,0,0,0,0,0,0,-1,1469,652,0,0
252,372,0,0,0,0,0,0,0,0,0,-1,1476,652,0,0
259,372,0,0,0,0,0,0,0,0,0,-1,1483,652,0,0
266,372,0,0,0,0,0,0,0,0,0,-1,1490,652,0,0
273,372,0,0,0,0,0,0,0,0,0,-1,1497,652,0,0
280,372,0,0,0,0,0,0,0,0,0,-1,1504,652,0,0
287,372,0,0,0,0,0,0,0,0,0,-1,1511,652,0,0
294,372,0,0,0,0,0,0,0,0,0,-1,1518,652,0,0
301,372,0,0,0,0,0,0,0,0,0,-1,1525,652,0,0
308,372,0,0,0,0,0,0,0,0,0,-1,1532,652,0,0
315,372,0,0,0,0,0,0,0,0,0,-1,1539,652,0,0
322,372,0,0,0,0,0,0,0,0,0,-1,1546,652,0,0
329,372,0,0,0,0,0,0,0,0,0,-1,1553,652,0,0
336,372,0,0,0,0,0,0,0,0,0,-1,1560,652,0,0
343,372,0,0,0,0,0,0,0,0,0,-1,1567,652,0,0
350,372,0,0,0,0,0,0,0,0,0,-1,1574,652,0,0
357,372,0,0,0,0,0,0,0,0,0,-1,1581,652,0,0
364,372,0,0,0,0,0,0,0,0,0,-1,1588,652,0,0
371,372,0,0,0,0,0,0,0,0,0,-1,1595,652,0,0
378,372,0,0,0,0,0,0,0,0,0,-1,1602,652,0,0
385,372,0,0,0,0,0,0,0,0,0,-1,1609,652,0,0
392,372,0,0,0,0,0,0,0,0,0,-1,1616,652,0,0
399,372,0,0,0,0,0,0,0,0,0,-1,1623,652,0,0
406,372,0,0,0,0,0,0,0,0,0,-1,1630,652,0,0
413,372,0,0,0,0,0,0,0,0,0,-1,1637,652,0,0
420,372,0,0,0,0,0,0,0,0,0,-1,1644,652,0,0
427,372,0,0,0,0,0,0,0,0,0,-1,1651,652,0,0
434,372,0,0,0,0,0,0,0,0,0,-1,1658,652,0,0
441,372,0,0,0,0,0,0,0,0,0,-1,1665,652,0,0
448,372,0,0,0,0,0,0,0,0,0,-1,1672,652,0,0
455,372,0,0,0,0,0,0,0,0,0,-1,1679,652,0,0
462,372,0,0,0,0,0,0,0,0,0,-1,1686,652,0,0
469,372,0,0,0,0,0,0,0,0,0,-1,1693,652,0,0
476,372,0,0,0,0,0,0,0,0,0,-1,1700,652,0,0
483,372,8.74182,1.53125,0,0,0,0,0,0,0,-1,1707,652,8.74186,-1.53126
490,372,9.78455,1.67096,0,0,0,0,0,0,0,-1,1714,652,9.7846,-1.67093
497,372,9.97644,1.46069,0,0,0,0,0,0,0,-1,1721,652,9.97647,-1.46071
504,372,10.1216,1.28375,0,0,0,0,0,0,0,-1,1728,652,10.1216,-1.28376
511,372,11.7367,-0.0272217,0,0,0,0,0,0,0,-1,1735,652,11.7367,0.0272326
518,372,12.0657,-0.0995483,0,0,0,0,0,0,0,-1,1742,652,12.0657,0.0995285
525,372,12.3947,-0.171814,0,0,0,0,0,0,0,-1,1749,652,12.3946,0.171824
532,372,9.36597,1.72034,0,0,0,0,0,0,0,-1,1756,652,9.36597,-1.72036
539,372,7.82886,-0.0865479,0,0,0,0,0,0,0,-1,1763,652,7.82882,0.0865771
546,372,10.953,-0.187195,0,0,0,0,0,0,0,-1,1770,652,10.953,0.187181
553,372,14.1201,-4.83234,0,0,0,0,0,0,0,-1,1777,652,14.1201,4.83235
560,372,20.1057,-8.06934,0,0,0,0,0,0,0,-1,1784,652,20.1058,8.06936
567,372,37.6567,-18.6003,0,0,0,0,0,0,0,-1,1791,652,37.6567,18.6003
574,372,37.5864,-17.3514,0.00118386,0.00016228,3.04243e-05,0.00118477,0.000161374,0.0297465,0.000741925,0.0444371,1798,652,37.5865,17.3515
581,372,37.5178,-16.4787,0.000682146,0.000224999,1.71261e-05,0.000682786,0.000224359,0.0373933,0.000401854,0.023172,1805,652,37.5178,16.4787
588,372,37.4243,-15.5264,0.000603545,0.000339291,0.000151728,0.000672612,0.000270224,0.427171,0.000390823,0.0169769,1812,652,37.4243,15.5264
595,372,37.365,-14.5734,0.000780252,0.000720137,0.000413011,0.0011643,0.000336091,0.749074,0.000691934,0.0148856,1819,652,37.365,14.5733
602,372,37.3491,-13.6122,0.0011226,0.00121491,0.000752159,0.00192233,0.000415184,0.81604,0.00116802,0.0193553,1826,652,37.3491,13.6122
609,372,37.1896,-12.6716,0.0015211,0.00180991,0.00112609,0.00280081,0.000530197,0.849168,0.00171797,0.0219222,1833,652,37.1896,12.6716
616,372,37.1169,-11.658,0.00198318,0.00254941,0.00152186,0.00381426,0.00071833,0.877364,0.00234044,0.0201263,1840,652,37.1169,11.658
623,372,37.116,-10.618,0.00257007,0.00335613,0.00201941,0.00502041,0.000905793,0.88151,0.00308959,0.0141461,1847,652,37.116,10.618
630,372,37.0685,-9.65808,0.00307734,0.00421157,0.00248328,0.00619167,0.00109724,0.89766,0.00381499,0.0180798,1854,652,37.0685,9.65806
637,372,37.0452,-8.71588,0.00345209,0.00516548,0.00291859,0.00735052,0.00126705,0.928154,0.00453735,0.0285127,1861,652,37.0451,8.71585
644,372,37.0118,-7.64337,0,0,0,0,0,0,0,-1,1868,652,37.0118,7.64339
651,372,21.3998,-0.888,0,0,0,0,0,0,0,-1,1875,652,21.3998,0.887992
658,372,14.157,0.280273,0,0,0,0,0,0,0,-1,1882,652,14.157,-0.280264
665,372,15.2286,0.463867,0,0,0,0,0,0,0,-1,1889,652,15.2287,-0.463854
672,372,9.34106,1.48444,0,0,0,0,0,0,0,-1,1896,652,9.34109,-1.48444
679,372,10.7308,2.32391,0,0,0,0,0,0,0,-1,1903,652,10.7309,-2.3239
686,372,11.6295,2.52997,0,0,0,0,0,0,0,-1,1910,652,11.6296,-2.52996
693,372,0,0,0,0,0,0,0,0,0,-1,1917,652,0,0
700,372,0,0,0,0,0,0,0,0,0,-1,1924,652,0,0
707,372,0,0,0,0,0,0,0,0,0,-1,1931,652,0,0
714,372,0,0,0,0,0,0,0,0,0,-1,1938,652,0,0
721,372,0,0,0,0,0,0,0,0,0,-1,1945,652,0,0
728,372,0,0,0,0,0,0,0,0,0,-1,1952,652,0,0
735,372,0,0,0,0,0,0,0,0,0,-1,1959,652,0,0
742,372,0,0,0,0,0,0,0,0,0,-1,1966,652,0,0
749,372,0,0,0,0,0,0,0,0,0,-1,1973,652,0,0
756,372,0,0,0,0,0,0,0,0,0,-1,1980,652,0,0
763,372,0,0,0,0,0,0,0,0,0,-1,1987,652,0,0
770,372,0,0,0,0,0,0,0,0,0,-1,1994,652,0,0
777,372,0,0,0,0,0,0,0,0,0,-1,2001,652,0,0
784,372,0,0,0,0,0,0,0,0,0,-1,2008,652,0,0
791,372,0,0,0,0,0,0,0,0,0,-1,2015,652,0,0
798,372,0,0,0,0,0,0,0,0,0,-1,2022,652,0,0
805,372,0,0,0,0,0,0,0,0,0,-1,2029,652,0,0
812,372,0,0,0,0,0,0,0,0,0,-1,2036,652,0,0
-700,365,0,0,0,0,0,0,0,0,0,-1,524,659,0,0
-693,365,0,0,0,0,0,0,0,0,0,-1,531,659,0,0
-686,365,0,0,0,0,0,0,0,0,0,-1,538,659,0,0
-679,365,0,0,0,0,0,0,0,0,0,-1,545,659,0,0
-672,365,0,0,0,0,0,0,0,0,0,-1,552,659,0,0
-665,365,0,0,0,0,0,0,0,0,0,-1,559,659,0,0
-658,365,0,0,0,0,0,0,0,0,0,-1,566,659,0,0
-651,365,0,0,0,0,0,0,0,0,0,-1,573,659,0,0
-644,365,0,0,0,0,0,0,0,0,0,-1,580,659,0,0
-637,365,0,0,0,0,0,0,0,0,0,-1,587,659,0,0
-630,365,0,0,0,0,0,0,0,0,0,-1,594,659,0,0
-623,365,0,0,0,0,0,0,0,0,0,-1,601,659,0,0
-616,365,0,0,0,0,0,0,0,0,0,-1,608,659,0,0
-609,365,0,0,0,0,0,0,0,0,0,-1,615,659,0,0
-602,365,0,0,0,0,0,0,0,0,0,-1,622,659,0,0
-595,365,0,0,0,0,0,0,0,0,0,-1,629,659,0,0
-588,365,0,0,0,0,0,0,0,0,0,-1,636,659,0,0
-581,365,0,0,0,0,0,0,0,0,0,-1,643,659,0,0
-574,365,-7.69281,1.59015,0,0,0,0,0,0,0,-1,650,659,-7.69282,-1.59018
-567,365,-8.2583,1.72638,0,0,0,0,0,0,0,-1,657,659,-8.25827,-1.72637
-560,365,-7.17767,0.275757,0,0,0,0,0,0,0,-1,664,659,-7.17768,-0.27577
-553,365,-10.0349,-0.169617,0,0,0,0,0,0,0,-1,671,659,-10.0349,0.169593
-546,365,-10.6303,-1.51642,0,0,0,0,0,0,0,-1,678,659,-10.6303,1.5164
-539,365,-8.38599,1.52936,0,0,0,0,0,0,0,-1,685,659,-8.38598,-1.52935
-532,365,-8.52863,0.166504,0,0,0,0,0,0,0,-1,692,659,-8.52863,-0.166501
-525,365,-9.28229,-2.62726,0,0,0,0,0,0,0,-1,699,659,-9.28227,2.62724
-518,365,-22.0158,-7.87042,0,0,0,0,0,0,0,-1,706,659,-22.0158,7.87041
-511,365,-22.0631,-8.93591,0.00185832,0.000123428,-0.000364168,0.00193166,5.00869e-05,-0.198736,0.00127141,0.0372261,713,659,-22.0631,8.93588
-504,365,-22.0684,-9.91235,0.00160967,5.57222e-05,-0.000203222,0.00163581,2.95849e-05,-0.127912,0.00108081,0.0130965,720,659,-22.0684,9.91232
-497,365,-22.1232,-10.9069,0.00142213,-2.54651e-05,-0.000128681,0.00143348,-3.6815e-05,-0.0879739,0.000968155,0.0142322,727,659,-22.1232,10.9069
-490,365,-22.2253,-11.891,0.00131035,-9.57302e-05,-0.000119408,0.00132042,-0.000105798,-0.0841195,0.000917583,0.0152246,734,659,-22.2253,11.891
-483,365,-22.3205,-12.8533,0.00130515,-0.000144521,-0.000191251,0.00132996,-0.000169327,-0.128987,0.000948135,0.0129934,741,659,-22.3205,12.8533
-476,365,-22.3004,-13.8274,0.00141451,-0.000147238,-0.000337913,0.00148449,-0.000217216,-0.204202,0.00106944,0.018602,748,659,-22.3004,13.8274
-469,365,-22.3884,-14.7838,0.00166747,-0.000115555,-0.00057213,0.00183526,-0.000283348,-0.285278,0.00132807,0.0190243,755,659,-22.3884,14.7838
-462,365,-22.5028,-15.7065,0.00206527,-7.01749e-05,-0.00088579,0.00238487,-0.000389771,-0.346267,0.0017345,0.0154004,762,659,-22.5028,15.7065
-455,365,-22.5513,-16.6711,0.00272964,4.54809e-05,-0.00131765,0.00326835,-0.000493234,-0.388107,0.00236055,0.0186064,769,659,-22.5513,16.6711
-448,365,-22.6125,-17.706,0,0,0,0,0,0,0,-1,776,659,-22.6125,17.706
-441,365,-16.9571,-15.1896,0,0,0,0,0,0,0,-1,783,659,-16.9571,15.1896
-434,365,-5.45056,-3.98041,0,0,0,0,0,0,0,-1,790,659,-5.45055,3.98042
-427,365,-5.05377,-4.74689,0,0,0,0,0,0,0,-1,797,659,-5.05376,4.7469
-420,365,-4.58813,-3.16376,0,0,0,0,0,0,0,-1,804,659,-4.58816,3.16374
-413,365,0.141357,0.672729,0,0,0,0,0,0,0,-1,811,659,0.141365,-0.672714
-406,365,-1.75067,-0.934448,0,0,0,0,0,0,0,-1,818,659,-1.7507,0.934424
-399,365,-4.10242,-1.25439,0,0,0,0,0,0,0,-1,825,659,-4.10244,1.25438
-392,365,-7.46545,-0.779724,0,0,0,0,0,0,0,-1,832,659,-7.46543,0.779744
-385,365,-6.27875,-0.887573,0,0,0,0,0,0,0,-1,839,659,-6.27874,0.887545
-378,365,-5.34503,-0.263306,0,0,0,0,0,0,0,-1,846,659,-5.34504,0.263275
-371,365,0,0,0,0,0,0,0,0,0,-1,853,659,0,0
-364,365,0,0,0,0,0,0,0,0,0,-1,860,659,0,0
-357,365,0,0,0,0,0,0,0,0,0,-1,867,659,0,0
-350,365,0,0,0,0,0,0,0,0,0,-1,874,659,0,0
-343,365,0,0,0,0,0,0,0,0,0,-1,881,659,0,0
-336,365,0,0,0,0,0,0,0,0,0,-1,888,659,0,0
-329,365,0,0,0,0,0,0,0,0,0,-1,895,659,0,0
-322,365,0,0,0,0,0,0,0,0,0,-1,902,659,0,0
-315,365,0,0,0,0,0,0,0,0,0,-1,909,659,0,0
-308,365,0,0,0,0,0,0,0,0,0,-1,916,659,0,0
-301,365,0,0,0,0,0,0,0,0,0,-1,923,659,0,0
-294,365,0,0,0,0,0,0,0,0,0,-1,930,659,0,0
-287,365,0,0,0,0,0,0,0,0,0,-1,937,659,0,0
-280,365,0,0,0,0,0,0,0,0,0,-1,944,659,0,0
-273,365,0,0,0,0,0,0,0,0,0,-1,951,659,0,0
-266,365,0,0,0,0,0,0,0,0,0,-1,958,659,0,0
-259,365,0,0,0,0,0,0,0,0,0,-1,965,659,0,0
-252,365,0,0,0,0,0,0,0,0,0,-1,972,659,0,0
-245,365,0,0,0,0,0,0,0,0,0,-1,979,659,0,0
-238,365,0,0,0,0,0,0,0,0,0,-1,986,659,0,0
-231,365,0,0,0,0,0,0,0,0,0,-1,993,659,0,0
-224,365,0,0,0,0,0,0,0,0,0,-1,1000,659,0,0
-217,365,0,0,0,0,0,0,0,0,0,-1,1007,659,0,0
-210,365,0,0,0,0,0,0,0,0,0,-1,1014,659,0,0
-203,365,0,0,0,0,0,0,0,0,0,-1,1021,659,0,0
-196,365,0,0,0,0,0,0,0,0,0,-1,1028,659,0,0
-189,365,0,0,0,0,0,0,0,0,0,-1,1035,659,0,0
-182,365,0,0,0,0,0,0,0,0,0,-1,1042,659,0,0
-175,365,0,0,0,0,0,0,0,0,0,-1,1049,659,0,0
-168,365,0,0,0,0,0,0,0,0,0,-1,1056,659,0,0
-161,365,0,0,0,0,0,0,0,0,0,-1,1063,659,0,0
-154,365,0,0,0,0,0,0,0,0,0,-1,1070,659,0,0
-147,365,0,0,0,0,0,0,0,0,0,-1,1077,659,0,0
-140,365,0,0,0,0,0,0,0,0,0,-1,1084,659,0,0
-133,365,0,0,0,0,0,0,0,0,0,-1,1091,659,0,0
-126,365,0,0,0,0,0,0,0,0,0,-1,1098,659,0,0
-119,365,0,0,0,0,0,0,0,0,0,-1,1105,659,0,0
-112,365,0,0,0,0,0,0,0,0,0,-1,1112,659,0,0
-105,365,0,0,0,0,0,0,0,0,0,-1,1119,659,0,0
-98,365,0,0,0,0,0,0,0,0,0,-1,1126,659,0,0
-91,365,0,0,0,0,0,0,0,0,0,-1,1133,659,0,0
-84,365,0,0,0,0,0,0,0,0,0,-1,1140,659,0,0
-77,365,0,0,0,0,0,0,0,0,0,-1,1147,659,0,0
-70,365,0,0,0,0,0,0,0,0,0,-1,1154,659,0,0
-63,365,0,0,0,0,0,0,0,0,0,-1,1161,659,0,0
-56,365,0,0,0,0,0,0,0,0,0,-1,1168,659,0,0
-49,365,0,0,0,0,0,0,0,0,0,-1,1175,659,0,0
-42,365,0,0,0,0,0,0,0,0,0,-1,1182,659,0,0
-35,365,0,0,0,0,0,0,0,0,0,-1,1189,659,0,0
-28,365,0,0,0,0,0,0,0,0,0,-1,1196,659,0,0
-21,365,0,0,0,0,0,0,0,0,0,-1,1203,659,0,0
-14,365,0,0,0,0,0,0,0,0,0,-1,1210,659,0,0
-7,365,0,0,0,0,0,0,0,0,0,-1,1217,659,0,0
0,365,0,0,0,0,0,0,0,0,0,-1,1224,659,0,0
7,365,0,0,0,0,0,0,0,0,0,-1,1231,659,0,0
14,365,0,0,0,0,0,0,0,0,0,-1,1238,659,0,0
21,365,0,0,0,0,0,0,0,0,0,-1,1245,659,0,0
28,365,0,0,0,0,0,0,0,0,0,-1,1252,659,0,0
35,365,0,0,0,0,0,0,0,0,0,-1,1259,659,0,0
42,365,0,0,0,0,0,0,0,0,0,-1,1266,659,0,0
49,365,0,0,0,0,0,0,0,0,0,-1,1273,659,0,0
56,365,0,0,0,0,0,0,0,0,0,-1,1280,659,0,0
63,365,0,0,0,0,0,0,0,0,0,-1,1287,659,0,0
70,365,0,0,0,0,0,0,0,0,0,-1,1294,659,0,0
77,365,0,0,0,0,0,0,0,0,0,-1,1301,659,0,0
84,365,0,0,0,0,0,0,0,0,0,-1,1308,659,0,0
91,365,0,0,0,0,0,0,0,0,0,-1,1315,659,0,0
98,365,0,0,0,0,0,0,0,0,0,-1,1322,659,0,0
105,365,0,0,0,0,0,0,0,0,0,-1,1329,659,0,0
112,365,0,0,0,0,0,0,0,0,0,-1,1336,659,0,0
119,365,0,0,0,0,0,0,0,0,0,-1,1343,659,0,0
126,365,0,0,0,0,0,0,0,0,0,-1,1350,659,0,0
133,365,0,0,0,0,0,0,0,0,0,-1,1357,659,0,0
140,365,0,0,0,0,0,0,0,0,0,-1,1364,659,0,0
147,365,0,0,0,0,0,0,0,0,0,-1,1371,659,0,0
154,365,0,0,0,0,0,0,0,0,0,-1,1378,659,0,0
161,365,0,0,0,0,0,0,0,0,0,-1,1385,659,0,0
168,365,0,0,0,0,0,0,0,0,0,-1,1392,659,0,0
175,365,0,0,0,0,0,0,0,0,0,-1,1399,659,0,0
182,365,0,0,0,0,0,0,0,0,0,-1,1406,659,0,0
189,365,0,0,0,0,0,0,0,0,0,-1,1413,659,0,0
196,365,0,0,0,0,0,0,0,0,0,-1,1420,659,0,0
203,365,0,0,0,0,0,0,0,0,0,-1,1427,659,0,0
210,365,0,0,0,0,0,0,0,0,0,-1,1434,659,0,0
217,365,0,0,0,0,0,0,0,0,0,-1,1441,659,0,0
224,365,0,0,0,0,0,0,0,0,0,-1,1448,659,0,0
231,365,0,0,0,0,0,0,0,0,0,-1,1455,659,0,0
238,365,0,0,0,0,0,0,0,0,0,-1,1462,659,0,0
245,365,0,0,0,0,0,0,0,0,0,-1,1469,659,0,0
252,365,0,0,0,0,0,0,0,0,0,-1,1476,659,0,0
259,365,0,0,0,0,0,0,0,0,0,-1,1483,659,0,0
266,365,0,0,0,0,0,0,0,0,0,-1,1490,659,0,0
273,365,0,0,0,0,0,0,0,0,0,-1,1497,659,0,0
280,365,0,0,0,0,0,0,0,0,0,-1,1504,659,0,0
287,365,0,0,0,0,0,0,0,0,0,-1,1511,659,0,0
294,365,0,0,0,0,0,0,0,0,0,-1,1518,659,0,0
301,365,0,0,0,0,0,0,0,0,0,-1,1525,659,0,0
308,365,0,0,0,0,0,0,0,0,0,-1,1532,659,0,0
315,365,0,0,0,0,0,0,0,0,0,-1,1539,659,0,0
322,365,0,0,0,0,0,0,0,0,0,-1,1546,659,0,0
329,365,0,0,0,0,0,0,0,0,0,-1,1553,659,0,0
336,365,0,0,0,0,0,0,0,0,0,-1,1560,659,0,0
343,365,0,0,0,0,0,0,0,0,0,-1,1567,659,0,0
350,365,0,0,0,0,0,0,0,0,0,-1,1574,659,0,0
357,365,0,0,0,0,0,0,0,0,0,-1,1581,659,0,0
364,365,0,0,0,0,0,0,0,0,0,-1,1588,659,0,0
371,365,0,0,0,0,0,0,0,0,0,-1,1595,659,0,0
378,365,0,0,0,0,0,0,0,0,0,-1,1602,659,0,0
385,365,0,0,0,0,0,0,0,0,0,-1,1609,659,0,0
392,365,0,0,0,0,0,0,0,0,0,-1,1616,659,0,0
399,365,0,0,0,0,0,0,0,0,0,-1,1623,659,0,0
406,365,0,0,0,0,0,0,0,0,0,-1,1630,659,0,0
413,365,0,0,0,0,0,0,0,0,0,-1,1637,659,0,0
420,365,0,0,0,0,0,0,0,0,0,-1,1644,659,0,0
427,365,0,0,0,0,0,0,0,0,0,-1,1651,659,0,0
434,365,0,0,0,0,0,0,0,0,0,-1,1658,659,0,0
441,365,0,0,0,0,0,0,0,0,0,-1,1665,659,0,0
448,365,0,0,0,0,0,0,0,0,0,-1,1672,659,0,0
455,365,0,0,0,0,0,0,0,0,0,-1,1679,659,0,0
462,365,0,0,0,0,0,0,0,0,0,-1,1686,659,0,0
469,365,0,0,0,0,0,0,0,0,0,-1,1693,659,0,0
476,365,0,0,0,0,0,0,0,0,0,-1,1700,659,0,0
483,365,0,0,0,0,0,0,0,0,0,-1,1707,659,0,0
490,365,8.39551,0.471252,0,0,0,0,0,0,0,-1,1714,659,8.39551,-0.471241
497,365,9.89233,1.35394,0,0,0,0,0,0,0,-1,1721,659,9.89237,-1.35396
504,365,10.1414,1.18005,0,0,0,0,0,0,0,-1,1728,659,10.1413,-1.18004
511,365,10.5151,0.993896,0,0,0,0,0,0,0,-1,1735,659,10.5152,-0.993894
518,365,11.2029,0.398132,0,0,0,0,0,0,0,-1,1742,659,11.2029,-0.398136
525,365,15.5748,3.85303,0,0,0,0,0,0,0,-1,1749,659,15.5748,-3.85303
532,365,11.2446,1.00629,0,0,0,0,0,0,0,-1,1756,659,11.2446,-1.00631
539,365,12.6301,1.03204,0,0,0,0,0,0,0,-1,1763,659,12.6302,-1.03204
546,365,11.647,0.84198,0,0,0,0,0,0,0,-1,1770,659,11.6469,-0.841955
553,365,12.028,-0.558899,0,0,0,0,0,0,0,-1,1777,659,12.028,0.558873
560,365,14.5372,-4.55548,0,0,0,0,0,0,0,-1,1784,659,14.5373,4.55547
567,365,20.5676,-7.53888,0,0,0,0,0,0,0,-1,1791,659,20.5676,7.53887
574,365,38.8289,-17.2161,0,0,0,0,0,0,0,-1,1798,659,38.8289,17.2161
581,365,38.322,-16.6558,0,0,0,0,0,0,0,-1,1805,659,38.322,16.6557
588,365,38.3602,-15.5771,0.000409318,3.98247e-05,-5.23721e-05,0.000416597,3.25449e-05,-0.138117,0.000267544,0.0237043,1812,659,38.3602,15.5771
595,365,38.3367,-14.4935,0.000582088,0.000376615,0.000181046,0.000687516,0.000271187,0.527323,0.000399875,0.0149088,1819,659,38.3366,14.4935
602,365,38.2668,-13.4854,0.00090293,0.000777708,0.000468537,0.00131302,0.000367617,0.718976,0.000782156,0.0190658,1826,659,38.2669,13.4853
609,365,38.1133,-12.5255,0.00124913,0.00124758,0.000774757,0.00202312,0.000473601,0.784898,0.00122187,0.0212593,1833,659,38.1133,12.5255
616,365,38.0947,-11.5267,0.00161739,0.00182436,0.00108264,0.00280845,0.000633305,0.833047,0.00170096,0.0214018,1840,659,38.0947,11.5267
623,365,38.1017,-10.5452,0.00208646,0.00245424,0.00146721,0.00374904,0.000791659,0.847739,0.00228172,0.0125314,1847,659,38.1017,10.5452
630,365,38.0221,-9.60992,0.00246552,0.0031416,0.00182722,0.00466178,0.00094534,0.876865,0.00284557,0.0165202,1854,659,38.0221,9.60994
637,365,37.9462,-8.67151,0.00272277,0.00387528,0.00213811,0.00551344,0.00108462,0.917028,0.00337273,0.0218207,1861,659,37.9462,8.67151
644,365,37.9156,-7.67712,0.00290229,0.00482065,0.00247899,0.00651955,0.00120338,0.96999,0.00400595,0.0264847,1868,659,37.9157,7.67713
651,365,38.0388,-6.53925,0,0,0,0,0,0,0,-1,1875,659,38.0389,6.53926
658,365,24.745,-2.13275,0,0,0,0,0,0,0,-1,1882,659,24.745,2.13277
665,365,14.0961,0.769043,0,0,0,0,0,0,0,-1,1889,659,14.0961,-0.769063
672,365,10.0579,2.15088,0,0,0,0,0,0,0,-1,1896,659,10.0579,-2.15088
679,365,10.9718,2.19208,0,0,0,0,0,0,0,-1,1903,659,10.9718,-2.19211
686,365,12.2134,2.17108,0,0,0,0,0,0,0,-1,1910,659,12.2134,-2.17109
693,365,13.7141,1.98279,0,0,0,0,0,0,0,-1,1917,659,13.7141,-1.98278
700,365,0,0,0,0,0,0,0,0,0,-1,1924,659,0,0
707,365,0,0,0,0,0,0,0,0,0,-1,1931,659,0,0
714,365,0,0,0,0,0,0,0,0,0,-1,1938,659,0,0
721,365,0,0,0,0,0,0,0,0,0,-1,1945,659,0,0
728,365,0,0,0,0,0,0,0,0,0,-1,1952,659,0,0
735,365,0,0,0,0,0,0,0,0,0,-1,1959,659,0,0
742,365,0,0,0,0,0,0,0,0,0,-1,1966,659,0,0
749,365,0,0,0,0,0,0,0,0,0,-1,1973,659,0,0
756,365,0,0,0,0,0,0,0,0,0,-1,1980,659,0,0
763,365,0,0,0,0,0,0,0,0,0,-1,1987,659,0,0
770,365,0,0,0,0,0,0,0,0,0,-1,1994,659,0,0
777,365,0,0,0,0,0,0,0,0,0,-1,2001,659,0,0
784,365,0,0,0,0,0,0,0,0,0,-1,2008,659,0,0
791,365,0,0,0,0,0,0,0,0,0,-1,2015,659,0,0
798,365,0,0,0,0,0,0,0,0,0,-1,2022,659,0,0
805,365,0,0,0,0,0,0,0,0,0,-1,2029,659,0,0
812,365,0,0,0,0,0,0,0,0,0,-1,2036,659,0,0
-700,358,0,0,0,0,0,0,0,0,0,-1,524,666,0,0
-693,358,0,0,0,0,0,0,0,0,0,-1,531,666,0,0
-686,358,0,0,0,0,0,0,0,0,0,-1,538,666,0,0
-679,358,0,0,0,0,0,0,0,0,0,-1,545,666,0,0
-672,358,0,0,0,0,0,0,0,0,0,-1,552,666,0,0
-665,358,0,0,0,0,0,0,0,0,0,-1,559,666,0,0
-658,358,0,0,0,0,0,0,0,0,0,-1,566,666,0,0
-651,358,0,0,0,0,0,0,0,0,0,-1,573,666,0,0
-644,358,0,0,0,0,0,0,0,0,0,-1,580,666,0,0
-637,358,0,0,0,0,0,0,0,0,0,-1,587,666,0,0
-630,358,0,0,0,0,0,0,0,0,0,-1,594,666,0,0
-623,358,0,0,0,0,0,0,0,0,0,-1,601,666,0,0
-616,358,0,0,0,0,0,0,0,0,0,-1,608,666,0,0
-609,358,0,0,0,0,0,0,0,0,0,-1,615,666,0,0
-602,358,0,0,0,0,0,0,0,0,0,-1,622,666,0,0
-595,358,0,0,0,0,0,0,0,0,0,-1,629,666,0,0
-588,358,0,0,0,0,0,0,0,0,0,-1,636,666,0,0
-581,358,-8.31616,1.61993,0,0,0,0,0,0,0,-1,643,666,-8.31614,-1.61993
-574,358,-8.22406,1.75385,0,0,0,0,0,0,0,-1,650,666,-8.22408,-1.75383
-567,358,-8.14215,1.91577,0,0,0,0,0,0,0,-1,657,666,-8.14214,-1.91579
-560,358,-10.6086,2.18872,0,0,0,0,0,0,0,-1,664,666,-10.6086,-2.18873
-553,358,-13.4767,1.09552,0,0,0,0,0,0,0,-1,671,666,-13.4767,-1.09551
-546,358,-13.3743,-0.185059,0,0,0,0,0,0,0,-1,678,666,-13.3743,0.185037
-539,358,-9.43884,-2.04785,0,0,0,0,0,0,0,-1,685,666,-9.43884,2.04785
-532,358,-12.4141,-2.36572,0,0,0,0,0,0,0,-1,692,666,-12.4141,2.3657
-525,358,-12.731,-3.88031,0,0,0,0,0,0,0,-1,699,666,-12.731,3.88029
-518,358,-22.9772,-7.89001,0,0,0,0,0,0,0,-1,706,666,-22.9772,7.89003
-511,358,-23.012,-8.84845,0.00222208,0.000389348,-0.000639071,0.00242292,0.000188513,-0.304488,0.00155625,0.0168564,713,666,-23.012,8.84843
-504,358,-23.0573,-9.81799,0.00188058,0.000205989,-0.00038741,0.00196586,0.000120707,-0.216679,0.00127225,0.0122922,720,666,-23.0573,9.81801
-497,358,-23.1142,-10.8288,0.00164884,6.66976e-05,-0.000246192,0.00168627,2.92739e-05,-0.150856,0.00111455,0.0124118,727,666,-23.1142,10.8288
-490,358,-23.1866,-11.808,0.00150402,-1.57882e-05,-0.0001956,0.00152879,-4.05584e-05,-0.125966,0.00103298,0.0117281,734,666,-23.1866,11.808
-483,358,-23.2701,-12.7548,0.00150288,-4.02108e-05,-0.000264713,0.00154703,-8.43586e-05,-0.165255,0.00106059,0.0107625,741,666,-23.2701,12.7548
-476,358,-23.267,-13.7094,0.00162894,-1.8322e-06,-0.000428865,0.00173485,-0.000107738,-0.242102,0.0011941,0.0154815,748,666,-23.267,13.7094
-469,358,-23.3656,-14.6774,0.00190133,8.07915e-05,-0.000697829,0.00213804,-0.000155916,-0.327026,0.00148007,0.0199872,755,666,-23.3656,14.6774
-462,358,-23.4702,-15.6536,0.00232662,0.000220142,-0.00104939,0.00276017,-0.000213407,-0.391784,0.00191522,0.019906,762,666,-23.4702,15.6536
-455,358,-23.4724,-16.6472,0,0,0,0,0,0,0,-1,769,666,-23.4724,16.6472
-448,358,-17.7847,-14.434,0,0,0,0,0,0,0,-1,776,666,-17.7847,14.434
-441,358,-5.56293,-3.98041,0,0,0,0,0,0,0,-1,783,666,-5.56291,3.98043
-434,358,-5.21558,-4.43127,0,0,0,0,0,0,0,-1,790,666,-5.21559,4.43125
-427,358,-3.56189,-3.15729,0,0,0,0,0,0,0,-1,797,666,-3.56192,3.15729
-420,358,0.200195,1.08234,0,0,0,0,0,0,0,-1,804,666,0.200174,-1.08231
-413,358,0.0325317,0.161072,0,0,0,0,0,0,0,-1,811,666,0.0325501,-0.161098
-406,358,-3.85846,0.753113,0,0,0,0,0,0,0,-1,818,666,-3.85846,-0.753129
-399,358,-1.31213,0.190735,0,0,0,0,0,0,0,-1,825,666,-1.31215,-0.190763
-392,358,-3.73914,-0.832214,0,0,0,0,0,0,0,-1,832,666,-3.73915,0.832202
-385,358,-5.95178,-1.69141,0,0,0,0,0,0,0,-1,839,666,-5.9518,1.69143
-378,358,0,0,0,0,0,0,0,0,0,-1,846,666,0,0
-371,358,0,0,0,0,0,0,0,0,0,-1,853,666,0,0
-364,358,0,0,0,0,0,0,0,0,0,-1,860,666,0,0
-357,358,0,0,0,0,0,0,0,0,0,-1,867,666,0,0
-350,358,0,0,0,0,0,0,0,0,0,-1,874,666,0,0
-343,358,0,0,0,0,0,0,0,0,0,-1,881,666,0,0
-336,358,0,0,0,0,0,0,0,0,0,-1,888,666,0,0
-329,358,0,0,0,0,0,0,0,0,0,-1,895,666,0,0
-322,358,0,0,0,0,0,0,0,0,0,-1,902,666,0,0
-315,358,0,0,0,0,0,0,0,0,0,-1,909,666,0,0
-308,358,0,0,0,0,0,0,0,0,0,-1,916,666,0,0
-301,358,0,0,0,0,0,0,0,0,0,-1,923,666,0,0
-294,358,0,0,0,0,0,0,0,0,0,-1,930,666,0,0
-287,358,0,0,0,0,0,0,0,0,0,-1,937,666,0,0
-280,358,0,0,0,0,0,0,0,0,0,-1,944,666,0,0
-273,358,0,0,0,0,0,0,0,0,0,-1,951,666,0,0
-266,358,0,0,0,0,0,0,0,0,0,-1,958,666,0,0
-259,358,0,0,0,0,0,0,0,0,0,-1,965,666,0,0
-252,358,0,0,0,0,0,0,0,0,0,-1,972,666,0,0
-245,358,0,0,0,0,0,0,0,0,0,-1,979,666,0,0
-238,358,0,0,0,0,0,0,0,0,0,-1,986,666,0,0
-231,358,0,0,0,0,0,0,0,0,0,-1,993,666,0,0
-224,358,0,0,0,0,0,0,0,0,0,-1,1000,666,0,0
-217,358,0,0,0,0,0,0,0,0,0,-1,1007,666,0,0
-210,358,0,0,0,0,0,0,0,0,0,-1,1014,666,0,0
-203,358,0,0,0,0,0,0,0,0,0,-1,1021,666,0,0
-196,358,0,0,0,0,0,0,0,0,0,-1,1028,666,0,0
-189,358,0,0,0,0,0,0,0,0,0,-1,1035,666,0,0
-182,358,0,0,0,0,0,0,0,0,0,-1,1042,666,0,0
-175,358,0,0,0,0,0,0,0,0,0,-1,1049,666,0,0
-168,358,0,0,0,0,0,0,0,0,0,-1,1056,666,0,0
-161,358,0,0,0,0,0,0,0,0,0,-1,1063,666,0,0
-154,358,0,0,0,0,0,0,0,0,0,-1,1070,666,0,0
-147,358,0,0,0,0,0,0,0,0,0,-1,1077,666,0,0
-140,358,0,0,0,0,0,0,0,0,0,-1,1084,666,0,0
-133,358,0,0,0,0,0,0,0,0,0,-1,1091,666,0,0
-126,358,0,0,0,0,0,0,0,0,0,-1,1098,666,0,0
-119,358,0,0,0,0,0,0,0,0,0,-1,1105,666,0,0
-112,358,0,0,0,0,0,0,0,0,0,-1,1112,666,0,0
-105,358,0,0,0,0,0,0,0,0,0,-1,1119,666,0,0
-98,358,0,0,0,0,0,0,0,0,0,-1,1126,666,0,0
-91,358,0,0,0,0,0,0,0,0,0,-1,1133,666,0,0
-84,358,0,0,0,0,0,0,0,0,0,-1,1140,666,0,0
-77,358,0,0,0,0,0,0,0,0,0,-1,1147,666,0,0
-70,358,0,0,0,0,0,0,0,0,0,-1,1154,666,0,0
-63,358,0,0,0,0,0,0,0,0,0,-1,1161,666,0,0
-56,358,0,0,0,0,0,0,0,0,0,-1,1168,666,0,0
-49,358,0,0,0,0,0,0,0,0,0,-1,1175,666,0,0
-42,358,0,0,0,0,0,0,0,0,0,-1,1182,666,0,0
-35,358,0,0,0,0,0,0,0,0,0,-1,1189,666,0,0
-28,358,0,0,0,0,0,0,0,0,0,-1,1196,666,0,0
-21,358,0,0,0,0,0,0,0,0,0,-1,1203,666,0,0
-14,358,0,0,0,0,0,0,0,0,0,-1,1210,666,0,0
-7,358,0,0,0,0,0,0,0,0,0,-1,1217,666,0,0
0,358,0,0,0,0,0,0,0,0,0,-1,1224,666,0,0
7,358,0,0,0,0,0,0,0,0,0,-1,1231,666,0,0
14,358,0,0,0,0,0,0,0,0,0,-1,1238,666,0,0
21,358,0,0,0,0,0,0,0,0,0,-1,1245,666,0,0
28,358,0,0,0,0,0,0,0,0,0,-1,1252,666,0,0
35,358,0,0,0,0,0,0,0,0,0,-1,1259,666,0,0
42,358,0,0,0,0,0,0,0,0,0,-1,1266,666,0,0
49,358,0,0,0,0,0,0,0,0,0,-1,1273,666,0,0
56,358,0,0,0,0,0,0,0,0,0,-1,1280,666,0,0
63,358,0,0,0,0,0,0,0,0,0,-1,1287,666,0,0
70,358,0,0,0,0,0,0,0,0,0,-1,1294,666,0,0
77,358,0,0,0,0,0,0,0,0,0,-1,1301,666,0,0
84,358,0,0,0,0,0,0,0,0,0,-1,1308,666,0,0
91,358,0,0,0,0,0,0,0,0,0,-1,1315,666,0,0
98,358,0,0,0,0,0,0,0,0,0,-1,1322,666,0,0
105,358,0,0,0,0,0,0,0,0,0,-1,1329,666,0,0
112,358,0,0,0,0,0,0,0,0,0,-1,1336,666,0,0
119,358,0,0,0,0,0,0,0,0,0,-1,1343,666,0,0
126,358,0,0,0,0,0,0,0,0,0,-1,1350,666,0,0
133,358,0,0,0,0,0,0,0,0,0,-1,1357,666,0,0
140,358,0,0,0,0,0,0,0,0,0,-1,1364,666,0,0
147,358,0,0,0,0,0,0,0,0,0,-1,1371,666,0,0
154,358,0,0,0,0,0,0,0,0,0,-1,1378,666,0,0
161,358,0,0,0,0,0,0,0,0,0,-1,1385,666,0,0
168,358,0,0,0,0,0,0,0,0,0,-1,1392,666,0,0
175,358,0,0,0,0,0,0,0,0,0,-1,1399,666,0,0
182,358,0,0,0,0,0,0,0,0,0,-1,1406,666,0,0
189,358,0,0,0,0,0,0,0,0,0,-1,1413,666,0,0
196,358,0,0,0,0,0,0,0,0,0,-1,1420,666,0,0
203,358,0,0,0,0,0,0,0,0,0,-1,1427,666,0,0
210,358,0,0,0,0,0,0,0,0,0,-1,1434,666,0,0
217,358,0,0,0,0,0,0,0,0,0,-1,1441,666,0,0
224,358,0,0,0,0,0,0,0,0,0,-1,1448,666,0,0
231,358,0,0,0,0,0,0,0,0,0,-1,1455,666,0,0
238,358,0,0,0,0,0,0,0,0,0,-1,1462,666,0,0
245,358,0,0,0,0,0,0,0,0,0,-1,1469,666,0,0
252,358,0,0,0,0,0,0,0,0,0,-1,1476,666,0,0
259,358,0,0,0,0,0,0,0,0,0,-1,1483,666,0,0
266,358,0,0,0,0,0,0,0,0,0,-1,1490,666,0,0
273,358,0,0,0,0,0,0,0,0,0,-1,1497,666,0,0
280,358,0,0,0,0,0,0,0,0,0,-1,1504,666,0,0
287,358,0,0,0,0,0,0,0,0,0,-1,1511,666,0,0
294,358,0,0,0,0,0,0,0,0,0,-1,1518,666,0,0
301,358,0,0,0,0,0,0,0,0,0,-1,1525,666,0,0
308,358,0,0,0,0,0,0,0,0,0,-1,1532,666,0,0
315,358,0,0,0,0,0,0,0,0,0,-1,1539,666,0,0
322,358,0,0,0,0,0,0,0,0,0,-1,1546,666,0,0
329,358,0,0,0,0,0,0,0,0,0,-1,1553,666,0,0
336,358,0,0,0,0,0,0,0,0,0,-1,1560,666,0,0
343,358,0,0,0,0,0,0,0,0,0,-1,1567,666,0,0
350,358,0,0,0,0,0,0,0,0,0,-1,1574,666,0,0
357,358,0,0,0,0,0,0,0,0,0,-1,1581,666,0,0
364,358,0,0,0,0,0,0,0,0,0,-1,1588,666,0,0
371,358,0,0,0,0,0,0,0,0,0,-1,1595,666,0,0
378,358,0,0,0,0,0,0,0,0,0,-1,1602,666,0,0
385,358,0,0,0,0,0,0,0,0,0,-1,1609,666,0,0
392,358,0,0,0,0,0,0,0,0,0,-1,1616,666,0,0
399,358,0,0,0,0,0,0,0,0,0,-1,1623,666,0,0
406,358,0,0,0,0,0,0,0,0,0,-1,1630,666,0,0
413,358,0,0,0,0,0,0,0,0,0,-1,1637,666,0,0
420,358,0,0,0,0,0,0,0,0,0,-1,1644,666,0,0
427,358,0,0,0,0,0,0,0,0,0,-1,1651,666,0,0
434,358,0,0,0,0,0,0,0,0,0,-1,1658,666,0,0
441,358,0,0,0,0,0,0,0,0,0,-1,1665,666,0,0
448,358,0,0,0,0,0,0,0,0,0,-1,1672,666,0,0
455,358,0,0,0,0,0,0,0,0,0,-1,1679,666,0,0
462,358,0,0,0,0,0,0,0,0,0,-1,1686,666,0,0
469,358,0,0,0,0,0,0,0,0,0,-1,1693,666,0,0
476,358,0,0,0,0,0,0,0,0,0,-1,1700,666,0,0
483,358,0,0,0,0,0,0,0,0,0,-1,1707,666,0,0
490,358,0,0,0,0,0,0,0,0,0,-1,1714,666,0,0
497,358,8.57239,1.1322,0,0,0,0,0,0,0,-1,1721,666,8.57234,-1.13219
504,358,10.5972,0.832947,0,0,0,0,0,0,0,-1,1728,666,10.5972,-0.832968
511,358,10.6873,0.868469,0,0,0,0,0,0,0,-1,1735,666,10.6872,-0.868484
518,358,16.5884,2.34894,0,0,0,0,0,0,0,-1,1742,666,16.5884,-2.34894
525,358,15.7626,3.65344,0,0,0,0,0,0,0,-1,1749,666,15.7626,-3.65342
532,358,14.9368,4.95789,0,0,0,0,0,0,0,-1,1756,666,14.9367,-4.9579
539,358,15.1597,3.42694,0,0,0,0,0,0,0,-1,1763,666,15.1597,-3.42692
546,358,12.3792,1.53558,0,0,0,0,0,0,0,-1,1770,666,12.3792,-1.5356
553,358,11.6584,1.26172,0,0,0,0,0,0,0,-1,1777,666,11.6585,-1.26175
560,358,10.8234,1.43042,0,0,0,0,0,0,0,-1,1784,666,10.8233,-1.43041
567,358,10.1333,-0.955139,0,0,0,0,0,0,0,-1,1791,666,10.1333,0.955132
574,358,14.7886,-2.69293,0,0,0,0,0,0,0,-1,1798,666,14.7885,2.6929
581,358,20.1738,-6.76135,0,0,0,0,0,0,0,-1,1805,666,20.1738,6.76137
588,358,39.201,-15.6489,0,0,0,0,0,0,0,-1,1812,666,39.2011,15.6489
595,358,39.2946,-14.4135,0.000309509,0.000143979,9.73743e-05,0.00035454,9.89483e-05,0.43316,0.000211249,0.0172824,1819,666,39.2946,14.4135
602,358,39.1951,-13.392,0.000681427,0.000486094,0.000319494,0.000917849,0.000249672,0.637064,0.000547975,0.0155418,1826,666,39.195,13.392
609,358,39.0811,-12.4124,0.00104045,0.000858578,0.000558261,0.00151513,0.000383893,0.704663,0.000909541,0.0204341,1833,666,39.081,12.4124
616,358,39.0459,-11.4617,0.00136811,0.0012919,0.000792658,0.00212357,0.000536427,0.76138,0.00127509,0.0182269,1840,666,39.0459,11.4617
623,358,39.0714,-10.5175,0.00175654,0.00176584,0.00107761,0.0028388,0.000683569,0.787555,0.00171082,0.0147954,1847,666,39.0715,10.5175
630,358,38.986,-9.57117,0.00207045,0.00231767,0.00136104,0.0035607,0.000827421,0.830683,0.00215169,0.0180851,1854,666,38.986,9.57117
637,358,38.8834,-8.61829,0.00228027,0.0028786,0.00158525,0.00419266,0.000966199,0.87866,0.00253518,0.0243434,1861,666,38.8835,8.61828
644,358,38.8468,-7.65912,0.0024173,0.00357854,0.00181032,0.00489907,0.00109677,0.94058,0.00296877,0.0195962,1868,666,38.8468,7.6591
651,358,38.9084,-6.63049,0,0,0,0,0,0,0,-1,1875,666,38.9084,6.6305
658,358,38.6586,-5.3609,0,0,0,0,0,0,0,-1,1882,666,38.6586,5.36092
665,358,28.0272,-2.07764,0,0,0,0,0,0,0,-1,1889,666,28.0272,2.07764
672,358,12.4299,1.47272,0,0,0,0,0,0,0,-1,1896,666,12.4299,-1.4727
679,358,12.1294,2.19702,0,0,0,0,0,0,0,-1,1903,666,12.1294,-2.19703
686,358,11.9557,2.2002,0,0,0,0,0,0,0,-1,1910,666,11.9557,-2.20021
693,358,13.188,2.52203,0,0,0,0,0,0,0,-1,1917,666,13.188,-2.52202
700,358,0,0,0,0,0,0,0,0,0,-1,1924,666,0,0
707,358,0,0,0,0,0,0,0,0,0,-1,1931,666,0,0
714,358,0,0,0,0,0,0,0,0,0,-1,1938,666,0,0
721,358,0,0,0,0,0,0,0,0,0,-1,1945,666,0,0
728,358,0,0,0,0,0,0,0,0,0,-1,1952,666,0,0
735,358,0,0,0,0,0,0,0,0,0,-1,1959,666,0,0
742,358,0,0,0,0,0,0,0,0,0,-1,1966,666,0,0
749,358,0,0,0,0,0,0,0,0,0,-1,1973,666,0,0
756,358,0,0,0,0,0,0,0,0,0,-1,1980,666,0,0
763,358,0,0,0,0,0,0,0,0,0,-1,1987,666,0,0
770,358,0,0,0,0,0,0,0,0,0,-1,1994,666,0,0
777,358,0,0,0,0,0,0,0,0,0,-1,2001,666,0,0
784,358,0,0,0,0,0,0,0,0,0,-1,2008,666,0,0
791,358,0,0,0,0,0,0,0,0,0,-1,2015,666,0,0
798,358,0,0,0,0,0,0,0,0,0,-1,2022,666,0,0
805,358,0,0,0,0,0,0,0,0,0,-1,2029,666,0,0
812,358,0,0,0,0,0,0,0,0,0,-1,2036,666,0,0
-700,351,0,0,0,0,0,0,0,0,0,-1,524,673,0,0
-693,351,0,0,0,0,0,0,0,0,0,-1,531,673,0,0
-686,351,0,0,0,0,0,0,0,0,0,-1,538,673,0,0
-679,351,0,0,0,0,0,0,0,0,0,-1,545,673,0,0
-672,351,0,0,0,0,0,0,0,0,0,-1,552,673,0,0
-665,351,0,0,0,0,0,0,0,0,0,-1,559,673,0,0
-658,351,0,0,0,0,0,0,0,0,0,-1,566,673,0,0
-651,351,0,0,0,0,0,0,0,0,0,-1,573,673,0,0
-644,351,0,0,0,0,0,0,0,0,0,-1,580,673,0,0
-637,351,0,0,0,0,0,0,0,0,0,-1,587,673,0,0
-630,351,0,0,0,0,0,0,0,0,0,-1,594,673,0,0
-623,351,0,0,0,0,0,0,0,0,0,-1,601,673,0,0
-616,351,0,0,0,0,0,0,0,0,0,-1,608,673,0,0
-609,351,0,0,0,0,0,0,0,0,0,-1,615,673,0,0
-602,351,0,0,0,0,0,0,0,0,0,-1,622,673,0,0
-595,351,0,0,0,0,0,0,0,0,0,-1,629,673,0,0
-588,351,0,0,0,0,0,0,0,0,0,-1,636,673,0,0
-581,351,-9.0647,1.71906,0,0,0,0,0,0,0,-1,643,673,-9.06472,-1.71908
-574,351,-8.23584,2.64764,0,0,0,0,0,0,0,-1,650,673,-8.23584,-2.64764
-567,351,-10.8027,4.56836,0,0,0,0,0,0,0,-1,657,673,-10.8027,-4.56839
-560,351,-14.2001,2.17084,0,0,0,0,0,0,0,-1,664,673,-14.2002,-2.17086
-553,351,-13.4979,0.779541,0,0,0,0,0,0,0,-1,671,673,-13.4978,-0.779519
-546,351,-14.0065,0.73645,0,0,0,0,0,0,0,-1,678,673,-14.0065,-0.736473
-539,351,-12.8123,-1.46393,0,0,0,0,0,0,0,-1,685,673,-12.8123,1.46395
-532,351,-16.0198,-4.03937,0,0,0,0,0,0,0,-1,692,673,-16.0198,4.03936
-525,351,-23.975,-6.76746,0,0,0,0,0,0,0,-1,699,673,-23.975,6.76743
-518,351,-23.9609,-7.73511,0.00299139,0.00126767,-0.00144638,0.00381323,0.000445834,-0.516708,0.00240734,0.0230271,706,673,-23.9609,7.73511
-511,351,-23.9884,-8.75555,0.00245866,0.000683228,-0.0008298,0.0027861,0.000355787,-0.375845,0.0017509,0.0123743,713,673,-23.9884,8.75558
-504,351,-24.0558,-9.72498,0.00206087,0.000359181,-0.000486289,0.00219003,0.000230018,-0.259614,0.00138971,0.0118634,720,673,-24.0558,9.72495
-497,351,-24.1233,-10.7374,0.00178809,0.000124897,-0.000267468,0.00183005,8.29419e-05,-0.155591,0.00119335,0.0112567,727,673,-24.1233,10.7374
-490,351,-24.1885,-11.7185,0.00162461,3.21088e-05,-0.000194499,0.00164802,8.69791e-06,-0.119789,0.00109579,0.0106671,734,673,-24.1885,11.7185
-483,351,-24.2355,-12.6595,0.00161148,3.98205e-05,-0.000273373,0.00165767,-6.37193e-06,-0.167391,0.00110725,0.013094,741,673,-24.2355,12.6595
-476,351,-24.3033,-13.6204,0.00172563,0.000130922,-0.000479415,0.00185866,-2.10723e-06,-0.270672,0.00123981,0.0125021,748,673,-24.3033,13.6204
-469,351,-24.3419,-14.5772,0.00198699,0.000276814,-0.000818677,0.00231571,-5.19092e-05,-0.381824,0.0015614,0.0145008,755,673,-24.3419,14.5772
-462,351,-24.3841,-15.634,0.00241451,0.000558412,-0.00127531,0.0030637,-9.07762e-05,-0.470858,0.00207339,0.0413324,762,673,-24.3841,15.634
-455,351,-24.3588,-16.7448,0,0,0,0,0,0,0,-1,769,673,-24.3588,16.7447
-448,351,-6.61456,-4.38654,0,0,0,0,0,0,0,-1,776,673,-6.61456,4.38654
-441,351,-4.31567,-2.3009,0,0,0,0,0,0,0,-1,783,673,-4.31565,2.30089
-434,351,-3.81708,-2.28003,0,0,0,0,0,0,0,-1,790,673,-3.81706,2.28006
-427,351,-2.05157,-2.7785,0,0,0,0,0,0,0,-1,797,673,-2.05157,2.77848
-420,351,-1.06989,-2.43665,0,0,0,0,0,0,0,-1,804,673,-1.06991,2.43663
-413,351,-0.392334,-2.06671,0,0,0,0,0,0,0,-1,811,673,-0.392363,2.06672
-406,351,-1.86316,-2.58105,0,0,0,0,0,0,0,-1,818,673,-1.86313,2.58106
-399,351,1.00952,-1.53455,0,0,0,0,0,0,0,-1,825,673,1.00954,1.53457
-392,351,-1.02197,0.877136,0,0,0,0,0,0,0,-1,832,673,-1.02195,-0.877143
-385,351,-1.47205,1.04437,0,0,0,0,0,0,0,-1,839,673,-1.47207,-1.04435
-378,351,0,0,0,0,0,0,0,0,0,-1,846,673,0,0
-371,351,0,0,0,0,0,0,0,0,0,-1,853,673,0,0
-364,351,0,0,0,0,0,0,0,0,0,-1,860,673,0,0
-357,351,0,0,0,0,0,0,0,0,0,-1,867,673,0,0
-350,351,0,0,0,0,0,0,0,0,0,-1,874,673,0,0
-343,351,0,0,0,0,0,0,0,0,0,-1,881,673,0,0
-336,351,0,0,0,0,0,0,0,0,0,-1,888,673,0,0
-329,351,0,0,0,0,0,0,0,0,0,-1,895,673,0,0
-322,351,0,0,0,0,0,0,0,0,0,-1,902,673,0,0
-315,351,0,0,0,0,0,0,0,0,0,-1,909,673,0,0
-308,351,0,0,0,0,0,0,0,0,0,-1,916,673,0,0
-301,351,0,0,0,0,0,0,0,0,0,-1,923,673,0,0
-294,351,0,0,0,0,0,0,0,0,0,-1,930,673,0,0
-287,351,0,0,0,0,0,0,0,0,0,-1,937,673,0,0
-280,351,0,0,0,0,0,0,0,0,0,-1,944,673,0,0
-273,351,0,0,0,0,0,0,0,0,0,-1,951,673,0,0
-266,351,0,0,0,0,0,0,0,0,0,-1,958,673,0,0
-259,351,0,0,0,0,0,0,0,0,0,-1,965,673,0,0
-252,351,0,0,0,0,0,0,0,0,0,-1,972,673,0,0
-245,351,0,0,0,0,0,0,0,0,0,-1,979,673,0,0
-238,351,0,0,0,0,0,0,0,0,0,-1,986,673,0,0
-231,351,0,0,0,0,0,0,0,0,0,-1,993,673,0,0
-224,351,0,0,0,0,0,0,0,0,0,-1,1000,673,0,0
-217,351,0,0,0,0,0,0,0,0,0,-1,1007,673,0,0
-210,351,0,0,0,0,0,0,0,0,0,-1,1014,673,0,0
-203,351,0,0,0,0,0,0,0,0,0,-1,1021,673,0,0
-196,351,0,0,0,0,0,0,0,0,0,-1,1028,673,0,0
-189,351,0,0,0,0,0,0,0,0,0,-1,1035,673,0,0
-182,351,0,0,0,0,0,0,0,0,0,-1,1042,673,0,0
-175,351,0,0,0,0,0,0,0,0,0,-1,1049,673,0,0
-168,351,0,0,0,0,0,0,0,0,0,-1,1056,673,0,0
-161,351,0,0,0,0,0,0,0,0,0,-1,1063,673,0,0
-154,351,0,0,0,0,0,0,0,0,0,-1,1070,673,0,0
-147,351,0,0,0,0,0,0,0,0,0,-1,1077,673,0,0
-140,351,0,0,0,0,0,0,0,0,0,-1,1084,673,0,0
-133,351,0,0,0,0,0,0,0,0,0,-1,1091,673,0,0
-126,351,0,0,0,0,0,0,0,0,0,-1,1098,673,0,0
-119,351,0,0,0,0,0,0,0,0,0,-1,1105,673,0,0
-112,351,0,0,0,0,0,0,0,0,0,-1,1112,673,0,0
-105,351,0,0,0,0,0,0,0,0,0,-1,1119,673,0,0
-98,351,0,0,0,0,0,0,0,0,0,-1,1126,673,0,0
-91,351,0,0,0,0,0,0,0,0,0,-1,1133,673,0,0
-84,351,0,0,0,0,0,0,0,0,0,-1,1140,673,0,0
-77,351,0,0,0,0,0,0,0,0,0,-1,1147,673,0,0
-70,351,0,0,0,0,0,0,0,0,0,-1,1154,673,0,0
-63,351,0,0,0,0,0,0,0,0,0,-1,1161,673,0,0
-56,351,0,0,0,0,0,0,0,0,0,-1,1168,673,0,0
-49,351,0,0,0,0,0,0,0,0,0,-1,1175,673,0,0
-42,351,0,0,0,0,0,0,0,0,0,-1,1182,673,0,0
-35,351,0,0,0,0,0,0,0,0,0,-1,1189,673,0,0
-28,351,0,0,0,0,0,0,0,0,0,-1,1196,673,0,0
-21,351,0,0,0,0,0,0,0,0,0,-1,1203,673,0,0
-14,351,0,0,0,0,0,0,0,0,0,-1,1210,673,0,0
-7,351,0,0,0,0,0,0,0,0,0,-1,1217,673,0,0
0,351,0,0,0,0,0,0,0,0,0,-1,1224,673,0,0
7,351,0,0,0,0,0,0,0,0,0,-1,1231,673,0,0
14,351,0,0,0,0,0,0,0,0,0,-1,1238,673,0,0
21,351,0,0,0,0,0,0,0,0,0,-1,1245,673,0,0
28,351,0,0,0,0,0,0,0,0,0,-1,1252,673,0,0
35,351,0,0,0,0,0,0,0,0,0,-1,1259,673,0,0
42,351,0,0,0,0,0,0,0,0,0,-1,1266,673,0,0
49,351,0,0,0,0,0,0,0,0,0,-1,1273,673,0,0
56,351,0,0,0,0,0,0,0,0,0,-1,1280,673,0,0
63,351,0,0,0,0,0,0,0,0,0,-1,1287,673,0,0
70,351,0,0,0,0,0,0,0,0,0,-1,1294,673,0,0
77,351,0,0,0,0,0,0,0,0,0,-1,1301,673,0,0
84,351,0,0,0,0,0,0,0,0,0,-1,1308,673,0,0
91,351,0,0,0,0,0,0,0,0,0,-1,1315,673,0,0
98,351,0,0,0,0,0,0,0,0,0,-1,1322,673,0,0
105,351,0,0,0,0,0,0,0,0,0,-1,1329,673,0,0
112,351,0,0,0,0,0,0,0,0,0,-1,1336,673,0,0
119,351,0,0,0,0,0,0,0,0,0,-1,1343,673,0,0
126,351,0,0,0,0,0,0,0,0,0,-1,1350,673,0,0
133,351,0,0,0,0,0,0,0,0,0,-1,1357,673,0,0
140,351,0,0,0,0,0,0,0,0,0,-1,1364,673,0,0
147,351,0,0,0,0,0,0,0,0,0,-1,1371,673,0,0
154,351,0,0,0,0,0,0,0,0,0,-1,1378,673,0,0
161,351,0,0,0,0,0,0,0,0,0,-1,1385,673,0,0
168,351,0,0,0,0,0,0,0,0,0,-1,1392,673,0,0
175,351,0,0,0,0,0,0,0,0,0,-1,1399,673,0,0
182,351,0,0,0,0,0,0,0,0,0,-1,1406,673,0,0
189,351,0,0,0,0,0,0,0,0,0,-1,1413,673,0,0
196,351,0,0,0,0,0,0,0,0,0,-1,1420,673,0,0
203,351,0,0,0,0,0,0,0,0,0,-1,1427,673,0,0
210,351,0,0,0,0,0,0,0,0,0,-1,1434,673,0,0
217,351,0,0,0,0,0,0,0,0,0,-1,1441,673,0,0
224,351,0,0,0,0,0,0,0,0,0,-1,1448,673,0,0
231,351,0,0,0,0,0,0,0,0,0,-1,1455,673,0,0
238,351,0,0,0,0,0,0,0,0,0,-1,1462,673,0,0
245,351,0,0,0,0,0,0,0,0,0,-1,1469,673,0,0
252,351,0,0,0,0,0,0,0,0,0,-1,1476,673,0,0
259,351,0,0,0,0,0,0,0,0,0,-1,1483,673,0,0
266,351,0,0,0,0,0,0,0,0,0,-1,1490,673,0,0
273,351,0,0,0,0,0,0,0,0,0,-1,1497,673,0,0
280,351,0,0,0,0,0,0,0,0,0,-1,1504,673,0,0
287,351,0,0,0,0,0,0,0,0,0,-1,1511,673,0,0
294,351,0,0,0,0,0,0,0,0,0,-1,1518,673,0,0
301,351,0,0,0,0,0,0,0,0,0,-1,1525,673,0,0
308,351,0,0,0,0,0,0,0,0,0,-1,1532,673,0,0
315,351,0,0,0,0,0,0,0,0,0,-1,1539,673,0,0
322,351,0,0,0,0,0,0,0,0,0,-1,1546,673,0,0
329,351,0,0,0,0,0,0,0,0,0,-1,1553,673,0,0
336,351,0,0,0,0,0,0,0,0,0,-1,1560,673,0,0
343,351,0,0,0,0,0,0,0,0,0,-1,1567,673,0,0
350,351,0,0,0,0,0,0,0,0,0,-1,1574,673,0,0
357,351,0,0,0,0,0,0,0,0,0,-1,1581,673,0,0
364,351,0,0,0,0,0,0,0,0,0,-1,1588,673,0,0
371,351,0,0,0,0,0,0,0,0,0,-1,1595,673,0,0
378,351,0,0,0,0,0,0,0,0,0,-1,1602,673,0,0
385,351,0,0,0,0,0,0,0,0,0,-1,1609,673,0,0
392,351,0,0,0,0,0,0,0,0,0,-1,1616,673,0,0
399,351,0,0,0,0,0,0,0,0,0,-1,1623,673,0,0
406,351,0,0,0,0,0,0,0,0,0,-1,1630,673,0,0
413,351,0,0,0,0,0,0,0,0,0,-1,1637,673,0,0
420,351,0,0,0,0,0,0,0,0,0,-1,1644,673,0,0
427,351,0,0,0,0,0,0,0,0,0,-1,1651,673,0,0
434,351,0,0,0,0,0,0,0,0,0,-1,1658,673,0,0
441,351,0,0,0,0,0,0,0,0,0,-1,1665,673,0,0
448,351,0,0,0,0,0,0,0,0,0,-1,1672,673,0,0
455,351,0,0,0,0,0,0,0,0,0,-1,1679,673,0,0
462,351,0,0,0,0,0,0,0,0,0,-1,1686,673,0,0
469,351,0,0,0,0,0,0,0,0,0,-1,1693,673,0,0
476,351,0,0,0,0,0,0,0,0,0,-1,1700,673,0,0
483,351,0,0,0,0,0,0,0,0,0,-1,1707,673,0,0
490,351,0,0,0,0,0,0,0,0,0,-1,1714,673,0,0
497,351,0,0,0,0,0,0,0,0,0,-1,1721,673,0,0
504,351,10.8842,1.61615,0,0,0,0,0,0,0,-1,1728,673,10.8842,-1.61618
511,351,15.4548,0.0236816,0,0,0,0,0,0,0,-1,1735,673,15.4549,-0.0236664
518,351,16.7448,2.49268,0,0,0,0,0,0,0,-1,1742,673,16.7448,-2.49269
525,351,16.0701,3.43225,0,0,0,0,0,0,0,-1,1749,673,16.07,-3.43227
532,351,32.3822,3.03021,0,0,0,0,0,0,0,-1,1756,673,32.3822,-3.03019
539,351,15.3387,3.54486,0,0,0,0,0,0,0,-1,1763,673,15.3387,-3.54485
546,351,13.9387,4.59357,0,0,0,0,0,0,0,-1,1770,673,13.9388,-4.59359
553,351,12.0682,2.02832,0,0,0,0,0,0,0,-1,1777,673,12.0683,-2.02831
560,351,12.0173,0.55304,0,0,0,0,0,0,0,-1,1784,673,12.0174,-0.553028
567,351,10.7827,0.130188,0,0,0,0,0,0,0,-1,1791,673,10.7827,-0.130183
574,351,13.405,-1.09204,0,0,0,0,0,0,0,-1,1798,673,13.405,1.09207
581,351,15.2351,-3.06049,0,0,0,0,0,0,0,-1,1805,673,15.2351,3.06046
588,351,40.1799,-15.4471,0,0,0,0,0,0,0,-1,1812,673,40.1799,15.4471
595,351,40.2385,-14.3941,0.000110742,1.086e-05,0.000154957,0.000223607,-0.000102006,0.62951,0.000192313,0.0414093,1819,673,40.2385,14.3941
602,351,40.2039,-13.3887,0.000486423,0.000256021,0.000253638,0.000649796,9.26475e-05,0.57223,0.000405855,0.0206463,1826,673,40.2038,13.3888
609,351,40.1621,-12.4667,0.000840539,0.000505348,0.000398868,0.00110559,0.000240296,0.586509,0.000671451,0.0200279,1833,673,40.1621,12.4667
616,351,40.0817,-11.4575,0.00111974,0.000787564,0.000559539,0.00153732,0.000369984,0.641124,0.000926513,0.0163123,1840,673,40.0817,11.4574
623,351,40.0648,-10.4818,0.00142167,0.00113465,0.000748437,0.00204023,0.000516087,0.690675,0.00122492,0.01598,1847,673,40.0648,10.4818
630,351,40.0002,-9.49976,0.00168039,0.00158107,0.000970418,0.00260242,0.000659041,0.759836,0.00156231,0.0259586,1854,673,40.0003,9.49976
637,351,39.9186,-8.51605,0.00187056,0.0020534,0.00115816,0.00312374,0.000800222,0.824783,0.00187361,0.0297419,1861,673,39.9186,8.51604
644,351,39.8311,-7.53864,0.00201012,0.00262152,0.00134048,0.00369072,0.000940926,0.897508,0.0022145,0.0205047,1868,673,39.831,7.53864
651,351,39.7845,-6.5246,0.00215636,0.00332906,0.00155291,0.00440263,0.00108279,0.965915,0.00264898,0.0176182,1875,673,39.7845,6.5246
658,351,39.6736,-5.49231,0.00219346,0.00409562,0.00166484,0.0050619,0.00122719,1.04491,0.003049,0.0474184,1882,673,39.6736,5.49234
665,351,39.2417,-4.36884,0,0,0,0,0,0,0,-1,1889,673,39.2417,4.36886
672,351,34.9646,-3.1748,0,0,0,0,0,0,0,-1,1896,673,34.9646,3.17482
679,351,14.1252,1.85681,0,0,0,0,0,0,0,-1,1903,673,14.1253,-1.85682
686,351,13.0294,2.1189,0,0,0,0,0,0,0,-1,1910,673,13.0294,-2.11892
693,351,13.5187,2.34595,0,0,0,0,0,0,0,-1,1917,673,13.5187,-2.34596
700,351,14.5629,-2.40173,0,0,0,0,0,0,0,-1,1924,673,14.5629,2.40172
707,351,0,0,0,0,0,0,0,0,0,-1,1931,673,0,0
714,351,0,0,0,0,0,0,0,0,0,-1,1938,673,0,0
721,351,0,0,0,0,0,0,0,0,0,-1,1945,673,0,0
728,351,0,0,0,0,0,0,0,0,0,-1,1952,673,0,0
735,351,0,0,0,0,0,0,0,0,0,-1,1959,673,0,0
742,351,0,0,0,0,0,0,0,0,0,-1,1966,673,0,0
749,351,0,0,0,0,0,0,0,0,0,-1,1973,673,0,0
756,351,0,0,0,0,0,0,0,0,0,-1,1980,673,0,0
763,351,0,0,0,0,0,0,0,0,0,-1,1987,673,0,0
770,351,0,0,0,0,0,0,0,0,0,-1,1994,673,0,0
777,351,0,0,0,0,0,0,0,0,0,-1,2001,673,0,0
784,351,0,0,0,0,0,0,0,0,0,-1,2008,673,0,0
791,351,0,0,0,0,0,0,0,0,0,-1,2015,673,0,0
798,351,0,0,0,0,0,0,0,0,0,-1,2022,673,0,0
805,351,0,0,0,0,0,0,0,0,0,-1,2029,673,0,0
812,351,0,0,0,0,0,0,0,0,0,-1,2036,673,0,0
-700,344,0,0,0,0,0,0,0,0,0,-1,524,680,0,0
-693,344,0,0,0,0,0,0,0,0,0,-1,531,680,0,0
-686,344,0,0,0,0,0,0,0,0,0,-1,538,680,0,0
-679,344,0,0,0,0,0,0,0,0,0,-1,545,680,0,0
-672,344,0,0,0,0,0,0,0,0,0,-1,552,680,0,0
-665,344,0,0,0,0,0,0,0,0,0,-1,559,680,0,0
-658,344,0,0,0,0,0,0,0,0,0,-1,566,680,0,0
-651,344,0,0,0,0,0,0,0,0,0,-1,573,680,0,0
-644,344,0,0,0,0,0,0,0,0,0,-1,580,680,0,0
-637,344,0,0,0,0,0,0,0,0,0,-1,587,680,0,0
-630,344,0,0,0,0,0,0,0,0,0,-1,594,680,0,0
-623,344,0,0,0,0,0,0,0,0,0,-1,601,680,0,0
-616,344,0,0,0,0,0,0,0,0,0,-1,608,680,0,0
-609,344,0,0,0,0,0,0,0,0,0,-1,615,680,0,0
-602,344,0,0,0,0,0,0,0,0,0,-1,622,680,0,0
-595,344,0,0,0,0,0,0,0,0,0,-1,629,680,0,0
-588,344,-9.27826,1.47302,0,0,0,0,0,0,0,-1,636,680,-9.27829,-1.473
-581,344,-10.0098,1.71753,0,0,0,0,0,0,0,-1,643,680,-10.0098,-1.7175
-574,344,-10.2208,3.04871,0,0,0,0,0,0,0,-1,650,680,-10.2208,-3.04869
-567,344,-14.3779,2.29016,0,0,0,0,0,0,0,-1,657,680,-14.3779,-2.29014
-560,344,-14.1238,1.8374,0,0,0,0,0,0,0,-1,664,680,-14.1238,-1.83743
-553,344,-14.7884,2.00116,0,0,0,0,0,0,0,-1,671,680,-14.7884,-2.00115
-546,344,-17.4192,0.157654,0,0,0,0,0,0,0,-1,678,680,-17.4192,-0.157635
-539,344,-17.2671,-2.75714,0,0,0,0,0,0,0,-1,685,680,-17.2671,2.75712
-532,344,-18.4417,-4.38605,0,0,0,0,0,0,0,-1,692,680,-18.4417,4.38603
-525,344,-24.8948,-6.80206,0,0,0,0,0,0,0,-1,699,680,-24.8948,6.80204
-518,344,-24.9622,-7.72986,0.00303516,0.00151934,-0.00153051,0.00398514,0.000569363,-0.555498,0.00248878,0.0204471,706,680,-24.9622,7.72988
-511,344,-25.0172,-8.69684,0.00245889,0.000805342,-0.000885537,0.00284361,0.000420616,-0.409852,0.00177225,0.016876,713,680,-25.0172,8.69686
-504,344,-25.0671,-9.69952,0.00202862,0.000334131,-0.000471933,0.00215119,0.000211559,-0.254108,0.00136907,0.0177272,720,680,-25.0671,9.69955
-497,344,-25.1088,-10.7059,0.00174108,1.1727e-05,-0.000199593,0.00176381,-1.101e-05,-0.113428,0.00117956,0.0159106,727,680,-25.1088,10.7059
-490,344,-25.1747,-11.6689,0.00157795,-0.000115227,-0.000109339,0.00158498,-0.000122259,-0.0642208,0.00109967,0.0151479,734,680,-25.1747,11.6689
-483,344,-25.1979,-12.6034,0.00156575,-9.06935e-05,-0.000191165,0.00158752,-0.000112469,-0.113421,0.00109776,0.0153991,741,680,-25.198,12.6034
-476,344,-25.2658,-13.5667,0.00168952,4.52328e-05,-0.000437902,0.00179887,-6.4116e-05,-0.244706,0.00122118,0.0152954,748,680,-25.2658,13.5666
-469,344,-25.2871,-14.6014,0.00194292,0.000262158,-0.000844382,0.00229385,-8.87712e-05,-0.393886,0.00155967,0.023315,755,680,-25.2871,14.6014
-462,344,-25.2637,-15.6857,0,0,0,0,0,0,0,-1,762,680,-25.2637,15.6858
-455,344,-12.1653,-7.99176,0,0,0,0,0,0,0,-1,769,680,-12.1653,7.99174
-448,344,-5.67657,-2.72864,0,0,0,0,0,0,0,-1,776,680,-5.6766,2.72863
-441,344,-5.09229,-2.34167,0,0,0,0,0,0,0,-1,783,680,-5.09229,2.34168
-434,344,-4.28778,-2.08807,0,0,0,0,0,0,0,-1,790,680,-4.28778,2.08809
-427,344,-3.06506,-1.45404,0,0,0,0,0,0,0,-1,797,680,-3.06505,1.45402
-420,344,-1.96582,-1.57574,0,0,0,0,0,0,0,-1,804,680,-1.96579,1.57574
-413,344,-0.817993,-1.4751,0,0,0,0,0,0,0,-1,811,680,-0.818017,1.47511
-406,344,-0.00714111,-1.25189,0,0,0,0,0,0,0,-1,818,680,-0.00714956,1.25191
-399,344,0.240051,-1.75769,0,0,0,0,0,0,0,-1,825,680,0.240079,1.75767
-392,344,1.11353,-2.05615,0,0,0,0,0,0,0,-1,832,680,1.11351,2.05616
-385,344,0,0,0,0,0,0,0,0,0,-1,839,680,0,0
-378,344,0,0,0,0,0,0,0,0,0,-1,846,680,0,0
-371,344,0,0,0,0,0,0,0,0,0,-1,853,680,0,0
-364,344,0,0,0,0,0,0,0,0,0,-1,860,680,0,0
-357,344,0,0,0,0,0,0,0,0,0,-1,867,680,0,0
-350,344,0,0,0,0,0,0,0,0,0,-1,874,680,0,0
-343,344,0,0,0,0,0,0,0,0,0,-1,881,680,0,0
-336,344,0,0,0,0,0,0,0,0,0,-1,888,680,0,0
-329,344,0,0,0,0,0,0,0,0,0,-1,895,680,0,0
-322,344,0,0,0,0,0,0,0,0,0,-1,902,680,0,0
-315,344,0,0,0,0,0,0,0,0,0,-1,909,680,0,0
-308,344,0,0,0,0,0,0,0,0,0,-1,916,680,0,0
-301,344,0,0,0,0,0,0,0,0,0,-1,923,680,0,0
-294,344,0,0,0,0,0,0,0,0,0,-1,930,680,0,0
-287,344,0,0,0,0,0,0,0,0,0,-1,937,680,0,0
-280,344,0,0,0,0,0,0,0,0,0,-1,944,680,0,0
-273,344,0,0,0,0,0,0,0,0,0,-1,951,680,0,0
-266,344,0,0,0,0,0,0,0,0,0,-1,958,680,0,0
-259,344,0,0,0,0,0,0,0,0,0,-1,965,680,0,0
-252,344,0,0,0,0,0,0,0,0,0,-1,972,680,0,0
-245,344,0,0,0,0,0,0,0,0,0,-1,979,680,0,0
-238,344,0,0,0,0,0,0,0,0,0,-1,986,680,0,0
-231,344,0,0,0,0,0,0,0,0,0,-1,993,680,0,0
-224,344,0,0,0,0,0,0,0,0,0,-1,1000,680,0,0
-217,344,0,0,0,0,0,0,0,0,0,-1,1007,680,0,0
-210,344,0,0,0,0,0,0,0,0,0,-1,1014,680,0,0
-203,344,0,0,0,0,0,0,0,0,0,-1,1021,680,0,0
-196,344,0,0,0,0,0,0,0,0,0,-1,1028,680,0,0
-189,344,0,0,0,0,0,0,0,0,0,-1,1035,680,0,0
-182,344,0,0,0,0,0,0,0,0,0,-1,1042,680,0,0
-175,344,0,0,0,0,0,0,0,0,0,-1,1049,680,0,0
-168,344,0,0,0,0,0,0,0,0,0,-1,1056,680,0,0
-161,344,0,0,0,0,0,0,0,0,0,-1,1063,680,0,0
-154,344,0,0,0,0,0,0,0,0,0,-1,1070,680,0,0
-147,344,0,0,0,0,0,0,0,0,0,-1,1077,680,0,0
-140,344,0,0,0,0,0,0,0,0,0,-1,1084,680,0,0
-133,344,0,0,0,0,0,0,0,0,0,-1,1091,680,0,0
-126,344,0,0,0,0,0,0,0,0,0,-1,1098,680,0,0
-119,344,0,0,0,0,0,0,0,0,0,-1,1105,680,0,0
-112,344,0,0,0,0,0,0,0,0,0,-1,1112,680,0,0
-105,344,0,0,0,0,0,0,0,0,0,-1,1119,680,0,0
-98,344,0,0,0,0,0,0,0,0,0,-1,1126,680,0,0
-91,344,0,0,0,0,0,0,0,0,0,-1,1133,680,0,0
-84,344,0,0,0,0,0,0,0,0,0,-1,1140,680,0,0
-77,344,0,0,0,0,0,0,0,0,0,-1,1147,680,0,0
-70,344,0,0,0,0,0,0,0,0,0,-1,1154,680,0,0
-63,344,0,0,0,0,0,0,0,0,0,-1,1161,680,0,0
-56,344,0,0,0,0,0,0,0,0,0,-1,1168,680,0,0
-49,344,0,0,0,0,0,0,0,0,0,-1,1175,680,0,0
-42,344,0,0,0,0,0,0,0,0,0,-1,1182,680,0,0
-35,344,0,0,0,0,0,0,0,0,0,-1,1189,680,0,0
-28,344,0,0,0,0,0,0,0,0,0,-1,1196,680,0,0
-21,344,0,0,0,0,0,0,0,0,0,-1,1203,680,0,0
-14,344,0,0,0,0,0,0,0,0,0,-1,1210,680,0,0
-7,344,0,0,0,0,0,0,0,0,0,-1,1217,680,0,0
0,344,0,0,0,0,0,0,0,0,0,-1,1224,680,0,0
7,344,0,0,0,0,0,0,0,0,0,-1,1231,680,0,0
14,344,0,0,0,0,0,0,0,0,0,-1,1238,680,0,0
21,344,0,0,0,0,0,0,0,0,0,-1,1245,680,0,0
28,344,0,0,0,0,0,0,0,0,0,-1,1252,680,0,0
35,344,0,0,0,0,0,0,0,0,0,-1,1259,680,0,0
42,344,0,0,0,0,0,0,0,0,0,-1,1266,680,0,0
49,344,0,0,0,0,0,0,0,0,0,-1,1273,680,0,0
56,344,0,0,0,0,0,0,0,0,0,-1,1280,680,0,0
63,344,0,0,0,0,0,0,0,0,0,-1,1287,680,0,0
70,344,0,0,0,0,0,0,0,0,0,-1,1294,680,0,0
77,344,0,0,0,0,0,0,0,0,0,-1,1301,680,0,0
84,344,0,0,0,0,0,0,0,0,0,-1,1308,680,0,0
91,344,0,0,0,0,0,0,0,0,0,-1,1315,680,0,0
98,344,0,0,0,0,0,0,0,0,0,-1,1322,680,0,0
105,344,0,0,0,0,0,0,0,0,0,-1,1329,680,0,0
112,344,0,0,0,0,0,0,0,0,0,-1,1336,680,0,0
119,344,0,0,0,0,0,0,0,0,0,-1,1343,680,0,0
126,344,0,0,0,0,0,0,0,0,0,-1,1350,680,0,0
133,344,0,0,0,0,0,0,0,0,0,-1,1357,680,0,0
140,344,0,0,0,0,0,0,0,0,0,-1,1364,680,0,0
147,344,0,0,0,0,0,0,0,0,0,-1,1371,680,0,0
154,344,0,0,0,0,0,0,0,0,0,-1,1378,680,0,0
161,344,0,0,0,0,0,0,0,0,0,-1,1385,680,0,0
168,344,0,0,0,0,0,0,0,0,0,-1,1392,680,0,0
175,344,0,0,0,0,0,0,0,0,0,-1,1399,680,0,0
182,344,0,0,0,0,0,0,0,0,0,-1,1406,680,0,0
189,344,0,0,0,0,0,0,0,0,0,-1,1413,680,0,0
196,344,0,0,0,0,0,0,0,0,0,-1,1420,680,0,0
203,344,0,0,0,0,0,0,0,0,0,-1,1427,680,0,0
210,344,0,0,0,0,0,0,0,0,0,-1,1434,680,0,0
217,344,0,0,0,0,0,0,0,0,0,-1,1441,680,0,0
224,344,0,0,0,0,0,0,0,0,0,-1,1448,680,0,0
231,344,0,0,0,0,0,0,0,0,0,-1,1455,680,0,0
238,344,0,0,0,0,0,0,0,0,0,-1,1462,680,0,0
245,344,0,0,0,0,0,0,0,0,0,-1,1469,680,0,0
252,344,0,0,0,0,0,0,0,0,0,-1,1476,680,0,0
259,344,0,0,0,0,0,0,0,0,0,-1,1483,680,0,0
266,344,0,0,0,0,0,0,0,0,0,-1,1490,680,0,0
273,344,0,0,0,0,0,0,0,0,0,-1,1497,680,0,0
280,344,0,0,0,0,0,0,0,0,0,-1,1504,680,0,0
287,344,0,0,0,0,0,0,0,0,0,-1,1511,680,0,0
294,344,0,0,0,0,0,0,0,0,0,-1,1518,680,0,0
301,344,0,0,0,0,0,0,0,0,0,-1,1525,680,0,0
308,344,0,0,0,0,0,0,0,0,0,-1,1532,680,0,0
315,344,0,0,0,0,0,0,0,0,0,-1,1539,680,0,0
322,344,0,0,0,0,0,0,0,0,0,-1,1546,680,0,0
329,344,0,0,0,0,0,0,0,0,0,-1,1553,680,0,0
336,344,0,0,0,0,0,0,0,0,0,-1,1560,680,0,0
343,344,0,0,0,0,0,0,0,0,0,-1,1567,680,0,0
350,344,0,0,0,0,0,0,0,0,0,-1,1574,680,0,0
357,344,0,0,0,0,0,0,0,0,0,-1,1581,680,0,0
364,344,0,0,0,0,0,0,0,0,0,-1,1588,680,0,0
371,344,0,0,0,0,0,0,0,0,0,-1,1595,680,0,0
378,344,0,0,0,0,0,0,0,0,0,-1,1602,680,0,0
385,344,0,0,0,0,0,0,0,0,0,-1,1609,680,0,0
392,344,0,0,0,0,0,0,0,0,0,-1,1616,680,0,0
399,344,0,0,0,0,0,0,0,0,0,-1,1623,680,0,0
406,344,0,0,0,0,0,0,0,0,0,-1,1630,680,0,0
413,344,0,0,0,0,0,0,0,0,0,-1,1637,680,0,0
420,344,0,0,0,0,0,0,0,0,0,-1,1644,680,0,0
427,344,0,0,0,0,0,0,0,0,0,-1,1651,680,0,0
434,344,0,0,0,0,0,0,0,0,0,-1,1658,680,0,0
441,344,0,0,0,0,0,0,0,0,0,-1,1665,680,0,0
448,344,0,0,0,0,0,0,0,0,0,-1,1672,680,0,0
455,344,0,0,0,0,0,0,0,0,0,-1,1679,680,0,0
462,344,0,0,0,0,0,0,0,0,0,-1,1686,680,0,0
469,344,0,0,0,0,0,0,0,0,0,-1,1693,680,0,0
476,344,0,0,0,0,0,0,0,0,0,-1,1700,680,0,0
483,344,0,0,0,0,0,0,0,0,0,-1,1707,680,0,0
490,344,0,0,0,0,0,0,0,0,0,-1,1714,680,0,0
497,344,0,0,0,0,0,0,0,0,0,-1,1721,680,0,0
504,344,0,0,0,0,0,0,0,0,0,-1,1728,680,0,0
511,344,15.4819,0.452637,0,0,0,0,0,0,0,-1,1735,680,15.4819,-0.452656
518,344,17.1357,2.31207,0,0,0,0,0,0,0,-1,1742,680,17.1358,-2.31207
525,344,31.5201,2.6217,0,0,0,0,0,0,0,-1,1749,680,31.5201,-2.62168
532,344,31.9766,2.61047,0,0,0,0,0,0,0,-1,1756,680,31.9765,-2.6105
539,344,32.4379,2.65314,0,0,0,0,0,0,0,-1,1763,680,32.4378,-2.65316
546,344,14.6722,4.30243,0,0,0,0,0,0,0,-1,1770,680,14.6722,-4.30241
553,344,14.8136,4.35681,0,0,0,0,0,0,0,-1,1777,680,14.8136,-4.35679
560,344,11.9363,2.14185,0,0,0,0,0,0,0,-1,1784,680,11.9362,-2.14182
567,344,11.397,0.925842,0,0,0,0,0,0,0,-1,1791,680,11.397,-0.92583
574,344,10.0004,0.504639,0,0,0,0,0,0,0,-1,1798,680,10.0004,-0.504645
581,344,13.6709,-0.969604,0,0,0,0,0,0,0,-1,1805,680,13.6709,0.969629
588,344,16.1447,-3.15948,0,0,0,0,0,0,0,-1,1812,680,16.1447,3.15946
595,344,41.1775,-14.353,0,0,0,0,0,0,0,-1,1819,680,41.1775,14.353
602,344,41.2887,-13.2969,0.000318005,0.000113066,0.000228756,0.000466194,-3.51227e-05,0.574827,0.00032314,0.0340761,1826,680,41.2887,13.2969
609,344,41.1587,-12.3756,0.000755606,0.000242788,0.000355489,0.00093751,6.08844e-05,0.472963,0.000605732,0.01802,1833,680,41.1586,12.3756
616,344,41.0494,-11.3964,0.00102285,0.000389782,0.000496749,0.00129535,0.000117289,0.501731,0.000827244,0.0237194,1840,680,41.0494,11.3964
623,344,41.0449,-10.4102,0.00124917,0.000638748,0.000623439,0.0016381,0.000249821,0.557766,0.00101905,0.0212336,1847,680,41.0449,10.4102
630,344,40.9976,-9.44861,0.00146423,0.000998754,0.000801998,0.00206658,0.000396406,0.644179,0.00126643,0.0276855,1854,680,40.9975,9.44862
637,344,40.9182,-8.45789,0.00163961,0.00141044,0.000963414,0.00249523,0.00055482,0.726206,0.00151285,0.0261063,1861,680,40.9182,8.4579
644,344,40.8417,-7.4751,0.00178763,0.00189749,0.00111722,0.00296112,0.000723993,0.809961,0.00178246,0.0171851,1868,680,40.8416,7.4751
651,344,40.754,-6.48969,0.00197478,0.00254332,0.00131016,0.0035997,0.000918401,0.892229,0.00215977,0.0122863,1875,680,40.7541,6.48967
658,344,40.6869,-5.41083,0.00214683,0.00329605,0.00147509,0.00430449,0.00113838,0.971127,0.00257548,0.0285572,1882,680,40.6869,5.41083
665,344,40.4854,-4.45581,0.00264887,0.00424085,0.00178391,0.0053983,0.00149142,0.995246,0.00321903,0.0483958,1889,680,40.4854,4.45582
672,344,40.5367,-3.55212,0,0,0,0,0,0,0,-1,1896,680,40.5367,3.55213
679,344,36.7468,-2.59857,0,0,0,0,0,0,0,-1,1903,680,36.7468,2.59857
686,344,15.024,1.82709,0,0,0,0,0,0,0,-1,1910,680,15.024,-1.82706
693,344,12.4362,-1.42346,0,0,0,0,0,0,0,-1,1917,680,12.4361,1.42348
700,344,17.5396,2.61206,0,0,0,0,0,0,0,-1,1924,680,17.5396,-2.61204
707,344,18.5829,3.29352,0,0,0,0,0,0,0,-1,1931,680,18.5828,-3.2935
714,344,0,0,0,0,0,0,0,0,0,-1,1938,680,0,0
721,344,0,0,0,0,0,0,0,0,0,-1,1945,680,0,0
728,344,0,0,0,0,0,0,0,0,0,-1,1952,680,0,0
735,344,0,0,0,0,0,0,0,0,0,-1,1959,680,0,0
742,344,0,0,0,0,0,0,0,0,0,-1,1966,680,0,0
749,344,0,0,0,0,0,0,0,0,0,-1,1973,680,0,0
756,344,0,0,0,0,0,0,0,0,0,-1,1980,680,0,0
763,344,0,0,0,0,0,0,0,0,0,-1,1987,680,0,0
770,344,0,0,0,0,0,0,0,0,0,-1,1994,680,0,0
777,344,0,0,0,0,0,0,0,0,0,-1,2001,680,0,0
784,344,0,0,0,0,0,0,0,0,0,-1,2008,680,0,0
791,344,0,0,0,0,0,0,0,0,0,-1,2015,680,0,0
798,344,0,0,0,0,0,0,0,0,0,-1,2022,680,0,0
805,344,0,0,0,0,0,0,0,0,0,-1,2029,680,0,0
812,344,0,0,0,0,0,0,0,0,0,-1,2036,680,0,0
-700,337,0,0,0,0,0,0,0,0,0,-1,524,687,0,0
-693,337,0,0,0,0,0,0,0,0,0,-1,531,687,0,0
-686,337,0,0,0,0,0,0,0,0,0,-1,538,687,0,0
-679,337,0,0,0,0,0,0,0,0,0,-1,545,687,0,0
-672,337,0,0,0,0,0,0,0,0,0,-1,552,687,0,0
-665,337,0,0,0,0,0,0,0,0,0,-1,559,687,0,0
-658,337,0,0,0,0,0,0,0,0,0,-1,566,687,0,0
-651,337,0,0,0,0,0,0,0,0,0,-1,573,687,0,0
-644,337,0,0,0,0,0,0,0,0,0,-1,580,687,0,0
-637,337,0,0,0,0,0,0,0,0,0,-1,587,687,0,0
-630,337,0,0,0,0,0,0,0,0,0,-1,594,687,0,0
-623,337,0,0,0,0,0,0,0,0,0,-1,601,687,0,0
-616,337,0,0,0,0,0,0,0,0,0,-1,608,687,0,0
-609,337,0,0,0,0,0,0,0,0,0,-1,615,687,0,0
-602,337,0,0,0,0,0,0,0,0,0,-1,622,687,0,0
-595,337,0,0,0,0,0,0,0,0,0,-1,629,687,0,0
-588,337,-10.8413,1.27863,0,0,0,0,0,0,0,-1,636,687,-10.8413,-1.27861
-581,337,-11.2157,1.31567,0,0,0,0,0,0,0,-1,643,687,-11.2157,-1.3157
-574,337,-6.03339,2.0321,0,0,0,0,0,0,0,-1,650,687,-6.03337,-2.03213
-567,337,-13.8102,1.56787,0,0,0,0,0,0,0,-1,657,687,-13.8102,-1.56789
-560,337,-15.5435,2.34247,0,0,0,0,0,0,0,-1,664,687,-15.5435,-2.34247
-553,337,-18.0128,1.12927,0,0,0,0,0,0,0,-1,671,687,-18.0128,-1.12926
-546,337,-18.0244,-2.03845,0,0,0,0,0,0,0,-1,678,687,-18.0244,2.03846
-539,337,-19.2426,-3.53815,0,0,0,0,0,0,0,-1,685,687,-19.2426,3.53813
-532,337,-25.8641,-5.67792,0,0,0,0,0,0,0,-1,692,687,-25.8641,5.67792
-525,337,-25.905,-6.69696,0.00339744,0.00247997,-0.00230865,0.00529249,0.00058492,-0.687324,0.00335042,0.0236431,699,687,-25.905,6.69698
-518,337,-25.9317,-7.7113,0.00275051,0.00138869,-0.00143977,0.00366226,0.000476936,-0.56452,0.00229908,0.0240319,706,687,-25.9317,7.71129
-511,337,-25.9826,-8.67401,0.00228043,0.000608132,-0.000788066,0.00259328,0.000295284,-0.377901,0.00163931,0.0238654,713,687,-25.9826,8.67399
-504,337,-26.0345,-9.66907,0.00187755,3.88613e-05,-0.000296876,0.0019243,-7.88399e-06,-0.156175,0.0012855,0.0233795,720,687,-26.0346,9.66904
-497,337,-26.0944,-10.6636,0.00160403,-0.00034534,4.36078e-05,0.001605,-0.000346315,0.0223553,0.00120218,0.0172686,727,687,-26.0944,10.6637
-490,337,-26.1445,-11.6224,0.00147721,-0.000502535,0.000177382,0.00149298,-0.000518303,0.0886574,0.00120581,0.0159127,734,687,-26.1445,11.6224
-483,337,-26.1868,-12.5786,0.00148757,-0.000450844,0.00012144,0.00149515,-0.000458423,0.0623244,0.00117965,0.0167476,741,687,-26.1869,12.5786
-476,337,-26.2385,-13.5817,0.00164024,-0.000258272,-0.000153201,0.00165252,-0.000270555,-0.0800056,0.00120206,0.0193486,748,687,-26.2385,13.5817
-469,337,-26.2516,-14.6626,0,0,0,0,0,0,0,-1,755,687,-26.2516,14.6626
-462,337,-14.186,-8.89264,0,0,0,0,0,0,0,-1,762,687,-14.186,8.89266
-455,337,-6.00574,-3.12933,0,0,0,0,0,0,0,-1,769,687,-6.00576,3.12934
-448,337,-5.30627,-2.07202,0,0,0,0,0,0,0,-1,776,687,-5.30628,2.07205
-441,337,-4.24762,-1.49597,0,0,0,0,0,0,0,-1,783,687,-4.24762,1.49598
-434,337,-6.86908,1.37531,0,0,0,0,0,0,0,-1,790,687,-6.86908,-1.3753
-427,337,-9.92004,2.487,0,0,0,0,0,0,0,-1,797,687,-9.92002,-2.48701
-420,337,-2.95996,-1.76697,0,0,0,0,0,0,0,-1,804,687,-2.95998,1.76696
-413,337,-1.29169,-1.99487,0,0,0,0,0,0,0,-1,811,687,-1.29171,1.9949
-406,337,-1.02356,-1.89563,0,0,0,0,0,0,0,-1,818,687,-1.02357,1.89564
-399,337,-0.472839,-2.21338,0,0,0,0,0,0,0,-1,825,687,-0.472837,2.2134
-392,337,0,0,0,0,0,0,0,0,0,-1,832,687,0,0
-385,337,0,0,0,0,0,0,0,0,0,-1,839,687,0,0
-378,337,0,0,0,0,0,0,0,0,0,-1,846,687,0,0
-371,337,0,0,0,0,0,0,0,0,0,-1,853,687,0,0
-364,337,0,0,0,0,0,0,0,0,0,-1,860,687,0,0
-357,337,0,0,0,0,0,0,0,0,0,-1,867,687,0,0
-350,337,0,0,0,0,0,0,0,0,0,-1,874,687,0,0
-343,337,0,0,0,0,0,0,0,0,0,-1,881,687,0,0
-336,337,0,0,0,0,0,0,0,0,0,-1,888,687,0,0
-329,337,0,0,0,0,0,0,0,0,0,-1,895,687,0,0
-322,337,0,0,0,0,0,0,0,0,0,-1,902,687,0,0
-315,337,0,0,0,0,0,0,0,0,0,-1,909,687,0,0
-308,337,0,0,0,0,0,0,0,0,0,-1,916,687,0,0
-301,337,0,0,0,0,0,0,0,0,0,-1,923,687,0,0
-294,337,0,0,0,0,0,0,0,0,0,-1,930,687,0,0
-287,337,0,0,0,0,0,0,0,0,0,-1,937,687,0,0
-280,337,0,0,0,0,0,0,0,0,0,-1,944,687,0,0
-273,337,0,0,0,0,0,0,0,0,0,-1,951,687,0,0
-266,337,0,0,0,0,0,0,0,0,0,-1,958,687,0,0
-259,337,0,0,0,0,0,0,0,0,0,-1,965,687,0,0
-252,337,0,0,0,0,0,0,0,0,0,-1,972,687,0,0
-245,337,0,0,0,0,0,0,0,0,0,-1,979,687,0,0
-238,337,0,0,0,0,0,0,0,0,0,-1,986,687,0,0
-231,337,0,0,0,0,0,0,0,0,0,-1,993,687,0,0
-224,337,0,0,0,0,0,0,0,0,0,-1,1000,687,0,0
-217,337,0,0,0,0,0,0,0,0,0,-1,1007,687,0,0
-210,337,0,0,0,0,0,0,0,0,0,-1,1014,687,0,0
-203,337,0,0,0,0,0,0,0,0,0,-1,1021,687,0,0
-196,337,0,0,0,0,0,0,0,0,0,-1,1028,687,0,0
-189,337,0,0,0,0,0,0,0,0,0,-1,1035,687,0,0
-182,337,0,0,0,0,0,0,0,0,0,-1,1042,687,0,0
-175,337,0,0,0,0,0,0,0,0,0,-1,1049,687,0,0
-168,337,0,0,0,0,0,0,0,0,0,-1,1056,687,0,0
-161,337,0,0,0,0,0,0,0,0,0,-1,1063,687,0,0
-154,337,0,0,0,0,0,0,0,0,0,-1,1070,687,0,0
-147,337,0,0,0,0,0,0,0,0,0,-1,1077,687,0,0
-140,337,0,0,0,0,0,0,0,0,0,-1,1084,687,0,0
-133,337,0,0,0,0,0,0,0,0,0,-1,1091,687,0,0
-126,337,0,0,0,0,0,0,0,0,0,-1,1098,687,0,0
-119,337,0,0,0,0,0,0,0,0,0,-1,1105,687,0,0
-112,337,0,0,0,0,0,0,0,0,0,-1,1112,687,0,0
-105,337,0,0,0,0,0,0,0,0,0,-1,1119,687,0,0
-98,337,0,0,0,0,0,0,0,0,0,-1,1126,687,0,0
-91,337,0,0,0,0,0,0,0,0,0,-1,1133,687,0,0
-84,337,0,0,0,0,0,0,0,0,0,-1,1140,687,0,0
-77,337,0,0,0,0,0,0,0,0,0,-1,1147,687,0,0
-70,337,0,0,0,0,0,0,0,0,0,-1,1154,687,0,0
-63,337,0,0,0,0,0,0,0,0,0,-1,1161,687,0,0
-56,337,0,0,0,0,0,0,0,0,0,-1,1168,687,0,0
-49,337,0,0,0,0,0,0,0,0,0,-1,1175,687,0,0
-42,337,0,0,0,0,0,0,0,0,0,-1,1182,687,0,0
-35,337,0,0,0,0,0,0,0,0,0,-1,1189,687,0,0
-28,337,0,0,0,0,0,0,0,0,0,-1,1196,687,0,0
-21,337,0,0,0,0,0,0,0,0,0,-1,1203,687,0,0
-14,337,0,0,0,0,0,0,0,0,0,-1,1210,687,0,0
-7,337,0,0,0,0,0,0,0,0,0,-1,1217,687,0,0
0,337,0,0,0,0,0,0,0,0,0,-1,1224,687,0,0
7,337,0,0,0,0,0,0,0,0,0,-1,1231,687,0,0
14,337,0,0,0,0,0,0,0,0,0,-1,1238,687,0,0
21,337,0,0,0,0,0,0,0,0,0,-1,1245,687,0,0
28,337,0,0,0,0,0,0,0,0,0,-1,1252,687,0,0
35,337,0,0,0,0,0,0,0,0,0,-1,1259,687,0,0
42,337,0,0,0,0,0,0,0,0,0,-1,1266,687,0,0
49,337,0,0,0,0,0,0,0,0,0,-1,1273,687,0,0
56,337,0,0,0,0,0,0,0,0,0,-1,1280,687,0,0
63,337,0,0,0,0,0,0,0,0,0,-1,1287,687,0,0
70,337,0,0,0,0,0,0,0,0,0,-1,1294,687,0,0
77,337,0,0,0,0,0,0,0,0,0,-1,1301,687,0,0
84,337,0,0,0,0,0,0,0,0,0,-1,1308,687,0,0
91,337,0,0,0,0,0,0,0,0,0,-1,1315,687,0,0
98,337,0,0,0,0,0,0,0,0,0,-1,1322,687,0,0
105,337,0,0,0,0,0,0,0,0,0,-1,1329,687,0,0
112,337,0,0,0,0,0,0,0,0,0,-1,1336,687,0,0
119,337,0,0,0,0,0,0,0,0,0,-1,1343,687,0,0
126,337,0,0,0,0,0,0,0,0,0,-1,1350,687,0,0
133,337,0,0,0,0,0,0,0,0,0,-1,1357,687,0,0
140,337,0,0,0,0,0,0,0,0,0,-1,1364,687,0,0
147,337,0,0,0,0,0,0,0,0,0,-1,1371,687,0,0
154,337,0,0,0,0,0,0,0,0,0,-1,1378,687,0,0
161,337,0,0,0,0,0,0,0,0,0,-1,1385,687,0,0
168,337,0,0,0,0,0,0,0,0,0,-1,1392,687,0,0
175,337,0,0,0,0,0,0,0,0,0,-1,1399,687,0,0
182,337,0,0,0,0,0,0,0,0,0,-1,1406,687,0,0
189,337,0,0,0,0,0,0,0,0,0,-1,1413,687,0,0
196,337,0,0,0,0,0,0,0,0,0,-1,1420,687,0,0
203,337,0,0,0,0,0,0,0,0,0,-1,1427,687,0,0
210,337,0,0,0,0,0,0,0,0,0,-1,1434,687,0,0
217,337,0,0,0,0,0,0,0,0,0,-1,1441,687,0,0
224,337,0,0,0,0,0,0,0,0,0,-1,1448,687,0,0
231,337,0,0,0,0,0,0,0,0,0,-1,1455,687,0,0
238,337,0,0,0,0,0,0,0,0,0,-1,1462,687,0,0
245,337,0,0,0,0,0,0,0,0,0,-1,1469,687,0,0
252,337,0,0,0,0,0,0,0,0,0,-1,1476,687,0,0
259,337,0,0,0,0,0,0,0,0,0,-1,1483,687,0,0
266,337,0,0,0,0,0,0,0,0,0,-1,1490,687,0,0
273,337,0,0,0,0,0,0,0,0,0,-1,1497,687,0,0
280,337,0,0,0,0,0,0,0,0,0,-1,1504,687,0,0
287,337,0,0,0,0,0,0,0,0,0,-1,1511,687,0,0
294,337,0,0,0,0,0,0,0,0,0,-1,1518,687,0,0
301,337,0,0,0,0,0,0,0,0,0,-1,1525,687,0,0
308,337,0,0,0,0,0,0,0,0,0,-1,1532,687,0,0
315,337,0,0,0,0,0,0,0,0,0,-1,1539,687,0,0
322,337,0,0,0,0,0,0,0,0,0,-1,1546,687,0,0
329,337,0,0,0,0,0,0,0,0,0,-1,1553,687,0,0
336,337,0,0,0,0,0,0,0,0,0,-1,1560,687,0,0
343,337,0,0,0,0,0,0,0,0,0,-1,1567,687,0,0
350,337,0,0,0,0,0,0,0,0,0,-1,1574,687,0,0
357,337,0,0,0,0,0,0,0,0,0,-1,1581,687,0,0
364,337,0,0,0,0,0,0,0,0,0,-1,1588,687,0,0
371,337,0,0,0,0,0,0,0,0,0,-1,1595,687,0,0
378,337,0,0,0,0,0,0,0,0,0,-1,1602,687,0,0
385,337,0,0,0,0,0,0,0,0,0,-1,1609,687,0,0
392,337,0,0,0,0,0,0,0,0,0,-1,1616,687,0,0
399,337,0,0,0,0,0,0,0,0,0,-1,1623,687,0,0
406,337,0,0,0,0,0,0,0,0,0,-1,1630,687,0,0
413,337,0,0,0,0,0,0,0,0,0,-1,1637,687,0,0
420,337,0,0,0,0,0,0,0,0,0,-1,1644,687,0,0
427,337,0,0,0,0,0,0,0,0,0,-1,1651,687,0,0
434,337,0,0,0,0,0,0,0,0,0,-1,1658,687,0,0
441,337,0,0,0,0,0,0,0,0,0,-1,1665,687,0,0
448,337,0,0,0,0,0,0,0,0,0,-1,1672,687,0,0
455,337,0,0,0,0,0,0,0,0,0,-1,1679,687,0,0
462,337,0,0,0,0,0,0,0,0,0,-1,1686,687,0,0
469,337,0,0,0,0,0,0,0,0,0,-1,1693,687,0,0
476,337,0,0,0,0,0,0,0,0,0,-1,1700,687,0,0
483,337,0,0,0,0,0,0,0,0,0,-1,1707,687,0,0
490,337,0,0,0,0,0,0,0,0,0,-1,1714,687,0,0
497,337,0,0,0,0,0,0,0,0,0,-1,1721,687,0,0
504,337,0,0,0,0,0,0,0,0,0,-1,1728,687,0,0
511,337,0,0,0,0,0,0,0,0,0,-1,1735,687,0,0
518,337,18.0369,1.64581,0,0,0,0,0,0,0,-1,1742,687,18.0368,-1.64581
525,337,31.0717,2.13745,0,0,0,0,0,0,0,-1,1749,687,31.0717,-2.13747
532,337,31.5126,2.13904,0,0,0,0,0,0,0,-1,1756,687,31.5125,-2.13905
539,337,31.9684,2.15594,0,0,0,0,0,0,0,-1,1763,687,31.9684,-2.15596
546,337,32.3584,1.43719,0,0,0,0,0,0,0,-1,1770,687,32.3585,-1.43722
553,337,32.1809,1.36395,0,0,0,0,0,0,0,-1,1777,687,32.181,-1.36396
560,337,18.4053,3.62793,0,0,0,0,0,0,0,-1,1784,687,18.4052,-3.6279
567,337,11.9288,1.38776,0,0,0,0,0,0,0,-1,1791,687,11.9288,-1.38777
574,337,10.704,1.19476,0,0,0,0,0,0,0,-1,1798,687,10.704,-1.19478
581,337,8.50427,0.561768,0,0,0,0,0,0,0,-1,1805,687,8.5043,-0.561754
588,337,8.5885,-0.0536499,0,0,0,0,0,0,0,-1,1812,687,8.58844,0.0536788
595,337,42.0762,-14.368,0,0,0,0,0,0,0,-1,1819,687,42.0762,14.368
602,337,42.2194,-13.2016,0.000423421,5.33606e-05,0.000329538,0.000616321,-0.00013954,0.529589,0.000464435,0.0444233,1826,687,42.2194,13.2016
609,337,42.1277,-12.2437,0.000844786,2.97396e-05,0.000407178,0.00101334,-0.000138818,0.392487,0.000726271,0.0236112,1833,687,42.1277,12.2437
616,337,42.0331,-11.2682,0.00104505,4.10668e-05,0.000533558,0.00127565,-0.000189526,0.407935,0.000920135,0.01889,1840,687,42.0331,11.2682
623,337,41.9669,-10.3293,0.0011548,0.000199867,0.000591096,0.00143718,-8.25151e-05,0.445671,0.000986774,0.0174621,1847,687,41.9669,10.3293
630,337,41.925,-9.37286,0.0013001,0.000482817,0.000717016,0.00171675,6.61719e-05,0.526394,0.00112309,0.0222546,1854,687,41.9251,9.37289
637,337,41.901,-8.39233,0.00143852,0.000851412,0.000850492,0.00204469,0.000245237,0.619221,0.00128918,0.0191258,1861,687,41.901,8.39235
644,337,41.8079,-7.37811,0.00159064,0.00131875,0.000998666,0.00246257,0.000446818,0.717752,0.0015149,0.0122628,1868,687,41.8079,7.37809
651,337,41.7063,-6.39282,0.00180427,0.00194629,0.00119515,0.00307254,0.000678024,0.81507,0.00186392,0.0113447,1875,687,41.7063,6.39281
658,337,41.6715,-5.4364,0.00207607,0.00271791,0.00143029,0.00386284,0.000931135,0.895757,0.00232778,0.013434,1882,687,41.6715,5.43638
665,337,41.6576,-4.47925,0.00265341,0.00369834,0.00182799,0.00507706,0.00127468,0.924594,0.00304993,0.0170565,1889,687,41.6576,4.47923
672,337,41.6868,-3.45337,0,0,0,0,0,0,0,-1,1896,687,41.6867,3.45338
679,337,41.4054,-2.90735,0,0,0,0,0,0,0,-1,1903,687,41.4054,2.90735
686,337,18.5614,1.68597,0,0,0,0,0,0,0,-1,1910,687,18.5614,-1.68598
693,337,16.5415,2.21411,0,0,0,0,0,0,0,-1,1917,687,16.5415,-2.2141
700,337,17.2661,2.44379,0,0,0,0,0,0,0,-1,1924,687,17.2661,-2.44378
707,337,17.3544,5.61853,0,0,0,0,0,0,0,-1,1931,687,17.3543,-5.61851
714,337,0,0,0,0,0,0,0,0,0,-1,1938,687,0,0
721,337,0,0,0,0,0,0,0,0,0,-1,1945,687,0,0
728,337,0,0,0,0,0,0,0,0,0,-1,1952,687,0,0
735,337,0,0,0,0,0,0,0,0,0,-1,1959,687,0,0
742,337,0,0,0,0,0,0,0,0,0,-1,1966,687,0,0
749,337,0,0,0,0,0,0,0,0,0,-1,1973,687,0,0
756,337,0,0,0,0,0,0,0,0,0,-1,1980,687,0,0
763,337,0,0,0,0,0,0,0,0,0,-1,1987,687,0,0
770,337,0,0,0,0,0,0,0,0,0,-1,1994,687,0,0
777,337,0,0,0,0,0,0,0,0,0,-1,2001,687,0,0
784,337,0,0,0,0,0,0,0,0,0,-1,2008,687,0,0
791,337,0,0,0,0,0,0,0,0,0,-1,2015,687,0,0
798,337,0,0,0,0,0,0,0,0,0,-1,2022,687,0,0
805,337,0,0,0,0,0,0,0,0,0,-1,2029,687,0,0
812,337,0,0,0,0,0,0,0,0,0,-1,2036,687,0,0
-700,330,0,0,0,0,0,0,0,0,0,-1,524,694,0,0
-693,330,0,0,0,0,0,0,0,0,0,-1,531,694,0,0
-686,330,0,0,0,0,0,0,0,0,0,-1,538,694,0,0
-679,330,0,0,0,0,0,0,0,0,0,-1,545,694,0,0
-672,330,0,0,0,0,0,0,0,0,0,-1,552,694,0,0
-665,330,0,0,0,0,0,0,0,0,0,-1,559,694,0,0
-658,330,0,0,0,0,0,0,0,0,0,-1,566,694,0,0
-651,330,0,0,0,0,0,0,0,0,0,-1,573,694,0,0
-644,330,0,0,0,0,0,0,0,0,0,-1,580,694,0,0
-637,330,0,0,0,0,0,0,0,0,0,-1,587,694,0,0
-630,330,0,0,0,0,0,0,0,0,0,-1,594,694,0,0
-623,330,0,0,0,0,0,0,0,0,0,-1,601,694,0,0
-616,330,0,0,0,0,0,0,0,0,0,-1,608,694,0,0
-609,330,0,0,0,0,0,0,0,0,0,-1,615,694,0,0
-602,330,0,0,0,0,0,0,0,0,0,-1,622,694,0,0
-595,330,-4.67883,1.65515,0,0,0,0,0,0,0,-1,629,694,-4.67881,-1.65515
-588,330,-8.5047,2.67346,0,0,0,0,0,0,0,-1,636,694,-8.50469,-2.67348
-581,330,-12.4227,0.947083,0,0,0,0,0,0,0,-1,643,694,-12.4227,-0.947109
-574,330,-9.02118,1.87952,0,0,0,0,0,0,0,-1,650,694,-9.02115,-1.87953
-567,330,-8.35577,0.909973,0,0,0,0,0,0,0,-1,657,694,-8.35575,-0.909945
-560,330,-13.1036,-0.584656,0,0,0,0,0,0,0,-1,664,694,-13.1035,0.584658
-553,330,-17.5484,-1.21545,0,0,0,0,0,0,0,-1,671,694,-17.5484,1.21547
-546,330,-26.5056,-3.34979,0,0,0,0,0,0,0,-1,678,694,-26.5056,3.34982
-539,330,-26.8576,-4.54517,0,0,0,0,0,0,0,-1,685,694,-26.8576,4.5452
-532,330,-26.8279,-5.60883,0.00355535,0.00333475,-0.00283564,0.00628284,0.000607261,-0.76596,0.00400153,0.0291575,692,694,-26.8279,5.60882
-525,330,-26.8208,-6.66785,0.00299924,0.00207193,-0.00195709,0.00454685,0.000524323,-0.669088,0.00287245,0.0116682,699,694,-26.8208,6.66788
-518,330,-26.8818,-7.62225,0.00249347,0.00108335,-0.00118399,0.00316643,0.000410391,-0.516846,0.00198832,0.0159549,706,694,-26.8818,7.62227
-511,330,-26.9542,-8.59857,0.00204095,0.000332742,-0.000573583,0.00221568,0.000158016,-0.295692,0.00142736,0.0216559,713,694,-26.9542,8.59857
-504,330,-27.0314,-9.58679,0.00160531,-0.000240484,-5.52538e-05,0.00160696,-0.000242137,-0.0298993,0.00116047,0.0194656,720,694,-27.0313,9.58681
-497,330,-27.0925,-10.5577,0.00130068,-0.000621885,0.000315058,0.00135099,-0.000672198,0.158358,0.0011898,0.0141635,727,694,-27.0924,10.5577
-490,330,-27.1045,-11.5436,0.00117067,-0.000773139,0.000476053,0.001281,-0.000883466,0.227733,0.00125666,0.0149819,734,694,-27.1045,11.5436
-483,330,-27.1544,-12.5297,0.00115979,-0.000678287,0.000465909,0.00127114,-0.000789638,0.234597,0.00120057,0.0163975,741,694,-27.1544,12.5297
-476,330,-27.1931,-13.5775,0,0,0,0,0,0,0,-1,748,694,-27.1931,13.5775
-469,330,-16.1478,-9.23303,0,0,0,0,0,0,0,-1,755,694,-16.1478,9.23301
-462,330,-7.26733,-3.84833,0,0,0,0,0,0,0,-1,762,694,-7.26731,3.84832
-455,330,-5.04254,-1.79303,0,0,0,0,0,0,0,-1,769,694,-5.04252,1.79305
-448,330,-4.89886,-1.66156,0,0,0,0,0,0,0,-1,776,694,-4.89886,1.66157
-441,330,-5.30676,-2.34045,0,0,0,0,0,0,0,-1,783,694,-5.30679,2.34048
-434,330,-7.20428,1.00024,0,0,0,0,0,0,0,-1,790,694,-7.20431,-1.00027
-427,330,-16.0428,2.89258,0,0,0,0,0,0,0,-1,797,694,-16.0428,-2.89259
-420,330,-29.0331,0.271606,0,0,0,0,0,0,0,-1,804,694,-29.0331,-0.27158
-413,330,-29.0896,0.56366,0,0,0,0,0,0,0,-1,811,694,-29.0896,-0.563671
-406,330,-1.65375,-1.74371,0,0,0,0,0,0,0,-1,818,694,-1.65375,1.74371
-399,330,0,0,0,0,0,0,0,0,0,-1,825,694,0,0
-392,330,0,0,0,0,0,0,0,0,0,-1,832,694,0,0
-385,330,0,0,0,0,0,0,0,0,0,-1,839,694,0,0
-378,330,0,0,0,0,0,0,0,0,0,-1,846,694,0,0
-371,330,0,0,0,0,0,0,0,0,0,-1,853,694,0,0
-364,330,0,0,0,0,0,0,0,0,0,-1,860,694,0,0
-357,330,0,0,0,0,0,0,0,0,0,-1,867,694,0,0
-350,330,0,0,0,0,0,0,0,0,0,-1,874,694,0,0
-343,330,0,0,0,0,0,0,0,0,0,-1,881,694,0,0
-336,330,0,0,0,0,0,0,0,0,0,-1,888,694,0,0
-329,330,0,0,0,0,0,0,0,0,0,-1,895,694,0,0
-322,330,0,0,0,0,0,0,0,0,0,-1,902,694,0,0
-315,330,0,0,0,0,0,0,0,0,0,-1,909,694,0,0
-308,330,0,0,0,0,0,0,0,0,0,-1,916,694,0,0
-301,330,0,0,0,0,0,0,0,0,0,-1,923,694,0,0
-294,330,0,0,0,0,0,0,0,0,0,-1,930,694,0,0
-287,330,0,0,0,0,0,0,0,0,0,-1,937,694,0,0
-280,330,0,0,0,0,0,0,0,0,0,-1,944,694,0,0
-273,330,0,0,0,0,0,0,0,0,0,-1,951,694,0,0
-266,330,0,0,0,0,0,0,0,0,0,-1,958,694,0,0
-259,330,0,0,0,0,0,0,0,0,0,-1,965,694,0,0
-252,330,0,0,0,0,0,0,0,0,0,-1,972,694,0,0
-245,330,0,0,0,0,0,0,0,0,0,-1,979,694,0,0
-238,330,0,0,0,0,0,0,0,0,0,-1,986,694,0,0
-231,330,0,0,0,0,0,0,0,0,0,-1,993,694,0,0
-224,330,0,0,0,0,0,0,0,0,0,-1,1000,694,0,0
-217,330,0,0,0,0,0,0,0,0,0,-1,1007,694,0,0
-210,330,0,0,0,0,0,0,0,0,0,-1,1014,694,0,0
-203,330,0,0,0,0,0,0,0,0,0,-1,1021,694,0,0
-196,330,0,0,0,0,0,0,0,0,0,-1,1028,694,0,0
-189,330,0,0,0,0,0,0,0,0,0,-1,1035,694,0,0
-182,330,0,0,0,0,0,0,0,0,0,-1,1042,694,0,0
-175,330,0,0,0,0,0,0,0,0,0,-1,1049,694,0,0
-168,330,0,0,0,0,0,0,0,0,0,-1,1056,694,0,0
-161,330,0,0,0,0,0,0,0,0,0,-1,1063,694,0,0
-154,330,0,0,0,0,0,0,0,0,0,-1,1070,694,0,0
-147,330,0,0,0,0,0,0,0,0,0,-1,1077,694,0,0
-140,330,0,0,0,0,0,0,0,0,0,-1,1084,694,0,0
-133,330,0,0,0,0,0,0,0,0,0,-1,1091,694,0,0
-126,330,0,0,0,0,0,0,0,0,0,-1,1098,694,0,0
-119,330,0,0,0,0,0,0,0,0,0,-1,1105,694,0,0
-112,330,0,0,0,0,0,0,0,0,0,-1,1112,694,0,0
-105,330,0,0,0,0,0,0,0,0,0,-1,1119,694,0,0
-98,330,0,0,0,0,0,0,0,0,0,-1,1126,694,0,0
-91,330,0,0,0,0,0,0,0,0,0,-1,1133,694,0,0
-84,330,0,0,0,0,0,0,0,0,0,-1,1140,694,0,0
-77,330,0,0,0,0,0,0,0,0,0,-1,1147,694,0,0
-70,330,0,0,0,0,0,0,0,0,0,-1,1154,694,0,0
-63,330,0,0,0,0,0,0,0,0,0,-1,1161,694,0,0
-56,330,0,0,0,0,0,0,0,0,0,-1,1168,694,0,0
-49,330,0,0,0,0,0,0,0,0,0,-1,1175,694,0,0
-42,330,0,0,0,0,0,0,0,0,0,-1,1182,694,0,0
-35,330,0,0,0,0,0,0,0,0,0,-1,1189,694,0,0
-28,330,0,0,0,0,0,0,0,0,0,-1,1196,694,0,0
-21,330,0,0,0,0,0,0,0,0,0,-1,1203,694,0,0
-14,330,0,0,0,0,0,0,0,0,0,-1,1210,694,0,0
-7,330,0,0,0,0,0,0,0,0,0,-1,1217,694,0,0
0,330,0,0,0,0,0,0,0,0,0,-1,1224,694,0,0
7,330,0,0,0,0,0,0,0,0,0,-1,1231,694,0,0
14,330,0,0,0,0,0,0,0,0,0,-1,1238,694,0,0
21,330,0,0,0,0,0,0,0,0,0,-1,1245,694,0,0
28,330,0,0,0,0,0,0,0,0,0,-1,1252,694,0,0
35,330,0,0,0,0,0,0,0,0,0,-1,1259,694,0,0
42,330,0,0,0,0,0,0,0,0,0,-1,1266,694,0,0
49,330,0,0,0,0,0,0,0,0,0,-1,1273,694,0,0
56,330,0,0,0,0,0,0,0,0,0,-1,1280,694,0,0
63,330,0,0,0,0,0,0,0,0,0,-1,1287,694,0,0
70,330,0,0,0,0,0,0,0,0,0,-1,1294,694,0,0
77,330,0,0,0,0,0,0,0,0,0,-1,1301,694,0,0
84,330,0,0,0,0,0,0,0,0,0,-1,1308,694,0,0
91,330,0,0,0,0,0,0,0,0,0,-1,1315,694,0,0
98,330,0,0,0,0,0,0,0,0,0,-1,1322,694,0,0
105,330,0,0,0,0,0,0,0,0,0,-1,1329,694,0,0
112,330,0,0,0,0,0,0,0,0,0,-1,1336,694,0,0
119,330,0,0,0,0,0,0,0,0,0,-1,1343,694,0,0
126,330,0,0,0,0,0,0,0,0,0,-1,1350,694,0,0
133,330,0,0,0,0,0,0,0,0,0,-1,1357,694,0,0
140,330,0,0,0,0,0,0,0,0,0,-1,1364,694,0,0
147,330,0,0,0,0,0,0,0,0,0,-1,1371,694,0,0
154,330,0,0,0,0,0,0,0,0,0,-1,1378,694,0,0
161,330,0,0,0,0,0,0,0,0,0,-1,1385,694,0,0
168,330,0,0,0,0,0,0,0,0,0,-1,1392,694,0,0
175,330,0,0,0,0,0,0,0,0,0,-1,1399,694,0,0
182,330,0,0,0,0,0,0,0,0,0,-1,1406,694,0,0
189,330,0,0,0,0,0,0,0,0,0,-1,1413,694,0,0
196,330,0,0,0,0,0,0,0,0,0,-1,1420,694,0,0
203,330,0,0,0,0,0,0,0,0,0,-1,1427,694,0,0
210,330,0,0,0,0,0,0,0,0,0,-1,1434,694,0,0
217,330,0,0,0,0,0,0,0,0,0,-1,1441,694,0,0
224,330,0,0,0,0,0,0,0,0,0,-1,1448,694,0,0
231,330,0,0,0,0,0,0,0,0,0,-1,1455,694,0,0
238,330,0,0,0,0,0,0,0,0,0,-1,1462,694,0,0
245,330,0,0,0,0,0,0,0,0,0,-1,1469,694,0,0
252,330,0,0,0,0,0,0,0,0,0,-1,1476,694,0,0
259,330,0,0,0,0,0,0,0,0,0,-1,1483,694,0,0
266,330,0,0,0,0,0,0,0,0,0,-1,1490,694,0,0
273,330,0,0,0,0,0,0,0,0,0,-1,1497,694,0,0
280,330,0,0,0,0,0,0,0,0,0,-1,1504,694,0,0
287,330,0,0,0,0,0,0,0,0,0,-1,1511,694,0,0
294,330,0,0,0,0,0,0,0,0,0,-1,1518,694,0,0
301,330,0,0,0,0,0,0,0,0,0,-1,1525,694,0,0
308,330,0,0,0,0,0,0,0,0,0,-1,1532,694,0,0
315,330,0,0,0,0,0,0,0,0,0,-1,1539,694,0,0
322,330,0,0,0,0,0,0,0,0,0,-1,1546,694,0,0
329,330,0,0,0,0,0,0,0,0,0,-1,1553,694,0,0
336,330,0,0,0,0,0,0,0,0,0,-1,1560,694,0,0
343,330,0,0,0,0,0,0,0,0,0,-1,1567,694,0,0
350,330,0,0,0,0,0,0,0,0,0,-1,1574,694,0,0
357,330,0,0,0,0,0,0,0,0,0,-1,1581,694,0,0
364,330,0,0,0,0,0,0,0,0,0,-1,1588,694,0,0
371,330,0,0,0,0,0,0,0,0,0,-1,1595,694,0,0
378,330,0,0,0,0,0,0,0,0,0,-1,1602,694,0,0
385,330,0,0,0,0,0,0,0,0,0,-1,1609,694,0,0
392,330,0,0,0,0,0,0,0,0,0,-1,1616,694,0,0
399,330,0,0,0,0,0,0,0,0,0,-1,1623,694,0,0
406,330,0,0,0,0,0,0,0,0,0,-1,1630,694,0,0
413,330,0,0,0,0,0,0,0,0,0,-1,1637,694,0,0
420,330,0,0,0,0,0,0,0,0,0,-1,1644,694,0,0
427,330,0,0,0,0,0,0,0,0,0,-1,1651,694,0,0
434,330,0,0,0,0,0,0,0,0,0,-1,1658,694,0,0
441,330,0,0,0,0,0,0,0,0,0,-1,1665,694,0,0
448,330,0,0,0,0,0,0,0,0,0,-1,1672,694,0,0
455,330,0,0,0,0,0,0,0,0,0,-1,1679,694,0,0
462,330,0,0,0,0,0,0,0,0,0,-1,1686,694,0,0
469,330,0,0,0,0,0,0,0,0,0,-1,1693,694,0,0
476,330,0,0,0,0,0,0,0,0,0,-1,1700,694,0,0
483,330,0,0,0,0,0,0,0,0,0,-1,1707,694,0,0
490,330,0,0,0,0,0,0,0,0,0,-1,1714,694,0,0
497,330,0,0,0,0,0,0,0,0,0,-1,1721,694,0,0
504,330,0,0,0,0,0,0,0,0,0,-1,1728,694,0,0
511,330,0,0,0,0,0,0,0,0,0,-1,1735,694,0,0
518,330,0,0,0,0,0,0,0,0,0,-1,1742,694,0,0
525,330,30.6694,0.69519,0,0,0,0,0,0,0,-1,1749,694,30.6694,-0.695206
532,330,30.9469,1.32501,0,0,0,0,0,0,0,-1,1756,694,30.9469,-1.32501
539,330,31.5155,1.62506,0,0,0,0,0,0,0,-1,1763,694,31.5155,-1.62507
546,330,31.4187,1.85651,0,0,0,0,0,0,0,-1,1770,694,31.4187,-1.85651
553,330,31.8452,1.81476,0,0,0,0,0,0,0,-1,1777,694,31.8452,-1.81475
560,330,32.2401,2.43225,0,0,0,0,0,0,0,-1,1784,694,32.2401,-2.43227
567,330,18.0321,3.98578,0,0,0,0,0,0,0,-1,1791,694,18.0321,-3.98576
574,330,12.0454,2.1662,0,0,0,0,0,0,0,-1,1798,694,12.0455,-2.16618
581,330,11.4215,4.50836,0,0,0,0,0,0,0,-1,1805,694,11.4215,-4.50837
588,330,6.45667,-0.0630493,0,0,0,0,0,0,0,-1,1812,694,6.45661,0.0630695
595,330,8.23193,-0.258484,0,0,0,0,0,0,0,-1,1819,694,8.23188,0.258459
602,330,42.9391,-13.3617,0,0,0,0,0,0,0,-1,1826,694,42.9391,13.3617
609,330,43.0333,-12.1988,0.00117081,-4.67697e-06,0.000627394,0.00144275,-0.000276623,0.409009,0.00106607,0.027704,1833,694,43.0333,12.1988
616,330,43.0193,-11.2162,0.00122657,-0.000135903,0.000698451,0.001521,-0.000430328,0.398937,0.00118381,0.01207,1840,694,43.0193,11.2162
623,330,42.9438,-10.2657,0.00117274,-5.74768e-05,0.000662342,0.00146154,-0.000346279,0.411178,0.00110797,0.0149191,1847,694,42.9439,10.2657
630,330,42.9238,-9.28839,0.00122615,0.00014642,0.000720551,0.00158665,-0.000214075,0.463891,0.00113587,0.0156808,1854,694,42.9239,9.28838
637,330,42.886,-8.29706,0.00131016,0.000467922,0.00080936,0.0018014,-2.33217e-05,0.545516,0.00120878,0.0147782,1861,694,42.886,8.29708
644,330,42.7681,-7.31061,0.00143579,0.000906863,0.000939618,0.00214746,0.000195201,0.648217,0.00137121,0.00980309,1868,694,42.7681,7.31061
651,330,42.702,-6.32129,0.00163066,0.00150687,0.00113383,0.00270429,0.000433249,0.758131,0.0016772,0.0135737,1875,694,42.702,6.3213
658,330,42.6384,-5.36017,0.00192422,0.00226326,0.00140293,0.00350688,0.000680607,0.845523,0.00214731,0.014212,1882,694,42.6384,5.36015
665,330,42.5591,-4.39099,0.00246395,0.00322367,0.00183617,0.00471887,0.000968757,0.887397,0.00287787,0.0124175,1889,694,42.5591,4.39096
672,330,42.623,-3.36377,0.0031874,0.00464951,0.00236834,0.00639706,0.00143985,0.935098,0.00387498,0.0409262,1896,694,42.623,3.3638
679,330,42.8112,-2.26019,0,0,0,0,0,0,0,-1,1903,694,42.8111,2.26018
686,330,30.6691,0.582825,0,0,0,0,0,0,0,-1,1910,694,30.6691,-0.582798
693,330,17.3999,2.5976,0,0,0,0,0,0,0,-1,1917,694,17.4,-2.59759
700,330,17.1072,4.13,0,0,0,0,0,0,0,-1,1924,694,17.1071,-4.13002
707,330,16.663,4.88672,0,0,0,0,0,0,0,-1,1931,694,16.6629,-4.88673
714,330,16.5454,5.80896,0,0,0,0,0,0,0,-1,1938,694,16.5454,-5.80899
721,330,0,0,0,0,0,0,0,0,0,-1,1945,694,0,0
728,330,0,0,0,0,0,0,0,0,0,-1,1952,694,0,0
735,330,0,0,0,0,0,0,0,0,0,-1,1959,694,0,0
742,330,0,0,0,0,0,0,0,0,0,-1,1966,694,0,0
749,330,0,0,0,0,0,0,0,0,0,-1,1973,694,0,0
756,330,0,0,0,0,0,0,0,0,0,-1,1980,694,0,0
763,330,0,0,0,0,0,0,0,0,0,-1,1987,694,0,0
770,330,0,0,0,0,0,0,0,0,0,-1,1994,694,0,0
777,330,0,0,0,0,0,0,0,0,0,-1,2001,694,0,0
784,330,0,0,0,0,0,0,0,0,0,-1,2008,694,0,0
791,330,0,0,0,0,0,0,0,0,0,-1,2015,694,0,0
798,330,0,0,0,0,0,0,0,0,0,-1,2022,694,0,0
805,330,0,0,0,0,0,0,0,0,0,-1,2029,694,0,0
812,330,0,0,0,0,0,0,0,0,0,-1,2036,694,0,0
-700,323,0,0,0,0,0,0,0,0,0,-1,524,701,0,0
-693,323,0,0,0,0,0,0,0,0,0,-1,531,701,0,0
-686,323,0,0,0,0,0,0,0,0,0,-1,538,701,0,0
-679,323,0,0,0,0,0,0,0,0,0,-1,545,701,0,0
-672,323,0,0,0,0,0,0,0,0,0,-1,552,701,0,0
-665,323,0,0,0,0,0,0,0,0,0,-1,559,701,0,0
-658,323,0,0,0,0,0,0,0,0,0,-1,566,701,0,0
-651,323,0,0,0,0,0,0,0,0,0,-1,573,701,0,0
-644,323,0,0,0,0,0,0,0,0,0,-1,580,701,0,0
-637,323,0,0,0,0,0,0,0,0,0,-1,587,701,0,0
-630,323,0,0,0,0,0,0,0,0,0,-1,594,701,0,0
-623,323,0,0,0,0,0,0,0,0,0,-1,601,701,0,0
-616,323,0,0,0,0,0,0,0,0,0,-1,608,701,0,0
-609,323,0,0,0,0,0,0,0,0,0,-1,615,701,0,0
-602,323,-4.15833,2.12256,0,0,0,0,0,0,0,-1,622,701,-4.1583,-2.12257
-595,323,-4.052,1.79156,0,0,0,0,0,0,0,-1,629,701,-4.05198,-1.79158
-588,323,-4.07019,1.94543,0,0,0,0,0,0,0,-1,636,701,-4.07019,-1.94542
-581,323,-6.63727,0.562805,0,0,0,0,0,0,0,-1,643,701,-6.63728,-0.56279
-574,323,-6.15887,0.426697,0,0,0,0,0,0,0,-1,650,701,-6.15887,-0.426727
-567,323,-10.0015,0.0371094,0,0,0,0,0,0,0,-1,657,701,-10.0015,-0.037126
-560,323,-16.3503,-1.16956,0,0,0,0,0,0,0,-1,664,701,-16.3503,1.16957
-553,323,-27.7361,-2.87329,0,0,0,0,0,0,0,-1,671,701,-27.7361,2.87327
-546,323,-27.6635,-3.65875,0,0,0,0,0,0,0,-1,678,701,-27.6635,3.65878
-539,323,-27.6338,-4.51752,0.00312671,0.0037687,-0.00298652,0.00645143,0.000443981,-0.838933,0.00416086,0.032562,685,701,-27.6338,4.51749
-532,323,-27.7379,-5.57361,0.00290765,0.0026205,-0.00224889,0.00501755,0.000510601,-0.75352,0.00318849,0.0130146,692,701,-27.7378,5.57363
-525,323,-27.8105,-6.58264,0.00252895,0.00160927,-0.00153146,0.00366812,0.000470104,-0.63955,0.00230475,0.00864898,699,701,-27.8105,6.58265
-518,323,-27.8662,-7.53369,0.00215089,0.000788174,-0.000886757,0.00258782,0.000351235,-0.457821,0.00162087,0.0108272,706,701,-27.8662,7.5337
-511,323,-27.9439,-8.51355,0.00168541,0.000116672,-0.000338149,0.00175519,4.68862e-05,-0.203518,0.00115482,0.0150048,713,701,-27.9439,8.51356
-504,323,-28.0345,-9.48438,0.0011749,-0.000424787,0.000172141,0.00119321,-0.000443101,0.105993,0.000977255,0.0158284,720,701,-28.0345,9.48438
-497,323,-28.0675,-10.4644,0.00078282,-0.000781142,0.000546787,0.000955025,-0.000953346,0.305105,0.0011018,0.0123094,727,701,-28.0675,10.4644
-490,323,-28.1111,-11.4438,0.000590139,-0.000935107,0.000727402,0.000881417,-0.00122639,0.380882,0.00122236,0.014344,734,701,-28.1111,11.4438
-483,323,-28.1518,-12.4324,0.0005106,-0.000790073,0.000765106,0.000864417,-0.00114389,0.433153,0.00116323,0.0339317,741,701,-28.1518,12.4324
-476,323,-28.238,-13.4174,0,0,0,0,0,0,0,-1,748,701,-28.238,13.4174
-469,323,-8.33301,-3.64001,0,0,0,0,0,0,0,-1,755,701,-8.33298,3.64
-462,323,-5.29431,-1.45697,0,0,0,0,0,0,0,-1,762,701,-5.29431,1.45699
-455,323,-5.0658,-1.36639,0,0,0,0,0,0,0,-1,769,701,-5.06578,1.3664
-448,323,-4.91608,-1.59601,0,0,0,0,0,0,0,-1,776,701,-4.91606,1.59604
-441,323,-14.4006,0.535217,0,0,0,0,0,0,0,-1,783,701,-14.4006,-0.535203
-434,323,-15.3158,2.479,0,0,0,0,0,0,0,-1,790,701,-15.3158,-2.47898
-427,323,-28.3923,1.16797,0,0,0,0,0,0,0,-1,797,701,-28.3923,-1.16796
-420,323,-28.7292,1.09302,0,0,0,0,0,0,0,-1,804,701,-28.7292,-1.09304
-413,323,-28.7955,1.22418,0,0,0,0,0,0,0,-1,811,701,-28.7956,-1.22419
-406,323,0,0,0,0,0,0,0,0,0,-1,818,701,0,0
-399,323,0,0,0,0,0,0,0,0,0,-1,825,701,0,0
-392,323,0,0,0,0,0,0,0,0,0,-1,832,701,0,0
-385,323,0,0,0,0,0,0,0,0,0,-1,839,701,0,0
-378,323,0,0,0,0,0,0,0,0,0,-1,846,701,0,0
-371,323,0,0,0,0,0,0,0,0,0,-1,853,701,0,0
-364,323,0,0,0,0,0,0,0,0,0,-1,860,701,0,0
-357,323,0,0,0,0,0,0,0,0,0,-1,867,701,0,0
-350,323,0,0,0,0,0,0,0,0,0,-1,874,701,0,0
-343,323,0,0,0,0,0,0,0,0,0,-1,881,701,0,0
-336,323,0,0,0,0,0,0,0,0,0,-1,888,701,0,0
-329,323,0,0,0,0,0,0,0,0,0,-1,895,701,0,0
-322,323,0,0,0,0,0,0,0,0,0,-1,902,701,0,0
-315,323,0,0,0,0,0,0,0,0,0,-1,909,701,0,0
-308,323,0,0,0,0,0,0,0,0,0,-1,916,701,0,0
-301,323,0,0,0,0,0,0,0,0,0,-1,923,701,0,0
-294,323,0,0,0,0,0,0,0,0,0,-1,930,701,0,0
-287,323,0,0,0,0,0,0,0,0,0,-1,937,701,0,0
-280,323,0,0,0,0,0,0,0,0,0,-1,944,701,0,0
-273,323,0,0,0,0,0,0,0,0,0,-1,951,701,0,0
-266,323,0,0,0,0,0,0,0,0,0,-1,958,701,0,0
-259,323,0,0,0,0,0,0,0,0,0,-1,965,701,0,0
-252,323,0,0,0,0,0,0,0,0,0,-1,972,701,0,0
-245,323,0,0,0,0,0,0,0,0,0,-1,979,701,0,0
-238,323,0,0,0,0,0,0,0,0,0,-1,986,701,0,0
-231,323,0,0,0,0,0,0,0,0,0,-1,993,701,0,0
-224,323,0,0,0,0,0,0,0,0,0,-1,1000,701,0,0
-217,323,0,0,0,0,0,0,0,0,0,-1,1007,701,0,0
-210,323,0,0,0,0,0,0,0,0,0,-1,1014,701,0,0
-203,323,0,0,0,0,0,0,0,0,0,-1,1021,701,0,0
-196,323,0,0,0,0,0,0,0,0,0,-1,1028,701,0,0
-189,323,0,0,0,0,0,0,0,0,0,-1,1035,701,0,0
-182,323,0,0,0,0,0,0,0,0,0,-1,1042,701,0,0
-175,323,0,0,0,0,0,0,0,0,0,-1,1049,701,0,0
-168,323,0,0,0,0,0,0,0,0,0,-1,1056,701,0,0
-161,323,0,0,0,0,0,0,0,0,0,-1,1063,701,0,0
-154,323,0,0,0,0,0,0,0,0,0,-1,1070,701,0,0
-147,323,0,0,0,0,0,0,0,0,0,-1,1077,701,0,0
-140,323,0,0,0,0,0,0,0,0,0,-1,1084,701,0,0
-133,323,0,0,0,0,0,0,0,0,0,-1,1091,701,0,0
-126,323,0,0,0,0,0,0,0,0,0,-1,1098,701,0,0
-119,323,0,0,0,0,0,0,0,0,0,-1,1105,701,0,0
-112,323,0,0,0,0,0,0,0,0,0,-1,1112,701,0,0
-105,323,0,0,0,0,0,0,0,0,0,-1,1119,701,0,0
-98,323,0,0,0,0,0,0,0,0,0,-1,1126,701,0,0
-91,323,0,0,0,0,0,0,0,0,0,-1,1133,701,0,0
-84,323,0,0,0,0,0,0,0,0,0,-1,1140,701,0,0
-77,323,0,0,0,0,0,0,0,0,0,-1,1147,701,0,0
-70,323,0,0,0,0,0,0,0,0,0,-1,1154,701,0,0
-63,323,0,0,0,0,0,0,0,0,0,-1,1161,701,0,0
-56,323,0,0,0,0,0,0,0,0,0,-1,1168,701,0,0
-49,323,0,0,0,0,0,0,0,0,0,-1,1175,701,0,0
-42,323,0,0,0,0,0,0,0,0,0,-1,1182,701,0,0
-35,323,0,0,0,0,0,0,0,0,0,-1,1189,701,0,0
-28,323,0,0,0,0,0,0,0,0,0,-1,1196,701,0,0
-21,323,0,0,0,0,0,0,0,0,0,-1,1203,701,0,0
-14,323,0,0,0,0,0,0,0,0,0,-1,1210,701,0,0
-7,323,0,0,0,0,0,0,0,0,0,-1,1217,701,0,0
0,323,0,0,0,0,0,0,0,0,0,-1,1224,701,0,0
7,323,0,0,0,0,0,0,0,0,0,-1,1231,701,0,0
14,323,0,0,0,0,0,0,0,0,0,-1,1238,701,0,0
21,323,0,0,0,0,0,0,0,0,0,-1,1245,701,0,0
28,323,0,0,0,0,0,0,0,0,0,-1,1252,701,0,0
35,323,0,0,0,0,0,0,0,0,0,-1,1259,701,0,0
42,323,0,0,0,0,0,0,0,0,0,-1,1266,701,0,0
49,323,0,0,0,0,0,0,0,0,0,-1,1273,701,0,0
56,323,0,0,0,0,0,0,0,0,0,-1,1280,701,0,0
63,323,0,0,0,0,0,0,0,0,0,-1,1287,701,0,0
70,323,0,0,0,0,0,0,0,0,0,-1,1294,701,0,0
77,323,0,0,0,0,0,0,0,0,0,-1,1301,701,0,0
84,323,0,0,0,0,0,0,0,0,0,-1,1308,701,0,0
91,323,0,0,0,0,0,0,0,0,0,-1,1315,701,0,0
98,323,0,0,0,0,0,0,0,0,0,-1,1322,701,0,0
105,323,0,0,0,0,0,0,0,0,0,-1,1329,701,0,0
112,323,0,0,0,0,0,0,0,0,0,-1,1336,701,0,0
119,323,0,0,0,0,0,0,0,0,0,-1,1343,701,0,0
126,323,0,0,0,0,0,0,0,0,0,-1,1350,701,0,0
133,323,0,0,0,0,0,0,0,0,0,-1,1357,701,0,0
140,323,0,0,0,0,0,0,0,0,0,-1,1364,701,0,0
147,323,0,0,0,0,0,0,0,0,0,-1,1371,701,0,0
154,323,0,0,0,0,0,0,0,0,0,-1,1378,701,0,0
161,323,0,0,0,0,0,0,0,0,0,-1,1385,701,0,0
168,323,0,0,0,0,0,0,0,0,0,-1,1392,701,0,0
175,323,0,0,0,0,0,0,0,0,0,-1,1399,701,0,0
182,323,0,0,0,0,0,0,0,0,0,-1,1406,701,0,0
189,323,0,0,0,0,0,0,0,0,0,-1,1413,701,0,0
196,323,0,0,0,0,0,0,0,0,0,-1,1420,701,0,0
203,323,0,0,0,0,0,0,0,0,0,-1,1427,701,0,0
210,323,0,0,0,0,0,0,0,0,0,-1,1434,701,0,0
217,323,0,0,0,0,0,0,0,0,0,-1,1441,701,0,0
224,323,0,0,0,0,0,0,0,0,0,-1,1448,701,0,0
231,323,0,0,0,0,0,0,0,0,0,-1,1455,701,0,0
238,323,0,0,0,0,0,0,0,0,0,-1,1462,701,0,0
245,323,0,0,0,0,0,0,0,0,0,-1,1469,701,0,0
252,323,0,0,0,0,0,0,0,0,0,-1,1476,701,0,0
259,323,0,0,0,0,0,0,0,0,0,-1,1483,701,0,0
266,323,0,0,0,0,0,0,0,0,0,-1,1490,701,0,0
273,323,0,0,0,0,0,0,0,0,0,-1,1497,701,0,0
280,323,0,0,0,0,0,0,0,0,0,-1,1504,701,0,0
287,323,0,0,0,0,0,0,0,0,0,-1,1511,701,0,0
294,323,0,0,0,0,0,0,0,0,0,-1,1518,701,0,0
301,323,0,0,0,0,0,0,0,0,0,-1,1525,701,0,0
308,323,0,0,0,0,0,0,0,0,0,-1,1532,701,0,0
315,323,0,0,0,0,0,0,0,0,0,-1,1539,701,0,0
322,323,0,0,0,0,0,0,0,0,0,-1,1546,701,0,0
329,323,0,0,0,0,0,0,0,0,0,-1,1553,701,0,0
336,323,0,0,0,0,0,0,0,0,0,-1,1560,701,0,0
343,323,0,0,0,0,0,0,0,0,0,-1,1567,701,0,0
350,323,0,0,0,0,0,0,0,0,0,-1,1574,701,0,0
357,323,0,0,0,0,0,0,0,0,0,-1,1581,701,0,0
364,323,0,0,0,0,0,0,0,0,0,-1,1588,701,0,0
371,323,0,0,0,0,0,0,0,0,0,-1,1595,701,0,0
378,323,0,0,0,0,0,0,0,0,0,-1,1602,701,0,0
385,323,0,0,0,0,0,0,0,0,0,-1,1609,701,0,0
392,323,0,0,0,0,0,0,0,0,0,-1,1616,701,0,0
399,323,0,0,0,0,0,0,0,0,0,-1,1623,701,0,0
406,323,0,0,0,0,0,0,0,0,0,-1,1630,701,0,0
413,323,0,0,0,0,0,0,0,0,0,-1,1637,701,0,0
420,323,0,0,0,0,0,0,0,0,0,-1,1644,701,0,0
427,323,0,0,0,0,0,0,0,0,0,-1,1651,701,0,0
434,323,0,0,0,0,0,0,0,0,0,-1,1658,701,0,0
441,323,0,0,0,0,0,0,0,0,0,-1,1665,701,0,0
448,323,0,0,0,0,0,0,0,0,0,-1,1672,701,0,0
455,323,0,0,0,0,0,0,0,0,0,-1,1679,701,0,0
462,323,0,0,0,0,0,0,0,0,0,-1,1686,701,0,0
469,323,0,0,0,0,0,0,0,0,0,-1,1693,701,0,0
476,323,0,0,0,0,0,0,0,0,0,-1,1700,701,0,0
483,323,0,0,0,0,0,0,0,0,0,-1,1707,701,0,0
490,323,0,0,0,0,0,0,0,0,0,-1,1714,701,0,0
497,323,0,0,0,0,0,0,0,0,0,-1,1721,701,0,0
504,323,0,0,0,0,0,0,0,0,0,-1,1728,701,0,0
511,323,0,0,0,0,0,0,0,0,0,-1,1735,701,0,0
518,323,0,0,0,0,0,0,0,0,0,-1,1742,701,0,0
525,323,0,0,0,0,0,0,0,0,0,-1,1749,701,0,0
532,323,33.6193,1.69446,0,0,0,0,0,0,0,-1,1756,701,33.6193,-1.69444
539,323,32.2698,2.44037,0,0,0,0,0,0,0,-1,1763,701,32.2697,-2.44036
546,323,31.1644,3.9444,0,0,0,0,0,0,0,-1,1770,701,31.1644,-3.94438
553,323,30.2488,5.8775,0,0,0,0,0,0,0,-1,1777,701,30.2487,-5.87752
560,323,40.6711,1.25153,0,0,0,0,0,0,0,-1,1784,701,40.6711,-1.25154
567,323,42.1637,2.01208,0,0,0,0,0,0,0,-1,1791,701,42.1637,-2.01207
574,323,12.514,5.89685,0,0,0,0,0,0,0,-1,1798,701,12.5141,-5.89683
581,323,11.821,5.3476,0,0,0,0,0,0,0,-1,1805,701,11.821,-5.34762
588,323,11.7933,7.00818,0,0,0,0,0,0,0,-1,1812,701,11.7933,-7.00819
595,323,6.67847,0.06604,0,0,0,0,0,0,0,-1,1819,701,6.67841,-0.0660418
602,323,43.6688,-13.2092,0,0,0,0,0,0,0,-1,1826,701,43.6688,13.2092
609,323,43.8967,-12.1411,0.00162846,0.000307149,0.00107373,0.0022285,-0.000292897,0.509605,0.00159231,0.0394401,1833,701,43.8968,12.1411
616,323,43.98,-11.1346,0.00157399,-9.86661e-06,0.00104681,0.00209468,-0.000530558,0.46157,0.00160285,0.0129108,1840,701,43.98,11.1347
623,323,43.9121,-10.1752,0.00137106,-4.58033e-05,0.000880023,0.00179237,-0.000467113,0.446502,0.00137728,0.0137556,1847,701,43.9121,10.1752
630,323,43.8588,-9.18988,0.0013541,3.9544e-05,0.00083549,0.00175987,-0.000366219,0.452109,0.00131246,0.0149834,1854,701,43.8587,9.18991
637,323,43.8271,-8.20618,0.00138227,0.000271158,0.000847779,0.00184031,-0.000186879,0.49535,0.00129367,0.0124599,1861,701,43.8272,8.20616
644,323,43.7506,-7.26251,0.00146284,0.000639743,0.000926094,0.00206471,3.787e-05,0.576309,0.00136403,0.00954393,1868,701,43.7506,7.26249
651,323,43.7025,-6.27008,0.00161138,0.00117407,0.00107778,0.00249246,0.000292982,0.685319,0.0015731,0.0144497,1875,701,43.7025,6.27006
658,323,43.5862,-5.27014,0.00186846,0.00186928,0.00132418,0.00319305,0.000544694,0.785552,0.00197237,0.0251082,1882,701,43.5862,5.27014
665,323,43.4896,-4.30261,0.00230424,0.00275814,0.00172284,0.00426891,0.00079347,0.850886,0.00262178,0.0201881,1889,701,43.4897,4.30263
672,323,43.5072,-3.26605,0.00287856,0.00404363,0.00225932,0.00579431,0.00112788,0.911568,0.00354719,0.0234799,1896,701,43.5072,3.26606
679,323,43.5615,-2.11804,0,0,0,0,0,0,0,-1,1903,701,43.5615,2.11807
686,323,30.4916,0.378235,0,0,0,0,0,0,0,-1,1910,701,30.4916,-0.37825
693,323,23.8806,1.08844,0,0,0,0,0,0,0,-1,1917,701,23.8806,-1.08845
700,323,10.7705,0.828613,0,0,0,0,0,0,0,-1,1924,701,10.7705,-0.828591
707,323,16.9005,4.79193,0,0,0,0,0,0,0,-1,1931,701,16.9005,-4.7919
714,323,16.2346,6.25958,0,0,0,0,0,0,0,-1,1938,701,16.2346,-6.25956
721,323,0,0,0,0,0,0,0,0,0,-1,1945,701,0,0
728,323,0,0,0,0,0,0,0,0,0,-1,1952,701,0,0
735,323,0,0,0,0,0,0,0,0,0,-1,1959,701,0,0
742,323,0,0,0,0,0,0,0,0,0,-1,1966,701,0,0
749,323,0,0,0,0,0,0,0,0,0,-1,1973,701,0,0
756,323,0,0,0,0,0,0,0,0,0,-1,1980,701,0,0
763,323,0,0,0,0,0,0,0,0,0,-1,1987,701,0,0
770,323,0,0,0,0,0,0,0,0,0,-1,1994,701,0,0
777,323,0,0,0,0,0,0,0,0,0,-1,2001,701,0,0
784,323,0,0,0,0,0,0,0,0,0,-1,2008,701,0,0
791,323,0,0,0,0,0,0,0,0,0,-1,2015,701,0,0
798,323,0,0,0,0,0,0,0,0,0,-1,2022,701,0,0
805,323,0,0,0,0,0,0,0,0,0,-1,2029,701,0,0
812,323,0,0,0,0,0,0,0,0,0,-1,2036,701,0,0
-700,316,0,0,0,0,0,0,0,0,0,-1,524,708,0,0
-693,316,0,0,0,0,0,0,0,0,0,-1,531,708,0,0
-686,316,0,0,0,0,0,0,0,0,0,-1,538,708,0,0
-679,316,0,0,0,0,0,0,0,0,0,-1,545,708,0,0
-672,316,0,0,0,0,0,0,0,0,0,-1,552,708,0,0
-665,316,0,0,0,0,0,0,0,0,0,-1,559,708,0,0
-658,316,0,0,0,0,0,0,0,0,0,-1,566,708,0,0
-651,316,0,0,0,0,0,0,0,0,0,-1,573,708,0,0
-644,316,0,0,0,0,0,0,0,0,0,-1,580,708,0,0
-637,316,0,0,0,0,0,0,0,0,0,-1,587,708,0,0
-630,316,0,0,0,0,0,0,0,0,0,-1,594,708,0,0
-623,316,0,0,0,0,0,0,0,0,0,-1,601,708,0,0
-616,316,0,0,0,0,0,0,0,0,0,-1,608,708,0,0
-609,316,0,0,0,0,0,0,0,0,0,-1,615,708,0,0
-602,316,-0.451782,-0.0494995,0,0,0,0,0,0,0,-1,622,708,-0.451768,0.0495022
-595,316,-3.3761,2.17188,0,0,0,0,0,0,0,-1,629,708,-3.37609,-2.17189
-588,316,-5.00177,2.60675,0,0,0,0,0,0,0,-1,636,708,-5.00175,-2.60676
-581,316,-3.94653,0.393433,0,0,0,0,0,0,0,-1,643,708,-3.94655,-0.39342
-574,316,-9.67395,1.06067,0,0,0,0,0,0,0,-1,650,708,-9.67396,-1.06065
-567,316,-10.1962,0.448425,0,0,0,0,0,0,0,-1,657,708,-10.1962,-0.448411
-560,316,-18.9941,-1.75067,0,0,0,0,0,0,0,-1,664,708,-18.9941,1.75068
-553,316,-25.6896,-2.78827,0,0,0,0,0,0,0,-1,671,708,-25.6896,2.78827
-546,316,-28.8214,-3.96771,0,0,0,0,0,0,0,-1,678,708,-28.8214,3.96774
-539,316,-28.6451,-4.54572,0.00219233,0.00315566,-0.00234094,0.00506397,0.000284016,-0.886861,0.0032854,0.0148707,685,708,-28.6451,4.54573
-532,316,-28.7181,-5.51477,0.00218847,0.00210572,-0.00174724,0.00389482,0.000399369,-0.773561,0.00247419,0.0120637,692,708,-28.7181,5.51476
-525,316,-28.7702,-6.46808,0.00196298,0.001141,-0.00113737,0.00276133,0.000342645,-0.612021,0.00173797,0.0109462,699,708,-28.7702,6.46805
-518,316,-28.8052,-7.45569,0.00169567,0.000399574,-0.000565202,0.00190752,0.000187727,-0.35861,0.00121395,0.0106788,706,708,-28.8052,7.45572
-511,316,-28.889,-8.44403,0.00125675,-0.000248118,-3.42378e-05,0.00125753,-0.000248897,-0.0227356,0.000932459,0.0119661,713,708,-28.889,8.44404
-504,316,-28.9841,-9.42224,0.000727253,-0.00080035,0.00049847,0.000875517,-0.000948614,0.289106,0.00105344,0.0155662,720,708,-28.9841,9.42225
-497,316,-29.0154,-10.3743,0.000302413,-0.00116251,0.000902264,0.000732096,-0.00159219,0.44445,0.00137221,0.0132624,727,708,-29.0154,10.3742
-490,316,-29.0984,-11.3516,0.000122082,-0.00134764,0.00111048,0.000718832,-0.00194439,0.493102,0.00159095,0.0192716,734,708,-29.0985,11.3516
-483,316,-29.1102,-12.3521,0,0,0,0,0,0,0,-1,741,708,-29.1102,12.3521
-476,316,-8.90894,-3.31207,0,0,0,0,0,0,0,-1,748,708,-8.90896,3.31206
-469,316,-6.24194,-1.42725,0,0,0,0,0,0,0,-1,755,708,-6.24192,1.42725
-462,316,-5.74237,-1.40039,0,0,0,0,0,0,0,-1,762,708,-5.74238,1.40039
-455,316,-5.44745,-1.21899,0,0,0,0,0,0,0,-1,769,708,-5.44746,1.21898
-448,316,-14.8945,0.655396,0,0,0,0,0,0,0,-1,776,708,-14.8946,-0.655396
-441,316,-14.9626,0.576111,0,0,0,0,0,0,0,-1,783,708,-14.9626,-0.576115
-434,316,-27.7723,1.15576,0,0,0,0,0,0,0,-1,790,708,-27.7723,-1.15579
-427,316,-28.0504,1.31427,0,0,0,0,0,0,0,-1,797,708,-28.0504,-1.31427
-420,316,-28.198,1.62891,0,0,0,0,0,0,0,-1,804,708,-28.198,-1.62889
-413,316,0,0,0,0,0,0,0,0,0,-1,811,708,0,0
-406,316,0,0,0,0,0,0,0,0,0,-1,818,708,0,0
-399,316,0,0,0,0,0,0,0,0,0,-1,825,708,0,0
-392,316,0,0,0,0,0,0,0,0,0,-1,832,708,0,0
-385,316,0,0,0,0,0,0,0,0,0,-1,839,708,0,0
-378,316,0,0,0,0,0,0,0,0,0,-1,846,708,0,0
-371,316,0,0,0,0,0,0,0,0,0,-1,853,708,0,0
-364,316,0,0,0,0,0,0,0,0,0,-1,860,708,0,0
-357,316,0,0,0,0,0,0,0,0,0,-1,867,708,0,0
-350,316,0,0,0,0,0,0,0,0,0,-1,874,708,0,0
-343,316,0,0,0,0,0,0,0,0,0,-1,881,708,0,0
-336,316,0,0,0,0,0,0,0,0,0,-1,888,708,0,0
-329,316,0,0,0,0,0,0,0,0,0,-1,895,708,0,0
-322,316,0,0,0,0,0,0,0,0,0,-1,902,708,0,0
-315,316,0,0,0,0,0,0,0,0,0,-1,909,708,0,0
-308,316,0,0,0,0,0,0,0,0,0,-1,916,708,0,0
-301,316,0,0,0,0,0,0,0,0,0,-1,923,708,0,0
-294,316,0,0,0,0,0,0,0,0,0,-1,930,708,0,0
-287,316,0,0,0,0,0,0,0,0,0,-1,937,708,0,0
-280,316,0,0,0,0,0,0,0,0,0,-1,944,708,0,0
-273,316,0,0,0,0,0,0,0,0,0,-1,951,708,0,0
-266,316,0,0,0,0,0,0,0,0,0,-1,958,708,0,0
-259,316,0,0,0,0,0,0,0,0,0,-1,965,708,0,0
-252,316,0,0,0,0,0,0,0,0,0,-1,972,708,0,0
-245,316,0,0,0,0,0,0,0,0,0,-1,979,708,0,0
-238,316,0,0,0,0,0,0,0,0,0,-1,986,708,0,0
-231,316,0,0,0,0,0,0,0,0,0,-1,993,708,0,0
-224,316,0,0,0,0,0,0,0,0,0,-1,1000,708,0,0
-217,316,0,0,0,0,0,0,0,0,0,-1,1007,708,0,0
-210,316,0,0,0,0,0,0,0,0,0,-1,1014,708,0,0
-203,316,0,0,0,0,0,0,0,0,0,-1,1021,708,0,0
-196,316,0,0,0,0,0,0,0,0,0,-1,1028,708,0,0
-189,316,0,0,0,0,0,0,0,0,0,-1,1035,708,0,0
-182,316,0,0,0,0,0,0,0,0,0,-1,1042,708,0,0
-175,316,0,0,0,0,0,0,0,0,0,-1,1049,708,0,0
-168,316,0,0,0,0,0,0,0,0,0,-1,1056,708,0,0
-161,316,0,0,0,0,0,0,0,0,0,-1,1063,708,0,0
-154,316,0,0,0,0,0,0,0,0,0,-1,1070,708,0,0
-147,316,0,0,0,0,0,0,0,0,0,-1,1077,708,0,0
-140,316,0,0,0,0,0,0,0,0,0,-1,1084,708,0,0
-133,316,0,0,0,0,0,0,0,0,0,-1,1091,708,0,0
-126,316,0,0,0,0,0,0,0,0,0,-1,1098,708,0,0
-119,316,0,0,0,0,0,0,0,0,0,-1,1105,708,0,0
-112,316,0,0,0,0,0,0,0,0,0,-1,1112,708,0,0
-105,316,0,0,0,0,0,0,0,0,0,-1,1119,708,0,0
-98,316,0,0,0,0,0,0,0,0,0,-1,1126,708,0,0
-91,316,0,0,0,0,0,0,0,0,0,-1,1133,708,0,0
-84,316,0,0,0,0,0,0,0,0,0,-1,1140,708,0,0
-77,316,0,0,0,0,0,0,0,0,0,-1,1147,708,0,0
-70,316,0,0,0,0,0,0,0,0,0,-1,1154,708,0,0
-63,316,0,0,0,0,0,0,0,0,0,-1,1161,708,0,0
-56,316,0,0,0,0,0,0,0,0,0,-1,1168,708,0,0
-49,316,0,0,0,0,0,0,0,0,0,-1,1175,708,0,0
-42,316,0,0,0,0,0,0,0,0,0,-1,1182,708,0,0
-35,316,0,0,0,0,0,0,0,0,0,-1,1189,708,0,0
-28,316,0,0,0,0,0,0,0,0,0,-1,1196,708,0,0
-21,316,0,0,0,0,0,0,0,0,0,-1,1203,708,0,0
-14,316,0,0,0,0,0,0,0,0,0,-1,1210,708,0,0
-7,316,0,0,0,0,0,0,0,0,0,-1,1217,708,0,0
0,316,0,0,0,0,0,0,0,0,0,-1,1224,708,0,0
7,316,0,0,0,0,0,0,0,0,0,-1,1231,708,0,0
14,316,0,0,0,0,0,0,0,0,0,-1,1238,708,0,0
21,316,0,0,0,0,0,0,0,0,0,-1,1245,708,0,0
28,316,0,0,0,0,0,0,0,0,0,-1,1252,708,0,0
35,316,0,0,0,0,0,0,0,0,0,-1,1259,708,0,0
42,316,0,0,0,0,0,0,0,0,0,-1,1266,708,0,0
49,316,0,0,0,0,0,0,0,0,0,-1,1273,708,0,0
56,316,0,0,0,0,0,0,0,0,0,-1,1280,708,0,0
63,316,0,0,0,0,0,0,0,0,0,-1,1287,708,0,0
70,316,0,0,0,0,0,0,0,0,0,-1,1294,708,0,0
77,316,0,0,0,0,0,0,0,0,0,-1,1301,708,0,0
84,316,0,0,0,0,0,0,0,0,0,-1,1308,708,0,0
91,316,0,0,0,0,0,0,0,0,0,-1,1315,708,0,0
98,316,0,0,0,0,0,0,0,0,0,-1,1322,708,0,0
105,316,0,0,0,0,0,0,0,0,0,-1,1329,708,0,0
112,316,0,0,0,0,0,0,0,0,0,-1,1336,708,0,0
119,316,0,0,0,0,0,0,0,0,0,-1,1343,708,0,0
126,316,0,0,0,0,0,0,0,0,0,-1,1350,708,0,0
133,316,0,0,0,0,0,0,0,0,0,-1,1357,708,0,0
140,316,0,0,0,0,0,0,0,0,0,-1,1364,708,0,0
147,316,0,0,0,0,0,0,0,0,0,-1,1371,708,0,0
154,316,0,0,0,0,0,0,0,0,0,-1,1378,708,0,0
161,316,0,0,0,0,0,0,0,0,0,-1,1385,708,0,0
168,316,0,0,0,0,0,0,0,0,0,-1,1392,708,0,0
175,316,0,0,0,0,0,0,0,0,0,-1,1399,708,0,0
182,316,0,0,0,0,0,0,0,0,0,-1,1406,708,0,0
189,316,0,0,0,0,0,0,0,0,0,-1,1413,708,0,0
196,316,0,0,0,0,0,0,0,0,0,-1,1420,708,0,0
203,316,0,0,0,0,0,0,0,0,0,-1,1427,708,0,0
210,316,0,0,0,0,0,0,0,0,0,-1,1434,708,0,0
217,316,0,0,0,0,0,0,0,0,0,-1,1441,708,0,0
224,316,0,0,0,0,0,0,0,0,0,-1,1448,708,0,0
231,316,0,0,0,0,0,0,0,0,0,-1,1455,708,0,0
238,316,0,0,0,0,0,0,0,0,0,-1,1462,708,0,0
245,316,0,0,0,0,0,0,0,0,0,-1,1469,708,0,0
252,316,0,0,0,0,0,0,0,0,0,-1,1476,708,0,0
259,316,0,0,0,0,0,0,0,0,0,-1,1483,708,0,0
266,316,0,0,0,0,0,0,0,0,0,-1,1490,708,0,0
273,316,0,0,0,0,0,0,0,0,0,-1,1497,708,0,0
280,316,0,0,0,0,0,0,0,0,0,-1,1504,708,0,0
287,316,0,0,0,0,0,0,0,0,0,-1,1511,708,0,0
294,316,0,0,0,0,0,0,0,0,0,-1,1518,708,0,0
301,316,0,0,0,0,0,0,0,0,0,-1,1525,708,0,0
308,316,0,0,0,0,0,0,0,0,0,-1,1532,708,0,0
315,316,0,0,0,0,0,0,0,0,0,-1,1539,708,0,0
322,316,0,0,0,0,0,0,0,0,0,-1,1546,708,0,0
329,316,0,0,0,0,0,0,0,0,0,-1,1553,708,0,0
336,316,0,0,0,0,0,0,0,0,0,-1,1560,708,0,0
343,316,0,0,0,0,0,0,0,0,0,-1,1567,708,0,0
350,316,0,0,0,0,0,0,0,0,0,-1,1574,708,0,0
357,316,0,0,0,0,0,0,0,0,0,-1,1581,708,0,0
364,316,0,0,0,0,0,0,0,0,0,-1,1588,708,0,0
371,316,0,0,0,0,0,0,0,0,0,-1,1595,708,0,0
378,316,0,0,0,0,0,0,0,0,0,-1,1602,708,0,0
385,316,0,0,0,0,0,0,0,0,0,-1,1609,708,0,0
392,316,0,0,0,0,0,0,0,0,0,-1,1616,708,0,0
399,316,0,0,0,0,0,0,0,0,0,-1,1623,708,0,0
406,316,0,0,0,0,0,0,0,0,0,-1,1630,708,0,0
413,316,0,0,0,0,0,0,0,0,0,-1,1637,708,0,0
420,316,0,0,0,0,0,0,0,0,0,-1,1644,708,0,0
427,316,0,0,0,0,0,0,0,0,0,-1,1651,708,0,0
434,316,0,0,0,0,0,0,0,0,0,-1,1658,708,0,0
441,316,0,0,0,0,0,0,0,0,0,-1,1665,708,0,0
448,316,0,0,0,0,0,0,0,0,0,-1,1672,708,0,0
455,316,0,0,0,0,0,0,0,0,0,-1,1679,708,0,0
462,316,0,0,0,0,0,0,0,0,0,-1,1686,708,0,0
469,316,0,0,0,0,0,0,0,0,0,-1,1693,708,0,0
476,316,0,0,0,0,0,0,0,0,0,-1,1700,708,0,0
483,316,0,0,0,0,0,0,0,0,0,-1,1707,708,0,0
490,316,0,0,0,0,0,0,0,0,0,-1,1714,708,0,0
497,316,0,0,0,0,0,0,0,0,0,-1,1721,708,0,0
504,316,0,0,0,0,0,0,0,0,0,-1,1728,708,0,0
511,316,0,0,0,0,0,0,0,0,0,-1,1735,708,0,0
518,316,0,0,0,0,0,0,0,0,0,-1,1742,708,0,0
525,316,0,0,0,0,0,0,0,0,0,-1,1749,708,0,0
532,316,33.8604,0.531128,0,0,0,0,0,0,0,-1,1756,708,33.8604,-0.531151
539,316,44.4543,2.73468,0,0,0,0,0,0,0,-1,1763,708,44.4543,-2.7347
546,316,44.713,3.35498,0,0,0,0,0,0,0,-1,1770,708,44.7131,-3.35501
553,316,39.9031,6.57275,0,0,0,0,0,0,0,-1,1777,708,39.9031,-6.57274
560,316,39.1196,1.10046,0,0,0,0,0,0,0,-1,1784,708,39.1197,-1.10048
567,316,47.3683,6.04919,0,0,0,0,0,0,0,-1,1791,708,47.3683,-6.04918
574,316,45.9872,6.7655,0,0,0,0,0,0,0,-1,1798,708,45.9871,-6.76552
581,316,24.6815,7.77496,0,0,0,0,0,0,0,-1,1805,708,24.6815,-7.77499
588,316,19.7659,2.90198,0,0,0,0,0,0,0,-1,1812,708,19.7659,-2.902
595,316,12.5363,1.50702,0,0,0,0,0,0,0,-1,1819,708,12.5363,-1.50701
602,316,7.79919,0.0422363,0,0,0,0,0,0,0,-1,1826,708,7.79923,-0.0422066
609,316,44.7916,-12.0541,0,0,0,0,0,0,0,-1,1833,708,44.7916,12.0541
616,316,44.9451,-11.0526,0.00193887,0.000206954,0.00138061,0.00270262,-0.000556801,0.505298,0.00201318,0.0159572,1840,708,44.9451,11.0525
623,316,44.8733,-10.093,0.00159361,8.98298e-05,0.00110765,0.00218047,-0.000497025,0.487216,0.00164455,0.0123117,1847,708,44.8733,10.093
630,316,44.7942,-9.17163,0.0015262,7.77413e-05,0.000978294,0.00201916,-0.000415227,0.466767,0.00150375,0.0142035,1854,708,44.7942,9.17164
637,316,44.7529,-8.17633,0.00151603,0.000237621,0.000939463,0.00201313,-0.000259472,0.486675,0.00143641,0.0135371,1861,708,44.7529,8.17635
644,316,44.7284,-7.17242,0.00156343,0.000555953,0.000987455,0.00216821,-4.88295e-05,0.549536,0.00146202,0.0135224,1868,708,44.7284,7.1724
651,316,44.662,-6.18219,0.00167511,0.00103582,0.00111557,0.00251593,0.000195004,0.645869,0.00161621,0.0196416,1875,708,44.662,6.18219
658,316,44.5593,-5.17169,0.00188882,0.00167694,0.00134692,0.00313396,0.000431795,0.746151,0.00196129,0.0418441,1882,708,44.5593,5.17169
665,316,44.4175,-4.21259,0.00221784,0.00249999,0.00171514,0.00407985,0.000637983,0.826431,0.00253415,0.0285866,1889,708,44.4174,4.21259
672,316,44.4418,-3.2605,0.00266018,0.00365644,0.0022433,0.00545625,0.000860374,0.894652,0.00338733,0.0145676,1896,708,44.4418,3.26052
679,316,44.454,-2.25549,0,0,0,0,0,0,0,-1,1903,708,44.454,2.25552
686,316,34.0828,0.223206,0,0,0,0,0,0,0,-1,1910,708,34.0828,-0.223183
693,316,26.4315,1.80652,0,0,0,0,0,0,0,-1,1917,708,26.4315,-1.80651
700,316,12.8749,2.89136,0,0,0,0,0,0,0,-1,1924,708,12.8748,-2.89137
707,316,15.7089,5.41486,0,0,0,0,0,0,0,-1,1931,708,15.7088,-5.41487
714,316,16.1727,5.52045,0,0,0,0,0,0,0,-1,1938,708,16.1728,-5.52042
721,316,16.7094,6.53351,0,0,0,0,0,0,0,-1,1945,708,16.7094,-6.5335
728,316,0,0,0,0,0,0,0,0,0,-1,1952,708,0,0
735,316,0,0,0,0,0,0,0,0,0,-1,1959,708,0,0
742,316,0,0,0,0,0,0,0,0,0,-1,1966,708,0,0
749,316,0,0,0,0,0,0,0,0,0,-1,1973,708,0,0
756,316,0,0,0,0,0,0,0,0,0,-1,1980,708,0,0
763,316,0,0,0,0,0,0,0,0,0,-1,1987,708,0,0
770,316,0,0,0,0,0,0,0,0,0,-1,1994,708,0,0
777,316,0,0,0,0,0,0,0,0,0,-1,2001,708,0,0
784,316,0,0,0,0,0,0,0,0,0,-1,2008,708,0,0
791,316,0,0,0,0,0,0,0,0,0,-1,2015,708,0,0
798,316,0,0,0,0,0,0,0,0,0,-1,2022,708,0,0
805,316,0,0,0,0,0,0,0,0,0,-1,2029,708,0,0
812,316,0,0,0,0,0,0,0,0,0,-1,2036,708,0,0
-700,309,0,0,0,0,0,0,0,0,0,-1,524,715,0,0
-693,309,0,0,0,0,0,0,0,0,0,-1,531,715,0,0
-686,309,0,0,0,0,0,0,0,0,0,-1,538,715,0,0
-679,309,0,0,0,0,0,0,0,0,0,-1,545,715,0,0
-672,309,0,0,0,0,0,0,0,0,0,-1,552,715,0,0
-665,309,0,0,0,0,0,0,0,0,0,-1,559,715,0,0
-658,309,0,0,0,0,0,0,0,0,0,-1,566,715,0,0
-651,309,0,0,0,0,0,0,0,0,0,-1,573,715,0,0
-644,309,0,0,0,0,0,0,0,0,0,-1,580,715,0,0
-637,309,0,0,0,0,0,0,0,0,0,-1,587,715,0,0
-630,309,0,0,0,0,0,0,0,0,0,-1,594,715,0,0
-623,309,0,0,0,0,0,0,0,0,0,-1,601,715,0,0
-616,309,0,0,0,0,0,0,0,0,0,-1,608,715,0,0
-609,309,-5.95392,-3.93689,0,0,0,0,0,0,0,-1,615,715,-5.95392,3.93686
-602,309,-4.99786,-3.31287,0,0,0,0,0,0,0,-1,622,715,-4.99786,3.31284
-595,309,-6.80847,2.4046,0,0,0,0,0,0,0,-1,629,715,-6.80845,-2.40458
-588,309,-6.08795,2.19324,0,0,0,0,0,0,0,-1,636,715,-6.08793,-2.19325
-581,309,-5.97552,1.3277,0,0,0,0,0,0,0,-1,643,715,-5.97552,-1.32769
-574,309,-8.73602,0.208435,0,0,0,0,0,0,0,-1,650,715,-8.73604,-0.208437
-567,309,-10.3909,0.85968,0,0,0,0,0,0,0,-1,657,715,-10.3909,-0.859696
-560,309,-18.6088,-1.73389,0,0,0,0,0,0,0,-1,664,715,-18.6088,1.73389
-553,309,-29.8723,-2.41681,0,0,0,0,0,0,0,-1,671,715,-29.8723,2.41678
-546,309,-29.7284,-3.45471,0.00159263,0.00359374,-0.00231087,0.00511136,7.50062e-05,-0.989703,0.00338285,0.0424238,678,715,-29.7284,3.45472
-539,309,-29.6232,-4.49347,0.00177161,0.00251359,-0.00178885,0.00396951,0.000315682,-0.887643,0.00254764,0.0166829,685,715,-29.6233,4.49346
-532,309,-29.6546,-5.44061,0.0015947,0.00156141,-0.00118601,0.00276418,0.000391934,-0.778382,0.00172703,0.0137958,692,715,-29.6546,5.44061
-525,309,-29.733,-6.41754,0.00131871,0.000650077,-0.000674038,0.00173679,0.000232002,-0.55518,0.0010888,0.0172381,699,715,-29.733,6.41757
-518,309,-29.7816,-7.40277,0.0010351,-2.68405e-05,-0.000172584,0.00106245,-5.41844e-05,-0.157132,0.000727032,0.0179378,706,715,-29.7816,7.40279
-511,309,-29.8475,-8.3642,0.000401848,-0.000795669,0.000340697,0.000491992,-0.000885812,0.258659,0.000806235,0.0141654,713,715,-29.8475,8.36419
-504,309,-29.9231,-9.34033,-0.000395205,-0.00156521,0.000883891,7.97415e-05,-0.00204016,0.493069,0.00138745,0.0112281,720,715,-29.9231,9.34032
-497,309,-29.988,-10.2842,-0.00123895,-0.00234732,0.00130674,-0.000373743,-0.00321253,0.584845,0.00202862,0.015509,727,715,-29.988,10.2842
-490,309,-30.0607,-11.2675,0,0,0,0,0,0,0,-1,734,715,-30.0607,11.2674
-483,309,-17.7261,-7.75836,0,0,0,0,0,0,0,-1,741,715,-17.7261,7.75839
-476,309,-5.29486,-1.2262,0,0,0,0,0,0,0,-1,748,715,-5.29484,1.22622
-469,309,-4.22717,-0.592896,0,0,0,0,0,0,0,-1,755,715,-4.2272,0.592905
-462,309,-10.428,2.46948,0,0,0,0,0,0,0,-1,762,715,-10.428,-2.46947
-455,309,-15.8216,0.00915527,0,0,0,0,0,0,0,-1,769,715,-15.8216,-0.00913359
-448,309,-37.3543,-1.02441,0,0,0,0,0,0,0,-1,776,715,-37.3543,1.02444
-441,309,-19.8181,1.4425,0,0,0,0,0,0,0,-1,783,715,-19.8181,-1.44249
-434,309,-46.7953,1.72064,0,0,0,0,0,0,0,-1,790,715,-46.7953,-1.72067
-427,309,-27.8553,1.40332,0,0,0,0,0,0,0,-1,797,715,-27.8553,-1.40334
-420,309,-27.3148,1.90747,0,0,0,0,0,0,0,-1,804,715,-27.3148,-1.90745
-413,309,0,0,0,0,0,0,0,0,0,-1,811,715,0,0
-406,309,0,0,0,0,0,0,0,0,0,-1,818,715,0,0
-399,309,0,0,0,0,0,0,0,0,0,-1,825,715,0,0
-392,309,0,0,0,0,0,0,0,0,0,-1,832,715,0,0
-385,309,0,0,0,0,0,0,0,0,0,-1,839,715,0,0
-378,309,0,0,0,0,0,0,0,0,0,-1,846,715,0,0
-371,309,0,0,0,0,0,0,0,0,0,-1,853,715,0,0
-364,309,0,0,0,0,0,0,0,0,0,-1,860,715,0,0
-357,309,0,0,0,0,0,0,0,0,0,-1,867,715,0,0
-350,309,0,0,0,0,0,0,0,0,0,-1,874,715,0,0
-343,309,0,0,0,0,0,0,0,0,0,-1,881,715,0,0
-336,309,0,0,0,0,0,0,0,0,0,-1,888,715,0,0
-329,309,0,0,0,0,0,0,0,0,0,-1,895,715,0,0
-322,309,0,0,0,0,0,0,0,0,0,-1,902,715,0,0
-315,309,0,0,0,0,0,0,0,0,0,-1,909,715,0,0
-308,309,0,0,0,0,0,0,0,0,0,-1,916,715,0,0
-301,309,0,0,0,0,0,0,0,0,0,-1,923,715,0,0
-294,309,0,0,0,0,0,0,0,0,0,-1,930,715,0,0
-287,309,0,0,0,0,0,0,0,0,0,-1,937,715,0,0
-280,309,0,0,0,0,0,0,0,0,0,-1,944,715,0,0
-273,309,0,0,0,0,0,0,0,0,0,-1,951,715,0,0
-266,309,0,0,0,0,0,0,0,0,0,-1,958,715,0,0
-259,309,0,0,0,0,0,0,0,0,0,-1,965,715,0,0
-252,309,0,0,0,0,0,0,0,0,0,-1,972,715,0,0
-245,309,0,0,0,0,0,0,0,0,0,-1,979,715,0,0
-238,309,0,0,0,0,0,0,0,0,0,-1,986,715,0,0
-231,309,0,0,0,0,0,0,0,0,0,-1,993,715,0,0
-224,309,0,0,0,0,0,0,0,0,0,-1,1000,715,0,0
-217,309,0,0,0,0,0,0,0,0,0,-1,1007,715,0,0
-210,309,0,0,0,0,0,0,0,0,0,-1,1014,715,0,0
-203,309,0,0,0,0,0,0,0,0,0,-1,1021,715,0,0
-196,309,0,0,0,0,0,0,0,0,0,-1,1028,715,0,0
-189,309,0,0,0,0,0,0,0,0,0,-1,1035,715,0,0
-182,309,0,0,0,0,0,0,0,0,0,-1,1042,715,0,0
-175,309,0,0,0,0,0,0,0,0,0,-1,1049,715,0,0
-168,309,0,0,0,0,0,0,0,0,0,-1,1056,715,0,0
-161,309,0,0,0,0,0,0,0,0,0,-1,1063,715,0,0
-154,309,0,0,0,0,0,0,0,0,0,-1,1070,715,0,0
-147,309,0,0,0,0,0,0,0,0,0,-1,1077,715,0,0
-140,309,0,0,0,0,0,0,0,0,0,-1,1084,715,0,0
-133,309,0,0,0,0,0,0,0,0,0,-1,1091,715,0,0
-126,309,0,0,0,0,0,0,0,0,0,-1,1098,715,0,0
-119,309,0,0,0,0,0,0,0,0,0,-1,1105,715,0,0
-112,309,0,0,0,0,0,0,0,0,0,-1,1112,715,0,0
-105,309,0,0,0,0,0,0,0,0,0,-1,1119,715,0,0
-98,309,0,0,0,0,0,0,0,0,0,-1,1126,715,0,0
-91,309,0,0,0,0,0,0,0,0,0,-1,1133,715,0,0
-84,309,0,0,0,0,0,0,0,0,0,-1,1140,715,0,0
-77,309,0,0,0,0,0,0,0,0,0,-1,1147,715,0,0
-70,309,0,0,0,0,0,0,0,0,0,-1,1154,715,0,0
-63,309,0,0,0,0,0,0,0,0,0,-1,1161,715,0,0
-56,309,0,0,0,0,0,0,0,0,0,-1,1168,715,0,0
-49,309,0,0,0,0,0,0,0,0,0,-1,1175,715,0,0
-42,309,0,0,0,0,0,0,0,0,0,-1,1182,715,0,0
-35,309,0,0,0,0,0,0,0,0,0,-1,1189,715,0,0
-28,309,0,0,0,0,0,0,0,0,0,-1,1196,715,0,0
-21,309,0,0,0,0,0,0,0,0,0,-1,1203,715,0,0
-14,309,0,0,0,0,0,0,0,0,0,-1,1210,715,0,0
-7,309,0,0,0,0,0,0,0,0,0,-1,1217,715,0,0
0,309,0,0,0,0,0,0,0,0,0,-1,1224,715,0,0
7,309,0,0,0,0,0,0,0,0,0,-1,1231,715,0,0
14,309,0,0,0,0,0,0,0,0,0,-1,1238,715,0,0
21,309,0,0,0,0,0,0,0,0,0,-1,1245,715,0,0
28,309,0,0,0,0,0,0,0,0,0,-1,1252,715,0,0
35,309,0,0,0,0,0,0,0,0,0,-1,1259,715,0,0
42,309,0,0,0,0,0,0,0,0,0,-1,1266,715,0,0
49,309,0,0,0,0,0,0,0,0,0,-1,1273,715,0,0
56,309,0,0,0,0,0,0,0,0,0,-1,1280,715,0,0
63,309,0,0,0,0,0,0,0,0,0,-1,1287,715,0,0
70,309,0,0,0,0,0,0,0,0,0,-1,1294,715,0,0
77,309,0,0,0,0,0,0,0,0,0,-1,1301,715,0,0
84,309,0,0,0,0,0,0,0,0,0,-1,1308,715,0,0
91,309,0,0,0,0,0,0,0,0,0,-1,1315,715,0,0
98,309,0,0,0,0,0,0,0,0,0,-1,1322,715,0,0
105,309,0,0,0,0,0,0,0,0,0,-1,1329,715,0,0
112,309,0,0,0,0,0,0,0,0,0,-1,1336,715,0,0
119,309,0,0,0,0,0,0,0,0,0,-1,1343,715,0,0
126,309,0,0,0,0,0,0,0,0,0,-1,1350,715,0,0
133,309,0,0,0,0,0,0,0,0,0,-1,1357,715,0,0
140,309,0,0,0,0,0,0,0,0,0,-1,1364,715,0,0
147,309,0,0,0,0,0,0,0,0,0,-1,1371,715,0,0
154,309,0,0,0,0,0,0,0,0,0,-1,1378,715,0,0
161,309,0,0,0,0,0,0,0,0,0,-1,1385,715,0,0
168,309,0,0,0,0,0,0,0,0,0,-1,1392,715,0,0
175,309,0,0,0,0,0,0,0,0,0,-1,1399,715,0,0
182,309,0,0,0,0,0,0,0,0,0,-1,1406,715,0,0
189,309,0,0,0,0,0,0,0,0,0,-1,1413,715,0,0
196,309,0,0,0,0,0,0,0,0,0,-1,1420,715,0,0
203,309,0,0,0,0,0,0,0,0,0,-1,1427,715,0,0
210,309,0,0,0,0,0,0,0,0,0,-1,1434,715,0,0
217,309,0,0,0,0,0,0,0,0,0,-1,1441,715,0,0
224,309,0,0,0,0,0,0,0,0,0,-1,1448,715,0,0
231,309,0,0,0,0,0,0,0,0,0,-1,1455,715,0,0
238,309,0,0,0,0,0,0,0,0,0,-1,1462,715,0,0
245,309,0,0,0,0,0,0,0,0,0,-1,1469,715,0,0
252,309,0,0,0,0,0,0,0,0,0,-1,1476,715,0,0
259,309,0,0,0,0,0,0,0,0,0,-1,1483,715,0,0
266,309,0,0,0,0,0,0,0,0,0,-1,1490,715,0,0
273,309,0,0,0,0,0,0,0,0,0,-1,1497,715,0,0
280,309,0,0,0,0,0,0,0,0,0,-1,1504,715,0,0
287,309,0,0,0,0,0,0,0,0,0,-1,1511,715,0,0
294,309,0,0,0,0,0,0,0,0,0,-1,1518,715,0,0
301,309,0,0,0,0,0,0,0,0,0,-1,1525,715,0,0
308,309,0,0,0,0,0,0,0,0,0,-1,1532,715,0,0
315,309,0,0,0,0,0,0,0,0,0,-1,1539,715,0,0
322,309,0,0,0,0,0,0,0,0,0,-1,1546,715,0,0
329,309,0,0,0,0,0,0,0,0,0,-1,1553,715,0,0
336,309,0,0,0,0,0,0,0,0,0,-1,1560,715,0,0
343,309,0,0,0,0,0,0,0,0,0,-1,1567,715,0,0
350,309,0,0,0,0,0,0,0,0,0,-1,1574,715,0,0
357,309,0,0,0,0,0,0,0,0,0,-1,1581,715,0,0
364,309,0,0,0,0,0,0,0,0,0,-1,1588,715,0,0
371,309,0,0,0,0,0,0,0,0,0,-1,1595,715,0,0
378,309,0,0,0,0,0,0,0,0,0,-1,1602,715,0,0
385,309,0,0,0,0,0,0,0,0,0,-1,1609,715,0,0
392,309,0,0,0,0,0,0,0,0,0,-1,1616,715,0,0
399,309,0,0,0,0,0,0,0,0,0,-1,1623,715,0,0
406,309,0,0,0,0,0,0,0,0,0,-1,1630,715,0,0
413,309,0,0,0,0,0,0,0,0,0,-1,1637,715,0,0
420,309,0,0,0,0,0,0,0,0,0,-1,1644,715,0,0
427,309,0,0,0,0,0,0,0,0,0,-1,1651,715,0,0
434,309,0,0,0,0,0,0,0,0,0,-1,1658,715,0,0
441,309,0,0,0,0,0,0,0,0,0,-1,1665,715,0,0
448,309,0,0,0,0,0,0,0,0,0,-1,1672,715,0,0
455,309,0,0,0,0,0,0,0,0,0,-1,1679,715,0,0
462,309,0,0,0,0,0,0,0,0,0,-1,1686,715,0,0
469,309,0,0,0,0,0,0,0,0,0,-1,1693,715,0,0
476,309,0,0,0,0,0,0,0,0,0,-1,1700,715,0,0
483,309,0,0,0,0,0,0,0,0,0,-1,1707,715,0,0
490,309,0,0,0,0,0,0,0,0,0,-1,1714,715,0,0
497,309,0,0,0,0,0,0,0,0,0,-1,1721,715,0,0
504,309,0,0,0,0,0,0,0,0,0,-1,1728,715,0,0
511,309,0,0,0,0,0,0,0,0,0,-1,1735,715,0,0
518,309,0,0,0,0,0,0,0,0,0,-1,1742,715,0,0
525,309,0,0,0,0,0,0,0,0,0,-1,1749,715,0,0
532,309,0,0,0,0,0,0,0,0,0,-1,1756,715,0,0
539,309,44.2073,2.66235,0,0,0,0,0,0,0,-1,1763,715,44.2073,-2.66238
546,309,44.4976,3.25531,0,0,0,0,0,0,0,-1,1770,715,44.4976,-3.25533
553,309,47.9611,4.06433,0,0,0,0,0,0,0,-1,1777,715,47.9611,-4.06434
560,309,47.9784,4.64801,0,0,0,0,0,0,0,-1,1784,715,47.9784,-4.64799
567,309,47.0073,5.43121,0,0,0,0,0,0,0,-1,1791,715,47.0073,-5.43121
574,309,45.8746,6.53271,0,0,0,0,0,0,0,-1,1798,715,45.8747,-6.53269
581,309,45.0629,7.73468,0,0,0,0,0,0,0,-1,1805,715,45.0629,-7.73471
588,309,26.2064,7.76422,0,0,0,0,0,0,0,-1,1812,715,26.2064,-7.7642
595,309,19.585,3.71558,0,0,0,0,0,0,0,-1,1819,715,19.5849,-3.71555
602,309,11.0811,3.47772,0,0,0,0,0,0,0,-1,1826,715,11.0811,-3.47772
609,309,46.0951,-12.1699,0,0,0,0,0,0,0,-1,1833,715,46.095,12.1699
616,309,45.9778,-11.074,0.00200227,0.000486358,0.0014458,0.00287674,-0.000388118,0.54397,0.00205943,0.0360574,1840,715,45.9778,11.0741
623,309,45.8635,-10.0144,0.00154853,0.000293872,0.00114194,0.0022241,-0.000381707,0.534225,0.00162498,0.0130739,1847,715,45.8636,10.0144
630,309,45.756,-9.08148,0.00145483,0.000192808,0.000977203,0.00198705,-0.000339409,0.498714,0.00145113,0.0125662,1854,715,45.7559,9.08145
637,309,45.681,-8.10516,0.00142425,0.000267884,0.000910453,0.00192459,-0.00023246,0.502501,0.00136715,0.015599,1861,715,45.681,8.10514
644,309,45.6068,-7.10468,0.00146254,0.000532785,0.000946187,0.00205188,-5.65592e-05,0.557061,0.00138716,0.0160502,1868,715,45.6069,7.10467
651,309,45.5656,-6.12238,0.00157086,0.000953101,0.00106851,0.00237425,0.000149719,0.644696,0.00153536,0.0158398,1875,715,45.5655,6.1224
658,309,45.5117,-5.13013,0.001788,0.0015331,0.00129944,0.00296622,0.000354878,0.736514,0.00187044,0.0229199,1882,715,45.5117,5.1301
665,309,45.4802,-4.16302,0.00209505,0.00227262,0.00165446,0.00384068,0.000526997,0.812204,0.00240412,0.0192186,1889,715,45.4802,4.16303
672,309,45.408,-3.211,0.00253021,0.00328554,0.0021814,0.00512173,0.000694022,0.871114,0.00320827,0.0165273,1896,715,45.408,3.21098
679,309,45.4006,-2.16107,0.0030252,0.0045125,0.00288288,0.0067461,0.000791604,0.911623,0.00425813,0.0323039,1903,715,45.4006,2.16104
686,309,45.4285,-1.00421,0,0,0,0,0,0,0,-1,1910,715,45.4285,1.00421
693,309,32.7026,1.51727,0,0,0,0,0,0,0,-1,1917,715,32.7026,-1.51727
700,309,23.0179,3.08337,0,0,0,0,0,0,0,-1,1924,715,23.018,-3.08336
707,309,15.6318,4.58655,0,0,0,0,0,0,0,-1,1931,715,15.6318,-4.58657
714,309,16.7573,6.68286,0,0,0,0,0,0,0,-1,1938,715,16.7574,-6.68284
721,309,16.8337,5.4458,0,0,0,0,0,0,0,-1,1945,715,16.8338,-5.44582
728,309,0,0,0,0,0,0,0,0,0,-1,1952,715,0,0
735,309,0,0,0,0,0,0,0,0,0,-1,1959,715,0,0
742,309,0,0,0,0,0,0,0,0,0,-1,1966,715,0,0
749,309,0,0,0,0,0,0,0,0,0,-1,1973,715,0,0
756,309,0,0,0,0,0,0,0,0,0,-1,1980,715,0,0
763,309,0,0,0,0,0,0,0,0,0,-1,1987,715,0,0
770,309,0,0,0,0,0,0,0,0,0,-1,1994,715,0,0
777,309,0,0,0,0,0,0,0,0,0,-1,2001,715,0,0
784,309,0,0,0,0,0,0,0,0,0,-1,2008,715,0,0
791,309,0,0,0,0,0,0,0,0,0,-1,2015,715,0,0
798,309,0,0,0,0,0,0,0,0,0,-1,2022,715,0,0
805,309,0,0,0,0,0,0,0,0,0,-1,2029,715,0,0
812,309,0,0,0,0,0,0,0,0,0,-1,2036,715,0,0
-700,302,0,0,0,0,0,0,0,0,0,-1,524,722,0,0
-693,302,0,0,0,0,0,0,0,0,0,-1,531,722,0,0
-686,302,0,0,0,0,0,0,0,0,0,-1,538,722,0,0
-679,302,0,0,0,0,0,0,0,0,0,-1,545,722,0,0
-672,302,0,0,0,0,0,0,0,0,0,-1,552,722,0,0
-665,302,0,0,0,0,0,0,0,0,0,-1,559,722,0,0
-658,302,0,0,0,0,0,0,0,0,0,-1,566,722,0,0
-651,302,0,0,0,0,0,0,0,0,0,-1,573,722,0,0
-644,302,0,0,0,0,0,0,0,0,0,-1,580,722,0,0
-637,302,0,0,0,0,0,0,0,0,0,-1,587,722,0,0
-630,302,0,0,0,0,0,0,0,0,0,-1,594,722,0,0
-623,302,0,0,0,0,0,0,0,0,0,-1,601,722,0,0
-616,302,0,0,0,0,0,0,0,0,0,-1,608,722,0,0
-609,302,-7.79266,-3.71649,0,0,0,0,0,0,0,-1,615,722,-7.79267,3.7165
-602,302,0.92865,-1.99158,0,0,0,0,0,0,0,-1,622,722,0.928637,1.99157
-595,302,-7.89941,2.13641,0,0,0,0,0,0,0,-1,629,722,-7.89939,-2.13639
-588,302,-7.10895,1.79163,0,0,0,0,0,0,0,-1,636,722,-7.10896,-1.79163
-581,302,-9.17566,1.09448,0,0,0,0,0,0,0,-1,643,722,-9.17569,-1.09445
-574,302,-11.5183,-0.344543,0,0,0,0,0,0,0,-1,650,722,-11.5183,0.344557
-567,302,-12.1534,-0.672241,0,0,0,0,0,0,0,-1,657,722,-12.1535,0.672246
-560,302,-30.666,-1.35345,0,0,0,0,0,0,0,-1,664,722,-30.666,1.35345
-553,302,-30.5473,-2.37384,0.000341806,0.00363948,-0.00213316,0.00468676,-0.000705469,-1.11441,0.00338426,0.0461939,671,722,-30.5473,2.37387
-546,302,-30.5604,-3.44391,0.000891674,0.00277108,-0.00172349,0.0037944,-0.000131642,-1.03499,0.0025746,0.0199964,678,722,-30.5604,3.44391
-539,302,-30.6029,-4.37994,0.00108094,0.00183862,-0.001259,0.00277455,0.000145014,-0.931542,0.00180331,0.0162309,685,722,-30.6029,4.37993
-532,302,-30.6382,-5.33875,0.000907621,0.00102809,-0.000691266,0.00166174,0.000273971,-0.828857,0.00102874,0.0152327,692,722,-30.6382,5.33872
-525,302,-30.6782,-6.36688,0.000620756,0.000243139,-0.000289291,0.0007774,8.6494e-05,-0.496277,0.000491977,0.0200488,699,722,-30.6782,6.36686
-518,302,-30.7693,-7.33691,0.000330001,-0.000255898,0.000114784,0.000351685,-0.000277583,0.186718,0.000364147,0.0238033,706,722,-30.7693,7.3369
-511,302,-30.8168,-8.29443,-0.000350155,-0.0010129,0.000563645,-2.76903e-05,-0.00133537,0.519656,0.000881159,0.0126661,713,722,-30.8167,8.29446
-504,302,-30.9069,-9.2478,-0.00109907,-0.00170346,0.00104487,-0.000313575,-0.00248895,0.644628,0.00156528,0.0105523,720,722,-30.9069,9.24783
-497,302,-31.0039,-10.2137,-0.00178495,-0.00241596,0.00140956,-0.000656015,-0.0035449,0.675297,0.00217778,0.016936,727,722,-31.0039,10.2137
-490,302,-31.0942,-11.181,0,0,0,0,0,0,0,-1,734,722,-31.0942,11.181
-483,302,-9.53412,-3.1673,0,0,0,0,0,0,0,-1,741,722,-9.53411,3.1673
-476,302,-4.29749,-0.203491,0,0,0,0,0,0,0,-1,748,722,-4.29751,0.203464
-469,302,-12.369,1.42859,0,0,0,0,0,0,0,-1,755,722,-12.3689,-1.42857
-462,302,-17.4766,0.310791,0,0,0,0,0,0,0,-1,762,722,-17.4766,-0.310788
-455,302,-36.7368,-2.97418,0,0,0,0,0,0,0,-1,769,722,-36.7368,2.97416
-448,302,-42.1174,-1.44232,0,0,0,0,0,0,0,-1,776,722,-42.1174,1.44229
-441,302,-46.7637,0.580078,0,0,0,0,0,0,0,-1,783,722,-46.7636,-0.58007
-434,302,-46.574,1.30511,0,0,0,0,0,0,0,-1,790,722,-46.574,-1.30509
-427,302,-46.7514,1.51532,0,0,0,0,0,0,0,-1,797,722,-46.7514,-1.51532
-420,302,0,0,0,0,0,0,0,0,0,-1,804,722,0,0
-413,302,0,0,0,0,0,0,0,0,0,-1,811,722,0,0
-406,302,0,0,0,0,0,0,0,0,0,-1,818,722,0,0
-399,302,0,0,0,0,0,0,0,0,0,-1,825,722,0,0
-392,302,0,0,0,0,0,0,0,0,0,-1,832,722,0,0
-385,302,0,0,0,0,0,0,0,0,0,-1,839,722,0,0
-378,302,0,0,0,0,0,0,0,0,0,-1,846,722,0,0
-371,302,0,0,0,0,0,0,0,0,0,-1,853,722,0,0
-364,302,0,0,0,0,0,0,0,0,0,-1,860,722,0,0
-357,302,0,0,0,0,0,0,0,0,0,-1,867,722,0,0
-350,302,0,0,0,0,0,0,0,0,0,-1,874,722,0,0
-343,302,0,0,0,0,0,0,0,0,0,-1,881,722,0,0
-336,302,0,0,0,0,0,0,0,0,0,-1,888,722,0,0
-329,302,0,0,0,0,0,0,0,0,0,-1,895,722,0,0
-322,302,0,0,0,0,0,0,0,0,0,-1,902,722,0,0
-315,302,0,0,0,0,0,0,0,0,0,-1,909,722,0,0
-308,302,0,0,0,0,0,0,0,0,0,-1,916,722,0,0
-301,302,0,0,0,0,0,0,0,0,0,-1,923,722,0,0
-294,302,0,0,0,0,0,0,0,0,0,-1,930,722,0,0
-287,302,0,0,0,0,0,0,0,0,0,-1,937,722,0,0
-280,302,0,0,0,0,0,0,0,0,0,-1,944,722,0,0
-273,302,0,0,0,0,0,0,0,0,0,-1,951,722,0,0
-266,302,0,0,0,0,0,0,0,0,0,-1,958,722,0,0
-259,302,0,0,0,0,0,0,0,0,0,-1,965,722,0,0
-252,302,0,0,0,0,0,0,0,0,0,-1,972,722,0,0
-245,302,0,0,0,0,0,0,0,0,0,-1,979,722,0,0
-238,302,0,0,0,0,0,0,0,0,0,-1,986,722,0,0
-231,302,0,0,0,0,0,0,0,0,0,-1,993,722,0,0
-224,302,0,0,0,0,0,0,0,0,0,-1,1000,722,0,0
-217,302,0,0,0,0,0,0,0,0,0,-1,1007,722,0,0
-210,302,0,0,0,0,0,0,0,0,0,-1,1014,722,0,0
-203,302,0,0,0,0,0,0,0,0,0,-1,1021,722,0,0
-196,302,0,0,0,0,0,0,0,0,0,-1,1028,722,0,0
-189,302,0,0,0,0,0,0,0,0,0,-1,1035,722,0,0
-182,302,0,0,0,0,0,0,0,0,0,-1,1042,722,0,0
-175,302,0,0,0,0,0,0,0,0,0,-1,1049,722,0,0
-168,302,0,0,0,0,0,0,0,0,0,-1,1056,722,0,0
-161,302,0,0,0,0,0,0,0,0,0,-1,1063,722,0,0
-154,302,0,0,0,0,0,0,0,0,0,-1,1070,722,0,0
-147,302,0,0,0,0,0,0,0,0,0,-1,1077,722,0,0
-140,302,0,0,0,0,0,0,0,0,0,-1,1084,722,0,0
-133,302,0,0,0,0,0,0,0,0,0,-1,1091,722,0,0
-126,302,0,0,0,0,0,0,0,0,0,-1,1098,722,0,0
-119,302,0,0,0,0,0,0,0,0,0,-1,1105,722,0,0
-112,302,0,0,0,0,0,0,0,0,0,-1,1112,722,0,0
-105,302,0,0,0,0,0,0,0,0,0,-1,1119,722,0,0
-98,302,0,0,0,0,0,0,0,0,0,-1,1126,722,0,0
-91,302,0,0,0,0,0,0,0,0,0,-1,1133,722,0,0
-84,302,0,0,0,0,0,0,0,0,0,-1,1140,722,0,0
-77,302,0,0,0,0,0,0,0,0,0,-1,1147,722,0,0
-70,302,0,0,0,0,0,0,0,0,0,-1,1154,722,0,0
-63,302,0,0,0,0,0,0,0,0,0,-1,1161,722,0,0
-56,302,0,0,0,0,0,0,0,0,0,-1,1168,722,0,0
-49,302,0,0,0,0,0,0,0,0,0,-1,1175,722,0,0
-42,302,0,0,0,0,0,0,0,0,0,-1,1182,722,0,0
-35,302,0,0,0,0,0,0,0,0,0,-1,1189,722,0,0
-28,302,0,0,0,0,0,0,0,0,0,-1,1196,722,0,0
-21,302,0,0,0,0,0,0,0,0,0,-1,1203,722,0,0
-14,302,0,0,0,0,0,0,0,0,0,-1,1210,722,0,0
-7,302,0,0,0,0,0,0,0,0,0,-1,1217,722,0,0
0,302,0,0,0,0,0,0,0,0,0,-1,1224,722,0,0
7,302,0,0,0,0,0,0,0,0,0,-1,1231,722,0,0
14,302,0,0,0,0,0,0,0,0,0,-1,1238,722,0,0
21,302,0,0,0,0,0,0,0,0,0,-1,1245,722,0,0
28,302,0,0,0,0,0,0,0,0,0,-1,1252,722,0,0
35,302,0,0,0,0,0,0,0,0,0,-1,1259,722,0,0
42,302,0,0,0,0,0,0,0,0,0,-1,1266,722,0,0
49,302,0,0,0,0,0,0,0,0,0,-1,1273,722,0,0
56,302,0,0,0,0,0,0,0,0,0,-1,1280,722,0,0
63,302,0,0,0,0,0,0,0,0,0,-1,1287,722,0,0
70,302,0,0,0,0,0,0,0,0,0,-1,1294,722,0,0
77,302,0,0,0,0,0,0,0,0,0,-1,1301,722,0,0
84,302,0,0,0,0,0,0,0,0,0,-1,1308,722,0,0
91,302,0,0,0,0,0,0,0,0,0,-1,1315,722,0,0
98,302,0,0,0,0,0,0,0,0,0,-1,1322,722,0,0
105,302,0,0,0,0,0,0,0,0,0,-1,1329,722,0,0
112,302,0,0,0,0,0,0,0,0,0,-1,1336,722,0,0
119,302,0,0,0,0,0,0,0,0,0,-1,1343,722,0,0
126,302,0,0,0,0,0,0,0,0,0,-1,1350,722,0,0
133,302,0,0,0,0,0,0,0,0,0,-1,1357,722,0,0
140,302,0,0,0,0,0,0,0,0,0,-1,1364,722,0,0
147,302,0,0,0,0,0,0,0,0,0,-1,1371,722,0,0
154,302,0,0,0,0,0,0,0,0,0,-1,1378,722,0,0
161,302,0,0,0,0,0,0,0,0,0,-1,1385,722,0,0
168,302,0,0,0,0,0,0,0,0,0,-1,1392,722,0,0
175,302,0,0,0,0,0,0,0,0,0,-1,1399,722,0,0
182,302,0,0,0,0,0,0,0,0,0,-1,1406,722,0,0
189,302,0,0,0,0,0,0,0,0,0,-1,1413,722,0,0
196,302,0,0,0,0,0,0,0,0,0,-1,1420,722,0,0
203,302,0,0,0,0,0,0,0,0,0,-1,1427,722,0,0
210,302,0,0,0,0,0,0,0,0,0,-1,1434,722,0,0
217,302,0,0,0,0,0,0,0,0,0,-1,1441,722,0,0
224,302,0,0,0,0,0,0,0,0,0,-1,1448,722,0,0
231,302,0,0,0,0,0,0,0,0,0,-1,1455,722,0,0
238,302,0,0,0,0,0,0,0,0,0,-1,1462,722,0,0
245,302,0,0,0,0,0,0,0,0,0,-1,1469,722,0,0
252,302,0,0,0,0,0,0,0,0,0,-1,1476,722,0,0
259,302,0,0,0,0,0,0,0,0,0,-1,1483,722,0,0
266,302,0,0,0,0,0,0,0,0,0,-1,1490,722,0,0
273,302,0,0,0,0,0,0,0,0,0,-1,1497,722,0,0
280,302,0,0,0,0,0,0,0,0,0,-1,1504,722,0,0
287,302,0,0,0,0,0,0,0,0,0,-1,1511,722,0,0
294,302,0,0,0,0,0,0,0,0,0,-1,1518,722,0,0
301,302,0,0,0,0,0,0,0,0,0,-1,1525,722,0,0
308,302,0,0,0,0,0,0,0,0,0,-1,1532,722,0,0
315,302,0,0,0,0,0,0,0,0,0,-1,1539,722,0,0
322,302,0,0,0,0,0,0,0,0,0,-1,1546,722,0,0
329,302,0,0,0,0,0,0,0,0,0,-1,1553,722,0,0
336,302,0,0,0,0,0,0,0,0,0,-1,1560,722,0,0
343,302,0,0,0,0,0,0,0,0,0,-1,1567,722,0,0
350,302,0,0,0,0,0,0,0,0,0,-1,1574,722,0,0
357,302,0,0,0,0,0,0,0,0,0,-1,1581,722,0,0
364,302,0,0,0,0,0,0,0,0,0,-1,1588,722,0,0
371,302,0,0,0,0,0,0,0,0,0,-1,1595,722,0,0
378,302,0,0,0,0,0,0,0,0,0,-1,1602,722,0,0
385,302,0,0,0,0,0,0,0,0,0,-1,1609,722,0,0
392,302,0,0,0,0,0,0,0,0,0,-1,1616,722,0,0
399,302,0,0,0,0,0,0,0,0,0,-1,1623,722,0,0
406,302,0,0,0,0,0,0,0,0,0,-1,1630,722,0,0
413,302,0,0,0,0,0,0,0,0,0,-1,1637,722,0,0
420,302,0,0,0,0,0,0,0,0,0,-1,1644,722,0,0
427,302,0,0,0,0,0,0,0,0,0,-1,1651,722,0,0
434,302,0,0,0,0,0,0,0,0,0,-1,1658,722,0,0
441,302,0,0,0,0,0,0,0,0,0,-1,1665,722,0,0
448,302,0,0,0,0,0,0,0,0,0,-1,1672,722,0,0
455,302,0,0,0,0,0,0,0,0,0,-1,1679,722,0,0
462,302,0,0,0,0,0,0,0,0,0,-1,1686,722,0,0
469,302,0,0,0,0,0,0,0,0,0,-1,1693,722,0,0
476,302,0,0,0,0,0,0,0,0,0,-1,1700,722,0,0
483,302,0,0,0,0,0,0,0,0,0,-1,1707,722,0,0
490,302,0,0,0,0,0,0,0,0,0,-1,1714,722,0,0
497,302,0,0,0,0,0,0,0,0,0,-1,1721,722,0,0
504,302,0,0,0,0,0,0,0,0,0,-1,1728,722,0,0
511,302,0,0,0,0,0,0,0,0,0,-1,1735,722,0,0
518,302,0,0,0,0,0,0,0,0,0,-1,1742,722,0,0
525,302,0,0,0,0,0,0,0,0,0,-1,1749,722,0,0
532,302,0,0,0,0,0,0,0,0,0,-1,1756,722,0,0
539,302,0,0,0,0,0,0,0,0,0,-1,1763,722,0,0
546,302,48.9873,1.50562,0,0,0,0,0,0,0,-1,1770,722,48.9873,-1.50562
553,302,56.7844,3.46533,0,0,0,0,0,0,0,-1,1777,722,56.7844,-3.4653
560,302,56.7115,3.84808,0,0,0,0,0,0,0,-1,1784,722,56.7116,-3.84806
567,302,55.9475,4.24542,0,0,0,0,0,0,0,-1,1791,722,55.9475,-4.24542
574,302,45.9537,6.00867,0,0,0,0,0,0,0,-1,1798,722,45.9537,-6.00864
581,302,45.137,7.38043,0,0,0,0,0,0,0,-1,1805,722,45.1369,-7.38044
588,302,26.9731,7.19983,0,0,0,0,0,0,0,-1,1812,722,26.9732,-7.19981
595,302,27.3826,8.13104,0,0,0,0,0,0,0,-1,1819,722,27.3825,-8.13102
602,302,14.7349,5.21246,0,0,0,0,0,0,0,-1,1826,722,14.7349,-5.21247
609,302,31.1039,-6.34253,0,0,0,0,0,0,0,-1,1833,722,31.1039,6.34254
616,302,46.9668,-10.9184,0,0,0,0,0,0,0,-1,1840,722,46.9668,10.9184
623,302,46.8546,-9.95251,0.00205932,0.000640007,0.00119615,0.00274049,-4.11579e-05,0.517664,0.00184087,0.0195899,1847,722,46.8546,9.95251
630,302,46.7322,-8.98779,0.00170565,0.000396734,0.00102463,0.00226699,-0.000164609,0.501193,0.00156908,0.0129411,1854,722,46.7322,8.98778
637,302,46.6057,-8.01337,0.0014596,0.000359197,0.000933514,0.00199299,-0.000174194,0.519109,0.00139037,0.016173,1861,722,46.6058,8.01336
644,302,46.5454,-7.03357,0.00138146,0.00050035,0.000915906,0.00195726,-7.54479e-05,0.56123,0.0013307,0.0170976,1868,722,46.5454,7.03359
651,302,46.5217,-6.0575,0.00145233,0.000881755,0.00100562,0.00221235,0.000121733,0.647185,0.00143604,0.0161467,1875,722,46.5217,6.05747
658,302,46.5228,-5.11847,0.0016338,0.00141573,0.00120604,0.00273572,0.000313807,0.740318,0.00172873,0.0170653,1882,722,46.5228,5.1185
665,302,46.4594,-4.13751,0.00189167,0.00208332,0.0015187,0.00350921,0.000465777,0.816903,0.00220071,0.0163273,1889,722,46.4593,4.13752
672,302,46.3737,-3.16412,0.00230646,0.00296675,0.00201664,0.00468009,0.000593115,0.866533,0.00294235,0.0128165,1896,722,46.3736,3.16415
679,302,46.303,-2.18494,0.00280026,0.00404704,0.00267276,0.00616815,0.00067915,0.899969,0.00390545,0.0107028,1903,722,46.303,2.18491
686,302,46.2584,-1.11969,0.00350021,0.00522835,0.00358526,0.0080522,0.000676367,0.903646,0.00515748,0.0271622,1910,722,46.2585,1.11966
693,302,46.1503,-0.0671387,0,0,0,0,0,0,0,-1,1917,722,46.1502,0.0671203
700,302,25.4069,1.97308,0,0,0,0,0,0,0,-1,1924,722,25.4068,-1.97311
707,302,16.7321,4.76685,0,0,0,0,0,0,0,-1,1931,722,16.7321,-4.76687
714,302,17.2,5.77594,0,0,0,0,0,0,0,-1,1938,722,17.2,-5.77595
721,302,17.7914,6.60394,0,0,0,0,0,0,0,-1,1945,722,17.7914,-6.60395
728,302,17.2798,4.81702,0,0,0,0,0,0,0,-1,1952,722,17.2798,-4.81703
735,302,0,0,0,0,0,0,0,0,0,-1,1959,722,0,0
742,302,0,0,0,0,0,0,0,0,0,-1,1966,722,0,0
749,302,0,0,0,0,0,0,0,0,0,-1,1973,722,0,0
756,302,0,0,0,0,0,0,0,0,0,-1,1980,722,0,0
763,302,0,0,0,0,0,0,0,0,0,-1,1987,722,0,0
770,302,0,0,0,0,0,0,0,0,0,-1,1994,722,0,0
777,302,0,0,0,0,0,0,0,0,0,-1,2001,722,0,0
784,302,0,0,0,0,0,0,0,0,0,-1,2008,722,0,0
791,302,0,0,0,0,0,0,0,0,0,-1,2015,722,0,0
798,302,0,0,0,0,0,0,0,0,0,-1,2022,722,0,0
805,302,0,0,0,0,0,0,0,0,0,-1,2029,722,0,0
812,302,0,0,0,0,0,0,0,0,0,-1,2036,722,0,0
-700,295,0,0,0,0,0,0,0,0,0,-1,524,729,0,0
-693,295,0,0,0,0,0,0,0,0,0,-1,531,729,0,0
-686,295,0,0,0,0,0,0,0,0,0,-1,538,729,0,0
-679,295,0,0,0,0,0,0,0,0,0,-1,545,729,0,0
-672,295,0,0,0,0,0,0,0,0,0,-1,552,729,0,0
-665,295,0,0,0,0,0,0,0,0,0,-1,559,729,0,0
-658,295,0,0,0,0,0,0,0,0,0,-1,566,729,0,0
-651,295,0,0,0,0,0,0,0,0,0,-1,573,729,0,0
-644,295,0,0,0,0,0,0,0,0,0,-1,580,729,0,0
-637,295,0,0,0,0,0,0,0,0,0,-1,587,729,0,0
-630,295,0,0,0,0,0,0,0,0,0,-1,594,729,0,0
-623,295,0,0,0,0,0,0,0,0,0,-1,601,729,0,0
-616,295,-13.4911,1.31738,0,0,0,0,0,0,0,-1,608,729,-13.4911,-1.3174
-609,295,-10.2864,0.832031,0,0,0,0,0,0,0,-1,615,729,-10.2863,-0.832034
-602,295,-8.19006,3.01587,0,0,0,0,0,0,0,-1,622,729,-8.19005,-3.01588
-595,295,-0.615479,-1.95447,0,0,0,0,0,0,0,-1,629,729,-0.615481,1.95445
-588,295,-7.98999,1.56903,0,0,0,0,0,0,0,-1,636,729,-7.98997,-1.56905
-581,295,-12.0404,0.150574,0,0,0,0,0,0,0,-1,643,729,-12.0404,-0.150604
-574,295,-12.1605,-0.0739746,0,0,0,0,0,0,0,-1,650,729,-12.1605,0.0739856
-567,295,-31.1188,-0.247742,0,0,0,0,0,0,0,-1,657,729,-31.1188,0.247765
-560,295,-31.3728,-1.43134,-0.00142419,0.00417201,-0.00223415,0.00495452,-0.0022067,-1.2339,0.00423478,0.042365,664,729,-31.3728,1.43133
-553,295,-31.4063,-2.47931,-0.000371379,0.00283902,-0.00165827,0.00354175,-0.0010741,-1.16997,0.00278902,0.0226143,671,729,-31.4062,2.47932
-546,295,-31.5432,-3.38776,0.000160441,0.00203332,-0.00121901,0.00263405,-0.00044029,-1.11292,0.0019197,0.0209729,678,729,-31.5432,3.38773
-539,295,-31.601,-4.30341,0.000364626,0.00123035,-0.00078339,0.00169252,-9.75364e-05,-1.0378,0.00116222,0.0197988,685,729,-31.601,4.30341
-532,295,-31.6494,-5.28125,0.000216009,0.000545113,-0.000247451,0.000677731,8.33921e-05,-1.07882,0.000426748,0.0162514,692,729,-31.6494,5.28124
-525,295,-31.6827,-6.31598,-6.83505e-05,-0.000117843,8.79713e-05,-1.71109e-06,-0.000184482,0.648292,0.000122422,0.0150437,699,729,-31.6827,6.31598
-518,295,-31.7234,-7.27216,-0.000342788,-0.000363119,0.000416772,6.39416e-05,-0.000769849,0.773205,0.00053582,0.0115867,706,729,-31.7235,7.27218
-511,295,-31.8072,-8.20685,-0.00107375,-0.0010254,0.000801698,-0.00024751,-0.00185164,0.800471,0.00116075,0.0101044,713,729,-31.8072,8.20683
-504,295,-31.8913,-9.15314,-0.00177918,-0.00149311,0.00120191,-0.000425754,-0.00284653,0.844624,0.00177289,0.0117027,720,729,-31.8913,9.15315
-497,295,-31.9894,-10.0514,-0.00235362,-0.00191885,0.00148665,-0.000633776,-0.0036387,0.857996,0.00224457,0.0269692,727,729,-31.9894,10.0514
-490,295,-32.0948,-10.9227,0,0,0,0,0,0,0,-1,734,729,-32.0949,10.9227
-483,295,-6.84503,-0.454651,0,0,0,0,0,0,0,-1,741,729,-6.84505,0.454639
-476,295,-13.1738,-0.836243,0,0,0,0,0,0,0,-1,748,729,-13.1738,0.836223
-469,295,-26.5608,-0.466187,0,0,0,0,0,0,0,-1,755,729,-26.5608,0.466162
-462,295,-29.7701,-0.792664,0,0,0,0,0,0,0,-1,762,729,-29.7701,0.792642
-455,295,-45.11,-2.79272,0,0,0,0,0,0,0,-1,769,729,-45.11,2.79272
-448,295,-48.0288,1.41229,0,0,0,0,0,0,0,-1,776,729,-48.0288,-1.41227
-441,295,-47.1089,1.03058,0,0,0,0,0,0,0,-1,783,729,-47.109,-1.0306
-434,295,-46.2319,1.10614,0,0,0,0,0,0,0,-1,790,729,-46.2319,-1.10612
-427,295,0,0,0,0,0,0,0,0,0,-1,797,729,0,0
-420,295,0,0,0,0,0,0,0,0,0,-1,804,729,0,0
-413,295,0,0,0,0,0,0,0,0,0,-1,811,729,0,0
-406,295,0,0,0,0,0,0,0,0,0,-1,818,729,0,0
-399,295,0,0,0,0,0,0,0,0,0,-1,825,729,0,0
-392,295,0,0,0,0,0,0,0,0,0,-1,832,729,0,0
-385,295,0,0,0,0,0,0,0,0,0,-1,839,729,0,0
-378,295,0,0,0,0,0,0,0,0,0,-1,846,729,0,0
-371,295,0,0,0,0,0,0,0,0,0,-1,853,729,0,0
-364,295,0,0,0,0,0,0,0,0,0,-1,860,729,0,0
-357,295,0,0,0,0,0,0,0,0,0,-1,867,729,0,0
-350,295,0,0,0,0,0,0,0,0,0,-1,874,729,0,0
-343,295,0,0,0,0,0,0,0,0,0,-1,881,729,0,0
-336,295,0,0,0,0,0,0,0,0,0,-1,888,729,0,0
-329,295,0,0,0,0,0,0,0,0,0,-1,895,729,0,0
-322,295,0,0,0,0,0,0,0,0,0,-1,902,729,0,0
-315,295,0,0,0,0,0,0,0,0,0,-1,909,729,0,0
-308,295,0,0,0,0,0,0,0,0,0,-1,916,729,0,0
-301,295,0,0,0,0,0,0,0,0,0,-1,923,729,0,0
-294,295,0,0,0,0,0,0,0,0,0,-1,930,729,0,0
-287,295,0,0,0,0,0,0,0,0,0,-1,937,729,0,0
-280,295,0,0,0,0,0,0,0,0,0,-1,944,729,0,0
-273,295,0,0,0,0,0,0,0,0,0,-1,951,729,0,0
-266,295,0,0,0,0,0,0,0,0,0,-1,958,729,0,0
-259,295,0,0,0,0,0,0,0,0,0,-1,965,729,0,0
-252,295,0,0,0,0,0,0,0,0,0,-1,972,729,0,0
-245,295,0,0,0,0,0,0,0,0,0,-1,979,729,0,0
-238,295,0,0,0,0,0,0,0,0,0,-1,986,729,0,0
-231,295,0,0,0,0,0,0,0,0,0,-1,993,729,0,0
-224,295,0,0,0,0,0,0,0,0,0,-1,1000,729,0,0
-217,295,0,0,0,0,0,0,0,0,0,-1,1007,729,0,0
-210,295,0,0,0,0,0,0,0,0,0,-1,1014,729,0,0
-203,295,0,0,0,0,0,0,0,0,0,-1,1021,729,0,0
-196,295,0,0,0,0,0,0,0,0,0,-1,1028,729,0,0
-189,295,0,0,0,0,0,0,0,0,0,-1,1035,729,0,0
-182,295,0,0,0,0,0,0,0,0,0,-1,1042,729,0,0
-175,295,0,0,0,0,0,0,0,0,0,-1,1049,729,0,0
-168,295,0,0,0,0,0,0,0,0,0,-1,1056,729,0,0
-161,295,0,0,0,0,0,0,0,0,0,-1,1063,729,0,0
-154,295,0,0,0,0,0,0,0,0,0,-1,1070,729,0,0
-147,295,0,0,0,0,0,0,0,0,0,-1,1077,729,0,0
-140,295,0,0,0,0,0,0,0,0,0,-1,1084,729,0,0
-133,295,0,0,0,0,0,0,0,0,0,-1,1091,729,0,0
-126,295,0,0,0,0,0,0,0,0,0,-1,1098,729,0,0
-119,295,0,0,0,0,0,0,0,0,0,-1,1105,729,0,0
-112,295,0,0,0,0,0,0,0,0,0,-1,1112,729,0,0
-105,295,0,0,0,0,0,0,0,0,0,-1,1119,729,0,0
-98,295,0,0,0,0,0,0,0,0,0,-1,1126,729,0,0
-91,295,0,0,0,0,0,0,0,0,0,-1,1133,729,0,0
-84,295,0,0,0,0,0,0,0,0,0,-1,1140,729,0,0
-77,295,0,0,0,0,0,0,0,0,0,-1,1147,729,0,0
-70,295,0,0,0,0,0,0,0,0,0,-1,1154,729,0,0
-63,295,0,0,0,0,0,0,0,0,0,-1,1161,729,0,0
-56,295,0,0,0,0,0,0,0,0,0,-1,1168,729,0,0
-49,295,0,0,0,0,0,0,0,0,0,-1,1175,729,0,0
-42,295,0,0,0,0,0,0,0,0,0,-1,1182,729,0,0
-35,295,0,0,0,0,0,0,0,0,0,-1,1189,729,0,0
-28,295,0,0,0,0,0,0,0,0,0,-1,1196,729,0,0
-21,295,0,0,0,0,0,0,0,0,0,-1,1203,729,0,0
-14,295,0,0,0,0,0,0,0,0,0,-1,1210,729,0,0
-7,295,0,0,0,0,0,0,0,0,0,-1,1217,729,0,0
0,295,0,0,0,0,0,0,0,0,0,-1,1224,729,0,0
7,295,0,0,0,0,0,0,0,0,0,-1,1231,729,0,0
14,295,0,0,0,0,0,0,0,0,0,-1,1238,729,0,0
21,295,0,0,0,0,0,0,0,0,0,-1,1245,729,0,0
28,295,0,0,0,0,0,0,0,0,0,-1,1252,729,0,0
35,295,0,0,0,0,0,0,0,0,0,-1,1259,729,0,0
42,295,0,0,0,0,0,0,0,0,0,-1,1266,729,0,0
49,295,0,0,0,0,0,0,0,0,0,-1,1273,729,0,0
56,295,0,0,0,0,0,0,0,0,0,-1,1280,729,0,0
63,295,0,0,0,0,0,0,0,0,0,-1,1287,729,0,0
70,295,0,0,0,0,0,0,0,0,0,-1,1294,729,0,0
77,295,0,0,0,0,0,0,0,0,0,-1,1301,729,0,0
84,295,0,0,0,0,0,0,0,0,0,-1,1308,729,0,0
91,295,0,0,0,0,0,0,0,0,0,-1,1315,729,0,0
98,295,0,0,0,0,0,0,0,0,0,-1,1322,729,0,0
105,295,0,0,0,0,0,0,0,0,0,-1,1329,729,0,0
112,295,0,0,0,0,0,0,0,0,0,-1,1336,729,0,0
119,295,0,0,0,0,0,0,0,0,0,-1,1343,729,0,0
126,295,0,0,0,0,0,0,0,0,0,-1,1350,729,0,0
133,295,0,0,0,0,0,0,0,0,0,-1,1357,729,0,0
140,295,0,0,0,0,0,0,0,0,0,-1,1364,729,0,0
147,295,0,0,0,0,0,0,0,0,0,-1,1371,729,0,0
154,295,0,0,0,0,0,0,0,0,0,-1,1378,729,0,0
161,295,0,0,0,0,0,0,0,0,0,-1,1385,729,0,0
168,295,0,0,0,0,0,0,0,0,0,-1,1392,729,0,0
175,295,0,0,0,0,0,0,0,0,0,-1,1399,729,0,0
182,295,0,0,0,0,0,0,0,0,0,-1,1406,729,0,0
189,295,0,0,0,0,0,0,0,0,0,-1,1413,729,0,0
196,295,0,0,0,0,0,0,0,0,0,-1,1420,729,0,0
203,295,0,0,0,0,0,0,0,0,0,-1,1427,729,0,0
210,295,0,0,0,0,0,0,0,0,0,-1,1434,729,0,0
217,295,0,0,0,0,0,0,0,0,0,-1,1441,729,0,0
224,295,0,0,0,0,0,0,0,0,0,-1,1448,729,0,0
231,295,0,0,0,0,0,0,0,0,0,-1,1455,729,0,0
238,295,0,0,0,0,0,0,0,0,0,-1,1462,729,0,0
245,295,0,0,0,0,0,0,0,0,0,-1,1469,729,0,0
252,295,0,0,0,0,0,0,0,0,0,-1,1476,729,0,0
259,295,0,0,0,0,0,0,0,0,0,-1,1483,729,0,0
266,295,0,0,0,0,0,0,0,0,0,-1,1490,729,0,0
273,295,0,0,0,0,0,0,0,0,0,-1,1497,729,0,0
280,295,0,0,0,0,0,0,0,0,0,-1,1504,729,0,0
287,295,0,0,0,0,0,0,0,0,0,-1,1511,729,0,0
294,295,0,0,0,0,0,0,0,0,0,-1,1518,729,0,0
301,295,0,0,0,0,0,0,0,0,0,-1,1525,729,0,0
308,295,0,0,0,0,0,0,0,0,0,-1,1532,729,0,0
315,295,0,0,0,0,0,0,0,0,0,-1,1539,729,0,0
322,295,0,0,0,0,0,0,0,0,0,-1,1546,729,0,0
329,295,0,0,0,0,0,0,0,0,0,-1,1553,729,0,0
336,295,0,0,0,0,0,0,0,0,0,-1,1560,729,0,0
343,295,0,0,0,0,0,0,0,0,0,-1,1567,729,0,0
350,295,0,0,0,0,0,0,0,0,0,-1,1574,729,0,0
357,295,0,0,0,0,0,0,0,0,0,-1,1581,729,0,0
364,295,0,0,0,0,0,0,0,0,0,-1,1588,729,0,0
371,295,0,0,0,0,0,0,0,0,0,-1,1595,729,0,0
378,295,0,0,0,0,0,0,0,0,0,-1,1602,729,0,0
385,295,0,0,0,0,0,0,0,0,0,-1,1609,729,0,0
392,295,0,0,0,0,0,0,0,0,0,-1,1616,729,0,0
399,295,0,0,0,0,0,0,0,0,0,-1,1623,729,0,0
406,295,0,0,0,0,0,0,0,0,0,-1,1630,729,0,0
413,295,0,0,0,0,0,0,0,0,0,-1,1637,729,0,0
420,295,0,0,0,0,0,0,0,0,0,-1,1644,729,0,0
427,295,0,0,0,0,0,0,0,0,0,-1,1651,729,0,0
434,295,0,0,0,0,0,0,0,0,0,-1,1658,729,0,0
441,295,0,0,0,0,0,0,0,0,0,-1,1665,729,0,0
448,295,0,0,0,0,0,0,0,0,0,-1,1672,729,0,0
455,295,0,0,0,0,0,0,0,0,0,-1,1679,729,0,0
462,295,0,0,0,0,0,0,0,0,0,-1,1686,729,0,0
469,295,0,0,0,0,0,0,0,0,0,-1,1693,729,0,0
476,295,0,0,0,0,0,0,0,0,0,-1,1700,729,0,0
483,295,0,0,0,0,0,0,0,0,0,-1,1707,729,0,0
490,295,0,0,0,0,0,0,0,0,0,-1,1714,729,0,0
497,295,0,0,0,0,0,0,0,0,0,-1,1721,729,0,0
504,295,0,0,0,0,0,0,0,0,0,-1,1728,729,0,0
511,295,0,0,0,0,0,0,0,0,0,-1,1735,729,0,0
518,295,0,0,0,0,0,0,0,0,0,-1,1742,729,0,0
525,295,0,0,0,0,0,0,0,0,0,-1,1749,729,0,0
532,295,0,0,0,0,0,0,0,0,0,-1,1756,729,0,0
539,295,0,0,0,0,0,0,0,0,0,-1,1763,729,0,0
546,295,57.4674,2.36884,0,0,0,0,0,0,0,-1,1770,729,57.4674,-2.36883
553,295,57.1969,2.73846,0,0,0,0,0,0,0,-1,1777,729,57.197,-2.73843
560,295,57.0291,3.27454,0,0,0,0,0,0,0,-1,1784,729,57.029,-3.27454
567,295,56.6243,3.88239,0,0,0,0,0,0,0,-1,1791,729,56.6242,-3.8824
574,295,56.5275,4.755,0,0,0,0,0,0,0,-1,1798,729,56.5274,-4.75501
581,295,37.8191,2.19592,0,0,0,0,0,0,0,-1,1805,729,37.8191,-2.19594
588,295,39.0542,2.45679,0,0,0,0,0,0,0,-1,1812,729,39.0542,-2.45676
595,295,27.2102,6.99121,0,0,0,0,0,0,0,-1,1819,729,27.2103,-6.99121
602,295,26.9065,7.82141,0,0,0,0,0,0,0,-1,1826,729,26.9064,-7.8214
609,295,11.7737,2.19989,0,0,0,0,0,0,0,-1,1833,729,11.7736,-2.19988
616,295,45.2537,-10.4867,0,0,0,0,0,0,0,-1,1840,729,45.2537,10.4867
623,295,47.7759,-9.89166,0,0,0,0,0,0,0,-1,1847,729,47.7759,9.89167
630,295,47.6973,-8.909,0.00239124,0.000657633,0.00110381,0.00292791,0.000120961,0.452547,0.00191289,0.0153913,1854,729,47.6973,8.90902
637,295,47.6145,-7.92883,0.00178931,0.000499447,0.00102564,0.00235594,-6.71839e-05,0.504733,0.00159349,0.0157433,1861,729,47.6145,7.92881
644,295,47.5566,-6.94061,0.00145826,0.000474807,0.000908139,0.00199926,-6.61863e-05,0.537264,0.00135544,0.0147171,1868,729,47.5567,6.94059
651,295,47.5085,-5.95062,0.00140698,0.000785667,0.00089698,0.00204558,0.000147072,0.618694,0.00131743,0.0149831,1875,729,47.5085,5.95065
658,295,47.4717,-5.0274,0.00153661,0.0012451,0.00104829,0.00244923,0.00033248,0.71632,0.00153405,0.0142735,1882,729,47.4716,5.02739
665,295,47.4148,-4.1062,0.00171514,0.00183142,0.00130822,0.00308279,0.000463764,0.807605,0.00191938,0.0127812,1889,729,47.4148,4.10622
672,295,47.339,-3.14532,0.00205716,0.00259452,0.00176058,0.00410681,0.000544874,0.861118,0.00257553,0.0148681,1896,729,47.339,3.14533
679,295,47.2511,-2.15918,0.00251716,0.00353584,0.00238498,0.00546526,0.000587734,0.890599,0.00346426,0.0117389,1903,729,47.2511,2.15917
686,295,47.2255,-1.16766,0.00312517,0.00458918,0.00320835,0.00714797,0.000566378,0.897556,0.00458819,0.0131945,1910,729,47.2254,1.16767
693,295,47.2223,-0.183594,0,0,0,0,0,0,0,-1,1917,729,47.2223,0.183616
700,295,31.3757,2.06982,0,0,0,0,0,0,0,-1,1924,729,31.3758,-2.0698
707,295,22.2661,3.05206,0,0,0,0,0,0,0,-1,1931,729,22.2662,-3.05207
714,295,17.4906,4.63068,0,0,0,0,0,0,0,-1,1938,729,17.4906,-4.63066
721,295,18.3792,5.32281,0,0,0,0,0,0,0,-1,1945,729,18.3791,-5.32283
728,295,17.379,3.74866,0,0,0,0,0,0,0,-1,1952,729,17.379,-3.74863
735,295,0,0,0,0,0,0,0,0,0,-1,1959,729,0,0
742,295,0,0,0,0,0,0,0,0,0,-1,1966,729,0,0
749,295,0,0,0,0,0,0,0,0,0,-1,1973,729,0,0
756,295,0,0,0,0,0,0,0,0,0,-1,1980,729,0,0
763,295,0,0,0,0,0,0,0,0,0,-1,1987,729,0,0
770,295,0,0,0,0,0,0,0,0,0,-1,1994,729,0,0
777,295,0,0,0,0,0,0,0,0,0,-1,2001,729,0,0
784,295,0,0,0,0,0,0,0,0,0,-1,2008,729,0,0
791,295,0,0,0,0,0,0,0,0,0,-1,2015,729,0,0
798,295,0,0,0,0,0,0,0,0,0,-1,2022,729,0,0
805,295,0,0,0,0,0,0,0,0,0,-1,2029,729,0,0
812,295,0,0,0,0,0,0,0,0,0,-1,2036,729,0,0
-700,288,0,0,0,0,0,0,0,0,0,-1,524,736,0,0
-693,288,0,0,0,0,0,0,0,0,0,-1,531,736,0,0
-686,288,0,0,0,0,0,0,0,0,0,-1,538,736,0,0
-679,288,0,0,0,0,0,0,0,0,0,-1,545,736,0,0
-672,288,0,0,0,0,0,0,0,0,0,-1,552,736,0,0
-665,288,0,0,0,0,0,0,0,0,0,-1,559,736,0,0
-658,288,0,0,0,0,0,0,0,0,0,-1,566,736,0,0
-651,288,0,0,0,0,0,0,0,0,0,-1,573,736,0,0
-644,288,0,0,0,0,0,0,0,0,0,-1,580,736,0,0
-637,288,0,0,0,0,0,0,0,0,0,-1,587,736,0,0
-630,288,0,0,0,0,0,0,0,0,0,-1,594,736,0,0
-623,288,0,0,0,0,0,0,0,0,0,-1,601,736,0,0
-616,288,-11.7584,2.4425,0,0,0,0,0,0,0,-1,608,736,-11.7584,-2.44251
-609,288,-10.3007,2.32178,0,0,0,0,0,0,0,-1,615,736,-10.3007,-2.32178
-602,288,-10.1458,-1.85559,0,0,0,0,0,0,0,-1,622,736,-10.1458,1.85556
-595,288,-7.63208,1.81769,0,0,0,0,0,0,0,-1,629,736,-7.63205,-1.81766
-588,288,-8.19269,1.50598,0,0,0,0,0,0,0,-1,636,736,-8.19268,-1.50601
-581,288,-13.1915,0.659241,0,0,0,0,0,0,0,-1,643,736,-13.1915,-0.659228
-574,288,-32.0158,0.449524,0,0,0,0,0,0,0,-1,650,736,-32.0158,-0.449513
-567,288,-32.0981,-0.412415,-0.00252588,0.00488254,-0.00326458,0.0061158,-0.00375915,-1.2096,0.00575517,0.0376068,657,736,-32.0981,0.412417
-560,288,-32.3666,-1.43109,-0.00156876,0.00350606,-0.00213533,0.00428498,-0.00234768,-1.22102,0.00388344,0.0182304,664,736,-32.3666,1.43111
-553,288,-32.3913,-2.34161,-0.000805762,0.00231792,-0.00139444,0.00284983,-0.00133768,-1.20638,0.00246965,0.0188712,671,736,-32.3913,2.3416
-546,288,-32.4842,-3.28784,-0.000420782,0.00150313,-0.000829836,0.00181161,-0.000729254,-1.2149,0.00151068,0.0209254,678,736,-32.4842,3.28787
-539,288,-32.5522,-4.25494,-0.000308289,0.000743737,-0.000323649,0.000835331,-0.000399883,-1.295,0.000727773,0.0187233,685,736,-32.5522,4.25495
-532,288,-32.554,-5.22443,-0.000519536,0.000150023,0.000235306,0.000224445,-0.000593959,1.26447,0.000488296,0.0160379,692,736,-32.554,5.22444
-525,288,-32.6195,-6.21326,-0.000809966,-0.000371812,0.000512165,-3.38368e-05,-0.00114794,0.987496,0.000754269,0.0136135,699,736,-32.6195,6.21327
-518,288,-32.7172,-7.18262,-0.000963577,-0.000285279,0.000713981,0.000166009,-0.00141487,1.00713,0.00100317,0.0114837,706,736,-32.7171,7.18261
-511,288,-32.808,-8.1123,-0.00150938,-0.000848526,0.000916021,-0.000205157,-0.00215274,0.958493,0.0013719,0.00965806,713,736,-32.808,8.1123
-504,288,-32.8829,-9.06818,-0.00185032,-0.00107928,0.00107666,-0.000321203,-0.0026084,0.957322,0.00164237,0.0122398,720,736,-32.8829,9.06817
-497,288,-32.8903,-9.83093,-0.00191736,-0.00129046,0.00109977,-0.00046034,-0.00274748,0.924223,0.00169912,0.0385207,727,736,-32.8903,9.83091
-490,288,-32.7852,-10.5236,0,0,0,0,0,0,0,-1,734,736,-32.7852,10.5235
-483,288,-17.3287,0.564758,0,0,0,0,0,0,0,-1,741,736,-17.3287,-0.56477
-476,288,-26.136,0.452148,0,0,0,0,0,0,0,-1,748,736,-26.136,-0.452177
-469,288,-27.7904,0.649841,0,0,0,0,0,0,0,-1,755,736,-27.7904,-0.649854
-462,288,-44.999,-2.65112,0,0,0,0,0,0,0,-1,762,736,-44.999,2.65111
-455,288,-49.1631,1.86432,0,0,0,0,0,0,0,-1,769,736,-49.1632,-1.8643
-448,288,-55.5283,0.0455933,0,0,0,0,0,0,0,-1,776,736,-55.5284,-0.0456
-441,288,-55.0096,0.39325,0,0,0,0,0,0,0,-1,783,736,-55.0096,-0.393269
-434,288,-46.7119,1.66388,0,0,0,0,0,0,0,-1,790,736,-46.7119,-1.66385
-427,288,0,0,0,0,0,0,0,0,0,-1,797,736,0,0
-420,288,0,0,0,0,0,0,0,0,0,-1,804,736,0,0
-413,288,0,0,0,0,0,0,0,0,0,-1,811,736,0,0
-406,288,0,0,0,0,0,0,0,0,0,-1,818,736,0,0
-399,288,0,0,0,0,0,0,0,0,0,-1,825,736,0,0
-392,288,0,0,0,0,0,0,0,0,0,-1,832,736,0,0
-385,288,0,0,0,0,0,0,0,0,0,-1,839,736,0,0
-378,288,0,0,0,0,0,0,0,0,0,-1,846,736,0,0
-371,288,0,0,0,0,0,0,0,0,0,-1,853,736,0,0
-364,288,0,0,0,0,0,0,0,0,0,-1,860,736,0,0
-357,288,0,0,0,0,0,0,0,0,0,-1,867,736,0,0
-350,288,0,0,0,0,0,0,0,0,0,-1,874,736,0,0
-343,288,0,0,0,0,0,0,0,0,0,-1,881,736,0,0
-336,288,0,0,0,0,0,0,0,0,0,-1,888,736,0,0
-329,288,0,0,0,0,0,0,0,0,0,-1,895,736,0,0
-322,288,0,0,0,0,0,0,0,0,0,-1,902,736,0,0
-315,288,0,0,0,0,0,0,0,0,0,-1,909,736,0,0
-308,288,0,0,0,0,0,0,0,0,0,-1,916,736,0,0
-301,288,0,0,0,0,0,0,0,0,0,-1,923,736,0,0
-294,288,0,0,0,0,0,0,0,0,0,-1,930,736,0,0
-287,288,0,0,0,0,0,0,0,0,0,-1,937,736,0,0
-280,288,0,0,0,0,0,0,0,0,0,-1,944,736,0,0
-273,288,0,0,0,0,0,0,0,0,0,-1,951,736,0,0
-266,288,0,0,0,0,0,0,0,0,0,-1,958,736,0,0
-259,288,0,0,0,0,0,0,0,0,0,-1,965,736,0,0
-252,288,0,0,0,0,0,0,0,0,0,-1,972,736,0,0
-245,288,0,0,0,0,0,0,0,0,0,-1,979,736,0,0
-238,288,0,0,0,0,0,0,0,0,0,-1,986,736,0,0
-231,288,0,0,0,0,0,0,0,0,0,-1,993,736,0,0
-224,288,0,0,0,0,0,0,0,0,0,-1,1000,736,0,0
-217,288,0,0,0,0,0,0,0,0,0,-1,1007,736,0,0
-210,288,0,0,0,0,0,0,0,0,0,-1,1014,736,0,0
-203,288,0,0,0,0,0,0,0,0,0,-1,1021,736,0,0
-196,288,0,0,0,0,0,0,0,0,0,-1,1028,736,0,0
-189,288,0,0,0,0,0,0,0,0,0,-1,1035,736,0,0
-182,288,0,0,0,0,0,0,0,0,0,-1,1042,736,0,0
-175,288,0,0,0,0,0,0,0,0,0,-1,1049,736,0,0
-168,288,0,0,0,0,0,0,0,0,0,-1,1056,736,0,0
-161,288,0,0,0,0,0,0,0,0,0,-1,1063,736,0,0
-154,288,0,0,0,0,0,0,0,0,0,-1,1070,736,0,0
-147,288,0,0,0,0,0,0,0,0,0,-1,1077,736,0,0
-140,288,0,0,0,0,0,0,0,0,0,-1,1084,736,0,0
-133,288,0,0,0,0,0,0,0,0,0,-1,1091,736,0,0
-126,288,0,0,0,0,0,0,0,0,0,-1,1098,736,0,0
-119,288,0,0,0,0,0,0,0,0,0,-1,1105,736,0,0
-112,288,0,0,0,0,0,0,0,0,0,-1,1112,736,0,0
-105,288,0,0,0,0,0,0,0,0,0,-1,1119,736,0,0
-98,288,0,0,0,0,0,0,0,0,0,-1,1126,736,0,0
-91,288,0,0,0,0,0,0,0,0,0,-1,1133,736,0,0
-84,288,0,0,0,0,0,0,0,0,0,-1,1140,736,0,0
-77,288,0,0,0,0,0,0,0,0,0,-1,1147,736,0,0
-70,288,0,0,0,0,0,0,0,0,0,-1,1154,736,0,0
-63,288,0,0,0,0,0,0,0,0,0,-1,1161,736,0,0
-56,288,0,0,0,0,0,0,0,0,0,-1,1168,736,0,0
-49,288,0,0,0,0,0,0,0,0,0,-1,1175,736,0,0
-42,288,0,0,0,0,0,0,0,0,0,-1,1182,736,0,0
-35,288,0,0,0,0,0,0,0,0,0,-1,1189,736,0,0
-28,288,0,0,0,0,0,0,0,0,0,-1,1196,736,0,0
-21,288,0,0,0,0,0,0,0,0,0,-1,1203,736,0,0
-14,288,0,0,0,0,0,0,0,0,0,-1,1210,736,0,0
-7,288,0,0,0,0,0,0,0,0,0,-1,1217,736,0,0
0,288,0,0,0,0,0,0,0,0,0,-1,1224,736,0,0
7,288,0,0,0,0,0,0,0,0,0,-1,1231,736,0,0
14,288,0,0,0,0,0,0,0,0,0,-1,1238,736,0,0
21,288,0,0,0,0,0,0,0,0,0,-1,1245,736,0,0
28,288,0,0,0,0,0,0,0,0,0,-1,1252,736,0,0
35,288,0,0,0,0,0,0,0,0,0,-1,1259,736,0,0
42,288,0,0,0,0,0,0,0,0,0,-1,1266,736,0,0
49,288,0,0,0,0,0,0,0,0,0,-1,1273,736,0,0
56,288,0,0,0,0,0,0,0,0,0,-1,1280,736,0,0
63,288,0,0,0,0,0,0,0,0,0,-1,1287,736,0,0
70,288,0,0,0,0,0,0,0,0,0,-1,1294,736,0,0
77,288,0,0,0,0,0,0,0,0,0,-1,1301,736,0,0
84,288,0,0,0,0,0,0,0,0,0,-1,1308,736,0,0
91,288,0,0,0,0,0,0,0,0,0,-1,1315,736,0,0
98,288,0,0,0,0,0,0,0,0,0,-1,1322,736,0,0
105,288,0,0,0,0,0,0,0,0,0,-1,1329,736,0,0
112,288,0,0,0,0,0,0,0,0,0,-1,1336,736,0,0
119,288,0,0,0,0,0,0,0,0,0,-1,1343,736,0,0
126,288,0,0,0,0,0,0,0,0,0,-1,1350,736,0,0
133,288,0,0,0,0,0,0,0,0,0,-1,1357,736,0,0
140,288,0,0,0,0,0,0,0,0,0,-1,1364,736,0,0
147,288,0,0,0,0,0,0,0,0,0,-1,1371,736,0,0
154,288,0,0,0,0,0,0,0,0,0,-1,1378,736,0,0
161,288,0,0,0,0,0,0,0,0,0,-1,1385,736,0,0
168,288,0,0,0,0,0,0,0,0,0,-1,1392,736,0,0
175,288,0,0,0,0,0,0,0,0,0,-1,1399,736,0,0
182,288,0,0,0,0,0,0,0,0,0,-1,1406,736,0,0
189,288,0,0,0,0,0,0,0,0,0,-1,1413,736,0,0
196,288,0,0,0,0,0,0,0,0,0,-1,1420,736,0,0
203,288,0,0,0,0,0,0,0,0,0,-1,1427,736,0,0
210,288,0,0,0,0,0,0,0,0,0,-1,1434,736,0,0
217,288,0,0,0,0,0,0,0,0,0,-1,1441,736,0,0
224,288,0,0,0,0,0,0,0,0,0,-1,1448,736,0,0
231,288,0,0,0,0,0,0,0,0,0,-1,1455,736,0,0
238,288,0,0,0,0,0,0,0,0,0,-1,1462,736,0,0
245,288,0,0,0,0,0,0,0,0,0,-1,1469,736,0,0
252,288,0,0,0,0,0,0,0,0,0,-1,1476,736,0,0
259,288,0,0,0,0,0,0,0,0,0,-1,1483,736,0,0
266,288,0,0,0,0,0,0,0,0,0,-1,1490,736,0,0
273,288,0,0,0,0,0,0,0,0,0,-1,1497,736,0,0
280,288,0,0,0,0,0,0,0,0,0,-1,1504,736,0,0
287,288,0,0,0,0,0,0,0,0,0,-1,1511,736,0,0
294,288,0,0,0,0,0,0,0,0,0,-1,1518,736,0,0
301,288,0,0,0,0,0,0,0,0,0,-1,1525,736,0,0
308,288,0,0,0,0,0,0,0,0,0,-1,1532,736,0,0
315,288,0,0,0,0,0,0,0,0,0,-1,1539,736,0,0
322,288,0,0,0,0,0,0,0,0,0,-1,1546,736,0,0
329,288,0,0,0,0,0,0,0,0,0,-1,1553,736,0,0
336,288,0,0,0,0,0,0,0,0,0,-1,1560,736,0,0
343,288,0,0,0,0,0,0,0,0,0,-1,1567,736,0,0
350,288,0,0,0,0,0,0,0,0,0,-1,1574,736,0,0
357,288,0,0,0,0,0,0,0,0,0,-1,1581,736,0,0
364,288,0,0,0,0,0,0,0,0,0,-1,1588,736,0,0
371,288,0,0,0,0,0,0,0,0,0,-1,1595,736,0,0
378,288,0,0,0,0,0,0,0,0,0,-1,1602,736,0,0
385,288,0,0,0,0,0,0,0,0,0,-1,1609,736,0,0
392,288,0,0,0,0,0,0,0,0,0,-1,1616,736,0,0
399,288,0,0,0,0,0,0,0,0,0,-1,1623,736,0,0
406,288,0,0,0,0,0,0,0,0,0,-1,1630,736,0,0
413,288,0,0,0,0,0,0,0,0,0,-1,1637,736,0,0
420,288,0,0,0,0,0,0,0,0,0,-1,1644,736,0,0
427,288,0,0,0,0,0,0,0,0,0,-1,1651,736,0,0
434,288,0,0,0,0,0,0,0,0,0,-1,1658,736,0,0
441,288,0,0,0,0,0,0,0,0,0,-1,1665,736,0,0
448,288,0,0,0,0,0,0,0,0,0,-1,1672,736,0,0
455,288,0,0,0,0,0,0,0,0,0,-1,1679,736,0,0
462,288,0,0,0,0,0,0,0,0,0,-1,1686,736,0,0
469,288,0,0,0,0,0,0,0,0,0,-1,1693,736,0,0
476,288,0,0,0,0,0,0,0,0,0,-1,1700,736,0,0
483,288,0,0,0,0,0,0,0,0,0,-1,1707,736,0,0
490,288,0,0,0,0,0,0,0,0,0,-1,1714,736,0,0
497,288,0,0,0,0,0,0,0,0,0,-1,1721,736,0,0
504,288,0,0,0,0,0,0,0,0,0,-1,1728,736,0,0
511,288,0,0,0,0,0,0,0,0,0,-1,1735,736,0,0
518,288,0,0,0,0,0,0,0,0,0,-1,1742,736,0,0
525,288,0,0,0,0,0,0,0,0,0,-1,1749,736,0,0
532,288,0,0,0,0,0,0,0,0,0,-1,1756,736,0,0
539,288,0,0,0,0,0,0,0,0,0,-1,1763,736,0,0
546,288,0,0,0,0,0,0,0,0,0,-1,1770,736,0,0
553,288,57.4934,2.28064,0,0,0,0,0,0,0,-1,1777,736,57.4934,-2.28064
560,288,57.3807,3.02881,0,0,0,0,0,0,0,-1,1784,736,57.3808,-3.0288
567,288,57.2081,3.74274,0,0,0,0,0,0,0,-1,1791,736,57.2081,-3.74273
574,288,56.9817,4.36981,0,0,0,0,0,0,0,-1,1798,736,56.9816,-4.36984
581,288,53.4904,5.33215,0,0,0,0,0,0,0,-1,1805,736,53.4904,-5.33218
588,288,54.9313,3.29852,0,0,0,0,0,0,0,-1,1812,736,54.9313,-3.29849
595,288,47.035,3.35156,0,0,0,0,0,0,0,-1,1819,736,47.035,-3.35157
602,288,26.7634,7.61279,0,0,0,0,0,0,0,-1,1826,736,26.7635,-7.61279
609,288,17.5223,4.86414,0,0,0,0,0,0,0,-1,1833,736,17.5223,-4.86412
616,288,13.4886,0.801331,0,0,0,0,0,0,0,-1,1840,736,13.4886,-0.80132
623,288,48.5865,-9.71417,0,0,0,0,0,0,0,-1,1847,736,48.5866,9.71418
630,288,48.6023,-8.78821,0.00284128,0.00121703,0.00133769,0.00359408,0.000464239,0.512582,0.00225727,0.0394957,1854,736,48.6023,8.7882
637,288,48.6057,-7.86279,0.00208034,0.000866049,0.00124986,0.00286272,8.36655e-05,0.5593,0.00188121,0.0134184,1861,736,48.6057,7.86281
644,288,48.545,-6.8764,0.00154447,0.000607324,0.000981657,0.00216365,-1.18576e-05,0.562725,0.0014464,0.0117643,1868,736,48.5451,6.8764
651,288,48.4836,-5.8941,0.0013723,0.000718918,0.000801521,0.00191115,0.000180066,0.591884,0.00121852,0.0130147,1875,736,48.4837,5.89412
658,288,48.4359,-4.95435,0.00144902,0.000982678,0.000883748,0.00212984,0.000301857,0.656417,0.00133073,0.0176672,1882,736,48.4359,4.95438
665,288,48.3788,-4.01056,0.00158349,0.00145084,0.00110413,0.00262329,0.000411037,0.755398,0.00162922,0.0178059,1889,736,48.3788,4.01054
672,288,48.3109,-3.0791,0.00188312,0.00208697,0.00151229,0.00350076,0.000469328,0.819047,0.0021942,0.0179511,1896,736,48.3109,3.07912
679,288,48.246,-2.09833,0.00231037,0.00293932,0.00210198,0.00475022,0.000499471,0.859653,0.00301415,0.0154769,1903,736,48.2459,2.0983
686,288,48.1637,-1.14539,0.00283474,0.00393045,0.00283762,0.00627263,0.000492573,0.880759,0.00402761,0.0128841,1910,736,48.1637,1.14541
693,288,48.1498,-0.0664063,0.00373226,0.00528632,0.00390062,0.00848655,0.00053203,0.883714,0.00548895,0.0283965,1917,736,48.1498,0.0664302
700,288,48.1273,1.08344,0,0,0,0,0,0,0,-1,1924,736,48.1273,-1.08343
707,288,30.9496,3.07977,0,0,0,0,0,0,0,-1,1931,736,30.9496,-3.07975
714,288,23.0149,3.82544,0,0,0,0,0,0,0,-1,1938,736,23.0149,-3.82541
721,288,18.0732,3.69385,0,0,0,0,0,0,0,-1,1945,736,18.0732,-3.69387
728,288,19.3208,3.91455,0,0,0,0,0,0,0,-1,1952,736,19.3209,-3.91455
735,288,18.7712,3.51312,0,0,0,0,0,0,0,-1,1959,736,18.7713,-3.51309
742,288,0,0,0,0,0,0,0,0,0,-1,1966,736,0,0
749,288,0,0,0,0,0,0,0,0,0,-1,1973,736,0,0
756,288,0,0,0,0,0,0,0,0,0,-1,1980,736,0,0
763,288,0,0,0,0,0,0,0,0,0,-1,1987,736,0,0
770,288,0,0,0,0,0,0,0,0,0,-1,1994,736,0,0
777,288,0,0,0,0,0,0,0,0,0,-1,2001,736,0,0
784,288,0,0,0,0,0,0,0,0,0,-1,2008,736,0,0
791,288,0,0,0,0,0,0,0,0,0,-1,2015,736,0,0
798,288,0,0,0,0,0,0,0,0,0,-1,2022,736,0,0
805,288,0,0,0,0,0,0,0,0,0,-1,2029,736,0,0
812,288,0,0,0,0,0,0,0,0,0,-1,2036,736,0,0
-700,281,0,0,0,0,0,0,0,0,0,-1,524,743,0,0
-693,281,0,0,0,0,0,0,0,0,0,-1,531,743,0,0
-686,281,0,0,0,0,0,0,0,0,0,-1,538,743,0,0
-679,281,0,0,0,0,0,0,0,0,0,-1,545,743,0,0
-672,281,0,0,0,0,0,0,0,0,0,-1,552,743,0,0
-665,281,0,0,0,0,0,0,0,0,0,-1,559,743,0,0
-658,281,0,0,0,0,0,0,0,0,0,-1,566,743,0,0
-651,281,0,0,0,0,0,0,0,0,0,-1,573,743,0,0
-644,281,0,0,0,0,0,0,0,0,0,-1,580,743,0,0
-637,281,0,0,0,0,0,0,0,0,0,-1,587,743,0,0
-630,281,0,0,0,0,0,0,0,0,0,-1,594,743,0,0
-623,281,-19.1697,5.67017,0,0,0,0,0,0,0,-1,601,743,-19.1697,-5.67019
-616,281,-11.5906,2.6853,0,0,0,0,0,0,0,-1,608,743,-11.5906,-2.68529
-609,281,-16.1972,4.14838,0,0,0,0,0,0,0,-1,615,743,-16.1972,-4.14837
-602,281,-21.9772,6.77417,0,0,0,0,0,0,0,-1,622,743,-21.9771,-6.77415
-595,281,-10.4797,-1.07404,0,0,0,0,0,0,0,-1,629,743,-10.4798,1.07402
-588,281,-13.277,1.49817,0,0,0,0,0,0,0,-1,636,743,-13.2771,-1.49817
-581,281,-33.0552,1.40442,0,0,0,0,0,0,0,-1,643,743,-33.0552,-1.40441
-574,281,-33.0095,0.517151,-0.00349378,0.00628019,-0.00481936,0.00825679,-0.00547038,-1.18158,0.00797962,0.0477722,650,743,-33.0095,-0.517181
-567,281,-33.2578,-0.333618,-0.00239729,0.00441535,-0.00303483,0.00557119,-0.00355312,-1.2069,0.0053107,0.0225409,657,743,-33.2578,0.333637
-560,281,-33.3623,-1.3147,-0.00172582,0.00304645,-0.001832,0.00366861,-0.00234798,-1.24341,0.00350146,0.00921834,664,743,-33.3623,1.31469
-553,281,-33.4003,-2.27338,-0.00119063,0.00194354,-0.00101685,0.00224454,-0.00149163,-1.283,0.00217163,0.0152607,671,743,-33.4003,2.27337
-546,281,-33.4656,-3.21375,-0.00093237,0.00111587,-0.000396515,0.00118995,-0.00100645,-1.38609,0.00126957,0.016911,678,743,-33.4656,3.21374
-539,281,-33.5056,-4.19818,-0.000914073,0.000387104,0.000126179,0.000399227,-0.000926196,1.47501,0.000785135,0.015231,685,743,-33.5056,4.19817
-532,281,-33.5214,-5.11591,-0.00117111,-8.28313e-05,0.000622408,0.000199757,-0.0014537,1.1446,0.00104212,0.0154946,692,743,-33.5214,5.11593
-525,281,-33.6312,-6.11108,-0.00140821,-0.000369549,0.000718408,-2.41736e-06,-0.00177534,1.09836,0.00118275,0.0173064,699,743,-33.6312,6.11109
-518,281,-33.7029,-7.10565,-0.00131941,0.000133791,0.000659703,0.000388595,-0.00157422,1.20221,0.00120017,0.0136141,706,743,-33.7029,7.10566
-511,281,-33.7758,-8.06445,-0.00165615,-0.000332946,0.000616562,-9.01879e-05,-0.00189891,1.19571,0.00123697,0.0141741,713,743,-33.7757,8.06447
-504,281,-33.8959,-9.03619,-0.00164381,-0.000341209,0.00047181,-0.000188273,-0.00179675,1.25733,0.00114027,0.0195321,720,743,-33.8958,9.03618
-497,281,-34.0057,-9.99176,0,0,0,0,0,0,0,-1,727,743,-34.0057,9.99174
-490,281,-27.6985,-9.63165,0,0,0,0,0,0,0,-1,734,743,-27.6986,9.63165
-483,281,-22.1078,-2.34973,0,0,0,0,0,0,0,-1,741,743,-22.1078,2.3497
-476,281,-28.0016,2.17786,0,0,0,0,0,0,0,-1,748,743,-28.0016,-2.17786
-469,281,-34.6448,0.171692,0,0,0,0,0,0,0,-1,755,743,-34.6448,-0.171685
-462,281,-46.6214,0.0193481,0,0,0,0,0,0,0,-1,762,743,-46.6214,-0.0193665
-455,281,-56.0239,-0.1521,0,0,0,0,0,0,0,-1,769,743,-56.024,0.152123
-448,281,-55.8145,0.304321,0,0,0,0,0,0,0,-1,776,743,-55.8145,-0.304294
-441,281,-55.4486,0.766052,0,0,0,0,0,0,0,-1,783,743,-55.4486,-0.766078
-434,281,0,0,0,0,0,0,0,0,0,-1,790,743,0,0
-427,281,0,0,0,0,0,0,0,0,0,-1,797,743,0,0
-420,281,0,0,0,0,0,0,0,0,0,-1,804,743,0,0
-413,281,0,0,0,0,0,0,0,0,0,-1,811,743,0,0
-406,281,0,0,0,0,0,0,0,0,0,-1,818,743,0,0
-399,281,0,0,0,0,0,0,0,0,0,-1,825,743,0,0
-392,281,0,0,0,0,0,0,0,0,0,-1,832,743,0,0
-385,281,0,0,0,0,0,0,0,0,0,-1,839,743,0,0
-378,281,0,0,0,0,0,0,0,0,0,-1,846,743,0,0
-371,281,0,0,0,0,0,0,0,0,0,-1,853,743,0,0
-364,281,0,0,0,0,0,0,0,0,0,-1,860,743,0,0
-357,281,0,0,0,0,0,0,0,0,0,-1,867,743,0,0
-350,281,0,0,0,0,0,0,0,0,0,-1,874,743,0,0
-343,281,0,0,0,0,0,0,0,0,0,-1,881,743,0,0
-336,281,0,0,0,0,0,0,0,0,0,-1,888,743,0,0
-329,281,0,0,0,0,0,0,0,0,0,-1,895,743,0,0
-322,281,0,0,0,0,0,0,0,0,0,-1,902,743,0,0
-315,281,0,0,0,0,0,0,0,0,0,-1,909,743,0,0
-308,281,0,0,0,0,0,0,0,0,0,-1,916,743,0,0
-301,281,0,0,0,0,0,0,0,0,0,-1,923,743,0,0
-294,281,0,0,0,0,0,0,0,0,0,-1,930,743,0,0
-287,281,0,0,0,0,0,0,0,0,0,-1,937,743,0,0
-280,281,0,0,0,0,0,0,0,0,0,-1,944,743,0,0
-273,281,0,0,0,0,0,0,0,0,0,-1,951,743,0,0
-266,281,0,0,0,0,0,0,0,0,0,-1,958,743,0,0
-259,281,0,0,0,0,0,0,0,0,0,-1,965,743,0,0
-252,281,0,0,0,0,0,0,0,0,0,-1,972,743,0,0
-245,281,0,0,0,0,0,0,0,0,0,-1,979,743,0,0
-238,281,0,0,0,0,0,0,0,0,0,-1,986,743,0,0
-231,281,0,0,0,0,0,0,0,0,0,-1,993,743,0,0
-224,281,0,0,0,0,0,0,0,0,0,-1,1000,743,0,0
-217,281,0,0,0,0,0,0,0,0,0,-1,1007,743,0,0
-210,281,0,0,0,0,0,0,0,0,0,-1,1014,743,0,0
-203,281,0,0,0,0,0,0,0,0,0,-1,1021,743,0,0
-196,281,0,0,0,0,0,0,0,0,0,-1,1028,743,0,0
-189,281,0,0,0,0,0,0,0,0,0,-1,1035,743,0,0
-182,281,0,0,0,0,0,0,0,0,0,-1,1042,743,0,0
-175,281,0,0,0,0,0,0,0,0,0,-1,1049,743,0,0
-168,281,0,0,0,0,0,0,0,0,0,-1,1056,743,0,0
-161,281,0,0,0,0,0,0,0,0,0,-1,1063,743,0,0
-154,281,0,0,0,0,0,0,0,0,0,-1,1070,743,0,0
-147,281,0,0,0,0,0,0,0,0,0,-1,1077,743,0,0
-140,281,0,0,0,0,0,0,0,0,0,-1,1084,743,0,0
-133,281,0,0,0,0,0,0,0,0,0,-1,1091,743,0,0
-126,281,0,0,0,0,0,0,0,0,0,-1,1098,743,0,0
-119,281,0,0,0,0,0,0,0,0,0,-1,1105,743,0,0
-112,281,0,0,0,0,0,0,0,0,0,-1,1112,743,0,0
-105,281,0,0,0,0,0,0,0,0,0,-1,1119,743,0,0
-98,281,0,0,0,0,0,0,0,0,0,-1,1126,743,0,0
-91,281,0,0,0,0,0,0,0,0,0,-1,1133,743,0,0
-84,281,0,0,0,0,0,0,0,0,0,-1,1140,743,0,0
-77,281,0,0,0,0,0,0,0,0,0,-1,1147,743,0,0
-70,281,0,0,0,0,0,0,0,0,0,-1,1154,743,0,0
-63,281,0,0,0,0,0,0,0,0,0,-1,1161,743,0,0
-56,281,0,0,0,0,0,0,0,0,0,-1,1168,743,0,0
-49,281,0,0,0,0,0,0,0,0,0,-1,1175,743,0,0
-42,281,0,0,0,0,0,0,0,0,0,-1,1182,743,0,0
-35,281,0,0,0,0,0,0,0,0,0,-1,1189,743,0,0
-28,281,0,0,0,0,0,0,0,0,0,-1,1196,743,0,0
-21,281,0,0,0,0,0,0,0,0,0,-1,1203,743,0,0
-14,281,0,0,0,0,0,0,0,0,0,-1,1210,743,0,0
-7,281,0,0,0,0,0,0,0,0,0,-1,1217,743,0,0
0,281,0,0,0,0,0,0,0,0,0,-1,1224,743,0,0
7,281,0,0,0,0,0,0,0,0,0,-1,1231,743,0,0
14,281,0,0,0,0,0,0,0,0,0,-1,1238,743,0,0
21,281,0,0,0,0,0,0,0,0,0,-1,1245,743,0,0
28,281,0,0,0,0,0,0,0,0,0,-1,1252,743,0,0
35,281,0,0,0,0,0,0,0,0,0,-1,1259,743,0,0
42,281,0,0,0,0,0,0,0,0,0,-1,1266,743,0,0
49,281,0,0,0,0,0,0,0,0,0,-1,1273,743,0,0
56,281,0,0,0,0,0,0,0,0,0,-1,1280,743,0,0
63,281,0,0,0,0,0,0,0,0,0,-1,1287,743,0,0
70,281,0,0,0,0,0,0,0,0,0,-1,1294,743,0,0
77,281,0,0,0,0,0,0,0,0,0,-1,1301,743,0,0
84,281,0,0,0,0,0,0,0,0,0,-1,1308,743,0,0
91,281,0,0,0,0,0,0,0,0,0,-1,1315,743,0,0
98,281,0,0,0,0,0,0,0,0,0,-1,1322,743,0,0
105,281,0,0,0,0,0,0,0,0,0,-1,1329,743,0,0
112,281,0,0,0,0,0,0,0,0,0,-1,1336,743,0,0
119,281,0,0,0,0,0,0,0,0,0,-1,1343,743,0,0
126,281,0,0,0,0,0,0,0,0,0,-1,1350,743,0,0
133,281,0,0,0,0,0,0,0,0,0,-1,1357,743,0,0
140,281,0,0,0,0,0,0,0,0,0,-1,1364,743,0,0
147,281,0,0,0,0,0,0,0,0,0,-1,1371,743,0,0
154,281,0,0,0,0,0,0,0,0,0,-1,1378,743,0,0
161,281,0,0,0,0,0,0,0,0,0,-1,1385,743,0,0
168,281,0,0,0,0,0,0,0,0,0,-1,1392,743,0,0
175,281,0,0,0,0,0,0,0,0,0,-1,1399,743,0,0
182,281,0,0,0,0,0,0,0,0,0,-1,1406,743,0,0
189,281,0,0,0,0,0,0,0,0,0,-1,1413,743,0,0
196,281,0,0,0,0,0,0,0,0,0,-1,1420,743,0,0
203,281,0,0,0,0,0,0,0,0,0,-1,1427,743,0,0
210,281,0,0,0,0,0,0,0,0,0,-1,1434,743,0,0
217,281,0,0,0,0,0,0,0,0,0,-1,1441,743,0,0
224,281,0,0,0,0,0,0,0,0,0,-1,1448,743,0,0
231,281,0,0,0,0,0,0,0,0,0,-1,1455,743,0,0
238,281,0,0,0,0,0,0,0,0,0,-1,1462,743,0,0
245,281,0,0,0,0,0,0,0,0,0,-1,1469,743,0,0
252,281,0,0,0,0,0,0,0,0,0,-1,1476,743,0,0
259,281,0,0,0,0,0,0,0,0,0,-1,1483,743,0,0
266,281,0,0,0,0,0,0,0,0,0,-1,1490,743,0,0
273,281,0,0,0,0,0,0,0,0,0,-1,1497,743,0,0
280,281,0,0,0,0,0,0,0,0,0,-1,1504,743,0,0
287,281,0,0,0,0,0,0,0,0,0,-1,1511,743,0,0
294,281,0,0,0,0,0,0,0,0,0,-1,1518,743,0,0
301,281,0,0,0,0,0,0,0,0,0,-1,1525,743,0,0
308,281,0,0,0,0,0,0,0,0,0,-1,1532,743,0,0
315,281,0,0,0,0,0,0,0,0,0,-1,1539,743,0,0
322,281,0,0,0,0,0,0,0,0,0,-1,1546,743,0,0
329,281,0,0,0,0,0,0,0,0,0,-1,1553,743,0,0
336,281,0,0,0,0,0,0,0,0,0,-1,1560,743,0,0
343,281,0,0,0,0,0,0,0,0,0,-1,1567,743,0,0
350,281,0,0,0,0,0,0,0,0,0,-1,1574,743,0,0
357,281,0,0,0,0,0,0,0,0,0,-1,1581,743,0,0
364,281,0,0,0,0,0,0,0,0,0,-1,1588,743,0,0
371,281,0,0,0,0,0,0,0,0,0,-1,1595,743,0,0
378,281,0,0,0,0,0,0,0,0,0,-1,1602,743,0,0
385,281,0,0,0,0,0,0,0,0,0,-1,1609,743,0,0
392,281,0,0,0,0,0,0,0,0,0,-1,1616,743,0,0
399,281,0,0,0,0,0,0,0,0,0,-1,1623,743,0,0
406,281,0,0,0,0,0,0,0,0,0,-1,1630,743,0,0
413,281,0,0,0,0,0,0,0,0,0,-1,1637,743,0,0
420,281,0,0,0,0,0,0,0,0,0,-1,1644,743,0,0
427,281,0,0,0,0,0,0,0,0,0,-1,1651,743,0,0
434,281,0,0,0,0,0,0,0,0,0,-1,1658,743,0,0
441,281,0,0,0,0,0,0,0,0,0,-1,1665,743,0,0
448,281,0,0,0,0,0,0,0,0,0,-1,1672,743,0,0
455,281,0,0,0,0,0,0,0,0,0,-1,1679,743,0,0
462,281,0,0,0,0,0,0,0,0,0,-1,1686,743,0,0
469,281,0,0,0,0,0,0,0,0,0,-1,1693,743,0,0
476,281,0,0,0,0,0,0,0,0,0,-1,1700,743,0,0
483,281,0,0,0,0,0,0,0,0,0,-1,1707,743,0,0
490,281,0,0,0,0,0,0,0,0,0,-1,1714,743,0,0
497,281,0,0,0,0,0,0,0,0,0,-1,1721,743,0,0
504,281,0,0,0,0,0,0,0,0,0,-1,1728,743,0,0
511,281,0,0,0,0,0,0,0,0,0,-1,1735,743,0,0
518,281,0,0,0,0,0,0,0,0,0,-1,1742,743,0,0
525,281,0,0,0,0,0,0,0,0,0,-1,1749,743,0,0
532,281,0,0,0,0,0,0,0,0,0,-1,1756,743,0,0
539,281,0,0,0,0,0,0,0,0,0,-1,1763,743,0,0
546,281,0,0,0,0,0,0,0,0,0,-1,1770,743,0,0
553,281,0,0,0,0,0,0,0,0,0,-1,1777,743,0,0
560,281,57.8354,3.06482,0,0,0,0,0,0,0,-1,1784,743,57.8354,-3.06479
567,281,57.6156,3.64508,0,0,0,0,0,0,0,-1,1791,743,57.6156,-3.64511
574,281,57.3431,4.17767,0,0,0,0,0,0,0,-1,1798,743,57.3431,-4.17769
581,281,57.0648,4.53906,0,0,0,0,0,0,0,-1,1805,743,57.0648,-4.53908
588,281,53.5422,6.00092,0,0,0,0,0,0,0,-1,1812,743,53.5422,-6.00092
595,281,54.8569,3.32269,0,0,0,0,0,0,0,-1,1819,743,54.857,-3.32269
602,281,45.9985,3.98254,0,0,0,0,0,0,0,-1,1826,743,45.9985,-3.98254
609,281,32.7925,1.28723,0,0,0,0,0,0,0,-1,1833,743,32.7925,-1.28722
616,281,21.3191,-0.253906,0,0,0,0,0,0,0,-1,1840,743,21.3191,0.253931
623,281,31.8741,-4.74182,0,0,0,0,0,0,0,-1,1847,743,31.8741,4.74184
630,281,49.459,-8.65533,0,0,0,0,0,0,0,-1,1854,743,49.459,8.65534
637,281,49.4792,-7.78638,0.00240348,0.000907792,0.00132662,0.00317853,0.000132744,0.52874,0.00207619,0.0262595,1861,743,49.4793,7.78637
644,281,49.495,-6.82422,0.00170064,0.00067238,0.00101726,0.00232631,4.67103e-05,0.551416,0.00153554,0.0120613,1868,743,49.4949,6.82424
651,281,49.4672,-5.86218,0.00131097,0.000715395,0.000680159,0.00175567,0.000270691,0.579058,0.00109147,0.0130677,1875,743,49.4671,5.86217
658,281,49.4034,-4.88947,0.00124842,0.000801115,0.000673168,0.00173411,0.000315418,0.625016,0.0010666,0.021306,1882,743,49.4034,4.88944
665,281,49.313,-3.94617,0.00128981,0.00115694,0.000834533,0.00206055,0.000386204,0.745678,0.00126478,0.0218641,1889,743,49.313,3.94617
672,281,49.2709,-2.97766,0.00150958,0.00166945,0.00118146,0.00277367,0.000405356,0.819176,0.0017299,0.0148143,1896,743,49.2709,2.97764
679,281,49.2196,-2.05078,0.00186489,0.0024444,0.00170483,0.00388393,0.000425367,0.869574,0.00245979,0.0236198,1903,743,49.2196,2.05079
686,281,49.0929,-1.13159,0.00229779,0.00335538,0.00234078,0.00522635,0.000426817,0.896486,0.00335103,0.0191589,1910,743,49.0928,1.13159
693,281,49.0475,-0.134216,0.00300594,0.00454969,0.00322697,0.00709581,0.000459813,0.90279,0.00458496,0.0142093,1917,743,49.0475,0.134213
700,281,48.9583,0.957947,0.00402451,0.00604879,0.00446303,0.00961301,0.000460293,0.896904,0.00626088,0.0499607,1924,743,48.9583,-0.957946
707,281,49.021,2.03339,0,0,0,0,0,0,0,-1,1931,743,49.0209,-2.0334
714,281,25.0125,2.5105,0,0,0,0,0,0,0,-1,1938,743,25.0124,-2.51053
721,281,16.9656,3.22174,0,0,0,0,0,0,0,-1,1945,743,16.9656,-3.22172
728,281,19.0251,3.63934,0,0,0,0,0,0,0,-1,1952,743,19.0252,-3.63932
735,281,19.0869,2.50311,0,0,0,0,0,0,0,-1,1959,743,19.0869,-2.5031
742,281,0,0,0,0,0,0,0,0,0,-1,1966,743,0,0
749,281,0,0,0,0,0,0,0,0,0,-1,1973,743,0,0
756,281,0,0,0,0,0,0,0,0,0,-1,1980,743,0,0
763,281,0,0,0,0,0,0,0,0,0,-1,1987,743,0,0
770,281,0,0,0,0,0,0,0,0,0,-1,1994,743,0,0
777,281,0,0,0,0,0,0,0,0,0,-1,2001,743,0,0
784,281,0,0,0,0,0,0,0,0,0,-1,2008,743,0,0
791,281,0,0,0,0,0,0,0,0,0,-1,2015,743,0,0
798,281,0,0,0,0,0,0,0,0,0,-1,2022,743,0,0
805,281,0,0,0,0,0,0,0,0,0,-1,2029,743,0,0
812,281,0,0,0,0,0,0,0,0,0,-1,2036,743,0,0
-700,274,0,0,0,0,0,0,0,0,0,-1,524,750,0,0
-693,274,0,0,0,0,0,0,0,0,0,-1,531,750,0,0
-686,274,0,0,0,0,0,0,0,0,0,-1,538,750,0,0
-679,274,0,0,0,0,0,0,0,0,0,-1,545,750,0,0
-672,274,0,0,0,0,0,0,0,0,0,-1,552,750,0,0
-665,274,0,0,0,0,0,0,0,0,0,-1,559,750,0,0
-658,274,0,0,0,0,0,0,0,0,0,-1,566,750,0,0
-651,274,0,0,0,0,0,0,0,0,0,-1,573,750,0,0
-644,274,0,0,0,0,0,0,0,0,0,-1,580,750,0,0
-637,274,0,0,0,0,0,0,0,0,0,-1,587,750,0,0
-630,274,0,0,0,0,0,0,0,0,0,-1,594,750,0,0
-623,274,-19.6909,5.12701,0,0,0,0,0,0,0,-1,601,750,-19.6908,-5.12703
-616,274,-17.9133,3.9024,0,0,0,0,0,0,0,-1,608,750,-17.9133,-3.90239
-609,274,-26.0861,5.57306,0,0,0,0,0,0,0,-1,615,750,-26.0861,-5.57307
-602,274,-25.7372,3.73846,0,0,0,0,0,0,0,-1,622,750,-25.7372,-3.73849
-595,274,-25.258,2.53473,0,0,0,0,0,0,0,-1,629,750,-25.258,-2.53474
-588,274,-24.9805,2.2334,0,0,0,0,0,0,0,-1,636,750,-24.9805,-2.23341
-581,274,-33.8685,1.49396,0,0,0,0,0,0,0,-1,643,750,-33.8684,-1.49394
-574,274,-33.8895,0.551758,-0.00292312,0.00557835,-0.00465739,0.00763317,-0.00497794,-1.15529,0.00733463,0.0315524,650,750,-33.8895,-0.551786
-567,274,-34.2216,-0.301331,-0.00220735,0.00386851,-0.00279658,0.00495973,-0.00329857,-1.19877,0.00479998,0.0305183,657,750,-34.2216,0.301352
-560,274,-34.2808,-1.237,-0.00176195,0.00261938,-0.0015301,0.00310083,-0.0022434,-1.26595,0.0030987,0.0160543,664,750,-34.2807,1.23702
-553,274,-34.3656,-2.21613,-0.00141836,0.00167655,-0.000647203,0.00180644,-0.00154825,-1.37273,0.00193874,0.0106323,671,750,-34.3656,2.21612
-546,274,-34.4486,-3.18311,-0.0012777,0.000919916,2.85271e-05,0.000920286,-0.00127807,1.55782,0.00127481,0.012281,678,750,-34.4486,3.18308
-539,274,-34.4907,-4.14893,-0.00137781,0.000321073,0.000544965,0.000480858,-0.0015376,1.28559,0.00121743,0.0127813,685,750,-34.4907,4.14895
-532,274,-34.5352,-5.07074,-0.00169532,9.8517e-05,0.000880535,0.000458501,-0.00205531,1.18271,0.00154587,0.0135067,692,750,-34.5352,5.07074
-525,274,-34.6161,-6.00568,-0.00184761,0.000133742,0.000712075,0.000363103,-0.00207697,1.25919,0.00152021,0.0142556,699,750,-34.6162,6.00567
-518,274,-34.6699,-7.01483,-0.00147292,0.000977775,0.000376529,0.00103432,-0.00152946,1.42173,0.00148937,0.0149755,706,750,-34.6699,7.01483
-511,274,-34.7275,-8.04108,-0.00160454,0.000562748,0.000119055,0.000569268,-0.00161107,1.51608,0.00130584,0.023084,713,750,-34.7275,8.04108
-504,274,-34.9107,-9.11865,-0.00132568,0.000687756,-0.000258014,0.000720293,-0.00135821,-1.44535,0.00121872,0.0421882,720,750,-34.9107,9.11868
-497,274,-35.1896,-10.2346,0,0,0,0,0,0,0,-1,727,750,-35.1896,10.2346
-490,274,-13.6545,-3.58826,0,0,0,0,0,0,0,-1,734,750,-13.6546,3.58825
-483,274,-27.8608,1.30981,0,0,0,0,0,0,0,-1,741,750,-27.8608,-1.30979
-476,274,-33.7561,-0.508606,0,0,0,0,0,0,0,-1,748,750,-33.7561,0.508636
-469,274,-41.1387,0.907715,0,0,0,0,0,0,0,-1,755,750,-41.1387,-0.907744
-462,274,-56.4362,0.240723,0,0,0,0,0,0,0,-1,762,750,-56.4362,-0.240732
-455,274,-56.3354,0.39563,0,0,0,0,0,0,0,-1,769,750,-56.3354,-0.395609
-448,274,-56.1052,0.421143,0,0,0,0,0,0,0,-1,776,750,-56.1052,-0.421134
-441,274,0,0,0,0,0,0,0,0,0,-1,783,750,0,0
-434,274,0,0,0,0,0,0,0,0,0,-1,790,750,0,0
-427,274,0,0,0,0,0,0,0,0,0,-1,797,750,0,0
-420,274,0,0,0,0,0,0,0,0,0,-1,804,750,0,0
-413,274,0,0,0,0,0,0,0,0,0,-1,811,750,0,0
-406,274,0,0,0,0,0,0,0,0,0,-1,818,750,0,0
-399,274,0,0,0,0,0,0,0,0,0,-1,825,750,0,0
-392,274,0,0,0,0,0,0,0,0,0,-1,832,750,0,0
-385,274,0,0,0,0,0,0,0,0,0,-1,839,750,0,0
-378,274,0,0,0,0,0,0,0,0,0,-1,846,750,0,0
-371,274,0,0,0,0,0,0,0,0,0,-1,853,750,0,0
-364,274,0,0,0,0,0,0,0,0,0,-1,860,750,0,0
-357,274,0,0,0,0,0,0,0,0,0,-1,867,750,0,0
-350,274,0,0,0,0,0,0,0,0,0,-1,874,750,0,0
-343,274,0,0,0,0,0,0,0,0,0,-1,881,750,0,0
-336,274,0,0,0,0,0,0,0,0,0,-1,888,750,0,0
-329,274,0,0,0,0,0,0,0,0,0,-1,895,750,0,0
-322,274,0,0,0,0,0,0,0,0,0,-1,902,750,0,0
-315,274,0,0,0,0,0,0,0,0,0,-1,909,750,0,0
-308,274,0,0,0,0,0,0,0,0,0,-1,916,750,0,0
-301,274,0,0,0,0,0,0,0,0,0,-1,923,750,0,0
-294,274,0,0,0,0,0,0,0,0,0,-1,930,750,0,0
-287,274,0,0,0,0,0,0,0,0,0,-1,937,750,0,0
-280,274,0,0,0,0,0,0,0,0,0,-1,944,750,0,0
-273,274,0,0,0,0,0,0,0,0,0,-1,951,750,0,0
-266,274,0,0,0,0,0,0,0,0,0,-1,958,750,0,0
-259,274,0,0,0,0,0,0,0,0,0,-1,965,750,0,0
-252,274,0,0,0,0,0,0,0,0,0,-1,972,750,0,0
-245,274,0,0,0,0,0,0,0,0,0,-1,979,750,0,0
-238,274,0,0,0,0,0,0,0,0,0,-1,986,750,0,0
-231,274,0,0,0,0,0,0,0,0,0,-1,993,750,0,0
-224,274,0,0,0,0,0,0,0,0,0,-1,1000,750,0,0
-217,274,0,0,0,0,0,0,0,0,0,-1,1007,750,0,0
-210,274,0,0,0,0,0,0,0,0,0,-1,1014,750,0,0
-203,274,0,0,0,0,0,0,0,0,0,-1,1021,750,0,0
-196,274,0,0,0,0,0,0,0,0,0,-1,1028,750,0,0
-189,274,0,0,0,0,0,0,0,0,0,-1,1035,750,0,0
-182,274,0,0,0,0,0,0,0,0,0,-1,1042,750,0,0
-175,274,0,0,0,0,0,0,0,0,0,-1,1049,750,0,0
-168,274,0,0,0,0,0,0,0,0,0,-1,1056,750,0,0
-161,274,0,0,0,0,0,0,0,0,0,-1,1063,750,0,0
-154,274,0,0,0,0,0,0,0,0,0,-1,1070,750,0,0
-147,274,0,0,0,0,0,0,0,0,0,-1,1077,750,0,0
-140,274,0,0,0,0,0,0,0,0,0,-1,1084,750,0,0
-133,274,0,0,0,0,0,0,0,0,0,-1,1091,750,0,0
-126,274,0,0,0,0,0,0,0,0,0,-1,1098,750,0,0
-119,274,0,0,0,0,0,0,0,0,0,-1,1105,750,0,0
-112,274,0,0,0,0,0,0,0,0,0,-1,1112,750,0,0
-105,274,0,0,0,0,0,0,0,0,0,-1,1119,750,0,0
-98,274,0,0,0,0,0,0,0,0,0,-1,1126,750,0,0
-91,274,0,0,0,0,0,0,0,0,0,-1,1133,750,0,0
-84,274,0,0,0,0,0,0,0,0,0,-1,1140,750,0,0
-77,274,0,0,0,0,0,0,0,0,0,-1,1147,750,0,0
-70,274,0,0,0,0,0,0,0,0,0,-1,1154,750,0,0
-63,274,0,0,0,0,0,0,0,0,0,-1,1161,750,0,0
-56,274,0,0,0,0,0,0,0,0,0,-1,1168,750,0,0
-49,274,0,0,0,0,0,0,0,0,0,-1,1175,750,0,0
-42,274,0,0,0,0,0,0,0,0,0,-1,1182,750,0,0
-35,274,0,0,0,0,0,0,0,0,0,-1,1189,750,0,0
-28,274,0,0,0,0,0,0,0,0,0,-1,1196,750,0,0
-21,274,0,0,0,0,0,0,0,0,0,-1,1203,750,0,0
-14,274,0,0,0,0,0,0,0,0,0,-1,1210,750,0,0
-7,274,0,0,0,0,0,0,0,0,0,-1,1217,750,0,0
0,274,0,0,0,0,0,0,0,0,0,-1,1224,750,0,0
7,274,0,0,0,0,0,0,0,0,0,-1,1231,750,0,0
14,274,0,0,0,0,0,0,0,0,0,-1,1238,750,0,0
21,274,0,0,0,0,0,0,0,0,0,-1,1245,750,0,0
28,274,0,0,0,0,0,0,0,0,0,-1,1252,750,0,0
35,274,0,0,0,0,0,0,0,0,0,-1,1259,750,0,0
42,274,0,0,0,0,0,0,0,0,0,-1,1266,750,0,0
49,274,0,0,0,0,0,0,0,0,0,-1,1273,750,0,0
56,274,0,0,0,0,0,0,0,0,0,-1,1280,750,0,0
63,274,0,0,0,0,0,0,0,0,0,-1,1287,750,0,0
70,274,0,0,0,0,0,0,0,0,0,-1,1294,750,0,0
77,274,0,0,0,0,0,0,0,0,0,-1,1301,750,0,0
84,274,0,0,0,0,0,0,0,0,0,-1,1308,750,0,0
91,274,0,0,0,0,0,0,0,0,0,-1,1315,750,0,0
98,274,0,0,0,0,0,0,0,0,0,-1,1322,750,0,0
105,274,0,0,0,0,0,0,0,0,0,-1,1329,750,0,0
112,274,0,0,0,0,0,0,0,0,0,-1,1336,750,0,0
119,274,0,0,0,0,0,0,0,0,0,-1,1343,750,0,0
126,274,0,0,0,0,0,0,0,0,0,-1,1350,750,0,0
133,274,0,0,0,0,0,0,0,0,0,-1,1357,750,0,0
140,274,0,0,0,0,0,0,0,0,0,-1,1364,750,0,0
147,274,0,0,0,0,0,0,0,0,0,-1,1371,750,0,0
154,274,0,0,0,0,0,0,0,0,0,-1,1378,750,0,0
161,274,0,0,0,0,0,0,0,0,0,-1,1385,750,0,0
168,274,0,0,0,0,0,0,0,0,0,-1,1392,750,0,0
175,274,0,0,0,0,0,0,0,0,0,-1,1399,750,0,0
182,274,0,0,0,0,0,0,0,0,0,-1,1406,750,0,0
189,274,0,0,0,0,0,0,0,0,0,-1,1413,750,0,0
196,274,0,0,0,0,0,0,0,0,0,-1,1420,750,0,0
203,274,0,0,0,0,0,0,0,0,0,-1,1427,750,0,0
210,274,0,0,0,0,0,0,0,0,0,-1,1434,750,0,0
217,274,0,0,0,0,0,0,0,0,0,-1,1441,750,0,0
224,274,0,0,0,0,0,0,0,0,0,-1,1448,750,0,0
231,274,0,0,0,0,0,0,0,0,0,-1,1455,750,0,0
238,274,0,0,0,0,0,0,0,0,0,-1,1462,750,0,0
245,274,0,0,0,0,0,0,0,0,0,-1,1469,750,0,0
252,274,0,0,0,0,0,0,0,0,0,-1,1476,750,0,0
259,274,0,0,0,0,0,0,0,0,0,-1,1483,750,0,0
266,274,0,0,0,0,0,0,0,0,0,-1,1490,750,0,0
273,274,0,0,0,0,0,0,0,0,0,-1,1497,750,0,0
280,274,0,0,0,0,0,0,0,0,0,-1,1504,750,0,0
287,274,0,0,0,0,0,0,0,0,0,-1,1511,750,0,0
294,274,0,0,0,0,0,0,0,0,0,-1,1518,750,0,0
301,274,0,0,0,0,0,0,0,0,0,-1,1525,750,0,0
308,274,0,0,0,0,0,0,0,0,0,-1,1532,750,0,0
315,274,0,0,0,0,0,0,0,0,0,-1,1539,750,0,0
322,274,0,0,0,0,0,0,0,0,0,-1,1546,750,0,0
329,274,0,0,0,0,0,0,0,0,0,-1,1553,750,0,0
336,274,0,0,0,0,0,0,0,0,0,-1,1560,750,0,0
343,274,0,0,0,0,0,0,0,0,0,-1,1567,750,0,0
350,274,0,0,0,0,0,0,0,0,0,-1,1574,750,0,0
357,274,0,0,0,0,0,0,0,0,0,-1,1581,750,0,0
364,274,0,0,0,0,0,0,0,0,0,-1,1588,750,0,0
371,274,0,0,0,0,0,0,0,0,0,-1,1595,750,0,0
378,274,0,0,0,0,0,0,0,0,0,-1,1602,750,0,0
385,274,0,0,0,0,0,0,0,0,0,-1,1609,750,0,0
392,274,0,0,0,0,0,0,0,0,0,-1,1616,750,0,0
399,274,0,0,0,0,0,0,0,0,0,-1,1623,750,0,0
406,274,0,0,0,0,0,0,0,0,0,-1,1630,750,0,0
413,274,0,0,0,0,0,0,0,0,0,-1,1637,750,0,0
420,274,0,0,0,0,0,0,0,0,0,-1,1644,750,0,0
427,274,0,0,0,0,0,0,0,0,0,-1,1651,750,0,0
434,274,0,0,0,0,0,0,0,0,0,-1,1658,750,0,0
441,274,0,0,0,0,0,0,0,0,0,-1,1665,750,0,0
448,274,0,0,0,0,0,0,0,0,0,-1,1672,750,0,0
455,274,0,0,0,0,0,0,0,0,0,-1,1679,750,0,0
462,274,0,0,0,0,0,0,0,0,0,-1,1686,750,0,0
469,274,0,0,0,0,0,0,0,0,0,-1,1693,750,0,0
476,274,0,0,0,0,0,0,0,0,0,-1,1700,750,0,0
483,274,0,0,0,0,0,0,0,0,0,-1,1707,750,0,0
490,274,0,0,0,0,0,0,0,0,0,-1,1714,750,0,0
497,274,0,0,0,0,0,0,0,0,0,-1,1721,750,0,0
504,274,0,0,0,0,0,0,0,0,0,-1,1728,750,0,0
511,274,0,0,0,0,0,0,0,0,0,-1,1735,750,0,0
518,274,0,0,0,0,0,0,0,0,0,-1,1742,750,0,0
525,274,0,0,0,0,0,0,0,0,0,-1,1749,750,0,0
532,274,0,0,0,0,0,0,0,0,0,-1,1756,750,0,0
539,274,0,0,0,0,0,0,0,0,0,-1,1763,750,0,0
546,274,0,0,0,0,0,0,0,0,0,-1,1770,750,0,0
553,274,0,0,0,0,0,0,0,0,0,-1,1777,750,0,0
560,274,57.9182,3.24518,0,0,0,0,0,0,0,-1,1784,750,57.9182,-3.24516
567,274,57.8315,3.4137,0,0,0,0,0,0,0,-1,1791,750,57.8315,-3.41368
574,274,58.2571,3.11115,0,0,0,0,0,0,0,-1,1798,750,58.2571,-3.11114
581,274,54.4941,4.68127,0,0,0,0,0,0,0,-1,1805,750,54.4941,-4.68125
588,274,53.9908,5.6676,0,0,0,0,0,0,0,-1,1812,750,53.9908,-5.66763
595,274,66.2316,2.66986,0,0,0,0,0,0,0,-1,1819,750,66.2315,-2.66988
602,274,55.6321,2.56519,0,0,0,0,0,0,0,-1,1826,750,55.6321,-2.56521
609,274,44.6676,3.10461,0,0,0,0,0,0,0,-1,1833,750,44.6676,-3.1046
616,274,32.7869,1.78436,0,0,0,0,0,0,0,-1,1840,750,32.7868,-1.78437
623,274,24.8231,-1.80353,0,0,0,0,0,0,0,-1,1847,750,24.8232,1.80351
630,274,50.5735,-8.836,0,0,0,0,0,0,0,-1,1854,750,50.5734,8.83599
637,274,50.3971,-7.83801,0.00232019,0.000729962,0.00110626,0.00288743,0.000162714,0.473803,0.00187307,0.0347735,1861,750,50.3971,7.838
644,274,50.422,-6.78387,0.00167787,0.000626003,0.000896502,0.00219132,0.00011255,0.520126,0.00142484,0.0157025,1868,750,50.422,6.78389
651,274,50.3973,-5.78278,0.00119477,0.000663929,0.00051353,0.00150742,0.000351283,0.546878,0.000910719,0.0139989,1875,750,50.3974,5.78278
658,274,50.3447,-4.83002,0.00103546,0.000607106,0.00043719,0.00130812,0.000334451,0.557631,0.000784724,0.0177268,1882,750,50.3448,4.83001
665,274,50.2863,-3.87555,0.00102337,0.000872064,0.000523076,0.00147623,0.000419197,0.713583,0.000878422,0.016521,1889,750,50.2863,3.87552
672,274,50.2318,-2.91882,0.00118485,0.00129215,0.000788189,0.00202851,0.000448484,0.819379,0.0012304,0.0135752,1896,750,50.2318,2.91882
679,274,50.1616,-1.97455,0.00147366,0.00198435,0.00123562,0.00299073,0.000467274,0.887291,0.00185775,0.0165443,1903,750,50.1617,1.97458
686,274,50.0964,-1.0318,0.00183496,0.00280615,0.00178249,0.00416801,0.000473103,0.918384,0.00263516,0.0196701,1910,750,50.0964,1.03179
693,274,50.005,-0.0482178,0.0024055,0.00382254,0.00253053,0.00574187,0.000486169,0.921896,0.00367659,0.0144573,1917,750,50.005,0.0481976
700,274,49.9452,0.970825,0.00324696,0.00509055,0.00357724,0.00786285,0.000474656,0.911496,0.00509106,0.0216021,1924,750,49.9452,-0.970822
707,274,49.9664,1.9884,0,0,0,0,0,0,0,-1,1931,750,49.9665,-1.98841
714,274,49.125,2.56622,0,0,0,0,0,0,0,-1,1938,750,49.1251,-2.5662
721,274,25.6215,3.91144,0,0,0,0,0,0,0,-1,1945,750,25.6214,-3.91141
728,274,19.2209,3.95154,0,0,0,0,0,0,0,-1,1952,750,19.221,-3.95151
735,274,20.6608,4.10931,0,0,0,0,0,0,0,-1,1959,750,20.6607,-4.10932
742,274,11.7815,-0.740234,0,0,0,0,0,0,0,-1,1966,750,11.7815,0.740253
749,274,0,0,0,0,0,0,0,0,0,-1,1973,750,0,0
756,274,0,0,0,0,0,0,0,0,0,-1,1980,750,0,0
763,274,0,0,0,0,0,0,0,0,0,-1,1987,750,0,0
770,274,0,0,0,0,0,0,0,0,0,-1,1994,750,0,0
777,274,0,0,0,0,0,0,0,0,0,-1,2001,750,0,0
784,274,0,0,0,0,0,0,0,0,0,-1,2008,750,0,0
791,274,0,0,0,0,0,0,0,0,0,-1,2015,750,0,0
798,274,0,0,0,0,0,0,0,0,0,-1,2022,750,0,0
805,274,0,0,0,0,0,0,0,0,0,-1,2029,750,0,0
812,274,0,0,0,0,0,0,0,0,0,-1,2036,750,0,0
-700,267,0,0,0,0,0,0,0,0,0,-1,524,757,0,0
-693,267,0,0,0,0,0,0,0,0,0,-1,531,757,0,0
-686,267,0,0,0,0,0,0,0,0,0,-1,538,757,0,0
-679,267,0,0,0,0,0,0,0,0,0,-1,545,757,0,0
-672,267,0,0,0,0,0,0,0,0,0,-1,552,757,0,0
-665,267,0,0,0,0,0,0,0,0,0,-1,559,757,0,0
-658,267,0,0,0,0,0,0,0,0,0,-1,566,757,0,0
-651,267,0,0,0,0,0,0,0,0,0,-1,573,757,0,0
-644,267,0,0,0,0,0,0,0,0,0,-1,580,757,0,0
-637,267,0,0,0,0,0,0,0,0,0,-1,587,757,0,0
-630,267,-21.3979,5.17529,0,0,0,0,0,0,0,-1,594,757,-21.3979,-5.17529
-623,267,-20.043,4.43115,0,0,0,0,0,0,0,-1,601,757,-20.043,-4.43116
-616,267,-27.1628,5.9325,0,0,0,0,0,0,0,-1,608,757,-27.1629,-5.93249
-609,267,-26.9868,4.99658,0,0,0,0,0,0,0,-1,615,757,-26.9868,-4.99656
-602,267,-26.6637,3.74072,0,0,0,0,0,0,0,-1,622,757,-26.6637,-3.74075
-595,267,-32.7299,2.1203,0,0,0,0,0,0,0,-1,629,757,-32.7299,-2.12028
-588,267,-34.7858,3.06854,0,0,0,0,0,0,0,-1,636,757,-34.7857,-3.06853
-581,267,-34.8735,1.89178,-0.0022886,0.00638199,-0.00689622,0.0101924,-0.00609902,-1.06601,0.00950431,0.0479281,643,757,-34.8735,-1.8918
-574,267,-34.9708,0.752502,-0.00205909,0.00472071,-0.00440912,0.00689245,-0.00423082,-1.11312,0.00648302,0.0285072,650,757,-34.9708,-0.752497
-567,267,-35.1743,-0.160156,-0.00174538,0.00332408,-0.00256016,0.00439203,-0.00281333,-1.1756,0.00419317,0.0324886,657,757,-35.1743,0.160136
-560,267,-35.2522,-1.1264,-0.00157282,0.00231694,-0.00126501,0.00269215,-0.00194803,-1.28246,0.00269047,0.0245388,664,757,-35.2522,1.1264
-553,267,-35.3271,-2.13959,-0.00148216,0.0016221,-0.000326698,0.0016561,-0.00151617,-1.46707,0.00183211,0.0188718,671,757,-35.3272,2.13956
-546,267,-35.4004,-3.1192,-0.00154085,0.00104204,0.000413941,0.00110675,-0.00160557,1.41571,0.00157476,0.0125978,678,757,-35.4004,3.1192
-539,267,-35.4265,-4.09454,-0.00182065,0.000709043,0.000913213,0.00100426,-0.00211586,1.25813,0.00183912,0.0122498,685,757,-35.4265,4.09457
-532,267,-35.4658,-5.04016,-0.00219466,0.000783018,0.00105701,0.00112008,-0.00253172,1.26211,0.00216024,0.0133306,692,757,-35.4658,5.04014
-525,267,-35.5823,-5.95605,-0.00219485,0.00106188,0.000670833,0.00119465,-0.00232762,1.37541,0.00206835,0.0130813,699,757,-35.5823,5.95604
-518,267,-35.6631,-6.94873,-0.00153927,0.00207444,0.000162246,0.00208171,-0.00154654,1.52602,0.00210236,0.0173627,706,757,-35.6631,6.94873
-511,267,-35.665,-7.96765,-0.00144923,0.00161136,-0.000211807,0.00162595,-0.00146382,-1.50203,0.0017847,0.0376487,713,757,-35.665,7.96764
-504,267,-35.6414,-8.94427,0,0,0,0,0,0,0,-1,720,757,-35.6414,8.94428
-497,267,-31.5913,-8.72119,0,0,0,0,0,0,0,-1,727,757,-31.5913,8.72117
-490,267,-23.4949,-0.494995,0,0,0,0,0,0,0,-1,734,757,-23.4949,0.494981
-483,267,-33.2785,-0.448425,0,0,0,0,0,0,0,-1,741,757,-33.2785,0.448407
-476,267,-40.2954,0.52002,0,0,0,0,0,0,0,-1,748,757,-40.2954,-0.520037
-469,267,-52.9857,0.187744,0,0,0,0,0,0,0,-1,755,757,-52.9857,-0.187726
-462,267,-61.6542,0.276062,0,0,0,0,0,0,0,-1,762,757,-61.6542,-0.27608
-455,267,-62.4006,0.371826,0,0,0,0,0,0,0,-1,769,757,-62.4007,-0.371855
-448,267,-56.4718,0.802429,0,0,0,0,0,0,0,-1,776,757,-56.4718,-0.802434
-441,267,0,0,0,0,0,0,0,0,0,-1,783,757,0,0
-434,267,0,0,0,0,0,0,0,0,0,-1,790,757,0,0
-427,267,0,0,0,0,0,0,0,0,0,-1,797,757,0,0
-420,267,0,0,0,0,0,0,0,0,0,-1,804,757,0,0
-413,267,0,0,0,0,0,0,0,0,0,-1,811,757,0,0
-406,267,0,0,0,0,0,0,0,0,0,-1,818,757,0,0
-399,267,0,0,0,0,0,0,0,0,0,-1,825,757,0,0
-392,267,0,0,0,0,0,0,0,0,0,-1,832,757,0,0
-385,267,0,0,0,0,0,0,0,0,0,-1,839,757,0,0
-378,267,0,0,0,0,0,0,0,0,0,-1,846,757,0,0
-371,267,0,0,0,0,0,0,0,0,0,-1,853,757,0,0
-364,267,0,0,0,0,0,0,0,0,0,-1,860,757,0,0
-357,267,0,0,0,0,0,0,0,0,0,-1,867,757,0,0
-350,267,0,0,0,0,0,0,0,0,0,-1,874,757,0,0
-343,267,0,0,0,0,0,0,0,0,0,-1,881,757,0,0
-336,267,0,0,0,0,0,0,0,0,0,-1,888,757,0,0
-329,267,0,0,0,0,0,0,0,0,0,-1,895,757,0,0
-322,267,0,0,0,0,0,0,0,0,0,-1,902,757,0,0
-315,267,0,0,0,0,0,0,0,0,0,-1,909,757,0,0
-308,267,0,0,0,0,0,0,0,0,0,-1,916,757,0,0
-301,267,0,0,0,0,0,0,0,0,0,-1,923,757,0,0
-294,267,0,0,0,0,0,0,0,0,0,-1,930,757,0,0
-287,267,0,0,0,0,0,0,0,0,0,-1,937,757,0,0
-280,267,0,0,0,0,0,0,0,0,0,-1,944,757,0,0
-273,267,0,0,0,0,0,0,0,0,0,-1,951,757,0,0
-266,267,0,0,0,0,0,0,0,0,0,-1,958,757,0,0
-259,267,0,0,0,0,0,0,0,0,0,-1,965,757,0,0
-252,267,0,0,0,0,0,0,0,0,0,-1,972,757,0,0
-245,267,0,0,0,0,0,0,0,0,0,-1,979,757,0,0
-238,267,0,0,0,0,0,0,0,0,0,-1,986,757,0,0
-231,267,0,0,0,0,0,0,0,0,0,-1,993,757,0,0
-224,267,0,0,0,0,0,0,0,0,0,-1,1000,757,0,0
-217,267,0,0,0,0,0,0,0,0,0,-1,1007,757,0,0
-210,267,0,0,0,0,0,0,0,0,0,-1,1014,757,0,0
-203,267,0,0,0,0,0,0,0,0,0,-1,1021,757,0,0
-196,267,0,0,0,0,0,0,0,0,0,-1,1028,757,0,0
-189,267,0,0,0,0,0,0,0,0,0,-1,1035,757,0,0
-182,267,0,0,0,0,0,0,0,0,0,-1,1042,757,0,0
-175,267,0,0,0,0,0,0,0,0,0,-1,1049,757,0,0
-168,267,0,0,0,0,0,0,0,0,0,-1,1056,757,0,0
-161,267,0,0,0,0,0,0,0,0,0,-1,1063,757,0,0
-154,267,0,0,0,0,0,0,0,0,0,-1,1070,757,0,0
-147,267,0,0,0,0,0,0,0,0,0,-1,1077,757,0,0
-140,267,0,0,0,0,0,0,0,0,0,-1,1084,757,0,0
-133,267,0,0,0,0,0,0,0,0,0,-1,1091,757,0,0
-126,267,0,0,0,0,0,0,0,0,0,-1,1098,757,0,0
-119,267,0,0,0,0,0,0,0,0,0,-1,1105,757,0,0
-112,267,0,0,0,0,0,0,0,0,0,-1,1112,757,0,0
-105,267,0,0,0,0,0,0,0,0,0,-1,1119,757,0,0
-98,267,0,0,0,0,0,0,0,0,0,-1,1126,757,0,0
-91,267,0,0,0,0,0,0,0,0,0,-1,1133,757,0,0
-84,267,0,0,0,0,0,0,0,0,0,-1,1140,757,0,0
-77,267,0,0,0,0,0,0,0,0,0,-1,1147,757,0,0
-70,267,0,0,0,0,0,0,0,0,0,-1,1154,757,0,0
-63,267,0,0,0,0,0,0,0,0,0,-1,1161,757,0,0
-56,267,0,0,0,0,0,0,0,0,0,-1,1168,757,0,0
-49,267,0,0,0,0,0,0,0,0,0,-1,1175,757,0,0
-42,267,0,0,0,0,0,0,0,0,0,-1,1182,757,0,0
-35,267,0,0,0,0,0,0,0,0,0,-1,1189,757,0,0
-28,267,0,0,0,0,0,0,0,0,0,-1,1196,757,0,0
-21,267,0,0,0,0,0,0,0,0,0,-1,1203,757,0,0
-14,267,0,0,0,0,0,0,0,0,0,-1,1210,757,0,0
-7,267,0,0,0,0,0,0,0,0,0,-1,1217,757,0,0
0,267,0,0,0,0,0,0,0,0,0,-1,1224,757,0,0
7,267,0,0,0,0,0,0,0,0,0,-1,1231,757,0,0
14,267,0,0,0,0,0,0,0,0,0,-1,1238,757,0,0
21,267,0,0,0,0,0,0,0,0,0,-1,1245,757,0,0
28,267,0,0,0,0,0,0,0,0,0,-1,1252,757,0,0
35,267,0,0,0,0,0,0,0,0,0,-1,1259,757,0,0
42,267,0,0,0,0,0,0,0,0,0,-1,1266,757,0,0
49,267,0,0,0,0,0,0,0,0,0,-1,1273,757,0,0
56,267,0,0,0,0,0,0,0,0,0,-1,1280,757,0,0
63,267,0,0,0,0,0,0,0,0,0,-1,1287,757,0,0
70,267,0,0,0,0,0,0,0,0,0,-1,1294,757,0,0
77,267,0,0,0,0,0,0,0,0,0,-1,1301,757,0,0
84,267,0,0,0,0,0,0,0,0,0,-1,1308,757,0,0
91,267,0,0,0,0,0,0,0,0,0,-1,1315,757,0,0
98,267,0,0,0,0,0,0,0,0,0,-1,1322,757,0,0
105,267,0,0,0,0,0,0,0,0,0,-1,1329,757,0,0
112,267,0,0,0,0,0,0,0,0,0,-1,1336,757,0,0
119,267,0,0,0,0,0,0,0,0,0,-1,1343,757,0,0
126,267,0,0,0,0,0,0,0,0,0,-1,1350,757,0,0
133,267,0,0,0,0,0,0,0,0,0,-1,1357,757,0,0
140,267,0,0,0,0,0,0,0,0,0,-1,1364,757,0,0
147,267,0,0,0,0,0,0,0,0,0,-1,1371,757,0,0
154,267,0,0,0,0,0,0,0,0,0,-1,1378,757,0,0
161,267,0,0,0,0,0,0,0,0,0,-1,1385,757,0,0
168,267,0,0,0,0,0,0,0,0,0,-1,1392,757,0,0
175,267,0,0,0,0,0,0,0,0,0,-1,1399,757,0,0
182,267,0,0,0,0,0,0,0,0,0,-1,1406,757,0,0
189,267,0,0,0,0,0,0,0,0,0,-1,1413,757,0,0
196,267,0,0,0,0,0,0,0,0,0,-1,1420,757,0,0
203,267,0,0,0,0,0,0,0,0,0,-1,1427,757,0,0
210,267,0,0,0,0,0,0,0,0,0,-1,1434,757,0,0
217,267,0,0,0,0,0,0,0,0,0,-1,1441,757,0,0
224,267,0,0,0,0,0,0,0,0,0,-1,1448,757,0,0
231,267,0,0,0,0,0,0,0,0,0,-1,1455,757,0,0
238,267,0,0,0,0,0,0,0,0,0,-1,1462,757,0,0
245,267,0,0,0,0,0,0,0,0,0,-1,1469,757,0,0
252,267,0,0,0,0,0,0,0,0,0,-1,1476,757,0,0
259,267,0,0,0,0,0,0,0,0,0,-1,1483,757,0,0
266,267,0,0,0,0,0,0,0,0,0,-1,1490,757,0,0
273,267,0,0,0,0,0,0,0,0,0,-1,1497,757,0,0
280,267,0,0,0,0,0,0,0,0,0,-1,1504,757,0,0
287,267,0,0,0,0,0,0,0,0,0,-1,1511,757,0,0
294,267,0,0,0,0,0,0,0,0,0,-1,1518,757,0,0
301,267,0,0,0,0,0,0,0,0,0,-1,1525,757,0,0
308,267,0,0,0,0,0,0,0,0,0,-1,1532,757,0,0
315,267,0,0,0,0,0,0,0,0,0,-1,1539,757,0,0
322,267,0,0,0,0,0,0,0,0,0,-1,1546,757,0,0
329,267,0,0,0,0,0,0,0,0,0,-1,1553,757,0,0
336,267,0,0,0,0,0,0,0,0,0,-1,1560,757,0,0
343,267,0,0,0,0,0,0,0,0,0,-1,1567,757,0,0
350,267,0,0,0,0,0,0,0,0,0,-1,1574,757,0,0
357,267,0,0,0,0,0,0,0,0,0,-1,1581,757,0,0
364,267,0,0,0,0,0,0,0,0,0,-1,1588,757,0,0
371,267,0,0,0,0,0,0,0,0,0,-1,1595,757,0,0
378,267,0,0,0,0,0,0,0,0,0,-1,1602,757,0,0
385,267,0,0,0,0,0,0,0,0,0,-1,1609,757,0,0
392,267,0,0,0,0,0,0,0,0,0,-1,1616,757,0,0
399,267,0,0,0,0,0,0,0,0,0,-1,1623,757,0,0
406,267,0,0,0,0,0,0,0,0,0,-1,1630,757,0,0
413,267,0,0,0,0,0,0,0,0,0,-1,1637,757,0,0
420,267,0,0,0,0,0,0,0,0,0,-1,1644,757,0,0
427,267,0,0,0,0,0,0,0,0,0,-1,1651,757,0,0
434,267,0,0,0,0,0,0,0,0,0,-1,1658,757,0,0
441,267,0,0,0,0,0,0,0,0,0,-1,1665,757,0,0
448,267,0,0,0,0,0,0,0,0,0,-1,1672,757,0,0
455,267,0,0,0,0,0,0,0,0,0,-1,1679,757,0,0
462,267,0,0,0,0,0,0,0,0,0,-1,1686,757,0,0
469,267,0,0,0,0,0,0,0,0,0,-1,1693,757,0,0
476,267,0,0,0,0,0,0,0,0,0,-1,1700,757,0,0
483,267,0,0,0,0,0,0,0,0,0,-1,1707,757,0,0
490,267,0,0,0,0,0,0,0,0,0,-1,1714,757,0,0
497,267,0,0,0,0,0,0,0,0,0,-1,1721,757,0,0
504,267,0,0,0,0,0,0,0,0,0,-1,1728,757,0,0
511,267,0,0,0,0,0,0,0,0,0,-1,1735,757,0,0
518,267,0,0,0,0,0,0,0,0,0,-1,1742,757,0,0
525,267,0,0,0,0,0,0,0,0,0,-1,1749,757,0,0
532,267,0,0,0,0,0,0,0,0,0,-1,1756,757,0,0
539,267,0,0,0,0,0,0,0,0,0,-1,1763,757,0,0
546,267,0,0,0,0,0,0,0,0,0,-1,1770,757,0,0
553,267,0,0,0,0,0,0,0,0,0,-1,1777,757,0,0
560,267,0,0,0,0,0,0,0,0,0,-1,1784,757,0,0
567,267,58.0104,3.24304,0,0,0,0,0,0,0,-1,1791,757,58.0104,-3.24306
574,267,64.5414,2.91858,0,0,0,0,0,0,0,-1,1798,757,64.5414,-2.91855
581,267,58.374,2.95636,0,0,0,0,0,0,0,-1,1805,757,58.3741,-2.95639
588,267,65.9681,2.6438,0,0,0,0,0,0,0,-1,1812,757,65.9682,-2.64382
595,267,66.191,2.60791,0,0,0,0,0,0,0,-1,1819,757,66.191,-2.60792
602,267,66.4139,2.57202,0,0,0,0,0,0,0,-1,1826,757,66.4139,-2.57203
609,267,54.5498,3.24054,0,0,0,0,0,0,0,-1,1833,757,54.5498,-3.24052
616,267,44.2543,3.28918,0,0,0,0,0,0,0,-1,1840,757,44.2542,-3.28918
623,267,24.1475,-1.1391,0,0,0,0,0,0,0,-1,1847,757,24.1475,1.13913
630,267,40.7198,-5.42108,0,0,0,0,0,0,0,-1,1854,757,40.7198,5.4211
637,267,51.2799,-7.68268,0,0,0,0,0,0,0,-1,1861,757,51.2799,7.68265
644,267,51.3633,-6.80469,0.00132334,0.000826354,0.000517153,0.0016486,0.000501089,0.561436,0.000975904,0.0255454,1868,757,51.3632,6.80466
651,267,51.3079,-5.68903,0.000888335,0.000759736,0.000237054,0.00106966,0.000578416,0.652962,0.000618249,0.0178412,1875,757,51.3078,5.68904
658,267,51.301,-4.77106,0.0007639,0.000483496,0.00017621,0.000848879,0.000398516,0.449355,0.000490405,0.0166669,1882,757,51.301,4.77105
665,267,51.2461,-3.82642,0.000818712,0.000604613,0.000223492,0.000959469,0.000463856,0.56205,0.000554051,0.0158692,1889,757,51.246,3.82639
672,267,51.1896,-2.8631,0.00100024,0.000894834,0.000425631,0.00137642,0.000518657,0.723799,0.000802675,0.0131953,1896,757,51.1895,2.86309
679,267,51.1488,-1.89685,0.00125287,0.00149236,0.000805451,0.00218692,0.000558315,0.859191,0.00131206,0.0127931,1903,757,51.1488,1.89685
686,267,51.0889,-0.928589,0.00155744,0.00223015,0.00127338,0.00321085,0.000576746,0.914521,0.00197657,0.0194319,1910,757,51.0889,0.928558
693,267,50.9735,-0.0142212,0.00201378,0.00309741,0.00190344,0.00453465,0.000576547,0.924056,0.00285042,0.0190811,1917,757,50.9735,0.01425
700,267,50.9152,0.964661,0.00270562,0.00417576,0.00278747,0.00632346,0.000557929,0.914316,0.00404252,0.0170373,1924,757,50.9151,-0.964689
707,267,50.8929,1.93225,0.00344985,0.00539362,0.00372119,0.00826775,0.000575719,0.913133,0.0053303,0.0255476,1931,757,50.893,-1.93226
714,267,50.8829,2.94287,0,0,0,0,0,0,0,-1,1938,757,50.8829,-2.94287
721,267,47.0829,3.73804,0,0,0,0,0,0,0,-1,1945,757,47.0828,-3.73803
728,267,26.7886,3.90027,0,0,0,0,0,0,0,-1,1952,757,26.7886,-3.90028
735,267,24.6713,2.82483,0,0,0,0,0,0,0,-1,1959,757,24.6713,-2.82483
742,267,18.1177,3.56561,0,0,0,0,0,0,0,-1,1966,757,18.1176,-3.56564
749,267,0,0,0,0,0,0,0,0,0,-1,1973,757,0,0
756,267,0,0,0,0,0,0,0,0,0,-1,1980,757,0,0
763,267,0,0,0,0,0,0,0,0,0,-1,1987,757,0,0
770,267,0,0,0,0,0,0,0,0,0,-1,1994,757,0,0
777,267,0,0,0,0,0,0,0,0,0,-1,2001,757,0,0
784,267,0,0,0,0,0,0,0,0,0,-1,2008,757,0,0
791,267,0,0,0,0,0,0,0,0,0,-1,2015,757,0,0
798,267,0,0,0,0,0,0,0,0,0,-1,2022,757,0,0
805,267,0,0,0,0,0,0,0,0,0,-1,2029,757,0,0
812,267,0,0,0,0,0,0,0,0,0,-1,2036,757,0,0
-700,260,0,0,0,0,0,0,0,0,0,-1,524,764,0,0
-693,260,0,0,0,0,0,0,0,0,0,-1,531,764,0,0
-686,260,0,0,0,0,0,0,0,0,0,-1,538,764,0,0
-679,260,0,0,0,0,0,0,0,0,0,-1,545,764,0,0
-672,260,0,0,0,0,0,0,0,0,0,-1,552,764,0,0
-665,260,0,0,0,0,0,0,0,0,0,-1,559,764,0,0
-658,260,0,0,0,0,0,0,0,0,0,-1,566,764,0,0
-651,260,0,0,0,0,0,0,0,0,0,-1,573,764,0,0
-644,260,0,0,0,0,0,0,0,0,0,-1,580,764,0,0
-637,260,0,0,0,0,0,0,0,0,0,-1,587,764,0,0
-630,260,-21.8905,4.49341,0,0,0,0,0,0,0,-1,594,764,-21.8905,-4.49342
-623,260,-20.3127,3.53546,0,0,0,0,0,0,0,-1,601,764,-20.3127,-3.53544
-616,260,-23.4346,3.65009,0,0,0,0,0,0,0,-1,608,764,-23.4345,-3.65008
-609,260,-27.8874,4.42004,0,0,0,0,0,0,0,-1,615,764,-27.8874,-4.42005
-602,260,-32.8671,3.61243,0,0,0,0,0,0,0,-1,622,764,-32.867,-3.61241
-595,260,-36.7216,4.12677,0,0,0,0,0,0,0,-1,629,764,-36.7216,-4.12676
-588,260,-36.3931,2.88837,-0.00186807,0.0077832,-0.0086437,0.0128571,-0.00694194,-1.03999,0.0115998,0.0490978,636,764,-36.3931,-2.88838
-581,260,-36.0456,1.69855,-0.00197621,0.00586652,-0.00625207,0.00932523,-0.00543492,-1.06549,0.00861988,0.0320707,643,764,-36.0456,-1.69856
-574,260,-36.0716,0.774109,-0.00178034,0.004371,-0.00398987,0.00633307,-0.00374241,-1.11376,0.00588083,0.0222222,650,764,-36.0716,-0.77412
-567,260,-36.1588,-0.0789185,-0.00159884,0.00314174,-0.00224199,0.00403408,-0.00249119,-1.192,0.00380231,0.019486,657,764,-36.1587,0.0789466
-560,260,-36.2394,-1.05811,-0.00153657,0.0022557,-0.00096416,0.00248675,-0.00176762,-1.33559,0.00246793,0.0214076,664,764,-36.2395,1.05812
-553,260,-36.3118,-2.04663,-0.00157137,0.00170212,-6.93317e-06,0.00170213,-0.00157138,-1.56868,0.00189047,0.017975,671,764,-36.3119,2.04662
-546,260,-36.3407,-3.05219,-0.00177191,0.00123867,0.000766693,0.00142268,-0.00195592,1.33525,0.00195872,0.0124902,678,764,-36.3407,3.05216
-539,260,-36.3683,-3.99744,-0.00218827,0.00118848,0.00120053,0.00157179,-0.00257158,1.26174,0.00241527,0.0144457,685,764,-36.3684,3.99745
-532,260,-36.3979,-4.90454,-0.00254183,0.00156021,0.00113208,0.00185189,-0.00283352,1.31862,0.00272484,0.0190897,692,764,-36.398,4.90451
-525,260,-36.5256,-5.82501,-0.0023548,0.00199787,0.000590829,0.00207664,-0.00243358,1.43825,0.00260669,0.0206036,699,764,-36.5255,5.82499
-518,260,-36.7803,-6.83148,-0.00147551,0.00306337,9.03033e-06,0.00306339,-0.00147552,1.56881,0.00267346,0.0308462,706,764,-36.7804,6.8315
-511,260,-36.6393,-7.83582,0,0,0,0,0,0,0,-1,713,764,-36.6393,7.83582
-504,260,-34.7117,-8.67163,0,0,0,0,0,0,0,-1,720,764,-34.7117,8.6716
-497,260,-16.6542,-3.67334,0,0,0,0,0,0,0,-1,727,764,-16.6542,3.67331
-490,260,-29.4557,0.921387,0,0,0,0,0,0,0,-1,734,764,-29.4557,-0.921369
-483,260,-40.8972,1.04193,0,0,0,0,0,0,0,-1,741,764,-40.8972,-1.04193
-476,260,-53.8282,0.00378418,0,0,0,0,0,0,0,-1,748,764,-53.8283,-0.00378825
-469,260,-61.73,1.46014,0,0,0,0,0,0,0,-1,755,764,-61.73,-1.46014
-462,260,-61.7159,0.549805,-0.0020565,-0.0115289,0.0021696,-0.00158321,-0.0120022,0.21478,0.0075294,0.0426421,762,764,-61.7159,-0.549792
-455,260,-62.1996,0.589233,0,0,0,0,0,0,0,-1,769,764,-62.1996,-0.589231
-448,260,0,0,0,0,0,0,0,0,0,-1,776,764,0,0
-441,260,0,0,0,0,0,0,0,0,0,-1,783,764,0,0
-434,260,0,0,0,0,0,0,0,0,0,-1,790,764,0,0
-427,260,0,0,0,0,0,0,0,0,0,-1,797,764,0,0
-420,260,0,0,0,0,0,0,0,0,0,-1,804,764,0,0
-413,260,0,0,0,0,0,0,0,0,0,-1,811,764,0,0
-406,260,0,0,0,0,0,0,0,0,0,-1,818,764,0,0
-399,260,0,0,0,0,0,0,0,0,0,-1,825,764,0,0
-392,260,0,0,0,0,0,0,0,0,0,-1,832,764,0,0
-385,260,0,0,0,0,0,0,0,0,0,-1,839,764,0,0
-378,260,0,0,0,0,0,0,0,0,0,-1,846,764,0,0
-371,260,0,0,0,0,0,0,0,0,0,-1,853,764,0,0
-364,260,0,0,0,0,0,0,0,0,0,-1,860,764,0,0
-357,260,0,0,0,0,0,0,0,0,0,-1,867,764,0,0
-350,260,0,0,0,0,0,0,0,0,0,-1,874,764,0,0
-343,260,0,0,0,0,0,0,0,0,0,-1,881,764,0,0
-336,260,0,0,0,0,0,0,0,0,0,-1,888,764,0,0
-329,260,0,0,0,0,0,0,0,0,0,-1,895,764,0,0
-322,260,0,0,0,0,0,0,0,0,0,-1,902,764,0,0
-315,260,0,0,0,0,0,0,0,0,0,-1,909,764,0,0
-308,260,0,0,0,0,0,0,0,0,0,-1,916,764,0,0
-301,260,0,0,0,0,0,0,0,0,0,-1,923,764,0,0
-294,260,0,0,0,0,0,0,0,0,0,-1,930,764,0,0
-287,260,0,0,0,0,0,0,0,0,0,-1,937,764,0,0
-280,260,0,0,0,0,0,0,0,0,0,-1,944,764,0,0
-273,260,0,0,0,0,0,0,0,0,0,-1,951,764,0,0
-266,260,0,0,0,0,0,0,0,0,0,-1,958,764,0,0
-259,260,0,0,0,0,0,0,0,0,0,-1,965,764,0,0
-252,260,0,0,0,0,0,0,0,0,0,-1,972,764,0,0
-245,260,0,0,0,0,0,0,0,0,0,-1,979,764,0,0
-238,260,0,0,0,0,0,0,0,0,0,-1,986,764,0,0
-231,260,0,0,0,0,0,0,0,0,0,-1,993,764,0,0
-224,260,0,0,0,0,0,0,0,0,0,-1,1000,764,0,0
-217,260,0,0,0,0,0,0,0,0,0,-1,1007,764,0,0
-210,260,0,0,0,0,0,0,0,0,0,-1,1014,764,0,0
-203,260,0,0,0,0,0,0,0,0,0,-1,1021,764,0,0
-196,260,0,0,0,0,0,0,0,0,0,-1,1028,764,0,0
-189,260,0,0,0,0,0,0,0,0,0,-1,1035,764,0,0
-182,260,0,0,0,0,0,0,0,0,0,-1,1042,764,0,0
-175,260,0,0,0,0,0,0,0,0,0,-1,1049,764,0,0
-168,260,0,0,0,0,0,0,0,0,0,-1,1056,764,0,0
-161,260,0,0,0,0,0,0,0,0,0,-1,1063,764,0,0
-154,260,0,0,0,0,0,0,0,0,0,-1,1070,764,0,0
-147,260,0,0,0,0,0,0,0,0,0,-1,1077,764,0,0
-140,260,0,0,0,0,0,0,0,0,0,-1,1084,764,0,0
-133,260,0,0,0,0,0,0,0,0,0,-1,1091,764,0,0
-126,260,0,0,0,0,0,0,0,0,0,-1,1098,764,0,0
-119,260,0,0,0,0,0,0,0,0,0,-1,1105,764,0,0
-112,260,0,0,0,0,0,0,0,0,0,-1,1112,764,0,0
-105,260,0,0,0,0,0,0,0,0,0,-1,1119,764,0,0
-98,260,0,0,0,0,0,0,0,0,0,-1,1126,764,0,0
-91,260,0,0,0,0,0,0,0,0,0,-1,1133,764,0,0
-84,260,0,0,0,0,0,0,0,0,0,-1,1140,764,0,0
-77,260,0,0,0,0,0,0,0,0,0,-1,1147,764,0,0
-70,260,0,0,0,0,0,0,0,0,0,-1,1154,764,0,0
-63,260,0,0,0,0,0,0,0,0,0,-1,1161,764,0,0
-56,260,0,0,0,0,0,0,0,0,0,-1,1168,764,0,0
-49,260,0,0,0,0,0,0,0,0,0,-1,1175,764,0,0
-42,260,0,0,0,0,0,0,0,0,0,-1,1182,764,0,0
-35,260,0,0,0,0,0,0,0,0,0,-1,1189,764,0,0
-28,260,0,0,0,0,0,0,0,0,0,-1,1196,764,0,0
-21,260,0,0,0,0,0,0,0,0,0,-1,1203,764,0,0
-14,260,0,0,0,0,0,0,0,0,0,-1,1210,764,0,0
-7,260,0,0,0,0,0,0,0,0,0,-1,1217,764,0,0
0,260,0,0,0,0,0,0,0,0,0,-1,1224,764,0,0
7,260,0,0,0,0,0,0,0,0,0,-1,1231,764,0,0
14,260,0,0,0,0,0,0,0,0,0,-1,1238,764,0,0
21,260,0,0,0,0,0,0,0,0,0,-1,1245,764,0,0
28,260,0,0,0,0,0,0,0,0,0,-1,1252,764,0,0
35,260,0,0,0,0,0,0,0,0,0,-1,1259,764,0,0
42,260,0,0,0,0,0,0,0,0,0,-1,1266,764,0,0
49,260,0,0,0,0,0,0,0,0,0,-1,1273,764,0,0
56,260,0,0,0,0,0,0,0,0,0,-1,1280,764,0,0
63,260,0,0,0,0,0,0,0,0,0,-1,1287,764,0,0
70,260,0,0,0,0,0,0,0,0,0,-1,1294,764,0,0
77,260,0,0,0,0,0,0,0,0,0,-1,1301,764,0,0
84,260,0,0,0,0,0,0,0,0,0,-1,1308,764,0,0
91,260,0,0,0,0,0,0,0,0,0,-1,1315,764,0,0
98,260,0,0,0,0,0,0,0,0,0,-1,1322,764,0,0
105,260,0,0,0,0,0,0,0,0,0,-1,1329,764,0,0
112,260,0,0,0,0,0,0,0,0,0,-1,1336,764,0,0
119,260,0,0,0,0,0,0,0,0,0,-1,1343,764,0,0
126,260,0,0,0,0,0,0,0,0,0,-1,1350,764,0,0
133,260,0,0,0,0,0,0,0,0,0,-1,1357,764,0,0
140,260,0,0,0,0,0,0,0,0,0,-1,1364,764,0,0
147,260,0,0,0,0,0,0,0,0,0,-1,1371,764,0,0
154,260,0,0,0,0,0,0,0,0,0,-1,1378,764,0,0
161,260,0,0,0,0,0,0,0,0,0,-1,1385,764,0,0
168,260,0,0,0,0,0,0,0,0,0,-1,1392,764,0,0
175,260,0,0,0,0,0,0,0,0,0,-1,1399,764,0,0
182,260,0,0,0,0,0,0,0,0,0,-1,1406,764,0,0
189,260,0,0,0,0,0,0,0,0,0,-1,1413,764,0,0
196,260,0,0,0,0,0,0,0,0,0,-1,1420,764,0,0
203,260,0,0,0,0,0,0,0,0,0,-1,1427,764,0,0
210,260,0,0,0,0,0,0,0,0,0,-1,1434,764,0,0
217,260,0,0,0,0,0,0,0,0,0,-1,1441,764,0,0
224,260,0,0,0,0,0,0,0,0,0,-1,1448,764,0,0
231,260,0,0,0,0,0,0,0,0,0,-1,1455,764,0,0
238,260,0,0,0,0,0,0,0,0,0,-1,1462,764,0,0
245,260,0,0,0,0,0,0,0,0,0,-1,1469,764,0,0
252,260,0,0,0,0,0,0,0,0,0,-1,1476,764,0,0
259,260,0,0,0,0,0,0,0,0,0,-1,1483,764,0,0
266,260,0,0,0,0,0,0,0,0,0,-1,1490,764,0,0
273,260,0,0,0,0,0,0,0,0,0,-1,1497,764,0,0
280,260,0,0,0,0,0,0,0,0,0,-1,1504,764,0,0
287,260,0,0,0,0,0,0,0,0,0,-1,1511,764,0,0
294,260,0,0,0,0,0,0,0,0,0,-1,1518,764,0,0
301,260,0,0,0,0,0,0,0,0,0,-1,1525,764,0,0
308,260,0,0,0,0,0,0,0,0,0,-1,1532,764,0,0
315,260,0,0,0,0,0,0,0,0,0,-1,1539,764,0,0
322,260,0,0,0,0,0,0,0,0,0,-1,1546,764,0,0
329,260,0,0,0,0,0,0,0,0,0,-1,1553,764,0,0
336,260,0,0,0,0,0,0,0,0,0,-1,1560,764,0,0
343,260,0,0,0,0,0,0,0,0,0,-1,1567,764,0,0
350,260,0,0,0,0,0,0,0,0,0,-1,1574,764,0,0
357,260,0,0,0,0,0,0,0,0,0,-1,1581,764,0,0
364,260,0,0,0,0,0,0,0,0,0,-1,1588,764,0,0
371,260,0,0,0,0,0,0,0,0,0,-1,1595,764,0,0
378,260,0,0,0,0,0,0,0,0,0,-1,1602,764,0,0
385,260,0,0,0,0,0,0,0,0,0,-1,1609,764,0,0
392,260,0,0,0,0,0,0,0,0,0,-1,1616,764,0,0
399,260,0,0,0,0,0,0,0,0,0,-1,1623,764,0,0
406,260,0,0,0,0,0,0,0,0,0,-1,1630,764,0,0
413,260,0,0,0,0,0,0,0,0,0,-1,1637,764,0,0
420,260,0,0,0,0,0,0,0,0,0,-1,1644,764,0,0
427,260,0,0,0,0,0,0,0,0,0,-1,1651,764,0,0
434,260,0,0,0,0,0,0,0,0,0,-1,1658,764,0,0
441,260,0,0,0,0,0,0,0,0,0,-1,1665,764,0,0
448,260,0,0,0,0,0,0,0,0,0,-1,1672,764,0,0
455,260,0,0,0,0,0,0,0,0,0,-1,1679,764,0,0
462,260,0,0,0,0,0,0,0,0,0,-1,1686,764,0,0
469,260,0,0,0,0,0,0,0,0,0,-1,1693,764,0,0
476,260,0,0,0,0,0,0,0,0,0,-1,1700,764,0,0
483,260,0,0,0,0,0,0,0,0,0,-1,1707,764,0,0
490,260,0,0,0,0,0,0,0,0,0,-1,1714,764,0,0
497,260,0,0,0,0,0,0,0,0,0,-1,1721,764,0,0
504,260,0,0,0,0,0,0,0,0,0,-1,1728,764,0,0
511,260,0,0,0,0,0,0,0,0,0,-1,1735,764,0,0
518,260,0,0,0,0,0,0,0,0,0,-1,1742,764,0,0
525,260,0,0,0,0,0,0,0,0,0,-1,1749,764,0,0
532,260,0,0,0,0,0,0,0,0,0,-1,1756,764,0,0
539,260,0,0,0,0,0,0,0,0,0,-1,1763,764,0,0
546,260,0,0,0,0,0,0,0,0,0,-1,1770,764,0,0
553,260,0,0,0,0,0,0,0,0,0,-1,1777,764,0,0
560,260,0,0,0,0,0,0,0,0,0,-1,1784,764,0,0
567,260,0,0,0,0,0,0,0,0,0,-1,1791,764,0,0
574,260,78.0405,2.56274,0,0,0,0,0,0,0,-1,1798,764,78.0406,-2.56273
581,260,77.9269,2.6955,0,0,0,0,0,0,0,-1,1805,764,77.9269,-2.69548
588,260,78.047,2.81091,0,0,0,0,0,0,0,-1,1812,764,78.047,-2.81091
595,260,66.1678,2.56989,0,0,0,0,0,0,0,-1,1819,764,66.1678,-2.56989
602,260,65.9274,2.69824,0,0,0,0,0,0,0,-1,1826,764,65.9274,-2.69825
609,260,65.4674,3.08105,0,0,0,0,0,0,0,-1,1833,764,65.4673,-3.08107
616,260,46.0709,2.74542,0,0,0,0,0,0,0,-1,1840,764,46.0709,-2.74545
623,260,32.2268,3.25836,0,0,0,0,0,0,0,-1,1847,764,32.2268,-3.25833
630,260,24.3739,-0.536316,0,0,0,0,0,0,0,-1,1854,764,24.3739,0.536343
637,260,42.7155,-5.35486,0,0,0,0,0,0,0,-1,1861,764,42.7154,5.35488
644,260,52.7588,-6.89368,0,0,0,0,0,0,0,-1,1868,764,52.7588,6.89368
651,260,52.5547,-5.63959,0.00042011,0.000801101,8.81131e-05,0.000820493,0.000400719,1.35418,0.000473754,0.0310011,1875,764,52.5547,5.63956
658,260,52.2986,-4.66467,0.000358788,0.000425753,1.82051e-05,0.000430382,0.000354159,1.32179,0.000265191,0.0196623,1882,764,52.2986,4.6647
665,260,52.165,-3.7677,0.000497356,0.000441045,6.40605e-06,0.000498075,0.000440326,0.111859,0.000314572,0.0167859,1889,764,52.1651,3.76771
672,260,52.1407,-2.78503,0.000774402,0.000577517,0.000143854,0.000850272,0.000501647,0.485334,0.000493548,0.0146135,1896,764,52.1408,2.78503
679,260,52.085,-1.81903,0.00107292,0.00102663,0.000455652,0.00150601,0.000593533,0.760022,0.000875972,0.0128163,1903,764,52.0849,1.81903
686,260,52.0013,-0.85083,0.00139139,0.00167022,0.000874955,0.0024168,0.000644814,0.864406,0.00144504,0.024775,1910,764,52.0014,0.850831
693,260,51.8708,0.0429688,0.00180092,0.00241784,0.0014257,0.00356806,0.000650691,0.891934,0.00219421,0.0242402,1917,764,51.8709,-0.0429854
700,260,51.8038,0.977905,0.00243113,0.00335688,0.00219527,0.00513755,0.00065047,0.889302,0.00323012,0.0166569,1924,764,51.8038,-0.977891
707,260,51.8192,1.94678,0.0031661,0.00444958,0.00307849,0.0069525,0.000663168,0.888156,0.00443052,0.0180615,1931,764,51.8193,-1.94678
714,260,51.7878,2.88409,0.00392258,0.00551684,0.00417363,0.00896878,0.000470645,0.879758,0.00582864,0.0406062,1938,764,51.7878,-2.88407
721,260,51.7648,3.8244,0,0,0,0,0,0,0,-1,1945,764,51.7647,-3.82442
728,260,33.4344,5.75409,0,0,0,0,0,0,0,-1,1952,764,33.4345,-5.75408
735,260,26.9788,4.85681,0,0,0,0,0,0,0,-1,1959,764,26.9787,-4.85678
742,260,32.1443,1.73688,0,0,0,0,0,0,0,-1,1966,764,32.1442,-1.73688
749,260,33.6013,2.94733,0,0,0,0,0,0,0,-1,1973,764,33.6013,-2.9473
756,260,0,0,0,0,0,0,0,0,0,-1,1980,764,0,0
763,260,0,0,0,0,0,0,0,0,0,-1,1987,764,0,0
770,260,0,0,0,0,0,0,0,0,0,-1,1994,764,0,0
777,260,0,0,0,0,0,0,0,0,0,-1,2001,764,0,0
784,260,0,0,0,0,0,0,0,0,0,-1,2008,764,0,0
791,260,0,0,0,0,0,0,0,0,0,-1,2015,764,0,0
798,260,0,0,0,0,0,0,0,0,0,-1,2022,764,0,0
805,260,0,0,0,0,0,0,0,0,0,-1,2029,764,0,0
812,260,0,0,0,0,0,0,0,0,0,-1,2036,764,0,0
-700,253,0,0,0,0,0,0,0,0,0,-1,524,771,0,0
-693,253,0,0,0,0,0,0,0,0,0,-1,531,771,0,0
-686,253,0,0,0,0,0,0,0,0,0,-1,538,771,0,0
-679,253,0,0,0,0,0,0,0,0,0,-1,545,771,0,0
-672,253,0,0,0,0,0,0,0,0,0,-1,552,771,0,0
-665,253,0,0,0,0,0,0,0,0,0,-1,559,771,0,0
-658,253,0,0,0,0,0,0,0,0,0,-1,566,771,0,0
-651,253,0,0,0,0,0,0,0,0,0,-1,573,771,0,0
-644,253,0,0,0,0,0,0,0,0,0,-1,580,771,0,0
-637,253,-24.7979,-0.491394,0,0,0,0,0,0,0,-1,587,771,-24.7978,0.491371
-630,253,-25.156,0.540405,0,0,0,0,0,0,0,-1,594,771,-25.156,-0.540421
-623,253,-20.808,2.84314,0,0,0,0,0,0,0,-1,601,771,-20.8081,-2.84312
-616,253,-25.0877,2.96875,0,0,0,0,0,0,0,-1,608,771,-25.0877,-2.96876
-609,253,-24.28,2.08228,0,0,0,0,0,0,0,-1,615,771,-24.2801,-2.08227
-602,253,-36.4248,3.65955,0,0,0,0,0,0,0,-1,622,771,-36.4248,-3.65955
-595,253,-36.6077,4.11938,0,0,0,0,0,0,0,-1,629,771,-36.6077,-4.11937
-588,253,-36.7971,2.92657,-0.00212859,0.00718462,-0.00745999,0.0113221,-0.00626604,-1.06441,0.0102934,0.0441825,636,771,-36.7971,-2.92658
-581,253,-36.9904,1.71466,-0.00191526,0.00549576,-0.00543857,0.00837119,-0.0047907,-1.08444,0.00769218,0.0299799,643,771,-36.9903,-1.71465
-574,253,-37.0423,0.811462,-0.00163143,0.00414614,-0.00344512,0.00575335,-0.00323864,-1.13429,0.00525876,0.0251041,650,771,-37.0423,-0.811455
-567,253,-37.1171,-0.148804,-0.00146093,0.00307225,-0.00184991,0.00373134,-0.00212002,-1.22854,0.00342071,0.0185421,657,771,-37.1171,0.148806
-560,253,-37.1738,-1.00311,-0.00141145,0.00230569,-0.000629089,0.00240927,-0.00151503,-1.40761,0.00228522,0.0142334,664,771,-37.1738,1.0031
-553,253,-37.2479,-1.96063,-0.00153491,0.0019065,0.000278812,0.00192895,-0.00155735,1.49048,0.00201662,0.0125117,671,771,-37.2479,1.96065
-546,253,-37.3004,-2.93933,-0.00192884,0.00159616,0.000947623,0.00183476,-0.00216744,1.32414,0.00231333,0.0112396,678,771,-37.3004,2.93931
-539,253,-37.3861,-3.90015,-0.00256697,0.00186252,0.00117896,0.00215676,-0.00286121,1.32621,0.00290663,0.0136078,685,771,-37.3861,3.90018
-532,253,-37.4217,-4.83337,-0.00299395,0.00242036,0.000850465,0.00255081,-0.0031244,1.4186,0.00328215,0.0199703,692,771,-37.4217,4.83337
-525,253,-37.5204,-5.75079,-0.00280436,0.00285997,0.000188788,0.00286626,-0.00281065,1.53752,0.00327761,0.0307806,699,771,-37.5204,5.75081
-518,253,-37.7537,-6.83984,-0.00189767,0.00382698,-0.000410008,0.0038562,-0.00192689,-1.49966,0.00340024,0.0460671,706,771,-37.7536,6.83986
-511,253,-38.2648,-7.88702,0,0,0,0,0,0,0,-1,713,771,-38.2649,7.887
-504,253,-19.317,-4.1723,0,0,0,0,0,0,0,-1,720,771,-19.317,4.1723
-497,253,-21.7737,-1.76837,0,0,0,0,0,0,0,-1,727,771,-21.7738,1.7684
-490,253,-29.7674,0.438354,0,0,0,0,0,0,0,-1,734,771,-29.7674,-0.438339
-483,253,-45.4489,1.59302,0,0,0,0,0,0,0,-1,741,771,-45.4489,-1.59303
-476,253,-62.1915,1.15497,0,0,0,0,0,0,0,-1,748,771,-62.1915,-1.15498
-469,253,-61.9042,1.25317,0.00351754,-0.00234701,-0.000625252,0.00358346,-0.00241293,-0.105042,0.00348394,0.0481477,755,771,-61.9042,-1.2532
-462,253,-61.7789,1.10901,0.00311901,-0.00609704,0.000324678,0.00313044,-0.00610846,0.0351715,0.00542567,0.0444863,762,771,-61.779,-1.109
-455,253,-61.8206,0.898804,0,0,0,0,0,0,0,-1,769,771,-61.8206,-0.898822
-448,253,0,0,0,0,0,0,0,0,0,-1,776,771,0,0
-441,253,0,0,0,0,0,0,0,0,0,-1,783,771,0,0
-434,253,0,0,0,0,0,0,0,0,0,-1,790,771,0,0
-427,253,0,0,0,0,0,0,0,0,0,-1,797,771,0,0
-420,253,0,0,0,0,0,0,0,0,0,-1,804,771,0,0
-413,253,0,0,0,0,0,0,0,0,0,-1,811,771,0,0
-406,253,0,0,0,0,0,0,0,0,0,-1,818,771,0,0
-399,253,0,0,0,0,0,0,0,0,0,-1,825,771,0,0
-392,253,0,0,0,0,0,0,0,0,0,-1,832,771,0,0
-385,253,0,0,0,0,0,0,0,0,0,-1,839,771,0,0
-378,253,0,0,0,0,0,0,0,0,0,-1,846,771,0,0
-371,253,0,0,0,0,0,0,0,0,0,-1,853,771,0,0
-364,253,0,0,0,0,0,0,0,0,0,-1,860,771,0,0
-357,253,0,0,0,0,0,0,0,0,0,-1,867,771,0,0
-350,253,0,0,0,0,0,0,0,0,0,-1,874,771,0,0
-343,253,0,0,0,0,0,0,0,0,0,-1,881,771,0,0
-336,253,0,0,0,0,0,0,0,0,0,-1,888,771,0,0
-329,253,0,0,0,0,0,0,0,0,0,-1,895,771,0,0
-322,253,0,0,0,0,0,0,0,0,0,-1,902,771,0,0
-315,253,0,0,0,0,0,0,0,0,0,-1,909,771,0,0
-308,253,0,0,0,0,0,0,0,0,0,-1,916,771,0,0
-301,253,0,0,0,0,0,0,0,0,0,-1,923,771,0,0
-294,253,0,0,0,0,0,0,0,0,0,-1,930,771,0,0
-287,253,0,0,0,0,0,0,0,0,0,-1,937,771,0,0
-280,253,0,0,0,0,0,0,0,0,0,-1,944,771,0,0
-273,253,0,0,0,0,0,0,0,0,0,-1,951,771,0,0
-266,253,0,0,0,0,0,0,0,0,0,-1,958,771,0,0
-259,253,0,0,0,0,0,0,0,0,0,-1,965,771,0,0
-252,253,0,0,0,0,0,0,0,0,0,-1,972,771,0,0
-245,253,0,0,0,0,0,0,0,0,0,-1,979,771,0,0
-238,253,0,0,0,0,0,0,0,0,0,-1,986,771,0,0
-231,253,0,0,0,0,0,0,0,0,0,-1,993,771,0,0
-224,253,0,0,0,0,0,0,0,0,0,-1,1000,771,0,0
-217,253,0,0,0,0,0,0,0,0,0,-1,1007,771,0,0
-210,253,0,0,0,0,0,0,0,0,0,-1,1014,771,0,0
-203,253,0,0,0,0,0,0,0,0,0,-1,1021,771,0,0
-196,253,0,0,0,0,0,0,0,0,0,-1,1028,771,0,0
-189,253,0,0,0,0,0,0,0,0,0,-1,1035,771,0,0
-182,253,0,0,0,0,0,0,0,0,0,-1,1042,771,0,0
-175,253,0,0,0,0,0,0,0,0,0,-1,1049,771,0,0
-168,253,0,0,0,0,0,0,0,0,0,-1,1056,771,0,0
-161,253,0,0,0,0,0,0,0,0,0,-1,1063,771,0,0
-154,253,0,0,0,0,0,0,0,0,0,-1,1070,771,0,0
-147,253,0,0,0,0,0,0,0,0,0,-1,1077,771,0,0
-140,253,0,0,0,0,0,0,0,0,0,-1,1084,771,0,0
-133,253,0,0,0,0,0,0,0,0,0,-1,1091,771,0,0
-126,253,0,0,0,0,0,0,0,0,0,-1,1098,771,0,0
-119,253,0,0,0,0,0,0,0,0,0,-1,1105,771,0,0
-112,253,0,0,0,0,0,0,0,0,0,-1,1112,771,0,0
-105,253,0,0,0,0,0,0,0,0,0,-1,1119,771,0,0
-98,253,0,0,0,0,0,0,0,0,0,-1,1126,771,0,0
-91,253,0,0,0,0,0,0,0,0,0,-1,1133,771,0,0
-84,253,0,0,0,0,0,0,0,0,0,-1,1140,771,0,0
-77,253,0,0,0,0,0,0,0,0,0,-1,1147,771,0,0
-70,253,0,0,0,0,0,0,0,0,0,-1,1154,771,0,0
-63,253,0,0,0,0,0,0,0,0,0,-1,1161,771,0,0
-56,253,0,0,0,0,0,0,0,0,0,-1,1168,771,0,0
-49,253,0,0,0,0,0,0,0,0,0,-1,1175,771,0,0
-42,253,0,0,0,0,0,0,0,0,0,-1,1182,771,0,0
-35,253,0,0,0,0,0,0,0,0,0,-1,1189,771,0,0
-28,253,0,0,0,0,0,0,0,0,0,-1,1196,771,0,0
-21,253,0,0,0,0,0,0,0,0,0,-1,1203,771,0,0
-14,253,0,0,0,0,0,0,0,0,0,-1,1210,771,0,0
-7,253,0,0,0,0,0,0,0,0,0,-1,1217,771,0,0
0,253,0,0,0,0,0,0,0,0,0,-1,1224,771,0,0
7,253,0,0,0,0,0,0,0,0,0,-1,1231,771,0,0
14,253,0,0,0,0,0,0,0,0,0,-1,1238,771,0,0
21,253,0,0,0,0,0,0,0,0,0,-1,1245,771,0,0
28,253,0,0,0,0,0,0,0,0,0,-1,1252,771,0,0
35,253,0,0,0,0,0,0,0,0,0,-1,1259,771,0,0
42,253,0,0,0,0,0,0,0,0,0,-1,1266,771,0,0
49,253,0,0,0,0,0,0,0,0,0,-1,1273,771,0,0
56,253,0,0,0,0,0,0,0,0,0,-1,1280,771,0,0
63,253,0,0,0,0,0,0,0,0,0,-1,1287,771,0,0
70,253,0,0,0,0,0,0,0,0,0,-1,1294,771,0,0
77,253,0,0,0,0,0,0,0,0,0,-1,1301,771,0,0
84,253,0,0,0,0,0,0,0,0,0,-1,1308,771,0,0
91,253,0,0,0,0,0,0,0,0,0,-1,1315,771,0,0
98,253,0,0,0,0,0,0,0,0,0,-1,1322,771,0,0
105,253,0,0,0,0,0,0,0,0,0,-1,1329,771,0,0
112,253,0,0,0,0,0,0,0,0,0,-1,1336,771,0,0
119,253,0,0,0,0,0,0,0,0,0,-1,1343,771,0,0
126,253,0,0,0,0,0,0,0,0,0,-1,1350,771,0,0
133,253,0,0,0,0,0,0,0,0,0,-1,1357,771,0,0
140,253,0,0,0,0,0,0,0,0,0,-1,1364,771,0,0
147,253,0,0,0,0,0,0,0,0,0,-1,1371,771,0,0
154,253,0,0,0,0,0,0,0,0,0,-1,1378,771,0,0
161,253,0,0,0,0,0,0,0,0,0,-1,1385,771,0,0
168,253,0,0,0,0,0,0,0,0,0,-1,1392,771,0,0
175,253,0,0,0,0,0,0,0,0,0,-1,1399,771,0,0
182,253,0,0,0,0,0,0,0,0,0,-1,1406,771,0,0
189,253,0,0,0,0,0,0,0,0,0,-1,1413,771,0,0
196,253,0,0,0,0,0,0,0,0,0,-1,1420,771,0,0
203,253,0,0,0,0,0,0,0,0,0,-1,1427,771,0,0
210,253,0,0,0,0,0,0,0,0,0,-1,1434,771,0,0
217,253,0,0,0,0,0,0,0,0,0,-1,1441,771,0,0
224,253,0,0,0,0,0,0,0,0,0,-1,1448,771,0,0
231,253,0,0,0,0,0,0,0,0,0,-1,1455,771,0,0
238,253,0,0,0,0,0,0,0,0,0,-1,1462,771,0,0
245,253,0,0,0,0,0,0,0,0,0,-1,1469,771,0,0
252,253,0,0,0,0,0,0,0,0,0,-1,1476,771,0,0
259,253,0,0,0,0,0,0,0,0,0,-1,1483,771,0,0
266,253,0,0,0,0,0,0,0,0,0,-1,1490,771,0,0
273,253,0,0,0,0,0,0,0,0,0,-1,1497,771,0,0
280,253,0,0,0,0,0,0,0,0,0,-1,1504,771,0,0
287,253,0,0,0,0,0,0,0,0,0,-1,1511,771,0,0
294,253,0,0,0,0,0,0,0,0,0,-1,1518,771,0,0
301,253,0,0,0,0,0,0,0,0,0,-1,1525,771,0,0
308,253,0,0,0,0,0,0,0,0,0,-1,1532,771,0,0
315,253,0,0,0,0,0,0,0,0,0,-1,1539,771,0,0
322,253,0,0,0,0,0,0,0,0,0,-1,1546,771,0,0
329,253,0,0,0,0,0,0,0,0,0,-1,1553,771,0,0
336,253,0,0,0,0,0,0,0,0,0,-1,1560,771,0,0
343,253,0,0,0,0,0,0,0,0,0,-1,1567,771,0,0
350,253,0,0,0,0,0,0,0,0,0,-1,1574,771,0,0
357,253,0,0,0,0,0,0,0,0,0,-1,1581,771,0,0
364,253,0,0,0,0,0,0,0,0,0,-1,1588,771,0,0
371,253,0,0,0,0,0,0,0,0,0,-1,1595,771,0,0
378,253,0,0,0,0,0,0,0,0,0,-1,1602,771,0,0
385,253,0,0,0,0,0,0,0,0,0,-1,1609,771,0,0
392,253,0,0,0,0,0,0,0,0,0,-1,1616,771,0,0
399,253,0,0,0,0,0,0,0,0,0,-1,1623,771,0,0
406,253,0,0,0,0,0,0,0,0,0,-1,1630,771,0,0
413,253,0,0,0,0,0,0,0,0,0,-1,1637,771,0,0
420,253,0,0,0,0,0,0,0,0,0,-1,1644,771,0,0
427,253,0,0,0,0,0,0,0,0,0,-1,1651,771,0,0
434,253,0,0,0,0,0,0,0,0,0,-1,1658,771,0,0
441,253,0,0,0,0,0,0,0,0,0,-1,1665,771,0,0
448,253,0,0,0,0,0,0,0,0,0,-1,1672,771,0,0
455,253,0,0,0,0,0,0,0,0,0,-1,1679,771,0,0
462,253,0,0,0,0,0,0,0,0,0,-1,1686,771,0,0
469,253,0,0,0,0,0,0,0,0,0,-1,1693,771,0,0
476,253,0,0,0,0,0,0,0,0,0,-1,1700,771,0,0
483,253,0,0,0,0,0,0,0,0,0,-1,1707,771,0,0
490,253,0,0,0,0,0,0,0,0,0,-1,1714,771,0,0
497,253,0,0,0,0,0,0,0,0,0,-1,1721,771,0,0
504,253,0,0,0,0,0,0,0,0,0,-1,1728,771,0,0
511,253,0,0,0,0,0,0,0,0,0,-1,1735,771,0,0
518,253,0,0,0,0,0,0,0,0,0,-1,1742,771,0,0
525,253,0,0,0,0,0,0,0,0,0,-1,1749,771,0,0
532,253,0,0,0,0,0,0,0,0,0,-1,1756,771,0,0
539,253,0,0,0,0,0,0,0,0,0,-1,1763,771,0,0
546,253,0,0,0,0,0,0,0,0,0,-1,1770,771,0,0
553,253,0,0,0,0,0,0,0,0,0,-1,1777,771,0,0
560,253,0,0,0,0,0,0,0,0,0,-1,1784,771,0,0
567,253,0,0,0,0,0,0,0,0,0,-1,1791,771,0,0
574,253,77.9451,2.46771,0,0,0,0,0,0,0,-1,1798,771,77.9451,-2.46769
581,253,77.9073,2.62091,0.0129871,0.00137435,-0.00216251,0.0133768,0.000984719,-0.178261,0.0086084,0.0443296,1805,771,77.9073,-2.62089
588,253,78.0288,2.62427,0.010919,0.00097286,-0.00119652,0.0110609,0.000830945,-0.118056,0.00711314,0.0492967,1812,771,78.0288,-2.6243
595,253,78.3932,2.49902,0,0,0,0,0,0,0,-1,1819,771,78.3932,-2.49903
602,253,66.4502,2.6098,0,0,0,0,0,0,0,-1,1826,771,66.4502,-2.60979
609,253,65.2542,3.18195,0,0,0,0,0,0,0,-1,1833,771,65.2541,-3.18193
616,253,58.416,2.69031,0,0,0,0,0,0,0,-1,1840,771,58.4161,-2.69031
623,253,48.8328,3.01001,0,0,0,0,0,0,0,-1,1847,771,48.8328,-3.01002
630,253,33.561,2.96838,0,0,0,0,0,0,0,-1,1854,771,33.561,-2.96836
637,253,22.3192,-0.604004,0,0,0,0,0,0,0,-1,1861,771,22.3192,0.603986
644,253,48.2843,-5.22784,0,0,0,0,0,0,0,-1,1868,771,48.2843,5.22783
651,253,53.8931,-5.60223,0,0,0,0,0,0,0,-1,1875,771,53.8931,5.60223
658,253,53.2361,-4.55579,0.000111691,0.000679506,5.31064e-05,0.00068443,0.000106767,1.47834,0.00042519,0.0293471,1882,771,53.236,4.5558
665,253,53.0593,-3.71527,0.00033508,0.000529694,-4.03588e-05,0.000537732,0.000327043,-1.37421,0.000312873,0.0229643,1889,771,53.0594,3.71527
672,253,53.0375,-2.78131,0.000727492,0.000415037,1.83829e-06,0.000727502,0.000415026,0.00588312,0.000421412,0.0180443,1896,771,53.0375,2.78128
679,253,53.0464,-1.79388,0.00107036,0.000607882,0.000191108,0.00113911,0.000539131,0.345334,0.000657976,0.014017,1903,771,53.0463,1.79387
686,253,52.928,-0.797852,0.00135565,0.00111174,0.000507444,0.00175559,0.0007118,0.667469,0.00101961,0.0274946,1910,771,52.9279,0.797878
693,253,52.7981,0.12262,0.00165794,0.00175688,0.000949606,0.0026583,0.000756513,0.811423,0.00158154,0.0254619,1917,771,52.7981,-0.122612
700,253,52.7847,1.03265,0.00215103,0.00256736,0.00157376,0.00394667,0.000771724,0.851152,0.00241532,0.0166176,1924,771,52.7847,-1.03265
707,253,52.7727,2.01093,0.00276437,0.00355076,0.00234946,0.0055397,0.000775429,0.868308,0.00346371,0.0170336,1931,771,52.7727,-2.01094
714,253,52.6913,2.94757,0.00340392,0.00452426,0.00327502,0.00728667,0.000641511,0.8701,0.00465869,0.0290432,1938,771,52.6913,-2.94759
721,253,52.7103,3.91193,0.00456648,0.00566893,0.00455582,0.00970675,0.000528656,0.845602,0.00630235,0.0467336,1945,771,52.7103,-3.91193
728,253,52.7869,4.91327,0,0,0,0,0,0,0,-1,1952,771,52.7868,-4.91326
735,253,34.5735,6.15118,0,0,0,0,0,0,0,-1,1959,771,34.5734,-6.1512
742,253,31.0571,5.7337,0,0,0,0,0,0,0,-1,1966,771,31.0571,-5.73373
749,253,33.7754,3.21533,0,0,0,0,0,0,0,-1,1973,771,33.7754,-3.21533
756,253,0,0,0,0,0,0,0,0,0,-1,1980,771,0,0
763,253,0,0,0,0,0,0,0,0,0,-1,1987,771,0,0
770,253,0,0,0,0,0,0,0,0,0,-1,1994,771,0,0
777,253,0,0,0,0,0,0,0,0,0,-1,2001,771,0,0
784,253,0,0,0,0,0,0,0,0,0,-1,2008,771,0,0
791,253,0,0,0,0,0,0,0,0,0,-1,2015,771,0,0
798,253,0,0,0,0,0,0,0,0,0,-1,2022,771,0,0
805,253,0,0,0,0,0,0,0,0,0,-1,2029,771,0,0
812,253,0,0,0,0,0,0,0,0,0,-1,2036,771,0,0
-700,246,0,0,0,0,0,0,0,0,0,-1,524,778,0,0
-693,246,0,0,0,0,0,0,0,0,0,-1,531,778,0,0
-686,246,0,0,0,0,0,0,0,0,0,-1,538,778,0,0
-679,246,0,0,0,0,0,0,0,0,0,-1,545,778,0,0
-672,246,0,0,0,0,0,0,0,0,0,-1,552,778,0,0
-665,246,0,0,0,0,0,0,0,0,0,-1,559,778,0,0
-658,246,0,0,0,0,0,0,0,0,0,-1,566,778,0,0
-651,246,0,0,0,0,0,0,0,0,0,-1,573,778,0,0
-644,246,0,0,0,0,0,0,0,0,0,-1,580,778,0,0
-637,246,-24.1234,0.130432,0,0,0,0,0,0,0,-1,587,778,-24.1234,-0.130438
-630,246,-24.0781,1.38916,0,0,0,0,0,0,0,-1,594,778,-24.0781,-1.38913
-623,246,-23.9183,2.49573,0,0,0,0,0,0,0,-1,601,778,-23.9183,-2.49575
-616,246,-26.8182,2.0705,0,0,0,0,0,0,0,-1,608,778,-26.8182,-2.07052
-609,246,-26.0615,1.16388,0,0,0,0,0,0,0,-1,615,778,-26.0615,-1.16388
-602,246,-37.1365,4.32562,0,0,0,0,0,0,0,-1,622,778,-37.1365,-4.32563
-595,246,-37.5458,4.04749,0,0,0,0,0,0,0,-1,629,778,-37.5458,-4.04746
-588,246,-37.7537,2.91412,-0.00217441,0.00653143,-0.00629559,0.00983242,-0.0054754,-1.08787,0.00895651,0.0355356,636,778,-37.7537,-2.91413
-581,246,-37.9736,1.88422,-0.00171148,0.00507819,-0.00458888,0.00739149,-0.00402477,-1.10387,0.00668603,0.0207576,643,778,-37.9736,-1.88422
-574,246,-37.9412,0.864502,-0.0013389,0.00391223,-0.00284809,0.00516032,-0.00258699,-1.15778,0.00455442,0.0205577,650,778,-37.9411,-0.86452
-567,246,-38.0377,-0.0794678,-0.00116183,0.00303556,-0.00140668,0.00346337,-0.00158965,-1.27555,0.00298347,0.0270027,657,778,-38.0376,0.0794535
-560,246,-38.1731,-0.977234,-0.00111793,0.00244173,-0.000247849,0.00245891,-0.00113511,-1.50161,0.0021214,0.0212061,664,778,-38.1731,0.97726
-553,246,-38.2079,-1.88605,-0.00139938,0.00227462,0.000586576,0.002366,-0.00149076,1.41626,0.00224573,0.0132442,671,778,-38.2079,1.88605
-546,246,-38.2679,-2.83246,-0.00208806,0.00215396,0.0010994,0.00242196,-0.00235606,1.33169,0.00275868,0.0113217,678,778,-38.268,2.83245
-539,246,-38.3278,-3.82092,-0.00293857,0.00268963,0.00114277,0.00291281,-0.00316176,1.37792,0.00350813,0.0138601,685,778,-38.3278,3.82091
-532,246,-38.4053,-4.77753,-0.00329696,0.00317608,0.00069099,0.00324902,-0.0033699,1.46563,0.00382165,0.0314633,692,778,-38.4053,4.77752
-525,246,-38.5939,-5.73022,0,0,0,0,0,0,0,-1,699,778,-38.5939,5.7302
-518,246,-38.736,-7.12744,0,0,0,0,0,0,0,-1,706,778,-38.7359,7.12745
-511,246,-28.5886,-5.38635,0,0,0,0,0,0,0,-1,713,778,-28.5886,5.38633
-504,246,-20.0047,-2.88214,0,0,0,0,0,0,0,-1,720,778,-20.0047,2.88216
-497,246,-29.4669,1.82684,0,0,0,0,0,0,0,-1,727,778,-29.4669,-1.82687
-490,246,-40.4299,1.04309,0,0,0,0,0,0,0,-1,734,778,-40.4299,-1.04308
-483,246,-55.5514,-0.0795898,0,0,0,0,0,0,0,-1,741,778,-55.5514,0.0795595
-476,246,-62.3682,0.926208,0,0,0,0,0,0,0,-1,748,778,-62.3681,-0.926209
-469,246,-62.0535,0.975037,0.0055895,0.000589664,-0.0019255,0.00624508,-6.59113e-05,-0.32816,0.00418553,0.0424739,755,778,-62.0535,-0.975027
-462,246,-62.0167,0.86084,0.00666498,-0.00232466,-0.00111913,0.0068022,-0.00246189,-0.12201,0.00554084,0.0490162,762,778,-62.0167,-0.860846
-455,246,0,0,0,0,0,0,0,0,0,-1,769,778,0,0
-448,246,0,0,0,0,0,0,0,0,0,-1,776,778,0,0
-441,246,0,0,0,0,0,0,0,0,0,-1,783,778,0,0
-434,246,0,0,0,0,0,0,0,0,0,-1,790,778,0,0
-427,246,0,0,0,0,0,0,0,0,0,-1,797,778,0,0
-420,246,0,0,0,0,0,0,0,0,0,-1,804,778,0,0
-413,246,0,0,0,0,0,0,0,0,0,-1,811,778,0,0
-406,246,0,0,0,0,0,0,0,0,0,-1,818,778,0,0
-399,246,0,0,0,0,0,0,0,0,0,-1,825,778,0,0
-392,246,0,0,0,0,0,0,0,0,0,-1,832,778,0,0
-385,246,0,0,0,0,0,0,0,0,0,-1,839,778,0,0
-378,246,0,0,0,0,0,0,0,0,0,-1,846,778,0,0
-371,246,0,0,0,0,0,0,0,0,0,-1,853,778,0,0
-364,246,0,0,0,0,0,0,0,0,0,-1,860,778,0,0
-357,246,0,0,0,0,0,0,0,0,0,-1,867,778,0,0
-350,246,0,0,0,0,0,0,0,0,0,-1,874,778,0,0
-343,246,0,0,0,0,0,0,0,0,0,-1,881,778,0,0
-336,246,0,0,0,0,0,0,0,0,0,-1,888,778,0,0
-329,246,0,0,0,0,0,0,0,0,0,-1,895,778,0,0
-322,246,0,0,0,0,0,0,0,0,0,-1,902,778,0,0
-315,246,0,0,0,0,0,0,0,0,0,-1,909,778,0,0
-308,246,0,0,0,0,0,0,0,0,0,-1,916,778,0,0
-301,246,0,0,0,0,0,0,0,0,0,-1,923,778,0,0
-294,246,0,0,0,0,0,0,0,0,0,-1,930,778,0,0
-287,246,0,0,0,0,0,0,0,0,0,-1,937,778,0,0
-280,246,0,0,0,0,0,0,0,0,0,-1,944,778,0,0
-273,246,0,0,0,0,0,0,0,0,0,-1,951,778,0,0
-266,246,0,0,0,0,0,0,0,0,0,-1,958,778,0,0
-259,246,0,0,0,0,0,0,0,0,0,-1,965,778,0,0
-252,246,0,0,0,0,0,0,0,0,0,-1,972,778,0,0
-245,246,0,0,0,0,0,0,0,0,0,-1,979,778,0,0
-238,246,0,0,0,0,0,0,0,0,0,-1,986,778,0,0
-231,246,0,0,0,0,0,0,0,0,0,-1,993,778,0,0
-224,246,0,0,0,0,0,0,0,0,0,-1,1000,778,0,0
-217,246,0,0,0,0,0,0,0,0,0,-1,1007,778,0,0
-210,246,0,0,0,0,0,0,0,0,0,-1,1014,778,0,0
-203,246,0,0,0,0,0,0,0,0,0,-1,1021,778,0,0
-196,246,0,0,0,0,0,0,0,0,0,-1,1028,778,0,0
-189,246,0,0,0,0,0,0,0,0,0,-1,1035,778,0,0
-182,246,0,0,0,0,0,0,0,0,0,-1,1042,778,0,0
-175,246,0,0,0,0,0,0,0,0,0,-1,1049,778,0,0
-168,246,0,0,0,0,0,0,0,0,0,-1,1056,778,0,0
-161,246,0,0,0,0,0,0,0,0,0,-1,1063,778,0,0
-154,246,0,0,0,0,0,0,0,0,0,-1,1070,778,0,0
-147,246,0,0,0,0,0,0,0,0,0,-1,1077,778,0,0
-140,246,0,0,0,0,0,0,0,0,0,-1,1084,778,0,0
-133,246,0,0,0,0,0,0,0,0,0,-1,1091,778,0,0
-126,246,0,0,0,0,0,0,0,0,0,-1,1098,778,0,0
-119,246,0,0,0,0,0,0,0,0,0,-1,1105,778,0,0
-112,246,0,0,0,0,0,0,0,0,0,-1,1112,778,0,0
-105,246,0,0,0,0,0,0,0,0,0,-1,1119,778,0,0
-98,246,0,0,0,0,0,0,0,0,0,-1,1126,778,0,0
-91,246,0,0,0,0,0,0,0,0,0,-1,1133,778,0,0
-84,246,0,0,0,0,0,0,0,0,0,-1,1140,778,0,0
-77,246,0,0,0,0,0,0,0,0,0,-1,1147,778,0,0
-70,246,0,0,0,0,0,0,0,0,0,-1,1154,778,0,0
-63,246,0,0,0,0,0,0,0,0,0,-1,1161,778,0,0
-56,246,0,0,0,0,0,0,0,0,0,-1,1168,778,0,0
-49,246,0,0,0,0,0,0,0,0,0,-1,1175,778,0,0
-42,246,0,0,0,0,0,0,0,0,0,-1,1182,778,0,0
-35,246,0,0,0,0,0,0,0,0,0,-1,1189,778,0,0
-28,246,0,0,0,0,0,0,0,0,0,-1,1196,778,0,0
-21,246,0,0,0,0,0,0,0,0,0,-1,1203,778,0,0
-14,246,0,0,0,0,0,0,0,0,0,-1,1210,778,0,0
-7,246,0,0,0,0,0,0,0,0,0,-1,1217,778,0,0
0,246,0,0,0,0,0,0,0,0,0,-1,1224,778,0,0
7,246,0,0,0,0,0,0,0,0,0,-1,1231,778,0,0
14,246,0,0,0,0,0,0,0,0,0,-1,1238,778,0,0
21,246,0,0,0,0,0,0,0,0,0,-1,1245,778,0,0
28,246,0,0,0,0,0,0,0,0,0,-1,1252,778,0,0
35,246,0,0,0,0,0,0,0,0,0,-1,1259,778,0,0
42,246,0,0,0,0,0,0,0,0,0,-1,1266,778,0,0
49,246,0,0,0,0,0,0,0,0,0,-1,1273,778,0,0
56,246,0,0,0,0,0,0,0,0,0,-1,1280,778,0,0
63,246,0,0,0,0,0,0,0,0,0,-1,1287,778,0,0
70,246,0,0,0,0,0,0,0,0,0,-1,1294,778,0,0
77,246,0,0,0,0,0,0,0,0,0,-1,1301,778,0,0
84,246,0,0,0,0,0,0,0,0,0,-1,1308,778,0,0
91,246,0,0,0,0,0,0,0,0,0,-1,1315,778,0,0
98,246,0,0,0,0,0,0,0,0,0,-1,1322,778,0,0
105,246,0,0,0,0,0,0,0,0,0,-1,1329,778,0,0
112,246,0,0,0,0,0,0,0,0,0,-1,1336,778,0,0
119,246,0,0,0,0,0,0,0,0,0,-1,1343,778,0,0
126,246,0,0,0,0,0,0,0,0,0,-1,1350,778,0,0
133,246,0,0,0,0,0,0,0,0,0,-1,1357,778,0,0
140,246,0,0,0,0,0,0,0,0,0,-1,1364,778,0,0
147,246,0,0,0,0,0,0,0,0,0,-1,1371,778,0,0
154,246,0,0,0,0,0,0,0,0,0,-1,1378,778,0,0
161,246,0,0,0,0,0,0,0,0,0,-1,1385,778,0,0
168,246,0,0,0,0,0,0,0,0,0,-1,1392,778,0,0
175,246,0,0,0,0,0,0,0,0,0,-1,1399,778,0,0
182,246,0,0,0,0,0,0,0,0,0,-1,1406,778,0,0
189,246,0,0,0,0,0,0,0,0,0,-1,1413,778,0,0
196,246,0,0,0,0,0,0,0,0,0,-1,1420,778,0,0
203,246,0,0,0,0,0,0,0,0,0,-1,1427,778,0,0
210,246,0,0,0,0,0,0,0,0,0,-1,1434,778,0,0
217,246,0,0,0,0,0,0,0,0,0,-1,1441,778,0,0
224,246,0,0,0,0,0,0,0,0,0,-1,1448,778,0,0
231,246,0,0,0,0,0,0,0,0,0,-1,1455,778,0,0
238,246,0,0,0,0,0,0,0,0,0,-1,1462,778,0,0
245,246,0,0,0,0,0,0,0,0,0,-1,1469,778,0,0
252,246,0,0,0,0,0,0,0,0,0,-1,1476,778,0,0
259,246,0,0,0,0,0,0,0,0,0,-1,1483,778,0,0
266,246,0,0,0,0,0,0,0,0,0,-1,1490,778,0,0
273,246,0,0,0,0,0,0,0,0,0,-1,1497,778,0,0
280,246,0,0,0,0,0,0,0,0,0,-1,1504,778,0,0
287,246,0,0,0,0,0,0,0,0,0,-1,1511,778,0,0
294,246,0,0,0,0,0,0,0,0,0,-1,1518,778,0,0
301,246,0,0,0,0,0,0,0,0,0,-1,1525,778,0,0
308,246,0,0,0,0,0,0,0,0,0,-1,1532,778,0,0
315,246,0,0,0,0,0,0,0,0,0,-1,1539,778,0,0
322,246,0,0,0,0,0,0,0,0,0,-1,1546,778,0,0
329,246,0,0,0,0,0,0,0,0,0,-1,1553,778,0,0
336,246,0,0,0,0,0,0,0,0,0,-1,1560,778,0,0
343,246,0,0,0,0,0,0,0,0,0,-1,1567,778,0,0
350,246,0,0,0,0,0,0,0,0,0,-1,1574,778,0,0
357,246,0,0,0,0,0,0,0,0,0,-1,1581,778,0,0
364,246,0,0,0,0,0,0,0,0,0,-1,1588,778,0,0
371,246,0,0,0,0,0,0,0,0,0,-1,1595,778,0,0
378,246,0,0,0,0,0,0,0,0,0,-1,1602,778,0,0
385,246,0,0,0,0,0,0,0,0,0,-1,1609,778,0,0
392,246,0,0,0,0,0,0,0,0,0,-1,1616,778,0,0
399,246,0,0,0,0,0,0,0,0,0,-1,1623,778,0,0
406,246,0,0,0,0,0,0,0,0,0,-1,1630,778,0,0
413,246,0,0,0,0,0,0,0,0,0,-1,1637,778,0,0
420,246,0,0,0,0,0,0,0,0,0,-1,1644,778,0,0
427,246,0,0,0,0,0,0,0,0,0,-1,1651,778,0,0
434,246,0,0,0,0,0,0,0,0,0,-1,1658,778,0,0
441,246,0,0,0,0,0,0,0,0,0,-1,1665,778,0,0
448,246,0,0,0,0,0,0,0,0,0,-1,1672,778,0,0
455,246,0,0,0,0,0,0,0,0,0,-1,1679,778,0,0
462,246,0,0,0,0,0,0,0,0,0,-1,1686,778,0,0
469,246,0,0,0,0,0,0,0,0,0,-1,1693,778,0,0
476,246,0,0,0,0,0,0,0,0,0,-1,1700,778,0,0
483,246,0,0,0,0,0,0,0,0,0,-1,1707,778,0,0
490,246,0,0,0,0,0,0,0,0,0,-1,1714,778,0,0
497,246,0,0,0,0,0,0,0,0,0,-1,1721,778,0,0
504,246,0,0,0,0,0,0,0,0,0,-1,1728,778,0,0
511,246,0,0,0,0,0,0,0,0,0,-1,1735,778,0,0
518,246,0,0,0,0,0,0,0,0,0,-1,1742,778,0,0
525,246,0,0,0,0,0,0,0,0,0,-1,1749,778,0,0
532,246,0,0,0,0,0,0,0,0,0,-1,1756,778,0,0
539,246,0,0,0,0,0,0,0,0,0,-1,1763,778,0,0
546,246,0,0,0,0,0,0,0,0,0,-1,1770,778,0,0
553,246,0,0,0,0,0,0,0,0,0,-1,1777,778,0,0
560,246,0,0,0,0,0,0,0,0,0,-1,1784,778,0,0
567,246,0,0,0,0,0,0,0,0,0,-1,1791,778,0,0
574,246,0,0,0,0,0,0,0,0,0,-1,1798,778,0,0
581,246,77.9419,2.64557,0.0100576,0.000728709,-0.00320497,0.0110526,-0.000266247,-0.301009,0.00745873,0.0377663,1805,778,77.9419,-2.64555
588,246,78.0175,2.51337,0.00924758,0.000507797,-0.00163795,0.00954447,0.00021091,-0.179309,0.00629385,0.0404337,1812,778,78.0174,-2.51336
595,246,78.1934,2.51331,0.00791603,0.000799846,-0.000698617,0.00798396,0.000731909,-0.0969399,0.00509622,0.0463582,1819,778,78.1933,-2.51331
602,246,78.1384,2.72034,0,0,0,0,0,0,0,-1,1826,778,78.1385,-2.72031
609,246,65.04,3.03278,0,0,0,0,0,0,0,-1,1833,778,65.04,-3.03277
616,246,60.4568,3.98492,0,0,0,0,0,0,0,-1,1840,778,60.4568,-3.98491
623,246,55.8947,3.95953,0,0,0,0,0,0,0,-1,1847,778,55.8947,-3.95952
630,246,49.5938,1.99902,0,0,0,0,0,0,0,-1,1854,778,49.5937,-1.999
637,246,29.5785,0.837585,0,0,0,0,0,0,0,-1,1861,778,29.5785,-0.837606
644,246,28.1232,-1.43188,0,0,0,0,0,0,0,-1,1868,778,28.1232,1.43188
651,246,48.5865,-4.32922,0,0,0,0,0,0,0,-1,1875,778,48.5865,4.32921
658,246,54.1169,-4.44415,0,0,0,0,0,0,0,-1,1882,778,54.117,4.44416
665,246,54.0138,-3.68579,-0.000175808,0.000545462,-5.1055e-05,0.000549058,-0.000179404,-1.50048,0.000438256,0.0326461,1889,778,54.0138,3.68578
672,246,54.0216,-2.72473,0.000307486,0.000235638,-0.000110915,0.000388149,0.000154974,-0.628784,0.000225609,0.0232817,1896,778,54.0216,2.72473
679,246,53.9626,-1.71405,0.000761802,0.000232236,-6.99591e-05,0.000770888,0.00022315,-0.129155,0.000458035,0.0218914,1903,778,53.9627,1.71406
686,246,53.8917,-0.72113,0.00110888,0.000621423,0.000151175,0.00115195,0.000578345,0.277594,0.000665083,0.02272,1910,778,53.8918,0.721138
693,246,53.8427,0.166321,0.00143211,0.00118286,0.000508707,0.00183123,0.000783731,0.665273,0.00106091,0.0178324,1917,778,53.8426,-0.166346
700,246,53.8091,1.08539,0.0019299,0.00189041,0.0010351,0.00294544,0.000874866,0.775862,0.00174664,0.0146684,1924,778,53.809,-1.08541
707,246,53.7448,2.06079,0.00256168,0.0027818,0.00174386,0.00441906,0.000924409,0.816913,0.00269136,0.0146512,1931,778,53.7447,-2.06077
714,246,53.6324,3.04156,0.00322325,0.00366668,0.00256963,0.00602415,0.000865788,0.828433,0.00376087,0.0155715,1938,778,53.6324,-3.04155
721,246,53.5402,3.91718,0.00424232,0.00458874,0.00364994,0.00806958,0.00076149,0.809108,0.00514471,0.0198539,1945,778,53.5402,-3.91716
728,246,53.5854,5.04504,0.00559196,0.0052187,0.00496554,0.0103744,0.000436283,0.766615,0.00677551,0.0415105,1952,778,53.5855,-5.04506
735,246,53.6841,6.25732,0,0,0,0,0,0,0,-1,1959,778,53.684,-6.25732
742,246,31.7356,6.70013,0,0,0,0,0,0,0,-1,1966,778,31.7356,-6.70011
749,246,32.3883,7.69324,0,0,0,0,0,0,0,-1,1973,778,32.3883,-7.69322
756,246,33.6919,3.45264,0,0,0,0,0,0,0,-1,1980,778,33.6919,-3.45262
763,246,0,0,0,0,0,0,0,0,0,-1,1987,778,0,0
770,246,0,0,0,0,0,0,0,0,0,-1,1994,778,0,0
777,246,0,0,0,0,0,0,0,0,0,-1,2001,778,0,0
784,246,0,0,0,0,0,0,0,0,0,-1,2008,778,0,0
791,246,0,0,0,0,0,0,0,0,0,-1,2015,778,0,0
798,246,0,0,0,0,0,0,0,0,0,-1,2022,778,0,0
805,246,0,0,0,0,0,0,0,0,0,-1,2029,778,0,0
812,246,0,0,0,0,0,0,0,0,0,-1,2036,778,0,0
-700,239,0,0,0,0,0,0,0,0,0,-1,524,785,0,0
-693,239,0,0,0,0,0,0,0,0,0,-1,531,785,0,0
-686,239,0,0,0,0,0,0,0,0,0,-1,538,785,0,0
-679,239,0,0,0,0,0,0,0,0,0,-1,545,785,0,0
-672,239,0,0,0,0,0,0,0,0,0,-1,552,785,0,0
-665,239,0,0,0,0,0,0,0,0,0,-1,559,785,0,0
-658,239,0,0,0,0,0,0,0,0,0,-1,566,785,0,0
-651,239,0,0,0,0,0,0,0,0,0,-1,573,785,0,0
-644,239,0,0,0,0,0,0,0,0,0,-1,580,785,0,0
-637,239,-23.2709,0.465088,0,0,0,0,0,0,0,-1,587,785,-23.271,-0.465116
-630,239,-23.4006,0.956299,0,0,0,0,0,0,0,-1,594,785,-23.4005,-0.956285
-623,239,-30.6328,2.52185,0,0,0,0,0,0,0,-1,601,785,-30.6328,-2.52183
-616,239,-29.1425,1.42139,0,0,0,0,0,0,0,-1,608,785,-29.1425,-1.42139
-609,239,-27.8569,0.322937,0,0,0,0,0,0,0,-1,615,785,-27.857,-0.322963
-602,239,-38.4938,5.55322,0,0,0,0,0,0,0,-1,622,785,-38.4938,-5.55323
-595,239,-38.6094,4.31903,-0.0029937,0.00768356,-0.00694958,0.0111084,-0.0064185,-1.11292,0.0102392,0.0458027,629,785,-38.6094,-4.31901
-588,239,-38.7672,3.03766,-0.00190246,0.00607071,-0.00528935,0.00870757,-0.00453933,-1.10833,0.00777328,0.0227653,636,785,-38.7672,-3.03764
-581,239,-38.9135,1.94904,-0.00126134,0.00482422,-0.00385641,0.00669372,-0.00313083,-1.1194,0.0057952,0.0123768,643,785,-38.9135,-1.94902
-574,239,-38.958,0.945679,-0.000787119,0.0038497,-0.00237164,0.00484787,-0.00178529,-1.17242,0.00396338,0.0134112,650,785,-38.958,-0.945672
-567,239,-39.0425,0.0194092,-0.000560152,0.00318335,-0.00110098,0.00348314,-0.000859944,-1.30495,0.00265557,0.0199167,657,785,-39.0425,-0.0193792
-560,239,-39.1369,-0.902222,-0.000581005,0.00279323,-2.95588e-05,0.00279349,-0.000581264,-1.56204,0.00208329,0.020535,664,785,-39.1369,0.902249
-553,239,-39.1642,-1.84009,-0.00122319,0.00292482,0.000693641,0.00303774,-0.00133611,1.40942,0.00258816,0.0147644,671,785,-39.1642,1.84007
-546,239,-39.2068,-2.77795,-0.00238332,0.00303389,0.00102367,0.00322088,-0.00257031,1.39013,0.00335057,0.0177899,678,785,-39.2069,2.77797
-539,239,-39.3954,-3.76709,-0.00357065,0.00383815,0.000922651,0.00395132,-0.00368383,1.44875,0.00440906,0.0389047,685,785,-39.3954,3.76709
-532,239,-39.7607,-4.69775,-0.00399833,0.00427622,0.00043885,0.00429943,-0.00402154,1.51796,0.00480501,0.0391094,692,785,-39.7608,4.69777
-525,239,-39.5563,-5.31116,0,0,0,0,0,0,0,-1,699,785,-39.5563,5.31116
-518,239,-39.5098,-5.84784,0,0,0,0,0,0,0,-1,706,785,-39.5098,5.84785
-511,239,-20.9849,-2.09235,0,0,0,0,0,0,0,-1,713,785,-20.9848,2.09234
-504,239,-25.5015,2.00421,0,0,0,0,0,0,0,-1,720,785,-25.5015,-2.00422
-497,239,-40.2453,1.4447,0,0,0,0,0,0,0,-1,727,785,-40.2453,-1.4447
-490,239,-55.7633,-0.30426,0,0,0,0,0,0,0,-1,734,785,-55.7633,0.304271
-483,239,-62.0791,1.17273,0,0,0,0,0,0,0,-1,741,785,-62.0791,-1.17272
-476,239,-62.2373,0.854431,0.0049405,0.00387356,-0.00312651,0.00757872,0.00123533,-0.700898,0.00469519,0.0414229,748,785,-62.2373,-0.854423
-469,239,-62.0988,0.795654,0.00739995,0.00209681,-0.00261528,0.0084727,0.00102407,-0.389255,0.00533994,0.0434799,755,785,-62.0988,-0.795626
-462,239,-61.9877,0.813293,0.0100797,-0.00137319,-0.00140881,0.0102505,-0.00154394,-0.120614,0.00740216,0.0487377,762,785,-61.9877,-0.813264
-455,239,0,0,0,0,0,0,0,0,0,-1,769,785,0,0
-448,239,0,0,0,0,0,0,0,0,0,-1,776,785,0,0
-441,239,0,0,0,0,0,0,0,0,0,-1,783,785,0,0
-434,239,0,0,0,0,0,0,0,0,0,-1,790,785,0,0
-427,239,0,0,0,0,0,0,0,0,0,-1,797,785,0,0
-420,239,0,0,0,0,0,0,0,0,0,-1,804,785,0,0
-413,239,0,0,0,0,0,0,0,0,0,-1,811,785,0,0
-406,239,0,0,0,0,0,0,0,0,0,-1,818,785,0,0
-399,239,0,0,0,0,0,0,0,0,0,-1,825,785,0,0
-392,239,0,0,0,0,0,0,0,0,0,-1,832,785,0,0
-385,239,0,0,0,0,0,0,0,0,0,-1,839,785,0,0
-378,239,0,0,0,0,0,0,0,0,0,-1,846,785,0,0
-371,239,0,0,0,0,0,0,0,0,0,-1,853,785,0,0
-364,239,0,0,0,0,0,0,0,0,0,-1,860,785,0,0
-357,239,0,0,0,0,0,0,0,0,0,-1,867,785,0,0
-350,239,0,0,0,0,0,0,0,0,0,-1,874,785,0,0
-343,239,0,0,0,0,0,0,0,0,0,-1,881,785,0,0
-336,239,0,0,0,0,0,0,0,0,0,-1,888,785,0,0
-329,239,0,0,0,0,0,0,0,0,0,-1,895,785,0,0
-322,239,0,0,0,0,0,0,0,0,0,-1,902,785,0,0
-315,239,0,0,0,0,0,0,0,0,0,-1,909,785,0,0
-308,239,0,0,0,0,0,0,0,0,0,-1,916,785,0,0
-301,239,0,0,0,0,0,0,0,0,0,-1,923,785,0,0
-294,239,0,0,0,0,0,0,0,0,0,-1,930,785,0,0
-287,239,0,0,0,0,0,0,0,0,0,-1,937,785,0,0
-280,239,0,0,0,0,0,0,0,0,0,-1,944,785,0,0
-273,239,0,0,0,0,0,0,0,0,0,-1,951,785,0,0
-266,239,0,0,0,0,0,0,0,0,0,-1,958,785,0,0
-259,239,0,0,0,0,0,0,0,0,0,-1,965,785,0,0
-252,239,0,0,0,0,0,0,0,0,0,-1,972,785,0,0
-245,239,0,0,0,0,0,0,0,0,0,-1,979,785,0,0
-238,239,0,0,0,0,0,0,0,0,0,-1,986,785,0,0
-231,239,0,0,0,0,0,0,0,0,0,-1,993,785,0,0
-224,239,0,0,0,0,0,0,0,0,0,-1,1000,785,0,0
-217,239,0,0,0,0,0,0,0,0,0,-1,1007,785,0,0
-210,239,0,0,0,0,0,0,0,0,0,-1,1014,785,0,0
-203,239,0,0,0,0,0,0,0,0,0,-1,1021,785,0,0
-196,239,0,0,0,0,0,0,0,0,0,-1,1028,785,0,0
-189,239,0,0,0,0,0,0,0,0,0,-1,1035,785,0,0
-182,239,0,0,0,0,0,0,0,0,0,-1,1042,785,0,0
-175,239,0,0,0,0,0,0,0,0,0,-1,1049,785,0,0
-168,239,0,0,0,0,0,0,0,0,0,-1,1056,785,0,0
-161,239,0,0,0,0,0,0,0,0,0,-1,1063,785,0,0
-154,239,0,0,0,0,0,0,0,0,0,-1,1070,785,0,0
-147,239,0,0,0,0,0,0,0,0,0,-1,1077,785,0,0
-140,239,0,0,0,0,0,0,0,0,0,-1,1084,785,0,0
-133,239,0,0,0,0,0,0,0,0,0,-1,1091,785,0,0
-126,239,0,0,0,0,0,0,0,0,0,-1,1098,785,0,0
-119,239,0,0,0,0,0,0,0,0,0,-1,1105,785,0,0
-112,239,0,0,0,0,0,0,0,0,0,-1,1112,785,0,0
-105,239,0,0,0,0,0,0,0,0,0,-1,1119,785,0,0
-98,239,0,0,0,0,0,0,0,0,0,-1,1126,785,0,0
-91,239,0,0,0,0,0,0,0,0,0,-1,1133,785,0,0
-84,239,0,0,0,0,0,0,0,0,0,-1,1140,785,0,0
-77,239,0,0,0,0,0,0,0,0,0,-1,1147,785,0,0
-70,239,0,0,0,0,0,0,0,0,0,-1,1154,785,0,0
-63,239,0,0,0,0,0,0,0,0,0,-1,1161,785,0,0
-56,239,0,0,0,0,0,0,0,0,0,-1,1168,785,0,0
-49,239,0,0,0,0,0,0,0,0,0,-1,1175,785,0,0
-42,239,0,0,0,0,0,0,0,0,0,-1,1182,785,0,0
-35,239,0,0,0,0,0,0,0,0,0,-1,1189,785,0,0
-28,239,0,0,0,0,0,0,0,0,0,-1,1196,785,0,0
-21,239,0,0,0,0,0,0,0,0,0,-1,1203,785,0,0
-14,239,0,0,0,0,0,0,0,0,0,-1,1210,785,0,0
-7,239,0,0,0,0,0,0,0,0,0,-1,1217,785,0,0
0,239,0,0,0,0,0,0,0,0,0,-1,1224,785,0,0
7,239,0,0,0,0,0,0,0,0,0,-1,1231,785,0,0
14,239,0,0,0,0,0,0,0,0,0,-1,1238,785,0,0
21,239,0,0,0,0,0,0,0,0,0,-1,1245,785,0,0
28,239,0,0,0,0,0,0,0,0,0,-1,1252,785,0,0
35,239,0,0,0,0,0,0,0,0,0,-1,1259,785,0,0
42,239,0,0,0,0,0,0,0,0,0,-1,1266,785,0,0
49,239,0,0,0,0,0,0,0,0,0,-1,1273,785,0,0
56,239,0,0,0,0,0,0,0,0,0,-1,1280,785,0,0
63,239,0,0,0,0,0,0,0,0,0,-1,1287,785,0,0
70,239,0,0,0,0,0,0,0,0,0,-1,1294,785,0,0
77,239,0,0,0,0,0,0,0,0,0,-1,1301,785,0,0
84,239,0,0,0,0,0,0,0,0,0,-1,1308,785,0,0
91,239,0,0,0,0,0,0,0,0,0,-1,1315,785,0,0
98,239,0,0,0,0,0,0,0,0,0,-1,1322,785,0,0
105,239,0,0,0,0,0,0,0,0,0,-1,1329,785,0,0
112,239,0,0,0,0,0,0,0,0,0,-1,1336,785,0,0
119,239,0,0,0,0,0,0,0,0,0,-1,1343,785,0,0
126,239,0,0,0,0,0,0,0,0,0,-1,1350,785,0,0
133,239,0,0,0,0,0,0,0,0,0,-1,1357,785,0,0
140,239,0,0,0,0,0,0,0,0,0,-1,1364,785,0,0
147,239,0,0,0,0,0,0,0,0,0,-1,1371,785,0,0
154,239,0,0,0,0,0,0,0,0,0,-1,1378,785,0,0
161,239,0,0,0,0,0,0,0,0,0,-1,1385,785,0,0
168,239,0,0,0,0,0,0,0,0,0,-1,1392,785,0,0
175,239,0,0,0,0,0,0,0,0,0,-1,1399,785,0,0
182,239,0,0,0,0,0,0,0,0,0,-1,1406,785,0,0
189,239,0,0,0,0,0,0,0,0,0,-1,1413,785,0,0
196,239,0,0,0,0,0,0,0,0,0,-1,1420,785,0,0
203,239,0,0,0,0,0,0,0,0,0,-1,1427,785,0,0
210,239,0,0,0,0,0,0,0,0,0,-1,1434,785,0,0
217,239,0,0,0,0,0,0,0,0,0,-1,1441,785,0,0
224,239,0,0,0,0,0,0,0,0,0,-1,1448,785,0,0
231,239,0,0,0,0,0,0,0,0,0,-1,1455,785,0,0
238,239,0,0,0,0,0,0,0,0,0,-1,1462,785,0,0
245,239,0,0,0,0,0,0,0,0,0,-1,1469,785,0,0
252,239,0,0,0,0,0,0,0,0,0,-1,1476,785,0,0
259,239,0,0,0,0,0,0,0,0,0,-1,1483,785,0,0
266,239,0,0,0,0,0,0,0,0,0,-1,1490,785,0,0
273,239,0,0,0,0,0,0,0,0,0,-1,1497,785,0,0
280,239,0,0,0,0,0,0,0,0,0,-1,1504,785,0,0
287,239,0,0,0,0,0,0,0,0,0,-1,1511,785,0,0
294,239,0,0,0,0,0,0,0,0,0,-1,1518,785,0,0
301,239,0,0,0,0,0,0,0,0,0,-1,1525,785,0,0
308,239,0,0,0,0,0,0,0,0,0,-1,1532,785,0,0
315,239,0,0,0,0,0,0,0,0,0,-1,1539,785,0,0
322,239,0,0,0,0,0,0,0,0,0,-1,1546,785,0,0
329,239,0,0,0,0,0,0,0,0,0,-1,1553,785,0,0
336,239,0,0,0,0,0,0,0,0,0,-1,1560,785,0,0
343,239,0,0,0,0,0,0,0,0,0,-1,1567,785,0,0
350,239,0,0,0,0,0,0,0,0,0,-1,1574,785,0,0
357,239,0,0,0,0,0,0,0,0,0,-1,1581,785,0,0
364,239,0,0,0,0,0,0,0,0,0,-1,1588,785,0,0
371,239,0,0,0,0,0,0,0,0,0,-1,1595,785,0,0
378,239,0,0,0,0,0,0,0,0,0,-1,1602,785,0,0
385,239,0,0,0,0,0,0,0,0,0,-1,1609,785,0,0
392,239,0,0,0,0,0,0,0,0,0,-1,1616,785,0,0
399,239,0,0,0,0,0,0,0,0,0,-1,1623,785,0,0
406,239,0,0,0,0,0,0,0,0,0,-1,1630,785,0,0
413,239,0,0,0,0,0,0,0,0,0,-1,1637,785,0,0
420,239,0,0,0,0,0,0,0,0,0,-1,1644,785,0,0
427,239,0,0,0,0,0,0,0,0,0,-1,1651,785,0,0
434,239,0,0,0,0,0,0,0,0,0,-1,1658,785,0,0
441,239,0,0,0,0,0,0,0,0,0,-1,1665,785,0,0
448,239,0,0,0,0,0,0,0,0,0,-1,1672,785,0,0
455,239,0,0,0,0,0,0,0,0,0,-1,1679,785,0,0
462,239,0,0,0,0,0,0,0,0,0,-1,1686,785,0,0
469,239,0,0,0,0,0,0,0,0,0,-1,1693,785,0,0
476,239,0,0,0,0,0,0,0,0,0,-1,1700,785,0,0
483,239,0,0,0,0,0,0,0,0,0,-1,1707,785,0,0
490,239,0,0,0,0,0,0,0,0,0,-1,1714,785,0,0
497,239,0,0,0,0,0,0,0,0,0,-1,1721,785,0,0
504,239,0,0,0,0,0,0,0,0,0,-1,1728,785,0,0
511,239,0,0,0,0,0,0,0,0,0,-1,1735,785,0,0
518,239,0,0,0,0,0,0,0,0,0,-1,1742,785,0,0
525,239,0,0,0,0,0,0,0,0,0,-1,1749,785,0,0
532,239,0,0,0,0,0,0,0,0,0,-1,1756,785,0,0
539,239,0,0,0,0,0,0,0,0,0,-1,1763,785,0,0
546,239,0,0,0,0,0,0,0,0,0,-1,1770,785,0,0
553,239,0,0,0,0,0,0,0,0,0,-1,1777,785,0,0
560,239,0,0,0,0,0,0,0,0,0,-1,1784,785,0,0
567,239,0,0,0,0,0,0,0,0,0,-1,1791,785,0,0
574,239,0,0,0,0,0,0,0,0,0,-1,1798,785,0,0
581,239,78.0081,2.55536,0.00676482,0.00109123,-0.00415486,0.00895895,-0.0011029,-0.485866,0.00637216,0.0376295,1805,785,78.0081,-2.55536
588,239,78.0082,2.52692,0.0066372,0.000622783,-0.00227446,0.00740046,-0.000140484,-0.323772,0.00498113,0.0375398,1812,785,78.0081,-2.52695
595,239,78.0273,2.5332,0.00590814,0.000926002,-0.00105567,0.0061226,0.000711546,-0.200419,0.00386644,0.0347802,1819,785,78.0274,-2.5332
602,239,78.0447,2.59949,0.00462778,0.00132134,-0.000507243,0.00470385,0.00124527,-0.148851,0.0028142,0.0446611,1826,785,78.0446,-2.59949
609,239,78.007,2.62927,0,0,0,0,0,0,0,-1,1833,785,78.007,-2.62929
616,239,55.8469,3.72443,0,0,0,0,0,0,0,-1,1840,785,55.8469,-3.72445
623,239,65.0618,2.66516,0,0,0,0,0,0,0,-1,1847,785,65.0617,-2.66519
630,239,54.5767,3.64667,0,0,0,0,0,0,0,-1,1854,785,54.5766,-3.64667
637,239,39.5542,2.54114,0,0,0,0,0,0,0,-1,1861,785,39.5543,-2.54114
644,239,18.3466,0.735413,0,0,0,0,0,0,0,-1,1868,785,18.3465,-0.735414
651,239,34.2471,-2.15778,0,0,0,0,0,0,0,-1,1875,785,34.2471,2.1578
658,239,54.7726,-4.74536,0,0,0,0,0,0,0,-1,1882,785,54.7726,4.74534
665,239,54.9821,-3.60968,-0.000452267,0.00060549,8.73075e-05,0.000612648,-0.000459425,1.48899,0.000621065,0.0435968,1889,785,54.9821,3.60967
672,239,54.988,-2.57819,3.70981e-05,0.000297937,-6.04544e-05,0.000311267,2.37679e-05,-1.35377,0.00020006,0.0260089,1896,785,54.988,2.57821
679,239,54.8911,-1.55499,0.0005351,0.000143983,-0.000163543,0.000594472,8.46114e-05,-0.34824,0.000371338,0.0239752,1903,785,54.8911,1.55502
686,239,54.8239,-0.544128,0.000873113,0.000327205,-6.64657e-05,0.000881089,0.000319229,-0.119428,0.000515086,0.024469,1910,785,54.8238,0.544109
693,239,54.7795,0.242859,0.00118626,0.000778382,0.000187343,0.00125925,0.000705394,0.371505,0.000728779,0.0166509,1917,785,54.7795,-0.242857
700,239,54.7552,1.15643,0.00167921,0.00140998,0.000626807,0.0021857,0.0009035,0.679622,0.00126821,0.012162,1924,785,54.7552,-1.15645
707,239,54.693,2.12183,0.00230813,0.00222898,0.00126553,0.0035347,0.00100241,0.769768,0.00210351,0.0120069,1931,785,54.6929,-2.12182
714,239,54.616,3.04968,0.00297783,0.00304372,0.0019959,0.00500695,0.0010146,0.793651,0.00305642,0.0115373,1938,785,54.616,-3.0497
721,239,54.5338,4.01868,0.00388997,0.00381693,0.00290693,0.00676062,0.000946291,0.779117,0.0042271,0.0212943,1945,785,54.5339,-4.01866
728,239,54.4823,5.12097,0.00505335,0.00430086,0.00398412,0.00867895,0.000675258,0.738319,0.00557453,0.0427508,1952,785,54.4822,-5.12098
735,239,54.6823,6.42352,0,0,0,0,0,0,0,-1,1959,785,54.6822,-6.4235
742,239,32.4141,7.6665,0,0,0,0,0,0,0,-1,1966,785,32.4141,-7.6665
749,239,32.1489,3.4411,0,0,0,0,0,0,0,-1,1973,785,32.149,-3.44109
756,239,32.9064,3.6687,0,0,0,0,0,0,0,-1,1980,785,32.9063,-3.66873
763,239,0,0,0,0,0,0,0,0,0,-1,1987,785,0,0
770,239,0,0,0,0,0,0,0,0,0,-1,1994,785,0,0
777,239,0,0,0,0,0,0,0,0,0,-1,2001,785,0,0
784,239,0,0,0,0,0,0,0,0,0,-1,2008,785,0,0
791,239,0,0,0,0,0,0,0,0,0,-1,2015,785,0,0
798,239,0,0,0,0,0,0,0,0,0,-1,2022,785,0,0
805,239,0,0,0,0,0,0,0,0,0,-1,2029,785,0,0
812,239,0,0,0,0,0,0,0,0,0,-1,2036,785,0,0
-700,232,0,0,0,0,0,0,0,0,0,-1,524,792,0,0
-693,232,0,0,0,0,0,0,0,0,0,-1,531,792,0,0
-686,232,0,0,0,0,0,0,0,0,0,-1,538,792,0,0
-679,232,0,0,0,0,0,0,0,0,0,-1,545,792,0,0
-672,232,0,0,0,0,0,0,0,0,0,-1,552,792,0,0
-665,232,0,0,0,0,0,0,0,0,0,-1,559,792,0,0
-658,232,0,0,0,0,0,0,0,0,0,-1,566,792,0,0
-651,232,0,0,0,0,0,0,0,0,0,-1,573,792,0,0
-644,232,-41.2348,4.28168,0,0,0,0,0,0,0,-1,580,792,-41.2348,-4.28166
-637,232,-42.1427,3.51453,0,0,0,0,0,0,0,-1,587,792,-42.1427,-3.51452
-630,232,-32.2345,1.80212,0,0,0,0,0,0,0,-1,594,792,-32.2345,-1.80211
-623,232,-31.5665,1.05115,0,0,0,0,0,0,0,-1,601,792,-31.5664,-1.05112
-616,232,-30.6812,0.432861,0,0,0,0,0,0,0,-1,608,792,-30.6812,-0.432881
-609,232,-29.7142,-0.478943,0,0,0,0,0,0,0,-1,615,792,-29.7142,0.478965
-602,232,-39.6266,5.2475,0,0,0,0,0,0,0,-1,622,792,-39.6266,-5.24752
-595,232,-39.6796,4.1416,-0.00274765,0.0072009,-0.00566047,0.00976216,-0.00530891,-1.14588,0.008827,0.0379007,629,792,-39.6796,-4.14163
-588,232,-39.7643,3.02631,-0.00151039,0.00575128,-0.00436926,0.00780142,-0.00356052,-1.13208,0.00671041,0.0135399,636,792,-39.7643,-3.02632
-581,232,-39.8459,1.97815,-0.000720771,0.0046522,-0.00315197,0.00610723,-0.0021758,-1.13832,0.00495851,0.00903962,643,792,-39.8459,-1.97818
-574,232,-39.9113,1.03821,-0.000156191,0.00383635,-0.00188176,0.00458346,-0.000903294,-1.19286,0.00339701,0.00925443,650,792,-39.9113,-1.03819
-567,232,-39.9946,0.114929,0.000111964,0.0033532,-0.000751608,0.003519,-5.38438e-05,-1.35367,0.00236415,0.0115369,657,792,-39.9946,-0.114913
-560,232,-40.0773,-0.835938,-0.000118481,0.00318206,0.000219551,0.0031966,-0.000133021,1.50466,0.00217676,0.0163472,664,792,-40.0772,0.83593
-553,232,-40.1506,-1.78503,-0.00140121,0.00366629,0.00078053,0.00378378,-0.00151871,1.42138,0.00315313,0.0161518,671,792,-40.1507,1.78502
-546,232,-40.1839,-2.68506,-0.00311911,0.0040718,0.000775207,0.00415442,-0.00320173,1.46462,0.00425893,0.0384483,678,792,-40.1839,2.68504
-539,232,-40.4583,-3.72015,0,0,0,0,0,0,0,-1,685,792,-40.4583,3.72014
-532,232,-41.0071,-4.36896,0,0,0,0,0,0,0,-1,692,792,-41.0071,4.36895
-525,232,-40.7076,-5.54291,0,0,0,0,0,0,0,-1,699,792,-40.7076,5.54294
-518,232,-20.8098,-3.08154,0,0,0,0,0,0,0,-1,706,792,-20.8098,3.08155
-511,232,-21.6708,-0.962708,0,0,0,0,0,0,0,-1,713,792,-21.6708,0.962731
-504,232,-34.2155,0.346985,0,0,0,0,0,0,0,-1,720,792,-34.2155,-0.346955
-497,232,-52.7195,0.518677,0,0,0,0,0,0,0,-1,727,792,-52.7195,-0.518678
-490,232,-61.924,1.25232,0,0,0,0,0,0,0,-1,734,792,-61.924,-1.25229
-483,232,-62.0896,0.945374,0.00236559,0.00574554,-0.00352468,0.00796445,0.000146679,-1.00894,0.00526142,0.0413061,741,792,-62.0896,-0.945351
-476,232,-62.0685,0.740295,0.00537767,0.00473378,-0.00349844,0.00856895,0.0015425,-0.739515,0.0052742,0.0353739,748,792,-62.0685,-0.740303
-469,232,-61.9594,0.776184,0.00913854,0.00225123,-0.0025024,0.00995174,0.00143804,-0.314201,0.00621089,0.0351855,755,792,-61.9594,-0.776158
-462,232,0,0,0,0,0,0,0,0,0,-1,762,792,0,0
-455,232,0,0,0,0,0,0,0,0,0,-1,769,792,0,0
-448,232,0,0,0,0,0,0,0,0,0,-1,776,792,0,0
-441,232,0,0,0,0,0,0,0,0,0,-1,783,792,0,0
-434,232,0,0,0,0,0,0,0,0,0,-1,790,792,0,0
-427,232,0,0,0,0,0,0,0,0,0,-1,797,792,0,0
-420,232,0,0,0,0,0,0,0,0,0,-1,804,792,0,0
-413,232,0,0,0,0,0,0,0,0,0,-1,811,792,0,0
-406,232,0,0,0,0,0,0,0,0,0,-1,818,792,0,0
-399,232,0,0,0,0,0,0,0,0,0,-1,825,792,0,0
-392,232,0,0,0,0,0,0,0,0,0,-1,832,792,0,0
-385,232,0,0,0,0,0,0,0,0,0,-1,839,792,0,0
-378,232,0,0,0,0,0,0,0,0,0,-1,846,792,0,0
-371,232,0,0,0,0,0,0,0,0,0,-1,853,792,0,0
-364,232,0,0,0,0,0,0,0,0,0,-1,860,792,0,0
-357,232,0,0,0,0,0,0,0,0,0,-1,867,792,0,0
-350,232,0,0,0,0,0,0,0,0,0,-1,874,792,0,0
-343,232,0,0,0,0,0,0,0,0,0,-1,881,792,0,0
-336,232,0,0,0,0,0,0,0,0,0,-1,888,792,0,0
-329,232,0,0,0,0,0,0,0,0,0,-1,895,792,0,0
-322,232,0,0,0,0,0,0,0,0,0,-1,902,792,0,0
-315,232,0,0,0,0,0,0,0,0,0,-1,909,792,0,0
-308,232,0,0,0,0,0,0,0,0,0,-1,916,792,0,0
-301,232,0,0,0,0,0,0,0,0,0,-1,923,792,0,0
-294,232,0,0,0,0,0,0,0,0,0,-1,930,792,0,0
-287,232,0,0,0,0,0,0,0,0,0,-1,937,792,0,0
-280,232,0,0,0,0,0,0,0,0,0,-1,944,792,0,0
-273,232,0,0,0,0,0,0,0,0,0,-1,951,792,0,0
-266,232,0,0,0,0,0,0,0,0,0,-1,958,792,0,0
-259,232,0,0,0,0,0,0,0,0,0,-1,965,792,0,0
-252,232,0,0,0,0,0,0,0,0,0,-1,972,792,0,0
-245,232,0,0,0,0,0,0,0,0,0,-1,979,792,0,0
-238,232,0,0,0,0,0,0,0,0,0,-1,986,792,0,0
-231,232,0,0,0,0,0,0,0,0,0,-1,993,792,0,0
-224,232,0,0,0,0,0,0,0,0,0,-1,1000,792,0,0
-217,232,0,0,0,0,0,0,0,0,0,-1,1007,792,0,0
-210,232,0,0,0,0,0,0,0,0,0,-1,1014,792,0,0
-203,232,0,0,0,0,0,0,0,0,0,-1,1021,792,0,0
-196,232,0,0,0,0,0,0,0,0,0,-1,1028,792,0,0
-189,232,0,0,0,0,0,0,0,0,0,-1,1035,792,0,0
-182,232,0,0,0,0,0,0,0,0,0,-1,1042,792,0,0
-175,232,0,0,0,0,0,0,0,0,0,-1,1049,792,0,0
-168,232,0,0,0,0,0,0,0,0,0,-1,1056,792,0,0
-161,232,0,0,0,0,0,0,0,0,0,-1,1063,792,0,0
-154,232,0,0,0,0,0,0,0,0,0,-1,1070,792,0,0
-147,232,0,0,0,0,0,0,0,0,0,-1,1077,792,0,0
-140,232,0,0,0,0,0,0,0,0,0,-1,1084,792,0,0
-133,232,0,0,0,0,0,0,0,0,0,-1,1091,792,0,0
-126,232,0,0,0,0,0,0,0,0,0,-1,1098,792,0,0
-119,232,0,0,0,0,0,0,0,0,0,-1,1105,792,0,0
-112,232,0,0,0,0,0,0,0,0,0,-1,1112,792,0,0
-105,232,0,0,0,0,0,0,0,0,0,-1,1119,792,0,0
-98,232,0,0,0,0,0,0,0,0,0,-1,1126,792,0,0
-91,232,0,0,0,0,0,0,0,0,0,-1,1133,792,0,0
-84,232,0,0,0,0,0,0,0,0,0,-1,1140,792,0,0
-77,232,0,0,0,0,0,0,0,0,0,-1,1147,792,0,0
-70,232,0,0,0,0,0,0,0,0,0,-1,1154,792,0,0
-63,232,0,0,0,0,0,0,0,0,0,-1,1161,792,0,0
-56,232,0,0,0,0,0,0,0,0,0,-1,1168,792,0,0
-49,232,0,0,0,0,0,0,0,0,0,-1,1175,792,0,0
-42,232,0,0,0,0,0,0,0,0,0,-1,1182,792,0,0
-35,232,0,0,0,0,0,0,0,0,0,-1,1189,792,0,0
-28,232,0,0,0,0,0,0,0,0,0,-1,1196,792,0,0
-21,232,0,0,0,0,0,0,0,0,0,-1,1203,792,0,0
-14,232,0,0,0,0,0,0,0,0,0,-1,1210,792,0,0
-7,232,0,0,0,0,0,0,0,0,0,-1,1217,792,0,0
0,232,0,0,0,0,0,0,0,0,0,-1,1224,792,0,0
7,232,0,0,0,0,0,0,0,0,0,-1,1231,792,0,0
14,232,0,0,0,0,0,0,0,0,0,-1,1238,792,0,0
21,232,0,0,0,0,0,0,0,0,0,-1,1245,792,0,0
28,232,0,0,0,0,0,0,0,0,0,-1,1252,792,0,0
35,232,0,0,0,0,0,0,0,0,0,-1,1259,792,0,0
42,232,0,0,0,0,0,0,0,0,0,-1,1266,792,0,0
49,232,0,0,0,0,0,0,0,0,0,-1,1273,792,0,0
56,232,0,0,0,0,0,0,0,0,0,-1,1280,792,0,0
63,232,0,0,0,0,0,0,0,0,0,-1,1287,792,0,0
70,232,0,0,0,0,0,0,0,0,0,-1,1294,792,0,0
77,232,0,0,0,0,0,0,0,0,0,-1,1301,792,0,0
84,232,0,0,0,0,0,0,0,0,0,-1,1308,792,0,0
91,232,0,0,0,0,0,0,0,0,0,-1,1315,792,0,0
98,232,0,0,0,0,0,0,0,0,0,-1,1322,792,0,0
105,232,0,0,0,0,0,0,0,0,0,-1,1329,792,0,0
112,232,0,0,0,0,0,0,0,0,0,-1,1336,792,0,0
119,232,0,0,0,0,0,0,0,0,0,-1,1343,792,0,0
126,232,0,0,0,0,0,0,0,0,0,-1,1350,792,0,0
133,232,0,0,0,0,0,0,0,0,0,-1,1357,792,0,0
140,232,0,0,0,0,0,0,0,0,0,-1,1364,792,0,0
147,232,0,0,0,0,0,0,0,0,0,-1,1371,792,0,0
154,232,0,0,0,0,0,0,0,0,0,-1,1378,792,0,0
161,232,0,0,0,0,0,0,0,0,0,-1,1385,792,0,0
168,232,0,0,0,0,0,0,0,0,0,-1,1392,792,0,0
175,232,0,0,0,0,0,0,0,0,0,-1,1399,792,0,0
182,232,0,0,0,0,0,0,0,0,0,-1,1406,792,0,0
189,232,0,0,0,0,0,0,0,0,0,-1,1413,792,0,0
196,232,0,0,0,0,0,0,0,0,0,-1,1420,792,0,0
203,232,0,0,0,0,0,0,0,0,0,-1,1427,792,0,0
210,232,0,0,0,0,0,0,0,0,0,-1,1434,792,0,0
217,232,0,0,0,0,0,0,0,0,0,-1,1441,792,0,0
224,232,0,0,0,0,0,0,0,0,0,-1,1448,792,0,0
231,232,0,0,0,0,0,0,0,0,0,-1,1455,792,0,0
238,232,0,0,0,0,0,0,0,0,0,-1,1462,792,0,0
245,232,0,0,0,0,0,0,0,0,0,-1,1469,792,0,0
252,232,0,0,0,0,0,0,0,0,0,-1,1476,792,0,0
259,232,0,0,0,0,0,0,0,0,0,-1,1483,792,0,0
266,232,0,0,0,0,0,0,0,0,0,-1,1490,792,0,0
273,232,0,0,0,0,0,0,0,0,0,-1,1497,792,0,0
280,232,0,0,0,0,0,0,0,0,0,-1,1504,792,0,0
287,232,0,0,0,0,0,0,0,0,0,-1,1511,792,0,0
294,232,0,0,0,0,0,0,0,0,0,-1,1518,792,0,0
301,232,0,0,0,0,0,0,0,0,0,-1,1525,792,0,0
308,232,0,0,0,0,0,0,0,0,0,-1,1532,792,0,0
315,232,0,0,0,0,0,0,0,0,0,-1,1539,792,0,0
322,232,0,0,0,0,0,0,0,0,0,-1,1546,792,0,0
329,232,0,0,0,0,0,0,0,0,0,-1,1553,792,0,0
336,232,0,0,0,0,0,0,0,0,0,-1,1560,792,0,0
343,232,0,0,0,0,0,0,0,0,0,-1,1567,792,0,0
350,232,0,0,0,0,0,0,0,0,0,-1,1574,792,0,0
357,232,0,0,0,0,0,0,0,0,0,-1,1581,792,0,0
364,232,0,0,0,0,0,0,0,0,0,-1,1588,792,0,0
371,232,0,0,0,0,0,0,0,0,0,-1,1595,792,0,0
378,232,0,0,0,0,0,0,0,0,0,-1,1602,792,0,0
385,232,0,0,0,0,0,0,0,0,0,-1,1609,792,0,0
392,232,0,0,0,0,0,0,0,0,0,-1,1616,792,0,0
399,232,0,0,0,0,0,0,0,0,0,-1,1623,792,0,0
406,232,0,0,0,0,0,0,0,0,0,-1,1630,792,0,0
413,232,0,0,0,0,0,0,0,0,0,-1,1637,792,0,0
420,232,0,0,0,0,0,0,0,0,0,-1,1644,792,0,0
427,232,0,0,0,0,0,0,0,0,0,-1,1651,792,0,0
434,232,0,0,0,0,0,0,0,0,0,-1,1658,792,0,0
441,232,0,0,0,0,0,0,0,0,0,-1,1665,792,0,0
448,232,0,0,0,0,0,0,0,0,0,-1,1672,792,0,0
455,232,0,0,0,0,0,0,0,0,0,-1,1679,792,0,0
462,232,0,0,0,0,0,0,0,0,0,-1,1686,792,0,0
469,232,0,0,0,0,0,0,0,0,0,-1,1693,792,0,0
476,232,0,0,0,0,0,0,0,0,0,-1,1700,792,0,0
483,232,0,0,0,0,0,0,0,0,0,-1,1707,792,0,0
490,232,0,0,0,0,0,0,0,0,0,-1,1714,792,0,0
497,232,0,0,0,0,0,0,0,0,0,-1,1721,792,0,0
504,232,0,0,0,0,0,0,0,0,0,-1,1728,792,0,0
511,232,0,0,0,0,0,0,0,0,0,-1,1735,792,0,0
518,232,0,0,0,0,0,0,0,0,0,-1,1742,792,0,0
525,232,0,0,0,0,0,0,0,0,0,-1,1749,792,0,0
532,232,0,0,0,0,0,0,0,0,0,-1,1756,792,0,0
539,232,0,0,0,0,0,0,0,0,0,-1,1763,792,0,0
546,232,0,0,0,0,0,0,0,0,0,-1,1770,792,0,0
553,232,0,0,0,0,0,0,0,0,0,-1,1777,792,0,0
560,232,0,0,0,0,0,0,0,0,0,-1,1784,792,0,0
567,232,0,0,0,0,0,0,0,0,0,-1,1791,792,0,0
574,232,0,0,0,0,0,0,0,0,0,-1,1798,792,0,0
581,232,0,0,0,0,0,0,0,0,0,-1,1805,792,0,0
588,232,77.9613,2.62396,0.00448704,0.00053563,-0.00262114,0.00579368,-0.000771013,-0.462448,0.00414344,0.0385866,1812,792,77.9613,-2.62395
595,232,77.9189,2.57977,0.0039922,0.000896363,-0.00130886,0.00447139,0.000417172,-0.350956,0.00285206,0.0348876,1819,792,77.9189,-2.57975
602,232,77.9906,2.48743,0.00304912,0.00141939,-0.000586562,0.00323827,0.00123023,-0.311955,0.00188751,0.0346256,1826,792,77.9906,-2.48742
609,232,78.015,2.51227,0.00169834,0.00165987,-0.0002863,0.00196605,0.00139216,-0.751855,0.00116741,0.0455059,1833,792,78.0151,-2.51227
616,232,77.9949,2.54266,0,0,0,0,0,0,0,-1,1840,792,77.9948,-2.54265
623,232,74.9668,2.53278,0,0,0,0,0,0,0,-1,1847,792,74.9667,-2.5328
630,232,64.9034,2.97992,0,0,0,0,0,0,0,-1,1854,792,64.9035,-2.9799
637,232,47.0471,4.04309,0,0,0,0,0,0,0,-1,1861,792,47.0471,-4.04309
644,232,30.7756,4.24139,0,0,0,0,0,0,0,-1,1868,792,30.7757,-4.24141
651,232,31.6797,-0.564087,0,0,0,0,0,0,0,-1,1875,792,31.6797,0.564059
658,232,46.7423,-3.10736,0,0,0,0,0,0,0,-1,1882,792,46.7423,3.10735
665,232,55.7169,-3.46777,0,0,0,0,0,0,0,-1,1889,792,55.7169,3.46777
672,232,55.856,-2.43323,0,0,0,0,0,0,0,-1,1896,792,55.8559,2.43325
679,232,55.8219,-1.48907,0.000439726,0.000313798,-0.000353921,0.00073624,1.7284e-05,-0.697367,0.000485168,0.0231341,1903,792,55.8219,1.48907
686,232,55.7848,-0.488708,0.00079512,0.000161808,-0.000349897,0.000950374,6.55398e-06,-0.417613,0.000631409,0.0203606,1910,792,55.7848,0.488715
693,232,55.7288,0.328064,0.00106905,0.000420508,-0.000182336,0.0011168,0.00037276,-0.256118,0.000656552,0.0125325,1917,792,55.7287,-0.328093
700,232,55.6857,1.23303,0.00154908,0.000977837,0.000181279,0.00160176,0.000925166,0.282764,0.000928478,0.015111,1924,792,55.6857,-1.23301
707,232,55.6356,2.17871,0.00218361,0.00174717,0.000759884,0.00275598,0.00117479,0.645574,0.00159692,0.014215,1931,792,55.6356,-2.17869
714,232,55.5861,3.08032,0.00289791,0.00253199,0.00141731,0.00414402,0.00128588,0.72121,0.00244928,0.014575,1938,792,55.5861,-3.08029
721,232,55.5071,4.06805,0.00380273,0.00323178,0.00219766,0.00573338,0.00130113,0.72081,0.00347082,0.0201404,1945,792,55.5071,-4.06805
728,232,55.4189,4.95776,0.00495274,0.00366915,0.00308793,0.00746486,0.00115703,0.682937,0.00463924,0.049102,1952,792,55.4189,-4.95776
735,232,55.5681,6.0589,0,0,0,0,0,0,0,-1,1959,792,55.5681,-6.05893
742,232,25.6461,6.00684,0,0,0,0,0,0,0,-1,1966,792,25.6461,-6.00684
749,232,31.2874,3.74713,0,0,0,0,0,0,0,-1,1973,792,31.2874,-3.74713
756,232,34.9586,15.3984,0,0,0,0,0,0,0,-1,1980,792,34.9586,-15.3984
763,232,35.741,16.6099,0,0,0,0,0,0,0,-1,1987,792,35.741,-16.6099
770,232,0,0,0,0,0,0,0,0,0,-1,1994,792,0,0
777,232,0,0,0,0,0,0,0,0,0,-1,2001,792,0,0
784,232,0,0,0,0,0,0,0,0,0,-1,2008,792,0,0
791,232,0,0,0,0,0,0,0,0,0,-1,2015,792,0,0
798,232,0,0,0,0,0,0,0,0,0,-1,2022,792,0,0
805,232,0,0,0,0,0,0,0,0,0,-1,2029,792,0,0
812,232,0,0,0,0,0,0,0,0,0,-1,2036,792,0,0
-700,225,0,0,0,0,0,0,0,0,0,-1,524,799,0,0
-693,225,0,0,0,0,0,0,0,0,0,-1,531,799,0,0
-686,225,0,0,0,0,0,0,0,0,0,-1,538,799,0,0
-679,225,0,0,0,0,0,0,0,0,0,-1,545,799,0,0
-672,225,0,0,0,0,0,0,0,0,0,-1,552,799,0,0
-665,225,0,0,0,0,0,0,0,0,0,-1,559,799,0,0
-658,225,0,0,0,0,0,0,0,0,0,-1,566,799,0,0
-651,225,0,0,0,0,0,0,0,0,0,-1,573,799,0,0
-644,225,-40.8898,4.14661,0,0,0,0,0,0,0,-1,580,799,-40.8898,-4.14661
-637,225,-41.61,3.36749,0,0,0,0,0,0,0,-1,587,799,-41.61,-3.36751
-630,225,-30.244,4.82196,0,0,0,0,0,0,0,-1,594,799,-30.244,-4.82193
-623,225,-32.8276,-0.00836182,0,0,0,0,0,0,0,-1,601,799,-32.8276,0.00837668
-616,225,-32.0569,-0.549255,0,0,0,0,0,0,0,-1,608,799,-32.0569,0.549265
-609,225,-38.8967,4.83521,0,0,0,0,0,0,0,-1,615,799,-38.8967,-4.83522
-602,225,-40.7363,4.99524,0,0,0,0,0,0,0,-1,622,799,-40.7363,-4.99526
-595,225,-40.7234,3.9743,-0.00232397,0.00668025,-0.00449549,0.00854041,-0.00418413,-1.17846,0.00748865,0.0305794,629,799,-40.7234,-3.97428
-588,225,-40.7263,2.95959,-0.00108638,0.00537823,-0.00346899,0.00688741,-0.00259556,-1.16044,0.00565882,0.0132308,636,799,-40.7262,-2.95959
-581,225,-40.7952,2.03101,-0.000231075,0.0044146,-0.00242227,0.0054478,-0.00126427,-1.16762,0.00411849,0.0114345,643,799,-40.7952,-2.03103
-574,225,-40.8647,1.10333,0.00039189,0.00375448,-0.00133969,0.00422296,-7.65896e-05,-1.2344,0.00284118,0.00956684,650,799,-40.8647,-1.10334
-567,225,-40.9303,0.15863,0.000646007,0.00347313,-0.000369999,0.00352075,0.000598386,-1.44279,0.00217531,0.0125805,657,799,-40.9303,-0.158615
-560,225,-41.0099,-0.759216,5.13218e-05,0.00356837,0.000402966,0.00361395,5.74253e-06,1.45817,0.00240739,0.0147576,664,799,-41.01,0.759189
-553,225,-41.0795,-1.71655,-0.00193028,0.00438699,0.00069843,0.00446329,-0.00200657,1.46199,0.00382409,0.0139114,671,799,-41.0795,1.71655
-546,225,-41.0132,-2.55328,-0.00387716,0.00493265,0.000319084,0.0049442,-0.0038887,1.53464,0.0051118,0.0403147,678,799,-41.0133,2.55329
-539,225,-41.4558,-3.54138,0,0,0,0,0,0,0,-1,685,799,-41.4558,3.54141
-532,225,-42.3064,-4.22021,0,0,0,0,0,0,0,-1,692,799,-42.3064,4.2202
-525,225,-29.1705,-3.88239,0,0,0,0,0,0,0,-1,699,799,-29.1705,3.88237
-518,225,-21.963,0.171326,0,0,0,0,0,0,0,-1,706,799,-21.9629,-0.171319
-511,225,-33.0002,0.660217,0,0,0,0,0,0,0,-1,713,799,-33.0002,-0.660239
-504,225,-50.4542,0.524109,0,0,0,0,0,0,0,-1,720,799,-50.4542,-0.524105
-497,225,-61.8719,1.23151,0,0,0,0,0,0,0,-1,727,799,-61.8719,-1.2315
-490,225,-61.9337,1.05469,-0.000662681,0.00661828,-0.00325551,0.00786159,-0.00190599,-1.20598,0.00597854,0.0416649,734,799,-61.9336,-1.05467
-483,225,-62.0654,0.78186,0.00232929,0.0062616,-0.00373192,0.00851362,7.72737e-05,-1.02785,0.00565016,0.0336087,741,799,-62.0654,-0.781833
-476,225,-61.9948,0.761841,0.00646461,0.00478089,-0.00333499,0.00906236,0.00218314,-0.661764,0.0054613,0.0318532,748,799,-61.9947,-0.761854
-469,225,-61.8504,0.894043,0.0122339,0.00121321,-0.00166871,0.0124811,0.000966084,-0.147026,0.0080181,0.0359665,755,799,-61.8504,-0.894052
-462,225,0,0,0,0,0,0,0,0,0,-1,762,799,0,0
-455,225,0,0,0,0,0,0,0,0,0,-1,769,799,0,0
-448,225,0,0,0,0,0,0,0,0,0,-1,776,799,0,0
-441,225,0,0,0,0,0,0,0,0,0,-1,783,799,0,0
-434,225,0,0,0,0,0,0,0,0,0,-1,790,799,0,0
-427,225,0,0,0,0,0,0,0,0,0,-1,797,799,0,0
-420,225,0,0,0,0,0,0,0,0,0,-1,804,799,0,0
-413,225,0,0,0,0,0,0,0,0,0,-1,811,799,0,0
-406,225,0,0,0,0,0,0,0,0,0,-1,818,799,0,0
-399,225,0,0,0,0,0,0,0,0,0,-1,825,799,0,0
-392,225,0,0,0,0,0,0,0,0,0,-1,832,799,0,0
-385,225,0,0,0,0,0,0,0,0,0,-1,839,799,0,0
-378,225,0,0,0,0,0,0,0,0,0,-1,846,799,0,0
-371,225,0,0,0,0,0,0,0,0,0,-1,853,799,0,0
-364,225,0,0,0,0,0,0,0,0,0,-1,860,799,0,0
-357,225,0,0,0,0,0,0,0,0,0,-1,867,799,0,0
-350,225,0,0,0,0,0,0,0,0,0,-1,874,799,0,0
-343,225,0,0,0,0,0,0,0,0,0,-1,881,799,0,0
-336,225,0,0,0,0,0,0,0,0,0,-1,888,799,0,0
-329,225,0,0,0,0,0,0,0,0,0,-1,895,799,0,0
-322,225,0,0,0,0,0,0,0,0,0,-1,902,799,0,0
-315,225,0,0,0,0,0,0,0,0,0,-1,909,799,0,0
-308,225,0,0,0,0,0,0,0,0,0,-1,916,799,0,0
-301,225,0,0,0,0,0,0,0,0,0,-1,923,799,0,0
-294,225,0,0,0,0,0,0,0,0,0,-1,930,799,0,0
-287,225,0,0,0,0,0,0,0,0,0,-1,937,799,0,0
-280,225,0,0,0,0,0,0,0,0,0,-1,944,799,0,0
-273,225,0,0,0,0,0,0,0,0,0,-1,951,799,0,0
-266,225,0,0,0,0,0,0,0,0,0,-1,958,799,0,0
-259,225,0,0,0,0,0,0,0,0,0,-1,965,799,0,0
-252,225,0,0,0,0,0,0,0,0,0,-1,972,799,0,0
-245,225,0,0,0,0,0,0,0,0,0,-1,979,799,0,0
-238,225,0,0,0,0,0,0,0,0,0,-1,986,799,0,0
-231,225,0,0,0,0,0,0,0,0,0,-1,993,799,0,0
-224,225,0,0,0,0,0,0,0,0,0,-1,1000,799,0,0
-217,225,0,0,0,0,0,0,0,0,0,-1,1007,799,0,0
-210,225,0,0,0,0,0,0,0,0,0,-1,1014,799,0,0
-203,225,0,0,0,0,0,0,0,0,0,-1,1021,799,0,0
-196,225,0,0,0,0,0,0,0,0,0,-1,1028,799,0,0
-189,225,0,0,0,0,0,0,0,0,0,-1,1035,799,0,0
-182,225,0,0,0,0,0,0,0,0,0,-1,1042,799,0,0
-175,225,0,0,0,0,0,0,0,0,0,-1,1049,799,0,0
-168,225,0,0,0,0,0,0,0,0,0,-1,1056,799,0,0
-161,225,0,0,0,0,0,0,0,0,0,-1,1063,799,0,0
-154,225,0,0,0,0,0,0,0,0,0,-1,1070,799,0,0
-147,225,0,0,0,0,0,0,0,0,0,-1,1077,799,0,0
-140,225,0,0,0,0,0,0,0,0,0,-1,1084,799,0,0
-133,225,0,0,0,0,0,0,0,0,0,-1,1091,799,0,0
-126,225,0,0,0,0,0,0,0,0,0,-1,1098,799,0,0
-119,225,0,0,0,0,0,0,0,0,0,-1,1105,799,0,0
-112,225,0,0,0,0,0,0,0,0,0,-1,1112,799,0,0
-105,225,0,0,0,0,0,0,0,0,0,-1,1119,799,0,0
-98,225,0,0,0,0,0,0,0,0,0,-1,1126,799,0,0
-91,225,0,0,0,0,0,0,0,0,0,-1,1133,799,0,0
-84,225,0,0,0,0,0,0,0,0,0,-1,1140,799,0,0
-77,225,0,0,0,0,0,0,0,0,0,-1,1147,799,0,0
-70,225,0,0,0,0,0,0,0,0,0,-1,1154,799,0,0
-63,225,0,0,0,0,0,0,0,0,0,-1,1161,799,0,0
-56,225,0,0,0,0,0,0,0,0,0,-1,1168,799,0,0
-49,225,0,0,0,0,0,0,0,0,0,-1,1175,799,0,0
-42,225,0,0,0,0,0,0,0,0,0,-1,1182,799,0,0
-35,225,0,0,0,0,0,0,0,0,0,-1,1189,799,0,0
-28,225,0,0,0,0,0,0,0,0,0,-1,1196,799,0,0
-21,225,0,0,0,0,0,0,0,0,0,-1,1203,799,0,0
-14,225,0,0,0,0,0,0,0,0,0,-1,1210,799,0,0
-7,225,0,0,0,0,0,0,0,0,0,-1,1217,799,0,0
0,225,0,0,0,0,0,0,0,0,0,-1,1224,799,0,0
7,225,0,0,0,0,0,0,0,0,0,-1,1231,799,0,0
14,225,0,0,0,0,0,0,0,0,0,-1,1238,799,0,0
21,225,0,0,0,0,0,0,0,0,0,-1,1245,799,0,0
28,225,0,0,0,0,0,0,0,0,0,-1,1252,799,0,0
35,225,0,0,0,0,0,0,0,0,0,-1,1259,799,0,0
42,225,0,0,0,0,0,0,0,0,0,-1,1266,799,0,0
49,225,0,0,0,0,0,0,0,0,0,-1,1273,799,0,0
56,225,0,0,0,0,0,0,0,0,0,-1,1280,799,0,0
63,225,0,0,0,0,0,0,0,0,0,-1,1287,799,0,0
70,225,0,0,0,0,0,0,0,0,0,-1,1294,799,0,0
77,225,0,0,0,0,0,0,0,0,0,-1,1301,799,0,0
84,225,0,0,0,0,0,0,0,0,0,-1,1308,799,0,0
91,225,0,0,0,0,0,0,0,0,0,-1,1315,799,0,0
98,225,0,0,0,0,0,0,0,0,0,-1,1322,799,0,0
105,225,0,0,0,0,0,0,0,0,0,-1,1329,799,0,0
112,225,0,0,0,0,0,0,0,0,0,-1,1336,799,0,0
119,225,0,0,0,0,0,0,0,0,0,-1,1343,799,0,0
126,225,0,0,0,0,0,0,0,0,0,-1,1350,799,0,0
133,225,0,0,0,0,0,0,0,0,0,-1,1357,799,0,0
140,225,0,0,0,0,0,0,0,0,0,-1,1364,799,0,0
147,225,0,0,0,0,0,0,0,0,0,-1,1371,799,0,0
154,225,0,0,0,0,0,0,0,0,0,-1,1378,799,0,0
161,225,0,0,0,0,0,0,0,0,0,-1,1385,799,0,0
168,225,0,0,0,0,0,0,0,0,0,-1,1392,799,0,0
175,225,0,0,0,0,0,0,0,0,0,-1,1399,799,0,0
182,225,0,0,0,0,0,0,0,0,0,-1,1406,799,0,0
189,225,0,0,0,0,0,0,0,0,0,-1,1413,799,0,0
196,225,0,0,0,0,0,0,0,0,0,-1,1420,799,0,0
203,225,0,0,0,0,0,0,0,0,0,-1,1427,799,0,0
210,225,0,0,0,0,0,0,0,0,0,-1,1434,799,0,0
217,225,0,0,0,0,0,0,0,0,0,-1,1441,799,0,0
224,225,0,0,0,0,0,0,0,0,0,-1,1448,799,0,0
231,225,0,0,0,0,0,0,0,0,0,-1,1455,799,0,0
238,225,0,0,0,0,0,0,0,0,0,-1,1462,799,0,0
245,225,0,0,0,0,0,0,0,0,0,-1,1469,799,0,0
252,225,0,0,0,0,0,0,0,0,0,-1,1476,799,0,0
259,225,0,0,0,0,0,0,0,0,0,-1,1483,799,0,0
266,225,0,0,0,0,0,0,0,0,0,-1,1490,799,0,0
273,225,0,0,0,0,0,0,0,0,0,-1,1497,799,0,0
280,225,0,0,0,0,0,0,0,0,0,-1,1504,799,0,0
287,225,0,0,0,0,0,0,0,0,0,-1,1511,799,0,0
294,225,0,0,0,0,0,0,0,0,0,-1,1518,799,0,0
301,225,0,0,0,0,0,0,0,0,0,-1,1525,799,0,0
308,225,0,0,0,0,0,0,0,0,0,-1,1532,799,0,0
315,225,0,0,0,0,0,0,0,0,0,-1,1539,799,0,0
322,225,0,0,0,0,0,0,0,0,0,-1,1546,799,0,0
329,225,0,0,0,0,0,0,0,0,0,-1,1553,799,0,0
336,225,0,0,0,0,0,0,0,0,0,-1,1560,799,0,0
343,225,0,0,0,0,0,0,0,0,0,-1,1567,799,0,0
350,225,0,0,0,0,0,0,0,0,0,-1,1574,799,0,0
357,225,0,0,0,0,0,0,0,0,0,-1,1581,799,0,0
364,225,0,0,0,0,0,0,0,0,0,-1,1588,799,0,0
371,225,0,0,0,0,0,0,0,0,0,-1,1595,799,0,0
378,225,0,0,0,0,0,0,0,0,0,-1,1602,799,0,0
385,225,0,0,0,0,0,0,0,0,0,-1,1609,799,0,0
392,225,0,0,0,0,0,0,0,0,0,-1,1616,799,0,0
399,225,0,0,0,0,0,0,0,0,0,-1,1623,799,0,0
406,225,0,0,0,0,0,0,0,0,0,-1,1630,799,0,0
413,225,0,0,0,0,0,0,0,0,0,-1,1637,799,0,0
420,225,0,0,0,0,0,0,0,0,0,-1,1644,799,0,0
427,225,0,0,0,0,0,0,0,0,0,-1,1651,799,0,0
434,225,0,0,0,0,0,0,0,0,0,-1,1658,799,0,0
441,225,0,0,0,0,0,0,0,0,0,-1,1665,799,0,0
448,225,0,0,0,0,0,0,0,0,0,-1,1672,799,0,0
455,225,0,0,0,0,0,0,0,0,0,-1,1679,799,0,0
462,225,0,0,0,0,0,0,0,0,0,-1,1686,799,0,0
469,225,0,0,0,0,0,0,0,0,0,-1,1693,799,0,0
476,225,0,0,0,0,0,0,0,0,0,-1,1700,799,0,0
483,225,0,0,0,0,0,0,0,0,0,-1,1707,799,0,0
490,225,0,0,0,0,0,0,0,0,0,-1,1714,799,0,0
497,225,0,0,0,0,0,0,0,0,0,-1,1721,799,0,0
504,225,0,0,0,0,0,0,0,0,0,-1,1728,799,0,0
511,225,0,0,0,0,0,0,0,0,0,-1,1735,799,0,0
518,225,0,0,0,0,0,0,0,0,0,-1,1742,799,0,0
525,225,0,0,0,0,0,0,0,0,0,-1,1749,799,0,0
532,225,0,0,0,0,0,0,0,0,0,-1,1756,799,0,0
539,225,0,0,0,0,0,0,0,0,0,-1,1763,799,0,0
546,225,0,0,0,0,0,0,0,0,0,-1,1770,799,0,0
553,225,0,0,0,0,0,0,0,0,0,-1,1777,799,0,0
560,225,0,0,0,0,0,0,0,0,0,-1,1784,799,0,0
567,225,0,0,0,0,0,0,0,0,0,-1,1791,799,0,0
574,225,0,0,0,0,0,0,0,0,0,-1,1798,799,0,0
581,225,0,0,0,0,0,0,0,0,0,-1,1805,799,0,0
588,225,77.9801,2.74451,0.00348543,0.000625832,-0.00265543,0.00507153,-0.000960267,-0.538434,0.0037424,0.035893,1812,799,77.9801,-2.7445
595,225,77.9131,2.70844,0.00272709,0.000866902,-0.00147062,0.00353705,5.69361e-05,-0.503429,0.00233929,0.0330313,1819,799,77.9131,-2.70844
602,225,77.953,2.59613,0.00183069,0.00138626,-0.000645015,0.00229069,0.000926257,-0.619512,0.00133057,0.032301,1826,799,77.953,-2.59611
609,225,78.0031,2.54822,0.000622693,0.0017373,-0.000335978,0.00183074,0.000529252,-1.29954,0.00108787,0.0328975,1833,799,78.0031,-2.54823
616,225,77.9514,2.57019,-1.69186e-05,0.00198153,-0.000137656,0.00199097,-2.6356e-05,-1.50235,0.00133618,0.0376407,1840,799,77.9514,-2.5702
623,225,77.8146,2.65955,0,0,0,0,0,0,0,-1,1847,799,77.8145,-2.65953
630,225,75.2485,2.28778,0,0,0,0,0,0,0,-1,1854,799,75.2485,-2.28778
637,225,55.6359,2.8064,0,0,0,0,0,0,0,-1,1861,799,55.6359,-2.80637
644,225,42.0298,2.46411,0,0,0,0,0,0,0,-1,1868,799,42.0298,-2.4641
651,225,27.9657,0.579529,0,0,0,0,0,0,0,-1,1875,799,27.9657,-0.579541
658,225,47.9047,-1.92926,0,0,0,0,0,0,0,-1,1882,799,47.9047,1.92927
665,225,47.541,-2.27985,0,0,0,0,0,0,0,-1,1889,799,47.5411,2.27983
672,225,56.4851,-3.17438,0,0,0,0,0,0,0,-1,1896,799,56.4851,3.17439
679,225,56.7371,-1.46503,0,0,0,0,0,0,0,-1,1903,799,56.737,1.46505
686,225,56.7091,-0.522034,0.000559956,-0.000118829,-0.000692712,0.00099195,-0.000550823,-0.557611,0.000902776,0.0139416,1910,799,56.7092,0.522029
693,225,56.6718,0.378662,0.000849223,-1.0192e-06,-0.000609397,0.00116713,-0.000318928,-0.480838,0.000903362,0.0117113,1917,799,56.6718,-0.378692
700,225,56.6199,1.29144,0.00137483,0.000547177,-0.000280381,0.00146087,0.000461138,-0.297743,0.00086233,0.0135496,1924,799,56.6199,-1.29144
707,225,56.5393,2.23822,0.00207856,0.00130472,0.000279474,0.00216894,0.00121434,0.312768,0.00125523,0.0123647,1931,799,56.5393,-2.23821
714,225,56.5034,3.17664,0.0029331,0.00210058,0.000934028,0.00353942,0.00149425,0.575779,0.00205172,0.012996,1938,799,56.5034,-3.17664
721,225,56.4781,4.13855,0.00397473,0.00277692,0.00168767,0.00516661,0.00158504,0.614896,0.00305628,0.0166156,1945,799,56.4781,-4.13857
728,225,56.4235,5.11761,0,0,0,0,0,0,0,-1,1952,799,56.4235,-5.11764
735,225,56.1567,5.39532,0,0,0,0,0,0,0,-1,1959,799,56.1567,-5.39535
742,225,55.3708,6.5321,0,0,0,0,0,0,0,-1,1966,799,55.3709,-6.53213
749,225,29.9529,4.45538,0,0,0,0,0,0,0,-1,1973,799,29.9529,-4.45537
756,225,42.6417,11.3672,0,0,0,0,0,0,0,-1,1980,799,42.6417,-11.3672
763,225,40.6626,12.6185,0,0,0,0,0,0,0,-1,1987,799,40.6625,-12.6184
770,225,0,0,0,0,0,0,0,0,0,-1,1994,799,0,0
777,225,0,0,0,0,0,0,0,0,0,-1,2001,799,0,0
784,225,0,0,0,0,0,0,0,0,0,-1,2008,799,0,0
791,225,0,0,0,0,0,0,0,0,0,-1,2015,799,0,0
798,225,0,0,0,0,0,0,0,0,0,-1,2022,799,0,0
805,225,0,0,0,0,0,0,0,0,0,-1,2029,799,0,0
812,225,0,0,0,0,0,0,0,0,0,-1,2036,799,0,0
-700,218,0,0,0,0,0,0,0,0,0,-1,524,806,0,0
-693,218,0,0,0,0,0,0,0,0,0,-1,531,806,0,0
-686,218,0,0,0,0,0,0,0,0,0,-1,538,806,0,0
-679,218,0,0,0,0,0,0,0,0,0,-1,545,806,0,0
-672,218,0,0,0,0,0,0,0,0,0,-1,552,806,0,0
-665,218,0,0,0,0,0,0,0,0,0,-1,559,806,0,0
-658,218,0,0,0,0,0,0,0,0,0,-1,566,806,0,0
-651,218,-40.3778,5.1792,0,0,0,0,0,0,0,-1,573,806,-40.3778,-5.1792
-644,218,-40.7704,4.19714,0,0,0,0,0,0,0,-1,580,806,-40.7704,-4.19714
-637,218,-41.541,3.36328,0,0,0,0,0,0,0,-1,587,806,-41.541,-3.36326
-630,218,-42.1423,2.85565,0,0,0,0,0,0,0,-1,594,806,-42.1423,-2.85567
-623,218,-42.7292,2.59015,0,0,0,0,0,0,0,-1,601,806,-42.7292,-2.59015
-616,218,-20.0258,1.87585,0,0,0,0,0,0,0,-1,608,806,-20.0258,-1.87585
-609,218,-40.9435,5.73181,0,0,0,0,0,0,0,-1,615,806,-40.9436,-5.73179
-602,218,-41.6237,4.91431,-0.00288082,0.00831628,-0.0044519,0.00987058,-0.00443512,-1.2349,0.00845579,0.0453088,622,806,-41.6237,-4.91428
-595,218,-41.663,3.97626,-0.00168344,0.00620719,-0.00355184,0.00757046,-0.00304671,-1.20431,0.00631257,0.018672,629,806,-41.663,-3.97624
-588,218,-41.6965,3.01514,-0.000561385,0.00505291,-0.00266411,0.00611585,-0.00162432,-1.19117,0.00471292,0.0125477,636,806,-41.6965,-3.01512
-581,218,-41.7501,2.10382,0.000288554,0.00422178,-0.00172613,0.00487186,-0.000361528,-1.21061,0.00337488,0.0125762,643,806,-41.7501,-2.10381
-574,218,-41.8215,1.18182,0.00093154,0.00370917,-0.000788346,0.00391732,0.00072339,-1.31265,0.00240693,0.0112443,650,806,-41.8215,-1.18182
-567,218,-41.8552,0.198242,0.00107729,0.00360458,3.70865e-05,0.00360513,0.00107675,1.55613,0.00213692,0.0182048,657,806,-41.8552,-0.198263
-560,218,-41.925,-0.712769,-5.02079e-05,0.0039291,0.000583137,0.0040128,-0.000133902,1.42825,0.00272093,0.0195451,664,806,-41.925,0.71274
-553,218,-41.8947,-1.86829,-0.00265262,0.00490913,0.000624243,0.00496032,-0.0027038,1.48898,0.00448836,0.0235089,671,806,-41.8947,1.86827
-546,218,-42.1139,-2.87634,-0.00458083,0.00543663,-3.09893e-05,0.00543673,-0.00458093,-1.5677,0.00579073,0.0321909,678,806,-42.1139,2.87632
-539,218,-42.2557,-3.59735,-0.00509699,0.00647247,-0.000576779,0.00650115,-0.00512568,-1.52111,0.00672839,0.0354327,685,806,-42.2558,3.59736
-532,218,-42.1907,-4.24176,0,0,0,0,0,0,0,-1,692,806,-42.1907,4.24175
-525,218,-29.3521,-3.64417,0,0,0,0,0,0,0,-1,699,806,-29.3521,3.64414
-518,218,-23.61,2.54181,0,0,0,0,0,0,0,-1,706,806,-23.61,-2.54183
-511,218,-41.0953,1.06879,0,0,0,0,0,0,0,-1,713,806,-41.0953,-1.06876
-504,218,-59.1388,0.682068,0,0,0,0,0,0,0,-1,720,806,-59.1388,-0.682072
-497,218,-61.7902,1.07507,0,0,0,0,0,0,0,-1,727,806,-61.7902,-1.07509
-490,218,-61.9715,0.83844,-0.00139954,0.00691498,-0.00332016,0.00807808,-0.00256265,-1.23384,0.00641262,0.0352874,734,806,-61.9715,-0.838453
-483,218,-61.9535,0.766724,0.00248754,0.00632339,-0.00375313,0.00862025,0.000190679,-1.02161,0.00568434,0.032285,741,806,-61.9535,-0.766747
-476,218,-61.9086,0.868652,0.00880969,0.00389449,-0.00274104,0.0100335,0.00267064,-0.419933,0.00600031,0.0363976,748,806,-61.9086,-0.86868
-469,218,0,0,0,0,0,0,0,0,0,-1,755,806,0,0
-462,218,0,0,0,0,0,0,0,0,0,-1,762,806,0,0
-455,218,0,0,0,0,0,0,0,0,0,-1,769,806,0,0
-448,218,0,0,0,0,0,0,0,0,0,-1,776,806,0,0
-441,218,0,0,0,0,0,0,0,0,0,-1,783,806,0,0
-434,218,0,0,0,0,0,0,0,0,0,-1,790,806,0,0
-427,218,0,0,0,0,0,0,0,0,0,-1,797,806,0,0
-420,218,0,0,0,0,0,0,0,0,0,-1,804,806,0,0
-413,218,0,0,0,0,0,0,0,0,0,-1,811,806,0,0
-406,218,0,0,0,0,0,0,0,0,0,-1,818,806,0,0
-399,218,0,0,0,0,0,0,0,0,0,-1,825,806,0,0
-392,218,0,0,0,0,0,0,0,0,0,-1,832,806,0,0
-385,218,0,0,0,0,0,0,0,0,0,-1,839,806,0,0
-378,218,0,0,0,0,0,0,0,0,0,-1,846,806,0,0
-371,218,0,0,0,0,0,0,0,0,0,-1,853,806,0,0
-364,218,0,0,0,0,0,0,0,0,0,-1,860,806,0,0
-357,218,0,0,0,0,0,0,0,0,0,-1,867,806,0,0
-350,218,0,0,0,0,0,0,0,0,0,-1,874,806,0,0
-343,218,0,0,0,0,0,0,0,0,0,-1,881,806,0,0
-336,218,0,0,0,0,0,0,0,0,0,-1,888,806,0,0
-329,218,0,0,0,0,0,0,0,0,0,-1,895,806,0,0
-322,218,0,0,0,0,0,0,0,0,0,-1,902,806,0,0
-315,218,0,0,0,0,0,0,0,0,0,-1,909,806,0,0
-308,218,0,0,0,0,0,0,0,0,0,-1,916,806,0,0
-301,218,0,0,0,0,0,0,0,0,0,-1,923,806,0,0
-294,218,0,0,0,0,0,0,0,0,0,-1,930,806,0,0
-287,218,0,0,0,0,0,0,0,0,0,-1,937,806,0,0
-280,218,0,0,0,0,0,0,0,0,0,-1,944,806,0,0
-273,218,0,0,0,0,0,0,0,0,0,-1,951,806,0,0
-266,218,0,0,0,0,0,0,0,0,0,-1,958,806,0,0
-259,218,0,0,0,0,0,0,0,0,0,-1,965,806,0,0
-252,218,0,0,0,0,0,0,0,0,0,-1,972,806,0,0
-245,218,0,0,0,0,0,0,0,0,0,-1,979,806,0,0
-238,218,0,0,0,0,0,0,0,0,0,-1,986,806,0,0
-231,218,0,0,0,0,0,0,0,0,0,-1,993,806,0,0
-224,218,0,0,0,0,0,0,0,0,0,-1,1000,806,0,0
-217,218,0,0,0,0,0,0,0,0,0,-1,1007,806,0,0
-210,218,0,0,0,0,0,0,0,0,0,-1,1014,806,0,0
-203,218,0,0,0,0,0,0,0,0,0,-1,1021,806,0,0
-196,218,0,0,0,0,0,0,0,0,0,-1,1028,806,0,0
-189,218,0,0,0,0,0,0,0,0,0,-1,1035,806,0,0
-182,218,0,0,0,0,0,0,0,0,0,-1,1042,806,0,0
-175,218,0,0,0,0,0,0,0,0,0,-1,1049,806,0,0
-168,218,0,0,0,0,0,0,0,0,0,-1,1056,806,0,0
-161,218,0,0,0,0,0,0,0,0,0,-1,1063,806,0,0
-154,218,0,0,0,0,0,0,0,0,0,-1,1070,806,0,0
-147,218,0,0,0,0,0,0,0,0,0,-1,1077,806,0,0
-140,218,0,0,0,0,0,0,0,0,0,-1,1084,806,0,0
-133,218,0,0,0,0,0,0,0,0,0,-1,1091,806,0,0
-126,218,0,0,0,0,0,0,0,0,0,-1,1098,806,0,0
-119,218,0,0,0,0,0,0,0,0,0,-1,1105,806,0,0
-112,218,0,0,0,0,0,0,0,0,0,-1,1112,806,0,0
-105,218,0,0,0,0,0,0,0,0,0,-1,1119,806,0,0
-98,218,0,0,0,0,0,0,0,0,0,-1,1126,806,0,0
-91,218,0,0,0,0,0,0,0,0,0,-1,1133,806,0,0
-84,218,0,0,0,0,0,0,0,0,0,-1,1140,806,0,0
-77,218,0,0,0,0,0,0,0,0,0,-1,1147,806,0,0
-70,218,0,0,0,0,0,0,0,0,0,-1,1154,806,0,0
-63,218,0,0,0,0,0,0,0,0,0,-1,1161,806,0,0
-56,218,0,0,0,0,0,0,0,0,0,-1,1168,806,0,0
-49,218,0,0,0,0,0,0,0,0,0,-1,1175,806,0,0
-42,218,0,0,0,0,0,0,0,0,0,-1,1182,806,0,0
-35,218,0,0,0,0,0,0,0,0,0,-1,1189,806,0,0
-28,218,0,0,0,0,0,0,0,0,0,-1,1196,806,0,0
-21,218,0,0,0,0,0,0,0,0,0,-1,1203,806,0,0
-14,218,0,0,0,0,0,0,0,0,0,-1,1210,806,0,0
-7,218,0,0,0,0,0,0,0,0,0,-1,1217,806,0,0
0,218,0,0,0,0,0,0,0,0,0,-1,1224,806,0,0
7,218,0,0,0,0,0,0,0,0,0,-1,1231,806,0,0
14,218,0,0,0,0,0,0,0,0,0,-1,1238,806,0,0
21,218,0,0,0,0,0,0,0,0,0,-1,1245,806,0,0
28,218,0,0,0,0,0,0,0,0,0,-1,1252,806,0,0
35,218,0,0,0,0,0,0,0,0,0,-1,1259,806,0,0
42,218,0,0,0,0,0,0,0,0,0,-1,1266,806,0,0
49,218,0,0,0,0,0,0,0,0,0,-1,1273,806,0,0
56,218,0,0,0,0,0,0,0,0,0,-1,1280,806,0,0
63,218,0,0,0,0,0,0,0,0,0,-1,1287,806,0,0
70,218,0,0,0,0,0,0,0,0,0,-1,1294,806,0,0
77,218,0,0,0,0,0,0,0,0,0,-1,1301,806,0,0
84,218,0,0,0,0,0,0,0,0,0,-1,1308,806,0,0
91,218,0,0,0,0,0,0,0,0,0,-1,1315,806,0,0
98,218,0,0,0,0,0,0,0,0,0,-1,1322,806,0,0
105,218,0,0,0,0,0,0,0,0,0,-1,1329,806,0,0
112,218,0,0,0,0,0,0,0,0,0,-1,1336,806,0,0
119,218,0,0,0,0,0,0,0,0,0,-1,1343,806,0,0
126,218,0,0,0,0,0,0,0,0,0,-1,1350,806,0,0
133,218,0,0,0,0,0,0,0,0,0,-1,1357,806,0,0
140,218,0,0,0,0,0,0,0,0,0,-1,1364,806,0,0
147,218,0,0,0,0,0,0,0,0,0,-1,1371,806,0,0
154,218,0,0,0,0,0,0,0,0,0,-1,1378,806,0,0
161,218,0,0,0,0,0,0,0,0,0,-1,1385,806,0,0
168,218,0,0,0,0,0,0,0,0,0,-1,1392,806,0,0
175,218,0,0,0,0,0,0,0,0,0,-1,1399,806,0,0
182,218,0,0,0,0,0,0,0,0,0,-1,1406,806,0,0
189,218,0,0,0,0,0,0,0,0,0,-1,1413,806,0,0
196,218,0,0,0,0,0,0,0,0,0,-1,1420,806,0,0
203,218,0,0,0,0,0,0,0,0,0,-1,1427,806,0,0
210,218,0,0,0,0,0,0,0,0,0,-1,1434,806,0,0
217,218,0,0,0,0,0,0,0,0,0,-1,1441,806,0,0
224,218,0,0,0,0,0,0,0,0,0,-1,1448,806,0,0
231,218,0,0,0,0,0,0,0,0,0,-1,1455,806,0,0
238,218,0,0,0,0,0,0,0,0,0,-1,1462,806,0,0
245,218,0,0,0,0,0,0,0,0,0,-1,1469,806,0,0
252,218,0,0,0,0,0,0,0,0,0,-1,1476,806,0,0
259,218,0,0,0,0,0,0,0,0,0,-1,1483,806,0,0
266,218,0,0,0,0,0,0,0,0,0,-1,1490,806,0,0
273,218,0,0,0,0,0,0,0,0,0,-1,1497,806,0,0
280,218,0,0,0,0,0,0,0,0,0,-1,1504,806,0,0
287,218,0,0,0,0,0,0,0,0,0,-1,1511,806,0,0
294,218,0,0,0,0,0,0,0,0,0,-1,1518,806,0,0
301,218,0,0,0,0,0,0,0,0,0,-1,1525,806,0,0
308,218,0,0,0,0,0,0,0,0,0,-1,1532,806,0,0
315,218,0,0,0,0,0,0,0,0,0,-1,1539,806,0,0
322,218,0,0,0,0,0,0,0,0,0,-1,1546,806,0,0
329,218,0,0,0,0,0,0,0,0,0,-1,1553,806,0,0
336,218,0,0,0,0,0,0,0,0,0,-1,1560,806,0,0
343,218,0,0,0,0,0,0,0,0,0,-1,1567,806,0,0
350,218,0,0,0,0,0,0,0,0,0,-1,1574,806,0,0
357,218,0,0,0,0,0,0,0,0,0,-1,1581,806,0,0
364,218,0,0,0,0,0,0,0,0,0,-1,1588,806,0,0
371,218,0,0,0,0,0,0,0,0,0,-1,1595,806,0,0
378,218,0,0,0,0,0,0,0,0,0,-1,1602,806,0,0
385,218,0,0,0,0,0,0,0,0,0,-1,1609,806,0,0
392,218,0,0,0,0,0,0,0,0,0,-1,1616,806,0,0
399,218,0,0,0,0,0,0,0,0,0,-1,1623,806,0,0
406,218,0,0,0,0,0,0,0,0,0,-1,1630,806,0,0
413,218,0,0,0,0,0,0,0,0,0,-1,1637,806,0,0
420,218,0,0,0,0,0,0,0,0,0,-1,1644,806,0,0
427,218,0,0,0,0,0,0,0,0,0,-1,1651,806,0,0
434,218,0,0,0,0,0,0,0,0,0,-1,1658,806,0,0
441,218,0,0,0,0,0,0,0,0,0,-1,1665,806,0,0
448,218,0,0,0,0,0,0,0,0,0,-1,1672,806,0,0
455,218,0,0,0,0,0,0,0,0,0,-1,1679,806,0,0
462,218,0,0,0,0,0,0,0,0,0,-1,1686,806,0,0
469,218,0,0,0,0,0,0,0,0,0,-1,1693,806,0,0
476,218,0,0,0,0,0,0,0,0,0,-1,1700,806,0,0
483,218,0,0,0,0,0,0,0,0,0,-1,1707,806,0,0
490,218,0,0,0,0,0,0,0,0,0,-1,1714,806,0,0
497,218,0,0,0,0,0,0,0,0,0,-1,1721,806,0,0
504,218,0,0,0,0,0,0,0,0,0,-1,1728,806,0,0
511,218,0,0,0,0,0,0,0,0,0,-1,1735,806,0,0
518,218,0,0,0,0,0,0,0,0,0,-1,1742,806,0,0
525,218,0,0,0,0,0,0,0,0,0,-1,1749,806,0,0
532,218,0,0,0,0,0,0,0,0,0,-1,1756,806,0,0
539,218,0,0,0,0,0,0,0,0,0,-1,1763,806,0,0
546,218,0,0,0,0,0,0,0,0,0,-1,1770,806,0,0
553,218,0,0,0,0,0,0,0,0,0,-1,1777,806,0,0
560,218,0,0,0,0,0,0,0,0,0,-1,1784,806,0,0
567,218,0,0,0,0,0,0,0,0,0,-1,1791,806,0,0
574,218,0,0,0,0,0,0,0,0,0,-1,1798,806,0,0
581,218,0,0,0,0,0,0,0,0,0,-1,1805,806,0,0
588,218,0,0,0,0,0,0,0,0,0,-1,1812,806,0,0
595,218,78.0414,2.64813,0.00284796,0.00129709,-0.00126932,0.00355996,0.000585084,-0.511198,0.00220432,0.0354684,1819,806,78.0414,-2.64816
602,218,78.0403,2.55634,0.00153326,0.0015201,-0.000519817,0.00204654,0.00100683,-0.77907,0.00118162,0.0338077,1826,806,78.0403,-2.55631
609,218,78.048,2.53503,5.0508e-05,0.00181737,-0.000306193,0.00186893,-1.05012e-06,-1.40398,0.0012463,0.0311856,1833,806,78.048,-2.53504
616,218,78.0024,2.58368,-0.000743011,0.00204279,-0.000181583,0.00205457,-0.000754798,-1.50598,0.00167886,0.0317324,1840,806,78.0024,-2.58368
623,218,77.9431,2.58679,-0.00099811,0.00204565,-3.30729e-05,0.00204601,-0.000998469,-1.55993,0.00179208,0.0374048,1847,806,77.9431,-2.58679
630,218,77.9517,2.52246,0,0,0,0,0,0,0,-1,1854,806,77.9517,-2.52248
637,218,75.0532,2.44513,0,0,0,0,0,0,0,-1,1861,806,75.0532,-2.44515
644,218,52.4042,2.47949,0,0,0,0,0,0,0,-1,1868,806,52.4041,-2.47949
651,218,41.7338,1.99164,0,0,0,0,0,0,0,-1,1875,806,41.7338,-1.99162
658,218,28.41,0.514954,0,0,0,0,0,0,0,-1,1882,806,28.41,-0.514983
665,218,52.1176,-2.84406,0,0,0,0,0,0,0,-1,1889,806,52.1176,2.84404
672,218,52.8506,-2.1853,0,0,0,0,0,0,0,-1,1896,806,52.8506,2.18533
679,218,57.61,-1.47058,0,0,0,0,0,0,0,-1,1903,806,57.61,1.47058
686,218,57.6337,-0.51178,0.000197438,-0.000313228,-0.00102129,0.000994833,-0.00111062,-0.662904,0.0012162,0.0281811,1910,806,57.6337,0.51178
693,218,57.6277,0.437439,0.000480404,-0.000352954,-0.00106108,0.00120369,-0.00107624,-0.598302,0.001317,0.0131665,1917,806,57.6277,-0.437436
700,218,57.5548,1.34894,0.000984064,0.000143808,-0.000770679,0.00144169,-0.000313819,-0.535846,0.00108103,0.0113718,1924,806,57.5548,-1.34894
707,218,57.4771,2.28845,0.00170379,0.000860964,-0.000221252,0.00175834,0.000806414,-0.241732,0.00101634,0.00844729,1931,806,57.4771,-2.28845
714,218,57.4327,3.23401,0.0026386,0.00165893,0.000450186,0.00281405,0.00148348,0.371622,0.00162549,0.010613,1938,806,57.4328,-3.23402
721,218,57.407,4.15839,0.00375334,0.00231395,0.00119615,0.00442962,0.00163767,0.514572,0.00258622,0.0153922,1945,806,57.407,-4.15837
728,218,57.3577,5.15686,0.00515199,0.00273963,0.00201081,0.00629064,0.00160098,0.515245,0.00377501,0.0298282,1952,806,57.3577,-5.15683
735,218,57.5122,6.26978,0,0,0,0,0,0,0,-1,1959,806,57.5122,-6.26975
742,218,47.8733,6.84155,0,0,0,0,0,0,0,-1,1966,806,47.8733,-6.84158
749,218,42.0249,6.64703,0,0,0,0,0,0,0,-1,1973,806,42.0249,-6.64703
756,218,58.4941,6.8728,0,0,0,0,0,0,0,-1,1980,806,58.4942,-6.87278
763,218,45.4928,8.73566,0,0,0,0,0,0,0,-1,1987,806,45.4928,-8.73564
770,218,0,0,0,0,0,0,0,0,0,-1,1994,806,0,0
777,218,0,0,0,0,0,0,0,0,0,-1,2001,806,0,0
784,218,0,0,0,0,0,0,0,0,0,-1,2008,806,0,0
791,218,0,0,0,0,0,0,0,0,0,-1,2015,806,0,0
798,218,0,0,0,0,0,0,0,0,0,-1,2022,806,0,0
805,218,0,0,0,0,0,0,0,0,0,-1,2029,806,0,0
812,218,0,0,0,0,0,0,0,0,0,-1,2036,806,0,0
-700,211,0,0,0,0,0,0,0,0,0,-1,524,813,0,0
-693,211,0,0,0,0,0,0,0,0,0,-1,531,813,0,0
-686,211,0,0,0,0,0,0,0,0,0,-1,538,813,0,0
-679,211,0,0,0,0,0,0,0,0,0,-1,545,813,0,0
-672,211,0,0,0,0,0,0,0,0,0,-1,552,813,0,0
-665,211,0,0,0,0,0,0,0,0,0,-1,559,813,0,0
-658,211,0,0,0,0,0,0,0,0,0,-1,566,813,0,0
-651,211,-40.2495,5.20386,0,0,0,0,0,0,0,-1,573,813,-40.2494,-5.20384
-644,211,-40.6288,4.32092,0,0,0,0,0,0,0,-1,580,813,-40.6288,-4.3209
-637,211,-41.3664,3.51849,0,0,0,0,0,0,0,-1,587,813,-41.3664,-3.51847
-630,211,-41.9262,2.94977,0,0,0,0,0,0,0,-1,594,813,-41.9262,-2.94975
-623,211,-42.5012,2.62903,0,0,0,0,0,0,0,-1,601,813,-42.5011,-2.629
-616,211,-42.0032,6.75714,0,0,0,0,0,0,0,-1,608,813,-42.0032,-6.75715
-609,211,-42.1199,5.83759,-0.00288507,0.0098123,-0.00482883,0.01144,-0.00451281,-1.24567,0.00949543,0.0448727,615,813,-42.1199,-5.83762
-602,211,-42.4015,4.9516,-0.00219094,0.00747076,-0.00354743,0.00863335,-0.00335354,-1.2541,0.00714091,0.0245408,622,813,-42.4015,-4.95157
-595,211,-42.5824,4.02112,-0.00123599,0.00558715,-0.00271455,0.00653535,-0.00218418,-1.23474,0.00523899,0.0121021,629,813,-42.5824,-4.02114
-588,211,-42.6621,3.07776,-0.000285471,0.00451865,-0.0019204,0.00519195,-0.000958768,-1.23358,0.0038212,0.0129062,636,813,-42.6621,-3.07778
-581,211,-42.7186,2.16199,0.000529979,0.00380119,-0.00107653,0.00412367,0.000207494,-1.27974,0.00268263,0.0133039,643,813,-42.7186,-2.16201
-574,211,-42.7665,1.22125,0.00116591,0.00342229,-0.000277095,0.00345582,0.00113238,-1.45037,0.00203434,0.0134133,650,813,-42.7665,-1.22124
-567,211,-42.8359,0.284668,0.00115977,0.00345313,0.000384089,0.00351574,0.00109715,1.40919,0.00207706,0.020572,657,813,-42.8358,-0.284682
-560,211,-42.8869,-0.720215,-0.000467189,0.0039103,0.000664961,0.00400908,-0.00056597,1.42332,0.00287997,0.0418998,664,813,-42.8869,0.720193
-553,211,-42.6696,-2.12067,0,0,0,0,0,0,0,-1,671,813,-42.6696,2.12068
-546,211,-43.0103,-3.21106,0,0,0,0,0,0,0,-1,678,813,-43.0103,3.21104
-539,211,-43.1653,-3.5155,0,0,0,0,0,0,0,-1,685,813,-43.1653,3.51553
-532,211,-43.1174,-4.2522,0,0,0,0,0,0,0,-1,692,813,-43.1174,4.25218
-525,211,-14.3009,2.3233,0,0,0,0,0,0,0,-1,699,813,-14.3009,-2.3233
-518,211,-34.952,1.93011,0,0,0,0,0,0,0,-1,706,813,-34.952,-1.9301
-511,211,-53.0876,0.677734,0,0,0,0,0,0,0,-1,713,813,-53.0876,-0.677737
-504,211,-61.5889,1.23804,0,0,0,0,0,0,0,-1,720,813,-61.5889,-1.23802
-497,211,-61.9039,0.791992,-0.00442216,0.00769712,-0.00276737,0.00829913,-0.00502417,-1.35659,0.00776929,0.0444835,727,813,-61.9039,-0.791975
-490,211,-61.9671,0.669067,-0.00156398,0.00712745,-0.00357272,0.00840753,-0.00284406,-1.22675,0.00675563,0.0329532,734,813,-61.9671,-0.669063
-483,211,-61.8724,0.786377,0.00419733,0.00589601,-0.00387934,0.0090179,0.00107545,-0.893167,0.00568744,0.0316011,741,813,-61.8724,-0.786357
-476,211,-61.8843,0.880188,0.0147744,0.00172773,-0.00196249,0.0150632,0.00143893,-0.146114,0.00959851,0.0366617,748,813,-61.8843,-0.880199
-469,211,0,0,0,0,0,0,0,0,0,-1,755,813,0,0
-462,211,0,0,0,0,0,0,0,0,0,-1,762,813,0,0
-455,211,0,0,0,0,0,0,0,0,0,-1,769,813,0,0
-448,211,0,0,0,0,0,0,0,0,0,-1,776,813,0,0
-441,211,0,0,0,0,0,0,0,0,0,-1,783,813,0,0
-434,211,0,0,0,0,0,0,0,0,0,-1,790,813,0,0
-427,211,0,0,0,0,0,0,0,0,0,-1,797,813,0,0
-420,211,0,0,0,0,0,0,0,0,0,-1,804,813,0,0
-413,211,0,0,0,0,0,0,0,0,0,-1,811,813,0,0
-406,211,0,0,0,0,0,0,0,0,0,-1,818,813,0,0
-399,211,0,0,0,0,0,0,0,0,0,-1,825,813,0,0
-392,211,0,0,0,0,0,0,0,0,0,-1,832,813,0,0
-385,211,0,0,0,0,0,0,0,0,0,-1,839,813,0,0
-378,211,0,0,0,0,0,0,0,0,0,-1,846,813,0,0
-371,211,0,0,0,0,0,0,0,0,0,-1,853,813,0,0
-364,211,0,0,0,0,0,0,0,0,0,-1,860,813,0,0
-357,211,0,0,0,0,0,0,0,0,0,-1,867,813,0,0
-350,211,0,0,0,0,0,0,0,0,0,-1,874,813,0,0
-343,211,0,0,0,0,0,0,0,0,0,-1,881,813,0,0
-336,211,0,0,0,0,0,0,0,0,0,-1,888,813,0,0
-329,211,0,0,0,0,0,0,0,0,0,-1,895,813,0,0
-322,211,0,0,0,0,0,0,0,0,0,-1,902,813,0,0
-315,211,0,0,0,0,0,0,0,0,0,-1,909,813,0,0
-308,211,0,0,0,0,0,0,0,0,0,-1,916,813,0,0
-301,211,0,0,0,0,0,0,0,0,0,-1,923,813,0,0
-294,211,0,0,0,0,0,0,0,0,0,-1,930,813,0,0
-287,211,0,0,0,0,0,0,0,0,0,-1,937,813,0,0
-280,211,0,0,0,0,0,0,0,0,0,-1,944,813,0,0
-273,211,0,0,0,0,0,0,0,0,0,-1,951,813,0,0
-266,211,0,0,0,0,0,0,0,0,0,-1,958,813,0,0
-259,211,0,0,0,0,0,0,0,0,0,-1,965,813,0,0
-252,211,0,0,0,0,0,0,0,0,0,-1,972,813,0,0
-245,211,0,0,0,0,0,0,0,0,0,-1,979,813,0,0
-238,211,0,0,0,0,0,0,0,0,0,-1,986,813,0,0
-231,211,0,0,0,0,0,0,0,0,0,-1,993,813,0,0
-224,211,0,0,0,0,0,0,0,0,0,-1,1000,813,0,0
-217,211,0,0,0,0,0,0,0,0,0,-1,1007,813,0,0
-210,211,0,0,0,0,0,0,0,0,0,-1,1014,813,0,0
-203,211,0,0,0,0,0,0,0,0,0,-1,1021,813,0,0
-196,211,0,0,0,0,0,0,0,0,0,-1,1028,813,0,0
-189,211,0,0,0,0,0,0,0,0,0,-1,1035,813,0,0
-182,211,0,0,0,0,0,0,0,0,0,-1,1042,813,0,0
-175,211,0,0,0,0,0,0,0,0,0,-1,1049,813,0,0
-168,211,0,0,0,0,0,0,0,0,0,-1,1056,813,0,0
-161,211,0,0,0,0,0,0,0,0,0,-1,1063,813,0,0
-154,211,0,0,0,0,0,0,0,0,0,-1,1070,813,0,0
-147,211,0,0,0,0,0,0,0,0,0,-1,1077,813,0,0
-140,211,0,0,0,0,0,0,0,0,0,-1,1084,813,0,0
-133,211,0,0,0,0,0,0,0,0,0,-1,1091,813,0,0
-126,211,0,0,0,0,0,0,0,0,0,-1,1098,813,0,0
-119,211,0,0,0,0,0,0,0,0,0,-1,1105,813,0,0
-112,211,0,0,0,0,0,0,0,0,0,-1,1112,813,0,0
-105,211,0,0,0,0,0,0,0,0,0,-1,1119,813,0,0
-98,211,0,0,0,0,0,0,0,0,0,-1,1126,813,0,0
-91,211,0,0,0,0,0,0,0,0,0,-1,1133,813,0,0
-84,211,0,0,0,0,0,0,0,0,0,-1,1140,813,0,0
-77,211,0,0,0,0,0,0,0,0,0,-1,1147,813,0,0
-70,211,0,0,0,0,0,0,0,0,0,-1,1154,813,0,0
-63,211,0,0,0,0,0,0,0,0,0,-1,1161,813,0,0
-56,211,0,0,0,0,0,0,0,0,0,-1,1168,813,0,0
-49,211,0,0,0,0,0,0,0,0,0,-1,1175,813,0,0
-42,211,0,0,0,0,0,0,0,0,0,-1,1182,813,0,0
-35,211,0,0,0,0,0,0,0,0,0,-1,1189,813,0,0
-28,211,0,0,0,0,0,0,0,0,0,-1,1196,813,0,0
-21,211,0,0,0,0,0,0,0,0,0,-1,1203,813,0,0
-14,211,0,0,0,0,0,0,0,0,0,-1,1210,813,0,0
-7,211,0,0,0,0,0,0,0,0,0,-1,1217,813,0,0
0,211,0,0,0,0,0,0,0,0,0,-1,1224,813,0,0
7,211,0,0,0,0,0,0,0,0,0,-1,1231,813,0,0
14,211,0,0,0,0,0,0,0,0,0,-1,1238,813,0,0
21,211,0,0,0,0,0,0,0,0,0,-1,1245,813,0,0
28,211,0,0,0,0,0,0,0,0,0,-1,1252,813,0,0
35,211,0,0,0,0,0,0,0,0,0,-1,1259,813,0,0
42,211,0,0,0,0,0,0,0,0,0,-1,1266,813,0,0
49,211,0,0,0,0,0,0,0,0,0,-1,1273,813,0,0
56,211,0,0,0,0,0,0,0,0,0,-1,1280,813,0,0
63,211,0,0,0,0,0,0,0,0,0,-1,1287,813,0,0
70,211,0,0,0,0,0,0,0,0,0,-1,1294,813,0,0
77,211,0,0,0,0,0,0,0,0,0,-1,1301,813,0,0
84,211,0,0,0,0,0,0,0,0,0,-1,1308,813,0,0
91,211,0,0,0,0,0,0,0,0,0,-1,1315,813,0,0
98,211,0,0,0,0,0,0,0,0,0,-1,1322,813,0,0
105,211,0,0,0,0,0,0,0,0,0,-1,1329,813,0,0
112,211,0,0,0,0,0,0,0,0,0,-1,1336,813,0,0
119,211,0,0,0,0,0,0,0,0,0,-1,1343,813,0,0
126,211,0,0,0,0,0,0,0,0,0,-1,1350,813,0,0
133,211,0,0,0,0,0,0,0,0,0,-1,1357,813,0,0
140,211,0,0,0,0,0,0,0,0,0,-1,1364,813,0,0
147,211,0,0,0,0,0,0,0,0,0,-1,1371,813,0,0
154,211,0,0,0,0,0,0,0,0,0,-1,1378,813,0,0
161,211,0,0,0,0,0,0,0,0,0,-1,1385,813,0,0
168,211,0,0,0,0,0,0,0,0,0,-1,1392,813,0,0
175,211,0,0,0,0,0,0,0,0,0,-1,1399,813,0,0
182,211,0,0,0,0,0,0,0,0,0,-1,1406,813,0,0
189,211,0,0,0,0,0,0,0,0,0,-1,1413,813,0,0
196,211,0,0,0,0,0,0,0,0,0,-1,1420,813,0,0
203,211,0,0,0,0,0,0,0,0,0,-1,1427,813,0,0
210,211,0,0,0,0,0,0,0,0,0,-1,1434,813,0,0
217,211,0,0,0,0,0,0,0,0,0,-1,1441,813,0,0
224,211,0,0,0,0,0,0,0,0,0,-1,1448,813,0,0
231,211,0,0,0,0,0,0,0,0,0,-1,1455,813,0,0
238,211,0,0,0,0,0,0,0,0,0,-1,1462,813,0,0
245,211,0,0,0,0,0,0,0,0,0,-1,1469,813,0,0
252,211,0,0,0,0,0,0,0,0,0,-1,1476,813,0,0
259,211,0,0,0,0,0,0,0,0,0,-1,1483,813,0,0
266,211,0,0,0,0,0,0,0,0,0,-1,1490,813,0,0
273,211,0,0,0,0,0,0,0,0,0,-1,1497,813,0,0
280,211,0,0,0,0,0,0,0,0,0,-1,1504,813,0,0
287,211,0,0,0,0,0,0,0,0,0,-1,1511,813,0,0
294,211,0,0,0,0,0,0,0,0,0,-1,1518,813,0,0
301,211,0,0,0,0,0,0,0,0,0,-1,1525,813,0,0
308,211,0,0,0,0,0,0,0,0,0,-1,1532,813,0,0
315,211,0,0,0,0,0,0,0,0,0,-1,1539,813,0,0
322,211,0,0,0,0,0,0,0,0,0,-1,1546,813,0,0
329,211,0,0,0,0,0,0,0,0,0,-1,1553,813,0,0
336,211,0,0,0,0,0,0,0,0,0,-1,1560,813,0,0
343,211,0,0,0,0,0,0,0,0,0,-1,1567,813,0,0
350,211,0,0,0,0,0,0,0,0,0,-1,1574,813,0,0
357,211,0,0,0,0,0,0,0,0,0,-1,1581,813,0,0
364,211,0,0,0,0,0,0,0,0,0,-1,1588,813,0,0
371,211,0,0,0,0,0,0,0,0,0,-1,1595,813,0,0
378,211,0,0,0,0,0,0,0,0,0,-1,1602,813,0,0
385,211,0,0,0,0,0,0,0,0,0,-1,1609,813,0,0
392,211,0,0,0,0,0,0,0,0,0,-1,1616,813,0,0
399,211,0,0,0,0,0,0,0,0,0,-1,1623,813,0,0
406,211,0,0,0,0,0,0,0,0,0,-1,1630,813,0,0
413,211,0,0,0,0,0,0,0,0,0,-1,1637,813,0,0
420,211,0,0,0,0,0,0,0,0,0,-1,1644,813,0,0
427,211,0,0,0,0,0,0,0,0,0,-1,1651,813,0,0
434,211,0,0,0,0,0,0,0,0,0,-1,1658,813,0,0
441,211,0,0,0,0,0,0,0,0,0,-1,1665,813,0,0
448,211,0,0,0,0,0,0,0,0,0,-1,1672,813,0,0
455,211,0,0,0,0,0,0,0,0,0,-1,1679,813,0,0
462,211,0,0,0,0,0,0,0,0,0,-1,1686,813,0,0
469,211,0,0,0,0,0,0,0,0,0,-1,1693,813,0,0
476,211,0,0,0,0,0,0,0,0,0,-1,1700,813,0,0
483,211,0,0,0,0,0,0,0,0,0,-1,1707,813,0,0
490,211,0,0,0,0,0,0,0,0,0,-1,1714,813,0,0
497,211,0,0,0,0,0,0,0,0,0,-1,1721,813,0,0
504,211,0,0,0,0,0,0,0,0,0,-1,1728,813,0,0
511,211,0,0,0,0,0,0,0,0,0,-1,1735,813,0,0
518,211,0,0,0,0,0,0,0,0,0,-1,1742,813,0,0
525,211,0,0,0,0,0,0,0,0,0,-1,1749,813,0,0
532,211,0,0,0,0,0,0,0,0,0,-1,1756,813,0,0
539,211,0,0,0,0,0,0,0,0,0,-1,1763,813,0,0
546,211,0,0,0,0,0,0,0,0,0,-1,1770,813,0,0
553,211,0,0,0,0,0,0,0,0,0,-1,1777,813,0,0
560,211,0,0,0,0,0,0,0,0,0,-1,1784,813,0,0
567,211,0,0,0,0,0,0,0,0,0,-1,1791,813,0,0
574,211,0,0,0,0,0,0,0,0,0,-1,1798,813,0,0
581,211,0,0,0,0,0,0,0,0,0,-1,1805,813,0,0
588,211,0,0,0,0,0,0,0,0,0,-1,1812,813,0,0
595,211,78.1582,2.50751,0.00397794,0.0012097,-0.000272712,0.00400455,0.00118309,-0.0972684,0.00237566,0.037327,1819,813,78.1581,-2.50749
602,211,78.0789,2.47797,0.00234602,0.00144242,0.000213197,0.0023938,0.00139464,0.22045,0.00138833,0.0365274,1826,813,78.0788,-2.47797
609,211,78.0922,2.52002,0.000504735,0.00188201,0.000189103,0.0019075,0.000479243,1.4368,0.00114583,0.0363613,1833,813,78.0921,-2.52001
616,211,78.1112,2.55316,-0.000807259,0.00219749,9.49041e-05,0.00220048,-0.000810253,1.53925,0.00179896,0.0313438,1840,813,78.1112,-2.55318
623,211,78.0498,2.56989,-0.00131236,0.00224414,0.00011528,0.00224788,-0.0013161,1.53843,0.00208097,0.0324726,1847,813,78.0499,-2.56988
630,211,77.9556,2.56946,-0.00128745,0.00206428,0.000391119,0.00210932,-0.00133249,1.45616,0.00200393,0.0388922,1854,813,77.9555,-2.56948
637,211,77.8446,2.80164,0,0,0,0,0,0,0,-1,1861,813,77.8446,-2.80161
644,211,66.401,2.3595,0,0,0,0,0,0,0,-1,1868,813,66.401,-2.35952
651,211,48.5043,2.95557,0,0,0,0,0,0,0,-1,1875,813,48.5043,-2.95558
658,211,27.7909,1.52234,0,0,0,0,0,0,0,-1,1882,813,27.7909,-1.52234
665,211,42.2053,-0.745605,0,0,0,0,0,0,0,-1,1889,813,42.2054,0.745605
672,211,53.189,-1.99603,0,0,0,0,0,0,0,-1,1896,813,53.189,1.99603
679,211,58.5126,-1.26489,0,0,0,0,0,0,0,-1,1903,813,58.5125,1.26488
686,211,58.6274,-0.474609,-0.000148163,-0.000258207,-0.00125902,0.00105703,-0.0014634,-0.763561,0.00146147,0.0334752,1910,813,58.6274,0.474587
693,211,58.567,0.445557,-2.38494e-05,-0.000545988,-0.00147503,0.00121303,-0.00178287,-0.697809,0.00174008,0.0163637,1917,813,58.567,-0.445582
700,211,58.4431,1.35431,0.00034732,-0.000211882,-0.00128489,0.00138268,-0.00124724,-0.678265,0.00151906,0.0162731,1924,813,58.4431,-1.35429
707,211,58.4183,2.33008,0.0010568,0.000384103,-0.000783331,0.00157294,-0.000132037,-0.582609,0.0010953,0.0232517,1931,813,58.4183,-2.33008
714,211,58.4021,3.28021,0.00210907,0.00115464,-0.000101756,0.00211979,0.00114392,-0.105042,0.00122514,0.0234947,1938,813,58.4021,-3.28023
721,211,58.3348,4.16718,0.00335538,0.0017707,0.00063919,0.00358106,0.00154502,0.339411,0.00207399,0.0193557,1945,813,58.3348,-4.16718
728,211,58.295,5.11493,0.00488521,0.00216301,0.00142532,0.00549493,0.00155329,0.404221,0.00327087,0.0205152,1952,813,58.295,-5.11494
735,211,58.37,6.09418,0.00670238,0.00222327,0.00223784,0.00762882,0.00129683,0.392508,0.00471345,0.0377677,1959,813,58.37,-6.0942
742,211,58.5903,7.03992,0,0,0,0,0,0,0,-1,1966,813,58.5903,-7.03991
749,211,58.2174,7.58356,0,0,0,0,0,0,0,-1,1973,813,58.2174,-7.58358
756,211,58.7476,7.14038,0,0,0,0,0,0,0,-1,1980,813,58.7476,-7.14036
763,211,58.3169,7.26605,0,0,0,0,0,0,0,-1,1987,813,58.3169,-7.26605
770,211,46.2148,12.9099,0,0,0,0,0,0,0,-1,1994,813,46.2148,-12.9099
777,211,0,0,0,0,0,0,0,0,0,-1,2001,813,0,0
784,211,0,0,0,0,0,0,0,0,0,-1,2008,813,0,0
791,211,0,0,0,0,0,0,0,0,0,-1,2015,813,0,0
798,211,0,0,0,0,0,0,0,0,0,-1,2022,813,0,0
805,211,0,0,0,0,0,0,0,0,0,-1,2029,813,0,0
812,211,0,0,0,0,0,0,0,0,0,-1,2036,813,0,0
-700,204,0,0,0,0,0,0,0,0,0,-1,524,820,0,0
-693,204,0,0,0,0,0,0,0,0,0,-1,531,820,0,0
-686,204,0,0,0,0,0,0,0,0,0,-1,538,820,0,0
-679,204,0,0,0,0,0,0,0,0,0,-1,545,820,0,0
-672,204,0,0,0,0,0,0,0,0,0,-1,552,820,0,0
-665,204,0,0,0,0,0,0,0,0,0,-1,559,820,0,0
-658,204,0,0,0,0,0,0,0,0,0,-1,566,820,0,0
-651,204,-40.064,5.25806,0,0,0,0,0,0,0,-1,573,820,-40.064,-5.25806
-644,204,-40.4117,4.54321,0,0,0,0,0,0,0,-1,580,820,-40.4117,-4.54323
-637,204,-40.8671,3.93817,0,0,0,0,0,0,0,-1,587,820,-40.8671,-3.93819
-630,204,-41.7101,3.04382,0,0,0,0,0,0,0,-1,594,820,-41.7101,-3.04383
-623,204,-41.8597,2.11951,0,0,0,0,0,0,0,-1,601,820,-41.8597,-2.11951
-616,204,-43.2059,6.95795,0,0,0,0,0,0,0,-1,608,820,-43.2059,-6.95798
-609,204,-43.2387,5.97479,-0.00238355,0.00895859,-0.00373196,0.0100764,-0.00350133,-1.27978,0.0081397,0.0394128,615,820,-43.2387,-5.97478
-602,204,-43.4081,5.01428,-0.00203845,0.00677743,-0.00253727,0.00745552,-0.00271653,-1.30965,0.00608157,0.0208947,622,820,-43.4082,-5.01426
-595,204,-43.5336,4.07745,-0.0013399,0.0050575,-0.00174893,0.00550441,-0.00178681,-1.32062,0.00438819,0.0172199,629,820,-43.5336,-4.07745
-588,204,-43.619,3.12097,-0.000531047,0.00401241,-0.0010542,0.0042451,-0.000763732,-1.35356,0.003116,0.0151435,636,820,-43.619,-3.12099
-581,204,-43.6876,2.18768,0.000308424,0.00334161,-0.000349391,0.00338133,0.000268698,-1.45758,0.00217021,0.0143117,643,820,-43.6876,-2.18766
-574,204,-43.7127,1.25928,0.000973396,0.00302591,0.000266183,0.00305987,0.000939437,1.44391,0.00180995,0.014549,650,820,-43.7127,-1.25927
-567,204,-43.7621,0.357483,0.000811758,0.00317357,0.000687084,0.0033589,0.000626419,1.30732,0.00206242,0.0157536,657,820,-43.7621,-0.357495
-560,204,-43.5996,-0.644653,-0.00126939,0.0037043,0.000657916,0.00378986,-0.00135495,1.44148,0.00307925,0.0391377,664,820,-43.5996,0.644657
-553,204,-43.9327,-1.60913,0,0,0,0,0,0,0,-1,671,820,-43.9328,1.60912
-546,204,-43.8798,-2.74695,0,0,0,0,0,0,0,-1,678,820,-43.8798,2.74694
-539,204,-44.0569,-3.25586,0,0,0,0,0,0,0,-1,685,820,-44.0569,3.25588
-532,204,-30.0565,-3.29065,0,0,0,0,0,0,0,-1,692,820,-30.0565,3.29063
-525,204,-25.7137,1.52496,0,0,0,0,0,0,0,-1,699,820,-25.7137,-1.52496
-518,204,-43.4591,0.383972,0,0,0,0,0,0,0,-1,706,820,-43.4591,-0.383942
-511,204,-61.3691,1.49664,0,0,0,0,0,0,0,-1,713,820,-61.3691,-1.49666
-504,204,-61.6325,1.13123,-0.00682933,0.00835811,-0.00244871,0.00874316,-0.00721438,-1.41483,0.00922717,0.0470063,720,820,-61.6325,-1.13123
-497,204,-61.9115,0.720947,-0.00479625,0.0080758,-0.00308831,0.0087784,-0.00549886,-1.3471,0.00831515,0.0355624,727,820,-61.9115,-0.720926
-490,204,-62.0562,0.549561,-0.00036334,0.00733474,-0.00395536,0.00900475,-0.00203335,-1.17129,0.00678331,0.0320998,734,820,-62.0562,-0.549555
-483,204,-62.0064,0.623047,0.00854299,0.00520008,-0.00407306,0.0112742,0.00246886,-0.590692,0.00684328,0.0389736,741,820,-62.0064,-0.62306
-476,204,0,0,0,0,0,0,0,0,0,-1,748,820,0,0
-469,204,0,0,0,0,0,0,0,0,0,-1,755,820,0,0
-462,204,0,0,0,0,0,0,0,0,0,-1,762,820,0,0
-455,204,0,0,0,0,0,0,0,0,0,-1,769,820,0,0
-448,204,0,0,0,0,0,0,0,0,0,-1,776,820,0,0
-441,204,0,0,0,0,0,0,0,0,0,-1,783,820,0,0
-434,204,0,0,0,0,0,0,0,0,0,-1,790,820,0,0
-427,204,0,0,0,0,0,0,0,0,0,-1,797,820,0,0
-420,204,0,0,0,0,0,0,0,0,0,-1,804,820,0,0
-413,204,0,0,0,0,0,0,0,0,0,-1,811,820,0,0
-406,204,0,0,0,0,0,0,0,0,0,-1,818,820,0,0
-399,204,0,0,0,0,0,0,0,0,0,-1,825,820,0,0
-392,204,0,0,0,0,0,0,0,0,0,-1,832,820,0,0
-385,204,0,0,0,0,0,0,0,0,0,-1,839,820,0,0
-378,204,0,0,0,0,0,0,0,0,0,-1,846,820,0,0
-371,204,0,0,0,0,0,0,0,0,0,-1,853,820,0,0
-364,204,0,0,0,0,0,0,0,0,0,-1,860,820,0,0
-357,204,0,0,0,0,0,0,0,0,0,-1,867,820,0,0
-350,204,0,0,0,0,0,0,0,0,0,-1,874,820,0,0
-343,204,0,0,0,0,0,0,0,0,0,-1,881,820,0,0
-336,204,0,0,0,0,0,0,0,0,0,-1,888,820,0,0
-329,204,0,0,0,0,0,0,0,0,0,-1,895,820,0,0
-322,204,0,0,0,0,0,0,0,0,0,-1,902,820,0,0
-315,204,0,0,0,0,0,0,0,0,0,-1,909,820,0,0
-308,204,0,0,0,0,0,0,0,0,0,-1,916,820,0,0
-301,204,0,0,0,0,0,0,0,0,0,-1,923,820,0,0
-294,204,0,0,0,0,0,0,0,0,0,-1,930,820,0,0
-287,204,0,0,0,0,0,0,0,0,0,-1,937,820,0,0
-280,204,0,0,0,0,0,0,0,0,0,-1,944,820,0,0
-273,204,0,0,0,0,0,0,0,0,0,-1,951,820,0,0
-266,204,0,0,0,0,0,0,0,0,0,-1,958,820,0,0
-259,204,0,0,0,0,0,0,0,0,0,-1,965,820,0,0
-252,204,0,0,0,0,0,0,0,0,0,-1,972,820,0,0
-245,204,0,0,0,0,0,0,0,0,0,-1,979,820,0,0
-238,204,0,0,0,0,0,0,0,0,0,-1,986,820,0,0
-231,204,0,0,0,0,0,0,0,0,0,-1,993,820,0,0
-224,204,0,0,0,0,0,0,0,0,0,-1,1000,820,0,0
-217,204,0,0,0,0,0,0,0,0,0,-1,1007,820,0,0
-210,204,0,0,0,0,0,0,0,0,0,-1,1014,820,0,0
-203,204,0,0,0,0,0,0,0,0,0,-1,1021,820,0,0
-196,204,0,0,0,0,0,0,0,0,0,-1,1028,820,0,0
-189,204,0,0,0,0,0,0,0,0,0,-1,1035,820,0,0
-182,204,0,0,0,0,0,0,0,0,0,-1,1042,820,0,0
-175,204,0,0,0,0,0,0,0,0,0,-1,1049,820,0,0
-168,204,0,0,0,0,0,0,0,0,0,-1,1056,820,0,0
-161,204,0,0,0,0,0,0,0,0,0,-1,1063,820,0,0
-154,204,0,0,0,0,0,0,0,0,0,-1,1070,820,0,0
-147,204,0,0,0,0,0,0,0,0,0,-1,1077,820,0,0
-140,204,0,0,0,0,0,0,0,0,0,-1,1084,820,0,0
-133,204,0,0,0,0,0,0,0,0,0,-1,1091,820,0,0
-126,204,0,0,0,0,0,0,0,0,0,-1,1098,820,0,0
-119,204,0,0,0,0,0,0,0,0,0,-1,1105,820,0,0
-112,204,0,0,0,0,0,0,0,0,0,-1,1112,820,0,0
-105,204,0,0,0,0,0,0,0,0,0,-1,1119,820,0,0
-98,204,0,0,0,0,0,0,0,0,0,-1,1126,820,0,0
-91,204,0,0,0,0,0,0,0,0,0,-1,1133,820,0,0
-84,204,0,0,0,0,0,0,0,0,0,-1,1140,820,0,0
-77,204,0,0,0,0,0,0,0,0,0,-1,1147,820,0,0
-70,204,0,0,0,0,0,0,0,0,0,-1,1154,820,0,0
-63,204,0,0,0,0,0,0,0,0,0,-1,1161,820,0,0
-56,204,0,0,0,0,0,0,0,0,0,-1,1168,820,0,0
-49,204,0,0,0,0,0,0,0,0,0,-1,1175,820,0,0
-42,204,0,0,0,0,0,0,0,0,0,-1,1182,820,0,0
-35,204,0,0,0,0,0,0,0,0,0,-1,1189,820,0,0
-28,204,0,0,0,0,0,0,0,0,0,-1,1196,820,0,0
-21,204,0,0,0,0,0,0,0,0,0,-1,1203,820,0,0
-14,204,0,0,0,0,0,0,0,0,0,-1,1210,820,0,0
-7,204,0,0,0,0,0,0,0,0,0,-1,1217,820,0,0
0,204,0,0,0,0,0,0,0,0,0,-1,1224,820,0,0
7,204,0,0,0,0,0,0,0,0,0,-1,1231,820,0,0
14,204,0,0,0,0,0,0,0,0,0,-1,1238,820,0,0
21,204,0,0,0,0,0,0,0,0,0,-1,1245,820,0,0
28,204,0,0,0,0,0,0,0,0,0,-1,1252,820,0,0
35,204,0,0,0,0,0,0,0,0,0,-1,1259,820,0,0
42,204,0,0,0,0,0,0,0,0,0,-1,1266,820,0,0
49,204,0,0,0,0,0,0,0,0,0,-1,1273,820,0,0
56,204,0,0,0,0,0,0,0,0,0,-1,1280,820,0,0
63,204,0,0,0,0,0,0,0,0,0,-1,1287,820,0,0
70,204,0,0,0,0,0,0,0,0,0,-1,1294,820,0,0
77,204,0,0,0,0,0,0,0,0,0,-1,1301,820,0,0
84,204,0,0,0,0,0,0,0,0,0,-1,1308,820,0,0
91,204,0,0,0,0,0,0,0,0,0,-1,1315,820,0,0
98,204,0,0,0,0,0,0,0,0,0,-1,1322,820,0,0
105,204,0,0,0,0,0,0,0,0,0,-1,1329,820,0,0
112,204,0,0,0,0,0,0,0,0,0,-1,1336,820,0,0
119,204,0,0,0,0,0,0,0,0,0,-1,1343,820,0,0
126,204,0,0,0,0,0,0,0,0,0,-1,1350,820,0,0
133,204,0,0,0,0,0,0,0,0,0,-1,1357,820,0,0
140,204,0,0,0,0,0,0,0,0,0,-1,1364,820,0,0
147,204,0,0,0,0,0,0,0,0,0,-1,1371,820,0,0
154,204,0,0,0,0,0,0,0,0,0,-1,1378,820,0,0
161,204,0,0,0,0,0,0,0,0,0,-1,1385,820,0,0
168,204,0,0,0,0,0,0,0,0,0,-1,1392,820,0,0
175,204,0,0,0,0,0,0,0,0,0,-1,1399,820,0,0
182,204,0,0,0,0,0,0,0,0,0,-1,1406,820,0,0
189,204,0,0,0,0,0,0,0,0,0,-1,1413,820,0,0
196,204,0,0,0,0,0,0,0,0,0,-1,1420,820,0,0
203,204,0,0,0,0,0,0,0,0,0,-1,1427,820,0,0
210,204,0,0,0,0,0,0,0,0,0,-1,1434,820,0,0
217,204,0,0,0,0,0,0,0,0,0,-1,1441,820,0,0
224,204,0,0,0,0,0,0,0,0,0,-1,1448,820,0,0
231,204,0,0,0,0,0,0,0,0,0,-1,1455,820,0,0
238,204,0,0,0,0,0,0,0,0,0,-1,1462,820,0,0
245,204,0,0,0,0,0,0,0,0,0,-1,1469,820,0,0
252,204,0,0,0,0,0,0,0,0,0,-1,1476,820,0,0
259,204,0,0,0,0,0,0,0,0,0,-1,1483,820,0,0
266,204,0,0,0,0,0,0,0,0,0,-1,1490,820,0,0
273,204,0,0,0,0,0,0,0,0,0,-1,1497,820,0,0
280,204,0,0,0,0,0,0,0,0,0,-1,1504,820,0,0
287,204,0,0,0,0,0,0,0,0,0,-1,1511,820,0,0
294,204,0,0,0,0,0,0,0,0,0,-1,1518,820,0,0
301,204,0,0,0,0,0,0,0,0,0,-1,1525,820,0,0
308,204,0,0,0,0,0,0,0,0,0,-1,1532,820,0,0
315,204,0,0,0,0,0,0,0,0,0,-1,1539,820,0,0
322,204,0,0,0,0,0,0,0,0,0,-1,1546,820,0,0
329,204,0,0,0,0,0,0,0,0,0,-1,1553,820,0,0
336,204,0,0,0,0,0,0,0,0,0,-1,1560,820,0,0
343,204,0,0,0,0,0,0,0,0,0,-1,1567,820,0,0
350,204,0,0,0,0,0,0,0,0,0,-1,1574,820,0,0
357,204,0,0,0,0,0,0,0,0,0,-1,1581,820,0,0
364,204,0,0,0,0,0,0,0,0,0,-1,1588,820,0,0
371,204,0,0,0,0,0,0,0,0,0,-1,1595,820,0,0
378,204,0,0,0,0,0,0,0,0,0,-1,1602,820,0,0
385,204,0,0,0,0,0,0,0,0,0,-1,1609,820,0,0
392,204,0,0,0,0,0,0,0,0,0,-1,1616,820,0,0
399,204,0,0,0,0,0,0,0,0,0,-1,1623,820,0,0
406,204,0,0,0,0,0,0,0,0,0,-1,1630,820,0,0
413,204,0,0,0,0,0,0,0,0,0,-1,1637,820,0,0
420,204,0,0,0,0,0,0,0,0,0,-1,1644,820,0,0
427,204,0,0,0,0,0,0,0,0,0,-1,1651,820,0,0
434,204,0,0,0,0,0,0,0,0,0,-1,1658,820,0,0
441,204,0,0,0,0,0,0,0,0,0,-1,1665,820,0,0
448,204,0,0,0,0,0,0,0,0,0,-1,1672,820,0,0
455,204,0,0,0,0,0,0,0,0,0,-1,1679,820,0,0
462,204,0,0,0,0,0,0,0,0,0,-1,1686,820,0,0
469,204,0,0,0,0,0,0,0,0,0,-1,1693,820,0,0
476,204,0,0,0,0,0,0,0,0,0,-1,1700,820,0,0
483,204,0,0,0,0,0,0,0,0,0,-1,1707,820,0,0
490,204,0,0,0,0,0,0,0,0,0,-1,1714,820,0,0
497,204,0,0,0,0,0,0,0,0,0,-1,1721,820,0,0
504,204,0,0,0,0,0,0,0,0,0,-1,1728,820,0,0
511,204,0,0,0,0,0,0,0,0,0,-1,1735,820,0,0
518,204,0,0,0,0,0,0,0,0,0,-1,1742,820,0,0
525,204,0,0,0,0,0,0,0,0,0,-1,1749,820,0,0
532,204,0,0,0,0,0,0,0,0,0,-1,1756,820,0,0
539,204,0,0,0,0,0,0,0,0,0,-1,1763,820,0,0
546,204,0,0,0,0,0,0,0,0,0,-1,1770,820,0,0
553,204,0,0,0,0,0,0,0,0,0,-1,1777,820,0,0
560,204,0,0,0,0,0,0,0,0,0,-1,1784,820,0,0
567,204,0,0,0,0,0,0,0,0,0,-1,1791,820,0,0
574,204,0,0,0,0,0,0,0,0,0,-1,1798,820,0,0
581,204,0,0,0,0,0,0,0,0,0,-1,1805,820,0,0
588,204,0,0,0,0,0,0,0,0,0,-1,1812,820,0,0
595,204,0,0,0,0,0,0,0,0,0,-1,1819,820,0,0
602,204,78.0546,2.52515,0.00347976,0.000364864,0.0010712,0.00381258,3.20469e-05,0.301242,0.00253111,0.0364474,1826,820,78.0545,-2.52512
609,204,78.0586,2.60712,0.00163122,0.00121862,0.00095324,0.00240023,0.000449609,0.678831,0.00147333,0.0394702,1833,820,78.0585,-2.60713
616,204,78.0624,2.60834,-7.46709e-06,0.00195404,0.000686463,0.00217042,-0.000223839,1.26546,0.00152704,0.0378541,1840,820,78.0624,-2.60831
623,204,78.005,2.53821,-0.00085116,0.00229221,0.000521608,0.0023765,-0.000935455,1.41058,0.00197157,0.029159,1847,820,78.005,-2.53819
630,204,77.9592,2.5553,-0.000965741,0.00215166,0.000660124,0.00228568,-0.00109976,1.37049,0.00199416,0.0282164,1854,820,77.9593,-2.55531
637,204,77.9457,2.62445,-0.000709001,0.001802,0.000679812,0.00197423,-0.000881236,1.32266,0.00168838,0.0417972,1861,820,77.9457,-2.62443
644,204,77.9341,2.67542,0,0,0,0,0,0,0,-1,1868,820,77.9341,-2.67544
651,204,53.7611,2.32251,0,0,0,0,0,0,0,-1,1875,820,53.7611,-2.32249
658,204,34.9631,1.64844,0,0,0,0,0,0,0,-1,1882,820,34.9631,-1.64842
665,204,21.8292,1.51099,0,0,0,0,0,0,0,-1,1889,820,21.8292,-1.51099
672,204,59.7957,-2.06982,0,0,0,0,0,0,0,-1,1896,820,59.7957,2.06985
679,204,59.7703,-1.22491,0,0,0,0,0,0,0,-1,1903,820,59.7703,1.22494
686,204,59.58,-0.367737,0,0,0,0,0,0,0,-1,1910,820,59.58,0.367757
693,204,59.3293,0.490295,-0.000145729,-0.000914383,-0.00164933,0.00116346,-0.00222357,-0.67093,0.00198717,0.03218,1917,820,59.3293,-0.490299
700,204,59.3884,1.45581,-2.33474e-05,-0.000693611,-0.00167653,0.00135122,-0.00206817,-0.68675,0.0019886,0.0182402,1924,820,59.3884,-1.45578
707,204,59.351,2.39874,0.00050355,-0.00015334,-0.00133309,0.00154806,-0.00119785,-0.664615,0.00158965,0.016316,1931,820,59.351,-2.39876
714,204,59.3188,3.38171,0.0015588,0.000667232,-0.000682851,0.00192849,0.000297534,-0.496219,0.00119885,0.0258585,1938,820,59.3188,-3.38172
721,204,59.243,4.27686,0.00284736,0.00132064,6.43916e-05,0.00285008,0.00131793,0.0420768,0.00164704,0.0241446,1945,820,59.243,-4.27683
728,204,59.183,5.14087,0.00439543,0.00174898,0.000855499,0.00464789,0.00149651,0.286965,0.00273957,0.015474,1952,820,59.183,-5.14084
735,204,59.0823,6.06329,0.00619677,0.00186857,0.00164972,0.00675386,0.00131148,0.325668,0.00413533,0.0183731,1959,820,59.0823,-6.0633
742,204,59.0369,6.8891,0.00839367,0.00157593,0.00253202,0.00923115,0.000738452,0.31943,0.00592332,0.0345931,1966,820,59.0369,-6.88912
749,204,59.051,7.63556,0.0113755,0.000234123,0.00319666,0.0122275,-0.0006179,0.26048,0.00836523,0.0494766,1973,820,59.0511,-7.63556
756,204,59.0189,8.37628,0,0,0,0,0,0,0,-1,1980,820,59.019,-8.37631
763,204,59.1024,8.24115,0,0,0,0,0,0,0,-1,1987,820,59.1024,-8.24117
770,204,53.3718,8.26947,0,0,0,0,0,0,0,-1,1994,820,53.3718,-8.26946
777,204,0,0,0,0,0,0,0,0,0,-1,2001,820,0,0
784,204,0,0,0,0,0,0,0,0,0,-1,2008,820,0,0
791,204,0,0,0,0,0,0,0,0,0,-1,2015,820,0,0
798,204,0,0,0,0,0,0,0,0,0,-1,2022,820,0,0
805,204,0,0,0,0,0,0,0,0,0,-1,2029,820,0,0
812,204,0,0,0,0,0,0,0,0,0,-1,2036,820,0,0
-700,197,0,0,0,0,0,0,0,0,0,-1,524,827,0,0
-693,197,0,0,0,0,0,0,0,0,0,-1,531,827,0,0
-686,197,0,0,0,0,0,0,0,0,0,-1,538,827,0,0
-679,197,0,0,0,0,0,0,0,0,0,-1,545,827,0,0
-672,197,0,0,0,0,0,0,0,0,0,-1,552,827,0,0
-665,197,0,0,0,0,0,0,0,0,0,-1,559,827,0,0
-658,197,-39.9774,5.66638,0,0,0,0,0,0,0,-1,566,827,-39.9774,-5.66637
-651,197,-39.9665,5.23578,0,0,0,0,0,0,0,-1,573,827,-39.9665,-5.23575
-644,197,-38.9225,4.75665,0,0,0,0,0,0,0,-1,580,827,-38.9225,-4.75665
-637,197,-45.2572,7.41498,0,0,0,0,0,0,0,-1,587,827,-45.2572,-7.415
-630,197,-40.4908,2.45648,0,0,0,0,0,0,0,-1,594,827,-40.4908,-2.45649
-623,197,-43.6929,7.67633,0,0,0,0,0,0,0,-1,601,827,-43.6929,-7.67635
-616,197,-44.6628,7.15527,0,0,0,0,0,0,0,-1,608,827,-44.6628,-7.15526
-609,197,-44.2841,5.99268,-0.0012534,0.00812372,-0.00332168,0.00918113,-0.00231081,-1.2626,0.00701898,0.036196,615,827,-44.284,-5.99267
-602,197,-44.3215,5.03809,-0.00126484,0.00615096,-0.00200951,0.00666048,-0.00177436,-1.32247,0.005135,0.0222454,622,827,-44.3215,-5.03809
-595,197,-44.4843,4.15314,-0.000939271,0.00461981,-0.00108881,0.00482546,-0.00114492,-1.38412,0.00365882,0.0190832,629,827,-44.4843,-4.15315
-588,197,-44.5491,3.17456,-0.000468953,0.00361532,-0.000339352,0.00364333,-0.000496957,-1.48846,0.00261035,0.0216696,636,827,-44.5491,-3.17455
-581,197,-44.6277,2.23193,0.000124245,0.00295844,0.000333862,0.00299724,8.54473e-05,1.45511,0.00197029,0.0130365,643,827,-44.6277,-2.23193
-574,197,-44.6541,1.3208,0.000571393,0.00261835,0.000845508,0.00292242,0.00026732,1.22557,0.00186557,0.0145457,650,827,-44.6541,-1.32078
-567,197,-44.5845,0.448364,0.000218949,0.00276892,0.00110224,0.00317932,-0.000191451,1.21437,0.00218616,0.0218937,657,827,-44.5845,-0.448374
-560,197,-44.5303,-0.656799,0,0,0,0,0,0,0,-1,664,827,-44.5303,0.656776
-553,197,-33.1771,-1.4881,0,0,0,0,0,0,0,-1,671,827,-33.1771,1.4881
-546,197,-44.9609,-2.50073,0,0,0,0,0,0,0,-1,678,827,-44.9609,2.50075
-539,197,-32.8993,-2.61737,0,0,0,0,0,0,0,-1,685,827,-32.8993,2.61737
-532,197,-16.0519,0.0410156,0,0,0,0,0,0,0,-1,692,827,-16.0519,-0.0410415
-525,197,-35.3785,2.11829,0,0,0,0,0,0,0,-1,699,827,-35.3785,-2.11826
-518,197,-57.6698,0.308533,0,0,0,0,0,0,0,-1,706,827,-57.6698,-0.308561
-511,197,-61.5787,1.20062,0,0,0,0,0,0,0,-1,713,827,-61.5787,-1.20063
-504,197,-61.8022,1.00903,-0.00753479,0.00820319,-0.00246739,0.00858096,-0.00791256,-1.41887,0.00952514,0.0380358,720,827,-61.8023,-1.00901
-497,197,-61.9945,0.783203,-0.00470714,0.00770676,-0.00335463,0.00855528,-0.00555567,-1.32305,0.00820809,0.0363531,727,827,-61.9945,-0.783188
-490,197,-62.1572,0.621704,0.00238168,0.00664902,-0.00447216,0.00947043,-0.000439729,-1.00798,0.00646518,0.0353674,734,827,-62.1572,-0.621714
-483,197,-61.957,0.803467,0.0161604,0.00343095,-0.00469221,0.017703,0.0018883,-0.317637,0.0112256,0.0405274,741,827,-61.957,-0.80349
-476,197,0,0,0,0,0,0,0,0,0,-1,748,827,0,0
-469,197,0,0,0,0,0,0,0,0,0,-1,755,827,0,0
-462,197,0,0,0,0,0,0,0,0,0,-1,762,827,0,0
-455,197,0,0,0,0,0,0,0,0,0,-1,769,827,0,0
-448,197,0,0,0,0,0,0,0,0,0,-1,776,827,0,0
-441,197,0,0,0,0,0,0,0,0,0,-1,783,827,0,0
-434,197,0,0,0,0,0,0,0,0,0,-1,790,827,0,0
-427,197,0,0,0,0,0,0,0,0,0,-1,797,827,0,0
-420,197,0,0,0,0,0,0,0,0,0,-1,804,827,0,0
-413,197,0,0,0,0,0,0,0,0,0,-1,811,827,0,0
-406,197,0,0,0,0,0,0,0,0,0,-1,818,827,0,0
-399,197,0,0,0,0,0,0,0,0,0,-1,825,827,0,0
-392,197,0,0,0,0,0,0,0,0,0,-1,832,827,0,0
-385,197,0,0,0,0,0,0,0,0,0,-1,839,827,0,0
-378,197,0,0,0,0,0,0,0,0,0,-1,846,827,0,0
-371,197,0,0,0,0,0,0,0,0,0,-1,853,827,0,0
-364,197,0,0,0,0,0,0,0,0,0,-1,860,827,0,0
-357,197,0,0,0,0,0,0,0,0,0,-1,867,827,0,0
-350,197,0,0,0,0,0,0,0,0,0,-1,874,827,0,0
-343,197,0,0,0,0,0,0,0,0,0,-1,881,827,0,0
-336,197,0,0,0,0,0,0,0,0,0,-1,888,827,0,0
-329,197,0,0,0,0,0,0,0,0,0,-1,895,827,0,0
-322,197,0,0,0,0,0,0,0,0,0,-1,902,827,0,0
-315,197,0,0,0,0,0,0,0,0,0,-1,909,827,0,0
-308,197,0,0,0,0,0,0,0,0,0,-1,916,827,0,0
-301,197,0,0,0,0,0,0,0,0,0,-1,923,827,0,0
-294,197,0,0,0,0,0,0,0,0,0,-1,930,827,0,0
-287,197,0,0,0,0,0,0,0,0,0,-1,937,827,0,0
-280,197,0,0,0,0,0,0,0,0,0,-1,944,827,0,0
-273,197,0,0,0,0,0,0,0,0,0,-1,951,827,0,0
-266,197,0,0,0,0,0,0,0,0,0,-1,958,827,0,0
-259,197,0,0,0,0,0,0,0,0,0,-1,965,827,0,0
-252,197,0,0,0,0,0,0,0,0,0,-1,972,827,0,0
-245,197,0,0,0,0,0,0,0,0,0,-1,979,827,0,0
-238,197,0,0,0,0,0,0,0,0,0,-1,986,827,0,0
-231,197,0,0,0,0,0,0,0,0,0,-1,993,827,0,0
-224,197,0,0,0,0,0,0,0,0,0,-1,1000,827,0,0
-217,197,0,0,0,0,0,0,0,0,0,-1,1007,827,0,0
-210,197,0,0,0,0,0,0,0,0,0,-1,1014,827,0,0
-203,197,0,0,0,0,0,0,0,0,0,-1,1021,827,0,0
-196,197,0,0,0,0,0,0,0,0,0,-1,1028,827,0,0
-189,197,0,0,0,0,0,0,0,0,0,-1,1035,827,0,0
-182,197,0,0,0,0,0,0,0,0,0,-1,1042,827,0,0
-175,197,0,0,0,0,0,0,0,0,0,-1,1049,827,0,0
-168,197,0,0,0,0,0,0,0,0,0,-1,1056,827,0,0
-161,197,0,0,0,0,0,0,0,0,0,-1,1063,827,0,0
-154,197,0,0,0,0,0,0,0,0,0,-1,1070,827,0,0
-147,197,0,0,0,0,0,0,0,0,0,-1,1077,827,0,0
-140,197,0,0,0,0,0,0,0,0,0,-1,1084,827,0,0
-133,197,0,0,0,0,0,0,0,0,0,-1,1091,827,0,0
-126,197,0,0,0,0,0,0,0,0,0,-1,1098,827,0,0
-119,197,0,0,0,0,0,0,0,0,0,-1,1105,827,0,0
-112,197,0,0,0,0,0,0,0,0,0,-1,1112,827,0,0
-105,197,0,0,0,0,0,0,0,0,0,-1,1119,827,0,0
-98,197,0,0,0,0,0,0,0,0,0,-1,1126,827,0,0
-91,197,0,0,0,0,0,0,0,0,0,-1,1133,827,0,0
-84,197,0,0,0,0,0,0,0,0,0,-1,1140,827,0,0
-77,197,0,0,0,0,0,0,0,0,0,-1,1147,827,0,0
-70,197,0,0,0,0,0,0,0,0,0,-1,1154,827,0,0
-63,197,0,0,0,0,0,0,0,0,0,-1,1161,827,0,0
-56,197,0,0,0,0,0,0,0,0,0,-1,1168,827,0,0
-49,197,0,0,0,0,0,0,0,0,0,-1,1175,827,0,0
-42,197,0,0,0,0,0,0,0,0,0,-1,1182,827,0,0
-35,197,0,0,0,0,0,0,0,0,0,-1,1189,827,0,0
-28,197,0,0,0,0,0,0,0,0,0,-1,1196,827,0,0
-21,197,0,0,0,0,0,0,0,0,0,-1,1203,827,0,0
-14,197,0,0,0,0,0,0,0,0,0,-1,1210,827,0,0
-7,197,0,0,0,0,0,0,0,0,0,-1,1217,827,0,0
0,197,0,0,0,0,0,0,0,0,0,-1,1224,827,0,0
7,197,0,0,0,0,0,0,0,0,0,-1,1231,827,0,0
14,197,0,0,0,0,0,0,0,0,0,-1,1238,827,0,0
21,197,0,0,0,0,0,0,0,0,0,-1,1245,827,0,0
28,197,0,0,0,0,0,0,0,0,0,-1,1252,827,0,0
35,197,0,0,0,0,0,0,0,0,0,-1,1259,827,0,0
42,197,0,0,0,0,0,0,0,0,0,-1,1266,827,0,0
49,197,0,0,0,0,0,0,0,0,0,-1,1273,827,0,0
56,197,0,0,0,0,0,0,0,0,0,-1,1280,827,0,0
63,197,0,0,0,0,0,0,0,0,0,-1,1287,827,0,0
70,197,0,0,0,0,0,0,0,0,0,-1,1294,827,0,0
77,197,0,0,0,0,0,0,0,0,0,-1,1301,827,0,0
84,197,0,0,0,0,0,0,0,0,0,-1,1308,827,0,0
91,197,0,0,0,0,0,0,0,0,0,-1,1315,827,0,0
98,197,0,0,0,0,0,0,0,0,0,-1,1322,827,0,0
105,197,0,0,0,0,0,0,0,0,0,-1,1329,827,0,0
112,197,0,0,0,0,0,0,0,0,0,-1,1336,827,0,0
119,197,0,0,0,0,0,0,0,0,0,-1,1343,827,0,0
126,197,0,0,0,0,0,0,0,0,0,-1,1350,827,0,0
133,197,0,0,0,0,0,0,0,0,0,-1,1357,827,0,0
140,197,0,0,0,0,0,0,0,0,0,-1,1364,827,0,0
147,197,0,0,0,0,0,0,0,0,0,-1,1371,827,0,0
154,197,0,0,0,0,0,0,0,0,0,-1,1378,827,0,0
161,197,0,0,0,0,0,0,0,0,0,-1,1385,827,0,0
168,197,0,0,0,0,0,0,0,0,0,-1,1392,827,0,0
175,197,0,0,0,0,0,0,0,0,0,-1,1399,827,0,0
182,197,0,0,0,0,0,0,0,0,0,-1,1406,827,0,0
189,197,0,0,0,0,0,0,0,0,0,-1,1413,827,0,0
196,197,0,0,0,0,0,0,0,0,0,-1,1420,827,0,0
203,197,0,0,0,0,0,0,0,0,0,-1,1427,827,0,0
210,197,0,0,0,0,0,0,0,0,0,-1,1434,827,0,0
217,197,0,0,0,0,0,0,0,0,0,-1,1441,827,0,0
224,197,0,0,0,0,0,0,0,0,0,-1,1448,827,0,0
231,197,0,0,0,0,0,0,0,0,0,-1,1455,827,0,0
238,197,0,0,0,0,0,0,0,0,0,-1,1462,827,0,0
245,197,0,0,0,0,0,0,0,0,0,-1,1469,827,0,0
252,197,0,0,0,0,0,0,0,0,0,-1,1476,827,0,0
259,197,0,0,0,0,0,0,0,0,0,-1,1483,827,0,0
266,197,0,0,0,0,0,0,0,0,0,-1,1490,827,0,0
273,197,0,0,0,0,0,0,0,0,0,-1,1497,827,0,0
280,197,0,0,0,0,0,0,0,0,0,-1,1504,827,0,0
287,197,0,0,0,0,0,0,0,0,0,-1,1511,827,0,0
294,197,0,0,0,0,0,0,0,0,0,-1,1518,827,0,0
301,197,0,0,0,0,0,0,0,0,0,-1,1525,827,0,0
308,197,0,0,0,0,0,0,0,0,0,-1,1532,827,0,0
315,197,0,0,0,0,0,0,0,0,0,-1,1539,827,0,0
322,197,0,0,0,0,0,0,0,0,0,-1,1546,827,0,0
329,197,0,0,0,0,0,0,0,0,0,-1,1553,827,0,0
336,197,0,0,0,0,0,0,0,0,0,-1,1560,827,0,0
343,197,0,0,0,0,0,0,0,0,0,-1,1567,827,0,0
350,197,0,0,0,0,0,0,0,0,0,-1,1574,827,0,0
357,197,0,0,0,0,0,0,0,0,0,-1,1581,827,0,0
364,197,0,0,0,0,0,0,0,0,0,-1,1588,827,0,0
371,197,0,0,0,0,0,0,0,0,0,-1,1595,827,0,0
378,197,0,0,0,0,0,0,0,0,0,-1,1602,827,0,0
385,197,0,0,0,0,0,0,0,0,0,-1,1609,827,0,0
392,197,0,0,0,0,0,0,0,0,0,-1,1616,827,0,0
399,197,0,0,0,0,0,0,0,0,0,-1,1623,827,0,0
406,197,0,0,0,0,0,0,0,0,0,-1,1630,827,0,0
413,197,0,0,0,0,0,0,0,0,0,-1,1637,827,0,0
420,197,0,0,0,0,0,0,0,0,0,-1,1644,827,0,0
427,197,0,0,0,0,0,0,0,0,0,-1,1651,827,0,0
434,197,0,0,0,0,0,0,0,0,0,-1,1658,827,0,0
441,197,0,0,0,0,0,0,0,0,0,-1,1665,827,0,0
448,197,0,0,0,0,0,0,0,0,0,-1,1672,827,0,0
455,197,0,0,0,0,0,0,0,0,0,-1,1679,827,0,0
462,197,0,0,0,0,0,0,0,0,0,-1,1686,827,0,0
469,197,0,0,0,0,0,0,0,0,0,-1,1693,827,0,0
476,197,0,0,0,0,0,0,0,0,0,-1,1700,827,0,0
483,197,0,0,0,0,0,0,0,0,0,-1,1707,827,0,0
490,197,0,0,0,0,0,0,0,0,0,-1,1714,827,0,0
497,197,0,0,0,0,0,0,0,0,0,-1,1721,827,0,0
504,197,0,0,0,0,0,0,0,0,0,-1,1728,827,0,0
511,197,0,0,0,0,0,0,0,0,0,-1,1735,827,0,0
518,197,0,0,0,0,0,0,0,0,0,-1,1742,827,0,0
525,197,0,0,0,0,0,0,0,0,0,-1,1749,827,0,0
532,197,0,0,0,0,0,0,0,0,0,-1,1756,827,0,0
539,197,0,0,0,0,0,0,0,0,0,-1,1763,827,0,0
546,197,0,0,0,0,0,0,0,0,0,-1,1770,827,0,0
553,197,0,0,0,0,0,0,0,0,0,-1,1777,827,0,0
560,197,0,0,0,0,0,0,0,0,0,-1,1784,827,0,0
567,197,0,0,0,0,0,0,0,0,0,-1,1791,827,0,0
574,197,0,0,0,0,0,0,0,0,0,-1,1798,827,0,0
581,197,0,0,0,0,0,0,0,0,0,-1,1805,827,0,0
588,197,0,0,0,0,0,0,0,0,0,-1,1812,827,0,0
595,197,0,0,0,0,0,0,0,0,0,-1,1819,827,0,0
602,197,77.9105,2.43658,0.00458977,-0.000641246,0.0017911,0.00514426,-0.00119574,0.300226,0.00388984,0.0389138,1826,827,77.9105,-2.43661
609,197,77.954,2.45282,0.00276463,0.000312084,0.00159501,0.00355027,-0.000473562,0.457681,0.00253946,0.0404017,1833,827,77.954,-2.45284
616,197,77.9783,2.43243,0.000920919,0.00131385,0.00121718,0.00235031,-0.000115547,0.865413,0.00160678,0.039686,1840,827,77.9783,-2.43246
623,197,77.9181,2.4566,-0.00035677,0.0020176,0.000889823,0.00231406,-0.000653227,1.2492,0.00180039,0.0353142,1847,827,77.9181,-2.45658
630,197,78.0004,2.60602,0,0,0,0,0,0,0,-1,1854,827,78.0004,-2.60603
637,197,77.9827,2.51361,0,0,0,0,0,0,0,-1,1861,827,77.9827,-2.51364
644,197,77.9058,2.60004,0,0,0,0,0,0,0,-1,1868,827,77.9058,-2.60005
651,197,73.8147,2.2644,0,0,0,0,0,0,0,-1,1875,827,73.8147,-2.26442
658,197,40.4694,3.05927,0,0,0,0,0,0,0,-1,1882,827,40.4694,-3.05926
665,197,14.0618,1.80304,0,0,0,0,0,0,0,-1,1889,827,14.0617,-1.80303
672,197,60.8561,-2.46533,0,0,0,0,0,0,0,-1,1896,827,60.8561,2.46535
679,197,60.6942,-1.21191,0,0,0,0,0,0,0,-1,1903,827,60.6942,1.21191
686,197,60.6282,-0.196655,-0.000422303,-0.000885057,-0.00124953,0.00061709,-0.00192445,-0.693849,0.0015307,0.0310937,1910,827,60.6281,0.196639
693,197,60.3726,0.774414,-0.000639812,-0.00130022,-0.00169924,0.00076101,-0.00270104,-0.689432,0.00210082,0.0410423,1917,827,60.3726,-0.774403
700,197,60.327,1.51843,-0.000780864,-0.00120648,-0.00187373,0.000892106,-0.00287945,-0.728853,0.00227605,0.0356561,1924,827,60.327,-1.51844
707,197,60.2947,2.49146,-0.000474503,-0.000723547,-0.00170213,0.00110766,-0.00230571,-0.748885,0.00201076,0.0100372,1931,827,60.2946,-2.49145
714,197,60.2347,3.38293,0.000589693,0.000226886,-0.00115768,0.0015801,-0.000763519,-0.707682,0.00138019,0.0130157,1938,827,60.2347,-3.38294
721,197,60.1714,4.30542,0.00200995,0.00102771,-0.000453115,0.00218705,0.000850614,-0.372584,0.00127304,0.0139095,1945,827,60.1714,-4.3054
728,197,60.103,5.19684,0.00370688,0.00163625,0.000322429,0.00375592,0.0015872,0.150955,0.00217713,0.0119864,1952,827,60.103,-5.19682
735,197,60.0179,6.10211,0.00564421,0.00201328,0.00108856,0.00594555,0.00171194,0.270064,0.00353408,0.0127409,1959,827,60.018,-6.1021
742,197,59.9407,7.00226,0.00795108,0.00211431,0.00192516,0.00852887,0.00153652,0.291571,0.00524924,0.0237717,1966,827,59.9406,-7.00226
749,197,59.8955,7.91162,0.0110109,0.00153941,0.00262156,0.0116881,0.000862221,0.25279,0.00752114,0.0468806,1973,827,59.8955,-7.91162
756,197,59.814,8.81152,0,0,0,0,0,0,0,-1,1980,827,59.8139,-8.81155
763,197,57.4331,9.17389,0,0,0,0,0,0,0,-1,1987,827,57.4331,-9.17388
770,197,54.2329,8.28735,0,0,0,0,0,0,0,-1,1994,827,54.233,-8.28735
777,197,0,0,0,0,0,0,0,0,0,-1,2001,827,0,0
784,197,0,0,0,0,0,0,0,0,0,-1,2008,827,0,0
791,197,0,0,0,0,0,0,0,0,0,-1,2015,827,0,0
798,197,0,0,0,0,0,0,0,0,0,-1,2022,827,0,0
805,197,0,0,0,0,0,0,0,0,0,-1,2029,827,0,0
812,197,0,0,0,0,0,0,0,0,0,-1,2036,827,0,0
-700,190,0,0,0,0,0,0,0,0,0,-1,524,834,0,0
-693,190,0,0,0,0,0,0,0,0,0,-1,531,834,0,0
-686,190,0,0,0,0,0,0,0,0,0,-1,538,834,0,0
-679,190,0,0,0,0,0,0,0,0,0,-1,545,834,0,0
-672,190,0,0,0,0,0,0,0,0,0,-1,552,834,0,0
-665,190,0,0,0,0,0,0,0,0,0,-1,559,834,0,0
-658,190,-41.9736,5.50092,0,0,0,0,0,0,0,-1,566,834,-41.9736,-5.50089
-651,190,-40.1895,4.99677,0,0,0,0,0,0,0,-1,573,834,-40.1894,-4.99677
-644,190,-43.4772,11.1134,0,0,0,0,0,0,0,-1,580,834,-43.4771,-11.1134
-637,190,-43.1797,9.53918,0,0,0,0,0,0,0,-1,587,834,-43.1797,-9.53917
-630,190,-43.3638,9.78387,0,0,0,0,0,0,0,-1,594,834,-43.3638,-9.78386
-623,190,-45.2965,8.35828,0,0,0,0,0,0,0,-1,601,834,-45.2965,-8.35826
-616,190,-45.4077,7.21985,1.28739e-05,0.00979649,-0.00529495,0.0121134,-0.00230408,-1.15832,0.00894315,0.0467507,608,834,-45.4076,-7.21987
-609,190,-45.2505,6.02045,-0.000863458,0.00765451,-0.00318917,0.00871622,-0.00192517,-1.24943,0.00654757,0.0264302,615,834,-45.2505,-6.02042
-602,190,-45.3019,5.10645,-0.00110028,0.00573459,-0.0017227,0.00614423,-0.00150993,-1.33734,0.00468135,0.0194195,622,834,-45.3019,-5.10645
-595,190,-45.423,4.1908,-0.00104841,0.00425052,-0.000619891,0.00432207,-0.00111997,-1.45588,0.00331831,0.019499,629,834,-45.4231,-4.19078
-588,190,-45.4786,3.23004,-0.000845947,0.00318081,0.00023623,0.00319462,-0.000859758,1.5124,0.00246679,0.0203255,636,834,-45.4787,-3.23005
-581,190,-45.5242,2.30615,-0.000450184,0.00246351,0.000894076,0.00271599,-0.000702656,1.29558,0.00208473,0.0157716,643,834,-45.5242,-2.30617
-574,190,-45.5464,1.40155,-0.000153675,0.00206181,0.00130578,0.00266642,-0.000758285,1.13716,0.00207704,0.0153027,650,834,-45.5464,-1.40156
-567,190,-45.3978,0.342102,-0.000583911,0.0022509,0.00135208,0.00279236,-0.00112537,1.18989,0.00232916,0.033782,657,834,-45.3978,-0.342088
-560,190,-45.16,-0.752502,0,0,0,0,0,0,0,-1,664,834,-45.16,0.752499
-553,190,-33.9625,-1.6355,0,0,0,0,0,0,0,-1,671,834,-33.9625,1.63552
-546,190,-33.7621,-2.04889,0,0,0,0,0,0,0,-1,678,834,-33.7621,2.04886
-539,190,-16.4624,-0.542542,0,0,0,0,0,0,0,-1,685,834,-16.4624,0.542527
-532,190,-21.6292,2.06122,0,0,0,0,0,0,0,-1,692,834,-21.6292,-2.06123
-525,190,-38.9377,1.03369,0,0,0,0,0,0,0,-1,699,834,-38.9377,-1.0337
-518,190,-61.7266,0.984863,0,0,0,0,0,0,0,-1,706,834,-61.7266,-0.984883
-511,190,-61.8501,0.919128,-0.00837481,0.00737523,-0.00230757,0.00770635,-0.00870594,-1.42827,0.0094815,0.0436241,713,834,-61.8501,-0.919125
-504,190,-62.1409,0.885071,-0.00770805,0.00767051,-0.00274089,0.00814441,-0.00818195,-1.39959,0.00942604,0.0417458,720,834,-62.1409,-0.885064
-497,190,-62.6025,0.894775,0,0,0,0,0,0,0,-1,727,834,-62.6026,-0.894777
-490,190,-62.2938,0.936035,0,0,0,0,0,0,0,-1,734,834,-62.2938,-0.936058
-483,190,0,0,0,0,0,0,0,0,0,-1,741,834,0,0
-476,190,0,0,0,0,0,0,0,0,0,-1,748,834,0,0
-469,190,0,0,0,0,0,0,0,0,0,-1,755,834,0,0
-462,190,0,0,0,0,0,0,0,0,0,-1,762,834,0,0
-455,190,0,0,0,0,0,0,0,0,0,-1,769,834,0,0
-448,190,0,0,0,0,0,0,0,0,0,-1,776,834,0,0
-441,190,0,0,0,0,0,0,0,0,0,-1,783,834,0,0
-434,190,0,0,0,0,0,0,0,0,0,-1,790,834,0,0
-427,190,0,0,0,0,0,0,0,0,0,-1,797,834,0,0
-420,190,0,0,0,0,0,0,0,0,0,-1,804,834,0,0
-413,190,0,0,0,0,0,0,0,0,0,-1,811,834,0,0
-406,190,0,0,0,0,0,0,0,0,0,-1,818,834,0,0
-399,190,0,0,0,0,0,0,0,0,0,-1,825,834,0,0
-392,190,0,0,0,0,0,0,0,0,0,-1,832,834,0,0
-385,190,0,0,0,0,0,0,0,0,0,-1,839,834,0,0
-378,190,0,0,0,0,0,0,0,0,0,-1,846,834,0,0
-371,190,0,0,0,0,0,0,0,0,0,-1,853,834,0,0
-364,190,0,0,0,0,0,0,0,0,0,-1,860,834,0,0
-357,190,0,0,0,0,0,0,0,0,0,-1,867,834,0,0
-350,190,0,0,0,0,0,0,0,0,0,-1,874,834,0,0
-343,190,0,0,0,0,0,0,0,0,0,-1,881,834,0,0
-336,190,0,0,0,0,0,0,0,0,0,-1,888,834,0,0
-329,190,0,0,0,0,0,0,0,0,0,-1,895,834,0,0
-322,190,0,0,0,0,0,0,0,0,0,-1,902,834,0,0
-315,190,0,0,0,0,0,0,0,0,0,-1,909,834,0,0
-308,190,0,0,0,0,0,0,0,0,0,-1,916,834,0,0
-301,190,0,0,0,0,0,0,0,0,0,-1,923,834,0,0
-294,190,0,0,0,0,0,0,0,0,0,-1,930,834,0,0
-287,190,0,0,0,0,0,0,0,0,0,-1,937,834,0,0
-280,190,0,0,0,0,0,0,0,0,0,-1,944,834,0,0
-273,190,0,0,0,0,0,0,0,0,0,-1,951,834,0,0
-266,190,0,0,0,0,0,0,0,0,0,-1,958,834,0,0
-259,190,0,0,0,0,0,0,0,0,0,-1,965,834,0,0
-252,190,0,0,0,0,0,0,0,0,0,-1,972,834,0,0
-245,190,0,0,0,0,0,0,0,0,0,-1,979,834,0,0
-238,190,0,0,0,0,0,0,0,0,0,-1,986,834,0,0
-231,190,0,0,0,0,0,0,0,0,0,-1,993,834,0,0
-224,190,0,0,0,0,0,0,0,0,0,-1,1000,834,0,0
-217,190,0,0,0,0,0,0,0,0,0,-1,1007,834,0,0
-210,190,0,0,0,0,0,0,0,0,0,-1,1014,834,0,0
-203,190,0,0,0,0,0,0,0,0,0,-1,1021,834,0,0
-196,190,0,0,0,0,0,0,0,0,0,-1,1028,834,0,0
-189,190,0,0,0,0,0,0,0,0,0,-1,1035,834,0,0
-182,190,0,0,0,0,0,0,0,0,0,-1,1042,834,0,0
-175,190,0,0,0,0,0,0,0,0,0,-1,1049,834,0,0
-168,190,0,0,0,0,0,0,0,0,0,-1,1056,834,0,0
-161,190,0,0,0,0,0,0,0,0,0,-1,1063,834,0,0
-154,190,0,0,0,0,0,0,0,0,0,-1,1070,834,0,0
-147,190,0,0,0,0,0,0,0,0,0,-1,1077,834,0,0
-140,190,0,0,0,0,0,0,0,0,0,-1,1084,834,0,0
-133,190,0,0,0,0,0,0,0,0,0,-1,1091,834,0,0
-126,190,0,0,0,0,0,0,0,0,0,-1,1098,834,0,0
-119,190,0,0,0,0,0,0,0,0,0,-1,1105,834,0,0
-112,190,0,0,0,0,0,0,0,0,0,-1,1112,834,0,0
-105,190,0,0,0,0,0,0,0,0,0,-1,1119,834,0,0
-98,190,0,0,0,0,0,0,0,0,0,-1,1126,834,0,0
-91,190,0,0,0,0,0,0,0,0,0,-1,1133,834,0,0
-84,190,0,0,0,0,0,0,0,0,0,-1,1140,834,0,0
-77,190,0,0,0,0,0,0,0,0,0,-1,1147,834,0,0
-70,190,0,0,0,0,0,0,0,0,0,-1,1154,834,0,0
-63,190,0,0,0,0,0,0,0,0,0,-1,1161,834,0,0
-56,190,0,0,0,0,0,0,0,0,0,-1,1168,834,0,0
-49,190,0,0,0,0,0,0,0,0,0,-1,1175,834,0,0
-42,190,0,0,0,0,0,0,0,0,0,-1,1182,834,0,0
-35,190,0,0,0,0,0,0,0,0,0,-1,1189,834,0,0
-28,190,0,0,0,0,0,0,0,0,0,-1,1196,834,0,0
-21,190,0,0,0,0,0,0,0,0,0,-1,1203,834,0,0
-14,190,0,0,0,0,0,0,0,0,0,-1,1210,834,0,0
-7,190,0,0,0,0,0,0,0,0,0,-1,1217,834,0,0
0,190,0,0,0,0,0,0,0,0,0,-1,1224,834,0,0
7,190,0,0,0,0,0,0,0,0,0,-1,1231,834,0,0
14,190,0,0,0,0,0,0,0,0,0,-1,1238,834,0,0
21,190,0,0,0,0,0,0,0,0,0,-1,1245,834,0,0
28,190,0,0,0,0,0,0,0,0,0,-1,1252,834,0,0
35,190,0,0,0,0,0,0,0,0,0,-1,1259,834,0,0
42,190,0,0,0,0,0,0,0,0,0,-1,1266,834,0,0
49,190,0,0,0,0,0,0,0,0,0,-1,1273,834,0,0
56,190,0,0,0,0,0,0,0,0,0,-1,1280,834,0,0
63,190,0,0,0,0,0,0,0,0,0,-1,1287,834,0,0
70,190,0,0,0,0,0,0,0,0,0,-1,1294,834,0,0
77,190,0,0,0,0,0,0,0,0,0,-1,1301,834,0,0
84,190,0,0,0,0,0,0,0,0,0,-1,1308,834,0,0
91,190,0,0,0,0,0,0,0,0,0,-1,1315,834,0,0
98,190,0,0,0,0,0,0,0,0,0,-1,1322,834,0,0
105,190,0,0,0,0,0,0,0,0,0,-1,1329,834,0,0
112,190,0,0,0,0,0,0,0,0,0,-1,1336,834,0,0
119,190,0,0,0,0,0,0,0,0,0,-1,1343,834,0,0
126,190,0,0,0,0,0,0,0,0,0,-1,1350,834,0,0
133,190,0,0,0,0,0,0,0,0,0,-1,1357,834,0,0
140,190,0,0,0,0,0,0,0,0,0,-1,1364,834,0,0
147,190,0,0,0,0,0,0,0,0,0,-1,1371,834,0,0
154,190,0,0,0,0,0,0,0,0,0,-1,1378,834,0,0
161,190,0,0,0,0,0,0,0,0,0,-1,1385,834,0,0
168,190,0,0,0,0,0,0,0,0,0,-1,1392,834,0,0
175,190,0,0,0,0,0,0,0,0,0,-1,1399,834,0,0
182,190,0,0,0,0,0,0,0,0,0,-1,1406,834,0,0
189,190,0,0,0,0,0,0,0,0,0,-1,1413,834,0,0
196,190,0,0,0,0,0,0,0,0,0,-1,1420,834,0,0
203,190,0,0,0,0,0,0,0,0,0,-1,1427,834,0,0
210,190,0,0,0,0,0,0,0,0,0,-1,1434,834,0,0
217,190,0,0,0,0,0,0,0,0,0,-1,1441,834,0,0
224,190,0,0,0,0,0,0,0,0,0,-1,1448,834,0,0
231,190,0,0,0,0,0,0,0,0,0,-1,1455,834,0,0
238,190,0,0,0,0,0,0,0,0,0,-1,1462,834,0,0
245,190,0,0,0,0,0,0,0,0,0,-1,1469,834,0,0
252,190,0,0,0,0,0,0,0,0,0,-1,1476,834,0,0
259,190,0,0,0,0,0,0,0,0,0,-1,1483,834,0,0
266,190,0,0,0,0,0,0,0,0,0,-1,1490,834,0,0
273,190,0,0,0,0,0,0,0,0,0,-1,1497,834,0,0
280,190,0,0,0,0,0,0,0,0,0,-1,1504,834,0,0
287,190,0,0,0,0,0,0,0,0,0,-1,1511,834,0,0
294,190,0,0,0,0,0,0,0,0,0,-1,1518,834,0,0
301,190,0,0,0,0,0,0,0,0,0,-1,1525,834,0,0
308,190,0,0,0,0,0,0,0,0,0,-1,1532,834,0,0
315,190,0,0,0,0,0,0,0,0,0,-1,1539,834,0,0
322,190,0,0,0,0,0,0,0,0,0,-1,1546,834,0,0
329,190,0,0,0,0,0,0,0,0,0,-1,1553,834,0,0
336,190,0,0,0,0,0,0,0,0,0,-1,1560,834,0,0
343,190,0,0,0,0,0,0,0,0,0,-1,1567,834,0,0
350,190,0,0,0,0,0,0,0,0,0,-1,1574,834,0,0
357,190,0,0,0,0,0,0,0,0,0,-1,1581,834,0,0
364,190,0,0,0,0,0,0,0,0,0,-1,1588,834,0,0
371,190,0,0,0,0,0,0,0,0,0,-1,1595,834,0,0
378,190,0,0,0,0,0,0,0,0,0,-1,1602,834,0,0
385,190,0,0,0,0,0,0,0,0,0,-1,1609,834,0,0
392,190,0,0,0,0,0,0,0,0,0,-1,1616,834,0,0
399,190,0,0,0,0,0,0,0,0,0,-1,1623,834,0,0
406,190,0,0,0,0,0,0,0,0,0,-1,1630,834,0,0
413,190,0,0,0,0,0,0,0,0,0,-1,1637,834,0,0
420,190,0,0,0,0,0,0,0,0,0,-1,1644,834,0,0
427,190,0,0,0,0,0,0,0,0,0,-1,1651,834,0,0
434,190,0,0,0,0,0,0,0,0,0,-1,1658,834,0,0
441,190,0,0,0,0,0,0,0,0,0,-1,1665,834,0,0
448,190,0,0,0,0,0,0,0,0,0,-1,1672,834,0,0
455,190,0,0,0,0,0,0,0,0,0,-1,1679,834,0,0
462,190,0,0,0,0,0,0,0,0,0,-1,1686,834,0,0
469,190,0,0,0,0,0,0,0,0,0,-1,1693,834,0,0
476,190,0,0,0,0,0,0,0,0,0,-1,1700,834,0,0
483,190,0,0,0,0,0,0,0,0,0,-1,1707,834,0,0
490,190,0,0,0,0,0,0,0,0,0,-1,1714,834,0,0
497,190,0,0,0,0,0,0,0,0,0,-1,1721,834,0,0
504,190,0,0,0,0,0,0,0,0,0,-1,1728,834,0,0
511,190,0,0,0,0,0,0,0,0,0,-1,1735,834,0,0
518,190,0,0,0,0,0,0,0,0,0,-1,1742,834,0,0
525,190,0,0,0,0,0,0,0,0,0,-1,1749,834,0,0
532,190,0,0,0,0,0,0,0,0,0,-1,1756,834,0,0
539,190,0,0,0,0,0,0,0,0,0,-1,1763,834,0,0
546,190,0,0,0,0,0,0,0,0,0,-1,1770,834,0,0
553,190,0,0,0,0,0,0,0,0,0,-1,1777,834,0,0
560,190,0,0,0,0,0,0,0,0,0,-1,1784,834,0,0
567,190,0,0,0,0,0,0,0,0,0,-1,1791,834,0,0
574,190,0,0,0,0,0,0,0,0,0,-1,1798,834,0,0
581,190,0,0,0,0,0,0,0,0,0,-1,1805,834,0,0
588,190,0,0,0,0,0,0,0,0,0,-1,1812,834,0,0
595,190,0,0,0,0,0,0,0,0,0,-1,1819,834,0,0
602,190,77.8666,2.31433,0.00578927,-0.00184013,0.0022311,0.00639382,-0.00244468,0.264609,0.00526996,0.0432516,1826,834,77.8666,-2.3143
609,190,77.906,2.37726,0.0039618,-0.000722567,0.00197399,0.0046827,-0.00144347,0.350149,0.00369808,0.0412061,1833,834,77.906,-2.37729
616,190,77.9414,2.41534,0.00207349,0.000402874,0.00156908,0.00301575,-0.000539386,0.540801,0.00221232,0.038558,1840,834,77.9414,-2.41532
623,190,77.8464,2.64154,0.000437178,0.00138539,0.00117845,0.00218153,-0.000358959,0.976648,0.00158759,0.0369308,1847,834,77.8465,-2.64153
630,190,77.88,2.7019,-0.000703514,0.00206983,0.000886771,0.00232913,-0.000962813,1.28632,0.00195441,0.0405666,1854,834,77.8801,-2.70191
637,190,77.9521,2.65253,-0.000780154,0.00186473,0.000756701,0.00206592,-0.000981343,1.31093,0.0017961,0.0349342,1861,834,77.9521,-2.65255
644,190,77.9252,2.62451,-0.000470247,0.00120494,0.000397158,0.00129433,-0.000559637,1.34941,0.00109805,0.0313977,1868,834,77.9251,-2.6245
651,190,77.9058,2.63647,0,0,0,0,0,0,0,-1,1875,834,77.9057,-2.63645
658,190,54.0599,3.0943,0,0,0,0,0,0,0,-1,1882,834,54.0599,-3.09428
665,190,25.9916,3.05157,0,0,0,0,0,0,0,-1,1889,834,25.9916,-3.05156
672,190,27.2662,1.70862,0,0,0,0,0,0,0,-1,1896,834,27.2662,-1.70861
679,190,61.4861,-1.03802,0,0,0,0,0,0,0,-1,1903,834,61.486,1.03801
686,190,61.527,-0.111755,-0.000786011,-0.000656661,-0.00146454,0.000744635,-0.00218731,-0.807464,0.00175974,0.0303452,1910,834,61.527,0.111784
693,190,61.5212,0.823608,-0.000978868,-0.000970728,-0.00191135,0.000936554,-0.00288615,-0.786463,0.00230073,0.0371199,1917,834,61.5212,-0.823604
700,190,61.2214,1.64252,-0.00124414,-0.000964034,-0.00212642,0.00102694,-0.00323511,-0.818282,0.00256843,0.0265717,1924,834,61.2214,-1.6425
707,190,61.1624,2.54883,-0.00113256,-0.000637492,-0.00209667,0.00122621,-0.00299626,-0.844157,0.00250823,0.0151203,1931,834,61.1624,-2.54881
714,190,61.1605,3.43323,-0.000167239,0.000234657,-0.00167345,0.00171918,-0.00165176,-0.845152,0.00194635,0.0137392,1938,834,61.1605,-3.43323
721,190,61.1069,4.34772,0.00123936,0.00101258,-0.00103621,0.00216837,8.35734e-05,-0.7309,0.00141854,0.0121741,1945,834,61.107,-4.34775
728,190,61.0303,5.23816,0.00295564,0.00168395,-0.000289668,0.00301851,0.00162108,-0.213737,0.00174433,0.0139729,1952,834,61.0303,-5.23813
735,190,60.9741,6.11432,0.00491888,0.00223273,0.000441652,0.00498963,0.00216198,0.158849,0.0028893,0.0137249,1959,834,60.9741,-6.11431
742,190,60.8849,7.03674,0.00716819,0.002594,0.00121207,0.00746951,0.00229267,0.243664,0.00441839,0.0197287,1966,834,60.8849,-7.03673
749,190,60.8557,8.19666,0.010043,0.00253862,0.00188718,0.0104908,0.00209076,0.233005,0.00641161,0.0416755,1973,834,60.8557,-8.19663
756,190,60.8058,9.33643,0,0,0,0,0,0,0,-1,1980,834,60.8058,-9.33644
763,190,58.5272,9.88953,0,0,0,0,0,0,0,-1,1987,834,58.5273,-9.88955
770,190,54.7947,10.1494,0,0,0,0,0,0,0,-1,1994,834,54.7947,-10.1494
777,190,51.4365,10.3331,0,0,0,0,0,0,0,-1,2001,834,51.4366,-10.3331
784,190,0,0,0,0,0,0,0,0,0,-1,2008,834,0,0
791,190,0,0,0,0,0,0,0,0,0,-1,2015,834,0,0
798,190,0,0,0,0,0,0,0,0,0,-1,2022,834,0,0
805,190,0,0,0,0,0,0,0,0,0,-1,2029,834,0,0
812,190,0,0,0,0,0,0,0,0,0,-1,2036,834,0,0
-700,183,0,0,0,0,0,0,0,0,0,-1,524,841,0,0
-693,183,0,0,0,0,0,0,0,0,0,-1,531,841,0,0
-686,183,0,0,0,0,0,0,0,0,0,-1,538,841,0,0
-679,183,0,0,0,0,0,0,0,0,0,-1,545,841,0,0
-672,183,0,0,0,0,0,0,0,0,0,-1,552,841,0,0
-665,183,0,0,0,0,0,0,0,0,0,-1,559,841,0,0
-658,183,-56.7401,1.32843,0,0,0,0,0,0,0,-1,566,841,-56.7401,-1.32844
-651,183,-44.3059,12.2423,0,0,0,0,0,0,0,-1,573,841,-44.3059,-12.2423
-644,183,-44.0252,10.6679,0,0,0,0,0,0,0,-1,580,841,-44.0252,-10.6679
-637,183,-44.9379,10.8293,0,0,0,0,0,0,0,-1,587,841,-44.9379,-10.8293
-630,183,-46.0863,8.96344,0,0,0,0,0,0,0,-1,594,841,-46.0863,-8.96347
-623,183,-46.1911,8.03412,0,0,0,0,0,0,0,-1,601,841,-46.1911,-8.03415
-616,183,-46.2074,7.03986,-0.000276682,0.00919504,-0.00483319,0.0112259,-0.00230751,-1.17301,0.00835992,0.0403483,608,841,-46.2074,-7.03985
-609,183,-46.2333,6.07086,-0.00113787,0.00707176,-0.00270385,0.00788226,-0.00194837,-1.27956,0.0060105,0.0198411,615,841,-46.2333,-6.07084
-602,183,-46.2874,5.13269,-0.00154028,0.00520349,-0.00113472,0.0053893,-0.0017261,-1.40849,0.00428571,0.0126665,622,841,-46.2873,-5.1327
-595,183,-46.3358,4.19952,-0.00172293,0.00376893,9.15223e-05,0.00377046,-0.00172445,1.55414,0.00324497,0.0121634,629,841,-46.3358,-4.19953
-588,183,-46.3718,3.28101,-0.00170752,0.00268772,0.000935464,0.00287854,-0.00189834,1.36958,0.00277722,0.0159397,636,841,-46.3718,-3.28102
-581,183,-46.4627,2.37103,-0.00138847,0.00201026,0.0014006,0.00251306,-0.00189127,1.22614,0.00255127,0.0178133,643,841,-46.4627,-2.37103
-574,183,-46.4912,1.46649,-0.00100462,0.00162248,0.00157676,0.00236114,-0.00174329,1.13269,0.00237862,0.0240842,650,841,-46.4912,-1.46648
-567,183,-46.4149,0.590088,0,0,0,0,0,0,0,-1,657,841,-46.4149,-0.590069
-560,183,-34.0303,-1.05511,0,0,0,0,0,0,0,-1,664,841,-34.0303,1.05511
-553,183,-32.2224,-1.71942,0,0,0,0,0,0,0,-1,671,841,-32.2224,1.71944
-546,183,-27.8053,-1.91199,0,0,0,0,0,0,0,-1,678,841,-27.8053,1.91201
-539,183,-16.8032,-0.417297,0,0,0,0,0,0,0,-1,685,841,-16.8032,0.41732
-532,183,-29.9686,0.953613,0,0,0,0,0,0,0,-1,692,841,-29.9686,-0.953627
-525,183,-55.6847,0.842468,0,0,0,0,0,0,0,-1,699,841,-55.6847,-0.842446
-518,183,-61.951,0.680603,0,0,0,0,0,0,0,-1,706,841,-61.9511,-0.680579
-511,183,-61.8447,0.822144,-0.00855843,0.00691374,-0.0025982,0.0073384,-0.00898309,-1.40879,0.00943915,0.0428278,713,841,-61.8447,-0.822159
-504,183,-62.1801,0.778992,-0.00682862,0.00702732,-0.00320232,0.00773162,-0.00753292,-1.35431,0.00881324,0.0423429,720,841,-62.1801,-0.778962
-497,183,-62.4182,0.791443,0.00037439,0.00627495,-0.00473201,0.00890106,-0.00225172,-1.06415,0.00680985,0.044731,727,841,-62.4182,-0.791416
-490,183,-62.1161,0.757263,0.0149957,0.00565121,-0.00630613,0.0181719,0.00247507,-0.46657,0.0113796,0.0435316,734,841,-62.1162,-0.757246
-483,183,0,0,0,0,0,0,0,0,0,-1,741,841,0,0
-476,183,0,0,0,0,0,0,0,0,0,-1,748,841,0,0
-469,183,0,0,0,0,0,0,0,0,0,-1,755,841,0,0
-462,183,0,0,0,0,0,0,0,0,0,-1,762,841,0,0
-455,183,0,0,0,0,0,0,0,0,0,-1,769,841,0,0
-448,183,0,0,0,0,0,0,0,0,0,-1,776,841,0,0
-441,183,0,0,0,0,0,0,0,0,0,-1,783,841,0,0
-434,183,0,0,0,0,0,0,0,0,0,-1,790,841,0,0
-427,183,0,0,0,0,0,0,0,0,0,-1,797,841,0,0
-420,183,0,0,0,0,0,0,0,0,0,-1,804,841,0,0
-413,183,0,0,0,0,0,0,0,0,0,-1,811,841,0,0
-406,183,0,0,0,0,0,0,0,0,0,-1,818,841,0,0
-399,183,0,0,0,0,0,0,0,0,0,-1,825,841,0,0
-392,183,0,0,0,0,0,0,0,0,0,-1,832,841,0,0
-385,183,0,0,0,0,0,0,0,0,0,-1,839,841,0,0
-378,183,0,0,0,0,0,0,0,0,0,-1,846,841,0,0
-371,183,0,0,0,0,0,0,0,0,0,-1,853,841,0,0
-364,183,0,0,0,0,0,0,0,0,0,-1,860,841,0,0
-357,183,0,0,0,0,0,0,0,0,0,-1,867,841,0,0
-350,183,0,0,0,0,0,0,0,0,0,-1,874,841,0,0
-343,183,0,0,0,0,0,0,0,0,0,-1,881,841,0,0
-336,183,0,0,0,0,0,0,0,0,0,-1,888,841,0,0
-329,183,0,0,0,0,0,0,0,0,0,-1,895,841,0,0
-322,183,0,0,0,0,0,0,0,0,0,-1,902,841,0,0
-315,183,0,0,0,0,0,0,0,0,0,-1,909,841,0,0
-308,183,0,0,0,0,0,0,0,0,0,-1,916,841,0,0
-301,183,0,0,0,0,0,0,0,0,0,-1,923,841,0,0
-294,183,0,0,0,0,0,0,0,0,0,-1,930,841,0,0
-287,183,0,0,0,0,0,0,0,0,0,-1,937,841,0,0
-280,183,0,0,0,0,0,0,0,0,0,-1,944,841,0,0
-273,183,0,0,0,0,0,0,0,0,0,-1,951,841,0,0
-266,183,0,0,0,0,0,0,0,0,0,-1,958,841,0,0
-259,183,0,0,0,0,0,0,0,0,0,-1,965,841,0,0
-252,183,0,0,0,0,0,0,0,0,0,-1,972,841,0,0
-245,183,0,0,0,0,0,0,0,0,0,-1,979,841,0,0
-238,183,0,0,0,0,0,0,0,0,0,-1,986,841,0,0
-231,183,0,0,0,0,0,0,0,0,0,-1,993,841,0,0
-224,183,0,0,0,0,0,0,0,0,0,-1,1000,841,0,0
-217,183,0,0,0,0,0,0,0,0,0,-1,1007,841,0,0
-210,183,0,0,0,0,0,0,0,0,0,-1,1014,841,0,0
-203,183,0,0,0,0,0,0,0,0,0,-1,1021,841,0,0
-196,183,0,0,0,0,0,0,0,0,0,-1,1028,841,0,0
-189,183,0,0,0,0,0,0,0,0,0,-1,1035,841,0,0
-182,183,0,0,0,0,0,0,0,0,0,-1,1042,841,0,0
-175,183,0,0,0,0,0,0,0,0,0,-1,1049,841,0,0
-168,183,0,0,0,0,0,0,0,0,0,-1,1056,841,0,0
-161,183,0,0,0,0,0,0,0,0,0,-1,1063,841,0,0
-154,183,0,0,0,0,0,0,0,0,0,-1,1070,841,0,0
-147,183,0,0,0,0,0,0,0,0,0,-1,1077,841,0,0
-140,183,0,0,0,0,0,0,0,0,0,-1,1084,841,0,0
-133,183,0,0,0,0,0,0,0,0,0,-1,1091,841,0,0
-126,183,0,0,0,0,0,0,0,0,0,-1,1098,841,0,0
-119,183,0,0,0,0,0,0,0,0,0,-1,1105,841,0,0
-112,183,0,0,0,0,0,0,0,0,0,-1,1112,841,0,0
-105,183,0,0,0,0,0,0,0,0,0,-1,1119,841,0,0
-98,183,0,0,0,0,0,0,0,0,0,-1,1126,841,0,0
-91,183,0,0,0,0,0,0,0,0,0,-1,1133,841,0,0
-84,183,0,0,0,0,0,0,0,0,0,-1,1140,841,0,0
-77,183,0,0,0,0,0,0,0,0,0,-1,1147,841,0,0
-70,183,0,0,0,0,0,0,0,0,0,-1,1154,841,0,0
-63,183,0,0,0,0,0,0,0,0,0,-1,1161,841,0,0
-56,183,0,0,0,0,0,0,0,0,0,-1,1168,841,0,0
-49,183,0,0,0,0,0,0,0,0,0,-1,1175,841,0,0
-42,183,0,0,0,0,0,0,0,0,0,-1,1182,841,0,0
-35,183,0,0,0,0,0,0,0,0,0,-1,1189,841,0,0
-28,183,0,0,0,0,0,0,0,0,0,-1,1196,841,0,0
-21,183,0,0,0,0,0,0,0,0,0,-1,1203,841,0,0
-14,183,0,0,0,0,0,0,0,0,0,-1,1210,841,0,0
-7,183,0,0,0,0,0,0,0,0,0,-1,1217,841,0,0
0,183,0,0,0,0,0,0,0,0,0,-1,1224,841,0,0
7,183,0,0,0,0,0,0,0,0,0,-1,1231,841,0,0
14,183,0,0,0,0,0,0,0,0,0,-1,1238,841,0,0
21,183,0,0,0,0,0,0,0,0,0,-1,1245,841,0,0
28,183,0,0,0,0,0,0,0,0,0,-1,1252,841,0,0
35,183,0,0,0,0,0,0,0,0,0,-1,1259,841,0,0
42,183,0,0,0,0,0,0,0,0,0,-1,1266,841,0,0
49,183,0,0,0,0,0,0,0,0,0,-1,1273,841,0,0
56,183,0,0,0,0,0,0,0,0,0,-1,1280,841,0,0
63,183,0,0,0,0,0,0,0,0,0,-1,1287,841,0,0
70,183,0,0,0,0,0,0,0,0,0,-1,1294,841,0,0
77,183,0,0,0,0,0,0,0,0,0,-1,1301,841,0,0
84,183,0,0,0,0,0,0,0,0,0,-1,1308,841,0,0
91,183,0,0,0,0,0,0,0,0,0,-1,1315,841,0,0
98,183,0,0,0,0,0,0,0,0,0,-1,1322,841,0,0
105,183,0,0,0,0,0,0,0,0,0,-1,1329,841,0,0
112,183,0,0,0,0,0,0,0,0,0,-1,1336,841,0,0
119,183,0,0,0,0,0,0,0,0,0,-1,1343,841,0,0
126,183,0,0,0,0,0,0,0,0,0,-1,1350,841,0,0
133,183,0,0,0,0,0,0,0,0,0,-1,1357,841,0,0
140,183,0,0,0,0,0,0,0,0,0,-1,1364,841,0,0
147,183,0,0,0,0,0,0,0,0,0,-1,1371,841,0,0
154,183,0,0,0,0,0,0,0,0,0,-1,1378,841,0,0
161,183,0,0,0,0,0,0,0,0,0,-1,1385,841,0,0
168,183,0,0,0,0,0,0,0,0,0,-1,1392,841,0,0
175,183,0,0,0,0,0,0,0,0,0,-1,1399,841,0,0
182,183,0,0,0,0,0,0,0,0,0,-1,1406,841,0,0
189,183,0,0,0,0,0,0,0,0,0,-1,1413,841,0,0
196,183,0,0,0,0,0,0,0,0,0,-1,1420,841,0,0
203,183,0,0,0,0,0,0,0,0,0,-1,1427,841,0,0
210,183,0,0,0,0,0,0,0,0,0,-1,1434,841,0,0
217,183,0,0,0,0,0,0,0,0,0,-1,1441,841,0,0
224,183,0,0,0,0,0,0,0,0,0,-1,1448,841,0,0
231,183,0,0,0,0,0,0,0,0,0,-1,1455,841,0,0
238,183,0,0,0,0,0,0,0,0,0,-1,1462,841,0,0
245,183,0,0,0,0,0,0,0,0,0,-1,1469,841,0,0
252,183,0,0,0,0,0,0,0,0,0,-1,1476,841,0,0
259,183,0,0,0,0,0,0,0,0,0,-1,1483,841,0,0
266,183,0,0,0,0,0,0,0,0,0,-1,1490,841,0,0
273,183,0,0,0,0,0,0,0,0,0,-1,1497,841,0,0
280,183,0,0,0,0,0,0,0,0,0,-1,1504,841,0,0
287,183,0,0,0,0,0,0,0,0,0,-1,1511,841,0,0
294,183,0,0,0,0,0,0,0,0,0,-1,1518,841,0,0
301,183,0,0,0,0,0,0,0,0,0,-1,1525,841,0,0
308,183,0,0,0,0,0,0,0,0,0,-1,1532,841,0,0
315,183,0,0,0,0,0,0,0,0,0,-1,1539,841,0,0
322,183,0,0,0,0,0,0,0,0,0,-1,1546,841,0,0
329,183,0,0,0,0,0,0,0,0,0,-1,1553,841,0,0
336,183,0,0,0,0,0,0,0,0,0,-1,1560,841,0,0
343,183,0,0,0,0,0,0,0,0,0,-1,1567,841,0,0
350,183,0,0,0,0,0,0,0,0,0,-1,1574,841,0,0
357,183,0,0,0,0,0,0,0,0,0,-1,1581,841,0,0
364,183,0,0,0,0,0,0,0,0,0,-1,1588,841,0,0
371,183,0,0,0,0,0,0,0,0,0,-1,1595,841,0,0
378,183,0,0,0,0,0,0,0,0,0,-1,1602,841,0,0
385,183,0,0,0,0,0,0,0,0,0,-1,1609,841,0,0
392,183,0,0,0,0,0,0,0,0,0,-1,1616,841,0,0
399,183,0,0,0,0,0,0,0,0,0,-1,1623,841,0,0
406,183,0,0,0,0,0,0,0,0,0,-1,1630,841,0,0
413,183,0,0,0,0,0,0,0,0,0,-1,1637,841,0,0
420,183,0,0,0,0,0,0,0,0,0,-1,1644,841,0,0
427,183,0,0,0,0,0,0,0,0,0,-1,1651,841,0,0
434,183,0,0,0,0,0,0,0,0,0,-1,1658,841,0,0
441,183,0,0,0,0,0,0,0,0,0,-1,1665,841,0,0
448,183,0,0,0,0,0,0,0,0,0,-1,1672,841,0,0
455,183,0,0,0,0,0,0,0,0,0,-1,1679,841,0,0
462,183,0,0,0,0,0,0,0,0,0,-1,1686,841,0,0
469,183,0,0,0,0,0,0,0,0,0,-1,1693,841,0,0
476,183,0,0,0,0,0,0,0,0,0,-1,1700,841,0,0
483,183,0,0,0,0,0,0,0,0,0,-1,1707,841,0,0
490,183,0,0,0,0,0,0,0,0,0,-1,1714,841,0,0
497,183,0,0,0,0,0,0,0,0,0,-1,1721,841,0,0
504,183,0,0,0,0,0,0,0,0,0,-1,1728,841,0,0
511,183,0,0,0,0,0,0,0,0,0,-1,1735,841,0,0
518,183,0,0,0,0,0,0,0,0,0,-1,1742,841,0,0
525,183,0,0,0,0,0,0,0,0,0,-1,1749,841,0,0
532,183,0,0,0,0,0,0,0,0,0,-1,1756,841,0,0
539,183,0,0,0,0,0,0,0,0,0,-1,1763,841,0,0
546,183,0,0,0,0,0,0,0,0,0,-1,1770,841,0,0
553,183,0,0,0,0,0,0,0,0,0,-1,1777,841,0,0
560,183,0,0,0,0,0,0,0,0,0,-1,1784,841,0,0
567,183,0,0,0,0,0,0,0,0,0,-1,1791,841,0,0
574,183,0,0,0,0,0,0,0,0,0,-1,1798,841,0,0
581,183,0,0,0,0,0,0,0,0,0,-1,1805,841,0,0
588,183,0,0,0,0,0,0,0,0,0,-1,1812,841,0,0
595,183,0,0,0,0,0,0,0,0,0,-1,1819,841,0,0
602,183,0,0,0,0,0,0,0,0,0,-1,1826,841,0,0
609,183,77.9183,2.60925,0.00475761,-0.00212492,0.00210149,0.00534854,-0.00271584,0.274116,0.00473796,0.0417459,1833,841,77.9183,-2.60928
616,183,77.9614,2.62396,0.00307148,-0.00091426,0.00169322,0.00369366,-0.00153645,0.352142,0.00310404,0.0386573,1840,841,77.9614,-2.62398
623,183,78.0087,2.62274,0.00142795,0.000257883,0.00129989,0.00226839,-0.000582562,0.573946,0.00173928,0.0419304,1847,841,78.0087,-2.62274
630,183,77.8939,2.62701,1.76735e-05,0.00143211,0.000915149,0.00188146,-0.00043168,1.11436,0.00142024,0.0393986,1854,841,77.8939,-2.62703
637,183,77.8685,2.66205,-0.000517961,0.00166431,0.000687391,0.00186278,-0.000716431,1.28971,0.00153735,0.0329104,1861,841,77.8685,-2.66206
644,183,77.8861,2.59576,-0.00042028,0.00108633,0.000304341,0.00114549,-0.000479435,1.37882,0.000964062,0.0284928,1868,841,77.8861,-2.59574
651,183,77.931,2.61346,-0.000362319,0.000477727,-9.19657e-05,0.000487677,-0.000372269,-1.46302,0.000497978,0.0398565,1875,841,77.931,-2.61347
658,183,77.8881,2.73999,0,0,0,0,0,0,0,-1,1882,841,77.888,-2.74001
665,183,38.4337,2.66992,0,0,0,0,0,0,0,-1,1889,841,38.4337,-2.6699
672,183,29.168,1.54572,0,0,0,0,0,0,0,-1,1896,841,29.168,-1.54574
679,183,62.3829,-0.864502,0,0,0,0,0,0,0,-1,1903,841,62.3829,0.864523
686,183,62.391,-0.0147705,-0.00103427,-0.0004811,-0.00177036,0.00103415,-0.00254952,-0.862887,0.0021298,0.0391738,1910,841,62.391,0.0147889
693,183,62.3385,0.770142,-0.0011753,-0.00063273,-0.00217118,0.00128405,-0.00309207,-0.84755,0.00259744,0.0354175,1917,841,62.3385,-0.770131
700,183,62.0592,1.72247,0,0,0,0,0,0,0,-1,1924,841,62.0592,-1.72247
707,183,62.0548,2.62366,-0.00149526,-0.000354065,-0.00245757,0.00159828,-0.0034476,-0.899467,0.00297774,0.0156252,1931,841,62.0548,-2.62365
714,183,62.0768,3.49847,-0.000736623,0.000390438,-0.00214393,0.00204366,-0.00238985,-0.913916,0.00256229,0.0184295,1938,841,62.0768,-3.49845
721,183,62.0441,4.41193,0.000509818,0.00109158,-0.00157128,0.00239868,-0.000797278,-0.876924,0.00192085,0.0161017,1945,841,62.0441,-4.41193
728,183,61.9539,5.29071,0.00209749,0.0017619,-0.000833701,0.00278012,0.00107928,-0.686093,0.00161842,0.0146107,1952,841,61.9538,-5.29069
735,183,61.906,6.15411,0.00394718,0.00242649,-9.71021e-05,0.00395335,0.00242032,-0.0635105,0.00230155,0.0137545,1959,841,61.9061,-6.15409
742,183,61.8506,7.05371,0.00598602,0.0030139,0.000655168,0.00612404,0.00287588,0.20762,0.00353789,0.013913,1966,841,61.8506,-7.05369
749,183,62.0786,8.14294,0.00845408,0.00341268,0.00135313,0.00879431,0.00307246,0.246329,0.00515363,0.0367503,1973,841,62.0786,-8.14296
756,183,62.3379,9.27203,0,0,0,0,0,0,0,-1,1980,841,62.3379,-9.27201
763,183,62.9241,9.73083,0,0,0,0,0,0,0,-1,1987,841,62.924,-9.73083
770,183,51.5659,9.50665,0,0,0,0,0,0,0,-1,1994,841,51.5659,-9.50663
777,183,42.1948,7.22906,0,0,0,0,0,0,0,-1,2001,841,42.1948,-7.22905
784,183,0,0,0,0,0,0,0,0,0,-1,2008,841,0,0
791,183,0,0,0,0,0,0,0,0,0,-1,2015,841,0,0
798,183,0,0,0,0,0,0,0,0,0,-1,2022,841,0,0
805,183,0,0,0,0,0,0,0,0,0,-1,2029,841,0,0
812,183,0,0,0,0,0,0,0,0,0,-1,2036,841,0,0
-700,176,0,0,0,0,0,0,0,0,0,-1,524,848,0,0
-693,176,0,0,0,0,0,0,0,0,0,-1,531,848,0,0
-686,176,0,0,0,0,0,0,0,0,0,-1,538,848,0,0
-679,176,0,0,0,0,0,0,0,0,0,-1,545,848,0,0
-672,176,0,0,0,0,0,0,0,0,0,-1,552,848,0,0
-665,176,-59.6962,8.75854,0,0,0,0,0,0,0,-1,559,848,-59.6962,-8.75853
-658,176,-59.6349,7.95142,0,0,0,0,0,0,0,-1,566,848,-59.6349,-7.95144
-651,176,-44.4019,11.7273,0,0,0,0,0,0,0,-1,573,848,-44.4018,-11.7273
-644,176,-44.2437,10.2178,0,0,0,0,0,0,0,-1,580,848,-44.2437,-10.2178
-637,176,-46.4952,10.312,0,0,0,0,0,0,0,-1,587,848,-46.4952,-10.312
-630,176,-46.6645,9.00134,0,0,0,0,0,0,0,-1,594,848,-46.6645,-9.00132
-623,176,-47.0857,7.71002,0,0,0,0,0,0,0,-1,601,848,-47.0857,-7.71003
-616,176,-47.0876,6.98224,-0.000970053,0.00869203,-0.00430161,0.0103296,-0.00260761,-1.20705,0.00790037,0.0300813,608,848,-47.0876,-6.98226
-609,176,-47.1664,6.06781,-0.0017948,0.00657755,-0.00214956,0.00709719,-0.00231444,-1.33361,0.00566285,0.0138452,615,848,-47.1664,-6.06779
-602,176,-47.212,5.16095,-0.00233084,0.00473102,-0.000461639,0.00476107,-0.00236089,-1.50579,0.00418898,0.0127719,622,848,-47.212,-5.16097
-595,176,-47.2565,4.23914,-0.00269432,0.00333162,0.000871641,0.00345517,-0.00281787,1.42999,0.00362797,0.0122391,629,848,-47.2565,-4.23911
-588,176,-47.3047,3.34515,-0.00276965,0.00226308,0.00162306,0.00274111,-0.00324768,1.28437,0.00346175,0.0162397,636,848,-47.3047,-3.34513
-581,176,-47.4081,2.4953,-0.00243757,0.00165769,0.0018922,0.0023981,-0.00317799,1.19781,0.00322984,0.0162724,643,848,-47.4081,-2.4953
-574,176,-47.5613,1.61499,-0.00189549,0.00128964,0.00188436,0.00216428,-0.00277012,1.13623,0.00285603,0.032806,650,848,-47.5613,-1.61499
-567,176,-47.5767,0.573608,0,0,0,0,0,0,0,-1,657,848,-47.5767,-0.573624
-560,176,-31.6935,-0.0994873,0,0,0,0,0,0,0,-1,664,848,-31.6936,0.0994584
-553,176,-29.4605,-1.50214,0,0,0,0,0,0,0,-1,671,848,-29.4605,1.50211
-546,176,-16.657,-0.403198,0,0,0,0,0,0,0,-1,678,848,-16.657,0.403182
-539,176,-22.7061,1.48657,0,0,0,0,0,0,0,-1,685,848,-22.7061,-1.48657
-532,176,-38.8326,1.29749,0,0,0,0,0,0,0,-1,692,848,-38.8326,-1.29747
-525,176,-61.8823,0.776367,0,0,0,0,0,0,0,-1,699,848,-61.8823,-0.776346
-518,176,-61.813,0.804077,-0.00723546,0.00569415,-0.00231924,0.00609758,-0.00763888,-1.39857,0.00794737,0.0461813,706,848,-61.813,-0.804089
-511,176,-61.9343,0.728027,-0.00811116,0.00603731,-0.00256713,0.00648869,-0.00856255,-1.39674,0.00871729,0.0417427,713,848,-61.9343,-0.728045
-504,176,-62.1924,0.549072,-0.004401,0.00609963,-0.00374347,0.00729752,-0.00559889,-1.2611,0.00746724,0.0428117,720,848,-62.1924,-0.549067
-497,176,-62.2043,0.604675,0.00475981,0.00582821,-0.00597014,0.011288,-0.000699983,-0.830018,0.00776918,0.0424077,727,848,-62.2043,-0.604665
-490,176,-61.8713,0.577026,0.0196474,0.00624277,-0.00821187,0.0235449,0.00234528,-0.443136,0.0149762,0.0392988,734,848,-61.8713,-0.57704
-483,176,0,0,0,0,0,0,0,0,0,-1,741,848,0,0
-476,176,0,0,0,0,0,0,0,0,0,-1,748,848,0,0
-469,176,0,0,0,0,0,0,0,0,0,-1,755,848,0,0
-462,176,0,0,0,0,0,0,0,0,0,-1,762,848,0,0
-455,176,0,0,0,0,0,0,0,0,0,-1,769,848,0,0
-448,176,0,0,0,0,0,0,0,0,0,-1,776,848,0,0
-441,176,0,0,0,0,0,0,0,0,0,-1,783,848,0,0
-434,176,0,0,0,0,0,0,0,0,0,-1,790,848,0,0
-427,176,0,0,0,0,0,0,0,0,0,-1,797,848,0,0
-420,176,0,0,0,0,0,0,0,0,0,-1,804,848,0,0
-413,176,0,0,0,0,0,0,0,0,0,-1,811,848,0,0
-406,176,0,0,0,0,0,0,0,0,0,-1,818,848,0,0
-399,176,0,0,0,0,0,0,0,0,0,-1,825,848,0,0
-392,176,0,0,0,0,0,0,0,0,0,-1,832,848,0,0
-385,176,0,0,0,0,0,0,0,0,0,-1,839,848,0,0
-378,176,0,0,0,0,0,0,0,0,0,-1,846,848,0,0
-371,176,0,0,0,0,0,0,0,0,0,-1,853,848,0,0
-364,176,0,0,0,0,0,0,0,0,0,-1,860,848,0,0
-357,176,0,0,0,0,0,0,0,0,0,-1,867,848,0,0
-350,176,0,0,0,0,0,0,0,0,0,-1,874,848,0,0
-343,176,0,0,0,0,0,0,0,0,0,-1,881,848,0,0
-336,176,0,0,0,0,0,0,0,0,0,-1,888,848,0,0
-329,176,0,0,0,0,0,0,0,0,0,-1,895,848,0,0
-322,176,0,0,0,0,0,0,0,0,0,-1,902,848,0,0
-315,176,0,0,0,0,0,0,0,0,0,-1,909,848,0,0
-308,176,0,0,0,0,0,0,0,0,0,-1,916,848,0,0
-301,176,0,0,0,0,0,0,0,0,0,-1,923,848,0,0
-294,176,0,0,0,0,0,0,0,0,0,-1,930,848,0,0
-287,176,0,0,0,0,0,0,0,0,0,-1,937,848,0,0
-280,176,0,0,0,0,0,0,0,0,0,-1,944,848,0,0
-273,176,0,0,0,0,0,0,0,0,0,-1,951,848,0,0
-266,176,0,0,0,0,0,0,0,0,0,-1,958,848,0,0
-259,176,0,0,0,0,0,0,0,0,0,-1,965,848,0,0
-252,176,0,0,0,0,0,0,0,0,0,-1,972,848,0,0
-245,176,0,0,0,0,0,0,0,0,0,-1,979,848,0,0
-238,176,0,0,0,0,0,0,0,0,0,-1,986,848,0,0
-231,176,0,0,0,0,0,0,0,0,0,-1,993,848,0,0
-224,176,0,0,0,0,0,0,0,0,0,-1,1000,848,0,0
-217,176,0,0,0,0,0,0,0,0,0,-1,1007,848,0,0
-210,176,0,0,0,0,0,0,0,0,0,-1,1014,848,0,0
-203,176,0,0,0,0,0,0,0,0,0,-1,1021,848,0,0
-196,176,0,0,0,0,0,0,0,0,0,-1,1028,848,0,0
-189,176,0,0,0,0,0,0,0,0,0,-1,1035,848,0,0
-182,176,0,0,0,0,0,0,0,0,0,-1,1042,848,0,0
-175,176,0,0,0,0,0,0,0,0,0,-1,1049,848,0,0
-168,176,0,0,0,0,0,0,0,0,0,-1,1056,848,0,0
-161,176,0,0,0,0,0,0,0,0,0,-1,1063,848,0,0
-154,176,0,0,0,0,0,0,0,0,0,-1,1070,848,0,0
-147,176,0,0,0,0,0,0,0,0,0,-1,1077,848,0,0
-140,176,0,0,0,0,0,0,0,0,0,-1,1084,848,0,0
-133,176,0,0,0,0,0,0,0,0,0,-1,1091,848,0,0
-126,176,0,0,0,0,0,0,0,0,0,-1,1098,848,0,0
-119,176,0,0,0,0,0,0,0,0,0,-1,1105,848,0,0
-112,176,0,0,0,0,0,0,0,0,0,-1,1112,848,0,0
-105,176,0,0,0,0,0,0,0,0,0,-1,1119,848,0,0
-98,176,0,0,0,0,0,0,0,0,0,-1,1126,848,0,0
-91,176,0,0,0,0,0,0,0,0,0,-1,1133,848,0,0
-84,176,0,0,0,0,0,0,0,0,0,-1,1140,848,0,0
-77,176,0,0,0,0,0,0,0,0,0,-1,1147,848,0,0
-70,176,0,0,0,0,0,0,0,0,0,-1,1154,848,0,0
-63,176,0,0,0,0,0,0,0,0,0,-1,1161,848,0,0
-56,176,0,0,0,0,0,0,0,0,0,-1,1168,848,0,0
-49,176,0,0,0,0,0,0,0,0,0,-1,1175,848,0,0
-42,176,0,0,0,0,0,0,0,0,0,-1,1182,848,0,0
-35,176,0,0,0,0,0,0,0,0,0,-1,1189,848,0,0
-28,176,0,0,0,0,0,0,0,0,0,-1,1196,848,0,0
-21,176,0,0,0,0,0,0,0,0,0,-1,1203,848,0,0
-14,176,0,0,0,0,0,0,0,0,0,-1,1210,848,0,0
-7,176,0,0,0,0,0,0,0,0,0,-1,1217,848,0,0
0,176,0,0,0,0,0,0,0,0,0,-1,1224,848,0,0
7,176,0,0,0,0,0,0,0,0,0,-1,1231,848,0,0
14,176,0,0,0,0,0,0,0,0,0,-1,1238,848,0,0
21,176,0,0,0,0,0,0,0,0,0,-1,1245,848,0,0
28,176,0,0,0,0,0,0,0,0,0,-1,1252,848,0,0
35,176,0,0,0,0,0,0,0,0,0,-1,1259,848,0,0
42,176,0,0,0,0,0,0,0,0,0,-1,1266,848,0,0
49,176,0,0,0,0,0,0,0,0,0,-1,1273,848,0,0
56,176,0,0,0,0,0,0,0,0,0,-1,1280,848,0,0
63,176,0,0,0,0,0,0,0,0,0,-1,1287,848,0,0
70,176,0,0,0,0,0,0,0,0,0,-1,1294,848,0,0
77,176,0,0,0,0,0,0,0,0,0,-1,1301,848,0,0
84,176,0,0,0,0,0,0,0,0,0,-1,1308,848,0,0
91,176,0,0,0,0,0,0,0,0,0,-1,1315,848,0,0
98,176,0,0,0,0,0,0,0,0,0,-1,1322,848,0,0
105,176,0,0,0,0,0,0,0,0,0,-1,1329,848,0,0
112,176,0,0,0,0,0,0,0,0,0,-1,1336,848,0,0
119,176,0,0,0,0,0,0,0,0,0,-1,1343,848,0,0
126,176,0,0,0,0,0,0,0,0,0,-1,1350,848,0,0
133,176,0,0,0,0,0,0,0,0,0,-1,1357,848,0,0
140,176,0,0,0,0,0,0,0,0,0,-1,1364,848,0,0
147,176,0,0,0,0,0,0,0,0,0,-1,1371,848,0,0
154,176,0,0,0,0,0,0,0,0,0,-1,1378,848,0,0
161,176,0,0,0,0,0,0,0,0,0,-1,1385,848,0,0
168,176,0,0,0,0,0,0,0,0,0,-1,1392,848,0,0
175,176,0,0,0,0,0,0,0,0,0,-1,1399,848,0,0
182,176,0,0,0,0,0,0,0,0,0,-1,1406,848,0,0
189,176,0,0,0,0,0,0,0,0,0,-1,1413,848,0,0
196,176,0,0,0,0,0,0,0,0,0,-1,1420,848,0,0
203,176,0,0,0,0,0,0,0,0,0,-1,1427,848,0,0
210,176,0,0,0,0,0,0,0,0,0,-1,1434,848,0,0
217,176,0,0,0,0,0,0,0,0,0,-1,1441,848,0,0
224,176,0,0,0,0,0,0,0,0,0,-1,1448,848,0,0
231,176,0,0,0,0,0,0,0,0,0,-1,1455,848,0,0
238,176,0,0,0,0,0,0,0,0,0,-1,1462,848,0,0
245,176,0,0,0,0,0,0,0,0,0,-1,1469,848,0,0
252,176,0,0,0,0,0,0,0,0,0,-1,1476,848,0,0
259,176,0,0,0,0,0,0,0,0,0,-1,1483,848,0,0
266,176,0,0,0,0,0,0,0,0,0,-1,1490,848,0,0
273,176,0,0,0,0,0,0,0,0,0,-1,1497,848,0,0
280,176,0,0,0,0,0,0,0,0,0,-1,1504,848,0,0
287,176,0,0,0,0,0,0,0,0,0,-1,1511,848,0,0
294,176,0,0,0,0,0,0,0,0,0,-1,1518,848,0,0
301,176,0,0,0,0,0,0,0,0,0,-1,1525,848,0,0
308,176,0,0,0,0,0,0,0,0,0,-1,1532,848,0,0
315,176,0,0,0,0,0,0,0,0,0,-1,1539,848,0,0
322,176,0,0,0,0,0,0,0,0,0,-1,1546,848,0,0
329,176,0,0,0,0,0,0,0,0,0,-1,1553,848,0,0
336,176,0,0,0,0,0,0,0,0,0,-1,1560,848,0,0
343,176,0,0,0,0,0,0,0,0,0,-1,1567,848,0,0
350,176,0,0,0,0,0,0,0,0,0,-1,1574,848,0,0
357,176,0,0,0,0,0,0,0,0,0,-1,1581,848,0,0
364,176,0,0,0,0,0,0,0,0,0,-1,1588,848,0,0
371,176,0,0,0,0,0,0,0,0,0,-1,1595,848,0,0
378,176,0,0,0,0,0,0,0,0,0,-1,1602,848,0,0
385,176,0,0,0,0,0,0,0,0,0,-1,1609,848,0,0
392,176,0,0,0,0,0,0,0,0,0,-1,1616,848,0,0
399,176,0,0,0,0,0,0,0,0,0,-1,1623,848,0,0
406,176,0,0,0,0,0,0,0,0,0,-1,1630,848,0,0
413,176,0,0,0,0,0,0,0,0,0,-1,1637,848,0,0
420,176,0,0,0,0,0,0,0,0,0,-1,1644,848,0,0
427,176,0,0,0,0,0,0,0,0,0,-1,1651,848,0,0
434,176,0,0,0,0,0,0,0,0,0,-1,1658,848,0,0
441,176,0,0,0,0,0,0,0,0,0,-1,1665,848,0,0
448,176,0,0,0,0,0,0,0,0,0,-1,1672,848,0,0
455,176,0,0,0,0,0,0,0,0,0,-1,1679,848,0,0
462,176,0,0,0,0,0,0,0,0,0,-1,1686,848,0,0
469,176,0,0,0,0,0,0,0,0,0,-1,1693,848,0,0
476,176,0,0,0,0,0,0,0,0,0,-1,1700,848,0,0
483,176,0,0,0,0,0,0,0,0,0,-1,1707,848,0,0
490,176,0,0,0,0,0,0,0,0,0,-1,1714,848,0,0
497,176,0,0,0,0,0,0,0,0,0,-1,1721,848,0,0
504,176,0,0,0,0,0,0,0,0,0,-1,1728,848,0,0
511,176,0,0,0,0,0,0,0,0,0,-1,1735,848,0,0
518,176,0,0,0,0,0,0,0,0,0,-1,1742,848,0,0
525,176,0,0,0,0,0,0,0,0,0,-1,1749,848,0,0
532,176,0,0,0,0,0,0,0,0,0,-1,1756,848,0,0
539,176,0,0,0,0,0,0,0,0,0,-1,1763,848,0,0
546,176,0,0,0,0,0,0,0,0,0,-1,1770,848,0,0
553,176,0,0,0,0,0,0,0,0,0,-1,1777,848,0,0
560,176,0,0,0,0,0,0,0,0,0,-1,1784,848,0,0
567,176,0,0,0,0,0,0,0,0,0,-1,1791,848,0,0
574,176,0,0,0,0,0,0,0,0,0,-1,1798,848,0,0
581,176,0,0,0,0,0,0,0,0,0,-1,1805,848,0,0
588,176,0,0,0,0,0,0,0,0,0,-1,1812,848,0,0
595,176,0,0,0,0,0,0,0,0,0,-1,1819,848,0,0
602,176,0,0,0,0,0,0,0,0,0,-1,1826,848,0,0
609,176,77.8234,2.74689,0.005762,-0.00352268,0.00216512,0.00624206,-0.00400275,0.218198,0.00596176,0.0418796,1833,848,77.8233,-2.74689
616,176,77.8359,2.61279,0.00404947,-0.00223514,0.00169405,0.00447702,-0.00266269,0.247222,0.00416624,0.0396039,1840,848,77.836,-2.61281
623,176,77.98,2.40552,0.00239529,-0.00105959,0.00130917,0.00283533,-0.00149963,0.324258,0.00254208,0.0444628,1847,848,77.98,-2.40551
630,176,78.043,2.40576,0.000952445,0.000195844,0.000951081,0.0015977,-0.000449411,0.596112,0.00124233,0.0409979,1854,848,78.0429,-2.40575
637,176,78.0044,2.52625,6.67093e-05,0.000792763,0.000678135,0.00119893,-0.000339456,1.03115,0.000933248,0.0320136,1861,848,78.0044,-2.52622
644,176,77.9261,2.56073,-0.000124402,0.000453494,0.000281886,0.000568218,-0.000239126,1.18428,0.000478854,0.0317984,1868,848,77.9261,-2.56072
651,176,77.9512,2.53217,-0.000226775,-7.51292e-05,-0.000218695,8.05136e-05,-0.000382418,-0.952268,0.000285592,0.0336523,1875,848,77.9512,-2.53218
658,176,77.9507,2.50409,0,0,0,0,0,0,0,-1,1882,848,77.9507,-2.50408
665,176,54.3333,2.34277,0,0,0,0,0,0,0,-1,1889,848,54.3333,-2.34279
672,176,16.9304,2.80719,0,0,0,0,0,0,0,-1,1896,848,16.9305,-2.80719
679,176,50.9341,0.315979,0,0,0,0,0,0,0,-1,1903,848,50.9341,-0.315984
686,176,63.4346,0.124146,0,0,0,0,0,0,0,-1,1910,848,63.4346,-0.124116
693,176,63.2437,0.960815,-0.00136952,-0.000759012,-0.00232674,0.00128242,-0.00341095,-0.850622,0.00280106,0.0368654,1917,848,63.2436,-0.960786
700,176,63.1765,1.9743,-0.00163763,-0.000623192,-0.00250091,0.00142142,-0.00368224,-0.885447,0.00304144,0.0445617,1924,848,63.1766,-1.97433
707,176,63.1248,2.78699,-0.00177215,-0.000423095,-0.00264143,0.00162858,-0.00382382,-0.910408,0.00323187,0.0341058,1931,848,63.1248,-2.78696
714,176,62.9301,3.5506,-0.00127625,0.000299151,-0.00246551,0.00209973,-0.00307683,-0.940017,0.00300639,0.0162898,1938,848,62.9301,-3.55059
721,176,62.9216,4.4118,-0.000289464,0.00103025,-0.00200767,0.00248372,-0.00174293,-0.944172,0.00245272,0.0143195,1945,848,62.9216,-4.4118
728,176,62.8865,5.31482,0.00109064,0.0017747,-0.00131511,0.00279153,7.38134e-05,-0.912619,0.00183691,0.0175559,1952,848,62.8865,-5.31481
735,176,62.7943,6.19751,0.00278313,0.00264014,-0.00058806,0.00330403,0.00211925,-0.724905,0.00193285,0.0156812,1959,848,62.7944,-6.19752
742,176,62.7203,7.08942,0.00460908,0.00355954,0.000132512,0.00462555,0.00354307,0.123672,0.00279368,0.0237087,1966,848,62.7204,-7.08943
749,176,63.0817,8.1474,0.00668834,0.00450849,0.000804726,0.00695323,0.0042436,0.317996,0.00404688,0.0358801,1973,848,63.0817,-8.14743
756,176,63.5742,9.24573,0,0,0,0,0,0,0,-1,1980,848,63.5742,-9.24574
763,176,44.4343,7.70581,0,0,0,0,0,0,0,-1,1987,848,44.4343,-7.70578
770,176,36.4186,4.25641,0,0,0,0,0,0,0,-1,1994,848,36.4186,-4.25639
777,176,43.8328,7.50177,0,0,0,0,0,0,0,-1,2001,848,43.8328,-7.50178
784,176,0,0,0,0,0,0,0,0,0,-1,2008,848,0,0
791,176,0,0,0,0,0,0,0,0,0,-1,2015,848,0,0
798,176,0,0,0,0,0,0,0,0,0,-1,2022,848,0,0
805,176,0,0,0,0,0,0,0,0,0,-1,2029,848,0,0
812,176,0,0,0,0,0,0,0,0,0,-1,2036,848,0,0
-700,169,0,0,0,0,0,0,0,0,0,-1,524,855,0,0
-693,169,0,0,0,0,0,0,0,0,0,-1,531,855,0,0
-686,169,0,0,0,0,0,0,0,0,0,-1,538,855,0,0
-679,169,0,0,0,0,0,0,0,0,0,-1,545,855,0,0
-672,169,0,0,0,0,0,0,0,0,0,-1,552,855,0,0
-665,169,-50.4697,8.3269,0,0,0,0,0,0,0,-1,559,855,-50.4697,-8.32688
-658,169,-58.8608,8.22839,0,0,0,0,0,0,0,-1,566,855,-58.8608,-8.2284
-651,169,-45.7366,10.7646,0,0,0,0,0,0,0,-1,573,855,-45.7366,-10.7647
-644,169,-45.5977,10.3019,0,0,0,0,0,0,0,-1,580,855,-45.5977,-10.3019
-637,169,-46.9308,9.4574,0,0,0,0,0,0,0,-1,587,855,-46.9308,-9.45739
-630,169,-47.9094,9.08801,0,0,0,0,0,0,0,-1,594,855,-47.9094,-9.08799
-623,169,-47.9655,8.01337,-0.0011028,0.0109023,-0.00610656,0.0134625,-0.003663,-1.1738,0.010413,0.0387634,601,855,-47.9655,-8.01335
-616,169,-47.9932,6.966,-0.00221294,0.00830122,-0.00349012,0.00935427,-0.003266,-1.27776,0.00756366,0.0235941,608,855,-47.9932,-6.96599
-609,169,-48.0789,6.11786,-0.00289871,0.00621958,-0.00138117,0.0064242,-0.00310332,-1.42372,0.00561099,0.0145875,615,855,-48.0789,-6.11785
-602,169,-48.1482,5.21741,-0.00347793,0.00437656,0.000385069,0.0043954,-0.00349676,1.52193,0.00456637,0.0136178,622,855,-48.1482,-5.2174
-595,169,-48.1918,4.29041,-0.00389371,0.00297304,0.00171754,0.00337867,-0.00429934,1.33887,0.00444351,0.0125894,629,855,-48.1918,-4.29039
-588,169,-48.2273,3.41907,-0.00390045,0.00189345,0.00221964,0.00264604,-0.00465303,1.2439,0.00426689,0.0124643,636,855,-48.2273,-3.41904
-581,169,-48.3101,2.57104,-0.00345705,0.00133644,0.00221625,0.00220407,-0.00432468,1.19765,0.00383508,0.0288592,643,855,-48.3101,-2.57107
-574,169,-48.7034,1.6463,-0.00281246,0.00098014,0.00206012,0.00188385,-0.00371617,1.15741,0.00329036,0.0453497,650,855,-48.7034,-1.64632
-567,169,-48.5255,0.696106,0,0,0,0,0,0,0,-1,657,855,-48.5254,-0.696131
-560,169,-48.5598,-0.0771484,0,0,0,0,0,0,0,-1,664,855,-48.5598,0.0771288
-553,169,-32.1944,-0.787964,0,0,0,0,0,0,0,-1,671,855,-32.1944,0.787959
-546,169,-19.0852,-1.05609,0,0,0,0,0,0,0,-1,678,855,-19.0852,1.05612
-539,169,-33.2307,1.10706,0,0,0,0,0,0,0,-1,685,855,-33.2307,-1.10708
-532,169,-60.6703,0.480591,0,0,0,0,0,0,0,-1,692,855,-60.6704,-0.48059
-525,169,-61.9305,0.599854,0,0,0,0,0,0,0,-1,699,855,-61.9305,-0.599865
-518,169,-61.8321,0.723755,-0.00729295,0.00463549,-0.00211021,0.00499779,-0.00765525,-1.40076,0.00735875,0.0431216,706,855,-61.8321,-0.723774
-511,169,-61.9559,0.687134,-0.00689617,0.00514682,-0.00269059,0.0057206,-0.00746995,-1.36069,0.00763786,0.040479,713,855,-61.9559,-0.687112
-504,169,-62.12,0.591431,-0.000768125,0.00576199,-0.00470849,0.00822672,-0.00323286,-1.08855,0.00682239,0.0419713,720,855,-62.12,-0.591433
-497,169,-62.0455,0.642517,0.00941143,0.00652327,-0.0076074,0.0157106,0.000224105,-0.691601,0.0103998,0.0419673,727,855,-62.0455,-0.642539
-490,169,0,0,0,0,0,0,0,0,0,-1,734,855,0,0
-483,169,0,0,0,0,0,0,0,0,0,-1,741,855,0,0
-476,169,0,0,0,0,0,0,0,0,0,-1,748,855,0,0
-469,169,0,0,0,0,0,0,0,0,0,-1,755,855,0,0
-462,169,0,0,0,0,0,0,0,0,0,-1,762,855,0,0
-455,169,0,0,0,0,0,0,0,0,0,-1,769,855,0,0
-448,169,0,0,0,0,0,0,0,0,0,-1,776,855,0,0
-441,169,0,0,0,0,0,0,0,0,0,-1,783,855,0,0
-434,169,0,0,0,0,0,0,0,0,0,-1,790,855,0,0
-427,169,0,0,0,0,0,0,0,0,0,-1,797,855,0,0
-420,169,0,0,0,0,0,0,0,0,0,-1,804,855,0,0
-413,169,0,0,0,0,0,0,0,0,0,-1,811,855,0,0
-406,169,0,0,0,0,0,0,0,0,0,-1,818,855,0,0
-399,169,0,0,0,0,0,0,0,0,0,-1,825,855,0,0
-392,169,0,0,0,0,0,0,0,0,0,-1,832,855,0,0
-385,169,0,0,0,0,0,0,0,0,0,-1,839,855,0,0
-378,169,0,0,0,0,0,0,0,0,0,-1,846,855,0,0
-371,169,0,0,0,0,0,0,0,0,0,-1,853,855,0,0
-364,169,0,0,0,0,0,0,0,0,0,-1,860,855,0,0
-357,169,0,0,0,0,0,0,0,0,0,-1,867,855,0,0
-350,169,0,0,0,0,0,0,0,0,0,-1,874,855,0,0
-343,169,0,0,0,0,0,0,0,0,0,-1,881,855,0,0
-336,169,0,0,0,0,0,0,0,0,0,-1,888,855,0,0
-329,169,0,0,0,0,0,0,0,0,0,-1,895,855,0,0
-322,169,0,0,0,0,0,0,0,0,0,-1,902,855,0,0
-315,169,0,0,0,0,0,0,0,0,0,-1,909,855,0,0
-308,169,0,0,0,0,0,0,0,0,0,-1,916,855,0,0
-301,169,0,0,0,0,0,0,0,0,0,-1,923,855,0,0
-294,169,0,0,0,0,0,0,0,0,0,-1,930,855,0,0
-287,169,0,0,0,0,0,0,0,0,0,-1,937,855,0,0
-280,169,0,0,0,0,0,0,0,0,0,-1,944,855,0,0
-273,169,0,0,0,0,0,0,0,0,0,-1,951,855,0,0
-266,169,0,0,0,0,0,0,0,0,0,-1,958,855,0,0
-259,169,0,0,0,0,0,0,0,0,0,-1,965,855,0,0
-252,169,0,0,0,0,0,0,0,0,0,-1,972,855,0,0
-245,169,0,0,0,0,0,0,0,0,0,-1,979,855,0,0
-238,169,0,0,0,0,0,0,0,0,0,-1,986,855,0,0
-231,169,0,0,0,0,0,0,0,0,0,-1,993,855,0,0
-224,169,0,0,0,0,0,0,0,0,0,-1,1000,855,0,0
-217,169,0,0,0,0,0,0,0,0,0,-1,1007,855,0,0
-210,169,0,0,0,0,0,0,0,0,0,-1,1014,855,0,0
-203,169,0,0,0,0,0,0,0,0,0,-1,1021,855,0,0
-196,169,0,0,0,0,0,0,0,0,0,-1,1028,855,0,0
-189,169,0,0,0,0,0,0,0,0,0,-1,1035,855,0,0
-182,169,0,0,0,0,0,0,0,0,0,-1,1042,855,0,0
-175,169,0,0,0,0,0,0,0,0,0,-1,1049,855,0,0
-168,169,0,0,0,0,0,0,0,0,0,-1,1056,855,0,0
-161,169,0,0,0,0,0,0,0,0,0,-1,1063,855,0,0
-154,169,0,0,0,0,0,0,0,0,0,-1,1070,855,0,0
-147,169,0,0,0,0,0,0,0,0,0,-1,1077,855,0,0
-140,169,0,0,0,0,0,0,0,0,0,-1,1084,855,0,0
-133,169,0,0,0,0,0,0,0,0,0,-1,1091,855,0,0
-126,169,0,0,0,0,0,0,0,0,0,-1,1098,855,0,0
-119,169,0,0,0,0,0,0,0,0,0,-1,1105,855,0,0
-112,169,0,0,0,0,0,0,0,0,0,-1,1112,855,0,0
-105,169,0,0,0,0,0,0,0,0,0,-1,1119,855,0,0
-98,169,0,0,0,0,0,0,0,0,0,-1,1126,855,0,0
-91,169,0,0,0,0,0,0,0,0,0,-1,1133,855,0,0
-84,169,0,0,0,0,0,0,0,0,0,-1,1140,855,0,0
-77,169,0,0,0,0,0,0,0,0,0,-1,1147,855,0,0
-70,169,0,0,0,0,0,0,0,0,0,-1,1154,855,0,0
-63,169,0,0,0,0,0,0,0,0,0,-1,1161,855,0,0
-56,169,0,0,0,0,0,0,0,0,0,-1,1168,855,0,0
-49,169,0,0,0,0,0,0,0,0,0,-1,1175,855,0,0
-42,169,0,0,0,0,0,0,0,0,0,-1,1182,855,0,0
-35,169,0,0,0,0,0,0,0,0,0,-1,1189,855,0,0
-28,169,0,0,0,0,0,0,0,0,0,-1,1196,855,0,0
-21,169,0,0,0,0,0,0,0,0,0,-1,1203,855,0,0
-14,169,0,0,0,0,0,0,0,0,0,-1,1210,855,0,0
-7,169,0,0,0,0,0,0,0,0,0,-1,1217,855,0,0
0,169,0,0,0,0,0,0,0,0,0,-1,1224,855,0,0
7,169,0,0,0,0,0,0,0,0,0,-1,1231,855,0,0
14,169,0,0,0,0,0,0,0,0,0,-1,1238,855,0,0
21,169,0,0,0,0,0,0,0,0,0,-1,1245,855,0,0
28,169,0,0,0,0,0,0,0,0,0,-1,1252,855,0,0
35,169,0,0,0,0,0,0,0,0,0,-1,1259,855,0,0
42,169,0,0,0,0,0,0,0,0,0,-1,1266,855,0,0
49,169,0,0,0,0,0,0,0,0,0,-1,1273,855,0,0
56,169,0,0,0,0,0,0,0,0,0,-1,1280,855,0,0
63,169,0,0,0,0,0,0,0,0,0,-1,1287,855,0,0
70,169,0,0,0,0,0,0,0,0,0,-1,1294,855,0,0
77,169,0,0,0,0,0,0,0,0,0,-1,1301,855,0,0
84,169,0,0,0,0,0,0,0,0,0,-1,1308,855,0,0
91,169,0,0,0,0,0,0,0,0,0,-1,1315,855,0,0
98,169,0,0,0,0,0,0,0,0,0,-1,1322,855,0,0
105,169,0,0,0,0,0,0,0,0,0,-1,1329,855,0,0
112,169,0,0,0,0,0,0,0,0,0,-1,1336,855,0,0
119,169,0,0,0,0,0,0,0,0,0,-1,1343,855,0,0
126,169,0,0,0,0,0,0,0,0,0,-1,1350,855,0,0
133,169,0,0,0,0,0,0,0,0,0,-1,1357,855,0,0
140,169,0,0,0,0,0,0,0,0,0,-1,1364,855,0,0
147,169,0,0,0,0,0,0,0,0,0,-1,1371,855,0,0
154,169,0,0,0,0,0,0,0,0,0,-1,1378,855,0,0
161,169,0,0,0,0,0,0,0,0,0,-1,1385,855,0,0
168,169,0,0,0,0,0,0,0,0,0,-1,1392,855,0,0
175,169,0,0,0,0,0,0,0,0,0,-1,1399,855,0,0
182,169,0,0,0,0,0,0,0,0,0,-1,1406,855,0,0
189,169,0,0,0,0,0,0,0,0,0,-1,1413,855,0,0
196,169,0,0,0,0,0,0,0,0,0,-1,1420,855,0,0
203,169,0,0,0,0,0,0,0,0,0,-1,1427,855,0,0
210,169,0,0,0,0,0,0,0,0,0,-1,1434,855,0,0
217,169,0,0,0,0,0,0,0,0,0,-1,1441,855,0,0
224,169,0,0,0,0,0,0,0,0,0,-1,1448,855,0,0
231,169,0,0,0,0,0,0,0,0,0,-1,1455,855,0,0
238,169,0,0,0,0,0,0,0,0,0,-1,1462,855,0,0
245,169,0,0,0,0,0,0,0,0,0,-1,1469,855,0,0
252,169,0,0,0,0,0,0,0,0,0,-1,1476,855,0,0
259,169,0,0,0,0,0,0,0,0,0,-1,1483,855,0,0
266,169,0,0,0,0,0,0,0,0,0,-1,1490,855,0,0
273,169,0,0,0,0,0,0,0,0,0,-1,1497,855,0,0
280,169,0,0,0,0,0,0,0,0,0,-1,1504,855,0,0
287,169,0,0,0,0,0,0,0,0,0,-1,1511,855,0,0
294,169,0,0,0,0,0,0,0,0,0,-1,1518,855,0,0
301,169,0,0,0,0,0,0,0,0,0,-1,1525,855,0,0
308,169,0,0,0,0,0,0,0,0,0,-1,1532,855,0,0
315,169,0,0,0,0,0,0,0,0,0,-1,1539,855,0,0
322,169,0,0,0,0,0,0,0,0,0,-1,1546,855,0,0
329,169,0,0,0,0,0,0,0,0,0,-1,1553,855,0,0
336,169,0,0,0,0,0,0,0,0,0,-1,1560,855,0,0
343,169,0,0,0,0,0,0,0,0,0,-1,1567,855,0,0
350,169,0,0,0,0,0,0,0,0,0,-1,1574,855,0,0
357,169,0,0,0,0,0,0,0,0,0,-1,1581,855,0,0
364,169,0,0,0,0,0,0,0,0,0,-1,1588,855,0,0
371,169,0,0,0,0,0,0,0,0,0,-1,1595,855,0,0
378,169,0,0,0,0,0,0,0,0,0,-1,1602,855,0,0
385,169,0,0,0,0,0,0,0,0,0,-1,1609,855,0,0
392,169,0,0,0,0,0,0,0,0,0,-1,1616,855,0,0
399,169,0,0,0,0,0,0,0,0,0,-1,1623,855,0,0
406,169,0,0,0,0,0,0,0,0,0,-1,1630,855,0,0
413,169,0,0,0,0,0,0,0,0,0,-1,1637,855,0,0
420,169,0,0,0,0,0,0,0,0,0,-1,1644,855,0,0
427,169,0,0,0,0,0,0,0,0,0,-1,1651,855,0,0
434,169,0,0,0,0,0,0,0,0,0,-1,1658,855,0,0
441,169,0,0,0,0,0,0,0,0,0,-1,1665,855,0,0
448,169,0,0,0,0,0,0,0,0,0,-1,1672,855,0,0
455,169,0,0,0,0,0,0,0,0,0,-1,1679,855,0,0
462,169,0,0,0,0,0,0,0,0,0,-1,1686,855,0,0
469,169,0,0,0,0,0,0,0,0,0,-1,1693,855,0,0
476,169,0,0,0,0,0,0,0,0,0,-1,1700,855,0,0
483,169,0,0,0,0,0,0,0,0,0,-1,1707,855,0,0
490,169,0,0,0,0,0,0,0,0,0,-1,1714,855,0,0
497,169,0,0,0,0,0,0,0,0,0,-1,1721,855,0,0
504,169,0,0,0,0,0,0,0,0,0,-1,1728,855,0,0
511,169,0,0,0,0,0,0,0,0,0,-1,1735,855,0,0
518,169,0,0,0,0,0,0,0,0,0,-1,1742,855,0,0
525,169,0,0,0,0,0,0,0,0,0,-1,1749,855,0,0
532,169,0,0,0,0,0,0,0,0,0,-1,1756,855,0,0
539,169,0,0,0,0,0,0,0,0,0,-1,1763,855,0,0
546,169,0,0,0,0,0,0,0,0,0,-1,1770,855,0,0
553,169,0,0,0,0,0,0,0,0,0,-1,1777,855,0,0
560,169,0,0,0,0,0,0,0,0,0,-1,1784,855,0,0
567,169,0,0,0,0,0,0,0,0,0,-1,1791,855,0,0
574,169,0,0,0,0,0,0,0,0,0,-1,1798,855,0,0
581,169,0,0,0,0,0,0,0,0,0,-1,1805,855,0,0
588,169,0,0,0,0,0,0,0,0,0,-1,1812,855,0,0
595,169,0,0,0,0,0,0,0,0,0,-1,1819,855,0,0
602,169,0,0,0,0,0,0,0,0,0,-1,1826,855,0,0
609,169,0,0,0,0,0,0,0,0,0,-1,1833,855,0,0
616,169,77.7933,2.45764,0.00458256,-0.00328706,0.00175901,0.00495784,-0.00366233,0.210194,0.00499556,0.0415868,1840,855,77.7934,-2.45767
623,169,78.0153,2.35352,0.00296303,-0.00220644,0.00131809,0.00327971,-0.00252312,0.235788,0.00335975,0.0461153,1847,855,78.0152,-2.3535
630,169,78.1134,2.50244,0.00161316,-0.001053,0.000933788,0.00190768,-0.00134751,0.305522,0.00188864,0.0426123,1854,855,78.1134,-2.50244
637,169,78.0469,2.61157,0.000624927,-0.000247792,0.000623751,0.000949799,-0.000572664,0.480179,0.000887939,0.0373255,1861,855,78.0468,-2.61156
644,169,77.9841,2.64899,0.000190868,-0.000288663,0.000226647,0.000281036,-0.000378831,0.378639,0.000382367,0.0367717,1868,855,77.9841,-2.649
651,169,77.9327,2.63208,-6.85762e-05,-0.000639366,-0.000330529,8.2721e-05,-0.000790663,-0.429273,0.000556735,0.035743,1875,855,77.9328,-2.63209
658,169,77.8959,2.57037,0,0,0,0,0,0,0,-1,1882,855,77.8958,-2.57035
665,169,74.1068,1.9809,0,0,0,0,0,0,0,-1,1889,855,74.1069,-1.98093
672,169,31.2465,2.96387,0,0,0,0,0,0,0,-1,1896,855,31.2464,-2.9639
679,169,38.4297,1.08197,0,0,0,0,0,0,0,-1,1903,855,38.4296,-1.08194
686,169,64.0928,0.151062,0,0,0,0,0,0,0,-1,1910,855,64.0927,-0.151041
693,169,64.2751,1.10693,-0.00158965,-0.000844125,-0.00246915,0.00128024,-0.00371401,-0.860316,0.00299538,0.0433951,1917,855,64.2751,-1.10693
700,169,64.3015,2.09338,-0.00181467,-0.000651256,-0.00259032,0.00142187,-0.00388779,-0.89585,0.00317382,0.0366976,1924,855,64.3016,-2.09337
707,169,64.1868,2.94537,-0.00201227,-0.000469121,-0.00276039,0.0016255,-0.00410689,-0.921678,0.00341139,0.0405494,1931,855,64.1868,-2.94535
714,169,63.7968,3.53839,-0.00177399,0.000254392,-0.00272397,0.00214685,-0.00366645,-0.963608,0.00339432,0.0242488,1938,855,63.7968,-3.53842
721,169,63.8176,4.45111,-0.00112636,0.000995499,-0.00240753,0.0025655,-0.00269636,-0.992932,0.00303825,0.0202204,1945,855,63.8176,-4.45113
728,169,63.7791,5.36517,-6.45783e-05,0.00183007,-0.00181949,0.00293408,-0.00116859,-1.02541,0.00244069,0.0161435,1952,855,63.779,-5.36516
735,169,63.6854,6.26263,0.00135731,0.00288999,-0.00116138,0.00351508,0.000732219,-1.07703,0.00214146,0.0204252,1959,855,63.6854,-6.26265
742,169,63.6541,7.14984,0.00293567,0.00411803,-0.000486593,0.00429253,0.00276117,-1.22647,0.00251197,0.0195284,1966,855,63.6541,-7.14985
749,169,63.6169,7.94128,0.00461604,0.00549595,0.000139077,0.00551741,0.00459458,1.41771,0.00341251,0.0312066,1973,855,63.617,-7.94128
756,169,63.8805,8.71814,0,0,0,0,0,0,0,-1,1980,855,63.8805,-8.71814
763,169,61.2976,7.40009,0,0,0,0,0,0,0,-1,1987,855,61.2975,-7.40007
770,169,37.2059,3.97021,0,0,0,0,0,0,0,-1,1994,855,37.2059,-3.97022
777,169,41.7505,8.7085,0,0,0,0,0,0,0,-1,2001,855,41.7505,-8.70852
784,169,40.7385,9.24359,0,0,0,0,0,0,0,-1,2008,855,40.7384,-9.24361
791,169,0,0,0,0,0,0,0,0,0,-1,2015,855,0,0
798,169,0,0,0,0,0,0,0,0,0,-1,2022,855,0,0
805,169,0,0,0,0,0,0,0,0,0,-1,2029,855,0,0
812,169,0,0,0,0,0,0,0,0,0,-1,2036,855,0,0
-700,162,0,0,0,0,0,0,0,0,0,-1,524,862,0,0
-693,162,0,0,0,0,0,0,0,0,0,-1,531,862,0,0
-686,162,0,0,0,0,0,0,0,0,0,-1,538,862,0,0
-679,162,0,0,0,0,0,0,0,0,0,-1,545,862,0,0
-672,162,0,0,0,0,0,0,0,0,0,-1,552,862,0,0
-665,162,-50.6751,7.18884,0,0,0,0,0,0,0,-1,559,862,-50.6751,-7.18885
-658,162,-50.7888,6.02673,0,0,0,0,0,0,0,-1,566,862,-50.7888,-6.02673
-651,162,-46.6468,10.7962,0,0,0,0,0,0,0,-1,573,862,-46.6468,-10.7962
-644,162,-46.5665,9.83966,0,0,0,0,0,0,0,-1,580,862,-46.5665,-9.83966
-637,162,-48.5604,9.62097,0,0,0,0,0,0,0,-1,587,862,-48.5604,-9.621
-630,162,-48.7926,8.8974,0,0,0,0,0,0,0,-1,594,862,-48.7926,-8.89738
-623,162,-48.8203,7.97485,-0.00321862,0.0103277,-0.00497187,0.0119567,-0.00484755,-1.25419,0.00998713,0.0350037,601,862,-48.8203,-7.97487
-616,162,-48.8723,7.00977,-0.00368386,0.00801395,-0.00251646,0.00853232,-0.00420223,-1.36764,0.00749264,0.020808,608,862,-48.8723,-7.00975
-609,162,-49.006,6.11615,-0.00399991,0.00608067,-0.000415995,0.00609781,-0.00401705,-1.52962,0.00588086,0.0139555,615,862,-49.006,-6.11612
-602,162,-49.0816,5.25354,-0.00438346,0.0042934,0.00146548,0.00453423,-0.00462429,1.40792,0.00528776,0.0125987,622,862,-49.0816,-5.25355
-595,162,-49.108,4.36603,-0.00456319,0.00281688,0.00276545,0.00373814,-0.00548445,1.24923,0.00535639,0.0122114,629,862,-49.108,-4.36604
-588,162,-49.1062,3.48059,-0.00434532,0.00160631,0.00298854,0.00284794,-0.00558695,1.17703,0.00495473,0.0196458,636,862,-49.1062,-3.48061
-581,162,-49.4261,2.58832,-0.00382617,0.000916612,0.00275799,0.00218253,-0.00509209,1.14048,0.00431053,0.0496796,643,862,-49.4261,-2.58831
-574,162,-50.0042,1.30377,0,0,0,0,0,0,0,-1,650,862,-50.0042,-1.30375
-567,162,-49.9147,0.637085,0,0,0,0,0,0,0,-1,657,862,-49.9147,-0.637095
-560,162,-36.5075,-0.831665,0,0,0,0,0,0,0,-1,664,862,-36.5075,0.831657
-553,162,-35.9823,-1.60956,0,0,0,0,0,0,0,-1,671,862,-35.9823,1.60954
-546,162,-22.8181,-1.51154,0,0,0,0,0,0,0,-1,678,862,-22.8181,1.51155
-539,162,-53.0229,0.9328,0,0,0,0,0,0,0,-1,685,862,-53.0229,-0.932798
-532,162,-61.9412,0.591248,0,0,0,0,0,0,0,-1,692,862,-61.9412,-0.591249
-525,162,-61.9721,0.581909,-0.00568527,0.00258563,-0.0010338,0.00271289,-0.00581252,-1.44831,0.00502942,0.0414053,699,862,-61.9721,-0.581932
-518,162,-62.0376,0.77771,-0.00685889,0.0033652,-0.00187474,0.00369813,-0.00719181,-1.39505,0.00639425,0.0423572,706,862,-62.0376,-0.777725
-511,162,-62.0635,0.711792,-0.00474323,0.00487164,-0.00309743,0.00578308,-0.00565467,-1.28462,0.00660372,0.0437823,713,862,-62.0635,-0.711799
-504,162,-62.0454,0.611023,0.00326761,0.00698471,-0.00598709,0.0113951,-0.00114277,-0.935896,0.00800489,0.0460303,720,862,-62.0454,-0.610997
-497,162,-61.907,0.555542,0.0133011,0.00875525,-0.00899957,0.0203103,0.00174602,-0.661704,0.0129974,0.0442447,727,862,-61.907,-0.555546
-490,162,0,0,0,0,0,0,0,0,0,-1,734,862,0,0
-483,162,0,0,0,0,0,0,0,0,0,-1,741,862,0,0
-476,162,0,0,0,0,0,0,0,0,0,-1,748,862,0,0
-469,162,0,0,0,0,0,0,0,0,0,-1,755,862,0,0
-462,162,0,0,0,0,0,0,0,0,0,-1,762,862,0,0
-455,162,0,0,0,0,0,0,0,0,0,-1,769,862,0,0
-448,162,0,0,0,0,0,0,0,0,0,-1,776,862,0,0
-441,162,0,0,0,0,0,0,0,0,0,-1,783,862,0,0
-434,162,0,0,0,0,0,0,0,0,0,-1,790,862,0,0
-427,162,0,0,0,0,0,0,0,0,0,-1,797,862,0,0
-420,162,0,0,0,0,0,0,0,0,0,-1,804,862,0,0
-413,162,0,0,0,0,0,0,0,0,0,-1,811,862,0,0
-406,162,0,0,0,0,0,0,0,0,0,-1,818,862,0,0
-399,162,0,0,0,0,0,0,0,0,0,-1,825,862,0,0
-392,162,0,0,0,0,0,0,0,0,0,-1,832,862,0,0
-385,162,0,0,0,0,0,0,0,0,0,-1,839,862,0,0
-378,162,0,0,0,0,0,0,0,0,0,-1,846,862,0,0
-371,162,0,0,0,0,0,0,0,0,0,-1,853,862,0,0
-364,162,0,0,0,0,0,0,0,0,0,-1,860,862,0,0
-357,162,0,0,0,0,0,0,0,0,0,-1,867,862,0,0
-350,162,0,0,0,0,0,0,0,0,0,-1,874,862,0,0
-343,162,0,0,0,0,0,0,0,0,0,-1,881,862,0,0
-336,162,0,0,0,0,0,0,0,0,0,-1,888,862,0,0
-329,162,0,0,0,0,0,0,0,0,0,-1,895,862,0,0
-322,162,0,0,0,0,0,0,0,0,0,-1,902,862,0,0
-315,162,0,0,0,0,0,0,0,0,0,-1,909,862,0,0
-308,162,0,0,0,0,0,0,0,0,0,-1,916,862,0,0
-301,162,0,0,0,0,0,0,0,0,0,-1,923,862,0,0
-294,162,0,0,0,0,0,0,0,0,0,-1,930,862,0,0
-287,162,0,0,0,0,0,0,0,0,0,-1,937,862,0,0
-280,162,0,0,0,0,0,0,0,0,0,-1,944,862,0,0
-273,162,0,0,0,0,0,0,0,0,0,-1,951,862,0,0
-266,162,0,0,0,0,0,0,0,0,0,-1,958,862,0,0
-259,162,0,0,0,0,0,0,0,0,0,-1,965,862,0,0
-252,162,0,0,0,0,0,0,0,0,0,-1,972,862,0,0
-245,162,0,0,0,0,0,0,0,0,0,-1,979,862,0,0
-238,162,0,0,0,0,0,0,0,0,0,-1,986,862,0,0
-231,162,0,0,0,0,0,0,0,0,0,-1,993,862,0,0
-224,162,0,0,0,0,0,0,0,0,0,-1,1000,862,0,0
-217,162,0,0,0,0,0,0,0,0,0,-1,1007,862,0,0
-210,162,0,0,0,0,0,0,0,0,0,-1,1014,862,0,0
-203,162,0,0,0,0,0,0,0,0,0,-1,1021,862,0,0
-196,162,0,0,0,0,0,0,0,0,0,-1,1028,862,0,0
-189,162,0,0,0,0,0,0,0,0,0,-1,1035,862,0,0
-182,162,0,0,0,0,0,0,0,0,0,-1,1042,862,0,0
-175,162,0,0,0,0,0,0,0,0,0,-1,1049,862,0,0
-168,162,0,0,0,0,0,0,0,0,0,-1,1056,862,0,0
-161,162,0,0,0,0,0,0,0,0,0,-1,1063,862,0,0
-154,162,0,0,0,0,0,0,0,0,0,-1,1070,862,0,0
-147,162,0,0,0,0,0,0,0,0,0,-1,1077,862,0,0
-140,162,0,0,0,0,0,0,0,0,0,-1,1084,862,0,0
-133,162,0,0,0,0,0,0,0,0,0,-1,1091,862,0,0
-126,162,0,0,0,0,0,0,0,0,0,-1,1098,862,0,0
-119,162,0,0,0,0,0,0,0,0,0,-1,1105,862,0,0
-112,162,0,0,0,0,0,0,0,0,0,-1,1112,862,0,0
-105,162,0,0,0,0,0,0,0,0,0,-1,1119,862,0,0
-98,162,0,0,0,0,0,0,0,0,0,-1,1126,862,0,0
-91,162,0,0,0,0,0,0,0,0,0,-1,1133,862,0,0
-84,162,0,0,0,0,0,0,0,0,0,-1,1140,862,0,0
-77,162,0,0,0,0,0,0,0,0,0,-1,1147,862,0,0
-70,162,0,0,0,0,0,0,0,0,0,-1,1154,862,0,0
-63,162,0,0,0,0,0,0,0,0,0,-1,1161,862,0,0
-56,162,0,0,0,0,0,0,0,0,0,-1,1168,862,0,0
-49,162,0,0,0,0,0,0,0,0,0,-1,1175,862,0,0
-42,162,0,0,0,0,0,0,0,0,0,-1,1182,862,0,0
-35,162,0,0,0,0,0,0,0,0,0,-1,1189,862,0,0
-28,162,0,0,0,0,0,0,0,0,0,-1,1196,862,0,0
-21,162,0,0,0,0,0,0,0,0,0,-1,1203,862,0,0
-14,162,0,0,0,0,0,0,0,0,0,-1,1210,862,0,0
-7,162,0,0,0,0,0,0,0,0,0,-1,1217,862,0,0
0,162,0,0,0,0,0,0,0,0,0,-1,1224,862,0,0
7,162,0,0,0,0,0,0,0,0,0,-1,1231,862,0,0
14,162,0,0,0,0,0,0,0,0,0,-1,1238,862,0,0
21,162,0,0,0,0,0,0,0,0,0,-1,1245,862,0,0
28,162,0,0,0,0,0,0,0,0,0,-1,1252,862,0,0
35,162,0,0,0,0,0,0,0,0,0,-1,1259,862,0,0
42,162,0,0,0,0,0,0,0,0,0,-1,1266,862,0,0
49,162,0,0,0,0,0,0,0,0,0,-1,1273,862,0,0
56,162,0,0,0,0,0,0,0,0,0,-1,1280,862,0,0
63,162,0,0,0,0,0,0,0,0,0,-1,1287,862,0,0
70,162,0,0,0,0,0,0,0,0,0,-1,1294,862,0,0
77,162,0,0,0,0,0,0,0,0,0,-1,1301,862,0,0
84,162,0,0,0,0,0,0,0,0,0,-1,1308,862,0,0
91,162,0,0,0,0,0,0,0,0,0,-1,1315,862,0,0
98,162,0,0,0,0,0,0,0,0,0,-1,1322,862,0,0
105,162,0,0,0,0,0,0,0,0,0,-1,1329,862,0,0
112,162,0,0,0,0,0,0,0,0,0,-1,1336,862,0,0
119,162,0,0,0,0,0,0,0,0,0,-1,1343,862,0,0
126,162,0,0,0,0,0,0,0,0,0,-1,1350,862,0,0
133,162,0,0,0,0,0,0,0,0,0,-1,1357,862,0,0
140,162,0,0,0,0,0,0,0,0,0,-1,1364,862,0,0
147,162,0,0,0,0,0,0,0,0,0,-1,1371,862,0,0
154,162,0,0,0,0,0,0,0,0,0,-1,1378,862,0,0
161,162,0,0,0,0,0,0,0,0,0,-1,1385,862,0,0
168,162,0,0,0,0,0,0,0,0,0,-1,1392,862,0,0
175,162,0,0,0,0,0,0,0,0,0,-1,1399,862,0,0
182,162,0,0,0,0,0,0,0,0,0,-1,1406,862,0,0
189,162,0,0,0,0,0,0,0,0,0,-1,1413,862,0,0
196,162,0,0,0,0,0,0,0,0,0,-1,1420,862,0,0
203,162,0,0,0,0,0,0,0,0,0,-1,1427,862,0,0
210,162,0,0,0,0,0,0,0,0,0,-1,1434,862,0,0
217,162,0,0,0,0,0,0,0,0,0,-1,1441,862,0,0
224,162,0,0,0,0,0,0,0,0,0,-1,1448,862,0,0
231,162,0,0,0,0,0,0,0,0,0,-1,1455,862,0,0
238,162,0,0,0,0,0,0,0,0,0,-1,1462,862,0,0
245,162,0,0,0,0,0,0,0,0,0,-1,1469,862,0,0
252,162,0,0,0,0,0,0,0,0,0,-1,1476,862,0,0
259,162,0,0,0,0,0,0,0,0,0,-1,1483,862,0,0
266,162,0,0,0,0,0,0,0,0,0,-1,1490,862,0,0
273,162,0,0,0,0,0,0,0,0,0,-1,1497,862,0,0
280,162,0,0,0,0,0,0,0,0,0,-1,1504,862,0,0
287,162,0,0,0,0,0,0,0,0,0,-1,1511,862,0,0
294,162,0,0,0,0,0,0,0,0,0,-1,1518,862,0,0
301,162,0,0,0,0,0,0,0,0,0,-1,1525,862,0,0
308,162,0,0,0,0,0,0,0,0,0,-1,1532,862,0,0
315,162,0,0,0,0,0,0,0,0,0,-1,1539,862,0,0
322,162,0,0,0,0,0,0,0,0,0,-1,1546,862,0,0
329,162,0,0,0,0,0,0,0,0,0,-1,1553,862,0,0
336,162,0,0,0,0,0,0,0,0,0,-1,1560,862,0,0
343,162,0,0,0,0,0,0,0,0,0,-1,1567,862,0,0
350,162,0,0,0,0,0,0,0,0,0,-1,1574,862,0,0
357,162,0,0,0,0,0,0,0,0,0,-1,1581,862,0,0
364,162,0,0,0,0,0,0,0,0,0,-1,1588,862,0,0
371,162,0,0,0,0,0,0,0,0,0,-1,1595,862,0,0
378,162,0,0,0,0,0,0,0,0,0,-1,1602,862,0,0
385,162,0,0,0,0,0,0,0,0,0,-1,1609,862,0,0
392,162,0,0,0,0,0,0,0,0,0,-1,1616,862,0,0
399,162,0,0,0,0,0,0,0,0,0,-1,1623,862,0,0
406,162,0,0,0,0,0,0,0,0,0,-1,1630,862,0,0
413,162,0,0,0,0,0,0,0,0,0,-1,1637,862,0,0
420,162,0,0,0,0,0,0,0,0,0,-1,1644,862,0,0
427,162,0,0,0,0,0,0,0,0,0,-1,1651,862,0,0
434,162,0,0,0,0,0,0,0,0,0,-1,1658,862,0,0
441,162,0,0,0,0,0,0,0,0,0,-1,1665,862,0,0
448,162,0,0,0,0,0,0,0,0,0,-1,1672,862,0,0
455,162,0,0,0,0,0,0,0,0,0,-1,1679,862,0,0
462,162,0,0,0,0,0,0,0,0,0,-1,1686,862,0,0
469,162,0,0,0,0,0,0,0,0,0,-1,1693,862,0,0
476,162,0,0,0,0,0,0,0,0,0,-1,1700,862,0,0
483,162,0,0,0,0,0,0,0,0,0,-1,1707,862,0,0
490,162,0,0,0,0,0,0,0,0,0,-1,1714,862,0,0
497,162,0,0,0,0,0,0,0,0,0,-1,1721,862,0,0
504,162,0,0,0,0,0,0,0,0,0,-1,1728,862,0,0
511,162,0,0,0,0,0,0,0,0,0,-1,1735,862,0,0
518,162,0,0,0,0,0,0,0,0,0,-1,1742,862,0,0
525,162,0,0,0,0,0,0,0,0,0,-1,1749,862,0,0
532,162,0,0,0,0,0,0,0,0,0,-1,1756,862,0,0
539,162,0,0,0,0,0,0,0,0,0,-1,1763,862,0,0
546,162,0,0,0,0,0,0,0,0,0,-1,1770,862,0,0
553,162,0,0,0,0,0,0,0,0,0,-1,1777,862,0,0
560,162,0,0,0,0,0,0,0,0,0,-1,1784,862,0,0
567,162,0,0,0,0,0,0,0,0,0,-1,1791,862,0,0
574,162,0,0,0,0,0,0,0,0,0,-1,1798,862,0,0
581,162,0,0,0,0,0,0,0,0,0,-1,1805,862,0,0
588,162,0,0,0,0,0,0,0,0,0,-1,1812,862,0,0
595,162,0,0,0,0,0,0,0,0,0,-1,1819,862,0,0
602,162,0,0,0,0,0,0,0,0,0,-1,1826,862,0,0
609,162,0,0,0,0,0,0,0,0,0,-1,1833,862,0,0
616,162,77.7858,2.22888,0.00453149,-0.00431753,0.00196231,0.00494711,-0.00473316,0.208721,0.00558936,0.0430744,1840,862,77.7858,-2.22887
623,162,77.958,2.48804,0.0030339,-0.00325688,0.00139618,0.00332984,-0.00355283,0.208877,0.00397441,0.0461923,1847,862,77.958,-2.48802
630,162,77.9652,2.5799,0.00182642,-0.00217864,0.00092235,0.00202863,-0.00238085,0.215814,0.00254852,0.0433446,1854,862,77.9652,-2.57989
637,162,77.9128,2.51624,0.000917632,-0.00125801,0.000544933,0.00104649,-0.00138687,0.2322,0.00140947,0.0403587,1861,862,77.9128,-2.51621
644,162,77.9639,2.52814,0.000372225,-0.00100037,0.000146349,0.000387656,-0.0010158,0.105049,0.0008369,0.0381715,1868,862,77.9639,-2.52816
651,162,77.9711,2.55243,1.08929e-05,-0.00111475,-0.000426956,0.000154512,-0.00125837,-0.32449,0.000894878,0.0352417,1875,862,77.9711,-2.5524
658,162,77.9786,2.44116,-0.000656103,-0.00146345,-0.00123673,0.00024117,-0.00236073,-0.627648,0.00166006,0.0365,1882,862,77.9786,-2.44116
665,162,78.0079,2.44379,0,0,0,0,0,0,0,-1,1889,862,78.0079,-2.44379
672,162,56.9712,3.04034,0,0,0,0,0,0,0,-1,1896,862,56.9711,-3.04034
679,162,26.5077,2.54785,0,0,0,0,0,0,0,-1,1903,862,26.5077,-2.54787
686,162,64.7095,-0.0522461,0,0,0,0,0,0,0,-1,1910,862,64.7095,0.0522168
693,162,65.2473,1.24158,0,0,0,0,0,0,0,-1,1917,862,65.2473,-1.2416
700,162,65.1592,2.30121,0,0,0,0,0,0,0,-1,1924,862,65.1592,-2.30119
707,162,65.0303,2.92859,-0.00219892,-0.000364274,-0.00280577,0.00167032,-0.00423352,-0.943392,0.00351403,0.0340204,1931,862,65.0303,-2.9286
714,162,64.7449,3.57031,-0.00212977,0.000332687,-0.00287458,0.00222862,-0.0040257,-0.987736,0.00366029,0.0390661,1938,862,64.7449,-3.57029
721,162,64.5845,4.57593,-0.00177594,0.00100167,-0.00272436,0.00267079,-0.00344506,-1.02112,0.00354041,0.0344011,1945,862,64.5845,-4.57594
728,162,64.5631,5.45959,-0.00110993,0.00187375,-0.0022594,0.0030894,-0.00232558,-1.07718,0.00313669,0.0272528,1952,862,64.5631,-5.45961
735,162,64.5953,6.33478,-7.06738e-05,0.00303845,-0.00166918,0.00376485,-0.00079708,-1.16033,0.00281349,0.0120696,1959,862,64.5953,-6.3348
742,162,64.5332,7.17645,0.00119533,0.00448459,-0.00101743,0.00477386,0.000906065,-1.29379,0.00292767,0.0143683,1966,862,64.5332,-7.17647
749,162,64.386,7.99255,0.00244527,0.00616093,-0.000395056,0.00620247,0.00240373,-1.46604,0.00361106,0.0217632,1973,862,64.386,-7.99258
756,162,64.3184,8.77185,0.00349921,0.00817982,-4.60099e-06,0.00817982,0.00349921,-1.56981,0.00473901,0.0490421,1980,862,64.3184,-8.77185
763,162,64.304,9.60181,0,0,0,0,0,0,0,-1,1987,862,64.304,-9.60179
770,162,54.8257,9.36987,0,0,0,0,0,0,0,-1,1994,862,54.8256,-9.36988
777,162,66.324,10.5801,0,0,0,0,0,0,0,-1,2001,862,66.3239,-10.5802
784,162,55.6492,10.6049,0,0,0,0,0,0,0,-1,2008,862,55.6491,-10.6049
791,162,0,0,0,0,0,0,0,0,0,-1,2015,862,0,0
798,162,0,0,0,0,0,0,0,0,0,-1,2022,862,0,0
805,162,0,0,0,0,0,0,0,0,0,-1,2029,862,0,0
812,162,0,0,0,0,0,0,0,0,0,-1,2036,862,0,0
-700,155,0,0,0,0,0,0,0,0,0,-1,524,869,0,0
-693,155,0,0,0,0,0,0,0,0,0,-1,531,869,0,0
-686,155,0,0,0,0,0,0,0,0,0,-1,538,869,0,0
-679,155,0,0,0,0,0,0,0,0,0,-1,545,869,0,0
-672,155,0,0,0,0,0,0,0,0,0,-1,552,869,0,0
-665,155,-50.9639,6.01917,0,0,0,0,0,0,0,-1,559,869,-50.9639,-6.01917
-658,155,-51.2028,4.90723,0,0,0,0,0,0,0,-1,566,869,-51.2028,-4.90722
-651,155,-51.22,3.81226,0,0,0,0,0,0,0,-1,573,869,-51.2201,-3.81228
-644,155,-47.5779,9.1366,0,0,0,0,0,0,0,-1,580,869,-47.5779,-9.13658
-637,155,-47.4189,8.37805,0,0,0,0,0,0,0,-1,587,869,-47.4189,-8.37807
-630,155,-49.8294,8.69574,0,0,0,0,0,0,0,-1,594,869,-49.8294,-8.69576
-623,155,-49.761,7.93597,-0.00623657,0.0102003,-0.00346283,0.0109001,-0.00693631,-1.37141,0.0103822,0.0304492,601,869,-49.761,-7.93598
-616,155,-49.7937,7.07062,-0.00563706,0.00797612,-0.00134273,0.00810729,-0.00576824,-1.47341,0.0080489,0.0168291,608,869,-49.7937,-7.07063
-609,155,-49.9114,6.14435,-0.00530594,0.00602937,0.000623011,0.00606351,-0.00534008,1.51605,0.00658828,0.015231,615,869,-49.9114,-6.14432
-602,155,-49.9866,5.29712,-0.00529001,0.00415566,0.00247532,0.00476503,-0.00589938,1.32942,0.0061687,0.0147114,622,869,-49.9866,-5.2971
-595,155,-50.0456,4.43829,-0.00509538,0.00271289,0.00353154,0.00407317,-0.00645566,1.20313,0.00613048,0.0143384,629,869,-50.0456,-4.43832
-588,155,-50.0269,3.62305,-0.00464447,0.0015546,0.00342782,0.00307644,-0.00616631,1.15297,0.00543479,0.0274766,636,869,-50.0268,-3.62306
-581,155,-50.3815,2.89917,-0.00410464,0.000923824,0.00300745,0.00232956,-0.00551037,1.13355,0.00464891,0.049422,643,869,-50.3815,-2.89918
-574,155,-50.6295,2.30585,0,0,0,0,0,0,0,-1,650,869,-50.6295,-2.30585
-567,155,-38.0134,0.582214,0,0,0,0,0,0,0,-1,657,869,-38.0134,-0.582192
-560,155,-37.1416,-0.708008,0,0,0,0,0,0,0,-1,664,869,-37.1416,0.70801
-553,155,-36.7729,-1.71521,0,0,0,0,0,0,0,-1,671,869,-36.7729,1.71523
-546,155,-22.7988,0.873657,0,0,0,0,0,0,0,-1,678,869,-22.7988,-0.873645
-539,155,-62.0359,0.352051,0,0,0,0,0,0,0,-1,685,869,-62.0359,-0.352029
-532,155,-61.923,0.620056,0,0,0,0,0,0,0,-1,692,869,-61.923,-0.620084
-525,155,-61.8665,0.661438,-0.00536443,0.00193636,-0.000804777,0.00202402,-0.00545209,-1.4623,0.00446503,0.0389443,699,869,-61.8664,-0.661464
-518,155,-61.9718,0.838074,-0.00574908,0.00303056,-0.00194469,0.00344202,-0.00616055,-1.36229,0.00561762,0.0437534,706,869,-61.9718,-0.838058
-511,155,-62.0983,0.820557,-0.00258311,0.00523043,-0.0039525,0.00688109,-0.00423378,-1.17519,0.00647756,0.0452674,713,869,-62.0983,-0.82056
-504,155,-62.2143,0.667236,0,0,0,0,0,0,0,-1,720,869,-62.2143,-0.667235
-497,155,0,0,0,0,0,0,0,0,0,-1,727,869,0,0
-490,155,0,0,0,0,0,0,0,0,0,-1,734,869,0,0
-483,155,0,0,0,0,0,0,0,0,0,-1,741,869,0,0
-476,155,0,0,0,0,0,0,0,0,0,-1,748,869,0,0
-469,155,0,0,0,0,0,0,0,0,0,-1,755,869,0,0
-462,155,0,0,0,0,0,0,0,0,0,-1,762,869,0,0
-455,155,0,0,0,0,0,0,0,0,0,-1,769,869,0,0
-448,155,0,0,0,0,0,0,0,0,0,-1,776,869,0,0
-441,155,0,0,0,0,0,0,0,0,0,-1,783,869,0,0
-434,155,0,0,0,0,0,0,0,0,0,-1,790,869,0,0
-427,155,0,0,0,0,0,0,0,0,0,-1,797,869,0,0
-420,155,0,0,0,0,0,0,0,0,0,-1,804,869,0,0
-413,155,0,0,0,0,0,0,0,0,0,-1,811,869,0,0
-406,155,0,0,0,0,0,0,0,0,0,-1,818,869,0,0
-399,155,0,0,0,0,0,0,0,0,0,-1,825,869,0,0
-392,155,0,0,0,0,0,0,0,0,0,-1,832,869,0,0
-385,155,0,0,0,0,0,0,0,0,0,-1,839,869,0,0
-378,155,0,0,0,0,0,0,0,0,0,-1,846,869,0,0
-371,155,0,0,0,0,0,0,0,0,0,-1,853,869,0,0
-364,155,0,0,0,0,0,0,0,0,0,-1,860,869,0,0
-357,155,0,0,0,0,0,0,0,0,0,-1,867,869,0,0
-350,155,0,0,0,0,0,0,0,0,0,-1,874,869,0,0
-343,155,0,0,0,0,0,0,0,0,0,-1,881,869,0,0
-336,155,0,0,0,0,0,0,0,0,0,-1,888,869,0,0
-329,155,0,0,0,0,0,0,0,0,0,-1,895,869,0,0
-322,155,0,0,0,0,0,0,0,0,0,-1,902,869,0,0
-315,155,0,0,0,0,0,0,0,0,0,-1,909,869,0,0
-308,155,0,0,0,0,0,0,0,0,0,-1,916,869,0,0
-301,155,0,0,0,0,0,0,0,0,0,-1,923,869,0,0
-294,155,0,0,0,0,0,0,0,0,0,-1,930,869,0,0
-287,155,0,0,0,0,0,0,0,0,0,-1,937,869,0,0
-280,155,0,0,0,0,0,0,0,0,0,-1,944,869,0,0
-273,155,0,0,0,0,0,0,0,0,0,-1,951,869,0,0
-266,155,0,0,0,0,0,0,0,0,0,-1,958,869,0,0
-259,155,0,0,0,0,0,0,0,0,0,-1,965,869,0,0
-252,155,0,0,0,0,0,0,0,0,0,-1,972,869,0,0
-245,155,0,0,0,0,0,0,0,0,0,-1,979,869,0,0
-238,155,0,0,0,0,0,0,0,0,0,-1,986,869,0,0
-231,155,0,0,0,0,0,0,0,0,0,-1,993,869,0,0
-224,155,0,0,0,0,0,0,0,0,0,-1,1000,869,0,0
-217,155,0,0,0,0,0,0,0,0,0,-1,1007,869,0,0
-210,155,0,0,0,0,0,0,0,0,0,-1,1014,869,0,0
-203,155,0,0,0,0,0,0,0,0,0,-1,1021,869,0,0
-196,155,0,0,0,0,0,0,0,0,0,-1,1028,869,0,0
-189,155,0,0,0,0,0,0,0,0,0,-1,1035,869,0,0
-182,155,0,0,0,0,0,0,0,0,0,-1,1042,869,0,0
-175,155,0,0,0,0,0,0,0,0,0,-1,1049,869,0,0
-168,155,0,0,0,0,0,0,0,0,0,-1,1056,869,0,0
-161,155,0,0,0,0,0,0,0,0,0,-1,1063,869,0,0
-154,155,0,0,0,0,0,0,0,0,0,-1,1070,869,0,0
-147,155,0,0,0,0,0,0,0,0,0,-1,1077,869,0,0
-140,155,0,0,0,0,0,0,0,0,0,-1,1084,869,0,0
-133,155,0,0,0,0,0,0,0,0,0,-1,1091,869,0,0
-126,155,0,0,0,0,0,0,0,0,0,-1,1098,869,0,0
-119,155,0,0,0,0,0,0,0,0,0,-1,1105,869,0,0
-112,155,0,0,0,0,0,0,0,0,0,-1,1112,869,0,0
-105,155,0,0,0,0,0,0,0,0,0,-1,1119,869,0,0
-98,155,0,0,0,0,0,0,0,0,0,-1,1126,869,0,0
-91,155,0,0,0,0,0,0,0,0,0,-1,1133,869,0,0
-84,155,0,0,0,0,0,0,0,0,0,-1,1140,869,0,0
-77,155,0,0,0,0,0,0,0,0,0,-1,1147,869,0,0
-70,155,0,0,0,0,0,0,0,0,0,-1,1154,869,0,0
-63,155,0,0,0,0,0,0,0,0,0,-1,1161,869,0,0
-56,155,0,0,0,0,0,0,0,0,0,-1,1168,869,0,0
-49,155,0,0,0,0,0,0,0,0,0,-1,1175,869,0,0
-42,155,0,0,0,0,0,0,0,0,0,-1,1182,869,0,0
-35,155,0,0,0,0,0,0,0,0,0,-1,1189,869,0,0
-28,155,0,0,0,0,0,0,0,0,0,-1,1196,869,0,0
-21,155,0,0,0,0,0,0,0,0,0,-1,1203,869,0,0
-14,155,0,0,0,0,0,0,0,0,0,-1,1210,869,0,0
-7,155,0,0,0,0,0,0,0,0,0,-1,1217,869,0,0
0,155,0,0,0,0,0,0,0,0,0,-1,1224,869,0,0
7,155,0,0,0,0,0,0,0,0,0,-1,1231,869,0,0
14,155,0,0,0,0,0,0,0,0,0,-1,1238,869,0,0
21,155,0,0,0,0,0,0,0,0,0,-1,1245,869,0,0
28,155,0,0,0,0,0,0,0,0,0,-1,1252,869,0,0
35,155,0,0,0,0,0,0,0,0,0,-1,1259,869,0,0
42,155,0,0,0,0,0,0,0,0,0,-1,1266,869,0,0
49,155,0,0,0,0,0,0,0,0,0,-1,1273,869,0,0
56,155,0,0,0,0,0,0,0,0,0,-1,1280,869,0,0
63,155,0,0,0,0,0,0,0,0,0,-1,1287,869,0,0
70,155,0,0,0,0,0,0,0,0,0,-1,1294,869,0,0
77,155,0,0,0,0,0,0,0,0,0,-1,1301,869,0,0
84,155,0,0,0,0,0,0,0,0,0,-1,1308,869,0,0
91,155,0,0,0,0,0,0,0,0,0,-1,1315,869,0,0
98,155,0,0,0,0,0,0,0,0,0,-1,1322,869,0,0
105,155,0,0,0,0,0,0,0,0,0,-1,1329,869,0,0
112,155,0,0,0,0,0,0,0,0,0,-1,1336,869,0,0
119,155,0,0,0,0,0,0,0,0,0,-1,1343,869,0,0
126,155,0,0,0,0,0,0,0,0,0,-1,1350,869,0,0
133,155,0,0,0,0,0,0,0,0,0,-1,1357,869,0,0
140,155,0,0,0,0,0,0,0,0,0,-1,1364,869,0,0
147,155,0,0,0,0,0,0,0,0,0,-1,1371,869,0,0
154,155,0,0,0,0,0,0,0,0,0,-1,1378,869,0,0
161,155,0,0,0,0,0,0,0,0,0,-1,1385,869,0,0
168,155,0,0,0,0,0,0,0,0,0,-1,1392,869,0,0
175,155,0,0,0,0,0,0,0,0,0,-1,1399,869,0,0
182,155,0,0,0,0,0,0,0,0,0,-1,1406,869,0,0
189,155,0,0,0,0,0,0,0,0,0,-1,1413,869,0,0
196,155,0,0,0,0,0,0,0,0,0,-1,1420,869,0,0
203,155,0,0,0,0,0,0,0,0,0,-1,1427,869,0,0
210,155,0,0,0,0,0,0,0,0,0,-1,1434,869,0,0
217,155,0,0,0,0,0,0,0,0,0,-1,1441,869,0,0
224,155,0,0,0,0,0,0,0,0,0,-1,1448,869,0,0
231,155,0,0,0,0,0,0,0,0,0,-1,1455,869,0,0
238,155,0,0,0,0,0,0,0,0,0,-1,1462,869,0,0
245,155,0,0,0,0,0,0,0,0,0,-1,1469,869,0,0
252,155,0,0,0,0,0,0,0,0,0,-1,1476,869,0,0
259,155,0,0,0,0,0,0,0,0,0,-1,1483,869,0,0
266,155,0,0,0,0,0,0,0,0,0,-1,1490,869,0,0
273,155,0,0,0,0,0,0,0,0,0,-1,1497,869,0,0
280,155,0,0,0,0,0,0,0,0,0,-1,1504,869,0,0
287,155,0,0,0,0,0,0,0,0,0,-1,1511,869,0,0
294,155,0,0,0,0,0,0,0,0,0,-1,1518,869,0,0
301,155,0,0,0,0,0,0,0,0,0,-1,1525,869,0,0
308,155,0,0,0,0,0,0,0,0,0,-1,1532,869,0,0
315,155,0,0,0,0,0,0,0,0,0,-1,1539,869,0,0
322,155,0,0,0,0,0,0,0,0,0,-1,1546,869,0,0
329,155,0,0,0,0,0,0,0,0,0,-1,1553,869,0,0
336,155,0,0,0,0,0,0,0,0,0,-1,1560,869,0,0
343,155,0,0,0,0,0,0,0,0,0,-1,1567,869,0,0
350,155,0,0,0,0,0,0,0,0,0,-1,1574,869,0,0
357,155,0,0,0,0,0,0,0,0,0,-1,1581,869,0,0
364,155,0,0,0,0,0,0,0,0,0,-1,1588,869,0,0
371,155,0,0,0,0,0,0,0,0,0,-1,1595,869,0,0
378,155,0,0,0,0,0,0,0,0,0,-1,1602,869,0,0
385,155,0,0,0,0,0,0,0,0,0,-1,1609,869,0,0
392,155,0,0,0,0,0,0,0,0,0,-1,1616,869,0,0
399,155,0,0,0,0,0,0,0,0,0,-1,1623,869,0,0
406,155,0,0,0,0,0,0,0,0,0,-1,1630,869,0,0
413,155,0,0,0,0,0,0,0,0,0,-1,1637,869,0,0
420,155,0,0,0,0,0,0,0,0,0,-1,1644,869,0,0
427,155,0,0,0,0,0,0,0,0,0,-1,1651,869,0,0
434,155,0,0,0,0,0,0,0,0,0,-1,1658,869,0,0
441,155,0,0,0,0,0,0,0,0,0,-1,1665,869,0,0
448,155,0,0,0,0,0,0,0,0,0,-1,1672,869,0,0
455,155,0,0,0,0,0,0,0,0,0,-1,1679,869,0,0
462,155,0,0,0,0,0,0,0,0,0,-1,1686,869,0,0
469,155,0,0,0,0,0,0,0,0,0,-1,1693,869,0,0
476,155,0,0,0,0,0,0,0,0,0,-1,1700,869,0,0
483,155,0,0,0,0,0,0,0,0,0,-1,1707,869,0,0
490,155,0,0,0,0,0,0,0,0,0,-1,1714,869,0,0
497,155,0,0,0,0,0,0,0,0,0,-1,1721,869,0,0
504,155,0,0,0,0,0,0,0,0,0,-1,1728,869,0,0
511,155,0,0,0,0,0,0,0,0,0,-1,1735,869,0,0
518,155,0,0,0,0,0,0,0,0,0,-1,1742,869,0,0
525,155,0,0,0,0,0,0,0,0,0,-1,1749,869,0,0
532,155,0,0,0,0,0,0,0,0,0,-1,1756,869,0,0
539,155,0,0,0,0,0,0,0,0,0,-1,1763,869,0,0
546,155,0,0,0,0,0,0,0,0,0,-1,1770,869,0,0
553,155,0,0,0,0,0,0,0,0,0,-1,1777,869,0,0
560,155,0,0,0,0,0,0,0,0,0,-1,1784,869,0,0
567,155,0,0,0,0,0,0,0,0,0,-1,1791,869,0,0
574,155,0,0,0,0,0,0,0,0,0,-1,1798,869,0,0
581,155,0,0,0,0,0,0,0,0,0,-1,1805,869,0,0
588,155,0,0,0,0,0,0,0,0,0,-1,1812,869,0,0
595,155,0,0,0,0,0,0,0,0,0,-1,1819,869,0,0
602,155,0,0,0,0,0,0,0,0,0,-1,1826,869,0,0
609,155,0,0,0,0,0,0,0,0,0,-1,1833,869,0,0
616,155,77.7689,2.53625,0.00404663,-0.00436343,0.00203945,0.0045151,-0.0048319,0.225789,0.00539753,0.0481042,1840,869,77.7689,-2.53626
623,155,77.8247,2.70148,0.00269699,-0.00343258,0.00131702,0.00296799,-0.00370357,0.202934,0.00385963,0.0480695,1847,869,77.8247,-2.70148
630,155,77.8151,2.68311,0.00166671,-0.00256585,0.000752512,0.00179652,-0.00269566,0.170819,0.00261082,0.0480587,1854,869,77.8151,-2.68308
637,155,77.7972,2.53033,0.000968216,-0.00177878,0.000323478,0.00100579,-0.00181636,0.11565,0.00165162,0.0446424,1861,869,77.7972,-2.53034
644,155,77.8359,2.48328,0.000500374,-0.00143477,-6.22602e-05,0.000502375,-0.00143677,-0.0321292,0.00116208,0.0374603,1868,869,77.836,-2.48331
651,155,77.9467,2.46417,0.00016473,-0.00140039,-0.000593496,0.000364329,-0.00159999,-0.324428,0.00120658,0.0341019,1875,869,77.9466,-2.4642
658,155,77.9706,2.47656,-0.00053065,-0.0016082,-0.00137722,0.000409433,-0.00254828,-0.598948,0.00185049,0.0298106,1882,869,77.9706,-2.47659
665,155,77.9117,2.50702,-0.00127465,-0.0012582,-0.00169149,0.000425089,-0.00295793,-0.78783,0.00212785,0.0411733,1889,869,77.9117,-2.507
672,155,77.881,2.55328,0,0,0,0,0,0,0,-1,1896,869,77.881,-2.55326
679,155,35.1565,2.78528,0,0,0,0,0,0,0,-1,1903,869,35.1565,-2.7853
686,155,43.6101,1.63361,0,0,0,0,0,0,0,-1,1910,869,43.6101,-1.63362
693,155,66.4106,1.42877,0,0,0,0,0,0,0,-1,1917,869,66.4106,-1.42876
700,155,65.6337,2.21448,0,0,0,0,0,0,0,-1,1924,869,65.6337,-2.21446
707,155,65.9976,3.05139,0,0,0,0,0,0,0,-1,1931,869,65.9975,-3.05138
714,155,65.1716,3.68469,0,0,0,0,0,0,0,-1,1938,869,65.1716,-3.68472
721,155,65.469,4.63318,-0.00205756,0.00114864,-0.00297452,0.00292454,-0.00383347,-1.03256,0.00391348,0.0496308,1945,869,65.4689,-4.63318
728,155,65.4816,5.51868,-0.00182917,0.00205855,-0.00265914,0.00340856,-0.00317919,-1.10102,0.00380421,0.0220141,1952,869,65.4815,-5.51869
735,155,65.4604,6.37512,-0.00131041,0.00331836,-0.0021759,0.00418059,-0.00217265,-1.19351,0.00372861,0.0174587,1959,869,65.4604,-6.37512
742,155,65.4574,7.24902,-0.000517312,0.00497642,-0.00159364,0.00540524,-0.000946132,-1.30794,0.00395676,0.0198161,1966,869,65.4573,-7.24903
749,155,65.304,8.05725,0.00025014,0.00691168,-0.00101422,0.00706267,9.91488e-05,-1.42301,0.00467575,0.0181226,1973,869,65.304,-8.05723
756,155,65.1218,8.8999,0.000784212,0.00924356,-0.000603799,0.00928644,0.000741333,-1.4999,0.00595924,0.0306658,1980,869,65.1218,-8.89991
763,155,64.9639,9.77405,0,0,0,0,0,0,0,-1,1987,869,64.9639,-9.77405
770,155,64.9094,9.63458,0,0,0,0,0,0,0,-1,1994,869,64.9095,-9.6346
777,155,67.8357,10.6007,0,0,0,0,0,0,0,-1,2001,869,67.8357,-10.6007
784,155,69.3696,10.9452,0,0,0,0,0,0,0,-1,2008,869,69.3697,-10.9452
791,155,0,0,0,0,0,0,0,0,0,-1,2015,869,0,0
798,155,0,0,0,0,0,0,0,0,0,-1,2022,869,0,0
805,155,0,0,0,0,0,0,0,0,0,-1,2029,869,0,0
812,155,0,0,0,0,0,0,0,0,0,-1,2036,869,0,0
-700,148,0,0,0,0,0,0,0,0,0,-1,524,876,0,0
-693,148,0,0,0,0,0,0,0,0,0,-1,531,876,0,0
-686,148,0,0,0,0,0,0,0,0,0,-1,538,876,0,0
-679,148,0,0,0,0,0,0,0,0,0,-1,545,876,0,0
-672,148,-48.1407,-0.726746,0,0,0,0,0,0,0,-1,552,876,-48.1407,0.726755
-665,148,-48.2041,-3.97095,0,0,0,0,0,0,0,-1,559,876,-48.2041,3.97096
-658,148,-51.7661,3.82794,0,0,0,0,0,0,0,-1,566,876,-51.7661,-3.82797
-651,148,-52.0392,2.79663,0,0,0,0,0,0,0,-1,573,876,-52.0392,-2.79661
-644,148,-52.2687,1.81482,0,0,0,0,0,0,0,-1,580,876,-52.2687,-1.81482
-637,148,-52.5708,0.881165,0,0,0,0,0,0,0,-1,587,876,-52.5708,-0.88117
-630,148,-50.2269,9.16992,0,0,0,0,0,0,0,-1,594,876,-50.2269,-9.16991
-623,148,-50.4705,8.12274,-0.00947646,0.0100392,-0.00124814,0.0101187,-0.00955596,-1.50719,0.0113607,0.0305179,601,876,-50.4705,-8.12276
-616,148,-50.6757,7.11804,-0.00772447,0.0078453,0.000255732,0.0078495,-0.00772867,1.55438,0.00899415,0.0150817,608,876,-50.6757,-7.11807
-609,148,-50.8045,6.19409,-0.00655612,0.00586089,0.00179712,0.00611576,-0.00681099,1.42992,0.00746686,0.0140794,615,876,-50.8045,-6.19409
-602,148,-50.8922,5.32709,-0.00595482,0.00392822,0.00327013,0.00491227,-0.00693887,1.2785,0.00687553,0.0170532,622,876,-50.8922,-5.32712
-595,148,-50.9324,4.48029,-0.00537147,0.00264996,0.00384824,0.00419756,-0.00691906,1.18843,0.00648198,0.0152362,629,876,-50.9324,-4.48029
-588,148,-50.9645,3.53687,-0.00483827,0.00169324,0.00347241,0.00319433,-0.00633936,1.16277,0.00560322,0.0357401,636,876,-50.9645,-3.53687
-581,148,-51.1562,2.9173,-0.00444324,0.00119036,0.0029861,0.00247858,-0.00573146,1.16351,0.0048625,0.0498064,643,876,-51.1562,-2.91731
-574,148,-51.1478,2.54205,0,0,0,0,0,0,0,-1,650,876,-51.1478,-2.54208
-567,148,-35.6293,0.615784,0,0,0,0,0,0,0,-1,657,876,-35.6293,-0.615792
-560,148,-37.7973,-0.588135,0,0,0,0,0,0,0,-1,664,876,-37.7973,0.588143
-553,148,-18.3896,-0.00280762,0,0,0,0,0,0,0,-1,671,876,-18.3897,0.00278524
-546,148,-61.9974,0.421753,0,0,0,0,0,0,0,-1,678,876,-61.9974,-0.421726
-539,148,-61.8883,0.473267,-0.0055559,0.000531856,0.000965002,0.000681162,-0.0057052,1.41729,0.00404966,0.0436653,685,876,-61.8883,-0.47328
-532,148,-61.8654,0.578857,-0.0056055,0.000721032,0.000218506,0.000728569,-0.00561304,1.53631,0.00400702,0.0340317,692,876,-61.8654,-0.57887
-525,148,-61.8244,0.649841,-0.00484924,0.00162098,-0.000650451,0.00168572,-0.00491399,-1.47159,0.00395938,0.0363124,699,876,-61.8244,-0.649857
-518,148,-61.8704,0.750427,-0.004392,0.00297528,-0.00211943,0.00354149,-0.00495821,-1.30974,0.00492997,0.0439936,706,876,-61.8703,-0.750408
-511,148,-61.9781,0.844604,-0.00121051,0.00522505,-0.0045273,0.0075616,-0.00354706,-1.09435,0.0065517,0.0448453,713,876,-61.9781,-0.844579
-504,148,-62.0449,0.881714,0,0,0,0,0,0,0,-1,720,876,-62.0449,-0.88171
-497,148,0,0,0,0,0,0,0,0,0,-1,727,876,0,0
-490,148,0,0,0,0,0,0,0,0,0,-1,734,876,0,0
-483,148,0,0,0,0,0,0,0,0,0,-1,741,876,0,0
-476,148,0,0,0,0,0,0,0,0,0,-1,748,876,0,0
-469,148,0,0,0,0,0,0,0,0,0,-1,755,876,0,0
-462,148,0,0,0,0,0,0,0,0,0,-1,762,876,0,0
-455,148,0,0,0,0,0,0,0,0,0,-1,769,876,0,0
-448,148,0,0,0,0,0,0,0,0,0,-1,776,876,0,0
-441,148,0,0,0,0,0,0,0,0,0,-1,783,876,0,0
-434,148,0,0,0,0,0,0,0,0,0,-1,790,876,0,0
-427,148,0,0,0,0,0,0,0,0,0,-1,797,876,0,0
-420,148,0,0,0,0,0,0,0,0,0,-1,804,876,0,0
-413,148,0,0,0,0,0,0,0,0,0,-1,811,876,0,0
-406,148,0,0,0,0,0,0,0,0,0,-1,818,876,0,0
-399,148,0,0,0,0,0,0,0,0,0,-1,825,876,0,0
-392,148,0,0,0,0,0,0,0,0,0,-1,832,876,0,0
-385,148,0,0,0,0,0,0,0,0,0,-1,839,876,0,0
-378,148,0,0,0,0,0,0,0,0,0,-1,846,876,0,0
-371,148,0,0,0,0,0,0,0,0,0,-1,853,876,0,0
-364,148,0,0,0,0,0,0,0,0,0,-1,860,876,0,0
-357,148,0,0,0,0,0,0,0,0,0,-1,867,876,0,0
-350,148,0,0,0,0,0,0,0,0,0,-1,874,876,0,0
-343,148,0,0,0,0,0,0,0,0,0,-1,881,876,0,0
-336,148,0,0,0,0,0,0,0,0,0,-1,888,876,0,0
-329,148,0,0,0,0,0,0,0,0,0,-1,895,876,0,0
-322,148,0,0,0,0,0,0,0,0,0,-1,902,876,0,0
-315,148,0,0,0,0,0,0,0,0,0,-1,909,876,0,0
-308,148,0,0,0,0,0,0,0,0,0,-1,916,876,0,0
-301,148,0,0,0,0,0,0,0,0,0,-1,923,876,0,0
-294,148,0,0,0,0,0,0,0,0,0,-1,930,876,0,0
-287,148,0,0,0,0,0,0,0,0,0,-1,937,876,0,0
-280,148,0,0,0,0,0,0,0,0,0,-1,944,876,0,0
-273,148,0,0,0,0,0,0,0,0,0,-1,951,876,0,0
-266,148,0,0,0,0,0,0,0,0,0,-1,958,876,0,0
-259,148,0,0,0,0,0,0,0,0,0,-1,965,876,0,0
-252,148,0,0,0,0,0,0,0,0,0,-1,972,876,0,0
-245,148,0,0,0,0,0,0,0,0,0,-1,979,876,0,0
-238,148,0,0,0,0,0,0,0,0,0,-1,986,876,0,0
-231,148,0,0,0,0,0,0,0,0,0,-1,993,876,0,0
-224,148,0,0,0,0,0,0,0,0,0,-1,1000,876,0,0
-217,148,0,0,0,0,0,0,0,0,0,-1,1007,876,0,0
-210,148,0,0,0,0,0,0,0,0,0,-1,1014,876,0,0
-203,148,0,0,0,0,0,0,0,0,0,-1,1021,876,0,0
-196,148,0,0,0,0,0,0,0,0,0,-1,1028,876,0,0
-189,148,0,0,0,0,0,0,0,0,0,-1,1035,876,0,0
-182,148,0,0,0,0,0,0,0,0,0,-1,1042,876,0,0
-175,148,0,0,0,0,0,0,0,0,0,-1,1049,876,0,0
-168,148,0,0,0,0,0,0,0,0,0,-1,1056,876,0,0
-161,148,0,0,0,0,0,0,0,0,0,-1,1063,876,0,0
-154,148,0,0,0,0,0,0,0,0,0,-1,1070,876,0,0
-147,148,0,0,0,0,0,0,0,0,0,-1,1077,876,0,0
-140,148,0,0,0,0,0,0,0,0,0,-1,1084,876,0,0
-133,148,0,0,0,0,0,0,0,0,0,-1,1091,876,0,0
-126,148,0,0,0,0,0,0,0,0,0,-1,1098,876,0,0
-119,148,0,0,0,0,0,0,0,0,0,-1,1105,876,0,0
-112,148,0,0,0,0,0,0,0,0,0,-1,1112,876,0,0
-105,148,0,0,0,0,0,0,0,0,0,-1,1119,876,0,0
-98,148,0,0,0,0,0,0,0,0,0,-1,1126,876,0,0
-91,148,0,0,0,0,0,0,0,0,0,-1,1133,876,0,0
-84,148,0,0,0,0,0,0,0,0,0,-1,1140,876,0,0
-77,148,0,0,0,0,0,0,0,0,0,-1,1147,876,0,0
-70,148,0,0,0,0,0,0,0,0,0,-1,1154,876,0,0
-63,148,0,0,0,0,0,0,0,0,0,-1,1161,876,0,0
-56,148,0,0,0,0,0,0,0,0,0,-1,1168,876,0,0
-49,148,0,0,0,0,0,0,0,0,0,-1,1175,876,0,0
-42,148,0,0,0,0,0,0,0,0,0,-1,1182,876,0,0
-35,148,0,0,0,0,0,0,0,0,0,-1,1189,876,0,0
-28,148,0,0,0,0,0,0,0,0,0,-1,1196,876,0,0
-21,148,0,0,0,0,0,0,0,0,0,-1,1203,876,0,0
-14,148,0,0,0,0,0,0,0,0,0,-1,1210,876,0,0
-7,148,0,0,0,0,0,0,0,0,0,-1,1217,876,0,0
0,148,0,0,0,0,0,0,0,0,0,-1,1224,876,0,0
7,148,0,0,0,0,0,0,0,0,0,-1,1231,876,0,0
14,148,0,0,0,0,0,0,0,0,0,-1,1238,876,0,0
21,148,0,0,0,0,0,0,0,0,0,-1,1245,876,0,0
28,148,0,0,0,0,0,0,0,0,0,-1,1252,876,0,0
35,148,0,0,0,0,0,0,0,0,0,-1,1259,876,0,0
42,148,0,0,0,0,0,0,0,0,0,-1,1266,876,0,0
49,148,0,0,0,0,0,0,0,0,0,-1,1273,876,0,0
56,148,0,0,0,0,0,0,0,0,0,-1,1280,876,0,0
63,148,0,0,0,0,0,0,0,0,0,-1,1287,876,0,0
70,148,0,0,0,0,0,0,0,0,0,-1,1294,876,0,0
77,148,0,0,0,0,0,0,0,0,0,-1,1301,876,0,0
84,148,0,0,0,0,0,0,0,0,0,-1,1308,876,0,0
91,148,0,0,0,0,0,0,0,0,0,-1,1315,876,0,0
98,148,0,0,0,0,0,0,0,0,0,-1,1322,876,0,0
105,148,0,0,0,0,0,0,0,0,0,-1,1329,876,0,0
112,148,0,0,0,0,0,0,0,0,0,-1,1336,876,0,0
119,148,0,0,0,0,0,0,0,0,0,-1,1343,876,0,0
126,148,0,0,0,0,0,0,0,0,0,-1,1350,876,0,0
133,148,0,0,0,0,0,0,0,0,0,-1,1357,876,0,0
140,148,0,0,0,0,0,0,0,0,0,-1,1364,876,0,0
147,148,0,0,0,0,0,0,0,0,0,-1,1371,876,0,0
154,148,0,0,0,0,0,0,0,0,0,-1,1378,876,0,0
161,148,0,0,0,0,0,0,0,0,0,-1,1385,876,0,0
168,148,0,0,0,0,0,0,0,0,0,-1,1392,876,0,0
175,148,0,0,0,0,0,0,0,0,0,-1,1399,876,0,0
182,148,0,0,0,0,0,0,0,0,0,-1,1406,876,0,0
189,148,0,0,0,0,0,0,0,0,0,-1,1413,876,0,0
196,148,0,0,0,0,0,0,0,0,0,-1,1420,876,0,0
203,148,0,0,0,0,0,0,0,0,0,-1,1427,876,0,0
210,148,0,0,0,0,0,0,0,0,0,-1,1434,876,0,0
217,148,0,0,0,0,0,0,0,0,0,-1,1441,876,0,0
224,148,0,0,0,0,0,0,0,0,0,-1,1448,876,0,0
231,148,0,0,0,0,0,0,0,0,0,-1,1455,876,0,0
238,148,0,0,0,0,0,0,0,0,0,-1,1462,876,0,0
245,148,0,0,0,0,0,0,0,0,0,-1,1469,876,0,0
252,148,0,0,0,0,0,0,0,0,0,-1,1476,876,0,0
259,148,0,0,0,0,0,0,0,0,0,-1,1483,876,0,0
266,148,0,0,0,0,0,0,0,0,0,-1,1490,876,0,0
273,148,0,0,0,0,0,0,0,0,0,-1,1497,876,0,0
280,148,0,0,0,0,0,0,0,0,0,-1,1504,876,0,0
287,148,0,0,0,0,0,0,0,0,0,-1,1511,876,0,0
294,148,0,0,0,0,0,0,0,0,0,-1,1518,876,0,0
301,148,0,0,0,0,0,0,0,0,0,-1,1525,876,0,0
308,148,0,0,0,0,0,0,0,0,0,-1,1532,876,0,0
315,148,0,0,0,0,0,0,0,0,0,-1,1539,876,0,0
322,148,0,0,0,0,0,0,0,0,0,-1,1546,876,0,0
329,148,0,0,0,0,0,0,0,0,0,-1,1553,876,0,0
336,148,0,0,0,0,0,0,0,0,0,-1,1560,876,0,0
343,148,0,0,0,0,0,0,0,0,0,-1,1567,876,0,0
350,148,0,0,0,0,0,0,0,0,0,-1,1574,876,0,0
357,148,0,0,0,0,0,0,0,0,0,-1,1581,876,0,0
364,148,0,0,0,0,0,0,0,0,0,-1,1588,876,0,0
371,148,0,0,0,0,0,0,0,0,0,-1,1595,876,0,0
378,148,0,0,0,0,0,0,0,0,0,-1,1602,876,0,0
385,148,0,0,0,0,0,0,0,0,0,-1,1609,876,0,0
392,148,0,0,0,0,0,0,0,0,0,-1,1616,876,0,0
399,148,0,0,0,0,0,0,0,0,0,-1,1623,876,0,0
406,148,0,0,0,0,0,0,0,0,0,-1,1630,876,0,0
413,148,0,0,0,0,0,0,0,0,0,-1,1637,876,0,0
420,148,0,0,0,0,0,0,0,0,0,-1,1644,876,0,0
427,148,0,0,0,0,0,0,0,0,0,-1,1651,876,0,0
434,148,0,0,0,0,0,0,0,0,0,-1,1658,876,0,0
441,148,0,0,0,0,0,0,0,0,0,-1,1665,876,0,0
448,148,0,0,0,0,0,0,0,0,0,-1,1672,876,0,0
455,148,0,0,0,0,0,0,0,0,0,-1,1679,876,0,0
462,148,0,0,0,0,0,0,0,0,0,-1,1686,876,0,0
469,148,0,0,0,0,0,0,0,0,0,-1,1693,876,0,0
476,148,0,0,0,0,0,0,0,0,0,-1,1700,876,0,0
483,148,0,0,0,0,0,0,0,0,0,-1,1707,876,0,0
490,148,0,0,0,0,0,0,0,0,0,-1,1714,876,0,0
497,148,0,0,0,0,0,0,0,0,0,-1,1721,876,0,0
504,148,0,0,0,0,0,0,0,0,0,-1,1728,876,0,0
511,148,0,0,0,0,0,0,0,0,0,-1,1735,876,0,0
518,148,0,0,0,0,0,0,0,0,0,-1,1742,876,0,0
525,148,0,0,0,0,0,0,0,0,0,-1,1749,876,0,0
532,148,0,0,0,0,0,0,0,0,0,-1,1756,876,0,0
539,148,0,0,0,0,0,0,0,0,0,-1,1763,876,0,0
546,148,0,0,0,0,0,0,0,0,0,-1,1770,876,0,0
553,148,0,0,0,0,0,0,0,0,0,-1,1777,876,0,0
560,148,0,0,0,0,0,0,0,0,0,-1,1784,876,0,0
567,148,0,0,0,0,0,0,0,0,0,-1,1791,876,0,0
574,148,0,0,0,0,0,0,0,0,0,-1,1798,876,0,0
581,148,0,0,0,0,0,0,0,0,0,-1,1805,876,0,0
588,148,0,0,0,0,0,0,0,0,0,-1,1812,876,0,0
595,148,0,0,0,0,0,0,0,0,0,-1,1819,876,0,0
602,148,0,0,0,0,0,0,0,0,0,-1,1826,876,0,0
609,148,0,0,0,0,0,0,0,0,0,-1,1833,876,0,0
616,148,0,0,0,0,0,0,0,0,0,-1,1840,876,0,0
623,148,77.8459,2.77032,0.00188751,-0.00233318,0.00100316,0.0021138,-0.00255947,0.221868,0.0027022,0.0443169,1847,876,77.8459,-2.77032
630,148,77.8092,2.7309,0.00106016,-0.00186131,0.000440261,0.00112507,-0.00192621,0.146369,0.00178178,0.0455115,1854,876,77.8092,-2.73088
637,148,77.7952,2.65601,0.000602777,-0.00145215,1.43871e-05,0.000602877,-0.00145225,0.00700082,0.00121984,0.0415202,1861,876,77.7952,-2.65603
644,148,77.7792,2.57367,0.000303766,-0.00127962,-0.000325101,0.000367917,-0.00134377,-0.194823,0.0010404,0.0371012,1868,876,77.7792,-2.57364
651,148,77.8372,2.54547,7.45267e-05,-0.00126392,-0.000757519,0.000416093,-0.00160548,-0.423603,0.00123266,0.0377899,1875,876,77.8372,-2.54548
658,148,77.9045,2.61328,-0.000528391,-0.00135909,-0.00143523,0.000550378,-0.00243786,-0.644547,0.0018364,0.0343067,1882,876,77.9046,-2.61327
665,148,77.8271,2.66187,-0.00124798,-0.000911388,-0.00172439,0.000652903,-0.00281227,-0.834042,0.00212616,0.0257761,1889,876,77.8272,-2.66184
672,148,77.7479,2.70111,0,0,0,0,0,0,0,-1,1896,876,77.748,-2.70112
679,148,77.681,2.81879,0,0,0,0,0,0,0,-1,1903,876,77.6811,-2.81879
686,148,21.6195,2.40845,0,0,0,0,0,0,0,-1,1910,876,21.6196,-2.40846
693,148,48.1387,1.97351,0,0,0,0,0,0,0,-1,1917,876,48.1387,-1.97351
700,148,66.9165,2.69843,0,0,0,0,0,0,0,-1,1924,876,66.9165,-2.69843
707,148,66.9219,3.33044,0,0,0,0,0,0,0,-1,1931,876,66.9219,-3.33047
714,148,66.8094,4.00366,-0.00210124,0.000834658,-0.00295091,0.00266258,-0.00392915,-1.0162,0.00382908,0.0436036,1938,876,66.8095,-4.00369
721,148,66.4073,4.81567,-0.0021035,0.00143066,-0.00308103,0.00321538,-0.00388823,-1.04576,0.0041074,0.0366845,1945,876,66.4073,-4.81566
728,148,66.4001,5.56348,-0.00205026,0.00232948,-0.00288636,0.00376268,-0.00348346,-1.10992,0.0041846,0.0221923,1952,876,66.4001,-5.5635
735,148,66.3926,6.4339,-0.00177503,0.00370162,-0.0025015,0.00467219,-0.0027456,-1.20068,0.00433055,0.0230696,1959,876,66.3926,-6.43388
742,148,66.3114,7.2843,-0.00109018,0.00567326,-0.00195748,0.00619893,-0.00161586,-1.30844,0.00476349,0.0242177,1966,876,66.3114,-7.28433
749,148,66.1733,8.05957,-0.000197915,0.00800982,-0.00134821,0.0082256,-0.000413701,-1.41209,0.00562671,0.0224849,1973,876,66.1733,-8.05957
756,148,66.0519,8.94,0.000724438,0.0107793,-0.000820939,0.0108459,0.000657853,-1.48987,0.00702162,0.0259645,1980,876,66.0519,-8.94
763,148,65.988,10.0076,0.00130298,0.0141022,-0.000473195,0.0141197,0.00128551,-1.53389,0.00901524,0.0437522,1987,876,65.9881,-10.0077
770,148,65.9055,11.0432,0,0,0,0,0,0,0,-1,1994,876,65.9056,-11.0432
777,148,69.3931,10.6857,0,0,0,0,0,0,0,-1,2001,876,69.3931,-10.6857
784,148,70.7932,11.1027,0,0,0,0,0,0,0,-1,2008,876,70.7932,-11.1026
791,148,72.3621,11.5336,0,0,0,0,0,0,0,-1,2015,876,72.3621,-11.5336
798,148,0,0,0,0,0,0,0,0,0,-1,2022,876,0,0
805,148,0,0,0,0,0,0,0,0,0,-1,2029,876,0,0
812,148,0,0,0,0,0,0,0,0,0,-1,2036,876,0,0
-700,141,0,0,0,0,0,0,0,0,0,-1,524,883,0,0
-693,141,0,0,0,0,0,0,0,0,0,-1,531,883,0,0
-686,141,0,0,0,0,0,0,0,0,0,-1,538,883,0,0
-679,141,0,0,0,0,0,0,0,0,0,-1,545,883,0,0
-672,141,-48.7804,-0.600891,0,0,0,0,0,0,0,-1,552,883,-48.7804,0.600898
-665,141,-48.764,-3.67065,0,0,0,0,0,0,0,-1,559,883,-48.764,3.67066
-658,141,-52.3438,3.12531,0,0,0,0,0,0,0,-1,566,883,-52.3438,-3.1253
-651,141,-53.1779,1.50293,0,0,0,0,0,0,0,-1,573,883,-53.1778,-1.50292
-644,141,-52.4205,-0.191956,0,0,0,0,0,0,0,-1,580,883,-52.4205,0.191941
-637,141,-52.859,0.400024,0,0,0,0,0,0,0,-1,587,883,-52.859,-0.400006
-630,141,-50.9915,9.16492,0,0,0,0,0,0,0,-1,594,883,-50.9915,-9.16494
-623,141,-51.2811,8.06836,-0.0118028,0.0101986,0.00127497,0.0102722,-0.0118764,1.5131,0.0127987,0.0366149,601,883,-51.2811,-8.06833
-616,141,-51.5774,7.09473,-0.00916948,0.00792755,0.00199544,0.00815735,-0.00939928,1.45614,0.0101448,0.0142289,608,883,-51.5774,-7.09471
-609,141,-51.7075,6.22137,-0.00732013,0.00582967,0.00290699,0.00644364,-0.0079341,1.36265,0.00831585,0.0136078,615,883,-51.7075,-6.2214
-602,141,-51.7725,5.36914,-0.00633787,0.00381148,0.00377444,0.00506126,-0.00758765,1.25104,0.00735125,0.0167312,622,883,-51.7725,-5.36913
-595,141,-51.7917,4.5025,0,0,0,0,0,0,0,-1,629,883,-51.7917,-4.50248
-588,141,-52.218,3.57507,0,0,0,0,0,0,0,-1,636,883,-52.218,-3.57507
-581,141,-52.258,2.47083,0,0,0,0,0,0,0,-1,643,883,-52.258,-2.47082
-574,141,-42.7302,0.864685,0,0,0,0,0,0,0,-1,650,883,-42.7301,-0.864692
-567,141,-30.5335,0.480103,0,0,0,0,0,0,0,-1,657,883,-30.5335,-0.480081
-560,141,-30.5542,0.23175,0,0,0,0,0,0,0,-1,664,883,-30.5542,-0.231742
-553,141,-32.0876,1.39459,0,0,0,0,0,0,0,-1,671,883,-32.0876,-1.3946
-546,141,-61.7894,0.666687,0,0,0,0,0,0,0,-1,678,883,-61.7894,-0.666671
-539,141,-61.8327,0.598145,-0.00537778,-3.4662e-06,0.00101868,0.000183141,-0.00556439,1.38962,0.00377212,0.0318417,685,883,-61.8327,-0.598174
-532,141,-61.8901,0.587097,-0.00510336,0.000269134,0.000143176,0.000272947,-0.00510717,1.54417,0.00349931,0.0303347,692,883,-61.8901,-0.587073
-525,141,-61.861,0.658997,-0.00417791,0.00134951,-0.00088953,0.00148914,-0.00431753,-1.4151,0.00348253,0.0374604,699,883,-61.861,-0.658973
-518,141,-61.8441,0.768738,-0.0034147,0.00296428,-0.00237458,0.00375116,-0.00420157,-1.25081,0.00459396,0.0418902,706,883,-61.8441,-0.768717
-511,141,-61.9192,0.745056,-0.0010811,0.00510788,-0.00450437,0.0074783,-0.00345152,-1.08637,0.00645151,0.040578,713,883,-61.9192,-0.745077
-504,141,-61.9088,0.72876,0,0,0,0,0,0,0,-1,720,883,-61.9088,-0.728768
-497,141,0,0,0,0,0,0,0,0,0,-1,727,883,0,0
-490,141,0,0,0,0,0,0,0,0,0,-1,734,883,0,0
-483,141,0,0,0,0,0,0,0,0,0,-1,741,883,0,0
-476,141,0,0,0,0,0,0,0,0,0,-1,748,883,0,0
-469,141,0,0,0,0,0,0,0,0,0,-1,755,883,0,0
-462,141,0,0,0,0,0,0,0,0,0,-1,762,883,0,0
-455,141,0,0,0,0,0,0,0,0,0,-1,769,883,0,0
-448,141,0,0,0,0,0,0,0,0,0,-1,776,883,0,0
-441,141,0,0,0,0,0,0,0,0,0,-1,783,883,0,0
-434,141,0,0,0,0,0,0,0,0,0,-1,790,883,0,0
-427,141,0,0,0,0,0,0,0,0,0,-1,797,883,0,0
-420,141,0,0,0,0,0,0,0,0,0,-1,804,883,0,0
-413,141,0,0,0,0,0,0,0,0,0,-1,811,883,0,0
-406,141,0,0,0,0,0,0,0,0,0,-1,818,883,0,0
-399,141,0,0,0,0,0,0,0,0,0,-1,825,883,0,0
-392,141,0,0,0,0,0,0,0,0,0,-1,832,883,0,0
-385,141,0,0,0,0,0,0,0,0,0,-1,839,883,0,0
-378,141,0,0,0,0,0,0,0,0,0,-1,846,883,0,0
-371,141,0,0,0,0,0,0,0,0,0,-1,853,883,0,0
-364,141,0,0,0,0,0,0,0,0,0,-1,860,883,0,0
-357,141,0,0,0,0,0,0,0,0,0,-1,867,883,0,0
-350,141,0,0,0,0,0,0,0,0,0,-1,874,883,0,0
-343,141,0,0,0,0,0,0,0,0,0,-1,881,883,0,0
-336,141,0,0,0,0,0,0,0,0,0,-1,888,883,0,0
-329,141,0,0,0,0,0,0,0,0,0,-1,895,883,0,0
-322,141,0,0,0,0,0,0,0,0,0,-1,902,883,0,0
-315,141,0,0,0,0,0,0,0,0,0,-1,909,883,0,0
-308,141,0,0,0,0,0,0,0,0,0,-1,916,883,0,0
-301,141,0,0,0,0,0,0,0,0,0,-1,923,883,0,0
-294,141,0,0,0,0,0,0,0,0,0,-1,930,883,0,0
-287,141,0,0,0,0,0,0,0,0,0,-1,937,883,0,0
-280,141,0,0,0,0,0,0,0,0,0,-1,944,883,0,0
-273,141,0,0,0,0,0,0,0,0,0,-1,951,883,0,0
-266,141,0,0,0,0,0,0,0,0,0,-1,958,883,0,0
-259,141,0,0,0,0,0,0,0,0,0,-1,965,883,0,0
-252,141,0,0,0,0,0,0,0,0,0,-1,972,883,0,0
-245,141,0,0,0,0,0,0,0,0,0,-1,979,883,0,0
-238,141,0,0,0,0,0,0,0,0,0,-1,986,883,0,0
-231,141,0,0,0,0,0,0,0,0,0,-1,993,883,0,0
-224,141,0,0,0,0,0,0,0,0,0,-1,1000,883,0,0
-217,141,0,0,0,0,0,0,0,0,0,-1,1007,883,0,0
-210,141,0,0,0,0,0,0,0,0,0,-1,1014,883,0,0
-203,141,0,0,0,0,0,0,0,0,0,-1,1021,883,0,0
-196,141,0,0,0,0,0,0,0,0,0,-1,1028,883,0,0
-189,141,0,0,0,0,0,0,0,0,0,-1,1035,883,0,0
-182,141,0,0,0,0,0,0,0,0,0,-1,1042,883,0,0
-175,141,0,0,0,0,0,0,0,0,0,-1,1049,883,0,0
-168,141,0,0,0,0,0,0,0,0,0,-1,1056,883,0,0
-161,141,0,0,0,0,0,0,0,0,0,-1,1063,883,0,0
-154,141,0,0,0,0,0,0,0,0,0,-1,1070,883,0,0
-147,141,0,0,0,0,0,0,0,0,0,-1,1077,883,0,0
-140,141,0,0,0,0,0,0,0,0,0,-1,1084,883,0,0
-133,141,0,0,0,0,0,0,0,0,0,-1,1091,883,0,0
-126,141,0,0,0,0,0,0,0,0,0,-1,1098,883,0,0
-119,141,0,0,0,0,0,0,0,0,0,-1,1105,883,0,0
-112,141,0,0,0,0,0,0,0,0,0,-1,1112,883,0,0
-105,141,0,0,0,0,0,0,0,0,0,-1,1119,883,0,0
-98,141,0,0,0,0,0,0,0,0,0,-1,1126,883,0,0
-91,141,0,0,0,0,0,0,0,0,0,-1,1133,883,0,0
-84,141,0,0,0,0,0,0,0,0,0,-1,1140,883,0,0
-77,141,0,0,0,0,0,0,0,0,0,-1,1147,883,0,0
-70,141,0,0,0,0,0,0,0,0,0,-1,1154,883,0,0
-63,141,0,0,0,0,0,0,0,0,0,-1,1161,883,0,0
-56,141,0,0,0,0,0,0,0,0,0,-1,1168,883,0,0
-49,141,0,0,0,0,0,0,0,0,0,-1,1175,883,0,0
-42,141,0,0,0,0,0,0,0,0,0,-1,1182,883,0,0
-35,141,0,0,0,0,0,0,0,0,0,-1,1189,883,0,0
-28,141,0,0,0,0,0,0,0,0,0,-1,1196,883,0,0
-21,141,0,0,0,0,0,0,0,0,0,-1,1203,883,0,0
-14,141,0,0,0,0,0,0,0,0,0,-1,1210,883,0,0
-7,141,0,0,0,0,0,0,0,0,0,-1,1217,883,0,0
0,141,0,0,0,0,0,0,0,0,0,-1,1224,883,0,0
7,141,0,0,0,0,0,0,0,0,0,-1,1231,883,0,0
14,141,0,0,0,0,0,0,0,0,0,-1,1238,883,0,0
21,141,0,0,0,0,0,0,0,0,0,-1,1245,883,0,0
28,141,0,0,0,0,0,0,0,0,0,-1,1252,883,0,0
35,141,0,0,0,0,0,0,0,0,0,-1,1259,883,0,0
42,141,0,0,0,0,0,0,0,0,0,-1,1266,883,0,0
49,141,0,0,0,0,0,0,0,0,0,-1,1273,883,0,0
56,141,0,0,0,0,0,0,0,0,0,-1,1280,883,0,0
63,141,0,0,0,0,0,0,0,0,0,-1,1287,883,0,0
70,141,0,0,0,0,0,0,0,0,0,-1,1294,883,0,0
77,141,0,0,0,0,0,0,0,0,0,-1,1301,883,0,0
84,141,0,0,0,0,0,0,0,0,0,-1,1308,883,0,0
91,141,0,0,0,0,0,0,0,0,0,-1,1315,883,0,0
98,141,0,0,0,0,0,0,0,0,0,-1,1322,883,0,0
105,141,0,0,0,0,0,0,0,0,0,-1,1329,883,0,0
112,141,0,0,0,0,0,0,0,0,0,-1,1336,883,0,0
119,141,0,0,0,0,0,0,0,0,0,-1,1343,883,0,0
126,141,0,0,0,0,0,0,0,0,0,-1,1350,883,0,0
133,141,0,0,0,0,0,0,0,0,0,-1,1357,883,0,0
140,141,0,0,0,0,0,0,0,0,0,-1,1364,883,0,0
147,141,0,0,0,0,0,0,0,0,0,-1,1371,883,0,0
154,141,0,0,0,0,0,0,0,0,0,-1,1378,883,0,0
161,141,0,0,0,0,0,0,0,0,0,-1,1385,883,0,0
168,141,0,0,0,0,0,0,0,0,0,-1,1392,883,0,0
175,141,0,0,0,0,0,0,0,0,0,-1,1399,883,0,0
182,141,0,0,0,0,0,0,0,0,0,-1,1406,883,0,0
189,141,0,0,0,0,0,0,0,0,0,-1,1413,883,0,0
196,141,0,0,0,0,0,0,0,0,0,-1,1420,883,0,0
203,141,0,0,0,0,0,0,0,0,0,-1,1427,883,0,0
210,141,0,0,0,0,0,0,0,0,0,-1,1434,883,0,0
217,141,0,0,0,0,0,0,0,0,0,-1,1441,883,0,0
224,141,0,0,0,0,0,0,0,0,0,-1,1448,883,0,0
231,141,0,0,0,0,0,0,0,0,0,-1,1455,883,0,0
238,141,0,0,0,0,0,0,0,0,0,-1,1462,883,0,0
245,141,0,0,0,0,0,0,0,0,0,-1,1469,883,0,0
252,141,0,0,0,0,0,0,0,0,0,-1,1476,883,0,0
259,141,0,0,0,0,0,0,0,0,0,-1,1483,883,0,0
266,141,0,0,0,0,0,0,0,0,0,-1,1490,883,0,0
273,141,0,0,0,0,0,0,0,0,0,-1,1497,883,0,0
280,141,0,0,0,0,0,0,0,0,0,-1,1504,883,0,0
287,141,0,0,0,0,0,0,0,0,0,-1,1511,883,0,0
294,141,0,0,0,0,0,0,0,0,0,-1,1518,883,0,0
301,141,0,0,0,0,0,0,0,0,0,-1,1525,883,0,0
308,141,0,0,0,0,0,0,0,0,0,-1,1532,883,0,0
315,141,0,0,0,0,0,0,0,0,0,-1,1539,883,0,0
322,141,0,0,0,0,0,0,0,0,0,-1,1546,883,0,0
329,141,0,0,0,0,0,0,0,0,0,-1,1553,883,0,0
336,141,0,0,0,0,0,0,0,0,0,-1,1560,883,0,0
343,141,0,0,0,0,0,0,0,0,0,-1,1567,883,0,0
350,141,0,0,0,0,0,0,0,0,0,-1,1574,883,0,0
357,141,0,0,0,0,0,0,0,0,0,-1,1581,883,0,0
364,141,0,0,0,0,0,0,0,0,0,-1,1588,883,0,0
371,141,0,0,0,0,0,0,0,0,0,-1,1595,883,0,0
378,141,0,0,0,0,0,0,0,0,0,-1,1602,883,0,0
385,141,0,0,0,0,0,0,0,0,0,-1,1609,883,0,0
392,141,0,0,0,0,0,0,0,0,0,-1,1616,883,0,0
399,141,0,0,0,0,0,0,0,0,0,-1,1623,883,0,0
406,141,0,0,0,0,0,0,0,0,0,-1,1630,883,0,0
413,141,0,0,0,0,0,0,0,0,0,-1,1637,883,0,0
420,141,0,0,0,0,0,0,0,0,0,-1,1644,883,0,0
427,141,0,0,0,0,0,0,0,0,0,-1,1651,883,0,0
434,141,0,0,0,0,0,0,0,0,0,-1,1658,883,0,0
441,141,0,0,0,0,0,0,0,0,0,-1,1665,883,0,0
448,141,0,0,0,0,0,0,0,0,0,-1,1672,883,0,0
455,141,0,0,0,0,0,0,0,0,0,-1,1679,883,0,0
462,141,0,0,0,0,0,0,0,0,0,-1,1686,883,0,0
469,141,0,0,0,0,0,0,0,0,0,-1,1693,883,0,0
476,141,0,0,0,0,0,0,0,0,0,-1,1700,883,0,0
483,141,0,0,0,0,0,0,0,0,0,-1,1707,883,0,0
490,141,0,0,0,0,0,0,0,0,0,-1,1714,883,0,0
497,141,0,0,0,0,0,0,0,0,0,-1,1721,883,0,0
504,141,0,0,0,0,0,0,0,0,0,-1,1728,883,0,0
511,141,0,0,0,0,0,0,0,0,0,-1,1735,883,0,0
518,141,0,0,0,0,0,0,0,0,0,-1,1742,883,0,0
525,141,0,0,0,0,0,0,0,0,0,-1,1749,883,0,0
532,141,0,0,0,0,0,0,0,0,0,-1,1756,883,0,0
539,141,0,0,0,0,0,0,0,0,0,-1,1763,883,0,0
546,141,0,0,0,0,0,0,0,0,0,-1,1770,883,0,0
553,141,0,0,0,0,0,0,0,0,0,-1,1777,883,0,0
560,141,0,0,0,0,0,0,0,0,0,-1,1784,883,0,0
567,141,0,0,0,0,0,0,0,0,0,-1,1791,883,0,0
574,141,0,0,0,0,0,0,0,0,0,-1,1798,883,0,0
581,141,0,0,0,0,0,0,0,0,0,-1,1805,883,0,0
588,141,0,0,0,0,0,0,0,0,0,-1,1812,883,0,0
595,141,0,0,0,0,0,0,0,0,0,-1,1819,883,0,0
602,141,0,0,0,0,0,0,0,0,0,-1,1826,883,0,0
609,141,0,0,0,0,0,0,0,0,0,-1,1833,883,0,0
616,141,0,0,0,0,0,0,0,0,0,-1,1840,883,0,0
623,141,77.8912,2.72632,0.000609714,-0.00111697,0.00109982,0.00114457,-0.00165183,0.452639,0.00162333,0.0437344,1847,883,77.8913,-2.72635
630,141,77.9501,2.49115,2.6293e-05,-0.000829858,0.000470623,0.000234405,-0.00103797,0.416353,0.000781916,0.045674,1854,883,77.9501,-2.49117
637,141,77.7677,2.71503,-0.000179746,-0.000641272,-2.04185e-05,-0.000178845,-0.000642173,-0.0441264,0.000382694,0.0451684,1861,883,77.7677,-2.71504
644,141,77.8848,2.4986,-0.000170685,-0.000649845,-0.000385639,4.37351e-05,-0.000864265,-0.507447,0.000591294,0.0392402,1868,883,77.8847,-2.49862
651,141,77.9586,2.61761,-8.67063e-05,-0.000755979,-0.000752541,0.000402247,-0.00124493,-0.57619,0.000991615,0.0398223,1875,883,77.9586,-2.61764
658,141,77.8667,2.70184,-0.000360807,-0.000884384,-0.00130573,0.000709115,-0.00195431,-0.686464,0.00159276,0.0387755,1882,883,77.8667,-2.70182
665,141,77.8105,2.64661,-0.000898665,-0.000446118,-0.0015499,0.000893937,-0.00223872,-0.857882,0.00186336,0.029496,1889,883,77.8106,-2.64663
672,141,77.8507,2.57959,-0.00113149,-0.000461194,-0.0018892,0.00112235,-0.00271503,-0.873186,0.00227824,0.0216824,1896,883,77.8507,-2.57961
679,141,77.8624,2.54883,-0.00123211,-0.000393505,-0.00205184,0.00128144,-0.00290705,-0.886188,0.00247819,0.0349953,1903,883,77.8624,-2.54884
686,141,77.8585,2.44397,0,0,0,0,0,0,0,-1,1910,883,77.8585,-2.44398
693,141,51.7202,1.76593,0,0,0,0,0,0,0,-1,1917,883,51.7202,-1.76595
700,141,62.7651,1.95361,0,0,0,0,0,0,0,-1,1924,883,62.7651,-1.95364
707,141,67.5176,3.40417,0,0,0,0,0,0,0,-1,1931,883,67.5176,-3.40417
714,141,67.2648,4.08185,-0.00198712,0.00102153,-0.00284671,0.00273696,-0.00370254,-1.02847,0.00373175,0.0418214,1938,883,67.2648,-4.08185
721,141,67.2257,4.80713,-0.00211742,0.00149573,-0.00309691,0.00327448,-0.00389617,-1.04944,0.00414516,0.0239384,1945,883,67.2257,-4.80712
728,141,67.347,5.56946,-0.00222425,0.002314,-0.00305825,0.003853,-0.00376325,-1.10457,0.00439735,0.0182354,1952,883,67.3471,-5.56944
735,141,67.2518,6.51404,-0.00218135,0.00371252,-0.00283174,0.00485254,-0.00332137,-1.18806,0.00474673,0.0231194,1959,883,67.2518,-6.51403
742,141,67.1317,7.30231,-0.00162026,0.00595468,-0.00240443,0.00665344,-0.00231902,-1.28797,0.00537796,0.0233403,1966,883,67.1317,-7.30231
749,141,67.087,8.0343,-0.000586488,0.00869117,-0.00181826,0.00903479,-0.000930109,-1.38402,0.00635595,0.016047,1973,883,67.0871,-8.03431
756,141,67.0284,8.90631,0.000706116,0.0118588,-0.00123176,0.0119932,0.000571694,-1.4621,0.00781187,0.0228946,1980,883,67.0285,-8.90629
763,141,67.04,9.68146,0.00208687,0.0155434,-0.000704515,0.0155802,0.00205008,-1.51863,0.00977537,0.045378,1987,883,67.0401,-9.68144
770,141,67.011,10.4594,0,0,0,0,0,0,0,-1,1994,883,67.011,-10.4593
777,141,70.584,10.694,0,0,0,0,0,0,0,-1,2001,883,70.5841,-10.694
784,141,72.0554,11.4919,0,0,0,0,0,0,0,-1,2008,883,72.0554,-11.4919
791,141,73.5535,12.0809,0,0,0,0,0,0,0,-1,2015,883,73.5535,-12.081
798,141,0,0,0,0,0,0,0,0,0,-1,2022,883,0,0
805,141,0,0,0,0,0,0,0,0,0,-1,2029,883,0,0
812,141,0,0,0,0,0,0,0,0,0,-1,2036,883,0,0
-700,134,0,0,0,0,0,0,0,0,0,-1,524,890,0,0
-693,134,0,0,0,0,0,0,0,0,0,-1,531,890,0,0
-686,134,0,0,0,0,0,0,0,0,0,-1,538,890,0,0
-679,134,0,0,0,0,0,0,0,0,0,-1,545,890,0,0
-672,134,-49.3306,-0.500671,0,0,0,0,0,0,0,-1,552,890,-49.3306,0.500651
-665,134,-49.3356,-3.00098,0,0,0,0,0,0,0,-1,559,890,-49.3356,3.00096
-658,134,-49.3368,-5.46246,0,0,0,0,0,0,0,-1,566,890,-49.3368,5.46248
-651,134,-53.0905,0.530762,0,0,0,0,0,0,0,-1,573,890,-53.0905,-0.530792
-644,134,-51.8253,-1.26782,0,0,0,0,0,0,0,-1,580,890,-51.8253,1.26783
-637,134,-50.5067,-2.83545,0,0,0,0,0,0,0,-1,587,890,-50.5066,2.83545
-630,134,-51.8945,8.56525,0,0,0,0,0,0,0,-1,594,890,-51.8945,-8.56526
-623,134,-52.1224,7.88812,-0.0129261,0.010355,0.00404905,0.0110392,-0.0136102,1.40342,0.0142571,0.035072,601,890,-52.1224,-7.88815
-616,134,-52.4481,7.1026,-0.00974427,0.0079286,0.0038919,0.00874771,-0.0105634,1.36336,0.0111657,0.0141923,608,890,-52.4481,-7.10261
-609,134,-52.6116,6.25348,-0.00741375,0.00562236,0.00407331,0.00679046,-0.00858185,1.29152,0.00889527,0.0113393,615,890,-52.6116,-6.2535
-602,134,-52.6411,5.39221,-0.00628805,0.00341496,0.00437356,0.00509531,-0.0079684,1.20398,0.0076029,0.0129737,622,890,-52.6411,-5.39219
-595,134,-53.0623,4.77838,0,0,0,0,0,0,0,-1,629,890,-53.0623,-4.77837
-588,134,-53.0965,3.73517,0,0,0,0,0,0,0,-1,636,890,-53.0965,-3.73516
-581,134,-53.1306,2.69196,0,0,0,0,0,0,0,-1,643,890,-53.1306,-2.69195
-574,134,-31.1517,0.757751,0,0,0,0,0,0,0,-1,650,890,-31.1517,-0.757758
-567,134,-30.9003,0.296326,0,0,0,0,0,0,0,-1,657,890,-30.9002,-0.296302
-560,134,-22.9123,0.106567,0,0,0,0,0,0,0,-1,664,890,-22.9123,-0.106594
-553,134,-61.7791,0.663391,0,0,0,0,0,0,0,-1,671,890,-61.779,-0.663401
-546,134,-61.7646,0.634644,-0.00494314,-0.000952763,0.00173036,-0.000306947,-0.00558896,1.21358,0.00362799,0.0351993,678,890,-61.7646,-0.634668
-539,134,-61.8099,0.608276,-0.00496629,-0.000901846,0.00109436,-0.000625918,-0.00524222,1.32381,0.00330598,0.0203481,685,890,-61.8099,-0.608258
-532,134,-61.9054,0.626526,-0.00433721,-0.000523399,9.31987e-05,-0.000521123,-0.00433948,1.54638,0.00273587,0.0250739,692,890,-61.9054,-0.626548
-525,134,-61.8724,0.635132,-0.00320802,0.000752251,-0.00106678,0.00102133,-0.0034771,-1.32372,0.00272312,0.0348954,699,890,-61.8724,-0.635129
-518,134,-61.7716,0.656128,-0.0022953,0.00251874,-0.002478,0.00356632,-0.00334287,-1.17083,0.00398972,0.0395967,706,890,-61.7716,-0.656133
-511,134,-61.8092,0.626526,-0.00068853,0.00445991,-0.00422793,0.00683564,-0.00306426,-1.05885,0.00585232,0.042432,713,890,-61.8092,-0.626528
-504,134,0,0,0,0,0,0,0,0,0,-1,720,890,0,0
-497,134,0,0,0,0,0,0,0,0,0,-1,727,890,0,0
-490,134,0,0,0,0,0,0,0,0,0,-1,734,890,0,0
-483,134,0,0,0,0,0,0,0,0,0,-1,741,890,0,0
-476,134,0,0,0,0,0,0,0,0,0,-1,748,890,0,0
-469,134,0,0,0,0,0,0,0,0,0,-1,755,890,0,0
-462,134,0,0,0,0,0,0,0,0,0,-1,762,890,0,0
-455,134,0,0,0,0,0,0,0,0,0,-1,769,890,0,0
-448,134,0,0,0,0,0,0,0,0,0,-1,776,890,0,0
-441,134,0,0,0,0,0,0,0,0,0,-1,783,890,0,0
-434,134,0,0,0,0,0,0,0,0,0,-1,790,890,0,0
-427,134,0,0,0,0,0,0,0,0,0,-1,797,890,0,0
-420,134,0,0,0,0,0,0,0,0,0,-1,804,890,0,0
-413,134,0,0,0,0,0,0,0,0,0,-1,811,890,0,0
-406,134,0,0,0,0,0,0,0,0,0,-1,818,890,0,0
-399,134,0,0,0,0,0,0,0,0,0,-1,825,890,0,0
-392,134,0,0,0,0,0,0,0,0,0,-1,832,890,0,0
-385,134,0,0,0,0,0,0,0,0,0,-1,839,890,0,0
-378,134,0,0,0,0,0,0,0,0,0,-1,846,890,0,0
-371,134,0,0,0,0,0,0,0,0,0,-1,853,890,0,0
-364,134,0,0,0,0,0,0,0,0,0,-1,860,890,0,0
-357,134,0,0,0,0,0,0,0,0,0,-1,867,890,0,0
-350,134,0,0,0,0,0,0,0,0,0,-1,874,890,0,0
-343,134,0,0,0,0,0,0,0,0,0,-1,881,890,0,0
-336,134,0,0,0,0,0,0,0,0,0,-1,888,890,0,0
-329,134,0,0,0,0,0,0,0,0,0,-1,895,890,0,0
-322,134,0,0,0,0,0,0,0,0,0,-1,902,890,0,0
-315,134,0,0,0,0,0,0,0,0,0,-1,909,890,0,0
-308,134,0,0,0,0,0,0,0,0,0,-1,916,890,0,0
-301,134,0,0,0,0,0,0,0,0,0,-1,923,890,0,0
-294,134,0,0,0,0,0,0,0,0,0,-1,930,890,0,0
-287,134,0,0,0,0,0,0,0,0,0,-1,937,890,0,0
-280,134,0,0,0,0,0,0,0,0,0,-1,944,890,0,0
-273,134,0,0,0,0,0,0,0,0,0,-1,951,890,0,0
-266,134,0,0,0,0,0,0,0,0,0,-1,958,890,0,0
-259,134,0,0,0,0,0,0,0,0,0,-1,965,890,0,0
-252,134,0,0,0,0,0,0,0,0,0,-1,972,890,0,0
-245,134,0,0,0,0,0,0,0,0,0,-1,979,890,0,0
-238,134,0,0,0,0,0,0,0,0,0,-1,986,890,0,0
-231,134,0,0,0,0,0,0,0,0,0,-1,993,890,0,0
-224,134,0,0,0,0,0,0,0,0,0,-1,1000,890,0,0
-217,134,0,0,0,0,0,0,0,0,0,-1,1007,890,0,0
-210,134,0,0,0,0,0,0,0,0,0,-1,1014,890,0,0
-203,134,0,0,0,0,0,0,0,0,0,-1,1021,890,0,0
-196,134,0,0,0,0,0,0,0,0,0,-1,1028,890,0,0
-189,134,0,0,0,0,0,0,0,0,0,-1,1035,890,0,0
-182,134,0,0,0,0,0,0,0,0,0,-1,1042,890,0,0
-175,134,0,0,0,0,0,0,0,0,0,-1,1049,890,0,0
-168,134,0,0,0,0,0,0,0,0,0,-1,1056,890,0,0
-161,134,0,0,0,0,0,0,0,0,0,-1,1063,890,0,0
-154,134,0,0,0,0,0,0,0,0,0,-1,1070,890,0,0
-147,134,0,0,0,0,0,0,0,0,0,-1,1077,890,0,0
-140,134,0,0,0,0,0,0,0,0,0,-1,1084,890,0,0
-133,134,0,0,0,0,0,0,0,0,0,-1,1091,890,0,0
-126,134,0,0,0,0,0,0,0,0,0,-1,1098,890,0,0
-119,134,0,0,0,0,0,0,0,0,0,-1,1105,890,0,0
-112,134,0,0,0,0,0,0,0,0,0,-1,1112,890,0,0
-105,134,0,0,0,0,0,0,0,0,0,-1,1119,890,0,0
-98,134,0,0,0,0,0,0,0,0,0,-1,1126,890,0,0
-91,134,0,0,0,0,0,0,0,0,0,-1,1133,890,0,0
-84,134,0,0,0,0,0,0,0,0,0,-1,1140,890,0,0
-77,134,0,0,0,0,0,0,0,0,0,-1,1147,890,0,0
-70,134,0,0,0,0,0,0,0,0,0,-1,1154,890,0,0
-63,134,0,0,0,0,0,0,0,0,0,-1,1161,890,0,0
-56,134,0,0,0,0,0,0,0,0,0,-1,1168,890,0,0
-49,134,0,0,0,0,0,0,0,0,0,-1,1175,890,0,0
-42,134,0,0,0,0,0,0,0,0,0,-1,1182,890,0,0
-35,134,0,0,0,0,0,0,0,0,0,-1,1189,890,0,0
-28,134,0,0,0,0,0,0,0,0,0,-1,1196,890,0,0
-21,134,0,0,0,0,0,0,0,0,0,-1,1203,890,0,0
-14,134,0,0,0,0,0,0,0,0,0,-1,1210,890,0,0
-7,134,0,0,0,0,0,0,0,0,0,-1,1217,890,0,0
0,134,0,0,0,0,0,0,0,0,0,-1,1224,890,0,0
7,134,0,0,0,0,0,0,0,0,0,-1,1231,890,0,0
14,134,0,0,0,0,0,0,0,0,0,-1,1238,890,0,0
21,134,0,0,0,0,0,0,0,0,0,-1,1245,890,0,0
28,134,0,0,0,0,0,0,0,0,0,-1,1252,890,0,0
35,134,0,0,0,0,0,0,0,0,0,-1,1259,890,0,0
42,134,0,0,0,0,0,0,0,0,0,-1,1266,890,0,0
49,134,0,0,0,0,0,0,0,0,0,-1,1273,890,0,0
56,134,0,0,0,0,0,0,0,0,0,-1,1280,890,0,0
63,134,0,0,0,0,0,0,0,0,0,-1,1287,890,0,0
70,134,0,0,0,0,0,0,0,0,0,-1,1294,890,0,0
77,134,0,0,0,0,0,0,0,0,0,-1,1301,890,0,0
84,134,0,0,0,0,0,0,0,0,0,-1,1308,890,0,0
91,134,0,0,0,0,0,0,0,0,0,-1,1315,890,0,0
98,134,0,0,0,0,0,0,0,0,0,-1,1322,890,0,0
105,134,0,0,0,0,0,0,0,0,0,-1,1329,890,0,0
112,134,0,0,0,0,0,0,0,0,0,-1,1336,890,0,0
119,134,0,0,0,0,0,0,0,0,0,-1,1343,890,0,0
126,134,0,0,0,0,0,0,0,0,0,-1,1350,890,0,0
133,134,0,0,0,0,0,0,0,0,0,-1,1357,890,0,0
140,134,0,0,0,0,0,0,0,0,0,-1,1364,890,0,0
147,134,0,0,0,0,0,0,0,0,0,-1,1371,890,0,0
154,134,0,0,0,0,0,0,0,0,0,-1,1378,890,0,0
161,134,0,0,0,0,0,0,0,0,0,-1,1385,890,0,0
168,134,0,0,0,0,0,0,0,0,0,-1,1392,890,0,0
175,134,0,0,0,0,0,0,0,0,0,-1,1399,890,0,0
182,134,0,0,0,0,0,0,0,0,0,-1,1406,890,0,0
189,134,0,0,0,0,0,0,0,0,0,-1,1413,890,0,0
196,134,0,0,0,0,0,0,0,0,0,-1,1420,890,0,0
203,134,0,0,0,0,0,0,0,0,0,-1,1427,890,0,0
210,134,0,0,0,0,0,0,0,0,0,-1,1434,890,0,0
217,134,0,0,0,0,0,0,0,0,0,-1,1441,890,0,0
224,134,0,0,0,0,0,0,0,0,0,-1,1448,890,0,0
231,134,0,0,0,0,0,0,0,0,0,-1,1455,890,0,0
238,134,0,0,0,0,0,0,0,0,0,-1,1462,890,0,0
245,134,0,0,0,0,0,0,0,0,0,-1,1469,890,0,0
252,134,0,0,0,0,0,0,0,0,0,-1,1476,890,0,0
259,134,0,0,0,0,0,0,0,0,0,-1,1483,890,0,0
266,134,0,0,0,0,0,0,0,0,0,-1,1490,890,0,0
273,134,0,0,0,0,0,0,0,0,0,-1,1497,890,0,0
280,134,0,0,0,0,0,0,0,0,0,-1,1504,890,0,0
287,134,0,0,0,0,0,0,0,0,0,-1,1511,890,0,0
294,134,0,0,0,0,0,0,0,0,0,-1,1518,890,0,0
301,134,0,0,0,0,0,0,0,0,0,-1,1525,890,0,0
308,134,0,0,0,0,0,0,0,0,0,-1,1532,890,0,0
315,134,0,0,0,0,0,0,0,0,0,-1,1539,890,0,0
322,134,0,0,0,0,0,0,0,0,0,-1,1546,890,0,0
329,134,0,0,0,0,0,0,0,0,0,-1,1553,890,0,0
336,134,0,0,0,0,0,0,0,0,0,-1,1560,890,0,0
343,134,0,0,0,0,0,0,0,0,0,-1,1567,890,0,0
350,134,0,0,0,0,0,0,0,0,0,-1,1574,890,0,0
357,134,0,0,0,0,0,0,0,0,0,-1,1581,890,0,0
364,134,0,0,0,0,0,0,0,0,0,-1,1588,890,0,0
371,134,0,0,0,0,0,0,0,0,0,-1,1595,890,0,0
378,134,0,0,0,0,0,0,0,0,0,-1,1602,890,0,0
385,134,0,0,0,0,0,0,0,0,0,-1,1609,890,0,0
392,134,0,0,0,0,0,0,0,0,0,-1,1616,890,0,0
399,134,0,0,0,0,0,0,0,0,0,-1,1623,890,0,0
406,134,0,0,0,0,0,0,0,0,0,-1,1630,890,0,0
413,134,0,0,0,0,0,0,0,0,0,-1,1637,890,0,0
420,134,0,0,0,0,0,0,0,0,0,-1,1644,890,0,0
427,134,0,0,0,0,0,0,0,0,0,-1,1651,890,0,0
434,134,0,0,0,0,0,0,0,0,0,-1,1658,890,0,0
441,134,0,0,0,0,0,0,0,0,0,-1,1665,890,0,0
448,134,0,0,0,0,0,0,0,0,0,-1,1672,890,0,0
455,134,0,0,0,0,0,0,0,0,0,-1,1679,890,0,0
462,134,0,0,0,0,0,0,0,0,0,-1,1686,890,0,0
469,134,0,0,0,0,0,0,0,0,0,-1,1693,890,0,0
476,134,0,0,0,0,0,0,0,0,0,-1,1700,890,0,0
483,134,0,0,0,0,0,0,0,0,0,-1,1707,890,0,0
490,134,0,0,0,0,0,0,0,0,0,-1,1714,890,0,0
497,134,0,0,0,0,0,0,0,0,0,-1,1721,890,0,0
504,134,0,0,0,0,0,0,0,0,0,-1,1728,890,0,0
511,134,0,0,0,0,0,0,0,0,0,-1,1735,890,0,0
518,134,0,0,0,0,0,0,0,0,0,-1,1742,890,0,0
525,134,0,0,0,0,0,0,0,0,0,-1,1749,890,0,0
532,134,0,0,0,0,0,0,0,0,0,-1,1756,890,0,0
539,134,0,0,0,0,0,0,0,0,0,-1,1763,890,0,0
546,134,0,0,0,0,0,0,0,0,0,-1,1770,890,0,0
553,134,0,0,0,0,0,0,0,0,0,-1,1777,890,0,0
560,134,0,0,0,0,0,0,0,0,0,-1,1784,890,0,0
567,134,0,0,0,0,0,0,0,0,0,-1,1791,890,0,0
574,134,0,0,0,0,0,0,0,0,0,-1,1798,890,0,0
581,134,0,0,0,0,0,0,0,0,0,-1,1805,890,0,0
588,134,0,0,0,0,0,0,0,0,0,-1,1812,890,0,0
595,134,0,0,0,0,0,0,0,0,0,-1,1819,890,0,0
602,134,0,0,0,0,0,0,0,0,0,-1,1826,890,0,0
609,134,0,0,0,0,0,0,0,0,0,-1,1833,890,0,0
616,134,0,0,0,0,0,0,0,0,0,-1,1840,890,0,0
623,134,78.0602,2.67358,-0.00110265,-1.10987e-05,0.00110255,0.000673368,-0.00178712,1.01522,0.00146827,0.04496,1847,890,78.0602,-2.6736
630,134,77.8655,2.65405,-0.00134937,2.15022e-05,0.000455085,0.000158821,-0.00148669,1.27774,0.00104808,0.045535,1854,890,77.8655,-2.65404
637,134,77.7867,2.7901,-0.00124023,1.03919e-05,-5.28981e-05,1.26254e-05,-0.00124246,-1.5286,0.000832549,0.0442456,1861,890,77.7867,-2.79011
644,134,78.0685,2.66638,-0.000933454,-0.000155904,-0.000427909,3.34665e-05,-0.00112282,-1.15416,0.000759951,0.0379455,1868,890,78.0684,-2.66636
651,134,77.9396,2.61035,-0.000521654,-0.000402583,-0.000742479,0.000282744,-0.00120698,-0.825405,0.000913604,0.0398905,1875,890,77.9396,-2.61034
658,134,77.8654,2.64478,-0.000403573,-0.000632751,-0.00117723,0.000664628,-0.00170095,-0.736882,0.00140878,0.0391478,1882,890,77.8653,-2.64475
665,134,77.8622,2.40875,-0.000668024,-0.000280746,-0.00138381,0.000922912,-0.00187168,-0.854912,0.00164416,0.0364539,1889,890,77.8622,-2.40872
672,134,77.8912,2.46918,-0.000889207,-0.000352442,-0.00169574,0.00109602,-0.00233767,-0.863882,0.00202518,0.0246586,1896,890,77.8912,-2.4692
679,134,77.9216,2.43646,-0.00103192,-0.000361718,-0.00185391,0.00118713,-0.00258077,-0.87481,0.00222445,0.0212614,1903,890,77.9216,-2.43646
686,134,77.9392,2.39246,0,0,0,0,0,0,0,-1,1910,890,77.9392,-2.39249
693,134,34.5778,2.48096,0,0,0,0,0,0,0,-1,1917,890,34.5777,-2.48099
700,134,67.9536,1.95721,0,0,0,0,0,0,0,-1,1924,890,67.9537,-1.95723
707,134,67.9709,2.84393,0,0,0,0,0,0,0,-1,1931,890,67.971,-2.84396
714,134,68.0856,3.81842,-0.00203296,0.00109106,-0.00272805,0.00267263,-0.00361453,-1.0454,0.00364345,0.0295282,1938,890,68.0856,-3.81842
721,134,68.1904,4.66327,-0.00227735,0.00152041,-0.00306249,0.00322495,-0.00398189,-1.06291,0.00416851,0.0290096,1945,890,68.1904,-4.66329
728,134,68.2063,5.51294,-0.00252718,0.00227348,-0.00315925,0.00384082,-0.00409452,-1.11026,0.00458225,0.0254365,1952,890,68.2063,-5.51292
735,134,68.1266,6.50256,-0.00269779,0.00361155,-0.00310333,0.00488211,-0.00396834,-1.1822,0.00511888,0.032762,1959,890,68.1266,-6.50254
742,134,68.0011,7.34546,-0.0023062,0.00593581,-0.00286359,0.00683306,-0.00320345,-1.26716,0.00591954,0.0204294,1966,890,68.0011,-7.34548
749,134,67.9725,8.0874,-0.00126974,0.00891487,-0.002386,0.00944613,-0.00180101,-1.35171,0.00697569,0.0137667,1973,890,67.9725,-8.0874
756,134,67.8959,8.84332,0.000250068,0.012373,-0.00179351,0.0126328,-9.70438e-06,-1.42696,0.00842511,0.0188303,1980,890,67.8959,-8.84332
763,134,67.7715,9.62054,0.00208868,0.01627,-0.0011736,0.0163665,0.00199221,-1.48878,0.0103113,0.0386521,1987,890,67.7714,-9.62056
770,134,67.6335,10.3973,0,0,0,0,0,0,0,-1,1994,890,67.6335,-10.3974
777,134,72.3469,11.4482,0,0,0,0,0,0,0,-1,2001,890,72.3469,-11.4482
784,134,73.8196,12.3495,0,0,0,0,0,0,0,-1,2008,890,73.8196,-12.3495
791,134,75.3113,13.2493,0,0,0,0,0,0,0,-1,2015,890,75.3113,-13.2493
798,134,0,0,0,0,0,0,0,0,0,-1,2022,890,0,0
805,134,0,0,0,0,0,0,0,0,0,-1,2029,890,0,0
812,134,0,0,0,0,0,0,0,0,0,-1,2036,890,0,0
-700,127,0,0,0,0,0,0,0,0,0,-1,524,897,0,0
-693,127,0,0,0,0,0,0,0,0,0,-1,531,897,0,0
-686,127,0,0,0,0,0,0,0,0,0,-1,538,897,0,0
-679,127,-52.0821,4.30957,0,0,0,0,0,0,0,-1,545,897,-52.0821,-4.30955
-672,127,-50.373,4.8219,0,0,0,0,0,0,0,-1,552,897,-50.373,-4.8219
-665,127,-49.6271,-2.44153,0,0,0,0,0,0,0,-1,559,897,-49.6271,2.44154
-658,127,-48.965,-4.18744,0,0,0,0,0,0,0,-1,566,897,-48.965,4.18745
-651,127,-52.9149,-0.455505,0,0,0,0,0,0,0,-1,573,897,-52.9149,0.455524
-644,127,-51.6913,-2.33765,0,0,0,0,0,0,0,-1,580,897,-51.6914,2.33763
-637,127,-50.3104,-4.18658,0,0,0,0,0,0,0,-1,587,897,-50.3104,4.18656
-630,127,-53.1788,8.3996,0,0,0,0,0,0,0,-1,594,897,-53.1788,-8.39958
-623,127,-53.2614,7.79993,-0.012193,0.0105976,0.00567318,0.0119317,-0.0135271,1.33983,0.0147082,0.0231592,601,897,-53.2613,-7.79991
-616,127,-53.372,7.10052,-0.00903395,0.00789169,0.00498441,0.00925046,-0.0103927,1.30466,0.0113474,0.0128335,608,897,-53.372,-7.1005
-609,127,-53.4968,6.26678,-0.00676985,0.00537094,0.00465814,0.00695221,-0.00835112,1.24354,0.00884768,0.0147568,615,897,-53.4968,-6.2668
-602,127,-53.4933,5.44836,-0.00584127,0.00302138,0.00457752,0.00496111,-0.007781,1.16998,0.00741647,0.0172919,622,897,-53.4933,-5.44836
-595,127,-53.9677,4.77966,0,0,0,0,0,0,0,-1,629,897,-53.9676,-4.77964
-588,127,-53.4086,3.60773,0,0,0,0,0,0,0,-1,636,897,-53.4086,-3.60774
-581,127,-52.8495,2.43585,0,0,0,0,0,0,0,-1,643,897,-52.8495,-2.43585
-574,127,-25.2603,0.511169,0,0,0,0,0,0,0,-1,650,897,-25.2603,-0.51117
-567,127,-24.5417,-0.0447388,0,0,0,0,0,0,0,-1,657,897,-24.5417,0.0447226
-560,127,-18.9678,1.21667,0,0,0,0,0,0,0,-1,664,897,-18.9677,-1.2167
-553,127,-61.8452,0.689209,0,0,0,0,0,0,0,-1,671,897,-61.8452,-0.68921
-546,127,-61.7746,0.636902,-0.00419563,-0.00171385,0.00157143,-0.000952438,-0.00495704,1.1196,0.0030374,0.0244041,678,897,-61.7746,-0.636919
-539,127,-61.7339,0.59906,-0.00407532,-0.00170326,0.000889173,-0.00140696,-0.00437162,1.24914,0.00257681,0.0211026,685,897,-61.7339,-0.59907
-532,127,-61.808,0.622009,-0.00323719,-0.00120312,-0.000152321,-0.00119178,-0.00324853,-1.49646,0.00189757,0.0175315,692,897,-61.808,-0.621988
-525,127,-61.8408,0.68042,-0.00214899,0.000146395,-0.00131857,0.000746795,-0.00274939,-1.14351,0.00212604,0.0336941,699,897,-61.8408,-0.68041
-518,127,-61.7006,0.714233,-0.00126399,0.00187037,-0.00264901,0.00338107,-0.00277468,-1.05251,0.00355977,0.039485,706,897,-61.7006,-0.71421
-511,127,-61.7057,0.580566,-5.16907e-06,0.00376384,-0.00426815,0.006545,-0.00278633,-0.993291,0.00553122,0.0411424,713,897,-61.7058,-0.580595
-504,127,0,0,0,0,0,0,0,0,0,-1,720,897,0,0
-497,127,0,0,0,0,0,0,0,0,0,-1,727,897,0,0
-490,127,0,0,0,0,0,0,0,0,0,-1,734,897,0,0
-483,127,0,0,0,0,0,0,0,0,0,-1,741,897,0,0
-476,127,0,0,0,0,0,0,0,0,0,-1,748,897,0,0
-469,127,0,0,0,0,0,0,0,0,0,-1,755,897,0,0
-462,127,0,0,0,0,0,0,0,0,0,-1,762,897,0,0
-455,127,0,0,0,0,0,0,0,0,0,-1,769,897,0,0
-448,127,0,0,0,0,0,0,0,0,0,-1,776,897,0,0
-441,127,0,0,0,0,0,0,0,0,0,-1,783,897,0,0
-434,127,0,0,0,0,0,0,0,0,0,-1,790,897,0,0
-427,127,0,0,0,0,0,0,0,0,0,-1,797,897,0,0
-420,127,0,0,0,0,0,0,0,0,0,-1,804,897,0,0
-413,127,0,0,0,0,0,0,0,0,0,-1,811,897,0,0
-406,127,0,0,0,0,0,0,0,0,0,-1,818,897,0,0
-399,127,0,0,0,0,0,0,0,0,0,-1,825,897,0,0
-392,127,0,0,0,0,0,0,0,0,0,-1,832,897,0,0
-385,127,0,0,0,0,0,0,0,0,0,-1,839,897,0,0
-378,127,0,0,0,0,0,0,0,0,0,-1,846,897,0,0
-371,127,0,0,0,0,0,0,0,0,0,-1,853,897,0,0
-364,127,0,0,0,0,0,0,0,0,0,-1,860,897,0,0
-357,127,0,0,0,0,0,0,0,0,0,-1,867,897,0,0
-350,127,0,0,0,0,0,0,0,0,0,-1,874,897,0,0
-343,127,0,0,0,0,0,0,0,0,0,-1,881,897,0,0
-336,127,0,0,0,0,0,0,0,0,0,-1,888,897,0,0
-329,127,0,0,0,0,0,0,0,0,0,-1,895,897,0,0
-322,127,0,0,0,0,0,0,0,0,0,-1,902,897,0,0
-315,127,0,0,0,0,0,0,0,0,0,-1,909,897,0,0
-308,127,0,0,0,0,0,0,0,0,0,-1,916,897,0,0
-301,127,0,0,0,0,0,0,0,0,0,-1,923,897,0,0
-294,127,0,0,0,0,0,0,0,0,0,-1,930,897,0,0
-287,127,0,0,0,0,0,0,0,0,0,-1,937,897,0,0
-280,127,0,0,0,0,0,0,0,0,0,-1,944,897,0,0
-273,127,0,0,0,0,0,0,0,0,0,-1,951,897,0,0
-266,127,0,0,0,0,0,0,0,0,0,-1,958,897,0,0
-259,127,0,0,0,0,0,0,0,0,0,-1,965,897,0,0
-252,127,0,0,0,0,0,0,0,0,0,-1,972,897,0,0
-245,127,0,0,0,0,0,0,0,0,0,-1,979,897,0,0
-238,127,0,0,0,0,0,0,0,0,0,-1,986,897,0,0
-231,127,0,0,0,0,0,0,0,0,0,-1,993,897,0,0
-224,127,0,0,0,0,0,0,0,0,0,-1,1000,897,0,0
-217,127,0,0,0,0,0,0,0,0,0,-1,1007,897,0,0
-210,127,0,0,0,0,0,0,0,0,0,-1,1014,897,0,0
-203,127,0,0,0,0,0,0,0,0,0,-1,1021,897,0,0
-196,127,0,0,0,0,0,0,0,0,0,-1,1028,897,0,0
-189,127,0,0,0,0,0,0,0,0,0,-1,1035,897,0,0
-182,127,0,0,0,0,0,0,0,0,0,-1,1042,897,0,0
-175,127,0,0,0,0,0,0,0,0,0,-1,1049,897,0,0
-168,127,0,0,0,0,0,0,0,0,0,-1,1056,897,0,0
-161,127,0,0,0,0,0,0,0,0,0,-1,1063,897,0,0
-154,127,0,0,0,0,0,0,0,0,0,-1,1070,897,0,0
-147,127,0,0,0,0,0,0,0,0,0,-1,1077,897,0,0
-140,127,0,0,0,0,0,0,0,0,0,-1,1084,897,0,0
-133,127,0,0,0,0,0,0,0,0,0,-1,1091,897,0,0
-126,127,0,0,0,0,0,0,0,0,0,-1,1098,897,0,0
-119,127,0,0,0,0,0,0,0,0,0,-1,1105,897,0,0
-112,127,0,0,0,0,0,0,0,0,0,-1,1112,897,0,0
-105,127,0,0,0,0,0,0,0,0,0,-1,1119,897,0,0
-98,127,0,0,0,0,0,0,0,0,0,-1,1126,897,0,0
-91,127,0,0,0,0,0,0,0,0,0,-1,1133,897,0,0
-84,127,0,0,0,0,0,0,0,0,0,-1,1140,897,0,0
-77,127,0,0,0,0,0,0,0,0,0,-1,1147,897,0,0
-70,127,0,0,0,0,0,0,0,0,0,-1,1154,897,0,0
-63,127,0,0,0,0,0,0,0,0,0,-1,1161,897,0,0
-56,127,0,0,0,0,0,0,0,0,0,-1,1168,897,0,0
-49,127,0,0,0,0,0,0,0,0,0,-1,1175,897,0,0
-42,127,0,0,0,0,0,0,0,0,0,-1,1182,897,0,0
-35,127,0,0,0,0,0,0,0,0,0,-1,1189,897,0,0
-28,127,0,0,0,0,0,0,0,0,0,-1,1196,897,0,0
-21,127,0,0,0,0,0,0,0,0,0,-1,1203,897,0,0
-14,127,0,0,0,0,0,0,0,0,0,-1,1210,897,0,0
-7,127,0,0,0,0,0,0,0,0,0,-1,1217,897,0,0
0,127,0,0,0,0,0,0,0,0,0,-1,1224,897,0,0
7,127,0,0,0,0,0,0,0,0,0,-1,1231,897,0,0
14,127,0,0,0,0,0,0,0,0,0,-1,1238,897,0,0
21,127,0,0,0,0,0,0,0,0,0,-1,1245,897,0,0
28,127,0,0,0,0,0,0,0,0,0,-1,1252,897,0,0
35,127,0,0,0,0,0,0,0,0,0,-1,1259,897,0,0
42,127,0,0,0,0,0,0,0,0,0,-1,1266,897,0,0
49,127,0,0,0,0,0,0,0,0,0,-1,1273,897,0,0
56,127,0,0,0,0,0,0,0,0,0,-1,1280,897,0,0
63,127,0,0,0,0,0,0,0,0,0,-1,1287,897,0,0
70,127,0,0,0,0,0,0,0,0,0,-1,1294,897,0,0
77,127,0,0,0,0,0,0,0,0,0,-1,1301,897,0,0
84,127,0,0,0,0,0,0,0,0,0,-1,1308,897,0,0
91,127,0,0,0,0,0,0,0,0,0,-1,1315,897,0,0
98,127,0,0,0,0,0,0,0,0,0,-1,1322,897,0,0
105,127,0,0,0,0,0,0,0,0,0,-1,1329,897,0,0
112,127,0,0,0,0,0,0,0,0,0,-1,1336,897,0,0
119,127,0,0,0,0,0,0,0,0,0,-1,1343,897,0,0
126,127,0,0,0,0,0,0,0,0,0,-1,1350,897,0,0
133,127,0,0,0,0,0,0,0,0,0,-1,1357,897,0,0
140,127,0,0,0,0,0,0,0,0,0,-1,1364,897,0,0
147,127,0,0,0,0,0,0,0,0,0,-1,1371,897,0,0
154,127,0,0,0,0,0,0,0,0,0,-1,1378,897,0,0
161,127,0,0,0,0,0,0,0,0,0,-1,1385,897,0,0
168,127,0,0,0,0,0,0,0,0,0,-1,1392,897,0,0
175,127,0,0,0,0,0,0,0,0,0,-1,1399,897,0,0
182,127,0,0,0,0,0,0,0,0,0,-1,1406,897,0,0
189,127,0,0,0,0,0,0,0,0,0,-1,1413,897,0,0
196,127,0,0,0,0,0,0,0,0,0,-1,1420,897,0,0
203,127,0,0,0,0,0,0,0,0,0,-1,1427,897,0,0
210,127,0,0,0,0,0,0,0,0,0,-1,1434,897,0,0
217,127,0,0,0,0,0,0,0,0,0,-1,1441,897,0,0
224,127,0,0,0,0,0,0,0,0,0,-1,1448,897,0,0
231,127,0,0,0,0,0,0,0,0,0,-1,1455,897,0,0
238,127,0,0,0,0,0,0,0,0,0,-1,1462,897,0,0
245,127,0,0,0,0,0,0,0,0,0,-1,1469,897,0,0
252,127,0,0,0,0,0,0,0,0,0,-1,1476,897,0,0
259,127,0,0,0,0,0,0,0,0,0,-1,1483,897,0,0
266,127,0,0,0,0,0,0,0,0,0,-1,1490,897,0,0
273,127,0,0,0,0,0,0,0,0,0,-1,1497,897,0,0
280,127,0,0,0,0,0,0,0,0,0,-1,1504,897,0,0
287,127,0,0,0,0,0,0,0,0,0,-1,1511,897,0,0
294,127,0,0,0,0,0,0,0,0,0,-1,1518,897,0,0
301,127,0,0,0,0,0,0,0,0,0,-1,1525,897,0,0
308,127,0,0,0,0,0,0,0,0,0,-1,1532,897,0,0
315,127,0,0,0,0,0,0,0,0,0,-1,1539,897,0,0
322,127,0,0,0,0,0,0,0,0,0,-1,1546,897,0,0
329,127,0,0,0,0,0,0,0,0,0,-1,1553,897,0,0
336,127,0,0,0,0,0,0,0,0,0,-1,1560,897,0,0
343,127,0,0,0,0,0,0,0,0,0,-1,1567,897,0,0
350,127,0,0,0,0,0,0,0,0,0,-1,1574,897,0,0
357,127,0,0,0,0,0,0,0,0,0,-1,1581,897,0,0
364,127,0,0,0,0,0,0,0,0,0,-1,1588,897,0,0
371,127,0,0,0,0,0,0,0,0,0,-1,1595,897,0,0
378,127,0,0,0,0,0,0,0,0,0,-1,1602,897,0,0
385,127,0,0,0,0,0,0,0,0,0,-1,1609,897,0,0
392,127,0,0,0,0,0,0,0,0,0,-1,1616,897,0,0
399,127,0,0,0,0,0,0,0,0,0,-1,1623,897,0,0
406,127,0,0,0,0,0,0,0,0,0,-1,1630,897,0,0
413,127,0,0,0,0,0,0,0,0,0,-1,1637,897,0,0
420,127,0,0,0,0,0,0,0,0,0,-1,1644,897,0,0
427,127,0,0,0,0,0,0,0,0,0,-1,1651,897,0,0
434,127,0,0,0,0,0,0,0,0,0,-1,1658,897,0,0
441,127,0,0,0,0,0,0,0,0,0,-1,1665,897,0,0
448,127,0,0,0,0,0,0,0,0,0,-1,1672,897,0,0
455,127,0,0,0,0,0,0,0,0,0,-1,1679,897,0,0
462,127,0,0,0,0,0,0,0,0,0,-1,1686,897,0,0
469,127,0,0,0,0,0,0,0,0,0,-1,1693,897,0,0
476,127,0,0,0,0,0,0,0,0,0,-1,1700,897,0,0
483,127,0,0,0,0,0,0,0,0,0,-1,1707,897,0,0
490,127,0,0,0,0,0,0,0,0,0,-1,1714,897,0,0
497,127,0,0,0,0,0,0,0,0,0,-1,1721,897,0,0
504,127,0,0,0,0,0,0,0,0,0,-1,1728,897,0,0
511,127,0,0,0,0,0,0,0,0,0,-1,1735,897,0,0
518,127,0,0,0,0,0,0,0,0,0,-1,1742,897,0,0
525,127,0,0,0,0,0,0,0,0,0,-1,1749,897,0,0
532,127,0,0,0,0,0,0,0,0,0,-1,1756,897,0,0
539,127,0,0,0,0,0,0,0,0,0,-1,1763,897,0,0
546,127,0,0,0,0,0,0,0,0,0,-1,1770,897,0,0
553,127,0,0,0,0,0,0,0,0,0,-1,1777,897,0,0
560,127,0,0,0,0,0,0,0,0,0,-1,1784,897,0,0
567,127,0,0,0,0,0,0,0,0,0,-1,1791,897,0,0
574,127,0,0,0,0,0,0,0,0,0,-1,1798,897,0,0
581,127,0,0,0,0,0,0,0,0,0,-1,1805,897,0,0
588,127,0,0,0,0,0,0,0,0,0,-1,1812,897,0,0
595,127,0,0,0,0,0,0,0,0,0,-1,1819,897,0,0
602,127,0,0,0,0,0,0,0,0,0,-1,1826,897,0,0
609,127,0,0,0,0,0,0,0,0,0,-1,1833,897,0,0
616,127,0,0,0,0,0,0,0,0,0,-1,1840,897,0,0
623,127,0,0,0,0,0,0,0,0,0,-1,1847,897,0,0
630,127,77.9335,2.81598,-0.00312761,0.00115931,0.000557532,0.00123063,-0.00319893,1.44356,0.00264023,0.0421246,1854,897,77.9335,-2.816
637,127,77.975,2.85895,-0.00265558,0.000822133,2.80708e-06,0.000822136,-0.00265558,1.56999,0.00209881,0.0396654,1861,897,77.9749,-2.85896
644,127,78.0426,2.87994,-0.00199697,0.000430824,-0.000390011,0.000491939,-0.00205809,-1.41536,0.00156208,0.0389988,1868,897,78.0427,-2.87995
651,127,77.8893,2.62482,-0.00124462,1.2361e-05,-0.000664815,0.000298736,-0.00153099,-1.16406,0.00113344,0.0428011,1875,897,77.8893,-2.62484
658,127,77.8126,2.50446,-0.0007167,-0.000334881,-0.000977861,0.000470532,-0.00152211,-0.881801,0.00120267,0.0415777,1882,897,77.8126,-2.50446
665,127,77.8776,2.45813,-0.000630418,-0.000104889,-0.0011402,0.000802436,-0.00153774,-0.898648,0.00137315,0.0424621,1889,897,77.8775,-2.45815
672,127,77.8407,2.42395,-0.000789822,-0.000234361,-0.00140609,0.000921162,-0.00194534,-0.882903,0.00168982,0.0368682,1896,897,77.8407,-2.42395
679,127,77.9034,2.45837,-0.000963429,-0.000308261,-0.00155948,0.000957674,-0.00222936,-0.888923,0.00188823,0.0260914,1903,897,77.9034,-2.45838
686,127,77.9288,2.44385,0,0,0,0,0,0,0,-1,1910,897,77.9289,-2.44384
693,127,59.2523,2.33673,0,0,0,0,0,0,0,-1,1917,897,59.2524,-2.33674
700,127,58.717,1.80957,0,0,0,0,0,0,0,-1,1924,897,58.717,-1.80956
707,127,68.9792,2.82654,0,0,0,0,0,0,0,-1,1931,897,68.9792,-2.82654
714,127,69.2375,3.87604,-0.00229027,0.00113233,-0.00255388,0.00249526,-0.0036532,-1.08058,0.00357073,0.0283988,1938,897,69.2375,-3.87602
721,127,69.2285,4.8667,-0.00261528,0.00155155,-0.00293966,0.00307123,-0.00413495,-1.09368,0.00417557,0.0280161,1945,897,69.2286,-4.86672
728,127,69.0594,5.66357,-0.00294887,0.00225829,-0.00312284,0.00372052,-0.0044111,-1.13288,0.00470043,0.0262523,1952,897,69.0594,-5.66357
735,127,68.9843,6.53583,-0.00325422,0.00357506,-0.00315007,0.00480614,-0.0044853,-1.19824,0.00536548,0.0216598,1959,897,68.9843,-6.5358
742,127,68.9019,7.33978,-0.00296361,0.00598649,-0.00300053,0.00689932,-0.00387644,-1.27547,0.00630246,0.0194061,1966,897,68.9019,-7.33978
749,127,68.8171,8.09528,-0.00186576,0.00930099,-0.00246507,0.00982095,-0.00238572,-1.36291,0.00747061,0.0137395,1973,897,68.8172,-8.09525
756,127,68.731,8.80725,-4.54121e-05,0.0132726,-0.00157428,0.0134562,-0.000228974,-1.45472,0.00904808,0.016585,1980,897,68.731,-8.80728
763,127,68.6084,9.54181,0.0023283,0.0177293,-0.000418833,0.0177407,0.00231692,-1.54363,0.0111354,0.0254171,1987,897,68.6084,-9.54181
770,127,68.5457,10.2727,0,0,0,0,0,0,0,-1,1994,897,68.5457,-10.2727
777,127,42.703,5.33789,0,0,0,0,0,0,0,-1,2001,897,42.7031,-5.33791
784,127,75.5869,13.3311,0,0,0,0,0,0,0,-1,2008,897,75.5868,-13.331
791,127,77.0928,14.3087,0,0,0,0,0,0,0,-1,2015,897,77.0929,-14.3087
798,127,0,0,0,0,0,0,0,0,0,-1,2022,897,0,0
805,127,0,0,0,0,0,0,0,0,0,-1,2029,897,0,0
812,127,0,0,0,0,0,0,0,0,0,-1,2036,897,0,0
-700,120,0,0,0,0,0,0,0,0,0,-1,524,904,0,0
-693,120,0,0,0,0,0,0,0,0,0,-1,531,904,0,0
-686,120,0,0,0,0,0,0,0,0,0,-1,538,904,0,0
-679,120,-52.0888,4.76025,0,0,0,0,0,0,0,-1,545,904,-52.0888,-4.76024
-672,120,-51.1454,5.42755,0,0,0,0,0,0,0,-1,552,904,-51.1454,-5.42753
-665,120,-50.2376,-2.67987,0,0,0,0,0,0,0,-1,559,904,-50.2376,2.67988
-658,120,-54.6443,7.5307,0,0,0,0,0,0,0,-1,566,904,-54.6443,-7.53071
-651,120,-52.9452,-1.22644,0,0,0,0,0,0,0,-1,573,904,-52.9452,1.22647
-644,120,-51.6526,-3.15863,0,0,0,0,0,0,0,-1,580,904,-51.6526,3.15864
-637,120,-53.9418,9.04437,0,0,0,0,0,0,0,-1,587,904,-53.9418,-9.04439
-630,120,-54.0281,8.48914,-0.0146997,0.014528,0.00801623,0.0165823,-0.016754,1.31994,0.0192468,0.0449876,594,904,-54.028,-8.48912
-623,120,-54.1907,7.81842,-0.0111655,0.0112403,0.00661099,0.0130455,-0.0129707,1.30424,0.0150205,0.0158446,601,904,-54.1907,-7.8184
-616,120,-54.2714,7.07477,-0.00810958,0.0080281,0.00559638,0.00977892,-0.0098604,1.26759,0.0113388,0.0122588,608,904,-54.2714,-7.07479
-609,120,-54.3287,6.28625,-0.00602156,0.0051344,0.00499039,0.00704093,-0.00792809,1.20587,0.00864742,0.0153849,615,904,-54.3288,-6.28624
-602,120,-54.36,5.51978,-0.0052862,0.00259776,0.00471985,0.00480527,-0.00749371,1.13332,0.00715715,0.019106,622,904,-54.3601,-5.51975
-595,120,-54.6657,5.04388,0,0,0,0,0,0,0,-1,629,904,-54.6657,-5.04387
-588,120,-54.0934,3.70361,0,0,0,0,0,0,0,-1,636,904,-54.0934,-3.70361
-581,120,-53.5211,2.36334,0,0,0,0,0,0,0,-1,643,904,-53.5211,-2.36335
-574,120,-27.5438,0.505066,0,0,0,0,0,0,0,-1,650,904,-27.5438,-0.505085
-567,120,-25.2822,-0.410645,0,0,0,0,0,0,0,-1,657,904,-25.2821,0.410629
-560,120,-27.3358,1.10327,0,0,0,0,0,0,0,-1,664,904,-27.3358,-1.10324
-553,120,-61.7749,0.644592,0,0,0,0,0,0,0,-1,671,904,-61.7749,-0.644615
-546,120,-61.7103,0.592529,-0.00339573,-0.0024501,0.00139725,-0.00144783,-0.004398,0.948545,0.0025881,0.0322397,678,904,-61.7103,-0.592542
-539,120,-61.6719,0.577759,-0.00322109,-0.00243297,0.000678271,-0.00204259,-0.00361146,1.04856,0.00209105,0.0258605,685,904,-61.6719,-0.577734
-532,120,-61.6841,0.542603,-0.00235791,-0.00179574,-0.000375493,-0.00160778,-0.00254587,-1.10669,0.00148671,0.0271113,692,904,-61.6841,-0.542572
-525,120,-61.7505,0.633118,-0.00149962,-0.000453318,-0.00155493,0.000664106,-0.00261705,-0.947674,0.00200311,0.0362591,699,904,-61.7505,-0.633119
-518,120,-61.8211,0.750793,0,0,0,0,0,0,0,-1,706,904,-61.8211,-0.750776
-511,120,-61.6548,0.730835,0,0,0,0,0,0,0,-1,713,904,-61.6548,-0.730829
-504,120,0,0,0,0,0,0,0,0,0,-1,720,904,0,0
-497,120,0,0,0,0,0,0,0,0,0,-1,727,904,0,0
-490,120,0,0,0,0,0,0,0,0,0,-1,734,904,0,0
-483,120,0,0,0,0,0,0,0,0,0,-1,741,904,0,0
-476,120,0,0,0,0,0,0,0,0,0,-1,748,904,0,0
-469,120,0,0,0,0,0,0,0,0,0,-1,755,904,0,0
-462,120,0,0,0,0,0,0,0,0,0,-1,762,904,0,0
-455,120,0,0,0,0,0,0,0,0,0,-1,769,904,0,0
-448,120,0,0,0,0,0,0,0,0,0,-1,776,904,0,0
-441,120,0,0,0,0,0,0,0,0,0,-1,783,904,0,0
-434,120,0,0,0,0,0,0,0,0,0,-1,790,904,0,0
-427,120,0,0,0,0,0,0,0,0,0,-1,797,904,0,0
-420,120,0,0,0,0,0,0,0,0,0,-1,804,904,0,0
-413,120,0,0,0,0,0,0,0,0,0,-1,811,904,0,0
-406,120,0,0,0,0,0,0,0,0,0,-1,818,904,0,0
-399,120,0,0,0,0,0,0,0,0,0,-1,825,904,0,0
-392,120,0,0,0,0,0,0,0,0,0,-1,832,904,0,0
-385,120,0,0,0,0,0,0,0,0,0,-1,839,904,0,0
-378,120,0,0,0,0,0,0,0,0,0,-1,846,904,0,0
-371,120,0,0,0,0,0,0,0,0,0,-1,853,904,0,0
-364,120,0,0,0,0,0,0,0,0,0,-1,860,904,0,0
-357,120,0,0,0,0,0,0,0,0,0,-1,867,904,0,0
-350,120,0,0,0,0,0,0,0,0,0,-1,874,904,0,0
-343,120,0,0,0,0,0,0,0,0,0,-1,881,904,0,0
-336,120,0,0,0,0,0,0,0,0,0,-1,888,904,0,0
-329,120,0,0,0,0,0,0,0,0,0,-1,895,904,0,0
-322,120,0,0,0,0,0,0,0,0,0,-1,902,904,0,0
-315,120,0,0,0,0,0,0,0,0,0,-1,909,904,0,0
-308,120,0,0,0,0,0,0,0,0,0,-1,916,904,0,0
-301,120,0,0,0,0,0,0,0,0,0,-1,923,904,0,0
-294,120,0,0,0,0,0,0,0,0,0,-1,930,904,0,0
-287,120,0,0,0,0,0,0,0,0,0,-1,937,904,0,0
-280,120,0,0,0,0,0,0,0,0,0,-1,944,904,0,0
-273,120,0,0,0,0,0,0,0,0,0,-1,951,904,0,0
-266,120,0,0,0,0,0,0,0,0,0,-1,958,904,0,0
-259,120,0,0,0,0,0,0,0,0,0,-1,965,904,0,0
-252,120,0,0,0,0,0,0,0,0,0,-1,972,904,0,0
-245,120,0,0,0,0,0,0,0,0,0,-1,979,904,0,0
-238,120,0,0,0,0,0,0,0,0,0,-1,986,904,0,0
-231,120,0,0,0,0,0,0,0,0,0,-1,993,904,0,0
-224,120,0,0,0,0,0,0,0,0,0,-1,1000,904,0,0
-217,120,0,0,0,0,0,0,0,0,0,-1,1007,904,0,0
-210,120,0,0,0,0,0,0,0,0,0,-1,1014,904,0,0
-203,120,0,0,0,0,0,0,0,0,0,-1,1021,904,0,0
-196,120,0,0,0,0,0,0,0,0,0,-1,1028,904,0,0
-189,120,0,0,0,0,0,0,0,0,0,-1,1035,904,0,0
-182,120,0,0,0,0,0,0,0,0,0,-1,1042,904,0,0
-175,120,0,0,0,0,0,0,0,0,0,-1,1049,904,0,0
-168,120,0,0,0,0,0,0,0,0,0,-1,1056,904,0,0
-161,120,0,0,0,0,0,0,0,0,0,-1,1063,904,0,0
-154,120,0,0,0,0,0,0,0,0,0,-1,1070,904,0,0
-147,120,0,0,0,0,0,0,0,0,0,-1,1077,904,0,0
-140,120,0,0,0,0,0,0,0,0,0,-1,1084,904,0,0
-133,120,0,0,0,0,0,0,0,0,0,-1,1091,904,0,0
-126,120,0,0,0,0,0,0,0,0,0,-1,1098,904,0,0
-119,120,0,0,0,0,0,0,0,0,0,-1,1105,904,0,0
-112,120,0,0,0,0,0,0,0,0,0,-1,1112,904,0,0
-105,120,0,0,0,0,0,0,0,0,0,-1,1119,904,0,0
-98,120,0,0,0,0,0,0,0,0,0,-1,1126,904,0,0
-91,120,0,0,0,0,0,0,0,0,0,-1,1133,904,0,0
-84,120,0,0,0,0,0,0,0,0,0,-1,1140,904,0,0
-77,120,0,0,0,0,0,0,0,0,0,-1,1147,904,0,0
-70,120,0,0,0,0,0,0,0,0,0,-1,1154,904,0,0
-63,120,0,0,0,0,0,0,0,0,0,-1,1161,904,0,0
-56,120,0,0,0,0,0,0,0,0,0,-1,1168,904,0,0
-49,120,0,0,0,0,0,0,0,0,0,-1,1175,904,0,0
-42,120,0,0,0,0,0,0,0,0,0,-1,1182,904,0,0
-35,120,0,0,0,0,0,0,0,0,0,-1,1189,904,0,0
-28,120,0,0,0,0,0,0,0,0,0,-1,1196,904,0,0
-21,120,0,0,0,0,0,0,0,0,0,-1,1203,904,0,0
-14,120,0,0,0,0,0,0,0,0,0,-1,1210,904,0,0
-7,120,0,0,0,0,0,0,0,0,0,-1,1217,904,0,0
0,120,0,0,0,0,0,0,0,0,0,-1,1224,904,0,0
7,120,0,0,0,0,0,0,0,0,0,-1,1231,904,0,0
14,120,0,0,0,0,0,0,0,0,0,-1,1238,904,0,0
21,120,0,0,0,0,0,0,0,0,0,-1,1245,904,0,0
28,120,0,0,0,0,0,0,0,0,0,-1,1252,904,0,0
35,120,0,0,0,0,0,0,0,0,0,-1,1259,904,0,0
42,120,0,0,0,0,0,0,0,0,0,-1,1266,904,0,0
49,120,0,0,0,0,0,0,0,0,0,-1,1273,904,0,0
56,120,0,0,0,0,0,0,0,0,0,-1,1280,904,0,0
63,120,0,0,0,0,0,0,0,0,0,-1,1287,904,0,0
70,120,0,0,0,0,0,0,0,0,0,-1,1294,904,0,0
77,120,0,0,0,0,0,0,0,0,0,-1,1301,904,0,0
84,120,0,0,0,0,0,0,0,0,0,-1,1308,904,0,0
91,120,0,0,0,0,0,0,0,0,0,-1,1315,904,0,0
98,120,0,0,0,0,0,0,0,0,0,-1,1322,904,0,0
105,120,0,0,0,0,0,0,0,0,0,-1,1329,904,0,0
112,120,0,0,0,0,0,0,0,0,0,-1,1336,904,0,0
119,120,0,0,0,0,0,0,0,0,0,-1,1343,904,0,0
126,120,0,0,0,0,0,0,0,0,0,-1,1350,904,0,0
133,120,0,0,0,0,0,0,0,0,0,-1,1357,904,0,0
140,120,0,0,0,0,0,0,0,0,0,-1,1364,904,0,0
147,120,0,0,0,0,0,0,0,0,0,-1,1371,904,0,0
154,120,0,0,0,0,0,0,0,0,0,-1,1378,904,0,0
161,120,0,0,0,0,0,0,0,0,0,-1,1385,904,0,0
168,120,0,0,0,0,0,0,0,0,0,-1,1392,904,0,0
175,120,0,0,0,0,0,0,0,0,0,-1,1399,904,0,0
182,120,0,0,0,0,0,0,0,0,0,-1,1406,904,0,0
189,120,0,0,0,0,0,0,0,0,0,-1,1413,904,0,0
196,120,0,0,0,0,0,0,0,0,0,-1,1420,904,0,0
203,120,0,0,0,0,0,0,0,0,0,-1,1427,904,0,0
210,120,0,0,0,0,0,0,0,0,0,-1,1434,904,0,0
217,120,0,0,0,0,0,0,0,0,0,-1,1441,904,0,0
224,120,0,0,0,0,0,0,0,0,0,-1,1448,904,0,0
231,120,0,0,0,0,0,0,0,0,0,-1,1455,904,0,0
238,120,0,0,0,0,0,0,0,0,0,-1,1462,904,0,0
245,120,0,0,0,0,0,0,0,0,0,-1,1469,904,0,0
252,120,0,0,0,0,0,0,0,0,0,-1,1476,904,0,0
259,120,0,0,0,0,0,0,0,0,0,-1,1483,904,0,0
266,120,0,0,0,0,0,0,0,0,0,-1,1490,904,0,0
273,120,0,0,0,0,0,0,0,0,0,-1,1497,904,0,0
280,120,0,0,0,0,0,0,0,0,0,-1,1504,904,0,0
287,120,0,0,0,0,0,0,0,0,0,-1,1511,904,0,0
294,120,0,0,0,0,0,0,0,0,0,-1,1518,904,0,0
301,120,0,0,0,0,0,0,0,0,0,-1,1525,904,0,0
308,120,0,0,0,0,0,0,0,0,0,-1,1532,904,0,0
315,120,0,0,0,0,0,0,0,0,0,-1,1539,904,0,0
322,120,0,0,0,0,0,0,0,0,0,-1,1546,904,0,0
329,120,0,0,0,0,0,0,0,0,0,-1,1553,904,0,0
336,120,0,0,0,0,0,0,0,0,0,-1,1560,904,0,0
343,120,0,0,0,0,0,0,0,0,0,-1,1567,904,0,0
350,120,0,0,0,0,0,0,0,0,0,-1,1574,904,0,0
357,120,0,0,0,0,0,0,0,0,0,-1,1581,904,0,0
364,120,0,0,0,0,0,0,0,0,0,-1,1588,904,0,0
371,120,0,0,0,0,0,0,0,0,0,-1,1595,904,0,0
378,120,0,0,0,0,0,0,0,0,0,-1,1602,904,0,0
385,120,0,0,0,0,0,0,0,0,0,-1,1609,904,0,0
392,120,0,0,0,0,0,0,0,0,0,-1,1616,904,0,0
399,120,0,0,0,0,0,0,0,0,0,-1,1623,904,0,0
406,120,0,0,0,0,0,0,0,0,0,-1,1630,904,0,0
413,120,0,0,0,0,0,0,0,0,0,-1,1637,904,0,0
420,120,0,0,0,0,0,0,0,0,0,-1,1644,904,0,0
427,120,0,0,0,0,0,0,0,0,0,-1,1651,904,0,0
434,120,0,0,0,0,0,0,0,0,0,-1,1658,904,0,0
441,120,0,0,0,0,0,0,0,0,0,-1,1665,904,0,0
448,120,0,0,0,0,0,0,0,0,0,-1,1672,904,0,0
455,120,0,0,0,0,0,0,0,0,0,-1,1679,904,0,0
462,120,0,0,0,0,0,0,0,0,0,-1,1686,904,0,0
469,120,0,0,0,0,0,0,0,0,0,-1,1693,904,0,0
476,120,0,0,0,0,0,0,0,0,0,-1,1700,904,0,0
483,120,0,0,0,0,0,0,0,0,0,-1,1707,904,0,0
490,120,0,0,0,0,0,0,0,0,0,-1,1714,904,0,0
497,120,0,0,0,0,0,0,0,0,0,-1,1721,904,0,0
504,120,0,0,0,0,0,0,0,0,0,-1,1728,904,0,0
511,120,0,0,0,0,0,0,0,0,0,-1,1735,904,0,0
518,120,0,0,0,0,0,0,0,0,0,-1,1742,904,0,0
525,120,0,0,0,0,0,0,0,0,0,-1,1749,904,0,0
532,120,0,0,0,0,0,0,0,0,0,-1,1756,904,0,0
539,120,0,0,0,0,0,0,0,0,0,-1,1763,904,0,0
546,120,0,0,0,0,0,0,0,0,0,-1,1770,904,0,0
553,120,0,0,0,0,0,0,0,0,0,-1,1777,904,0,0
560,120,0,0,0,0,0,0,0,0,0,-1,1784,904,0,0
567,120,0,0,0,0,0,0,0,0,0,-1,1791,904,0,0
574,120,0,0,0,0,0,0,0,0,0,-1,1798,904,0,0
581,120,0,0,0,0,0,0,0,0,0,-1,1805,904,0,0
588,120,0,0,0,0,0,0,0,0,0,-1,1812,904,0,0
595,120,0,0,0,0,0,0,0,0,0,-1,1819,904,0,0
602,120,0,0,0,0,0,0,0,0,0,-1,1826,904,0,0
609,120,0,0,0,0,0,0,0,0,0,-1,1833,904,0,0
616,120,0,0,0,0,0,0,0,0,0,-1,1840,904,0,0
623,120,0,0,0,0,0,0,0,0,0,-1,1847,904,0,0
630,120,78.0417,2.84619,-0.00522838,0.00228081,0.00097595,0.00240558,-0.00535315,1.44364,0.00458599,0.0410342,1854,904,78.0417,-2.84619
637,120,78.0374,2.94928,-0.00433688,0.00175251,0.000306085,0.00176785,-0.00435223,1.5207,0.00363693,0.0419953,1861,904,78.0374,-2.94929
644,120,77.9475,2.85419,-0.00332093,0.00122654,-0.000163869,0.00123244,-0.00332683,-1.53482,0.0027233,0.0423027,1868,904,77.9476,-2.85416
651,120,77.8837,2.60101,-0.00222019,0.00068228,-0.000469518,0.000756342,-0.00229426,-1.41435,0.00183435,0.0451057,1875,904,77.8837,-2.60099
658,120,77.7919,2.60815,-0.0012467,0.00022467,-0.000722247,0.000519943,-0.00154197,-1.18271,0.00123823,0.0435511,1882,904,77.7919,-2.60818
665,120,77.8757,2.66467,-0.00068519,0.000264946,-0.000853629,0.000766798,-0.00118704,-1.03932,0.00113671,0.0384844,1889,904,77.8758,-2.66464
672,120,77.9115,2.51666,-0.000725899,2.47727e-05,-0.00105864,0.00077264,-0.00147377,-0.955758,0.00131785,0.0369816,1896,904,77.9115,-2.51668
679,120,77.8743,2.45868,-0.000902432,-0.000165589,-0.00118706,0.000708905,-0.00177693,-0.935868,0.00147869,0.03179,1903,904,77.8743,-2.45866
686,120,77.8688,2.48541,-0.00110975,-0.000155229,-0.00148497,0.000927292,-0.00219227,-0.940882,0.00184978,0.0319293,1910,904,77.8688,-2.48538
693,120,77.9945,2.44647,0,0,0,0,0,0,0,-1,1917,904,77.9944,-2.44649
700,120,42.2007,3.00946,0,0,0,0,0,0,0,-1,1924,904,42.2007,-3.00944
707,120,69.2025,2.91791,0,0,0,0,0,0,0,-1,1931,904,69.2025,-2.9179
714,120,70.5492,3.99829,0,0,0,0,0,0,0,-1,1938,904,70.5492,-3.99832
721,120,70.019,5.10162,-0.00300288,0.00152041,-0.00279339,0.00285294,-0.00433541,-1.12569,0.00417951,0.0258895,1945,904,70.019,-5.10161
728,120,69.8716,5.85211,-0.00339182,0.0021875,-0.00302521,0.00351295,-0.00471726,-1.15785,0.00476864,0.0175557,1952,904,69.8716,-5.85213
735,120,69.8141,6.57355,-0.0037978,0.00348289,-0.00314653,0.00465428,-0.00496919,-1.21441,0.0055571,0.0151843,1959,904,69.814,-6.57357
742,120,69.7264,7.37054,-0.00358903,0.00595612,-0.00315488,0.00690463,-0.00453753,-1.27875,0.00665309,0.016076,1966,904,69.7264,-7.37056
749,120,69.6742,8.1026,-0.00243218,0.00956945,-0.00272426,0.0101589,-0.00302161,-1.35772,0.00797299,0.012064,1973,904,69.6741,-8.10259
756,120,69.5774,8.81696,-0.000345672,0.0140085,-0.00177502,0.0142247,-0.000561911,-1.44957,0.00967589,0.015539,1980,904,69.5773,-8.81695
763,120,69.4253,9.552,0.00243646,0.018951,-0.000414599,0.0189614,0.00242605,-1.54571,0.0119149,0.0344937,1987,904,69.4254,-9.55201
770,120,69.3064,10.317,0,0,0,0,0,0,0,-1,1994,904,69.3065,-10.3169
777,120,59.313,9.57587,0,0,0,0,0,0,0,-1,2001,904,59.3129,-9.57587
784,120,77.5552,14.1787,0,0,0,0,0,0,0,-1,2008,904,77.5551,-14.1787
791,120,78.9937,15.0701,0,0,0,0,0,0,0,-1,2015,904,78.9937,-15.0701
798,120,80.3984,15.9501,0,0,0,0,0,0,0,-1,2022,904,80.3986,-15.9502
805,120,0,0,0,0,0,0,0,0,0,-1,2029,904,0,0
812,120,0,0,0,0,0,0,0,0,0,-1,2036,904,0,0
-700,113,0,0,0,0,0,0,0,0,0,-1,524,911,0,0
-693,113,0,0,0,0,0,0,0,0,0,-1,531,911,0,0
-686,113,0,0,0,0,0,0,0,0,0,-1,538,911,0,0
-679,113,-55.4734,4.82983,0,0,0,0,0,0,0,-1,545,911,-55.4735,-4.82983
-672,113,-52.5881,5.49811,0,0,0,0,0,0,0,-1,552,911,-52.5881,-5.49808
-665,113,-56.8114,7.23682,0,0,0,0,0,0,0,-1,559,911,-56.8114,-7.23679
-658,113,-54.1535,7.58624,0,0,0,0,0,0,0,-1,566,911,-54.1535,-7.58627
-651,113,-53.3762,7.8313,0,0,0,0,0,0,0,-1,573,911,-53.3762,-7.8313
-644,113,-48.5211,7.83691,0,0,0,0,0,0,0,-1,580,911,-48.5211,-7.83694
-637,113,-54.6946,8.93188,0,0,0,0,0,0,0,-1,587,911,-54.6947,-8.93188
-630,113,-54.938,8.53522,-0.0127354,0.0166695,0.00880609,0.019105,-0.0151709,1.30097,0.0198326,0.0267397,594,911,-54.938,-8.53524
-623,113,-55.0798,7.80658,-0.00968247,0.0124862,0.00731036,0.0146798,-0.0118761,1.27928,0.0153605,0.013869,601,911,-55.0798,-7.80657
-616,113,-55.1282,7.05164,-0.00693048,0.00842678,0.00609735,0.0105532,-0.0090569,1.23524,0.0113329,0.0123779,608,911,-55.1282,-7.05165
-609,113,-55.1459,6.33923,-0.0051423,0.0049476,0.00535711,0.00726132,-0.00745603,1.1631,0.00849732,0.0125147,615,911,-55.1459,-6.33925
-602,113,-55.1874,5.54254,-0.00463236,0.00222627,0.00498913,0.00485101,-0.0072571,1.08649,0.00703648,0.0220189,622,911,-55.1874,-5.54256
-595,113,-55.235,4.91473,-0.00408588,0.00090925,0.00450718,0.0035646,-0.00674122,1.0384,0.00604355,0.0296041,629,911,-55.235,-4.91474
-588,113,-55.1493,4.04987,-0.00366358,7.72955e-05,0.00392308,0.00255302,-0.0061393,1.00785,0.00515893,0.0381607,636,911,-55.1493,-4.04984
-581,113,-55.2065,3.30457,0,0,0,0,0,0,0,-1,643,911,-55.2065,-3.30455
-574,113,-55.2268,2.31573,0,0,0,0,0,0,0,-1,650,911,-55.2268,-2.31574
-567,113,-21.8396,0.437378,0,0,0,0,0,0,0,-1,657,911,-21.8396,-0.437351
-560,113,-61.6563,0.682922,0,0,0,0,0,0,0,-1,664,911,-61.6562,-0.682921
-553,113,-61.64,0.466187,-0.00243877,-0.00277315,0.00167194,-0.000925685,-0.00428623,0.735566,0.00260436,0.0483681,671,911,-61.64,-0.466208
-546,113,-61.6959,0.588684,-0.00262753,-0.00293668,0.00120226,-0.00156995,-0.00399426,0.721463,0.00232361,0.0370121,678,911,-61.6959,-0.588713
-539,113,-61.6133,0.54303,-0.00244832,-0.00274609,0.000400281,-0.00217013,-0.00302428,0.60735,0.00180033,0.0374629,685,911,-61.6133,-0.543052
-532,113,-61.6456,0.493958,-0.0016153,-0.0018231,-0.000756925,-0.000955179,-0.00248322,-0.717194,0.00144635,0.03752,692,911,-61.6455,-0.493936
-525,113,-61.7267,0.533875,-0.000796775,-0.000341265,-0.00209607,0.00153939,-0.00267743,-0.839515,0.00246395,0.0370088,699,911,-61.7267,-0.533855
-518,113,-61.7548,0.632629,-7.34324e-05,0.00129568,-0.00349894,0.00417641,-0.00295415,-0.882001,0.00413694,0.0394031,706,911,-61.7548,-0.632656
-511,113,-61.8213,0.610474,0,0,0,0,0,0,0,-1,713,911,-61.8213,-0.610483
-504,113,0,0,0,0,0,0,0,0,0,-1,720,911,0,0
-497,113,0,0,0,0,0,0,0,0,0,-1,727,911,0,0
-490,113,0,0,0,0,0,0,0,0,0,-1,734,911,0,0
-483,113,0,0,0,0,0,0,0,0,0,-1,741,911,0,0
-476,113,0,0,0,0,0,0,0,0,0,-1,748,911,0,0
-469,113,0,0,0,0,0,0,0,0,0,-1,755,911,0,0
-462,113,0,0,0,0,0,0,0,0,0,-1,762,911,0,0
-455,113,0,0,0,0,0,0,0,0,0,-1,769,911,0,0
-448,113,0,0,0,0,0,0,0,0,0,-1,776,911,0,0
-441,113,0,0,0,0,0,0,0,0,0,-1,783,911,0,0
-434,113,0,0,0,0,0,0,0,0,0,-1,790,911,0,0
-427,113,0,0,0,0,0,0,0,0,0,-1,797,911,0,0
-420,113,0,0,0,0,0,0,0,0,0,-1,804,911,0,0
-413,113,0,0,0,0,0,0,0,0,0,-1,811,911,0,0
-406,113,0,0,0,0,0,0,0,0,0,-1,818,911,0,0
-399,113,0,0,0,0,0,0,0,0,0,-1,825,911,0,0
-392,113,0,0,0,0,0,0,0,0,0,-1,832,911,0,0
-385,113,0,0,0,0,0,0,0,0,0,-1,839,911,0,0
-378,113,0,0,0,0,0,0,0,0,0,-1,846,911,0,0
-371,113,0,0,0,0,0,0,0,0,0,-1,853,911,0,0
-364,113,0,0,0,0,0,0,0,0,0,-1,860,911,0,0
-357,113,0,0,0,0,0,0,0,0,0,-1,867,911,0,0
-350,113,0,0,0,0,0,0,0,0,0,-1,874,911,0,0
-343,113,0,0,0,0,0,0,0,0,0,-1,881,911,0,0
-336,113,0,0,0,0,0,0,0,0,0,-1,888,911,0,0
-329,113,0,0,0,0,0,0,0,0,0,-1,895,911,0,0
-322,113,0,0,0,0,0,0,0,0,0,-1,902,911,0,0
-315,113,0,0,0,0,0,0,0,0,0,-1,909,911,0,0
-308,113,0,0,0,0,0,0,0,0,0,-1,916,911,0,0
-301,113,0,0,0,0,0,0,0,0,0,-1,923,911,0,0
-294,113,0,0,0,0,0,0,0,0,0,-1,930,911,0,0
-287,113,0,0,0,0,0,0,0,0,0,-1,937,911,0,0
-280,113,0,0,0,0,0,0,0,0,0,-1,944,911,0,0
-273,113,0,0,0,0,0,0,0,0,0,-1,951,911,0,0
-266,113,0,0,0,0,0,0,0,0,0,-1,958,911,0,0
-259,113,0,0,0,0,0,0,0,0,0,-1,965,911,0,0
-252,113,0,0,0,0,0,0,0,0,0,-1,972,911,0,0
-245,113,0,0,0,0,0,0,0,0,0,-1,979,911,0,0
-238,113,0,0,0,0,0,0,0,0,0,-1,986,911,0,0
-231,113,0,0,0,0,0,0,0,0,0,-1,993,911,0,0
-224,113,0,0,0,0,0,0,0,0,0,-1,1000,911,0,0
-217,113,0,0,0,0,0,0,0,0,0,-1,1007,911,0,0
-210,113,0,0,0,0,0,0,0,0,0,-1,1014,911,0,0
-203,113,0,0,0,0,0,0,0,0,0,-1,1021,911,0,0
-196,113,0,0,0,0,0,0,0,0,0,-1,1028,911,0,0
-189,113,0,0,0,0,0,0,0,0,0,-1,1035,911,0,0
-182,113,0,0,0,0,0,0,0,0,0,-1,1042,911,0,0
-175,113,0,0,0,0,0,0,0,0,0,-1,1049,911,0,0
-168,113,0,0,0,0,0,0,0,0,0,-1,1056,911,0,0
-161,113,0,0,0,0,0,0,0,0,0,-1,1063,911,0,0
-154,113,0,0,0,0,0,0,0,0,0,-1,1070,911,0,0
-147,113,0,0,0,0,0,0,0,0,0,-1,1077,911,0,0
-140,113,0,0,0,0,0,0,0,0,0,-1,1084,911,0,0
-133,113,0,0,0,0,0,0,0,0,0,-1,1091,911,0,0
-126,113,0,0,0,0,0,0,0,0,0,-1,1098,911,0,0
-119,113,0,0,0,0,0,0,0,0,0,-1,1105,911,0,0
-112,113,0,0,0,0,0,0,0,0,0,-1,1112,911,0,0
-105,113,0,0,0,0,0,0,0,0,0,-1,1119,911,0,0
-98,113,0,0,0,0,0,0,0,0,0,-1,1126,911,0,0
-91,113,0,0,0,0,0,0,0,0,0,-1,1133,911,0,0
-84,113,0,0,0,0,0,0,0,0,0,-1,1140,911,0,0
-77,113,0,0,0,0,0,0,0,0,0,-1,1147,911,0,0
-70,113,0,0,0,0,0,0,0,0,0,-1,1154,911,0,0
-63,113,0,0,0,0,0,0,0,0,0,-1,1161,911,0,0
-56,113,0,0,0,0,0,0,0,0,0,-1,1168,911,0,0
-49,113,0,0,0,0,0,0,0,0,0,-1,1175,911,0,0
-42,113,0,0,0,0,0,0,0,0,0,-1,1182,911,0,0
-35,113,0,0,0,0,0,0,0,0,0,-1,1189,911,0,0
-28,113,0,0,0,0,0,0,0,0,0,-1,1196,911,0,0
-21,113,0,0,0,0,0,0,0,0,0,-1,1203,911,0,0
-14,113,0,0,0,0,0,0,0,0,0,-1,1210,911,0,0
-7,113,0,0,0,0,0,0,0,0,0,-1,1217,911,0,0
0,113,0,0,0,0,0,0,0,0,0,-1,1224,911,0,0
7,113,0,0,0,0,0,0,0,0,0,-1,1231,911,0,0
14,113,0,0,0,0,0,0,0,0,0,-1,1238,911,0,0
21,113,0,0,0,0,0,0,0,0,0,-1,1245,911,0,0
28,113,0,0,0,0,0,0,0,0,0,-1,1252,911,0,0
35,113,0,0,0,0,0,0,0,0,0,-1,1259,911,0,0
42,113,0,0,0,0,0,0,0,0,0,-1,1266,911,0,0
49,113,0,0,0,0,0,0,0,0,0,-1,1273,911,0,0
56,113,0,0,0,0,0,0,0,0,0,-1,1280,911,0,0
63,113,0,0,0,0,0,0,0,0,0,-1,1287,911,0,0
70,113,0,0,0,0,0,0,0,0,0,-1,1294,911,0,0
77,113,0,0,0,0,0,0,0,0,0,-1,1301,911,0,0
84,113,0,0,0,0,0,0,0,0,0,-1,1308,911,0,0
91,113,0,0,0,0,0,0,0,0,0,-1,1315,911,0,0
98,113,0,0,0,0,0,0,0,0,0,-1,1322,911,0,0
105,113,0,0,0,0,0,0,0,0,0,-1,1329,911,0,0
112,113,0,0,0,0,0,0,0,0,0,-1,1336,911,0,0
119,113,0,0,0,0,0,0,0,0,0,-1,1343,911,0,0
126,113,0,0,0,0,0,0,0,0,0,-1,1350,911,0,0
133,113,0,0,0,0,0,0,0,0,0,-1,1357,911,0,0
140,113,0,0,0,0,0,0,0,0,0,-1,1364,911,0,0
147,113,0,0,0,0,0,0,0,0,0,-1,1371,911,0,0
154,113,0,0,0,0,0,0,0,0,0,-1,1378,911,0,0
161,113,0,0,0,0,0,0,0,0,0,-1,1385,911,0,0
168,113,0,0,0,0,0,0,0,0,0,-1,1392,911,0,0
175,113,0,0,0,0,0,0,0,0,0,-1,1399,911,0,0
182,113,0,0,0,0,0,0,0,0,0,-1,1406,911,0,0
189,113,0,0,0,0,0,0,0,0,0,-1,1413,911,0,0
196,113,0,0,0,0,0,0,0,0,0,-1,1420,911,0,0
203,113,0,0,0,0,0,0,0,0,0,-1,1427,911,0,0
210,113,0,0,0,0,0,0,0,0,0,-1,1434,911,0,0
217,113,0,0,0,0,0,0,0,0,0,-1,1441,911,0,0
224,113,0,0,0,0,0,0,0,0,0,-1,1448,911,0,0
231,113,0,0,0,0,0,0,0,0,0,-1,1455,911,0,0
238,113,0,0,0,0,0,0,0,0,0,-1,1462,911,0,0
245,113,0,0,0,0,0,0,0,0,0,-1,1469,911,0,0
252,113,0,0,0,0,0,0,0,0,0,-1,1476,911,0,0
259,113,0,0,0,0,0,0,0,0,0,-1,1483,911,0,0
266,113,0,0,0,0,0,0,0,0,0,-1,1490,911,0,0
273,113,0,0,0,0,0,0,0,0,0,-1,1497,911,0,0
280,113,0,0,0,0,0,0,0,0,0,-1,1504,911,0,0
287,113,0,0,0,0,0,0,0,0,0,-1,1511,911,0,0
294,113,0,0,0,0,0,0,0,0,0,-1,1518,911,0,0
301,113,0,0,0,0,0,0,0,0,0,-1,1525,911,0,0
308,113,0,0,0,0,0,0,0,0,0,-1,1532,911,0,0
315,113,0,0,0,0,0,0,0,0,0,-1,1539,911,0,0
322,113,0,0,0,0,0,0,0,0,0,-1,1546,911,0,0
329,113,0,0,0,0,0,0,0,0,0,-1,1553,911,0,0
336,113,0,0,0,0,0,0,0,0,0,-1,1560,911,0,0
343,113,0,0,0,0,0,0,0,0,0,-1,1567,911,0,0
350,113,0,0,0,0,0,0,0,0,0,-1,1574,911,0,0
357,113,0,0,0,0,0,0,0,0,0,-1,1581,911,0,0
364,113,0,0,0,0,0,0,0,0,0,-1,1588,911,0,0
371,113,0,0,0,0,0,0,0,0,0,-1,1595,911,0,0
378,113,0,0,0,0,0,0,0,0,0,-1,1602,911,0,0
385,113,0,0,0,0,0,0,0,0,0,-1,1609,911,0,0
392,113,0,0,0,0,0,0,0,0,0,-1,1616,911,0,0
399,113,0,0,0,0,0,0,0,0,0,-1,1623,911,0,0
406,113,0,0,0,0,0,0,0,0,0,-1,1630,911,0,0
413,113,0,0,0,0,0,0,0,0,0,-1,1637,911,0,0
420,113,0,0,0,0,0,0,0,0,0,-1,1644,911,0,0
427,113,0,0,0,0,0,0,0,0,0,-1,1651,911,0,0
434,113,0,0,0,0,0,0,0,0,0,-1,1658,911,0,0
441,113,0,0,0,0,0,0,0,0,0,-1,1665,911,0,0
448,113,0,0,0,0,0,0,0,0,0,-1,1672,911,0,0
455,113,0,0,0,0,0,0,0,0,0,-1,1679,911,0,0
462,113,0,0,0,0,0,0,0,0,0,-1,1686,911,0,0
469,113,0,0,0,0,0,0,0,0,0,-1,1693,911,0,0
476,113,0,0,0,0,0,0,0,0,0,-1,1700,911,0,0
483,113,0,0,0,0,0,0,0,0,0,-1,1707,911,0,0
490,113,0,0,0,0,0,0,0,0,0,-1,1714,911,0,0
497,113,0,0,0,0,0,0,0,0,0,-1,1721,911,0,0
504,113,0,0,0,0,0,0,0,0,0,-1,1728,911,0,0
511,113,0,0,0,0,0,0,0,0,0,-1,1735,911,0,0
518,113,0,0,0,0,0,0,0,0,0,-1,1742,911,0,0
525,113,0,0,0,0,0,0,0,0,0,-1,1749,911,0,0
532,113,0,0,0,0,0,0,0,0,0,-1,1756,911,0,0
539,113,0,0,0,0,0,0,0,0,0,-1,1763,911,0,0
546,113,0,0,0,0,0,0,0,0,0,-1,1770,911,0,0
553,113,0,0,0,0,0,0,0,0,0,-1,1777,911,0,0
560,113,0,0,0,0,0,0,0,0,0,-1,1784,911,0,0
567,113,0,0,0,0,0,0,0,0,0,-1,1791,911,0,0
574,113,0,0,0,0,0,0,0,0,0,-1,1798,911,0,0
581,113,0,0,0,0,0,0,0,0,0,-1,1805,911,0,0
588,113,0,0,0,0,0,0,0,0,0,-1,1812,911,0,0
595,113,0,0,0,0,0,0,0,0,0,-1,1819,911,0,0
602,113,0,0,0,0,0,0,0,0,0,-1,1826,911,0,0
609,113,0,0,0,0,0,0,0,0,0,-1,1833,911,0,0
616,113,0,0,0,0,0,0,0,0,0,-1,1840,911,0,0
623,113,0,0,0,0,0,0,0,0,0,-1,1847,911,0,0
630,113,77.931,2.68365,-0.00753003,0.0034474,0.0013902,0.00362072,-0.00770335,1.44676,0.00667809,0.0409113,1854,911,77.931,-2.68365
637,113,77.8323,2.98309,-0.00610401,0.00274496,0.000633474,0.00279008,-0.00614913,1.49969,0.00528112,0.0395736,1861,911,77.8322,-2.98312
644,113,77.8303,2.79919,-0.00469482,0.00209547,9.88507e-05,0.0020969,-0.00469626,1.55624,0.0040166,0.0397999,1868,911,77.8304,-2.79918
651,113,77.8618,2.54877,-0.00326625,0.00141889,-0.00023658,0.00143081,-0.00327816,-1.52047,0.00278759,0.0438526,1875,911,77.8618,-2.54879
658,113,77.9885,2.30664,0,0,0,0,0,0,0,-1,1882,911,77.9885,-2.30661
665,113,77.9865,2.45831,-0.000876884,0.000628212,-0.000558093,0.000812572,-0.00106124,-1.25174,0.00108502,0.0364025,1889,911,77.9865,-2.45834
672,113,77.8373,2.65204,-0.000768718,0.000245422,-0.000689094,0.000593905,-0.0011172,-1.10259,0.00100319,0.0364796,1896,911,77.8373,-2.65205
679,113,77.8403,2.5257,-0.00093505,-0.000104725,-0.000780017,0.000363733,-0.00140351,-1.02995,0.00107758,0.032424,1903,911,77.8403,-2.5257
686,113,77.9027,2.5022,-0.00114156,-0.000213705,-0.00109306,0.000509809,-0.00186507,-0.986091,0.00144364,0.0269972,1910,911,77.9027,-2.50221
693,113,77.8835,2.58313,0,0,0,0,0,0,0,-1,1917,911,77.8835,-2.58314
700,113,43.897,2.79669,0,0,0,0,0,0,0,-1,1924,911,43.897,-2.79671
707,113,69.3839,3.14288,0,0,0,0,0,0,0,-1,1931,911,69.3839,-3.14286
714,113,69.9979,3.82825,0,0,0,0,0,0,0,-1,1938,911,69.998,-3.82826
721,113,70.6794,5.17108,0,0,0,0,0,0,0,-1,1945,911,70.6795,-5.17105
728,113,70.7557,5.8866,-0.00364816,0.00209349,-0.00285886,0.00327417,-0.00482884,-1.17914,0.00470689,0.0280438,1952,911,70.7557,-5.88658
735,113,70.6381,6.62115,-0.00404951,0.00342736,-0.00304779,0.0045123,-0.00513445,-1.22881,0.00557341,0.0242432,1959,911,70.6381,-6.62114
742,113,70.5206,7.34387,-0.0038053,0.00597102,-0.00318633,0.00691783,-0.0047521,-1.28196,0.0067762,0.0148869,1966,911,70.5206,-7.34385
749,113,70.5121,8.10187,-0.00246577,0.00985264,-0.00287165,0.0104892,-0.00310231,-1.35266,0.0082243,0.0114054,1973,911,70.512,-8.10187
756,113,70.4133,8.8736,2.73665e-05,0.0147132,-0.00191385,0.0149585,-0.000217949,-1.44331,0.0100458,0.0160056,1980,911,70.4134,-8.87362
763,113,70.1794,9.82208,0.0033182,0.0200877,-0.000447655,0.0200997,0.00330626,-1.54413,0.012445,0.0387392,1987,911,70.1794,-9.82211
770,113,70.0193,10.7897,0,0,0,0,0,0,0,-1,1994,911,70.0192,-10.7897
777,113,58.1719,9.65338,0,0,0,0,0,0,0,-1,2001,911,58.172,-9.6534
784,113,59.4839,11.6239,0,0,0,0,0,0,0,-1,2008,911,59.4839,-11.6239
791,113,80.9307,15.6504,0,0,0,0,0,0,0,-1,2015,911,80.9307,-15.6504
798,113,82.4463,16.4567,0,0,0,0,0,0,0,-1,2022,911,82.4462,-16.4566
805,113,0,0,0,0,0,0,0,0,0,-1,2029,911,0,0
812,113,0,0,0,0,0,0,0,0,0,-1,2036,911,0,0
-700,106,0,0,0,0,0,0,0,0,0,-1,524,918,0,0
-693,106,0,0,0,0,0,0,0,0,0,-1,531,918,0,0
-686,106,0,0,0,0,0,0,0,0,0,-1,538,918,0,0
-679,106,-52.7545,10.0162,0,0,0,0,0,0,0,-1,545,918,-52.7546,-10.0161
-672,106,-55.9772,5.9516,0,0,0,0,0,0,0,-1,552,918,-55.9772,-5.95162
-665,106,-53.5263,9.70886,0,0,0,0,0,0,0,-1,559,918,-53.5263,-9.70888
-658,106,-53.7712,10.2163,0,0,0,0,0,0,0,-1,566,918,-53.7712,-10.2163
-651,106,-52.8008,8.01733,0,0,0,0,0,0,0,-1,573,918,-52.8008,-8.01734
-644,106,-54.6162,9.83551,0,0,0,0,0,0,0,-1,580,918,-54.6162,-9.83552
-637,106,-55.1365,9.16174,-0.0123986,0.0236065,0.0110374,0.0267207,-0.0155128,1.2958,0.024668,0.0440324,587,918,-55.1365,-9.16173
-630,106,-55.6938,8.59851,-0.00983699,0.018377,0.00920377,0.0211139,-0.0125739,1.28176,0.0196569,0.0200659,594,918,-55.6939,-8.59853
-623,106,-55.9402,7.73981,-0.00746114,0.0134044,0.00767515,0.0159235,-0.00998023,1.25366,0.0150861,0.0202723,601,918,-55.9403,-7.73983
-616,106,-56.0136,6.99719,-0.00530611,0.00873438,0.00640344,0.0112161,-0.00778786,1.20106,0.0110313,0.0199682,608,918,-56.0136,-6.99716
-609,106,-55.9771,6.33582,-0.00401807,0.00497917,0.00566458,0.00771416,-0.00675305,1.12099,0.00835879,0.0135693,615,918,-55.9771,-6.33584
-602,106,-56.0048,5.55603,-0.00375366,0.0023282,0.00525785,0.00536117,-0.00678662,1.04758,0.00702961,0.0230337,622,918,-56.0047,-5.55602
-595,106,-56.1909,4.84204,-0.00324701,0.00105902,0.00471989,0.00409377,-0.00628176,0.99938,0.00603455,0.0281075,629,918,-56.1909,-4.84202
-588,106,-56.235,4.0675,-0.00281619,0.000229297,0.00411275,0.00309215,-0.00567905,0.962698,0.00513695,0.0356019,636,918,-56.2351,-4.06751
-581,106,-55.7901,3.39954,0,0,0,0,0,0,0,-1,643,918,-55.7901,-3.39955
-574,106,-55.9512,1.99286,0,0,0,0,0,0,0,-1,650,918,-55.9512,-1.99285
-567,106,-41.3706,0.420776,0,0,0,0,0,0,0,-1,657,918,-41.3706,-0.420794
-560,106,-61.752,0.632629,0,0,0,0,0,0,0,-1,664,918,-61.7519,-0.632604
-553,106,-61.7731,0.673584,-0.0017697,-0.00285334,0.00155624,-0.000663656,-0.00395939,0.617882,0.00244854,0.0365202,671,918,-61.7732,-0.67358
-546,106,-61.7745,0.669983,-0.00197779,-0.00286661,0.00101571,-0.00131352,-0.00353088,0.579179,0.0020607,0.0394688,678,918,-61.7745,-0.669992
-539,106,-61.6262,0.636902,-0.00184558,-0.00245099,0.000107317,-0.00182712,-0.00246945,0.170352,0.00147942,0.041378,685,918,-61.6262,-0.636921
-532,106,-61.6271,0.542114,-0.00110992,-0.00139933,-0.00118349,-6.23246e-05,-0.00244693,-0.724566,0.00161091,0.0399413,692,918,-61.6271,-0.54214
-525,106,-61.7657,0.445557,-0.000349855,1.48567e-05,-0.00263565,0.00247446,-0.00280945,-0.819937,0.00305271,0.0383327,699,918,-61.7657,-0.445553
-518,106,-61.8592,0.393738,0.000373871,0.00165269,-0.0040698,0.005133,-0.00310644,-0.863317,0.00480477,0.0398555,706,918,-61.8592,-0.393715
-511,106,0,0,0,0,0,0,0,0,0,-1,713,918,0,0
-504,106,0,0,0,0,0,0,0,0,0,-1,720,918,0,0
-497,106,0,0,0,0,0,0,0,0,0,-1,727,918,0,0
-490,106,0,0,0,0,0,0,0,0,0,-1,734,918,0,0
-483,106,0,0,0,0,0,0,0,0,0,-1,741,918,0,0
-476,106,0,0,0,0,0,0,0,0,0,-1,748,918,0,0
-469,106,0,0,0,0,0,0,0,0,0,-1,755,918,0,0
-462,106,0,0,0,0,0,0,0,0,0,-1,762,918,0,0
-455,106,0,0,0,0,0,0,0,0,0,-1,769,918,0,0
-448,106,0,0,0,0,0,0,0,0,0,-1,776,918,0,0
-441,106,0,0,0,0,0,0,0,0,0,-1,783,918,0,0
-434,106,0,0,0,0,0,0,0,0,0,-1,790,918,0,0
-427,106,0,0,0,0,0,0,0,0,0,-1,797,918,0,0
-420,106,0,0,0,0,0,0,0,0,0,-1,804,918,0,0
-413,106,0,0,0,0,0,0,0,0,0,-1,811,918,0,0
-406,106,0,0,0,0,0,0,0,0,0,-1,818,918,0,0
-399,106,0,0,0,0,0,0,0,0,0,-1,825,918,0,0
-392,106,0,0,0,0,0,0,0,0,0,-1,832,918,0,0
-385,106,0,0,0,0,0,0,0,0,0,-1,839,918,0,0
-378,106,0,0,0,0,0,0,0,0,0,-1,846,918,0,0
-371,106,0,0,0,0,0,0,0,0,0,-1,853,918,0,0
-364,106,0,0,0,0,0,0,0,0,0,-1,860,918,0,0
-357,106,0,0,0,0,0,0,0,0,0,-1,867,918,0,0
-350,106,0,0,0,0,0,0,0,0,0,-1,874,918,0,0
-343,106,0,0,0,0,0,0,0,0,0,-1,881,918,0,0
-336,106,0,0,0,0,0,0,0,0,0,-1,888,918,0,0
-329,106,0,0,0,0,0,0,0,0,0,-1,895,918,0,0
-322,106,0,0,0,0,0,0,0,0,0,-1,902,918,0,0
-315,106,0,0,0,0,0,0,0,0,0,-1,909,918,0,0
-308,106,0,0,0,0,0,0,0,0,0,-1,916,918,0,0
-301,106,0,0,0,0,0,0,0,0,0,-1,923,918,0,0
-294,106,0,0,0,0,0,0,0,0,0,-1,930,918,0,0
-287,106,0,0,0,0,0,0,0,0,0,-1,937,918,0,0
-280,106,0,0,0,0,0,0,0,0,0,-1,944,918,0,0
-273,106,0,0,0,0,0,0,0,0,0,-1,951,918,0,0
-266,106,0,0,0,0,0,0,0,0,0,-1,958,918,0,0
-259,106,0,0,0,0,0,0,0,0,0,-1,965,918,0,0
-252,106,0,0,0,0,0,0,0,0,0,-1,972,918,0,0
-245,106,0,0,0,0,0,0,0,0,0,-1,979,918,0,0
-238,106,0,0,0,0,0,0,0,0,0,-1,986,918,0,0
-231,106,0,0,0,0,0,0,0,0,0,-1,993,918,0,0
-224,106,0,0,0,0,0,0,0,0,0,-1,1000,918,0,0
-217,106,0,0,0,0,0,0,0,0,0,-1,1007,918,0,0
-210,106,0,0,0,0,0,0,0,0,0,-1,1014,918,0,0
-203,106,0,0,0,0,0,0,0,0,0,-1,1021,918,0,0
-196,106,0,0,0,0,0,0,0,0,0,-1,1028,918,0,0
-189,106,0,0,0,0,0,0,0,0,0,-1,1035,918,0,0
-182,106,0,0,0,0,0,0,0,0,0,-1,1042,918,0,0
-175,106,0,0,0,0,0,0,0,0,0,-1,1049,918,0,0
-168,106,0,0,0,0,0,0,0,0,0,-1,1056,918,0,0
-161,106,0,0,0,0,0,0,0,0,0,-1,1063,918,0,0
-154,106,0,0,0,0,0,0,0,0,0,-1,1070,918,0,0
-147,106,0,0,0,0,0,0,0,0,0,-1,1077,918,0,0
-140,106,0,0,0,0,0,0,0,0,0,-1,1084,918,0,0
-133,106,0,0,0,0,0,0,0,0,0,-1,1091,918,0,0
-126,106,0,0,0,0,0,0,0,0,0,-1,1098,918,0,0
-119,106,0,0,0,0,0,0,0,0,0,-1,1105,918,0,0
-112,106,0,0,0,0,0,0,0,0,0,-1,1112,918,0,0
-105,106,0,0,0,0,0,0,0,0,0,-1,1119,918,0,0
-98,106,0,0,0,0,0,0,0,0,0,-1,1126,918,0,0
-91,106,0,0,0,0,0,0,0,0,0,-1,1133,918,0,0
-84,106,0,0,0,0,0,0,0,0,0,-1,1140,918,0,0
-77,106,0,0,0,0,0,0,0,0,0,-1,1147,918,0,0
-70,106,0,0,0,0,0,0,0,0,0,-1,1154,918,0,0
-63,106,0,0,0,0,0,0,0,0,0,-1,1161,918,0,0
-56,106,0,0,0,0,0,0,0,0,0,-1,1168,918,0,0
-49,106,0,0,0,0,0,0,0,0,0,-1,1175,918,0,0
-42,106,0,0,0,0,0,0,0,0,0,-1,1182,918,0,0
-35,106,0,0,0,0,0,0,0,0,0,-1,1189,918,0,0
-28,106,0,0,0,0,0,0,0,0,0,-1,1196,918,0,0
-21,106,0,0,0,0,0,0,0,0,0,-1,1203,918,0,0
-14,106,0,0,0,0,0,0,0,0,0,-1,1210,918,0,0
-7,106,0,0,0,0,0,0,0,0,0,-1,1217,918,0,0
0,106,0,0,0,0,0,0,0,0,0,-1,1224,918,0,0
7,106,0,0,0,0,0,0,0,0,0,-1,1231,918,0,0
14,106,0,0,0,0,0,0,0,0,0,-1,1238,918,0,0
21,106,0,0,0,0,0,0,0,0,0,-1,1245,918,0,0
28,106,0,0,0,0,0,0,0,0,0,-1,1252,918,0,0
35,106,0,0,0,0,0,0,0,0,0,-1,1259,918,0,0
42,106,0,0,0,0,0,0,0,0,0,-1,1266,918,0,0
49,106,0,0,0,0,0,0,0,0,0,-1,1273,918,0,0
56,106,0,0,0,0,0,0,0,0,0,-1,1280,918,0,0
63,106,0,0,0,0,0,0,0,0,0,-1,1287,918,0,0
70,106,0,0,0,0,0,0,0,0,0,-1,1294,918,0,0
77,106,0,0,0,0,0,0,0,0,0,-1,1301,918,0,0
84,106,0,0,0,0,0,0,0,0,0,-1,1308,918,0,0
91,106,0,0,0,0,0,0,0,0,0,-1,1315,918,0,0
98,106,0,0,0,0,0,0,0,0,0,-1,1322,918,0,0
105,106,0,0,0,0,0,0,0,0,0,-1,1329,918,0,0
112,106,0,0,0,0,0,0,0,0,0,-1,1336,918,0,0
119,106,0,0,0,0,0,0,0,0,0,-1,1343,918,0,0
126,106,0,0,0,0,0,0,0,0,0,-1,1350,918,0,0
133,106,0,0,0,0,0,0,0,0,0,-1,1357,918,0,0
140,106,0,0,0,0,0,0,0,0,0,-1,1364,918,0,0
147,106,0,0,0,0,0,0,0,0,0,-1,1371,918,0,0
154,106,0,0,0,0,0,0,0,0,0,-1,1378,918,0,0
161,106,0,0,0,0,0,0,0,0,0,-1,1385,918,0,0
168,106,0,0,0,0,0,0,0,0,0,-1,1392,918,0,0
175,106,0,0,0,0,0,0,0,0,0,-1,1399,918,0,0
182,106,0,0,0,0,0,0,0,0,0,-1,1406,918,0,0
189,106,0,0,0,0,0,0,0,0,0,-1,1413,918,0,0
196,106,0,0,0,0,0,0,0,0,0,-1,1420,918,0,0
203,106,0,0,0,0,0,0,0,0,0,-1,1427,918,0,0
210,106,0,0,0,0,0,0,0,0,0,-1,1434,918,0,0
217,106,0,0,0,0,0,0,0,0,0,-1,1441,918,0,0
224,106,0,0,0,0,0,0,0,0,0,-1,1448,918,0,0
231,106,0,0,0,0,0,0,0,0,0,-1,1455,918,0,0
238,106,0,0,0,0,0,0,0,0,0,-1,1462,918,0,0
245,106,0,0,0,0,0,0,0,0,0,-1,1469,918,0,0
252,106,0,0,0,0,0,0,0,0,0,-1,1476,918,0,0
259,106,0,0,0,0,0,0,0,0,0,-1,1483,918,0,0
266,106,0,0,0,0,0,0,0,0,0,-1,1490,918,0,0
273,106,0,0,0,0,0,0,0,0,0,-1,1497,918,0,0
280,106,0,0,0,0,0,0,0,0,0,-1,1504,918,0,0
287,106,0,0,0,0,0,0,0,0,0,-1,1511,918,0,0
294,106,0,0,0,0,0,0,0,0,0,-1,1518,918,0,0
301,106,0,0,0,0,0,0,0,0,0,-1,1525,918,0,0
308,106,0,0,0,0,0,0,0,0,0,-1,1532,918,0,0
315,106,0,0,0,0,0,0,0,0,0,-1,1539,918,0,0
322,106,0,0,0,0,0,0,0,0,0,-1,1546,918,0,0
329,106,0,0,0,0,0,0,0,0,0,-1,1553,918,0,0
336,106,0,0,0,0,0,0,0,0,0,-1,1560,918,0,0
343,106,0,0,0,0,0,0,0,0,0,-1,1567,918,0,0
350,106,0,0,0,0,0,0,0,0,0,-1,1574,918,0,0
357,106,0,0,0,0,0,0,0,0,0,-1,1581,918,0,0
364,106,0,0,0,0,0,0,0,0,0,-1,1588,918,0,0
371,106,0,0,0,0,0,0,0,0,0,-1,1595,918,0,0
378,106,0,0,0,0,0,0,0,0,0,-1,1602,918,0,0
385,106,0,0,0,0,0,0,0,0,0,-1,1609,918,0,0
392,106,0,0,0,0,0,0,0,0,0,-1,1616,918,0,0
399,106,0,0,0,0,0,0,0,0,0,-1,1623,918,0,0
406,106,0,0,0,0,0,0,0,0,0,-1,1630,918,0,0
413,106,0,0,0,0,0,0,0,0,0,-1,1637,918,0,0
420,106,0,0,0,0,0,0,0,0,0,-1,1644,918,0,0
427,106,0,0,0,0,0,0,0,0,0,-1,1651,918,0,0
434,106,0,0,0,0,0,0,0,0,0,-1,1658,918,0,0
441,106,0,0,0,0,0,0,0,0,0,-1,1665,918,0,0
448,106,0,0,0,0,0,0,0,0,0,-1,1672,918,0,0
455,106,0,0,0,0,0,0,0,0,0,-1,1679,918,0,0
462,106,0,0,0,0,0,0,0,0,0,-1,1686,918,0,0
469,106,0,0,0,0,0,0,0,0,0,-1,1693,918,0,0
476,106,0,0,0,0,0,0,0,0,0,-1,1700,918,0,0
483,106,0,0,0,0,0,0,0,0,0,-1,1707,918,0,0
490,106,0,0,0,0,0,0,0,0,0,-1,1714,918,0,0
497,106,0,0,0,0,0,0,0,0,0,-1,1721,918,0,0
504,106,0,0,0,0,0,0,0,0,0,-1,1728,918,0,0
511,106,0,0,0,0,0,0,0,0,0,-1,1735,918,0,0
518,106,0,0,0,0,0,0,0,0,0,-1,1742,918,0,0
525,106,0,0,0,0,0,0,0,0,0,-1,1749,918,0,0
532,106,0,0,0,0,0,0,0,0,0,-1,1756,918,0,0
539,106,0,0,0,0,0,0,0,0,0,-1,1763,918,0,0
546,106,0,0,0,0,0,0,0,0,0,-1,1770,918,0,0
553,106,0,0,0,0,0,0,0,0,0,-1,1777,918,0,0
560,106,0,0,0,0,0,0,0,0,0,-1,1784,918,0,0
567,106,0,0,0,0,0,0,0,0,0,-1,1791,918,0,0
574,106,0,0,0,0,0,0,0,0,0,-1,1798,918,0,0
581,106,0,0,0,0,0,0,0,0,0,-1,1805,918,0,0
588,106,0,0,0,0,0,0,0,0,0,-1,1812,918,0,0
595,106,0,0,0,0,0,0,0,0,0,-1,1819,918,0,0
602,106,0,0,0,0,0,0,0,0,0,-1,1826,918,0,0
609,106,0,0,0,0,0,0,0,0,0,-1,1833,918,0,0
616,106,0,0,0,0,0,0,0,0,0,-1,1840,918,0,0
623,106,0,0,0,0,0,0,0,0,0,-1,1847,918,0,0
630,106,77.9292,2.64813,-0.00983939,0.005033,0.00154892,0.0051926,-0.00999899,1.46812,0.00891599,0.0421167,1854,918,77.9292,-2.64811
637,106,77.8196,2.94366,-0.00789336,0.00395911,0.000855491,0.00402054,-0.00795479,1.49911,0.00703723,0.040309,1861,918,77.8195,-2.94366
644,106,77.8081,2.8551,-0.00612193,0.00307186,0.000350442,0.0030852,-0.00613527,1.53275,0.00541966,0.0386802,1868,918,77.8081,-2.85511
651,106,77.8088,2.57227,-0.00440639,0.00220512,4.71671e-05,0.00220545,-0.00440673,1.56366,0.00388742,0.0416494,1875,918,77.8088,-2.57227
658,106,77.8987,2.35284,-0.00276084,0.00145851,-0.000130435,0.00146254,-0.00276486,-1.53992,0.002479,0.0408419,1882,918,77.8987,-2.35284
665,106,77.9607,2.349,-0.00132811,0.00102482,-0.000195482,0.00104095,-0.00134424,-1.48847,0.0013808,0.0395924,1889,918,77.9607,-2.34902
672,106,77.8389,2.74817,-0.000972334,0.00049046,-0.000252943,0.000532963,-0.00101484,-1.40432,0.000907944,0.039452,1896,918,77.8389,-2.74818
679,106,77.8617,2.61597,-0.00104924,-3.07289e-05,-0.000311889,5.71889e-05,-0.00113716,-1.29604,0.000777868,0.0348476,1903,918,77.8617,-2.61597
686,106,77.9158,2.53729,-0.00119901,-0.000279861,-0.000658434,6.35248e-05,-0.00154239,-1.09008,0.00105008,0.0317876,1910,918,77.9158,-2.53729
693,106,77.9436,2.41101,-0.00146562,-0.00033708,-0.0010438,0.000285209,-0.00208791,-1.03319,0.0014961,0.0395534,1917,918,77.9436,-2.41099
700,106,78.0774,2.18274,0,0,0,0,0,0,0,-1,1924,918,78.0774,-2.18273
707,106,59.4137,3.22595,0,0,0,0,0,0,0,-1,1931,918,59.4136,-3.22598
714,106,71.2251,4.30707,0,0,0,0,0,0,0,-1,1938,918,71.2251,-4.30705
721,106,71.5579,5.22137,-0.00342675,0.00141268,-0.0024411,0.00243012,-0.00444419,-1.1759,0.00402526,0.0359352,1945,918,71.5578,-5.22139
728,106,71.6069,5.99487,-0.00376727,0.00212208,-0.00270858,0.00317834,-0.00482353,-1.19897,0.00465232,0.0337101,1952,918,71.6069,-5.99486
735,106,71.5055,6.68738,-0.00412473,0.00355392,-0.00295822,0.0045614,-0.00513221,-1.24255,0.00559984,0.0290676,1959,918,71.5055,-6.68738
742,106,71.3774,7.35156,-0.00392506,0.00613684,-0.00319465,0.00706543,-0.00485366,-1.28792,0.00692088,0.0148334,1966,918,71.3775,-7.35155
749,106,71.3204,8.08478,-0.00259673,0.0102079,-0.00297467,0.0108652,-0.00325404,-1.35332,0.00853741,0.0119854,1973,918,71.3204,-8.08475
756,106,71.219,8.80841,8.14053e-05,0.0154611,-0.00200554,0.0157183,-0.00017582,-1.44324,0.0105379,0.014892,1980,918,71.219,-8.80839
763,106,71.0671,9.72778,0.00365164,0.0212679,-0.000452492,0.0212795,0.00364003,-1.54513,0.0131421,0.032563,1987,918,71.0671,-9.7278
770,106,70.9629,10.7009,0,0,0,0,0,0,0,-1,1994,918,70.963,-10.7009
777,106,72.5017,10.8513,0,0,0,0,0,0,0,-1,2001,918,72.5017,-10.8513
784,106,72.95,11.4597,0,0,0,0,0,0,0,-1,2008,918,72.9499,-11.4597
791,106,70.8381,11.1007,0,0,0,0,0,0,0,-1,2015,918,70.8382,-11.1007
798,106,71.9023,11.7274,0,0,0,0,0,0,0,-1,2022,918,71.9024,-11.7274
805,106,0,0,0,0,0,0,0,0,0,-1,2029,918,0,0
812,106,0,0,0,0,0,0,0,0,0,-1,2036,918,0,0
-700,99,0,0,0,0,0,0,0,0,0,-1,524,925,0,0
-693,99,0,0,0,0,0,0,0,0,0,-1,531,925,0,0
-686,99,0,0,0,0,0,0,0,0,0,-1,538,925,0,0
-679,99,-53.1852,10.2767,0,0,0,0,0,0,0,-1,545,925,-53.1852,-10.2767
-672,99,-53.4276,9.64172,0,0,0,0,0,0,0,-1,552,925,-53.4276,-9.64175
-665,99,-53.4944,9.35168,0,0,0,0,0,0,0,-1,559,925,-53.4944,-9.35171
-658,99,-54.2926,7.97803,0,0,0,0,0,0,0,-1,566,925,-54.2926,-7.97804
-651,99,-55.3055,8.14996,0,0,0,0,0,0,0,-1,573,925,-55.3055,-8.14996
-644,99,-55.8247,9.57654,0,0,0,0,0,0,0,-1,580,925,-55.8247,-9.57656
-637,99,-56.1234,9.08832,-0.0086492,0.0238625,0.0116067,0.0275808,-0.0123675,1.26077,0.0236151,0.0398301,587,925,-56.1234,-9.08834
-630,99,-56.4832,8.55591,-0.00697124,0.0187218,0.00964885,0.0219419,-0.0101912,1.2487,0.018961,0.0212708,594,925,-56.4832,-8.55594
-623,99,-56.7797,7.76563,-0.00522196,0.0135674,0.00797678,0.016497,-0.00815161,1.21882,0.0145002,0.0143406,601,925,-56.7797,-7.76565
-616,99,-56.8044,7.02893,-0.00362778,0.00871943,0.00658622,0.0115731,-0.00648145,1.16193,0.0105611,0.0164047,608,925,-56.8044,-7.02893
-609,99,-56.7784,6.3866,-0.00276649,0.00496978,0.00579291,0.0080673,-0.00586401,1.07977,0.00807671,0.0128619,615,925,-56.7785,-6.38657
-602,99,-56.7789,5.68152,-0.00266767,0.00244678,0.00533305,0.00580402,-0.00602491,1.00896,0.00682983,0.0188708,622,925,-56.7789,-5.68154
-595,99,-56.9367,4.9729,-0.00220681,0.00116357,0.00477564,0.00454262,-0.00558587,0.955014,0.00585802,0.025664,629,925,-56.9367,-4.97289
-588,99,-56.9658,4.23279,-0.0018188,0.000270817,0.00417536,0.00353011,-0.0050781,0.907997,0.00499666,0.0299843,636,925,-56.9658,-4.23279
-581,99,-56.6865,3.55194,0,0,0,0,0,0,0,-1,643,925,-56.6864,-3.55196
-574,99,-56.6923,1.92102,0,0,0,0,0,0,0,-1,650,925,-56.6923,-1.92105
-567,99,-50.5977,0.659485,0,0,0,0,0,0,0,-1,657,925,-50.5977,-0.659461
-560,99,-61.707,0.660522,0,0,0,0,0,0,0,-1,664,925,-61.707,-0.66054
-553,99,-61.765,0.725708,-0.00106697,-0.00290633,0.00141023,-0.000303035,-0.00367026,0.496457,0.00235235,0.0392628,671,925,-61.765,-0.725703
-546,99,-61.7787,0.472168,-0.00125997,-0.00270976,0.000791438,-0.000911624,-0.00305811,0.414626,0.00181295,0.0418337,678,925,-61.7787,-0.472166
-539,99,-61.6627,0.571594,-0.00113619,-0.00204999,-0.000221911,-0.00108515,-0.00210103,-0.226065,0.00121325,0.0411361,685,925,-61.6627,-0.571599
-532,99,-61.7185,0.528015,-0.000388195,-0.000975787,-0.00169026,0.00103361,-0.00239759,-0.699349,0.00203251,0.042122,692,925,-61.7185,-0.527998
-525,99,-61.8431,0.585938,0.000516922,0.000315497,-0.00333067,0.0037484,-0.00291598,-0.770284,0.00385767,0.0416877,699,925,-61.8431,-0.585947
-518,99,-61.8627,0.561768,0.00146498,0.00189381,-0.0049616,0.00664562,-0.00328683,-0.806992,0.00584278,0.0407159,706,925,-61.8627,-0.561747
-511,99,0,0,0,0,0,0,0,0,0,-1,713,925,0,0
-504,99,0,0,0,0,0,0,0,0,0,-1,720,925,0,0
-497,99,0,0,0,0,0,0,0,0,0,-1,727,925,0,0
-490,99,0,0,0,0,0,0,0,0,0,-1,734,925,0,0
-483,99,0,0,0,0,0,0,0,0,0,-1,741,925,0,0
-476,99,0,0,0,0,0,0,0,0,0,-1,748,925,0,0
-469,99,0,0,0,0,0,0,0,0,0,-1,755,925,0,0
-462,99,0,0,0,0,0,0,0,0,0,-1,762,925,0,0
-455,99,0,0,0,0,0,0,0,0,0,-1,769,925,0,0
-448,99,0,0,0,0,0,0,0,0,0,-1,776,925,0,0
-441,99,0,0,0,0,0,0,0,0,0,-1,783,925,0,0
-434,99,0,0,0,0,0,0,0,0,0,-1,790,925,0,0
-427,99,0,0,0,0,0,0,0,0,0,-1,797,925,0,0
-420,99,0,0,0,0,0,0,0,0,0,-1,804,925,0,0
-413,99,0,0,0,0,0,0,0,0,0,-1,811,925,0,0
-406,99,0,0,0,0,0,0,0,0,0,-1,818,925,0,0
-399,99,0,0,0,0,0,0,0,0,0,-1,825,925,0,0
-392,99,0,0,0,0,0,0,0,0,0,-1,832,925,0,0
-385,99,0,0,0,0,0,0,0,0,0,-1,839,925,0,0
-378,99,0,0,0,0,0,0,0,0,0,-1,846,925,0,0
-371,99,0,0,0,0,0,0,0,0,0,-1,853,925,0,0
-364,99,0,0,0,0,0,0,0,0,0,-1,860,925,0,0
-357,99,0,0,0,0,0,0,0,0,0,-1,867,925,0,0
-350,99,0,0,0,0,0,0,0,0,0,-1,874,925,0,0
-343,99,0,0,0,0,0,0,0,0,0,-1,881,925,0,0
-336,99,0,0,0,0,0,0,0,0,0,-1,888,925,0,0
-329,99,0,0,0,0,0,0,0,0,0,-1,895,925,0,0
-322,99,0,0,0,0,0,0,0,0,0,-1,902,925,0,0
-315,99,0,0,0,0,0,0,0,0,0,-1,909,925,0,0
-308,99,0,0,0,0,0,0,0,0,0,-1,916,925,0,0
-301,99,0,0,0,0,0,0,0,0,0,-1,923,925,0,0
-294,99,0,0,0,0,0,0,0,0,0,-1,930,925,0,0
-287,99,0,0,0,0,0,0,0,0,0,-1,937,925,0,0
-280,99,0,0,0,0,0,0,0,0,0,-1,944,925,0,0
-273,99,0,0,0,0,0,0,0,0,0,-1,951,925,0,0
-266,99,0,0,0,0,0,0,0,0,0,-1,958,925,0,0
-259,99,0,0,0,0,0,0,0,0,0,-1,965,925,0,0
-252,99,0,0,0,0,0,0,0,0,0,-1,972,925,0,0
-245,99,0,0,0,0,0,0,0,0,0,-1,979,925,0,0
-238,99,0,0,0,0,0,0,0,0,0,-1,986,925,0,0
-231,99,0,0,0,0,0,0,0,0,0,-1,993,925,0,0
-224,99,0,0,0,0,0,0,0,0,0,-1,1000,925,0,0
-217,99,0,0,0,0,0,0,0,0,0,-1,1007,925,0,0
-210,99,0,0,0,0,0,0,0,0,0,-1,1014,925,0,0
-203,99,0,0,0,0,0,0,0,0,0,-1,1021,925,0,0
-196,99,0,0,0,0,0,0,0,0,0,-1,1028,925,0,0
-189,99,0,0,0,0,0,0,0,0,0,-1,1035,925,0,0
-182,99,0,0,0,0,0,0,0,0,0,-1,1042,925,0,0
-175,99,0,0,0,0,0,0,0,0,0,-1,1049,925,0,0
-168,99,0,0,0,0,0,0,0,0,0,-1,1056,925,0,0
-161,99,0,0,0,0,0,0,0,0,0,-1,1063,925,0,0
-154,99,0,0,0,0,0,0,0,0,0,-1,1070,925,0,0
-147,99,0,0,0,0,0,0,0,0,0,-1,1077,925,0,0
-140,99,0,0,0,0,0,0,0,0,0,-1,1084,925,0,0
-133,99,0,0,0,0,0,0,0,0,0,-1,1091,925,0,0
-126,99,0,0,0,0,0,0,0,0,0,-1,1098,925,0,0
-119,99,0,0,0,0,0,0,0,0,0,-1,1105,925,0,0
-112,99,0,0,0,0,0,0,0,0,0,-1,1112,925,0,0
-105,99,0,0,0,0,0,0,0,0,0,-1,1119,925,0,0
-98,99,0,0,0,0,0,0,0,0,0,-1,1126,925,0,0
-91,99,0,0,0,0,0,0,0,0,0,-1,1133,925,0,0
-84,99,0,0,0,0,0,0,0,0,0,-1,1140,925,0,0
-77,99,0,0,0,0,0,0,0,0,0,-1,1147,925,0,0
-70,99,0,0,0,0,0,0,0,0,0,-1,1154,925,0,0
-63,99,0,0,0,0,0,0,0,0,0,-1,1161,925,0,0
-56,99,0,0,0,0,0,0,0,0,0,-1,1168,925,0,0
-49,99,0,0,0,0,0,0,0,0,0,-1,1175,925,0,0
-42,99,0,0,0,0,0,0,0,0,0,-1,1182,925,0,0
-35,99,0,0,0,0,0,0,0,0,0,-1,1189,925,0,0
-28,99,0,0,0,0,0,0,0,0,0,-1,1196,925,0,0
-21,99,0,0,0,0,0,0,0,0,0,-1,1203,925,0,0
-14,99,0,0,0,0,0,0,0,0,0,-1,1210,925,0,0
-7,99,0,0,0,0,0,0,0,0,0,-1,1217,925,0,0
0,99,0,0,0,0,0,0,0,0,0,-1,1224,925,0,0
7,99,0,0,0,0,0,0,0,0,0,-1,1231,925,0,0
14,99,0,0,0,0,0,0,0,0,0,-1,1238,925,0,0
21,99,0,0,0,0,0,0,0,0,0,-1,1245,925,0,0
28,99,0,0,0,0,0,0,0,0,0,-1,1252,925,0,0
35,99,0,0,0,0,0,0,0,0,0,-1,1259,925,0,0
42,99,0,0,0,0,0,0,0,0,0,-1,1266,925,0,0
49,99,0,0,0,0,0,0,0,0,0,-1,1273,925,0,0
56,99,0,0,0,0,0,0,0,0,0,-1,1280,925,0,0
63,99,0,0,0,0,0,0,0,0,0,-1,1287,925,0,0
70,99,0,0,0,0,0,0,0,0,0,-1,1294,925,0,0
77,99,0,0,0,0,0,0,0,0,0,-1,1301,925,0,0
84,99,0,0,0,0,0,0,0,0,0,-1,1308,925,0,0
91,99,0,0,0,0,0,0,0,0,0,-1,1315,925,0,0
98,99,0,0,0,0,0,0,0,0,0,-1,1322,925,0,0
105,99,0,0,0,0,0,0,0,0,0,-1,1329,925,0,0
112,99,0,0,0,0,0,0,0,0,0,-1,1336,925,0,0
119,99,0,0,0,0,0,0,0,0,0,-1,1343,925,0,0
126,99,0,0,0,0,0,0,0,0,0,-1,1350,925,0,0
133,99,0,0,0,0,0,0,0,0,0,-1,1357,925,0,0
140,99,0,0,0,0,0,0,0,0,0,-1,1364,925,0,0
147,99,0,0,0,0,0,0,0,0,0,-1,1371,925,0,0
154,99,0,0,0,0,0,0,0,0,0,-1,1378,925,0,0
161,99,0,0,0,0,0,0,0,0,0,-1,1385,925,0,0
168,99,0,0,0,0,0,0,0,0,0,-1,1392,925,0,0
175,99,0,0,0,0,0,0,0,0,0,-1,1399,925,0,0
182,99,0,0,0,0,0,0,0,0,0,-1,1406,925,0,0
189,99,0,0,0,0,0,0,0,0,0,-1,1413,925,0,0
196,99,0,0,0,0,0,0,0,0,0,-1,1420,925,0,0
203,99,0,0,0,0,0,0,0,0,0,-1,1427,925,0,0
210,99,0,0,0,0,0,0,0,0,0,-1,1434,925,0,0
217,99,0,0,0,0,0,0,0,0,0,-1,1441,925,0,0
224,99,0,0,0,0,0,0,0,0,0,-1,1448,925,0,0
231,99,0,0,0,0,0,0,0,0,0,-1,1455,925,0,0
238,99,0,0,0,0,0,0,0,0,0,-1,1462,925,0,0
245,99,0,0,0,0,0,0,0,0,0,-1,1469,925,0,0
252,99,0,0,0,0,0,0,0,0,0,-1,1476,925,0,0
259,99,0,0,0,0,0,0,0,0,0,-1,1483,925,0,0
266,99,0,0,0,0,0,0,0,0,0,-1,1490,925,0,0
273,99,0,0,0,0,0,0,0,0,0,-1,1497,925,0,0
280,99,0,0,0,0,0,0,0,0,0,-1,1504,925,0,0
287,99,0,0,0,0,0,0,0,0,0,-1,1511,925,0,0
294,99,0,0,0,0,0,0,0,0,0,-1,1518,925,0,0
301,99,0,0,0,0,0,0,0,0,0,-1,1525,925,0,0
308,99,0,0,0,0,0,0,0,0,0,-1,1532,925,0,0
315,99,0,0,0,0,0,0,0,0,0,-1,1539,925,0,0
322,99,0,0,0,0,0,0,0,0,0,-1,1546,925,0,0
329,99,0,0,0,0,0,0,0,0,0,-1,1553,925,0,0
336,99,0,0,0,0,0,0,0,0,0,-1,1560,925,0,0
343,99,0,0,0,0,0,0,0,0,0,-1,1567,925,0,0
350,99,0,0,0,0,0,0,0,0,0,-1,1574,925,0,0
357,99,0,0,0,0,0,0,0,0,0,-1,1581,925,0,0
364,99,0,0,0,0,0,0,0,0,0,-1,1588,925,0,0
371,99,0,0,0,0,0,0,0,0,0,-1,1595,925,0,0
378,99,0,0,0,0,0,0,0,0,0,-1,1602,925,0,0
385,99,0,0,0,0,0,0,0,0,0,-1,1609,925,0,0
392,99,0,0,0,0,0,0,0,0,0,-1,1616,925,0,0
399,99,0,0,0,0,0,0,0,0,0,-1,1623,925,0,0
406,99,0,0,0,0,0,0,0,0,0,-1,1630,925,0,0
413,99,0,0,0,0,0,0,0,0,0,-1,1637,925,0,0
420,99,0,0,0,0,0,0,0,0,0,-1,1644,925,0,0
427,99,0,0,0,0,0,0,0,0,0,-1,1651,925,0,0
434,99,0,0,0,0,0,0,0,0,0,-1,1658,925,0,0
441,99,0,0,0,0,0,0,0,0,0,-1,1665,925,0,0
448,99,0,0,0,0,0,0,0,0,0,-1,1672,925,0,0
455,99,0,0,0,0,0,0,0,0,0,-1,1679,925,0,0
462,99,0,0,0,0,0,0,0,0,0,-1,1686,925,0,0
469,99,0,0,0,0,0,0,0,0,0,-1,1693,925,0,0
476,99,0,0,0,0,0,0,0,0,0,-1,1700,925,0,0
483,99,0,0,0,0,0,0,0,0,0,-1,1707,925,0,0
490,99,0,0,0,0,0,0,0,0,0,-1,1714,925,0,0
497,99,0,0,0,0,0,0,0,0,0,-1,1721,925,0,0
504,99,0,0,0,0,0,0,0,0,0,-1,1728,925,0,0
511,99,0,0,0,0,0,0,0,0,0,-1,1735,925,0,0
518,99,0,0,0,0,0,0,0,0,0,-1,1742,925,0,0
525,99,0,0,0,0,0,0,0,0,0,-1,1749,925,0,0
532,99,0,0,0,0,0,0,0,0,0,-1,1756,925,0,0
539,99,0,0,0,0,0,0,0,0,0,-1,1763,925,0,0
546,99,0,0,0,0,0,0,0,0,0,-1,1770,925,0,0
553,99,0,0,0,0,0,0,0,0,0,-1,1777,925,0,0
560,99,0,0,0,0,0,0,0,0,0,-1,1784,925,0,0
567,99,0,0,0,0,0,0,0,0,0,-1,1791,925,0,0
574,99,0,0,0,0,0,0,0,0,0,-1,1798,925,0,0
581,99,0,0,0,0,0,0,0,0,0,-1,1805,925,0,0
588,99,0,0,0,0,0,0,0,0,0,-1,1812,925,0,0
595,99,0,0,0,0,0,0,0,0,0,-1,1819,925,0,0
602,99,0,0,0,0,0,0,0,0,0,-1,1826,925,0,0
609,99,0,0,0,0,0,0,0,0,0,-1,1833,925,0,0
616,99,0,0,0,0,0,0,0,0,0,-1,1840,925,0,0
623,99,0,0,0,0,0,0,0,0,0,-1,1847,925,0,0
630,99,0,0,0,0,0,0,0,0,0,-1,1854,925,0,0
637,99,77.9381,2.41211,-0.00960603,0.00502103,0.00143472,0.00516043,-0.00974543,1.47394,0.00874056,0.043264,1861,925,77.9381,-2.4121
644,99,77.875,2.54657,-0.00750887,0.00390548,0.00085942,0.00396982,-0.00757322,1.49606,0.00677175,0.0388238,1868,925,77.875,-2.54655
651,99,77.8186,2.43188,-0.00554176,0.00290846,0.000507506,0.00293883,-0.00557213,1.51102,0.00499159,0.0379794,1875,925,77.8186,-2.43187
658,99,77.8478,2.35376,-0.00366984,0.00210331,0.000282309,0.00211708,-0.00368361,1.52205,0.00338949,0.0401881,1882,925,77.8478,-2.35378
665,99,77.9135,2.57452,-0.00198533,0.00155638,0.000159487,0.00156355,-0.0019925,1.52589,0.00205806,0.0409209,1889,925,77.9134,-2.57455
672,99,77.8831,2.68018,-0.00144448,0.000925205,0.000126858,0.000931976,-0.00145125,1.51747,0.0013868,0.0405414,1896,925,77.883,-2.68019
679,99,77.8303,2.5697,-0.00143266,0.000276276,8.77361e-05,0.000280768,-0.00143715,1.51964,0.00106411,0.0358413,1903,925,77.8304,-2.56968
686,99,77.8374,2.53864,-0.00151701,-0.000119647,-0.000275422,-6.73204e-05,-0.00156934,-1.38305,0.00102452,0.0307726,1910,925,77.8374,-2.53864
693,99,77.9252,2.52106,-0.00174943,-0.000307547,-0.000680911,-3.68239e-05,-0.00202015,-1.19237,0.00133466,0.0356363,1917,925,77.9251,-2.52103
700,99,77.9155,2.4425,0,0,0,0,0,0,0,-1,1924,925,77.9155,-2.44253
707,99,47.9915,3.27429,0,0,0,0,0,0,0,-1,1931,925,47.9914,-3.27427
714,99,72.1085,4.2804,0,0,0,0,0,0,0,-1,1938,925,72.1085,-4.28037
721,99,72.3485,5.17267,-0.00382079,0.0014555,-0.00227542,0.00230122,-0.00466651,-1.21494,0.00409936,0.0399913,1945,925,72.3484,-5.17264
728,99,72.3329,5.91833,-0.00407005,0.00224056,-0.00257341,0.00315691,-0.0049864,-1.22871,0.00474093,0.0325955,1952,925,72.3329,-5.91835
735,99,72.2627,6.68127,-0.0043466,0.00377283,-0.00285967,0.0046789,-0.00525267,-1.26396,0.00573719,0.0252783,1959,925,72.2627,-6.68125
742,99,72.1637,7.38788,-0.00419149,0.00632278,-0.00316855,0.00720382,-0.00507253,-1.29959,0.00712327,0.0163996,1966,925,72.1637,-7.38789
749,99,72.0837,8.07184,-0.00298189,0.0104001,-0.00307158,0.0110714,-0.00365323,-1.35561,0.00885361,0.0143055,1973,925,72.0838,-8.07183
756,99,72.0071,8.71967,-0.000344849,0.0158391,-0.00219519,0.0161316,-0.000637318,-1.43834,0.010973,0.0145652,1980,925,72.007,-8.71967
763,99,71.9812,9.40857,0.00330933,0.0219688,-0.000681346,0.0219936,0.00328448,-1.53435,0.0136995,0.0191482,1987,925,71.9812,-9.40859
770,99,72.3223,10.0366,0.00803418,0.0287809,0.00152761,0.0288927,0.0079223,1.49769,0.0172389,0.0344391,1994,925,72.3223,-10.0366
777,99,72.8918,10.4701,0.0143038,0.0368034,0.00557308,0.0381082,0.012999,1.34082,0.022369,0.0468803,2001,925,72.8919,-10.4701
784,99,73.3821,11.0339,0,0,0,0,0,0,0,-1,2008,925,73.3822,-11.0339
791,99,73.9043,11.601,0,0,0,0,0,0,0,-1,2015,925,73.9043,-11.6009
798,99,73.1311,11.1252,0,0,0,0,0,0,0,-1,2022,925,73.1311,-11.1252
805,99,0,0,0,0,0,0,0,0,0,-1,2029,925,0,0
812,99,0,0,0,0,0,0,0,0,0,-1,2036,925,0,0
-700,92,0,0,0,0,0,0,0,0,0,-1,524,932,0,0
-693,92,0,0,0,0,0,0,0,0,0,-1,531,932,0,0
-686,92,-53.3553,10.8996,0,0,0,0,0,0,0,-1,538,932,-53.3553,-10.8996
-679,92,-53.9044,10.3691,0,0,0,0,0,0,0,-1,545,932,-53.9044,-10.3691
-672,92,-54.4041,9.71277,0,0,0,0,0,0,0,-1,552,932,-54.4042,-9.71274
-665,92,-54.8063,9.43829,0,0,0,0,0,0,0,-1,559,932,-54.8063,-9.43829
-658,92,-56.0568,9.09058,0,0,0,0,0,0,0,-1,566,932,-56.0568,-9.09056
-651,92,-56.109,8.67078,0,0,0,0,0,0,0,-1,573,932,-56.109,-8.67075
-644,92,-57.2419,9.65924,0,0,0,0,0,0,0,-1,580,932,-57.2419,-9.65923
-637,92,-57.2366,9.0899,-9.69494e-05,0.0235541,0.0149307,0.030775,-0.0073179,1.12033,0.0233415,0.0340915,587,932,-57.2366,-9.0899
-630,92,-57.3219,8.44269,-0.00176843,0.0187539,0.0112966,0.0237539,-0.00676848,1.1541,0.0185093,0.017104,594,932,-57.3219,-8.44269
-623,92,-57.4979,7.77185,-0.00255133,0.0137056,0.00845334,0.0173045,-0.00615023,1.1683,0.0140428,0.0112163,601,932,-57.4979,-7.77183
-616,92,-57.5303,7.09814,-0.00207791,0.00864646,0.00659933,0.0117875,-0.00521891,1.12657,0.0100598,0.0103133,608,932,-57.5303,-7.09814
-609,92,-57.567,6.43433,-0.00152343,0.00483453,0.00584312,0.00830747,-0.00499637,1.03453,0.00775986,0.00976904,615,932,-57.567,-6.43432
-602,92,-57.5497,5.69702,-0.00153844,0.00232703,0.00536089,0.00609294,-0.00530436,0.958408,0.00658548,0.0123538,622,932,-57.5498,-5.69702
-595,92,-57.478,4.89044,-0.00117339,0.000991399,0.00477898,0.00480903,-0.00499102,0.896765,0.00565839,0.0260823,629,932,-57.4781,-4.89045
-588,92,-57.4757,4.22821,-0.000905492,3.33992e-05,0.00419074,0.0037809,-0.004653,0.841176,0.00487798,0.036415,636,932,-57.4757,-4.22822
-581,92,-58.2542,3.51996,0,0,0,0,0,0,0,-1,643,932,-58.2542,-3.51994
-574,92,-59.2243,2.65234,0,0,0,0,0,0,0,-1,650,932,-59.2243,-2.65236
-567,92,-61.7032,0.577148,0,0,0,0,0,0,0,-1,657,932,-61.7032,-0.57712
-560,92,-61.6361,0.586365,-0.000435122,-0.00287857,0.00177057,0.000494322,-0.00380801,0.483401,0.00271847,0.0403222,664,932,-61.6361,-0.586395
-553,92,-61.8292,0.61731,-0.000687223,-0.00291233,0.00119587,-0.000166411,-0.00343314,0.410738,0.00223536,0.0391033,671,932,-61.8292,-0.61728
-546,92,-61.8204,0.471375,-0.000843952,-0.00247083,0.000497163,-0.000704053,-0.00261072,0.274303,0.0015597,0.0403172,678,932,-61.8204,-0.471371
-539,92,-61.7274,0.382568,-0.000679062,-0.00157584,-0.000595097,-0.000382338,-0.00187256,-0.462538,0.00114246,0.0408934,685,932,-61.7274,-0.382568
-532,92,-61.7781,0.511475,9.03993e-05,-0.000496134,-0.0021613,0.00197824,-0.00238397,-0.717965,0.00252215,0.0438393,692,932,-61.7781,-0.511481
-525,92,-61.8693,0.696472,0.00106155,0.000676191,-0.00387451,0.00474817,-0.00301043,-0.760554,0.00451673,0.0403822,699,932,-61.8693,-0.696495
-518,92,-61.7773,0.869385,0.00217109,0.002145,-0.00566278,0.00782084,-0.00350475,-0.784247,0.00669523,0.0386799,706,932,-61.7773,-0.86936
-511,92,0,0,0,0,0,0,0,0,0,-1,713,932,0,0
-504,92,0,0,0,0,0,0,0,0,0,-1,720,932,0,0
-497,92,0,0,0,0,0,0,0,0,0,-1,727,932,0,0
-490,92,0,0,0,0,0,0,0,0,0,-1,734,932,0,0
-483,92,0,0,0,0,0,0,0,0,0,-1,741,932,0,0
-476,92,0,0,0,0,0,0,0,0,0,-1,748,932,0,0
-469,92,0,0,0,0,0,0,0,0,0,-1,755,932,0,0
-462,92,0,0,0,0,0,0,0,0,0,-1,762,932,0,0
-455,92,0,0,0,0,0,0,0,0,0,-1,769,932,0,0
-448,92,0,0,0,0,0,0,0,0,0,-1,776,932,0,0
-441,92,0,0,0,0,0,0,0,0,0,-1,783,932,0,0
-434,92,0,0,0,0,0,0,0,0,0,-1,790,932,0,0
-427,92,0,0,0,0,0,0,0,0,0,-1,797,932,0,0
-420,92,0,0,0,0,0,0,0,0,0,-1,804,932,0,0
-413,92,0,0,0,0,0,0,0,0,0,-1,811,932,0,0
-406,92,0,0,0,0,0,0,0,0,0,-1,818,932,0,0
-399,92,0,0,0,0,0,0,0,0,0,-1,825,932,0,0
-392,92,0,0,0,0,0,0,0,0,0,-1,832,932,0,0
-385,92,0,0,0,0,0,0,0,0,0,-1,839,932,0,0
-378,92,0,0,0,0,0,0,0,0,0,-1,846,932,0,0
-371,92,0,0,0,0,0,0,0,0,0,-1,853,932,0,0
-364,92,0,0,0,0,0,0,0,0,0,-1,860,932,0,0
-357,92,0,0,0,0,0,0,0,0,0,-1,867,932,0,0
-350,92,0,0,0,0,0,0,0,0,0,-1,874,932,0,0
-343,92,0,0,0,0,0,0,0,0,0,-1,881,932,0,0
-336,92,0,0,0,0,0,0,0,0,0,-1,888,932,0,0
-329,92,0,0,0,0,0,0,0,0,0,-1,895,932,0,0
-322,92,0,0,0,0,0,0,0,0,0,-1,902,932,0,0
-315,92,0,0,0,0,0,0,0,0,0,-1,909,932,0,0
-308,92,0,0,0,0,0,0,0,0,0,-1,916,932,0,0
-301,92,0,0,0,0,0,0,0,0,0,-1,923,932,0,0
-294,92,0,0,0,0,0,0,0,0,0,-1,930,932,0,0
-287,92,0,0,0,0,0,0,0,0,0,-1,937,932,0,0
-280,92,0,0,0,0,0,0,0,0,0,-1,944,932,0,0
-273,92,0,0,0,0,0,0,0,0,0,-1,951,932,0,0
-266,92,0,0,0,0,0,0,0,0,0,-1,958,932,0,0
-259,92,0,0,0,0,0,0,0,0,0,-1,965,932,0,0
-252,92,0,0,0,0,0,0,0,0,0,-1,972,932,0,0
-245,92,0,0,0,0,0,0,0,0,0,-1,979,932,0,0
-238,92,0,0,0,0,0,0,0,0,0,-1,986,932,0,0
-231,92,0,0,0,0,0,0,0,0,0,-1,993,932,0,0
-224,92,0,0,0,0,0,0,0,0,0,-1,1000,932,0,0
-217,92,0,0,0,0,0,0,0,0,0,-1,1007,932,0,0
-210,92,0,0,0,0,0,0,0,0,0,-1,1014,932,0,0
-203,92,0,0,0,0,0,0,0,0,0,-1,1021,932,0,0
-196,92,0,0,0,0,0,0,0,0,0,-1,1028,932,0,0
-189,92,0,0,0,0,0,0,0,0,0,-1,1035,932,0,0
-182,92,0,0,0,0,0,0,0,0,0,-1,1042,932,0,0
-175,92,0,0,0,0,0,0,0,0,0,-1,1049,932,0,0
-168,92,0,0,0,0,0,0,0,0,0,-1,1056,932,0,0
-161,92,0,0,0,0,0,0,0,0,0,-1,1063,932,0,0
-154,92,0,0,0,0,0,0,0,0,0,-1,1070,932,0,0
-147,92,0,0,0,0,0,0,0,0,0,-1,1077,932,0,0
-140,92,0,0,0,0,0,0,0,0,0,-1,1084,932,0,0
-133,92,0,0,0,0,0,0,0,0,0,-1,1091,932,0,0
-126,92,0,0,0,0,0,0,0,0,0,-1,1098,932,0,0
-119,92,0,0,0,0,0,0,0,0,0,-1,1105,932,0,0
-112,92,0,0,0,0,0,0,0,0,0,-1,1112,932,0,0
-105,92,0,0,0,0,0,0,0,0,0,-1,1119,932,0,0
-98,92,0,0,0,0,0,0,0,0,0,-1,1126,932,0,0
-91,92,0,0,0,0,0,0,0,0,0,-1,1133,932,0,0
-84,92,0,0,0,0,0,0,0,0,0,-1,1140,932,0,0
-77,92,0,0,0,0,0,0,0,0,0,-1,1147,932,0,0
-70,92,0,0,0,0,0,0,0,0,0,-1,1154,932,0,0
-63,92,0,0,0,0,0,0,0,0,0,-1,1161,932,0,0
-56,92,0,0,0,0,0,0,0,0,0,-1,1168,932,0,0
-49,92,0,0,0,0,0,0,0,0,0,-1,1175,932,0,0
-42,92,0,0,0,0,0,0,0,0,0,-1,1182,932,0,0
-35,92,0,0,0,0,0,0,0,0,0,-1,1189,932,0,0
-28,92,0,0,0,0,0,0,0,0,0,-1,1196,932,0,0
-21,92,0,0,0,0,0,0,0,0,0,-1,1203,932,0,0
-14,92,0,0,0,0,0,0,0,0,0,-1,1210,932,0,0
-7,92,0,0,0,0,0,0,0,0,0,-1,1217,932,0,0
0,92,0,0,0,0,0,0,0,0,0,-1,1224,932,0,0
7,92,0,0,0,0,0,0,0,0,0,-1,1231,932,0,0
14,92,0,0,0,0,0,0,0,0,0,-1,1238,932,0,0
21,92,0,0,0,0,0,0,0,0,0,-1,1245,932,0,0
28,92,0,0,0,0,0,0,0,0,0,-1,1252,932,0,0
35,92,0,0,0,0,0,0,0,0,0,-1,1259,932,0,0
42,92,0,0,0,0,0,0,0,0,0,-1,1266,932,0,0
49,92,0,0,0,0,0,0,0,0,0,-1,1273,932,0,0
56,92,0,0,0,0,0,0,0,0,0,-1,1280,932,0,0
63,92,0,0,0,0,0,0,0,0,0,-1,1287,932,0,0
70,92,0,0,0,0,0,0,0,0,0,-1,1294,932,0,0
77,92,0,0,0,0,0,0,0,0,0,-1,1301,932,0,0
84,92,0,0,0,0,0,0,0,0,0,-1,1308,932,0,0
91,92,0,0,0,0,0,0,0,0,0,-1,1315,932,0,0
98,92,0,0,0,0,0,0,0,0,0,-1,1322,932,0,0
105,92,0,0,0,0,0,0,0,0,0,-1,1329,932,0,0
112,92,0,0,0,0,0,0,0,0,0,-1,1336,932,0,0
119,92,0,0,0,0,0,0,0,0,0,-1,1343,932,0,0
126,92,0,0,0,0,0,0,0,0,0,-1,1350,932,0,0
133,92,0,0,0,0,0,0,0,0,0,-1,1357,932,0,0
140,92,0,0,0,0,0,0,0,0,0,-1,1364,932,0,0
147,92,0,0,0,0,0,0,0,0,0,-1,1371,932,0,0
154,92,0,0,0,0,0,0,0,0,0,-1,1378,932,0,0
161,92,0,0,0,0,0,0,0,0,0,-1,1385,932,0,0
168,92,0,0,0,0,0,0,0,0,0,-1,1392,932,0,0
175,92,0,0,0,0,0,0,0,0,0,-1,1399,932,0,0
182,92,0,0,0,0,0,0,0,0,0,-1,1406,932,0,0
189,92,0,0,0,0,0,0,0,0,0,-1,1413,932,0,0
196,92,0,0,0,0,0,0,0,0,0,-1,1420,932,0,0
203,92,0,0,0,0,0,0,0,0,0,-1,1427,932,0,0
210,92,0,0,0,0,0,0,0,0,0,-1,1434,932,0,0
217,92,0,0,0,0,0,0,0,0,0,-1,1441,932,0,0
224,92,0,0,0,0,0,0,0,0,0,-1,1448,932,0,0
231,92,0,0,0,0,0,0,0,0,0,-1,1455,932,0,0
238,92,0,0,0,0,0,0,0,0,0,-1,1462,932,0,0
245,92,0,0,0,0,0,0,0,0,0,-1,1469,932,0,0
252,92,0,0,0,0,0,0,0,0,0,-1,1476,932,0,0
259,92,0,0,0,0,0,0,0,0,0,-1,1483,932,0,0
266,92,0,0,0,0,0,0,0,0,0,-1,1490,932,0,0
273,92,0,0,0,0,0,0,0,0,0,-1,1497,932,0,0
280,92,0,0,0,0,0,0,0,0,0,-1,1504,932,0,0
287,92,0,0,0,0,0,0,0,0,0,-1,1511,932,0,0
294,92,0,0,0,0,0,0,0,0,0,-1,1518,932,0,0
301,92,0,0,0,0,0,0,0,0,0,-1,1525,932,0,0
308,92,0,0,0,0,0,0,0,0,0,-1,1532,932,0,0
315,92,0,0,0,0,0,0,0,0,0,-1,1539,932,0,0
322,92,0,0,0,0,0,0,0,0,0,-1,1546,932,0,0
329,92,0,0,0,0,0,0,0,0,0,-1,1553,932,0,0
336,92,0,0,0,0,0,0,0,0,0,-1,1560,932,0,0
343,92,0,0,0,0,0,0,0,0,0,-1,1567,932,0,0
350,92,0,0,0,0,0,0,0,0,0,-1,1574,932,0,0
357,92,0,0,0,0,0,0,0,0,0,-1,1581,932,0,0
364,92,0,0,0,0,0,0,0,0,0,-1,1588,932,0,0
371,92,0,0,0,0,0,0,0,0,0,-1,1595,932,0,0
378,92,0,0,0,0,0,0,0,0,0,-1,1602,932,0,0
385,92,0,0,0,0,0,0,0,0,0,-1,1609,932,0,0
392,92,0,0,0,0,0,0,0,0,0,-1,1616,932,0,0
399,92,0,0,0,0,0,0,0,0,0,-1,1623,932,0,0
406,92,0,0,0,0,0,0,0,0,0,-1,1630,932,0,0
413,92,0,0,0,0,0,0,0,0,0,-1,1637,932,0,0
420,92,0,0,0,0,0,0,0,0,0,-1,1644,932,0,0
427,92,0,0,0,0,0,0,0,0,0,-1,1651,932,0,0
434,92,0,0,0,0,0,0,0,0,0,-1,1658,932,0,0
441,92,0,0,0,0,0,0,0,0,0,-1,1665,932,0,0
448,92,0,0,0,0,0,0,0,0,0,-1,1672,932,0,0
455,92,0,0,0,0,0,0,0,0,0,-1,1679,932,0,0
462,92,0,0,0,0,0,0,0,0,0,-1,1686,932,0,0
469,92,0,0,0,0,0,0,0,0,0,-1,1693,932,0,0
476,92,0,0,0,0,0,0,0,0,0,-1,1700,932,0,0
483,92,0,0,0,0,0,0,0,0,0,-1,1707,932,0,0
490,92,0,0,0,0,0,0,0,0,0,-1,1714,932,0,0
497,92,0,0,0,0,0,0,0,0,0,-1,1721,932,0,0
504,92,0,0,0,0,0,0,0,0,0,-1,1728,932,0,0
511,92,0,0,0,0,0,0,0,0,0,-1,1735,932,0,0
518,92,0,0,0,0,0,0,0,0,0,-1,1742,932,0,0
525,92,0,0,0,0,0,0,0,0,0,-1,1749,932,0,0
532,92,0,0,0,0,0,0,0,0,0,-1,1756,932,0,0
539,92,0,0,0,0,0,0,0,0,0,-1,1763,932,0,0
546,92,0,0,0,0,0,0,0,0,0,-1,1770,932,0,0
553,92,0,0,0,0,0,0,0,0,0,-1,1777,932,0,0
560,92,0,0,0,0,0,0,0,0,0,-1,1784,932,0,0
567,92,0,0,0,0,0,0,0,0,0,-1,1791,932,0,0
574,92,0,0,0,0,0,0,0,0,0,-1,1798,932,0,0
581,92,0,0,0,0,0,0,0,0,0,-1,1805,932,0,0
588,92,0,0,0,0,0,0,0,0,0,-1,1812,932,0,0
595,92,0,0,0,0,0,0,0,0,0,-1,1819,932,0,0
602,92,0,0,0,0,0,0,0,0,0,-1,1826,932,0,0
609,92,0,0,0,0,0,0,0,0,0,-1,1833,932,0,0
616,92,0,0,0,0,0,0,0,0,0,-1,1840,932,0,0
623,92,0,0,0,0,0,0,0,0,0,-1,1847,932,0,0
630,92,0,0,0,0,0,0,0,0,0,-1,1854,932,0,0
637,92,78.0056,1.94519,-0.0108285,0.00473663,0.00223187,0.00505033,-0.0111422,1.43116,0.00956678,0.0453209,1861,932,78.0056,-1.94519
644,92,77.8873,2.16791,-0.00851812,0.00367718,0.00150047,0.00385908,-0.00870002,1.45016,0.00742838,0.0385835,1868,932,77.8873,-2.1679
651,92,77.816,2.23041,-0.00640599,0.00276136,0.00104159,0.00287822,-0.00652284,1.45907,0.00556201,0.036795,1875,932,77.8161,-2.23041
658,92,77.8376,2.39014,-0.00440163,0.00207026,0.000734058,0.00215247,-0.00448385,1.45926,0.0039095,0.0409944,1882,932,77.8377,-2.39016
665,92,77.9497,2.47339,-0.00251314,0.00158416,0.000505917,0.0016457,-0.00257468,1.44974,0.00245624,0.0427418,1889,932,77.9497,-2.47341
672,92,77.9344,2.43457,-0.00174282,0.000995732,0.000441994,0.0010653,-0.00181239,1.41468,0.00168,0.0428263,1896,932,77.9344,-2.43459
679,92,77.8113,2.45575,-0.00158175,0.000316226,0.00040519,0.000399109,-0.00166464,1.36903,0.00126398,0.0374037,1903,932,77.8113,-2.45573
686,92,77.8251,2.46198,-0.0015428,-0.00015419,3.49244e-05,-0.000153312,-0.00154368,1.54567,0.000982012,0.0284157,1910,932,77.8251,-2.46197
693,92,77.9092,2.61743,-0.00170344,-0.000419655,-0.000382763,-0.000314196,-0.0018089,-1.30195,0.00111604,0.0258082,1917,932,77.9092,-2.6174
700,92,77.8651,2.65497,0,0,0,0,0,0,0,-1,1924,932,77.8651,-2.65499
707,92,32.9893,3.26874,0,0,0,0,0,0,0,-1,1931,932,32.9893,-3.26874
714,92,73.5034,4.59308,0,0,0,0,0,0,0,-1,1938,932,73.5034,-4.59307
721,92,73.2802,5.38141,-0.00384491,0.00136697,-0.00215123,0.00214019,-0.00461813,-1.22574,0.00398838,0.0379661,1945,932,73.2802,-5.38143
728,92,73.0399,6.08105,-0.00404475,0.00222616,-0.00245047,0.00307014,-0.00488873,-1.23911,0.00463487,0.0316181,1952,932,73.04,-6.08106
735,92,72.9791,6.7442,-0.00429235,0.00384152,-0.00274316,0.00468018,-0.00513102,-1.27409,0.00566649,0.0241089,1959,932,72.9791,-6.74422
742,92,72.969,7.38306,-0.0042568,0.00633512,-0.0030989,0.00717515,-0.00509683,-1.30608,0.00711902,0.0225311,1966,932,72.969,-7.38306
749,92,72.8715,8.05237,-0.00328467,0.0103304,-0.00313058,0.0110157,-0.00397001,-1.35528,0.00896509,0.0201251,1973,932,72.8715,-8.05238
756,92,72.7637,8.67743,-0.000888436,0.0158137,-0.00241577,0.0161561,-0.00123083,-1.43,0.0112035,0.0159036,1980,932,72.7636,-8.6774
763,92,72.7556,9.30908,0.00267935,0.0221456,-0.00102227,0.0221992,0.00262581,-1.51847,0.0140065,0.019001,1987,932,72.7555,-9.3091
770,92,72.7869,9.90253,0.00722009,0.0290434,0.00103403,0.0290923,0.0071712,1.52356,0.0175013,0.0298192,1994,932,72.7869,-9.90256
777,92,73.1548,10.2411,0.0130455,0.0370737,0.00475654,0.037981,0.0121382,1.38231,0.0223991,0.0454058,2001,932,73.1548,-10.2411
784,92,73.5571,10.7257,0,0,0,0,0,0,0,-1,2008,932,73.557,-10.7257
791,92,72.1428,12.0556,0,0,0,0,0,0,0,-1,2015,932,72.1427,-12.0556
798,92,72.4561,12.777,0,0,0,0,0,0,0,-1,2022,932,72.456,-12.777
805,92,0,0,0,0,0,0,0,0,0,-1,2029,932,0,0
812,92,0,0,0,0,0,0,0,0,0,-1,2036,932,0,0
-700,85,0,0,0,0,0,0,0,0,0,-1,524,939,0,0
-693,85,0,0,0,0,0,0,0,0,0,-1,531,939,0,0
-686,85,-54.393,10.6813,0,0,0,0,0,0,0,-1,538,939,-54.393,-10.6813
-679,85,-54.942,10.2415,0,0,0,0,0,0,0,-1,545,939,-54.9421,-10.2414
-672,85,-55.3577,9.87915,0,0,0,0,0,0,0,-1,552,939,-55.3577,-9.87914
-665,85,-57.5883,10.4811,0,0,0,0,0,0,0,-1,559,939,-57.5883,-10.4811
-658,85,-57.267,9.86951,0,0,0,0,0,0,0,-1,566,939,-57.267,-9.86952
-651,85,-56.9446,9.34045,0,0,0,0,0,0,0,-1,573,939,-56.9446,-9.34045
-644,85,-59.3724,9.33228,0,0,0,0,0,0,0,-1,580,939,-59.3724,-9.33228
-637,85,-58.5806,8.84973,0.00611336,0.0232986,0.017227,0.033957,-0.00454509,1.01674,0.0242952,0.0396349,587,939,-58.5807,-8.84975
-630,85,-58.1348,8.32635,0.00228128,0.0187173,0.0124274,0.0253982,-0.0043996,1.07753,0.0185732,0.0167862,594,939,-58.1348,-8.32634
-623,85,-58.2441,7.6983,-0.000349683,0.0137867,0.00869042,0.0179204,-0.00448341,1.12681,0.0136884,0.0114105,601,939,-58.2441,-7.69828
-616,85,-58.2805,7.07318,-0.000809613,0.00863599,0.00645899,0.0119147,-0.00408828,1.10108,0.00960054,0.0114478,608,939,-58.2804,-7.07317
-609,85,-58.3306,6.41614,-0.000482218,0.00480156,0.00576062,0.00849721,-0.00417786,1.00039,0.00745824,0.0135537,615,939,-58.3306,-6.41612
-602,85,-58.3358,5.74414,-0.000550069,0.00232917,0.0052854,0.00636751,-0.0045884,0.918361,0.00635314,0.0182717,622,939,-58.3358,-5.74416
-595,85,-58.2309,5.04883,-0.000284357,0.000987329,0.00470633,0.00510057,-0.0043976,0.852544,0.00548878,0.0224207,629,939,-58.2309,-5.04884
-588,85,-58.1888,4.36981,-0.000143082,-5.60083e-05,0.00418177,0.00408245,-0.00428154,0.790604,0.00482941,0.0289922,636,939,-58.1889,-4.36982
-581,85,-58.1594,3.61926,0,0,0,0,0,0,0,-1,643,939,-58.1594,-3.61929
-574,85,-57.1787,1.97198,0,0,0,0,0,0,0,-1,650,939,-57.1787,-1.97196
-567,85,-61.7038,0.619141,0,0,0,0,0,0,0,-1,657,939,-61.7038,-0.619166
-560,85,-61.6652,0.589539,-0.00018452,-0.00260802,0.00172511,0.000711892,-0.00350443,0.479224,0.0026062,0.0351583,664,939,-61.6652,-0.589567
-553,85,-61.8787,0.736633,-0.000418106,-0.00240854,0.00109842,6.8903e-05,-0.00289555,0.417327,0.00195374,0.0395694,671,939,-61.8787,-0.736604
-546,85,-61.8815,0.733215,-0.000495005,-0.00175411,0.000305829,-0.000424652,-0.00182446,0.226107,0.00110237,0.0388817,678,939,-61.8815,-0.733212
-539,85,-61.649,0.700073,-0.000273696,-0.000756881,-0.000884464,0.000401577,-0.00143215,-0.652075,0.00111304,0.0388119,685,939,-61.649,-0.700094
-532,85,-61.6691,0.656555,0.000478499,0.000231569,-0.00259582,0.00295379,-0.00224372,-0.761635,0.00301011,0.0404779,692,939,-61.669,-0.656576
-525,85,-61.7505,0.698608,0.00141241,0.00130655,-0.00442206,0.00578185,-0.0030629,-0.779414,0.00518632,0.0370971,699,939,-61.7505,-0.698584
-518,85,-61.629,0.789734,0.00256946,0.00262192,-0.00646151,0.00905726,-0.00386588,-0.787428,0.00765922,0.0356828,706,939,-61.629,-0.789732
-511,85,0,0,0,0,0,0,0,0,0,-1,713,939,0,0
-504,85,0,0,0,0,0,0,0,0,0,-1,720,939,0,0
-497,85,0,0,0,0,0,0,0,0,0,-1,727,939,0,0
-490,85,0,0,0,0,0,0,0,0,0,-1,734,939,0,0
-483,85,0,0,0,0,0,0,0,0,0,-1,741,939,0,0
-476,85,0,0,0,0,0,0,0,0,0,-1,748,939,0,0
-469,85,0,0,0,0,0,0,0,0,0,-1,755,939,0,0
-462,85,0,0,0,0,0,0,0,0,0,-1,762,939,0,0
-455,85,0,0,0,0,0,0,0,0,0,-1,769,939,0,0
-448,85,0,0,0,0,0,0,0,0,0,-1,776,939,0,0
-441,85,0,0,0,0,0,0,0,0,0,-1,783,939,0,0
-434,85,0,0,0,0,0,0,0,0,0,-1,790,939,0,0
-427,85,0,0,0,0,0,0,0,0,0,-1,797,939,0,0
-420,85,0,0,0,0,0,0,0,0,0,-1,804,939,0,0
-413,85,0,0,0,0,0,0,0,0,0,-1,811,939,0,0
-406,85,0,0,0,0,0,0,0,0,0,-1,818,939,0,0
-399,85,0,0,0,0,0,0,0,0,0,-1,825,939,0,0
-392,85,0,0,0,0,0,0,0,0,0,-1,832,939,0,0
-385,85,0,0,0,0,0,0,0,0,0,-1,839,939,0,0
-378,85,0,0,0,0,0,0,0,0,0,-1,846,939,0,0
-371,85,0,0,0,0,0,0,0,0,0,-1,853,939,0,0
-364,85,0,0,0,0,0,0,0,0,0,-1,860,939,0,0
-357,85,0,0,0,0,0,0,0,0,0,-1,867,939,0,0
-350,85,0,0,0,0,0,0,0,0,0,-1,874,939,0,0
-343,85,0,0,0,0,0,0,0,0,0,-1,881,939,0,0
-336,85,0,0,0,0,0,0,0,0,0,-1,888,939,0,0
-329,85,0,0,0,0,0,0,0,0,0,-1,895,939,0,0
-322,85,0,0,0,0,0,0,0,0,0,-1,902,939,0,0
-315,85,0,0,0,0,0,0,0,0,0,-1,909,939,0,0
-308,85,0,0,0,0,0,0,0,0,0,-1,916,939,0,0
-301,85,0,0,0,0,0,0,0,0,0,-1,923,939,0,0
-294,85,0,0,0,0,0,0,0,0,0,-1,930,939,0,0
-287,85,0,0,0,0,0,0,0,0,0,-1,937,939,0,0
-280,85,0,0,0,0,0,0,0,0,0,-1,944,939,0,0
-273,85,0,0,0,0,0,0,0,0,0,-1,951,939,0,0
-266,85,0,0,0,0,0,0,0,0,0,-1,958,939,0,0
-259,85,0,0,0,0,0,0,0,0,0,-1,965,939,0,0
-252,85,0,0,0,0,0,0,0,0,0,-1,972,939,0,0
-245,85,0,0,0,0,0,0,0,0,0,-1,979,939,0,0
-238,85,0,0,0,0,0,0,0,0,0,-1,986,939,0,0
-231,85,0,0,0,0,0,0,0,0,0,-1,993,939,0,0
-224,85,0,0,0,0,0,0,0,0,0,-1,1000,939,0,0
-217,85,0,0,0,0,0,0,0,0,0,-1,1007,939,0,0
-210,85,0,0,0,0,0,0,0,0,0,-1,1014,939,0,0
-203,85,0,0,0,0,0,0,0,0,0,-1,1021,939,0,0
-196,85,0,0,0,0,0,0,0,0,0,-1,1028,939,0,0
-189,85,0,0,0,0,0,0,0,0,0,-1,1035,939,0,0
-182,85,0,0,0,0,0,0,0,0,0,-1,1042,939,0,0
-175,85,0,0,0,0,0,0,0,0,0,-1,1049,939,0,0
-168,85,0,0,0,0,0,0,0,0,0,-1,1056,939,0,0
-161,85,0,0,0,0,0,0,0,0,0,-1,1063,939,0,0
-154,85,0,0,0,0,0,0,0,0,0,-1,1070,939,0,0
-147,85,0,0,0,0,0,0,0,0,0,-1,1077,939,0,0
-140,85,0,0,0,0,0,0,0,0,0,-1,1084,939,0,0
-133,85,0,0,0,0,0,0,0,0,0,-1,1091,939,0,0
-126,85,0,0,0,0,0,0,0,0,0,-1,1098,939,0,0
-119,85,0,0,0,0,0,0,0,0,0,-1,1105,939,0,0
-112,85,0,0,0,0,0,0,0,0,0,-1,1112,939,0,0
-105,85,0,0,0,0,0,0,0,0,0,-1,1119,939,0,0
-98,85,0,0,0,0,0,0,0,0,0,-1,1126,939,0,0
-91,85,0,0,0,0,0,0,0,0,0,-1,1133,939,0,0
-84,85,0,0,0,0,0,0,0,0,0,-1,1140,939,0,0
-77,85,0,0,0,0,0,0,0,0,0,-1,1147,939,0,0
-70,85,0,0,0,0,0,0,0,0,0,-1,1154,939,0,0
-63,85,0,0,0,0,0,0,0,0,0,-1,1161,939,0,0
-56,85,0,0,0,0,0,0,0,0,0,-1,1168,939,0,0
-49,85,0,0,0,0,0,0,0,0,0,-1,1175,939,0,0
-42,85,0,0,0,0,0,0,0,0,0,-1,1182,939,0,0
-35,85,0,0,0,0,0,0,0,0,0,-1,1189,939,0,0
-28,85,0,0,0,0,0,0,0,0,0,-1,1196,939,0,0
-21,85,0,0,0,0,0,0,0,0,0,-1,1203,939,0,0
-14,85,0,0,0,0,0,0,0,0,0,-1,1210,939,0,0
-7,85,0,0,0,0,0,0,0,0,0,-1,1217,939,0,0
0,85,0,0,0,0,0,0,0,0,0,-1,1224,939,0,0
7,85,0,0,0,0,0,0,0,0,0,-1,1231,939,0,0
14,85,0,0,0,0,0,0,0,0,0,-1,1238,939,0,0
21,85,0,0,0,0,0,0,0,0,0,-1,1245,939,0,0
28,85,0,0,0,0,0,0,0,0,0,-1,1252,939,0,0
35,85,0,0,0,0,0,0,0,0,0,-1,1259,939,0,0
42,85,0,0,0,0,0,0,0,0,0,-1,1266,939,0,0
49,85,0,0,0,0,0,0,0,0,0,-1,1273,939,0,0
56,85,0,0,0,0,0,0,0,0,0,-1,1280,939,0,0
63,85,0,0,0,0,0,0,0,0,0,-1,1287,939,0,0
70,85,0,0,0,0,0,0,0,0,0,-1,1294,939,0,0
77,85,0,0,0,0,0,0,0,0,0,-1,1301,939,0,0
84,85,0,0,0,0,0,0,0,0,0,-1,1308,939,0,0
91,85,0,0,0,0,0,0,0,0,0,-1,1315,939,0,0
98,85,0,0,0,0,0,0,0,0,0,-1,1322,939,0,0
105,85,0,0,0,0,0,0,0,0,0,-1,1329,939,0,0
112,85,0,0,0,0,0,0,0,0,0,-1,1336,939,0,0
119,85,0,0,0,0,0,0,0,0,0,-1,1343,939,0,0
126,85,0,0,0,0,0,0,0,0,0,-1,1350,939,0,0
133,85,0,0,0,0,0,0,0,0,0,-1,1357,939,0,0
140,85,0,0,0,0,0,0,0,0,0,-1,1364,939,0,0
147,85,0,0,0,0,0,0,0,0,0,-1,1371,939,0,0
154,85,0,0,0,0,0,0,0,0,0,-1,1378,939,0,0
161,85,0,0,0,0,0,0,0,0,0,-1,1385,939,0,0
168,85,0,0,0,0,0,0,0,0,0,-1,1392,939,0,0
175,85,0,0,0,0,0,0,0,0,0,-1,1399,939,0,0
182,85,0,0,0,0,0,0,0,0,0,-1,1406,939,0,0
189,85,0,0,0,0,0,0,0,0,0,-1,1413,939,0,0
196,85,0,0,0,0,0,0,0,0,0,-1,1420,939,0,0
203,85,0,0,0,0,0,0,0,0,0,-1,1427,939,0,0
210,85,0,0,0,0,0,0,0,0,0,-1,1434,939,0,0
217,85,0,0,0,0,0,0,0,0,0,-1,1441,939,0,0
224,85,0,0,0,0,0,0,0,0,0,-1,1448,939,0,0
231,85,0,0,0,0,0,0,0,0,0,-1,1455,939,0,0
238,85,0,0,0,0,0,0,0,0,0,-1,1462,939,0,0
245,85,0,0,0,0,0,0,0,0,0,-1,1469,939,0,0
252,85,0,0,0,0,0,0,0,0,0,-1,1476,939,0,0
259,85,0,0,0,0,0,0,0,0,0,-1,1483,939,0,0
266,85,0,0,0,0,0,0,0,0,0,-1,1490,939,0,0
273,85,0,0,0,0,0,0,0,0,0,-1,1497,939,0,0
280,85,0,0,0,0,0,0,0,0,0,-1,1504,939,0,0
287,85,0,0,0,0,0,0,0,0,0,-1,1511,939,0,0
294,85,0,0,0,0,0,0,0,0,0,-1,1518,939,0,0
301,85,0,0,0,0,0,0,0,0,0,-1,1525,939,0,0
308,85,0,0,0,0,0,0,0,0,0,-1,1532,939,0,0
315,85,0,0,0,0,0,0,0,0,0,-1,1539,939,0,0
322,85,0,0,0,0,0,0,0,0,0,-1,1546,939,0,0
329,85,0,0,0,0,0,0,0,0,0,-1,1553,939,0,0
336,85,0,0,0,0,0,0,0,0,0,-1,1560,939,0,0
343,85,0,0,0,0,0,0,0,0,0,-1,1567,939,0,0
350,85,0,0,0,0,0,0,0,0,0,-1,1574,939,0,0
357,85,0,0,0,0,0,0,0,0,0,-1,1581,939,0,0
364,85,0,0,0,0,0,0,0,0,0,-1,1588,939,0,0
371,85,0,0,0,0,0,0,0,0,0,-1,1595,939,0,0
378,85,0,0,0,0,0,0,0,0,0,-1,1602,939,0,0
385,85,0,0,0,0,0,0,0,0,0,-1,1609,939,0,0
392,85,0,0,0,0,0,0,0,0,0,-1,1616,939,0,0
399,85,0,0,0,0,0,0,0,0,0,-1,1623,939,0,0
406,85,0,0,0,0,0,0,0,0,0,-1,1630,939,0,0
413,85,0,0,0,0,0,0,0,0,0,-1,1637,939,0,0
420,85,0,0,0,0,0,0,0,0,0,-1,1644,939,0,0
427,85,0,0,0,0,0,0,0,0,0,-1,1651,939,0,0
434,85,0,0,0,0,0,0,0,0,0,-1,1658,939,0,0
441,85,0,0,0,0,0,0,0,0,0,-1,1665,939,0,0
448,85,0,0,0,0,0,0,0,0,0,-1,1672,939,0,0
455,85,0,0,0,0,0,0,0,0,0,-1,1679,939,0,0
462,85,0,0,0,0,0,0,0,0,0,-1,1686,939,0,0
469,85,0,0,0,0,0,0,0,0,0,-1,1693,939,0,0
476,85,0,0,0,0,0,0,0,0,0,-1,1700,939,0,0
483,85,0,0,0,0,0,0,0,0,0,-1,1707,939,0,0
490,85,0,0,0,0,0,0,0,0,0,-1,1714,939,0,0
497,85,0,0,0,0,0,0,0,0,0,-1,1721,939,0,0
504,85,0,0,0,0,0,0,0,0,0,-1,1728,939,0,0
511,85,0,0,0,0,0,0,0,0,0,-1,1735,939,0,0
518,85,0,0,0,0,0,0,0,0,0,-1,1742,939,0,0
525,85,0,0,0,0,0,0,0,0,0,-1,1749,939,0,0
532,85,0,0,0,0,0,0,0,0,0,-1,1756,939,0,0
539,85,0,0,0,0,0,0,0,0,0,-1,1763,939,0,0
546,85,0,0,0,0,0,0,0,0,0,-1,1770,939,0,0
553,85,0,0,0,0,0,0,0,0,0,-1,1777,939,0,0
560,85,0,0,0,0,0,0,0,0,0,-1,1784,939,0,0
567,85,0,0,0,0,0,0,0,0,0,-1,1791,939,0,0
574,85,0,0,0,0,0,0,0,0,0,-1,1798,939,0,0
581,85,0,0,0,0,0,0,0,0,0,-1,1805,939,0,0
588,85,0,0,0,0,0,0,0,0,0,-1,1812,939,0,0
595,85,0,0,0,0,0,0,0,0,0,-1,1819,939,0,0
602,85,0,0,0,0,0,0,0,0,0,-1,1826,939,0,0
609,85,0,0,0,0,0,0,0,0,0,-1,1833,939,0,0
616,85,0,0,0,0,0,0,0,0,0,-1,1840,939,0,0
623,85,0,0,0,0,0,0,0,0,0,-1,1847,939,0,0
630,85,0,0,0,0,0,0,0,0,0,-1,1854,939,0,0
637,85,78.0856,2.1524,-0.0118157,0.00401104,0.00323501,0.00464674,-0.0124514,1.37676,0.0102087,0.0467233,1861,939,78.0856,-2.1524
644,85,77.9523,2.16608,-0.00927073,0.0029419,0.00230261,0.00336162,-0.00969045,1.3905,0.00782534,0.0395577,1868,939,77.9523,-2.1661
651,85,77.8617,2.29688,-0.00703935,0.00206034,0.00169996,0.00236755,-0.00734656,1.39201,0.00584885,0.0394988,1875,939,77.8617,-2.29685
658,85,77.8042,2.46338,-0.00495138,0.00144874,0.00129028,0.00169907,-0.00520172,1.37916,0.00415172,0.041415,1882,939,77.8042,-2.46339
665,85,77.853,2.48981,-0.00297985,0.00100931,0.000963983,0.00123004,-0.00320058,1.3457,0.00264101,0.0427996,1889,939,77.853,-2.48979
672,85,77.9237,2.43219,-0.00209376,0.000458863,0.000856948,0.000719864,-0.00235477,1.27515,0.00185691,0.0433346,1896,939,77.9238,-2.43222
679,85,77.9001,2.35535,-0.00184349,-0.000216689,0.000816187,0.000122204,-0.00218239,1.17724,0.00149732,0.0394335,1903,939,77.9001,-2.35533
686,85,77.9106,2.42041,-0.00172325,-0.000727113,0.000459337,-0.000547639,-0.00190272,1.19831,0.00113103,0.0327185,1910,939,77.9106,-2.42041
693,85,77.8865,2.59094,-0.00184408,-0.00102304,5.29379e-05,-0.00101964,-0.00184748,1.50667,0.00106856,0.0285807,1917,939,77.8865,-2.59092
700,85,77.9312,2.57343,-0.00220376,-0.000992803,-0.000336293,-0.00090568,-0.00229088,-1.3173,0.00133227,0.0429734,1924,939,77.9312,-2.57345
707,85,78.0778,2.46265,0,0,0,0,0,0,0,-1,1931,939,78.0778,-2.46265
714,85,74.3695,4.71045,0,0,0,0,0,0,0,-1,1938,939,74.3695,-4.71046
721,85,74.0275,5.4964,-0.00409367,0.000951732,-0.00183626,0.00154927,-0.00469121,-1.25619,0.00375207,0.0353775,1945,939,74.0275,-5.49642
728,85,73.6969,6.33313,-0.00428064,0.00194896,-0.00213039,0.00260783,-0.0049395,-1.27086,0.00442623,0.0382582,1952,939,73.6969,-6.33315
735,85,73.702,6.84216,-0.00448869,0.003746,-0.00242383,0.00440647,-0.00514916,-1.30477,0.0055225,0.0352219,1959,939,73.702,-6.84215
742,85,73.7471,7.42511,-0.0045425,0.00627641,-0.00281294,0.00696407,-0.00523016,-1.33104,0.00706402,0.0224097,1966,939,73.7471,-7.4251
749,85,73.6412,8.05554,-0.0038038,0.0102631,-0.00296053,0.0108608,-0.00440149,-1.37159,0.00907089,0.016168,1973,939,73.6412,-8.05556
756,85,73.4792,8.65088,-0.00175588,0.0158281,-0.00242604,0.0161567,-0.00208446,-1.43618,0.0115289,0.0144206,1980,939,73.4793,-8.65091
763,85,73.4172,9.21478,0.0015612,0.0224169,-0.00118056,0.0224836,0.00149459,-1.51443,0.0145165,0.0150169,1987,939,73.4173,-9.21478
770,85,73.3123,9.73303,0.00576302,0.0295009,0.000702028,0.0295216,0.00574228,1.54126,0.0180737,0.0212146,1994,939,73.3124,-9.73304
777,85,73.5156,10.2864,0,0,0,0,0,0,0,-1,2001,939,73.5155,-10.2864
784,85,73.7349,12.16,0,0,0,0,0,0,0,-1,2008,939,73.735,-12.16
791,85,73.5815,11.9219,0,0,0,0,0,0,0,-1,2015,939,73.5814,-11.9219
798,85,75.4956,11.9659,0,0,0,0,0,0,0,-1,2022,939,75.4955,-11.966
805,85,67.4045,8.44751,0,0,0,0,0,0,0,-1,2029,939,67.4046,-8.4475
812,85,0,0,0,0,0,0,0,0,0,-1,2036,939,0,0
-700,78,0,0,0,0,0,0,0,0,0,-1,524,946,0,0
-693,78,0,0,0,0,0,0,0,0,0,-1,531,946,0,0
-686,78,-55.2361,10.4521,0,0,0,0,0,0,0,-1,538,946,-55.2361,-10.4521
-679,78,-55.8797,10.4066,0,0,0,0,0,0,0,-1,545,946,-55.8797,-10.4066
-672,78,-56.2136,10.2553,0,0,0,0,0,0,0,-1,552,946,-56.2136,-10.2553
-665,78,-56.5371,9.93585,0,0,0,0,0,0,0,-1,559,946,-56.5371,-9.93586
-658,78,-56.7449,9.97845,0,0,0,0,0,0,0,-1,566,946,-56.7449,-9.97847
-651,78,-57.2355,9.40192,0,0,0,0,0,0,0,-1,573,946,-57.2355,-9.40191
-644,78,-60.3777,9.76636,0,0,0,0,0,0,0,-1,580,946,-60.3778,-9.76633
-637,78,-59.4689,9.00494,0.0114933,0.0225779,0.0193323,0.0371467,-0.00307542,0.924997,0.0258506,0.0396863,587,946,-59.4689,-9.00495
-630,78,-58.9099,8.20563,0.00576725,0.0183544,0.0134408,0.0269021,-0.0027805,1.00436,0.0189298,0.0224215,594,946,-58.9099,-8.20563
-623,78,-58.9443,7.61053,0.00137407,0.0137074,0.0087803,0.0182702,-0.00318874,1.09154,0.0133704,0.0150786,601,946,-58.9443,-7.61051
-616,78,-58.9891,7.01007,-2.60326e-05,0.00862906,0.00613981,0.0118132,-0.00321014,1.09238,0.00913547,0.0138193,608,946,-58.9891,-7.01007
-609,78,-59.0002,6.45764,9.9502e-05,0.00481069,0.00548471,0.00842426,-0.00351407,0.988229,0.00708426,0.0131235,615,946,-59.0002,-6.45763
-602,78,-59.027,5.84753,1.19418e-06,0.00238685,0.0050151,0.00634903,-0.00396098,0.902153,0.00600547,0.0183445,622,946,-59.027,-5.84752
-595,78,-58.9268,5.14929,0.000199509,0.00106695,0.00444974,0.00510405,-0.00383759,0.83398,0.00517969,0.0186007,629,946,-58.9267,-5.14928
-588,78,-58.8981,4.55194,0.000254467,-4.40303e-05,0.00398777,0.00409578,-0.00388535,0.766694,0.00460844,0.0163078,636,946,-58.8981,-4.55193
-581,78,-58.8672,3.8833,0,0,0,0,0,0,0,-1,643,946,-58.8672,-3.88331
-574,78,-61.71,0.507996,0,0,0,0,0,0,0,-1,650,946,-61.71,-0.50802
-567,78,-61.7116,0.603333,8.91146e-05,-0.00210411,0.00223461,0.00148169,-0.00349669,0.557292,0.0029517,0.0352073,657,946,-61.7116,-0.603323
-560,78,-61.7804,0.679443,-8.81658e-05,-0.00212871,0.00165447,0.000835327,-0.0030522,0.509102,0.00236298,0.0315821,664,946,-61.7804,-0.679465
-553,78,-61.8753,0.830505,-0.000299955,-0.00170233,0.00101022,0.00022858,-0.00223086,0.482024,0.00156899,0.0405174,671,946,-61.8753,-0.830478
-546,78,-61.8473,0.996399,-0.000336545,-0.000870402,0.00018081,-0.000281071,-0.000925876,0.297689,0.000548132,0.0403757,678,946,-61.8473,-0.996404
-539,78,-61.6674,1.01105,-0.000163673,0.000163816,-0.0010298,0.00104281,-0.00104267,-0.864241,0.00120405,0.0385148,685,946,-61.6674,-1.01106
-532,78,-61.7646,0.90802,0.000415351,0.00100007,-0.00276366,0.0034868,-0.00207137,-0.838096,0.00324351,0.0403043,692,946,-61.7646,-0.908036
-525,78,-61.7195,0.698181,0.0011649,0.00194745,-0.00458609,0.00615892,-0.00304657,-0.827954,0.0054151,0.0394024,699,946,-61.7195,-0.698184
-518,78,-61.4755,0.508118,0.00223665,0.00305553,-0.00681832,0.00947669,-0.00418452,-0.815387,0.00808217,0.040147,706,946,-61.4755,-0.508091
-511,78,0,0,0,0,0,0,0,0,0,-1,713,946,0,0
-504,78,0,0,0,0,0,0,0,0,0,-1,720,946,0,0
-497,78,0,0,0,0,0,0,0,0,0,-1,727,946,0,0
-490,78,0,0,0,0,0,0,0,0,0,-1,734,946,0,0
-483,78,0,0,0,0,0,0,0,0,0,-1,741,946,0,0
-476,78,0,0,0,0,0,0,0,0,0,-1,748,946,0,0
-469,78,0,0,0,0,0,0,0,0,0,-1,755,946,0,0
-462,78,0,0,0,0,0,0,0,0,0,-1,762,946,0,0
-455,78,0,0,0,0,0,0,0,0,0,-1,769,946,0,0
-448,78,0,0,0,0,0,0,0,0,0,-1,776,946,0,0
-441,78,0,0,0,0,0,0,0,0,0,-1,783,946,0,0
-434,78,0,0,0,0,0,0,0,0,0,-1,790,946,0,0
-427,78,0,0,0,0,0,0,0,0,0,-1,797,946,0,0
-420,78,0,0,0,0,0,0,0,0,0,-1,804,946,0,0
-413,78,0,0,0,0,0,0,0,0,0,-1,811,946,0,0
-406,78,0,0,0,0,0,0,0,0,0,-1,818,946,0,0
-399,78,0,0,0,0,0,0,0,0,0,-1,825,946,0,0
-392,78,0,0,0,0,0,0,0,0,0,-1,832,946,0,0
-385,78,0,0,0,0,0,0,0,0,0,-1,839,946,0,0
-378,78,0,0,0,0,0,0,0,0,0,-1,846,946,0,0
-371,78,0,0,0,0,0,0,0,0,0,-1,853,946,0,0
-364,78,0,0,0,0,0,0,0,0,0,-1,860,946,0,0
-357,78,0,0,0,0,0,0,0,0,0,-1,867,946,0,0
-350,78,0,0,0,0,0,0,0,0,0,-1,874,946,0,0
-343,78,0,0,0,0,0,0,0,0,0,-1,881,946,0,0
-336,78,0,0,0,0,0,0,0,0,0,-1,888,946,0,0
-329,78,0,0,0,0,0,0,0,0,0,-1,895,946,0,0
-322,78,0,0,0,0,0,0,0,0,0,-1,902,946,0,0
-315,78,0,0,0,0,0,0,0,0,0,-1,909,946,0,0
-308,78,0,0,0,0,0,0,0,0,0,-1,916,946,0,0
-301,78,0,0,0,0,0,0,0,0,0,-1,923,946,0,0
-294,78,0,0,0,0,0,0,0,0,0,-1,930,946,0,0
-287,78,0,0,0,0,0,0,0,0,0,-1,937,946,0,0
-280,78,0,0,0,0,0,0,0,0,0,-1,944,946,0,0
-273,78,0,0,0,0,0,0,0,0,0,-1,951,946,0,0
-266,78,0,0,0,0,0,0,0,0,0,-1,958,946,0,0
-259,78,0,0,0,0,0,0,0,0,0,-1,965,946,0,0
-252,78,0,0,0,0,0,0,0,0,0,-1,972,946,0,0
-245,78,0,0,0,0,0,0,0,0,0,-1,979,946,0,0
-238,78,0,0,0,0,0,0,0,0,0,-1,986,946,0,0
-231,78,0,0,0,0,0,0,0,0,0,-1,993,946,0,0
-224,78,0,0,0,0,0,0,0,0,0,-1,1000,946,0,0
-217,78,0,0,0,0,0,0,0,0,0,-1,1007,946,0,0
-210,78,0,0,0,0,0,0,0,0,0,-1,1014,946,0,0
-203,78,0,0,0,0,0,0,0,0,0,-1,1021,946,0,0
-196,78,0,0,0,0,0,0,0,0,0,-1,1028,946,0,0
-189,78,0,0,0,0,0,0,0,0,0,-1,1035,946,0,0
-182,78,0,0,0,0,0,0,0,0,0,-1,1042,946,0,0
-175,78,0,0,0,0,0,0,0,0,0,-1,1049,946,0,0
-168,78,0,0,0,0,0,0,0,0,0,-1,1056,946,0,0
-161,78,0,0,0,0,0,0,0,0,0,-1,1063,946,0,0
-154,78,0,0,0,0,0,0,0,0,0,-1,1070,946,0,0
-147,78,0,0,0,0,0,0,0,0,0,-1,1077,946,0,0
-140,78,0,0,0,0,0,0,0,0,0,-1,1084,946,0,0
-133,78,0,0,0,0,0,0,0,0,0,-1,1091,946,0,0
-126,78,0,0,0,0,0,0,0,0,0,-1,1098,946,0,0
-119,78,0,0,0,0,0,0,0,0,0,-1,1105,946,0,0
-112,78,0,0,0,0,0,0,0,0,0,-1,1112,946,0,0
-105,78,0,0,0,0,0,0,0,0,0,-1,1119,946,0,0
-98,78,0,0,0,0,0,0,0,0,0,-1,1126,946,0,0
-91,78,0,0,0,0,0,0,0,0,0,-1,1133,946,0,0
-84,78,0,0,0,0,0,0,0,0,0,-1,1140,946,0,0
-77,78,0,0,0,0,0,0,0,0,0,-1,1147,946,0,0
-70,78,0,0,0,0,0,0,0,0,0,-1,1154,946,0,0
-63,78,0,0,0,0,0,0,0,0,0,-1,1161,946,0,0
-56,78,0,0,0,0,0,0,0,0,0,-1,1168,946,0,0
-49,78,0,0,0,0,0,0,0,0,0,-1,1175,946,0,0
-42,78,0,0,0,0,0,0,0,0,0,-1,1182,946,0,0
-35,78,0,0,0,0,0,0,0,0,0,-1,1189,946,0,0
-28,78,0,0,0,0,0,0,0,0,0,-1,1196,946,0,0
-21,78,0,0,0,0,0,0,0,0,0,-1,1203,946,0,0
-14,78,0,0,0,0,0,0,0,0,0,-1,1210,946,0,0
-7,78,0,0,0,0,0,0,0,0,0,-1,1217,946,0,0
0,78,0,0,0,0,0,0,0,0,0,-1,1224,946,0,0
7,78,0,0,0,0,0,0,0,0,0,-1,1231,946,0,0
14,78,0,0,0,0,0,0,0,0,0,-1,1238,946,0,0
21,78,0,0,0,0,0,0,0,0,0,-1,1245,946,0,0
28,78,0,0,0,0,0,0,0,0,0,-1,1252,946,0,0
35,78,0,0,0,0,0,0,0,0,0,-1,1259,946,0,0
42,78,0,0,0,0,0,0,0,0,0,-1,1266,946,0,0
49,78,0,0,0,0,0,0,0,0,0,-1,1273,946,0,0
56,78,0,0,0,0,0,0,0,0,0,-1,1280,946,0,0
63,78,0,0,0,0,0,0,0,0,0,-1,1287,946,0,0
70,78,0,0,0,0,0,0,0,0,0,-1,1294,946,0,0
77,78,0,0,0,0,0,0,0,0,0,-1,1301,946,0,0
84,78,0,0,0,0,0,0,0,0,0,-1,1308,946,0,0
91,78,0,0,0,0,0,0,0,0,0,-1,1315,946,0,0
98,78,0,0,0,0,0,0,0,0,0,-1,1322,946,0,0
105,78,0,0,0,0,0,0,0,0,0,-1,1329,946,0,0
112,78,0,0,0,0,0,0,0,0,0,-1,1336,946,0,0
119,78,0,0,0,0,0,0,0,0,0,-1,1343,946,0,0
126,78,0,0,0,0,0,0,0,0,0,-1,1350,946,0,0
133,78,0,0,0,0,0,0,0,0,0,-1,1357,946,0,0
140,78,0,0,0,0,0,0,0,0,0,-1,1364,946,0,0
147,78,0,0,0,0,0,0,0,0,0,-1,1371,946,0,0
154,78,0,0,0,0,0,0,0,0,0,-1,1378,946,0,0
161,78,0,0,0,0,0,0,0,0,0,-1,1385,946,0,0
168,78,0,0,0,0,0,0,0,0,0,-1,1392,946,0,0
175,78,0,0,0,0,0,0,0,0,0,-1,1399,946,0,0
182,78,0,0,0,0,0,0,0,0,0,-1,1406,946,0,0
189,78,0,0,0,0,0,0,0,0,0,-1,1413,946,0,0
196,78,0,0,0,0,0,0,0,0,0,-1,1420,946,0,0
203,78,0,0,0,0,0,0,0,0,0,-1,1427,946,0,0
210,78,0,0,0,0,0,0,0,0,0,-1,1434,946,0,0
217,78,0,0,0,0,0,0,0,0,0,-1,1441,946,0,0
224,78,0,0,0,0,0,0,0,0,0,-1,1448,946,0,0
231,78,0,0,0,0,0,0,0,0,0,-1,1455,946,0,0
238,78,0,0,0,0,0,0,0,0,0,-1,1462,946,0,0
245,78,0,0,0,0,0,0,0,0,0,-1,1469,946,0,0
252,78,0,0,0,0,0,0,0,0,0,-1,1476,946,0,0
259,78,0,0,0,0,0,0,0,0,0,-1,1483,946,0,0
266,78,0,0,0,0,0,0,0,0,0,-1,1490,946,0,0
273,78,0,0,0,0,0,0,0,0,0,-1,1497,946,0,0
280,78,0,0,0,0,0,0,0,0,0,-1,1504,946,0,0
287,78,0,0,0,0,0,0,0,0,0,-1,1511,946,0,0
294,78,0,0,0,0,0,0,0,0,0,-1,1518,946,0,0
301,78,0,0,0,0,0,0,0,0,0,-1,1525,946,0,0
308,78,0,0,0,0,0,0,0,0,0,-1,1532,946,0,0
315,78,0,0,0,0,0,0,0,0,0,-1,1539,946,0,0
322,78,0,0,0,0,0,0,0,0,0,-1,1546,946,0,0
329,78,0,0,0,0,0,0,0,0,0,-1,1553,946,0,0
336,78,0,0,0,0,0,0,0,0,0,-1,1560,946,0,0
343,78,0,0,0,0,0,0,0,0,0,-1,1567,946,0,0
350,78,0,0,0,0,0,0,0,0,0,-1,1574,946,0,0
357,78,0,0,0,0,0,0,0,0,0,-1,1581,946,0,0
364,78,0,0,0,0,0,0,0,0,0,-1,1588,946,0,0
371,78,0,0,0,0,0,0,0,0,0,-1,1595,946,0,0
378,78,0,0,0,0,0,0,0,0,0,-1,1602,946,0,0
385,78,0,0,0,0,0,0,0,0,0,-1,1609,946,0,0
392,78,0,0,0,0,0,0,0,0,0,-1,1616,946,0,0
399,78,0,0,0,0,0,0,0,0,0,-1,1623,946,0,0
406,78,0,0,0,0,0,0,0,0,0,-1,1630,946,0,0
413,78,0,0,0,0,0,0,0,0,0,-1,1637,946,0,0
420,78,0,0,0,0,0,0,0,0,0,-1,1644,946,0,0
427,78,0,0,0,0,0,0,0,0,0,-1,1651,946,0,0
434,78,0,0,0,0,0,0,0,0,0,-1,1658,946,0,0
441,78,0,0,0,0,0,0,0,0,0,-1,1665,946,0,0
448,78,0,0,0,0,0,0,0,0,0,-1,1672,946,0,0
455,78,0,0,0,0,0,0,0,0,0,-1,1679,946,0,0
462,78,0,0,0,0,0,0,0,0,0,-1,1686,946,0,0
469,78,0,0,0,0,0,0,0,0,0,-1,1693,946,0,0
476,78,0,0,0,0,0,0,0,0,0,-1,1700,946,0,0
483,78,0,0,0,0,0,0,0,0,0,-1,1707,946,0,0
490,78,0,0,0,0,0,0,0,0,0,-1,1714,946,0,0
497,78,0,0,0,0,0,0,0,0,0,-1,1721,946,0,0
504,78,0,0,0,0,0,0,0,0,0,-1,1728,946,0,0
511,78,0,0,0,0,0,0,0,0,0,-1,1735,946,0,0
518,78,0,0,0,0,0,0,0,0,0,-1,1742,946,0,0
525,78,0,0,0,0,0,0,0,0,0,-1,1749,946,0,0
532,78,0,0,0,0,0,0,0,0,0,-1,1756,946,0,0
539,78,0,0,0,0,0,0,0,0,0,-1,1763,946,0,0
546,78,0,0,0,0,0,0,0,0,0,-1,1770,946,0,0
553,78,0,0,0,0,0,0,0,0,0,-1,1777,946,0,0
560,78,0,0,0,0,0,0,0,0,0,-1,1784,946,0,0
567,78,0,0,0,0,0,0,0,0,0,-1,1791,946,0,0
574,78,0,0,0,0,0,0,0,0,0,-1,1798,946,0,0
581,78,0,0,0,0,0,0,0,0,0,-1,1805,946,0,0
588,78,0,0,0,0,0,0,0,0,0,-1,1812,946,0,0
595,78,0,0,0,0,0,0,0,0,0,-1,1819,946,0,0
602,78,0,0,0,0,0,0,0,0,0,-1,1826,946,0,0
609,78,0,0,0,0,0,0,0,0,0,-1,1833,946,0,0
616,78,0,0,0,0,0,0,0,0,0,-1,1840,946,0,0
623,78,0,0,0,0,0,0,0,0,0,-1,1847,946,0,0
630,78,0,0,0,0,0,0,0,0,0,-1,1854,946,0,0
637,78,78.2627,2.37891,-0.0123105,0.00334681,0.00403171,0.00432398,-0.0132877,1.33301,0.010598,0.0451625,1861,946,78.2627,-2.37892
644,78,78.1022,2.3858,-0.00967025,0.00225471,0.00298776,0.0029614,-0.0103769,1.33854,0.00808788,0.0418359,1868,946,78.1021,-2.38579
651,78,77.9325,2.45337,-0.00741712,0.0013921,0.00228303,0.00194862,-0.00797364,1.3317,0.00607046,0.0411475,1875,946,77.9326,-2.45337
658,78,77.8545,2.5965,-0.00532472,0.000844125,0.00179921,0.00133053,-0.00581113,1.30676,0.0043854,0.0380414,1882,946,77.8545,-2.59649
665,78,77.8281,2.63306,-0.00335015,0.000454746,0.00139647,0.000912263,-0.00380767,1.25419,0.00289092,0.0402111,1889,946,77.8282,-2.63309
672,78,77.8373,2.56659,-0.00237314,-3.68653e-05,0.0012389,0.000497768,-0.00290777,1.1634,0.00212397,0.0404121,1896,946,77.8373,-2.56661
679,78,77.9177,2.52386,-0.0020479,-0.000667558,0.00118346,1.22725e-05,-0.00272773,1.04938,0.00182259,0.0375038,1903,946,77.9177,-2.52386
686,78,77.9424,2.41296,-0.0018634,-0.00119943,0.000841859,-0.000626458,-0.00243637,0.973211,0.00146091,0.0356179,1910,946,77.9424,-2.41295
693,78,77.8407,2.43988,-0.00194412,-0.00149879,0.000447899,-0.00122126,-0.00222165,1.01607,0.00128478,0.0304283,1917,946,77.8407,-2.43988
700,78,77.8649,2.48621,-0.00229081,-0.00145731,3.62161e-05,-0.00145573,-0.00229238,1.52745,0.0013395,0.0262133,1924,946,77.8649,-2.48621
707,78,77.9436,2.56677,0,0,0,0,0,0,0,-1,1931,946,77.9436,-2.56675
714,78,74.8287,4.78967,0,0,0,0,0,0,0,-1,1938,946,74.8287,-4.78966
721,78,74.6144,5.54028,-0.00425927,0.000711542,-0.00154805,0.00115422,-0.00470195,-1.29227,0.00358191,0.0332424,1945,946,74.6144,-5.54029
728,78,74.455,6.42236,-0.00446625,0.00185835,-0.00183927,0.00235434,-0.00496224,-1.3074,0.00431275,0.0480176,1952,946,74.455,-6.42235
735,78,74.4697,6.92206,-0.00464429,0.00381484,-0.00214751,0.0043288,-0.00515824,-1.33589,0.00548432,0.0311919,1959,946,74.4697,-6.92204
742,78,74.4542,7.43402,-0.00480463,0.0063808,-0.0025641,0.00694057,-0.0053644,-1.35586,0.00712368,0.0226501,1966,946,74.4543,-7.43403
749,78,74.3047,8.02203,-0.00431357,0.010331,-0.00280972,0.0108516,-0.00483414,-1.3876,0.00927564,0.0176179,1973,946,74.3047,-8.02204
756,78,74.2126,8.57111,-0.00267477,0.0159061,-0.00245433,0.0162249,-0.0029935,-1.44166,0.0119402,0.0165111,1980,946,74.2127,-8.5711
763,78,74.095,9.06433,0.000280334,0.0226999,-0.00137318,0.0227837,0.000196541,-1.50985,0.015124,0.017961,1987,946,74.095,-9.06435
770,78,73.9565,9.547,0.00406783,0.0299677,0.000315603,0.0299715,0.00406398,1.55861,0.0187736,0.023724,1994,946,73.9565,-9.547
777,78,73.7832,10.1103,0.00864633,0.0381279,0.00324975,0.0384819,0.00829237,1.4623,0.0233858,0.0440053,2001,946,73.7831,-10.1103
784,78,73.9126,11.3934,0.0160652,0.0474565,0.00804313,0.0493973,0.0141244,1.33402,0.0293779,0.0497259,2008,946,73.9126,-11.3935
791,78,73.6782,12.3209,0,0,0,0,0,0,0,-1,2015,946,73.6783,-12.3209
798,78,67.9287,7.90448,0,0,0,0,0,0,0,-1,2022,946,67.9287,-7.90446
805,78,68.5852,7.34106,0,0,0,0,0,0,0,-1,2029,946,68.5853,-7.34105
812,78,0,0,0,0,0,0,0,0,0,-1,2036,946,0,0
-700,71,0,0,0,0,0,0,0,0,0,-1,524,953,0,0
-693,71,0,0,0,0,0,0,0,0,0,-1,531,953,0,0
-686,71,-55.2553,9.84918,0,0,0,0,0,0,0,-1,538,953,-55.2553,-9.84919
-679,71,-56.4131,10.9778,0,0,0,0,0,0,0,-1,545,953,-56.4131,-10.9778
-672,71,-56.6174,9.32544,0,0,0,0,0,0,0,-1,552,953,-56.6174,-9.32547
-665,71,-57.3698,10.0267,0,0,0,0,0,0,0,-1,559,953,-57.3699,-10.0267
-658,71,-58.2655,9.78412,0,0,0,0,0,0,0,-1,566,953,-58.2655,-9.78413
-651,71,-58.3897,9.255,0,0,0,0,0,0,0,-1,573,953,-58.3897,-9.25503
-644,71,-59.8245,9.70758,0,0,0,0,0,0,0,-1,580,953,-59.8245,-9.70756
-637,71,-59.6404,8.8429,0.0147784,0.0221201,0.0204503,0.0392264,-0.00232786,0.874204,0.0269604,0.0313621,587,953,-59.6404,-8.8429
-630,71,-59.5449,8.12201,0.00767251,0.0180734,0.0139228,0.0277353,-0.00198942,0.964134,0.0191878,0.020035,594,953,-59.5449,-8.122
-623,71,-59.5851,7.54712,0.0019863,0.0136123,0.00870959,0.0182706,-0.002672,1.07966,0.0131618,0.0164652,601,953,-59.5852,-7.54715
-616,71,-59.6465,6.94696,-0.000103073,0.00862451,0.00579105,0.0115119,-0.00299042,1.10828,0.00884158,0.0156466,608,953,-59.6465,-6.94695
-609,71,-59.6331,6.4162,-5.61485e-05,0.00486862,0.00516575,0.00812885,-0.00331638,1.00781,0.00679984,0.0157953,615,953,-59.6331,-6.41617
-602,71,-59.6255,5.90619,-0.00010767,0.00248803,0.00470478,0.00607069,-0.00369033,0.91998,0.00569111,0.0181184,622,953,-59.6255,-5.90619
-595,71,-59.5961,5.38019,9.52212e-05,0.00119697,0.00415798,0.00484041,-0.00354822,0.851258,0.00486229,0.0229048,629,953,-59.5961,-5.38022
-588,71,-59.5419,4.80835,0.000136648,2.95653e-05,0.00374445,0.00382794,-0.00366172,0.778249,0.00432451,0.0309835,636,953,-59.5419,-4.80836
-581,71,-59.3212,4.14545,0,0,0,0,0,0,0,-1,643,953,-59.3212,-4.14542
-574,71,-61.7095,0.459167,0,0,0,0,0,0,0,-1,650,953,-61.7095,-0.459175
-567,71,-61.6995,0.550354,-4.88728e-05,-0.00176912,0.00214711,0.00140399,-0.00322198,0.594888,0.00273869,0.0208006,657,953,-61.6995,-0.550329
-560,71,-61.7416,0.743958,-0.000209627,-0.00156007,0.00161892,0.000869236,-0.00263893,0.587826,0.00210959,0.0288102,664,953,-61.7416,-0.743964
-553,71,-61.699,1.09271,-0.000390485,-0.000918751,0.000997822,0.000377571,-0.00168681,0.656011,0.00126926,0.0401548,671,953,-61.699,-1.09268
-546,71,-61.7197,1.17993,-0.000430338,5.77272e-05,0.000191973,0.000124187,-0.000496798,1.23752,0.00037943,0.0411645,678,953,-61.7197,-1.17995
-539,71,-61.7182,1.12292,-0.000413149,0.00108505,-0.000973331,0.00156417,-0.000892269,-1.11337,0.0014358,0.0401932,685,953,-61.7182,-1.12294
-532,71,-61.8251,1.14044,-0.000151466,0.0017559,-0.00262483,0.00359493,-0.0019905,-0.959649,0.0032688,0.0446955,692,953,-61.8251,-1.14045
-525,71,-61.7399,0.714478,0.000277138,0.00261621,-0.00434989,0.00595105,-0.00305769,-0.916726,0.00528986,0.0444735,699,953,-61.7399,-0.714498
-518,71,0,0,0,0,0,0,0,0,0,-1,706,953,0,0
-511,71,0,0,0,0,0,0,0,0,0,-1,713,953,0,0
-504,71,0,0,0,0,0,0,0,0,0,-1,720,953,0,0
-497,71,0,0,0,0,0,0,0,0,0,-1,727,953,0,0
-490,71,0,0,0,0,0,0,0,0,0,-1,734,953,0,0
-483,71,0,0,0,0,0,0,0,0,0,-1,741,953,0,0
-476,71,0,0,0,0,0,0,0,0,0,-1,748,953,0,0
-469,71,0,0,0,0,0,0,0,0,0,-1,755,953,0,0
-462,71,0,0,0,0,0,0,0,0,0,-1,762,953,0,0
-455,71,0,0,0,0,0,0,0,0,0,-1,769,953,0,0
-448,71,0,0,0,0,0,0,0,0,0,-1,776,953,0,0
-441,71,0,0,0,0,0,0,0,0,0,-1,783,953,0,0
-434,71,0,0,0,0,0,0,0,0,0,-1,790,953,0,0
-427,71,0,0,0,0,0,0,0,0,0,-1,797,953,0,0
-420,71,0,0,0,0,0,0,0,0,0,-1,804,953,0,0
-413,71,0,0,0,0,0,0,0,0,0,-1,811,953,0,0
-406,71,0,0,0,0,0,0,0,0,0,-1,818,953,0,0
-399,71,0,0,0,0,0,0,0,0,0,-1,825,953,0,0
-392,71,0,0,0,0,0,0,0,0,0,-1,832,953,0,0
-385,71,0,0,0,0,0,0,0,0,0,-1,839,953,0,0
-378,71,0,0,0,0,0,0,0,0,0,-1,846,953,0,0
-371,71,0,0,0,0,0,0,0,0,0,-1,853,953,0,0
-364,71,0,0,0,0,0,0,0,0,0,-1,860,953,0,0
-357,71,0,0,0,0,0,0,0,0,0,-1,867,953,0,0
-350,71,0,0,0,0,0,0,0,0,0,-1,874,953,0,0
-343,71,0,0,0,0,0,0,0,0,0,-1,881,953,0,0
-336,71,0,0,0,0,0,0,0,0,0,-1,888,953,0,0
-329,71,0,0,0,0,0,0,0,0,0,-1,895,953,0,0
-322,71,0,0,0,0,0,0,0,0,0,-1,902,953,0,0
-315,71,0,0,0,0,0,0,0,0,0,-1,909,953,0,0
-308,71,0,0,0,0,0,0,0,0,0,-1,916,953,0,0
-301,71,0,0,0,0,0,0,0,0,0,-1,923,953,0,0
-294,71,0,0,0,0,0,0,0,0,0,-1,930,953,0,0
-287,71,0,0,0,0,0,0,0,0,0,-1,937,953,0,0
-280,71,0,0,0,0,0,0,0,0,0,-1,944,953,0,0
-273,71,0,0,0,0,0,0,0,0,0,-1,951,953,0,0
-266,71,0,0,0,0,0,0,0,0,0,-1,958,953,0,0
-259,71,0,0,0,0,0,0,0,0,0,-1,965,953,0,0
-252,71,0,0,0,0,0,0,0,0,0,-1,972,953,0,0
-245,71,0,0,0,0,0,0,0,0,0,-1,979,953,0,0
-238,71,0,0,0,0,0,0,0,0,0,-1,986,953,0,0
-231,71,0,0,0,0,0,0,0,0,0,-1,993,953,0,0
-224,71,0,0,0,0,0,0,0,0,0,-1,1000,953,0,0
-217,71,0,0,0,0,0,0,0,0,0,-1,1007,953,0,0
-210,71,0,0,0,0,0,0,0,0,0,-1,1014,953,0,0
-203,71,0,0,0,0,0,0,0,0,0,-1,1021,953,0,0
-196,71,0,0,0,0,0,0,0,0,0,-1,1028,953,0,0
-189,71,0,0,0,0,0,0,0,0,0,-1,1035,953,0,0
-182,71,0,0,0,0,0,0,0,0,0,-1,1042,953,0,0
-175,71,0,0,0,0,0,0,0,0,0,-1,1049,953,0,0
-168,71,0,0,0,0,0,0,0,0,0,-1,1056,953,0,0
-161,71,0,0,0,0,0,0,0,0,0,-1,1063,953,0,0
-154,71,0,0,0,0,0,0,0,0,0,-1,1070,953,0,0
-147,71,0,0,0,0,0,0,0,0,0,-1,1077,953,0,0
-140,71,0,0,0,0,0,0,0,0,0,-1,1084,953,0,0
-133,71,0,0,0,0,0,0,0,0,0,-1,1091,953,0,0
-126,71,0,0,0,0,0,0,0,0,0,-1,1098,953,0,0
-119,71,0,0,0,0,0,0,0,0,0,-1,1105,953,0,0
-112,71,0,0,0,0,0,0,0,0,0,-1,1112,953,0,0
-105,71,0,0,0,0,0,0,0,0,0,-1,1119,953,0,0
-98,71,0,0,0,0,0,0,0,0,0,-1,1126,953,0,0
-91,71,0,0,0,0,0,0,0,0,0,-1,1133,953,0,0
-84,71,0,0,0,0,0,0,0,0,0,-1,1140,953,0,0
-77,71,0,0,0,0,0,0,0,0,0,-1,1147,953,0,0
-70,71,0,0,0,0,0,0,0,0,0,-1,1154,953,0,0
-63,71,0,0,0,0,0,0,0,0,0,-1,1161,953,0,0
-56,71,0,0,0,0,0,0,0,0,0,-1,1168,953,0,0
-49,71,0,0,0,0,0,0,0,0,0,-1,1175,953,0,0
-42,71,0,0,0,0,0,0,0,0,0,-1,1182,953,0,0
-35,71,0,0,0,0,0,0,0,0,0,-1,1189,953,0,0
-28,71,0,0,0,0,0,0,0,0,0,-1,1196,953,0,0
-21,71,0,0,0,0,0,0,0,0,0,-1,1203,953,0,0
-14,71,0,0,0,0,0,0,0,0,0,-1,1210,953,0,0
-7,71,0,0,0,0,0,0,0,0,0,-1,1217,953,0,0
0,71,0,0,0,0,0,0,0,0,0,-1,1224,953,0,0
7,71,0,0,0,0,0,0,0,0,0,-1,1231,953,0,0
14,71,0,0,0,0,0,0,0,0,0,-1,1238,953,0,0
21,71,0,0,0,0,0,0,0,0,0,-1,1245,953,0,0
28,71,0,0,0,0,0,0,0,0,0,-1,1252,953,0,0
35,71,0,0,0,0,0,0,0,0,0,-1,1259,953,0,0
42,71,0,0,0,0,0,0,0,0,0,-1,1266,953,0,0
49,71,0,0,0,0,0,0,0,0,0,-1,1273,953,0,0
56,71,0,0,0,0,0,0,0,0,0,-1,1280,953,0,0
63,71,0,0,0,0,0,0,0,0,0,-1,1287,953,0,0
70,71,0,0,0,0,0,0,0,0,0,-1,1294,953,0,0
77,71,0,0,0,0,0,0,0,0,0,-1,1301,953,0,0
84,71,0,0,0,0,0,0,0,0,0,-1,1308,953,0,0
91,71,0,0,0,0,0,0,0,0,0,-1,1315,953,0,0
98,71,0,0,0,0,0,0,0,0,0,-1,1322,953,0,0
105,71,0,0,0,0,0,0,0,0,0,-1,1329,953,0,0
112,71,0,0,0,0,0,0,0,0,0,-1,1336,953,0,0
119,71,0,0,0,0,0,0,0,0,0,-1,1343,953,0,0
126,71,0,0,0,0,0,0,0,0,0,-1,1350,953,0,0
133,71,0,0,0,0,0,0,0,0,0,-1,1357,953,0,0
140,71,0,0,0,0,0,0,0,0,0,-1,1364,953,0,0
147,71,0,0,0,0,0,0,0,0,0,-1,1371,953,0,0
154,71,0,0,0,0,0,0,0,0,0,-1,1378,953,0,0
161,71,0,0,0,0,0,0,0,0,0,-1,1385,953,0,0
168,71,0,0,0,0,0,0,0,0,0,-1,1392,953,0,0
175,71,0,0,0,0,0,0,0,0,0,-1,1399,953,0,0
182,71,0,0,0,0,0,0,0,0,0,-1,1406,953,0,0
189,71,0,0,0,0,0,0,0,0,0,-1,1413,953,0,0
196,71,0,0,0,0,0,0,0,0,0,-1,1420,953,0,0
203,71,0,0,0,0,0,0,0,0,0,-1,1427,953,0,0
210,71,0,0,0,0,0,0,0,0,0,-1,1434,953,0,0
217,71,0,0,0,0,0,0,0,0,0,-1,1441,953,0,0
224,71,0,0,0,0,0,0,0,0,0,-1,1448,953,0,0
231,71,0,0,0,0,0,0,0,0,0,-1,1455,953,0,0
238,71,0,0,0,0,0,0,0,0,0,-1,1462,953,0,0
245,71,0,0,0,0,0,0,0,0,0,-1,1469,953,0,0
252,71,0,0,0,0,0,0,0,0,0,-1,1476,953,0,0
259,71,0,0,0,0,0,0,0,0,0,-1,1483,953,0,0
266,71,0,0,0,0,0,0,0,0,0,-1,1490,953,0,0
273,71,0,0,0,0,0,0,0,0,0,-1,1497,953,0,0
280,71,0,0,0,0,0,0,0,0,0,-1,1504,953,0,0
287,71,0,0,0,0,0,0,0,0,0,-1,1511,953,0,0
294,71,0,0,0,0,0,0,0,0,0,-1,1518,953,0,0
301,71,0,0,0,0,0,0,0,0,0,-1,1525,953,0,0
308,71,0,0,0,0,0,0,0,0,0,-1,1532,953,0,0
315,71,0,0,0,0,0,0,0,0,0,-1,1539,953,0,0
322,71,0,0,0,0,0,0,0,0,0,-1,1546,953,0,0
329,71,0,0,0,0,0,0,0,0,0,-1,1553,953,0,0
336,71,0,0,0,0,0,0,0,0,0,-1,1560,953,0,0
343,71,0,0,0,0,0,0,0,0,0,-1,1567,953,0,0
350,71,0,0,0,0,0,0,0,0,0,-1,1574,953,0,0
357,71,0,0,0,0,0,0,0,0,0,-1,1581,953,0,0
364,71,0,0,0,0,0,0,0,0,0,-1,1588,953,0,0
371,71,0,0,0,0,0,0,0,0,0,-1,1595,953,0,0
378,71,0,0,0,0,0,0,0,0,0,-1,1602,953,0,0
385,71,0,0,0,0,0,0,0,0,0,-1,1609,953,0,0
392,71,0,0,0,0,0,0,0,0,0,-1,1616,953,0,0
399,71,0,0,0,0,0,0,0,0,0,-1,1623,953,0,0
406,71,0,0,0,0,0,0,0,0,0,-1,1630,953,0,0
413,71,0,0,0,0,0,0,0,0,0,-1,1637,953,0,0
420,71,0,0,0,0,0,0,0,0,0,-1,1644,953,0,0
427,71,0,0,0,0,0,0,0,0,0,-1,1651,953,0,0
434,71,0,0,0,0,0,0,0,0,0,-1,1658,953,0,0
441,71,0,0,0,0,0,0,0,0,0,-1,1665,953,0,0
448,71,0,0,0,0,0,0,0,0,0,-1,1672,953,0,0
455,71,0,0,0,0,0,0,0,0,0,-1,1679,953,0,0
462,71,0,0,0,0,0,0,0,0,0,-1,1686,953,0,0
469,71,0,0,0,0,0,0,0,0,0,-1,1693,953,0,0
476,71,0,0,0,0,0,0,0,0,0,-1,1700,953,0,0
483,71,0,0,0,0,0,0,0,0,0,-1,1707,953,0,0
490,71,0,0,0,0,0,0,0,0,0,-1,1714,953,0,0
497,71,0,0,0,0,0,0,0,0,0,-1,1721,953,0,0
504,71,0,0,0,0,0,0,0,0,0,-1,1728,953,0,0
511,71,0,0,0,0,0,0,0,0,0,-1,1735,953,0,0
518,71,0,0,0,0,0,0,0,0,0,-1,1742,953,0,0
525,71,0,0,0,0,0,0,0,0,0,-1,1749,953,0,0
532,71,0,0,0,0,0,0,0,0,0,-1,1756,953,0,0
539,71,0,0,0,0,0,0,0,0,0,-1,1763,953,0,0
546,71,0,0,0,0,0,0,0,0,0,-1,1770,953,0,0
553,71,0,0,0,0,0,0,0,0,0,-1,1777,953,0,0
560,71,0,0,0,0,0,0,0,0,0,-1,1784,953,0,0
567,71,0,0,0,0,0,0,0,0,0,-1,1791,953,0,0
574,71,0,0,0,0,0,0,0,0,0,-1,1798,953,0,0
581,71,0,0,0,0,0,0,0,0,0,-1,1805,953,0,0
588,71,0,0,0,0,0,0,0,0,0,-1,1812,953,0,0
595,71,0,0,0,0,0,0,0,0,0,-1,1819,953,0,0
602,71,0,0,0,0,0,0,0,0,0,-1,1826,953,0,0
609,71,0,0,0,0,0,0,0,0,0,-1,1833,953,0,0
616,71,0,0,0,0,0,0,0,0,0,-1,1840,953,0,0
623,71,0,0,0,0,0,0,0,0,0,-1,1847,953,0,0
630,71,0,0,0,0,0,0,0,0,0,-1,1854,953,0,0
637,71,78.3623,2.35919,-0.0126389,0.00199438,0.00460762,0.00332432,-0.0139688,1.28979,0.0105959,0.0419422,1861,953,78.3623,-2.35918
644,71,78.2285,2.42633,-0.00986452,0.00115198,0.00351111,0.00217586,-0.0108884,1.28705,0.00808244,0.0439762,1868,953,78.2286,-2.42632
651,71,78.092,2.42944,-0.00757574,0.000512485,0.00272288,0.00134371,-0.00840697,1.27451,0.00610207,0.0422553,1875,953,78.092,-2.42944
658,71,77.9794,2.51917,-0.00549585,0.000171944,0.00216768,0.000905932,-0.00622984,1.24431,0.0044858,0.0378248,1882,953,77.9794,-2.51919
665,71,77.9934,2.69861,-0.00354697,-2.98078e-05,0.00167725,0.00064179,-0.00421857,1.18993,0.00304891,0.038681,1889,953,77.9935,-2.69859
672,71,77.8936,2.54523,-0.00246729,-0.000339688,0.00142959,0.000378473,-0.00318545,1.10527,0.00226038,0.0393482,1896,953,77.8935,-2.54526
679,71,77.9243,2.474,-0.00202153,-0.000838042,0.00134054,3.55478e-05,-0.00289512,0.993247,0.00194204,0.0388572,1903,953,77.9243,-2.47401
686,71,77.8533,2.44037,-0.00174381,-0.0013341,0.00101197,-0.000506455,-0.00257146,0.885264,0.0015729,0.0380052,1910,953,77.8533,-2.44039
693,71,77.8068,2.34686,-0.0017742,-0.00162033,0.00064064,-0.00105202,-0.0023425,0.845158,0.00135478,0.0334898,1917,953,77.8068,-2.34684
700,71,77.853,2.38947,-0.00209212,-0.00155757,0.000227349,-0.00147396,-0.00217573,1.21837,0.00128226,0.0320988,1924,953,77.8531,-2.38945
707,71,77.9126,2.50177,0,0,0,0,0,0,0,-1,1931,953,77.9126,-2.50175
714,71,75.7002,4.9696,0,0,0,0,0,0,0,-1,1938,953,75.7001,-4.9696
721,71,75.318,5.68085,-0.00413187,0.0007644,-0.00135217,0.001113,-0.00448047,-1.31848,0.00341891,0.037182,1945,953,75.3179,-5.68085
728,71,75.0353,6.45654,-0.00442796,0.00203357,-0.00162977,0.00242137,-0.00481576,-1.3372,0.0042539,0.0398272,1952,953,75.0353,-6.45653
735,71,75.0378,7.03259,-0.00463747,0.00407651,-0.00192428,0.00448252,-0.00504348,-1.36285,0.00550302,0.0267826,1959,953,75.0379,-7.03257
742,71,75.0585,7.52875,-0.00498315,0.00661123,-0.00233308,0.00706309,-0.00543501,-1.37949,0.00723616,0.0261571,1966,953,75.0584,-7.52874
749,71,74.9751,8.01373,-0.00483372,0.0104551,-0.00263968,0.010898,-0.00527665,-1.40455,0.00952456,0.0227512,1973,953,74.9751,-8.01375
756,71,74.9038,8.47479,-0.00375222,0.0159363,-0.00245133,0.0162369,-0.00405283,-1.44877,0.0123984,0.0196029,1980,953,74.9038,-8.47476
763,71,74.791,8.99152,-0.00138642,0.0228221,-0.00157493,0.0229241,-0.00148845,-1.5061,0.0158023,0.0224454,1987,953,74.7909,-8.99154
770,71,74.5039,9.42334,0.0018068,0.030203,-0.000135666,0.0302037,0.00180615,-1.56602,0.0195615,0.0269371,1994,953,74.5038,-9.42334
777,71,74.3086,9.89679,0.00562157,0.0383575,0.00235201,0.0385257,0.00545345,1.49944,0.0240727,0.0479949,2001,953,74.3085,-9.89679
784,71,74.4194,10.7604,0.011886,0.0475919,0.00642892,0.0487141,0.0107638,1.39797,0.029549,0.0491207,2008,953,74.4195,-10.7604
791,71,74.2212,11.595,0,0,0,0,0,0,0,-1,2015,953,74.2213,-11.5951
798,71,74.6455,8.40894,0,0,0,0,0,0,0,-1,2022,953,74.6456,-8.40892
805,71,59.978,6.41992,0,0,0,0,0,0,0,-1,2029,953,59.9781,-6.41992
812,71,0,0,0,0,0,0,0,0,0,-1,2036,953,0,0
-700,64,0,0,0,0,0,0,0,0,0,-1,524,960,0,0
-693,64,0,0,0,0,0,0,0,0,0,-1,531,960,0,0
-686,64,-57.9442,13.6801,0,0,0,0,0,0,0,-1,538,960,-57.9441,-13.6801
-679,64,-58.0588,10.5155,0,0,0,0,0,0,0,-1,545,960,-58.0588,-10.5155
-672,64,-58.2828,8.67126,0,0,0,0,0,0,0,-1,552,960,-58.2828,-8.67129
-665,64,-59.571,9.5426,0,0,0,0,0,0,0,-1,559,960,-59.5711,-9.54262
-658,64,-59.5292,9.41626,0,0,0,0,0,0,0,-1,566,960,-59.5293,-9.41626
-651,64,-60.301,9.84808,0,0,0,0,0,0,0,-1,573,960,-60.301,-9.84806
-644,64,-60.175,9.08484,0.0307181,0.0234845,0.0329064,0.0602059,-0.00600329,0.730662,0.0422807,0.0417762,580,960,-60.175,-9.08486
-637,64,-60.0522,8.409,0.0169825,0.0216043,0.0216107,0.0410273,-0.00244047,0.838662,0.0282002,0.0209581,587,960,-60.0522,-8.40903
-630,64,-60.1246,7.96082,0.00873437,0.0177193,0.0144107,0.0283216,-0.0018679,0.936496,0.0195335,0.0159069,594,960,-60.1246,-7.9608
-623,64,-60.182,7.49976,0.00201765,0.0135043,0.0086269,0.0181248,-0.00260287,1.07908,0.0130377,0.0159088,601,960,-60.182,-7.49978
-616,64,-60.2455,6.98352,-0.000619633,0.00867335,0.0053864,0.0111405,-0.00308673,1.14129,0.00864164,0.0194358,608,960,-60.2455,-6.9835
-609,64,-60.2251,6.50006,-0.000582387,0.00502271,0.00477357,0.00775562,-0.00331529,1.05084,0.00656093,0.0185605,615,960,-60.2251,-6.50007
-602,64,-60.2068,6.00067,-0.00056267,0.00268837,0.00432988,0.0056878,-0.0035621,0.964967,0.00538724,0.0175842,622,960,-60.2068,-6.00068
-595,64,-60.2339,5.54327,-0.000313436,0.00148997,0.00378917,0.00448325,-0.00330672,0.90221,0.00451461,0.0308441,629,960,-60.2339,-5.54326
-588,64,-60.0399,5.01959,-0.000237251,0.000304799,0.00340938,0.00345391,-0.00338636,0.825062,0.00394929,0.0485062,636,960,-60.0399,-5.01959
-581,64,-59.6884,4.34271,0,0,0,0,0,0,0,-1,643,960,-59.6884,-4.3427
-574,64,-61.6239,0.627808,0,0,0,0,0,0,0,-1,650,960,-61.6239,-0.627782
-567,64,-61.6528,0.534485,-0.000299295,-0.00120365,0.00199834,0.00129739,-0.00280033,0.674134,0.00241828,0.025705,657,960,-61.6529,-0.534455
-560,64,-61.5892,0.826233,-0.000399975,-0.000762205,0.00153463,0.000964195,-0.00212637,0.726661,0.00182591,0.0365551,664,960,-61.5891,-0.826259
-553,64,-61.5463,1.14368,-0.000527488,8.92038e-05,0.000982037,0.000810165,-0.00124845,0.937517,0.00119749,0.0437419,671,960,-61.5462,-1.14366
-546,64,-61.7969,1.03143,-0.000580463,0.00119789,0.000264985,0.00123653,-0.000619107,1.42598,0.00109094,0.0426751,678,960,-61.7969,-1.03143
-539,64,-61.7778,0.971375,-0.000754256,0.0021803,-0.000772763,0.00237135,-0.000945311,-1.32842,0.001973,0.0429515,685,960,-61.7778,-0.971386
-532,64,-61.7837,1.2088,-0.00082589,0.00266703,-0.00221412,0.00374058,-0.00189944,-1.11933,0.00331359,0.0440372,692,960,-61.7837,-1.20879
-525,64,-61.892,0.805237,-0.000749927,0.00338577,-0.0037644,0.00561288,-0.00297704,-1.03656,0.00503662,0.0441658,699,960,-61.8921,-0.805263
-518,64,0,0,0,0,0,0,0,0,0,-1,706,960,0,0
-511,64,0,0,0,0,0,0,0,0,0,-1,713,960,0,0
-504,64,0,0,0,0,0,0,0,0,0,-1,720,960,0,0
-497,64,0,0,0,0,0,0,0,0,0,-1,727,960,0,0
-490,64,0,0,0,0,0,0,0,0,0,-1,734,960,0,0
-483,64,0,0,0,0,0,0,0,0,0,-1,741,960,0,0
-476,64,0,0,0,0,0,0,0,0,0,-1,748,960,0,0
-469,64,0,0,0,0,0,0,0,0,0,-1,755,960,0,0
-462,64,0,0,0,0,0,0,0,0,0,-1,762,960,0,0
-455,64,0,0,0,0,0,0,0,0,0,-1,769,960,0,0
-448,64,0,0,0,0,0,0,0,0,0,-1,776,960,0,0
-441,64,0,0,0,0,0,0,0,0,0,-1,783,960,0,0
-434,64,0,0,0,0,0,0,0,0,0,-1,790,960,0,0
-427,64,0,0,0,0,0,0,0,0,0,-1,797,960,0,0
-420,64,0,0,0,0,0,0,0,0,0,-1,804,960,0,0
-413,64,0,0,0,0,0,0,0,0,0,-1,811,960,0,0
-406,64,0,0,0,0,0,0,0,0,0,-1,818,960,0,0
-399,64,0,0,0,0,0,0,0,0,0,-1,825,960,0,0
-392,64,0,0,0,0,0,0,0,0,0,-1,832,960,0,0
-385,64,0,0,0,0,0,0,0,0,0,-1,839,960,0,0
-378,64,0,0,0,0,0,0,0,0,0,-1,846,960,0,0
-371,64,0,0,0,0,0,0,0,0,0,-1,853,960,0,0
-364,64,0,0,0,0,0,0,0,0,0,-1,860,960,0,0
-357,64,0,0,0,0,0,0,0,0,0,-1,867,960,0,0
-350,64,0,0,0,0,0,0,0,0,0,-1,874,960,0,0
-343,64,0,0,0,0,0,0,0,0,0,-1,881,960,0,0
-336,64,0,0,0,0,0,0,0,0,0,-1,888,960,0,0
-329,64,0,0,0,0,0,0,0,0,0,-1,895,960,0,0
-322,64,0,0,0,0,0,0,0,0,0,-1,902,960,0,0
-315,64,0,0,0,0,0,0,0,0,0,-1,909,960,0,0
-308,64,0,0,0,0,0,0,0,0,0,-1,916,960,0,0
-301,64,0,0,0,0,0,0,0,0,0,-1,923,960,0,0
-294,64,0,0,0,0,0,0,0,0,0,-1,930,960,0,0
-287,64,0,0,0,0,0,0,0,0,0,-1,937,960,0,0
-280,64,0,0,0,0,0,0,0,0,0,-1,944,960,0,0
-273,64,0,0,0,0,0,0,0,0,0,-1,951,960,0,0
-266,64,0,0,0,0,0,0,0,0,0,-1,958,960,0,0
-259,64,0,0,0,0,0,0,0,0,0,-1,965,960,0,0
-252,64,0,0,0,0,0,0,0,0,0,-1,972,960,0,0
-245,64,0,0,0,0,0,0,0,0,0,-1,979,960,0,0
-238,64,0,0,0,0,0,0,0,0,0,-1,986,960,0,0
-231,64,0,0,0,0,0,0,0,0,0,-1,993,960,0,0
-224,64,0,0,0,0,0,0,0,0,0,-1,1000,960,0,0
-217,64,0,0,0,0,0,0,0,0,0,-1,1007,960,0,0
-210,64,0,0,0,0,0,0,0,0,0,-1,1014,960,0,0
-203,64,0,0,0,0,0,0,0,0,0,-1,1021,960,0,0
-196,64,0,0,0,0,0,0,0,0,0,-1,1028,960,0,0
-189,64,0,0,0,0,0,0,0,0,0,-1,1035,960,0,0
-182,64,0,0,0,0,0,0,0,0,0,-1,1042,960,0,0
-175,64,0,0,0,0,0,0,0,0,0,-1,1049,960,0,0
-168,64,0,0,0,0,0,0,0,0,0,-1,1056,960,0,0
-161,64,0,0,0,0,0,0,0,0,0,-1,1063,960,0,0
-154,64,0,0,0,0,0,0,0,0,0,-1,1070,960,0,0
-147,64,0,0,0,0,0,0,0,0,0,-1,1077,960,0,0
-140,64,0,0,0,0,0,0,0,0,0,-1,1084,960,0,0
-133,64,0,0,0,0,0,0,0,0,0,-1,1091,960,0,0
-126,64,0,0,0,0,0,0,0,0,0,-1,1098,960,0,0
-119,64,0,0,0,0,0,0,0,0,0,-1,1105,960,0,0
-112,64,0,0,0,0,0,0,0,0,0,-1,1112,960,0,0
-105,64,0,0,0,0,0,0,0,0,0,-1,1119,960,0,0
-98,64,0,0,0,0,0,0,0,0,0,-1,1126,960,0,0
-91,64,0,0,0,0,0,0,0,0,0,-1,1133,960,0,0
-84,64,0,0,0,0,0,0,0,0,0,-1,1140,960,0,0
-77,64,0,0,0,0,0,0,0,0,0,-1,1147,960,0,0
-70,64,0,0,0,0,0,0,0,0,0,-1,1154,960,0,0
-63,64,0,0,0,0,0,0,0,0,0,-1,1161,960,0,0
-56,64,0,0,0,0,0,0,0,0,0,-1,1168,960,0,0
-49,64,0,0,0,0,0,0,0,0,0,-1,1175,960,0,0
-42,64,0,0,0,0,0,0,0,0,0,-1,1182,960,0,0
-35,64,0,0,0,0,0,0,0,0,0,-1,1189,960,0,0
-28,64,0,0,0,0,0,0,0,0,0,-1,1196,960,0,0
-21,64,0,0,0,0,0,0,0,0,0,-1,1203,960,0,0
-14,64,0,0,0,0,0,0,0,0,0,-1,1210,960,0,0
-7,64,0,0,0,0,0,0,0,0,0,-1,1217,960,0,0
0,64,0,0,0,0,0,0,0,0,0,-1,1224,960,0,0
7,64,0,0,0,0,0,0,0,0,0,-1,1231,960,0,0
14,64,0,0,0,0,0,0,0,0,0,-1,1238,960,0,0
21,64,0,0,0,0,0,0,0,0,0,-1,1245,960,0,0
28,64,0,0,0,0,0,0,0,0,0,-1,1252,960,0,0
35,64,0,0,0,0,0,0,0,0,0,-1,1259,960,0,0
42,64,0,0,0,0,0,0,0,0,0,-1,1266,960,0,0
49,64,0,0,0,0,0,0,0,0,0,-1,1273,960,0,0
56,64,0,0,0,0,0,0,0,0,0,-1,1280,960,0,0
63,64,0,0,0,0,0,0,0,0,0,-1,1287,960,0,0
70,64,0,0,0,0,0,0,0,0,0,-1,1294,960,0,0
77,64,0,0,0,0,0,0,0,0,0,-1,1301,960,0,0
84,64,0,0,0,0,0,0,0,0,0,-1,1308,960,0,0
91,64,0,0,0,0,0,0,0,0,0,-1,1315,960,0,0
98,64,0,0,0,0,0,0,0,0,0,-1,1322,960,0,0
105,64,0,0,0,0,0,0,0,0,0,-1,1329,960,0,0
112,64,0,0,0,0,0,0,0,0,0,-1,1336,960,0,0
119,64,0,0,0,0,0,0,0,0,0,-1,1343,960,0,0
126,64,0,0,0,0,0,0,0,0,0,-1,1350,960,0,0
133,64,0,0,0,0,0,0,0,0,0,-1,1357,960,0,0
140,64,0,0,0,0,0,0,0,0,0,-1,1364,960,0,0
147,64,0,0,0,0,0,0,0,0,0,-1,1371,960,0,0
154,64,0,0,0,0,0,0,0,0,0,-1,1378,960,0,0
161,64,0,0,0,0,0,0,0,0,0,-1,1385,960,0,0
168,64,0,0,0,0,0,0,0,0,0,-1,1392,960,0,0
175,64,0,0,0,0,0,0,0,0,0,-1,1399,960,0,0
182,64,0,0,0,0,0,0,0,0,0,-1,1406,960,0,0
189,64,0,0,0,0,0,0,0,0,0,-1,1413,960,0,0
196,64,0,0,0,0,0,0,0,0,0,-1,1420,960,0,0
203,64,0,0,0,0,0,0,0,0,0,-1,1427,960,0,0
210,64,0,0,0,0,0,0,0,0,0,-1,1434,960,0,0
217,64,0,0,0,0,0,0,0,0,0,-1,1441,960,0,0
224,64,0,0,0,0,0,0,0,0,0,-1,1448,960,0,0
231,64,0,0,0,0,0,0,0,0,0,-1,1455,960,0,0
238,64,0,0,0,0,0,0,0,0,0,-1,1462,960,0,0
245,64,0,0,0,0,0,0,0,0,0,-1,1469,960,0,0
252,64,0,0,0,0,0,0,0,0,0,-1,1476,960,0,0
259,64,0,0,0,0,0,0,0,0,0,-1,1483,960,0,0
266,64,0,0,0,0,0,0,0,0,0,-1,1490,960,0,0
273,64,0,0,0,0,0,0,0,0,0,-1,1497,960,0,0
280,64,0,0,0,0,0,0,0,0,0,-1,1504,960,0,0
287,64,0,0,0,0,0,0,0,0,0,-1,1511,960,0,0
294,64,0,0,0,0,0,0,0,0,0,-1,1518,960,0,0
301,64,0,0,0,0,0,0,0,0,0,-1,1525,960,0,0
308,64,0,0,0,0,0,0,0,0,0,-1,1532,960,0,0
315,64,0,0,0,0,0,0,0,0,0,-1,1539,960,0,0
322,64,0,0,0,0,0,0,0,0,0,-1,1546,960,0,0
329,64,0,0,0,0,0,0,0,0,0,-1,1553,960,0,0
336,64,0,0,0,0,0,0,0,0,0,-1,1560,960,0,0
343,64,0,0,0,0,0,0,0,0,0,-1,1567,960,0,0
350,64,0,0,0,0,0,0,0,0,0,-1,1574,960,0,0
357,64,0,0,0,0,0,0,0,0,0,-1,1581,960,0,0
364,64,0,0,0,0,0,0,0,0,0,-1,1588,960,0,0
371,64,0,0,0,0,0,0,0,0,0,-1,1595,960,0,0
378,64,0,0,0,0,0,0,0,0,0,-1,1602,960,0,0
385,64,0,0,0,0,0,0,0,0,0,-1,1609,960,0,0
392,64,0,0,0,0,0,0,0,0,0,-1,1616,960,0,0
399,64,0,0,0,0,0,0,0,0,0,-1,1623,960,0,0
406,64,0,0,0,0,0,0,0,0,0,-1,1630,960,0,0
413,64,0,0,0,0,0,0,0,0,0,-1,1637,960,0,0
420,64,0,0,0,0,0,0,0,0,0,-1,1644,960,0,0
427,64,0,0,0,0,0,0,0,0,0,-1,1651,960,0,0
434,64,0,0,0,0,0,0,0,0,0,-1,1658,960,0,0
441,64,0,0,0,0,0,0,0,0,0,-1,1665,960,0,0
448,64,0,0,0,0,0,0,0,0,0,-1,1672,960,0,0
455,64,0,0,0,0,0,0,0,0,0,-1,1679,960,0,0
462,64,0,0,0,0,0,0,0,0,0,-1,1686,960,0,0
469,64,0,0,0,0,0,0,0,0,0,-1,1693,960,0,0
476,64,0,0,0,0,0,0,0,0,0,-1,1700,960,0,0
483,64,0,0,0,0,0,0,0,0,0,-1,1707,960,0,0
490,64,0,0,0,0,0,0,0,0,0,-1,1714,960,0,0
497,64,0,0,0,0,0,0,0,0,0,-1,1721,960,0,0
504,64,0,0,0,0,0,0,0,0,0,-1,1728,960,0,0
511,64,0,0,0,0,0,0,0,0,0,-1,1735,960,0,0
518,64,0,0,0,0,0,0,0,0,0,-1,1742,960,0,0
525,64,0,0,0,0,0,0,0,0,0,-1,1749,960,0,0
532,64,0,0,0,0,0,0,0,0,0,-1,1756,960,0,0
539,64,0,0,0,0,0,0,0,0,0,-1,1763,960,0,0
546,64,0,0,0,0,0,0,0,0,0,-1,1770,960,0,0
553,64,0,0,0,0,0,0,0,0,0,-1,1777,960,0,0
560,64,0,0,0,0,0,0,0,0,0,-1,1784,960,0,0
567,64,0,0,0,0,0,0,0,0,0,-1,1791,960,0,0
574,64,0,0,0,0,0,0,0,0,0,-1,1798,960,0,0
581,64,0,0,0,0,0,0,0,0,0,-1,1805,960,0,0
588,64,0,0,0,0,0,0,0,0,0,-1,1812,960,0,0
595,64,0,0,0,0,0,0,0,0,0,-1,1819,960,0,0
602,64,0,0,0,0,0,0,0,0,0,-1,1826,960,0,0
609,64,0,0,0,0,0,0,0,0,0,-1,1833,960,0,0
616,64,0,0,0,0,0,0,0,0,0,-1,1840,960,0,0
623,64,0,0,0,0,0,0,0,0,0,-1,1847,960,0,0
630,64,0,0,0,0,0,0,0,0,0,-1,1854,960,0,0
637,64,0,0,0,0,0,0,0,0,0,-1,1861,960,0,0
644,64,78.1061,2.50592,-0.00973208,-0.000297351,0.00366808,0.00096093,-0.0109904,1.24034,0.00766731,0.0439016,1868,960,78.1061,-2.50592
651,64,78.0532,2.50757,-0.00746357,-0.000545807,0.00285086,0.000477639,-0.00848702,1.22613,0.00582376,0.040832,1875,960,78.0532,-2.50755
658,64,77.9088,2.60968,-0.00543269,-0.00057893,0.00227823,0.000322864,-0.00633449,1.19389,0.00433462,0.037819,1882,960,77.9088,-2.60967
665,64,77.8566,2.71729,-0.00353852,-0.000518204,0.00175334,0.00028568,-0.0043424,1.14091,0.00299471,0.04183,1889,960,77.8566,-2.71729
672,64,77.9363,2.51416,-0.00236567,-0.000583651,0.00144559,0.000223461,-0.00317279,1.06158,0.00219347,0.0454228,1896,960,77.9363,-2.51418
679,64,77.9434,2.47028,-0.00178872,-0.000913136,0.0013368,5.57352e-05,-0.00275759,0.94364,0.00185725,0.0448679,1903,960,77.9433,-2.47028
686,64,77.8407,2.46777,-0.00141923,-0.00134692,0.00105113,-0.000331327,-0.00243482,0.802588,0.00152482,0.0398584,1910,960,77.8407,-2.46775
693,64,77.7665,2.40546,-0.00139425,-0.00163714,0.000728721,-0.000776926,-0.00225447,0.702829,0.0013224,0.0345249,1917,960,77.7664,-2.40548
700,64,77.8448,2.50238,-0.00166662,-0.0015663,0.000330441,-0.00128223,-0.00195069,0.860725,0.00114466,0.0336327,1924,960,77.8448,-2.50239
707,64,77.9259,2.54559,0,0,0,0,0,0,0,-1,1931,960,77.9259,-2.54557
714,64,76.5405,5.20276,0,0,0,0,0,0,0,-1,1938,960,76.5406,-5.20277
721,64,75.8896,5.8028,-0.00377057,0.000863538,-0.00117992,0.00114666,-0.0040537,-1.33529,0.00315493,0.0366796,1945,960,75.8897,-5.80282
728,64,75.5284,6.47491,-0.00422425,0.00222151,-0.00144444,0.0025304,-0.00453313,-1.36012,0.00413241,0.0285124,1952,960,75.5285,-6.47491
735,64,75.4742,7.08362,-0.00453338,0.00431403,-0.00172049,0.00463682,-0.00485618,-1.38533,0.00548127,0.0367562,1959,960,75.4742,-7.08365
742,64,75.6204,7.49103,-0.00510017,0.00682678,-0.0021162,0.00719113,-0.00546452,-1.4003,0.00732937,0.031104,1966,960,75.6203,-7.49101
749,64,75.5566,7.96625,-0.00532282,0.010575,-0.00248369,0.0109539,-0.00570181,-1.41937,0.00977427,0.0187392,1973,960,75.5565,-7.96625
756,64,75.4807,8.43195,-0.00486577,0.015935,-0.00246539,0.0162233,-0.00515398,-1.45442,0.0128819,0.018313,1980,960,75.4807,-8.43193
763,64,75.4375,8.92975,-0.00325297,0.0228465,-0.00182741,0.0229739,-0.0033803,-1.50123,0.0165581,0.0204495,1987,960,75.4376,-8.92977
770,64,75.1389,9.26874,-0.000778818,0.0303521,-0.000669303,0.0303665,-0.000793202,-1.54931,0.0205138,0.0208487,1994,960,75.1389,-9.26872
777,64,74.8696,9.69489,0.00216568,0.0385009,0.00137076,0.0385526,0.00211404,1.53314,0.0250268,0.0383294,2001,960,74.8697,-9.69487
784,64,75.1829,10.4329,0.0071834,0.0475897,0.00476944,0.048145,0.00662806,1.45488,0.0301313,0.0436277,2008,960,75.1828,-10.433
791,64,75.4319,11.2426,0,0,0,0,0,0,0,-1,2015,960,75.4318,-11.2426
798,64,76.1096,9.16791,0,0,0,0,0,0,0,-1,2022,960,76.1096,-9.16789
805,64,71.8018,7.16925,0,0,0,0,0,0,0,-1,2029,960,71.8016,-7.16926
812,64,0,0,0,0,0,0,0,0,0,-1,2036,960,0,0
-700,57,0,0,0,0,0,0,0,0,0,-1,524,967,0,0
-693,57,0,0,0,0,0,0,0,0,0,-1,531,967,0,0
-686,57,-59.8257,12.728,0,0,0,0,0,0,0,-1,538,967,-59.8256,-12.7281
-679,57,-60.3225,11.1479,0,0,0,0,0,0,0,-1,545,967,-60.3225,-11.148
-672,57,-54.0904,3.48206,0,0,0,0,0,0,0,-1,552,967,-54.0904,-3.48206
-665,57,-59.2086,5.76245,0,0,0,0,0,0,0,-1,559,967,-59.2086,-5.76246
-658,57,-60.5322,9.04443,0,0,0,0,0,0,0,-1,566,967,-60.5322,-9.04445
-651,57,-61.0509,8.784,0,0,0,0,0,0,0,-1,573,967,-61.0509,-8.78399
-644,57,-60.7858,8.47064,0.0320622,0.022536,0.0346223,0.0622475,-0.0076493,0.717041,0.0442689,0.0407684,580,967,-60.7859,-8.47062
-637,57,-60.6216,8.15167,0.0177085,0.0208667,0.0227809,0.0421232,-0.00354796,0.820001,0.0293364,0.0230675,587,967,-60.6216,-8.15168
-630,57,-60.7086,7.78687,0.00865338,0.0171807,0.014926,0.0284401,-0.00260602,0.92452,0.0198858,0.0151508,594,967,-60.7086,-7.78684
-623,57,-60.7589,7.41827,0.00127947,0.0132387,0.00860456,0.0177373,-0.00321919,1.08906,0.0130312,0.0149173,601,967,-60.7588,-7.41826
-616,57,-60.7602,6.98267,-0.00166793,0.00857582,0.00501567,0.0106227,-0.00371477,1.18334,0.00859202,0.0176351,608,967,-60.7602,-6.98264
-609,57,-60.7632,6.52307,-0.00153232,0.00500809,0.00435838,0.00718672,-0.00371094,1.10725,0.00639755,0.0177954,615,967,-60.7633,-6.52305
-602,57,-60.763,6.04059,-0.00135722,0.00272331,0.00385363,0.00504346,-0.00367737,1.02886,0.00505552,0.0118899,622,967,-60.763,-6.04059
-595,57,-60.7703,5.57092,-0.000999843,0.00163885,0.00325576,0.00383243,-0.00319343,0.977903,0.00406197,0.0228308,629,967,-60.7703,-5.57092
-588,57,-60.4384,5.31616,0,0,0,0,0,0,0,-1,636,967,-60.4384,-5.31618
-581,57,-61.6456,0.564392,0,0,0,0,0,0,0,-1,643,967,-61.6456,-0.564396
-574,57,-61.6698,0.473572,-0.000931571,-0.000944496,0.00200812,0.00107009,-0.00294616,0.783789,0.00240163,0.0365648,650,967,-61.6698,-0.473564
-567,57,-61.6737,0.527161,-0.000634597,-0.000739605,0.00161217,0.000925928,-0.00230013,0.76912,0.00191807,0.0328287,657,967,-61.6737,-0.527148
-560,57,-61.4863,0.939148,-0.000646607,-8.26717e-05,0.00123252,0.000899723,-0.001629,0.89785,0.00148006,0.0422319,664,967,-61.4863,-0.939158
-553,57,-61.5389,0.690735,-0.0007163,0.000976054,0.000798915,0.00129361,-0.00103386,1.19246,0.00134655,0.0423683,671,967,-61.5389,-0.690752
-546,57,-61.5739,0.704163,-0.000811373,0.00220704,0.000265679,0.00223024,-0.000834579,1.48367,0.00182961,0.0414491,678,967,-61.5739,-0.704181
-539,57,-61.6086,0.603333,-0.00124529,0.00308021,-0.000482668,0.00313342,-0.00129849,-1.46101,0.00263085,0.0421497,685,967,-61.6086,-0.60335
-532,57,-61.7212,0.830872,-0.00169961,0.00326084,-0.00150234,0.00368036,-0.00211913,-1.29849,0.00338854,0.0384342,692,967,-61.7212,-0.830862
-525,57,-61.871,1.07678,0,0,0,0,0,0,0,-1,699,967,-61.871,-1.07677
-518,57,0,0,0,0,0,0,0,0,0,-1,706,967,0,0
-511,57,0,0,0,0,0,0,0,0,0,-1,713,967,0,0
-504,57,0,0,0,0,0,0,0,0,0,-1,720,967,0,0
-497,57,0,0,0,0,0,0,0,0,0,-1,727,967,0,0
-490,57,0,0,0,0,0,0,0,0,0,-1,734,967,0,0
-483,57,0,0,0,0,0,0,0,0,0,-1,741,967,0,0
-476,57,0,0,0,0,0,0,0,0,0,-1,748,967,0,0
-469,57,0,0,0,0,0,0,0,0,0,-1,755,967,0,0
-462,57,0,0,0,0,0,0,0,0,0,-1,762,967,0,0
-455,57,0,0,0,0,0,0,0,0,0,-1,769,967,0,0
-448,57,0,0,0,0,0,0,0,0,0,-1,776,967,0,0
-441,57,0,0,0,0,0,0,0,0,0,-1,783,967,0,0
-434,57,0,0,0,0,0,0,0,0,0,-1,790,967,0,0
-427,57,0,0,0,0,0,0,0,0,0,-1,797,967,0,0
-420,57,0,0,0,0,0,0,0,0,0,-1,804,967,0,0
-413,57,0,0,0,0,0,0,0,0,0,-1,811,967,0,0
-406,57,0,0,0,0,0,0,0,0,0,-1,818,967,0,0
-399,57,0,0,0,0,0,0,0,0,0,-1,825,967,0,0
-392,57,0,0,0,0,0,0,0,0,0,-1,832,967,0,0
-385,57,0,0,0,0,0,0,0,0,0,-1,839,967,0,0
-378,57,0,0,0,0,0,0,0,0,0,-1,846,967,0,0
-371,57,0,0,0,0,0,0,0,0,0,-1,853,967,0,0
-364,57,0,0,0,0,0,0,0,0,0,-1,860,967,0,0
-357,57,0,0,0,0,0,0,0,0,0,-1,867,967,0,0
-350,57,0,0,0,0,0,0,0,0,0,-1,874,967,0,0
-343,57,0,0,0,0,0,0,0,0,0,-1,881,967,0,0
-336,57,0,0,0,0,0,0,0,0,0,-1,888,967,0,0
-329,57,0,0,0,0,0,0,0,0,0,-1,895,967,0,0
-322,57,0,0,0,0,0,0,0,0,0,-1,902,967,0,0
-315,57,0,0,0,0,0,0,0,0,0,-1,909,967,0,0
-308,57,0,0,0,0,0,0,0,0,0,-1,916,967,0,0
-301,57,0,0,0,0,0,0,0,0,0,-1,923,967,0,0
-294,57,0,0,0,0,0,0,0,0,0,-1,930,967,0,0
-287,57,0,0,0,0,0,0,0,0,0,-1,937,967,0,0
-280,57,0,0,0,0,0,0,0,0,0,-1,944,967,0,0
-273,57,0,0,0,0,0,0,0,0,0,-1,951,967,0,0
-266,57,0,0,0,0,0,0,0,0,0,-1,958,967,0,0
-259,57,0,0,0,0,0,0,0,0,0,-1,965,967,0,0
-252,57,0,0,0,0,0,0,0,0,0,-1,972,967,0,0
-245,57,0,0,0,0,0,0,0,0,0,-1,979,967,0,0
-238,57,0,0,0,0,0,0,0,0,0,-1,986,967,0,0
-231,57,0,0,0,0,0,0,0,0,0,-1,993,967,0,0
-224,57,0,0,0,0,0,0,0,0,0,-1,1000,967,0,0
-217,57,0,0,0,0,0,0,0,0,0,-1,1007,967,0,0
-210,57,0,0,0,0,0,0,0,0,0,-1,1014,967,0,0
-203,57,0,0,0,0,0,0,0,0,0,-1,1021,967,0,0
-196,57,0,0,0,0,0,0,0,0,0,-1,1028,967,0,0
-189,57,0,0,0,0,0,0,0,0,0,-1,1035,967,0,0
-182,57,0,0,0,0,0,0,0,0,0,-1,1042,967,0,0
-175,57,0,0,0,0,0,0,0,0,0,-1,1049,967,0,0
-168,57,0,0,0,0,0,0,0,0,0,-1,1056,967,0,0
-161,57,0,0,0,0,0,0,0,0,0,-1,1063,967,0,0
-154,57,0,0,0,0,0,0,0,0,0,-1,1070,967,0,0
-147,57,0,0,0,0,0,0,0,0,0,-1,1077,967,0,0
-140,57,0,0,0,0,0,0,0,0,0,-1,1084,967,0,0
-133,57,0,0,0,0,0,0,0,0,0,-1,1091,967,0,0
-126,57,0,0,0,0,0,0,0,0,0,-1,1098,967,0,0
-119,57,0,0,0,0,0,0,0,0,0,-1,1105,967,0,0
-112,57,0,0,0,0,0,0,0,0,0,-1,1112,967,0,0
-105,57,0,0,0,0,0,0,0,0,0,-1,1119,967,0,0
-98,57,0,0,0,0,0,0,0,0,0,-1,1126,967,0,0
-91,57,0,0,0,0,0,0,0,0,0,-1,1133,967,0,0
-84,57,0,0,0,0,0,0,0,0,0,-1,1140,967,0,0
-77,57,0,0,0,0,0,0,0,0,0,-1,1147,967,0,0
-70,57,0,0,0,0,0,0,0,0,0,-1,1154,967,0,0
-63,57,0,0,0,0,0,0,0,0,0,-1,1161,967,0,0
-56,57,0,0,0,0,0,0,0,0,0,-1,1168,967,0,0
-49,57,0,0,0,0,0,0,0,0,0,-1,1175,967,0,0
-42,57,0,0,0,0,0,0,0,0,0,-1,1182,967,0,0
-35,57,0,0,0,0,0,0,0,0,0,-1,1189,967,0,0
-28,57,0,0,0,0,0,0,0,0,0,-1,1196,967,0,0
-21,57,0,0,0,0,0,0,0,0,0,-1,1203,967,0,0
-14,57,0,0,0,0,0,0,0,0,0,-1,1210,967,0,0
-7,57,0,0,0,0,0,0,0,0,0,-1,1217,967,0,0
0,57,0,0,0,0,0,0,0,0,0,-1,1224,967,0,0
7,57,0,0,0,0,0,0,0,0,0,-1,1231,967,0,0
14,57,0,0,0,0,0,0,0,0,0,-1,1238,967,0,0
21,57,0,0,0,0,0,0,0,0,0,-1,1245,967,0,0
28,57,0,0,0,0,0,0,0,0,0,-1,1252,967,0,0
35,57,0,0,0,0,0,0,0,0,0,-1,1259,967,0,0
42,57,0,0,0,0,0,0,0,0,0,-1,1266,967,0,0
49,57,0,0,0,0,0,0,0,0,0,-1,1273,967,0,0
56,57,0,0,0,0,0,0,0,0,0,-1,1280,967,0,0
63,57,0,0,0,0,0,0,0,0,0,-1,1287,967,0,0
70,57,0,0,0,0,0,0,0,0,0,-1,1294,967,0,0
77,57,0,0,0,0,0,0,0,0,0,-1,1301,967,0,0
84,57,0,0,0,0,0,0,0,0,0,-1,1308,967,0,0
91,57,0,0,0,0,0,0,0,0,0,-1,1315,967,0,0
98,57,0,0,0,0,0,0,0,0,0,-1,1322,967,0,0
105,57,0,0,0,0,0,0,0,0,0,-1,1329,967,0,0
112,57,0,0,0,0,0,0,0,0,0,-1,1336,967,0,0
119,57,0,0,0,0,0,0,0,0,0,-1,1343,967,0,0
126,57,0,0,0,0,0,0,0,0,0,-1,1350,967,0,0
133,57,0,0,0,0,0,0,0,0,0,-1,1357,967,0,0
140,57,0,0,0,0,0,0,0,0,0,-1,1364,967,0,0
147,57,0,0,0,0,0,0,0,0,0,-1,1371,967,0,0
154,57,0,0,0,0,0,0,0,0,0,-1,1378,967,0,0
161,57,0,0,0,0,0,0,0,0,0,-1,1385,967,0,0
168,57,0,0,0,0,0,0,0,0,0,-1,1392,967,0,0
175,57,0,0,0,0,0,0,0,0,0,-1,1399,967,0,0
182,57,0,0,0,0,0,0,0,0,0,-1,1406,967,0,0
189,57,0,0,0,0,0,0,0,0,0,-1,1413,967,0,0
196,57,0,0,0,0,0,0,0,0,0,-1,1420,967,0,0
203,57,0,0,0,0,0,0,0,0,0,-1,1427,967,0,0
210,57,0,0,0,0,0,0,0,0,0,-1,1434,967,0,0
217,57,0,0,0,0,0,0,0,0,0,-1,1441,967,0,0
224,57,0,0,0,0,0,0,0,0,0,-1,1448,967,0,0
231,57,0,0,0,0,0,0,0,0,0,-1,1455,967,0,0
238,57,0,0,0,0,0,0,0,0,0,-1,1462,967,0,0
245,57,0,0,0,0,0,0,0,0,0,-1,1469,967,0,0
252,57,0,0,0,0,0,0,0,0,0,-1,1476,967,0,0
259,57,0,0,0,0,0,0,0,0,0,-1,1483,967,0,0
266,57,0,0,0,0,0,0,0,0,0,-1,1490,967,0,0
273,57,0,0,0,0,0,0,0,0,0,-1,1497,967,0,0
280,57,0,0,0,0,0,0,0,0,0,-1,1504,967,0,0
287,57,0,0,0,0,0,0,0,0,0,-1,1511,967,0,0
294,57,0,0,0,0,0,0,0,0,0,-1,1518,967,0,0
301,57,0,0,0,0,0,0,0,0,0,-1,1525,967,0,0
308,57,0,0,0,0,0,0,0,0,0,-1,1532,967,0,0
315,57,0,0,0,0,0,0,0,0,0,-1,1539,967,0,0
322,57,0,0,0,0,0,0,0,0,0,-1,1546,967,0,0
329,57,0,0,0,0,0,0,0,0,0,-1,1553,967,0,0
336,57,0,0,0,0,0,0,0,0,0,-1,1560,967,0,0
343,57,0,0,0,0,0,0,0,0,0,-1,1567,967,0,0
350,57,0,0,0,0,0,0,0,0,0,-1,1574,967,0,0
357,57,0,0,0,0,0,0,0,0,0,-1,1581,967,0,0
364,57,0,0,0,0,0,0,0,0,0,-1,1588,967,0,0
371,57,0,0,0,0,0,0,0,0,0,-1,1595,967,0,0
378,57,0,0,0,0,0,0,0,0,0,-1,1602,967,0,0
385,57,0,0,0,0,0,0,0,0,0,-1,1609,967,0,0
392,57,0,0,0,0,0,0,0,0,0,-1,1616,967,0,0
399,57,0,0,0,0,0,0,0,0,0,-1,1623,967,0,0
406,57,0,0,0,0,0,0,0,0,0,-1,1630,967,0,0
413,57,0,0,0,0,0,0,0,0,0,-1,1637,967,0,0
420,57,0,0,0,0,0,0,0,0,0,-1,1644,967,0,0
427,57,0,0,0,0,0,0,0,0,0,-1,1651,967,0,0
434,57,0,0,0,0,0,0,0,0,0,-1,1658,967,0,0
441,57,0,0,0,0,0,0,0,0,0,-1,1665,967,0,0
448,57,0,0,0,0,0,0,0,0,0,-1,1672,967,0,0
455,57,0,0,0,0,0,0,0,0,0,-1,1679,967,0,0
462,57,0,0,0,0,0,0,0,0,0,-1,1686,967,0,0
469,57,0,0,0,0,0,0,0,0,0,-1,1693,967,0,0
476,57,0,0,0,0,0,0,0,0,0,-1,1700,967,0,0
483,57,0,0,0,0,0,0,0,0,0,-1,1707,967,0,0
490,57,0,0,0,0,0,0,0,0,0,-1,1714,967,0,0
497,57,0,0,0,0,0,0,0,0,0,-1,1721,967,0,0
504,57,0,0,0,0,0,0,0,0,0,-1,1728,967,0,0
511,57,0,0,0,0,0,0,0,0,0,-1,1735,967,0,0
518,57,0,0,0,0,0,0,0,0,0,-1,1742,967,0,0
525,57,0,0,0,0,0,0,0,0,0,-1,1749,967,0,0
532,57,0,0,0,0,0,0,0,0,0,-1,1756,967,0,0
539,57,0,0,0,0,0,0,0,0,0,-1,1763,967,0,0
546,57,0,0,0,0,0,0,0,0,0,-1,1770,967,0,0
553,57,0,0,0,0,0,0,0,0,0,-1,1777,967,0,0
560,57,0,0,0,0,0,0,0,0,0,-1,1784,967,0,0
567,57,0,0,0,0,0,0,0,0,0,-1,1791,967,0,0
574,57,0,0,0,0,0,0,0,0,0,-1,1798,967,0,0
581,57,0,0,0,0,0,0,0,0,0,-1,1805,967,0,0
588,57,0,0,0,0,0,0,0,0,0,-1,1812,967,0,0
595,57,0,0,0,0,0,0,0,0,0,-1,1819,967,0,0
602,57,0,0,0,0,0,0,0,0,0,-1,1826,967,0,0
609,57,0,0,0,0,0,0,0,0,0,-1,1833,967,0,0
616,57,0,0,0,0,0,0,0,0,0,-1,1840,967,0,0
623,57,0,0,0,0,0,0,0,0,0,-1,1847,967,0,0
630,57,0,0,0,0,0,0,0,0,0,-1,1854,967,0,0
637,57,0,0,0,0,0,0,0,0,0,-1,1861,967,0,0
644,57,78.0656,2.39948,-0.00931304,-0.00143918,0.00348771,-0.000116499,-0.0106357,1.20831,0.00705197,0.0429673,1868,967,78.0656,-2.3995
651,57,77.941,2.49628,-0.00708208,-0.00135553,0.00271922,-0.00027007,-0.00816754,1.191,0.00535727,0.0353784,1875,967,77.941,-2.4963
658,57,77.8218,2.61292,-0.00511651,-0.00115764,0.00218807,-0.000186512,-0.00608764,1.15309,0.00399771,0.0335068,1882,967,77.8218,-2.61289
665,57,77.8521,2.55011,-0.00330367,-0.000919997,0.00168923,-4.44748e-05,-0.00417919,1.09262,0.00277142,0.0433129,1889,967,77.8521,-2.55012
672,57,78.1027,2.26068,-0.00208718,-0.00081475,0.00136931,5.89294e-05,-0.00296086,1.00287,0.00199384,0.0480554,1896,967,78.1026,-2.26071
679,57,77.8479,2.48743,-0.00140605,-0.00100799,0.00126062,6.92131e-05,-0.00248325,0.863693,0.00167905,0.0450877,1903,967,77.8479,-2.48742
686,57,77.7947,2.45917,-0.000966326,-0.00138408,0.00103062,-0.000123625,-0.00222678,0.685417,0.00144508,0.0409758,1910,967,77.7947,-2.45916
693,57,77.7798,2.48218,-0.000899562,-0.00167431,0.000762821,-0.000431392,-0.00214248,0.550458,0.00130844,0.0333829,1917,967,77.7798,-2.48219
700,57,77.8021,2.57849,-0.00113192,-0.00159872,0.000394413,-0.000907022,-0.00182362,0.518224,0.00105287,0.0261648,1924,967,77.8022,-2.57847
707,57,77.876,2.54858,0,0,0,0,0,0,0,-1,1931,967,77.876,-2.54861
714,57,76.8607,2.55151,0,0,0,0,0,0,0,-1,1938,967,76.8607,-2.55154
721,57,76.3538,6.07971,0,0,0,0,0,0,0,-1,1945,967,76.3537,-6.07969
728,57,76.1223,6.60651,-0.00404868,0.0024223,-0.00126695,0.00266152,-0.00428789,-1.38418,0.0040487,0.0264786,1952,967,76.1223,-6.60649
735,57,76.1376,7.09399,-0.0044985,0.00457466,-0.00155652,0.00483425,-0.00475809,-1.40554,0.0055382,0.0344128,1959,967,76.1376,-7.09399
742,57,76.1908,7.39691,-0.00532337,0.00706254,-0.00196741,0.00736754,-0.00562837,-1.417,0.00752555,0.0256366,1966,967,76.1908,-7.39689
749,57,76.0642,7.91473,-0.00594473,0.0107117,-0.0023928,0.0110486,-0.00628166,-1.43091,0.010131,0.0176494,1973,967,76.0641,-7.91473
756,57,75.9822,8.3623,-0.00612161,0.0158902,-0.00253559,0.0161785,-0.00640992,-1.45758,0.0134418,0.0147417,1980,967,75.9821,-8.36233
763,57,75.8635,8.78851,-0.00530084,0.0227176,-0.00214961,0.0228815,-0.0054648,-1.49467,0.017365,0.0150822,1987,967,75.8635,-8.7885
770,57,75.6858,9.12659,-0.00356939,0.0302925,-0.00128954,0.0303415,-0.00361843,-1.53279,0.0215354,0.0137304,1994,967,75.6857,-9.12657
777,57,75.5764,9.49927,-0.0014807,0.0384204,0.00033861,0.0384232,-0.00148358,1.56231,0.0261241,0.0272295,2001,967,75.5765,-9.49929
784,57,75.7202,9.9646,0.00242317,0.047367,0.00316999,0.0475895,0.00220069,1.50073,0.0310188,0.0438431,2008,967,75.7202,-9.96459
791,57,75.7517,10.4653,0,0,0,0,0,0,0,-1,2015,967,75.7517,-10.4653
798,57,76.5012,10.019,0,0,0,0,0,0,0,-1,2022,967,76.5013,-10.0191
805,57,76.834,10.7179,0,0,0,0,0,0,0,-1,2029,967,76.834,-10.7179
812,57,0,0,0,0,0,0,0,0,0,-1,2036,967,0,0
-700,50,0,0,0,0,0,0,0,0,0,-1,524,974,0,0
-693,50,-59.4189,0.249634,0,0,0,0,0,0,0,-1,531,974,-59.419,-0.249621
-686,50,-61.7518,11.7042,0,0,0,0,0,0,0,-1,538,974,-61.7518,-11.7042
-679,50,-57.8335,1.80328,0,0,0,0,0,0,0,-1,545,974,-57.8335,-1.80327
-672,50,-55.4601,3.58002,0,0,0,0,0,0,0,-1,552,974,-55.4601,-3.58001
-665,50,-55.0376,3.90332,0,0,0,0,0,0,0,-1,559,974,-55.0376,-3.90333
-658,50,-60.9537,7.23999,0,0,0,0,0,0,0,-1,566,974,-60.9537,-7.23997
-651,50,-61.0043,7.64819,0.0532837,0.0216054,0.0521658,0.0919619,-0.0170729,0.638006,0.0677201,0.0459909,573,974,-61.0043,-7.64821
-644,50,-60.9178,8.16895,0.0335875,0.0216389,0.0362073,0.0643101,-0.00908364,0.703633,0.0461999,0.0355205,580,974,-60.9179,-8.16894
-637,50,-61.0887,7.92926,0.0183356,0.0200167,0.0239011,0.043092,-0.00473975,0.802975,0.0304312,0.020228,587,974,-61.0888,-7.92927
-630,50,-61.2022,7.64105,0.00830447,0.0165541,0.0152982,0.0282738,-0.00341519,0.917081,0.0200846,0.0122564,594,974,-61.2022,-7.64105
-623,50,-61.2603,7.32776,0.00049224,0.0129183,0.00853631,0.0172632,-0.00385269,1.09998,0.012985,0.0140389,601,974,-61.2603,-7.32777
-616,50,-61.2588,6.97552,-0.00265828,0.00846283,0.00465466,0.0101539,-0.00434932,1.22232,0.00859406,0.0146817,608,974,-61.2588,-6.97554
-609,50,-61.2491,6.53333,-0.00239786,0.00498625,0.00396995,0.00671561,-0.00412722,1.15997,0.00631929,0.0131051,615,974,-61.2491,-6.53333
-602,50,-61.2609,6.08374,-0.00206881,0.00275346,0.00341412,0.00452202,-0.00383736,1.09284,0.00483168,0.0127714,622,974,-61.2609,-6.08372
-595,50,-61.304,5.6814,-0.0016207,0.00171349,0.00277121,0.0032804,-0.00318761,1.05619,0.00373444,0.0184705,629,974,-61.3039,-5.68143
-588,50,-61.2906,5.06079,0,0,0,0,0,0,0,-1,636,974,-61.2907,-5.06076
-581,50,-61.2253,4.12976,0,0,0,0,0,0,0,-1,643,974,-61.2253,-4.12973
-574,50,-61.6824,0.40741,-0.0012925,-0.000806484,0.00162196,0.000590567,-0.00268956,0.859758,0.00201889,0.0302327,650,974,-61.6824,-0.407435
-567,50,-61.6844,0.321716,-0.000958089,-0.000518026,0.00129171,0.000572262,-0.00204838,0.869759,0.00159102,0.0371888,657,974,-61.6844,-0.321709
-560,50,-61.5854,0.406616,-0.000897858,0.00026733,0.00101107,0.000851649,-0.00148218,1.04677,0.00136373,0.0404187,664,974,-61.5855,-0.406644
-553,50,-61.6053,0.421875,-0.000951208,0.0014602,0.000718992,0.0016583,-0.00114931,1.30194,0.00162983,0.0395844,671,974,-61.6053,-0.421869
-546,50,-61.548,0.618347,-0.00114751,0.00274834,0.000406046,0.00279021,-0.00118938,1.46804,0.00235877,0.0411508,678,974,-61.548,-0.61833
-539,50,-61.4489,0.727234,-0.00191368,0.00350628,1.13997e-05,0.0035063,-0.0019137,1.56869,0.00317395,0.0427767,685,974,-61.4488,-0.727235
-532,50,-61.5225,0.678894,-0.00272472,0.00350966,-0.000534929,0.00355522,-0.00277028,-1.48582,0.00366139,0.0396584,692,974,-61.5225,-0.678867
-525,50,-61.5781,0.800293,-0.00345246,0.0037314,-0.00124595,0.00394136,-0.00366242,-1.40385,0.00439103,0.0388015,699,974,-61.5781,-0.800266
-518,50,0,0,0,0,0,0,0,0,0,-1,706,974,0,0
-511,50,0,0,0,0,0,0,0,0,0,-1,713,974,0,0
-504,50,0,0,0,0,0,0,0,0,0,-1,720,974,0,0
-497,50,0,0,0,0,0,0,0,0,0,-1,727,974,0,0
-490,50,0,0,0,0,0,0,0,0,0,-1,734,974,0,0
-483,50,0,0,0,0,0,0,0,0,0,-1,741,974,0,0
-476,50,0,0,0,0,0,0,0,0,0,-1,748,974,0,0
-469,50,0,0,0,0,0,0,0,0,0,-1,755,974,0,0
-462,50,0,0,0,0,0,0,0,0,0,-1,762,974,0,0
-455,50,0,0,0,0,0,0,0,0,0,-1,769,974,0,0
-448,50,0,0,0,0,0,0,0,0,0,-1,776,974,0,0
-441,50,0,0,0,0,0,0,0,0,0,-1,783,974,0,0
-434,50,0,0,0,0,0,0,0,0,0,-1,790,974,0,0
-427,50,0,0,0,0,0,0,0,0,0,-1,797,974,0,0
-420,50,0,0,0,0,0,0,0,0,0,-1,804,974,0,0
-413,50,0,0,0,0,0,0,0,0,0,-1,811,974,0,0
-406,50,0,0,0,0,0,0,0,0,0,-1,818,974,0,0
-399,50,0,0,0,0,0,0,0,0,0,-1,825,974,0,0
-392,50,0,0,0,0,0,0,0,0,0,-1,832,974,0,0
-385,50,0,0,0,0,0,0,0,0,0,-1,839,974,0,0
-378,50,0,0,0,0,0,0,0,0,0,-1,846,974,0,0
-371,50,0,0,0,0,0,0,0,0,0,-1,853,974,0,0
-364,50,0,0,0,0,0,0,0,0,0,-1,860,974,0,0
-357,50,0,0,0,0,0,0,0,0,0,-1,867,974,0,0
-350,50,0,0,0,0,0,0,0,0,0,-1,874,974,0,0
-343,50,0,0,0,0,0,0,0,0,0,-1,881,974,0,0
-336,50,0,0,0,0,0,0,0,0,0,-1,888,974,0,0
-329,50,0,0,0,0,0,0,0,0,0,-1,895,974,0,0
-322,50,0,0,0,0,0,0,0,0,0,-1,902,974,0,0
-315,50,0,0,0,0,0,0,0,0,0,-1,909,974,0,0
-308,50,0,0,0,0,0,0,0,0,0,-1,916,974,0,0
-301,50,0,0,0,0,0,0,0,0,0,-1,923,974,0,0
-294,50,0,0,0,0,0,0,0,0,0,-1,930,974,0,0
-287,50,0,0,0,0,0,0,0,0,0,-1,937,974,0,0
-280,50,0,0,0,0,0,0,0,0,0,-1,944,974,0,0
-273,50,0,0,0,0,0,0,0,0,0,-1,951,974,0,0
-266,50,0,0,0,0,0,0,0,0,0,-1,958,974,0,0
-259,50,0,0,0,0,0,0,0,0,0,-1,965,974,0,0
-252,50,0,0,0,0,0,0,0,0,0,-1,972,974,0,0
-245,50,0,0,0,0,0,0,0,0,0,-1,979,974,0,0
-238,50,0,0,0,0,0,0,0,0,0,-1,986,974,0,0
-231,50,0,0,0,0,0,0,0,0,0,-1,993,974,0,0
-224,50,0,0,0,0,0,0,0,0,0,-1,1000,974,0,0
-217,50,0,0,0,0,0,0,0,0,0,-1,1007,974,0,0
-210,50,0,0,0,0,0,0,0,0,0,-1,1014,974,0,0
-203,50,0,0,0,0,0,0,0,0,0,-1,1021,974,0,0
-196,50,0,0,0,0,0,0,0,0,0,-1,1028,974,0,0
-189,50,0,0,0,0,0,0,0,0,0,-1,1035,974,0,0
-182,50,0,0,0,0,0,0,0,0,0,-1,1042,974,0,0
-175,50,0,0,0,0,0,0,0,0,0,-1,1049,974,0,0
-168,50,0,0,0,0,0,0,0,0,0,-1,1056,974,0,0
-161,50,0,0,0,0,0,0,0,0,0,-1,1063,974,0,0
-154,50,0,0,0,0,0,0,0,0,0,-1,1070,974,0,0
-147,50,0,0,0,0,0,0,0,0,0,-1,1077,974,0,0
-140,50,0,0,0,0,0,0,0,0,0,-1,1084,974,0,0
-133,50,0,0,0,0,0,0,0,0,0,-1,1091,974,0,0
-126,50,0,0,0,0,0,0,0,0,0,-1,1098,974,0,0
-119,50,0,0,0,0,0,0,0,0,0,-1,1105,974,0,0
-112,50,0,0,0,0,0,0,0,0,0,-1,1112,974,0,0
-105,50,0,0,0,0,0,0,0,0,0,-1,1119,974,0,0
-98,50,0,0,0,0,0,0,0,0,0,-1,1126,974,0,0
-91,50,0,0,0,0,0,0,0,0,0,-1,1133,974,0,0
-84,50,0,0,0,0,0,0,0,0,0,-1,1140,974,0,0
-77,50,0,0,0,0,0,0,0,0,0,-1,1147,974,0,0
-70,50,0,0,0,0,0,0,0,0,0,-1,1154,974,0,0
-63,50,0,0,0,0,0,0,0,0,0,-1,1161,974,0,0
-56,50,0,0,0,0,0,0,0,0,0,-1,1168,974,0,0
-49,50,0,0,0,0,0,0,0,0,0,-1,1175,974,0,0
-42,50,0,0,0,0,0,0,0,0,0,-1,1182,974,0,0
-35,50,0,0,0,0,0,0,0,0,0,-1,1189,974,0,0
-28,50,0,0,0,0,0,0,0,0,0,-1,1196,974,0,0
-21,50,0,0,0,0,0,0,0,0,0,-1,1203,974,0,0
-14,50,0,0,0,0,0,0,0,0,0,-1,1210,974,0,0
-7,50,0,0,0,0,0,0,0,0,0,-1,1217,974,0,0
0,50,0,0,0,0,0,0,0,0,0,-1,1224,974,0,0
7,50,0,0,0,0,0,0,0,0,0,-1,1231,974,0,0
14,50,0,0,0,0,0,0,0,0,0,-1,1238,974,0,0
21,50,0,0,0,0,0,0,0,0,0,-1,1245,974,0,0
28,50,0,0,0,0,0,0,0,0,0,-1,1252,974,0,0
35,50,0,0,0,0,0,0,0,0,0,-1,1259,974,0,0
42,50,0,0,0,0,0,0,0,0,0,-1,1266,974,0,0
49,50,0,0,0,0,0,0,0,0,0,-1,1273,974,0,0
56,50,0,0,0,0,0,0,0,0,0,-1,1280,974,0,0
63,50,0,0,0,0,0,0,0,0,0,-1,1287,974,0,0
70,50,0,0,0,0,0,0,0,0,0,-1,1294,974,0,0
77,50,0,0,0,0,0,0,0,0,0,-1,1301,974,0,0
84,50,0,0,0,0,0,0,0,0,0,-1,1308,974,0,0
91,50,0,0,0,0,0,0,0,0,0,-1,1315,974,0,0
98,50,0,0,0,0,0,0,0,0,0,-1,1322,974,0,0
105,50,0,0,0,0,0,0,0,0,0,-1,1329,974,0,0
112,50,0,0,0,0,0,0,0,0,0,-1,1336,974,0,0
119,50,0,0,0,0,0,0,0,0,0,-1,1343,974,0,0
126,50,0,0,0,0,0,0,0,0,0,-1,1350,974,0,0
133,50,0,0,0,0,0,0,0,0,0,-1,1357,974,0,0
140,50,0,0,0,0,0,0,0,0,0,-1,1364,974,0,0
147,50,0,0,0,0,0,0,0,0,0,-1,1371,974,0,0
154,50,0,0,0,0,0,0,0,0,0,-1,1378,974,0,0
161,50,0,0,0,0,0,0,0,0,0,-1,1385,974,0,0
168,50,0,0,0,0,0,0,0,0,0,-1,1392,974,0,0
175,50,0,0,0,0,0,0,0,0,0,-1,1399,974,0,0
182,50,0,0,0,0,0,0,0,0,0,-1,1406,974,0,0
189,50,0,0,0,0,0,0,0,0,0,-1,1413,974,0,0
196,50,0,0,0,0,0,0,0,0,0,-1,1420,974,0,0
203,50,0,0,0,0,0,0,0,0,0,-1,1427,974,0,0
210,50,0,0,0,0,0,0,0,0,0,-1,1434,974,0,0
217,50,0,0,0,0,0,0,0,0,0,-1,1441,974,0,0
224,50,0,0,0,0,0,0,0,0,0,-1,1448,974,0,0
231,50,0,0,0,0,0,0,0,0,0,-1,1455,974,0,0
238,50,0,0,0,0,0,0,0,0,0,-1,1462,974,0,0
245,50,0,0,0,0,0,0,0,0,0,-1,1469,974,0,0
252,50,0,0,0,0,0,0,0,0,0,-1,1476,974,0,0
259,50,0,0,0,0,0,0,0,0,0,-1,1483,974,0,0
266,50,0,0,0,0,0,0,0,0,0,-1,1490,974,0,0
273,50,0,0,0,0,0,0,0,0,0,-1,1497,974,0,0
280,50,0,0,0,0,0,0,0,0,0,-1,1504,974,0,0
287,50,0,0,0,0,0,0,0,0,0,-1,1511,974,0,0
294,50,0,0,0,0,0,0,0,0,0,-1,1518,974,0,0
301,50,0,0,0,0,0,0,0,0,0,-1,1525,974,0,0
308,50,0,0,0,0,0,0,0,0,0,-1,1532,974,0,0
315,50,0,0,0,0,0,0,0,0,0,-1,1539,974,0,0
322,50,0,0,0,0,0,0,0,0,0,-1,1546,974,0,0
329,50,0,0,0,0,0,0,0,0,0,-1,1553,974,0,0
336,50,0,0,0,0,0,0,0,0,0,-1,1560,974,0,0
343,50,0,0,0,0,0,0,0,0,0,-1,1567,974,0,0
350,50,0,0,0,0,0,0,0,0,0,-1,1574,974,0,0
357,50,0,0,0,0,0,0,0,0,0,-1,1581,974,0,0
364,50,0,0,0,0,0,0,0,0,0,-1,1588,974,0,0
371,50,0,0,0,0,0,0,0,0,0,-1,1595,974,0,0
378,50,0,0,0,0,0,0,0,0,0,-1,1602,974,0,0
385,50,0,0,0,0,0,0,0,0,0,-1,1609,974,0,0
392,50,0,0,0,0,0,0,0,0,0,-1,1616,974,0,0
399,50,0,0,0,0,0,0,0,0,0,-1,1623,974,0,0
406,50,0,0,0,0,0,0,0,0,0,-1,1630,974,0,0
413,50,0,0,0,0,0,0,0,0,0,-1,1637,974,0,0
420,50,0,0,0,0,0,0,0,0,0,-1,1644,974,0,0
427,50,0,0,0,0,0,0,0,0,0,-1,1651,974,0,0
434,50,0,0,0,0,0,0,0,0,0,-1,1658,974,0,0
441,50,0,0,0,0,0,0,0,0,0,-1,1665,974,0,0
448,50,0,0,0,0,0,0,0,0,0,-1,1672,974,0,0
455,50,0,0,0,0,0,0,0,0,0,-1,1679,974,0,0
462,50,0,0,0,0,0,0,0,0,0,-1,1686,974,0,0
469,50,0,0,0,0,0,0,0,0,0,-1,1693,974,0,0
476,50,0,0,0,0,0,0,0,0,0,-1,1700,974,0,0
483,50,0,0,0,0,0,0,0,0,0,-1,1707,974,0,0
490,50,0,0,0,0,0,0,0,0,0,-1,1714,974,0,0
497,50,0,0,0,0,0,0,0,0,0,-1,1721,974,0,0
504,50,0,0,0,0,0,0,0,0,0,-1,1728,974,0,0
511,50,0,0,0,0,0,0,0,0,0,-1,1735,974,0,0
518,50,0,0,0,0,0,0,0,0,0,-1,1742,974,0,0
525,50,0,0,0,0,0,0,0,0,0,-1,1749,974,0,0
532,50,0,0,0,0,0,0,0,0,0,-1,1756,974,0,0
539,50,0,0,0,0,0,0,0,0,0,-1,1763,974,0,0
546,50,0,0,0,0,0,0,0,0,0,-1,1770,974,0,0
553,50,0,0,0,0,0,0,0,0,0,-1,1777,974,0,0
560,50,0,0,0,0,0,0,0,0,0,-1,1784,974,0,0
567,50,0,0,0,0,0,0,0,0,0,-1,1791,974,0,0
574,50,0,0,0,0,0,0,0,0,0,-1,1798,974,0,0
581,50,0,0,0,0,0,0,0,0,0,-1,1805,974,0,0
588,50,0,0,0,0,0,0,0,0,0,-1,1812,974,0,0
595,50,0,0,0,0,0,0,0,0,0,-1,1819,974,0,0
602,50,0,0,0,0,0,0,0,0,0,-1,1826,974,0,0
609,50,0,0,0,0,0,0,0,0,0,-1,1833,974,0,0
616,50,0,0,0,0,0,0,0,0,0,-1,1840,974,0,0
623,50,0,0,0,0,0,0,0,0,0,-1,1847,974,0,0
630,50,0,0,0,0,0,0,0,0,0,-1,1854,974,0,0
637,50,0,0,0,0,0,0,0,0,0,-1,1861,974,0,0
644,50,77.9751,2.34399,-0.00867831,-0.00284486,0.00339756,-0.00128378,-0.0102394,1.14009,0.00644112,0.0413499,1868,974,77.9751,-2.34397
651,50,77.8475,2.43884,-0.00659147,-0.00235239,0.00259337,-0.0011226,-0.00782126,1.128,0.00488318,0.0326048,1875,974,77.8476,-2.43887
658,50,77.814,2.51093,-0.00475447,-0.00186945,0.00204669,-0.000808007,-0.00581591,1.09237,0.00363797,0.035862,1882,974,77.8139,-2.5109
665,50,77.8572,2.43176,-0.00306739,-0.00141656,0.0015445,-0.000490752,-0.0039932,1.0308,0.00251456,0.0429439,1889,974,77.8572,-2.43174
672,50,77.8262,2.2547,-0.00185064,-0.0010951,0.0012007,-0.000214139,-0.0027316,0.937807,0.00175405,0.0432075,1896,974,77.8261,-2.25472
679,50,77.6274,2.57233,-0.00109621,-0.00110486,0.00107651,-2.40186e-05,-0.00217705,0.783388,0.00144343,0.0422183,1903,974,77.6275,-2.57234
686,50,77.7393,2.44501,-0.000599164,-0.00138941,0.000889596,-2.08895e-05,-0.00196769,0.576405,0.00130488,0.0438252,1910,974,77.7393,-2.44501
693,50,77.7136,2.45923,-0.000485455,-0.00164849,0.000672804,-0.000177687,-0.00195626,0.429024,0.00124916,0.0400586,1917,974,77.7136,-2.4592
700,50,77.7329,2.54962,-0.000673843,-0.00156559,0.000340426,-0.000558742,-0.00168069,0.326043,0.000988342,0.0220596,1924,974,77.733,-2.54964
707,50,77.8477,2.39844,-0.00112134,-0.00104332,-0.000120238,-0.000955922,-0.00120874,-0.942273,0.00073617,0.035388,1931,974,77.8476,-2.39842
714,50,77.8152,2.23553,0,0,0,0,0,0,0,-1,1938,974,77.8152,-2.23554
721,50,76.6038,6.15613,0,0,0,0,0,0,0,-1,1945,974,76.6037,-6.15612
728,50,76.6606,6.64307,-0.00399406,0.00275586,-0.00117181,0.00295351,-0.0041917,-1.4037,0.00414588,0.021866,1952,974,76.6606,-6.64306
735,50,76.6871,7.10614,-0.00461795,0.0049547,-0.00145291,0.00517036,-0.00483361,-1.42344,0.00577689,0.0221345,1959,974,76.6871,-7.10616
742,50,76.6709,7.53699,-0.00572971,0.00737002,-0.0018734,0.00763267,-0.00599236,-1.4315,0.00788539,0.0180554,1966,974,76.6709,-7.537
749,50,76.5789,7.86639,-0.00671736,0.0108582,-0.00247204,0.0111993,-0.00705844,-1.43369,0.0106311,0.0195411,1973,974,76.5788,-7.86639
756,50,76.4685,8.23346,-0.00741497,0.0157381,-0.00302283,0.0161262,-0.00780312,-1.44309,0.0140914,0.0168658,1980,974,76.4685,-8.23345
763,50,76.3328,8.62549,-0.00726044,0.0222868,-0.00329051,0.0226488,-0.00762245,-1.46122,0.0181807,0.0159998,1987,974,76.3328,-8.62552
770,50,76.2046,8.97455,-0.0060652,0.0296721,-0.0034547,0.030003,-0.0063961,-1.47531,0.02244,0.0141377,1994,974,76.2045,-8.97454
777,50,76.1548,9.37573,-0.00438918,0.0373596,-0.00350033,0.037651,-0.00468062,-1.48773,0.0267975,0.023725,2001,974,76.1547,-9.37576
784,50,76.042,9.75677,-0.000861162,0.0454026,-0.0035486,0.0456732,-0.00113177,-1.49469,0.030833,0.0384914,2008,974,76.042,-9.75676
791,50,75.9565,10.1399,0,0,0,0,0,0,0,-1,2015,974,75.9565,-10.1399
798,50,76.8606,10.392,0,0,0,0,0,0,0,-1,2022,974,76.8606,-10.3919
805,50,77.1064,10.8618,0,0,0,0,0,0,0,-1,2029,974,77.1065,-10.8618
812,50,0,0,0,0,0,0,0,0,0,-1,2036,974,0,0
-700,43,0,0,0,0,0,0,0,0,0,-1,524,981,0,0
-693,43,-60.0702,0.34491,0,0,0,0,0,0,0,-1,531,981,-60.0702,-0.344919
-686,43,-59.164,1.44812,0,0,0,0,0,0,0,-1,538,981,-59.164,-1.4481
-679,43,-58.3012,2.18121,0.169421,0.0124819,0.137097,0.248917,-0.067014,0.525472,0.192217,0.0430921,545,981,-58.3012,-2.18124
-672,43,-56.6975,3.56714,0.134256,0.016037,0.11363,0.203231,-0.0529387,0.545564,0.156154,0.0489368,552,981,-56.6975,-3.56713
-665,43,-56.2556,4.02905,0,0,0,0,0,0,0,-1,559,981,-56.2556,-4.02905
-658,43,-60.7605,8.41174,0,0,0,0,0,0,0,-1,566,981,-60.7605,-8.41176
-651,43,-61.0714,8.21875,0.0527034,0.0212101,0.0529995,0.092246,-0.0183326,0.640997,0.0684317,0.0458594,573,981,-61.0714,-8.21873
-644,43,-61.356,8.03015,0.0335685,0.0209102,0.0372965,0.0650691,-0.0105903,0.70135,0.0473063,0.026516,580,981,-61.3559,-8.03013
-637,43,-61.548,7.76385,0.0180296,0.0192294,0.0246575,0.0432943,-0.00603526,0.797561,0.0310706,0.0188431,587,981,-61.5481,-7.76386
-630,43,-61.6081,7.52094,0.00747194,0.0159366,0.0153993,0.0276746,-0.00426606,0.919507,0.0200238,0.0148911,594,981,-61.6081,-7.52091
-623,43,-61.6464,7.23602,-0.000490178,0.0125904,0.00830941,0.0166247,-0.00452448,1.11881,0.0128594,0.0139097,601,981,-61.6464,-7.23601
-616,43,-61.6602,6.89685,-0.0037145,0.00833138,0.00422424,0.00966506,-0.00504819,1.26498,0.00863298,0.013568,608,981,-61.6602,-6.89682
-609,43,-61.6487,6.53699,-0.00331992,0.00494402,0.00357215,0.00627405,-0.00464995,1.21437,0.00633016,0.0156913,615,981,-61.6488,-6.53698
-602,43,-61.6505,6.15582,-0.00285765,0.00271675,0.00303753,0.00405205,-0.00419296,1.15662,0.00476049,0.0195807,622,981,-61.6505,-6.15581
-595,43,-61.843,5.81567,-0.00233369,0.00169391,0.00244178,0.00284518,-0.00348496,1.13022,0.00366093,0.0204869,629,981,-61.843,-5.81569
-588,43,-62.1683,5.638,0,0,0,0,0,0,0,-1,636,981,-62.1683,-5.63798
-581,43,-61.6852,0.585205,0,0,0,0,0,0,0,-1,643,981,-61.6852,-0.585221
-574,43,-61.6533,0.465393,-0.0017551,-0.000891306,0.00157755,0.000312401,-0.0029588,0.919012,0.00208449,0.0311803,650,981,-61.6533,-0.465369
-567,43,-61.5745,0.215881,-0.00140275,-0.000586102,0.00138482,0.000449337,-0.00243819,0.928764,0.00179409,0.0389823,657,981,-61.5745,-0.215902
-560,43,-61.5521,0.252625,-0.00128912,0.000237928,0.00128006,0.000964882,-0.00201608,1.05431,0.00175636,0.0400809,664,981,-61.5521,-0.252649
-553,43,-61.5666,0.372375,-0.00135511,0.00146956,0.00122172,0.00192466,-0.0018102,1.21422,0.00215666,0.0398276,671,981,-61.5666,-0.372365
-546,43,-61.4963,0.496948,-0.00170049,0.00273065,0.0012352,0.0030517,-0.00202155,1.3165,0.0029491,0.0429323,678,981,-61.4963,-0.496949
-539,43,-61.3925,0.610413,-0.00286647,0.00334265,0.00132552,0.00361378,-0.0031376,1.36903,0.00390115,0.045446,685,981,-61.3925,-0.610386
-532,43,-61.3165,0.566772,-0.00407224,0.00324815,0.00138119,0.00350008,-0.00432417,1.39038,0.00452568,0.0441231,692,981,-61.3166,-0.566785
-525,43,-61.4341,0.738037,-0.00526439,0.00342307,0.0011995,0.00358564,-0.00542697,1.43608,0.00523951,0.0425434,699,981,-61.4342,-0.738026
-518,43,0,0,0,0,0,0,0,0,0,-1,706,981,0,0
-511,43,0,0,0,0,0,0,0,0,0,-1,713,981,0,0
-504,43,0,0,0,0,0,0,0,0,0,-1,720,981,0,0
-497,43,0,0,0,0,0,0,0,0,0,-1,727,981,0,0
-490,43,0,0,0,0,0,0,0,0,0,-1,734,981,0,0
-483,43,0,0,0,0,0,0,0,0,0,-1,741,981,0,0
-476,43,0,0,0,0,0,0,0,0,0,-1,748,981,0,0
-469,43,0,0,0,0,0,0,0,0,0,-1,755,981,0,0
-462,43,0,0,0,0,0,0,0,0,0,-1,762,981,0,0
-455,43,0,0,0,0,0,0,0,0,0,-1,769,981,0,0
-448,43,0,0,0,0,0,0,0,0,0,-1,776,981,0,0
-441,43,0,0,0,0,0,0,0,0,0,-1,783,981,0,0
-434,43,0,0,0,0,0,0,0,0,0,-1,790,981,0,0
-427,43,0,0,0,0,0,0,0,0,0,-1,797,981,0,0
-420,43,0,0,0,0,0,0,0,0,0,-1,804,981,0,0
-413,43,0,0,0,0,0,0,0,0,0,-1,811,981,0,0
-406,43,0,0,0,0,0,0,0,0,0,-1,818,981,0,0
-399,43,0,0,0,0,0,0,0,0,0,-1,825,981,0,0
-392,43,0,0,0,0,0,0,0,0,0,-1,832,981,0,0
-385,43,0,0,0,0,0,0,0,0,0,-1,839,981,0,0
-378,43,0,0,0,0,0,0,0,0,0,-1,846,981,0,0
-371,43,0,0,0,0,0,0,0,0,0,-1,853,981,0,0
-364,43,0,0,0,0,0,0,0,0,0,-1,860,981,0,0
-357,43,0,0,0,0,0,0,0,0,0,-1,867,981,0,0
-350,43,0,0,0,0,0,0,0,0,0,-1,874,981,0,0
-343,43,0,0,0,0,0,0,0,0,0,-1,881,981,0,0
-336,43,0,0,0,0,0,0,0,0,0,-1,888,981,0,0
-329,43,0,0,0,0,0,0,0,0,0,-1,895,981,0,0
-322,43,0,0,0,0,0,0,0,0,0,-1,902,981,0,0
-315,43,0,0,0,0,0,0,0,0,0,-1,909,981,0,0
-308,43,0,0,0,0,0,0,0,0,0,-1,916,981,0,0
-301,43,0,0,0,0,0,0,0,0,0,-1,923,981,0,0
-294,43,0,0,0,0,0,0,0,0,0,-1,930,981,0,0
-287,43,0,0,0,0,0,0,0,0,0,-1,937,981,0,0
-280,43,0,0,0,0,0,0,0,0,0,-1,944,981,0,0
-273,43,0,0,0,0,0,0,0,0,0,-1,951,981,0,0
-266,43,0,0,0,0,0,0,0,0,0,-1,958,981,0,0
-259,43,0,0,0,0,0,0,0,0,0,-1,965,981,0,0
-252,43,0,0,0,0,0,0,0,0,0,-1,972,981,0,0
-245,43,0,0,0,0,0,0,0,0,0,-1,979,981,0,0
-238,43,0,0,0,0,0,0,0,0,0,-1,986,981,0,0
-231,43,0,0,0,0,0,0,0,0,0,-1,993,981,0,0
-224,43,0,0,0,0,0,0,0,0,0,-1,1000,981,0,0
-217,43,0,0,0,0,0,0,0,0,0,-1,1007,981,0,0
-210,43,0,0,0,0,0,0,0,0,0,-1,1014,981,0,0
-203,43,0,0,0,0,0,0,0,0,0,-1,1021,981,0,0
-196,43,0,0,0,0,0,0,0,0,0,-1,1028,981,0,0
-189,43,0,0,0,0,0,0,0,0,0,-1,1035,981,0,0
-182,43,0,0,0,0,0,0,0,0,0,-1,1042,981,0,0
-175,43,0,0,0,0,0,0,0,0,0,-1,1049,981,0,0
-168,43,0,0,0,0,0,0,0,0,0,-1,1056,981,0,0
-161,43,0,0,0,0,0,0,0,0,0,-1,1063,981,0,0
-154,43,0,0,0,0,0,0,0,0,0,-1,1070,981,0,0
-147,43,0,0,0,0,0,0,0,0,0,-1,1077,981,0,0
-140,43,0,0,0,0,0,0,0,0,0,-1,1084,981,0,0
-133,43,0,0,0,0,0,0,0,0,0,-1,1091,981,0,0
-126,43,0,0,0,0,0,0,0,0,0,-1,1098,981,0,0
-119,43,0,0,0,0,0,0,0,0,0,-1,1105,981,0,0
-112,43,0,0,0,0,0,0,0,0,0,-1,1112,981,0,0
-105,43,0,0,0,0,0,0,0,0,0,-1,1119,981,0,0
-98,43,0,0,0,0,0,0,0,0,0,-1,1126,981,0,0
-91,43,0,0,0,0,0,0,0,0,0,-1,1133,981,0,0
-84,43,0,0,0,0,0,0,0,0,0,-1,1140,981,0,0
-77,43,0,0,0,0,0,0,0,0,0,-1,1147,981,0,0
-70,43,0,0,0,0,0,0,0,0,0,-1,1154,981,0,0
-63,43,0,0,0,0,0,0,0,0,0,-1,1161,981,0,0
-56,43,0,0,0,0,0,0,0,0,0,-1,1168,981,0,0
-49,43,0,0,0,0,0,0,0,0,0,-1,1175,981,0,0
-42,43,0,0,0,0,0,0,0,0,0,-1,1182,981,0,0
-35,43,0,0,0,0,0,0,0,0,0,-1,1189,981,0,0
-28,43,0,0,0,0,0,0,0,0,0,-1,1196,981,0,0
-21,43,0,0,0,0,0,0,0,0,0,-1,1203,981,0,0
-14,43,0,0,0,0,0,0,0,0,0,-1,1210,981,0,0
-7,43,0,0,0,0,0,0,0,0,0,-1,1217,981,0,0
0,43,0,0,0,0,0,0,0,0,0,-1,1224,981,0,0
7,43,0,0,0,0,0,0,0,0,0,-1,1231,981,0,0
14,43,0,0,0,0,0,0,0,0,0,-1,1238,981,0,0
21,43,0,0,0,0,0,0,0,0,0,-1,1245,981,0,0
28,43,0,0,0,0,0,0,0,0,0,-1,1252,981,0,0
35,43,0,0,0,0,0,0,0,0,0,-1,1259,981,0,0
42,43,0,0,0,0,0,0,0,0,0,-1,1266,981,0,0
49,43,0,0,0,0,0,0,0,0,0,-1,1273,981,0,0
56,43,0,0,0,0,0,0,0,0,0,-1,1280,981,0,0
63,43,0,0,0,0,0,0,0,0,0,-1,1287,981,0,0
70,43,0,0,0,0,0,0,0,0,0,-1,1294,981,0,0
77,43,0,0,0,0,0,0,0,0,0,-1,1301,981,0,0
84,43,0,0,0,0,0,0,0,0,0,-1,1308,981,0,0
91,43,0,0,0,0,0,0,0,0,0,-1,1315,981,0,0
98,43,0,0,0,0,0,0,0,0,0,-1,1322,981,0,0
105,43,0,0,0,0,0,0,0,0,0,-1,1329,981,0,0
112,43,0,0,0,0,0,0,0,0,0,-1,1336,981,0,0
119,43,0,0,0,0,0,0,0,0,0,-1,1343,981,0,0
126,43,0,0,0,0,0,0,0,0,0,-1,1350,981,0,0
133,43,0,0,0,0,0,0,0,0,0,-1,1357,981,0,0
140,43,0,0,0,0,0,0,0,0,0,-1,1364,981,0,0
147,43,0,0,0,0,0,0,0,0,0,-1,1371,981,0,0
154,43,0,0,0,0,0,0,0,0,0,-1,1378,981,0,0
161,43,0,0,0,0,0,0,0,0,0,-1,1385,981,0,0
168,43,0,0,0,0,0,0,0,0,0,-1,1392,981,0,0
175,43,0,0,0,0,0,0,0,0,0,-1,1399,981,0,0
182,43,0,0,0,0,0,0,0,0,0,-1,1406,981,0,0
189,43,0,0,0,0,0,0,0,0,0,-1,1413,981,0,0
196,43,0,0,0,0,0,0,0,0,0,-1,1420,981,0,0
203,43,0,0,0,0,0,0,0,0,0,-1,1427,981,0,0
210,43,0,0,0,0,0,0,0,0,0,-1,1434,981,0,0
217,43,0,0,0,0,0,0,0,0,0,-1,1441,981,0,0
224,43,0,0,0,0,0,0,0,0,0,-1,1448,981,0,0
231,43,0,0,0,0,0,0,0,0,0,-1,1455,981,0,0
238,43,0,0,0,0,0,0,0,0,0,-1,1462,981,0,0
245,43,0,0,0,0,0,0,0,0,0,-1,1469,981,0,0
252,43,0,0,0,0,0,0,0,0,0,-1,1476,981,0,0
259,43,0,0,0,0,0,0,0,0,0,-1,1483,981,0,0
266,43,0,0,0,0,0,0,0,0,0,-1,1490,981,0,0
273,43,0,0,0,0,0,0,0,0,0,-1,1497,981,0,0
280,43,0,0,0,0,0,0,0,0,0,-1,1504,981,0,0
287,43,0,0,0,0,0,0,0,0,0,-1,1511,981,0,0
294,43,0,0,0,0,0,0,0,0,0,-1,1518,981,0,0
301,43,0,0,0,0,0,0,0,0,0,-1,1525,981,0,0
308,43,0,0,0,0,0,0,0,0,0,-1,1532,981,0,0
315,43,0,0,0,0,0,0,0,0,0,-1,1539,981,0,0
322,43,0,0,0,0,0,0,0,0,0,-1,1546,981,0,0
329,43,0,0,0,0,0,0,0,0,0,-1,1553,981,0,0
336,43,0,0,0,0,0,0,0,0,0,-1,1560,981,0,0
343,43,0,0,0,0,0,0,0,0,0,-1,1567,981,0,0
350,43,0,0,0,0,0,0,0,0,0,-1,1574,981,0,0
357,43,0,0,0,0,0,0,0,0,0,-1,1581,981,0,0
364,43,0,0,0,0,0,0,0,0,0,-1,1588,981,0,0
371,43,0,0,0,0,0,0,0,0,0,-1,1595,981,0,0
378,43,0,0,0,0,0,0,0,0,0,-1,1602,981,0,0
385,43,0,0,0,0,0,0,0,0,0,-1,1609,981,0,0
392,43,0,0,0,0,0,0,0,0,0,-1,1616,981,0,0
399,43,0,0,0,0,0,0,0,0,0,-1,1623,981,0,0
406,43,0,0,0,0,0,0,0,0,0,-1,1630,981,0,0
413,43,0,0,0,0,0,0,0,0,0,-1,1637,981,0,0
420,43,0,0,0,0,0,0,0,0,0,-1,1644,981,0,0
427,43,0,0,0,0,0,0,0,0,0,-1,1651,981,0,0
434,43,0,0,0,0,0,0,0,0,0,-1,1658,981,0,0
441,43,0,0,0,0,0,0,0,0,0,-1,1665,981,0,0
448,43,0,0,0,0,0,0,0,0,0,-1,1672,981,0,0
455,43,0,0,0,0,0,0,0,0,0,-1,1679,981,0,0
462,43,0,0,0,0,0,0,0,0,0,-1,1686,981,0,0
469,43,0,0,0,0,0,0,0,0,0,-1,1693,981,0,0
476,43,0,0,0,0,0,0,0,0,0,-1,1700,981,0,0
483,43,0,0,0,0,0,0,0,0,0,-1,1707,981,0,0
490,43,0,0,0,0,0,0,0,0,0,-1,1714,981,0,0
497,43,0,0,0,0,0,0,0,0,0,-1,1721,981,0,0
504,43,0,0,0,0,0,0,0,0,0,-1,1728,981,0,0
511,43,0,0,0,0,0,0,0,0,0,-1,1735,981,0,0
518,43,0,0,0,0,0,0,0,0,0,-1,1742,981,0,0
525,43,0,0,0,0,0,0,0,0,0,-1,1749,981,0,0
532,43,0,0,0,0,0,0,0,0,0,-1,1756,981,0,0
539,43,0,0,0,0,0,0,0,0,0,-1,1763,981,0,0
546,43,0,0,0,0,0,0,0,0,0,-1,1770,981,0,0
553,43,0,0,0,0,0,0,0,0,0,-1,1777,981,0,0
560,43,0,0,0,0,0,0,0,0,0,-1,1784,981,0,0
567,43,0,0,0,0,0,0,0,0,0,-1,1791,981,0,0
574,43,0,0,0,0,0,0,0,0,0,-1,1798,981,0,0
581,43,0,0,0,0,0,0,0,0,0,-1,1805,981,0,0
588,43,0,0,0,0,0,0,0,0,0,-1,1812,981,0,0
595,43,0,0,0,0,0,0,0,0,0,-1,1819,981,0,0
602,43,0,0,0,0,0,0,0,0,0,-1,1826,981,0,0
609,43,0,0,0,0,0,0,0,0,0,-1,1833,981,0,0
616,43,0,0,0,0,0,0,0,0,0,-1,1840,981,0,0
623,43,0,0,0,0,0,0,0,0,0,-1,1847,981,0,0
630,43,0,0,0,0,0,0,0,0,0,-1,1854,981,0,0
637,43,0,0,0,0,0,0,0,0,0,-1,1861,981,0,0
644,43,77.8054,2.44641,-0.00769667,-0.00455086,0.003117,-0.00263238,-0.00961515,1.01907,0.00573759,0.0403802,1868,981,77.8054,-2.4464
651,43,77.7886,2.37848,-0.00584078,-0.0035654,0.0022427,-0.00218833,-0.00721785,1.02013,0.00427349,0.0373096,1875,981,77.7886,-2.3785
658,43,77.879,2.47968,-0.00419488,-0.00271734,0.00166588,-0.00163377,-0.00527845,0.994105,0.00312036,0.0385742,1882,981,77.8791,-2.47968
665,43,77.8087,2.45508,-0.00268327,-0.00200494,0.00116512,-0.00113062,-0.00355759,0.927032,0.00209894,0.0410037,1889,981,77.8087,-2.45507
672,43,77.6195,2.33868,-0.00152409,-0.00142118,0.000816216,-0.000654797,-0.00229047,0.816879,0.00136222,0.0405383,1896,981,77.6195,-2.33865
679,43,77.603,2.44617,-0.000735926,-0.00118016,0.000686479,-0.000236523,-0.00167956,0.628935,0.00104978,0.0396115,1903,981,77.603,-2.44614
686,43,77.7844,2.40857,-0.000208113,-0.00131317,0.000542214,1.3492e-05,-0.00153478,0.387987,0.00102771,0.0410774,1910,981,77.7844,-2.4086
693,43,77.7985,2.34454,-5.77427e-05,-0.00150051,0.000388722,4.03244e-05,-0.00159857,0.247124,0.00107941,0.0407303,1917,981,77.7985,-2.34454
700,43,77.7861,2.42676,-0.000210577,-0.00139091,0.000120074,-0.000198486,-0.001403,0.100359,0.000876696,0.035459,1924,981,77.7861,-2.42677
707,43,77.8988,2.37,-0.000706111,-0.000798609,-0.000272591,-0.000475874,-0.00102885,-0.701366,0.00059456,0.0323909,1931,981,77.8988,-2.37
714,43,77.8597,2.26227,0,0,0,0,0,0,0,-1,1938,981,77.8597,-2.26226
721,43,76.9869,6.22858,0,0,0,0,0,0,0,-1,1945,981,76.987,-6.22855
728,43,77.0472,6.69543,-0.00415968,0.00329323,-0.00115807,0.00346903,-0.00433548,-1.42014,0.00451519,0.0181196,1952,981,77.0473,-6.69546
735,43,77.0951,7.13855,-0.0050163,0.00554051,-0.00139,0.00572046,-0.00519625,-1.44205,0.00630519,0.0141595,1959,981,77.0951,-7.13857
742,43,77.0339,7.50494,-0.00644708,0.00785679,-0.00177847,0.0080746,-0.00666489,-1.44893,0.00852281,0.016561,1966,981,77.034,-7.50495
749,43,76.9778,7.85156,-0.00780885,0.0111244,-0.00257338,0.0114679,-0.00815239,-1.43808,0.0113816,0.0207006,1973,981,76.9777,-7.85157
756,43,76.9189,8.15973,-0.00900149,0.0156699,-0.00359648,0.0161835,-0.00951507,-1.42895,0.0150027,0.0245224,1980,981,76.9191,-8.15972
763,43,76.8435,8.4458,-0.00952527,0.021916,-0.00457911,0.0225693,-0.0101786,-1.42908,0.0193529,0.0276753,1987,981,76.8435,-8.44579
770,43,76.7188,8.83649,-0.00889205,0.0291001,-0.00592084,0.0300015,-0.00979339,-1.41972,0.0239427,0.0223359,1994,981,76.7187,-8.83649
777,43,76.7053,9.2467,-0.00750282,0.0363819,-0.00778492,0.0377219,-0.0088429,-1.40033,0.0285557,0.0259519,2001,981,76.7052,-9.24673
784,43,76.8267,9.55475,-0.00411963,0.0436246,-0.010763,0.0459387,-0.00643377,-1.35901,0.0329802,0.0412581,2008,981,76.8267,-9.55475
791,43,76.873,9.97467,0,0,0,0,0,0,0,-1,2015,981,76.8731,-9.97469
798,43,77.2839,10.6078,0,0,0,0,0,0,0,-1,2022,981,77.2839,-10.6078
805,43,78.1592,11.6035,0,0,0,0,0,0,0,-1,2029,981,78.1591,-11.6035
812,43,79.2073,12.5912,0,0,0,0,0,0,0,-1,2036,981,79.2072,-12.5912
-700,36,0,0,0,0,0,0,0,0,0,-1,524,988,0,0
-693,36,-60.7492,0.404297,0.231805,0.012671,0.176955,0.330368,-0.0858913,0.508196,0.253768,0.0462881,531,988,-60.7493,-0.404293
-686,36,-59.8767,1.49109,0,0,0,0,0,0,0,-1,538,988,-59.8767,-1.49112
-679,36,-58.9922,2.43439,0.155602,0.0161794,0.130239,0.233613,-0.0618316,0.539672,0.179929,0.0442019,545,988,-58.9922,-2.43438
-672,36,-58.0011,3.3385,0.124155,0.018351,0.108499,0.191962,-0.0494562,0.558567,0.147255,0.0496544,552,988,-58.0011,-3.33849
-665,36,-57.2717,4.1062,0,0,0,0,0,0,0,-1,559,988,-57.2717,-4.10622
-658,36,-61.2359,8.25134,0,0,0,0,0,0,0,-1,566,988,-61.2359,-8.25133
-651,36,-61.5287,8.00244,0.0501565,0.0209662,0.0522995,0.0898592,-0.0187365,0.649326,0.0670303,0.0455932,573,988,-61.5287,-8.00247
-644,36,-61.7746,7.74316,0.0322633,0.0202429,0.0374081,0.0641409,-0.0116347,0.705746,0.0471201,0.0302946,580,988,-61.7746,-7.74318
-637,36,-61.9276,7.5238,0.0171268,0.0183973,0.024968,0.0427382,-0.00721406,0.798116,0.0311763,0.0223511,587,988,-61.9276,-7.52383
-630,36,-61.9764,7.38196,0.0064312,0.0152243,0.0153345,0.0267801,-0.0051246,0.925008,0.0197841,0.0165104,594,988,-61.9765,-7.38196
-623,36,-62.038,7.14648,-0.00143851,0.012105,0.00807339,0.0158706,-0.00520413,1.13437,0.0126764,0.0152043,601,988,-62.038,-7.14646
-616,36,-62.0542,6.88782,-0.00470157,0.0081859,0.00388977,0.00926892,-0.00578459,1.29925,0.00876841,0.0130766,608,988,-62.0542,-6.88782
-609,36,-61.9371,6.62952,-0.00424138,0.00492567,0.00313381,0.00589458,-0.00521028,1.27094,0.00641545,0.0192111,615,988,-61.9371,-6.62953
-602,36,-62.0198,6.25604,-0.00359249,0.00273758,0.00257437,0.00365235,-0.00450726,1.22937,0.00471957,0.0235337,622,988,-62.0199,-6.25607
-595,36,-62.3566,5.86926,-0.00298353,0.00174584,0.00199615,0.00247572,-0.00371341,1.22025,0.00359704,0.0277861,629,988,-62.3566,-5.86926
-588,36,-62.6644,5.66986,0,0,0,0,0,0,0,-1,636,988,-62.6644,-5.66983
-581,36,-61.6279,0.651428,0,0,0,0,0,0,0,-1,643,988,-61.6279,-0.651421
-574,36,-61.6104,0.521973,-0.00201072,-0.000861549,0.00145593,0.00012907,-0.00300134,0.973343,0.00204528,0.0300914,650,988,-61.6103,-0.521969
-567,36,-61.608,0.283508,-0.00162921,-0.000544884,0.00140969,0.000423308,-0.0025974,0.968977,0.00188858,0.0360464,657,988,-61.608,-0.283522
-560,36,-61.6265,0.279602,-0.00146788,0.000303075,0.00150613,0.00116474,-0.00232954,1.05114,0.00205445,0.0384808,664,988,-61.6265,-0.279605
-553,36,-61.5175,0.598999,-0.00155879,0.00153878,0.00173756,0.00231762,-0.00233763,1.14941,0.00268772,0.0423595,671,988,-61.5175,-0.599018
-546,36,-61.4108,0.606567,-0.00208678,0.00272016,0.00218718,0.00356638,-0.002933,1.20164,0.00375835,0.0457743,678,988,-61.4108,-0.60657
-539,36,-61.4789,0.582153,-0.00371624,0.00313032,0.00293399,0.0042156,-0.00480152,1.2165,0.0052097,0.0454489,685,988,-61.479,-0.582126
-532,36,-61.4991,0.597961,0,0,0,0,0,0,0,-1,692,988,-61.4991,-0.597951
-525,36,-61.6872,0.789612,0,0,0,0,0,0,0,-1,699,988,-61.6872,-0.789634
-518,36,0,0,0,0,0,0,0,0,0,-1,706,988,0,0
-511,36,0,0,0,0,0,0,0,0,0,-1,713,988,0,0
-504,36,0,0,0,0,0,0,0,0,0,-1,720,988,0,0
-497,36,0,0,0,0,0,0,0,0,0,-1,727,988,0,0
-490,36,0,0,0,0,0,0,0,0,0,-1,734,988,0,0
-483,36,0,0,0,0,0,0,0,0,0,-1,741,988,0,0
-476,36,0,0,0,0,0,0,0,0,0,-1,748,988,0,0
-469,36,0,0,0,0,0,0,0,0,0,-1,755,988,0,0
-462,36,0,0,0,0,0,0,0,0,0,-1,762,988,0,0
-455,36,0,0,0,0,0,0,0,0,0,-1,769,988,0,0
-448,36,0,0,0,0,0,0,0,0,0,-1,776,988,0,0
-441,36,0,0,0,0,0,0,0,0,0,-1,783,988,0,0
-434,36,0,0,0,0,0,0,0,0,0,-1,790,988,0,0
-427,36,0,0,0,0,0,0,0,0,0,-1,797,988,0,0
-420,36,0,0,0,0,0,0,0,0,0,-1,804,988,0,0
-413,36,0,0,0,0,0,0,0,0,0,-1,811,988,0,0
-406,36,0,0,0,0,0,0,0,0,0,-1,818,988,0,0
-399,36,0,0,0,0,0,0,0,0,0,-1,825,988,0,0
-392,36,0,0,0,0,0,0,0,0,0,-1,832,988,0,0
-385,36,0,0,0,0,0,0,0,0,0,-1,839,988,0,0
-378,36,0,0,0,0,0,0,0,0,0,-1,846,988,0,0
-371,36,0,0,0,0,0,0,0,0,0,-1,853,988,0,0
-364,36,0,0,0,0,0,0,0,0,0,-1,860,988,0,0
-357,36,0,0,0,0,0,0,0,0,0,-1,867,988,0,0
-350,36,0,0,0,0,0,0,0,0,0,-1,874,988,0,0
-343,36,0,0,0,0,0,0,0,0,0,-1,881,988,0,0
-336,36,0,0,0,0,0,0,0,0,0,-1,888,988,0,0
-329,36,0,0,0,0,0,0,0,0,0,-1,895,988,0,0
-322,36,0,0,0,0,0,0,0,0,0,-1,902,988,0,0
-315,36,0,0,0,0,0,0,0,0,0,-1,909,988,0,0
-308,36,0,0,0,0,0,0,0,0,0,-1,916,988,0,0
-301,36,0,0,0,0,0,0,0,0,0,-1,923,988,0,0
-294,36,0,0,0,0,0,0,0,0,0,-1,930,988,0,0
-287,36,0,0,0,0,0,0,0,0,0,-1,937,988,0,0
-280,36,0,0,0,0,0,0,0,0,0,-1,944,988,0,0
-273,36,0,0,0,0,0,0,0,0,0,-1,951,988,0,0
-266,36,0,0,0,0,0,0,0,0,0,-1,958,988,0,0
-259,36,0,0,0,0,0,0,0,0,0,-1,965,988,0,0
-252,36,0,0,0,0,0,0,0,0,0,-1,972,988,0,0
-245,36,0,0,0,0,0,0,0,0,0,-1,979,988,0,0
-238,36,0,0,0,0,0,0,0,0,0,-1,986,988,0,0
-231,36,0,0,0,0,0,0,0,0,0,-1,993,988,0,0
-224,36,0,0,0,0,0,0,0,0,0,-1,1000,988,0,0
-217,36,0,0,0,0,0,0,0,0,0,-1,1007,988,0,0
-210,36,0,0,0,0,0,0,0,0,0,-1,1014,988,0,0
-203,36,0,0,0,0,0,0,0,0,0,-1,1021,988,0,0
-196,36,0,0,0,0,0,0,0,0,0,-1,1028,988,0,0
-189,36,0,0,0,0,0,0,0,0,0,-1,1035,988,0,0
-182,36,0,0,0,0,0,0,0,0,0,-1,1042,988,0,0
-175,36,0,0,0,0,0,0,0,0,0,-1,1049,988,0,0
-168,36,0,0,0,0,0,0,0,0,0,-1,1056,988,0,0
-161,36,0,0,0,0,0,0,0,0,0,-1,1063,988,0,0
-154,36,0,0,0,0,0,0,0,0,0,-1,1070,988,0,0
-147,36,0,0,0,0,0,0,0,0,0,-1,1077,988,0,0
-140,36,0,0,0,0,0,0,0,0,0,-1,1084,988,0,0
-133,36,0,0,0,0,0,0,0,0,0,-1,1091,988,0,0
-126,36,0,0,0,0,0,0,0,0,0,-1,1098,988,0,0
-119,36,0,0,0,0,0,0,0,0,0,-1,1105,988,0,0
-112,36,0,0,0,0,0,0,0,0,0,-1,1112,988,0,0
-105,36,0,0,0,0,0,0,0,0,0,-1,1119,988,0,0
-98,36,0,0,0,0,0,0,0,0,0,-1,1126,988,0,0
-91,36,0,0,0,0,0,0,0,0,0,-1,1133,988,0,0
-84,36,0,0,0,0,0,0,0,0,0,-1,1140,988,0,0
-77,36,0,0,0,0,0,0,0,0,0,-1,1147,988,0,0
-70,36,0,0,0,0,0,0,0,0,0,-1,1154,988,0,0
-63,36,0,0,0,0,0,0,0,0,0,-1,1161,988,0,0
-56,36,0,0,0,0,0,0,0,0,0,-1,1168,988,0,0
-49,36,0,0,0,0,0,0,0,0,0,-1,1175,988,0,0
-42,36,0,0,0,0,0,0,0,0,0,-1,1182,988,0,0
-35,36,0,0,0,0,0,0,0,0,0,-1,1189,988,0,0
-28,36,0,0,0,0,0,0,0,0,0,-1,1196,988,0,0
-21,36,0,0,0,0,0,0,0,0,0,-1,1203,988,0,0
-14,36,0,0,0,0,0,0,0,0,0,-1,1210,988,0,0
-7,36,0,0,0,0,0,0,0,0,0,-1,1217,988,0,0
0,36,0,0,0,0,0,0,0,0,0,-1,1224,988,0,0
7,36,0,0,0,0,0,0,0,0,0,-1,1231,988,0,0
14,36,0,0,0,0,0,0,0,0,0,-1,1238,988,0,0
21,36,0,0,0,0,0,0,0,0,0,-1,1245,988,0,0
28,36,0,0,0,0,0,0,0,0,0,-1,1252,988,0,0
35,36,0,0,0,0,0,0,0,0,0,-1,1259,988,0,0
42,36,0,0,0,0,0,0,0,0,0,-1,1266,988,0,0
49,36,0,0,0,0,0,0,0,0,0,-1,1273,988,0,0
56,36,0,0,0,0,0,0,0,0,0,-1,1280,988,0,0
63,36,0,0,0,0,0,0,0,0,0,-1,1287,988,0,0
70,36,0,0,0,0,0,0,0,0,0,-1,1294,988,0,0
77,36,0,0,0,0,0,0,0,0,0,-1,1301,988,0,0
84,36,0,0,0,0,0,0,0,0,0,-1,1308,988,0,0
91,36,0,0,0,0,0,0,0,0,0,-1,1315,988,0,0
98,36,0,0,0,0,0,0,0,0,0,-1,1322,988,0,0
105,36,0,0,0,0,0,0,0,0,0,-1,1329,988,0,0
112,36,0,0,0,0,0,0,0,0,0,-1,1336,988,0,0
119,36,0,0,0,0,0,0,0,0,0,-1,1343,988,0,0
126,36,0,0,0,0,0,0,0,0,0,-1,1350,988,0,0
133,36,0,0,0,0,0,0,0,0,0,-1,1357,988,0,0
140,36,0,0,0,0,0,0,0,0,0,-1,1364,988,0,0
147,36,0,0,0,0,0,0,0,0,0,-1,1371,988,0,0
154,36,0,0,0,0,0,0,0,0,0,-1,1378,988,0,0
161,36,0,0,0,0,0,0,0,0,0,-1,1385,988,0,0
168,36,0,0,0,0,0,0,0,0,0,-1,1392,988,0,0
175,36,0,0,0,0,0,0,0,0,0,-1,1399,988,0,0
182,36,0,0,0,0,0,0,0,0,0,-1,1406,988,0,0
189,36,0,0,0,0,0,0,0,0,0,-1,1413,988,0,0
196,36,0,0,0,0,0,0,0,0,0,-1,1420,988,0,0
203,36,0,0,0,0,0,0,0,0,0,-1,1427,988,0,0
210,36,0,0,0,0,0,0,0,0,0,-1,1434,988,0,0
217,36,0,0,0,0,0,0,0,0,0,-1,1441,988,0,0
224,36,0,0,0,0,0,0,0,0,0,-1,1448,988,0,0
231,36,0,0,0,0,0,0,0,0,0,-1,1455,988,0,0
238,36,0,0,0,0,0,0,0,0,0,-1,1462,988,0,0
245,36,0,0,0,0,0,0,0,0,0,-1,1469,988,0,0
252,36,0,0,0,0,0,0,0,0,0,-1,1476,988,0,0
259,36,0,0,0,0,0,0,0,0,0,-1,1483,988,0,0
266,36,0,0,0,0,0,0,0,0,0,-1,1490,988,0,0
273,36,0,0,0,0,0,0,0,0,0,-1,1497,988,0,0
280,36,0,0,0,0,0,0,0,0,0,-1,1504,988,0,0
287,36,0,0,0,0,0,0,0,0,0,-1,1511,988,0,0
294,36,0,0,0,0,0,0,0,0,0,-1,1518,988,0,0
301,36,0,0,0,0,0,0,0,0,0,-1,1525,988,0,0
308,36,0,0,0,0,0,0,0,0,0,-1,1532,988,0,0
315,36,0,0,0,0,0,0,0,0,0,-1,1539,988,0,0
322,36,0,0,0,0,0,0,0,0,0,-1,1546,988,0,0
329,36,0,0,0,0,0,0,0,0,0,-1,1553,988,0,0
336,36,0,0,0,0,0,0,0,0,0,-1,1560,988,0,0
343,36,0,0,0,0,0,0,0,0,0,-1,1567,988,0,0
350,36,0,0,0,0,0,0,0,0,0,-1,1574,988,0,0
357,36,0,0,0,0,0,0,0,0,0,-1,1581,988,0,0
364,36,0,0,0,0,0,0,0,0,0,-1,1588,988,0,0
371,36,0,0,0,0,0,0,0,0,0,-1,1595,988,0,0
378,36,0,0,0,0,0,0,0,0,0,-1,1602,988,0,0
385,36,0,0,0,0,0,0,0,0,0,-1,1609,988,0,0
392,36,0,0,0,0,0,0,0,0,0,-1,1616,988,0,0
399,36,0,0,0,0,0,0,0,0,0,-1,1623,988,0,0
406,36,0,0,0,0,0,0,0,0,0,-1,1630,988,0,0
413,36,0,0,0,0,0,0,0,0,0,-1,1637,988,0,0
420,36,0,0,0,0,0,0,0,0,0,-1,1644,988,0,0
427,36,0,0,0,0,0,0,0,0,0,-1,1651,988,0,0
434,36,0,0,0,0,0,0,0,0,0,-1,1658,988,0,0
441,36,0,0,0,0,0,0,0,0,0,-1,1665,988,0,0
448,36,0,0,0,0,0,0,0,0,0,-1,1672,988,0,0
455,36,0,0,0,0,0,0,0,0,0,-1,1679,988,0,0
462,36,0,0,0,0,0,0,0,0,0,-1,1686,988,0,0
469,36,0,0,0,0,0,0,0,0,0,-1,1693,988,0,0
476,36,0,0,0,0,0,0,0,0,0,-1,1700,988,0,0
483,36,0,0,0,0,0,0,0,0,0,-1,1707,988,0,0
490,36,0,0,0,0,0,0,0,0,0,-1,1714,988,0,0
497,36,0,0,0,0,0,0,0,0,0,-1,1721,988,0,0
504,36,0,0,0,0,0,0,0,0,0,-1,1728,988,0,0
511,36,0,0,0,0,0,0,0,0,0,-1,1735,988,0,0
518,36,0,0,0,0,0,0,0,0,0,-1,1742,988,0,0
525,36,0,0,0,0,0,0,0,0,0,-1,1749,988,0,0
532,36,0,0,0,0,0,0,0,0,0,-1,1756,988,0,0
539,36,0,0,0,0,0,0,0,0,0,-1,1763,988,0,0
546,36,0,0,0,0,0,0,0,0,0,-1,1770,988,0,0
553,36,0,0,0,0,0,0,0,0,0,-1,1777,988,0,0
560,36,0,0,0,0,0,0,0,0,0,-1,1784,988,0,0
567,36,0,0,0,0,0,0,0,0,0,-1,1791,988,0,0
574,36,0,0,0,0,0,0,0,0,0,-1,1798,988,0,0
581,36,0,0,0,0,0,0,0,0,0,-1,1805,988,0,0
588,36,0,0,0,0,0,0,0,0,0,-1,1812,988,0,0
595,36,0,0,0,0,0,0,0,0,0,-1,1819,988,0,0
602,36,0,0,0,0,0,0,0,0,0,-1,1826,988,0,0
609,36,0,0,0,0,0,0,0,0,0,-1,1833,988,0,0
616,36,0,0,0,0,0,0,0,0,0,-1,1840,988,0,0
623,36,0,0,0,0,0,0,0,0,0,-1,1847,988,0,0
630,36,0,0,0,0,0,0,0,0,0,-1,1854,988,0,0
637,36,0,0,0,0,0,0,0,0,0,-1,1861,988,0,0
644,36,77.7004,2.4303,-0.00664666,-0.00497524,0.00230656,-0.00335766,-0.00826424,0.959201,0.00479922,0.0427029,1868,988,77.7005,-2.43028
651,36,77.7094,2.52374,-0.00501891,-0.00380166,0.00146886,-0.00282032,-0.00600025,0.981807,0.00346632,0.0392925,1875,988,77.7094,-2.52374
658,36,77.8678,2.72791,-0.00357053,-0.00281339,0.000952985,-0.00216653,-0.00421738,0.974464,0.00243521,0.0382135,1882,988,77.8678,-2.72789
665,36,77.7358,2.54913,-0.00224017,-0.00202935,0.000540555,-0.00158402,-0.0026855,0.881692,0.00155879,0.039817,1889,988,77.7359,-2.54913
672,36,77.7013,2.59894,-0.00116018,-0.00135108,0.000273211,-0.000966223,-0.00154503,0.617342,0.000901324,0.0400319,1896,988,77.7014,-2.59891
679,36,77.7513,2.56213,-0.000353327,-0.000958857,0.000209016,-0.000288186,-0.001024,0.302112,0.000609743,0.0384411,1903,988,77.7513,-2.56216
686,36,77.8529,2.52985,0.000193556,-0.00100205,0.000145084,0.000210909,-0.00101941,0.119046,0.000759729,0.036682,1910,988,77.8529,-2.52983
693,36,77.8479,2.42139,0.000392546,-0.00113757,9.99226e-05,0.000399044,-0.00114407,0.0649363,0.000924882,0.0408103,1917,988,77.8479,-2.42136
700,36,77.7992,2.45386,0.000299578,-0.00101774,-6.52731e-05,0.000302804,-0.00102096,-0.0493888,0.000800891,0.0405409,1924,988,77.7992,-2.45383
707,36,77.8982,2.44263,-0.00021534,-0.000387568,-0.000355063,6.39027e-05,-0.000666811,-0.66643,0.0004673,0.0319322,1931,988,77.8983,-2.4426
714,36,77.906,2.29382,0,0,0,0,0,0,0,-1,1938,988,77.906,-2.29384
721,36,77.2192,6.3299,0,0,0,0,0,0,0,-1,1945,988,77.2193,-6.32988
728,36,77.295,6.7951,-0.00405221,0.00386815,-0.00108483,0.00401405,-0.00419811,-1.43711,0.00474169,0.0245293,1952,988,77.2951,-6.79512
735,36,77.3534,7.22821,-0.00506223,0.00611897,-0.00127523,0.00626257,-0.00520583,-1.45866,0.00663065,0.0189884,1959,988,77.3534,-7.22819
742,36,77.3016,7.46893,-0.00668729,0.0083381,-0.0016293,0.00851274,-0.00686194,-1.46401,0.00889362,0.0162643,1966,988,77.3017,-7.46892
749,36,77.2766,7.81543,-0.00811445,0.0114221,-0.00264453,0.0117737,-0.0084661,-1.4386,0.0117374,0.0193175,1973,988,77.2765,-7.81546
756,36,77.262,8.13885,-0.00943904,0.0156634,-0.0041886,0.0163438,-0.0101195,-1.40975,0.0154188,0.019981,1980,988,77.262,-8.13886
763,36,77.1455,8.34399,-0.0102433,0.0215638,-0.00592963,0.0226333,-0.0113128,-1.39235,0.0199587,0.0228636,1987,988,77.1456,-8.34401
770,36,77.0562,8.64978,-0.00969606,0.0284965,-0.00859038,0.0303397,-0.0115393,-1.35943,0.0249778,0.0184496,1994,988,77.0562,-8.64977
777,36,77.0144,9.01837,-0.00790264,0.0354115,-0.0123837,0.038702,-0.0111932,-1.31108,0.0302312,0.0272131,2001,988,77.0145,-9.01836
784,36,77.0977,9.29047,-0.00373879,0.0420388,-0.0181876,0.048385,-0.010085,-1.23507,0.0360911,0.0482242,2008,988,77.0976,-9.29047
791,36,77.1292,9.56592,0,0,0,0,0,0,0,-1,2015,988,77.1292,-9.56594
798,36,77.7617,10.549,0,0,0,0,0,0,0,-1,2022,988,77.7618,-10.5489
805,36,78.1069,11.4641,0,0,0,0,0,0,0,-1,2029,988,78.1069,-11.4641
812,36,71.4768,9.2749,0,0,0,0,0,0,0,-1,2036,988,71.4769,-9.27489
-700,29,0,0,0,0,0,0,0,0,0,-1,524,995,0,0
-693,29,-61.3874,0.263489,0,0,0,0,0,0,0,-1,531,995,-61.3874,-0.263463
-686,29,-59.9978,1.45996,0,0,0,0,0,0,0,-1,538,995,-59.9978,-1.45995
-679,29,-59.7406,2.41449,0.143923,0.0194509,0.122344,0.218951,-0.0555774,0.550109,0.167594,0.0432833,545,995,-59.7406,-2.4145
-672,29,-59.05,3.42969,0.115826,0.0204298,0.102693,0.181358,-0.0451021,0.567986,0.138411,0.0460707,552,995,-59.0501,-3.42971
-665,29,-58.5416,4.15106,0,0,0,0,0,0,0,-1,559,995,-58.5416,-4.15103
-658,29,-58.0084,4.89471,0,0,0,0,0,0,0,-1,566,995,-58.0084,-4.89473
-651,29,-61.8923,7.66498,0,0,0,0,0,0,0,-1,573,995,-61.8923,-7.66498
-644,29,-62.0214,7.26532,0,0,0,0,0,0,0,-1,580,995,-62.0214,-7.26534
-637,29,-62.2198,7.3175,0.0159742,0.017856,0.0246757,0.0416088,-0.00777849,0.804454,0.0306627,0.0289594,587,995,-62.2198,-7.31751
-630,29,-62.2615,7.21436,0.0052817,0.01472,0.0148732,0.0256048,-0.00560306,0.939021,0.0192119,0.0154384,594,995,-62.2615,-7.21435
-623,29,-62.2857,7.05676,-0.00252027,0.0116959,0.00751573,0.0149324,-0.00575681,1.16416,0.0123303,0.0145002,601,995,-62.2857,-7.05677
-616,29,-62.3599,6.85364,-0.00570045,0.00808965,0.00335636,0.00886316,-0.00647396,1.34429,0.00889063,0.0172597,608,995,-62.3599,-6.85361
-609,29,-62.2626,6.71295,-0.00514616,0.0049559,0.00250551,0.00554317,-0.00573344,1.34056,0.00651086,0.0283818,615,995,-62.2626,-6.71297
-602,29,-62.4338,6.43188,-0.00435699,0.00279674,0.00192602,0.00328233,-0.00484258,1.32382,0.00471966,0.0274315,622,995,-62.4338,-6.43191
-595,29,-62.7689,6.05237,-0.00371873,0.00181635,0.00138352,0.0021429,-0.00404528,1.33901,0.00362859,0.0277192,629,995,-62.7689,-6.05235
-588,29,-63.0769,5.70691,0,0,0,0,0,0,0,-1,636,995,-63.0769,-5.7069
-581,29,-61.5619,0.729248,0,0,0,0,0,0,0,-1,643,995,-61.5619,-0.729273
-574,29,-61.5859,0.596558,-0.0024076,-0.000715605,0.0011552,-0.000129748,-0.00299345,1.10145,0.00195382,0.0322181,650,995,-61.5859,-0.596539
-567,29,-61.6052,0.405579,-0.00202473,-0.000385167,0.00126889,0.000305725,-0.00271562,1.0722,0.00192045,0.0331734,657,995,-61.6052,-0.40559
-560,29,-61.6048,0.227295,-0.00184312,0.000499558,0.0015852,0.00129924,-0.0026428,1.10358,0.00231958,0.0368303,664,995,-61.6048,-0.227311
-553,29,-61.4746,0.457825,-0.00197855,0.00175671,0.00213832,0.00272817,-0.00295001,1.14436,0.00327914,0.041271,671,995,-61.4746,-0.457818
-546,29,-61.4345,0.525146,-0.00267623,0.00290027,0.00307091,0.00425988,-0.00403585,1.15399,0.00479012,0.0442044,678,995,-61.4345,-0.525152
-539,29,-61.7575,0.468994,-0.00466421,0.00321927,0.00448875,0.00525132,-0.00669627,1.1457,0.00691474,0.0426447,685,995,-61.7575,-0.468995
-532,29,-61.8089,0.540894,-0.00655089,0.00305409,0.00596142,0.00590682,-0.00940362,1.12447,0.00891601,0.045226,692,995,-61.8089,-0.540897
-525,29,-61.762,0.731873,0,0,0,0,0,0,0,-1,699,995,-61.762,-0.731866
-518,29,0,0,0,0,0,0,0,0,0,-1,706,995,0,0
-511,29,0,0,0,0,0,0,0,0,0,-1,713,995,0,0
-504,29,0,0,0,0,0,0,0,0,0,-1,720,995,0,0
-497,29,0,0,0,0,0,0,0,0,0,-1,727,995,0,0
-490,29,0,0,0,0,0,0,0,0,0,-1,734,995,0,0
-483,29,0,0,0,0,0,0,0,0,0,-1,741,995,0,0
-476,29,0,0,0,0,0,0,0,0,0,-1,748,995,0,0
-469,29,0,0,0,0,0,0,0,0,0,-1,755,995,0,0
-462,29,0,0,0,0,0,0,0,0,0,-1,762,995,0,0
-455,29,0,0,0,0,0,0,0,0,0,-1,769,995,0,0
-448,29,0,0,0,0,0,0,0,0,0,-1,776,995,0,0
-441,29,0,0,0,0,0,0,0,0,0,-1,783,995,0,0
-434,29,0,0,0,0,0,0,0,0,0,-1,790,995,0,0
-427,29,0,0,0,0,0,0,0,0,0,-1,797,995,0,0
-420,29,0,0,0,0,0,0,0,0,0,-1,804,995,0,0
-413,29,0,0,0,0,0,0,0,0,0,-1,811,995,0,0
-406,29,0,0,0,0,0,0,0,0,0,-1,818,995,0,0
-399,29,0,0,0,0,0,0,0,0,0,-1,825,995,0,0
-392,29,0,0,0,0,0,0,0,0,0,-1,832,995,0,0
-385,29,0,0,0,0,0,0,0,0,0,-1,839,995,0,0
-378,29,0,0,0,0,0,0,0,0,0,-1,846,995,0,0
-371,29,0,0,0,0,0,0,0,0,0,-1,853,995,0,0
-364,29,0,0,0,0,0,0,0,0,0,-1,860,995,0,0
-357,29,0,0,0,0,0,0,0,0,0,-1,867,995,0,0
-350,29,0,0,0,0,0,0,0,0,0,-1,874,995,0,0
-343,29,0,0,0,0,0,0,0,0,0,-1,881,995,0,0
-336,29,0,0,0,0,0,0,0,0,0,-1,888,995,0,0
-329,29,0,0,0,0,0,0,0,0,0,-1,895,995,0,0
-322,29,0,0,0,0,0,0,0,0,0,-1,902,995,0,0
-315,29,0,0,0,0,0,0,0,0,0,-1,909,995,0,0
-308,29,0,0,0,0,0,0,0,0,0,-1,916,995,0,0
-301,29,0,0,0,0,0,0,0,0,0,-1,923,995,0,0
-294,29,0,0,0,0,0,0,0,0,0,-1,930,995,0,0
-287,29,0,0,0,0,0,0,0,0,0,-1,937,995,0,0
-280,29,0,0,0,0,0,0,0,0,0,-1,944,995,0,0
-273,29,0,0,0,0,0,0,0,0,0,-1,951,995,0,0
-266,29,0,0,0,0,0,0,0,0,0,-1,958,995,0,0
-259,29,0,0,0,0,0,0,0,0,0,-1,965,995,0,0
-252,29,0,0,0,0,0,0,0,0,0,-1,972,995,0,0
-245,29,0,0,0,0,0,0,0,0,0,-1,979,995,0,0
-238,29,0,0,0,0,0,0,0,0,0,-1,986,995,0,0
-231,29,0,0,0,0,0,0,0,0,0,-1,993,995,0,0
-224,29,0,0,0,0,0,0,0,0,0,-1,1000,995,0,0
-217,29,0,0,0,0,0,0,0,0,0,-1,1007,995,0,0
-210,29,0,0,0,0,0,0,0,0,0,-1,1014,995,0,0
-203,29,0,0,0,0,0,0,0,0,0,-1,1021,995,0,0
-196,29,0,0,0,0,0,0,0,0,0,-1,1028,995,0,0
-189,29,0,0,0,0,0,0,0,0,0,-1,1035,995,0,0
-182,29,0,0,0,0,0,0,0,0,0,-1,1042,995,0,0
-175,29,0,0,0,0,0,0,0,0,0,-1,1049,995,0,0
-168,29,0,0,0,0,0,0,0,0,0,-1,1056,995,0,0
-161,29,0,0,0,0,0,0,0,0,0,-1,1063,995,0,0
-154,29,0,0,0,0,0,0,0,0,0,-1,1070,995,0,0
-147,29,0,0,0,0,0,0,0,0,0,-1,1077,995,0,0
-140,29,0,0,0,0,0,0,0,0,0,-1,1084,995,0,0
-133,29,0,0,0,0,0,0,0,0,0,-1,1091,995,0,0
-126,29,0,0,0,0,0,0,0,0,0,-1,1098,995,0,0
-119,29,0,0,0,0,0,0,0,0,0,-1,1105,995,0,0
-112,29,0,0,0,0,0,0,0,0,0,-1,1112,995,0,0
-105,29,0,0,0,0,0,0,0,0,0,-1,1119,995,0,0
-98,29,0,0,0,0,0,0,0,0,0,-1,1126,995,0,0
-91,29,0,0,0,0,0,0,0,0,0,-1,1133,995,0,0
-84,29,0,0,0,0,0,0,0,0,0,-1,1140,995,0,0
-77,29,0,0,0,0,0,0,0,0,0,-1,1147,995,0,0
-70,29,0,0,0,0,0,0,0,0,0,-1,1154,995,0,0
-63,29,0,0,0,0,0,0,0,0,0,-1,1161,995,0,0
-56,29,0,0,0,0,0,0,0,0,0,-1,1168,995,0,0
-49,29,0,0,0,0,0,0,0,0,0,-1,1175,995,0,0
-42,29,0,0,0,0,0,0,0,0,0,-1,1182,995,0,0
-35,29,0,0,0,0,0,0,0,0,0,-1,1189,995,0,0
-28,29,0,0,0,0,0,0,0,0,0,-1,1196,995,0,0
-21,29,0,0,0,0,0,0,0,0,0,-1,1203,995,0,0
-14,29,0,0,0,0,0,0,0,0,0,-1,1210,995,0,0
-7,29,0,0,0,0,0,0,0,0,0,-1,1217,995,0,0
0,29,0,0,0,0,0,0,0,0,0,-1,1224,995,0,0
7,29,0,0,0,0,0,0,0,0,0,-1,1231,995,0,0
14,29,0,0,0,0,0,0,0,0,0,-1,1238,995,0,0
21,29,0,0,0,0,0,0,0,0,0,-1,1245,995,0,0
28,29,0,0,0,0,0,0,0,0,0,-1,1252,995,0,0
35,29,0,0,0,0,0,0,0,0,0,-1,1259,995,0,0
42,29,0,0,0,0,0,0,0,0,0,-1,1266,995,0,0
49,29,0,0,0,0,0,0,0,0,0,-1,1273,995,0,0
56,29,0,0,0,0,0,0,0,0,0,-1,1280,995,0,0
63,29,0,0,0,0,0,0,0,0,0,-1,1287,995,0,0
70,29,0,0,0,0,0,0,0,0,0,-1,1294,995,0,0
77,29,0,0,0,0,0,0,0,0,0,-1,1301,995,0,0
84,29,0,0,0,0,0,0,0,0,0,-1,1308,995,0,0
91,29,0,0,0,0,0,0,0,0,0,-1,1315,995,0,0
98,29,0,0,0,0,0,0,0,0,0,-1,1322,995,0,0
105,29,0,0,0,0,0,0,0,0,0,-1,1329,995,0,0
112,29,0,0,0,0,0,0,0,0,0,-1,1336,995,0,0
119,29,0,0,0,0,0,0,0,0,0,-1,1343,995,0,0
126,29,0,0,0,0,0,0,0,0,0,-1,1350,995,0,0
133,29,0,0,0,0,0,0,0,0,0,-1,1357,995,0,0
140,29,0,0,0,0,0,0,0,0,0,-1,1364,995,0,0
147,29,0,0,0,0,0,0,0,0,0,-1,1371,995,0,0
154,29,0,0,0,0,0,0,0,0,0,-1,1378,995,0,0
161,29,0,0,0,0,0,0,0,0,0,-1,1385,995,0,0
168,29,0,0,0,0,0,0,0,0,0,-1,1392,995,0,0
175,29,0,0,0,0,0,0,0,0,0,-1,1399,995,0,0
182,29,0,0,0,0,0,0,0,0,0,-1,1406,995,0,0
189,29,0,0,0,0,0,0,0,0,0,-1,1413,995,0,0
196,29,0,0,0,0,0,0,0,0,0,-1,1420,995,0,0
203,29,0,0,0,0,0,0,0,0,0,-1,1427,995,0,0
210,29,0,0,0,0,0,0,0,0,0,-1,1434,995,0,0
217,29,0,0,0,0,0,0,0,0,0,-1,1441,995,0,0
224,29,0,0,0,0,0,0,0,0,0,-1,1448,995,0,0
231,29,0,0,0,0,0,0,0,0,0,-1,1455,995,0,0
238,29,0,0,0,0,0,0,0,0,0,-1,1462,995,0,0
245,29,0,0,0,0,0,0,0,0,0,-1,1469,995,0,0
252,29,0,0,0,0,0,0,0,0,0,-1,1476,995,0,0
259,29,0,0,0,0,0,0,0,0,0,-1,1483,995,0,0
266,29,0,0,0,0,0,0,0,0,0,-1,1490,995,0,0
273,29,0,0,0,0,0,0,0,0,0,-1,1497,995,0,0
280,29,0,0,0,0,0,0,0,0,0,-1,1504,995,0,0
287,29,0,0,0,0,0,0,0,0,0,-1,1511,995,0,0
294,29,0,0,0,0,0,0,0,0,0,-1,1518,995,0,0
301,29,0,0,0,0,0,0,0,0,0,-1,1525,995,0,0
308,29,0,0,0,0,0,0,0,0,0,-1,1532,995,0,0
315,29,0,0,0,0,0,0,0,0,0,-1,1539,995,0,0
322,29,0,0,0,0,0,0,0,0,0,-1,1546,995,0,0
329,29,0,0,0,0,0,0,0,0,0,-1,1553,995,0,0
336,29,0,0,0,0,0,0,0,0,0,-1,1560,995,0,0
343,29,0,0,0,0,0,0,0,0,0,-1,1567,995,0,0
350,29,0,0,0,0,0,0,0,0,0,-1,1574,995,0,0
357,29,0,0,0,0,0,0,0,0,0,-1,1581,995,0,0
364,29,0,0,0,0,0,0,0,0,0,-1,1588,995,0,0
371,29,0,0,0,0,0,0,0,0,0,-1,1595,995,0,0
378,29,0,0,0,0,0,0,0,0,0,-1,1602,995,0,0
385,29,0,0,0,0,0,0,0,0,0,-1,1609,995,0,0
392,29,0,0,0,0,0,0,0,0,0,-1,1616,995,0,0
399,29,0,0,0,0,0,0,0,0,0,-1,1623,995,0,0
406,29,0,0,0,0,0,0,0,0,0,-1,1630,995,0,0
413,29,0,0,0,0,0,0,0,0,0,-1,1637,995,0,0
420,29,0,0,0,0,0,0,0,0,0,-1,1644,995,0,0
427,29,0,0,0,0,0,0,0,0,0,-1,1651,995,0,0
434,29,0,0,0,0,0,0,0,0,0,-1,1658,995,0,0
441,29,0,0,0,0,0,0,0,0,0,-1,1665,995,0,0
448,29,0,0,0,0,0,0,0,0,0,-1,1672,995,0,0
455,29,0,0,0,0,0,0,0,0,0,-1,1679,995,0,0
462,29,0,0,0,0,0,0,0,0,0,-1,1686,995,0,0
469,29,0,0,0,0,0,0,0,0,0,-1,1693,995,0,0
476,29,0,0,0,0,0,0,0,0,0,-1,1700,995,0,0
483,29,0,0,0,0,0,0,0,0,0,-1,1707,995,0,0
490,29,0,0,0,0,0,0,0,0,0,-1,1714,995,0,0
497,29,0,0,0,0,0,0,0,0,0,-1,1721,995,0,0
504,29,0,0,0,0,0,0,0,0,0,-1,1728,995,0,0
511,29,0,0,0,0,0,0,0,0,0,-1,1735,995,0,0
518,29,0,0,0,0,0,0,0,0,0,-1,1742,995,0,0
525,29,0,0,0,0,0,0,0,0,0,-1,1749,995,0,0
532,29,0,0,0,0,0,0,0,0,0,-1,1756,995,0,0
539,29,0,0,0,0,0,0,0,0,0,-1,1763,995,0,0
546,29,0,0,0,0,0,0,0,0,0,-1,1770,995,0,0
553,29,0,0,0,0,0,0,0,0,0,-1,1777,995,0,0
560,29,0,0,0,0,0,0,0,0,0,-1,1784,995,0,0
567,29,0,0,0,0,0,0,0,0,0,-1,1791,995,0,0
574,29,0,0,0,0,0,0,0,0,0,-1,1798,995,0,0
581,29,0,0,0,0,0,0,0,0,0,-1,1805,995,0,0
588,29,0,0,0,0,0,0,0,0,0,-1,1812,995,0,0
595,29,0,0,0,0,0,0,0,0,0,-1,1819,995,0,0
602,29,0,0,0,0,0,0,0,0,0,-1,1826,995,0,0
609,29,0,0,0,0,0,0,0,0,0,-1,1833,995,0,0
616,29,0,0,0,0,0,0,0,0,0,-1,1840,995,0,0
623,29,0,0,0,0,0,0,0,0,0,-1,1847,995,0,0
630,29,0,0,0,0,0,0,0,0,0,-1,1854,995,0,0
637,29,0,0,0,0,0,0,0,0,0,-1,1861,995,0,0
644,29,77.7332,2.55219,-0.00555388,-0.00429435,0.00150822,-0.0032897,-0.00655854,0.983171,0.00378658,0.0434136,1868,995,77.7331,-2.55216
651,29,77.6527,2.58533,-0.00416311,-0.00319193,0.000687889,-0.0028355,-0.00451953,1.09274,0.00263743,0.0422366,1875,995,77.6527,-2.58532
658,29,77.72,2.74042,-0.00293483,-0.00230539,0.000238773,-0.00222506,-0.00301516,1.24628,0.00180532,0.043488,1882,995,77.7199,-2.74041
665,29,77.6603,2.64008,-0.00179794,-0.00163449,-6.27755e-05,-0.00161316,-0.00181927,-1.24329,0.00115031,0.0424612,1889,995,77.6603,-2.64008
672,29,77.7944,2.64313,-0.000829593,-0.00103722,-0.000214947,-0.000694702,-0.00117211,-0.560433,0.000680583,0.0415888,1896,995,77.7945,-2.64312
679,29,77.7397,2.6842,-4.44343e-05,-0.000661691,-0.000180758,4.60309e-06,-0.000710728,-0.264912,0.000475361,0.0412788,1903,995,77.7398,-2.68423
686,29,77.7719,2.67694,0.000440763,-0.000737062,-0.000153992,0.000460564,-0.000756863,-0.12788,0.000709787,0.0382107,1910,995,77.7718,-2.67692
693,29,77.7985,2.51776,0.000620398,-0.000931197,-9.95986e-05,0.000626766,-0.000937565,-0.0638419,0.000909089,0.0386846,1917,995,77.7984,-2.51776
700,29,77.7749,2.49432,0.000553868,-0.000876927,-0.000159443,0.00057142,-0.000894479,-0.109644,0.000853161,0.0380145,1924,995,77.7749,-2.49433
707,29,77.8064,2.53082,-1.58424e-05,-0.000249578,-0.000348454,0.00023482,-0.00050024,-0.623598,0.000433511,0.0272612,1931,995,77.8064,-2.53079
714,29,77.8638,2.39209,0,0,0,0,0,0,0,-1,1938,995,77.8638,-2.39211
721,29,74.6213,6.08148,0,0,0,0,0,0,0,-1,1945,995,74.6214,-6.08147
728,29,77.4955,6.89899,0,0,0,0,0,0,0,-1,1952,995,77.4955,-6.89901
735,29,77.6244,7.28601,-0.00532389,0.00637857,-0.00109484,0.00648011,-0.00542544,-1.47831,0.00688266,0.0171015,1959,995,77.6244,-7.28599
742,29,77.5818,7.50586,-0.00708044,0.00853396,-0.00141865,0.00866181,-0.00720828,-1.48092,0.0091754,0.0150515,1966,995,77.5818,-7.50586
749,29,77.5688,7.79431,-0.00854575,0.011493,-0.00259054,0.0118225,-0.00887523,-1.44429,0.0119901,0.0169279,1973,995,77.5689,-7.79431
756,29,77.5596,8.06531,-0.009929,0.0154978,-0.00444746,0.0162532,-0.0106845,-1.40254,0.0156629,0.0164223,1980,995,77.5595,-8.06534
763,29,77.4973,8.21643,-0.0109194,0.0210507,-0.00667833,0.0223897,-0.0122584,-1.37292,0.0202871,0.0130431,1987,995,77.4973,-8.21644
770,29,77.3557,8.36261,-0.0104672,0.0277,-0.0103356,0.0303191,-0.0130863,-1.32261,0.0257101,0.019213,1994,995,77.3557,-8.36263
777,29,77.2102,8.6825,-0.00850986,0.0342565,-0.0156072,0.0393465,-0.0135998,-1.25555,0.0317504,0.0338007,2001,995,77.2101,-8.68249
784,29,77.3042,9.01611,0,0,0,0,0,0,0,-1,2008,995,77.3042,-9.01613
791,29,75.7776,9.63043,0,0,0,0,0,0,0,-1,2015,995,75.7775,-9.63042
798,29,77.2781,10.3947,0,0,0,0,0,0,0,-1,2022,995,77.278,-10.3947
805,29,74.6421,8.94165,0,0,0,0,0,0,0,-1,2029,995,74.6421,-8.94166
812,29,71.7776,6.54651,0,0,0,0,0,0,0,-1,2036,995,71.7775,-6.54648
-700,22,0,0,0,0,0,0,0,0,0,-1,524,1002,0,0
-693,22,-62.025,0.378418,0,0,0,0,0,0,0,-1,531,1002,-62.025,-0.378417
-686,22,-61.028,1.58295,0,0,0,0,0,0,0,-1,538,1002,-61.028,-1.58293
-679,22,-60.5674,2.45447,0,0,0,0,0,0,0,-1,545,1002,-60.5673,-2.45448
-672,22,-60.0235,3.51929,0,0,0,0,0,0,0,-1,552,1002,-60.0235,-3.51931
-665,22,-59.1413,4.42145,0,0,0,0,0,0,0,-1,559,1002,-59.1413,-4.42146
-658,22,-58.7256,5.39417,0,0,0,0,0,0,0,-1,566,1002,-58.7256,-5.39416
-651,22,-61.261,6.66663,0,0,0,0,0,0,0,-1,573,1002,-61.261,-6.6666
-644,22,-62.0352,6.91577,0,0,0,0,0,0,0,-1,580,1002,-62.0352,-6.91575
-637,22,-62.4776,7.10657,0.013554,0.0177685,0.0235963,0.0393515,-0.00802901,0.829932,0.0292799,0.0328292,587,1002,-62.4776,-7.10655
-630,22,-62.4846,7.04822,0.00343596,0.0146008,0.0139672,0.0240599,-0.00602308,0.975514,0.0183796,0.0187446,594,1002,-62.4846,-7.04824
-623,22,-62.531,6.91754,-0.00355844,0.0114685,0.00694264,0.014185,-0.00627496,1.19783,0.0121032,0.0138141,601,1002,-62.531,-6.91754
-616,22,-62.5613,6.72693,-0.006288,0.00803696,0.00296601,0.00862679,-0.00687783,1.37449,0.00897056,0.0229323,608,1002,-62.5613,-6.72693
-609,22,-62.5911,6.63354,-0.00562792,0.00489969,0.00201524,0.00527227,-0.0060005,1.38798,0.00651287,0.0375788,615,1002,-62.5911,-6.63351
-602,22,-62.8167,6.51971,-0.00475084,0.0027416,0.00140772,0.00299736,-0.0050066,1.39107,0.00466937,0.0331963,622,1002,-62.8167,-6.51973
-595,22,-63.103,6.23822,-0.00411742,0.00172555,0.000879933,0.00185519,-0.00424706,1.42452,0.00361222,0.0380612,629,1002,-63.103,-6.2382
-588,22,-63.1936,5.82794,0,0,0,0,0,0,0,-1,636,1002,-63.1936,-5.82795
-581,22,-61.5732,0.738953,0,0,0,0,0,0,0,-1,643,1002,-61.5732,-0.738958
-574,22,-61.5981,0.634399,-0.00263931,-0.000793449,0.000925415,-0.0004094,-0.00302336,1.17742,0.00189391,0.0316281,650,1002,-61.5981,-0.634393
-567,22,-61.5909,0.577209,-0.00232773,-0.000490378,0.00121844,0.000116911,-0.00293501,1.10842,0.00199679,0.0322324,657,1002,-61.5909,-0.57721
-560,22,-61.5049,0.467773,-0.00221437,0.000380409,0.00177319,0.00128016,-0.00311412,1.10123,0.00260965,0.0367589,664,1002,-61.5049,-0.467784
-553,22,-61.4437,0.532043,-0.00249023,0.00159746,0.00267156,0.00291732,-0.00381009,1.11193,0.00389546,0.0399395,671,1002,-61.4437,-0.532074
-546,22,-61.5114,0.544922,-0.00343576,0.0026487,0.00412492,0.00473191,-0.00551897,1.10313,0.00592416,0.0412652,678,1002,-61.5114,-0.544893
-539,22,-61.7073,0.533936,-0.00578794,0.00288485,0.00625049,0.00615588,-0.00905898,1.08866,0.00883744,0.0391336,685,1002,-61.7073,-0.53395
-532,22,-61.8067,0.728638,-0.00805172,0.00281165,0.00845797,0.00743186,-0.0126719,1.07083,0.0117376,0.043505,692,1002,-61.8067,-0.728611
-525,22,0,0,0,0,0,0,0,0,0,-1,699,1002,0,0
-518,22,0,0,0,0,0,0,0,0,0,-1,706,1002,0,0
-511,22,0,0,0,0,0,0,0,0,0,-1,713,1002,0,0
-504,22,0,0,0,0,0,0,0,0,0,-1,720,1002,0,0
-497,22,0,0,0,0,0,0,0,0,0,-1,727,1002,0,0
-490,22,0,0,0,0,0,0,0,0,0,-1,734,1002,0,0
-483,22,0,0,0,0,0,0,0,0,0,-1,741,1002,0,0
-476,22,0,0,0,0,0,0,0,0,0,-1,748,1002,0,0
-469,22,0,0,0,0,0,0,0,0,0,-1,755,1002,0,0
-462,22,0,0,0,0,0,0,0,0,0,-1,762,1002,0,0
-455,22,0,0,0,0,0,0,0,0,0,-1,769,1002,0,0
-448,22,0,0,0,0,0,0,0,0,0,-1,776,1002,0,0
-441,22,0,0,0,0,0,0,0,0,0,-1,783,1002,0,0
-434,22,0,0,0,0,0,0,0,0,0,-1,790,1002,0,0
-427,22,0,0,0,0,0,0,0,0,0,-1,797,1002,0,0
-420,22,0,0,0,0,0,0,0,0,0,-1,804,1002,0,0
-413,22,0,0,0,0,0,0,0,0,0,-1,811,1002,0,0
-406,22,0,0,0,0,0,0,0,0,0,-1,818,1002,0,0
-399,22,0,0,0,0,0,0,0,0,0,-1,825,1002,0,0
-392,22,0,0,0,0,0,0,0,0,0,-1,832,1002,0,0
-385,22,0,0,0,0,0,0,0,0,0,-1,839,1002,0,0
-378,22,0,0,0,0,0,0,0,0,0,-1,846,1002,0,0
-371,22,0,0,0,0,0,0,0,0,0,-1,853,1002,0,0
-364,22,0,0,0,0,0,0,0,0,0,-1,860,1002,0,0
-357,22,0,0,0,0,0,0,0,0,0,-1,867,1002,0,0
-350,22,0,0,0,0,0,0,0,0,0,-1,874,1002,0,0
-343,22,0,0,0,0,0,0,0,0,0,-1,881,1002,0,0
-336,22,0,0,0,0,0,0,0,0,0,-1,888,1002,0,0
-329,22,0,0,0,0,0,0,0,0,0,-1,895,1002,0,0
-322,22,0,0,0,0,0,0,0,0,0,-1,902,1002,0,0
-315,22,0,0,0,0,0,0,0,0,0,-1,909,1002,0,0
-308,22,0,0,0,0,0,0,0,0,0,-1,916,1002,0,0
-301,22,0,0,0,0,0,0,0,0,0,-1,923,1002,0,0
-294,22,0,0,0,0,0,0,0,0,0,-1,930,1002,0,0
-287,22,0,0,0,0,0,0,0,0,0,-1,937,1002,0,0
-280,22,0,0,0,0,0,0,0,0,0,-1,944,1002,0,0
-273,22,0,0,0,0,0,0,0,0,0,-1,951,1002,0,0
-266,22,0,0,0,0,0,0,0,0,0,-1,958,1002,0,0
-259,22,0,0,0,0,0,0,0,0,0,-1,965,1002,0,0
-252,22,0,0,0,0,0,0,0,0,0,-1,972,1002,0,0
-245,22,0,0,0,0,0,0,0,0,0,-1,979,1002,0,0
-238,22,0,0,0,0,0,0,0,0,0,-1,986,1002,0,0
-231,22,0,0,0,0,0,0,0,0,0,-1,993,1002,0,0
-224,22,0,0,0,0,0,0,0,0,0,-1,1000,1002,0,0
-217,22,0,0,0,0,0,0,0,0,0,-1,1007,1002,0,0
-210,22,0,0,0,0,0,0,0,0,0,-1,1014,1002,0,0
-203,22,0,0,0,0,0,0,0,0,0,-1,1021,1002,0,0
-196,22,0,0,0,0,0,0,0,0,0,-1,1028,1002,0,0
-189,22,0,0,0,0,0,0,0,0,0,-1,1035,1002,0,0
-182,22,0,0,0,0,0,0,0,0,0,-1,1042,1002,0,0
-175,22,0,0,0,0,0,0,0,0,0,-1,1049,1002,0,0
-168,22,0,0,0,0,0,0,0,0,0,-1,1056,1002,0,0
-161,22,0,0,0,0,0,0,0,0,0,-1,1063,1002,0,0
-154,22,0,0,0,0,0,0,0,0,0,-1,1070,1002,0,0
-147,22,0,0,0,0,0,0,0,0,0,-1,1077,1002,0,0
-140,22,0,0,0,0,0,0,0,0,0,-1,1084,1002,0,0
-133,22,0,0,0,0,0,0,0,0,0,-1,1091,1002,0,0
-126,22,0,0,0,0,0,0,0,0,0,-1,1098,1002,0,0
-119,22,0,0,0,0,0,0,0,0,0,-1,1105,1002,0,0
-112,22,0,0,0,0,0,0,0,0,0,-1,1112,1002,0,0
-105,22,0,0,0,0,0,0,0,0,0,-1,1119,1002,0,0
-98,22,0,0,0,0,0,0,0,0,0,-1,1126,1002,0,0
-91,22,0,0,0,0,0,0,0,0,0,-1,1133,1002,0,0
-84,22,0,0,0,0,0,0,0,0,0,-1,1140,1002,0,0
-77,22,0,0,0,0,0,0,0,0,0,-1,1147,1002,0,0
-70,22,0,0,0,0,0,0,0,0,0,-1,1154,1002,0,0
-63,22,0,0,0,0,0,0,0,0,0,-1,1161,1002,0,0
-56,22,0,0,0,0,0,0,0,0,0,-1,1168,1002,0,0
-49,22,0,0,0,0,0,0,0,0,0,-1,1175,1002,0,0
-42,22,0,0,0,0,0,0,0,0,0,-1,1182,1002,0,0
-35,22,0,0,0,0,0,0,0,0,0,-1,1189,1002,0,0
-28,22,0,0,0,0,0,0,0,0,0,-1,1196,1002,0,0
-21,22,0,0,0,0,0,0,0,0,0,-1,1203,1002,0,0
-14,22,0,0,0,0,0,0,0,0,0,-1,1210,1002,0,0
-7,22,0,0,0,0,0,0,0,0,0,-1,1217,1002,0,0
0,22,0,0,0,0,0,0,0,0,0,-1,1224,1002,0,0
7,22,0,0,0,0,0,0,0,0,0,-1,1231,1002,0,0
14,22,0,0,0,0,0,0,0,0,0,-1,1238,1002,0,0
21,22,0,0,0,0,0,0,0,0,0,-1,1245,1002,0,0
28,22,0,0,0,0,0,0,0,0,0,-1,1252,1002,0,0
35,22,0,0,0,0,0,0,0,0,0,-1,1259,1002,0,0
42,22,0,0,0,0,0,0,0,0,0,-1,1266,1002,0,0
49,22,0,0,0,0,0,0,0,0,0,-1,1273,1002,0,0
56,22,0,0,0,0,0,0,0,0,0,-1,1280,1002,0,0
63,22,0,0,0,0,0,0,0,0,0,-1,1287,1002,0,0
70,22,0,0,0,0,0,0,0,0,0,-1,1294,1002,0,0
77,22,0,0,0,0,0,0,0,0,0,-1,1301,1002,0,0
84,22,0,0,0,0,0,0,0,0,0,-1,1308,1002,0,0
91,22,0,0,0,0,0,0,0,0,0,-1,1315,1002,0,0
98,22,0,0,0,0,0,0,0,0,0,-1,1322,1002,0,0
105,22,0,0,0,0,0,0,0,0,0,-1,1329,1002,0,0
112,22,0,0,0,0,0,0,0,0,0,-1,1336,1002,0,0
119,22,0,0,0,0,0,0,0,0,0,-1,1343,1002,0,0
126,22,0,0,0,0,0,0,0,0,0,-1,1350,1002,0,0
133,22,0,0,0,0,0,0,0,0,0,-1,1357,1002,0,0
140,22,0,0,0,0,0,0,0,0,0,-1,1364,1002,0,0
147,22,0,0,0,0,0,0,0,0,0,-1,1371,1002,0,0
154,22,0,0,0,0,0,0,0,0,0,-1,1378,1002,0,0
161,22,0,0,0,0,0,0,0,0,0,-1,1385,1002,0,0
168,22,0,0,0,0,0,0,0,0,0,-1,1392,1002,0,0
175,22,0,0,0,0,0,0,0,0,0,-1,1399,1002,0,0
182,22,0,0,0,0,0,0,0,0,0,-1,1406,1002,0,0
189,22,0,0,0,0,0,0,0,0,0,-1,1413,1002,0,0
196,22,0,0,0,0,0,0,0,0,0,-1,1420,1002,0,0
203,22,0,0,0,0,0,0,0,0,0,-1,1427,1002,0,0
210,22,0,0,0,0,0,0,0,0,0,-1,1434,1002,0,0
217,22,0,0,0,0,0,0,0,0,0,-1,1441,1002,0,0
224,22,0,0,0,0,0,0,0,0,0,-1,1448,1002,0,0
231,22,0,0,0,0,0,0,0,0,0,-1,1455,1002,0,0
238,22,0,0,0,0,0,0,0,0,0,-1,1462,1002,0,0
245,22,0,0,0,0,0,0,0,0,0,-1,1469,1002,0,0
252,22,0,0,0,0,0,0,0,0,0,-1,1476,1002,0,0
259,22,0,0,0,0,0,0,0,0,0,-1,1483,1002,0,0
266,22,0,0,0,0,0,0,0,0,0,-1,1490,1002,0,0
273,22,0,0,0,0,0,0,0,0,0,-1,1497,1002,0,0
280,22,0,0,0,0,0,0,0,0,0,-1,1504,1002,0,0
287,22,0,0,0,0,0,0,0,0,0,-1,1511,1002,0,0
294,22,0,0,0,0,0,0,0,0,0,-1,1518,1002,0,0
301,22,0,0,0,0,0,0,0,0,0,-1,1525,1002,0,0
308,22,0,0,0,0,0,0,0,0,0,-1,1532,1002,0,0
315,22,0,0,0,0,0,0,0,0,0,-1,1539,1002,0,0
322,22,0,0,0,0,0,0,0,0,0,-1,1546,1002,0,0
329,22,0,0,0,0,0,0,0,0,0,-1,1553,1002,0,0
336,22,0,0,0,0,0,0,0,0,0,-1,1560,1002,0,0
343,22,0,0,0,0,0,0,0,0,0,-1,1567,1002,0,0
350,22,0,0,0,0,0,0,0,0,0,-1,1574,1002,0,0
357,22,0,0,0,0,0,0,0,0,0,-1,1581,1002,0,0
364,22,0,0,0,0,0,0,0,0,0,-1,1588,1002,0,0
371,22,0,0,0,0,0,0,0,0,0,-1,1595,1002,0,0
378,22,0,0,0,0,0,0,0,0,0,-1,1602,1002,0,0
385,22,0,0,0,0,0,0,0,0,0,-1,1609,1002,0,0
392,22,0,0,0,0,0,0,0,0,0,-1,1616,1002,0,0
399,22,0,0,0,0,0,0,0,0,0,-1,1623,1002,0,0
406,22,0,0,0,0,0,0,0,0,0,-1,1630,1002,0,0
413,22,0,0,0,0,0,0,0,0,0,-1,1637,1002,0,0
420,22,0,0,0,0,0,0,0,0,0,-1,1644,1002,0,0
427,22,0,0,0,0,0,0,0,0,0,-1,1651,1002,0,0
434,22,0,0,0,0,0,0,0,0,0,-1,1658,1002,0,0
441,22,0,0,0,0,0,0,0,0,0,-1,1665,1002,0,0
448,22,0,0,0,0,0,0,0,0,0,-1,1672,1002,0,0
455,22,0,0,0,0,0,0,0,0,0,-1,1679,1002,0,0
462,22,0,0,0,0,0,0,0,0,0,-1,1686,1002,0,0
469,22,0,0,0,0,0,0,0,0,0,-1,1693,1002,0,0
476,22,0,0,0,0,0,0,0,0,0,-1,1700,1002,0,0
483,22,0,0,0,0,0,0,0,0,0,-1,1707,1002,0,0
490,22,0,0,0,0,0,0,0,0,0,-1,1714,1002,0,0
497,22,0,0,0,0,0,0,0,0,0,-1,1721,1002,0,0
504,22,0,0,0,0,0,0,0,0,0,-1,1728,1002,0,0
511,22,0,0,0,0,0,0,0,0,0,-1,1735,1002,0,0
518,22,0,0,0,0,0,0,0,0,0,-1,1742,1002,0,0
525,22,0,0,0,0,0,0,0,0,0,-1,1749,1002,0,0
532,22,0,0,0,0,0,0,0,0,0,-1,1756,1002,0,0
539,22,0,0,0,0,0,0,0,0,0,-1,1763,1002,0,0
546,22,0,0,0,0,0,0,0,0,0,-1,1770,1002,0,0
553,22,0,0,0,0,0,0,0,0,0,-1,1777,1002,0,0
560,22,0,0,0,0,0,0,0,0,0,-1,1784,1002,0,0
567,22,0,0,0,0,0,0,0,0,0,-1,1791,1002,0,0
574,22,0,0,0,0,0,0,0,0,0,-1,1798,1002,0,0
581,22,0,0,0,0,0,0,0,0,0,-1,1805,1002,0,0
588,22,0,0,0,0,0,0,0,0,0,-1,1812,1002,0,0
595,22,0,0,0,0,0,0,0,0,0,-1,1819,1002,0,0
602,22,0,0,0,0,0,0,0,0,0,-1,1826,1002,0,0
609,22,0,0,0,0,0,0,0,0,0,-1,1833,1002,0,0
616,22,0,0,0,0,0,0,0,0,0,-1,1840,1002,0,0
623,22,0,0,0,0,0,0,0,0,0,-1,1847,1002,0,0
630,22,0,0,0,0,0,0,0,0,0,-1,1854,1002,0,0
637,22,0,0,0,0,0,0,0,0,0,-1,1861,1002,0,0
644,22,77.6975,2.55853,-0.00453059,-0.00384716,0.000547882,-0.00354316,-0.00483459,1.06423,0.00289041,0.0399829,1868,1002,77.6975,-2.55855
651,22,77.7037,2.61829,-0.00337625,-0.0027992,-0.000184942,-0.00274501,-0.00343044,-1.28579,0.00209618,0.0415158,1875,1002,77.7037,-2.61827
658,22,77.6876,2.66705,-0.00236898,-0.00201048,-0.000512458,-0.00164683,-0.00273263,-0.953643,0.00158873,0.0422612,1882,1002,77.6877,-2.66708
665,22,77.6107,2.73145,-0.00141999,-0.00143959,-0.000680079,-0.000749643,-0.00210994,-0.778196,0.00123506,0.0406991,1889,1002,77.6107,-2.73146
672,22,77.7192,2.75189,-0.000583837,-0.000910573,-0.000698478,-2.98763e-05,-0.00146453,-0.670518,0.000966551,0.0397237,1896,1002,77.7193,-2.75188
679,22,77.7294,2.66449,0.000127815,-0.000555457,-0.000555751,0.000438539,-0.000866182,-0.509809,0.00076665,0.0403146,1903,1002,77.7293,-2.66449
686,22,77.7469,2.68414,0.000505637,-0.000661393,-0.000425812,0.000644483,-0.000800239,-0.315203,0.000835725,0.0395645,1910,1002,77.7469,-2.68413
693,22,77.8177,2.64612,0.000625907,-0.000910485,-0.000276581,0.00067418,-0.000958759,-0.172795,0.000947538,0.0372324,1917,1002,77.8177,-2.64612
700,22,77.8282,2.59894,0.000551904,-0.000931989,-0.000239441,0.000589583,-0.000969669,-0.156084,0.000909106,0.0349543,1924,1002,77.8283,-2.59894
707,22,77.7443,2.53613,-9.36882e-05,-0.000300305,-0.000335564,0.00015411,-0.000548103,-0.63607,0.000426164,0.0314069,1931,1002,77.7442,-2.53612
714,22,77.8219,2.58667,0,0,0,0,0,0,0,-1,1938,1002,77.8219,-2.58669
721,22,76.814,2.41211,0,0,0,0,0,0,0,-1,1945,1002,76.814,-2.41212
728,22,77.8586,7.24573,0,0,0,0,0,0,0,-1,1952,1002,77.8586,-7.24573
735,22,77.8563,7.40808,-0.00580466,0.00642913,-0.00090095,0.00649512,-0.00587065,-1.49768,0.00714242,0.0184439,1959,1002,77.8563,-7.40807
742,22,77.8608,7.56122,-0.00763406,0.00853164,-0.0011906,0.00861886,-0.00772127,-1.49767,0.00943872,0.0187536,1966,1002,77.8608,-7.5612
749,22,77.8096,7.75232,-0.00908199,0.0113929,-0.00250345,0.0116945,-0.00938364,-1.45088,0.0121938,0.0145289,1973,1002,77.8095,-7.75231
756,22,77.8105,7.93127,-0.0103946,0.0151677,-0.00465622,0.0159894,-0.0112163,-1.39612,0.0157876,0.0201057,1980,1002,77.8104,-7.93128
763,22,77.7163,8.1283,-0.0113272,0.0203353,-0.00740327,0.0219808,-0.0129727,-1.35208,0.0204026,0.0197448,1987,1002,77.7163,-8.1283
770,22,77.4866,8.23901,-0.010728,0.0265558,-0.0121596,0.0301709,-0.0143431,-1.28181,0.0262361,0.0219522,1994,1002,77.4866,-8.23904
777,22,77.0874,8.26288,-0.00836473,0.0325667,-0.018963,0.0400016,-0.0157996,-1.19714,0.0332115,0.046225,2001,1002,77.0875,-8.26287
784,22,76.7698,8.34851,0,0,0,0,0,0,0,-1,2008,1002,76.7699,-8.34851
791,22,75.5981,9.58057,0,0,0,0,0,0,0,-1,2015,1002,75.5981,-9.58059
798,22,76.3862,3.65674,0,0,0,0,0,0,0,-1,2022,1002,76.3862,-3.65675
805,22,76.1826,3.3811,0,0,0,0,0,0,0,-1,2029,1002,76.1826,-3.38109
812,22,75.9993,3.12421,0,0,0,0,0,0,0,-1,2036,1002,75.9992,-3.1242
-700,15,0,0,0,0,0,0,0,0,0,-1,524,1009,0,0
-693,15,-62.4781,0.443665,0,0,0,0,0,0,0,-1,531,1009,-62.4781,-0.443654
-686,15,-61.2272,1.48053,0,0,0,0,0,0,0,-1,538,1009,-61.2272,-1.48052
-679,15,-59.9847,2.54163,0,0,0,0,0,0,0,-1,545,1009,-59.9847,-2.54165
-672,15,-64.0181,6.86157,0,0,0,0,0,0,0,-1,552,1009,-64.0181,-6.86157
-665,15,-59.3424,4.46161,0,0,0,0,0,0,0,-1,559,1009,-59.3424,-4.46161
-658,15,-61.9175,4.66736,0,0,0,0,0,0,0,-1,566,1009,-61.9175,-4.66734
-651,15,-51.4943,3.62128,0,0,0,0,0,0,0,-1,573,1009,-51.4943,-3.62128
-644,15,-62.756,7.14832,0,0,0,0,0,0,0,-1,580,1009,-62.756,-7.14832
-637,15,-62.6131,7.04462,0.0122743,0.0181214,0.0229352,0.0383186,-0.00792291,0.848791,0.0285555,0.0365271,587,1009,-62.6131,-7.04462
-630,15,-62.6138,6.93518,0.00247779,0.0148485,0.013369,0.0233937,-0.00606734,1.00207,0.0179631,0.0205338,594,1009,-62.6138,-6.93518
-623,15,-62.6732,6.8288,-0.00397171,0.0115458,0.00651116,0.0139158,-0.00634181,1.2217,0.0119652,0.0115404,601,1009,-62.6732,-6.82881
-616,15,-62.6788,6.73462,-0.00633067,0.00814845,0.00271768,0.00864174,-0.00682396,1.39124,0.00894966,0.0198263,608,1009,-62.6788,-6.73463
-609,15,-62.7945,6.67767,-0.00570412,0.00491679,0.00158977,0.00514965,-0.00593697,1.42536,0.00640624,0.0269758,615,1009,-62.7945,-6.67768
-602,15,-62.9296,6.62219,-0.00482904,0.0027651,0.000944887,0.0028809,-0.00494484,1.44885,0.00457027,0.026403,622,1009,-62.9296,-6.62217
-595,15,-63.0112,6.48254,0,0,0,0,0,0,0,-1,629,1009,-63.0112,-6.48256
-588,15,-61.5487,0.670959,0,0,0,0,0,0,0,-1,636,1009,-61.5487,-0.670952
-581,15,-61.5615,0.644287,-0.00320963,-0.000396367,0.000667149,-0.000246175,-0.00335983,1.34936,0.0021625,0.0376827,643,1009,-61.5615,-0.644273
-574,15,-61.5948,0.605896,-0.00279869,-0.000786565,0.000791855,-0.000512317,-0.00307294,1.23739,0.00190101,0.0298457,650,1009,-61.5948,-0.605905
-567,15,-61.6512,0.515686,-0.00253926,-0.000523971,0.00123737,6.4141e-05,-0.00312738,1.12711,0.00210662,0.033138,657,1009,-61.6512,-0.515661
-560,15,-61.618,0.477722,-0.00246035,0.000281347,0.00199358,0.00132992,-0.00350892,1.08659,0.00288658,0.0388487,664,1009,-61.6181,-0.4777
-553,15,-61.6245,0.693542,-0.00278562,0.0013897,0.0031612,0.00309038,-0.0044863,1.07722,0.00439907,0.0404047,671,1009,-61.6245,-0.693525
-546,15,-61.725,0.742737,-0.00376967,0.0022843,0.00497771,0.00508314,-0.00656852,1.05858,0.00674528,0.0412451,678,1009,-61.725,-0.742727
-539,15,-61.6486,0.444153,-0.00608842,0.00246647,0.00751133,0.0068329,-0.0104549,1.04423,0.0100538,0.0406405,685,1009,-61.6486,-0.444139
-532,15,-61.7579,0.779053,-0.00830832,0.00256026,0.0101351,0.00862607,-0.0143741,1.03149,0.0134167,0.0430867,692,1009,-61.7579,-0.779073
-525,15,0,0,0,0,0,0,0,0,0,-1,699,1009,0,0
-518,15,0,0,0,0,0,0,0,0,0,-1,706,1009,0,0
-511,15,0,0,0,0,0,0,0,0,0,-1,713,1009,0,0
-504,15,0,0,0,0,0,0,0,0,0,-1,720,1009,0,0
-497,15,0,0,0,0,0,0,0,0,0,-1,727,1009,0,0
-490,15,0,0,0,0,0,0,0,0,0,-1,734,1009,0,0
-483,15,0,0,0,0,0,0,0,0,0,-1,741,1009,0,0
-476,15,0,0,0,0,0,0,0,0,0,-1,748,1009,0,0
-469,15,0,0,0,0,0,0,0,0,0,-1,755,1009,0,0
-462,15,0,0,0,0,0,0,0,0,0,-1,762,1009,0,0
-455,15,0,0,0,0,0,0,0,0,0,-1,769,1009,0,0
-448,15,0,0,0,0,0,0,0,0,0,-1,776,1009,0,0
-441,15,0,0,0,0,0,0,0,0,0,-1,783,1009,0,0
-434,15,0,0,0,0,0,0,0,0,0,-1,790,1009,0,0
-427,15,0,0,0,0,0,0,0,0,0,-1,797,1009,0,0
-420,15,0,0,0,0,0,0,0,0,0,-1,804,1009,0,0
-413,15,0,0,0,0,0,0,0,0,0,-1,811,1009,0,0
-406,15,0,0,0,0,0,0,0,0,0,-1,818,1009,0,0
-399,15,0,0,0,0,0,0,0,0,0,-1,825,1009,0,0
-392,15,0,0,0,0,0,0,0,0,0,-1,832,1009,0,0
-385,15,0,0,0,0,0,0,0,0,0,-1,839,1009,0,0
-378,15,0,0,0,0,0,0,0,0,0,-1,846,1009,0,0
-371,15,0,0,0,0,0,0,0,0,0,-1,853,1009,0,0
-364,15,0,0,0,0,0,0,0,0,0,-1,860,1009,0,0
-357,15,0,0,0,0,0,0,0,0,0,-1,867,1009,0,0
-350,15,0,0,0,0,0,0,0,0,0,-1,874,1009,0,0
-343,15,0,0,0,0,0,0,0,0,0,-1,881,1009,0,0
-336,15,0,0,0,0,0,0,0,0,0,-1,888,1009,0,0
-329,15,0,0,0,0,0,0,0,0,0,-1,895,1009,0,0
-322,15,0,0,0,0,0,0,0,0,0,-1,902,1009,0,0
-315,15,0,0,0,0,0,0,0,0,0,-1,909,1009,0,0
-308,15,0,0,0,0,0,0,0,0,0,-1,916,1009,0,0
-301,15,0,0,0,0,0,0,0,0,0,-1,923,1009,0,0
-294,15,0,0,0,0,0,0,0,0,0,-1,930,1009,0,0
-287,15,0,0,0,0,0,0,0,0,0,-1,937,1009,0,0
-280,15,0,0,0,0,0,0,0,0,0,-1,944,1009,0,0
-273,15,0,0,0,0,0,0,0,0,0,-1,951,1009,0,0
-266,15,0,0,0,0,0,0,0,0,0,-1,958,1009,0,0
-259,15,0,0,0,0,0,0,0,0,0,-1,965,1009,0,0
-252,15,0,0,0,0,0,0,0,0,0,-1,972,1009,0,0
-245,15,0,0,0,0,0,0,0,0,0,-1,979,1009,0,0
-238,15,0,0,0,0,0,0,0,0,0,-1,986,1009,0,0
-231,15,0,0,0,0,0,0,0,0,0,-1,993,1009,0,0
-224,15,0,0,0,0,0,0,0,0,0,-1,1000,1009,0,0
-217,15,0,0,0,0,0,0,0,0,0,-1,1007,1009,0,0
-210,15,0,0,0,0,0,0,0,0,0,-1,1014,1009,0,0
-203,15,0,0,0,0,0,0,0,0,0,-1,1021,1009,0,0
-196,15,0,0,0,0,0,0,0,0,0,-1,1028,1009,0,0
-189,15,0,0,0,0,0,0,0,0,0,-1,1035,1009,0,0
-182,15,0,0,0,0,0,0,0,0,0,-1,1042,1009,0,0
-175,15,0,0,0,0,0,0,0,0,0,-1,1049,1009,0,0
-168,15,0,0,0,0,0,0,0,0,0,-1,1056,1009,0,0
-161,15,0,0,0,0,0,0,0,0,0,-1,1063,1009,0,0
-154,15,0,0,0,0,0,0,0,0,0,-1,1070,1009,0,0
-147,15,0,0,0,0,0,0,0,0,0,-1,1077,1009,0,0
-140,15,0,0,0,0,0,0,0,0,0,-1,1084,1009,0,0
-133,15,0,0,0,0,0,0,0,0,0,-1,1091,1009,0,0
-126,15,0,0,0,0,0,0,0,0,0,-1,1098,1009,0,0
-119,15,0,0,0,0,0,0,0,0,0,-1,1105,1009,0,0
-112,15,0,0,0,0,0,0,0,0,0,-1,1112,1009,0,0
-105,15,0,0,0,0,0,0,0,0,0,-1,1119,1009,0,0
-98,15,0,0,0,0,0,0,0,0,0,-1,1126,1009,0,0
-91,15,0,0,0,0,0,0,0,0,0,-1,1133,1009,0,0
-84,15,0,0,0,0,0,0,0,0,0,-1,1140,1009,0,0
-77,15,0,0,0,0,0,0,0,0,0,-1,1147,1009,0,0
-70,15,0,0,0,0,0,0,0,0,0,-1,1154,1009,0,0
-63,15,0,0,0,0,0,0,0,0,0,-1,1161,1009,0,0
-56,15,0,0,0,0,0,0,0,0,0,-1,1168,1009,0,0
-49,15,0,0,0,0,0,0,0,0,0,-1,1175,1009,0,0
-42,15,0,0,0,0,0,0,0,0,0,-1,1182,1009,0,0
-35,15,0,0,0,0,0,0,0,0,0,-1,1189,1009,0,0
-28,15,0,0,0,0,0,0,0,0,0,-1,1196,1009,0,0
-21,15,0,0,0,0,0,0,0,0,0,-1,1203,1009,0,0
-14,15,0,0,0,0,0,0,0,0,0,-1,1210,1009,0,0
-7,15,0,0,0,0,0,0,0,0,0,-1,1217,1009,0,0
0,15,0,0,0,0,0,0,0,0,0,-1,1224,1009,0,0
7,15,0,0,0,0,0,0,0,0,0,-1,1231,1009,0,0
14,15,0,0,0,0,0,0,0,0,0,-1,1238,1009,0,0
21,15,0,0,0,0,0,0,0,0,0,-1,1245,1009,0,0
28,15,0,0,0,0,0,0,0,0,0,-1,1252,1009,0,0
35,15,0,0,0,0,0,0,0,0,0,-1,1259,1009,0,0
42,15,0,0,0,0,0,0,0,0,0,-1,1266,1009,0,0
49,15,0,0,0,0,0,0,0,0,0,-1,1273,1009,0,0
56,15,0,0,0,0,0,0,0,0,0,-1,1280,1009,0,0
63,15,0,0,0,0,0,0,0,0,0,-1,1287,1009,0,0
70,15,0,0,0,0,0,0,0,0,0,-1,1294,1009,0,0
77,15,0,0,0,0,0,0,0,0,0,-1,1301,1009,0,0
84,15,0,0,0,0,0,0,0,0,0,-1,1308,1009,0,0
91,15,0,0,0,0,0,0,0,0,0,-1,1315,1009,0,0
98,15,0,0,0,0,0,0,0,0,0,-1,1322,1009,0,0
105,15,0,0,0,0,0,0,0,0,0,-1,1329,1009,0,0
112,15,0,0,0,0,0,0,0,0,0,-1,1336,1009,0,0
119,15,0,0,0,0,0,0,0,0,0,-1,1343,1009,0,0
126,15,0,0,0,0,0,0,0,0,0,-1,1350,1009,0,0
133,15,0,0,0,0,0,0,0,0,0,-1,1357,1009,0,0
140,15,0,0,0,0,0,0,0,0,0,-1,1364,1009,0,0
147,15,0,0,0,0,0,0,0,0,0,-1,1371,1009,0,0
154,15,0,0,0,0,0,0,0,0,0,-1,1378,1009,0,0
161,15,0,0,0,0,0,0,0,0,0,-1,1385,1009,0,0
168,15,0,0,0,0,0,0,0,0,0,-1,1392,1009,0,0
175,15,0,0,0,0,0,0,0,0,0,-1,1399,1009,0,0
182,15,0,0,0,0,0,0,0,0,0,-1,1406,1009,0,0
189,15,0,0,0,0,0,0,0,0,0,-1,1413,1009,0,0
196,15,0,0,0,0,0,0,0,0,0,-1,1420,1009,0,0
203,15,0,0,0,0,0,0,0,0,0,-1,1427,1009,0,0
210,15,0,0,0,0,0,0,0,0,0,-1,1434,1009,0,0
217,15,0,0,0,0,0,0,0,0,0,-1,1441,1009,0,0
224,15,0,0,0,0,0,0,0,0,0,-1,1448,1009,0,0
231,15,0,0,0,0,0,0,0,0,0,-1,1455,1009,0,0
238,15,0,0,0,0,0,0,0,0,0,-1,1462,1009,0,0
245,15,0,0,0,0,0,0,0,0,0,-1,1469,1009,0,0
252,15,0,0,0,0,0,0,0,0,0,-1,1476,1009,0,0
259,15,0,0,0,0,0,0,0,0,0,-1,1483,1009,0,0
266,15,0,0,0,0,0,0,0,0,0,-1,1490,1009,0,0
273,15,0,0,0,0,0,0,0,0,0,-1,1497,1009,0,0
280,15,0,0,0,0,0,0,0,0,0,-1,1504,1009,0,0
287,15,0,0,0,0,0,0,0,0,0,-1,1511,1009,0,0
294,15,0,0,0,0,0,0,0,0,0,-1,1518,1009,0,0
301,15,0,0,0,0,0,0,0,0,0,-1,1525,1009,0,0
308,15,0,0,0,0,0,0,0,0,0,-1,1532,1009,0,0
315,15,0,0,0,0,0,0,0,0,0,-1,1539,1009,0,0
322,15,0,0,0,0,0,0,0,0,0,-1,1546,1009,0,0
329,15,0,0,0,0,0,0,0,0,0,-1,1553,1009,0,0
336,15,0,0,0,0,0,0,0,0,0,-1,1560,1009,0,0
343,15,0,0,0,0,0,0,0,0,0,-1,1567,1009,0,0
350,15,0,0,0,0,0,0,0,0,0,-1,1574,1009,0,0
357,15,0,0,0,0,0,0,0,0,0,-1,1581,1009,0,0
364,15,0,0,0,0,0,0,0,0,0,-1,1588,1009,0,0
371,15,0,0,0,0,0,0,0,0,0,-1,1595,1009,0,0
378,15,0,0,0,0,0,0,0,0,0,-1,1602,1009,0,0
385,15,0,0,0,0,0,0,0,0,0,-1,1609,1009,0,0
392,15,0,0,0,0,0,0,0,0,0,-1,1616,1009,0,0
399,15,0,0,0,0,0,0,0,0,0,-1,1623,1009,0,0
406,15,0,0,0,0,0,0,0,0,0,-1,1630,1009,0,0
413,15,0,0,0,0,0,0,0,0,0,-1,1637,1009,0,0
420,15,0,0,0,0,0,0,0,0,0,-1,1644,1009,0,0
427,15,0,0,0,0,0,0,0,0,0,-1,1651,1009,0,0
434,15,0,0,0,0,0,0,0,0,0,-1,1658,1009,0,0
441,15,0,0,0,0,0,0,0,0,0,-1,1665,1009,0,0
448,15,0,0,0,0,0,0,0,0,0,-1,1672,1009,0,0
455,15,0,0,0,0,0,0,0,0,0,-1,1679,1009,0,0
462,15,0,0,0,0,0,0,0,0,0,-1,1686,1009,0,0
469,15,0,0,0,0,0,0,0,0,0,-1,1693,1009,0,0
476,15,0,0,0,0,0,0,0,0,0,-1,1700,1009,0,0
483,15,0,0,0,0,0,0,0,0,0,-1,1707,1009,0,0
490,15,0,0,0,0,0,0,0,0,0,-1,1714,1009,0,0
497,15,0,0,0,0,0,0,0,0,0,-1,1721,1009,0,0
504,15,0,0,0,0,0,0,0,0,0,-1,1728,1009,0,0
511,15,0,0,0,0,0,0,0,0,0,-1,1735,1009,0,0
518,15,0,0,0,0,0,0,0,0,0,-1,1742,1009,0,0
525,15,0,0,0,0,0,0,0,0,0,-1,1749,1009,0,0
532,15,0,0,0,0,0,0,0,0,0,-1,1756,1009,0,0
539,15,0,0,0,0,0,0,0,0,0,-1,1763,1009,0,0
546,15,0,0,0,0,0,0,0,0,0,-1,1770,1009,0,0
553,15,0,0,0,0,0,0,0,0,0,-1,1777,1009,0,0
560,15,0,0,0,0,0,0,0,0,0,-1,1784,1009,0,0
567,15,0,0,0,0,0,0,0,0,0,-1,1791,1009,0,0
574,15,0,0,0,0,0,0,0,0,0,-1,1798,1009,0,0
581,15,0,0,0,0,0,0,0,0,0,-1,1805,1009,0,0
588,15,0,0,0,0,0,0,0,0,0,-1,1812,1009,0,0
595,15,0,0,0,0,0,0,0,0,0,-1,1819,1009,0,0
602,15,0,0,0,0,0,0,0,0,0,-1,1826,1009,0,0
609,15,0,0,0,0,0,0,0,0,0,-1,1833,1009,0,0
616,15,0,0,0,0,0,0,0,0,0,-1,1840,1009,0,0
623,15,0,0,0,0,0,0,0,0,0,-1,1847,1009,0,0
630,15,0,0,0,0,0,0,0,0,0,-1,1854,1009,0,0
637,15,0,0,0,0,0,0,0,0,0,-1,1861,1009,0,0
644,15,77.8621,2.74176,-0.00383798,-0.00344968,-0.000675176,-0.0029413,-0.00434637,-0.925398,0.00256109,0.0398805,1868,1009,77.8621,-2.74175
651,15,77.8951,2.72339,-0.0027626,-0.00238889,-0.00125112,-0.00131075,-0.00384074,-0.859527,0.00225439,0.038284,1875,1009,77.8951,-2.72339
658,15,77.7072,2.74878,-0.00188545,-0.00161476,-0.00139025,-0.000353281,-0.00314693,-0.833922,0.00199067,0.0381808,1882,1009,77.7071,-2.74877
665,15,77.5714,2.72687,-0.00107698,-0.00107758,-0.00137129,0.000294009,-0.00244858,-0.785289,0.00173869,0.0384119,1889,1009,77.5714,-2.72685
672,15,77.7297,2.7583,-0.000351637,-0.000562328,-0.00120437,0.000751985,-0.00166595,-0.741774,0.00142885,0.0365913,1896,1009,77.7297,-2.75827
679,15,77.8201,2.62964,0.000291601,-0.000177839,-0.000902901,0.000989792,-0.00087603,-0.658232,0.0010779,0.0369878,1903,1009,77.8201,-2.62963
686,15,77.8644,2.41431,0.000565572,-0.000266163,-0.000650921,0.000922132,-0.000622723,-0.501135,0.000897489,0.0439679,1910,1009,77.8644,-2.41429
693,15,77.8695,2.46075,0.000626889,-0.000510653,-0.000390957,0.000748297,-0.000632061,-0.3011,0.000797892,0.041181,1917,1009,77.8695,-2.46077
700,15,77.8619,2.54639,0.00055051,-0.000579151,-0.000247013,0.000602161,-0.000630802,-0.20613,0.000711915,0.0329775,1924,1009,77.8619,-2.5464
707,15,77.7903,2.52979,-0.000153211,4.23627e-05,-0.000264895,0.000226944,-0.000337792,-0.962216,0.000328137,0.0280522,1931,1009,77.7903,-2.52978
714,15,77.8256,2.55322,-0.00128227,0.00108927,-0.000368276,0.00114514,-0.00133814,-1.42023,0.00143517,0.0367524,1938,1009,77.8256,-2.55325
721,15,77.7056,2.48138,0,0,0,0,0,0,0,-1,1945,1009,77.7056,-2.48139
728,15,78.0635,7.37946,0,0,0,0,0,0,0,-1,1952,1009,78.0635,-7.37944
735,15,77.964,7.55023,-0.00615397,0.00672152,-0.000624135,0.0067517,-0.00618415,-1.52247,0.00747091,0.0231085,1959,1009,77.964,-7.55022
742,15,77.9457,7.7569,-0.00803073,0.00876253,-0.000866056,0.00880708,-0.00807528,-1.51941,0.00975008,0.0468954,1966,1009,77.9457,-7.75689
749,15,77.9949,7.82349,-0.00936983,0.011534,-0.00229201,0.0117824,-0.00961819,-1.46286,0.0123767,0.0301657,1973,1009,77.9949,-7.82346
756,15,77.9897,7.7514,-0.0105232,0.0150936,-0.0046311,0.0159052,-0.0113347,-1.39733,0.0158006,0.0215014,1980,1009,77.9899,-7.75138
763,15,77.8716,7.92236,-0.0112598,0.0199063,-0.00768693,0.0216991,-0.0130526,-1.34166,0.0202698,0.0155666,1987,1009,77.8715,-7.92238
770,15,77.6707,7.96295,-0.0103125,0.025748,-0.0131908,0.030058,-0.0146225,-1.25499,0.0263044,0.0223831,1994,1009,77.6706,-7.96292
777,15,77.1956,8.03638,-0.00733212,0.0314098,-0.0210689,0.0406594,-0.0165817,-1.15712,0.0340087,0.0488924,2001,1009,77.1956,-8.03638
784,15,76.7732,8.15668,0,0,0,0,0,0,0,-1,2008,1009,76.7732,-8.15667
791,15,76.7173,4.45166,0,0,0,0,0,0,0,-1,2015,1009,76.7172,-4.45163
798,15,76.3652,4.16998,0,0,0,0,0,0,0,-1,2022,1009,76.3653,-4.16995
805,15,74.0098,6.14813,0,0,0,0,0,0,0,-1,2029,1009,74.0097,-6.14812
812,15,75.9182,3.65948,0,0,0,0,0,0,0,-1,2036,1009,75.9181,-3.65946
-700,8,0,0,0,0,0,0,0,0,0,-1,524,1016,0,0
-693,8,-62.5992,0.404785,0,0,0,0,0,0,0,-1,531,1016,-62.5992,-0.404797
-686,8,-61.382,1.46002,0,0,0,0,0,0,0,-1,538,1016,-61.3821,-1.46001
-679,8,-60.1649,2.5152,0,0,0,0,0,0,0,-1,545,1016,-60.1649,-2.51521
-672,8,-63.4775,6.34674,0,0,0,0,0,0,0,-1,552,1016,-63.4775,-6.34672
-665,8,-63.0332,6.24786,0,0,0,0,0,0,0,-1,559,1016,-63.0332,-6.24784
-658,8,-61.6521,5.07373,0,0,0,0,0,0,0,-1,566,1016,-61.6521,-5.07373
-651,8,-60.9469,5.91803,0,0,0,0,0,0,0,-1,573,1016,-60.9469,-5.91803
-644,8,-62.4169,6.43701,0,0,0,0,0,0,0,-1,580,1016,-62.4169,-6.43702
-637,8,-62.4348,6.64099,0.0110947,0.0179986,0.0221074,0.0369219,-0.00782859,0.862845,0.0275968,0.0472813,587,1016,-62.4348,-6.64099
-630,8,-62.6511,6.75391,0.00162137,0.0148696,0.0126429,0.0225186,-0.00602765,1.0267,0.0173737,0.0293162,594,1016,-62.6511,-6.75388
-623,8,-62.6567,6.80011,-0.00432782,0.0115272,0.00594266,0.0135073,-0.00630792,1.24917,0.0116893,0.0188602,601,1016,-62.6567,-6.80009
-616,8,-62.7269,6.73486,-0.00630116,0.00819509,0.00235224,0.00856722,-0.00667329,1.41389,0.00882173,0.0208115,608,1016,-62.7269,-6.73483
-609,8,-62.8813,6.64771,-0.00569073,0.00495926,0.00110092,0.00507187,-0.00580335,1.46886,0.00628354,0.0245973,615,1016,-62.8813,-6.64772
-602,8,-62.8065,6.72772,-0.00481762,0.00274002,0.00039967,0.0027611,-0.00483869,1.51811,0.00444206,0.0288176,622,1016,-62.8065,-6.72771
-595,8,-62.8635,6.65662,0,0,0,0,0,0,0,-1,629,1016,-62.8635,-6.65663
-588,8,-61.4881,0.512268,0,0,0,0,0,0,0,-1,636,1016,-61.4881,-0.512238
-581,8,-61.5367,0.576477,-0.00325363,-0.00044846,0.000361867,-0.000402531,-0.00329956,1.44455,0.00207856,0.0313343,643,1016,-61.5367,-0.57646
-574,8,-61.5913,0.624756,-0.00287166,-0.000864359,0.000614719,-0.000691067,-0.00304495,1.29602,0.00184331,0.0350717,650,1016,-61.5913,-0.624736
-567,8,-61.561,0.448608,-0.0026511,-0.00067642,0.00120043,-0.000109455,-0.00321807,1.12955,0.00210984,0.0377404,657,1016,-61.561,-0.448587
-560,8,-61.6171,0.479797,-0.00257759,5.09793e-06,0.00213156,0.00120597,-0.00377846,1.05774,0.0030028,0.0397731,664,1016,-61.6171,-0.479779
-553,8,-61.6435,0.785706,-0.00288802,0.000926794,0.00352044,0.00302335,-0.00498458,1.03366,0.00466937,0.0409041,671,1016,-61.6435,-0.785705
-546,8,-61.5981,0.000854492,-0.00377812,0.00157212,0.0056049,0.00510757,-0.00731357,1.00805,0.00720895,0.0427762,678,1016,-61.5981,-0.000845493
-539,8,-61.6506,0.397583,-0.00585914,0.00158747,0.00838065,0.00703468,-0.0113063,0.994439,0.0106845,0.0417461,685,1016,-61.6507,-0.397576
-532,8,-61.7223,0.808838,-0.00787419,0.00167563,0.0112698,0.00914032,-0.0153389,0.985779,0.0142833,0.0428869,692,1016,-61.7223,-0.80883
-525,8,0,0,0,0,0,0,0,0,0,-1,699,1016,0,0
-518,8,0,0,0,0,0,0,0,0,0,-1,706,1016,0,0
-511,8,0,0,0,0,0,0,0,0,0,-1,713,1016,0,0
-504,8,0,0,0,0,0,0,0,0,0,-1,720,1016,0,0
-497,8,0,0,0,0,0,0,0,0,0,-1,727,1016,0,0
-490,8,0,0,0,0,0,0,0,0,0,-1,734,1016,0,0
-483,8,0,0,0,0,0,0,0,0,0,-1,741,1016,0,0
-476,8,0,0,0,0,0,0,0,0,0,-1,748,1016,0,0
-469,8,0,0,0,0,0,0,0,0,0,-1,755,1016,0,0
-462,8,0,0,0,0,0,0,0,0,0,-1,762,1016,0,0
-455,8,0,0,0,0,0,0,0,0,0,-1,769,1016,0,0
-448,8,0,0,0,0,0,0,0,0,0,-1,776,1016,0,0
-441,8,0,0,0,0,0,0,0,0,0,-1,783,1016,0,0
-434,8,0,0,0,0,0,0,0,0,0,-1,790,1016,0,0
-427,8,0,0,0,0,0,0,0,0,0,-1,797,1016,0,0
-420,8,0,0,0,0,0,0,0,0,0,-1,804,1016,0,0
-413,8,0,0,0,0,0,0,0,0,0,-1,811,1016,0,0
-406,8,0,0,0,0,0,0,0,0,0,-1,818,1016,0,0
-399,8,0,0,0,0,0,0,0,0,0,-1,825,1016,0,0
-392,8,0,0,0,0,0,0,0,0,0,-1,832,1016,0,0
-385,8,0,0,0,0,0,0,0,0,0,-1,839,1016,0,0
-378,8,0,0,0,0,0,0,0,0,0,-1,846,1016,0,0
-371,8,0,0,0,0,0,0,0,0,0,-1,853,1016,0,0
-364,8,0,0,0,0,0,0,0,0,0,-1,860,1016,0,0
-357,8,0,0,0,0,0,0,0,0,0,-1,867,1016,0,0
-350,8,0,0,0,0,0,0,0,0,0,-1,874,1016,0,0
-343,8,0,0,0,0,0,0,0,0,0,-1,881,1016,0,0
-336,8,0,0,0,0,0,0,0,0,0,-1,888,1016,0,0
-329,8,0,0,0,0,0,0,0,0,0,-1,895,1016,0,0
-322,8,0,0,0,0,0,0,0,0,0,-1,902,1016,0,0
-315,8,0,0,0,0,0,0,0,0,0,-1,909,1016,0,0
-308,8,0,0,0,0,0,0,0,0,0,-1,916,1016,0,0
-301,8,0,0,0,0,0,0,0,0,0,-1,923,1016,0,0
-294,8,0,0,0,0,0,0,0,0,0,-1,930,1016,0,0
-287,8,0,0,0,0,0,0,0,0,0,-1,937,1016,0,0
-280,8,0,0,0,0,0,0,0,0,0,-1,944,1016,0,0
-273,8,0,0,0,0,0,0,0,0,0,-1,951,1016,0,0
-266,8,0,0,0,0,0,0,0,0,0,-1,958,1016,0,0
-259,8,0,0,0,0,0,0,0,0,0,-1,965,1016,0,0
-252,8,0,0,0,0,0,0,0,0,0,-1,972,1016,0,0
-245,8,0,0,0,0,0,0,0,0,0,-1,979,1016,0,0
-238,8,0,0,0,0,0,0,0,0,0,-1,986,1016,0,0
-231,8,0,0,0,0,0,0,0,0,0,-1,993,1016,0,0
-224,8,0,0,0,0,0,0,0,0,0,-1,1000,1016,0,0
-217,8,0,0,0,0,0,0,0,0,0,-1,1007,1016,0,0
-210,8,0,0,0,0,0,0,0,0,0,-1,1014,1016,0,0
-203,8,0,0,0,0,0,0,0,0,0,-1,1021,1016,0,0
-196,8,0,0,0,0,0,0,0,0,0,-1,1028,1016,0,0
-189,8,0,0,0,0,0,0,0,0,0,-1,1035,1016,0,0
-182,8,0,0,0,0,0,0,0,0,0,-1,1042,1016,0,0
-175,8,0,0,0,0,0,0,0,0,0,-1,1049,1016,0,0
-168,8,0,0,0,0,0,0,0,0,0,-1,1056,1016,0,0
-161,8,0,0,0,0,0,0,0,0,0,-1,1063,1016,0,0
-154,8,0,0,0,0,0,0,0,0,0,-1,1070,1016,0,0
-147,8,0,0,0,0,0,0,0,0,0,-1,1077,1016,0,0
-140,8,0,0,0,0,0,0,0,0,0,-1,1084,1016,0,0
-133,8,0,0,0,0,0,0,0,0,0,-1,1091,1016,0,0
-126,8,0,0,0,0,0,0,0,0,0,-1,1098,1016,0,0
-119,8,0,0,0,0,0,0,0,0,0,-1,1105,1016,0,0
-112,8,0,0,0,0,0,0,0,0,0,-1,1112,1016,0,0
-105,8,0,0,0,0,0,0,0,0,0,-1,1119,1016,0,0
-98,8,0,0,0,0,0,0,0,0,0,-1,1126,1016,0,0
-91,8,0,0,0,0,0,0,0,0,0,-1,1133,1016,0,0
-84,8,0,0,0,0,0,0,0,0,0,-1,1140,1016,0,0
-77,8,0,0,0,0,0,0,0,0,0,-1,1147,1016,0,0
-70,8,0,0,0,0,0,0,0,0,0,-1,1154,1016,0,0
-63,8,0,0,0,0,0,0,0,0,0,-1,1161,1016,0,0
-56,8,0,0,0,0,0,0,0,0,0,-1,1168,1016,0,0
-49,8,0,0,0,0,0,0,0,0,0,-1,1175,1016,0,0
-42,8,0,0,0,0,0,0,0,0,0,-1,1182,1016,0,0
-35,8,0,0,0,0,0,0,0,0,0,-1,1189,1016,0,0
-28,8,0,0,0,0,0,0,0,0,0,-1,1196,1016,0,0
-21,8,0,0,0,0,0,0,0,0,0,-1,1203,1016,0,0
-14,8,0,0,0,0,0,0,0,0,0,-1,1210,1016,0,0
-7,8,0,0,0,0,0,0,0,0,0,-1,1217,1016,0,0
0,8,0,0,0,0,0,0,0,0,0,-1,1224,1016,0,0
7,8,0,0,0,0,0,0,0,0,0,-1,1231,1016,0,0
14,8,0,0,0,0,0,0,0,0,0,-1,1238,1016,0,0
21,8,0,0,0,0,0,0,0,0,0,-1,1245,1016,0,0
28,8,0,0,0,0,0,0,0,0,0,-1,1252,1016,0,0
35,8,0,0,0,0,0,0,0,0,0,-1,1259,1016,0,0
42,8,0,0,0,0,0,0,0,0,0,-1,1266,1016,0,0
49,8,0,0,0,0,0,0,0,0,0,-1,1273,1016,0,0
56,8,0,0,0,0,0,0,0,0,0,-1,1280,1016,0,0
63,8,0,0,0,0,0,0,0,0,0,-1,1287,1016,0,0
70,8,0,0,0,0,0,0,0,0,0,-1,1294,1016,0,0
77,8,0,0,0,0,0,0,0,0,0,-1,1301,1016,0,0
84,8,0,0,0,0,0,0,0,0,0,-1,1308,1016,0,0
91,8,0,0,0,0,0,0,0,0,0,-1,1315,1016,0,0
98,8,0,0,0,0,0,0,0,0,0,-1,1322,1016,0,0
105,8,0,0,0,0,0,0,0,0,0,-1,1329,1016,0,0
112,8,0,0,0,0,0,0,0,0,0,-1,1336,1016,0,0
119,8,0,0,0,0,0,0,0,0,0,-1,1343,1016,0,0
126,8,0,0,0,0,0,0,0,0,0,-1,1350,1016,0,0
133,8,0,0,0,0,0,0,0,0,0,-1,1357,1016,0,0
140,8,0,0,0,0,0,0,0,0,0,-1,1364,1016,0,0
147,8,0,0,0,0,0,0,0,0,0,-1,1371,1016,0,0
154,8,0,0,0,0,0,0,0,0,0,-1,1378,1016,0,0
161,8,0,0,0,0,0,0,0,0,0,-1,1385,1016,0,0
168,8,0,0,0,0,0,0,0,0,0,-1,1392,1016,0,0
175,8,0,0,0,0,0,0,0,0,0,-1,1399,1016,0,0
182,8,0,0,0,0,0,0,0,0,0,-1,1406,1016,0,0
189,8,0,0,0,0,0,0,0,0,0,-1,1413,1016,0,0
196,8,0,0,0,0,0,0,0,0,0,-1,1420,1016,0,0
203,8,0,0,0,0,0,0,0,0,0,-1,1427,1016,0,0
210,8,0,0,0,0,0,0,0,0,0,-1,1434,1016,0,0
217,8,0,0,0,0,0,0,0,0,0,-1,1441,1016,0,0
224,8,0,0,0,0,0,0,0,0,0,-1,1448,1016,0,0
231,8,0,0,0,0,0,0,0,0,0,-1,1455,1016,0,0
238,8,0,0,0,0,0,0,0,0,0,-1,1462,1016,0,0
245,8,0,0,0,0,0,0,0,0,0,-1,1469,1016,0,0
252,8,0,0,0,0,0,0,0,0,0,-1,1476,1016,0,0
259,8,0,0,0,0,0,0,0,0,0,-1,1483,1016,0,0
266,8,0,0,0,0,0,0,0,0,0,-1,1490,1016,0,0
273,8,0,0,0,0,0,0,0,0,0,-1,1497,1016,0,0
280,8,0,0,0,0,0,0,0,0,0,-1,1504,1016,0,0
287,8,0,0,0,0,0,0,0,0,0,-1,1511,1016,0,0
294,8,0,0,0,0,0,0,0,0,0,-1,1518,1016,0,0
301,8,0,0,0,0,0,0,0,0,0,-1,1525,1016,0,0
308,8,0,0,0,0,0,0,0,0,0,-1,1532,1016,0,0
315,8,0,0,0,0,0,0,0,0,0,-1,1539,1016,0,0
322,8,0,0,0,0,0,0,0,0,0,-1,1546,1016,0,0
329,8,0,0,0,0,0,0,0,0,0,-1,1553,1016,0,0
336,8,0,0,0,0,0,0,0,0,0,-1,1560,1016,0,0
343,8,0,0,0,0,0,0,0,0,0,-1,1567,1016,0,0
350,8,0,0,0,0,0,0,0,0,0,-1,1574,1016,0,0
357,8,0,0,0,0,0,0,0,0,0,-1,1581,1016,0,0
364,8,0,0,0,0,0,0,0,0,0,-1,1588,1016,0,0
371,8,0,0,0,0,0,0,0,0,0,-1,1595,1016,0,0
378,8,0,0,0,0,0,0,0,0,0,-1,1602,1016,0,0
385,8,0,0,0,0,0,0,0,0,0,-1,1609,1016,0,0
392,8,0,0,0,0,0,0,0,0,0,-1,1616,1016,0,0
399,8,0,0,0,0,0,0,0,0,0,-1,1623,1016,0,0
406,8,0,0,0,0,0,0,0,0,0,-1,1630,1016,0,0
413,8,0,0,0,0,0,0,0,0,0,-1,1637,1016,0,0
420,8,0,0,0,0,0,0,0,0,0,-1,1644,1016,0,0
427,8,0,0,0,0,0,0,0,0,0,-1,1651,1016,0,0
434,8,0,0,0,0,0,0,0,0,0,-1,1658,1016,0,0
441,8,0,0,0,0,0,0,0,0,0,-1,1665,1016,0,0
448,8,0,0,0,0,0,0,0,0,0,-1,1672,1016,0,0
455,8,0,0,0,0,0,0,0,0,0,-1,1679,1016,0,0
462,8,0,0,0,0,0,0,0,0,0,-1,1686,1016,0,0
469,8,0,0,0,0,0,0,0,0,0,-1,1693,1016,0,0
476,8,0,0,0,0,0,0,0,0,0,-1,1700,1016,0,0
483,8,0,0,0,0,0,0,0,0,0,-1,1707,1016,0,0
490,8,0,0,0,0,0,0,0,0,0,-1,1714,1016,0,0
497,8,0,0,0,0,0,0,0,0,0,-1,1721,1016,0,0
504,8,0,0,0,0,0,0,0,0,0,-1,1728,1016,0,0
511,8,0,0,0,0,0,0,0,0,0,-1,1735,1016,0,0
518,8,0,0,0,0,0,0,0,0,0,-1,1742,1016,0,0
525,8,0,0,0,0,0,0,0,0,0,-1,1749,1016,0,0
532,8,0,0,0,0,0,0,0,0,0,-1,1756,1016,0,0
539,8,0,0,0,0,0,0,0,0,0,-1,1763,1016,0,0
546,8,0,0,0,0,0,0,0,0,0,-1,1770,1016,0,0
553,8,0,0,0,0,0,0,0,0,0,-1,1777,1016,0,0
560,8,0,0,0,0,0,0,0,0,0,-1,1784,1016,0,0
567,8,0,0,0,0,0,0,0,0,0,-1,1791,1016,0,0
574,8,0,0,0,0,0,0,0,0,0,-1,1798,1016,0,0
581,8,0,0,0,0,0,0,0,0,0,-1,1805,1016,0,0
588,8,0,0,0,0,0,0,0,0,0,-1,1812,1016,0,0
595,8,0,0,0,0,0,0,0,0,0,-1,1819,1016,0,0
602,8,0,0,0,0,0,0,0,0,0,-1,1826,1016,0,0
609,8,0,0,0,0,0,0,0,0,0,-1,1833,1016,0,0
616,8,0,0,0,0,0,0,0,0,0,-1,1840,1016,0,0
623,8,0,0,0,0,0,0,0,0,0,-1,1847,1016,0,0
630,8,0,0,0,0,0,0,0,0,0,-1,1854,1016,0,0
637,8,0,0,0,0,0,0,0,0,0,-1,1861,1016,0,0
644,8,77.8467,2.85162,-0.00324634,-0.00269952,-0.00210236,-0.000852869,-0.00509299,-0.85006,0.00314976,0.0420843,1868,1016,77.8467,-2.85161
651,8,77.8636,2.74579,-0.00224883,-0.00170513,-0.00237104,0.000409598,-0.00436355,-0.842476,0.00305473,0.0380456,1875,1016,77.8637,-2.74577
658,8,77.729,2.64294,-0.00151984,-0.000931919,-0.00221727,0.00101079,-0.00346255,-0.851303,0.00270891,0.0365639,1882,1016,77.7291,-2.64294
665,8,77.6017,2.55341,-0.000867101,-0.000394795,-0.00194661,0.00132993,-0.00259183,-0.845761,0.00230297,0.0385172,1889,1016,77.6017,-2.55343
672,8,77.7863,2.49829,-0.000274422,0.00014094,-0.00155454,0.00150161,-0.00163509,-0.851803,0.00181152,0.0403753,1896,1016,77.7863,-2.49829
679,8,77.777,2.25031,0,0,0,0,0,0,0,-1,1903,1016,77.777,-2.25033
686,8,77.7745,2.36359,0.000439612,0.000539753,-0.000663082,0.00115465,-0.000175287,-0.823082,0.000834358,0.0426933,1910,1016,77.7746,-2.36357
693,8,77.7596,2.55865,0.000433495,0.000284659,-0.000281757,0.000650496,6.76581e-05,-0.656286,0.000412963,0.0403382,1917,1016,77.7597,-2.55865
700,8,77.7938,2.49988,0.000361701,0.000145276,-3.34922e-05,0.000366766,0.000140211,-0.150076,0.000213699,0.0326153,1924,1016,77.7938,-2.4999
707,8,77.8115,2.5025,-0.000385397,0.000693766,1.62657e-05,0.000694011,-0.000385642,1.55573,0.000631757,0.0273638,1931,1016,77.8115,-2.50251
714,8,77.8243,2.45886,-0.00154511,0.00165946,-3.24404e-05,0.00165979,-0.00154544,-1.56067,0.00185093,0.0344976,1938,1016,77.8244,-2.45888
721,8,77.7972,2.27808,0,0,0,0,0,0,0,-1,1945,1016,77.7973,-2.27806
728,8,52.1681,5.36774,0,0,0,0,0,0,0,-1,1952,1016,52.168,-5.36773
735,8,78.0549,7.72021,0,0,0,0,0,0,0,-1,1959,1016,78.0549,-7.7202
742,8,77.9471,7.99774,0,0,0,0,0,0,0,-1,1966,1016,77.9472,-7.99777
749,8,78.2036,7.91895,0,0,0,0,0,0,0,-1,1973,1016,78.2037,-7.91893
756,8,78.116,7.79675,0,0,0,0,0,0,0,-1,1980,1016,78.1159,-7.79673
763,8,77.9905,7.75421,-0.0109887,0.0193215,-0.00777987,0.0212018,-0.012869,-1.33366,0.0198659,0.0175475,1987,1016,77.9904,-7.75419
770,8,77.8313,7.7052,-0.00967571,0.0248129,-0.0138027,0.0296566,-0.0145194,-1.2333,0.0259993,0.0228436,1994,1016,77.8313,-7.7052
777,8,77.4231,7.72131,-0.00616222,0.0302173,-0.0224835,0.0409477,-0.0168926,-1.12551,0.0343433,0.037155,2001,1016,77.4232,-7.7213
784,8,77.0112,7.73804,0,0,0,0,0,0,0,-1,2008,1016,77.0112,-7.73802
791,8,75.5461,6.04517,0,0,0,0,0,0,0,-1,2015,1016,75.5462,-6.04517
798,8,74.9771,6.98505,0,0,0,0,0,0,0,-1,2022,1016,74.9771,-6.98505
805,8,75.1563,5.92737,0,0,0,0,0,0,0,-1,2029,1016,75.1562,-5.92735
812,8,75.3179,5.32159,0,0,0,0,0,0,0,-1,2036,1016,75.3178,-5.3216
-700,1,0,0,0,0,0,0,0,0,0,-1,524,1023,0,0
-693,1,-62.7891,0.573425,0.149564,0.0191655,0.123933,0.224402,-0.0556723,0.54325,0.171203,0.0428244,531,1023,-62.7891,-0.573445
-686,1,-61.6861,1.57935,0.128611,0.0198141,0.111886,0.198622,-0.050197,0.559127,0.151937,0.0465936,538,1023,-61.6861,-1.57933
-679,1,-60.591,2.59534,0,0,0,0,0,0,0,-1,545,1023,-60.591,-2.59532
-672,1,-62.0257,3.46765,0,0,0,0,0,0,0,-1,552,1023,-62.0257,-3.46765
-665,1,-62.255,5.52075,0,0,0,0,0,0,0,-1,559,1023,-62.255,-5.52075
-658,1,-62.2215,5.61218,0,0,0,0,0,0,0,-1,566,1023,-62.2215,-5.61219
-651,1,-61.9065,5.92139,0,0,0,0,0,0,0,-1,573,1023,-61.9065,-5.92138
-644,1,-62.1812,6.65747,0,0,0,0,0,0,0,-1,580,1023,-62.1812,-6.65749
-637,1,-62.4304,6.56952,0.0101436,0.0177506,0.0209963,0.0352851,-0.0073909,0.875002,0.0263351,0.0450565,587,1023,-62.4304,-6.5695
-630,1,-62.7711,6.66937,0.00102466,0.0148639,0.0117447,0.0215758,-0.00568727,1.05161,0.0166075,0.0407682,594,1023,-62.771,-6.66939
-623,1,-62.6118,6.72278,-0.00443494,0.0114992,0.00523476,0.0130651,-0.00600081,1.28014,0.0112567,0.0189972,601,1023,-62.6118,-6.72277
-616,1,-62.7903,6.60529,-0.00595997,0.00813594,0.00188736,0.00838427,-0.0062083,1.43997,0.00845619,0.0249864,608,1023,-62.7903,-6.60528
-609,1,-62.8473,6.66559,-0.00533095,0.00478814,0.000534632,0.0048163,-0.00535912,1.51816,0.00587757,0.0281356,615,1023,-62.8473,-6.66559
-602,1,-62.6426,6.8454,-0.0044608,0.00248162,-0.000198773,0.0024873,-0.00446649,-1.5422,0.00406862,0.0184824,622,1023,-62.6427,-6.84541
-595,1,-62.6676,6.86957,0,0,0,0,0,0,0,-1,629,1023,-62.6676,-6.86954
-588,1,-62.6428,6.93445,0,0,0,0,0,0,0,-1,636,1023,-62.6428,-6.93445
-581,1,-61.5693,0.622009,-0.00299143,-0.000843037,3.62654e-06,-0.000843031,-0.00299144,1.56911,0.00178108,0.0312611,643,1023,-61.5693,-0.62199
-574,1,-61.5948,0.690002,-0.00267551,-0.00128643,0.000363026,-0.00119728,-0.00276466,1.32998,0.00160094,0.0386531,650,1023,-61.5949,-0.690033
-567,1,-61.4598,0.520569,-0.00253842,-0.0011482,0.0010684,-0.000568686,-0.00311793,1.0738,0.00191738,0.0429775,657,1023,-61.4598,-0.520546
-560,1,-61.4675,0.685852,-0.00253376,-0.000548948,0.00214625,0.000823225,-0.00390594,1.00195,0.00291734,0.0423591,664,1023,-61.4675,-0.685837
-553,1,-61.4009,0.626953,-0.00287826,0.000252298,0.00370891,0.0027127,-0.00533867,0.985075,0.00473016,0.0408275,671,1023,-61.401,-0.626952
-546,1,-61.4524,0.181274,-0.00368164,0.000744116,0.00598295,0.00491031,-0.00784783,0.962528,0.00743071,0.0422062,678,1023,-61.4524,-0.181265
-539,1,-61.5423,0.404175,-0.00545079,0.000637783,0.00889028,0.00699056,-0.0118036,0.950355,0.0109688,0.0421282,685,1023,-61.5423,-0.404203
-532,1,-61.5914,0.751648,-0.00712764,0.000629017,0.0119439,0.00930852,-0.0158071,0.942383,0.0146614,0.0433674,692,1023,-61.5914,-0.751621
-525,1,0,0,0,0,0,0,0,0,0,-1,699,1023,0,0
-518,1,0,0,0,0,0,0,0,0,0,-1,706,1023,0,0
-511,1,0,0,0,0,0,0,0,0,0,-1,713,1023,0,0
-504,1,0,0,0,0,0,0,0,0,0,-1,720,1023,0,0
-497,1,0,0,0,0,0,0,0,0,0,-1,727,1023,0,0
-490,1,0,0,0,0,0,0,0,0,0,-1,734,1023,0,0
-483,1,0,0,0,0,0,0,0,0,0,-1,741,1023,0,0
-476,1,0,0,0,0,0,0,0,0,0,-1,748,1023,0,0
-469,1,0,0,0,0,0,0,0,0,0,-1,755,1023,0,0
-462,1,0,0,0,0,0,0,0,0,0,-1,762,1023,0,0
-455,1,0,0,0,0,0,0,0,0,0,-1,769,1023,0,0
-448,1,0,0,0,0,0,0,0,0,0,-1,776,1023,0,0
-441,1,0,0,0,0,0,0,0,0,0,-1,783,1023,0,0
-434,1,0,0,0,0,0,0,0,0,0,-1,790,1023,0,0
-427,1,0,0,0,0,0,0,0,0,0,-1,797,1023,0,0
-420,1,0,0,0,0,0,0,0,0,0,-1,804,1023,0,0
-413,1,0,0,0,0,0,0,0,0,0,-1,811,1023,0,0
-406,1,0,0,0,0,0,0,0,0,0,-1,818,1023,0,0
-399,1,0,0,0,0,0,0,0,0,0,-1,825,1023,0,0
-392,1,0,0,0,0,0,0,0,0,0,-1,832,1023,0,0
-385,1,0,0,0,0,0,0,0,0,0,-1,839,1023,0,0
-378,1,0,0,0,0,0,0,0,0,0,-1,846,1023,0,0
-371,1,0,0,0,0,0,0,0,0,0,-1,853,1023,0,0
-364,1,0,0,0,0,0,0,0,0,0,-1,860,1023,0,0
-357,1,0,0,0,0,0,0,0,0,0,-1,867,1023,0,0
-350,1,0,0,0,0,0,0,0,0,0,-1,874,1023,0,0
-343,1,0,0,0,0,0,0,0,0,0,-1,881,1023,0,0
-336,1,0,0,0,0,0,0,0,0,0,-1,888,1023,0,0
-329,1,0,0,0,0,0,0,0,0,0,-1,895,1023,0,0
-322,1,0,0,0,0,0,0,0,0,0,-1,902,1023,0,0
-315,1,0,0,0,0,0,0,0,0,0,-1,909,1023,0,0
-308,1,0,0,0,0,0,0,0,0,0,-1,916,1023,0,0
-301,1,0,0,0,0,0,0,0,0,0,-1,923,1023,0,0
-294,1,0,0,0,0,0,0,0,0,0,-1,930,1023,0,0
-287,1,0,0,0,0,0,0,0,0,0,-1,937,1023,0,0
-280,1,0,0,0,0,0,0,0,0,0,-1,944,1023,0,0
-273,1,0,0,0,0,0,0,0,0,0,-1,951,1023,0,0
-266,1,0,0,0,0,0,0,0,0,0,-1,958,1023,0,0
-259,1,0,0,0,0,0,0,0,0,0,-1,965,1023,0,0
-252,1,0,0,0,0,0,0,0,0,0,-1,972,1023,0,0
-245,1,0,0,0,0,0,0,0,0,0,-1,979,1023,0,0
-238,1,0,0,0,0,0,0,0,0,0,-1,986,1023,0,0
-231,1,0,0,0,0,0,0,0,0,0,-1,993,1023,0,0
-224,1,0,0,0,0,0,0,0,0,0,-1,1000,1023,0,0
-217,1,0,0,0,0,0,0,0,0,0,-1,1007,1023,0,0
-210,1,0,0,0,0,0,0,0,0,0,-1,1014,1023,0,0
-203,1,0,0,0,0,0,0,0,0,0,-1,1021,1023,0,0
-196,1,0,0,0,0,0,0,0,0,0,-1,1028,1023,0,0
-189,1,0,0,0,0,0,0,0,0,0,-1,1035,1023,0,0
-182,1,0,0,0,0,0,0,0,0,0,-1,1042,1023,0,0
-175,1,0,0,0,0,0,0,0,0,0,-1,1049,1023,0,0
-168,1,0,0,0,0,0,0,0,0,0,-1,1056,1023,0,0
-161,1,0,0,0,0,0,0,0,0,0,-1,1063,1023,0,0
-154,1,0,0,0,0,0,0,0,0,0,-1,1070,1023,0,0
-147,1,0,0,0,0,0,0,0,0,0,-1,1077,1023,0,0
-140,1,0,0,0,0,0,0,0,0,0,-1,1084,1023,0,0
-133,1,0,0,0,0,0,0,0,0,0,-1,1091,1023,0,0
-126,1,0,0,0,0,0,0,0,0,0,-1,1098,1023,0,0
-119,1,0,0,0,0,0,0,0,0,0,-1,1105,1023,0,0
-112,1,0,0,0,0,0,0,0,0,0,-1,1112,1023,0,0
-105,1,0,0,0,0,0,0,0,0,0,-1,1119,1023,0,0
-98,1,0,0,0,0,0,0,0,0,0,-1,1126,1023,0,0
-91,1,0,0,0,0,0,0,0,0,0,-1,1133,1023,0,0
-84,1,0,0,0,0,0,0,0,0,0,-1,1140,1023,0,0
-77,1,0,0,0,0,0,0,0,0,0,-1,1147,1023,0,0
-70,1,0,0,0,0,0,0,0,0,0,-1,1154,1023,0,0
-63,1,0,0,0,0,0,0,0,0,0,-1,1161,1023,0,0
-56,1,0,0,0,0,0,0,0,0,0,-1,1168,1023,0,0
-49,1,0,0,0,0,0,0,0,0,0,-1,1175,1023,0,0
-42,1,0,0,0,0,0,0,0,0,0,-1,1182,1023,0,0
-35,1,0,0,0,0,0,0,0,0,0,-1,1189,1023,0,0
-28,1,0,0,0,0,0,0,0,0,0,-1,1196,1023,0,0
-21,1,0,0,0,0,0,0,0,0,0,-1,1203,1023,0,0
-14,1,0,0,0,0,0,0,0,0,0,-1,1210,1023,0,0
-7,1,0,0,0,0,0,0,0,0,0,-1,1217,1023,0,0
0,1,0,0,0,0,0,0,0,0,0,-1,1224,1023,0,0
7,1,0,0,0,0,0,0,0,0,0,-1,1231,1023,0,0
14,1,0,0,0,0,0,0,0,0,0,-1,1238,1023,0,0
21,1,0,0,0,0,0,0,0,0,0,-1,1245,1023,0,0
28,1,0,0,0,0,0,0,0,0,0,-1,1252,1023,0,0
35,1,0,0,0,0,0,0,0,0,0,-1,1259,1023,0,0
42,1,0,0,0,0,0,0,0,0,0,-1,1266,1023,0,0
49,1,0,0,0,0,0,0,0,0,0,-1,1273,1023,0,0
56,1,0,0,0,0,0,0,0,0,0,-1,1280,1023,0,0
63,1,0,0,0,0,0,0,0,0,0,-1,1287,1023,0,0
70,1,0,0,0,0,0,0,0,0,0,-1,1294,1023,0,0
77,1,0,0,0,0,0,0,0,0,0,-1,1301,1023,0,0
84,1,0,0,0,0,0,0,0,0,0,-1,1308,1023,0,0
91,1,0,0,0,0,0,0,0,0,0,-1,1315,1023,0,0
98,1,0,0,0,0,0,0,0,0,0,-1,1322,1023,0,0
105,1,0,0,0,0,0,0,0,0,0,-1,1329,1023,0,0
112,1,0,0,0,0,0,0,0,0,0,-1,1336,1023,0,0
119,1,0,0,0,0,0,0,0,0,0,-1,1343,1023,0,0
126,1,0,0,0,0,0,0,0,0,0,-1,1350,1023,0,0
133,1,0,0,0,0,0,0,0,0,0,-1,1357,1023,0,0
140,1,0,0,0,0,0,0,0,0,0,-1,1364,1023,0,0
147,1,0,0,0,0,0,0,0,0,0,-1,1371,1023,0,0
154,1,0,0,0,0,0,0,0,0,0,-1,1378,1023,0,0
161,1,0,0,0,0,0,0,0,0,0,-1,1385,1023,0,0
168,1,0,0,0,0,0,0,0,0,0,-1,1392,1023,0,0
175,1,0,0,0,0,0,0,0,0,0,-1,1399,1023,0,0
182,1,0,0,0,0,0,0,0,0,0,-1,1406,1023,0,0
189,1,0,0,0,0,0,0,0,0,0,-1,1413,1023,0,0
196,1,0,0,0,0,0,0,0,0,0,-1,1420,1023,0,0
203,1,0,0,0,0,0,0,0,0,0,-1,1427,1023,0,0
210,1,0,0,0,0,0,0,0,0,0,-1,1434,1023,0,0
217,1,0,0,0,0,0,0,0,0,0,-1,1441,1023,0,0
224,1,0,0,0,0,0,0,0,0,0,-1,1448,1023,0,0
231,1,0,0,0,0,0,0,0,0,0,-1,1455,1023,0,0
238,1,0,0,0,0,0,0,0,0,0,-1,1462,1023,0,0
245,1,0,0,0,0,0,0,0,0,0,-1,1469,1023,0,0
252,1,0,0,0,0,0,0,0,0,0,-1,1476,1023,0,0
259,1,0,0,0,0,0,0,0,0,0,-1,1483,1023,0,0
266,1,0,0,0,0,0,0,0,0,0,-1,1490,1023,0,0
273,1,0,0,0,0,0,0,0,0,0,-1,1497,1023,0,0
280,1,0,0,0,0,0,0,0,0,0,-1,1504,1023,0,0
287,1,0,0,0,0,0,0,0,0,0,-1,1511,1023,0,0
294,1,0,0,0,0,0,0,0,0,0,-1,1518,1023,0,0
301,1,0,0,0,0,0,0,0,0,0,-1,1525,1023,0,0
308,1,0,0,0,0,0,0,0,0,0,-1,1532,1023,0,0
315,1,0,0,0,0,0,0,0,0,0,-1,1539,1023,0,0
322,1,0,0,0,0,0,0,0,0,0,-1,1546,1023,0,0
329,1,0,0,0,0,0,0,0,0,0,-1,1553,1023,0,0
336,1,0,0,0,0,0,0,0,0,0,-1,1560,1023,0,0
343,1,0,0,0,0,0,0,0,0,0,-1,1567,1023,0,0
350,1,0,0,0,0,0,0,0,0,0,-1,1574,1023,0,0
357,1,0,0,0,0,0,0,0,0,0,-1,1581,1023,0,0
364,1,0,0,0,0,0,0,0,0,0,-1,1588,1023,0,0
371,1,0,0,0,0,0,0,0,0,0,-1,1595,1023,0,0
378,1,0,0,0,0,0,0,0,0,0,-1,1602,1023,0,0
385,1,0,0,0,0,0,0,0,0,0,-1,1609,1023,0,0
392,1,0,0,0,0,0,0,0,0,0,-1,1616,1023,0,0
399,1,0,0,0,0,0,0,0,0,0,-1,1623,1023,0,0
406,1,0,0,0,0,0,0,0,0,0,-1,1630,1023,0,0
413,1,0,0,0,0,0,0,0,0,0,-1,1637,1023,0,0
420,1,0,0,0,0,0,0,0,0,0,-1,1644,1023,0,0
427,1,0,0,0,0,0,0,0,0,0,-1,1651,1023,0,0
434,1,0,0,0,0,0,0,0,0,0,-1,1658,1023,0,0
441,1,0,0,0,0,0,0,0,0,0,-1,1665,1023,0,0
448,1,0,0,0,0,0,0,0,0,0,-1,1672,1023,0,0
455,1,0,0,0,0,0,0,0,0,0,-1,1679,1023,0,0
462,1,0,0,0,0,0,0,0,0,0,-1,1686,1023,0,0
469,1,0,0,0,0,0,0,0,0,0,-1,1693,1023,0,0
476,1,0,0,0,0,0,0,0,0,0,-1,1700,1023,0,0
483,1,0,0,0,0,0,0,0,0,0,-1,1707,1023,0,0
490,1,0,0,0,0,0,0,0,0,0,-1,1714,1023,0,0
497,1,0,0,0,0,0,0,0,0,0,-1,1721,1023,0,0
504,1,0,0,0,0,0,0,0,0,0,-1,1728,1023,0,0
511,1,0,0,0,0,0,0,0,0,0,-1,1735,1023,0,0
518,1,0,0,0,0,0,0,0,0,0,-1,1742,1023,0,0
525,1,0,0,0,0,0,0,0,0,0,-1,1749,1023,0,0
532,1,0,0,0,0,0,0,0,0,0,-1,1756,1023,0,0
539,1,0,0,0,0,0,0,0,0,0,-1,1763,1023,0,0
546,1,0,0,0,0,0,0,0,0,0,-1,1770,1023,0,0
553,1,0,0,0,0,0,0,0,0,0,-1,1777,1023,0,0
560,1,0,0,0,0,0,0,0,0,0,-1,1784,1023,0,0
567,1,0,0,0,0,0,0,0,0,0,-1,1791,1023,0,0
574,1,0,0,0,0,0,0,0,0,0,-1,1798,1023,0,0
581,1,0,0,0,0,0,0,0,0,0,-1,1805,1023,0,0
588,1,0,0,0,0,0,0,0,0,0,-1,1812,1023,0,0
595,1,0,0,0,0,0,0,0,0,0,-1,1819,1023,0,0
602,1,0,0,0,0,0,0,0,0,0,-1,1826,1023,0,0
609,1,0,0,0,0,0,0,0,0,0,-1,1833,1023,0,0
616,1,0,0,0,0,0,0,0,0,0,-1,1840,1023,0,0
623,1,0,0,0,0,0,0,0,0,0,-1,1847,1023,0,0
630,1,0,0,0,0,0,0,0,0,0,-1,1854,1023,0,0
637,1,0,0,0,0,0,0,0,0,0,-1,1861,1023,0,0
644,1,0,0,0,0,0,0,0,0,0,-1,1868,1023,0,0
651,1,77.776,2.52277,-0.00189156,-0.00134054,-0.00327506,0.00167058,-0.00490268,-0.827361,0.00394503,0.0371723,1875,1023,77.776,-2.52274
658,1,77.7609,2.5083,-0.00128771,-0.000648227,-0.00290821,0.00195777,-0.0038937,-0.840151,0.00343943,0.038415,1882,1023,77.7609,-2.50831
665,1,77.8329,2.46869,-0.000754368,-0.000156492,-0.00243402,0.00199688,-0.00290774,-0.8465,0.00284791,0.040889,1889,1023,77.8328,-2.46871
672,1,77.8508,2.39087,-0.000270615,0.000360677,-0.00185515,0.00192684,-0.00183678,-0.869664,0.00217313,0.0431205,1896,1023,77.8508,-2.39085
679,1,77.712,2.21606,0.000175991,0.000836819,-0.0011733,0.00172534,-0.000712529,-0.922649,0.00144743,0.0399679,1903,1023,77.712,-2.21604
686,1,77.6405,2.24799,0.000183387,0.000782816,-0.000621735,0.00117331,-0.000207104,-1.00999,0.000859596,0.0384429,1910,1023,77.6405,-2.24797
693,1,77.6422,2.54681,7.32908e-05,0.00052313,-0.000109186,0.000548231,4.81895e-05,-1.34483,0.00035053,0.0346359,1917,1023,77.6422,-2.54682
700,1,77.7347,2.51343,-2.95114e-05,0.000338446,0.00025101,0.000465681,-0.000156747,1.10165,0.000373823,0.0300832,1924,1023,77.7347,-2.51344
707,1,77.778,2.42627,-0.000808371,0.000825625,0.000386149,0.000912284,-0.000895031,1.35003,0.00104347,0.028843,1931,1023,77.7779,-2.42629
714,1,77.7969,2.31152,-0.00197122,0.00173067,0.000395977,0.00177255,-0.0020131,1.46542,0.00218712,0.031987,1938,1023,77.7969,-2.31153
721,1,77.8562,2.22473,0,0,0,0,0,0,0,-1,1945,1023,77.8562,-2.22473
728,1,52.4639,5.59277,0,0,0,0,0,0,0,-1,1952,1023,52.4639,-5.59276
735,1,53.3617,6.10699,0,0,0,0,0,0,0,-1,1959,1023,53.3617,-6.10698
742,1,52.4393,5.81525,0,0,0,0,0,0,0,-1,1966,1023,52.4393,-5.81527
749,1,78.2429,7.53851,0,0,0,0,0,0,0,-1,1973,1023,78.243,-7.53851
756,1,78.1575,7.73456,-0.0105561,0.014409,-0.00410546,0.0150668,-0.0112139,-1.41192,0.0152274,0.0494954,1980,1023,78.1575,-7.73453
763,1,77.9409,7.59674,-0.0108829,0.0186946,-0.00744758,0.020464,-0.0126524,-1.33754,0.0192963,0.018672,1987,1023,77.941,-7.59676
770,1,77.8755,7.49652,-0.00926328,0.023914,-0.013616,0.0287864,-0.0141357,-1.22715,0.0252577,0.0200797,1994,1023,77.8755,-7.49651
777,1,77.5422,7.35938,-0.0053194,0.0291649,-0.0226352,0.040377,-0.0165315,-1.11088,0.0338039,0.0281903,2001,1023,77.5421,-7.35935
784,1,77.209,7.20599,0,0,0,0,0,0,0,-1,2008,1023,77.209,-7.20597
791,1,77.0474,7.37109,0,0,0,0,0,0,0,-1,2015,1023,77.0475,-7.3711
798,1,76.3301,6.69543,0.0215817,0.039325,-0.0692794,0.100298,-0.0393917,-0.84908,0.0831663,0.0479448,2022,1023,76.33,-6.69544
805,1,76.5056,5.87726,0.0371009,0.0403704,-0.0925946,0.131345,-0.0538733,-0.794225,0.11001,0.0464431,2029,1023,76.5057,-5.87729
812,1,76.5642,5.17908,0,0,0,0,0,0,0,-1,2036,1023,76.5641,-5.17907
-700,-6,0,0,0,0,0,0,0,0,0,-1,524,1030,0,0
-693,-6,-63.007,0.166992,0.140917,0.0171455,0.11847,0.212691,-0.0546283,0.544703,0.163082,0.0443691,531,1030,-63.007,-0.166939
-686,-6,-62.3435,1.27808,0.121227,0.0190229,0.106777,0.1885,-0.0482505,0.562213,0.144462,0.0448974,538,1030,-62.3435,-1.27809
-679,-6,-62.3227,2.41309,0,0,0,0,0,0,0,-1,545,1030,-62.3227,-2.4131
-672,-6,-61.941,3.36377,0,0,0,0,0,0,0,-1,552,1030,-61.941,-3.36374
-665,-6,-61.3536,4.50586,0,0,0,0,0,0,0,-1,559,1030,-61.3536,-4.50586
-658,-6,-62.1148,5.02222,0,0,0,0,0,0,0,-1,566,1030,-62.1148,-5.02216
-651,-6,-62.1914,5.44006,0,0,0,0,0,0,0,-1,573,1030,-62.1914,-5.44011
-644,-6,-62.2004,6.5025,0,0,0,0,0,0,0,-1,580,1030,-62.2004,-6.50251
-637,-6,-62.8214,6.62891,0,0,0,0,0,0,0,-1,587,1030,-62.8214,-6.6289
-630,-6,-62.6576,6.5141,0.000961448,0.015179,0.0107734,0.0209777,-0.00483719,1.07703,0.0158456,0.0289396,594,1030,-62.6576,-6.51409
-623,-6,-62.5453,6.62402,-0.00417668,0.0117391,0.00445947,0.0129034,-0.00534101,1.31541,0.0108309,0.0204404,601,1030,-62.5454,-6.624
-616,-6,-62.6321,6.62427,-0.00527986,0.00820775,0.00141377,0.00835434,-0.00542645,1.46747,0.00801598,0.023951,608,1030,-62.6321,-6.62426
-609,-6,-62.6495,6.76318,-0.00462515,0.00468203,1.82928e-05,0.00468207,-0.00462518,1.56883,0.00537358,0.024559,615,1030,-62.6495,-6.76316
-602,-6,-62.5071,6.91626,-0.00378076,0.00229444,-0.000725961,0.00237998,-0.0038663,-1.4535,0.00364017,0.0155635,622,1030,-62.5071,-6.91623
-595,-6,-62.5588,7.01953,0,0,0,0,0,0,0,-1,629,1030,-62.5588,-7.01953
-588,-6,-61.5587,0.715088,0,0,0,0,0,0,0,-1,636,1030,-61.5587,-0.715122
-581,-6,-61.5866,0.594971,-0.00253389,-0.00107062,-0.000275624,-0.00102043,-0.00258408,-1.39066,0.00150287,0.0259993,643,1030,-61.5866,-0.594911
-574,-6,-61.6067,0.581421,-0.00231597,-0.00148525,0.00015942,-0.00145571,-0.00234551,1.38756,0.00136726,0.03348,650,1030,-61.6067,-0.581404
-567,-6,-61.5849,0.624023,-0.00230275,-0.00133915,0.000939754,-0.000764889,-0.00287701,1.02227,0.00172068,0.0430432,657,1030,-61.5849,-0.624069
-560,-6,-61.5869,0.872681,-0.00242349,-0.00077014,0.0021051,0.00066479,-0.00385842,0.972497,0.00282012,0.0456301,664,1030,-61.5869,-0.872729
-553,-6,-61.5531,1.09753,0,0,0,0,0,0,0,-1,671,1030,-61.5531,-1.09758
-546,-6,-61.2813,0.140259,-0.00361477,0.000297367,0.00613916,0.00478455,-0.00810196,0.939624,0.00752175,0.0421731,678,1030,-61.2812,-0.140301
-539,-6,-61.3898,0.525024,-0.00510522,3.70355e-05,0.00912734,0.00694848,-0.0120167,0.922688,0.0110791,0.0415737,685,1030,-61.3898,-0.524984
-532,-6,-61.4716,0.854858,-0.00648894,-8.40995e-05,0.0123221,0.00944491,-0.016018,0.912532,0.0148634,0.0429726,692,1030,-61.4716,-0.85481
-525,-6,0,0,0,0,0,0,0,0,0,-1,699,1030,0,0
-518,-6,0,0,0,0,0,0,0,0,0,-1,706,1030,0,0
-511,-6,0,0,0,0,0,0,0,0,0,-1,713,1030,0,0
-504,-6,0,0,0,0,0,0,0,0,0,-1,720,1030,0,0
-497,-6,0,0,0,0,0,0,0,0,0,-1,727,1030,0,0
-490,-6,0,0,0,0,0,0,0,0,0,-1,734,1030,0,0
-483,-6,0,0,0,0,0,0,0,0,0,-1,741,1030,0,0
-476,-6,0,0,0,0,0,0,0,0,0,-1,748,1030,0,0
-469,-6,0,0,0,0,0,0,0,0,0,-1,755,1030,0,0
-462,-6,0,0,0,0,0,0,0,0,0,-1,762,1030,0,0
-455,-6,0,0,0,0,0,0,0,0,0,-1,769,1030,0,0
-448,-6,0,0,0,0,0,0,0,0,0,-1,776,1030,0,0
-441,-6,0,0,0,0,0,0,0,0,0,-1,783,1030,0,0
-434,-6,0,0,0,0,0,0,0,0,0,-1,790,1030,0,0
-427,-6,0,0,0,0,0,0,0,0,0,-1,797,1030,0,0
-420,-6,0,0,0,0,0,0,0,0,0,-1,804,1030,0,0
-413,-6,0,0,0,0,0,0,0,0,0,-1,811,1030,0,0
-406,-6,0,0,0,0,0,0,0,0,0,-1,818,1030,0,0
-399,-6,0,0,0,0,0,0,0,0,0,-1,825,1030,0,0
-392,-6,0,0,0,0,0,0,0,0,0,-1,832,1030,0,0
-385,-6,0,0,0,0,0,0,0,0,0,-1,839,1030,0,0
-378,-6,0,0,0,0,0,0,0,0,0,-1,846,1030,0,0
-371,-6,0,0,0,0,0,0,0,0,0,-1,853,1030,0,0
-364,-6,0,0,0,0,0,0,0,0,0,-1,860,1030,0,0
-357,-6,0,0,0,0,0,0,0,0,0,-1,867,1030,0,0
-350,-6,0,0,0,0,0,0,0,0,0,-1,874,1030,0,0
-343,-6,0,0,0,0,0,0,0,0,0,-1,881,1030,0,0
-336,-6,0,0,0,0,0,0,0,0,0,-1,888,1030,0,0
-329,-6,0,0,0,0,0,0,0,0,0,-1,895,1030,0,0
-322,-6,0,0,0,0,0,0,0,0,0,-1,902,1030,0,0
-315,-6,0,0,0,0,0,0,0,0,0,-1,909,1030,0,0
-308,-6,0,0,0,0,0,0,0,0,0,-1,916,1030,0,0
-301,-6,0,0,0,0,0,0,0,0,0,-1,923,1030,0,0
-294,-6,0,0,0,0,0,0,0,0,0,-1,930,1030,0,0
-287,-6,0,0,0,0,0,0,0,0,0,-1,937,1030,0,0
-280,-6,0,0,0,0,0,0,0,0,0,-1,944,1030,0,0
-273,-6,0,0,0,0,0,0,0,0,0,-1,951,1030,0,0
-266,-6,0,0,0,0,0,0,0,0,0,-1,958,1030,0,0
-259,-6,0,0,0,0,0,0,0,0,0,-1,965,1030,0,0
-252,-6,0,0,0,0,0,0,0,0,0,-1,972,1030,0,0
-245,-6,0,0,0,0,0,0,0,0,0,-1,979,1030,0,0
-238,-6,0,0,0,0,0,0,0,0,0,-1,986,1030,0,0
-231,-6,0,0,0,0,0,0,0,0,0,-1,993,1030,0,0
-224,-6,0,0,0,0,0,0,0,0,0,-1,1000,1030,0,0
-217,-6,0,0,0,0,0,0,0,0,0,-1,1007,1030,0,0
-210,-6,0,0,0,0,0,0,0,0,0,-1,1014,1030,0,0
-203,-6,0,0,0,0,0,0,0,0,0,-1,1021,1030,0,0
-196,-6,0,0,0,0,0,0,0,0,0,-1,1028,1030,0,0
-189,-6,0,0,0,0,0,0,0,0,0,-1,1035,1030,0,0
-182,-6,0,0,0,0,0,0,0,0,0,-1,1042,1030,0,0
-175,-6,0,0,0,0,0,0,0,0,0,-1,1049,1030,0,0
-168,-6,0,0,0,0,0,0,0,0,0,-1,1056,1030,0,0
-161,-6,0,0,0,0,0,0,0,0,0,-1,1063,1030,0,0
-154,-6,0,0,0,0,0,0,0,0,0,-1,1070,1030,0,0
-147,-6,0,0,0,0,0,0,0,0,0,-1,1077,1030,0,0
-140,-6,0,0,0,0,0,0,0,0,0,-1,1084,1030,0,0
-133,-6,0,0,0,0,0,0,0,0,0,-1,1091,1030,0,0
-126,-6,0,0,0,0,0,0,0,0,0,-1,1098,1030,0,0
-119,-6,0,0,0,0,0,0,0,0,0,-1,1105,1030,0,0
-112,-6,0,0,0,0,0,0,0,0,0,-1,1112,1030,0,0
-105,-6,0,0,0,0,0,0,0,0,0,-1,1119,1030,0,0
-98,-6,0,0,0,0,0,0,0,0,0,-1,1126,1030,0,0
-91,-6,0,0,0,0,0,0,0,0,0,-1,1133,1030,0,0
-84,-6,0,0,0,0,0,0,0,0,0,-1,1140,1030,0,0
-77,-6,0,0,0,0,0,0,0,0,0,-1,1147,1030,0,0
-70,-6,0,0,0,0,0,0,0,0,0,-1,1154,1030,0,0
-63,-6,0,0,0,0,0,0,0,0,0,-1,1161,1030,0,0
-56,-6,0,0,0,0,0,0,0,0,0,-1,1168,1030,0,0
-49,-6,0,0,0,0,0,0,0,0,0,-1,1175,1030,0,0
-42,-6,0,0,0,0,0,0,0,0,0,-1,1182,1030,0,0
-35,-6,0,0,0,0,0,0,0,0,0,-1,1189,1030,0,0
-28,-6,0,0,0,0,0,0,0,0,0,-1,1196,1030,0,0
-21,-6,0,0,0,0,0,0,0,0,0,-1,1203,1030,0,0
-14,-6,0,0,0,0,0,0,0,0,0,-1,1210,1030,0,0
-7,-6,0,0,0,0,0,0,0,0,0,-1,1217,1030,0,0
0,-6,0,0,0,0,0,0,0,0,0,-1,1224,1030,0,0
7,-6,0,0,0,0,0,0,0,0,0,-1,1231,1030,0,0
14,-6,0,0,0,0,0,0,0,0,0,-1,1238,1030,0,0
21,-6,0,0,0,0,0,0,0,0,0,-1,1245,1030,0,0
28,-6,0,0,0,0,0,0,0,0,0,-1,1252,1030,0,0
35,-6,0,0,0,0,0,0,0,0,0,-1,1259,1030,0,0
42,-6,0,0,0,0,0,0,0,0,0,-1,1266,1030,0,0
49,-6,0,0,0,0,0,0,0,0,0,-1,1273,1030,0,0
56,-6,0,0,0,0,0,0,0,0,0,-1,1280,1030,0,0
63,-6,0,0,0,0,0,0,0,0,0,-1,1287,1030,0,0
70,-6,0,0,0,0,0,0,0,0,0,-1,1294,1030,0,0
77,-6,0,0,0,0,0,0,0,0,0,-1,1301,1030,0,0
84,-6,0,0,0,0,0,0,0,0,0,-1,1308,1030,0,0
91,-6,0,0,0,0,0,0,0,0,0,-1,1315,1030,0,0
98,-6,0,0,0,0,0,0,0,0,0,-1,1322,1030,0,0
105,-6,0,0,0,0,0,0,0,0,0,-1,1329,1030,0,0
112,-6,0,0,0,0,0,0,0,0,0,-1,1336,1030,0,0
119,-6,0,0,0,0,0,0,0,0,0,-1,1343,1030,0,0
126,-6,0,0,0,0,0,0,0,0,0,-1,1350,1030,0,0
133,-6,0,0,0,0,0,0,0,0,0,-1,1357,1030,0,0
140,-6,0,0,0,0,0,0,0,0,0,-1,1364,1030,0,0
147,-6,0,0,0,0,0,0,0,0,0,-1,1371,1030,0,0
154,-6,0,0,0,0,0,0,0,0,0,-1,1378,1030,0,0
161,-6,0,0,0,0,0,0,0,0,0,-1,1385,1030,0,0
168,-6,0,0,0,0,0,0,0,0,0,-1,1392,1030,0,0
175,-6,0,0,0,0,0,0,0,0,0,-1,1399,1030,0,0
182,-6,0,0,0,0,0,0,0,0,0,-1,1406,1030,0,0
189,-6,0,0,0,0,0,0,0,0,0,-1,1413,1030,0,0
196,-6,0,0,0,0,0,0,0,0,0,-1,1420,1030,0,0
203,-6,0,0,0,0,0,0,0,0,0,-1,1427,1030,0,0
210,-6,0,0,0,0,0,0,0,0,0,-1,1434,1030,0,0
217,-6,0,0,0,0,0,0,0,0,0,-1,1441,1030,0,0
224,-6,0,0,0,0,0,0,0,0,0,-1,1448,1030,0,0
231,-6,0,0,0,0,0,0,0,0,0,-1,1455,1030,0,0
238,-6,0,0,0,0,0,0,0,0,0,-1,1462,1030,0,0
245,-6,0,0,0,0,0,0,0,0,0,-1,1469,1030,0,0
252,-6,0,0,0,0,0,0,0,0,0,-1,1476,1030,0,0
259,-6,0,0,0,0,0,0,0,0,0,-1,1483,1030,0,0
266,-6,0,0,0,0,0,0,0,0,0,-1,1490,1030,0,0
273,-6,0,0,0,0,0,0,0,0,0,-1,1497,1030,0,0
280,-6,0,0,0,0,0,0,0,0,0,-1,1504,1030,0,0
287,-6,0,0,0,0,0,0,0,0,0,-1,1511,1030,0,0
294,-6,0,0,0,0,0,0,0,0,0,-1,1518,1030,0,0
301,-6,0,0,0,0,0,0,0,0,0,-1,1525,1030,0,0
308,-6,0,0,0,0,0,0,0,0,0,-1,1532,1030,0,0
315,-6,0,0,0,0,0,0,0,0,0,-1,1539,1030,0,0
322,-6,0,0,0,0,0,0,0,0,0,-1,1546,1030,0,0
329,-6,0,0,0,0,0,0,0,0,0,-1,1553,1030,0,0
336,-6,0,0,0,0,0,0,0,0,0,-1,1560,1030,0,0
343,-6,0,0,0,0,0,0,0,0,0,-1,1567,1030,0,0
350,-6,0,0,0,0,0,0,0,0,0,-1,1574,1030,0,0
357,-6,0,0,0,0,0,0,0,0,0,-1,1581,1030,0,0
364,-6,0,0,0,0,0,0,0,0,0,-1,1588,1030,0,0
371,-6,0,0,0,0,0,0,0,0,0,-1,1595,1030,0,0
378,-6,0,0,0,0,0,0,0,0,0,-1,1602,1030,0,0
385,-6,0,0,0,0,0,0,0,0,0,-1,1609,1030,0,0
392,-6,0,0,0,0,0,0,0,0,0,-1,1616,1030,0,0
399,-6,0,0,0,0,0,0,0,0,0,-1,1623,1030,0,0
406,-6,0,0,0,0,0,0,0,0,0,-1,1630,1030,0,0
413,-6,0,0,0,0,0,0,0,0,0,-1,1637,1030,0,0
420,-6,0,0,0,0,0,0,0,0,0,-1,1644,1030,0,0
427,-6,0,0,0,0,0,0,0,0,0,-1,1651,1030,0,0
434,-6,0,0,0,0,0,0,0,0,0,-1,1658,1030,0,0
441,-6,0,0,0,0,0,0,0,0,0,-1,1665,1030,0,0
448,-6,0,0,0,0,0,0,0,0,0,-1,1672,1030,0,0
455,-6,0,0,0,0,0,0,0,0,0,-1,1679,1030,0,0
462,-6,0,0,0,0,0,0,0,0,0,-1,1686,1030,0,0
469,-6,0,0,0,0,0,0,0,0,0,-1,1693,1030,0,0
476,-6,0,0,0,0,0,0,0,0,0,-1,1700,1030,0,0
483,-6,0,0,0,0,0,0,0,0,0,-1,1707,1030,0,0
490,-6,0,0,0,0,0,0,0,0,0,-1,1714,1030,0,0
497,-6,0,0,0,0,0,0,0,0,0,-1,1721,1030,0,0
504,-6,0,0,0,0,0,0,0,0,0,-1,1728,1030,0,0
511,-6,0,0,0,0,0,0,0,0,0,-1,1735,1030,0,0
518,-6,0,0,0,0,0,0,0,0,0,-1,1742,1030,0,0
525,-6,0,0,0,0,0,0,0,0,0,-1,1749,1030,0,0
532,-6,0,0,0,0,0,0,0,0,0,-1,1756,1030,0,0
539,-6,0,0,0,0,0,0,0,0,0,-1,1763,1030,0,0
546,-6,0,0,0,0,0,0,0,0,0,-1,1770,1030,0,0
553,-6,0,0,0,0,0,0,0,0,0,-1,1777,1030,0,0
560,-6,0,0,0,0,0,0,0,0,0,-1,1784,1030,0,0
567,-6,0,0,0,0,0,0,0,0,0,-1,1791,1030,0,0
574,-6,0,0,0,0,0,0,0,0,0,-1,1798,1030,0,0
581,-6,0,0,0,0,0,0,0,0,0,-1,1805,1030,0,0
588,-6,0,0,0,0,0,0,0,0,0,-1,1812,1030,0,0
595,-6,0,0,0,0,0,0,0,0,0,-1,1819,1030,0,0
602,-6,0,0,0,0,0,0,0,0,0,-1,1826,1030,0,0
609,-6,0,0,0,0,0,0,0,0,0,-1,1833,1030,0,0
616,-6,0,0,0,0,0,0,0,0,0,-1,1840,1030,0,0
623,-6,0,0,0,0,0,0,0,0,0,-1,1847,1030,0,0
630,-6,0,0,0,0,0,0,0,0,0,-1,1854,1030,0,0
637,-6,0,0,0,0,0,0,0,0,0,-1,1861,1030,0,0
644,-6,0,0,0,0,0,0,0,0,0,-1,1868,1030,0,0
651,-6,77.8412,2.60889,-0.00163792,-0.00095069,-0.00391708,0.00263781,-0.00522643,-0.829148,0.00462168,0.0374929,1875,1030,77.8412,-2.60894
658,-6,77.8722,2.61987,-0.00112306,-0.000453618,-0.00342419,0.00265217,-0.00422885,-0.834119,0.00400737,0.0416282,1882,1030,77.8722,-2.61991
665,-6,77.8849,2.42871,-0.000697153,-0.000111697,-0.0027947,0.00240556,-0.00321441,-0.83758,0.00325588,0.0446943,1889,1030,77.8848,-2.42868
672,-6,77.8412,2.54834,-0.000319355,0.000290104,-0.00206888,0.00207657,-0.00210583,-0.858518,0.00241473,0.0426311,1896,1030,77.8412,-2.54829
679,-6,77.7872,2.46667,1.28446e-05,0.000682177,-0.0012399,0.00163178,-0.000936759,-0.917214,0.00150093,0.0415905,1903,1030,77.7873,-2.46665
686,-6,77.6649,2.23303,-0.000113416,0.000580198,-0.000573418,0.000903528,-0.000436746,-1.05737,0.000789296,0.0379378,1910,1030,77.6649,-2.23307
693,-6,77.6864,2.29663,-0.000307281,0.000314669,2.41836e-05,0.000315608,-0.00030822,1.53199,0.000360176,0.0353607,1917,1030,77.6864,-2.29662
700,-6,77.7635,2.42786,-0.00043761,0.000129205,0.000468437,0.000393295,-0.000701699,1.05744,0.000640499,0.0313615,1924,1030,77.7635,-2.4278
707,-6,77.7582,2.42578,-0.00121661,0.000594518,0.000671546,0.000816349,-0.00143844,1.25175,0.00131822,0.0277786,1931,1030,77.7582,-2.42577
714,-6,77.8934,2.59839,0,0,0,0,0,0,0,-1,1938,1030,77.8935,-2.59843
721,-6,76.9894,1.81738,0,0,0,0,0,0,0,-1,1945,1030,76.9894,-1.81733
728,-6,53.1713,6.25494,0,0,0,0,0,0,0,-1,1952,1030,53.1713,-6.25495
735,-6,77.7009,7.77411,0,0,0,0,0,0,0,-1,1959,1030,77.7009,-7.7741
742,-6,77.9496,8.0625,0,0,0,0,0,0,0,-1,1966,1030,77.9496,-8.06248
749,-6,78.0386,7.41321,0,0,0,0,0,0,0,-1,1973,1030,78.0385,-7.4132
756,-6,78.0715,7.51349,-0.0105618,0.0139602,-0.00368041,0.0145007,-0.0111023,-1.42499,0.0148252,0.0415793,1980,1030,78.0715,-7.51349
763,-6,77.8621,7.37604,-0.010739,0.0180644,-0.00701944,0.019684,-0.0123586,-1.34404,0.0186603,0.0242422,1987,1030,77.862,-7.37606
770,-6,77.7703,7.26587,-0.00899923,0.0230217,-0.013068,0.0276778,-0.0136553,-1.22852,0.0243171,0.0207132,1994,1030,77.7702,-7.26588
777,-6,77.5962,7.18079,-0.00484037,0.0281369,-0.0220436,0.0391763,-0.0158798,-1.10651,0.0327215,0.021394,2001,1030,77.5963,-7.18077
784,-6,77.4438,7.0896,0.00126497,0.0326082,-0.0333219,0.0537597,-0.0198866,-1.00521,0.0439934,0.0473096,2008,1030,77.4437,-7.08961
791,-6,77.3445,7.09521,0,0,0,0,0,0,0,-1,2015,1030,77.3445,-7.09519
798,-6,77.4343,6.59229,0.022109,0.0385711,-0.0671331,0.0979758,-0.0372957,-0.846397,0.0806758,0.0449604,2022,1030,77.4344,-6.59231
805,-6,77.5481,5.83875,0.0375888,0.0399928,-0.0893519,0.128151,-0.0505691,-0.792124,0.106375,0.0452922,2029,1030,77.5481,-5.83877
812,-6,77.4619,5.17249,0,0,0,0,0,0,0,-1,2036,1030,77.4618,-5.17253
-700,-13,0,0,0,0,0,0,0,0,0,-1,524,1037,0,0
-693,-13,-63.0815,-0.227539,0.130037,0.0146225,0.113141,0.199337,-0.0546779,0.549572,0.154379,0.047618,531,1037,-63.0815,0.227486
-686,-13,-62.6012,0.862305,0.111315,0.0178201,0.101006,0.175867,-0.0467317,0.568667,0.135534,0.0452465,538,1037,-62.6012,-0.862253
-679,-13,-62.2772,1.97412,0.0927446,0.0197549,0.0877207,0.151259,-0.0387597,0.588272,0.11594,0.0464415,545,1037,-62.2772,-1.97417
-672,-13,-61.8615,3.31213,0.0754371,0.020785,0.0744484,0.127416,-0.0311939,0.609508,0.097028,0.0459146,552,1037,-61.8615,-3.31212
-665,-13,-61.3814,4.36389,0.059411,0.0211984,0.0616306,0.104829,-0.0242196,0.635089,0.0792033,0.0432297,559,1037,-61.3814,-4.36392
-658,-13,-62.0735,4.87866,0,0,0,0,0,0,0,-1,566,1037,-62.0735,-4.87872
-651,-13,-62.0961,5.40857,0.0319435,0.0202597,0.0382638,0.0648087,-0.0126056,0.709646,0.0479631,0.0427265,573,1037,-62.0961,-5.40855
-644,-13,-62.0667,6.07861,0.020178,0.0193643,0.0277991,0.0475733,-0.00803095,0.778081,0.0347036,0.0384608,580,1037,-62.0666,-6.07858
-637,-13,-62.2161,6.29175,0.00885149,0.0178288,0.0177102,0.0316103,-0.00493003,0.90951,0.0228945,0.0329249,587,1037,-62.2161,-6.29176
-630,-13,-62.4069,6.34753,0.000700132,0.0152468,0.0092521,0.0197422,-0.00379525,1.11851,0.014592,0.0202227,594,1037,-62.4069,-6.34759
-623,-13,-62.4247,6.55298,-0.00367197,0.0117192,0.00351181,0.0124826,-0.00443539,1.35674,0.0101293,0.016011,601,1037,-62.4247,-6.55295
-616,-13,-62.412,6.72205,-0.00425735,0.00819689,0.00101542,0.00827913,-0.0043396,1.48998,0.00740283,0.0145916,608,1037,-62.412,-6.72208
-609,-13,-62.4046,6.86475,-0.00366745,0.00467215,-0.000393074,0.00469063,-0.00368593,-1.5238,0.0048478,0.019604,615,1037,-62.4046,-6.86474
-602,-13,-62.3705,6.98816,-0.0028872,0.00229576,-0.00116195,0.00254433,-0.00313577,-1.36005,0.00328533,0.0144038,622,1037,-62.3705,-6.98813
-595,-13,-62.3941,7.09436,0,0,0,0,0,0,0,-1,629,1037,-62.3941,-7.09436
-588,-13,-61.4704,0.799683,0,0,0,0,0,0,0,-1,636,1037,-61.4704,-0.799706
-581,-13,-61.5735,0.490723,-0.00192959,-0.000954395,-0.000570181,-0.000691755,-0.00219223,-1.13914,0.00129408,0.02634,643,1037,-61.5735,-0.490685
-574,-13,-61.6266,0.526611,-0.00181188,-0.00130302,-9.15413e-05,-0.00128705,-0.00182785,-1.39811,0.00108423,0.0341242,650,1037,-61.6266,-0.526625
-567,-13,-61.7363,0.674805,-0.0019263,-0.00113502,0.000724153,-0.000705477,-0.00235584,1.03541,0.00139614,0.0420822,657,1037,-61.7363,-0.674846
-560,-13,-61.5485,0.786743,-0.00217754,-0.000597554,0.00191845,0.00068719,-0.00346229,0.980712,0.00256809,0.0446042,664,1037,-61.5485,-0.786686
-553,-13,-61.332,0.334229,-0.002686,7.99866e-06,0.00358281,0.00248866,-0.00516666,0.965205,0.00450904,0.0420685,671,1037,-61.3319,-0.33418
-546,-13,-61.4516,0.295166,-0.00338268,0.000184793,0.00591113,0.00457545,-0.00777334,0.931933,0.00720883,0.0386502,678,1037,-61.4516,-0.295114
-539,-13,-61.6734,0.764038,-0.00454672,-0.000302293,0.00880625,0.00663385,-0.0114829,0.903638,0.0105838,0.0392697,685,1037,-61.6734,-0.764026
-532,-13,-61.5939,1.09766,-0.00559843,-0.00060474,0.0119168,0.009074,-0.0152772,0.888666,0.0142104,0.0437675,692,1037,-61.5939,-1.09761
-525,-13,0,0,0,0,0,0,0,0,0,-1,699,1037,0,0
-518,-13,0,0,0,0,0,0,0,0,0,-1,706,1037,0,0
-511,-13,0,0,0,0,0,0,0,0,0,-1,713,1037,0,0
-504,-13,0,0,0,0,0,0,0,0,0,-1,720,1037,0,0
-497,-13,0,0,0,0,0,0,0,0,0,-1,727,1037,0,0
-490,-13,0,0,0,0,0,0,0,0,0,-1,734,1037,0,0
-483,-13,0,0,0,0,0,0,0,0,0,-1,741,1037,0,0
-476,-13,0,0,0,0,0,0,0,0,0,-1,748,1037,0,0
-469,-13,0,0,0,0,0,0,0,0,0,-1,755,1037,0,0
-462,-13,0,0,0,0,0,0,0,0,0,-1,762,1037,0,0
-455,-13,0,0,0,0,0,0,0,0,0,-1,769,1037,0,0
-448,-13,0,0,0,0,0,0,0,0,0,-1,776,1037,0,0
-441,-13,0,0,0,0,0,0,0,0,0,-1,783,1037,0,0
-434,-13,0,0,0,0,0,0,0,0,0,-1,790,1037,0,0
-427,-13,0,0,0,0,0,0,0,0,0,-1,797,1037,0,0
-420,-13,0,0,0,0,0,0,0,0,0,-1,804,1037,0,0
-413,-13,0,0,0,0,0,0,0,0,0,-1,811,1037,0,0
-406,-13,0,0,0,0,0,0,0,0,0,-1,818,1037,0,0
-399,-13,0,0,0,0,0,0,0,0,0,-1,825,1037,0,0
-392,-13,0,0,0,0,0,0,0,0,0,-1,832,1037,0,0
-385,-13,0,0,0,0,0,0,0,0,0,-1,839,1037,0,0
-378,-13,0,0,0,0,0,0,0,0,0,-1,846,1037,0,0
-371,-13,0,0,0,0,0,0,0,0,0,-1,853,1037,0,0
-364,-13,0,0,0,0,0,0,0,0,0,-1,860,1037,0,0
-357,-13,0,0,0,0,0,0,0,0,0,-1,867,1037,0,0
-350,-13,0,0,0,0,0,0,0,0,0,-1,874,1037,0,0
-343,-13,0,0,0,0,0,0,0,0,0,-1,881,1037,0,0
-336,-13,0,0,0,0,0,0,0,0,0,-1,888,1037,0,0
-329,-13,0,0,0,0,0,0,0,0,0,-1,895,1037,0,0
-322,-13,0,0,0,0,0,0,0,0,0,-1,902,1037,0,0
-315,-13,0,0,0,0,0,0,0,0,0,-1,909,1037,0,0
-308,-13,0,0,0,0,0,0,0,0,0,-1,916,1037,0,0
-301,-13,0,0,0,0,0,0,0,0,0,-1,923,1037,0,0
-294,-13,0,0,0,0,0,0,0,0,0,-1,930,1037,0,0
-287,-13,0,0,0,0,0,0,0,0,0,-1,937,1037,0,0
-280,-13,0,0,0,0,0,0,0,0,0,-1,944,1037,0,0
-273,-13,0,0,0,0,0,0,0,0,0,-1,951,1037,0,0
-266,-13,0,0,0,0,0,0,0,0,0,-1,958,1037,0,0
-259,-13,0,0,0,0,0,0,0,0,0,-1,965,1037,0,0
-252,-13,0,0,0,0,0,0,0,0,0,-1,972,1037,0,0
-245,-13,0,0,0,0,0,0,0,0,0,-1,979,1037,0,0
-238,-13,0,0,0,0,0,0,0,0,0,-1,986,1037,0,0
-231,-13,0,0,0,0,0,0,0,0,0,-1,993,1037,0,0
-224,-13,0,0,0,0,0,0,0,0,0,-1,1000,1037,0,0
-217,-13,0,0,0,0,0,0,0,0,0,-1,1007,1037,0,0
-210,-13,0,0,0,0,0,0,0,0,0,-1,1014,1037,0,0
-203,-13,0,0,0,0,0,0,0,0,0,-1,1021,1037,0,0
-196,-13,0,0,0,0,0,0,0,0,0,-1,1028,1037,0,0
-189,-13,0,0,0,0,0,0,0,0,0,-1,1035,1037,0,0
-182,-13,0,0,0,0,0,0,0,0,0,-1,1042,1037,0,0
-175,-13,0,0,0,0,0,0,0,0,0,-1,1049,1037,0,0
-168,-13,0,0,0,0,0,0,0,0,0,-1,1056,1037,0,0
-161,-13,0,0,0,0,0,0,0,0,0,-1,1063,1037,0,0
-154,-13,0,0,0,0,0,0,0,0,0,-1,1070,1037,0,0
-147,-13,0,0,0,0,0,0,0,0,0,-1,1077,1037,0,0
-140,-13,0,0,0,0,0,0,0,0,0,-1,1084,1037,0,0
-133,-13,0,0,0,0,0,0,0,0,0,-1,1091,1037,0,0
-126,-13,0,0,0,0,0,0,0,0,0,-1,1098,1037,0,0
-119,-13,0,0,0,0,0,0,0,0,0,-1,1105,1037,0,0
-112,-13,0,0,0,0,0,0,0,0,0,-1,1112,1037,0,0
-105,-13,0,0,0,0,0,0,0,0,0,-1,1119,1037,0,0
-98,-13,0,0,0,0,0,0,0,0,0,-1,1126,1037,0,0
-91,-13,0,0,0,0,0,0,0,0,0,-1,1133,1037,0,0
-84,-13,0,0,0,0,0,0,0,0,0,-1,1140,1037,0,0
-77,-13,0,0,0,0,0,0,0,0,0,-1,1147,1037,0,0
-70,-13,0,0,0,0,0,0,0,0,0,-1,1154,1037,0,0
-63,-13,0,0,0,0,0,0,0,0,0,-1,1161,1037,0,0
-56,-13,0,0,0,0,0,0,0,0,0,-1,1168,1037,0,0
-49,-13,0,0,0,0,0,0,0,0,0,-1,1175,1037,0,0
-42,-13,0,0,0,0,0,0,0,0,0,-1,1182,1037,0,0
-35,-13,0,0,0,0,0,0,0,0,0,-1,1189,1037,0,0
-28,-13,0,0,0,0,0,0,0,0,0,-1,1196,1037,0,0
-21,-13,0,0,0,0,0,0,0,0,0,-1,1203,1037,0,0
-14,-13,0,0,0,0,0,0,0,0,0,-1,1210,1037,0,0
-7,-13,0,0,0,0,0,0,0,0,0,-1,1217,1037,0,0
0,-13,0,0,0,0,0,0,0,0,0,-1,1224,1037,0,0
7,-13,0,0,0,0,0,0,0,0,0,-1,1231,1037,0,0
14,-13,0,0,0,0,0,0,0,0,0,-1,1238,1037,0,0
21,-13,0,0,0,0,0,0,0,0,0,-1,1245,1037,0,0
28,-13,0,0,0,0,0,0,0,0,0,-1,1252,1037,0,0
35,-13,0,0,0,0,0,0,0,0,0,-1,1259,1037,0,0
42,-13,0,0,0,0,0,0,0,0,0,-1,1266,1037,0,0
49,-13,0,0,0,0,0,0,0,0,0,-1,1273,1037,0,0
56,-13,0,0,0,0,0,0,0,0,0,-1,1280,1037,0,0
63,-13,0,0,0,0,0,0,0,0,0,-1,1287,1037,0,0
70,-13,0,0,0,0,0,0,0,0,0,-1,1294,1037,0,0
77,-13,0,0,0,0,0,0,0,0,0,-1,1301,1037,0,0
84,-13,0,0,0,0,0,0,0,0,0,-1,1308,1037,0,0
91,-13,0,0,0,0,0,0,0,0,0,-1,1315,1037,0,0
98,-13,0,0,0,0,0,0,0,0,0,-1,1322,1037,0,0
105,-13,0,0,0,0,0,0,0,0,0,-1,1329,1037,0,0
112,-13,0,0,0,0,0,0,0,0,0,-1,1336,1037,0,0
119,-13,0,0,0,0,0,0,0,0,0,-1,1343,1037,0,0
126,-13,0,0,0,0,0,0,0,0,0,-1,1350,1037,0,0
133,-13,0,0,0,0,0,0,0,0,0,-1,1357,1037,0,0
140,-13,0,0,0,0,0,0,0,0,0,-1,1364,1037,0,0
147,-13,0,0,0,0,0,0,0,0,0,-1,1371,1037,0,0
154,-13,0,0,0,0,0,0,0,0,0,-1,1378,1037,0,0
161,-13,0,0,0,0,0,0,0,0,0,-1,1385,1037,0,0
168,-13,0,0,0,0,0,0,0,0,0,-1,1392,1037,0,0
175,-13,0,0,0,0,0,0,0,0,0,-1,1399,1037,0,0
182,-13,0,0,0,0,0,0,0,0,0,-1,1406,1037,0,0
189,-13,0,0,0,0,0,0,0,0,0,-1,1413,1037,0,0
196,-13,0,0,0,0,0,0,0,0,0,-1,1420,1037,0,0
203,-13,0,0,0,0,0,0,0,0,0,-1,1427,1037,0,0
210,-13,0,0,0,0,0,0,0,0,0,-1,1434,1037,0,0
217,-13,0,0,0,0,0,0,0,0,0,-1,1441,1037,0,0
224,-13,0,0,0,0,0,0,0,0,0,-1,1448,1037,0,0
231,-13,0,0,0,0,0,0,0,0,0,-1,1455,1037,0,0
238,-13,0,0,0,0,0,0,0,0,0,-1,1462,1037,0,0
245,-13,0,0,0,0,0,0,0,0,0,-1,1469,1037,0,0
252,-13,0,0,0,0,0,0,0,0,0,-1,1476,1037,0,0
259,-13,0,0,0,0,0,0,0,0,0,-1,1483,1037,0,0
266,-13,0,0,0,0,0,0,0,0,0,-1,1490,1037,0,0
273,-13,0,0,0,0,0,0,0,0,0,-1,1497,1037,0,0
280,-13,0,0,0,0,0,0,0,0,0,-1,1504,1037,0,0
287,-13,0,0,0,0,0,0,0,0,0,-1,1511,1037,0,0
294,-13,0,0,0,0,0,0,0,0,0,-1,1518,1037,0,0
301,-13,0,0,0,0,0,0,0,0,0,-1,1525,1037,0,0
308,-13,0,0,0,0,0,0,0,0,0,-1,1532,1037,0,0
315,-13,0,0,0,0,0,0,0,0,0,-1,1539,1037,0,0
322,-13,0,0,0,0,0,0,0,0,0,-1,1546,1037,0,0
329,-13,0,0,0,0,0,0,0,0,0,-1,1553,1037,0,0
336,-13,0,0,0,0,0,0,0,0,0,-1,1560,1037,0,0
343,-13,0,0,0,0,0,0,0,0,0,-1,1567,1037,0,0
350,-13,0,0,0,0,0,0,0,0,0,-1,1574,1037,0,0
357,-13,0,0,0,0,0,0,0,0,0,-1,1581,1037,0,0
364,-13,0,0,0,0,0,0,0,0,0,-1,1588,1037,0,0
371,-13,0,0,0,0,0,0,0,0,0,-1,1595,1037,0,0
378,-13,0,0,0,0,0,0,0,0,0,-1,1602,1037,0,0
385,-13,0,0,0,0,0,0,0,0,0,-1,1609,1037,0,0
392,-13,0,0,0,0,0,0,0,0,0,-1,1616,1037,0,0
399,-13,0,0,0,0,0,0,0,0,0,-1,1623,1037,0,0
406,-13,0,0,0,0,0,0,0,0,0,-1,1630,1037,0,0
413,-13,0,0,0,0,0,0,0,0,0,-1,1637,1037,0,0
420,-13,0,0,0,0,0,0,0,0,0,-1,1644,1037,0,0
427,-13,0,0,0,0,0,0,0,0,0,-1,1651,1037,0,0
434,-13,0,0,0,0,0,0,0,0,0,-1,1658,1037,0,0
441,-13,0,0,0,0,0,0,0,0,0,-1,1665,1037,0,0
448,-13,0,0,0,0,0,0,0,0,0,-1,1672,1037,0,0
455,-13,0,0,0,0,0,0,0,0,0,-1,1679,1037,0,0
462,-13,0,0,0,0,0,0,0,0,0,-1,1686,1037,0,0
469,-13,0,0,0,0,0,0,0,0,0,-1,1693,1037,0,0
476,-13,0,0,0,0,0,0,0,0,0,-1,1700,1037,0,0
483,-13,0,0,0,0,0,0,0,0,0,-1,1707,1037,0,0
490,-13,0,0,0,0,0,0,0,0,0,-1,1714,1037,0,0
497,-13,0,0,0,0,0,0,0,0,0,-1,1721,1037,0,0
504,-13,0,0,0,0,0,0,0,0,0,-1,1728,1037,0,0
511,-13,0,0,0,0,0,0,0,0,0,-1,1735,1037,0,0
518,-13,0,0,0,0,0,0,0,0,0,-1,1742,1037,0,0
525,-13,0,0,0,0,0,0,0,0,0,-1,1749,1037,0,0
532,-13,0,0,0,0,0,0,0,0,0,-1,1756,1037,0,0
539,-13,0,0,0,0,0,0,0,0,0,-1,1763,1037,0,0
546,-13,0,0,0,0,0,0,0,0,0,-1,1770,1037,0,0
553,-13,0,0,0,0,0,0,0,0,0,-1,1777,1037,0,0
560,-13,0,0,0,0,0,0,0,0,0,-1,1784,1037,0,0
567,-13,0,0,0,0,0,0,0,0,0,-1,1791,1037,0,0
574,-13,0,0,0,0,0,0,0,0,0,-1,1798,1037,0,0
581,-13,0,0,0,0,0,0,0,0,0,-1,1805,1037,0,0
588,-13,0,0,0,0,0,0,0,0,0,-1,1812,1037,0,0
595,-13,0,0,0,0,0,0,0,0,0,-1,1819,1037,0,0
602,-13,0,0,0,0,0,0,0,0,0,-1,1826,1037,0,0
609,-13,0,0,0,0,0,0,0,0,0,-1,1833,1037,0,0
616,-13,0,0,0,0,0,0,0,0,0,-1,1840,1037,0,0
623,-13,0,0,0,0,0,0,0,0,0,-1,1847,1037,0,0
630,-13,0,0,0,0,0,0,0,0,0,-1,1854,1037,0,0
637,-13,0,0,0,0,0,0,0,0,0,-1,1861,1037,0,0
644,-13,0,0,0,0,0,0,0,0,0,-1,1868,1037,0,0
651,-13,77.8995,2.67871,-0.00116592,-0.000614084,-0.00410455,0.00322381,-0.00500381,-0.818959,0.00478713,0.0379438,1875,1037,77.8996,-2.67876
658,-13,77.8763,2.48376,-0.000803554,-0.000249877,-0.00352096,0.00300511,-0.00405854,-0.82463,0.00409329,0.045406,1882,1037,77.8764,-2.48377
665,-13,77.8724,2.36853,-0.000529273,2.16018e-06,-0.00279328,0.00254234,-0.00306945,-0.832819,0.00324473,0.045272,1889,1037,77.8725,-2.36852
672,-13,77.8785,2.42517,-0.000293555,0.000342082,-0.00199122,0.00204069,-0.00199216,-0.864536,0.00232843,0.0385196,1896,1037,77.8785,-2.42521
679,-13,77.8198,2.51843,-0.000107315,0.000700317,-0.00110054,0.00146878,-0.000875783,-0.961235,0.00136799,0.0393042,1903,1037,77.8199,-2.51841
686,-13,77.8312,2.19458,-0.000389025,0.000592584,-0.000395254,0.00073195,-0.000528391,-1.23181,0.000730815,0.041575,1910,1037,77.8312,-2.19464
693,-13,77.908,2.10254,-0.000694686,0.000328176,0.000222651,0.00037454,-0.00074105,1.36549,0.000655571,0.0407542,1917,1037,77.9079,-2.10259
700,-13,77.8196,2.2865,-0.000890594,0.00014955,0.000710593,0.000510056,-0.0012511,1.1013,0.00104638,0.0374154,1924,1037,77.8196,-2.28653
707,-13,77.828,2.41492,-0.0016814,0.00056729,0.000965121,0.000924705,-0.00203881,1.21613,0.00175083,0.0305181,1931,1037,77.8279,-2.41495
714,-13,77.8119,2.54175,-0.00277993,0.00138321,0.00108466,0.00164885,-0.00304558,1.33061,0.00275003,0.0356795,1938,1037,77.8119,-2.54177
721,-13,77.5714,2.52893,0,0,0,0,0,0,0,-1,1945,1037,77.5714,-2.52891
728,-13,77.7772,7.90979,0,0,0,0,0,0,0,-1,1952,1037,77.7773,-7.9098
735,-13,77.7106,7.85547,-0.00761772,0.00631873,0.00118316,0.00641846,-0.00771746,1.4867,0.00817285,0.049345,1959,1037,77.7106,-7.85543
742,-13,77.7598,7.75232,-0.00926796,0.00801569,0.00101975,0.00807565,-0.00932791,1.51207,0.0100566,0.0343314,1966,1037,77.7597,-7.75227
749,-13,77.9219,7.59741,-0.0100701,0.0103874,-0.000668737,0.0104092,-0.010092,-1.53815,0.0118369,0.0461877,1973,1037,77.922,-7.59746
756,-13,77.8914,7.46924,-0.0106597,0.0133125,-0.00323788,0.0137421,-0.0110893,-1.43888,0.0143637,0.0255418,1980,1037,77.8913,-7.46927
763,-13,77.8164,7.29663,-0.0107965,0.0173582,-0.00658896,0.0188238,-0.0122622,-1.35191,0.0180803,0.0337429,1987,1037,77.8163,-7.29659
770,-13,77.6914,7.17004,-0.00921145,0.0221984,-0.0124245,0.0265188,-0.0135318,-1.23614,0.023525,0.027723,1994,1037,77.6915,-7.17007
777,-13,77.4692,6.94751,-0.00530393,0.0274663,-0.021212,0.0378846,-0.0157222,-1.11425,0.0318193,0.0185583,2001,1037,77.4691,-6.94746
784,-13,77.4375,6.73181,0.000338893,0.0323237,-0.0321608,0.0522489,-0.0195863,-1.01613,0.0428793,0.038131,2008,1037,77.4375,-6.73176
791,-13,77.6416,6.81934,0,0,0,0,0,0,0,-1,2015,1037,77.6416,-6.81929
798,-13,78.0127,6.40442,0.0192985,0.0403084,-0.0643216,0.0949772,-0.0353703,-0.866343,0.0778349,0.0461996,2022,1037,78.0128,-6.40447
805,-13,78.8425,5.6001,0.0335294,0.0434686,-0.0853766,0.12402,-0.0470222,-0.814469,0.102032,0.0407265,2029,1037,78.8425,-5.60007
812,-13,78.7461,5.07043,0,0,0,0,0,0,0,-1,2036,1037,78.7461,-5.07049
-700,-20,-63.9059,-1.49377,0.140619,0.00486359,0.119924,0.210543,-0.0650598,0.527874,0.166345,0.0472989,524,1044,-63.9059,1.49378
-693,-20,-63.1283,-0.482178,0.124895,0.00997284,0.109567,0.191154,-0.0562865,0.543896,0.149766,0.0439991,531,1044,-63.1283,0.4822
-686,-20,-62.7617,0.637573,0,0,0,0,0,0,0,-1,538,1044,-62.7617,-0.637581
-679,-20,-62.4618,1.60522,0.0883972,0.0174646,0.0833696,0.143531,-0.0376691,0.584289,0.110407,0.0459956,545,1044,-62.4618,-1.60521
-672,-20,-61.4011,3.62964,0.0716195,0.0191345,0.0701104,0.120238,-0.0294838,0.606319,0.0915823,0.0451003,552,1044,-61.4011,-3.62961
-665,-20,-61.4882,4.22986,0.0561744,0.0199527,0.0574557,0.0983061,-0.022179,0.63272,0.074046,0.0423667,559,1044,-61.4882,-4.22985
-658,-20,-61.8406,4.77148,0,0,0,0,0,0,0,-1,566,1044,-61.8406,-4.77143
-651,-20,-61.9871,5.43921,0.0301448,0.0194196,0.0349123,0.060104,-0.0105396,0.709193,0.0440053,0.0443189,573,1044,-61.9871,-5.43922
-644,-20,-61.8854,5.71472,0.0190824,0.0186754,0.0249431,0.0438229,-0.00606504,0.781319,0.0314326,0.0307768,580,1044,-61.8855,-5.71474
-637,-20,-61.9932,5.91089,0.00850194,0.0172774,0.0155023,0.0290009,-0.00322157,0.92331,0.0204924,0.0234578,587,1044,-61.9931,-5.91093
-630,-20,-62.123,6.22693,0.000884653,0.0149233,0.0077175,0.0183362,-0.00252822,1.15443,0.0131481,0.0194219,594,1044,-62.123,-6.22688
-623,-20,-62.1954,6.50049,-0.00306039,0.0115405,0.00255079,0.0119733,-0.00349319,1.40273,0.0093663,0.0159339,601,1044,-62.1955,-6.50052
-616,-20,-62.1943,6.70422,-0.00331019,0.00807216,0.000500028,0.00809408,-0.00333211,1.52698,0.0067852,0.0145411,608,1044,-62.1944,-6.70421
-609,-20,-62.2404,6.89783,-0.00274175,0.00461103,-0.000869809,0.00471253,-0.00284325,-1.45464,0.0044066,0.0165466,615,1044,-62.2404,-6.89785
-602,-20,-62.2139,7.06592,-0.00201297,0.0022838,-0.00164493,0.00284122,-0.00257039,-1.24407,0.00312569,0.0156942,622,1044,-62.2139,-7.06589
-595,-20,-62.2433,7.2373,0,0,0,0,0,0,0,-1,629,1044,-62.2433,-7.23725
-588,-20,-61.4857,0.673462,0,0,0,0,0,0,0,-1,636,1044,-61.4857,-0.673488
-581,-20,-61.5588,0.441528,-0.00120999,-0.000774087,-0.000932478,-3.44288e-05,-0.00194965,-0.900205,0.00128844,0.0343594,643,1044,-61.5588,-0.441546
-574,-20,-61.6078,0.507568,-0.00116637,-0.00105578,-0.000420438,-0.000687018,-0.00153514,-0.850783,0.000887936,0.0385875,650,1044,-61.6078,-0.507557
-567,-20,-61.5527,0.501099,-0.00136289,-0.000868992,0.000406,-0.000640737,-0.00159115,1.05863,0.000924431,0.0430363,657,1044,-61.5527,-0.501099
-560,-20,-61.4503,0.434814,-0.00169092,-0.000353398,0.00159284,0.00070538,-0.0027497,0.98415,0.00210797,0.0430645,664,1044,-61.4503,-0.434785
-553,-20,-61.4152,0.312378,-0.00222283,0.000186314,0.00321344,0.00241353,-0.00445005,0.964719,0.00402041,0.0415271,671,1044,-61.4152,-0.312371
-546,-20,-61.5721,0.379517,-0.00280999,0.000272746,0.0054243,0.00437043,-0.00690767,0.923829,0.00656611,0.0393338,678,1044,-61.5721,-0.379571
-539,-20,-61.7734,0.804932,-0.00360845,-0.000335416,0.00814255,0.00633345,-0.0102773,0.884569,0.00967991,0.0428485,685,1044,-61.7734,-0.804958
-532,-20,-61.7463,0.770874,-0.00427587,-0.0007302,0.0110487,0.00868694,-0.013693,0.864949,0.0130284,0.0434064,692,1044,-61.7464,-0.770878
-525,-20,0,0,0,0,0,0,0,0,0,-1,699,1044,0,0
-518,-20,0,0,0,0,0,0,0,0,0,-1,706,1044,0,0
-511,-20,0,0,0,0,0,0,0,0,0,-1,713,1044,0,0
-504,-20,0,0,0,0,0,0,0,0,0,-1,720,1044,0,0
-497,-20,0,0,0,0,0,0,0,0,0,-1,727,1044,0,0
-490,-20,0,0,0,0,0,0,0,0,0,-1,734,1044,0,0
-483,-20,0,0,0,0,0,0,0,0,0,-1,741,1044,0,0
-476,-20,0,0,0,0,0,0,0,0,0,-1,748,1044,0,0
-469,-20,0,0,0,0,0,0,0,0,0,-1,755,1044,0,0
-462,-20,0,0,0,0,0,0,0,0,0,-1,762,1044,0,0
-455,-20,0,0,0,0,0,0,0,0,0,-1,769,1044,0,0
-448,-20,0,0,0,0,0,0,0,0,0,-1,776,1044,0,0
-441,-20,0,0,0,0,0,0,0,0,0,-1,783,1044,0,0
-434,-20,0,0,0,0,0,0,0,0,0,-1,790,1044,0,0
-427,-20,0,0,0,0,0,0,0,0,0,-1,797,1044,0,0
-420,-20,0,0,0,0,0,0,0,0,0,-1,804,1044,0,0
-413,-20,0,0,0,0,0,0,0,0,0,-1,811,1044,0,0
-406,-20,0,0,0,0,0,0,0,0,0,-1,818,1044,0,0
-399,-20,0,0,0,0,0,0,0,0,0,-1,825,1044,0,0
-392,-20,0,0,0,0,0,0,0,0,0,-1,832,1044,0,0
-385,-20,0,0,0,0,0,0,0,0,0,-1,839,1044,0,0
-378,-20,0,0,0,0,0,0,0,0,0,-1,846,1044,0,0
-371,-20,0,0,0,0,0,0,0,0,0,-1,853,1044,0,0
-364,-20,0,0,0,0,0,0,0,0,0,-1,860,1044,0,0
-357,-20,0,0,0,0,0,0,0,0,0,-1,867,1044,0,0
-350,-20,0,0,0,0,0,0,0,0,0,-1,874,1044,0,0
-343,-20,0,0,0,0,0,0,0,0,0,-1,881,1044,0,0
-336,-20,0,0,0,0,0,0,0,0,0,-1,888,1044,0,0
-329,-20,0,0,0,0,0,0,0,0,0,-1,895,1044,0,0
-322,-20,0,0,0,0,0,0,0,0,0,-1,902,1044,0,0
-315,-20,0,0,0,0,0,0,0,0,0,-1,909,1044,0,0
-308,-20,0,0,0,0,0,0,0,0,0,-1,916,1044,0,0
-301,-20,0,0,0,0,0,0,0,0,0,-1,923,1044,0,0
-294,-20,0,0,0,0,0,0,0,0,0,-1,930,1044,0,0
-287,-20,0,0,0,0,0,0,0,0,0,-1,937,1044,0,0
-280,-20,0,0,0,0,0,0,0,0,0,-1,944,1044,0,0
-273,-20,0,0,0,0,0,0,0,0,0,-1,951,1044,0,0
-266,-20,0,0,0,0,0,0,0,0,0,-1,958,1044,0,0
-259,-20,0,0,0,0,0,0,0,0,0,-1,965,1044,0,0
-252,-20,0,0,0,0,0,0,0,0,0,-1,972,1044,0,0
-245,-20,0,0,0,0,0,0,0,0,0,-1,979,1044,0,0
-238,-20,0,0,0,0,0,0,0,0,0,-1,986,1044,0,0
-231,-20,0,0,0,0,0,0,0,0,0,-1,993,1044,0,0
-224,-20,0,0,0,0,0,0,0,0,0,-1,1000,1044,0,0
-217,-20,0,0,0,0,0,0,0,0,0,-1,1007,1044,0,0
-210,-20,0,0,0,0,0,0,0,0,0,-1,1014,1044,0,0
-203,-20,0,0,0,0,0,0,0,0,0,-1,1021,1044,0,0
-196,-20,0,0,0,0,0,0,0,0,0,-1,1028,1044,0,0
-189,-20,0,0,0,0,0,0,0,0,0,-1,1035,1044,0,0
-182,-20,0,0,0,0,0,0,0,0,0,-1,1042,1044,0,0
-175,-20,0,0,0,0,0,0,0,0,0,-1,1049,1044,0,0
-168,-20,0,0,0,0,0,0,0,0,0,-1,1056,1044,0,0
-161,-20,0,0,0,0,0,0,0,0,0,-1,1063,1044,0,0
-154,-20,0,0,0,0,0,0,0,0,0,-1,1070,1044,0,0
-147,-20,0,0,0,0,0,0,0,0,0,-1,1077,1044,0,0
-140,-20,0,0,0,0,0,0,0,0,0,-1,1084,1044,0,0
-133,-20,0,0,0,0,0,0,0,0,0,-1,1091,1044,0,0
-126,-20,0,0,0,0,0,0,0,0,0,-1,1098,1044,0,0
-119,-20,0,0,0,0,0,0,0,0,0,-1,1105,1044,0,0
-112,-20,0,0,0,0,0,0,0,0,0,-1,1112,1044,0,0
-105,-20,0,0,0,0,0,0,0,0,0,-1,1119,1044,0,0
-98,-20,0,0,0,0,0,0,0,0,0,-1,1126,1044,0,0
-91,-20,0,0,0,0,0,0,0,0,0,-1,1133,1044,0,0
-84,-20,0,0,0,0,0,0,0,0,0,-1,1140,1044,0,0
-77,-20,0,0,0,0,0,0,0,0,0,-1,1147,1044,0,0
-70,-20,0,0,0,0,0,0,0,0,0,-1,1154,1044,0,0
-63,-20,0,0,0,0,0,0,0,0,0,-1,1161,1044,0,0
-56,-20,0,0,0,0,0,0,0,0,0,-1,1168,1044,0,0
-49,-20,0,0,0,0,0,0,0,0,0,-1,1175,1044,0,0
-42,-20,0,0,0,0,0,0,0,0,0,-1,1182,1044,0,0
-35,-20,0,0,0,0,0,0,0,0,0,-1,1189,1044,0,0
-28,-20,0,0,0,0,0,0,0,0,0,-1,1196,1044,0,0
-21,-20,0,0,0,0,0,0,0,0,0,-1,1203,1044,0,0
-14,-20,0,0,0,0,0,0,0,0,0,-1,1210,1044,0,0
-7,-20,0,0,0,0,0,0,0,0,0,-1,1217,1044,0,0
0,-20,0,0,0,0,0,0,0,0,0,-1,1224,1044,0,0
7,-20,0,0,0,0,0,0,0,0,0,-1,1231,1044,0,0
14,-20,0,0,0,0,0,0,0,0,0,-1,1238,1044,0,0
21,-20,0,0,0,0,0,0,0,0,0,-1,1245,1044,0,0
28,-20,0,0,0,0,0,0,0,0,0,-1,1252,1044,0,0
35,-20,0,0,0,0,0,0,0,0,0,-1,1259,1044,0,0
42,-20,0,0,0,0,0,0,0,0,0,-1,1266,1044,0,0
49,-20,0,0,0,0,0,0,0,0,0,-1,1273,1044,0,0
56,-20,0,0,0,0,0,0,0,0,0,-1,1280,1044,0,0
63,-20,0,0,0,0,0,0,0,0,0,-1,1287,1044,0,0
70,-20,0,0,0,0,0,0,0,0,0,-1,1294,1044,0,0
77,-20,0,0,0,0,0,0,0,0,0,-1,1301,1044,0,0
84,-20,0,0,0,0,0,0,0,0,0,-1,1308,1044,0,0
91,-20,0,0,0,0,0,0,0,0,0,-1,1315,1044,0,0
98,-20,0,0,0,0,0,0,0,0,0,-1,1322,1044,0,0
105,-20,0,0,0,0,0,0,0,0,0,-1,1329,1044,0,0
112,-20,0,0,0,0,0,0,0,0,0,-1,1336,1044,0,0
119,-20,0,0,0,0,0,0,0,0,0,-1,1343,1044,0,0
126,-20,0,0,0,0,0,0,0,0,0,-1,1350,1044,0,0
133,-20,0,0,0,0,0,0,0,0,0,-1,1357,1044,0,0
140,-20,0,0,0,0,0,0,0,0,0,-1,1364,1044,0,0
147,-20,0,0,0,0,0,0,0,0,0,-1,1371,1044,0,0
154,-20,0,0,0,0,0,0,0,0,0,-1,1378,1044,0,0
161,-20,0,0,0,0,0,0,0,0,0,-1,1385,1044,0,0
168,-20,0,0,0,0,0,0,0,0,0,-1,1392,1044,0,0
175,-20,0,0,0,0,0,0,0,0,0,-1,1399,1044,0,0
182,-20,0,0,0,0,0,0,0,0,0,-1,1406,1044,0,0
189,-20,0,0,0,0,0,0,0,0,0,-1,1413,1044,0,0
196,-20,0,0,0,0,0,0,0,0,0,-1,1420,1044,0,0
203,-20,0,0,0,0,0,0,0,0,0,-1,1427,1044,0,0
210,-20,0,0,0,0,0,0,0,0,0,-1,1434,1044,0,0
217,-20,0,0,0,0,0,0,0,0,0,-1,1441,1044,0,0
224,-20,0,0,0,0,0,0,0,0,0,-1,1448,1044,0,0
231,-20,0,0,0,0,0,0,0,0,0,-1,1455,1044,0,0
238,-20,0,0,0,0,0,0,0,0,0,-1,1462,1044,0,0
245,-20,0,0,0,0,0,0,0,0,0,-1,1469,1044,0,0
252,-20,0,0,0,0,0,0,0,0,0,-1,1476,1044,0,0
259,-20,0,0,0,0,0,0,0,0,0,-1,1483,1044,0,0
266,-20,0,0,0,0,0,0,0,0,0,-1,1490,1044,0,0
273,-20,0,0,0,0,0,0,0,0,0,-1,1497,1044,0,0
280,-20,0,0,0,0,0,0,0,0,0,-1,1504,1044,0,0
287,-20,0,0,0,0,0,0,0,0,0,-1,1511,1044,0,0
294,-20,0,0,0,0,0,0,0,0,0,-1,1518,1044,0,0
301,-20,0,0,0,0,0,0,0,0,0,-1,1525,1044,0,0
308,-20,0,0,0,0,0,0,0,0,0,-1,1532,1044,0,0
315,-20,0,0,0,0,0,0,0,0,0,-1,1539,1044,0,0
322,-20,0,0,0,0,0,0,0,0,0,-1,1546,1044,0,0
329,-20,0,0,0,0,0,0,0,0,0,-1,1553,1044,0,0
336,-20,0,0,0,0,0,0,0,0,0,-1,1560,1044,0,0
343,-20,0,0,0,0,0,0,0,0,0,-1,1567,1044,0,0
350,-20,0,0,0,0,0,0,0,0,0,-1,1574,1044,0,0
357,-20,0,0,0,0,0,0,0,0,0,-1,1581,1044,0,0
364,-20,0,0,0,0,0,0,0,0,0,-1,1588,1044,0,0
371,-20,0,0,0,0,0,0,0,0,0,-1,1595,1044,0,0
378,-20,0,0,0,0,0,0,0,0,0,-1,1602,1044,0,0
385,-20,0,0,0,0,0,0,0,0,0,-1,1609,1044,0,0
392,-20,0,0,0,0,0,0,0,0,0,-1,1616,1044,0,0
399,-20,0,0,0,0,0,0,0,0,0,-1,1623,1044,0,0
406,-20,0,0,0,0,0,0,0,0,0,-1,1630,1044,0,0
413,-20,0,0,0,0,0,0,0,0,0,-1,1637,1044,0,0
420,-20,0,0,0,0,0,0,0,0,0,-1,1644,1044,0,0
427,-20,0,0,0,0,0,0,0,0,0,-1,1651,1044,0,0
434,-20,0,0,0,0,0,0,0,0,0,-1,1658,1044,0,0
441,-20,0,0,0,0,0,0,0,0,0,-1,1665,1044,0,0
448,-20,0,0,0,0,0,0,0,0,0,-1,1672,1044,0,0
455,-20,0,0,0,0,0,0,0,0,0,-1,1679,1044,0,0
462,-20,0,0,0,0,0,0,0,0,0,-1,1686,1044,0,0
469,-20,0,0,0,0,0,0,0,0,0,-1,1693,1044,0,0
476,-20,0,0,0,0,0,0,0,0,0,-1,1700,1044,0,0
483,-20,0,0,0,0,0,0,0,0,0,-1,1707,1044,0,0
490,-20,0,0,0,0,0,0,0,0,0,-1,1714,1044,0,0
497,-20,0,0,0,0,0,0,0,0,0,-1,1721,1044,0,0
504,-20,0,0,0,0,0,0,0,0,0,-1,1728,1044,0,0
511,-20,0,0,0,0,0,0,0,0,0,-1,1735,1044,0,0
518,-20,0,0,0,0,0,0,0,0,0,-1,1742,1044,0,0
525,-20,0,0,0,0,0,0,0,0,0,-1,1749,1044,0,0
532,-20,0,0,0,0,0,0,0,0,0,-1,1756,1044,0,0
539,-20,0,0,0,0,0,0,0,0,0,-1,1763,1044,0,0
546,-20,0,0,0,0,0,0,0,0,0,-1,1770,1044,0,0
553,-20,0,0,0,0,0,0,0,0,0,-1,1777,1044,0,0
560,-20,0,0,0,0,0,0,0,0,0,-1,1784,1044,0,0
567,-20,0,0,0,0,0,0,0,0,0,-1,1791,1044,0,0
574,-20,0,0,0,0,0,0,0,0,0,-1,1798,1044,0,0
581,-20,0,0,0,0,0,0,0,0,0,-1,1805,1044,0,0
588,-20,0,0,0,0,0,0,0,0,0,-1,1812,1044,0,0
595,-20,0,0,0,0,0,0,0,0,0,-1,1819,1044,0,0
602,-20,0,0,0,0,0,0,0,0,0,-1,1826,1044,0,0
609,-20,0,0,0,0,0,0,0,0,0,-1,1833,1044,0,0
616,-20,0,0,0,0,0,0,0,0,0,-1,1840,1044,0,0
623,-20,0,0,0,0,0,0,0,0,0,-1,1847,1044,0,0
630,-20,0,0,0,0,0,0,0,0,0,-1,1854,1044,0,0
637,-20,0,0,0,0,0,0,0,0,0,-1,1861,1044,0,0
644,-20,0,0,0,0,0,0,0,0,0,-1,1868,1044,0,0
651,-20,77.8687,2.63293,-0.000614298,3.0104e-05,-0.00393755,0.00365861,-0.00424281,-0.826221,0.00456604,0.0372968,1875,1044,77.8687,-2.6329
658,-20,77.8483,2.46594,-0.000417349,0.000229577,-0.00332521,0.00324702,-0.00343479,-0.833884,0.00385825,0.04166,1882,1044,77.8483,-2.46597
665,-20,77.8563,2.39441,-0.000291394,0.00038481,-0.00256928,0.00263814,-0.00254472,-0.850819,0.00299249,0.0391368,1889,1044,77.8563,-2.39442
672,-20,77.855,2.4834,-0.000186452,0.000659706,-0.00176659,0.00205317,-0.00157992,-0.902929,0.00210349,0.0262659,1896,1044,77.8549,-2.48345
679,-20,77.7778,2.46191,-0.000132222,0.000984411,-0.000892699,0.00147901,-0.00062682,-1.06485,0.00124855,0.0309756,1903,1044,77.7778,-2.46187
686,-20,77.8345,2.19751,-0.000557832,0.000850848,-0.000197086,0.000877902,-0.000584886,-1.43438,0.00085017,0.0419312,1910,1044,77.8345,-2.19752
693,-20,77.901,2.10522,-0.000996445,0.00056228,0.000414232,0.000665524,-0.00109969,1.32653,0.00102937,0.044414,1917,1044,77.901,-2.10517
700,-20,77.775,2.32007,-0.00128882,0.000358622,0.000927415,0.000775311,-0.00170551,1.14852,0.00146548,0.0396496,1924,1044,77.775,-2.32011
707,-20,77.7839,2.44922,-0.00208362,0.000683182,0.00122911,0.00115033,-0.00255077,1.20759,0.00218722,0.0344341,1931,1044,77.784,-2.44923
714,-20,77.7953,2.63171,-0.00315915,0.00139785,0.00140736,0.00179745,-0.00355875,1.29414,0.00314764,0.0359614,1938,1044,77.7953,-2.63169
721,-20,77.5964,2.58459,0,0,0,0,0,0,0,-1,1945,1044,77.5964,-2.58461
728,-20,78.1676,8.11902,0,0,0,0,0,0,0,-1,1952,1044,78.1676,-8.11896
735,-20,77.8584,7.94641,-0.00786953,0.0059314,0.00157065,0.0061079,-0.00804602,1.4589,0.00819727,0.035765,1959,1044,77.8584,-7.9464
742,-20,77.5403,7.60535,-0.00943954,0.0075247,0.00144706,0.00764725,-0.00956209,1.48631,0.0099563,0.0396966,1966,1044,77.5403,-7.6054
749,-20,77.6997,7.53711,-0.0101325,0.00977919,-0.000193484,0.00978107,-0.0101344,-1.56108,0.0114988,0.0398563,1973,1044,77.6998,-7.53711
756,-20,77.6956,7.42834,-0.010532,0.0125106,-0.00270558,0.012824,-0.0108454,-1.45547,0.0136815,0.0241566,1980,1044,77.6956,-7.42828
763,-20,77.603,7.22852,-0.0103008,0.0164548,-0.0060812,0.0177721,-0.0116181,-1.35747,0.017092,0.0345591,1987,1044,77.6031,-7.22857
770,-20,77.4761,7.10632,-0.00840366,0.0211662,-0.0117083,0.0252407,-0.0124782,-1.2359,0.0221886,0.0286699,1994,1044,77.476,-7.10634
777,-20,77.2615,6.78369,-0.00400086,0.0265355,-0.0203312,0.0366932,-0.0141585,-1.10746,0.030305,0.0189594,2001,1044,77.2616,-6.78363
784,-20,77.2451,6.60181,0.00218051,0.0316858,-0.0310519,0.0513114,-0.0174451,-1.00716,0.0412705,0.0228883,2008,1044,77.245,-6.60181
791,-20,77.3965,6.18445,0,0,0,0,0,0,0,-1,2015,1044,77.3964,-6.18441
798,-20,78.4172,5.9303,0,0,0,0,0,0,0,-1,2022,1044,78.4174,-5.93028
805,-20,80.1687,5.16663,0,0,0,0,0,0,0,-1,2029,1044,80.1687,-5.16659
812,-20,78.2788,2.54492,0,0,0,0,0,0,0,-1,2036,1044,78.2787,-2.54498
-700,-27,-63.8558,-1.7605,0.136638,-0.00506315,0.114865,0.200745,-0.0691708,0.509052,0.16189,0.0480423,524,1051,-63.8558,1.76055
-693,-27,-63.3757,-0.430298,0.121174,0.00226812,0.102935,0.180592,-0.0571501,0.523515,0.143295,0.0451028,531,1051,-63.3757,0.43025
-686,-27,-62.6462,1.03625,0.103085,0.00872106,0.0898998,0.157432,-0.0456259,0.543742,0.123017,0.0434151,538,1051,-62.6462,-1.03629
-679,-27,-61.0069,3.14636,0,0,0,0,0,0,0,-1,545,1051,-61.0069,-3.14639
-672,-27,-61.199,3.61536,0.0687028,0.0162844,0.0637228,0.111396,-0.0264086,0.590293,0.0844545,0.0444344,552,1051,-61.199,-3.61538
-665,-27,-61.4538,4.14722,0.053641,0.0180645,0.0516309,0.090462,-0.0187565,0.619502,0.0674353,0.045273,559,1051,-61.4538,-4.14726
-658,-27,-61.6535,4.66479,0.0402946,0.0187951,0.0405539,0.0714993,-0.0124096,0.655842,0.0522958,0.0466118,566,1051,-61.6535,-4.66478
-651,-27,-61.672,5.10217,0.0287459,0.018513,0.0305985,0.0546527,-0.00739385,0.702558,0.0391333,0.0387337,573,1051,-61.672,-5.10221
-644,-27,-61.6882,5.48792,0.0183701,0.0179768,0.0214459,0.0396203,-0.00327338,0.780814,0.0275695,0.0198522,580,1051,-61.6882,-5.48794
-637,-27,-61.7499,5.71802,0.00840957,0.0167358,0.0128918,0.0261201,-0.000974663,0.941577,0.0177472,0.0165088,587,1051,-61.7499,-5.71808
-630,-27,-61.8573,6.13684,0.00125373,0.0145396,0.0059798,0.0168346,-0.00104127,1.20434,0.0115857,0.0212632,594,1051,-61.8573,-6.13682
-623,-27,-61.9242,6.46057,-0.00245128,0.011304,0.00151326,0.0114685,-0.00261579,1.46251,0.00865046,0.0184308,601,1051,-61.9242,-6.46057
-616,-27,-61.8983,6.70349,-0.00250162,0.00782237,-4.61758e-05,0.00782258,-0.00250183,-1.56632,0.00621906,0.0143328,608,1051,-61.8983,-6.70351
-609,-27,-61.8683,6.94702,-0.00194367,0.0044874,-0.00127485,0.0047309,-0.00218717,-1.38207,0.00408316,0.0154929,615,1051,-61.8683,-6.94698
-602,-27,-61.852,7.20508,-0.00126172,0.0022658,-0.00204572,0.00320312,-0.00219904,-1.14116,0.00313684,0.0149164,622,1051,-61.852,-7.20502
-595,-27,-61.8612,7.47217,-0.00112761,0.00100442,-0.00220813,0.00239039,-0.00251358,-1.01028,0.0028316,0.0272158,629,1051,-61.8612,-7.47216
-588,-27,-62.0217,7.71887,0,0,0,0,0,0,0,-1,636,1051,-62.0217,-7.71893
-581,-27,-61.4879,0.542114,-0.000517773,-0.00046643,-0.00124535,0.000753513,-0.00173771,-0.795704,0.00147525,0.0261719,643,1051,-61.4879,-0.542123
-574,-27,-61.5537,0.584717,-0.000504668,-0.00062075,-0.000714926,0.000154569,-0.00127999,-0.744895,0.000909237,0.0348633,650,1051,-61.5537,-0.584755
-567,-27,-61.3215,0.486816,-0.000717997,-0.000354299,0.000100724,-0.000328267,-0.000744028,1.31789,0.000430554,0.042962,657,1051,-61.3215,-0.48685
-560,-27,-61.2552,0.486938,-0.00104776,0.000195642,0.00125305,0.000972742,-0.00182486,1.01568,0.00163998,0.0456046,664,1051,-61.2552,-0.486985
-553,-27,-61.425,0.497437,-0.00150638,0.000710961,0.00280897,0.00262213,-0.00341755,0.973358,0.00349708,0.0415026,671,1051,-61.425,-0.497494
-546,-27,-61.5447,0.273315,-0.00187162,0.000718613,0.00488134,0.00447373,-0.00562674,0.915071,0.00584416,0.0421336,678,1051,-61.5448,-0.273258
-539,-27,-61.5958,0.443604,-0.00222121,-7.24304e-05,0.00740828,0.00633896,-0.0086326,0.857409,0.00867758,0.0437399,685,1051,-61.5958,-0.443571
-532,-27,-61.6757,0.650269,-0.00242776,-0.000601885,0.0101016,0.00862794,-0.0116576,0.830463,0.0117553,0.042213,692,1051,-61.6757,-0.65022
-525,-27,0,0,0,0,0,0,0,0,0,-1,699,1051,0,0
-518,-27,0,0,0,0,0,0,0,0,0,-1,706,1051,0,0
-511,-27,0,0,0,0,0,0,0,0,0,-1,713,1051,0,0
-504,-27,0,0,0,0,0,0,0,0,0,-1,720,1051,0,0
-497,-27,0,0,0,0,0,0,0,0,0,-1,727,1051,0,0
-490,-27,0,0,0,0,0,0,0,0,0,-1,734,1051,0,0
-483,-27,0,0,0,0,0,0,0,0,0,-1,741,1051,0,0
-476,-27,0,0,0,0,0,0,0,0,0,-1,748,1051,0,0
-469,-27,0,0,0,0,0,0,0,0,0,-1,755,1051,0,0
-462,-27,0,0,0,0,0,0,0,0,0,-1,762,1051,0,0
-455,-27,0,0,0,0,0,0,0,0,0,-1,769,1051,0,0
-448,-27,0,0,0,0,0,0,0,0,0,-1,776,1051,0,0
-441,-27,0,0,0,0,0,0,0,0,0,-1,783,1051,0,0
-434,-27,0,0,0,0,0,0,0,0,0,-1,790,1051,0,0
-427,-27,0,0,0,0,0,0,0,0,0,-1,797,1051,0,0
-420,-27,0,0,0,0,0,0,0,0,0,-1,804,1051,0,0
-413,-27,0,0,0,0,0,0,0,0,0,-1,811,1051,0,0
-406,-27,0,0,0,0,0,0,0,0,0,-1,818,1051,0,0
-399,-27,0,0,0,0,0,0,0,0,0,-1,825,1051,0,0
-392,-27,0,0,0,0,0,0,0,0,0,-1,832,1051,0,0
-385,-27,0,0,0,0,0,0,0,0,0,-1,839,1051,0,0
-378,-27,0,0,0,0,0,0,0,0,0,-1,846,1051,0,0
-371,-27,0,0,0,0,0,0,0,0,0,-1,853,1051,0,0
-364,-27,0,0,0,0,0,0,0,0,0,-1,860,1051,0,0
-357,-27,0,0,0,0,0,0,0,0,0,-1,867,1051,0,0
-350,-27,0,0,0,0,0,0,0,0,0,-1,874,1051,0,0
-343,-27,0,0,0,0,0,0,0,0,0,-1,881,1051,0,0
-336,-27,0,0,0,0,0,0,0,0,0,-1,888,1051,0,0
-329,-27,0,0,0,0,0,0,0,0,0,-1,895,1051,0,0
-322,-27,0,0,0,0,0,0,0,0,0,-1,902,1051,0,0
-315,-27,0,0,0,0,0,0,0,0,0,-1,909,1051,0,0
-308,-27,0,0,0,0,0,0,0,0,0,-1,916,1051,0,0
-301,-27,0,0,0,0,0,0,0,0,0,-1,923,1051,0,0
-294,-27,0,0,0,0,0,0,0,0,0,-1,930,1051,0,0
-287,-27,0,0,0,0,0,0,0,0,0,-1,937,1051,0,0
-280,-27,0,0,0,0,0,0,0,0,0,-1,944,1051,0,0
-273,-27,0,0,0,0,0,0,0,0,0,-1,951,1051,0,0
-266,-27,0,0,0,0,0,0,0,0,0,-1,958,1051,0,0
-259,-27,0,0,0,0,0,0,0,0,0,-1,965,1051,0,0
-252,-27,0,0,0,0,0,0,0,0,0,-1,972,1051,0,0
-245,-27,0,0,0,0,0,0,0,0,0,-1,979,1051,0,0
-238,-27,0,0,0,0,0,0,0,0,0,-1,986,1051,0,0
-231,-27,0,0,0,0,0,0,0,0,0,-1,993,1051,0,0
-224,-27,0,0,0,0,0,0,0,0,0,-1,1000,1051,0,0
-217,-27,0,0,0,0,0,0,0,0,0,-1,1007,1051,0,0
-210,-27,0,0,0,0,0,0,0,0,0,-1,1014,1051,0,0
-203,-27,0,0,0,0,0,0,0,0,0,-1,1021,1051,0,0
-196,-27,0,0,0,0,0,0,0,0,0,-1,1028,1051,0,0
-189,-27,0,0,0,0,0,0,0,0,0,-1,1035,1051,0,0
-182,-27,0,0,0,0,0,0,0,0,0,-1,1042,1051,0,0
-175,-27,0,0,0,0,0,0,0,0,0,-1,1049,1051,0,0
-168,-27,0,0,0,0,0,0,0,0,0,-1,1056,1051,0,0
-161,-27,0,0,0,0,0,0,0,0,0,-1,1063,1051,0,0
-154,-27,0,0,0,0,0,0,0,0,0,-1,1070,1051,0,0
-147,-27,0,0,0,0,0,0,0,0,0,-1,1077,1051,0,0
-140,-27,0,0,0,0,0,0,0,0,0,-1,1084,1051,0,0
-133,-27,0,0,0,0,0,0,0,0,0,-1,1091,1051,0,0
-126,-27,0,0,0,0,0,0,0,0,0,-1,1098,1051,0,0
-119,-27,0,0,0,0,0,0,0,0,0,-1,1105,1051,0,0
-112,-27,0,0,0,0,0,0,0,0,0,-1,1112,1051,0,0
-105,-27,0,0,0,0,0,0,0,0,0,-1,1119,1051,0,0
-98,-27,0,0,0,0,0,0,0,0,0,-1,1126,1051,0,0
-91,-27,0,0,0,0,0,0,0,0,0,-1,1133,1051,0,0
-84,-27,0,0,0,0,0,0,0,0,0,-1,1140,1051,0,0
-77,-27,0,0,0,0,0,0,0,0,0,-1,1147,1051,0,0
-70,-27,0,0,0,0,0,0,0,0,0,-1,1154,1051,0,0
-63,-27,0,0,0,0,0,0,0,0,0,-1,1161,1051,0,0
-56,-27,0,0,0,0,0,0,0,0,0,-1,1168,1051,0,0
-49,-27,0,0,0,0,0,0,0,0,0,-1,1175,1051,0,0
-42,-27,0,0,0,0,0,0,0,0,0,-1,1182,1051,0,0
-35,-27,0,0,0,0,0,0,0,0,0,-1,1189,1051,0,0
-28,-27,0,0,0,0,0,0,0,0,0,-1,1196,1051,0,0
-21,-27,0,0,0,0,0,0,0,0,0,-1,1203,1051,0,0
-14,-27,0,0,0,0,0,0,0,0,0,-1,1210,1051,0,0
-7,-27,0,0,0,0,0,0,0,0,0,-1,1217,1051,0,0
0,-27,0,0,0,0,0,0,0,0,0,-1,1224,1051,0,0
7,-27,0,0,0,0,0,0,0,0,0,-1,1231,1051,0,0
14,-27,0,0,0,0,0,0,0,0,0,-1,1238,1051,0,0
21,-27,0,0,0,0,0,0,0,0,0,-1,1245,1051,0,0
28,-27,0,0,0,0,0,0,0,0,0,-1,1252,1051,0,0
35,-27,0,0,0,0,0,0,0,0,0,-1,1259,1051,0,0
42,-27,0,0,0,0,0,0,0,0,0,-1,1266,1051,0,0
49,-27,0,0,0,0,0,0,0,0,0,-1,1273,1051,0,0
56,-27,0,0,0,0,0,0,0,0,0,-1,1280,1051,0,0
63,-27,0,0,0,0,0,0,0,0,0,-1,1287,1051,0,0
70,-27,0,0,0,0,0,0,0,0,0,-1,1294,1051,0,0
77,-27,0,0,0,0,0,0,0,0,0,-1,1301,1051,0,0
84,-27,0,0,0,0,0,0,0,0,0,-1,1308,1051,0,0
91,-27,0,0,0,0,0,0,0,0,0,-1,1315,1051,0,0
98,-27,0,0,0,0,0,0,0,0,0,-1,1322,1051,0,0
105,-27,0,0,0,0,0,0,0,0,0,-1,1329,1051,0,0
112,-27,0,0,0,0,0,0,0,0,0,-1,1336,1051,0,0
119,-27,0,0,0,0,0,0,0,0,0,-1,1343,1051,0,0
126,-27,0,0,0,0,0,0,0,0,0,-1,1350,1051,0,0
133,-27,0,0,0,0,0,0,0,0,0,-1,1357,1051,0,0
140,-27,0,0,0,0,0,0,0,0,0,-1,1364,1051,0,0
147,-27,0,0,0,0,0,0,0,0,0,-1,1371,1051,0,0
154,-27,0,0,0,0,0,0,0,0,0,-1,1378,1051,0,0
161,-27,0,0,0,0,0,0,0,0,0,-1,1385,1051,0,0
168,-27,0,0,0,0,0,0,0,0,0,-1,1392,1051,0,0
175,-27,0,0,0,0,0,0,0,0,0,-1,1399,1051,0,0
182,-27,0,0,0,0,0,0,0,0,0,-1,1406,1051,0,0
189,-27,0,0,0,0,0,0,0,0,0,-1,1413,1051,0,0
196,-27,0,0,0,0,0,0,0,0,0,-1,1420,1051,0,0
203,-27,0,0,0,0,0,0,0,0,0,-1,1427,1051,0,0
210,-27,0,0,0,0,0,0,0,0,0,-1,1434,1051,0,0
217,-27,0,0,0,0,0,0,0,0,0,-1,1441,1051,0,0
224,-27,0,0,0,0,0,0,0,0,0,-1,1448,1051,0,0
231,-27,0,0,0,0,0,0,0,0,0,-1,1455,1051,0,0
238,-27,0,0,0,0,0,0,0,0,0,-1,1462,1051,0,0
245,-27,0,0,0,0,0,0,0,0,0,-1,1469,1051,0,0
252,-27,0,0,0,0,0,0,0,0,0,-1,1476,1051,0,0
259,-27,0,0,0,0,0,0,0,0,0,-1,1483,1051,0,0
266,-27,0,0,0,0,0,0,0,0,0,-1,1490,1051,0,0
273,-27,0,0,0,0,0,0,0,0,0,-1,1497,1051,0,0
280,-27,0,0,0,0,0,0,0,0,0,-1,1504,1051,0,0
287,-27,0,0,0,0,0,0,0,0,0,-1,1511,1051,0,0
294,-27,0,0,0,0,0,0,0,0,0,-1,1518,1051,0,0
301,-27,0,0,0,0,0,0,0,0,0,-1,1525,1051,0,0
308,-27,0,0,0,0,0,0,0,0,0,-1,1532,1051,0,0
315,-27,0,0,0,0,0,0,0,0,0,-1,1539,1051,0,0
322,-27,0,0,0,0,0,0,0,0,0,-1,1546,1051,0,0
329,-27,0,0,0,0,0,0,0,0,0,-1,1553,1051,0,0
336,-27,0,0,0,0,0,0,0,0,0,-1,1560,1051,0,0
343,-27,0,0,0,0,0,0,0,0,0,-1,1567,1051,0,0
350,-27,0,0,0,0,0,0,0,0,0,-1,1574,1051,0,0
357,-27,0,0,0,0,0,0,0,0,0,-1,1581,1051,0,0
364,-27,0,0,0,0,0,0,0,0,0,-1,1588,1051,0,0
371,-27,0,0,0,0,0,0,0,0,0,-1,1595,1051,0,0
378,-27,0,0,0,0,0,0,0,0,0,-1,1602,1051,0,0
385,-27,0,0,0,0,0,0,0,0,0,-1,1609,1051,0,0
392,-27,0,0,0,0,0,0,0,0,0,-1,1616,1051,0,0
399,-27,0,0,0,0,0,0,0,0,0,-1,1623,1051,0,0
406,-27,0,0,0,0,0,0,0,0,0,-1,1630,1051,0,0
413,-27,0,0,0,0,0,0,0,0,0,-1,1637,1051,0,0
420,-27,0,0,0,0,0,0,0,0,0,-1,1644,1051,0,0
427,-27,0,0,0,0,0,0,0,0,0,-1,1651,1051,0,0
434,-27,0,0,0,0,0,0,0,0,0,-1,1658,1051,0,0
441,-27,0,0,0,0,0,0,0,0,0,-1,1665,1051,0,0
448,-27,0,0,0,0,0,0,0,0,0,-1,1672,1051,0,0
455,-27,0,0,0,0,0,0,0,0,0,-1,1679,1051,0,0
462,-27,0,0,0,0,0,0,0,0,0,-1,1686,1051,0,0
469,-27,0,0,0,0,0,0,0,0,0,-1,1693,1051,0,0
476,-27,0,0,0,0,0,0,0,0,0,-1,1700,1051,0,0
483,-27,0,0,0,0,0,0,0,0,0,-1,1707,1051,0,0
490,-27,0,0,0,0,0,0,0,0,0,-1,1714,1051,0,0
497,-27,0,0,0,0,0,0,0,0,0,-1,1721,1051,0,0
504,-27,0,0,0,0,0,0,0,0,0,-1,1728,1051,0,0
511,-27,0,0,0,0,0,0,0,0,0,-1,1735,1051,0,0
518,-27,0,0,0,0,0,0,0,0,0,-1,1742,1051,0,0
525,-27,0,0,0,0,0,0,0,0,0,-1,1749,1051,0,0
532,-27,0,0,0,0,0,0,0,0,0,-1,1756,1051,0,0
539,-27,0,0,0,0,0,0,0,0,0,-1,1763,1051,0,0
546,-27,0,0,0,0,0,0,0,0,0,-1,1770,1051,0,0
553,-27,0,0,0,0,0,0,0,0,0,-1,1777,1051,0,0
560,-27,0,0,0,0,0,0,0,0,0,-1,1784,1051,0,0
567,-27,0,0,0,0,0,0,0,0,0,-1,1791,1051,0,0
574,-27,0,0,0,0,0,0,0,0,0,-1,1798,1051,0,0
581,-27,0,0,0,0,0,0,0,0,0,-1,1805,1051,0,0
588,-27,0,0,0,0,0,0,0,0,0,-1,1812,1051,0,0
595,-27,0,0,0,0,0,0,0,0,0,-1,1819,1051,0,0
602,-27,0,0,0,0,0,0,0,0,0,-1,1826,1051,0,0
609,-27,0,0,0,0,0,0,0,0,0,-1,1833,1051,0,0
616,-27,0,0,0,0,0,0,0,0,0,-1,1840,1051,0,0
623,-27,0,0,0,0,0,0,0,0,0,-1,1847,1051,0,0
630,-27,0,0,0,0,0,0,0,0,0,-1,1854,1051,0,0
637,-27,0,0,0,0,0,0,0,0,0,-1,1861,1051,0,0
644,-27,0,0,0,0,0,0,0,0,0,-1,1868,1051,0,0
651,-27,77.906,2.58899,0.000168672,0.000952208,-0.00350023,0.00408253,-0.00296165,-0.841129,0.00408408,0.0404353,1875,1051,77.906,-2.58903
658,-27,77.8356,2.5448,0.000156866,0.000849766,-0.00292985,0.00345358,-0.00244695,-0.844249,0.00342316,0.041538,1882,1051,77.8355,-2.54477
665,-27,77.853,2.48047,0.000113721,0.000803449,-0.00220748,0.00269284,-0.00177567,-0.862884,0.00259795,0.0369884,1889,1051,77.853,-2.48043
672,-27,77.8459,2.46924,7.51899e-05,0.000929523,-0.00145315,0.00201699,-0.00101228,-0.928351,0.00178072,0.0292181,1896,1051,77.8459,-2.4692
679,-27,77.8306,2.53186,-5.02661e-06,0.00113333,-0.000630386,0.00141348,-0.000285171,-1.15261,0.00105036,0.0295829,1903,1051,77.8306,-2.53185
686,-27,77.8436,2.40735,-0.000547566,0.000923016,5.07579e-05,0.000924766,-0.000549316,1.53634,0.000860214,0.0412362,1910,1051,77.8436,-2.40737
693,-27,77.7886,2.39954,-0.00110956,0.000584792,0.00065939,0.000811162,-0.00133593,1.2401,0.00125191,0.0440995,1917,1051,77.7885,-2.39953
700,-27,77.7428,2.50232,-0.0014985,0.000342872,0.00119308,0.0009292,-0.00208483,1.11402,0.00178228,0.0391125,1924,1051,77.7428,-2.50227
707,-27,77.7109,2.5155,0,0,0,0,0,0,0,-1,1931,1051,77.7109,-2.51546
714,-27,77.8052,2.56384,0,0,0,0,0,0,0,-1,1938,1051,77.8051,-2.56384
721,-27,77.7383,2.71008,0,0,0,0,0,0,0,-1,1945,1051,77.7382,-2.71009
728,-27,78.101,8.21594,0,0,0,0,0,0,0,-1,1952,1051,78.101,-8.21592
735,-27,77.6646,8.08606,-0.00782322,0.0053176,0.00205988,0.00563292,-0.00813855,1.41889,0.00799471,0.0298671,1959,1051,77.6646,-8.08602
742,-27,77.4387,7.88049,-0.00928027,0.00681017,0.00196836,0.00704746,-0.00951757,1.45082,0.0095992,0.0225628,1966,1051,77.4387,-7.88054
749,-27,77.4595,7.56616,-0.00986796,0.00895946,0.000433267,0.00896942,-0.00987792,1.5478,0.0108857,0.017927,1973,1051,77.4595,-7.56619
756,-27,77.426,7.32776,-0.0101567,0.0115308,-0.00192722,0.0117007,-0.0103266,-1.48285,0.0127257,0.0175144,1980,1051,77.4261,-7.32777
763,-27,77.3123,7.06628,-0.0097891,0.0154031,-0.00520654,0.0164367,-0.0108227,-1.37482,0.0158491,0.0186408,1987,1051,77.3123,-7.06627
770,-27,77.1914,6.78003,-0.00794285,0.0200222,-0.0104682,0.0235066,-0.0114272,-1.24947,0.020567,0.0189931,1994,1051,77.1914,-6.78001
777,-27,77.051,6.66968,-0.00366484,0.0254726,-0.0185988,0.0345293,-0.0127216,-1.11764,0.0282322,0.0216329,2001,1051,77.051,-6.66966
784,-27,76.9814,6.58521,0.00231524,0.0308718,-0.0286888,0.0486391,-0.015452,-1.0163,0.0386212,0.0312822,2008,1051,76.9815,-6.58521
791,-27,76.9785,6.46838,0,0,0,0,0,0,0,-1,2015,1051,76.9786,-6.46834
798,-27,78.769,5.69495,0,0,0,0,0,0,0,-1,2022,1051,78.769,-5.69489
805,-27,77.8052,3.18945,0.0366455,0.0477167,-0.0774851,0.119864,-0.0355014,-0.821058,0.0940047,0.0464394,2029,1051,77.8052,-3.18943
812,-27,78.0112,2.20996,0.0549376,0.0548624,-0.101131,0.156031,-0.0462307,-0.785212,0.122377,0.048922,2036,1051,78.0112,-2.2099
-700,-34,-63.8756,-1.85168,0.133548,-0.0129524,0.103823,0.18736,-0.0667642,0.478183,0.152126,0.0469762,524,1058,-63.8756,1.85166
-693,-34,-63.651,-0.319946,0.118277,-0.00425291,0.0910881,0.166786,-0.0527625,0.489352,0.132332,0.0467561,531,1058,-63.651,0.319984
-686,-34,-62.7118,1.17798,0.100431,0.0034054,0.0785011,0.1442,-0.0403636,0.508628,0.112038,0.0452643,538,1058,-62.7118,-1.17792
-679,-34,-61.8637,2.94434,0.0827746,0.00920642,0.066211,0.121733,-0.0297523,0.531848,0.0926787,0.0424062,545,1058,-61.8637,-2.9443
-672,-34,-61.1383,1.61267,0,0,0,0,0,0,0,-1,552,1058,-61.1383,-1.61265
-665,-34,-61.0336,2.96497,0.0517391,0.0159364,0.0439219,0.0812676,-0.0135921,0.59189,0.0592313,0.0472449,559,1058,-61.0336,-2.96493
-658,-34,-61.0921,4.48621,0.0388043,0.0172515,0.0342122,0.0638972,-0.0078414,0.632824,0.045438,0.0446815,566,1058,-61.0921,-4.48622
-651,-34,-61.3334,4.93591,0.0277308,0.0173345,0.0255789,0.0486344,-0.00356913,0.685153,0.0336757,0.0336905,573,1058,-61.3334,-4.93592
-644,-34,-61.4674,5.29407,0.0179391,0.0169697,0.017607,0.0350681,-0.000159295,0.771637,0.023432,0.0156845,580,1058,-61.4674,-5.29412
-637,-34,-61.5038,5.60059,0.00850357,0.0158807,0.0102479,0.0230836,0.0013006,0.958146,0.0149744,0.0168688,587,1058,-61.5038,-5.60055
-630,-34,-61.548,6.02612,0.00171317,0.0138323,0.00432932,0.01522,0.000325494,1.26061,0.0100399,0.0186703,594,1058,-61.548,-6.02617
-623,-34,-61.5574,6.35803,-0.00193404,0.0107418,0.000555009,0.010766,-0.00195829,1.52712,0.00791133,0.0154441,601,1058,-61.5574,-6.35801
-616,-34,-61.5095,6.74023,-0.00193327,0.00732362,-0.000637348,0.0073673,-0.00197694,-1.50238,0.00568625,0.0216614,608,1058,-61.5095,-6.74027
-609,-34,-61.4892,7.07068,-0.00134051,0.00417562,-0.00172344,0.00466981,-0.0018347,-1.29154,0.00387247,0.0219685,615,1058,-61.4892,-7.07071
-602,-34,-61.4741,7.33289,-0.000651475,0.00209682,-0.00249415,0.00357032,-0.00212497,-1.03718,0.00332328,0.0171645,622,1058,-61.4741,-7.33287
-595,-34,-61.6088,7.58484,-0.000527399,0.000916037,-0.00262843,0.00292003,-0.00253139,-0.919387,0.00315005,0.0206932,629,1058,-61.6088,-7.58485
-588,-34,-61.955,7.80457,0,0,0,0,0,0,0,-1,636,1058,-61.955,-7.80457
-581,-34,-61.4636,0.55603,0.000109237,-0.00031644,-0.00168857,0.00159833,-0.00180553,-0.722706,0.00196644,0.0276562,643,1058,-61.4635,-0.555985
-574,-34,-61.5793,0.509644,0.000108997,-0.000347352,-0.00116938,0.00107225,-0.00131061,-0.689046,0.00137804,0.0358639,650,1058,-61.5793,-0.509623
-567,-34,-61.5569,0.469238,-8.66726e-05,8.4009e-06,-0.000383376,0.000347176,-0.000425448,-0.847081,0.000446837,0.0415248,657,1058,-61.557,-0.469225
-560,-34,-61.4979,0.536133,-0.000384016,0.00061263,0.000727519,0.000996128,-0.000767515,1.08568,0.00102109,0.0408907,664,1058,-61.4979,-0.536149
-553,-34,-61.4985,0.570435,-0.000728025,0.00115395,0.00223019,0.00263354,-0.00220761,0.985033,0.00279864,0.0430628,671,1058,-61.4986,-0.570438
-546,-34,-61.4604,0.378052,-0.000820895,0.00116091,0.00420618,0.00449133,-0.00415131,0.90108,0.00499112,0.0457922,678,1058,-61.4605,-0.378068
-539,-34,-61.7495,0.668823,-0.000648918,0.000252514,0.00659957,0.00641674,-0.00681315,0.819493,0.00763942,0.0437974,685,1058,-61.7494,-0.668815
-532,-34,-61.6748,0.538208,-0.000350784,-0.000362567,0.00912135,0.00876467,-0.00947802,0.785075,0.0105351,0.040794,692,1058,-61.6748,-0.538191
-525,-34,0,0,0,0,0,0,0,0,0,-1,699,1058,0,0
-518,-34,0,0,0,0,0,0,0,0,0,-1,706,1058,0,0
-511,-34,0,0,0,0,0,0,0,0,0,-1,713,1058,0,0
-504,-34,0,0,0,0,0,0,0,0,0,-1,720,1058,0,0
-497,-34,0,0,0,0,0,0,0,0,0,-1,727,1058,0,0
-490,-34,0,0,0,0,0,0,0,0,0,-1,734,1058,0,0
-483,-34,0,0,0,0,0,0,0,0,0,-1,741,1058,0,0
-476,-34,0,0,0,0,0,0,0,0,0,-1,748,1058,0,0
-469,-34,0,0,0,0,0,0,0,0,0,-1,755,1058,0,0
-462,-34,0,0,0,0,0,0,0,0,0,-1,762,1058,0,0
-455,-34,0,0,0,0,0,0,0,0,0,-1,769,1058,0,0
-448,-34,0,0,0,0,0,0,0,0,0,-1,776,1058,0,0
-441,-34,0,0,0,0,0,0,0,0,0,-1,783,1058,0,0
-434,-34,0,0,0,0,0,0,0,0,0,-1,790,1058,0,0
-427,-34,0,0,0,0,0,0,0,0,0,-1,797,1058,0,0
-420,-34,0,0,0,0,0,0,0,0,0,-1,804,1058,0,0
-413,-34,0,0,0,0,0,0,0,0,0,-1,811,1058,0,0
-406,-34,0,0,0,0,0,0,0,0,0,-1,818,1058,0,0
-399,-34,0,0,0,0,0,0,0,0,0,-1,825,1058,0,0
-392,-34,0,0,0,0,0,0,0,0,0,-1,832,1058,0,0
-385,-34,0,0,0,0,0,0,0,0,0,-1,839,1058,0,0
-378,-34,0,0,0,0,0,0,0,0,0,-1,846,1058,0,0
-371,-34,0,0,0,0,0,0,0,0,0,-1,853,1058,0,0
-364,-34,0,0,0,0,0,0,0,0,0,-1,860,1058,0,0
-357,-34,0,0,0,0,0,0,0,0,0,-1,867,1058,0,0
-350,-34,0,0,0,0,0,0,0,0,0,-1,874,1058,0,0
-343,-34,0,0,0,0,0,0,0,0,0,-1,881,1058,0,0
-336,-34,0,0,0,0,0,0,0,0,0,-1,888,1058,0,0
-329,-34,0,0,0,0,0,0,0,0,0,-1,895,1058,0,0
-322,-34,0,0,0,0,0,0,0,0,0,-1,902,1058,0,0
-315,-34,0,0,0,0,0,0,0,0,0,-1,909,1058,0,0
-308,-34,0,0,0,0,0,0,0,0,0,-1,916,1058,0,0
-301,-34,0,0,0,0,0,0,0,0,0,-1,923,1058,0,0
-294,-34,0,0,0,0,0,0,0,0,0,-1,930,1058,0,0
-287,-34,0,0,0,0,0,0,0,0,0,-1,937,1058,0,0
-280,-34,0,0,0,0,0,0,0,0,0,-1,944,1058,0,0
-273,-34,0,0,0,0,0,0,0,0,0,-1,951,1058,0,0
-266,-34,0,0,0,0,0,0,0,0,0,-1,958,1058,0,0
-259,-34,0,0,0,0,0,0,0,0,0,-1,965,1058,0,0
-252,-34,0,0,0,0,0,0,0,0,0,-1,972,1058,0,0
-245,-34,0,0,0,0,0,0,0,0,0,-1,979,1058,0,0
-238,-34,0,0,0,0,0,0,0,0,0,-1,986,1058,0,0
-231,-34,0,0,0,0,0,0,0,0,0,-1,993,1058,0,0
-224,-34,0,0,0,0,0,0,0,0,0,-1,1000,1058,0,0
-217,-34,0,0,0,0,0,0,0,0,0,-1,1007,1058,0,0
-210,-34,0,0,0,0,0,0,0,0,0,-1,1014,1058,0,0
-203,-34,0,0,0,0,0,0,0,0,0,-1,1021,1058,0,0
-196,-34,0,0,0,0,0,0,0,0,0,-1,1028,1058,0,0
-189,-34,0,0,0,0,0,0,0,0,0,-1,1035,1058,0,0
-182,-34,0,0,0,0,0,0,0,0,0,-1,1042,1058,0,0
-175,-34,0,0,0,0,0,0,0,0,0,-1,1049,1058,0,0
-168,-34,0,0,0,0,0,0,0,0,0,-1,1056,1058,0,0
-161,-34,0,0,0,0,0,0,0,0,0,-1,1063,1058,0,0
-154,-34,0,0,0,0,0,0,0,0,0,-1,1070,1058,0,0
-147,-34,0,0,0,0,0,0,0,0,0,-1,1077,1058,0,0
-140,-34,0,0,0,0,0,0,0,0,0,-1,1084,1058,0,0
-133,-34,0,0,0,0,0,0,0,0,0,-1,1091,1058,0,0
-126,-34,0,0,0,0,0,0,0,0,0,-1,1098,1058,0,0
-119,-34,0,0,0,0,0,0,0,0,0,-1,1105,1058,0,0
-112,-34,0,0,0,0,0,0,0,0,0,-1,1112,1058,0,0
-105,-34,0,0,0,0,0,0,0,0,0,-1,1119,1058,0,0
-98,-34,0,0,0,0,0,0,0,0,0,-1,1126,1058,0,0
-91,-34,0,0,0,0,0,0,0,0,0,-1,1133,1058,0,0
-84,-34,0,0,0,0,0,0,0,0,0,-1,1140,1058,0,0
-77,-34,0,0,0,0,0,0,0,0,0,-1,1147,1058,0,0
-70,-34,0,0,0,0,0,0,0,0,0,-1,1154,1058,0,0
-63,-34,0,0,0,0,0,0,0,0,0,-1,1161,1058,0,0
-56,-34,0,0,0,0,0,0,0,0,0,-1,1168,1058,0,0
-49,-34,0,0,0,0,0,0,0,0,0,-1,1175,1058,0,0
-42,-34,0,0,0,0,0,0,0,0,0,-1,1182,1058,0,0
-35,-34,0,0,0,0,0,0,0,0,0,-1,1189,1058,0,0
-28,-34,0,0,0,0,0,0,0,0,0,-1,1196,1058,0,0
-21,-34,0,0,0,0,0,0,0,0,0,-1,1203,1058,0,0
-14,-34,0,0,0,0,0,0,0,0,0,-1,1210,1058,0,0
-7,-34,0,0,0,0,0,0,0,0,0,-1,1217,1058,0,0
0,-34,0,0,0,0,0,0,0,0,0,-1,1224,1058,0,0
7,-34,0,0,0,0,0,0,0,0,0,-1,1231,1058,0,0
14,-34,0,0,0,0,0,0,0,0,0,-1,1238,1058,0,0
21,-34,0,0,0,0,0,0,0,0,0,-1,1245,1058,0,0
28,-34,0,0,0,0,0,0,0,0,0,-1,1252,1058,0,0
35,-34,0,0,0,0,0,0,0,0,0,-1,1259,1058,0,0
42,-34,0,0,0,0,0,0,0,0,0,-1,1266,1058,0,0
49,-34,0,0,0,0,0,0,0,0,0,-1,1273,1058,0,0
56,-34,0,0,0,0,0,0,0,0,0,-1,1280,1058,0,0
63,-34,0,0,0,0,0,0,0,0,0,-1,1287,1058,0,0
70,-34,0,0,0,0,0,0,0,0,0,-1,1294,1058,0,0
77,-34,0,0,0,0,0,0,0,0,0,-1,1301,1058,0,0
84,-34,0,0,0,0,0,0,0,0,0,-1,1308,1058,0,0
91,-34,0,0,0,0,0,0,0,0,0,-1,1315,1058,0,0
98,-34,0,0,0,0,0,0,0,0,0,-1,1322,1058,0,0
105,-34,0,0,0,0,0,0,0,0,0,-1,1329,1058,0,0
112,-34,0,0,0,0,0,0,0,0,0,-1,1336,1058,0,0
119,-34,0,0,0,0,0,0,0,0,0,-1,1343,1058,0,0
126,-34,0,0,0,0,0,0,0,0,0,-1,1350,1058,0,0
133,-34,0,0,0,0,0,0,0,0,0,-1,1357,1058,0,0
140,-34,0,0,0,0,0,0,0,0,0,-1,1364,1058,0,0
147,-34,0,0,0,0,0,0,0,0,0,-1,1371,1058,0,0
154,-34,0,0,0,0,0,0,0,0,0,-1,1378,1058,0,0
161,-34,0,0,0,0,0,0,0,0,0,-1,1385,1058,0,0
168,-34,0,0,0,0,0,0,0,0,0,-1,1392,1058,0,0
175,-34,0,0,0,0,0,0,0,0,0,-1,1399,1058,0,0
182,-34,0,0,0,0,0,0,0,0,0,-1,1406,1058,0,0
189,-34,0,0,0,0,0,0,0,0,0,-1,1413,1058,0,0
196,-34,0,0,0,0,0,0,0,0,0,-1,1420,1058,0,0
203,-34,0,0,0,0,0,0,0,0,0,-1,1427,1058,0,0
210,-34,0,0,0,0,0,0,0,0,0,-1,1434,1058,0,0
217,-34,0,0,0,0,0,0,0,0,0,-1,1441,1058,0,0
224,-34,0,0,0,0,0,0,0,0,0,-1,1448,1058,0,0
231,-34,0,0,0,0,0,0,0,0,0,-1,1455,1058,0,0
238,-34,0,0,0,0,0,0,0,0,0,-1,1462,1058,0,0
245,-34,0,0,0,0,0,0,0,0,0,-1,1469,1058,0,0
252,-34,0,0,0,0,0,0,0,0,0,-1,1476,1058,0,0
259,-34,0,0,0,0,0,0,0,0,0,-1,1483,1058,0,0
266,-34,0,0,0,0,0,0,0,0,0,-1,1490,1058,0,0
273,-34,0,0,0,0,0,0,0,0,0,-1,1497,1058,0,0
280,-34,0,0,0,0,0,0,0,0,0,-1,1504,1058,0,0
287,-34,0,0,0,0,0,0,0,0,0,-1,1511,1058,0,0
294,-34,0,0,0,0,0,0,0,0,0,-1,1518,1058,0,0
301,-34,0,0,0,0,0,0,0,0,0,-1,1525,1058,0,0
308,-34,0,0,0,0,0,0,0,0,0,-1,1532,1058,0,0
315,-34,0,0,0,0,0,0,0,0,0,-1,1539,1058,0,0
322,-34,0,0,0,0,0,0,0,0,0,-1,1546,1058,0,0
329,-34,0,0,0,0,0,0,0,0,0,-1,1553,1058,0,0
336,-34,0,0,0,0,0,0,0,0,0,-1,1560,1058,0,0
343,-34,0,0,0,0,0,0,0,0,0,-1,1567,1058,0,0
350,-34,0,0,0,0,0,0,0,0,0,-1,1574,1058,0,0
357,-34,0,0,0,0,0,0,0,0,0,-1,1581,1058,0,0
364,-34,0,0,0,0,0,0,0,0,0,-1,1588,1058,0,0
371,-34,0,0,0,0,0,0,0,0,0,-1,1595,1058,0,0
378,-34,0,0,0,0,0,0,0,0,0,-1,1602,1058,0,0
385,-34,0,0,0,0,0,0,0,0,0,-1,1609,1058,0,0
392,-34,0,0,0,0,0,0,0,0,0,-1,1616,1058,0,0
399,-34,0,0,0,0,0,0,0,0,0,-1,1623,1058,0,0
406,-34,0,0,0,0,0,0,0,0,0,-1,1630,1058,0,0
413,-34,0,0,0,0,0,0,0,0,0,-1,1637,1058,0,0
420,-34,0,0,0,0,0,0,0,0,0,-1,1644,1058,0,0
427,-34,0,0,0,0,0,0,0,0,0,-1,1651,1058,0,0
434,-34,0,0,0,0,0,0,0,0,0,-1,1658,1058,0,0
441,-34,0,0,0,0,0,0,0,0,0,-1,1665,1058,0,0
448,-34,0,0,0,0,0,0,0,0,0,-1,1672,1058,0,0
455,-34,0,0,0,0,0,0,0,0,0,-1,1679,1058,0,0
462,-34,0,0,0,0,0,0,0,0,0,-1,1686,1058,0,0
469,-34,0,0,0,0,0,0,0,0,0,-1,1693,1058,0,0
476,-34,0,0,0,0,0,0,0,0,0,-1,1700,1058,0,0
483,-34,0,0,0,0,0,0,0,0,0,-1,1707,1058,0,0
490,-34,0,0,0,0,0,0,0,0,0,-1,1714,1058,0,0
497,-34,0,0,0,0,0,0,0,0,0,-1,1721,1058,0,0
504,-34,0,0,0,0,0,0,0,0,0,-1,1728,1058,0,0
511,-34,0,0,0,0,0,0,0,0,0,-1,1735,1058,0,0
518,-34,0,0,0,0,0,0,0,0,0,-1,1742,1058,0,0
525,-34,0,0,0,0,0,0,0,0,0,-1,1749,1058,0,0
532,-34,0,0,0,0,0,0,0,0,0,-1,1756,1058,0,0
539,-34,0,0,0,0,0,0,0,0,0,-1,1763,1058,0,0
546,-34,0,0,0,0,0,0,0,0,0,-1,1770,1058,0,0
553,-34,0,0,0,0,0,0,0,0,0,-1,1777,1058,0,0
560,-34,0,0,0,0,0,0,0,0,0,-1,1784,1058,0,0
567,-34,0,0,0,0,0,0,0,0,0,-1,1791,1058,0,0
574,-34,0,0,0,0,0,0,0,0,0,-1,1798,1058,0,0
581,-34,0,0,0,0,0,0,0,0,0,-1,1805,1058,0,0
588,-34,0,0,0,0,0,0,0,0,0,-1,1812,1058,0,0
595,-34,0,0,0,0,0,0,0,0,0,-1,1819,1058,0,0
602,-34,0,0,0,0,0,0,0,0,0,-1,1826,1058,0,0
609,-34,0,0,0,0,0,0,0,0,0,-1,1833,1058,0,0
616,-34,0,0,0,0,0,0,0,0,0,-1,1840,1058,0,0
623,-34,0,0,0,0,0,0,0,0,0,-1,1847,1058,0,0
630,-34,0,0,0,0,0,0,0,0,0,-1,1854,1058,0,0
637,-34,0,0,0,0,0,0,0,0,0,-1,1861,1058,0,0
644,-34,0,0,0,0,0,0,0,0,0,-1,1868,1058,0,0
651,-34,77.9402,2.59412,0.000514994,0.00159523,-0.00284188,0.00394786,-0.00183763,-0.879307,0.00341352,0.0429322,1875,1058,77.9402,-2.59414
658,-34,77.8961,2.58093,0.000449583,0.00107576,-0.00235025,0.00313368,-0.00160834,-0.851615,0.00278462,0.0444988,1882,1058,77.8961,-2.58087
665,-34,77.8665,2.45264,0.000352541,0.000769776,-0.0017028,0.00227669,-0.00115437,-0.846352,0.00201594,0.0402508,1889,1058,77.8665,-2.45268
672,-34,77.8776,2.49634,0.00025469,0.000718888,-0.00103623,0.00154869,-0.000575112,-0.895572,0.0012684,0.0367016,1896,1058,77.8775,-2.49636
679,-34,77.9724,2.59363,0.000109681,0.000791691,-0.00030336,0.000907098,-5.72565e-06,-1.20727,0.00060665,0.0361567,1903,1058,77.9724,-2.59357
686,-34,77.999,3.00098,0,0,0,0,0,0,0,-1,1910,1058,77.999,-3.00092
693,-34,77.9863,2.95679,0,0,0,0,0,0,0,-1,1917,1058,77.9863,-2.95685
700,-34,77.769,2.55664,-0.0015294,-4.00142e-06,0.00147864,0.000897055,-0.00243045,1.02351,0.00198797,0.0404238,1924,1058,77.769,-2.55666
707,-34,77.6931,2.59558,-0.00231271,0.000191182,0.00184772,0.00117115,-0.00329268,1.08315,0.00267246,0.0274315,1931,1058,77.6932,-2.59555
714,-34,77.7413,2.62415,-0.00332397,0.000771928,0.00213907,0.00168535,-0.00423739,1.16722,0.00352372,0.0250452,1938,1058,77.7414,-2.62414
721,-34,77.7461,2.74146,0,0,0,0,0,0,0,-1,1945,1058,77.7461,-2.74151
728,-34,77.3566,8.37561,0,0,0,0,0,0,0,-1,1952,1058,77.3566,-8.37563
735,-34,77.2438,8.15833,-0.00748372,0.00463331,0.00253267,0.00514138,-0.00799179,1.37282,0.00764174,0.0223432,1959,1058,77.2437,-8.15837
742,-34,77.1625,7.85352,-0.00881784,0.00607807,0.00245911,0.00647354,-0.0092133,1.41134,0.00910273,0.019995,1966,1058,77.1625,-7.85347
749,-34,77.1414,7.57166,-0.00930134,0.00813753,0.00105228,0.0082008,-0.00936461,1.51075,0.0101488,0.0174215,1973,1058,77.1413,-7.5717
756,-34,77.1123,7.25891,-0.00946428,0.0105221,-0.00112093,0.0105847,-0.00952695,-1.51494,0.0116168,0.0126913,1980,1058,77.1122,-7.25893
763,-34,77.0051,6.95447,-0.00891758,0.0142435,-0.00433721,0.015029,-0.00970314,-1.39162,0.0143891,0.0149922,1987,1058,77.0051,-6.95441
770,-34,76.8386,6.66736,-0.00700989,0.0186247,-0.0093125,0.0216506,-0.0100357,-1.25663,0.0186993,0.0206259,1994,1058,76.8386,-6.66734
777,-34,76.6396,6.49573,-0.00269074,0.0238754,-0.0170457,0.0322025,-0.0110178,-1.11638,0.0259331,0.023395,2001,1058,76.6396,-6.49575
784,-34,76.4602,6.26306,0.00331205,0.0291629,-0.0266093,0.04582,-0.013345,-1.01149,0.0358331,0.0427464,2008,1058,76.4602,-6.26305
791,-34,76.272,6.02258,0,0,0,0,0,0,0,-1,2015,1058,76.272,-6.02259
798,-34,77.1545,4.00732,0.0227914,0.0403336,-0.0540737,0.0863429,-0.023218,-0.865801,0.0666629,0.0464827,2022,1058,77.1546,-4.00734
805,-34,77.5022,2.95068,0.0378722,0.0468046,-0.0728656,0.115341,-0.030664,-0.816007,0.0888959,0.0448533,2029,1058,77.5023,-2.95074
812,-34,77.7256,1.99658,0.0568184,0.054773,-0.0957992,0.1516,-0.0400089,-0.78006,0.116712,0.047558,2036,1058,77.7256,-1.9966
-700,-41,-63.8888,-1.82568,0.1315,-0.0170091,0.0865662,0.171295,-0.0568047,0.430902,0.137112,0.0454958,524,1065,-63.8888,1.82564
-693,-41,-63.3011,-0.275879,0.11576,-0.00779369,0.0747818,0.150981,-0.0430153,0.440173,0.117644,0.0440075,531,1065,-63.3011,0.275925
-686,-41,-62.6367,1.47009,0.0977508,0.000212912,0.0636781,0.12919,-0.0312261,0.458609,0.0982042,0.0429805,538,1065,-62.6367,-1.47008
-679,-41,-61.8257,3.21301,0.0801367,0.00640964,0.0532298,0.108021,-0.0214751,0.482549,0.0801376,0.0443034,545,1065,-61.8257,-3.21301
-672,-41,-61.2123,4.85706,0,0,0,0,0,0,0,-1,552,1065,-61.2123,-4.85702
-665,-41,-60.5276,2.36633,0,0,0,0,0,0,0,-1,559,1065,-60.5276,-2.36637
-658,-41,-60.5951,3.49695,0.0369645,0.0154658,0.0269613,0.0552403,-0.00280996,0.595707,0.0377984,0.041834,566,1065,-60.5951,-3.49692
-651,-41,-60.7686,4.71973,0.0263251,0.0157614,0.0200249,0.041753,0.000333538,0.656453,0.0277248,0.0342125,573,1065,-60.7685,-4.71973
-644,-41,-61.0311,5.16028,0.0170863,0.0154828,0.0134787,0.0297871,0.00278206,0.75569,0.0189987,0.0167813,580,1065,-61.0311,-5.16027
-637,-41,-61.1339,5.50464,0.00817247,0.0145398,0.00759886,0.019595,0.00311732,0.983774,0.0121582,0.0184668,587,1065,-61.1338,-5.50459
-630,-41,-61.152,5.92688,0.00172974,0.0126483,0.00285855,0.0133514,0.00102662,1.32962,0.00857923,0.0169689,594,1065,-61.152,-5.92686
-623,-41,-61.1494,6.33472,-0.00172912,0.00973269,-0.000162036,0.00973498,-0.00173141,-1.55666,0.00713747,0.0138451,601,1065,-61.1493,-6.33471
-616,-41,-61.1779,6.76917,-0.00162836,0.00648417,-0.00102903,0.00661266,-0.00175685,-1.44657,0.00509602,0.0182119,608,1065,-61.1779,-6.76913
-609,-41,-61.1682,7.17151,-0.000987377,0.00355608,-0.0019844,0.00430074,-0.00173204,-1.2118,0.00358673,0.0250657,615,1065,-61.1681,-7.17153
-602,-41,-61.1677,7.43823,-0.000263644,0.00163475,-0.00278251,0.00362551,-0.0022544,-0.949773,0.00342539,0.0151468,622,1065,-61.1677,-7.43818
-595,-41,-61.2869,7.68384,-0.000119308,0.000507862,-0.00292318,0.00313423,-0.00274568,-0.838831,0.00339724,0.0262865,629,1065,-61.2869,-7.68379
-588,-41,-61.7267,7.75928,0,0,0,0,0,0,0,-1,636,1065,-61.7268,-7.7593
-581,-41,-61.4798,0.374878,0.000553622,-0.000584707,-0.00208434,0.00214511,-0.00217619,-0.652114,0.00249493,0.0383755,643,1065,-61.4798,-0.374908
-574,-41,-61.5983,0.363892,0.000570421,-0.000577518,-0.00161591,0.00171127,-0.00171837,-0.614749,0.00198011,0.0393129,650,1065,-61.5983,-0.363923
-567,-41,-61.6237,0.353271,0.000420382,-0.000210216,-0.000898192,0.00105701,-0.000846843,-0.616599,0.00110142,0.0437752,657,1065,-61.6237,-0.353272
-560,-41,-61.5978,0.42749,0.000167079,0.000408518,0.000134666,0.000468652,0.000106945,1.15082,0.00028359,0.0429496,664,1065,-61.5978,-0.427486
-553,-41,-61.5402,0.478271,-8.50488e-05,0.000993693,0.00155169,0.00209708,-0.00118844,0.952667,0.00192092,0.0429932,671,1065,-61.5402,-0.478284
-546,-41,-61.4862,0.328491,-7.41346e-06,0.00108843,0.00342749,0.00401151,-0.0029305,0.864658,0.00402414,0.0437756,678,1065,-61.4862,-0.328524
-539,-41,-61.6122,0.492065,0.000489659,0.000221288,0.00570395,0.006061,-0.00535006,0.773638,0.00659244,0.0414793,685,1065,-61.6122,-0.492075
-532,-41,-61.5678,0.431641,0.00109078,-0.000324029,0.00808559,0.00849985,-0.0077331,0.741764,0.00937558,0.0404942,692,1065,-61.5678,-0.431655
-525,-41,0,0,0,0,0,0,0,0,0,-1,699,1065,0,0
-518,-41,0,0,0,0,0,0,0,0,0,-1,706,1065,0,0
-511,-41,0,0,0,0,0,0,0,0,0,-1,713,1065,0,0
-504,-41,0,0,0,0,0,0,0,0,0,-1,720,1065,0,0
-497,-41,0,0,0,0,0,0,0,0,0,-1,727,1065,0,0
-490,-41,0,0,0,0,0,0,0,0,0,-1,734,1065,0,0
-483,-41,0,0,0,0,0,0,0,0,0,-1,741,1065,0,0
-476,-41,0,0,0,0,0,0,0,0,0,-1,748,1065,0,0
-469,-41,0,0,0,0,0,0,0,0,0,-1,755,1065,0,0
-462,-41,0,0,0,0,0,0,0,0,0,-1,762,1065,0,0
-455,-41,0,0,0,0,0,0,0,0,0,-1,769,1065,0,0
-448,-41,0,0,0,0,0,0,0,0,0,-1,776,1065,0,0
-441,-41,0,0,0,0,0,0,0,0,0,-1,783,1065,0,0
-434,-41,0,0,0,0,0,0,0,0,0,-1,790,1065,0,0
-427,-41,0,0,0,0,0,0,0,0,0,-1,797,1065,0,0
-420,-41,0,0,0,0,0,0,0,0,0,-1,804,1065,0,0
-413,-41,0,0,0,0,0,0,0,0,0,-1,811,1065,0,0
-406,-41,0,0,0,0,0,0,0,0,0,-1,818,1065,0,0
-399,-41,0,0,0,0,0,0,0,0,0,-1,825,1065,0,0
-392,-41,0,0,0,0,0,0,0,0,0,-1,832,1065,0,0
-385,-41,0,0,0,0,0,0,0,0,0,-1,839,1065,0,0
-378,-41,0,0,0,0,0,0,0,0,0,-1,846,1065,0,0
-371,-41,0,0,0,0,0,0,0,0,0,-1,853,1065,0,0
-364,-41,0,0,0,0,0,0,0,0,0,-1,860,1065,0,0
-357,-41,0,0,0,0,0,0,0,0,0,-1,867,1065,0,0
-350,-41,0,0,0,0,0,0,0,0,0,-1,874,1065,0,0
-343,-41,0,0,0,0,0,0,0,0,0,-1,881,1065,0,0
-336,-41,0,0,0,0,0,0,0,0,0,-1,888,1065,0,0
-329,-41,0,0,0,0,0,0,0,0,0,-1,895,1065,0,0
-322,-41,0,0,0,0,0,0,0,0,0,-1,902,1065,0,0
-315,-41,0,0,0,0,0,0,0,0,0,-1,909,1065,0,0
-308,-41,0,0,0,0,0,0,0,0,0,-1,916,1065,0,0
-301,-41,0,0,0,0,0,0,0,0,0,-1,923,1065,0,0
-294,-41,0,0,0,0,0,0,0,0,0,-1,930,1065,0,0
-287,-41,0,0,0,0,0,0,0,0,0,-1,937,1065,0,0
-280,-41,0,0,0,0,0,0,0,0,0,-1,944,1065,0,0
-273,-41,0,0,0,0,0,0,0,0,0,-1,951,1065,0,0
-266,-41,0,0,0,0,0,0,0,0,0,-1,958,1065,0,0
-259,-41,0,0,0,0,0,0,0,0,0,-1,965,1065,0,0
-252,-41,0,0,0,0,0,0,0,0,0,-1,972,1065,0,0
-245,-41,0,0,0,0,0,0,0,0,0,-1,979,1065,0,0
-238,-41,0,0,0,0,0,0,0,0,0,-1,986,1065,0,0
-231,-41,0,0,0,0,0,0,0,0,0,-1,993,1065,0,0
-224,-41,0,0,0,0,0,0,0,0,0,-1,1000,1065,0,0
-217,-41,0,0,0,0,0,0,0,0,0,-1,1007,1065,0,0
-210,-41,0,0,0,0,0,0,0,0,0,-1,1014,1065,0,0
-203,-41,0,0,0,0,0,0,0,0,0,-1,1021,1065,0,0
-196,-41,0,0,0,0,0,0,0,0,0,-1,1028,1065,0,0
-189,-41,0,0,0,0,0,0,0,0,0,-1,1035,1065,0,0
-182,-41,0,0,0,0,0,0,0,0,0,-1,1042,1065,0,0
-175,-41,0,0,0,0,0,0,0,0,0,-1,1049,1065,0,0
-168,-41,0,0,0,0,0,0,0,0,0,-1,1056,1065,0,0
-161,-41,0,0,0,0,0,0,0,0,0,-1,1063,1065,0,0
-154,-41,0,0,0,0,0,0,0,0,0,-1,1070,1065,0,0
-147,-41,0,0,0,0,0,0,0,0,0,-1,1077,1065,0,0
-140,-41,0,0,0,0,0,0,0,0,0,-1,1084,1065,0,0
-133,-41,0,0,0,0,0,0,0,0,0,-1,1091,1065,0,0
-126,-41,0,0,0,0,0,0,0,0,0,-1,1098,1065,0,0
-119,-41,0,0,0,0,0,0,0,0,0,-1,1105,1065,0,0
-112,-41,0,0,0,0,0,0,0,0,0,-1,1112,1065,0,0
-105,-41,0,0,0,0,0,0,0,0,0,-1,1119,1065,0,0
-98,-41,0,0,0,0,0,0,0,0,0,-1,1126,1065,0,0
-91,-41,0,0,0,0,0,0,0,0,0,-1,1133,1065,0,0
-84,-41,0,0,0,0,0,0,0,0,0,-1,1140,1065,0,0
-77,-41,0,0,0,0,0,0,0,0,0,-1,1147,1065,0,0
-70,-41,0,0,0,0,0,0,0,0,0,-1,1154,1065,0,0
-63,-41,0,0,0,0,0,0,0,0,0,-1,1161,1065,0,0
-56,-41,0,0,0,0,0,0,0,0,0,-1,1168,1065,0,0
-49,-41,0,0,0,0,0,0,0,0,0,-1,1175,1065,0,0
-42,-41,0,0,0,0,0,0,0,0,0,-1,1182,1065,0,0
-35,-41,0,0,0,0,0,0,0,0,0,-1,1189,1065,0,0
-28,-41,0,0,0,0,0,0,0,0,0,-1,1196,1065,0,0
-21,-41,0,0,0,0,0,0,0,0,0,-1,1203,1065,0,0
-14,-41,0,0,0,0,0,0,0,0,0,-1,1210,1065,0,0
-7,-41,0,0,0,0,0,0,0,0,0,-1,1217,1065,0,0
0,-41,0,0,0,0,0,0,0,0,0,-1,1224,1065,0,0
7,-41,0,0,0,0,0,0,0,0,0,-1,1231,1065,0,0
14,-41,0,0,0,0,0,0,0,0,0,-1,1238,1065,0,0
21,-41,0,0,0,0,0,0,0,0,0,-1,1245,1065,0,0
28,-41,0,0,0,0,0,0,0,0,0,-1,1252,1065,0,0
35,-41,0,0,0,0,0,0,0,0,0,-1,1259,1065,0,0
42,-41,0,0,0,0,0,0,0,0,0,-1,1266,1065,0,0
49,-41,0,0,0,0,0,0,0,0,0,-1,1273,1065,0,0
56,-41,0,0,0,0,0,0,0,0,0,-1,1280,1065,0,0
63,-41,0,0,0,0,0,0,0,0,0,-1,1287,1065,0,0
70,-41,0,0,0,0,0,0,0,0,0,-1,1294,1065,0,0
77,-41,0,0,0,0,0,0,0,0,0,-1,1301,1065,0,0
84,-41,0,0,0,0,0,0,0,0,0,-1,1308,1065,0,0
91,-41,0,0,0,0,0,0,0,0,0,-1,1315,1065,0,0
98,-41,0,0,0,0,0,0,0,0,0,-1,1322,1065,0,0
105,-41,0,0,0,0,0,0,0,0,0,-1,1329,1065,0,0
112,-41,0,0,0,0,0,0,0,0,0,-1,1336,1065,0,0
119,-41,0,0,0,0,0,0,0,0,0,-1,1343,1065,0,0
126,-41,0,0,0,0,0,0,0,0,0,-1,1350,1065,0,0
133,-41,0,0,0,0,0,0,0,0,0,-1,1357,1065,0,0
140,-41,0,0,0,0,0,0,0,0,0,-1,1364,1065,0,0
147,-41,0,0,0,0,0,0,0,0,0,-1,1371,1065,0,0
154,-41,0,0,0,0,0,0,0,0,0,-1,1378,1065,0,0
161,-41,0,0,0,0,0,0,0,0,0,-1,1385,1065,0,0
168,-41,0,0,0,0,0,0,0,0,0,-1,1392,1065,0,0
175,-41,0,0,0,0,0,0,0,0,0,-1,1399,1065,0,0
182,-41,0,0,0,0,0,0,0,0,0,-1,1406,1065,0,0
189,-41,0,0,0,0,0,0,0,0,0,-1,1413,1065,0,0
196,-41,0,0,0,0,0,0,0,0,0,-1,1420,1065,0,0
203,-41,0,0,0,0,0,0,0,0,0,-1,1427,1065,0,0
210,-41,0,0,0,0,0,0,0,0,0,-1,1434,1065,0,0
217,-41,0,0,0,0,0,0,0,0,0,-1,1441,1065,0,0
224,-41,0,0,0,0,0,0,0,0,0,-1,1448,1065,0,0
231,-41,0,0,0,0,0,0,0,0,0,-1,1455,1065,0,0
238,-41,0,0,0,0,0,0,0,0,0,-1,1462,1065,0,0
245,-41,0,0,0,0,0,0,0,0,0,-1,1469,1065,0,0
252,-41,0,0,0,0,0,0,0,0,0,-1,1476,1065,0,0
259,-41,0,0,0,0,0,0,0,0,0,-1,1483,1065,0,0
266,-41,0,0,0,0,0,0,0,0,0,-1,1490,1065,0,0
273,-41,0,0,0,0,0,0,0,0,0,-1,1497,1065,0,0
280,-41,0,0,0,0,0,0,0,0,0,-1,1504,1065,0,0
287,-41,0,0,0,0,0,0,0,0,0,-1,1511,1065,0,0
294,-41,0,0,0,0,0,0,0,0,0,-1,1518,1065,0,0
301,-41,0,0,0,0,0,0,0,0,0,-1,1525,1065,0,0
308,-41,0,0,0,0,0,0,0,0,0,-1,1532,1065,0,0
315,-41,0,0,0,0,0,0,0,0,0,-1,1539,1065,0,0
322,-41,0,0,0,0,0,0,0,0,0,-1,1546,1065,0,0
329,-41,0,0,0,0,0,0,0,0,0,-1,1553,1065,0,0
336,-41,0,0,0,0,0,0,0,0,0,-1,1560,1065,0,0
343,-41,0,0,0,0,0,0,0,0,0,-1,1567,1065,0,0
350,-41,0,0,0,0,0,0,0,0,0,-1,1574,1065,0,0
357,-41,0,0,0,0,0,0,0,0,0,-1,1581,1065,0,0
364,-41,0,0,0,0,0,0,0,0,0,-1,1588,1065,0,0
371,-41,0,0,0,0,0,0,0,0,0,-1,1595,1065,0,0
378,-41,0,0,0,0,0,0,0,0,0,-1,1602,1065,0,0
385,-41,0,0,0,0,0,0,0,0,0,-1,1609,1065,0,0
392,-41,0,0,0,0,0,0,0,0,0,-1,1616,1065,0,0
399,-41,0,0,0,0,0,0,0,0,0,-1,1623,1065,0,0
406,-41,0,0,0,0,0,0,0,0,0,-1,1630,1065,0,0
413,-41,0,0,0,0,0,0,0,0,0,-1,1637,1065,0,0
420,-41,0,0,0,0,0,0,0,0,0,-1,1644,1065,0,0
427,-41,0,0,0,0,0,0,0,0,0,-1,1651,1065,0,0
434,-41,0,0,0,0,0,0,0,0,0,-1,1658,1065,0,0
441,-41,0,0,0,0,0,0,0,0,0,-1,1665,1065,0,0
448,-41,0,0,0,0,0,0,0,0,0,-1,1672,1065,0,0
455,-41,0,0,0,0,0,0,0,0,0,-1,1679,1065,0,0
462,-41,0,0,0,0,0,0,0,0,0,-1,1686,1065,0,0
469,-41,0,0,0,0,0,0,0,0,0,-1,1693,1065,0,0
476,-41,0,0,0,0,0,0,0,0,0,-1,1700,1065,0,0
483,-41,0,0,0,0,0,0,0,0,0,-1,1707,1065,0,0
490,-41,0,0,0,0,0,0,0,0,0,-1,1714,1065,0,0
497,-41,0,0,0,0,0,0,0,0,0,-1,1721,1065,0,0
504,-41,0,0,0,0,0,0,0,0,0,-1,1728,1065,0,0
511,-41,0,0,0,0,0,0,0,0,0,-1,1735,1065,0,0
518,-41,0,0,0,0,0,0,0,0,0,-1,1742,1065,0,0
525,-41,0,0,0,0,0,0,0,0,0,-1,1749,1065,0,0
532,-41,0,0,0,0,0,0,0,0,0,-1,1756,1065,0,0
539,-41,0,0,0,0,0,0,0,0,0,-1,1763,1065,0,0
546,-41,0,0,0,0,0,0,0,0,0,-1,1770,1065,0,0
553,-41,0,0,0,0,0,0,0,0,0,-1,1777,1065,0,0
560,-41,0,0,0,0,0,0,0,0,0,-1,1784,1065,0,0
567,-41,0,0,0,0,0,0,0,0,0,-1,1791,1065,0,0
574,-41,0,0,0,0,0,0,0,0,0,-1,1798,1065,0,0
581,-41,0,0,0,0,0,0,0,0,0,-1,1805,1065,0,0
588,-41,0,0,0,0,0,0,0,0,0,-1,1812,1065,0,0
595,-41,0,0,0,0,0,0,0,0,0,-1,1819,1065,0,0
602,-41,0,0,0,0,0,0,0,0,0,-1,1826,1065,0,0
609,-41,0,0,0,0,0,0,0,0,0,-1,1833,1065,0,0
616,-41,0,0,0,0,0,0,0,0,0,-1,1840,1065,0,0
623,-41,0,0,0,0,0,0,0,0,0,-1,1847,1065,0,0
630,-41,0,0,0,0,0,0,0,0,0,-1,1854,1065,0,0
637,-41,0,0,0,0,0,0,0,0,0,-1,1861,1065,0,0
644,-41,0,0,0,0,0,0,0,0,0,-1,1868,1065,0,0
651,-41,77.8103,2.54114,0.00131547,0.0015178,-0.00159599,0.00301582,-0.000182558,-0.817049,0.00207408,0.0379932,1875,1065,77.8103,-2.54118
658,-41,77.9027,2.41907,0.0010767,0.000724586,-0.00133826,0.00225043,-0.000449146,-0.719995,0.00167025,0.0405636,1882,1065,77.9028,-2.41906
665,-41,77.8877,2.23865,0.000822622,0.000285962,-0.000920913,0.0015135,-0.000404917,-0.643636,0.00116762,0.0397865,1889,1065,77.8877,-2.23869
672,-41,77.828,2.42712,0.000580931,0.000160375,-0.000477241,0.000892166,-0.00015086,-0.577888,0.000650918,0.0387428,1896,1065,77.8281,-2.42713
679,-41,77.8868,2.54028,0.000299277,0.000197477,3.5764e-05,0.000310585,0.000186168,0.306246,0.000180494,0.037945,1903,1065,77.8868,-2.54032
686,-41,77.937,2.40881,-0.000368011,-2.30001e-05,0.000504058,0.000337253,-0.000728265,0.950268,0.000628833,0.0420476,1910,1065,77.937,-2.40884
693,-41,77.9386,2.29724,-0.000984543,-0.000276376,0.000995093,0.000425753,-0.00168667,0.956327,0.00129,0.0459639,1917,1065,77.9386,-2.29729
700,-41,77.7808,2.42419,-0.00139954,-0.000379677,0.00147647,0.000672438,-0.00245165,0.951671,0.0018987,0.0421614,1924,1065,77.7808,-2.42414
707,-41,77.7211,2.54309,-0.00214349,-0.000170086,0.00184302,0.000933736,-0.00324732,1.03117,0.00253413,0.0315602,1931,1065,77.7211,-2.54305
714,-41,77.757,2.55994,-0.00309964,0.00039964,0.00215972,0.0014295,-0.0041295,1.12584,0.00333329,0.0296123,1938,1065,77.757,-2.55997
721,-41,77.802,2.64307,0,0,0,0,0,0,0,-1,1945,1065,77.802,-2.64311
728,-41,77.0182,8.40161,0,0,0,0,0,0,0,-1,1952,1065,77.0182,-8.40155
735,-41,76.8832,8.10559,-0.00691166,0.00405905,0.00268197,0.0046796,-0.00753222,1.34342,0.00711433,0.0241271,1959,1065,76.8832,-8.10563
742,-41,76.7922,7.80481,-0.00810398,0.00546048,0.00263923,0.0059559,-0.0085994,1.38524,0.00844958,0.0204983,1966,1065,76.7922,-7.80481
749,-41,76.7561,7.55579,-0.00853909,0.00741067,0.00142062,0.00753621,-0.00866463,1.48265,0.00936112,0.0178224,1973,1065,76.7561,-7.55584
756,-41,76.7593,7.2616,-0.00864745,0.00958823,-0.000496141,0.00960172,-0.00866094,-1.54362,0.0105486,0.0159085,1980,1065,76.7593,-7.26165
763,-41,76.6123,6.88916,-0.00801033,0.0131482,-0.00361505,0.0137488,-0.00861093,-1.40616,0.0130225,0.0138233,1987,1065,76.6123,-6.8891
770,-41,76.45,6.56946,-0.00615305,0.0173149,-0.00835152,0.0199835,-0.00882164,-1.26152,0.0170418,0.0148439,1994,1065,76.45,-6.56952
777,-41,76.2561,6.24792,-0.00201325,0.0223445,-0.0157256,0.0300558,-0.00972458,-1.11488,0.0239462,0.0180135,2001,1065,76.2562,-6.24788
784,-41,76.0876,5.83118,0.00377271,0.027492,-0.0248375,0.043156,-0.0118913,-1.00814,0.0334467,0.0296987,2008,1065,76.0876,-5.83112
791,-41,76.3132,4.84924,0.0117081,0.0328933,-0.0363296,0.060143,-0.0155416,-0.92725,0.0461565,0.0422553,2015,1065,76.3133,-4.84921
798,-41,76.7524,3.65491,0.0227424,0.0387952,-0.0509892,0.0823858,-0.0208482,-0.863464,0.0630332,0.0460937,2022,1065,76.7525,-3.65485
805,-41,77.0054,2.65576,0,0,0,0,0,0,0,-1,2029,1065,77.0053,-2.65575
812,-41,77.4492,1.67102,0,0,0,0,0,0,0,-1,2036,1065,77.4493,-1.67106
-700,-48,-63.7179,-1.48962,0.129188,-0.0186421,0.0681442,0.155807,-0.045261,0.372399,0.121795,0.0419875,524,1072,-63.7179,1.48957
-693,-48,-63.2031,0.146729,0.113106,-0.00960133,0.0582853,0.136377,-0.032873,0.379879,0.103629,0.0399607,531,1072,-63.2031,-0.146708
-686,-48,-62.5108,1.95239,0.094955,-0.00174887,0.0491032,0.115516,-0.0223102,0.396554,0.0854243,0.0433555,538,1072,-62.5108,-1.95244
-679,-48,-61.7911,3.64758,0.0774374,0.00438852,0.0406863,0.0955885,-0.0137626,0.419624,0.0687738,0.0447816,545,1072,-61.7911,-3.64762
-672,-48,-61.1873,5.25342,0,0,0,0,0,0,0,-1,552,1072,-61.1873,-5.25343
-665,-48,-60.9261,0.21875,0,0,0,0,0,0,0,-1,559,1072,-60.9261,-0.218801
-658,-48,-60.1582,3.21887,0,0,0,0,0,0,0,-1,566,1072,-60.1582,-3.21881
-651,-48,-60.3362,4.22095,0.0249178,0.0140303,0.0148049,0.035248,0.0037001,0.60922,0.0223676,0.0446555,573,1072,-60.3362,-4.22092
-644,-48,-60.5005,5.12512,0.0161854,0.0137982,0.0095792,0.0246451,0.00533854,0.723417,0.0149713,0.0253295,580,1072,-60.5006,-5.12513
-637,-48,-60.5904,5.38721,0.00779837,0.012943,0.00507016,0.0160561,0.00468533,1.02015,0.00953407,0.0273855,587,1072,-60.5904,-5.38722
-630,-48,-60.6479,5.83118,0.00175659,0.0111833,0.00143435,0.0113968,0.00154318,1.42309,0.00713926,0.032405,594,1072,-60.6479,-5.83121
-623,-48,-60.7429,6.26978,-0.00154806,0.00850039,-0.000838047,0.0085698,-0.00161747,-1.48816,0.00632171,0.014985,601,1072,-60.7429,-6.26975
-616,-48,-60.7513,6.69348,-0.00141365,0.00551395,-0.00136627,0.00577367,-0.00167337,-1.38294,0.00451156,0.0123518,608,1072,-60.7513,-6.69354
-609,-48,-60.7048,7.11646,-0.000709794,0.00293026,-0.00216919,0.00394182,-0.00172136,-1.13444,0.00335236,0.0140125,615,1072,-60.7049,-7.11645
-602,-48,-60.7117,7.52039,4.03763e-05,0.00129003,-0.00294895,0.00367962,-0.00234921,-0.889794,0.00350888,0.0143832,622,1072,-60.7117,-7.52039
-595,-48,-60.7227,7.88452,0.000209646,0.000323338,-0.00305871,0.00332573,-0.00279275,-0.79469,0.00353697,0.0362304,629,1072,-60.7227,-7.88458
-588,-48,-60.9528,8.22742,0,0,0,0,0,0,0,-1,636,1072,-60.9528,-8.22739
-581,-48,-61.4585,0.208374,0,0,0,0,0,0,0,-1,643,1072,-61.4585,-0.208381
-574,-48,-61.4974,0.556152,0.000930519,-0.000446342,-0.00184808,0.00221423,-0.00173005,-0.607104,0.00228294,0.0409917,650,1072,-61.4974,-0.556187
-567,-48,-61.4296,0.329712,0.000834103,-4.32018e-05,-0.00120109,0.00167413,-0.000883234,-0.610317,0.00149985,0.0410243,657,1072,-61.4296,-0.329719
-560,-48,-61.5085,0.459839,0.000611442,0.000611983,-0.000259998,0.000871711,0.000351715,-0.785918,0.000506399,0.0430591,664,1072,-61.5085,-0.459843
-553,-48,-61.5885,0.415039,0.000389665,0.00123121,0.00107447,0.00196436,-0.000343482,0.972025,0.00143781,0.0414192,671,1072,-61.5885,-0.415078
-546,-48,-61.6066,0.231445,0.000504069,0.00136674,0.00288517,0.00385264,-0.00198183,0.859599,0.00342577,0.039586,678,1072,-61.6066,-0.231465
-539,-48,-61.6605,0.476318,0.00114281,0.000436458,0.00508583,0.00588772,-0.00430845,0.750732,0.00591025,0.0412602,685,1072,-61.6605,-0.476372
-532,-48,-61.5236,0.677368,0.0018419,-0.000159957,0.00736688,0.00827554,-0.0065936,0.717877,0.00860299,0.0411515,692,1072,-61.5235,-0.677324
-525,-48,0,0,0,0,0,0,0,0,0,-1,699,1072,0,0
-518,-48,0,0,0,0,0,0,0,0,0,-1,706,1072,0,0
-511,-48,0,0,0,0,0,0,0,0,0,-1,713,1072,0,0
-504,-48,0,0,0,0,0,0,0,0,0,-1,720,1072,0,0
-497,-48,0,0,0,0,0,0,0,0,0,-1,727,1072,0,0
-490,-48,0,0,0,0,0,0,0,0,0,-1,734,1072,0,0
-483,-48,0,0,0,0,0,0,0,0,0,-1,741,1072,0,0
-476,-48,0,0,0,0,0,0,0,0,0,-1,748,1072,0,0
-469,-48,0,0,0,0,0,0,0,0,0,-1,755,1072,0,0
-462,-48,0,0,0,0,0,0,0,0,0,-1,762,1072,0,0
-455,-48,0,0,0,0,0,0,0,0,0,-1,769,1072,0,0
-448,-48,0,0,0,0,0,0,0,0,0,-1,776,1072,0,0
-441,-48,0,0,0,0,0,0,0,0,0,-1,783,1072,0,0
-434,-48,0,0,0,0,0,0,0,0,0,-1,790,1072,0,0
-427,-48,0,0,0,0,0,0,0,0,0,-1,797,1072,0,0
-420,-48,0,0,0,0,0,0,0,0,0,-1,804,1072,0,0
-413,-48,0,0,0,0,0,0,0,0,0,-1,811,1072,0,0
-406,-48,0,0,0,0,0,0,0,0,0,-1,818,1072,0,0
-399,-48,0,0,0,0,0,0,0,0,0,-1,825,1072,0,0
-392,-48,0,0,0,0,0,0,0,0,0,-1,832,1072,0,0
-385,-48,0,0,0,0,0,0,0,0,0,-1,839,1072,0,0
-378,-48,0,0,0,0,0,0,0,0,0,-1,846,1072,0,0
-371,-48,0,0,0,0,0,0,0,0,0,-1,853,1072,0,0
-364,-48,0,0,0,0,0,0,0,0,0,-1,860,1072,0,0
-357,-48,0,0,0,0,0,0,0,0,0,-1,867,1072,0,0
-350,-48,0,0,0,0,0,0,0,0,0,-1,874,1072,0,0
-343,-48,0,0,0,0,0,0,0,0,0,-1,881,1072,0,0
-336,-48,0,0,0,0,0,0,0,0,0,-1,888,1072,0,0
-329,-48,0,0,0,0,0,0,0,0,0,-1,895,1072,0,0
-322,-48,0,0,0,0,0,0,0,0,0,-1,902,1072,0,0
-315,-48,0,0,0,0,0,0,0,0,0,-1,909,1072,0,0
-308,-48,0,0,0,0,0,0,0,0,0,-1,916,1072,0,0
-301,-48,0,0,0,0,0,0,0,0,0,-1,923,1072,0,0
-294,-48,0,0,0,0,0,0,0,0,0,-1,930,1072,0,0
-287,-48,0,0,0,0,0,0,0,0,0,-1,937,1072,0,0
-280,-48,0,0,0,0,0,0,0,0,0,-1,944,1072,0,0
-273,-48,0,0,0,0,0,0,0,0,0,-1,951,1072,0,0
-266,-48,0,0,0,0,0,0,0,0,0,-1,958,1072,0,0
-259,-48,0,0,0,0,0,0,0,0,0,-1,965,1072,0,0
-252,-48,0,0,0,0,0,0,0,0,0,-1,972,1072,0,0
-245,-48,0,0,0,0,0,0,0,0,0,-1,979,1072,0,0
-238,-48,0,0,0,0,0,0,0,0,0,-1,986,1072,0,0
-231,-48,0,0,0,0,0,0,0,0,0,-1,993,1072,0,0
-224,-48,0,0,0,0,0,0,0,0,0,-1,1000,1072,0,0
-217,-48,0,0,0,0,0,0,0,0,0,-1,1007,1072,0,0
-210,-48,0,0,0,0,0,0,0,0,0,-1,1014,1072,0,0
-203,-48,0,0,0,0,0,0,0,0,0,-1,1021,1072,0,0
-196,-48,0,0,0,0,0,0,0,0,0,-1,1028,1072,0,0
-189,-48,0,0,0,0,0,0,0,0,0,-1,1035,1072,0,0
-182,-48,0,0,0,0,0,0,0,0,0,-1,1042,1072,0,0
-175,-48,0,0,0,0,0,0,0,0,0,-1,1049,1072,0,0
-168,-48,0,0,0,0,0,0,0,0,0,-1,1056,1072,0,0
-161,-48,0,0,0,0,0,0,0,0,0,-1,1063,1072,0,0
-154,-48,0,0,0,0,0,0,0,0,0,-1,1070,1072,0,0
-147,-48,0,0,0,0,0,0,0,0,0,-1,1077,1072,0,0
-140,-48,0,0,0,0,0,0,0,0,0,-1,1084,1072,0,0
-133,-48,0,0,0,0,0,0,0,0,0,-1,1091,1072,0,0
-126,-48,0,0,0,0,0,0,0,0,0,-1,1098,1072,0,0
-119,-48,0,0,0,0,0,0,0,0,0,-1,1105,1072,0,0
-112,-48,0,0,0,0,0,0,0,0,0,-1,1112,1072,0,0
-105,-48,0,0,0,0,0,0,0,0,0,-1,1119,1072,0,0
-98,-48,0,0,0,0,0,0,0,0,0,-1,1126,1072,0,0
-91,-48,0,0,0,0,0,0,0,0,0,-1,1133,1072,0,0
-84,-48,0,0,0,0,0,0,0,0,0,-1,1140,1072,0,0
-77,-48,0,0,0,0,0,0,0,0,0,-1,1147,1072,0,0
-70,-48,0,0,0,0,0,0,0,0,0,-1,1154,1072,0,0
-63,-48,0,0,0,0,0,0,0,0,0,-1,1161,1072,0,0
-56,-48,0,0,0,0,0,0,0,0,0,-1,1168,1072,0,0
-49,-48,0,0,0,0,0,0,0,0,0,-1,1175,1072,0,0
-42,-48,0,0,0,0,0,0,0,0,0,-1,1182,1072,0,0
-35,-48,0,0,0,0,0,0,0,0,0,-1,1189,1072,0,0
-28,-48,0,0,0,0,0,0,0,0,0,-1,1196,1072,0,0
-21,-48,0,0,0,0,0,0,0,0,0,-1,1203,1072,0,0
-14,-48,0,0,0,0,0,0,0,0,0,-1,1210,1072,0,0
-7,-48,0,0,0,0,0,0,0,0,0,-1,1217,1072,0,0
0,-48,0,0,0,0,0,0,0,0,0,-1,1224,1072,0,0
7,-48,0,0,0,0,0,0,0,0,0,-1,1231,1072,0,0
14,-48,0,0,0,0,0,0,0,0,0,-1,1238,1072,0,0
21,-48,0,0,0,0,0,0,0,0,0,-1,1245,1072,0,0
28,-48,0,0,0,0,0,0,0,0,0,-1,1252,1072,0,0
35,-48,0,0,0,0,0,0,0,0,0,-1,1259,1072,0,0
42,-48,0,0,0,0,0,0,0,0,0,-1,1266,1072,0,0
49,-48,0,0,0,0,0,0,0,0,0,-1,1273,1072,0,0
56,-48,0,0,0,0,0,0,0,0,0,-1,1280,1072,0,0
63,-48,0,0,0,0,0,0,0,0,0,-1,1287,1072,0,0
70,-48,0,0,0,0,0,0,0,0,0,-1,1294,1072,0,0
77,-48,0,0,0,0,0,0,0,0,0,-1,1301,1072,0,0
84,-48,0,0,0,0,0,0,0,0,0,-1,1308,1072,0,0
91,-48,0,0,0,0,0,0,0,0,0,-1,1315,1072,0,0
98,-48,0,0,0,0,0,0,0,0,0,-1,1322,1072,0,0
105,-48,0,0,0,0,0,0,0,0,0,-1,1329,1072,0,0
112,-48,0,0,0,0,0,0,0,0,0,-1,1336,1072,0,0
119,-48,0,0,0,0,0,0,0,0,0,-1,1343,1072,0,0
126,-48,0,0,0,0,0,0,0,0,0,-1,1350,1072,0,0
133,-48,0,0,0,0,0,0,0,0,0,-1,1357,1072,0,0
140,-48,0,0,0,0,0,0,0,0,0,-1,1364,1072,0,0
147,-48,0,0,0,0,0,0,0,0,0,-1,1371,1072,0,0
154,-48,0,0,0,0,0,0,0,0,0,-1,1378,1072,0,0
161,-48,0,0,0,0,0,0,0,0,0,-1,1385,1072,0,0
168,-48,0,0,0,0,0,0,0,0,0,-1,1392,1072,0,0
175,-48,0,0,0,0,0,0,0,0,0,-1,1399,1072,0,0
182,-48,0,0,0,0,0,0,0,0,0,-1,1406,1072,0,0
189,-48,0,0,0,0,0,0,0,0,0,-1,1413,1072,0,0
196,-48,0,0,0,0,0,0,0,0,0,-1,1420,1072,0,0
203,-48,0,0,0,0,0,0,0,0,0,-1,1427,1072,0,0
210,-48,0,0,0,0,0,0,0,0,0,-1,1434,1072,0,0
217,-48,0,0,0,0,0,0,0,0,0,-1,1441,1072,0,0
224,-48,0,0,0,0,0,0,0,0,0,-1,1448,1072,0,0
231,-48,0,0,0,0,0,0,0,0,0,-1,1455,1072,0,0
238,-48,0,0,0,0,0,0,0,0,0,-1,1462,1072,0,0
245,-48,0,0,0,0,0,0,0,0,0,-1,1469,1072,0,0
252,-48,0,0,0,0,0,0,0,0,0,-1,1476,1072,0,0
259,-48,0,0,0,0,0,0,0,0,0,-1,1483,1072,0,0
266,-48,0,0,0,0,0,0,0,0,0,-1,1490,1072,0,0
273,-48,0,0,0,0,0,0,0,0,0,-1,1497,1072,0,0
280,-48,0,0,0,0,0,0,0,0,0,-1,1504,1072,0,0
287,-48,0,0,0,0,0,0,0,0,0,-1,1511,1072,0,0
294,-48,0,0,0,0,0,0,0,0,0,-1,1518,1072,0,0
301,-48,0,0,0,0,0,0,0,0,0,-1,1525,1072,0,0
308,-48,0,0,0,0,0,0,0,0,0,-1,1532,1072,0,0
315,-48,0,0,0,0,0,0,0,0,0,-1,1539,1072,0,0
322,-48,0,0,0,0,0,0,0,0,0,-1,1546,1072,0,0
329,-48,0,0,0,0,0,0,0,0,0,-1,1553,1072,0,0
336,-48,0,0,0,0,0,0,0,0,0,-1,1560,1072,0,0
343,-48,0,0,0,0,0,0,0,0,0,-1,1567,1072,0,0
350,-48,0,0,0,0,0,0,0,0,0,-1,1574,1072,0,0
357,-48,0,0,0,0,0,0,0,0,0,-1,1581,1072,0,0
364,-48,0,0,0,0,0,0,0,0,0,-1,1588,1072,0,0
371,-48,0,0,0,0,0,0,0,0,0,-1,1595,1072,0,0
378,-48,0,0,0,0,0,0,0,0,0,-1,1602,1072,0,0
385,-48,0,0,0,0,0,0,0,0,0,-1,1609,1072,0,0
392,-48,0,0,0,0,0,0,0,0,0,-1,1616,1072,0,0
399,-48,0,0,0,0,0,0,0,0,0,-1,1623,1072,0,0
406,-48,0,0,0,0,0,0,0,0,0,-1,1630,1072,0,0
413,-48,0,0,0,0,0,0,0,0,0,-1,1637,1072,0,0
420,-48,0,0,0,0,0,0,0,0,0,-1,1644,1072,0,0
427,-48,0,0,0,0,0,0,0,0,0,-1,1651,1072,0,0
434,-48,0,0,0,0,0,0,0,0,0,-1,1658,1072,0,0
441,-48,0,0,0,0,0,0,0,0,0,-1,1665,1072,0,0
448,-48,0,0,0,0,0,0,0,0,0,-1,1672,1072,0,0
455,-48,0,0,0,0,0,0,0,0,0,-1,1679,1072,0,0
462,-48,0,0,0,0,0,0,0,0,0,-1,1686,1072,0,0
469,-48,0,0,0,0,0,0,0,0,0,-1,1693,1072,0,0
476,-48,0,0,0,0,0,0,0,0,0,-1,1700,1072,0,0
483,-48,0,0,0,0,0,0,0,0,0,-1,1707,1072,0,0
490,-48,0,0,0,0,0,0,0,0,0,-1,1714,1072,0,0
497,-48,0,0,0,0,0,0,0,0,0,-1,1721,1072,0,0
504,-48,0,0,0,0,0,0,0,0,0,-1,1728,1072,0,0
511,-48,0,0,0,0,0,0,0,0,0,-1,1735,1072,0,0
518,-48,0,0,0,0,0,0,0,0,0,-1,1742,1072,0,0
525,-48,0,0,0,0,0,0,0,0,0,-1,1749,1072,0,0
532,-48,0,0,0,0,0,0,0,0,0,-1,1756,1072,0,0
539,-48,0,0,0,0,0,0,0,0,0,-1,1763,1072,0,0
546,-48,0,0,0,0,0,0,0,0,0,-1,1770,1072,0,0
553,-48,0,0,0,0,0,0,0,0,0,-1,1777,1072,0,0
560,-48,0,0,0,0,0,0,0,0,0,-1,1784,1072,0,0
567,-48,0,0,0,0,0,0,0,0,0,-1,1791,1072,0,0
574,-48,0,0,0,0,0,0,0,0,0,-1,1798,1072,0,0
581,-48,0,0,0,0,0,0,0,0,0,-1,1805,1072,0,0
588,-48,0,0,0,0,0,0,0,0,0,-1,1812,1072,0,0
595,-48,0,0,0,0,0,0,0,0,0,-1,1819,1072,0,0
602,-48,0,0,0,0,0,0,0,0,0,-1,1826,1072,0,0
609,-48,0,0,0,0,0,0,0,0,0,-1,1833,1072,0,0
616,-48,0,0,0,0,0,0,0,0,0,-1,1840,1072,0,0
623,-48,0,0,0,0,0,0,0,0,0,-1,1847,1072,0,0
630,-48,0,0,0,0,0,0,0,0,0,-1,1854,1072,0,0
637,-48,0,0,0,0,0,0,0,0,0,-1,1861,1072,0,0
644,-48,0,0,0,0,0,0,0,0,0,-1,1868,1072,0,0
651,-48,77.7732,2.39526,0.00198544,0.000583104,-0.00037948,0.00208155,0.000487001,-0.248035,0.00125721,0.033987,1875,1072,77.7732,-2.39528
658,-48,77.8198,2.31262,0.00162096,-1.9095e-05,-0.000418772,0.0017217,-0.000119836,-0.236077,0.00118976,0.0370398,1882,1072,77.8198,-2.31265
665,-48,77.7649,2.26904,0.00124186,-0.000301535,-0.000278873,0.00129071,-0.000350378,-0.173386,0.000997981,0.0411426,1889,1072,77.7649,-2.26905
672,-48,77.5975,2.6604,0.000882293,-0.000310467,-8.94781e-05,0.000888968,-0.000317142,-0.0744623,0.000721964,0.0398888,1896,1072,77.5975,-2.66034
679,-48,77.6326,2.39795,0.000476606,-0.000184474,0.000177994,0.000521484,-0.000229352,0.246984,0.000444298,0.0385576,1903,1072,77.6326,-2.39789
686,-48,77.7871,2.11829,-0.000253577,-0.000315211,0.000460021,0.000176658,-0.000745446,0.751953,0.00056513,0.0409281,1910,1072,77.7872,-2.11824
693,-48,77.8706,1.90063,-0.000879305,-0.000527036,0.000840646,0.000155729,-0.00156207,0.888666,0.00109698,0.0406961,1917,1072,77.8706,-1.9006
700,-48,77.6781,2.15039,-0.00128083,-0.000600096,0.00125308,0.000358016,-0.00223894,0.918012,0.00162517,0.0364405,1924,1072,77.6781,-2.15044
707,-48,77.7498,2.5072,-0.00197858,-0.000401267,0.00159742,0.000591572,-0.00297141,1.0147,0.00220475,0.0303286,1931,1072,77.7498,-2.50718
714,-48,77.7423,2.49695,-0.00286332,0.000112835,0.00193584,0.00106645,-0.00381693,1.11308,0.00296474,0.0451756,1938,1072,77.7424,-2.49696
721,-48,77.7982,2.51086,0,0,0,0,0,0,0,-1,1945,1072,77.7983,-2.51088
728,-48,76.5853,8.5863,0,0,0,0,0,0,0,-1,1952,1072,76.5853,-8.58632
735,-48,76.4653,8.28625,-0.0063282,0.00338145,0.00260831,0.00403776,-0.00698451,1.32429,0.00643907,0.0262407,1959,1072,76.4653,-8.28628
742,-48,76.3293,7.94421,-0.00740716,0.00467471,0.00261152,0.00521503,-0.00794748,1.36678,0.00765377,0.020056,1966,1072,76.3294,-7.94425
749,-48,76.312,7.56543,-0.00785927,0.00648635,0.00161714,0.00666639,-0.00803931,1.45992,0.00850266,0.0176616,1973,1072,76.3119,-7.56537
756,-48,76.2856,7.19421,-0.00795173,0.00847083,-2.87826e-05,0.00847088,-0.00795178,-1.56904,0.00948321,0.0155846,1980,1072,76.2857,-7.1942
763,-48,76.1643,6.81714,-0.00722843,0.0119562,-0.00308928,0.0124414,-0.00771363,-1.41501,0.0117427,0.0149053,1987,1072,76.1643,-6.81712
770,-48,76.0796,6.43726,-0.00544127,0.0160111,-0.00763892,0.0184532,-0.00788339,-1.26137,0.0156083,0.0157615,1994,1072,76.0795,-6.4372
777,-48,75.9006,6.03406,-0.00152649,0.0209096,-0.0146678,0.0281574,-0.00877434,-1.11185,0.0222799,0.0139813,2001,1072,75.9005,-6.0341
784,-48,75.7366,5.61084,0.0040364,0.026007,-0.023397,0.0408693,-0.0108259,-1.00488,0.0314815,0.0249714,2008,1072,75.7367,-5.61081
791,-48,75.7358,5.02722,0.0117589,0.0314808,-0.0344493,0.0574527,-0.014213,-0.924794,0.0438147,0.0410153,2015,1072,75.7358,-5.02717
798,-48,75.6921,4.4408,0,0,0,0,0,0,0,-1,2022,1072,75.6922,-4.44074
805,-48,77.2939,2.97449,0,0,0,0,0,0,0,-1,2029,1072,77.2939,-2.97444
812,-48,77.5588,1.75378,0,0,0,0,0,0,0,-1,2036,1072,77.5588,-1.75373
-700,-55,-61.4689,2.97119,0,0,0,0,0,0,0,-1,524,1079,-61.4689,-2.9712
-693,-55,-62.8264,0.48584,0.110939,-0.00921063,0.0405683,0.123354,-0.0216256,0.296976,0.0903118,0.0418964,531,1079,-62.8264,-0.485835
-686,-55,-62.4614,2.55652,0.0924927,-0.00196972,0.0332873,0.103044,-0.0125211,0.306961,0.0732275,0.0433048,538,1079,-62.4613,-2.55648
-679,-55,-61.671,4.31079,0.0750334,0.0037062,0.0269664,0.0840809,-0.00534128,0.323707,0.0579165,0.047861,545,1079,-61.671,-4.31084
-672,-55,-62.4941,1.63184,0,0,0,0,0,0,0,-1,552,1079,-62.4941,-1.63183
-665,-55,-61.9603,2.18677,0,0,0,0,0,0,0,-1,559,1079,-61.9603,-2.18671
-658,-55,-59.989,1.20105,0,0,0,0,0,0,0,-1,566,1079,-59.989,-1.20099
-651,-55,-59.942,3.92334,0,0,0,0,0,0,0,-1,573,1079,-59.9419,-3.92339
-644,-55,-60.1027,4.96179,0.0152168,0.0124087,0.00520716,0.0192059,0.00841966,0.653711,0.0111166,0.0333694,580,1079,-60.1026,-4.96178
-637,-55,-60.1765,5.28247,0.00729889,0.0115627,0.0022384,0.012522,0.00633961,1.16592,0.00722976,0.0254444,587,1079,-60.1765,-5.28246
-630,-55,-60.2045,5.77612,0.00153957,0.00984963,-0.00010023,0.00985084,0.00153836,-1.55874,0.00611924,0.0276961,594,1079,-60.2045,-5.77617
-623,-55,-60.3585,6.30566,-0.00169147,0.00729289,-0.00152685,0.00754528,-0.00194386,-1.40698,0.00578799,0.0209013,601,1079,-60.3585,-6.30568
-616,-55,-60.3634,6.71094,-0.00156429,0.00456899,-0.00171928,0.00501806,-0.00201335,-1.31531,0.00418132,0.0183648,608,1079,-60.3634,-6.71097
-609,-55,-60.3182,7.19031,-0.000820488,0.00234327,-0.00234473,0.00358983,-0.00206705,-1.08215,0.00330521,0.0189683,615,1079,-60.3182,-7.19032
-602,-55,-60.2431,7.63416,-3.81048e-05,0.000991356,-0.00307499,0.0035944,-0.00264115,-0.868326,0.00361409,0.0157765,622,1079,-60.2431,-7.63411
-595,-55,-60.0553,8.08643,0.000180449,0.000216864,-0.00315117,0.00334988,-0.00295257,-0.788287,0.00364113,0.0349462,629,1079,-60.0553,-8.08648
-588,-55,-59.999,8.59155,0,0,0,0,0,0,0,-1,636,1079,-59.999,-8.59158
-581,-55,-61.4056,0.754883,0,0,0,0,0,0,0,-1,643,1079,-61.4056,-0.754943
-574,-55,-61.4252,0.837402,0,0,0,0,0,0,0,-1,650,1079,-61.4252,-0.837417
-567,-55,-61.4243,0.380371,0,0,0,0,0,0,0,-1,657,1079,-61.4243,-0.380327
-560,-55,-61.4882,0.480469,0.000952468,0.000681446,-0.000526394,0.00136051,0.0002734,-0.659417,0.000831005,0.0424342,664,1079,-61.4881,-0.480479
-553,-55,-61.4827,0.213501,0.000786763,0.00130636,0.00077329,0.00186233,0.000230797,0.947457,0.00117222,0.0423778,671,1079,-61.4827,-0.213506
-546,-55,-61.5831,0.303345,0.000939419,0.00148131,0.00261031,0.0038347,-0.00141397,0.837112,0.00313592,0.0389446,678,1079,-61.5831,-0.303324
-539,-55,-61.5697,0.60083,0.00172412,0.000537753,0.00487396,0.00604086,-0.00377899,0.724844,0.0057194,0.0388474,685,1079,-61.5697,-0.60084
-532,-55,-61.4913,0.745483,0.00251392,-0.000110881,0.00721259,0.00853254,-0.00612951,0.695403,0.00850295,0.0382681,692,1079,-61.4913,-0.745507
-525,-55,0,0,0,0,0,0,0,0,0,-1,699,1079,0,0
-518,-55,0,0,0,0,0,0,0,0,0,-1,706,1079,0,0
-511,-55,0,0,0,0,0,0,0,0,0,-1,713,1079,0,0
-504,-55,0,0,0,0,0,0,0,0,0,-1,720,1079,0,0
-497,-55,0,0,0,0,0,0,0,0,0,-1,727,1079,0,0
-490,-55,0,0,0,0,0,0,0,0,0,-1,734,1079,0,0
-483,-55,0,0,0,0,0,0,0,0,0,-1,741,1079,0,0
-476,-55,0,0,0,0,0,0,0,0,0,-1,748,1079,0,0
-469,-55,0,0,0,0,0,0,0,0,0,-1,755,1079,0,0
-462,-55,0,0,0,0,0,0,0,0,0,-1,762,1079,0,0
-455,-55,0,0,0,0,0,0,0,0,0,-1,769,1079,0,0
-448,-55,0,0,0,0,0,0,0,0,0,-1,776,1079,0,0
-441,-55,0,0,0,0,0,0,0,0,0,-1,783,1079,0,0
-434,-55,0,0,0,0,0,0,0,0,0,-1,790,1079,0,0
-427,-55,0,0,0,0,0,0,0,0,0,-1,797,1079,0,0
-420,-55,0,0,0,0,0,0,0,0,0,-1,804,1079,0,0
-413,-55,0,0,0,0,0,0,0,0,0,-1,811,1079,0,0
-406,-55,0,0,0,0,0,0,0,0,0,-1,818,1079,0,0
-399,-55,0,0,0,0,0,0,0,0,0,-1,825,1079,0,0
-392,-55,0,0,0,0,0,0,0,0,0,-1,832,1079,0,0
-385,-55,0,0,0,0,0,0,0,0,0,-1,839,1079,0,0
-378,-55,0,0,0,0,0,0,0,0,0,-1,846,1079,0,0
-371,-55,0,0,0,0,0,0,0,0,0,-1,853,1079,0,0
-364,-55,0,0,0,0,0,0,0,0,0,-1,860,1079,0,0
-357,-55,0,0,0,0,0,0,0,0,0,-1,867,1079,0,0
-350,-55,0,0,0,0,0,0,0,0,0,-1,874,1079,0,0
-343,-55,0,0,0,0,0,0,0,0,0,-1,881,1079,0,0
-336,-55,0,0,0,0,0,0,0,0,0,-1,888,1079,0,0
-329,-55,0,0,0,0,0,0,0,0,0,-1,895,1079,0,0
-322,-55,0,0,0,0,0,0,0,0,0,-1,902,1079,0,0
-315,-55,0,0,0,0,0,0,0,0,0,-1,909,1079,0,0
-308,-55,0,0,0,0,0,0,0,0,0,-1,916,1079,0,0
-301,-55,0,0,0,0,0,0,0,0,0,-1,923,1079,0,0
-294,-55,0,0,0,0,0,0,0,0,0,-1,930,1079,0,0
-287,-55,0,0,0,0,0,0,0,0,0,-1,937,1079,0,0
-280,-55,0,0,0,0,0,0,0,0,0,-1,944,1079,0,0
-273,-55,0,0,0,0,0,0,0,0,0,-1,951,1079,0,0
-266,-55,0,0,0,0,0,0,0,0,0,-1,958,1079,0,0
-259,-55,0,0,0,0,0,0,0,0,0,-1,965,1079,0,0
-252,-55,0,0,0,0,0,0,0,0,0,-1,972,1079,0,0
-245,-55,0,0,0,0,0,0,0,0,0,-1,979,1079,0,0
-238,-55,0,0,0,0,0,0,0,0,0,-1,986,1079,0,0
-231,-55,0,0,0,0,0,0,0,0,0,-1,993,1079,0,0
-224,-55,0,0,0,0,0,0,0,0,0,-1,1000,1079,0,0
-217,-55,0,0,0,0,0,0,0,0,0,-1,1007,1079,0,0
-210,-55,0,0,0,0,0,0,0,0,0,-1,1014,1079,0,0
-203,-55,0,0,0,0,0,0,0,0,0,-1,1021,1079,0,0
-196,-55,0,0,0,0,0,0,0,0,0,-1,1028,1079,0,0
-189,-55,0,0,0,0,0,0,0,0,0,-1,1035,1079,0,0
-182,-55,0,0,0,0,0,0,0,0,0,-1,1042,1079,0,0
-175,-55,0,0,0,0,0,0,0,0,0,-1,1049,1079,0,0
-168,-55,0,0,0,0,0,0,0,0,0,-1,1056,1079,0,0
-161,-55,0,0,0,0,0,0,0,0,0,-1,1063,1079,0,0
-154,-55,0,0,0,0,0,0,0,0,0,-1,1070,1079,0,0
-147,-55,0,0,0,0,0,0,0,0,0,-1,1077,1079,0,0
-140,-55,0,0,0,0,0,0,0,0,0,-1,1084,1079,0,0
-133,-55,0,0,0,0,0,0,0,0,0,-1,1091,1079,0,0
-126,-55,0,0,0,0,0,0,0,0,0,-1,1098,1079,0,0
-119,-55,0,0,0,0,0,0,0,0,0,-1,1105,1079,0,0
-112,-55,0,0,0,0,0,0,0,0,0,-1,1112,1079,0,0
-105,-55,0,0,0,0,0,0,0,0,0,-1,1119,1079,0,0
-98,-55,0,0,0,0,0,0,0,0,0,-1,1126,1079,0,0
-91,-55,0,0,0,0,0,0,0,0,0,-1,1133,1079,0,0
-84,-55,0,0,0,0,0,0,0,0,0,-1,1140,1079,0,0
-77,-55,0,0,0,0,0,0,0,0,0,-1,1147,1079,0,0
-70,-55,0,0,0,0,0,0,0,0,0,-1,1154,1079,0,0
-63,-55,0,0,0,0,0,0,0,0,0,-1,1161,1079,0,0
-56,-55,0,0,0,0,0,0,0,0,0,-1,1168,1079,0,0
-49,-55,0,0,0,0,0,0,0,0,0,-1,1175,1079,0,0
-42,-55,0,0,0,0,0,0,0,0,0,-1,1182,1079,0,0
-35,-55,0,0,0,0,0,0,0,0,0,-1,1189,1079,0,0
-28,-55,0,0,0,0,0,0,0,0,0,-1,1196,1079,0,0
-21,-55,0,0,0,0,0,0,0,0,0,-1,1203,1079,0,0
-14,-55,0,0,0,0,0,0,0,0,0,-1,1210,1079,0,0
-7,-55,0,0,0,0,0,0,0,0,0,-1,1217,1079,0,0
0,-55,0,0,0,0,0,0,0,0,0,-1,1224,1079,0,0
7,-55,0,0,0,0,0,0,0,0,0,-1,1231,1079,0,0
14,-55,0,0,0,0,0,0,0,0,0,-1,1238,1079,0,0
21,-55,0,0,0,0,0,0,0,0,0,-1,1245,1079,0,0
28,-55,0,0,0,0,0,0,0,0,0,-1,1252,1079,0,0
35,-55,0,0,0,0,0,0,0,0,0,-1,1259,1079,0,0
42,-55,0,0,0,0,0,0,0,0,0,-1,1266,1079,0,0
49,-55,0,0,0,0,0,0,0,0,0,-1,1273,1079,0,0
56,-55,0,0,0,0,0,0,0,0,0,-1,1280,1079,0,0
63,-55,0,0,0,0,0,0,0,0,0,-1,1287,1079,0,0
70,-55,0,0,0,0,0,0,0,0,0,-1,1294,1079,0,0
77,-55,0,0,0,0,0,0,0,0,0,-1,1301,1079,0,0
84,-55,0,0,0,0,0,0,0,0,0,-1,1308,1079,0,0
91,-55,0,0,0,0,0,0,0,0,0,-1,1315,1079,0,0
98,-55,0,0,0,0,0,0,0,0,0,-1,1322,1079,0,0
105,-55,0,0,0,0,0,0,0,0,0,-1,1329,1079,0,0
112,-55,0,0,0,0,0,0,0,0,0,-1,1336,1079,0,0
119,-55,0,0,0,0,0,0,0,0,0,-1,1343,1079,0,0
126,-55,0,0,0,0,0,0,0,0,0,-1,1350,1079,0,0
133,-55,0,0,0,0,0,0,0,0,0,-1,1357,1079,0,0
140,-55,0,0,0,0,0,0,0,0,0,-1,1364,1079,0,0
147,-55,0,0,0,0,0,0,0,0,0,-1,1371,1079,0,0
154,-55,0,0,0,0,0,0,0,0,0,-1,1378,1079,0,0
161,-55,0,0,0,0,0,0,0,0,0,-1,1385,1079,0,0
168,-55,0,0,0,0,0,0,0,0,0,-1,1392,1079,0,0
175,-55,0,0,0,0,0,0,0,0,0,-1,1399,1079,0,0
182,-55,0,0,0,0,0,0,0,0,0,-1,1406,1079,0,0
189,-55,0,0,0,0,0,0,0,0,0,-1,1413,1079,0,0
196,-55,0,0,0,0,0,0,0,0,0,-1,1420,1079,0,0
203,-55,0,0,0,0,0,0,0,0,0,-1,1427,1079,0,0
210,-55,0,0,0,0,0,0,0,0,0,-1,1434,1079,0,0
217,-55,0,0,0,0,0,0,0,0,0,-1,1441,1079,0,0
224,-55,0,0,0,0,0,0,0,0,0,-1,1448,1079,0,0
231,-55,0,0,0,0,0,0,0,0,0,-1,1455,1079,0,0
238,-55,0,0,0,0,0,0,0,0,0,-1,1462,1079,0,0
245,-55,0,0,0,0,0,0,0,0,0,-1,1469,1079,0,0
252,-55,0,0,0,0,0,0,0,0,0,-1,1476,1079,0,0
259,-55,0,0,0,0,0,0,0,0,0,-1,1483,1079,0,0
266,-55,0,0,0,0,0,0,0,0,0,-1,1490,1079,0,0
273,-55,0,0,0,0,0,0,0,0,0,-1,1497,1079,0,0
280,-55,0,0,0,0,0,0,0,0,0,-1,1504,1079,0,0
287,-55,0,0,0,0,0,0,0,0,0,-1,1511,1079,0,0
294,-55,0,0,0,0,0,0,0,0,0,-1,1518,1079,0,0
301,-55,0,0,0,0,0,0,0,0,0,-1,1525,1079,0,0
308,-55,0,0,0,0,0,0,0,0,0,-1,1532,1079,0,0
315,-55,0,0,0,0,0,0,0,0,0,-1,1539,1079,0,0
322,-55,0,0,0,0,0,0,0,0,0,-1,1546,1079,0,0
329,-55,0,0,0,0,0,0,0,0,0,-1,1553,1079,0,0
336,-55,0,0,0,0,0,0,0,0,0,-1,1560,1079,0,0
343,-55,0,0,0,0,0,0,0,0,0,-1,1567,1079,0,0
350,-55,0,0,0,0,0,0,0,0,0,-1,1574,1079,0,0
357,-55,0,0,0,0,0,0,0,0,0,-1,1581,1079,0,0
364,-55,0,0,0,0,0,0,0,0,0,-1,1588,1079,0,0
371,-55,0,0,0,0,0,0,0,0,0,-1,1595,1079,0,0
378,-55,0,0,0,0,0,0,0,0,0,-1,1602,1079,0,0
385,-55,0,0,0,0,0,0,0,0,0,-1,1609,1079,0,0
392,-55,0,0,0,0,0,0,0,0,0,-1,1616,1079,0,0
399,-55,0,0,0,0,0,0,0,0,0,-1,1623,1079,0,0
406,-55,0,0,0,0,0,0,0,0,0,-1,1630,1079,0,0
413,-55,0,0,0,0,0,0,0,0,0,-1,1637,1079,0,0
420,-55,0,0,0,0,0,0,0,0,0,-1,1644,1079,0,0
427,-55,0,0,0,0,0,0,0,0,0,-1,1651,1079,0,0
434,-55,0,0,0,0,0,0,0,0,0,-1,1658,1079,0,0
441,-55,0,0,0,0,0,0,0,0,0,-1,1665,1079,0,0
448,-55,0,0,0,0,0,0,0,0,0,-1,1672,1079,0,0
455,-55,0,0,0,0,0,0,0,0,0,-1,1679,1079,0,0
462,-55,0,0,0,0,0,0,0,0,0,-1,1686,1079,0,0
469,-55,0,0,0,0,0,0,0,0,0,-1,1693,1079,0,0
476,-55,0,0,0,0,0,0,0,0,0,-1,1700,1079,0,0
483,-55,0,0,0,0,0,0,0,0,0,-1,1707,1079,0,0
490,-55,0,0,0,0,0,0,0,0,0,-1,1714,1079,0,0
497,-55,0,0,0,0,0,0,0,0,0,-1,1721,1079,0,0
504,-55,0,0,0,0,0,0,0,0,0,-1,1728,1079,0,0
511,-55,0,0,0,0,0,0,0,0,0,-1,1735,1079,0,0
518,-55,0,0,0,0,0,0,0,0,0,-1,1742,1079,0,0
525,-55,0,0,0,0,0,0,0,0,0,-1,1749,1079,0,0
532,-55,0,0,0,0,0,0,0,0,0,-1,1756,1079,0,0
539,-55,0,0,0,0,0,0,0,0,0,-1,1763,1079,0,0
546,-55,0,0,0,0,0,0,0,0,0,-1,1770,1079,0,0
553,-55,0,0,0,0,0,0,0,0,0,-1,1777,1079,0,0
560,-55,0,0,0,0,0,0,0,0,0,-1,1784,1079,0,0
567,-55,0,0,0,0,0,0,0,0,0,-1,1791,1079,0,0
574,-55,0,0,0,0,0,0,0,0,0,-1,1798,1079,0,0
581,-55,0,0,0,0,0,0,0,0,0,-1,1805,1079,0,0
588,-55,0,0,0,0,0,0,0,0,0,-1,1812,1079,0,0
595,-55,0,0,0,0,0,0,0,0,0,-1,1819,1079,0,0
602,-55,0,0,0,0,0,0,0,0,0,-1,1826,1079,0,0
609,-55,0,0,0,0,0,0,0,0,0,-1,1833,1079,0,0
616,-55,0,0,0,0,0,0,0,0,0,-1,1840,1079,0,0
623,-55,0,0,0,0,0,0,0,0,0,-1,1847,1079,0,0
630,-55,0,0,0,0,0,0,0,0,0,-1,1854,1079,0,0
637,-55,0,0,0,0,0,0,0,0,0,-1,1861,1079,0,0
644,-55,0,0,0,0,0,0,0,0,0,-1,1868,1079,0,0
651,-55,77.8331,2.43188,0.00273761,-7.30765e-05,0.000312701,0.00277198,-0.000107445,0.109471,0.00188482,0.0361389,1875,1079,77.8331,-2.43193
658,-55,77.821,2.46838,0.00223146,-0.000286299,0.000145263,0.00223981,-0.000294652,0.0574415,0.00160049,0.0326635,1882,1079,77.8211,-2.46842
665,-55,77.6719,2.45129,0.00173508,-0.000331838,0.00015024,0.00174594,-0.000342701,0.0721821,0.00129342,0.0376681,1889,1079,77.6719,-2.45133
672,-55,77.6495,2.65869,0.00126994,-0.000213369,0.000204734,0.00129768,-0.000241109,0.134672,0.000955681,0.0381718,1896,1079,77.6495,-2.65865
679,-55,77.7809,2.4259,0.000763905,-3.33831e-05,0.000334247,0.000885489,-0.000154968,0.348878,0.000648187,0.0360454,1903,1079,77.7809,-2.42591
686,-55,77.8798,2.23804,-9.07124e-07,-0.000143682,0.000498829,0.000431616,-0.000576205,0.714326,0.000583859,0.0391927,1910,1079,77.8798,-2.23806
693,-55,77.7855,2.33508,-0.00062514,-0.000388609,0.00080282,0.000304609,-0.00131836,0.858529,0.00099609,0.0391095,1917,1079,77.7855,-2.33504
700,-55,77.702,2.47961,-0.00101459,-0.000483815,0.00114952,0.000430556,-0.00192896,0.898845,0.00145095,0.0348705,1924,1079,77.7021,-2.47964
707,-55,77.7887,2.52551,-0.00165081,-0.000350656,0.0014654,0.000602394,-0.00260385,0.994164,0.00196768,0.0275525,1931,1079,77.7887,-2.52547
714,-55,77.7755,2.44031,-0.00246244,7.6892e-05,0.00180056,0.00101042,-0.00339597,1.09249,0.00266541,0.0479559,1938,1079,77.7755,-2.44036
721,-55,77.7764,2.34277,0,0,0,0,0,0,0,-1,1945,1079,77.7763,-2.34278
728,-55,75.9958,8.85901,0,0,0,0,0,0,0,-1,1952,1079,75.9958,-8.85906
735,-55,75.8993,8.43835,-0.00568098,0.00284659,0.00254616,0.00354897,-0.00638336,1.30163,0.00581174,0.0265337,1959,1079,75.8993,-8.43831
742,-55,75.9072,8.0376,-0.00668676,0.00399897,0.00254718,0.00457508,-0.00726287,1.34836,0.00689312,0.0247627,1966,1079,75.9072,-8.03755
749,-55,75.9231,7.60718,-0.00720863,0.00568713,0.00178131,0.00592866,-0.00745016,1.43603,0.0077409,0.0165023,1973,1079,75.9231,-7.60719
756,-55,75.7939,7.17297,-0.00734751,0.00750876,0.000438333,0.00752169,-0.00736043,1.54133,0.00859236,0.0143036,1980,1079,75.794,-7.17302
763,-55,75.7134,6.75562,-0.00661338,0.0109058,-0.00249594,0.0112545,-0.00696204,-1.43201,0.0106142,0.017042,1987,1079,75.7135,-6.75567
770,-55,75.6226,6.32532,-0.0049347,0.0148902,-0.00679689,0.0169966,-0.00704117,-1.27027,0.0142695,0.0187711,1994,1079,75.6227,-6.32538
777,-55,75.4712,5.92847,-0.00125385,0.0197151,-0.0133991,0.0262441,-0.0077829,-1.11738,0.0205868,0.0151168,2001,1079,75.4711,-5.92846
784,-55,75.2952,5.50464,0.00406758,0.0248146,-0.021616,0.0384174,-0.00953515,-1.00912,0.0293116,0.0290231,2008,1079,75.2951,-5.50462
791,-55,74.8545,4.66309,0.0115276,0.0303929,-0.0320194,0.0543401,-0.0124197,-0.928642,0.0409986,0.0416388,2015,1079,74.8546,-4.66312
798,-55,74.4705,3.95532,0.0222127,0.0367683,-0.045467,0.0755363,-0.0165553,-0.864759,0.0566876,0.0485627,2022,1079,74.4705,-3.95535
805,-55,74.1091,3.40479,0,0,0,0,0,0,0,-1,2029,1079,74.109,-3.4048
812,-55,77.6843,1.89148,0,0,0,0,0,0,0,-1,2036,1079,77.6844,-1.89151
-700,-62,-61.2974,2.63184,0,0,0,0,0,0,0,-1,524,1086,-61.2974,-2.63187
-693,-62,-60.4401,2.36011,0,0,0,0,0,0,0,-1,531,1086,-60.4401,-2.36005
-686,-62,-60.0059,2.21875,0,0,0,0,0,0,0,-1,538,1086,-60.0059,-2.21874
-679,-62,-61.4871,1.39746,0,0,0,0,0,0,0,-1,545,1086,-61.4871,-1.39746
-672,-62,-61.275,1.68542,0.0581713,0.00781079,0.00966322,0.0599618,0.00602026,0.183215,0.0381266,0.0447906,552,1086,-61.275,-1.68546
-665,-62,-60.8058,1.99023,0.0442161,0.0101152,0.00710103,0.0456357,0.00869559,0.197312,0.0279794,0.0428734,559,1086,-60.8058,-1.99029
-658,-62,-60.234,2.27649,0,0,0,0,0,0,0,-1,566,1086,-60.234,-2.27647
-651,-62,-59.5061,3.99976,0,0,0,0,0,0,0,-1,573,1086,-59.5061,-3.99978
-644,-62,-59.6754,4.76489,0.0142086,0.0111399,0.000984024,0.014497,0.0108515,0.285129,0.00870771,0.0405084,580,1086,-59.6754,-4.76489
-637,-62,-59.7385,5.29358,0.00650902,0.0102246,-0.000434964,0.0102748,0.00645878,-1.4558,0.00599722,0.017439,587,1086,-59.7384,-5.29363
-630,-62,-59.8004,5.77246,0.000813983,0.00851779,-0.00149672,0.00879836,0.000533414,-1.38549,0.0056961,0.0168621,594,1086,-59.8004,-5.77247
-623,-62,-59.8745,6.32959,-0.00237251,0.00605404,-0.00211157,0.00655356,-0.00287203,-1.3385,0.00557852,0.0197699,601,1086,-59.8745,-6.32958
-616,-62,-59.8799,6.84229,-0.00221985,0.00369048,-0.00204569,0.00432945,-0.00285883,-1.26805,0.00417901,0.0204892,608,1086,-59.8799,-6.8423
-609,-62,-59.8525,7.27893,-0.00139337,0.00187916,-0.00254646,0.00326975,-0.00278395,-1.07096,0.00349886,0.0202914,615,1086,-59.8525,-7.27897
-602,-62,-59.7166,7.70837,-0.000532829,0.0008488,-0.00325711,0.00348755,-0.00317158,-0.889897,0.00384609,0.0176965,622,1086,-59.7166,-7.70841
-595,-62,-59.5126,8.21472,-0.000209861,0.00024913,-0.00336505,0.0033925,-0.00335323,-0.819445,0.00389467,0.0410805,629,1086,-59.5126,-8.21476
-588,-62,-59.415,8.67334,0,0,0,0,0,0,0,-1,636,1086,-59.415,-8.67334
-581,-62,-61.4279,0.624634,0,0,0,0,0,0,0,-1,643,1086,-61.4279,-0.624605
-574,-62,-61.4576,0.796265,0.000959149,-0.000299327,-0.00237106,0.00278304,-0.00212322,-0.655696,0.00284116,0.0361064,650,1086,-61.4577,-0.796205
-567,-62,-61.5663,0.8573,0.0011572,4.83507e-05,-0.00190577,0.00258755,-0.001382,-0.643846,0.00232679,0.0381173,657,1086,-61.5663,-0.857282
-560,-62,-61.4688,0.552612,0.00117883,0.000630994,-0.00118664,0.00212276,-0.000312934,-0.671967,0.00153019,0.0405608,664,1086,-61.4688,-0.552666
-553,-62,-61.3528,0.341675,0.00109352,0.00122488,-2.24775e-05,0.00122862,0.00108978,-1.40593,0.000776945,0.0379219,671,1086,-61.3528,-0.341687
-546,-62,-61.4357,0.490234,0.00128342,0.00143703,0.00172596,0.00308789,-0.000367446,0.807634,0.00219137,0.0337039,678,1086,-61.4357,-0.49024
-539,-62,-61.5134,0.799683,0.00217628,0.000538871,0.00394957,0.00539111,-0.00267595,0.683201,0.00474464,0.0394559,685,1086,-61.5135,-0.799686
-532,-62,-61.4028,0.740845,0.0030318,-9.3728e-05,0.00626892,0.00792981,-0.00499173,0.663244,0.00752426,0.0380747,692,1086,-61.4029,-0.740831
-525,-62,0,0,0,0,0,0,0,0,0,-1,699,1086,0,0
-518,-62,0,0,0,0,0,0,0,0,0,-1,706,1086,0,0
-511,-62,0,0,0,0,0,0,0,0,0,-1,713,1086,0,0
-504,-62,0,0,0,0,0,0,0,0,0,-1,720,1086,0,0
-497,-62,0,0,0,0,0,0,0,0,0,-1,727,1086,0,0
-490,-62,0,0,0,0,0,0,0,0,0,-1,734,1086,0,0
-483,-62,0,0,0,0,0,0,0,0,0,-1,741,1086,0,0
-476,-62,0,0,0,0,0,0,0,0,0,-1,748,1086,0,0
-469,-62,0,0,0,0,0,0,0,0,0,-1,755,1086,0,0
-462,-62,0,0,0,0,0,0,0,0,0,-1,762,1086,0,0
-455,-62,0,0,0,0,0,0,0,0,0,-1,769,1086,0,0
-448,-62,0,0,0,0,0,0,0,0,0,-1,776,1086,0,0
-441,-62,0,0,0,0,0,0,0,0,0,-1,783,1086,0,0
-434,-62,0,0,0,0,0,0,0,0,0,-1,790,1086,0,0
-427,-62,0,0,0,0,0,0,0,0,0,-1,797,1086,0,0
-420,-62,0,0,0,0,0,0,0,0,0,-1,804,1086,0,0
-413,-62,0,0,0,0,0,0,0,0,0,-1,811,1086,0,0
-406,-62,0,0,0,0,0,0,0,0,0,-1,818,1086,0,0
-399,-62,0,0,0,0,0,0,0,0,0,-1,825,1086,0,0
-392,-62,0,0,0,0,0,0,0,0,0,-1,832,1086,0,0
-385,-62,0,0,0,0,0,0,0,0,0,-1,839,1086,0,0
-378,-62,0,0,0,0,0,0,0,0,0,-1,846,1086,0,0
-371,-62,0,0,0,0,0,0,0,0,0,-1,853,1086,0,0
-364,-62,0,0,0,0,0,0,0,0,0,-1,860,1086,0,0
-357,-62,0,0,0,0,0,0,0,0,0,-1,867,1086,0,0
-350,-62,0,0,0,0,0,0,0,0,0,-1,874,1086,0,0
-343,-62,0,0,0,0,0,0,0,0,0,-1,881,1086,0,0
-336,-62,0,0,0,0,0,0,0,0,0,-1,888,1086,0,0
-329,-62,0,0,0,0,0,0,0,0,0,-1,895,1086,0,0
-322,-62,0,0,0,0,0,0,0,0,0,-1,902,1086,0,0
-315,-62,0,0,0,0,0,0,0,0,0,-1,909,1086,0,0
-308,-62,0,0,0,0,0,0,0,0,0,-1,916,1086,0,0
-301,-62,0,0,0,0,0,0,0,0,0,-1,923,1086,0,0
-294,-62,0,0,0,0,0,0,0,0,0,-1,930,1086,0,0
-287,-62,0,0,0,0,0,0,0,0,0,-1,937,1086,0,0
-280,-62,0,0,0,0,0,0,0,0,0,-1,944,1086,0,0
-273,-62,0,0,0,0,0,0,0,0,0,-1,951,1086,0,0
-266,-62,0,0,0,0,0,0,0,0,0,-1,958,1086,0,0
-259,-62,0,0,0,0,0,0,0,0,0,-1,965,1086,0,0
-252,-62,0,0,0,0,0,0,0,0,0,-1,972,1086,0,0
-245,-62,0,0,0,0,0,0,0,0,0,-1,979,1086,0,0
-238,-62,0,0,0,0,0,0,0,0,0,-1,986,1086,0,0
-231,-62,0,0,0,0,0,0,0,0,0,-1,993,1086,0,0
-224,-62,0,0,0,0,0,0,0,0,0,-1,1000,1086,0,0
-217,-62,0,0,0,0,0,0,0,0,0,-1,1007,1086,0,0
-210,-62,0,0,0,0,0,0,0,0,0,-1,1014,1086,0,0
-203,-62,0,0,0,0,0,0,0,0,0,-1,1021,1086,0,0
-196,-62,0,0,0,0,0,0,0,0,0,-1,1028,1086,0,0
-189,-62,0,0,0,0,0,0,0,0,0,-1,1035,1086,0,0
-182,-62,0,0,0,0,0,0,0,0,0,-1,1042,1086,0,0
-175,-62,0,0,0,0,0,0,0,0,0,-1,1049,1086,0,0
-168,-62,0,0,0,0,0,0,0,0,0,-1,1056,1086,0,0
-161,-62,0,0,0,0,0,0,0,0,0,-1,1063,1086,0,0
-154,-62,0,0,0,0,0,0,0,0,0,-1,1070,1086,0,0
-147,-62,0,0,0,0,0,0,0,0,0,-1,1077,1086,0,0
-140,-62,0,0,0,0,0,0,0,0,0,-1,1084,1086,0,0
-133,-62,0,0,0,0,0,0,0,0,0,-1,1091,1086,0,0
-126,-62,0,0,0,0,0,0,0,0,0,-1,1098,1086,0,0
-119,-62,0,0,0,0,0,0,0,0,0,-1,1105,1086,0,0
-112,-62,0,0,0,0,0,0,0,0,0,-1,1112,1086,0,0
-105,-62,0,0,0,0,0,0,0,0,0,-1,1119,1086,0,0
-98,-62,0,0,0,0,0,0,0,0,0,-1,1126,1086,0,0
-91,-62,0,0,0,0,0,0,0,0,0,-1,1133,1086,0,0
-84,-62,0,0,0,0,0,0,0,0,0,-1,1140,1086,0,0
-77,-62,0,0,0,0,0,0,0,0,0,-1,1147,1086,0,0
-70,-62,0,0,0,0,0,0,0,0,0,-1,1154,1086,0,0
-63,-62,0,0,0,0,0,0,0,0,0,-1,1161,1086,0,0
-56,-62,0,0,0,0,0,0,0,0,0,-1,1168,1086,0,0
-49,-62,0,0,0,0,0,0,0,0,0,-1,1175,1086,0,0
-42,-62,0,0,0,0,0,0,0,0,0,-1,1182,1086,0,0
-35,-62,0,0,0,0,0,0,0,0,0,-1,1189,1086,0,0
-28,-62,0,0,0,0,0,0,0,0,0,-1,1196,1086,0,0
-21,-62,0,0,0,0,0,0,0,0,0,-1,1203,1086,0,0
-14,-62,0,0,0,0,0,0,0,0,0,-1,1210,1086,0,0
-7,-62,0,0,0,0,0,0,0,0,0,-1,1217,1086,0,0
0,-62,0,0,0,0,0,0,0,0,0,-1,1224,1086,0,0
7,-62,0,0,0,0,0,0,0,0,0,-1,1231,1086,0,0
14,-62,0,0,0,0,0,0,0,0,0,-1,1238,1086,0,0
21,-62,0,0,0,0,0,0,0,0,0,-1,1245,1086,0,0
28,-62,0,0,0,0,0,0,0,0,0,-1,1252,1086,0,0
35,-62,0,0,0,0,0,0,0,0,0,-1,1259,1086,0,0
42,-62,0,0,0,0,0,0,0,0,0,-1,1266,1086,0,0
49,-62,0,0,0,0,0,0,0,0,0,-1,1273,1086,0,0
56,-62,0,0,0,0,0,0,0,0,0,-1,1280,1086,0,0
63,-62,0,0,0,0,0,0,0,0,0,-1,1287,1086,0,0
70,-62,0,0,0,0,0,0,0,0,0,-1,1294,1086,0,0
77,-62,0,0,0,0,0,0,0,0,0,-1,1301,1086,0,0
84,-62,0,0,0,0,0,0,0,0,0,-1,1308,1086,0,0
91,-62,0,0,0,0,0,0,0,0,0,-1,1315,1086,0,0
98,-62,0,0,0,0,0,0,0,0,0,-1,1322,1086,0,0
105,-62,0,0,0,0,0,0,0,0,0,-1,1329,1086,0,0
112,-62,0,0,0,0,0,0,0,0,0,-1,1336,1086,0,0
119,-62,0,0,0,0,0,0,0,0,0,-1,1343,1086,0,0
126,-62,0,0,0,0,0,0,0,0,0,-1,1350,1086,0,0
133,-62,0,0,0,0,0,0,0,0,0,-1,1357,1086,0,0
140,-62,0,0,0,0,0,0,0,0,0,-1,1364,1086,0,0
147,-62,0,0,0,0,0,0,0,0,0,-1,1371,1086,0,0
154,-62,0,0,0,0,0,0,0,0,0,-1,1378,1086,0,0
161,-62,0,0,0,0,0,0,0,0,0,-1,1385,1086,0,0
168,-62,0,0,0,0,0,0,0,0,0,-1,1392,1086,0,0
175,-62,0,0,0,0,0,0,0,0,0,-1,1399,1086,0,0
182,-62,0,0,0,0,0,0,0,0,0,-1,1406,1086,0,0
189,-62,0,0,0,0,0,0,0,0,0,-1,1413,1086,0,0
196,-62,0,0,0,0,0,0,0,0,0,-1,1420,1086,0,0
203,-62,0,0,0,0,0,0,0,0,0,-1,1427,1086,0,0
210,-62,0,0,0,0,0,0,0,0,0,-1,1434,1086,0,0
217,-62,0,0,0,0,0,0,0,0,0,-1,1441,1086,0,0
224,-62,0,0,0,0,0,0,0,0,0,-1,1448,1086,0,0
231,-62,0,0,0,0,0,0,0,0,0,-1,1455,1086,0,0
238,-62,0,0,0,0,0,0,0,0,0,-1,1462,1086,0,0
245,-62,0,0,0,0,0,0,0,0,0,-1,1469,1086,0,0
252,-62,0,0,0,0,0,0,0,0,0,-1,1476,1086,0,0
259,-62,0,0,0,0,0,0,0,0,0,-1,1483,1086,0,0
266,-62,0,0,0,0,0,0,0,0,0,-1,1490,1086,0,0
273,-62,0,0,0,0,0,0,0,0,0,-1,1497,1086,0,0
280,-62,0,0,0,0,0,0,0,0,0,-1,1504,1086,0,0
287,-62,0,0,0,0,0,0,0,0,0,-1,1511,1086,0,0
294,-62,0,0,0,0,0,0,0,0,0,-1,1518,1086,0,0
301,-62,0,0,0,0,0,0,0,0,0,-1,1525,1086,0,0
308,-62,0,0,0,0,0,0,0,0,0,-1,1532,1086,0,0
315,-62,0,0,0,0,0,0,0,0,0,-1,1539,1086,0,0
322,-62,0,0,0,0,0,0,0,0,0,-1,1546,1086,0,0
329,-62,0,0,0,0,0,0,0,0,0,-1,1553,1086,0,0
336,-62,0,0,0,0,0,0,0,0,0,-1,1560,1086,0,0
343,-62,0,0,0,0,0,0,0,0,0,-1,1567,1086,0,0
350,-62,0,0,0,0,0,0,0,0,0,-1,1574,1086,0,0
357,-62,0,0,0,0,0,0,0,0,0,-1,1581,1086,0,0
364,-62,0,0,0,0,0,0,0,0,0,-1,1588,1086,0,0
371,-62,0,0,0,0,0,0,0,0,0,-1,1595,1086,0,0
378,-62,0,0,0,0,0,0,0,0,0,-1,1602,1086,0,0
385,-62,0,0,0,0,0,0,0,0,0,-1,1609,1086,0,0
392,-62,0,0,0,0,0,0,0,0,0,-1,1616,1086,0,0
399,-62,0,0,0,0,0,0,0,0,0,-1,1623,1086,0,0
406,-62,0,0,0,0,0,0,0,0,0,-1,1630,1086,0,0
413,-62,0,0,0,0,0,0,0,0,0,-1,1637,1086,0,0
420,-62,0,0,0,0,0,0,0,0,0,-1,1644,1086,0,0
427,-62,0,0,0,0,0,0,0,0,0,-1,1651,1086,0,0
434,-62,0,0,0,0,0,0,0,0,0,-1,1658,1086,0,0
441,-62,0,0,0,0,0,0,0,0,0,-1,1665,1086,0,0
448,-62,0,0,0,0,0,0,0,0,0,-1,1672,1086,0,0
455,-62,0,0,0,0,0,0,0,0,0,-1,1679,1086,0,0
462,-62,0,0,0,0,0,0,0,0,0,-1,1686,1086,0,0
469,-62,0,0,0,0,0,0,0,0,0,-1,1693,1086,0,0
476,-62,0,0,0,0,0,0,0,0,0,-1,1700,1086,0,0
483,-62,0,0,0,0,0,0,0,0,0,-1,1707,1086,0,0
490,-62,0,0,0,0,0,0,0,0,0,-1,1714,1086,0,0
497,-62,0,0,0,0,0,0,0,0,0,-1,1721,1086,0,0
504,-62,0,0,0,0,0,0,0,0,0,-1,1728,1086,0,0
511,-62,0,0,0,0,0,0,0,0,0,-1,1735,1086,0,0
518,-62,0,0,0,0,0,0,0,0,0,-1,1742,1086,0,0
525,-62,0,0,0,0,0,0,0,0,0,-1,1749,1086,0,0
532,-62,0,0,0,0,0,0,0,0,0,-1,1756,1086,0,0
539,-62,0,0,0,0,0,0,0,0,0,-1,1763,1086,0,0
546,-62,0,0,0,0,0,0,0,0,0,-1,1770,1086,0,0
553,-62,0,0,0,0,0,0,0,0,0,-1,1777,1086,0,0
560,-62,0,0,0,0,0,0,0,0,0,-1,1784,1086,0,0
567,-62,0,0,0,0,0,0,0,0,0,-1,1791,1086,0,0
574,-62,0,0,0,0,0,0,0,0,0,-1,1798,1086,0,0
581,-62,0,0,0,0,0,0,0,0,0,-1,1805,1086,0,0
588,-62,0,0,0,0,0,0,0,0,0,-1,1812,1086,0,0
595,-62,0,0,0,0,0,0,0,0,0,-1,1819,1086,0,0
602,-62,0,0,0,0,0,0,0,0,0,-1,1826,1086,0,0
609,-62,0,0,0,0,0,0,0,0,0,-1,1833,1086,0,0
616,-62,0,0,0,0,0,0,0,0,0,-1,1840,1086,0,0
623,-62,0,0,0,0,0,0,0,0,0,-1,1847,1086,0,0
630,-62,0,0,0,0,0,0,0,0,0,-1,1854,1086,0,0
637,-62,0,0,0,0,0,0,0,0,0,-1,1861,1086,0,0
644,-62,0,0,0,0,0,0,0,0,0,-1,1868,1086,0,0
651,-62,77.6729,2.53247,0.0033348,-0.000314232,0.000721002,0.0034721,-0.000451527,0.18817,0.00247899,0.0401994,1875,1086,77.6729,-2.53249
658,-62,77.8024,2.55457,0.00270159,-0.00040514,0.000450681,0.00276564,-0.000469198,0.14119,0.00201842,0.039146,1882,1086,77.8024,-2.5546
665,-62,77.7606,2.49219,0.00212233,-0.000384472,0.000352911,0.00217107,-0.000433208,0.137229,0.00161131,0.0380983,1889,1086,77.7607,-2.49222
672,-62,77.7308,2.48767,0.00159805,-0.000245535,0.000307407,0.00164796,-0.000295442,0.160945,0.00120921,0.0369188,1896,1086,77.7308,-2.48762
679,-62,77.8407,2.55786,0.00106393,-9.62334e-05,0.000341653,0.00115706,-0.000189369,0.266137,0.00084163,0.0363756,1903,1086,77.8407,-2.55784
686,-62,77.9078,2.45105,0.000340859,-0.000208421,0.000415787,0.000564522,-0.000432084,0.493527,0.000577081,0.0386986,1910,1086,77.9078,-2.45105
693,-62,77.8042,2.49182,-0.000224185,-0.000464947,0.000667217,0.000333424,-0.00102256,0.696147,0.00081588,0.0381747,1917,1086,77.8042,-2.49182
700,-62,77.7965,2.45581,-0.000566855,-0.000550805,0.000958811,0.000400015,-0.00151767,0.789583,0.00116818,0.0317104,1924,1086,77.7965,-2.45578
707,-62,77.7808,2.49951,-0.00113275,-0.000435304,0.00125072,0.000514397,-0.00208245,0.921354,0.00158779,0.0237426,1931,1086,77.7807,-2.49954
714,-62,77.7605,2.38782,-0.00186232,-5.01638e-05,0.00158764,0.000871756,-0.00278424,1.0447,0.00220495,0.0400079,1938,1086,77.7605,-2.38785
721,-62,77.7247,2.23828,0,0,0,0,0,0,0,-1,1945,1086,77.7247,-2.23826
728,-62,75.5165,9.05762,0,0,0,0,0,0,0,-1,1952,1086,75.5164,-9.05764
735,-62,75.451,8.46802,-0.00492536,0.00241356,0.00238978,0.00312314,-0.00563494,1.28217,0.00512533,0.0348435,1959,1086,75.451,-8.46806
742,-62,75.3944,8.10718,-0.00591878,0.00350675,0.00235837,0.00406391,-0.00647594,1.3388,0.00613807,0.0344104,1966,1086,75.3944,-8.10722
749,-62,75.3696,7.63892,-0.00647924,0.00524629,0.00167101,0.00547977,-0.00671273,1.43197,0.00705133,0.0247551,1973,1086,75.3697,-7.63896
756,-62,75.2554,7.21191,-0.00663743,0.00703713,0.000499501,0.00705535,-0.00665565,1.53433,0.00791717,0.0163127,1980,1086,75.2553,-7.21194
763,-62,75.1968,6.71594,-0.00584153,0.0104184,-0.00238679,0.0107615,-0.00618464,-1.42802,0.00990212,0.0205166,1987,1086,75.1969,-6.71597
770,-62,75.1208,6.21948,-0.00414645,0.0144314,-0.00657071,0.0165204,-0.0062355,-1.26297,0.0135781,0.0193004,1994,1086,75.1208,-6.21946
777,-62,74.9099,5.76111,-0.000484103,0.0192974,-0.0129045,0.0256656,-0.00685225,-1.11237,0.0197939,0.0188929,2001,1086,74.9098,-5.76112
784,-62,74.8274,5.31812,0.00485372,0.0244791,-0.0207616,0.0376301,-0.00829736,-1.00616,0.0282615,0.0285892,2008,1086,74.8274,-5.31811
791,-62,74.844,4.46753,0.0123593,0.0301846,-0.0306604,0.0532016,-0.0106576,-0.926844,0.0395024,0.0433724,2015,1086,74.8441,-4.46753
798,-62,74.2102,3.96448,0.0231127,0.0367178,-0.0434181,0.073863,-0.0140326,-0.863104,0.0545248,0.0457042,2022,1086,74.2103,-3.96451
805,-62,73.791,3.55286,0.0381988,0.0446081,-0.059627,0.101116,-0.0183096,-0.812245,0.0742704,0.0463248,2029,1086,73.791,-3.55284
812,-62,73.356,3.05774,0.0581917,0.0546503,-0.0800286,0.136469,-0.0236273,-0.774337,0.099792,0.0476047,2036,1086,73.3559,-3.05777
-700,-69,-61.0673,2.30115,0,0,0,0,0,0,0,-1,524,1093,-61.0673,-2.30112
-693,-69,-60.2616,2.1792,0.111715,-0.00241909,0.000886561,0.111722,-0.00242598,0.00776708,0.0753031,0.0453916,531,1093,-60.2616,-2.17926
-686,-69,-59.8037,1.98999,0.091325,0.00218836,-0.000540716,0.0913283,0.00218508,-0.00606585,0.0601704,0.0454894,538,1093,-59.8037,-1.99
-679,-69,-60.1967,1.4668,0.0729946,0.00567835,-0.00136859,0.0730224,0.00565054,-0.0203196,0.0469117,0.0473501,545,1093,-60.1967,-1.46676
-672,-69,-60.016,1.72229,0.0568867,0.0081843,-0.00179566,0.0569528,0.00811819,-0.0368034,0.0355726,0.0463832,552,1093,-60.016,-1.7223
-665,-69,-59.7954,2.1344,0.0428757,0.0097964,-0.00199531,0.0429956,0.00967648,-0.0600289,0.0260445,0.0455822,559,1093,-59.7954,-2.13435
-658,-69,-59.6987,2.53003,0,0,0,0,0,0,0,-1,566,1093,-59.6987,-2.53001
-651,-69,-58.2231,4.16785,0,0,0,0,0,0,0,-1,573,1093,-58.2231,-4.16789
-644,-69,-58.9973,4.72815,0.013051,0.00990525,-0.00289858,0.0147759,0.00818028,-0.536814,0.00854723,0.0475987,580,1093,-58.9973,-4.7282
-637,-69,-59.142,5.25537,0.00556092,0.00886364,-0.00288464,0.0105362,0.00388841,-1.04536,0.0061522,0.0198682,587,1093,-59.142,-5.25531
-630,-69,-59.1675,5.74231,-1.54398e-06,0.00711985,-0.00274992,0.00805811,-0.000939804,-1.24199,0.00571118,0.0158787,594,1093,-59.1676,-5.74227
-623,-69,-59.1666,6.25696,-0.00300378,0.00469118,-0.00257938,0.0054758,-0.0037884,-1.2755,0.00537818,0.0210929,601,1093,-59.1666,-6.25698
-616,-69,-59.2098,6.75366,-0.00277383,0.00270119,-0.00227579,0.00352362,-0.00359627,-1.22402,0.00411074,0.0274552,608,1093,-59.2099,-6.75361
-609,-69,-59.26,7.2478,-0.00187057,0.0013139,-0.00262005,0.00278759,-0.00334426,-1.05843,0.00354508,0.0233574,615,1093,-59.26,-7.24786
-602,-69,-59.1948,7.77917,-0.000938435,0.00062541,-0.00327724,0.00321272,-0.00352574,-0.902505,0.00389185,0.0224524,622,1093,-59.1948,-7.77912
-595,-69,-59.0995,8.14307,-0.000540931,0.000243191,-0.00337827,0.00325207,-0.00354981,-0.843167,0.00392832,0.0469258,629,1093,-59.0995,-8.14306
-588,-69,-59.1814,8.38428,0,0,0,0,0,0,0,-1,636,1093,-59.1814,-8.38427
-581,-69,-61.4523,0.57666,0,0,0,0,0,0,0,-1,643,1093,-61.4523,-0.576622
-574,-69,-61.5495,0.661011,0.000790274,-0.000274374,-0.00254195,0.00285504,-0.00233914,-0.682182,0.00300378,0.0323689,650,1093,-61.5495,-0.661043
-567,-69,-61.5527,0.79126,0.00110108,1.36486e-05,-0.0021902,0.00281404,-0.00169931,-0.663733,0.00263214,0.0378797,657,1093,-61.5528,-0.791212
-560,-69,-61.4308,0.582153,0.00122124,0.000535,-0.00162601,0.00253994,-0.000783702,-0.681414,0.00200622,0.0397572,664,1093,-61.4308,-0.582195
-553,-69,-61.4034,0.481689,0.00115373,0.00108361,-0.000633298,0.00175294,0.000484403,-0.757745,0.00104527,0.0385604,671,1093,-61.4035,-0.481706
-546,-69,-61.467,0.564941,0.00131282,0.00128839,0.00093111,0.00223179,0.000369413,0.77884,0.00138129,0.0369519,678,1093,-61.467,-0.564952
-539,-69,-61.4808,0.701416,0.00219493,0.000400931,0.00291498,0.0043478,-0.00175194,0.636135,0.00362643,0.03976,685,1093,-61.4808,-0.701387
-532,-69,-61.3555,0.807007,0.00304112,-0.000284375,0.00495805,0.0066078,-0.00385106,0.62361,0.00610795,0.0394623,692,1093,-61.3555,-0.806961
-525,-69,0,0,0,0,0,0,0,0,0,-1,699,1093,0,0
-518,-69,0,0,0,0,0,0,0,0,0,-1,706,1093,0,0
-511,-69,0,0,0,0,0,0,0,0,0,-1,713,1093,0,0
-504,-69,0,0,0,0,0,0,0,0,0,-1,720,1093,0,0
-497,-69,0,0,0,0,0,0,0,0,0,-1,727,1093,0,0
-490,-69,0,0,0,0,0,0,0,0,0,-1,734,1093,0,0
-483,-69,0,0,0,0,0,0,0,0,0,-1,741,1093,0,0
-476,-69,0,0,0,0,0,0,0,0,0,-1,748,1093,0,0
-469,-69,0,0,0,0,0,0,0,0,0,-1,755,1093,0,0
-462,-69,0,0,0,0,0,0,0,0,0,-1,762,1093,0,0
-455,-69,0,0,0,0,0,0,0,0,0,-1,769,1093,0,0
-448,-69,0,0,0,0,0,0,0,0,0,-1,776,1093,0,0
-441,-69,0,0,0,0,0,0,0,0,0,-1,783,1093,0,0
-434,-69,0,0,0,0,0,0,0,0,0,-1,790,1093,0,0
-427,-69,0,0,0,0,0,0,0,0,0,-1,797,1093,0,0
-420,-69,0,0,0,0,0,0,0,0,0,-1,804,1093,0,0
-413,-69,0,0,0,0,0,0,0,0,0,-1,811,1093,0,0
-406,-69,0,0,0,0,0,0,0,0,0,-1,818,1093,0,0
-399,-69,0,0,0,0,0,0,0,0,0,-1,825,1093,0,0
-392,-69,0,0,0,0,0,0,0,0,0,-1,832,1093,0,0
-385,-69,0,0,0,0,0,0,0,0,0,-1,839,1093,0,0
-378,-69,0,0,0,0,0,0,0,0,0,-1,846,1093,0,0
-371,-69,0,0,0,0,0,0,0,0,0,-1,853,1093,0,0
-364,-69,0,0,0,0,0,0,0,0,0,-1,860,1093,0,0
-357,-69,0,0,0,0,0,0,0,0,0,-1,867,1093,0,0
-350,-69,0,0,0,0,0,0,0,0,0,-1,874,1093,0,0
-343,-69,0,0,0,0,0,0,0,0,0,-1,881,1093,0,0
-336,-69,0,0,0,0,0,0,0,0,0,-1,888,1093,0,0
-329,-69,0,0,0,0,0,0,0,0,0,-1,895,1093,0,0
-322,-69,0,0,0,0,0,0,0,0,0,-1,902,1093,0,0
-315,-69,0,0,0,0,0,0,0,0,0,-1,909,1093,0,0
-308,-69,0,0,0,0,0,0,0,0,0,-1,916,1093,0,0
-301,-69,0,0,0,0,0,0,0,0,0,-1,923,1093,0,0
-294,-69,0,0,0,0,0,0,0,0,0,-1,930,1093,0,0
-287,-69,0,0,0,0,0,0,0,0,0,-1,937,1093,0,0
-280,-69,0,0,0,0,0,0,0,0,0,-1,944,1093,0,0
-273,-69,0,0,0,0,0,0,0,0,0,-1,951,1093,0,0
-266,-69,0,0,0,0,0,0,0,0,0,-1,958,1093,0,0
-259,-69,0,0,0,0,0,0,0,0,0,-1,965,1093,0,0
-252,-69,0,0,0,0,0,0,0,0,0,-1,972,1093,0,0
-245,-69,0,0,0,0,0,0,0,0,0,-1,979,1093,0,0
-238,-69,0,0,0,0,0,0,0,0,0,-1,986,1093,0,0
-231,-69,0,0,0,0,0,0,0,0,0,-1,993,1093,0,0
-224,-69,0,0,0,0,0,0,0,0,0,-1,1000,1093,0,0
-217,-69,0,0,0,0,0,0,0,0,0,-1,1007,1093,0,0
-210,-69,0,0,0,0,0,0,0,0,0,-1,1014,1093,0,0
-203,-69,0,0,0,0,0,0,0,0,0,-1,1021,1093,0,0
-196,-69,0,0,0,0,0,0,0,0,0,-1,1028,1093,0,0
-189,-69,0,0,0,0,0,0,0,0,0,-1,1035,1093,0,0
-182,-69,0,0,0,0,0,0,0,0,0,-1,1042,1093,0,0
-175,-69,0,0,0,0,0,0,0,0,0,-1,1049,1093,0,0
-168,-69,0,0,0,0,0,0,0,0,0,-1,1056,1093,0,0
-161,-69,0,0,0,0,0,0,0,0,0,-1,1063,1093,0,0
-154,-69,0,0,0,0,0,0,0,0,0,-1,1070,1093,0,0
-147,-69,0,0,0,0,0,0,0,0,0,-1,1077,1093,0,0
-140,-69,0,0,0,0,0,0,0,0,0,-1,1084,1093,0,0
-133,-69,0,0,0,0,0,0,0,0,0,-1,1091,1093,0,0
-126,-69,0,0,0,0,0,0,0,0,0,-1,1098,1093,0,0
-119,-69,0,0,0,0,0,0,0,0,0,-1,1105,1093,0,0
-112,-69,0,0,0,0,0,0,0,0,0,-1,1112,1093,0,0
-105,-69,0,0,0,0,0,0,0,0,0,-1,1119,1093,0,0
-98,-69,0,0,0,0,0,0,0,0,0,-1,1126,1093,0,0
-91,-69,0,0,0,0,0,0,0,0,0,-1,1133,1093,0,0
-84,-69,0,0,0,0,0,0,0,0,0,-1,1140,1093,0,0
-77,-69,0,0,0,0,0,0,0,0,0,-1,1147,1093,0,0
-70,-69,0,0,0,0,0,0,0,0,0,-1,1154,1093,0,0
-63,-69,0,0,0,0,0,0,0,0,0,-1,1161,1093,0,0
-56,-69,0,0,0,0,0,0,0,0,0,-1,1168,1093,0,0
-49,-69,0,0,0,0,0,0,0,0,0,-1,1175,1093,0,0
-42,-69,0,0,0,0,0,0,0,0,0,-1,1182,1093,0,0
-35,-69,0,0,0,0,0,0,0,0,0,-1,1189,1093,0,0
-28,-69,0,0,0,0,0,0,0,0,0,-1,1196,1093,0,0
-21,-69,0,0,0,0,0,0,0,0,0,-1,1203,1093,0,0
-14,-69,0,0,0,0,0,0,0,0,0,-1,1210,1093,0,0
-7,-69,0,0,0,0,0,0,0,0,0,-1,1217,1093,0,0
0,-69,0,0,0,0,0,0,0,0,0,-1,1224,1093,0,0
7,-69,0,0,0,0,0,0,0,0,0,-1,1231,1093,0,0
14,-69,0,0,0,0,0,0,0,0,0,-1,1238,1093,0,0
21,-69,0,0,0,0,0,0,0,0,0,-1,1245,1093,0,0
28,-69,0,0,0,0,0,0,0,0,0,-1,1252,1093,0,0
35,-69,0,0,0,0,0,0,0,0,0,-1,1259,1093,0,0
42,-69,0,0,0,0,0,0,0,0,0,-1,1266,1093,0,0
49,-69,0,0,0,0,0,0,0,0,0,-1,1273,1093,0,0
56,-69,0,0,0,0,0,0,0,0,0,-1,1280,1093,0,0
63,-69,0,0,0,0,0,0,0,0,0,-1,1287,1093,0,0
70,-69,0,0,0,0,0,0,0,0,0,-1,1294,1093,0,0
77,-69,0,0,0,0,0,0,0,0,0,-1,1301,1093,0,0
84,-69,0,0,0,0,0,0,0,0,0,-1,1308,1093,0,0
91,-69,0,0,0,0,0,0,0,0,0,-1,1315,1093,0,0
98,-69,0,0,0,0,0,0,0,0,0,-1,1322,1093,0,0
105,-69,0,0,0,0,0,0,0,0,0,-1,1329,1093,0,0
112,-69,0,0,0,0,0,0,0,0,0,-1,1336,1093,0,0
119,-69,0,0,0,0,0,0,0,0,0,-1,1343,1093,0,0
126,-69,0,0,0,0,0,0,0,0,0,-1,1350,1093,0,0
133,-69,0,0,0,0,0,0,0,0,0,-1,1357,1093,0,0
140,-69,0,0,0,0,0,0,0,0,0,-1,1364,1093,0,0
147,-69,0,0,0,0,0,0,0,0,0,-1,1371,1093,0,0
154,-69,0,0,0,0,0,0,0,0,0,-1,1378,1093,0,0
161,-69,0,0,0,0,0,0,0,0,0,-1,1385,1093,0,0
168,-69,0,0,0,0,0,0,0,0,0,-1,1392,1093,0,0
175,-69,0,0,0,0,0,0,0,0,0,-1,1399,1093,0,0
182,-69,0,0,0,0,0,0,0,0,0,-1,1406,1093,0,0
189,-69,0,0,0,0,0,0,0,0,0,-1,1413,1093,0,0
196,-69,0,0,0,0,0,0,0,0,0,-1,1420,1093,0,0
203,-69,0,0,0,0,0,0,0,0,0,-1,1427,1093,0,0
210,-69,0,0,0,0,0,0,0,0,0,-1,1434,1093,0,0
217,-69,0,0,0,0,0,0,0,0,0,-1,1441,1093,0,0
224,-69,0,0,0,0,0,0,0,0,0,-1,1448,1093,0,0
231,-69,0,0,0,0,0,0,0,0,0,-1,1455,1093,0,0
238,-69,0,0,0,0,0,0,0,0,0,-1,1462,1093,0,0
245,-69,0,0,0,0,0,0,0,0,0,-1,1469,1093,0,0
252,-69,0,0,0,0,0,0,0,0,0,-1,1476,1093,0,0
259,-69,0,0,0,0,0,0,0,0,0,-1,1483,1093,0,0
266,-69,0,0,0,0,0,0,0,0,0,-1,1490,1093,0,0
273,-69,0,0,0,0,0,0,0,0,0,-1,1497,1093,0,0
280,-69,0,0,0,0,0,0,0,0,0,-1,1504,1093,0,0
287,-69,0,0,0,0,0,0,0,0,0,-1,1511,1093,0,0
294,-69,0,0,0,0,0,0,0,0,0,-1,1518,1093,0,0
301,-69,0,0,0,0,0,0,0,0,0,-1,1525,1093,0,0
308,-69,0,0,0,0,0,0,0,0,0,-1,1532,1093,0,0
315,-69,0,0,0,0,0,0,0,0,0,-1,1539,1093,0,0
322,-69,0,0,0,0,0,0,0,0,0,-1,1546,1093,0,0
329,-69,0,0,0,0,0,0,0,0,0,-1,1553,1093,0,0
336,-69,0,0,0,0,0,0,0,0,0,-1,1560,1093,0,0
343,-69,0,0,0,0,0,0,0,0,0,-1,1567,1093,0,0
350,-69,0,0,0,0,0,0,0,0,0,-1,1574,1093,0,0
357,-69,0,0,0,0,0,0,0,0,0,-1,1581,1093,0,0
364,-69,0,0,0,0,0,0,0,0,0,-1,1588,1093,0,0
371,-69,0,0,0,0,0,0,0,0,0,-1,1595,1093,0,0
378,-69,0,0,0,0,0,0,0,0,0,-1,1602,1093,0,0
385,-69,0,0,0,0,0,0,0,0,0,-1,1609,1093,0,0
392,-69,0,0,0,0,0,0,0,0,0,-1,1616,1093,0,0
399,-69,0,0,0,0,0,0,0,0,0,-1,1623,1093,0,0
406,-69,0,0,0,0,0,0,0,0,0,-1,1630,1093,0,0
413,-69,0,0,0,0,0,0,0,0,0,-1,1637,1093,0,0
420,-69,0,0,0,0,0,0,0,0,0,-1,1644,1093,0,0
427,-69,0,0,0,0,0,0,0,0,0,-1,1651,1093,0,0
434,-69,0,0,0,0,0,0,0,0,0,-1,1658,1093,0,0
441,-69,0,0,0,0,0,0,0,0,0,-1,1665,1093,0,0
448,-69,0,0,0,0,0,0,0,0,0,-1,1672,1093,0,0
455,-69,0,0,0,0,0,0,0,0,0,-1,1679,1093,0,0
462,-69,0,0,0,0,0,0,0,0,0,-1,1686,1093,0,0
469,-69,0,0,0,0,0,0,0,0,0,-1,1693,1093,0,0
476,-69,0,0,0,0,0,0,0,0,0,-1,1700,1093,0,0
483,-69,0,0,0,0,0,0,0,0,0,-1,1707,1093,0,0
490,-69,0,0,0,0,0,0,0,0,0,-1,1714,1093,0,0
497,-69,0,0,0,0,0,0,0,0,0,-1,1721,1093,0,0
504,-69,0,0,0,0,0,0,0,0,0,-1,1728,1093,0,0
511,-69,0,0,0,0,0,0,0,0,0,-1,1735,1093,0,0
518,-69,0,0,0,0,0,0,0,0,0,-1,1742,1093,0,0
525,-69,0,0,0,0,0,0,0,0,0,-1,1749,1093,0,0
532,-69,0,0,0,0,0,0,0,0,0,-1,1756,1093,0,0
539,-69,0,0,0,0,0,0,0,0,0,-1,1763,1093,0,0
546,-69,0,0,0,0,0,0,0,0,0,-1,1770,1093,0,0
553,-69,0,0,0,0,0,0,0,0,0,-1,1777,1093,0,0
560,-69,0,0,0,0,0,0,0,0,0,-1,1784,1093,0,0
567,-69,0,0,0,0,0,0,0,0,0,-1,1791,1093,0,0
574,-69,0,0,0,0,0,0,0,0,0,-1,1798,1093,0,0
581,-69,0,0,0,0,0,0,0,0,0,-1,1805,1093,0,0
588,-69,0,0,0,0,0,0,0,0,0,-1,1812,1093,0,0
595,-69,0,0,0,0,0,0,0,0,0,-1,1819,1093,0,0
602,-69,0,0,0,0,0,0,0,0,0,-1,1826,1093,0,0
609,-69,0,0,0,0,0,0,0,0,0,-1,1833,1093,0,0
616,-69,0,0,0,0,0,0,0,0,0,-1,1840,1093,0,0
623,-69,0,0,0,0,0,0,0,0,0,-1,1847,1093,0,0
630,-69,0,0,0,0,0,0,0,0,0,-1,1854,1093,0,0
637,-69,0,0,0,0,0,0,0,0,0,-1,1861,1093,0,0
644,-69,0,0,0,0,0,0,0,0,0,-1,1868,1093,0,0
651,-69,77.5756,2.61304,0.00428834,-0.000581185,0.00121387,0.00457416,-0.000867,0.231246,0.00337576,0.0404194,1875,1093,77.5755,-2.61302
658,-69,77.6539,2.80261,0.003354,-0.000606939,0.000794127,0.00350729,-0.000760222,0.190675,0.0026285,0.0432522,1882,1093,77.654,-2.80257
665,-69,77.7523,2.64856,0.00258502,-0.000543381,0.000552778,0.00267982,-0.000638182,0.169847,0.00203294,0.0405728,1889,1093,77.7523,-2.64852
672,-69,77.7137,2.54382,0.00193928,-0.000384696,0.000379434,0.00199967,-0.000445077,0.157811,0.00150359,0.0357643,1896,1093,77.7138,-2.54385
679,-69,77.8218,2.58472,0.001347,-0.00025661,0.00030494,0.00140303,-0.000312639,0.181712,0.00105512,0.037343,1903,1093,77.8218,-2.58474
686,-69,77.9075,2.53662,0.000649017,-0.00034474,0.000293554,0.000729254,-0.000424977,0.266813,0.00067407,0.0389377,1910,1093,77.9074,-2.53664
693,-69,77.7944,2.42065,0.000123776,-0.000607774,0.000501288,0.00037855,-0.000862548,0.470217,0.000734486,0.0356123,1917,1093,77.7945,-2.42063
700,-69,77.759,2.34863,-0.000198385,-0.000696205,0.000755834,0.00034847,-0.00124306,0.626332,0.000966045,0.0279789,1924,1093,77.7591,-2.34869
707,-69,77.7404,2.41394,-0.000723982,-0.000572446,0.00103054,0.00038511,-0.00168154,0.822093,0.00126903,0.0244506,1931,1093,77.7404,-2.41391
714,-69,77.7644,2.35095,-0.00139873,-0.000197418,0.00137924,0.000706283,-0.00230243,0.990763,0.00181674,0.0399284,1938,1093,77.7644,-2.35094
721,-69,77.7848,2.25952,0,0,0,0,0,0,0,-1,1945,1093,77.7847,-2.25953
728,-69,74.5859,9.21143,0,0,0,0,0,0,0,-1,1952,1093,74.586,-9.21147
735,-69,74.9279,8.64221,-0.00430825,0.00211532,0.00219686,0.00279478,-0.0049877,1.27084,0.00455229,0.0476667,1959,1093,74.9279,-8.64219
742,-69,74.8149,8.26636,-0.00527692,0.00315831,0.00213887,0.00366965,-0.00578826,1.33613,0.005506,0.0349654,1966,1093,74.8149,-8.26631
749,-69,74.6158,7.70728,-0.00591041,0.00486992,0.0015234,0.00508106,-0.00612155,1.43308,0.00647712,0.0360739,1973,1093,74.6158,-7.70724
756,-69,74.6968,7.19263,-0.00615145,0.00662212,0.000489254,0.00664083,-0.00617016,1.53257,0.0073981,0.0178576,1980,1093,74.6968,-7.19262
763,-69,74.6455,6.66553,-0.00536147,0.00991191,-0.00233098,0.0102597,-0.0057093,-1.42267,0.00934367,0.0210206,1987,1093,74.6455,-6.66553
770,-69,74.5269,6.20093,-0.00367608,0.0138593,-0.00648486,0.0159969,-0.00581371,-1.25238,0.0130418,0.0238536,1994,1093,74.5268,-6.20097
777,-69,74.3318,5.77051,-0.000104038,0.0185765,-0.0126386,0.0249517,-0.00647922,-1.10362,0.0191629,0.0293046,2001,1093,74.3317,-5.77053
784,-69,74.2573,5.20923,0.00513023,0.023589,-0.0202368,0.0366017,-0.00788246,-0.999343,0.0274091,0.0354823,2008,1093,74.2574,-5.20925
791,-69,74.2139,4.60327,0.0125251,0.0290869,-0.0297753,0.0517114,-0.0100994,-0.921027,0.0382874,0.0456586,2015,1093,74.2138,-4.6033
798,-69,74.1382,4.05396,0.0231022,0.0353325,-0.0419827,0.0716431,-0.0132084,-0.857719,0.0527193,0.0467884,2022,1093,74.1381,-4.05396
805,-69,73.5708,3.76416,0.0379317,0.0427974,-0.0574126,0.0978286,-0.0170995,-0.806573,0.0716028,0.0457681,2029,1093,73.5707,-3.76418
812,-69,75.4575,1.26343,0.0576327,0.052201,-0.0767404,0.131705,-0.0218716,-0.767711,0.0959288,0.0460249,2036,1093,75.4576,-1.26342
-700,-76,0,0,0,0,0,0,0,0,0,-1,524,1100,0,0
-693,-76,-60.0343,1.87805,0.112946,0.0037419,-0.0202993,0.116597,9.06438e-05,-0.177968,0.0777012,0.0424936,531,1100,-60.0343,-1.87809
-686,-76,-59.547,1.67175,0.0909813,0.00625718,-0.0177826,0.0945623,0.00267619,-0.198719,0.0621687,0.0455878,538,1100,-59.547,-1.67176
-679,-76,-59.0783,1.74158,0.0719367,0.00804693,-0.01511,0.07533,0.00465362,-0.220909,0.0487429,0.04925,545,1100,-59.0783,-1.7416
-672,-76,-58.581,1.89319,0.0555619,0.00925261,-0.0125539,0.0587461,0.00606837,-0.248408,0.0373062,0.0485741,552,1100,-58.5809,-1.89322
-665,-76,-58.5092,2.02441,0.0414218,0.00994435,-0.01028,0.0444816,0.00688451,-0.289299,0.0276468,0.0495512,559,1100,-58.5092,-2.02444
-658,-76,-57.8795,2.573,0,0,0,0,0,0,0,-1,566,1100,-57.8795,-2.57301
-651,-76,-55.1196,3.9519,0,0,0,0,0,0,0,-1,573,1100,-55.1196,-3.95193
-644,-76,-58.4312,4.60425,0,0,0,0,0,0,0,-1,580,1100,-58.4312,-4.6043
-637,-76,-58.5029,5.16956,0.00443106,0.0075975,-0.00459531,0.0108747,0.00115388,-0.951294,0.00689741,0.0240313,587,1100,-58.5029,-5.16951
-630,-76,-58.525,5.68542,-0.00102303,0.00579725,-0.00346304,0.00724732,-0.0024731,-1.17425,0.00583336,0.015736,594,1100,-58.525,-5.68538
-623,-76,-58.5659,6.19678,-0.00381608,0.00341271,-0.00266822,0.00429089,-0.00469426,-1.25284,0.00518932,0.0234644,601,1100,-58.5659,-6.19672
-616,-76,-58.6689,6.7981,-0.00355134,0.00183307,-0.00229158,0.0026763,-0.00439457,-1.2182,0.00412235,0.025035,608,1100,-58.6689,-6.79811
-609,-76,-58.6879,7.31946,-0.00259089,0.000872545,-0.00256381,0.00223469,-0.00395303,-1.08243,0.00361811,0.0229858,615,1100,-58.6879,-7.31946
-602,-76,-58.6013,7.88953,-0.0015769,0.000512753,-0.00316087,0.00279701,-0.00386115,-0.94502,0.00386042,0.0223877,622,1100,-58.6013,-7.88955
-595,-76,-58.6204,8.32117,-0.00109011,0.000370951,-0.00324216,0.00296386,-0.00368303,-0.896209,0.00384506,0.0420333,629,1100,-58.6204,-8.32116
-588,-76,-58.7842,8.73096,0,0,0,0,0,0,0,-1,636,1100,-58.7842,-8.73093
-581,-76,-61.3663,0.469849,0,0,0,0,0,0,0,-1,643,1100,-61.3664,-0.469866
-574,-76,-61.4606,0.495605,0.000483838,-0.000153388,-0.0024462,0.00263208,-0.00230163,-0.720639,0.00285061,0.0375893,650,1100,-61.4606,-0.495637
-567,-76,-61.5269,0.771973,0.000961663,8.20185e-05,-0.0021709,0.00273685,-0.00169317,-0.685451,0.00258122,0.0444677,657,1100,-61.5269,-0.772
-560,-76,-61.447,0.815552,0.00124092,0.000543102,-0.00171575,0.00264288,-0.000858857,-0.685088,0.00210737,0.0442822,664,1100,-61.447,-0.8155
-553,-76,-61.447,0.418579,0.00123377,0.00102071,-0.000823231,0.00195733,0.000297143,-0.721053,0.00121798,0.0443795,671,1100,-61.447,-0.418618
-546,-76,-61.4149,0.483887,0.00136825,0.00114624,0.00067678,0.00194307,0.000571424,0.704113,0.00115311,0.0422254,678,1100,-61.4149,-0.483877
-539,-76,-61.4371,0.639282,0.00217567,0.000166766,0.00259979,0.0039583,-0.00161586,0.601052,0.00331161,0.0403256,685,1100,-61.4371,-0.639308
-532,-76,-61.2605,0.833984,0.00295234,-0.000724268,0.00457351,0.00604317,-0.0038151,0.594307,0.00573992,0.0422754,692,1100,-61.2605,-0.833945
-525,-76,0,0,0,0,0,0,0,0,0,-1,699,1100,0,0
-518,-76,0,0,0,0,0,0,0,0,0,-1,706,1100,0,0
-511,-76,0,0,0,0,0,0,0,0,0,-1,713,1100,0,0
-504,-76,0,0,0,0,0,0,0,0,0,-1,720,1100,0,0
-497,-76,0,0,0,0,0,0,0,0,0,-1,727,1100,0,0
-490,-76,0,0,0,0,0,0,0,0,0,-1,734,1100,0,0
-483,-76,0,0,0,0,0,0,0,0,0,-1,741,1100,0,0
-476,-76,0,0,0,0,0,0,0,0,0,-1,748,1100,0,0
-469,-76,0,0,0,0,0,0,0,0,0,-1,755,1100,0,0
-462,-76,0,0,0,0,0,0,0,0,0,-1,762,1100,0,0
-455,-76,0,0,0,0,0,0,0,0,0,-1,769,1100,0,0
-448,-76,0,0,0,0,0,0,0,0,0,-1,776,1100,0,0
-441,-76,0,0,0,0,0,0,0,0,0,-1,783,1100,0,0
-434,-76,0,0,0,0,0,0,0,0,0,-1,790,1100,0,0
-427,-76,0,0,0,0,0,0,0,0,0,-1,797,1100,0,0
-420,-76,0,0,0,0,0,0,0,0,0,-1,804,1100,0,0
-413,-76,0,0,0,0,0,0,0,0,0,-1,811,1100,0,0
-406,-76,0,0,0,0,0,0,0,0,0,-1,818,1100,0,0
-399,-76,0,0,0,0,0,0,0,0,0,-1,825,1100,0,0
-392,-76,0,0,0,0,0,0,0,0,0,-1,832,1100,0,0
-385,-76,0,0,0,0,0,0,0,0,0,-1,839,1100,0,0
-378,-76,0,0,0,0,0,0,0,0,0,-1,846,1100,0,0
-371,-76,0,0,0,0,0,0,0,0,0,-1,853,1100,0,0
-364,-76,0,0,0,0,0,0,0,0,0,-1,860,1100,0,0
-357,-76,0,0,0,0,0,0,0,0,0,-1,867,1100,0,0
-350,-76,0,0,0,0,0,0,0,0,0,-1,874,1100,0,0
-343,-76,0,0,0,0,0,0,0,0,0,-1,881,1100,0,0
-336,-76,0,0,0,0,0,0,0,0,0,-1,888,1100,0,0
-329,-76,0,0,0,0,0,0,0,0,0,-1,895,1100,0,0
-322,-76,0,0,0,0,0,0,0,0,0,-1,902,1100,0,0
-315,-76,0,0,0,0,0,0,0,0,0,-1,909,1100,0,0
-308,-76,0,0,0,0,0,0,0,0,0,-1,916,1100,0,0
-301,-76,0,0,0,0,0,0,0,0,0,-1,923,1100,0,0
-294,-76,0,0,0,0,0,0,0,0,0,-1,930,1100,0,0
-287,-76,0,0,0,0,0,0,0,0,0,-1,937,1100,0,0
-280,-76,0,0,0,0,0,0,0,0,0,-1,944,1100,0,0
-273,-76,0,0,0,0,0,0,0,0,0,-1,951,1100,0,0
-266,-76,0,0,0,0,0,0,0,0,0,-1,958,1100,0,0
-259,-76,0,0,0,0,0,0,0,0,0,-1,965,1100,0,0
-252,-76,0,0,0,0,0,0,0,0,0,-1,972,1100,0,0
-245,-76,0,0,0,0,0,0,0,0,0,-1,979,1100,0,0
-238,-76,0,0,0,0,0,0,0,0,0,-1,986,1100,0,0
-231,-76,0,0,0,0,0,0,0,0,0,-1,993,1100,0,0
-224,-76,0,0,0,0,0,0,0,0,0,-1,1000,1100,0,0
-217,-76,0,0,0,0,0,0,0,0,0,-1,1007,1100,0,0
-210,-76,0,0,0,0,0,0,0,0,0,-1,1014,1100,0,0
-203,-76,0,0,0,0,0,0,0,0,0,-1,1021,1100,0,0
-196,-76,0,0,0,0,0,0,0,0,0,-1,1028,1100,0,0
-189,-76,0,0,0,0,0,0,0,0,0,-1,1035,1100,0,0
-182,-76,0,0,0,0,0,0,0,0,0,-1,1042,1100,0,0
-175,-76,0,0,0,0,0,0,0,0,0,-1,1049,1100,0,0
-168,-76,0,0,0,0,0,0,0,0,0,-1,1056,1100,0,0
-161,-76,0,0,0,0,0,0,0,0,0,-1,1063,1100,0,0
-154,-76,0,0,0,0,0,0,0,0,0,-1,1070,1100,0,0
-147,-76,0,0,0,0,0,0,0,0,0,-1,1077,1100,0,0
-140,-76,0,0,0,0,0,0,0,0,0,-1,1084,1100,0,0
-133,-76,0,0,0,0,0,0,0,0,0,-1,1091,1100,0,0
-126,-76,0,0,0,0,0,0,0,0,0,-1,1098,1100,0,0
-119,-76,0,0,0,0,0,0,0,0,0,-1,1105,1100,0,0
-112,-76,0,0,0,0,0,0,0,0,0,-1,1112,1100,0,0
-105,-76,0,0,0,0,0,0,0,0,0,-1,1119,1100,0,0
-98,-76,0,0,0,0,0,0,0,0,0,-1,1126,1100,0,0
-91,-76,0,0,0,0,0,0,0,0,0,-1,1133,1100,0,0
-84,-76,0,0,0,0,0,0,0,0,0,-1,1140,1100,0,0
-77,-76,0,0,0,0,0,0,0,0,0,-1,1147,1100,0,0
-70,-76,0,0,0,0,0,0,0,0,0,-1,1154,1100,0,0
-63,-76,0,0,0,0,0,0,0,0,0,-1,1161,1100,0,0
-56,-76,0,0,0,0,0,0,0,0,0,-1,1168,1100,0,0
-49,-76,0,0,0,0,0,0,0,0,0,-1,1175,1100,0,0
-42,-76,0,0,0,0,0,0,0,0,0,-1,1182,1100,0,0
-35,-76,0,0,0,0,0,0,0,0,0,-1,1189,1100,0,0
-28,-76,0,0,0,0,0,0,0,0,0,-1,1196,1100,0,0
-21,-76,0,0,0,0,0,0,0,0,0,-1,1203,1100,0,0
-14,-76,0,0,0,0,0,0,0,0,0,-1,1210,1100,0,0
-7,-76,0,0,0,0,0,0,0,0,0,-1,1217,1100,0,0
0,-76,0,0,0,0,0,0,0,0,0,-1,1224,1100,0,0
7,-76,0,0,0,0,0,0,0,0,0,-1,1231,1100,0,0
14,-76,0,0,0,0,0,0,0,0,0,-1,1238,1100,0,0
21,-76,0,0,0,0,0,0,0,0,0,-1,1245,1100,0,0
28,-76,0,0,0,0,0,0,0,0,0,-1,1252,1100,0,0
35,-76,0,0,0,0,0,0,0,0,0,-1,1259,1100,0,0
42,-76,0,0,0,0,0,0,0,0,0,-1,1266,1100,0,0
49,-76,0,0,0,0,0,0,0,0,0,-1,1273,1100,0,0
56,-76,0,0,0,0,0,0,0,0,0,-1,1280,1100,0,0
63,-76,0,0,0,0,0,0,0,0,0,-1,1287,1100,0,0
70,-76,0,0,0,0,0,0,0,0,0,-1,1294,1100,0,0
77,-76,0,0,0,0,0,0,0,0,0,-1,1301,1100,0,0
84,-76,0,0,0,0,0,0,0,0,0,-1,1308,1100,0,0
91,-76,0,0,0,0,0,0,0,0,0,-1,1315,1100,0,0
98,-76,0,0,0,0,0,0,0,0,0,-1,1322,1100,0,0
105,-76,0,0,0,0,0,0,0,0,0,-1,1329,1100,0,0
112,-76,0,0,0,0,0,0,0,0,0,-1,1336,1100,0,0
119,-76,0,0,0,0,0,0,0,0,0,-1,1343,1100,0,0
126,-76,0,0,0,0,0,0,0,0,0,-1,1350,1100,0,0
133,-76,0,0,0,0,0,0,0,0,0,-1,1357,1100,0,0
140,-76,0,0,0,0,0,0,0,0,0,-1,1364,1100,0,0
147,-76,0,0,0,0,0,0,0,0,0,-1,1371,1100,0,0
154,-76,0,0,0,0,0,0,0,0,0,-1,1378,1100,0,0
161,-76,0,0,0,0,0,0,0,0,0,-1,1385,1100,0,0
168,-76,0,0,0,0,0,0,0,0,0,-1,1392,1100,0,0
175,-76,0,0,0,0,0,0,0,0,0,-1,1399,1100,0,0
182,-76,0,0,0,0,0,0,0,0,0,-1,1406,1100,0,0
189,-76,0,0,0,0,0,0,0,0,0,-1,1413,1100,0,0
196,-76,0,0,0,0,0,0,0,0,0,-1,1420,1100,0,0
203,-76,0,0,0,0,0,0,0,0,0,-1,1427,1100,0,0
210,-76,0,0,0,0,0,0,0,0,0,-1,1434,1100,0,0
217,-76,0,0,0,0,0,0,0,0,0,-1,1441,1100,0,0
224,-76,0,0,0,0,0,0,0,0,0,-1,1448,1100,0,0
231,-76,0,0,0,0,0,0,0,0,0,-1,1455,1100,0,0
238,-76,0,0,0,0,0,0,0,0,0,-1,1462,1100,0,0
245,-76,0,0,0,0,0,0,0,0,0,-1,1469,1100,0,0
252,-76,0,0,0,0,0,0,0,0,0,-1,1476,1100,0,0
259,-76,0,0,0,0,0,0,0,0,0,-1,1483,1100,0,0
266,-76,0,0,0,0,0,0,0,0,0,-1,1490,1100,0,0
273,-76,0,0,0,0,0,0,0,0,0,-1,1497,1100,0,0
280,-76,0,0,0,0,0,0,0,0,0,-1,1504,1100,0,0
287,-76,0,0,0,0,0,0,0,0,0,-1,1511,1100,0,0
294,-76,0,0,0,0,0,0,0,0,0,-1,1518,1100,0,0
301,-76,0,0,0,0,0,0,0,0,0,-1,1525,1100,0,0
308,-76,0,0,0,0,0,0,0,0,0,-1,1532,1100,0,0
315,-76,0,0,0,0,0,0,0,0,0,-1,1539,1100,0,0
322,-76,0,0,0,0,0,0,0,0,0,-1,1546,1100,0,0
329,-76,0,0,0,0,0,0,0,0,0,-1,1553,1100,0,0
336,-76,0,0,0,0,0,0,0,0,0,-1,1560,1100,0,0
343,-76,0,0,0,0,0,0,0,0,0,-1,1567,1100,0,0
350,-76,0,0,0,0,0,0,0,0,0,-1,1574,1100,0,0
357,-76,0,0,0,0,0,0,0,0,0,-1,1581,1100,0,0
364,-76,0,0,0,0,0,0,0,0,0,-1,1588,1100,0,0
371,-76,0,0,0,0,0,0,0,0,0,-1,1595,1100,0,0
378,-76,0,0,0,0,0,0,0,0,0,-1,1602,1100,0,0
385,-76,0,0,0,0,0,0,0,0,0,-1,1609,1100,0,0
392,-76,0,0,0,0,0,0,0,0,0,-1,1616,1100,0,0
399,-76,0,0,0,0,0,0,0,0,0,-1,1623,1100,0,0
406,-76,0,0,0,0,0,0,0,0,0,-1,1630,1100,0,0
413,-76,0,0,0,0,0,0,0,0,0,-1,1637,1100,0,0
420,-76,0,0,0,0,0,0,0,0,0,-1,1644,1100,0,0
427,-76,0,0,0,0,0,0,0,0,0,-1,1651,1100,0,0
434,-76,0,0,0,0,0,0,0,0,0,-1,1658,1100,0,0
441,-76,0,0,0,0,0,0,0,0,0,-1,1665,1100,0,0
448,-76,0,0,0,0,0,0,0,0,0,-1,1672,1100,0,0
455,-76,0,0,0,0,0,0,0,0,0,-1,1679,1100,0,0
462,-76,0,0,0,0,0,0,0,0,0,-1,1686,1100,0,0
469,-76,0,0,0,0,0,0,0,0,0,-1,1693,1100,0,0
476,-76,0,0,0,0,0,0,0,0,0,-1,1700,1100,0,0
483,-76,0,0,0,0,0,0,0,0,0,-1,1707,1100,0,0
490,-76,0,0,0,0,0,0,0,0,0,-1,1714,1100,0,0
497,-76,0,0,0,0,0,0,0,0,0,-1,1721,1100,0,0
504,-76,0,0,0,0,0,0,0,0,0,-1,1728,1100,0,0
511,-76,0,0,0,0,0,0,0,0,0,-1,1735,1100,0,0
518,-76,0,0,0,0,0,0,0,0,0,-1,1742,1100,0,0
525,-76,0,0,0,0,0,0,0,0,0,-1,1749,1100,0,0
532,-76,0,0,0,0,0,0,0,0,0,-1,1756,1100,0,0
539,-76,0,0,0,0,0,0,0,0,0,-1,1763,1100,0,0
546,-76,0,0,0,0,0,0,0,0,0,-1,1770,1100,0,0
553,-76,0,0,0,0,0,0,0,0,0,-1,1777,1100,0,0
560,-76,0,0,0,0,0,0,0,0,0,-1,1784,1100,0,0
567,-76,0,0,0,0,0,0,0,0,0,-1,1791,1100,0,0
574,-76,0,0,0,0,0,0,0,0,0,-1,1798,1100,0,0
581,-76,0,0,0,0,0,0,0,0,0,-1,1805,1100,0,0
588,-76,0,0,0,0,0,0,0,0,0,-1,1812,1100,0,0
595,-76,0,0,0,0,0,0,0,0,0,-1,1819,1100,0,0
602,-76,0,0,0,0,0,0,0,0,0,-1,1826,1100,0,0
609,-76,0,0,0,0,0,0,0,0,0,-1,1833,1100,0,0
616,-76,0,0,0,0,0,0,0,0,0,-1,1840,1100,0,0
623,-76,0,0,0,0,0,0,0,0,0,-1,1847,1100,0,0
630,-76,0,0,0,0,0,0,0,0,0,-1,1854,1100,0,0
637,-76,0,0,0,0,0,0,0,0,0,-1,1861,1100,0,0
644,-76,0,0,0,0,0,0,0,0,0,-1,1868,1100,0,0
651,-76,77.5415,2.39246,0.00489459,-0.000651389,0.00167865,0.0053631,-0.0011199,0.272175,0.00400129,0.039696,1875,1100,77.5415,-2.3924
658,-76,77.5554,2.50269,0.00378435,-0.000618929,0.00111259,0.0040495,-0.000884085,0.233958,0.00303756,0.0420868,1882,1100,77.5554,-2.50268
665,-76,77.6909,2.53406,0.00290499,-0.000514878,0.000723896,0.00305191,-0.000661796,0.200235,0.00228734,0.0369491,1889,1100,77.6909,-2.53409
672,-76,77.6957,2.49597,0.00219596,-0.000347308,0.000423335,0.00226457,-0.000415923,0.160683,0.00166576,0.0358375,1896,1100,77.6957,-2.49593
679,-76,77.7231,2.44104,0.00160139,-0.000258633,0.000251828,0.00163488,-0.000292125,0.132219,0.00119921,0.0392123,1903,1100,77.7232,-2.44101
686,-76,77.8168,2.38782,0.00100405,-0.000343625,0.000166232,0.00102425,-0.000363827,0.120933,0.00083109,0.0374534,1910,1100,77.8168,-2.38785
693,-76,77.7863,2.34351,0.000575238,-0.000599461,0.000342356,0.000667732,-0.000691955,0.263869,0.000785057,0.0368462,1917,1100,77.7863,-2.34354
700,-76,77.7606,2.35986,0.000320277,-0.000701115,0.000558328,0.000566245,-0.000947083,0.414963,0.000882894,0.0318289,1924,1100,77.7606,-2.35988
707,-76,77.7511,2.44788,-0.000142884,-0.000570183,0.000810751,0.000481896,-0.00119496,0.656567,0.000996885,0.0263127,1931,1100,77.7511,-2.44794
714,-76,77.7823,2.4165,0,0,0,0,0,0,0,-1,1938,1100,77.7823,-2.41653
721,-76,45.1713,3.04919,0,0,0,0,0,0,0,-1,1945,1100,45.1713,-3.04915
728,-76,60.937,8.08447,0,0,0,0,0,0,0,-1,1952,1100,60.937,-8.08446
735,-76,74.119,8.94104,0,0,0,0,0,0,0,-1,1959,1100,74.119,-8.94102
742,-76,74.1732,8.34497,-0.00439994,0.00287987,0.00186382,0.00332931,-0.00484937,1.33417,0.00474907,0.0361355,1966,1100,74.1732,-8.34494
749,-76,74.0277,7.74231,-0.00505687,0.00454973,0.00127687,0.00471655,-0.00522369,1.44088,0.00574149,0.0333445,1973,1100,74.0277,-7.74233
756,-76,74.1003,7.203,-0.00534728,0.00629289,0.00026226,0.0062988,-0.00535319,1.54828,0.00673466,0.0181366,1980,1100,74.1004,-7.20299
763,-76,74.0396,6.63013,-0.00450071,0.00952452,-0.00259515,0.00998931,-0.0049655,-1.39358,0.00879506,0.0189515,1987,1100,74.0396,-6.63011
770,-76,73.9158,6.1377,-0.0026882,0.0134593,-0.00688168,0.0159942,-0.00522308,-1.21787,0.0127651,0.0200854,1994,1100,73.9158,-6.13764
777,-76,73.7478,5.74121,0.000956512,0.0180695,-0.0130168,0.0250902,-0.00606422,-1.07616,0.0190723,0.0240699,2001,1100,73.7479,-5.74117
784,-76,73.6331,5.12329,0.00628025,0.0229629,-0.0205161,0.0367685,-0.00752536,-0.978479,0.0273679,0.0360439,2008,1100,73.633,-5.12325
791,-76,73.373,4.16553,0.0138118,0.0282968,-0.0298613,0.0517814,-0.00967278,-0.90437,0.0381561,0.0425734,2015,1100,73.373,-4.16554
798,-76,73.1646,3.43237,0.0244807,0.0342908,-0.0416681,0.0713416,-0.0125701,-0.843987,0.0522575,0.0458867,2022,1100,73.1645,-3.43237
805,-76,72.9307,2.75684,0,0,0,0,0,0,0,-1,2029,1100,72.9307,-2.75681
812,-76,74.9221,0.974487,0,0,0,0,0,0,0,-1,2036,1100,74.9222,-0.974493
-700,-83,0,0,0,0,0,0,0,0,0,-1,524,1107,0,0
-693,-83,-59.2985,1.48267,0.116162,0.0122269,-0.0412784,0.130561,-0.00217221,-0.335631,0.0877736,0.0464088,531,1107,-59.2985,-1.48261
-686,-83,-58.6203,1.52307,0.0926837,0.0117613,-0.0338226,0.104958,-0.000513475,-0.348134,0.0701441,0.0460218,538,1107,-58.6203,-1.52302
-679,-83,-58.0369,1.86719,0.0728019,0.0112937,-0.0272245,0.0831207,0.000974797,-0.362298,0.0550918,0.047625,545,1107,-58.0369,-1.86723
-672,-83,-56.9741,1.1886,0.0559548,0.0108379,-0.0215965,0.0646261,0.00216666,-0.381808,0.0423803,0.0453199,552,1107,-56.9741,-1.18858
-665,-83,-57.1345,1.8031,0.0413964,0.0103879,-0.0169325,0.0488507,0.00293366,-0.414702,0.0316346,0.0466553,559,1107,-57.1345,-1.80308
-658,-83,-57.4027,2.5752,0.0291548,0.00979687,-0.0130716,0.0357408,0.00321085,-0.466715,0.0228323,0.0499279,566,1107,-57.4027,-2.57518
-651,-83,-57.4919,3.5155,0,0,0,0,0,0,0,-1,573,1107,-57.4919,-3.51555
-644,-83,-57.5928,4.62195,0.0107864,0.00783124,-0.00782462,0.0172717,0.0013459,-0.692079,0.0110931,0.0333781,580,1107,-57.5928,-4.622
-637,-83,-57.848,5.10852,0.00352628,0.00645238,-0.00545654,0.0106386,-0.000659948,-0.916381,0.00732231,0.01632,587,1107,-57.848,-5.1085
-630,-83,-57.8845,5.67639,-0.00198499,0.00463092,-0.00356192,0.00618401,-0.00353809,-1.15962,0.00568193,0.0178069,594,1107,-57.8845,-5.67644
-623,-83,-57.9507,6.21289,-0.00473897,0.00234888,-0.00245205,0.00311447,-0.00550457,-1.26816,0.00503958,0.0239156,601,1107,-57.9507,-6.21291
-616,-83,-58.1128,6.81189,-0.00449199,0.0012362,-0.00218102,0.00197209,-0.00522788,-1.24538,0.00429624,0.0207556,608,1107,-58.1128,-6.81184
-609,-83,-58.069,7.33118,-0.00346476,0.000670956,-0.00247437,0.00182778,-0.00462158,-1.13347,0.00383823,0.024951,615,1107,-58.069,-7.33112
-602,-83,-58.0418,7.94714,-0.00235557,0.000574422,-0.00304994,0.00249297,-0.00427412,-1.00929,0.00395183,0.0209364,622,1107,-58.0418,-7.94714
-595,-83,-57.951,8.53943,-0.00178299,0.00064485,-0.00313189,0.00278985,-0.00392798,-0.970284,0.00389705,0.0301054,629,1107,-57.951,-8.53943
-588,-83,-58.042,8.95166,0,0,0,0,0,0,0,-1,636,1107,-58.042,-8.95171
-581,-83,-61.3668,0.498291,0,0,0,0,0,0,0,-1,643,1107,-61.3668,-0.498233
-574,-83,-61.3624,0.404297,2.77364e-05,5.53153e-05,-0.00237435,0.00241591,-0.00233286,-0.788302,0.00274184,0.0393342,650,1107,-61.3624,-0.404243
-567,-83,-61.5898,0.17334,0.000696207,0.000250455,-0.00219323,0.00267785,-0.00173119,-0.734762,0.00256505,0.0453695,657,1107,-61.5898,-0.173376
-560,-83,-61.5902,0.192017,0.0011866,0.000680763,-0.00184866,0.00279956,-0.0009322,-0.717415,0.00224265,0.0446811,664,1107,-61.5902,-0.191985
-553,-83,-61.4311,0.358887,0.00126977,0.00112994,-0.00103357,0.00223579,0.000163922,-0.751628,0.001439,0.0441233,671,1107,-61.4311,-0.358855
-546,-83,-61.2927,0.493164,0.00136148,0.00124275,0.000468205,0.00177407,0.00083016,0.722337,0.00102496,0.0414491,678,1107,-61.2927,-0.49313
-539,-83,-61.3116,0.588135,0.00201707,0.000285703,0.00243108,0.003732,-0.00142923,0.614353,0.00307711,0.0416565,685,1107,-61.3116,-0.588124
-532,-83,-61.2389,0.673096,0.00264563,-0.000690396,0.00443383,0.00571482,-0.00375959,0.605487,0.00550875,0.0459129,692,1107,-61.2389,-0.673117
-525,-83,0,0,0,0,0,0,0,0,0,-1,699,1107,0,0
-518,-83,0,0,0,0,0,0,0,0,0,-1,706,1107,0,0
-511,-83,0,0,0,0,0,0,0,0,0,-1,713,1107,0,0
-504,-83,0,0,0,0,0,0,0,0,0,-1,720,1107,0,0
-497,-83,0,0,0,0,0,0,0,0,0,-1,727,1107,0,0
-490,-83,0,0,0,0,0,0,0,0,0,-1,734,1107,0,0
-483,-83,0,0,0,0,0,0,0,0,0,-1,741,1107,0,0
-476,-83,0,0,0,0,0,0,0,0,0,-1,748,1107,0,0
-469,-83,0,0,0,0,0,0,0,0,0,-1,755,1107,0,0
-462,-83,0,0,0,0,0,0,0,0,0,-1,762,1107,0,0
-455,-83,0,0,0,0,0,0,0,0,0,-1,769,1107,0,0
-448,-83,0,0,0,0,0,0,0,0,0,-1,776,1107,0,0
-441,-83,0,0,0,0,0,0,0,0,0,-1,783,1107,0,0
-434,-83,0,0,0,0,0,0,0,0,0,-1,790,1107,0,0
-427,-83,0,0,0,0,0,0,0,0,0,-1,797,1107,0,0
-420,-83,0,0,0,0,0,0,0,0,0,-1,804,1107,0,0
-413,-83,0,0,0,0,0,0,0,0,0,-1,811,1107,0,0
-406,-83,0,0,0,0,0,0,0,0,0,-1,818,1107,0,0
-399,-83,0,0,0,0,0,0,0,0,0,-1,825,1107,0,0
-392,-83,0,0,0,0,0,0,0,0,0,-1,832,1107,0,0
-385,-83,0,0,0,0,0,0,0,0,0,-1,839,1107,0,0
-378,-83,0,0,0,0,0,0,0,0,0,-1,846,1107,0,0
-371,-83,0,0,0,0,0,0,0,0,0,-1,853,1107,0,0
-364,-83,0,0,0,0,0,0,0,0,0,-1,860,1107,0,0
-357,-83,0,0,0,0,0,0,0,0,0,-1,867,1107,0,0
-350,-83,0,0,0,0,0,0,0,0,0,-1,874,1107,0,0
-343,-83,0,0,0,0,0,0,0,0,0,-1,881,1107,0,0
-336,-83,0,0,0,0,0,0,0,0,0,-1,888,1107,0,0
-329,-83,0,0,0,0,0,0,0,0,0,-1,895,1107,0,0
-322,-83,0,0,0,0,0,0,0,0,0,-1,902,1107,0,0
-315,-83,0,0,0,0,0,0,0,0,0,-1,909,1107,0,0
-308,-83,0,0,0,0,0,0,0,0,0,-1,916,1107,0,0
-301,-83,0,0,0,0,0,0,0,0,0,-1,923,1107,0,0
-294,-83,0,0,0,0,0,0,0,0,0,-1,930,1107,0,0
-287,-83,0,0,0,0,0,0,0,0,0,-1,937,1107,0,0
-280,-83,0,0,0,0,0,0,0,0,0,-1,944,1107,0,0
-273,-83,0,0,0,0,0,0,0,0,0,-1,951,1107,0,0
-266,-83,0,0,0,0,0,0,0,0,0,-1,958,1107,0,0
-259,-83,0,0,0,0,0,0,0,0,0,-1,965,1107,0,0
-252,-83,0,0,0,0,0,0,0,0,0,-1,972,1107,0,0
-245,-83,0,0,0,0,0,0,0,0,0,-1,979,1107,0,0
-238,-83,0,0,0,0,0,0,0,0,0,-1,986,1107,0,0
-231,-83,0,0,0,0,0,0,0,0,0,-1,993,1107,0,0
-224,-83,0,0,0,0,0,0,0,0,0,-1,1000,1107,0,0
-217,-83,0,0,0,0,0,0,0,0,0,-1,1007,1107,0,0
-210,-83,0,0,0,0,0,0,0,0,0,-1,1014,1107,0,0
-203,-83,0,0,0,0,0,0,0,0,0,-1,1021,1107,0,0
-196,-83,0,0,0,0,0,0,0,0,0,-1,1028,1107,0,0
-189,-83,0,0,0,0,0,0,0,0,0,-1,1035,1107,0,0
-182,-83,0,0,0,0,0,0,0,0,0,-1,1042,1107,0,0
-175,-83,0,0,0,0,0,0,0,0,0,-1,1049,1107,0,0
-168,-83,0,0,0,0,0,0,0,0,0,-1,1056,1107,0,0
-161,-83,0,0,0,0,0,0,0,0,0,-1,1063,1107,0,0
-154,-83,0,0,0,0,0,0,0,0,0,-1,1070,1107,0,0
-147,-83,0,0,0,0,0,0,0,0,0,-1,1077,1107,0,0
-140,-83,0,0,0,0,0,0,0,0,0,-1,1084,1107,0,0
-133,-83,0,0,0,0,0,0,0,0,0,-1,1091,1107,0,0
-126,-83,0,0,0,0,0,0,0,0,0,-1,1098,1107,0,0
-119,-83,0,0,0,0,0,0,0,0,0,-1,1105,1107,0,0
-112,-83,0,0,0,0,0,0,0,0,0,-1,1112,1107,0,0
-105,-83,0,0,0,0,0,0,0,0,0,-1,1119,1107,0,0
-98,-83,0,0,0,0,0,0,0,0,0,-1,1126,1107,0,0
-91,-83,0,0,0,0,0,0,0,0,0,-1,1133,1107,0,0
-84,-83,0,0,0,0,0,0,0,0,0,-1,1140,1107,0,0
-77,-83,0,0,0,0,0,0,0,0,0,-1,1147,1107,0,0
-70,-83,0,0,0,0,0,0,0,0,0,-1,1154,1107,0,0
-63,-83,0,0,0,0,0,0,0,0,0,-1,1161,1107,0,0
-56,-83,0,0,0,0,0,0,0,0,0,-1,1168,1107,0,0
-49,-83,0,0,0,0,0,0,0,0,0,-1,1175,1107,0,0
-42,-83,0,0,0,0,0,0,0,0,0,-1,1182,1107,0,0
-35,-83,0,0,0,0,0,0,0,0,0,-1,1189,1107,0,0
-28,-83,0,0,0,0,0,0,0,0,0,-1,1196,1107,0,0
-21,-83,0,0,0,0,0,0,0,0,0,-1,1203,1107,0,0
-14,-83,0,0,0,0,0,0,0,0,0,-1,1210,1107,0,0
-7,-83,0,0,0,0,0,0,0,0,0,-1,1217,1107,0,0
0,-83,0,0,0,0,0,0,0,0,0,-1,1224,1107,0,0
7,-83,0,0,0,0,0,0,0,0,0,-1,1231,1107,0,0
14,-83,0,0,0,0,0,0,0,0,0,-1,1238,1107,0,0
21,-83,0,0,0,0,0,0,0,0,0,-1,1245,1107,0,0
28,-83,0,0,0,0,0,0,0,0,0,-1,1252,1107,0,0
35,-83,0,0,0,0,0,0,0,0,0,-1,1259,1107,0,0
42,-83,0,0,0,0,0,0,0,0,0,-1,1266,1107,0,0
49,-83,0,0,0,0,0,0,0,0,0,-1,1273,1107,0,0
56,-83,0,0,0,0,0,0,0,0,0,-1,1280,1107,0,0
63,-83,0,0,0,0,0,0,0,0,0,-1,1287,1107,0,0
70,-83,0,0,0,0,0,0,0,0,0,-1,1294,1107,0,0
77,-83,0,0,0,0,0,0,0,0,0,-1,1301,1107,0,0
84,-83,0,0,0,0,0,0,0,0,0,-1,1308,1107,0,0
91,-83,0,0,0,0,0,0,0,0,0,-1,1315,1107,0,0
98,-83,0,0,0,0,0,0,0,0,0,-1,1322,1107,0,0
105,-83,0,0,0,0,0,0,0,0,0,-1,1329,1107,0,0
112,-83,0,0,0,0,0,0,0,0,0,-1,1336,1107,0,0
119,-83,0,0,0,0,0,0,0,0,0,-1,1343,1107,0,0
126,-83,0,0,0,0,0,0,0,0,0,-1,1350,1107,0,0
133,-83,0,0,0,0,0,0,0,0,0,-1,1357,1107,0,0
140,-83,0,0,0,0,0,0,0,0,0,-1,1364,1107,0,0
147,-83,0,0,0,0,0,0,0,0,0,-1,1371,1107,0,0
154,-83,0,0,0,0,0,0,0,0,0,-1,1378,1107,0,0
161,-83,0,0,0,0,0,0,0,0,0,-1,1385,1107,0,0
168,-83,0,0,0,0,0,0,0,0,0,-1,1392,1107,0,0
175,-83,0,0,0,0,0,0,0,0,0,-1,1399,1107,0,0
182,-83,0,0,0,0,0,0,0,0,0,-1,1406,1107,0,0
189,-83,0,0,0,0,0,0,0,0,0,-1,1413,1107,0,0
196,-83,0,0,0,0,0,0,0,0,0,-1,1420,1107,0,0
203,-83,0,0,0,0,0,0,0,0,0,-1,1427,1107,0,0
210,-83,0,0,0,0,0,0,0,0,0,-1,1434,1107,0,0
217,-83,0,0,0,0,0,0,0,0,0,-1,1441,1107,0,0
224,-83,0,0,0,0,0,0,0,0,0,-1,1448,1107,0,0
231,-83,0,0,0,0,0,0,0,0,0,-1,1455,1107,0,0
238,-83,0,0,0,0,0,0,0,0,0,-1,1462,1107,0,0
245,-83,0,0,0,0,0,0,0,0,0,-1,1469,1107,0,0
252,-83,0,0,0,0,0,0,0,0,0,-1,1476,1107,0,0
259,-83,0,0,0,0,0,0,0,0,0,-1,1483,1107,0,0
266,-83,0,0,0,0,0,0,0,0,0,-1,1490,1107,0,0
273,-83,0,0,0,0,0,0,0,0,0,-1,1497,1107,0,0
280,-83,0,0,0,0,0,0,0,0,0,-1,1504,1107,0,0
287,-83,0,0,0,0,0,0,0,0,0,-1,1511,1107,0,0
294,-83,0,0,0,0,0,0,0,0,0,-1,1518,1107,0,0
301,-83,0,0,0,0,0,0,0,0,0,-1,1525,1107,0,0
308,-83,0,0,0,0,0,0,0,0,0,-1,1532,1107,0,0
315,-83,0,0,0,0,0,0,0,0,0,-1,1539,1107,0,0
322,-83,0,0,0,0,0,0,0,0,0,-1,1546,1107,0,0
329,-83,0,0,0,0,0,0,0,0,0,-1,1553,1107,0,0
336,-83,0,0,0,0,0,0,0,0,0,-1,1560,1107,0,0
343,-83,0,0,0,0,0,0,0,0,0,-1,1567,1107,0,0
350,-83,0,0,0,0,0,0,0,0,0,-1,1574,1107,0,0
357,-83,0,0,0,0,0,0,0,0,0,-1,1581,1107,0,0
364,-83,0,0,0,0,0,0,0,0,0,-1,1588,1107,0,0
371,-83,0,0,0,0,0,0,0,0,0,-1,1595,1107,0,0
378,-83,0,0,0,0,0,0,0,0,0,-1,1602,1107,0,0
385,-83,0,0,0,0,0,0,0,0,0,-1,1609,1107,0,0
392,-83,0,0,0,0,0,0,0,0,0,-1,1616,1107,0,0
399,-83,0,0,0,0,0,0,0,0,0,-1,1623,1107,0,0
406,-83,0,0,0,0,0,0,0,0,0,-1,1630,1107,0,0
413,-83,0,0,0,0,0,0,0,0,0,-1,1637,1107,0,0
420,-83,0,0,0,0,0,0,0,0,0,-1,1644,1107,0,0
427,-83,0,0,0,0,0,0,0,0,0,-1,1651,1107,0,0
434,-83,0,0,0,0,0,0,0,0,0,-1,1658,1107,0,0
441,-83,0,0,0,0,0,0,0,0,0,-1,1665,1107,0,0
448,-83,0,0,0,0,0,0,0,0,0,-1,1672,1107,0,0
455,-83,0,0,0,0,0,0,0,0,0,-1,1679,1107,0,0
462,-83,0,0,0,0,0,0,0,0,0,-1,1686,1107,0,0
469,-83,0,0,0,0,0,0,0,0,0,-1,1693,1107,0,0
476,-83,0,0,0,0,0,0,0,0,0,-1,1700,1107,0,0
483,-83,0,0,0,0,0,0,0,0,0,-1,1707,1107,0,0
490,-83,0,0,0,0,0,0,0,0,0,-1,1714,1107,0,0
497,-83,0,0,0,0,0,0,0,0,0,-1,1721,1107,0,0
504,-83,0,0,0,0,0,0,0,0,0,-1,1728,1107,0,0
511,-83,0,0,0,0,0,0,0,0,0,-1,1735,1107,0,0
518,-83,0,0,0,0,0,0,0,0,0,-1,1742,1107,0,0
525,-83,0,0,0,0,0,0,0,0,0,-1,1749,1107,0,0
532,-83,0,0,0,0,0,0,0,0,0,-1,1756,1107,0,0
539,-83,0,0,0,0,0,0,0,0,0,-1,1763,1107,0,0
546,-83,0,0,0,0,0,0,0,0,0,-1,1770,1107,0,0
553,-83,0,0,0,0,0,0,0,0,0,-1,1777,1107,0,0
560,-83,0,0,0,0,0,0,0,0,0,-1,1784,1107,0,0
567,-83,0,0,0,0,0,0,0,0,0,-1,1791,1107,0,0
574,-83,0,0,0,0,0,0,0,0,0,-1,1798,1107,0,0
581,-83,0,0,0,0,0,0,0,0,0,-1,1805,1107,0,0
588,-83,0,0,0,0,0,0,0,0,0,-1,1812,1107,0,0
595,-83,0,0,0,0,0,0,0,0,0,-1,1819,1107,0,0
602,-83,0,0,0,0,0,0,0,0,0,-1,1826,1107,0,0
609,-83,0,0,0,0,0,0,0,0,0,-1,1833,1107,0,0
616,-83,0,0,0,0,0,0,0,0,0,-1,1840,1107,0,0
623,-83,0,0,0,0,0,0,0,0,0,-1,1847,1107,0,0
630,-83,0,0,0,0,0,0,0,0,0,-1,1854,1107,0,0
637,-83,0,0,0,0,0,0,0,0,0,-1,1861,1107,0,0
644,-83,77.7623,2.37854,0.00728392,-0.00122481,0.00330557,0.00841717,-0.00235806,0.330274,0.00654072,0.0357049,1868,1107,77.7623,-2.37851
651,-83,77.6757,2.29163,0.00531978,-0.000752462,0.00199123,0.0059145,-0.00134719,0.290238,0.0044604,0.0420604,1875,1107,77.6757,-2.29161
658,-83,77.7476,2.39502,0.00406024,-0.00059491,0.00129443,0.00439596,-0.000930632,0.253768,0.00328509,0.0434919,1882,1107,77.7476,-2.39498
665,-83,77.7448,2.44604,0.00309061,-0.000421228,0.000792644,0.00326123,-0.000591844,0.212014,0.00239592,0.0388879,1889,1107,77.7447,-2.4461
672,-83,77.6908,2.47266,0.00233688,-0.00023327,0.000408245,0.00240017,-0.000296558,0.153799,0.00170757,0.0382713,1896,1107,77.6908,-2.47265
679,-83,77.6492,2.46448,0.00176504,-0.000202409,0.000193663,0.00178393,-0.00022129,0.0971904,0.00126949,0.0389047,1903,1107,77.6492,-2.46443
686,-83,77.733,2.37683,0.0012663,-0.000307891,5.16187e-05,0.00126799,-0.000309582,0.0327437,0.000965216,0.035605,1910,1107,77.733,-2.37677
693,-83,77.772,2.45984,0.000931347,-0.000555475,0.000199319,0.000957603,-0.000581732,0.130977,0.000897523,0.0351843,1917,1107,77.7719,-2.45986
700,-83,77.7731,2.55652,0.000746384,-0.000655349,0.000372666,0.000839302,-0.000748267,0.244351,0.000917086,0.0339754,1924,1107,77.7731,-2.5565
707,-83,77.7479,2.47559,0.000348952,-0.000529002,0.00060541,0.000657786,-0.000837837,0.471715,0.000865582,0.025987,1931,1107,77.7479,-2.4756
714,-83,77.7611,2.38733,0,0,0,0,0,0,0,-1,1938,1107,77.7611,-2.38737
721,-83,49.1162,7.36719,0,0,0,0,0,0,0,-1,1945,1107,49.1162,-7.36721
728,-83,66.6315,8.32141,0,0,0,0,0,0,0,-1,1952,1107,66.6314,-8.32147
735,-83,73.3243,8.91919,0,0,0,0,0,0,0,-1,1959,1107,73.3243,-8.91917
742,-83,73.4399,8.33862,-0.00355767,0.0025812,0.00156908,0.002959,-0.00393547,1.33451,0.00399381,0.0321002,1966,1107,73.44,-8.33864
749,-83,73.549,7.76575,-0.0042252,0.00421209,0.00100687,0.00433058,-0.00434369,1.45365,0.0050081,0.0217199,1973,1107,73.549,-7.76578
756,-83,73.543,7.18835,-0.00456749,0.0059827,-1.07839e-05,0.00598271,-0.0045675,-1.56977,0.0061094,0.0192797,1980,1107,73.5429,-7.18835
763,-83,73.4883,6.60315,-0.00368704,0.00917565,-0.00290115,0.00979972,-0.00431111,-1.35891,0.00834979,0.0142499,1987,1107,73.4883,-6.60313
770,-83,73.3689,6.09949,-0.00180073,0.013095,-0.00724309,0.0160362,-0.00474195,-1.18507,0.0125731,0.0164884,1994,1107,73.369,-6.09952
777,-83,73.1775,5.57751,0.00185397,0.0176232,-0.0132611,0.0251666,-0.00568947,-1.05361,0.018961,0.018591,2001,1107,73.1775,-5.57756
784,-83,73.0168,5.04944,0.0071981,0.0224544,-0.0205714,0.0367664,-0.00711391,-0.962946,0.0271942,0.0281663,2008,1107,73.0169,-5.04945
791,-83,72.8274,4.35461,0.0148067,0.0277304,-0.0296663,0.0516305,-0.00909344,-0.892632,0.0378176,0.0429938,2015,1107,72.8274,-4.35459
798,-83,72.4995,3.44373,0.0255279,0.0336392,-0.0410258,0.0708093,-0.0116422,-0.834666,0.0515272,0.047594,2022,1107,72.4995,-3.44367
805,-83,73.7607,2.40686,0.0402377,0.0404396,-0.0550185,0.0953572,-0.01468,-0.786315,0.0689874,0.048569,2029,1107,73.7608,-2.40685
812,-83,74.092,0.838257,0.0594158,0.0485222,-0.0720172,0.126192,-0.0182539,-0.747654,0.090826,0.0476984,2036,1107,74.0921,-0.838258
-700,-90,0,0,0,0,0,0,0,0,0,-1,524,1114,0,0
-693,-90,-57.8088,1.78772,0.122907,0.0225983,-0.0573969,0.148976,-0.00346979,-0.426317,0.100494,0.0476634,531,1114,-57.8088,-1.7877
-686,-90,-57.0894,1.76453,0.096551,0.0184431,-0.0460436,0.117873,-0.00287859,-0.433676,0.0795587,0.0469364,538,1114,-57.0893,-1.76449
-679,-90,-55.8891,0.520386,0.0748917,0.015287,-0.0364491,0.0921713,-0.00199264,-0.442695,0.0621224,0.0461191,545,1114,-55.8891,-0.520334
-672,-90,-56.2409,1.3457,0.0569059,0.0128931,-0.0285487,0.0709455,-0.00114644,-0.457046,0.0476837,0.046013,552,1114,-56.2409,-1.34571
-665,-90,-56.4756,2.04028,0.0414954,0.0111213,-0.0220672,0.0530965,-0.000479834,-0.484011,0.0355587,0.0474005,559,1114,-56.4757,-2.04032
-658,-90,-56.7687,2.74976,0.028603,0.00968518,-0.0167526,0.0383826,-9.4384e-05,-0.528397,0.0256199,0.0477324,566,1114,-56.7687,-2.74971
-651,-90,-56.9499,3.57068,0.01801,0.00833643,-0.0124015,0.0264845,-0.000138136,-0.599464,0.0177026,0.0399122,573,1114,-56.9499,-3.57067
-644,-90,-57.1052,4.36731,0.00949623,0.00699537,-0.00911789,0.017449,-0.000957435,-0.717253,0.0119646,0.0219563,580,1114,-57.1052,-4.36735
-637,-90,-57.2137,5.06335,0.00226334,0.0055268,-0.00593028,0.0100457,-0.0022556,-0.919652,0.007562,0.0167006,587,1114,-57.2137,-5.06341
-630,-90,-57.278,5.67981,-0.00321631,0.00377182,-0.00345089,0.00518868,-0.00463317,-1.18121,0.00567367,0.0124992,594,1114,-57.278,-5.67987
-623,-90,-57.3226,6.28894,-0.00575821,0.00169827,-0.00213434,0.00226598,-0.00632592,-1.31083,0.00514182,0.0141625,601,1114,-57.3226,-6.28896
-616,-90,-57.3959,6.89258,-0.00544469,0.00102788,-0.00204593,0.00162035,-0.00603716,-1.28892,0.00465976,0.0165046,608,1114,-57.3959,-6.89259
-609,-90,-57.3719,7.48853,-0.00438303,0.000672069,-0.00242697,0.00164862,-0.00535958,-1.18825,0.00423105,0.0261505,615,1114,-57.3719,-7.48853
-602,-90,-57.4758,8.03589,-0.00322223,0.000676641,-0.00297828,0.00228676,-0.00483235,-1.07518,0.00419689,0.0252568,622,1114,-57.4758,-8.03592
-595,-90,-57.3087,8.68286,0,0,0,0,0,0,0,-1,629,1114,-57.3086,-8.68285
-588,-90,-56.9731,8.64209,0,0,0,0,0,0,0,-1,636,1114,-56.9732,-8.64211
-581,-90,-61.4328,0.668579,0,0,0,0,0,0,0,-1,643,1114,-61.4328,-0.668626
-574,-90,-61.361,0.544922,-0.00064882,-1.1319e-05,-0.00210614,0.00180005,-0.00246019,-0.8605,0.00246947,0.0385968,650,1114,-61.3609,-0.544907
-567,-90,-61.4425,0.42334,0.000228905,5.2695e-05,-0.00200676,0.00214949,-0.00186789,-0.76346,0.00232133,0.0372263,657,1114,-61.4425,-0.423389
-560,-90,-61.4456,0.505249,0.000993276,0.000361486,-0.00179299,0.00249799,-0.00114323,-0.698202,0.00215021,0.0405983,664,1114,-61.4456,-0.505201
-553,-90,-61.312,0.601318,0.00117039,0.000737385,-0.00106874,0.00204434,-0.00013656,-0.685462,0.00141062,0.0398388,671,1114,-61.312,-0.60128
-546,-90,-61.1392,0.407837,0.00115049,0.000845817,0.000433991,0.00145811,0.000538205,0.616607,0.000851399,0.04019,678,1114,-61.1392,-0.407815
-539,-90,-61.2137,0.512329,0.00157141,-4.33385e-05,0.00245066,0.00334427,-0.0018162,0.626272,0.00302262,0.0406844,685,1114,-61.2138,-0.512322
-532,-90,-61.3226,0.534424,0.00199697,-0.00104652,0.00448639,0.00521267,-0.00426223,0.621891,0.0054795,0.042913,692,1114,-61.3226,-0.534364
-525,-90,0,0,0,0,0,0,0,0,0,-1,699,1114,0,0
-518,-90,0,0,0,0,0,0,0,0,0,-1,706,1114,0,0
-511,-90,0,0,0,0,0,0,0,0,0,-1,713,1114,0,0
-504,-90,0,0,0,0,0,0,0,0,0,-1,720,1114,0,0
-497,-90,0,0,0,0,0,0,0,0,0,-1,727,1114,0,0
-490,-90,0,0,0,0,0,0,0,0,0,-1,734,1114,0,0
-483,-90,0,0,0,0,0,0,0,0,0,-1,741,1114,0,0
-476,-90,0,0,0,0,0,0,0,0,0,-1,748,1114,0,0
-469,-90,0,0,0,0,0,0,0,0,0,-1,755,1114,0,0
-462,-90,0,0,0,0,0,0,0,0,0,-1,762,1114,0,0
-455,-90,0,0,0,0,0,0,0,0,0,-1,769,1114,0,0
-448,-90,0,0,0,0,0,0,0,0,0,-1,776,1114,0,0
-441,-90,0,0,0,0,0,0,0,0,0,-1,783,1114,0,0
-434,-90,0,0,0,0,0,0,0,0,0,-1,790,1114,0,0
-427,-90,0,0,0,0,0,0,0,0,0,-1,797,1114,0,0
-420,-90,0,0,0,0,0,0,0,0,0,-1,804,1114,0,0
-413,-90,0,0,0,0,0,0,0,0,0,-1,811,1114,0,0
-406,-90,0,0,0,0,0,0,0,0,0,-1,818,1114,0,0
-399,-90,0,0,0,0,0,0,0,0,0,-1,825,1114,0,0
-392,-90,0,0,0,0,0,0,0,0,0,-1,832,1114,0,0
-385,-90,0,0,0,0,0,0,0,0,0,-1,839,1114,0,0
-378,-90,0,0,0,0,0,0,0,0,0,-1,846,1114,0,0
-371,-90,0,0,0,0,0,0,0,0,0,-1,853,1114,0,0
-364,-90,0,0,0,0,0,0,0,0,0,-1,860,1114,0,0
-357,-90,0,0,0,0,0,0,0,0,0,-1,867,1114,0,0
-350,-90,0,0,0,0,0,0,0,0,0,-1,874,1114,0,0
-343,-90,0,0,0,0,0,0,0,0,0,-1,881,1114,0,0
-336,-90,0,0,0,0,0,0,0,0,0,-1,888,1114,0,0
-329,-90,0,0,0,0,0,0,0,0,0,-1,895,1114,0,0
-322,-90,0,0,0,0,0,0,0,0,0,-1,902,1114,0,0
-315,-90,0,0,0,0,0,0,0,0,0,-1,909,1114,0,0
-308,-90,0,0,0,0,0,0,0,0,0,-1,916,1114,0,0
-301,-90,0,0,0,0,0,0,0,0,0,-1,923,1114,0,0
-294,-90,0,0,0,0,0,0,0,0,0,-1,930,1114,0,0
-287,-90,0,0,0,0,0,0,0,0,0,-1,937,1114,0,0
-280,-90,0,0,0,0,0,0,0,0,0,-1,944,1114,0,0
-273,-90,0,0,0,0,0,0,0,0,0,-1,951,1114,0,0
-266,-90,0,0,0,0,0,0,0,0,0,-1,958,1114,0,0
-259,-90,0,0,0,0,0,0,0,0,0,-1,965,1114,0,0
-252,-90,0,0,0,0,0,0,0,0,0,-1,972,1114,0,0
-245,-90,0,0,0,0,0,0,0,0,0,-1,979,1114,0,0
-238,-90,0,0,0,0,0,0,0,0,0,-1,986,1114,0,0
-231,-90,0,0,0,0,0,0,0,0,0,-1,993,1114,0,0
-224,-90,0,0,0,0,0,0,0,0,0,-1,1000,1114,0,0
-217,-90,0,0,0,0,0,0,0,0,0,-1,1007,1114,0,0
-210,-90,0,0,0,0,0,0,0,0,0,-1,1014,1114,0,0
-203,-90,0,0,0,0,0,0,0,0,0,-1,1021,1114,0,0
-196,-90,0,0,0,0,0,0,0,0,0,-1,1028,1114,0,0
-189,-90,0,0,0,0,0,0,0,0,0,-1,1035,1114,0,0
-182,-90,0,0,0,0,0,0,0,0,0,-1,1042,1114,0,0
-175,-90,0,0,0,0,0,0,0,0,0,-1,1049,1114,0,0
-168,-90,0,0,0,0,0,0,0,0,0,-1,1056,1114,0,0
-161,-90,0,0,0,0,0,0,0,0,0,-1,1063,1114,0,0
-154,-90,0,0,0,0,0,0,0,0,0,-1,1070,1114,0,0
-147,-90,0,0,0,0,0,0,0,0,0,-1,1077,1114,0,0
-140,-90,0,0,0,0,0,0,0,0,0,-1,1084,1114,0,0
-133,-90,0,0,0,0,0,0,0,0,0,-1,1091,1114,0,0
-126,-90,0,0,0,0,0,0,0,0,0,-1,1098,1114,0,0
-119,-90,0,0,0,0,0,0,0,0,0,-1,1105,1114,0,0
-112,-90,0,0,0,0,0,0,0,0,0,-1,1112,1114,0,0
-105,-90,0,0,0,0,0,0,0,0,0,-1,1119,1114,0,0
-98,-90,0,0,0,0,0,0,0,0,0,-1,1126,1114,0,0
-91,-90,0,0,0,0,0,0,0,0,0,-1,1133,1114,0,0
-84,-90,0,0,0,0,0,0,0,0,0,-1,1140,1114,0,0
-77,-90,0,0,0,0,0,0,0,0,0,-1,1147,1114,0,0
-70,-90,0,0,0,0,0,0,0,0,0,-1,1154,1114,0,0
-63,-90,0,0,0,0,0,0,0,0,0,-1,1161,1114,0,0
-56,-90,0,0,0,0,0,0,0,0,0,-1,1168,1114,0,0
-49,-90,0,0,0,0,0,0,0,0,0,-1,1175,1114,0,0
-42,-90,0,0,0,0,0,0,0,0,0,-1,1182,1114,0,0
-35,-90,0,0,0,0,0,0,0,0,0,-1,1189,1114,0,0
-28,-90,0,0,0,0,0,0,0,0,0,-1,1196,1114,0,0
-21,-90,0,0,0,0,0,0,0,0,0,-1,1203,1114,0,0
-14,-90,0,0,0,0,0,0,0,0,0,-1,1210,1114,0,0
-7,-90,0,0,0,0,0,0,0,0,0,-1,1217,1114,0,0
0,-90,0,0,0,0,0,0,0,0,0,-1,1224,1114,0,0
7,-90,0,0,0,0,0,0,0,0,0,-1,1231,1114,0,0
14,-90,0,0,0,0,0,0,0,0,0,-1,1238,1114,0,0
21,-90,0,0,0,0,0,0,0,0,0,-1,1245,1114,0,0
28,-90,0,0,0,0,0,0,0,0,0,-1,1252,1114,0,0
35,-90,0,0,0,0,0,0,0,0,0,-1,1259,1114,0,0
42,-90,0,0,0,0,0,0,0,0,0,-1,1266,1114,0,0
49,-90,0,0,0,0,0,0,0,0,0,-1,1273,1114,0,0
56,-90,0,0,0,0,0,0,0,0,0,-1,1280,1114,0,0
63,-90,0,0,0,0,0,0,0,0,0,-1,1287,1114,0,0
70,-90,0,0,0,0,0,0,0,0,0,-1,1294,1114,0,0
77,-90,0,0,0,0,0,0,0,0,0,-1,1301,1114,0,0
84,-90,0,0,0,0,0,0,0,0,0,-1,1308,1114,0,0
91,-90,0,0,0,0,0,0,0,0,0,-1,1315,1114,0,0
98,-90,0,0,0,0,0,0,0,0,0,-1,1322,1114,0,0
105,-90,0,0,0,0,0,0,0,0,0,-1,1329,1114,0,0
112,-90,0,0,0,0,0,0,0,0,0,-1,1336,1114,0,0
119,-90,0,0,0,0,0,0,0,0,0,-1,1343,1114,0,0
126,-90,0,0,0,0,0,0,0,0,0,-1,1350,1114,0,0
133,-90,0,0,0,0,0,0,0,0,0,-1,1357,1114,0,0
140,-90,0,0,0,0,0,0,0,0,0,-1,1364,1114,0,0
147,-90,0,0,0,0,0,0,0,0,0,-1,1371,1114,0,0
154,-90,0,0,0,0,0,0,0,0,0,-1,1378,1114,0,0
161,-90,0,0,0,0,0,0,0,0,0,-1,1385,1114,0,0
168,-90,0,0,0,0,0,0,0,0,0,-1,1392,1114,0,0
175,-90,0,0,0,0,0,0,0,0,0,-1,1399,1114,0,0
182,-90,0,0,0,0,0,0,0,0,0,-1,1406,1114,0,0
189,-90,0,0,0,0,0,0,0,0,0,-1,1413,1114,0,0
196,-90,0,0,0,0,0,0,0,0,0,-1,1420,1114,0,0
203,-90,0,0,0,0,0,0,0,0,0,-1,1427,1114,0,0
210,-90,0,0,0,0,0,0,0,0,0,-1,1434,1114,0,0
217,-90,0,0,0,0,0,0,0,0,0,-1,1441,1114,0,0
224,-90,0,0,0,0,0,0,0,0,0,-1,1448,1114,0,0
231,-90,0,0,0,0,0,0,0,0,0,-1,1455,1114,0,0
238,-90,0,0,0,0,0,0,0,0,0,-1,1462,1114,0,0
245,-90,0,0,0,0,0,0,0,0,0,-1,1469,1114,0,0
252,-90,0,0,0,0,0,0,0,0,0,-1,1476,1114,0,0
259,-90,0,0,0,0,0,0,0,0,0,-1,1483,1114,0,0
266,-90,0,0,0,0,0,0,0,0,0,-1,1490,1114,0,0
273,-90,0,0,0,0,0,0,0,0,0,-1,1497,1114,0,0
280,-90,0,0,0,0,0,0,0,0,0,-1,1504,1114,0,0
287,-90,0,0,0,0,0,0,0,0,0,-1,1511,1114,0,0
294,-90,0,0,0,0,0,0,0,0,0,-1,1518,1114,0,0
301,-90,0,0,0,0,0,0,0,0,0,-1,1525,1114,0,0
308,-90,0,0,0,0,0,0,0,0,0,-1,1532,1114,0,0
315,-90,0,0,0,0,0,0,0,0,0,-1,1539,1114,0,0
322,-90,0,0,0,0,0,0,0,0,0,-1,1546,1114,0,0
329,-90,0,0,0,0,0,0,0,0,0,-1,1553,1114,0,0
336,-90,0,0,0,0,0,0,0,0,0,-1,1560,1114,0,0
343,-90,0,0,0,0,0,0,0,0,0,-1,1567,1114,0,0
350,-90,0,0,0,0,0,0,0,0,0,-1,1574,1114,0,0
357,-90,0,0,0,0,0,0,0,0,0,-1,1581,1114,0,0
364,-90,0,0,0,0,0,0,0,0,0,-1,1588,1114,0,0
371,-90,0,0,0,0,0,0,0,0,0,-1,1595,1114,0,0
378,-90,0,0,0,0,0,0,0,0,0,-1,1602,1114,0,0
385,-90,0,0,0,0,0,0,0,0,0,-1,1609,1114,0,0
392,-90,0,0,0,0,0,0,0,0,0,-1,1616,1114,0,0
399,-90,0,0,0,0,0,0,0,0,0,-1,1623,1114,0,0
406,-90,0,0,0,0,0,0,0,0,0,-1,1630,1114,0,0
413,-90,0,0,0,0,0,0,0,0,0,-1,1637,1114,0,0
420,-90,0,0,0,0,0,0,0,0,0,-1,1644,1114,0,0
427,-90,0,0,0,0,0,0,0,0,0,-1,1651,1114,0,0
434,-90,0,0,0,0,0,0,0,0,0,-1,1658,1114,0,0
441,-90,0,0,0,0,0,0,0,0,0,-1,1665,1114,0,0
448,-90,0,0,0,0,0,0,0,0,0,-1,1672,1114,0,0
455,-90,0,0,0,0,0,0,0,0,0,-1,1679,1114,0,0
462,-90,0,0,0,0,0,0,0,0,0,-1,1686,1114,0,0
469,-90,0,0,0,0,0,0,0,0,0,-1,1693,1114,0,0
476,-90,0,0,0,0,0,0,0,0,0,-1,1700,1114,0,0
483,-90,0,0,0,0,0,0,0,0,0,-1,1707,1114,0,0
490,-90,0,0,0,0,0,0,0,0,0,-1,1714,1114,0,0
497,-90,0,0,0,0,0,0,0,0,0,-1,1721,1114,0,0
504,-90,0,0,0,0,0,0,0,0,0,-1,1728,1114,0,0
511,-90,0,0,0,0,0,0,0,0,0,-1,1735,1114,0,0
518,-90,0,0,0,0,0,0,0,0,0,-1,1742,1114,0,0
525,-90,0,0,0,0,0,0,0,0,0,-1,1749,1114,0,0
532,-90,0,0,0,0,0,0,0,0,0,-1,1756,1114,0,0
539,-90,0,0,0,0,0,0,0,0,0,-1,1763,1114,0,0
546,-90,0,0,0,0,0,0,0,0,0,-1,1770,1114,0,0
553,-90,0,0,0,0,0,0,0,0,0,-1,1777,1114,0,0
560,-90,0,0,0,0,0,0,0,0,0,-1,1784,1114,0,0
567,-90,0,0,0,0,0,0,0,0,0,-1,1791,1114,0,0
574,-90,0,0,0,0,0,0,0,0,0,-1,1798,1114,0,0
581,-90,0,0,0,0,0,0,0,0,0,-1,1805,1114,0,0
588,-90,0,0,0,0,0,0,0,0,0,-1,1812,1114,0,0
595,-90,0,0,0,0,0,0,0,0,0,-1,1819,1114,0,0
602,-90,0,0,0,0,0,0,0,0,0,-1,1826,1114,0,0
609,-90,0,0,0,0,0,0,0,0,0,-1,1833,1114,0,0
616,-90,0,0,0,0,0,0,0,0,0,-1,1840,1114,0,0
623,-90,0,0,0,0,0,0,0,0,0,-1,1847,1114,0,0
630,-90,0,0,0,0,0,0,0,0,0,-1,1854,1114,0,0
637,-90,0,0,0,0,0,0,0,0,0,-1,1861,1114,0,0
644,-90,77.6362,2.3374,0.00804948,-0.00160323,0.00304513,0.00892984,-0.00248359,0.281429,0.00693103,0.0361688,1868,1114,77.6363,-2.33742
651,-90,77.7041,2.39722,0.00565145,-0.000963286,0.00176948,0.00609505,-0.00140688,0.245632,0.00460454,0.0413556,1875,1114,77.7041,-2.39719
658,-90,77.7444,2.53479,0.00420723,-0.000699177,0.00108006,0.00443446,-0.000926409,0.207364,0.00330863,0.043307,1882,1114,77.7444,-2.53478
665,-90,77.7001,2.44836,0.00312734,-0.00045941,0.000580025,0.0032188,-0.000550875,0.156404,0.0023511,0.0424291,1889,1114,77.7001,-2.44837
672,-90,77.7804,2.5321,0.00232767,-0.000241853,0.00021205,0.00234505,-0.000259235,0.0817876,0.00165655,0.0433718,1896,1114,77.7803,-2.53216
679,-90,77.7698,2.67297,0.00179632,-0.000271507,4.52008e-05,0.00179731,-0.000272495,0.0218451,0.0012986,0.0387148,1903,1114,77.7698,-2.67292
686,-90,77.7303,2.62195,0.0014165,-0.000392027,-9.26033e-05,0.00142123,-0.000396756,-0.0510259,0.00110377,0.0344907,1910,1114,77.7304,-2.62199
693,-90,77.726,2.59094,0.00118126,-0.000637934,4.05762e-05,0.00118216,-0.000638839,0.0222897,0.00106684,0.0347727,1917,1114,77.726,-2.591
700,-90,77.7415,2.54639,0.00105987,-0.000725711,0.000194719,0.00108086,-0.000746698,0.107369,0.001061,0.0325435,1924,1114,77.7415,-2.54643
707,-90,77.7102,2.34448,0.000722675,-0.00060287,0.00042055,0.000844842,-0.000725037,0.282712,0.000907249,0.0257207,1931,1114,77.7103,-2.34453
714,-90,77.7068,2.11719,0,0,0,0,0,0,0,-1,1938,1114,77.7068,-2.11715
721,-90,63.521,8.76965,0,0,0,0,0,0,0,-1,1945,1114,63.521,-8.7697
728,-90,72.9514,9.43384,0,0,0,0,0,0,0,-1,1952,1114,72.9514,-9.43389
735,-90,72.5652,9.01453,-0.00184772,0.00140733,0.00138708,0.00191822,-0.00235861,1.21789,0.00247359,0.041431,1959,1114,72.5652,-9.01458
742,-90,72.7053,8.32983,-0.00269804,0.00219258,0.00131996,0.00252609,-0.00303155,1.32331,0.00321313,0.038863,1966,1114,72.7053,-8.32982
749,-90,73.0876,7.58472,-0.00338922,0.00378207,0.000821455,0.00387496,-0.00348211,1.45819,0.00424963,0.0246338,1973,1114,73.0876,-7.58473
756,-90,73.0178,7.09644,-0.00379464,0.00562829,-0.000173273,0.00563148,-0.00379783,-1.55242,0.00547822,0.020567,1980,1114,73.0177,-7.09638
763,-90,72.9124,6.56824,-0.00286684,0.00882487,-0.00305552,0.00957524,-0.00361721,-1.32998,0.00787133,0.0143188,1987,1114,72.9123,-6.56826
770,-90,72.8057,6.00415,-0.000898193,0.0127647,-0.00736564,0.0159793,-0.0041127,-1.15929,0.0122559,0.0188113,1994,1114,72.8057,-6.00418
777,-90,72.6519,5.46887,0.00273596,0.0172493,-0.0131652,0.0250253,-0.00504003,-1.03728,0.0185927,0.0194455,2001,1114,72.6518,-5.46889
784,-90,72.5439,4.9425,0.00805265,0.0220714,-0.0202072,0.0364504,-0.00632637,-0.952342,0.0266605,0.0333067,2008,1114,72.544,-4.94252
791,-90,72.8025,4.20569,0.0156376,0.0273705,-0.0289693,0.0510614,-0.00805324,-0.8853,0.0370185,0.0431028,2015,1114,72.8025,-4.2057
798,-90,73.0232,3.50085,0.0262771,0.0332877,-0.0398065,0.069743,-0.0101782,-0.829314,0.050233,0.0482338,2022,1114,73.0231,-3.5009
805,-90,73.1636,2.59473,0.0406922,0.0399998,-0.0529415,0.0932886,-0.0125966,-0.782128,0.0667884,0.0466919,2029,1114,73.1636,-2.59475
812,-90,73.2349,1.40479,0.0591587,0.0477252,-0.0685296,0.12221,-0.0153257,-0.743784,0.0870326,0.0492353,2036,1114,73.235,-1.40475
-700,-97,0,0,0,0,0,0,0,0,0,-1,524,1121,0,0
-693,-97,-56.1473,1.95679,0,0,0,0,0,0,0,-1,531,1121,-56.1474,-1.95678
-686,-97,-55.514,1.97644,0,0,0,0,0,0,0,-1,538,1121,-55.514,-1.97642
-679,-97,-56.491,0.745972,0.0793331,0.0195061,-0.0409087,0.100098,-0.00125919,-0.46971,0.0671559,0.0482165,545,1121,-56.491,-0.745986
-672,-97,-55.6432,1.40491,0.0594604,0.0154865,-0.0319779,0.0762808,-0.0013339,-0.484232,0.0513043,0.046788,552,1121,-55.6432,-1.40487
-665,-97,-56.2798,2.19043,0.0426267,0.0125288,-0.0246196,0.0564325,-0.00127703,-0.511069,0.0380545,0.0477473,559,1121,-56.2798,-2.19039
-658,-97,-56.3779,2.96472,0.0286473,0.0102528,-0.0185166,0.040125,-0.00122488,-0.554895,0.0271675,0.0448065,566,1121,-56.3779,-2.96472
-651,-97,-56.4053,3.68909,0.0173242,0.00835672,-0.0134623,0.0270298,-0.00134885,-0.624646,0.0184859,0.0394173,573,1121,-56.4053,-3.68908
-644,-97,-56.5184,4.3634,0.00839987,0.00667247,-0.0094509,0.0170265,-0.00195411,-0.739831,0.0120552,0.016626,580,1121,-56.5183,-4.36337
-637,-97,-56.583,5.03503,0.00109856,0.00504283,-0.00581373,0.00920982,-0.00306842,-0.948918,0.00737851,0.0158311,587,1121,-56.583,-5.03505
-630,-97,-56.636,5.64612,-0.00440166,0.00328698,-0.00308733,0.00437322,-0.0054879,-1.23249,0.00570543,0.0109909,594,1121,-56.636,-5.64613
-623,-97,-56.6917,6.19446,-0.00669807,0.00146091,-0.00179913,0.00184002,-0.00707718,-1.36312,0.00543627,0.014675,601,1121,-56.6917,-6.19446
-616,-97,-56.7924,6.89063,-0.00631344,0.0011622,-0.00193112,0.00163158,-0.00678282,-1.33236,0.00515258,0.0219415,608,1121,-56.7924,-6.89067
-609,-97,-56.8856,7.56958,-0.00523866,0.000941042,-0.00236861,0.00174445,-0.00604208,-1.24378,0.00471828,0.0313209,615,1121,-56.8856,-7.56956
-602,-97,-56.9196,8.12,-0.00401565,0.000875267,-0.00294891,0.00226078,-0.00540117,-1.13157,0.00454579,0.0332617,622,1121,-56.9196,-8.11998
-595,-97,-56.6723,8.71436,0,0,0,0,0,0,0,-1,629,1121,-56.6723,-8.71433
-588,-97,-56.8126,8.75085,0,0,0,0,0,0,0,-1,636,1121,-56.8126,-8.75081
-581,-97,-51.2355,3.23926,0,0,0,0,0,0,0,-1,643,1121,-51.2355,-3.23926
-574,-97,-61.389,0.683594,0,0,0,0,0,0,0,-1,650,1121,-61.389,-0.68362
-567,-97,-61.3612,0.42395,0,0,0,0,0,0,0,-1,657,1121,-61.3612,-0.423951
-560,-97,-61.3732,0.716064,0,0,0,0,0,0,0,-1,664,1121,-61.3732,-0.716029
-553,-97,-61.249,0.470703,0.00104289,0.000342349,-0.00105306,0.00180241,-0.00041717,-0.624844,0.00136212,0.0415884,671,1121,-61.2491,-0.47076
-546,-97,-61.1098,0.174072,0.000917845,0.000438018,0.000422095,0.00116344,0.000192419,0.526973,0.00072011,0.0408533,678,1121,-61.1098,-0.17413
-539,-97,-61.2116,0.352783,0.00111968,-0.000365547,0.0024252,0.00291342,-0.00215928,0.636827,0.00293949,0.0397713,685,1121,-61.2116,-0.352784
-532,-97,-61.4936,0.503906,0.0013735,-0.00132969,0.00440744,0.00463193,-0.00458812,0.636619,0.00532322,0.0405473,692,1121,-61.4936,-0.503961
-525,-97,0,0,0,0,0,0,0,0,0,-1,699,1121,0,0
-518,-97,0,0,0,0,0,0,0,0,0,-1,706,1121,0,0
-511,-97,0,0,0,0,0,0,0,0,0,-1,713,1121,0,0
-504,-97,0,0,0,0,0,0,0,0,0,-1,720,1121,0,0
-497,-97,0,0,0,0,0,0,0,0,0,-1,727,1121,0,0
-490,-97,0,0,0,0,0,0,0,0,0,-1,734,1121,0,0
-483,-97,0,0,0,0,0,0,0,0,0,-1,741,1121,0,0
-476,-97,0,0,0,0,0,0,0,0,0,-1,748,1121,0,0
-469,-97,0,0,0,0,0,0,0,0,0,-1,755,1121,0,0
-462,-97,0,0,0,0,0,0,0,0,0,-1,762,1121,0,0
-455,-97,0,0,0,0,0,0,0,0,0,-1,769,1121,0,0
-448,-97,0,0,0,0,0,0,0,0,0,-1,776,1121,0,0
-441,-97,0,0,0,0,0,0,0,0,0,-1,783,1121,0,0
-434,-97,0,0,0,0,0,0,0,0,0,-1,790,1121,0,0
-427,-97,0,0,0,0,0,0,0,0,0,-1,797,1121,0,0
-420,-97,0,0,0,0,0,0,0,0,0,-1,804,1121,0,0
-413,-97,0,0,0,0,0,0,0,0,0,-1,811,1121,0,0
-406,-97,0,0,0,0,0,0,0,0,0,-1,818,1121,0,0
-399,-97,0,0,0,0,0,0,0,0,0,-1,825,1121,0,0
-392,-97,0,0,0,0,0,0,0,0,0,-1,832,1121,0,0
-385,-97,0,0,0,0,0,0,0,0,0,-1,839,1121,0,0
-378,-97,0,0,0,0,0,0,0,0,0,-1,846,1121,0,0
-371,-97,0,0,0,0,0,0,0,0,0,-1,853,1121,0,0
-364,-97,0,0,0,0,0,0,0,0,0,-1,860,1121,0,0
-357,-97,0,0,0,0,0,0,0,0,0,-1,867,1121,0,0
-350,-97,0,0,0,0,0,0,0,0,0,-1,874,1121,0,0
-343,-97,0,0,0,0,0,0,0,0,0,-1,881,1121,0,0
-336,-97,0,0,0,0,0,0,0,0,0,-1,888,1121,0,0
-329,-97,0,0,0,0,0,0,0,0,0,-1,895,1121,0,0
-322,-97,0,0,0,0,0,0,0,0,0,-1,902,1121,0,0
-315,-97,0,0,0,0,0,0,0,0,0,-1,909,1121,0,0
-308,-97,0,0,0,0,0,0,0,0,0,-1,916,1121,0,0
-301,-97,0,0,0,0,0,0,0,0,0,-1,923,1121,0,0
-294,-97,0,0,0,0,0,0,0,0,0,-1,930,1121,0,0
-287,-97,0,0,0,0,0,0,0,0,0,-1,937,1121,0,0
-280,-97,0,0,0,0,0,0,0,0,0,-1,944,1121,0,0
-273,-97,0,0,0,0,0,0,0,0,0,-1,951,1121,0,0
-266,-97,0,0,0,0,0,0,0,0,0,-1,958,1121,0,0
-259,-97,0,0,0,0,0,0,0,0,0,-1,965,1121,0,0
-252,-97,0,0,0,0,0,0,0,0,0,-1,972,1121,0,0
-245,-97,0,0,0,0,0,0,0,0,0,-1,979,1121,0,0
-238,-97,0,0,0,0,0,0,0,0,0,-1,986,1121,0,0
-231,-97,0,0,0,0,0,0,0,0,0,-1,993,1121,0,0
-224,-97,0,0,0,0,0,0,0,0,0,-1,1000,1121,0,0
-217,-97,0,0,0,0,0,0,0,0,0,-1,1007,1121,0,0
-210,-97,0,0,0,0,0,0,0,0,0,-1,1014,1121,0,0
-203,-97,0,0,0,0,0,0,0,0,0,-1,1021,1121,0,0
-196,-97,0,0,0,0,0,0,0,0,0,-1,1028,1121,0,0
-189,-97,0,0,0,0,0,0,0,0,0,-1,1035,1121,0,0
-182,-97,0,0,0,0,0,0,0,0,0,-1,1042,1121,0,0
-175,-97,0,0,0,0,0,0,0,0,0,-1,1049,1121,0,0
-168,-97,0,0,0,0,0,0,0,0,0,-1,1056,1121,0,0
-161,-97,0,0,0,0,0,0,0,0,0,-1,1063,1121,0,0
-154,-97,0,0,0,0,0,0,0,0,0,-1,1070,1121,0,0
-147,-97,0,0,0,0,0,0,0,0,0,-1,1077,1121,0,0
-140,-97,0,0,0,0,0,0,0,0,0,-1,1084,1121,0,0
-133,-97,0,0,0,0,0,0,0,0,0,-1,1091,1121,0,0
-126,-97,0,0,0,0,0,0,0,0,0,-1,1098,1121,0,0
-119,-97,0,0,0,0,0,0,0,0,0,-1,1105,1121,0,0
-112,-97,0,0,0,0,0,0,0,0,0,-1,1112,1121,0,0
-105,-97,0,0,0,0,0,0,0,0,0,-1,1119,1121,0,0
-98,-97,0,0,0,0,0,0,0,0,0,-1,1126,1121,0,0
-91,-97,0,0,0,0,0,0,0,0,0,-1,1133,1121,0,0
-84,-97,0,0,0,0,0,0,0,0,0,-1,1140,1121,0,0
-77,-97,0,0,0,0,0,0,0,0,0,-1,1147,1121,0,0
-70,-97,0,0,0,0,0,0,0,0,0,-1,1154,1121,0,0
-63,-97,0,0,0,0,0,0,0,0,0,-1,1161,1121,0,0
-56,-97,0,0,0,0,0,0,0,0,0,-1,1168,1121,0,0
-49,-97,0,0,0,0,0,0,0,0,0,-1,1175,1121,0,0
-42,-97,0,0,0,0,0,0,0,0,0,-1,1182,1121,0,0
-35,-97,0,0,0,0,0,0,0,0,0,-1,1189,1121,0,0
-28,-97,0,0,0,0,0,0,0,0,0,-1,1196,1121,0,0
-21,-97,0,0,0,0,0,0,0,0,0,-1,1203,1121,0,0
-14,-97,0,0,0,0,0,0,0,0,0,-1,1210,1121,0,0
-7,-97,0,0,0,0,0,0,0,0,0,-1,1217,1121,0,0
0,-97,0,0,0,0,0,0,0,0,0,-1,1224,1121,0,0
7,-97,0,0,0,0,0,0,0,0,0,-1,1231,1121,0,0
14,-97,0,0,0,0,0,0,0,0,0,-1,1238,1121,0,0
21,-97,0,0,0,0,0,0,0,0,0,-1,1245,1121,0,0
28,-97,0,0,0,0,0,0,0,0,0,-1,1252,1121,0,0
35,-97,0,0,0,0,0,0,0,0,0,-1,1259,1121,0,0
42,-97,0,0,0,0,0,0,0,0,0,-1,1266,1121,0,0
49,-97,0,0,0,0,0,0,0,0,0,-1,1273,1121,0,0
56,-97,0,0,0,0,0,0,0,0,0,-1,1280,1121,0,0
63,-97,0,0,0,0,0,0,0,0,0,-1,1287,1121,0,0
70,-97,0,0,0,0,0,0,0,0,0,-1,1294,1121,0,0
77,-97,0,0,0,0,0,0,0,0,0,-1,1301,1121,0,0
84,-97,0,0,0,0,0,0,0,0,0,-1,1308,1121,0,0
91,-97,0,0,0,0,0,0,0,0,0,-1,1315,1121,0,0
98,-97,0,0,0,0,0,0,0,0,0,-1,1322,1121,0,0
105,-97,0,0,0,0,0,0,0,0,0,-1,1329,1121,0,0
112,-97,0,0,0,0,0,0,0,0,0,-1,1336,1121,0,0
119,-97,0,0,0,0,0,0,0,0,0,-1,1343,1121,0,0
126,-97,0,0,0,0,0,0,0,0,0,-1,1350,1121,0,0
133,-97,0,0,0,0,0,0,0,0,0,-1,1357,1121,0,0
140,-97,0,0,0,0,0,0,0,0,0,-1,1364,1121,0,0
147,-97,0,0,0,0,0,0,0,0,0,-1,1371,1121,0,0
154,-97,0,0,0,0,0,0,0,0,0,-1,1378,1121,0,0
161,-97,0,0,0,0,0,0,0,0,0,-1,1385,1121,0,0
168,-97,0,0,0,0,0,0,0,0,0,-1,1392,1121,0,0
175,-97,0,0,0,0,0,0,0,0,0,-1,1399,1121,0,0
182,-97,0,0,0,0,0,0,0,0,0,-1,1406,1121,0,0
189,-97,0,0,0,0,0,0,0,0,0,-1,1413,1121,0,0
196,-97,0,0,0,0,0,0,0,0,0,-1,1420,1121,0,0
203,-97,0,0,0,0,0,0,0,0,0,-1,1427,1121,0,0
210,-97,0,0,0,0,0,0,0,0,0,-1,1434,1121,0,0
217,-97,0,0,0,0,0,0,0,0,0,-1,1441,1121,0,0
224,-97,0,0,0,0,0,0,0,0,0,-1,1448,1121,0,0
231,-97,0,0,0,0,0,0,0,0,0,-1,1455,1121,0,0
238,-97,0,0,0,0,0,0,0,0,0,-1,1462,1121,0,0
245,-97,0,0,0,0,0,0,0,0,0,-1,1469,1121,0,0
252,-97,0,0,0,0,0,0,0,0,0,-1,1476,1121,0,0
259,-97,0,0,0,0,0,0,0,0,0,-1,1483,1121,0,0
266,-97,0,0,0,0,0,0,0,0,0,-1,1490,1121,0,0
273,-97,0,0,0,0,0,0,0,0,0,-1,1497,1121,0,0
280,-97,0,0,0,0,0,0,0,0,0,-1,1504,1121,0,0
287,-97,0,0,0,0,0,0,0,0,0,-1,1511,1121,0,0
294,-97,0,0,0,0,0,0,0,0,0,-1,1518,1121,0,0
301,-97,0,0,0,0,0,0,0,0,0,-1,1525,1121,0,0
308,-97,0,0,0,0,0,0,0,0,0,-1,1532,1121,0,0
315,-97,0,0,0,0,0,0,0,0,0,-1,1539,1121,0,0
322,-97,0,0,0,0,0,0,0,0,0,-1,1546,1121,0,0
329,-97,0,0,0,0,0,0,0,0,0,-1,1553,1121,0,0
336,-97,0,0,0,0,0,0,0,0,0,-1,1560,1121,0,0
343,-97,0,0,0,0,0,0,0,0,0,-1,1567,1121,0,0
350,-97,0,0,0,0,0,0,0,0,0,-1,1574,1121,0,0
357,-97,0,0,0,0,0,0,0,0,0,-1,1581,1121,0,0
364,-97,0,0,0,0,0,0,0,0,0,-1,1588,1121,0,0
371,-97,0,0,0,0,0,0,0,0,0,-1,1595,1121,0,0
378,-97,0,0,0,0,0,0,0,0,0,-1,1602,1121,0,0
385,-97,0,0,0,0,0,0,0,0,0,-1,1609,1121,0,0
392,-97,0,0,0,0,0,0,0,0,0,-1,1616,1121,0,0
399,-97,0,0,0,0,0,0,0,0,0,-1,1623,1121,0,0
406,-97,0,0,0,0,0,0,0,0,0,-1,1630,1121,0,0
413,-97,0,0,0,0,0,0,0,0,0,-1,1637,1121,0,0
420,-97,0,0,0,0,0,0,0,0,0,-1,1644,1121,0,0
427,-97,0,0,0,0,0,0,0,0,0,-1,1651,1121,0,0
434,-97,0,0,0,0,0,0,0,0,0,-1,1658,1121,0,0
441,-97,0,0,0,0,0,0,0,0,0,-1,1665,1121,0,0
448,-97,0,0,0,0,0,0,0,0,0,-1,1672,1121,0,0
455,-97,0,0,0,0,0,0,0,0,0,-1,1679,1121,0,0
462,-97,0,0,0,0,0,0,0,0,0,-1,1686,1121,0,0
469,-97,0,0,0,0,0,0,0,0,0,-1,1693,1121,0,0
476,-97,0,0,0,0,0,0,0,0,0,-1,1700,1121,0,0
483,-97,0,0,0,0,0,0,0,0,0,-1,1707,1121,0,0
490,-97,0,0,0,0,0,0,0,0,0,-1,1714,1121,0,0
497,-97,0,0,0,0,0,0,0,0,0,-1,1721,1121,0,0
504,-97,0,0,0,0,0,0,0,0,0,-1,1728,1121,0,0
511,-97,0,0,0,0,0,0,0,0,0,-1,1735,1121,0,0
518,-97,0,0,0,0,0,0,0,0,0,-1,1742,1121,0,0
525,-97,0,0,0,0,0,0,0,0,0,-1,1749,1121,0,0
532,-97,0,0,0,0,0,0,0,0,0,-1,1756,1121,0,0
539,-97,0,0,0,0,0,0,0,0,0,-1,1763,1121,0,0
546,-97,0,0,0,0,0,0,0,0,0,-1,1770,1121,0,0
553,-97,0,0,0,0,0,0,0,0,0,-1,1777,1121,0,0
560,-97,0,0,0,0,0,0,0,0,0,-1,1784,1121,0,0
567,-97,0,0,0,0,0,0,0,0,0,-1,1791,1121,0,0
574,-97,0,0,0,0,0,0,0,0,0,-1,1798,1121,0,0
581,-97,0,0,0,0,0,0,0,0,0,-1,1805,1121,0,0
588,-97,0,0,0,0,0,0,0,0,0,-1,1812,1121,0,0
595,-97,0,0,0,0,0,0,0,0,0,-1,1819,1121,0,0
602,-97,0,0,0,0,0,0,0,0,0,-1,1826,1121,0,0
609,-97,0,0,0,0,0,0,0,0,0,-1,1833,1121,0,0
616,-97,0,0,0,0,0,0,0,0,0,-1,1840,1121,0,0
623,-97,0,0,0,0,0,0,0,0,0,-1,1847,1121,0,0
630,-97,0,0,0,0,0,0,0,0,0,-1,1854,1121,0,0
637,-97,0,0,0,0,0,0,0,0,0,-1,1861,1121,0,0
644,-97,77.6106,2.5,0.008457,-0.00201475,0.00311422,0.00931315,-0.00287089,0.268288,0.00735493,0.036766,1868,1121,77.6105,-2.50005
651,-97,77.6766,2.50537,0.00578817,-0.00122217,0.00178349,0.00621582,-0.00164982,0.235339,0.00478949,0.0378735,1875,1121,77.6766,-2.5054
658,-97,77.6949,2.6051,0.0042349,-0.000869904,0.00102202,0.00443191,-0.00106692,0.190432,0.00336707,0.0395487,1882,1121,77.6949,-2.60507
665,-97,77.6672,2.4552,0.0030973,-0.000569813,0.000467716,0.00315601,-0.000628527,0.12488,0.0023418,0.0436571,1889,1121,77.6672,-2.45517
672,-97,77.6543,2.3103,0,0,0,0,0,0,0,-1,1896,1121,77.6543,-2.3103
679,-97,77.7158,2.75183,0.00184215,-0.000412788,-8.1468e-05,0.00184509,-0.000415727,-0.0360661,0.00138952,0.039788,1903,1121,77.7158,-2.75187
686,-97,77.7042,2.71057,0.00162467,-0.000511243,-0.000216888,0.00164647,-0.000533044,-0.100181,0.00131194,0.0356886,1910,1121,77.7042,-2.71061
693,-97,77.7502,2.50854,0.00148844,-0.000725044,-9.14985e-05,0.00149222,-0.00072882,-0.041243,0.00130732,0.0336561,1917,1121,77.7502,-2.50851
700,-97,77.717,2.43213,0.0014023,-0.000804247,4.82207e-05,0.00140336,-0.0008053,0.0218396,0.00129066,0.0288875,1924,1121,77.7171,-2.43212
707,-97,77.7035,2.39124,0.00110898,-0.000684672,0.000262619,0.00114664,-0.000722332,0.142434,0.00108828,0.0277238,1931,1121,77.7034,-2.39125
714,-97,77.7079,2.25842,0,0,0,0,0,0,0,-1,1938,1121,77.7079,-2.25847
721,-97,72.5204,9.7771,0,0,0,0,0,0,0,-1,1945,1121,72.5204,-9.77716
728,-97,72.4467,9.46204,-0.000291967,0.000416553,0.00130652,0.00141599,-0.0012914,0.917789,0.00156366,0.042257,1952,1121,72.4466,-9.46205
735,-97,72.325,8.86609,-0.00103656,0.00106971,0.00122317,0.00163066,-0.0015975,1.14082,0.00186381,0.0319105,1959,1121,72.325,-8.86612
742,-97,72.2489,8.30579,-0.00184647,0.00178109,0.00119807,0.00214106,-0.00220644,1.27892,0.00251012,0.0273876,1966,1121,72.2489,-8.30574
749,-97,72.3663,7.65356,-0.00261483,0.00333456,0.000797166,0.00343952,-0.00271979,1.43988,0.00356417,0.0271297,1973,1121,72.3663,-7.65362
756,-97,72.3328,7.08582,-0.00312214,0.0052698,-0.000156098,0.00527271,-0.00312505,-1.5522,0.00490101,0.0186917,1980,1121,72.3328,-7.08585
763,-97,72.2153,6.56531,-0.00219678,0.00845341,-0.00297605,0.0092286,-0.00297197,-1.31598,0.00734626,0.0146116,1987,1121,72.2153,-6.56525
770,-97,72.1252,6.01904,-0.000230841,0.0123486,-0.00713733,0.0155721,-0.00345438,-1.14658,0.0117041,0.014465,1994,1121,72.1252,-6.01904
777,-97,72.0605,5.41357,0.00331194,0.0167366,-0.0126274,0.0243249,-0.00427634,-1.02969,0.017814,0.0206574,2001,1121,72.0606,-5.41352
784,-97,71.9995,4.74084,0.00853842,0.0215023,-0.0193252,0.0354037,-0.00536299,-0.947208,0.0255782,0.0439743,2008,1121,71.9994,-4.74084
791,-97,71.9663,4.06287,0,0,0,0,0,0,0,-1,2015,1121,71.9664,-4.06282
798,-97,72.7524,3.23792,0,0,0,0,0,0,0,-1,2022,1121,72.7524,-3.23789
805,-97,72.968,2.56628,0,0,0,0,0,0,0,-1,2029,1121,72.9679,-2.56634
812,-97,72.9773,1.27478,0,0,0,0,0,0,0,-1,2036,1121,72.9772,-1.27481
-700,-104,0,0,0,0,0,0,0,0,0,-1,524,1128,0,0
-693,-104,-56.8663,-1.21875,0,0,0,0,0,0,0,-1,531,1128,-56.8663,1.21878
-686,-104,-56.3461,-0.148071,0.114113,0.0281768,-0.0517707,0.138424,0.00386592,-0.439023,0.0910213,0.049192,538,1128,-56.3461,0.148047
-679,-104,-55.4927,0.430176,0.086175,0.0220856,-0.0413467,0.106441,0.00181951,-0.455736,0.070362,0.0474635,545,1128,-55.4927,-0.430197
-672,-104,-54.9464,1.52527,0,0,0,0,0,0,0,-1,552,1128,-54.9464,-1.52522
-665,-104,-56.6742,2.63171,0,0,0,0,0,0,0,-1,559,1128,-56.6742,-2.63165
-658,-104,-55.9397,3.24402,0,0,0,0,0,0,0,-1,566,1128,-55.9397,-3.24404
-651,-104,-55.8739,3.76538,0.0170029,0.00859972,-0.0136859,0.0271176,-0.00151502,-0.636465,0.018604,0.048382,573,1128,-55.8739,-3.76535
-644,-104,-55.8398,4.34131,0.00752736,0.00658445,-0.00928093,0.0163488,-0.00223699,-0.760021,0.0117163,0.0178646,580,1128,-55.8398,-4.34136
-637,-104,-55.8986,5.00757,7.16992e-05,0.00478446,-0.0054551,0.00837036,-0.0035142,-0.989273,0.00704991,0.0137443,587,1128,-55.8986,-5.00757
-630,-104,-55.9155,5.56726,-0.00545905,0.00301187,-0.0027272,0.00381395,-0.00626112,-1.28476,0.00587376,0.0198793,594,1128,-55.9155,-5.56727
-623,-104,-56.0227,6.18896,-0.00748606,0.0014755,-0.00160757,0.00175515,-0.00776571,-1.39856,0.00585061,0.0220175,601,1128,-56.0227,-6.18899
-616,-104,-56.4189,6.97375,-0.00704504,0.00150019,-0.00191277,0.00190881,-0.00745366,-1.36033,0.00571268,0.0314493,608,1128,-56.4189,-6.97373
-609,-104,-56.6025,7.5376,-0.00593953,0.00137137,-0.00234292,0.00205776,-0.00662592,-1.28581,0.00523967,0.0422203,615,1128,-56.6025,-7.53755
-602,-104,-56.4187,8.13696,0,0,0,0,0,0,0,-1,622,1128,-56.4187,-8.13702
-595,-104,-55.662,8.37207,0,0,0,0,0,0,0,-1,629,1128,-55.662,-8.37205
-588,-104,-55.9136,9.13232,0,0,0,0,0,0,0,-1,636,1128,-55.9136,-9.13236
-581,-104,-23.9373,2.85864,0,0,0,0,0,0,0,-1,643,1128,-23.9373,-2.85861
-574,-104,-61.3387,0.550537,0,0,0,0,0,0,0,-1,650,1128,-61.3387,-0.550533
-567,-104,-61.3495,0.537231,0,0,0,0,0,0,0,-1,657,1128,-61.3496,-0.537198
-560,-104,-61.4733,0.724365,0,0,0,0,0,0,0,-1,664,1128,-61.4734,-0.724363
-553,-104,-61.333,0.368896,0.000905774,0.000394467,-0.00114616,0.00182445,-0.000524208,-0.675668,0.00142358,0.0446889,671,1128,-61.333,-0.368845
-546,-104,-61.35,0.140015,0.000757327,0.00048938,0.000199342,0.000863532,0.000383174,0.489528,0.000499612,0.043978,678,1128,-61.35,-0.13997
-539,-104,-61.3695,0.243652,0.000833966,-0.000219643,0.00197081,0.00234716,-0.00173284,0.654799,0.00236447,0.0400479,685,1128,-61.3695,-0.243617
-532,-104,-61.459,0.407471,0.00098564,-0.00109073,0.00365314,0.00374525,-0.00385034,0.646954,0.00438546,0.0429776,692,1128,-61.459,-0.407456
-525,-104,-61.4859,0.595337,0.00114438,-0.00188371,0.00512517,0.00497446,-0.00571379,0.641776,0.00617579,0.0405334,699,1128,-61.4859,-0.59537
-518,-104,0,0,0,0,0,0,0,0,0,-1,706,1128,0,0
-511,-104,0,0,0,0,0,0,0,0,0,-1,713,1128,0,0
-504,-104,0,0,0,0,0,0,0,0,0,-1,720,1128,0,0
-497,-104,0,0,0,0,0,0,0,0,0,-1,727,1128,0,0
-490,-104,0,0,0,0,0,0,0,0,0,-1,734,1128,0,0
-483,-104,0,0,0,0,0,0,0,0,0,-1,741,1128,0,0
-476,-104,0,0,0,0,0,0,0,0,0,-1,748,1128,0,0
-469,-104,0,0,0,0,0,0,0,0,0,-1,755,1128,0,0
-462,-104,0,0,0,0,0,0,0,0,0,-1,762,1128,0,0
-455,-104,0,0,0,0,0,0,0,0,0,-1,769,1128,0,0
-448,-104,0,0,0,0,0,0,0,0,0,-1,776,1128,0,0
-441,-104,0,0,0,0,0,0,0,0,0,-1,783,1128,0,0
-434,-104,0,0,0,0,0,0,0,0,0,-1,790,1128,0,0
-427,-104,0,0,0,0,0,0,0,0,0,-1,797,1128,0,0
-420,-104,0,0,0,0,0,0,0,0,0,-1,804,1128,0,0
-413,-104,0,0,0,0,0,0,0,0,0,-1,811,1128,0,0
-406,-104,0,0,0,0,0,0,0,0,0,-1,818,1128,0,0
-399,-104,0,0,0,0,0,0,0,0,0,-1,825,1128,0,0
-392,-104,0,0,0,0,0,0,0,0,0,-1,832,1128,0,0
-385,-104,0,0,0,0,0,0,0,0,0,-1,839,1128,0,0
-378,-104,0,0,0,0,0,0,0,0,0,-1,846,1128,0,0
-371,-104,0,0,0,0,0,0,0,0,0,-1,853,1128,0,0
-364,-104,0,0,0,0,0,0,0,0,0,-1,860,1128,0,0
-357,-104,0,0,0,0,0,0,0,0,0,-1,867,1128,0,0
-350,-104,0,0,0,0,0,0,0,0,0,-1,874,1128,0,0
-343,-104,0,0,0,0,0,0,0,0,0,-1,881,1128,0,0
-336,-104,0,0,0,0,0,0,0,0,0,-1,888,1128,0,0
-329,-104,0,0,0,0,0,0,0,0,0,-1,895,1128,0,0
-322,-104,0,0,0,0,0,0,0,0,0,-1,902,1128,0,0
-315,-104,0,0,0,0,0,0,0,0,0,-1,909,1128,0,0
-308,-104,0,0,0,0,0,0,0,0,0,-1,916,1128,0,0
-301,-104,0,0,0,0,0,0,0,0,0,-1,923,1128,0,0
-294,-104,0,0,0,0,0,0,0,0,0,-1,930,1128,0,0
-287,-104,0,0,0,0,0,0,0,0,0,-1,937,1128,0,0
-280,-104,0,0,0,0,0,0,0,0,0,-1,944,1128,0,0
-273,-104,0,0,0,0,0,0,0,0,0,-1,951,1128,0,0
-266,-104,0,0,0,0,0,0,0,0,0,-1,958,1128,0,0
-259,-104,0,0,0,0,0,0,0,0,0,-1,965,1128,0,0
-252,-104,0,0,0,0,0,0,0,0,0,-1,972,1128,0,0
-245,-104,0,0,0,0,0,0,0,0,0,-1,979,1128,0,0
-238,-104,0,0,0,0,0,0,0,0,0,-1,986,1128,0,0
-231,-104,0,0,0,0,0,0,0,0,0,-1,993,1128,0,0
-224,-104,0,0,0,0,0,0,0,0,0,-1,1000,1128,0,0
-217,-104,0,0,0,0,0,0,0,0,0,-1,1007,1128,0,0
-210,-104,0,0,0,0,0,0,0,0,0,-1,1014,1128,0,0
-203,-104,0,0,0,0,0,0,0,0,0,-1,1021,1128,0,0
-196,-104,0,0,0,0,0,0,0,0,0,-1,1028,1128,0,0
-189,-104,0,0,0,0,0,0,0,0,0,-1,1035,1128,0,0
-182,-104,0,0,0,0,0,0,0,0,0,-1,1042,1128,0,0
-175,-104,0,0,0,0,0,0,0,0,0,-1,1049,1128,0,0
-168,-104,0,0,0,0,0,0,0,0,0,-1,1056,1128,0,0
-161,-104,0,0,0,0,0,0,0,0,0,-1,1063,1128,0,0
-154,-104,0,0,0,0,0,0,0,0,0,-1,1070,1128,0,0
-147,-104,0,0,0,0,0,0,0,0,0,-1,1077,1128,0,0
-140,-104,0,0,0,0,0,0,0,0,0,-1,1084,1128,0,0
-133,-104,0,0,0,0,0,0,0,0,0,-1,1091,1128,0,0
-126,-104,0,0,0,0,0,0,0,0,0,-1,1098,1128,0,0
-119,-104,0,0,0,0,0,0,0,0,0,-1,1105,1128,0,0
-112,-104,0,0,0,0,0,0,0,0,0,-1,1112,1128,0,0
-105,-104,0,0,0,0,0,0,0,0,0,-1,1119,1128,0,0
-98,-104,0,0,0,0,0,0,0,0,0,-1,1126,1128,0,0
-91,-104,0,0,0,0,0,0,0,0,0,-1,1133,1128,0,0
-84,-104,0,0,0,0,0,0,0,0,0,-1,1140,1128,0,0
-77,-104,0,0,0,0,0,0,0,0,0,-1,1147,1128,0,0
-70,-104,0,0,0,0,0,0,0,0,0,-1,1154,1128,0,0
-63,-104,0,0,0,0,0,0,0,0,0,-1,1161,1128,0,0
-56,-104,0,0,0,0,0,0,0,0,0,-1,1168,1128,0,0
-49,-104,0,0,0,0,0,0,0,0,0,-1,1175,1128,0,0
-42,-104,0,0,0,0,0,0,0,0,0,-1,1182,1128,0,0
-35,-104,0,0,0,0,0,0,0,0,0,-1,1189,1128,0,0
-28,-104,0,0,0,0,0,0,0,0,0,-1,1196,1128,0,0
-21,-104,0,0,0,0,0,0,0,0,0,-1,1203,1128,0,0
-14,-104,0,0,0,0,0,0,0,0,0,-1,1210,1128,0,0
-7,-104,0,0,0,0,0,0,0,0,0,-1,1217,1128,0,0
0,-104,0,0,0,0,0,0,0,0,0,-1,1224,1128,0,0
7,-104,0,0,0,0,0,0,0,0,0,-1,1231,1128,0,0
14,-104,0,0,0,0,0,0,0,0,0,-1,1238,1128,0,0
21,-104,0,0,0,0,0,0,0,0,0,-1,1245,1128,0,0
28,-104,0,0,0,0,0,0,0,0,0,-1,1252,1128,0,0
35,-104,0,0,0,0,0,0,0,0,0,-1,1259,1128,0,0
42,-104,0,0,0,0,0,0,0,0,0,-1,1266,1128,0,0
49,-104,0,0,0,0,0,0,0,0,0,-1,1273,1128,0,0
56,-104,0,0,0,0,0,0,0,0,0,-1,1280,1128,0,0
63,-104,0,0,0,0,0,0,0,0,0,-1,1287,1128,0,0
70,-104,0,0,0,0,0,0,0,0,0,-1,1294,1128,0,0
77,-104,0,0,0,0,0,0,0,0,0,-1,1301,1128,0,0
84,-104,0,0,0,0,0,0,0,0,0,-1,1308,1128,0,0
91,-104,0,0,0,0,0,0,0,0,0,-1,1315,1128,0,0
98,-104,0,0,0,0,0,0,0,0,0,-1,1322,1128,0,0
105,-104,0,0,0,0,0,0,0,0,0,-1,1329,1128,0,0
112,-104,0,0,0,0,0,0,0,0,0,-1,1336,1128,0,0
119,-104,0,0,0,0,0,0,0,0,0,-1,1343,1128,0,0
126,-104,0,0,0,0,0,0,0,0,0,-1,1350,1128,0,0
133,-104,0,0,0,0,0,0,0,0,0,-1,1357,1128,0,0
140,-104,0,0,0,0,0,0,0,0,0,-1,1364,1128,0,0
147,-104,0,0,0,0,0,0,0,0,0,-1,1371,1128,0,0
154,-104,0,0,0,0,0,0,0,0,0,-1,1378,1128,0,0
161,-104,0,0,0,0,0,0,0,0,0,-1,1385,1128,0,0
168,-104,0,0,0,0,0,0,0,0,0,-1,1392,1128,0,0
175,-104,0,0,0,0,0,0,0,0,0,-1,1399,1128,0,0
182,-104,0,0,0,0,0,0,0,0,0,-1,1406,1128,0,0
189,-104,0,0,0,0,0,0,0,0,0,-1,1413,1128,0,0
196,-104,0,0,0,0,0,0,0,0,0,-1,1420,1128,0,0
203,-104,0,0,0,0,0,0,0,0,0,-1,1427,1128,0,0
210,-104,0,0,0,0,0,0,0,0,0,-1,1434,1128,0,0
217,-104,0,0,0,0,0,0,0,0,0,-1,1441,1128,0,0
224,-104,0,0,0,0,0,0,0,0,0,-1,1448,1128,0,0
231,-104,0,0,0,0,0,0,0,0,0,-1,1455,1128,0,0
238,-104,0,0,0,0,0,0,0,0,0,-1,1462,1128,0,0
245,-104,0,0,0,0,0,0,0,0,0,-1,1469,1128,0,0
252,-104,0,0,0,0,0,0,0,0,0,-1,1476,1128,0,0
259,-104,0,0,0,0,0,0,0,0,0,-1,1483,1128,0,0
266,-104,0,0,0,0,0,0,0,0,0,-1,1490,1128,0,0
273,-104,0,0,0,0,0,0,0,0,0,-1,1497,1128,0,0
280,-104,0,0,0,0,0,0,0,0,0,-1,1504,1128,0,0
287,-104,0,0,0,0,0,0,0,0,0,-1,1511,1128,0,0
294,-104,0,0,0,0,0,0,0,0,0,-1,1518,1128,0,0
301,-104,0,0,0,0,0,0,0,0,0,-1,1525,1128,0,0
308,-104,0,0,0,0,0,0,0,0,0,-1,1532,1128,0,0
315,-104,0,0,0,0,0,0,0,0,0,-1,1539,1128,0,0
322,-104,0,0,0,0,0,0,0,0,0,-1,1546,1128,0,0
329,-104,0,0,0,0,0,0,0,0,0,-1,1553,1128,0,0
336,-104,0,0,0,0,0,0,0,0,0,-1,1560,1128,0,0
343,-104,0,0,0,0,0,0,0,0,0,-1,1567,1128,0,0
350,-104,0,0,0,0,0,0,0,0,0,-1,1574,1128,0,0
357,-104,0,0,0,0,0,0,0,0,0,-1,1581,1128,0,0
364,-104,0,0,0,0,0,0,0,0,0,-1,1588,1128,0,0
371,-104,0,0,0,0,0,0,0,0,0,-1,1595,1128,0,0
378,-104,0,0,0,0,0,0,0,0,0,-1,1602,1128,0,0
385,-104,0,0,0,0,0,0,0,0,0,-1,1609,1128,0,0
392,-104,0,0,0,0,0,0,0,0,0,-1,1616,1128,0,0
399,-104,0,0,0,0,0,0,0,0,0,-1,1623,1128,0,0
406,-104,0,0,0,0,0,0,0,0,0,-1,1630,1128,0,0
413,-104,0,0,0,0,0,0,0,0,0,-1,1637,1128,0,0
420,-104,0,0,0,0,0,0,0,0,0,-1,1644,1128,0,0
427,-104,0,0,0,0,0,0,0,0,0,-1,1651,1128,0,0
434,-104,0,0,0,0,0,0,0,0,0,-1,1658,1128,0,0
441,-104,0,0,0,0,0,0,0,0,0,-1,1665,1128,0,0
448,-104,0,0,0,0,0,0,0,0,0,-1,1672,1128,0,0
455,-104,0,0,0,0,0,0,0,0,0,-1,1679,1128,0,0
462,-104,0,0,0,0,0,0,0,0,0,-1,1686,1128,0,0
469,-104,0,0,0,0,0,0,0,0,0,-1,1693,1128,0,0
476,-104,0,0,0,0,0,0,0,0,0,-1,1700,1128,0,0
483,-104,0,0,0,0,0,0,0,0,0,-1,1707,1128,0,0
490,-104,0,0,0,0,0,0,0,0,0,-1,1714,1128,0,0
497,-104,0,0,0,0,0,0,0,0,0,-1,1721,1128,0,0
504,-104,0,0,0,0,0,0,0,0,0,-1,1728,1128,0,0
511,-104,0,0,0,0,0,0,0,0,0,-1,1735,1128,0,0
518,-104,0,0,0,0,0,0,0,0,0,-1,1742,1128,0,0
525,-104,0,0,0,0,0,0,0,0,0,-1,1749,1128,0,0
532,-104,0,0,0,0,0,0,0,0,0,-1,1756,1128,0,0
539,-104,0,0,0,0,0,0,0,0,0,-1,1763,1128,0,0
546,-104,0,0,0,0,0,0,0,0,0,-1,1770,1128,0,0
553,-104,0,0,0,0,0,0,0,0,0,-1,1777,1128,0,0
560,-104,0,0,0,0,0,0,0,0,0,-1,1784,1128,0,0
567,-104,0,0,0,0,0,0,0,0,0,-1,1791,1128,0,0
574,-104,0,0,0,0,0,0,0,0,0,-1,1798,1128,0,0
581,-104,0,0,0,0,0,0,0,0,0,-1,1805,1128,0,0
588,-104,0,0,0,0,0,0,0,0,0,-1,1812,1128,0,0
595,-104,0,0,0,0,0,0,0,0,0,-1,1819,1128,0,0
602,-104,0,0,0,0,0,0,0,0,0,-1,1826,1128,0,0
609,-104,0,0,0,0,0,0,0,0,0,-1,1833,1128,0,0
616,-104,0,0,0,0,0,0,0,0,0,-1,1840,1128,0,0
623,-104,0,0,0,0,0,0,0,0,0,-1,1847,1128,0,0
630,-104,0,0,0,0,0,0,0,0,0,-1,1854,1128,0,0
637,-104,0,0,0,0,0,0,0,0,0,-1,1861,1128,0,0
644,-104,77.5472,2.66943,0.00880176,-0.00202364,0.00300121,0.00957813,-0.00280001,0.253136,0.00749517,0.0353358,1868,1128,77.5473,-2.6694
651,-104,77.7479,2.60681,0.0059415,-0.0010685,0.0017516,0.00635481,-0.0014818,0.231721,0.00480721,0.0367967,1875,1128,77.748,-2.60682
658,-104,77.7184,2.59778,0.00427466,-0.000595271,0.00100721,0.00447475,-0.000795363,0.196106,0.00328059,0.0412213,1882,1128,77.7183,-2.59783
665,-104,77.653,2.51001,0.00305431,-0.000230036,0.000458937,0.00311724,-0.00029296,0.136258,0.00218238,0.0451375,1889,1128,77.6529,-2.50995
672,-104,77.6339,2.41699,0.00222142,4.02739e-05,7.14823e-05,0.00222376,3.79337e-05,0.032726,0.00147003,0.0429097,1896,1128,77.634,-2.41701
679,-104,77.629,2.41272,0.0018211,-0.000128458,-4.51186e-05,0.00182214,-0.000129501,-0.0231265,0.00126015,0.0404187,1903,1128,77.629,-2.41269
686,-104,77.5712,2.35718,0.00173331,-0.000247325,-0.000169407,0.00174769,-0.00026171,-0.0847119,0.00126145,0.0396234,1910,1128,77.5711,-2.35716
693,-104,77.6986,2.38562,0.00167458,-0.0004651,-3.90985e-05,0.0016753,-0.000465814,-0.0182649,0.00130025,0.0363949,1917,1128,77.6986,-2.38566
700,-104,77.7405,2.45935,0.00161672,-0.000573005,9.53841e-05,0.00162087,-0.000577152,0.0434502,0.00131585,0.0272959,1924,1128,77.7405,-2.45932
707,-104,77.748,2.5144,0,0,0,0,0,0,0,-1,1931,1128,77.7481,-2.51443
714,-104,45.5221,2.32166,0,0,0,0,0,0,0,-1,1938,1128,45.5221,-2.3216
721,-104,71.7202,10.2366,0,0,0,0,0,0,0,-1,1945,1128,71.7202,-10.2365
728,-104,71.8561,9.57227,0,0,0,0,0,0,0,-1,1952,1128,71.8561,-9.57229
735,-104,72.047,8.65295,0,0,0,0,0,0,0,-1,1959,1128,72.047,-8.65292
742,-104,71.7426,8.33667,-0.000972018,0.0014364,0.00115144,0.00189831,-0.00143392,1.1893,0.00193008,0.026893,1966,1128,71.7426,-8.33665
749,-104,71.6255,7.74438,-0.00168198,0.00287312,0.00081509,0.00301458,-0.00182344,1.39896,0.00282131,0.025286,1973,1128,71.6255,-7.74442
756,-104,71.6167,7.11731,-0.00206289,0.00483448,-0.000119859,0.00483657,-0.00206497,-1.55343,0.0040903,0.0194737,1980,1128,71.6167,-7.11732
763,-104,71.5112,6.55786,-0.000806271,0.007929,-0.00286397,0.00878426,-0.00166152,-1.2806,0.00648139,0.0208707,1987,1128,71.5112,-6.55783
770,-104,71.4448,6.01245,0.00168303,0.0116329,-0.00681926,0.0150991,-0.00178314,-1.10054,0.01071,0.0189473,1994,1128,71.4447,-6.01246
777,-104,71.3562,5.39929,0.00578478,0.0157478,-0.0119049,0.0236714,-0.00213878,-0.983551,0.01654,0.0282951,2001,1128,71.3561,-5.39926
784,-104,71.4661,4.70581,0,0,0,0,0,0,0,-1,2008,1128,71.466,-4.70579
791,-104,69.6448,4.10657,0,0,0,0,0,0,0,-1,2015,1128,69.6448,-4.10663
798,-104,72.4832,2.95728,0,0,0,0,0,0,0,-1,2022,1128,72.4833,-2.95728
805,-104,72.8513,1.68823,0.0457688,0.0370488,-0.0457411,0.0873572,-0.00453959,-0.737882,0.0598088,0.0452765,2029,1128,72.8513,-1.68822
812,-104,72.7832,0.848145,0.063857,0.0439533,-0.0578725,0.112627,-0.00481681,-0.70025,0.0767407,0.0453786,2036,1128,72.7832,-0.848173
-700,-111,0,0,0,0,0,0,0,0,0,-1,524,1135,0,0
-693,-111,-56.5039,-0.942627,0,0,0,0,0,0,0,-1,531,1135,-56.5039,0.942651
-686,-111,-55.5511,-0.339478,0.125988,0.0280437,-0.0483866,0.14586,0.00817151,-0.389692,0.0946339,0.0493559,538,1135,-55.5511,0.339451
-679,-111,-54.5437,0.274292,0.0939308,0.0225547,-0.0402939,0.112069,0.00441673,-0.422971,0.0732846,0.0460273,545,1135,-54.5437,-0.274253
-672,-111,-53.6133,0.764893,0,0,0,0,0,0,0,-1,552,1135,-53.6133,-0.764949
-665,-111,-60.8564,-7.58533,0,0,0,0,0,0,0,-1,559,1135,-60.8564,7.58531
-658,-111,-54.1836,2.59253,0,0,0,0,0,0,0,-1,566,1135,-54.1836,-2.59259
-651,-111,-55.1509,3.64722,0,0,0,0,0,0,0,-1,573,1135,-55.1509,-3.64727
-644,-111,-55.0677,4.33032,0.00698382,0.00650901,-0.00935117,0.0161006,-0.00260777,-0.772707,0.0117003,0.0286266,580,1135,-55.0677,-4.33036
-637,-111,-55.1901,5.01147,-0.000723022,0.00461926,-0.0053905,0.00796414,-0.0040679,-1.01543,0.00706707,0.0143484,587,1135,-55.1901,-5.0115
-630,-111,-55.235,5.54138,-0.00634502,0.002875,-0.00274633,0.00363105,-0.00710106,-1.30216,0.00630322,0.0304928,594,1135,-55.235,-5.54143
-623,-111,-55.272,6.27075,-0.00817193,0.00159529,-0.00187654,0.00194341,-0.00852005,-1.38737,0.00642655,0.0265255,601,1135,-55.272,-6.27081
-616,-111,-55.6868,6.93494,-0.0077464,0.00179128,-0.00231504,0.0023235,-0.00827862,-1.34483,0.00643496,0.0323279,608,1135,-55.6868,-6.93489
-609,-111,-55.9314,7.53662,-0.0066037,0.00165467,-0.00264389,0.00242858,-0.0073776,-1.28604,0.00589705,0.0396928,615,1135,-55.9314,-7.53657
-602,-111,-55.885,8.32837,0,0,0,0,0,0,0,-1,622,1135,-55.885,-8.32835
-595,-111,-54.9363,8.4364,0,0,0,0,0,0,0,-1,629,1135,-54.9363,-8.43644
-588,-111,-54.5975,9.34033,0,0,0,0,0,0,0,-1,636,1135,-54.5975,-9.34039
-581,-111,-21.0555,3.14551,0,0,0,0,0,0,0,-1,643,1135,-21.0555,-3.14548
-574,-111,-61.3339,0.641602,0,0,0,0,0,0,0,-1,650,1135,-61.3339,-0.641558
-567,-111,-61.3666,0.666748,-0.00144667,1.58506e-05,-0.00159704,0.00104108,-0.0024719,-1.00009,0.00208354,0.0376709,657,1135,-61.3666,-0.66673
-560,-111,-61.4003,0.69873,0.000305414,7.40512e-06,-0.00170819,0.00187109,-0.00155827,-0.741894,0.00198268,0.0375441,664,1135,-61.4003,-0.698717
-553,-111,-61.3872,0.559326,0.00110822,0.000275612,-0.00124607,0.00200569,-0.000621856,-0.62418,0.0015856,0.04174,671,1135,-61.3872,-0.559349
-546,-111,-61.4544,0.527588,0.000986273,0.000407397,-9.16529e-06,0.000986418,0.000407252,-0.0158276,0.000572384,0.039249,678,1135,-61.4544,-0.527624
-539,-111,-61.4648,0.484375,0.000971974,-0.00015959,0.0015022,0.0020114,-0.00119902,0.605296,0.00187322,0.0399005,685,1135,-61.4648,-0.484412
-532,-111,-61.4775,0.612793,0.00102577,-0.000887614,0.00281587,0.00304302,-0.00290487,0.621641,0.00343433,0.0425909,692,1135,-61.4775,-0.612835
-525,-111,-61.4644,0.628906,0.00109412,-0.0015483,0.00382658,0.00382116,-0.00427534,0.61917,0.00467696,0.0399847,699,1135,-61.4644,-0.628966
-518,-111,0,0,0,0,0,0,0,0,0,-1,706,1135,0,0
-511,-111,0,0,0,0,0,0,0,0,0,-1,713,1135,0,0
-504,-111,0,0,0,0,0,0,0,0,0,-1,720,1135,0,0
-497,-111,0,0,0,0,0,0,0,0,0,-1,727,1135,0,0
-490,-111,0,0,0,0,0,0,0,0,0,-1,734,1135,0,0
-483,-111,0,0,0,0,0,0,0,0,0,-1,741,1135,0,0
-476,-111,0,0,0,0,0,0,0,0,0,-1,748,1135,0,0
-469,-111,0,0,0,0,0,0,0,0,0,-1,755,1135,0,0
-462,-111,0,0,0,0,0,0,0,0,0,-1,762,1135,0,0
-455,-111,0,0,0,0,0,0,0,0,0,-1,769,1135,0,0
-448,-111,0,0,0,0,0,0,0,0,0,-1,776,1135,0,0
-441,-111,0,0,0,0,0,0,0,0,0,-1,783,1135,0,0
-434,-111,0,0,0,0,0,0,0,0,0,-1,790,1135,0,0
-427,-111,0,0,0,0,0,0,0,0,0,-1,797,1135,0,0
-420,-111,0,0,0,0,0,0,0,0,0,-1,804,1135,0,0
-413,-111,0,0,0,0,0,0,0,0,0,-1,811,1135,0,0
-406,-111,0,0,0,0,0,0,0,0,0,-1,818,1135,0,0
-399,-111,0,0,0,0,0,0,0,0,0,-1,825,1135,0,0
-392,-111,0,0,0,0,0,0,0,0,0,-1,832,1135,0,0
-385,-111,0,0,0,0,0,0,0,0,0,-1,839,1135,0,0
-378,-111,0,0,0,0,0,0,0,0,0,-1,846,1135,0,0
-371,-111,0,0,0,0,0,0,0,0,0,-1,853,1135,0,0
-364,-111,0,0,0,0,0,0,0,0,0,-1,860,1135,0,0
-357,-111,0,0,0,0,0,0,0,0,0,-1,867,1135,0,0
-350,-111,0,0,0,0,0,0,0,0,0,-1,874,1135,0,0
-343,-111,0,0,0,0,0,0,0,0,0,-1,881,1135,0,0
-336,-111,0,0,0,0,0,0,0,0,0,-1,888,1135,0,0
-329,-111,0,0,0,0,0,0,0,0,0,-1,895,1135,0,0
-322,-111,0,0,0,0,0,0,0,0,0,-1,902,1135,0,0
-315,-111,0,0,0,0,0,0,0,0,0,-1,909,1135,0,0
-308,-111,0,0,0,0,0,0,0,0,0,-1,916,1135,0,0
-301,-111,0,0,0,0,0,0,0,0,0,-1,923,1135,0,0
-294,-111,0,0,0,0,0,0,0,0,0,-1,930,1135,0,0
-287,-111,0,0,0,0,0,0,0,0,0,-1,937,1135,0,0
-280,-111,0,0,0,0,0,0,0,0,0,-1,944,1135,0,0
-273,-111,0,0,0,0,0,0,0,0,0,-1,951,1135,0,0
-266,-111,0,0,0,0,0,0,0,0,0,-1,958,1135,0,0
-259,-111,0,0,0,0,0,0,0,0,0,-1,965,1135,0,0
-252,-111,0,0,0,0,0,0,0,0,0,-1,972,1135,0,0
-245,-111,0,0,0,0,0,0,0,0,0,-1,979,1135,0,0
-238,-111,0,0,0,0,0,0,0,0,0,-1,986,1135,0,0
-231,-111,0,0,0,0,0,0,0,0,0,-1,993,1135,0,0
-224,-111,0,0,0,0,0,0,0,0,0,-1,1000,1135,0,0
-217,-111,0,0,0,0,0,0,0,0,0,-1,1007,1135,0,0
-210,-111,0,0,0,0,0,0,0,0,0,-1,1014,1135,0,0
-203,-111,0,0,0,0,0,0,0,0,0,-1,1021,1135,0,0
-196,-111,0,0,0,0,0,0,0,0,0,-1,1028,1135,0,0
-189,-111,0,0,0,0,0,0,0,0,0,-1,1035,1135,0,0
-182,-111,0,0,0,0,0,0,0,0,0,-1,1042,1135,0,0
-175,-111,0,0,0,0,0,0,0,0,0,-1,1049,1135,0,0
-168,-111,0,0,0,0,0,0,0,0,0,-1,1056,1135,0,0
-161,-111,0,0,0,0,0,0,0,0,0,-1,1063,1135,0,0
-154,-111,0,0,0,0,0,0,0,0,0,-1,1070,1135,0,0
-147,-111,0,0,0,0,0,0,0,0,0,-1,1077,1135,0,0
-140,-111,0,0,0,0,0,0,0,0,0,-1,1084,1135,0,0
-133,-111,0,0,0,0,0,0,0,0,0,-1,1091,1135,0,0
-126,-111,0,0,0,0,0,0,0,0,0,-1,1098,1135,0,0
-119,-111,0,0,0,0,0,0,0,0,0,-1,1105,1135,0,0
-112,-111,0,0,0,0,0,0,0,0,0,-1,1112,1135,0,0
-105,-111,0,0,0,0,0,0,0,0,0,-1,1119,1135,0,0
-98,-111,0,0,0,0,0,0,0,0,0,-1,1126,1135,0,0
-91,-111,0,0,0,0,0,0,0,0,0,-1,1133,1135,0,0
-84,-111,0,0,0,0,0,0,0,0,0,-1,1140,1135,0,0
-77,-111,0,0,0,0,0,0,0,0,0,-1,1147,1135,0,0
-70,-111,0,0,0,0,0,0,0,0,0,-1,1154,1135,0,0
-63,-111,0,0,0,0,0,0,0,0,0,-1,1161,1135,0,0
-56,-111,0,0,0,0,0,0,0,0,0,-1,1168,1135,0,0
-49,-111,0,0,0,0,0,0,0,0,0,-1,1175,1135,0,0
-42,-111,0,0,0,0,0,0,0,0,0,-1,1182,1135,0,0
-35,-111,0,0,0,0,0,0,0,0,0,-1,1189,1135,0,0
-28,-111,0,0,0,0,0,0,0,0,0,-1,1196,1135,0,0
-21,-111,0,0,0,0,0,0,0,0,0,-1,1203,1135,0,0
-14,-111,0,0,0,0,0,0,0,0,0,-1,1210,1135,0,0
-7,-111,0,0,0,0,0,0,0,0,0,-1,1217,1135,0,0
0,-111,0,0,0,0,0,0,0,0,0,-1,1224,1135,0,0
7,-111,0,0,0,0,0,0,0,0,0,-1,1231,1135,0,0
14,-111,0,0,0,0,0,0,0,0,0,-1,1238,1135,0,0
21,-111,0,0,0,0,0,0,0,0,0,-1,1245,1135,0,0
28,-111,0,0,0,0,0,0,0,0,0,-1,1252,1135,0,0
35,-111,0,0,0,0,0,0,0,0,0,-1,1259,1135,0,0
42,-111,0,0,0,0,0,0,0,0,0,-1,1266,1135,0,0
49,-111,0,0,0,0,0,0,0,0,0,-1,1273,1135,0,0
56,-111,0,0,0,0,0,0,0,0,0,-1,1280,1135,0,0
63,-111,0,0,0,0,0,0,0,0,0,-1,1287,1135,0,0
70,-111,0,0,0,0,0,0,0,0,0,-1,1294,1135,0,0
77,-111,0,0,0,0,0,0,0,0,0,-1,1301,1135,0,0
84,-111,0,0,0,0,0,0,0,0,0,-1,1308,1135,0,0
91,-111,0,0,0,0,0,0,0,0,0,-1,1315,1135,0,0
98,-111,0,0,0,0,0,0,0,0,0,-1,1322,1135,0,0
105,-111,0,0,0,0,0,0,0,0,0,-1,1329,1135,0,0
112,-111,0,0,0,0,0,0,0,0,0,-1,1336,1135,0,0
119,-111,0,0,0,0,0,0,0,0,0,-1,1343,1135,0,0
126,-111,0,0,0,0,0,0,0,0,0,-1,1350,1135,0,0
133,-111,0,0,0,0,0,0,0,0,0,-1,1357,1135,0,0
140,-111,0,0,0,0,0,0,0,0,0,-1,1364,1135,0,0
147,-111,0,0,0,0,0,0,0,0,0,-1,1371,1135,0,0
154,-111,0,0,0,0,0,0,0,0,0,-1,1378,1135,0,0
161,-111,0,0,0,0,0,0,0,0,0,-1,1385,1135,0,0
168,-111,0,0,0,0,0,0,0,0,0,-1,1392,1135,0,0
175,-111,0,0,0,0,0,0,0,0,0,-1,1399,1135,0,0
182,-111,0,0,0,0,0,0,0,0,0,-1,1406,1135,0,0
189,-111,0,0,0,0,0,0,0,0,0,-1,1413,1135,0,0
196,-111,0,0,0,0,0,0,0,0,0,-1,1420,1135,0,0
203,-111,0,0,0,0,0,0,0,0,0,-1,1427,1135,0,0
210,-111,0,0,0,0,0,0,0,0,0,-1,1434,1135,0,0
217,-111,0,0,0,0,0,0,0,0,0,-1,1441,1135,0,0
224,-111,0,0,0,0,0,0,0,0,0,-1,1448,1135,0,0
231,-111,0,0,0,0,0,0,0,0,0,-1,1455,1135,0,0
238,-111,0,0,0,0,0,0,0,0,0,-1,1462,1135,0,0
245,-111,0,0,0,0,0,0,0,0,0,-1,1469,1135,0,0
252,-111,0,0,0,0,0,0,0,0,0,-1,1476,1135,0,0
259,-111,0,0,0,0,0,0,0,0,0,-1,1483,1135,0,0
266,-111,0,0,0,0,0,0,0,0,0,-1,1490,1135,0,0
273,-111,0,0,0,0,0,0,0,0,0,-1,1497,1135,0,0
280,-111,0,0,0,0,0,0,0,0,0,-1,1504,1135,0,0
287,-111,0,0,0,0,0,0,0,0,0,-1,1511,1135,0,0
294,-111,0,0,0,0,0,0,0,0,0,-1,1518,1135,0,0
301,-111,0,0,0,0,0,0,0,0,0,-1,1525,1135,0,0
308,-111,0,0,0,0,0,0,0,0,0,-1,1532,1135,0,0
315,-111,0,0,0,0,0,0,0,0,0,-1,1539,1135,0,0
322,-111,0,0,0,0,0,0,0,0,0,-1,1546,1135,0,0
329,-111,0,0,0,0,0,0,0,0,0,-1,1553,1135,0,0
336,-111,0,0,0,0,0,0,0,0,0,-1,1560,1135,0,0
343,-111,0,0,0,0,0,0,0,0,0,-1,1567,1135,0,0
350,-111,0,0,0,0,0,0,0,0,0,-1,1574,1135,0,0
357,-111,0,0,0,0,0,0,0,0,0,-1,1581,1135,0,0
364,-111,0,0,0,0,0,0,0,0,0,-1,1588,1135,0,0
371,-111,0,0,0,0,0,0,0,0,0,-1,1595,1135,0,0
378,-111,0,0,0,0,0,0,0,0,0,-1,1602,1135,0,0
385,-111,0,0,0,0,0,0,0,0,0,-1,1609,1135,0,0
392,-111,0,0,0,0,0,0,0,0,0,-1,1616,1135,0,0
399,-111,0,0,0,0,0,0,0,0,0,-1,1623,1135,0,0
406,-111,0,0,0,0,0,0,0,0,0,-1,1630,1135,0,0
413,-111,0,0,0,0,0,0,0,0,0,-1,1637,1135,0,0
420,-111,0,0,0,0,0,0,0,0,0,-1,1644,1135,0,0
427,-111,0,0,0,0,0,0,0,0,0,-1,1651,1135,0,0
434,-111,0,0,0,0,0,0,0,0,0,-1,1658,1135,0,0
441,-111,0,0,0,0,0,0,0,0,0,-1,1665,1135,0,0
448,-111,0,0,0,0,0,0,0,0,0,-1,1672,1135,0,0
455,-111,0,0,0,0,0,0,0,0,0,-1,1679,1135,0,0
462,-111,0,0,0,0,0,0,0,0,0,-1,1686,1135,0,0
469,-111,0,0,0,0,0,0,0,0,0,-1,1693,1135,0,0
476,-111,0,0,0,0,0,0,0,0,0,-1,1700,1135,0,0
483,-111,0,0,0,0,0,0,0,0,0,-1,1707,1135,0,0
490,-111,0,0,0,0,0,0,0,0,0,-1,1714,1135,0,0
497,-111,0,0,0,0,0,0,0,0,0,-1,1721,1135,0,0
504,-111,0,0,0,0,0,0,0,0,0,-1,1728,1135,0,0
511,-111,0,0,0,0,0,0,0,0,0,-1,1735,1135,0,0
518,-111,0,0,0,0,0,0,0,0,0,-1,1742,1135,0,0
525,-111,0,0,0,0,0,0,0,0,0,-1,1749,1135,0,0
532,-111,0,0,0,0,0,0,0,0,0,-1,1756,1135,0,0
539,-111,0,0,0,0,0,0,0,0,0,-1,1763,1135,0,0
546,-111,0,0,0,0,0,0,0,0,0,-1,1770,1135,0,0
553,-111,0,0,0,0,0,0,0,0,0,-1,1777,1135,0,0
560,-111,0,0,0,0,0,0,0,0,0,-1,1784,1135,0,0
567,-111,0,0,0,0,0,0,0,0,0,-1,1791,1135,0,0
574,-111,0,0,0,0,0,0,0,0,0,-1,1798,1135,0,0
581,-111,0,0,0,0,0,0,0,0,0,-1,1805,1135,0,0
588,-111,0,0,0,0,0,0,0,0,0,-1,1812,1135,0,0
595,-111,0,0,0,0,0,0,0,0,0,-1,1819,1135,0,0
602,-111,0,0,0,0,0,0,0,0,0,-1,1826,1135,0,0
609,-111,0,0,0,0,0,0,0,0,0,-1,1833,1135,0,0
616,-111,0,0,0,0,0,0,0,0,0,-1,1840,1135,0,0
623,-111,0,0,0,0,0,0,0,0,0,-1,1847,1135,0,0
630,-111,0,0,0,0,0,0,0,0,0,-1,1854,1135,0,0
637,-111,0,0,0,0,0,0,0,0,0,-1,1861,1135,0,0
644,-111,77.6526,2.62878,0.00901761,-0.00187584,0.00266978,0.00963673,-0.00249496,0.227873,0.00739774,0.03774,1868,1135,77.6526,-2.62874
651,-111,77.8259,2.63025,0.00607077,-0.00086093,0.00159782,0.00642135,-0.00121151,0.21599,0.00473667,0.0404864,1875,1135,77.8259,-2.6302
658,-111,77.8032,2.59619,0.00431522,-0.000302227,0.000951032,0.00450343,-0.000490434,0.195374,0.0031784,0.0448429,1882,1135,77.8032,-2.59614
665,-111,77.7139,2.45898,0.00302484,0.00012175,0.000472978,0.00309995,4.66346e-05,0.157498,0.00205127,0.0444048,1889,1135,77.7138,-2.45893
672,-111,77.6147,2.27002,0.00216335,0.000433687,0.000141965,0.00217493,0.000422112,0.081351,0.00133174,0.0434397,1896,1135,77.6148,-2.27001
679,-111,77.601,2.0249,0,0,0,0,0,0,0,-1,1903,1135,77.6009,-2.02491
686,-111,77.4519,1.97168,0,0,0,0,0,0,0,-1,1910,1135,77.4519,-1.97171
693,-111,77.6385,2.46484,0.00180337,-0.000130174,0.000155116,0.00181573,-0.000142539,0.0795459,0.00126069,0.0388397,1917,1135,77.6385,-2.4649
700,-111,77.7609,2.51929,0.00175596,-0.000253974,0.000295239,0.00179843,-0.000296445,0.142871,0.001309,0.0280102,1924,1135,77.7609,-2.51929
707,-111,77.7915,2.62097,0,0,0,0,0,0,0,-1,1931,1135,77.7915,-2.62091
714,-111,45.1654,7.39746,0,0,0,0,0,0,0,-1,1938,1135,45.1654,-7.39745
721,-111,71.0245,10.493,0,0,0,0,0,0,0,-1,1945,1135,71.0245,-10.4931
728,-111,71.1486,9.64441,0.000793759,0.000501538,0.00142205,0.00207719,-0.000781893,0.734205,0.00170623,0.0327596,1952,1135,71.1486,-9.64441
735,-111,71.2301,9.02161,0.000314347,0.00083046,0.00126487,0.00186333,-0.000718526,0.886026,0.00153871,0.0322749,1959,1135,71.23,-9.02156
742,-111,71.0641,8.43591,-0.000137869,0.0011557,0.00127086,0.00193489,-0.000917064,1.02078,0.00168117,0.0216885,1966,1135,71.0641,-8.4359
749,-111,70.9745,7.80286,-0.000776353,0.00239108,0.00100982,0.00268563,-0.00107091,1.28698,0.00223463,0.0220185,1973,1135,70.9744,-7.80291
756,-111,70.9429,7.13892,-0.000935249,0.00435376,6.74841e-05,0.00435463,-0.000936111,1.55804,0.00326023,0.0187779,1980,1135,70.9428,-7.13888
763,-111,70.8718,6.55151,0.000800735,0.00732864,-0.00255273,0.00820833,-7.89575e-05,-1.23893,0.00549873,0.0186247,1987,1135,70.8717,-6.55156
770,-111,70.8276,5.95654,0.00393316,0.0108025,-0.00621937,0.0144726,0.000263077,-1.03768,0.0095619,0.0165856,1994,1135,70.8276,-5.95654
777,-111,70.6135,5.33899,0.00866937,0.0146306,-0.0108432,0.0228954,0.000404579,-0.919527,0.0151305,0.0319529,2001,1135,70.6135,-5.33895
784,-111,70.3647,4.75378,0.0152049,0.0187998,-0.0164465,0.0335467,0.000457956,-0.839827,0.0222134,0.0467588,2008,1135,70.3647,-4.75373
791,-111,70.2026,4.19482,0,0,0,0,0,0,0,-1,2015,1135,70.2027,-4.19488
798,-111,71.6482,2.24329,0.0356973,0.0287669,-0.031522,0.0639439,0.000520237,-0.730653,0.0424569,0.0466513,2022,1135,71.6482,-2.24329
805,-111,72.2341,1.27112,0.0505784,0.0345705,-0.040907,0.0842572,0.000891782,-0.688787,0.0558766,0.0473514,2029,1135,72.234,-1.27111
812,-111,72.4653,0.438721,0.0683969,0.0409753,-0.0511946,0.107685,0.00168728,-0.65456,0.0712341,0.0461217,2036,1135,72.4654,-0.438777
-700,-118,0,0,0,0,0,0,0,0,0,-1,524,1142,0,0
-693,-118,-52.5179,3.06775,0,0,0,0,0,0,0,-1,531,1142,-52.5179,-3.0678
-686,-118,-54.5634,-0.391479,0,0,0,0,0,0,0,-1,538,1142,-54.5634,0.391501
-679,-118,-53.5569,0.115479,0,0,0,0,0,0,0,-1,545,1142,-53.557,-0.115495
-672,-118,-52.5505,0.622437,0,0,0,0,0,0,0,-1,552,1142,-52.5505,-0.622491
-665,-118,-60.6881,-8.95374,0,0,0,0,0,0,0,-1,559,1142,-60.6881,8.95378
-658,-118,-55.0958,-1.94812,0,0,0,0,0,0,0,-1,566,1142,-55.0958,1.94813
-651,-118,-53.9547,3.48743,0,0,0,0,0,0,0,-1,573,1142,-53.9547,-3.48746
-644,-118,-54.2565,4.2655,0.00696805,0.00610264,-0.00916912,0.0157147,-0.00264398,-0.76182,0.0114599,0.0376209,580,1142,-54.2565,-4.26553
-637,-118,-54.4918,5.03503,-0.00107426,0.00430797,-0.00536742,0.00762113,-0.00438742,-1.01777,0.00701643,0.0208983,587,1142,-54.4918,-5.03497
-630,-118,-54.5547,5.6499,-0.00684363,0.00270623,-0.0029529,0.00354553,-0.00768293,-1.29387,0.00662783,0.0303068,594,1142,-54.5547,-5.64985
-623,-118,-54.5416,6.328,-0.00840113,0.00163954,-0.00233809,0.00215729,-0.00891888,-1.35287,0.0067804,0.024507,601,1142,-54.5416,-6.32799
-616,-118,-54.4774,7.05798,0,0,0,0,0,0,0,-1,608,1142,-54.4774,-7.05801
-609,-118,-55.0298,7.42432,0,0,0,0,0,0,0,-1,615,1142,-55.0298,-7.42433
-602,-118,-54.7601,8.23987,0,0,0,0,0,0,0,-1,622,1142,-54.7601,-8.23991
-595,-118,-54.3735,8.38013,0,0,0,0,0,0,0,-1,629,1142,-54.3735,-8.38017
-588,-118,-53.6946,9.46155,0,0,0,0,0,0,0,-1,636,1142,-53.6946,-9.46155
-581,-118,-24.6116,3.89648,0,0,0,0,0,0,0,-1,643,1142,-24.6116,-3.89645
-574,-118,-61.241,0.485229,0,0,0,0,0,0,0,-1,650,1142,-61.241,-0.485239
-567,-118,-61.2706,0.533325,-0.00172623,-0.000228026,-0.00136945,0.000583812,-0.00253807,-1.03567,0.00191652,0.0406628,657,1142,-61.2705,-0.533279
-560,-118,-61.3138,0.575928,0.000280419,-0.000415428,-0.00157881,0.00154919,-0.0016842,-0.676946,0.00186734,0.0358183,664,1142,-61.3138,-0.575987
-553,-118,-61.1845,0.563354,0.00138972,-0.000180936,-0.00118861,0.00202901,-0.00082023,-0.493465,0.00169364,0.0390242,671,1142,-61.1845,-0.563401
-546,-118,-61.1233,0.575684,0.00131318,-6.33847e-06,-6.88701e-06,0.00131322,-6.37444e-06,-0.00521915,0.00087761,0.0396223,678,1142,-61.1233,-0.575719
-539,-118,-61.3561,0.73877,0.00125346,-0.000461226,0.00130355,0.00195633,-0.0011641,0.494513,0.00182083,0.0410793,685,1142,-61.3561,-0.738733
-532,-118,-61.4633,0.807251,0.00124669,-0.00108558,0.00228587,0.00264669,-0.00248559,0.549532,0.00296361,0.042108,692,1142,-61.4633,-0.80719
-525,-118,-61.2996,0.547363,0.00125644,-0.00165251,0.0028573,0.00300816,-0.00340423,0.549972,0.00370455,0.0415315,699,1142,-61.2996,-0.547308
-518,-118,0,0,0,0,0,0,0,0,0,-1,706,1142,0,0
-511,-118,0,0,0,0,0,0,0,0,0,-1,713,1142,0,0
-504,-118,0,0,0,0,0,0,0,0,0,-1,720,1142,0,0
-497,-118,0,0,0,0,0,0,0,0,0,-1,727,1142,0,0
-490,-118,0,0,0,0,0,0,0,0,0,-1,734,1142,0,0
-483,-118,0,0,0,0,0,0,0,0,0,-1,741,1142,0,0
-476,-118,0,0,0,0,0,0,0,0,0,-1,748,1142,0,0
-469,-118,0,0,0,0,0,0,0,0,0,-1,755,1142,0,0
-462,-118,0,0,0,0,0,0,0,0,0,-1,762,1142,0,0
-455,-118,0,0,0,0,0,0,0,0,0,-1,769,1142,0,0
-448,-118,0,0,0,0,0,0,0,0,0,-1,776,1142,0,0
-441,-118,0,0,0,0,0,0,0,0,0,-1,783,1142,0,0
-434,-118,0,0,0,0,0,0,0,0,0,-1,790,1142,0,0
-427,-118,0,0,0,0,0,0,0,0,0,-1,797,1142,0,0
-420,-118,0,0,0,0,0,0,0,0,0,-1,804,1142,0,0
-413,-118,0,0,0,0,0,0,0,0,0,-1,811,1142,0,0
-406,-118,0,0,0,0,0,0,0,0,0,-1,818,1142,0,0
-399,-118,0,0,0,0,0,0,0,0,0,-1,825,1142,0,0
-392,-118,0,0,0,0,0,0,0,0,0,-1,832,1142,0,0
-385,-118,0,0,0,0,0,0,0,0,0,-1,839,1142,0,0
-378,-118,0,0,0,0,0,0,0,0,0,-1,846,1142,0,0
-371,-118,0,0,0,0,0,0,0,0,0,-1,853,1142,0,0
-364,-118,0,0,0,0,0,0,0,0,0,-1,860,1142,0,0
-357,-118,0,0,0,0,0,0,0,0,0,-1,867,1142,0,0
-350,-118,0,0,0,0,0,0,0,0,0,-1,874,1142,0,0
-343,-118,0,0,0,0,0,0,0,0,0,-1,881,1142,0,0
-336,-118,0,0,0,0,0,0,0,0,0,-1,888,1142,0,0
-329,-118,0,0,0,0,0,0,0,0,0,-1,895,1142,0,0
-322,-118,0,0,0,0,0,0,0,0,0,-1,902,1142,0,0
-315,-118,0,0,0,0,0,0,0,0,0,-1,909,1142,0,0
-308,-118,0,0,0,0,0,0,0,0,0,-1,916,1142,0,0
-301,-118,0,0,0,0,0,0,0,0,0,-1,923,1142,0,0
-294,-118,0,0,0,0,0,0,0,0,0,-1,930,1142,0,0
-287,-118,0,0,0,0,0,0,0,0,0,-1,937,1142,0,0
-280,-118,0,0,0,0,0,0,0,0,0,-1,944,1142,0,0
-273,-118,0,0,0,0,0,0,0,0,0,-1,951,1142,0,0
-266,-118,0,0,0,0,0,0,0,0,0,-1,958,1142,0,0
-259,-118,0,0,0,0,0,0,0,0,0,-1,965,1142,0,0
-252,-118,0,0,0,0,0,0,0,0,0,-1,972,1142,0,0
-245,-118,0,0,0,0,0,0,0,0,0,-1,979,1142,0,0
-238,-118,0,0,0,0,0,0,0,0,0,-1,986,1142,0,0
-231,-118,0,0,0,0,0,0,0,0,0,-1,993,1142,0,0
-224,-118,0,0,0,0,0,0,0,0,0,-1,1000,1142,0,0
-217,-118,0,0,0,0,0,0,0,0,0,-1,1007,1142,0,0
-210,-118,0,0,0,0,0,0,0,0,0,-1,1014,1142,0,0
-203,-118,0,0,0,0,0,0,0,0,0,-1,1021,1142,0,0
-196,-118,0,0,0,0,0,0,0,0,0,-1,1028,1142,0,0
-189,-118,0,0,0,0,0,0,0,0,0,-1,1035,1142,0,0
-182,-118,0,0,0,0,0,0,0,0,0,-1,1042,1142,0,0
-175,-118,0,0,0,0,0,0,0,0,0,-1,1049,1142,0,0
-168,-118,0,0,0,0,0,0,0,0,0,-1,1056,1142,0,0
-161,-118,0,0,0,0,0,0,0,0,0,-1,1063,1142,0,0
-154,-118,0,0,0,0,0,0,0,0,0,-1,1070,1142,0,0
-147,-118,0,0,0,0,0,0,0,0,0,-1,1077,1142,0,0
-140,-118,0,0,0,0,0,0,0,0,0,-1,1084,1142,0,0
-133,-118,0,0,0,0,0,0,0,0,0,-1,1091,1142,0,0
-126,-118,0,0,0,0,0,0,0,0,0,-1,1098,1142,0,0
-119,-118,0,0,0,0,0,0,0,0,0,-1,1105,1142,0,0
-112,-118,0,0,0,0,0,0,0,0,0,-1,1112,1142,0,0
-105,-118,0,0,0,0,0,0,0,0,0,-1,1119,1142,0,0
-98,-118,0,0,0,0,0,0,0,0,0,-1,1126,1142,0,0
-91,-118,0,0,0,0,0,0,0,0,0,-1,1133,1142,0,0
-84,-118,0,0,0,0,0,0,0,0,0,-1,1140,1142,0,0
-77,-118,0,0,0,0,0,0,0,0,0,-1,1147,1142,0,0
-70,-118,0,0,0,0,0,0,0,0,0,-1,1154,1142,0,0
-63,-118,0,0,0,0,0,0,0,0,0,-1,1161,1142,0,0
-56,-118,0,0,0,0,0,0,0,0,0,-1,1168,1142,0,0
-49,-118,0,0,0,0,0,0,0,0,0,-1,1175,1142,0,0
-42,-118,0,0,0,0,0,0,0,0,0,-1,1182,1142,0,0
-35,-118,0,0,0,0,0,0,0,0,0,-1,1189,1142,0,0
-28,-118,0,0,0,0,0,0,0,0,0,-1,1196,1142,0,0
-21,-118,0,0,0,0,0,0,0,0,0,-1,1203,1142,0,0
-14,-118,0,0,0,0,0,0,0,0,0,-1,1210,1142,0,0
-7,-118,0,0,0,0,0,0,0,0,0,-1,1217,1142,0,0
0,-118,0,0,0,0,0,0,0,0,0,-1,1224,1142,0,0
7,-118,0,0,0,0,0,0,0,0,0,-1,1231,1142,0,0
14,-118,0,0,0,0,0,0,0,0,0,-1,1238,1142,0,0
21,-118,0,0,0,0,0,0,0,0,0,-1,1245,1142,0,0
28,-118,0,0,0,0,0,0,0,0,0,-1,1252,1142,0,0
35,-118,0,0,0,0,0,0,0,0,0,-1,1259,1142,0,0
42,-118,0,0,0,0,0,0,0,0,0,-1,1266,1142,0,0
49,-118,0,0,0,0,0,0,0,0,0,-1,1273,1142,0,0
56,-118,0,0,0,0,0,0,0,0,0,-1,1280,1142,0,0
63,-118,0,0,0,0,0,0,0,0,0,-1,1287,1142,0,0
70,-118,0,0,0,0,0,0,0,0,0,-1,1294,1142,0,0
77,-118,0,0,0,0,0,0,0,0,0,-1,1301,1142,0,0
84,-118,0,0,0,0,0,0,0,0,0,-1,1308,1142,0,0
91,-118,0,0,0,0,0,0,0,0,0,-1,1315,1142,0,0
98,-118,0,0,0,0,0,0,0,0,0,-1,1322,1142,0,0
105,-118,0,0,0,0,0,0,0,0,0,-1,1329,1142,0,0
112,-118,0,0,0,0,0,0,0,0,0,-1,1336,1142,0,0
119,-118,0,0,0,0,0,0,0,0,0,-1,1343,1142,0,0
126,-118,0,0,0,0,0,0,0,0,0,-1,1350,1142,0,0
133,-118,0,0,0,0,0,0,0,0,0,-1,1357,1142,0,0
140,-118,0,0,0,0,0,0,0,0,0,-1,1364,1142,0,0
147,-118,0,0,0,0,0,0,0,0,0,-1,1371,1142,0,0
154,-118,0,0,0,0,0,0,0,0,0,-1,1378,1142,0,0
161,-118,0,0,0,0,0,0,0,0,0,-1,1385,1142,0,0
168,-118,0,0,0,0,0,0,0,0,0,-1,1392,1142,0,0
175,-118,0,0,0,0,0,0,0,0,0,-1,1399,1142,0,0
182,-118,0,0,0,0,0,0,0,0,0,-1,1406,1142,0,0
189,-118,0,0,0,0,0,0,0,0,0,-1,1413,1142,0,0
196,-118,0,0,0,0,0,0,0,0,0,-1,1420,1142,0,0
203,-118,0,0,0,0,0,0,0,0,0,-1,1427,1142,0,0
210,-118,0,0,0,0,0,0,0,0,0,-1,1434,1142,0,0
217,-118,0,0,0,0,0,0,0,0,0,-1,1441,1142,0,0
224,-118,0,0,0,0,0,0,0,0,0,-1,1448,1142,0,0
231,-118,0,0,0,0,0,0,0,0,0,-1,1455,1142,0,0
238,-118,0,0,0,0,0,0,0,0,0,-1,1462,1142,0,0
245,-118,0,0,0,0,0,0,0,0,0,-1,1469,1142,0,0
252,-118,0,0,0,0,0,0,0,0,0,-1,1476,1142,0,0
259,-118,0,0,0,0,0,0,0,0,0,-1,1483,1142,0,0
266,-118,0,0,0,0,0,0,0,0,0,-1,1490,1142,0,0
273,-118,0,0,0,0,0,0,0,0,0,-1,1497,1142,0,0
280,-118,0,0,0,0,0,0,0,0,0,-1,1504,1142,0,0
287,-118,0,0,0,0,0,0,0,0,0,-1,1511,1142,0,0
294,-118,0,0,0,0,0,0,0,0,0,-1,1518,1142,0,0
301,-118,0,0,0,0,0,0,0,0,0,-1,1525,1142,0,0
308,-118,0,0,0,0,0,0,0,0,0,-1,1532,1142,0,0
315,-118,0,0,0,0,0,0,0,0,0,-1,1539,1142,0,0
322,-118,0,0,0,0,0,0,0,0,0,-1,1546,1142,0,0
329,-118,0,0,0,0,0,0,0,0,0,-1,1553,1142,0,0
336,-118,0,0,0,0,0,0,0,0,0,-1,1560,1142,0,0
343,-118,0,0,0,0,0,0,0,0,0,-1,1567,1142,0,0
350,-118,0,0,0,0,0,0,0,0,0,-1,1574,1142,0,0
357,-118,0,0,0,0,0,0,0,0,0,-1,1581,1142,0,0
364,-118,0,0,0,0,0,0,0,0,0,-1,1588,1142,0,0
371,-118,0,0,0,0,0,0,0,0,0,-1,1595,1142,0,0
378,-118,0,0,0,0,0,0,0,0,0,-1,1602,1142,0,0
385,-118,0,0,0,0,0,0,0,0,0,-1,1609,1142,0,0
392,-118,0,0,0,0,0,0,0,0,0,-1,1616,1142,0,0
399,-118,0,0,0,0,0,0,0,0,0,-1,1623,1142,0,0
406,-118,0,0,0,0,0,0,0,0,0,-1,1630,1142,0,0
413,-118,0,0,0,0,0,0,0,0,0,-1,1637,1142,0,0
420,-118,0,0,0,0,0,0,0,0,0,-1,1644,1142,0,0
427,-118,0,0,0,0,0,0,0,0,0,-1,1651,1142,0,0
434,-118,0,0,0,0,0,0,0,0,0,-1,1658,1142,0,0
441,-118,0,0,0,0,0,0,0,0,0,-1,1665,1142,0,0
448,-118,0,0,0,0,0,0,0,0,0,-1,1672,1142,0,0
455,-118,0,0,0,0,0,0,0,0,0,-1,1679,1142,0,0
462,-118,0,0,0,0,0,0,0,0,0,-1,1686,1142,0,0
469,-118,0,0,0,0,0,0,0,0,0,-1,1693,1142,0,0
476,-118,0,0,0,0,0,0,0,0,0,-1,1700,1142,0,0
483,-118,0,0,0,0,0,0,0,0,0,-1,1707,1142,0,0
490,-118,0,0,0,0,0,0,0,0,0,-1,1714,1142,0,0
497,-118,0,0,0,0,0,0,0,0,0,-1,1721,1142,0,0
504,-118,0,0,0,0,0,0,0,0,0,-1,1728,1142,0,0
511,-118,0,0,0,0,0,0,0,0,0,-1,1735,1142,0,0
518,-118,0,0,0,0,0,0,0,0,0,-1,1742,1142,0,0
525,-118,0,0,0,0,0,0,0,0,0,-1,1749,1142,0,0
532,-118,0,0,0,0,0,0,0,0,0,-1,1756,1142,0,0
539,-118,0,0,0,0,0,0,0,0,0,-1,1763,1142,0,0
546,-118,0,0,0,0,0,0,0,0,0,-1,1770,1142,0,0
553,-118,0,0,0,0,0,0,0,0,0,-1,1777,1142,0,0
560,-118,0,0,0,0,0,0,0,0,0,-1,1784,1142,0,0
567,-118,0,0,0,0,0,0,0,0,0,-1,1791,1142,0,0
574,-118,0,0,0,0,0,0,0,0,0,-1,1798,1142,0,0
581,-118,0,0,0,0,0,0,0,0,0,-1,1805,1142,0,0
588,-118,0,0,0,0,0,0,0,0,0,-1,1812,1142,0,0
595,-118,0,0,0,0,0,0,0,0,0,-1,1819,1142,0,0
602,-118,0,0,0,0,0,0,0,0,0,-1,1826,1142,0,0
609,-118,0,0,0,0,0,0,0,0,0,-1,1833,1142,0,0
616,-118,0,0,0,0,0,0,0,0,0,-1,1840,1142,0,0
623,-118,0,0,0,0,0,0,0,0,0,-1,1847,1142,0,0
630,-118,0,0,0,0,0,0,0,0,0,-1,1854,1142,0,0
637,-118,0,0,0,0,0,0,0,0,0,-1,1861,1142,0,0
644,-118,77.5568,2.58362,0.00883291,-0.0013662,0.00248877,0.00940781,-0.0019411,0.227016,0.00700908,0.0402352,1868,1142,77.5567,-2.58362
651,-118,77.8724,2.67737,0.00593187,-0.000447357,0.00154941,0.00628828,-0.000803771,0.226099,0.00448419,0.0418618,1875,1142,77.8724,-2.67737
658,-118,77.8771,2.65234,0.00416001,5.89028e-05,0.000968637,0.00437728,-0.000158368,0.220654,0.00297238,0.0429126,1882,1142,77.877,-2.65231
665,-118,77.8113,2.3761,0.00285904,0.000433273,0.000536314,0.00297232,0.00031999,0.208166,0.00188397,0.0424361,1889,1142,77.8113,-2.37612
672,-118,77.5681,2.34717,0.00201093,0.000697652,0.00023887,0.00205302,0.000655554,0.174448,0.00121084,0.0463126,1896,1142,77.5681,-2.34712
679,-118,77.6165,2.50916,0.00173157,0.000387316,0.000235963,0.00177179,0.000347099,0.168813,0.00108418,0.0416576,1903,1142,77.6164,-2.50914
686,-118,77.6625,2.54834,0.00187794,0.000242887,0.000187447,0.00189915,0.000221673,0.112695,0.00119906,0.0352418,1910,1142,77.6625,-2.54828
693,-118,77.6134,2.56213,0.00188723,1.52471e-05,0.000334675,0.00194527,-4.27872e-05,0.171697,0.00131134,0.0365462,1917,1142,77.6134,-2.56213
700,-118,77.7684,2.59949,0.00185364,-9.85317e-05,0.000463923,0.00195828,-0.000203172,0.221842,0.00137824,0.0257524,1924,1142,77.7684,-2.59952
707,-118,77.866,2.78491,0,0,0,0,0,0,0,-1,1931,1142,77.866,-2.78486
714,-118,50.4819,8.53809,0,0,0,0,0,0,0,-1,1938,1142,50.4819,-8.53809
721,-118,70.4471,10.4944,0,0,0,0,0,0,0,-1,1945,1142,70.4472,-10.4944
728,-118,70.4674,9.79163,0.001245,0.000531615,0.00148213,0.00241275,-0.00063614,0.667313,0.00185723,0.0248276,1952,1142,70.4674,-9.79165
735,-118,70.4441,9.13354,0.000924793,0.000684178,0.00134177,0.00215164,-0.000542672,0.740686,0.00164542,0.0248179,1959,1142,70.4441,-9.1335
742,-118,70.3319,8.51306,0.000639197,0.000815959,0.00137999,0.0021104,-0.00065524,0.817377,0.00166879,0.0378461,1966,1142,70.3319,-8.51309
749,-118,70.2277,7.87402,-3.18573e-08,0.00188474,0.00118231,0.00245428,-0.000569579,1.12188,0.00185542,0.0273703,1973,1142,70.2277,-7.87402
756,-118,70.2583,7.19128,4.09366e-05,0.00389408,0.000211056,0.0039056,2.94105e-05,1.51624,0.00259399,0.0200975,1980,1142,70.2583,-7.19128
763,-118,70.2686,6.52722,0.00223951,0.00660917,-0.00218902,0.00751712,0.00133156,-1.17762,0.00463181,0.0118577,1987,1142,70.2686,-6.52718
770,-118,70.1548,5.94983,0.00598281,0.00969929,-0.00547511,0.0136229,0.00205919,-0.948997,0.0084793,0.0157613,1994,1142,70.1549,-5.94989
777,-118,69.9341,5.34961,0.0114023,0.0130395,-0.00955017,0.0218061,0.00263573,-0.82815,0.0137433,0.0351703,2001,1142,69.9342,-5.34963
784,-118,69.9746,4.36487,0.0187972,0.0166072,-0.0144727,0.0322163,0.00318816,-0.747639,0.0204976,0.0482564,2008,1142,69.9746,-4.36488
791,-118,70.0684,3.33606,0,0,0,0,0,0,0,-1,2015,1142,70.0683,-3.33608
798,-118,71.7368,0.889038,0,0,0,0,0,0,0,-1,2022,1142,71.7368,-0.889053
805,-118,71.864,0.845581,0,0,0,0,0,0,0,-1,2029,1142,71.864,-0.845543
812,-118,72.1196,0.0214844,0,0,0,0,0,0,0,-1,2036,1142,72.1196,-0.0214257
-700,-125,0,0,0,0,0,0,0,0,0,-1,524,1149,0,0
-693,-125,-50.8219,1.68408,0,0,0,0,0,0,0,-1,531,1149,-50.8219,-1.68411
-686,-125,-51.1501,3.14673,0,0,0,0,0,0,0,-1,538,1149,-51.1501,-3.14669
-679,-125,-52.5829,0.00720215,0,0,0,0,0,0,0,-1,545,1149,-52.583,-0.00721849
-672,-125,-59.6468,-10.5647,0,0,0,0,0,0,0,-1,552,1149,-59.6468,10.5647
-665,-125,-60.4668,-10.4543,0,0,0,0,0,0,0,-1,559,1149,-60.4668,10.4543
-658,-125,-53.4769,1.33105,0,0,0,0,0,0,0,-1,566,1149,-53.4769,-1.33109
-651,-125,-53.2291,3.54517,0,0,0,0,0,0,0,-1,573,1149,-53.2291,-3.54517
-644,-125,-53.5692,4.29504,0.00743289,0.00570881,-0.00875175,0.015365,-0.00222325,-0.736307,0.0110591,0.0384317,580,1149,-53.5692,-4.29502
-637,-125,-53.7681,5.01697,-0.00102085,0.00401147,-0.00514192,0.00721985,-0.00422923,-1.01294,0.00668488,0.0166593,587,1149,-53.7681,-5.01695
-630,-125,-53.7961,5.69006,-0.00703153,0.00254618,-0.0029802,0.00339778,-0.00788313,-1.29246,0.00668244,0.0163491,594,1149,-53.7961,-5.69002
-623,-125,-53.8004,6.38684,-0.00850083,0.00167302,-0.00254636,0.00227474,-0.00910256,-1.33874,0.0069518,0.0149284,601,1149,-53.8004,-6.38686
-616,-125,-53.9047,6.99438,0,0,0,0,0,0,0,-1,608,1149,-53.9047,-6.99434
-609,-125,-54.1808,7.91248,0,0,0,0,0,0,0,-1,615,1149,-54.1808,-7.9125
-602,-125,-54.7005,7.66113,0,0,0,0,0,0,0,-1,622,1149,-54.7005,-7.66115
-595,-125,-53.7122,8.547,0,0,0,0,0,0,0,-1,629,1149,-53.7121,-8.54701
-588,-125,-52.7238,9.43286,0,0,0,0,0,0,0,-1,636,1149,-52.7238,-9.43287
-581,-125,-26.4055,4.83203,0,0,0,0,0,0,0,-1,643,1149,-26.4055,-4.83204
-574,-125,-37.674,0.655151,0,0,0,0,0,0,0,-1,650,1149,-37.674,-0.655195
-567,-125,-61.2218,0.503906,0,0,0,0,0,0,0,-1,657,1149,-61.2218,-0.503879
-560,-125,-61.3162,0.591064,0.00015094,-0.000754811,-0.00137498,0.00114571,-0.00174958,-0.626309,0.00168367,0.0376024,664,1149,-61.3161,-0.591029
-553,-125,-61.2584,0.61499,0.00156715,-0.000642009,-0.00103973,0.00197952,-0.00105438,-0.377581,0.00177856,0.040173,671,1149,-61.2584,-0.614963
-546,-125,-61.2397,0.507568,0.00159911,-0.000532682,4.19748e-06,0.00159911,-0.00053269,0.00196899,0.0012811,0.0401466,678,1149,-61.2397,-0.507623
-539,-125,-61.2626,0.600952,0.00166469,-0.00094938,0.000997926,0.00200209,-0.00128679,0.326044,0.00191375,0.0405233,685,1149,-61.2626,-0.600903
-532,-125,-61.3218,0.770996,0.00179924,-0.00150531,0.00153175,0.00240002,-0.00210609,0.373783,0.00260345,0.040445,692,1149,-61.3218,-0.771043
-525,-125,-61.2467,0.71167,0.00197233,-0.00201043,0.00153951,0.00249803,-0.00253613,0.329057,0.0029065,0.0428838,699,1149,-61.2467,-0.711723
-518,-125,0,0,0,0,0,0,0,0,0,-1,706,1149,0,0
-511,-125,0,0,0,0,0,0,0,0,0,-1,713,1149,0,0
-504,-125,0,0,0,0,0,0,0,0,0,-1,720,1149,0,0
-497,-125,0,0,0,0,0,0,0,0,0,-1,727,1149,0,0
-490,-125,0,0,0,0,0,0,0,0,0,-1,734,1149,0,0
-483,-125,0,0,0,0,0,0,0,0,0,-1,741,1149,0,0
-476,-125,0,0,0,0,0,0,0,0,0,-1,748,1149,0,0
-469,-125,0,0,0,0,0,0,0,0,0,-1,755,1149,0,0
-462,-125,0,0,0,0,0,0,0,0,0,-1,762,1149,0,0
-455,-125,0,0,0,0,0,0,0,0,0,-1,769,1149,0,0
-448,-125,0,0,0,0,0,0,0,0,0,-1,776,1149,0,0
-441,-125,0,0,0,0,0,0,0,0,0,-1,783,1149,0,0
-434,-125,0,0,0,0,0,0,0,0,0,-1,790,1149,0,0
-427,-125,0,0,0,0,0,0,0,0,0,-1,797,1149,0,0
-420,-125,0,0,0,0,0,0,0,0,0,-1,804,1149,0,0
-413,-125,0,0,0,0,0,0,0,0,0,-1,811,1149,0,0
-406,-125,0,0,0,0,0,0,0,0,0,-1,818,1149,0,0
-399,-125,0,0,0,0,0,0,0,0,0,-1,825,1149,0,0
-392,-125,0,0,0,0,0,0,0,0,0,-1,832,1149,0,0
-385,-125,0,0,0,0,0,0,0,0,0,-1,839,1149,0,0
-378,-125,0,0,0,0,0,0,0,0,0,-1,846,1149,0,0
-371,-125,0,0,0,0,0,0,0,0,0,-1,853,1149,0,0
-364,-125,0,0,0,0,0,0,0,0,0,-1,860,1149,0,0
-357,-125,0,0,0,0,0,0,0,0,0,-1,867,1149,0,0
-350,-125,0,0,0,0,0,0,0,0,0,-1,874,1149,0,0
-343,-125,0,0,0,0,0,0,0,0,0,-1,881,1149,0,0
-336,-125,0,0,0,0,0,0,0,0,0,-1,888,1149,0,0
-329,-125,0,0,0,0,0,0,0,0,0,-1,895,1149,0,0
-322,-125,0,0,0,0,0,0,0,0,0,-1,902,1149,0,0
-315,-125,0,0,0,0,0,0,0,0,0,-1,909,1149,0,0
-308,-125,0,0,0,0,0,0,0,0,0,-1,916,1149,0,0
-301,-125,0,0,0,0,0,0,0,0,0,-1,923,1149,0,0
-294,-125,0,0,0,0,0,0,0,0,0,-1,930,1149,0,0
-287,-125,0,0,0,0,0,0,0,0,0,-1,937,1149,0,0
-280,-125,0,0,0,0,0,0,0,0,0,-1,944,1149,0,0
-273,-125,0,0,0,0,0,0,0,0,0,-1,951,1149,0,0
-266,-125,0,0,0,0,0,0,0,0,0,-1,958,1149,0,0
-259,-125,0,0,0,0,0,0,0,0,0,-1,965,1149,0,0
-252,-125,0,0,0,0,0,0,0,0,0,-1,972,1149,0,0
-245,-125,0,0,0,0,0,0,0,0,0,-1,979,1149,0,0
-238,-125,0,0,0,0,0,0,0,0,0,-1,986,1149,0,0
-231,-125,0,0,0,0,0,0,0,0,0,-1,993,1149,0,0
-224,-125,0,0,0,0,0,0,0,0,0,-1,1000,1149,0,0
-217,-125,0,0,0,0,0,0,0,0,0,-1,1007,1149,0,0
-210,-125,0,0,0,0,0,0,0,0,0,-1,1014,1149,0,0
-203,-125,0,0,0,0,0,0,0,0,0,-1,1021,1149,0,0
-196,-125,0,0,0,0,0,0,0,0,0,-1,1028,1149,0,0
-189,-125,0,0,0,0,0,0,0,0,0,-1,1035,1149,0,0
-182,-125,0,0,0,0,0,0,0,0,0,-1,1042,1149,0,0
-175,-125,0,0,0,0,0,0,0,0,0,-1,1049,1149,0,0
-168,-125,0,0,0,0,0,0,0,0,0,-1,1056,1149,0,0
-161,-125,0,0,0,0,0,0,0,0,0,-1,1063,1149,0,0
-154,-125,0,0,0,0,0,0,0,0,0,-1,1070,1149,0,0
-147,-125,0,0,0,0,0,0,0,0,0,-1,1077,1149,0,0
-140,-125,0,0,0,0,0,0,0,0,0,-1,1084,1149,0,0
-133,-125,0,0,0,0,0,0,0,0,0,-1,1091,1149,0,0
-126,-125,0,0,0,0,0,0,0,0,0,-1,1098,1149,0,0
-119,-125,0,0,0,0,0,0,0,0,0,-1,1105,1149,0,0
-112,-125,0,0,0,0,0,0,0,0,0,-1,1112,1149,0,0
-105,-125,0,0,0,0,0,0,0,0,0,-1,1119,1149,0,0
-98,-125,0,0,0,0,0,0,0,0,0,-1,1126,1149,0,0
-91,-125,0,0,0,0,0,0,0,0,0,-1,1133,1149,0,0
-84,-125,0,0,0,0,0,0,0,0,0,-1,1140,1149,0,0
-77,-125,0,0,0,0,0,0,0,0,0,-1,1147,1149,0,0
-70,-125,0,0,0,0,0,0,0,0,0,-1,1154,1149,0,0
-63,-125,0,0,0,0,0,0,0,0,0,-1,1161,1149,0,0
-56,-125,0,0,0,0,0,0,0,0,0,-1,1168,1149,0,0
-49,-125,0,0,0,0,0,0,0,0,0,-1,1175,1149,0,0
-42,-125,0,0,0,0,0,0,0,0,0,-1,1182,1149,0,0
-35,-125,0,0,0,0,0,0,0,0,0,-1,1189,1149,0,0
-28,-125,0,0,0,0,0,0,0,0,0,-1,1196,1149,0,0
-21,-125,0,0,0,0,0,0,0,0,0,-1,1203,1149,0,0
-14,-125,0,0,0,0,0,0,0,0,0,-1,1210,1149,0,0
-7,-125,0,0,0,0,0,0,0,0,0,-1,1217,1149,0,0
0,-125,0,0,0,0,0,0,0,0,0,-1,1224,1149,0,0
7,-125,0,0,0,0,0,0,0,0,0,-1,1231,1149,0,0
14,-125,0,0,0,0,0,0,0,0,0,-1,1238,1149,0,0
21,-125,0,0,0,0,0,0,0,0,0,-1,1245,1149,0,0
28,-125,0,0,0,0,0,0,0,0,0,-1,1252,1149,0,0
35,-125,0,0,0,0,0,0,0,0,0,-1,1259,1149,0,0
42,-125,0,0,0,0,0,0,0,0,0,-1,1266,1149,0,0
49,-125,0,0,0,0,0,0,0,0,0,-1,1273,1149,0,0
56,-125,0,0,0,0,0,0,0,0,0,-1,1280,1149,0,0
63,-125,0,0,0,0,0,0,0,0,0,-1,1287,1149,0,0
70,-125,0,0,0,0,0,0,0,0,0,-1,1294,1149,0,0
77,-125,0,0,0,0,0,0,0,0,0,-1,1301,1149,0,0
84,-125,0,0,0,0,0,0,0,0,0,-1,1308,1149,0,0
91,-125,0,0,0,0,0,0,0,0,0,-1,1315,1149,0,0
98,-125,0,0,0,0,0,0,0,0,0,-1,1322,1149,0,0
105,-125,0,0,0,0,0,0,0,0,0,-1,1329,1149,0,0
112,-125,0,0,0,0,0,0,0,0,0,-1,1336,1149,0,0
119,-125,0,0,0,0,0,0,0,0,0,-1,1343,1149,0,0
126,-125,0,0,0,0,0,0,0,0,0,-1,1350,1149,0,0
133,-125,0,0,0,0,0,0,0,0,0,-1,1357,1149,0,0
140,-125,0,0,0,0,0,0,0,0,0,-1,1364,1149,0,0
147,-125,0,0,0,0,0,0,0,0,0,-1,1371,1149,0,0
154,-125,0,0,0,0,0,0,0,0,0,-1,1378,1149,0,0
161,-125,0,0,0,0,0,0,0,0,0,-1,1385,1149,0,0
168,-125,0,0,0,0,0,0,0,0,0,-1,1392,1149,0,0
175,-125,0,0,0,0,0,0,0,0,0,-1,1399,1149,0,0
182,-125,0,0,0,0,0,0,0,0,0,-1,1406,1149,0,0
189,-125,0,0,0,0,0,0,0,0,0,-1,1413,1149,0,0
196,-125,0,0,0,0,0,0,0,0,0,-1,1420,1149,0,0
203,-125,0,0,0,0,0,0,0,0,0,-1,1427,1149,0,0
210,-125,0,0,0,0,0,0,0,0,0,-1,1434,1149,0,0
217,-125,0,0,0,0,0,0,0,0,0,-1,1441,1149,0,0
224,-125,0,0,0,0,0,0,0,0,0,-1,1448,1149,0,0
231,-125,0,0,0,0,0,0,0,0,0,-1,1455,1149,0,0
238,-125,0,0,0,0,0,0,0,0,0,-1,1462,1149,0,0
245,-125,0,0,0,0,0,0,0,0,0,-1,1469,1149,0,0
252,-125,0,0,0,0,0,0,0,0,0,-1,1476,1149,0,0
259,-125,0,0,0,0,0,0,0,0,0,-1,1483,1149,0,0
266,-125,0,0,0,0,0,0,0,0,0,-1,1490,1149,0,0
273,-125,0,0,0,0,0,0,0,0,0,-1,1497,1149,0,0
280,-125,0,0,0,0,0,0,0,0,0,-1,1504,1149,0,0
287,-125,0,0,0,0,0,0,0,0,0,-1,1511,1149,0,0
294,-125,0,0,0,0,0,0,0,0,0,-1,1518,1149,0,0
301,-125,0,0,0,0,0,0,0,0,0,-1,1525,1149,0,0
308,-125,0,0,0,0,0,0,0,0,0,-1,1532,1149,0,0
315,-125,0,0,0,0,0,0,0,0,0,-1,1539,1149,0,0
322,-125,0,0,0,0,0,0,0,0,0,-1,1546,1149,0,0
329,-125,0,0,0,0,0,0,0,0,0,-1,1553,1149,0,0
336,-125,0,0,0,0,0,0,0,0,0,-1,1560,1149,0,0
343,-125,0,0,0,0,0,0,0,0,0,-1,1567,1149,0,0
350,-125,0,0,0,0,0,0,0,0,0,-1,1574,1149,0,0
357,-125,0,0,0,0,0,0,0,0,0,-1,1581,1149,0,0
364,-125,0,0,0,0,0,0,0,0,0,-1,1588,1149,0,0
371,-125,0,0,0,0,0,0,0,0,0,-1,1595,1149,0,0
378,-125,0,0,0,0,0,0,0,0,0,-1,1602,1149,0,0
385,-125,0,0,0,0,0,0,0,0,0,-1,1609,1149,0,0
392,-125,0,0,0,0,0,0,0,0,0,-1,1616,1149,0,0
399,-125,0,0,0,0,0,0,0,0,0,-1,1623,1149,0,0
406,-125,0,0,0,0,0,0,0,0,0,-1,1630,1149,0,0
413,-125,0,0,0,0,0,0,0,0,0,-1,1637,1149,0,0
420,-125,0,0,0,0,0,0,0,0,0,-1,1644,1149,0,0
427,-125,0,0,0,0,0,0,0,0,0,-1,1651,1149,0,0
434,-125,0,0,0,0,0,0,0,0,0,-1,1658,1149,0,0
441,-125,0,0,0,0,0,0,0,0,0,-1,1665,1149,0,0
448,-125,0,0,0,0,0,0,0,0,0,-1,1672,1149,0,0
455,-125,0,0,0,0,0,0,0,0,0,-1,1679,1149,0,0
462,-125,0,0,0,0,0,0,0,0,0,-1,1686,1149,0,0
469,-125,0,0,0,0,0,0,0,0,0,-1,1693,1149,0,0
476,-125,0,0,0,0,0,0,0,0,0,-1,1700,1149,0,0
483,-125,0,0,0,0,0,0,0,0,0,-1,1707,1149,0,0
490,-125,0,0,0,0,0,0,0,0,0,-1,1714,1149,0,0
497,-125,0,0,0,0,0,0,0,0,0,-1,1721,1149,0,0
504,-125,0,0,0,0,0,0,0,0,0,-1,1728,1149,0,0
511,-125,0,0,0,0,0,0,0,0,0,-1,1735,1149,0,0
518,-125,0,0,0,0,0,0,0,0,0,-1,1742,1149,0,0
525,-125,0,0,0,0,0,0,0,0,0,-1,1749,1149,0,0
532,-125,0,0,0,0,0,0,0,0,0,-1,1756,1149,0,0
539,-125,0,0,0,0,0,0,0,0,0,-1,1763,1149,0,0
546,-125,0,0,0,0,0,0,0,0,0,-1,1770,1149,0,0
553,-125,0,0,0,0,0,0,0,0,0,-1,1777,1149,0,0
560,-125,0,0,0,0,0,0,0,0,0,-1,1784,1149,0,0
567,-125,0,0,0,0,0,0,0,0,0,-1,1791,1149,0,0
574,-125,0,0,0,0,0,0,0,0,0,-1,1798,1149,0,0
581,-125,0,0,0,0,0,0,0,0,0,-1,1805,1149,0,0
588,-125,0,0,0,0,0,0,0,0,0,-1,1812,1149,0,0
595,-125,0,0,0,0,0,0,0,0,0,-1,1819,1149,0,0
602,-125,0,0,0,0,0,0,0,0,0,-1,1826,1149,0,0
609,-125,0,0,0,0,0,0,0,0,0,-1,1833,1149,0,0
616,-125,0,0,0,0,0,0,0,0,0,-1,1840,1149,0,0
623,-125,0,0,0,0,0,0,0,0,0,-1,1847,1149,0,0
630,-125,0,0,0,0,0,0,0,0,0,-1,1854,1149,0,0
637,-125,0,0,0,0,0,0,0,0,0,-1,1861,1149,0,0
644,-125,77.5614,2.31982,0.00819786,-0.00117592,0.00218879,0.00868376,-0.00166182,0.218452,0.00641526,0.0414602,1868,1149,77.5615,-2.31977
651,-125,77.5317,2.61157,0.00552747,-0.000357696,0.00143341,0.00585803,-0.000688256,0.226648,0.00415382,0.0397966,1875,1149,77.5318,-2.61156
658,-125,77.7689,2.69592,0.00385034,0.000120014,0.00095408,0.0040802,-0.000109841,0.236413,0.00275748,0.0423382,1882,1149,77.7689,-2.69597
665,-125,77.76,2.48938,0.00261264,0.000487332,0.000591773,0.0027663,0.000333668,0.254056,0.00174365,0.0443632,1889,1149,77.76,-2.48941
672,-125,77.7448,2.25305,0.00182276,0.000761316,0.000340192,0.00192244,0.000661644,0.285009,0.00112774,0.0475234,1896,1149,77.7447,-2.25299
679,-125,77.6418,2.69739,0.00162864,0.000427764,0.000383038,0.00174042,0.000315991,0.283921,0.00107061,0.0397418,1903,1149,77.6419,-2.69741
686,-125,77.6665,2.6532,0.00199311,0.000370361,0.000317964,0.00205319,0.000310283,0.186745,0.00127798,0.0342134,1910,1149,77.6665,-2.65315
693,-125,77.5641,2.56458,0.00211362,0.00018828,0.000446797,0.00221225,8.96483e-05,0.217268,0.00144588,0.0343451,1917,1149,77.5641,-2.56462
700,-125,77.746,2.6217,0.00211228,0.000111637,0.000556657,0.00225673,-3.28169e-05,0.253902,0.00151555,0.0224638,1924,1149,77.746,-2.62176
707,-125,77.9304,2.83264,0,0,0,0,0,0,0,-1,1931,1149,77.9304,-2.83264
714,-125,54.8745,9.21375,0,0,0,0,0,0,0,-1,1938,1149,54.8746,-9.21371
721,-125,69.6653,10.5568,0,0,0,0,0,0,0,-1,1945,1149,69.6653,-10.5568
728,-125,69.7028,9.90906,0.00194512,0.000687152,0.00139082,0.00284257,-0.000210299,0.57304,0.0019689,0.0217945,1952,1149,69.7028,-9.90911
735,-125,69.7085,9.28162,0.00182622,0.000696369,0.00129884,0.00267767,-0.000155083,0.580266,0.00183899,0.0253433,1959,1149,69.7085,-9.28162
742,-125,69.5641,8.62122,0.00168895,0.000696855,0.00138133,0.00266061,-0.000274798,0.613015,0.00187207,0.0383505,1966,1149,69.5641,-8.62116
749,-125,69.4955,7.93066,0.00102087,0.00156439,0.00125072,0.00257254,1.27233e-05,0.892376,0.0017108,0.0274703,1973,1149,69.4955,-7.93063
756,-125,69.5454,7.21887,0.0012503,0.00346397,0.00026807,0.00349597,0.0012183,1.45199,0.00204906,0.0245722,1980,1149,69.5454,-7.21885
763,-125,69.5532,6.54541,0.00356375,0.00584484,-0.00182411,0.00685563,0.00255296,-1.06479,0.00400084,0.0136543,1987,1149,69.5532,-6.54543
770,-125,69.4636,5.89246,0.00742872,0.0084739,-0.00461467,0.0125955,0.00330715,-0.841781,0.00754036,0.0170612,1994,1149,69.4637,-5.8925
777,-125,69.2998,5.3302,0.0128706,0.0112995,-0.00799437,0.0201179,0.00405218,-0.736427,0.012286,0.0357407,2001,1149,69.2998,-5.33018
784,-125,69.1409,4.18689,0.0202422,0.01428,-0.0120002,0.029626,0.00489612,-0.663652,0.0183378,0.0476121,2008,1149,69.141,-4.18692
791,-125,69.1108,3.07043,0,0,0,0,0,0,0,-1,2015,1149,69.1108,-3.07045
798,-125,71.9868,-0.274658,0,0,0,0,0,0,0,-1,2022,1149,71.9868,0.274643
805,-125,72.2185,-1.53723,0,0,0,0,0,0,0,-1,2029,1149,72.2185,1.5372
812,-125,66.0593,-2.22534,0,0,0,0,0,0,0,-1,2036,1149,66.0593,2.22534
-700,-132,0,0,0,0,0,0,0,0,0,-1,524,1156,0,0
-693,-132,-49.0856,0.425293,0,0,0,0,0,0,0,-1,531,1156,-49.0856,-0.425308
-686,-132,-49.2548,1.69592,0,0,0,0,0,0,0,-1,538,1156,-49.2547,-1.69596
-679,-132,-59.0217,-11.9642,0,0,0,0,0,0,0,-1,545,1156,-59.0217,11.9642
-672,-132,-59.7148,-11.8569,0,0,0,0,0,0,0,-1,552,1156,-59.7148,11.857
-665,-132,-60.5032,-11.6488,0,0,0,0,0,0,0,-1,559,1156,-60.5032,11.6488
-658,-132,-53.2253,2.95459,0,0,0,0,0,0,0,-1,566,1156,-53.2254,-2.9546
-651,-132,-53.0384,3.68811,0,0,0,0,0,0,0,-1,573,1156,-53.0384,-3.68812
-644,-132,-52.9261,4.35229,0.00730084,0.00474066,-0.00805124,0.0141731,-0.00213162,-0.706562,0.0102336,0.0308969,580,1156,-52.9261,-4.35224
-637,-132,-53.0449,5.01807,-0.00111305,0.00340817,-0.0048581,0.00650587,-0.00421075,-1.00316,0.00623436,0.0151017,587,1156,-53.0449,-5.01802
-630,-132,-53.0363,5.71045,-0.00694014,0.00232204,-0.00301515,0.00321709,-0.00783518,-1.28223,0.00656408,0.0108518,594,1156,-53.0363,-5.71046
-623,-132,-53.0868,6.43799,-0.00818857,0.00182881,-0.00268022,0.00250084,-0.00886059,-1.32513,0.00689358,0.0168666,601,1156,-53.0868,-6.43798
-616,-132,-53.1361,7.16345,0,0,0,0,0,0,0,-1,608,1156,-53.1361,-7.16346
-609,-132,-51.3542,7.31079,0,0,0,0,0,0,0,-1,615,1156,-51.3542,-7.3108
-602,-132,-51.2123,7.94373,0,0,0,0,0,0,0,-1,622,1156,-51.2123,-7.94373
-595,-132,-53.017,8.81567,0,0,0,0,0,0,0,-1,629,1156,-53.017,-8.81568
-588,-132,-42.6534,6.92969,0,0,0,0,0,0,0,-1,636,1156,-42.6535,-6.92967
-581,-132,-35.9343,6.42957,0,0,0,0,0,0,0,-1,643,1156,-35.9342,-6.42957
-574,-132,-33.2071,2.86963,0,0,0,0,0,0,0,-1,650,1156,-33.2071,-2.86963
-567,-132,-61.3274,0.733643,0,0,0,0,0,0,0,-1,657,1156,-61.3274,-0.733618
-560,-132,-61.3859,0.672119,0.000661828,-0.00114875,-0.00120115,0.00126063,-0.00174756,-0.46247,0.00174435,0.035389,664,1156,-61.3859,-0.672178
-553,-132,-61.3144,0.599976,0.00230085,-0.0012459,-0.000853082,0.00249537,-0.00144042,-0.224186,0.00229938,0.0390858,671,1156,-61.3144,-0.599948
-546,-132,-61.2889,0.148682,0.0022021,-0.00121353,5.55926e-05,0.00220301,-0.00121444,0.0162702,0.00200039,0.0409429,678,1156,-61.289,-0.148727
-539,-132,-61.2749,0.408569,0.00216308,-0.00150131,0.000788429,0.00232552,-0.00166374,0.203184,0.00231374,0.0403515,685,1156,-61.2749,-0.408525
-532,-132,-61.2045,0.628052,0.00217278,-0.001847,0.000963983,0.002392,-0.00206622,0.223605,0.00257624,0.0405522,692,1156,-61.2045,-0.628107
-525,-132,-61.2443,0.766113,0.00218872,-0.00216978,0.000527621,0.00225168,-0.00223274,0.11877,0.00258909,0.0418835,699,1156,-61.2443,-0.766108
-518,-132,0,0,0,0,0,0,0,0,0,-1,706,1156,0,0
-511,-132,0,0,0,0,0,0,0,0,0,-1,713,1156,0,0
-504,-132,0,0,0,0,0,0,0,0,0,-1,720,1156,0,0
-497,-132,0,0,0,0,0,0,0,0,0,-1,727,1156,0,0
-490,-132,0,0,0,0,0,0,0,0,0,-1,734,1156,0,0
-483,-132,0,0,0,0,0,0,0,0,0,-1,741,1156,0,0
-476,-132,0,0,0,0,0,0,0,0,0,-1,748,1156,0,0
-469,-132,0,0,0,0,0,0,0,0,0,-1,755,1156,0,0
-462,-132,0,0,0,0,0,0,0,0,0,-1,762,1156,0,0
-455,-132,0,0,0,0,0,0,0,0,0,-1,769,1156,0,0
-448,-132,0,0,0,0,0,0,0,0,0,-1,776,1156,0,0
-441,-132,0,0,0,0,0,0,0,0,0,-1,783,1156,0,0
-434,-132,0,0,0,0,0,0,0,0,0,-1,790,1156,0,0
-427,-132,0,0,0,0,0,0,0,0,0,-1,797,1156,0,0
-420,-132,0,0,0,0,0,0,0,0,0,-1,804,1156,0,0
-413,-132,0,0,0,0,0,0,0,0,0,-1,811,1156,0,0
-406,-132,0,0,0,0,0,0,0,0,0,-1,818,1156,0,0
-399,-132,0,0,0,0,0,0,0,0,0,-1,825,1156,0,0
-392,-132,0,0,0,0,0,0,0,0,0,-1,832,1156,0,0
-385,-132,0,0,0,0,0,0,0,0,0,-1,839,1156,0,0
-378,-132,0,0,0,0,0,0,0,0,0,-1,846,1156,0,0
-371,-132,0,0,0,0,0,0,0,0,0,-1,853,1156,0,0
-364,-132,0,0,0,0,0,0,0,0,0,-1,860,1156,0,0
-357,-132,0,0,0,0,0,0,0,0,0,-1,867,1156,0,0
-350,-132,0,0,0,0,0,0,0,0,0,-1,874,1156,0,0
-343,-132,0,0,0,0,0,0,0,0,0,-1,881,1156,0,0
-336,-132,0,0,0,0,0,0,0,0,0,-1,888,1156,0,0
-329,-132,0,0,0,0,0,0,0,0,0,-1,895,1156,0,0
-322,-132,0,0,0,0,0,0,0,0,0,-1,902,1156,0,0
-315,-132,0,0,0,0,0,0,0,0,0,-1,909,1156,0,0
-308,-132,0,0,0,0,0,0,0,0,0,-1,916,1156,0,0
-301,-132,0,0,0,0,0,0,0,0,0,-1,923,1156,0,0
-294,-132,0,0,0,0,0,0,0,0,0,-1,930,1156,0,0
-287,-132,0,0,0,0,0,0,0,0,0,-1,937,1156,0,0
-280,-132,0,0,0,0,0,0,0,0,0,-1,944,1156,0,0
-273,-132,0,0,0,0,0,0,0,0,0,-1,951,1156,0,0
-266,-132,0,0,0,0,0,0,0,0,0,-1,958,1156,0,0
-259,-132,0,0,0,0,0,0,0,0,0,-1,965,1156,0,0
-252,-132,0,0,0,0,0,0,0,0,0,-1,972,1156,0,0
-245,-132,0,0,0,0,0,0,0,0,0,-1,979,1156,0,0
-238,-132,0,0,0,0,0,0,0,0,0,-1,986,1156,0,0
-231,-132,0,0,0,0,0,0,0,0,0,-1,993,1156,0,0
-224,-132,0,0,0,0,0,0,0,0,0,-1,1000,1156,0,0
-217,-132,0,0,0,0,0,0,0,0,0,-1,1007,1156,0,0
-210,-132,0,0,0,0,0,0,0,0,0,-1,1014,1156,0,0
-203,-132,0,0,0,0,0,0,0,0,0,-1,1021,1156,0,0
-196,-132,0,0,0,0,0,0,0,0,0,-1,1028,1156,0,0
-189,-132,0,0,0,0,0,0,0,0,0,-1,1035,1156,0,0
-182,-132,0,0,0,0,0,0,0,0,0,-1,1042,1156,0,0
-175,-132,0,0,0,0,0,0,0,0,0,-1,1049,1156,0,0
-168,-132,0,0,0,0,0,0,0,0,0,-1,1056,1156,0,0
-161,-132,0,0,0,0,0,0,0,0,0,-1,1063,1156,0,0
-154,-132,0,0,0,0,0,0,0,0,0,-1,1070,1156,0,0
-147,-132,0,0,0,0,0,0,0,0,0,-1,1077,1156,0,0
-140,-132,0,0,0,0,0,0,0,0,0,-1,1084,1156,0,0
-133,-132,0,0,0,0,0,0,0,0,0,-1,1091,1156,0,0
-126,-132,0,0,0,0,0,0,0,0,0,-1,1098,1156,0,0
-119,-132,0,0,0,0,0,0,0,0,0,-1,1105,1156,0,0
-112,-132,0,0,0,0,0,0,0,0,0,-1,1112,1156,0,0
-105,-132,0,0,0,0,0,0,0,0,0,-1,1119,1156,0,0
-98,-132,0,0,0,0,0,0,0,0,0,-1,1126,1156,0,0
-91,-132,0,0,0,0,0,0,0,0,0,-1,1133,1156,0,0
-84,-132,0,0,0,0,0,0,0,0,0,-1,1140,1156,0,0
-77,-132,0,0,0,0,0,0,0,0,0,-1,1147,1156,0,0
-70,-132,0,0,0,0,0,0,0,0,0,-1,1154,1156,0,0
-63,-132,0,0,0,0,0,0,0,0,0,-1,1161,1156,0,0
-56,-132,0,0,0,0,0,0,0,0,0,-1,1168,1156,0,0
-49,-132,0,0,0,0,0,0,0,0,0,-1,1175,1156,0,0
-42,-132,0,0,0,0,0,0,0,0,0,-1,1182,1156,0,0
-35,-132,0,0,0,0,0,0,0,0,0,-1,1189,1156,0,0
-28,-132,0,0,0,0,0,0,0,0,0,-1,1196,1156,0,0
-21,-132,0,0,0,0,0,0,0,0,0,-1,1203,1156,0,0
-14,-132,0,0,0,0,0,0,0,0,0,-1,1210,1156,0,0
-7,-132,0,0,0,0,0,0,0,0,0,-1,1217,1156,0,0
0,-132,0,0,0,0,0,0,0,0,0,-1,1224,1156,0,0
7,-132,0,0,0,0,0,0,0,0,0,-1,1231,1156,0,0
14,-132,0,0,0,0,0,0,0,0,0,-1,1238,1156,0,0
21,-132,0,0,0,0,0,0,0,0,0,-1,1245,1156,0,0
28,-132,0,0,0,0,0,0,0,0,0,-1,1252,1156,0,0
35,-132,0,0,0,0,0,0,0,0,0,-1,1259,1156,0,0
42,-132,0,0,0,0,0,0,0,0,0,-1,1266,1156,0,0
49,-132,0,0,0,0,0,0,0,0,0,-1,1273,1156,0,0
56,-132,0,0,0,0,0,0,0,0,0,-1,1280,1156,0,0
63,-132,0,0,0,0,0,0,0,0,0,-1,1287,1156,0,0
70,-132,0,0,0,0,0,0,0,0,0,-1,1294,1156,0,0
77,-132,0,0,0,0,0,0,0,0,0,-1,1301,1156,0,0
84,-132,0,0,0,0,0,0,0,0,0,-1,1308,1156,0,0
91,-132,0,0,0,0,0,0,0,0,0,-1,1315,1156,0,0
98,-132,0,0,0,0,0,0,0,0,0,-1,1322,1156,0,0
105,-132,0,0,0,0,0,0,0,0,0,-1,1329,1156,0,0
112,-132,0,0,0,0,0,0,0,0,0,-1,1336,1156,0,0
119,-132,0,0,0,0,0,0,0,0,0,-1,1343,1156,0,0
126,-132,0,0,0,0,0,0,0,0,0,-1,1350,1156,0,0
133,-132,0,0,0,0,0,0,0,0,0,-1,1357,1156,0,0
140,-132,0,0,0,0,0,0,0,0,0,-1,1364,1156,0,0
147,-132,0,0,0,0,0,0,0,0,0,-1,1371,1156,0,0
154,-132,0,0,0,0,0,0,0,0,0,-1,1378,1156,0,0
161,-132,0,0,0,0,0,0,0,0,0,-1,1385,1156,0,0
168,-132,0,0,0,0,0,0,0,0,0,-1,1392,1156,0,0
175,-132,0,0,0,0,0,0,0,0,0,-1,1399,1156,0,0
182,-132,0,0,0,0,0,0,0,0,0,-1,1406,1156,0,0
189,-132,0,0,0,0,0,0,0,0,0,-1,1413,1156,0,0
196,-132,0,0,0,0,0,0,0,0,0,-1,1420,1156,0,0
203,-132,0,0,0,0,0,0,0,0,0,-1,1427,1156,0,0
210,-132,0,0,0,0,0,0,0,0,0,-1,1434,1156,0,0
217,-132,0,0,0,0,0,0,0,0,0,-1,1441,1156,0,0
224,-132,0,0,0,0,0,0,0,0,0,-1,1448,1156,0,0
231,-132,0,0,0,0,0,0,0,0,0,-1,1455,1156,0,0
238,-132,0,0,0,0,0,0,0,0,0,-1,1462,1156,0,0
245,-132,0,0,0,0,0,0,0,0,0,-1,1469,1156,0,0
252,-132,0,0,0,0,0,0,0,0,0,-1,1476,1156,0,0
259,-132,0,0,0,0,0,0,0,0,0,-1,1483,1156,0,0
266,-132,0,0,0,0,0,0,0,0,0,-1,1490,1156,0,0
273,-132,0,0,0,0,0,0,0,0,0,-1,1497,1156,0,0
280,-132,0,0,0,0,0,0,0,0,0,-1,1504,1156,0,0
287,-132,0,0,0,0,0,0,0,0,0,-1,1511,1156,0,0
294,-132,0,0,0,0,0,0,0,0,0,-1,1518,1156,0,0
301,-132,0,0,0,0,0,0,0,0,0,-1,1525,1156,0,0
308,-132,0,0,0,0,0,0,0,0,0,-1,1532,1156,0,0
315,-132,0,0,0,0,0,0,0,0,0,-1,1539,1156,0,0
322,-132,0,0,0,0,0,0,0,0,0,-1,1546,1156,0,0
329,-132,0,0,0,0,0,0,0,0,0,-1,1553,1156,0,0
336,-132,0,0,0,0,0,0,0,0,0,-1,1560,1156,0,0
343,-132,0,0,0,0,0,0,0,0,0,-1,1567,1156,0,0
350,-132,0,0,0,0,0,0,0,0,0,-1,1574,1156,0,0
357,-132,0,0,0,0,0,0,0,0,0,-1,1581,1156,0,0
364,-132,0,0,0,0,0,0,0,0,0,-1,1588,1156,0,0
371,-132,0,0,0,0,0,0,0,0,0,-1,1595,1156,0,0
378,-132,0,0,0,0,0,0,0,0,0,-1,1602,1156,0,0
385,-132,0,0,0,0,0,0,0,0,0,-1,1609,1156,0,0
392,-132,0,0,0,0,0,0,0,0,0,-1,1616,1156,0,0
399,-132,0,0,0,0,0,0,0,0,0,-1,1623,1156,0,0
406,-132,0,0,0,0,0,0,0,0,0,-1,1630,1156,0,0
413,-132,0,0,0,0,0,0,0,0,0,-1,1637,1156,0,0
420,-132,0,0,0,0,0,0,0,0,0,-1,1644,1156,0,0
427,-132,0,0,0,0,0,0,0,0,0,-1,1651,1156,0,0
434,-132,0,0,0,0,0,0,0,0,0,-1,1658,1156,0,0
441,-132,0,0,0,0,0,0,0,0,0,-1,1665,1156,0,0
448,-132,0,0,0,0,0,0,0,0,0,-1,1672,1156,0,0
455,-132,0,0,0,0,0,0,0,0,0,-1,1679,1156,0,0
462,-132,0,0,0,0,0,0,0,0,0,-1,1686,1156,0,0
469,-132,0,0,0,0,0,0,0,0,0,-1,1693,1156,0,0
476,-132,0,0,0,0,0,0,0,0,0,-1,1700,1156,0,0
483,-132,0,0,0,0,0,0,0,0,0,-1,1707,1156,0,0
490,-132,0,0,0,0,0,0,0,0,0,-1,1714,1156,0,0
497,-132,0,0,0,0,0,0,0,0,0,-1,1721,1156,0,0
504,-132,0,0,0,0,0,0,0,0,0,-1,1728,1156,0,0
511,-132,0,0,0,0,0,0,0,0,0,-1,1735,1156,0,0
518,-132,0,0,0,0,0,0,0,0,0,-1,1742,1156,0,0
525,-132,0,0,0,0,0,0,0,0,0,-1,1749,1156,0,0
532,-132,0,0,0,0,0,0,0,0,0,-1,1756,1156,0,0
539,-132,0,0,0,0,0,0,0,0,0,-1,1763,1156,0,0
546,-132,0,0,0,0,0,0,0,0,0,-1,1770,1156,0,0
553,-132,0,0,0,0,0,0,0,0,0,-1,1777,1156,0,0
560,-132,0,0,0,0,0,0,0,0,0,-1,1784,1156,0,0
567,-132,0,0,0,0,0,0,0,0,0,-1,1791,1156,0,0
574,-132,0,0,0,0,0,0,0,0,0,-1,1798,1156,0,0
581,-132,0,0,0,0,0,0,0,0,0,-1,1805,1156,0,0
588,-132,0,0,0,0,0,0,0,0,0,-1,1812,1156,0,0
595,-132,0,0,0,0,0,0,0,0,0,-1,1819,1156,0,0
602,-132,0,0,0,0,0,0,0,0,0,-1,1826,1156,0,0
609,-132,0,0,0,0,0,0,0,0,0,-1,1833,1156,0,0
616,-132,0,0,0,0,0,0,0,0,0,-1,1840,1156,0,0
623,-132,0,0,0,0,0,0,0,0,0,-1,1847,1156,0,0
630,-132,0,0,0,0,0,0,0,0,0,-1,1854,1156,0,0
637,-132,0,0,0,0,0,0,0,0,0,-1,1861,1156,0,0
644,-132,77.6541,2.20251,0.00710682,-0.00137123,0.00199887,0.00755446,-0.00181887,0.220311,0.00573948,0.044128,1868,1156,77.6541,-2.20247
651,-132,77.5637,2.6842,0.00487536,-0.000599253,0.00139068,0.00520837,-0.000932261,0.235032,0.0038211,0.0414919,1875,1156,77.5638,-2.68421
658,-132,77.6714,2.66821,0.00341106,-6.83473e-05,0.000971854,0.00366411,-0.000321398,0.254723,0.00255661,0.0416096,1882,1156,77.6714,-2.66825
665,-132,77.7118,2.61108,0.00231742,0.000389043,0.00063205,0.00250612,0.000200344,0.290125,0.00160813,0.0427295,1889,1156,77.7118,-2.61104
672,-132,77.54,2.62354,0.00163073,0.000787418,0.000371755,0.00177121,0.00064694,0.361293,0.00103491,0.0424797,1896,1156,77.54,-2.62349
679,-132,77.6517,2.67517,0.00152437,0.000555415,0.000408528,0.00167362,0.000406163,0.350277,0.00100802,0.0403484,1903,1156,77.6518,-2.67518
686,-132,77.6874,2.68884,0.0020525,0.000625753,0.000325019,0.00212305,0.000555201,0.213754,0.00127137,0.0359087,1910,1156,77.6874,-2.68881
693,-132,77.6256,2.6488,0.00224205,0.000463191,0.000464184,0.00235589,0.00034935,0.240503,0.00146807,0.0318609,1917,1156,77.6257,-2.64882
700,-132,77.726,2.57642,0,0,0,0,0,0,0,-1,1924,1156,77.7259,-2.57638
707,-132,57.9275,3.01367,0,0,0,0,0,0,0,-1,1931,1156,57.9275,-3.01369
714,-132,57.8083,9.22156,0,0,0,0,0,0,0,-1,1938,1156,57.8084,-9.22151
721,-132,69.02,10.5891,0,0,0,0,0,0,0,-1,1945,1156,69.0201,-10.5891
728,-132,68.9688,10.0457,0.0024113,0.0009775,0.00126092,0.00314487,0.00024393,0.52691,0.00202018,0.0328375,1952,1156,68.9687,-10.0456
735,-132,68.9518,9.33765,0.00248044,0.00085274,0.00126243,0.00316862,0.00016456,0.49909,0.00205975,0.0340483,1959,1156,68.9518,-9.33768
742,-132,68.8871,8.64001,0.00246143,0.00072779,0.00142303,0.00326086,-7.16392e-05,0.511843,0.00219817,0.0293255,1966,1156,68.887,-8.64003
749,-132,68.85,7.9502,0.00182468,0.00133371,0.00139239,0.00299306,0.000165329,0.698142,0.00194261,0.0253097,1973,1156,68.8499,-7.95019
756,-132,68.8513,7.24768,0.00249989,0.00297253,0.000429359,0.00322631,0.00224611,1.03698,0.00190991,0.0263586,1980,1156,68.8514,-7.24765
763,-132,68.823,6.57312,0.00546658,0.00498075,-0.00151233,0.00675538,0.00369194,-0.705767,0.00390584,0.015866,1987,1156,68.8229,-6.57314
770,-132,68.8042,5.92163,0.0100842,0.00712629,-0.0040321,0.0129,0.00431045,-0.609621,0.00758317,0.0155229,1994,1156,68.8041,-5.92162
777,-132,68.6853,5.21741,0.0163909,0.00942998,-0.00705806,0.02078,0.0050409,-0.556333,0.0125161,0.0280318,2001,1156,68.6854,-5.21743
784,-132,68.5374,4.52271,0.0248187,0.0118258,-0.0106082,0.0307616,0.00588285,-0.510657,0.0188552,0.047996,2008,1156,68.5374,-4.52269
791,-132,68.4883,3.802,0,0,0,0,0,0,0,-1,2015,1156,68.4882,-3.80203
798,-132,72.1553,-1.43176,0,0,0,0,0,0,0,-1,2022,1156,72.1552,1.4318
805,-132,68.8811,0.441284,0,0,0,0,0,0,0,-1,2029,1156,68.881,-0.441319
812,-132,65.3079,-4.45605,0,0,0,0,0,0,0,-1,2036,1156,65.3079,4.45601
-700,-139,0,0,0,0,0,0,0,0,0,-1,524,1163,0,0
-693,-139,-51.4747,-4.83777,0,0,0,0,0,0,0,-1,531,1163,-51.4747,4.83779
-686,-139,-51.5807,-4.75842,0,0,0,0,0,0,0,-1,538,1163,-51.5807,4.75841
-679,-139,-59.0947,-13.483,0,0,0,0,0,0,0,-1,545,1163,-59.0947,13.4831
-672,-139,-59.6949,-13.1381,0,0,0,0,0,0,0,-1,552,1163,-59.6949,13.1381
-665,-139,-60.5396,-12.8434,0,0,0,0,0,0,0,-1,559,1163,-60.5396,12.8433
-658,-139,-48.239,1.87109,0,0,0,0,0,0,0,-1,566,1163,-48.239,-1.87108
-651,-139,-52.7554,3.73071,0,0,0,0,0,0,0,-1,573,1163,-52.7553,-3.73073
-644,-139,-52.2072,4.42358,0.00644508,0.00333568,-0.0071708,0.0122278,-0.00244702,-0.678645,0.00907813,0.0309735,580,1163,-52.2071,-4.42352
-637,-139,-52.2971,5.0271,-0.0012209,0.00258726,-0.00473283,0.00578466,-0.00441831,-0.976648,0.00590827,0.0173558,587,1163,-52.2971,-5.02712
-630,-139,-52.3105,5.72083,-0.00646907,0.0020552,-0.00321962,0.00313458,-0.00754845,-1.24732,0.0063409,0.010425,594,1163,-52.3105,-5.72082
-623,-139,-52.3624,6.44092,-0.00759902,0.00202934,-0.00266403,0.00271728,-0.00828697,-1.31808,0.00661901,0.0167509,601,1163,-52.3624,-6.44089
-616,-139,-52.4877,7.14624,-0.00737677,0.00236213,-0.00254233,0.00298586,-0.00800049,-1.33021,0.00655952,0.0227614,608,1163,-52.4877,-7.14628
-609,-139,-52.6768,7.92542,0,0,0,0,0,0,0,-1,615,1163,-52.6768,-7.92539
-602,-139,-50.4112,7.96228,0,0,0,0,0,0,0,-1,622,1163,-50.4112,-7.96224
-595,-139,-50.6539,8.62317,0,0,0,0,0,0,0,-1,629,1163,-50.6539,-8.62318
-588,-139,-51.0773,9.1781,0,0,0,0,0,0,0,-1,636,1163,-51.0773,-9.17806
-581,-139,-34.4892,6.72473,0,0,0,0,0,0,0,-1,643,1163,-34.4892,-6.72476
-574,-139,-23.0725,2.4043,0,0,0,0,0,0,0,-1,650,1163,-23.0725,-2.40433
-567,-139,-61.3543,0.739624,0,0,0,0,0,0,0,-1,657,1163,-61.3543,-0.739564
-560,-139,-61.3823,0.733765,0,0,0,0,0,0,0,-1,664,1163,-61.3823,-0.733773
-553,-139,-61.1805,-0.11145,0,0,0,0,0,0,0,-1,671,1163,-61.1806,0.111491
-546,-139,-61.285,0.18689,0.00263943,-0.0017296,0.000120126,0.00264273,-0.0017329,0.0274672,0.00254441,0.0426977,678,1163,-61.2849,-0.186886
-539,-139,-61.316,0.472046,0.00273248,-0.00206045,0.000674179,0.00282551,-0.00215347,0.137117,0.00288333,0.0420108,685,1163,-61.316,-0.472057
-532,-139,-61.2075,0.765747,0.00271065,-0.00238713,0.000572546,0.00277417,-0.00245064,0.110479,0.00301847,0.0420225,692,1163,-61.2075,-0.76572
-525,-139,-61.216,0.7146,0.00255346,-0.00270126,-0.00030947,0.00257162,-0.00271942,-0.0586236,0.00305518,0.0412217,699,1163,-61.216,-0.714612
-518,-139,0,0,0,0,0,0,0,0,0,-1,706,1163,0,0
-511,-139,0,0,0,0,0,0,0,0,0,-1,713,1163,0,0
-504,-139,0,0,0,0,0,0,0,0,0,-1,720,1163,0,0
-497,-139,0,0,0,0,0,0,0,0,0,-1,727,1163,0,0
-490,-139,0,0,0,0,0,0,0,0,0,-1,734,1163,0,0
-483,-139,0,0,0,0,0,0,0,0,0,-1,741,1163,0,0
-476,-139,0,0,0,0,0,0,0,0,0,-1,748,1163,0,0
-469,-139,0,0,0,0,0,0,0,0,0,-1,755,1163,0,0
-462,-139,0,0,0,0,0,0,0,0,0,-1,762,1163,0,0
-455,-139,0,0,0,0,0,0,0,0,0,-1,769,1163,0,0
-448,-139,0,0,0,0,0,0,0,0,0,-1,776,1163,0,0
-441,-139,0,0,0,0,0,0,0,0,0,-1,783,1163,0,0
-434,-139,0,0,0,0,0,0,0,0,0,-1,790,1163,0,0
-427,-139,0,0,0,0,0,0,0,0,0,-1,797,1163,0,0
-420,-139,0,0,0,0,0,0,0,0,0,-1,804,1163,0,0
-413,-139,0,0,0,0,0,0,0,0,0,-1,811,1163,0,0
-406,-139,0,0,0,0,0,0,0,0,0,-1,818,1163,0,0
-399,-139,0,0,0,0,0,0,0,0,0,-1,825,1163,0,0
-392,-139,0,0,0,0,0,0,0,0,0,-1,832,1163,0,0
-385,-139,0,0,0,0,0,0,0,0,0,-1,839,1163,0,0
-378,-139,0,0,0,0,0,0,0,0,0,-1,846,1163,0,0
-371,-139,0,0,0,0,0,0,0,0,0,-1,853,1163,0,0
-364,-139,0,0,0,0,0,0,0,0,0,-1,860,1163,0,0
-357,-139,0,0,0,0,0,0,0,0,0,-1,867,1163,0,0
-350,-139,0,0,0,0,0,0,0,0,0,-1,874,1163,0,0
-343,-139,0,0,0,0,0,0,0,0,0,-1,881,1163,0,0
-336,-139,0,0,0,0,0,0,0,0,0,-1,888,1163,0,0
-329,-139,0,0,0,0,0,0,0,0,0,-1,895,1163,0,0
-322,-139,0,0,0,0,0,0,0,0,0,-1,902,1163,0,0
-315,-139,0,0,0,0,0,0,0,0,0,-1,909,1163,0,0
-308,-139,0,0,0,0,0,0,0,0,0,-1,916,1163,0,0
-301,-139,0,0,0,0,0,0,0,0,0,-1,923,1163,0,0
-294,-139,0,0,0,0,0,0,0,0,0,-1,930,1163,0,0
-287,-139,0,0,0,0,0,0,0,0,0,-1,937,1163,0,0
-280,-139,0,0,0,0,0,0,0,0,0,-1,944,1163,0,0
-273,-139,0,0,0,0,0,0,0,0,0,-1,951,1163,0,0
-266,-139,0,0,0,0,0,0,0,0,0,-1,958,1163,0,0
-259,-139,0,0,0,0,0,0,0,0,0,-1,965,1163,0,0
-252,-139,0,0,0,0,0,0,0,0,0,-1,972,1163,0,0
-245,-139,0,0,0,0,0,0,0,0,0,-1,979,1163,0,0
-238,-139,0,0,0,0,0,0,0,0,0,-1,986,1163,0,0
-231,-139,0,0,0,0,0,0,0,0,0,-1,993,1163,0,0
-224,-139,0,0,0,0,0,0,0,0,0,-1,1000,1163,0,0
-217,-139,0,0,0,0,0,0,0,0,0,-1,1007,1163,0,0
-210,-139,0,0,0,0,0,0,0,0,0,-1,1014,1163,0,0
-203,-139,0,0,0,0,0,0,0,0,0,-1,1021,1163,0,0
-196,-139,0,0,0,0,0,0,0,0,0,-1,1028,1163,0,0
-189,-139,0,0,0,0,0,0,0,0,0,-1,1035,1163,0,0
-182,-139,0,0,0,0,0,0,0,0,0,-1,1042,1163,0,0
-175,-139,0,0,0,0,0,0,0,0,0,-1,1049,1163,0,0
-168,-139,0,0,0,0,0,0,0,0,0,-1,1056,1163,0,0
-161,-139,0,0,0,0,0,0,0,0,0,-1,1063,1163,0,0
-154,-139,0,0,0,0,0,0,0,0,0,-1,1070,1163,0,0
-147,-139,0,0,0,0,0,0,0,0,0,-1,1077,1163,0,0
-140,-139,0,0,0,0,0,0,0,0,0,-1,1084,1163,0,0
-133,-139,0,0,0,0,0,0,0,0,0,-1,1091,1163,0,0
-126,-139,0,0,0,0,0,0,0,0,0,-1,1098,1163,0,0
-119,-139,0,0,0,0,0,0,0,0,0,-1,1105,1163,0,0
-112,-139,0,0,0,0,0,0,0,0,0,-1,1112,1163,0,0
-105,-139,0,0,0,0,0,0,0,0,0,-1,1119,1163,0,0
-98,-139,0,0,0,0,0,0,0,0,0,-1,1126,1163,0,0
-91,-139,0,0,0,0,0,0,0,0,0,-1,1133,1163,0,0
-84,-139,0,0,0,0,0,0,0,0,0,-1,1140,1163,0,0
-77,-139,0,0,0,0,0,0,0,0,0,-1,1147,1163,0,0
-70,-139,0,0,0,0,0,0,0,0,0,-1,1154,1163,0,0
-63,-139,0,0,0,0,0,0,0,0,0,-1,1161,1163,0,0
-56,-139,0,0,0,0,0,0,0,0,0,-1,1168,1163,0,0
-49,-139,0,0,0,0,0,0,0,0,0,-1,1175,1163,0,0
-42,-139,0,0,0,0,0,0,0,0,0,-1,1182,1163,0,0
-35,-139,0,0,0,0,0,0,0,0,0,-1,1189,1163,0,0
-28,-139,0,0,0,0,0,0,0,0,0,-1,1196,1163,0,0
-21,-139,0,0,0,0,0,0,0,0,0,-1,1203,1163,0,0
-14,-139,0,0,0,0,0,0,0,0,0,-1,1210,1163,0,0
-7,-139,0,0,0,0,0,0,0,0,0,-1,1217,1163,0,0
0,-139,0,0,0,0,0,0,0,0,0,-1,1224,1163,0,0
7,-139,0,0,0,0,0,0,0,0,0,-1,1231,1163,0,0
14,-139,0,0,0,0,0,0,0,0,0,-1,1238,1163,0,0
21,-139,0,0,0,0,0,0,0,0,0,-1,1245,1163,0,0
28,-139,0,0,0,0,0,0,0,0,0,-1,1252,1163,0,0
35,-139,0,0,0,0,0,0,0,0,0,-1,1259,1163,0,0
42,-139,0,0,0,0,0,0,0,0,0,-1,1266,1163,0,0
49,-139,0,0,0,0,0,0,0,0,0,-1,1273,1163,0,0
56,-139,0,0,0,0,0,0,0,0,0,-1,1280,1163,0,0
63,-139,0,0,0,0,0,0,0,0,0,-1,1287,1163,0,0
70,-139,0,0,0,0,0,0,0,0,0,-1,1294,1163,0,0
77,-139,0,0,0,0,0,0,0,0,0,-1,1301,1163,0,0
84,-139,0,0,0,0,0,0,0,0,0,-1,1308,1163,0,0
91,-139,0,0,0,0,0,0,0,0,0,-1,1315,1163,0,0
98,-139,0,0,0,0,0,0,0,0,0,-1,1322,1163,0,0
105,-139,0,0,0,0,0,0,0,0,0,-1,1329,1163,0,0
112,-139,0,0,0,0,0,0,0,0,0,-1,1336,1163,0,0
119,-139,0,0,0,0,0,0,0,0,0,-1,1343,1163,0,0
126,-139,0,0,0,0,0,0,0,0,0,-1,1350,1163,0,0
133,-139,0,0,0,0,0,0,0,0,0,-1,1357,1163,0,0
140,-139,0,0,0,0,0,0,0,0,0,-1,1364,1163,0,0
147,-139,0,0,0,0,0,0,0,0,0,-1,1371,1163,0,0
154,-139,0,0,0,0,0,0,0,0,0,-1,1378,1163,0,0
161,-139,0,0,0,0,0,0,0,0,0,-1,1385,1163,0,0
168,-139,0,0,0,0,0,0,0,0,0,-1,1392,1163,0,0
175,-139,0,0,0,0,0,0,0,0,0,-1,1399,1163,0,0
182,-139,0,0,0,0,0,0,0,0,0,-1,1406,1163,0,0
189,-139,0,0,0,0,0,0,0,0,0,-1,1413,1163,0,0
196,-139,0,0,0,0,0,0,0,0,0,-1,1420,1163,0,0
203,-139,0,0,0,0,0,0,0,0,0,-1,1427,1163,0,0
210,-139,0,0,0,0,0,0,0,0,0,-1,1434,1163,0,0
217,-139,0,0,0,0,0,0,0,0,0,-1,1441,1163,0,0
224,-139,0,0,0,0,0,0,0,0,0,-1,1448,1163,0,0
231,-139,0,0,0,0,0,0,0,0,0,-1,1455,1163,0,0
238,-139,0,0,0,0,0,0,0,0,0,-1,1462,1163,0,0
245,-139,0,0,0,0,0,0,0,0,0,-1,1469,1163,0,0
252,-139,0,0,0,0,0,0,0,0,0,-1,1476,1163,0,0
259,-139,0,0,0,0,0,0,0,0,0,-1,1483,1163,0,0
266,-139,0,0,0,0,0,0,0,0,0,-1,1490,1163,0,0
273,-139,0,0,0,0,0,0,0,0,0,-1,1497,1163,0,0
280,-139,0,0,0,0,0,0,0,0,0,-1,1504,1163,0,0
287,-139,0,0,0,0,0,0,0,0,0,-1,1511,1163,0,0
294,-139,0,0,0,0,0,0,0,0,0,-1,1518,1163,0,0
301,-139,0,0,0,0,0,0,0,0,0,-1,1525,1163,0,0
308,-139,0,0,0,0,0,0,0,0,0,-1,1532,1163,0,0
315,-139,0,0,0,0,0,0,0,0,0,-1,1539,1163,0,0
322,-139,0,0,0,0,0,0,0,0,0,-1,1546,1163,0,0
329,-139,0,0,0,0,0,0,0,0,0,-1,1553,1163,0,0
336,-139,0,0,0,0,0,0,0,0,0,-1,1560,1163,0,0
343,-139,0,0,0,0,0,0,0,0,0,-1,1567,1163,0,0
350,-139,0,0,0,0,0,0,0,0,0,-1,1574,1163,0,0
357,-139,0,0,0,0,0,0,0,0,0,-1,1581,1163,0,0
364,-139,0,0,0,0,0,0,0,0,0,-1,1588,1163,0,0
371,-139,0,0,0,0,0,0,0,0,0,-1,1595,1163,0,0
378,-139,0,0,0,0,0,0,0,0,0,-1,1602,1163,0,0
385,-139,0,0,0,0,0,0,0,0,0,-1,1609,1163,0,0
392,-139,0,0,0,0,0,0,0,0,0,-1,1616,1163,0,0
399,-139,0,0,0,0,0,0,0,0,0,-1,1623,1163,0,0
406,-139,0,0,0,0,0,0,0,0,0,-1,1630,1163,0,0
413,-139,0,0,0,0,0,0,0,0,0,-1,1637,1163,0,0
420,-139,0,0,0,0,0,0,0,0,0,-1,1644,1163,0,0
427,-139,0,0,0,0,0,0,0,0,0,-1,1651,1163,0,0
434,-139,0,0,0,0,0,0,0,0,0,-1,1658,1163,0,0
441,-139,0,0,0,0,0,0,0,0,0,-1,1665,1163,0,0
448,-139,0,0,0,0,0,0,0,0,0,-1,1672,1163,0,0
455,-139,0,0,0,0,0,0,0,0,0,-1,1679,1163,0,0
462,-139,0,0,0,0,0,0,0,0,0,-1,1686,1163,0,0
469,-139,0,0,0,0,0,0,0,0,0,-1,1693,1163,0,0
476,-139,0,0,0,0,0,0,0,0,0,-1,1700,1163,0,0
483,-139,0,0,0,0,0,0,0,0,0,-1,1707,1163,0,0
490,-139,0,0,0,0,0,0,0,0,0,-1,1714,1163,0,0
497,-139,0,0,0,0,0,0,0,0,0,-1,1721,1163,0,0
504,-139,0,0,0,0,0,0,0,0,0,-1,1728,1163,0,0
511,-139,0,0,0,0,0,0,0,0,0,-1,1735,1163,0,0
518,-139,0,0,0,0,0,0,0,0,0,-1,1742,1163,0,0
525,-139,0,0,0,0,0,0,0,0,0,-1,1749,1163,0,0
532,-139,0,0,0,0,0,0,0,0,0,-1,1756,1163,0,0
539,-139,0,0,0,0,0,0,0,0,0,-1,1763,1163,0,0
546,-139,0,0,0,0,0,0,0,0,0,-1,1770,1163,0,0
553,-139,0,0,0,0,0,0,0,0,0,-1,1777,1163,0,0
560,-139,0,0,0,0,0,0,0,0,0,-1,1784,1163,0,0
567,-139,0,0,0,0,0,0,0,0,0,-1,1791,1163,0,0
574,-139,0,0,0,0,0,0,0,0,0,-1,1798,1163,0,0
581,-139,0,0,0,0,0,0,0,0,0,-1,1805,1163,0,0
588,-139,0,0,0,0,0,0,0,0,0,-1,1812,1163,0,0
595,-139,0,0,0,0,0,0,0,0,0,-1,1819,1163,0,0
602,-139,0,0,0,0,0,0,0,0,0,-1,1826,1163,0,0
609,-139,0,0,0,0,0,0,0,0,0,-1,1833,1163,0,0
616,-139,0,0,0,0,0,0,0,0,0,-1,1840,1163,0,0
623,-139,0,0,0,0,0,0,0,0,0,-1,1847,1163,0,0
630,-139,0,0,0,0,0,0,0,0,0,-1,1854,1163,0,0
637,-139,0,0,0,0,0,0,0,0,0,-1,1861,1163,0,0
644,-139,77.7045,2.56897,0.00620614,-0.00108734,0.00173445,0.0065976,-0.00147879,0.221975,0.00496528,0.0419445,1868,1163,77.7044,-2.569
651,-139,77.7529,2.44299,0.00437296,-0.000310822,0.00128631,0.00470297,-0.00064083,0.251138,0.0033693,0.042174,1875,1163,77.7529,-2.44294
658,-139,77.8259,2.44604,0.00309132,0.000274871,0.000942031,0.00337736,-1.1165e-05,0.294791,0.0022553,0.0413984,1882,1163,77.826,-2.44605
665,-139,77.7959,2.57275,0.00210669,0.000796395,0.000638858,0.00236661,0.00053647,0.386406,0.0014328,0.0390166,1889,1163,77.7959,-2.57274
672,-139,77.665,2.61499,0.00147253,0.00127068,0.00037911,0.00176392,0.000979294,0.655309,0.00102047,0.0401389,1896,1163,77.6651,-2.61495
679,-139,77.7051,2.59961,0.00138933,0.00107806,0.000399743,0.00166266,0.000804721,0.599759,0.000960103,0.0383907,1903,1163,77.7051,-2.59958
686,-139,77.6296,2.68286,0.00206775,0.00119752,0.000279006,0.00214952,0.00111575,0.285093,0.00124133,0.0365924,1910,1163,77.6296,-2.68286
693,-139,77.6747,2.63599,0.00229301,0.000971513,0.00042503,0.00241791,0.000846616,0.285809,0.00141673,0.0283719,1917,1163,77.6747,-2.63604
700,-139,77.7543,2.43176,0,0,0,0,0,0,0,-1,1924,1163,77.7543,-2.43179
707,-139,32.116,6.54346,0,0,0,0,0,0,0,-1,1931,1163,32.116,-6.54343
714,-139,62.1425,10.1428,0,0,0,0,0,0,0,-1,1938,1163,62.1424,-10.1428
721,-139,65.8013,9.82837,0,0,0,0,0,0,0,-1,1945,1163,65.8013,-9.82837
728,-139,68.2355,10.1874,0,0,0,0,0,0,0,-1,1952,1163,68.2355,-10.1874
735,-139,68.1715,9.42273,0.00297688,0.00110168,0.00116227,0.00353259,0.000545972,0.445991,0.00219581,0.0389986,1959,1163,68.1715,-9.42278
742,-139,68.2266,8.54626,0.00296054,0.000849321,0.00139901,0.00365751,0.000152349,0.462198,0.00238918,0.0263468,1966,1163,68.2266,-8.54622
749,-139,68.1738,7.87891,0.0024009,0.00118463,0.00146077,0.00337507,0.000210465,0.588153,0.00218327,0.020708,1973,1163,68.1739,-7.87885
756,-139,68.1414,7.23267,0.00360419,0.00254973,0.000596403,0.00387299,0.00228093,0.423441,0.00224783,0.0119528,1980,1163,68.1413,-7.23262
763,-139,68.1101,6.55872,0.00715959,0.00425638,-0.00104881,0.00749884,0.00391713,-0.312841,0.0043309,0.0128034,1987,1163,68.11,-6.55874
770,-139,68.0801,5.90063,0.0124143,0.00604686,-0.0031393,0.0137018,0.00475942,-0.389185,0.00803266,0.0146383,1994,1163,68.0801,-5.90069
777,-139,68.0286,5.26221,0.0194128,0.00800591,-0.00563319,0.0217257,0.00569298,-0.389601,0.0130082,0.0289876,2001,1163,68.0285,-5.2622
784,-139,68.1099,4.63391,0.0286731,0.0100491,-0.00852703,0.0319874,0.00673483,-0.370711,0.0194722,0.0467876,2008,1163,68.1099,-4.63385
791,-139,68.2583,3.97986,0,0,0,0,0,0,0,-1,2015,1163,68.2582,-3.97983
798,-139,68.4392,-0.0831299,0,0,0,0,0,0,0,-1,2022,1163,68.4392,0.0831286
805,-139,69.8289,2.8064,0,0,0,0,0,0,0,-1,2029,1163,69.8288,-2.80635
812,-139,0,0,0,0,0,0,0,0,0,-1,2036,1163,0,0
-700,-146,0,0,0,0,0,0,0,0,0,-1,524,1170,0,0
-693,-146,-51.506,-5.797,0,0,0,0,0,0,0,-1,531,1170,-51.506,5.79697
-686,-146,-51.814,-6.34314,0,0,0,0,0,0,0,-1,538,1170,-51.814,6.34313
-679,-146,-48.1238,2.80457,0,0,0,0,0,0,0,-1,545,1170,-48.1238,-2.80453
-672,-146,-48.5766,3.09644,0,0,0,0,0,0,0,-1,552,1170,-48.5766,-3.09646
-665,-146,-49.2606,3.46606,0,0,0,0,0,0,0,-1,559,1170,-49.2606,-3.46606
-658,-146,-51.6229,2.49084,0,0,0,0,0,0,0,-1,566,1170,-51.6229,-2.49089
-651,-146,-51.5422,3.41919,0,0,0,0,0,0,0,-1,573,1170,-51.5422,-3.41918
-644,-146,-51.4123,4.33765,0.0044982,0.00300974,-0.00698213,0.0107756,-0.00326771,-0.732303,0.00848539,0.028929,580,1170,-51.4123,-4.33765
-637,-146,-51.5466,5.01172,-0.00190871,0.00240779,-0.00537722,0.00604372,-0.00554464,-0.976241,0.00669261,0.0137493,587,1170,-51.5466,-5.01169
-630,-146,-51.583,5.73108,-0.00605526,0.00203665,-0.00398039,0.00366636,-0.00768498,-1.18218,0.0066892,0.010459,594,1170,-51.583,-5.73108
-623,-146,-51.6351,6.4458,-0.00681338,0.00216591,-0.00294565,0.00304597,-0.00769344,-1.28047,0.006391,0.0133449,601,1170,-51.6352,-6.44575
-616,-146,-51.7406,7.14709,-0.00636121,0.00273139,-0.00244772,0.00334844,-0.00697826,-1.32385,0.00608366,0.0209012,608,1170,-51.7406,-7.14711
-609,-146,-51.8326,7.84595,0,0,0,0,0,0,0,-1,615,1170,-51.8327,-7.84597
-602,-146,-49.7178,7.99854,0,0,0,0,0,0,0,-1,622,1170,-49.7178,-7.99849
-595,-146,-49.8962,8.69519,0,0,0,0,0,0,0,-1,629,1170,-49.8963,-8.6952
-588,-146,-45.0034,7.81934,0,0,0,0,0,0,0,-1,636,1170,-45.0034,-7.81931
-581,-146,-31.7815,6.30347,0,0,0,0,0,0,0,-1,643,1170,-31.7815,-6.3035
-574,-146,-17.9915,3.79114,0,0,0,0,0,0,0,-1,650,1170,-17.9915,-3.79118
-567,-146,-44.4572,0.6604,0,0,0,0,0,0,0,-1,657,1170,-44.4572,-0.660404
-560,-146,-61.3997,0.80188,0,0,0,0,0,0,0,-1,664,1170,-61.3996,-0.801884
-553,-146,-61.2914,0.509644,0.00285505,-0.00105754,-0.00056742,0.00293568,-0.00113817,-0.141151,0.00242715,0.0371055,671,1170,-61.2914,-0.509636
-546,-146,-61.3019,0.331299,0.00291035,-0.00164624,0.000186128,0.00291794,-0.00165383,0.0407576,0.00267293,0.0428259,678,1170,-61.3019,-0.331299
-539,-146,-61.3741,0.59729,0.00321702,-0.00227776,0.000670664,0.00329769,-0.00235844,0.119714,0.00328054,0.0444445,685,1170,-61.3741,-0.597311
-532,-146,-61.3353,0.972168,0.00342707,-0.00286553,0.000358889,0.00344747,-0.00288593,0.056788,0.00366138,0.0429055,692,1170,-61.3353,-0.972187
-525,-146,-61.2751,0.906982,0.00349201,-0.00339377,-0.00102866,0.0036424,-0.00354416,-0.145167,0.00414929,0.0427643,699,1170,-61.2752,-0.907024
-518,-146,0,0,0,0,0,0,0,0,0,-1,706,1170,0,0
-511,-146,0,0,0,0,0,0,0,0,0,-1,713,1170,0,0
-504,-146,0,0,0,0,0,0,0,0,0,-1,720,1170,0,0
-497,-146,0,0,0,0,0,0,0,0,0,-1,727,1170,0,0
-490,-146,0,0,0,0,0,0,0,0,0,-1,734,1170,0,0
-483,-146,0,0,0,0,0,0,0,0,0,-1,741,1170,0,0
-476,-146,0,0,0,0,0,0,0,0,0,-1,748,1170,0,0
-469,-146,0,0,0,0,0,0,0,0,0,-1,755,1170,0,0
-462,-146,0,0,0,0,0,0,0,0,0,-1,762,1170,0,0
-455,-146,0,0,0,0,0,0,0,0,0,-1,769,1170,0,0
-448,-146,0,0,0,0,0,0,0,0,0,-1,776,1170,0,0
-441,-146,0,0,0,0,0,0,0,0,0,-1,783,1170,0,0
-434,-146,0,0,0,0,0,0,0,0,0,-1,790,1170,0,0
-427,-146,0,0,0,0,0,0,0,0,0,-1,797,1170,0,0
-420,-146,0,0,0,0,0,0,0,0,0,-1,804,1170,0,0
-413,-146,0,0,0,0,0,0,0,0,0,-1,811,1170,0,0
-406,-146,0,0,0,0,0,0,0,0,0,-1,818,1170,0,0
-399,-146,0,0,0,0,0,0,0,0,0,-1,825,1170,0,0
-392,-146,0,0,0,0,0,0,0,0,0,-1,832,1170,0,0
-385,-146,0,0,0,0,0,0,0,0,0,-1,839,1170,0,0
-378,-146,0,0,0,0,0,0,0,0,0,-1,846,1170,0,0
-371,-146,0,0,0,0,0,0,0,0,0,-1,853,1170,0,0
-364,-146,0,0,0,0,0,0,0,0,0,-1,860,1170,0,0
-357,-146,0,0,0,0,0,0,0,0,0,-1,867,1170,0,0
-350,-146,0,0,0,0,0,0,0,0,0,-1,874,1170,0,0
-343,-146,0,0,0,0,0,0,0,0,0,-1,881,1170,0,0
-336,-146,0,0,0,0,0,0,0,0,0,-1,888,1170,0,0
-329,-146,0,0,0,0,0,0,0,0,0,-1,895,1170,0,0
-322,-146,0,0,0,0,0,0,0,0,0,-1,902,1170,0,0
-315,-146,0,0,0,0,0,0,0,0,0,-1,909,1170,0,0
-308,-146,0,0,0,0,0,0,0,0,0,-1,916,1170,0,0
-301,-146,0,0,0,0,0,0,0,0,0,-1,923,1170,0,0
-294,-146,0,0,0,0,0,0,0,0,0,-1,930,1170,0,0
-287,-146,0,0,0,0,0,0,0,0,0,-1,937,1170,0,0
-280,-146,0,0,0,0,0,0,0,0,0,-1,944,1170,0,0
-273,-146,0,0,0,0,0,0,0,0,0,-1,951,1170,0,0
-266,-146,0,0,0,0,0,0,0,0,0,-1,958,1170,0,0
-259,-146,0,0,0,0,0,0,0,0,0,-1,965,1170,0,0
-252,-146,0,0,0,0,0,0,0,0,0,-1,972,1170,0,0
-245,-146,0,0,0,0,0,0,0,0,0,-1,979,1170,0,0
-238,-146,0,0,0,0,0,0,0,0,0,-1,986,1170,0,0
-231,-146,0,0,0,0,0,0,0,0,0,-1,993,1170,0,0
-224,-146,0,0,0,0,0,0,0,0,0,-1,1000,1170,0,0
-217,-146,0,0,0,0,0,0,0,0,0,-1,1007,1170,0,0
-210,-146,0,0,0,0,0,0,0,0,0,-1,1014,1170,0,0
-203,-146,0,0,0,0,0,0,0,0,0,-1,1021,1170,0,0
-196,-146,0,0,0,0,0,0,0,0,0,-1,1028,1170,0,0
-189,-146,0,0,0,0,0,0,0,0,0,-1,1035,1170,0,0
-182,-146,0,0,0,0,0,0,0,0,0,-1,1042,1170,0,0
-175,-146,0,0,0,0,0,0,0,0,0,-1,1049,1170,0,0
-168,-146,0,0,0,0,0,0,0,0,0,-1,1056,1170,0,0
-161,-146,0,0,0,0,0,0,0,0,0,-1,1063,1170,0,0
-154,-146,0,0,0,0,0,0,0,0,0,-1,1070,1170,0,0
-147,-146,0,0,0,0,0,0,0,0,0,-1,1077,1170,0,0
-140,-146,0,0,0,0,0,0,0,0,0,-1,1084,1170,0,0
-133,-146,0,0,0,0,0,0,0,0,0,-1,1091,1170,0,0
-126,-146,0,0,0,0,0,0,0,0,0,-1,1098,1170,0,0
-119,-146,0,0,0,0,0,0,0,0,0,-1,1105,1170,0,0
-112,-146,0,0,0,0,0,0,0,0,0,-1,1112,1170,0,0
-105,-146,0,0,0,0,0,0,0,0,0,-1,1119,1170,0,0
-98,-146,0,0,0,0,0,0,0,0,0,-1,1126,1170,0,0
-91,-146,0,0,0,0,0,0,0,0,0,-1,1133,1170,0,0
-84,-146,0,0,0,0,0,0,0,0,0,-1,1140,1170,0,0
-77,-146,0,0,0,0,0,0,0,0,0,-1,1147,1170,0,0
-70,-146,0,0,0,0,0,0,0,0,0,-1,1154,1170,0,0
-63,-146,0,0,0,0,0,0,0,0,0,-1,1161,1170,0,0
-56,-146,0,0,0,0,0,0,0,0,0,-1,1168,1170,0,0
-49,-146,0,0,0,0,0,0,0,0,0,-1,1175,1170,0,0
-42,-146,0,0,0,0,0,0,0,0,0,-1,1182,1170,0,0
-35,-146,0,0,0,0,0,0,0,0,0,-1,1189,1170,0,0
-28,-146,0,0,0,0,0,0,0,0,0,-1,1196,1170,0,0
-21,-146,0,0,0,0,0,0,0,0,0,-1,1203,1170,0,0
-14,-146,0,0,0,0,0,0,0,0,0,-1,1210,1170,0,0
-7,-146,0,0,0,0,0,0,0,0,0,-1,1217,1170,0,0
0,-146,0,0,0,0,0,0,0,0,0,-1,1224,1170,0,0
7,-146,0,0,0,0,0,0,0,0,0,-1,1231,1170,0,0
14,-146,0,0,0,0,0,0,0,0,0,-1,1238,1170,0,0
21,-146,0,0,0,0,0,0,0,0,0,-1,1245,1170,0,0
28,-146,0,0,0,0,0,0,0,0,0,-1,1252,1170,0,0
35,-146,0,0,0,0,0,0,0,0,0,-1,1259,1170,0,0
42,-146,0,0,0,0,0,0,0,0,0,-1,1266,1170,0,0
49,-146,0,0,0,0,0,0,0,0,0,-1,1273,1170,0,0
56,-146,0,0,0,0,0,0,0,0,0,-1,1280,1170,0,0
63,-146,0,0,0,0,0,0,0,0,0,-1,1287,1170,0,0
70,-146,0,0,0,0,0,0,0,0,0,-1,1294,1170,0,0
77,-146,0,0,0,0,0,0,0,0,0,-1,1301,1170,0,0
84,-146,0,0,0,0,0,0,0,0,0,-1,1308,1170,0,0
91,-146,0,0,0,0,0,0,0,0,0,-1,1315,1170,0,0
98,-146,0,0,0,0,0,0,0,0,0,-1,1322,1170,0,0
105,-146,0,0,0,0,0,0,0,0,0,-1,1329,1170,0,0
112,-146,0,0,0,0,0,0,0,0,0,-1,1336,1170,0,0
119,-146,0,0,0,0,0,0,0,0,0,-1,1343,1170,0,0
126,-146,0,0,0,0,0,0,0,0,0,-1,1350,1170,0,0
133,-146,0,0,0,0,0,0,0,0,0,-1,1357,1170,0,0
140,-146,0,0,0,0,0,0,0,0,0,-1,1364,1170,0,0
147,-146,0,0,0,0,0,0,0,0,0,-1,1371,1170,0,0
154,-146,0,0,0,0,0,0,0,0,0,-1,1378,1170,0,0
161,-146,0,0,0,0,0,0,0,0,0,-1,1385,1170,0,0
168,-146,0,0,0,0,0,0,0,0,0,-1,1392,1170,0,0
175,-146,0,0,0,0,0,0,0,0,0,-1,1399,1170,0,0
182,-146,0,0,0,0,0,0,0,0,0,-1,1406,1170,0,0
189,-146,0,0,0,0,0,0,0,0,0,-1,1413,1170,0,0
196,-146,0,0,0,0,0,0,0,0,0,-1,1420,1170,0,0
203,-146,0,0,0,0,0,0,0,0,0,-1,1427,1170,0,0
210,-146,0,0,0,0,0,0,0,0,0,-1,1434,1170,0,0
217,-146,0,0,0,0,0,0,0,0,0,-1,1441,1170,0,0
224,-146,0,0,0,0,0,0,0,0,0,-1,1448,1170,0,0
231,-146,0,0,0,0,0,0,0,0,0,-1,1455,1170,0,0
238,-146,0,0,0,0,0,0,0,0,0,-1,1462,1170,0,0
245,-146,0,0,0,0,0,0,0,0,0,-1,1469,1170,0,0
252,-146,0,0,0,0,0,0,0,0,0,-1,1476,1170,0,0
259,-146,0,0,0,0,0,0,0,0,0,-1,1483,1170,0,0
266,-146,0,0,0,0,0,0,0,0,0,-1,1490,1170,0,0
273,-146,0,0,0,0,0,0,0,0,0,-1,1497,1170,0,0
280,-146,0,0,0,0,0,0,0,0,0,-1,1504,1170,0,0
287,-146,0,0,0,0,0,0,0,0,0,-1,1511,1170,0,0
294,-146,0,0,0,0,0,0,0,0,0,-1,1518,1170,0,0
301,-146,0,0,0,0,0,0,0,0,0,-1,1525,1170,0,0
308,-146,0,0,0,0,0,0,0,0,0,-1,1532,1170,0,0
315,-146,0,0,0,0,0,0,0,0,0,-1,1539,1170,0,0
322,-146,0,0,0,0,0,0,0,0,0,-1,1546,1170,0,0
329,-146,0,0,0,0,0,0,0,0,0,-1,1553,1170,0,0
336,-146,0,0,0,0,0,0,0,0,0,-1,1560,1170,0,0
343,-146,0,0,0,0,0,0,0,0,0,-1,1567,1170,0,0
350,-146,0,0,0,0,0,0,0,0,0,-1,1574,1170,0,0
357,-146,0,0,0,0,0,0,0,0,0,-1,1581,1170,0,0
364,-146,0,0,0,0,0,0,0,0,0,-1,1588,1170,0,0
371,-146,0,0,0,0,0,0,0,0,0,-1,1595,1170,0,0
378,-146,0,0,0,0,0,0,0,0,0,-1,1602,1170,0,0
385,-146,0,0,0,0,0,0,0,0,0,-1,1609,1170,0,0
392,-146,0,0,0,0,0,0,0,0,0,-1,1616,1170,0,0
399,-146,0,0,0,0,0,0,0,0,0,-1,1623,1170,0,0
406,-146,0,0,0,0,0,0,0,0,0,-1,1630,1170,0,0
413,-146,0,0,0,0,0,0,0,0,0,-1,1637,1170,0,0
420,-146,0,0,0,0,0,0,0,0,0,-1,1644,1170,0,0
427,-146,0,0,0,0,0,0,0,0,0,-1,1651,1170,0,0
434,-146,0,0,0,0,0,0,0,0,0,-1,1658,1170,0,0
441,-146,0,0,0,0,0,0,0,0,0,-1,1665,1170,0,0
448,-146,0,0,0,0,0,0,0,0,0,-1,1672,1170,0,0
455,-146,0,0,0,0,0,0,0,0,0,-1,1679,1170,0,0
462,-146,0,0,0,0,0,0,0,0,0,-1,1686,1170,0,0
469,-146,0,0,0,0,0,0,0,0,0,-1,1693,1170,0,0
476,-146,0,0,0,0,0,0,0,0,0,-1,1700,1170,0,0
483,-146,0,0,0,0,0,0,0,0,0,-1,1707,1170,0,0
490,-146,0,0,0,0,0,0,0,0,0,-1,1714,1170,0,0
497,-146,0,0,0,0,0,0,0,0,0,-1,1721,1170,0,0
504,-146,0,0,0,0,0,0,0,0,0,-1,1728,1170,0,0
511,-146,0,0,0,0,0,0,0,0,0,-1,1735,1170,0,0
518,-146,0,0,0,0,0,0,0,0,0,-1,1742,1170,0,0
525,-146,0,0,0,0,0,0,0,0,0,-1,1749,1170,0,0
532,-146,0,0,0,0,0,0,0,0,0,-1,1756,1170,0,0
539,-146,0,0,0,0,0,0,0,0,0,-1,1763,1170,0,0
546,-146,0,0,0,0,0,0,0,0,0,-1,1770,1170,0,0
553,-146,0,0,0,0,0,0,0,0,0,-1,1777,1170,0,0
560,-146,0,0,0,0,0,0,0,0,0,-1,1784,1170,0,0
567,-146,0,0,0,0,0,0,0,0,0,-1,1791,1170,0,0
574,-146,0,0,0,0,0,0,0,0,0,-1,1798,1170,0,0
581,-146,0,0,0,0,0,0,0,0,0,-1,1805,1170,0,0
588,-146,0,0,0,0,0,0,0,0,0,-1,1812,1170,0,0
595,-146,0,0,0,0,0,0,0,0,0,-1,1819,1170,0,0
602,-146,0,0,0,0,0,0,0,0,0,-1,1826,1170,0,0
609,-146,0,0,0,0,0,0,0,0,0,-1,1833,1170,0,0
616,-146,0,0,0,0,0,0,0,0,0,-1,1840,1170,0,0
623,-146,0,0,0,0,0,0,0,0,0,-1,1847,1170,0,0
630,-146,0,0,0,0,0,0,0,0,0,-1,1854,1170,0,0
637,-146,77.5911,2.41602,0.00683035,-0.00133961,0.00145564,0.00708195,-0.00159121,0.171156,0.00533145,0.0385051,1861,1170,77.5911,-2.41603
644,-146,77.6304,2.48779,0.00507544,-0.000621637,0.00128076,0.00535012,-0.00089632,0.211269,0.00390001,0.0381369,1868,1170,77.6304,-2.48783
651,-146,77.7556,2.505,0.00365905,0.000141257,0.000969478,0.00390853,-0.000108231,0.251877,0.0026425,0.0364079,1875,1170,77.7557,-2.50502
658,-146,77.8523,2.50745,0.00262207,0.000736241,0.000711634,0.00286048,0.000497839,0.323256,0.0017646,0.0388461,1882,1170,77.8523,-2.50741
665,-146,77.8333,2.51538,0.00180898,0.00127457,0.000470154,0.00208256,0.001001,0.526993,0.00120267,0.0383339,1889,1170,77.8333,-2.51538
672,-146,77.749,2.52161,0.00128131,0.00177215,0.000245828,0.0018741,0.00117937,1.17768,0.001094,0.038856,1896,1170,77.749,-2.52161
679,-146,77.7183,2.56274,0.00125831,0.00159099,0.000243928,0.00171989,0.0011294,1.08464,0.0010091,0.0349133,1903,1170,77.7182,-2.56273
686,-146,77.6111,2.52405,0.00205162,0.00170176,0.000107305,0.00208191,0.00167147,0.275116,0.00127337,0.0278523,1910,1170,77.6111,-2.52401
693,-146,77.6923,2.45007,0.002272,0.00140135,0.000293871,0.00236191,0.00131144,0.296896,0.00136642,0.0240174,1917,1170,77.6923,-2.45006
700,-146,77.7517,2.22986,0,0,0,0,0,0,0,-1,1924,1170,77.7517,-2.22981
707,-146,29.9441,6.94653,0,0,0,0,0,0,0,-1,1931,1170,29.9441,-6.94652
714,-146,31.325,6.13245,0,0,0,0,0,0,0,-1,1938,1170,31.325,-6.1325
721,-146,61.3608,9.47766,0,0,0,0,0,0,0,-1,1945,1170,61.3608,-9.47767
728,-146,67.4431,9.60522,0,0,0,0,0,0,0,-1,1952,1170,67.4431,-9.60528
735,-146,67.4575,9.27429,0.0032243,0.00127008,0.00107739,0.00370167,0.000792704,0.417086,0.00225057,0.0431503,1959,1170,67.4575,-9.27434
742,-146,67.6072,8.52051,0.00305031,0.000975991,0.00138536,0.00374373,0.000282566,0.464078,0.00240717,0.0197779,1966,1170,67.6071,-8.52053
749,-146,67.475,7.90857,0.00259086,0.00116122,0.00146429,0.00350549,0.000246587,0.558329,0.00225929,0.0167682,1973,1170,67.475,-7.90855
756,-146,67.428,7.2511,0.00449313,0.00223198,0.000663751,0.00467357,0.00205154,0.265437,0.00270498,0.0125176,1980,1170,67.428,-7.25114
763,-146,67.3645,6.5603,0.0088781,0.00349546,-0.000713329,0.00897103,0.00340253,-0.129545,0.0052295,0.0120878,1987,1170,67.3645,-6.56027
770,-146,67.3311,5.87793,0.0150999,0.00474358,-0.00240096,0.0156295,0.00421403,-0.217082,0.00933751,0.014034,1994,1170,67.331,-5.87787
777,-146,67.312,5.31726,0.0232302,0.00608473,-0.00437057,0.02428,0.00503491,-0.235737,0.0147967,0.026711,2001,1170,67.3121,-5.31731
784,-146,67.2983,4.66357,0.0339192,0.00739314,-0.00659337,0.0354677,0.00584468,-0.230672,0.0219577,0.0455195,2008,1170,67.2982,-4.66363
791,-146,67.4006,3.99792,0.0474572,0.00926857,-0.00917735,0.0495482,0.0071776,-0.224017,0.0309186,0.048507,2015,1170,67.4007,-3.99793
798,-146,67.5229,3.33569,0,0,0,0,0,0,0,-1,2022,1170,67.523,-3.33575
805,-146,69.3625,3.03857,0,0,0,0,0,0,0,-1,2029,1170,69.3624,-3.03854
812,-146,0,0,0,0,0,0,0,0,0,-1,2036,1170,0,0
-700,-153,0,0,0,0,0,0,0,0,0,-1,524,1177,0,0
-693,-153,0,0,0,0,0,0,0,0,0,-1,531,1177,0,0
-686,-153,-45.7,3.04272,0,0,0,0,0,0,0,-1,538,1177,-45.7,-3.04271
-679,-153,-46.0246,3.82935,0,0,0,0,0,0,0,-1,545,1177,-46.0246,-3.82934
-672,-153,-48.2269,3.06213,0,0,0,0,0,0,0,-1,552,1177,-48.2269,-3.06215
-665,-153,-48.4665,3.22314,0,0,0,0,0,0,0,-1,559,1177,-48.4665,-3.22312
-658,-153,-48.8251,3.48645,0,0,0,0,0,0,0,-1,566,1177,-48.8251,-3.48643
-651,-153,-50.4126,3.62708,0,0,0,0,0,0,0,-1,573,1177,-50.4126,-3.62708
-644,-153,-50.5896,4.31726,0.00153032,0.00323459,-0.00973907,0.0121587,-0.00739382,-0.829035,0.0113999,0.0317729,580,1177,-50.5896,-4.31732
-637,-153,-50.751,5.02063,-0.00329344,0.00252203,-0.00705364,0.00724376,-0.00801517,-0.980901,0.0088135,0.0131655,587,1177,-50.751,-5.02063
-630,-153,-50.8033,5.76294,-0.00601557,0.00207707,-0.00499979,0.00446275,-0.00840125,-1.12559,0.00754217,0.0105352,594,1177,-50.8033,-5.76288
-623,-153,-50.8681,6.48669,-0.00597456,0.00208077,-0.00365841,0.00349425,-0.00738804,-1.2021,0.00641555,0.0123829,601,1177,-50.8681,-6.48675
-616,-153,-50.9366,7.17786,-0.00518617,0.00249476,-0.00312435,0.00360513,-0.00629653,-1.22933,0.00578669,0.0160804,608,1177,-50.9366,-7.17786
-609,-153,-51.006,7.87915,0,0,0,0,0,0,0,-1,615,1177,-51.006,-7.87919
-602,-153,-50.7079,7.54736,0,0,0,0,0,0,0,-1,622,1177,-50.7079,-7.54741
-595,-153,-43.9551,7.35718,0,0,0,0,0,0,0,-1,629,1177,-43.9551,-7.35722
-588,-153,-32.348,5.51038,0,0,0,0,0,0,0,-1,636,1177,-32.348,-5.51034
-581,-153,-33.4568,6.41492,0,0,0,0,0,0,0,-1,643,1177,-33.4568,-6.41497
-574,-153,-25.4814,5.16956,0,0,0,0,0,0,0,-1,650,1177,-25.4814,-5.16961
-567,-153,-35.3121,1.09485,0,0,0,0,0,0,0,-1,657,1177,-35.3121,-1.09482
-560,-153,-61.2933,0.741821,0,0,0,0,0,0,0,-1,664,1177,-61.2933,-0.741847
-553,-153,-61.2831,0.53833,0.00344813,-0.00157544,-0.000847297,0.00358719,-0.0017145,-0.162671,0.00312393,0.0377118,671,1177,-61.2831,-0.538339
-546,-153,-61.337,0.32605,0.00343496,-0.00215363,-0.000106922,0.00343701,-0.00215567,-0.0191229,0.00325706,0.0402436,678,1177,-61.337,-0.326018
-539,-153,-61.4081,0.50354,0.00375497,-0.00266204,0.000475393,0.00379,-0.00269707,0.073548,0.00376299,0.0441088,685,1177,-61.4081,-0.503558
-532,-153,-61.3616,0.84436,0.00407069,-0.00314777,0.000181445,0.00407525,-0.00315233,0.0251152,0.00418417,0.0453609,692,1177,-61.3616,-0.844399
-525,-153,-61.236,0.776733,0.0043992,-0.00361195,-0.00157809,0.00469885,-0.0039116,-0.18765,0.00497817,0.0407715,699,1177,-61.236,-0.776698
-518,-153,0,0,0,0,0,0,0,0,0,-1,706,1177,0,0
-511,-153,0,0,0,0,0,0,0,0,0,-1,713,1177,0,0
-504,-153,0,0,0,0,0,0,0,0,0,-1,720,1177,0,0
-497,-153,0,0,0,0,0,0,0,0,0,-1,727,1177,0,0
-490,-153,0,0,0,0,0,0,0,0,0,-1,734,1177,0,0
-483,-153,0,0,0,0,0,0,0,0,0,-1,741,1177,0,0
-476,-153,0,0,0,0,0,0,0,0,0,-1,748,1177,0,0
-469,-153,0,0,0,0,0,0,0,0,0,-1,755,1177,0,0
-462,-153,0,0,0,0,0,0,0,0,0,-1,762,1177,0,0
-455,-153,0,0,0,0,0,0,0,0,0,-1,769,1177,0,0
-448,-153,0,0,0,0,0,0,0,0,0,-1,776,1177,0,0
-441,-153,0,0,0,0,0,0,0,0,0,-1,783,1177,0,0
-434,-153,0,0,0,0,0,0,0,0,0,-1,790,1177,0,0
-427,-153,0,0,0,0,0,0,0,0,0,-1,797,1177,0,0
-420,-153,0,0,0,0,0,0,0,0,0,-1,804,1177,0,0
-413,-153,0,0,0,0,0,0,0,0,0,-1,811,1177,0,0
-406,-153,0,0,0,0,0,0,0,0,0,-1,818,1177,0,0
-399,-153,0,0,0,0,0,0,0,0,0,-1,825,1177,0,0
-392,-153,0,0,0,0,0,0,0,0,0,-1,832,1177,0,0
-385,-153,0,0,0,0,0,0,0,0,0,-1,839,1177,0,0
-378,-153,0,0,0,0,0,0,0,0,0,-1,846,1177,0,0
-371,-153,0,0,0,0,0,0,0,0,0,-1,853,1177,0,0
-364,-153,0,0,0,0,0,0,0,0,0,-1,860,1177,0,0
-357,-153,0,0,0,0,0,0,0,0,0,-1,867,1177,0,0
-350,-153,0,0,0,0,0,0,0,0,0,-1,874,1177,0,0
-343,-153,0,0,0,0,0,0,0,0,0,-1,881,1177,0,0
-336,-153,0,0,0,0,0,0,0,0,0,-1,888,1177,0,0
-329,-153,0,0,0,0,0,0,0,0,0,-1,895,1177,0,0
-322,-153,0,0,0,0,0,0,0,0,0,-1,902,1177,0,0
-315,-153,0,0,0,0,0,0,0,0,0,-1,909,1177,0,0
-308,-153,0,0,0,0,0,0,0,0,0,-1,916,1177,0,0
-301,-153,0,0,0,0,0,0,0,0,0,-1,923,1177,0,0
-294,-153,0,0,0,0,0,0,0,0,0,-1,930,1177,0,0
-287,-153,0,0,0,0,0,0,0,0,0,-1,937,1177,0,0
-280,-153,0,0,0,0,0,0,0,0,0,-1,944,1177,0,0
-273,-153,0,0,0,0,0,0,0,0,0,-1,951,1177,0,0
-266,-153,0,0,0,0,0,0,0,0,0,-1,958,1177,0,0
-259,-153,0,0,0,0,0,0,0,0,0,-1,965,1177,0,0
-252,-153,0,0,0,0,0,0,0,0,0,-1,972,1177,0,0
-245,-153,0,0,0,0,0,0,0,0,0,-1,979,1177,0,0
-238,-153,0,0,0,0,0,0,0,0,0,-1,986,1177,0,0
-231,-153,0,0,0,0,0,0,0,0,0,-1,993,1177,0,0
-224,-153,0,0,0,0,0,0,0,0,0,-1,1000,1177,0,0
-217,-153,0,0,0,0,0,0,0,0,0,-1,1007,1177,0,0
-210,-153,0,0,0,0,0,0,0,0,0,-1,1014,1177,0,0
-203,-153,0,0,0,0,0,0,0,0,0,-1,1021,1177,0,0
-196,-153,0,0,0,0,0,0,0,0,0,-1,1028,1177,0,0
-189,-153,0,0,0,0,0,0,0,0,0,-1,1035,1177,0,0
-182,-153,0,0,0,0,0,0,0,0,0,-1,1042,1177,0,0
-175,-153,0,0,0,0,0,0,0,0,0,-1,1049,1177,0,0
-168,-153,0,0,0,0,0,0,0,0,0,-1,1056,1177,0,0
-161,-153,0,0,0,0,0,0,0,0,0,-1,1063,1177,0,0
-154,-153,0,0,0,0,0,0,0,0,0,-1,1070,1177,0,0
-147,-153,0,0,0,0,0,0,0,0,0,-1,1077,1177,0,0
-140,-153,0,0,0,0,0,0,0,0,0,-1,1084,1177,0,0
-133,-153,0,0,0,0,0,0,0,0,0,-1,1091,1177,0,0
-126,-153,0,0,0,0,0,0,0,0,0,-1,1098,1177,0,0
-119,-153,0,0,0,0,0,0,0,0,0,-1,1105,1177,0,0
-112,-153,0,0,0,0,0,0,0,0,0,-1,1112,1177,0,0
-105,-153,0,0,0,0,0,0,0,0,0,-1,1119,1177,0,0
-98,-153,0,0,0,0,0,0,0,0,0,-1,1126,1177,0,0
-91,-153,0,0,0,0,0,0,0,0,0,-1,1133,1177,0,0
-84,-153,0,0,0,0,0,0,0,0,0,-1,1140,1177,0,0
-77,-153,0,0,0,0,0,0,0,0,0,-1,1147,1177,0,0
-70,-153,0,0,0,0,0,0,0,0,0,-1,1154,1177,0,0
-63,-153,0,0,0,0,0,0,0,0,0,-1,1161,1177,0,0
-56,-153,0,0,0,0,0,0,0,0,0,-1,1168,1177,0,0
-49,-153,0,0,0,0,0,0,0,0,0,-1,1175,1177,0,0
-42,-153,0,0,0,0,0,0,0,0,0,-1,1182,1177,0,0
-35,-153,0,0,0,0,0,0,0,0,0,-1,1189,1177,0,0
-28,-153,0,0,0,0,0,0,0,0,0,-1,1196,1177,0,0
-21,-153,0,0,0,0,0,0,0,0,0,-1,1203,1177,0,0
-14,-153,0,0,0,0,0,0,0,0,0,-1,1210,1177,0,0
-7,-153,0,0,0,0,0,0,0,0,0,-1,1217,1177,0,0
0,-153,0,0,0,0,0,0,0,0,0,-1,1224,1177,0,0
7,-153,0,0,0,0,0,0,0,0,0,-1,1231,1177,0,0
14,-153,0,0,0,0,0,0,0,0,0,-1,1238,1177,0,0
21,-153,0,0,0,0,0,0,0,0,0,-1,1245,1177,0,0
28,-153,0,0,0,0,0,0,0,0,0,-1,1252,1177,0,0
35,-153,0,0,0,0,0,0,0,0,0,-1,1259,1177,0,0
42,-153,0,0,0,0,0,0,0,0,0,-1,1266,1177,0,0
49,-153,0,0,0,0,0,0,0,0,0,-1,1273,1177,0,0
56,-153,0,0,0,0,0,0,0,0,0,-1,1280,1177,0,0
63,-153,0,0,0,0,0,0,0,0,0,-1,1287,1177,0,0
70,-153,0,0,0,0,0,0,0,0,0,-1,1294,1177,0,0
77,-153,0,0,0,0,0,0,0,0,0,-1,1301,1177,0,0
84,-153,0,0,0,0,0,0,0,0,0,-1,1308,1177,0,0
91,-153,0,0,0,0,0,0,0,0,0,-1,1315,1177,0,0
98,-153,0,0,0,0,0,0,0,0,0,-1,1322,1177,0,0
105,-153,0,0,0,0,0,0,0,0,0,-1,1329,1177,0,0
112,-153,0,0,0,0,0,0,0,0,0,-1,1336,1177,0,0
119,-153,0,0,0,0,0,0,0,0,0,-1,1343,1177,0,0
126,-153,0,0,0,0,0,0,0,0,0,-1,1350,1177,0,0
133,-153,0,0,0,0,0,0,0,0,0,-1,1357,1177,0,0
140,-153,0,0,0,0,0,0,0,0,0,-1,1364,1177,0,0
147,-153,0,0,0,0,0,0,0,0,0,-1,1371,1177,0,0
154,-153,0,0,0,0,0,0,0,0,0,-1,1378,1177,0,0
161,-153,0,0,0,0,0,0,0,0,0,-1,1385,1177,0,0
168,-153,0,0,0,0,0,0,0,0,0,-1,1392,1177,0,0
175,-153,0,0,0,0,0,0,0,0,0,-1,1399,1177,0,0
182,-153,0,0,0,0,0,0,0,0,0,-1,1406,1177,0,0
189,-153,0,0,0,0,0,0,0,0,0,-1,1413,1177,0,0
196,-153,0,0,0,0,0,0,0,0,0,-1,1420,1177,0,0
203,-153,0,0,0,0,0,0,0,0,0,-1,1427,1177,0,0
210,-153,0,0,0,0,0,0,0,0,0,-1,1434,1177,0,0
217,-153,0,0,0,0,0,0,0,0,0,-1,1441,1177,0,0
224,-153,0,0,0,0,0,0,0,0,0,-1,1448,1177,0,0
231,-153,0,0,0,0,0,0,0,0,0,-1,1455,1177,0,0
238,-153,0,0,0,0,0,0,0,0,0,-1,1462,1177,0,0
245,-153,0,0,0,0,0,0,0,0,0,-1,1469,1177,0,0
252,-153,0,0,0,0,0,0,0,0,0,-1,1476,1177,0,0
259,-153,0,0,0,0,0,0,0,0,0,-1,1483,1177,0,0
266,-153,0,0,0,0,0,0,0,0,0,-1,1490,1177,0,0
273,-153,0,0,0,0,0,0,0,0,0,-1,1497,1177,0,0
280,-153,0,0,0,0,0,0,0,0,0,-1,1504,1177,0,0
287,-153,0,0,0,0,0,0,0,0,0,-1,1511,1177,0,0
294,-153,0,0,0,0,0,0,0,0,0,-1,1518,1177,0,0
301,-153,0,0,0,0,0,0,0,0,0,-1,1525,1177,0,0
308,-153,0,0,0,0,0,0,0,0,0,-1,1532,1177,0,0
315,-153,0,0,0,0,0,0,0,0,0,-1,1539,1177,0,0
322,-153,0,0,0,0,0,0,0,0,0,-1,1546,1177,0,0
329,-153,0,0,0,0,0,0,0,0,0,-1,1553,1177,0,0
336,-153,0,0,0,0,0,0,0,0,0,-1,1560,1177,0,0
343,-153,0,0,0,0,0,0,0,0,0,-1,1567,1177,0,0
350,-153,0,0,0,0,0,0,0,0,0,-1,1574,1177,0,0
357,-153,0,0,0,0,0,0,0,0,0,-1,1581,1177,0,0
364,-153,0,0,0,0,0,0,0,0,0,-1,1588,1177,0,0
371,-153,0,0,0,0,0,0,0,0,0,-1,1595,1177,0,0
378,-153,0,0,0,0,0,0,0,0,0,-1,1602,1177,0,0
385,-153,0,0,0,0,0,0,0,0,0,-1,1609,1177,0,0
392,-153,0,0,0,0,0,0,0,0,0,-1,1616,1177,0,0
399,-153,0,0,0,0,0,0,0,0,0,-1,1623,1177,0,0
406,-153,0,0,0,0,0,0,0,0,0,-1,1630,1177,0,0
413,-153,0,0,0,0,0,0,0,0,0,-1,1637,1177,0,0
420,-153,0,0,0,0,0,0,0,0,0,-1,1644,1177,0,0
427,-153,0,0,0,0,0,0,0,0,0,-1,1651,1177,0,0
434,-153,0,0,0,0,0,0,0,0,0,-1,1658,1177,0,0
441,-153,0,0,0,0,0,0,0,0,0,-1,1665,1177,0,0
448,-153,0,0,0,0,0,0,0,0,0,-1,1672,1177,0,0
455,-153,0,0,0,0,0,0,0,0,0,-1,1679,1177,0,0
462,-153,0,0,0,0,0,0,0,0,0,-1,1686,1177,0,0
469,-153,0,0,0,0,0,0,0,0,0,-1,1693,1177,0,0
476,-153,0,0,0,0,0,0,0,0,0,-1,1700,1177,0,0
483,-153,0,0,0,0,0,0,0,0,0,-1,1707,1177,0,0
490,-153,0,0,0,0,0,0,0,0,0,-1,1714,1177,0,0
497,-153,0,0,0,0,0,0,0,0,0,-1,1721,1177,0,0
504,-153,0,0,0,0,0,0,0,0,0,-1,1728,1177,0,0
511,-153,0,0,0,0,0,0,0,0,0,-1,1735,1177,0,0
518,-153,0,0,0,0,0,0,0,0,0,-1,1742,1177,0,0
525,-153,0,0,0,0,0,0,0,0,0,-1,1749,1177,0,0
532,-153,0,0,0,0,0,0,0,0,0,-1,1756,1177,0,0
539,-153,0,0,0,0,0,0,0,0,0,-1,1763,1177,0,0
546,-153,0,0,0,0,0,0,0,0,0,-1,1770,1177,0,0
553,-153,0,0,0,0,0,0,0,0,0,-1,1777,1177,0,0
560,-153,0,0,0,0,0,0,0,0,0,-1,1784,1177,0,0
567,-153,0,0,0,0,0,0,0,0,0,-1,1791,1177,0,0
574,-153,0,0,0,0,0,0,0,0,0,-1,1798,1177,0,0
581,-153,0,0,0,0,0,0,0,0,0,-1,1805,1177,0,0
588,-153,0,0,0,0,0,0,0,0,0,-1,1812,1177,0,0
595,-153,0,0,0,0,0,0,0,0,0,-1,1819,1177,0,0
602,-153,0,0,0,0,0,0,0,0,0,-1,1826,1177,0,0
609,-153,0,0,0,0,0,0,0,0,0,-1,1833,1177,0,0
616,-153,0,0,0,0,0,0,0,0,0,-1,1840,1177,0,0
623,-153,0,0,0,0,0,0,0,0,0,-1,1847,1177,0,0
630,-153,0,0,0,0,0,0,0,0,0,-1,1854,1177,0,0
637,-153,77.5818,2.55322,0.00529674,0.000125131,0.00109629,0.00551954,-9.7665e-05,0.200497,0.00371267,0.0396923,1861,1177,77.5818,-2.55317
644,-153,77.5986,2.56885,0.00404937,0.000382015,0.00099416,0.00430153,0.000129853,0.248405,0.0028254,0.0368901,1868,1177,77.5986,-2.56888
651,-153,77.6973,2.4668,0.00299889,0.00079479,0.00075454,0.00323245,0.000561234,0.300181,0.00199439,0.0299191,1875,1177,77.6973,-2.4668
658,-153,77.7377,2.39343,0.00219465,0.00114701,0.000541076,0.00242392,0.000917734,0.4008,0.00141313,0.0352904,1882,1177,77.7376,-2.3934
665,-153,77.7373,2.38452,0.00153499,0.00152011,0.000381064,0.00190869,0.00114641,0.775638,0.0011094,0.038383,1889,1177,77.7373,-2.38456
672,-153,77.7213,2.49109,0.00110204,0.00199034,0.000237974,0.00205008,0.0010423,1.32486,0.00118367,0.0374909,1896,1177,77.7214,-2.49107
679,-153,77.6215,2.46252,0.00112045,0.00195319,0.000251448,0.00202323,0.00105042,1.29915,0.0011684,0.0316316,1903,1177,77.6214,-2.46254
686,-153,77.6482,2.49915,0.00198252,0.0021478,0.000112902,0.00220508,0.00192524,1.10133,0.00138622,0.0213875,1910,1177,77.6482,-2.49916
693,-153,77.7488,2.44482,0,0,0,0,0,0,0,-1,1917,1177,77.7488,-2.44485
700,-153,74.8911,2.25464,0,0,0,0,0,0,0,-1,1924,1177,74.8911,-2.25461
707,-153,29.6483,6.6842,0,0,0,0,0,0,0,-1,1931,1177,29.6483,-6.68415
714,-153,36.0046,6.78418,0,0,0,0,0,0,0,-1,1938,1177,36.0046,-6.78418
721,-153,36.4866,6.47595,0,0,0,0,0,0,0,-1,1945,1177,36.4866,-6.47593
728,-153,47.7305,7.37024,0,0,0,0,0,0,0,-1,1952,1177,47.7304,-7.37022
735,-153,66.5743,8.91284,0,0,0,0,0,0,0,-1,1959,1177,66.5743,-8.91281
742,-153,66.7559,8.65894,0.00303155,0.0014831,0.00139115,0.00384941,0.000665243,0.531476,0.00237578,0.0184769,1966,1177,66.7559,-8.65894
749,-153,66.7698,8.00854,0.00296875,0.00155979,0.00134132,0.00377934,0.000749201,0.543592,0.00231068,0.0173757,1973,1177,66.7697,-8.0086
756,-153,66.7142,7.29932,0.00569492,0.00220537,0.000538032,0.00577599,0.0021243,0.149558,0.00337341,0.0123935,1980,1177,66.7142,-7.29932
763,-153,66.6572,6.59229,0.0108644,0.00286753,-0.000700055,0.0109252,0.00280671,-0.0866631,0.00655146,0.0119615,1987,1177,66.6571,-6.59226
770,-153,66.6416,5.88867,0.0180118,0.00341266,-0.00214143,0.0183195,0.00310503,-0.142678,0.0113208,0.0130055,1994,1177,66.6416,-5.8887
777,-153,66.6003,5.23022,0.0272379,0.00391967,-0.00377116,0.0278327,0.00332495,-0.156415,0.0175521,0.0263277,2001,1177,66.6004,-5.23028
784,-153,66.6182,4.60815,0,0,0,0,0,0,0,-1,2008,1177,66.6182,-4.60817
791,-153,67.0654,4.31189,0.0543811,0.00471122,-0.00741729,0.0554651,0.00362724,-0.145115,0.0358289,0.0440372,2015,1177,67.0654,-4.31189
798,-153,67.9661,3.63269,0.0725837,0.00531405,-0.00929913,0.0738455,0.00405223,-0.134868,0.0479367,0.0468261,2022,1177,67.966,-3.63266
805,-153,68.7886,3.08887,0.0934568,0.00644624,-0.0108362,0.094786,0.00511702,-0.122055,0.0615559,0.049818,2029,1177,68.7886,-3.08887
812,-153,0,0,0,0,0,0,0,0,0,-1,2036,1177,0,0
-700,-160,0,0,0,0,0,0,0,0,0,-1,524,1184,0,0
-693,-160,0,0,0,0,0,0,0,0,0,-1,531,1184,0,0
-686,-160,-45.3687,2.0741,0,0,0,0,0,0,0,-1,538,1184,-45.3687,-2.07404
-679,-160,-45.745,2.91089,0,0,0,0,0,0,0,-1,545,1184,-45.745,-2.91085
-672,-160,-47.8455,2.80542,0,0,0,0,0,0,0,-1,552,1184,-47.8455,-2.80542
-665,-160,-47.8249,3.14966,0,0,0,0,0,0,0,-1,559,1184,-47.8249,-3.14969
-658,-160,-47.9688,3.38806,0,0,0,0,0,0,0,-1,566,1184,-47.9688,-3.38801
-651,-160,-49.8802,4.16809,0,0,0,0,0,0,0,-1,573,1184,-49.8802,-4.16814
-644,-160,-49.8929,4.61023,-0.00496721,0.00195407,-0.010246,0.00930805,-0.0123212,-0.948261,0.012528,0.0424616,580,1184,-49.893,-4.61023
-637,-160,-49.9755,5.0415,-0.006224,0.00187648,-0.007385,0.00624899,-0.0105965,-1.03622,0.00983312,0.0167023,587,1184,-49.9754,-5.04156
-630,-160,-50.0544,5.75476,-0.00627894,0.00181017,-0.00531259,0.00444259,-0.00891136,-1.11075,0.00785249,0.00958356,594,1184,-50.0544,-5.7548
-623,-160,-50.1176,6.47937,-0.00508051,0.00184054,-0.00408835,0.00373631,-0.00697627,-1.13661,0.00627849,0.0161933,601,1184,-50.1176,-6.47938
-616,-160,-50.1771,7.22729,-0.00369734,0.00207398,-0.00358745,0.00379232,-0.00541568,-1.1241,0.00534371,0.0151456,608,1184,-50.1771,-7.22726
-609,-160,-50.3721,7.93542,-0.0023186,0.00200535,-0.00364502,0.00408134,-0.00439458,-1.05307,0.00489469,0.029829,615,1184,-50.3721,-7.93544
-602,-160,-50.6331,8.64148,0,0,0,0,0,0,0,-1,622,1184,-50.6331,-8.64146
-595,-160,-33.0669,5.93445,0,0,0,0,0,0,0,-1,629,1184,-33.0669,-5.93446
-588,-160,-33.4845,5.66699,0,0,0,0,0,0,0,-1,636,1184,-33.4845,-5.66697
-581,-160,-33.1338,6.41174,0,0,0,0,0,0,0,-1,643,1184,-33.1338,-6.41176
-574,-160,-32.7831,7.15649,0,0,0,0,0,0,0,-1,650,1184,-32.7831,-7.15655
-567,-160,-29.5828,0.643921,0,0,0,0,0,0,0,-1,657,1184,-29.5828,-0.643968
-560,-160,-57.0784,0.200806,0,0,0,0,0,0,0,-1,664,1184,-57.0784,-0.200768
-553,-160,-61.2185,0.532837,0,0,0,0,0,0,0,-1,671,1184,-61.2185,-0.532793
-546,-160,-61.2304,0.376831,0.00365518,-0.00204095,-0.000450423,0.00369058,-0.00207635,-0.0784256,0.00337273,0.0390177,678,1184,-61.2304,-0.376859
-539,-160,-61.1015,0.451172,0.003802,-0.00242073,0.000161318,0.00380618,-0.00242491,0.0259008,0.00362687,0.0420476,685,1184,-61.1015,-0.451141
-532,-160,-61.02,0.729614,0.00396093,-0.00270152,-2.31279e-05,0.00396101,-0.0027016,-0.00347132,0.0038695,0.0471305,692,1184,-61.02,-0.729674
-525,-160,-60.8547,0.66272,0.00441472,-0.00296571,-0.00204099,0.00494153,-0.00349252,-0.252603,0.0048933,0.0431273,699,1184,-60.8548,-0.662678
-518,-160,-60.8727,0.454712,0.00477462,-0.00334018,-0.00473519,0.00695296,-0.00551852,-0.431166,0.00721627,0.0421814,706,1184,-60.8728,-0.454741
-511,-160,0,0,0,0,0,0,0,0,0,-1,713,1184,0,0
-504,-160,0,0,0,0,0,0,0,0,0,-1,720,1184,0,0
-497,-160,0,0,0,0,0,0,0,0,0,-1,727,1184,0,0
-490,-160,0,0,0,0,0,0,0,0,0,-1,734,1184,0,0
-483,-160,0,0,0,0,0,0,0,0,0,-1,741,1184,0,0
-476,-160,0,0,0,0,0,0,0,0,0,-1,748,1184,0,0
-469,-160,0,0,0,0,0,0,0,0,0,-1,755,1184,0,0
-462,-160,0,0,0,0,0,0,0,0,0,-1,762,1184,0,0
-455,-160,0,0,0,0,0,0,0,0,0,-1,769,1184,0,0
-448,-160,0,0,0,0,0,0,0,0,0,-1,776,1184,0,0
-441,-160,0,0,0,0,0,0,0,0,0,-1,783,1184,0,0
-434,-160,0,0,0,0,0,0,0,0,0,-1,790,1184,0,0
-427,-160,0,0,0,0,0,0,0,0,0,-1,797,1184,0,0
-420,-160,0,0,0,0,0,0,0,0,0,-1,804,1184,0,0
-413,-160,0,0,0,0,0,0,0,0,0,-1,811,1184,0,0
-406,-160,0,0,0,0,0,0,0,0,0,-1,818,1184,0,0
-399,-160,0,0,0,0,0,0,0,0,0,-1,825,1184,0,0
-392,-160,0,0,0,0,0,0,0,0,0,-1,832,1184,0,0
-385,-160,0,0,0,0,0,0,0,0,0,-1,839,1184,0,0
-378,-160,0,0,0,0,0,0,0,0,0,-1,846,1184,0,0
-371,-160,0,0,0,0,0,0,0,0,0,-1,853,1184,0,0
-364,-160,0,0,0,0,0,0,0,0,0,-1,860,1184,0,0
-357,-160,0,0,0,0,0,0,0,0,0,-1,867,1184,0,0
-350,-160,0,0,0,0,0,0,0,0,0,-1,874,1184,0,0
-343,-160,0,0,0,0,0,0,0,0,0,-1,881,1184,0,0
-336,-160,0,0,0,0,0,0,0,0,0,-1,888,1184,0,0
-329,-160,0,0,0,0,0,0,0,0,0,-1,895,1184,0,0
-322,-160,0,0,0,0,0,0,0,0,0,-1,902,1184,0,0
-315,-160,0,0,0,0,0,0,0,0,0,-1,909,1184,0,0
-308,-160,0,0,0,0,0,0,0,0,0,-1,916,1184,0,0
-301,-160,0,0,0,0,0,0,0,0,0,-1,923,1184,0,0
-294,-160,0,0,0,0,0,0,0,0,0,-1,930,1184,0,0
-287,-160,0,0,0,0,0,0,0,0,0,-1,937,1184,0,0
-280,-160,0,0,0,0,0,0,0,0,0,-1,944,1184,0,0
-273,-160,0,0,0,0,0,0,0,0,0,-1,951,1184,0,0
-266,-160,0,0,0,0,0,0,0,0,0,-1,958,1184,0,0
-259,-160,0,0,0,0,0,0,0,0,0,-1,965,1184,0,0
-252,-160,0,0,0,0,0,0,0,0,0,-1,972,1184,0,0
-245,-160,0,0,0,0,0,0,0,0,0,-1,979,1184,0,0
-238,-160,0,0,0,0,0,0,0,0,0,-1,986,1184,0,0
-231,-160,0,0,0,0,0,0,0,0,0,-1,993,1184,0,0
-224,-160,0,0,0,0,0,0,0,0,0,-1,1000,1184,0,0
-217,-160,0,0,0,0,0,0,0,0,0,-1,1007,1184,0,0
-210,-160,0,0,0,0,0,0,0,0,0,-1,1014,1184,0,0
-203,-160,0,0,0,0,0,0,0,0,0,-1,1021,1184,0,0
-196,-160,0,0,0,0,0,0,0,0,0,-1,1028,1184,0,0
-189,-160,0,0,0,0,0,0,0,0,0,-1,1035,1184,0,0
-182,-160,0,0,0,0,0,0,0,0,0,-1,1042,1184,0,0
-175,-160,0,0,0,0,0,0,0,0,0,-1,1049,1184,0,0
-168,-160,0,0,0,0,0,0,0,0,0,-1,1056,1184,0,0
-161,-160,0,0,0,0,0,0,0,0,0,-1,1063,1184,0,0
-154,-160,0,0,0,0,0,0,0,0,0,-1,1070,1184,0,0
-147,-160,0,0,0,0,0,0,0,0,0,-1,1077,1184,0,0
-140,-160,0,0,0,0,0,0,0,0,0,-1,1084,1184,0,0
-133,-160,0,0,0,0,0,0,0,0,0,-1,1091,1184,0,0
-126,-160,0,0,0,0,0,0,0,0,0,-1,1098,1184,0,0
-119,-160,0,0,0,0,0,0,0,0,0,-1,1105,1184,0,0
-112,-160,0,0,0,0,0,0,0,0,0,-1,1112,1184,0,0
-105,-160,0,0,0,0,0,0,0,0,0,-1,1119,1184,0,0
-98,-160,0,0,0,0,0,0,0,0,0,-1,1126,1184,0,0
-91,-160,0,0,0,0,0,0,0,0,0,-1,1133,1184,0,0
-84,-160,0,0,0,0,0,0,0,0,0,-1,1140,1184,0,0
-77,-160,0,0,0,0,0,0,0,0,0,-1,1147,1184,0,0
-70,-160,0,0,0,0,0,0,0,0,0,-1,1154,1184,0,0
-63,-160,0,0,0,0,0,0,0,0,0,-1,1161,1184,0,0
-56,-160,0,0,0,0,0,0,0,0,0,-1,1168,1184,0,0
-49,-160,0,0,0,0,0,0,0,0,0,-1,1175,1184,0,0
-42,-160,0,0,0,0,0,0,0,0,0,-1,1182,1184,0,0
-35,-160,0,0,0,0,0,0,0,0,0,-1,1189,1184,0,0
-28,-160,0,0,0,0,0,0,0,0,0,-1,1196,1184,0,0
-21,-160,0,0,0,0,0,0,0,0,0,-1,1203,1184,0,0
-14,-160,0,0,0,0,0,0,0,0,0,-1,1210,1184,0,0
-7,-160,0,0,0,0,0,0,0,0,0,-1,1217,1184,0,0
0,-160,0,0,0,0,0,0,0,0,0,-1,1224,1184,0,0
7,-160,0,0,0,0,0,0,0,0,0,-1,1231,1184,0,0
14,-160,0,0,0,0,0,0,0,0,0,-1,1238,1184,0,0
21,-160,0,0,0,0,0,0,0,0,0,-1,1245,1184,0,0
28,-160,0,0,0,0,0,0,0,0,0,-1,1252,1184,0,0
35,-160,0,0,0,0,0,0,0,0,0,-1,1259,1184,0,0
42,-160,0,0,0,0,0,0,0,0,0,-1,1266,1184,0,0
49,-160,0,0,0,0,0,0,0,0,0,-1,1273,1184,0,0
56,-160,0,0,0,0,0,0,0,0,0,-1,1280,1184,0,0
63,-160,0,0,0,0,0,0,0,0,0,-1,1287,1184,0,0
70,-160,0,0,0,0,0,0,0,0,0,-1,1294,1184,0,0
77,-160,0,0,0,0,0,0,0,0,0,-1,1301,1184,0,0
84,-160,0,0,0,0,0,0,0,0,0,-1,1308,1184,0,0
91,-160,0,0,0,0,0,0,0,0,0,-1,1315,1184,0,0
98,-160,0,0,0,0,0,0,0,0,0,-1,1322,1184,0,0
105,-160,0,0,0,0,0,0,0,0,0,-1,1329,1184,0,0
112,-160,0,0,0,0,0,0,0,0,0,-1,1336,1184,0,0
119,-160,0,0,0,0,0,0,0,0,0,-1,1343,1184,0,0
126,-160,0,0,0,0,0,0,0,0,0,-1,1350,1184,0,0
133,-160,0,0,0,0,0,0,0,0,0,-1,1357,1184,0,0
140,-160,0,0,0,0,0,0,0,0,0,-1,1364,1184,0,0
147,-160,0,0,0,0,0,0,0,0,0,-1,1371,1184,0,0
154,-160,0,0,0,0,0,0,0,0,0,-1,1378,1184,0,0
161,-160,0,0,0,0,0,0,0,0,0,-1,1385,1184,0,0
168,-160,0,0,0,0,0,0,0,0,0,-1,1392,1184,0,0
175,-160,0,0,0,0,0,0,0,0,0,-1,1399,1184,0,0
182,-160,0,0,0,0,0,0,0,0,0,-1,1406,1184,0,0
189,-160,0,0,0,0,0,0,0,0,0,-1,1413,1184,0,0
196,-160,0,0,0,0,0,0,0,0,0,-1,1420,1184,0,0
203,-160,0,0,0,0,0,0,0,0,0,-1,1427,1184,0,0
210,-160,0,0,0,0,0,0,0,0,0,-1,1434,1184,0,0
217,-160,0,0,0,0,0,0,0,0,0,-1,1441,1184,0,0
224,-160,0,0,0,0,0,0,0,0,0,-1,1448,1184,0,0
231,-160,0,0,0,0,0,0,0,0,0,-1,1455,1184,0,0
238,-160,0,0,0,0,0,0,0,0,0,-1,1462,1184,0,0
245,-160,0,0,0,0,0,0,0,0,0,-1,1469,1184,0,0
252,-160,0,0,0,0,0,0,0,0,0,-1,1476,1184,0,0
259,-160,0,0,0,0,0,0,0,0,0,-1,1483,1184,0,0
266,-160,0,0,0,0,0,0,0,0,0,-1,1490,1184,0,0
273,-160,0,0,0,0,0,0,0,0,0,-1,1497,1184,0,0
280,-160,0,0,0,0,0,0,0,0,0,-1,1504,1184,0,0
287,-160,0,0,0,0,0,0,0,0,0,-1,1511,1184,0,0
294,-160,0,0,0,0,0,0,0,0,0,-1,1518,1184,0,0
301,-160,0,0,0,0,0,0,0,0,0,-1,1525,1184,0,0
308,-160,0,0,0,0,0,0,0,0,0,-1,1532,1184,0,0
315,-160,0,0,0,0,0,0,0,0,0,-1,1539,1184,0,0
322,-160,0,0,0,0,0,0,0,0,0,-1,1546,1184,0,0
329,-160,0,0,0,0,0,0,0,0,0,-1,1553,1184,0,0
336,-160,0,0,0,0,0,0,0,0,0,-1,1560,1184,0,0
343,-160,0,0,0,0,0,0,0,0,0,-1,1567,1184,0,0
350,-160,0,0,0,0,0,0,0,0,0,-1,1574,1184,0,0
357,-160,0,0,0,0,0,0,0,0,0,-1,1581,1184,0,0
364,-160,0,0,0,0,0,0,0,0,0,-1,1588,1184,0,0
371,-160,0,0,0,0,0,0,0,0,0,-1,1595,1184,0,0
378,-160,0,0,0,0,0,0,0,0,0,-1,1602,1184,0,0
385,-160,0,0,0,0,0,0,0,0,0,-1,1609,1184,0,0
392,-160,0,0,0,0,0,0,0,0,0,-1,1616,1184,0,0
399,-160,0,0,0,0,0,0,0,0,0,-1,1623,1184,0,0
406,-160,0,0,0,0,0,0,0,0,0,-1,1630,1184,0,0
413,-160,0,0,0,0,0,0,0,0,0,-1,1637,1184,0,0
420,-160,0,0,0,0,0,0,0,0,0,-1,1644,1184,0,0
427,-160,0,0,0,0,0,0,0,0,0,-1,1651,1184,0,0
434,-160,0,0,0,0,0,0,0,0,0,-1,1658,1184,0,0
441,-160,0,0,0,0,0,0,0,0,0,-1,1665,1184,0,0
448,-160,0,0,0,0,0,0,0,0,0,-1,1672,1184,0,0
455,-160,0,0,0,0,0,0,0,0,0,-1,1679,1184,0,0
462,-160,0,0,0,0,0,0,0,0,0,-1,1686,1184,0,0
469,-160,0,0,0,0,0,0,0,0,0,-1,1693,1184,0,0
476,-160,0,0,0,0,0,0,0,0,0,-1,1700,1184,0,0
483,-160,0,0,0,0,0,0,0,0,0,-1,1707,1184,0,0
490,-160,0,0,0,0,0,0,0,0,0,-1,1714,1184,0,0
497,-160,0,0,0,0,0,0,0,0,0,-1,1721,1184,0,0
504,-160,0,0,0,0,0,0,0,0,0,-1,1728,1184,0,0
511,-160,0,0,0,0,0,0,0,0,0,-1,1735,1184,0,0
518,-160,0,0,0,0,0,0,0,0,0,-1,1742,1184,0,0
525,-160,0,0,0,0,0,0,0,0,0,-1,1749,1184,0,0
532,-160,0,0,0,0,0,0,0,0,0,-1,1756,1184,0,0
539,-160,0,0,0,0,0,0,0,0,0,-1,1763,1184,0,0
546,-160,0,0,0,0,0,0,0,0,0,-1,1770,1184,0,0
553,-160,0,0,0,0,0,0,0,0,0,-1,1777,1184,0,0
560,-160,0,0,0,0,0,0,0,0,0,-1,1784,1184,0,0
567,-160,0,0,0,0,0,0,0,0,0,-1,1791,1184,0,0
574,-160,0,0,0,0,0,0,0,0,0,-1,1798,1184,0,0
581,-160,0,0,0,0,0,0,0,0,0,-1,1805,1184,0,0
588,-160,0,0,0,0,0,0,0,0,0,-1,1812,1184,0,0
595,-160,0,0,0,0,0,0,0,0,0,-1,1819,1184,0,0
602,-160,0,0,0,0,0,0,0,0,0,-1,1826,1184,0,0
609,-160,0,0,0,0,0,0,0,0,0,-1,1833,1184,0,0
616,-160,0,0,0,0,0,0,0,0,0,-1,1840,1184,0,0
623,-160,0,0,0,0,0,0,0,0,0,-1,1847,1184,0,0
630,-160,0,0,0,0,0,0,0,0,0,-1,1854,1184,0,0
637,-160,77.5629,2.72534,0.00367565,0.000859378,0.00115548,0.00408904,0.000445984,0.34358,0.0025902,0.0441559,1861,1184,77.5628,-2.72537
644,-160,77.6544,2.57385,0.00296722,0.000850976,0.000994077,0.00336093,0.000457268,0.3771,0.00210482,0.0418505,1868,1184,77.6544,-2.57391
651,-160,77.5833,2.41064,0.0023403,0.00103297,0.000704025,0.00264732,0.000725944,0.411238,0.00157952,0.0379144,1875,1184,77.5833,-2.41068
658,-160,77.6068,2.28003,0.00183372,0.00122303,0.000435897,0.00206058,0.000996169,0.479865,0.0011899,0.0393475,1882,1184,77.6068,-2.28004
665,-160,77.7452,2.40369,0.00140706,0.00150171,0.000266529,0.00172508,0.00118369,0.873263,0.00101873,0.0397334,1889,1184,77.7453,-2.40374
672,-160,77.751,2.52393,0.00116336,0.00199246,0.000128414,0.00201189,0.00114393,1.4206,0.0011652,0.0364117,1896,1184,77.751,-2.52388
679,-160,77.668,2.46985,0.00123882,0.00208083,0.000127021,0.00209958,0.00122008,1.42428,0.0012175,0.0284171,1903,1184,77.668,-2.46986
686,-160,77.6887,2.479,0.00202779,0.00234864,-5.58975e-05,0.0023581,0.00201833,-1.40316,0.00147194,0.0192176,1910,1184,77.6887,-2.47902
693,-160,77.7026,2.44019,0,0,0,0,0,0,0,-1,1917,1184,77.7026,-2.44016
700,-160,42.8784,2.44617,0,0,0,0,0,0,0,-1,1924,1184,42.8785,-2.4462
707,-160,24.5115,6.27405,0,0,0,0,0,0,0,-1,1931,1184,24.5115,-6.27401
714,-160,35.6892,6.8905,0,0,0,0,0,0,0,-1,1938,1184,35.6892,-6.89048
721,-160,36.2388,6.37878,0,0,0,0,0,0,0,-1,1945,1184,36.2388,-6.37876
728,-160,52.2174,8.57385,0,0,0,0,0,0,0,-1,1952,1184,52.2174,-8.57381
735,-160,65.9495,9.38953,0,0,0,0,0,0,0,-1,1959,1184,65.9494,-9.38955
742,-160,66.0339,8.67957,0.00297736,0.00196538,0.0011521,0.00372969,0.00121306,0.578484,0.00219674,0.020596,1966,1184,66.0339,-8.67959
749,-160,66.0232,8.0249,0.00346126,0.00189431,0.00103356,0.00397474,0.00138083,0.461086,0.00233017,0.0193525,1973,1184,66.0231,-8.02491
756,-160,65.9808,7.31213,0.00686528,0.00210992,0.000387486,0.00689664,0.00207856,0.0807741,0.00408515,0.0128675,1980,1184,65.9808,-7.31215
763,-160,65.9294,6.62134,0.0125836,0.0022018,-0.000584295,0.0126164,0.00216902,-0.0560445,0.00778927,0.0134342,1987,1184,65.9295,-6.62128
770,-160,65.8215,5.83984,0.0204997,0.00210103,-0.00170676,0.0206567,0.00194404,-0.0917221,0.0131711,0.0312062,1994,1184,65.8215,-5.83988
777,-160,65.9414,5.24622,0.0307355,0.00185114,-0.00296412,0.0310366,0.0015501,-0.101215,0.0201942,0.0419073,2001,1184,65.9414,-5.24618
784,-160,65.8645,5.2832,0,0,0,0,0,0,0,-1,2008,1184,65.8644,-5.28325
791,-160,66.7773,4.46765,0.061151,0.000532986,-0.00557104,0.0616587,2.52351e-05,-0.0908896,0.0410974,0.0448073,2015,1184,66.7774,-4.4677
798,-160,67.6692,3.6615,0.0817012,-0.000427937,-0.00660722,0.0822294,-0.000956088,-0.0797656,0.055141,0.0450926,2022,1184,67.6692,-3.66155
805,-160,67.9333,3.23694,0.105115,-0.0012666,-0.00701653,0.105576,-0.00172739,-0.0655775,0.0709668,0.0480157,2029,1184,67.9333,-3.23689
812,-160,0,0,0,0,0,0,0,0,0,-1,2036,1184,0,0
-700,-167,0,0,0,0,0,0,0,0,0,-1,524,1191,0,0
-693,-167,0,0,0,0,0,0,0,0,0,-1,531,1191,0,0
-686,-167,-45.092,0.868896,0,0,0,0,0,0,0,-1,538,1191,-45.092,-0.868933
-679,-167,-45.5177,1.95996,0,0,0,0,0,0,0,-1,545,1191,-45.5177,-1.95999
-672,-167,-47.0906,2.15942,0,0,0,0,0,0,0,-1,552,1191,-47.0906,-2.15947
-665,-167,-47.3031,2.78796,0,0,0,0,0,0,0,-1,559,1191,-47.3031,-2.78794
-658,-167,-47.2234,3.25403,0,0,0,0,0,0,0,-1,566,1191,-47.2234,-3.25402
-651,-167,-49.2136,4.45544,0,0,0,0,0,0,0,-1,573,1191,-49.2135,-4.45546
-644,-167,-49.1666,4.77673,-0.0115907,0.00094269,-0.0108266,0.00718549,-0.0178335,-1.04775,0.0148744,0.046212,580,1191,-49.1666,-4.77675
-637,-167,-49.2025,5.05811,-0.00895783,0.00135299,-0.00766002,0.0054309,-0.0130357,-1.0816,0.0109589,0.0208434,587,1191,-49.2025,-5.05811
-630,-167,-49.314,5.75,-0.00653581,0.00152565,-0.0054874,0.00430362,-0.00931378,-1.10217,0.00803742,0.0101582,594,1191,-49.314,-5.75006
-623,-167,-49.3502,6.44458,-0.00433639,0.00154699,-0.00430362,0.00381823,-0.00660763,-1.08519,0.00609077,0.0151977,601,1191,-49.3502,-6.44458
-616,-167,-49.4018,7.21252,-0.00240844,0.00156892,-0.00375953,0.00383335,-0.00467286,-1.02868,0.00491903,0.0199215,608,1191,-49.4018,-7.21254
-609,-167,-49.4692,8.04456,-0.000732808,0.00134942,-0.00377629,0.00422549,-0.00360887,-0.919906,0.00452784,0.0208533,615,1191,-49.4692,-8.04451
-602,-167,-49.6332,8.8042,0,0,0,0,0,0,0,-1,622,1191,-49.6332,-8.80416
-595,-167,-47.733,8.40173,0,0,0,0,0,0,0,-1,629,1191,-47.733,-8.40171
-588,-167,-42.7112,7.92004,0,0,0,0,0,0,0,-1,636,1191,-42.7112,-7.92007
-581,-167,-32.8646,6.30542,0,0,0,0,0,0,0,-1,643,1191,-32.8646,-6.30537
-574,-167,-32.4808,7.37524,0,0,0,0,0,0,0,-1,650,1191,-32.4808,-7.37525
-567,-167,-27.3643,2.55859,0,0,0,0,0,0,0,-1,657,1191,-27.3643,-2.55864
-560,-167,-48.2598,0.834839,0,0,0,0,0,0,0,-1,664,1191,-48.2598,-0.834822
-553,-167,-61.0963,0.466675,0,0,0,0,0,0,0,-1,671,1191,-61.0963,-0.466676
-546,-167,-61.1944,0.484619,0.00390792,-0.0018176,-0.000783488,0.00401319,-0.00192287,-0.133571,0.0034973,0.0360235,678,1191,-61.1944,-0.484581
-539,-167,-61.2197,0.534058,0.00380205,-0.00193804,-5.23945e-05,0.00380252,-0.00193852,-0.00912681,0.00337233,0.0377925,685,1191,-61.2197,-0.534085
-532,-167,-60.9886,0.760376,0.00364622,-0.00188859,7.52275e-05,0.00364724,-0.00188961,0.0135884,0.00324995,0.0431107,692,1191,-60.9886,-0.760411
-525,-167,-60.8752,0.74707,0.00389997,-0.00170512,-0.00179498,0.00442552,-0.00223067,-0.284827,0.00391198,0.0456204,699,1191,-60.8753,-0.747037
-518,-167,-60.9458,0.38269,0.00415791,-0.00164124,-0.00458266,0.00668128,-0.00416461,-0.50333,0.00631782,0.0445188,706,1191,-60.9458,-0.382743
-511,-167,0,0,0,0,0,0,0,0,0,-1,713,1191,0,0
-504,-167,0,0,0,0,0,0,0,0,0,-1,720,1191,0,0
-497,-167,0,0,0,0,0,0,0,0,0,-1,727,1191,0,0
-490,-167,0,0,0,0,0,0,0,0,0,-1,734,1191,0,0
-483,-167,0,0,0,0,0,0,0,0,0,-1,741,1191,0,0
-476,-167,0,0,0,0,0,0,0,0,0,-1,748,1191,0,0
-469,-167,0,0,0,0,0,0,0,0,0,-1,755,1191,0,0
-462,-167,0,0,0,0,0,0,0,0,0,-1,762,1191,0,0
-455,-167,0,0,0,0,0,0,0,0,0,-1,769,1191,0,0
-448,-167,0,0,0,0,0,0,0,0,0,-1,776,1191,0,0
-441,-167,0,0,0,0,0,0,0,0,0,-1,783,1191,0,0
-434,-167,0,0,0,0,0,0,0,0,0,-1,790,1191,0,0
-427,-167,0,0,0,0,0,0,0,0,0,-1,797,1191,0,0
-420,-167,0,0,0,0,0,0,0,0,0,-1,804,1191,0,0
-413,-167,0,0,0,0,0,0,0,0,0,-1,811,1191,0,0
-406,-167,0,0,0,0,0,0,0,0,0,-1,818,1191,0,0
-399,-167,0,0,0,0,0,0,0,0,0,-1,825,1191,0,0
-392,-167,0,0,0,0,0,0,0,0,0,-1,832,1191,0,0
-385,-167,0,0,0,0,0,0,0,0,0,-1,839,1191,0,0
-378,-167,0,0,0,0,0,0,0,0,0,-1,846,1191,0,0
-371,-167,0,0,0,0,0,0,0,0,0,-1,853,1191,0,0
-364,-167,0,0,0,0,0,0,0,0,0,-1,860,1191,0,0
-357,-167,0,0,0,0,0,0,0,0,0,-1,867,1191,0,0
-350,-167,0,0,0,0,0,0,0,0,0,-1,874,1191,0,0
-343,-167,0,0,0,0,0,0,0,0,0,-1,881,1191,0,0
-336,-167,0,0,0,0,0,0,0,0,0,-1,888,1191,0,0
-329,-167,0,0,0,0,0,0,0,0,0,-1,895,1191,0,0
-322,-167,0,0,0,0,0,0,0,0,0,-1,902,1191,0,0
-315,-167,0,0,0,0,0,0,0,0,0,-1,909,1191,0,0
-308,-167,0,0,0,0,0,0,0,0,0,-1,916,1191,0,0
-301,-167,0,0,0,0,0,0,0,0,0,-1,923,1191,0,0
-294,-167,0,0,0,0,0,0,0,0,0,-1,930,1191,0,0
-287,-167,0,0,0,0,0,0,0,0,0,-1,937,1191,0,0
-280,-167,0,0,0,0,0,0,0,0,0,-1,944,1191,0,0
-273,-167,0,0,0,0,0,0,0,0,0,-1,951,1191,0,0
-266,-167,0,0,0,0,0,0,0,0,0,-1,958,1191,0,0
-259,-167,0,0,0,0,0,0,0,0,0,-1,965,1191,0,0
-252,-167,0,0,0,0,0,0,0,0,0,-1,972,1191,0,0
-245,-167,0,0,0,0,0,0,0,0,0,-1,979,1191,0,0
-238,-167,0,0,0,0,0,0,0,0,0,-1,986,1191,0,0
-231,-167,0,0,0,0,0,0,0,0,0,-1,993,1191,0,0
-224,-167,0,0,0,0,0,0,0,0,0,-1,1000,1191,0,0
-217,-167,0,0,0,0,0,0,0,0,0,-1,1007,1191,0,0
-210,-167,0,0,0,0,0,0,0,0,0,-1,1014,1191,0,0
-203,-167,0,0,0,0,0,0,0,0,0,-1,1021,1191,0,0
-196,-167,0,0,0,0,0,0,0,0,0,-1,1028,1191,0,0
-189,-167,0,0,0,0,0,0,0,0,0,-1,1035,1191,0,0
-182,-167,0,0,0,0,0,0,0,0,0,-1,1042,1191,0,0
-175,-167,0,0,0,0,0,0,0,0,0,-1,1049,1191,0,0
-168,-167,0,0,0,0,0,0,0,0,0,-1,1056,1191,0,0
-161,-167,0,0,0,0,0,0,0,0,0,-1,1063,1191,0,0
-154,-167,0,0,0,0,0,0,0,0,0,-1,1070,1191,0,0
-147,-167,0,0,0,0,0,0,0,0,0,-1,1077,1191,0,0
-140,-167,0,0,0,0,0,0,0,0,0,-1,1084,1191,0,0
-133,-167,0,0,0,0,0,0,0,0,0,-1,1091,1191,0,0
-126,-167,0,0,0,0,0,0,0,0,0,-1,1098,1191,0,0
-119,-167,0,0,0,0,0,0,0,0,0,-1,1105,1191,0,0
-112,-167,0,0,0,0,0,0,0,0,0,-1,1112,1191,0,0
-105,-167,0,0,0,0,0,0,0,0,0,-1,1119,1191,0,0
-98,-167,0,0,0,0,0,0,0,0,0,-1,1126,1191,0,0
-91,-167,0,0,0,0,0,0,0,0,0,-1,1133,1191,0,0
-84,-167,0,0,0,0,0,0,0,0,0,-1,1140,1191,0,0
-77,-167,0,0,0,0,0,0,0,0,0,-1,1147,1191,0,0
-70,-167,0,0,0,0,0,0,0,0,0,-1,1154,1191,0,0
-63,-167,0,0,0,0,0,0,0,0,0,-1,1161,1191,0,0
-56,-167,0,0,0,0,0,0,0,0,0,-1,1168,1191,0,0
-49,-167,0,0,0,0,0,0,0,0,0,-1,1175,1191,0,0
-42,-167,0,0,0,0,0,0,0,0,0,-1,1182,1191,0,0
-35,-167,0,0,0,0,0,0,0,0,0,-1,1189,1191,0,0
-28,-167,0,0,0,0,0,0,0,0,0,-1,1196,1191,0,0
-21,-167,0,0,0,0,0,0,0,0,0,-1,1203,1191,0,0
-14,-167,0,0,0,0,0,0,0,0,0,-1,1210,1191,0,0
-7,-167,0,0,0,0,0,0,0,0,0,-1,1217,1191,0,0
0,-167,0,0,0,0,0,0,0,0,0,-1,1224,1191,0,0
7,-167,0,0,0,0,0,0,0,0,0,-1,1231,1191,0,0
14,-167,0,0,0,0,0,0,0,0,0,-1,1238,1191,0,0
21,-167,0,0,0,0,0,0,0,0,0,-1,1245,1191,0,0
28,-167,0,0,0,0,0,0,0,0,0,-1,1252,1191,0,0
35,-167,0,0,0,0,0,0,0,0,0,-1,1259,1191,0,0
42,-167,0,0,0,0,0,0,0,0,0,-1,1266,1191,0,0
49,-167,0,0,0,0,0,0,0,0,0,-1,1273,1191,0,0
56,-167,0,0,0,0,0,0,0,0,0,-1,1280,1191,0,0
63,-167,0,0,0,0,0,0,0,0,0,-1,1287,1191,0,0
70,-167,0,0,0,0,0,0,0,0,0,-1,1294,1191,0,0
77,-167,0,0,0,0,0,0,0,0,0,-1,1301,1191,0,0
84,-167,0,0,0,0,0,0,0,0,0,-1,1308,1191,0,0
91,-167,0,0,0,0,0,0,0,0,0,-1,1315,1191,0,0
98,-167,0,0,0,0,0,0,0,0,0,-1,1322,1191,0,0
105,-167,0,0,0,0,0,0,0,0,0,-1,1329,1191,0,0
112,-167,0,0,0,0,0,0,0,0,0,-1,1336,1191,0,0
119,-167,0,0,0,0,0,0,0,0,0,-1,1343,1191,0,0
126,-167,0,0,0,0,0,0,0,0,0,-1,1350,1191,0,0
133,-167,0,0,0,0,0,0,0,0,0,-1,1357,1191,0,0
140,-167,0,0,0,0,0,0,0,0,0,-1,1364,1191,0,0
147,-167,0,0,0,0,0,0,0,0,0,-1,1371,1191,0,0
154,-167,0,0,0,0,0,0,0,0,0,-1,1378,1191,0,0
161,-167,0,0,0,0,0,0,0,0,0,-1,1385,1191,0,0
168,-167,0,0,0,0,0,0,0,0,0,-1,1392,1191,0,0
175,-167,0,0,0,0,0,0,0,0,0,-1,1399,1191,0,0
182,-167,0,0,0,0,0,0,0,0,0,-1,1406,1191,0,0
189,-167,0,0,0,0,0,0,0,0,0,-1,1413,1191,0,0
196,-167,0,0,0,0,0,0,0,0,0,-1,1420,1191,0,0
203,-167,0,0,0,0,0,0,0,0,0,-1,1427,1191,0,0
210,-167,0,0,0,0,0,0,0,0,0,-1,1434,1191,0,0
217,-167,0,0,0,0,0,0,0,0,0,-1,1441,1191,0,0
224,-167,0,0,0,0,0,0,0,0,0,-1,1448,1191,0,0
231,-167,0,0,0,0,0,0,0,0,0,-1,1455,1191,0,0
238,-167,0,0,0,0,0,0,0,0,0,-1,1462,1191,0,0
245,-167,0,0,0,0,0,0,0,0,0,-1,1469,1191,0,0
252,-167,0,0,0,0,0,0,0,0,0,-1,1476,1191,0,0
259,-167,0,0,0,0,0,0,0,0,0,-1,1483,1191,0,0
266,-167,0,0,0,0,0,0,0,0,0,-1,1490,1191,0,0
273,-167,0,0,0,0,0,0,0,0,0,-1,1497,1191,0,0
280,-167,0,0,0,0,0,0,0,0,0,-1,1504,1191,0,0
287,-167,0,0,0,0,0,0,0,0,0,-1,1511,1191,0,0
294,-167,0,0,0,0,0,0,0,0,0,-1,1518,1191,0,0
301,-167,0,0,0,0,0,0,0,0,0,-1,1525,1191,0,0
308,-167,0,0,0,0,0,0,0,0,0,-1,1532,1191,0,0
315,-167,0,0,0,0,0,0,0,0,0,-1,1539,1191,0,0
322,-167,0,0,0,0,0,0,0,0,0,-1,1546,1191,0,0
329,-167,0,0,0,0,0,0,0,0,0,-1,1553,1191,0,0
336,-167,0,0,0,0,0,0,0,0,0,-1,1560,1191,0,0
343,-167,0,0,0,0,0,0,0,0,0,-1,1567,1191,0,0
350,-167,0,0,0,0,0,0,0,0,0,-1,1574,1191,0,0
357,-167,0,0,0,0,0,0,0,0,0,-1,1581,1191,0,0
364,-167,0,0,0,0,0,0,0,0,0,-1,1588,1191,0,0
371,-167,0,0,0,0,0,0,0,0,0,-1,1595,1191,0,0
378,-167,0,0,0,0,0,0,0,0,0,-1,1602,1191,0,0
385,-167,0,0,0,0,0,0,0,0,0,-1,1609,1191,0,0
392,-167,0,0,0,0,0,0,0,0,0,-1,1616,1191,0,0
399,-167,0,0,0,0,0,0,0,0,0,-1,1623,1191,0,0
406,-167,0,0,0,0,0,0,0,0,0,-1,1630,1191,0,0
413,-167,0,0,0,0,0,0,0,0,0,-1,1637,1191,0,0
420,-167,0,0,0,0,0,0,0,0,0,-1,1644,1191,0,0
427,-167,0,0,0,0,0,0,0,0,0,-1,1651,1191,0,0
434,-167,0,0,0,0,0,0,0,0,0,-1,1658,1191,0,0
441,-167,0,0,0,0,0,0,0,0,0,-1,1665,1191,0,0
448,-167,0,0,0,0,0,0,0,0,0,-1,1672,1191,0,0
455,-167,0,0,0,0,0,0,0,0,0,-1,1679,1191,0,0
462,-167,0,0,0,0,0,0,0,0,0,-1,1686,1191,0,0
469,-167,0,0,0,0,0,0,0,0,0,-1,1693,1191,0,0
476,-167,0,0,0,0,0,0,0,0,0,-1,1700,1191,0,0
483,-167,0,0,0,0,0,0,0,0,0,-1,1707,1191,0,0
490,-167,0,0,0,0,0,0,0,0,0,-1,1714,1191,0,0
497,-167,0,0,0,0,0,0,0,0,0,-1,1721,1191,0,0
504,-167,0,0,0,0,0,0,0,0,0,-1,1728,1191,0,0
511,-167,0,0,0,0,0,0,0,0,0,-1,1735,1191,0,0
518,-167,0,0,0,0,0,0,0,0,0,-1,1742,1191,0,0
525,-167,0,0,0,0,0,0,0,0,0,-1,1749,1191,0,0
532,-167,0,0,0,0,0,0,0,0,0,-1,1756,1191,0,0
539,-167,0,0,0,0,0,0,0,0,0,-1,1763,1191,0,0
546,-167,0,0,0,0,0,0,0,0,0,-1,1770,1191,0,0
553,-167,0,0,0,0,0,0,0,0,0,-1,1777,1191,0,0
560,-167,0,0,0,0,0,0,0,0,0,-1,1784,1191,0,0
567,-167,0,0,0,0,0,0,0,0,0,-1,1791,1191,0,0
574,-167,0,0,0,0,0,0,0,0,0,-1,1798,1191,0,0
581,-167,0,0,0,0,0,0,0,0,0,-1,1805,1191,0,0
588,-167,0,0,0,0,0,0,0,0,0,-1,1812,1191,0,0
595,-167,0,0,0,0,0,0,0,0,0,-1,1819,1191,0,0
602,-167,0,0,0,0,0,0,0,0,0,-1,1826,1191,0,0
609,-167,0,0,0,0,0,0,0,0,0,-1,1833,1191,0,0
616,-167,0,0,0,0,0,0,0,0,0,-1,1840,1191,0,0
623,-167,0,0,0,0,0,0,0,0,0,-1,1847,1191,0,0
630,-167,0,0,0,0,0,0,0,0,0,-1,1854,1191,0,0
637,-167,77.5082,2.63477,0.00250819,0.000758646,0.000991016,0.00295529,0.000311549,0.42381,0.00187499,0.0445953,1861,1191,77.5082,-2.63473
644,-167,77.6372,2.6134,0.00218984,0.000853077,0.000849967,0.00260275,0.000440175,0.452213,0.00160864,0.0446398,1868,1191,77.6372,-2.61336
651,-167,77.4858,2.51306,0.00189145,0.00109162,0.000564863,0.00218363,0.000799433,0.477366,0.0012757,0.041003,1875,1191,77.4858,-2.51304
658,-167,77.5675,2.42944,0.00161479,0.0013496,0.000300932,0.00181105,0.00115335,0.577884,0.00105858,0.0399662,1882,1191,77.5675,-2.42949
665,-167,77.7639,2.57483,0.00135091,0.00173397,0.000164522,0.00179493,0.00128995,1.21595,0.00106883,0.0366906,1889,1191,77.7639,-2.57487
672,-167,77.7306,2.55176,0.00122662,0.00237254,7.32054e-05,0.0023772,0.00122196,1.50726,0.00137266,0.0295832,1896,1191,77.7306,-2.55175
679,-167,77.6814,2.4989,0.00128083,0.00261876,7.38385e-05,0.00262282,0.00127676,1.51583,0.00151446,0.0240592,1903,1191,77.6814,-2.49888
686,-167,77.6471,2.45081,0.00192924,0.00287599,-0.0001533,0.0029002,0.00190504,-1.4142,0.00170168,0.0397611,1910,1191,77.6471,-2.45077
693,-167,77.5775,2.40723,0,0,0,0,0,0,0,-1,1917,1191,77.5776,-2.40725
700,-167,28.0459,2.70508,0,0,0,0,0,0,0,-1,1924,1191,28.0459,-2.70513
707,-167,29.4708,7.10168,0,0,0,0,0,0,0,-1,1931,1191,29.4708,-7.10172
714,-167,35.9202,6.84668,0,0,0,0,0,0,0,-1,1938,1191,35.9202,-6.84664
721,-167,36.2072,6.38892,0,0,0,0,0,0,0,-1,1945,1191,36.2072,-6.38891
728,-167,63.7198,9.84265,0,0,0,0,0,0,0,-1,1952,1191,63.7199,-9.8427
735,-167,65.3721,9.52087,0,0,0,0,0,0,0,-1,1959,1191,65.3721,-9.52084
742,-167,65.3107,8.77869,0.00281596,0.00245419,0.000850268,0.00350437,0.00176578,0.680593,0.00202327,0.0183119,1966,1191,65.3106,-8.77871
749,-167,65.2723,8.03638,0.00383631,0.00202607,0.000776455,0.00412372,0.00173866,0.354516,0.00239056,0.0164623,1973,1191,65.2724,-8.0364
756,-167,65.2631,7.34167,0.00770579,0.00161391,0.000429519,0.00773593,0.00158378,0.070045,0.0047188,0.012529,1980,1191,65.263,-7.34162
763,-167,65.1948,6.62976,0.0137343,0.000937439,-0.00014871,0.013736,0.000935711,-0.0116187,0.00886191,0.0150522,1987,1191,65.1948,-6.62973
770,-167,65.1152,5.92505,0,0,0,0,0,0,0,-1,1994,1191,65.1151,-5.92504
777,-167,65.3481,5.28918,0,0,0,0,0,0,0,-1,2001,1191,65.3481,-5.2892
784,-167,65.5537,5.32385,0,0,0,0,0,0,0,-1,2008,1191,65.5538,-5.32389
791,-167,66.4517,4.48596,0,0,0,0,0,0,0,-1,2015,1191,66.4516,-4.48592
798,-167,67.3496,3.64795,0,0,0,0,0,0,0,-1,2022,1191,67.3495,-3.64794
805,-167,67.354,2.88037,0,0,0,0,0,0,0,-1,2029,1191,67.354,-2.88032
812,-167,0,0,0,0,0,0,0,0,0,-1,2036,1191,0,0
-700,-174,0,0,0,0,0,0,0,0,0,-1,524,1198,0,0
-693,-174,0,0,0,0,0,0,0,0,0,-1,531,1198,0,0
-686,-174,-45.0504,0.125488,0,0,0,0,0,0,0,-1,538,1198,-45.0504,-0.125512
-679,-174,-45.5024,1.23474,0,0,0,0,0,0,0,-1,545,1198,-45.5024,-1.23469
-672,-174,-46.5062,1.81177,0,0,0,0,0,0,0,-1,552,1198,-46.5062,-1.81177
-665,-174,-46.836,2.28638,0,0,0,0,0,0,0,-1,559,1198,-46.836,-2.28635
-658,-174,-47.1917,2.71729,0,0,0,0,0,0,0,-1,566,1198,-47.1917,-2.71723
-651,-174,-47.8101,3.18909,0,0,0,0,0,0,0,-1,573,1198,-47.8101,-3.18909
-644,-174,-48.3254,4.26428,0,0,0,0,0,0,0,-1,580,1198,-48.3254,-4.26432
-637,-174,-48.3859,5.04004,-0.0087798,0.00136019,-0.00803337,0.00578966,-0.0132093,-1.06689,0.0112444,0.0299327,587,1198,-48.3859,-5.04008
-630,-174,-48.5336,5.77686,-0.00633923,0.00141762,-0.00573087,0.0044591,-0.00938071,-1.08288,0.00815709,0.0151292,594,1198,-48.5336,-5.7768
-623,-174,-48.5707,6.51733,-0.00412038,0.00137781,-0.00456327,0.0039561,-0.00669866,-1.0565,0.00621909,0.0159076,601,1198,-48.5707,-6.51736
-616,-174,-48.6252,7.27625,-0.00209283,0.00129425,-0.00401109,0.00395466,-0.00475324,-0.985153,0.00503456,0.0208128,608,1198,-48.6252,-7.27619
-609,-174,-48.694,8.04333,-0.000260827,0.00103067,-0.00403953,0.00447574,-0.0037059,-0.864656,0.00473063,0.023067,615,1198,-48.694,-8.04339
-602,-174,-48.7651,8.78088,0,0,0,0,0,0,0,-1,622,1198,-48.7651,-8.78092
-595,-174,-46.5652,8.5835,0,0,0,0,0,0,0,-1,629,1198,-46.5653,-8.58348
-588,-174,-48.9796,10.3837,0,0,0,0,0,0,0,-1,636,1198,-48.9795,-10.3837
-581,-174,-48.7925,10.6533,0,0,0,0,0,0,0,-1,643,1198,-48.7925,-10.6533
-574,-174,-31.7448,7.09595,0,0,0,0,0,0,0,-1,650,1198,-31.7448,-7.09599
-567,-174,-26.6597,3.04041,0,0,0,0,0,0,0,-1,657,1198,-26.6597,-3.04039
-560,-174,-42.6953,1.07178,0,0,0,0,0,0,0,-1,664,1198,-42.6953,-1.07181
-553,-174,-61.0953,0.55603,0,0,0,0,0,0,0,-1,671,1198,-61.0954,-0.556057
-546,-174,-61.195,0.599365,0.00399182,-0.00192193,-0.001122,0.00419753,-0.00212764,-0.181336,0.00371645,0.0344942,678,1198,-61.195,-0.599416
-539,-174,-61.296,0.636963,0.00362189,-0.00181851,-0.000327721,0.00364156,-0.00183818,-0.0599494,0.00322033,0.0346466,685,1198,-61.296,-0.636929
-532,-174,-61.1705,0.90979,0.00314052,-0.00156958,0.000197492,0.00314879,-0.00157784,0.0418317,0.00277871,0.0437645,692,1198,-61.1705,-0.909827
-525,-174,-61.1863,0.857666,0.00316093,-0.00121687,-0.00110102,0.00342224,-0.00147818,-0.233022,0.00290252,0.0442938,699,1198,-61.1863,-0.857704
-518,-174,-61.0865,0.411865,0.00338439,-0.000985976,-0.00368119,0.00548012,-0.0030817,-0.517545,0.0050074,0.0434765,706,1198,-61.0865,-0.411855
-511,-174,0,0,0,0,0,0,0,0,0,-1,713,1198,0,0
-504,-174,0,0,0,0,0,0,0,0,0,-1,720,1198,0,0
-497,-174,0,0,0,0,0,0,0,0,0,-1,727,1198,0,0
-490,-174,0,0,0,0,0,0,0,0,0,-1,734,1198,0,0
-483,-174,0,0,0,0,0,0,0,0,0,-1,741,1198,0,0
-476,-174,0,0,0,0,0,0,0,0,0,-1,748,1198,0,0
-469,-174,0,0,0,0,0,0,0,0,0,-1,755,1198,0,0
-462,-174,0,0,0,0,0,0,0,0,0,-1,762,1198,0,0
-455,-174,0,0,0,0,0,0,0,0,0,-1,769,1198,0,0
-448,-174,0,0,0,0,0,0,0,0,0,-1,776,1198,0,0
-441,-174,0,0,0,0,0,0,0,0,0,-1,783,1198,0,0
-434,-174,0,0,0,0,0,0,0,0,0,-1,790,1198,0,0
-427,-174,0,0,0,0,0,0,0,0,0,-1,797,1198,0,0
-420,-174,0,0,0,0,0,0,0,0,0,-1,804,1198,0,0
-413,-174,0,0,0,0,0,0,0,0,0,-1,811,1198,0,0
-406,-174,0,0,0,0,0,0,0,0,0,-1,818,1198,0,0
-399,-174,0,0,0,0,0,0,0,0,0,-1,825,1198,0,0
-392,-174,0,0,0,0,0,0,0,0,0,-1,832,1198,0,0
-385,-174,0,0,0,0,0,0,0,0,0,-1,839,1198,0,0
-378,-174,0,0,0,0,0,0,0,0,0,-1,846,1198,0,0
-371,-174,0,0,0,0,0,0,0,0,0,-1,853,1198,0,0
-364,-174,0,0,0,0,0,0,0,0,0,-1,860,1198,0,0
-357,-174,0,0,0,0,0,0,0,0,0,-1,867,1198,0,0
-350,-174,0,0,0,0,0,0,0,0,0,-1,874,1198,0,0
-343,-174,0,0,0,0,0,0,0,0,0,-1,881,1198,0,0
-336,-174,0,0,0,0,0,0,0,0,0,-1,888,1198,0,0
-329,-174,0,0,0,0,0,0,0,0,0,-1,895,1198,0,0
-322,-174,0,0,0,0,0,0,0,0,0,-1,902,1198,0,0
-315,-174,0,0,0,0,0,0,0,0,0,-1,909,1198,0,0
-308,-174,0,0,0,0,0,0,0,0,0,-1,916,1198,0,0
-301,-174,0,0,0,0,0,0,0,0,0,-1,923,1198,0,0
-294,-174,0,0,0,0,0,0,0,0,0,-1,930,1198,0,0
-287,-174,0,0,0,0,0,0,0,0,0,-1,937,1198,0,0
-280,-174,0,0,0,0,0,0,0,0,0,-1,944,1198,0,0
-273,-174,0,0,0,0,0,0,0,0,0,-1,951,1198,0,0
-266,-174,0,0,0,0,0,0,0,0,0,-1,958,1198,0,0
-259,-174,0,0,0,0,0,0,0,0,0,-1,965,1198,0,0
-252,-174,0,0,0,0,0,0,0,0,0,-1,972,1198,0,0
-245,-174,0,0,0,0,0,0,0,0,0,-1,979,1198,0,0
-238,-174,0,0,0,0,0,0,0,0,0,-1,986,1198,0,0
-231,-174,0,0,0,0,0,0,0,0,0,-1,993,1198,0,0
-224,-174,0,0,0,0,0,0,0,0,0,-1,1000,1198,0,0
-217,-174,0,0,0,0,0,0,0,0,0,-1,1007,1198,0,0
-210,-174,0,0,0,0,0,0,0,0,0,-1,1014,1198,0,0
-203,-174,0,0,0,0,0,0,0,0,0,-1,1021,1198,0,0
-196,-174,0,0,0,0,0,0,0,0,0,-1,1028,1198,0,0
-189,-174,0,0,0,0,0,0,0,0,0,-1,1035,1198,0,0
-182,-174,0,0,0,0,0,0,0,0,0,-1,1042,1198,0,0
-175,-174,0,0,0,0,0,0,0,0,0,-1,1049,1198,0,0
-168,-174,0,0,0,0,0,0,0,0,0,-1,1056,1198,0,0
-161,-174,0,0,0,0,0,0,0,0,0,-1,1063,1198,0,0
-154,-174,0,0,0,0,0,0,0,0,0,-1,1070,1198,0,0
-147,-174,0,0,0,0,0,0,0,0,0,-1,1077,1198,0,0
-140,-174,0,0,0,0,0,0,0,0,0,-1,1084,1198,0,0
-133,-174,0,0,0,0,0,0,0,0,0,-1,1091,1198,0,0
-126,-174,0,0,0,0,0,0,0,0,0,-1,1098,1198,0,0
-119,-174,0,0,0,0,0,0,0,0,0,-1,1105,1198,0,0
-112,-174,0,0,0,0,0,0,0,0,0,-1,1112,1198,0,0
-105,-174,0,0,0,0,0,0,0,0,0,-1,1119,1198,0,0
-98,-174,0,0,0,0,0,0,0,0,0,-1,1126,1198,0,0
-91,-174,0,0,0,0,0,0,0,0,0,-1,1133,1198,0,0
-84,-174,0,0,0,0,0,0,0,0,0,-1,1140,1198,0,0
-77,-174,0,0,0,0,0,0,0,0,0,-1,1147,1198,0,0
-70,-174,0,0,0,0,0,0,0,0,0,-1,1154,1198,0,0
-63,-174,0,0,0,0,0,0,0,0,0,-1,1161,1198,0,0
-56,-174,0,0,0,0,0,0,0,0,0,-1,1168,1198,0,0
-49,-174,0,0,0,0,0,0,0,0,0,-1,1175,1198,0,0
-42,-174,0,0,0,0,0,0,0,0,0,-1,1182,1198,0,0
-35,-174,0,0,0,0,0,0,0,0,0,-1,1189,1198,0,0
-28,-174,0,0,0,0,0,0,0,0,0,-1,1196,1198,0,0
-21,-174,0,0,0,0,0,0,0,0,0,-1,1203,1198,0,0
-14,-174,0,0,0,0,0,0,0,0,0,-1,1210,1198,0,0
-7,-174,0,0,0,0,0,0,0,0,0,-1,1217,1198,0,0
0,-174,0,0,0,0,0,0,0,0,0,-1,1224,1198,0,0
7,-174,0,0,0,0,0,0,0,0,0,-1,1231,1198,0,0
14,-174,0,0,0,0,0,0,0,0,0,-1,1238,1198,0,0
21,-174,0,0,0,0,0,0,0,0,0,-1,1245,1198,0,0
28,-174,0,0,0,0,0,0,0,0,0,-1,1252,1198,0,0
35,-174,0,0,0,0,0,0,0,0,0,-1,1259,1198,0,0
42,-174,0,0,0,0,0,0,0,0,0,-1,1266,1198,0,0
49,-174,0,0,0,0,0,0,0,0,0,-1,1273,1198,0,0
56,-174,0,0,0,0,0,0,0,0,0,-1,1280,1198,0,0
63,-174,0,0,0,0,0,0,0,0,0,-1,1287,1198,0,0
70,-174,0,0,0,0,0,0,0,0,0,-1,1294,1198,0,0
77,-174,0,0,0,0,0,0,0,0,0,-1,1301,1198,0,0
84,-174,0,0,0,0,0,0,0,0,0,-1,1308,1198,0,0
91,-174,0,0,0,0,0,0,0,0,0,-1,1315,1198,0,0
98,-174,0,0,0,0,0,0,0,0,0,-1,1322,1198,0,0
105,-174,0,0,0,0,0,0,0,0,0,-1,1329,1198,0,0
112,-174,0,0,0,0,0,0,0,0,0,-1,1336,1198,0,0
119,-174,0,0,0,0,0,0,0,0,0,-1,1343,1198,0,0
126,-174,0,0,0,0,0,0,0,0,0,-1,1350,1198,0,0
133,-174,0,0,0,0,0,0,0,0,0,-1,1357,1198,0,0
140,-174,0,0,0,0,0,0,0,0,0,-1,1364,1198,0,0
147,-174,0,0,0,0,0,0,0,0,0,-1,1371,1198,0,0
154,-174,0,0,0,0,0,0,0,0,0,-1,1378,1198,0,0
161,-174,0,0,0,0,0,0,0,0,0,-1,1385,1198,0,0
168,-174,0,0,0,0,0,0,0,0,0,-1,1392,1198,0,0
175,-174,0,0,0,0,0,0,0,0,0,-1,1399,1198,0,0
182,-174,0,0,0,0,0,0,0,0,0,-1,1406,1198,0,0
189,-174,0,0,0,0,0,0,0,0,0,-1,1413,1198,0,0
196,-174,0,0,0,0,0,0,0,0,0,-1,1420,1198,0,0
203,-174,0,0,0,0,0,0,0,0,0,-1,1427,1198,0,0
210,-174,0,0,0,0,0,0,0,0,0,-1,1434,1198,0,0
217,-174,0,0,0,0,0,0,0,0,0,-1,1441,1198,0,0
224,-174,0,0,0,0,0,0,0,0,0,-1,1448,1198,0,0
231,-174,0,0,0,0,0,0,0,0,0,-1,1455,1198,0,0
238,-174,0,0,0,0,0,0,0,0,0,-1,1462,1198,0,0
245,-174,0,0,0,0,0,0,0,0,0,-1,1469,1198,0,0
252,-174,0,0,0,0,0,0,0,0,0,-1,1476,1198,0,0
259,-174,0,0,0,0,0,0,0,0,0,-1,1483,1198,0,0
266,-174,0,0,0,0,0,0,0,0,0,-1,1490,1198,0,0
273,-174,0,0,0,0,0,0,0,0,0,-1,1497,1198,0,0
280,-174,0,0,0,0,0,0,0,0,0,-1,1504,1198,0,0
287,-174,0,0,0,0,0,0,0,0,0,-1,1511,1198,0,0
294,-174,0,0,0,0,0,0,0,0,0,-1,1518,1198,0,0
301,-174,0,0,0,0,0,0,0,0,0,-1,1525,1198,0,0
308,-174,0,0,0,0,0,0,0,0,0,-1,1532,1198,0,0
315,-174,0,0,0,0,0,0,0,0,0,-1,1539,1198,0,0
322,-174,0,0,0,0,0,0,0,0,0,-1,1546,1198,0,0
329,-174,0,0,0,0,0,0,0,0,0,-1,1553,1198,0,0
336,-174,0,0,0,0,0,0,0,0,0,-1,1560,1198,0,0
343,-174,0,0,0,0,0,0,0,0,0,-1,1567,1198,0,0
350,-174,0,0,0,0,0,0,0,0,0,-1,1574,1198,0,0
357,-174,0,0,0,0,0,0,0,0,0,-1,1581,1198,0,0
364,-174,0,0,0,0,0,0,0,0,0,-1,1588,1198,0,0
371,-174,0,0,0,0,0,0,0,0,0,-1,1595,1198,0,0
378,-174,0,0,0,0,0,0,0,0,0,-1,1602,1198,0,0
385,-174,0,0,0,0,0,0,0,0,0,-1,1609,1198,0,0
392,-174,0,0,0,0,0,0,0,0,0,-1,1616,1198,0,0
399,-174,0,0,0,0,0,0,0,0,0,-1,1623,1198,0,0
406,-174,0,0,0,0,0,0,0,0,0,-1,1630,1198,0,0
413,-174,0,0,0,0,0,0,0,0,0,-1,1637,1198,0,0
420,-174,0,0,0,0,0,0,0,0,0,-1,1644,1198,0,0
427,-174,0,0,0,0,0,0,0,0,0,-1,1651,1198,0,0
434,-174,0,0,0,0,0,0,0,0,0,-1,1658,1198,0,0
441,-174,0,0,0,0,0,0,0,0,0,-1,1665,1198,0,0
448,-174,0,0,0,0,0,0,0,0,0,-1,1672,1198,0,0
455,-174,0,0,0,0,0,0,0,0,0,-1,1679,1198,0,0
462,-174,0,0,0,0,0,0,0,0,0,-1,1686,1198,0,0
469,-174,0,0,0,0,0,0,0,0,0,-1,1693,1198,0,0
476,-174,0,0,0,0,0,0,0,0,0,-1,1700,1198,0,0
483,-174,0,0,0,0,0,0,0,0,0,-1,1707,1198,0,0
490,-174,0,0,0,0,0,0,0,0,0,-1,1714,1198,0,0
497,-174,0,0,0,0,0,0,0,0,0,-1,1721,1198,0,0
504,-174,0,0,0,0,0,0,0,0,0,-1,1728,1198,0,0
511,-174,0,0,0,0,0,0,0,0,0,-1,1735,1198,0,0
518,-174,0,0,0,0,0,0,0,0,0,-1,1742,1198,0,0
525,-174,0,0,0,0,0,0,0,0,0,-1,1749,1198,0,0
532,-174,0,0,0,0,0,0,0,0,0,-1,1756,1198,0,0
539,-174,0,0,0,0,0,0,0,0,0,-1,1763,1198,0,0
546,-174,0,0,0,0,0,0,0,0,0,-1,1770,1198,0,0
553,-174,0,0,0,0,0,0,0,0,0,-1,1777,1198,0,0
560,-174,0,0,0,0,0,0,0,0,0,-1,1784,1198,0,0
567,-174,0,0,0,0,0,0,0,0,0,-1,1791,1198,0,0
574,-174,0,0,0,0,0,0,0,0,0,-1,1798,1198,0,0
581,-174,0,0,0,0,0,0,0,0,0,-1,1805,1198,0,0
588,-174,0,0,0,0,0,0,0,0,0,-1,1812,1198,0,0
595,-174,0,0,0,0,0,0,0,0,0,-1,1819,1198,0,0
602,-174,0,0,0,0,0,0,0,0,0,-1,1826,1198,0,0
609,-174,0,0,0,0,0,0,0,0,0,-1,1833,1198,0,0
616,-174,0,0,0,0,0,0,0,0,0,-1,1840,1198,0,0
623,-174,0,0,0,0,0,0,0,0,0,-1,1847,1198,0,0
630,-174,0,0,0,0,0,0,0,0,0,-1,1854,1198,0,0
637,-174,77.5791,2.44104,0.00141974,0.00043222,0.000336385,0.00152343,0.000328523,0.299024,0.000925752,0.0445225,1861,1198,77.5791,-2.44107
644,-174,77.5363,2.4679,0.00142841,0.00074878,0.000288348,0.00153426,0.000642929,0.351822,0.00088967,0.0429642,1868,1198,77.5363,-2.46789
651,-174,77.4353,2.45667,0.00145232,0.00114071,8.0393e-05,0.00147183,0.00112119,0.238178,0.000887733,0.0403464,1875,1198,77.4354,-2.45663
658,-174,77.4781,2.45374,0.00142297,0.0015285,-7.58857e-05,0.00156817,0.00138331,-1.08919,0.000989598,0.0379941,1882,1198,77.4782,-2.45373
665,-174,77.635,2.53076,0.0013098,0.00202723,-6.17919e-05,0.00203251,0.00130452,-1.4855,0.0011891,0.0331718,1889,1198,77.635,-2.53071
672,-174,77.6221,2.48096,0.00127552,0.0027708,-8.46913e-06,0.00277085,0.00127547,-1.56513,0.00160143,0.0274501,1896,1198,77.6221,-2.48098
679,-174,77.6395,2.48743,0.00130635,0.00307435,8.31726e-05,0.00307825,0.00130245,1.52389,0.00178422,0.0274277,1903,1198,77.6395,-2.48743
686,-174,77.7185,2.41528,0,0,0,0,0,0,0,-1,1910,1198,77.7185,-2.41522
693,-174,51.1324,2.57349,0,0,0,0,0,0,0,-1,1917,1198,51.1325,-2.57343
700,-174,25.4004,6.11792,0,0,0,0,0,0,0,-1,1924,1198,25.4004,-6.11797
707,-174,34.7908,7.34473,0,0,0,0,0,0,0,-1,1931,1198,34.7908,-7.34475
714,-174,40.1135,7.79871,0,0,0,0,0,0,0,-1,1938,1198,40.1135,-7.79875
721,-174,40.8693,7.59863,0,0,0,0,0,0,0,-1,1945,1198,40.8693,-7.59859
728,-174,64.2517,10.3185,0,0,0,0,0,0,0,-1,1952,1198,64.2516,-10.3185
735,-174,64.4199,9.61792,0.00267098,0.003129,0.000530273,0.0034776,0.00232238,0.989237,0.00204514,0.0280377,1959,1198,64.4199,-9.61795
742,-174,64.5728,8.81262,0.00271546,0.00275737,0.000721848,0.00345857,0.00201426,0.799908,0.00200582,0.0212287,1966,1198,64.5727,-8.81257
749,-174,64.5537,8.08008,0.00412979,0.00205813,0.000700231,0.00434427,0.00184365,0.297221,0.00251771,0.0194513,1973,1198,64.5538,-8.08013
756,-174,64.5153,7.35596,0.00819177,0.00140765,0.000581666,0.00824128,0.00135814,0.0849135,0.00510209,0.0128087,1980,1198,64.5152,-7.35596
763,-174,64.481,6.64526,0.0142924,0.000569397,0.000229919,0.0142962,0.000565546,0.016748,0.00934801,0.0191024,1987,1198,64.4811,-6.64525
770,-174,64.7764,5.86316,0,0,0,0,0,0,0,-1,1994,1198,64.7763,-5.8631
777,-174,65.3967,4.92773,0,0,0,0,0,0,0,-1,2001,1198,65.3968,-4.92777
784,-174,66.8398,5.16162,0,0,0,0,0,0,0,-1,2008,1198,66.8399,-5.16161
791,-174,66.0671,4.55371,0,0,0,0,0,0,0,-1,2015,1198,66.067,-4.55371
798,-174,66.0049,3.41138,0,0,0,0,0,0,0,-1,2022,1198,66.005,-3.41138
805,-174,66.4358,3.14417,0,0,0,0,0,0,0,-1,2029,1198,66.4359,-3.1442
812,-174,0,0,0,0,0,0,0,0,0,-1,2036,1198,0,0
-700,-181,0,0,0,0,0,0,0,0,0,-1,524,1205,0,0
-693,-181,0,0,0,0,0,0,0,0,0,-1,531,1205,0,0
-686,-181,-45.3968,0.324097,0,0,0,0,0,0,0,-1,538,1205,-45.3968,-0.324039
-679,-181,-45.4095,0.594116,0,0,0,0,0,0,0,-1,545,1205,-45.4095,-0.594139
-672,-181,-45.9633,1.33801,0,0,0,0,0,0,0,-1,552,1205,-45.9633,-1.33799
-665,-181,-46.3013,1.76758,0,0,0,0,0,0,0,-1,559,1205,-46.3013,-1.76764
-658,-181,-46.6886,2.21338,0,0,0,0,0,0,0,-1,566,1205,-46.6886,-2.21341
-651,-181,-46.8887,2.922,0,0,0,0,0,0,0,-1,573,1205,-46.8887,-2.92203
-644,-181,-47.4506,4.3429,0,0,0,0,0,0,0,-1,580,1205,-47.4505,-4.34288
-637,-181,-47.581,5.09558,-0.00872598,0.00159063,-0.00825425,0.00616581,-0.0133012,-1.06467,0.0114882,0.0307719,587,1205,-47.581,-5.09556
-630,-181,-47.7734,5.79993,-0.00624269,0.00145629,-0.00580481,0.00457202,-0.00935842,-1.07818,0.00819947,0.0159131,594,1205,-47.7735,-5.79991
-623,-181,-47.815,6.56116,-0.0040034,0.00135545,-0.00463089,0.0040262,-0.00667415,-1.04767,0.00624059,0.0166477,601,1205,-47.815,-6.56113
-616,-181,-47.8481,7.32019,-0.00196722,0.00127186,-0.00405603,0.00401974,-0.00471509,-0.975346,0.00504838,0.0154428,608,1205,-47.8481,-7.32019
-609,-181,-47.9037,8.1012,-9.50038e-05,0.00115294,-0.00408897,0.00466528,-0.00360734,-0.861113,0.0047892,0.0145487,615,1205,-47.9037,-8.10125
-602,-181,-47.8422,8.94666,0.00111395,0.000925133,-0.00492927,0.00594972,-0.00391064,-0.775823,0.00573331,0.0329487,622,1205,-47.8422,-8.94671
-595,-181,-47.5099,9.802,0,0,0,0,0,0,0,-1,629,1205,-47.51,-9.80199
-588,-181,-48.2216,10.4075,0,0,0,0,0,0,0,-1,636,1205,-48.2216,-10.4075
-581,-181,-48.155,11.2527,0,0,0,0,0,0,0,-1,643,1205,-48.1551,-11.2527
-574,-181,-47.328,11.2965,0,0,0,0,0,0,0,-1,650,1205,-47.328,-11.2966
-567,-181,-25.8839,3.34485,0,0,0,0,0,0,0,-1,657,1205,-25.8839,-3.3449
-560,-181,-31.7396,1.63306,0,0,0,0,0,0,0,-1,664,1205,-31.7396,-1.63303
-553,-181,-57.8761,0.527832,0,0,0,0,0,0,0,-1,671,1205,-57.8761,-0.527787
-546,-181,-61.218,0.700317,0,0,0,0,0,0,0,-1,678,1205,-61.218,-0.700288
-539,-181,-61.2739,0.705078,0.00297202,-0.00126492,-0.000702939,0.0030856,-0.0013785,-0.160191,0.00263942,0.0374689,685,1205,-61.2739,-0.705045
-532,-181,-61.0608,0.757935,0.00229537,-0.000990563,8.51079e-06,0.00229539,-0.000990585,0.00259004,0.00194638,0.0458306,692,1205,-61.0608,-0.757949
-525,-181,-61.0984,0.717773,0.00216311,-0.00085073,-0.00070641,0.00232047,-0.00100809,-0.21918,0.00197091,0.0431028,699,1205,-61.0984,-0.717774
-518,-181,-61.2098,0.692871,0.00258133,-0.000793737,-0.00322031,0.00452948,-0.00274188,-0.544055,0.0042402,0.0392514,706,1205,-61.2098,-0.69284
-511,-181,0,0,0,0,0,0,0,0,0,-1,713,1205,0,0
-504,-181,0,0,0,0,0,0,0,0,0,-1,720,1205,0,0
-497,-181,0,0,0,0,0,0,0,0,0,-1,727,1205,0,0
-490,-181,0,0,0,0,0,0,0,0,0,-1,734,1205,0,0
-483,-181,0,0,0,0,0,0,0,0,0,-1,741,1205,0,0
-476,-181,0,0,0,0,0,0,0,0,0,-1,748,1205,0,0
-469,-181,0,0,0,0,0,0,0,0,0,-1,755,1205,0,0
-462,-181,0,0,0,0,0,0,0,0,0,-1,762,1205,0,0
-455,-181,0,0,0,0,0,0,0,0,0,-1,769,1205,0,0
-448,-181,0,0,0,0,0,0,0,0,0,-1,776,1205,0,0
-441,-181,0,0,0,0,0,0,0,0,0,-1,783,1205,0,0
-434,-181,0,0,0,0,0,0,0,0,0,-1,790,1205,0,0
-427,-181,0,0,0,0,0,0,0,0,0,-1,797,1205,0,0
-420,-181,0,0,0,0,0,0,0,0,0,-1,804,1205,0,0
-413,-181,0,0,0,0,0,0,0,0,0,-1,811,1205,0,0
-406,-181,0,0,0,0,0,0,0,0,0,-1,818,1205,0,0
-399,-181,0,0,0,0,0,0,0,0,0,-1,825,1205,0,0
-392,-181,0,0,0,0,0,0,0,0,0,-1,832,1205,0,0
-385,-181,0,0,0,0,0,0,0,0,0,-1,839,1205,0,0
-378,-181,0,0,0,0,0,0,0,0,0,-1,846,1205,0,0
-371,-181,0,0,0,0,0,0,0,0,0,-1,853,1205,0,0
-364,-181,0,0,0,0,0,0,0,0,0,-1,860,1205,0,0
-357,-181,0,0,0,0,0,0,0,0,0,-1,867,1205,0,0
-350,-181,0,0,0,0,0,0,0,0,0,-1,874,1205,0,0
-343,-181,0,0,0,0,0,0,0,0,0,-1,881,1205,0,0
-336,-181,0,0,0,0,0,0,0,0,0,-1,888,1205,0,0
-329,-181,0,0,0,0,0,0,0,0,0,-1,895,1205,0,0
-322,-181,0,0,0,0,0,0,0,0,0,-1,902,1205,0,0
-315,-181,0,0,0,0,0,0,0,0,0,-1,909,1205,0,0
-308,-181,0,0,0,0,0,0,0,0,0,-1,916,1205,0,0
-301,-181,0,0,0,0,0,0,0,0,0,-1,923,1205,0,0
-294,-181,0,0,0,0,0,0,0,0,0,-1,930,1205,0,0
-287,-181,0,0,0,0,0,0,0,0,0,-1,937,1205,0,0
-280,-181,0,0,0,0,0,0,0,0,0,-1,944,1205,0,0
-273,-181,0,0,0,0,0,0,0,0,0,-1,951,1205,0,0
-266,-181,0,0,0,0,0,0,0,0,0,-1,958,1205,0,0
-259,-181,0,0,0,0,0,0,0,0,0,-1,965,1205,0,0
-252,-181,0,0,0,0,0,0,0,0,0,-1,972,1205,0,0
-245,-181,0,0,0,0,0,0,0,0,0,-1,979,1205,0,0
-238,-181,0,0,0,0,0,0,0,0,0,-1,986,1205,0,0
-231,-181,0,0,0,0,0,0,0,0,0,-1,993,1205,0,0
-224,-181,0,0,0,0,0,0,0,0,0,-1,1000,1205,0,0
-217,-181,0,0,0,0,0,0,0,0,0,-1,1007,1205,0,0
-210,-181,0,0,0,0,0,0,0,0,0,-1,1014,1205,0,0
-203,-181,0,0,0,0,0,0,0,0,0,-1,1021,1205,0,0
-196,-181,0,0,0,0,0,0,0,0,0,-1,1028,1205,0,0
-189,-181,0,0,0,0,0,0,0,0,0,-1,1035,1205,0,0
-182,-181,0,0,0,0,0,0,0,0,0,-1,1042,1205,0,0
-175,-181,0,0,0,0,0,0,0,0,0,-1,1049,1205,0,0
-168,-181,0,0,0,0,0,0,0,0,0,-1,1056,1205,0,0
-161,-181,0,0,0,0,0,0,0,0,0,-1,1063,1205,0,0
-154,-181,0,0,0,0,0,0,0,0,0,-1,1070,1205,0,0
-147,-181,0,0,0,0,0,0,0,0,0,-1,1077,1205,0,0
-140,-181,0,0,0,0,0,0,0,0,0,-1,1084,1205,0,0
-133,-181,0,0,0,0,0,0,0,0,0,-1,1091,1205,0,0
-126,-181,0,0,0,0,0,0,0,0,0,-1,1098,1205,0,0
-119,-181,0,0,0,0,0,0,0,0,0,-1,1105,1205,0,0
-112,-181,0,0,0,0,0,0,0,0,0,-1,1112,1205,0,0
-105,-181,0,0,0,0,0,0,0,0,0,-1,1119,1205,0,0
-98,-181,0,0,0,0,0,0,0,0,0,-1,1126,1205,0,0
-91,-181,0,0,0,0,0,0,0,0,0,-1,1133,1205,0,0
-84,-181,0,0,0,0,0,0,0,0,0,-1,1140,1205,0,0
-77,-181,0,0,0,0,0,0,0,0,0,-1,1147,1205,0,0
-70,-181,0,0,0,0,0,0,0,0,0,-1,1154,1205,0,0
-63,-181,0,0,0,0,0,0,0,0,0,-1,1161,1205,0,0
-56,-181,0,0,0,0,0,0,0,0,0,-1,1168,1205,0,0
-49,-181,0,0,0,0,0,0,0,0,0,-1,1175,1205,0,0
-42,-181,0,0,0,0,0,0,0,0,0,-1,1182,1205,0,0
-35,-181,0,0,0,0,0,0,0,0,0,-1,1189,1205,0,0
-28,-181,0,0,0,0,0,0,0,0,0,-1,1196,1205,0,0
-21,-181,0,0,0,0,0,0,0,0,0,-1,1203,1205,0,0
-14,-181,0,0,0,0,0,0,0,0,0,-1,1210,1205,0,0
-7,-181,0,0,0,0,0,0,0,0,0,-1,1217,1205,0,0
0,-181,0,0,0,0,0,0,0,0,0,-1,1224,1205,0,0
7,-181,0,0,0,0,0,0,0,0,0,-1,1231,1205,0,0
14,-181,0,0,0,0,0,0,0,0,0,-1,1238,1205,0,0
21,-181,0,0,0,0,0,0,0,0,0,-1,1245,1205,0,0
28,-181,0,0,0,0,0,0,0,0,0,-1,1252,1205,0,0
35,-181,0,0,0,0,0,0,0,0,0,-1,1259,1205,0,0
42,-181,0,0,0,0,0,0,0,0,0,-1,1266,1205,0,0
49,-181,0,0,0,0,0,0,0,0,0,-1,1273,1205,0,0
56,-181,0,0,0,0,0,0,0,0,0,-1,1280,1205,0,0
63,-181,0,0,0,0,0,0,0,0,0,-1,1287,1205,0,0
70,-181,0,0,0,0,0,0,0,0,0,-1,1294,1205,0,0
77,-181,0,0,0,0,0,0,0,0,0,-1,1301,1205,0,0
84,-181,0,0,0,0,0,0,0,0,0,-1,1308,1205,0,0
91,-181,0,0,0,0,0,0,0,0,0,-1,1315,1205,0,0
98,-181,0,0,0,0,0,0,0,0,0,-1,1322,1205,0,0
105,-181,0,0,0,0,0,0,0,0,0,-1,1329,1205,0,0
112,-181,0,0,0,0,0,0,0,0,0,-1,1336,1205,0,0
119,-181,0,0,0,0,0,0,0,0,0,-1,1343,1205,0,0
126,-181,0,0,0,0,0,0,0,0,0,-1,1350,1205,0,0
133,-181,0,0,0,0,0,0,0,0,0,-1,1357,1205,0,0
140,-181,0,0,0,0,0,0,0,0,0,-1,1364,1205,0,0
147,-181,0,0,0,0,0,0,0,0,0,-1,1371,1205,0,0
154,-181,0,0,0,0,0,0,0,0,0,-1,1378,1205,0,0
161,-181,0,0,0,0,0,0,0,0,0,-1,1385,1205,0,0
168,-181,0,0,0,0,0,0,0,0,0,-1,1392,1205,0,0
175,-181,0,0,0,0,0,0,0,0,0,-1,1399,1205,0,0
182,-181,0,0,0,0,0,0,0,0,0,-1,1406,1205,0,0
189,-181,0,0,0,0,0,0,0,0,0,-1,1413,1205,0,0
196,-181,0,0,0,0,0,0,0,0,0,-1,1420,1205,0,0
203,-181,0,0,0,0,0,0,0,0,0,-1,1427,1205,0,0
210,-181,0,0,0,0,0,0,0,0,0,-1,1434,1205,0,0
217,-181,0,0,0,0,0,0,0,0,0,-1,1441,1205,0,0
224,-181,0,0,0,0,0,0,0,0,0,-1,1448,1205,0,0
231,-181,0,0,0,0,0,0,0,0,0,-1,1455,1205,0,0
238,-181,0,0,0,0,0,0,0,0,0,-1,1462,1205,0,0
245,-181,0,0,0,0,0,0,0,0,0,-1,1469,1205,0,0
252,-181,0,0,0,0,0,0,0,0,0,-1,1476,1205,0,0
259,-181,0,0,0,0,0,0,0,0,0,-1,1483,1205,0,0
266,-181,0,0,0,0,0,0,0,0,0,-1,1490,1205,0,0
273,-181,0,0,0,0,0,0,0,0,0,-1,1497,1205,0,0
280,-181,0,0,0,0,0,0,0,0,0,-1,1504,1205,0,0
287,-181,0,0,0,0,0,0,0,0,0,-1,1511,1205,0,0
294,-181,0,0,0,0,0,0,0,0,0,-1,1518,1205,0,0
301,-181,0,0,0,0,0,0,0,0,0,-1,1525,1205,0,0
308,-181,0,0,0,0,0,0,0,0,0,-1,1532,1205,0,0
315,-181,0,0,0,0,0,0,0,0,0,-1,1539,1205,0,0
322,-181,0,0,0,0,0,0,0,0,0,-1,1546,1205,0,0
329,-181,0,0,0,0,0,0,0,0,0,-1,1553,1205,0,0
336,-181,0,0,0,0,0,0,0,0,0,-1,1560,1205,0,0
343,-181,0,0,0,0,0,0,0,0,0,-1,1567,1205,0,0
350,-181,0,0,0,0,0,0,0,0,0,-1,1574,1205,0,0
357,-181,0,0,0,0,0,0,0,0,0,-1,1581,1205,0,0
364,-181,0,0,0,0,0,0,0,0,0,-1,1588,1205,0,0
371,-181,0,0,0,0,0,0,0,0,0,-1,1595,1205,0,0
378,-181,0,0,0,0,0,0,0,0,0,-1,1602,1205,0,0
385,-181,0,0,0,0,0,0,0,0,0,-1,1609,1205,0,0
392,-181,0,0,0,0,0,0,0,0,0,-1,1616,1205,0,0
399,-181,0,0,0,0,0,0,0,0,0,-1,1623,1205,0,0
406,-181,0,0,0,0,0,0,0,0,0,-1,1630,1205,0,0
413,-181,0,0,0,0,0,0,0,0,0,-1,1637,1205,0,0
420,-181,0,0,0,0,0,0,0,0,0,-1,1644,1205,0,0
427,-181,0,0,0,0,0,0,0,0,0,-1,1651,1205,0,0
434,-181,0,0,0,0,0,0,0,0,0,-1,1658,1205,0,0
441,-181,0,0,0,0,0,0,0,0,0,-1,1665,1205,0,0
448,-181,0,0,0,0,0,0,0,0,0,-1,1672,1205,0,0
455,-181,0,0,0,0,0,0,0,0,0,-1,1679,1205,0,0
462,-181,0,0,0,0,0,0,0,0,0,-1,1686,1205,0,0
469,-181,0,0,0,0,0,0,0,0,0,-1,1693,1205,0,0
476,-181,0,0,0,0,0,0,0,0,0,-1,1700,1205,0,0
483,-181,0,0,0,0,0,0,0,0,0,-1,1707,1205,0,0
490,-181,0,0,0,0,0,0,0,0,0,-1,1714,1205,0,0
497,-181,0,0,0,0,0,0,0,0,0,-1,1721,1205,0,0
504,-181,0,0,0,0,0,0,0,0,0,-1,1728,1205,0,0
511,-181,0,0,0,0,0,0,0,0,0,-1,1735,1205,0,0
518,-181,0,0,0,0,0,0,0,0,0,-1,1742,1205,0,0
525,-181,0,0,0,0,0,0,0,0,0,-1,1749,1205,0,0
532,-181,0,0,0,0,0,0,0,0,0,-1,1756,1205,0,0
539,-181,0,0,0,0,0,0,0,0,0,-1,1763,1205,0,0
546,-181,0,0,0,0,0,0,0,0,0,-1,1770,1205,0,0
553,-181,0,0,0,0,0,0,0,0,0,-1,1777,1205,0,0
560,-181,0,0,0,0,0,0,0,0,0,-1,1784,1205,0,0
567,-181,0,0,0,0,0,0,0,0,0,-1,1791,1205,0,0
574,-181,0,0,0,0,0,0,0,0,0,-1,1798,1205,0,0
581,-181,0,0,0,0,0,0,0,0,0,-1,1805,1205,0,0
588,-181,0,0,0,0,0,0,0,0,0,-1,1812,1205,0,0
595,-181,0,0,0,0,0,0,0,0,0,-1,1819,1205,0,0
602,-181,0,0,0,0,0,0,0,0,0,-1,1826,1205,0,0
609,-181,0,0,0,0,0,0,0,0,0,-1,1833,1205,0,0
616,-181,0,0,0,0,0,0,0,0,0,-1,1840,1205,0,0
623,-181,0,0,0,0,0,0,0,0,0,-1,1847,1205,0,0
630,-181,77.7908,2.46814,0.000733487,0.000340706,-0.000399472,0.000982233,9.19598e-05,-0.556936,0.000626423,0.0405345,1854,1205,77.7908,-2.46816
637,-181,77.7422,2.46729,0.000903355,0.000718883,-0.000300454,0.00112541,0.000496826,-0.636469,0.000651239,0.0406909,1861,1205,77.7422,-2.46725
644,-181,77.5657,2.43994,0.00103572,0.00106335,-0.000304254,0.00135411,0.000744971,-0.808087,0.000783104,0.0413659,1868,1205,77.5657,-2.43989
651,-181,77.5383,2.51782,0.00121727,0.00146176,-0.000454161,0.00180984,0.00086919,-0.916868,0.00104518,0.040131,1875,1205,77.5384,-2.51779
658,-181,77.5146,2.52319,0.00125609,0.00177845,-0.000423049,0.00201445,0.00102009,-1.06195,0.00116307,0.0349693,1882,1205,77.5146,-2.52322
665,-181,77.5522,2.55713,0.00112495,0.00217835,-0.000172758,0.00220596,0.00109734,-1.41233,0.00127362,0.0323422,1889,1205,77.5523,-2.55718
672,-181,77.6116,2.54614,0.00107703,0.00281059,6.67591e-05,0.00281316,0.00107447,1.53236,0.0016392,0.0257413,1896,1205,77.6116,-2.54614
679,-181,77.6786,2.50891,0.00104164,0.0030489,0.000248108,0.00307912,0.00101143,1.44962,0.00181226,0.0450906,1903,1205,77.6786,-2.50887
686,-181,77.7991,2.45789,0,0,0,0,0,0,0,-1,1910,1205,77.7991,-2.45787
693,-181,36.1301,2.91016,0,0,0,0,0,0,0,-1,1917,1205,36.1302,-2.9102
700,-181,29.5845,6.58398,0,0,0,0,0,0,0,-1,1924,1205,29.5844,-6.58395
707,-181,55.4949,10.6722,0,0,0,0,0,0,0,-1,1931,1205,55.4949,-10.6722
714,-181,55.6268,10.3521,0,0,0,0,0,0,0,-1,1938,1205,55.6268,-10.3521
721,-181,51.2217,9.59631,0,0,0,0,0,0,0,-1,1945,1205,51.2217,-9.59637
728,-181,63.8735,10.3033,0,0,0,0,0,0,0,-1,1952,1205,63.8735,-10.3034
735,-181,63.8568,9.56543,0.00224063,0.003248,0.000665269,0.00357875,0.00190988,1.10942,0.00206775,0.0187567,1959,1205,63.8569,-9.56546
742,-181,63.8248,8.86816,0.0025882,0.00272595,0.000792235,0.00345229,0.00186185,0.828759,0.00199524,0.0171206,1966,1205,63.8249,-8.8682
749,-181,63.7822,8.10486,0.00433497,0.00194413,0.000838557,0.00459976,0.00167934,0.305857,0.0026877,0.0162521,1973,1205,63.7822,-8.10491
756,-181,63.767,7.36255,0.00834637,0.00127518,0.000961713,0.00847483,0.00114672,0.132792,0.00530909,0.0128984,1980,1205,63.7669,-7.36258
763,-181,63.7866,6.63696,0.0142676,0.000451806,0.000890276,0.0143247,0.000394674,0.0640859,0.009421,0.0188533,1987,1205,63.7867,-6.63695
770,-181,63.8843,5.91785,0,0,0,0,0,0,0,-1,1994,1205,63.8842,-5.91782
777,-181,69.6453,-1.67188,0,0,0,0,0,0,0,-1,2001,1205,69.6452,1.6719
784,-181,68.8472,-0.41748,0,0,0,0,0,0,0,-1,2008,1205,68.8471,0.417431
791,-181,69.3733,0.442383,0,0,0,0,0,0,0,-1,2015,1205,69.3733,-0.442431
798,-181,66.1357,-1.15442,0,0,0,0,0,0,0,-1,2022,1205,66.1358,1.15445
805,-181,0,0,0,0,0,0,0,0,0,-1,2029,1205,0,0
812,-181,0,0,0,0,0,0,0,0,0,-1,2036,1205,0,0
-700,-188,0,0,0,0,0,0,0,0,0,-1,524,1212,0,0
-693,-188,0,0,0,0,0,0,0,0,0,-1,531,1212,0,0
-686,-188,0,0,0,0,0,0,0,0,0,-1,538,1212,0,0
-679,-188,-44.9916,0.227295,0,0,0,0,0,0,0,-1,545,1212,-44.9916,-0.227252
-672,-188,-45.6163,0.922119,0,0,0,0,0,0,0,-1,552,1212,-45.6163,-0.922074
-665,-188,-45.8389,1.34021,0,0,0,0,0,0,0,-1,559,1212,-45.8389,-1.34024
-658,-188,-46.2953,1.5343,0,0,0,0,0,0,0,-1,566,1212,-46.2953,-1.53429
-651,-188,-46.7513,3.77161,0,0,0,0,0,0,0,-1,573,1212,-46.7513,-3.77159
-644,-188,-46.8387,4.4679,-0.0116642,0.00207927,-0.0120699,0.00909646,-0.0186814,-1.04418,0.0163527,0.0489543,580,1212,-46.8387,-4.46791
-637,-188,-46.9337,5.14124,-0.00883609,0.00184456,-0.00819684,0.00628724,-0.0132788,-1.07412,0.0115343,0.0278117,587,1212,-46.9336,-5.14121
-630,-188,-47.0026,5.84265,-0.00631376,0.00151848,-0.00564355,0.00447155,-0.00926682,-1.08871,0.00809131,0.0126042,594,1212,-47.0026,-5.84264
-623,-188,-47.0228,6.60474,-0.00402333,0.00135248,-0.00454844,0.00394787,-0.00661872,-1.05227,0.00616524,0.011758,601,1212,-47.0228,-6.60478
-616,-188,-47.0453,7.36658,-0.00193791,0.00124816,-0.00403537,0.00399356,-0.00468331,-0.973392,0.00501486,0.0110859,608,1212,-47.0453,-7.36659
-609,-188,-47.0809,8.15894,1.15169e-05,0.00120103,-0.00411949,0.00476847,-0.00355593,-0.857091,0.00482306,0.0139318,615,1212,-47.0809,-8.15899
-602,-188,-47.0093,9.02271,0.00148816,0.00109959,-0.00487056,0.00616831,-0.00358056,-0.765464,0.00569423,0.0316357,622,1212,-47.0094,-9.02273
-595,-188,-46.8612,10.0923,0,0,0,0,0,0,0,-1,629,1212,-46.8612,-10.0922
-588,-188,-47.4761,10.5026,0.00279218,-0.000485172,-0.00368442,0.0051859,-0.00287889,-0.576155,0.00471929,0.0299415,636,1212,-47.4761,-10.5026
-581,-188,-47.5566,11.1969,0.00298068,-0.000437972,-0.0023884,0.00420841,-0.0016657,-0.474813,0.00349572,0.034406,643,1212,-47.5566,-11.1969
-574,-188,-47.5916,11.8572,0,0,0,0,0,0,0,-1,650,1212,-47.5915,-11.8572
-567,-188,-19.5786,4.10388,0,0,0,0,0,0,0,-1,657,1212,-19.5785,-4.10383
-560,-188,-23.9507,0.416626,0,0,0,0,0,0,0,-1,664,1212,-23.9508,-0.416602
-553,-188,-49.2368,1.03101,0,0,0,0,0,0,0,-1,671,1212,-49.2367,-1.03099
-546,-188,-61.3278,0.843628,0,0,0,0,0,0,0,-1,678,1212,-61.3278,-0.843634
-539,-188,-61.2108,0.780518,0.00221459,-0.00033408,-0.00114356,0.00265246,-0.000771952,-0.365682,0.00207408,0.0374955,685,1212,-61.2108,-0.780512
-532,-188,-60.9813,0.695557,0.00128846,0.000101961,-0.000281069,0.00135167,3.87462e-05,-0.221226,0.000888481,0.0432424,692,1212,-60.9813,-0.695541
-525,-188,-61.2383,0.740845,0.000794485,0.000128579,-0.000272017,0.000891476,3.15891e-05,-0.342506,0.000584072,0.0427959,699,1212,-61.2383,-0.7408
-518,-188,-61.2603,0.682251,0.0014802,-6.41299e-05,-0.00280741,0.0036197,-0.00220363,-0.651194,0.00339508,0.0419231,706,1212,-61.2603,-0.682208
-511,-188,-61.2155,0.727295,0.00229336,-0.000651463,-0.00562701,0.00663741,-0.00499552,-0.657433,0.00673854,0.0384082,713,1212,-61.2155,-0.727278
-504,-188,0,0,0,0,0,0,0,0,0,-1,720,1212,0,0
-497,-188,0,0,0,0,0,0,0,0,0,-1,727,1212,0,0
-490,-188,0,0,0,0,0,0,0,0,0,-1,734,1212,0,0
-483,-188,0,0,0,0,0,0,0,0,0,-1,741,1212,0,0
-476,-188,0,0,0,0,0,0,0,0,0,-1,748,1212,0,0
-469,-188,0,0,0,0,0,0,0,0,0,-1,755,1212,0,0
-462,-188,0,0,0,0,0,0,0,0,0,-1,762,1212,0,0
-455,-188,0,0,0,0,0,0,0,0,0,-1,769,1212,0,0
-448,-188,0,0,0,0,0,0,0,0,0,-1,776,1212,0,0
-441,-188,0,0,0,0,0,0,0,0,0,-1,783,1212,0,0
-434,-188,0,0,0,0,0,0,0,0,0,-1,790,1212,0,0
-427,-188,0,0,0,0,0,0,0,0,0,-1,797,1212,0,0
-420,-188,0,0,0,0,0,0,0,0,0,-1,804,1212,0,0
-413,-188,0,0,0,0,0,0,0,0,0,-1,811,1212,0,0
-406,-188,0,0,0,0,0,0,0,0,0,-1,818,1212,0,0
-399,-188,0,0,0,0,0,0,0,0,0,-1,825,1212,0,0
-392,-188,0,0,0,0,0,0,0,0,0,-1,832,1212,0,0
-385,-188,0,0,0,0,0,0,0,0,0,-1,839,1212,0,0
-378,-188,0,0,0,0,0,0,0,0,0,-1,846,1212,0,0
-371,-188,0,0,0,0,0,0,0,0,0,-1,853,1212,0,0
-364,-188,0,0,0,0,0,0,0,0,0,-1,860,1212,0,0
-357,-188,0,0,0,0,0,0,0,0,0,-1,867,1212,0,0
-350,-188,0,0,0,0,0,0,0,0,0,-1,874,1212,0,0
-343,-188,0,0,0,0,0,0,0,0,0,-1,881,1212,0,0
-336,-188,0,0,0,0,0,0,0,0,0,-1,888,1212,0,0
-329,-188,0,0,0,0,0,0,0,0,0,-1,895,1212,0,0
-322,-188,0,0,0,0,0,0,0,0,0,-1,902,1212,0,0
-315,-188,0,0,0,0,0,0,0,0,0,-1,909,1212,0,0
-308,-188,0,0,0,0,0,0,0,0,0,-1,916,1212,0,0
-301,-188,0,0,0,0,0,0,0,0,0,-1,923,1212,0,0
-294,-188,0,0,0,0,0,0,0,0,0,-1,930,1212,0,0
-287,-188,0,0,0,0,0,0,0,0,0,-1,937,1212,0,0
-280,-188,0,0,0,0,0,0,0,0,0,-1,944,1212,0,0
-273,-188,0,0,0,0,0,0,0,0,0,-1,951,1212,0,0
-266,-188,0,0,0,0,0,0,0,0,0,-1,958,1212,0,0
-259,-188,0,0,0,0,0,0,0,0,0,-1,965,1212,0,0
-252,-188,0,0,0,0,0,0,0,0,0,-1,972,1212,0,0
-245,-188,0,0,0,0,0,0,0,0,0,-1,979,1212,0,0
-238,-188,0,0,0,0,0,0,0,0,0,-1,986,1212,0,0
-231,-188,0,0,0,0,0,0,0,0,0,-1,993,1212,0,0
-224,-188,0,0,0,0,0,0,0,0,0,-1,1000,1212,0,0
-217,-188,0,0,0,0,0,0,0,0,0,-1,1007,1212,0,0
-210,-188,0,0,0,0,0,0,0,0,0,-1,1014,1212,0,0
-203,-188,0,0,0,0,0,0,0,0,0,-1,1021,1212,0,0
-196,-188,0,0,0,0,0,0,0,0,0,-1,1028,1212,0,0
-189,-188,0,0,0,0,0,0,0,0,0,-1,1035,1212,0,0
-182,-188,0,0,0,0,0,0,0,0,0,-1,1042,1212,0,0
-175,-188,0,0,0,0,0,0,0,0,0,-1,1049,1212,0,0
-168,-188,0,0,0,0,0,0,0,0,0,-1,1056,1212,0,0
-161,-188,0,0,0,0,0,0,0,0,0,-1,1063,1212,0,0
-154,-188,0,0,0,0,0,0,0,0,0,-1,1070,1212,0,0
-147,-188,0,0,0,0,0,0,0,0,0,-1,1077,1212,0,0
-140,-188,0,0,0,0,0,0,0,0,0,-1,1084,1212,0,0
-133,-188,0,0,0,0,0,0,0,0,0,-1,1091,1212,0,0
-126,-188,0,0,0,0,0,0,0,0,0,-1,1098,1212,0,0
-119,-188,0,0,0,0,0,0,0,0,0,-1,1105,1212,0,0
-112,-188,0,0,0,0,0,0,0,0,0,-1,1112,1212,0,0
-105,-188,0,0,0,0,0,0,0,0,0,-1,1119,1212,0,0
-98,-188,0,0,0,0,0,0,0,0,0,-1,1126,1212,0,0
-91,-188,0,0,0,0,0,0,0,0,0,-1,1133,1212,0,0
-84,-188,0,0,0,0,0,0,0,0,0,-1,1140,1212,0,0
-77,-188,0,0,0,0,0,0,0,0,0,-1,1147,1212,0,0
-70,-188,0,0,0,0,0,0,0,0,0,-1,1154,1212,0,0
-63,-188,0,0,0,0,0,0,0,0,0,-1,1161,1212,0,0
-56,-188,0,0,0,0,0,0,0,0,0,-1,1168,1212,0,0
-49,-188,0,0,0,0,0,0,0,0,0,-1,1175,1212,0,0
-42,-188,0,0,0,0,0,0,0,0,0,-1,1182,1212,0,0
-35,-188,0,0,0,0,0,0,0,0,0,-1,1189,1212,0,0
-28,-188,0,0,0,0,0,0,0,0,0,-1,1196,1212,0,0
-21,-188,0,0,0,0,0,0,0,0,0,-1,1203,1212,0,0
-14,-188,0,0,0,0,0,0,0,0,0,-1,1210,1212,0,0
-7,-188,0,0,0,0,0,0,0,0,0,-1,1217,1212,0,0
0,-188,0,0,0,0,0,0,0,0,0,-1,1224,1212,0,0
7,-188,0,0,0,0,0,0,0,0,0,-1,1231,1212,0,0
14,-188,0,0,0,0,0,0,0,0,0,-1,1238,1212,0,0
21,-188,0,0,0,0,0,0,0,0,0,-1,1245,1212,0,0
28,-188,0,0,0,0,0,0,0,0,0,-1,1252,1212,0,0
35,-188,0,0,0,0,0,0,0,0,0,-1,1259,1212,0,0
42,-188,0,0,0,0,0,0,0,0,0,-1,1266,1212,0,0
49,-188,0,0,0,0,0,0,0,0,0,-1,1273,1212,0,0
56,-188,0,0,0,0,0,0,0,0,0,-1,1280,1212,0,0
63,-188,0,0,0,0,0,0,0,0,0,-1,1287,1212,0,0
70,-188,0,0,0,0,0,0,0,0,0,-1,1294,1212,0,0
77,-188,0,0,0,0,0,0,0,0,0,-1,1301,1212,0,0
84,-188,0,0,0,0,0,0,0,0,0,-1,1308,1212,0,0
91,-188,0,0,0,0,0,0,0,0,0,-1,1315,1212,0,0
98,-188,0,0,0,0,0,0,0,0,0,-1,1322,1212,0,0
105,-188,0,0,0,0,0,0,0,0,0,-1,1329,1212,0,0
112,-188,0,0,0,0,0,0,0,0,0,-1,1336,1212,0,0
119,-188,0,0,0,0,0,0,0,0,0,-1,1343,1212,0,0
126,-188,0,0,0,0,0,0,0,0,0,-1,1350,1212,0,0
133,-188,0,0,0,0,0,0,0,0,0,-1,1357,1212,0,0
140,-188,0,0,0,0,0,0,0,0,0,-1,1364,1212,0,0
147,-188,0,0,0,0,0,0,0,0,0,-1,1371,1212,0,0
154,-188,0,0,0,0,0,0,0,0,0,-1,1378,1212,0,0
161,-188,0,0,0,0,0,0,0,0,0,-1,1385,1212,0,0
168,-188,0,0,0,0,0,0,0,0,0,-1,1392,1212,0,0
175,-188,0,0,0,0,0,0,0,0,0,-1,1399,1212,0,0
182,-188,0,0,0,0,0,0,0,0,0,-1,1406,1212,0,0
189,-188,0,0,0,0,0,0,0,0,0,-1,1413,1212,0,0
196,-188,0,0,0,0,0,0,0,0,0,-1,1420,1212,0,0
203,-188,0,0,0,0,0,0,0,0,0,-1,1427,1212,0,0
210,-188,0,0,0,0,0,0,0,0,0,-1,1434,1212,0,0
217,-188,0,0,0,0,0,0,0,0,0,-1,1441,1212,0,0
224,-188,0,0,0,0,0,0,0,0,0,-1,1448,1212,0,0
231,-188,0,0,0,0,0,0,0,0,0,-1,1455,1212,0,0
238,-188,0,0,0,0,0,0,0,0,0,-1,1462,1212,0,0
245,-188,0,0,0,0,0,0,0,0,0,-1,1469,1212,0,0
252,-188,0,0,0,0,0,0,0,0,0,-1,1476,1212,0,0
259,-188,0,0,0,0,0,0,0,0,0,-1,1483,1212,0,0
266,-188,0,0,0,0,0,0,0,0,0,-1,1490,1212,0,0
273,-188,0,0,0,0,0,0,0,0,0,-1,1497,1212,0,0
280,-188,0,0,0,0,0,0,0,0,0,-1,1504,1212,0,0
287,-188,0,0,0,0,0,0,0,0,0,-1,1511,1212,0,0
294,-188,0,0,0,0,0,0,0,0,0,-1,1518,1212,0,0
301,-188,0,0,0,0,0,0,0,0,0,-1,1525,1212,0,0
308,-188,0,0,0,0,0,0,0,0,0,-1,1532,1212,0,0
315,-188,0,0,0,0,0,0,0,0,0,-1,1539,1212,0,0
322,-188,0,0,0,0,0,0,0,0,0,-1,1546,1212,0,0
329,-188,0,0,0,0,0,0,0,0,0,-1,1553,1212,0,0
336,-188,0,0,0,0,0,0,0,0,0,-1,1560,1212,0,0
343,-188,0,0,0,0,0,0,0,0,0,-1,1567,1212,0,0
350,-188,0,0,0,0,0,0,0,0,0,-1,1574,1212,0,0
357,-188,0,0,0,0,0,0,0,0,0,-1,1581,1212,0,0
364,-188,0,0,0,0,0,0,0,0,0,-1,1588,1212,0,0
371,-188,0,0,0,0,0,0,0,0,0,-1,1595,1212,0,0
378,-188,0,0,0,0,0,0,0,0,0,-1,1602,1212,0,0
385,-188,0,0,0,0,0,0,0,0,0,-1,1609,1212,0,0
392,-188,0,0,0,0,0,0,0,0,0,-1,1616,1212,0,0
399,-188,0,0,0,0,0,0,0,0,0,-1,1623,1212,0,0
406,-188,0,0,0,0,0,0,0,0,0,-1,1630,1212,0,0
413,-188,0,0,0,0,0,0,0,0,0,-1,1637,1212,0,0
420,-188,0,0,0,0,0,0,0,0,0,-1,1644,1212,0,0
427,-188,0,0,0,0,0,0,0,0,0,-1,1651,1212,0,0
434,-188,0,0,0,0,0,0,0,0,0,-1,1658,1212,0,0
441,-188,0,0,0,0,0,0,0,0,0,-1,1665,1212,0,0
448,-188,0,0,0,0,0,0,0,0,0,-1,1672,1212,0,0
455,-188,0,0,0,0,0,0,0,0,0,-1,1679,1212,0,0
462,-188,0,0,0,0,0,0,0,0,0,-1,1686,1212,0,0
469,-188,0,0,0,0,0,0,0,0,0,-1,1693,1212,0,0
476,-188,0,0,0,0,0,0,0,0,0,-1,1700,1212,0,0
483,-188,0,0,0,0,0,0,0,0,0,-1,1707,1212,0,0
490,-188,0,0,0,0,0,0,0,0,0,-1,1714,1212,0,0
497,-188,0,0,0,0,0,0,0,0,0,-1,1721,1212,0,0
504,-188,0,0,0,0,0,0,0,0,0,-1,1728,1212,0,0
511,-188,0,0,0,0,0,0,0,0,0,-1,1735,1212,0,0
518,-188,0,0,0,0,0,0,0,0,0,-1,1742,1212,0,0
525,-188,0,0,0,0,0,0,0,0,0,-1,1749,1212,0,0
532,-188,0,0,0,0,0,0,0,0,0,-1,1756,1212,0,0
539,-188,0,0,0,0,0,0,0,0,0,-1,1763,1212,0,0
546,-188,0,0,0,0,0,0,0,0,0,-1,1770,1212,0,0
553,-188,0,0,0,0,0,0,0,0,0,-1,1777,1212,0,0
560,-188,0,0,0,0,0,0,0,0,0,-1,1784,1212,0,0
567,-188,0,0,0,0,0,0,0,0,0,-1,1791,1212,0,0
574,-188,0,0,0,0,0,0,0,0,0,-1,1798,1212,0,0
581,-188,0,0,0,0,0,0,0,0,0,-1,1805,1212,0,0
588,-188,0,0,0,0,0,0,0,0,0,-1,1812,1212,0,0
595,-188,0,0,0,0,0,0,0,0,0,-1,1819,1212,0,0
602,-188,0,0,0,0,0,0,0,0,0,-1,1826,1212,0,0
609,-188,0,0,0,0,0,0,0,0,0,-1,1833,1212,0,0
616,-188,0,0,0,0,0,0,0,0,0,-1,1840,1212,0,0
623,-188,0,0,0,0,0,0,0,0,0,-1,1847,1212,0,0
630,-188,77.7347,2.5155,0.000441919,0.00118556,-0.000731035,0.0016339,-6.42042e-06,-1.02066,0.00109141,0.0417618,1854,1212,77.7348,-2.51546
637,-188,77.6798,2.39417,0.000548536,0.00142213,-0.000645831,0.001765,0.00020566,-1.08273,0.00111446,0.0406805,1861,1212,77.6798,-2.39414
644,-188,77.5475,2.39001,0.000712297,0.00165017,-0.000663912,0.00199406,0.00036841,-1.09288,0.00122517,0.0378756,1868,1212,77.5475,-2.39004
651,-188,77.5804,2.5321,0.000960126,0.00191053,-0.000792941,0.00235976,0.000510896,-1.05535,0.00143355,0.0337053,1875,1212,77.5804,-2.53214
658,-188,77.5688,2.51892,0.000941036,0.00196542,-0.00052981,0.00219014,0.000716316,-1.16965,0.00128944,0.0324105,1882,1212,77.5689,-2.51896
665,-188,77.5596,2.54895,0.000750403,0.00214773,-9.56167e-05,0.00215424,0.00074389,-1.50279,0.00126344,0.0325035,1889,1212,77.5596,-2.54896
672,-188,77.609,2.50916,0.00073632,0.00257538,0.000235953,0.00260517,0.000706529,1.44521,0.0015557,0.0276738,1896,1212,77.6089,-2.50918
679,-188,77.7365,2.52893,0,0,0,0,0,0,0,-1,1903,1212,77.7364,-2.52892
686,-188,60.1007,2.41321,0,0,0,0,0,0,0,-1,1910,1212,60.1007,-2.41325
693,-188,35.9054,2.18042,0,0,0,0,0,0,0,-1,1917,1212,35.9054,-2.18038
700,-188,54.452,11.2678,0,0,0,0,0,0,0,-1,1924,1212,54.452,-11.2678
707,-188,63.4784,12.8326,0,0,0,0,0,0,0,-1,1931,1212,63.4784,-12.8327
714,-188,54.7506,10.1539,0,0,0,0,0,0,0,-1,1938,1212,54.7507,-10.1539
721,-188,61.637,10.8645,0,0,0,0,0,0,0,-1,1945,1212,61.6369,-10.8645
728,-188,63.2251,10.3459,0,0,0,0,0,0,0,-1,1952,1212,63.2251,-10.3459
735,-188,63.1166,9.61914,0.0019573,0.00300448,0.000916082,0.00353605,0.00142574,1.04502,0.00205425,0.0145752,1959,1212,63.1166,-9.61914
742,-188,63.0592,8.87817,0.00245585,0.00238445,0.00101699,0.00343777,0.00140253,0.767853,0.00199597,0.0149817,1966,1212,63.0592,-8.87819
749,-188,63.0361,8.1449,0.00401971,0.00164894,0.00116062,0.00449329,0.00117536,0.387422,0.00269072,0.0149343,1973,1212,63.0362,-8.14495
756,-188,63.0181,7.39258,0.0074187,0.00106784,0.00153365,0.00776966,0.000716878,0.224968,0.00495812,0.0136869,1980,1212,63.018,-7.39253
763,-188,63.0259,6.6521,0.0125919,0.000336988,0.00182968,0.0128593,6.96457e-05,0.145088,0.00854972,0.0198411,1987,1212,63.0259,-6.65209
770,-188,62.7112,5.71521,0,0,0,0,0,0,0,-1,1994,1212,62.7111,-5.71524
777,-188,61.4719,4.67664,0,0,0,0,0,0,0,-1,2001,1212,61.4719,-4.67659
784,-188,69.1482,-1.87268,0,0,0,0,0,0,0,-1,2008,1212,69.1481,1.87266
791,-188,68.3596,-0.192261,0,0,0,0,0,0,0,-1,2015,1212,68.3596,0.192286
798,-188,67.5286,1.23303,0,0,0,0,0,0,0,-1,2022,1212,67.5285,-1.23298
805,-188,0,0,0,0,0,0,0,0,0,-1,2029,1212,0,0
812,-188,0,0,0,0,0,0,0,0,0,-1,2036,1212,0,0
-700,-195,0,0,0,0,0,0,0,0,0,-1,524,1219,0,0
-693,-195,0,0,0,0,0,0,0,0,0,-1,531,1219,0,0
-686,-195,0,0,0,0,0,0,0,0,0,-1,538,1219,0,0
-679,-195,-44.2733,-0.262695,0,0,0,0,0,0,0,-1,545,1219,-44.2733,0.262648
-672,-195,-45.2201,0.631958,0,0,0,0,0,0,0,-1,552,1219,-45.2201,-0.632012
-665,-195,-46.6998,4.67078,0,0,0,0,0,0,0,-1,559,1219,-46.6998,-4.67073
-658,-195,-45.5593,2.97461,0,0,0,0,0,0,0,-1,566,1219,-45.5593,-2.97464
-651,-195,-45.7162,3.68896,0,0,0,0,0,0,0,-1,573,1219,-45.7162,-3.68902
-644,-195,-45.8807,4.45215,-0.0114873,0.0024668,-0.0118565,0.00924679,-0.0182673,-1.05134,0.0161673,0.0487337,580,1219,-45.8807,-4.45216
-637,-195,-46.0458,5.15332,-0.00860307,0.00197228,-0.00782255,0.00612662,-0.0127574,-1.0826,0.0111245,0.0289773,587,1219,-46.0458,-5.1533
-630,-195,-46.2051,5.87085,-0.00610848,0.00146951,-0.00521327,0.00412525,-0.00876422,-1.09964,0.0076007,0.0101605,594,1219,-46.2051,-5.87089
-623,-195,-46.231,6.64038,-0.00385137,0.00125922,-0.00423226,0.00364777,-0.00623992,-1.05699,0.00577368,0.00872711,601,1219,-46.231,-6.64033
-616,-195,-46.256,7.41919,-0.00184714,0.00113033,-0.00378925,0.0037128,-0.00442961,-0.972577,0.00470709,0.0102323,608,1219,-46.2561,-7.41917
-609,-195,-46.2976,8.22253,-5.69623e-06,0.00103167,-0.0038912,0.00443861,-0.00341263,-0.851656,0.0045458,0.0188211,615,1219,-46.2976,-8.22256
-602,-195,-46.3334,8.99512,0.00151654,0.000926988,-0.00454186,0.00577318,-0.00332965,-0.752993,0.00531826,0.0263831,622,1219,-46.3334,-8.99508
-595,-195,-46.3815,9.79688,0,0,0,0,0,0,0,-1,629,1219,-46.3815,-9.7969
-588,-195,-46.625,10.6063,0.00316016,-0.000314927,-0.00411268,0.00588728,-0.00304205,-0.585529,0.00524186,0.0245333,636,1219,-46.625,-10.6063
-581,-195,-46.5735,11.2422,0.00307265,-0.000215829,-0.00287483,0.00474023,-0.00188341,-0.525631,0.00394094,0.0302588,643,1219,-46.5736,-11.2422
-574,-195,-46.796,11.7994,0,0,0,0,0,0,0,-1,650,1219,-46.796,-11.7994
-567,-195,-20.6388,3.78369,0,0,0,0,0,0,0,-1,657,1219,-20.6388,-3.78369
-560,-195,-20.878,2.10388,0,0,0,0,0,0,0,-1,664,1219,-20.878,-2.10385
-553,-195,-41.595,0.613281,0,0,0,0,0,0,0,-1,671,1219,-41.595,-0.61334
-546,-195,-61.0464,0.708496,0,0,0,0,0,0,0,-1,678,1219,-61.0464,-0.708537
-539,-195,-61.1456,0.718018,0.00116258,0.000490294,-0.00140987,0.00227583,-0.000622949,-0.668372,0.00176196,0.0457827,685,1219,-61.1456,-0.717963
-532,-195,-61.1819,0.760864,0.00010483,0.00110776,-0.000571004,0.00136624,-0.000153647,-1.14572,0.000966122,0.0365932,692,1219,-61.1819,-0.760864
-525,-195,-61.363,1.05554,-0.000730047,0.00144314,-3.60926e-05,0.00144374,-0.000730646,-1.55419,0.00127769,0.0398856,699,1219,-61.3631,-1.05556
-518,-195,-61.2569,0.802612,-0.000285221,0.00198775,-0.00190578,0.00307018,-0.00136765,-1.05426,0.00262428,0.0444283,706,1219,-61.2569,-0.80261
-511,-195,-61.1687,0.83606,0.000757167,0.00154515,-0.00444591,0.00561449,-0.00331217,-0.829592,0.00521064,0.0429932,713,1219,-61.1687,-0.83608
-504,-195,0,0,0,0,0,0,0,0,0,-1,720,1219,0,0
-497,-195,0,0,0,0,0,0,0,0,0,-1,727,1219,0,0
-490,-195,0,0,0,0,0,0,0,0,0,-1,734,1219,0,0
-483,-195,0,0,0,0,0,0,0,0,0,-1,741,1219,0,0
-476,-195,0,0,0,0,0,0,0,0,0,-1,748,1219,0,0
-469,-195,0,0,0,0,0,0,0,0,0,-1,755,1219,0,0
-462,-195,0,0,0,0,0,0,0,0,0,-1,762,1219,0,0
-455,-195,0,0,0,0,0,0,0,0,0,-1,769,1219,0,0
-448,-195,0,0,0,0,0,0,0,0,0,-1,776,1219,0,0
-441,-195,0,0,0,0,0,0,0,0,0,-1,783,1219,0,0
-434,-195,0,0,0,0,0,0,0,0,0,-1,790,1219,0,0
-427,-195,0,0,0,0,0,0,0,0,0,-1,797,1219,0,0
-420,-195,0,0,0,0,0,0,0,0,0,-1,804,1219,0,0
-413,-195,0,0,0,0,0,0,0,0,0,-1,811,1219,0,0
-406,-195,0,0,0,0,0,0,0,0,0,-1,818,1219,0,0
-399,-195,0,0,0,0,0,0,0,0,0,-1,825,1219,0,0
-392,-195,0,0,0,0,0,0,0,0,0,-1,832,1219,0,0
-385,-195,0,0,0,0,0,0,0,0,0,-1,839,1219,0,0
-378,-195,0,0,0,0,0,0,0,0,0,-1,846,1219,0,0
-371,-195,0,0,0,0,0,0,0,0,0,-1,853,1219,0,0
-364,-195,0,0,0,0,0,0,0,0,0,-1,860,1219,0,0
-357,-195,0,0,0,0,0,0,0,0,0,-1,867,1219,0,0
-350,-195,0,0,0,0,0,0,0,0,0,-1,874,1219,0,0
-343,-195,0,0,0,0,0,0,0,0,0,-1,881,1219,0,0
-336,-195,0,0,0,0,0,0,0,0,0,-1,888,1219,0,0
-329,-195,0,0,0,0,0,0,0,0,0,-1,895,1219,0,0
-322,-195,0,0,0,0,0,0,0,0,0,-1,902,1219,0,0
-315,-195,0,0,0,0,0,0,0,0,0,-1,909,1219,0,0
-308,-195,0,0,0,0,0,0,0,0,0,-1,916,1219,0,0
-301,-195,0,0,0,0,0,0,0,0,0,-1,923,1219,0,0
-294,-195,0,0,0,0,0,0,0,0,0,-1,930,1219,0,0
-287,-195,0,0,0,0,0,0,0,0,0,-1,937,1219,0,0
-280,-195,0,0,0,0,0,0,0,0,0,-1,944,1219,0,0
-273,-195,0,0,0,0,0,0,0,0,0,-1,951,1219,0,0
-266,-195,0,0,0,0,0,0,0,0,0,-1,958,1219,0,0
-259,-195,0,0,0,0,0,0,0,0,0,-1,965,1219,0,0
-252,-195,0,0,0,0,0,0,0,0,0,-1,972,1219,0,0
-245,-195,0,0,0,0,0,0,0,0,0,-1,979,1219,0,0
-238,-195,0,0,0,0,0,0,0,0,0,-1,986,1219,0,0
-231,-195,0,0,0,0,0,0,0,0,0,-1,993,1219,0,0
-224,-195,0,0,0,0,0,0,0,0,0,-1,1000,1219,0,0
-217,-195,0,0,0,0,0,0,0,0,0,-1,1007,1219,0,0
-210,-195,0,0,0,0,0,0,0,0,0,-1,1014,1219,0,0
-203,-195,0,0,0,0,0,0,0,0,0,-1,1021,1219,0,0
-196,-195,0,0,0,0,0,0,0,0,0,-1,1028,1219,0,0
-189,-195,0,0,0,0,0,0,0,0,0,-1,1035,1219,0,0
-182,-195,0,0,0,0,0,0,0,0,0,-1,1042,1219,0,0
-175,-195,0,0,0,0,0,0,0,0,0,-1,1049,1219,0,0
-168,-195,0,0,0,0,0,0,0,0,0,-1,1056,1219,0,0
-161,-195,0,0,0,0,0,0,0,0,0,-1,1063,1219,0,0
-154,-195,0,0,0,0,0,0,0,0,0,-1,1070,1219,0,0
-147,-195,0,0,0,0,0,0,0,0,0,-1,1077,1219,0,0
-140,-195,0,0,0,0,0,0,0,0,0,-1,1084,1219,0,0
-133,-195,0,0,0,0,0,0,0,0,0,-1,1091,1219,0,0
-126,-195,0,0,0,0,0,0,0,0,0,-1,1098,1219,0,0
-119,-195,0,0,0,0,0,0,0,0,0,-1,1105,1219,0,0
-112,-195,0,0,0,0,0,0,0,0,0,-1,1112,1219,0,0
-105,-195,0,0,0,0,0,0,0,0,0,-1,1119,1219,0,0
-98,-195,0,0,0,0,0,0,0,0,0,-1,1126,1219,0,0
-91,-195,0,0,0,0,0,0,0,0,0,-1,1133,1219,0,0
-84,-195,0,0,0,0,0,0,0,0,0,-1,1140,1219,0,0
-77,-195,0,0,0,0,0,0,0,0,0,-1,1147,1219,0,0
-70,-195,0,0,0,0,0,0,0,0,0,-1,1154,1219,0,0
-63,-195,0,0,0,0,0,0,0,0,0,-1,1161,1219,0,0
-56,-195,0,0,0,0,0,0,0,0,0,-1,1168,1219,0,0
-49,-195,0,0,0,0,0,0,0,0,0,-1,1175,1219,0,0
-42,-195,0,0,0,0,0,0,0,0,0,-1,1182,1219,0,0
-35,-195,0,0,0,0,0,0,0,0,0,-1,1189,1219,0,0
-28,-195,0,0,0,0,0,0,0,0,0,-1,1196,1219,0,0
-21,-195,0,0,0,0,0,0,0,0,0,-1,1203,1219,0,0
-14,-195,0,0,0,0,0,0,0,0,0,-1,1210,1219,0,0
-7,-195,0,0,0,0,0,0,0,0,0,-1,1217,1219,0,0
0,-195,0,0,0,0,0,0,0,0,0,-1,1224,1219,0,0
7,-195,0,0,0,0,0,0,0,0,0,-1,1231,1219,0,0
14,-195,0,0,0,0,0,0,0,0,0,-1,1238,1219,0,0
21,-195,0,0,0,0,0,0,0,0,0,-1,1245,1219,0,0
28,-195,0,0,0,0,0,0,0,0,0,-1,1252,1219,0,0
35,-195,0,0,0,0,0,0,0,0,0,-1,1259,1219,0,0
42,-195,0,0,0,0,0,0,0,0,0,-1,1266,1219,0,0
49,-195,0,0,0,0,0,0,0,0,0,-1,1273,1219,0,0
56,-195,0,0,0,0,0,0,0,0,0,-1,1280,1219,0,0
63,-195,0,0,0,0,0,0,0,0,0,-1,1287,1219,0,0
70,-195,0,0,0,0,0,0,0,0,0,-1,1294,1219,0,0
77,-195,0,0,0,0,0,0,0,0,0,-1,1301,1219,0,0
84,-195,0,0,0,0,0,0,0,0,0,-1,1308,1219,0,0
91,-195,0,0,0,0,0,0,0,0,0,-1,1315,1219,0,0
98,-195,0,0,0,0,0,0,0,0,0,-1,1322,1219,0,0
105,-195,0,0,0,0,0,0,0,0,0,-1,1329,1219,0,0
112,-195,0,0,0,0,0,0,0,0,0,-1,1336,1219,0,0
119,-195,0,0,0,0,0,0,0,0,0,-1,1343,1219,0,0
126,-195,0,0,0,0,0,0,0,0,0,-1,1350,1219,0,0
133,-195,0,0,0,0,0,0,0,0,0,-1,1357,1219,0,0
140,-195,0,0,0,0,0,0,0,0,0,-1,1364,1219,0,0
147,-195,0,0,0,0,0,0,0,0,0,-1,1371,1219,0,0
154,-195,0,0,0,0,0,0,0,0,0,-1,1378,1219,0,0
161,-195,0,0,0,0,0,0,0,0,0,-1,1385,1219,0,0
168,-195,0,0,0,0,0,0,0,0,0,-1,1392,1219,0,0
175,-195,0,0,0,0,0,0,0,0,0,-1,1399,1219,0,0
182,-195,0,0,0,0,0,0,0,0,0,-1,1406,1219,0,0
189,-195,0,0,0,0,0,0,0,0,0,-1,1413,1219,0,0
196,-195,0,0,0,0,0,0,0,0,0,-1,1420,1219,0,0
203,-195,0,0,0,0,0,0,0,0,0,-1,1427,1219,0,0
210,-195,0,0,0,0,0,0,0,0,0,-1,1434,1219,0,0
217,-195,0,0,0,0,0,0,0,0,0,-1,1441,1219,0,0
224,-195,0,0,0,0,0,0,0,0,0,-1,1448,1219,0,0
231,-195,0,0,0,0,0,0,0,0,0,-1,1455,1219,0,0
238,-195,0,0,0,0,0,0,0,0,0,-1,1462,1219,0,0
245,-195,0,0,0,0,0,0,0,0,0,-1,1469,1219,0,0
252,-195,0,0,0,0,0,0,0,0,0,-1,1476,1219,0,0
259,-195,0,0,0,0,0,0,0,0,0,-1,1483,1219,0,0
266,-195,0,0,0,0,0,0,0,0,0,-1,1490,1219,0,0
273,-195,0,0,0,0,0,0,0,0,0,-1,1497,1219,0,0
280,-195,0,0,0,0,0,0,0,0,0,-1,1504,1219,0,0
287,-195,0,0,0,0,0,0,0,0,0,-1,1511,1219,0,0
294,-195,0,0,0,0,0,0,0,0,0,-1,1518,1219,0,0
301,-195,0,0,0,0,0,0,0,0,0,-1,1525,1219,0,0
308,-195,0,0,0,0,0,0,0,0,0,-1,1532,1219,0,0
315,-195,0,0,0,0,0,0,0,0,0,-1,1539,1219,0,0
322,-195,0,0,0,0,0,0,0,0,0,-1,1546,1219,0,0
329,-195,0,0,0,0,0,0,0,0,0,-1,1553,1219,0,0
336,-195,0,0,0,0,0,0,0,0,0,-1,1560,1219,0,0
343,-195,0,0,0,0,0,0,0,0,0,-1,1567,1219,0,0
350,-195,0,0,0,0,0,0,0,0,0,-1,1574,1219,0,0
357,-195,0,0,0,0,0,0,0,0,0,-1,1581,1219,0,0
364,-195,0,0,0,0,0,0,0,0,0,-1,1588,1219,0,0
371,-195,0,0,0,0,0,0,0,0,0,-1,1595,1219,0,0
378,-195,0,0,0,0,0,0,0,0,0,-1,1602,1219,0,0
385,-195,0,0,0,0,0,0,0,0,0,-1,1609,1219,0,0
392,-195,0,0,0,0,0,0,0,0,0,-1,1616,1219,0,0
399,-195,0,0,0,0,0,0,0,0,0,-1,1623,1219,0,0
406,-195,0,0,0,0,0,0,0,0,0,-1,1630,1219,0,0
413,-195,0,0,0,0,0,0,0,0,0,-1,1637,1219,0,0
420,-195,0,0,0,0,0,0,0,0,0,-1,1644,1219,0,0
427,-195,0,0,0,0,0,0,0,0,0,-1,1651,1219,0,0
434,-195,0,0,0,0,0,0,0,0,0,-1,1658,1219,0,0
441,-195,0,0,0,0,0,0,0,0,0,-1,1665,1219,0,0
448,-195,0,0,0,0,0,0,0,0,0,-1,1672,1219,0,0
455,-195,0,0,0,0,0,0,0,0,0,-1,1679,1219,0,0
462,-195,0,0,0,0,0,0,0,0,0,-1,1686,1219,0,0
469,-195,0,0,0,0,0,0,0,0,0,-1,1693,1219,0,0
476,-195,0,0,0,0,0,0,0,0,0,-1,1700,1219,0,0
483,-195,0,0,0,0,0,0,0,0,0,-1,1707,1219,0,0
490,-195,0,0,0,0,0,0,0,0,0,-1,1714,1219,0,0
497,-195,0,0,0,0,0,0,0,0,0,-1,1721,1219,0,0
504,-195,0,0,0,0,0,0,0,0,0,-1,1728,1219,0,0
511,-195,0,0,0,0,0,0,0,0,0,-1,1735,1219,0,0
518,-195,0,0,0,0,0,0,0,0,0,-1,1742,1219,0,0
525,-195,0,0,0,0,0,0,0,0,0,-1,1749,1219,0,0
532,-195,0,0,0,0,0,0,0,0,0,-1,1756,1219,0,0
539,-195,0,0,0,0,0,0,0,0,0,-1,1763,1219,0,0
546,-195,0,0,0,0,0,0,0,0,0,-1,1770,1219,0,0
553,-195,0,0,0,0,0,0,0,0,0,-1,1777,1219,0,0
560,-195,0,0,0,0,0,0,0,0,0,-1,1784,1219,0,0
567,-195,0,0,0,0,0,0,0,0,0,-1,1791,1219,0,0
574,-195,0,0,0,0,0,0,0,0,0,-1,1798,1219,0,0
581,-195,0,0,0,0,0,0,0,0,0,-1,1805,1219,0,0
588,-195,0,0,0,0,0,0,0,0,0,-1,1812,1219,0,0
595,-195,0,0,0,0,0,0,0,0,0,-1,1819,1219,0,0
602,-195,0,0,0,0,0,0,0,0,0,-1,1826,1219,0,0
609,-195,0,0,0,0,0,0,0,0,0,-1,1833,1219,0,0
616,-195,0,0,0,0,0,0,0,0,0,-1,1840,1219,0,0
623,-195,0,0,0,0,0,0,0,0,0,-1,1847,1219,0,0
630,-195,77.765,2.53333,0,0,0,0,0,0,0,-1,1854,1219,77.765,-2.53332
637,-195,77.6656,2.19714,0,0,0,0,0,0,0,-1,1861,1219,77.6656,-2.19715
644,-195,77.6639,2.39722,0.000495514,0.00202578,-0.000678626,0.00228337,0.000237925,-1.20802,0.00144946,0.0368039,1868,1219,77.664,-2.39722
651,-195,77.6375,2.45581,0.000838135,0.00211172,-0.00091756,0.00259181,0.000358048,-1.08874,0.00162175,0.0286047,1875,1219,77.6374,-2.45585
658,-195,77.6626,2.49548,0.000802036,0.00187778,-0.000518004,0.00208666,0.00059316,-1.18751,0.00124155,0.0254204,1882,1219,77.6626,-2.49552
665,-195,77.6609,2.51489,0.000614745,0.00187775,-2.23356e-05,0.00187814,0.00061435,-1.55312,0.00110574,0.0249759,1889,1219,77.6608,-2.51492
672,-195,77.6379,2.31531,0.000637857,0.00212979,0.000309865,0.00219159,0.000576059,1.37395,0.0013119,0.0406122,1896,1219,77.6379,-2.3153
679,-195,77.5636,2.02808,0,0,0,0,0,0,0,-1,1903,1219,77.5636,-2.02804
686,-195,51.2117,1.94312,0,0,0,0,0,0,0,-1,1910,1219,51.2117,-1.9431
693,-195,24.4368,5.68298,0,0,0,0,0,0,0,-1,1917,1219,24.4368,-5.68293
700,-195,62.547,13.5417,0,0,0,0,0,0,0,-1,1924,1219,62.5471,-13.5418
707,-195,62.6028,12.7518,0,0,0,0,0,0,0,-1,1931,1219,62.6028,-12.7518
714,-195,62.6251,12.4513,0,0,0,0,0,0,0,-1,1938,1219,62.6251,-12.4513
721,-195,62.3391,11.3163,0,0,0,0,0,0,0,-1,1945,1219,62.3391,-11.3163
728,-195,62.3965,10.4531,0.00112658,0.00244609,0.0011706,0.00313005,0.000442614,1.04201,0.00195593,0.014191,1952,1219,62.3965,-10.4532
735,-195,62.3693,9.6355,0.00142439,0.00232379,0.00122929,0.00318306,0.000565124,0.960746,0.001961,0.0133966,1959,1219,62.3692,-9.63548
742,-195,62.3204,8.90125,0.00188023,0.00171088,0.00139135,0.00318948,0.000401633,0.755008,0.00200589,0.0155707,1966,1219,62.3204,-8.9013
749,-195,62.2853,8.198,0.00311537,0.00105988,0.00167268,0.00405082,0.000124429,0.509917,0.00266004,0.01605,1973,1219,62.2852,-8.19802
756,-195,62.2665,7.45276,0.00580803,0.000527434,0.00225689,0.00664116,-0.000305696,0.353632,0.00453278,0.0155807,1980,1219,62.2665,-7.45273
763,-195,62.2622,6.66431,0.0100635,-0.000163675,0.00291731,0.0108372,-0.000937317,0.259223,0.00755662,0.0232932,1987,1219,62.2621,-6.66432
770,-195,62.113,5.93835,0,0,0,0,0,0,0,-1,1994,1219,62.1129,-5.93837
777,-195,62.0391,5.35388,0,0,0,0,0,0,0,-1,2001,1219,62.039,-5.35392
784,-195,69.7437,-3.15942,0,0,0,0,0,0,0,-1,2008,1219,69.7437,3.15944
791,-195,68.9104,-1.24268,0,0,0,0,0,0,0,-1,2015,1219,68.9103,1.24264
798,-195,66.05,2.49902,0,0,0,0,0,0,0,-1,2022,1219,66.0501,-2.499
805,-195,0,0,0,0,0,0,0,0,0,-1,2029,1219,0,0
812,-195,0,0,0,0,0,0,0,0,0,-1,2036,1219,0,0
-700,-202,0,0,0,0,0,0,0,0,0,-1,524,1226,0,0
-693,-202,0,0,0,0,0,0,0,0,0,-1,531,1226,0,0
-686,-202,0,0,0,0,0,0,0,0,0,-1,538,1226,0,0
-679,-202,-44.165,-2.40588,0,0,0,0,0,0,0,-1,545,1226,-44.1651,2.4059
-672,-202,-43.8438,-2.58093,0,0,0,0,0,0,0,-1,552,1226,-43.8437,2.58095
-665,-202,-47.0174,4.41162,0,0,0,0,0,0,0,-1,559,1226,-47.0174,-4.41162
-658,-202,-48.6339,4.83545,0,0,0,0,0,0,0,-1,566,1226,-48.6338,-4.83547
-651,-202,-44.8976,3.65112,0,0,0,0,0,0,0,-1,573,1226,-44.8976,-3.65111
-644,-202,-45.0525,4.4502,0,0,0,0,0,0,0,-1,580,1226,-45.0525,-4.45024
-637,-202,-45.2466,5.17529,0,0,0,0,0,0,0,-1,587,1226,-45.2466,-5.17524
-630,-202,-45.4278,5.85388,-0.00554213,0.00146568,-0.00469613,0.00382104,-0.00789749,-1.10591,0.0069008,0.0260859,594,1226,-45.4278,-5.8539
-623,-202,-45.4346,6.66052,-0.00344821,0.00123838,-0.00381818,0.00337498,-0.00558481,-1.06062,0.00522512,0.00990141,601,1226,-45.4346,-6.66056
-616,-202,-45.4686,7.44043,-0.00165251,0.00109196,-0.00342122,0.00340589,-0.00396644,-0.976123,0.00426051,0.00925874,608,1226,-45.4685,-7.44041
-609,-202,-45.4623,8.23865,-4.72645e-05,0.00094203,-0.00349542,0.00397763,-0.00308286,-0.855688,0.00408727,0.0231322,615,1226,-45.4623,-8.23862
-602,-202,-45.553,9.00024,0.00136793,0.000805802,-0.00401969,0.00511637,-0.00294264,-0.750494,0.00470896,0.0231895,622,1226,-45.5531,-9.0003
-595,-202,-45.6469,9.81775,0,0,0,0,0,0,0,-1,629,1226,-45.6469,-9.81778
-588,-202,-45.8392,10.5764,0.00323298,-0.000255818,-0.0041056,0.0059494,-0.00297223,-0.584512,0.00524563,0.0267823,636,1226,-45.8392,-10.5764
-581,-202,-45.73,11.2231,0.0029343,-0.000203035,-0.00296978,0.00472425,-0.00199298,-0.542418,0.00398363,0.0390772,643,1226,-45.7301,-11.2232
-574,-202,-45.8486,11.9604,0,0,0,0,0,0,0,-1,650,1226,-45.8486,-11.9604
-567,-202,-22.1768,4.56995,0,0,0,0,0,0,0,-1,657,1226,-22.1768,-4.56991
-560,-202,-10.929,2.73096,0,0,0,0,0,0,0,-1,664,1226,-10.929,-2.73092
-553,-202,-30.2701,1.474,0,0,0,0,0,0,0,-1,671,1226,-30.2701,-1.47395
-546,-202,-53.2803,0.580933,0,0,0,0,0,0,0,-1,678,1226,-53.2803,-0.580945
-539,-202,-60.9802,0.541138,0,0,0,0,0,0,0,-1,685,1226,-60.9802,-0.541197
-532,-202,-61.1592,0.674561,-0.00116158,0.00183849,-0.000556792,0.0019385,-0.00126158,-1.39309,0.00186129,0.0296649,692,1226,-61.1592,-0.67452
-525,-202,-61.2484,0.913818,-0.00224992,0.00240345,0.000118054,0.00240645,-0.00225291,1.54545,0.00269057,0.0344831,699,1226,-61.2484,-0.913787
-518,-202,-61.2115,0.994385,-0.00228306,0.00381779,-0.001144,0.00402526,-0.00249052,-1.3914,0.00379651,0.0433249,706,1226,-61.2115,-0.994339
-511,-202,-61.1324,0.912354,-0.00139589,0.00400422,-0.00329542,0.00556446,-0.00295612,-1.12861,0.0049956,0.0455248,713,1226,-61.1324,-0.912365
-504,-202,0,0,0,0,0,0,0,0,0,-1,720,1226,0,0
-497,-202,0,0,0,0,0,0,0,0,0,-1,727,1226,0,0
-490,-202,0,0,0,0,0,0,0,0,0,-1,734,1226,0,0
-483,-202,0,0,0,0,0,0,0,0,0,-1,741,1226,0,0
-476,-202,0,0,0,0,0,0,0,0,0,-1,748,1226,0,0
-469,-202,0,0,0,0,0,0,0,0,0,-1,755,1226,0,0
-462,-202,0,0,0,0,0,0,0,0,0,-1,762,1226,0,0
-455,-202,0,0,0,0,0,0,0,0,0,-1,769,1226,0,0
-448,-202,0,0,0,0,0,0,0,0,0,-1,776,1226,0,0
-441,-202,0,0,0,0,0,0,0,0,0,-1,783,1226,0,0
-434,-202,0,0,0,0,0,0,0,0,0,-1,790,1226,0,0
-427,-202,0,0,0,0,0,0,0,0,0,-1,797,1226,0,0
-420,-202,0,0,0,0,0,0,0,0,0,-1,804,1226,0,0
-413,-202,0,0,0,0,0,0,0,0,0,-1,811,1226,0,0
-406,-202,0,0,0,0,0,0,0,0,0,-1,818,1226,0,0
-399,-202,0,0,0,0,0,0,0,0,0,-1,825,1226,0,0
-392,-202,0,0,0,0,0,0,0,0,0,-1,832,1226,0,0
-385,-202,0,0,0,0,0,0,0,0,0,-1,839,1226,0,0
-378,-202,0,0,0,0,0,0,0,0,0,-1,846,1226,0,0
-371,-202,0,0,0,0,0,0,0,0,0,-1,853,1226,0,0
-364,-202,0,0,0,0,0,0,0,0,0,-1,860,1226,0,0
-357,-202,0,0,0,0,0,0,0,0,0,-1,867,1226,0,0
-350,-202,0,0,0,0,0,0,0,0,0,-1,874,1226,0,0
-343,-202,0,0,0,0,0,0,0,0,0,-1,881,1226,0,0
-336,-202,0,0,0,0,0,0,0,0,0,-1,888,1226,0,0
-329,-202,0,0,0,0,0,0,0,0,0,-1,895,1226,0,0
-322,-202,0,0,0,0,0,0,0,0,0,-1,902,1226,0,0
-315,-202,0,0,0,0,0,0,0,0,0,-1,909,1226,0,0
-308,-202,0,0,0,0,0,0,0,0,0,-1,916,1226,0,0
-301,-202,0,0,0,0,0,0,0,0,0,-1,923,1226,0,0
-294,-202,0,0,0,0,0,0,0,0,0,-1,930,1226,0,0
-287,-202,0,0,0,0,0,0,0,0,0,-1,937,1226,0,0
-280,-202,0,0,0,0,0,0,0,0,0,-1,944,1226,0,0
-273,-202,0,0,0,0,0,0,0,0,0,-1,951,1226,0,0
-266,-202,0,0,0,0,0,0,0,0,0,-1,958,1226,0,0
-259,-202,0,0,0,0,0,0,0,0,0,-1,965,1226,0,0
-252,-202,0,0,0,0,0,0,0,0,0,-1,972,1226,0,0
-245,-202,0,0,0,0,0,0,0,0,0,-1,979,1226,0,0
-238,-202,0,0,0,0,0,0,0,0,0,-1,986,1226,0,0
-231,-202,0,0,0,0,0,0,0,0,0,-1,993,1226,0,0
-224,-202,0,0,0,0,0,0,0,0,0,-1,1000,1226,0,0
-217,-202,0,0,0,0,0,0,0,0,0,-1,1007,1226,0,0
-210,-202,0,0,0,0,0,0,0,0,0,-1,1014,1226,0,0
-203,-202,0,0,0,0,0,0,0,0,0,-1,1021,1226,0,0
-196,-202,0,0,0,0,0,0,0,0,0,-1,1028,1226,0,0
-189,-202,0,0,0,0,0,0,0,0,0,-1,1035,1226,0,0
-182,-202,0,0,0,0,0,0,0,0,0,-1,1042,1226,0,0
-175,-202,0,0,0,0,0,0,0,0,0,-1,1049,1226,0,0
-168,-202,0,0,0,0,0,0,0,0,0,-1,1056,1226,0,0
-161,-202,0,0,0,0,0,0,0,0,0,-1,1063,1226,0,0
-154,-202,0,0,0,0,0,0,0,0,0,-1,1070,1226,0,0
-147,-202,0,0,0,0,0,0,0,0,0,-1,1077,1226,0,0
-140,-202,0,0,0,0,0,0,0,0,0,-1,1084,1226,0,0
-133,-202,0,0,0,0,0,0,0,0,0,-1,1091,1226,0,0
-126,-202,0,0,0,0,0,0,0,0,0,-1,1098,1226,0,0
-119,-202,0,0,0,0,0,0,0,0,0,-1,1105,1226,0,0
-112,-202,0,0,0,0,0,0,0,0,0,-1,1112,1226,0,0
-105,-202,0,0,0,0,0,0,0,0,0,-1,1119,1226,0,0
-98,-202,0,0,0,0,0,0,0,0,0,-1,1126,1226,0,0
-91,-202,0,0,0,0,0,0,0,0,0,-1,1133,1226,0,0
-84,-202,0,0,0,0,0,0,0,0,0,-1,1140,1226,0,0
-77,-202,0,0,0,0,0,0,0,0,0,-1,1147,1226,0,0
-70,-202,0,0,0,0,0,0,0,0,0,-1,1154,1226,0,0
-63,-202,0,0,0,0,0,0,0,0,0,-1,1161,1226,0,0
-56,-202,0,0,0,0,0,0,0,0,0,-1,1168,1226,0,0
-49,-202,0,0,0,0,0,0,0,0,0,-1,1175,1226,0,0
-42,-202,0,0,0,0,0,0,0,0,0,-1,1182,1226,0,0
-35,-202,0,0,0,0,0,0,0,0,0,-1,1189,1226,0,0
-28,-202,0,0,0,0,0,0,0,0,0,-1,1196,1226,0,0
-21,-202,0,0,0,0,0,0,0,0,0,-1,1203,1226,0,0
-14,-202,0,0,0,0,0,0,0,0,0,-1,1210,1226,0,0
-7,-202,0,0,0,0,0,0,0,0,0,-1,1217,1226,0,0
0,-202,0,0,0,0,0,0,0,0,0,-1,1224,1226,0,0
7,-202,0,0,0,0,0,0,0,0,0,-1,1231,1226,0,0
14,-202,0,0,0,0,0,0,0,0,0,-1,1238,1226,0,0
21,-202,0,0,0,0,0,0,0,0,0,-1,1245,1226,0,0
28,-202,0,0,0,0,0,0,0,0,0,-1,1252,1226,0,0
35,-202,0,0,0,0,0,0,0,0,0,-1,1259,1226,0,0
42,-202,0,0,0,0,0,0,0,0,0,-1,1266,1226,0,0
49,-202,0,0,0,0,0,0,0,0,0,-1,1273,1226,0,0
56,-202,0,0,0,0,0,0,0,0,0,-1,1280,1226,0,0
63,-202,0,0,0,0,0,0,0,0,0,-1,1287,1226,0,0
70,-202,0,0,0,0,0,0,0,0,0,-1,1294,1226,0,0
77,-202,0,0,0,0,0,0,0,0,0,-1,1301,1226,0,0
84,-202,0,0,0,0,0,0,0,0,0,-1,1308,1226,0,0
91,-202,0,0,0,0,0,0,0,0,0,-1,1315,1226,0,0
98,-202,0,0,0,0,0,0,0,0,0,-1,1322,1226,0,0
105,-202,0,0,0,0,0,0,0,0,0,-1,1329,1226,0,0
112,-202,0,0,0,0,0,0,0,0,0,-1,1336,1226,0,0
119,-202,0,0,0,0,0,0,0,0,0,-1,1343,1226,0,0
126,-202,0,0,0,0,0,0,0,0,0,-1,1350,1226,0,0
133,-202,0,0,0,0,0,0,0,0,0,-1,1357,1226,0,0
140,-202,0,0,0,0,0,0,0,0,0,-1,1364,1226,0,0
147,-202,0,0,0,0,0,0,0,0,0,-1,1371,1226,0,0
154,-202,0,0,0,0,0,0,0,0,0,-1,1378,1226,0,0
161,-202,0,0,0,0,0,0,0,0,0,-1,1385,1226,0,0
168,-202,0,0,0,0,0,0,0,0,0,-1,1392,1226,0,0
175,-202,0,0,0,0,0,0,0,0,0,-1,1399,1226,0,0
182,-202,0,0,0,0,0,0,0,0,0,-1,1406,1226,0,0
189,-202,0,0,0,0,0,0,0,0,0,-1,1413,1226,0,0
196,-202,0,0,0,0,0,0,0,0,0,-1,1420,1226,0,0
203,-202,0,0,0,0,0,0,0,0,0,-1,1427,1226,0,0
210,-202,0,0,0,0,0,0,0,0,0,-1,1434,1226,0,0
217,-202,0,0,0,0,0,0,0,0,0,-1,1441,1226,0,0
224,-202,0,0,0,0,0,0,0,0,0,-1,1448,1226,0,0
231,-202,0,0,0,0,0,0,0,0,0,-1,1455,1226,0,0
238,-202,0,0,0,0,0,0,0,0,0,-1,1462,1226,0,0
245,-202,0,0,0,0,0,0,0,0,0,-1,1469,1226,0,0
252,-202,0,0,0,0,0,0,0,0,0,-1,1476,1226,0,0
259,-202,0,0,0,0,0,0,0,0,0,-1,1483,1226,0,0
266,-202,0,0,0,0,0,0,0,0,0,-1,1490,1226,0,0
273,-202,0,0,0,0,0,0,0,0,0,-1,1497,1226,0,0
280,-202,0,0,0,0,0,0,0,0,0,-1,1504,1226,0,0
287,-202,0,0,0,0,0,0,0,0,0,-1,1511,1226,0,0
294,-202,0,0,0,0,0,0,0,0,0,-1,1518,1226,0,0
301,-202,0,0,0,0,0,0,0,0,0,-1,1525,1226,0,0
308,-202,0,0,0,0,0,0,0,0,0,-1,1532,1226,0,0
315,-202,0,0,0,0,0,0,0,0,0,-1,1539,1226,0,0
322,-202,0,0,0,0,0,0,0,0,0,-1,1546,1226,0,0
329,-202,0,0,0,0,0,0,0,0,0,-1,1553,1226,0,0
336,-202,0,0,0,0,0,0,0,0,0,-1,1560,1226,0,0
343,-202,0,0,0,0,0,0,0,0,0,-1,1567,1226,0,0
350,-202,0,0,0,0,0,0,0,0,0,-1,1574,1226,0,0
357,-202,0,0,0,0,0,0,0,0,0,-1,1581,1226,0,0
364,-202,0,0,0,0,0,0,0,0,0,-1,1588,1226,0,0
371,-202,0,0,0,0,0,0,0,0,0,-1,1595,1226,0,0
378,-202,0,0,0,0,0,0,0,0,0,-1,1602,1226,0,0
385,-202,0,0,0,0,0,0,0,0,0,-1,1609,1226,0,0
392,-202,0,0,0,0,0,0,0,0,0,-1,1616,1226,0,0
399,-202,0,0,0,0,0,0,0,0,0,-1,1623,1226,0,0
406,-202,0,0,0,0,0,0,0,0,0,-1,1630,1226,0,0
413,-202,0,0,0,0,0,0,0,0,0,-1,1637,1226,0,0
420,-202,0,0,0,0,0,0,0,0,0,-1,1644,1226,0,0
427,-202,0,0,0,0,0,0,0,0,0,-1,1651,1226,0,0
434,-202,0,0,0,0,0,0,0,0,0,-1,1658,1226,0,0
441,-202,0,0,0,0,0,0,0,0,0,-1,1665,1226,0,0
448,-202,0,0,0,0,0,0,0,0,0,-1,1672,1226,0,0
455,-202,0,0,0,0,0,0,0,0,0,-1,1679,1226,0,0
462,-202,0,0,0,0,0,0,0,0,0,-1,1686,1226,0,0
469,-202,0,0,0,0,0,0,0,0,0,-1,1693,1226,0,0
476,-202,0,0,0,0,0,0,0,0,0,-1,1700,1226,0,0
483,-202,0,0,0,0,0,0,0,0,0,-1,1707,1226,0,0
490,-202,0,0,0,0,0,0,0,0,0,-1,1714,1226,0,0
497,-202,0,0,0,0,0,0,0,0,0,-1,1721,1226,0,0
504,-202,0,0,0,0,0,0,0,0,0,-1,1728,1226,0,0
511,-202,0,0,0,0,0,0,0,0,0,-1,1735,1226,0,0
518,-202,0,0,0,0,0,0,0,0,0,-1,1742,1226,0,0
525,-202,0,0,0,0,0,0,0,0,0,-1,1749,1226,0,0
532,-202,0,0,0,0,0,0,0,0,0,-1,1756,1226,0,0
539,-202,0,0,0,0,0,0,0,0,0,-1,1763,1226,0,0
546,-202,0,0,0,0,0,0,0,0,0,-1,1770,1226,0,0
553,-202,0,0,0,0,0,0,0,0,0,-1,1777,1226,0,0
560,-202,0,0,0,0,0,0,0,0,0,-1,1784,1226,0,0
567,-202,0,0,0,0,0,0,0,0,0,-1,1791,1226,0,0
574,-202,0,0,0,0,0,0,0,0,0,-1,1798,1226,0,0
581,-202,0,0,0,0,0,0,0,0,0,-1,1805,1226,0,0
588,-202,0,0,0,0,0,0,0,0,0,-1,1812,1226,0,0
595,-202,0,0,0,0,0,0,0,0,0,-1,1819,1226,0,0
602,-202,0,0,0,0,0,0,0,0,0,-1,1826,1226,0,0
609,-202,0,0,0,0,0,0,0,0,0,-1,1833,1226,0,0
616,-202,0,0,0,0,0,0,0,0,0,-1,1840,1226,0,0
623,-202,0,0,0,0,0,0,0,0,0,-1,1847,1226,0,0
630,-202,77.6863,2.61206,-3.30153e-05,0.00193131,-0.000586031,0.00209286,-0.000194564,-1.30181,0.00146441,0.0388732,1854,1226,77.6863,-2.61207
637,-202,77.7958,2.72754,-5.75777e-05,0.00214363,-0.000687642,0.00234079,-0.000254733,-1.29157,0.001652,0.0399797,1861,1226,77.7958,-2.72754
644,-202,77.7698,2.53906,0.000168158,0.00225794,-0.000902068,0.00259346,-0.000167358,-1.21471,0.00178737,0.0352255,1868,1226,77.7697,-2.53905
651,-202,77.7224,2.51917,0.000520578,0.00220341,-0.00108317,0.00273358,-9.5875e-06,-1.11562,0.00182559,0.0262896,1875,1226,77.7224,-2.51918
658,-202,77.6667,2.48608,0.000426416,0.00172654,-0.000475057,0.00188163,0.000271333,-1.25525,0.00117447,0.0222398,1882,1226,77.6668,-2.48602
665,-202,77.7095,2.46008,0.000247206,0.00161516,4.73959e-05,0.0016168,0.000245565,1.5362,0.00100605,0.021473,1889,1226,77.7094,-2.46004
672,-202,77.7635,2.3291,0,0,0,0,0,0,0,-1,1896,1226,77.7635,-2.32906
679,-202,72.3511,2.32935,0,0,0,0,0,0,0,-1,1903,1226,72.3511,-2.32932
686,-202,49.1708,2.15198,0,0,0,0,0,0,0,-1,1910,1226,49.1708,-2.15195
693,-202,52.1176,12.0886,0,0,0,0,0,0,0,-1,1917,1226,52.1176,-12.0886
700,-202,61.8516,13.5786,0,0,0,0,0,0,0,-1,1924,1226,61.8516,-13.5786
707,-202,61.7853,12.6697,0.000672629,0.00142086,0.00113096,0.00223798,-0.000144487,0.945131,0.00154241,0.0336108,1931,1226,61.7853,-12.6697
714,-202,61.6655,12.1021,0.000468188,0.0018707,0.00125005,0.00260275,-0.000263868,1.04102,0.00182948,0.041971,1938,1226,61.6656,-12.1021
721,-202,61.647,11.4263,0.000274879,0.00217446,0.00130996,0.00284273,-0.000393387,1.09907,0.00203897,0.0316087,1945,1226,61.647,-11.4262
728,-202,61.6559,10.4747,0.000611233,0.00180586,0.00139288,0.0027241,-0.000307001,0.987956,0.00192657,0.0125151,1952,1226,61.6559,-10.4747
735,-202,61.6227,9.70618,0.000696274,0.0016866,0.00148708,0.00275879,-0.000375915,0.946113,0.00197645,0.0118474,1959,1226,61.6227,-9.70619
742,-202,61.5743,8.95178,0.000937261,0.00121016,0.00177759,0.00285653,-0.000709113,0.823703,0.00217952,0.013404,1966,1226,61.5744,-8.9518
749,-202,61.4901,8.21069,0.00173943,0.000722525,0.00225742,0.00354495,-0.001083,0.674629,0.00279513,0.0142633,1973,1226,61.4901,-8.21064
756,-202,61.4977,7.47815,0.00368768,0.000326932,0.00308438,0.00551972,-0.0015051,0.535976,0.00427085,0.0139555,1980,1226,61.4977,-7.47812
763,-202,61.5637,6.73132,0.0069699,-0.000208416,0.00419396,0.00890083,-0.00213935,0.431475,0.00676079,0.0280007,1987,1226,61.5638,-6.73135
770,-202,61.6089,6.03687,0,0,0,0,0,0,0,-1,1994,1226,61.609,-6.03689
777,-202,67.5615,-0.236572,0,0,0,0,0,0,0,-1,2001,1226,67.5615,0.236573
784,-202,66.7117,0.754517,0,0,0,0,0,0,0,-1,2008,1226,66.7118,-0.754543
791,-202,66.512,1.74207,0,0,0,0,0,0,0,-1,2015,1226,66.512,-1.74201
798,-202,51.8999,3.58789,0,0,0,0,0,0,0,-1,2022,1226,51.9,-3.58791
805,-202,0,0,0,0,0,0,0,0,0,-1,2029,1226,0,0
812,-202,0,0,0,0,0,0,0,0,0,-1,2036,1226,0,0
-700,-209,0,0,0,0,0,0,0,0,0,-1,524,1233,0,0
-693,-209,0,0,0,0,0,0,0,0,0,-1,531,1233,0,0
-686,-209,0,0,0,0,0,0,0,0,0,-1,538,1233,0,0
-679,-209,-43.5651,-1.98669,0,0,0,0,0,0,0,-1,545,1233,-43.5651,1.98668
-672,-209,-45.7134,3.70813,0,0,0,0,0,0,0,-1,552,1233,-45.7134,-3.70808
-665,-209,-47.3203,4.17615,0,0,0,0,0,0,0,-1,559,1233,-47.3203,-4.17618
-658,-209,-48.9473,4.63306,0,0,0,0,0,0,0,-1,566,1233,-48.9473,-4.63302
-651,-209,-40.8797,2.51941,0,0,0,0,0,0,0,-1,573,1233,-40.8797,-2.51942
-644,-209,-43.4648,-7.04663,0,0,0,0,0,0,0,-1,580,1233,-43.4648,7.04659
-637,-209,-44.3754,4.99573,0,0,0,0,0,0,0,-1,587,1233,-44.3754,-4.99567
-630,-209,-44.4324,5.82837,-0.00499172,0.00184677,-0.00402417,0.00370816,-0.00685312,-1.13755,0.00618702,0.0445648,594,1233,-44.4324,-5.82835
-623,-209,-44.6118,6.70569,-0.0030746,0.00152464,-0.0032549,0.00321032,-0.00476028,-1.09294,0.00463074,0.019224,601,1233,-44.6118,-6.70574
-616,-209,-44.6588,7.47644,-0.00149912,0.00127954,-0.00292141,0.00312516,-0.00334474,-1.00735,0.00373611,0.0130787,608,1233,-44.6588,-7.47641
-609,-209,-44.7118,8.25452,-0.000151902,0.00103684,-0.00300651,0.00350717,-0.00262224,-0.882987,0.00355109,0.0148056,615,1233,-44.7118,-8.25446
-602,-209,-44.7728,9.04126,0.00105221,0.000801722,-0.00346109,0.00439032,-0.00253639,-0.767313,0.0040466,0.016672,622,1233,-44.7728,-9.04127
-595,-209,-44.8407,9.88843,0.00187669,0.00028861,-0.00395945,0.00512093,-0.00295564,-0.68644,0.00471854,0.0245845,629,1233,-44.8407,-9.88846
-588,-209,-44.9861,10.6533,0.00289828,-0.000249426,-0.00389458,0.00552499,-0.00287614,-0.593374,0.00493011,0.0477172,636,1233,-44.9861,-10.6533
-581,-209,-44.7297,11.4022,0.0024374,-0.000327529,-0.00286228,0.00423359,-0.00212372,-0.560423,0.00373717,0.0476072,643,1233,-44.7297,-11.4022
-574,-209,-44.7951,12.1827,0.00162311,-0.00058161,-0.00207281,0.00286846,-0.00182696,-0.541009,0.00273304,0.0444286,650,1233,-44.7951,-12.1827
-567,-209,-44.7952,12.9677,0,0,0,0,0,0,0,-1,657,1233,-44.7952,-12.9677
-560,-209,-13.9294,4.16626,0,0,0,0,0,0,0,-1,664,1233,-13.9294,-4.16621
-553,-209,-22.7542,0.748779,0,0,0,0,0,0,0,-1,671,1233,-22.7541,-0.748796
-546,-209,-44.691,0.142822,0,0,0,0,0,0,0,-1,678,1233,-44.6911,-0.142844
-539,-209,-60.7996,0.484985,0,0,0,0,0,0,0,-1,685,1233,-60.7996,-0.485014
-532,-209,-60.9954,0.678345,-0.00275221,0.0026898,-0.000585632,0.00275211,-0.00281452,-1.4648,0.00321396,0.0393096,692,1233,-60.9954,-0.678344
-525,-209,-61.1959,0.856934,-0.00396082,0.00342558,1.67688e-05,0.00342562,-0.00396085,1.56853,0.00426831,0.0347379,699,1233,-61.1959,-0.856919
-518,-209,-61.2056,0.921753,-0.00432875,0.00546756,-0.000696472,0.00551683,-0.00437802,-1.50017,0.00572539,0.0428563,706,1233,-61.2056,-0.921763
-511,-209,-61.2375,0.933228,-0.00370414,0.00630108,-0.00227896,0.00679572,-0.00419878,-1.35706,0.00640643,0.0436367,713,1233,-61.2375,-0.933169
-504,-209,0,0,0,0,0,0,0,0,0,-1,720,1233,0,0
-497,-209,0,0,0,0,0,0,0,0,0,-1,727,1233,0,0
-490,-209,0,0,0,0,0,0,0,0,0,-1,734,1233,0,0
-483,-209,0,0,0,0,0,0,0,0,0,-1,741,1233,0,0
-476,-209,0,0,0,0,0,0,0,0,0,-1,748,1233,0,0
-469,-209,0,0,0,0,0,0,0,0,0,-1,755,1233,0,0
-462,-209,0,0,0,0,0,0,0,0,0,-1,762,1233,0,0
-455,-209,0,0,0,0,0,0,0,0,0,-1,769,1233,0,0
-448,-209,0,0,0,0,0,0,0,0,0,-1,776,1233,0,0
-441,-209,0,0,0,0,0,0,0,0,0,-1,783,1233,0,0
-434,-209,0,0,0,0,0,0,0,0,0,-1,790,1233,0,0
-427,-209,0,0,0,0,0,0,0,0,0,-1,797,1233,0,0
-420,-209,0,0,0,0,0,0,0,0,0,-1,804,1233,0,0
-413,-209,0,0,0,0,0,0,0,0,0,-1,811,1233,0,0
-406,-209,0,0,0,0,0,0,0,0,0,-1,818,1233,0,0
-399,-209,0,0,0,0,0,0,0,0,0,-1,825,1233,0,0
-392,-209,0,0,0,0,0,0,0,0,0,-1,832,1233,0,0
-385,-209,0,0,0,0,0,0,0,0,0,-1,839,1233,0,0
-378,-209,0,0,0,0,0,0,0,0,0,-1,846,1233,0,0
-371,-209,0,0,0,0,0,0,0,0,0,-1,853,1233,0,0
-364,-209,0,0,0,0,0,0,0,0,0,-1,860,1233,0,0
-357,-209,0,0,0,0,0,0,0,0,0,-1,867,1233,0,0
-350,-209,0,0,0,0,0,0,0,0,0,-1,874,1233,0,0
-343,-209,0,0,0,0,0,0,0,0,0,-1,881,1233,0,0
-336,-209,0,0,0,0,0,0,0,0,0,-1,888,1233,0,0
-329,-209,0,0,0,0,0,0,0,0,0,-1,895,1233,0,0
-322,-209,0,0,0,0,0,0,0,0,0,-1,902,1233,0,0
-315,-209,0,0,0,0,0,0,0,0,0,-1,909,1233,0,0
-308,-209,0,0,0,0,0,0,0,0,0,-1,916,1233,0,0
-301,-209,0,0,0,0,0,0,0,0,0,-1,923,1233,0,0
-294,-209,0,0,0,0,0,0,0,0,0,-1,930,1233,0,0
-287,-209,0,0,0,0,0,0,0,0,0,-1,937,1233,0,0
-280,-209,0,0,0,0,0,0,0,0,0,-1,944,1233,0,0
-273,-209,0,0,0,0,0,0,0,0,0,-1,951,1233,0,0
-266,-209,0,0,0,0,0,0,0,0,0,-1,958,1233,0,0
-259,-209,0,0,0,0,0,0,0,0,0,-1,965,1233,0,0
-252,-209,0,0,0,0,0,0,0,0,0,-1,972,1233,0,0
-245,-209,0,0,0,0,0,0,0,0,0,-1,979,1233,0,0
-238,-209,0,0,0,0,0,0,0,0,0,-1,986,1233,0,0
-231,-209,0,0,0,0,0,0,0,0,0,-1,993,1233,0,0
-224,-209,0,0,0,0,0,0,0,0,0,-1,1000,1233,0,0
-217,-209,0,0,0,0,0,0,0,0,0,-1,1007,1233,0,0
-210,-209,0,0,0,0,0,0,0,0,0,-1,1014,1233,0,0
-203,-209,0,0,0,0,0,0,0,0,0,-1,1021,1233,0,0
-196,-209,0,0,0,0,0,0,0,0,0,-1,1028,1233,0,0
-189,-209,0,0,0,0,0,0,0,0,0,-1,1035,1233,0,0
-182,-209,0,0,0,0,0,0,0,0,0,-1,1042,1233,0,0
-175,-209,0,0,0,0,0,0,0,0,0,-1,1049,1233,0,0
-168,-209,0,0,0,0,0,0,0,0,0,-1,1056,1233,0,0
-161,-209,0,0,0,0,0,0,0,0,0,-1,1063,1233,0,0
-154,-209,0,0,0,0,0,0,0,0,0,-1,1070,1233,0,0
-147,-209,0,0,0,0,0,0,0,0,0,-1,1077,1233,0,0
-140,-209,0,0,0,0,0,0,0,0,0,-1,1084,1233,0,0
-133,-209,0,0,0,0,0,0,0,0,0,-1,1091,1233,0,0
-126,-209,0,0,0,0,0,0,0,0,0,-1,1098,1233,0,0
-119,-209,0,0,0,0,0,0,0,0,0,-1,1105,1233,0,0
-112,-209,0,0,0,0,0,0,0,0,0,-1,1112,1233,0,0
-105,-209,0,0,0,0,0,0,0,0,0,-1,1119,1233,0,0
-98,-209,0,0,0,0,0,0,0,0,0,-1,1126,1233,0,0
-91,-209,0,0,0,0,0,0,0,0,0,-1,1133,1233,0,0
-84,-209,0,0,0,0,0,0,0,0,0,-1,1140,1233,0,0
-77,-209,0,0,0,0,0,0,0,0,0,-1,1147,1233,0,0
-70,-209,0,0,0,0,0,0,0,0,0,-1,1154,1233,0,0
-63,-209,0,0,0,0,0,0,0,0,0,-1,1161,1233,0,0
-56,-209,0,0,0,0,0,0,0,0,0,-1,1168,1233,0,0
-49,-209,0,0,0,0,0,0,0,0,0,-1,1175,1233,0,0
-42,-209,0,0,0,0,0,0,0,0,0,-1,1182,1233,0,0
-35,-209,0,0,0,0,0,0,0,0,0,-1,1189,1233,0,0
-28,-209,0,0,0,0,0,0,0,0,0,-1,1196,1233,0,0
-21,-209,0,0,0,0,0,0,0,0,0,-1,1203,1233,0,0
-14,-209,0,0,0,0,0,0,0,0,0,-1,1210,1233,0,0
-7,-209,0,0,0,0,0,0,0,0,0,-1,1217,1233,0,0
0,-209,0,0,0,0,0,0,0,0,0,-1,1224,1233,0,0
7,-209,0,0,0,0,0,0,0,0,0,-1,1231,1233,0,0
14,-209,0,0,0,0,0,0,0,0,0,-1,1238,1233,0,0
21,-209,0,0,0,0,0,0,0,0,0,-1,1245,1233,0,0
28,-209,0,0,0,0,0,0,0,0,0,-1,1252,1233,0,0
35,-209,0,0,0,0,0,0,0,0,0,-1,1259,1233,0,0
42,-209,0,0,0,0,0,0,0,0,0,-1,1266,1233,0,0
49,-209,0,0,0,0,0,0,0,0,0,-1,1273,1233,0,0
56,-209,0,0,0,0,0,0,0,0,0,-1,1280,1233,0,0
63,-209,0,0,0,0,0,0,0,0,0,-1,1287,1233,0,0
70,-209,0,0,0,0,0,0,0,0,0,-1,1294,1233,0,0
77,-209,0,0,0,0,0,0,0,0,0,-1,1301,1233,0,0
84,-209,0,0,0,0,0,0,0,0,0,-1,1308,1233,0,0
91,-209,0,0,0,0,0,0,0,0,0,-1,1315,1233,0,0
98,-209,0,0,0,0,0,0,0,0,0,-1,1322,1233,0,0
105,-209,0,0,0,0,0,0,0,0,0,-1,1329,1233,0,0
112,-209,0,0,0,0,0,0,0,0,0,-1,1336,1233,0,0
119,-209,0,0,0,0,0,0,0,0,0,-1,1343,1233,0,0
126,-209,0,0,0,0,0,0,0,0,0,-1,1350,1233,0,0
133,-209,0,0,0,0,0,0,0,0,0,-1,1357,1233,0,0
140,-209,0,0,0,0,0,0,0,0,0,-1,1364,1233,0,0
147,-209,0,0,0,0,0,0,0,0,0,-1,1371,1233,0,0
154,-209,0,0,0,0,0,0,0,0,0,-1,1378,1233,0,0
161,-209,0,0,0,0,0,0,0,0,0,-1,1385,1233,0,0
168,-209,0,0,0,0,0,0,0,0,0,-1,1392,1233,0,0
175,-209,0,0,0,0,0,0,0,0,0,-1,1399,1233,0,0
182,-209,0,0,0,0,0,0,0,0,0,-1,1406,1233,0,0
189,-209,0,0,0,0,0,0,0,0,0,-1,1413,1233,0,0
196,-209,0,0,0,0,0,0,0,0,0,-1,1420,1233,0,0
203,-209,0,0,0,0,0,0,0,0,0,-1,1427,1233,0,0
210,-209,0,0,0,0,0,0,0,0,0,-1,1434,1233,0,0
217,-209,0,0,0,0,0,0,0,0,0,-1,1441,1233,0,0
224,-209,0,0,0,0,0,0,0,0,0,-1,1448,1233,0,0
231,-209,0,0,0,0,0,0,0,0,0,-1,1455,1233,0,0
238,-209,0,0,0,0,0,0,0,0,0,-1,1462,1233,0,0
245,-209,0,0,0,0,0,0,0,0,0,-1,1469,1233,0,0
252,-209,0,0,0,0,0,0,0,0,0,-1,1476,1233,0,0
259,-209,0,0,0,0,0,0,0,0,0,-1,1483,1233,0,0
266,-209,0,0,0,0,0,0,0,0,0,-1,1490,1233,0,0
273,-209,0,0,0,0,0,0,0,0,0,-1,1497,1233,0,0
280,-209,0,0,0,0,0,0,0,0,0,-1,1504,1233,0,0
287,-209,0,0,0,0,0,0,0,0,0,-1,1511,1233,0,0
294,-209,0,0,0,0,0,0,0,0,0,-1,1518,1233,0,0
301,-209,0,0,0,0,0,0,0,0,0,-1,1525,1233,0,0
308,-209,0,0,0,0,0,0,0,0,0,-1,1532,1233,0,0
315,-209,0,0,0,0,0,0,0,0,0,-1,1539,1233,0,0
322,-209,0,0,0,0,0,0,0,0,0,-1,1546,1233,0,0
329,-209,0,0,0,0,0,0,0,0,0,-1,1553,1233,0,0
336,-209,0,0,0,0,0,0,0,0,0,-1,1560,1233,0,0
343,-209,0,0,0,0,0,0,0,0,0,-1,1567,1233,0,0
350,-209,0,0,0,0,0,0,0,0,0,-1,1574,1233,0,0
357,-209,0,0,0,0,0,0,0,0,0,-1,1581,1233,0,0
364,-209,0,0,0,0,0,0,0,0,0,-1,1588,1233,0,0
371,-209,0,0,0,0,0,0,0,0,0,-1,1595,1233,0,0
378,-209,0,0,0,0,0,0,0,0,0,-1,1602,1233,0,0
385,-209,0,0,0,0,0,0,0,0,0,-1,1609,1233,0,0
392,-209,0,0,0,0,0,0,0,0,0,-1,1616,1233,0,0
399,-209,0,0,0,0,0,0,0,0,0,-1,1623,1233,0,0
406,-209,0,0,0,0,0,0,0,0,0,-1,1630,1233,0,0
413,-209,0,0,0,0,0,0,0,0,0,-1,1637,1233,0,0
420,-209,0,0,0,0,0,0,0,0,0,-1,1644,1233,0,0
427,-209,0,0,0,0,0,0,0,0,0,-1,1651,1233,0,0
434,-209,0,0,0,0,0,0,0,0,0,-1,1658,1233,0,0
441,-209,0,0,0,0,0,0,0,0,0,-1,1665,1233,0,0
448,-209,0,0,0,0,0,0,0,0,0,-1,1672,1233,0,0
455,-209,0,0,0,0,0,0,0,0,0,-1,1679,1233,0,0
462,-209,0,0,0,0,0,0,0,0,0,-1,1686,1233,0,0
469,-209,0,0,0,0,0,0,0,0,0,-1,1693,1233,0,0
476,-209,0,0,0,0,0,0,0,0,0,-1,1700,1233,0,0
483,-209,0,0,0,0,0,0,0,0,0,-1,1707,1233,0,0
490,-209,0,0,0,0,0,0,0,0,0,-1,1714,1233,0,0
497,-209,0,0,0,0,0,0,0,0,0,-1,1721,1233,0,0
504,-209,0,0,0,0,0,0,0,0,0,-1,1728,1233,0,0
511,-209,0,0,0,0,0,0,0,0,0,-1,1735,1233,0,0
518,-209,0,0,0,0,0,0,0,0,0,-1,1742,1233,0,0
525,-209,0,0,0,0,0,0,0,0,0,-1,1749,1233,0,0
532,-209,0,0,0,0,0,0,0,0,0,-1,1756,1233,0,0
539,-209,0,0,0,0,0,0,0,0,0,-1,1763,1233,0,0
546,-209,0,0,0,0,0,0,0,0,0,-1,1770,1233,0,0
553,-209,0,0,0,0,0,0,0,0,0,-1,1777,1233,0,0
560,-209,0,0,0,0,0,0,0,0,0,-1,1784,1233,0,0
567,-209,0,0,0,0,0,0,0,0,0,-1,1791,1233,0,0
574,-209,0,0,0,0,0,0,0,0,0,-1,1798,1233,0,0
581,-209,0,0,0,0,0,0,0,0,0,-1,1805,1233,0,0
588,-209,0,0,0,0,0,0,0,0,0,-1,1812,1233,0,0
595,-209,0,0,0,0,0,0,0,0,0,-1,1819,1233,0,0
602,-209,0,0,0,0,0,0,0,0,0,-1,1826,1233,0,0
609,-209,0,0,0,0,0,0,0,0,0,-1,1833,1233,0,0
616,-209,0,0,0,0,0,0,0,0,0,-1,1840,1233,0,0
623,-209,77.6084,2.37573,0.000633679,0.00153178,-0.000609106,0.00183947,0.00032599,-1.10304,0.00113339,0.0330131,1847,1233,77.6084,-2.37574
630,-209,77.6221,2.37573,-6.6929e-05,0.00207593,-0.000669053,0.00226767,-0.000258667,-1.29169,0.00160496,0.0360018,1854,1233,77.622,-2.37567
637,-209,77.7397,2.48401,-0.000345787,0.00235308,-0.000844695,0.00259566,-0.000588358,-1.29115,0.00195627,0.037824,1861,1233,77.7398,-2.484
644,-209,77.7484,2.53589,-0.000250325,0.00247489,-0.0011219,0.00287732,-0.000652755,-1.22639,0.0021688,0.031651,1868,1233,77.7485,-2.53593
651,-209,77.7207,2.51611,2.07908e-05,0.00231929,-0.00122182,0.00284743,-0.000507347,-1.1628,0.00208805,0.0244635,1875,1233,77.7207,-2.51613
658,-209,77.6835,2.47986,-0.000103874,0.00168363,-0.00046016,0.00179514,-0.000215378,-1.33306,0.00127463,0.0214771,1882,1233,77.6835,-2.4799
665,-209,77.8079,2.51697,-0.000220706,0.00151992,4.56964e-05,0.00152112,-0.000221905,1.54457,0.00109556,0.0377766,1889,1233,77.8079,-2.51698
672,-209,78.0297,2.62231,0,0,0,0,0,0,0,-1,1896,1233,78.0297,-2.62237
679,-209,55.2465,2.78674,0,0,0,0,0,0,0,-1,1903,1233,55.2464,-2.78678
686,-209,33.3711,3.89856,0,0,0,0,0,0,0,-1,1910,1233,33.3711,-3.89855
693,-209,60.7567,13.6616,0,0,0,0,0,0,0,-1,1917,1233,60.7567,-13.6616
700,-209,60.9519,13.5084,0,0,0,0,0,0,0,-1,1924,1233,60.952,-13.5084
707,-209,60.8925,12.7227,0.000342965,0.00108661,0.00123812,0.00200753,-0.000577954,0.931271,0.00156695,0.0357313,1931,1233,60.8925,-12.7226
714,-209,60.87,12.0431,0.000128017,0.0015824,0.00139675,0.00242992,-0.000719504,1.02541,0.00190561,0.0246519,1938,1233,60.87,-12.0431
721,-209,60.927,11.2598,-9.67029e-05,0.00183835,0.00151824,0.00267114,-0.000929496,1.06909,0.00215837,0.014961,1945,1233,60.927,-11.2598
728,-209,60.9215,10.5099,3.50229e-05,0.00143913,0.00164862,0.00252896,-0.0010548,0.986691,0.00212663,0.0141712,1952,1233,60.9215,-10.5099
735,-209,60.8795,9.76318,-0.000148801,0.00126964,0.00185561,0.00254695,-0.00142611,0.967934,0.00232407,0.0169723,1959,1233,60.8795,-9.76323
742,-209,60.8169,8.98596,-0.000370135,0.000877109,0.00232017,0.002656,-0.00214903,0.916687,0.00277933,0.0170025,1966,1233,60.8169,-8.986
749,-209,60.7274,8.23877,-0.000433124,0.00049632,0.00302854,0.00309558,-0.00303239,0.861528,0.00353805,0.0151173,1973,1233,60.7274,-8.2388
756,-209,60.7086,7.51709,-8.99179e-05,0.00024054,0.00404698,0.00412566,-0.00397504,0.805801,0.00467721,0.0136158,1980,1233,60.7086,-7.51706
763,-209,60.6781,6.86133,0.000794797,-0.000151467,0.00563792,0.00597941,-0.00533608,0.743536,0.00653652,0.028867,1987,1233,60.6782,-6.86129
770,-209,60.7886,6.35938,0,0,0,0,0,0,0,-1,1994,1233,60.7887,-6.35935
777,-209,68.0347,-0.36377,0,0,0,0,0,0,0,-1,2001,1233,68.0346,0.363742
784,-209,67.6289,0.771729,0,0,0,0,0,0,0,-1,2008,1233,67.6289,-0.771742
791,-209,67.1841,1.90906,0,0,0,0,0,0,0,-1,2015,1233,67.1841,-1.90909
798,-209,53.6404,3.71179,0,0,0,0,0,0,0,-1,2022,1233,53.6404,-3.71185
805,-209,0,0,0,0,0,0,0,0,0,-1,2029,1233,0,0
812,-209,0,0,0,0,0,0,0,0,0,-1,2036,1233,0,0
-700,-216,0,0,0,0,0,0,0,0,0,-1,524,1240,0,0
-693,-216,0,0,0,0,0,0,0,0,0,-1,531,1240,0,0
-686,-216,0,0,0,0,0,0,0,0,0,-1,538,1240,0,0
-679,-216,-44.4113,2.96509,0,0,0,0,0,0,0,-1,545,1240,-44.4113,-2.96514
-672,-216,-46.0019,3.48901,0,0,0,0,0,0,0,-1,552,1240,-46.0019,-3.48904
-665,-216,-47.6393,4.02075,0,0,0,0,0,0,0,-1,559,1240,-47.6392,-4.02069
-658,-216,-49.2646,4.4613,0,0,0,0,0,0,0,-1,566,1240,-49.2646,-4.4613
-651,-216,-42.788,-8.0509,0,0,0,0,0,0,0,-1,573,1240,-42.788,8.05092
-644,-216,-45.6099,1.72839,0,0,0,0,0,0,0,-1,580,1240,-45.6099,-1.72843
-637,-216,-42.9419,4.46118,0,0,0,0,0,0,0,-1,587,1240,-42.9419,-4.46123
-630,-216,-43.5405,5.9873,0,0,0,0,0,0,0,-1,594,1240,-43.5404,-5.98735
-623,-216,-43.7709,6.87976,-0.00253849,0.0017171,-0.00233409,0.00274771,-0.00356909,-1.155,0.00365727,0.0251121,601,1240,-43.7709,-6.87973
-616,-216,-43.887,7.55017,-0.0011636,0.00140274,-0.00214825,0.00262187,-0.00238273,-1.05462,0.00289051,0.014444,608,1240,-43.8869,-7.55022
-609,-216,-43.9235,8.32166,-0.00011496,0.00110713,-0.00233016,0.00290503,-0.00191286,-0.913628,0.0028012,0.0138357,615,1240,-43.9235,-8.32164
-602,-216,-43.9634,9.07544,0.00073948,0.000780427,-0.00280982,0.00356985,-0.00204994,-0.789041,0.00328391,0.0135075,622,1240,-43.9635,-9.0754
-595,-216,-44.0164,9.85913,0.00127305,0.000284723,-0.0034042,0.00421877,-0.00266099,-0.71332,0.00400583,0.0206719,629,1240,-44.0164,-9.8591
-588,-216,-44.0479,10.5417,0.00193701,-0.000274679,-0.00362523,0.00462131,-0.00295897,-0.63736,0.00441141,0.0441725,636,1240,-44.0478,-10.5417
-581,-216,-44.0911,10.8918,0,0,0,0,0,0,0,-1,643,1240,-44.0911,-10.8919
-574,-216,-44.1705,12.1818,0,0,0,0,0,0,0,-1,650,1240,-44.1705,-12.1818
-567,-216,-44.159,12.8563,0,0,0,0,0,0,0,-1,657,1240,-44.159,-12.8563
-560,-216,-16.5087,5.4574,0,0,0,0,0,0,0,-1,664,1240,-16.5087,-5.45746
-553,-216,-16.2355,1.22351,0,0,0,0,0,0,0,-1,671,1240,-16.2356,-1.22356
-546,-216,-37.1617,-0.25415,0,0,0,0,0,0,0,-1,678,1240,-37.1618,0.254161
-539,-216,-47.7817,1.47327,0,0,0,0,0,0,0,-1,685,1240,-47.7818,-1.4733
-532,-216,-60.8713,0.657349,0,0,0,0,0,0,0,-1,692,1240,-60.8713,-0.657342
-525,-216,-61.1105,0.789307,0,0,0,0,0,0,0,-1,699,1240,-61.1105,-0.789358
-518,-216,-60.9247,0.551514,-0.00624634,0.00663715,-0.000918125,0.00670225,-0.00631144,-1.50001,0.00751458,0.0444876,706,1240,-60.9247,-0.551562
-511,-216,-60.9741,0.652222,-0.00570815,0.00838402,-0.00172488,0.00859207,-0.00591621,-1.45076,0.00842372,0.0426889,713,1240,-60.974,-0.652191
-504,-216,-61.0635,0.67749,-0.00338517,0.00610746,-0.00342292,0.00721298,-0.00449068,-1.2584,0.00681777,0.0409769,720,1240,-61.0635,-0.677508
-497,-216,0,0,0,0,0,0,0,0,0,-1,727,1240,0,0
-490,-216,0,0,0,0,0,0,0,0,0,-1,734,1240,0,0
-483,-216,0,0,0,0,0,0,0,0,0,-1,741,1240,0,0
-476,-216,0,0,0,0,0,0,0,0,0,-1,748,1240,0,0
-469,-216,0,0,0,0,0,0,0,0,0,-1,755,1240,0,0
-462,-216,0,0,0,0,0,0,0,0,0,-1,762,1240,0,0
-455,-216,0,0,0,0,0,0,0,0,0,-1,769,1240,0,0
-448,-216,0,0,0,0,0,0,0,0,0,-1,776,1240,0,0
-441,-216,0,0,0,0,0,0,0,0,0,-1,783,1240,0,0
-434,-216,0,0,0,0,0,0,0,0,0,-1,790,1240,0,0
-427,-216,0,0,0,0,0,0,0,0,0,-1,797,1240,0,0
-420,-216,0,0,0,0,0,0,0,0,0,-1,804,1240,0,0
-413,-216,0,0,0,0,0,0,0,0,0,-1,811,1240,0,0
-406,-216,0,0,0,0,0,0,0,0,0,-1,818,1240,0,0
-399,-216,0,0,0,0,0,0,0,0,0,-1,825,1240,0,0
-392,-216,0,0,0,0,0,0,0,0,0,-1,832,1240,0,0
-385,-216,0,0,0,0,0,0,0,0,0,-1,839,1240,0,0
-378,-216,0,0,0,0,0,0,0,0,0,-1,846,1240,0,0
-371,-216,0,0,0,0,0,0,0,0,0,-1,853,1240,0,0
-364,-216,0,0,0,0,0,0,0,0,0,-1,860,1240,0,0
-357,-216,0,0,0,0,0,0,0,0,0,-1,867,1240,0,0
-350,-216,0,0,0,0,0,0,0,0,0,-1,874,1240,0,0
-343,-216,0,0,0,0,0,0,0,0,0,-1,881,1240,0,0
-336,-216,0,0,0,0,0,0,0,0,0,-1,888,1240,0,0
-329,-216,0,0,0,0,0,0,0,0,0,-1,895,1240,0,0
-322,-216,0,0,0,0,0,0,0,0,0,-1,902,1240,0,0
-315,-216,0,0,0,0,0,0,0,0,0,-1,909,1240,0,0
-308,-216,0,0,0,0,0,0,0,0,0,-1,916,1240,0,0
-301,-216,0,0,0,0,0,0,0,0,0,-1,923,1240,0,0
-294,-216,0,0,0,0,0,0,0,0,0,-1,930,1240,0,0
-287,-216,0,0,0,0,0,0,0,0,0,-1,937,1240,0,0
-280,-216,0,0,0,0,0,0,0,0,0,-1,944,1240,0,0
-273,-216,0,0,0,0,0,0,0,0,0,-1,951,1240,0,0
-266,-216,0,0,0,0,0,0,0,0,0,-1,958,1240,0,0
-259,-216,0,0,0,0,0,0,0,0,0,-1,965,1240,0,0
-252,-216,0,0,0,0,0,0,0,0,0,-1,972,1240,0,0
-245,-216,0,0,0,0,0,0,0,0,0,-1,979,1240,0,0
-238,-216,0,0,0,0,0,0,0,0,0,-1,986,1240,0,0
-231,-216,0,0,0,0,0,0,0,0,0,-1,993,1240,0,0
-224,-216,0,0,0,0,0,0,0,0,0,-1,1000,1240,0,0
-217,-216,0,0,0,0,0,0,0,0,0,-1,1007,1240,0,0
-210,-216,0,0,0,0,0,0,0,0,0,-1,1014,1240,0,0
-203,-216,0,0,0,0,0,0,0,0,0,-1,1021,1240,0,0
-196,-216,0,0,0,0,0,0,0,0,0,-1,1028,1240,0,0
-189,-216,0,0,0,0,0,0,0,0,0,-1,1035,1240,0,0
-182,-216,0,0,0,0,0,0,0,0,0,-1,1042,1240,0,0
-175,-216,0,0,0,0,0,0,0,0,0,-1,1049,1240,0,0
-168,-216,0,0,0,0,0,0,0,0,0,-1,1056,1240,0,0
-161,-216,0,0,0,0,0,0,0,0,0,-1,1063,1240,0,0
-154,-216,0,0,0,0,0,0,0,0,0,-1,1070,1240,0,0
-147,-216,0,0,0,0,0,0,0,0,0,-1,1077,1240,0,0
-140,-216,0,0,0,0,0,0,0,0,0,-1,1084,1240,0,0
-133,-216,0,0,0,0,0,0,0,0,0,-1,1091,1240,0,0
-126,-216,0,0,0,0,0,0,0,0,0,-1,1098,1240,0,0
-119,-216,0,0,0,0,0,0,0,0,0,-1,1105,1240,0,0
-112,-216,0,0,0,0,0,0,0,0,0,-1,1112,1240,0,0
-105,-216,0,0,0,0,0,0,0,0,0,-1,1119,1240,0,0
-98,-216,0,0,0,0,0,0,0,0,0,-1,1126,1240,0,0
-91,-216,0,0,0,0,0,0,0,0,0,-1,1133,1240,0,0
-84,-216,0,0,0,0,0,0,0,0,0,-1,1140,1240,0,0
-77,-216,0,0,0,0,0,0,0,0,0,-1,1147,1240,0,0
-70,-216,0,0,0,0,0,0,0,0,0,-1,1154,1240,0,0
-63,-216,0,0,0,0,0,0,0,0,0,-1,1161,1240,0,0
-56,-216,0,0,0,0,0,0,0,0,0,-1,1168,1240,0,0
-49,-216,0,0,0,0,0,0,0,0,0,-1,1175,1240,0,0
-42,-216,0,0,0,0,0,0,0,0,0,-1,1182,1240,0,0
-35,-216,0,0,0,0,0,0,0,0,0,-1,1189,1240,0,0
-28,-216,0,0,0,0,0,0,0,0,0,-1,1196,1240,0,0
-21,-216,0,0,0,0,0,0,0,0,0,-1,1203,1240,0,0
-14,-216,0,0,0,0,0,0,0,0,0,-1,1210,1240,0,0
-7,-216,0,0,0,0,0,0,0,0,0,-1,1217,1240,0,0
0,-216,0,0,0,0,0,0,0,0,0,-1,1224,1240,0,0
7,-216,0,0,0,0,0,0,0,0,0,-1,1231,1240,0,0
14,-216,0,0,0,0,0,0,0,0,0,-1,1238,1240,0,0
21,-216,0,0,0,0,0,0,0,0,0,-1,1245,1240,0,0
28,-216,0,0,0,0,0,0,0,0,0,-1,1252,1240,0,0
35,-216,0,0,0,0,0,0,0,0,0,-1,1259,1240,0,0
42,-216,0,0,0,0,0,0,0,0,0,-1,1266,1240,0,0
49,-216,0,0,0,0,0,0,0,0,0,-1,1273,1240,0,0
56,-216,0,0,0,0,0,0,0,0,0,-1,1280,1240,0,0
63,-216,0,0,0,0,0,0,0,0,0,-1,1287,1240,0,0
70,-216,0,0,0,0,0,0,0,0,0,-1,1294,1240,0,0
77,-216,0,0,0,0,0,0,0,0,0,-1,1301,1240,0,0
84,-216,0,0,0,0,0,0,0,0,0,-1,1308,1240,0,0
91,-216,0,0,0,0,0,0,0,0,0,-1,1315,1240,0,0
98,-216,0,0,0,0,0,0,0,0,0,-1,1322,1240,0,0
105,-216,0,0,0,0,0,0,0,0,0,-1,1329,1240,0,0
112,-216,0,0,0,0,0,0,0,0,0,-1,1336,1240,0,0
119,-216,0,0,0,0,0,0,0,0,0,-1,1343,1240,0,0
126,-216,0,0,0,0,0,0,0,0,0,-1,1350,1240,0,0
133,-216,0,0,0,0,0,0,0,0,0,-1,1357,1240,0,0
140,-216,0,0,0,0,0,0,0,0,0,-1,1364,1240,0,0
147,-216,0,0,0,0,0,0,0,0,0,-1,1371,1240,0,0
154,-216,0,0,0,0,0,0,0,0,0,-1,1378,1240,0,0
161,-216,0,0,0,0,0,0,0,0,0,-1,1385,1240,0,0
168,-216,0,0,0,0,0,0,0,0,0,-1,1392,1240,0,0
175,-216,0,0,0,0,0,0,0,0,0,-1,1399,1240,0,0
182,-216,0,0,0,0,0,0,0,0,0,-1,1406,1240,0,0
189,-216,0,0,0,0,0,0,0,0,0,-1,1413,1240,0,0
196,-216,0,0,0,0,0,0,0,0,0,-1,1420,1240,0,0
203,-216,0,0,0,0,0,0,0,0,0,-1,1427,1240,0,0
210,-216,0,0,0,0,0,0,0,0,0,-1,1434,1240,0,0
217,-216,0,0,0,0,0,0,0,0,0,-1,1441,1240,0,0
224,-216,0,0,0,0,0,0,0,0,0,-1,1448,1240,0,0
231,-216,0,0,0,0,0,0,0,0,0,-1,1455,1240,0,0
238,-216,0,0,0,0,0,0,0,0,0,-1,1462,1240,0,0
245,-216,0,0,0,0,0,0,0,0,0,-1,1469,1240,0,0
252,-216,0,0,0,0,0,0,0,0,0,-1,1476,1240,0,0
259,-216,0,0,0,0,0,0,0,0,0,-1,1483,1240,0,0
266,-216,0,0,0,0,0,0,0,0,0,-1,1490,1240,0,0
273,-216,0,0,0,0,0,0,0,0,0,-1,1497,1240,0,0
280,-216,0,0,0,0,0,0,0,0,0,-1,1504,1240,0,0
287,-216,0,0,0,0,0,0,0,0,0,-1,1511,1240,0,0
294,-216,0,0,0,0,0,0,0,0,0,-1,1518,1240,0,0
301,-216,0,0,0,0,0,0,0,0,0,-1,1525,1240,0,0
308,-216,0,0,0,0,0,0,0,0,0,-1,1532,1240,0,0
315,-216,0,0,0,0,0,0,0,0,0,-1,1539,1240,0,0
322,-216,0,0,0,0,0,0,0,0,0,-1,1546,1240,0,0
329,-216,0,0,0,0,0,0,0,0,0,-1,1553,1240,0,0
336,-216,0,0,0,0,0,0,0,0,0,-1,1560,1240,0,0
343,-216,0,0,0,0,0,0,0,0,0,-1,1567,1240,0,0
350,-216,0,0,0,0,0,0,0,0,0,-1,1574,1240,0,0
357,-216,0,0,0,0,0,0,0,0,0,-1,1581,1240,0,0
364,-216,0,0,0,0,0,0,0,0,0,-1,1588,1240,0,0
371,-216,0,0,0,0,0,0,0,0,0,-1,1595,1240,0,0
378,-216,0,0,0,0,0,0,0,0,0,-1,1602,1240,0,0
385,-216,0,0,0,0,0,0,0,0,0,-1,1609,1240,0,0
392,-216,0,0,0,0,0,0,0,0,0,-1,1616,1240,0,0
399,-216,0,0,0,0,0,0,0,0,0,-1,1623,1240,0,0
406,-216,0,0,0,0,0,0,0,0,0,-1,1630,1240,0,0
413,-216,0,0,0,0,0,0,0,0,0,-1,1637,1240,0,0
420,-216,0,0,0,0,0,0,0,0,0,-1,1644,1240,0,0
427,-216,0,0,0,0,0,0,0,0,0,-1,1651,1240,0,0
434,-216,0,0,0,0,0,0,0,0,0,-1,1658,1240,0,0
441,-216,0,0,0,0,0,0,0,0,0,-1,1665,1240,0,0
448,-216,0,0,0,0,0,0,0,0,0,-1,1672,1240,0,0
455,-216,0,0,0,0,0,0,0,0,0,-1,1679,1240,0,0
462,-216,0,0,0,0,0,0,0,0,0,-1,1686,1240,0,0
469,-216,0,0,0,0,0,0,0,0,0,-1,1693,1240,0,0
476,-216,0,0,0,0,0,0,0,0,0,-1,1700,1240,0,0
483,-216,0,0,0,0,0,0,0,0,0,-1,1707,1240,0,0
490,-216,0,0,0,0,0,0,0,0,0,-1,1714,1240,0,0
497,-216,0,0,0,0,0,0,0,0,0,-1,1721,1240,0,0
504,-216,0,0,0,0,0,0,0,0,0,-1,1728,1240,0,0
511,-216,0,0,0,0,0,0,0,0,0,-1,1735,1240,0,0
518,-216,0,0,0,0,0,0,0,0,0,-1,1742,1240,0,0
525,-216,0,0,0,0,0,0,0,0,0,-1,1749,1240,0,0
532,-216,0,0,0,0,0,0,0,0,0,-1,1756,1240,0,0
539,-216,0,0,0,0,0,0,0,0,0,-1,1763,1240,0,0
546,-216,0,0,0,0,0,0,0,0,0,-1,1770,1240,0,0
553,-216,0,0,0,0,0,0,0,0,0,-1,1777,1240,0,0
560,-216,0,0,0,0,0,0,0,0,0,-1,1784,1240,0,0
567,-216,0,0,0,0,0,0,0,0,0,-1,1791,1240,0,0
574,-216,0,0,0,0,0,0,0,0,0,-1,1798,1240,0,0
581,-216,0,0,0,0,0,0,0,0,0,-1,1805,1240,0,0
588,-216,0,0,0,0,0,0,0,0,0,-1,1812,1240,0,0
595,-216,0,0,0,0,0,0,0,0,0,-1,1819,1240,0,0
602,-216,0,0,0,0,0,0,0,0,0,-1,1826,1240,0,0
609,-216,0,0,0,0,0,0,0,0,0,-1,1833,1240,0,0
616,-216,0,0,0,0,0,0,0,0,0,-1,1840,1240,0,0
623,-216,77.568,2.52258,0.000914611,0.00157868,-0.000352647,0.00173101,0.000762284,-1.16305,0.00100176,0.0377627,1847,1240,77.568,-2.52254
630,-216,77.584,2.36694,-0.000121415,0.00234291,-0.000631718,0.00249541,-0.000273915,-1.33392,0.00176202,0.037959,1854,1240,77.584,-2.36696
637,-216,77.7151,2.4071,-0.000693995,0.00284131,-0.000980803,0.00309518,-0.00094787,-1.31751,0.00244153,0.034478,1861,1240,77.7151,-2.40705
644,-216,77.6831,2.5271,-0.000699941,0.00301469,-0.00135045,0.00345375,-0.001139,-1.25645,0.0027616,0.0276614,1868,1240,77.6831,-2.52715
651,-216,77.6617,2.53198,-0.000468836,0.00271091,-0.00131848,0.00318649,-0.000944414,-1.22462,0.00249933,0.0242426,1875,1240,77.6618,-2.53193
658,-216,77.7262,2.54907,-0.000574701,0.00190762,-0.000449231,0.00198642,-0.000653499,-1.39716,0.0015876,0.0344166,1882,1240,77.7262,-2.5491
665,-216,77.8384,2.57751,0,0,0,0,0,0,0,-1,1889,1240,77.8384,-2.57751
672,-216,68.6339,1.33826,0,0,0,0,0,0,0,-1,1896,1240,68.6339,-1.33828
679,-216,47.3159,3.82703,0,0,0,0,0,0,0,-1,1903,1240,47.316,-3.82708
686,-216,21.5172,6.19458,0,0,0,0,0,0,0,-1,1910,1240,21.5172,-6.19453
693,-216,56.1224,12.7039,0,0,0,0,0,0,0,-1,1917,1240,56.1224,-12.7038
700,-216,59.896,12.7087,0,0,0,0,0,0,0,-1,1924,1240,59.896,-12.7087
707,-216,60.3126,12.6299,0,0,0,0,0,0,0,-1,1931,1240,60.3126,-12.6299
714,-216,60.2157,11.9869,-0.000213323,0.00126625,0.00157962,0.00227073,-0.00121781,1.00439,0.00204446,0.0286701,1938,1240,60.2158,-11.9869
721,-216,60.1887,11.3031,-0.000513531,0.00137166,0.00178348,0.00244631,-0.00158818,1.0285,0.00234681,0.0147825,1945,1240,60.1887,-11.3031
728,-216,60.2054,10.5481,-0.000663662,0.000953436,0.00199799,0.00230028,-0.00201051,0.977666,0.00249071,0.0144482,1952,1240,60.2055,-10.548
735,-216,60.1934,9.81433,-0.00112955,0.000738734,0.00233952,0.00232372,-0.00271453,0.975344,0.00291175,0.0164563,1959,1240,60.1934,-9.81436
742,-216,60.0676,9.06616,-0.00181506,0.00040414,0.00299575,0.00248918,-0.0039001,0.96276,0.00371871,0.0181355,1966,1240,60.0676,-9.06616
749,-216,60.0001,8.28406,-0.00260794,8.10622e-05,0.00394149,0.00290106,-0.00542794,0.949767,0.00488196,0.0137102,1973,1240,60.0001,-8.28406
756,-216,59.9557,7.53833,-0.00346729,-0.00022622,0.00521798,0.00361708,-0.00731059,0.93596,0.0064281,0.0120675,1980,1240,59.9557,-7.53831
763,-216,59.8987,6.84827,-0.00466673,-0.000733969,0.00739536,0.00495197,-0.0103527,0.915339,0.00901766,0.0238669,1987,1240,59.8987,-6.84829
770,-216,60.0862,6.14099,0,0,0,0,0,0,0,-1,1994,1240,60.0861,-6.14096
777,-216,59.8994,5.44617,0,0,0,0,0,0,0,-1,2001,1240,59.8993,-5.44612
784,-216,68.2205,0.660034,0,0,0,0,0,0,0,-1,2008,1240,68.2204,-0.660033
791,-216,67.71,1.8468,0,0,0,0,0,0,0,-1,2015,1240,67.7099,-1.84686
798,-216,0,0,0,0,0,0,0,0,0,-1,2022,1240,0,0
805,-216,0,0,0,0,0,0,0,0,0,-1,2029,1240,0,0
812,-216,0,0,0,0,0,0,0,0,0,-1,2036,1240,0,0
-700,-223,0,0,0,0,0,0,0,0,0,-1,524,1247,0,0
-693,-223,0,0,0,0,0,0,0,0,0,-1,531,1247,0,0
-686,-223,0,0,0,0,0,0,0,0,0,-1,538,1247,0,0
-679,-223,0,0,0,0,0,0,0,0,0,-1,545,1247,0,0
-672,-223,-46.3007,3.27185,0,0,0,0,0,0,0,-1,552,1247,-46.3007,-3.27184
-665,-223,-47.9709,3.83252,0,0,0,0,0,0,0,-1,559,1247,-47.9709,-3.83247
-658,-223,-39.6435,-8.36633,0,0,0,0,0,0,0,-1,566,1247,-39.6435,8.36633
-651,-223,-40.2339,-7.32275,0,0,0,0,0,0,0,-1,573,1247,-40.234,7.32277
-644,-223,-45.9081,3.8446,0,0,0,0,0,0,0,-1,580,1247,-45.9081,-3.84463
-637,-223,-49.2922,0.294189,0,0,0,0,0,0,0,-1,587,1247,-49.2922,-0.294245
-630,-223,-43.0815,5.90808,0,0,0,0,0,0,0,-1,594,1247,-43.0815,-5.90814
-623,-223,-43.1558,7.0321,-0.00234037,0.0015359,-0.00120844,0.00188177,-0.00268625,-1.29203,0.00265094,0.0444273,601,1247,-43.1558,-7.03206
-616,-223,-43.1071,7.60266,-0.00111501,0.0012673,-0.00125688,0.00180779,-0.0016555,-1.16468,0.00200018,0.0171012,608,1247,-43.107,-7.60267
-609,-223,-43.129,8.37427,-0.000304166,0.00103075,-0.00159452,0.00209187,-0.00136529,-0.983615,0.00201063,0.0124211,615,1247,-43.1289,-8.37422
-602,-223,-43.1663,9.12683,0.000271903,0.000681259,-0.00214608,0.0026324,-0.00167923,-0.832941,0.00250951,0.0152911,622,1247,-43.1663,-9.12678
-595,-223,-43.179,9.96021,0.000608188,0.000209105,-0.00282295,0.00323864,-0.00242135,-0.750114,0.00327914,0.0214251,629,1247,-43.179,-9.96015
-588,-223,-43.1708,10.7323,0.000985617,-0.000349984,-0.00331503,0.00369944,-0.00306381,-0.686005,0.00391051,0.0401605,636,1247,-43.1708,-10.7323
-581,-223,-43.1782,11.3367,0,0,0,0,0,0,0,-1,643,1247,-43.1782,-11.3367
-574,-223,-43.5866,11.8743,0,0,0,0,0,0,0,-1,650,1247,-43.5866,-11.8743
-567,-223,-43.4183,12.2289,0,0,0,0,0,0,0,-1,657,1247,-43.4183,-12.2289
-560,-223,-31.8748,9.50732,0,0,0,0,0,0,0,-1,664,1247,-31.8748,-9.50735
-553,-223,-11.4025,4.14722,0,0,0,0,0,0,0,-1,671,1247,-11.4025,-4.14719
-546,-223,-26.9034,-0.148682,0,0,0,0,0,0,0,-1,678,1247,-26.9034,0.14867
-539,-223,-36.7405,0.35376,0,0,0,0,0,0,0,-1,685,1247,-36.7405,-0.353807
-532,-223,-47.6184,1.39844,0,0,0,0,0,0,0,-1,692,1247,-47.6184,-1.3984
-525,-223,-60.3335,0.248291,0,0,0,0,0,0,0,-1,699,1247,-60.3335,-0.248251
-518,-223,-60.8275,0.316772,0,0,0,0,0,0,0,-1,706,1247,-60.8275,-0.316755
-511,-223,-61.058,0.51123,-0.00737993,0.00898061,-0.00178704,0.00917353,-0.00757285,-1.46326,0.00968324,0.0419212,713,1247,-61.0581,-0.511285
-504,-223,-61.0969,0.50293,-0.0061733,0.00916563,-0.00245858,0.00955007,-0.00655774,-1.41569,0.00935318,0.0409705,720,1247,-61.0969,-0.502982
-497,-223,0,0,0,0,0,0,0,0,0,-1,727,1247,0,0
-490,-223,0,0,0,0,0,0,0,0,0,-1,734,1247,0,0
-483,-223,0,0,0,0,0,0,0,0,0,-1,741,1247,0,0
-476,-223,0,0,0,0,0,0,0,0,0,-1,748,1247,0,0
-469,-223,0,0,0,0,0,0,0,0,0,-1,755,1247,0,0
-462,-223,0,0,0,0,0,0,0,0,0,-1,762,1247,0,0
-455,-223,0,0,0,0,0,0,0,0,0,-1,769,1247,0,0
-448,-223,0,0,0,0,0,0,0,0,0,-1,776,1247,0,0
-441,-223,0,0,0,0,0,0,0,0,0,-1,783,1247,0,0
-434,-223,0,0,0,0,0,0,0,0,0,-1,790,1247,0,0
-427,-223,0,0,0,0,0,0,0,0,0,-1,797,1247,0,0
-420,-223,0,0,0,0,0,0,0,0,0,-1,804,1247,0,0
-413,-223,0,0,0,0,0,0,0,0,0,-1,811,1247,0,0
-406,-223,0,0,0,0,0,0,0,0,0,-1,818,1247,0,0
-399,-223,0,0,0,0,0,0,0,0,0,-1,825,1247,0,0
-392,-223,0,0,0,0,0,0,0,0,0,-1,832,1247,0,0
-385,-223,0,0,0,0,0,0,0,0,0,-1,839,1247,0,0
-378,-223,0,0,0,0,0,0,0,0,0,-1,846,1247,0,0
-371,-223,0,0,0,0,0,0,0,0,0,-1,853,1247,0,0
-364,-223,0,0,0,0,0,0,0,0,0,-1,860,1247,0,0
-357,-223,0,0,0,0,0,0,0,0,0,-1,867,1247,0,0
-350,-223,0,0,0,0,0,0,0,0,0,-1,874,1247,0,0
-343,-223,0,0,0,0,0,0,0,0,0,-1,881,1247,0,0
-336,-223,0,0,0,0,0,0,0,0,0,-1,888,1247,0,0
-329,-223,0,0,0,0,0,0,0,0,0,-1,895,1247,0,0
-322,-223,0,0,0,0,0,0,0,0,0,-1,902,1247,0,0
-315,-223,0,0,0,0,0,0,0,0,0,-1,909,1247,0,0
-308,-223,0,0,0,0,0,0,0,0,0,-1,916,1247,0,0
-301,-223,0,0,0,0,0,0,0,0,0,-1,923,1247,0,0
-294,-223,0,0,0,0,0,0,0,0,0,-1,930,1247,0,0
-287,-223,0,0,0,0,0,0,0,0,0,-1,937,1247,0,0
-280,-223,0,0,0,0,0,0,0,0,0,-1,944,1247,0,0
-273,-223,0,0,0,0,0,0,0,0,0,-1,951,1247,0,0
-266,-223,0,0,0,0,0,0,0,0,0,-1,958,1247,0,0
-259,-223,0,0,0,0,0,0,0,0,0,-1,965,1247,0,0
-252,-223,0,0,0,0,0,0,0,0,0,-1,972,1247,0,0
-245,-223,0,0,0,0,0,0,0,0,0,-1,979,1247,0,0
-238,-223,0,0,0,0,0,0,0,0,0,-1,986,1247,0,0
-231,-223,0,0,0,0,0,0,0,0,0,-1,993,1247,0,0
-224,-223,0,0,0,0,0,0,0,0,0,-1,1000,1247,0,0
-217,-223,0,0,0,0,0,0,0,0,0,-1,1007,1247,0,0
-210,-223,0,0,0,0,0,0,0,0,0,-1,1014,1247,0,0
-203,-223,0,0,0,0,0,0,0,0,0,-1,1021,1247,0,0
-196,-223,0,0,0,0,0,0,0,0,0,-1,1028,1247,0,0
-189,-223,0,0,0,0,0,0,0,0,0,-1,1035,1247,0,0
-182,-223,0,0,0,0,0,0,0,0,0,-1,1042,1247,0,0
-175,-223,0,0,0,0,0,0,0,0,0,-1,1049,1247,0,0
-168,-223,0,0,0,0,0,0,0,0,0,-1,1056,1247,0,0
-161,-223,0,0,0,0,0,0,0,0,0,-1,1063,1247,0,0
-154,-223,0,0,0,0,0,0,0,0,0,-1,1070,1247,0,0
-147,-223,0,0,0,0,0,0,0,0,0,-1,1077,1247,0,0
-140,-223,0,0,0,0,0,0,0,0,0,-1,1084,1247,0,0
-133,-223,0,0,0,0,0,0,0,0,0,-1,1091,1247,0,0
-126,-223,0,0,0,0,0,0,0,0,0,-1,1098,1247,0,0
-119,-223,0,0,0,0,0,0,0,0,0,-1,1105,1247,0,0
-112,-223,0,0,0,0,0,0,0,0,0,-1,1112,1247,0,0
-105,-223,0,0,0,0,0,0,0,0,0,-1,1119,1247,0,0
-98,-223,0,0,0,0,0,0,0,0,0,-1,1126,1247,0,0
-91,-223,0,0,0,0,0,0,0,0,0,-1,1133,1247,0,0
-84,-223,0,0,0,0,0,0,0,0,0,-1,1140,1247,0,0
-77,-223,0,0,0,0,0,0,0,0,0,-1,1147,1247,0,0
-70,-223,0,0,0,0,0,0,0,0,0,-1,1154,1247,0,0
-63,-223,0,0,0,0,0,0,0,0,0,-1,1161,1247,0,0
-56,-223,0,0,0,0,0,0,0,0,0,-1,1168,1247,0,0
-49,-223,0,0,0,0,0,0,0,0,0,-1,1175,1247,0,0
-42,-223,0,0,0,0,0,0,0,0,0,-1,1182,1247,0,0
-35,-223,0,0,0,0,0,0,0,0,0,-1,1189,1247,0,0
-28,-223,0,0,0,0,0,0,0,0,0,-1,1196,1247,0,0
-21,-223,0,0,0,0,0,0,0,0,0,-1,1203,1247,0,0
-14,-223,0,0,0,0,0,0,0,0,0,-1,1210,1247,0,0
-7,-223,0,0,0,0,0,0,0,0,0,-1,1217,1247,0,0
0,-223,0,0,0,0,0,0,0,0,0,-1,1224,1247,0,0
7,-223,0,0,0,0,0,0,0,0,0,-1,1231,1247,0,0
14,-223,0,0,0,0,0,0,0,0,0,-1,1238,1247,0,0
21,-223,0,0,0,0,0,0,0,0,0,-1,1245,1247,0,0
28,-223,0,0,0,0,0,0,0,0,0,-1,1252,1247,0,0
35,-223,0,0,0,0,0,0,0,0,0,-1,1259,1247,0,0
42,-223,0,0,0,0,0,0,0,0,0,-1,1266,1247,0,0
49,-223,0,0,0,0,0,0,0,0,0,-1,1273,1247,0,0
56,-223,0,0,0,0,0,0,0,0,0,-1,1280,1247,0,0
63,-223,0,0,0,0,0,0,0,0,0,-1,1287,1247,0,0
70,-223,0,0,0,0,0,0,0,0,0,-1,1294,1247,0,0
77,-223,0,0,0,0,0,0,0,0,0,-1,1301,1247,0,0
84,-223,0,0,0,0,0,0,0,0,0,-1,1308,1247,0,0
91,-223,0,0,0,0,0,0,0,0,0,-1,1315,1247,0,0
98,-223,0,0,0,0,0,0,0,0,0,-1,1322,1247,0,0
105,-223,0,0,0,0,0,0,0,0,0,-1,1329,1247,0,0
112,-223,0,0,0,0,0,0,0,0,0,-1,1336,1247,0,0
119,-223,0,0,0,0,0,0,0,0,0,-1,1343,1247,0,0
126,-223,0,0,0,0,0,0,0,0,0,-1,1350,1247,0,0
133,-223,0,0,0,0,0,0,0,0,0,-1,1357,1247,0,0
140,-223,0,0,0,0,0,0,0,0,0,-1,1364,1247,0,0
147,-223,0,0,0,0,0,0,0,0,0,-1,1371,1247,0,0
154,-223,0,0,0,0,0,0,0,0,0,-1,1378,1247,0,0
161,-223,0,0,0,0,0,0,0,0,0,-1,1385,1247,0,0
168,-223,0,0,0,0,0,0,0,0,0,-1,1392,1247,0,0
175,-223,0,0,0,0,0,0,0,0,0,-1,1399,1247,0,0
182,-223,0,0,0,0,0,0,0,0,0,-1,1406,1247,0,0
189,-223,0,0,0,0,0,0,0,0,0,-1,1413,1247,0,0
196,-223,0,0,0,0,0,0,0,0,0,-1,1420,1247,0,0
203,-223,0,0,0,0,0,0,0,0,0,-1,1427,1247,0,0
210,-223,0,0,0,0,0,0,0,0,0,-1,1434,1247,0,0
217,-223,0,0,0,0,0,0,0,0,0,-1,1441,1247,0,0
224,-223,0,0,0,0,0,0,0,0,0,-1,1448,1247,0,0
231,-223,0,0,0,0,0,0,0,0,0,-1,1455,1247,0,0
238,-223,0,0,0,0,0,0,0,0,0,-1,1462,1247,0,0
245,-223,0,0,0,0,0,0,0,0,0,-1,1469,1247,0,0
252,-223,0,0,0,0,0,0,0,0,0,-1,1476,1247,0,0
259,-223,0,0,0,0,0,0,0,0,0,-1,1483,1247,0,0
266,-223,0,0,0,0,0,0,0,0,0,-1,1490,1247,0,0
273,-223,0,0,0,0,0,0,0,0,0,-1,1497,1247,0,0
280,-223,0,0,0,0,0,0,0,0,0,-1,1504,1247,0,0
287,-223,0,0,0,0,0,0,0,0,0,-1,1511,1247,0,0
294,-223,0,0,0,0,0,0,0,0,0,-1,1518,1247,0,0
301,-223,0,0,0,0,0,0,0,0,0,-1,1525,1247,0,0
308,-223,0,0,0,0,0,0,0,0,0,-1,1532,1247,0,0
315,-223,0,0,0,0,0,0,0,0,0,-1,1539,1247,0,0
322,-223,0,0,0,0,0,0,0,0,0,-1,1546,1247,0,0
329,-223,0,0,0,0,0,0,0,0,0,-1,1553,1247,0,0
336,-223,0,0,0,0,0,0,0,0,0,-1,1560,1247,0,0
343,-223,0,0,0,0,0,0,0,0,0,-1,1567,1247,0,0
350,-223,0,0,0,0,0,0,0,0,0,-1,1574,1247,0,0
357,-223,0,0,0,0,0,0,0,0,0,-1,1581,1247,0,0
364,-223,0,0,0,0,0,0,0,0,0,-1,1588,1247,0,0
371,-223,0,0,0,0,0,0,0,0,0,-1,1595,1247,0,0
378,-223,0,0,0,0,0,0,0,0,0,-1,1602,1247,0,0
385,-223,0,0,0,0,0,0,0,0,0,-1,1609,1247,0,0
392,-223,0,0,0,0,0,0,0,0,0,-1,1616,1247,0,0
399,-223,0,0,0,0,0,0,0,0,0,-1,1623,1247,0,0
406,-223,0,0,0,0,0,0,0,0,0,-1,1630,1247,0,0
413,-223,0,0,0,0,0,0,0,0,0,-1,1637,1247,0,0
420,-223,0,0,0,0,0,0,0,0,0,-1,1644,1247,0,0
427,-223,0,0,0,0,0,0,0,0,0,-1,1651,1247,0,0
434,-223,0,0,0,0,0,0,0,0,0,-1,1658,1247,0,0
441,-223,0,0,0,0,0,0,0,0,0,-1,1665,1247,0,0
448,-223,0,0,0,0,0,0,0,0,0,-1,1672,1247,0,0
455,-223,0,0,0,0,0,0,0,0,0,-1,1679,1247,0,0
462,-223,0,0,0,0,0,0,0,0,0,-1,1686,1247,0,0
469,-223,0,0,0,0,0,0,0,0,0,-1,1693,1247,0,0
476,-223,0,0,0,0,0,0,0,0,0,-1,1700,1247,0,0
483,-223,0,0,0,0,0,0,0,0,0,-1,1707,1247,0,0
490,-223,0,0,0,0,0,0,0,0,0,-1,1714,1247,0,0
497,-223,0,0,0,0,0,0,0,0,0,-1,1721,1247,0,0
504,-223,0,0,0,0,0,0,0,0,0,-1,1728,1247,0,0
511,-223,0,0,0,0,0,0,0,0,0,-1,1735,1247,0,0
518,-223,0,0,0,0,0,0,0,0,0,-1,1742,1247,0,0
525,-223,0,0,0,0,0,0,0,0,0,-1,1749,1247,0,0
532,-223,0,0,0,0,0,0,0,0,0,-1,1756,1247,0,0
539,-223,0,0,0,0,0,0,0,0,0,-1,1763,1247,0,0
546,-223,0,0,0,0,0,0,0,0,0,-1,1770,1247,0,0
553,-223,0,0,0,0,0,0,0,0,0,-1,1777,1247,0,0
560,-223,0,0,0,0,0,0,0,0,0,-1,1784,1247,0,0
567,-223,0,0,0,0,0,0,0,0,0,-1,1791,1247,0,0
574,-223,0,0,0,0,0,0,0,0,0,-1,1798,1247,0,0
581,-223,0,0,0,0,0,0,0,0,0,-1,1805,1247,0,0
588,-223,0,0,0,0,0,0,0,0,0,-1,1812,1247,0,0
595,-223,0,0,0,0,0,0,0,0,0,-1,1819,1247,0,0
602,-223,0,0,0,0,0,0,0,0,0,-1,1826,1247,0,0
609,-223,0,0,0,0,0,0,0,0,0,-1,1833,1247,0,0
616,-223,0,0,0,0,0,0,0,0,0,-1,1840,1247,0,0
623,-223,77.5453,2.78101,0.000843849,0.00147008,-0.000404489,0.00166849,0.000645445,-1.11477,0.000971489,0.0375332,1847,1247,77.5453,-2.78105
630,-223,77.5995,2.57471,-0.000436404,0.00266371,-0.000976596,0.0029457,-0.0007184,-1.28969,0.00224197,0.0349842,1854,1247,77.5995,-2.57474
637,-223,77.6417,2.4574,-0.00127093,0.00360509,-0.00154233,0.00405198,-0.00171782,-1.28877,0.00342085,0.0295716,1861,1247,77.6418,-2.45735
644,-223,77.6135,2.50464,-0.00120976,0.0037788,-0.00187684,0.00440605,-0.00183702,-1.24826,0.00370477,0.0248016,1868,1247,77.6135,-2.50469
651,-223,77.6189,2.45886,-0.000919115,0.00321779,-0.0015852,0.00375536,-0.00145669,-1.24385,0.0031052,0.0330468,1875,1247,77.6189,-2.45886
658,-223,77.7926,2.55835,0,0,0,0,0,0,0,-1,1882,1247,77.7926,-2.55832
665,-223,68.7177,1.6427,0,0,0,0,0,0,0,-1,1889,1247,68.7176,-1.64275
672,-223,56.4625,2.72424,0,0,0,0,0,0,0,-1,1896,1247,56.4626,-2.72418
679,-223,43.2783,2.46973,0,0,0,0,0,0,0,-1,1903,1247,43.2784,-2.46978
686,-223,40.7926,10.0316,0,0,0,0,0,0,0,-1,1910,1247,40.7926,-10.0316
693,-223,55.5261,12.8093,0,0,0,0,0,0,0,-1,1917,1247,55.5261,-12.8093
700,-223,55.0945,12.2452,0,0,0,0,0,0,0,-1,1924,1247,55.0944,-12.2452
707,-223,59.7146,12.6743,0,0,0,0,0,0,0,-1,1931,1247,59.7146,-12.6743
714,-223,59.5367,12.0217,-0.000454499,0.000801181,0.00174745,0.00203015,-0.00168347,0.957862,0.00214717,0.0254797,1938,1247,59.5368,-12.0218
721,-223,59.4437,11.327,-0.000911656,0.000804596,0.00206035,0.00217838,-0.00228544,0.982721,0.00257743,0.0162275,1945,1247,59.4437,-11.327
728,-223,59.4308,10.562,-0.00138073,0.000438827,0.00240581,0.00210113,-0.00304304,0.966167,0.00298654,0.0206334,1952,1247,59.4308,-10.562
735,-223,59.3798,9.86865,-0.00212591,0.000219349,0.00291804,0.00219156,-0.00409812,0.976451,0.00368654,0.0202409,1959,1247,59.3798,-9.86871
742,-223,59.2742,9.14856,-0.0030491,-8.03968e-05,0.00373024,0.00244997,-0.00557947,0.974756,0.00475172,0.0178682,1966,1247,59.2741,-9.14858
749,-223,59.2281,8.32178,-0.00408307,-0.000388358,0.00482026,0.00292642,-0.00739784,0.968389,0.00614423,0.0139333,1973,1247,59.2281,-8.32172
756,-223,59.158,7.55371,-0.00524924,-0.000712331,0.00627683,0.00369338,-0.00965495,0.958796,0.00795874,0.0160746,1980,1247,59.1579,-7.55368
763,-223,59.1193,6.88623,-0.00686547,-0.00129254,0.00869141,0.00504815,-0.0132062,0.940522,0.0108843,0.0227771,1987,1247,59.1192,-6.88623
770,-223,59.3953,6.16101,0,0,0,0,0,0,0,-1,1994,1247,59.3952,-6.16103
777,-223,53.7227,4.88562,0,0,0,0,0,0,0,-1,2001,1247,53.7227,-4.8856
784,-223,68.8677,0.507813,0,0,0,0,0,0,0,-1,2008,1247,68.8676,-0.507816
791,-223,34.7136,2.92554,0,0,0,0,0,0,0,-1,2015,1247,34.7137,-2.92555
798,-223,0,0,0,0,0,0,0,0,0,-1,2022,1247,0,0
805,-223,0,0,0,0,0,0,0,0,0,-1,2029,1247,0,0
812,-223,0,0,0,0,0,0,0,0,0,-1,2036,1247,0,0
-700,-230,0,0,0,0,0,0,0,0,0,-1,524,1254,0,0
-693,-230,0,0,0,0,0,0,0,0,0,-1,531,1254,0,0
-686,-230,0,0,0,0,0,0,0,0,0,-1,538,1254,0,0
-679,-230,0,0,0,0,0,0,0,0,0,-1,545,1254,0,0
-672,-230,-38.5905,2.07617,0,0,0,0,0,0,0,-1,552,1254,-38.5905,-2.07614
-665,-230,-38.168,-9.9397,0,0,0,0,0,0,0,-1,559,1254,-38.168,9.93971
-658,-230,-38.8468,-8.48303,0,0,0,0,0,0,0,-1,566,1254,-38.8468,8.48304
-651,-230,-39.3627,-7.38525,0,0,0,0,0,0,0,-1,573,1254,-39.3627,7.38529
-644,-230,-48.2715,0.872925,0,0,0,0,0,0,0,-1,580,1254,-48.2715,-0.87288
-637,-230,-49.1636,-0.158325,0,0,0,0,0,0,0,-1,587,1254,-49.1636,0.158288
-630,-230,-41.3331,5.24744,0,0,0,0,0,0,0,-1,594,1254,-41.3331,-5.24744
-623,-230,-42.6133,7.19861,0,0,0,0,0,0,0,-1,601,1254,-42.6133,-7.19856
-616,-230,-42.2834,7.61121,-0.000724418,0.00134502,-0.000551107,0.00148263,-0.000862031,-1.3261,0.00136941,0.0186531,608,1254,-42.2835,-7.61121
-609,-230,-42.3075,8.41748,-0.000241482,0.00113848,-0.00095004,0.00162266,-0.00072566,-1.09947,0.00138838,0.0121892,615,1254,-42.3075,-8.41744
-602,-230,-42.3452,9.21411,-3.92935e-07,0.000717228,-0.00150962,0.00191009,-0.00119325,-0.902075,0.00180758,0.0128322,622,1254,-42.3452,-9.21409
-595,-230,-42.4103,10.0458,7.20305e-05,0.00018113,-0.0021953,0.00232255,-0.00206939,-0.79782,0.0025371,0.0201573,629,1254,-42.4103,-10.0458
-588,-230,-42.5129,10.9061,0.000172677,-0.00044883,-0.00283389,0.0027128,-0.00298895,-0.730788,0.0032932,0.0312985,636,1254,-42.513,-10.9061
-581,-230,-42.6715,11.9583,-0.00055121,-0.00090543,-0.00279461,0.0020719,-0.00352854,-0.753753,0.00326967,0.0483699,643,1254,-42.6715,-11.9583
-574,-230,-42.9139,13.0313,0,0,0,0,0,0,0,-1,650,1254,-42.9139,-13.0313
-567,-230,-42.2432,12.4905,0,0,0,0,0,0,0,-1,657,1254,-42.2432,-12.4905
-560,-230,-42.6493,12.8196,0,0,0,0,0,0,0,-1,664,1254,-42.6493,-12.8196
-553,-230,-13.1939,4.9718,0,0,0,0,0,0,0,-1,671,1254,-13.1939,-4.97175
-546,-230,-15.23,0.453979,0,0,0,0,0,0,0,-1,678,1254,-15.23,-0.453996
-539,-230,-25.8232,0.512817,0,0,0,0,0,0,0,-1,685,1254,-25.8232,-0.512878
-532,-230,-21.1644,1.52966,0,0,0,0,0,0,0,-1,692,1254,-21.1644,-1.52969
-525,-230,-29.4775,0.731445,0,0,0,0,0,0,0,-1,699,1254,-29.4775,-0.731432
-518,-230,-60.9421,0.687012,0,0,0,0,0,0,0,-1,706,1254,-60.9421,-0.686967
-511,-230,-61.064,0.533569,-0.00839651,0.00829846,-0.00234382,0.00862127,-0.00871932,-1.43393,0.0100116,0.045565,713,1254,-61.064,-0.533537
-504,-230,-61.1144,0.47522,-0.00845376,0.00992962,-0.00251793,0.0102683,-0.00879239,-1.43711,0.0110157,0.0384451,720,1254,-61.1144,-0.475253
-497,-230,0,0,0,0,0,0,0,0,0,-1,727,1254,0,0
-490,-230,0,0,0,0,0,0,0,0,0,-1,734,1254,0,0
-483,-230,0,0,0,0,0,0,0,0,0,-1,741,1254,0,0
-476,-230,0,0,0,0,0,0,0,0,0,-1,748,1254,0,0
-469,-230,0,0,0,0,0,0,0,0,0,-1,755,1254,0,0
-462,-230,0,0,0,0,0,0,0,0,0,-1,762,1254,0,0
-455,-230,0,0,0,0,0,0,0,0,0,-1,769,1254,0,0
-448,-230,0,0,0,0,0,0,0,0,0,-1,776,1254,0,0
-441,-230,0,0,0,0,0,0,0,0,0,-1,783,1254,0,0
-434,-230,0,0,0,0,0,0,0,0,0,-1,790,1254,0,0
-427,-230,0,0,0,0,0,0,0,0,0,-1,797,1254,0,0
-420,-230,0,0,0,0,0,0,0,0,0,-1,804,1254,0,0
-413,-230,0,0,0,0,0,0,0,0,0,-1,811,1254,0,0
-406,-230,0,0,0,0,0,0,0,0,0,-1,818,1254,0,0
-399,-230,0,0,0,0,0,0,0,0,0,-1,825,1254,0,0
-392,-230,0,0,0,0,0,0,0,0,0,-1,832,1254,0,0
-385,-230,0,0,0,0,0,0,0,0,0,-1,839,1254,0,0
-378,-230,0,0,0,0,0,0,0,0,0,-1,846,1254,0,0
-371,-230,0,0,0,0,0,0,0,0,0,-1,853,1254,0,0
-364,-230,0,0,0,0,0,0,0,0,0,-1,860,1254,0,0
-357,-230,0,0,0,0,0,0,0,0,0,-1,867,1254,0,0
-350,-230,0,0,0,0,0,0,0,0,0,-1,874,1254,0,0
-343,-230,0,0,0,0,0,0,0,0,0,-1,881,1254,0,0
-336,-230,0,0,0,0,0,0,0,0,0,-1,888,1254,0,0
-329,-230,0,0,0,0,0,0,0,0,0,-1,895,1254,0,0
-322,-230,0,0,0,0,0,0,0,0,0,-1,902,1254,0,0
-315,-230,0,0,0,0,0,0,0,0,0,-1,909,1254,0,0
-308,-230,0,0,0,0,0,0,0,0,0,-1,916,1254,0,0
-301,-230,0,0,0,0,0,0,0,0,0,-1,923,1254,0,0
-294,-230,0,0,0,0,0,0,0,0,0,-1,930,1254,0,0
-287,-230,0,0,0,0,0,0,0,0,0,-1,937,1254,0,0
-280,-230,0,0,0,0,0,0,0,0,0,-1,944,1254,0,0
-273,-230,0,0,0,0,0,0,0,0,0,-1,951,1254,0,0
-266,-230,0,0,0,0,0,0,0,0,0,-1,958,1254,0,0
-259,-230,0,0,0,0,0,0,0,0,0,-1,965,1254,0,0
-252,-230,0,0,0,0,0,0,0,0,0,-1,972,1254,0,0
-245,-230,0,0,0,0,0,0,0,0,0,-1,979,1254,0,0
-238,-230,0,0,0,0,0,0,0,0,0,-1,986,1254,0,0
-231,-230,0,0,0,0,0,0,0,0,0,-1,993,1254,0,0
-224,-230,0,0,0,0,0,0,0,0,0,-1,1000,1254,0,0
-217,-230,0,0,0,0,0,0,0,0,0,-1,1007,1254,0,0
-210,-230,0,0,0,0,0,0,0,0,0,-1,1014,1254,0,0
-203,-230,0,0,0,0,0,0,0,0,0,-1,1021,1254,0,0
-196,-230,0,0,0,0,0,0,0,0,0,-1,1028,1254,0,0
-189,-230,0,0,0,0,0,0,0,0,0,-1,1035,1254,0,0
-182,-230,0,0,0,0,0,0,0,0,0,-1,1042,1254,0,0
-175,-230,0,0,0,0,0,0,0,0,0,-1,1049,1254,0,0
-168,-230,0,0,0,0,0,0,0,0,0,-1,1056,1254,0,0
-161,-230,0,0,0,0,0,0,0,0,0,-1,1063,1254,0,0
-154,-230,0,0,0,0,0,0,0,0,0,-1,1070,1254,0,0
-147,-230,0,0,0,0,0,0,0,0,0,-1,1077,1254,0,0
-140,-230,0,0,0,0,0,0,0,0,0,-1,1084,1254,0,0
-133,-230,0,0,0,0,0,0,0,0,0,-1,1091,1254,0,0
-126,-230,0,0,0,0,0,0,0,0,0,-1,1098,1254,0,0
-119,-230,0,0,0,0,0,0,0,0,0,-1,1105,1254,0,0
-112,-230,0,0,0,0,0,0,0,0,0,-1,1112,1254,0,0
-105,-230,0,0,0,0,0,0,0,0,0,-1,1119,1254,0,0
-98,-230,0,0,0,0,0,0,0,0,0,-1,1126,1254,0,0
-91,-230,0,0,0,0,0,0,0,0,0,-1,1133,1254,0,0
-84,-230,0,0,0,0,0,0,0,0,0,-1,1140,1254,0,0
-77,-230,0,0,0,0,0,0,0,0,0,-1,1147,1254,0,0
-70,-230,0,0,0,0,0,0,0,0,0,-1,1154,1254,0,0
-63,-230,0,0,0,0,0,0,0,0,0,-1,1161,1254,0,0
-56,-230,0,0,0,0,0,0,0,0,0,-1,1168,1254,0,0
-49,-230,0,0,0,0,0,0,0,0,0,-1,1175,1254,0,0
-42,-230,0,0,0,0,0,0,0,0,0,-1,1182,1254,0,0
-35,-230,0,0,0,0,0,0,0,0,0,-1,1189,1254,0,0
-28,-230,0,0,0,0,0,0,0,0,0,-1,1196,1254,0,0
-21,-230,0,0,0,0,0,0,0,0,0,-1,1203,1254,0,0
-14,-230,0,0,0,0,0,0,0,0,0,-1,1210,1254,0,0
-7,-230,0,0,0,0,0,0,0,0,0,-1,1217,1254,0,0
0,-230,0,0,0,0,0,0,0,0,0,-1,1224,1254,0,0
7,-230,0,0,0,0,0,0,0,0,0,-1,1231,1254,0,0
14,-230,0,0,0,0,0,0,0,0,0,-1,1238,1254,0,0
21,-230,0,0,0,0,0,0,0,0,0,-1,1245,1254,0,0
28,-230,0,0,0,0,0,0,0,0,0,-1,1252,1254,0,0
35,-230,0,0,0,0,0,0,0,0,0,-1,1259,1254,0,0
42,-230,0,0,0,0,0,0,0,0,0,-1,1266,1254,0,0
49,-230,0,0,0,0,0,0,0,0,0,-1,1273,1254,0,0
56,-230,0,0,0,0,0,0,0,0,0,-1,1280,1254,0,0
63,-230,0,0,0,0,0,0,0,0,0,-1,1287,1254,0,0
70,-230,0,0,0,0,0,0,0,0,0,-1,1294,1254,0,0
77,-230,0,0,0,0,0,0,0,0,0,-1,1301,1254,0,0
84,-230,0,0,0,0,0,0,0,0,0,-1,1308,1254,0,0
91,-230,0,0,0,0,0,0,0,0,0,-1,1315,1254,0,0
98,-230,0,0,0,0,0,0,0,0,0,-1,1322,1254,0,0
105,-230,0,0,0,0,0,0,0,0,0,-1,1329,1254,0,0
112,-230,0,0,0,0,0,0,0,0,0,-1,1336,1254,0,0
119,-230,0,0,0,0,0,0,0,0,0,-1,1343,1254,0,0
126,-230,0,0,0,0,0,0,0,0,0,-1,1350,1254,0,0
133,-230,0,0,0,0,0,0,0,0,0,-1,1357,1254,0,0
140,-230,0,0,0,0,0,0,0,0,0,-1,1364,1254,0,0
147,-230,0,0,0,0,0,0,0,0,0,-1,1371,1254,0,0
154,-230,0,0,0,0,0,0,0,0,0,-1,1378,1254,0,0
161,-230,0,0,0,0,0,0,0,0,0,-1,1385,1254,0,0
168,-230,0,0,0,0,0,0,0,0,0,-1,1392,1254,0,0
175,-230,0,0,0,0,0,0,0,0,0,-1,1399,1254,0,0
182,-230,0,0,0,0,0,0,0,0,0,-1,1406,1254,0,0
189,-230,0,0,0,0,0,0,0,0,0,-1,1413,1254,0,0
196,-230,0,0,0,0,0,0,0,0,0,-1,1420,1254,0,0
203,-230,0,0,0,0,0,0,0,0,0,-1,1427,1254,0,0
210,-230,0,0,0,0,0,0,0,0,0,-1,1434,1254,0,0
217,-230,0,0,0,0,0,0,0,0,0,-1,1441,1254,0,0
224,-230,0,0,0,0,0,0,0,0,0,-1,1448,1254,0,0
231,-230,0,0,0,0,0,0,0,0,0,-1,1455,1254,0,0
238,-230,0,0,0,0,0,0,0,0,0,-1,1462,1254,0,0
245,-230,0,0,0,0,0,0,0,0,0,-1,1469,1254,0,0
252,-230,0,0,0,0,0,0,0,0,0,-1,1476,1254,0,0
259,-230,0,0,0,0,0,0,0,0,0,-1,1483,1254,0,0
266,-230,0,0,0,0,0,0,0,0,0,-1,1490,1254,0,0
273,-230,0,0,0,0,0,0,0,0,0,-1,1497,1254,0,0
280,-230,0,0,0,0,0,0,0,0,0,-1,1504,1254,0,0
287,-230,0,0,0,0,0,0,0,0,0,-1,1511,1254,0,0
294,-230,0,0,0,0,0,0,0,0,0,-1,1518,1254,0,0
301,-230,0,0,0,0,0,0,0,0,0,-1,1525,1254,0,0
308,-230,0,0,0,0,0,0,0,0,0,-1,1532,1254,0,0
315,-230,0,0,0,0,0,0,0,0,0,-1,1539,1254,0,0
322,-230,0,0,0,0,0,0,0,0,0,-1,1546,1254,0,0
329,-230,0,0,0,0,0,0,0,0,0,-1,1553,1254,0,0
336,-230,0,0,0,0,0,0,0,0,0,-1,1560,1254,0,0
343,-230,0,0,0,0,0,0,0,0,0,-1,1567,1254,0,0
350,-230,0,0,0,0,0,0,0,0,0,-1,1574,1254,0,0
357,-230,0,0,0,0,0,0,0,0,0,-1,1581,1254,0,0
364,-230,0,0,0,0,0,0,0,0,0,-1,1588,1254,0,0
371,-230,0,0,0,0,0,0,0,0,0,-1,1595,1254,0,0
378,-230,0,0,0,0,0,0,0,0,0,-1,1602,1254,0,0
385,-230,0,0,0,0,0,0,0,0,0,-1,1609,1254,0,0
392,-230,0,0,0,0,0,0,0,0,0,-1,1616,1254,0,0
399,-230,0,0,0,0,0,0,0,0,0,-1,1623,1254,0,0
406,-230,0,0,0,0,0,0,0,0,0,-1,1630,1254,0,0
413,-230,0,0,0,0,0,0,0,0,0,-1,1637,1254,0,0
420,-230,0,0,0,0,0,0,0,0,0,-1,1644,1254,0,0
427,-230,0,0,0,0,0,0,0,0,0,-1,1651,1254,0,0
434,-230,0,0,0,0,0,0,0,0,0,-1,1658,1254,0,0
441,-230,0,0,0,0,0,0,0,0,0,-1,1665,1254,0,0
448,-230,0,0,0,0,0,0,0,0,0,-1,1672,1254,0,0
455,-230,0,0,0,0,0,0,0,0,0,-1,1679,1254,0,0
462,-230,0,0,0,0,0,0,0,0,0,-1,1686,1254,0,0
469,-230,0,0,0,0,0,0,0,0,0,-1,1693,1254,0,0
476,-230,0,0,0,0,0,0,0,0,0,-1,1700,1254,0,0
483,-230,0,0,0,0,0,0,0,0,0,-1,1707,1254,0,0
490,-230,0,0,0,0,0,0,0,0,0,-1,1714,1254,0,0
497,-230,0,0,0,0,0,0,0,0,0,-1,1721,1254,0,0
504,-230,0,0,0,0,0,0,0,0,0,-1,1728,1254,0,0
511,-230,0,0,0,0,0,0,0,0,0,-1,1735,1254,0,0
518,-230,0,0,0,0,0,0,0,0,0,-1,1742,1254,0,0
525,-230,0,0,0,0,0,0,0,0,0,-1,1749,1254,0,0
532,-230,0,0,0,0,0,0,0,0,0,-1,1756,1254,0,0
539,-230,0,0,0,0,0,0,0,0,0,-1,1763,1254,0,0
546,-230,0,0,0,0,0,0,0,0,0,-1,1770,1254,0,0
553,-230,0,0,0,0,0,0,0,0,0,-1,1777,1254,0,0
560,-230,0,0,0,0,0,0,0,0,0,-1,1784,1254,0,0
567,-230,0,0,0,0,0,0,0,0,0,-1,1791,1254,0,0
574,-230,0,0,0,0,0,0,0,0,0,-1,1798,1254,0,0
581,-230,0,0,0,0,0,0,0,0,0,-1,1805,1254,0,0
588,-230,0,0,0,0,0,0,0,0,0,-1,1812,1254,0,0
595,-230,0,0,0,0,0,0,0,0,0,-1,1819,1254,0,0
602,-230,0,0,0,0,0,0,0,0,0,-1,1826,1254,0,0
609,-230,0,0,0,0,0,0,0,0,0,-1,1833,1254,0,0
616,-230,77.6597,2.71716,0.00272071,0.000370685,0.000182734,0.00273484,0.000356561,0.0771404,0.00171676,0.0372033,1840,1254,77.6597,-2.71713
623,-230,77.6771,2.8114,0.000808585,0.0018151,-0.000678543,0.00215665,0.000467042,-1.10447,0.00131013,0.0343218,1847,1254,77.6771,-2.81142
630,-230,77.7067,2.65588,-0.00075965,0.00325645,-0.00150234,0.00375625,-0.00125945,-1.24963,0.00301304,0.0297012,1854,1254,77.7067,-2.65593
637,-230,77.6077,2.54651,-0.00186687,0.00442313,-0.00223208,0.00513471,-0.00257845,-1.26219,0.00453398,0.0272902,1861,1254,77.6077,-2.54649
644,-230,77.5598,2.45361,-0.00155171,0.00424587,-0.00234709,0.00507694,-0.00238278,-1.23049,0.0043995,0.0232421,1868,1254,77.5599,-2.45358
651,-230,77.5502,2.3324,0,0,0,0,0,0,0,-1,1875,1254,77.5502,-2.33243
658,-230,76.9095,1.52869,0,0,0,0,0,0,0,-1,1882,1254,76.9096,-1.52873
665,-230,56.2585,2.51587,0,0,0,0,0,0,0,-1,1889,1254,56.2586,-2.51586
672,-230,43.0962,2.78699,0,0,0,0,0,0,0,-1,1896,1254,43.0962,-2.78698
679,-230,27.9967,2.37708,0,0,0,0,0,0,0,-1,1903,1254,27.9967,-2.3771
686,-230,40.8854,10.1788,0,0,0,0,0,0,0,-1,1910,1254,40.8853,-10.1788
693,-230,50.7637,12.0411,0,0,0,0,0,0,0,-1,1917,1254,50.7636,-12.0412
700,-230,58.6277,13.7145,0,0,0,0,0,0,0,-1,1924,1254,58.6276,-13.7145
707,-230,58.8716,12.8069,-0.000355195,0.00011376,0.00151041,0.00140778,-0.00164922,0.862404,0.00176679,0.0343627,1931,1254,58.8716,-12.8069
714,-230,58.6897,12.1504,-0.000828943,0.000289515,0.00187984,0.00169155,-0.00223097,0.929973,0.00227179,0.0215577,1938,1254,58.6898,-12.1503
721,-230,58.6481,11.4006,-0.00150052,0.000240433,0.00232663,0.00185409,-0.00311418,0.964404,0.00289902,0.0144058,1945,1254,58.6481,-11.4006
728,-230,58.5907,10.6469,-0.00224704,-4.4286e-05,0.00281471,0.00187686,-0.00416818,0.971887,0.0035727,0.0157142,1952,1254,58.5906,-10.6469
735,-230,58.543,9.91699,-0.00322062,-0.00023347,0.00347702,0.00205719,-0.00551128,0.98826,0.0045188,0.0160369,1959,1254,58.543,-9.91698
742,-230,58.4888,9.1283,-0.00437059,-0.000489493,0.00441475,0.00239238,-0.00725246,0.992467,0.00579932,0.0123326,1966,1254,58.4887,-9.12825
749,-230,58.437,8.32886,-0.00566114,-0.000774636,0.00562692,0.00291658,-0.00935235,0.99022,0.0074012,0.0119675,1973,1254,58.437,-8.32889
756,-230,58.3804,7.59033,-0.00717405,-0.00111169,0.00725685,0.0037216,-0.0120073,0.983234,0.00949182,0.01683,1980,1254,58.3804,-7.59031
763,-230,58.3678,6.8374,-0.00926168,-0.00176807,0.00990897,0.00507881,-0.0161086,0.966151,0.0127731,0.0376941,1987,1254,58.3678,-6.83746
770,-230,58.707,6.04736,0,0,0,0,0,0,0,-1,1994,1254,58.707,-6.0474
777,-230,41.8693,3.74707,0,0,0,0,0,0,0,-1,2001,1254,41.8692,-3.74713
784,-230,35.8896,1.80334,0,0,0,0,0,0,0,-1,2008,1254,35.8897,-1.80338
791,-230,35.6028,2.20642,0,0,0,0,0,0,0,-1,2015,1254,35.6027,-2.2064
798,-230,0,0,0,0,0,0,0,0,0,-1,2022,1254,0,0
805,-230,0,0,0,0,0,0,0,0,0,-1,2029,1254,0,0
812,-230,0,0,0,0,0,0,0,0,0,-1,2036,1254,0,0
-700,-237,0,0,0,0,0,0,0,0,0,-1,524,1261,0,0
-693,-237,0,0,0,0,0,0,0,0,0,-1,531,1261,0,0
-686,-237,0,0,0,0,0,0,0,0,0,-1,538,1261,0,0
-679,-237,0,0,0,0,0,0,0,0,0,-1,545,1261,0,0
-672,-237,-36.6405,-12.5112,0,0,0,0,0,0,0,-1,552,1261,-36.6405,12.5113
-665,-237,-37.1436,-10.5648,0,0,0,0,0,0,0,-1,559,1261,-37.1436,10.5649
-658,-237,-37.8344,-8.67175,0,0,0,0,0,0,0,-1,566,1261,-37.8344,8.67179
-651,-237,-46.9487,1.65137,0,0,0,0,0,0,0,-1,573,1261,-46.9487,-1.65142
-644,-237,-47.6604,0.785034,0,0,0,0,0,0,0,-1,580,1261,-47.6604,-0.785034
-637,-237,-33.4961,2.71313,0,0,0,0,0,0,0,-1,587,1261,-33.4961,-2.71312
-630,-237,-41.1737,5.36414,0,0,0,0,0,0,0,-1,594,1261,-41.1737,-5.3641
-623,-237,-41.4916,6.81689,0,0,0,0,0,0,0,-1,601,1261,-41.4916,-6.81694
-616,-237,-41.4013,7.58887,-0.000227592,0.00156671,0.000302389,0.0016163,-0.000277182,1.40825,0.00118082,0.0158709,608,1261,-41.4013,-7.58891
-609,-237,-41.4893,8.42725,-9.89748e-05,0.00137619,-0.000204823,0.0014041,-0.000126886,-1.43536,0.000981102,0.0158715,615,1261,-41.4893,-8.42727
-602,-237,-41.5292,9.25488,-0.000184407,0.000869558,-0.000821445,0.00131853,-0.000633377,-1.0706,0.00114984,0.0131292,622,1261,-41.5292,-9.25494
-595,-237,-41.6095,10.0936,-0.000373807,0.000241884,-0.0015188,0.00148373,-0.00161565,-0.885388,0.00178997,0.0167311,629,1261,-41.6095,-10.0936
-588,-237,-41.6517,10.9211,-0.000603105,-0.000498332,-0.00220427,0.00165418,-0.00275561,-0.797279,0.00257233,0.0287155,636,1261,-41.6516,-10.9211
-581,-237,-41.713,11.6936,-0.00138002,-0.00119415,-0.00240642,0.00112112,-0.0036953,-0.804698,0.00291014,0.0276736,643,1261,-41.713,-11.6936
-574,-237,-41.6383,12.2922,-0.00237225,-0.0018038,-0.00219256,0.000122878,-0.00429893,-0.849855,0.00290778,0.0393689,650,1261,-41.6383,-12.2923
-567,-237,-41.7745,12.8213,0,0,0,0,0,0,0,-1,657,1261,-41.7745,-12.8213
-560,-237,-41.8245,13.7194,0,0,0,0,0,0,0,-1,664,1261,-41.8246,-13.7193
-553,-237,-20.6102,6.92139,0,0,0,0,0,0,0,-1,671,1261,-20.6102,-6.92138
-546,-237,-11.192,1.14014,0,0,0,0,0,0,0,-1,678,1261,-11.192,-1.14011
-539,-237,-16.512,1.53455,0,0,0,0,0,0,0,-1,685,1261,-16.512,-1.53457
-532,-237,-29.7025,1.23621,0,0,0,0,0,0,0,-1,692,1261,-29.7025,-1.23618
-525,-237,-47.2925,0.590942,0,0,0,0,0,0,0,-1,699,1261,-47.2925,-0.590989
-518,-237,-48.2897,0.765869,0,0,0,0,0,0,0,-1,706,1261,-48.2897,-0.765854
-511,-237,-60.9866,0.643677,0,0,0,0,0,0,0,-1,713,1261,-60.9866,-0.643645
-504,-237,-61.0601,0.556763,-0.00826028,0.00861664,-0.00274419,0.00905163,-0.00869527,-1.41359,0.0102469,0.0465045,720,1261,-61.0601,-0.556785
-497,-237,-61.1538,0.607666,0,0,0,0,0,0,0,-1,727,1261,-61.1538,-0.607652
-490,-237,0,0,0,0,0,0,0,0,0,-1,734,1261,0,0
-483,-237,0,0,0,0,0,0,0,0,0,-1,741,1261,0,0
-476,-237,0,0,0,0,0,0,0,0,0,-1,748,1261,0,0
-469,-237,0,0,0,0,0,0,0,0,0,-1,755,1261,0,0
-462,-237,0,0,0,0,0,0,0,0,0,-1,762,1261,0,0
-455,-237,0,0,0,0,0,0,0,0,0,-1,769,1261,0,0
-448,-237,0,0,0,0,0,0,0,0,0,-1,776,1261,0,0
-441,-237,0,0,0,0,0,0,0,0,0,-1,783,1261,0,0
-434,-237,0,0,0,0,0,0,0,0,0,-1,790,1261,0,0
-427,-237,0,0,0,0,0,0,0,0,0,-1,797,1261,0,0
-420,-237,0,0,0,0,0,0,0,0,0,-1,804,1261,0,0
-413,-237,0,0,0,0,0,0,0,0,0,-1,811,1261,0,0
-406,-237,0,0,0,0,0,0,0,0,0,-1,818,1261,0,0
-399,-237,0,0,0,0,0,0,0,0,0,-1,825,1261,0,0
-392,-237,0,0,0,0,0,0,0,0,0,-1,832,1261,0,0
-385,-237,0,0,0,0,0,0,0,0,0,-1,839,1261,0,0
-378,-237,0,0,0,0,0,0,0,0,0,-1,846,1261,0,0
-371,-237,0,0,0,0,0,0,0,0,0,-1,853,1261,0,0
-364,-237,0,0,0,0,0,0,0,0,0,-1,860,1261,0,0
-357,-237,0,0,0,0,0,0,0,0,0,-1,867,1261,0,0
-350,-237,0,0,0,0,0,0,0,0,0,-1,874,1261,0,0
-343,-237,0,0,0,0,0,0,0,0,0,-1,881,1261,0,0
-336,-237,0,0,0,0,0,0,0,0,0,-1,888,1261,0,0
-329,-237,0,0,0,0,0,0,0,0,0,-1,895,1261,0,0
-322,-237,0,0,0,0,0,0,0,0,0,-1,902,1261,0,0
-315,-237,0,0,0,0,0,0,0,0,0,-1,909,1261,0,0
-308,-237,0,0,0,0,0,0,0,0,0,-1,916,1261,0,0
-301,-237,0,0,0,0,0,0,0,0,0,-1,923,1261,0,0
-294,-237,0,0,0,0,0,0,0,0,0,-1,930,1261,0,0
-287,-237,0,0,0,0,0,0,0,0,0,-1,937,1261,0,0
-280,-237,0,0,0,0,0,0,0,0,0,-1,944,1261,0,0
-273,-237,0,0,0,0,0,0,0,0,0,-1,951,1261,0,0
-266,-237,0,0,0,0,0,0,0,0,0,-1,958,1261,0,0
-259,-237,0,0,0,0,0,0,0,0,0,-1,965,1261,0,0
-252,-237,0,0,0,0,0,0,0,0,0,-1,972,1261,0,0
-245,-237,0,0,0,0,0,0,0,0,0,-1,979,1261,0,0
-238,-237,0,0,0,0,0,0,0,0,0,-1,986,1261,0,0
-231,-237,0,0,0,0,0,0,0,0,0,-1,993,1261,0,0
-224,-237,0,0,0,0,0,0,0,0,0,-1,1000,1261,0,0
-217,-237,0,0,0,0,0,0,0,0,0,-1,1007,1261,0,0
-210,-237,0,0,0,0,0,0,0,0,0,-1,1014,1261,0,0
-203,-237,0,0,0,0,0,0,0,0,0,-1,1021,1261,0,0
-196,-237,0,0,0,0,0,0,0,0,0,-1,1028,1261,0,0
-189,-237,0,0,0,0,0,0,0,0,0,-1,1035,1261,0,0
-182,-237,0,0,0,0,0,0,0,0,0,-1,1042,1261,0,0
-175,-237,0,0,0,0,0,0,0,0,0,-1,1049,1261,0,0
-168,-237,0,0,0,0,0,0,0,0,0,-1,1056,1261,0,0
-161,-237,0,0,0,0,0,0,0,0,0,-1,1063,1261,0,0
-154,-237,0,0,0,0,0,0,0,0,0,-1,1070,1261,0,0
-147,-237,0,0,0,0,0,0,0,0,0,-1,1077,1261,0,0
-140,-237,0,0,0,0,0,0,0,0,0,-1,1084,1261,0,0
-133,-237,0,0,0,0,0,0,0,0,0,-1,1091,1261,0,0
-126,-237,0,0,0,0,0,0,0,0,0,-1,1098,1261,0,0
-119,-237,0,0,0,0,0,0,0,0,0,-1,1105,1261,0,0
-112,-237,0,0,0,0,0,0,0,0,0,-1,1112,1261,0,0
-105,-237,0,0,0,0,0,0,0,0,0,-1,1119,1261,0,0
-98,-237,0,0,0,0,0,0,0,0,0,-1,1126,1261,0,0
-91,-237,0,0,0,0,0,0,0,0,0,-1,1133,1261,0,0
-84,-237,0,0,0,0,0,0,0,0,0,-1,1140,1261,0,0
-77,-237,0,0,0,0,0,0,0,0,0,-1,1147,1261,0,0
-70,-237,0,0,0,0,0,0,0,0,0,-1,1154,1261,0,0
-63,-237,0,0,0,0,0,0,0,0,0,-1,1161,1261,0,0
-56,-237,0,0,0,0,0,0,0,0,0,-1,1168,1261,0,0
-49,-237,0,0,0,0,0,0,0,0,0,-1,1175,1261,0,0
-42,-237,0,0,0,0,0,0,0,0,0,-1,1182,1261,0,0
-35,-237,0,0,0,0,0,0,0,0,0,-1,1189,1261,0,0
-28,-237,0,0,0,0,0,0,0,0,0,-1,1196,1261,0,0
-21,-237,0,0,0,0,0,0,0,0,0,-1,1203,1261,0,0
-14,-237,0,0,0,0,0,0,0,0,0,-1,1210,1261,0,0
-7,-237,0,0,0,0,0,0,0,0,0,-1,1217,1261,0,0
0,-237,0,0,0,0,0,0,0,0,0,-1,1224,1261,0,0
7,-237,0,0,0,0,0,0,0,0,0,-1,1231,1261,0,0
14,-237,0,0,0,0,0,0,0,0,0,-1,1238,1261,0,0
21,-237,0,0,0,0,0,0,0,0,0,-1,1245,1261,0,0
28,-237,0,0,0,0,0,0,0,0,0,-1,1252,1261,0,0
35,-237,0,0,0,0,0,0,0,0,0,-1,1259,1261,0,0
42,-237,0,0,0,0,0,0,0,0,0,-1,1266,1261,0,0
49,-237,0,0,0,0,0,0,0,0,0,-1,1273,1261,0,0
56,-237,0,0,0,0,0,0,0,0,0,-1,1280,1261,0,0
63,-237,0,0,0,0,0,0,0,0,0,-1,1287,1261,0,0
70,-237,0,0,0,0,0,0,0,0,0,-1,1294,1261,0,0
77,-237,0,0,0,0,0,0,0,0,0,-1,1301,1261,0,0
84,-237,0,0,0,0,0,0,0,0,0,-1,1308,1261,0,0
91,-237,0,0,0,0,0,0,0,0,0,-1,1315,1261,0,0
98,-237,0,0,0,0,0,0,0,0,0,-1,1322,1261,0,0
105,-237,0,0,0,0,0,0,0,0,0,-1,1329,1261,0,0
112,-237,0,0,0,0,0,0,0,0,0,-1,1336,1261,0,0
119,-237,0,0,0,0,0,0,0,0,0,-1,1343,1261,0,0
126,-237,0,0,0,0,0,0,0,0,0,-1,1350,1261,0,0
133,-237,0,0,0,0,0,0,0,0,0,-1,1357,1261,0,0
140,-237,0,0,0,0,0,0,0,0,0,-1,1364,1261,0,0
147,-237,0,0,0,0,0,0,0,0,0,-1,1371,1261,0,0
154,-237,0,0,0,0,0,0,0,0,0,-1,1378,1261,0,0
161,-237,0,0,0,0,0,0,0,0,0,-1,1385,1261,0,0
168,-237,0,0,0,0,0,0,0,0,0,-1,1392,1261,0,0
175,-237,0,0,0,0,0,0,0,0,0,-1,1399,1261,0,0
182,-237,0,0,0,0,0,0,0,0,0,-1,1406,1261,0,0
189,-237,0,0,0,0,0,0,0,0,0,-1,1413,1261,0,0
196,-237,0,0,0,0,0,0,0,0,0,-1,1420,1261,0,0
203,-237,0,0,0,0,0,0,0,0,0,-1,1427,1261,0,0
210,-237,0,0,0,0,0,0,0,0,0,-1,1434,1261,0,0
217,-237,0,0,0,0,0,0,0,0,0,-1,1441,1261,0,0
224,-237,0,0,0,0,0,0,0,0,0,-1,1448,1261,0,0
231,-237,0,0,0,0,0,0,0,0,0,-1,1455,1261,0,0
238,-237,0,0,0,0,0,0,0,0,0,-1,1462,1261,0,0
245,-237,0,0,0,0,0,0,0,0,0,-1,1469,1261,0,0
252,-237,0,0,0,0,0,0,0,0,0,-1,1476,1261,0,0
259,-237,0,0,0,0,0,0,0,0,0,-1,1483,1261,0,0
266,-237,0,0,0,0,0,0,0,0,0,-1,1490,1261,0,0
273,-237,0,0,0,0,0,0,0,0,0,-1,1497,1261,0,0
280,-237,0,0,0,0,0,0,0,0,0,-1,1504,1261,0,0
287,-237,0,0,0,0,0,0,0,0,0,-1,1511,1261,0,0
294,-237,0,0,0,0,0,0,0,0,0,-1,1518,1261,0,0
301,-237,0,0,0,0,0,0,0,0,0,-1,1525,1261,0,0
308,-237,0,0,0,0,0,0,0,0,0,-1,1532,1261,0,0
315,-237,0,0,0,0,0,0,0,0,0,-1,1539,1261,0,0
322,-237,0,0,0,0,0,0,0,0,0,-1,1546,1261,0,0
329,-237,0,0,0,0,0,0,0,0,0,-1,1553,1261,0,0
336,-237,0,0,0,0,0,0,0,0,0,-1,1560,1261,0,0
343,-237,0,0,0,0,0,0,0,0,0,-1,1567,1261,0,0
350,-237,0,0,0,0,0,0,0,0,0,-1,1574,1261,0,0
357,-237,0,0,0,0,0,0,0,0,0,-1,1581,1261,0,0
364,-237,0,0,0,0,0,0,0,0,0,-1,1588,1261,0,0
371,-237,0,0,0,0,0,0,0,0,0,-1,1595,1261,0,0
378,-237,0,0,0,0,0,0,0,0,0,-1,1602,1261,0,0
385,-237,0,0,0,0,0,0,0,0,0,-1,1609,1261,0,0
392,-237,0,0,0,0,0,0,0,0,0,-1,1616,1261,0,0
399,-237,0,0,0,0,0,0,0,0,0,-1,1623,1261,0,0
406,-237,0,0,0,0,0,0,0,0,0,-1,1630,1261,0,0
413,-237,0,0,0,0,0,0,0,0,0,-1,1637,1261,0,0
420,-237,0,0,0,0,0,0,0,0,0,-1,1644,1261,0,0
427,-237,0,0,0,0,0,0,0,0,0,-1,1651,1261,0,0
434,-237,0,0,0,0,0,0,0,0,0,-1,1658,1261,0,0
441,-237,0,0,0,0,0,0,0,0,0,-1,1665,1261,0,0
448,-237,0,0,0,0,0,0,0,0,0,-1,1672,1261,0,0
455,-237,0,0,0,0,0,0,0,0,0,-1,1679,1261,0,0
462,-237,0,0,0,0,0,0,0,0,0,-1,1686,1261,0,0
469,-237,0,0,0,0,0,0,0,0,0,-1,1693,1261,0,0
476,-237,0,0,0,0,0,0,0,0,0,-1,1700,1261,0,0
483,-237,0,0,0,0,0,0,0,0,0,-1,1707,1261,0,0
490,-237,0,0,0,0,0,0,0,0,0,-1,1714,1261,0,0
497,-237,0,0,0,0,0,0,0,0,0,-1,1721,1261,0,0
504,-237,0,0,0,0,0,0,0,0,0,-1,1728,1261,0,0
511,-237,0,0,0,0,0,0,0,0,0,-1,1735,1261,0,0
518,-237,0,0,0,0,0,0,0,0,0,-1,1742,1261,0,0
525,-237,0,0,0,0,0,0,0,0,0,-1,1749,1261,0,0
532,-237,0,0,0,0,0,0,0,0,0,-1,1756,1261,0,0
539,-237,0,0,0,0,0,0,0,0,0,-1,1763,1261,0,0
546,-237,0,0,0,0,0,0,0,0,0,-1,1770,1261,0,0
553,-237,0,0,0,0,0,0,0,0,0,-1,1777,1261,0,0
560,-237,0,0,0,0,0,0,0,0,0,-1,1784,1261,0,0
567,-237,0,0,0,0,0,0,0,0,0,-1,1791,1261,0,0
574,-237,0,0,0,0,0,0,0,0,0,-1,1798,1261,0,0
581,-237,0,0,0,0,0,0,0,0,0,-1,1805,1261,0,0
588,-237,0,0,0,0,0,0,0,0,0,-1,1812,1261,0,0
595,-237,0,0,0,0,0,0,0,0,0,-1,1819,1261,0,0
602,-237,0,0,0,0,0,0,0,0,0,-1,1826,1261,0,0
609,-237,0,0,0,0,0,0,0,0,0,-1,1833,1261,0,0
616,-237,77.731,2.60254,0.00268692,0.00100724,4.09788e-05,0.00268792,0.00100624,0.0243775,0.00156812,0.0379915,1840,1261,77.731,-2.60259
623,-237,77.7485,2.66711,0.000518383,0.00271072,-0.00113419,0.00319188,3.72201e-05,-1.16957,0.00211562,0.0317505,1847,1261,77.7485,-2.66708
630,-237,77.6697,2.59216,-0.00148655,0.0044027,-0.00219228,0.00512917,-0.00221301,-1.25081,0.00434903,0.0260704,1854,1261,77.6696,-2.59219
637,-237,77.4969,2.46423,-0.00279529,0.00553824,-0.00294723,0.0064752,-0.00373226,-1.26299,0.00596378,0.0228327,1861,1261,77.4969,-2.46429
644,-237,77.397,2.30579,-0.00199832,0.0047442,-0.00268264,0.0056813,-0.00293542,-1.23473,0.00505837,0.044122,1868,1261,77.397,-2.30581
651,-237,77.3098,2.14417,0,0,0,0,0,0,0,-1,1875,1261,77.3099,-2.14411
658,-237,76.8235,1.29675,0,0,0,0,0,0,0,-1,1882,1261,76.8235,-1.2968
665,-237,57.9302,3.30676,0,0,0,0,0,0,0,-1,1889,1261,57.9302,-3.30671
672,-237,45.3922,1.95618,0,0,0,0,0,0,0,-1,1896,1261,45.3922,-1.95623
679,-237,23.1501,7.37488,0,0,0,0,0,0,0,-1,1903,1261,23.1502,-7.37493
686,-237,36.8348,9.99426,0,0,0,0,0,0,0,-1,1910,1261,36.8349,-9.99424
693,-237,58.3518,14.4401,0,0,0,0,0,0,0,-1,1917,1261,58.3518,-14.4401
700,-237,58.1346,13.7482,-0.000106232,-0.000160421,0.00115791,0.0010249,-0.00129156,0.773701,0.00134036,0.0410637,1924,1261,58.1347,-13.7481
707,-237,57.9851,13.0232,-0.000424097,-0.00019758,0.00151745,0.00121083,-0.00183251,0.822648,0.00176925,0.0276747,1931,1261,57.9851,-13.0232
714,-237,57.8788,12.2427,-0.00103557,-0.000105762,0.00193474,0.00141914,-0.00256047,0.903309,0.00232892,0.0186419,1938,1261,57.8787,-12.2427
721,-237,57.8127,11.4884,-0.00184052,-0.000144902,0.00245967,0.00160898,-0.0035944,0.951364,0.0030762,0.0201989,1945,1261,57.8127,-11.4884
728,-237,57.8037,10.6936,-0.00276564,-0.000309525,0.00305508,0.00175508,-0.00483025,0.976501,0.0039378,0.0168342,1952,1261,57.8037,-10.6937
735,-237,57.7671,9.90955,-0.00392238,-0.00043166,0.00384144,0.00204233,-0.00639637,0.998631,0.00508367,0.0205142,1959,1261,57.7671,-9.9095
742,-237,57.7174,9.14709,-0.00528642,-0.000625638,0.00489428,0.00246474,-0.00837679,1.00759,0.00656225,0.0166491,1966,1261,57.7174,-9.14708
749,-237,57.6334,8.3988,-0.00684472,-0.000876612,0.00622637,0.00304384,-0.0107652,1.00886,0.00837779,0.011156,1973,1261,57.6335,-8.39881
756,-237,57.5698,7.64966,-0.00874479,-0.00122843,0.00804301,0.00389111,-0.0138643,1.00396,0.0107767,0.0176333,1980,1261,57.5698,-7.64969
763,-237,57.208,6.88269,-0.0113713,-0.00197586,0.0109514,0.00524287,-0.01859,0.988008,0.0144613,0.039297,1987,1261,57.208,-6.88266
770,-237,57.1047,5.89429,0,0,0,0,0,0,0,-1,1994,1261,57.1047,-5.89426
777,-237,56.8215,4.47815,0,0,0,0,0,0,0,-1,2001,1261,56.8214,-4.47817
784,-237,36.3441,1.68591,0,0,0,0,0,0,0,-1,2008,1261,36.3441,-1.68592
791,-237,32.3025,6.03235,0,0,0,0,0,0,0,-1,2015,1261,32.3025,-6.03229
798,-237,0,0,0,0,0,0,0,0,0,-1,2022,1261,0,0
805,-237,0,0,0,0,0,0,0,0,0,-1,2029,1261,0,0
812,-237,0,0,0,0,0,0,0,0,0,-1,2036,1261,0,0
-700,-244,0,0,0,0,0,0,0,0,0,-1,524,1268,0,0
-693,-244,0,0,0,0,0,0,0,0,0,-1,531,1268,0,0
-686,-244,0,0,0,0,0,0,0,0,0,-1,538,1268,0,0
-679,-244,0,0,0,0,0,0,0,0,0,-1,545,1268,0,0
-672,-244,-44.7993,4.39575,0,0,0,0,0,0,0,-1,552,1268,-44.7992,-4.39576
-665,-244,-46.0868,3.64392,0,0,0,0,0,0,0,-1,559,1268,-46.0868,-3.64391
-658,-244,-45.9758,2.05481,0,0,0,0,0,0,0,-1,566,1268,-45.9758,-2.05486
-651,-244,-46.4749,1.28564,0,0,0,0,0,0,0,-1,573,1268,-46.4749,-1.28561
-644,-244,-32.7362,1.51355,0,0,0,0,0,0,0,-1,580,1268,-32.7362,-1.51355
-637,-244,-34.8414,3.00073,0,0,0,0,0,0,0,-1,587,1268,-34.8414,-3.00078
-630,-244,-40.744,6.07507,0,0,0,0,0,0,0,-1,594,1268,-40.744,-6.07509
-623,-244,-40.6672,6.86511,-0.000339782,0.00186051,0.0018925,0.0029494,-0.00142867,1.04868,0.00257801,0.0436265,601,1268,-40.6672,-6.86511
-616,-244,-40.6176,7.66406,0.000147891,0.00169906,0.0013283,0.00246163,-0.000614674,1.04965,0.00187978,0.0188319,608,1268,-40.6176,-7.66407
-609,-244,-40.6863,8.47156,3.37901e-05,0.00156807,0.000639056,0.00179938,-0.000197517,1.22351,0.00127055,0.015284,615,1268,-40.6863,-8.47155
-602,-244,-40.7272,9.28992,-0.000279043,0.00100187,-7.49376e-05,0.00100624,-0.000283412,-1.51256,0.000782594,0.0158981,622,1268,-40.7272,-9.28993
-595,-244,-40.7755,10.1123,-0.000636294,0.000310124,-0.000811896,0.00077665,-0.00110282,-1.04925,0.00109055,0.0164858,629,1268,-40.7754,-10.1123
-588,-244,-40.8116,10.9473,-0.00108078,-0.000523004,-0.00151351,0.000737103,-0.00234088,-0.876508,0.00185574,0.0210416,636,1268,-40.8116,-10.9473
-581,-244,-40.8679,11.6865,-0.00187625,-0.00138153,-0.00189241,0.00027962,-0.0035374,-0.850386,0.00245678,0.0190149,643,1268,-40.8679,-11.6865
-574,-244,-40.9101,12.4276,-0.00279476,-0.00210231,-0.00194361,-0.000474329,-0.00442273,-0.873541,0.00280379,0.0320085,650,1268,-40.9101,-12.4276
-567,-244,-41.0408,13.2366,-0.00343284,-0.00173776,-0.00197465,-0.000436449,-0.00473415,-0.988115,0.00302114,0.0390417,657,1268,-41.0408,-13.2366
-560,-244,-41.0779,14.0056,-0.00394608,-0.000799523,-0.00162423,-0.000111536,-0.00463407,-1.17013,0.00305288,0.0445268,664,1268,-41.0779,-14.0057
-553,-244,-41.0078,14.7784,0,0,0,0,0,0,0,-1,671,1268,-41.0078,-14.7784
-546,-244,-11.2686,4.41772,0,0,0,0,0,0,0,-1,678,1268,-11.2686,-4.41767
-539,-244,-12.8706,0.3302,0,0,0,0,0,0,0,-1,685,1268,-12.8706,-0.330156
-532,-244,-18.1502,0.816528,0,0,0,0,0,0,0,-1,692,1268,-18.1502,-0.816514
-525,-244,-33.0835,0.693604,0,0,0,0,0,0,0,-1,699,1268,-33.0835,-0.69365
-518,-244,-47.5015,0.609131,0,0,0,0,0,0,0,-1,706,1268,-47.5015,-0.60919
-511,-244,-48.6138,1.11877,0,0,0,0,0,0,0,-1,713,1268,-48.6138,-1.11872
-504,-244,-60.9648,0.608154,0,0,0,0,0,0,0,-1,720,1268,-60.9648,-0.608142
-497,-244,-61.1396,0.656372,0,0,0,0,0,0,0,-1,727,1268,-61.1396,-0.656412
-490,-244,0,0,0,0,0,0,0,0,0,-1,734,1268,0,0
-483,-244,0,0,0,0,0,0,0,0,0,-1,741,1268,0,0
-476,-244,0,0,0,0,0,0,0,0,0,-1,748,1268,0,0
-469,-244,0,0,0,0,0,0,0,0,0,-1,755,1268,0,0
-462,-244,0,0,0,0,0,0,0,0,0,-1,762,1268,0,0
-455,-244,0,0,0,0,0,0,0,0,0,-1,769,1268,0,0
-448,-244,0,0,0,0,0,0,0,0,0,-1,776,1268,0,0
-441,-244,0,0,0,0,0,0,0,0,0,-1,783,1268,0,0
-434,-244,0,0,0,0,0,0,0,0,0,-1,790,1268,0,0
-427,-244,0,0,0,0,0,0,0,0,0,-1,797,1268,0,0
-420,-244,0,0,0,0,0,0,0,0,0,-1,804,1268,0,0
-413,-244,0,0,0,0,0,0,0,0,0,-1,811,1268,0,0
-406,-244,0,0,0,0,0,0,0,0,0,-1,818,1268,0,0
-399,-244,0,0,0,0,0,0,0,0,0,-1,825,1268,0,0
-392,-244,0,0,0,0,0,0,0,0,0,-1,832,1268,0,0
-385,-244,0,0,0,0,0,0,0,0,0,-1,839,1268,0,0
-378,-244,0,0,0,0,0,0,0,0,0,-1,846,1268,0,0
-371,-244,0,0,0,0,0,0,0,0,0,-1,853,1268,0,0
-364,-244,0,0,0,0,0,0,0,0,0,-1,860,1268,0,0
-357,-244,0,0,0,0,0,0,0,0,0,-1,867,1268,0,0
-350,-244,0,0,0,0,0,0,0,0,0,-1,874,1268,0,0
-343,-244,0,0,0,0,0,0,0,0,0,-1,881,1268,0,0
-336,-244,0,0,0,0,0,0,0,0,0,-1,888,1268,0,0
-329,-244,0,0,0,0,0,0,0,0,0,-1,895,1268,0,0
-322,-244,0,0,0,0,0,0,0,0,0,-1,902,1268,0,0
-315,-244,0,0,0,0,0,0,0,0,0,-1,909,1268,0,0
-308,-244,0,0,0,0,0,0,0,0,0,-1,916,1268,0,0
-301,-244,0,0,0,0,0,0,0,0,0,-1,923,1268,0,0
-294,-244,0,0,0,0,0,0,0,0,0,-1,930,1268,0,0
-287,-244,0,0,0,0,0,0,0,0,0,-1,937,1268,0,0
-280,-244,0,0,0,0,0,0,0,0,0,-1,944,1268,0,0
-273,-244,0,0,0,0,0,0,0,0,0,-1,951,1268,0,0
-266,-244,0,0,0,0,0,0,0,0,0,-1,958,1268,0,0
-259,-244,0,0,0,0,0,0,0,0,0,-1,965,1268,0,0
-252,-244,0,0,0,0,0,0,0,0,0,-1,972,1268,0,0
-245,-244,0,0,0,0,0,0,0,0,0,-1,979,1268,0,0
-238,-244,0,0,0,0,0,0,0,0,0,-1,986,1268,0,0
-231,-244,0,0,0,0,0,0,0,0,0,-1,993,1268,0,0
-224,-244,0,0,0,0,0,0,0,0,0,-1,1000,1268,0,0
-217,-244,0,0,0,0,0,0,0,0,0,-1,1007,1268,0,0
-210,-244,0,0,0,0,0,0,0,0,0,-1,1014,1268,0,0
-203,-244,0,0,0,0,0,0,0,0,0,-1,1021,1268,0,0
-196,-244,0,0,0,0,0,0,0,0,0,-1,1028,1268,0,0
-189,-244,0,0,0,0,0,0,0,0,0,-1,1035,1268,0,0
-182,-244,0,0,0,0,0,0,0,0,0,-1,1042,1268,0,0
-175,-244,0,0,0,0,0,0,0,0,0,-1,1049,1268,0,0
-168,-244,0,0,0,0,0,0,0,0,0,-1,1056,1268,0,0
-161,-244,0,0,0,0,0,0,0,0,0,-1,1063,1268,0,0
-154,-244,0,0,0,0,0,0,0,0,0,-1,1070,1268,0,0
-147,-244,0,0,0,0,0,0,0,0,0,-1,1077,1268,0,0
-140,-244,0,0,0,0,0,0,0,0,0,-1,1084,1268,0,0
-133,-244,0,0,0,0,0,0,0,0,0,-1,1091,1268,0,0
-126,-244,0,0,0,0,0,0,0,0,0,-1,1098,1268,0,0
-119,-244,0,0,0,0,0,0,0,0,0,-1,1105,1268,0,0
-112,-244,0,0,0,0,0,0,0,0,0,-1,1112,1268,0,0
-105,-244,0,0,0,0,0,0,0,0,0,-1,1119,1268,0,0
-98,-244,0,0,0,0,0,0,0,0,0,-1,1126,1268,0,0
-91,-244,0,0,0,0,0,0,0,0,0,-1,1133,1268,0,0
-84,-244,0,0,0,0,0,0,0,0,0,-1,1140,1268,0,0
-77,-244,0,0,0,0,0,0,0,0,0,-1,1147,1268,0,0
-70,-244,0,0,0,0,0,0,0,0,0,-1,1154,1268,0,0
-63,-244,0,0,0,0,0,0,0,0,0,-1,1161,1268,0,0
-56,-244,0,0,0,0,0,0,0,0,0,-1,1168,1268,0,0
-49,-244,0,0,0,0,0,0,0,0,0,-1,1175,1268,0,0
-42,-244,0,0,0,0,0,0,0,0,0,-1,1182,1268,0,0
-35,-244,0,0,0,0,0,0,0,0,0,-1,1189,1268,0,0
-28,-244,0,0,0,0,0,0,0,0,0,-1,1196,1268,0,0
-21,-244,0,0,0,0,0,0,0,0,0,-1,1203,1268,0,0
-14,-244,0,0,0,0,0,0,0,0,0,-1,1210,1268,0,0
-7,-244,0,0,0,0,0,0,0,0,0,-1,1217,1268,0,0
0,-244,0,0,0,0,0,0,0,0,0,-1,1224,1268,0,0
7,-244,0,0,0,0,0,0,0,0,0,-1,1231,1268,0,0
14,-244,0,0,0,0,0,0,0,0,0,-1,1238,1268,0,0
21,-244,0,0,0,0,0,0,0,0,0,-1,1245,1268,0,0
28,-244,0,0,0,0,0,0,0,0,0,-1,1252,1268,0,0
35,-244,0,0,0,0,0,0,0,0,0,-1,1259,1268,0,0
42,-244,0,0,0,0,0,0,0,0,0,-1,1266,1268,0,0
49,-244,0,0,0,0,0,0,0,0,0,-1,1273,1268,0,0
56,-244,0,0,0,0,0,0,0,0,0,-1,1280,1268,0,0
63,-244,0,0,0,0,0,0,0,0,0,-1,1287,1268,0,0
70,-244,0,0,0,0,0,0,0,0,0,-1,1294,1268,0,0
77,-244,0,0,0,0,0,0,0,0,0,-1,1301,1268,0,0
84,-244,0,0,0,0,0,0,0,0,0,-1,1308,1268,0,0
91,-244,0,0,0,0,0,0,0,0,0,-1,1315,1268,0,0
98,-244,0,0,0,0,0,0,0,0,0,-1,1322,1268,0,0
105,-244,0,0,0,0,0,0,0,0,0,-1,1329,1268,0,0
112,-244,0,0,0,0,0,0,0,0,0,-1,1336,1268,0,0
119,-244,0,0,0,0,0,0,0,0,0,-1,1343,1268,0,0
126,-244,0,0,0,0,0,0,0,0,0,-1,1350,1268,0,0
133,-244,0,0,0,0,0,0,0,0,0,-1,1357,1268,0,0
140,-244,0,0,0,0,0,0,0,0,0,-1,1364,1268,0,0
147,-244,0,0,0,0,0,0,0,0,0,-1,1371,1268,0,0
154,-244,0,0,0,0,0,0,0,0,0,-1,1378,1268,0,0
161,-244,0,0,0,0,0,0,0,0,0,-1,1385,1268,0,0
168,-244,0,0,0,0,0,0,0,0,0,-1,1392,1268,0,0
175,-244,0,0,0,0,0,0,0,0,0,-1,1399,1268,0,0
182,-244,0,0,0,0,0,0,0,0,0,-1,1406,1268,0,0
189,-244,0,0,0,0,0,0,0,0,0,-1,1413,1268,0,0
196,-244,0,0,0,0,0,0,0,0,0,-1,1420,1268,0,0
203,-244,0,0,0,0,0,0,0,0,0,-1,1427,1268,0,0
210,-244,0,0,0,0,0,0,0,0,0,-1,1434,1268,0,0
217,-244,0,0,0,0,0,0,0,0,0,-1,1441,1268,0,0
224,-244,0,0,0,0,0,0,0,0,0,-1,1448,1268,0,0
231,-244,0,0,0,0,0,0,0,0,0,-1,1455,1268,0,0
238,-244,0,0,0,0,0,0,0,0,0,-1,1462,1268,0,0
245,-244,0,0,0,0,0,0,0,0,0,-1,1469,1268,0,0
252,-244,0,0,0,0,0,0,0,0,0,-1,1476,1268,0,0
259,-244,0,0,0,0,0,0,0,0,0,-1,1483,1268,0,0
266,-244,0,0,0,0,0,0,0,0,0,-1,1490,1268,0,0
273,-244,0,0,0,0,0,0,0,0,0,-1,1497,1268,0,0
280,-244,0,0,0,0,0,0,0,0,0,-1,1504,1268,0,0
287,-244,0,0,0,0,0,0,0,0,0,-1,1511,1268,0,0
294,-244,0,0,0,0,0,0,0,0,0,-1,1518,1268,0,0
301,-244,0,0,0,0,0,0,0,0,0,-1,1525,1268,0,0
308,-244,0,0,0,0,0,0,0,0,0,-1,1532,1268,0,0
315,-244,0,0,0,0,0,0,0,0,0,-1,1539,1268,0,0
322,-244,0,0,0,0,0,0,0,0,0,-1,1546,1268,0,0
329,-244,0,0,0,0,0,0,0,0,0,-1,1553,1268,0,0
336,-244,0,0,0,0,0,0,0,0,0,-1,1560,1268,0,0
343,-244,0,0,0,0,0,0,0,0,0,-1,1567,1268,0,0
350,-244,0,0,0,0,0,0,0,0,0,-1,1574,1268,0,0
357,-244,0,0,0,0,0,0,0,0,0,-1,1581,1268,0,0
364,-244,0,0,0,0,0,0,0,0,0,-1,1588,1268,0,0
371,-244,0,0,0,0,0,0,0,0,0,-1,1595,1268,0,0
378,-244,0,0,0,0,0,0,0,0,0,-1,1602,1268,0,0
385,-244,0,0,0,0,0,0,0,0,0,-1,1609,1268,0,0
392,-244,0,0,0,0,0,0,0,0,0,-1,1616,1268,0,0
399,-244,0,0,0,0,0,0,0,0,0,-1,1623,1268,0,0
406,-244,0,0,0,0,0,0,0,0,0,-1,1630,1268,0,0
413,-244,0,0,0,0,0,0,0,0,0,-1,1637,1268,0,0
420,-244,0,0,0,0,0,0,0,0,0,-1,1644,1268,0,0
427,-244,0,0,0,0,0,0,0,0,0,-1,1651,1268,0,0
434,-244,0,0,0,0,0,0,0,0,0,-1,1658,1268,0,0
441,-244,0,0,0,0,0,0,0,0,0,-1,1665,1268,0,0
448,-244,0,0,0,0,0,0,0,0,0,-1,1672,1268,0,0
455,-244,0,0,0,0,0,0,0,0,0,-1,1679,1268,0,0
462,-244,0,0,0,0,0,0,0,0,0,-1,1686,1268,0,0
469,-244,0,0,0,0,0,0,0,0,0,-1,1693,1268,0,0
476,-244,0,0,0,0,0,0,0,0,0,-1,1700,1268,0,0
483,-244,0,0,0,0,0,0,0,0,0,-1,1707,1268,0,0
490,-244,0,0,0,0,0,0,0,0,0,-1,1714,1268,0,0
497,-244,0,0,0,0,0,0,0,0,0,-1,1721,1268,0,0
504,-244,0,0,0,0,0,0,0,0,0,-1,1728,1268,0,0
511,-244,0,0,0,0,0,0,0,0,0,-1,1735,1268,0,0
518,-244,0,0,0,0,0,0,0,0,0,-1,1742,1268,0,0
525,-244,0,0,0,0,0,0,0,0,0,-1,1749,1268,0,0
532,-244,0,0,0,0,0,0,0,0,0,-1,1756,1268,0,0
539,-244,0,0,0,0,0,0,0,0,0,-1,1763,1268,0,0
546,-244,0,0,0,0,0,0,0,0,0,-1,1770,1268,0,0
553,-244,0,0,0,0,0,0,0,0,0,-1,1777,1268,0,0
560,-244,0,0,0,0,0,0,0,0,0,-1,1784,1268,0,0
567,-244,0,0,0,0,0,0,0,0,0,-1,1791,1268,0,0
574,-244,0,0,0,0,0,0,0,0,0,-1,1798,1268,0,0
581,-244,0,0,0,0,0,0,0,0,0,-1,1805,1268,0,0
588,-244,0,0,0,0,0,0,0,0,0,-1,1812,1268,0,0
595,-244,0,0,0,0,0,0,0,0,0,-1,1819,1268,0,0
602,-244,0,0,0,0,0,0,0,0,0,-1,1826,1268,0,0
609,-244,0,0,0,0,0,0,0,0,0,-1,1833,1268,0,0
616,-244,77.6385,2.47119,0.00214341,0.00187184,-0.000311157,0.00234712,0.00166813,-0.579662,0.00139464,0.0332508,1840,1268,77.6385,-2.47125
623,-244,77.6378,2.50269,-0.000198334,0.0038355,-0.00185707,0.00456024,-0.000923069,-1.19872,0.00339,0.0270801,1847,1268,77.6378,-2.50273
630,-244,77.5902,2.53931,-0.00240366,0.00562467,-0.00311658,0.0066925,-0.00347149,-1.24071,0.00596559,0.0256461,1854,1268,77.5902,-2.5393
637,-244,77.5609,2.50232,-0.00328986,0.00615544,-0.0035759,0.00735651,-0.00449093,-1.24676,0.0069065,0.0433444,1861,1268,77.5609,-2.50228
644,-244,77.5393,2.41028,0,0,0,0,0,0,0,-1,1868,1268,77.5393,-2.41022
651,-244,76.5712,1.61145,0,0,0,0,0,0,0,-1,1875,1268,76.5712,-1.61143
658,-244,71.6105,1.55334,0,0,0,0,0,0,0,-1,1882,1268,71.6104,-1.55332
665,-244,50.7988,1.09888,0,0,0,0,0,0,0,-1,1889,1268,50.7989,-1.09893
672,-244,32.224,3.6123,0,0,0,0,0,0,0,-1,1896,1268,32.224,-3.6123
679,-244,27.2593,7.90649,0,0,0,0,0,0,0,-1,1903,1268,27.2592,-7.9065
686,-244,57.2581,15.3485,0,0,0,0,0,0,0,-1,1910,1268,57.258,-15.3486
693,-244,57.2017,14.6564,-0.000162559,-8.36027e-06,0.000869223,0.000787176,-0.000958096,0.829632,0.00100924,0.0396801,1917,1268,57.2017,-14.6563
700,-244,57.2185,13.8552,8.21092e-05,-0.000604748,0.0010952,0.000886461,-0.0014091,0.633465,0.00133674,0.0172547,1924,1268,57.2186,-13.8553
707,-244,57.1528,13.075,-0.000358757,-0.000583516,0.00145952,0.000992708,-0.00193498,0.746975,0.00171924,0.0139331,1931,1268,57.1528,-13.0749
714,-244,57.207,12.2832,-0.00111081,-0.000424497,0.00190523,0.00116824,-0.00270354,0.874499,0.00229321,0.0168104,1938,1268,57.207,-12.2831
721,-244,57.0869,11.5585,-0.00204178,-0.000349785,0.00247814,0.00142279,-0.00381435,0.949887,0.00312699,0.0244439,1945,1268,57.0869,-11.5585
728,-244,57.0366,10.7327,-0.00311877,-0.000363656,0.00316268,0.00170845,-0.00519088,0.990791,0.00414902,0.0313277,1952,1268,57.0366,-10.7327
735,-244,56.9689,9.86011,-0.00443094,-0.000417499,0.0040508,0.00209639,-0.00694484,1.01537,0.00546442,0.0300191,1959,1268,56.9688,-9.86017
742,-244,56.9026,9.21509,-0.00598124,-0.0005603,0.00520054,0.00259372,-0.00913526,1.02563,0.00711414,0.017984,1966,1268,56.9026,-9.21511
749,-244,56.7363,8.58875,-0.00779236,-0.000789829,0.00664662,0.00322133,-0.0118035,1.02782,0.00913413,0.0247083,1973,1268,56.7364,-8.58879
756,-244,56.5791,7.92969,-0.0100808,-0.00117314,0.00865635,0.00410796,-0.0153619,1.02299,0.0118504,0.0347915,1980,1268,56.579,-7.9297
763,-244,56.5424,7.05249,0,0,0,0,0,0,0,-1,1987,1268,56.5423,-7.05246
770,-244,56.2969,5.43298,0,0,0,0,0,0,0,-1,1994,1268,56.2969,-5.43297
777,-244,48.7119,2.7002,0,0,0,0,0,0,0,-1,2001,1268,48.712,-2.70019
784,-244,31.7908,5.20081,0,0,0,0,0,0,0,-1,2008,1268,31.7907,-5.20083
791,-244,0,0,0,0,0,0,0,0,0,-1,2015,1268,0,0
798,-244,0,0,0,0,0,0,0,0,0,-1,2022,1268,0,0
805,-244,0,0,0,0,0,0,0,0,0,-1,2029,1268,0,0
812,-244,0,0,0,0,0,0,0,0,0,-1,2036,1268,0,0
-700,-251,0,0,0,0,0,0,0,0,0,-1,524,1275,0,0
-693,-251,0,0,0,0,0,0,0,0,0,-1,531,1275,0,0
-686,-251,0,0,0,0,0,0,0,0,0,-1,538,1275,0,0
-679,-251,0,0,0,0,0,0,0,0,0,-1,545,1275,0,0
-672,-251,0,0,0,0,0,0,0,0,0,-1,552,1275,0,0
-665,-251,-45.2521,2.44568,0,0,0,0,0,0,0,-1,559,1275,-45.2521,-2.44573
-658,-251,-45.5222,1.44397,0,0,0,0,0,0,0,-1,566,1275,-45.5221,-1.44401
-651,-251,-45.8498,0.382935,0,0,0,0,0,0,0,-1,573,1275,-45.8498,-0.382965
-644,-251,-46.2018,-0.658325,0,0,0,0,0,0,0,-1,580,1275,-46.2019,0.658365
-637,-251,-35.2292,3.33899,0,0,0,0,0,0,0,-1,587,1275,-35.2292,-3.33904
-630,-251,-39.9356,6.0929,0,0,0,0,0,0,0,-1,594,1275,-39.9356,-6.09291
-623,-251,-39.8921,6.896,0.000672568,0.00197054,0.00335104,0.00473486,-0.00209175,0.881048,0.00403862,0.0421707,601,1275,-39.8921,-6.89603
-616,-251,-39.8155,7.71204,0.000901425,0.00184488,0.00245293,0.00387103,-0.00112473,0.880394,0.00302609,0.0218026,608,1275,-39.8155,-7.71208
-609,-251,-39.8814,8.51709,0.000493193,0.00175643,0.00154486,0.00279381,-0.000544181,0.979455,0.00206794,0.0209812,615,1275,-39.8814,-8.51703
-602,-251,-39.916,9.32092,-9.09735e-05,0.0011259,0.00070505,0.00144875,-0.00041382,1.14139,0.00112934,0.0150481,622,1275,-39.916,-9.32094
-595,-251,-39.9717,10.1248,-0.000659358,0.000371597,-0.000106392,0.000382462,-0.000670223,-1.46903,0.000615291,0.0129923,629,1275,-39.9717,-10.1247
-588,-251,-40.0083,10.9175,-0.00124954,-0.000524557,-0.000842373,3.0007e-05,-0.00180411,-0.988584,0.00121286,0.0145377,636,1275,-40.0083,-10.9175
-581,-251,-40.0417,11.7517,-0.00201104,-0.00150987,-0.00139419,-0.000343924,-0.00317699,-0.874316,0.00201317,0.0147341,643,1275,-40.0417,-11.7517
-574,-251,-40.0869,12.6136,-0.00282491,-0.00241339,-0.00168355,-0.000923074,-0.00431523,-0.846205,0.00262382,0.0213281,650,1275,-40.0869,-12.6137
-567,-251,-40.2776,13.3569,-0.00340612,-0.00228889,-0.00187142,-0.00089449,-0.00480052,-0.930436,0.00294778,0.0364971,657,1275,-40.2776,-13.3569
-560,-251,-40.3434,14.2531,-0.00383087,-0.00126531,-0.00159137,-0.000504075,-0.0045921,-1.12462,0.00290798,0.0467436,664,1275,-40.3434,-14.2531
-553,-251,-40.1629,15.1333,0,0,0,0,0,0,0,-1,671,1275,-40.1629,-15.1334
-546,-251,-12.995,4.5675,0,0,0,0,0,0,0,-1,678,1275,-12.995,-4.56745
-539,-251,-10.7916,0.366333,0,0,0,0,0,0,0,-1,685,1275,-10.7916,-0.366282
-532,-251,-10.7391,-0.00769043,0,0,0,0,0,0,0,-1,692,1275,-10.7391,0.00773227
-525,-251,-29.4286,-0.250244,0,0,0,0,0,0,0,-1,699,1275,-29.4286,0.250266
-518,-251,-32.6981,0.678833,0,0,0,0,0,0,0,-1,706,1275,-32.6981,-0.678787
-511,-251,-29.4731,0.637085,0,0,0,0,0,0,0,-1,713,1275,-29.4731,-0.637025
-504,-251,-30.6428,0.792358,0,0,0,0,0,0,0,-1,720,1275,-30.6427,-0.792335
-497,-251,-54.1249,0.753784,0,0,0,0,0,0,0,-1,727,1275,-54.1249,-0.753774
-490,-251,0,0,0,0,0,0,0,0,0,-1,734,1275,0,0
-483,-251,0,0,0,0,0,0,0,0,0,-1,741,1275,0,0
-476,-251,0,0,0,0,0,0,0,0,0,-1,748,1275,0,0
-469,-251,0,0,0,0,0,0,0,0,0,-1,755,1275,0,0
-462,-251,0,0,0,0,0,0,0,0,0,-1,762,1275,0,0
-455,-251,0,0,0,0,0,0,0,0,0,-1,769,1275,0,0
-448,-251,0,0,0,0,0,0,0,0,0,-1,776,1275,0,0
-441,-251,0,0,0,0,0,0,0,0,0,-1,783,1275,0,0
-434,-251,0,0,0,0,0,0,0,0,0,-1,790,1275,0,0
-427,-251,0,0,0,0,0,0,0,0,0,-1,797,1275,0,0
-420,-251,0,0,0,0,0,0,0,0,0,-1,804,1275,0,0
-413,-251,0,0,0,0,0,0,0,0,0,-1,811,1275,0,0
-406,-251,0,0,0,0,0,0,0,0,0,-1,818,1275,0,0
-399,-251,0,0,0,0,0,0,0,0,0,-1,825,1275,0,0
-392,-251,0,0,0,0,0,0,0,0,0,-1,832,1275,0,0
-385,-251,0,0,0,0,0,0,0,0,0,-1,839,1275,0,0
-378,-251,0,0,0,0,0,0,0,0,0,-1,846,1275,0,0
-371,-251,0,0,0,0,0,0,0,0,0,-1,853,1275,0,0
-364,-251,0,0,0,0,0,0,0,0,0,-1,860,1275,0,0
-357,-251,0,0,0,0,0,0,0,0,0,-1,867,1275,0,0
-350,-251,0,0,0,0,0,0,0,0,0,-1,874,1275,0,0
-343,-251,0,0,0,0,0,0,0,0,0,-1,881,1275,0,0
-336,-251,0,0,0,0,0,0,0,0,0,-1,888,1275,0,0
-329,-251,0,0,0,0,0,0,0,0,0,-1,895,1275,0,0
-322,-251,0,0,0,0,0,0,0,0,0,-1,902,1275,0,0
-315,-251,0,0,0,0,0,0,0,0,0,-1,909,1275,0,0
-308,-251,0,0,0,0,0,0,0,0,0,-1,916,1275,0,0
-301,-251,0,0,0,0,0,0,0,0,0,-1,923,1275,0,0
-294,-251,0,0,0,0,0,0,0,0,0,-1,930,1275,0,0
-287,-251,0,0,0,0,0,0,0,0,0,-1,937,1275,0,0
-280,-251,0,0,0,0,0,0,0,0,0,-1,944,1275,0,0
-273,-251,0,0,0,0,0,0,0,0,0,-1,951,1275,0,0
-266,-251,0,0,0,0,0,0,0,0,0,-1,958,1275,0,0
-259,-251,0,0,0,0,0,0,0,0,0,-1,965,1275,0,0
-252,-251,0,0,0,0,0,0,0,0,0,-1,972,1275,0,0
-245,-251,0,0,0,0,0,0,0,0,0,-1,979,1275,0,0
-238,-251,0,0,0,0,0,0,0,0,0,-1,986,1275,0,0
-231,-251,0,0,0,0,0,0,0,0,0,-1,993,1275,0,0
-224,-251,0,0,0,0,0,0,0,0,0,-1,1000,1275,0,0
-217,-251,0,0,0,0,0,0,0,0,0,-1,1007,1275,0,0
-210,-251,0,0,0,0,0,0,0,0,0,-1,1014,1275,0,0
-203,-251,0,0,0,0,0,0,0,0,0,-1,1021,1275,0,0
-196,-251,0,0,0,0,0,0,0,0,0,-1,1028,1275,0,0
-189,-251,0,0,0,0,0,0,0,0,0,-1,1035,1275,0,0
-182,-251,0,0,0,0,0,0,0,0,0,-1,1042,1275,0,0
-175,-251,0,0,0,0,0,0,0,0,0,-1,1049,1275,0,0
-168,-251,0,0,0,0,0,0,0,0,0,-1,1056,1275,0,0
-161,-251,0,0,0,0,0,0,0,0,0,-1,1063,1275,0,0
-154,-251,0,0,0,0,0,0,0,0,0,-1,1070,1275,0,0
-147,-251,0,0,0,0,0,0,0,0,0,-1,1077,1275,0,0
-140,-251,0,0,0,0,0,0,0,0,0,-1,1084,1275,0,0
-133,-251,0,0,0,0,0,0,0,0,0,-1,1091,1275,0,0
-126,-251,0,0,0,0,0,0,0,0,0,-1,1098,1275,0,0
-119,-251,0,0,0,0,0,0,0,0,0,-1,1105,1275,0,0
-112,-251,0,0,0,0,0,0,0,0,0,-1,1112,1275,0,0
-105,-251,0,0,0,0,0,0,0,0,0,-1,1119,1275,0,0
-98,-251,0,0,0,0,0,0,0,0,0,-1,1126,1275,0,0
-91,-251,0,0,0,0,0,0,0,0,0,-1,1133,1275,0,0
-84,-251,0,0,0,0,0,0,0,0,0,-1,1140,1275,0,0
-77,-251,0,0,0,0,0,0,0,0,0,-1,1147,1275,0,0
-70,-251,0,0,0,0,0,0,0,0,0,-1,1154,1275,0,0
-63,-251,0,0,0,0,0,0,0,0,0,-1,1161,1275,0,0
-56,-251,0,0,0,0,0,0,0,0,0,-1,1168,1275,0,0
-49,-251,0,0,0,0,0,0,0,0,0,-1,1175,1275,0,0
-42,-251,0,0,0,0,0,0,0,0,0,-1,1182,1275,0,0
-35,-251,0,0,0,0,0,0,0,0,0,-1,1189,1275,0,0
-28,-251,0,0,0,0,0,0,0,0,0,-1,1196,1275,0,0
-21,-251,0,0,0,0,0,0,0,0,0,-1,1203,1275,0,0
-14,-251,0,0,0,0,0,0,0,0,0,-1,1210,1275,0,0
-7,-251,0,0,0,0,0,0,0,0,0,-1,1217,1275,0,0
0,-251,0,0,0,0,0,0,0,0,0,-1,1224,1275,0,0
7,-251,0,0,0,0,0,0,0,0,0,-1,1231,1275,0,0
14,-251,0,0,0,0,0,0,0,0,0,-1,1238,1275,0,0
21,-251,0,0,0,0,0,0,0,0,0,-1,1245,1275,0,0
28,-251,0,0,0,0,0,0,0,0,0,-1,1252,1275,0,0
35,-251,0,0,0,0,0,0,0,0,0,-1,1259,1275,0,0
42,-251,0,0,0,0,0,0,0,0,0,-1,1266,1275,0,0
49,-251,0,0,0,0,0,0,0,0,0,-1,1273,1275,0,0
56,-251,0,0,0,0,0,0,0,0,0,-1,1280,1275,0,0
63,-251,0,0,0,0,0,0,0,0,0,-1,1287,1275,0,0
70,-251,0,0,0,0,0,0,0,0,0,-1,1294,1275,0,0
77,-251,0,0,0,0,0,0,0,0,0,-1,1301,1275,0,0
84,-251,0,0,0,0,0,0,0,0,0,-1,1308,1275,0,0
91,-251,0,0,0,0,0,0,0,0,0,-1,1315,1275,0,0
98,-251,0,0,0,0,0,0,0,0,0,-1,1322,1275,0,0
105,-251,0,0,0,0,0,0,0,0,0,-1,1329,1275,0,0
112,-251,0,0,0,0,0,0,0,0,0,-1,1336,1275,0,0
119,-251,0,0,0,0,0,0,0,0,0,-1,1343,1275,0,0
126,-251,0,0,0,0,0,0,0,0,0,-1,1350,1275,0,0
133,-251,0,0,0,0,0,0,0,0,0,-1,1357,1275,0,0
140,-251,0,0,0,0,0,0,0,0,0,-1,1364,1275,0,0
147,-251,0,0,0,0,0,0,0,0,0,-1,1371,1275,0,0
154,-251,0,0,0,0,0,0,0,0,0,-1,1378,1275,0,0
161,-251,0,0,0,0,0,0,0,0,0,-1,1385,1275,0,0
168,-251,0,0,0,0,0,0,0,0,0,-1,1392,1275,0,0
175,-251,0,0,0,0,0,0,0,0,0,-1,1399,1275,0,0
182,-251,0,0,0,0,0,0,0,0,0,-1,1406,1275,0,0
189,-251,0,0,0,0,0,0,0,0,0,-1,1413,1275,0,0
196,-251,0,0,0,0,0,0,0,0,0,-1,1420,1275,0,0
203,-251,0,0,0,0,0,0,0,0,0,-1,1427,1275,0,0
210,-251,0,0,0,0,0,0,0,0,0,-1,1434,1275,0,0
217,-251,0,0,0,0,0,0,0,0,0,-1,1441,1275,0,0
224,-251,0,0,0,0,0,0,0,0,0,-1,1448,1275,0,0
231,-251,0,0,0,0,0,0,0,0,0,-1,1455,1275,0,0
238,-251,0,0,0,0,0,0,0,0,0,-1,1462,1275,0,0
245,-251,0,0,0,0,0,0,0,0,0,-1,1469,1275,0,0
252,-251,0,0,0,0,0,0,0,0,0,-1,1476,1275,0,0
259,-251,0,0,0,0,0,0,0,0,0,-1,1483,1275,0,0
266,-251,0,0,0,0,0,0,0,0,0,-1,1490,1275,0,0
273,-251,0,0,0,0,0,0,0,0,0,-1,1497,1275,0,0
280,-251,0,0,0,0,0,0,0,0,0,-1,1504,1275,0,0
287,-251,0,0,0,0,0,0,0,0,0,-1,1511,1275,0,0
294,-251,0,0,0,0,0,0,0,0,0,-1,1518,1275,0,0
301,-251,0,0,0,0,0,0,0,0,0,-1,1525,1275,0,0
308,-251,0,0,0,0,0,0,0,0,0,-1,1532,1275,0,0
315,-251,0,0,0,0,0,0,0,0,0,-1,1539,1275,0,0
322,-251,0,0,0,0,0,0,0,0,0,-1,1546,1275,0,0
329,-251,0,0,0,0,0,0,0,0,0,-1,1553,1275,0,0
336,-251,0,0,0,0,0,0,0,0,0,-1,1560,1275,0,0
343,-251,0,0,0,0,0,0,0,0,0,-1,1567,1275,0,0
350,-251,0,0,0,0,0,0,0,0,0,-1,1574,1275,0,0
357,-251,0,0,0,0,0,0,0,0,0,-1,1581,1275,0,0
364,-251,0,0,0,0,0,0,0,0,0,-1,1588,1275,0,0
371,-251,0,0,0,0,0,0,0,0,0,-1,1595,1275,0,0
378,-251,0,0,0,0,0,0,0,0,0,-1,1602,1275,0,0
385,-251,0,0,0,0,0,0,0,0,0,-1,1609,1275,0,0
392,-251,0,0,0,0,0,0,0,0,0,-1,1616,1275,0,0
399,-251,0,0,0,0,0,0,0,0,0,-1,1623,1275,0,0
406,-251,0,0,0,0,0,0,0,0,0,-1,1630,1275,0,0
413,-251,0,0,0,0,0,0,0,0,0,-1,1637,1275,0,0
420,-251,0,0,0,0,0,0,0,0,0,-1,1644,1275,0,0
427,-251,0,0,0,0,0,0,0,0,0,-1,1651,1275,0,0
434,-251,0,0,0,0,0,0,0,0,0,-1,1658,1275,0,0
441,-251,0,0,0,0,0,0,0,0,0,-1,1665,1275,0,0
448,-251,0,0,0,0,0,0,0,0,0,-1,1672,1275,0,0
455,-251,0,0,0,0,0,0,0,0,0,-1,1679,1275,0,0
462,-251,0,0,0,0,0,0,0,0,0,-1,1686,1275,0,0
469,-251,0,0,0,0,0,0,0,0,0,-1,1693,1275,0,0
476,-251,0,0,0,0,0,0,0,0,0,-1,1700,1275,0,0
483,-251,0,0,0,0,0,0,0,0,0,-1,1707,1275,0,0
490,-251,0,0,0,0,0,0,0,0,0,-1,1714,1275,0,0
497,-251,0,0,0,0,0,0,0,0,0,-1,1721,1275,0,0
504,-251,0,0,0,0,0,0,0,0,0,-1,1728,1275,0,0
511,-251,0,0,0,0,0,0,0,0,0,-1,1735,1275,0,0
518,-251,0,0,0,0,0,0,0,0,0,-1,1742,1275,0,0
525,-251,0,0,0,0,0,0,0,0,0,-1,1749,1275,0,0
532,-251,0,0,0,0,0,0,0,0,0,-1,1756,1275,0,0
539,-251,0,0,0,0,0,0,0,0,0,-1,1763,1275,0,0
546,-251,0,0,0,0,0,0,0,0,0,-1,1770,1275,0,0
553,-251,0,0,0,0,0,0,0,0,0,-1,1777,1275,0,0
560,-251,0,0,0,0,0,0,0,0,0,-1,1784,1275,0,0
567,-251,0,0,0,0,0,0,0,0,0,-1,1791,1275,0,0
574,-251,0,0,0,0,0,0,0,0,0,-1,1798,1275,0,0
581,-251,0,0,0,0,0,0,0,0,0,-1,1805,1275,0,0
588,-251,0,0,0,0,0,0,0,0,0,-1,1812,1275,0,0
595,-251,0,0,0,0,0,0,0,0,0,-1,1819,1275,0,0
602,-251,0,0,0,0,0,0,0,0,0,-1,1826,1275,0,0
609,-251,77.6149,2.44385,0.00385777,0.000756626,0.000856607,0.00407866,0.000535744,0.252359,0.00255928,0.0286078,1833,1275,77.6149,-2.44379
616,-251,77.6144,2.49121,0.00141615,0.00308711,-0.00124941,0.00375464,0.000748622,-1.0801,0.00229463,0.0257637,1840,1275,77.6143,-2.49117
623,-251,77.601,2.50549,-0.00092186,0.00522558,-0.00305638,0.00648651,-0.0021828,-1.17951,0.00520675,0.0239436,1847,1275,77.6009,-2.50548
630,-251,77.5942,2.48462,-0.00264391,0.00656311,-0.0040686,0.00810336,-0.00418416,-1.2089,0.00721349,0.0373193,1854,1275,77.5942,-2.48456
637,-251,77.6403,2.37476,-0.00284482,0.00627462,-0.00393339,0.00773674,-0.00430695,-1.2149,0.00704679,0.0450126,1861,1275,77.6403,-2.3748
644,-251,77.1205,2.51501,0,0,0,0,0,0,0,-1,1868,1275,77.1205,-2.51502
651,-251,76.9575,2.65112,0,0,0,0,0,0,0,-1,1875,1275,76.9576,-2.65116
658,-251,64.3931,2.57288,0,0,0,0,0,0,0,-1,1882,1275,64.393,-2.57287
665,-251,32.9579,2.60229,0,0,0,0,0,0,0,-1,1889,1275,32.9579,-2.60231
672,-251,26.0721,4.53064,0,0,0,0,0,0,0,-1,1896,1275,26.0721,-4.53063
679,-251,29.1344,8.63782,0,0,0,0,0,0,0,-1,1903,1275,29.1344,-8.63778
686,-251,56.5961,15.3625,0,0,0,0,0,0,0,-1,1910,1275,56.5961,-15.3625
693,-251,56.4685,14.6873,0.000222632,-0.000316393,0.000904536,0.000896953,-0.000990714,0.640608,0.00109029,0.0372725,1917,1275,56.4685,-14.6873
700,-251,56.4238,13.8947,0.000402809,-0.00095674,0.00109109,0.00100856,-0.00156249,0.50681,0.00149583,0.0140063,1924,1275,56.4238,-13.8947
707,-251,56.3857,13.1101,-0.000190705,-0.000821181,0.00141722,0.000945916,-0.0019578,0.675963,0.00171006,0.0129462,1931,1275,56.3857,-13.1101
714,-251,56.4026,12.3188,-0.00105943,-0.000574299,0.00186693,0.00106576,-0.00269949,0.85,0.00224104,0.0168454,1938,1275,56.4026,-12.3189
721,-251,56.2788,11.5757,-0.00208764,-0.000418468,0.00245126,0.00133639,-0.0038425,0.94948,0.00310453,0.0264722,1945,1275,56.2788,-11.5757
728,-251,56.2258,10.858,-0.00327041,-0.000360691,0.00319325,0.0016935,-0.00532461,0.999151,0.00422882,0.0320441,1952,1275,56.2258,-10.858
735,-251,56.1824,9.96155,-0.00468409,-0.000383413,0.00415174,0.00214182,-0.00720932,1.02434,0.00565696,0.0247575,1959,1275,56.1824,-9.96149
742,-251,56.1008,9.29285,-0.00636317,-0.000496999,0.00536885,0.00268773,-0.00954789,1.0354,0.00742513,0.0194218,1966,1275,56.1009,-9.29291
749,-251,55.8186,8.78918,-0.00837733,-0.000707384,0.00690816,0.00335889,-0.0124436,1.03879,0.00961301,0.0398337,1973,1275,55.8186,-8.78917
756,-251,55.6011,8.19153,0,0,0,0,0,0,0,-1,1980,1275,55.6011,-8.19148
763,-251,43.3652,5.7583,0,0,0,0,0,0,0,-1,1987,1275,43.3653,-5.75827
770,-251,49.4386,3.45508,0,0,0,0,0,0,0,-1,1994,1275,49.4386,-3.4551
777,-251,31.5731,4.33252,0,0,0,0,0,0,0,-1,2001,1275,31.5731,-4.33251
784,-251,32.0776,5.78247,0,0,0,0,0,0,0,-1,2008,1275,32.0776,-5.78247
791,-251,0,0,0,0,0,0,0,0,0,-1,2015,1275,0,0
798,-251,0,0,0,0,0,0,0,0,0,-1,2022,1275,0,0
805,-251,0,0,0,0,0,0,0,0,0,-1,2029,1275,0,0
812,-251,0,0,0,0,0,0,0,0,0,-1,2036,1275,0,0
-700,-258,0,0,0,0,0,0,0,0,0,-1,524,1282,0,0
-693,-258,0,0,0,0,0,0,0,0,0,-1,531,1282,0,0
-686,-258,0,0,0,0,0,0,0,0,0,-1,538,1282,0,0
-679,-258,0,0,0,0,0,0,0,0,0,-1,545,1282,0,0
-672,-258,0,0,0,0,0,0,0,0,0,-1,552,1282,0,0
-665,-258,-44.8717,2.03601,0,0,0,0,0,0,0,-1,559,1282,-44.8717,-2.03603
-658,-258,-45.2628,1.20544,0,0,0,0,0,0,0,-1,566,1282,-45.2627,-1.20545
-651,-258,-45.5418,0.0863037,0,0,0,0,0,0,0,-1,573,1282,-45.5418,-0.0863288
-644,-258,-45.1855,0.336792,0,0,0,0,0,0,0,-1,580,1282,-45.1855,-0.336733
-637,-258,-45.329,0.234253,0,0,0,0,0,0,0,-1,587,1282,-45.329,-0.234296
-630,-258,-34.6896,4.45715,0,0,0,0,0,0,0,-1,594,1282,-34.6896,-4.45712
-623,-258,-38.8182,6.64929,0,0,0,0,0,0,0,-1,601,1282,-38.8182,-6.64932
-616,-258,-38.9595,7.60437,0.00105261,0.00210136,0.00337287,0.00499037,-0.0018364,0.862516,0.00407924,0.0342459,608,1282,-38.9595,-7.60437
-609,-258,-39.0188,8.54102,0.000643539,0.00203197,0.00231071,0.0037505,-0.00107499,0.931326,0.00292526,0.0172018,615,1282,-39.0188,-8.54097
-602,-258,-39.0898,9.37915,-1.22644e-05,0.00135682,0.00137642,0.00220952,-0.000864967,1.01616,0.00183076,0.0137555,622,1282,-39.0898,-9.37916
-595,-258,-39.1433,10.1866,-0.000648701,0.000569464,0.000499493,0.000748084,-0.000827321,1.22737,0.000909944,0.0124257,629,1282,-39.1433,-10.1866
-588,-258,-39.1693,10.9899,-0.00128336,-0.000319009,-0.000247555,-0.000259173,-0.0013432,-1.33364,0.000822795,0.013496,636,1282,-39.1692,-10.9899
-581,-258,-39.2249,11.8036,-0.00201607,-0.00132911,-0.000870353,-0.000736913,-0.00260827,-0.973337,0.00155264,0.0152802,643,1282,-39.2249,-11.8036
-574,-258,-39.2457,12.6403,-0.00277894,-0.00239392,-0.0013089,-0.00126345,-0.0039094,-0.858413,0.00230366,0.0162399,650,1282,-39.2457,-12.6403
-567,-258,-39.4979,13.3678,-0.00337339,-0.00271736,-0.00164527,-0.00136772,-0.00472302,-0.883792,0.00280617,0.0226422,657,1282,-39.498,-13.3678
-560,-258,-39.6099,14.4568,0,0,0,0,0,0,0,-1,664,1282,-39.6099,-14.4568
-553,-258,-32.5081,11.6642,0,0,0,0,0,0,0,-1,671,1282,-32.5081,-11.6641
-546,-258,-14.2231,5.92029,0,0,0,0,0,0,0,-1,678,1282,-14.2231,-5.92028
-539,-258,-10.2228,4.05823,0,0,0,0,0,0,0,-1,685,1282,-10.2228,-4.05823
-532,-258,-10.2173,-0.353882,0,0,0,0,0,0,0,-1,692,1282,-10.2173,0.353836
-525,-258,-21.8661,-1.5929,0,0,0,0,0,0,0,-1,699,1282,-21.8661,1.59285
-518,-258,-29.2484,0.123169,0,0,0,0,0,0,0,-1,706,1282,-29.2484,-0.123186
-511,-258,-23.5061,1.16833,0,0,0,0,0,0,0,-1,713,1282,-23.5061,-1.16833
-504,-258,-22.9178,0.484131,0,0,0,0,0,0,0,-1,720,1282,-22.9178,-0.484106
-497,-258,-17.8047,0.730469,0,0,0,0,0,0,0,-1,727,1282,-17.8048,-0.730489
-490,-258,-15.4346,0.632935,0,0,0,0,0,0,0,-1,734,1282,-15.4346,-0.632917
-483,-258,0,0,0,0,0,0,0,0,0,-1,741,1282,0,0
-476,-258,0,0,0,0,0,0,0,0,0,-1,748,1282,0,0
-469,-258,0,0,0,0,0,0,0,0,0,-1,755,1282,0,0
-462,-258,0,0,0,0,0,0,0,0,0,-1,762,1282,0,0
-455,-258,0,0,0,0,0,0,0,0,0,-1,769,1282,0,0
-448,-258,0,0,0,0,0,0,0,0,0,-1,776,1282,0,0
-441,-258,0,0,0,0,0,0,0,0,0,-1,783,1282,0,0
-434,-258,0,0,0,0,0,0,0,0,0,-1,790,1282,0,0
-427,-258,0,0,0,0,0,0,0,0,0,-1,797,1282,0,0
-420,-258,0,0,0,0,0,0,0,0,0,-1,804,1282,0,0
-413,-258,0,0,0,0,0,0,0,0,0,-1,811,1282,0,0
-406,-258,0,0,0,0,0,0,0,0,0,-1,818,1282,0,0
-399,-258,0,0,0,0,0,0,0,0,0,-1,825,1282,0,0
-392,-258,0,0,0,0,0,0,0,0,0,-1,832,1282,0,0
-385,-258,0,0,0,0,0,0,0,0,0,-1,839,1282,0,0
-378,-258,0,0,0,0,0,0,0,0,0,-1,846,1282,0,0
-371,-258,0,0,0,0,0,0,0,0,0,-1,853,1282,0,0
-364,-258,0,0,0,0,0,0,0,0,0,-1,860,1282,0,0
-357,-258,0,0,0,0,0,0,0,0,0,-1,867,1282,0,0
-350,-258,0,0,0,0,0,0,0,0,0,-1,874,1282,0,0
-343,-258,0,0,0,0,0,0,0,0,0,-1,881,1282,0,0
-336,-258,0,0,0,0,0,0,0,0,0,-1,888,1282,0,0
-329,-258,0,0,0,0,0,0,0,0,0,-1,895,1282,0,0
-322,-258,0,0,0,0,0,0,0,0,0,-1,902,1282,0,0
-315,-258,0,0,0,0,0,0,0,0,0,-1,909,1282,0,0
-308,-258,0,0,0,0,0,0,0,0,0,-1,916,1282,0,0
-301,-258,0,0,0,0,0,0,0,0,0,-1,923,1282,0,0
-294,-258,0,0,0,0,0,0,0,0,0,-1,930,1282,0,0
-287,-258,0,0,0,0,0,0,0,0,0,-1,937,1282,0,0
-280,-258,0,0,0,0,0,0,0,0,0,-1,944,1282,0,0
-273,-258,0,0,0,0,0,0,0,0,0,-1,951,1282,0,0
-266,-258,0,0,0,0,0,0,0,0,0,-1,958,1282,0,0
-259,-258,0,0,0,0,0,0,0,0,0,-1,965,1282,0,0
-252,-258,0,0,0,0,0,0,0,0,0,-1,972,1282,0,0
-245,-258,0,0,0,0,0,0,0,0,0,-1,979,1282,0,0
-238,-258,0,0,0,0,0,0,0,0,0,-1,986,1282,0,0
-231,-258,0,0,0,0,0,0,0,0,0,-1,993,1282,0,0
-224,-258,0,0,0,0,0,0,0,0,0,-1,1000,1282,0,0
-217,-258,0,0,0,0,0,0,0,0,0,-1,1007,1282,0,0
-210,-258,0,0,0,0,0,0,0,0,0,-1,1014,1282,0,0
-203,-258,0,0,0,0,0,0,0,0,0,-1,1021,1282,0,0
-196,-258,0,0,0,0,0,0,0,0,0,-1,1028,1282,0,0
-189,-258,0,0,0,0,0,0,0,0,0,-1,1035,1282,0,0
-182,-258,0,0,0,0,0,0,0,0,0,-1,1042,1282,0,0
-175,-258,0,0,0,0,0,0,0,0,0,-1,1049,1282,0,0
-168,-258,0,0,0,0,0,0,0,0,0,-1,1056,1282,0,0
-161,-258,0,0,0,0,0,0,0,0,0,-1,1063,1282,0,0
-154,-258,0,0,0,0,0,0,0,0,0,-1,1070,1282,0,0
-147,-258,0,0,0,0,0,0,0,0,0,-1,1077,1282,0,0
-140,-258,0,0,0,0,0,0,0,0,0,-1,1084,1282,0,0
-133,-258,0,0,0,0,0,0,0,0,0,-1,1091,1282,0,0
-126,-258,0,0,0,0,0,0,0,0,0,-1,1098,1282,0,0
-119,-258,0,0,0,0,0,0,0,0,0,-1,1105,1282,0,0
-112,-258,0,0,0,0,0,0,0,0,0,-1,1112,1282,0,0
-105,-258,0,0,0,0,0,0,0,0,0,-1,1119,1282,0,0
-98,-258,0,0,0,0,0,0,0,0,0,-1,1126,1282,0,0
-91,-258,0,0,0,0,0,0,0,0,0,-1,1133,1282,0,0
-84,-258,0,0,0,0,0,0,0,0,0,-1,1140,1282,0,0
-77,-258,0,0,0,0,0,0,0,0,0,-1,1147,1282,0,0
-70,-258,0,0,0,0,0,0,0,0,0,-1,1154,1282,0,0
-63,-258,0,0,0,0,0,0,0,0,0,-1,1161,1282,0,0
-56,-258,0,0,0,0,0,0,0,0,0,-1,1168,1282,0,0
-49,-258,0,0,0,0,0,0,0,0,0,-1,1175,1282,0,0
-42,-258,0,0,0,0,0,0,0,0,0,-1,1182,1282,0,0
-35,-258,0,0,0,0,0,0,0,0,0,-1,1189,1282,0,0
-28,-258,0,0,0,0,0,0,0,0,0,-1,1196,1282,0,0
-21,-258,0,0,0,0,0,0,0,0,0,-1,1203,1282,0,0
-14,-258,0,0,0,0,0,0,0,0,0,-1,1210,1282,0,0
-7,-258,0,0,0,0,0,0,0,0,0,-1,1217,1282,0,0
0,-258,0,0,0,0,0,0,0,0,0,-1,1224,1282,0,0
7,-258,0,0,0,0,0,0,0,0,0,-1,1231,1282,0,0
14,-258,0,0,0,0,0,0,0,0,0,-1,1238,1282,0,0
21,-258,0,0,0,0,0,0,0,0,0,-1,1245,1282,0,0
28,-258,0,0,0,0,0,0,0,0,0,-1,1252,1282,0,0
35,-258,0,0,0,0,0,0,0,0,0,-1,1259,1282,0,0
42,-258,0,0,0,0,0,0,0,0,0,-1,1266,1282,0,0
49,-258,0,0,0,0,0,0,0,0,0,-1,1273,1282,0,0
56,-258,0,0,0,0,0,0,0,0,0,-1,1280,1282,0,0
63,-258,0,0,0,0,0,0,0,0,0,-1,1287,1282,0,0
70,-258,0,0,0,0,0,0,0,0,0,-1,1294,1282,0,0
77,-258,0,0,0,0,0,0,0,0,0,-1,1301,1282,0,0
84,-258,0,0,0,0,0,0,0,0,0,-1,1308,1282,0,0
91,-258,0,0,0,0,0,0,0,0,0,-1,1315,1282,0,0
98,-258,0,0,0,0,0,0,0,0,0,-1,1322,1282,0,0
105,-258,0,0,0,0,0,0,0,0,0,-1,1329,1282,0,0
112,-258,0,0,0,0,0,0,0,0,0,-1,1336,1282,0,0
119,-258,0,0,0,0,0,0,0,0,0,-1,1343,1282,0,0
126,-258,0,0,0,0,0,0,0,0,0,-1,1350,1282,0,0
133,-258,0,0,0,0,0,0,0,0,0,-1,1357,1282,0,0
140,-258,0,0,0,0,0,0,0,0,0,-1,1364,1282,0,0
147,-258,0,0,0,0,0,0,0,0,0,-1,1371,1282,0,0
154,-258,0,0,0,0,0,0,0,0,0,-1,1378,1282,0,0
161,-258,0,0,0,0,0,0,0,0,0,-1,1385,1282,0,0
168,-258,0,0,0,0,0,0,0,0,0,-1,1392,1282,0,0
175,-258,0,0,0,0,0,0,0,0,0,-1,1399,1282,0,0
182,-258,0,0,0,0,0,0,0,0,0,-1,1406,1282,0,0
189,-258,0,0,0,0,0,0,0,0,0,-1,1413,1282,0,0
196,-258,0,0,0,0,0,0,0,0,0,-1,1420,1282,0,0
203,-258,0,0,0,0,0,0,0,0,0,-1,1427,1282,0,0
210,-258,0,0,0,0,0,0,0,0,0,-1,1434,1282,0,0
217,-258,0,0,0,0,0,0,0,0,0,-1,1441,1282,0,0
224,-258,0,0,0,0,0,0,0,0,0,-1,1448,1282,0,0
231,-258,0,0,0,0,0,0,0,0,0,-1,1455,1282,0,0
238,-258,0,0,0,0,0,0,0,0,0,-1,1462,1282,0,0
245,-258,0,0,0,0,0,0,0,0,0,-1,1469,1282,0,0
252,-258,0,0,0,0,0,0,0,0,0,-1,1476,1282,0,0
259,-258,0,0,0,0,0,0,0,0,0,-1,1483,1282,0,0
266,-258,0,0,0,0,0,0,0,0,0,-1,1490,1282,0,0
273,-258,0,0,0,0,0,0,0,0,0,-1,1497,1282,0,0
280,-258,0,0,0,0,0,0,0,0,0,-1,1504,1282,0,0
287,-258,0,0,0,0,0,0,0,0,0,-1,1511,1282,0,0
294,-258,0,0,0,0,0,0,0,0,0,-1,1518,1282,0,0
301,-258,0,0,0,0,0,0,0,0,0,-1,1525,1282,0,0
308,-258,0,0,0,0,0,0,0,0,0,-1,1532,1282,0,0
315,-258,0,0,0,0,0,0,0,0,0,-1,1539,1282,0,0
322,-258,0,0,0,0,0,0,0,0,0,-1,1546,1282,0,0
329,-258,0,0,0,0,0,0,0,0,0,-1,1553,1282,0,0
336,-258,0,0,0,0,0,0,0,0,0,-1,1560,1282,0,0
343,-258,0,0,0,0,0,0,0,0,0,-1,1567,1282,0,0
350,-258,0,0,0,0,0,0,0,0,0,-1,1574,1282,0,0
357,-258,0,0,0,0,0,0,0,0,0,-1,1581,1282,0,0
364,-258,0,0,0,0,0,0,0,0,0,-1,1588,1282,0,0
371,-258,0,0,0,0,0,0,0,0,0,-1,1595,1282,0,0
378,-258,0,0,0,0,0,0,0,0,0,-1,1602,1282,0,0
385,-258,0,0,0,0,0,0,0,0,0,-1,1609,1282,0,0
392,-258,0,0,0,0,0,0,0,0,0,-1,1616,1282,0,0
399,-258,0,0,0,0,0,0,0,0,0,-1,1623,1282,0,0
406,-258,0,0,0,0,0,0,0,0,0,-1,1630,1282,0,0
413,-258,0,0,0,0,0,0,0,0,0,-1,1637,1282,0,0
420,-258,0,0,0,0,0,0,0,0,0,-1,1644,1282,0,0
427,-258,0,0,0,0,0,0,0,0,0,-1,1651,1282,0,0
434,-258,0,0,0,0,0,0,0,0,0,-1,1658,1282,0,0
441,-258,0,0,0,0,0,0,0,0,0,-1,1665,1282,0,0
448,-258,0,0,0,0,0,0,0,0,0,-1,1672,1282,0,0
455,-258,0,0,0,0,0,0,0,0,0,-1,1679,1282,0,0
462,-258,0,0,0,0,0,0,0,0,0,-1,1686,1282,0,0
469,-258,0,0,0,0,0,0,0,0,0,-1,1693,1282,0,0
476,-258,0,0,0,0,0,0,0,0,0,-1,1700,1282,0,0
483,-258,0,0,0,0,0,0,0,0,0,-1,1707,1282,0,0
490,-258,0,0,0,0,0,0,0,0,0,-1,1714,1282,0,0
497,-258,0,0,0,0,0,0,0,0,0,-1,1721,1282,0,0
504,-258,0,0,0,0,0,0,0,0,0,-1,1728,1282,0,0
511,-258,0,0,0,0,0,0,0,0,0,-1,1735,1282,0,0
518,-258,0,0,0,0,0,0,0,0,0,-1,1742,1282,0,0
525,-258,0,0,0,0,0,0,0,0,0,-1,1749,1282,0,0
532,-258,0,0,0,0,0,0,0,0,0,-1,1756,1282,0,0
539,-258,0,0,0,0,0,0,0,0,0,-1,1763,1282,0,0
546,-258,0,0,0,0,0,0,0,0,0,-1,1770,1282,0,0
553,-258,0,0,0,0,0,0,0,0,0,-1,1777,1282,0,0
560,-258,0,0,0,0,0,0,0,0,0,-1,1784,1282,0,0
567,-258,0,0,0,0,0,0,0,0,0,-1,1791,1282,0,0
574,-258,0,0,0,0,0,0,0,0,0,-1,1798,1282,0,0
581,-258,0,0,0,0,0,0,0,0,0,-1,1805,1282,0,0
588,-258,0,0,0,0,0,0,0,0,0,-1,1812,1282,0,0
595,-258,0,0,0,0,0,0,0,0,0,-1,1819,1282,0,0
602,-258,0,0,0,0,0,0,0,0,0,-1,1826,1282,0,0
609,-258,77.6274,2.51953,0.00336785,0.00167909,-0.000217488,0.00339541,0.00165153,-0.126046,0.00196058,0.0251683,1833,1282,77.6274,-2.5195
616,-258,77.624,2.54846,0.0011248,0.00425579,-0.00262778,0.00574906,-0.000368469,-1.05404,0.00396125,0.0252693,1840,1282,77.6241,-2.54845
623,-258,77.6027,2.5249,-0.000969028,0.00647458,-0.00445172,0.00855533,-0.00304978,-1.13356,0.00694699,0.0367052,1847,1282,77.6026,-2.52496
630,-258,77.6228,2.48511,-0.00217998,0.00714262,-0.00487499,0.00922618,-0.00426355,-1.1669,0.00796204,0.045546,1854,1282,77.6228,-2.48506
637,-258,77.4647,2.33752,-0.00217459,0.00625271,-0.00422535,0.00800633,-0.00392822,-1.1774,0.00702323,0.0454975,1861,1282,77.4647,-2.33756
644,-258,77.4534,2.20764,0,0,0,0,0,0,0,-1,1868,1282,77.4533,-2.20768
651,-258,73.8274,1.62305,0,0,0,0,0,0,0,-1,1875,1282,73.8274,-1.62306
658,-258,45.4424,3.1405,0,0,0,0,0,0,0,-1,1882,1282,45.4423,-3.14046
665,-258,35.4747,1.1864,0,0,0,0,0,0,0,-1,1889,1282,35.4747,-1.18637
672,-258,22.703,2.80957,0,0,0,0,0,0,0,-1,1896,1282,22.703,-2.80962
679,-258,26.8693,8.19543,0,0,0,0,0,0,0,-1,1903,1282,26.8692,-8.19548
686,-258,55.8193,15.5929,0,0,0,0,0,0,0,-1,1910,1282,55.8193,-15.5928
693,-258,55.6914,14.7363,0.000559756,-0.000386212,0.00068213,0.000916841,-0.000743297,0.482259,0.000960225,0.030879,1917,1282,55.6914,-14.7363
700,-258,55.6309,13.9198,0.000635045,-0.00104387,0.000799432,0.000954803,-0.00136363,0.380491,0.00134547,0.0111522,1924,1282,55.6309,-13.9198
707,-258,55.5973,13.1566,-5.58133e-05,-0.000928284,0.00116769,0.000754466,-0.00173856,0.606632,0.00147626,0.0128687,1931,1282,55.5972,-13.1567
714,-258,55.5884,12.3823,-0.000970756,-0.00069953,0.00171849,0.000888691,-0.00255898,0.824773,0.00206691,0.0138655,1938,1282,55.5884,-12.3824
721,-258,55.5236,11.5786,-0.00203747,-0.000540991,0.00240272,0.0012273,-0.00380576,0.936345,0.00303029,0.0239433,1945,1282,55.5236,-11.5786
728,-258,55.4214,10.8501,-0.00328857,-0.000449576,0.0032443,0.00167218,-0.00541032,0.991618,0.00427472,0.0233559,1952,1282,55.4214,-10.8501
735,-258,55.4271,10.0605,-0.00479777,-0.000414395,0.00428339,0.00220546,-0.00741763,1.02187,0.00582121,0.0197028,1959,1282,55.4272,-10.0605
742,-258,55.3691,9.33337,-0.00661085,-0.000452449,0.00556537,0.00282876,-0.00989206,1.03808,0.00771253,0.0198895,1966,1282,55.3691,-9.33338
749,-258,55.1984,8.72595,-0.00885689,-0.000561238,0.00718747,0.00358938,-0.0130075,1.0471,0.0100834,0.044391,1973,1282,55.1984,-8.72599
756,-258,55.0425,7.97461,0,0,0,0,0,0,0,-1,1980,1282,55.0425,-7.97462
763,-258,39.3638,5.09753,0,0,0,0,0,0,0,-1,1987,1282,39.3638,-5.09751
770,-258,40.3713,4.08325,0,0,0,0,0,0,0,-1,1994,1282,40.3713,-4.08323
777,-258,31.912,4.83093,0,0,0,0,0,0,0,-1,2001,1282,31.912,-4.8309
784,-258,32.6525,6.43091,0,0,0,0,0,0,0,-1,2008,1282,32.6525,-6.43091
791,-258,0,0,0,0,0,0,0,0,0,-1,2015,1282,0,0
798,-258,0,0,0,0,0,0,0,0,0,-1,2022,1282,0,0
805,-258,0,0,0,0,0,0,0,0,0,-1,2029,1282,0,0
812,-258,0,0,0,0,0,0,0,0,0,-1,2036,1282,0,0
-700,-265,0,0,0,0,0,0,0,0,0,-1,524,1289,0,0
-693,-265,0,0,0,0,0,0,0,0,0,-1,531,1289,0,0
-686,-265,0,0,0,0,0,0,0,0,0,-1,538,1289,0,0
-679,-265,0,0,0,0,0,0,0,0,0,-1,545,1289,0,0
-672,-265,0,0,0,0,0,0,0,0,0,-1,552,1289,0,0
-665,-265,-44.553,1.771,0,0,0,0,0,0,0,-1,559,1289,-44.553,-1.77096
-658,-265,-44.9351,1.32117,0,0,0,0,0,0,0,-1,566,1289,-44.9351,-1.32118
-651,-265,-44.821,1.0614,0,0,0,0,0,0,0,-1,573,1289,-44.821,-1.06141
-644,-265,-44.4684,0.304932,0,0,0,0,0,0,0,-1,580,1289,-44.4684,-0.304991
-637,-265,-44.6157,0.250122,0,0,0,0,0,0,0,-1,587,1289,-44.6157,-0.250067
-630,-265,-44.5689,0.900269,0,0,0,0,0,0,0,-1,594,1289,-44.5689,-0.900302
-623,-265,-38.0814,6.36755,0,0,0,0,0,0,0,-1,601,1289,-38.0814,-6.3675
-616,-265,-38.1152,7.42847,0.00158718,0.00261141,0.00448379,0.00661223,-0.00241365,0.842259,0.00539576,0.047224,608,1289,-38.1152,-7.42852
-609,-265,-38.1702,8.53271,0.00119538,0.00254109,0.00319077,0.00512917,-0.00139271,0.889314,0.00396605,0.0197018,615,1289,-38.1702,-8.53266
-602,-265,-38.284,9.44751,0.000464407,0.00179506,0.00210098,0.00333355,-0.00107408,0.93874,0.00265386,0.0150446,622,1289,-38.284,-9.44752
-595,-265,-38.3267,10.2842,-0.000245523,0.000941353,0.00108928,0.00158836,-0.00089253,1.03482,0.001451,0.0134261,629,1289,-38.3268,-10.2842
-588,-265,-38.3374,11.0632,-0.000925448,2.97613e-05,0.000260454,9.61625e-05,-0.000991849,1.32117,0.000695506,0.0124744,636,1289,-38.3374,-11.0633
-581,-265,-38.4068,11.8672,-0.00164169,-0.000990786,-0.000440791,-0.000768318,-0.00186416,-1.10339,0.00108179,0.013919,643,1289,-38.4068,-11.8671
-574,-265,-38.4604,12.7048,-0.00234095,-0.00211572,-0.000995261,-0.00122672,-0.00322995,-0.841733,0.00188269,0.0150926,650,1289,-38.4604,-12.7049
-567,-265,-38.5826,13.4717,-0.00287534,-0.00294074,-0.00141189,-0.00149577,-0.00432031,-0.773821,0.00253335,0.023283,657,1289,-38.5826,-13.4717
-560,-265,-38.8715,14.2532,-0.00316998,-0.00297457,-0.00136926,-0.00169953,-0.00444502,-0.821015,0.00258991,0.0344583,664,1289,-38.8715,-14.2532
-553,-265,-39.0428,15.1281,0,0,0,0,0,0,0,-1,671,1289,-39.0428,-15.128
-546,-265,-24.2283,10.2581,0,0,0,0,0,0,0,-1,678,1289,-24.2283,-10.258
-539,-265,-13.7668,6.39917,0,0,0,0,0,0,0,-1,685,1289,-13.7668,-6.39915
-532,-265,-8.53998,3.41467,0,0,0,0,0,0,0,-1,692,1289,-8.53996,-3.41473
-525,-265,-12.1317,0.514648,0,0,0,0,0,0,0,-1,699,1289,-12.1317,-0.514634
-518,-265,-24.1604,0.712402,0,0,0,0,0,0,0,-1,706,1289,-24.1604,-0.712425
-511,-265,-23.233,0.791626,0,0,0,0,0,0,0,-1,713,1289,-23.233,-0.791617
-504,-265,-22.3056,0.87085,0,0,0,0,0,0,0,-1,720,1289,-22.3056,-0.87081
-497,-265,-18.689,-0.278442,0,0,0,0,0,0,0,-1,727,1289,-18.689,0.278423
-490,-265,-15.1696,0.492676,0,0,0,0,0,0,0,-1,734,1289,-15.1696,-0.492688
-483,-265,0,0,0,0,0,0,0,0,0,-1,741,1289,0,0
-476,-265,0,0,0,0,0,0,0,0,0,-1,748,1289,0,0
-469,-265,0,0,0,0,0,0,0,0,0,-1,755,1289,0,0
-462,-265,0,0,0,0,0,0,0,0,0,-1,762,1289,0,0
-455,-265,0,0,0,0,0,0,0,0,0,-1,769,1289,0,0
-448,-265,0,0,0,0,0,0,0,0,0,-1,776,1289,0,0
-441,-265,0,0,0,0,0,0,0,0,0,-1,783,1289,0,0
-434,-265,0,0,0,0,0,0,0,0,0,-1,790,1289,0,0
-427,-265,0,0,0,0,0,0,0,0,0,-1,797,1289,0,0
-420,-265,0,0,0,0,0,0,0,0,0,-1,804,1289,0,0
-413,-265,0,0,0,0,0,0,0,0,0,-1,811,1289,0,0
-406,-265,0,0,0,0,0,0,0,0,0,-1,818,1289,0,0
-399,-265,0,0,0,0,0,0,0,0,0,-1,825,1289,0,0
-392,-265,0,0,0,0,0,0,0,0,0,-1,832,1289,0,0
-385,-265,0,0,0,0,0,0,0,0,0,-1,839,1289,0,0
-378,-265,0,0,0,0,0,0,0,0,0,-1,846,1289,0,0
-371,-265,0,0,0,0,0,0,0,0,0,-1,853,1289,0,0
-364,-265,0,0,0,0,0,0,0,0,0,-1,860,1289,0,0
-357,-265,0,0,0,0,0,0,0,0,0,-1,867,1289,0,0
-350,-265,0,0,0,0,0,0,0,0,0,-1,874,1289,0,0
-343,-265,0,0,0,0,0,0,0,0,0,-1,881,1289,0,0
-336,-265,0,0,0,0,0,0,0,0,0,-1,888,1289,0,0
-329,-265,0,0,0,0,0,0,0,0,0,-1,895,1289,0,0
-322,-265,0,0,0,0,0,0,0,0,0,-1,902,1289,0,0
-315,-265,0,0,0,0,0,0,0,0,0,-1,909,1289,0,0
-308,-265,0,0,0,0,0,0,0,0,0,-1,916,1289,0,0
-301,-265,0,0,0,0,0,0,0,0,0,-1,923,1289,0,0
-294,-265,0,0,0,0,0,0,0,0,0,-1,930,1289,0,0
-287,-265,0,0,0,0,0,0,0,0,0,-1,937,1289,0,0
-280,-265,0,0,0,0,0,0,0,0,0,-1,944,1289,0,0
-273,-265,0,0,0,0,0,0,0,0,0,-1,951,1289,0,0
-266,-265,0,0,0,0,0,0,0,0,0,-1,958,1289,0,0
-259,-265,0,0,0,0,0,0,0,0,0,-1,965,1289,0,0
-252,-265,0,0,0,0,0,0,0,0,0,-1,972,1289,0,0
-245,-265,0,0,0,0,0,0,0,0,0,-1,979,1289,0,0
-238,-265,0,0,0,0,0,0,0,0,0,-1,986,1289,0,0
-231,-265,0,0,0,0,0,0,0,0,0,-1,993,1289,0,0
-224,-265,0,0,0,0,0,0,0,0,0,-1,1000,1289,0,0
-217,-265,0,0,0,0,0,0,0,0,0,-1,1007,1289,0,0
-210,-265,0,0,0,0,0,0,0,0,0,-1,1014,1289,0,0
-203,-265,0,0,0,0,0,0,0,0,0,-1,1021,1289,0,0
-196,-265,0,0,0,0,0,0,0,0,0,-1,1028,1289,0,0
-189,-265,0,0,0,0,0,0,0,0,0,-1,1035,1289,0,0
-182,-265,0,0,0,0,0,0,0,0,0,-1,1042,1289,0,0
-175,-265,0,0,0,0,0,0,0,0,0,-1,1049,1289,0,0
-168,-265,0,0,0,0,0,0,0,0,0,-1,1056,1289,0,0
-161,-265,0,0,0,0,0,0,0,0,0,-1,1063,1289,0,0
-154,-265,0,0,0,0,0,0,0,0,0,-1,1070,1289,0,0
-147,-265,0,0,0,0,0,0,0,0,0,-1,1077,1289,0,0
-140,-265,0,0,0,0,0,0,0,0,0,-1,1084,1289,0,0
-133,-265,0,0,0,0,0,0,0,0,0,-1,1091,1289,0,0
-126,-265,0,0,0,0,0,0,0,0,0,-1,1098,1289,0,0
-119,-265,0,0,0,0,0,0,0,0,0,-1,1105,1289,0,0
-112,-265,0,0,0,0,0,0,0,0,0,-1,1112,1289,0,0
-105,-265,0,0,0,0,0,0,0,0,0,-1,1119,1289,0,0
-98,-265,0,0,0,0,0,0,0,0,0,-1,1126,1289,0,0
-91,-265,0,0,0,0,0,0,0,0,0,-1,1133,1289,0,0
-84,-265,0,0,0,0,0,0,0,0,0,-1,1140,1289,0,0
-77,-265,0,0,0,0,0,0,0,0,0,-1,1147,1289,0,0
-70,-265,0,0,0,0,0,0,0,0,0,-1,1154,1289,0,0
-63,-265,0,0,0,0,0,0,0,0,0,-1,1161,1289,0,0
-56,-265,0,0,0,0,0,0,0,0,0,-1,1168,1289,0,0
-49,-265,0,0,0,0,0,0,0,0,0,-1,1175,1289,0,0
-42,-265,0,0,0,0,0,0,0,0,0,-1,1182,1289,0,0
-35,-265,0,0,0,0,0,0,0,0,0,-1,1189,1289,0,0
-28,-265,0,0,0,0,0,0,0,0,0,-1,1196,1289,0,0
-21,-265,0,0,0,0,0,0,0,0,0,-1,1203,1289,0,0
-14,-265,0,0,0,0,0,0,0,0,0,-1,1210,1289,0,0
-7,-265,0,0,0,0,0,0,0,0,0,-1,1217,1289,0,0
0,-265,0,0,0,0,0,0,0,0,0,-1,1224,1289,0,0
7,-265,0,0,0,0,0,0,0,0,0,-1,1231,1289,0,0
14,-265,0,0,0,0,0,0,0,0,0,-1,1238,1289,0,0
21,-265,0,0,0,0,0,0,0,0,0,-1,1245,1289,0,0
28,-265,0,0,0,0,0,0,0,0,0,-1,1252,1289,0,0
35,-265,0,0,0,0,0,0,0,0,0,-1,1259,1289,0,0
42,-265,0,0,0,0,0,0,0,0,0,-1,1266,1289,0,0
49,-265,0,0,0,0,0,0,0,0,0,-1,1273,1289,0,0
56,-265,0,0,0,0,0,0,0,0,0,-1,1280,1289,0,0
63,-265,0,0,0,0,0,0,0,0,0,-1,1287,1289,0,0
70,-265,0,0,0,0,0,0,0,0,0,-1,1294,1289,0,0
77,-265,0,0,0,0,0,0,0,0,0,-1,1301,1289,0,0
84,-265,0,0,0,0,0,0,0,0,0,-1,1308,1289,0,0
91,-265,0,0,0,0,0,0,0,0,0,-1,1315,1289,0,0
98,-265,0,0,0,0,0,0,0,0,0,-1,1322,1289,0,0
105,-265,0,0,0,0,0,0,0,0,0,-1,1329,1289,0,0
112,-265,0,0,0,0,0,0,0,0,0,-1,1336,1289,0,0
119,-265,0,0,0,0,0,0,0,0,0,-1,1343,1289,0,0
126,-265,0,0,0,0,0,0,0,0,0,-1,1350,1289,0,0
133,-265,0,0,0,0,0,0,0,0,0,-1,1357,1289,0,0
140,-265,0,0,0,0,0,0,0,0,0,-1,1364,1289,0,0
147,-265,0,0,0,0,0,0,0,0,0,-1,1371,1289,0,0
154,-265,0,0,0,0,0,0,0,0,0,-1,1378,1289,0,0
161,-265,0,0,0,0,0,0,0,0,0,-1,1385,1289,0,0
168,-265,0,0,0,0,0,0,0,0,0,-1,1392,1289,0,0
175,-265,0,0,0,0,0,0,0,0,0,-1,1399,1289,0,0
182,-265,0,0,0,0,0,0,0,0,0,-1,1406,1289,0,0
189,-265,0,0,0,0,0,0,0,0,0,-1,1413,1289,0,0
196,-265,0,0,0,0,0,0,0,0,0,-1,1420,1289,0,0
203,-265,0,0,0,0,0,0,0,0,0,-1,1427,1289,0,0
210,-265,0,0,0,0,0,0,0,0,0,-1,1434,1289,0,0
217,-265,0,0,0,0,0,0,0,0,0,-1,1441,1289,0,0
224,-265,0,0,0,0,0,0,0,0,0,-1,1448,1289,0,0
231,-265,0,0,0,0,0,0,0,0,0,-1,1455,1289,0,0
238,-265,0,0,0,0,0,0,0,0,0,-1,1462,1289,0,0
245,-265,0,0,0,0,0,0,0,0,0,-1,1469,1289,0,0
252,-265,0,0,0,0,0,0,0,0,0,-1,1476,1289,0,0
259,-265,0,0,0,0,0,0,0,0,0,-1,1483,1289,0,0
266,-265,0,0,0,0,0,0,0,0,0,-1,1490,1289,0,0
273,-265,0,0,0,0,0,0,0,0,0,-1,1497,1289,0,0
280,-265,0,0,0,0,0,0,0,0,0,-1,1504,1289,0,0
287,-265,0,0,0,0,0,0,0,0,0,-1,1511,1289,0,0
294,-265,0,0,0,0,0,0,0,0,0,-1,1518,1289,0,0
301,-265,0,0,0,0,0,0,0,0,0,-1,1525,1289,0,0
308,-265,0,0,0,0,0,0,0,0,0,-1,1532,1289,0,0
315,-265,0,0,0,0,0,0,0,0,0,-1,1539,1289,0,0
322,-265,0,0,0,0,0,0,0,0,0,-1,1546,1289,0,0
329,-265,0,0,0,0,0,0,0,0,0,-1,1553,1289,0,0
336,-265,0,0,0,0,0,0,0,0,0,-1,1560,1289,0,0
343,-265,0,0,0,0,0,0,0,0,0,-1,1567,1289,0,0
350,-265,0,0,0,0,0,0,0,0,0,-1,1574,1289,0,0
357,-265,0,0,0,0,0,0,0,0,0,-1,1581,1289,0,0
364,-265,0,0,0,0,0,0,0,0,0,-1,1588,1289,0,0
371,-265,0,0,0,0,0,0,0,0,0,-1,1595,1289,0,0
378,-265,0,0,0,0,0,0,0,0,0,-1,1602,1289,0,0
385,-265,0,0,0,0,0,0,0,0,0,-1,1609,1289,0,0
392,-265,0,0,0,0,0,0,0,0,0,-1,1616,1289,0,0
399,-265,0,0,0,0,0,0,0,0,0,-1,1623,1289,0,0
406,-265,0,0,0,0,0,0,0,0,0,-1,1630,1289,0,0
413,-265,0,0,0,0,0,0,0,0,0,-1,1637,1289,0,0
420,-265,0,0,0,0,0,0,0,0,0,-1,1644,1289,0,0
427,-265,0,0,0,0,0,0,0,0,0,-1,1651,1289,0,0
434,-265,0,0,0,0,0,0,0,0,0,-1,1658,1289,0,0
441,-265,0,0,0,0,0,0,0,0,0,-1,1665,1289,0,0
448,-265,0,0,0,0,0,0,0,0,0,-1,1672,1289,0,0
455,-265,0,0,0,0,0,0,0,0,0,-1,1679,1289,0,0
462,-265,0,0,0,0,0,0,0,0,0,-1,1686,1289,0,0
469,-265,0,0,0,0,0,0,0,0,0,-1,1693,1289,0,0
476,-265,0,0,0,0,0,0,0,0,0,-1,1700,1289,0,0
483,-265,0,0,0,0,0,0,0,0,0,-1,1707,1289,0,0
490,-265,0,0,0,0,0,0,0,0,0,-1,1714,1289,0,0
497,-265,0,0,0,0,0,0,0,0,0,-1,1721,1289,0,0
504,-265,0,0,0,0,0,0,0,0,0,-1,1728,1289,0,0
511,-265,0,0,0,0,0,0,0,0,0,-1,1735,1289,0,0
518,-265,0,0,0,0,0,0,0,0,0,-1,1742,1289,0,0
525,-265,0,0,0,0,0,0,0,0,0,-1,1749,1289,0,0
532,-265,0,0,0,0,0,0,0,0,0,-1,1756,1289,0,0
539,-265,0,0,0,0,0,0,0,0,0,-1,1763,1289,0,0
546,-265,0,0,0,0,0,0,0,0,0,-1,1770,1289,0,0
553,-265,0,0,0,0,0,0,0,0,0,-1,1777,1289,0,0
560,-265,0,0,0,0,0,0,0,0,0,-1,1784,1289,0,0
567,-265,0,0,0,0,0,0,0,0,0,-1,1791,1289,0,0
574,-265,0,0,0,0,0,0,0,0,0,-1,1798,1289,0,0
581,-265,0,0,0,0,0,0,0,0,0,-1,1805,1289,0,0
588,-265,0,0,0,0,0,0,0,0,0,-1,1812,1289,0,0
595,-265,0,0,0,0,0,0,0,0,0,-1,1819,1289,0,0
602,-265,77.5823,2.49829,0.00551511,0.000634225,0.00142493,0.00590065,0.000248683,0.264242,0.00385355,0.0282388,1826,1289,77.5823,-2.4983
609,-265,77.61,2.48926,0.00378659,0.00316346,-0.00161593,0.00512072,0.00182933,-0.690161,0.00299635,0.0301427,1833,1289,77.61,-2.48926
616,-265,77.6238,2.57043,0.00180604,0.00567465,-0.0042788,0.00843605,-0.000955361,-0.997685,0.00596803,0.0373672,1840,1289,77.6237,-2.57038
623,-265,77.687,2.48523,0.000209665,0.0070557,-0.00553257,0.0101386,-0.00287319,-1.06243,0.00789305,0.0496395,1847,1289,77.687,-2.48519
630,-265,77.6495,2.3927,-0.00075812,0.00685865,-0.00527986,0.00956031,-0.00345978,-1.09784,0.00778735,0.0463392,1854,1289,77.6496,-2.39273
637,-265,77.5236,2.31067,0,0,0,0,0,0,0,-1,1861,1289,77.5236,-2.31072
644,-265,72.2863,0.399658,0,0,0,0,0,0,0,-1,1868,1289,72.2863,-0.39967
651,-265,53.6781,1.57166,0,0,0,0,0,0,0,-1,1875,1289,53.6781,-1.57167
658,-265,41.7163,3.71619,0,0,0,0,0,0,0,-1,1882,1289,41.7163,-3.71624
665,-265,34.7902,1.43164,0,0,0,0,0,0,0,-1,1889,1289,34.7901,-1.43162
672,-265,20.0045,6.62671,0,0,0,0,0,0,0,-1,1896,1289,20.0045,-6.62668
679,-265,48.9694,14.0298,0,0,0,0,0,0,0,-1,1903,1289,48.9694,-14.0297
686,-265,54.9148,15.6896,0,0,0,0,0,0,0,-1,1910,1289,54.9148,-15.6895
693,-265,54.8722,14.8018,0.000635462,-0.000411424,0.000392931,0.000766532,-0.000542494,0.321964,0.000759448,0.0184497,1917,1289,54.8721,-14.8017
700,-265,54.8448,13.9857,0.000604617,-0.000940697,0.000584767,0.000800955,-0.00113704,0.323928,0.00112449,0.0116038,1924,1289,54.8448,-13.9858
707,-265,54.8087,13.188,-7.15997e-05,-0.000810951,0.00102795,0.000651129,-0.00153368,0.612787,0.00129525,0.0122147,1931,1289,54.8087,-13.188
714,-265,54.7705,12.4087,-0.000920887,-0.000588496,0.00163917,0.000892886,-0.00240227,0.83592,0.00196786,0.0149055,1938,1289,54.7705,-12.4087
721,-265,54.677,11.5966,-0.00192568,-0.000412157,0.00236263,0.00131195,-0.00364979,0.940387,0.00296877,0.016728,1945,1289,54.677,-11.5965
728,-265,54.6115,10.8497,-0.00313796,-0.000277932,0.00323375,0.00182788,-0.00524377,0.993579,0.00423862,0.0171795,1952,1289,54.6115,-10.8497
735,-265,54.6498,10.0854,-0.00462129,-0.000187473,0.00428803,0.00242282,-0.00723159,1.02398,0.00579988,0.0177123,1959,1289,54.6498,-10.0854
742,-265,54.6001,9.35229,-0.00644073,-0.00015839,0.00556795,0.00309333,-0.00969245,1.04222,0.00770265,0.0211972,1966,1289,54.6,-9.35224
749,-265,54.72,8.77527,0,0,0,0,0,0,0,-1,1973,1289,54.72,-8.77529
756,-265,54.4161,7.13501,0,0,0,0,0,0,0,-1,1980,1289,54.4162,-7.13496
763,-265,39.1299,4.9679,0,0,0,0,0,0,0,-1,1987,1289,39.1299,-4.96791
770,-265,35.1674,5.07715,0,0,0,0,0,0,0,-1,1994,1289,35.1673,-5.07718
777,-265,32.1664,5.3457,0,0,0,0,0,0,0,-1,2001,1289,32.1664,-5.34568
784,-265,0,0,0,0,0,0,0,0,0,-1,2008,1289,0,0
791,-265,0,0,0,0,0,0,0,0,0,-1,2015,1289,0,0
798,-265,0,0,0,0,0,0,0,0,0,-1,2022,1289,0,0
805,-265,0,0,0,0,0,0,0,0,0,-1,2029,1289,0,0
812,-265,0,0,0,0,0,0,0,0,0,-1,2036,1289,0,0
-700,-272,0,0,0,0,0,0,0,0,0,-1,524,1296,0,0
-693,-272,0,0,0,0,0,0,0,0,0,-1,531,1296,0,0
-686,-272,0,0,0,0,0,0,0,0,0,-1,538,1296,0,0
-679,-272,0,0,0,0,0,0,0,0,0,-1,545,1296,0,0
-672,-272,0,0,0,0,0,0,0,0,0,-1,552,1296,0,0
-665,-272,0,0,0,0,0,0,0,0,0,-1,559,1296,0,0
-658,-272,-44.6526,1.54443,0,0,0,0,0,0,0,-1,566,1296,-44.6526,-1.5444
-651,-272,-44.3723,1.53772,0,0,0,0,0,0,0,-1,573,1296,-44.3723,-1.53774
-644,-272,-44.1104,1.46021,0,0,0,0,0,0,0,-1,580,1296,-44.1104,-1.46022
-637,-272,-43.9348,1.25171,0,0,0,0,0,0,0,-1,587,1296,-43.9348,-1.25175
-630,-272,-43.5906,0.784912,0,0,0,0,0,0,0,-1,594,1296,-43.5906,-0.784935
-623,-272,-36.8673,6.23547,0,0,0,0,0,0,0,-1,601,1296,-36.8673,-6.23548
-616,-272,-37.0588,7.56934,0.00175997,0.0032654,0.00543971,0.00800423,-0.00297885,0.854149,0.00655861,0.0494962,608,1296,-37.0588,-7.56931
-609,-272,-37.33,8.75513,0.00158678,0.00315134,0.00399359,0.00643855,-0.00170043,0.882115,0.00495736,0.0277139,615,1296,-37.33,-8.75517
-602,-272,-37.4371,9.49133,0.000916632,0.00232983,0.00279857,0.00450962,-0.00126316,0.909056,0.0035042,0.0156904,622,1296,-37.4372,-9.49133
-595,-272,-37.4953,10.3397,0.000246132,0.00141425,0.00168424,0.00261283,-0.000952444,0.952299,0.00213152,0.0123114,629,1296,-37.4953,-10.3397
-588,-272,-37.5157,11.1359,-0.000362908,0.000500414,0.000801312,0.000978936,-0.000841429,1.03246,0.00105199,0.0121848,636,1296,-37.5158,-11.1358
-581,-272,-37.5959,11.9154,-0.000969088,-0.000469366,7.75653e-05,-0.000457604,-0.00098085,1.4203,0.000566717,0.0112782,643,1296,-37.5959,-11.9154
-574,-272,-37.6342,12.7457,-0.00153586,-0.00148519,-0.000483488,-0.00102637,-0.00199467,-0.811574,0.00115179,0.0156836,650,1296,-37.6342,-12.7457
-567,-272,-37.6792,13.5463,-0.00196552,-0.00252755,-0.000864127,-0.00133786,-0.00315521,-0.62819,0.00182866,0.0226698,657,1296,-37.6792,-13.5462
-560,-272,-37.891,14.3654,-0.00214708,-0.00323203,-0.00087704,-0.0016583,-0.00372081,-0.50843,0.00215243,0.025529,664,1296,-37.891,-14.3653
-553,-272,-37.9541,15.1987,-0.002081,-0.00362788,-0.000579301,-0.00188811,-0.00382077,-0.321429,0.00220597,0.0386758,671,1296,-37.9541,-15.1988
-546,-272,-38.1714,16.108,0,0,0,0,0,0,0,-1,678,1296,-38.1715,-16.108
-539,-272,-24.1416,11.0325,0,0,0,0,0,0,0,-1,685,1296,-24.1416,-11.0324
-532,-272,-10.5572,4.53943,0,0,0,0,0,0,0,-1,692,1296,-10.5572,-4.53943
-525,-272,-11.9599,0.0393066,0,0,0,0,0,0,0,-1,699,1296,-11.9599,-0.0393577
-518,-272,-21.1357,-1.41382,0,0,0,0,0,0,0,-1,706,1296,-21.1357,1.41379
-511,-272,-23.2565,0.226318,0,0,0,0,0,0,0,-1,713,1296,-23.2565,-0.22626
-504,-272,-19.7397,0.114746,0,0,0,0,0,0,0,-1,720,1296,-19.7397,-0.114701
-497,-272,-19.2225,1.71301,0,0,0,0,0,0,0,-1,727,1296,-19.2225,-1.71302
-490,-272,-20.1948,2.4032,0,0,0,0,0,0,0,-1,734,1296,-20.1948,-2.40322
-483,-272,-15.3736,0.792603,0,0,0,0,0,0,0,-1,741,1296,-15.3736,-0.79263
-476,-272,0,0,0,0,0,0,0,0,0,-1,748,1296,0,0
-469,-272,0,0,0,0,0,0,0,0,0,-1,755,1296,0,0
-462,-272,0,0,0,0,0,0,0,0,0,-1,762,1296,0,0
-455,-272,0,0,0,0,0,0,0,0,0,-1,769,1296,0,0
-448,-272,0,0,0,0,0,0,0,0,0,-1,776,1296,0,0
-441,-272,0,0,0,0,0,0,0,0,0,-1,783,1296,0,0
-434,-272,0,0,0,0,0,0,0,0,0,-1,790,1296,0,0
-427,-272,0,0,0,0,0,0,0,0,0,-1,797,1296,0,0
-420,-272,0,0,0,0,0,0,0,0,0,-1,804,1296,0,0
-413,-272,0,0,0,0,0,0,0,0,0,-1,811,1296,0,0
-406,-272,0,0,0,0,0,0,0,0,0,-1,818,1296,0,0
-399,-272,0,0,0,0,0,0,0,0,0,-1,825,1296,0,0
-392,-272,0,0,0,0,0,0,0,0,0,-1,832,1296,0,0
-385,-272,0,0,0,0,0,0,0,0,0,-1,839,1296,0,0
-378,-272,0,0,0,0,0,0,0,0,0,-1,846,1296,0,0
-371,-272,0,0,0,0,0,0,0,0,0,-1,853,1296,0,0
-364,-272,0,0,0,0,0,0,0,0,0,-1,860,1296,0,0
-357,-272,0,0,0,0,0,0,0,0,0,-1,867,1296,0,0
-350,-272,0,0,0,0,0,0,0,0,0,-1,874,1296,0,0
-343,-272,0,0,0,0,0,0,0,0,0,-1,881,1296,0,0
-336,-272,0,0,0,0,0,0,0,0,0,-1,888,1296,0,0
-329,-272,0,0,0,0,0,0,0,0,0,-1,895,1296,0,0
-322,-272,0,0,0,0,0,0,0,0,0,-1,902,1296,0,0
-315,-272,0,0,0,0,0,0,0,0,0,-1,909,1296,0,0
-308,-272,0,0,0,0,0,0,0,0,0,-1,916,1296,0,0
-301,-272,0,0,0,0,0,0,0,0,0,-1,923,1296,0,0
-294,-272,0,0,0,0,0,0,0,0,0,-1,930,1296,0,0
-287,-272,0,0,0,0,0,0,0,0,0,-1,937,1296,0,0
-280,-272,0,0,0,0,0,0,0,0,0,-1,944,1296,0,0
-273,-272,0,0,0,0,0,0,0,0,0,-1,951,1296,0,0
-266,-272,0,0,0,0,0,0,0,0,0,-1,958,1296,0,0
-259,-272,0,0,0,0,0,0,0,0,0,-1,965,1296,0,0
-252,-272,0,0,0,0,0,0,0,0,0,-1,972,1296,0,0
-245,-272,0,0,0,0,0,0,0,0,0,-1,979,1296,0,0
-238,-272,0,0,0,0,0,0,0,0,0,-1,986,1296,0,0
-231,-272,0,0,0,0,0,0,0,0,0,-1,993,1296,0,0
-224,-272,0,0,0,0,0,0,0,0,0,-1,1000,1296,0,0
-217,-272,0,0,0,0,0,0,0,0,0,-1,1007,1296,0,0
-210,-272,0,0,0,0,0,0,0,0,0,-1,1014,1296,0,0
-203,-272,0,0,0,0,0,0,0,0,0,-1,1021,1296,0,0
-196,-272,0,0,0,0,0,0,0,0,0,-1,1028,1296,0,0
-189,-272,0,0,0,0,0,0,0,0,0,-1,1035,1296,0,0
-182,-272,0,0,0,0,0,0,0,0,0,-1,1042,1296,0,0
-175,-272,0,0,0,0,0,0,0,0,0,-1,1049,1296,0,0
-168,-272,0,0,0,0,0,0,0,0,0,-1,1056,1296,0,0
-161,-272,0,0,0,0,0,0,0,0,0,-1,1063,1296,0,0
-154,-272,0,0,0,0,0,0,0,0,0,-1,1070,1296,0,0
-147,-272,0,0,0,0,0,0,0,0,0,-1,1077,1296,0,0
-140,-272,0,0,0,0,0,0,0,0,0,-1,1084,1296,0,0
-133,-272,0,0,0,0,0,0,0,0,0,-1,1091,1296,0,0
-126,-272,0,0,0,0,0,0,0,0,0,-1,1098,1296,0,0
-119,-272,0,0,0,0,0,0,0,0,0,-1,1105,1296,0,0
-112,-272,0,0,0,0,0,0,0,0,0,-1,1112,1296,0,0
-105,-272,0,0,0,0,0,0,0,0,0,-1,1119,1296,0,0
-98,-272,0,0,0,0,0,0,0,0,0,-1,1126,1296,0,0
-91,-272,0,0,0,0,0,0,0,0,0,-1,1133,1296,0,0
-84,-272,0,0,0,0,0,0,0,0,0,-1,1140,1296,0,0
-77,-272,0,0,0,0,0,0,0,0,0,-1,1147,1296,0,0
-70,-272,0,0,0,0,0,0,0,0,0,-1,1154,1296,0,0
-63,-272,0,0,0,0,0,0,0,0,0,-1,1161,1296,0,0
-56,-272,0,0,0,0,0,0,0,0,0,-1,1168,1296,0,0
-49,-272,0,0,0,0,0,0,0,0,0,-1,1175,1296,0,0
-42,-272,0,0,0,0,0,0,0,0,0,-1,1182,1296,0,0
-35,-272,0,0,0,0,0,0,0,0,0,-1,1189,1296,0,0
-28,-272,0,0,0,0,0,0,0,0,0,-1,1196,1296,0,0
-21,-272,0,0,0,0,0,0,0,0,0,-1,1203,1296,0,0
-14,-272,0,0,0,0,0,0,0,0,0,-1,1210,1296,0,0
-7,-272,0,0,0,0,0,0,0,0,0,-1,1217,1296,0,0
0,-272,0,0,0,0,0,0,0,0,0,-1,1224,1296,0,0
7,-272,0,0,0,0,0,0,0,0,0,-1,1231,1296,0,0
14,-272,0,0,0,0,0,0,0,0,0,-1,1238,1296,0,0
21,-272,0,0,0,0,0,0,0,0,0,-1,1245,1296,0,0
28,-272,0,0,0,0,0,0,0,0,0,-1,1252,1296,0,0
35,-272,0,0,0,0,0,0,0,0,0,-1,1259,1296,0,0
42,-272,0,0,0,0,0,0,0,0,0,-1,1266,1296,0,0
49,-272,0,0,0,0,0,0,0,0,0,-1,1273,1296,0,0
56,-272,0,0,0,0,0,0,0,0,0,-1,1280,1296,0,0
63,-272,0,0,0,0,0,0,0,0,0,-1,1287,1296,0,0
70,-272,0,0,0,0,0,0,0,0,0,-1,1294,1296,0,0
77,-272,0,0,0,0,0,0,0,0,0,-1,1301,1296,0,0
84,-272,0,0,0,0,0,0,0,0,0,-1,1308,1296,0,0
91,-272,0,0,0,0,0,0,0,0,0,-1,1315,1296,0,0
98,-272,0,0,0,0,0,0,0,0,0,-1,1322,1296,0,0
105,-272,0,0,0,0,0,0,0,0,0,-1,1329,1296,0,0
112,-272,0,0,0,0,0,0,0,0,0,-1,1336,1296,0,0
119,-272,0,0,0,0,0,0,0,0,0,-1,1343,1296,0,0
126,-272,0,0,0,0,0,0,0,0,0,-1,1350,1296,0,0
133,-272,0,0,0,0,0,0,0,0,0,-1,1357,1296,0,0
140,-272,0,0,0,0,0,0,0,0,0,-1,1364,1296,0,0
147,-272,0,0,0,0,0,0,0,0,0,-1,1371,1296,0,0
154,-272,0,0,0,0,0,0,0,0,0,-1,1378,1296,0,0
161,-272,0,0,0,0,0,0,0,0,0,-1,1385,1296,0,0
168,-272,0,0,0,0,0,0,0,0,0,-1,1392,1296,0,0
175,-272,0,0,0,0,0,0,0,0,0,-1,1399,1296,0,0
182,-272,0,0,0,0,0,0,0,0,0,-1,1406,1296,0,0
189,-272,0,0,0,0,0,0,0,0,0,-1,1413,1296,0,0
196,-272,0,0,0,0,0,0,0,0,0,-1,1420,1296,0,0
203,-272,0,0,0,0,0,0,0,0,0,-1,1427,1296,0,0
210,-272,0,0,0,0,0,0,0,0,0,-1,1434,1296,0,0
217,-272,0,0,0,0,0,0,0,0,0,-1,1441,1296,0,0
224,-272,0,0,0,0,0,0,0,0,0,-1,1448,1296,0,0
231,-272,0,0,0,0,0,0,0,0,0,-1,1455,1296,0,0
238,-272,0,0,0,0,0,0,0,0,0,-1,1462,1296,0,0
245,-272,0,0,0,0,0,0,0,0,0,-1,1469,1296,0,0
252,-272,0,0,0,0,0,0,0,0,0,-1,1476,1296,0,0
259,-272,0,0,0,0,0,0,0,0,0,-1,1483,1296,0,0
266,-272,0,0,0,0,0,0,0,0,0,-1,1490,1296,0,0
273,-272,0,0,0,0,0,0,0,0,0,-1,1497,1296,0,0
280,-272,0,0,0,0,0,0,0,0,0,-1,1504,1296,0,0
287,-272,0,0,0,0,0,0,0,0,0,-1,1511,1296,0,0
294,-272,0,0,0,0,0,0,0,0,0,-1,1518,1296,0,0
301,-272,0,0,0,0,0,0,0,0,0,-1,1525,1296,0,0
308,-272,0,0,0,0,0,0,0,0,0,-1,1532,1296,0,0
315,-272,0,0,0,0,0,0,0,0,0,-1,1539,1296,0,0
322,-272,0,0,0,0,0,0,0,0,0,-1,1546,1296,0,0
329,-272,0,0,0,0,0,0,0,0,0,-1,1553,1296,0,0
336,-272,0,0,0,0,0,0,0,0,0,-1,1560,1296,0,0
343,-272,0,0,0,0,0,0,0,0,0,-1,1567,1296,0,0
350,-272,0,0,0,0,0,0,0,0,0,-1,1574,1296,0,0
357,-272,0,0,0,0,0,0,0,0,0,-1,1581,1296,0,0
364,-272,0,0,0,0,0,0,0,0,0,-1,1588,1296,0,0
371,-272,0,0,0,0,0,0,0,0,0,-1,1595,1296,0,0
378,-272,0,0,0,0,0,0,0,0,0,-1,1602,1296,0,0
385,-272,0,0,0,0,0,0,0,0,0,-1,1609,1296,0,0
392,-272,0,0,0,0,0,0,0,0,0,-1,1616,1296,0,0
399,-272,0,0,0,0,0,0,0,0,0,-1,1623,1296,0,0
406,-272,0,0,0,0,0,0,0,0,0,-1,1630,1296,0,0
413,-272,0,0,0,0,0,0,0,0,0,-1,1637,1296,0,0
420,-272,0,0,0,0,0,0,0,0,0,-1,1644,1296,0,0
427,-272,0,0,0,0,0,0,0,0,0,-1,1651,1296,0,0
434,-272,0,0,0,0,0,0,0,0,0,-1,1658,1296,0,0
441,-272,0,0,0,0,0,0,0,0,0,-1,1665,1296,0,0
448,-272,0,0,0,0,0,0,0,0,0,-1,1672,1296,0,0
455,-272,0,0,0,0,0,0,0,0,0,-1,1679,1296,0,0
462,-272,0,0,0,0,0,0,0,0,0,-1,1686,1296,0,0
469,-272,0,0,0,0,0,0,0,0,0,-1,1693,1296,0,0
476,-272,0,0,0,0,0,0,0,0,0,-1,1700,1296,0,0
483,-272,0,0,0,0,0,0,0,0,0,-1,1707,1296,0,0
490,-272,0,0,0,0,0,0,0,0,0,-1,1714,1296,0,0
497,-272,0,0,0,0,0,0,0,0,0,-1,1721,1296,0,0
504,-272,0,0,0,0,0,0,0,0,0,-1,1728,1296,0,0
511,-272,0,0,0,0,0,0,0,0,0,-1,1735,1296,0,0
518,-272,0,0,0,0,0,0,0,0,0,-1,1742,1296,0,0
525,-272,0,0,0,0,0,0,0,0,0,-1,1749,1296,0,0
532,-272,0,0,0,0,0,0,0,0,0,-1,1756,1296,0,0
539,-272,0,0,0,0,0,0,0,0,0,-1,1763,1296,0,0
546,-272,0,0,0,0,0,0,0,0,0,-1,1770,1296,0,0
553,-272,0,0,0,0,0,0,0,0,0,-1,1777,1296,0,0
560,-272,0,0,0,0,0,0,0,0,0,-1,1784,1296,0,0
567,-272,0,0,0,0,0,0,0,0,0,-1,1791,1296,0,0
574,-272,0,0,0,0,0,0,0,0,0,-1,1798,1296,0,0
581,-272,0,0,0,0,0,0,0,0,0,-1,1805,1296,0,0
588,-272,0,0,0,0,0,0,0,0,0,-1,1812,1296,0,0
595,-272,0,0,0,0,0,0,0,0,0,-1,1819,1296,0,0
602,-272,77.5797,2.48962,0.00680279,0.00166907,-0.000191366,0.00680992,0.00166195,-0.0372075,0.00409983,0.0321081,1826,1296,77.5797,-2.4896
609,-272,77.5105,2.38391,0.00545757,0.00404144,-0.00357571,0.00839465,0.00110436,-0.687653,0.00526705,0.041176,1833,1296,77.5105,-2.38388
616,-272,77.5963,2.48059,0.00383884,0.00597845,-0.00594459,0.0109487,-0.00113144,-0.874426,0.00770405,0.0476253,1840,1296,77.5963,-2.48054
623,-272,77.7635,2.453,0.00252809,0.0064894,-0.00626704,0.0110813,-0.00206384,-0.938453,0.00816293,0.047526,1847,1296,77.7635,-2.45301
630,-272,77.7032,2.09082,0.00131983,0.00608274,-0.00557651,0.00976501,-0.00236244,-0.987202,0.00742386,0.0473449,1854,1296,77.7032,-2.09079
637,-272,77.4377,1.86853,0,0,0,0,0,0,0,-1,1861,1296,77.4377,-1.86855
644,-272,53.563,1.44336,0,0,0,0,0,0,0,-1,1868,1296,53.5629,-1.4433
651,-272,41.9225,4.27161,0,0,0,0,0,0,0,-1,1875,1296,41.9225,-4.27157
658,-272,35.1527,2.10571,0,0,0,0,0,0,0,-1,1882,1296,35.1527,-2.10573
665,-272,22.0238,4.14417,0,0,0,0,0,0,0,-1,1889,1296,22.0238,-4.14421
672,-272,22.661,7.21765,0,0,0,0,0,0,0,-1,1896,1296,22.661,-7.21761
679,-272,51.5885,15.1158,0,0,0,0,0,0,0,-1,1903,1296,51.5885,-15.1159
686,-272,54.014,15.6307,0,0,0,0,0,0,0,-1,1910,1296,54.014,-15.6308
693,-272,54.0546,14.8508,0.000960376,-0.000408735,7.60053e-05,0.000964583,-0.000412941,0.0552879,0.000816294,0.0145371,1917,1296,54.0546,-14.8508
700,-272,54.0477,14.052,0.00077037,-0.000715379,0.000416709,0.000879263,-0.000824273,0.255602,0.000983708,0.013257,1924,1296,54.0477,-14.052
707,-272,54.0112,13.2412,0.000101443,-0.00055681,0.000931135,0.000759908,-0.00121527,0.615518,0.00115043,0.0124908,1931,1296,54.0113,-13.2412
714,-272,53.9596,12.4331,-0.000720357,-0.000348905,0.00156636,0.0010427,-0.00211196,0.844409,0.00185589,0.0152429,1938,1296,53.9596,-12.4332
721,-272,53.8868,11.6853,-0.00169281,-0.000165151,0.00229495,0.00148975,-0.0033477,0.946047,0.00286075,0.0193704,1945,1296,53.8868,-11.6852
728,-272,53.8556,10.8735,-0.00286173,-1.12314e-05,0.00316005,0.00203011,-0.00490307,0.997249,0.00411583,0.0209569,1952,1296,53.8556,-10.8735
735,-272,53.8334,10.1194,-0.00431061,0.000102954,0.00420726,0.00264706,-0.00685472,1.02693,0.00566231,0.0182735,1959,1296,53.8334,-10.1194
742,-272,53.7458,9.45508,-0.00612472,0.000163783,0.00547445,0.00333269,-0.00929363,1.04607,0.00755575,0.0260908,1966,1296,53.7459,-9.45513
749,-272,53.7258,8.8407,0,0,0,0,0,0,0,-1,1973,1296,53.7259,-8.84071
756,-272,53.782,8.23401,0,0,0,0,0,0,0,-1,1980,1296,53.7819,-8.234
763,-272,34.3995,5.88416,0,0,0,0,0,0,0,-1,1987,1296,34.3996,-5.88419
770,-272,25.9485,3.67749,0,0,0,0,0,0,0,-1,1994,1296,25.9485,-3.67744
777,-272,32.3619,6.13257,0,0,0,0,0,0,0,-1,2001,1296,32.362,-6.1326
784,-272,0,0,0,0,0,0,0,0,0,-1,2008,1296,0,0
791,-272,0,0,0,0,0,0,0,0,0,-1,2015,1296,0,0
798,-272,0,0,0,0,0,0,0,0,0,-1,2022,1296,0,0
805,-272,0,0,0,0,0,0,0,0,0,-1,2029,1296,0,0
812,-272,0,0,0,0,0,0,0,0,0,-1,2036,1296,0,0
-700,-279,0,0,0,0,0,0,0,0,0,-1,524,1303,0,0
-693,-279,0,0,0,0,0,0,0,0,0,-1,531,1303,0,0
-686,-279,0,0,0,0,0,0,0,0,0,-1,538,1303,0,0
-679,-279,0,0,0,0,0,0,0,0,0,-1,545,1303,0,0
-672,-279,0,0,0,0,0,0,0,0,0,-1,552,1303,0,0
-665,-279,0,0,0,0,0,0,0,0,0,-1,559,1303,0,0
-658,-279,-44.3733,1.65881,0,0,0,0,0,0,0,-1,566,1303,-44.3733,-1.65883
-651,-279,-44.1603,1.61462,0,0,0,0,0,0,0,-1,573,1303,-44.1604,-1.61462
-644,-279,-43.8069,1.50903,0,0,0,0,0,0,0,-1,580,1303,-43.8069,-1.50909
-637,-279,-43.2951,1.33704,0,0,0,0,0,0,0,-1,587,1303,-43.2951,-1.33703
-630,-279,-42.6152,1.22852,0,0,0,0,0,0,0,-1,594,1303,-42.6152,-1.22856
-623,-279,-41.8359,0.907715,0,0,0,0,0,0,0,-1,601,1303,-41.8358,-0.907688
-616,-279,-36.7089,8.0625,0,0,0,0,0,0,0,-1,608,1303,-36.7089,-8.06252
-609,-279,-36.6181,8.60217,0,0,0,0,0,0,0,-1,615,1303,-36.6181,-8.60221
-602,-279,-36.6025,9.52234,0.00142155,0.00290502,0.0035717,0.00581119,-0.00148462,0.887778,0.00445229,0.0161522,622,1303,-36.6025,-9.52233
-595,-279,-36.6713,10.359,0.000768862,0.00196376,0.00229991,0.00374256,-0.00100993,0.912475,0.00289109,0.0110167,629,1303,-36.6713,-10.359
-588,-279,-36.7173,11.1738,0.000215497,0.0010697,0.00131992,0.0020299,-0.0007447,0.941873,0.00165821,0.0121894,636,1303,-36.7173,-11.1739
-581,-279,-36.7716,11.9609,-0.000287019,0.000159816,0.00055442,0.000534142,-0.000661345,0.976932,0.000691516,0.0132625,643,1303,-36.7716,-11.9609
-574,-279,-36.8273,12.7788,-0.000718425,-0.00075386,-1.61967e-05,-0.000712137,-0.000760148,-0.370291,0.000491544,0.0144797,650,1303,-36.8274,-12.7788
-567,-279,-36.8677,13.6041,-0.00100724,-0.00165144,-0.00038609,-0.000826531,-0.00183214,-0.437754,0.00105947,0.0201754,657,1303,-36.8677,-13.6042
-560,-279,-36.9616,14.5033,-0.00105431,-0.00240994,-0.0004602,-0.000912846,-0.0025514,-0.298228,0.00149278,0.0201682,664,1303,-36.9616,-14.5033
-553,-279,-37.0054,15.3434,-0.000883384,-0.00310823,-0.000215668,-0.000862671,-0.00312895,-0.0957483,0.0018661,0.0246563,671,1303,-37.0054,-15.3433
-546,-279,-37.0578,16.2083,0,0,0,0,0,0,0,-1,678,1303,-37.0578,-16.2083
-539,-279,-36.1801,16.0416,0,0,0,0,0,0,0,-1,685,1303,-36.1801,-16.0416
-532,-279,-14.9813,7.89917,0,0,0,0,0,0,0,-1,692,1303,-14.9813,-7.89918
-525,-279,-11.7063,-0.539185,0,0,0,0,0,0,0,-1,699,1303,-11.7063,0.539166
-518,-279,-16.8138,1.11963,0,0,0,0,0,0,0,-1,706,1303,-16.8138,-1.11968
-511,-279,-20.1063,-1.37915,0,0,0,0,0,0,0,-1,713,1303,-20.1062,1.37918
-504,-279,-18.3766,1.04578,0,0,0,0,0,0,0,-1,720,1303,-18.3767,-1.04577
-497,-279,-19.0046,2.08911,0,0,0,0,0,0,0,-1,727,1303,-19.0046,-2.08905
-490,-279,-20.0176,2.55188,0,0,0,0,0,0,0,-1,734,1303,-20.0176,-2.55183
-483,-279,-20.8064,2.99792,0,0,0,0,0,0,0,-1,741,1303,-20.8064,-2.99797
-476,-279,0,0,0,0,0,0,0,0,0,-1,748,1303,0,0
-469,-279,0,0,0,0,0,0,0,0,0,-1,755,1303,0,0
-462,-279,0,0,0,0,0,0,0,0,0,-1,762,1303,0,0
-455,-279,0,0,0,0,0,0,0,0,0,-1,769,1303,0,0
-448,-279,0,0,0,0,0,0,0,0,0,-1,776,1303,0,0
-441,-279,0,0,0,0,0,0,0,0,0,-1,783,1303,0,0
-434,-279,0,0,0,0,0,0,0,0,0,-1,790,1303,0,0
-427,-279,0,0,0,0,0,0,0,0,0,-1,797,1303,0,0
-420,-279,0,0,0,0,0,0,0,0,0,-1,804,1303,0,0
-413,-279,0,0,0,0,0,0,0,0,0,-1,811,1303,0,0
-406,-279,0,0,0,0,0,0,0,0,0,-1,818,1303,0,0
-399,-279,0,0,0,0,0,0,0,0,0,-1,825,1303,0,0
-392,-279,0,0,0,0,0,0,0,0,0,-1,832,1303,0,0
-385,-279,0,0,0,0,0,0,0,0,0,-1,839,1303,0,0
-378,-279,0,0,0,0,0,0,0,0,0,-1,846,1303,0,0
-371,-279,0,0,0,0,0,0,0,0,0,-1,853,1303,0,0
-364,-279,0,0,0,0,0,0,0,0,0,-1,860,1303,0,0
-357,-279,0,0,0,0,0,0,0,0,0,-1,867,1303,0,0
-350,-279,0,0,0,0,0,0,0,0,0,-1,874,1303,0,0
-343,-279,0,0,0,0,0,0,0,0,0,-1,881,1303,0,0
-336,-279,0,0,0,0,0,0,0,0,0,-1,888,1303,0,0
-329,-279,0,0,0,0,0,0,0,0,0,-1,895,1303,0,0
-322,-279,0,0,0,0,0,0,0,0,0,-1,902,1303,0,0
-315,-279,0,0,0,0,0,0,0,0,0,-1,909,1303,0,0
-308,-279,0,0,0,0,0,0,0,0,0,-1,916,1303,0,0
-301,-279,0,0,0,0,0,0,0,0,0,-1,923,1303,0,0
-294,-279,0,0,0,0,0,0,0,0,0,-1,930,1303,0,0
-287,-279,0,0,0,0,0,0,0,0,0,-1,937,1303,0,0
-280,-279,0,0,0,0,0,0,0,0,0,-1,944,1303,0,0
-273,-279,0,0,0,0,0,0,0,0,0,-1,951,1303,0,0
-266,-279,0,0,0,0,0,0,0,0,0,-1,958,1303,0,0
-259,-279,0,0,0,0,0,0,0,0,0,-1,965,1303,0,0
-252,-279,0,0,0,0,0,0,0,0,0,-1,972,1303,0,0
-245,-279,0,0,0,0,0,0,0,0,0,-1,979,1303,0,0
-238,-279,0,0,0,0,0,0,0,0,0,-1,986,1303,0,0
-231,-279,0,0,0,0,0,0,0,0,0,-1,993,1303,0,0
-224,-279,0,0,0,0,0,0,0,0,0,-1,1000,1303,0,0
-217,-279,0,0,0,0,0,0,0,0,0,-1,1007,1303,0,0
-210,-279,0,0,0,0,0,0,0,0,0,-1,1014,1303,0,0
-203,-279,0,0,0,0,0,0,0,0,0,-1,1021,1303,0,0
-196,-279,0,0,0,0,0,0,0,0,0,-1,1028,1303,0,0
-189,-279,0,0,0,0,0,0,0,0,0,-1,1035,1303,0,0
-182,-279,0,0,0,0,0,0,0,0,0,-1,1042,1303,0,0
-175,-279,0,0,0,0,0,0,0,0,0,-1,1049,1303,0,0
-168,-279,0,0,0,0,0,0,0,0,0,-1,1056,1303,0,0
-161,-279,0,0,0,0,0,0,0,0,0,-1,1063,1303,0,0
-154,-279,0,0,0,0,0,0,0,0,0,-1,1070,1303,0,0
-147,-279,0,0,0,0,0,0,0,0,0,-1,1077,1303,0,0
-140,-279,0,0,0,0,0,0,0,0,0,-1,1084,1303,0,0
-133,-279,0,0,0,0,0,0,0,0,0,-1,1091,1303,0,0
-126,-279,0,0,0,0,0,0,0,0,0,-1,1098,1303,0,0
-119,-279,0,0,0,0,0,0,0,0,0,-1,1105,1303,0,0
-112,-279,0,0,0,0,0,0,0,0,0,-1,1112,1303,0,0
-105,-279,0,0,0,0,0,0,0,0,0,-1,1119,1303,0,0
-98,-279,0,0,0,0,0,0,0,0,0,-1,1126,1303,0,0
-91,-279,0,0,0,0,0,0,0,0,0,-1,1133,1303,0,0
-84,-279,0,0,0,0,0,0,0,0,0,-1,1140,1303,0,0
-77,-279,0,0,0,0,0,0,0,0,0,-1,1147,1303,0,0
-70,-279,0,0,0,0,0,0,0,0,0,-1,1154,1303,0,0
-63,-279,0,0,0,0,0,0,0,0,0,-1,1161,1303,0,0
-56,-279,0,0,0,0,0,0,0,0,0,-1,1168,1303,0,0
-49,-279,0,0,0,0,0,0,0,0,0,-1,1175,1303,0,0
-42,-279,0,0,0,0,0,0,0,0,0,-1,1182,1303,0,0
-35,-279,0,0,0,0,0,0,0,0,0,-1,1189,1303,0,0
-28,-279,0,0,0,0,0,0,0,0,0,-1,1196,1303,0,0
-21,-279,0,0,0,0,0,0,0,0,0,-1,1203,1303,0,0
-14,-279,0,0,0,0,0,0,0,0,0,-1,1210,1303,0,0
-7,-279,0,0,0,0,0,0,0,0,0,-1,1217,1303,0,0
0,-279,0,0,0,0,0,0,0,0,0,-1,1224,1303,0,0
7,-279,0,0,0,0,0,0,0,0,0,-1,1231,1303,0,0
14,-279,0,0,0,0,0,0,0,0,0,-1,1238,1303,0,0
21,-279,0,0,0,0,0,0,0,0,0,-1,1245,1303,0,0
28,-279,0,0,0,0,0,0,0,0,0,-1,1252,1303,0,0
35,-279,0,0,0,0,0,0,0,0,0,-1,1259,1303,0,0
42,-279,0,0,0,0,0,0,0,0,0,-1,1266,1303,0,0
49,-279,0,0,0,0,0,0,0,0,0,-1,1273,1303,0,0
56,-279,0,0,0,0,0,0,0,0,0,-1,1280,1303,0,0
63,-279,0,0,0,0,0,0,0,0,0,-1,1287,1303,0,0
70,-279,0,0,0,0,0,0,0,0,0,-1,1294,1303,0,0
77,-279,0,0,0,0,0,0,0,0,0,-1,1301,1303,0,0
84,-279,0,0,0,0,0,0,0,0,0,-1,1308,1303,0,0
91,-279,0,0,0,0,0,0,0,0,0,-1,1315,1303,0,0
98,-279,0,0,0,0,0,0,0,0,0,-1,1322,1303,0,0
105,-279,0,0,0,0,0,0,0,0,0,-1,1329,1303,0,0
112,-279,0,0,0,0,0,0,0,0,0,-1,1336,1303,0,0
119,-279,0,0,0,0,0,0,0,0,0,-1,1343,1303,0,0
126,-279,0,0,0,0,0,0,0,0,0,-1,1350,1303,0,0
133,-279,0,0,0,0,0,0,0,0,0,-1,1357,1303,0,0
140,-279,0,0,0,0,0,0,0,0,0,-1,1364,1303,0,0
147,-279,0,0,0,0,0,0,0,0,0,-1,1371,1303,0,0
154,-279,0,0,0,0,0,0,0,0,0,-1,1378,1303,0,0
161,-279,0,0,0,0,0,0,0,0,0,-1,1385,1303,0,0
168,-279,0,0,0,0,0,0,0,0,0,-1,1392,1303,0,0
175,-279,0,0,0,0,0,0,0,0,0,-1,1399,1303,0,0
182,-279,0,0,0,0,0,0,0,0,0,-1,1406,1303,0,0
189,-279,0,0,0,0,0,0,0,0,0,-1,1413,1303,0,0
196,-279,0,0,0,0,0,0,0,0,0,-1,1420,1303,0,0
203,-279,0,0,0,0,0,0,0,0,0,-1,1427,1303,0,0
210,-279,0,0,0,0,0,0,0,0,0,-1,1434,1303,0,0
217,-279,0,0,0,0,0,0,0,0,0,-1,1441,1303,0,0
224,-279,0,0,0,0,0,0,0,0,0,-1,1448,1303,0,0
231,-279,0,0,0,0,0,0,0,0,0,-1,1455,1303,0,0
238,-279,0,0,0,0,0,0,0,0,0,-1,1462,1303,0,0
245,-279,0,0,0,0,0,0,0,0,0,-1,1469,1303,0,0
252,-279,0,0,0,0,0,0,0,0,0,-1,1476,1303,0,0
259,-279,0,0,0,0,0,0,0,0,0,-1,1483,1303,0,0
266,-279,0,0,0,0,0,0,0,0,0,-1,1490,1303,0,0
273,-279,0,0,0,0,0,0,0,0,0,-1,1497,1303,0,0
280,-279,0,0,0,0,0,0,0,0,0,-1,1504,1303,0,0
287,-279,0,0,0,0,0,0,0,0,0,-1,1511,1303,0,0
294,-279,0,0,0,0,0,0,0,0,0,-1,1518,1303,0,0
301,-279,0,0,0,0,0,0,0,0,0,-1,1525,1303,0,0
308,-279,0,0,0,0,0,0,0,0,0,-1,1532,1303,0,0
315,-279,0,0,0,0,0,0,0,0,0,-1,1539,1303,0,0
322,-279,0,0,0,0,0,0,0,0,0,-1,1546,1303,0,0
329,-279,0,0,0,0,0,0,0,0,0,-1,1553,1303,0,0
336,-279,0,0,0,0,0,0,0,0,0,-1,1560,1303,0,0
343,-279,0,0,0,0,0,0,0,0,0,-1,1567,1303,0,0
350,-279,0,0,0,0,0,0,0,0,0,-1,1574,1303,0,0
357,-279,0,0,0,0,0,0,0,0,0,-1,1581,1303,0,0
364,-279,0,0,0,0,0,0,0,0,0,-1,1588,1303,0,0
371,-279,0,0,0,0,0,0,0,0,0,-1,1595,1303,0,0
378,-279,0,0,0,0,0,0,0,0,0,-1,1602,1303,0,0
385,-279,0,0,0,0,0,0,0,0,0,-1,1609,1303,0,0
392,-279,0,0,0,0,0,0,0,0,0,-1,1616,1303,0,0
399,-279,0,0,0,0,0,0,0,0,0,-1,1623,1303,0,0
406,-279,0,0,0,0,0,0,0,0,0,-1,1630,1303,0,0
413,-279,0,0,0,0,0,0,0,0,0,-1,1637,1303,0,0
420,-279,0,0,0,0,0,0,0,0,0,-1,1644,1303,0,0
427,-279,0,0,0,0,0,0,0,0,0,-1,1651,1303,0,0
434,-279,0,0,0,0,0,0,0,0,0,-1,1658,1303,0,0
441,-279,0,0,0,0,0,0,0,0,0,-1,1665,1303,0,0
448,-279,0,0,0,0,0,0,0,0,0,-1,1672,1303,0,0
455,-279,0,0,0,0,0,0,0,0,0,-1,1679,1303,0,0
462,-279,0,0,0,0,0,0,0,0,0,-1,1686,1303,0,0
469,-279,0,0,0,0,0,0,0,0,0,-1,1693,1303,0,0
476,-279,0,0,0,0,0,0,0,0,0,-1,1700,1303,0,0
483,-279,0,0,0,0,0,0,0,0,0,-1,1707,1303,0,0
490,-279,0,0,0,0,0,0,0,0,0,-1,1714,1303,0,0
497,-279,0,0,0,0,0,0,0,0,0,-1,1721,1303,0,0
504,-279,0,0,0,0,0,0,0,0,0,-1,1728,1303,0,0
511,-279,0,0,0,0,0,0,0,0,0,-1,1735,1303,0,0
518,-279,0,0,0,0,0,0,0,0,0,-1,1742,1303,0,0
525,-279,0,0,0,0,0,0,0,0,0,-1,1749,1303,0,0
532,-279,0,0,0,0,0,0,0,0,0,-1,1756,1303,0,0
539,-279,0,0,0,0,0,0,0,0,0,-1,1763,1303,0,0
546,-279,0,0,0,0,0,0,0,0,0,-1,1770,1303,0,0
553,-279,0,0,0,0,0,0,0,0,0,-1,1777,1303,0,0
560,-279,0,0,0,0,0,0,0,0,0,-1,1784,1303,0,0
567,-279,0,0,0,0,0,0,0,0,0,-1,1791,1303,0,0
574,-279,0,0,0,0,0,0,0,0,0,-1,1798,1303,0,0
581,-279,0,0,0,0,0,0,0,0,0,-1,1805,1303,0,0
588,-279,0,0,0,0,0,0,0,0,0,-1,1812,1303,0,0
595,-279,0,0,0,0,0,0,0,0,0,-1,1819,1303,0,0
602,-279,77.5226,2.37451,0,0,0,0,0,0,0,-1,1826,1303,77.5226,-2.37447
609,-279,77.7208,2.5752,0,0,0,0,0,0,0,-1,1833,1303,77.7208,-2.57521
616,-279,77.7501,2.54639,0.00704714,0.0046941,-0.00762626,0.0135871,-0.00184585,-0.708865,0.00973187,0.0498946,1840,1303,77.7502,-2.54635
623,-279,77.8652,2.46375,0.00546509,0.00487558,-0.00679886,0.0119756,-0.00163491,-0.763735,0.00858077,0.0491056,1847,1303,77.8652,-2.4637
630,-279,77.9651,2.36292,0,0,0,0,0,0,0,-1,1854,1303,77.9651,-2.36297
637,-279,73.1141,1.62744,0,0,0,0,0,0,0,-1,1861,1303,73.1142,-1.62742
644,-279,33.5021,3.40234,0,0,0,0,0,0,0,-1,1868,1303,33.5021,-3.40237
651,-279,29.8456,2.3562,0,0,0,0,0,0,0,-1,1875,1303,29.8455,-2.35615
658,-279,21.5076,7.65649,0,0,0,0,0,0,0,-1,1882,1303,21.5076,-7.65648
665,-279,18.9794,6.09607,0,0,0,0,0,0,0,-1,1889,1303,18.9793,-6.09601
672,-279,23.5206,8.32507,0,0,0,0,0,0,0,-1,1896,1303,23.5206,-8.32512
679,-279,53.0519,16.4893,0,0,0,0,0,0,0,-1,1903,1303,53.0519,-16.4893
686,-279,53.231,15.6849,0.000183708,0.000152954,-0.000394834,0.000563464,-0.000226802,-0.765935,0.000469858,0.0360326,1910,1303,53.231,-15.6849
693,-279,53.2524,14.8927,0.00127926,-0.000430763,-0.000150108,0.00129234,-0.00044384,-0.0868955,0.00104152,0.018602,1917,1303,53.2525,-14.8927
700,-279,53.2291,14.1058,0.000964756,-0.000510113,0.000272743,0.00101358,-0.000558935,0.177126,0.000920452,0.0132522,1924,1303,53.2291,-14.1058
707,-279,53.1842,13.2917,0.000328823,-0.000338058,0.000813446,0.000874517,-0.000883752,0.590888,0.00101514,0.0104311,1931,1303,53.1842,-13.2917
714,-279,53.1351,12.4954,-0.000443766,-0.000158705,0.00145358,0.00115931,-0.00176178,0.834269,0.00169841,0.011259,1938,1303,53.1352,-12.4954
721,-279,53.1307,11.7128,-0.00135436,2.34642e-06,0.00217838,0.00160555,-0.00295757,0.93634,0.00267279,0.0158632,1945,1303,53.1308,-11.7127
728,-279,53.1171,10.9373,-0.00246838,0.000147215,0.00303508,0.00214427,-0.00446544,0.988824,0.00389376,0.0185061,1952,1303,53.1171,-10.9373
735,-279,53.0404,10.1985,-0.00388868,0.000251756,0.00408334,0.00275969,-0.00639661,1.02001,0.00542362,0.0176654,1959,1303,53.0404,-10.1985
742,-279,52.9568,9.52271,-0.0057224,0.000314234,0.00535351,0.00344167,-0.00884984,1.04209,0.0073219,0.0275874,1966,1303,52.9567,-9.5227
749,-279,52.8572,8.87244,0,0,0,0,0,0,0,-1,1973,1303,52.8572,-8.87243
756,-279,23.2091,4.43433,0,0,0,0,0,0,0,-1,1980,1303,23.2092,-4.43432
763,-279,27.1613,3.46265,0,0,0,0,0,0,0,-1,1987,1303,27.1613,-3.4627
770,-279,21.5828,3.54199,0,0,0,0,0,0,0,-1,1994,1303,21.5827,-3.54198
777,-279,32.5369,6.99609,0,0,0,0,0,0,0,-1,2001,1303,32.5369,-6.99608
784,-279,0,0,0,0,0,0,0,0,0,-1,2008,1303,0,0
791,-279,0,0,0,0,0,0,0,0,0,-1,2015,1303,0,0
798,-279,0,0,0,0,0,0,0,0,0,-1,2022,1303,0,0
805,-279,0,0,0,0,0,0,0,0,0,-1,2029,1303,0,0
812,-279,0,0,0,0,0,0,0,0,0,-1,2036,1303,0,0
-700,-286,0,0,0,0,0,0,0,0,0,-1,524,1310,0,0
-693,-286,0,0,0,0,0,0,0,0,0,-1,531,1310,0,0
-686,-286,0,0,0,0,0,0,0,0,0,-1,538,1310,0,0
-679,-286,0,0,0,0,0,0,0,0,0,-1,545,1310,0,0
-672,-286,0,0,0,0,0,0,0,0,0,-1,552,1310,0,0
-665,-286,0,0,0,0,0,0,0,0,0,-1,559,1310,0,0
-658,-286,-44.103,1.76782,0,0,0,0,0,0,0,-1,566,1310,-44.103,-1.76778
-651,-286,-43.6417,1.98254,0,0,0,0,0,0,0,-1,573,1310,-43.6416,-1.98254
-644,-286,-43.3175,1.59558,0,0,0,0,0,0,0,-1,580,1310,-43.3175,-1.59556
-637,-286,-42.8448,1.15039,0,0,0,0,0,0,0,-1,587,1310,-42.8448,-1.15043
-630,-286,-42.1176,0.443848,0,0,0,0,0,0,0,-1,594,1310,-42.1176,-0.443802
-623,-286,-41.3121,-0.468384,0,0,0,0,0,0,0,-1,601,1310,-41.3121,0.468376
-616,-286,-22.0634,2.37744,0,0,0,0,0,0,0,-1,608,1310,-22.0633,-2.37746
-609,-286,-35.9586,8.40137,0,0,0,0,0,0,0,-1,615,1310,-35.9586,-8.40135
-602,-286,-35.8076,9.46594,0.0020838,0.00364426,0.00435913,0.00729243,-0.00156438,0.873954,0.00545832,0.0236669,622,1310,-35.8076,-9.46599
-595,-286,-35.8681,10.4022,0.00143345,0.00256086,0.00286604,0.0049181,-0.000923793,0.882501,0.00362611,0.013825,629,1310,-35.8681,-10.4022
-588,-286,-35.9235,11.2048,0.000914602,0.00159195,0.0017481,0.00303388,-0.000527329,0.881082,0.00221934,0.0139777,636,1310,-35.9235,-11.2048
-581,-286,-35.9121,12.0183,0.000495938,0.000668802,0.000927126,0.00151352,-0.000348776,0.831877,0.00114314,0.0156522,643,1310,-35.9121,-12.0183
-574,-286,-35.9632,12.8489,0.000174256,-0.000210494,0.000339726,0.000372294,-0.000408532,0.527776,0.000450972,0.0161102,650,1310,-35.9632,-12.8489
-567,-286,-36.0524,13.6832,-3.22632e-06,-0.00102773,-1.92319e-05,-2.86545e-06,-0.00102809,-0.0187631,0.000684441,0.0160674,657,1310,-36.0524,-13.6833
-560,-286,-36.0809,14.5183,8.26355e-05,-0.0017416,-9.45346e-05,8.75213e-05,-0.00174648,-0.0516372,0.00119456,0.0150248,664,1310,-36.0809,-14.5183
-553,-286,-36.0875,15.365,0.000404715,-0.00240362,0.000185461,0.00041691,-0.00241581,0.0656596,0.00176599,0.0128698,671,1310,-36.0875,-15.365
-546,-286,-36.0291,16.2813,0.00114215,-0.00273753,0.000827154,0.00131114,-0.00290652,0.20153,0.00249246,0.0306164,678,1310,-36.0291,-16.2812
-539,-286,-36.1276,17.3146,0,0,0,0,0,0,0,-1,685,1310,-36.1276,-17.3145
-532,-286,-21.6771,10.4924,0,0,0,0,0,0,0,-1,692,1310,-21.6771,-10.4924
-525,-286,-11.4528,-1.11768,0,0,0,0,0,0,0,-1,699,1310,-11.4528,1.11769
-518,-286,-11.0701,1.37329,0,0,0,0,0,0,0,-1,706,1310,-11.0701,-1.37332
-511,-286,-17.7545,-0.0791016,0,0,0,0,0,0,0,-1,713,1310,-17.7544,0.0791606
-504,-286,-18.0455,1.29602,0,0,0,0,0,0,0,-1,720,1310,-18.0455,-1.29601
-497,-286,-18.3367,2.67114,0,0,0,0,0,0,0,-1,727,1310,-18.3366,-2.67118
-490,-286,-19.5795,2.47266,0,0,0,0,0,0,0,-1,734,1310,-19.5795,-2.4727
-483,-286,-19.7277,2.74744,0,0,0,0,0,0,0,-1,741,1310,-19.7277,-2.74747
-476,-286,-20.0391,3.06177,0,0,0,0,0,0,0,-1,748,1310,-20.0391,-3.06178
-469,-286,0,0,0,0,0,0,0,0,0,-1,755,1310,0,0
-462,-286,0,0,0,0,0,0,0,0,0,-1,762,1310,0,0
-455,-286,0,0,0,0,0,0,0,0,0,-1,769,1310,0,0
-448,-286,0,0,0,0,0,0,0,0,0,-1,776,1310,0,0
-441,-286,0,0,0,0,0,0,0,0,0,-1,783,1310,0,0
-434,-286,0,0,0,0,0,0,0,0,0,-1,790,1310,0,0
-427,-286,0,0,0,0,0,0,0,0,0,-1,797,1310,0,0
-420,-286,0,0,0,0,0,0,0,0,0,-1,804,1310,0,0
-413,-286,0,0,0,0,0,0,0,0,0,-1,811,1310,0,0
-406,-286,0,0,0,0,0,0,0,0,0,-1,818,1310,0,0
-399,-286,0,0,0,0,0,0,0,0,0,-1,825,1310,0,0
-392,-286,0,0,0,0,0,0,0,0,0,-1,832,1310,0,0
-385,-286,0,0,0,0,0,0,0,0,0,-1,839,1310,0,0
-378,-286,0,0,0,0,0,0,0,0,0,-1,846,1310,0,0
-371,-286,0,0,0,0,0,0,0,0,0,-1,853,1310,0,0
-364,-286,0,0,0,0,0,0,0,0,0,-1,860,1310,0,0
-357,-286,0,0,0,0,0,0,0,0,0,-1,867,1310,0,0
-350,-286,0,0,0,0,0,0,0,0,0,-1,874,1310,0,0
-343,-286,0,0,0,0,0,0,0,0,0,-1,881,1310,0,0
-336,-286,0,0,0,0,0,0,0,0,0,-1,888,1310,0,0
-329,-286,0,0,0,0,0,0,0,0,0,-1,895,1310,0,0
-322,-286,0,0,0,0,0,0,0,0,0,-1,902,1310,0,0
-315,-286,0,0,0,0,0,0,0,0,0,-1,909,1310,0,0
-308,-286,0,0,0,0,0,0,0,0,0,-1,916,1310,0,0
-301,-286,0,0,0,0,0,0,0,0,0,-1,923,1310,0,0
-294,-286,0,0,0,0,0,0,0,0,0,-1,930,1310,0,0
-287,-286,0,0,0,0,0,0,0,0,0,-1,937,1310,0,0
-280,-286,0,0,0,0,0,0,0,0,0,-1,944,1310,0,0
-273,-286,0,0,0,0,0,0,0,0,0,-1,951,1310,0,0
-266,-286,0,0,0,0,0,0,0,0,0,-1,958,1310,0,0
-259,-286,0,0,0,0,0,0,0,0,0,-1,965,1310,0,0
-252,-286,0,0,0,0,0,0,0,0,0,-1,972,1310,0,0
-245,-286,0,0,0,0,0,0,0,0,0,-1,979,1310,0,0
-238,-286,0,0,0,0,0,0,0,0,0,-1,986,1310,0,0
-231,-286,0,0,0,0,0,0,0,0,0,-1,993,1310,0,0
-224,-286,0,0,0,0,0,0,0,0,0,-1,1000,1310,0,0
-217,-286,0,0,0,0,0,0,0,0,0,-1,1007,1310,0,0
-210,-286,0,0,0,0,0,0,0,0,0,-1,1014,1310,0,0
-203,-286,0,0,0,0,0,0,0,0,0,-1,1021,1310,0,0
-196,-286,0,0,0,0,0,0,0,0,0,-1,1028,1310,0,0
-189,-286,0,0,0,0,0,0,0,0,0,-1,1035,1310,0,0
-182,-286,0,0,0,0,0,0,0,0,0,-1,1042,1310,0,0
-175,-286,0,0,0,0,0,0,0,0,0,-1,1049,1310,0,0
-168,-286,0,0,0,0,0,0,0,0,0,-1,1056,1310,0,0
-161,-286,0,0,0,0,0,0,0,0,0,-1,1063,1310,0,0
-154,-286,0,0,0,0,0,0,0,0,0,-1,1070,1310,0,0
-147,-286,0,0,0,0,0,0,0,0,0,-1,1077,1310,0,0
-140,-286,0,0,0,0,0,0,0,0,0,-1,1084,1310,0,0
-133,-286,0,0,0,0,0,0,0,0,0,-1,1091,1310,0,0
-126,-286,0,0,0,0,0,0,0,0,0,-1,1098,1310,0,0
-119,-286,0,0,0,0,0,0,0,0,0,-1,1105,1310,0,0
-112,-286,0,0,0,0,0,0,0,0,0,-1,1112,1310,0,0
-105,-286,0,0,0,0,0,0,0,0,0,-1,1119,1310,0,0
-98,-286,0,0,0,0,0,0,0,0,0,-1,1126,1310,0,0
-91,-286,0,0,0,0,0,0,0,0,0,-1,1133,1310,0,0
-84,-286,0,0,0,0,0,0,0,0,0,-1,1140,1310,0,0
-77,-286,0,0,0,0,0,0,0,0,0,-1,1147,1310,0,0
-70,-286,0,0,0,0,0,0,0,0,0,-1,1154,1310,0,0
-63,-286,0,0,0,0,0,0,0,0,0,-1,1161,1310,0,0
-56,-286,0,0,0,0,0,0,0,0,0,-1,1168,1310,0,0
-49,-286,0,0,0,0,0,0,0,0,0,-1,1175,1310,0,0
-42,-286,0,0,0,0,0,0,0,0,0,-1,1182,1310,0,0
-35,-286,0,0,0,0,0,0,0,0,0,-1,1189,1310,0,0
-28,-286,0,0,0,0,0,0,0,0,0,-1,1196,1310,0,0
-21,-286,0,0,0,0,0,0,0,0,0,-1,1203,1310,0,0
-14,-286,0,0,0,0,0,0,0,0,0,-1,1210,1310,0,0
-7,-286,0,0,0,0,0,0,0,0,0,-1,1217,1310,0,0
0,-286,0,0,0,0,0,0,0,0,0,-1,1224,1310,0,0
7,-286,0,0,0,0,0,0,0,0,0,-1,1231,1310,0,0
14,-286,0,0,0,0,0,0,0,0,0,-1,1238,1310,0,0
21,-286,0,0,0,0,0,0,0,0,0,-1,1245,1310,0,0
28,-286,0,0,0,0,0,0,0,0,0,-1,1252,1310,0,0
35,-286,0,0,0,0,0,0,0,0,0,-1,1259,1310,0,0
42,-286,0,0,0,0,0,0,0,0,0,-1,1266,1310,0,0
49,-286,0,0,0,0,0,0,0,0,0,-1,1273,1310,0,0
56,-286,0,0,0,0,0,0,0,0,0,-1,1280,1310,0,0
63,-286,0,0,0,0,0,0,0,0,0,-1,1287,1310,0,0
70,-286,0,0,0,0,0,0,0,0,0,-1,1294,1310,0,0
77,-286,0,0,0,0,0,0,0,0,0,-1,1301,1310,0,0
84,-286,0,0,0,0,0,0,0,0,0,-1,1308,1310,0,0
91,-286,0,0,0,0,0,0,0,0,0,-1,1315,1310,0,0
98,-286,0,0,0,0,0,0,0,0,0,-1,1322,1310,0,0
105,-286,0,0,0,0,0,0,0,0,0,-1,1329,1310,0,0
112,-286,0,0,0,0,0,0,0,0,0,-1,1336,1310,0,0
119,-286,0,0,0,0,0,0,0,0,0,-1,1343,1310,0,0
126,-286,0,0,0,0,0,0,0,0,0,-1,1350,1310,0,0
133,-286,0,0,0,0,0,0,0,0,0,-1,1357,1310,0,0
140,-286,0,0,0,0,0,0,0,0,0,-1,1364,1310,0,0
147,-286,0,0,0,0,0,0,0,0,0,-1,1371,1310,0,0
154,-286,0,0,0,0,0,0,0,0,0,-1,1378,1310,0,0
161,-286,0,0,0,0,0,0,0,0,0,-1,1385,1310,0,0
168,-286,0,0,0,0,0,0,0,0,0,-1,1392,1310,0,0
175,-286,0,0,0,0,0,0,0,0,0,-1,1399,1310,0,0
182,-286,0,0,0,0,0,0,0,0,0,-1,1406,1310,0,0
189,-286,0,0,0,0,0,0,0,0,0,-1,1413,1310,0,0
196,-286,0,0,0,0,0,0,0,0,0,-1,1420,1310,0,0
203,-286,0,0,0,0,0,0,0,0,0,-1,1427,1310,0,0
210,-286,0,0,0,0,0,0,0,0,0,-1,1434,1310,0,0
217,-286,0,0,0,0,0,0,0,0,0,-1,1441,1310,0,0
224,-286,0,0,0,0,0,0,0,0,0,-1,1448,1310,0,0
231,-286,0,0,0,0,0,0,0,0,0,-1,1455,1310,0,0
238,-286,0,0,0,0,0,0,0,0,0,-1,1462,1310,0,0
245,-286,0,0,0,0,0,0,0,0,0,-1,1469,1310,0,0
252,-286,0,0,0,0,0,0,0,0,0,-1,1476,1310,0,0
259,-286,0,0,0,0,0,0,0,0,0,-1,1483,1310,0,0
266,-286,0,0,0,0,0,0,0,0,0,-1,1490,1310,0,0
273,-286,0,0,0,0,0,0,0,0,0,-1,1497,1310,0,0
280,-286,0,0,0,0,0,0,0,0,0,-1,1504,1310,0,0
287,-286,0,0,0,0,0,0,0,0,0,-1,1511,1310,0,0
294,-286,0,0,0,0,0,0,0,0,0,-1,1518,1310,0,0
301,-286,0,0,0,0,0,0,0,0,0,-1,1525,1310,0,0
308,-286,0,0,0,0,0,0,0,0,0,-1,1532,1310,0,0
315,-286,0,0,0,0,0,0,0,0,0,-1,1539,1310,0,0
322,-286,0,0,0,0,0,0,0,0,0,-1,1546,1310,0,0
329,-286,0,0,0,0,0,0,0,0,0,-1,1553,1310,0,0
336,-286,0,0,0,0,0,0,0,0,0,-1,1560,1310,0,0
343,-286,0,0,0,0,0,0,0,0,0,-1,1567,1310,0,0
350,-286,0,0,0,0,0,0,0,0,0,-1,1574,1310,0,0
357,-286,0,0,0,0,0,0,0,0,0,-1,1581,1310,0,0
364,-286,0,0,0,0,0,0,0,0,0,-1,1588,1310,0,0
371,-286,0,0,0,0,0,0,0,0,0,-1,1595,1310,0,0
378,-286,0,0,0,0,0,0,0,0,0,-1,1602,1310,0,0
385,-286,0,0,0,0,0,0,0,0,0,-1,1609,1310,0,0
392,-286,0,0,0,0,0,0,0,0,0,-1,1616,1310,0,0
399,-286,0,0,0,0,0,0,0,0,0,-1,1623,1310,0,0
406,-286,0,0,0,0,0,0,0,0,0,-1,1630,1310,0,0
413,-286,0,0,0,0,0,0,0,0,0,-1,1637,1310,0,0
420,-286,0,0,0,0,0,0,0,0,0,-1,1644,1310,0,0
427,-286,0,0,0,0,0,0,0,0,0,-1,1651,1310,0,0
434,-286,0,0,0,0,0,0,0,0,0,-1,1658,1310,0,0
441,-286,0,0,0,0,0,0,0,0,0,-1,1665,1310,0,0
448,-286,0,0,0,0,0,0,0,0,0,-1,1672,1310,0,0
455,-286,0,0,0,0,0,0,0,0,0,-1,1679,1310,0,0
462,-286,0,0,0,0,0,0,0,0,0,-1,1686,1310,0,0
469,-286,0,0,0,0,0,0,0,0,0,-1,1693,1310,0,0
476,-286,0,0,0,0,0,0,0,0,0,-1,1700,1310,0,0
483,-286,0,0,0,0,0,0,0,0,0,-1,1707,1310,0,0
490,-286,0,0,0,0,0,0,0,0,0,-1,1714,1310,0,0
497,-286,0,0,0,0,0,0,0,0,0,-1,1721,1310,0,0
504,-286,0,0,0,0,0,0,0,0,0,-1,1728,1310,0,0
511,-286,0,0,0,0,0,0,0,0,0,-1,1735,1310,0,0
518,-286,0,0,0,0,0,0,0,0,0,-1,1742,1310,0,0
525,-286,0,0,0,0,0,0,0,0,0,-1,1749,1310,0,0
532,-286,0,0,0,0,0,0,0,0,0,-1,1756,1310,0,0
539,-286,0,0,0,0,0,0,0,0,0,-1,1763,1310,0,0
546,-286,0,0,0,0,0,0,0,0,0,-1,1770,1310,0,0
553,-286,0,0,0,0,0,0,0,0,0,-1,1777,1310,0,0
560,-286,0,0,0,0,0,0,0,0,0,-1,1784,1310,0,0
567,-286,0,0,0,0,0,0,0,0,0,-1,1791,1310,0,0
574,-286,0,0,0,0,0,0,0,0,0,-1,1798,1310,0,0
581,-286,0,0,0,0,0,0,0,0,0,-1,1805,1310,0,0
588,-286,0,0,0,0,0,0,0,0,0,-1,1812,1310,0,0
595,-286,69.8951,2.40527,0,0,0,0,0,0,0,-1,1819,1310,69.8951,-2.40522
602,-286,77.4904,2.18909,0,0,0,0,0,0,0,-1,1826,1310,77.4904,-2.18912
609,-286,77.8652,2.65515,0,0,0,0,0,0,0,-1,1833,1310,77.8652,-2.65513
616,-286,77.8932,2.5907,0,0,0,0,0,0,0,-1,1840,1310,77.8932,-2.59072
623,-286,77.9681,2.41431,0,0,0,0,0,0,0,-1,1847,1310,77.9681,-2.41434
630,-286,73.3732,1.46594,0,0,0,0,0,0,0,-1,1854,1310,73.3731,-1.46595
637,-286,47.8409,3.69824,0,0,0,0,0,0,0,-1,1861,1310,47.841,-3.69823
644,-286,25.6433,1.33862,0,0,0,0,0,0,0,-1,1868,1310,25.6433,-1.33858
651,-286,25.2507,1.88245,0,0,0,0,0,0,0,-1,1875,1310,25.2508,-1.88245
658,-286,25.9475,9.43689,0,0,0,0,0,0,0,-1,1882,1310,25.9475,-9.43693
665,-286,24.9838,8.03101,0,0,0,0,0,0,0,-1,1889,1310,24.9837,-8.03104
672,-286,40.2175,12.9626,0,0,0,0,0,0,0,-1,1896,1310,40.2175,-12.9627
679,-286,52.531,16.4949,0,0,0,0,0,0,0,-1,1903,1310,52.531,-16.4948
686,-286,52.5118,15.7118,0.000987189,7.50484e-05,-0.000621914,0.00130234,-0.000240099,-0.469024,0.000958336,0.0243942,1910,1310,52.5118,-15.7118
693,-286,52.4722,14.9357,0.00162191,-0.000264181,-0.000341504,0.00168184,-0.000324111,-0.17372,0.00124343,0.0177643,1917,1310,52.4721,-14.9356
700,-286,52.4277,14.1312,0.00119246,-0.000219182,0.000120679,0.0012027,-0.000229424,0.0846698,0.000888206,0.0120067,1924,1310,52.4278,-14.1312
707,-286,52.3796,13.3411,0.00059078,-9.48368e-05,0.000668346,0.000999107,-0.000503163,0.548433,0.00088295,0.00949277,1931,1310,52.3797,-13.341
714,-286,52.3396,12.5665,-0.000138795,3.69304e-05,0.00130058,0.00125261,-0.00135447,0.819125,0.00150558,0.00983881,1938,1310,52.3396,-12.5666
721,-286,52.3425,11.7778,-0.000997041,0.000156887,0.00201724,0.00167806,-0.00251821,0.924688,0.00243885,0.0127509,1945,1310,52.3425,-11.7778
728,-286,52.325,10.9781,-0.00206717,0.000270617,0.00286043,0.00219177,-0.00398832,0.979365,0.00361799,0.0167828,1952,1310,52.3249,-10.9782
735,-286,52.2758,10.1943,-0.00348628,0.000326438,0.00390905,0.00276921,-0.00592905,1.01227,0.00513121,0.0212004,1959,1310,52.2758,-10.1944
742,-286,52.2168,9.47375,-0.00539898,0.000338234,0.00518024,0.0033911,-0.00845184,1.03826,0.00704255,0.0385122,1966,1310,52.2169,-9.4738
749,-286,52.2626,8.74292,0,0,0,0,0,0,0,-1,1973,1310,52.2626,-8.74295
756,-286,24.8226,4.43481,0,0,0,0,0,0,0,-1,1980,1310,24.8227,-4.43479
763,-286,20.6671,3.99683,0,0,0,0,0,0,0,-1,1987,1310,20.6671,-3.99683
770,-286,23.9147,4.45679,0,0,0,0,0,0,0,-1,1994,1310,23.9146,-4.45675
777,-286,0,0,0,0,0,0,0,0,0,-1,2001,1310,0,0
784,-286,0,0,0,0,0,0,0,0,0,-1,2008,1310,0,0
791,-286,0,0,0,0,0,0,0,0,0,-1,2015,1310,0,0
798,-286,0,0,0,0,0,0,0,0,0,-1,2022,1310,0,0
805,-286,0,0,0,0,0,0,0,0,0,-1,2029,1310,0,0
812,-286,0,0,0,0,0,0,0,0,0,-1,2036,1310,0,0
-700,-293,0,0,0,0,0,0,0,0,0,-1,524,1317,0,0
-693,-293,0,0,0,0,0,0,0,0,0,-1,531,1317,0,0
-686,-293,0,0,0,0,0,0,0,0,0,-1,538,1317,0,0
-679,-293,0,0,0,0,0,0,0,0,0,-1,545,1317,0,0
-672,-293,0,0,0,0,0,0,0,0,0,-1,552,1317,0,0
-665,-293,0,0,0,0,0,0,0,0,0,-1,559,1317,0,0
-658,-293,0,0,0,0,0,0,0,0,0,-1,566,1317,0,0
-651,-293,-42.6636,2.1897,0,0,0,0,0,0,0,-1,573,1317,-42.6636,-2.18965
-644,-293,-42.6672,1.56262,0,0,0,0,0,0,0,-1,580,1317,-42.6672,-1.5626
-637,-293,-42.7898,0.963745,0,0,0,0,0,0,0,-1,587,1317,-42.7898,-0.963689
-630,-293,-42.7558,0.296021,0,0,0,0,0,0,0,-1,594,1317,-42.7558,-0.295997
-623,-293,-15.6058,0.229614,0,0,0,0,0,0,0,-1,601,1317,-15.6058,-0.229666
-616,-293,-15.5056,2.17737,0,0,0,0,0,0,0,-1,608,1317,-15.5055,-2.17742
-609,-293,-25.3796,5.07373,0,0,0,0,0,0,0,-1,615,1317,-25.3796,-5.07369
-602,-293,-35.0796,9.51831,0,0,0,0,0,0,0,-1,622,1317,-35.0796,-9.51831
-595,-293,-35.0754,10.4149,0.0023355,0.00326297,0.0032811,0.00611294,-0.000514469,0.855601,0.00425716,0.0232998,629,1317,-35.0754,-10.4149
-588,-293,-35.1014,11.2554,0.00168681,0.00220761,0.00210579,0.00406904,-0.00017462,0.846915,0.00277273,0.0176688,636,1317,-35.1014,-11.2554
-581,-293,-35.0841,12.0519,0.00122471,0.00127802,0.00130957,0.0025612,-5.84719e-05,0.795572,0.00172729,0.019385,643,1317,-35.0841,-12.0519
-574,-293,-35.114,12.9115,0.00090163,0.000430052,0.000762741,0.0014642,-0.000132514,0.635491,0.00102317,0.0173636,650,1317,-35.114,-12.9114
-567,-293,-35.1966,13.7573,0.000748823,-0.000327601,0.00045323,0.000914237,-0.000493015,0.349945,0.00082452,0.0159958,657,1317,-35.1966,-13.7574
-560,-293,-35.2438,14.5941,0.000887331,-0.000974649,0.000400312,0.000969747,-0.00105706,0.203043,0.00117054,0.0163763,664,1317,-35.2438,-14.5941
-553,-293,-35.2718,15.4114,0.00133294,-0.00152438,0.0006655,0.00148034,-0.00167178,0.217966,0.00182099,0.0118199,671,1317,-35.2718,-15.4114
-546,-293,-35.2568,16.2799,0.00219807,-0.0018316,0.00127689,0.00256861,-0.00220214,0.282432,0.0027571,0.0223547,678,1317,-35.2568,-16.2799
-539,-293,-35.2169,17.1538,0,0,0,0,0,0,0,-1,685,1317,-35.2169,-17.1538
-532,-293,-27.4858,13.6715,0,0,0,0,0,0,0,-1,692,1317,-27.4858,-13.6715
-525,-293,-8.20642,3.62256,0,0,0,0,0,0,0,-1,699,1317,-8.20639,-3.6226
-518,-293,-10.1053,0.314209,0,0,0,0,0,0,0,-1,706,1317,-10.1053,-0.314234
-511,-293,-11.6276,0.235352,0,0,0,0,0,0,0,-1,713,1317,-11.6276,-0.235372
-504,-293,-17.9086,1.25427,0,0,0,0,0,0,0,-1,720,1317,-17.9086,-1.25423
-497,-293,-18.8006,1.62122,0,0,0,0,0,0,0,-1,727,1317,-18.8006,-1.62119
-490,-293,-18.8961,1.99255,0,0,0,0,0,0,0,-1,734,1317,-18.8961,-1.99251
-483,-293,-19.0831,2.35498,0,0,0,0,0,0,0,-1,741,1317,-19.0831,-2.35497
-476,-293,-19.5228,2.61243,0,0,0,0,0,0,0,-1,748,1317,-19.5228,-2.61237
-469,-293,0,0,0,0,0,0,0,0,0,-1,755,1317,0,0
-462,-293,0,0,0,0,0,0,0,0,0,-1,762,1317,0,0
-455,-293,0,0,0,0,0,0,0,0,0,-1,769,1317,0,0
-448,-293,0,0,0,0,0,0,0,0,0,-1,776,1317,0,0
-441,-293,0,0,0,0,0,0,0,0,0,-1,783,1317,0,0
-434,-293,0,0,0,0,0,0,0,0,0,-1,790,1317,0,0
-427,-293,0,0,0,0,0,0,0,0,0,-1,797,1317,0,0
-420,-293,0,0,0,0,0,0,0,0,0,-1,804,1317,0,0
-413,-293,0,0,0,0,0,0,0,0,0,-1,811,1317,0,0
-406,-293,0,0,0,0,0,0,0,0,0,-1,818,1317,0,0
-399,-293,0,0,0,0,0,0,0,0,0,-1,825,1317,0,0
-392,-293,0,0,0,0,0,0,0,0,0,-1,832,1317,0,0
-385,-293,0,0,0,0,0,0,0,0,0,-1,839,1317,0,0
-378,-293,0,0,0,0,0,0,0,0,0,-1,846,1317,0,0
-371,-293,0,0,0,0,0,0,0,0,0,-1,853,1317,0,0
-364,-293,0,0,0,0,0,0,0,0,0,-1,860,1317,0,0
-357,-293,0,0,0,0,0,0,0,0,0,-1,867,1317,0,0
-350,-293,0,0,0,0,0,0,0,0,0,-1,874,1317,0,0
-343,-293,0,0,0,0,0,0,0,0,0,-1,881,1317,0,0
-336,-293,0,0,0,0,0,0,0,0,0,-1,888,1317,0,0
-329,-293,0,0,0,0,0,0,0,0,0,-1,895,1317,0,0
-322,-293,0,0,0,0,0,0,0,0,0,-1,902,1317,0,0
-315,-293,0,0,0,0,0,0,0,0,0,-1,909,1317,0,0
-308,-293,0,0,0,0,0,0,0,0,0,-1,916,1317,0,0
-301,-293,0,0,0,0,0,0,0,0,0,-1,923,1317,0,0
-294,-293,0,0,0,0,0,0,0,0,0,-1,930,1317,0,0
-287,-293,0,0,0,0,0,0,0,0,0,-1,937,1317,0,0
-280,-293,0,0,0,0,0,0,0,0,0,-1,944,1317,0,0
-273,-293,0,0,0,0,0,0,0,0,0,-1,951,1317,0,0
-266,-293,0,0,0,0,0,0,0,0,0,-1,958,1317,0,0
-259,-293,0,0,0,0,0,0,0,0,0,-1,965,1317,0,0
-252,-293,0,0,0,0,0,0,0,0,0,-1,972,1317,0,0
-245,-293,0,0,0,0,0,0,0,0,0,-1,979,1317,0,0
-238,-293,0,0,0,0,0,0,0,0,0,-1,986,1317,0,0
-231,-293,0,0,0,0,0,0,0,0,0,-1,993,1317,0,0
-224,-293,0,0,0,0,0,0,0,0,0,-1,1000,1317,0,0
-217,-293,0,0,0,0,0,0,0,0,0,-1,1007,1317,0,0
-210,-293,0,0,0,0,0,0,0,0,0,-1,1014,1317,0,0
-203,-293,0,0,0,0,0,0,0,0,0,-1,1021,1317,0,0
-196,-293,0,0,0,0,0,0,0,0,0,-1,1028,1317,0,0
-189,-293,0,0,0,0,0,0,0,0,0,-1,1035,1317,0,0
-182,-293,0,0,0,0,0,0,0,0,0,-1,1042,1317,0,0
-175,-293,0,0,0,0,0,0,0,0,0,-1,1049,1317,0,0
-168,-293,0,0,0,0,0,0,0,0,0,-1,1056,1317,0,0
-161,-293,0,0,0,0,0,0,0,0,0,-1,1063,1317,0,0
-154,-293,0,0,0,0,0,0,0,0,0,-1,1070,1317,0,0
-147,-293,0,0,0,0,0,0,0,0,0,-1,1077,1317,0,0
-140,-293,0,0,0,0,0,0,0,0,0,-1,1084,1317,0,0
-133,-293,0,0,0,0,0,0,0,0,0,-1,1091,1317,0,0
-126,-293,0,0,0,0,0,0,0,0,0,-1,1098,1317,0,0
-119,-293,0,0,0,0,0,0,0,0,0,-1,1105,1317,0,0
-112,-293,0,0,0,0,0,0,0,0,0,-1,1112,1317,0,0
-105,-293,0,0,0,0,0,0,0,0,0,-1,1119,1317,0,0
-98,-293,0,0,0,0,0,0,0,0,0,-1,1126,1317,0,0
-91,-293,0,0,0,0,0,0,0,0,0,-1,1133,1317,0,0
-84,-293,0,0,0,0,0,0,0,0,0,-1,1140,1317,0,0
-77,-293,0,0,0,0,0,0,0,0,0,-1,1147,1317,0,0
-70,-293,0,0,0,0,0,0,0,0,0,-1,1154,1317,0,0
-63,-293,0,0,0,0,0,0,0,0,0,-1,1161,1317,0,0
-56,-293,0,0,0,0,0,0,0,0,0,-1,1168,1317,0,0
-49,-293,0,0,0,0,0,0,0,0,0,-1,1175,1317,0,0
-42,-293,0,0,0,0,0,0,0,0,0,-1,1182,1317,0,0
-35,-293,0,0,0,0,0,0,0,0,0,-1,1189,1317,0,0
-28,-293,0,0,0,0,0,0,0,0,0,-1,1196,1317,0,0
-21,-293,0,0,0,0,0,0,0,0,0,-1,1203,1317,0,0
-14,-293,0,0,0,0,0,0,0,0,0,-1,1210,1317,0,0
-7,-293,0,0,0,0,0,0,0,0,0,-1,1217,1317,0,0
0,-293,0,0,0,0,0,0,0,0,0,-1,1224,1317,0,0
7,-293,0,0,0,0,0,0,0,0,0,-1,1231,1317,0,0
14,-293,0,0,0,0,0,0,0,0,0,-1,1238,1317,0,0
21,-293,0,0,0,0,0,0,0,0,0,-1,1245,1317,0,0
28,-293,0,0,0,0,0,0,0,0,0,-1,1252,1317,0,0
35,-293,0,0,0,0,0,0,0,0,0,-1,1259,1317,0,0
42,-293,0,0,0,0,0,0,0,0,0,-1,1266,1317,0,0
49,-293,0,0,0,0,0,0,0,0,0,-1,1273,1317,0,0
56,-293,0,0,0,0,0,0,0,0,0,-1,1280,1317,0,0
63,-293,0,0,0,0,0,0,0,0,0,-1,1287,1317,0,0
70,-293,0,0,0,0,0,0,0,0,0,-1,1294,1317,0,0
77,-293,0,0,0,0,0,0,0,0,0,-1,1301,1317,0,0
84,-293,0,0,0,0,0,0,0,0,0,-1,1308,1317,0,0
91,-293,0,0,0,0,0,0,0,0,0,-1,1315,1317,0,0
98,-293,0,0,0,0,0,0,0,0,0,-1,1322,1317,0,0
105,-293,0,0,0,0,0,0,0,0,0,-1,1329,1317,0,0
112,-293,0,0,0,0,0,0,0,0,0,-1,1336,1317,0,0
119,-293,0,0,0,0,0,0,0,0,0,-1,1343,1317,0,0
126,-293,0,0,0,0,0,0,0,0,0,-1,1350,1317,0,0
133,-293,0,0,0,0,0,0,0,0,0,-1,1357,1317,0,0
140,-293,0,0,0,0,0,0,0,0,0,-1,1364,1317,0,0
147,-293,0,0,0,0,0,0,0,0,0,-1,1371,1317,0,0
154,-293,0,0,0,0,0,0,0,0,0,-1,1378,1317,0,0
161,-293,0,0,0,0,0,0,0,0,0,-1,1385,1317,0,0
168,-293,0,0,0,0,0,0,0,0,0,-1,1392,1317,0,0
175,-293,0,0,0,0,0,0,0,0,0,-1,1399,1317,0,0
182,-293,0,0,0,0,0,0,0,0,0,-1,1406,1317,0,0
189,-293,0,0,0,0,0,0,0,0,0,-1,1413,1317,0,0
196,-293,0,0,0,0,0,0,0,0,0,-1,1420,1317,0,0
203,-293,0,0,0,0,0,0,0,0,0,-1,1427,1317,0,0
210,-293,0,0,0,0,0,0,0,0,0,-1,1434,1317,0,0
217,-293,0,0,0,0,0,0,0,0,0,-1,1441,1317,0,0
224,-293,0,0,0,0,0,0,0,0,0,-1,1448,1317,0,0
231,-293,0,0,0,0,0,0,0,0,0,-1,1455,1317,0,0
238,-293,0,0,0,0,0,0,0,0,0,-1,1462,1317,0,0
245,-293,0,0,0,0,0,0,0,0,0,-1,1469,1317,0,0
252,-293,0,0,0,0,0,0,0,0,0,-1,1476,1317,0,0
259,-293,0,0,0,0,0,0,0,0,0,-1,1483,1317,0,0
266,-293,0,0,0,0,0,0,0,0,0,-1,1490,1317,0,0
273,-293,0,0,0,0,0,0,0,0,0,-1,1497,1317,0,0
280,-293,0,0,0,0,0,0,0,0,0,-1,1504,1317,0,0
287,-293,0,0,0,0,0,0,0,0,0,-1,1511,1317,0,0
294,-293,0,0,0,0,0,0,0,0,0,-1,1518,1317,0,0
301,-293,0,0,0,0,0,0,0,0,0,-1,1525,1317,0,0
308,-293,0,0,0,0,0,0,0,0,0,-1,1532,1317,0,0
315,-293,0,0,0,0,0,0,0,0,0,-1,1539,1317,0,0
322,-293,0,0,0,0,0,0,0,0,0,-1,1546,1317,0,0
329,-293,0,0,0,0,0,0,0,0,0,-1,1553,1317,0,0
336,-293,0,0,0,0,0,0,0,0,0,-1,1560,1317,0,0
343,-293,0,0,0,0,0,0,0,0,0,-1,1567,1317,0,0
350,-293,0,0,0,0,0,0,0,0,0,-1,1574,1317,0,0
357,-293,0,0,0,0,0,0,0,0,0,-1,1581,1317,0,0
364,-293,0,0,0,0,0,0,0,0,0,-1,1588,1317,0,0
371,-293,0,0,0,0,0,0,0,0,0,-1,1595,1317,0,0
378,-293,0,0,0,0,0,0,0,0,0,-1,1602,1317,0,0
385,-293,0,0,0,0,0,0,0,0,0,-1,1609,1317,0,0
392,-293,0,0,0,0,0,0,0,0,0,-1,1616,1317,0,0
399,-293,0,0,0,0,0,0,0,0,0,-1,1623,1317,0,0
406,-293,0,0,0,0,0,0,0,0,0,-1,1630,1317,0,0
413,-293,0,0,0,0,0,0,0,0,0,-1,1637,1317,0,0
420,-293,0,0,0,0,0,0,0,0,0,-1,1644,1317,0,0
427,-293,0,0,0,0,0,0,0,0,0,-1,1651,1317,0,0
434,-293,0,0,0,0,0,0,0,0,0,-1,1658,1317,0,0
441,-293,0,0,0,0,0,0,0,0,0,-1,1665,1317,0,0
448,-293,0,0,0,0,0,0,0,0,0,-1,1672,1317,0,0
455,-293,0,0,0,0,0,0,0,0,0,-1,1679,1317,0,0
462,-293,0,0,0,0,0,0,0,0,0,-1,1686,1317,0,0
469,-293,0,0,0,0,0,0,0,0,0,-1,1693,1317,0,0
476,-293,0,0,0,0,0,0,0,0,0,-1,1700,1317,0,0
483,-293,0,0,0,0,0,0,0,0,0,-1,1707,1317,0,0
490,-293,0,0,0,0,0,0,0,0,0,-1,1714,1317,0,0
497,-293,0,0,0,0,0,0,0,0,0,-1,1721,1317,0,0
504,-293,0,0,0,0,0,0,0,0,0,-1,1728,1317,0,0
511,-293,0,0,0,0,0,0,0,0,0,-1,1735,1317,0,0
518,-293,0,0,0,0,0,0,0,0,0,-1,1742,1317,0,0
525,-293,0,0,0,0,0,0,0,0,0,-1,1749,1317,0,0
532,-293,0,0,0,0,0,0,0,0,0,-1,1756,1317,0,0
539,-293,0,0,0,0,0,0,0,0,0,-1,1763,1317,0,0
546,-293,0,0,0,0,0,0,0,0,0,-1,1770,1317,0,0
553,-293,0,0,0,0,0,0,0,0,0,-1,1777,1317,0,0
560,-293,0,0,0,0,0,0,0,0,0,-1,1784,1317,0,0
567,-293,0,0,0,0,0,0,0,0,0,-1,1791,1317,0,0
574,-293,0,0,0,0,0,0,0,0,0,-1,1798,1317,0,0
581,-293,0,0,0,0,0,0,0,0,0,-1,1805,1317,0,0
588,-293,0,0,0,0,0,0,0,0,0,-1,1812,1317,0,0
595,-293,70.0999,2.25085,0,0,0,0,0,0,0,-1,1819,1317,70.0998,-2.25088
602,-293,70.2273,2.05859,0,0,0,0,0,0,0,-1,1826,1317,70.2273,-2.05859
609,-293,76.5005,2.45483,0,0,0,0,0,0,0,-1,1833,1317,76.5005,-2.45489
616,-293,78.0193,2.60815,0,0,0,0,0,0,0,-1,1840,1317,78.0193,-2.6081
623,-293,64.6224,0.448364,0,0,0,0,0,0,0,-1,1847,1317,64.6224,-0.448318
630,-293,46.6716,3.21558,0,0,0,0,0,0,0,-1,1854,1317,46.6716,-3.2156
637,-293,42.7729,4.95544,0,0,0,0,0,0,0,-1,1861,1317,42.773,-4.95546
644,-293,24.4565,0.520752,0,0,0,0,0,0,0,-1,1868,1317,24.4566,-0.520709
651,-293,25.8926,9.51245,0,0,0,0,0,0,0,-1,1875,1317,25.8926,-9.51246
658,-293,25.4904,9.10205,0,0,0,0,0,0,0,-1,1882,1317,25.4904,-9.10209
665,-293,39.7999,13.4221,0,0,0,0,0,0,0,-1,1889,1317,39.8,-13.4221
672,-293,51.7938,17.6077,0,0,0,0,0,0,0,-1,1896,1317,51.7939,-17.6076
679,-293,51.7981,16.5658,0.00114588,0.00151058,-0.00161557,0.00295406,-0.000297599,-0.841595,0.0020757,0.0229587,1903,1317,51.7982,-16.5658
686,-293,51.7626,15.7837,0.00168798,-1.75798e-05,-0.000704158,0.00194113,-0.000270725,-0.345114,0.00139312,0.0180298,1910,1317,51.7625,-15.7837
693,-293,51.7141,15.0011,0.00184484,-0.000169861,-0.000395831,0.00191982,-0.00024484,-0.187204,0.00136881,0.0140208,1917,1317,51.7141,-15.0011
700,-293,51.6479,14.1787,0.0013225,-5.97807e-05,7.80162e-05,0.00132689,-6.417e-05,0.0562022,0.000906741,0.0116918,1924,1317,51.6479,-14.1788
707,-293,51.6027,13.3813,0.000765969,4.44065e-05,0.000610036,0.00111392,-0.000303548,0.518359,0.000861806,0.0123455,1931,1317,51.6027,-13.3814
714,-293,51.5581,12.6018,0.000147885,0.000159551,0.0011983,0.00135203,-0.0010446,0.787832,0.00138749,0.00872985,1938,1317,51.5581,-12.6018
721,-293,51.5327,11.7999,-0.000567414,0.000284299,0.001865,0.00177144,-0.00205456,0.897645,0.00221096,0.0101049,1945,1317,51.5327,-11.7999
728,-293,51.516,10.9828,-0.00144038,0.000437744,0.00263253,0.00229368,-0.00329632,0.956721,0.00324465,0.0138247,1952,1317,51.516,-10.9828
735,-293,51.4636,10.1522,-0.00261895,0.000534109,0.00359564,0.00288366,-0.0049685,0.992004,0.0045864,0.0260022,1959,1317,51.4637,-10.1522
742,-293,51.4911,9.30957,0,0,0,0,0,0,0,-1,1966,1317,51.4911,-9.30962
749,-293,29.439,5.35339,0,0,0,0,0,0,0,-1,1973,1317,29.4389,-5.35334
756,-293,24.978,3.9718,0,0,0,0,0,0,0,-1,1980,1317,24.978,-3.97186
763,-293,26.6713,4.74097,0,0,0,0,0,0,0,-1,1987,1317,26.6713,-4.74098
770,-293,24.1349,4.69153,0,0,0,0,0,0,0,-1,1994,1317,24.1348,-4.69159
777,-293,0,0,0,0,0,0,0,0,0,-1,2001,1317,0,0
784,-293,0,0,0,0,0,0,0,0,0,-1,2008,1317,0,0
791,-293,0,0,0,0,0,0,0,0,0,-1,2015,1317,0,0
798,-293,0,0,0,0,0,0,0,0,0,-1,2022,1317,0,0
805,-293,0,0,0,0,0,0,0,0,0,-1,2029,1317,0,0
812,-293,0,0,0,0,0,0,0,0,0,-1,2036,1317,0,0
-700,-300,0,0,0,0,0,0,0,0,0,-1,524,1324,0,0
-693,-300,0,0,0,0,0,0,0,0,0,-1,531,1324,0,0
-686,-300,0,0,0,0,0,0,0,0,0,-1,538,1324,0,0
-679,-300,0,0,0,0,0,0,0,0,0,-1,545,1324,0,0
-672,-300,0,0,0,0,0,0,0,0,0,-1,552,1324,0,0
-665,-300,0,0,0,0,0,0,0,0,0,-1,559,1324,0,0
-658,-300,0,0,0,0,0,0,0,0,0,-1,566,1324,0,0
-651,-300,-41.7632,2.33789,0,0,0,0,0,0,0,-1,573,1324,-41.7632,-2.33789
-644,-300,-42.3084,1.3728,0,0,0,0,0,0,0,-1,580,1324,-42.3084,-1.37282
-637,-300,-42.6259,0.807251,0,0,0,0,0,0,0,-1,587,1324,-42.6259,-0.807209
-630,-300,-21.1108,2.26306,0,0,0,0,0,0,0,-1,594,1324,-21.1109,-2.2631
-623,-300,-12.7067,1.48462,0,0,0,0,0,0,0,-1,601,1324,-12.7067,-1.48462
-616,-300,-14.9988,1.68628,0,0,0,0,0,0,0,-1,608,1324,-14.9988,-1.68627
-609,-300,-15.5027,3.29907,0,0,0,0,0,0,0,-1,615,1324,-15.5027,-3.29902
-602,-300,-34.2365,9.36792,0,0,0,0,0,0,0,-1,622,1324,-34.2364,-9.3679
-595,-300,-34.2914,10.4165,0.00290763,0.00388244,0.00384077,0.00726661,-0.000476538,0.848512,0.00501081,0.0413761,629,1324,-34.2914,-10.4165
-588,-300,-34.243,11.3083,0.00219865,0.00276243,0.00249379,0.00499021,-2.91378e-05,0.841678,0.00333656,0.0210677,636,1324,-34.243,-11.3084
-581,-300,-34.2791,12.1421,0.00176134,0.00186731,0.00165328,0.00346846,0.000160192,0.801417,0.0022608,0.0207126,643,1324,-34.2791,-12.1421
-574,-300,-34.2968,12.957,0.00148992,0.0010793,0.00108947,0.00239325,0.000175966,0.692266,0.0015402,0.0166467,650,1324,-34.2968,-12.9571
-567,-300,-34.3521,13.7803,0.00140879,0.000406622,0.000784645,0.0018387,-2.32893e-05,0.501234,0.00123364,0.016336,657,1324,-34.3521,-13.7803
-560,-300,-34.4076,14.649,0.00160754,-0.000153071,0.000723879,0.00186695,-0.000412475,0.344096,0.00140249,0.0151442,664,1324,-34.4076,-14.649
-553,-300,-34.4379,15.4924,0.00209418,-0.000580895,0.000967931,0.00240767,-0.000894387,0.313217,0.00197205,0.0113445,671,1324,-34.438,-15.4924
-546,-300,-34.4775,16.3124,0.00294511,-0.00084435,0.001524,0.00348196,-0.0013812,0.33869,0.00289375,0.0119241,678,1324,-34.4775,-16.3124
-539,-300,-34.3541,17.2452,0.00441855,-0.000957113,0.0024666,0.00537881,-0.00191737,0.371252,0.00436761,0.0313327,685,1324,-34.3541,-17.2452
-532,-300,-34.1537,18.1831,0,0,0,0,0,0,0,-1,692,1324,-34.1537,-18.1831
-525,-300,-13.5115,6.27783,0,0,0,0,0,0,0,-1,699,1324,-13.5115,-6.2778
-518,-300,-9.8349,-0.537109,0,0,0,0,0,0,0,-1,706,1324,-9.83487,0.537068
-511,-300,-12.8644,0.081665,0,0,0,0,0,0,0,-1,713,1324,-12.8644,-0.0817016
-504,-300,-13.4829,-0.165527,0,0,0,0,0,0,0,-1,720,1324,-13.4829,0.165544
-497,-300,-18.1063,0.956543,0,0,0,0,0,0,0,-1,727,1324,-18.1063,-0.9565
-490,-300,-18.2293,1.53625,0,0,0,0,0,0,0,-1,734,1324,-18.2293,-1.53626
-483,-300,-18.3522,1.61084,0,0,0,0,0,0,0,-1,741,1324,-18.3522,-1.6108
-476,-300,-18.7489,1.96387,0,0,0,0,0,0,0,-1,748,1324,-18.7489,-1.96387
-469,-300,0,0,0,0,0,0,0,0,0,-1,755,1324,0,0
-462,-300,0,0,0,0,0,0,0,0,0,-1,762,1324,0,0
-455,-300,0,0,0,0,0,0,0,0,0,-1,769,1324,0,0
-448,-300,0,0,0,0,0,0,0,0,0,-1,776,1324,0,0
-441,-300,0,0,0,0,0,0,0,0,0,-1,783,1324,0,0
-434,-300,0,0,0,0,0,0,0,0,0,-1,790,1324,0,0
-427,-300,0,0,0,0,0,0,0,0,0,-1,797,1324,0,0
-420,-300,0,0,0,0,0,0,0,0,0,-1,804,1324,0,0
-413,-300,0,0,0,0,0,0,0,0,0,-1,811,1324,0,0
-406,-300,0,0,0,0,0,0,0,0,0,-1,818,1324,0,0
-399,-300,0,0,0,0,0,0,0,0,0,-1,825,1324,0,0
-392,-300,0,0,0,0,0,0,0,0,0,-1,832,1324,0,0
-385,-300,0,0,0,0,0,0,0,0,0,-1,839,1324,0,0
-378,-300,0,0,0,0,0,0,0,0,0,-1,846,1324,0,0
-371,-300,0,0,0,0,0,0,0,0,0,-1,853,1324,0,0
-364,-300,0,0,0,0,0,0,0,0,0,-1,860,1324,0,0
-357,-300,0,0,0,0,0,0,0,0,0,-1,867,1324,0,0
-350,-300,0,0,0,0,0,0,0,0,0,-1,874,1324,0,0
-343,-300,0,0,0,0,0,0,0,0,0,-1,881,1324,0,0
-336,-300,0,0,0,0,0,0,0,0,0,-1,888,1324,0,0
-329,-300,0,0,0,0,0,0,0,0,0,-1,895,1324,0,0
-322,-300,0,0,0,0,0,0,0,0,0,-1,902,1324,0,0
-315,-300,0,0,0,0,0,0,0,0,0,-1,909,1324,0,0
-308,-300,0,0,0,0,0,0,0,0,0,-1,916,1324,0,0
-301,-300,0,0,0,0,0,0,0,0,0,-1,923,1324,0,0
-294,-300,0,0,0,0,0,0,0,0,0,-1,930,1324,0,0
-287,-300,0,0,0,0,0,0,0,0,0,-1,937,1324,0,0
-280,-300,0,0,0,0,0,0,0,0,0,-1,944,1324,0,0
-273,-300,0,0,0,0,0,0,0,0,0,-1,951,1324,0,0
-266,-300,0,0,0,0,0,0,0,0,0,-1,958,1324,0,0
-259,-300,0,0,0,0,0,0,0,0,0,-1,965,1324,0,0
-252,-300,0,0,0,0,0,0,0,0,0,-1,972,1324,0,0
-245,-300,0,0,0,0,0,0,0,0,0,-1,979,1324,0,0
-238,-300,0,0,0,0,0,0,0,0,0,-1,986,1324,0,0
-231,-300,0,0,0,0,0,0,0,0,0,-1,993,1324,0,0
-224,-300,0,0,0,0,0,0,0,0,0,-1,1000,1324,0,0
-217,-300,0,0,0,0,0,0,0,0,0,-1,1007,1324,0,0
-210,-300,0,0,0,0,0,0,0,0,0,-1,1014,1324,0,0
-203,-300,0,0,0,0,0,0,0,0,0,-1,1021,1324,0,0
-196,-300,0,0,0,0,0,0,0,0,0,-1,1028,1324,0,0
-189,-300,0,0,0,0,0,0,0,0,0,-1,1035,1324,0,0
-182,-300,0,0,0,0,0,0,0,0,0,-1,1042,1324,0,0
-175,-300,0,0,0,0,0,0,0,0,0,-1,1049,1324,0,0
-168,-300,0,0,0,0,0,0,0,0,0,-1,1056,1324,0,0
-161,-300,0,0,0,0,0,0,0,0,0,-1,1063,1324,0,0
-154,-300,0,0,0,0,0,0,0,0,0,-1,1070,1324,0,0
-147,-300,0,0,0,0,0,0,0,0,0,-1,1077,1324,0,0
-140,-300,0,0,0,0,0,0,0,0,0,-1,1084,1324,0,0
-133,-300,0,0,0,0,0,0,0,0,0,-1,1091,1324,0,0
-126,-300,0,0,0,0,0,0,0,0,0,-1,1098,1324,0,0
-119,-300,0,0,0,0,0,0,0,0,0,-1,1105,1324,0,0
-112,-300,0,0,0,0,0,0,0,0,0,-1,1112,1324,0,0
-105,-300,0,0,0,0,0,0,0,0,0,-1,1119,1324,0,0
-98,-300,0,0,0,0,0,0,0,0,0,-1,1126,1324,0,0
-91,-300,0,0,0,0,0,0,0,0,0,-1,1133,1324,0,0
-84,-300,0,0,0,0,0,0,0,0,0,-1,1140,1324,0,0
-77,-300,0,0,0,0,0,0,0,0,0,-1,1147,1324,0,0
-70,-300,0,0,0,0,0,0,0,0,0,-1,1154,1324,0,0
-63,-300,0,0,0,0,0,0,0,0,0,-1,1161,1324,0,0
-56,-300,0,0,0,0,0,0,0,0,0,-1,1168,1324,0,0
-49,-300,0,0,0,0,0,0,0,0,0,-1,1175,1324,0,0
-42,-300,0,0,0,0,0,0,0,0,0,-1,1182,1324,0,0
-35,-300,0,0,0,0,0,0,0,0,0,-1,1189,1324,0,0
-28,-300,0,0,0,0,0,0,0,0,0,-1,1196,1324,0,0
-21,-300,0,0,0,0,0,0,0,0,0,-1,1203,1324,0,0
-14,-300,0,0,0,0,0,0,0,0,0,-1,1210,1324,0,0
-7,-300,0,0,0,0,0,0,0,0,0,-1,1217,1324,0,0
0,-300,0,0,0,0,0,0,0,0,0,-1,1224,1324,0,0
7,-300,0,0,0,0,0,0,0,0,0,-1,1231,1324,0,0
14,-300,0,0,0,0,0,0,0,0,0,-1,1238,1324,0,0
21,-300,0,0,0,0,0,0,0,0,0,-1,1245,1324,0,0
28,-300,0,0,0,0,0,0,0,0,0,-1,1252,1324,0,0
35,-300,0,0,0,0,0,0,0,0,0,-1,1259,1324,0,0
42,-300,0,0,0,0,0,0,0,0,0,-1,1266,1324,0,0
49,-300,0,0,0,0,0,0,0,0,0,-1,1273,1324,0,0
56,-300,0,0,0,0,0,0,0,0,0,-1,1280,1324,0,0
63,-300,0,0,0,0,0,0,0,0,0,-1,1287,1324,0,0
70,-300,0,0,0,0,0,0,0,0,0,-1,1294,1324,0,0
77,-300,0,0,0,0,0,0,0,0,0,-1,1301,1324,0,0
84,-300,0,0,0,0,0,0,0,0,0,-1,1308,1324,0,0
91,-300,0,0,0,0,0,0,0,0,0,-1,1315,1324,0,0
98,-300,0,0,0,0,0,0,0,0,0,-1,1322,1324,0,0
105,-300,0,0,0,0,0,0,0,0,0,-1,1329,1324,0,0
112,-300,0,0,0,0,0,0,0,0,0,-1,1336,1324,0,0
119,-300,0,0,0,0,0,0,0,0,0,-1,1343,1324,0,0
126,-300,0,0,0,0,0,0,0,0,0,-1,1350,1324,0,0
133,-300,0,0,0,0,0,0,0,0,0,-1,1357,1324,0,0
140,-300,0,0,0,0,0,0,0,0,0,-1,1364,1324,0,0
147,-300,0,0,0,0,0,0,0,0,0,-1,1371,1324,0,0
154,-300,0,0,0,0,0,0,0,0,0,-1,1378,1324,0,0
161,-300,0,0,0,0,0,0,0,0,0,-1,1385,1324,0,0
168,-300,0,0,0,0,0,0,0,0,0,-1,1392,1324,0,0
175,-300,0,0,0,0,0,0,0,0,0,-1,1399,1324,0,0
182,-300,0,0,0,0,0,0,0,0,0,-1,1406,1324,0,0
189,-300,0,0,0,0,0,0,0,0,0,-1,1413,1324,0,0
196,-300,0,0,0,0,0,0,0,0,0,-1,1420,1324,0,0
203,-300,0,0,0,0,0,0,0,0,0,-1,1427,1324,0,0
210,-300,0,0,0,0,0,0,0,0,0,-1,1434,1324,0,0
217,-300,0,0,0,0,0,0,0,0,0,-1,1441,1324,0,0
224,-300,0,0,0,0,0,0,0,0,0,-1,1448,1324,0,0
231,-300,0,0,0,0,0,0,0,0,0,-1,1455,1324,0,0
238,-300,0,0,0,0,0,0,0,0,0,-1,1462,1324,0,0
245,-300,0,0,0,0,0,0,0,0,0,-1,1469,1324,0,0
252,-300,0,0,0,0,0,0,0,0,0,-1,1476,1324,0,0
259,-300,0,0,0,0,0,0,0,0,0,-1,1483,1324,0,0
266,-300,0,0,0,0,0,0,0,0,0,-1,1490,1324,0,0
273,-300,0,0,0,0,0,0,0,0,0,-1,1497,1324,0,0
280,-300,0,0,0,0,0,0,0,0,0,-1,1504,1324,0,0
287,-300,0,0,0,0,0,0,0,0,0,-1,1511,1324,0,0
294,-300,0,0,0,0,0,0,0,0,0,-1,1518,1324,0,0
301,-300,0,0,0,0,0,0,0,0,0,-1,1525,1324,0,0
308,-300,0,0,0,0,0,0,0,0,0,-1,1532,1324,0,0
315,-300,0,0,0,0,0,0,0,0,0,-1,1539,1324,0,0
322,-300,0,0,0,0,0,0,0,0,0,-1,1546,1324,0,0
329,-300,0,0,0,0,0,0,0,0,0,-1,1553,1324,0,0
336,-300,0,0,0,0,0,0,0,0,0,-1,1560,1324,0,0
343,-300,0,0,0,0,0,0,0,0,0,-1,1567,1324,0,0
350,-300,0,0,0,0,0,0,0,0,0,-1,1574,1324,0,0
357,-300,0,0,0,0,0,0,0,0,0,-1,1581,1324,0,0
364,-300,0,0,0,0,0,0,0,0,0,-1,1588,1324,0,0
371,-300,0,0,0,0,0,0,0,0,0,-1,1595,1324,0,0
378,-300,0,0,0,0,0,0,0,0,0,-1,1602,1324,0,0
385,-300,0,0,0,0,0,0,0,0,0,-1,1609,1324,0,0
392,-300,0,0,0,0,0,0,0,0,0,-1,1616,1324,0,0
399,-300,0,0,0,0,0,0,0,0,0,-1,1623,1324,0,0
406,-300,0,0,0,0,0,0,0,0,0,-1,1630,1324,0,0
413,-300,0,0,0,0,0,0,0,0,0,-1,1637,1324,0,0
420,-300,0,0,0,0,0,0,0,0,0,-1,1644,1324,0,0
427,-300,0,0,0,0,0,0,0,0,0,-1,1651,1324,0,0
434,-300,0,0,0,0,0,0,0,0,0,-1,1658,1324,0,0
441,-300,0,0,0,0,0,0,0,0,0,-1,1665,1324,0,0
448,-300,0,0,0,0,0,0,0,0,0,-1,1672,1324,0,0
455,-300,0,0,0,0,0,0,0,0,0,-1,1679,1324,0,0
462,-300,0,0,0,0,0,0,0,0,0,-1,1686,1324,0,0
469,-300,0,0,0,0,0,0,0,0,0,-1,1693,1324,0,0
476,-300,0,0,0,0,0,0,0,0,0,-1,1700,1324,0,0
483,-300,0,0,0,0,0,0,0,0,0,-1,1707,1324,0,0
490,-300,0,0,0,0,0,0,0,0,0,-1,1714,1324,0,0
497,-300,0,0,0,0,0,0,0,0,0,-1,1721,1324,0,0
504,-300,0,0,0,0,0,0,0,0,0,-1,1728,1324,0,0
511,-300,0,0,0,0,0,0,0,0,0,-1,1735,1324,0,0
518,-300,0,0,0,0,0,0,0,0,0,-1,1742,1324,0,0
525,-300,0,0,0,0,0,0,0,0,0,-1,1749,1324,0,0
532,-300,0,0,0,0,0,0,0,0,0,-1,1756,1324,0,0
539,-300,0,0,0,0,0,0,0,0,0,-1,1763,1324,0,0
546,-300,0,0,0,0,0,0,0,0,0,-1,1770,1324,0,0
553,-300,0,0,0,0,0,0,0,0,0,-1,1777,1324,0,0
560,-300,0,0,0,0,0,0,0,0,0,-1,1784,1324,0,0
567,-300,0,0,0,0,0,0,0,0,0,-1,1791,1324,0,0
574,-300,0,0,0,0,0,0,0,0,0,-1,1798,1324,0,0
581,-300,0,0,0,0,0,0,0,0,0,-1,1805,1324,0,0
588,-300,66.4561,1.99207,0,0,0,0,0,0,0,-1,1812,1324,66.456,-1.99202
595,-300,66.4685,1.95496,0,0,0,0,0,0,0,-1,1819,1324,66.4685,-1.95499
602,-300,66.5259,1.72363,0,0,0,0,0,0,0,-1,1826,1324,66.5259,-1.72367
609,-300,64.2576,2.90149,0,0,0,0,0,0,0,-1,1833,1324,64.2575,-2.90154
616,-300,65.1267,2.84033,0,0,0,0,0,0,0,-1,1840,1324,65.1267,-2.84037
623,-300,47.4474,2.43188,0,0,0,0,0,0,0,-1,1847,1324,47.4474,-2.43194
630,-300,42.4099,3.9165,0,0,0,0,0,0,0,-1,1854,1324,42.4099,-3.91649
637,-300,31.1719,4.6366,0,0,0,0,0,0,0,-1,1861,1324,31.1718,-4.63665
644,-300,22.9836,3.44934,0,0,0,0,0,0,0,-1,1868,1324,22.9836,-3.4493
651,-300,25.5004,9.11853,0,0,0,0,0,0,0,-1,1875,1324,25.5004,-9.11851
658,-300,25.4012,9.20032,0,0,0,0,0,0,0,-1,1882,1324,25.4012,-9.20036
665,-300,51.1821,18.2356,0,0,0,0,0,0,0,-1,1889,1324,51.1822,-18.2356
672,-300,50.9874,17.5017,0.00167237,0.00160991,-0.00240937,0.00405071,-0.000768431,-0.778918,0.00298972,0.0370968,1896,1324,50.9874,-17.5017
679,-300,50.9962,16.63,0.00150394,0.00109877,-0.00138523,0.00270132,-9.86148e-05,-0.712789,0.00183464,0.0139395,1903,1324,50.9962,-16.63
686,-300,50.9634,15.843,0.00177116,-6.54709e-05,-0.000584842,0.00194158,-0.00023589,-0.283542,0.00137976,0.0147094,1910,1324,50.9633,-15.843
693,-300,50.8926,15.0524,0.00173665,-0.000120369,-0.000300302,0.00178401,-0.000167723,-0.156403,0.001249,0.0131999,1917,1324,50.8926,-15.0524
700,-300,50.8494,14.2275,0.00133602,-7.20002e-06,9.3037e-05,0.00134244,-1.36135e-05,0.0688259,0.00089953,0.0145636,1924,1324,50.8494,-14.2275
707,-300,50.8368,13.4089,0.00094093,0.000133838,0.000524045,0.0011988,-0.000124033,0.45729,0.00084359,0.0102517,1931,1324,50.8367,-13.4089
714,-300,50.7848,12.6171,0.000501189,0.000297416,0.00100703,0.00141148,-0.000612872,0.734982,0.00119869,0.0116098,1938,1324,50.7847,-12.6171
721,-300,50.7469,11.8247,-8.46875e-07,0.000502336,0.00155714,0.00182808,-0.00132659,0.865492,0.001829,0.012976,1945,1324,50.747,-11.8247
728,-300,50.7415,11.002,-0.0006356,0.000798477,0.00218104,0.00237732,-0.00221445,0.944212,0.00265162,0.0182691,1952,1324,50.7414,-11.002
735,-300,50.7875,10.1626,0,0,0,0,0,0,0,-1,1959,1324,50.7875,-10.1625
742,-300,49.6945,9.19507,0,0,0,0,0,0,0,-1,1966,1324,49.6944,-9.19511
749,-300,27.4065,5.9718,0,0,0,0,0,0,0,-1,1973,1324,27.4065,-5.97181
756,-300,22.1423,3.45642,0,0,0,0,0,0,0,-1,1980,1324,22.1423,-3.45638
763,-300,22.6136,5.1571,0,0,0,0,0,0,0,-1,1987,1324,22.6136,-5.15706
770,-300,24.859,4.77979,0,0,0,0,0,0,0,-1,1994,1324,24.859,-4.77972
777,-300,0,0,0,0,0,0,0,0,0,-1,2001,1324,0,0
784,-300,0,0,0,0,0,0,0,0,0,-1,2008,1324,0,0
791,-300,0,0,0,0,0,0,0,0,0,-1,2015,1324,0,0
798,-300,0,0,0,0,0,0,0,0,0,-1,2022,1324,0,0
805,-300,0,0,0,0,0,0,0,0,0,-1,2029,1324,0,0
812,-300,0,0,0,0,0,0,0,0,0,-1,2036,1324,0,0
-700,-307,0,0,0,0,0,0,0,0,0,-1,524,1331,0,0
-693,-307,0,0,0,0,0,0,0,0,0,-1,531,1331,0,0
-686,-307,0,0,0,0,0,0,0,0,0,-1,538,1331,0,0
-679,-307,0,0,0,0,0,0,0,0,0,-1,545,1331,0,0
-672,-307,0,0,0,0,0,0,0,0,0,-1,552,1331,0,0
-665,-307,0,0,0,0,0,0,0,0,0,-1,559,1331,0,0
-658,-307,0,0,0,0,0,0,0,0,0,-1,566,1331,0,0
-651,-307,-40.7436,1.98755,0,0,0,0,0,0,0,-1,573,1331,-40.7436,-1.98753
-644,-307,-41.7838,1.24817,0,0,0,0,0,0,0,-1,580,1331,-41.7838,-1.2482
-637,-307,-41.9006,0.477783,0,0,0,0,0,0,0,-1,587,1331,-41.9006,-0.477844
-630,-307,-12.0005,0.767212,0,0,0,0,0,0,0,-1,594,1331,-12.0005,-0.767266
-623,-307,-12.2128,2.93811,0,0,0,0,0,0,0,-1,601,1331,-12.2128,-2.93813
-616,-307,-12.6612,2.08289,0,0,0,0,0,0,0,-1,608,1331,-12.6612,-2.08293
-609,-307,-12.2767,1.83228,0,0,0,0,0,0,0,-1,615,1331,-12.2768,-1.83224
-602,-307,-27.5659,6.93335,0,0,0,0,0,0,0,-1,622,1331,-27.5658,-6.9333
-595,-307,-33.5712,10.4274,0,0,0,0,0,0,0,-1,629,1331,-33.5712,-10.4273
-588,-307,-33.3971,11.3889,0.00274215,0.00323273,0.00296546,0.00596303,1.18522e-05,0.826661,0.00397141,0.0231606,636,1331,-33.3971,-11.3889
-581,-307,-33.4292,12.2097,0.00230183,0.00235325,0.002028,0.0043557,0.000299383,0.791736,0.00280933,0.0166219,643,1331,-33.4292,-12.2097
-574,-307,-33.4781,12.9972,0.00203991,0.00158446,0.00140052,0.00323109,0.000393271,0.704803,0.00203567,0.0134859,650,1331,-33.4781,-12.9972
-567,-307,-33.5175,13.8353,0.00198269,0.00094832,0.00105653,0.00264183,0.000289177,0.557788,0.00167318,0.0125342,657,1331,-33.5175,-13.8354
-560,-307,-33.5563,14.696,0.00217502,0.000430034,0.00095031,0.00259262,1.24368e-05,0.414031,0.00172428,0.0141323,664,1331,-33.5564,-14.6961
-553,-307,-33.5922,15.5332,0.00262371,5.02387e-05,0.00113454,0.00305245,-0.000378508,0.361313,0.00217216,0.0116425,671,1331,-33.5922,-15.5333
-546,-307,-33.6586,16.3514,0.00338611,-0.000213662,0.00159839,0.00399338,-0.000820938,0.363087,0.00297391,0.010521,678,1331,-33.6586,-16.3515
-539,-307,-33.6641,17.2449,0.00462637,-0.000338869,0.0023838,0.00558554,-0.00129804,0.382547,0.00422339,0.023404,685,1331,-33.6641,-17.2449
-532,-307,-33.6177,18.1781,0,0,0,0,0,0,0,-1,692,1331,-33.6177,-18.1781
-525,-307,-13.2009,6.91309,0,0,0,0,0,0,0,-1,699,1331,-13.2009,-6.9131
-518,-307,-9.77777,-1.56653,0,0,0,0,0,0,0,-1,706,1331,-9.77777,1.56651
-511,-307,-12.5226,0.26709,0,0,0,0,0,0,0,-1,713,1331,-12.5226,-0.267038
-504,-307,-12.5913,-0.308105,0,0,0,0,0,0,0,-1,720,1331,-12.5913,0.308124
-497,-307,-13.8586,-0.115845,0,0,0,0,0,0,0,-1,727,1331,-13.8587,0.115861
-490,-307,-17.9429,0.982178,0,0,0,0,0,0,0,-1,734,1331,-17.9429,-0.982198
-483,-307,-18.1066,0.927612,0,0,0,0,0,0,0,-1,741,1331,-18.1066,-0.927609
-476,-307,-18.1288,1.1228,0,0,0,0,0,0,0,-1,748,1331,-18.1289,-1.12286
-469,-307,-18.2028,0.798584,0,0,0,0,0,0,0,-1,755,1331,-18.2027,-0.798546
-462,-307,0,0,0,0,0,0,0,0,0,-1,762,1331,0,0
-455,-307,0,0,0,0,0,0,0,0,0,-1,769,1331,0,0
-448,-307,0,0,0,0,0,0,0,0,0,-1,776,1331,0,0
-441,-307,0,0,0,0,0,0,0,0,0,-1,783,1331,0,0
-434,-307,0,0,0,0,0,0,0,0,0,-1,790,1331,0,0
-427,-307,0,0,0,0,0,0,0,0,0,-1,797,1331,0,0
-420,-307,0,0,0,0,0,0,0,0,0,-1,804,1331,0,0
-413,-307,0,0,0,0,0,0,0,0,0,-1,811,1331,0,0
-406,-307,0,0,0,0,0,0,0,0,0,-1,818,1331,0,0
-399,-307,0,0,0,0,0,0,0,0,0,-1,825,1331,0,0
-392,-307,0,0,0,0,0,0,0,0,0,-1,832,1331,0,0
-385,-307,0,0,0,0,0,0,0,0,0,-1,839,1331,0,0
-378,-307,0,0,0,0,0,0,0,0,0,-1,846,1331,0,0
-371,-307,0,0,0,0,0,0,0,0,0,-1,853,1331,0,0
-364,-307,0,0,0,0,0,0,0,0,0,-1,860,1331,0,0
-357,-307,0,0,0,0,0,0,0,0,0,-1,867,1331,0,0
-350,-307,0,0,0,0,0,0,0,0,0,-1,874,1331,0,0
-343,-307,0,0,0,0,0,0,0,0,0,-1,881,1331,0,0
-336,-307,0,0,0,0,0,0,0,0,0,-1,888,1331,0,0
-329,-307,0,0,0,0,0,0,0,0,0,-1,895,1331,0,0
-322,-307,0,0,0,0,0,0,0,0,0,-1,902,1331,0,0
-315,-307,0,0,0,0,0,0,0,0,0,-1,909,1331,0,0
-308,-307,0,0,0,0,0,0,0,0,0,-1,916,1331,0,0
-301,-307,0,0,0,0,0,0,0,0,0,-1,923,1331,0,0
-294,-307,0,0,0,0,0,0,0,0,0,-1,930,1331,0,0
-287,-307,0,0,0,0,0,0,0,0,0,-1,937,1331,0,0
-280,-307,0,0,0,0,0,0,0,0,0,-1,944,1331,0,0
-273,-307,0,0,0,0,0,0,0,0,0,-1,951,1331,0,0
-266,-307,0,0,0,0,0,0,0,0,0,-1,958,1331,0,0
-259,-307,0,0,0,0,0,0,0,0,0,-1,965,1331,0,0
-252,-307,0,0,0,0,0,0,0,0,0,-1,972,1331,0,0
-245,-307,0,0,0,0,0,0,0,0,0,-1,979,1331,0,0
-238,-307,0,0,0,0,0,0,0,0,0,-1,986,1331,0,0
-231,-307,0,0,0,0,0,0,0,0,0,-1,993,1331,0,0
-224,-307,0,0,0,0,0,0,0,0,0,-1,1000,1331,0,0
-217,-307,0,0,0,0,0,0,0,0,0,-1,1007,1331,0,0
-210,-307,0,0,0,0,0,0,0,0,0,-1,1014,1331,0,0
-203,-307,0,0,0,0,0,0,0,0,0,-1,1021,1331,0,0
-196,-307,0,0,0,0,0,0,0,0,0,-1,1028,1331,0,0
-189,-307,0,0,0,0,0,0,0,0,0,-1,1035,1331,0,0
-182,-307,0,0,0,0,0,0,0,0,0,-1,1042,1331,0,0
-175,-307,0,0,0,0,0,0,0,0,0,-1,1049,1331,0,0
-168,-307,0,0,0,0,0,0,0,0,0,-1,1056,1331,0,0
-161,-307,0,0,0,0,0,0,0,0,0,-1,1063,1331,0,0
-154,-307,0,0,0,0,0,0,0,0,0,-1,1070,1331,0,0
-147,-307,0,0,0,0,0,0,0,0,0,-1,1077,1331,0,0
-140,-307,0,0,0,0,0,0,0,0,0,-1,1084,1331,0,0
-133,-307,0,0,0,0,0,0,0,0,0,-1,1091,1331,0,0
-126,-307,0,0,0,0,0,0,0,0,0,-1,1098,1331,0,0
-119,-307,0,0,0,0,0,0,0,0,0,-1,1105,1331,0,0
-112,-307,0,0,0,0,0,0,0,0,0,-1,1112,1331,0,0
-105,-307,0,0,0,0,0,0,0,0,0,-1,1119,1331,0,0
-98,-307,0,0,0,0,0,0,0,0,0,-1,1126,1331,0,0
-91,-307,0,0,0,0,0,0,0,0,0,-1,1133,1331,0,0
-84,-307,0,0,0,0,0,0,0,0,0,-1,1140,1331,0,0
-77,-307,0,0,0,0,0,0,0,0,0,-1,1147,1331,0,0
-70,-307,0,0,0,0,0,0,0,0,0,-1,1154,1331,0,0
-63,-307,0,0,0,0,0,0,0,0,0,-1,1161,1331,0,0
-56,-307,0,0,0,0,0,0,0,0,0,-1,1168,1331,0,0
-49,-307,0,0,0,0,0,0,0,0,0,-1,1175,1331,0,0
-42,-307,0,0,0,0,0,0,0,0,0,-1,1182,1331,0,0
-35,-307,0,0,0,0,0,0,0,0,0,-1,1189,1331,0,0
-28,-307,0,0,0,0,0,0,0,0,0,-1,1196,1331,0,0
-21,-307,0,0,0,0,0,0,0,0,0,-1,1203,1331,0,0
-14,-307,0,0,0,0,0,0,0,0,0,-1,1210,1331,0,0
-7,-307,0,0,0,0,0,0,0,0,0,-1,1217,1331,0,0
0,-307,0,0,0,0,0,0,0,0,0,-1,1224,1331,0,0
7,-307,0,0,0,0,0,0,0,0,0,-1,1231,1331,0,0
14,-307,0,0,0,0,0,0,0,0,0,-1,1238,1331,0,0
21,-307,0,0,0,0,0,0,0,0,0,-1,1245,1331,0,0
28,-307,0,0,0,0,0,0,0,0,0,-1,1252,1331,0,0
35,-307,0,0,0,0,0,0,0,0,0,-1,1259,1331,0,0
42,-307,0,0,0,0,0,0,0,0,0,-1,1266,1331,0,0
49,-307,0,0,0,0,0,0,0,0,0,-1,1273,1331,0,0
56,-307,0,0,0,0,0,0,0,0,0,-1,1280,1331,0,0
63,-307,0,0,0,0,0,0,0,0,0,-1,1287,1331,0,0
70,-307,0,0,0,0,0,0,0,0,0,-1,1294,1331,0,0
77,-307,0,0,0,0,0,0,0,0,0,-1,1301,1331,0,0
84,-307,0,0,0,0,0,0,0,0,0,-1,1308,1331,0,0
91,-307,0,0,0,0,0,0,0,0,0,-1,1315,1331,0,0
98,-307,0,0,0,0,0,0,0,0,0,-1,1322,1331,0,0
105,-307,0,0,0,0,0,0,0,0,0,-1,1329,1331,0,0
112,-307,0,0,0,0,0,0,0,0,0,-1,1336,1331,0,0
119,-307,0,0,0,0,0,0,0,0,0,-1,1343,1331,0,0
126,-307,0,0,0,0,0,0,0,0,0,-1,1350,1331,0,0
133,-307,0,0,0,0,0,0,0,0,0,-1,1357,1331,0,0
140,-307,0,0,0,0,0,0,0,0,0,-1,1364,1331,0,0
147,-307,0,0,0,0,0,0,0,0,0,-1,1371,1331,0,0
154,-307,0,0,0,0,0,0,0,0,0,-1,1378,1331,0,0
161,-307,0,0,0,0,0,0,0,0,0,-1,1385,1331,0,0
168,-307,0,0,0,0,0,0,0,0,0,-1,1392,1331,0,0
175,-307,0,0,0,0,0,0,0,0,0,-1,1399,1331,0,0
182,-307,0,0,0,0,0,0,0,0,0,-1,1406,1331,0,0
189,-307,0,0,0,0,0,0,0,0,0,-1,1413,1331,0,0
196,-307,0,0,0,0,0,0,0,0,0,-1,1420,1331,0,0
203,-307,0,0,0,0,0,0,0,0,0,-1,1427,1331,0,0
210,-307,0,0,0,0,0,0,0,0,0,-1,1434,1331,0,0
217,-307,0,0,0,0,0,0,0,0,0,-1,1441,1331,0,0
224,-307,0,0,0,0,0,0,0,0,0,-1,1448,1331,0,0
231,-307,0,0,0,0,0,0,0,0,0,-1,1455,1331,0,0
238,-307,0,0,0,0,0,0,0,0,0,-1,1462,1331,0,0
245,-307,0,0,0,0,0,0,0,0,0,-1,1469,1331,0,0
252,-307,0,0,0,0,0,0,0,0,0,-1,1476,1331,0,0
259,-307,0,0,0,0,0,0,0,0,0,-1,1483,1331,0,0
266,-307,0,0,0,0,0,0,0,0,0,-1,1490,1331,0,0
273,-307,0,0,0,0,0,0,0,0,0,-1,1497,1331,0,0
280,-307,0,0,0,0,0,0,0,0,0,-1,1504,1331,0,0
287,-307,0,0,0,0,0,0,0,0,0,-1,1511,1331,0,0
294,-307,0,0,0,0,0,0,0,0,0,-1,1518,1331,0,0
301,-307,0,0,0,0,0,0,0,0,0,-1,1525,1331,0,0
308,-307,0,0,0,0,0,0,0,0,0,-1,1532,1331,0,0
315,-307,0,0,0,0,0,0,0,0,0,-1,1539,1331,0,0
322,-307,0,0,0,0,0,0,0,0,0,-1,1546,1331,0,0
329,-307,0,0,0,0,0,0,0,0,0,-1,1553,1331,0,0
336,-307,0,0,0,0,0,0,0,0,0,-1,1560,1331,0,0
343,-307,0,0,0,0,0,0,0,0,0,-1,1567,1331,0,0
350,-307,0,0,0,0,0,0,0,0,0,-1,1574,1331,0,0
357,-307,0,0,0,0,0,0,0,0,0,-1,1581,1331,0,0
364,-307,0,0,0,0,0,0,0,0,0,-1,1588,1331,0,0
371,-307,0,0,0,0,0,0,0,0,0,-1,1595,1331,0,0
378,-307,0,0,0,0,0,0,0,0,0,-1,1602,1331,0,0
385,-307,0,0,0,0,0,0,0,0,0,-1,1609,1331,0,0
392,-307,0,0,0,0,0,0,0,0,0,-1,1616,1331,0,0
399,-307,0,0,0,0,0,0,0,0,0,-1,1623,1331,0,0
406,-307,0,0,0,0,0,0,0,0,0,-1,1630,1331,0,0
413,-307,0,0,0,0,0,0,0,0,0,-1,1637,1331,0,0
420,-307,0,0,0,0,0,0,0,0,0,-1,1644,1331,0,0
427,-307,0,0,0,0,0,0,0,0,0,-1,1651,1331,0,0
434,-307,0,0,0,0,0,0,0,0,0,-1,1658,1331,0,0
441,-307,0,0,0,0,0,0,0,0,0,-1,1665,1331,0,0
448,-307,0,0,0,0,0,0,0,0,0,-1,1672,1331,0,0
455,-307,0,0,0,0,0,0,0,0,0,-1,1679,1331,0,0
462,-307,0,0,0,0,0,0,0,0,0,-1,1686,1331,0,0
469,-307,0,0,0,0,0,0,0,0,0,-1,1693,1331,0,0
476,-307,0,0,0,0,0,0,0,0,0,-1,1700,1331,0,0
483,-307,0,0,0,0,0,0,0,0,0,-1,1707,1331,0,0
490,-307,0,0,0,0,0,0,0,0,0,-1,1714,1331,0,0
497,-307,0,0,0,0,0,0,0,0,0,-1,1721,1331,0,0
504,-307,0,0,0,0,0,0,0,0,0,-1,1728,1331,0,0
511,-307,0,0,0,0,0,0,0,0,0,-1,1735,1331,0,0
518,-307,0,0,0,0,0,0,0,0,0,-1,1742,1331,0,0
525,-307,0,0,0,0,0,0,0,0,0,-1,1749,1331,0,0
532,-307,0,0,0,0,0,0,0,0,0,-1,1756,1331,0,0
539,-307,0,0,0,0,0,0,0,0,0,-1,1763,1331,0,0
546,-307,0,0,0,0,0,0,0,0,0,-1,1770,1331,0,0
553,-307,0,0,0,0,0,0,0,0,0,-1,1777,1331,0,0
560,-307,0,0,0,0,0,0,0,0,0,-1,1784,1331,0,0
567,-307,0,0,0,0,0,0,0,0,0,-1,1791,1331,0,0
574,-307,0,0,0,0,0,0,0,0,0,-1,1798,1331,0,0
581,-307,0,0,0,0,0,0,0,0,0,-1,1805,1331,0,0
588,-307,66.5917,1.60864,0,0,0,0,0,0,0,-1,1812,1331,66.5917,-1.60867
595,-307,66.708,1.85352,0,0,0,0,0,0,0,-1,1819,1331,66.708,-1.85351
602,-307,66.111,1.49976,0,0,0,0,0,0,0,-1,1826,1331,66.1109,-1.49974
609,-307,63.8848,2.78992,0,0,0,0,0,0,0,-1,1833,1331,63.8848,-2.78989
616,-307,53.2878,0.135498,0,0,0,0,0,0,0,-1,1840,1331,53.2878,-0.135477
623,-307,44.3966,2.84888,0,0,0,0,0,0,0,-1,1847,1331,44.3966,-2.84884
630,-307,29.8116,1.51184,0,0,0,0,0,0,0,-1,1854,1331,29.8116,-1.51188
637,-307,24.6407,4.09106,0,0,0,0,0,0,0,-1,1861,1331,24.6407,-4.09103
644,-307,22.6885,5.80408,0,0,0,0,0,0,0,-1,1868,1331,22.6884,-5.80408
651,-307,17.5013,5.80078,0,0,0,0,0,0,0,-1,1875,1331,17.5014,-5.80072
658,-307,37.4427,13.9775,0,0,0,0,0,0,0,-1,1882,1331,37.4427,-13.9776
665,-307,50.3606,18.2939,0,0,0,0,0,0,0,-1,1889,1331,50.3606,-18.2939
672,-307,50.2175,17.5024,0.00216509,0.00104359,-0.00211958,0.00379684,-0.000588156,-0.656082,0.00274834,0.021991,1896,1331,50.2175,-17.5025
679,-307,50.1648,16.6968,0.00187716,0.000590902,-0.00116073,0.00256102,-9.29596e-05,-0.532415,0.00173916,0.0109316,1903,1331,50.1648,-16.6968
686,-307,50.1312,15.884,0.00191004,-0.000185452,-0.000524,0.00203377,-0.000309178,-0.231872,0.00146978,0.0111031,1910,1331,50.1312,-15.8841
693,-307,50.0808,15.0897,0.00170759,-0.000131951,-0.000250555,0.00174111,-0.000165468,-0.132979,0.00121964,0.0137199,1917,1331,50.0808,-15.0897
700,-307,50.0621,14.2524,0.001424,8.3693e-06,5.94238e-05,0.00142649,5.87926e-06,0.0418788,0.000949039,0.0151785,1924,1331,50.0621,-14.2524
707,-307,50.0431,13.4255,0.00115785,0.000178648,0.000407132,0.00130502,3.14879e-05,0.346844,0.000859706,0.0155382,1931,1331,50.043,-13.4256
714,-307,49.9952,12.6825,0.000861021,0.000378166,0.000804226,0.00145928,-0.000220088,0.639579,0.0010539,0.0134707,1938,1331,49.9953,-12.6825
721,-307,49.9983,11.9006,0.00054915,0.00061604,0.00127238,0.00185541,-0.000690224,0.798538,0.00152018,0.0177232,1945,1331,49.9983,-11.9007
728,-307,49.9558,11.29,0.00014204,0.00096212,0.00181183,0.00240973,-0.00130557,0.89668,0.00217637,0.0492628,1952,1331,49.9558,-11.29
735,-307,50.0416,10.3496,0,0,0,0,0,0,0,-1,1959,1331,50.0416,-10.3497
742,-307,26.677,6.09192,0,0,0,0,0,0,0,-1,1966,1331,26.677,-6.0919
749,-307,26.7727,5.9032,0,0,0,0,0,0,0,-1,1973,1331,26.7727,-5.90323
756,-307,27.1556,5.74756,0,0,0,0,0,0,0,-1,1980,1331,27.1557,-5.7475
763,-307,18.7522,3.55298,0,0,0,0,0,0,0,-1,1987,1331,18.7522,-3.55301
770,-307,0,0,0,0,0,0,0,0,0,-1,1994,1331,0,0
777,-307,0,0,0,0,0,0,0,0,0,-1,2001,1331,0,0
784,-307,0,0,0,0,0,0,0,0,0,-1,2008,1331,0,0
791,-307,0,0,0,0,0,0,0,0,0,-1,2015,1331,0,0
798,-307,0,0,0,0,0,0,0,0,0,-1,2022,1331,0,0
805,-307,0,0,0,0,0,0,0,0,0,-1,2029,1331,0,0
812,-307,0,0,0,0,0,0,0,0,0,-1,2036,1331,0,0
-700,-314,0,0,0,0,0,0,0,0,0,-1,524,1338,0,0
-693,-314,0,0,0,0,0,0,0,0,0,-1,531,1338,0,0
-686,-314,0,0,0,0,0,0,0,0,0,-1,538,1338,0,0
-679,-314,0,0,0,0,0,0,0,0,0,-1,545,1338,0,0
-672,-314,0,0,0,0,0,0,0,0,0,-1,552,1338,0,0
-665,-314,0,0,0,0,0,0,0,0,0,-1,559,1338,0,0
-658,-314,0,0,0,0,0,0,0,0,0,-1,566,1338,0,0
-651,-314,0,0,0,0,0,0,0,0,0,-1,573,1338,0,0
-644,-314,-41.2806,1.17566,0,0,0,0,0,0,0,-1,580,1338,-41.2806,-1.17565
-637,-314,-58.369,7.97375,0,0,0,0,0,0,0,-1,587,1338,-58.369,-7.97376
-630,-314,-59.7463,6.72742,0,0,0,0,0,0,0,-1,594,1338,-59.7463,-6.72739
-623,-314,-13.3542,3.00903,0,0,0,0,0,0,0,-1,601,1338,-13.3542,-3.00907
-616,-314,-9.93311,1.15088,0,0,0,0,0,0,0,-1,608,1338,-9.93308,-1.15093
-609,-314,-9.4361,2.86292,0,0,0,0,0,0,0,-1,615,1338,-9.43612,-2.86286
-602,-314,-11.8027,2.42798,0,0,0,0,0,0,0,-1,622,1338,-11.8027,-2.42802
-595,-314,-32.7983,10.3715,0,0,0,0,0,0,0,-1,629,1338,-32.7983,-10.3715
-588,-314,-32.5953,11.3123,0.00325164,0.00379731,0.0032534,0.00678929,0.000259658,0.827231,0.00444217,0.0364737,636,1338,-32.5953,-11.3122
-581,-314,-32.559,12.2285,0.00275791,0.00288919,0.00229654,0.00512103,0.000526072,0.799685,0.00325287,0.0136417,643,1338,-32.559,-12.2285
-574,-314,-32.6444,13.0406,0.00247082,0.00206064,0.00166162,0.00393996,0.000591504,0.723993,0.00245335,0.0129605,650,1338,-32.6444,-13.0407
-567,-314,-32.68,13.89,0.00241282,0.00137031,0.00131721,0.00330816,0.000474972,0.596988,0.0020654,0.0141106,657,1338,-32.68,-13.8901
-560,-314,-32.6849,14.7612,0.00261368,0.000810897,0.0012092,0.00322048,0.000204089,0.465108,0.0020823,0.0154682,664,1338,-32.6849,-14.7612
-553,-314,-32.7366,15.5806,0.00304933,0.000373813,0.00135847,0.00361815,-0.000195006,0.39654,0.00247966,0.017818,671,1338,-32.7366,-15.5805
-546,-314,-32.8314,16.4083,0.00377579,3.30116e-05,0.0017531,0.00446867,-0.000659866,0.376387,0.00322167,0.0176155,678,1338,-32.8314,-16.4084
-539,-314,-32.8621,17.2816,0.00490097,-0.00016763,0.00241604,0.00586809,-0.00113475,0.380757,0.00434004,0.0208345,685,1338,-32.8621,-17.2816
-532,-314,-32.8085,18.1133,0,0,0,0,0,0,0,-1,692,1338,-32.8085,-18.1132
-525,-314,-13.3017,7.50671,0,0,0,0,0,0,0,-1,699,1338,-13.3017,-7.50669
-518,-314,-8.52753,4.70032,0,0,0,0,0,0,0,-1,706,1338,-8.52755,-4.70034
-511,-314,-11.8597,0.384888,0,0,0,0,0,0,0,-1,713,1338,-11.8597,-0.384927
-504,-314,-11.4322,-0.187378,0,0,0,0,0,0,0,-1,720,1338,-11.4322,0.187381
-497,-314,-11.0047,-0.759644,0,0,0,0,0,0,0,-1,727,1338,-11.0047,0.759689
-490,-314,-18.5143,0.471069,0,0,0,0,0,0,0,-1,734,1338,-18.5143,-0.47103
-483,-314,-17.8528,0.577271,0,0,0,0,0,0,0,-1,741,1338,-17.8528,-0.577327
-476,-314,-17.714,0.665405,0,0,0,0,0,0,0,-1,748,1338,-17.714,-0.665388
-469,-314,-17.7246,0.794678,0,0,0,0,0,0,0,-1,755,1338,-17.7246,-0.794645
-462,-314,0,0,0,0,0,0,0,0,0,-1,762,1338,0,0
-455,-314,0,0,0,0,0,0,0,0,0,-1,769,1338,0,0
-448,-314,0,0,0,0,0,0,0,0,0,-1,776,1338,0,0
-441,-314,0,0,0,0,0,0,0,0,0,-1,783,1338,0,0
-434,-314,0,0,0,0,0,0,0,0,0,-1,790,1338,0,0
-427,-314,0,0,0,0,0,0,0,0,0,-1,797,1338,0,0
-420,-314,0,0,0,0,0,0,0,0,0,-1,804,1338,0,0
-413,-314,0,0,0,0,0,0,0,0,0,-1,811,1338,0,0
-406,-314,0,0,0,0,0,0,0,0,0,-1,818,1338,0,0
-399,-314,0,0,0,0,0,0,0,0,0,-1,825,1338,0,0
-392,-314,0,0,0,0,0,0,0,0,0,-1,832,1338,0,0
-385,-314,0,0,0,0,0,0,0,0,0,-1,839,1338,0,0
-378,-314,0,0,0,0,0,0,0,0,0,-1,846,1338,0,0
-371,-314,0,0,0,0,0,0,0,0,0,-1,853,1338,0,0
-364,-314,0,0,0,0,0,0,0,0,0,-1,860,1338,0,0
-357,-314,0,0,0,0,0,0,0,0,0,-1,867,1338,0,0
-350,-314,0,0,0,0,0,0,0,0,0,-1,874,1338,0,0
-343,-314,0,0,0,0,0,0,0,0,0,-1,881,1338,0,0
-336,-314,0,0,0,0,0,0,0,0,0,-1,888,1338,0,0
-329,-314,0,0,0,0,0,0,0,0,0,-1,895,1338,0,0
-322,-314,0,0,0,0,0,0,0,0,0,-1,902,1338,0,0
-315,-314,0,0,0,0,0,0,0,0,0,-1,909,1338,0,0
-308,-314,0,0,0,0,0,0,0,0,0,-1,916,1338,0,0
-301,-314,0,0,0,0,0,0,0,0,0,-1,923,1338,0,0
-294,-314,0,0,0,0,0,0,0,0,0,-1,930,1338,0,0
-287,-314,0,0,0,0,0,0,0,0,0,-1,937,1338,0,0
-280,-314,0,0,0,0,0,0,0,0,0,-1,944,1338,0,0
-273,-314,0,0,0,0,0,0,0,0,0,-1,951,1338,0,0
-266,-314,0,0,0,0,0,0,0,0,0,-1,958,1338,0,0
-259,-314,0,0,0,0,0,0,0,0,0,-1,965,1338,0,0
-252,-314,0,0,0,0,0,0,0,0,0,-1,972,1338,0,0
-245,-314,0,0,0,0,0,0,0,0,0,-1,979,1338,0,0
-238,-314,0,0,0,0,0,0,0,0,0,-1,986,1338,0,0
-231,-314,0,0,0,0,0,0,0,0,0,-1,993,1338,0,0
-224,-314,0,0,0,0,0,0,0,0,0,-1,1000,1338,0,0
-217,-314,0,0,0,0,0,0,0,0,0,-1,1007,1338,0,0
-210,-314,0,0,0,0,0,0,0,0,0,-1,1014,1338,0,0
-203,-314,0,0,0,0,0,0,0,0,0,-1,1021,1338,0,0
-196,-314,0,0,0,0,0,0,0,0,0,-1,1028,1338,0,0
-189,-314,0,0,0,0,0,0,0,0,0,-1,1035,1338,0,0
-182,-314,0,0,0,0,0,0,0,0,0,-1,1042,1338,0,0
-175,-314,0,0,0,0,0,0,0,0,0,-1,1049,1338,0,0
-168,-314,0,0,0,0,0,0,0,0,0,-1,1056,1338,0,0
-161,-314,0,0,0,0,0,0,0,0,0,-1,1063,1338,0,0
-154,-314,0,0,0,0,0,0,0,0,0,-1,1070,1338,0,0
-147,-314,0,0,0,0,0,0,0,0,0,-1,1077,1338,0,0
-140,-314,0,0,0,0,0,0,0,0,0,-1,1084,1338,0,0
-133,-314,0,0,0,0,0,0,0,0,0,-1,1091,1338,0,0
-126,-314,0,0,0,0,0,0,0,0,0,-1,1098,1338,0,0
-119,-314,0,0,0,0,0,0,0,0,0,-1,1105,1338,0,0
-112,-314,0,0,0,0,0,0,0,0,0,-1,1112,1338,0,0
-105,-314,0,0,0,0,0,0,0,0,0,-1,1119,1338,0,0
-98,-314,0,0,0,0,0,0,0,0,0,-1,1126,1338,0,0
-91,-314,0,0,0,0,0,0,0,0,0,-1,1133,1338,0,0
-84,-314,0,0,0,0,0,0,0,0,0,-1,1140,1338,0,0
-77,-314,0,0,0,0,0,0,0,0,0,-1,1147,1338,0,0
-70,-314,0,0,0,0,0,0,0,0,0,-1,1154,1338,0,0
-63,-314,0,0,0,0,0,0,0,0,0,-1,1161,1338,0,0
-56,-314,0,0,0,0,0,0,0,0,0,-1,1168,1338,0,0
-49,-314,0,0,0,0,0,0,0,0,0,-1,1175,1338,0,0
-42,-314,0,0,0,0,0,0,0,0,0,-1,1182,1338,0,0
-35,-314,0,0,0,0,0,0,0,0,0,-1,1189,1338,0,0
-28,-314,0,0,0,0,0,0,0,0,0,-1,1196,1338,0,0
-21,-314,0,0,0,0,0,0,0,0,0,-1,1203,1338,0,0
-14,-314,0,0,0,0,0,0,0,0,0,-1,1210,1338,0,0
-7,-314,0,0,0,0,0,0,0,0,0,-1,1217,1338,0,0
0,-314,0,0,0,0,0,0,0,0,0,-1,1224,1338,0,0
7,-314,0,0,0,0,0,0,0,0,0,-1,1231,1338,0,0
14,-314,0,0,0,0,0,0,0,0,0,-1,1238,1338,0,0
21,-314,0,0,0,0,0,0,0,0,0,-1,1245,1338,0,0
28,-314,0,0,0,0,0,0,0,0,0,-1,1252,1338,0,0
35,-314,0,0,0,0,0,0,0,0,0,-1,1259,1338,0,0
42,-314,0,0,0,0,0,0,0,0,0,-1,1266,1338,0,0
49,-314,0,0,0,0,0,0,0,0,0,-1,1273,1338,0,0
56,-314,0,0,0,0,0,0,0,0,0,-1,1280,1338,0,0
63,-314,0,0,0,0,0,0,0,0,0,-1,1287,1338,0,0
70,-314,0,0,0,0,0,0,0,0,0,-1,1294,1338,0,0
77,-314,0,0,0,0,0,0,0,0,0,-1,1301,1338,0,0
84,-314,0,0,0,0,0,0,0,0,0,-1,1308,1338,0,0
91,-314,0,0,0,0,0,0,0,0,0,-1,1315,1338,0,0
98,-314,0,0,0,0,0,0,0,0,0,-1,1322,1338,0,0
105,-314,0,0,0,0,0,0,0,0,0,-1,1329,1338,0,0
112,-314,0,0,0,0,0,0,0,0,0,-1,1336,1338,0,0
119,-314,0,0,0,0,0,0,0,0,0,-1,1343,1338,0,0
126,-314,0,0,0,0,0,0,0,0,0,-1,1350,1338,0,0
133,-314,0,0,0,0,0,0,0,0,0,-1,1357,1338,0,0
140,-314,0,0,0,0,0,0,0,0,0,-1,1364,1338,0,0
147,-314,0,0,0,0,0,0,0,0,0,-1,1371,1338,0,0
154,-314,0,0,0,0,0,0,0,0,0,-1,1378,1338,0,0
161,-314,0,0,0,0,0,0,0,0,0,-1,1385,1338,0,0
168,-314,0,0,0,0,0,0,0,0,0,-1,1392,1338,0,0
175,-314,0,0,0,0,0,0,0,0,0,-1,1399,1338,0,0
182,-314,0,0,0,0,0,0,0,0,0,-1,1406,1338,0,0
189,-314,0,0,0,0,0,0,0,0,0,-1,1413,1338,0,0
196,-314,0,0,0,0,0,0,0,0,0,-1,1420,1338,0,0
203,-314,0,0,0,0,0,0,0,0,0,-1,1427,1338,0,0
210,-314,0,0,0,0,0,0,0,0,0,-1,1434,1338,0,0
217,-314,0,0,0,0,0,0,0,0,0,-1,1441,1338,0,0
224,-314,0,0,0,0,0,0,0,0,0,-1,1448,1338,0,0
231,-314,0,0,0,0,0,0,0,0,0,-1,1455,1338,0,0
238,-314,0,0,0,0,0,0,0,0,0,-1,1462,1338,0,0
245,-314,0,0,0,0,0,0,0,0,0,-1,1469,1338,0,0
252,-314,0,0,0,0,0,0,0,0,0,-1,1476,1338,0,0
259,-314,0,0,0,0,0,0,0,0,0,-1,1483,1338,0,0
266,-314,0,0,0,0,0,0,0,0,0,-1,1490,1338,0,0
273,-314,0,0,0,0,0,0,0,0,0,-1,1497,1338,0,0
280,-314,0,0,0,0,0,0,0,0,0,-1,1504,1338,0,0
287,-314,0,0,0,0,0,0,0,0,0,-1,1511,1338,0,0
294,-314,0,0,0,0,0,0,0,0,0,-1,1518,1338,0,0
301,-314,0,0,0,0,0,0,0,0,0,-1,1525,1338,0,0
308,-314,0,0,0,0,0,0,0,0,0,-1,1532,1338,0,0
315,-314,0,0,0,0,0,0,0,0,0,-1,1539,1338,0,0
322,-314,0,0,0,0,0,0,0,0,0,-1,1546,1338,0,0
329,-314,0,0,0,0,0,0,0,0,0,-1,1553,1338,0,0
336,-314,0,0,0,0,0,0,0,0,0,-1,1560,1338,0,0
343,-314,0,0,0,0,0,0,0,0,0,-1,1567,1338,0,0
350,-314,0,0,0,0,0,0,0,0,0,-1,1574,1338,0,0
357,-314,0,0,0,0,0,0,0,0,0,-1,1581,1338,0,0
364,-314,0,0,0,0,0,0,0,0,0,-1,1588,1338,0,0
371,-314,0,0,0,0,0,0,0,0,0,-1,1595,1338,0,0
378,-314,0,0,0,0,0,0,0,0,0,-1,1602,1338,0,0
385,-314,0,0,0,0,0,0,0,0,0,-1,1609,1338,0,0
392,-314,0,0,0,0,0,0,0,0,0,-1,1616,1338,0,0
399,-314,0,0,0,0,0,0,0,0,0,-1,1623,1338,0,0
406,-314,0,0,0,0,0,0,0,0,0,-1,1630,1338,0,0
413,-314,0,0,0,0,0,0,0,0,0,-1,1637,1338,0,0
420,-314,0,0,0,0,0,0,0,0,0,-1,1644,1338,0,0
427,-314,0,0,0,0,0,0,0,0,0,-1,1651,1338,0,0
434,-314,0,0,0,0,0,0,0,0,0,-1,1658,1338,0,0
441,-314,0,0,0,0,0,0,0,0,0,-1,1665,1338,0,0
448,-314,0,0,0,0,0,0,0,0,0,-1,1672,1338,0,0
455,-314,0,0,0,0,0,0,0,0,0,-1,1679,1338,0,0
462,-314,0,0,0,0,0,0,0,0,0,-1,1686,1338,0,0
469,-314,0,0,0,0,0,0,0,0,0,-1,1693,1338,0,0
476,-314,0,0,0,0,0,0,0,0,0,-1,1700,1338,0,0
483,-314,0,0,0,0,0,0,0,0,0,-1,1707,1338,0,0
490,-314,0,0,0,0,0,0,0,0,0,-1,1714,1338,0,0
497,-314,0,0,0,0,0,0,0,0,0,-1,1721,1338,0,0
504,-314,0,0,0,0,0,0,0,0,0,-1,1728,1338,0,0
511,-314,0,0,0,0,0,0,0,0,0,-1,1735,1338,0,0
518,-314,0,0,0,0,0,0,0,0,0,-1,1742,1338,0,0
525,-314,0,0,0,0,0,0,0,0,0,-1,1749,1338,0,0
532,-314,0,0,0,0,0,0,0,0,0,-1,1756,1338,0,0
539,-314,0,0,0,0,0,0,0,0,0,-1,1763,1338,0,0
546,-314,0,0,0,0,0,0,0,0,0,-1,1770,1338,0,0
553,-314,0,0,0,0,0,0,0,0,0,-1,1777,1338,0,0
560,-314,0,0,0,0,0,0,0,0,0,-1,1784,1338,0,0
567,-314,0,0,0,0,0,0,0,0,0,-1,1791,1338,0,0
574,-314,0,0,0,0,0,0,0,0,0,-1,1798,1338,0,0
581,-314,66.1637,1.86658,0,0,0,0,0,0,0,-1,1805,1338,66.1637,-1.86663
588,-314,66.4303,1.43481,0,0,0,0,0,0,0,-1,1812,1338,66.4303,-1.43487
595,-314,66.7465,0.982788,0,0,0,0,0,0,0,-1,1819,1338,66.7464,-0.982795
602,-314,66.322,1.38416,0,0,0,0,0,0,0,-1,1826,1338,66.322,-1.3842
609,-314,60.2225,1.27014,0,0,0,0,0,0,0,-1,1833,1338,60.2225,-1.27017
616,-314,48.1149,3.005,0,0,0,0,0,0,0,-1,1840,1338,48.1149,-3.00505
623,-314,38.7728,2.71741,0,0,0,0,0,0,0,-1,1847,1338,38.7728,-2.71737
630,-314,29.4308,6.23206,0,0,0,0,0,0,0,-1,1854,1338,29.4308,-6.23202
637,-314,22.1349,5.16418,0,0,0,0,0,0,0,-1,1861,1338,22.1349,-5.16414
644,-314,18.7517,6.2605,0,0,0,0,0,0,0,-1,1868,1338,18.7517,-6.26053
651,-314,23.1317,8.005,0,0,0,0,0,0,0,-1,1875,1338,23.1317,-8.00506
658,-314,49.4468,19.1031,0,0,0,0,0,0,0,-1,1882,1338,49.4467,-19.1031
665,-314,49.3838,18.3695,0.0030972,0.00120295,-0.00254841,0.0048688,-0.000568646,-0.607481,0.00345107,0.0485698,1889,1338,49.3838,-18.3695
672,-314,49.4178,17.5757,0.00242608,0.000593923,-0.00168936,0.00343176,-0.000411756,-0.536956,0.00243672,0.0144285,1896,1338,49.4179,-17.5757
679,-314,49.3843,16.7505,0.00205371,0.00025873,-0.000931305,0.00244959,-0.000137154,-0.401943,0.00168065,0.010767,1903,1338,49.3842,-16.7505
686,-314,49.3245,15.9359,0.00197293,-0.000180214,-0.00050414,0.00208513,-0.000292408,-0.218976,0.0014971,0.0137932,1910,1338,49.3245,-15.936
693,-314,49.261,15.1165,0.00182254,-6.93921e-05,-0.000306426,0.00187093,-0.000117785,-0.156632,0.00128834,0.014036,1917,1338,49.261,-15.1164
700,-314,49.2494,14.2837,0.00170886,8.37098e-05,-9.08786e-05,0.00171393,7.86436e-05,-0.0556886,0.00111733,0.0151222,1924,1338,49.2494,-14.2837
707,-314,49.2432,13.4814,0.00160335,0.000273874,0.00016068,0.00162249,0.00025473,0.118585,0.00100754,0.0146969,1931,1338,49.2431,-13.4815
714,-314,49.1663,12.7391,0.0014698,0.00050001,0.000466964,0.00165809,0.00031172,0.383281,0.00101753,0.0118882,1938,1338,49.1662,-12.7392
721,-314,49.1161,11.9941,0.00135068,0.000742462,0.000870364,0.00196853,0.000124608,0.617326,0.00127285,0.0257239,1945,1338,49.116,-11.9941
728,-314,49.4242,11.5737,0,0,0,0,0,0,0,-1,1952,1338,49.4242,-11.5737
735,-314,26.3665,6.21582,0,0,0,0,0,0,0,-1,1959,1338,26.3664,-6.21581
742,-314,26.2235,6.0166,0,0,0,0,0,0,0,-1,1966,1338,26.2235,-6.01662
749,-314,26.2223,5.47046,0,0,0,0,0,0,0,-1,1973,1338,26.2223,-5.47041
756,-314,24.2521,5.93408,0,0,0,0,0,0,0,-1,1980,1338,24.252,-5.93413
763,-314,19.2207,4.07239,0,0,0,0,0,0,0,-1,1987,1338,19.2206,-4.07239
770,-314,0,0,0,0,0,0,0,0,0,-1,1994,1338,0,0
777,-314,0,0,0,0,0,0,0,0,0,-1,2001,1338,0,0
784,-314,0,0,0,0,0,0,0,0,0,-1,2008,1338,0,0
791,-314,0,0,0,0,0,0,0,0,0,-1,2015,1338,0,0
798,-314,0,0,0,0,0,0,0,0,0,-1,2022,1338,0,0
805,-314,0,0,0,0,0,0,0,0,0,-1,2029,1338,0,0
812,-314,0,0,0,0,0,0,0,0,0,-1,2036,1338,0,0
-700,-321,0,0,0,0,0,0,0,0,0,-1,524,1345,0,0
-693,-321,0,0,0,0,0,0,0,0,0,-1,531,1345,0,0
-686,-321,0,0,0,0,0,0,0,0,0,-1,538,1345,0,0
-679,-321,0,0,0,0,0,0,0,0,0,-1,545,1345,0,0
-672,-321,0,0,0,0,0,0,0,0,0,-1,552,1345,0,0
-665,-321,0,0,0,0,0,0,0,0,0,-1,559,1345,0,0
-658,-321,0,0,0,0,0,0,0,0,0,-1,566,1345,0,0
-651,-321,0,0,0,0,0,0,0,0,0,-1,573,1345,0,0
-644,-321,-58.7329,10.2313,0,0,0,0,0,0,0,-1,580,1345,-58.7329,-10.2313
-637,-321,-59.9981,9.06421,0,0,0,0,0,0,0,-1,587,1345,-59.9981,-9.06417
-630,-321,-61.377,8.07166,0,0,0,0,0,0,0,-1,594,1345,-61.3769,-8.07168
-623,-321,-13.2242,3.14148,0,0,0,0,0,0,0,-1,601,1345,-13.2243,-3.14146
-616,-321,-11.6754,3.13794,0,0,0,0,0,0,0,-1,608,1345,-11.6754,-3.13789
-609,-321,-7.95209,1.14758,0,0,0,0,0,0,0,-1,615,1345,-7.95208,-1.14757
-602,-321,-8.85791,2.50049,0,0,0,0,0,0,0,-1,622,1345,-8.85791,-2.50048
-595,-321,-19.8463,5.36584,0,0,0,0,0,0,0,-1,629,1345,-19.8462,-5.36589
-588,-321,-31.7685,11.3689,0,0,0,0,0,0,0,-1,636,1345,-31.7685,-11.3689
-581,-321,-31.768,12.259,0.00326473,0.00358427,0.00256273,0.00599221,0.000856791,0.816529,0.00374205,0.0146557,643,1345,-31.768,-12.259
-574,-321,-31.8223,13.1101,0.00292738,0.00262501,0.00193299,0.00471508,0.000837301,0.746371,0.00290479,0.0163282,650,1345,-31.8223,-13.1101
-567,-321,-31.8622,13.9523,0.00283607,0.00184109,0.00158433,0.00399918,0.000677979,0.633271,0.00247132,0.0232958,657,1345,-31.8622,-13.9522
-560,-321,-31.8521,14.8292,0.00298848,0.00121065,0.00145906,0.00380808,0.00039105,0.511806,0.00241893,0.02609,664,1345,-31.8521,-14.8292
-553,-321,-31.8857,15.5996,0.00334294,0.000702785,0.00154925,0.00405824,-1.25191e-05,0.432549,0.00270968,0.0271431,671,1345,-31.8858,-15.5996
-546,-321,-31.9747,16.431,0.00395087,0.000297146,0.00184281,0.00471888,-0.000470868,0.394872,0.00331405,0.0269764,678,1345,-31.9748,-16.431
-539,-321,-32.0605,17.2928,0.0048759,3.14629e-05,0.00235459,0.00583174,-0.000924371,0.385621,0.00422975,0.0237784,685,1345,-32.0606,-17.2929
-532,-321,-32.0123,18.1174,0.00624043,-4.55971e-05,0.00309099,0.00750568,-0.00131084,0.388526,0.00549312,0.0360992,692,1345,-32.0124,-18.1175
-525,-321,-31.9894,18.9346,0,0,0,0,0,0,0,-1,699,1345,-31.9894,-18.9346
-518,-321,-10.3564,6.75696,0,0,0,0,0,0,0,-1,706,1345,-10.3564,-6.75694
-511,-321,-9.3302,5.29297,0,0,0,0,0,0,0,-1,713,1345,-9.33023,-5.29294
-504,-321,-10.4713,0.0145264,0,0,0,0,0,0,0,-1,720,1345,-10.4713,-0.0145296
-497,-321,-9.96771,0.313599,0,0,0,0,0,0,0,-1,727,1345,-9.96769,-0.313618
-490,-321,-10.7631,0.973511,0,0,0,0,0,0,0,-1,734,1345,-10.7631,-0.97353
-483,-321,-17.5908,0.2323,0,0,0,0,0,0,0,-1,741,1345,-17.5908,-0.232355
-476,-321,-17.2915,0.297363,0,0,0,0,0,0,0,-1,748,1345,-17.2915,-0.297342
-469,-321,-17.2441,0.478027,0,0,0,0,0,0,0,-1,755,1345,-17.2441,-0.477994
-462,-321,-17.1672,0.526489,0,0,0,0,0,0,0,-1,762,1345,-17.1672,-0.526533
-455,-321,0,0,0,0,0,0,0,0,0,-1,769,1345,0,0
-448,-321,0,0,0,0,0,0,0,0,0,-1,776,1345,0,0
-441,-321,0,0,0,0,0,0,0,0,0,-1,783,1345,0,0
-434,-321,0,0,0,0,0,0,0,0,0,-1,790,1345,0,0
-427,-321,0,0,0,0,0,0,0,0,0,-1,797,1345,0,0
-420,-321,0,0,0,0,0,0,0,0,0,-1,804,1345,0,0
-413,-321,0,0,0,0,0,0,0,0,0,-1,811,1345,0,0
-406,-321,0,0,0,0,0,0,0,0,0,-1,818,1345,0,0
-399,-321,0,0,0,0,0,0,0,0,0,-1,825,1345,0,0
-392,-321,0,0,0,0,0,0,0,0,0,-1,832,1345,0,0
-385,-321,0,0,0,0,0,0,0,0,0,-1,839,1345,0,0
-378,-321,0,0,0,0,0,0,0,0,0,-1,846,1345,0,0
-371,-321,0,0,0,0,0,0,0,0,0,-1,853,1345,0,0
-364,-321,0,0,0,0,0,0,0,0,0,-1,860,1345,0,0
-357,-321,0,0,0,0,0,0,0,0,0,-1,867,1345,0,0
-350,-321,0,0,0,0,0,0,0,0,0,-1,874,1345,0,0
-343,-321,0,0,0,0,0,0,0,0,0,-1,881,1345,0,0
-336,-321,0,0,0,0,0,0,0,0,0,-1,888,1345,0,0
-329,-321,0,0,0,0,0,0,0,0,0,-1,895,1345,0,0
-322,-321,0,0,0,0,0,0,0,0,0,-1,902,1345,0,0
-315,-321,0,0,0,0,0,0,0,0,0,-1,909,1345,0,0
-308,-321,0,0,0,0,0,0,0,0,0,-1,916,1345,0,0
-301,-321,0,0,0,0,0,0,0,0,0,-1,923,1345,0,0
-294,-321,0,0,0,0,0,0,0,0,0,-1,930,1345,0,0
-287,-321,0,0,0,0,0,0,0,0,0,-1,937,1345,0,0
-280,-321,0,0,0,0,0,0,0,0,0,-1,944,1345,0,0
-273,-321,0,0,0,0,0,0,0,0,0,-1,951,1345,0,0
-266,-321,0,0,0,0,0,0,0,0,0,-1,958,1345,0,0
-259,-321,0,0,0,0,0,0,0,0,0,-1,965,1345,0,0
-252,-321,0,0,0,0,0,0,0,0,0,-1,972,1345,0,0
-245,-321,0,0,0,0,0,0,0,0,0,-1,979,1345,0,0
-238,-321,0,0,0,0,0,0,0,0,0,-1,986,1345,0,0
-231,-321,0,0,0,0,0,0,0,0,0,-1,993,1345,0,0
-224,-321,0,0,0,0,0,0,0,0,0,-1,1000,1345,0,0
-217,-321,0,0,0,0,0,0,0,0,0,-1,1007,1345,0,0
-210,-321,0,0,0,0,0,0,0,0,0,-1,1014,1345,0,0
-203,-321,0,0,0,0,0,0,0,0,0,-1,1021,1345,0,0
-196,-321,0,0,0,0,0,0,0,0,0,-1,1028,1345,0,0
-189,-321,0,0,0,0,0,0,0,0,0,-1,1035,1345,0,0
-182,-321,0,0,0,0,0,0,0,0,0,-1,1042,1345,0,0
-175,-321,0,0,0,0,0,0,0,0,0,-1,1049,1345,0,0
-168,-321,0,0,0,0,0,0,0,0,0,-1,1056,1345,0,0
-161,-321,0,0,0,0,0,0,0,0,0,-1,1063,1345,0,0
-154,-321,0,0,0,0,0,0,0,0,0,-1,1070,1345,0,0
-147,-321,0,0,0,0,0,0,0,0,0,-1,1077,1345,0,0
-140,-321,0,0,0,0,0,0,0,0,0,-1,1084,1345,0,0
-133,-321,0,0,0,0,0,0,0,0,0,-1,1091,1345,0,0
-126,-321,0,0,0,0,0,0,0,0,0,-1,1098,1345,0,0
-119,-321,0,0,0,0,0,0,0,0,0,-1,1105,1345,0,0
-112,-321,0,0,0,0,0,0,0,0,0,-1,1112,1345,0,0
-105,-321,0,0,0,0,0,0,0,0,0,-1,1119,1345,0,0
-98,-321,0,0,0,0,0,0,0,0,0,-1,1126,1345,0,0
-91,-321,0,0,0,0,0,0,0,0,0,-1,1133,1345,0,0
-84,-321,0,0,0,0,0,0,0,0,0,-1,1140,1345,0,0
-77,-321,0,0,0,0,0,0,0,0,0,-1,1147,1345,0,0
-70,-321,0,0,0,0,0,0,0,0,0,-1,1154,1345,0,0
-63,-321,0,0,0,0,0,0,0,0,0,-1,1161,1345,0,0
-56,-321,0,0,0,0,0,0,0,0,0,-1,1168,1345,0,0
-49,-321,0,0,0,0,0,0,0,0,0,-1,1175,1345,0,0
-42,-321,0,0,0,0,0,0,0,0,0,-1,1182,1345,0,0
-35,-321,0,0,0,0,0,0,0,0,0,-1,1189,1345,0,0
-28,-321,0,0,0,0,0,0,0,0,0,-1,1196,1345,0,0
-21,-321,0,0,0,0,0,0,0,0,0,-1,1203,1345,0,0
-14,-321,0,0,0,0,0,0,0,0,0,-1,1210,1345,0,0
-7,-321,0,0,0,0,0,0,0,0,0,-1,1217,1345,0,0
0,-321,0,0,0,0,0,0,0,0,0,-1,1224,1345,0,0
7,-321,0,0,0,0,0,0,0,0,0,-1,1231,1345,0,0
14,-321,0,0,0,0,0,0,0,0,0,-1,1238,1345,0,0
21,-321,0,0,0,0,0,0,0,0,0,-1,1245,1345,0,0
28,-321,0,0,0,0,0,0,0,0,0,-1,1252,1345,0,0
35,-321,0,0,0,0,0,0,0,0,0,-1,1259,1345,0,0
42,-321,0,0,0,0,0,0,0,0,0,-1,1266,1345,0,0
49,-321,0,0,0,0,0,0,0,0,0,-1,1273,1345,0,0
56,-321,0,0,0,0,0,0,0,0,0,-1,1280,1345,0,0
63,-321,0,0,0,0,0,0,0,0,0,-1,1287,1345,0,0
70,-321,0,0,0,0,0,0,0,0,0,-1,1294,1345,0,0
77,-321,0,0,0,0,0,0,0,0,0,-1,1301,1345,0,0
84,-321,0,0,0,0,0,0,0,0,0,-1,1308,1345,0,0
91,-321,0,0,0,0,0,0,0,0,0,-1,1315,1345,0,0
98,-321,0,0,0,0,0,0,0,0,0,-1,1322,1345,0,0
105,-321,0,0,0,0,0,0,0,0,0,-1,1329,1345,0,0
112,-321,0,0,0,0,0,0,0,0,0,-1,1336,1345,0,0
119,-321,0,0,0,0,0,0,0,0,0,-1,1343,1345,0,0
126,-321,0,0,0,0,0,0,0,0,0,-1,1350,1345,0,0
133,-321,0,0,0,0,0,0,0,0,0,-1,1357,1345,0,0
140,-321,0,0,0,0,0,0,0,0,0,-1,1364,1345,0,0
147,-321,0,0,0,0,0,0,0,0,0,-1,1371,1345,0,0
154,-321,0,0,0,0,0,0,0,0,0,-1,1378,1345,0,0
161,-321,0,0,0,0,0,0,0,0,0,-1,1385,1345,0,0
168,-321,0,0,0,0,0,0,0,0,0,-1,1392,1345,0,0
175,-321,0,0,0,0,0,0,0,0,0,-1,1399,1345,0,0
182,-321,0,0,0,0,0,0,0,0,0,-1,1406,1345,0,0
189,-321,0,0,0,0,0,0,0,0,0,-1,1413,1345,0,0
196,-321,0,0,0,0,0,0,0,0,0,-1,1420,1345,0,0
203,-321,0,0,0,0,0,0,0,0,0,-1,1427,1345,0,0
210,-321,0,0,0,0,0,0,0,0,0,-1,1434,1345,0,0
217,-321,0,0,0,0,0,0,0,0,0,-1,1441,1345,0,0
224,-321,0,0,0,0,0,0,0,0,0,-1,1448,1345,0,0
231,-321,0,0,0,0,0,0,0,0,0,-1,1455,1345,0,0
238,-321,0,0,0,0,0,0,0,0,0,-1,1462,1345,0,0
245,-321,0,0,0,0,0,0,0,0,0,-1,1469,1345,0,0
252,-321,0,0,0,0,0,0,0,0,0,-1,1476,1345,0,0
259,-321,0,0,0,0,0,0,0,0,0,-1,1483,1345,0,0
266,-321,0,0,0,0,0,0,0,0,0,-1,1490,1345,0,0
273,-321,0,0,0,0,0,0,0,0,0,-1,1497,1345,0,0
280,-321,0,0,0,0,0,0,0,0,0,-1,1504,1345,0,0
287,-321,0,0,0,0,0,0,0,0,0,-1,1511,1345,0,0
294,-321,0,0,0,0,0,0,0,0,0,-1,1518,1345,0,0
301,-321,0,0,0,0,0,0,0,0,0,-1,1525,1345,0,0
308,-321,0,0,0,0,0,0,0,0,0,-1,1532,1345,0,0
315,-321,0,0,0,0,0,0,0,0,0,-1,1539,1345,0,0
322,-321,0,0,0,0,0,0,0,0,0,-1,1546,1345,0,0
329,-321,0,0,0,0,0,0,0,0,0,-1,1553,1345,0,0
336,-321,0,0,0,0,0,0,0,0,0,-1,1560,1345,0,0
343,-321,0,0,0,0,0,0,0,0,0,-1,1567,1345,0,0
350,-321,0,0,0,0,0,0,0,0,0,-1,1574,1345,0,0
357,-321,0,0,0,0,0,0,0,0,0,-1,1581,1345,0,0
364,-321,0,0,0,0,0,0,0,0,0,-1,1588,1345,0,0
371,-321,0,0,0,0,0,0,0,0,0,-1,1595,1345,0,0
378,-321,0,0,0,0,0,0,0,0,0,-1,1602,1345,0,0
385,-321,0,0,0,0,0,0,0,0,0,-1,1609,1345,0,0
392,-321,0,0,0,0,0,0,0,0,0,-1,1616,1345,0,0
399,-321,0,0,0,0,0,0,0,0,0,-1,1623,1345,0,0
406,-321,0,0,0,0,0,0,0,0,0,-1,1630,1345,0,0
413,-321,0,0,0,0,0,0,0,0,0,-1,1637,1345,0,0
420,-321,0,0,0,0,0,0,0,0,0,-1,1644,1345,0,0
427,-321,0,0,0,0,0,0,0,0,0,-1,1651,1345,0,0
434,-321,0,0,0,0,0,0,0,0,0,-1,1658,1345,0,0
441,-321,0,0,0,0,0,0,0,0,0,-1,1665,1345,0,0
448,-321,0,0,0,0,0,0,0,0,0,-1,1672,1345,0,0
455,-321,0,0,0,0,0,0,0,0,0,-1,1679,1345,0,0
462,-321,0,0,0,0,0,0,0,0,0,-1,1686,1345,0,0
469,-321,0,0,0,0,0,0,0,0,0,-1,1693,1345,0,0
476,-321,0,0,0,0,0,0,0,0,0,-1,1700,1345,0,0
483,-321,0,0,0,0,0,0,0,0,0,-1,1707,1345,0,0
490,-321,0,0,0,0,0,0,0,0,0,-1,1714,1345,0,0
497,-321,0,0,0,0,0,0,0,0,0,-1,1721,1345,0,0
504,-321,0,0,0,0,0,0,0,0,0,-1,1728,1345,0,0
511,-321,0,0,0,0,0,0,0,0,0,-1,1735,1345,0,0
518,-321,0,0,0,0,0,0,0,0,0,-1,1742,1345,0,0
525,-321,0,0,0,0,0,0,0,0,0,-1,1749,1345,0,0
532,-321,0,0,0,0,0,0,0,0,0,-1,1756,1345,0,0
539,-321,0,0,0,0,0,0,0,0,0,-1,1763,1345,0,0
546,-321,0,0,0,0,0,0,0,0,0,-1,1770,1345,0,0
553,-321,0,0,0,0,0,0,0,0,0,-1,1777,1345,0,0
560,-321,0,0,0,0,0,0,0,0,0,-1,1784,1345,0,0
567,-321,0,0,0,0,0,0,0,0,0,-1,1791,1345,0,0
574,-321,0,0,0,0,0,0,0,0,0,-1,1798,1345,0,0
581,-321,66.1073,1.6543,0,0,0,0,0,0,0,-1,1805,1345,66.1073,-1.65427
588,-321,66.6576,0.7948,0,0,0,0,0,0,0,-1,1812,1345,66.6575,-0.794774
595,-321,67.2585,-0.216431,0,0,0,0,0,0,0,-1,1819,1345,67.2586,0.216484
602,-321,60.3523,1.24133,0,0,0,0,0,0,0,-1,1826,1345,60.3523,-1.2413
609,-321,48.311,3.39575,0,0,0,0,0,0,0,-1,1833,1345,48.311,-3.39571
616,-321,37.8107,2.58704,0,0,0,0,0,0,0,-1,1840,1345,37.8106,-2.58705
623,-321,37.6854,3.68933,0,0,0,0,0,0,0,-1,1847,1345,37.6854,-3.68931
630,-321,23.6674,4.34106,0,0,0,0,0,0,0,-1,1854,1345,23.6674,-4.34112
637,-321,21.7925,6.79224,0,0,0,0,0,0,0,-1,1861,1345,21.7925,-6.7922
644,-321,16.8844,6.71973,0,0,0,0,0,0,0,-1,1868,1345,16.8844,-6.71971
651,-321,27.4924,10.0319,0,0,0,0,0,0,0,-1,1875,1345,27.4924,-10.0319
658,-321,48.5145,19.2214,0,0,0,0,0,0,0,-1,1882,1345,48.5145,-19.2214
665,-321,48.5929,18.4353,0.00281869,0.00058256,-0.00189538,0.0039012,-0.000499948,-0.518922,0.00278246,0.0321121,1889,1345,48.5929,-18.4353
672,-321,48.62,17.6086,0.00225941,0.000207567,-0.00121468,0.00282345,-0.00035647,-0.434723,0.00201168,0.0147804,1896,1345,48.62,-17.6086
679,-321,48.5768,16.7866,0.00198418,7.65332e-05,-0.00075526,0.00224699,-0.000186276,-0.334867,0.00156379,0.012942,1903,1345,48.5767,-16.7866
686,-321,48.498,15.974,0.00193372,-5.81315e-05,-0.000529939,0.00206593,-0.000190348,-0.244502,0.00144492,0.0140477,1910,1345,48.498,-15.974
693,-321,48.4337,15.1733,0.001889,7.73925e-05,-0.000427374,0.00198476,-1.83671e-05,-0.220425,0.00132934,0.0133027,1917,1345,48.4337,-15.1733
700,-321,48.4441,14.3442,0.00188512,0.000253951,-0.000316951,0.00194454,0.000194529,-0.185328,0.00123663,0.0137734,1924,1345,48.4441,-14.3442
707,-321,48.4315,13.538,0.00188568,0.000474235,-0.000178298,0.00190785,0.00045206,-0.123734,0.00115119,0.0162331,1931,1345,48.4315,-13.5379
714,-321,48.3625,12.7388,0.00186461,0.000755039,5.80747e-06,0.00186464,0.000755009,0.00523381,0.00108302,0.0140254,1938,1345,48.3626,-12.7388
721,-321,48.2755,11.9431,0.0018892,0.00104282,0.000301028,0.00198535,0.000946677,0.309143,0.00114665,0.0410473,1945,1345,48.2755,-11.9431
728,-321,48.2657,11.1969,0,0,0,0,0,0,0,-1,1952,1345,48.2658,-11.1969
735,-321,22.0081,5.65479,0,0,0,0,0,0,0,-1,1959,1345,22.008,-5.65481
742,-321,24.5398,5.05725,0,0,0,0,0,0,0,-1,1966,1345,24.5398,-5.05729
749,-321,24.0675,5.4458,0,0,0,0,0,0,0,-1,1973,1345,24.0675,-5.44581
756,-321,19.6251,4.98315,0,0,0,0,0,0,0,-1,1980,1345,19.6251,-4.98311
763,-321,19.6747,4.61438,0,0,0,0,0,0,0,-1,1987,1345,19.6747,-4.61436
770,-321,0,0,0,0,0,0,0,0,0,-1,1994,1345,0,0
777,-321,0,0,0,0,0,0,0,0,0,-1,2001,1345,0,0
784,-321,0,0,0,0,0,0,0,0,0,-1,2008,1345,0,0
791,-321,0,0,0,0,0,0,0,0,0,-1,2015,1345,0,0
798,-321,0,0,0,0,0,0,0,0,0,-1,2022,1345,0,0
805,-321,0,0,0,0,0,0,0,0,0,-1,2029,1345,0,0
812,-321,0,0,0,0,0,0,0,0,0,-1,2036,1345,0,0
-700,-328,0,0,0,0,0,0,0,0,0,-1,524,1352,0,0
-693,-328,0,0,0,0,0,0,0,0,0,-1,531,1352,0,0
-686,-328,0,0,0,0,0,0,0,0,0,-1,538,1352,0,0
-679,-328,0,0,0,0,0,0,0,0,0,-1,545,1352,0,0
-672,-328,0,0,0,0,0,0,0,0,0,-1,552,1352,0,0
-665,-328,0,0,0,0,0,0,0,0,0,-1,559,1352,0,0
-658,-328,0,0,0,0,0,0,0,0,0,-1,566,1352,0,0
-651,-328,0,0,0,0,0,0,0,0,0,-1,573,1352,0,0
-644,-328,0,0,0,0,0,0,0,0,0,-1,580,1352,0,0
-637,-328,-61.3883,10.1125,0,0,0,0,0,0,0,-1,587,1352,-61.3883,-10.1126
-630,-328,-62.8012,9.14563,0,0,0,0,0,0,0,-1,594,1352,-62.8012,-9.14564
-623,-328,-10.7739,4.55042,0,0,0,0,0,0,0,-1,601,1352,-10.7739,-4.55041
-616,-328,-8.22198,-0.25708,0,0,0,0,0,0,0,-1,608,1352,-8.22201,0.257067
-609,-328,-7.87439,0.192871,0,0,0,0,0,0,0,-1,615,1352,-7.87441,-0.192822
-602,-328,-7.63062,1.31665,0,0,0,0,0,0,0,-1,622,1352,-7.63064,-1.3166
-595,-328,-9.42639,2.93494,0,0,0,0,0,0,0,-1,629,1352,-9.42638,-2.93499
-588,-328,-31.0385,11.1956,0,0,0,0,0,0,0,-1,636,1352,-31.0385,-11.1956
-581,-328,-30.9662,12.2426,0.00418061,0.00446597,0.00290955,0.00723633,0.00141024,0.809898,0.00442961,0.0278625,643,1352,-30.9662,-12.2426
-574,-328,-30.9944,13.1586,0.0035088,0.0032554,0.00222884,0.00561454,0.00114967,0.757006,0.00342474,0.0162361,650,1352,-30.9945,-13.1585
-567,-328,-31.0435,14.0369,0.00320647,0.00232655,0.00183604,0.00465453,0.000878492,0.667805,0.00285559,0.0217607,657,1352,-31.0435,-14.0369
-560,-328,-31.0628,14.9026,0.00317159,0.00159188,0.00166326,0.00422301,0.000540462,0.563722,0.0026536,0.0286485,664,1352,-31.0628,-14.9026
-553,-328,-31.0848,15.6599,0.00337663,0.0010127,0.0016809,0.00424953,0.000139808,0.478972,0.00278758,0.0297079,671,1352,-31.0849,-15.6599
-546,-328,-31.1487,16.4731,0.00383543,0.000563896,0.00187487,0.00468781,-0.000288486,0.426701,0.00322567,0.0289016,678,1352,-31.1487,-16.4731
-539,-328,-31.215,17.3214,0.00456583,0.000247786,0.00225679,0.00553003,-0.000716409,0.403768,0.00394722,0.0242926,685,1352,-31.215,-17.3215
-532,-328,-31.2153,18.1827,0.00564683,8.5458e-05,0.00283041,0.00683394,-0.00110165,0.39713,0.0049641,0.0191291,692,1352,-31.2152,-18.1828
-525,-328,-31.2155,19.1019,0.00705493,4.30998e-05,0.00363599,0.00859995,-0.00150191,0.401805,0.00629395,0.0347256,699,1352,-31.2155,-19.102
-518,-328,-31.3531,20.045,0,0,0,0,0,0,0,-1,706,1352,-31.3531,-20.045
-511,-328,-9.39868,7.16113,0,0,0,0,0,0,0,-1,713,1352,-9.39869,-7.16113
-504,-328,-8.60626,-0.905762,0,0,0,0,0,0,0,-1,720,1352,-8.60623,0.905787
-497,-328,-9.29102,-0.0517578,0,0,0,0,0,0,0,-1,727,1352,-9.29104,0.0518175
-490,-328,-10.0663,0.882813,0,0,0,0,0,0,0,-1,734,1352,-10.0663,-0.882795
-483,-328,-10.8181,1.72375,0,0,0,0,0,0,0,-1,741,1352,-10.8181,-1.72374
-476,-328,-16.8951,-0.150757,0,0,0,0,0,0,0,-1,748,1352,-16.8951,0.150795
-469,-328,-16.8412,0.00158691,0,0,0,0,0,0,0,-1,755,1352,-16.8412,-0.00161515
-462,-328,-16.3546,-0.203491,0,0,0,0,0,0,0,-1,762,1352,-16.3545,0.203532
-455,-328,0,0,0,0,0,0,0,0,0,-1,769,1352,0,0
-448,-328,0,0,0,0,0,0,0,0,0,-1,776,1352,0,0
-441,-328,0,0,0,0,0,0,0,0,0,-1,783,1352,0,0
-434,-328,0,0,0,0,0,0,0,0,0,-1,790,1352,0,0
-427,-328,0,0,0,0,0,0,0,0,0,-1,797,1352,0,0
-420,-328,0,0,0,0,0,0,0,0,0,-1,804,1352,0,0
-413,-328,0,0,0,0,0,0,0,0,0,-1,811,1352,0,0
-406,-328,0,0,0,0,0,0,0,0,0,-1,818,1352,0,0
-399,-328,0,0,0,0,0,0,0,0,0,-1,825,1352,0,0
-392,-328,0,0,0,0,0,0,0,0,0,-1,832,1352,0,0
-385,-328,0,0,0,0,0,0,0,0,0,-1,839,1352,0,0
-378,-328,0,0,0,0,0,0,0,0,0,-1,846,1352,0,0
-371,-328,0,0,0,0,0,0,0,0,0,-1,853,1352,0,0
-364,-328,0,0,0,0,0,0,0,0,0,-1,860,1352,0,0
-357,-328,0,0,0,0,0,0,0,0,0,-1,867,1352,0,0
-350,-328,0,0,0,0,0,0,0,0,0,-1,874,1352,0,0
-343,-328,0,0,0,0,0,0,0,0,0,-1,881,1352,0,0
-336,-328,0,0,0,0,0,0,0,0,0,-1,888,1352,0,0
-329,-328,0,0,0,0,0,0,0,0,0,-1,895,1352,0,0
-322,-328,0,0,0,0,0,0,0,0,0,-1,902,1352,0,0
-315,-328,0,0,0,0,0,0,0,0,0,-1,909,1352,0,0
-308,-328,0,0,0,0,0,0,0,0,0,-1,916,1352,0,0
-301,-328,0,0,0,0,0,0,0,0,0,-1,923,1352,0,0
-294,-328,0,0,0,0,0,0,0,0,0,-1,930,1352,0,0
-287,-328,0,0,0,0,0,0,0,0,0,-1,937,1352,0,0
-280,-328,0,0,0,0,0,0,0,0,0,-1,944,1352,0,0
-273,-328,0,0,0,0,0,0,0,0,0,-1,951,1352,0,0
-266,-328,0,0,0,0,0,0,0,0,0,-1,958,1352,0,0
-259,-328,0,0,0,0,0,0,0,0,0,-1,965,1352,0,0
-252,-328,0,0,0,0,0,0,0,0,0,-1,972,1352,0,0
-245,-328,0,0,0,0,0,0,0,0,0,-1,979,1352,0,0
-238,-328,0,0,0,0,0,0,0,0,0,-1,986,1352,0,0
-231,-328,0,0,0,0,0,0,0,0,0,-1,993,1352,0,0
-224,-328,0,0,0,0,0,0,0,0,0,-1,1000,1352,0,0
-217,-328,0,0,0,0,0,0,0,0,0,-1,1007,1352,0,0
-210,-328,0,0,0,0,0,0,0,0,0,-1,1014,1352,0,0
-203,-328,0,0,0,0,0,0,0,0,0,-1,1021,1352,0,0
-196,-328,0,0,0,0,0,0,0,0,0,-1,1028,1352,0,0
-189,-328,0,0,0,0,0,0,0,0,0,-1,1035,1352,0,0
-182,-328,0,0,0,0,0,0,0,0,0,-1,1042,1352,0,0
-175,-328,0,0,0,0,0,0,0,0,0,-1,1049,1352,0,0
-168,-328,0,0,0,0,0,0,0,0,0,-1,1056,1352,0,0
-161,-328,0,0,0,0,0,0,0,0,0,-1,1063,1352,0,0
-154,-328,0,0,0,0,0,0,0,0,0,-1,1070,1352,0,0
-147,-328,0,0,0,0,0,0,0,0,0,-1,1077,1352,0,0
-140,-328,0,0,0,0,0,0,0,0,0,-1,1084,1352,0,0
-133,-328,0,0,0,0,0,0,0,0,0,-1,1091,1352,0,0
-126,-328,0,0,0,0,0,0,0,0,0,-1,1098,1352,0,0
-119,-328,0,0,0,0,0,0,0,0,0,-1,1105,1352,0,0
-112,-328,0,0,0,0,0,0,0,0,0,-1,1112,1352,0,0
-105,-328,0,0,0,0,0,0,0,0,0,-1,1119,1352,0,0
-98,-328,0,0,0,0,0,0,0,0,0,-1,1126,1352,0,0
-91,-328,0,0,0,0,0,0,0,0,0,-1,1133,1352,0,0
-84,-328,0,0,0,0,0,0,0,0,0,-1,1140,1352,0,0
-77,-328,0,0,0,0,0,0,0,0,0,-1,1147,1352,0,0
-70,-328,0,0,0,0,0,0,0,0,0,-1,1154,1352,0,0
-63,-328,0,0,0,0,0,0,0,0,0,-1,1161,1352,0,0
-56,-328,0,0,0,0,0,0,0,0,0,-1,1168,1352,0,0
-49,-328,0,0,0,0,0,0,0,0,0,-1,1175,1352,0,0
-42,-328,0,0,0,0,0,0,0,0,0,-1,1182,1352,0,0
-35,-328,0,0,0,0,0,0,0,0,0,-1,1189,1352,0,0
-28,-328,0,0,0,0,0,0,0,0,0,-1,1196,1352,0,0
-21,-328,0,0,0,0,0,0,0,0,0,-1,1203,1352,0,0
-14,-328,0,0,0,0,0,0,0,0,0,-1,1210,1352,0,0
-7,-328,0,0,0,0,0,0,0,0,0,-1,1217,1352,0,0
0,-328,0,0,0,0,0,0,0,0,0,-1,1224,1352,0,0
7,-328,0,0,0,0,0,0,0,0,0,-1,1231,1352,0,0
14,-328,0,0,0,0,0,0,0,0,0,-1,1238,1352,0,0
21,-328,0,0,0,0,0,0,0,0,0,-1,1245,1352,0,0
28,-328,0,0,0,0,0,0,0,0,0,-1,1252,1352,0,0
35,-328,0,0,0,0,0,0,0,0,0,-1,1259,1352,0,0
42,-328,0,0,0,0,0,0,0,0,0,-1,1266,1352,0,0
49,-328,0,0,0,0,0,0,0,0,0,-1,1273,1352,0,0
56,-328,0,0,0,0,0,0,0,0,0,-1,1280,1352,0,0
63,-328,0,0,0,0,0,0,0,0,0,-1,1287,1352,0,0
70,-328,0,0,0,0,0,0,0,0,0,-1,1294,1352,0,0
77,-328,0,0,0,0,0,0,0,0,0,-1,1301,1352,0,0
84,-328,0,0,0,0,0,0,0,0,0,-1,1308,1352,0,0
91,-328,0,0,0,0,0,0,0,0,0,-1,1315,1352,0,0
98,-328,0,0,0,0,0,0,0,0,0,-1,1322,1352,0,0
105,-328,0,0,0,0,0,0,0,0,0,-1,1329,1352,0,0
112,-328,0,0,0,0,0,0,0,0,0,-1,1336,1352,0,0
119,-328,0,0,0,0,0,0,0,0,0,-1,1343,1352,0,0
126,-328,0,0,0,0,0,0,0,0,0,-1,1350,1352,0,0
133,-328,0,0,0,0,0,0,0,0,0,-1,1357,1352,0,0
140,-328,0,0,0,0,0,0,0,0,0,-1,1364,1352,0,0
147,-328,0,0,0,0,0,0,0,0,0,-1,1371,1352,0,0
154,-328,0,0,0,0,0,0,0,0,0,-1,1378,1352,0,0
161,-328,0,0,0,0,0,0,0,0,0,-1,1385,1352,0,0
168,-328,0,0,0,0,0,0,0,0,0,-1,1392,1352,0,0
175,-328,0,0,0,0,0,0,0,0,0,-1,1399,1352,0,0
182,-328,0,0,0,0,0,0,0,0,0,-1,1406,1352,0,0
189,-328,0,0,0,0,0,0,0,0,0,-1,1413,1352,0,0
196,-328,0,0,0,0,0,0,0,0,0,-1,1420,1352,0,0
203,-328,0,0,0,0,0,0,0,0,0,-1,1427,1352,0,0
210,-328,0,0,0,0,0,0,0,0,0,-1,1434,1352,0,0
217,-328,0,0,0,0,0,0,0,0,0,-1,1441,1352,0,0
224,-328,0,0,0,0,0,0,0,0,0,-1,1448,1352,0,0
231,-328,0,0,0,0,0,0,0,0,0,-1,1455,1352,0,0
238,-328,0,0,0,0,0,0,0,0,0,-1,1462,1352,0,0
245,-328,0,0,0,0,0,0,0,0,0,-1,1469,1352,0,0
252,-328,0,0,0,0,0,0,0,0,0,-1,1476,1352,0,0
259,-328,0,0,0,0,0,0,0,0,0,-1,1483,1352,0,0
266,-328,0,0,0,0,0,0,0,0,0,-1,1490,1352,0,0
273,-328,0,0,0,0,0,0,0,0,0,-1,1497,1352,0,0
280,-328,0,0,0,0,0,0,0,0,0,-1,1504,1352,0,0
287,-328,0,0,0,0,0,0,0,0,0,-1,1511,1352,0,0
294,-328,0,0,0,0,0,0,0,0,0,-1,1518,1352,0,0
301,-328,0,0,0,0,0,0,0,0,0,-1,1525,1352,0,0
308,-328,0,0,0,0,0,0,0,0,0,-1,1532,1352,0,0
315,-328,0,0,0,0,0,0,0,0,0,-1,1539,1352,0,0
322,-328,0,0,0,0,0,0,0,0,0,-1,1546,1352,0,0
329,-328,0,0,0,0,0,0,0,0,0,-1,1553,1352,0,0
336,-328,0,0,0,0,0,0,0,0,0,-1,1560,1352,0,0
343,-328,0,0,0,0,0,0,0,0,0,-1,1567,1352,0,0
350,-328,0,0,0,0,0,0,0,0,0,-1,1574,1352,0,0
357,-328,0,0,0,0,0,0,0,0,0,-1,1581,1352,0,0
364,-328,0,0,0,0,0,0,0,0,0,-1,1588,1352,0,0
371,-328,0,0,0,0,0,0,0,0,0,-1,1595,1352,0,0
378,-328,0,0,0,0,0,0,0,0,0,-1,1602,1352,0,0
385,-328,0,0,0,0,0,0,0,0,0,-1,1609,1352,0,0
392,-328,0,0,0,0,0,0,0,0,0,-1,1616,1352,0,0
399,-328,0,0,0,0,0,0,0,0,0,-1,1623,1352,0,0
406,-328,0,0,0,0,0,0,0,0,0,-1,1630,1352,0,0
413,-328,0,0,0,0,0,0,0,0,0,-1,1637,1352,0,0
420,-328,0,0,0,0,0,0,0,0,0,-1,1644,1352,0,0
427,-328,0,0,0,0,0,0,0,0,0,-1,1651,1352,0,0
434,-328,0,0,0,0,0,0,0,0,0,-1,1658,1352,0,0
441,-328,0,0,0,0,0,0,0,0,0,-1,1665,1352,0,0
448,-328,0,0,0,0,0,0,0,0,0,-1,1672,1352,0,0
455,-328,0,0,0,0,0,0,0,0,0,-1,1679,1352,0,0
462,-328,0,0,0,0,0,0,0,0,0,-1,1686,1352,0,0
469,-328,0,0,0,0,0,0,0,0,0,-1,1693,1352,0,0
476,-328,0,0,0,0,0,0,0,0,0,-1,1700,1352,0,0
483,-328,0,0,0,0,0,0,0,0,0,-1,1707,1352,0,0
490,-328,0,0,0,0,0,0,0,0,0,-1,1714,1352,0,0
497,-328,0,0,0,0,0,0,0,0,0,-1,1721,1352,0,0
504,-328,0,0,0,0,0,0,0,0,0,-1,1728,1352,0,0
511,-328,0,0,0,0,0,0,0,0,0,-1,1735,1352,0,0
518,-328,0,0,0,0,0,0,0,0,0,-1,1742,1352,0,0
525,-328,0,0,0,0,0,0,0,0,0,-1,1749,1352,0,0
532,-328,0,0,0,0,0,0,0,0,0,-1,1756,1352,0,0
539,-328,0,0,0,0,0,0,0,0,0,-1,1763,1352,0,0
546,-328,0,0,0,0,0,0,0,0,0,-1,1770,1352,0,0
553,-328,0,0,0,0,0,0,0,0,0,-1,1777,1352,0,0
560,-328,0,0,0,0,0,0,0,0,0,-1,1784,1352,0,0
567,-328,0,0,0,0,0,0,0,0,0,-1,1791,1352,0,0
574,-328,65.0565,3.09021,0,0,0,0,0,0,0,-1,1798,1352,65.0565,-3.09019
581,-328,66.3988,1.74048,0,0,0,0,0,0,0,-1,1805,1352,66.3989,-1.74051
588,-328,67.0304,0.506714,0,0,0,0,0,0,0,-1,1812,1352,67.0304,-0.506669
595,-328,60.5831,1.52856,0,0,0,0,0,0,0,-1,1819,1352,60.5832,-1.52861
602,-328,48.7734,3.66785,0,0,0,0,0,0,0,-1,1826,1352,48.7734,-3.66782
609,-328,37.0468,1.17407,0,0,0,0,0,0,0,-1,1833,1352,37.0468,-1.17407
616,-328,36.999,2.42859,0,0,0,0,0,0,0,-1,1840,1352,36.999,-2.42862
623,-328,34.345,5.14722,0,0,0,0,0,0,0,-1,1847,1352,34.3449,-5.14718
630,-328,22.0211,5.026,0,0,0,0,0,0,0,-1,1854,1352,22.0212,-5.02603
637,-328,21.15,5.53699,0,0,0,0,0,0,0,-1,1861,1352,21.15,-5.53704
644,-328,16.9579,6.3396,0,0,0,0,0,0,0,-1,1868,1352,16.9579,-6.33959
651,-328,36.2629,14.6906,0,0,0,0,0,0,0,-1,1875,1352,36.263,-14.6905
658,-328,47.8848,19.2628,0,0,0,0,0,0,0,-1,1882,1352,47.8848,-19.2629
665,-328,47.8638,18.4604,0.00221451,-1.52196e-05,-0.000986276,0.00258816,-0.000388865,-0.362137,0.0018686,0.0159275,1889,1352,47.8637,-18.4604
672,-328,47.8079,17.6685,0.00197391,-7.55137e-05,-0.000724927,0.0022044,-0.000306013,-0.307853,0.00158151,0.0132061,1896,1352,47.8079,-17.6685
679,-328,47.7469,16.8496,0.00190913,-1.79203e-05,-0.000621785,0.00209234,-0.000201128,-0.28654,0.00146654,0.0164246,1903,1352,47.7469,-16.8496
686,-328,47.6732,16.0294,0.00199683,6.95415e-05,-0.000622653,0.00218049,-0.000114118,-0.286829,0.00149316,0.0169864,1910,1352,47.6732,-16.0294
693,-328,47.6375,15.2205,0.00213038,0.000246301,-0.000647132,0.00233124,4.54417e-05,-0.300955,0.00153924,0.0109412,1917,1352,47.6375,-15.2204
700,-328,47.6285,14.4089,0.00230652,0.000473029,-0.000676759,0.00252926,0.000250291,-0.317959,0.00160925,0.0149668,1924,1352,47.6286,-14.4089
707,-328,47.624,13.5942,0.00247875,0.000752859,-0.000691524,0.00272164,0.000509965,-0.337783,0.00167059,0.0172947,1931,1352,47.6241,-13.5942
714,-328,47.5723,12.7689,0.00264671,0.00113666,-0.000687105,0.00291255,0.000870818,-0.369169,0.00172627,0.0169803,1938,1352,47.5722,-12.769
721,-328,47.5153,11.8627,0,0,0,0,0,0,0,-1,1945,1352,47.5153,-11.8627
728,-328,29.2787,6.74695,0,0,0,0,0,0,0,-1,1952,1352,29.2787,-6.74693
735,-328,20.8927,5.23523,0,0,0,0,0,0,0,-1,1959,1352,20.8927,-5.23528
742,-328,20.3547,4.11316,0,0,0,0,0,0,0,-1,1966,1352,20.3547,-4.11321
749,-328,20.0669,5.66321,0,0,0,0,0,0,0,-1,1973,1352,20.0669,-5.66319
756,-328,19.9543,5.50464,0,0,0,0,0,0,0,-1,1980,1352,19.9543,-5.50463
763,-328,0,0,0,0,0,0,0,0,0,-1,1987,1352,0,0
770,-328,0,0,0,0,0,0,0,0,0,-1,1994,1352,0,0
777,-328,0,0,0,0,0,0,0,0,0,-1,2001,1352,0,0
784,-328,0,0,0,0,0,0,0,0,0,-1,2008,1352,0,0
791,-328,0,0,0,0,0,0,0,0,0,-1,2015,1352,0,0
798,-328,0,0,0,0,0,0,0,0,0,-1,2022,1352,0,0
805,-328,0,0,0,0,0,0,0,0,0,-1,2029,1352,0,0
812,-328,0,0,0,0,0,0,0,0,0,-1,2036,1352,0,0
-700,-335,0,0,0,0,0,0,0,0,0,-1,524,1359,0,0
-693,-335,0,0,0,0,0,0,0,0,0,-1,531,1359,0,0
-686,-335,0,0,0,0,0,0,0,0,0,-1,538,1359,0,0
-679,-335,0,0,0,0,0,0,0,0,0,-1,545,1359,0,0
-672,-335,0,0,0,0,0,0,0,0,0,-1,552,1359,0,0
-665,-335,0,0,0,0,0,0,0,0,0,-1,559,1359,0,0
-658,-335,0,0,0,0,0,0,0,0,0,-1,566,1359,0,0
-651,-335,0,0,0,0,0,0,0,0,0,-1,573,1359,0,0
-644,-335,0,0,0,0,0,0,0,0,0,-1,580,1359,0,0
-637,-335,-62.7114,11.0491,0,0,0,0,0,0,0,-1,587,1359,-62.7114,-11.0491
-630,-335,-64.2532,9.91284,0,0,0,0,0,0,0,-1,594,1359,-64.2532,-9.91285
-623,-335,-8.43304,1.09509,0,0,0,0,0,0,0,-1,601,1359,-8.43301,-1.09507
-616,-335,-7.80927,-0.485352,0,0,0,0,0,0,0,-1,608,1359,-7.80926,0.485291
-609,-335,-7.12256,-2.03601,0,0,0,0,0,0,0,-1,615,1359,-7.12253,2.03601
-602,-335,-9.39935,2.25146,0,0,0,0,0,0,0,-1,622,1359,-9.39935,-2.25145
-595,-335,-9.54767,3.01917,0,0,0,0,0,0,0,-1,629,1359,-9.54768,-3.01911
-588,-335,-29.9071,10.533,0,0,0,0,0,0,0,-1,636,1359,-29.9071,-10.5329
-581,-335,-30.1144,12.2764,0,0,0,0,0,0,0,-1,643,1359,-30.1144,-12.2764
-574,-335,-30.1579,13.1835,0.00397993,0.00371118,0.00256989,0.00641895,0.00127215,0.759277,0.00392459,0.0147921,650,1359,-30.1579,-13.1835
-567,-335,-30.1918,14.0997,0.00348966,0.00268254,0.00206628,0.00519142,0.000980779,0.688958,0.00318477,0.01853,657,1359,-30.1918,-14.0998
-560,-335,-30.2065,14.9054,0.00328908,0.00186494,0.00179235,0.00450563,0.000648394,0.596317,0.00281265,0.0270533,664,1359,-30.2065,-14.9054
-553,-335,-30.2885,15.674,0.00333962,0.0012138,0.00171827,0.00429716,0.000256257,0.508409,0.00278329,0.0292752,671,1359,-30.2885,-15.674
-546,-335,-30.3504,16.5411,0.00364087,0.000704542,0.00182173,0.00451241,-0.000166998,0.446229,0.00306546,0.0265829,678,1359,-30.3504,-16.5411
-539,-335,-30.3789,17.3833,0.0041951,0.000325907,0.00210129,0.00511674,-0.000595732,0.413339,0.00362609,0.0218565,685,1359,-30.3789,-17.3834
-532,-335,-30.4346,18.2581,0.00505412,8.80147e-05,0.00256167,0.00613866,-0.000996521,0.40049,0.00446186,0.015879,692,1359,-30.4345,-18.2581
-525,-335,-30.4008,19.1427,0.0062081,-1.68312e-05,0.00322834,0.00758001,-0.00138874,0.401835,0.00557422,0.013794,699,1359,-30.4007,-19.1427
-518,-335,-30.5306,19.932,0,0,0,0,0,0,0,-1,706,1359,-30.5306,-19.932
-511,-335,-17.3098,11.6718,0,0,0,0,0,0,0,-1,713,1359,-17.3097,-11.6717
-504,-335,-9.35767,5.99695,0,0,0,0,0,0,0,-1,720,1359,-9.35767,-5.99694
-497,-335,-8.75024,-0.650513,0,0,0,0,0,0,0,-1,727,1359,-8.75024,0.650521
-490,-335,-9.51971,0.417603,0,0,0,0,0,0,0,-1,734,1359,-9.51974,-0.41765
-483,-335,-10.2883,1.29224,0,0,0,0,0,0,0,-1,741,1359,-10.2883,-1.2922
-476,-335,-11.9938,-0.173462,0,0,0,0,0,0,0,-1,748,1359,-11.9938,0.173429
-469,-335,-12.8704,-0.204102,0,0,0,0,0,0,0,-1,755,1359,-12.8704,0.204117
-462,-335,-13.486,0.0218506,0,0,0,0,0,0,0,-1,762,1359,-13.4859,-0.0217908
-455,-335,-14.1504,0.549561,0,0,0,0,0,0,0,-1,769,1359,-14.1504,-0.549583
-448,-335,0,0,0,0,0,0,0,0,0,-1,776,1359,0,0
-441,-335,0,0,0,0,0,0,0,0,0,-1,783,1359,0,0
-434,-335,0,0,0,0,0,0,0,0,0,-1,790,1359,0,0
-427,-335,0,0,0,0,0,0,0,0,0,-1,797,1359,0,0
-420,-335,0,0,0,0,0,0,0,0,0,-1,804,1359,0,0
-413,-335,0,0,0,0,0,0,0,0,0,-1,811,1359,0,0
-406,-335,0,0,0,0,0,0,0,0,0,-1,818,1359,0,0
-399,-335,0,0,0,0,0,0,0,0,0,-1,825,1359,0,0
-392,-335,0,0,0,0,0,0,0,0,0,-1,832,1359,0,0
-385,-335,0,0,0,0,0,0,0,0,0,-1,839,1359,0,0
-378,-335,0,0,0,0,0,0,0,0,0,-1,846,1359,0,0
-371,-335,0,0,0,0,0,0,0,0,0,-1,853,1359,0,0
-364,-335,0,0,0,0,0,0,0,0,0,-1,860,1359,0,0
-357,-335,0,0,0,0,0,0,0,0,0,-1,867,1359,0,0
-350,-335,0,0,0,0,0,0,0,0,0,-1,874,1359,0,0
-343,-335,0,0,0,0,0,0,0,0,0,-1,881,1359,0,0
-336,-335,0,0,0,0,0,0,0,0,0,-1,888,1359,0,0
-329,-335,0,0,0,0,0,0,0,0,0,-1,895,1359,0,0
-322,-335,0,0,0,0,0,0,0,0,0,-1,902,1359,0,0
-315,-335,0,0,0,0,0,0,0,0,0,-1,909,1359,0,0
-308,-335,0,0,0,0,0,0,0,0,0,-1,916,1359,0,0
-301,-335,0,0,0,0,0,0,0,0,0,-1,923,1359,0,0
-294,-335,0,0,0,0,0,0,0,0,0,-1,930,1359,0,0
-287,-335,0,0,0,0,0,0,0,0,0,-1,937,1359,0,0
-280,-335,0,0,0,0,0,0,0,0,0,-1,944,1359,0,0
-273,-335,0,0,0,0,0,0,0,0,0,-1,951,1359,0,0
-266,-335,0,0,0,0,0,0,0,0,0,-1,958,1359,0,0
-259,-335,0,0,0,0,0,0,0,0,0,-1,965,1359,0,0
-252,-335,0,0,0,0,0,0,0,0,0,-1,972,1359,0,0
-245,-335,0,0,0,0,0,0,0,0,0,-1,979,1359,0,0
-238,-335,0,0,0,0,0,0,0,0,0,-1,986,1359,0,0
-231,-335,0,0,0,0,0,0,0,0,0,-1,993,1359,0,0
-224,-335,0,0,0,0,0,0,0,0,0,-1,1000,1359,0,0
-217,-335,0,0,0,0,0,0,0,0,0,-1,1007,1359,0,0
-210,-335,0,0,0,0,0,0,0,0,0,-1,1014,1359,0,0
-203,-335,0,0,0,0,0,0,0,0,0,-1,1021,1359,0,0
-196,-335,0,0,0,0,0,0,0,0,0,-1,1028,1359,0,0
-189,-335,0,0,0,0,0,0,0,0,0,-1,1035,1359,0,0
-182,-335,0,0,0,0,0,0,0,0,0,-1,1042,1359,0,0
-175,-335,0,0,0,0,0,0,0,0,0,-1,1049,1359,0,0
-168,-335,0,0,0,0,0,0,0,0,0,-1,1056,1359,0,0
-161,-335,0,0,0,0,0,0,0,0,0,-1,1063,1359,0,0
-154,-335,0,0,0,0,0,0,0,0,0,-1,1070,1359,0,0
-147,-335,0,0,0,0,0,0,0,0,0,-1,1077,1359,0,0
-140,-335,0,0,0,0,0,0,0,0,0,-1,1084,1359,0,0
-133,-335,0,0,0,0,0,0,0,0,0,-1,1091,1359,0,0
-126,-335,0,0,0,0,0,0,0,0,0,-1,1098,1359,0,0
-119,-335,0,0,0,0,0,0,0,0,0,-1,1105,1359,0,0
-112,-335,0,0,0,0,0,0,0,0,0,-1,1112,1359,0,0
-105,-335,0,0,0,0,0,0,0,0,0,-1,1119,1359,0,0
-98,-335,0,0,0,0,0,0,0,0,0,-1,1126,1359,0,0
-91,-335,0,0,0,0,0,0,0,0,0,-1,1133,1359,0,0
-84,-335,0,0,0,0,0,0,0,0,0,-1,1140,1359,0,0
-77,-335,0,0,0,0,0,0,0,0,0,-1,1147,1359,0,0
-70,-335,0,0,0,0,0,0,0,0,0,-1,1154,1359,0,0
-63,-335,0,0,0,0,0,0,0,0,0,-1,1161,1359,0,0
-56,-335,0,0,0,0,0,0,0,0,0,-1,1168,1359,0,0
-49,-335,0,0,0,0,0,0,0,0,0,-1,1175,1359,0,0
-42,-335,0,0,0,0,0,0,0,0,0,-1,1182,1359,0,0
-35,-335,0,0,0,0,0,0,0,0,0,-1,1189,1359,0,0
-28,-335,0,0,0,0,0,0,0,0,0,-1,1196,1359,0,0
-21,-335,0,0,0,0,0,0,0,0,0,-1,1203,1359,0,0
-14,-335,0,0,0,0,0,0,0,0,0,-1,1210,1359,0,0
-7,-335,0,0,0,0,0,0,0,0,0,-1,1217,1359,0,0
0,-335,0,0,0,0,0,0,0,0,0,-1,1224,1359,0,0
7,-335,0,0,0,0,0,0,0,0,0,-1,1231,1359,0,0
14,-335,0,0,0,0,0,0,0,0,0,-1,1238,1359,0,0
21,-335,0,0,0,0,0,0,0,0,0,-1,1245,1359,0,0
28,-335,0,0,0,0,0,0,0,0,0,-1,1252,1359,0,0
35,-335,0,0,0,0,0,0,0,0,0,-1,1259,1359,0,0
42,-335,0,0,0,0,0,0,0,0,0,-1,1266,1359,0,0
49,-335,0,0,0,0,0,0,0,0,0,-1,1273,1359,0,0
56,-335,0,0,0,0,0,0,0,0,0,-1,1280,1359,0,0
63,-335,0,0,0,0,0,0,0,0,0,-1,1287,1359,0,0
70,-335,0,0,0,0,0,0,0,0,0,-1,1294,1359,0,0
77,-335,0,0,0,0,0,0,0,0,0,-1,1301,1359,0,0
84,-335,0,0,0,0,0,0,0,0,0,-1,1308,1359,0,0
91,-335,0,0,0,0,0,0,0,0,0,-1,1315,1359,0,0
98,-335,0,0,0,0,0,0,0,0,0,-1,1322,1359,0,0
105,-335,0,0,0,0,0,0,0,0,0,-1,1329,1359,0,0
112,-335,0,0,0,0,0,0,0,0,0,-1,1336,1359,0,0
119,-335,0,0,0,0,0,0,0,0,0,-1,1343,1359,0,0
126,-335,0,0,0,0,0,0,0,0,0,-1,1350,1359,0,0
133,-335,0,0,0,0,0,0,0,0,0,-1,1357,1359,0,0
140,-335,0,0,0,0,0,0,0,0,0,-1,1364,1359,0,0
147,-335,0,0,0,0,0,0,0,0,0,-1,1371,1359,0,0
154,-335,0,0,0,0,0,0,0,0,0,-1,1378,1359,0,0
161,-335,0,0,0,0,0,0,0,0,0,-1,1385,1359,0,0
168,-335,0,0,0,0,0,0,0,0,0,-1,1392,1359,0,0
175,-335,0,0,0,0,0,0,0,0,0,-1,1399,1359,0,0
182,-335,0,0,0,0,0,0,0,0,0,-1,1406,1359,0,0
189,-335,0,0,0,0,0,0,0,0,0,-1,1413,1359,0,0
196,-335,0,0,0,0,0,0,0,0,0,-1,1420,1359,0,0
203,-335,0,0,0,0,0,0,0,0,0,-1,1427,1359,0,0
210,-335,0,0,0,0,0,0,0,0,0,-1,1434,1359,0,0
217,-335,0,0,0,0,0,0,0,0,0,-1,1441,1359,0,0
224,-335,0,0,0,0,0,0,0,0,0,-1,1448,1359,0,0
231,-335,0,0,0,0,0,0,0,0,0,-1,1455,1359,0,0
238,-335,0,0,0,0,0,0,0,0,0,-1,1462,1359,0,0
245,-335,0,0,0,0,0,0,0,0,0,-1,1469,1359,0,0
252,-335,0,0,0,0,0,0,0,0,0,-1,1476,1359,0,0
259,-335,0,0,0,0,0,0,0,0,0,-1,1483,1359,0,0
266,-335,0,0,0,0,0,0,0,0,0,-1,1490,1359,0,0
273,-335,0,0,0,0,0,0,0,0,0,-1,1497,1359,0,0
280,-335,0,0,0,0,0,0,0,0,0,-1,1504,1359,0,0
287,-335,0,0,0,0,0,0,0,0,0,-1,1511,1359,0,0
294,-335,0,0,0,0,0,0,0,0,0,-1,1518,1359,0,0
301,-335,0,0,0,0,0,0,0,0,0,-1,1525,1359,0,0
308,-335,0,0,0,0,0,0,0,0,0,-1,1532,1359,0,0
315,-335,0,0,0,0,0,0,0,0,0,-1,1539,1359,0,0
322,-335,0,0,0,0,0,0,0,0,0,-1,1546,1359,0,0
329,-335,0,0,0,0,0,0,0,0,0,-1,1553,1359,0,0
336,-335,0,0,0,0,0,0,0,0,0,-1,1560,1359,0,0
343,-335,0,0,0,0,0,0,0,0,0,-1,1567,1359,0,0
350,-335,0,0,0,0,0,0,0,0,0,-1,1574,1359,0,0
357,-335,0,0,0,0,0,0,0,0,0,-1,1581,1359,0,0
364,-335,0,0,0,0,0,0,0,0,0,-1,1588,1359,0,0
371,-335,0,0,0,0,0,0,0,0,0,-1,1595,1359,0,0
378,-335,0,0,0,0,0,0,0,0,0,-1,1602,1359,0,0
385,-335,0,0,0,0,0,0,0,0,0,-1,1609,1359,0,0
392,-335,0,0,0,0,0,0,0,0,0,-1,1616,1359,0,0
399,-335,0,0,0,0,0,0,0,0,0,-1,1623,1359,0,0
406,-335,0,0,0,0,0,0,0,0,0,-1,1630,1359,0,0
413,-335,0,0,0,0,0,0,0,0,0,-1,1637,1359,0,0
420,-335,0,0,0,0,0,0,0,0,0,-1,1644,1359,0,0
427,-335,0,0,0,0,0,0,0,0,0,-1,1651,1359,0,0
434,-335,0,0,0,0,0,0,0,0,0,-1,1658,1359,0,0
441,-335,0,0,0,0,0,0,0,0,0,-1,1665,1359,0,0
448,-335,0,0,0,0,0,0,0,0,0,-1,1672,1359,0,0
455,-335,0,0,0,0,0,0,0,0,0,-1,1679,1359,0,0
462,-335,0,0,0,0,0,0,0,0,0,-1,1686,1359,0,0
469,-335,0,0,0,0,0,0,0,0,0,-1,1693,1359,0,0
476,-335,0,0,0,0,0,0,0,0,0,-1,1700,1359,0,0
483,-335,0,0,0,0,0,0,0,0,0,-1,1707,1359,0,0
490,-335,0,0,0,0,0,0,0,0,0,-1,1714,1359,0,0
497,-335,0,0,0,0,0,0,0,0,0,-1,1721,1359,0,0
504,-335,0,0,0,0,0,0,0,0,0,-1,1728,1359,0,0
511,-335,0,0,0,0,0,0,0,0,0,-1,1735,1359,0,0
518,-335,0,0,0,0,0,0,0,0,0,-1,1742,1359,0,0
525,-335,0,0,0,0,0,0,0,0,0,-1,1749,1359,0,0
532,-335,0,0,0,0,0,0,0,0,0,-1,1756,1359,0,0
539,-335,0,0,0,0,0,0,0,0,0,-1,1763,1359,0,0
546,-335,0,0,0,0,0,0,0,0,0,-1,1770,1359,0,0
553,-335,0,0,0,0,0,0,0,0,0,-1,1777,1359,0,0
560,-335,0,0,0,0,0,0,0,0,0,-1,1784,1359,0,0
567,-335,0,0,0,0,0,0,0,0,0,-1,1791,1359,0,0
574,-335,65.0712,2.80188,0,0,0,0,0,0,0,-1,1798,1359,65.0712,-2.80193
581,-335,66.5206,1.60327,0,0,0,0,0,0,0,-1,1805,1359,66.5206,-1.60333
588,-335,67.826,0.334961,0,0,0,0,0,0,0,-1,1812,1359,67.8261,-0.335018
595,-335,49.984,3.76465,0,0,0,0,0,0,0,-1,1819,1359,49.984,-3.76467
602,-335,36.5643,0.0861816,0,0,0,0,0,0,0,-1,1826,1359,36.5643,-0.0862283
609,-335,36.2933,0.993896,0,0,0,0,0,0,0,-1,1833,1359,36.2934,-0.993911
616,-335,34.6969,4.82666,0,0,0,0,0,0,0,-1,1840,1359,34.6969,-4.82667
623,-335,26.6051,6.54333,0,0,0,0,0,0,0,-1,1847,1359,26.6051,-6.54339
630,-335,19.1707,1.00952,0,0,0,0,0,0,0,-1,1854,1359,19.1707,-1.00953
637,-335,18.2009,6.65454,0,0,0,0,0,0,0,-1,1861,1359,18.2009,-6.6546
644,-335,28.1042,12.067,0,0,0,0,0,0,0,-1,1868,1359,28.1042,-12.067
651,-335,46.949,20.3663,0,0,0,0,0,0,0,-1,1875,1359,46.949,-20.3663
658,-335,47.0389,19.4055,0.00161504,0.000489082,-0.000838612,0.00206211,4.20031e-05,-0.48979,0.00136096,0.0444239,1882,1359,47.0389,-19.4056
665,-335,47.0278,18.5319,0.0016124,0.000105853,-0.000599421,0.00182179,-0.00010354,-0.336074,0.00125047,0.0154401,1889,1359,47.0278,-18.5319
672,-335,47.0001,17.7136,0.00170222,1.41305e-05,-0.000584926,0.00188509,-0.000168737,-0.303007,0.00131658,0.0181483,1896,1359,47.0001,-17.7137
679,-335,46.9587,16.9064,0.00185452,6.2025e-05,-0.000624221,0.00205048,-0.000133933,-0.304181,0.00141374,0.0162889,1903,1359,46.9587,-16.9064
686,-335,46.9109,16.0811,0.00208993,0.000191816,-0.000731256,0.00233897,-5.72271e-05,-0.328249,0.00157874,0.0142268,1910,1359,46.9109,-16.081
693,-335,46.8409,15.2764,0.00239665,0.000410946,-0.000888852,0.00273639,7.12012e-05,-0.365093,0.001801,0.0115469,1917,1359,46.841,-15.2764
700,-335,46.8,14.4954,0.00276516,0.000702901,-0.0010765,0.0032247,0.000243363,-0.403462,0.00207345,0.0116483,1924,1359,46.8,-14.4953
707,-335,46.7697,13.6838,0.00314185,0.00105532,-0.00126856,0.00374104,0.000456135,-0.441273,0.00235674,0.0148251,1931,1359,46.7696,-13.6839
714,-335,46.769,12.7332,0.00357827,0.00156596,-0.00148859,0.00436885,0.000775382,-0.488211,0.0026916,0.0362569,1938,1359,46.769,-12.7332
721,-335,46.6625,11.6904,0,0,0,0,0,0,0,-1,1945,1359,46.6624,-11.6904
728,-335,20.8126,5.21167,0,0,0,0,0,0,0,-1,1952,1359,20.8127,-5.21172
735,-335,20.2725,5.34729,0,0,0,0,0,0,0,-1,1959,1359,20.2724,-5.34734
742,-335,19.8624,4.72229,0,0,0,0,0,0,0,-1,1966,1359,19.8624,-4.72225
749,-335,20.5887,6.05322,0,0,0,0,0,0,0,-1,1973,1359,20.5887,-6.05322
756,-335,20.7832,6.00452,0,0,0,0,0,0,0,-1,1980,1359,20.7832,-6.00447
763,-335,0,0,0,0,0,0,0,0,0,-1,1987,1359,0,0
770,-335,0,0,0,0,0,0,0,0,0,-1,1994,1359,0,0
777,-335,0,0,0,0,0,0,0,0,0,-1,2001,1359,0,0
784,-335,0,0,0,0,0,0,0,0,0,-1,2008,1359,0,0
791,-335,0,0,0,0,0,0,0,0,0,-1,2015,1359,0,0
798,-335,0,0,0,0,0,0,0,0,0,-1,2022,1359,0,0
805,-335,0,0,0,0,0,0,0,0,0,-1,2029,1359,0,0
812,-335,0,0,0,0,0,0,0,0,0,-1,2036,1359,0,0
-700,-342,0,0,0,0,0,0,0,0,0,-1,524,1366,0,0
-693,-342,0,0,0,0,0,0,0,0,0,-1,531,1366,0,0
-686,-342,0,0,0,0,0,0,0,0,0,-1,538,1366,0,0
-679,-342,0,0,0,0,0,0,0,0,0,-1,545,1366,0,0
-672,-342,0,0,0,0,0,0,0,0,0,-1,552,1366,0,0
-665,-342,0,0,0,0,0,0,0,0,0,-1,559,1366,0,0
-658,-342,0,0,0,0,0,0,0,0,0,-1,566,1366,0,0
-651,-342,0,0,0,0,0,0,0,0,0,-1,573,1366,0,0
-644,-342,0,0,0,0,0,0,0,0,0,-1,580,1366,0,0
-637,-342,-63.7546,12.2344,0,0,0,0,0,0,0,-1,587,1366,-63.7546,-12.2343
-630,-342,-8.60132,2.71777,0,0,0,0,0,0,0,-1,594,1366,-8.60135,-2.71779
-623,-342,-8.41168,0.662476,0,0,0,0,0,0,0,-1,601,1366,-8.41168,-0.662442
-616,-342,-6.625,-1.28015,0,0,0,0,0,0,0,-1,608,1366,-6.62499,1.28011
-609,-342,-7.83154,0.674561,0,0,0,0,0,0,0,-1,615,1366,-7.83155,-0.674598
-602,-342,-9.65765,2.25195,0,0,0,0,0,0,0,-1,622,1366,-9.65767,-2.25192
-595,-342,-9.47687,3.00671,0,0,0,0,0,0,0,-1,629,1366,-9.47686,-3.00668
-588,-342,-9.78467,3.57727,0,0,0,0,0,0,0,-1,636,1366,-9.78468,-3.57723
-581,-342,-29.424,12.382,0,0,0,0,0,0,0,-1,643,1366,-29.4239,-12.3819
-574,-342,-29.3467,13.2113,0.00473897,0.00421865,0.00302521,0.00751518,0.00144243,0.742505,0.00460524,0.0187321,650,1366,-29.3468,-13.2113
-567,-342,-29.3135,14.1167,0.00396008,0.00303431,0.00237744,0.00591927,0.00107512,0.689252,0.00364111,0.0190588,657,1366,-29.3136,-14.1166
-560,-342,-29.3657,14.8994,0.00351659,0.00209758,0.0019637,0.00489503,0.000719139,0.612041,0.00305201,0.0284965,664,1366,-29.3657,-14.8995
-553,-342,-29.4233,15.6545,0.00335316,0.00135509,0.00176439,0.00438172,0.000326526,0.527792,0.00281862,0.0310423,671,1366,-29.4234,-15.6545
-546,-342,-29.4752,16.5182,0.00343961,0.00077877,0.00174424,0.0043029,-8.45275e-05,0.459593,0.00289719,0.0297018,678,1366,-29.4752,-16.5181
-539,-342,-29.5358,17.4231,0.00377461,0.000340703,0.00188821,0.00460977,-0.000494454,0.416433,0.00325056,0.0237284,685,1366,-29.5358,-17.4231
-532,-342,-29.5805,18.3275,0.00438908,5.02161e-05,0.00220325,0.0053117,-0.0008724,0.396566,0.00386489,0.0181675,692,1366,-29.5805,-18.3275
-525,-342,-29.5691,19.1987,0.00527844,-8.51737e-05,0.002703,0.0064043,-0.00121103,0.394667,0.00472522,0.0148628,699,1366,-29.5691,-19.1987
-518,-342,-29.5631,20.048,0.00655619,5.97608e-05,0.0034831,0.00807063,-0.00145468,0.410139,0.00592514,0.0466296,706,1366,-29.5631,-20.048
-511,-342,-29.5832,20.876,0,0,0,0,0,0,0,-1,713,1366,-29.5832,-20.876
-504,-342,-8.95709,6.5719,0,0,0,0,0,0,0,-1,720,1366,-8.95707,-6.57192
-497,-342,-8.26587,-0.943604,0,0,0,0,0,0,0,-1,727,1366,-8.26586,0.943543
-490,-342,-9.07153,-0.0227051,0,0,0,0,0,0,0,-1,734,1366,-9.07155,0.0227087
-483,-342,-9.87726,0.898071,0,0,0,0,0,0,0,-1,741,1366,-9.87724,-0.898125
-476,-342,-11.6371,-0.736328,0,0,0,0,0,0,0,-1,748,1366,-11.6371,0.736281
-469,-342,-12.6245,-0.987549,0,0,0,0,0,0,0,-1,755,1366,-12.6245,0.987553
-462,-342,-13.0912,-0.533203,0,0,0,0,0,0,0,-1,762,1366,-13.0912,0.533224
-455,-342,-13.7612,0.122925,0,0,0,0,0,0,0,-1,769,1366,-13.7612,-0.122896
-448,-342,-14.5278,0.826904,0,0,0,0,0,0,0,-1,776,1366,-14.5277,-0.826861
-441,-342,0,0,0,0,0,0,0,0,0,-1,783,1366,0,0
-434,-342,0,0,0,0,0,0,0,0,0,-1,790,1366,0,0
-427,-342,0,0,0,0,0,0,0,0,0,-1,797,1366,0,0
-420,-342,0,0,0,0,0,0,0,0,0,-1,804,1366,0,0
-413,-342,0,0,0,0,0,0,0,0,0,-1,811,1366,0,0
-406,-342,0,0,0,0,0,0,0,0,0,-1,818,1366,0,0
-399,-342,0,0,0,0,0,0,0,0,0,-1,825,1366,0,0
-392,-342,0,0,0,0,0,0,0,0,0,-1,832,1366,0,0
-385,-342,0,0,0,0,0,0,0,0,0,-1,839,1366,0,0
-378,-342,0,0,0,0,0,0,0,0,0,-1,846,1366,0,0
-371,-342,0,0,0,0,0,0,0,0,0,-1,853,1366,0,0
-364,-342,0,0,0,0,0,0,0,0,0,-1,860,1366,0,0
-357,-342,0,0,0,0,0,0,0,0,0,-1,867,1366,0,0
-350,-342,0,0,0,0,0,0,0,0,0,-1,874,1366,0,0
-343,-342,0,0,0,0,0,0,0,0,0,-1,881,1366,0,0
-336,-342,0,0,0,0,0,0,0,0,0,-1,888,1366,0,0
-329,-342,0,0,0,0,0,0,0,0,0,-1,895,1366,0,0
-322,-342,0,0,0,0,0,0,0,0,0,-1,902,1366,0,0
-315,-342,0,0,0,0,0,0,0,0,0,-1,909,1366,0,0
-308,-342,0,0,0,0,0,0,0,0,0,-1,916,1366,0,0
-301,-342,0,0,0,0,0,0,0,0,0,-1,923,1366,0,0
-294,-342,0,0,0,0,0,0,0,0,0,-1,930,1366,0,0
-287,-342,0,0,0,0,0,0,0,0,0,-1,937,1366,0,0
-280,-342,0,0,0,0,0,0,0,0,0,-1,944,1366,0,0
-273,-342,0,0,0,0,0,0,0,0,0,-1,951,1366,0,0
-266,-342,0,0,0,0,0,0,0,0,0,-1,958,1366,0,0
-259,-342,0,0,0,0,0,0,0,0,0,-1,965,1366,0,0
-252,-342,0,0,0,0,0,0,0,0,0,-1,972,1366,0,0
-245,-342,0,0,0,0,0,0,0,0,0,-1,979,1366,0,0
-238,-342,0,0,0,0,0,0,0,0,0,-1,986,1366,0,0
-231,-342,0,0,0,0,0,0,0,0,0,-1,993,1366,0,0
-224,-342,0,0,0,0,0,0,0,0,0,-1,1000,1366,0,0
-217,-342,0,0,0,0,0,0,0,0,0,-1,1007,1366,0,0
-210,-342,0,0,0,0,0,0,0,0,0,-1,1014,1366,0,0
-203,-342,0,0,0,0,0,0,0,0,0,-1,1021,1366,0,0
-196,-342,0,0,0,0,0,0,0,0,0,-1,1028,1366,0,0
-189,-342,0,0,0,0,0,0,0,0,0,-1,1035,1366,0,0
-182,-342,0,0,0,0,0,0,0,0,0,-1,1042,1366,0,0
-175,-342,0,0,0,0,0,0,0,0,0,-1,1049,1366,0,0
-168,-342,0,0,0,0,0,0,0,0,0,-1,1056,1366,0,0
-161,-342,0,0,0,0,0,0,0,0,0,-1,1063,1366,0,0
-154,-342,0,0,0,0,0,0,0,0,0,-1,1070,1366,0,0
-147,-342,0,0,0,0,0,0,0,0,0,-1,1077,1366,0,0
-140,-342,0,0,0,0,0,0,0,0,0,-1,1084,1366,0,0
-133,-342,0,0,0,0,0,0,0,0,0,-1,1091,1366,0,0
-126,-342,0,0,0,0,0,0,0,0,0,-1,1098,1366,0,0
-119,-342,0,0,0,0,0,0,0,0,0,-1,1105,1366,0,0
-112,-342,0,0,0,0,0,0,0,0,0,-1,1112,1366,0,0
-105,-342,0,0,0,0,0,0,0,0,0,-1,1119,1366,0,0
-98,-342,0,0,0,0,0,0,0,0,0,-1,1126,1366,0,0
-91,-342,0,0,0,0,0,0,0,0,0,-1,1133,1366,0,0
-84,-342,0,0,0,0,0,0,0,0,0,-1,1140,1366,0,0
-77,-342,0,0,0,0,0,0,0,0,0,-1,1147,1366,0,0
-70,-342,0,0,0,0,0,0,0,0,0,-1,1154,1366,0,0
-63,-342,0,0,0,0,0,0,0,0,0,-1,1161,1366,0,0
-56,-342,0,0,0,0,0,0,0,0,0,-1,1168,1366,0,0
-49,-342,0,0,0,0,0,0,0,0,0,-1,1175,1366,0,0
-42,-342,0,0,0,0,0,0,0,0,0,-1,1182,1366,0,0
-35,-342,0,0,0,0,0,0,0,0,0,-1,1189,1366,0,0
-28,-342,0,0,0,0,0,0,0,0,0,-1,1196,1366,0,0
-21,-342,0,0,0,0,0,0,0,0,0,-1,1203,1366,0,0
-14,-342,0,0,0,0,0,0,0,0,0,-1,1210,1366,0,0
-7,-342,0,0,0,0,0,0,0,0,0,-1,1217,1366,0,0
0,-342,0,0,0,0,0,0,0,0,0,-1,1224,1366,0,0
7,-342,0,0,0,0,0,0,0,0,0,-1,1231,1366,0,0
14,-342,0,0,0,0,0,0,0,0,0,-1,1238,1366,0,0
21,-342,0,0,0,0,0,0,0,0,0,-1,1245,1366,0,0
28,-342,0,0,0,0,0,0,0,0,0,-1,1252,1366,0,0
35,-342,0,0,0,0,0,0,0,0,0,-1,1259,1366,0,0
42,-342,0,0,0,0,0,0,0,0,0,-1,1266,1366,0,0
49,-342,0,0,0,0,0,0,0,0,0,-1,1273,1366,0,0
56,-342,0,0,0,0,0,0,0,0,0,-1,1280,1366,0,0
63,-342,0,0,0,0,0,0,0,0,0,-1,1287,1366,0,0
70,-342,0,0,0,0,0,0,0,0,0,-1,1294,1366,0,0
77,-342,0,0,0,0,0,0,0,0,0,-1,1301,1366,0,0
84,-342,0,0,0,0,0,0,0,0,0,-1,1308,1366,0,0
91,-342,0,0,0,0,0,0,0,0,0,-1,1315,1366,0,0
98,-342,0,0,0,0,0,0,0,0,0,-1,1322,1366,0,0
105,-342,0,0,0,0,0,0,0,0,0,-1,1329,1366,0,0
112,-342,0,0,0,0,0,0,0,0,0,-1,1336,1366,0,0
119,-342,0,0,0,0,0,0,0,0,0,-1,1343,1366,0,0
126,-342,0,0,0,0,0,0,0,0,0,-1,1350,1366,0,0
133,-342,0,0,0,0,0,0,0,0,0,-1,1357,1366,0,0
140,-342,0,0,0,0,0,0,0,0,0,-1,1364,1366,0,0
147,-342,0,0,0,0,0,0,0,0,0,-1,1371,1366,0,0
154,-342,0,0,0,0,0,0,0,0,0,-1,1378,1366,0,0
161,-342,0,0,0,0,0,0,0,0,0,-1,1385,1366,0,0
168,-342,0,0,0,0,0,0,0,0,0,-1,1392,1366,0,0
175,-342,0,0,0,0,0,0,0,0,0,-1,1399,1366,0,0
182,-342,0,0,0,0,0,0,0,0,0,-1,1406,1366,0,0
189,-342,0,0,0,0,0,0,0,0,0,-1,1413,1366,0,0
196,-342,0,0,0,0,0,0,0,0,0,-1,1420,1366,0,0
203,-342,0,0,0,0,0,0,0,0,0,-1,1427,1366,0,0
210,-342,0,0,0,0,0,0,0,0,0,-1,1434,1366,0,0
217,-342,0,0,0,0,0,0,0,0,0,-1,1441,1366,0,0
224,-342,0,0,0,0,0,0,0,0,0,-1,1448,1366,0,0
231,-342,0,0,0,0,0,0,0,0,0,-1,1455,1366,0,0
238,-342,0,0,0,0,0,0,0,0,0,-1,1462,1366,0,0
245,-342,0,0,0,0,0,0,0,0,0,-1,1469,1366,0,0
252,-342,0,0,0,0,0,0,0,0,0,-1,1476,1366,0,0
259,-342,0,0,0,0,0,0,0,0,0,-1,1483,1366,0,0
266,-342,0,0,0,0,0,0,0,0,0,-1,1490,1366,0,0
273,-342,0,0,0,0,0,0,0,0,0,-1,1497,1366,0,0
280,-342,0,0,0,0,0,0,0,0,0,-1,1504,1366,0,0
287,-342,0,0,0,0,0,0,0,0,0,-1,1511,1366,0,0
294,-342,0,0,0,0,0,0,0,0,0,-1,1518,1366,0,0
301,-342,0,0,0,0,0,0,0,0,0,-1,1525,1366,0,0
308,-342,0,0,0,0,0,0,0,0,0,-1,1532,1366,0,0
315,-342,0,0,0,0,0,0,0,0,0,-1,1539,1366,0,0
322,-342,0,0,0,0,0,0,0,0,0,-1,1546,1366,0,0
329,-342,0,0,0,0,0,0,0,0,0,-1,1553,1366,0,0
336,-342,0,0,0,0,0,0,0,0,0,-1,1560,1366,0,0
343,-342,0,0,0,0,0,0,0,0,0,-1,1567,1366,0,0
350,-342,0,0,0,0,0,0,0,0,0,-1,1574,1366,0,0
357,-342,0,0,0,0,0,0,0,0,0,-1,1581,1366,0,0
364,-342,0,0,0,0,0,0,0,0,0,-1,1588,1366,0,0
371,-342,0,0,0,0,0,0,0,0,0,-1,1595,1366,0,0
378,-342,0,0,0,0,0,0,0,0,0,-1,1602,1366,0,0
385,-342,0,0,0,0,0,0,0,0,0,-1,1609,1366,0,0
392,-342,0,0,0,0,0,0,0,0,0,-1,1616,1366,0,0
399,-342,0,0,0,0,0,0,0,0,0,-1,1623,1366,0,0
406,-342,0,0,0,0,0,0,0,0,0,-1,1630,1366,0,0
413,-342,0,0,0,0,0,0,0,0,0,-1,1637,1366,0,0
420,-342,0,0,0,0,0,0,0,0,0,-1,1644,1366,0,0
427,-342,0,0,0,0,0,0,0,0,0,-1,1651,1366,0,0
434,-342,0,0,0,0,0,0,0,0,0,-1,1658,1366,0,0
441,-342,0,0,0,0,0,0,0,0,0,-1,1665,1366,0,0
448,-342,0,0,0,0,0,0,0,0,0,-1,1672,1366,0,0
455,-342,0,0,0,0,0,0,0,0,0,-1,1679,1366,0,0
462,-342,0,0,0,0,0,0,0,0,0,-1,1686,1366,0,0
469,-342,0,0,0,0,0,0,0,0,0,-1,1693,1366,0,0
476,-342,0,0,0,0,0,0,0,0,0,-1,1700,1366,0,0
483,-342,0,0,0,0,0,0,0,0,0,-1,1707,1366,0,0
490,-342,0,0,0,0,0,0,0,0,0,-1,1714,1366,0,0
497,-342,0,0,0,0,0,0,0,0,0,-1,1721,1366,0,0
504,-342,0,0,0,0,0,0,0,0,0,-1,1728,1366,0,0
511,-342,0,0,0,0,0,0,0,0,0,-1,1735,1366,0,0
518,-342,0,0,0,0,0,0,0,0,0,-1,1742,1366,0,0
525,-342,0,0,0,0,0,0,0,0,0,-1,1749,1366,0,0
532,-342,0,0,0,0,0,0,0,0,0,-1,1756,1366,0,0
539,-342,0,0,0,0,0,0,0,0,0,-1,1763,1366,0,0
546,-342,0,0,0,0,0,0,0,0,0,-1,1770,1366,0,0
553,-342,0,0,0,0,0,0,0,0,0,-1,1777,1366,0,0
560,-342,0,0,0,0,0,0,0,0,0,-1,1784,1366,0,0
567,-342,64.6937,3.24878,0,0,0,0,0,0,0,-1,1791,1366,64.6938,-3.24881
574,-342,65.4669,2.18384,0,0,0,0,0,0,0,-1,1798,1366,65.4669,-2.18381
581,-342,66.542,1.36292,0,0,0,0,0,0,0,-1,1805,1366,66.542,-1.36295
588,-342,43.9108,7.22559,0,0,0,0,0,0,0,-1,1812,1366,43.9107,-7.22554
595,-342,35.7993,0.709961,0,0,0,0,0,0,0,-1,1819,1366,35.7993,-0.709913
602,-342,36.3618,3.28723,0,0,0,0,0,0,0,-1,1826,1366,36.3619,-3.28719
609,-342,35.3777,4.14978,0,0,0,0,0,0,0,-1,1833,1366,35.3777,-4.14976
616,-342,34.199,5.8158,0,0,0,0,0,0,0,-1,1840,1366,34.199,-5.81579
623,-342,26.0299,6.86865,0,0,0,0,0,0,0,-1,1847,1366,26.0299,-6.86863
630,-342,17.3431,0.773071,0,0,0,0,0,0,0,-1,1854,1366,17.3432,-0.773095
637,-342,16.196,6.76172,0,0,0,0,0,0,0,-1,1861,1366,16.1961,-6.76174
644,-342,31.8916,14.0614,0,0,0,0,0,0,0,-1,1868,1366,31.8916,-14.0613
651,-342,46.1964,20.2886,0,0,0,0,0,0,0,-1,1875,1366,46.1964,-20.2886
658,-342,46.2312,19.4149,0.00130071,0.000437747,-0.000691937,0.00168468,5.37822e-05,-0.506607,0.00110563,0.0236842,1882,1366,46.2313,-19.415
665,-342,46.2246,18.533,0.00143176,0.000131673,-0.000527953,0.00161914,-5.57147e-05,-0.341063,0.00109847,0.0189532,1889,1366,46.2246,-18.5329
672,-342,46.1823,17.7723,0.0016459,7.65114e-05,-0.000564426,0.00182781,-0.000105398,-0.311779,0.00125515,0.0147718,1896,1366,46.1822,-17.7723
679,-342,46.1295,16.9861,0.00193331,0.00012777,-0.000687406,0.00216523,-0.000104149,-0.325392,0.00147943,0.0136131,1903,1366,46.1295,-16.986
686,-342,46.1155,16.1744,0.0023131,0.000286153,-0.000908984,0.00266102,-6.17623e-05,-0.365549,0.00179495,0.0122447,1910,1366,46.1154,-16.1745
693,-342,46.0219,15.3468,0.00278171,0.000525818,-0.00120619,0.00330517,2.35636e-06,-0.409453,0.00220266,0.0127818,1917,1366,46.0218,-15.3468
700,-342,45.9731,14.5435,0.00332849,0.000858786,-0.00156903,0.00409031,9.69649e-05,-0.452011,0.00269513,0.0143613,1924,1366,45.9731,-14.5435
707,-342,45.9476,13.6876,0.00388417,0.00124113,-0.00195757,0.00492454,0.00020076,-0.488495,0.00321819,0.0146578,1931,1366,45.9477,-13.6877
714,-342,45.9526,12.8284,0,0,0,0,0,0,0,-1,1938,1366,45.9526,-12.8283
721,-342,22.4666,6.08679,0,0,0,0,0,0,0,-1,1945,1366,22.4666,-6.08678
728,-342,19.8912,5.26636,0,0,0,0,0,0,0,-1,1952,1366,19.8913,-5.26636
735,-342,19.481,4.41968,0,0,0,0,0,0,0,-1,1959,1366,19.4809,-4.41962
742,-342,19.309,2.66943,0,0,0,0,0,0,0,-1,1966,1366,19.3089,-2.66948
749,-342,21.0934,6.47729,0,0,0,0,0,0,0,-1,1973,1366,21.0934,-6.4773
756,-342,0,0,0,0,0,0,0,0,0,-1,1980,1366,0,0
763,-342,0,0,0,0,0,0,0,0,0,-1,1987,1366,0,0
770,-342,0,0,0,0,0,0,0,0,0,-1,1994,1366,0,0
777,-342,0,0,0,0,0,0,0,0,0,-1,2001,1366,0,0
784,-342,0,0,0,0,0,0,0,0,0,-1,2008,1366,0,0
791,-342,0,0,0,0,0,0,0,0,0,-1,2015,1366,0,0
798,-342,0,0,0,0,0,0,0,0,0,-1,2022,1366,0,0
805,-342,0,0,0,0,0,0,0,0,0,-1,2029,1366,0,0
812,-342,0,0,0,0,0,0,0,0,0,-1,2036,1366,0,0
-700,-349,0,0,0,0,0,0,0,0,0,-1,524,1373,0,0
-693,-349,0,0,0,0,0,0,0,0,0,-1,531,1373,0,0
-686,-349,0,0,0,0,0,0,0,0,0,-1,538,1373,0,0
-679,-349,0,0,0,0,0,0,0,0,0,-1,545,1373,0,0
-672,-349,0,0,0,0,0,0,0,0,0,-1,552,1373,0,0
-665,-349,0,0,0,0,0,0,0,0,0,-1,559,1373,0,0
-658,-349,0,0,0,0,0,0,0,0,0,-1,566,1373,0,0
-651,-349,0,0,0,0,0,0,0,0,0,-1,573,1373,0,0
-644,-349,0,0,0,0,0,0,0,0,0,-1,580,1373,0,0
-637,-349,0,0,0,0,0,0,0,0,0,-1,587,1373,0,0
-630,-349,-7.64117,-5.06177,0,0,0,0,0,0,0,-1,594,1373,-7.64118,5.0618
-623,-349,-8.63507,0.51123,0,0,0,0,0,0,0,-1,601,1373,-8.63505,-0.511275
-616,-349,-5.2066,-0.188232,0,0,0,0,0,0,0,-1,608,1373,-5.20659,0.188211
-609,-349,-7.12073,1.37048,0,0,0,0,0,0,0,-1,615,1373,-7.12072,-1.37044
-602,-349,-9.00623,3.39587,0,0,0,0,0,0,0,-1,622,1373,-9.0062,-3.39591
-595,-349,-9.50568,2.96912,0,0,0,0,0,0,0,-1,629,1373,-9.50569,-2.96906
-588,-349,-8.60046,3.56042,0,0,0,0,0,0,0,-1,636,1373,-8.60046,-3.56047
-581,-349,-28.3455,12.3792,0,0,0,0,0,0,0,-1,643,1373,-28.3455,-12.3792
-574,-349,-28.4495,13.1693,0.00569589,0.00479979,0.00373906,0.00901365,0.00148204,0.725768,0.00558107,0.0464109,650,1373,-28.4495,-13.1693
-567,-349,-28.5143,14.1224,0.00464904,0.00343445,0.00288261,0.00698764,0.00109586,0.681579,0.00433951,0.0201468,657,1373,-28.5143,-14.1224
-560,-349,-28.5459,14.9784,0.00397594,0.00237787,0.00228281,0.00559552,0.000758296,0.617051,0.00350503,0.0235454,664,1373,-28.5459,-14.9783
-553,-349,-28.5332,15.7412,0.00361146,0.00155997,0.0019335,0.00477445,0.000396976,0.54152,0.00305924,0.0291885,671,1373,-28.5332,-15.7412
-546,-349,-28.5729,16.5835,0.00348376,0.000924464,0.0017639,0.00438329,2.49306e-05,0.471591,0.00291392,0.0313272,678,1373,-28.5729,-16.5835
-539,-349,-28.6667,17.4734,0.00358918,0.000439524,0.00175752,0.00437422,-0.000345515,0.420084,0.00303787,0.0240606,685,1373,-28.6667,-17.4734
-532,-349,-28.721,18.3787,0.00394524,9.94834e-05,0.00191288,0.00473466,-0.000689937,0.391396,0.00340977,0.0179448,692,1373,-28.721,-18.3787
-525,-349,-28.7411,19.2509,0.00454701,-8.75068e-05,0.00223388,0.00544843,-0.000988926,0.383539,0.00400286,0.0158109,699,1373,-28.7411,-19.2508
-518,-349,-28.757,20.129,0.00543936,-3.72084e-05,0.0027729,0.00659814,-0.00119599,0.395839,0.00484687,0.0290926,706,1373,-28.757,-20.129
-511,-349,-28.7176,21.0341,0,0,0,0,0,0,0,-1,713,1373,-28.7176,-21.034
-504,-349,-9.60516,7.88831,0,0,0,0,0,0,0,-1,720,1373,-9.60519,-7.88825
-497,-349,-7.9339,5.58789,0,0,0,0,0,0,0,-1,727,1373,-7.93388,-5.58785
-490,-349,-8.73969,-0.503784,0,0,0,0,0,0,0,-1,734,1373,-8.73966,0.503752
-483,-349,-5.66974,3.7395,0,0,0,0,0,0,0,-1,741,1373,-5.66975,-3.73949
-476,-349,-10.8496,1.15759,0,0,0,0,0,0,0,-1,748,1373,-10.8496,-1.15756
-469,-349,-12.3314,-1.74878,0,0,0,0,0,0,0,-1,755,1373,-12.3314,1.74882
-462,-349,-12.6559,-0.995361,0,0,0,0,0,0,0,-1,762,1373,-12.656,0.995351
-455,-349,-13.2897,-0.234253,0,0,0,0,0,0,0,-1,769,1373,-13.2897,0.234261
-448,-349,-14.045,0.712891,0,0,0,0,0,0,0,-1,776,1373,-14.045,-0.712838
-441,-349,0,0,0,0,0,0,0,0,0,-1,783,1373,0,0
-434,-349,0,0,0,0,0,0,0,0,0,-1,790,1373,0,0
-427,-349,0,0,0,0,0,0,0,0,0,-1,797,1373,0,0
-420,-349,0,0,0,0,0,0,0,0,0,-1,804,1373,0,0
-413,-349,0,0,0,0,0,0,0,0,0,-1,811,1373,0,0
-406,-349,0,0,0,0,0,0,0,0,0,-1,818,1373,0,0
-399,-349,0,0,0,0,0,0,0,0,0,-1,825,1373,0,0
-392,-349,0,0,0,0,0,0,0,0,0,-1,832,1373,0,0
-385,-349,0,0,0,0,0,0,0,0,0,-1,839,1373,0,0
-378,-349,0,0,0,0,0,0,0,0,0,-1,846,1373,0,0
-371,-349,0,0,0,0,0,0,0,0,0,-1,853,1373,0,0
-364,-349,0,0,0,0,0,0,0,0,0,-1,860,1373,0,0
-357,-349,0,0,0,0,0,0,0,0,0,-1,867,1373,0,0
-350,-349,0,0,0,0,0,0,0,0,0,-1,874,1373,0,0
-343,-349,0,0,0,0,0,0,0,0,0,-1,881,1373,0,0
-336,-349,0,0,0,0,0,0,0,0,0,-1,888,1373,0,0
-329,-349,0,0,0,0,0,0,0,0,0,-1,895,1373,0,0
-322,-349,0,0,0,0,0,0,0,0,0,-1,902,1373,0,0
-315,-349,0,0,0,0,0,0,0,0,0,-1,909,1373,0,0
-308,-349,0,0,0,0,0,0,0,0,0,-1,916,1373,0,0
-301,-349,0,0,0,0,0,0,0,0,0,-1,923,1373,0,0
-294,-349,0,0,0,0,0,0,0,0,0,-1,930,1373,0,0
-287,-349,0,0,0,0,0,0,0,0,0,-1,937,1373,0,0
-280,-349,0,0,0,0,0,0,0,0,0,-1,944,1373,0,0
-273,-349,0,0,0,0,0,0,0,0,0,-1,951,1373,0,0
-266,-349,0,0,0,0,0,0,0,0,0,-1,958,1373,0,0
-259,-349,0,0,0,0,0,0,0,0,0,-1,965,1373,0,0
-252,-349,0,0,0,0,0,0,0,0,0,-1,972,1373,0,0
-245,-349,0,0,0,0,0,0,0,0,0,-1,979,1373,0,0
-238,-349,0,0,0,0,0,0,0,0,0,-1,986,1373,0,0
-231,-349,0,0,0,0,0,0,0,0,0,-1,993,1373,0,0
-224,-349,0,0,0,0,0,0,0,0,0,-1,1000,1373,0,0
-217,-349,0,0,0,0,0,0,0,0,0,-1,1007,1373,0,0
-210,-349,0,0,0,0,0,0,0,0,0,-1,1014,1373,0,0
-203,-349,0,0,0,0,0,0,0,0,0,-1,1021,1373,0,0
-196,-349,0,0,0,0,0,0,0,0,0,-1,1028,1373,0,0
-189,-349,0,0,0,0,0,0,0,0,0,-1,1035,1373,0,0
-182,-349,0,0,0,0,0,0,0,0,0,-1,1042,1373,0,0
-175,-349,0,0,0,0,0,0,0,0,0,-1,1049,1373,0,0
-168,-349,0,0,0,0,0,0,0,0,0,-1,1056,1373,0,0
-161,-349,0,0,0,0,0,0,0,0,0,-1,1063,1373,0,0
-154,-349,0,0,0,0,0,0,0,0,0,-1,1070,1373,0,0
-147,-349,0,0,0,0,0,0,0,0,0,-1,1077,1373,0,0
-140,-349,0,0,0,0,0,0,0,0,0,-1,1084,1373,0,0
-133,-349,0,0,0,0,0,0,0,0,0,-1,1091,1373,0,0
-126,-349,0,0,0,0,0,0,0,0,0,-1,1098,1373,0,0
-119,-349,0,0,0,0,0,0,0,0,0,-1,1105,1373,0,0
-112,-349,0,0,0,0,0,0,0,0,0,-1,1112,1373,0,0
-105,-349,0,0,0,0,0,0,0,0,0,-1,1119,1373,0,0
-98,-349,0,0,0,0,0,0,0,0,0,-1,1126,1373,0,0
-91,-349,0,0,0,0,0,0,0,0,0,-1,1133,1373,0,0
-84,-349,0,0,0,0,0,0,0,0,0,-1,1140,1373,0,0
-77,-349,0,0,0,0,0,0,0,0,0,-1,1147,1373,0,0
-70,-349,0,0,0,0,0,0,0,0,0,-1,1154,1373,0,0
-63,-349,0,0,0,0,0,0,0,0,0,-1,1161,1373,0,0
-56,-349,0,0,0,0,0,0,0,0,0,-1,1168,1373,0,0
-49,-349,0,0,0,0,0,0,0,0,0,-1,1175,1373,0,0
-42,-349,0,0,0,0,0,0,0,0,0,-1,1182,1373,0,0
-35,-349,0,0,0,0,0,0,0,0,0,-1,1189,1373,0,0
-28,-349,0,0,0,0,0,0,0,0,0,-1,1196,1373,0,0
-21,-349,0,0,0,0,0,0,0,0,0,-1,1203,1373,0,0
-14,-349,0,0,0,0,0,0,0,0,0,-1,1210,1373,0,0
-7,-349,0,0,0,0,0,0,0,0,0,-1,1217,1373,0,0
0,-349,0,0,0,0,0,0,0,0,0,-1,1224,1373,0,0
7,-349,0,0,0,0,0,0,0,0,0,-1,1231,1373,0,0
14,-349,0,0,0,0,0,0,0,0,0,-1,1238,1373,0,0
21,-349,0,0,0,0,0,0,0,0,0,-1,1245,1373,0,0
28,-349,0,0,0,0,0,0,0,0,0,-1,1252,1373,0,0
35,-349,0,0,0,0,0,0,0,0,0,-1,1259,1373,0,0
42,-349,0,0,0,0,0,0,0,0,0,-1,1266,1373,0,0
49,-349,0,0,0,0,0,0,0,0,0,-1,1273,1373,0,0
56,-349,0,0,0,0,0,0,0,0,0,-1,1280,1373,0,0
63,-349,0,0,0,0,0,0,0,0,0,-1,1287,1373,0,0
70,-349,0,0,0,0,0,0,0,0,0,-1,1294,1373,0,0
77,-349,0,0,0,0,0,0,0,0,0,-1,1301,1373,0,0
84,-349,0,0,0,0,0,0,0,0,0,-1,1308,1373,0,0
91,-349,0,0,0,0,0,0,0,0,0,-1,1315,1373,0,0
98,-349,0,0,0,0,0,0,0,0,0,-1,1322,1373,0,0
105,-349,0,0,0,0,0,0,0,0,0,-1,1329,1373,0,0
112,-349,0,0,0,0,0,0,0,0,0,-1,1336,1373,0,0
119,-349,0,0,0,0,0,0,0,0,0,-1,1343,1373,0,0
126,-349,0,0,0,0,0,0,0,0,0,-1,1350,1373,0,0
133,-349,0,0,0,0,0,0,0,0,0,-1,1357,1373,0,0
140,-349,0,0,0,0,0,0,0,0,0,-1,1364,1373,0,0
147,-349,0,0,0,0,0,0,0,0,0,-1,1371,1373,0,0
154,-349,0,0,0,0,0,0,0,0,0,-1,1378,1373,0,0
161,-349,0,0,0,0,0,0,0,0,0,-1,1385,1373,0,0
168,-349,0,0,0,0,0,0,0,0,0,-1,1392,1373,0,0
175,-349,0,0,0,0,0,0,0,0,0,-1,1399,1373,0,0
182,-349,0,0,0,0,0,0,0,0,0,-1,1406,1373,0,0
189,-349,0,0,0,0,0,0,0,0,0,-1,1413,1373,0,0
196,-349,0,0,0,0,0,0,0,0,0,-1,1420,1373,0,0
203,-349,0,0,0,0,0,0,0,0,0,-1,1427,1373,0,0
210,-349,0,0,0,0,0,0,0,0,0,-1,1434,1373,0,0
217,-349,0,0,0,0,0,0,0,0,0,-1,1441,1373,0,0
224,-349,0,0,0,0,0,0,0,0,0,-1,1448,1373,0,0
231,-349,0,0,0,0,0,0,0,0,0,-1,1455,1373,0,0
238,-349,0,0,0,0,0,0,0,0,0,-1,1462,1373,0,0
245,-349,0,0,0,0,0,0,0,0,0,-1,1469,1373,0,0
252,-349,0,0,0,0,0,0,0,0,0,-1,1476,1373,0,0
259,-349,0,0,0,0,0,0,0,0,0,-1,1483,1373,0,0
266,-349,0,0,0,0,0,0,0,0,0,-1,1490,1373,0,0
273,-349,0,0,0,0,0,0,0,0,0,-1,1497,1373,0,0
280,-349,0,0,0,0,0,0,0,0,0,-1,1504,1373,0,0
287,-349,0,0,0,0,0,0,0,0,0,-1,1511,1373,0,0
294,-349,0,0,0,0,0,0,0,0,0,-1,1518,1373,0,0
301,-349,0,0,0,0,0,0,0,0,0,-1,1525,1373,0,0
308,-349,0,0,0,0,0,0,0,0,0,-1,1532,1373,0,0
315,-349,0,0,0,0,0,0,0,0,0,-1,1539,1373,0,0
322,-349,0,0,0,0,0,0,0,0,0,-1,1546,1373,0,0
329,-349,0,0,0,0,0,0,0,0,0,-1,1553,1373,0,0
336,-349,0,0,0,0,0,0,0,0,0,-1,1560,1373,0,0
343,-349,0,0,0,0,0,0,0,0,0,-1,1567,1373,0,0
350,-349,0,0,0,0,0,0,0,0,0,-1,1574,1373,0,0
357,-349,0,0,0,0,0,0,0,0,0,-1,1581,1373,0,0
364,-349,0,0,0,0,0,0,0,0,0,-1,1588,1373,0,0
371,-349,0,0,0,0,0,0,0,0,0,-1,1595,1373,0,0
378,-349,0,0,0,0,0,0,0,0,0,-1,1602,1373,0,0
385,-349,0,0,0,0,0,0,0,0,0,-1,1609,1373,0,0
392,-349,0,0,0,0,0,0,0,0,0,-1,1616,1373,0,0
399,-349,0,0,0,0,0,0,0,0,0,-1,1623,1373,0,0
406,-349,0,0,0,0,0,0,0,0,0,-1,1630,1373,0,0
413,-349,0,0,0,0,0,0,0,0,0,-1,1637,1373,0,0
420,-349,0,0,0,0,0,0,0,0,0,-1,1644,1373,0,0
427,-349,0,0,0,0,0,0,0,0,0,-1,1651,1373,0,0
434,-349,0,0,0,0,0,0,0,0,0,-1,1658,1373,0,0
441,-349,0,0,0,0,0,0,0,0,0,-1,1665,1373,0,0
448,-349,0,0,0,0,0,0,0,0,0,-1,1672,1373,0,0
455,-349,0,0,0,0,0,0,0,0,0,-1,1679,1373,0,0
462,-349,0,0,0,0,0,0,0,0,0,-1,1686,1373,0,0
469,-349,0,0,0,0,0,0,0,0,0,-1,1693,1373,0,0
476,-349,0,0,0,0,0,0,0,0,0,-1,1700,1373,0,0
483,-349,0,0,0,0,0,0,0,0,0,-1,1707,1373,0,0
490,-349,0,0,0,0,0,0,0,0,0,-1,1714,1373,0,0
497,-349,0,0,0,0,0,0,0,0,0,-1,1721,1373,0,0
504,-349,0,0,0,0,0,0,0,0,0,-1,1728,1373,0,0
511,-349,0,0,0,0,0,0,0,0,0,-1,1735,1373,0,0
518,-349,0,0,0,0,0,0,0,0,0,-1,1742,1373,0,0
525,-349,0,0,0,0,0,0,0,0,0,-1,1749,1373,0,0
532,-349,0,0,0,0,0,0,0,0,0,-1,1756,1373,0,0
539,-349,0,0,0,0,0,0,0,0,0,-1,1763,1373,0,0
546,-349,0,0,0,0,0,0,0,0,0,-1,1770,1373,0,0
553,-349,0,0,0,0,0,0,0,0,0,-1,1777,1373,0,0
560,-349,63.5519,3.94397,0,0,0,0,0,0,0,-1,1784,1373,63.5519,-3.94394
567,-349,64.7863,2.54688,0,0,0,0,0,0,0,-1,1791,1373,64.7863,-2.5469
574,-349,65.8214,1.63818,0,0,0,0,0,0,0,-1,1798,1373,65.8214,-1.63813
581,-349,42.8947,6.78381,0,0,0,0,0,0,0,-1,1805,1373,42.8946,-6.78376
588,-349,44.8121,5.06213,0,0,0,0,0,0,0,-1,1812,1373,44.8121,-5.06215
595,-349,44.4338,6.14099,0,0,0,0,0,0,0,-1,1819,1373,44.4338,-6.14095
602,-349,35.6641,3.26465,0,0,0,0,0,0,0,-1,1826,1373,35.6641,-3.26468
609,-349,34.7175,4.401,0,0,0,0,0,0,0,-1,1833,1373,34.7175,-4.40096
616,-349,27.1451,6.68274,0,0,0,0,0,0,0,-1,1840,1373,27.1451,-6.6828
623,-349,18.8478,2.75769,0,0,0,0,0,0,0,-1,1847,1373,18.8478,-2.75774
630,-349,15.4948,6.47644,0,0,0,0,0,0,0,-1,1854,1373,15.4947,-6.4765
637,-349,16.5161,6.92639,0,0,0,0,0,0,0,-1,1861,1373,16.5161,-6.92636
644,-349,44.2694,19.8312,0,0,0,0,0,0,0,-1,1868,1373,44.2695,-19.8311
651,-349,45.6361,20.2509,0,0,0,0,0,0,0,-1,1875,1373,45.6361,-20.2509
658,-349,45.4113,19.4012,0.001083,0.000323081,-0.000502462,0.00133299,7.30917e-05,-0.461669,0.000865328,0.0289302,1882,1373,45.4113,-19.4012
665,-349,45.3832,18.5669,0.00131854,0.000114186,-0.000449508,0.00146781,-3.50855e-05,-0.320619,0.000990443,0.022816,1889,1373,45.3832,-18.5669
672,-349,45.3518,17.8082,0.00163557,0.000100655,-0.000564184,0.00182063,-8.44082e-05,-0.31696,0.00124285,0.0164818,1896,1373,45.3518,-17.8082
679,-349,45.3096,17.038,0.00204169,0.000162861,-0.000783511,0.00232554,-0.000120995,-0.347578,0.00159223,0.0166732,1903,1373,45.3095,-17.038
686,-349,45.3446,16.2181,0.00255564,0.000333875,-0.00112044,0.00302256,-0.000133037,-0.39484,0.00206082,0.0179488,1910,1373,45.3446,-16.2182
693,-349,45.2311,15.3889,0.00317319,0.000591665,-0.00155083,0.00390014,-0.000135276,-0.438332,0.00264634,0.0197362,1917,1373,45.2311,-15.389
700,-349,45.1748,14.5864,0.00389919,0.000959665,-0.00209005,0.00498452,-0.000125664,-0.478956,0.00336569,0.0187198,1924,1373,45.1748,-14.5864
707,-349,45.2408,13.7307,0.00463743,0.00136375,-0.0026774,0.00613869,-0.000137515,-0.511035,0.00413906,0.0392629,1931,1373,45.2408,-13.7307
714,-349,45.3533,12.7577,0,0,0,0,0,0,0,-1,1938,1373,45.3533,-12.7576
721,-349,19.6688,5.93604,0,0,0,0,0,0,0,-1,1945,1373,19.6688,-5.93606
728,-349,18.6333,3.73218,0,0,0,0,0,0,0,-1,1952,1373,18.6333,-3.73214
735,-349,18.1918,3.39954,0,0,0,0,0,0,0,-1,1959,1373,18.1918,-3.3995
742,-349,20.7345,2.07483,0,0,0,0,0,0,0,-1,1966,1373,20.7345,-2.07485
749,-349,21.9037,1.45789,0,0,0,0,0,0,0,-1,1973,1373,21.9037,-1.45788
756,-349,0,0,0,0,0,0,0,0,0,-1,1980,1373,0,0
763,-349,0,0,0,0,0,0,0,0,0,-1,1987,1373,0,0
770,-349,0,0,0,0,0,0,0,0,0,-1,1994,1373,0,0
777,-349,0,0,0,0,0,0,0,0,0,-1,2001,1373,0,0
784,-349,0,0,0,0,0,0,0,0,0,-1,2008,1373,0,0
791,-349,0,0,0,0,0,0,0,0,0,-1,2015,1373,0,0
798,-349,0,0,0,0,0,0,0,0,0,-1,2022,1373,0,0
805,-349,0,0,0,0,0,0,0,0,0,-1,2029,1373,0,0
812,-349,0,0,0,0,0,0,0,0,0,-1,2036,1373,0,0
-700,-356,0,0,0,0,0,0,0,0,0,-1,524,1380,0,0
-693,-356,0,0,0,0,0,0,0,0,0,-1,531,1380,0,0
-686,-356,0,0,0,0,0,0,0,0,0,-1,538,1380,0,0
-679,-356,0,0,0,0,0,0,0,0,0,-1,545,1380,0,0
-672,-356,0,0,0,0,0,0,0,0,0,-1,552,1380,0,0
-665,-356,0,0,0,0,0,0,0,0,0,-1,559,1380,0,0
-658,-356,0,0,0,0,0,0,0,0,0,-1,566,1380,0,0
-651,-356,0,0,0,0,0,0,0,0,0,-1,573,1380,0,0
-644,-356,0,0,0,0,0,0,0,0,0,-1,580,1380,0,0
-637,-356,0,0,0,0,0,0,0,0,0,-1,587,1380,0,0
-630,-356,-8.23126,-5.01917,0,0,0,0,0,0,0,-1,594,1380,-8.23124,5.0192
-623,-356,-0.263855,-0.675781,0,0,0,0,0,0,0,-1,601,1380,-0.263835,0.675841
-616,-356,-8.26532,-3.43945,0,0,0,0,0,0,0,-1,608,1380,-8.2653,3.43948
-609,-356,-4.88483,0.734497,0,0,0,0,0,0,0,-1,615,1380,-4.88485,-0.734532
-602,-356,-9.06635,2.4021,0,0,0,0,0,0,0,-1,622,1380,-9.06634,-2.40206
-595,-356,-8.45703,3.61853,0,0,0,0,0,0,0,-1,629,1380,-8.45706,-3.61848
-588,-356,-9.31738,4.14258,0,0,0,0,0,0,0,-1,636,1380,-9.31736,-4.14255
-581,-356,-16.5185,7.32312,0,0,0,0,0,0,0,-1,643,1380,-16.5185,-7.32306
-574,-356,-27.7513,13.2394,0,0,0,0,0,0,0,-1,650,1380,-27.7514,-13.2394
-567,-356,-27.7332,14.1215,0.00545514,0.00394915,0.00349843,0.0082807,0.00112359,0.679396,0.00518666,0.0252049,657,1380,-27.7332,-14.1215
-560,-356,-27.6769,15.0531,0.00449999,0.00273305,0.00266321,0.00642245,0.000810604,0.625244,0.00403864,0.0190291,664,1380,-27.6769,-15.0531
-553,-356,-27.6926,15.8707,0.00390942,0.00182021,0.00214409,0.00524984,0.000479793,0.55872,0.00335143,0.0219955,671,1380,-27.6926,-15.8708
-546,-356,-27.7797,16.6841,0.00355157,0.00110584,0.0018164,0.00451839,0.000139023,0.489129,0.002967,0.0242384,678,1380,-27.7797,-16.6841
-539,-356,-27.8408,17.5553,0.0034377,0.000559358,0.00166727,0.00420103,-0.000203965,0.429346,0.00287109,0.0167626,685,1380,-27.8408,-17.5553
-532,-356,-27.9114,18.4335,0.00358028,0.000186747,0.00170163,0.00428654,-0.000519522,0.393416,0.00304568,0.0157816,692,1380,-27.9114,-18.4335
-525,-356,-27.9337,19.2769,0.00396324,-3.75278e-05,0.00190084,0.00472234,-0.000796627,0.379944,0.00344461,0.0143701,699,1380,-27.9337,-19.2769
-518,-356,-27.9641,20.1338,0.00461224,-4.48715e-05,0.00230675,0.00556138,-0.000994011,0.390347,0.00407949,0.0155269,706,1380,-27.9641,-20.1338
-511,-356,-27.9731,21.0177,0,0,0,0,0,0,0,-1,713,1380,-27.9731,-21.0177
-504,-356,-14.3925,12.3971,0,0,0,0,0,0,0,-1,720,1380,-14.3925,-12.3971
-497,-356,-5.68604,4.96387,0,0,0,0,0,0,0,-1,727,1380,-5.68605,-4.96385
-490,-356,-7.95288,5.5625,0,0,0,0,0,0,0,-1,734,1380,-7.95285,-5.56246
-483,-356,-7.2627,4.07446,0,0,0,0,0,0,0,-1,741,1380,-7.2627,-4.07441
-476,-356,-5.1936,4.16016,0,0,0,0,0,0,0,-1,748,1380,-5.1936,-4.16012
-469,-356,-10.0883,0.536011,0,0,0,0,0,0,0,-1,755,1380,-10.0883,-0.535989
-462,-356,-12.3481,-0.215698,0,0,0,0,0,0,0,-1,762,1380,-12.3481,0.215641
-455,-356,-13.1367,-0.264648,0,0,0,0,0,0,0,-1,769,1380,-13.1367,0.264647
-448,-356,-13.9116,-0.310181,0,0,0,0,0,0,0,-1,776,1380,-13.9115,0.310207
-441,-356,-13.1602,3.05603,0,0,0,0,0,0,0,-1,783,1380,-13.1602,-3.05609
-434,-356,0,0,0,0,0,0,0,0,0,-1,790,1380,0,0
-427,-356,0,0,0,0,0,0,0,0,0,-1,797,1380,0,0
-420,-356,0,0,0,0,0,0,0,0,0,-1,804,1380,0,0
-413,-356,0,0,0,0,0,0,0,0,0,-1,811,1380,0,0
-406,-356,0,0,0,0,0,0,0,0,0,-1,818,1380,0,0
-399,-356,0,0,0,0,0,0,0,0,0,-1,825,1380,0,0
-392,-356,0,0,0,0,0,0,0,0,0,-1,832,1380,0,0
-385,-356,0,0,0,0,0,0,0,0,0,-1,839,1380,0,0
-378,-356,0,0,0,0,0,0,0,0,0,-1,846,1380,0,0
-371,-356,0,0,0,0,0,0,0,0,0,-1,853,1380,0,0
-364,-356,0,0,0,0,0,0,0,0,0,-1,860,1380,0,0
-357,-356,0,0,0,0,0,0,0,0,0,-1,867,1380,0,0
-350,-356,0,0,0,0,0,0,0,0,0,-1,874,1380,0,0
-343,-356,0,0,0,0,0,0,0,0,0,-1,881,1380,0,0
-336,-356,0,0,0,0,0,0,0,0,0,-1,888,1380,0,0
-329,-356,0,0,0,0,0,0,0,0,0,-1,895,1380,0,0
-322,-356,0,0,0,0,0,0,0,0,0,-1,902,1380,0,0
-315,-356,0,0,0,0,0,0,0,0,0,-1,909,1380,0,0
-308,-356,0,0,0,0,0,0,0,0,0,-1,916,1380,0,0
-301,-356,0,0,0,0,0,0,0,0,0,-1,923,1380,0,0
-294,-356,0,0,0,0,0,0,0,0,0,-1,930,1380,0,0
-287,-356,0,0,0,0,0,0,0,0,0,-1,937,1380,0,0
-280,-356,0,0,0,0,0,0,0,0,0,-1,944,1380,0,0
-273,-356,0,0,0,0,0,0,0,0,0,-1,951,1380,0,0
-266,-356,0,0,0,0,0,0,0,0,0,-1,958,1380,0,0
-259,-356,0,0,0,0,0,0,0,0,0,-1,965,1380,0,0
-252,-356,0,0,0,0,0,0,0,0,0,-1,972,1380,0,0
-245,-356,0,0,0,0,0,0,0,0,0,-1,979,1380,0,0
-238,-356,0,0,0,0,0,0,0,0,0,-1,986,1380,0,0
-231,-356,0,0,0,0,0,0,0,0,0,-1,993,1380,0,0
-224,-356,0,0,0,0,0,0,0,0,0,-1,1000,1380,0,0
-217,-356,0,0,0,0,0,0,0,0,0,-1,1007,1380,0,0
-210,-356,0,0,0,0,0,0,0,0,0,-1,1014,1380,0,0
-203,-356,0,0,0,0,0,0,0,0,0,-1,1021,1380,0,0
-196,-356,0,0,0,0,0,0,0,0,0,-1,1028,1380,0,0
-189,-356,0,0,0,0,0,0,0,0,0,-1,1035,1380,0,0
-182,-356,0,0,0,0,0,0,0,0,0,-1,1042,1380,0,0
-175,-356,0,0,0,0,0,0,0,0,0,-1,1049,1380,0,0
-168,-356,0,0,0,0,0,0,0,0,0,-1,1056,1380,0,0
-161,-356,0,0,0,0,0,0,0,0,0,-1,1063,1380,0,0
-154,-356,0,0,0,0,0,0,0,0,0,-1,1070,1380,0,0
-147,-356,0,0,0,0,0,0,0,0,0,-1,1077,1380,0,0
-140,-356,0,0,0,0,0,0,0,0,0,-1,1084,1380,0,0
-133,-356,0,0,0,0,0,0,0,0,0,-1,1091,1380,0,0
-126,-356,0,0,0,0,0,0,0,0,0,-1,1098,1380,0,0
-119,-356,0,0,0,0,0,0,0,0,0,-1,1105,1380,0,0
-112,-356,0,0,0,0,0,0,0,0,0,-1,1112,1380,0,0
-105,-356,0,0,0,0,0,0,0,0,0,-1,1119,1380,0,0
-98,-356,0,0,0,0,0,0,0,0,0,-1,1126,1380,0,0
-91,-356,0,0,0,0,0,0,0,0,0,-1,1133,1380,0,0
-84,-356,0,0,0,0,0,0,0,0,0,-1,1140,1380,0,0
-77,-356,0,0,0,0,0,0,0,0,0,-1,1147,1380,0,0
-70,-356,0,0,0,0,0,0,0,0,0,-1,1154,1380,0,0
-63,-356,0,0,0,0,0,0,0,0,0,-1,1161,1380,0,0
-56,-356,0,0,0,0,0,0,0,0,0,-1,1168,1380,0,0
-49,-356,0,0,0,0,0,0,0,0,0,-1,1175,1380,0,0
-42,-356,0,0,0,0,0,0,0,0,0,-1,1182,1380,0,0
-35,-356,0,0,0,0,0,0,0,0,0,-1,1189,1380,0,0
-28,-356,0,0,0,0,0,0,0,0,0,-1,1196,1380,0,0
-21,-356,0,0,0,0,0,0,0,0,0,-1,1203,1380,0,0
-14,-356,0,0,0,0,0,0,0,0,0,-1,1210,1380,0,0
-7,-356,0,0,0,0,0,0,0,0,0,-1,1217,1380,0,0
0,-356,0,0,0,0,0,0,0,0,0,-1,1224,1380,0,0
7,-356,0,0,0,0,0,0,0,0,0,-1,1231,1380,0,0
14,-356,0,0,0,0,0,0,0,0,0,-1,1238,1380,0,0
21,-356,0,0,0,0,0,0,0,0,0,-1,1245,1380,0,0
28,-356,0,0,0,0,0,0,0,0,0,-1,1252,1380,0,0
35,-356,0,0,0,0,0,0,0,0,0,-1,1259,1380,0,0
42,-356,0,0,0,0,0,0,0,0,0,-1,1266,1380,0,0
49,-356,0,0,0,0,0,0,0,0,0,-1,1273,1380,0,0
56,-356,0,0,0,0,0,0,0,0,0,-1,1280,1380,0,0
63,-356,0,0,0,0,0,0,0,0,0,-1,1287,1380,0,0
70,-356,0,0,0,0,0,0,0,0,0,-1,1294,1380,0,0
77,-356,0,0,0,0,0,0,0,0,0,-1,1301,1380,0,0
84,-356,0,0,0,0,0,0,0,0,0,-1,1308,1380,0,0
91,-356,0,0,0,0,0,0,0,0,0,-1,1315,1380,0,0
98,-356,0,0,0,0,0,0,0,0,0,-1,1322,1380,0,0
105,-356,0,0,0,0,0,0,0,0,0,-1,1329,1380,0,0
112,-356,0,0,0,0,0,0,0,0,0,-1,1336,1380,0,0
119,-356,0,0,0,0,0,0,0,0,0,-1,1343,1380,0,0
126,-356,0,0,0,0,0,0,0,0,0,-1,1350,1380,0,0
133,-356,0,0,0,0,0,0,0,0,0,-1,1357,1380,0,0
140,-356,0,0,0,0,0,0,0,0,0,-1,1364,1380,0,0
147,-356,0,0,0,0,0,0,0,0,0,-1,1371,1380,0,0
154,-356,0,0,0,0,0,0,0,0,0,-1,1378,1380,0,0
161,-356,0,0,0,0,0,0,0,0,0,-1,1385,1380,0,0
168,-356,0,0,0,0,0,0,0,0,0,-1,1392,1380,0,0
175,-356,0,0,0,0,0,0,0,0,0,-1,1399,1380,0,0
182,-356,0,0,0,0,0,0,0,0,0,-1,1406,1380,0,0
189,-356,0,0,0,0,0,0,0,0,0,-1,1413,1380,0,0
196,-356,0,0,0,0,0,0,0,0,0,-1,1420,1380,0,0
203,-356,0,0,0,0,0,0,0,0,0,-1,1427,1380,0,0
210,-356,0,0,0,0,0,0,0,0,0,-1,1434,1380,0,0
217,-356,0,0,0,0,0,0,0,0,0,-1,1441,1380,0,0
224,-356,0,0,0,0,0,0,0,0,0,-1,1448,1380,0,0
231,-356,0,0,0,0,0,0,0,0,0,-1,1455,1380,0,0
238,-356,0,0,0,0,0,0,0,0,0,-1,1462,1380,0,0
245,-356,0,0,0,0,0,0,0,0,0,-1,1469,1380,0,0
252,-356,0,0,0,0,0,0,0,0,0,-1,1476,1380,0,0
259,-356,0,0,0,0,0,0,0,0,0,-1,1483,1380,0,0
266,-356,0,0,0,0,0,0,0,0,0,-1,1490,1380,0,0
273,-356,0,0,0,0,0,0,0,0,0,-1,1497,1380,0,0
280,-356,0,0,0,0,0,0,0,0,0,-1,1504,1380,0,0
287,-356,0,0,0,0,0,0,0,0,0,-1,1511,1380,0,0
294,-356,0,0,0,0,0,0,0,0,0,-1,1518,1380,0,0
301,-356,0,0,0,0,0,0,0,0,0,-1,1525,1380,0,0
308,-356,0,0,0,0,0,0,0,0,0,-1,1532,1380,0,0
315,-356,0,0,0,0,0,0,0,0,0,-1,1539,1380,0,0
322,-356,0,0,0,0,0,0,0,0,0,-1,1546,1380,0,0
329,-356,0,0,0,0,0,0,0,0,0,-1,1553,1380,0,0
336,-356,0,0,0,0,0,0,0,0,0,-1,1560,1380,0,0
343,-356,0,0,0,0,0,0,0,0,0,-1,1567,1380,0,0
350,-356,0,0,0,0,0,0,0,0,0,-1,1574,1380,0,0
357,-356,0,0,0,0,0,0,0,0,0,-1,1581,1380,0,0
364,-356,0,0,0,0,0,0,0,0,0,-1,1588,1380,0,0
371,-356,0,0,0,0,0,0,0,0,0,-1,1595,1380,0,0
378,-356,0,0,0,0,0,0,0,0,0,-1,1602,1380,0,0
385,-356,0,0,0,0,0,0,0,0,0,-1,1609,1380,0,0
392,-356,0,0,0,0,0,0,0,0,0,-1,1616,1380,0,0
399,-356,0,0,0,0,0,0,0,0,0,-1,1623,1380,0,0
406,-356,0,0,0,0,0,0,0,0,0,-1,1630,1380,0,0
413,-356,0,0,0,0,0,0,0,0,0,-1,1637,1380,0,0
420,-356,0,0,0,0,0,0,0,0,0,-1,1644,1380,0,0
427,-356,0,0,0,0,0,0,0,0,0,-1,1651,1380,0,0
434,-356,0,0,0,0,0,0,0,0,0,-1,1658,1380,0,0
441,-356,0,0,0,0,0,0,0,0,0,-1,1665,1380,0,0
448,-356,0,0,0,0,0,0,0,0,0,-1,1672,1380,0,0
455,-356,0,0,0,0,0,0,0,0,0,-1,1679,1380,0,0
462,-356,0,0,0,0,0,0,0,0,0,-1,1686,1380,0,0
469,-356,0,0,0,0,0,0,0,0,0,-1,1693,1380,0,0
476,-356,0,0,0,0,0,0,0,0,0,-1,1700,1380,0,0
483,-356,0,0,0,0,0,0,0,0,0,-1,1707,1380,0,0
490,-356,0,0,0,0,0,0,0,0,0,-1,1714,1380,0,0
497,-356,0,0,0,0,0,0,0,0,0,-1,1721,1380,0,0
504,-356,0,0,0,0,0,0,0,0,0,-1,1728,1380,0,0
511,-356,0,0,0,0,0,0,0,0,0,-1,1735,1380,0,0
518,-356,0,0,0,0,0,0,0,0,0,-1,1742,1380,0,0
525,-356,0,0,0,0,0,0,0,0,0,-1,1749,1380,0,0
532,-356,0,0,0,0,0,0,0,0,0,-1,1756,1380,0,0
539,-356,0,0,0,0,0,0,0,0,0,-1,1763,1380,0,0
546,-356,0,0,0,0,0,0,0,0,0,-1,1770,1380,0,0
553,-356,0,0,0,0,0,0,0,0,0,-1,1777,1380,0,0
560,-356,63.6171,3.12183,0,0,0,0,0,0,0,-1,1784,1380,63.617,-3.12183
567,-356,65.0425,1.89966,0,0,0,0,0,0,0,-1,1791,1380,65.0424,-1.8996
574,-356,45.5742,3.39575,0,0,0,0,0,0,0,-1,1798,1380,45.5742,-3.39574
581,-356,45.6708,3.64172,0,0,0,0,0,0,0,-1,1805,1380,45.6707,-3.64175
588,-356,44.4739,4.87085,0,0,0,0,0,0,0,-1,1812,1380,44.4739,-4.87086
595,-356,32.0834,5.86084,0,0,0,0,0,0,0,-1,1819,1380,32.0834,-5.86079
602,-356,30.1604,6.07104,0,0,0,0,0,0,0,-1,1826,1380,30.1604,-6.07104
609,-356,28.3435,6.48901,0,0,0,0,0,0,0,-1,1833,1380,28.3435,-6.48899
616,-356,26.9358,6.80872,0,0,0,0,0,0,0,-1,1840,1380,26.9358,-6.80877
623,-356,16.1803,1.07532,0,0,0,0,0,0,0,-1,1847,1380,16.1803,-1.07529
630,-356,16.4138,6.91553,0,0,0,0,0,0,0,-1,1854,1380,16.4138,-6.9155
637,-356,24.8021,12.0151,0,0,0,0,0,0,0,-1,1861,1380,24.8022,-12.0151
644,-356,44.7692,21.1974,0,0,0,0,0,0,0,-1,1868,1380,44.7691,-21.1974
651,-356,44.718,20.28,0.000535958,0.000448209,-0.000516782,0.00101072,-2.6557e-05,-0.74305,0.000682841,0.0226948,1875,1380,44.718,-20.28
658,-356,44.604,19.4198,0.000807441,0.000235374,-0.000352951,0.000975709,6.71064e-05,-0.444872,0.000629298,0.0149793,1882,1380,44.604,-19.4198
665,-356,44.5695,18.6489,0.00124454,0.000109871,-0.000407781,0.00137588,-2.14748e-05,-0.311605,0.000924497,0.0147693,1889,1380,44.5694,-18.6489
672,-356,44.5321,17.9,0.00175851,0.000138105,-0.00061295,0.00196424,-6.76344e-05,-0.323837,0.00133261,0.015934,1896,1380,44.5322,-17.9001
679,-356,44.5178,17.0933,0.00236494,0.000241063,-0.000941378,0.00272212,-0.00011612,-0.362645,0.00185467,0.0187245,1903,1380,44.5178,-17.0933
686,-356,44.4965,16.2334,0.00308554,0.000464396,-0.00140944,0.00369958,-0.000149643,-0.410866,0.00251775,0.0200459,1910,1380,44.4965,-16.2333
693,-356,44.4403,15.4366,0.0039194,0.000800282,-0.00199646,0.00489323,-0.000173549,-0.453824,0.00332151,0.0167569,1917,1380,44.4403,-15.4366
700,-356,44.4204,14.6326,0.00489109,0.00129944,-0.00275362,0.00638273,-0.000192198,-0.496449,0.00432064,0.0255113,1924,1380,44.4204,-14.6325
707,-356,44.5059,13.8174,0,0,0,0,0,0,0,-1,1931,1380,44.5059,-13.8174
714,-356,19.6907,5.82129,0,0,0,0,0,0,0,-1,1938,1380,19.6907,-5.82132
721,-356,17.2948,4.1958,0,0,0,0,0,0,0,-1,1945,1380,17.2948,-4.19584
728,-356,19.1846,2.31519,0,0,0,0,0,0,0,-1,1952,1380,19.1846,-2.31514
735,-356,20.0731,2.50842,0,0,0,0,0,0,0,-1,1959,1380,20.0731,-2.50844
742,-356,21.0111,2.43762,0,0,0,0,0,0,0,-1,1966,1380,21.0112,-2.43762
749,-356,22.1411,1.83276,0,0,0,0,0,0,0,-1,1973,1380,22.1411,-1.83275
756,-356,0,0,0,0,0,0,0,0,0,-1,1980,1380,0,0
763,-356,0,0,0,0,0,0,0,0,0,-1,1987,1380,0,0
770,-356,0,0,0,0,0,0,0,0,0,-1,1994,1380,0,0
777,-356,0,0,0,0,0,0,0,0,0,-1,2001,1380,0,0
784,-356,0,0,0,0,0,0,0,0,0,-1,2008,1380,0,0
791,-356,0,0,0,0,0,0,0,0,0,-1,2015,1380,0,0
798,-356,0,0,0,0,0,0,0,0,0,-1,2022,1380,0,0
805,-356,0,0,0,0,0,0,0,0,0,-1,2029,1380,0,0
812,-356,0,0,0,0,0,0,0,0,0,-1,2036,1380,0,0
-700,-363,0,0,0,0,0,0,0,0,0,-1,524,1387,0,0
-693,-363,0,0,0,0,0,0,0,0,0,-1,531,1387,0,0
-686,-363,0,0,0,0,0,0,0,0,0,-1,538,1387,0,0
-679,-363,0,0,0,0,0,0,0,0,0,-1,545,1387,0,0
-672,-363,0,0,0,0,0,0,0,0,0,-1,552,1387,0,0
-665,-363,0,0,0,0,0,0,0,0,0,-1,559,1387,0,0
-658,-363,0,0,0,0,0,0,0,0,0,-1,566,1387,0,0
-651,-363,0,0,0,0,0,0,0,0,0,-1,573,1387,0,0
-644,-363,0,0,0,0,0,0,0,0,0,-1,580,1387,0,0
-637,-363,0,0,0,0,0,0,0,0,0,-1,587,1387,0,0
-630,-363,0,0,0,0,0,0,0,0,0,-1,594,1387,0,0
-623,-363,-9.67566,-5.91846,0,0,0,0,0,0,0,-1,601,1387,-9.67563,5.91847
-616,-363,-9.02985,-2.98083,0,0,0,0,0,0,0,-1,608,1387,-9.02987,2.98079
-609,-363,-4.90265,0.195679,0,0,0,0,0,0,0,-1,615,1387,-4.90263,-0.195721
-602,-363,-9.65009,3.5321,0,0,0,0,0,0,0,-1,622,1387,-9.65007,-3.53211
-595,-363,-8.00256,3.48853,0,0,0,0,0,0,0,-1,629,1387,-8.00256,-3.48855
-588,-363,-10.8846,4.49768,0,0,0,0,0,0,0,-1,636,1387,-10.8846,-4.49773
-581,-363,-11.7469,5.15161,0,0,0,0,0,0,0,-1,643,1387,-11.747,-5.15167
-574,-363,-17.8334,8.33801,0,0,0,0,0,0,0,-1,650,1387,-17.8334,-8.33804
-567,-363,-26.9523,14.189,0,0,0,0,0,0,0,-1,657,1387,-26.9523,-14.1889
-560,-363,-26.8587,15.0543,0.00511156,0.00309316,0.00318264,0.00744117,0.000763549,0.631865,0.00472686,0.0142723,664,1387,-26.8587,-15.0543
-553,-363,-26.8649,15.9231,0.00432204,0.00210108,0.00249087,0.00593876,0.000484362,0.575712,0.003808,0.0135516,671,1387,-26.8649,-15.9231
-546,-363,-26.949,16.7549,0.00377498,0.00131697,0.0020082,0.0049004,0.000191548,0.510803,0.00320499,0.0139191,678,1387,-26.9489,-16.7549
-539,-363,-26.9866,17.6292,0.00348009,0.000719563,0.00171623,0.00430223,-0.000102577,0.446738,0.00290295,0.0157428,685,1387,-26.9866,-17.6292
-532,-363,-27.0621,18.4913,0.00344032,0.000315646,0.00161608,0.00412579,-0.000369816,0.401152,0.00288172,0.0139156,692,1387,-27.0621,-18.4913
-525,-363,-27.0959,19.3149,0.00363356,5.53155e-05,0.00167762,0.00429707,-0.000608188,0.376623,0.00308747,0.0131062,699,1387,-27.0959,-19.3149
-518,-363,-27.0983,20.1764,0.00405949,-1.09916e-05,0.00192338,0.00482453,-0.000776036,0.378574,0.0035038,0.0118948,706,1387,-27.0983,-20.1764
-511,-363,-26.9888,21.0686,0.00479197,9.58639e-05,0.00239672,0.00579916,-0.000911323,0.397828,0.00420294,0.0359638,713,1387,-26.9888,-21.0685
-504,-363,-26.8208,22.0154,0,0,0,0,0,0,0,-1,720,1387,-26.8208,-22.0154
-497,-363,-7.18842,7.29944,0,0,0,0,0,0,0,-1,727,1387,-7.18839,-7.29945
-490,-363,-5.42413,4.6958,0,0,0,0,0,0,0,-1,734,1387,-5.42412,-4.69583
-483,-363,-6.28375,4.1394,0,0,0,0,0,0,0,-1,741,1387,-6.28374,-4.13944
-476,-363,-5.83807,4.31018,0,0,0,0,0,0,0,-1,748,1387,-5.8381,-4.31013
-469,-363,-10.7125,0.697754,0,0,0,0,0,0,0,-1,755,1387,-10.7125,-0.697811
-462,-363,-9.55951,-0.0830078,0,0,0,0,0,0,0,-1,762,1387,-9.55949,0.0830163
-455,-363,-13.1008,-0.290894,0,0,0,0,0,0,0,-1,769,1387,-13.1008,0.290921
-448,-363,-11.7324,2.46606,0,0,0,0,0,0,0,-1,776,1387,-11.7324,-2.46605
-441,-363,-12.4464,2.5354,0,0,0,0,0,0,0,-1,783,1387,-12.4463,-2.53537
-434,-363,-13.6918,2.14661,0,0,0,0,0,0,0,-1,790,1387,-13.6918,-2.14662
-427,-363,0,0,0,0,0,0,0,0,0,-1,797,1387,0,0
-420,-363,0,0,0,0,0,0,0,0,0,-1,804,1387,0,0
-413,-363,0,0,0,0,0,0,0,0,0,-1,811,1387,0,0
-406,-363,0,0,0,0,0,0,0,0,0,-1,818,1387,0,0
-399,-363,0,0,0,0,0,0,0,0,0,-1,825,1387,0,0
-392,-363,0,0,0,0,0,0,0,0,0,-1,832,1387,0,0
-385,-363,0,0,0,0,0,0,0,0,0,-1,839,1387,0,0
-378,-363,0,0,0,0,0,0,0,0,0,-1,846,1387,0,0
-371,-363,0,0,0,0,0,0,0,0,0,-1,853,1387,0,0
-364,-363,0,0,0,0,0,0,0,0,0,-1,860,1387,0,0
-357,-363,0,0,0,0,0,0,0,0,0,-1,867,1387,0,0
-350,-363,0,0,0,0,0,0,0,0,0,-1,874,1387,0,0
-343,-363,0,0,0,0,0,0,0,0,0,-1,881,1387,0,0
-336,-363,0,0,0,0,0,0,0,0,0,-1,888,1387,0,0
-329,-363,0,0,0,0,0,0,0,0,0,-1,895,1387,0,0
-322,-363,0,0,0,0,0,0,0,0,0,-1,902,1387,0,0
-315,-363,0,0,0,0,0,0,0,0,0,-1,909,1387,0,0
-308,-363,0,0,0,0,0,0,0,0,0,-1,916,1387,0,0
-301,-363,0,0,0,0,0,0,0,0,0,-1,923,1387,0,0
-294,-363,0,0,0,0,0,0,0,0,0,-1,930,1387,0,0
-287,-363,0,0,0,0,0,0,0,0,0,-1,937,1387,0,0
-280,-363,0,0,0,0,0,0,0,0,0,-1,944,1387,0,0
-273,-363,0,0,0,0,0,0,0,0,0,-1,951,1387,0,0
-266,-363,0,0,0,0,0,0,0,0,0,-1,958,1387,0,0
-259,-363,0,0,0,0,0,0,0,0,0,-1,965,1387,0,0
-252,-363,0,0,0,0,0,0,0,0,0,-1,972,1387,0,0
-245,-363,0,0,0,0,0,0,0,0,0,-1,979,1387,0,0
-238,-363,0,0,0,0,0,0,0,0,0,-1,986,1387,0,0
-231,-363,0,0,0,0,0,0,0,0,0,-1,993,1387,0,0
-224,-363,0,0,0,0,0,0,0,0,0,-1,1000,1387,0,0
-217,-363,0,0,0,0,0,0,0,0,0,-1,1007,1387,0,0
-210,-363,0,0,0,0,0,0,0,0,0,-1,1014,1387,0,0
-203,-363,0,0,0,0,0,0,0,0,0,-1,1021,1387,0,0
-196,-363,0,0,0,0,0,0,0,0,0,-1,1028,1387,0,0
-189,-363,0,0,0,0,0,0,0,0,0,-1,1035,1387,0,0
-182,-363,0,0,0,0,0,0,0,0,0,-1,1042,1387,0,0
-175,-363,0,0,0,0,0,0,0,0,0,-1,1049,1387,0,0
-168,-363,0,0,0,0,0,0,0,0,0,-1,1056,1387,0,0
-161,-363,0,0,0,0,0,0,0,0,0,-1,1063,1387,0,0
-154,-363,0,0,0,0,0,0,0,0,0,-1,1070,1387,0,0
-147,-363,0,0,0,0,0,0,0,0,0,-1,1077,1387,0,0
-140,-363,0,0,0,0,0,0,0,0,0,-1,1084,1387,0,0
-133,-363,0,0,0,0,0,0,0,0,0,-1,1091,1387,0,0
-126,-363,0,0,0,0,0,0,0,0,0,-1,1098,1387,0,0
-119,-363,0,0,0,0,0,0,0,0,0,-1,1105,1387,0,0
-112,-363,0,0,0,0,0,0,0,0,0,-1,1112,1387,0,0
-105,-363,0,0,0,0,0,0,0,0,0,-1,1119,1387,0,0
-98,-363,0,0,0,0,0,0,0,0,0,-1,1126,1387,0,0
-91,-363,0,0,0,0,0,0,0,0,0,-1,1133,1387,0,0
-84,-363,0,0,0,0,0,0,0,0,0,-1,1140,1387,0,0
-77,-363,0,0,0,0,0,0,0,0,0,-1,1147,1387,0,0
-70,-363,0,0,0,0,0,0,0,0,0,-1,1154,1387,0,0
-63,-363,0,0,0,0,0,0,0,0,0,-1,1161,1387,0,0
-56,-363,0,0,0,0,0,0,0,0,0,-1,1168,1387,0,0
-49,-363,0,0,0,0,0,0,0,0,0,-1,1175,1387,0,0
-42,-363,0,0,0,0,0,0,0,0,0,-1,1182,1387,0,0
-35,-363,0,0,0,0,0,0,0,0,0,-1,1189,1387,0,0
-28,-363,0,0,0,0,0,0,0,0,0,-1,1196,1387,0,0
-21,-363,0,0,0,0,0,0,0,0,0,-1,1203,1387,0,0
-14,-363,0,0,0,0,0,0,0,0,0,-1,1210,1387,0,0
-7,-363,0,0,0,0,0,0,0,0,0,-1,1217,1387,0,0
0,-363,0,0,0,0,0,0,0,0,0,-1,1224,1387,0,0
7,-363,0,0,0,0,0,0,0,0,0,-1,1231,1387,0,0
14,-363,0,0,0,0,0,0,0,0,0,-1,1238,1387,0,0
21,-363,0,0,0,0,0,0,0,0,0,-1,1245,1387,0,0
28,-363,0,0,0,0,0,0,0,0,0,-1,1252,1387,0,0
35,-363,0,0,0,0,0,0,0,0,0,-1,1259,1387,0,0
42,-363,0,0,0,0,0,0,0,0,0,-1,1266,1387,0,0
49,-363,0,0,0,0,0,0,0,0,0,-1,1273,1387,0,0
56,-363,0,0,0,0,0,0,0,0,0,-1,1280,1387,0,0
63,-363,0,0,0,0,0,0,0,0,0,-1,1287,1387,0,0
70,-363,0,0,0,0,0,0,0,0,0,-1,1294,1387,0,0
77,-363,0,0,0,0,0,0,0,0,0,-1,1301,1387,0,0
84,-363,0,0,0,0,0,0,0,0,0,-1,1308,1387,0,0
91,-363,0,0,0,0,0,0,0,0,0,-1,1315,1387,0,0
98,-363,0,0,0,0,0,0,0,0,0,-1,1322,1387,0,0
105,-363,0,0,0,0,0,0,0,0,0,-1,1329,1387,0,0
112,-363,0,0,0,0,0,0,0,0,0,-1,1336,1387,0,0
119,-363,0,0,0,0,0,0,0,0,0,-1,1343,1387,0,0
126,-363,0,0,0,0,0,0,0,0,0,-1,1350,1387,0,0
133,-363,0,0,0,0,0,0,0,0,0,-1,1357,1387,0,0
140,-363,0,0,0,0,0,0,0,0,0,-1,1364,1387,0,0
147,-363,0,0,0,0,0,0,0,0,0,-1,1371,1387,0,0
154,-363,0,0,0,0,0,0,0,0,0,-1,1378,1387,0,0
161,-363,0,0,0,0,0,0,0,0,0,-1,1385,1387,0,0
168,-363,0,0,0,0,0,0,0,0,0,-1,1392,1387,0,0
175,-363,0,0,0,0,0,0,0,0,0,-1,1399,1387,0,0
182,-363,0,0,0,0,0,0,0,0,0,-1,1406,1387,0,0
189,-363,0,0,0,0,0,0,0,0,0,-1,1413,1387,0,0
196,-363,0,0,0,0,0,0,0,0,0,-1,1420,1387,0,0
203,-363,0,0,0,0,0,0,0,0,0,-1,1427,1387,0,0
210,-363,0,0,0,0,0,0,0,0,0,-1,1434,1387,0,0
217,-363,0,0,0,0,0,0,0,0,0,-1,1441,1387,0,0
224,-363,0,0,0,0,0,0,0,0,0,-1,1448,1387,0,0
231,-363,0,0,0,0,0,0,0,0,0,-1,1455,1387,0,0
238,-363,0,0,0,0,0,0,0,0,0,-1,1462,1387,0,0
245,-363,0,0,0,0,0,0,0,0,0,-1,1469,1387,0,0
252,-363,0,0,0,0,0,0,0,0,0,-1,1476,1387,0,0
259,-363,0,0,0,0,0,0,0,0,0,-1,1483,1387,0,0
266,-363,0,0,0,0,0,0,0,0,0,-1,1490,1387,0,0
273,-363,0,0,0,0,0,0,0,0,0,-1,1497,1387,0,0
280,-363,0,0,0,0,0,0,0,0,0,-1,1504,1387,0,0
287,-363,0,0,0,0,0,0,0,0,0,-1,1511,1387,0,0
294,-363,0,0,0,0,0,0,0,0,0,-1,1518,1387,0,0
301,-363,0,0,0,0,0,0,0,0,0,-1,1525,1387,0,0
308,-363,0,0,0,0,0,0,0,0,0,-1,1532,1387,0,0
315,-363,0,0,0,0,0,0,0,0,0,-1,1539,1387,0,0
322,-363,0,0,0,0,0,0,0,0,0,-1,1546,1387,0,0
329,-363,0,0,0,0,0,0,0,0,0,-1,1553,1387,0,0
336,-363,0,0,0,0,0,0,0,0,0,-1,1560,1387,0,0
343,-363,0,0,0,0,0,0,0,0,0,-1,1567,1387,0,0
350,-363,0,0,0,0,0,0,0,0,0,-1,1574,1387,0,0
357,-363,0,0,0,0,0,0,0,0,0,-1,1581,1387,0,0
364,-363,0,0,0,0,0,0,0,0,0,-1,1588,1387,0,0
371,-363,0,0,0,0,0,0,0,0,0,-1,1595,1387,0,0
378,-363,0,0,0,0,0,0,0,0,0,-1,1602,1387,0,0
385,-363,0,0,0,0,0,0,0,0,0,-1,1609,1387,0,0
392,-363,0,0,0,0,0,0,0,0,0,-1,1616,1387,0,0
399,-363,0,0,0,0,0,0,0,0,0,-1,1623,1387,0,0
406,-363,0,0,0,0,0,0,0,0,0,-1,1630,1387,0,0
413,-363,0,0,0,0,0,0,0,0,0,-1,1637,1387,0,0
420,-363,0,0,0,0,0,0,0,0,0,-1,1644,1387,0,0
427,-363,0,0,0,0,0,0,0,0,0,-1,1651,1387,0,0
434,-363,0,0,0,0,0,0,0,0,0,-1,1658,1387,0,0
441,-363,0,0,0,0,0,0,0,0,0,-1,1665,1387,0,0
448,-363,0,0,0,0,0,0,0,0,0,-1,1672,1387,0,0
455,-363,0,0,0,0,0,0,0,0,0,-1,1679,1387,0,0
462,-363,0,0,0,0,0,0,0,0,0,-1,1686,1387,0,0
469,-363,0,0,0,0,0,0,0,0,0,-1,1693,1387,0,0
476,-363,0,0,0,0,0,0,0,0,0,-1,1700,1387,0,0
483,-363,0,0,0,0,0,0,0,0,0,-1,1707,1387,0,0
490,-363,0,0,0,0,0,0,0,0,0,-1,1714,1387,0,0
497,-363,0,0,0,0,0,0,0,0,0,-1,1721,1387,0,0
504,-363,0,0,0,0,0,0,0,0,0,-1,1728,1387,0,0
511,-363,0,0,0,0,0,0,0,0,0,-1,1735,1387,0,0
518,-363,0,0,0,0,0,0,0,0,0,-1,1742,1387,0,0
525,-363,0,0,0,0,0,0,0,0,0,-1,1749,1387,0,0
532,-363,0,0,0,0,0,0,0,0,0,-1,1756,1387,0,0
539,-363,0,0,0,0,0,0,0,0,0,-1,1763,1387,0,0
546,-363,0,0,0,0,0,0,0,0,0,-1,1770,1387,0,0
553,-363,62.1395,3.42249,0,0,0,0,0,0,0,-1,1777,1387,62.1395,-3.42245
560,-363,63.2896,2.40808,0,0,0,0,0,0,0,-1,1784,1387,63.2896,-2.40811
567,-363,64.4463,1.38135,0,0,0,0,0,0,0,-1,1791,1387,64.4463,-1.38131
574,-363,45.7261,2.8075,0,0,0,0,0,0,0,-1,1798,1387,45.7261,-2.80754
581,-363,39.2413,1.97632,0,0,0,0,0,0,0,-1,1805,1387,39.2413,-1.97636
588,-363,32.5608,6.72131,0,0,0,0,0,0,0,-1,1812,1387,32.5608,-6.72131
595,-363,31.4688,6.95435,0,0,0,0,0,0,0,-1,1819,1387,31.4688,-6.95431
602,-363,25.7437,5.33667,0,0,0,0,0,0,0,-1,1826,1387,25.7437,-5.33667
609,-363,27.7048,7.06885,0,0,0,0,0,0,0,-1,1833,1387,27.7048,-7.06882
616,-363,16.229,1.08704,0,0,0,0,0,0,0,-1,1840,1387,16.229,-1.08706
623,-363,15.7283,7.16663,0,0,0,0,0,0,0,-1,1847,1387,15.7282,-7.16665
630,-363,18.3192,9.27844,0,0,0,0,0,0,0,-1,1854,1387,18.3192,-9.27843
637,-363,43.9,22.1332,0,0,0,0,0,0,0,-1,1861,1387,43.9,-22.1332
644,-363,43.897,21.2223,0.000260256,0.000614822,-0.000696387,0.00115614,-0.000281059,-0.910038,0.000879543,0.0200909,1868,1387,43.897,-21.2223
651,-363,43.8748,20.3491,0.000374285,0.000294775,-0.000371601,0.000708251,-3.91911e-05,-0.73211,0.000485759,0.0118553,1875,1387,43.8747,-20.3492
658,-363,43.8311,19.5276,0.000811609,0.000153178,-0.000334044,0.000951401,1.33856e-05,-0.396339,0.000629853,0.0120789,1882,1387,43.8311,-19.5276
665,-363,43.7814,18.7334,0.00137309,0.000101586,-0.000479781,0.00153381,-5.91364e-05,-0.323241,0.00104281,0.0126314,1889,1387,43.7813,-18.7335
672,-363,43.7371,17.9548,0.00201478,0.000173989,-0.000769421,0.00229402,-0.000105256,-0.348146,0.00156561,0.0140842,1896,1387,43.7371,-17.9549
679,-363,43.7021,17.1595,0.0027642,0.000346585,-0.00121194,0.00326712,-0.000156333,-0.393345,0.00223202,0.0148572,1903,1387,43.7021,-17.1596
686,-363,43.6595,16.3116,0.00364104,0.000642087,-0.00181828,0.00449838,-0.000215252,-0.440597,0.00307318,0.0149443,1910,1387,43.6596,-16.3117
693,-363,43.6018,15.4813,0.00465829,0.00109638,-0.00259356,0.0060235,-0.000268828,-0.484531,0.00410821,0.0138494,1917,1387,43.6019,-15.4813
700,-363,43.7743,14.5986,0.00587973,0.00180318,-0.00365395,0.00802546,-0.000342553,-0.530982,0.00546807,0.0366973,1924,1387,43.7743,-14.5986
707,-363,44.1477,13.7426,0,0,0,0,0,0,0,-1,1931,1387,44.1477,-13.7425
714,-363,16.5782,5.3147,0,0,0,0,0,0,0,-1,1938,1387,16.5783,-5.31472
721,-363,14.4045,4.51685,0,0,0,0,0,0,0,-1,1945,1387,14.4045,-4.51685
728,-363,19.9756,0.853027,0,0,0,0,0,0,0,-1,1952,1387,19.9756,-0.853059
735,-363,21.4297,1.2981,0,0,0,0,0,0,0,-1,1959,1387,21.4297,-1.29811
742,-363,21.3621,2.79663,0,0,0,0,0,0,0,-1,1966,1387,21.362,-2.7966
749,-363,0,0,0,0,0,0,0,0,0,-1,1973,1387,0,0
756,-363,0,0,0,0,0,0,0,0,0,-1,1980,1387,0,0
763,-363,0,0,0,0,0,0,0,0,0,-1,1987,1387,0,0
770,-363,0,0,0,0,0,0,0,0,0,-1,1994,1387,0,0
777,-363,0,0,0,0,0,0,0,0,0,-1,2001,1387,0,0
784,-363,0,0,0,0,0,0,0,0,0,-1,2008,1387,0,0
791,-363,0,0,0,0,0,0,0,0,0,-1,2015,1387,0,0
798,-363,0,0,0,0,0,0,0,0,0,-1,2022,1387,0,0
805,-363,0,0,0,0,0,0,0,0,0,-1,2029,1387,0,0
812,-363,0,0,0,0,0,0,0,0,0,-1,2036,1387,0,0
-700,-370,0,0,0,0,0,0,0,0,0,-1,524,1394,0,0
-693,-370,0,0,0,0,0,0,0,0,0,-1,531,1394,0,0
-686,-370,0,0,0,0,0,0,0,0,0,-1,538,1394,0,0
-679,-370,0,0,0,0,0,0,0,0,0,-1,545,1394,0,0
-672,-370,0,0,0,0,0,0,0,0,0,-1,552,1394,0,0
-665,-370,0,0,0,0,0,0,0,0,0,-1,559,1394,0,0
-658,-370,0,0,0,0,0,0,0,0,0,-1,566,1394,0,0
-651,-370,0,0,0,0,0,0,0,0,0,-1,573,1394,0,0
-644,-370,0,0,0,0,0,0,0,0,0,-1,580,1394,0,0
-637,-370,0,0,0,0,0,0,0,0,0,-1,587,1394,0,0
-630,-370,0,0,0,0,0,0,0,0,0,-1,594,1394,0,0
-623,-370,-10.1758,-7.10486,0,0,0,0,0,0,0,-1,601,1394,-10.1758,7.10483
-616,-370,-8.85925,-1.61475,0,0,0,0,0,0,0,-1,608,1394,-8.85925,1.61476
-609,-370,-5.39325,0.0421143,0,0,0,0,0,0,0,-1,615,1394,-5.39328,-0.0421372
-602,-370,-12.3151,3.44592,0,0,0,0,0,0,0,-1,622,1394,-12.3151,-3.44595
-595,-370,-7.53284,5.44214,0,0,0,0,0,0,0,-1,629,1394,-7.53284,-5.44216
-588,-370,-11.2422,4.50598,0,0,0,0,0,0,0,-1,636,1394,-11.2422,-4.50596
-581,-370,-13.1575,5.84888,0,0,0,0,0,0,0,-1,643,1394,-13.1575,-5.84887
-574,-370,-13.0107,6.69861,0,0,0,0,0,0,0,-1,650,1394,-13.0108,-6.69866
-567,-370,-26.1371,14.0573,0,0,0,0,0,0,0,-1,657,1394,-26.1371,-14.0572
-560,-370,-26.1318,15.0326,0.00576257,0.00344162,0.00365713,0.00843893,0.00076526,0.631764,0.00538901,0.0397737,664,1394,-26.1318,-15.0326
-553,-370,-26.0634,15.975,0.00480021,0.0023945,0.00282573,0.00666846,0.000526262,0.584176,0.00428101,0.0113768,671,1394,-26.0634,-15.975
-546,-370,-26.075,16.818,0.00407678,0.00155345,0.00221644,0.00536549,0.000264738,0.526655,0.0034921,0.0154869,678,1394,-26.0749,-16.818
-539,-370,-26.0953,17.7139,0.00360896,0.000917568,0.001809,0.0045179,8.62591e-06,0.465609,0.00300906,0.019568,685,1394,-26.0953,-17.7139
-532,-370,-26.2197,18.5935,0.00339637,0.000482201,0.00159812,0.00410194,-0.000223371,0.415764,0.00281204,0.021812,692,1394,-26.2197,-18.5935
-525,-370,-26.2469,19.3776,0.0034082,0.000187226,0.00154621,0.00403029,-0.000434868,0.382519,0.00284293,0.0200157,699,1394,-26.2469,-19.3775
-518,-370,-26.2462,20.1971,0.00363391,6.01673e-05,0.0016616,0.00428708,-0.000593007,0.374544,0.00307485,0.0144083,706,1394,-26.2461,-20.1972
-511,-370,-26.2659,21.0721,0.00411831,0.000109118,0.00197214,0.00492578,-0.000698357,0.388619,0.00353968,0.0174226,713,1394,-26.2659,-21.0722
-504,-370,-26.281,21.9525,0,0,0,0,0,0,0,-1,720,1394,-26.281,-21.9525
-497,-370,-12.3546,11.7982,0,0,0,0,0,0,0,-1,727,1394,-12.3546,-11.7983
-490,-370,-5.30695,4.5271,0,0,0,0,0,0,0,-1,734,1394,-5.30698,-4.52704
-483,-370,-6.02997,4.59253,0,0,0,0,0,0,0,-1,741,1394,-6.02994,-4.5925
-476,-370,-6.75293,4.65796,0,0,0,0,0,0,0,-1,748,1394,-6.7529,-4.65795
-469,-370,-10.584,1.14294,0,0,0,0,0,0,0,-1,755,1394,-10.584,-1.14293
-462,-370,-9.54462,0.387207,0,0,0,0,0,0,0,-1,762,1394,-9.5446,-0.387176
-455,-370,-8.50525,-0.36853,0,0,0,0,0,0,0,-1,769,1394,-8.50523,0.368582
-448,-370,-10.9543,2.28833,0,0,0,0,0,0,0,-1,776,1394,-10.9543,-2.28835
-441,-370,-11.8699,1.8313,0,0,0,0,0,0,0,-1,783,1394,-11.8699,-1.83127
-434,-370,-12.7855,1.37415,0,0,0,0,0,0,0,-1,790,1394,-12.7855,-1.37419
-427,-370,0,0,0,0,0,0,0,0,0,-1,797,1394,0,0
-420,-370,0,0,0,0,0,0,0,0,0,-1,804,1394,0,0
-413,-370,0,0,0,0,0,0,0,0,0,-1,811,1394,0,0
-406,-370,0,0,0,0,0,0,0,0,0,-1,818,1394,0,0
-399,-370,0,0,0,0,0,0,0,0,0,-1,825,1394,0,0
-392,-370,0,0,0,0,0,0,0,0,0,-1,832,1394,0,0
-385,-370,0,0,0,0,0,0,0,0,0,-1,839,1394,0,0
-378,-370,0,0,0,0,0,0,0,0,0,-1,846,1394,0,0
-371,-370,0,0,0,0,0,0,0,0,0,-1,853,1394,0,0
-364,-370,0,0,0,0,0,0,0,0,0,-1,860,1394,0,0
-357,-370,0,0,0,0,0,0,0,0,0,-1,867,1394,0,0
-350,-370,0,0,0,0,0,0,0,0,0,-1,874,1394,0,0
-343,-370,0,0,0,0,0,0,0,0,0,-1,881,1394,0,0
-336,-370,0,0,0,0,0,0,0,0,0,-1,888,1394,0,0
-329,-370,0,0,0,0,0,0,0,0,0,-1,895,1394,0,0
-322,-370,0,0,0,0,0,0,0,0,0,-1,902,1394,0,0
-315,-370,0,0,0,0,0,0,0,0,0,-1,909,1394,0,0
-308,-370,0,0,0,0,0,0,0,0,0,-1,916,1394,0,0
-301,-370,0,0,0,0,0,0,0,0,0,-1,923,1394,0,0
-294,-370,0,0,0,0,0,0,0,0,0,-1,930,1394,0,0
-287,-370,0,0,0,0,0,0,0,0,0,-1,937,1394,0,0
-280,-370,0,0,0,0,0,0,0,0,0,-1,944,1394,0,0
-273,-370,0,0,0,0,0,0,0,0,0,-1,951,1394,0,0
-266,-370,0,0,0,0,0,0,0,0,0,-1,958,1394,0,0
-259,-370,0,0,0,0,0,0,0,0,0,-1,965,1394,0,0
-252,-370,0,0,0,0,0,0,0,0,0,-1,972,1394,0,0
-245,-370,0,0,0,0,0,0,0,0,0,-1,979,1394,0,0
-238,-370,0,0,0,0,0,0,0,0,0,-1,986,1394,0,0
-231,-370,0,0,0,0,0,0,0,0,0,-1,993,1394,0,0
-224,-370,0,0,0,0,0,0,0,0,0,-1,1000,1394,0,0
-217,-370,0,0,0,0,0,0,0,0,0,-1,1007,1394,0,0
-210,-370,0,0,0,0,0,0,0,0,0,-1,1014,1394,0,0
-203,-370,0,0,0,0,0,0,0,0,0,-1,1021,1394,0,0
-196,-370,0,0,0,0,0,0,0,0,0,-1,1028,1394,0,0
-189,-370,0,0,0,0,0,0,0,0,0,-1,1035,1394,0,0
-182,-370,0,0,0,0,0,0,0,0,0,-1,1042,1394,0,0
-175,-370,0,0,0,0,0,0,0,0,0,-1,1049,1394,0,0
-168,-370,0,0,0,0,0,0,0,0,0,-1,1056,1394,0,0
-161,-370,0,0,0,0,0,0,0,0,0,-1,1063,1394,0,0
-154,-370,0,0,0,0,0,0,0,0,0,-1,1070,1394,0,0
-147,-370,0,0,0,0,0,0,0,0,0,-1,1077,1394,0,0
-140,-370,0,0,0,0,0,0,0,0,0,-1,1084,1394,0,0
-133,-370,0,0,0,0,0,0,0,0,0,-1,1091,1394,0,0
-126,-370,0,0,0,0,0,0,0,0,0,-1,1098,1394,0,0
-119,-370,0,0,0,0,0,0,0,0,0,-1,1105,1394,0,0
-112,-370,0,0,0,0,0,0,0,0,0,-1,1112,1394,0,0
-105,-370,0,0,0,0,0,0,0,0,0,-1,1119,1394,0,0
-98,-370,0,0,0,0,0,0,0,0,0,-1,1126,1394,0,0
-91,-370,0,0,0,0,0,0,0,0,0,-1,1133,1394,0,0
-84,-370,0,0,0,0,0,0,0,0,0,-1,1140,1394,0,0
-77,-370,0,0,0,0,0,0,0,0,0,-1,1147,1394,0,0
-70,-370,0,0,0,0,0,0,0,0,0,-1,1154,1394,0,0
-63,-370,0,0,0,0,0,0,0,0,0,-1,1161,1394,0,0
-56,-370,0,0,0,0,0,0,0,0,0,-1,1168,1394,0,0
-49,-370,0,0,0,0,0,0,0,0,0,-1,1175,1394,0,0
-42,-370,0,0,0,0,0,0,0,0,0,-1,1182,1394,0,0
-35,-370,0,0,0,0,0,0,0,0,0,-1,1189,1394,0,0
-28,-370,0,0,0,0,0,0,0,0,0,-1,1196,1394,0,0
-21,-370,0,0,0,0,0,0,0,0,0,-1,1203,1394,0,0
-14,-370,0,0,0,0,0,0,0,0,0,-1,1210,1394,0,0
-7,-370,0,0,0,0,0,0,0,0,0,-1,1217,1394,0,0
0,-370,0,0,0,0,0,0,0,0,0,-1,1224,1394,0,0
7,-370,0,0,0,0,0,0,0,0,0,-1,1231,1394,0,0
14,-370,0,0,0,0,0,0,0,0,0,-1,1238,1394,0,0
21,-370,0,0,0,0,0,0,0,0,0,-1,1245,1394,0,0
28,-370,0,0,0,0,0,0,0,0,0,-1,1252,1394,0,0
35,-370,0,0,0,0,0,0,0,0,0,-1,1259,1394,0,0
42,-370,0,0,0,0,0,0,0,0,0,-1,1266,1394,0,0
49,-370,0,0,0,0,0,0,0,0,0,-1,1273,1394,0,0
56,-370,0,0,0,0,0,0,0,0,0,-1,1280,1394,0,0
63,-370,0,0,0,0,0,0,0,0,0,-1,1287,1394,0,0
70,-370,0,0,0,0,0,0,0,0,0,-1,1294,1394,0,0
77,-370,0,0,0,0,0,0,0,0,0,-1,1301,1394,0,0
84,-370,0,0,0,0,0,0,0,0,0,-1,1308,1394,0,0
91,-370,0,0,0,0,0,0,0,0,0,-1,1315,1394,0,0
98,-370,0,0,0,0,0,0,0,0,0,-1,1322,1394,0,0
105,-370,0,0,0,0,0,0,0,0,0,-1,1329,1394,0,0
112,-370,0,0,0,0,0,0,0,0,0,-1,1336,1394,0,0
119,-370,0,0,0,0,0,0,0,0,0,-1,1343,1394,0,0
126,-370,0,0,0,0,0,0,0,0,0,-1,1350,1394,0,0
133,-370,0,0,0,0,0,0,0,0,0,-1,1357,1394,0,0
140,-370,0,0,0,0,0,0,0,0,0,-1,1364,1394,0,0
147,-370,0,0,0,0,0,0,0,0,0,-1,1371,1394,0,0
154,-370,0,0,0,0,0,0,0,0,0,-1,1378,1394,0,0
161,-370,0,0,0,0,0,0,0,0,0,-1,1385,1394,0,0
168,-370,0,0,0,0,0,0,0,0,0,-1,1392,1394,0,0
175,-370,0,0,0,0,0,0,0,0,0,-1,1399,1394,0,0
182,-370,0,0,0,0,0,0,0,0,0,-1,1406,1394,0,0
189,-370,0,0,0,0,0,0,0,0,0,-1,1413,1394,0,0
196,-370,0,0,0,0,0,0,0,0,0,-1,1420,1394,0,0
203,-370,0,0,0,0,0,0,0,0,0,-1,1427,1394,0,0
210,-370,0,0,0,0,0,0,0,0,0,-1,1434,1394,0,0
217,-370,0,0,0,0,0,0,0,0,0,-1,1441,1394,0,0
224,-370,0,0,0,0,0,0,0,0,0,-1,1448,1394,0,0
231,-370,0,0,0,0,0,0,0,0,0,-1,1455,1394,0,0
238,-370,0,0,0,0,0,0,0,0,0,-1,1462,1394,0,0
245,-370,0,0,0,0,0,0,0,0,0,-1,1469,1394,0,0
252,-370,0,0,0,0,0,0,0,0,0,-1,1476,1394,0,0
259,-370,0,0,0,0,0,0,0,0,0,-1,1483,1394,0,0
266,-370,0,0,0,0,0,0,0,0,0,-1,1490,1394,0,0
273,-370,0,0,0,0,0,0,0,0,0,-1,1497,1394,0,0
280,-370,0,0,0,0,0,0,0,0,0,-1,1504,1394,0,0
287,-370,0,0,0,0,0,0,0,0,0,-1,1511,1394,0,0
294,-370,0,0,0,0,0,0,0,0,0,-1,1518,1394,0,0
301,-370,0,0,0,0,0,0,0,0,0,-1,1525,1394,0,0
308,-370,0,0,0,0,0,0,0,0,0,-1,1532,1394,0,0
315,-370,0,0,0,0,0,0,0,0,0,-1,1539,1394,0,0
322,-370,0,0,0,0,0,0,0,0,0,-1,1546,1394,0,0
329,-370,0,0,0,0,0,0,0,0,0,-1,1553,1394,0,0
336,-370,0,0,0,0,0,0,0,0,0,-1,1560,1394,0,0
343,-370,0,0,0,0,0,0,0,0,0,-1,1567,1394,0,0
350,-370,0,0,0,0,0,0,0,0,0,-1,1574,1394,0,0
357,-370,0,0,0,0,0,0,0,0,0,-1,1581,1394,0,0
364,-370,0,0,0,0,0,0,0,0,0,-1,1588,1394,0,0
371,-370,0,0,0,0,0,0,0,0,0,-1,1595,1394,0,0
378,-370,0,0,0,0,0,0,0,0,0,-1,1602,1394,0,0
385,-370,0,0,0,0,0,0,0,0,0,-1,1609,1394,0,0
392,-370,0,0,0,0,0,0,0,0,0,-1,1616,1394,0,0
399,-370,0,0,0,0,0,0,0,0,0,-1,1623,1394,0,0
406,-370,0,0,0,0,0,0,0,0,0,-1,1630,1394,0,0
413,-370,0,0,0,0,0,0,0,0,0,-1,1637,1394,0,0
420,-370,0,0,0,0,0,0,0,0,0,-1,1644,1394,0,0
427,-370,0,0,0,0,0,0,0,0,0,-1,1651,1394,0,0
434,-370,0,0,0,0,0,0,0,0,0,-1,1658,1394,0,0
441,-370,0,0,0,0,0,0,0,0,0,-1,1665,1394,0,0
448,-370,0,0,0,0,0,0,0,0,0,-1,1672,1394,0,0
455,-370,0,0,0,0,0,0,0,0,0,-1,1679,1394,0,0
462,-370,0,0,0,0,0,0,0,0,0,-1,1686,1394,0,0
469,-370,0,0,0,0,0,0,0,0,0,-1,1693,1394,0,0
476,-370,0,0,0,0,0,0,0,0,0,-1,1700,1394,0,0
483,-370,0,0,0,0,0,0,0,0,0,-1,1707,1394,0,0
490,-370,0,0,0,0,0,0,0,0,0,-1,1714,1394,0,0
497,-370,0,0,0,0,0,0,0,0,0,-1,1721,1394,0,0
504,-370,0,0,0,0,0,0,0,0,0,-1,1728,1394,0,0
511,-370,0,0,0,0,0,0,0,0,0,-1,1735,1394,0,0
518,-370,0,0,0,0,0,0,0,0,0,-1,1742,1394,0,0
525,-370,0,0,0,0,0,0,0,0,0,-1,1749,1394,0,0
532,-370,0,0,0,0,0,0,0,0,0,-1,1756,1394,0,0
539,-370,0,0,0,0,0,0,0,0,0,-1,1763,1394,0,0
546,-370,60.9257,3.80493,0,0,0,0,0,0,0,-1,1770,1394,60.9256,-3.80494
553,-370,61.9966,2.87524,0,0,0,0,0,0,0,-1,1777,1394,61.9966,-2.8753
560,-370,63.1577,1.82617,0,0,0,0,0,0,0,-1,1784,1394,63.1578,-1.82617
567,-370,46.1089,3.11719,0,0,0,0,0,0,0,-1,1791,1394,46.1089,-3.1172
574,-370,38.8953,1.49353,0,0,0,0,0,0,0,-1,1798,1394,38.8952,-1.49348
581,-370,39.178,2.86145,0,0,0,0,0,0,0,-1,1805,1394,39.1779,-2.86145
588,-370,39.2102,4.27661,0,0,0,0,0,0,0,-1,1812,1394,39.2102,-4.27657
595,-370,25.793,4.5271,0,0,0,0,0,0,0,-1,1819,1394,25.793,-4.52711
602,-370,25.1077,5.34937,0,0,0,0,0,0,0,-1,1826,1394,25.1077,-5.34932
609,-370,16.712,0.993286,0,0,0,0,0,0,0,-1,1833,1394,16.7121,-0.99323
616,-370,16.7764,7.23315,0,0,0,0,0,0,0,-1,1840,1394,16.7764,-7.23313
623,-370,17.6625,8.94263,0,0,0,0,0,0,0,-1,1847,1394,17.6624,-8.94258
630,-370,20.9681,11.1785,0,0,0,0,0,0,0,-1,1854,1394,20.9681,-11.1784
637,-370,43.1263,22.0797,0,0,0,0,0,0,0,-1,1861,1394,43.1264,-22.0797
644,-370,43.1155,21.2303,-6.2909e-06,0.00041901,-0.000443884,0.000698551,-0.000285832,-1.00878,0.000584748,0.0158626,1868,1394,43.1155,-21.2304
651,-370,43.0763,20.3873,0.000294645,0.000170942,-0.000274464,0.00051414,-4.85539e-05,-0.674573,0.000360038,0.0133154,1875,1394,43.0763,-20.3873
658,-370,43.0225,19.5854,0.000855314,6.22282e-05,-0.000333749,0.000977071,-5.95287e-05,-0.349812,0.000672103,0.0140759,1882,1394,43.0224,-19.5854
665,-370,42.9685,18.761,0.00153031,4.55127e-05,-0.000554,0.00171424,-0.00013841,-0.320541,0.00119164,0.0155566,1889,1394,42.9684,-18.761
672,-370,42.9242,17.9343,0.00231095,0.000129463,-0.000923715,0.00264953,-0.000209119,-0.351336,0.00184003,0.0159234,1896,1394,42.9241,-17.9343
679,-370,42.9088,17.1503,0.00321898,0.000305681,-0.00145776,0.00382314,-0.000298471,-0.39289,0.00265385,0.0149247,1903,1394,42.9089,-17.1502
686,-370,42.8365,16.3475,0.00427919,0.000593579,-0.00217819,0.00528953,-0.000416762,-0.434307,0.00367316,0.01466,1910,1394,42.8366,-16.3476
693,-370,42.7766,15.4817,0.00551368,0.00105077,-0.00311124,0.00711096,-0.000546509,-0.474302,0.00493291,0.015854,1917,1394,42.7767,-15.4817
700,-370,43.1584,14.5414,0,0,0,0,0,0,0,-1,1924,1394,43.1585,-14.5413
707,-370,39.2391,11.5549,0,0,0,0,0,0,0,-1,1931,1394,39.2392,-11.555
714,-370,16.9116,5.93018,0,0,0,0,0,0,0,-1,1938,1394,16.9116,-5.93014
721,-370,17.2007,4.69153,0,0,0,0,0,0,0,-1,1945,1394,17.2007,-4.69158
728,-370,20.5315,-0.313354,0,0,0,0,0,0,0,-1,1952,1394,20.5315,0.313332
735,-370,22.3652,0.233398,0,0,0,0,0,0,0,-1,1959,1394,22.3652,-0.233355
742,-370,24.1989,0.780029,0,0,0,0,0,0,0,-1,1966,1394,24.1989,-0.780041
749,-370,0,0,0,0,0,0,0,0,0,-1,1973,1394,0,0
756,-370,0,0,0,0,0,0,0,0,0,-1,1980,1394,0,0
763,-370,0,0,0,0,0,0,0,0,0,-1,1987,1394,0,0
770,-370,0,0,0,0,0,0,0,0,0,-1,1994,1394,0,0
777,-370,0,0,0,0,0,0,0,0,0,-1,2001,1394,0,0
784,-370,0,0,0,0,0,0,0,0,0,-1,2008,1394,0,0
791,-370,0,0,0,0,0,0,0,0,0,-1,2015,1394,0,0
798,-370,0,0,0,0,0,0,0,0,0,-1,2022,1394,0,0
805,-370,0,0,0,0,0,0,0,0,0,-1,2029,1394,0,0
812,-370,0,0,0,0,0,0,0,0,0,-1,2036,1394,0,0
-700,-377,0,0,0,0,0,0,0,0,0,-1,524,1401,0,0
-693,-377,0,0,0,0,0,0,0,0,0,-1,531,1401,0,0
-686,-377,0,0,0,0,0,0,0,0,0,-1,538,1401,0,0
-679,-377,0,0,0,0,0,0,0,0,0,-1,545,1401,0,0
-672,-377,0,0,0,0,0,0,0,0,0,-1,552,1401,0,0
-665,-377,0,0,0,0,0,0,0,0,0,-1,559,1401,0,0
-658,-377,0,0,0,0,0,0,0,0,0,-1,566,1401,0,0
-651,-377,0,0,0,0,0,0,0,0,0,-1,573,1401,0,0
-644,-377,0,0,0,0,0,0,0,0,0,-1,580,1401,0,0
-637,-377,0,0,0,0,0,0,0,0,0,-1,587,1401,0,0
-630,-377,0,0,0,0,0,0,0,0,0,-1,594,1401,0,0
-623,-377,0,0,0,0,0,0,0,0,0,-1,601,1401,0,0
-616,-377,-9.43915,-2.4906,0,0,0,0,0,0,0,-1,608,1401,-9.43915,2.49062
-609,-377,-7.2821,-1.35278,0,0,0,0,0,0,0,-1,615,1401,-7.28208,1.35279
-602,-377,-14.9736,3.98279,0,0,0,0,0,0,0,-1,622,1401,-14.9737,-3.98276
-595,-377,-6.9082,1.18201,0,0,0,0,0,0,0,-1,629,1401,-6.90822,-1.18204
-588,-377,-12.8003,3.44751,0,0,0,0,0,0,0,-1,636,1401,-12.8003,-3.44754
-581,-377,-11.8243,6.21521,0,0,0,0,0,0,0,-1,643,1401,-11.8244,-6.21519
-574,-377,-12.2761,6.60547,0,0,0,0,0,0,0,-1,650,1401,-12.2761,-6.60552
-567,-377,-13.4844,7.41931,0,0,0,0,0,0,0,-1,657,1401,-13.4845,-7.41926
-560,-377,-25.4391,14.95,0,0,0,0,0,0,0,-1,664,1401,-25.4391,-14.95
-553,-377,-25.2484,15.9849,0.00547983,0.00287188,0.00325755,0.00768469,0.000667012,0.595018,0.0049159,0.0198063,671,1401,-25.2484,-15.9849
-546,-377,-25.2687,16.9233,0.00450633,0.00193275,0.00250884,0.00603913,0.000399951,0.54844,0.00389961,0.017826,678,1401,-25.2687,-16.9234
-539,-377,-25.2329,17.7456,0.00382052,0.00123194,0.00198419,0.00489523,0.000157222,0.496402,0.00321236,0.0233814,685,1401,-25.2329,-17.7456
-532,-377,-25.3605,18.5726,0.00339965,0.000727643,0.00165712,0.00419225,-6.49563e-05,0.446137,0.00281673,0.0219601,692,1401,-25.3605,-18.5727
-525,-377,-25.3271,19.4086,0.00321423,0.000381329,0.00149882,0.00386001,-0.000264449,0.406822,0.00266586,0.0246286,699,1401,-25.3271,-19.4086
-518,-377,-25.397,20.2388,0.00323423,0.000176273,0.00149497,0.00384364,-0.000433136,0.387076,0.00271833,0.0161844,706,1401,-25.397,-20.2388
-511,-377,-25.4575,21.1046,0.0034825,0.000140019,0.0016602,0.00416695,-0.000544437,0.391042,0.00297609,0.0132309,713,1401,-25.4575,-21.1046
-504,-377,-25.5048,21.9673,0.00403673,0.000292193,0.00203789,0.00493184,-0.000602918,0.413865,0.00350619,0.0171548,720,1401,-25.5048,-21.9673
-497,-377,-25.5256,22.8218,0,0,0,0,0,0,0,-1,727,1401,-25.5256,-22.8217
-490,-377,-8.88409,10.1245,0,0,0,0,0,0,0,-1,734,1401,-8.8841,-10.1245
-483,-377,-5.6524,5.07324,0,0,0,0,0,0,0,-1,741,1401,-5.6524,-5.07325
-476,-377,-6.11682,5.10535,0,0,0,0,0,0,0,-1,748,1401,-6.11681,-5.10537
-469,-377,-10.3211,1.9281,0,0,0,0,0,0,0,-1,755,1401,-10.3211,-1.92808
-462,-377,-9.2204,1.0022,0,0,0,0,0,0,0,-1,762,1401,-9.22039,-1.00218
-455,-377,-8.11969,0.0762939,0,0,0,0,0,0,0,-1,769,1401,-8.11968,-0.0762759
-448,-377,-9.05334,0.877319,0,0,0,0,0,0,0,-1,776,1401,-9.05332,-0.877324
-441,-377,-11.212,0.763428,0,0,0,0,0,0,0,-1,783,1401,-11.212,-0.763415
-434,-377,-11.0984,0.996216,0,0,0,0,0,0,0,-1,790,1401,-11.0984,-0.996265
-427,-377,-11.1733,1.25732,0,0,0,0,0,0,0,-1,797,1401,-11.1733,-1.25732
-420,-377,0,0,0,0,0,0,0,0,0,-1,804,1401,0,0
-413,-377,0,0,0,0,0,0,0,0,0,-1,811,1401,0,0
-406,-377,0,0,0,0,0,0,0,0,0,-1,818,1401,0,0
-399,-377,0,0,0,0,0,0,0,0,0,-1,825,1401,0,0
-392,-377,0,0,0,0,0,0,0,0,0,-1,832,1401,0,0
-385,-377,0,0,0,0,0,0,0,0,0,-1,839,1401,0,0
-378,-377,0,0,0,0,0,0,0,0,0,-1,846,1401,0,0
-371,-377,0,0,0,0,0,0,0,0,0,-1,853,1401,0,0
-364,-377,0,0,0,0,0,0,0,0,0,-1,860,1401,0,0
-357,-377,0,0,0,0,0,0,0,0,0,-1,867,1401,0,0
-350,-377,0,0,0,0,0,0,0,0,0,-1,874,1401,0,0
-343,-377,0,0,0,0,0,0,0,0,0,-1,881,1401,0,0
-336,-377,0,0,0,0,0,0,0,0,0,-1,888,1401,0,0
-329,-377,0,0,0,0,0,0,0,0,0,-1,895,1401,0,0
-322,-377,0,0,0,0,0,0,0,0,0,-1,902,1401,0,0
-315,-377,0,0,0,0,0,0,0,0,0,-1,909,1401,0,0
-308,-377,0,0,0,0,0,0,0,0,0,-1,916,1401,0,0
-301,-377,0,0,0,0,0,0,0,0,0,-1,923,1401,0,0
-294,-377,0,0,0,0,0,0,0,0,0,-1,930,1401,0,0
-287,-377,0,0,0,0,0,0,0,0,0,-1,937,1401,0,0
-280,-377,0,0,0,0,0,0,0,0,0,-1,944,1401,0,0
-273,-377,0,0,0,0,0,0,0,0,0,-1,951,1401,0,0
-266,-377,0,0,0,0,0,0,0,0,0,-1,958,1401,0,0
-259,-377,0,0,0,0,0,0,0,0,0,-1,965,1401,0,0
-252,-377,0,0,0,0,0,0,0,0,0,-1,972,1401,0,0
-245,-377,0,0,0,0,0,0,0,0,0,-1,979,1401,0,0
-238,-377,0,0,0,0,0,0,0,0,0,-1,986,1401,0,0
-231,-377,0,0,0,0,0,0,0,0,0,-1,993,1401,0,0
-224,-377,0,0,0,0,0,0,0,0,0,-1,1000,1401,0,0
-217,-377,0,0,0,0,0,0,0,0,0,-1,1007,1401,0,0
-210,-377,0,0,0,0,0,0,0,0,0,-1,1014,1401,0,0
-203,-377,0,0,0,0,0,0,0,0,0,-1,1021,1401,0,0
-196,-377,0,0,0,0,0,0,0,0,0,-1,1028,1401,0,0
-189,-377,0,0,0,0,0,0,0,0,0,-1,1035,1401,0,0
-182,-377,0,0,0,0,0,0,0,0,0,-1,1042,1401,0,0
-175,-377,0,0,0,0,0,0,0,0,0,-1,1049,1401,0,0
-168,-377,0,0,0,0,0,0,0,0,0,-1,1056,1401,0,0
-161,-377,0,0,0,0,0,0,0,0,0,-1,1063,1401,0,0
-154,-377,0,0,0,0,0,0,0,0,0,-1,1070,1401,0,0
-147,-377,0,0,0,0,0,0,0,0,0,-1,1077,1401,0,0
-140,-377,0,0,0,0,0,0,0,0,0,-1,1084,1401,0,0
-133,-377,0,0,0,0,0,0,0,0,0,-1,1091,1401,0,0
-126,-377,0,0,0,0,0,0,0,0,0,-1,1098,1401,0,0
-119,-377,0,0,0,0,0,0,0,0,0,-1,1105,1401,0,0
-112,-377,0,0,0,0,0,0,0,0,0,-1,1112,1401,0,0
-105,-377,0,0,0,0,0,0,0,0,0,-1,1119,1401,0,0
-98,-377,0,0,0,0,0,0,0,0,0,-1,1126,1401,0,0
-91,-377,0,0,0,0,0,0,0,0,0,-1,1133,1401,0,0
-84,-377,0,0,0,0,0,0,0,0,0,-1,1140,1401,0,0
-77,-377,0,0,0,0,0,0,0,0,0,-1,1147,1401,0,0
-70,-377,0,0,0,0,0,0,0,0,0,-1,1154,1401,0,0
-63,-377,0,0,0,0,0,0,0,0,0,-1,1161,1401,0,0
-56,-377,0,0,0,0,0,0,0,0,0,-1,1168,1401,0,0
-49,-377,0,0,0,0,0,0,0,0,0,-1,1175,1401,0,0
-42,-377,0,0,0,0,0,0,0,0,0,-1,1182,1401,0,0
-35,-377,0,0,0,0,0,0,0,0,0,-1,1189,1401,0,0
-28,-377,0,0,0,0,0,0,0,0,0,-1,1196,1401,0,0
-21,-377,0,0,0,0,0,0,0,0,0,-1,1203,1401,0,0
-14,-377,0,0,0,0,0,0,0,0,0,-1,1210,1401,0,0
-7,-377,0,0,0,0,0,0,0,0,0,-1,1217,1401,0,0
0,-377,0,0,0,0,0,0,0,0,0,-1,1224,1401,0,0
7,-377,0,0,0,0,0,0,0,0,0,-1,1231,1401,0,0
14,-377,0,0,0,0,0,0,0,0,0,-1,1238,1401,0,0
21,-377,0,0,0,0,0,0,0,0,0,-1,1245,1401,0,0
28,-377,0,0,0,0,0,0,0,0,0,-1,1252,1401,0,0
35,-377,0,0,0,0,0,0,0,0,0,-1,1259,1401,0,0
42,-377,0,0,0,0,0,0,0,0,0,-1,1266,1401,0,0
49,-377,0,0,0,0,0,0,0,0,0,-1,1273,1401,0,0
56,-377,0,0,0,0,0,0,0,0,0,-1,1280,1401,0,0
63,-377,0,0,0,0,0,0,0,0,0,-1,1287,1401,0,0
70,-377,0,0,0,0,0,0,0,0,0,-1,1294,1401,0,0
77,-377,0,0,0,0,0,0,0,0,0,-1,1301,1401,0,0
84,-377,0,0,0,0,0,0,0,0,0,-1,1308,1401,0,0
91,-377,0,0,0,0,0,0,0,0,0,-1,1315,1401,0,0
98,-377,0,0,0,0,0,0,0,0,0,-1,1322,1401,0,0
105,-377,0,0,0,0,0,0,0,0,0,-1,1329,1401,0,0
112,-377,0,0,0,0,0,0,0,0,0,-1,1336,1401,0,0
119,-377,0,0,0,0,0,0,0,0,0,-1,1343,1401,0,0
126,-377,0,0,0,0,0,0,0,0,0,-1,1350,1401,0,0
133,-377,0,0,0,0,0,0,0,0,0,-1,1357,1401,0,0
140,-377,0,0,0,0,0,0,0,0,0,-1,1364,1401,0,0
147,-377,0,0,0,0,0,0,0,0,0,-1,1371,1401,0,0
154,-377,0,0,0,0,0,0,0,0,0,-1,1378,1401,0,0
161,-377,0,0,0,0,0,0,0,0,0,-1,1385,1401,0,0
168,-377,0,0,0,0,0,0,0,0,0,-1,1392,1401,0,0
175,-377,0,0,0,0,0,0,0,0,0,-1,1399,1401,0,0
182,-377,0,0,0,0,0,0,0,0,0,-1,1406,1401,0,0
189,-377,0,0,0,0,0,0,0,0,0,-1,1413,1401,0,0
196,-377,0,0,0,0,0,0,0,0,0,-1,1420,1401,0,0
203,-377,0,0,0,0,0,0,0,0,0,-1,1427,1401,0,0
210,-377,0,0,0,0,0,0,0,0,0,-1,1434,1401,0,0
217,-377,0,0,0,0,0,0,0,0,0,-1,1441,1401,0,0
224,-377,0,0,0,0,0,0,0,0,0,-1,1448,1401,0,0
231,-377,0,0,0,0,0,0,0,0,0,-1,1455,1401,0,0
238,-377,0,0,0,0,0,0,0,0,0,-1,1462,1401,0,0
245,-377,0,0,0,0,0,0,0,0,0,-1,1469,1401,0,0
252,-377,0,0,0,0,0,0,0,0,0,-1,1476,1401,0,0
259,-377,0,0,0,0,0,0,0,0,0,-1,1483,1401,0,0
266,-377,0,0,0,0,0,0,0,0,0,-1,1490,1401,0,0
273,-377,0,0,0,0,0,0,0,0,0,-1,1497,1401,0,0
280,-377,0,0,0,0,0,0,0,0,0,-1,1504,1401,0,0
287,-377,0,0,0,0,0,0,0,0,0,-1,1511,1401,0,0
294,-377,0,0,0,0,0,0,0,0,0,-1,1518,1401,0,0
301,-377,0,0,0,0,0,0,0,0,0,-1,1525,1401,0,0
308,-377,0,0,0,0,0,0,0,0,0,-1,1532,1401,0,0
315,-377,0,0,0,0,0,0,0,0,0,-1,1539,1401,0,0
322,-377,0,0,0,0,0,0,0,0,0,-1,1546,1401,0,0
329,-377,0,0,0,0,0,0,0,0,0,-1,1553,1401,0,0
336,-377,0,0,0,0,0,0,0,0,0,-1,1560,1401,0,0
343,-377,0,0,0,0,0,0,0,0,0,-1,1567,1401,0,0
350,-377,0,0,0,0,0,0,0,0,0,-1,1574,1401,0,0
357,-377,0,0,0,0,0,0,0,0,0,-1,1581,1401,0,0
364,-377,0,0,0,0,0,0,0,0,0,-1,1588,1401,0,0
371,-377,0,0,0,0,0,0,0,0,0,-1,1595,1401,0,0
378,-377,0,0,0,0,0,0,0,0,0,-1,1602,1401,0,0
385,-377,0,0,0,0,0,0,0,0,0,-1,1609,1401,0,0
392,-377,0,0,0,0,0,0,0,0,0,-1,1616,1401,0,0
399,-377,0,0,0,0,0,0,0,0,0,-1,1623,1401,0,0
406,-377,0,0,0,0,0,0,0,0,0,-1,1630,1401,0,0
413,-377,0,0,0,0,0,0,0,0,0,-1,1637,1401,0,0
420,-377,0,0,0,0,0,0,0,0,0,-1,1644,1401,0,0
427,-377,0,0,0,0,0,0,0,0,0,-1,1651,1401,0,0
434,-377,0,0,0,0,0,0,0,0,0,-1,1658,1401,0,0
441,-377,0,0,0,0,0,0,0,0,0,-1,1665,1401,0,0
448,-377,0,0,0,0,0,0,0,0,0,-1,1672,1401,0,0
455,-377,0,0,0,0,0,0,0,0,0,-1,1679,1401,0,0
462,-377,0,0,0,0,0,0,0,0,0,-1,1686,1401,0,0
469,-377,0,0,0,0,0,0,0,0,0,-1,1693,1401,0,0
476,-377,0,0,0,0,0,0,0,0,0,-1,1700,1401,0,0
483,-377,0,0,0,0,0,0,0,0,0,-1,1707,1401,0,0
490,-377,0,0,0,0,0,0,0,0,0,-1,1714,1401,0,0
497,-377,0,0,0,0,0,0,0,0,0,-1,1721,1401,0,0
504,-377,0,0,0,0,0,0,0,0,0,-1,1728,1401,0,0
511,-377,0,0,0,0,0,0,0,0,0,-1,1735,1401,0,0
518,-377,0,0,0,0,0,0,0,0,0,-1,1742,1401,0,0
525,-377,0,0,0,0,0,0,0,0,0,-1,1749,1401,0,0
532,-377,0,0,0,0,0,0,0,0,0,-1,1756,1401,0,0
539,-377,0,0,0,0,0,0,0,0,0,-1,1763,1401,0,0
546,-377,27.8485,2.34094,0,0,0,0,0,0,0,-1,1770,1401,27.8486,-2.34091
553,-377,61.8907,2.39148,0,0,0,0,0,0,0,-1,1777,1401,61.8908,-2.39149
560,-377,38.3577,-2.15015,0,0,0,0,0,0,0,-1,1784,1401,38.3576,2.1501
567,-377,38.4889,-0.285645,0,0,0,0,0,0,0,-1,1791,1401,38.4889,0.2857
574,-377,38.6221,1.61694,0,0,0,0,0,0,0,-1,1798,1401,38.6221,-1.61689
581,-377,39.1818,3.76367,0,0,0,0,0,0,0,-1,1805,1401,39.1818,-3.76366
588,-377,25.882,4.35217,0,0,0,0,0,0,0,-1,1812,1401,25.8819,-4.3522
595,-377,25.5392,5.11804,0,0,0,0,0,0,0,-1,1819,1401,25.5392,-5.11808
602,-377,24.816,5.79126,0,0,0,0,0,0,0,-1,1826,1401,24.816,-5.79124
609,-377,15.0223,4.76135,0,0,0,0,0,0,0,-1,1833,1401,15.0224,-4.76129
616,-377,14.1842,5.78992,0,0,0,0,0,0,0,-1,1840,1401,14.1842,-5.78987
623,-377,15.8248,8.76721,0,0,0,0,0,0,0,-1,1847,1401,15.8248,-8.76725
630,-377,37.4343,20.0704,0,0,0,0,0,0,0,-1,1854,1401,37.4344,-20.0704
637,-377,42.3579,22.1508,0,0,0,0,0,0,0,-1,1861,1401,42.3579,-22.1508
644,-377,42.3217,21.276,-3.29186e-05,0.000216495,-0.000243438,0.00036531,-0.000181733,-1.02211,0.000321709,0.0149914,1868,1401,42.3216,-21.276
651,-377,42.2549,20.4202,0.000390525,4.91527e-05,-0.000209422,0.000490008,-5.03306e-05,-0.443478,0.000344676,0.0152145,1875,1401,42.2548,-20.4202
658,-377,42.1959,19.6235,0.00103599,-1.3828e-05,-0.000359451,0.00114727,-0.000125107,-0.300222,0.000809775,0.0169994,1882,1401,42.1959,-19.6235
665,-377,42.1649,18.7734,0.00180041,1.92069e-06,-0.000650025,0.00201074,-0.000208417,-0.312951,0.00141509,0.0202039,1889,1401,42.1649,-18.7735
672,-377,42.1233,17.9523,0.00270223,9.33971e-05,-0.00109341,0.00309989,-0.00030426,-0.348813,0.00217512,0.0201463,1896,1401,42.1233,-17.9522
679,-377,42.0541,17.1868,0.00375332,0.000265871,-0.00170887,0.00445107,-0.000431884,-0.387652,0.00312132,0.0194389,1903,1401,42.0541,-17.1867
686,-377,42.0052,16.4019,0.00498722,0.000519807,-0.00252059,0.00612142,-0.000614397,-0.422834,0.0043004,0.0163805,1910,1401,42.0052,-16.4019
693,-377,42.0684,15.5139,0.00643957,0.000941033,-0.00358231,0.00820599,-0.000825386,-0.458108,0.00576551,0.0287426,1917,1401,42.0684,-15.514
700,-377,42.2606,14.4897,0,0,0,0,0,0,0,-1,1924,1401,42.2606,-14.4898
707,-377,28.6234,9.18152,0,0,0,0,0,0,0,-1,1931,1401,28.6234,-9.18151
714,-377,16.5369,5.45959,0,0,0,0,0,0,0,-1,1938,1401,16.5369,-5.4596
721,-377,17.0913,5.42529,0,0,0,0,0,0,0,-1,1945,1401,17.0914,-5.42529
728,-377,14.5396,2.79724,0,0,0,0,0,0,0,-1,1952,1401,14.5396,-2.7972
735,-377,23.2977,-0.991089,0,0,0,0,0,0,0,-1,1959,1401,23.2978,0.991076
742,-377,0,0,0,0,0,0,0,0,0,-1,1966,1401,0,0
749,-377,0,0,0,0,0,0,0,0,0,-1,1973,1401,0,0
756,-377,0,0,0,0,0,0,0,0,0,-1,1980,1401,0,0
763,-377,0,0,0,0,0,0,0,0,0,-1,1987,1401,0,0
770,-377,0,0,0,0,0,0,0,0,0,-1,1994,1401,0,0
777,-377,0,0,0,0,0,0,0,0,0,-1,2001,1401,0,0
784,-377,0,0,0,0,0,0,0,0,0,-1,2008,1401,0,0
791,-377,0,0,0,0,0,0,0,0,0,-1,2015,1401,0,0
798,-377,0,0,0,0,0,0,0,0,0,-1,2022,1401,0,0
805,-377,0,0,0,0,0,0,0,0,0,-1,2029,1401,0,0
812,-377,0,0,0,0,0,0,0,0,0,-1,2036,1401,0,0
-700,-384,0,0,0,0,0,0,0,0,0,-1,524,1408,0,0
-693,-384,0,0,0,0,0,0,0,0,0,-1,531,1408,0,0
-686,-384,0,0,0,0,0,0,0,0,0,-1,538,1408,0,0
-679,-384,0,0,0,0,0,0,0,0,0,-1,545,1408,0,0
-672,-384,0,0,0,0,0,0,0,0,0,-1,552,1408,0,0
-665,-384,0,0,0,0,0,0,0,0,0,-1,559,1408,0,0
-658,-384,0,0,0,0,0,0,0,0,0,-1,566,1408,0,0
-651,-384,0,0,0,0,0,0,0,0,0,-1,573,1408,0,0
-644,-384,0,0,0,0,0,0,0,0,0,-1,580,1408,0,0
-637,-384,0,0,0,0,0,0,0,0,0,-1,587,1408,0,0
-630,-384,0,0,0,0,0,0,0,0,0,-1,594,1408,0,0
-623,-384,0,0,0,0,0,0,0,0,0,-1,601,1408,0,0
-616,-384,-10.019,-3.36646,0,0,0,0,0,0,0,-1,608,1408,-10.019,3.36648
-609,-384,-7.72357,-2.3418,0,0,0,0,0,0,0,-1,615,1408,-7.72358,2.34182
-602,-384,-11.7632,-2.85156,0,0,0,0,0,0,0,-1,622,1408,-11.7632,2.85157
-595,-384,-10.2217,2.8855,0,0,0,0,0,0,0,-1,629,1408,-10.2218,-2.88548
-588,-384,-12.1653,2.29041,0,0,0,0,0,0,0,-1,636,1408,-12.1654,-2.29038
-581,-384,-11.9297,3.60376,0,0,0,0,0,0,0,-1,643,1408,-11.9298,-3.6038
-574,-384,-11.8677,6.02722,0,0,0,0,0,0,0,-1,650,1408,-11.8677,-6.02722
-567,-384,-12.0743,7.04639,0,0,0,0,0,0,0,-1,657,1408,-12.0743,-7.04641
-560,-384,-19.9478,11.6345,0,0,0,0,0,0,0,-1,664,1408,-19.9478,-11.6345
-553,-384,-24.36,16.1086,0,0,0,0,0,0,0,-1,671,1408,-24.36,-16.1086
-546,-384,-24.425,16.9747,0.00494002,0.00234198,0.00284559,0.00676907,0.00051293,0.571274,0.00435183,0.0160398,678,1408,-24.425,-16.9747
-539,-384,-24.4727,17.7825,0.00403471,0.00158857,0.00218432,0.00531507,0.000308213,0.53018,0.00344524,0.0181865,685,1408,-24.4727,-17.7825
-532,-384,-24.4631,18.558,0.00341457,0.00101491,0.00172418,0.00431531,0.000114172,0.481419,0.00283958,0.0248132,692,1408,-24.4632,-18.5579
-525,-384,-24.473,19.4518,0.00306357,0.000629876,0.00146051,0.00374772,-5.42777e-05,0.438079,0.00251677,0.0240656,699,1408,-24.473,-19.4518
-518,-384,-24.5564,20.3202,0.00293063,0.000371419,0.00135207,0.00351261,-0.000210559,0.406464,0.00241499,0.0136355,706,1408,-24.5564,-20.3201
-511,-384,-24.6293,21.1804,0.00301784,0.00027586,0.00140353,0.00360887,-0.000315167,0.398563,0.00251755,0.0109907,713,1408,-24.6293,-21.1804
-504,-384,-24.6735,22.036,0.00336945,0.000345909,0.00164809,0.00409412,-0.000378758,0.414256,0.00286403,0.012936,720,1408,-24.6735,-22.036
-497,-384,-24.6701,22.9131,0.00392225,0.00053813,0.00204789,0.00488668,-0.000426295,0.440128,0.00340878,0.0434035,727,1408,-24.6701,-22.9131
-490,-384,-24.5276,23.902,0,0,0,0,0,0,0,-1,734,1408,-24.5276,-23.902
-483,-384,-6.26471,7.61194,0,0,0,0,0,0,0,-1,741,1408,-6.26469,-7.61191
-476,-384,-6.02734,5.67761,0,0,0,0,0,0,0,-1,748,1408,-6.02736,-5.6776
-469,-384,-10.206,2.63721,0,0,0,0,0,0,0,-1,755,1408,-10.206,-2.6372
-462,-384,-9.04291,1.43542,0,0,0,0,0,0,0,-1,762,1408,-9.04293,-1.43545
-455,-384,-7.87988,0.233765,0,0,0,0,0,0,0,-1,769,1408,-7.87986,-0.233709
-448,-384,-9.35529,7.19226,0,0,0,0,0,0,0,-1,776,1408,-9.35531,-7.19226
-441,-384,-10.4697,1.79004,0,0,0,0,0,0,0,-1,783,1408,-10.4697,-1.79003
-434,-384,-10.6449,0.552246,0,0,0,0,0,0,0,-1,790,1408,-10.6449,-0.552216
-427,-384,-10.968,1.10583,0,0,0,0,0,0,0,-1,797,1408,-10.968,-1.10588
-420,-384,-12.5607,4.54858,0,0,0,0,0,0,0,-1,804,1408,-12.5607,-4.54859
-413,-384,0,0,0,0,0,0,0,0,0,-1,811,1408,0,0
-406,-384,0,0,0,0,0,0,0,0,0,-1,818,1408,0,0
-399,-384,0,0,0,0,0,0,0,0,0,-1,825,1408,0,0
-392,-384,0,0,0,0,0,0,0,0,0,-1,832,1408,0,0
-385,-384,0,0,0,0,0,0,0,0,0,-1,839,1408,0,0
-378,-384,0,0,0,0,0,0,0,0,0,-1,846,1408,0,0
-371,-384,0,0,0,0,0,0,0,0,0,-1,853,1408,0,0
-364,-384,0,0,0,0,0,0,0,0,0,-1,860,1408,0,0
-357,-384,0,0,0,0,0,0,0,0,0,-1,867,1408,0,0
-350,-384,0,0,0,0,0,0,0,0,0,-1,874,1408,0,0
-343,-384,0,0,0,0,0,0,0,0,0,-1,881,1408,0,0
-336,-384,0,0,0,0,0,0,0,0,0,-1,888,1408,0,0
-329,-384,0,0,0,0,0,0,0,0,0,-1,895,1408,0,0
-322,-384,0,0,0,0,0,0,0,0,0,-1,902,1408,0,0
-315,-384,0,0,0,0,0,0,0,0,0,-1,909,1408,0,0
-308,-384,0,0,0,0,0,0,0,0,0,-1,916,1408,0,0
-301,-384,0,0,0,0,0,0,0,0,0,-1,923,1408,0,0
-294,-384,0,0,0,0,0,0,0,0,0,-1,930,1408,0,0
-287,-384,0,0,0,0,0,0,0,0,0,-1,937,1408,0,0
-280,-384,0,0,0,0,0,0,0,0,0,-1,944,1408,0,0
-273,-384,0,0,0,0,0,0,0,0,0,-1,951,1408,0,0
-266,-384,0,0,0,0,0,0,0,0,0,-1,958,1408,0,0
-259,-384,0,0,0,0,0,0,0,0,0,-1,965,1408,0,0
-252,-384,0,0,0,0,0,0,0,0,0,-1,972,1408,0,0
-245,-384,0,0,0,0,0,0,0,0,0,-1,979,1408,0,0
-238,-384,0,0,0,0,0,0,0,0,0,-1,986,1408,0,0
-231,-384,0,0,0,0,0,0,0,0,0,-1,993,1408,0,0
-224,-384,0,0,0,0,0,0,0,0,0,-1,1000,1408,0,0
-217,-384,0,0,0,0,0,0,0,0,0,-1,1007,1408,0,0
-210,-384,0,0,0,0,0,0,0,0,0,-1,1014,1408,0,0
-203,-384,0,0,0,0,0,0,0,0,0,-1,1021,1408,0,0
-196,-384,0,0,0,0,0,0,0,0,0,-1,1028,1408,0,0
-189,-384,0,0,0,0,0,0,0,0,0,-1,1035,1408,0,0
-182,-384,0,0,0,0,0,0,0,0,0,-1,1042,1408,0,0
-175,-384,0,0,0,0,0,0,0,0,0,-1,1049,1408,0,0
-168,-384,0,0,0,0,0,0,0,0,0,-1,1056,1408,0,0
-161,-384,0,0,0,0,0,0,0,0,0,-1,1063,1408,0,0
-154,-384,0,0,0,0,0,0,0,0,0,-1,1070,1408,0,0
-147,-384,0,0,0,0,0,0,0,0,0,-1,1077,1408,0,0
-140,-384,0,0,0,0,0,0,0,0,0,-1,1084,1408,0,0
-133,-384,0,0,0,0,0,0,0,0,0,-1,1091,1408,0,0
-126,-384,0,0,0,0,0,0,0,0,0,-1,1098,1408,0,0
-119,-384,0,0,0,0,0,0,0,0,0,-1,1105,1408,0,0
-112,-384,0,0,0,0,0,0,0,0,0,-1,1112,1408,0,0
-105,-384,0,0,0,0,0,0,0,0,0,-1,1119,1408,0,0
-98,-384,0,0,0,0,0,0,0,0,0,-1,1126,1408,0,0
-91,-384,0,0,0,0,0,0,0,0,0,-1,1133,1408,0,0
-84,-384,0,0,0,0,0,0,0,0,0,-1,1140,1408,0,0
-77,-384,0,0,0,0,0,0,0,0,0,-1,1147,1408,0,0
-70,-384,0,0,0,0,0,0,0,0,0,-1,1154,1408,0,0
-63,-384,0,0,0,0,0,0,0,0,0,-1,1161,1408,0,0
-56,-384,0,0,0,0,0,0,0,0,0,-1,1168,1408,0,0
-49,-384,0,0,0,0,0,0,0,0,0,-1,1175,1408,0,0
-42,-384,0,0,0,0,0,0,0,0,0,-1,1182,1408,0,0
-35,-384,0,0,0,0,0,0,0,0,0,-1,1189,1408,0,0
-28,-384,0,0,0,0,0,0,0,0,0,-1,1196,1408,0,0
-21,-384,0,0,0,0,0,0,0,0,0,-1,1203,1408,0,0
-14,-384,0,0,0,0,0,0,0,0,0,-1,1210,1408,0,0
-7,-384,0,0,0,0,0,0,0,0,0,-1,1217,1408,0,0
0,-384,0,0,0,0,0,0,0,0,0,-1,1224,1408,0,0
7,-384,0,0,0,0,0,0,0,0,0,-1,1231,1408,0,0
14,-384,0,0,0,0,0,0,0,0,0,-1,1238,1408,0,0
21,-384,0,0,0,0,0,0,0,0,0,-1,1245,1408,0,0
28,-384,0,0,0,0,0,0,0,0,0,-1,1252,1408,0,0
35,-384,0,0,0,0,0,0,0,0,0,-1,1259,1408,0,0
42,-384,0,0,0,0,0,0,0,0,0,-1,1266,1408,0,0
49,-384,0,0,0,0,0,0,0,0,0,-1,1273,1408,0,0
56,-384,0,0,0,0,0,0,0,0,0,-1,1280,1408,0,0
63,-384,0,0,0,0,0,0,0,0,0,-1,1287,1408,0,0
70,-384,0,0,0,0,0,0,0,0,0,-1,1294,1408,0,0
77,-384,0,0,0,0,0,0,0,0,0,-1,1301,1408,0,0
84,-384,0,0,0,0,0,0,0,0,0,-1,1308,1408,0,0
91,-384,0,0,0,0,0,0,0,0,0,-1,1315,1408,0,0
98,-384,0,0,0,0,0,0,0,0,0,-1,1322,1408,0,0
105,-384,0,0,0,0,0,0,0,0,0,-1,1329,1408,0,0
112,-384,0,0,0,0,0,0,0,0,0,-1,1336,1408,0,0
119,-384,0,0,0,0,0,0,0,0,0,-1,1343,1408,0,0
126,-384,0,0,0,0,0,0,0,0,0,-1,1350,1408,0,0
133,-384,0,0,0,0,0,0,0,0,0,-1,1357,1408,0,0
140,-384,0,0,0,0,0,0,0,0,0,-1,1364,1408,0,0
147,-384,0,0,0,0,0,0,0,0,0,-1,1371,1408,0,0
154,-384,0,0,0,0,0,0,0,0,0,-1,1378,1408,0,0
161,-384,0,0,0,0,0,0,0,0,0,-1,1385,1408,0,0
168,-384,0,0,0,0,0,0,0,0,0,-1,1392,1408,0,0
175,-384,0,0,0,0,0,0,0,0,0,-1,1399,1408,0,0
182,-384,0,0,0,0,0,0,0,0,0,-1,1406,1408,0,0
189,-384,0,0,0,0,0,0,0,0,0,-1,1413,1408,0,0
196,-384,0,0,0,0,0,0,0,0,0,-1,1420,1408,0,0
203,-384,0,0,0,0,0,0,0,0,0,-1,1427,1408,0,0
210,-384,0,0,0,0,0,0,0,0,0,-1,1434,1408,0,0
217,-384,0,0,0,0,0,0,0,0,0,-1,1441,1408,0,0
224,-384,0,0,0,0,0,0,0,0,0,-1,1448,1408,0,0
231,-384,0,0,0,0,0,0,0,0,0,-1,1455,1408,0,0
238,-384,0,0,0,0,0,0,0,0,0,-1,1462,1408,0,0
245,-384,0,0,0,0,0,0,0,0,0,-1,1469,1408,0,0
252,-384,0,0,0,0,0,0,0,0,0,-1,1476,1408,0,0
259,-384,0,0,0,0,0,0,0,0,0,-1,1483,1408,0,0
266,-384,0,0,0,0,0,0,0,0,0,-1,1490,1408,0,0
273,-384,0,0,0,0,0,0,0,0,0,-1,1497,1408,0,0
280,-384,0,0,0,0,0,0,0,0,0,-1,1504,1408,0,0
287,-384,0,0,0,0,0,0,0,0,0,-1,1511,1408,0,0
294,-384,0,0,0,0,0,0,0,0,0,-1,1518,1408,0,0
301,-384,0,0,0,0,0,0,0,0,0,-1,1525,1408,0,0
308,-384,0,0,0,0,0,0,0,0,0,-1,1532,1408,0,0
315,-384,0,0,0,0,0,0,0,0,0,-1,1539,1408,0,0
322,-384,0,0,0,0,0,0,0,0,0,-1,1546,1408,0,0
329,-384,0,0,0,0,0,0,0,0,0,-1,1553,1408,0,0
336,-384,0,0,0,0,0,0,0,0,0,-1,1560,1408,0,0
343,-384,0,0,0,0,0,0,0,0,0,-1,1567,1408,0,0
350,-384,0,0,0,0,0,0,0,0,0,-1,1574,1408,0,0
357,-384,0,0,0,0,0,0,0,0,0,-1,1581,1408,0,0
364,-384,0,0,0,0,0,0,0,0,0,-1,1588,1408,0,0
371,-384,0,0,0,0,0,0,0,0,0,-1,1595,1408,0,0
378,-384,0,0,0,0,0,0,0,0,0,-1,1602,1408,0,0
385,-384,0,0,0,0,0,0,0,0,0,-1,1609,1408,0,0
392,-384,0,0,0,0,0,0,0,0,0,-1,1616,1408,0,0
399,-384,0,0,0,0,0,0,0,0,0,-1,1623,1408,0,0
406,-384,0,0,0,0,0,0,0,0,0,-1,1630,1408,0,0
413,-384,0,0,0,0,0,0,0,0,0,-1,1637,1408,0,0
420,-384,0,0,0,0,0,0,0,0,0,-1,1644,1408,0,0
427,-384,0,0,0,0,0,0,0,0,0,-1,1651,1408,0,0
434,-384,0,0,0,0,0,0,0,0,0,-1,1658,1408,0,0
441,-384,0,0,0,0,0,0,0,0,0,-1,1665,1408,0,0
448,-384,0,0,0,0,0,0,0,0,0,-1,1672,1408,0,0
455,-384,0,0,0,0,0,0,0,0,0,-1,1679,1408,0,0
462,-384,0,0,0,0,0,0,0,0,0,-1,1686,1408,0,0
469,-384,0,0,0,0,0,0,0,0,0,-1,1693,1408,0,0
476,-384,0,0,0,0,0,0,0,0,0,-1,1700,1408,0,0
483,-384,0,0,0,0,0,0,0,0,0,-1,1707,1408,0,0
490,-384,0,0,0,0,0,0,0,0,0,-1,1714,1408,0,0
497,-384,0,0,0,0,0,0,0,0,0,-1,1721,1408,0,0
504,-384,0,0,0,0,0,0,0,0,0,-1,1728,1408,0,0
511,-384,0,0,0,0,0,0,0,0,0,-1,1735,1408,0,0
518,-384,0,0,0,0,0,0,0,0,0,-1,1742,1408,0,0
525,-384,0,0,0,0,0,0,0,0,0,-1,1749,1408,0,0
532,-384,0,0,0,0,0,0,0,0,0,-1,1756,1408,0,0
539,-384,27.6886,2.85803,0,0,0,0,0,0,0,-1,1763,1408,27.6886,-2.85807
546,-384,27.5044,2.9425,0,0,0,0,0,0,0,-1,1770,1408,27.5044,-2.94255
553,-384,27.3052,2.78394,0,0,0,0,0,0,0,-1,1777,1408,27.3051,-2.78394
560,-384,26.833,3.19812,0,0,0,0,0,0,0,-1,1784,1408,26.833,-3.19816
567,-384,38.2566,0.109985,0,0,0,0,0,0,0,-1,1791,1408,38.2566,-0.110044
574,-384,38.4003,2.05945,0,0,0,0,0,0,0,-1,1798,1408,38.4003,-2.05949
581,-384,25.819,3.91846,0,0,0,0,0,0,0,-1,1805,1408,25.8189,-3.91848
588,-384,23.3721,4.25439,0,0,0,0,0,0,0,-1,1812,1408,23.3721,-4.25442
595,-384,24.981,5.59595,0,0,0,0,0,0,0,-1,1819,1408,24.981,-5.59598
602,-384,20.6605,4.17261,0,0,0,0,0,0,0,-1,1826,1408,20.6606,-4.17265
609,-384,14.158,5.49475,0,0,0,0,0,0,0,-1,1833,1408,14.158,-5.49474
616,-384,14.7997,7.6908,0,0,0,0,0,0,0,-1,1840,1408,14.7996,-7.69079
623,-384,16.4293,9.58899,0,0,0,0,0,0,0,-1,1847,1408,16.4294,-9.58901
630,-384,41.442,23.0505,0,0,0,0,0,0,0,-1,1854,1408,41.442,-23.0506
637,-384,41.4867,22.1632,1.69141e-05,0.000294122,-0.000217348,0.000413299,-0.000102263,-1.06924,0.000315199,0.0270874,1861,1408,41.4867,-22.1632
644,-384,41.4526,21.3416,0.000232744,8.87611e-05,-0.000141455,0.000319473,2.0321e-06,-0.550012,0.000212308,0.0181185,1868,1408,41.4526,-21.3416
651,-384,41.3978,20.4778,0.000677864,-1.90415e-05,-0.000231464,0.000747735,-8.89126e-05,-0.293168,0.000530617,0.0171403,1875,1408,41.3979,-20.4778
658,-384,41.355,19.6519,0.00132071,-5.64656e-05,-0.000459189,0.00145977,-0.00019553,-0.294067,0.00104448,0.0179989,1882,1408,41.355,-19.6519
665,-384,41.3546,18.8611,0.00211301,-1.46402e-05,-0.000818646,0.00239154,-0.000293165,-0.327942,0.00170052,0.0197302,1889,1408,41.3546,-18.8611
672,-384,41.3081,18.0327,0.0030668,9.22992e-05,-0.00132315,0.00357018,-0.000411087,-0.363537,0.00252832,0.0176152,1896,1408,41.3082,-18.0328
679,-384,41.2368,17.223,0.00419281,0.000265041,-0.00199911,0.00503129,-0.000573445,-0.397143,0.00356077,0.0177483,1903,1408,41.2369,-17.2231
686,-384,41.1792,16.4308,0.00551862,0.00048858,-0.00286773,0.00681794,-0.000810743,-0.425416,0.00483824,0.0154655,1910,1408,41.1791,-16.4308
693,-384,41.2953,15.4442,0,0,0,0,0,0,0,-1,1917,1408,41.2953,-15.4442
700,-384,41.4176,14.2006,0,0,0,0,0,0,0,-1,1924,1408,41.4177,-14.2006
707,-384,17.0566,6.62842,0,0,0,0,0,0,0,-1,1931,1408,17.0567,-6.62848
714,-384,16.038,5.0282,0,0,0,0,0,0,0,-1,1938,1408,16.038,-5.02819
721,-384,13.8843,2.8717,0,0,0,0,0,0,0,-1,1945,1408,13.8843,-2.87171
728,-384,15.4409,6.25745,0,0,0,0,0,0,0,-1,1952,1408,15.4409,-6.2574
735,-384,16.7598,6.71289,0,0,0,0,0,0,0,-1,1959,1408,16.7598,-6.71287
742,-384,0,0,0,0,0,0,0,0,0,-1,1966,1408,0,0
749,-384,0,0,0,0,0,0,0,0,0,-1,1973,1408,0,0
756,-384,0,0,0,0,0,0,0,0,0,-1,1980,1408,0,0
763,-384,0,0,0,0,0,0,0,0,0,-1,1987,1408,0,0
770,-384,0,0,0,0,0,0,0,0,0,-1,1994,1408,0,0
777,-384,0,0,0,0,0,0,0,0,0,-1,2001,1408,0,0
784,-384,0,0,0,0,0,0,0,0,0,-1,2008,1408,0,0
791,-384,0,0,0,0,0,0,0,0,0,-1,2015,1408,0,0
798,-384,0,0,0,0,0,0,0,0,0,-1,2022,1408,0,0
805,-384,0,0,0,0,0,0,0,0,0,-1,2029,1408,0,0
812,-384,0,0,0,0,0,0,0,0,0,-1,2036,1408,0,0
-700,-391,0,0,0,0,0,0,0,0,0,-1,524,1415,0,0
-693,-391,0,0,0,0,0,0,0,0,0,-1,531,1415,0,0
-686,-391,0,0,0,0,0,0,0,0,0,-1,538,1415,0,0
-679,-391,0,0,0,0,0,0,0,0,0,-1,545,1415,0,0
-672,-391,0,0,0,0,0,0,0,0,0,-1,552,1415,0,0
-665,-391,0,0,0,0,0,0,0,0,0,-1,559,1415,0,0
-658,-391,0,0,0,0,0,0,0,0,0,-1,566,1415,0,0
-651,-391,0,0,0,0,0,0,0,0,0,-1,573,1415,0,0
-644,-391,0,0,0,0,0,0,0,0,0,-1,580,1415,0,0
-637,-391,0,0,0,0,0,0,0,0,0,-1,587,1415,0,0
-630,-391,0,0,0,0,0,0,0,0,0,-1,594,1415,0,0
-623,-391,0,0,0,0,0,0,0,0,0,-1,601,1415,0,0
-616,-391,0,0,0,0,0,0,0,0,0,-1,608,1415,0,0
-609,-391,-7.71753,-3.69763,0,0,0,0,0,0,0,-1,615,1415,-7.71751,3.69759
-602,-391,-13.9493,-4.12805,0,0,0,0,0,0,0,-1,622,1415,-13.9493,4.12803
-595,-391,-10.8315,1.76172,0,0,0,0,0,0,0,-1,629,1415,-10.8315,-1.76171
-588,-391,-10.265,2.16431,0,0,0,0,0,0,0,-1,636,1415,-10.265,-2.16431
-581,-391,-11.3325,2.44836,0,0,0,0,0,0,0,-1,643,1415,-11.3325,-2.44842
-574,-391,-11.1471,6.19983,0,0,0,0,0,0,0,-1,650,1415,-11.1471,-6.19981
-567,-391,-11.5172,6.82458,0,0,0,0,0,0,0,-1,657,1415,-11.5171,-6.82454
-560,-391,-11.2459,7.37195,0,0,0,0,0,0,0,-1,664,1415,-11.2459,-7.37191
-553,-391,-23.6698,16.0291,0,0,0,0,0,0,0,-1,671,1415,-23.6698,-16.0291
-546,-391,-23.5978,16.9558,0.00554906,0.00289339,0.0033728,0.00784599,0.000596464,0.597871,0.00504361,0.0218233,678,1415,-23.5978,-16.9559
-539,-391,-23.5756,17.8455,0.00441388,0.00206256,0.00256669,0.00606135,0.000415091,0.570636,0.00390988,0.0156361,685,1415,-23.5755,-17.8455
-532,-391,-23.6102,18.6843,0.00357625,0.00138635,0.00195766,0.00472437,0.000238236,0.530413,0.00307324,0.0276848,692,1415,-23.6102,-18.6843
-525,-391,-23.6787,19.5479,0.00304557,0.000939733,0.0015725,0.00388511,0.000100195,0.490389,0.00255733,0.0252701,699,1415,-23.6787,-19.5478
-518,-391,-23.7569,20.3942,0.00273702,0.000622611,0.00134678,0.00339198,-3.23508e-05,0.45264,0.00227218,0.0150428,706,1415,-23.7569,-20.3941
-511,-391,-23.7876,21.2415,0.00262729,0.000458971,0.0012584,0.00320414,-0.000117887,0.429822,0.00217646,0.0138028,713,1415,-23.7876,-21.2414
-504,-391,-23.8248,22.0992,0.00274005,0.000444926,0.00133844,0.00335554,-0.000170558,0.431015,0.00229599,0.0126505,720,1415,-23.8248,-22.0993
-497,-391,-23.8639,22.938,0.00304245,0.000564798,0.00156611,0.00380047,-0.000193224,0.450778,0.00260045,0.0149161,727,1415,-23.8639,-22.938
-490,-391,-23.8328,23.7451,0,0,0,0,0,0,0,-1,734,1415,-23.8328,-23.7451
-483,-391,-11.1018,12.9382,0,0,0,0,0,0,0,-1,741,1415,-11.1018,-12.9382
-476,-391,-6.05731,6.85303,0,0,0,0,0,0,0,-1,748,1415,-6.05728,-6.85304
-469,-391,-3.88953,5.0979,0,0,0,0,0,0,0,-1,755,1415,-3.88955,-5.09794
-462,-391,-8.67688,2.03125,0,0,0,0,0,0,0,-1,762,1415,-8.67685,-2.03121
-455,-391,-8.65576,6.46997,0,0,0,0,0,0,0,-1,769,1415,-8.65579,-6.46999
-448,-391,-8.39618,4.38403,0,0,0,0,0,0,0,-1,776,1415,-8.39617,-4.38405
-441,-391,-9.77704,2.5946,0,0,0,0,0,0,0,-1,783,1415,-9.77702,-2.5946
-434,-391,-11.5403,2.12878,0,0,0,0,0,0,0,-1,790,1415,-11.5403,-2.12881
-427,-391,-10.5311,2.50403,0,0,0,0,0,0,0,-1,797,1415,-10.5311,-2.504
-420,-391,-14.7087,1.24365,0,0,0,0,0,0,0,-1,804,1415,-14.7088,-1.24365
-413,-391,0,0,0,0,0,0,0,0,0,-1,811,1415,0,0
-406,-391,0,0,0,0,0,0,0,0,0,-1,818,1415,0,0
-399,-391,0,0,0,0,0,0,0,0,0,-1,825,1415,0,0
-392,-391,0,0,0,0,0,0,0,0,0,-1,832,1415,0,0
-385,-391,0,0,0,0,0,0,0,0,0,-1,839,1415,0,0
-378,-391,0,0,0,0,0,0,0,0,0,-1,846,1415,0,0
-371,-391,0,0,0,0,0,0,0,0,0,-1,853,1415,0,0
-364,-391,0,0,0,0,0,0,0,0,0,-1,860,1415,0,0
-357,-391,0,0,0,0,0,0,0,0,0,-1,867,1415,0,0
-350,-391,0,0,0,0,0,0,0,0,0,-1,874,1415,0,0
-343,-391,0,0,0,0,0,0,0,0,0,-1,881,1415,0,0
-336,-391,0,0,0,0,0,0,0,0,0,-1,888,1415,0,0
-329,-391,0,0,0,0,0,0,0,0,0,-1,895,1415,0,0
-322,-391,0,0,0,0,0,0,0,0,0,-1,902,1415,0,0
-315,-391,0,0,0,0,0,0,0,0,0,-1,909,1415,0,0
-308,-391,0,0,0,0,0,0,0,0,0,-1,916,1415,0,0
-301,-391,0,0,0,0,0,0,0,0,0,-1,923,1415,0,0
-294,-391,0,0,0,0,0,0,0,0,0,-1,930,1415,0,0
-287,-391,0,0,0,0,0,0,0,0,0,-1,937,1415,0,0
-280,-391,0,0,0,0,0,0,0,0,0,-1,944,1415,0,0
-273,-391,0,0,0,0,0,0,0,0,0,-1,951,1415,0,0
-266,-391,0,0,0,0,0,0,0,0,0,-1,958,1415,0,0
-259,-391,0,0,0,0,0,0,0,0,0,-1,965,1415,0,0
-252,-391,0,0,0,0,0,0,0,0,0,-1,972,1415,0,0
-245,-391,0,0,0,0,0,0,0,0,0,-1,979,1415,0,0
-238,-391,0,0,0,0,0,0,0,0,0,-1,986,1415,0,0
-231,-391,0,0,0,0,0,0,0,0,0,-1,993,1415,0,0
-224,-391,0,0,0,0,0,0,0,0,0,-1,1000,1415,0,0
-217,-391,0,0,0,0,0,0,0,0,0,-1,1007,1415,0,0
-210,-391,0,0,0,0,0,0,0,0,0,-1,1014,1415,0,0
-203,-391,0,0,0,0,0,0,0,0,0,-1,1021,1415,0,0
-196,-391,0,0,0,0,0,0,0,0,0,-1,1028,1415,0,0
-189,-391,0,0,0,0,0,0,0,0,0,-1,1035,1415,0,0
-182,-391,0,0,0,0,0,0,0,0,0,-1,1042,1415,0,0
-175,-391,0,0,0,0,0,0,0,0,0,-1,1049,1415,0,0
-168,-391,0,0,0,0,0,0,0,0,0,-1,1056,1415,0,0
-161,-391,0,0,0,0,0,0,0,0,0,-1,1063,1415,0,0
-154,-391,0,0,0,0,0,0,0,0,0,-1,1070,1415,0,0
-147,-391,0,0,0,0,0,0,0,0,0,-1,1077,1415,0,0
-140,-391,0,0,0,0,0,0,0,0,0,-1,1084,1415,0,0
-133,-391,0,0,0,0,0,0,0,0,0,-1,1091,1415,0,0
-126,-391,0,0,0,0,0,0,0,0,0,-1,1098,1415,0,0
-119,-391,0,0,0,0,0,0,0,0,0,-1,1105,1415,0,0
-112,-391,0,0,0,0,0,0,0,0,0,-1,1112,1415,0,0
-105,-391,0,0,0,0,0,0,0,0,0,-1,1119,1415,0,0
-98,-391,0,0,0,0,0,0,0,0,0,-1,1126,1415,0,0
-91,-391,0,0,0,0,0,0,0,0,0,-1,1133,1415,0,0
-84,-391,0,0,0,0,0,0,0,0,0,-1,1140,1415,0,0
-77,-391,0,0,0,0,0,0,0,0,0,-1,1147,1415,0,0
-70,-391,0,0,0,0,0,0,0,0,0,-1,1154,1415,0,0
-63,-391,0,0,0,0,0,0,0,0,0,-1,1161,1415,0,0
-56,-391,0,0,0,0,0,0,0,0,0,-1,1168,1415,0,0
-49,-391,0,0,0,0,0,0,0,0,0,-1,1175,1415,0,0
-42,-391,0,0,0,0,0,0,0,0,0,-1,1182,1415,0,0
-35,-391,0,0,0,0,0,0,0,0,0,-1,1189,1415,0,0
-28,-391,0,0,0,0,0,0,0,0,0,-1,1196,1415,0,0
-21,-391,0,0,0,0,0,0,0,0,0,-1,1203,1415,0,0
-14,-391,0,0,0,0,0,0,0,0,0,-1,1210,1415,0,0
-7,-391,0,0,0,0,0,0,0,0,0,-1,1217,1415,0,0
0,-391,0,0,0,0,0,0,0,0,0,-1,1224,1415,0,0
7,-391,0,0,0,0,0,0,0,0,0,-1,1231,1415,0,0
14,-391,0,0,0,0,0,0,0,0,0,-1,1238,1415,0,0
21,-391,0,0,0,0,0,0,0,0,0,-1,1245,1415,0,0
28,-391,0,0,0,0,0,0,0,0,0,-1,1252,1415,0,0
35,-391,0,0,0,0,0,0,0,0,0,-1,1259,1415,0,0
42,-391,0,0,0,0,0,0,0,0,0,-1,1266,1415,0,0
49,-391,0,0,0,0,0,0,0,0,0,-1,1273,1415,0,0
56,-391,0,0,0,0,0,0,0,0,0,-1,1280,1415,0,0
63,-391,0,0,0,0,0,0,0,0,0,-1,1287,1415,0,0
70,-391,0,0,0,0,0,0,0,0,0,-1,1294,1415,0,0
77,-391,0,0,0,0,0,0,0,0,0,-1,1301,1415,0,0
84,-391,0,0,0,0,0,0,0,0,0,-1,1308,1415,0,0
91,-391,0,0,0,0,0,0,0,0,0,-1,1315,1415,0,0
98,-391,0,0,0,0,0,0,0,0,0,-1,1322,1415,0,0
105,-391,0,0,0,0,0,0,0,0,0,-1,1329,1415,0,0
112,-391,0,0,0,0,0,0,0,0,0,-1,1336,1415,0,0
119,-391,0,0,0,0,0,0,0,0,0,-1,1343,1415,0,0
126,-391,0,0,0,0,0,0,0,0,0,-1,1350,1415,0,0
133,-391,0,0,0,0,0,0,0,0,0,-1,1357,1415,0,0
140,-391,0,0,0,0,0,0,0,0,0,-1,1364,1415,0,0
147,-391,0,0,0,0,0,0,0,0,0,-1,1371,1415,0,0
154,-391,0,0,0,0,0,0,0,0,0,-1,1378,1415,0,0
161,-391,0,0,0,0,0,0,0,0,0,-1,1385,1415,0,0
168,-391,0,0,0,0,0,0,0,0,0,-1,1392,1415,0,0
175,-391,0,0,0,0,0,0,0,0,0,-1,1399,1415,0,0
182,-391,0,0,0,0,0,0,0,0,0,-1,1406,1415,0,0
189,-391,0,0,0,0,0,0,0,0,0,-1,1413,1415,0,0
196,-391,0,0,0,0,0,0,0,0,0,-1,1420,1415,0,0
203,-391,0,0,0,0,0,0,0,0,0,-1,1427,1415,0,0
210,-391,0,0,0,0,0,0,0,0,0,-1,1434,1415,0,0
217,-391,0,0,0,0,0,0,0,0,0,-1,1441,1415,0,0
224,-391,0,0,0,0,0,0,0,0,0,-1,1448,1415,0,0
231,-391,0,0,0,0,0,0,0,0,0,-1,1455,1415,0,0
238,-391,0,0,0,0,0,0,0,0,0,-1,1462,1415,0,0
245,-391,0,0,0,0,0,0,0,0,0,-1,1469,1415,0,0
252,-391,0,0,0,0,0,0,0,0,0,-1,1476,1415,0,0
259,-391,0,0,0,0,0,0,0,0,0,-1,1483,1415,0,0
266,-391,0,0,0,0,0,0,0,0,0,-1,1490,1415,0,0
273,-391,0,0,0,0,0,0,0,0,0,-1,1497,1415,0,0
280,-391,0,0,0,0,0,0,0,0,0,-1,1504,1415,0,0
287,-391,0,0,0,0,0,0,0,0,0,-1,1511,1415,0,0
294,-391,0,0,0,0,0,0,0,0,0,-1,1518,1415,0,0
301,-391,0,0,0,0,0,0,0,0,0,-1,1525,1415,0,0
308,-391,0,0,0,0,0,0,0,0,0,-1,1532,1415,0,0
315,-391,0,0,0,0,0,0,0,0,0,-1,1539,1415,0,0
322,-391,0,0,0,0,0,0,0,0,0,-1,1546,1415,0,0
329,-391,0,0,0,0,0,0,0,0,0,-1,1553,1415,0,0
336,-391,0,0,0,0,0,0,0,0,0,-1,1560,1415,0,0
343,-391,0,0,0,0,0,0,0,0,0,-1,1567,1415,0,0
350,-391,0,0,0,0,0,0,0,0,0,-1,1574,1415,0,0
357,-391,0,0,0,0,0,0,0,0,0,-1,1581,1415,0,0
364,-391,0,0,0,0,0,0,0,0,0,-1,1588,1415,0,0
371,-391,0,0,0,0,0,0,0,0,0,-1,1595,1415,0,0
378,-391,0,0,0,0,0,0,0,0,0,-1,1602,1415,0,0
385,-391,0,0,0,0,0,0,0,0,0,-1,1609,1415,0,0
392,-391,0,0,0,0,0,0,0,0,0,-1,1616,1415,0,0
399,-391,0,0,0,0,0,0,0,0,0,-1,1623,1415,0,0
406,-391,0,0,0,0,0,0,0,0,0,-1,1630,1415,0,0
413,-391,0,0,0,0,0,0,0,0,0,-1,1637,1415,0,0
420,-391,0,0,0,0,0,0,0,0,0,-1,1644,1415,0,0
427,-391,0,0,0,0,0,0,0,0,0,-1,1651,1415,0,0
434,-391,0,0,0,0,0,0,0,0,0,-1,1658,1415,0,0
441,-391,0,0,0,0,0,0,0,0,0,-1,1665,1415,0,0
448,-391,0,0,0,0,0,0,0,0,0,-1,1672,1415,0,0
455,-391,0,0,0,0,0,0,0,0,0,-1,1679,1415,0,0
462,-391,0,0,0,0,0,0,0,0,0,-1,1686,1415,0,0
469,-391,0,0,0,0,0,0,0,0,0,-1,1693,1415,0,0
476,-391,0,0,0,0,0,0,0,0,0,-1,1700,1415,0,0
483,-391,0,0,0,0,0,0,0,0,0,-1,1707,1415,0,0
490,-391,0,0,0,0,0,0,0,0,0,-1,1714,1415,0,0
497,-391,0,0,0,0,0,0,0,0,0,-1,1721,1415,0,0
504,-391,0,0,0,0,0,0,0,0,0,-1,1728,1415,0,0
511,-391,0,0,0,0,0,0,0,0,0,-1,1735,1415,0,0
518,-391,0,0,0,0,0,0,0,0,0,-1,1742,1415,0,0
525,-391,0,0,0,0,0,0,0,0,0,-1,1749,1415,0,0
532,-391,28.5959,3.02356,0,0,0,0,0,0,0,-1,1756,1415,28.596,-3.02358
539,-391,27.5881,3.25012,0,0,0,0,0,0,0,-1,1763,1415,27.5882,-3.25016
546,-391,27.2837,3.28064,0,0,0,0,0,0,0,-1,1770,1415,27.2837,-3.28064
553,-391,32.5952,5.04553,0,0,0,0,0,0,0,-1,1777,1415,32.5952,-5.04551
560,-391,31.2947,5.67017,0,0,0,0,0,0,0,-1,1784,1415,31.2947,-5.67011
567,-391,30.1473,6.17603,0,0,0,0,0,0,0,-1,1791,1415,30.1473,-6.17602
574,-391,27.5656,5.6842,0,0,0,0,0,0,0,-1,1798,1415,27.5655,-5.68422
581,-391,25.8883,5.76123,0,0,0,0,0,0,0,-1,1805,1415,25.8883,-5.76124
588,-391,24.2717,5.47986,0,0,0,0,0,0,0,-1,1812,1415,24.2717,-5.47982
595,-391,22.8827,6.1991,0,0,0,0,0,0,0,-1,1819,1415,22.8827,-6.19909
602,-391,15.1635,5.69849,0,0,0,0,0,0,0,-1,1826,1415,15.1635,-5.69847
609,-391,14.8285,7.50476,0,0,0,0,0,0,0,-1,1833,1415,14.8285,-7.50479
616,-391,20.7952,12.0503,0,0,0,0,0,0,0,-1,1840,1415,20.7952,-12.0503
623,-391,36.6426,20.3677,0,0,0,0,0,0,0,-1,1847,1415,36.6426,-20.3676
630,-391,40.7332,22.9679,0,0,0,0,0,0,0,-1,1854,1415,40.7332,-22.9679
637,-391,40.6743,22.1653,0.000271409,9.47168e-05,-5.20179e-05,0.000285586,8.05402e-05,-0.26607,0.000170026,0.0178844,1861,1415,40.6743,-22.1653
644,-391,40.63,21.3544,0.000491308,-3.91971e-05,-0.000107093,0.000512111,-6.00001e-05,-0.191863,0.000363064,0.0169617,1868,1415,40.6301,-21.3544
651,-391,40.5814,20.5591,0.00095211,-9.05668e-05,-0.000296728,0.00103064,-0.000169096,-0.258719,0.000749841,0.0177752,1875,1415,40.5814,-20.559
658,-391,40.5259,19.7318,0.00164307,-8.81396e-05,-0.000624275,0.0018447,-0.00028977,-0.312407,0.0013369,0.0189437,1882,1415,40.5259,-19.7318
665,-391,40.5157,18.9277,0.0025143,-2.20172e-05,-0.00106612,0.0029029,-0.000410614,-0.34953,0.00208565,0.0158848,1889,1415,40.5158,-18.9277
672,-391,40.4689,18.1144,0.0035623,9.22564e-05,-0.00163808,0.0042134,-0.000558848,-0.378333,0.00301255,0.0137322,1896,1415,40.4689,-18.1143
679,-391,40.4163,17.2917,0.00480459,0.00025335,-0.00237613,0.00581902,-0.000761084,-0.403501,0.00415634,0.0131237,1903,1415,40.4162,-17.2917
686,-391,40.3826,16.4473,0.00625616,0.00041524,-0.00328751,0.00773306,-0.00106166,-0.422227,0.00554326,0.0221699,1910,1415,40.3825,-16.4473
693,-391,40.4507,15.5186,0,0,0,0,0,0,0,-1,1917,1415,40.4507,-15.5185
700,-391,39.8163,14.4929,0,0,0,0,0,0,0,-1,1924,1415,39.8163,-14.4929
707,-391,12.9524,5.96851,0,0,0,0,0,0,0,-1,1931,1415,12.9524,-5.96849
714,-391,15.6875,7.67896,0,0,0,0,0,0,0,-1,1938,1415,15.6875,-7.67893
721,-391,14.1808,8.08435,0,0,0,0,0,0,0,-1,1945,1415,14.1808,-8.08439
728,-391,13.8102,7.28174,0,0,0,0,0,0,0,-1,1952,1415,13.8102,-7.28174
735,-391,0,0,0,0,0,0,0,0,0,-1,1959,1415,0,0
742,-391,0,0,0,0,0,0,0,0,0,-1,1966,1415,0,0
749,-391,0,0,0,0,0,0,0,0,0,-1,1973,1415,0,0
756,-391,0,0,0,0,0,0,0,0,0,-1,1980,1415,0,0
763,-391,0,0,0,0,0,0,0,0,0,-1,1987,1415,0,0
770,-391,0,0,0,0,0,0,0,0,0,-1,1994,1415,0,0
777,-391,0,0,0,0,0,0,0,0,0,-1,2001,1415,0,0
784,-391,0,0,0,0,0,0,0,0,0,-1,2008,1415,0,0
791,-391,0,0,0,0,0,0,0,0,0,-1,2015,1415,0,0
798,-391,0,0,0,0,0,0,0,0,0,-1,2022,1415,0,0
805,-391,0,0,0,0,0,0,0,0,0,-1,2029,1415,0,0
812,-391,0,0,0,0,0,0,0,0,0,-1,2036,1415,0,0
-700,-398,0,0,0,0,0,0,0,0,0,-1,524,1422,0,0
-693,-398,0,0,0,0,0,0,0,0,0,-1,531,1422,0,0
-686,-398,0,0,0,0,0,0,0,0,0,-1,538,1422,0,0
-679,-398,0,0,0,0,0,0,0,0,0,-1,545,1422,0,0
-672,-398,0,0,0,0,0,0,0,0,0,-1,552,1422,0,0
-665,-398,0,0,0,0,0,0,0,0,0,-1,559,1422,0,0
-658,-398,0,0,0,0,0,0,0,0,0,-1,566,1422,0,0
-651,-398,0,0,0,0,0,0,0,0,0,-1,573,1422,0,0
-644,-398,0,0,0,0,0,0,0,0,0,-1,580,1422,0,0
-637,-398,0,0,0,0,0,0,0,0,0,-1,587,1422,0,0
-630,-398,0,0,0,0,0,0,0,0,0,-1,594,1422,0,0
-623,-398,0,0,0,0,0,0,0,0,0,-1,601,1422,0,0
-616,-398,0,0,0,0,0,0,0,0,0,-1,608,1422,0,0
-609,-398,-7.47125,-4.05322,0,0,0,0,0,0,0,-1,615,1422,-7.47128,4.05317
-602,-398,-4.58868,-2.77026,0,0,0,0,0,0,0,-1,622,1422,-4.58869,2.77023
-595,-398,-12.2224,-1.82007,0,0,0,0,0,0,0,-1,629,1422,-12.2224,1.82006
-588,-398,-10.6939,1.32336,0,0,0,0,0,0,0,-1,636,1422,-10.6939,-1.32337
-581,-398,-10.433,3.1123,0,0,0,0,0,0,0,-1,643,1422,-10.433,-3.11233
-574,-398,-10.4475,5.89807,0,0,0,0,0,0,0,-1,650,1422,-10.4475,-5.89802
-567,-398,-10.4904,6.80115,0,0,0,0,0,0,0,-1,657,1422,-10.4904,-6.80115
-560,-398,-10.5333,7.70435,0,0,0,0,0,0,0,-1,664,1422,-10.5333,-7.70429
-553,-398,-22.8117,15.9171,0,0,0,0,0,0,0,-1,671,1422,-22.8117,-15.9171
-546,-398,-22.7993,16.9774,0.0061912,0.00357684,0.00405891,0.00914823,0.000619818,0.629617,0.00590307,0.0415114,678,1422,-22.7993,-16.9774
-539,-398,-22.7097,17.9296,0.004837,0.00265427,0.00308619,0.00701911,0.000472157,0.615446,0.00453023,0.014111,685,1422,-22.7097,-17.9295
-532,-398,-22.7509,18.785,0.00378909,0.00184518,0.00230562,0.00531925,0.000315017,0.585922,0.00344596,0.0233083,692,1422,-22.7509,-18.785
-525,-398,-22.8466,19.6122,0.00310062,0.00132023,0.00179199,0.00421135,0.000209504,0.554871,0.0027404,0.0211626,699,1422,-22.8466,-19.6121
-518,-398,-22.8801,20.4432,0.00264887,0.000936756,0.00144766,0.00347464,0.000110986,0.518384,0.00228033,0.0180116,706,1422,-22.88,-20.4433
-511,-398,-22.9112,21.2799,0.00238207,0.000695948,0.00123365,0.00303322,4.48042e-05,0.485653,0.00200738,0.0141566,713,1422,-22.9112,-21.2798
-504,-398,-22.9558,22.1553,0.0023098,0.000591545,0.00117134,0.0029033,-1.96265e-06,0.468985,0.00193619,0.014237,720,1422,-22.9558,-22.1553
-497,-398,-23.0137,22.9878,0.0024216,0.00063015,0.00125135,0.00306477,-1.30214e-05,0.47477,0.00204753,0.0109502,727,1422,-23.0137,-22.9878
-490,-398,-23.049,23.819,0.00283651,0.000820095,0.00149592,0.00363227,2.43431e-05,0.488877,0.00241344,0.0224713,734,1422,-23.0489,-23.819
-483,-398,-22.9199,24.9282,0,0,0,0,0,0,0,-1,741,1422,-22.9199,-24.9282
-476,-398,-8.64392,11.9448,0,0,0,0,0,0,0,-1,748,1422,-8.6439,-11.9448
-469,-398,-8.91699,10.6276,0,0,0,0,0,0,0,-1,755,1422,-8.91697,-10.6275
-462,-398,-9.59753,9.32532,0,0,0,0,0,0,0,-1,762,1422,-9.59753,-9.32531
-455,-398,-8.08331,6.75024,0,0,0,0,0,0,0,-1,769,1422,-8.08333,-6.75022
-448,-398,-7.4505,5.25293,0,0,0,0,0,0,0,-1,776,1422,-7.4505,-5.25291
-441,-398,-7.61639,3.32141,0,0,0,0,0,0,0,-1,783,1422,-7.61637,-3.32145
-434,-398,-10.7618,3.297,0,0,0,0,0,0,0,-1,790,1422,-10.7618,-3.29704
-427,-398,-11.9061,2.24939,0,0,0,0,0,0,0,-1,797,1422,-11.9061,-2.24941
-420,-398,-13.467,2.32788,0,0,0,0,0,0,0,-1,804,1422,-13.467,-2.32787
-413,-398,-14.7983,2.15515,0,0,0,0,0,0,0,-1,811,1422,-14.7983,-2.15516
-406,-398,0,0,0,0,0,0,0,0,0,-1,818,1422,0,0
-399,-398,0,0,0,0,0,0,0,0,0,-1,825,1422,0,0
-392,-398,0,0,0,0,0,0,0,0,0,-1,832,1422,0,0
-385,-398,0,0,0,0,0,0,0,0,0,-1,839,1422,0,0
-378,-398,0,0,0,0,0,0,0,0,0,-1,846,1422,0,0
-371,-398,0,0,0,0,0,0,0,0,0,-1,853,1422,0,0
-364,-398,0,0,0,0,0,0,0,0,0,-1,860,1422,0,0
-357,-398,0,0,0,0,0,0,0,0,0,-1,867,1422,0,0
-350,-398,0,0,0,0,0,0,0,0,0,-1,874,1422,0,0
-343,-398,0,0,0,0,0,0,0,0,0,-1,881,1422,0,0
-336,-398,0,0,0,0,0,0,0,0,0,-1,888,1422,0,0
-329,-398,0,0,0,0,0,0,0,0,0,-1,895,1422,0,0
-322,-398,0,0,0,0,0,0,0,0,0,-1,902,1422,0,0
-315,-398,0,0,0,0,0,0,0,0,0,-1,909,1422,0,0
-308,-398,0,0,0,0,0,0,0,0,0,-1,916,1422,0,0
-301,-398,0,0,0,0,0,0,0,0,0,-1,923,1422,0,0
-294,-398,0,0,0,0,0,0,0,0,0,-1,930,1422,0,0
-287,-398,0,0,0,0,0,0,0,0,0,-1,937,1422,0,0
-280,-398,0,0,0,0,0,0,0,0,0,-1,944,1422,0,0
-273,-398,0,0,0,0,0,0,0,0,0,-1,951,1422,0,0
-266,-398,0,0,0,0,0,0,0,0,0,-1,958,1422,0,0
-259,-398,0,0,0,0,0,0,0,0,0,-1,965,1422,0,0
-252,-398,0,0,0,0,0,0,0,0,0,-1,972,1422,0,0
-245,-398,0,0,0,0,0,0,0,0,0,-1,979,1422,0,0
-238,-398,0,0,0,0,0,0,0,0,0,-1,986,1422,0,0
-231,-398,0,0,0,0,0,0,0,0,0,-1,993,1422,0,0
-224,-398,0,0,0,0,0,0,0,0,0,-1,1000,1422,0,0
-217,-398,0,0,0,0,0,0,0,0,0,-1,1007,1422,0,0
-210,-398,0,0,0,0,0,0,0,0,0,-1,1014,1422,0,0
-203,-398,0,0,0,0,0,0,0,0,0,-1,1021,1422,0,0
-196,-398,0,0,0,0,0,0,0,0,0,-1,1028,1422,0,0
-189,-398,0,0,0,0,0,0,0,0,0,-1,1035,1422,0,0
-182,-398,0,0,0,0,0,0,0,0,0,-1,1042,1422,0,0
-175,-398,0,0,0,0,0,0,0,0,0,-1,1049,1422,0,0
-168,-398,0,0,0,0,0,0,0,0,0,-1,1056,1422,0,0
-161,-398,0,0,0,0,0,0,0,0,0,-1,1063,1422,0,0
-154,-398,0,0,0,0,0,0,0,0,0,-1,1070,1422,0,0
-147,-398,0,0,0,0,0,0,0,0,0,-1,1077,1422,0,0
-140,-398,0,0,0,0,0,0,0,0,0,-1,1084,1422,0,0
-133,-398,0,0,0,0,0,0,0,0,0,-1,1091,1422,0,0
-126,-398,0,0,0,0,0,0,0,0,0,-1,1098,1422,0,0
-119,-398,0,0,0,0,0,0,0,0,0,-1,1105,1422,0,0
-112,-398,0,0,0,0,0,0,0,0,0,-1,1112,1422,0,0
-105,-398,0,0,0,0,0,0,0,0,0,-1,1119,1422,0,0
-98,-398,0,0,0,0,0,0,0,0,0,-1,1126,1422,0,0
-91,-398,0,0,0,0,0,0,0,0,0,-1,1133,1422,0,0
-84,-398,0,0,0,0,0,0,0,0,0,-1,1140,1422,0,0
-77,-398,0,0,0,0,0,0,0,0,0,-1,1147,1422,0,0
-70,-398,0,0,0,0,0,0,0,0,0,-1,1154,1422,0,0
-63,-398,0,0,0,0,0,0,0,0,0,-1,1161,1422,0,0
-56,-398,0,0,0,0,0,0,0,0,0,-1,1168,1422,0,0
-49,-398,0,0,0,0,0,0,0,0,0,-1,1175,1422,0,0
-42,-398,0,0,0,0,0,0,0,0,0,-1,1182,1422,0,0
-35,-398,0,0,0,0,0,0,0,0,0,-1,1189,1422,0,0
-28,-398,0,0,0,0,0,0,0,0,0,-1,1196,1422,0,0
-21,-398,0,0,0,0,0,0,0,0,0,-1,1203,1422,0,0
-14,-398,0,0,0,0,0,0,0,0,0,-1,1210,1422,0,0
-7,-398,0,0,0,0,0,0,0,0,0,-1,1217,1422,0,0
0,-398,0,0,0,0,0,0,0,0,0,-1,1224,1422,0,0
7,-398,0,0,0,0,0,0,0,0,0,-1,1231,1422,0,0
14,-398,0,0,0,0,0,0,0,0,0,-1,1238,1422,0,0
21,-398,0,0,0,0,0,0,0,0,0,-1,1245,1422,0,0
28,-398,0,0,0,0,0,0,0,0,0,-1,1252,1422,0,0
35,-398,0,0,0,0,0,0,0,0,0,-1,1259,1422,0,0
42,-398,0,0,0,0,0,0,0,0,0,-1,1266,1422,0,0
49,-398,0,0,0,0,0,0,0,0,0,-1,1273,1422,0,0
56,-398,0,0,0,0,0,0,0,0,0,-1,1280,1422,0,0
63,-398,0,0,0,0,0,0,0,0,0,-1,1287,1422,0,0
70,-398,0,0,0,0,0,0,0,0,0,-1,1294,1422,0,0
77,-398,0,0,0,0,0,0,0,0,0,-1,1301,1422,0,0
84,-398,0,0,0,0,0,0,0,0,0,-1,1308,1422,0,0
91,-398,0,0,0,0,0,0,0,0,0,-1,1315,1422,0,0
98,-398,0,0,0,0,0,0,0,0,0,-1,1322,1422,0,0
105,-398,0,0,0,0,0,0,0,0,0,-1,1329,1422,0,0
112,-398,0,0,0,0,0,0,0,0,0,-1,1336,1422,0,0
119,-398,0,0,0,0,0,0,0,0,0,-1,1343,1422,0,0
126,-398,0,0,0,0,0,0,0,0,0,-1,1350,1422,0,0
133,-398,0,0,0,0,0,0,0,0,0,-1,1357,1422,0,0
140,-398,0,0,0,0,0,0,0,0,0,-1,1364,1422,0,0
147,-398,0,0,0,0,0,0,0,0,0,-1,1371,1422,0,0
154,-398,0,0,0,0,0,0,0,0,0,-1,1378,1422,0,0
161,-398,0,0,0,0,0,0,0,0,0,-1,1385,1422,0,0
168,-398,0,0,0,0,0,0,0,0,0,-1,1392,1422,0,0
175,-398,0,0,0,0,0,0,0,0,0,-1,1399,1422,0,0
182,-398,0,0,0,0,0,0,0,0,0,-1,1406,1422,0,0
189,-398,0,0,0,0,0,0,0,0,0,-1,1413,1422,0,0
196,-398,0,0,0,0,0,0,0,0,0,-1,1420,1422,0,0
203,-398,0,0,0,0,0,0,0,0,0,-1,1427,1422,0,0
210,-398,0,0,0,0,0,0,0,0,0,-1,1434,1422,0,0
217,-398,0,0,0,0,0,0,0,0,0,-1,1441,1422,0,0
224,-398,0,0,0,0,0,0,0,0,0,-1,1448,1422,0,0
231,-398,0,0,0,0,0,0,0,0,0,-1,1455,1422,0,0
238,-398,0,0,0,0,0,0,0,0,0,-1,1462,1422,0,0
245,-398,0,0,0,0,0,0,0,0,0,-1,1469,1422,0,0
252,-398,0,0,0,0,0,0,0,0,0,-1,1476,1422,0,0
259,-398,0,0,0,0,0,0,0,0,0,-1,1483,1422,0,0
266,-398,0,0,0,0,0,0,0,0,0,-1,1490,1422,0,0
273,-398,0,0,0,0,0,0,0,0,0,-1,1497,1422,0,0
280,-398,0,0,0,0,0,0,0,0,0,-1,1504,1422,0,0
287,-398,0,0,0,0,0,0,0,0,0,-1,1511,1422,0,0
294,-398,0,0,0,0,0,0,0,0,0,-1,1518,1422,0,0
301,-398,0,0,0,0,0,0,0,0,0,-1,1525,1422,0,0
308,-398,0,0,0,0,0,0,0,0,0,-1,1532,1422,0,0
315,-398,0,0,0,0,0,0,0,0,0,-1,1539,1422,0,0
322,-398,0,0,0,0,0,0,0,0,0,-1,1546,1422,0,0
329,-398,0,0,0,0,0,0,0,0,0,-1,1553,1422,0,0
336,-398,0,0,0,0,0,0,0,0,0,-1,1560,1422,0,0
343,-398,0,0,0,0,0,0,0,0,0,-1,1567,1422,0,0
350,-398,0,0,0,0,0,0,0,0,0,-1,1574,1422,0,0
357,-398,0,0,0,0,0,0,0,0,0,-1,1581,1422,0,0
364,-398,0,0,0,0,0,0,0,0,0,-1,1588,1422,0,0
371,-398,0,0,0,0,0,0,0,0,0,-1,1595,1422,0,0
378,-398,0,0,0,0,0,0,0,0,0,-1,1602,1422,0,0
385,-398,0,0,0,0,0,0,0,0,0,-1,1609,1422,0,0
392,-398,0,0,0,0,0,0,0,0,0,-1,1616,1422,0,0
399,-398,0,0,0,0,0,0,0,0,0,-1,1623,1422,0,0
406,-398,0,0,0,0,0,0,0,0,0,-1,1630,1422,0,0
413,-398,0,0,0,0,0,0,0,0,0,-1,1637,1422,0,0
420,-398,0,0,0,0,0,0,0,0,0,-1,1644,1422,0,0
427,-398,0,0,0,0,0,0,0,0,0,-1,1651,1422,0,0
434,-398,0,0,0,0,0,0,0,0,0,-1,1658,1422,0,0
441,-398,0,0,0,0,0,0,0,0,0,-1,1665,1422,0,0
448,-398,0,0,0,0,0,0,0,0,0,-1,1672,1422,0,0
455,-398,0,0,0,0,0,0,0,0,0,-1,1679,1422,0,0
462,-398,0,0,0,0,0,0,0,0,0,-1,1686,1422,0,0
469,-398,0,0,0,0,0,0,0,0,0,-1,1693,1422,0,0
476,-398,0,0,0,0,0,0,0,0,0,-1,1700,1422,0,0
483,-398,0,0,0,0,0,0,0,0,0,-1,1707,1422,0,0
490,-398,0,0,0,0,0,0,0,0,0,-1,1714,1422,0,0
497,-398,0,0,0,0,0,0,0,0,0,-1,1721,1422,0,0
504,-398,0,0,0,0,0,0,0,0,0,-1,1728,1422,0,0
511,-398,0,0,0,0,0,0,0,0,0,-1,1735,1422,0,0
518,-398,0,0,0,0,0,0,0,0,0,-1,1742,1422,0,0
525,-398,0,0,0,0,0,0,0,0,0,-1,1749,1422,0,0
532,-398,28.4558,3.84094,0,0,0,0,0,0,0,-1,1756,1422,28.4558,-3.8409
539,-398,27.0594,3.33887,0,0,0,0,0,0,0,-1,1763,1422,27.0595,-3.3389
546,-398,31.6873,5.58582,0,0,0,0,0,0,0,-1,1770,1422,31.6872,-5.58585
553,-398,30.4392,5.92383,0,0,0,0,0,0,0,-1,1777,1422,30.4392,-5.92386
560,-398,29.1621,6.30469,0,0,0,0,0,0,0,-1,1784,1422,29.1621,-6.30469
567,-398,27.8411,6.55029,0,0,0,0,0,0,0,-1,1791,1422,27.8411,-6.55033
574,-398,26.411,6.8916,0,0,0,0,0,0,0,-1,1798,1422,26.411,-6.8916
581,-398,24.75,7.11145,0,0,0,0,0,0,0,-1,1805,1422,24.7499,-7.11142
588,-398,23.1649,7.67969,0,0,0,0,0,0,0,-1,1812,1422,23.1649,-7.67975
595,-398,21.4253,7.86023,0,0,0,0,0,0,0,-1,1819,1422,21.4253,-7.86029
602,-398,19.6857,8.04077,0,0,0,0,0,0,0,-1,1826,1422,19.6856,-8.04083
609,-398,21.1835,13.2628,0,0,0,0,0,0,0,-1,1833,1422,21.1835,-13.2628
616,-398,35.7712,21.4,0,0,0,0,0,0,0,-1,1840,1422,35.7713,-21.4
623,-398,39.9188,23.9274,0,0,0,0,0,0,0,-1,1847,1422,39.9188,-23.9274
630,-398,39.9338,23.0143,0.000499059,0.000138545,-9.43309e-05,0.000522249,0.000115355,-0.241062,0.000316795,0.0161876,1854,1422,39.9338,-23.0143
637,-398,39.8839,22.207,0.000543605,-3.96367e-05,-0.000103555,0.000561445,-5.74771e-05,-0.170605,0.000394853,0.0154497,1861,1422,39.8839,-22.207
644,-398,39.7904,21.4211,0.00078397,-0.000145459,-0.000215608,0.000831551,-0.00019304,-0.217201,0.000628672,0.0212525,1868,1422,39.7905,-21.4212
651,-398,39.7926,20.667,0.00127712,-0.000145281,-0.000471232,0.00141907,-0.000287231,-0.292587,0.00105491,0.0298846,1875,1422,39.7926,-20.667
658,-398,39.7567,19.8546,0.00201315,-9.60469e-05,-0.000865199,0.00232264,-0.000405541,-0.343531,0.00169981,0.0253977,1882,1422,39.7567,-19.8546
665,-398,39.6772,18.9797,0.00295933,1.05237e-05,-0.00137177,0.00349878,-0.00052893,-0.374677,0.00252735,0.0170605,1889,1422,39.6772,-18.9797
672,-398,39.647,18.1694,0.00410479,0.000147641,-0.0019957,0.00493647,-0.000684048,-0.394854,0.00354109,0.0135414,1896,1422,39.647,-18.1695
679,-398,39.6351,17.3461,0.00548461,0.00032206,-0.00278996,0.00670423,-0.000897565,-0.412115,0.00479675,0.0158129,1903,1422,39.6352,-17.346
686,-398,39.5631,16.5336,0.00709263,0.00044683,-0.00373354,0.00876783,-0.00122837,-0.421763,0.00629475,0.0345302,1910,1422,39.5632,-16.5335
693,-398,39.4159,15.562,0,0,0,0,0,0,0,-1,1917,1422,39.4159,-15.562
700,-398,38.7251,14.4174,0,0,0,0,0,0,0,-1,1924,1422,38.725,-14.4174
707,-398,10.9731,5.479,0,0,0,0,0,0,0,-1,1931,1422,10.9732,-5.47896
714,-398,11.7313,6.17346,0,0,0,0,0,0,0,-1,1938,1422,11.7313,-6.17348
721,-398,13.9371,8.05103,0,0,0,0,0,0,0,-1,1945,1422,13.9372,-8.05102
728,-398,14.786,7.0282,0,0,0,0,0,0,0,-1,1952,1422,14.786,-7.0282
735,-398,0,0,0,0,0,0,0,0,0,-1,1959,1422,0,0
742,-398,0,0,0,0,0,0,0,0,0,-1,1966,1422,0,0
749,-398,0,0,0,0,0,0,0,0,0,-1,1973,1422,0,0
756,-398,0,0,0,0,0,0,0,0,0,-1,1980,1422,0,0
763,-398,0,0,0,0,0,0,0,0,0,-1,1987,1422,0,0
770,-398,0,0,0,0,0,0,0,0,0,-1,1994,1422,0,0
777,-398,0,0,0,0,0,0,0,0,0,-1,2001,1422,0,0
784,-398,0,0,0,0,0,0,0,0,0,-1,2008,1422,0,0
791,-398,0,0,0,0,0,0,0,0,0,-1,2015,1422,0,0
798,-398,0,0,0,0,0,0,0,0,0,-1,2022,1422,0,0
805,-398,0,0,0,0,0,0,0,0,0,-1,2029,1422,0,0
812,-398,0,0,0,0,0,0,0,0,0,-1,2036,1422,0,0
-700,-405,0,0,0,0,0,0,0,0,0,-1,524,1429,0,0
-693,-405,0,0,0,0,0,0,0,0,0,-1,531,1429,0,0
-686,-405,0,0,0,0,0,0,0,0,0,-1,538,1429,0,0
-679,-405,0,0,0,0,0,0,0,0,0,-1,545,1429,0,0
-672,-405,0,0,0,0,0,0,0,0,0,-1,552,1429,0,0
-665,-405,0,0,0,0,0,0,0,0,0,-1,559,1429,0,0
-658,-405,0,0,0,0,0,0,0,0,0,-1,566,1429,0,0
-651,-405,0,0,0,0,0,0,0,0,0,-1,573,1429,0,0
-644,-405,0,0,0,0,0,0,0,0,0,-1,580,1429,0,0
-637,-405,0,0,0,0,0,0,0,0,0,-1,587,1429,0,0
-630,-405,0,0,0,0,0,0,0,0,0,-1,594,1429,0,0
-623,-405,0,0,0,0,0,0,0,0,0,-1,601,1429,0,0
-616,-405,0,0,0,0,0,0,0,0,0,-1,608,1429,0,0
-609,-405,0,0,0,0,0,0,0,0,0,-1,615,1429,0,0
-602,-405,-5.80988,-3.46594,0,0,0,0,0,0,0,-1,622,1429,-5.80987,3.46592
-595,-405,-9.35413,2.01477,0,0,0,0,0,0,0,-1,629,1429,-9.35411,-2.01476
-588,-405,-7.35693,0.507202,0,0,0,0,0,0,0,-1,636,1429,-7.35696,-0.507187
-581,-405,-10.1284,1.62927,0,0,0,0,0,0,0,-1,643,1429,-10.1284,-1.62922
-574,-405,-9.32074,3.05896,0,0,0,0,0,0,0,-1,650,1429,-9.32077,-3.0589
-567,-405,-9.68781,6.92163,0,0,0,0,0,0,0,-1,657,1429,-9.68782,-6.92166
-560,-405,-9.28674,7.20886,0,0,0,0,0,0,0,-1,664,1429,-9.28675,-7.20885
-553,-405,-17.8088,12.9275,0,0,0,0,0,0,0,-1,671,1429,-17.8088,-12.9275
-546,-405,-21.9144,17.0243,0,0,0,0,0,0,0,-1,678,1429,-21.9144,-17.0243
-539,-405,-21.9233,17.9231,0.00530564,0.00349142,0.00372668,0.00823402,0.000563033,0.666015,0.00531163,0.0156218,685,1429,-21.9233,-17.9231
-532,-405,-21.9617,18.7827,0.00403263,0.00249766,0.00275778,0.00612772,0.000402558,0.649683,0.00395779,0.0184086,692,1429,-21.9617,-18.7827
-525,-405,-21.993,19.6404,0.00320178,0.00185361,0.00210845,0.00474128,0.000314106,0.630679,0.00306153,0.0166166,699,1429,-21.993,-19.6403
-518,-405,-22.0113,20.4991,0.00262822,0.0013695,0.00164197,0.00375731,0.000240408,0.602385,0.00242871,0.0156842,706,1429,-22.0113,-20.4991
-511,-405,-22.0557,21.3373,0.00224354,0.00101366,0.00130476,0.00307101,0.000186188,0.565183,0.00198818,0.0154624,713,1429,-22.0557,-21.3373
-504,-405,-22.1201,22.1973,0.00204527,0.000788428,0.00110387,0.00268706,0.000146633,0.526633,0.00174455,0.0168947,720,1429,-22.1201,-22.1973
-497,-405,-22.1656,23.0729,0.00203709,0.000726208,0.00104783,0.00261759,0.000145706,0.505911,0.00169858,0.0152681,727,1429,-22.1657,-23.0728
-490,-405,-22.231,23.8995,0.00224467,0.000805566,0.00113216,0.00286659,0.000183646,0.502321,0.00185288,0.013146,734,1429,-22.231,-23.8996
-483,-405,-22.1732,24.8337,0.00257394,0.00113473,0.00134734,0.0033818,0.000326863,0.540125,0.00215386,0.0412246,741,1429,-22.1732,-24.8337
-476,-405,-21.9604,25.9923,0,0,0,0,0,0,0,-1,748,1429,-21.9604,-25.9923
-469,-405,-9.65692,12.8171,0,0,0,0,0,0,0,-1,755,1429,-9.65691,-12.8172
-462,-405,-9.14862,11.3597,0,0,0,0,0,0,0,-1,762,1429,-9.14865,-11.3597
-455,-405,-9.021,9.51111,0,0,0,0,0,0,0,-1,769,1429,-9.021,-9.51109
-448,-405,-8.4649,6.82813,0,0,0,0,0,0,0,-1,776,1429,-8.46492,-6.82817
-441,-405,-6.6712,4.23767,0,0,0,0,0,0,0,-1,783,1429,-6.67121,-4.23764
-434,-405,-9.62549,3.94189,0,0,0,0,0,0,0,-1,790,1429,-9.62546,-3.94191
-427,-405,-10.9764,3.73926,0,0,0,0,0,0,0,-1,797,1429,-10.9764,-3.73923
-420,-405,-12.1187,3.68506,0,0,0,0,0,0,0,-1,804,1429,-12.1187,-3.68512
-413,-405,-13.5353,3.75659,0,0,0,0,0,0,0,-1,811,1429,-13.5353,-3.75655
-406,-405,-14.7374,3.99817,0,0,0,0,0,0,0,-1,818,1429,-14.7374,-3.99814
-399,-405,0,0,0,0,0,0,0,0,0,-1,825,1429,0,0
-392,-405,0,0,0,0,0,0,0,0,0,-1,832,1429,0,0
-385,-405,0,0,0,0,0,0,0,0,0,-1,839,1429,0,0
-378,-405,0,0,0,0,0,0,0,0,0,-1,846,1429,0,0
-371,-405,0,0,0,0,0,0,0,0,0,-1,853,1429,0,0
-364,-405,0,0,0,0,0,0,0,0,0,-1,860,1429,0,0
-357,-405,0,0,0,0,0,0,0,0,0,-1,867,1429,0,0
-350,-405,0,0,0,0,0,0,0,0,0,-1,874,1429,0,0
-343,-405,0,0,0,0,0,0,0,0,0,-1,881,1429,0,0
-336,-405,0,0,0,0,0,0,0,0,0,-1,888,1429,0,0
-329,-405,0,0,0,0,0,0,0,0,0,-1,895,1429,0,0
-322,-405,0,0,0,0,0,0,0,0,0,-1,902,1429,0,0
-315,-405,0,0,0,0,0,0,0,0,0,-1,909,1429,0,0
-308,-405,0,0,0,0,0,0,0,0,0,-1,916,1429,0,0
-301,-405,0,0,0,0,0,0,0,0,0,-1,923,1429,0,0
-294,-405,0,0,0,0,0,0,0,0,0,-1,930,1429,0,0
-287,-405,0,0,0,0,0,0,0,0,0,-1,937,1429,0,0
-280,-405,0,0,0,0,0,0,0,0,0,-1,944,1429,0,0
-273,-405,0,0,0,0,0,0,0,0,0,-1,951,1429,0,0
-266,-405,0,0,0,0,0,0,0,0,0,-1,958,1429,0,0
-259,-405,0,0,0,0,0,0,0,0,0,-1,965,1429,0,0
-252,-405,0,0,0,0,0,0,0,0,0,-1,972,1429,0,0
-245,-405,0,0,0,0,0,0,0,0,0,-1,979,1429,0,0
-238,-405,0,0,0,0,0,0,0,0,0,-1,986,1429,0,0
-231,-405,0,0,0,0,0,0,0,0,0,-1,993,1429,0,0
-224,-405,0,0,0,0,0,0,0,0,0,-1,1000,1429,0,0
-217,-405,0,0,0,0,0,0,0,0,0,-1,1007,1429,0,0
-210,-405,0,0,0,0,0,0,0,0,0,-1,1014,1429,0,0
-203,-405,0,0,0,0,0,0,0,0,0,-1,1021,1429,0,0
-196,-405,0,0,0,0,0,0,0,0,0,-1,1028,1429,0,0
-189,-405,0,0,0,0,0,0,0,0,0,-1,1035,1429,0,0
-182,-405,0,0,0,0,0,0,0,0,0,-1,1042,1429,0,0
-175,-405,0,0,0,0,0,0,0,0,0,-1,1049,1429,0,0
-168,-405,0,0,0,0,0,0,0,0,0,-1,1056,1429,0,0
-161,-405,0,0,0,0,0,0,0,0,0,-1,1063,1429,0,0
-154,-405,0,0,0,0,0,0,0,0,0,-1,1070,1429,0,0
-147,-405,0,0,0,0,0,0,0,0,0,-1,1077,1429,0,0
-140,-405,0,0,0,0,0,0,0,0,0,-1,1084,1429,0,0
-133,-405,0,0,0,0,0,0,0,0,0,-1,1091,1429,0,0
-126,-405,0,0,0,0,0,0,0,0,0,-1,1098,1429,0,0
-119,-405,0,0,0,0,0,0,0,0,0,-1,1105,1429,0,0
-112,-405,0,0,0,0,0,0,0,0,0,-1,1112,1429,0,0
-105,-405,0,0,0,0,0,0,0,0,0,-1,1119,1429,0,0
-98,-405,0,0,0,0,0,0,0,0,0,-1,1126,1429,0,0
-91,-405,0,0,0,0,0,0,0,0,0,-1,1133,1429,0,0
-84,-405,0,0,0,0,0,0,0,0,0,-1,1140,1429,0,0
-77,-405,0,0,0,0,0,0,0,0,0,-1,1147,1429,0,0
-70,-405,0,0,0,0,0,0,0,0,0,-1,1154,1429,0,0
-63,-405,0,0,0,0,0,0,0,0,0,-1,1161,1429,0,0
-56,-405,0,0,0,0,0,0,0,0,0,-1,1168,1429,0,0
-49,-405,0,0,0,0,0,0,0,0,0,-1,1175,1429,0,0
-42,-405,0,0,0,0,0,0,0,0,0,-1,1182,1429,0,0
-35,-405,0,0,0,0,0,0,0,0,0,-1,1189,1429,0,0
-28,-405,0,0,0,0,0,0,0,0,0,-1,1196,1429,0,0
-21,-405,0,0,0,0,0,0,0,0,0,-1,1203,1429,0,0
-14,-405,0,0,0,0,0,0,0,0,0,-1,1210,1429,0,0
-7,-405,0,0,0,0,0,0,0,0,0,-1,1217,1429,0,0
0,-405,0,0,0,0,0,0,0,0,0,-1,1224,1429,0,0
7,-405,0,0,0,0,0,0,0,0,0,-1,1231,1429,0,0
14,-405,0,0,0,0,0,0,0,0,0,-1,1238,1429,0,0
21,-405,0,0,0,0,0,0,0,0,0,-1,1245,1429,0,0
28,-405,0,0,0,0,0,0,0,0,0,-1,1252,1429,0,0
35,-405,0,0,0,0,0,0,0,0,0,-1,1259,1429,0,0
42,-405,0,0,0,0,0,0,0,0,0,-1,1266,1429,0,0
49,-405,0,0,0,0,0,0,0,0,0,-1,1273,1429,0,0
56,-405,0,0,0,0,0,0,0,0,0,-1,1280,1429,0,0
63,-405,0,0,0,0,0,0,0,0,0,-1,1287,1429,0,0
70,-405,0,0,0,0,0,0,0,0,0,-1,1294,1429,0,0
77,-405,0,0,0,0,0,0,0,0,0,-1,1301,1429,0,0
84,-405,0,0,0,0,0,0,0,0,0,-1,1308,1429,0,0
91,-405,0,0,0,0,0,0,0,0,0,-1,1315,1429,0,0
98,-405,0,0,0,0,0,0,0,0,0,-1,1322,1429,0,0
105,-405,0,0,0,0,0,0,0,0,0,-1,1329,1429,0,0
112,-405,0,0,0,0,0,0,0,0,0,-1,1336,1429,0,0
119,-405,0,0,0,0,0,0,0,0,0,-1,1343,1429,0,0
126,-405,0,0,0,0,0,0,0,0,0,-1,1350,1429,0,0
133,-405,0,0,0,0,0,0,0,0,0,-1,1357,1429,0,0
140,-405,0,0,0,0,0,0,0,0,0,-1,1364,1429,0,0
147,-405,0,0,0,0,0,0,0,0,0,-1,1371,1429,0,0
154,-405,0,0,0,0,0,0,0,0,0,-1,1378,1429,0,0
161,-405,0,0,0,0,0,0,0,0,0,-1,1385,1429,0,0
168,-405,0,0,0,0,0,0,0,0,0,-1,1392,1429,0,0
175,-405,0,0,0,0,0,0,0,0,0,-1,1399,1429,0,0
182,-405,0,0,0,0,0,0,0,0,0,-1,1406,1429,0,0
189,-405,0,0,0,0,0,0,0,0,0,-1,1413,1429,0,0
196,-405,0,0,0,0,0,0,0,0,0,-1,1420,1429,0,0
203,-405,0,0,0,0,0,0,0,0,0,-1,1427,1429,0,0
210,-405,0,0,0,0,0,0,0,0,0,-1,1434,1429,0,0
217,-405,0,0,0,0,0,0,0,0,0,-1,1441,1429,0,0
224,-405,0,0,0,0,0,0,0,0,0,-1,1448,1429,0,0
231,-405,0,0,0,0,0,0,0,0,0,-1,1455,1429,0,0
238,-405,0,0,0,0,0,0,0,0,0,-1,1462,1429,0,0
245,-405,0,0,0,0,0,0,0,0,0,-1,1469,1429,0,0
252,-405,0,0,0,0,0,0,0,0,0,-1,1476,1429,0,0
259,-405,0,0,0,0,0,0,0,0,0,-1,1483,1429,0,0
266,-405,0,0,0,0,0,0,0,0,0,-1,1490,1429,0,0
273,-405,0,0,0,0,0,0,0,0,0,-1,1497,1429,0,0
280,-405,0,0,0,0,0,0,0,0,0,-1,1504,1429,0,0
287,-405,0,0,0,0,0,0,0,0,0,-1,1511,1429,0,0
294,-405,0,0,0,0,0,0,0,0,0,-1,1518,1429,0,0
301,-405,0,0,0,0,0,0,0,0,0,-1,1525,1429,0,0
308,-405,0,0,0,0,0,0,0,0,0,-1,1532,1429,0,0
315,-405,0,0,0,0,0,0,0,0,0,-1,1539,1429,0,0
322,-405,0,0,0,0,0,0,0,0,0,-1,1546,1429,0,0
329,-405,0,0,0,0,0,0,0,0,0,-1,1553,1429,0,0
336,-405,0,0,0,0,0,0,0,0,0,-1,1560,1429,0,0
343,-405,0,0,0,0,0,0,0,0,0,-1,1567,1429,0,0
350,-405,0,0,0,0,0,0,0,0,0,-1,1574,1429,0,0
357,-405,0,0,0,0,0,0,0,0,0,-1,1581,1429,0,0
364,-405,0,0,0,0,0,0,0,0,0,-1,1588,1429,0,0
371,-405,0,0,0,0,0,0,0,0,0,-1,1595,1429,0,0
378,-405,0,0,0,0,0,0,0,0,0,-1,1602,1429,0,0
385,-405,0,0,0,0,0,0,0,0,0,-1,1609,1429,0,0
392,-405,0,0,0,0,0,0,0,0,0,-1,1616,1429,0,0
399,-405,0,0,0,0,0,0,0,0,0,-1,1623,1429,0,0
406,-405,0,0,0,0,0,0,0,0,0,-1,1630,1429,0,0
413,-405,0,0,0,0,0,0,0,0,0,-1,1637,1429,0,0
420,-405,0,0,0,0,0,0,0,0,0,-1,1644,1429,0,0
427,-405,0,0,0,0,0,0,0,0,0,-1,1651,1429,0,0
434,-405,0,0,0,0,0,0,0,0,0,-1,1658,1429,0,0
441,-405,0,0,0,0,0,0,0,0,0,-1,1665,1429,0,0
448,-405,0,0,0,0,0,0,0,0,0,-1,1672,1429,0,0
455,-405,0,0,0,0,0,0,0,0,0,-1,1679,1429,0,0
462,-405,0,0,0,0,0,0,0,0,0,-1,1686,1429,0,0
469,-405,0,0,0,0,0,0,0,0,0,-1,1693,1429,0,0
476,-405,0,0,0,0,0,0,0,0,0,-1,1700,1429,0,0
483,-405,0,0,0,0,0,0,0,0,0,-1,1707,1429,0,0
490,-405,0,0,0,0,0,0,0,0,0,-1,1714,1429,0,0
497,-405,0,0,0,0,0,0,0,0,0,-1,1721,1429,0,0
504,-405,0,0,0,0,0,0,0,0,0,-1,1728,1429,0,0
511,-405,0,0,0,0,0,0,0,0,0,-1,1735,1429,0,0
518,-405,0,0,0,0,0,0,0,0,0,-1,1742,1429,0,0
525,-405,31.1563,-1.40942,0,0,0,0,0,0,0,-1,1749,1429,31.1563,1.40937
532,-405,28.156,4.8783,0,0,0,0,0,0,0,-1,1756,1429,28.1561,-4.87833
539,-405,26.5133,3.02454,0,0,0,0,0,0,0,-1,1763,1429,26.5133,-3.0246
546,-405,29.5735,6.53052,0,0,0,0,0,0,0,-1,1770,1429,29.5735,-6.53049
553,-405,28.2911,6.70654,0,0,0,0,0,0,0,-1,1777,1429,28.2912,-6.70656
560,-405,26.9299,7.08472,0,0,0,0,0,0,0,-1,1784,1429,26.9299,-7.08469
567,-405,25.804,7.14661,0,0,0,0,0,0,0,-1,1791,1429,25.8039,-7.14665
574,-405,25.1151,8.07971,0,0,0,0,0,0,0,-1,1798,1429,25.1151,-8.07965
581,-405,23.5055,8.505,0,0,0,0,0,0,0,-1,1805,1429,23.5054,-8.50501
588,-405,21.7491,8.98254,0,0,0,0,0,0,0,-1,1812,1429,21.7491,-8.98254
595,-405,21.6327,10.7795,0,0,0,0,0,0,0,-1,1819,1429,21.6327,-10.7796
602,-405,21.6461,13.9199,0,0,0,0,0,0,0,-1,1826,1429,21.6461,-13.92
609,-405,37.801,24.062,0,0,0,0,0,0,0,-1,1833,1429,37.8011,-24.062
616,-405,39.1604,24.7323,0,0,0,0,0,0,0,-1,1840,1429,39.1604,-24.7322
623,-405,39.1162,23.9452,0.00114905,0.000481097,-0.000418523,0.00135052,0.000279629,-0.448641,0.000823125,0.0170201,1847,1429,39.1162,-23.9451
630,-405,39.0864,23.0977,0.000804548,0.00014433,-0.000220129,0.000871212,7.76656e-05,-0.29406,0.000556728,0.0122404,1854,1429,39.0864,-23.0977
637,-405,39.0494,22.2887,0.00084059,-8.46244e-05,-0.000250855,0.000904228,-0.000148262,-0.248442,0.000657832,0.0122994,1861,1429,39.0494,-22.2887
644,-405,38.9495,21.5087,0.00114158,-0.000203848,-0.000433401,0.0012691,-0.000331372,-0.286164,0.000975472,0.0313245,1868,1429,38.9495,-21.5086
651,-405,38.8528,20.73,0.00169022,-0.00019602,-0.000757475,0.00195675,-0.000462545,-0.338332,0.00148292,0.0356977,1875,1429,38.8528,-20.73
658,-405,38.8568,19.8873,0.00247187,-0.000125505,-0.00120962,0.00294794,-0.000601575,-0.374952,0.00219349,0.0269236,1882,1429,38.8569,-19.8873
665,-405,38.8571,18.9994,0.00348904,6.51287e-06,-0.00177133,0.00423165,-0.000736096,-0.396979,0.00309578,0.0200298,1889,1429,38.857,-18.9994
672,-405,38.8485,18.2041,0.00471717,0.00015978,-0.00242995,0.00576971,-0.000892757,-0.408755,0.00417599,0.0226792,1896,1429,38.8485,-18.2042
679,-405,38.9907,17.4133,0.00621636,0.000352566,-0.00326329,0.00767138,-0.00110246,-0.419419,0.00551857,0.0414277,1903,1429,38.9907,-17.4133
686,-405,38.9081,16.5433,0,0,0,0,0,0,0,-1,1910,1429,38.9081,-16.5434
693,-405,37.6653,14.9521,0,0,0,0,0,0,0,-1,1917,1429,37.6653,-14.9521
700,-405,9.1958,4.02026,0,0,0,0,0,0,0,-1,1924,1429,9.19579,-4.02025
707,-405,7.40308,3.83191,0,0,0,0,0,0,0,-1,1931,1429,7.40311,-3.83194
714,-405,7.33252,3.47388,0,0,0,0,0,0,0,-1,1938,1429,7.33255,-3.47383
721,-405,9.23523,0.993896,0,0,0,0,0,0,0,-1,1945,1429,9.23523,-0.993884
728,-405,0,0,0,0,0,0,0,0,0,-1,1952,1429,0,0
735,-405,0,0,0,0,0,0,0,0,0,-1,1959,1429,0,0
742,-405,0,0,0,0,0,0,0,0,0,-1,1966,1429,0,0
749,-405,0,0,0,0,0,0,0,0,0,-1,1973,1429,0,0
756,-405,0,0,0,0,0,0,0,0,0,-1,1980,1429,0,0
763,-405,0,0,0,0,0,0,0,0,0,-1,1987,1429,0,0
770,-405,0,0,0,0,0,0,0,0,0,-1,1994,1429,0,0
777,-405,0,0,0,0,0,0,0,0,0,-1,2001,1429,0,0
784,-405,0,0,0,0,0,0,0,0,0,-1,2008,1429,0,0
791,-405,0,0,0,0,0,0,0,0,0,-1,2015,1429,0,0
798,-405,0,0,0,0,0,0,0,0,0,-1,2022,1429,0,0
805,-405,0,0,0,0,0,0,0,0,0,-1,2029,1429,0,0
812,-405,0,0,0,0,0,0,0,0,0,-1,2036,1429,0,0
-700,-412,0,0,0,0,0,0,0,0,0,-1,524,1436,0,0
-693,-412,0,0,0,0,0,0,0,0,0,-1,531,1436,0,0
-686,-412,0,0,0,0,0,0,0,0,0,-1,538,1436,0,0
-679,-412,0,0,0,0,0,0,0,0,0,-1,545,1436,0,0
-672,-412,0,0,0,0,0,0,0,0,0,-1,552,1436,0,0
-665,-412,0,0,0,0,0,0,0,0,0,-1,559,1436,0,0
-658,-412,0,0,0,0,0,0,0,0,0,-1,566,1436,0,0
-651,-412,0,0,0,0,0,0,0,0,0,-1,573,1436,0,0
-644,-412,0,0,0,0,0,0,0,0,0,-1,580,1436,0,0
-637,-412,0,0,0,0,0,0,0,0,0,-1,587,1436,0,0
-630,-412,0,0,0,0,0,0,0,0,0,-1,594,1436,0,0
-623,-412,0,0,0,0,0,0,0,0,0,-1,601,1436,0,0
-616,-412,0,0,0,0,0,0,0,0,0,-1,608,1436,0,0
-609,-412,0,0,0,0,0,0,0,0,0,-1,615,1436,0,0
-602,-412,-3.72766,-3.50012,0,0,0,0,0,0,0,-1,622,1436,-3.72764,3.50017
-595,-412,-10.3706,0.65564,0,0,0,0,0,0,0,-1,629,1436,-10.3706,-0.655672
-588,-412,-8.17957,1.94934,0,0,0,0,0,0,0,-1,636,1436,-8.17956,-1.94939
-581,-412,-6.60065,-0.0554199,0,0,0,0,0,0,0,-1,643,1436,-6.60063,0.0554733
-574,-412,-8.34131,5.25012,0,0,0,0,0,0,0,-1,650,1436,-8.34129,-5.25012
-567,-412,-7.50354,3.65454,0,0,0,0,0,0,0,-1,657,1436,-7.50356,-3.65452
-560,-412,-8.52448,7.39014,0,0,0,0,0,0,0,-1,664,1436,-8.52447,-7.39019
-553,-412,-7.36761,6.54651,0,0,0,0,0,0,0,-1,671,1436,-7.36763,-6.54654
-546,-412,-21.1686,16.9202,0,0,0,0,0,0,0,-1,678,1436,-21.1686,-16.9202
-539,-412,-21.0525,17.8929,0.00586458,0.00461483,0.00457135,0.00985356,0.000625846,0.717472,0.00637068,0.0343254,685,1436,-21.0525,-17.893
-532,-412,-21.1053,18.8551,0.00444997,0.00337009,0.00342999,0.00738226,0.0004378,0.707331,0.00478226,0.0172377,692,1436,-21.1054,-18.8551
-525,-412,-21.1425,19.7224,0.00352174,0.00256815,0.00265268,0.00574014,0.000349753,0.696477,0.00371566,0.0170917,699,1436,-21.1425,-19.7224
-518,-412,-21.1703,20.5511,0.00284765,0.00194412,0.00206099,0.00450581,0.00028596,0.677506,0.00291324,0.0175832,706,1436,-21.1703,-20.5512
-511,-412,-21.2403,21.3641,0.00233844,0.00145358,0.00159102,0.0035474,0.000244618,0.649785,0.00228776,0.0201458,713,1436,-21.2403,-21.3641
-504,-412,-21.3126,22.241,0.00197414,0.00108963,0.00122764,0.00283676,0.000227012,0.612511,0.00182023,0.0189684,720,1436,-21.3125,-22.2409
-497,-412,-21.3299,23.1376,0.00177814,0.000889207,0.00099292,0.00242153,0.000245813,0.574955,0.00153898,0.0156603,727,1436,-21.3299,-23.1376
-490,-412,-21.3829,23.9623,0.00171827,0.000817524,0.000867032,0.00224493,0.000290871,0.545858,0.0014097,0.0133932,734,1436,-21.3829,-23.9623
-483,-412,-21.4241,24.7625,0.00176838,0.000947577,0.000846573,0.00229878,0.000417173,0.5597,0.00141413,0.0117956,741,1436,-21.4241,-24.7624
-476,-412,-21.4185,25.6821,0,0,0,0,0,0,0,-1,748,1436,-21.4185,-25.6822
-469,-412,-12.7646,18.4785,0,0,0,0,0,0,0,-1,755,1436,-12.7647,-18.4785
-462,-412,-8.94659,13.3385,0,0,0,0,0,0,0,-1,762,1436,-8.94657,-13.3385
-455,-412,-8.25006,11.2572,0,0,0,0,0,0,0,-1,769,1436,-8.25007,-11.2572
-448,-412,-7.38086,8.78186,0,0,0,0,0,0,0,-1,776,1436,-7.38088,-8.78183
-441,-412,-8.79523,9.05286,0,0,0,0,0,0,0,-1,783,1436,-8.79521,-9.0529
-434,-412,-10.6305,8.03577,0,0,0,0,0,0,0,-1,790,1436,-10.6305,-8.0358
-427,-412,-10.0004,5.15271,0,0,0,0,0,0,0,-1,797,1436,-10.0004,-5.15266
-420,-412,-10.4468,4.9043,0,0,0,0,0,0,0,-1,804,1436,-10.4468,-4.90429
-413,-412,-11.5704,4.97766,0,0,0,0,0,0,0,-1,811,1436,-11.5704,-4.97771
-406,-412,-13.1968,5.70093,0,0,0,0,0,0,0,-1,818,1436,-13.1968,-5.70096
-399,-412,-10.5506,0.771973,0,0,0,0,0,0,0,-1,825,1436,-10.5506,-0.771954
-392,-412,0,0,0,0,0,0,0,0,0,-1,832,1436,0,0
-385,-412,0,0,0,0,0,0,0,0,0,-1,839,1436,0,0
-378,-412,0,0,0,0,0,0,0,0,0,-1,846,1436,0,0
-371,-412,0,0,0,0,0,0,0,0,0,-1,853,1436,0,0
-364,-412,0,0,0,0,0,0,0,0,0,-1,860,1436,0,0
-357,-412,0,0,0,0,0,0,0,0,0,-1,867,1436,0,0
-350,-412,0,0,0,0,0,0,0,0,0,-1,874,1436,0,0
-343,-412,0,0,0,0,0,0,0,0,0,-1,881,1436,0,0
-336,-412,0,0,0,0,0,0,0,0,0,-1,888,1436,0,0
-329,-412,0,0,0,0,0,0,0,0,0,-1,895,1436,0,0
-322,-412,0,0,0,0,0,0,0,0,0,-1,902,1436,0,0
-315,-412,0,0,0,0,0,0,0,0,0,-1,909,1436,0,0
-308,-412,0,0,0,0,0,0,0,0,0,-1,916,1436,0,0
-301,-412,0,0,0,0,0,0,0,0,0,-1,923,1436,0,0
-294,-412,0,0,0,0,0,0,0,0,0,-1,930,1436,0,0
-287,-412,0,0,0,0,0,0,0,0,0,-1,937,1436,0,0
-280,-412,0,0,0,0,0,0,0,0,0,-1,944,1436,0,0
-273,-412,0,0,0,0,0,0,0,0,0,-1,951,1436,0,0
-266,-412,0,0,0,0,0,0,0,0,0,-1,958,1436,0,0
-259,-412,0,0,0,0,0,0,0,0,0,-1,965,1436,0,0
-252,-412,0,0,0,0,0,0,0,0,0,-1,972,1436,0,0
-245,-412,0,0,0,0,0,0,0,0,0,-1,979,1436,0,0
-238,-412,0,0,0,0,0,0,0,0,0,-1,986,1436,0,0
-231,-412,0,0,0,0,0,0,0,0,0,-1,993,1436,0,0
-224,-412,0,0,0,0,0,0,0,0,0,-1,1000,1436,0,0
-217,-412,0,0,0,0,0,0,0,0,0,-1,1007,1436,0,0
-210,-412,0,0,0,0,0,0,0,0,0,-1,1014,1436,0,0
-203,-412,0,0,0,0,0,0,0,0,0,-1,1021,1436,0,0
-196,-412,0,0,0,0,0,0,0,0,0,-1,1028,1436,0,0
-189,-412,0,0,0,0,0,0,0,0,0,-1,1035,1436,0,0
-182,-412,0,0,0,0,0,0,0,0,0,-1,1042,1436,0,0
-175,-412,0,0,0,0,0,0,0,0,0,-1,1049,1436,0,0
-168,-412,0,0,0,0,0,0,0,0,0,-1,1056,1436,0,0
-161,-412,0,0,0,0,0,0,0,0,0,-1,1063,1436,0,0
-154,-412,0,0,0,0,0,0,0,0,0,-1,1070,1436,0,0
-147,-412,0,0,0,0,0,0,0,0,0,-1,1077,1436,0,0
-140,-412,0,0,0,0,0,0,0,0,0,-1,1084,1436,0,0
-133,-412,0,0,0,0,0,0,0,0,0,-1,1091,1436,0,0
-126,-412,0,0,0,0,0,0,0,0,0,-1,1098,1436,0,0
-119,-412,0,0,0,0,0,0,0,0,0,-1,1105,1436,0,0
-112,-412,0,0,0,0,0,0,0,0,0,-1,1112,1436,0,0
-105,-412,0,0,0,0,0,0,0,0,0,-1,1119,1436,0,0
-98,-412,0,0,0,0,0,0,0,0,0,-1,1126,1436,0,0
-91,-412,0,0,0,0,0,0,0,0,0,-1,1133,1436,0,0
-84,-412,0,0,0,0,0,0,0,0,0,-1,1140,1436,0,0
-77,-412,0,0,0,0,0,0,0,0,0,-1,1147,1436,0,0
-70,-412,0,0,0,0,0,0,0,0,0,-1,1154,1436,0,0
-63,-412,0,0,0,0,0,0,0,0,0,-1,1161,1436,0,0
-56,-412,0,0,0,0,0,0,0,0,0,-1,1168,1436,0,0
-49,-412,0,0,0,0,0,0,0,0,0,-1,1175,1436,0,0
-42,-412,0,0,0,0,0,0,0,0,0,-1,1182,1436,0,0
-35,-412,0,0,0,0,0,0,0,0,0,-1,1189,1436,0,0
-28,-412,0,0,0,0,0,0,0,0,0,-1,1196,1436,0,0
-21,-412,0,0,0,0,0,0,0,0,0,-1,1203,1436,0,0
-14,-412,0,0,0,0,0,0,0,0,0,-1,1210,1436,0,0
-7,-412,0,0,0,0,0,0,0,0,0,-1,1217,1436,0,0
0,-412,0,0,0,0,0,0,0,0,0,-1,1224,1436,0,0
7,-412,0,0,0,0,0,0,0,0,0,-1,1231,1436,0,0
14,-412,0,0,0,0,0,0,0,0,0,-1,1238,1436,0,0
21,-412,0,0,0,0,0,0,0,0,0,-1,1245,1436,0,0
28,-412,0,0,0,0,0,0,0,0,0,-1,1252,1436,0,0
35,-412,0,0,0,0,0,0,0,0,0,-1,1259,1436,0,0
42,-412,0,0,0,0,0,0,0,0,0,-1,1266,1436,0,0
49,-412,0,0,0,0,0,0,0,0,0,-1,1273,1436,0,0
56,-412,0,0,0,0,0,0,0,0,0,-1,1280,1436,0,0
63,-412,0,0,0,0,0,0,0,0,0,-1,1287,1436,0,0
70,-412,0,0,0,0,0,0,0,0,0,-1,1294,1436,0,0
77,-412,0,0,0,0,0,0,0,0,0,-1,1301,1436,0,0
84,-412,0,0,0,0,0,0,0,0,0,-1,1308,1436,0,0
91,-412,0,0,0,0,0,0,0,0,0,-1,1315,1436,0,0
98,-412,0,0,0,0,0,0,0,0,0,-1,1322,1436,0,0
105,-412,0,0,0,0,0,0,0,0,0,-1,1329,1436,0,0
112,-412,0,0,0,0,0,0,0,0,0,-1,1336,1436,0,0
119,-412,0,0,0,0,0,0,0,0,0,-1,1343,1436,0,0
126,-412,0,0,0,0,0,0,0,0,0,-1,1350,1436,0,0
133,-412,0,0,0,0,0,0,0,0,0,-1,1357,1436,0,0
140,-412,0,0,0,0,0,0,0,0,0,-1,1364,1436,0,0
147,-412,0,0,0,0,0,0,0,0,0,-1,1371,1436,0,0
154,-412,0,0,0,0,0,0,0,0,0,-1,1378,1436,0,0
161,-412,0,0,0,0,0,0,0,0,0,-1,1385,1436,0,0
168,-412,0,0,0,0,0,0,0,0,0,-1,1392,1436,0,0
175,-412,0,0,0,0,0,0,0,0,0,-1,1399,1436,0,0
182,-412,0,0,0,0,0,0,0,0,0,-1,1406,1436,0,0
189,-412,0,0,0,0,0,0,0,0,0,-1,1413,1436,0,0
196,-412,0,0,0,0,0,0,0,0,0,-1,1420,1436,0,0
203,-412,0,0,0,0,0,0,0,0,0,-1,1427,1436,0,0
210,-412,0,0,0,0,0,0,0,0,0,-1,1434,1436,0,0
217,-412,0,0,0,0,0,0,0,0,0,-1,1441,1436,0,0
224,-412,0,0,0,0,0,0,0,0,0,-1,1448,1436,0,0
231,-412,0,0,0,0,0,0,0,0,0,-1,1455,1436,0,0
238,-412,0,0,0,0,0,0,0,0,0,-1,1462,1436,0,0
245,-412,0,0,0,0,0,0,0,0,0,-1,1469,1436,0,0
252,-412,0,0,0,0,0,0,0,0,0,-1,1476,1436,0,0
259,-412,0,0,0,0,0,0,0,0,0,-1,1483,1436,0,0
266,-412,0,0,0,0,0,0,0,0,0,-1,1490,1436,0,0
273,-412,0,0,0,0,0,0,0,0,0,-1,1497,1436,0,0
280,-412,0,0,0,0,0,0,0,0,0,-1,1504,1436,0,0
287,-412,0,0,0,0,0,0,0,0,0,-1,1511,1436,0,0
294,-412,0,0,0,0,0,0,0,0,0,-1,1518,1436,0,0
301,-412,0,0,0,0,0,0,0,0,0,-1,1525,1436,0,0
308,-412,0,0,0,0,0,0,0,0,0,-1,1532,1436,0,0
315,-412,0,0,0,0,0,0,0,0,0,-1,1539,1436,0,0
322,-412,0,0,0,0,0,0,0,0,0,-1,1546,1436,0,0
329,-412,0,0,0,0,0,0,0,0,0,-1,1553,1436,0,0
336,-412,0,0,0,0,0,0,0,0,0,-1,1560,1436,0,0
343,-412,0,0,0,0,0,0,0,0,0,-1,1567,1436,0,0
350,-412,0,0,0,0,0,0,0,0,0,-1,1574,1436,0,0
357,-412,0,0,0,0,0,0,0,0,0,-1,1581,1436,0,0
364,-412,0,0,0,0,0,0,0,0,0,-1,1588,1436,0,0
371,-412,0,0,0,0,0,0,0,0,0,-1,1595,1436,0,0
378,-412,0,0,0,0,0,0,0,0,0,-1,1602,1436,0,0
385,-412,0,0,0,0,0,0,0,0,0,-1,1609,1436,0,0
392,-412,0,0,0,0,0,0,0,0,0,-1,1616,1436,0,0
399,-412,0,0,0,0,0,0,0,0,0,-1,1623,1436,0,0
406,-412,0,0,0,0,0,0,0,0,0,-1,1630,1436,0,0
413,-412,0,0,0,0,0,0,0,0,0,-1,1637,1436,0,0
420,-412,0,0,0,0,0,0,0,0,0,-1,1644,1436,0,0
427,-412,0,0,0,0,0,0,0,0,0,-1,1651,1436,0,0
434,-412,0,0,0,0,0,0,0,0,0,-1,1658,1436,0,0
441,-412,0,0,0,0,0,0,0,0,0,-1,1665,1436,0,0
448,-412,0,0,0,0,0,0,0,0,0,-1,1672,1436,0,0
455,-412,0,0,0,0,0,0,0,0,0,-1,1679,1436,0,0
462,-412,0,0,0,0,0,0,0,0,0,-1,1686,1436,0,0
469,-412,0,0,0,0,0,0,0,0,0,-1,1693,1436,0,0
476,-412,0,0,0,0,0,0,0,0,0,-1,1700,1436,0,0
483,-412,0,0,0,0,0,0,0,0,0,-1,1707,1436,0,0
490,-412,0,0,0,0,0,0,0,0,0,-1,1714,1436,0,0
497,-412,0,0,0,0,0,0,0,0,0,-1,1721,1436,0,0
504,-412,0,0,0,0,0,0,0,0,0,-1,1728,1436,0,0
511,-412,0,0,0,0,0,0,0,0,0,-1,1735,1436,0,0
518,-412,30.1038,-2.43384,0,0,0,0,0,0,0,-1,1742,1436,30.1038,2.43383
525,-412,29.5283,-1.42493,0,0,0,0,0,0,0,-1,1749,1436,29.5283,1.42495
532,-412,28.8533,-0.386597,0,0,0,0,0,0,0,-1,1756,1436,28.8533,0.386632
539,-412,25.8654,2.74683,0,0,0,0,0,0,0,-1,1763,1436,25.8654,-2.74685
546,-412,25.4265,2.4342,0,0,0,0,0,0,0,-1,1770,1436,25.4265,-2.4342
553,-412,26.3595,7.49255,0,0,0,0,0,0,0,-1,1777,1436,26.3595,-7.4925
560,-412,24.9116,7.94324,0,0,0,0,0,0,0,-1,1784,1436,24.9116,-7.94327
567,-412,23.668,7.94531,0,0,0,0,0,0,0,-1,1791,1436,23.6679,-7.94534
574,-412,23.0142,9.17236,0,0,0,0,0,0,0,-1,1798,1436,23.0141,-9.17235
581,-412,22.2615,10.0349,0,0,0,0,0,0,0,-1,1805,1436,22.2615,-10.0349
588,-412,21.6893,10.8069,0,0,0,0,0,0,0,-1,1812,1436,21.6893,-10.8069
595,-412,21.5137,14.3157,0,0,0,0,0,0,0,-1,1819,1436,21.5137,-14.3157
602,-412,37.0725,24.8387,0,0,0,0,0,0,0,-1,1826,1436,37.0725,-24.8388
609,-412,38.4244,25.5796,0,0,0,0,0,0,0,-1,1833,1436,38.4245,-25.5796
616,-412,38.3689,24.7922,0.00186672,0.00104572,-0.000946996,0.00248836,0.000424085,-0.580885,0.00153717,0.0159115,1840,1436,38.3689,-24.7922
623,-412,38.3047,23.9814,0.00132577,0.000533948,-0.00059166,0.00164176,0.000217955,-0.490538,0.00102957,0.0104956,1847,1436,38.3047,-23.9814
630,-412,38.2776,23.1295,0.0011394,0.000183149,-0.000405919,0.00128847,3.40781e-05,-0.351952,0.000847846,0.012655,1854,1436,38.2776,-23.1296
637,-412,38.2319,22.3303,0.00124111,-5.56169e-05,-0.000408201,0.00135891,-0.000173414,-0.280944,0.000968933,0.0148249,1861,1436,38.2319,-22.3303
644,-412,38.198,21.5251,0.00161446,-0.000179224,-0.000603038,0.00179835,-0.000363114,-0.295981,0.00133648,0.0160596,1868,1436,38.198,-21.5251
651,-412,38.1371,20.6699,0.00222241,-0.000183279,-0.000949194,0.00255182,-0.00051269,-0.334038,0.00189536,0.0277517,1875,1436,38.1371,-20.6699
658,-412,38.0632,19.8702,0.00306622,-0.000117478,-0.00144353,0.00362327,-0.000674526,-0.368287,0.00266892,0.0198885,1882,1436,38.0632,-19.8702
665,-412,38.0651,19.0355,0.00416248,3.44064e-06,-0.00206302,0.0050122,-0.000846278,-0.390707,0.00365635,0.0235137,1889,1436,38.0651,-19.0355
672,-412,38.1044,18.196,0.00548656,0.000120473,-0.00278146,0.00666813,-0.0010611,-0.401703,0.00483806,0.0421039,1896,1436,38.1044,-18.196
679,-412,38.2114,17.3549,0,0,0,0,0,0,0,-1,1903,1436,38.2114,-17.3549
686,-412,35.3159,15.2073,0,0,0,0,0,0,0,-1,1910,1436,35.3159,-15.2072
693,-412,11.9346,6.02344,0,0,0,0,0,0,0,-1,1917,1436,11.9346,-6.02343
700,-412,8.82764,5.8844,0,0,0,0,0,0,0,-1,1924,1436,8.82761,-5.88444
707,-412,6.59998,1.68994,0,0,0,0,0,0,0,-1,1931,1436,6.60002,-1.68995
714,-412,4.77283,-2.39832,0,0,0,0,0,0,0,-1,1938,1436,4.77288,2.39835
721,-412,0,0,0,0,0,0,0,0,0,-1,1945,1436,0,0
728,-412,0,0,0,0,0,0,0,0,0,-1,1952,1436,0,0
735,-412,0,0,0,0,0,0,0,0,0,-1,1959,1436,0,0
742,-412,0,0,0,0,0,0,0,0,0,-1,1966,1436,0,0
749,-412,0,0,0,0,0,0,0,0,0,-1,1973,1436,0,0
756,-412,0,0,0,0,0,0,0,0,0,-1,1980,1436,0,0
763,-412,0,0,0,0,0,0,0,0,0,-1,1987,1436,0,0
770,-412,0,0,0,0,0,0,0,0,0,-1,1994,1436,0,0
777,-412,0,0,0,0,0,0,0,0,0,-1,2001,1436,0,0
784,-412,0,0,0,0,0,0,0,0,0,-1,2008,1436,0,0
791,-412,0,0,0,0,0,0,0,0,0,-1,2015,1436,0,0
798,-412,0,0,0,0,0,0,0,0,0,-1,2022,1436,0,0
805,-412,0,0,0,0,0,0,0,0,0,-1,2029,1436,0,0
812,-412,0,0,0,0,0,0,0,0,0,-1,2036,1436,0,0
-700,-419,0,0,0,0,0,0,0,0,0,-1,524,1443,0,0
-693,-419,0,0,0,0,0,0,0,0,0,-1,531,1443,0,0
-686,-419,0,0,0,0,0,0,0,0,0,-1,538,1443,0,0
-679,-419,0,0,0,0,0,0,0,0,0,-1,545,1443,0,0
-672,-419,0,0,0,0,0,0,0,0,0,-1,552,1443,0,0
-665,-419,0,0,0,0,0,0,0,0,0,-1,559,1443,0,0
-658,-419,0,0,0,0,0,0,0,0,0,-1,566,1443,0,0
-651,-419,0,0,0,0,0,0,0,0,0,-1,573,1443,0,0
-644,-419,0,0,0,0,0,0,0,0,0,-1,580,1443,0,0
-637,-419,0,0,0,0,0,0,0,0,0,-1,587,1443,0,0
-630,-419,0,0,0,0,0,0,0,0,0,-1,594,1443,0,0
-623,-419,0,0,0,0,0,0,0,0,0,-1,601,1443,0,0
-616,-419,0,0,0,0,0,0,0,0,0,-1,608,1443,0,0
-609,-419,0,0,0,0,0,0,0,0,0,-1,615,1443,0,0
-602,-419,0,0,0,0,0,0,0,0,0,-1,622,1443,0,0
-595,-419,-11.4904,-0.622681,0,0,0,0,0,0,0,-1,629,1443,-11.4903,0.622714
-588,-419,-9.09369,0.742432,0,0,0,0,0,0,0,-1,636,1443,-9.09366,-0.742482
-581,-419,-6.39172,2.14673,0,0,0,0,0,0,0,-1,643,1443,-6.39175,-2.14668
-574,-419,-4.09772,3.54773,0,0,0,0,0,0,0,-1,650,1443,-4.09772,-3.54767
-567,-419,-6.14038,3.22498,0,0,0,0,0,0,0,-1,657,1443,-6.14037,-3.22497
-560,-419,-4.52814,5.22253,0,0,0,0,0,0,0,-1,664,1443,-4.52816,-5.22251
-553,-419,-5.08331,6.11829,0,0,0,0,0,0,0,-1,671,1443,-5.08331,-6.1183
-546,-419,-10.3732,9.23279,0,0,0,0,0,0,0,-1,678,1443,-10.3732,-9.23275
-539,-419,-20.2222,17.7982,0,0,0,0,0,0,0,-1,685,1443,-20.2222,-17.7982
-532,-419,-20.2833,18.8735,0.00518098,0.00438776,0.00434187,0.00914432,0.000424423,0.739852,0.00595978,0.0335675,692,1443,-20.2833,-18.8736
-525,-419,-20.2833,19.7859,0.00403078,0.00339573,0.00339127,0.00711936,0.000307145,0.738719,0.00464724,0.0144151,699,1443,-20.2833,-19.7859
-518,-419,-20.3184,20.6125,0.00317974,0.00261107,0.0026451,0.00555575,0.000235067,0.731856,0.00362802,0.0190597,706,1443,-20.3184,-20.6126
-511,-419,-20.4109,21.4283,0.0024991,0.00197149,0.00202266,0.00427509,0.000195496,0.720552,0.00278718,0.0217567,713,1443,-20.4109,-21.4283
-504,-419,-20.4713,22.3055,0.00195861,0.00146241,0.0014954,0.00322635,0.000194666,0.703194,0.00208904,0.0204837,720,1443,-20.4713,-22.3055
-497,-419,-20.4716,23.1531,0.00158338,0.00111265,0.00108788,0.00246106,0.000234965,0.678864,0.00156826,0.0142146,727,1443,-20.4716,-23.1531
-490,-419,-20.5255,23.9786,0.00133045,0.000889465,0.000781195,0.00192167,0.000298242,0.647851,0.00119418,0.0125757,734,1443,-20.5255,-23.9787
-483,-419,-20.5798,24.811,0.00125659,0.000885876,0.000621943,0.00172021,0.000422259,0.640572,0.00103517,0.0106446,741,1443,-20.5797,-24.8111
-476,-419,-20.5961,25.6868,0.00127304,0.000969471,0.000561222,0.00170264,0.00053987,0.653332,0.00100471,0.0228158,748,1443,-20.5962,-25.6868
-469,-419,-20.626,26.5649,0,0,0,0,0,0,0,-1,755,1443,-20.626,-26.565
-462,-419,-11.5347,18.1563,0,0,0,0,0,0,0,-1,762,1443,-11.5347,-18.1562
-455,-419,-7.35645,11.9451,0,0,0,0,0,0,0,-1,769,1443,-7.35646,-11.9451
-448,-419,-7.49109,9.92444,0,0,0,0,0,0,0,-1,776,1443,-7.49109,-9.92442
-441,-419,-7.65527,8.75574,0,0,0,0,0,0,0,-1,783,1443,-7.65525,-8.75568
-434,-419,-11.3724,12.3643,0,0,0,0,0,0,0,-1,790,1443,-11.3724,-12.3643
-427,-419,-8.23193,7.89404,0,0,0,0,0,0,0,-1,797,1443,-8.23193,-7.89404
-420,-419,-8.74091,6.36597,0,0,0,0,0,0,0,-1,804,1443,-8.74089,-6.366
-413,-419,-9.88391,6.53955,0,0,0,0,0,0,0,-1,811,1443,-9.8839,-6.53955
-406,-419,-10.3372,2.75195,0,0,0,0,0,0,0,-1,818,1443,-10.3372,-2.75201
-399,-419,-11.5999,1.40002,0,0,0,0,0,0,0,-1,825,1443,-11.5999,-1.39998
-392,-419,0,0,0,0,0,0,0,0,0,-1,832,1443,0,0
-385,-419,0,0,0,0,0,0,0,0,0,-1,839,1443,0,0
-378,-419,0,0,0,0,0,0,0,0,0,-1,846,1443,0,0
-371,-419,0,0,0,0,0,0,0,0,0,-1,853,1443,0,0
-364,-419,0,0,0,0,0,0,0,0,0,-1,860,1443,0,0
-357,-419,0,0,0,0,0,0,0,0,0,-1,867,1443,0,0
-350,-419,0,0,0,0,0,0,0,0,0,-1,874,1443,0,0
-343,-419,0,0,0,0,0,0,0,0,0,-1,881,1443,0,0
-336,-419,0,0,0,0,0,0,0,0,0,-1,888,1443,0,0
-329,-419,0,0,0,0,0,0,0,0,0,-1,895,1443,0,0
-322,-419,0,0,0,0,0,0,0,0,0,-1,902,1443,0,0
-315,-419,0,0,0,0,0,0,0,0,0,-1,909,1443,0,0
-308,-419,0,0,0,0,0,0,0,0,0,-1,916,1443,0,0
-301,-419,0,0,0,0,0,0,0,0,0,-1,923,1443,0,0
-294,-419,0,0,0,0,0,0,0,0,0,-1,930,1443,0,0
-287,-419,0,0,0,0,0,0,0,0,0,-1,937,1443,0,0
-280,-419,0,0,0,0,0,0,0,0,0,-1,944,1443,0,0
-273,-419,0,0,0,0,0,0,0,0,0,-1,951,1443,0,0
-266,-419,0,0,0,0,0,0,0,0,0,-1,958,1443,0,0
-259,-419,0,0,0,0,0,0,0,0,0,-1,965,1443,0,0
-252,-419,0,0,0,0,0,0,0,0,0,-1,972,1443,0,0
-245,-419,0,0,0,0,0,0,0,0,0,-1,979,1443,0,0
-238,-419,0,0,0,0,0,0,0,0,0,-1,986,1443,0,0
-231,-419,0,0,0,0,0,0,0,0,0,-1,993,1443,0,0
-224,-419,0,0,0,0,0,0,0,0,0,-1,1000,1443,0,0
-217,-419,0,0,0,0,0,0,0,0,0,-1,1007,1443,0,0
-210,-419,0,0,0,0,0,0,0,0,0,-1,1014,1443,0,0
-203,-419,0,0,0,0,0,0,0,0,0,-1,1021,1443,0,0
-196,-419,0,0,0,0,0,0,0,0,0,-1,1028,1443,0,0
-189,-419,0,0,0,0,0,0,0,0,0,-1,1035,1443,0,0
-182,-419,0,0,0,0,0,0,0,0,0,-1,1042,1443,0,0
-175,-419,0,0,0,0,0,0,0,0,0,-1,1049,1443,0,0
-168,-419,0,0,0,0,0,0,0,0,0,-1,1056,1443,0,0
-161,-419,0,0,0,0,0,0,0,0,0,-1,1063,1443,0,0
-154,-419,0,0,0,0,0,0,0,0,0,-1,1070,1443,0,0
-147,-419,0,0,0,0,0,0,0,0,0,-1,1077,1443,0,0
-140,-419,0,0,0,0,0,0,0,0,0,-1,1084,1443,0,0
-133,-419,0,0,0,0,0,0,0,0,0,-1,1091,1443,0,0
-126,-419,0,0,0,0,0,0,0,0,0,-1,1098,1443,0,0
-119,-419,0,0,0,0,0,0,0,0,0,-1,1105,1443,0,0
-112,-419,0,0,0,0,0,0,0,0,0,-1,1112,1443,0,0
-105,-419,0,0,0,0,0,0,0,0,0,-1,1119,1443,0,0
-98,-419,0,0,0,0,0,0,0,0,0,-1,1126,1443,0,0
-91,-419,0,0,0,0,0,0,0,0,0,-1,1133,1443,0,0
-84,-419,0,0,0,0,0,0,0,0,0,-1,1140,1443,0,0
-77,-419,0,0,0,0,0,0,0,0,0,-1,1147,1443,0,0
-70,-419,0,0,0,0,0,0,0,0,0,-1,1154,1443,0,0
-63,-419,0,0,0,0,0,0,0,0,0,-1,1161,1443,0,0
-56,-419,0,0,0,0,0,0,0,0,0,-1,1168,1443,0,0
-49,-419,0,0,0,0,0,0,0,0,0,-1,1175,1443,0,0
-42,-419,0,0,0,0,0,0,0,0,0,-1,1182,1443,0,0
-35,-419,0,0,0,0,0,0,0,0,0,-1,1189,1443,0,0
-28,-419,0,0,0,0,0,0,0,0,0,-1,1196,1443,0,0
-21,-419,0,0,0,0,0,0,0,0,0,-1,1203,1443,0,0
-14,-419,0,0,0,0,0,0,0,0,0,-1,1210,1443,0,0
-7,-419,0,0,0,0,0,0,0,0,0,-1,1217,1443,0,0
0,-419,0,0,0,0,0,0,0,0,0,-1,1224,1443,0,0
7,-419,0,0,0,0,0,0,0,0,0,-1,1231,1443,0,0
14,-419,0,0,0,0,0,0,0,0,0,-1,1238,1443,0,0
21,-419,0,0,0,0,0,0,0,0,0,-1,1245,1443,0,0
28,-419,0,0,0,0,0,0,0,0,0,-1,1252,1443,0,0
35,-419,0,0,0,0,0,0,0,0,0,-1,1259,1443,0,0
42,-419,0,0,0,0,0,0,0,0,0,-1,1266,1443,0,0
49,-419,0,0,0,0,0,0,0,0,0,-1,1273,1443,0,0
56,-419,0,0,0,0,0,0,0,0,0,-1,1280,1443,0,0
63,-419,0,0,0,0,0,0,0,0,0,-1,1287,1443,0,0
70,-419,0,0,0,0,0,0,0,0,0,-1,1294,1443,0,0
77,-419,0,0,0,0,0,0,0,0,0,-1,1301,1443,0,0
84,-419,0,0,0,0,0,0,0,0,0,-1,1308,1443,0,0
91,-419,0,0,0,0,0,0,0,0,0,-1,1315,1443,0,0
98,-419,0,0,0,0,0,0,0,0,0,-1,1322,1443,0,0
105,-419,0,0,0,0,0,0,0,0,0,-1,1329,1443,0,0
112,-419,0,0,0,0,0,0,0,0,0,-1,1336,1443,0,0
119,-419,0,0,0,0,0,0,0,0,0,-1,1343,1443,0,0
126,-419,0,0,0,0,0,0,0,0,0,-1,1350,1443,0,0
133,-419,0,0,0,0,0,0,0,0,0,-1,1357,1443,0,0
140,-419,0,0,0,0,0,0,0,0,0,-1,1364,1443,0,0
147,-419,0,0,0,0,0,0,0,0,0,-1,1371,1443,0,0
154,-419,0,0,0,0,0,0,0,0,0,-1,1378,1443,0,0
161,-419,0,0,0,0,0,0,0,0,0,-1,1385,1443,0,0
168,-419,0,0,0,0,0,0,0,0,0,-1,1392,1443,0,0
175,-419,0,0,0,0,0,0,0,0,0,-1,1399,1443,0,0
182,-419,0,0,0,0,0,0,0,0,0,-1,1406,1443,0,0
189,-419,0,0,0,0,0,0,0,0,0,-1,1413,1443,0,0
196,-419,0,0,0,0,0,0,0,0,0,-1,1420,1443,0,0
203,-419,0,0,0,0,0,0,0,0,0,-1,1427,1443,0,0
210,-419,0,0,0,0,0,0,0,0,0,-1,1434,1443,0,0
217,-419,0,0,0,0,0,0,0,0,0,-1,1441,1443,0,0
224,-419,0,0,0,0,0,0,0,0,0,-1,1448,1443,0,0
231,-419,0,0,0,0,0,0,0,0,0,-1,1455,1443,0,0
238,-419,0,0,0,0,0,0,0,0,0,-1,1462,1443,0,0
245,-419,0,0,0,0,0,0,0,0,0,-1,1469,1443,0,0
252,-419,0,0,0,0,0,0,0,0,0,-1,1476,1443,0,0
259,-419,0,0,0,0,0,0,0,0,0,-1,1483,1443,0,0
266,-419,0,0,0,0,0,0,0,0,0,-1,1490,1443,0,0
273,-419,0,0,0,0,0,0,0,0,0,-1,1497,1443,0,0
280,-419,0,0,0,0,0,0,0,0,0,-1,1504,1443,0,0
287,-419,0,0,0,0,0,0,0,0,0,-1,1511,1443,0,0
294,-419,0,0,0,0,0,0,0,0,0,-1,1518,1443,0,0
301,-419,0,0,0,0,0,0,0,0,0,-1,1525,1443,0,0
308,-419,0,0,0,0,0,0,0,0,0,-1,1532,1443,0,0
315,-419,0,0,0,0,0,0,0,0,0,-1,1539,1443,0,0
322,-419,0,0,0,0,0,0,0,0,0,-1,1546,1443,0,0
329,-419,0,0,0,0,0,0,0,0,0,-1,1553,1443,0,0
336,-419,0,0,0,0,0,0,0,0,0,-1,1560,1443,0,0
343,-419,0,0,0,0,0,0,0,0,0,-1,1567,1443,0,0
350,-419,0,0,0,0,0,0,0,0,0,-1,1574,1443,0,0
357,-419,0,0,0,0,0,0,0,0,0,-1,1581,1443,0,0
364,-419,0,0,0,0,0,0,0,0,0,-1,1588,1443,0,0
371,-419,0,0,0,0,0,0,0,0,0,-1,1595,1443,0,0
378,-419,0,0,0,0,0,0,0,0,0,-1,1602,1443,0,0
385,-419,0,0,0,0,0,0,0,0,0,-1,1609,1443,0,0
392,-419,0,0,0,0,0,0,0,0,0,-1,1616,1443,0,0
399,-419,0,0,0,0,0,0,0,0,0,-1,1623,1443,0,0
406,-419,0,0,0,0,0,0,0,0,0,-1,1630,1443,0,0
413,-419,0,0,0,0,0,0,0,0,0,-1,1637,1443,0,0
420,-419,0,0,0,0,0,0,0,0,0,-1,1644,1443,0,0
427,-419,0,0,0,0,0,0,0,0,0,-1,1651,1443,0,0
434,-419,0,0,0,0,0,0,0,0,0,-1,1658,1443,0,0
441,-419,0,0,0,0,0,0,0,0,0,-1,1665,1443,0,0
448,-419,0,0,0,0,0,0,0,0,0,-1,1672,1443,0,0
455,-419,0,0,0,0,0,0,0,0,0,-1,1679,1443,0,0
462,-419,0,0,0,0,0,0,0,0,0,-1,1686,1443,0,0
469,-419,0,0,0,0,0,0,0,0,0,-1,1693,1443,0,0
476,-419,0,0,0,0,0,0,0,0,0,-1,1700,1443,0,0
483,-419,0,0,0,0,0,0,0,0,0,-1,1707,1443,0,0
490,-419,0,0,0,0,0,0,0,0,0,-1,1714,1443,0,0
497,-419,0,0,0,0,0,0,0,0,0,-1,1721,1443,0,0
504,-419,0,0,0,0,0,0,0,0,0,-1,1728,1443,0,0
511,-419,20.3005,3.7959,0,0,0,0,0,0,0,-1,1735,1443,20.3005,-3.79584
518,-419,21.3154,2.03027,0,0,0,0,0,0,0,-1,1742,1443,21.3155,-2.03029
525,-419,28.3439,-1.24475,0,0,0,0,0,0,0,-1,1749,1443,28.3438,1.24471
532,-419,27.5902,-0.272583,0,0,0,0,0,0,0,-1,1756,1443,27.5902,0.272526
539,-419,26.5278,1.60583,0,0,0,0,0,0,0,-1,1763,1443,26.5279,-1.60579
546,-419,24.9509,2.77539,0,0,0,0,0,0,0,-1,1770,1443,24.9509,-2.77537
553,-419,24.118,3.75525,0,0,0,0,0,0,0,-1,1777,1443,24.1181,-3.75526
560,-419,11.8199,8.26343,0,0,0,0,0,0,0,-1,1784,1443,11.82,-8.26341
567,-419,21.5143,8.74719,0,0,0,0,0,0,0,-1,1791,1443,21.5143,-8.74722
574,-419,19.5886,6.46155,0,0,0,0,0,0,0,-1,1798,1443,19.5886,-6.46157
581,-419,20.7926,11.4265,0,0,0,0,0,0,0,-1,1805,1443,20.7926,-11.4265
588,-419,19.4242,12.5363,0,0,0,0,0,0,0,-1,1812,1443,19.4242,-12.5362
595,-419,22.9375,16.0151,0,0,0,0,0,0,0,-1,1819,1443,22.9375,-16.0152
602,-419,37.5675,26.5876,0,0,0,0,0,0,0,-1,1826,1443,37.5675,-26.5877
609,-419,37.5642,25.6711,0.0027955,0.00135721,-0.00176856,0.00398554,0.000167173,-0.592295,0.00260309,0.0298116,1833,1443,37.5642,-25.6712
616,-419,37.5315,24.8511,0.00207682,0.000836915,-0.00116011,0.00277224,0.000141502,-0.540007,0.00180284,0.0129019,1840,1443,37.5315,-24.851
623,-419,37.505,24.0284,0.00158423,0.000457423,-0.000758047,0.00196532,7.63385e-05,-0.465821,0.00128552,0.0114319,1847,1443,37.505,-24.0285
630,-419,37.483,23.1882,0.00142259,0.000135276,-0.000521979,0.00160764,-4.97753e-05,-0.340694,0.00108873,0.0136956,1854,1443,37.483,-23.1883
637,-419,37.4249,22.4076,0.00150021,-7.18268e-05,-0.000445224,0.00161754,-0.000189163,-0.257685,0.00114663,0.0140359,1861,1443,37.4249,-22.4075
644,-419,37.3816,21.6041,0.0018468,-0.000169117,-0.000581035,0.00200228,-0.000324594,-0.26146,0.00145517,0.0128348,1868,1443,37.3816,-21.6042
651,-419,37.3202,20.8103,0.00241516,-0.000158883,-0.000883917,0.00268946,-0.000433186,-0.300904,0.00195345,0.0131909,1875,1443,37.3202,-20.8103
658,-419,37.2535,19.9518,0.0032561,-6.49277e-05,-0.00136627,0.00374593,-0.00055476,-0.344244,0.00270126,0.0148839,1882,1443,37.2535,-19.9518
665,-419,37.2585,19.1085,0.00437191,7.88311e-05,-0.00199778,0.00515774,-0.000706996,-0.37476,0.00369676,0.0249872,1889,1443,37.2585,-19.1085
672,-419,37.325,18.2561,0,0,0,0,0,0,0,-1,1896,1443,37.325,-18.2561
679,-419,35.5436,15.4066,0,0,0,0,0,0,0,-1,1903,1443,35.5436,-15.4067
686,-419,17.4127,8.03076,0,0,0,0,0,0,0,-1,1910,1443,17.4127,-8.03071
693,-419,8.76086,5.60535,0,0,0,0,0,0,0,-1,1917,1443,8.76091,-5.6054
700,-419,11.0498,4.85156,0,0,0,0,0,0,0,-1,1924,1443,11.0498,-4.85153
707,-419,9.5752,1.80042,0,0,0,0,0,0,0,-1,1931,1443,9.57523,-1.80037
714,-419,5.77576,-1.25061,0,0,0,0,0,0,0,-1,1938,1443,5.7757,1.25056
721,-419,0,0,0,0,0,0,0,0,0,-1,1945,1443,0,0
728,-419,0,0,0,0,0,0,0,0,0,-1,1952,1443,0,0
735,-419,0,0,0,0,0,0,0,0,0,-1,1959,1443,0,0
742,-419,0,0,0,0,0,0,0,0,0,-1,1966,1443,0,0
749,-419,0,0,0,0,0,0,0,0,0,-1,1973,1443,0,0
756,-419,0,0,0,0,0,0,0,0,0,-1,1980,1443,0,0
763,-419,0,0,0,0,0,0,0,0,0,-1,1987,1443,0,0
770,-419,0,0,0,0,0,0,0,0,0,-1,1994,1443,0,0
777,-419,0,0,0,0,0,0,0,0,0,-1,2001,1443,0,0
784,-419,0,0,0,0,0,0,0,0,0,-1,2008,1443,0,0
791,-419,0,0,0,0,0,0,0,0,0,-1,2015,1443,0,0
798,-419,0,0,0,0,0,0,0,0,0,-1,2022,1443,0,0
805,-419,0,0,0,0,0,0,0,0,0,-1,2029,1443,0,0
812,-419,0,0,0,0,0,0,0,0,0,-1,2036,1443,0,0
-700,-426,0,0,0,0,0,0,0,0,0,-1,524,1450,0,0
-693,-426,0,0,0,0,0,0,0,0,0,-1,531,1450,0,0
-686,-426,0,0,0,0,0,0,0,0,0,-1,538,1450,0,0
-679,-426,0,0,0,0,0,0,0,0,0,-1,545,1450,0,0
-672,-426,0,0,0,0,0,0,0,0,0,-1,552,1450,0,0
-665,-426,0,0,0,0,0,0,0,0,0,-1,559,1450,0,0
-658,-426,0,0,0,0,0,0,0,0,0,-1,566,1450,0,0
-651,-426,0,0,0,0,0,0,0,0,0,-1,573,1450,0,0
-644,-426,0,0,0,0,0,0,0,0,0,-1,580,1450,0,0
-637,-426,0,0,0,0,0,0,0,0,0,-1,587,1450,0,0
-630,-426,0,0,0,0,0,0,0,0,0,-1,594,1450,0,0
-623,-426,0,0,0,0,0,0,0,0,0,-1,601,1450,0,0
-616,-426,0,0,0,0,0,0,0,0,0,-1,608,1450,0,0
-609,-426,0,0,0,0,0,0,0,0,0,-1,615,1450,0,0
-602,-426,0,0,0,0,0,0,0,0,0,-1,622,1450,0,0
-595,-426,0,0,0,0,0,0,0,0,0,-1,629,1450,0,0
-588,-426,-10.184,-0.554321,0,0,0,0,0,0,0,-1,636,1450,-10.184,0.554321
-581,-426,-7.3349,1.48157,0,0,0,0,0,0,0,-1,643,1450,-7.33491,-1.48152
-574,-426,-5.02856,2.89319,0,0,0,0,0,0,0,-1,650,1450,-5.02858,-2.89319
-567,-426,-3.04797,1.72644,0,0,0,0,0,0,0,-1,657,1450,-3.04797,-1.72639
-560,-426,-5.55682,3.44397,0,0,0,0,0,0,0,-1,664,1450,-5.55684,-3.44399
-553,-426,-4.67017,6.66614,0,0,0,0,0,0,0,-1,671,1450,-4.67015,-6.66619
-546,-426,-7.58752,8.28882,0,0,0,0,0,0,0,-1,678,1450,-7.58752,-8.28878
-539,-426,-10.436,10.7441,0,0,0,0,0,0,0,-1,685,1450,-10.436,-10.7441
-532,-426,-19.5264,18.8104,0,0,0,0,0,0,0,-1,692,1450,-19.5264,-18.8104
-525,-426,-19.4837,19.7402,0.00453895,0.00433229,0.00425804,0.00869492,0.000176331,0.773267,0.00573874,0.0266157,699,1450,-19.4837,-19.7402
-518,-426,-19.4756,20.6656,0.00362396,0.00336109,0.00337552,0.0068706,0.000114444,0.765939,0.00454273,0.0177905,706,1450,-19.4756,-20.6656
-511,-426,-19.5387,21.496,0.00286299,0.00256296,0.00262559,0.00534285,8.30987e-05,0.756861,0.00353452,0.0175535,713,1450,-19.5387,-21.4959
-504,-426,-19.605,22.3358,0.00222008,0.00190734,0.00196075,0.00403069,9.67325e-05,0.745608,0.00265547,0.0166667,720,1450,-19.605,-22.3358
-497,-426,-19.6241,23.1921,0.00171139,0.00141262,0.00139768,0.00296764,0.000156365,0.73216,0.00192842,0.0135254,727,1450,-19.6241,-23.1921
-490,-426,-19.6819,24.0193,0.00130198,0.0010513,0.000927503,0.00211257,0.000240704,0.718235,0.0013354,0.0141418,734,1450,-19.6819,-24.0193
-483,-426,-19.7352,24.8584,0.00110539,0.000922339,0.000635371,0.00165579,0.000371934,0.713866,0.00100314,0.0135646,741,1450,-19.7353,-24.8584
-476,-426,-19.7604,25.7174,0.0010608,0.000962301,0.00050806,0.00152199,0.000501107,0.737082,0.000895639,0.00988833,748,1450,-19.7604,-25.7175
-469,-426,-19.8296,26.5558,0.00119389,0.0012507,0.000521716,0.00174479,0.000699809,0.812593,0.0010139,0.0143055,755,1450,-19.8296,-26.5558
-462,-426,-19.8384,27.4253,0,0,0,0,0,0,0,-1,762,1450,-19.8384,-27.4253
-455,-426,-10.215,17.7007,0,0,0,0,0,0,0,-1,769,1450,-10.215,-17.7007
-448,-426,-6.46545,10.1322,0,0,0,0,0,0,0,-1,776,1450,-6.46543,-10.1322
-441,-426,-10.9547,11.4747,0,0,0,0,0,0,0,-1,783,1450,-10.9546,-11.4748
-434,-426,-10.4998,13.6189,0,0,0,0,0,0,0,-1,790,1450,-10.4997,-13.6189
-427,-426,-9.36627,13.7396,0,0,0,0,0,0,0,-1,797,1450,-9.36628,-13.7396
-420,-426,-5.33765,7.95044,0,0,0,0,0,0,0,-1,804,1450,-5.33766,-7.95041
-413,-426,-10.1148,5.0415,0,0,0,0,0,0,0,-1,811,1450,-10.1148,-5.04152
-406,-426,-11.4199,3.6438,0,0,0,0,0,0,0,-1,818,1450,-11.4198,-3.64382
-399,-426,-12.7595,2.29004,0,0,0,0,0,0,0,-1,825,1450,-12.7595,-2.29003
-392,-426,-12.4147,0.537354,0,0,0,0,0,0,0,-1,832,1450,-12.4147,-0.53731
-385,-426,0,0,0,0,0,0,0,0,0,-1,839,1450,0,0
-378,-426,0,0,0,0,0,0,0,0,0,-1,846,1450,0,0
-371,-426,0,0,0,0,0,0,0,0,0,-1,853,1450,0,0
-364,-426,0,0,0,0,0,0,0,0,0,-1,860,1450,0,0
-357,-426,0,0,0,0,0,0,0,0,0,-1,867,1450,0,0
-350,-426,0,0,0,0,0,0,0,0,0,-1,874,1450,0,0
-343,-426,0,0,0,0,0,0,0,0,0,-1,881,1450,0,0
-336,-426,0,0,0,0,0,0,0,0,0,-1,888,1450,0,0
-329,-426,0,0,0,0,0,0,0,0,0,-1,895,1450,0,0
-322,-426,0,0,0,0,0,0,0,0,0,-1,902,1450,0,0
-315,-426,0,0,0,0,0,0,0,0,0,-1,909,1450,0,0
-308,-426,0,0,0,0,0,0,0,0,0,-1,916,1450,0,0
-301,-426,0,0,0,0,0,0,0,0,0,-1,923,1450,0,0
-294,-426,0,0,0,0,0,0,0,0,0,-1,930,1450,0,0
-287,-426,0,0,0,0,0,0,0,0,0,-1,937,1450,0,0
-280,-426,0,0,0,0,0,0,0,0,0,-1,944,1450,0,0
-273,-426,0,0,0,0,0,0,0,0,0,-1,951,1450,0,0
-266,-426,0,0,0,0,0,0,0,0,0,-1,958,1450,0,0
-259,-426,0,0,0,0,0,0,0,0,0,-1,965,1450,0,0
-252,-426,0,0,0,0,0,0,0,0,0,-1,972,1450,0,0
-245,-426,0,0,0,0,0,0,0,0,0,-1,979,1450,0,0
-238,-426,0,0,0,0,0,0,0,0,0,-1,986,1450,0,0
-231,-426,0,0,0,0,0,0,0,0,0,-1,993,1450,0,0
-224,-426,0,0,0,0,0,0,0,0,0,-1,1000,1450,0,0
-217,-426,0,0,0,0,0,0,0,0,0,-1,1007,1450,0,0
-210,-426,0,0,0,0,0,0,0,0,0,-1,1014,1450,0,0
-203,-426,0,0,0,0,0,0,0,0,0,-1,1021,1450,0,0
-196,-426,0,0,0,0,0,0,0,0,0,-1,1028,1450,0,0
-189,-426,0,0,0,0,0,0,0,0,0,-1,1035,1450,0,0
-182,-426,0,0,0,0,0,0,0,0,0,-1,1042,1450,0,0
-175,-426,0,0,0,0,0,0,0,0,0,-1,1049,1450,0,0
-168,-426,0,0,0,0,0,0,0,0,0,-1,1056,1450,0,0
-161,-426,0,0,0,0,0,0,0,0,0,-1,1063,1450,0,0
-154,-426,0,0,0,0,0,0,0,0,0,-1,1070,1450,0,0
-147,-426,0,0,0,0,0,0,0,0,0,-1,1077,1450,0,0
-140,-426,0,0,0,0,0,0,0,0,0,-1,1084,1450,0,0
-133,-426,0,0,0,0,0,0,0,0,0,-1,1091,1450,0,0
-126,-426,0,0,0,0,0,0,0,0,0,-1,1098,1450,0,0
-119,-426,0,0,0,0,0,0,0,0,0,-1,1105,1450,0,0
-112,-426,0,0,0,0,0,0,0,0,0,-1,1112,1450,0,0
-105,-426,0,0,0,0,0,0,0,0,0,-1,1119,1450,0,0
-98,-426,0,0,0,0,0,0,0,0,0,-1,1126,1450,0,0
-91,-426,0,0,0,0,0,0,0,0,0,-1,1133,1450,0,0
-84,-426,0,0,0,0,0,0,0,0,0,-1,1140,1450,0,0
-77,-426,0,0,0,0,0,0,0,0,0,-1,1147,1450,0,0
-70,-426,0,0,0,0,0,0,0,0,0,-1,1154,1450,0,0
-63,-426,0,0,0,0,0,0,0,0,0,-1,1161,1450,0,0
-56,-426,0,0,0,0,0,0,0,0,0,-1,1168,1450,0,0
-49,-426,0,0,0,0,0,0,0,0,0,-1,1175,1450,0,0
-42,-426,0,0,0,0,0,0,0,0,0,-1,1182,1450,0,0
-35,-426,0,0,0,0,0,0,0,0,0,-1,1189,1450,0,0
-28,-426,0,0,0,0,0,0,0,0,0,-1,1196,1450,0,0
-21,-426,0,0,0,0,0,0,0,0,0,-1,1203,1450,0,0
-14,-426,0,0,0,0,0,0,0,0,0,-1,1210,1450,0,0
-7,-426,0,0,0,0,0,0,0,0,0,-1,1217,1450,0,0
0,-426,0,0,0,0,0,0,0,0,0,-1,1224,1450,0,0
7,-426,0,0,0,0,0,0,0,0,0,-1,1231,1450,0,0
14,-426,0,0,0,0,0,0,0,0,0,-1,1238,1450,0,0
21,-426,0,0,0,0,0,0,0,0,0,-1,1245,1450,0,0
28,-426,0,0,0,0,0,0,0,0,0,-1,1252,1450,0,0
35,-426,0,0,0,0,0,0,0,0,0,-1,1259,1450,0,0
42,-426,0,0,0,0,0,0,0,0,0,-1,1266,1450,0,0
49,-426,0,0,0,0,0,0,0,0,0,-1,1273,1450,0,0
56,-426,0,0,0,0,0,0,0,0,0,-1,1280,1450,0,0
63,-426,0,0,0,0,0,0,0,0,0,-1,1287,1450,0,0
70,-426,0,0,0,0,0,0,0,0,0,-1,1294,1450,0,0
77,-426,0,0,0,0,0,0,0,0,0,-1,1301,1450,0,0
84,-426,0,0,0,0,0,0,0,0,0,-1,1308,1450,0,0
91,-426,0,0,0,0,0,0,0,0,0,-1,1315,1450,0,0
98,-426,0,0,0,0,0,0,0,0,0,-1,1322,1450,0,0
105,-426,0,0,0,0,0,0,0,0,0,-1,1329,1450,0,0
112,-426,0,0,0,0,0,0,0,0,0,-1,1336,1450,0,0
119,-426,0,0,0,0,0,0,0,0,0,-1,1343,1450,0,0
126,-426,0,0,0,0,0,0,0,0,0,-1,1350,1450,0,0
133,-426,0,0,0,0,0,0,0,0,0,-1,1357,1450,0,0
140,-426,0,0,0,0,0,0,0,0,0,-1,1364,1450,0,0
147,-426,0,0,0,0,0,0,0,0,0,-1,1371,1450,0,0
154,-426,0,0,0,0,0,0,0,0,0,-1,1378,1450,0,0
161,-426,0,0,0,0,0,0,0,0,0,-1,1385,1450,0,0
168,-426,0,0,0,0,0,0,0,0,0,-1,1392,1450,0,0
175,-426,0,0,0,0,0,0,0,0,0,-1,1399,1450,0,0
182,-426,0,0,0,0,0,0,0,0,0,-1,1406,1450,0,0
189,-426,0,0,0,0,0,0,0,0,0,-1,1413,1450,0,0
196,-426,0,0,0,0,0,0,0,0,0,-1,1420,1450,0,0
203,-426,0,0,0,0,0,0,0,0,0,-1,1427,1450,0,0
210,-426,0,0,0,0,0,0,0,0,0,-1,1434,1450,0,0
217,-426,0,0,0,0,0,0,0,0,0,-1,1441,1450,0,0
224,-426,0,0,0,0,0,0,0,0,0,-1,1448,1450,0,0
231,-426,0,0,0,0,0,0,0,0,0,-1,1455,1450,0,0
238,-426,0,0,0,0,0,0,0,0,0,-1,1462,1450,0,0
245,-426,0,0,0,0,0,0,0,0,0,-1,1469,1450,0,0
252,-426,0,0,0,0,0,0,0,0,0,-1,1476,1450,0,0
259,-426,0,0,0,0,0,0,0,0,0,-1,1483,1450,0,0
266,-426,0,0,0,0,0,0,0,0,0,-1,1490,1450,0,0
273,-426,0,0,0,0,0,0,0,0,0,-1,1497,1450,0,0
280,-426,0,0,0,0,0,0,0,0,0,-1,1504,1450,0,0
287,-426,0,0,0,0,0,0,0,0,0,-1,1511,1450,0,0
294,-426,0,0,0,0,0,0,0,0,0,-1,1518,1450,0,0
301,-426,0,0,0,0,0,0,0,0,0,-1,1525,1450,0,0
308,-426,0,0,0,0,0,0,0,0,0,-1,1532,1450,0,0
315,-426,0,0,0,0,0,0,0,0,0,-1,1539,1450,0,0
322,-426,0,0,0,0,0,0,0,0,0,-1,1546,1450,0,0
329,-426,0,0,0,0,0,0,0,0,0,-1,1553,1450,0,0
336,-426,0,0,0,0,0,0,0,0,0,-1,1560,1450,0,0
343,-426,0,0,0,0,0,0,0,0,0,-1,1567,1450,0,0
350,-426,0,0,0,0,0,0,0,0,0,-1,1574,1450,0,0
357,-426,0,0,0,0,0,0,0,0,0,-1,1581,1450,0,0
364,-426,0,0,0,0,0,0,0,0,0,-1,1588,1450,0,0
371,-426,0,0,0,0,0,0,0,0,0,-1,1595,1450,0,0
378,-426,0,0,0,0,0,0,0,0,0,-1,1602,1450,0,0
385,-426,0,0,0,0,0,0,0,0,0,-1,1609,1450,0,0
392,-426,0,0,0,0,0,0,0,0,0,-1,1616,1450,0,0
399,-426,0,0,0,0,0,0,0,0,0,-1,1623,1450,0,0
406,-426,0,0,0,0,0,0,0,0,0,-1,1630,1450,0,0
413,-426,0,0,0,0,0,0,0,0,0,-1,1637,1450,0,0
420,-426,0,0,0,0,0,0,0,0,0,-1,1644,1450,0,0
427,-426,0,0,0,0,0,0,0,0,0,-1,1651,1450,0,0
434,-426,0,0,0,0,0,0,0,0,0,-1,1658,1450,0,0
441,-426,0,0,0,0,0,0,0,0,0,-1,1665,1450,0,0
448,-426,0,0,0,0,0,0,0,0,0,-1,1672,1450,0,0
455,-426,0,0,0,0,0,0,0,0,0,-1,1679,1450,0,0
462,-426,0,0,0,0,0,0,0,0,0,-1,1686,1450,0,0
469,-426,0,0,0,0,0,0,0,0,0,-1,1693,1450,0,0
476,-426,0,0,0,0,0,0,0,0,0,-1,1700,1450,0,0
483,-426,0,0,0,0,0,0,0,0,0,-1,1707,1450,0,0
490,-426,0,0,0,0,0,0,0,0,0,-1,1714,1450,0,0
497,-426,0,0,0,0,0,0,0,0,0,-1,1721,1450,0,0
504,-426,20.6873,3.38367,0,0,0,0,0,0,0,-1,1728,1450,20.6873,-3.38361
511,-426,19.6676,3.53748,0,0,0,0,0,0,0,-1,1735,1450,19.6676,-3.53749
518,-426,18.6853,3.32288,0,0,0,0,0,0,0,-1,1742,1450,18.6853,-3.3229
525,-426,18.9552,2.71033,0,0,0,0,0,0,0,-1,1749,1450,18.9552,-2.71034
532,-426,19.4333,2.70764,0,0,0,0,0,0,0,-1,1756,1450,19.4334,-2.70764
539,-426,25.1482,2.56287,0,0,0,0,0,0,0,-1,1763,1450,25.1482,-2.56286
546,-426,24.1136,3.75659,0,0,0,0,0,0,0,-1,1770,1450,24.1136,-3.7566
553,-426,23.0791,4.95032,0,0,0,0,0,0,0,-1,1777,1450,23.0791,-4.95034
560,-426,12.9688,11.8289,0,0,0,0,0,0,0,-1,1784,1450,12.9688,-11.8288
567,-426,13.6388,11.5623,0,0,0,0,0,0,0,-1,1791,1450,13.6388,-11.5623
574,-426,14.3943,11.0286,0,0,0,0,0,0,0,-1,1798,1450,14.3942,-11.0285
581,-426,16.3879,11.4653,0,0,0,0,0,0,0,-1,1805,1450,16.3879,-11.4653
588,-426,18.1212,12.5547,0,0,0,0,0,0,0,-1,1812,1450,18.1212,-12.5547
595,-426,30.0474,21.0964,0,0,0,0,0,0,0,-1,1819,1450,30.0474,-21.0965
602,-426,36.7775,26.5448,0,0,0,0,0,0,0,-1,1826,1450,36.7775,-26.5448
609,-426,36.7559,25.7166,0.00293696,0.0012958,-0.00182418,0.00411662,0.00011614,-0.57404,0.00270653,0.0155413,1833,1450,36.7558,-25.7165
616,-426,36.724,24.8846,0.00220712,0.000758044,-0.00118477,0.00287134,9.38268e-05,-0.510967,0.00188373,0.0155093,1840,1450,36.724,-24.8846
623,-426,36.6989,24.0695,0.00176444,0.000403945,-0.000767584,0.00210982,5.85589e-05,-0.422824,0.00138744,0.013709,1847,1450,36.6988,-24.0695
630,-426,36.6937,23.2782,0.00165565,6.08686e-05,-0.000511783,0.00180576,-8.92392e-05,-0.285302,0.00123466,0.0148261,1854,1450,36.6937,-23.2782
637,-426,36.6294,22.4742,0.00174349,-0.000163599,-0.000388176,0.00181948,-0.000239583,-0.193301,0.00130022,0.0142803,1861,1450,36.6294,-22.4742
644,-426,36.5431,21.649,0.00209741,-0.0002707,-0.000476368,0.00218964,-0.000362933,-0.191252,0.00159457,0.0138838,1868,1450,36.5431,-21.649
651,-426,36.4642,20.8413,0.00270288,-0.000257546,-0.000768061,0.00289028,-0.00044495,-0.239321,0.00209101,0.0137572,1875,1450,36.4642,-20.8414
658,-426,36.4315,19.9767,0.00361566,-0.000131136,-0.00125056,0.00399471,-0.000510186,-0.294302,0.00284847,0.0149503,1882,1450,36.4315,-19.9767
665,-426,36.5206,19.1595,0,0,0,0,0,0,0,-1,1889,1450,36.5207,-19.1595
672,-426,36.2397,16.927,0,0,0,0,0,0,0,-1,1896,1450,36.2397,-16.9271
679,-426,17.1522,8.15784,0,0,0,0,0,0,0,-1,1903,1450,17.1522,-8.15784
686,-426,13.5326,8.03711,0,0,0,0,0,0,0,-1,1910,1450,13.5326,-8.03717
693,-426,11.8607,6.45215,0,0,0,0,0,0,0,-1,1917,1450,11.8607,-6.45215
700,-426,9.24304,2.95447,0,0,0,0,0,0,0,-1,1924,1450,9.24305,-2.95442
707,-426,8.44519,-1.21448,0,0,0,0,0,0,0,-1,1931,1450,8.44514,1.21454
714,-426,0,0,0,0,0,0,0,0,0,-1,1938,1450,0,0
721,-426,0,0,0,0,0,0,0,0,0,-1,1945,1450,0,0
728,-426,0,0,0,0,0,0,0,0,0,-1,1952,1450,0,0
735,-426,0,0,0,0,0,0,0,0,0,-1,1959,1450,0,0
742,-426,0,0,0,0,0,0,0,0,0,-1,1966,1450,0,0
749,-426,0,0,0,0,0,0,0,0,0,-1,1973,1450,0,0
756,-426,0,0,0,0,0,0,0,0,0,-1,1980,1450,0,0
763,-426,0,0,0,0,0,0,0,0,0,-1,1987,1450,0,0
770,-426,0,0,0,0,0,0,0,0,0,-1,1994,1450,0,0
777,-426,0,0,0,0,0,0,0,0,0,-1,2001,1450,0,0
784,-426,0,0,0,0,0,0,0,0,0,-1,2008,1450,0,0
791,-426,0,0,0,0,0,0,0,0,0,-1,2015,1450,0,0
798,-426,0,0,0,0,0,0,0,0,0,-1,2022,1450,0,0
805,-426,0,0,0,0,0,0,0,0,0,-1,2029,1450,0,0
812,-426,0,0,0,0,0,0,0,0,0,-1,2036,1450,0,0
-700,-433,0,0,0,0,0,0,0,0,0,-1,524,1457,0,0
-693,-433,0,0,0,0,0,0,0,0,0,-1,531,1457,0,0
-686,-433,0,0,0,0,0,0,0,0,0,-1,538,1457,0,0
-679,-433,0,0,0,0,0,0,0,0,0,-1,545,1457,0,0
-672,-433,0,0,0,0,0,0,0,0,0,-1,552,1457,0,0
-665,-433,0,0,0,0,0,0,0,0,0,-1,559,1457,0,0
-658,-433,0,0,0,0,0,0,0,0,0,-1,566,1457,0,0
-651,-433,0,0,0,0,0,0,0,0,0,-1,573,1457,0,0
-644,-433,0,0,0,0,0,0,0,0,0,-1,580,1457,0,0
-637,-433,0,0,0,0,0,0,0,0,0,-1,587,1457,0,0
-630,-433,0,0,0,0,0,0,0,0,0,-1,594,1457,0,0
-623,-433,0,0,0,0,0,0,0,0,0,-1,601,1457,0,0
-616,-433,0,0,0,0,0,0,0,0,0,-1,608,1457,0,0
-609,-433,0,0,0,0,0,0,0,0,0,-1,615,1457,0,0
-602,-433,0,0,0,0,0,0,0,0,0,-1,622,1457,0,0
-595,-433,0,0,0,0,0,0,0,0,0,-1,629,1457,0,0
-588,-433,-10.3756,-0.467041,0,0,0,0,0,0,0,-1,636,1457,-10.3756,0.467081
-581,-433,-8.12201,0.884033,0,0,0,0,0,0,0,-1,643,1457,-8.12204,-0.884056
-574,-433,-5.86847,2.23523,0,0,0,0,0,0,0,-1,650,1457,-5.86844,-2.23519
-567,-433,-5.42255,1.16833,0,0,0,0,0,0,0,-1,657,1457,-5.42254,-1.1683
-560,-433,-6.84027,1.86414,0,0,0,0,0,0,0,-1,664,1457,-6.84026,-1.86412
-553,-433,-5.74017,1.79163,0,0,0,0,0,0,0,-1,671,1457,-5.74015,-1.79166
-546,-433,-8.12451,7.35095,0,0,0,0,0,0,0,-1,678,1457,-8.12451,-7.35097
-539,-433,-7.3136,8.75659,0,0,0,0,0,0,0,-1,685,1457,-7.31362,-8.75659
-532,-433,-14.5645,14.8475,0,0,0,0,0,0,0,-1,692,1457,-14.5645,-14.8475
-525,-433,-18.688,19.7502,0,0,0,0,0,0,0,-1,699,1457,-18.688,-19.7502
-518,-433,-18.6357,20.7203,0.0042628,0.00427697,0.00433782,0.0086077,-6.79428e-05,0.786215,0.00576125,0.0188146,706,1457,-18.6357,-20.7203
-511,-433,-18.7015,21.5481,0.00340393,0.00331244,0.00342563,0.00678412,-6.77523e-05,0.778722,0.0045455,0.0168598,713,1457,-18.7015,-21.5481
-504,-433,-18.7487,22.3798,0.00264013,0.00250046,0.00259025,0.00516149,-2.09007e-05,0.771921,0.00344798,0.0135003,720,1457,-18.7486,-22.3797
-497,-433,-18.7903,23.2197,0.00200188,0.0018558,0.00186669,0.00379696,6.07275e-05,0.765844,0.00251131,0.0143228,727,1457,-18.7903,-23.2198
-490,-433,-18.8584,24.0494,0.00146214,0.00134885,0.00123892,0.00264571,0.000165284,0.762554,0.00171137,0.0173457,734,1457,-18.8584,-24.0495
-483,-433,-18.8978,24.9071,0.00114698,0.00107065,0.000811949,0.00192166,0.000295969,0.761916,0.00119473,0.0179742,741,1457,-18.8978,-24.9072
-476,-433,-18.9439,25.7764,0.000999555,0.00101018,0.000588042,0.00159293,0.000416799,0.789913,0.000953874,0.0116932,748,1457,-18.9439,-25.7764
-469,-433,-18.9945,26.6211,0.00101991,0.00114974,0.000510498,0.00159943,0.000570215,0.848639,0.000936022,0.0113227,755,1457,-18.9945,-26.6211
-462,-433,-19.058,27.4554,0,0,0,0,0,0,0,-1,762,1457,-19.058,-27.4554
-455,-433,-13.8576,22.7446,0,0,0,0,0,0,0,-1,769,1457,-13.8576,-22.7446
-448,-433,-6.94812,14.5563,0,0,0,0,0,0,0,-1,776,1457,-6.94809,-14.5562
-441,-433,-9.97485,14.0258,0,0,0,0,0,0,0,-1,783,1457,-9.97488,-14.0257
-434,-433,-9.41205,14.2297,0,0,0,0,0,0,0,-1,790,1457,-9.41205,-14.2297
-427,-433,-8.67419,13.6827,0,0,0,0,0,0,0,-1,797,1457,-8.67422,-13.6827
-420,-433,-5.74658,9.49121,0,0,0,0,0,0,0,-1,804,1457,-5.7466,-9.49119
-413,-433,-3.63074,5.5813,0,0,0,0,0,0,0,-1,811,1457,-3.63072,-5.58129
-406,-433,-12.3472,4.69373,0,0,0,0,0,0,0,-1,818,1457,-12.3472,-4.69374
-399,-433,-12.055,2.83594,0,0,0,0,0,0,0,-1,825,1457,-12.055,-2.83594
-392,-433,-12.9772,1.6228,0,0,0,0,0,0,0,-1,832,1457,-12.9772,-1.62282
-385,-433,-13.7999,0.514771,0,0,0,0,0,0,0,-1,839,1457,-13.7999,-0.514788
-378,-433,0,0,0,0,0,0,0,0,0,-1,846,1457,0,0
-371,-433,0,0,0,0,0,0,0,0,0,-1,853,1457,0,0
-364,-433,0,0,0,0,0,0,0,0,0,-1,860,1457,0,0
-357,-433,0,0,0,0,0,0,0,0,0,-1,867,1457,0,0
-350,-433,0,0,0,0,0,0,0,0,0,-1,874,1457,0,0
-343,-433,0,0,0,0,0,0,0,0,0,-1,881,1457,0,0
-336,-433,0,0,0,0,0,0,0,0,0,-1,888,1457,0,0
-329,-433,0,0,0,0,0,0,0,0,0,-1,895,1457,0,0
-322,-433,0,0,0,0,0,0,0,0,0,-1,902,1457,0,0
-315,-433,0,0,0,0,0,0,0,0,0,-1,909,1457,0,0
-308,-433,0,0,0,0,0,0,0,0,0,-1,916,1457,0,0
-301,-433,0,0,0,0,0,0,0,0,0,-1,923,1457,0,0
-294,-433,0,0,0,0,0,0,0,0,0,-1,930,1457,0,0
-287,-433,0,0,0,0,0,0,0,0,0,-1,937,1457,0,0
-280,-433,0,0,0,0,0,0,0,0,0,-1,944,1457,0,0
-273,-433,0,0,0,0,0,0,0,0,0,-1,951,1457,0,0
-266,-433,0,0,0,0,0,0,0,0,0,-1,958,1457,0,0
-259,-433,0,0,0,0,0,0,0,0,0,-1,965,1457,0,0
-252,-433,0,0,0,0,0,0,0,0,0,-1,972,1457,0,0
-245,-433,0,0,0,0,0,0,0,0,0,-1,979,1457,0,0
-238,-433,0,0,0,0,0,0,0,0,0,-1,986,1457,0,0
-231,-433,0,0,0,0,0,0,0,0,0,-1,993,1457,0,0
-224,-433,0,0,0,0,0,0,0,0,0,-1,1000,1457,0,0
-217,-433,0,0,0,0,0,0,0,0,0,-1,1007,1457,0,0
-210,-433,0,0,0,0,0,0,0,0,0,-1,1014,1457,0,0
-203,-433,0,0,0,0,0,0,0,0,0,-1,1021,1457,0,0
-196,-433,0,0,0,0,0,0,0,0,0,-1,1028,1457,0,0
-189,-433,0,0,0,0,0,0,0,0,0,-1,1035,1457,0,0
-182,-433,0,0,0,0,0,0,0,0,0,-1,1042,1457,0,0
-175,-433,0,0,0,0,0,0,0,0,0,-1,1049,1457,0,0
-168,-433,0,0,0,0,0,0,0,0,0,-1,1056,1457,0,0
-161,-433,0,0,0,0,0,0,0,0,0,-1,1063,1457,0,0
-154,-433,0,0,0,0,0,0,0,0,0,-1,1070,1457,0,0
-147,-433,0,0,0,0,0,0,0,0,0,-1,1077,1457,0,0
-140,-433,0,0,0,0,0,0,0,0,0,-1,1084,1457,0,0
-133,-433,0,0,0,0,0,0,0,0,0,-1,1091,1457,0,0
-126,-433,0,0,0,0,0,0,0,0,0,-1,1098,1457,0,0
-119,-433,0,0,0,0,0,0,0,0,0,-1,1105,1457,0,0
-112,-433,0,0,0,0,0,0,0,0,0,-1,1112,1457,0,0
-105,-433,0,0,0,0,0,0,0,0,0,-1,1119,1457,0,0
-98,-433,0,0,0,0,0,0,0,0,0,-1,1126,1457,0,0
-91,-433,0,0,0,0,0,0,0,0,0,-1,1133,1457,0,0
-84,-433,0,0,0,0,0,0,0,0,0,-1,1140,1457,0,0
-77,-433,0,0,0,0,0,0,0,0,0,-1,1147,1457,0,0
-70,-433,0,0,0,0,0,0,0,0,0,-1,1154,1457,0,0
-63,-433,0,0,0,0,0,0,0,0,0,-1,1161,1457,0,0
-56,-433,0,0,0,0,0,0,0,0,0,-1,1168,1457,0,0
-49,-433,0,0,0,0,0,0,0,0,0,-1,1175,1457,0,0
-42,-433,0,0,0,0,0,0,0,0,0,-1,1182,1457,0,0
-35,-433,0,0,0,0,0,0,0,0,0,-1,1189,1457,0,0
-28,-433,0,0,0,0,0,0,0,0,0,-1,1196,1457,0,0
-21,-433,0,0,0,0,0,0,0,0,0,-1,1203,1457,0,0
-14,-433,0,0,0,0,0,0,0,0,0,-1,1210,1457,0,0
-7,-433,0,0,0,0,0,0,0,0,0,-1,1217,1457,0,0
0,-433,0,0,0,0,0,0,0,0,0,-1,1224,1457,0,0
7,-433,0,0,0,0,0,0,0,0,0,-1,1231,1457,0,0
14,-433,0,0,0,0,0,0,0,0,0,-1,1238,1457,0,0
21,-433,0,0,0,0,0,0,0,0,0,-1,1245,1457,0,0
28,-433,0,0,0,0,0,0,0,0,0,-1,1252,1457,0,0
35,-433,0,0,0,0,0,0,0,0,0,-1,1259,1457,0,0
42,-433,0,0,0,0,0,0,0,0,0,-1,1266,1457,0,0
49,-433,0,0,0,0,0,0,0,0,0,-1,1273,1457,0,0
56,-433,0,0,0,0,0,0,0,0,0,-1,1280,1457,0,0
63,-433,0,0,0,0,0,0,0,0,0,-1,1287,1457,0,0
70,-433,0,0,0,0,0,0,0,0,0,-1,1294,1457,0,0
77,-433,0,0,0,0,0,0,0,0,0,-1,1301,1457,0,0
84,-433,0,0,0,0,0,0,0,0,0,-1,1308,1457,0,0
91,-433,0,0,0,0,0,0,0,0,0,-1,1315,1457,0,0
98,-433,0,0,0,0,0,0,0,0,0,-1,1322,1457,0,0
105,-433,0,0,0,0,0,0,0,0,0,-1,1329,1457,0,0
112,-433,0,0,0,0,0,0,0,0,0,-1,1336,1457,0,0
119,-433,0,0,0,0,0,0,0,0,0,-1,1343,1457,0,0
126,-433,0,0,0,0,0,0,0,0,0,-1,1350,1457,0,0
133,-433,0,0,0,0,0,0,0,0,0,-1,1357,1457,0,0
140,-433,0,0,0,0,0,0,0,0,0,-1,1364,1457,0,0
147,-433,0,0,0,0,0,0,0,0,0,-1,1371,1457,0,0
154,-433,0,0,0,0,0,0,0,0,0,-1,1378,1457,0,0
161,-433,0,0,0,0,0,0,0,0,0,-1,1385,1457,0,0
168,-433,0,0,0,0,0,0,0,0,0,-1,1392,1457,0,0
175,-433,0,0,0,0,0,0,0,0,0,-1,1399,1457,0,0
182,-433,0,0,0,0,0,0,0,0,0,-1,1406,1457,0,0
189,-433,0,0,0,0,0,0,0,0,0,-1,1413,1457,0,0
196,-433,0,0,0,0,0,0,0,0,0,-1,1420,1457,0,0
203,-433,0,0,0,0,0,0,0,0,0,-1,1427,1457,0,0
210,-433,0,0,0,0,0,0,0,0,0,-1,1434,1457,0,0
217,-433,0,0,0,0,0,0,0,0,0,-1,1441,1457,0,0
224,-433,0,0,0,0,0,0,0,0,0,-1,1448,1457,0,0
231,-433,0,0,0,0,0,0,0,0,0,-1,1455,1457,0,0
238,-433,0,0,0,0,0,0,0,0,0,-1,1462,1457,0,0
245,-433,0,0,0,0,0,0,0,0,0,-1,1469,1457,0,0
252,-433,0,0,0,0,0,0,0,0,0,-1,1476,1457,0,0
259,-433,0,0,0,0,0,0,0,0,0,-1,1483,1457,0,0
266,-433,0,0,0,0,0,0,0,0,0,-1,1490,1457,0,0
273,-433,0,0,0,0,0,0,0,0,0,-1,1497,1457,0,0
280,-433,0,0,0,0,0,0,0,0,0,-1,1504,1457,0,0
287,-433,0,0,0,0,0,0,0,0,0,-1,1511,1457,0,0
294,-433,0,0,0,0,0,0,0,0,0,-1,1518,1457,0,0
301,-433,0,0,0,0,0,0,0,0,0,-1,1525,1457,0,0
308,-433,0,0,0,0,0,0,0,0,0,-1,1532,1457,0,0
315,-433,0,0,0,0,0,0,0,0,0,-1,1539,1457,0,0
322,-433,0,0,0,0,0,0,0,0,0,-1,1546,1457,0,0
329,-433,0,0,0,0,0,0,0,0,0,-1,1553,1457,0,0
336,-433,0,0,0,0,0,0,0,0,0,-1,1560,1457,0,0
343,-433,0,0,0,0,0,0,0,0,0,-1,1567,1457,0,0
350,-433,0,0,0,0,0,0,0,0,0,-1,1574,1457,0,0
357,-433,0,0,0,0,0,0,0,0,0,-1,1581,1457,0,0
364,-433,0,0,0,0,0,0,0,0,0,-1,1588,1457,0,0
371,-433,0,0,0,0,0,0,0,0,0,-1,1595,1457,0,0
378,-433,0,0,0,0,0,0,0,0,0,-1,1602,1457,0,0
385,-433,0,0,0,0,0,0,0,0,0,-1,1609,1457,0,0
392,-433,0,0,0,0,0,0,0,0,0,-1,1616,1457,0,0
399,-433,0,0,0,0,0,0,0,0,0,-1,1623,1457,0,0
406,-433,0,0,0,0,0,0,0,0,0,-1,1630,1457,0,0
413,-433,0,0,0,0,0,0,0,0,0,-1,1637,1457,0,0
420,-433,0,0,0,0,0,0,0,0,0,-1,1644,1457,0,0
427,-433,0,0,0,0,0,0,0,0,0,-1,1651,1457,0,0
434,-433,0,0,0,0,0,0,0,0,0,-1,1658,1457,0,0
441,-433,0,0,0,0,0,0,0,0,0,-1,1665,1457,0,0
448,-433,0,0,0,0,0,0,0,0,0,-1,1672,1457,0,0
455,-433,0,0,0,0,0,0,0,0,0,-1,1679,1457,0,0
462,-433,0,0,0,0,0,0,0,0,0,-1,1686,1457,0,0
469,-433,0,0,0,0,0,0,0,0,0,-1,1693,1457,0,0
476,-433,0,0,0,0,0,0,0,0,0,-1,1700,1457,0,0
483,-433,0,0,0,0,0,0,0,0,0,-1,1707,1457,0,0
490,-433,0,0,0,0,0,0,0,0,0,-1,1714,1457,0,0
497,-433,0,0,0,0,0,0,0,0,0,-1,1721,1457,0,0
504,-433,19.9058,3.03662,0,0,0,0,0,0,0,-1,1728,1457,19.9058,-3.03656
511,-433,19.0145,3.07837,0,0,0,0,0,0,0,-1,1735,1457,19.0146,-3.07834
518,-433,18.071,3.06433,0,0,0,0,0,0,0,-1,1742,1457,18.071,-3.06432
525,-433,17.2048,3.37085,0,0,0,0,0,0,0,-1,1749,1457,17.2049,-3.37083
532,-433,16.5637,3.36646,0,0,0,0,0,0,0,-1,1756,1457,16.5637,-3.36643
539,-433,15.9193,3.30396,0,0,0,0,0,0,0,-1,1763,1457,15.9193,-3.30394
546,-433,23.1903,4.81775,0,0,0,0,0,0,0,-1,1770,1457,23.1903,-4.81775
553,-433,13.9674,11.5781,0,0,0,0,0,0,0,-1,1777,1457,13.9674,-11.5781
560,-433,13.9855,11.7341,0,0,0,0,0,0,0,-1,1784,1457,13.9855,-11.7341
567,-433,13.9264,11.3364,0,0,0,0,0,0,0,-1,1791,1457,13.9263,-11.3364
574,-433,15.5305,12.3673,0,0,0,0,0,0,0,-1,1798,1457,15.5305,-12.3673
581,-433,16.6405,12.1898,0,0,0,0,0,0,0,-1,1805,1457,16.6405,-12.1898
588,-433,26.4386,19.7478,0,0,0,0,0,0,0,-1,1812,1457,26.4386,-19.7478
595,-433,35.7866,27.474,0,0,0,0,0,0,0,-1,1819,1457,35.7866,-27.474
602,-433,35.9771,26.5725,0.00386632,0.00176649,-0.00243599,0.00546902,0.000163789,-0.581927,0.00359266,0.0307004,1826,1457,35.9771,-26.5726
609,-433,35.9717,25.6945,0.00299001,0.00115917,-0.00170946,0.00401373,0.00013545,-0.539576,0.00263183,0.0184393,1833,1457,35.9717,-25.6945
616,-433,35.9448,24.9265,0.00227554,0.000630701,-0.00107381,0.00280569,0.000100549,-0.458603,0.00183786,0.0151052,1840,1457,35.9449,-24.9265
623,-433,35.8928,24.1304,0.00187006,0.000301474,-0.00064979,0.00210427,6.72671e-05,-0.34594,0.00138097,0.0120852,1847,1457,35.8929,-24.1304
630,-433,35.865,23.3202,0.00179426,-4.85361e-05,-0.000364088,0.00186359,-0.000117862,-0.188158,0.00128349,0.0162371,1854,1457,35.865,-23.3202
637,-433,35.8088,22.5159,0.00188173,-0.000285701,-0.000189617,0.0018982,-0.000302165,-0.0866079,0.00137728,0.017055,1861,1457,35.8089,-22.5159
644,-433,35.7343,21.7242,0.00220193,-0.000393407,-0.000213237,0.00221933,-0.000410811,-0.0814339,0.0016338,0.0174919,1868,1457,35.7343,-21.7242
651,-433,35.6854,20.8585,0.00280704,-0.000375963,-0.000477572,0.00287715,-0.000446073,-0.145763,0.00208277,0.0138013,1875,1457,35.6855,-20.8585
658,-433,35.5669,19.9912,0.00373872,-0.0002209,-0.000925137,0.00394421,-0.000426388,-0.218568,0.00278251,0.047864,1882,1457,35.5669,-19.9912
665,-433,35.6675,18.828,0,0,0,0,0,0,0,-1,1889,1457,35.6675,-18.828
672,-433,18.115,8.7207,0,0,0,0,0,0,0,-1,1896,1457,18.115,-8.72074
679,-433,17.2969,9.6355,0,0,0,0,0,0,0,-1,1903,1457,17.2968,-9.63548
686,-433,13.6356,8.61694,0,0,0,0,0,0,0,-1,1910,1457,13.6356,-8.61694
693,-433,13.4081,8.39624,0,0,0,0,0,0,0,-1,1917,1457,13.4081,-8.39624
700,-433,7.16809,-1.5166,0,0,0,0,0,0,0,-1,1924,1457,7.16806,1.51656
707,-433,8.68359,-2.82202,0,0,0,0,0,0,0,-1,1931,1457,8.68359,2.82197
714,-433,0,0,0,0,0,0,0,0,0,-1,1938,1457,0,0
721,-433,0,0,0,0,0,0,0,0,0,-1,1945,1457,0,0
728,-433,0,0,0,0,0,0,0,0,0,-1,1952,1457,0,0
735,-433,0,0,0,0,0,0,0,0,0,-1,1959,1457,0,0
742,-433,0,0,0,0,0,0,0,0,0,-1,1966,1457,0,0
749,-433,0,0,0,0,0,0,0,0,0,-1,1973,1457,0,0
756,-433,0,0,0,0,0,0,0,0,0,-1,1980,1457,0,0
763,-433,0,0,0,0,0,0,0,0,0,-1,1987,1457,0,0
770,-433,0,0,0,0,0,0,0,0,0,-1,1994,1457,0,0
777,-433,0,0,0,0,0,0,0,0,0,-1,2001,1457,0,0
784,-433,0,0,0,0,0,0,0,0,0,-1,2008,1457,0,0
791,-433,0,0,0,0,0,0,0,0,0,-1,2015,1457,0,0
798,-433,0,0,0,0,0,0,0,0,0,-1,2022,1457,0,0
805,-433,0,0,0,0,0,0,0,0,0,-1,2029,1457,0,0
812,-433,0,0,0,0,0,0,0,0,0,-1,2036,1457,0,0
-700,-440,0,0,0,0,0,0,0,0,0,-1,524,1464,0,0
-693,-440,0,0,0,0,0,0,0,0,0,-1,531,1464,0,0
-686,-440,0,0,0,0,0,0,0,0,0,-1,538,1464,0,0
-679,-440,0,0,0,0,0,0,0,0,0,-1,545,1464,0,0
-672,-440,0,0,0,0,0,0,0,0,0,-1,552,1464,0,0
-665,-440,0,0,0,0,0,0,0,0,0,-1,559,1464,0,0
-658,-440,0,0,0,0,0,0,0,0,0,-1,566,1464,0,0
-651,-440,0,0,0,0,0,0,0,0,0,-1,573,1464,0,0
-644,-440,0,0,0,0,0,0,0,0,0,-1,580,1464,0,0
-637,-440,0,0,0,0,0,0,0,0,0,-1,587,1464,0,0
-630,-440,0,0,0,0,0,0,0,0,0,-1,594,1464,0,0
-623,-440,0,0,0,0,0,0,0,0,0,-1,601,1464,0,0
-616,-440,0,0,0,0,0,0,0,0,0,-1,608,1464,0,0
-609,-440,0,0,0,0,0,0,0,0,0,-1,615,1464,0,0
-602,-440,0,0,0,0,0,0,0,0,0,-1,622,1464,0,0
-595,-440,0,0,0,0,0,0,0,0,0,-1,629,1464,0,0
-588,-440,0,0,0,0,0,0,0,0,0,-1,636,1464,0,0
-581,-440,-8.97278,0.254517,0,0,0,0,0,0,0,-1,643,1464,-8.97276,-0.254526
-574,-440,-7.00818,-0.918579,0,0,0,0,0,0,0,-1,650,1464,-7.00817,0.918538
-567,-440,-6.12152,-0.0766602,0,0,0,0,0,0,0,-1,657,1464,-6.12151,0.0767097
-560,-440,-5.46747,0.82251,0,0,0,0,0,0,0,-1,664,1464,-5.46748,-0.822551
-553,-440,-6.84729,0.0831299,0,0,0,0,0,0,0,-1,671,1464,-6.84732,-0.083136
-546,-440,-5.63446,-0.153198,0,0,0,0,0,0,0,-1,678,1464,-5.63447,0.153147
-539,-440,-6.80017,8.58252,0,0,0,0,0,0,0,-1,685,1464,-6.80015,-8.58257
-532,-440,-9.69647,11.3262,0,0,0,0,0,0,0,-1,692,1464,-9.69649,-11.3262
-525,-440,-17.944,19.7112,0,0,0,0,0,0,0,-1,699,1464,-17.944,-19.7111
-518,-440,-17.8705,20.6566,0.00529988,0.00549635,0.00575341,0.0111524,-0.000356134,0.793935,0.00755642,0.0346948,706,1464,-17.8705,-20.6566
-511,-440,-17.8497,21.6104,0.00427459,0.00433252,0.00459879,0.00890244,-0.000295322,0.788548,0.00603581,0.0172564,713,1464,-17.8497,-21.6103
-504,-440,-17.8948,22.4706,0.00333102,0.0033192,0.0035263,0.00685141,-0.000201197,0.78456,0.00463613,0.0197824,720,1464,-17.8949,-22.4706
-497,-440,-17.955,23.2622,0.00250867,0.00247109,0.00258232,0.00507227,-9.25045e-05,0.781761,0.00341276,0.0218164,727,1464,-17.955,-23.2622
-490,-440,-18.0106,24.0048,0.00179747,0.00177827,0.00175311,0.003541,3.47375e-05,0.782661,0.00234918,0.0236679,734,1464,-18.0106,-24.0048
-483,-440,-18.0533,24.9315,0.00132246,0.00130613,0.00114105,0.00245538,0.000173213,0.781822,0.00158234,0.0215033,741,1464,-18.0533,-24.9315
-476,-440,-18.1124,25.7964,0.00103186,0.0010779,0.000767241,0.00182247,0.000287295,0.800397,0.00113144,0.0141554,748,1464,-18.1124,-25.7963
-469,-440,-18.1696,26.6469,0.000897944,0.00108299,0.000572303,0.0015702,0.000410733,0.865538,0.000940283,0.0132146,755,1464,-18.1696,-26.6469
-462,-440,-18.2571,27.4584,0.00102672,0.00139129,0.000674924,0.00190811,0.000509898,0.917294,0.00114075,0.0191685,762,1464,-18.2572,-27.4583
-455,-440,-18.2228,28.3236,0,0,0,0,0,0,0,-1,769,1464,-18.2229,-28.3235
-448,-440,-12.8837,23.5623,0,0,0,0,0,0,0,-1,776,1464,-12.8837,-23.5623
-441,-440,-7.28583,14.7465,0,0,0,0,0,0,0,-1,783,1464,-7.28584,-14.7464
-434,-440,-8.33636,14.5024,0,0,0,0,0,0,0,-1,790,1464,-8.33638,-14.5025
-427,-440,-8.28094,14.2512,0,0,0,0,0,0,0,-1,797,1464,-8.28094,-14.2512
-420,-440,-6.86603,8.09216,0,0,0,0,0,0,0,-1,804,1464,-6.86602,-8.09222
-413,-440,-3.46796,5.72278,0,0,0,0,0,0,0,-1,811,1464,-3.46797,-5.72276
-406,-440,-5.2887,5.20264,0,0,0,0,0,0,0,-1,818,1464,-5.2887,-5.20261
-399,-440,-12.7318,3.94421,0,0,0,0,0,0,0,-1,825,1464,-12.7318,-3.94419
-392,-440,-13.5565,2.51855,0,0,0,0,0,0,0,-1,832,1464,-13.5565,-2.51861
-385,-440,-14.6741,1.39795,0,0,0,0,0,0,0,-1,839,1464,-14.6741,-1.39801
-378,-440,-15.8063,0.293457,0,0,0,0,0,0,0,-1,846,1464,-15.8063,-0.293412
-371,-440,0,0,0,0,0,0,0,0,0,-1,853,1464,0,0
-364,-440,0,0,0,0,0,0,0,0,0,-1,860,1464,0,0
-357,-440,0,0,0,0,0,0,0,0,0,-1,867,1464,0,0
-350,-440,0,0,0,0,0,0,0,0,0,-1,874,1464,0,0
-343,-440,0,0,0,0,0,0,0,0,0,-1,881,1464,0,0
-336,-440,0,0,0,0,0,0,0,0,0,-1,888,1464,0,0
-329,-440,0,0,0,0,0,0,0,0,0,-1,895,1464,0,0
-322,-440,0,0,0,0,0,0,0,0,0,-1,902,1464,0,0
-315,-440,0,0,0,0,0,0,0,0,0,-1,909,1464,0,0
-308,-440,0,0,0,0,0,0,0,0,0,-1,916,1464,0,0
-301,-440,0,0,0,0,0,0,0,0,0,-1,923,1464,0,0
-294,-440,0,0,0,0,0,0,0,0,0,-1,930,1464,0,0
-287,-440,0,0,0,0,0,0,0,0,0,-1,937,1464,0,0
-280,-440,0,0,0,0,0,0,0,0,0,-1,944,1464,0,0
-273,-440,0,0,0,0,0,0,0,0,0,-1,951,1464,0,0
-266,-440,0,0,0,0,0,0,0,0,0,-1,958,1464,0,0
-259,-440,0,0,0,0,0,0,0,0,0,-1,965,1464,0,0
-252,-440,0,0,0,0,0,0,0,0,0,-1,972,1464,0,0
-245,-440,0,0,0,0,0,0,0,0,0,-1,979,1464,0,0
-238,-440,0,0,0,0,0,0,0,0,0,-1,986,1464,0,0
-231,-440,0,0,0,0,0,0,0,0,0,-1,993,1464,0,0
-224,-440,0,0,0,0,0,0,0,0,0,-1,1000,1464,0,0
-217,-440,0,0,0,0,0,0,0,0,0,-1,1007,1464,0,0
-210,-440,0,0,0,0,0,0,0,0,0,-1,1014,1464,0,0
-203,-440,0,0,0,0,0,0,0,0,0,-1,1021,1464,0,0
-196,-440,0,0,0,0,0,0,0,0,0,-1,1028,1464,0,0
-189,-440,0,0,0,0,0,0,0,0,0,-1,1035,1464,0,0
-182,-440,0,0,0,0,0,0,0,0,0,-1,1042,1464,0,0
-175,-440,0,0,0,0,0,0,0,0,0,-1,1049,1464,0,0
-168,-440,0,0,0,0,0,0,0,0,0,-1,1056,1464,0,0
-161,-440,0,0,0,0,0,0,0,0,0,-1,1063,1464,0,0
-154,-440,0,0,0,0,0,0,0,0,0,-1,1070,1464,0,0
-147,-440,0,0,0,0,0,0,0,0,0,-1,1077,1464,0,0
-140,-440,0,0,0,0,0,0,0,0,0,-1,1084,1464,0,0
-133,-440,0,0,0,0,0,0,0,0,0,-1,1091,1464,0,0
-126,-440,0,0,0,0,0,0,0,0,0,-1,1098,1464,0,0
-119,-440,0,0,0,0,0,0,0,0,0,-1,1105,1464,0,0
-112,-440,0,0,0,0,0,0,0,0,0,-1,1112,1464,0,0
-105,-440,0,0,0,0,0,0,0,0,0,-1,1119,1464,0,0
-98,-440,0,0,0,0,0,0,0,0,0,-1,1126,1464,0,0
-91,-440,0,0,0,0,0,0,0,0,0,-1,1133,1464,0,0
-84,-440,0,0,0,0,0,0,0,0,0,-1,1140,1464,0,0
-77,-440,0,0,0,0,0,0,0,0,0,-1,1147,1464,0,0
-70,-440,0,0,0,0,0,0,0,0,0,-1,1154,1464,0,0
-63,-440,0,0,0,0,0,0,0,0,0,-1,1161,1464,0,0
-56,-440,0,0,0,0,0,0,0,0,0,-1,1168,1464,0,0
-49,-440,0,0,0,0,0,0,0,0,0,-1,1175,1464,0,0
-42,-440,0,0,0,0,0,0,0,0,0,-1,1182,1464,0,0
-35,-440,0,0,0,0,0,0,0,0,0,-1,1189,1464,0,0
-28,-440,0,0,0,0,0,0,0,0,0,-1,1196,1464,0,0
-21,-440,0,0,0,0,0,0,0,0,0,-1,1203,1464,0,0
-14,-440,0,0,0,0,0,0,0,0,0,-1,1210,1464,0,0
-7,-440,0,0,0,0,0,0,0,0,0,-1,1217,1464,0,0
0,-440,0,0,0,0,0,0,0,0,0,-1,1224,1464,0,0
7,-440,0,0,0,0,0,0,0,0,0,-1,1231,1464,0,0
14,-440,0,0,0,0,0,0,0,0,0,-1,1238,1464,0,0
21,-440,0,0,0,0,0,0,0,0,0,-1,1245,1464,0,0
28,-440,0,0,0,0,0,0,0,0,0,-1,1252,1464,0,0
35,-440,0,0,0,0,0,0,0,0,0,-1,1259,1464,0,0
42,-440,0,0,0,0,0,0,0,0,0,-1,1266,1464,0,0
49,-440,0,0,0,0,0,0,0,0,0,-1,1273,1464,0,0
56,-440,0,0,0,0,0,0,0,0,0,-1,1280,1464,0,0
63,-440,0,0,0,0,0,0,0,0,0,-1,1287,1464,0,0
70,-440,0,0,0,0,0,0,0,0,0,-1,1294,1464,0,0
77,-440,0,0,0,0,0,0,0,0,0,-1,1301,1464,0,0
84,-440,0,0,0,0,0,0,0,0,0,-1,1308,1464,0,0
91,-440,0,0,0,0,0,0,0,0,0,-1,1315,1464,0,0
98,-440,0,0,0,0,0,0,0,0,0,-1,1322,1464,0,0
105,-440,0,0,0,0,0,0,0,0,0,-1,1329,1464,0,0
112,-440,0,0,0,0,0,0,0,0,0,-1,1336,1464,0,0
119,-440,0,0,0,0,0,0,0,0,0,-1,1343,1464,0,0
126,-440,0,0,0,0,0,0,0,0,0,-1,1350,1464,0,0
133,-440,0,0,0,0,0,0,0,0,0,-1,1357,1464,0,0
140,-440,0,0,0,0,0,0,0,0,0,-1,1364,1464,0,0
147,-440,0,0,0,0,0,0,0,0,0,-1,1371,1464,0,0
154,-440,0,0,0,0,0,0,0,0,0,-1,1378,1464,0,0
161,-440,0,0,0,0,0,0,0,0,0,-1,1385,1464,0,0
168,-440,0,0,0,0,0,0,0,0,0,-1,1392,1464,0,0
175,-440,0,0,0,0,0,0,0,0,0,-1,1399,1464,0,0
182,-440,0,0,0,0,0,0,0,0,0,-1,1406,1464,0,0
189,-440,0,0,0,0,0,0,0,0,0,-1,1413,1464,0,0
196,-440,0,0,0,0,0,0,0,0,0,-1,1420,1464,0,0
203,-440,0,0,0,0,0,0,0,0,0,-1,1427,1464,0,0
210,-440,0,0,0,0,0,0,0,0,0,-1,1434,1464,0,0
217,-440,0,0,0,0,0,0,0,0,0,-1,1441,1464,0,0
224,-440,0,0,0,0,0,0,0,0,0,-1,1448,1464,0,0
231,-440,0,0,0,0,0,0,0,0,0,-1,1455,1464,0,0
238,-440,0,0,0,0,0,0,0,0,0,-1,1462,1464,0,0
245,-440,0,0,0,0,0,0,0,0,0,-1,1469,1464,0,0
252,-440,0,0,0,0,0,0,0,0,0,-1,1476,1464,0,0
259,-440,0,0,0,0,0,0,0,0,0,-1,1483,1464,0,0
266,-440,0,0,0,0,0,0,0,0,0,-1,1490,1464,0,0
273,-440,0,0,0,0,0,0,0,0,0,-1,1497,1464,0,0
280,-440,0,0,0,0,0,0,0,0,0,-1,1504,1464,0,0
287,-440,0,0,0,0,0,0,0,0,0,-1,1511,1464,0,0
294,-440,0,0,0,0,0,0,0,0,0,-1,1518,1464,0,0
301,-440,0,0,0,0,0,0,0,0,0,-1,1525,1464,0,0
308,-440,0,0,0,0,0,0,0,0,0,-1,1532,1464,0,0
315,-440,0,0,0,0,0,0,0,0,0,-1,1539,1464,0,0
322,-440,0,0,0,0,0,0,0,0,0,-1,1546,1464,0,0
329,-440,0,0,0,0,0,0,0,0,0,-1,1553,1464,0,0
336,-440,0,0,0,0,0,0,0,0,0,-1,1560,1464,0,0
343,-440,0,0,0,0,0,0,0,0,0,-1,1567,1464,0,0
350,-440,0,0,0,0,0,0,0,0,0,-1,1574,1464,0,0
357,-440,0,0,0,0,0,0,0,0,0,-1,1581,1464,0,0
364,-440,0,0,0,0,0,0,0,0,0,-1,1588,1464,0,0
371,-440,0,0,0,0,0,0,0,0,0,-1,1595,1464,0,0
378,-440,0,0,0,0,0,0,0,0,0,-1,1602,1464,0,0
385,-440,0,0,0,0,0,0,0,0,0,-1,1609,1464,0,0
392,-440,0,0,0,0,0,0,0,0,0,-1,1616,1464,0,0
399,-440,0,0,0,0,0,0,0,0,0,-1,1623,1464,0,0
406,-440,0,0,0,0,0,0,0,0,0,-1,1630,1464,0,0
413,-440,0,0,0,0,0,0,0,0,0,-1,1637,1464,0,0
420,-440,0,0,0,0,0,0,0,0,0,-1,1644,1464,0,0
427,-440,0,0,0,0,0,0,0,0,0,-1,1651,1464,0,0
434,-440,0,0,0,0,0,0,0,0,0,-1,1658,1464,0,0
441,-440,0,0,0,0,0,0,0,0,0,-1,1665,1464,0,0
448,-440,0,0,0,0,0,0,0,0,0,-1,1672,1464,0,0
455,-440,0,0,0,0,0,0,0,0,0,-1,1679,1464,0,0
462,-440,0,0,0,0,0,0,0,0,0,-1,1686,1464,0,0
469,-440,0,0,0,0,0,0,0,0,0,-1,1693,1464,0,0
476,-440,0,0,0,0,0,0,0,0,0,-1,1700,1464,0,0
483,-440,0,0,0,0,0,0,0,0,0,-1,1707,1464,0,0
490,-440,0,0,0,0,0,0,0,0,0,-1,1714,1464,0,0
497,-440,16.965,-0.528442,0,0,0,0,0,0,0,-1,1721,1464,16.965,0.528492
504,-440,15.8052,0.670166,0,0,0,0,0,0,0,-1,1728,1464,15.8052,-0.670145
511,-440,17.5754,2.77832,0,0,0,0,0,0,0,-1,1735,1464,17.5754,-2.77826
518,-440,16.9017,3.07861,0,0,0,0,0,0,0,-1,1742,1464,16.9018,-3.07859
525,-440,18.4495,12.0867,0,0,0,0,0,0,0,-1,1749,1464,18.4495,-12.0867
532,-440,15.4319,3.64392,0,0,0,0,0,0,0,-1,1756,1464,15.4318,-3.64391
539,-440,14.8214,3.41321,0,0,0,0,0,0,0,-1,1763,1464,14.8214,-3.4132
546,-440,14.8651,10.7683,0,0,0,0,0,0,0,-1,1770,1464,14.8651,-10.7683
553,-440,15.1213,11.4121,0,0,0,0,0,0,0,-1,1777,1464,15.1213,-11.4121
560,-440,17.4325,12.5394,0,0,0,0,0,0,0,-1,1784,1464,17.4325,-12.5394
567,-440,16.9025,12.4249,0,0,0,0,0,0,0,-1,1791,1464,16.9025,-12.425
574,-440,19.2841,14.8679,0,0,0,0,0,0,0,-1,1798,1464,19.2841,-14.868
581,-440,26.4432,21.3477,0,0,0,0,0,0,0,-1,1805,1464,26.4432,-21.3476
588,-440,35.0553,28.4155,0,0,0,0,0,0,0,-1,1812,1464,35.0552,-28.4156
595,-440,35.089,27.4583,0.00482728,0.00212392,-0.00293955,0.00671103,0.000240169,-0.569902,0.00439615,0.0362713,1819,1464,35.089,-27.4583
602,-440,35.1843,26.5449,0.00369337,0.00146539,-0.00212542,0.00497904,0.000179714,-0.544018,0.00326111,0.0218619,1826,1464,35.1843,-26.545
609,-440,35.1453,25.7679,0.00287171,0.000920583,-0.00145606,0.00364881,0.000143482,-0.490244,0.00238615,0.0180436,1833,1464,35.1452,-25.7679
616,-440,35.0847,25.0059,0.00221658,0.000429387,-0.000848017,0.00255491,9.10544e-05,-0.379617,0.00167375,0.018474,1840,1464,35.0848,-25.0059
623,-440,35.0701,24.1619,0.00187791,0.000130602,-0.000425393,0.00197597,3.25402e-05,-0.226561,0.0013066,0.0154721,1847,1464,35.0701,-24.1619
630,-440,35.0405,23.3237,0.00185323,-0.00020369,-0.000102325,0.00185831,-0.000208768,-0.0495836,0.001314,0.0130796,1854,1464,35.0405,-23.3237
637,-440,35.005,22.5684,0.00197991,-0.000434318,0.000128164,0.0019867,-0.000441103,0.0528889,0.00149337,0.0169021,1861,1464,35.005,-22.5684
644,-440,34.962,21.7836,0.00231881,-0.00052086,0.00017127,0.0023291,-0.000531153,0.0600233,0.00175676,0.0165477,1868,1464,34.962,-21.7836
651,-440,34.9559,20.8807,0.00297798,-0.000485042,-5.32166e-05,0.0029788,-0.000485859,-0.0153623,0.00216606,0.0267149,1875,1464,34.9559,-20.8807
658,-440,35.0231,19.859,0,0,0,0,0,0,0,-1,1882,1464,35.023,-19.8591
665,-440,24.2067,12.5813,0,0,0,0,0,0,0,-1,1889,1464,24.2067,-12.5813
672,-440,18.9385,9.6394,0,0,0,0,0,0,0,-1,1896,1464,18.9384,-9.63939
679,-440,16.9508,10.2336,0,0,0,0,0,0,0,-1,1903,1464,16.9508,-10.2337
686,-440,15.2556,8.44177,0,0,0,0,0,0,0,-1,1910,1464,15.2556,-8.44177
693,-440,9.88635,2.89795,0,0,0,0,0,0,0,-1,1917,1464,9.88638,-2.89798
700,-440,7.07825,-2.62061,0,0,0,0,0,0,0,-1,1924,1464,7.07829,2.62057
707,-440,0,0,0,0,0,0,0,0,0,-1,1931,1464,0,0
714,-440,0,0,0,0,0,0,0,0,0,-1,1938,1464,0,0
721,-440,0,0,0,0,0,0,0,0,0,-1,1945,1464,0,0
728,-440,0,0,0,0,0,0,0,0,0,-1,1952,1464,0,0
735,-440,0,0,0,0,0,0,0,0,0,-1,1959,1464,0,0
742,-440,0,0,0,0,0,0,0,0,0,-1,1966,1464,0,0
749,-440,0,0,0,0,0,0,0,0,0,-1,1973,1464,0,0
756,-440,0,0,0,0,0,0,0,0,0,-1,1980,1464,0,0
763,-440,0,0,0,0,0,0,0,0,0,-1,1987,1464,0,0
770,-440,0,0,0,0,0,0,0,0,0,-1,1994,1464,0,0
777,-440,0,0,0,0,0,0,0,0,0,-1,2001,1464,0,0
784,-440,0,0,0,0,0,0,0,0,0,-1,2008,1464,0,0
791,-440,0,0,0,0,0,0,0,0,0,-1,2015,1464,0,0
798,-440,0,0,0,0,0,0,0,0,0,-1,2022,1464,0,0
805,-440,0,0,0,0,0,0,0,0,0,-1,2029,1464,0,0
812,-440,0,0,0,0,0,0,0,0,0,-1,2036,1464,0,0
-700,-447,0,0,0,0,0,0,0,0,0,-1,524,1471,0,0
-693,-447,0,0,0,0,0,0,0,0,0,-1,531,1471,0,0
-686,-447,0,0,0,0,0,0,0,0,0,-1,538,1471,0,0
-679,-447,0,0,0,0,0,0,0,0,0,-1,545,1471,0,0
-672,-447,0,0,0,0,0,0,0,0,0,-1,552,1471,0,0
-665,-447,0,0,0,0,0,0,0,0,0,-1,559,1471,0,0
-658,-447,0,0,0,0,0,0,0,0,0,-1,566,1471,0,0
-651,-447,0,0,0,0,0,0,0,0,0,-1,573,1471,0,0
-644,-447,0,0,0,0,0,0,0,0,0,-1,580,1471,0,0
-637,-447,0,0,0,0,0,0,0,0,0,-1,587,1471,0,0
-630,-447,0,0,0,0,0,0,0,0,0,-1,594,1471,0,0
-623,-447,0,0,0,0,0,0,0,0,0,-1,601,1471,0,0
-616,-447,0,0,0,0,0,0,0,0,0,-1,608,1471,0,0
-609,-447,0,0,0,0,0,0,0,0,0,-1,615,1471,0,0
-602,-447,0,0,0,0,0,0,0,0,0,-1,622,1471,0,0
-595,-447,0,0,0,0,0,0,0,0,0,-1,629,1471,0,0
-588,-447,0,0,0,0,0,0,0,0,0,-1,636,1471,0,0
-581,-447,-7.06482,-1.50476,0,0,0,0,0,0,0,-1,643,1471,-7.0648,1.50474
-574,-447,-6.88092,-0.00585938,0,0,0,0,0,0,0,-1,650,1471,-6.88095,0.00589852
-567,-447,-6.8205,-1.32178,0,0,0,0,0,0,0,-1,657,1471,-6.82047,1.32172
-560,-447,-8.85748,2.80774,0,0,0,0,0,0,0,-1,664,1471,-8.85748,-2.80775
-553,-447,-7.60486,3.26794,0,0,0,0,0,0,0,-1,671,1471,-7.60487,-3.26799
-546,-447,-3.94501,1.8656,0,0,0,0,0,0,0,-1,678,1471,-3.945,-1.86554
-539,-447,-5.35492,4.50024,0,0,0,0,0,0,0,-1,685,1471,-5.35492,-4.50018
-532,-447,-6.12781,8.81091,0,0,0,0,0,0,0,-1,692,1471,-6.12781,-8.81094
-525,-447,-9.44501,12.098,0,0,0,0,0,0,0,-1,699,1471,-9.44502,-12.098
-518,-447,-17.0987,20.4479,0,0,0,0,0,0,0,-1,706,1471,-17.0987,-20.4479
-511,-447,-17.046,21.5703,0.00531777,0.00545754,0.00591333,0.0113014,-0.000526088,0.791307,0.00771561,0.0311493,713,1471,-17.046,-21.5703
-504,-447,-17.0261,22.5532,0.00420677,0.00418965,0.00460608,0.0088043,-0.000407875,0.784469,0.00601011,0.0214864,720,1471,-17.0261,-22.5533
-497,-447,-17.1376,23.3762,0.00320815,0.00310425,0.00344481,0.00660141,-0.000289005,0.777859,0.00450037,0.0248241,727,1471,-17.1376,-23.3763
-490,-447,-17.1553,24.0844,0.00234839,0.00222702,0.00243231,0.00472078,-0.000145362,0.772926,0.00319674,0.0247909,734,1471,-17.1553,-24.0844
-483,-447,-17.2118,24.948,0.00171825,0.00157985,0.00164387,0.00329438,3.71772e-06,0.764363,0.00219501,0.0228819,741,1471,-17.2118,-24.948
-476,-447,-17.2663,25.8105,0.00129443,0.0012241,0.00113233,0.00239214,0.000126389,0.769877,0.00155435,0.0143982,748,1471,-17.2663,-25.8105
-469,-447,-17.3206,26.6666,0.00104972,0.00115455,0.000823757,0.00192756,0.000276715,0.81717,0.00120345,0.0138907,755,1471,-17.3205,-26.6666
-462,-447,-17.3753,27.5156,0.00111245,0.00141417,0.000830219,0.00210712,0.000419494,0.875274,0.00128789,0.0143517,762,1471,-17.3753,-27.5157
-455,-447,-17.4249,28.3524,0.00152324,0.00204792,0.00119432,0.00300837,0.000562784,0.893508,0.0018468,0.0265285,769,1471,-17.425,-28.3525
-448,-447,-17.4362,29.2358,0,0,0,0,0,0,0,-1,776,1471,-17.4362,-29.2359
-441,-447,-8.68506,19.0931,0,0,0,0,0,0,0,-1,783,1471,-8.68504,-19.0932
-434,-447,-7.43402,15.6273,0,0,0,0,0,0,0,-1,790,1471,-7.43404,-15.6274
-427,-447,-7.21832,14.691,0,0,0,0,0,0,0,-1,797,1471,-7.21834,-14.6911
-420,-447,-8.0545,12.8055,0,0,0,0,0,0,0,-1,804,1471,-8.05452,-12.8055
-413,-447,-4.27393,6.59705,0,0,0,0,0,0,0,-1,811,1471,-4.27392,-6.59707
-406,-447,-1.04279,6.18591,0,0,0,0,0,0,0,-1,818,1471,-1.04276,-6.18586
-399,-447,0.0134888,0.687622,0,0,0,0,0,0,0,-1,825,1471,0.0134841,-0.68767
-392,-447,-14.0646,3.76147,0,0,0,0,0,0,0,-1,832,1471,-14.0646,-3.7615
-385,-447,-15.1695,2.61865,0,0,0,0,0,0,0,-1,839,1471,-15.1695,-2.61871
-378,-447,-15.9424,1.49316,0,0,0,0,0,0,0,-1,846,1471,-15.9424,-1.49313
-371,-447,-17.3655,0.73291,0,0,0,0,0,0,0,-1,853,1471,-17.3655,-0.732946
-364,-447,0,0,0,0,0,0,0,0,0,-1,860,1471,0,0
-357,-447,0,0,0,0,0,0,0,0,0,-1,867,1471,0,0
-350,-447,0,0,0,0,0,0,0,0,0,-1,874,1471,0,0
-343,-447,0,0,0,0,0,0,0,0,0,-1,881,1471,0,0
-336,-447,0,0,0,0,0,0,0,0,0,-1,888,1471,0,0
-329,-447,0,0,0,0,0,0,0,0,0,-1,895,1471,0,0
-322,-447,0,0,0,0,0,0,0,0,0,-1,902,1471,0,0
-315,-447,0,0,0,0,0,0,0,0,0,-1,909,1471,0,0
-308,-447,0,0,0,0,0,0,0,0,0,-1,916,1471,0,0
-301,-447,0,0,0,0,0,0,0,0,0,-1,923,1471,0,0
-294,-447,0,0,0,0,0,0,0,0,0,-1,930,1471,0,0
-287,-447,0,0,0,0,0,0,0,0,0,-1,937,1471,0,0
-280,-447,0,0,0,0,0,0,0,0,0,-1,944,1471,0,0
-273,-447,0,0,0,0,0,0,0,0,0,-1,951,1471,0,0
-266,-447,0,0,0,0,0,0,0,0,0,-1,958,1471,0,0
-259,-447,0,0,0,0,0,0,0,0,0,-1,965,1471,0,0
-252,-447,0,0,0,0,0,0,0,0,0,-1,972,1471,0,0
-245,-447,0,0,0,0,0,0,0,0,0,-1,979,1471,0,0
-238,-447,0,0,0,0,0,0,0,0,0,-1,986,1471,0,0
-231,-447,0,0,0,0,0,0,0,0,0,-1,993,1471,0,0
-224,-447,0,0,0,0,0,0,0,0,0,-1,1000,1471,0,0
-217,-447,0,0,0,0,0,0,0,0,0,-1,1007,1471,0,0
-210,-447,0,0,0,0,0,0,0,0,0,-1,1014,1471,0,0
-203,-447,0,0,0,0,0,0,0,0,0,-1,1021,1471,0,0
-196,-447,0,0,0,0,0,0,0,0,0,-1,1028,1471,0,0
-189,-447,0,0,0,0,0,0,0,0,0,-1,1035,1471,0,0
-182,-447,0,0,0,0,0,0,0,0,0,-1,1042,1471,0,0
-175,-447,0,0,0,0,0,0,0,0,0,-1,1049,1471,0,0
-168,-447,0,0,0,0,0,0,0,0,0,-1,1056,1471,0,0
-161,-447,0,0,0,0,0,0,0,0,0,-1,1063,1471,0,0
-154,-447,0,0,0,0,0,0,0,0,0,-1,1070,1471,0,0
-147,-447,0,0,0,0,0,0,0,0,0,-1,1077,1471,0,0
-140,-447,0,0,0,0,0,0,0,0,0,-1,1084,1471,0,0
-133,-447,0,0,0,0,0,0,0,0,0,-1,1091,1471,0,0
-126,-447,0,0,0,0,0,0,0,0,0,-1,1098,1471,0,0
-119,-447,0,0,0,0,0,0,0,0,0,-1,1105,1471,0,0
-112,-447,0,0,0,0,0,0,0,0,0,-1,1112,1471,0,0
-105,-447,0,0,0,0,0,0,0,0,0,-1,1119,1471,0,0
-98,-447,0,0,0,0,0,0,0,0,0,-1,1126,1471,0,0
-91,-447,0,0,0,0,0,0,0,0,0,-1,1133,1471,0,0
-84,-447,0,0,0,0,0,0,0,0,0,-1,1140,1471,0,0
-77,-447,0,0,0,0,0,0,0,0,0,-1,1147,1471,0,0
-70,-447,0,0,0,0,0,0,0,0,0,-1,1154,1471,0,0
-63,-447,0,0,0,0,0,0,0,0,0,-1,1161,1471,0,0
-56,-447,0,0,0,0,0,0,0,0,0,-1,1168,1471,0,0
-49,-447,0,0,0,0,0,0,0,0,0,-1,1175,1471,0,0
-42,-447,0,0,0,0,0,0,0,0,0,-1,1182,1471,0,0
-35,-447,0,0,0,0,0,0,0,0,0,-1,1189,1471,0,0
-28,-447,0,0,0,0,0,0,0,0,0,-1,1196,1471,0,0
-21,-447,0,0,0,0,0,0,0,0,0,-1,1203,1471,0,0
-14,-447,0,0,0,0,0,0,0,0,0,-1,1210,1471,0,0
-7,-447,0,0,0,0,0,0,0,0,0,-1,1217,1471,0,0
0,-447,0,0,0,0,0,0,0,0,0,-1,1224,1471,0,0
7,-447,0,0,0,0,0,0,0,0,0,-1,1231,1471,0,0
14,-447,0,0,0,0,0,0,0,0,0,-1,1238,1471,0,0
21,-447,0,0,0,0,0,0,0,0,0,-1,1245,1471,0,0
28,-447,0,0,0,0,0,0,0,0,0,-1,1252,1471,0,0
35,-447,0,0,0,0,0,0,0,0,0,-1,1259,1471,0,0
42,-447,0,0,0,0,0,0,0,0,0,-1,1266,1471,0,0
49,-447,0,0,0,0,0,0,0,0,0,-1,1273,1471,0,0
56,-447,0,0,0,0,0,0,0,0,0,-1,1280,1471,0,0
63,-447,0,0,0,0,0,0,0,0,0,-1,1287,1471,0,0
70,-447,0,0,0,0,0,0,0,0,0,-1,1294,1471,0,0
77,-447,0,0,0,0,0,0,0,0,0,-1,1301,1471,0,0
84,-447,0,0,0,0,0,0,0,0,0,-1,1308,1471,0,0
91,-447,0,0,0,0,0,0,0,0,0,-1,1315,1471,0,0
98,-447,0,0,0,0,0,0,0,0,0,-1,1322,1471,0,0
105,-447,0,0,0,0,0,0,0,0,0,-1,1329,1471,0,0
112,-447,0,0,0,0,0,0,0,0,0,-1,1336,1471,0,0
119,-447,0,0,0,0,0,0,0,0,0,-1,1343,1471,0,0
126,-447,0,0,0,0,0,0,0,0,0,-1,1350,1471,0,0
133,-447,0,0,0,0,0,0,0,0,0,-1,1357,1471,0,0
140,-447,0,0,0,0,0,0,0,0,0,-1,1364,1471,0,0
147,-447,0,0,0,0,0,0,0,0,0,-1,1371,1471,0,0
154,-447,0,0,0,0,0,0,0,0,0,-1,1378,1471,0,0
161,-447,0,0,0,0,0,0,0,0,0,-1,1385,1471,0,0
168,-447,0,0,0,0,0,0,0,0,0,-1,1392,1471,0,0
175,-447,0,0,0,0,0,0,0,0,0,-1,1399,1471,0,0
182,-447,0,0,0,0,0,0,0,0,0,-1,1406,1471,0,0
189,-447,0,0,0,0,0,0,0,0,0,-1,1413,1471,0,0
196,-447,0,0,0,0,0,0,0,0,0,-1,1420,1471,0,0
203,-447,0,0,0,0,0,0,0,0,0,-1,1427,1471,0,0
210,-447,0,0,0,0,0,0,0,0,0,-1,1434,1471,0,0
217,-447,0,0,0,0,0,0,0,0,0,-1,1441,1471,0,0
224,-447,0,0,0,0,0,0,0,0,0,-1,1448,1471,0,0
231,-447,0,0,0,0,0,0,0,0,0,-1,1455,1471,0,0
238,-447,0,0,0,0,0,0,0,0,0,-1,1462,1471,0,0
245,-447,0,0,0,0,0,0,0,0,0,-1,1469,1471,0,0
252,-447,0,0,0,0,0,0,0,0,0,-1,1476,1471,0,0
259,-447,0,0,0,0,0,0,0,0,0,-1,1483,1471,0,0
266,-447,0,0,0,0,0,0,0,0,0,-1,1490,1471,0,0
273,-447,0,0,0,0,0,0,0,0,0,-1,1497,1471,0,0
280,-447,0,0,0,0,0,0,0,0,0,-1,1504,1471,0,0
287,-447,0,0,0,0,0,0,0,0,0,-1,1511,1471,0,0
294,-447,0,0,0,0,0,0,0,0,0,-1,1518,1471,0,0
301,-447,0,0,0,0,0,0,0,0,0,-1,1525,1471,0,0
308,-447,0,0,0,0,0,0,0,0,0,-1,1532,1471,0,0
315,-447,0,0,0,0,0,0,0,0,0,-1,1539,1471,0,0
322,-447,0,0,0,0,0,0,0,0,0,-1,1546,1471,0,0
329,-447,0,0,0,0,0,0,0,0,0,-1,1553,1471,0,0
336,-447,0,0,0,0,0,0,0,0,0,-1,1560,1471,0,0
343,-447,0,0,0,0,0,0,0,0,0,-1,1567,1471,0,0
350,-447,0,0,0,0,0,0,0,0,0,-1,1574,1471,0,0
357,-447,0,0,0,0,0,0,0,0,0,-1,1581,1471,0,0
364,-447,0,0,0,0,0,0,0,0,0,-1,1588,1471,0,0
371,-447,0,0,0,0,0,0,0,0,0,-1,1595,1471,0,0
378,-447,0,0,0,0,0,0,0,0,0,-1,1602,1471,0,0
385,-447,0,0,0,0,0,0,0,0,0,-1,1609,1471,0,0
392,-447,0,0,0,0,0,0,0,0,0,-1,1616,1471,0,0
399,-447,0,0,0,0,0,0,0,0,0,-1,1623,1471,0,0
406,-447,0,0,0,0,0,0,0,0,0,-1,1630,1471,0,0
413,-447,0,0,0,0,0,0,0,0,0,-1,1637,1471,0,0
420,-447,0,0,0,0,0,0,0,0,0,-1,1644,1471,0,0
427,-447,0,0,0,0,0,0,0,0,0,-1,1651,1471,0,0
434,-447,0,0,0,0,0,0,0,0,0,-1,1658,1471,0,0
441,-447,0,0,0,0,0,0,0,0,0,-1,1665,1471,0,0
448,-447,0,0,0,0,0,0,0,0,0,-1,1672,1471,0,0
455,-447,0,0,0,0,0,0,0,0,0,-1,1679,1471,0,0
462,-447,0,0,0,0,0,0,0,0,0,-1,1686,1471,0,0
469,-447,0,0,0,0,0,0,0,0,0,-1,1693,1471,0,0
476,-447,0,0,0,0,0,0,0,0,0,-1,1700,1471,0,0
483,-447,0,0,0,0,0,0,0,0,0,-1,1707,1471,0,0
490,-447,18.2214,-0.810303,0,0,0,0,0,0,0,-1,1714,1471,18.2215,0.810307
497,-447,17.0237,0.352417,0,0,0,0,0,0,0,-1,1721,1471,17.0237,-0.352442
504,-447,15.8998,1.53479,0,0,0,0,0,0,0,-1,1728,1471,15.8997,-1.53478
511,-447,14.7201,2.76111,0,0,0,0,0,0,0,-1,1735,1471,14.7201,-2.76107
518,-447,17.7618,13.2864,0,0,0,0,0,0,0,-1,1742,1471,17.7619,-13.2863
525,-447,17.1191,11.9014,0,0,0,0,0,0,0,-1,1749,1471,17.1191,-11.9013
532,-447,16.3959,10.0455,0,0,0,0,0,0,0,-1,1756,1471,16.3959,-10.0456
539,-447,14.1699,10.0204,0,0,0,0,0,0,0,-1,1763,1471,14.1699,-10.0204
546,-447,16.3715,11.8046,0,0,0,0,0,0,0,-1,1770,1471,16.3714,-11.8046
553,-447,17.5106,13.4012,0,0,0,0,0,0,0,-1,1777,1471,17.5107,-13.4012
560,-447,17.0187,13.168,0,0,0,0,0,0,0,-1,1784,1471,17.0187,-13.168
567,-447,18.9286,15.1703,0,0,0,0,0,0,0,-1,1791,1471,18.9286,-15.1703
574,-447,32.1848,27.6504,0,0,0,0,0,0,0,-1,1798,1471,32.1848,-27.6503
581,-447,34.2252,29.2035,0,0,0,0,0,0,0,-1,1805,1471,34.2252,-29.2035
588,-447,34.4175,28.3212,0.00609261,0.00234805,-0.00309364,0.00783641,0.000604251,-0.513279,0.00503496,0.0403233,1812,1471,34.4175,-28.3212
595,-447,34.3995,27.4589,0.00451362,0.00176995,-0.00246582,0.00596352,0.000320049,-0.531549,0.0038734,0.0143567,1819,1471,34.3996,-27.4589
602,-447,34.3531,26.6179,0.00344312,0.00116199,-0.00175199,0.0043931,0.00021201,-0.496856,0.00286068,0.0125091,1826,1471,34.3532,-26.618
609,-447,34.3102,25.8195,0.00268351,0.000694035,-0.00112702,0.00319199,0.00018555,-0.423832,0.00206892,0.0134049,1833,1471,34.3102,-25.8194
616,-447,34.2705,25.0187,0.00210513,0.000249224,-0.000537642,0.00224963,0.000104724,-0.262562,0.00146609,0.0154732,1840,1471,34.2705,-25.0187
623,-447,34.2579,24.2212,0.00184323,-3.3236e-05,-9.2075e-05,0.00184774,-3.77431e-05,-0.0489116,0.0012446,0.0170468,1847,1471,34.258,-24.2211
630,-447,34.2107,23.3877,0.00186757,-0.000356904,0.000303137,0.00190814,-0.000397473,0.133042,0.00142321,0.0107293,1854,1471,34.2106,-23.3878
637,-447,34.2079,22.5848,0.00202804,-0.000589614,0.000627897,0.00217086,-0.000732435,0.223655,0.00174345,0.0113407,1861,1471,34.2079,-22.5849
644,-447,34.1714,21.7922,0.00236309,-0.000672982,0.000787569,0.00255523,-0.00086512,0.23929,0.00205353,0.0132452,1868,1471,34.1713,-21.7922
651,-447,34.1577,20.8712,0,0,0,0,0,0,0,-1,1875,1471,34.1578,-20.8712
658,-447,30.2566,16.5862,0,0,0,0,0,0,0,-1,1882,1471,30.2566,-16.5862
665,-447,18.4946,9.79919,0,0,0,0,0,0,0,-1,1889,1471,18.4946,-9.79922
672,-447,18.9784,9.66077,0,0,0,0,0,0,0,-1,1896,1471,18.9784,-9.66081
679,-447,14.844,7.4248,0,0,0,0,0,0,0,-1,1903,1471,14.844,-7.42477
686,-447,9.81079,4.30859,0,0,0,0,0,0,0,-1,1910,1471,9.8108,-4.30864
693,-447,10.48,2.08643,0,0,0,0,0,0,0,-1,1917,1471,10.48,-2.08642
700,-447,0,0,0,0,0,0,0,0,0,-1,1924,1471,0,0
707,-447,0,0,0,0,0,0,0,0,0,-1,1931,1471,0,0
714,-447,0,0,0,0,0,0,0,0,0,-1,1938,1471,0,0
721,-447,0,0,0,0,0,0,0,0,0,-1,1945,1471,0,0
728,-447,0,0,0,0,0,0,0,0,0,-1,1952,1471,0,0
735,-447,0,0,0,0,0,0,0,0,0,-1,1959,1471,0,0
742,-447,0,0,0,0,0,0,0,0,0,-1,1966,1471,0,0
749,-447,0,0,0,0,0,0,0,0,0,-1,1973,1471,0,0
756,-447,0,0,0,0,0,0,0,0,0,-1,1980,1471,0,0
763,-447,0,0,0,0,0,0,0,0,0,-1,1987,1471,0,0
770,-447,0,0,0,0,0,0,0,0,0,-1,1994,1471,0,0
777,-447,0,0,0,0,0,0,0,0,0,-1,2001,1471,0,0
784,-447,0,0,0,0,0,0,0,0,0,-1,2008,1471,0,0
791,-447,0,0,0,0,0,0,0,0,0,-1,2015,1471,0,0
798,-447,0,0,0,0,0,0,0,0,0,-1,2022,1471,0,0
805,-447,0,0,0,0,0,0,0,0,0,-1,2029,1471,0,0
812,-447,0,0,0,0,0,0,0,0,0,-1,2036,1471,0,0
-700,-454,0,0,0,0,0,0,0,0,0,-1,524,1478,0,0
-693,-454,0,0,0,0,0,0,0,0,0,-1,531,1478,0,0
-686,-454,0,0,0,0,0,0,0,0,0,-1,538,1478,0,0
-679,-454,0,0,0,0,0,0,0,0,0,-1,545,1478,0,0
-672,-454,0,0,0,0,0,0,0,0,0,-1,552,1478,0,0
-665,-454,0,0,0,0,0,0,0,0,0,-1,559,1478,0,0
-658,-454,0,0,0,0,0,0,0,0,0,-1,566,1478,0,0
-651,-454,0,0,0,0,0,0,0,0,0,-1,573,1478,0,0
-644,-454,0,0,0,0,0,0,0,0,0,-1,580,1478,0,0
-637,-454,0,0,0,0,0,0,0,0,0,-1,587,1478,0,0
-630,-454,0,0,0,0,0,0,0,0,0,-1,594,1478,0,0
-623,-454,0,0,0,0,0,0,0,0,0,-1,601,1478,0,0
-616,-454,0,0,0,0,0,0,0,0,0,-1,608,1478,0,0
-609,-454,0,0,0,0,0,0,0,0,0,-1,615,1478,0,0
-602,-454,0,0,0,0,0,0,0,0,0,-1,622,1478,0,0
-595,-454,0,0,0,0,0,0,0,0,0,-1,629,1478,0,0
-588,-454,0,0,0,0,0,0,0,0,0,-1,636,1478,0,0
-581,-454,0,0,0,0,0,0,0,0,0,-1,643,1478,0,0
-574,-454,-8.4881,-0.465942,0,0,0,0,0,0,0,-1,650,1478,-8.4881,0.465885
-567,-454,-8.10046,0.922974,0,0,0,0,0,0,0,-1,657,1478,-8.10047,-0.923034
-560,-454,-10.656,3.51172,0,0,0,0,0,0,0,-1,664,1478,-10.656,-3.51176
-553,-454,-9.01129,3.95251,0,0,0,0,0,0,0,-1,671,1478,-9.0113,-3.95256
-546,-454,-9.61896,6.05237,0,0,0,0,0,0,0,-1,678,1478,-9.61897,-6.05239
-539,-454,-7.72589,4.96533,0,0,0,0,0,0,0,-1,685,1478,-7.72592,-4.96532
-532,-454,-7.03931,7.59985,0,0,0,0,0,0,0,-1,692,1478,-7.03929,-7.59981
-525,-454,-5.78723,9.677,0,0,0,0,0,0,0,-1,699,1478,-5.78722,-9.67703
-518,-454,-9.82098,13.8295,0,0,0,0,0,0,0,-1,706,1478,-9.82098,-13.8295
-511,-454,-16.3179,21.5713,0,0,0,0,0,0,0,-1,713,1478,-16.3179,-21.5713
-504,-454,-16.2313,22.5082,0.00523442,0.00517008,0.00585583,0.0110582,-0.000653663,0.782651,0.00759938,0.0224064,720,1478,-16.2313,-22.5082
-497,-454,-16.2817,23.4331,0.00404636,0.00382426,0.00444129,0.00837799,-0.000507362,0.772899,0.0057619,0.0192528,727,1478,-16.2817,-23.4332
-490,-454,-16.3168,24.239,0.00303927,0.00275973,0.00323089,0.00613341,-0.000334418,0.763781,0.00420485,0.0180311,734,1478,-16.3168,-24.239
-483,-454,-16.3802,25.0518,0.00223369,0.0019345,0.00224454,0.00433361,-0.000165428,0.752123,0.00294577,0.0162377,741,1478,-16.3802,-25.0517
-476,-454,-16.4556,25.8687,0.00166775,0.00145257,0.00157992,0.00314374,-2.34254e-05,0.751402,0.00210368,0.0133638,748,1478,-16.4556,-25.8686
-469,-454,-16.4877,26.7198,0.00131269,0.00129547,0.00115775,0.00246186,0.000146303,0.781681,0.00159471,0.0104542,755,1478,-16.4877,-26.7198
-462,-454,-16.5405,27.5739,0.00127931,0.00147507,0.00106544,0.00244712,0.000307261,0.831203,0.00153925,0.0116107,762,1478,-16.5404,-27.5739
-455,-454,-16.6042,28.3987,0.00161407,0.00203083,0.00135605,0.00319442,0.000450481,0.861636,0.00199647,0.0127129,769,1478,-16.6042,-28.3987
-448,-454,-16.6102,29.2874,0.00254302,0.0033038,0.00235942,0.0053133,0.000533516,0.865322,0.00337843,0.0272937,776,1478,-16.6102,-29.2873
-441,-454,-16.4493,30.3254,0,0,0,0,0,0,0,-1,783,1478,-16.4493,-30.3255
-434,-454,-7.55743,19.4857,0,0,0,0,0,0,0,-1,790,1478,-7.55746,-19.4858
-427,-454,-6.00183,15.8636,0,0,0,0,0,0,0,-1,797,1478,-6.00184,-15.8637
-420,-454,-6.28088,15.2135,0,0,0,0,0,0,0,-1,804,1478,-6.28087,-15.2135
-413,-454,-5.4408,13.674,0,0,0,0,0,0,0,-1,811,1478,-5.44079,-13.6739
-406,-454,-2.38208,10.0308,0,0,0,0,0,0,0,-1,818,1478,-2.38209,-10.0308
-399,-454,-1.21033,6.95447,0,0,0,0,0,0,0,-1,825,1478,-1.21035,-6.95452
-392,-454,0.0967407,0.985474,0,0,0,0,0,0,0,-1,832,1478,0.0967364,-0.985529
-385,-454,2.38629,3.297,0,0,0,0,0,0,0,-1,839,1478,2.38629,-3.29702
-378,-454,-15.9756,2.83997,0,0,0,0,0,0,0,-1,846,1478,-15.9756,-2.83994
-371,-454,-17.2753,2.01453,0,0,0,0,0,0,0,-1,853,1478,-17.2753,-2.01455
-364,-454,1.08124,0.819458,0,0,0,0,0,0,0,-1,860,1478,1.08124,-0.819513
-357,-454,0,0,0,0,0,0,0,0,0,-1,867,1478,0,0
-350,-454,0,0,0,0,0,0,0,0,0,-1,874,1478,0,0
-343,-454,0,0,0,0,0,0,0,0,0,-1,881,1478,0,0
-336,-454,0,0,0,0,0,0,0,0,0,-1,888,1478,0,0
-329,-454,0,0,0,0,0,0,0,0,0,-1,895,1478,0,0
-322,-454,0,0,0,0,0,0,0,0,0,-1,902,1478,0,0
-315,-454,0,0,0,0,0,0,0,0,0,-1,909,1478,0,0
-308,-454,0,0,0,0,0,0,0,0,0,-1,916,1478,0,0
-301,-454,0,0,0,0,0,0,0,0,0,-1,923,1478,0,0
-294,-454,0,0,0,0,0,0,0,0,0,-1,930,1478,0,0
-287,-454,0,0,0,0,0,0,0,0,0,-1,937,1478,0,0
-280,-454,0,0,0,0,0,0,0,0,0,-1,944,1478,0,0
-273,-454,0,0,0,0,0,0,0,0,0,-1,951,1478,0,0
-266,-454,0,0,0,0,0,0,0,0,0,-1,958,1478,0,0
-259,-454,0,0,0,0,0,0,0,0,0,-1,965,1478,0,0
-252,-454,0,0,0,0,0,0,0,0,0,-1,972,1478,0,0
-245,-454,0,0,0,0,0,0,0,0,0,-1,979,1478,0,0
-238,-454,0,0,0,0,0,0,0,0,0,-1,986,1478,0,0
-231,-454,0,0,0,0,0,0,0,0,0,-1,993,1478,0,0
-224,-454,0,0,0,0,0,0,0,0,0,-1,1000,1478,0,0
-217,-454,0,0,0,0,0,0,0,0,0,-1,1007,1478,0,0
-210,-454,0,0,0,0,0,0,0,0,0,-1,1014,1478,0,0
-203,-454,0,0,0,0,0,0,0,0,0,-1,1021,1478,0,0
-196,-454,0,0,0,0,0,0,0,0,0,-1,1028,1478,0,0
-189,-454,0,0,0,0,0,0,0,0,0,-1,1035,1478,0,0
-182,-454,0,0,0,0,0,0,0,0,0,-1,1042,1478,0,0
-175,-454,0,0,0,0,0,0,0,0,0,-1,1049,1478,0,0
-168,-454,0,0,0,0,0,0,0,0,0,-1,1056,1478,0,0
-161,-454,0,0,0,0,0,0,0,0,0,-1,1063,1478,0,0
-154,-454,0,0,0,0,0,0,0,0,0,-1,1070,1478,0,0
-147,-454,0,0,0,0,0,0,0,0,0,-1,1077,1478,0,0
-140,-454,0,0,0,0,0,0,0,0,0,-1,1084,1478,0,0
-133,-454,0,0,0,0,0,0,0,0,0,-1,1091,1478,0,0
-126,-454,0,0,0,0,0,0,0,0,0,-1,1098,1478,0,0
-119,-454,0,0,0,0,0,0,0,0,0,-1,1105,1478,0,0
-112,-454,0,0,0,0,0,0,0,0,0,-1,1112,1478,0,0
-105,-454,0,0,0,0,0,0,0,0,0,-1,1119,1478,0,0
-98,-454,0,0,0,0,0,0,0,0,0,-1,1126,1478,0,0
-91,-454,0,0,0,0,0,0,0,0,0,-1,1133,1478,0,0
-84,-454,0,0,0,0,0,0,0,0,0,-1,1140,1478,0,0
-77,-454,0,0,0,0,0,0,0,0,0,-1,1147,1478,0,0
-70,-454,0,0,0,0,0,0,0,0,0,-1,1154,1478,0,0
-63,-454,0,0,0,0,0,0,0,0,0,-1,1161,1478,0,0
-56,-454,0,0,0,0,0,0,0,0,0,-1,1168,1478,0,0
-49,-454,0,0,0,0,0,0,0,0,0,-1,1175,1478,0,0
-42,-454,0,0,0,0,0,0,0,0,0,-1,1182,1478,0,0
-35,-454,0,0,0,0,0,0,0,0,0,-1,1189,1478,0,0
-28,-454,0,0,0,0,0,0,0,0,0,-1,1196,1478,0,0
-21,-454,0,0,0,0,0,0,0,0,0,-1,1203,1478,0,0
-14,-454,0,0,0,0,0,0,0,0,0,-1,1210,1478,0,0
-7,-454,0,0,0,0,0,0,0,0,0,-1,1217,1478,0,0
0,-454,0,0,0,0,0,0,0,0,0,-1,1224,1478,0,0
7,-454,0,0,0,0,0,0,0,0,0,-1,1231,1478,0,0
14,-454,0,0,0,0,0,0,0,0,0,-1,1238,1478,0,0
21,-454,0,0,0,0,0,0,0,0,0,-1,1245,1478,0,0
28,-454,0,0,0,0,0,0,0,0,0,-1,1252,1478,0,0
35,-454,0,0,0,0,0,0,0,0,0,-1,1259,1478,0,0
42,-454,0,0,0,0,0,0,0,0,0,-1,1266,1478,0,0
49,-454,0,0,0,0,0,0,0,0,0,-1,1273,1478,0,0
56,-454,0,0,0,0,0,0,0,0,0,-1,1280,1478,0,0
63,-454,0,0,0,0,0,0,0,0,0,-1,1287,1478,0,0
70,-454,0,0,0,0,0,0,0,0,0,-1,1294,1478,0,0
77,-454,0,0,0,0,0,0,0,0,0,-1,1301,1478,0,0
84,-454,0,0,0,0,0,0,0,0,0,-1,1308,1478,0,0
91,-454,0,0,0,0,0,0,0,0,0,-1,1315,1478,0,0
98,-454,0,0,0,0,0,0,0,0,0,-1,1322,1478,0,0
105,-454,0,0,0,0,0,0,0,0,0,-1,1329,1478,0,0
112,-454,0,0,0,0,0,0,0,0,0,-1,1336,1478,0,0
119,-454,0,0,0,0,0,0,0,0,0,-1,1343,1478,0,0
126,-454,0,0,0,0,0,0,0,0,0,-1,1350,1478,0,0
133,-454,0,0,0,0,0,0,0,0,0,-1,1357,1478,0,0
140,-454,0,0,0,0,0,0,0,0,0,-1,1364,1478,0,0
147,-454,0,0,0,0,0,0,0,0,0,-1,1371,1478,0,0
154,-454,0,0,0,0,0,0,0,0,0,-1,1378,1478,0,0
161,-454,0,0,0,0,0,0,0,0,0,-1,1385,1478,0,0
168,-454,0,0,0,0,0,0,0,0,0,-1,1392,1478,0,0
175,-454,0,0,0,0,0,0,0,0,0,-1,1399,1478,0,0
182,-454,0,0,0,0,0,0,0,0,0,-1,1406,1478,0,0
189,-454,0,0,0,0,0,0,0,0,0,-1,1413,1478,0,0
196,-454,0,0,0,0,0,0,0,0,0,-1,1420,1478,0,0
203,-454,0,0,0,0,0,0,0,0,0,-1,1427,1478,0,0
210,-454,0,0,0,0,0,0,0,0,0,-1,1434,1478,0,0
217,-454,0,0,0,0,0,0,0,0,0,-1,1441,1478,0,0
224,-454,0,0,0,0,0,0,0,0,0,-1,1448,1478,0,0
231,-454,0,0,0,0,0,0,0,0,0,-1,1455,1478,0,0
238,-454,0,0,0,0,0,0,0,0,0,-1,1462,1478,0,0
245,-454,0,0,0,0,0,0,0,0,0,-1,1469,1478,0,0
252,-454,0,0,0,0,0,0,0,0,0,-1,1476,1478,0,0
259,-454,0,0,0,0,0,0,0,0,0,-1,1483,1478,0,0
266,-454,0,0,0,0,0,0,0,0,0,-1,1490,1478,0,0
273,-454,0,0,0,0,0,0,0,0,0,-1,1497,1478,0,0
280,-454,0,0,0,0,0,0,0,0,0,-1,1504,1478,0,0
287,-454,0,0,0,0,0,0,0,0,0,-1,1511,1478,0,0
294,-454,0,0,0,0,0,0,0,0,0,-1,1518,1478,0,0
301,-454,0,0,0,0,0,0,0,0,0,-1,1525,1478,0,0
308,-454,0,0,0,0,0,0,0,0,0,-1,1532,1478,0,0
315,-454,0,0,0,0,0,0,0,0,0,-1,1539,1478,0,0
322,-454,0,0,0,0,0,0,0,0,0,-1,1546,1478,0,0
329,-454,0,0,0,0,0,0,0,0,0,-1,1553,1478,0,0
336,-454,0,0,0,0,0,0,0,0,0,-1,1560,1478,0,0
343,-454,0,0,0,0,0,0,0,0,0,-1,1567,1478,0,0
350,-454,0,0,0,0,0,0,0,0,0,-1,1574,1478,0,0
357,-454,0,0,0,0,0,0,0,0,0,-1,1581,1478,0,0
364,-454,0,0,0,0,0,0,0,0,0,-1,1588,1478,0,0
371,-454,0,0,0,0,0,0,0,0,0,-1,1595,1478,0,0
378,-454,0,0,0,0,0,0,0,0,0,-1,1602,1478,0,0
385,-454,0,0,0,0,0,0,0,0,0,-1,1609,1478,0,0
392,-454,0,0,0,0,0,0,0,0,0,-1,1616,1478,0,0
399,-454,0,0,0,0,0,0,0,0,0,-1,1623,1478,0,0
406,-454,0,0,0,0,0,0,0,0,0,-1,1630,1478,0,0
413,-454,0,0,0,0,0,0,0,0,0,-1,1637,1478,0,0
420,-454,0,0,0,0,0,0,0,0,0,-1,1644,1478,0,0
427,-454,0,0,0,0,0,0,0,0,0,-1,1651,1478,0,0
434,-454,0,0,0,0,0,0,0,0,0,-1,1658,1478,0,0
441,-454,0,0,0,0,0,0,0,0,0,-1,1665,1478,0,0
448,-454,0,0,0,0,0,0,0,0,0,-1,1672,1478,0,0
455,-454,0,0,0,0,0,0,0,0,0,-1,1679,1478,0,0
462,-454,0,0,0,0,0,0,0,0,0,-1,1686,1478,0,0
469,-454,0,0,0,0,0,0,0,0,0,-1,1693,1478,0,0
476,-454,0,0,0,0,0,0,0,0,0,-1,1700,1478,0,0
483,-454,14.2399,3.97498,0,0,0,0,0,0,0,-1,1707,1478,14.2399,-3.97502
490,-454,18.1821,-0.175781,0,0,0,0,0,0,0,-1,1714,1478,18.1821,0.175822
497,-454,16.8854,1.01208,0,0,0,0,0,0,0,-1,1721,1478,16.8854,-1.01209
504,-454,15.587,2.05994,0,0,0,0,0,0,0,-1,1728,1478,15.5871,-2.05998
511,-454,17.0273,14.5258,0,0,0,0,0,0,0,-1,1735,1478,17.0273,-14.5258
518,-454,16.4158,13.1039,0,0,0,0,0,0,0,-1,1742,1478,16.4157,-13.1038
525,-454,15.7842,11.6628,0,0,0,0,0,0,0,-1,1749,1478,15.7841,-11.6629
532,-454,15.1094,10.2476,0,0,0,0,0,0,0,-1,1756,1478,15.1094,-10.2475
539,-454,13.7905,10.9373,0,0,0,0,0,0,0,-1,1763,1478,13.7906,-10.9372
546,-454,16.2002,13.2458,0,0,0,0,0,0,0,-1,1770,1478,16.2002,-13.2459
553,-454,15.6747,12.1868,0,0,0,0,0,0,0,-1,1777,1478,15.6747,-12.1868
560,-454,16.3895,14.0527,0,0,0,0,0,0,0,-1,1784,1478,16.3895,-14.0528
567,-454,33.8219,30.7422,0,0,0,0,0,0,0,-1,1791,1478,33.8219,-30.7422
574,-454,33.5098,30.1957,0,0,0,0,0,0,0,-1,1798,1478,33.5098,-30.1956
581,-454,33.6442,29.1443,0.00726548,0.00270269,-0.00333049,0.00902103,0.000947144,-0.485103,0.00572448,0.0341977,1805,1478,33.6442,-29.1443
588,-454,33.697,28.2689,0.00545375,0.00204101,-0.00261474,0.00686964,0.000625113,-0.496299,0.00438627,0.0145221,1812,1478,33.697,-28.2689
595,-454,33.6008,27.4875,0.00408743,0.00146319,-0.00200825,0.00517421,0.000376409,-0.496029,0.0033311,0.0120897,1819,1478,33.6008,-27.4876
602,-454,33.5405,26.6787,0.00311817,0.000912978,-0.00138216,0.00378365,0.000247501,-0.448719,0.00244411,0.00958054,1826,1478,33.5406,-26.6787
609,-454,33.5356,25.8781,0.00244641,0.000509068,-0.000801139,0.00273478,0.0002207,-0.345509,0.00175425,0.0118237,1833,1478,33.5356,-25.8781
616,-454,33.5017,25.0765,0.00195782,0.000104055,-0.000219997,0.00198357,7.83047e-05,-0.116519,0.00129707,0.0143477,1840,1478,33.5017,-25.0765
623,-454,33.4675,24.2821,0.00177378,-0.000188903,0.000278015,0.0018124,-0.000227524,0.138034,0.00129081,0.0151264,1847,1478,33.4675,-24.2821
630,-454,33.4338,23.4706,0.00183872,-0.000523565,0.000795687,0.00208173,-0.000766577,0.296414,0.0017019,0.0159335,1854,1478,33.4338,-23.4706
637,-454,33.3639,22.671,0.00203628,-0.00078572,0.00127595,0.00252764,-0.00127708,0.36759,0.00223586,0.0139781,1861,1478,33.3638,-22.671
644,-454,33.4434,21.8159,0.00235741,-0.000907697,0.00164461,0.00304217,-0.00159246,0.394538,0.00271909,0.0310289,1868,1478,33.4434,-21.816
651,-454,33.5621,20.8905,0,0,0,0,0,0,0,-1,1875,1478,33.5621,-20.8906
658,-454,17.2583,10.0765,0,0,0,0,0,0,0,-1,1882,1478,17.2583,-10.0765
665,-454,17.683,9.67566,0,0,0,0,0,0,0,-1,1889,1478,17.683,-9.67572
672,-454,16.5476,6.41931,0,0,0,0,0,0,0,-1,1896,1478,16.5476,-6.41929
679,-454,14.2161,5.45007,0,0,0,0,0,0,0,-1,1903,1478,14.2161,-5.45013
686,-454,10.3767,2.12842,0,0,0,0,0,0,0,-1,1910,1478,10.3767,-2.12839
693,-454,11.1857,1.48486,0,0,0,0,0,0,0,-1,1917,1478,11.1857,-1.48487
700,-454,0,0,0,0,0,0,0,0,0,-1,1924,1478,0,0
707,-454,0,0,0,0,0,0,0,0,0,-1,1931,1478,0,0
714,-454,0,0,0,0,0,0,0,0,0,-1,1938,1478,0,0
721,-454,0,0,0,0,0,0,0,0,0,-1,1945,1478,0,0
728,-454,0,0,0,0,0,0,0,0,0,-1,1952,1478,0,0
735,-454,0,0,0,0,0,0,0,0,0,-1,1959,1478,0,0
742,-454,0,0,0,0,0,0,0,0,0,-1,1966,1478,0,0
749,-454,0,0,0,0,0,0,0,0,0,-1,1973,1478,0,0
756,-454,0,0,0,0,0,0,0,0,0,-1,1980,1478,0,0
763,-454,0,0,0,0,0,0,0,0,0,-1,1987,1478,0,0
770,-454,0,0,0,0,0,0,0,0,0,-1,1994,1478,0,0
777,-454,0,0,0,0,0,0,0,0,0,-1,2001,1478,0,0
784,-454,0,0,0,0,0,0,0,0,0,-1,2008,1478,0,0
791,-454,0,0,0,0,0,0,0,0,0,-1,2015,1478,0,0
798,-454,0,0,0,0,0,0,0,0,0,-1,2022,1478,0,0
805,-454,0,0,0,0,0,0,0,0,0,-1,2029,1478,0,0
812,-454,0,0,0,0,0,0,0,0,0,-1,2036,1478,0,0
-700,-461,0,0,0,0,0,0,0,0,0,-1,524,1485,0,0
-693,-461,0,0,0,0,0,0,0,0,0,-1,531,1485,0,0
-686,-461,0,0,0,0,0,0,0,0,0,-1,538,1485,0,0
-679,-461,0,0,0,0,0,0,0,0,0,-1,545,1485,0,0
-672,-461,0,0,0,0,0,0,0,0,0,-1,552,1485,0,0
-665,-461,0,0,0,0,0,0,0,0,0,-1,559,1485,0,0
-658,-461,0,0,0,0,0,0,0,0,0,-1,566,1485,0,0
-651,-461,0,0,0,0,0,0,0,0,0,-1,573,1485,0,0
-644,-461,0,0,0,0,0,0,0,0,0,-1,580,1485,0,0
-637,-461,0,0,0,0,0,0,0,0,0,-1,587,1485,0,0
-630,-461,0,0,0,0,0,0,0,0,0,-1,594,1485,0,0
-623,-461,0,0,0,0,0,0,0,0,0,-1,601,1485,0,0
-616,-461,0,0,0,0,0,0,0,0,0,-1,608,1485,0,0
-609,-461,0,0,0,0,0,0,0,0,0,-1,615,1485,0,0
-602,-461,0,0,0,0,0,0,0,0,0,-1,622,1485,0,0
-595,-461,0,0,0,0,0,0,0,0,0,-1,629,1485,0,0
-588,-461,0,0,0,0,0,0,0,0,0,-1,636,1485,0,0
-581,-461,0,0,0,0,0,0,0,0,0,-1,643,1485,0,0
-574,-461,0,0,0,0,0,0,0,0,0,-1,650,1485,0,0
-567,-461,-9.69031,0.513306,0,0,0,0,0,0,0,-1,657,1485,-9.69032,-0.513305
-560,-461,-7.28815,1.54004,0,0,0,0,0,0,0,-1,664,1485,-7.28817,-1.54005
-553,-461,-11.9607,5.27783,0,0,0,0,0,0,0,-1,671,1485,-11.9607,-5.27778
-546,-461,-11.4215,4.44666,0,0,0,0,0,0,0,-1,678,1485,-11.4215,-4.4467
-539,-461,-9.36493,5.23438,0,0,0,0,0,0,0,-1,685,1485,-9.3649,-5.23432
-532,-461,-7.82898,6.78357,0,0,0,0,0,0,0,-1,692,1485,-7.829,-6.78363
-525,-461,-6.37878,8.75659,0,0,0,0,0,0,0,-1,699,1485,-6.3788,-8.75659
-518,-461,-6.49695,10.886,0,0,0,0,0,0,0,-1,706,1485,-6.49696,-10.8859
-511,-461,-15.8618,21.5214,0,0,0,0,0,0,0,-1,713,1485,-15.8617,-21.5213
-504,-461,-15.5481,22.4384,0.00664958,0.00642992,0.00737039,0.013911,-0.000831454,0.777948,0.00956318,0.0497668,720,1485,-15.5481,-22.4383
-497,-461,-15.4454,23.4327,0.00512592,0.00473284,0.00556845,0.0105013,-0.000642534,0.767758,0.00722457,0.0113766,727,1485,-15.4454,-23.4327
-490,-461,-15.4986,24.2871,0.00385261,0.0034233,0.00408353,0.00772712,-0.000451215,0.759139,0.00530822,0.0127417,734,1485,-15.4986,-24.2871
-483,-461,-15.5587,25.118,0.0027909,0.00235845,0.00283834,0.00542123,-0.000271887,0.747382,0.00370811,0.0124902,741,1485,-15.5587,-25.1181
-476,-461,-15.6264,25.9441,0.00204547,0.00169053,0.00198695,0.00386286,-0.000126856,0.740858,0.00261855,0.0110219,748,1485,-15.6264,-25.9441
-469,-461,-15.6522,26.7834,0.00156444,0.00139261,0.00145014,0.00293121,2.58394e-05,0.755811,0.00194558,0.0128227,755,1485,-15.6522,-26.7835
-462,-461,-15.6718,27.6359,0.00141694,0.00144634,0.00126459,0.00269631,0.000166963,0.79121,0.00174455,0.0194432,762,1485,-15.6718,-27.6358
-455,-461,-15.7692,28.4332,0.00162573,0.00187335,0.0014635,0.00321827,0.000280817,0.827598,0.0020583,0.0247644,769,1485,-15.7692,-28.4333
-448,-461,-15.7838,29.2753,0.00236463,0.00299748,0.0023061,0.00500877,0.000353344,0.853579,0.00322785,0.0215006,776,1485,-15.7838,-29.2752
-441,-461,-15.8391,30.092,0,0,0,0,0,0,0,-1,783,1485,-15.839,-30.092
-434,-461,-15.5404,31.2201,0,0,0,0,0,0,0,-1,790,1485,-15.5404,-31.2202
-427,-461,-8.26154,21.546,0,0,0,0,0,0,0,-1,797,1485,-8.26153,-21.5461
-420,-461,-5.70355,16.6116,0,0,0,0,0,0,0,-1,804,1485,-5.70353,-16.6115
-413,-461,-5.98798,16.0605,0,0,0,0,0,0,0,-1,811,1485,-5.98796,-16.0605
-406,-461,-5.52667,14.839,0,0,0,0,0,0,0,-1,818,1485,-5.52666,-14.839
-399,-461,-1.93439,9.82849,0,0,0,0,0,0,0,-1,825,1485,-1.9344,-9.82846
-392,-461,-0.357544,5.55225,0,0,0,0,0,0,0,-1,832,1485,-0.357536,-5.55228
-385,-461,1.71509,3.35254,0,0,0,0,0,0,0,-1,839,1485,1.71511,-3.35255
-378,-461,1.95996,3.01111,0,0,0,0,0,0,0,-1,846,1485,1.95993,-3.01111
-371,-461,0.702881,2.33459,0,0,0,0,0,0,0,-1,853,1485,0.702859,-2.33459
-364,-461,-1.93097,2.56458,0,0,0,0,0,0,0,-1,860,1485,-1.93095,-2.56456
-357,-461,-2.41516,3.49487,0,0,0,0,0,0,0,-1,867,1485,-2.41517,-3.49487
-350,-461,0,0,0,0,0,0,0,0,0,-1,874,1485,0,0
-343,-461,0,0,0,0,0,0,0,0,0,-1,881,1485,0,0
-336,-461,0,0,0,0,0,0,0,0,0,-1,888,1485,0,0
-329,-461,0,0,0,0,0,0,0,0,0,-1,895,1485,0,0
-322,-461,0,0,0,0,0,0,0,0,0,-1,902,1485,0,0
-315,-461,0,0,0,0,0,0,0,0,0,-1,909,1485,0,0
-308,-461,0,0,0,0,0,0,0,0,0,-1,916,1485,0,0
-301,-461,0,0,0,0,0,0,0,0,0,-1,923,1485,0,0
-294,-461,0,0,0,0,0,0,0,0,0,-1,930,1485,0,0
-287,-461,0,0,0,0,0,0,0,0,0,-1,937,1485,0,0
-280,-461,0,0,0,0,0,0,0,0,0,-1,944,1485,0,0
-273,-461,0,0,0,0,0,0,0,0,0,-1,951,1485,0,0
-266,-461,0,0,0,0,0,0,0,0,0,-1,958,1485,0,0
-259,-461,0,0,0,0,0,0,0,0,0,-1,965,1485,0,0
-252,-461,0,0,0,0,0,0,0,0,0,-1,972,1485,0,0
-245,-461,0,0,0,0,0,0,0,0,0,-1,979,1485,0,0
-238,-461,0,0,0,0,0,0,0,0,0,-1,986,1485,0,0
-231,-461,0,0,0,0,0,0,0,0,0,-1,993,1485,0,0
-224,-461,0,0,0,0,0,0,0,0,0,-1,1000,1485,0,0
-217,-461,0,0,0,0,0,0,0,0,0,-1,1007,1485,0,0
-210,-461,0,0,0,0,0,0,0,0,0,-1,1014,1485,0,0
-203,-461,0,0,0,0,0,0,0,0,0,-1,1021,1485,0,0
-196,-461,0,0,0,0,0,0,0,0,0,-1,1028,1485,0,0
-189,-461,0,0,0,0,0,0,0,0,0,-1,1035,1485,0,0
-182,-461,0,0,0,0,0,0,0,0,0,-1,1042,1485,0,0
-175,-461,0,0,0,0,0,0,0,0,0,-1,1049,1485,0,0
-168,-461,0,0,0,0,0,0,0,0,0,-1,1056,1485,0,0
-161,-461,0,0,0,0,0,0,0,0,0,-1,1063,1485,0,0
-154,-461,0,0,0,0,0,0,0,0,0,-1,1070,1485,0,0
-147,-461,0,0,0,0,0,0,0,0,0,-1,1077,1485,0,0
-140,-461,0,0,0,0,0,0,0,0,0,-1,1084,1485,0,0
-133,-461,0,0,0,0,0,0,0,0,0,-1,1091,1485,0,0
-126,-461,0,0,0,0,0,0,0,0,0,-1,1098,1485,0,0
-119,-461,0,0,0,0,0,0,0,0,0,-1,1105,1485,0,0
-112,-461,0,0,0,0,0,0,0,0,0,-1,1112,1485,0,0
-105,-461,0,0,0,0,0,0,0,0,0,-1,1119,1485,0,0
-98,-461,0,0,0,0,0,0,0,0,0,-1,1126,1485,0,0
-91,-461,0,0,0,0,0,0,0,0,0,-1,1133,1485,0,0
-84,-461,0,0,0,0,0,0,0,0,0,-1,1140,1485,0,0
-77,-461,0,0,0,0,0,0,0,0,0,-1,1147,1485,0,0
-70,-461,0,0,0,0,0,0,0,0,0,-1,1154,1485,0,0
-63,-461,0,0,0,0,0,0,0,0,0,-1,1161,1485,0,0
-56,-461,0,0,0,0,0,0,0,0,0,-1,1168,1485,0,0
-49,-461,0,0,0,0,0,0,0,0,0,-1,1175,1485,0,0
-42,-461,0,0,0,0,0,0,0,0,0,-1,1182,1485,0,0
-35,-461,0,0,0,0,0,0,0,0,0,-1,1189,1485,0,0
-28,-461,0,0,0,0,0,0,0,0,0,-1,1196,1485,0,0
-21,-461,0,0,0,0,0,0,0,0,0,-1,1203,1485,0,0
-14,-461,0,0,0,0,0,0,0,0,0,-1,1210,1485,0,0
-7,-461,0,0,0,0,0,0,0,0,0,-1,1217,1485,0,0
0,-461,0,0,0,0,0,0,0,0,0,-1,1224,1485,0,0
7,-461,0,0,0,0,0,0,0,0,0,-1,1231,1485,0,0
14,-461,0,0,0,0,0,0,0,0,0,-1,1238,1485,0,0
21,-461,0,0,0,0,0,0,0,0,0,-1,1245,1485,0,0
28,-461,0,0,0,0,0,0,0,0,0,-1,1252,1485,0,0
35,-461,0,0,0,0,0,0,0,0,0,-1,1259,1485,0,0
42,-461,0,0,0,0,0,0,0,0,0,-1,1266,1485,0,0
49,-461,0,0,0,0,0,0,0,0,0,-1,1273,1485,0,0
56,-461,0,0,0,0,0,0,0,0,0,-1,1280,1485,0,0
63,-461,0,0,0,0,0,0,0,0,0,-1,1287,1485,0,0
70,-461,0,0,0,0,0,0,0,0,0,-1,1294,1485,0,0
77,-461,0,0,0,0,0,0,0,0,0,-1,1301,1485,0,0
84,-461,0,0,0,0,0,0,0,0,0,-1,1308,1485,0,0
91,-461,0,0,0,0,0,0,0,0,0,-1,1315,1485,0,0
98,-461,0,0,0,0,0,0,0,0,0,-1,1322,1485,0,0
105,-461,0,0,0,0,0,0,0,0,0,-1,1329,1485,0,0
112,-461,0,0,0,0,0,0,0,0,0,-1,1336,1485,0,0
119,-461,0,0,0,0,0,0,0,0,0,-1,1343,1485,0,0
126,-461,0,0,0,0,0,0,0,0,0,-1,1350,1485,0,0
133,-461,0,0,0,0,0,0,0,0,0,-1,1357,1485,0,0
140,-461,0,0,0,0,0,0,0,0,0,-1,1364,1485,0,0
147,-461,0,0,0,0,0,0,0,0,0,-1,1371,1485,0,0
154,-461,0,0,0,0,0,0,0,0,0,-1,1378,1485,0,0
161,-461,0,0,0,0,0,0,0,0,0,-1,1385,1485,0,0
168,-461,0,0,0,0,0,0,0,0,0,-1,1392,1485,0,0
175,-461,0,0,0,0,0,0,0,0,0,-1,1399,1485,0,0
182,-461,0,0,0,0,0,0,0,0,0,-1,1406,1485,0,0
189,-461,0,0,0,0,0,0,0,0,0,-1,1413,1485,0,0
196,-461,0,0,0,0,0,0,0,0,0,-1,1420,1485,0,0
203,-461,0,0,0,0,0,0,0,0,0,-1,1427,1485,0,0
210,-461,0,0,0,0,0,0,0,0,0,-1,1434,1485,0,0
217,-461,0,0,0,0,0,0,0,0,0,-1,1441,1485,0,0
224,-461,0,0,0,0,0,0,0,0,0,-1,1448,1485,0,0
231,-461,0,0,0,0,0,0,0,0,0,-1,1455,1485,0,0
238,-461,0,0,0,0,0,0,0,0,0,-1,1462,1485,0,0
245,-461,0,0,0,0,0,0,0,0,0,-1,1469,1485,0,0
252,-461,0,0,0,0,0,0,0,0,0,-1,1476,1485,0,0
259,-461,0,0,0,0,0,0,0,0,0,-1,1483,1485,0,0
266,-461,0,0,0,0,0,0,0,0,0,-1,1490,1485,0,0
273,-461,0,0,0,0,0,0,0,0,0,-1,1497,1485,0,0
280,-461,0,0,0,0,0,0,0,0,0,-1,1504,1485,0,0
287,-461,0,0,0,0,0,0,0,0,0,-1,1511,1485,0,0
294,-461,0,0,0,0,0,0,0,0,0,-1,1518,1485,0,0
301,-461,0,0,0,0,0,0,0,0,0,-1,1525,1485,0,0
308,-461,0,0,0,0,0,0,0,0,0,-1,1532,1485,0,0
315,-461,0,0,0,0,0,0,0,0,0,-1,1539,1485,0,0
322,-461,0,0,0,0,0,0,0,0,0,-1,1546,1485,0,0
329,-461,0,0,0,0,0,0,0,0,0,-1,1553,1485,0,0
336,-461,0,0,0,0,0,0,0,0,0,-1,1560,1485,0,0
343,-461,0,0,0,0,0,0,0,0,0,-1,1567,1485,0,0
350,-461,0,0,0,0,0,0,0,0,0,-1,1574,1485,0,0
357,-461,0,0,0,0,0,0,0,0,0,-1,1581,1485,0,0
364,-461,0,0,0,0,0,0,0,0,0,-1,1588,1485,0,0
371,-461,0,0,0,0,0,0,0,0,0,-1,1595,1485,0,0
378,-461,0,0,0,0,0,0,0,0,0,-1,1602,1485,0,0
385,-461,0,0,0,0,0,0,0,0,0,-1,1609,1485,0,0
392,-461,0,0,0,0,0,0,0,0,0,-1,1616,1485,0,0
399,-461,0,0,0,0,0,0,0,0,0,-1,1623,1485,0,0
406,-461,0,0,0,0,0,0,0,0,0,-1,1630,1485,0,0
413,-461,0,0,0,0,0,0,0,0,0,-1,1637,1485,0,0
420,-461,0,0,0,0,0,0,0,0,0,-1,1644,1485,0,0
427,-461,0,0,0,0,0,0,0,0,0,-1,1651,1485,0,0
434,-461,0,0,0,0,0,0,0,0,0,-1,1658,1485,0,0
441,-461,0,0,0,0,0,0,0,0,0,-1,1665,1485,0,0
448,-461,0,0,0,0,0,0,0,0,0,-1,1672,1485,0,0
455,-461,0,0,0,0,0,0,0,0,0,-1,1679,1485,0,0
462,-461,0,0,0,0,0,0,0,0,0,-1,1686,1485,0,0
469,-461,0,0,0,0,0,0,0,0,0,-1,1693,1485,0,0
476,-461,14.1906,0.690552,0,0,0,0,0,0,0,-1,1700,1485,14.1906,-0.690525
483,-461,10.6361,3.09106,0,0,0,0,0,0,0,-1,1707,1485,10.6361,-3.091
490,-461,17.9972,0.665894,0,0,0,0,0,0,0,-1,1714,1485,17.9972,-0.665876
497,-461,16.6829,1.87732,0,0,0,0,0,0,0,-1,1721,1485,16.6828,-1.87736
504,-461,15.3884,3.09216,0,0,0,0,0,0,0,-1,1728,1485,15.3885,-3.09212
511,-461,15.4292,14.3512,0,0,0,0,0,0,0,-1,1735,1485,15.4292,-14.3512
518,-461,14.8081,10.0085,0,0,0,0,0,0,0,-1,1742,1485,14.8081,-10.0086
525,-461,14.0022,10.8033,0,0,0,0,0,0,0,-1,1749,1485,14.0022,-10.8033
532,-461,17.1704,14.077,0,0,0,0,0,0,0,-1,1756,1485,17.1704,-14.077
539,-461,17.0229,14.7386,0,0,0,0,0,0,0,-1,1763,1485,17.0229,-14.7387
546,-461,16.2106,14.1372,0,0,0,0,0,0,0,-1,1770,1485,16.2106,-14.1372
553,-461,25.9354,24.2889,0,0,0,0,0,0,0,-1,1777,1485,25.9354,-24.2889
560,-461,32.8524,31.5922,0,0,0,0,0,0,0,-1,1784,1485,32.8524,-31.5921
567,-461,32.9241,30.6606,0.0106608,0.00464958,-0.00472574,0.0132557,0.00205462,-0.502161,0.00823814,0.0395042,1791,1485,32.9241,-30.6606
574,-461,32.9674,29.9576,0.00819426,0.00342901,-0.00367306,0.0101898,0.00143348,-0.497676,0.00636937,0.0339509,1798,1485,32.9674,-29.9576
581,-461,32.9282,29.129,0.00624308,0.00250094,-0.0028515,0.00778258,0.000961443,-0.495048,0.00489945,0.0191582,1805,1485,32.9282,-29.1291
588,-461,32.8792,28.3298,0.00472359,0.00178781,-0.00217606,0.00588057,0.000630835,-0.488674,0.00372794,0.0110607,1812,1485,32.8791,-28.3299
595,-461,32.7911,27.5439,0.00360904,0.00118113,-0.00158075,0.00438819,0.00040198,-0.457949,0.00280109,0.00908679,1819,1485,32.7911,-27.5439
602,-461,32.748,26.7394,0.00278739,0.000645123,-0.00101336,0.00319079,0.000241731,-0.378845,0.00205137,0.0105688,1826,1485,32.748,-26.7394
609,-461,32.7328,25.916,0.00221978,0.000260381,-0.00045616,0.00232077,0.000159389,-0.217881,0.00149688,0.0127692,1833,1485,32.7328,-25.916
616,-461,32.7095,25.1077,0.00182747,-0.000122753,0.000130527,0.00183617,-0.00013145,0.0665338,0.0012702,0.0143414,1840,1485,32.7095,-25.1077
623,-461,32.6865,24.3428,0.00170642,-0.000452646,0.000708654,0.00191823,-0.000664462,0.290446,0.00154858,0.0177681,1847,1485,32.6865,-24.3427
630,-461,32.6375,23.5696,0.00173923,-0.000809614,0.00138799,0.00234913,-0.00141951,0.414013,0.00219778,0.0186069,1854,1485,32.6375,-23.5696
637,-461,32.5778,22.726,0.00186767,-0.00112276,0.00207601,0.00293087,-0.00218595,0.47331,0.00296462,0.0175063,1861,1485,32.5778,-22.726
644,-461,32.7015,22.0087,0.00199551,-0.00131113,0.00274295,0.00354488,-0.0028605,0.514178,0.00370518,0.0419769,1868,1485,32.7015,-22.0087
651,-461,32.9182,21.2177,0,0,0,0,0,0,0,-1,1875,1485,32.9182,-21.2176
658,-461,16.8987,10.1084,0,0,0,0,0,0,0,-1,1882,1485,16.8986,-10.1084
665,-461,17.2638,9.81384,0,0,0,0,0,0,0,-1,1889,1485,17.2638,-9.81385
672,-461,14.4877,6.89429,0,0,0,0,0,0,0,-1,1896,1485,14.4876,-6.89431
679,-461,10.0535,2.16321,0,0,0,0,0,0,0,-1,1903,1485,10.0535,-2.16317
686,-461,10.8195,1.84192,0,0,0,0,0,0,0,-1,1910,1485,10.8194,-1.84195
693,-461,0,0,0,0,0,0,0,0,0,-1,1917,1485,0,0
700,-461,0,0,0,0,0,0,0,0,0,-1,1924,1485,0,0
707,-461,0,0,0,0,0,0,0,0,0,-1,1931,1485,0,0
714,-461,0,0,0,0,0,0,0,0,0,-1,1938,1485,0,0
721,-461,0,0,0,0,0,0,0,0,0,-1,1945,1485,0,0
728,-461,0,0,0,0,0,0,0,0,0,-1,1952,1485,0,0
735,-461,0,0,0,0,0,0,0,0,0,-1,1959,1485,0,0
742,-461,0,0,0,0,0,0,0,0,0,-1,1966,1485,0,0
749,-461,0,0,0,0,0,0,0,0,0,-1,1973,1485,0,0
756,-461,0,0,0,0,0,0,0,0,0,-1,1980,1485,0,0
763,-461,0,0,0,0,0,0,0,0,0,-1,1987,1485,0,0
770,-461,0,0,0,0,0,0,0,0,0,-1,1994,1485,0,0
777,-461,0,0,0,0,0,0,0,0,0,-1,2001,1485,0,0
784,-461,0,0,0,0,0,0,0,0,0,-1,2008,1485,0,0
791,-461,0,0,0,0,0,0,0,0,0,-1,2015,1485,0,0
798,-461,0,0,0,0,0,0,0,0,0,-1,2022,1485,0,0
805,-461,0,0,0,0,0,0,0,0,0,-1,2029,1485,0,0
812,-461,0,0,0,0,0,0,0,0,0,-1,2036,1485,0,0
-700,-468,0,0,0,0,0,0,0,0,0,-1,524,1492,0,0
-693,-468,0,0,0,0,0,0,0,0,0,-1,531,1492,0,0
-686,-468,0,0,0,0,0,0,0,0,0,-1,538,1492,0,0
-679,-468,0,0,0,0,0,0,0,0,0,-1,545,1492,0,0
-672,-468,0,0,0,0,0,0,0,0,0,-1,552,1492,0,0
-665,-468,0,0,0,0,0,0,0,0,0,-1,559,1492,0,0
-658,-468,0,0,0,0,0,0,0,0,0,-1,566,1492,0,0
-651,-468,0,0,0,0,0,0,0,0,0,-1,573,1492,0,0
-644,-468,0,0,0,0,0,0,0,0,0,-1,580,1492,0,0
-637,-468,0,0,0,0,0,0,0,0,0,-1,587,1492,0,0
-630,-468,0,0,0,0,0,0,0,0,0,-1,594,1492,0,0
-623,-468,0,0,0,0,0,0,0,0,0,-1,601,1492,0,0
-616,-468,0,0,0,0,0,0,0,0,0,-1,608,1492,0,0
-609,-468,0,0,0,0,0,0,0,0,0,-1,615,1492,0,0
-602,-468,0,0,0,0,0,0,0,0,0,-1,622,1492,0,0
-595,-468,0,0,0,0,0,0,0,0,0,-1,629,1492,0,0
-588,-468,0,0,0,0,0,0,0,0,0,-1,636,1492,0,0
-581,-468,0,0,0,0,0,0,0,0,0,-1,643,1492,0,0
-574,-468,0,0,0,0,0,0,0,0,0,-1,650,1492,0,0
-567,-468,-11.2603,1.8042,0,0,0,0,0,0,0,-1,657,1492,-11.2603,-1.80424
-560,-468,-8.77441,2.23694,0,0,0,0,0,0,0,-1,664,1492,-8.77443,-2.23692
-553,-468,-5.94061,9.26318,0,0,0,0,0,0,0,-1,671,1492,-5.94062,-9.26322
-546,-468,-10.47,5.43237,0,0,0,0,0,0,0,-1,678,1492,-10.47,-5.4324
-539,-468,-10.2468,5.45203,0,0,0,0,0,0,0,-1,685,1492,-10.2468,-5.45197
-532,-468,-8.39795,6.02783,0,0,0,0,0,0,0,-1,692,1492,-8.39793,-6.02789
-525,-468,-6.59332,7.15405,0,0,0,0,0,0,0,-1,699,1492,-6.59331,-7.15411
-518,-468,-6.33588,8.65393,0,0,0,0,0,0,0,-1,706,1492,-6.33588,-8.65397
-511,-468,-8.05835,13.8282,0,0,0,0,0,0,0,-1,713,1492,-8.05835,-13.8283
-504,-468,-14.6879,22.3123,0,0,0,0,0,0,0,-1,720,1492,-14.6879,-22.3122
-497,-468,-14.6647,23.3715,0.00579499,0.00563676,0.00650409,0.0122204,-0.000788701,0.779317,0.00842218,0.0348803,727,1492,-14.6647,-23.3715
-490,-468,-14.6656,24.348,0.00431613,0.00405222,0.00480539,0.00899138,-0.000623031,0.771672,0.00621235,0.0087603,734,1492,-14.6657,-24.348
-483,-468,-14.7276,25.1797,0.00307412,0.00272825,0.00334479,0.00625045,-0.000448073,0.75957,0.00432407,0.00947158,741,1492,-14.7276,-25.1797
-476,-468,-14.768,26.012,0.00224507,0.00187207,0.00234477,0.00441075,-0.00029361,0.745712,0.00304309,0.0100639,748,1492,-14.768,-26.0119
-469,-468,-14.7961,26.8586,0.00174641,0.00145326,0.00173656,0.00334257,-0.000142903,0.743296,0.00227751,0.0137082,755,1492,-14.7961,-26.8586
-462,-468,-14.7939,27.7078,0.00159053,0.00142521,0.00149241,0.00300256,1.31776e-05,0.757734,0.00199733,0.0241393,762,1492,-14.794,-27.7078
-455,-468,-14.8751,28.4729,0.0017843,0.00177433,0.00162248,0.00340181,0.000156824,0.783863,0.00221745,0.0266518,769,1492,-14.8751,-28.4729
-448,-468,-14.948,29.33,0.0024546,0.00277246,0.00231183,0.00493082,0.000296251,0.819717,0.00319305,0.0152071,776,1492,-14.948,-29.3299
-441,-468,-15.006,30.1409,0.00349409,0.00417117,0.00338001,0.00722955,0.000435707,0.835312,0.00468123,0.0161774,783,1492,-15.006,-30.1409
-434,-468,-14.9312,31.0996,0.00497592,0.00603074,0.00492435,0.0104558,0.000550819,0.838746,0.0067944,0.0455122,790,1492,-14.9311,-31.0996
-427,-468,-14.8995,32.1177,0,0,0,0,0,0,0,-1,797,1492,-14.8995,-32.1177
-420,-468,-7.57581,22.0538,0,0,0,0,0,0,0,-1,804,1492,-7.57582,-22.0538
-413,-468,-5.30328,17.3519,0,0,0,0,0,0,0,-1,811,1492,-5.30329,-17.352
-406,-468,-2.2356,9.396,0,0,0,0,0,0,0,-1,818,1492,-2.2356,-9.396
-399,-468,-0.940369,8.1936,0,0,0,0,0,0,0,-1,825,1492,-0.940365,-8.19357
-392,-468,-0.35144,8.14673,0,0,0,0,0,0,0,-1,832,1492,-0.351449,-8.14674
-385,-468,0.465759,5.35864,0,0,0,0,0,0,0,-1,839,1492,0.465732,-5.35864
-378,-468,1.99835,3.25391,0,0,0,0,0,0,0,-1,846,1492,1.99837,-3.2539
-371,-468,-0.31842,3.1532,0,0,0,0,0,0,0,-1,853,1492,-0.318441,-3.15324
-364,-468,-0.966736,2.14563,0,0,0,0,0,0,0,-1,860,1492,-0.966735,-2.14557
-357,-468,-3.06787,3.22742,0,0,0,0,0,0,0,-1,867,1492,-3.06784,-3.2274
-350,-468,-3.18658,4.12659,0,0,0,0,0,0,0,-1,874,1492,-3.18659,-4.12658
-343,-468,0,0,0,0,0,0,0,0,0,-1,881,1492,0,0
-336,-468,0,0,0,0,0,0,0,0,0,-1,888,1492,0,0
-329,-468,0,0,0,0,0,0,0,0,0,-1,895,1492,0,0
-322,-468,0,0,0,0,0,0,0,0,0,-1,902,1492,0,0
-315,-468,0,0,0,0,0,0,0,0,0,-1,909,1492,0,0
-308,-468,0,0,0,0,0,0,0,0,0,-1,916,1492,0,0
-301,-468,0,0,0,0,0,0,0,0,0,-1,923,1492,0,0
-294,-468,0,0,0,0,0,0,0,0,0,-1,930,1492,0,0
-287,-468,0,0,0,0,0,0,0,0,0,-1,937,1492,0,0
-280,-468,0,0,0,0,0,0,0,0,0,-1,944,1492,0,0
-273,-468,0,0,0,0,0,0,0,0,0,-1,951,1492,0,0
-266,-468,0,0,0,0,0,0,0,0,0,-1,958,1492,0,0
-259,-468,0,0,0,0,0,0,0,0,0,-1,965,1492,0,0
-252,-468,0,0,0,0,0,0,0,0,0,-1,972,1492,0,0
-245,-468,0,0,0,0,0,0,0,0,0,-1,979,1492,0,0
-238,-468,0,0,0,0,0,0,0,0,0,-1,986,1492,0,0
-231,-468,0,0,0,0,0,0,0,0,0,-1,993,1492,0,0
-224,-468,0,0,0,0,0,0,0,0,0,-1,1000,1492,0,0
-217,-468,0,0,0,0,0,0,0,0,0,-1,1007,1492,0,0
-210,-468,0,0,0,0,0,0,0,0,0,-1,1014,1492,0,0
-203,-468,0,0,0,0,0,0,0,0,0,-1,1021,1492,0,0
-196,-468,0,0,0,0,0,0,0,0,0,-1,1028,1492,0,0
-189,-468,0,0,0,0,0,0,0,0,0,-1,1035,1492,0,0
-182,-468,0,0,0,0,0,0,0,0,0,-1,1042,1492,0,0
-175,-468,0,0,0,0,0,0,0,0,0,-1,1049,1492,0,0
-168,-468,0,0,0,0,0,0,0,0,0,-1,1056,1492,0,0
-161,-468,0,0,0,0,0,0,0,0,0,-1,1063,1492,0,0
-154,-468,0,0,0,0,0,0,0,0,0,-1,1070,1492,0,0
-147,-468,0,0,0,0,0,0,0,0,0,-1,1077,1492,0,0
-140,-468,0,0,0,0,0,0,0,0,0,-1,1084,1492,0,0
-133,-468,0,0,0,0,0,0,0,0,0,-1,1091,1492,0,0
-126,-468,0,0,0,0,0,0,0,0,0,-1,1098,1492,0,0
-119,-468,0,0,0,0,0,0,0,0,0,-1,1105,1492,0,0
-112,-468,0,0,0,0,0,0,0,0,0,-1,1112,1492,0,0
-105,-468,0,0,0,0,0,0,0,0,0,-1,1119,1492,0,0
-98,-468,0,0,0,0,0,0,0,0,0,-1,1126,1492,0,0
-91,-468,0,0,0,0,0,0,0,0,0,-1,1133,1492,0,0
-84,-468,0,0,0,0,0,0,0,0,0,-1,1140,1492,0,0
-77,-468,0,0,0,0,0,0,0,0,0,-1,1147,1492,0,0
-70,-468,0,0,0,0,0,0,0,0,0,-1,1154,1492,0,0
-63,-468,0,0,0,0,0,0,0,0,0,-1,1161,1492,0,0
-56,-468,0,0,0,0,0,0,0,0,0,-1,1168,1492,0,0
-49,-468,0,0,0,0,0,0,0,0,0,-1,1175,1492,0,0
-42,-468,0,0,0,0,0,0,0,0,0,-1,1182,1492,0,0
-35,-468,0,0,0,0,0,0,0,0,0,-1,1189,1492,0,0
-28,-468,0,0,0,0,0,0,0,0,0,-1,1196,1492,0,0
-21,-468,0,0,0,0,0,0,0,0,0,-1,1203,1492,0,0
-14,-468,0,0,0,0,0,0,0,0,0,-1,1210,1492,0,0
-7,-468,0,0,0,0,0,0,0,0,0,-1,1217,1492,0,0
0,-468,0,0,0,0,0,0,0,0,0,-1,1224,1492,0,0
7,-468,0,0,0,0,0,0,0,0,0,-1,1231,1492,0,0
14,-468,0,0,0,0,0,0,0,0,0,-1,1238,1492,0,0
21,-468,0,0,0,0,0,0,0,0,0,-1,1245,1492,0,0
28,-468,0,0,0,0,0,0,0,0,0,-1,1252,1492,0,0
35,-468,0,0,0,0,0,0,0,0,0,-1,1259,1492,0,0
42,-468,0,0,0,0,0,0,0,0,0,-1,1266,1492,0,0
49,-468,0,0,0,0,0,0,0,0,0,-1,1273,1492,0,0
56,-468,0,0,0,0,0,0,0,0,0,-1,1280,1492,0,0
63,-468,0,0,0,0,0,0,0,0,0,-1,1287,1492,0,0
70,-468,0,0,0,0,0,0,0,0,0,-1,1294,1492,0,0
77,-468,0,0,0,0,0,0,0,0,0,-1,1301,1492,0,0
84,-468,0,0,0,0,0,0,0,0,0,-1,1308,1492,0,0
91,-468,0,0,0,0,0,0,0,0,0,-1,1315,1492,0,0
98,-468,0,0,0,0,0,0,0,0,0,-1,1322,1492,0,0
105,-468,0,0,0,0,0,0,0,0,0,-1,1329,1492,0,0
112,-468,0,0,0,0,0,0,0,0,0,-1,1336,1492,0,0
119,-468,0,0,0,0,0,0,0,0,0,-1,1343,1492,0,0
126,-468,0,0,0,0,0,0,0,0,0,-1,1350,1492,0,0
133,-468,0,0,0,0,0,0,0,0,0,-1,1357,1492,0,0
140,-468,0,0,0,0,0,0,0,0,0,-1,1364,1492,0,0
147,-468,0,0,0,0,0,0,0,0,0,-1,1371,1492,0,0
154,-468,0,0,0,0,0,0,0,0,0,-1,1378,1492,0,0
161,-468,0,0,0,0,0,0,0,0,0,-1,1385,1492,0,0
168,-468,0,0,0,0,0,0,0,0,0,-1,1392,1492,0,0
175,-468,0,0,0,0,0,0,0,0,0,-1,1399,1492,0,0
182,-468,0,0,0,0,0,0,0,0,0,-1,1406,1492,0,0
189,-468,0,0,0,0,0,0,0,0,0,-1,1413,1492,0,0
196,-468,0,0,0,0,0,0,0,0,0,-1,1420,1492,0,0
203,-468,0,0,0,0,0,0,0,0,0,-1,1427,1492,0,0
210,-468,0,0,0,0,0,0,0,0,0,-1,1434,1492,0,0
217,-468,0,0,0,0,0,0,0,0,0,-1,1441,1492,0,0
224,-468,0,0,0,0,0,0,0,0,0,-1,1448,1492,0,0
231,-468,0,0,0,0,0,0,0,0,0,-1,1455,1492,0,0
238,-468,0,0,0,0,0,0,0,0,0,-1,1462,1492,0,0
245,-468,0,0,0,0,0,0,0,0,0,-1,1469,1492,0,0
252,-468,0,0,0,0,0,0,0,0,0,-1,1476,1492,0,0
259,-468,0,0,0,0,0,0,0,0,0,-1,1483,1492,0,0
266,-468,0,0,0,0,0,0,0,0,0,-1,1490,1492,0,0
273,-468,0,0,0,0,0,0,0,0,0,-1,1497,1492,0,0
280,-468,0,0,0,0,0,0,0,0,0,-1,1504,1492,0,0
287,-468,0,0,0,0,0,0,0,0,0,-1,1511,1492,0,0
294,-468,0,0,0,0,0,0,0,0,0,-1,1518,1492,0,0
301,-468,0,0,0,0,0,0,0,0,0,-1,1525,1492,0,0
308,-468,0,0,0,0,0,0,0,0,0,-1,1532,1492,0,0
315,-468,0,0,0,0,0,0,0,0,0,-1,1539,1492,0,0
322,-468,0,0,0,0,0,0,0,0,0,-1,1546,1492,0,0
329,-468,0,0,0,0,0,0,0,0,0,-1,1553,1492,0,0
336,-468,0,0,0,0,0,0,0,0,0,-1,1560,1492,0,0
343,-468,0,0,0,0,0,0,0,0,0,-1,1567,1492,0,0
350,-468,0,0,0,0,0,0,0,0,0,-1,1574,1492,0,0
357,-468,0,0,0,0,0,0,0,0,0,-1,1581,1492,0,0
364,-468,0,0,0,0,0,0,0,0,0,-1,1588,1492,0,0
371,-468,0,0,0,0,0,0,0,0,0,-1,1595,1492,0,0
378,-468,0,0,0,0,0,0,0,0,0,-1,1602,1492,0,0
385,-468,0,0,0,0,0,0,0,0,0,-1,1609,1492,0,0
392,-468,0,0,0,0,0,0,0,0,0,-1,1616,1492,0,0
399,-468,0,0,0,0,0,0,0,0,0,-1,1623,1492,0,0
406,-468,0,0,0,0,0,0,0,0,0,-1,1630,1492,0,0
413,-468,0,0,0,0,0,0,0,0,0,-1,1637,1492,0,0
420,-468,0,0,0,0,0,0,0,0,0,-1,1644,1492,0,0
427,-468,0,0,0,0,0,0,0,0,0,-1,1651,1492,0,0
434,-468,0,0,0,0,0,0,0,0,0,-1,1658,1492,0,0
441,-468,0,0,0,0,0,0,0,0,0,-1,1665,1492,0,0
448,-468,0,0,0,0,0,0,0,0,0,-1,1672,1492,0,0
455,-468,0,0,0,0,0,0,0,0,0,-1,1679,1492,0,0
462,-468,0,0,0,0,0,0,0,0,0,-1,1686,1492,0,0
469,-468,15.6879,1.2677,0,0,0,0,0,0,0,-1,1693,1492,15.6879,-1.26772
476,-468,14.9318,1.61865,0,0,0,0,0,0,0,-1,1700,1492,14.9318,-1.61869
483,-468,11.265,4.64795,0,0,0,0,0,0,0,-1,1707,1492,11.265,-4.64798
490,-468,12.1316,3.51624,0,0,0,0,0,0,0,-1,1714,1492,12.1316,-3.51628
497,-468,16.5355,3.14587,0,0,0,0,0,0,0,-1,1721,1492,16.5356,-3.14583
504,-468,15.0642,4.10437,0,0,0,0,0,0,0,-1,1728,1492,15.0643,-4.10431
511,-468,15.6877,9.4801,0,0,0,0,0,0,0,-1,1735,1492,15.6878,-9.48007
518,-468,13.759,11.0887,0,0,0,0,0,0,0,-1,1742,1492,13.759,-11.0887
525,-468,16.6531,14.2238,0,0,0,0,0,0,0,-1,1749,1492,16.653,-14.2237
532,-468,16.9696,15.9641,0,0,0,0,0,0,0,-1,1756,1492,16.9696,-15.9641
539,-468,21.5308,20.7551,0,0,0,0,0,0,0,-1,1763,1492,21.5308,-20.7551
546,-468,25.5796,25.0283,0,0,0,0,0,0,0,-1,1770,1492,25.5796,-25.0284
553,-468,31.8678,31.5677,0,0,0,0,0,0,0,-1,1777,1492,31.8678,-31.5678
560,-468,31.8467,31.7954,0,0,0,0,0,0,0,-1,1784,1492,31.8467,-31.7954
567,-468,32.1168,30.816,0.00930362,0.00456577,-0.0043827,0.0119166,0.00195274,-0.537631,0.00738014,0.0276834,1791,1492,32.1168,-30.8161
574,-468,32.1732,29.9805,0.00714523,0.00326342,-0.00332448,0.00905391,0.00135474,-0.521179,0.00563887,0.0173313,1798,1492,32.1733,-29.9805
581,-468,32.1478,29.1991,0.00540559,0.00227586,-0.00248918,0.00678093,0.000900518,-0.504782,0.00425235,0.017007,1805,1492,32.1479,-29.1992
588,-468,32.0668,28.4026,0.00408541,0.00151631,-0.00182991,0.00503662,0.000565093,-0.479374,0.00318613,0.0132552,1812,1492,32.0667,-28.4026
595,-468,31.9974,27.5833,0.0031466,0.000879043,-0.00121672,0.00367591,0.000349732,-0.410336,0.00234274,0.0110781,1819,1492,31.9974,-27.5832
602,-468,31.9575,26.7765,0.0024393,0.000350152,-0.000666782,0.00263398,0.000155479,-0.284063,0.00170652,0.00994777,1826,1492,31.9575,-26.7764
609,-468,31.9111,25.9607,0.00195934,-1.99861e-05,-0.000107932,0.00196521,-2.58543e-05,-0.054315,0.00131884,0.0109237,1833,1492,31.9111,-25.9607
616,-468,31.8682,25.1545,0.00165707,-0.000371663,0.000499687,0.00177347,-0.000488061,0.228859,0.0013742,0.011116,1840,1492,31.8681,-25.1545
623,-468,31.8402,24.3688,0.0015991,-0.000743175,0.00119348,0.00210008,-0.00124415,0.397423,0.00195175,0.0125436,1847,1492,31.8403,-24.3688
630,-468,31.8246,23.5581,0.00163145,-0.00112542,0.00205938,0.00273115,-0.00222511,0.490471,0.00286647,0.0132964,1854,1492,31.8246,-23.5581
637,-468,31.8173,22.6982,0.00171796,-0.00149605,0.00299822,0.00351269,-0.00329078,0.539388,0.00392868,0.0239604,1861,1492,31.8173,-22.6982
644,-468,31.6729,22.085,0.00170714,-0.00177349,0.00404235,0.00436788,-0.00443423,0.582129,0.00508195,0.0411202,1868,1492,31.6729,-22.085
651,-468,31.6857,21.3503,0,0,0,0,0,0,0,-1,1875,1492,31.6857,-21.3503
658,-468,16.4969,10.0774,0,0,0,0,0,0,0,-1,1882,1492,16.497,-10.0774
665,-468,15.4673,8.59546,0,0,0,0,0,0,0,-1,1889,1492,15.4672,-8.59548
672,-468,9.96814,3.61133,0,0,0,0,0,0,0,-1,1896,1492,9.96817,-3.61139
679,-468,11.2191,1.91968,0,0,0,0,0,0,0,-1,1903,1492,11.2191,-1.91965
686,-468,11.9252,1.42285,0,0,0,0,0,0,0,-1,1910,1492,11.9252,-1.42291
693,-468,0,0,0,0,0,0,0,0,0,-1,1917,1492,0,0
700,-468,0,0,0,0,0,0,0,0,0,-1,1924,1492,0,0
707,-468,0,0,0,0,0,0,0,0,0,-1,1931,1492,0,0
714,-468,0,0,0,0,0,0,0,0,0,-1,1938,1492,0,0
721,-468,0,0,0,0,0,0,0,0,0,-1,1945,1492,0,0
728,-468,0,0,0,0,0,0,0,0,0,-1,1952,1492,0,0
735,-468,0,0,0,0,0,0,0,0,0,-1,1959,1492,0,0
742,-468,0,0,0,0,0,0,0,0,0,-1,1966,1492,0,0
749,-468,0,0,0,0,0,0,0,0,0,-1,1973,1492,0,0
756,-468,0,0,0,0,0,0,0,0,0,-1,1980,1492,0,0
763,-468,0,0,0,0,0,0,0,0,0,-1,1987,1492,0,0
770,-468,0,0,0,0,0,0,0,0,0,-1,1994,1492,0,0
777,-468,0,0,0,0,0,0,0,0,0,-1,2001,1492,0,0
784,-468,0,0,0,0,0,0,0,0,0,-1,2008,1492,0,0
791,-468,0,0,0,0,0,0,0,0,0,-1,2015,1492,0,0
798,-468,0,0,0,0,0,0,0,0,0,-1,2022,1492,0,0
805,-468,0,0,0,0,0,0,0,0,0,-1,2029,1492,0,0
812,-468,0,0,0,0,0,0,0,0,0,-1,2036,1492,0,0
-700,-475,0,0,0,0,0,0,0,0,0,-1,524,1499,0,0
-693,-475,0,0,0,0,0,0,0,0,0,-1,531,1499,0,0
-686,-475,0,0,0,0,0,0,0,0,0,-1,538,1499,0,0
-679,-475,0,0,0,0,0,0,0,0,0,-1,545,1499,0,0
-672,-475,0,0,0,0,0,0,0,0,0,-1,552,1499,0,0
-665,-475,0,0,0,0,0,0,0,0,0,-1,559,1499,0,0
-658,-475,0,0,0,0,0,0,0,0,0,-1,566,1499,0,0
-651,-475,0,0,0,0,0,0,0,0,0,-1,573,1499,0,0
-644,-475,0,0,0,0,0,0,0,0,0,-1,580,1499,0,0
-637,-475,0,0,0,0,0,0,0,0,0,-1,587,1499,0,0
-630,-475,0,0,0,0,0,0,0,0,0,-1,594,1499,0,0
-623,-475,0,0,0,0,0,0,0,0,0,-1,601,1499,0,0
-616,-475,0,0,0,0,0,0,0,0,0,-1,608,1499,0,0
-609,-475,0,0,0,0,0,0,0,0,0,-1,615,1499,0,0
-602,-475,0,0,0,0,0,0,0,0,0,-1,622,1499,0,0
-595,-475,0,0,0,0,0,0,0,0,0,-1,629,1499,0,0
-588,-475,0,0,0,0,0,0,0,0,0,-1,636,1499,0,0
-581,-475,0,0,0,0,0,0,0,0,0,-1,643,1499,0,0
-574,-475,0,0,0,0,0,0,0,0,0,-1,650,1499,0,0
-567,-475,0,0,0,0,0,0,0,0,0,-1,657,1499,0,0
-560,-475,-9.42731,9.29517,0,0,0,0,0,0,0,-1,664,1499,-9.42731,-9.29519
-553,-475,-8.15131,8.78369,0,0,0,0,0,0,0,-1,671,1499,-8.15131,-8.78367
-546,-475,-8.41254,8.20654,0,0,0,0,0,0,0,-1,678,1499,-8.41251,-8.20655
-539,-475,-4.7345,4.17419,0,0,0,0,0,0,0,-1,685,1499,-4.73449,-4.17418
-532,-475,-7.07379,4.25024,0,0,0,0,0,0,0,-1,692,1499,-7.07378,-4.2503
-525,-475,-6.13147,5.82166,0,0,0,0,0,0,0,-1,699,1499,-6.1315,-5.8216
-518,-475,-7.28784,9.31506,0,0,0,0,0,0,0,-1,706,1499,-7.28782,-9.315
-511,-475,-6.84851,12.4244,0,0,0,0,0,0,0,-1,713,1499,-6.84851,-12.4244
-504,-475,-8.80957,16.0863,0,0,0,0,0,0,0,-1,720,1499,-8.80954,-16.0862
-497,-475,-13.9097,23.317,0,0,0,0,0,0,0,-1,727,1499,-13.9097,-23.317
-490,-475,-13.8753,24.3398,0.00460274,0.00440267,0.00534264,0.00984628,-0.000840878,0.776037,0.00686168,0.0215398,734,1499,-13.8753,-24.3398
-483,-475,-13.8872,25.2637,0.00315637,0.00281284,0.00362988,0.00661855,-0.00064934,0.761756,0.00464397,0.00951323,741,1499,-13.8872,-25.2637
-476,-475,-13.9246,26.0856,0.00222483,0.00179912,0.00246303,0.00448418,-0.000460235,0.742295,0.00315408,0.0113808,748,1499,-13.9246,-26.0856
-469,-475,-13.9655,26.9229,0.00169325,0.00130803,0.00179952,0.00331044,-0.000309155,0.732083,0.0023169,0.0153105,755,1499,-13.9655,-26.9229
-462,-475,-13.9629,27.7443,0.00151444,0.00125514,0.00152175,0.00291205,-0.000142468,0.742902,0.00199056,0.0212894,762,1499,-13.9629,-27.7442
-455,-475,-14.0186,28.6002,0.00168896,0.00159071,0.00161955,0.00326013,1.95409e-05,0.770238,0.00216694,0.0173074,769,1499,-14.0186,-28.6002
-448,-475,-14.125,29.4091,0.002292,0.00253221,0.00221434,0.0046297,0.000194511,0.812491,0.00302371,0.014473,776,1499,-14.125,-29.4091
-441,-475,-14.191,30.1792,0.00321115,0.00381847,0.00314464,0.00667408,0.000355539,0.833531,0.00433573,0.0169552,783,1499,-14.191,-30.1792
-434,-475,-14.1953,31.0111,0.00449008,0.00552413,0.00446994,0.00950685,0.000507362,0.842976,0.00617573,0.0126259,790,1499,-14.1953,-31.0111
-427,-475,-14.1177,32.0024,0.00629002,0.00796595,0.00634046,0.0135236,0.000732393,0.851098,0.00878178,0.0481938,797,1499,-14.1177,-32.0024
-420,-475,-13.9775,32.9611,0,0,0,0,0,0,0,-1,804,1499,-13.9775,-32.9611
-413,-475,-6.46777,20.8481,0,0,0,0,0,0,0,-1,811,1499,-6.46776,-20.8481
-406,-475,-2.56116,12.4956,0,0,0,0,0,0,0,-1,818,1499,-2.56116,-12.4956
-399,-475,-1.39667,6.1615,0,0,0,0,0,0,0,-1,825,1499,-1.39664,-6.16155
-392,-475,0.217163,8.61389,0,0,0,0,0,0,0,-1,832,1499,0.217167,-8.6139
-385,-475,1.18372,2.73999,0,0,0,0,0,0,0,-1,839,1499,1.18372,-2.73995
-378,-475,1.31409,2.90149,0,0,0,0,0,0,0,-1,846,1499,1.31411,-2.90151
-371,-475,2.3476,3.31116,0,0,0,0,0,0,0,-1,853,1499,2.34761,-3.31121
-364,-475,1.04462,9.05823,0,0,0,0,0,0,0,-1,860,1499,1.04461,-9.05825
-357,-475,-0.262756,7.97205,0,0,0,0,0,0,0,-1,867,1499,-0.262784,-7.97205
-350,-475,-5.16473,-1.27881,0,0,0,0,0,0,0,-1,874,1499,-5.16474,1.27884
-343,-475,-5.76923,-0.530518,0,0,0,0,0,0,0,-1,881,1499,-5.76923,0.530526
-336,-475,0,0,0,0,0,0,0,0,0,-1,888,1499,0,0
-329,-475,0,0,0,0,0,0,0,0,0,-1,895,1499,0,0
-322,-475,0,0,0,0,0,0,0,0,0,-1,902,1499,0,0
-315,-475,0,0,0,0,0,0,0,0,0,-1,909,1499,0,0
-308,-475,0,0,0,0,0,0,0,0,0,-1,916,1499,0,0
-301,-475,0,0,0,0,0,0,0,0,0,-1,923,1499,0,0
-294,-475,0,0,0,0,0,0,0,0,0,-1,930,1499,0,0
-287,-475,0,0,0,0,0,0,0,0,0,-1,937,1499,0,0
-280,-475,0,0,0,0,0,0,0,0,0,-1,944,1499,0,0
-273,-475,0,0,0,0,0,0,0,0,0,-1,951,1499,0,0
-266,-475,0,0,0,0,0,0,0,0,0,-1,958,1499,0,0
-259,-475,0,0,0,0,0,0,0,0,0,-1,965,1499,0,0
-252,-475,0,0,0,0,0,0,0,0,0,-1,972,1499,0,0
-245,-475,0,0,0,0,0,0,0,0,0,-1,979,1499,0,0
-238,-475,0,0,0,0,0,0,0,0,0,-1,986,1499,0,0
-231,-475,0,0,0,0,0,0,0,0,0,-1,993,1499,0,0
-224,-475,0,0,0,0,0,0,0,0,0,-1,1000,1499,0,0
-217,-475,0,0,0,0,0,0,0,0,0,-1,1007,1499,0,0
-210,-475,0,0,0,0,0,0,0,0,0,-1,1014,1499,0,0
-203,-475,0,0,0,0,0,0,0,0,0,-1,1021,1499,0,0
-196,-475,0,0,0,0,0,0,0,0,0,-1,1028,1499,0,0
-189,-475,0,0,0,0,0,0,0,0,0,-1,1035,1499,0,0
-182,-475,0,0,0,0,0,0,0,0,0,-1,1042,1499,0,0
-175,-475,0,0,0,0,0,0,0,0,0,-1,1049,1499,0,0
-168,-475,0,0,0,0,0,0,0,0,0,-1,1056,1499,0,0
-161,-475,0,0,0,0,0,0,0,0,0,-1,1063,1499,0,0
-154,-475,0,0,0,0,0,0,0,0,0,-1,1070,1499,0,0
-147,-475,0,0,0,0,0,0,0,0,0,-1,1077,1499,0,0
-140,-475,0,0,0,0,0,0,0,0,0,-1,1084,1499,0,0
-133,-475,0,0,0,0,0,0,0,0,0,-1,1091,1499,0,0
-126,-475,0,0,0,0,0,0,0,0,0,-1,1098,1499,0,0
-119,-475,0,0,0,0,0,0,0,0,0,-1,1105,1499,0,0
-112,-475,0,0,0,0,0,0,0,0,0,-1,1112,1499,0,0
-105,-475,0,0,0,0,0,0,0,0,0,-1,1119,1499,0,0
-98,-475,0,0,0,0,0,0,0,0,0,-1,1126,1499,0,0
-91,-475,0,0,0,0,0,0,0,0,0,-1,1133,1499,0,0
-84,-475,0,0,0,0,0,0,0,0,0,-1,1140,1499,0,0
-77,-475,0,0,0,0,0,0,0,0,0,-1,1147,1499,0,0
-70,-475,0,0,0,0,0,0,0,0,0,-1,1154,1499,0,0
-63,-475,0,0,0,0,0,0,0,0,0,-1,1161,1499,0,0
-56,-475,0,0,0,0,0,0,0,0,0,-1,1168,1499,0,0
-49,-475,0,0,0,0,0,0,0,0,0,-1,1175,1499,0,0
-42,-475,0,0,0,0,0,0,0,0,0,-1,1182,1499,0,0
-35,-475,0,0,0,0,0,0,0,0,0,-1,1189,1499,0,0
-28,-475,0,0,0,0,0,0,0,0,0,-1,1196,1499,0,0
-21,-475,0,0,0,0,0,0,0,0,0,-1,1203,1499,0,0
-14,-475,0,0,0,0,0,0,0,0,0,-1,1210,1499,0,0
-7,-475,0,0,0,0,0,0,0,0,0,-1,1217,1499,0,0
0,-475,0,0,0,0,0,0,0,0,0,-1,1224,1499,0,0
7,-475,0,0,0,0,0,0,0,0,0,-1,1231,1499,0,0
14,-475,0,0,0,0,0,0,0,0,0,-1,1238,1499,0,0
21,-475,0,0,0,0,0,0,0,0,0,-1,1245,1499,0,0
28,-475,0,0,0,0,0,0,0,0,0,-1,1252,1499,0,0
35,-475,0,0,0,0,0,0,0,0,0,-1,1259,1499,0,0
42,-475,0,0,0,0,0,0,0,0,0,-1,1266,1499,0,0
49,-475,0,0,0,0,0,0,0,0,0,-1,1273,1499,0,0
56,-475,0,0,0,0,0,0,0,0,0,-1,1280,1499,0,0
63,-475,0,0,0,0,0,0,0,0,0,-1,1287,1499,0,0
70,-475,0,0,0,0,0,0,0,0,0,-1,1294,1499,0,0
77,-475,0,0,0,0,0,0,0,0,0,-1,1301,1499,0,0
84,-475,0,0,0,0,0,0,0,0,0,-1,1308,1499,0,0
91,-475,0,0,0,0,0,0,0,0,0,-1,1315,1499,0,0
98,-475,0,0,0,0,0,0,0,0,0,-1,1322,1499,0,0
105,-475,0,0,0,0,0,0,0,0,0,-1,1329,1499,0,0
112,-475,0,0,0,0,0,0,0,0,0,-1,1336,1499,0,0
119,-475,0,0,0,0,0,0,0,0,0,-1,1343,1499,0,0
126,-475,0,0,0,0,0,0,0,0,0,-1,1350,1499,0,0
133,-475,0,0,0,0,0,0,0,0,0,-1,1357,1499,0,0
140,-475,0,0,0,0,0,0,0,0,0,-1,1364,1499,0,0
147,-475,0,0,0,0,0,0,0,0,0,-1,1371,1499,0,0
154,-475,0,0,0,0,0,0,0,0,0,-1,1378,1499,0,0
161,-475,0,0,0,0,0,0,0,0,0,-1,1385,1499,0,0
168,-475,0,0,0,0,0,0,0,0,0,-1,1392,1499,0,0
175,-475,0,0,0,0,0,0,0,0,0,-1,1399,1499,0,0
182,-475,0,0,0,0,0,0,0,0,0,-1,1406,1499,0,0
189,-475,0,0,0,0,0,0,0,0,0,-1,1413,1499,0,0
196,-475,0,0,0,0,0,0,0,0,0,-1,1420,1499,0,0
203,-475,0,0,0,0,0,0,0,0,0,-1,1427,1499,0,0
210,-475,0,0,0,0,0,0,0,0,0,-1,1434,1499,0,0
217,-475,0,0,0,0,0,0,0,0,0,-1,1441,1499,0,0
224,-475,0,0,0,0,0,0,0,0,0,-1,1448,1499,0,0
231,-475,0,0,0,0,0,0,0,0,0,-1,1455,1499,0,0
238,-475,0,0,0,0,0,0,0,0,0,-1,1462,1499,0,0
245,-475,0,0,0,0,0,0,0,0,0,-1,1469,1499,0,0
252,-475,0,0,0,0,0,0,0,0,0,-1,1476,1499,0,0
259,-475,0,0,0,0,0,0,0,0,0,-1,1483,1499,0,0
266,-475,0,0,0,0,0,0,0,0,0,-1,1490,1499,0,0
273,-475,0,0,0,0,0,0,0,0,0,-1,1497,1499,0,0
280,-475,0,0,0,0,0,0,0,0,0,-1,1504,1499,0,0
287,-475,0,0,0,0,0,0,0,0,0,-1,1511,1499,0,0
294,-475,0,0,0,0,0,0,0,0,0,-1,1518,1499,0,0
301,-475,0,0,0,0,0,0,0,0,0,-1,1525,1499,0,0
308,-475,0,0,0,0,0,0,0,0,0,-1,1532,1499,0,0
315,-475,0,0,0,0,0,0,0,0,0,-1,1539,1499,0,0
322,-475,0,0,0,0,0,0,0,0,0,-1,1546,1499,0,0
329,-475,0,0,0,0,0,0,0,0,0,-1,1553,1499,0,0
336,-475,0,0,0,0,0,0,0,0,0,-1,1560,1499,0,0
343,-475,0,0,0,0,0,0,0,0,0,-1,1567,1499,0,0
350,-475,0,0,0,0,0,0,0,0,0,-1,1574,1499,0,0
357,-475,0,0,0,0,0,0,0,0,0,-1,1581,1499,0,0
364,-475,0,0,0,0,0,0,0,0,0,-1,1588,1499,0,0
371,-475,0,0,0,0,0,0,0,0,0,-1,1595,1499,0,0
378,-475,0,0,0,0,0,0,0,0,0,-1,1602,1499,0,0
385,-475,0,0,0,0,0,0,0,0,0,-1,1609,1499,0,0
392,-475,0,0,0,0,0,0,0,0,0,-1,1616,1499,0,0
399,-475,0,0,0,0,0,0,0,0,0,-1,1623,1499,0,0
406,-475,0,0,0,0,0,0,0,0,0,-1,1630,1499,0,0
413,-475,0,0,0,0,0,0,0,0,0,-1,1637,1499,0,0
420,-475,0,0,0,0,0,0,0,0,0,-1,1644,1499,0,0
427,-475,0,0,0,0,0,0,0,0,0,-1,1651,1499,0,0
434,-475,0,0,0,0,0,0,0,0,0,-1,1658,1499,0,0
441,-475,0,0,0,0,0,0,0,0,0,-1,1665,1499,0,0
448,-475,0,0,0,0,0,0,0,0,0,-1,1672,1499,0,0
455,-475,0,0,0,0,0,0,0,0,0,-1,1679,1499,0,0
462,-475,12.6372,0.275391,0,0,0,0,0,0,0,-1,1686,1499,12.6372,-0.27536
469,-475,15.6437,2.28296,0,0,0,0,0,0,0,-1,1693,1499,15.6437,-2.28293
476,-475,15.3302,2.71436,0,0,0,0,0,0,0,-1,1700,1499,15.3303,-2.7143
483,-475,10.7461,5.91479,0,0,0,0,0,0,0,-1,1707,1499,10.7461,-5.91476
490,-475,11.9305,4.4364,0,0,0,0,0,0,0,-1,1714,1499,11.9305,-4.43644
497,-475,15.3451,4.3479,0,0,0,0,0,0,0,-1,1721,1499,15.3451,-4.34789
504,-475,16.9646,7.71265,0,0,0,0,0,0,0,-1,1728,1499,16.9646,-7.71265
511,-475,18.941,12.7572,0,0,0,0,0,0,0,-1,1735,1499,18.941,-12.7572
518,-475,17.0021,13.8564,0,0,0,0,0,0,0,-1,1742,1499,17.0021,-13.8564
525,-475,17.5637,15.2103,0,0,0,0,0,0,0,-1,1749,1499,17.5637,-15.2103
532,-475,20.8623,20.8413,0,0,0,0,0,0,0,-1,1756,1499,20.8623,-20.8413
539,-475,20.5494,20.8519,0,0,0,0,0,0,0,-1,1763,1499,20.5494,-20.852
546,-475,20.4524,19.8799,0,0,0,0,0,0,0,-1,1770,1499,20.4524,-19.8798
553,-475,31.0933,32.6271,0,0,0,0,0,0,0,-1,1777,1499,31.0933,-32.6271
560,-475,31.1948,31.7466,0.0100845,0.00573917,-0.00529449,0.0136348,0.00218891,-0.590693,0.0084552,0.0362065,1784,1499,31.1948,-31.7466
567,-475,31.3883,30.8038,0.00787038,0.00409895,-0.00390897,0.0103247,0.00164462,-0.560661,0.0064057,0.0166581,1791,1499,31.3883,-30.8038
574,-475,31.3452,30.0206,0.00608203,0.00288106,-0.00292346,0.00781444,0.00114866,-0.534951,0.00487209,0.0155524,1798,1499,31.3453,-30.0206
581,-475,31.3044,29.2581,0.00461114,0.00195032,-0.00213072,0.00579269,0.000768763,-0.506316,0.00363276,0.0129617,1805,1499,31.3044,-29.2581
588,-475,31.2509,28.4464,0.00350226,0.00122921,-0.0015151,0.00425973,0.000471741,-0.463606,0.00269636,0.011116,1812,1499,31.2508,-28.4464
595,-475,31.2124,27.6196,0.00273163,0.000624705,-0.000916106,0.00307424,0.000282089,-0.357886,0.00196224,0.0112083,1819,1499,31.2124,-27.6197
602,-475,31.166,26.8115,0.00214823,0.00015299,-0.000409248,0.00222891,7.23109e-05,-0.194644,0.00146244,0.0120072,1826,1499,31.166,-26.8115
609,-475,31.114,26.0154,0.00176074,-0.000174989,0.000131761,0.00176967,-0.000183917,0.0676521,0.00124562,0.0118766,1833,1499,31.114,-26.0153
616,-475,31.0548,25.2323,0.00157137,-0.000476826,0.00074137,0.00181155,-0.000717009,0.313302,0.00150477,0.0122243,1840,1499,31.0548,-25.2323
623,-475,31.0358,24.3844,0.00160264,-0.000887874,0.00154208,0.00233947,-0.0016247,0.445744,0.00230108,0.0120961,1847,1499,31.0358,-24.3844
630,-475,31.0062,23.5624,0.00162554,-0.00129818,0.00261159,0.00315657,-0.00282922,0.530246,0.00345762,0.0188753,1854,1499,31.0062,-23.5624
637,-475,30.9534,22.8181,0.00165175,-0.00173695,0.00383449,0.00414955,-0.00423475,0.577361,0.00484076,0.0353037,1861,1499,30.9533,-22.8181
644,-475,30.6809,22.0118,0,0,0,0,0,0,0,-1,1868,1499,30.6809,-22.0119
651,-475,29.886,19.2421,0,0,0,0,0,0,0,-1,1875,1499,29.886,-19.242
658,-475,14.6708,8.80322,0,0,0,0,0,0,0,-1,1882,1499,14.6708,-8.8032
665,-475,9.33435,5.43335,0,0,0,0,0,0,0,-1,1889,1499,9.33439,-5.43332
672,-475,9.38635,1.10474,0,0,0,0,0,0,0,-1,1896,1499,9.38629,-1.10475
679,-475,12.2594,1.31079,0,0,0,0,0,0,0,-1,1903,1499,12.2594,-1.31077
686,-475,0,0,0,0,0,0,0,0,0,-1,1910,1499,0,0
693,-475,0,0,0,0,0,0,0,0,0,-1,1917,1499,0,0
700,-475,0,0,0,0,0,0,0,0,0,-1,1924,1499,0,0
707,-475,0,0,0,0,0,0,0,0,0,-1,1931,1499,0,0
714,-475,0,0,0,0,0,0,0,0,0,-1,1938,1499,0,0
721,-475,0,0,0,0,0,0,0,0,0,-1,1945,1499,0,0
728,-475,0,0,0,0,0,0,0,0,0,-1,1952,1499,0,0
735,-475,0,0,0,0,0,0,0,0,0,-1,1959,1499,0,0
742,-475,0,0,0,0,0,0,0,0,0,-1,1966,1499,0,0
749,-475,0,0,0,0,0,0,0,0,0,-1,1973,1499,0,0
756,-475,0,0,0,0,0,0,0,0,0,-1,1980,1499,0,0
763,-475,0,0,0,0,0,0,0,0,0,-1,1987,1499,0,0
770,-475,0,0,0,0,0,0,0,0,0,-1,1994,1499,0,0
777,-475,0,0,0,0,0,0,0,0,0,-1,2001,1499,0,0
784,-475,0,0,0,0,0,0,0,0,0,-1,2008,1499,0,0
791,-475,0,0,0,0,0,0,0,0,0,-1,2015,1499,0,0
798,-475,0,0,0,0,0,0,0,0,0,-1,2022,1499,0,0
805,-475,0,0,0,0,0,0,0,0,0,-1,2029,1499,0,0
812,-475,0,0,0,0,0,0,0,0,0,-1,2036,1499,0,0
-700,-482,0,0,0,0,0,0,0,0,0,-1,524,1506,0,0
-693,-482,0,0,0,0,0,0,0,0,0,-1,531,1506,0,0
-686,-482,0,0,0,0,0,0,0,0,0,-1,538,1506,0,0
-679,-482,0,0,0,0,0,0,0,0,0,-1,545,1506,0,0
-672,-482,0,0,0,0,0,0,0,0,0,-1,552,1506,0,0
-665,-482,0,0,0,0,0,0,0,0,0,-1,559,1506,0,0
-658,-482,0,0,0,0,0,0,0,0,0,-1,566,1506,0,0
-651,-482,0,0,0,0,0,0,0,0,0,-1,573,1506,0,0
-644,-482,0,0,0,0,0,0,0,0,0,-1,580,1506,0,0
-637,-482,0,0,0,0,0,0,0,0,0,-1,587,1506,0,0
-630,-482,0,0,0,0,0,0,0,0,0,-1,594,1506,0,0
-623,-482,0,0,0,0,0,0,0,0,0,-1,601,1506,0,0
-616,-482,0,0,0,0,0,0,0,0,0,-1,608,1506,0,0
-609,-482,0,0,0,0,0,0,0,0,0,-1,615,1506,0,0
-602,-482,0,0,0,0,0,0,0,0,0,-1,622,1506,0,0
-595,-482,0,0,0,0,0,0,0,0,0,-1,629,1506,0,0
-588,-482,0,0,0,0,0,0,0,0,0,-1,636,1506,0,0
-581,-482,0,0,0,0,0,0,0,0,0,-1,643,1506,0,0
-574,-482,0,0,0,0,0,0,0,0,0,-1,650,1506,0,0
-567,-482,0,0,0,0,0,0,0,0,0,-1,657,1506,0,0
-560,-482,0,0,0,0,0,0,0,0,0,-1,664,1506,0,0
-553,-482,-9.06055,9.34314,0,0,0,0,0,0,0,-1,671,1506,-9.06056,-9.34312
-546,-482,-4.08624,8.34241,0,0,0,0,0,0,0,-1,678,1506,-4.08624,-8.3424
-539,-482,-4.29877,2.73499,0,0,0,0,0,0,0,-1,685,1506,-4.29879,-2.73494
-532,-482,-3.63611,4.23987,0,0,0,0,0,0,0,-1,692,1506,-3.63609,-4.23983
-525,-482,-6.19116,5.24927,0,0,0,0,0,0,0,-1,699,1506,-6.19117,-5.24927
-518,-482,-5.92957,6.39807,0,0,0,0,0,0,0,-1,706,1506,-5.92958,-6.39806
-511,-482,-7.74634,11.9137,0,0,0,0,0,0,0,-1,713,1506,-7.74633,-11.9137
-504,-482,-6.42358,13.4211,0,0,0,0,0,0,0,-1,720,1506,-6.42356,-13.4212
-497,-482,-8.86163,17.7108,0,0,0,0,0,0,0,-1,727,1506,-8.86163,-17.7109
-490,-482,-13.1154,24.2915,0,0,0,0,0,0,0,-1,734,1506,-13.1154,-24.2915
-483,-482,-13.0831,25.2589,0.00306768,0.00296614,0.00385189,0.00686913,-0.000835313,0.778808,0.00488174,0.0129324,741,1506,-13.0831,-25.2589
-476,-482,-13.1016,26.1189,0.00203482,0.00177503,0.00250594,0.00441422,-0.000604376,0.759505,0.00316358,0.0103223,748,1506,-13.1016,-26.1189
-469,-482,-13.1495,26.9921,0.00147072,0.001175,0.00178213,0.00311111,-0.000465392,0.74401,0.00224534,0.013592,755,1506,-13.1495,-26.992
-462,-482,-13.1803,27.7916,0.00125977,0.00105287,0.00145076,0.00261077,-0.00029812,0.749805,0.00184792,0.0147804,762,1506,-13.1803,-27.7916
-455,-482,-13.2365,28.5739,0.00140109,0.00132191,0.00148791,0.00284994,-0.000126937,0.772098,0.00194365,0.0138274,769,1506,-13.2365,-28.5739
-448,-482,-13.3002,29.4429,0.00193535,0.00213999,0.00196429,0.00400463,7.07128e-05,0.81142,0.00264649,0.0142959,776,1506,-13.3002,-29.4429
-441,-482,-13.3438,30.2355,0.00275529,0.00325617,0.00273679,0.00575396,0.000257502,0.831025,0.00375308,0.0131686,783,1506,-13.3438,-30.2355
-434,-482,-13.3939,31.0721,0.00387967,0.00474488,0.00382927,0.00816591,0.000458646,0.841647,0.00529768,0.0158839,790,1506,-13.3939,-31.0721
-427,-482,-13.4354,31.9384,0.00538642,0.00671083,0.0052863,0.0113762,0.000721004,0.847708,0.00735561,0.0213707,797,1506,-13.4354,-31.9384
-420,-482,-13.5079,33.0231,0,0,0,0,0,0,0,-1,804,1506,-13.5079,-33.0231
-413,-482,-6.56415,22.3163,0,0,0,0,0,0,0,-1,811,1506,-6.56417,-22.3163
-406,-482,-2.51373,12.7556,0,0,0,0,0,0,0,-1,818,1506,-2.51376,-12.7556
-399,-482,-1.3822,9.22595,0,0,0,0,0,0,0,-1,825,1506,-1.38221,-9.22598
-392,-482,-1.06836,9.22729,0,0,0,0,0,0,0,-1,832,1506,-1.06835,-9.2273
-385,-482,0.0647583,8.90649,0,0,0,0,0,0,0,-1,839,1506,0.0647778,-8.90644
-378,-482,0.215698,5.96948,0,0,0,0,0,0,0,-1,846,1506,0.215681,-5.9695
-371,-482,-0.10907,8.10437,0,0,0,0,0,0,0,-1,853,1506,-0.109063,-8.10433
-364,-482,-0.154968,10.5032,0,0,0,0,0,0,0,-1,860,1506,-0.154976,-10.5032
-357,-482,2.14807,4.60144,0,0,0,0,0,0,0,-1,867,1506,2.14807,-4.60144
-350,-482,-7.5813,-1.45935,0,0,0,0,0,0,0,-1,874,1506,-7.58133,1.45937
-343,-482,-5.80902,1.81226,0,0,0,0,0,0,0,-1,881,1506,-5.80903,-1.81221
-336,-482,2.52826,-0.390503,0,0,0,0,0,0,0,-1,888,1506,2.52826,0.390456
-329,-482,0,0,0,0,0,0,0,0,0,-1,895,1506,0,0
-322,-482,0,0,0,0,0,0,0,0,0,-1,902,1506,0,0
-315,-482,0,0,0,0,0,0,0,0,0,-1,909,1506,0,0
-308,-482,0,0,0,0,0,0,0,0,0,-1,916,1506,0,0
-301,-482,0,0,0,0,0,0,0,0,0,-1,923,1506,0,0
-294,-482,0,0,0,0,0,0,0,0,0,-1,930,1506,0,0
-287,-482,0,0,0,0,0,0,0,0,0,-1,937,1506,0,0
-280,-482,0,0,0,0,0,0,0,0,0,-1,944,1506,0,0
-273,-482,0,0,0,0,0,0,0,0,0,-1,951,1506,0,0
-266,-482,0,0,0,0,0,0,0,0,0,-1,958,1506,0,0
-259,-482,0,0,0,0,0,0,0,0,0,-1,965,1506,0,0
-252,-482,0,0,0,0,0,0,0,0,0,-1,972,1506,0,0
-245,-482,0,0,0,0,0,0,0,0,0,-1,979,1506,0,0
-238,-482,0,0,0,0,0,0,0,0,0,-1,986,1506,0,0
-231,-482,0,0,0,0,0,0,0,0,0,-1,993,1506,0,0
-224,-482,0,0,0,0,0,0,0,0,0,-1,1000,1506,0,0
-217,-482,0,0,0,0,0,0,0,0,0,-1,1007,1506,0,0
-210,-482,0,0,0,0,0,0,0,0,0,-1,1014,1506,0,0
-203,-482,0,0,0,0,0,0,0,0,0,-1,1021,1506,0,0
-196,-482,0,0,0,0,0,0,0,0,0,-1,1028,1506,0,0
-189,-482,0,0,0,0,0,0,0,0,0,-1,1035,1506,0,0
-182,-482,0,0,0,0,0,0,0,0,0,-1,1042,1506,0,0
-175,-482,0,0,0,0,0,0,0,0,0,-1,1049,1506,0,0
-168,-482,0,0,0,0,0,0,0,0,0,-1,1056,1506,0,0
-161,-482,0,0,0,0,0,0,0,0,0,-1,1063,1506,0,0
-154,-482,0,0,0,0,0,0,0,0,0,-1,1070,1506,0,0
-147,-482,0,0,0,0,0,0,0,0,0,-1,1077,1506,0,0
-140,-482,0,0,0,0,0,0,0,0,0,-1,1084,1506,0,0
-133,-482,0,0,0,0,0,0,0,0,0,-1,1091,1506,0,0
-126,-482,0,0,0,0,0,0,0,0,0,-1,1098,1506,0,0
-119,-482,0,0,0,0,0,0,0,0,0,-1,1105,1506,0,0
-112,-482,0,0,0,0,0,0,0,0,0,-1,1112,1506,0,0
-105,-482,0,0,0,0,0,0,0,0,0,-1,1119,1506,0,0
-98,-482,0,0,0,0,0,0,0,0,0,-1,1126,1506,0,0
-91,-482,0,0,0,0,0,0,0,0,0,-1,1133,1506,0,0
-84,-482,0,0,0,0,0,0,0,0,0,-1,1140,1506,0,0
-77,-482,0,0,0,0,0,0,0,0,0,-1,1147,1506,0,0
-70,-482,0,0,0,0,0,0,0,0,0,-1,1154,1506,0,0
-63,-482,0,0,0,0,0,0,0,0,0,-1,1161,1506,0,0
-56,-482,0,0,0,0,0,0,0,0,0,-1,1168,1506,0,0
-49,-482,0,0,0,0,0,0,0,0,0,-1,1175,1506,0,0
-42,-482,0,0,0,0,0,0,0,0,0,-1,1182,1506,0,0
-35,-482,0,0,0,0,0,0,0,0,0,-1,1189,1506,0,0
-28,-482,0,0,0,0,0,0,0,0,0,-1,1196,1506,0,0
-21,-482,0,0,0,0,0,0,0,0,0,-1,1203,1506,0,0
-14,-482,0,0,0,0,0,0,0,0,0,-1,1210,1506,0,0
-7,-482,0,0,0,0,0,0,0,0,0,-1,1217,1506,0,0
0,-482,0,0,0,0,0,0,0,0,0,-1,1224,1506,0,0
7,-482,0,0,0,0,0,0,0,0,0,-1,1231,1506,0,0
14,-482,0,0,0,0,0,0,0,0,0,-1,1238,1506,0,0
21,-482,0,0,0,0,0,0,0,0,0,-1,1245,1506,0,0
28,-482,0,0,0,0,0,0,0,0,0,-1,1252,1506,0,0
35,-482,0,0,0,0,0,0,0,0,0,-1,1259,1506,0,0
42,-482,0,0,0,0,0,0,0,0,0,-1,1266,1506,0,0
49,-482,0,0,0,0,0,0,0,0,0,-1,1273,1506,0,0
56,-482,0,0,0,0,0,0,0,0,0,-1,1280,1506,0,0
63,-482,0,0,0,0,0,0,0,0,0,-1,1287,1506,0,0
70,-482,0,0,0,0,0,0,0,0,0,-1,1294,1506,0,0
77,-482,0,0,0,0,0,0,0,0,0,-1,1301,1506,0,0
84,-482,0,0,0,0,0,0,0,0,0,-1,1308,1506,0,0
91,-482,0,0,0,0,0,0,0,0,0,-1,1315,1506,0,0
98,-482,0,0,0,0,0,0,0,0,0,-1,1322,1506,0,0
105,-482,0,0,0,0,0,0,0,0,0,-1,1329,1506,0,0
112,-482,0,0,0,0,0,0,0,0,0,-1,1336,1506,0,0
119,-482,0,0,0,0,0,0,0,0,0,-1,1343,1506,0,0
126,-482,0,0,0,0,0,0,0,0,0,-1,1350,1506,0,0
133,-482,0,0,0,0,0,0,0,0,0,-1,1357,1506,0,0
140,-482,0,0,0,0,0,0,0,0,0,-1,1364,1506,0,0
147,-482,0,0,0,0,0,0,0,0,0,-1,1371,1506,0,0
154,-482,0,0,0,0,0,0,0,0,0,-1,1378,1506,0,0
161,-482,0,0,0,0,0,0,0,0,0,-1,1385,1506,0,0
168,-482,0,0,0,0,0,0,0,0,0,-1,1392,1506,0,0
175,-482,0,0,0,0,0,0,0,0,0,-1,1399,1506,0,0
182,-482,0,0,0,0,0,0,0,0,0,-1,1406,1506,0,0
189,-482,0,0,0,0,0,0,0,0,0,-1,1413,1506,0,0
196,-482,0,0,0,0,0,0,0,0,0,-1,1420,1506,0,0
203,-482,0,0,0,0,0,0,0,0,0,-1,1427,1506,0,0
210,-482,0,0,0,0,0,0,0,0,0,-1,1434,1506,0,0
217,-482,0,0,0,0,0,0,0,0,0,-1,1441,1506,0,0
224,-482,0,0,0,0,0,0,0,0,0,-1,1448,1506,0,0
231,-482,0,0,0,0,0,0,0,0,0,-1,1455,1506,0,0
238,-482,0,0,0,0,0,0,0,0,0,-1,1462,1506,0,0
245,-482,0,0,0,0,0,0,0,0,0,-1,1469,1506,0,0
252,-482,0,0,0,0,0,0,0,0,0,-1,1476,1506,0,0
259,-482,0,0,0,0,0,0,0,0,0,-1,1483,1506,0,0
266,-482,0,0,0,0,0,0,0,0,0,-1,1490,1506,0,0
273,-482,0,0,0,0,0,0,0,0,0,-1,1497,1506,0,0
280,-482,0,0,0,0,0,0,0,0,0,-1,1504,1506,0,0
287,-482,0,0,0,0,0,0,0,0,0,-1,1511,1506,0,0
294,-482,0,0,0,0,0,0,0,0,0,-1,1518,1506,0,0
301,-482,0,0,0,0,0,0,0,0,0,-1,1525,1506,0,0
308,-482,0,0,0,0,0,0,0,0,0,-1,1532,1506,0,0
315,-482,0,0,0,0,0,0,0,0,0,-1,1539,1506,0,0
322,-482,0,0,0,0,0,0,0,0,0,-1,1546,1506,0,0
329,-482,0,0,0,0,0,0,0,0,0,-1,1553,1506,0,0
336,-482,0,0,0,0,0,0,0,0,0,-1,1560,1506,0,0
343,-482,0,0,0,0,0,0,0,0,0,-1,1567,1506,0,0
350,-482,0,0,0,0,0,0,0,0,0,-1,1574,1506,0,0
357,-482,0,0,0,0,0,0,0,0,0,-1,1581,1506,0,0
364,-482,0,0,0,0,0,0,0,0,0,-1,1588,1506,0,0
371,-482,0,0,0,0,0,0,0,0,0,-1,1595,1506,0,0
378,-482,0,0,0,0,0,0,0,0,0,-1,1602,1506,0,0
385,-482,0,0,0,0,0,0,0,0,0,-1,1609,1506,0,0
392,-482,0,0,0,0,0,0,0,0,0,-1,1616,1506,0,0
399,-482,0,0,0,0,0,0,0,0,0,-1,1623,1506,0,0
406,-482,0,0,0,0,0,0,0,0,0,-1,1630,1506,0,0
413,-482,0,0,0,0,0,0,0,0,0,-1,1637,1506,0,0
420,-482,0,0,0,0,0,0,0,0,0,-1,1644,1506,0,0
427,-482,0,0,0,0,0,0,0,0,0,-1,1651,1506,0,0
434,-482,0,0,0,0,0,0,0,0,0,-1,1658,1506,0,0
441,-482,0,0,0,0,0,0,0,0,0,-1,1665,1506,0,0
448,-482,4.24146,1.55383,0,0,0,0,0,0,0,-1,1672,1506,4.24149,-1.55381
455,-482,12.4122,1.09729,0,0,0,0,0,0,0,-1,1679,1506,12.4122,-1.09734
462,-482,15.0673,3.13135,0,0,0,0,0,0,0,-1,1686,1506,15.0672,-3.13134
469,-482,15.3793,3.46301,0,0,0,0,0,0,0,-1,1693,1506,15.3793,-3.46307
476,-482,8.69751,9.18738,0,0,0,0,0,0,0,-1,1700,1506,8.69753,-9.18739
483,-482,10.0902,7.17432,0,0,0,0,0,0,0,-1,1707,1506,10.0902,-7.1743
490,-482,11.6289,5.4928,0,0,0,0,0,0,0,-1,1714,1506,11.6289,-5.49283
497,-482,15.9539,7.40222,0,0,0,0,0,0,0,-1,1721,1506,15.9538,-7.40219
504,-482,20.4233,12.006,0,0,0,0,0,0,0,-1,1728,1506,20.4233,-12.006
511,-482,18.4937,12.9175,0,0,0,0,0,0,0,-1,1735,1506,18.4936,-12.9174
518,-482,16.6002,13.9679,0,0,0,0,0,0,0,-1,1742,1506,16.6003,-13.9679
525,-482,18.495,15.9618,0,0,0,0,0,0,0,-1,1749,1506,18.495,-15.9618
532,-482,19.9375,21.0775,0,0,0,0,0,0,0,-1,1756,1506,19.9375,-21.0775
539,-482,20.2291,20.5577,0,0,0,0,0,0,0,-1,1763,1506,20.2291,-20.5578
546,-482,30.5184,33.6584,0,0,0,0,0,0,0,-1,1770,1506,30.5185,-33.6585
553,-482,30.422,32.5536,0,0,0,0,0,0,0,-1,1777,1506,30.422,-32.5536
560,-482,30.5217,31.6622,0.00841799,0.00498979,-0.00461293,0.011625,0.00178279,-0.607511,0.00722938,0.0186058,1784,1506,30.5217,-31.6622
567,-482,30.6021,30.8246,0.00659635,0.00356209,-0.0033958,0.00879851,0.00135993,-0.575317,0.00546902,0.0156592,1791,1506,30.602,-30.8246
574,-482,30.5613,30.0619,0.00513432,0.00248778,-0.0025155,0.00665337,0.000968728,-0.543264,0.00415053,0.014553,1798,1506,30.5612,-30.0619
581,-482,30.494,29.2916,0.00392149,0.00166043,-0.00179928,0.00491593,0.000665984,-0.504906,0.00307939,0.0106263,1805,1506,30.494,-29.2916
588,-482,30.4392,28.4796,0.00302556,0.00101405,-0.00125136,0.00362525,0.000414359,-0.446893,0.00229124,0.0115177,1812,1506,30.4393,-28.4796
595,-482,30.4122,27.6622,0.00243029,0.000483438,-0.000700084,0.00265589,0.000257832,-0.311747,0.00169121,0.0163808,1819,1506,30.4123,-27.6622
602,-482,30.3817,26.8571,0.00198913,9.84814e-05,-0.000259614,0.00202413,6.34807e-05,-0.134011,0.00132877,0.01928,1826,1506,30.3817,-26.857
609,-482,30.3282,26.0608,0.00170518,-0.000180008,0.00023909,0.00173503,-0.000209858,0.124206,0.00123261,0.0153692,1833,1506,30.3282,-26.0608
616,-482,30.2465,25.2592,0.00167133,-0.000427429,0.000814424,0.00195029,-0.000706388,0.329998,0.00158889,0.012235,1840,1506,30.2465,-25.2591
623,-482,30.1918,24.4525,0.00181434,-0.000889011,0.0017064,0.00263955,-0.00171422,0.450439,0.0025325,0.0218616,1847,1506,30.1918,-24.4525
630,-482,30.1263,23.6545,0.00178974,-0.00134236,0.0029769,0.00358739,-0.00314,0.543256,0.00388692,0.0470885,1854,1506,30.1264,-23.6545
637,-482,30.1201,22.923,0,0,0,0,0,0,0,-1,1861,1506,30.1201,-22.923
644,-482,29.0146,20.1443,0,0,0,0,0,0,0,-1,1868,1506,29.0147,-20.1442
651,-482,4.03845,7.05273,0,0,0,0,0,0,0,-1,1875,1506,4.03843,-7.05279
658,-482,10.0278,5.87903,0,0,0,0,0,0,0,-1,1882,1506,10.0279,-5.87902
665,-482,8.15198,3.22229,0,0,0,0,0,0,0,-1,1889,1506,8.15199,-3.22232
672,-482,9.87415,1.3147,0,0,0,0,0,0,0,-1,1896,1506,9.87416,-1.31473
679,-482,0,0,0,0,0,0,0,0,0,-1,1903,1506,0,0
686,-482,0,0,0,0,0,0,0,0,0,-1,1910,1506,0,0
693,-482,0,0,0,0,0,0,0,0,0,-1,1917,1506,0,0
700,-482,0,0,0,0,0,0,0,0,0,-1,1924,1506,0,0
707,-482,0,0,0,0,0,0,0,0,0,-1,1931,1506,0,0
714,-482,0,0,0,0,0,0,0,0,0,-1,1938,1506,0,0
721,-482,0,0,0,0,0,0,0,0,0,-1,1945,1506,0,0
728,-482,0,0,0,0,0,0,0,0,0,-1,1952,1506,0,0
735,-482,0,0,0,0,0,0,0,0,0,-1,1959,1506,0,0
742,-482,0,0,0,0,0,0,0,0,0,-1,1966,1506,0,0
749,-482,0,0,0,0,0,0,0,0,0,-1,1973,1506,0,0
756,-482,0,0,0,0,0,0,0,0,0,-1,1980,1506,0,0
763,-482,0,0,0,0,0,0,0,0,0,-1,1987,1506,0,0
770,-482,0,0,0,0,0,0,0,0,0,-1,1994,1506,0,0
777,-482,0,0,0,0,0,0,0,0,0,-1,2001,1506,0,0
784,-482,0,0,0,0,0,0,0,0,0,-1,2008,1506,0,0
791,-482,0,0,0,0,0,0,0,0,0,-1,2015,1506,0,0
798,-482,0,0,0,0,0,0,0,0,0,-1,2022,1506,0,0
805,-482,0,0,0,0,0,0,0,0,0,-1,2029,1506,0,0
812,-482,0,0,0,0,0,0,0,0,0,-1,2036,1506,0,0
-700,-489,0,0,0,0,0,0,0,0,0,-1,524,1513,0,0
-693,-489,0,0,0,0,0,0,0,0,0,-1,531,1513,0,0
-686,-489,0,0,0,0,0,0,0,0,0,-1,538,1513,0,0
-679,-489,0,0,0,0,0,0,0,0,0,-1,545,1513,0,0
-672,-489,0,0,0,0,0,0,0,0,0,-1,552,1513,0,0
-665,-489,0,0,0,0,0,0,0,0,0,-1,559,1513,0,0
-658,-489,0,0,0,0,0,0,0,0,0,-1,566,1513,0,0
-651,-489,0,0,0,0,0,0,0,0,0,-1,573,1513,0,0
-644,-489,0,0,0,0,0,0,0,0,0,-1,580,1513,0,0
-637,-489,0,0,0,0,0,0,0,0,0,-1,587,1513,0,0
-630,-489,0,0,0,0,0,0,0,0,0,-1,594,1513,0,0
-623,-489,0,0,0,0,0,0,0,0,0,-1,601,1513,0,0
-616,-489,0,0,0,0,0,0,0,0,0,-1,608,1513,0,0
-609,-489,0,0,0,0,0,0,0,0,0,-1,615,1513,0,0
-602,-489,0,0,0,0,0,0,0,0,0,-1,622,1513,0,0
-595,-489,0,0,0,0,0,0,0,0,0,-1,629,1513,0,0
-588,-489,0,0,0,0,0,0,0,0,0,-1,636,1513,0,0
-581,-489,0,0,0,0,0,0,0,0,0,-1,643,1513,0,0
-574,-489,0,0,0,0,0,0,0,0,0,-1,650,1513,0,0
-567,-489,0,0,0,0,0,0,0,0,0,-1,657,1513,0,0
-560,-489,0,0,0,0,0,0,0,0,0,-1,664,1513,0,0
-553,-489,-9.42206,8.5116,0,0,0,0,0,0,0,-1,671,1513,-9.42205,-8.51158
-546,-489,-7.80951,8.18506,0,0,0,0,0,0,0,-1,678,1513,-7.8095,-8.18503
-539,-489,-3.06879,2.82349,0,0,0,0,0,0,0,-1,685,1513,-3.06881,-2.82354
-532,-489,-3.14215,2.5835,0,0,0,0,0,0,0,-1,692,1513,-3.14213,-2.58353
-525,-489,-2.604,4.06274,0,0,0,0,0,0,0,-1,699,1513,-2.60399,-4.06274
-518,-489,-5.43774,7.48059,0,0,0,0,0,0,0,-1,706,1513,-5.43777,-7.48058
-511,-489,-7.52856,10.951,0,0,0,0,0,0,0,-1,713,1513,-7.52857,-10.951
-504,-489,-7.17352,12.8508,0,0,0,0,0,0,0,-1,720,1513,-7.17352,-12.8508
-497,-489,-5.51678,14.9254,0,0,0,0,0,0,0,-1,727,1513,-5.51681,-14.9254
-490,-489,-12.4355,24.1681,0,0,0,0,0,0,0,-1,734,1513,-12.4355,-24.1681
-483,-489,-12.3204,25.1285,0.00275406,0.00291021,0.00387386,0.00670678,-0.00104252,0.795474,0.00485614,0.0392222,741,1513,-12.3204,-25.1285
-476,-489,-12.2939,26.1301,0.00163751,0.00153154,0.00236774,0.00395285,-0.000783804,0.774211,0.00293164,0.0107122,748,1513,-12.2939,-26.1301
-469,-489,-12.317,27.0002,0.0010492,0.000808453,0.00159441,0.00252777,-0.000670122,0.747722,0.00194737,0.010829,755,1513,-12.317,-27.0002
-462,-489,-12.3591,27.7981,0.000809129,0.00064276,0.00122464,0.00195341,-0.000501521,0.751488,0.0014977,0.0167385,762,1513,-12.3591,-27.798
-455,-489,-12.4318,28.6362,0.000924995,0.00087334,0.00121754,0.00211698,-0.000318649,0.774793,0.00152865,0.0207558,769,1513,-12.4318,-28.6363
-448,-489,-12.5,29.4753,0.00139433,0.00159507,0.00159112,0.00308898,-9.95746e-05,0.816897,0.0020933,0.0181059,776,1513,-12.5,-29.4753
-441,-489,-12.5239,30.296,0.00212164,0.00260337,0.00223207,0.00460753,0.000117479,0.839146,0.00303329,0.0143975,783,1513,-12.5239,-30.296
-434,-489,-12.5889,31.1173,0.0031024,0.00394442,0.00313369,0.00668525,0.000361572,0.852173,0.00434133,0.0170493,790,1513,-12.5889,-31.1173
-427,-489,-12.6534,31.9512,0.00435399,0.00558775,0.00427878,0.00929389,0.000647856,0.856991,0.00599166,0.019075,797,1513,-12.6535,-31.9511
-420,-489,-12.7242,32.9327,0.00592625,0.00749313,0.00570589,0.0124691,0.000950264,0.853623,0.00801479,0.0282197,804,1513,-12.7242,-32.9327
-413,-489,-12.6807,34.021,0,0,0,0,0,0,0,-1,811,1513,-12.6807,-34.021
-406,-489,-3.10559,15.8143,0,0,0,0,0,0,0,-1,818,1513,-3.10556,-15.8143
-399,-489,-1.41241,9.10718,0,0,0,0,0,0,0,-1,825,1513,-1.41244,-9.10722
-392,-489,-1.0368,9.30469,0,0,0,0,0,0,0,-1,832,1513,-1.03682,-9.30466
-385,-489,-1.75165,10.6559,0,0,0,0,0,0,0,-1,839,1513,-1.75165,-10.6559
-378,-489,-0.401428,9.87048,0,0,0,0,0,0,0,-1,846,1513,-0.401415,-9.87047
-371,-489,-1.11633,10.6606,0,0,0,0,0,0,0,-1,853,1513,-1.11633,-10.6606
-364,-489,-0.503113,8.98486,0,0,0,0,0,0,0,-1,860,1513,-0.503097,-8.98482
-357,-489,-0.609924,10.9606,0,0,0,0,0,0,0,-1,867,1513,-0.609947,-10.9605
-350,-489,-7.94659,-0.358887,0,0,0,0,0,0,0,-1,874,1513,-7.94657,0.358912
-343,-489,-7.49323,-0.437866,0,0,0,0,0,0,0,-1,881,1513,-7.49322,0.437823
-336,-489,-7.02332,-0.53125,0,0,0,0,0,0,0,-1,888,1513,-7.0233,0.531295
-329,-489,-13.2786,4.96082,0,0,0,0,0,0,0,-1,895,1513,-13.2785,-4.96077
-322,-489,0,0,0,0,0,0,0,0,0,-1,902,1513,0,0
-315,-489,0,0,0,0,0,0,0,0,0,-1,909,1513,0,0
-308,-489,0,0,0,0,0,0,0,0,0,-1,916,1513,0,0
-301,-489,0,0,0,0,0,0,0,0,0,-1,923,1513,0,0
-294,-489,0,0,0,0,0,0,0,0,0,-1,930,1513,0,0
-287,-489,0,0,0,0,0,0,0,0,0,-1,937,1513,0,0
-280,-489,0,0,0,0,0,0,0,0,0,-1,944,1513,0,0
-273,-489,0,0,0,0,0,0,0,0,0,-1,951,1513,0,0
-266,-489,0,0,0,0,0,0,0,0,0,-1,958,1513,0,0
-259,-489,0,0,0,0,0,0,0,0,0,-1,965,1513,0,0
-252,-489,0,0,0,0,0,0,0,0,0,-1,972,1513,0,0
-245,-489,0,0,0,0,0,0,0,0,0,-1,979,1513,0,0
-238,-489,0,0,0,0,0,0,0,0,0,-1,986,1513,0,0
-231,-489,0,0,0,0,0,0,0,0,0,-1,993,1513,0,0
-224,-489,0,0,0,0,0,0,0,0,0,-1,1000,1513,0,0
-217,-489,0,0,0,0,0,0,0,0,0,-1,1007,1513,0,0
-210,-489,0,0,0,0,0,0,0,0,0,-1,1014,1513,0,0
-203,-489,0,0,0,0,0,0,0,0,0,-1,1021,1513,0,0
-196,-489,0,0,0,0,0,0,0,0,0,-1,1028,1513,0,0
-189,-489,0,0,0,0,0,0,0,0,0,-1,1035,1513,0,0
-182,-489,0,0,0,0,0,0,0,0,0,-1,1042,1513,0,0
-175,-489,0,0,0,0,0,0,0,0,0,-1,1049,1513,0,0
-168,-489,0,0,0,0,0,0,0,0,0,-1,1056,1513,0,0
-161,-489,0,0,0,0,0,0,0,0,0,-1,1063,1513,0,0
-154,-489,0,0,0,0,0,0,0,0,0,-1,1070,1513,0,0
-147,-489,0,0,0,0,0,0,0,0,0,-1,1077,1513,0,0
-140,-489,0,0,0,0,0,0,0,0,0,-1,1084,1513,0,0
-133,-489,0,0,0,0,0,0,0,0,0,-1,1091,1513,0,0
-126,-489,0,0,0,0,0,0,0,0,0,-1,1098,1513,0,0
-119,-489,0,0,0,0,0,0,0,0,0,-1,1105,1513,0,0
-112,-489,0,0,0,0,0,0,0,0,0,-1,1112,1513,0,0
-105,-489,0,0,0,0,0,0,0,0,0,-1,1119,1513,0,0
-98,-489,0,0,0,0,0,0,0,0,0,-1,1126,1513,0,0
-91,-489,0,0,0,0,0,0,0,0,0,-1,1133,1513,0,0
-84,-489,0,0,0,0,0,0,0,0,0,-1,1140,1513,0,0
-77,-489,0,0,0,0,0,0,0,0,0,-1,1147,1513,0,0
-70,-489,0,0,0,0,0,0,0,0,0,-1,1154,1513,0,0
-63,-489,0,0,0,0,0,0,0,0,0,-1,1161,1513,0,0
-56,-489,0,0,0,0,0,0,0,0,0,-1,1168,1513,0,0
-49,-489,0,0,0,0,0,0,0,0,0,-1,1175,1513,0,0
-42,-489,0,0,0,0,0,0,0,0,0,-1,1182,1513,0,0
-35,-489,0,0,0,0,0,0,0,0,0,-1,1189,1513,0,0
-28,-489,0,0,0,0,0,0,0,0,0,-1,1196,1513,0,0
-21,-489,0,0,0,0,0,0,0,0,0,-1,1203,1513,0,0
-14,-489,0,0,0,0,0,0,0,0,0,-1,1210,1513,0,0
-7,-489,0,0,0,0,0,0,0,0,0,-1,1217,1513,0,0
0,-489,0,0,0,0,0,0,0,0,0,-1,1224,1513,0,0
7,-489,0,0,0,0,0,0,0,0,0,-1,1231,1513,0,0
14,-489,0,0,0,0,0,0,0,0,0,-1,1238,1513,0,0
21,-489,0,0,0,0,0,0,0,0,0,-1,1245,1513,0,0
28,-489,0,0,0,0,0,0,0,0,0,-1,1252,1513,0,0
35,-489,0,0,0,0,0,0,0,0,0,-1,1259,1513,0,0
42,-489,0,0,0,0,0,0,0,0,0,-1,1266,1513,0,0
49,-489,0,0,0,0,0,0,0,0,0,-1,1273,1513,0,0
56,-489,0,0,0,0,0,0,0,0,0,-1,1280,1513,0,0
63,-489,0,0,0,0,0,0,0,0,0,-1,1287,1513,0,0
70,-489,0,0,0,0,0,0,0,0,0,-1,1294,1513,0,0
77,-489,0,0,0,0,0,0,0,0,0,-1,1301,1513,0,0
84,-489,0,0,0,0,0,0,0,0,0,-1,1308,1513,0,0
91,-489,0,0,0,0,0,0,0,0,0,-1,1315,1513,0,0
98,-489,0,0,0,0,0,0,0,0,0,-1,1322,1513,0,0
105,-489,0,0,0,0,0,0,0,0,0,-1,1329,1513,0,0
112,-489,0,0,0,0,0,0,0,0,0,-1,1336,1513,0,0
119,-489,0,0,0,0,0,0,0,0,0,-1,1343,1513,0,0
126,-489,0,0,0,0,0,0,0,0,0,-1,1350,1513,0,0
133,-489,0,0,0,0,0,0,0,0,0,-1,1357,1513,0,0
140,-489,0,0,0,0,0,0,0,0,0,-1,1364,1513,0,0
147,-489,0,0,0,0,0,0,0,0,0,-1,1371,1513,0,0
154,-489,0,0,0,0,0,0,0,0,0,-1,1378,1513,0,0
161,-489,0,0,0,0,0,0,0,0,0,-1,1385,1513,0,0
168,-489,0,0,0,0,0,0,0,0,0,-1,1392,1513,0,0
175,-489,0,0,0,0,0,0,0,0,0,-1,1399,1513,0,0
182,-489,0,0,0,0,0,0,0,0,0,-1,1406,1513,0,0
189,-489,0,0,0,0,0,0,0,0,0,-1,1413,1513,0,0
196,-489,0,0,0,0,0,0,0,0,0,-1,1420,1513,0,0
203,-489,0,0,0,0,0,0,0,0,0,-1,1427,1513,0,0
210,-489,0,0,0,0,0,0,0,0,0,-1,1434,1513,0,0
217,-489,0,0,0,0,0,0,0,0,0,-1,1441,1513,0,0
224,-489,0,0,0,0,0,0,0,0,0,-1,1448,1513,0,0
231,-489,0,0,0,0,0,0,0,0,0,-1,1455,1513,0,0
238,-489,0,0,0,0,0,0,0,0,0,-1,1462,1513,0,0
245,-489,0,0,0,0,0,0,0,0,0,-1,1469,1513,0,0
252,-489,0,0,0,0,0,0,0,0,0,-1,1476,1513,0,0
259,-489,0,0,0,0,0,0,0,0,0,-1,1483,1513,0,0
266,-489,0,0,0,0,0,0,0,0,0,-1,1490,1513,0,0
273,-489,0,0,0,0,0,0,0,0,0,-1,1497,1513,0,0
280,-489,0,0,0,0,0,0,0,0,0,-1,1504,1513,0,0
287,-489,0,0,0,0,0,0,0,0,0,-1,1511,1513,0,0
294,-489,0,0,0,0,0,0,0,0,0,-1,1518,1513,0,0
301,-489,0,0,0,0,0,0,0,0,0,-1,1525,1513,0,0
308,-489,0,0,0,0,0,0,0,0,0,-1,1532,1513,0,0
315,-489,0,0,0,0,0,0,0,0,0,-1,1539,1513,0,0
322,-489,0,0,0,0,0,0,0,0,0,-1,1546,1513,0,0
329,-489,0,0,0,0,0,0,0,0,0,-1,1553,1513,0,0
336,-489,0,0,0,0,0,0,0,0,0,-1,1560,1513,0,0
343,-489,0,0,0,0,0,0,0,0,0,-1,1567,1513,0,0
350,-489,0,0,0,0,0,0,0,0,0,-1,1574,1513,0,0
357,-489,0,0,0,0,0,0,0,0,0,-1,1581,1513,0,0
364,-489,0,0,0,0,0,0,0,0,0,-1,1588,1513,0,0
371,-489,0,0,0,0,0,0,0,0,0,-1,1595,1513,0,0
378,-489,0,0,0,0,0,0,0,0,0,-1,1602,1513,0,0
385,-489,0,0,0,0,0,0,0,0,0,-1,1609,1513,0,0
392,-489,0,0,0,0,0,0,0,0,0,-1,1616,1513,0,0
399,-489,0,0,0,0,0,0,0,0,0,-1,1623,1513,0,0
406,-489,0,0,0,0,0,0,0,0,0,-1,1630,1513,0,0
413,-489,0,0,0,0,0,0,0,0,0,-1,1637,1513,0,0
420,-489,0,0,0,0,0,0,0,0,0,-1,1644,1513,0,0
427,-489,0,0,0,0,0,0,0,0,0,-1,1651,1513,0,0
434,-489,0,0,0,0,0,0,0,0,0,-1,1658,1513,0,0
441,-489,11.4602,2.56787,0,0,0,0,0,0,0,-1,1665,1513,11.4602,-2.56786
448,-489,12.4425,1.72351,0,0,0,0,0,0,0,-1,1672,1513,12.4425,-1.72349
455,-489,12.5575,1.37463,0,0,0,0,0,0,0,-1,1679,1513,12.5575,-1.37469
462,-489,14.9784,3.84888,0,0,0,0,0,0,0,-1,1686,1513,14.9784,-3.84892
469,-489,15.1367,4.53101,0,0,0,0,0,0,0,-1,1693,1513,15.1368,-4.531
476,-489,15.5536,5.09338,0,0,0,0,0,0,0,-1,1700,1513,15.5536,-5.09339
483,-489,8.96912,8.37805,0,0,0,0,0,0,0,-1,1707,1513,8.96909,-8.37809
490,-489,10.5366,7.49561,0,0,0,0,0,0,0,-1,1714,1513,10.5367,-7.49558
497,-489,14.6051,11.8397,0,0,0,0,0,0,0,-1,1721,1513,14.6051,-11.8397
504,-489,16.7527,14.1735,0,0,0,0,0,0,0,-1,1728,1513,16.7527,-14.1735
511,-489,17.83,17.7993,0,0,0,0,0,0,0,-1,1735,1513,17.83,-17.7993
518,-489,16.4751,14.3682,0,0,0,0,0,0,0,-1,1742,1513,16.4751,-14.3682
525,-489,17.2606,17.4949,0,0,0,0,0,0,0,-1,1749,1513,17.2606,-17.4949
532,-489,19.397,21.0182,0,0,0,0,0,0,0,-1,1756,1513,19.397,-21.0182
539,-489,29.639,34.5758,0,0,0,0,0,0,0,-1,1763,1513,29.6391,-34.5758
546,-489,29.8333,33.5403,0.0111732,0.00802347,-0.00726644,0.0170335,0.00216321,-0.678681,0.0107077,0.0427528,1770,1513,29.8332,-33.5403
553,-489,29.7987,32.5616,0.00892495,0.00601005,-0.00544347,0.0131027,0.00183229,-0.654595,0.00819296,0.0244538,1777,1513,29.7987,-32.5617
560,-489,29.802,31.6881,0.00704553,0.004382,-0.00397301,0.00990404,0.0015235,-0.623682,0.006158,0.014702,1784,1513,29.802,-31.6882
567,-489,29.8115,30.8833,0.00550614,0.00312487,-0.00290165,0.00745193,0.00117908,-0.590708,0.0046253,0.0160535,1791,1513,29.8116,-30.8833
574,-489,29.7437,30.1276,0.00428528,0.00215687,-0.00211316,0.00558708,0.000855069,-0.552134,0.00347494,0.0158376,1798,1513,29.7436,-30.1276
581,-489,29.7144,29.3168,0.00328288,0.00140039,-0.00147179,0.00408866,0.000594611,-0.50091,0.00255078,0.0113283,1805,1513,29.7144,-29.3168
588,-489,29.66,28.5223,0.00257617,0.000813287,-0.000999243,0.00302718,0.000362277,-0.423978,0.00190885,0.0139574,1812,1513,29.6601,-28.5223
595,-489,29.615,27.743,0.00214834,0.000356827,-0.000514854,0.00228577,0.000219407,-0.26083,0.00145623,0.0204733,1819,1513,29.615,-27.743
602,-489,29.5782,26.9673,0.00187353,6.85941e-05,-0.000151191,0.0018861,5.60172e-05,-0.0829948,0.00123915,0.0245115,1826,1513,29.5782,-26.9673
609,-489,29.525,26.1333,0.00173804,-0.000155807,0.000286291,0.00178037,-0.000198139,0.146801,0.00125817,0.0170104,1833,1513,29.525,-26.1333
616,-489,29.4886,25.2853,0.00193055,-0.000326288,0.000798638,0.00218458,-0.000580313,0.307953,0.0016835,0.0238398,1840,1513,29.4887,-25.2853
623,-489,29.5548,24.4475,0,0,0,0,0,0,0,-1,1847,1513,29.5548,-24.4475
630,-489,29.4976,23.5437,0,0,0,0,0,0,0,-1,1854,1513,29.4976,-23.5437
637,-489,17.2048,11.8091,0,0,0,0,0,0,0,-1,1861,1513,17.2048,-11.8091
644,-489,9.67578,8.45874,0,0,0,0,0,0,0,-1,1868,1513,9.67576,-8.45879
651,-489,6.13818,6.85095,0,0,0,0,0,0,0,-1,1875,1513,6.13823,-6.85097
658,-489,5.43848,7.75513,0,0,0,0,0,0,0,-1,1882,1513,5.43844,-7.75509
665,-489,5.48438,8.59912,0,0,0,0,0,0,0,-1,1889,1513,5.48434,-8.59907
672,-489,0,0,0,0,0,0,0,0,0,-1,1896,1513,0,0
679,-489,0,0,0,0,0,0,0,0,0,-1,1903,1513,0,0
686,-489,0,0,0,0,0,0,0,0,0,-1,1910,1513,0,0
693,-489,0,0,0,0,0,0,0,0,0,-1,1917,1513,0,0
700,-489,0,0,0,0,0,0,0,0,0,-1,1924,1513,0,0
707,-489,0,0,0,0,0,0,0,0,0,-1,1931,1513,0,0
714,-489,0,0,0,0,0,0,0,0,0,-1,1938,1513,0,0
721,-489,0,0,0,0,0,0,0,0,0,-1,1945,1513,0,0
728,-489,0,0,0,0,0,0,0,0,0,-1,1952,1513,0,0
735,-489,0,0,0,0,0,0,0,0,0,-1,1959,1513,0,0
742,-489,0,0,0,0,0,0,0,0,0,-1,1966,1513,0,0
749,-489,0,0,0,0,0,0,0,0,0,-1,1973,1513,0,0
756,-489,0,0,0,0,0,0,0,0,0,-1,1980,1513,0,0
763,-489,0,0,0,0,0,0,0,0,0,-1,1987,1513,0,0
770,-489,0,0,0,0,0,0,0,0,0,-1,1994,1513,0,0
777,-489,0,0,0,0,0,0,0,0,0,-1,2001,1513,0,0
784,-489,0,0,0,0,0,0,0,0,0,-1,2008,1513,0,0
791,-489,0,0,0,0,0,0,0,0,0,-1,2015,1513,0,0
798,-489,0,0,0,0,0,0,0,0,0,-1,2022,1513,0,0
805,-489,0,0,0,0,0,0,0,0,0,-1,2029,1513,0,0
812,-489,0,0,0,0,0,0,0,0,0,-1,2036,1513,0,0
-700,-496,0,0,0,0,0,0,0,0,0,-1,524,1520,0,0
-693,-496,0,0,0,0,0,0,0,0,0,-1,531,1520,0,0
-686,-496,0,0,0,0,0,0,0,0,0,-1,538,1520,0,0
-679,-496,0,0,0,0,0,0,0,0,0,-1,545,1520,0,0
-672,-496,0,0,0,0,0,0,0,0,0,-1,552,1520,0,0
-665,-496,0,0,0,0,0,0,0,0,0,-1,559,1520,0,0
-658,-496,0,0,0,0,0,0,0,0,0,-1,566,1520,0,0
-651,-496,0,0,0,0,0,0,0,0,0,-1,573,1520,0,0
-644,-496,0,0,0,0,0,0,0,0,0,-1,580,1520,0,0
-637,-496,0,0,0,0,0,0,0,0,0,-1,587,1520,0,0
-630,-496,0,0,0,0,0,0,0,0,0,-1,594,1520,0,0
-623,-496,0,0,0,0,0,0,0,0,0,-1,601,1520,0,0
-616,-496,0,0,0,0,0,0,0,0,0,-1,608,1520,0,0
-609,-496,0,0,0,0,0,0,0,0,0,-1,615,1520,0,0
-602,-496,0,0,0,0,0,0,0,0,0,-1,622,1520,0,0
-595,-496,0,0,0,0,0,0,0,0,0,-1,629,1520,0,0
-588,-496,0,0,0,0,0,0,0,0,0,-1,636,1520,0,0
-581,-496,0,0,0,0,0,0,0,0,0,-1,643,1520,0,0
-574,-496,0,0,0,0,0,0,0,0,0,-1,650,1520,0,0
-567,-496,0,0,0,0,0,0,0,0,0,-1,657,1520,0,0
-560,-496,0,0,0,0,0,0,0,0,0,-1,664,1520,0,0
-553,-496,0,0,0,0,0,0,0,0,0,-1,671,1520,0,0
-546,-496,-8.09711,7.94836,0,0,0,0,0,0,0,-1,678,1520,-8.09712,-7.94842
-539,-496,-3.20129,1.16052,0,0,0,0,0,0,0,-1,685,1520,-3.20131,-1.16054
-532,-496,-2.98279,2.62146,0,0,0,0,0,0,0,-1,692,1520,-2.98278,-2.62151
-525,-496,-2.75201,4.08032,0,0,0,0,0,0,0,-1,699,1520,-2.75201,-4.08031
-518,-496,-2.6333,5.36072,0,0,0,0,0,0,0,-1,706,1520,-2.63328,-5.36077
-511,-496,-7.92126,9.68604,0,0,0,0,0,0,0,-1,713,1520,-7.92127,-9.68598
-504,-496,-7.51044,11.6274,0,0,0,0,0,0,0,-1,720,1520,-7.51042,-11.6275
-497,-496,-5.30933,14.4291,0,0,0,0,0,0,0,-1,727,1520,-5.30932,-14.4291
-490,-496,-8.21246,19.5051,0,0,0,0,0,0,0,-1,734,1520,-8.21243,-19.5051
-483,-496,-11.6843,25.2523,0,0,0,0,0,0,0,-1,741,1520,-11.6843,-25.2524
-476,-496,-11.5274,26.1681,0.000853511,0.00103991,0.00187717,0.00282619,-0.000932768,0.810202,0.00226014,0.0288596,748,1520,-11.5274,-26.1681
-469,-496,-11.5073,27.0454,0.000366655,0.000218872,0.00112667,0.00142186,-0.000836331,0.752653,0.00131829,0.0106038,755,1520,-11.5073,-27.0454
-462,-496,-11.5397,27.8704,0.000198748,4.5338e-05,0.000785715,0.000911494,-0.000667408,0.73674,0.000915203,0.0163326,762,1520,-11.5397,-27.8704
-455,-496,-11.6079,28.7115,0.000353657,0.000271902,0.00078454,0.00109838,-0.000472824,0.75937,0.000930795,0.0226439,769,1520,-11.6079,-28.7116
-448,-496,-11.6719,29.5643,0.000798875,0.000912444,0.00109592,0.00195305,-0.000241734,0.811282,0.00138964,0.020399,776,1520,-11.6719,-29.5643
-441,-496,-11.6826,30.3718,0.00146538,0.00184405,0.00165979,0.00332526,-1.58388e-05,0.842188,0.00222214,0.014323,783,1520,-11.6825,-30.3719
-434,-496,-11.7493,31.173,0.00231827,0.00306391,0.00243588,0.00515534,0.000226838,0.861336,0.00336383,0.0144245,790,1520,-11.7493,-31.173
-427,-496,-11.8167,32.0083,0.00333106,0.00445968,0.00337026,0.00731254,0.000478192,0.868348,0.00472371,0.0185462,797,1520,-11.8167,-32.0082
-420,-496,-11.8611,32.8239,0.00455511,0.00607303,0.00450873,0.00988623,0.000741909,0.868782,0.00635796,0.0197189,804,1520,-11.8611,-32.8239
-413,-496,-11.7992,33.7101,0.00592314,0.00800264,0.00578542,0.012841,0.00108478,0.874309,0.00822295,0.0325155,811,1520,-11.7992,-33.7101
-406,-496,-11.6702,34.817,0,0,0,0,0,0,0,-1,818,1520,-11.6702,-34.817
-399,-496,-11.2809,36.0282,0,0,0,0,0,0,0,-1,825,1520,-11.2809,-36.0283
-392,-496,-1.49786,12.387,0,0,0,0,0,0,0,-1,832,1520,-1.49788,-12.387
-385,-496,-1.72437,11.4985,0,0,0,0,0,0,0,-1,839,1520,-1.72436,-11.4985
-378,-496,-1.45532,14.0719,0,0,0,0,0,0,0,-1,846,1520,-1.45533,-14.0719
-371,-496,0.0877075,12.5299,0,0,0,0,0,0,0,-1,853,1520,0.0876896,-12.5299
-364,-496,0.0881348,10.6422,0,0,0,0,0,0,0,-1,860,1520,0.0881368,-10.6423
-357,-496,0.323792,7.56812,0,0,0,0,0,0,0,-1,867,1520,0.323782,-7.56806
-350,-496,2.1535,7.18945,0,0,0,0,0,0,0,-1,874,1520,2.15348,-7.1894
-343,-496,-7.56244,0.335327,0,0,0,0,0,0,0,-1,881,1520,-7.56242,-0.335322
-336,-496,-3.99249,6.02222,0,0,0,0,0,0,0,-1,888,1520,-3.99246,-6.0222
-329,-496,-6.93689,-0.100342,0,0,0,0,0,0,0,-1,895,1520,-6.93686,0.1003
-322,-496,-6.17505,0.494385,0,0,0,0,0,0,0,-1,902,1520,-6.17507,-0.49437
-315,-496,-7.539,5.78638,0,0,0,0,0,0,0,-1,909,1520,-7.53898,-5.78633
-308,-496,0,0,0,0,0,0,0,0,0,-1,916,1520,0,0
-301,-496,0,0,0,0,0,0,0,0,0,-1,923,1520,0,0
-294,-496,0,0,0,0,0,0,0,0,0,-1,930,1520,0,0
-287,-496,0,0,0,0,0,0,0,0,0,-1,937,1520,0,0
-280,-496,0,0,0,0,0,0,0,0,0,-1,944,1520,0,0
-273,-496,0,0,0,0,0,0,0,0,0,-1,951,1520,0,0
-266,-496,0,0,0,0,0,0,0,0,0,-1,958,1520,0,0
-259,-496,0,0,0,0,0,0,0,0,0,-1,965,1520,0,0
-252,-496,0,0,0,0,0,0,0,0,0,-1,972,1520,0,0
-245,-496,0,0,0,0,0,0,0,0,0,-1,979,1520,0,0
-238,-496,0,0,0,0,0,0,0,0,0,-1,986,1520,0,0
-231,-496,0,0,0,0,0,0,0,0,0,-1,993,1520,0,0
-224,-496,0,0,0,0,0,0,0,0,0,-1,1000,1520,0,0
-217,-496,0,0,0,0,0,0,0,0,0,-1,1007,1520,0,0
-210,-496,0,0,0,0,0,0,0,0,0,-1,1014,1520,0,0
-203,-496,0,0,0,0,0,0,0,0,0,-1,1021,1520,0,0
-196,-496,0,0,0,0,0,0,0,0,0,-1,1028,1520,0,0
-189,-496,0,0,0,0,0,0,0,0,0,-1,1035,1520,0,0
-182,-496,0,0,0,0,0,0,0,0,0,-1,1042,1520,0,0
-175,-496,0,0,0,0,0,0,0,0,0,-1,1049,1520,0,0
-168,-496,0,0,0,0,0,0,0,0,0,-1,1056,1520,0,0
-161,-496,0,0,0,0,0,0,0,0,0,-1,1063,1520,0,0
-154,-496,0,0,0,0,0,0,0,0,0,-1,1070,1520,0,0
-147,-496,0,0,0,0,0,0,0,0,0,-1,1077,1520,0,0
-140,-496,0,0,0,0,0,0,0,0,0,-1,1084,1520,0,0
-133,-496,0,0,0,0,0,0,0,0,0,-1,1091,1520,0,0
-126,-496,0,0,0,0,0,0,0,0,0,-1,1098,1520,0,0
-119,-496,0,0,0,0,0,0,0,0,0,-1,1105,1520,0,0
-112,-496,0,0,0,0,0,0,0,0,0,-1,1112,1520,0,0
-105,-496,0,0,0,0,0,0,0,0,0,-1,1119,1520,0,0
-98,-496,0,0,0,0,0,0,0,0,0,-1,1126,1520,0,0
-91,-496,0,0,0,0,0,0,0,0,0,-1,1133,1520,0,0
-84,-496,0,0,0,0,0,0,0,0,0,-1,1140,1520,0,0
-77,-496,0,0,0,0,0,0,0,0,0,-1,1147,1520,0,0
-70,-496,0,0,0,0,0,0,0,0,0,-1,1154,1520,0,0
-63,-496,0,0,0,0,0,0,0,0,0,-1,1161,1520,0,0
-56,-496,0,0,0,0,0,0,0,0,0,-1,1168,1520,0,0
-49,-496,0,0,0,0,0,0,0,0,0,-1,1175,1520,0,0
-42,-496,0,0,0,0,0,0,0,0,0,-1,1182,1520,0,0
-35,-496,0,0,0,0,0,0,0,0,0,-1,1189,1520,0,0
-28,-496,0,0,0,0,0,0,0,0,0,-1,1196,1520,0,0
-21,-496,0,0,0,0,0,0,0,0,0,-1,1203,1520,0,0
-14,-496,0,0,0,0,0,0,0,0,0,-1,1210,1520,0,0
-7,-496,0,0,0,0,0,0,0,0,0,-1,1217,1520,0,0
0,-496,0,0,0,0,0,0,0,0,0,-1,1224,1520,0,0
7,-496,0,0,0,0,0,0,0,0,0,-1,1231,1520,0,0
14,-496,0,0,0,0,0,0,0,0,0,-1,1238,1520,0,0
21,-496,0,0,0,0,0,0,0,0,0,-1,1245,1520,0,0
28,-496,0,0,0,0,0,0,0,0,0,-1,1252,1520,0,0
35,-496,0,0,0,0,0,0,0,0,0,-1,1259,1520,0,0
42,-496,0,0,0,0,0,0,0,0,0,-1,1266,1520,0,0
49,-496,0,0,0,0,0,0,0,0,0,-1,1273,1520,0,0
56,-496,0,0,0,0,0,0,0,0,0,-1,1280,1520,0,0
63,-496,0,0,0,0,0,0,0,0,0,-1,1287,1520,0,0
70,-496,0,0,0,0,0,0,0,0,0,-1,1294,1520,0,0
77,-496,0,0,0,0,0,0,0,0,0,-1,1301,1520,0,0
84,-496,0,0,0,0,0,0,0,0,0,-1,1308,1520,0,0
91,-496,0,0,0,0,0,0,0,0,0,-1,1315,1520,0,0
98,-496,0,0,0,0,0,0,0,0,0,-1,1322,1520,0,0
105,-496,0,0,0,0,0,0,0,0,0,-1,1329,1520,0,0
112,-496,0,0,0,0,0,0,0,0,0,-1,1336,1520,0,0
119,-496,0,0,0,0,0,0,0,0,0,-1,1343,1520,0,0
126,-496,0,0,0,0,0,0,0,0,0,-1,1350,1520,0,0
133,-496,0,0,0,0,0,0,0,0,0,-1,1357,1520,0,0
140,-496,0,0,0,0,0,0,0,0,0,-1,1364,1520,0,0
147,-496,0,0,0,0,0,0,0,0,0,-1,1371,1520,0,0
154,-496,0,0,0,0,0,0,0,0,0,-1,1378,1520,0,0
161,-496,0,0,0,0,0,0,0,0,0,-1,1385,1520,0,0
168,-496,0,0,0,0,0,0,0,0,0,-1,1392,1520,0,0
175,-496,0,0,0,0,0,0,0,0,0,-1,1399,1520,0,0
182,-496,0,0,0,0,0,0,0,0,0,-1,1406,1520,0,0
189,-496,0,0,0,0,0,0,0,0,0,-1,1413,1520,0,0
196,-496,0,0,0,0,0,0,0,0,0,-1,1420,1520,0,0
203,-496,0,0,0,0,0,0,0,0,0,-1,1427,1520,0,0
210,-496,0,0,0,0,0,0,0,0,0,-1,1434,1520,0,0
217,-496,0,0,0,0,0,0,0,0,0,-1,1441,1520,0,0
224,-496,0,0,0,0,0,0,0,0,0,-1,1448,1520,0,0
231,-496,0,0,0,0,0,0,0,0,0,-1,1455,1520,0,0
238,-496,0,0,0,0,0,0,0,0,0,-1,1462,1520,0,0
245,-496,0,0,0,0,0,0,0,0,0,-1,1469,1520,0,0
252,-496,0,0,0,0,0,0,0,0,0,-1,1476,1520,0,0
259,-496,0,0,0,0,0,0,0,0,0,-1,1483,1520,0,0
266,-496,0,0,0,0,0,0,0,0,0,-1,1490,1520,0,0
273,-496,0,0,0,0,0,0,0,0,0,-1,1497,1520,0,0
280,-496,0,0,0,0,0,0,0,0,0,-1,1504,1520,0,0
287,-496,0,0,0,0,0,0,0,0,0,-1,1511,1520,0,0
294,-496,0,0,0,0,0,0,0,0,0,-1,1518,1520,0,0
301,-496,0,0,0,0,0,0,0,0,0,-1,1525,1520,0,0
308,-496,0,0,0,0,0,0,0,0,0,-1,1532,1520,0,0
315,-496,0,0,0,0,0,0,0,0,0,-1,1539,1520,0,0
322,-496,0,0,0,0,0,0,0,0,0,-1,1546,1520,0,0
329,-496,0,0,0,0,0,0,0,0,0,-1,1553,1520,0,0
336,-496,0,0,0,0,0,0,0,0,0,-1,1560,1520,0,0
343,-496,0,0,0,0,0,0,0,0,0,-1,1567,1520,0,0
350,-496,0,0,0,0,0,0,0,0,0,-1,1574,1520,0,0
357,-496,0,0,0,0,0,0,0,0,0,-1,1581,1520,0,0
364,-496,0,0,0,0,0,0,0,0,0,-1,1588,1520,0,0
371,-496,0,0,0,0,0,0,0,0,0,-1,1595,1520,0,0
378,-496,0,0,0,0,0,0,0,0,0,-1,1602,1520,0,0
385,-496,0,0,0,0,0,0,0,0,0,-1,1609,1520,0,0
392,-496,0,0,0,0,0,0,0,0,0,-1,1616,1520,0,0
399,-496,0,0,0,0,0,0,0,0,0,-1,1623,1520,0,0
406,-496,0,0,0,0,0,0,0,0,0,-1,1630,1520,0,0
413,-496,0,0,0,0,0,0,0,0,0,-1,1637,1520,0,0
420,-496,0,0,0,0,0,0,0,0,0,-1,1644,1520,0,0
427,-496,0,0,0,0,0,0,0,0,0,-1,1651,1520,0,0
434,-496,11.0457,3.37732,0,0,0,0,0,0,0,-1,1658,1520,11.0456,-3.37736
441,-496,11.788,2.75488,0,0,0,0,0,0,0,-1,1665,1520,11.7879,-2.75485
448,-496,12.2146,2.18494,0,0,0,0,0,0,0,-1,1672,1520,12.2146,-2.18489
455,-496,12.3489,1.65173,0,0,0,0,0,0,0,-1,1679,1520,12.3489,-1.65178
462,-496,12.1912,1.32361,0,0,0,0,0,0,0,-1,1686,1520,12.1911,-1.32357
469,-496,14.8138,5.77954,0,0,0,0,0,0,0,-1,1693,1520,14.8138,-5.77958
476,-496,15.2449,6.27942,0,0,0,0,0,0,0,-1,1700,1520,15.2449,-6.27936
483,-496,9.19812,6.88367,0,0,0,0,0,0,0,-1,1707,1520,9.19812,-6.88361
490,-496,10.2123,7.97144,0,0,0,0,0,0,0,-1,1714,1520,10.2122,-7.97145
497,-496,13.9297,12.2981,0,0,0,0,0,0,0,-1,1721,1520,13.9297,-12.2982
504,-496,16.3271,16.6501,0,0,0,0,0,0,0,-1,1728,1520,16.3272,-16.6502
511,-496,17.6753,18.0685,0,0,0,0,0,0,0,-1,1735,1520,17.6753,-18.0685
518,-496,17.0537,17.3118,0,0,0,0,0,0,0,-1,1742,1520,17.0538,-17.3118
525,-496,18.2721,19.3259,0,0,0,0,0,0,0,-1,1749,1520,18.2721,-19.3259
532,-496,29.1921,34.4061,0,0,0,0,0,0,0,-1,1756,1520,29.1921,-34.4061
539,-496,28.7107,34.4602,0,0,0,0,0,0,0,-1,1763,1520,28.7107,-34.4602
546,-496,28.9489,33.4572,0.00919286,0.00682232,-0.00613894,0.0142599,0.00175527,-0.690034,0.00897889,0.0236403,1770,1520,28.9488,-33.4572
553,-496,29.0521,32.5199,0.00728998,0.00515935,-0.00457006,0.0109172,0.00153208,-0.670889,0.00682503,0.0155696,1777,1520,29.0521,-32.5198
560,-496,29.0444,31.724,0.0057213,0.00377921,-0.00330496,0.00819492,0.00130559,-0.642512,0.00508427,0.014901,1784,1520,29.0444,-31.724
567,-496,29.0087,30.9305,0.00446518,0.00270244,-0.00239094,0.00613203,0.0010356,-0.608812,0.00379027,0.0125667,1791,1520,29.0087,-30.9305
574,-496,28.958,30.1427,0.00349928,0.00185985,-0.00171586,0.00458118,0.000777956,-0.562561,0.00283066,0.0126002,1798,1520,28.9581,-30.1427
581,-496,28.9012,29.3704,0.00273935,0.00119804,-0.00117916,0.00337735,0.000560035,-0.495959,0.00209005,0.0137857,1805,1520,28.9013,-29.3704
588,-496,28.8805,28.5594,0.00225916,0.000692906,-0.000811807,0.002604,0.000348061,-0.40169,0.0016324,0.016785,1812,1520,28.8805,-28.5594
595,-496,28.8219,27.7909,0.0020415,0.000331849,-0.000434267,0.00214548,0.000227865,-0.235022,0.00136074,0.0189087,1819,1520,28.8218,-27.7909
602,-496,28.766,27.0264,0.00198777,0.000163561,-0.000178929,0.00200515,0.000146176,-0.096856,0.0012908,0.0191451,1826,1520,28.766,-27.0264
609,-496,28.7512,26.1564,0.0020445,5.45098e-06,0.000159254,0.00205686,-6.91216e-06,0.0774761,0.00137355,0.0183186,1833,1520,28.7512,-26.1564
616,-496,28.775,25.0963,0,0,0,0,0,0,0,-1,1840,1520,28.775,-25.0963
623,-496,28.5599,23.3392,0,0,0,0,0,0,0,-1,1847,1520,28.5599,-23.3392
630,-496,18.5656,13.8966,0,0,0,0,0,0,0,-1,1854,1520,18.5655,-13.8967
637,-496,14.6411,10.1016,0,0,0,0,0,0,0,-1,1861,1520,14.6411,-10.1016
644,-496,12.4537,10.087,0,0,0,0,0,0,0,-1,1868,1520,12.4537,-10.0871
651,-496,8.18506,5.47803,0,0,0,0,0,0,0,-1,1875,1520,8.18505,-5.47806
658,-496,7.79993,4.02563,0,0,0,0,0,0,0,-1,1882,1520,7.79997,-4.02568
665,-496,5.47583,7.90625,0,0,0,0,0,0,0,-1,1889,1520,5.47581,-7.90628
672,-496,0,0,0,0,0,0,0,0,0,-1,1896,1520,0,0
679,-496,0,0,0,0,0,0,0,0,0,-1,1903,1520,0,0
686,-496,0,0,0,0,0,0,0,0,0,-1,1910,1520,0,0
693,-496,0,0,0,0,0,0,0,0,0,-1,1917,1520,0,0
700,-496,0,0,0,0,0,0,0,0,0,-1,1924,1520,0,0
707,-496,0,0,0,0,0,0,0,0,0,-1,1931,1520,0,0
714,-496,0,0,0,0,0,0,0,0,0,-1,1938,1520,0,0
721,-496,0,0,0,0,0,0,0,0,0,-1,1945,1520,0,0
728,-496,0,0,0,0,0,0,0,0,0,-1,1952,1520,0,0
735,-496,0,0,0,0,0,0,0,0,0,-1,1959,1520,0,0
742,-496,0,0,0,0,0,0,0,0,0,-1,1966,1520,0,0
749,-496,0,0,0,0,0,0,0,0,0,-1,1973,1520,0,0
756,-496,0,0,0,0,0,0,0,0,0,-1,1980,1520,0,0
763,-496,0,0,0,0,0,0,0,0,0,-1,1987,1520,0,0
770,-496,0,0,0,0,0,0,0,0,0,-1,1994,1520,0,0
777,-496,0,0,0,0,0,0,0,0,0,-1,2001,1520,0,0
784,-496,0,0,0,0,0,0,0,0,0,-1,2008,1520,0,0
791,-496,0,0,0,0,0,0,0,0,0,-1,2015,1520,0,0
798,-496,0,0,0,0,0,0,0,0,0,-1,2022,1520,0,0
805,-496,0,0,0,0,0,0,0,0,0,-1,2029,1520,0,0
812,-496,0,0,0,0,0,0,0,0,0,-1,2036,1520,0,0
-700,-503,0,0,0,0,0,0,0,0,0,-1,524,1527,0,0
-693,-503,0,0,0,0,0,0,0,0,0,-1,531,1527,0,0
-686,-503,0,0,0,0,0,0,0,0,0,-1,538,1527,0,0
-679,-503,0,0,0,0,0,0,0,0,0,-1,545,1527,0,0
-672,-503,0,0,0,0,0,0,0,0,0,-1,552,1527,0,0
-665,-503,0,0,0,0,0,0,0,0,0,-1,559,1527,0,0
-658,-503,0,0,0,0,0,0,0,0,0,-1,566,1527,0,0
-651,-503,0,0,0,0,0,0,0,0,0,-1,573,1527,0,0
-644,-503,0,0,0,0,0,0,0,0,0,-1,580,1527,0,0
-637,-503,0,0,0,0,0,0,0,0,0,-1,587,1527,0,0
-630,-503,0,0,0,0,0,0,0,0,0,-1,594,1527,0,0
-623,-503,0,0,0,0,0,0,0,0,0,-1,601,1527,0,0
-616,-503,0,0,0,0,0,0,0,0,0,-1,608,1527,0,0
-609,-503,0,0,0,0,0,0,0,0,0,-1,615,1527,0,0
-602,-503,0,0,0,0,0,0,0,0,0,-1,622,1527,0,0
-595,-503,0,0,0,0,0,0,0,0,0,-1,629,1527,0,0
-588,-503,0,0,0,0,0,0,0,0,0,-1,636,1527,0,0
-581,-503,0,0,0,0,0,0,0,0,0,-1,643,1527,0,0
-574,-503,0,0,0,0,0,0,0,0,0,-1,650,1527,0,0
-567,-503,0,0,0,0,0,0,0,0,0,-1,657,1527,0,0
-560,-503,0,0,0,0,0,0,0,0,0,-1,664,1527,0,0
-553,-503,0,0,0,0,0,0,0,0,0,-1,671,1527,0,0
-546,-503,0,0,0,0,0,0,0,0,0,-1,678,1527,0,0
-539,-503,3.50177,4.26428,0,0,0,0,0,0,0,-1,685,1527,3.50177,-4.26424
-532,-503,-3.13196,1.05298,0,0,0,0,0,0,0,-1,692,1527,-3.13194,-1.05299
-525,-503,-2.94293,2.59314,0,0,0,0,0,0,0,-1,699,1527,-2.94296,-2.59314
-518,-503,-2.7395,4.05872,0,0,0,0,0,0,0,-1,706,1527,-2.73948,-4.05871
-511,-503,-1.60022,7.23877,0,0,0,0,0,0,0,-1,713,1527,-1.60023,-7.23872
-504,-503,-8.1402,10.1541,0,0,0,0,0,0,0,-1,720,1527,-8.14017,-10.1541
-497,-503,-4.51758,14.0781,0,0,0,0,0,0,0,-1,727,1527,-4.5176,-14.0782
-490,-503,-4.24194,16.1982,0,0,0,0,0,0,0,-1,734,1527,-4.24196,-16.1982
-483,-503,-9.55774,23.7681,0,0,0,0,0,0,0,-1,741,1527,-9.55776,-23.7681
-476,-503,-10.7728,26.2108,0,0,0,0,0,0,0,-1,748,1527,-10.7728,-26.2108
-469,-503,-10.7067,27.1028,-0.000896307,-0.000583813,0.000258455,-0.000438046,-0.00104207,1.05727,0.00060418,0.0199116,755,1527,-10.7067,-27.1027
-462,-503,-10.7184,27.9464,-0.00095164,-0.000725936,-1.6599e-05,-0.000724722,-0.000952854,-1.49778,0.000574494,0.0128804,762,1527,-10.7184,-27.9464
-455,-503,-10.7699,28.7869,-0.000692162,-0.000445463,4.69874e-05,-0.000436816,-0.000700809,1.38882,0.000408693,0.0194056,769,1527,-10.7699,-28.7868
-448,-503,-10.8196,29.6177,-0.000191049,0.000136925,0.000352432,0.000361655,-0.000415778,1.00315,0.000449214,0.0179849,776,1527,-10.8196,-29.6177
-441,-503,-10.8249,30.4209,0.000526026,0.001015,0.000909926,0.00171271,-0.000171685,0.916644,0.00120313,0.0144303,783,1527,-10.8249,-30.421
-434,-503,-10.902,31.2139,0.00139331,0.00212397,0.0016401,0.00343893,7.83358e-05,0.894983,0.00226696,0.0130438,790,1527,-10.902,-31.2138
-427,-503,-11.0015,32.0105,0.00235221,0.00331426,0.00246545,0.00534518,0.000321298,0.881741,0.00346133,0.0201053,797,1527,-11.0015,-32.0105
-420,-503,-11.0087,32.817,0.00346045,0.00467464,0.00343617,0.00755693,0.000578157,0.872834,0.00485672,0.0188176,804,1527,-11.0087,-32.817
-413,-503,-11.0544,33.6498,0.00468356,0.00622964,0.004513,0.0100353,0.000877872,0.870221,0.00641764,0.0166053,811,1527,-11.0544,-33.6498
-406,-503,-11.0541,34.4965,0.00591595,0.00766942,0.00565772,0.0125179,0.00106745,0.862268,0.00801321,0.0285442,818,1527,-11.0541,-34.4965
-399,-503,-10.9206,35.5599,0.0074298,0.00941053,0.00705594,0.0155453,0.00129506,0.855122,0.00995994,0.0492168,825,1527,-10.9206,-35.5599
-392,-503,-10.5441,36.8994,0,0,0,0,0,0,0,-1,832,1527,-10.5441,-36.8994
-385,-503,-2.00403,14.1218,0,0,0,0,0,0,0,-1,839,1527,-2.00403,-14.1218
-378,-503,-2.07043,13.8632,0,0,0,0,0,0,0,-1,846,1527,-2.07043,-13.8631
-371,-503,-1.67285,13.8081,0,0,0,0,0,0,0,-1,853,1527,-1.67285,-13.8081
-364,-503,0.181396,12.3768,0,0,0,0,0,0,0,-1,860,1527,0.18138,-12.3768
-357,-503,0.558533,9.25452,0,0,0,0,0,0,0,-1,867,1527,0.558542,-9.25446
-350,-503,0.219971,6.84827,0,0,0,0,0,0,0,-1,874,1527,0.21996,-6.84831
-343,-503,-3.5802,4.43274,0,0,0,0,0,0,0,-1,881,1527,-3.58018,-4.43276
-336,-503,-3.2384,6.40637,0,0,0,0,0,0,0,-1,888,1527,-3.2384,-6.40643
-329,-503,-1.70691,11.886,0,0,0,0,0,0,0,-1,895,1527,-1.70689,-11.886
-322,-503,-3.31317,8.81519,0,0,0,0,0,0,0,-1,902,1527,-3.31315,-8.81524
-315,-503,-3.90265,7.73853,0,0,0,0,0,0,0,-1,909,1527,-3.90264,-7.73854
-308,-503,-1.70264,7.35413,0,0,0,0,0,0,0,-1,916,1527,-1.70262,-7.35416
-301,-503,0,0,0,0,0,0,0,0,0,-1,923,1527,0,0
-294,-503,0,0,0,0,0,0,0,0,0,-1,930,1527,0,0
-287,-503,0,0,0,0,0,0,0,0,0,-1,937,1527,0,0
-280,-503,0,0,0,0,0,0,0,0,0,-1,944,1527,0,0
-273,-503,0,0,0,0,0,0,0,0,0,-1,951,1527,0,0
-266,-503,0,0,0,0,0,0,0,0,0,-1,958,1527,0,0
-259,-503,0,0,0,0,0,0,0,0,0,-1,965,1527,0,0
-252,-503,0,0,0,0,0,0,0,0,0,-1,972,1527,0,0
-245,-503,0,0,0,0,0,0,0,0,0,-1,979,1527,0,0
-238,-503,0,0,0,0,0,0,0,0,0,-1,986,1527,0,0
-231,-503,0,0,0,0,0,0,0,0,0,-1,993,1527,0,0
-224,-503,0,0,0,0,0,0,0,0,0,-1,1000,1527,0,0
-217,-503,0,0,0,0,0,0,0,0,0,-1,1007,1527,0,0
-210,-503,0,0,0,0,0,0,0,0,0,-1,1014,1527,0,0
-203,-503,0,0,0,0,0,0,0,0,0,-1,1021,1527,0,0
-196,-503,0,0,0,0,0,0,0,0,0,-1,1028,1527,0,0
-189,-503,0,0,0,0,0,0,0,0,0,-1,1035,1527,0,0
-182,-503,0,0,0,0,0,0,0,0,0,-1,1042,1527,0,0
-175,-503,0,0,0,0,0,0,0,0,0,-1,1049,1527,0,0
-168,-503,0,0,0,0,0,0,0,0,0,-1,1056,1527,0,0
-161,-503,0,0,0,0,0,0,0,0,0,-1,1063,1527,0,0
-154,-503,0,0,0,0,0,0,0,0,0,-1,1070,1527,0,0
-147,-503,0,0,0,0,0,0,0,0,0,-1,1077,1527,0,0
-140,-503,0,0,0,0,0,0,0,0,0,-1,1084,1527,0,0
-133,-503,0,0,0,0,0,0,0,0,0,-1,1091,1527,0,0
-126,-503,0,0,0,0,0,0,0,0,0,-1,1098,1527,0,0
-119,-503,0,0,0,0,0,0,0,0,0,-1,1105,1527,0,0
-112,-503,0,0,0,0,0,0,0,0,0,-1,1112,1527,0,0
-105,-503,0,0,0,0,0,0,0,0,0,-1,1119,1527,0,0
-98,-503,0,0,0,0,0,0,0,0,0,-1,1126,1527,0,0
-91,-503,0,0,0,0,0,0,0,0,0,-1,1133,1527,0,0
-84,-503,0,0,0,0,0,0,0,0,0,-1,1140,1527,0,0
-77,-503,0,0,0,0,0,0,0,0,0,-1,1147,1527,0,0
-70,-503,0,0,0,0,0,0,0,0,0,-1,1154,1527,0,0
-63,-503,0,0,0,0,0,0,0,0,0,-1,1161,1527,0,0
-56,-503,0,0,0,0,0,0,0,0,0,-1,1168,1527,0,0
-49,-503,0,0,0,0,0,0,0,0,0,-1,1175,1527,0,0
-42,-503,0,0,0,0,0,0,0,0,0,-1,1182,1527,0,0
-35,-503,0,0,0,0,0,0,0,0,0,-1,1189,1527,0,0
-28,-503,0,0,0,0,0,0,0,0,0,-1,1196,1527,0,0
-21,-503,0,0,0,0,0,0,0,0,0,-1,1203,1527,0,0
-14,-503,0,0,0,0,0,0,0,0,0,-1,1210,1527,0,0
-7,-503,0,0,0,0,0,0,0,0,0,-1,1217,1527,0,0
0,-503,0,0,0,0,0,0,0,0,0,-1,1224,1527,0,0
7,-503,0,0,0,0,0,0,0,0,0,-1,1231,1527,0,0
14,-503,0,0,0,0,0,0,0,0,0,-1,1238,1527,0,0
21,-503,0,0,0,0,0,0,0,0,0,-1,1245,1527,0,0
28,-503,0,0,0,0,0,0,0,0,0,-1,1252,1527,0,0
35,-503,0,0,0,0,0,0,0,0,0,-1,1259,1527,0,0
42,-503,0,0,0,0,0,0,0,0,0,-1,1266,1527,0,0
49,-503,0,0,0,0,0,0,0,0,0,-1,1273,1527,0,0
56,-503,0,0,0,0,0,0,0,0,0,-1,1280,1527,0,0
63,-503,0,0,0,0,0,0,0,0,0,-1,1287,1527,0,0
70,-503,0,0,0,0,0,0,0,0,0,-1,1294,1527,0,0
77,-503,0,0,0,0,0,0,0,0,0,-1,1301,1527,0,0
84,-503,0,0,0,0,0,0,0,0,0,-1,1308,1527,0,0
91,-503,0,0,0,0,0,0,0,0,0,-1,1315,1527,0,0
98,-503,0,0,0,0,0,0,0,0,0,-1,1322,1527,0,0
105,-503,0,0,0,0,0,0,0,0,0,-1,1329,1527,0,0
112,-503,0,0,0,0,0,0,0,0,0,-1,1336,1527,0,0
119,-503,0,0,0,0,0,0,0,0,0,-1,1343,1527,0,0
126,-503,0,0,0,0,0,0,0,0,0,-1,1350,1527,0,0
133,-503,0,0,0,0,0,0,0,0,0,-1,1357,1527,0,0
140,-503,0,0,0,0,0,0,0,0,0,-1,1364,1527,0,0
147,-503,0,0,0,0,0,0,0,0,0,-1,1371,1527,0,0
154,-503,0,0,0,0,0,0,0,0,0,-1,1378,1527,0,0
161,-503,0,0,0,0,0,0,0,0,0,-1,1385,1527,0,0
168,-503,0,0,0,0,0,0,0,0,0,-1,1392,1527,0,0
175,-503,0,0,0,0,0,0,0,0,0,-1,1399,1527,0,0
182,-503,0,0,0,0,0,0,0,0,0,-1,1406,1527,0,0
189,-503,0,0,0,0,0,0,0,0,0,-1,1413,1527,0,0
196,-503,0,0,0,0,0,0,0,0,0,-1,1420,1527,0,0
203,-503,0,0,0,0,0,0,0,0,0,-1,1427,1527,0,0
210,-503,0,0,0,0,0,0,0,0,0,-1,1434,1527,0,0
217,-503,0,0,0,0,0,0,0,0,0,-1,1441,1527,0,0
224,-503,0,0,0,0,0,0,0,0,0,-1,1448,1527,0,0
231,-503,0,0,0,0,0,0,0,0,0,-1,1455,1527,0,0
238,-503,0,0,0,0,0,0,0,0,0,-1,1462,1527,0,0
245,-503,0,0,0,0,0,0,0,0,0,-1,1469,1527,0,0
252,-503,0,0,0,0,0,0,0,0,0,-1,1476,1527,0,0
259,-503,0,0,0,0,0,0,0,0,0,-1,1483,1527,0,0
266,-503,0,0,0,0,0,0,0,0,0,-1,1490,1527,0,0
273,-503,0,0,0,0,0,0,0,0,0,-1,1497,1527,0,0
280,-503,0,0,0,0,0,0,0,0,0,-1,1504,1527,0,0
287,-503,0,0,0,0,0,0,0,0,0,-1,1511,1527,0,0
294,-503,0,0,0,0,0,0,0,0,0,-1,1518,1527,0,0
301,-503,0,0,0,0,0,0,0,0,0,-1,1525,1527,0,0
308,-503,0,0,0,0,0,0,0,0,0,-1,1532,1527,0,0
315,-503,0,0,0,0,0,0,0,0,0,-1,1539,1527,0,0
322,-503,0,0,0,0,0,0,0,0,0,-1,1546,1527,0,0
329,-503,0,0,0,0,0,0,0,0,0,-1,1553,1527,0,0
336,-503,0,0,0,0,0,0,0,0,0,-1,1560,1527,0,0
343,-503,0,0,0,0,0,0,0,0,0,-1,1567,1527,0,0
350,-503,0,0,0,0,0,0,0,0,0,-1,1574,1527,0,0
357,-503,0,0,0,0,0,0,0,0,0,-1,1581,1527,0,0
364,-503,0,0,0,0,0,0,0,0,0,-1,1588,1527,0,0
371,-503,0,0,0,0,0,0,0,0,0,-1,1595,1527,0,0
378,-503,0,0,0,0,0,0,0,0,0,-1,1602,1527,0,0
385,-503,0,0,0,0,0,0,0,0,0,-1,1609,1527,0,0
392,-503,0,0,0,0,0,0,0,0,0,-1,1616,1527,0,0
399,-503,0,0,0,0,0,0,0,0,0,-1,1623,1527,0,0
406,-503,0,0,0,0,0,0,0,0,0,-1,1630,1527,0,0
413,-503,0,0,0,0,0,0,0,0,0,-1,1637,1527,0,0
420,-503,0,0,0,0,0,0,0,0,0,-1,1644,1527,0,0
427,-503,10.5968,4.9856,0,0,0,0,0,0,0,-1,1651,1527,10.5969,-4.98563
434,-503,11.4329,3.97217,0,0,0,0,0,0,0,-1,1658,1527,11.4328,-3.97222
441,-503,12.0957,2.96509,0,0,0,0,0,0,0,-1,1665,1527,12.0957,-2.96512
448,-503,12.3259,2.53894,0,0,0,0,0,0,0,-1,1672,1527,12.326,-2.53895
455,-503,12.1669,2.18762,0,0,0,0,0,0,0,-1,1679,1527,12.1668,-2.18767
462,-503,11.59,2.60791,0,0,0,0,0,0,0,-1,1686,1527,11.5899,-2.60794
469,-503,11.1625,1.61853,0,0,0,0,0,0,0,-1,1693,1527,11.1625,-1.61856
476,-503,9.07703,5.81042,0,0,0,0,0,0,0,-1,1700,1527,9.07699,-5.81047
483,-503,9.74414,6.92432,0,0,0,0,0,0,0,-1,1707,1527,9.74417,-6.9243
490,-503,10.5033,10.1071,0,0,0,0,0,0,0,-1,1714,1527,10.5032,-10.107
497,-503,15.0057,17.9476,0,0,0,0,0,0,0,-1,1721,1527,15.0058,-17.9476
504,-503,16.4764,18.4486,0,0,0,0,0,0,0,-1,1728,1527,16.4764,-18.4486
511,-503,16.8276,18.3271,0,0,0,0,0,0,0,-1,1735,1527,16.8276,-18.3272
518,-503,17.2533,18.2738,0,0,0,0,0,0,0,-1,1742,1527,17.2533,-18.2738
525,-503,21.2887,26.5785,0,0,0,0,0,0,0,-1,1749,1527,21.2887,-26.5785
532,-503,28.2102,35.1721,0,0,0,0,0,0,0,-1,1756,1527,28.2102,-35.1721
539,-503,28.2307,34.2839,0.00948553,0.00723964,-0.00656577,0.0150237,0.00170147,-0.700702,0.00949956,0.0332005,1763,1527,28.2307,-34.2839
546,-503,28.28,33.3501,0.00742963,0.00570677,-0.00502238,0.0116639,0.00147247,-0.700466,0.00733456,0.0138286,1770,1527,28.2801,-33.3501
553,-503,28.2931,32.5577,0.00586226,0.00432712,-0.00372121,0.00889424,0.00129514,-0.683691,0.0055484,0.0137297,1777,1527,28.2931,-32.5577
560,-503,28.2377,31.7815,0.00459175,0.00315696,-0.00265925,0.00662867,0.00112004,-0.653647,0.00409712,0.0139625,1784,1527,28.2377,-31.7815
567,-503,28.1943,30.9806,0.00360568,0.00225262,-0.00190123,0.00494717,0.000911142,-0.614465,0.00304025,0.0133214,1791,1527,28.1943,-30.9805
574,-503,28.1648,30.1967,0.00288948,0.00154767,-0.00134635,0.00372282,0.000714327,-0.55425,0.00228136,0.0130966,1798,1527,28.1647,-30.1966
581,-503,28.1108,29.4149,0.0023743,0.00100748,-0.000928299,0.00284362,0.000538158,-0.468093,0.00174426,0.0146188,1805,1527,28.1109,-29.4149
588,-503,28.0686,28.6213,0.00211871,0.000625049,-0.000681886,0.00238317,0.000360581,-0.369987,0.00148327,0.0183544,1812,1527,28.0686,-28.6214
595,-503,28.0166,27.8311,0.00210812,0.00040836,-0.000444844,0.0022175,0.000298979,-0.241104,0.00138944,0.0145073,1819,1527,28.0166,-27.831
602,-503,28.0245,26.9814,0.0022881,0.000427224,-0.000349475,0.00235156,0.000363757,-0.17965,0.00146162,0.0254096,1826,1527,28.0245,-26.9814
609,-503,28.031,26.1178,0,0,0,0,0,0,0,-1,1833,1527,28.0309,-26.1178
616,-503,27.9205,24.2308,0,0,0,0,0,0,0,-1,1840,1527,27.9206,-24.2309
623,-503,18.7351,15.5999,0,0,0,0,0,0,0,-1,1847,1527,18.7351,-15.5999
630,-503,20.6721,13.9077,0,0,0,0,0,0,0,-1,1854,1527,20.6721,-13.9077
637,-503,14.5564,9.20496,0,0,0,0,0,0,0,-1,1861,1527,14.5564,-9.2049
644,-503,11.4802,7.57214,0,0,0,0,0,0,0,-1,1868,1527,11.4802,-7.57215
651,-503,11.5718,6.5448,0,0,0,0,0,0,0,-1,1875,1527,11.5718,-6.54476
658,-503,8.25635,3.10498,0,0,0,0,0,0,0,-1,1882,1527,8.2563,-3.10493
665,-503,0,0,0,0,0,0,0,0,0,-1,1889,1527,0,0
672,-503,0,0,0,0,0,0,0,0,0,-1,1896,1527,0,0
679,-503,0,0,0,0,0,0,0,0,0,-1,1903,1527,0,0
686,-503,0,0,0,0,0,0,0,0,0,-1,1910,1527,0,0
693,-503,0,0,0,0,0,0,0,0,0,-1,1917,1527,0,0
700,-503,0,0,0,0,0,0,0,0,0,-1,1924,1527,0,0
707,-503,0,0,0,0,0,0,0,0,0,-1,1931,1527,0,0
714,-503,0,0,0,0,0,0,0,0,0,-1,1938,1527,0,0
721,-503,0,0,0,0,0,0,0,0,0,-1,1945,1527,0,0
728,-503,0,0,0,0,0,0,0,0,0,-1,1952,1527,0,0
735,-503,0,0,0,0,0,0,0,0,0,-1,1959,1527,0,0
742,-503,0,0,0,0,0,0,0,0,0,-1,1966,1527,0,0
749,-503,0,0,0,0,0,0,0,0,0,-1,1973,1527,0,0
756,-503,0,0,0,0,0,0,0,0,0,-1,1980,1527,0,0
763,-503,0,0,0,0,0,0,0,0,0,-1,1987,1527,0,0
770,-503,0,0,0,0,0,0,0,0,0,-1,1994,1527,0,0
777,-503,0,0,0,0,0,0,0,0,0,-1,2001,1527,0,0
784,-503,0,0,0,0,0,0,0,0,0,-1,2008,1527,0,0
791,-503,0,0,0,0,0,0,0,0,0,-1,2015,1527,0,0
798,-503,0,0,0,0,0,0,0,0,0,-1,2022,1527,0,0
805,-503,0,0,0,0,0,0,0,0,0,-1,2029,1527,0,0
812,-503,0,0,0,0,0,0,0,0,0,-1,2036,1527,0,0
-700,-510,0,0,0,0,0,0,0,0,0,-1,524,1534,0,0
-693,-510,0,0,0,0,0,0,0,0,0,-1,531,1534,0,0
-686,-510,0,0,0,0,0,0,0,0,0,-1,538,1534,0,0
-679,-510,0,0,0,0,0,0,0,0,0,-1,545,1534,0,0
-672,-510,0,0,0,0,0,0,0,0,0,-1,552,1534,0,0
-665,-510,0,0,0,0,0,0,0,0,0,-1,559,1534,0,0
-658,-510,0,0,0,0,0,0,0,0,0,-1,566,1534,0,0
-651,-510,0,0,0,0,0,0,0,0,0,-1,573,1534,0,0
-644,-510,0,0,0,0,0,0,0,0,0,-1,580,1534,0,0
-637,-510,0,0,0,0,0,0,0,0,0,-1,587,1534,0,0
-630,-510,0,0,0,0,0,0,0,0,0,-1,594,1534,0,0
-623,-510,0,0,0,0,0,0,0,0,0,-1,601,1534,0,0
-616,-510,0,0,0,0,0,0,0,0,0,-1,608,1534,0,0
-609,-510,0,0,0,0,0,0,0,0,0,-1,615,1534,0,0
-602,-510,0,0,0,0,0,0,0,0,0,-1,622,1534,0,0
-595,-510,0,0,0,0,0,0,0,0,0,-1,629,1534,0,0
-588,-510,0,0,0,0,0,0,0,0,0,-1,636,1534,0,0
-581,-510,0,0,0,0,0,0,0,0,0,-1,643,1534,0,0
-574,-510,0,0,0,0,0,0,0,0,0,-1,650,1534,0,0
-567,-510,0,0,0,0,0,0,0,0,0,-1,657,1534,0,0
-560,-510,0,0,0,0,0,0,0,0,0,-1,664,1534,0,0
-553,-510,0,0,0,0,0,0,0,0,0,-1,671,1534,0,0
-546,-510,0,0,0,0,0,0,0,0,0,-1,678,1534,0,0
-539,-510,0,0,0,0,0,0,0,0,0,-1,685,1534,0,0
-532,-510,-3.95129,4.52014,0,0,0,0,0,0,0,-1,692,1534,-3.95131,-4.5202
-525,-510,-2.77411,0.316772,0,0,0,0,0,0,0,-1,699,1534,-2.77409,-0.3168
-518,-510,-2.86847,2.71423,0,0,0,0,0,0,0,-1,706,1534,-2.86849,-2.71424
-511,-510,-2.28571,4.48083,0,0,0,0,0,0,0,-1,713,1534,-2.28571,-4.48086
-504,-510,-4.86731,10.8224,0,0,0,0,0,0,0,-1,720,1534,-4.8673,-10.8224
-497,-510,-3.42352,15.5178,0,0,0,0,0,0,0,-1,727,1534,-3.42352,-15.5178
-490,-510,-5.9472,18.5184,0,0,0,0,0,0,0,-1,734,1534,-5.94718,-18.5185
-483,-510,-6.79639,20.8453,0,0,0,0,0,0,0,-1,741,1534,-6.79638,-20.8454
-476,-510,-9.97961,26.2819,0,0,0,0,0,0,0,-1,748,1534,-9.97959,-26.2818
-469,-510,-9.87427,27.1663,-0.00240948,-0.00166953,-0.000846616,-0.00111558,-0.00296343,-0.991397,0.00172826,0.027728,755,1534,-9.87428,-27.1662
-462,-510,-9.90784,27.9753,-0.00226646,-0.00169996,-0.000961422,-0.000980931,-0.00298549,-0.928652,0.00175712,0.0137373,762,1534,-9.90785,-27.9753
-455,-510,-9.96613,28.8352,-0.00185274,-0.00131826,-0.000781244,-0.000759814,-0.00241119,-0.950195,0.00142347,0.0161358,769,1534,-9.9661,-28.8352
-448,-510,-9.97516,29.6497,-0.00125672,-0.000759594,-0.000440982,-0.000501945,-0.00151436,-1.04203,0.000890723,0.0145069,776,1534,-9.97514,-29.6496
-441,-510,-10.0039,30.4438,-0.000466839,9.99248e-05,0.000133205,0.000129671,-0.000496585,1.35109,0.000381694,0.0156079,783,1534,-10.0039,-30.4439
-434,-510,-10.1074,31.2504,0.000415902,0.00112707,0.0008244,0.0016693,-0.000126331,0.989006,0.00115728,0.0170536,790,1534,-10.1074,-31.2504
-427,-510,-10.1855,32.0242,0.001319,0.00216482,0.00155093,0.00334946,0.000134357,0.918503,0.00218956,0.0260865,797,1534,-10.1855,-32.0242
-420,-510,-10.2054,32.8555,0.00231006,0.00332812,0.00236674,0.00523995,0.000398234,0.891323,0.00336841,0.0237001,804,1534,-10.2054,-32.8555
-413,-510,-10.2475,33.7064,0.00339573,0.00461028,0.00326449,0.00732351,0.000682513,0.877359,0.00467148,0.0121952,811,1534,-10.2475,-33.7064
-406,-510,-10.2932,34.5055,0.00447108,0.00584172,0.00416709,0.00937947,0.000933339,0.866899,0.00596625,0.0114765,818,1534,-10.2932,-34.5055
-399,-510,-10.3318,35.2908,0.00568705,0.00723382,0.00517743,0.0116953,0.00122556,0.859538,0.00742215,0.0167042,825,1534,-10.3318,-35.2908
-392,-510,-10.2531,36.0897,0,0,0,0,0,0,0,-1,832,1534,-10.2531,-36.0897
-385,-510,-7.23199,31.704,0,0,0,0,0,0,0,-1,839,1534,-7.23198,-31.704
-378,-510,-1.78308,13.8044,0,0,0,0,0,0,0,-1,846,1534,-1.78309,-13.8044
-371,-510,-1.74982,13.8027,0,0,0,0,0,0,0,-1,853,1534,-1.74981,-13.8028
-364,-510,-1.3479,13.7771,0,0,0,0,0,0,0,-1,860,1534,-1.34791,-13.7771
-357,-510,-0.254395,8.89575,0,0,0,0,0,0,0,-1,867,1534,-0.254397,-8.89569
-350,-510,0.471191,6.06458,0,0,0,0,0,0,0,-1,874,1534,0.47118,-6.06453
-343,-510,-6.96869,26.3074,0,0,0,0,0,0,0,-1,881,1534,-6.9687,-26.3074
-336,-510,-5.60437,29.5996,0,0,0,0,0,0,0,-1,888,1534,-5.60435,-29.5996
-329,-510,-4.87781,20.6893,0,0,0,0,0,0,0,-1,895,1534,-4.87782,-20.6894
-322,-510,-0.251526,11.973,0,0,0,0,0,0,0,-1,902,1534,-0.251497,-11.9731
-315,-510,-1.73047,10.9796,0,0,0,0,0,0,0,-1,909,1534,-1.73049,-10.9796
-308,-510,-2.05328,9.72034,0,0,0,0,0,0,0,-1,916,1534,-2.05327,-9.72036
-301,-510,-1.85437,11.5869,0,0,0,0,0,0,0,-1,923,1534,-1.85437,-11.5869
-294,-510,0,0,0,0,0,0,0,0,0,-1,930,1534,0,0
-287,-510,0,0,0,0,0,0,0,0,0,-1,937,1534,0,0
-280,-510,0,0,0,0,0,0,0,0,0,-1,944,1534,0,0
-273,-510,0,0,0,0,0,0,0,0,0,-1,951,1534,0,0
-266,-510,0,0,0,0,0,0,0,0,0,-1,958,1534,0,0
-259,-510,0,0,0,0,0,0,0,0,0,-1,965,1534,0,0
-252,-510,0,0,0,0,0,0,0,0,0,-1,972,1534,0,0
-245,-510,0,0,0,0,0,0,0,0,0,-1,979,1534,0,0
-238,-510,0,0,0,0,0,0,0,0,0,-1,986,1534,0,0
-231,-510,0,0,0,0,0,0,0,0,0,-1,993,1534,0,0
-224,-510,0,0,0,0,0,0,0,0,0,-1,1000,1534,0,0
-217,-510,0,0,0,0,0,0,0,0,0,-1,1007,1534,0,0
-210,-510,0,0,0,0,0,0,0,0,0,-1,1014,1534,0,0
-203,-510,0,0,0,0,0,0,0,0,0,-1,1021,1534,0,0
-196,-510,0,0,0,0,0,0,0,0,0,-1,1028,1534,0,0
-189,-510,0,0,0,0,0,0,0,0,0,-1,1035,1534,0,0
-182,-510,0,0,0,0,0,0,0,0,0,-1,1042,1534,0,0
-175,-510,0,0,0,0,0,0,0,0,0,-1,1049,1534,0,0
-168,-510,0,0,0,0,0,0,0,0,0,-1,1056,1534,0,0
-161,-510,0,0,0,0,0,0,0,0,0,-1,1063,1534,0,0
-154,-510,0,0,0,0,0,0,0,0,0,-1,1070,1534,0,0
-147,-510,0,0,0,0,0,0,0,0,0,-1,1077,1534,0,0
-140,-510,0,0,0,0,0,0,0,0,0,-1,1084,1534,0,0
-133,-510,0,0,0,0,0,0,0,0,0,-1,1091,1534,0,0
-126,-510,0,0,0,0,0,0,0,0,0,-1,1098,1534,0,0
-119,-510,0,0,0,0,0,0,0,0,0,-1,1105,1534,0,0
-112,-510,0,0,0,0,0,0,0,0,0,-1,1112,1534,0,0
-105,-510,0,0,0,0,0,0,0,0,0,-1,1119,1534,0,0
-98,-510,0,0,0,0,0,0,0,0,0,-1,1126,1534,0,0
-91,-510,0,0,0,0,0,0,0,0,0,-1,1133,1534,0,0
-84,-510,0,0,0,0,0,0,0,0,0,-1,1140,1534,0,0
-77,-510,0,0,0,0,0,0,0,0,0,-1,1147,1534,0,0
-70,-510,0,0,0,0,0,0,0,0,0,-1,1154,1534,0,0
-63,-510,0,0,0,0,0,0,0,0,0,-1,1161,1534,0,0
-56,-510,0,0,0,0,0,0,0,0,0,-1,1168,1534,0,0
-49,-510,0,0,0,0,0,0,0,0,0,-1,1175,1534,0,0
-42,-510,0,0,0,0,0,0,0,0,0,-1,1182,1534,0,0
-35,-510,0,0,0,0,0,0,0,0,0,-1,1189,1534,0,0
-28,-510,0,0,0,0,0,0,0,0,0,-1,1196,1534,0,0
-21,-510,0,0,0,0,0,0,0,0,0,-1,1203,1534,0,0
-14,-510,0,0,0,0,0,0,0,0,0,-1,1210,1534,0,0
-7,-510,0,0,0,0,0,0,0,0,0,-1,1217,1534,0,0
0,-510,0,0,0,0,0,0,0,0,0,-1,1224,1534,0,0
7,-510,0,0,0,0,0,0,0,0,0,-1,1231,1534,0,0
14,-510,0,0,0,0,0,0,0,0,0,-1,1238,1534,0,0
21,-510,0,0,0,0,0,0,0,0,0,-1,1245,1534,0,0
28,-510,0,0,0,0,0,0,0,0,0,-1,1252,1534,0,0
35,-510,0,0,0,0,0,0,0,0,0,-1,1259,1534,0,0
42,-510,0,0,0,0,0,0,0,0,0,-1,1266,1534,0,0
49,-510,0,0,0,0,0,0,0,0,0,-1,1273,1534,0,0
56,-510,0,0,0,0,0,0,0,0,0,-1,1280,1534,0,0
63,-510,0,0,0,0,0,0,0,0,0,-1,1287,1534,0,0
70,-510,0,0,0,0,0,0,0,0,0,-1,1294,1534,0,0
77,-510,0,0,0,0,0,0,0,0,0,-1,1301,1534,0,0
84,-510,0,0,0,0,0,0,0,0,0,-1,1308,1534,0,0
91,-510,0,0,0,0,0,0,0,0,0,-1,1315,1534,0,0
98,-510,0,0,0,0,0,0,0,0,0,-1,1322,1534,0,0
105,-510,0,0,0,0,0,0,0,0,0,-1,1329,1534,0,0
112,-510,0,0,0,0,0,0,0,0,0,-1,1336,1534,0,0
119,-510,0,0,0,0,0,0,0,0,0,-1,1343,1534,0,0
126,-510,0,0,0,0,0,0,0,0,0,-1,1350,1534,0,0
133,-510,0,0,0,0,0,0,0,0,0,-1,1357,1534,0,0
140,-510,0,0,0,0,0,0,0,0,0,-1,1364,1534,0,0
147,-510,0,0,0,0,0,0,0,0,0,-1,1371,1534,0,0
154,-510,0,0,0,0,0,0,0,0,0,-1,1378,1534,0,0
161,-510,0,0,0,0,0,0,0,0,0,-1,1385,1534,0,0
168,-510,0,0,0,0,0,0,0,0,0,-1,1392,1534,0,0
175,-510,0,0,0,0,0,0,0,0,0,-1,1399,1534,0,0
182,-510,0,0,0,0,0,0,0,0,0,-1,1406,1534,0,0
189,-510,0,0,0,0,0,0,0,0,0,-1,1413,1534,0,0
196,-510,0,0,0,0,0,0,0,0,0,-1,1420,1534,0,0
203,-510,0,0,0,0,0,0,0,0,0,-1,1427,1534,0,0
210,-510,0,0,0,0,0,0,0,0,0,-1,1434,1534,0,0
217,-510,0,0,0,0,0,0,0,0,0,-1,1441,1534,0,0
224,-510,0,0,0,0,0,0,0,0,0,-1,1448,1534,0,0
231,-510,0,0,0,0,0,0,0,0,0,-1,1455,1534,0,0
238,-510,0,0,0,0,0,0,0,0,0,-1,1462,1534,0,0
245,-510,0,0,0,0,0,0,0,0,0,-1,1469,1534,0,0
252,-510,0,0,0,0,0,0,0,0,0,-1,1476,1534,0,0
259,-510,0,0,0,0,0,0,0,0,0,-1,1483,1534,0,0
266,-510,0,0,0,0,0,0,0,0,0,-1,1490,1534,0,0
273,-510,0,0,0,0,0,0,0,0,0,-1,1497,1534,0,0
280,-510,0,0,0,0,0,0,0,0,0,-1,1504,1534,0,0
287,-510,0,0,0,0,0,0,0,0,0,-1,1511,1534,0,0
294,-510,0,0,0,0,0,0,0,0,0,-1,1518,1534,0,0
301,-510,0,0,0,0,0,0,0,0,0,-1,1525,1534,0,0
308,-510,0,0,0,0,0,0,0,0,0,-1,1532,1534,0,0
315,-510,0,0,0,0,0,0,0,0,0,-1,1539,1534,0,0
322,-510,0,0,0,0,0,0,0,0,0,-1,1546,1534,0,0
329,-510,0,0,0,0,0,0,0,0,0,-1,1553,1534,0,0
336,-510,0,0,0,0,0,0,0,0,0,-1,1560,1534,0,0
343,-510,0,0,0,0,0,0,0,0,0,-1,1567,1534,0,0
350,-510,0,0,0,0,0,0,0,0,0,-1,1574,1534,0,0
357,-510,0,0,0,0,0,0,0,0,0,-1,1581,1534,0,0
364,-510,0,0,0,0,0,0,0,0,0,-1,1588,1534,0,0
371,-510,0,0,0,0,0,0,0,0,0,-1,1595,1534,0,0
378,-510,0,0,0,0,0,0,0,0,0,-1,1602,1534,0,0
385,-510,0,0,0,0,0,0,0,0,0,-1,1609,1534,0,0
392,-510,0,0,0,0,0,0,0,0,0,-1,1616,1534,0,0
399,-510,0,0,0,0,0,0,0,0,0,-1,1623,1534,0,0
406,-510,0,0,0,0,0,0,0,0,0,-1,1630,1534,0,0
413,-510,0,0,0,0,0,0,0,0,0,-1,1637,1534,0,0
420,-510,14.1888,6.71936,0,0,0,0,0,0,0,-1,1644,1534,14.1889,-6.71939
427,-510,10.2134,5.59485,0,0,0,0,0,0,0,-1,1651,1534,10.2134,-5.59485
434,-510,11.8219,4.07898,0,0,0,0,0,0,0,-1,1658,1534,11.8219,-4.07895
441,-510,12.6812,3.02991,0,0,0,0,0,0,0,-1,1665,1534,12.6811,-3.0299
448,-510,13.2379,2.2804,0,0,0,0,0,0,0,-1,1672,1534,13.2379,-2.28037
455,-510,9.76892,2.20642,0,0,0,0,0,0,0,-1,1679,1534,9.76894,-2.20647
462,-510,9.84692,2.49182,0,0,0,0,0,0,0,-1,1686,1534,9.84695,-2.49185
469,-510,16.6072,7.26941,0,0,0,0,0,0,0,-1,1693,1534,16.6072,-7.26945
476,-510,15.9199,7.8645,0,0,0,0,0,0,0,-1,1700,1534,15.9199,-7.86455
483,-510,13.0833,8.10938,0,0,0,0,0,0,0,-1,1707,1534,13.0833,-8.10932
490,-510,13.0841,15.3286,0,0,0,0,0,0,0,-1,1714,1534,13.0841,-15.3286
497,-510,15.5652,18.823,0,0,0,0,0,0,0,-1,1721,1534,15.5652,-18.823
504,-510,15.998,18.7478,0,0,0,0,0,0,0,-1,1728,1534,15.998,-18.7478
511,-510,15.9443,18.0476,0,0,0,0,0,0,0,-1,1735,1534,15.9443,-18.0476
518,-510,21.5343,27.1368,0,0,0,0,0,0,0,-1,1742,1534,21.5342,-27.1368
525,-510,27.2286,36.087,0,0,0,0,0,0,0,-1,1749,1534,27.2286,-36.087
532,-510,27.5234,35.0409,0.00942101,0.00766604,-0.00665697,0.0152581,0.00182897,-0.719869,0.00962052,0.032183,1756,1534,27.5234,-35.0409
539,-510,27.5742,34.1396,0.00741371,0.00596973,-0.00517258,0.0119144,0.001469,-0.716056,0.0075014,0.014192,1763,1534,27.5742,-34.1397
546,-510,27.5332,33.3821,0.00580933,0.00466545,-0.00396961,0.00924799,0.00122679,-0.713851,0.00579981,0.0139954,1770,1534,27.5332,-33.3821
553,-510,27.4907,32.5854,0.00456745,0.00353325,-0.0029335,0.00702908,0.00107162,-0.698157,0.00437284,0.0138965,1777,1534,27.4907,-32.5855
560,-510,27.4274,31.787,0.00358591,0.00255717,-0.00207555,0.00520988,0.000933205,-0.663934,0.00320776,0.0142922,1784,1534,27.4273,-31.7869
567,-510,27.3838,30.9966,0.00286355,0.00182106,-0.00147497,0.00390667,0.000777942,-0.61555,0.00238776,0.0142569,1791,1534,27.3838,-30.9965
574,-510,27.3387,30.2347,0.0023973,0.00125717,-0.00104351,0.00301631,0.000638163,-0.535402,0.00183551,0.0146136,1798,1534,27.3387,-30.2347
581,-510,27.3051,29.4869,0.00215467,0.000851465,-0.000757959,0.00250261,0.000503524,-0.430354,0.00152847,0.0129658,1805,1534,27.3051,-29.4869
588,-510,27.2743,28.7072,0.00215888,0.000619165,-0.000640445,0.00239045,0.000387599,-0.346946,0.00148143,0.0143848,1812,1534,27.2743,-28.7071
595,-510,27.3684,27.7822,0.00237687,0.000603278,-0.000552888,0.00253511,0.000445042,-0.278748,0.00156299,0.0224521,1819,1534,27.3684,-27.7822
602,-510,27.3718,26.9045,0,0,0,0,0,0,0,-1,1826,1534,27.3718,-26.9046
609,-510,21.259,19.222,0,0,0,0,0,0,0,-1,1833,1534,21.259,-19.222
616,-510,18.7024,16.2474,0,0,0,0,0,0,0,-1,1840,1534,18.7024,-16.2474
623,-510,19.6013,14.6211,0,0,0,0,0,0,0,-1,1847,1534,19.6013,-14.6211
630,-510,13.7461,9.30334,0,0,0,0,0,0,0,-1,1854,1534,13.7461,-9.30335
637,-510,11.0155,7.38464,0,0,0,0,0,0,0,-1,1861,1534,11.0155,-7.38463
644,-510,11.5809,7.17126,0,0,0,0,0,0,0,-1,1868,1534,11.5809,-7.17123
651,-510,8.70471,3.5061,0,0,0,0,0,0,0,-1,1875,1534,8.70475,-3.50611
658,-510,0,0,0,0,0,0,0,0,0,-1,1882,1534,0,0
665,-510,0,0,0,0,0,0,0,0,0,-1,1889,1534,0,0
672,-510,0,0,0,0,0,0,0,0,0,-1,1896,1534,0,0
679,-510,0,0,0,0,0,0,0,0,0,-1,1903,1534,0,0
686,-510,0,0,0,0,0,0,0,0,0,-1,1910,1534,0,0
693,-510,0,0,0,0,0,0,0,0,0,-1,1917,1534,0,0
700,-510,0,0,0,0,0,0,0,0,0,-1,1924,1534,0,0
707,-510,0,0,0,0,0,0,0,0,0,-1,1931,1534,0,0
714,-510,0,0,0,0,0,0,0,0,0,-1,1938,1534,0,0
721,-510,0,0,0,0,0,0,0,0,0,-1,1945,1534,0,0
728,-510,0,0,0,0,0,0,0,0,0,-1,1952,1534,0,0
735,-510,0,0,0,0,0,0,0,0,0,-1,1959,1534,0,0
742,-510,0,0,0,0,0,0,0,0,0,-1,1966,1534,0,0
749,-510,0,0,0,0,0,0,0,0,0,-1,1973,1534,0,0
756,-510,0,0,0,0,0,0,0,0,0,-1,1980,1534,0,0
763,-510,0,0,0,0,0,0,0,0,0,-1,1987,1534,0,0
770,-510,0,0,0,0,0,0,0,0,0,-1,1994,1534,0,0
777,-510,0,0,0,0,0,0,0,0,0,-1,2001,1534,0,0
784,-510,0,0,0,0,0,0,0,0,0,-1,2008,1534,0,0
791,-510,0,0,0,0,0,0,0,0,0,-1,2015,1534,0,0
798,-510,0,0,0,0,0,0,0,0,0,-1,2022,1534,0,0
805,-510,0,0,0,0,0,0,0,0,0,-1,2029,1534,0,0
812,-510,0,0,0,0,0,0,0,0,0,-1,2036,1534,0,0
-700,-517,0,0,0,0,0,0,0,0,0,-1,524,1541,0,0
-693,-517,0,0,0,0,0,0,0,0,0,-1,531,1541,0,0
-686,-517,0,0,0,0,0,0,0,0,0,-1,538,1541,0,0
-679,-517,0,0,0,0,0,0,0,0,0,-1,545,1541,0,0
-672,-517,0,0,0,0,0,0,0,0,0,-1,552,1541,0,0
-665,-517,0,0,0,0,0,0,0,0,0,-1,559,1541,0,0
-658,-517,0,0,0,0,0,0,0,0,0,-1,566,1541,0,0
-651,-517,0,0,0,0,0,0,0,0,0,-1,573,1541,0,0
-644,-517,0,0,0,0,0,0,0,0,0,-1,580,1541,0,0
-637,-517,0,0,0,0,0,0,0,0,0,-1,587,1541,0,0
-630,-517,0,0,0,0,0,0,0,0,0,-1,594,1541,0,0
-623,-517,0,0,0,0,0,0,0,0,0,-1,601,1541,0,0
-616,-517,0,0,0,0,0,0,0,0,0,-1,608,1541,0,0
-609,-517,0,0,0,0,0,0,0,0,0,-1,615,1541,0,0
-602,-517,0,0,0,0,0,0,0,0,0,-1,622,1541,0,0
-595,-517,0,0,0,0,0,0,0,0,0,-1,629,1541,0,0
-588,-517,0,0,0,0,0,0,0,0,0,-1,636,1541,0,0
-581,-517,0,0,0,0,0,0,0,0,0,-1,643,1541,0,0
-574,-517,0,0,0,0,0,0,0,0,0,-1,650,1541,0,0
-567,-517,0,0,0,0,0,0,0,0,0,-1,657,1541,0,0
-560,-517,0,0,0,0,0,0,0,0,0,-1,664,1541,0,0
-553,-517,0,0,0,0,0,0,0,0,0,-1,671,1541,0,0
-546,-517,0,0,0,0,0,0,0,0,0,-1,678,1541,0,0
-539,-517,0,0,0,0,0,0,0,0,0,-1,685,1541,0,0
-532,-517,0,0,0,0,0,0,0,0,0,-1,692,1541,0,0
-525,-517,-3.62903,4.3606,0,0,0,0,0,0,0,-1,699,1541,-3.62904,-4.36056
-518,-517,-1.664,2.27209,0,0,0,0,0,0,0,-1,706,1541,-1.66399,-2.27207
-511,-517,-0.999146,5.52063,0,0,0,0,0,0,0,-1,713,1541,-0.999126,-5.52059
-504,-517,-1.06946,8.67432,0,0,0,0,0,0,0,-1,720,1541,-1.06947,-8.6743
-497,-517,-5.43036,17.4033,0,0,0,0,0,0,0,-1,727,1541,-5.43033,-17.4034
-490,-517,-6.20526,19.4496,0,0,0,0,0,0,0,-1,734,1541,-6.20526,-19.4495
-483,-517,-6.2254,20.368,0,0,0,0,0,0,0,-1,741,1541,-6.22542,-20.368
-476,-517,-8.6441,26.2754,0,0,0,0,0,0,0,-1,748,1541,-8.64411,-26.2754
-469,-517,-8.88409,27.2185,-0.00457655,-0.00314972,-0.00245914,-0.0013026,-0.00642368,-0.926576,0.00392105,0.0322612,755,1541,-8.88408,-27.2185
-462,-517,-9.13641,27.9755,-0.00398719,-0.00292054,-0.00222226,-0.00116851,-0.00573922,-0.903167,0.00350224,0.0332172,762,1541,-9.13641,-27.9755
-455,-517,-9.16705,28.8595,-0.00325873,-0.00231653,-0.00179702,-0.000929888,-0.00464538,-0.913592,0.00283819,0.019622,769,1541,-9.16704,-28.8596
-448,-517,-9.16943,29.6997,-0.00243843,-0.00171259,-0.00132679,-0.000699977,-0.00345104,-0.918899,0.0021065,0.0142695,776,1541,-9.16943,-29.6997
-441,-517,-9.23291,30.5043,-0.00149553,-0.000808755,-0.00066331,-0.000405218,-0.00189906,-1.02425,0.00115491,0.0130212,783,1541,-9.2329,-30.5043
-434,-517,-9.29498,31.3033,-0.000539743,0.000185892,4.80703e-05,0.000189062,-0.000542914,1.50493,0.000438758,0.0162189,790,1541,-9.29499,-31.3034
-427,-517,-9.34564,32.109,0.000362015,0.00113111,0.000736795,0.00157767,-8.45472e-05,1.02591,0.00108107,0.0157064,797,1541,-9.34562,-32.109
-420,-517,-9.38898,32.9534,0.00128228,0.00214036,0.00144786,0.00322141,0.00020123,0.929441,0.00208377,0.0319629,804,1541,-9.38896,-32.9534
-413,-517,-9.45673,33.7212,0.00227083,0.00319493,0.00220844,0.00498914,0.000476619,0.88852,0.00317915,0.017475,811,1541,-9.45675,-33.7213
-406,-517,-9.48608,34.546,0.00322988,0.0042565,0.00292573,0.0067136,0.000772775,0.872238,0.00424167,0.0119066,818,1541,-9.48606,-34.546
-399,-517,-9.51495,35.3461,0.00420606,0.00532698,0.0036299,0.00843943,0.00109362,0.861994,0.0052995,0.0104175,825,1541,-9.51493,-35.3461
-392,-517,-9.53955,36.1503,0.0051709,0.00656042,0.00431425,0.0102355,0.00149583,0.865232,0.00638374,0.0209461,832,1541,-9.53956,-36.1503
-385,-517,-9.48718,37.0453,0,0,0,0,0,0,0,-1,839,1541,-9.4872,-37.0453
-378,-517,-6.61444,32.6315,0,0,0,0,0,0,0,-1,846,1541,-6.61445,-32.6315
-371,-517,-1.37585,13.2646,0,0,0,0,0,0,0,-1,853,1541,-1.37586,-13.2647
-364,-517,-1.26245,12.6289,0,0,0,0,0,0,0,-1,860,1541,-1.26243,-12.6289
-357,-517,-1.23889,12.979,0,0,0,0,0,0,0,-1,867,1541,-1.23891,-12.979
-350,-517,-5.40198,23.8954,0,0,0,0,0,0,0,-1,874,1541,-5.40196,-23.8954
-343,-517,-5.45844,29.2598,0,0,0,0,0,0,0,-1,881,1541,-5.45842,-29.2598
-336,-517,-4.53223,29.6708,0,0,0,0,0,0,0,-1,888,1541,-4.53221,-29.6708
-329,-517,-3.60602,30.0817,0,0,0,0,0,0,0,-1,895,1541,-3.60601,-30.0817
-322,-517,-4.21246,19.5819,0,0,0,0,0,0,0,-1,902,1541,-4.21244,-19.5819
-315,-517,-0.987976,7.29749,0,0,0,0,0,0,0,-1,909,1541,-0.987993,-7.29743
-308,-517,3.27911,17.621,0,0,0,0,0,0,0,-1,916,1541,3.27913,-17.621
-301,-517,-1.69141,8.87488,0,0,0,0,0,0,0,-1,923,1541,-1.69141,-8.87485
-294,-517,-1.72583,9.92566,0,0,0,0,0,0,0,-1,930,1541,-1.72584,-9.92571
-287,-517,-3.09045,12.1472,0,0,0,0,0,0,0,-1,937,1541,-3.09043,-12.1472
-280,-517,0,0,0,0,0,0,0,0,0,-1,944,1541,0,0
-273,-517,0,0,0,0,0,0,0,0,0,-1,951,1541,0,0
-266,-517,0,0,0,0,0,0,0,0,0,-1,958,1541,0,0
-259,-517,0,0,0,0,0,0,0,0,0,-1,965,1541,0,0
-252,-517,0,0,0,0,0,0,0,0,0,-1,972,1541,0,0
-245,-517,0,0,0,0,0,0,0,0,0,-1,979,1541,0,0
-238,-517,0,0,0,0,0,0,0,0,0,-1,986,1541,0,0
-231,-517,0,0,0,0,0,0,0,0,0,-1,993,1541,0,0
-224,-517,0,0,0,0,0,0,0,0,0,-1,1000,1541,0,0
-217,-517,0,0,0,0,0,0,0,0,0,-1,1007,1541,0,0
-210,-517,0,0,0,0,0,0,0,0,0,-1,1014,1541,0,0
-203,-517,0,0,0,0,0,0,0,0,0,-1,1021,1541,0,0
-196,-517,0,0,0,0,0,0,0,0,0,-1,1028,1541,0,0
-189,-517,0,0,0,0,0,0,0,0,0,-1,1035,1541,0,0
-182,-517,0,0,0,0,0,0,0,0,0,-1,1042,1541,0,0
-175,-517,0,0,0,0,0,0,0,0,0,-1,1049,1541,0,0
-168,-517,0,0,0,0,0,0,0,0,0,-1,1056,1541,0,0
-161,-517,0,0,0,0,0,0,0,0,0,-1,1063,1541,0,0
-154,-517,0,0,0,0,0,0,0,0,0,-1,1070,1541,0,0
-147,-517,0,0,0,0,0,0,0,0,0,-1,1077,1541,0,0
-140,-517,0,0,0,0,0,0,0,0,0,-1,1084,1541,0,0
-133,-517,0,0,0,0,0,0,0,0,0,-1,1091,1541,0,0
-126,-517,0,0,0,0,0,0,0,0,0,-1,1098,1541,0,0
-119,-517,0,0,0,0,0,0,0,0,0,-1,1105,1541,0,0
-112,-517,0,0,0,0,0,0,0,0,0,-1,1112,1541,0,0
-105,-517,0,0,0,0,0,0,0,0,0,-1,1119,1541,0,0
-98,-517,0,0,0,0,0,0,0,0,0,-1,1126,1541,0,0
-91,-517,0,0,0,0,0,0,0,0,0,-1,1133,1541,0,0
-84,-517,0,0,0,0,0,0,0,0,0,-1,1140,1541,0,0
-77,-517,0,0,0,0,0,0,0,0,0,-1,1147,1541,0,0
-70,-517,0,0,0,0,0,0,0,0,0,-1,1154,1541,0,0
-63,-517,0,0,0,0,0,0,0,0,0,-1,1161,1541,0,0
-56,-517,0,0,0,0,0,0,0,0,0,-1,1168,1541,0,0
-49,-517,0,0,0,0,0,0,0,0,0,-1,1175,1541,0,0
-42,-517,0,0,0,0,0,0,0,0,0,-1,1182,1541,0,0
-35,-517,0,0,0,0,0,0,0,0,0,-1,1189,1541,0,0
-28,-517,0,0,0,0,0,0,0,0,0,-1,1196,1541,0,0
-21,-517,0,0,0,0,0,0,0,0,0,-1,1203,1541,0,0
-14,-517,0,0,0,0,0,0,0,0,0,-1,1210,1541,0,0
-7,-517,0,0,0,0,0,0,0,0,0,-1,1217,1541,0,0
0,-517,0,0,0,0,0,0,0,0,0,-1,1224,1541,0,0
7,-517,0,0,0,0,0,0,0,0,0,-1,1231,1541,0,0
14,-517,0,0,0,0,0,0,0,0,0,-1,1238,1541,0,0
21,-517,0,0,0,0,0,0,0,0,0,-1,1245,1541,0,0
28,-517,0,0,0,0,0,0,0,0,0,-1,1252,1541,0,0
35,-517,0,0,0,0,0,0,0,0,0,-1,1259,1541,0,0
42,-517,0,0,0,0,0,0,0,0,0,-1,1266,1541,0,0
49,-517,0,0,0,0,0,0,0,0,0,-1,1273,1541,0,0
56,-517,0,0,0,0,0,0,0,0,0,-1,1280,1541,0,0
63,-517,0,0,0,0,0,0,0,0,0,-1,1287,1541,0,0
70,-517,0,0,0,0,0,0,0,0,0,-1,1294,1541,0,0
77,-517,0,0,0,0,0,0,0,0,0,-1,1301,1541,0,0
84,-517,0,0,0,0,0,0,0,0,0,-1,1308,1541,0,0
91,-517,0,0,0,0,0,0,0,0,0,-1,1315,1541,0,0
98,-517,0,0,0,0,0,0,0,0,0,-1,1322,1541,0,0
105,-517,0,0,0,0,0,0,0,0,0,-1,1329,1541,0,0
112,-517,0,0,0,0,0,0,0,0,0,-1,1336,1541,0,0
119,-517,0,0,0,0,0,0,0,0,0,-1,1343,1541,0,0
126,-517,0,0,0,0,0,0,0,0,0,-1,1350,1541,0,0
133,-517,0,0,0,0,0,0,0,0,0,-1,1357,1541,0,0
140,-517,0,0,0,0,0,0,0,0,0,-1,1364,1541,0,0
147,-517,0,0,0,0,0,0,0,0,0,-1,1371,1541,0,0
154,-517,0,0,0,0,0,0,0,0,0,-1,1378,1541,0,0
161,-517,0,0,0,0,0,0,0,0,0,-1,1385,1541,0,0
168,-517,0,0,0,0,0,0,0,0,0,-1,1392,1541,0,0
175,-517,0,0,0,0,0,0,0,0,0,-1,1399,1541,0,0
182,-517,0,0,0,0,0,0,0,0,0,-1,1406,1541,0,0
189,-517,0,0,0,0,0,0,0,0,0,-1,1413,1541,0,0
196,-517,0,0,0,0,0,0,0,0,0,-1,1420,1541,0,0
203,-517,0,0,0,0,0,0,0,0,0,-1,1427,1541,0,0
210,-517,0,0,0,0,0,0,0,0,0,-1,1434,1541,0,0
217,-517,0,0,0,0,0,0,0,0,0,-1,1441,1541,0,0
224,-517,0,0,0,0,0,0,0,0,0,-1,1448,1541,0,0
231,-517,0,0,0,0,0,0,0,0,0,-1,1455,1541,0,0
238,-517,0,0,0,0,0,0,0,0,0,-1,1462,1541,0,0
245,-517,0,0,0,0,0,0,0,0,0,-1,1469,1541,0,0
252,-517,0,0,0,0,0,0,0,0,0,-1,1476,1541,0,0
259,-517,0,0,0,0,0,0,0,0,0,-1,1483,1541,0,0
266,-517,0,0,0,0,0,0,0,0,0,-1,1490,1541,0,0
273,-517,0,0,0,0,0,0,0,0,0,-1,1497,1541,0,0
280,-517,0,0,0,0,0,0,0,0,0,-1,1504,1541,0,0
287,-517,0,0,0,0,0,0,0,0,0,-1,1511,1541,0,0
294,-517,0,0,0,0,0,0,0,0,0,-1,1518,1541,0,0
301,-517,0,0,0,0,0,0,0,0,0,-1,1525,1541,0,0
308,-517,0,0,0,0,0,0,0,0,0,-1,1532,1541,0,0
315,-517,0,0,0,0,0,0,0,0,0,-1,1539,1541,0,0
322,-517,0,0,0,0,0,0,0,0,0,-1,1546,1541,0,0
329,-517,0,0,0,0,0,0,0,0,0,-1,1553,1541,0,0
336,-517,0,0,0,0,0,0,0,0,0,-1,1560,1541,0,0
343,-517,0,0,0,0,0,0,0,0,0,-1,1567,1541,0,0
350,-517,0,0,0,0,0,0,0,0,0,-1,1574,1541,0,0
357,-517,0,0,0,0,0,0,0,0,0,-1,1581,1541,0,0
364,-517,0,0,0,0,0,0,0,0,0,-1,1588,1541,0,0
371,-517,0,0,0,0,0,0,0,0,0,-1,1595,1541,0,0
378,-517,0,0,0,0,0,0,0,0,0,-1,1602,1541,0,0
385,-517,0,0,0,0,0,0,0,0,0,-1,1609,1541,0,0
392,-517,0,0,0,0,0,0,0,0,0,-1,1616,1541,0,0
399,-517,0,0,0,0,0,0,0,0,0,-1,1623,1541,0,0
406,-517,13.1395,7.01978,0,0,0,0,0,0,0,-1,1630,1541,13.1396,-7.01981
413,-517,12.8859,6.31592,0,0,0,0,0,0,0,-1,1637,1541,12.8858,-6.31588
420,-517,12.4789,6.20337,0,0,0,0,0,0,0,-1,1644,1541,12.4789,-6.20333
427,-517,11.647,4.66516,0,0,0,0,0,0,0,-1,1651,1541,11.647,-4.66519
434,-517,12.3719,3.92773,0,0,0,0,0,0,0,-1,1658,1541,12.3719,-3.92776
441,-517,13.146,3.14124,0,0,0,0,0,0,0,-1,1665,1541,13.146,-3.14121
448,-517,13.8861,2.36682,0,0,0,0,0,0,0,-1,1672,1541,13.8861,-2.36684
455,-517,13.6012,4.06335,0,0,0,0,0,0,0,-1,1679,1541,13.6012,-4.06335
462,-517,14.8956,7.0752,0,0,0,0,0,0,0,-1,1686,1541,14.8956,-7.07525
469,-517,13.6292,6.87744,0,0,0,0,0,0,0,-1,1693,1541,13.6292,-6.87739
476,-517,17.1632,14.1487,0,0,0,0,0,0,0,-1,1700,1541,17.1632,-14.1487
483,-517,16.5157,15.0776,0,0,0,0,0,0,0,-1,1707,1541,16.5157,-15.0777
490,-517,15.5439,18.0258,0,0,0,0,0,0,0,-1,1714,1541,15.5439,-18.0258
497,-517,16.0292,18.7786,0,0,0,0,0,0,0,-1,1721,1541,16.0291,-18.7786
504,-517,17.3815,22.3873,0,0,0,0,0,0,0,-1,1728,1541,17.3814,-22.3873
511,-517,16.9674,21.8491,0,0,0,0,0,0,0,-1,1735,1541,16.9674,-21.8491
518,-517,26.4412,36.6716,0,0,0,0,0,0,0,-1,1742,1541,26.4412,-36.6716
525,-517,26.6566,35.8291,0.00899507,0.00769497,-0.00650789,0.0148853,0.00180475,-0.73562,0.00938,0.0276719,1749,1541,26.6566,-35.8291
532,-517,26.8118,34.9296,0.00724158,0.00626336,-0.00524296,0.0120182,0.00148675,-0.738888,0.0075654,0.0125937,1756,1541,26.8117,-34.9296
539,-517,26.7986,34.156,0.0057126,0.00494404,-0.00411624,0.00946246,0.00119418,-0.738855,0.00595033,0.0137299,1763,1541,26.7985,-34.1561
546,-517,26.78,33.3942,0.0044564,0.00381457,-0.00315426,0.00730603,0.00096494,-0.734703,0.00458303,0.0153149,1770,1541,26.7801,-33.3942
553,-517,26.7137,32.6187,0.00347264,0.00286232,-0.00230694,0.00549452,0.000840441,-0.719641,0.00341749,0.0189262,1777,1541,26.7137,-32.6186
560,-517,26.666,31.86,0.00272685,0.00203017,-0.0015938,0.00400993,0.000747087,-0.677811,0.00246233,0.0184489,1784,1541,26.666,-31.86
567,-517,26.6406,31.0747,0.00222118,0.00140845,-0.00109386,0.00298172,0.000647912,-0.607551,0.0018109,0.0145593,1791,1541,26.6406,-31.0747
574,-517,26.5809,30.2667,0.00196559,0.000934859,-0.000735735,0.0023485,0.000551943,-0.479876,0.00141796,0.0151489,1798,1541,26.5809,-30.2667
581,-517,26.5123,29.5043,0.00198377,0.000617254,-0.000548975,0.00217699,0.000424033,-0.338426,0.00133266,0.0153108,1805,1541,26.5123,-29.5042
588,-517,26.4802,28.7338,0.00225239,0.000490908,-0.000524588,0.00239678,0.000346516,-0.268597,0.00149579,0.016851,1812,1541,26.4802,-28.7338
595,-517,26.4951,27.9762,0.0026901,0.000656084,-0.000607729,0.00285785,0.000488339,-0.269314,0.00176511,0.0463756,1819,1541,26.4951,-27.9761
602,-517,26.7102,26.9312,0,0,0,0,0,0,0,-1,1826,1541,26.7103,-26.9311
609,-517,12.6417,10.8751,0,0,0,0,0,0,0,-1,1833,1541,12.6417,-10.8751
616,-517,14.205,10.3193,0,0,0,0,0,0,0,-1,1840,1541,14.205,-10.3194
623,-517,12.578,10.0779,0,0,0,0,0,0,0,-1,1847,1541,12.578,-10.0779
630,-517,11.7035,7.47815,0,0,0,0,0,0,0,-1,1854,1541,11.7035,-7.47812
637,-517,11.5172,5.79822,0,0,0,0,0,0,0,-1,1861,1541,11.5173,-5.79825
644,-517,11.4232,3.30579,0,0,0,0,0,0,0,-1,1868,1541,11.4232,-3.30574
651,-517,0,0,0,0,0,0,0,0,0,-1,1875,1541,0,0
658,-517,0,0,0,0,0,0,0,0,0,-1,1882,1541,0,0
665,-517,0,0,0,0,0,0,0,0,0,-1,1889,1541,0,0
672,-517,0,0,0,0,0,0,0,0,0,-1,1896,1541,0,0
679,-517,0,0,0,0,0,0,0,0,0,-1,1903,1541,0,0
686,-517,0,0,0,0,0,0,0,0,0,-1,1910,1541,0,0
693,-517,0,0,0,0,0,0,0,0,0,-1,1917,1541,0,0
700,-517,0,0,0,0,0,0,0,0,0,-1,1924,1541,0,0
707,-517,0,0,0,0,0,0,0,0,0,-1,1931,1541,0,0
714,-517,0,0,0,0,0,0,0,0,0,-1,1938,1541,0,0
721,-517,0,0,0,0,0,0,0,0,0,-1,1945,1541,0,0
728,-517,0,0,0,0,0,0,0,0,0,-1,1952,1541,0,0
735,-517,0,0,0,0,0,0,0,0,0,-1,1959,1541,0,0
742,-517,0,0,0,0,0,0,0,0,0,-1,1966,1541,0,0
749,-517,0,0,0,0,0,0,0,0,0,-1,1973,1541,0,0
756,-517,0,0,0,0,0,0,0,0,0,-1,1980,1541,0,0
763,-517,0,0,0,0,0,0,0,0,0,-1,1987,1541,0,0
770,-517,0,0,0,0,0,0,0,0,0,-1,1994,1541,0,0
777,-517,0,0,0,0,0,0,0,0,0,-1,2001,1541,0,0
784,-517,0,0,0,0,0,0,0,0,0,-1,2008,1541,0,0
791,-517,0,0,0,0,0,0,0,0,0,-1,2015,1541,0,0
798,-517,0,0,0,0,0,0,0,0,0,-1,2022,1541,0,0
805,-517,0,0,0,0,0,0,0,0,0,-1,2029,1541,0,0
812,-517,0,0,0,0,0,0,0,0,0,-1,2036,1541,0,0
-700,-524,0,0,0,0,0,0,0,0,0,-1,524,1548,0,0
-693,-524,0,0,0,0,0,0,0,0,0,-1,531,1548,0,0
-686,-524,0,0,0,0,0,0,0,0,0,-1,538,1548,0,0
-679,-524,0,0,0,0,0,0,0,0,0,-1,545,1548,0,0
-672,-524,0,0,0,0,0,0,0,0,0,-1,552,1548,0,0
-665,-524,0,0,0,0,0,0,0,0,0,-1,559,1548,0,0
-658,-524,0,0,0,0,0,0,0,0,0,-1,566,1548,0,0
-651,-524,0,0,0,0,0,0,0,0,0,-1,573,1548,0,0
-644,-524,0,0,0,0,0,0,0,0,0,-1,580,1548,0,0
-637,-524,0,0,0,0,0,0,0,0,0,-1,587,1548,0,0
-630,-524,0,0,0,0,0,0,0,0,0,-1,594,1548,0,0
-623,-524,0,0,0,0,0,0,0,0,0,-1,601,1548,0,0
-616,-524,0,0,0,0,0,0,0,0,0,-1,608,1548,0,0
-609,-524,0,0,0,0,0,0,0,0,0,-1,615,1548,0,0
-602,-524,0,0,0,0,0,0,0,0,0,-1,622,1548,0,0
-595,-524,0,0,0,0,0,0,0,0,0,-1,629,1548,0,0
-588,-524,0,0,0,0,0,0,0,0,0,-1,636,1548,0,0
-581,-524,0,0,0,0,0,0,0,0,0,-1,643,1548,0,0
-574,-524,0,0,0,0,0,0,0,0,0,-1,650,1548,0,0
-567,-524,0,0,0,0,0,0,0,0,0,-1,657,1548,0,0
-560,-524,0,0,0,0,0,0,0,0,0,-1,664,1548,0,0
-553,-524,0,0,0,0,0,0,0,0,0,-1,671,1548,0,0
-546,-524,0,0,0,0,0,0,0,0,0,-1,678,1548,0,0
-539,-524,0,0,0,0,0,0,0,0,0,-1,685,1548,0,0
-532,-524,0,0,0,0,0,0,0,0,0,-1,692,1548,0,0
-525,-524,-0.215515,3.97131,0,0,0,0,0,0,0,-1,699,1548,-0.215501,-3.97136
-518,-524,-0.806274,4.35632,0,0,0,0,0,0,0,-1,706,1548,-0.806259,-4.35633
-511,-524,-1.08301,4.29004,0,0,0,0,0,0,0,-1,713,1548,-1.08301,-4.29006
-504,-524,-1.28821,3.98145,0,0,0,0,0,0,0,-1,720,1548,-1.28822,-3.98151
-497,-524,-0.328491,8.63416,0,0,0,0,0,0,0,-1,727,1548,-0.328487,-8.63411
-490,-524,-6.65582,19.3033,0,0,0,0,0,0,0,-1,734,1548,-6.65583,-19.3034
-483,-524,-7.57153,22.1989,0,0,0,0,0,0,0,-1,741,1548,-7.57151,-22.1988
-476,-524,-7.93585,25.6118,0,0,0,0,0,0,0,-1,748,1548,-7.93586,-25.6118
-469,-524,-8.20728,27.23,0,0,0,0,0,0,0,-1,755,1548,-8.2073,-27.2299
-462,-524,-8.19452,28.322,-0.00592222,-0.0043153,-0.00369719,-0.00133527,-0.00890224,-0.892393,0.0055436,0.0494382,762,1548,-8.1945,-28.3221
-455,-524,-8.43097,28.9176,-0.00480394,-0.00334997,-0.00292826,-0.0010598,-0.00709411,-0.907071,0.00441871,0.0414522,769,1548,-8.43098,-28.9176
-448,-524,-8.39801,29.7371,-0.00373013,-0.00265893,-0.00228462,-0.000847967,-0.0055411,-0.900537,0.00344636,0.0173028,776,1548,-8.39802,-29.7371
-441,-524,-8.43353,30.5582,-0.00258252,-0.00165385,-0.00146387,-0.00058243,-0.00365393,-0.938977,0.00226689,0.011646,783,1548,-8.43356,-30.5582
-434,-524,-8.45062,31.3522,-0.00150967,-0.000646558,-0.000680375,-0.000272414,-0.00188381,-1.06802,0.00117564,0.0137506,790,1548,-8.45065,-31.3522
-427,-524,-8.50177,32.1628,-0.000560504,0.000259948,2.24791e-05,0.000260563,-0.00056112,1.54343,0.000484862,0.0164175,797,1548,-8.50179,-32.1629
-420,-524,-8.56061,32.979,0.000339394,0.00116177,0.000680326,0.00154552,-4.43517e-05,1.05722,0.00104544,0.0415556,804,1548,-8.56059,-32.979
-413,-524,-8.66217,33.7787,0.00127952,0.00204203,0.00134926,0.00306287,0.000258677,0.923092,0.00196138,0.0386432,811,1548,-8.6622,-33.7787
-406,-524,-8.66315,34.5969,0.00218486,0.00297494,0.00194419,0.00456382,0.000595977,0.885628,0.00286463,0.0142183,818,1548,-8.66313,-34.5969
-399,-524,-8.70636,35.3822,0.00301771,0.00378978,0.00243771,0.00587183,0.000935658,0.863926,0.00364294,0.00966199,825,1548,-8.70639,-35.3822
-392,-524,-8.75153,36.1487,0.00379716,0.00469619,0.00290222,0.00718351,0.00130985,0.862231,0.0044176,0.0105068,832,1548,-8.75153,-36.1487
-385,-524,-8.79486,36.9757,0.00465756,0.00563636,0.0033412,0.00852381,0.0017701,0.858118,0.00519404,0.0192162,839,1548,-8.79483,-36.9757
-378,-524,-8.79834,37.863,0,0,0,0,0,0,0,-1,846,1548,-8.79831,-37.863
-371,-524,-4.20789,29.1592,0,0,0,0,0,0,0,-1,853,1548,-4.2079,-29.1592
-364,-524,-0.712097,14.9871,0,0,0,0,0,0,0,-1,860,1548,-0.712116,-14.9871
-357,-524,-1.34052,14.7448,0,0,0,0,0,0,0,-1,867,1548,-1.34054,-14.7447
-350,-524,-4.31909,25.032,0,0,0,0,0,0,0,-1,874,1548,-4.31906,-25.0319
-343,-524,-3.69696,28.6923,0,0,0,0,0,0,0,-1,881,1548,-3.69694,-28.6922
-336,-524,-3.4873,29.655,0,0,0,0,0,0,0,-1,888,1548,-3.48728,-29.6551
-329,-524,-3.21936,30.5509,0,0,0,0,0,0,0,-1,895,1548,-3.21933,-30.5509
-322,-524,-4.31378,25.6389,0,0,0,0,0,0,0,-1,902,1548,-4.31379,-25.639
-315,-524,-1.90839,19.4824,0,0,0,0,0,0,0,-1,909,1548,-1.90838,-19.4824
-308,-524,-2.36938,19.3059,0,0,0,0,0,0,0,-1,916,1548,-2.3694,-19.3058
-301,-524,2.72394,17.7618,0,0,0,0,0,0,0,-1,923,1548,2.72396,-17.7619
-294,-524,-1.52515,9.05408,0,0,0,0,0,0,0,-1,930,1548,-1.52512,-9.05411
-287,-524,-0.962219,10.3199,0,0,0,0,0,0,0,-1,937,1548,-0.962241,-10.32
-280,-524,-1.36255,10.3859,0,0,0,0,0,0,0,-1,944,1548,-1.36253,-10.3859
-273,-524,0,0,0,0,0,0,0,0,0,-1,951,1548,0,0
-266,-524,0,0,0,0,0,0,0,0,0,-1,958,1548,0,0
-259,-524,0,0,0,0,0,0,0,0,0,-1,965,1548,0,0
-252,-524,0,0,0,0,0,0,0,0,0,-1,972,1548,0,0
-245,-524,0,0,0,0,0,0,0,0,0,-1,979,1548,0,0
-238,-524,0,0,0,0,0,0,0,0,0,-1,986,1548,0,0
-231,-524,0,0,0,0,0,0,0,0,0,-1,993,1548,0,0
-224,-524,0,0,0,0,0,0,0,0,0,-1,1000,1548,0,0
-217,-524,0,0,0,0,0,0,0,0,0,-1,1007,1548,0,0
-210,-524,0,0,0,0,0,0,0,0,0,-1,1014,1548,0,0
-203,-524,0,0,0,0,0,0,0,0,0,-1,1021,1548,0,0
-196,-524,0,0,0,0,0,0,0,0,0,-1,1028,1548,0,0
-189,-524,0,0,0,0,0,0,0,0,0,-1,1035,1548,0,0
-182,-524,0,0,0,0,0,0,0,0,0,-1,1042,1548,0,0
-175,-524,0,0,0,0,0,0,0,0,0,-1,1049,1548,0,0
-168,-524,0,0,0,0,0,0,0,0,0,-1,1056,1548,0,0
-161,-524,0,0,0,0,0,0,0,0,0,-1,1063,1548,0,0
-154,-524,0,0,0,0,0,0,0,0,0,-1,1070,1548,0,0
-147,-524,0,0,0,0,0,0,0,0,0,-1,1077,1548,0,0
-140,-524,0,0,0,0,0,0,0,0,0,-1,1084,1548,0,0
-133,-524,0,0,0,0,0,0,0,0,0,-1,1091,1548,0,0
-126,-524,0,0,0,0,0,0,0,0,0,-1,1098,1548,0,0
-119,-524,0,0,0,0,0,0,0,0,0,-1,1105,1548,0,0
-112,-524,0,0,0,0,0,0,0,0,0,-1,1112,1548,0,0
-105,-524,0,0,0,0,0,0,0,0,0,-1,1119,1548,0,0
-98,-524,0,0,0,0,0,0,0,0,0,-1,1126,1548,0,0
-91,-524,0,0,0,0,0,0,0,0,0,-1,1133,1548,0,0
-84,-524,0,0,0,0,0,0,0,0,0,-1,1140,1548,0,0
-77,-524,0,0,0,0,0,0,0,0,0,-1,1147,1548,0,0
-70,-524,0,0,0,0,0,0,0,0,0,-1,1154,1548,0,0
-63,-524,0,0,0,0,0,0,0,0,0,-1,1161,1548,0,0
-56,-524,0,0,0,0,0,0,0,0,0,-1,1168,1548,0,0
-49,-524,0,0,0,0,0,0,0,0,0,-1,1175,1548,0,0
-42,-524,0,0,0,0,0,0,0,0,0,-1,1182,1548,0,0
-35,-524,0,0,0,0,0,0,0,0,0,-1,1189,1548,0,0
-28,-524,0,0,0,0,0,0,0,0,0,-1,1196,1548,0,0
-21,-524,0,0,0,0,0,0,0,0,0,-1,1203,1548,0,0
-14,-524,0,0,0,0,0,0,0,0,0,-1,1210,1548,0,0
-7,-524,0,0,0,0,0,0,0,0,0,-1,1217,1548,0,0
0,-524,0,0,0,0,0,0,0,0,0,-1,1224,1548,0,0
7,-524,0,0,0,0,0,0,0,0,0,-1,1231,1548,0,0
14,-524,0,0,0,0,0,0,0,0,0,-1,1238,1548,0,0
21,-524,0,0,0,0,0,0,0,0,0,-1,1245,1548,0,0
28,-524,0,0,0,0,0,0,0,0,0,-1,1252,1548,0,0
35,-524,0,0,0,0,0,0,0,0,0,-1,1259,1548,0,0
42,-524,0,0,0,0,0,0,0,0,0,-1,1266,1548,0,0
49,-524,0,0,0,0,0,0,0,0,0,-1,1273,1548,0,0
56,-524,0,0,0,0,0,0,0,0,0,-1,1280,1548,0,0
63,-524,0,0,0,0,0,0,0,0,0,-1,1287,1548,0,0
70,-524,0,0,0,0,0,0,0,0,0,-1,1294,1548,0,0
77,-524,0,0,0,0,0,0,0,0,0,-1,1301,1548,0,0
84,-524,0,0,0,0,0,0,0,0,0,-1,1308,1548,0,0
91,-524,0,0,0,0,0,0,0,0,0,-1,1315,1548,0,0
98,-524,0,0,0,0,0,0,0,0,0,-1,1322,1548,0,0
105,-524,0,0,0,0,0,0,0,0,0,-1,1329,1548,0,0
112,-524,0,0,0,0,0,0,0,0,0,-1,1336,1548,0,0
119,-524,0,0,0,0,0,0,0,0,0,-1,1343,1548,0,0
126,-524,0,0,0,0,0,0,0,0,0,-1,1350,1548,0,0
133,-524,0,0,0,0,0,0,0,0,0,-1,1357,1548,0,0
140,-524,0,0,0,0,0,0,0,0,0,-1,1364,1548,0,0
147,-524,0,0,0,0,0,0,0,0,0,-1,1371,1548,0,0
154,-524,0,0,0,0,0,0,0,0,0,-1,1378,1548,0,0
161,-524,0,0,0,0,0,0,0,0,0,-1,1385,1548,0,0
168,-524,0,0,0,0,0,0,0,0,0,-1,1392,1548,0,0
175,-524,0,0,0,0,0,0,0,0,0,-1,1399,1548,0,0
182,-524,0,0,0,0,0,0,0,0,0,-1,1406,1548,0,0
189,-524,0,0,0,0,0,0,0,0,0,-1,1413,1548,0,0
196,-524,0,0,0,0,0,0,0,0,0,-1,1420,1548,0,0
203,-524,0,0,0,0,0,0,0,0,0,-1,1427,1548,0,0
210,-524,0,0,0,0,0,0,0,0,0,-1,1434,1548,0,0
217,-524,0,0,0,0,0,0,0,0,0,-1,1441,1548,0,0
224,-524,0,0,0,0,0,0,0,0,0,-1,1448,1548,0,0
231,-524,0,0,0,0,0,0,0,0,0,-1,1455,1548,0,0
238,-524,0,0,0,0,0,0,0,0,0,-1,1462,1548,0,0
245,-524,0,0,0,0,0,0,0,0,0,-1,1469,1548,0,0
252,-524,0,0,0,0,0,0,0,0,0,-1,1476,1548,0,0
259,-524,0,0,0,0,0,0,0,0,0,-1,1483,1548,0,0
266,-524,0,0,0,0,0,0,0,0,0,-1,1490,1548,0,0
273,-524,0,0,0,0,0,0,0,0,0,-1,1497,1548,0,0
280,-524,0,0,0,0,0,0,0,0,0,-1,1504,1548,0,0
287,-524,0,0,0,0,0,0,0,0,0,-1,1511,1548,0,0
294,-524,0,0,0,0,0,0,0,0,0,-1,1518,1548,0,0
301,-524,0,0,0,0,0,0,0,0,0,-1,1525,1548,0,0
308,-524,0,0,0,0,0,0,0,0,0,-1,1532,1548,0,0
315,-524,0,0,0,0,0,0,0,0,0,-1,1539,1548,0,0
322,-524,0,0,0,0,0,0,0,0,0,-1,1546,1548,0,0
329,-524,0,0,0,0,0,0,0,0,0,-1,1553,1548,0,0
336,-524,0,0,0,0,0,0,0,0,0,-1,1560,1548,0,0
343,-524,0,0,0,0,0,0,0,0,0,-1,1567,1548,0,0
350,-524,0,0,0,0,0,0,0,0,0,-1,1574,1548,0,0
357,-524,0,0,0,0,0,0,0,0,0,-1,1581,1548,0,0
364,-524,0,0,0,0,0,0,0,0,0,-1,1588,1548,0,0
371,-524,0,0,0,0,0,0,0,0,0,-1,1595,1548,0,0
378,-524,0,0,0,0,0,0,0,0,0,-1,1602,1548,0,0
385,-524,0,0,0,0,0,0,0,0,0,-1,1609,1548,0,0
392,-524,0,0,0,0,0,0,0,0,0,-1,1616,1548,0,0
399,-524,8.81848,5.05774,0,0,0,0,0,0,0,-1,1623,1548,8.81843,-5.05769
406,-524,8.64294,6.06799,0,0,0,0,0,0,0,-1,1630,1548,8.6429,-6.06805
413,-524,11.677,6.41858,0,0,0,0,0,0,0,-1,1637,1548,11.677,-6.41864
420,-524,11.4913,6.36401,0,0,0,0,0,0,0,-1,1644,1548,11.4913,-6.36402
427,-524,7.68335,6.17249,0,0,0,0,0,0,0,-1,1651,1548,7.68341,-6.17245
434,-524,10.432,11.6801,0,0,0,0,0,0,0,-1,1658,1548,10.432,-11.68
441,-524,8.78552,4.12305,0,0,0,0,0,0,0,-1,1665,1548,8.78553,-4.12301
448,-524,14.1854,4.78674,0,0,0,0,0,0,0,-1,1672,1548,14.1854,-4.78674
455,-524,12.4784,3.65576,0,0,0,0,0,0,0,-1,1679,1548,12.4784,-3.65572
462,-524,14.7551,9.29395,0,0,0,0,0,0,0,-1,1686,1548,14.7552,-9.29397
469,-524,16.3314,14.3779,0,0,0,0,0,0,0,-1,1693,1548,16.3314,-14.3779
476,-524,15.9106,15.1875,0,0,0,0,0,0,0,-1,1700,1548,15.9107,-15.1876
483,-524,15.2776,16.2268,0,0,0,0,0,0,0,-1,1707,1548,15.2776,-16.2269
490,-524,15.2563,18.5848,0,0,0,0,0,0,0,-1,1714,1548,15.2564,-18.5848
497,-524,17.5173,22.6123,0,0,0,0,0,0,0,-1,1721,1548,17.5174,-22.6123
504,-524,25.7523,38.5188,0,0,0,0,0,0,0,-1,1728,1548,25.7523,-38.5188
511,-524,26.134,37.3718,0,0,0,0,0,0,0,-1,1735,1548,26.134,-37.3718
518,-524,26.1168,36.5568,0.00844863,0.00733529,-0.00601548,0.0139331,0.00185077,-0.73926,0.00873742,0.0268654,1742,1548,26.1168,-36.5568
525,-524,26.0894,35.7909,0.0068392,0.00604301,-0.00495323,0.0114103,0.0014719,-0.745299,0.0071668,0.0147947,1749,1548,26.0894,-35.7909
532,-524,26.0502,34.9861,0.00539812,0.00490837,-0.00397631,0.00913709,0.0011694,-0.754645,0.00574143,0.0107684,1756,1548,26.0501,-34.986
539,-524,26.0127,34.1809,0.00419464,0.00389259,-0.00310983,0.00715711,0.000930114,-0.761136,0.00449357,0.0118503,1763,1548,26.0127,-34.181
546,-524,25.9849,33.4382,0.00319567,0.00292919,-0.00233817,0.0054044,0.000720465,-0.756937,0.00338841,0.0162767,1770,1548,25.9849,-33.4383
553,-524,25.9427,32.7152,0.00242967,0.00215394,-0.00166364,0.00396115,0.000622469,-0.744058,0.00245967,0.0268626,1777,1548,25.9428,-32.7152
560,-524,25.9397,31.9537,0.00190901,0.00148777,-0.00110471,0.002823,0.000573783,-0.691201,0.00172288,0.0356902,1784,1548,25.9396,-31.9537
567,-524,25.8574,31.1655,0.00162657,0.00100816,-0.000718103,0.00209921,0.000535523,-0.582103,0.0012595,0.0199362,1791,1548,25.8574,-31.1655
574,-524,25.8104,30.3193,0.00159508,0.000654196,-0.000450385,0.00177592,0.000473362,-0.381809,0.00106193,0.0142558,1798,1548,25.8105,-30.3193
581,-524,25.7643,29.5198,0.00190262,0.000458648,-0.000396124,0.00200415,0.000357118,-0.250907,0.0012344,0.0152092,1805,1548,25.7643,-29.5197
588,-524,25.8088,28.7579,0.00252765,0.00049629,-0.000512114,0.00264946,0.000374487,-0.233504,0.00165565,0.0325724,1812,1548,25.8088,-28.758
595,-524,25.8402,27.7542,0,0,0,0,0,0,0,-1,1819,1548,25.8402,-27.7541
602,-524,13.837,12.0682,0,0,0,0,0,0,0,-1,1826,1548,13.837,-12.0683
609,-524,13.0056,10.5138,0,0,0,0,0,0,0,-1,1833,1548,13.0056,-10.5138
616,-524,11.6941,8.65515,0,0,0,0,0,0,0,-1,1840,1548,11.6941,-8.65514
623,-524,9.38452,5.15356,0,0,0,0,0,0,0,-1,1847,1548,9.38456,-5.15359
630,-524,11.0541,3.57434,0,0,0,0,0,0,0,-1,1854,1548,11.0541,-3.57438
637,-524,11.6067,3.20728,0,0,0,0,0,0,0,-1,1861,1548,11.6067,-3.20724
644,-524,12.2134,0.727173,0,0,0,0,0,0,0,-1,1868,1548,12.2134,-0.727222
651,-524,0,0,0,0,0,0,0,0,0,-1,1875,1548,0,0
658,-524,0,0,0,0,0,0,0,0,0,-1,1882,1548,0,0
665,-524,0,0,0,0,0,0,0,0,0,-1,1889,1548,0,0
672,-524,0,0,0,0,0,0,0,0,0,-1,1896,1548,0,0
679,-524,0,0,0,0,0,0,0,0,0,-1,1903,1548,0,0
686,-524,0,0,0,0,0,0,0,0,0,-1,1910,1548,0,0
693,-524,0,0,0,0,0,0,0,0,0,-1,1917,1548,0,0
700,-524,0,0,0,0,0,0,0,0,0,-1,1924,1548,0,0
707,-524,0,0,0,0,0,0,0,0,0,-1,1931,1548,0,0
714,-524,0,0,0,0,0,0,0,0,0,-1,1938,1548,0,0
721,-524,0,0,0,0,0,0,0,0,0,-1,1945,1548,0,0
728,-524,0,0,0,0,0,0,0,0,0,-1,1952,1548,0,0
735,-524,0,0,0,0,0,0,0,0,0,-1,1959,1548,0,0
742,-524,0,0,0,0,0,0,0,0,0,-1,1966,1548,0,0
749,-524,0,0,0,0,0,0,0,0,0,-1,1973,1548,0,0
756,-524,0,0,0,0,0,0,0,0,0,-1,1980,1548,0,0
763,-524,0,0,0,0,0,0,0,0,0,-1,1987,1548,0,0
770,-524,0,0,0,0,0,0,0,0,0,-1,1994,1548,0,0
777,-524,0,0,0,0,0,0,0,0,0,-1,2001,1548,0,0
784,-524,0,0,0,0,0,0,0,0,0,-1,2008,1548,0,0
791,-524,0,0,0,0,0,0,0,0,0,-1,2015,1548,0,0
798,-524,0,0,0,0,0,0,0,0,0,-1,2022,1548,0,0
805,-524,0,0,0,0,0,0,0,0,0,-1,2029,1548,0,0
812,-524,0,0,0,0,0,0,0,0,0,-1,2036,1548,0,0
-700,-531,0,0,0,0,0,0,0,0,0,-1,524,1555,0,0
-693,-531,0,0,0,0,0,0,0,0,0,-1,531,1555,0,0
-686,-531,0,0,0,0,0,0,0,0,0,-1,538,1555,0,0
-679,-531,0,0,0,0,0,0,0,0,0,-1,545,1555,0,0
-672,-531,0,0,0,0,0,0,0,0,0,-1,552,1555,0,0
-665,-531,0,0,0,0,0,0,0,0,0,-1,559,1555,0,0
-658,-531,0,0,0,0,0,0,0,0,0,-1,566,1555,0,0
-651,-531,0,0,0,0,0,0,0,0,0,-1,573,1555,0,0
-644,-531,0,0,0,0,0,0,0,0,0,-1,580,1555,0,0
-637,-531,0,0,0,0,0,0,0,0,0,-1,587,1555,0,0
-630,-531,0,0,0,0,0,0,0,0,0,-1,594,1555,0,0
-623,-531,0,0,0,0,0,0,0,0,0,-1,601,1555,0,0
-616,-531,0,0,0,0,0,0,0,0,0,-1,608,1555,0,0
-609,-531,0,0,0,0,0,0,0,0,0,-1,615,1555,0,0
-602,-531,0,0,0,0,0,0,0,0,0,-1,622,1555,0,0
-595,-531,0,0,0,0,0,0,0,0,0,-1,629,1555,0,0
-588,-531,0,0,0,0,0,0,0,0,0,-1,636,1555,0,0
-581,-531,0,0,0,0,0,0,0,0,0,-1,643,1555,0,0
-574,-531,0,0,0,0,0,0,0,0,0,-1,650,1555,0,0
-567,-531,0,0,0,0,0,0,0,0,0,-1,657,1555,0,0
-560,-531,0,0,0,0,0,0,0,0,0,-1,664,1555,0,0
-553,-531,0,0,0,0,0,0,0,0,0,-1,671,1555,0,0
-546,-531,0,0,0,0,0,0,0,0,0,-1,678,1555,0,0
-539,-531,0,0,0,0,0,0,0,0,0,-1,685,1555,0,0
-532,-531,0,0,0,0,0,0,0,0,0,-1,692,1555,0,0
-525,-531,0,0,0,0,0,0,0,0,0,-1,699,1555,0,0
-518,-531,-1.63983,4.03821,0,0,0,0,0,0,0,-1,706,1555,-1.63982,-4.03821
-511,-531,-2.9682,8.07483,0,0,0,0,0,0,0,-1,713,1555,-2.9682,-8.07479
-504,-531,-2.95978,0.557861,0,0,0,0,0,0,0,-1,720,1555,-2.95978,-0.557917
-497,-531,-2.46039,8.07422,0,0,0,0,0,0,0,-1,727,1555,-2.46039,-8.07423
-490,-531,-0.423462,7.92065,0,0,0,0,0,0,0,-1,734,1555,-0.42344,-7.92066
-483,-531,-7.50745,20.1915,0,0,0,0,0,0,0,-1,741,1555,-7.50744,-20.1915
-476,-531,-7.69647,23.6229,0,0,0,0,0,0,0,-1,748,1555,-7.6965,-23.6229
-469,-531,-7.79279,26.5258,0,0,0,0,0,0,0,-1,755,1555,-7.79276,-26.5258
-462,-531,-7.09882,28.5126,0,0,0,0,0,0,0,-1,762,1555,-7.0988,-28.5126
-455,-531,-7.60846,28.7817,0,0,0,0,0,0,0,-1,769,1555,-7.60848,-28.7818
-448,-531,-7.50543,29.7523,-0.00510388,-0.00360649,-0.00330722,-0.000964273,-0.00774609,-0.896713,0.00487453,0.0317382,776,1555,-7.50543,-29.7523
-441,-531,-7.64935,30.5601,-0.0036891,-0.00248609,-0.00229212,-0.000717865,-0.00545732,-0.913716,0.0034241,0.0139785,783,1555,-7.64936,-30.5601
-434,-531,-7.67499,31.4094,-0.00243546,-0.00141735,-0.00137948,-0.000455999,-0.00339682,-0.962157,0.00212889,0.0113538,790,1555,-7.67497,-31.4094
-427,-531,-7.73297,32.2303,-0.00138625,-0.000496725,-0.000605965,-0.000189816,-0.00169315,-1.10198,0.00107112,0.0151734,797,1555,-7.73298,-32.2303
-420,-531,-7.83667,33.0206,-0.000469208,0.000346616,5.45881e-05,0.000350252,-0.000472844,1.50428,0.000476969,0.036879,804,1555,-7.83669,-33.0206
-413,-531,-7.85846,33.8461,0.000447038,0.00110727,0.000680879,0.00153384,2.04686e-05,1.01112,0.0010158,0.0343556,811,1555,-7.85847,-33.8461
-406,-531,-7.88416,34.6316,0.00132262,0.00196305,0.00122122,0.00290534,0.000380329,0.913616,0.00182339,0.0142439,818,1555,-7.88414,-34.6316
-399,-531,-7.92212,35.4313,0.00206117,0.00262384,0.00160471,0.00397169,0.000713314,0.872176,0.00244496,0.0139721,825,1555,-7.9221,-35.4313
-392,-531,-7.9505,36.2163,0.00273279,0.00334776,0.00195234,0.00501669,0.00106386,0.863505,0.00305228,0.0178209,832,1555,-7.95053,-36.2163
-385,-531,-8.00732,36.9924,0.00347842,0.00410898,0.00222233,0.00603829,0.00154912,0.855863,0.00362133,0.0163757,839,1555,-8.00733,-36.9924
-378,-531,-8.0611,37.7332,0.00425026,0.00472476,0.00234954,0.006849,0.00212603,0.835716,0.00404791,0.0214335,846,1555,-8.06112,-37.7332
-371,-531,-8.07123,38.6176,0,0,0,0,0,0,0,-1,853,1555,-8.07125,-38.6176
-364,-531,-7.81042,39.6981,0,0,0,0,0,0,0,-1,860,1555,-7.81041,-39.6982
-357,-531,-4.29193,31.5354,0,0,0,0,0,0,0,-1,867,1555,-4.29191,-31.5354
-350,-531,-3.16101,27.5791,0,0,0,0,0,0,0,-1,874,1555,-3.16099,-27.5791
-343,-531,-2.90552,28.561,0,0,0,0,0,0,0,-1,881,1555,-2.90549,-28.5611
-336,-531,-2.6698,29.5398,0,0,0,0,0,0,0,-1,888,1555,-2.66983,-29.5398
-329,-531,-2.45148,30.4781,0,0,0,0,0,0,0,-1,895,1555,-2.45148,-30.4781
-322,-531,-3.25092,28.4921,0,0,0,0,0,0,0,-1,902,1555,-3.25092,-28.4921
-315,-531,-5.51929,31.7814,0,0,0,0,0,0,0,-1,909,1555,-5.51928,-31.7813
-308,-531,-1.66455,19.0624,0,0,0,0,0,0,0,-1,916,1555,-1.66455,-19.0623
-301,-531,-2.02405,18.8912,0,0,0,0,0,0,0,-1,923,1555,-2.02407,-18.8913
-294,-531,-1.3244,8.1825,0,0,0,0,0,0,0,-1,930,1555,-1.3244,-8.18251
-287,-531,-1.78192,10.1661,0,0,0,0,0,0,0,-1,937,1555,-1.78192,-10.1661
-280,-531,-2.14508,10.3945,0,0,0,0,0,0,0,-1,944,1555,-2.14506,-10.3945
-273,-531,-2.50818,10.6229,0,0,0,0,0,0,0,-1,951,1555,-2.5082,-10.6229
-266,-531,-4.97742,17.9215,0,0,0,0,0,0,0,-1,958,1555,-4.97744,-17.9215
-259,-531,0,0,0,0,0,0,0,0,0,-1,965,1555,0,0
-252,-531,0,0,0,0,0,0,0,0,0,-1,972,1555,0,0
-245,-531,0,0,0,0,0,0,0,0,0,-1,979,1555,0,0
-238,-531,0,0,0,0,0,0,0,0,0,-1,986,1555,0,0
-231,-531,0,0,0,0,0,0,0,0,0,-1,993,1555,0,0
-224,-531,0,0,0,0,0,0,0,0,0,-1,1000,1555,0,0
-217,-531,0,0,0,0,0,0,0,0,0,-1,1007,1555,0,0
-210,-531,0,0,0,0,0,0,0,0,0,-1,1014,1555,0,0
-203,-531,0,0,0,0,0,0,0,0,0,-1,1021,1555,0,0
-196,-531,0,0,0,0,0,0,0,0,0,-1,1028,1555,0,0
-189,-531,0,0,0,0,0,0,0,0,0,-1,1035,1555,0,0
-182,-531,0,0,0,0,0,0,0,0,0,-1,1042,1555,0,0
-175,-531,0,0,0,0,0,0,0,0,0,-1,1049,1555,0,0
-168,-531,0,0,0,0,0,0,0,0,0,-1,1056,1555,0,0
-161,-531,0,0,0,0,0,0,0,0,0,-1,1063,1555,0,0
-154,-531,0,0,0,0,0,0,0,0,0,-1,1070,1555,0,0
-147,-531,0,0,0,0,0,0,0,0,0,-1,1077,1555,0,0
-140,-531,0,0,0,0,0,0,0,0,0,-1,1084,1555,0,0
-133,-531,0,0,0,0,0,0,0,0,0,-1,1091,1555,0,0
-126,-531,0,0,0,0,0,0,0,0,0,-1,1098,1555,0,0
-119,-531,0,0,0,0,0,0,0,0,0,-1,1105,1555,0,0
-112,-531,0,0,0,0,0,0,0,0,0,-1,1112,1555,0,0
-105,-531,0,0,0,0,0,0,0,0,0,-1,1119,1555,0,0
-98,-531,0,0,0,0,0,0,0,0,0,-1,1126,1555,0,0
-91,-531,0,0,0,0,0,0,0,0,0,-1,1133,1555,0,0
-84,-531,0,0,0,0,0,0,0,0,0,-1,1140,1555,0,0
-77,-531,0,0,0,0,0,0,0,0,0,-1,1147,1555,0,0
-70,-531,0,0,0,0,0,0,0,0,0,-1,1154,1555,0,0
-63,-531,0,0,0,0,0,0,0,0,0,-1,1161,1555,0,0
-56,-531,0,0,0,0,0,0,0,0,0,-1,1168,1555,0,0
-49,-531,0,0,0,0,0,0,0,0,0,-1,1175,1555,0,0
-42,-531,0,0,0,0,0,0,0,0,0,-1,1182,1555,0,0
-35,-531,0,0,0,0,0,0,0,0,0,-1,1189,1555,0,0
-28,-531,0,0,0,0,0,0,0,0,0,-1,1196,1555,0,0
-21,-531,0,0,0,0,0,0,0,0,0,-1,1203,1555,0,0
-14,-531,0,0,0,0,0,0,0,0,0,-1,1210,1555,0,0
-7,-531,0,0,0,0,0,0,0,0,0,-1,1217,1555,0,0
0,-531,0,0,0,0,0,0,0,0,0,-1,1224,1555,0,0
7,-531,0,0,0,0,0,0,0,0,0,-1,1231,1555,0,0
14,-531,0,0,0,0,0,0,0,0,0,-1,1238,1555,0,0
21,-531,0,0,0,0,0,0,0,0,0,-1,1245,1555,0,0
28,-531,0,0,0,0,0,0,0,0,0,-1,1252,1555,0,0
35,-531,0,0,0,0,0,0,0,0,0,-1,1259,1555,0,0
42,-531,0,0,0,0,0,0,0,0,0,-1,1266,1555,0,0
49,-531,0,0,0,0,0,0,0,0,0,-1,1273,1555,0,0
56,-531,0,0,0,0,0,0,0,0,0,-1,1280,1555,0,0
63,-531,0,0,0,0,0,0,0,0,0,-1,1287,1555,0,0
70,-531,0,0,0,0,0,0,0,0,0,-1,1294,1555,0,0
77,-531,0,0,0,0,0,0,0,0,0,-1,1301,1555,0,0
84,-531,0,0,0,0,0,0,0,0,0,-1,1308,1555,0,0
91,-531,0,0,0,0,0,0,0,0,0,-1,1315,1555,0,0
98,-531,0,0,0,0,0,0,0,0,0,-1,1322,1555,0,0
105,-531,0,0,0,0,0,0,0,0,0,-1,1329,1555,0,0
112,-531,0,0,0,0,0,0,0,0,0,-1,1336,1555,0,0
119,-531,0,0,0,0,0,0,0,0,0,-1,1343,1555,0,0
126,-531,0,0,0,0,0,0,0,0,0,-1,1350,1555,0,0
133,-531,0,0,0,0,0,0,0,0,0,-1,1357,1555,0,0
140,-531,0,0,0,0,0,0,0,0,0,-1,1364,1555,0,0
147,-531,0,0,0,0,0,0,0,0,0,-1,1371,1555,0,0
154,-531,0,0,0,0,0,0,0,0,0,-1,1378,1555,0,0
161,-531,0,0,0,0,0,0,0,0,0,-1,1385,1555,0,0
168,-531,0,0,0,0,0,0,0,0,0,-1,1392,1555,0,0
175,-531,0,0,0,0,0,0,0,0,0,-1,1399,1555,0,0
182,-531,0,0,0,0,0,0,0,0,0,-1,1406,1555,0,0
189,-531,0,0,0,0,0,0,0,0,0,-1,1413,1555,0,0
196,-531,0,0,0,0,0,0,0,0,0,-1,1420,1555,0,0
203,-531,0,0,0,0,0,0,0,0,0,-1,1427,1555,0,0
210,-531,0,0,0,0,0,0,0,0,0,-1,1434,1555,0,0
217,-531,0,0,0,0,0,0,0,0,0,-1,1441,1555,0,0
224,-531,0,0,0,0,0,0,0,0,0,-1,1448,1555,0,0
231,-531,0,0,0,0,0,0,0,0,0,-1,1455,1555,0,0
238,-531,0,0,0,0,0,0,0,0,0,-1,1462,1555,0,0
245,-531,0,0,0,0,0,0,0,0,0,-1,1469,1555,0,0
252,-531,0,0,0,0,0,0,0,0,0,-1,1476,1555,0,0
259,-531,0,0,0,0,0,0,0,0,0,-1,1483,1555,0,0
266,-531,0,0,0,0,0,0,0,0,0,-1,1490,1555,0,0
273,-531,0,0,0,0,0,0,0,0,0,-1,1497,1555,0,0
280,-531,0,0,0,0,0,0,0,0,0,-1,1504,1555,0,0
287,-531,0,0,0,0,0,0,0,0,0,-1,1511,1555,0,0
294,-531,0,0,0,0,0,0,0,0,0,-1,1518,1555,0,0
301,-531,0,0,0,0,0,0,0,0,0,-1,1525,1555,0,0
308,-531,0,0,0,0,0,0,0,0,0,-1,1532,1555,0,0
315,-531,0,0,0,0,0,0,0,0,0,-1,1539,1555,0,0
322,-531,0,0,0,0,0,0,0,0,0,-1,1546,1555,0,0
329,-531,0,0,0,0,0,0,0,0,0,-1,1553,1555,0,0
336,-531,0,0,0,0,0,0,0,0,0,-1,1560,1555,0,0
343,-531,0,0,0,0,0,0,0,0,0,-1,1567,1555,0,0
350,-531,0,0,0,0,0,0,0,0,0,-1,1574,1555,0,0
357,-531,0,0,0,0,0,0,0,0,0,-1,1581,1555,0,0
364,-531,0,0,0,0,0,0,0,0,0,-1,1588,1555,0,0
371,-531,0,0,0,0,0,0,0,0,0,-1,1595,1555,0,0
378,-531,0,0,0,0,0,0,0,0,0,-1,1602,1555,0,0
385,-531,3.48169,1.78625,0,0,0,0,0,0,0,-1,1609,1555,3.48165,-1.78624
392,-531,10.8781,9.09204,0,0,0,0,0,0,0,-1,1616,1555,10.8781,-9.09205
399,-531,8.26306,5.29602,0,0,0,0,0,0,0,-1,1623,1555,8.26302,-5.29607
406,-531,8.26147,5.42712,0,0,0,0,0,0,0,-1,1630,1555,8.26145,-5.42716
413,-531,8.20618,5.75012,0,0,0,0,0,0,0,-1,1637,1555,8.20619,-5.75017
420,-531,7.64868,7.09558,0,0,0,0,0,0,0,-1,1644,1555,7.64867,-7.09564
427,-531,9.93054,11.8412,0,0,0,0,0,0,0,-1,1651,1555,9.93059,-11.8412
434,-531,10.244,11.7072,0,0,0,0,0,0,0,-1,1658,1555,10.244,-11.7071
441,-531,11.4528,12.9397,0,0,0,0,0,0,0,-1,1665,1555,11.4528,-12.9397
448,-531,11.928,18.8029,0,0,0,0,0,0,0,-1,1672,1555,11.928,-18.8028
455,-531,14.4877,9.67065,0,0,0,0,0,0,0,-1,1679,1555,14.4876,-9.67066
462,-531,13.5253,12.2002,0,0,0,0,0,0,0,-1,1686,1555,13.5252,-12.2002
469,-531,15.5087,15.7894,0,0,0,0,0,0,0,-1,1693,1555,15.5086,-15.7895
476,-531,14.6582,16.2264,0,0,0,0,0,0,0,-1,1700,1555,14.6582,-16.2264
483,-531,14.755,18.5994,0,0,0,0,0,0,0,-1,1707,1555,14.7551,-18.5994
490,-531,16.9362,25.4943,0,0,0,0,0,0,0,-1,1714,1555,16.9362,-25.4942
497,-531,25.1345,39.2998,0,0,0,0,0,0,0,-1,1721,1555,25.1345,-39.2998
504,-531,25.2513,38.2552,0.00930649,0.00850775,-0.00641559,0.0153351,0.00247911,-0.754313,0.00950543,0.0377915,1728,1555,25.2513,-38.2553
511,-531,25.3485,37.3801,0.00771904,0.00691296,-0.00530419,0.0126355,0.00199652,-0.747478,0.00784331,0.0174508,1735,1555,25.3486,-37.3802
518,-531,25.3585,36.5994,0.00630414,0.00572941,-0.00443559,0.0104617,0.00157189,-0.75305,0.00651401,0.015948,1742,1555,25.3585,-36.5994
525,-531,25.3406,35.8453,0.00494115,0.00460756,-0.00361653,0.00839473,0.00115398,-0.762355,0.00525424,0.0149123,1749,1555,25.3405,-35.8454
532,-531,25.3101,35.035,0.00374178,0.00364737,-0.00287838,0.00657335,0.000815807,-0.777199,0.0041372,0.0118541,1756,1555,25.31,-35.035
539,-531,25.256,34.2561,0.00279802,0.00283953,-0.0022331,0.00505197,0.000585588,-0.790045,0.00319075,0.0132612,1763,1555,25.2559,-34.2561
546,-531,25.1631,33.5221,0.00202892,0.00201275,-0.00163668,0.00365754,0.000384131,-0.782929,0.00232093,0.0169804,1770,1555,25.1631,-33.5221
553,-531,25.1857,32.7858,0.00148393,0.00139757,-0.00113221,0.00257378,0.000307721,-0.76634,0.00162303,0.0344236,1777,1555,25.1857,-32.7857
560,-531,25.1641,31.9849,0.00120999,0.000913899,-0.000743541,0.00182008,0.000303807,-0.68713,0.00112586,0.0373792,1784,1555,25.164,-31.9849
567,-531,25.0061,31.1942,0.00118876,0.000606081,-0.000485176,0.00146335,0.000331493,-0.515011,0.000885987,0.0214601,1791,1555,25.0061,-31.1942
574,-531,24.9741,30.361,0.00143789,0.000425812,-0.000321015,0.00153112,0.000332579,-0.282654,0.000929926,0.0158032,1798,1555,24.9741,-30.361
581,-531,25.0038,29.5325,0.00214894,0.000459332,-0.000452631,0.00226256,0.000345717,-0.245931,0.00140736,0.028911,1805,1555,25.0038,-29.5325
588,-531,25.0046,28.6659,0.00329372,0.000863685,-0.000781379,0.00352328,0.000634119,-0.285755,0.00216861,0.0495763,1812,1555,25.0046,-28.6659
595,-531,24.8812,27.7396,0,0,0,0,0,0,0,-1,1819,1555,24.8812,-27.7396
602,-531,13.701,11.8346,0,0,0,0,0,0,0,-1,1826,1555,13.701,-11.8347
609,-531,10.9072,8.50903,0,0,0,0,0,0,0,-1,1833,1555,10.9073,-8.50902
616,-531,10.5723,7.17859,0,0,0,0,0,0,0,-1,1840,1555,10.5723,-7.17855
623,-531,10.0674,5.08984,0,0,0,0,0,0,0,-1,1847,1555,10.0674,-5.08981
630,-531,11.672,3.18909,0,0,0,0,0,0,0,-1,1854,1555,11.672,-3.18904
637,-531,13.2546,1.38965,0,0,0,0,0,0,0,-1,1861,1555,13.2547,-1.3896
644,-531,0,0,0,0,0,0,0,0,0,-1,1868,1555,0,0
651,-531,0,0,0,0,0,0,0,0,0,-1,1875,1555,0,0
658,-531,0,0,0,0,0,0,0,0,0,-1,1882,1555,0,0
665,-531,0,0,0,0,0,0,0,0,0,-1,1889,1555,0,0
672,-531,0,0,0,0,0,0,0,0,0,-1,1896,1555,0,0
679,-531,0,0,0,0,0,0,0,0,0,-1,1903,1555,0,0
686,-531,0,0,0,0,0,0,0,0,0,-1,1910,1555,0,0
693,-531,0,0,0,0,0,0,0,0,0,-1,1917,1555,0,0
700,-531,0,0,0,0,0,0,0,0,0,-1,1924,1555,0,0
707,-531,0,0,0,0,0,0,0,0,0,-1,1931,1555,0,0
714,-531,0,0,0,0,0,0,0,0,0,-1,1938,1555,0,0
721,-531,0,0,0,0,0,0,0,0,0,-1,1945,1555,0,0
728,-531,0,0,0,0,0,0,0,0,0,-1,1952,1555,0,0
735,-531,0,0,0,0,0,0,0,0,0,-1,1959,1555,0,0
742,-531,0,0,0,0,0,0,0,0,0,-1,1966,1555,0,0
749,-531,0,0,0,0,0,0,0,0,0,-1,1973,1555,0,0
756,-531,0,0,0,0,0,0,0,0,0,-1,1980,1555,0,0
763,-531,0,0,0,0,0,0,0,0,0,-1,1987,1555,0,0
770,-531,0,0,0,0,0,0,0,0,0,-1,1994,1555,0,0
777,-531,0,0,0,0,0,0,0,0,0,-1,2001,1555,0,0
784,-531,0,0,0,0,0,0,0,0,0,-1,2008,1555,0,0
791,-531,0,0,0,0,0,0,0,0,0,-1,2015,1555,0,0
798,-531,0,0,0,0,0,0,0,0,0,-1,2022,1555,0,0
805,-531,0,0,0,0,0,0,0,0,0,-1,2029,1555,0,0
812,-531,0,0,0,0,0,0,0,0,0,-1,2036,1555,0,0
-700,-538,0,0,0,0,0,0,0,0,0,-1,524,1562,0,0
-693,-538,0,0,0,0,0,0,0,0,0,-1,531,1562,0,0
-686,-538,0,0,0,0,0,0,0,0,0,-1,538,1562,0,0
-679,-538,0,0,0,0,0,0,0,0,0,-1,545,1562,0,0
-672,-538,0,0,0,0,0,0,0,0,0,-1,552,1562,0,0
-665,-538,0,0,0,0,0,0,0,0,0,-1,559,1562,0,0
-658,-538,0,0,0,0,0,0,0,0,0,-1,566,1562,0,0
-651,-538,0,0,0,0,0,0,0,0,0,-1,573,1562,0,0
-644,-538,0,0,0,0,0,0,0,0,0,-1,580,1562,0,0
-637,-538,0,0,0,0,0,0,0,0,0,-1,587,1562,0,0
-630,-538,0,0,0,0,0,0,0,0,0,-1,594,1562,0,0
-623,-538,0,0,0,0,0,0,0,0,0,-1,601,1562,0,0
-616,-538,0,0,0,0,0,0,0,0,0,-1,608,1562,0,0
-609,-538,0,0,0,0,0,0,0,0,0,-1,615,1562,0,0
-602,-538,0,0,0,0,0,0,0,0,0,-1,622,1562,0,0
-595,-538,0,0,0,0,0,0,0,0,0,-1,629,1562,0,0
-588,-538,0,0,0,0,0,0,0,0,0,-1,636,1562,0,0
-581,-538,0,0,0,0,0,0,0,0,0,-1,643,1562,0,0
-574,-538,0,0,0,0,0,0,0,0,0,-1,650,1562,0,0
-567,-538,0,0,0,0,0,0,0,0,0,-1,657,1562,0,0
-560,-538,0,0,0,0,0,0,0,0,0,-1,664,1562,0,0
-553,-538,0,0,0,0,0,0,0,0,0,-1,671,1562,0,0
-546,-538,0,0,0,0,0,0,0,0,0,-1,678,1562,0,0
-539,-538,0,0,0,0,0,0,0,0,0,-1,685,1562,0,0
-532,-538,0,0,0,0,0,0,0,0,0,-1,692,1562,0,0
-525,-538,0,0,0,0,0,0,0,0,0,-1,699,1562,0,0
-518,-538,0,0,0,0,0,0,0,0,0,-1,706,1562,0,0
-511,-538,-2.6582,-1.54321,0,0,0,0,0,0,0,-1,713,1562,-2.65821,1.54327
-504,-538,-2.66455,-0.71167,0,0,0,0,0,0,0,-1,720,1562,-2.66456,0.711667
-497,-538,-0.763855,6.77747,0,0,0,0,0,0,0,-1,727,1562,-0.76385,-6.77743
-490,-538,-2.70453,8.01465,0,0,0,0,0,0,0,-1,734,1562,-2.70451,-8.0147
-483,-538,-0.933533,7.84644,0,0,0,0,0,0,0,-1,741,1562,-0.933548,-7.84638
-476,-538,-3.29962,15.8307,0,0,0,0,0,0,0,-1,748,1562,-3.29962,-15.8306
-469,-538,-6.44983,24.5707,0,0,0,0,0,0,0,-1,755,1562,-6.4498,-24.5707
-462,-538,-5.75458,25.4069,0,0,0,0,0,0,0,-1,762,1562,-5.7546,-25.4068
-455,-538,-6.5755,28.8893,0,0,0,0,0,0,0,-1,769,1562,-6.57549,-28.8893
-448,-538,-6.84235,29.8212,0,0,0,0,0,0,0,-1,776,1562,-6.84235,-29.8212
-441,-538,-6.89099,30.5743,0,0,0,0,0,0,0,-1,783,1562,-6.891,-30.5744
-434,-538,-6.92413,31.4496,-0.00335794,-0.00205177,-0.00200546,-0.000595741,-0.00481397,-0.942809,0.00303032,0.0148196,790,1562,-6.92416,-31.4496
-427,-538,-6.98846,32.3182,-0.00208985,-0.00103913,-0.0010555,-0.000385474,-0.00274351,-1.01632,0.00171501,0.0135287,797,1562,-6.98848,-32.3182
-420,-538,-7.0014,33.071,-0.00106819,-0.000199048,-0.000311822,-9.87503e-05,-0.00116849,-1.2596,0.000748253,0.0186359,804,1562,-7.00142,-33.071
-413,-538,-7.02393,33.8391,-0.000126586,0.000479228,0.000317233,0.000614943,-0.000262301,1.16655,0.000519939,0.0193032,811,1562,-7.02392,-33.8391
-406,-538,-7.08868,34.6644,0.000741528,0.00125977,0.000833083,0.0018731,0.000128197,0.936174,0.00120827,0.015692,818,1562,-7.0887,-34.6645
-399,-538,-7.13214,35.4863,0.00141458,0.0017903,0.00114394,0.0027617,0.000443178,0.866783,0.00171263,0.0141157,825,1562,-7.13213,-35.4863
-392,-538,-7.16559,36.2679,0.00199724,0.00235553,0.00139959,0.00358739,0.00076538,0.849051,0.00218169,0.0159111,832,1562,-7.16557,-36.2679
-385,-538,-7.21973,37.0566,0.00261327,0.00294756,0.00153137,0.00432088,0.00123994,0.839757,0.00256903,0.0136442,839,1562,-7.21973,-37.0566
-378,-538,-7.25494,37.8425,0.00326315,0.00345601,0.00158345,0.00494596,0.00177319,0.81581,0.00289341,0.010321,846,1562,-7.25491,-37.8426
-371,-538,-7.30841,38.5889,0.0041242,0.00435322,0.00194434,0.00618641,0.002291,0.814812,0.00361155,0.015488,853,1562,-7.30843,-38.5888
-364,-538,-7.23755,39.4893,0.00530021,0.00549538,0.00250194,0.00790164,0.00289395,0.80489,0.0046161,0.0264344,860,1562,-7.23753,-39.4892
-357,-538,-7.06097,40.486,0,0,0,0,0,0,0,-1,867,1562,-7.06099,-40.4859
-350,-538,-6.37695,40.0256,0,0,0,0,0,0,0,-1,874,1562,-6.37696,-40.0257
-343,-538,-2.47339,28.3082,0,0,0,0,0,0,0,-1,881,1562,-2.47341,-28.3083
-336,-538,-2.40161,28.5409,0,0,0,0,0,0,0,-1,888,1562,-2.40163,-28.541
-329,-538,-2.57159,28.4905,0,0,0,0,0,0,0,-1,895,1562,-2.57161,-28.4905
-322,-538,-2.83783,28.2308,0,0,0,0,0,0,0,-1,902,1562,-2.83783,-28.2308
-315,-538,-2.91827,27.7609,0,0,0,0,0,0,0,-1,909,1562,-2.91829,-27.7608
-308,-538,-4.37433,31.7996,0,0,0,0,0,0,0,-1,916,1562,-4.3743,-31.7995
-301,-538,-0.452393,18.5101,0,0,0,0,0,0,0,-1,923,1562,-0.452367,-18.5102
-294,-538,1.23138,14.0757,0,0,0,0,0,0,0,-1,930,1562,1.23137,-14.0757
-287,-538,-2.60419,10.2361,0,0,0,0,0,0,0,-1,937,1562,-2.6042,-10.2361
-280,-538,-2.93475,10.5106,0,0,0,0,0,0,0,-1,944,1562,-2.93475,-10.5106
-273,-538,-3.26532,10.785,0,0,0,0,0,0,0,-1,951,1562,-3.26531,-10.785
-266,-538,-5.03412,15.9951,0,0,0,0,0,0,0,-1,958,1562,-5.03409,-15.9951
-259,-538,-5.89642,16.5184,0,0,0,0,0,0,0,-1,965,1562,-5.89644,-16.5184
-252,-538,0,0,0,0,0,0,0,0,0,-1,972,1562,0,0
-245,-538,0,0,0,0,0,0,0,0,0,-1,979,1562,0,0
-238,-538,0,0,0,0,0,0,0,0,0,-1,986,1562,0,0
-231,-538,0,0,0,0,0,0,0,0,0,-1,993,1562,0,0
-224,-538,0,0,0,0,0,0,0,0,0,-1,1000,1562,0,0
-217,-538,0,0,0,0,0,0,0,0,0,-1,1007,1562,0,0
-210,-538,0,0,0,0,0,0,0,0,0,-1,1014,1562,0,0
-203,-538,0,0,0,0,0,0,0,0,0,-1,1021,1562,0,0
-196,-538,0,0,0,0,0,0,0,0,0,-1,1028,1562,0,0
-189,-538,0,0,0,0,0,0,0,0,0,-1,1035,1562,0,0
-182,-538,0,0,0,0,0,0,0,0,0,-1,1042,1562,0,0
-175,-538,0,0,0,0,0,0,0,0,0,-1,1049,1562,0,0
-168,-538,0,0,0,0,0,0,0,0,0,-1,1056,1562,0,0
-161,-538,0,0,0,0,0,0,0,0,0,-1,1063,1562,0,0
-154,-538,0,0,0,0,0,0,0,0,0,-1,1070,1562,0,0
-147,-538,0,0,0,0,0,0,0,0,0,-1,1077,1562,0,0
-140,-538,0,0,0,0,0,0,0,0,0,-1,1084,1562,0,0
-133,-538,0,0,0,0,0,0,0,0,0,-1,1091,1562,0,0
-126,-538,0,0,0,0,0,0,0,0,0,-1,1098,1562,0,0
-119,-538,0,0,0,0,0,0,0,0,0,-1,1105,1562,0,0
-112,-538,0,0,0,0,0,0,0,0,0,-1,1112,1562,0,0
-105,-538,0,0,0,0,0,0,0,0,0,-1,1119,1562,0,0
-98,-538,0,0,0,0,0,0,0,0,0,-1,1126,1562,0,0
-91,-538,0,0,0,0,0,0,0,0,0,-1,1133,1562,0,0
-84,-538,0,0,0,0,0,0,0,0,0,-1,1140,1562,0,0
-77,-538,0,0,0,0,0,0,0,0,0,-1,1147,1562,0,0
-70,-538,0,0,0,0,0,0,0,0,0,-1,1154,1562,0,0
-63,-538,0,0,0,0,0,0,0,0,0,-1,1161,1562,0,0
-56,-538,0,0,0,0,0,0,0,0,0,-1,1168,1562,0,0
-49,-538,0,0,0,0,0,0,0,0,0,-1,1175,1562,0,0
-42,-538,0,0,0,0,0,0,0,0,0,-1,1182,1562,0,0
-35,-538,0,0,0,0,0,0,0,0,0,-1,1189,1562,0,0
-28,-538,0,0,0,0,0,0,0,0,0,-1,1196,1562,0,0
-21,-538,0,0,0,0,0,0,0,0,0,-1,1203,1562,0,0
-14,-538,0,0,0,0,0,0,0,0,0,-1,1210,1562,0,0
-7,-538,0,0,0,0,0,0,0,0,0,-1,1217,1562,0,0
0,-538,0,0,0,0,0,0,0,0,0,-1,1224,1562,0,0
7,-538,0,0,0,0,0,0,0,0,0,-1,1231,1562,0,0
14,-538,0,0,0,0,0,0,0,0,0,-1,1238,1562,0,0
21,-538,0,0,0,0,0,0,0,0,0,-1,1245,1562,0,0
28,-538,0,0,0,0,0,0,0,0,0,-1,1252,1562,0,0
35,-538,0,0,0,0,0,0,0,0,0,-1,1259,1562,0,0
42,-538,0,0,0,0,0,0,0,0,0,-1,1266,1562,0,0
49,-538,0,0,0,0,0,0,0,0,0,-1,1273,1562,0,0
56,-538,0,0,0,0,0,0,0,0,0,-1,1280,1562,0,0
63,-538,0,0,0,0,0,0,0,0,0,-1,1287,1562,0,0
70,-538,0,0,0,0,0,0,0,0,0,-1,1294,1562,0,0
77,-538,0,0,0,0,0,0,0,0,0,-1,1301,1562,0,0
84,-538,0,0,0,0,0,0,0,0,0,-1,1308,1562,0,0
91,-538,0,0,0,0,0,0,0,0,0,-1,1315,1562,0,0
98,-538,0,0,0,0,0,0,0,0,0,-1,1322,1562,0,0
105,-538,0,0,0,0,0,0,0,0,0,-1,1329,1562,0,0
112,-538,0,0,0,0,0,0,0,0,0,-1,1336,1562,0,0
119,-538,0,0,0,0,0,0,0,0,0,-1,1343,1562,0,0
126,-538,0,0,0,0,0,0,0,0,0,-1,1350,1562,0,0
133,-538,0,0,0,0,0,0,0,0,0,-1,1357,1562,0,0
140,-538,0,0,0,0,0,0,0,0,0,-1,1364,1562,0,0
147,-538,0,0,0,0,0,0,0,0,0,-1,1371,1562,0,0
154,-538,0,0,0,0,0,0,0,0,0,-1,1378,1562,0,0
161,-538,0,0,0,0,0,0,0,0,0,-1,1385,1562,0,0
168,-538,0,0,0,0,0,0,0,0,0,-1,1392,1562,0,0
175,-538,0,0,0,0,0,0,0,0,0,-1,1399,1562,0,0
182,-538,0,0,0,0,0,0,0,0,0,-1,1406,1562,0,0
189,-538,0,0,0,0,0,0,0,0,0,-1,1413,1562,0,0
196,-538,0,0,0,0,0,0,0,0,0,-1,1420,1562,0,0
203,-538,0,0,0,0,0,0,0,0,0,-1,1427,1562,0,0
210,-538,0,0,0,0,0,0,0,0,0,-1,1434,1562,0,0
217,-538,0,0,0,0,0,0,0,0,0,-1,1441,1562,0,0
224,-538,0,0,0,0,0,0,0,0,0,-1,1448,1562,0,0
231,-538,0,0,0,0,0,0,0,0,0,-1,1455,1562,0,0
238,-538,0,0,0,0,0,0,0,0,0,-1,1462,1562,0,0
245,-538,0,0,0,0,0,0,0,0,0,-1,1469,1562,0,0
252,-538,0,0,0,0,0,0,0,0,0,-1,1476,1562,0,0
259,-538,0,0,0,0,0,0,0,0,0,-1,1483,1562,0,0
266,-538,0,0,0,0,0,0,0,0,0,-1,1490,1562,0,0
273,-538,0,0,0,0,0,0,0,0,0,-1,1497,1562,0,0
280,-538,0,0,0,0,0,0,0,0,0,-1,1504,1562,0,0
287,-538,0,0,0,0,0,0,0,0,0,-1,1511,1562,0,0
294,-538,0,0,0,0,0,0,0,0,0,-1,1518,1562,0,0
301,-538,0,0,0,0,0,0,0,0,0,-1,1525,1562,0,0
308,-538,0,0,0,0,0,0,0,0,0,-1,1532,1562,0,0
315,-538,0,0,0,0,0,0,0,0,0,-1,1539,1562,0,0
322,-538,0,0,0,0,0,0,0,0,0,-1,1546,1562,0,0
329,-538,0,0,0,0,0,0,0,0,0,-1,1553,1562,0,0
336,-538,0,0,0,0,0,0,0,0,0,-1,1560,1562,0,0
343,-538,0,0,0,0,0,0,0,0,0,-1,1567,1562,0,0
350,-538,0,0,0,0,0,0,0,0,0,-1,1574,1562,0,0
357,-538,0,0,0,0,0,0,0,0,0,-1,1581,1562,0,0
364,-538,0,0,0,0,0,0,0,0,0,-1,1588,1562,0,0
371,-538,0,0,0,0,0,0,0,0,0,-1,1595,1562,0,0
378,-538,9.65479,5.82434,0,0,0,0,0,0,0,-1,1602,1562,9.6548,-5.82439
385,-538,10.5449,7.9502,0,0,0,0,0,0,0,-1,1609,1562,10.5449,-7.95014
392,-538,8.20361,7.07214,0,0,0,0,0,0,0,-1,1616,1562,8.20362,-7.07211
399,-538,7.85425,4.70508,0,0,0,0,0,0,0,-1,1623,1562,7.85425,-4.70512
406,-538,7.77734,4.96094,0,0,0,0,0,0,0,-1,1630,1562,7.77729,-4.96097
413,-538,13.0446,13.1765,0,0,0,0,0,0,0,-1,1637,1562,13.0446,-13.1765
420,-538,9.96216,12.7653,0,0,0,0,0,0,0,-1,1644,1562,9.96221,-12.7653
427,-538,10.1732,14.5863,0,0,0,0,0,0,0,-1,1651,1562,10.1732,-14.5863
434,-538,9.64331,14.7745,0,0,0,0,0,0,0,-1,1658,1562,9.64326,-14.7746
441,-538,11.5039,20.5195,0,0,0,0,0,0,0,-1,1665,1562,11.5039,-20.5195
448,-538,12.8766,22.4932,0,0,0,0,0,0,0,-1,1672,1562,12.8766,-22.4932
455,-538,12.5693,17.4128,0,0,0,0,0,0,0,-1,1679,1562,12.5694,-17.4128
462,-538,12.1389,17.017,0,0,0,0,0,0,0,-1,1686,1562,12.1389,-17.017
469,-538,14.3802,16.6945,0,0,0,0,0,0,0,-1,1693,1562,14.3803,-16.6945
476,-538,13.724,19.0608,0,0,0,0,0,0,0,-1,1700,1562,13.724,-19.0608
483,-538,17.088,25.2936,0,0,0,0,0,0,0,-1,1707,1562,17.088,-25.2936
490,-538,24.4385,39.9227,0,0,0,0,0,0,0,-1,1714,1562,24.4385,-39.9227
497,-538,24.6482,38.9342,0,0,0,0,0,0,0,-1,1721,1562,24.6482,-38.9342
504,-538,24.6407,38.1327,0.00700738,0.00668563,-0.00479659,0.0116458,0.00204722,-0.768634,0.00717942,0.0169771,1728,1562,24.6408,-38.1327
511,-538,24.5862,37.3774,0.00569319,0.0053517,-0.00389997,0.00942615,0.00161874,-0.763522,0.00582005,0.010691,1735,1562,24.5862,-37.3775
518,-538,24.5759,36.6216,0.00453938,0.00435351,-0.00323973,0.00768751,0.00120539,-0.771059,0.0047742,0.0113245,1742,1562,24.5759,-36.6216
525,-538,24.5457,35.8467,0.00345004,0.00338499,-0.00261219,0.00602991,0.000805119,-0.779173,0.00378026,0.0130844,1749,1562,24.5456,-35.8467
532,-538,24.5132,35.082,0.00250754,0.00256131,-0.00206449,0.00459909,0.000469753,-0.791909,0.00292209,0.0150751,1756,1562,24.5132,-35.0821
539,-538,24.4546,34.3169,0.00180549,0.00190632,-0.00159401,0.00345071,0.0002611,-0.801208,0.00221857,0.017181,1763,1562,24.4546,-34.3169
546,-538,24.3724,33.5638,0.00124545,0.0011902,-0.00114219,0.00236035,7.52943e-05,-0.773307,0.00154908,0.01802,1770,1562,24.3724,-33.5639
553,-538,24.3788,32.7727,0.000887835,0.000690749,-0.000777812,0.00157332,5.26221e-06,-0.722388,0.00104713,0.0309299,1777,1562,24.3788,-32.7727
560,-538,24.2711,32.0072,0.00080626,0.000353874,-0.000535037,0.00116095,-8.18574e-07,-0.585412,0.000774242,0.0344142,1784,1562,24.2711,-32.0072
567,-538,24.1807,31.2374,0.000974213,0.000166359,-0.000367624,0.00111646,2.41137e-05,-0.36919,0.000736399,0.0253204,1791,1562,24.1807,-31.2374
574,-538,24.1053,30.418,0.001425,0.000116359,-0.000275408,0.0014806,6.07601e-05,-0.199199,0.000967447,0.033602,1798,1562,24.1054,-30.418
581,-538,24.3224,29.4971,0,0,0,0,0,0,0,-1,1805,1562,24.3224,-29.497
588,-538,24.1276,28.663,0,0,0,0,0,0,0,-1,1812,1562,24.1276,-28.663
595,-538,15.9808,16.0894,0,0,0,0,0,0,0,-1,1819,1562,15.9808,-16.0893
602,-538,10.314,8.94238,0,0,0,0,0,0,0,-1,1826,1562,10.314,-8.94238
609,-538,10.1046,7.05713,0,0,0,0,0,0,0,-1,1833,1562,10.1046,-7.05719
616,-538,9.92249,5.43506,0,0,0,0,0,0,0,-1,1840,1562,9.92254,-5.43507
623,-538,11.1711,4.31604,0,0,0,0,0,0,0,-1,1847,1562,11.1711,-4.316
630,-538,12.6112,2.61633,0,0,0,0,0,0,0,-1,1854,1562,12.6112,-2.61637
637,-538,0,0,0,0,0,0,0,0,0,-1,1861,1562,0,0
644,-538,0,0,0,0,0,0,0,0,0,-1,1868,1562,0,0
651,-538,0,0,0,0,0,0,0,0,0,-1,1875,1562,0,0
658,-538,0,0,0,0,0,0,0,0,0,-1,1882,1562,0,0
665,-538,0,0,0,0,0,0,0,0,0,-1,1889,1562,0,0
672,-538,0,0,0,0,0,0,0,0,0,-1,1896,1562,0,0
679,-538,0,0,0,0,0,0,0,0,0,-1,1903,1562,0,0
686,-538,0,0,0,0,0,0,0,0,0,-1,1910,1562,0,0
693,-538,0,0,0,0,0,0,0,0,0,-1,1917,1562,0,0
700,-538,0,0,0,0,0,0,0,0,0,-1,1924,1562,0,0
707,-538,0,0,0,0,0,0,0,0,0,-1,1931,1562,0,0
714,-538,0,0,0,0,0,0,0,0,0,-1,1938,1562,0,0
721,-538,0,0,0,0,0,0,0,0,0,-1,1945,1562,0,0
728,-538,0,0,0,0,0,0,0,0,0,-1,1952,1562,0,0
735,-538,0,0,0,0,0,0,0,0,0,-1,1959,1562,0,0
742,-538,0,0,0,0,0,0,0,0,0,-1,1966,1562,0,0
749,-538,0,0,0,0,0,0,0,0,0,-1,1973,1562,0,0
756,-538,0,0,0,0,0,0,0,0,0,-1,1980,1562,0,0
763,-538,0,0,0,0,0,0,0,0,0,-1,1987,1562,0,0
770,-538,0,0,0,0,0,0,0,0,0,-1,1994,1562,0,0
777,-538,0,0,0,0,0,0,0,0,0,-1,2001,1562,0,0
784,-538,0,0,0,0,0,0,0,0,0,-1,2008,1562,0,0
791,-538,0,0,0,0,0,0,0,0,0,-1,2015,1562,0,0
798,-538,0,0,0,0,0,0,0,0,0,-1,2022,1562,0,0
805,-538,0,0,0,0,0,0,0,0,0,-1,2029,1562,0,0
812,-538,0,0,0,0,0,0,0,0,0,-1,2036,1562,0,0
-700,-545,0,0,0,0,0,0,0,0,0,-1,524,1569,0,0
-693,-545,0,0,0,0,0,0,0,0,0,-1,531,1569,0,0
-686,-545,0,0,0,0,0,0,0,0,0,-1,538,1569,0,0
-679,-545,0,0,0,0,0,0,0,0,0,-1,545,1569,0,0
-672,-545,0,0,0,0,0,0,0,0,0,-1,552,1569,0,0
-665,-545,0,0,0,0,0,0,0,0,0,-1,559,1569,0,0
-658,-545,0,0,0,0,0,0,0,0,0,-1,566,1569,0,0
-651,-545,0,0,0,0,0,0,0,0,0,-1,573,1569,0,0
-644,-545,0,0,0,0,0,0,0,0,0,-1,580,1569,0,0
-637,-545,0,0,0,0,0,0,0,0,0,-1,587,1569,0,0
-630,-545,0,0,0,0,0,0,0,0,0,-1,594,1569,0,0
-623,-545,0,0,0,0,0,0,0,0,0,-1,601,1569,0,0
-616,-545,0,0,0,0,0,0,0,0,0,-1,608,1569,0,0
-609,-545,0,0,0,0,0,0,0,0,0,-1,615,1569,0,0
-602,-545,0,0,0,0,0,0,0,0,0,-1,622,1569,0,0
-595,-545,0,0,0,0,0,0,0,0,0,-1,629,1569,0,0
-588,-545,0,0,0,0,0,0,0,0,0,-1,636,1569,0,0
-581,-545,0,0,0,0,0,0,0,0,0,-1,643,1569,0,0
-574,-545,0,0,0,0,0,0,0,0,0,-1,650,1569,0,0
-567,-545,0,0,0,0,0,0,0,0,0,-1,657,1569,0,0
-560,-545,0,0,0,0,0,0,0,0,0,-1,664,1569,0,0
-553,-545,0,0,0,0,0,0,0,0,0,-1,671,1569,0,0
-546,-545,0,0,0,0,0,0,0,0,0,-1,678,1569,0,0
-539,-545,0,0,0,0,0,0,0,0,0,-1,685,1569,0,0
-532,-545,0,0,0,0,0,0,0,0,0,-1,692,1569,0,0
-525,-545,0,0,0,0,0,0,0,0,0,-1,699,1569,0,0
-518,-545,0,0,0,0,0,0,0,0,0,-1,706,1569,0,0
-511,-545,0,0,0,0,0,0,0,0,0,-1,713,1569,0,0
-504,-545,-3.55237,-2.5354,0,0,0,0,0,0,0,-1,720,1569,-3.55236,2.53545
-497,-545,2.26575,5.69214,0,0,0,0,0,0,0,-1,727,1569,2.26573,-5.6922
-490,-545,-2.17334,7.81396,0,0,0,0,0,0,0,-1,734,1569,-2.17334,-7.81399
-483,-545,-1.88336,5.8446,0,0,0,0,0,0,0,-1,741,1569,-1.88334,-5.84466
-476,-545,-1.13147,6.5741,0,0,0,0,0,0,0,-1,748,1569,-1.13149,-6.57405
-469,-545,-1.03412,15.8353,0,0,0,0,0,0,0,-1,755,1569,-1.03414,-15.8353
-462,-545,-4.09772,21.0458,0,0,0,0,0,0,0,-1,762,1569,-4.0977,-21.0458
-455,-545,-5.52856,27.5786,0,0,0,0,0,0,0,-1,769,1569,-5.52854,-27.5786
-448,-545,-5.52972,28.8887,0,0,0,0,0,0,0,-1,776,1569,-5.52974,-28.8886
-441,-545,-5.9043,30.6849,0,0,0,0,0,0,0,-1,783,1569,-5.90428,-30.685
-434,-545,-6.22058,31.5685,-0.00436323,-0.00241424,-0.00256237,-0.000647318,-0.00613015,-0.967107,0.003889,0.0314939,790,1569,-6.22061,-31.5685
-427,-545,-6.2074,32.3771,-0.00275055,-0.0013079,-0.00135418,-0.000494913,-0.00356354,-1.03012,0.00222911,0.0225403,797,1569,-6.20739,-32.3771
-420,-545,-6.15607,33.0963,-0.00155156,-0.000463344,-0.000487859,-0.000276658,-0.00173825,-1.20532,0.00107851,0.0240575,804,1569,-6.15607,-33.0963
-413,-545,-6.1825,33.8511,-0.000555989,0.000122512,0.00015791,0.000157463,-0.00059094,1.35298,0.00045561,0.0236106,811,1569,-6.18249,-33.8511
-406,-545,-6.28003,34.71,0.000318928,0.000791776,0.000660087,0.0012565,-0.000145798,0.957366,0.000890255,0.0179465,818,1569,-6.28006,-34.71
-399,-545,-6.30817,35.5024,0.000957506,0.00119101,0.000926632,0.00200821,0.000140298,0.848065,0.00129458,0.0122788,825,1569,-6.30816,-35.5025
-392,-545,-6.36621,36.2677,0.0014869,0.00160873,0.00112391,0.00267337,0.000422258,0.812469,0.0016595,0.0125162,832,1569,-6.36619,-36.2677
-385,-545,-6.40778,37.0804,0.00200581,0.00205768,0.00117284,0.00320487,0.000858615,0.796452,0.00191563,0.0106412,839,1569,-6.40777,-37.0804
-378,-545,-6.46173,37.8799,0.0025754,0.00248419,0.00120591,0.00373657,0.00132302,0.766499,0.00218772,0.0116347,846,1569,-6.46175,-37.8799
-371,-545,-6.50494,38.6785,0.00326629,0.00315736,0.00144443,0.00465728,0.00176637,0.766553,0.00271488,0.0155608,853,1569,-6.50497,-38.6784
-364,-545,-6.53589,39.4227,0.00420027,0.00419533,0.0018903,0.0060881,0.0023075,0.784745,0.0035491,0.0123753,860,1569,-6.53591,-39.4227
-357,-545,-6.46747,40.3318,0.00525825,0.00555057,0.00251787,0.00792652,0.0028823,0.81439,0.00463277,0.0267355,867,1569,-6.4675,-40.3318
-350,-545,-6.38049,41.3462,0,0,0,0,0,0,0,-1,874,1569,-6.38047,-41.3462
-343,-545,-6.25037,42.1682,0,0,0,0,0,0,0,-1,881,1569,-6.25039,-42.1683
-336,-545,-4.2146,36.9165,0,0,0,0,0,0,0,-1,888,1569,-4.21457,-36.9165
-329,-545,-2.03595,27.8694,0,0,0,0,0,0,0,-1,895,1569,-2.03592,-27.8694
-322,-545,-2.42474,27.9695,0,0,0,0,0,0,0,-1,902,1569,-2.42474,-27.9695
-315,-545,-2.52954,30.1711,0,0,0,0,0,0,0,-1,909,1569,-2.52951,-30.1712
-308,-545,-1.54358,21.4457,0,0,0,0,0,0,0,-1,916,1569,-1.54357,-21.4457
-301,-545,1.52191,17.5009,0,0,0,0,0,0,0,-1,923,1569,1.52192,-17.5008
-294,-545,-2.69287,8.42102,0,0,0,0,0,0,0,-1,930,1569,-2.69287,-8.42097
-287,-545,-3.47784,9.96021,0,0,0,0,0,0,0,-1,937,1569,-3.47785,-9.96021
-280,-545,-3.7879,10.5448,0,0,0,0,0,0,0,-1,944,1569,-3.78793,-10.5448
-273,-545,-5.10333,12.864,0,0,0,0,0,0,0,-1,951,1569,-5.10331,-12.864
-266,-545,-5.78955,13.3704,0,0,0,0,0,0,0,-1,958,1569,-5.78952,-13.3703
-259,-545,-6.32184,13.8101,0,0,0,0,0,0,0,-1,965,1569,-6.32182,-13.81
-252,-545,0.369263,7.54053,0,0,0,0,0,0,0,-1,972,1569,0.369276,-7.54056
-245,-545,-0.236633,6.65564,0,0,0,0,0,0,0,-1,979,1569,-0.236605,-6.65566
-238,-545,0,0,0,0,0,0,0,0,0,-1,986,1569,0,0
-231,-545,0,0,0,0,0,0,0,0,0,-1,993,1569,0,0
-224,-545,0,0,0,0,0,0,0,0,0,-1,1000,1569,0,0
-217,-545,0,0,0,0,0,0,0,0,0,-1,1007,1569,0,0
-210,-545,0,0,0,0,0,0,0,0,0,-1,1014,1569,0,0
-203,-545,0,0,0,0,0,0,0,0,0,-1,1021,1569,0,0
-196,-545,0,0,0,0,0,0,0,0,0,-1,1028,1569,0,0
-189,-545,0,0,0,0,0,0,0,0,0,-1,1035,1569,0,0
-182,-545,0,0,0,0,0,0,0,0,0,-1,1042,1569,0,0
-175,-545,0,0,0,0,0,0,0,0,0,-1,1049,1569,0,0
-168,-545,0,0,0,0,0,0,0,0,0,-1,1056,1569,0,0
-161,-545,0,0,0,0,0,0,0,0,0,-1,1063,1569,0,0
-154,-545,0,0,0,0,0,0,0,0,0,-1,1070,1569,0,0
-147,-545,0,0,0,0,0,0,0,0,0,-1,1077,1569,0,0
-140,-545,0,0,0,0,0,0,0,0,0,-1,1084,1569,0,0
-133,-545,0,0,0,0,0,0,0,0,0,-1,1091,1569,0,0
-126,-545,0,0,0,0,0,0,0,0,0,-1,1098,1569,0,0
-119,-545,0,0,0,0,0,0,0,0,0,-1,1105,1569,0,0
-112,-545,0,0,0,0,0,0,0,0,0,-1,1112,1569,0,0
-105,-545,0,0,0,0,0,0,0,0,0,-1,1119,1569,0,0
-98,-545,0,0,0,0,0,0,0,0,0,-1,1126,1569,0,0
-91,-545,0,0,0,0,0,0,0,0,0,-1,1133,1569,0,0
-84,-545,0,0,0,0,0,0,0,0,0,-1,1140,1569,0,0
-77,-545,0,0,0,0,0,0,0,0,0,-1,1147,1569,0,0
-70,-545,0,0,0,0,0,0,0,0,0,-1,1154,1569,0,0
-63,-545,0,0,0,0,0,0,0,0,0,-1,1161,1569,0,0
-56,-545,0,0,0,0,0,0,0,0,0,-1,1168,1569,0,0
-49,-545,0,0,0,0,0,0,0,0,0,-1,1175,1569,0,0
-42,-545,0,0,0,0,0,0,0,0,0,-1,1182,1569,0,0
-35,-545,0,0,0,0,0,0,0,0,0,-1,1189,1569,0,0
-28,-545,0,0,0,0,0,0,0,0,0,-1,1196,1569,0,0
-21,-545,0,0,0,0,0,0,0,0,0,-1,1203,1569,0,0
-14,-545,0,0,0,0,0,0,0,0,0,-1,1210,1569,0,0
-7,-545,0,0,0,0,0,0,0,0,0,-1,1217,1569,0,0
0,-545,0,0,0,0,0,0,0,0,0,-1,1224,1569,0,0
7,-545,0,0,0,0,0,0,0,0,0,-1,1231,1569,0,0
14,-545,0,0,0,0,0,0,0,0,0,-1,1238,1569,0,0
21,-545,0,0,0,0,0,0,0,0,0,-1,1245,1569,0,0
28,-545,0,0,0,0,0,0,0,0,0,-1,1252,1569,0,0
35,-545,0,0,0,0,0,0,0,0,0,-1,1259,1569,0,0
42,-545,0,0,0,0,0,0,0,0,0,-1,1266,1569,0,0
49,-545,0,0,0,0,0,0,0,0,0,-1,1273,1569,0,0
56,-545,0,0,0,0,0,0,0,0,0,-1,1280,1569,0,0
63,-545,0,0,0,0,0,0,0,0,0,-1,1287,1569,0,0
70,-545,0,0,0,0,0,0,0,0,0,-1,1294,1569,0,0
77,-545,0,0,0,0,0,0,0,0,0,-1,1301,1569,0,0
84,-545,0,0,0,0,0,0,0,0,0,-1,1308,1569,0,0
91,-545,0,0,0,0,0,0,0,0,0,-1,1315,1569,0,0
98,-545,0,0,0,0,0,0,0,0,0,-1,1322,1569,0,0
105,-545,0,0,0,0,0,0,0,0,0,-1,1329,1569,0,0
112,-545,0,0,0,0,0,0,0,0,0,-1,1336,1569,0,0
119,-545,0,0,0,0,0,0,0,0,0,-1,1343,1569,0,0
126,-545,0,0,0,0,0,0,0,0,0,-1,1350,1569,0,0
133,-545,0,0,0,0,0,0,0,0,0,-1,1357,1569,0,0
140,-545,0,0,0,0,0,0,0,0,0,-1,1364,1569,0,0
147,-545,0,0,0,0,0,0,0,0,0,-1,1371,1569,0,0
154,-545,0,0,0,0,0,0,0,0,0,-1,1378,1569,0,0
161,-545,0,0,0,0,0,0,0,0,0,-1,1385,1569,0,0
168,-545,0,0,0,0,0,0,0,0,0,-1,1392,1569,0,0
175,-545,0,0,0,0,0,0,0,0,0,-1,1399,1569,0,0
182,-545,0,0,0,0,0,0,0,0,0,-1,1406,1569,0,0
189,-545,0,0,0,0,0,0,0,0,0,-1,1413,1569,0,0
196,-545,0,0,0,0,0,0,0,0,0,-1,1420,1569,0,0
203,-545,0,0,0,0,0,0,0,0,0,-1,1427,1569,0,0
210,-545,0,0,0,0,0,0,0,0,0,-1,1434,1569,0,0
217,-545,0,0,0,0,0,0,0,0,0,-1,1441,1569,0,0
224,-545,0,0,0,0,0,0,0,0,0,-1,1448,1569,0,0
231,-545,0,0,0,0,0,0,0,0,0,-1,1455,1569,0,0
238,-545,0,0,0,0,0,0,0,0,0,-1,1462,1569,0,0
245,-545,0,0,0,0,0,0,0,0,0,-1,1469,1569,0,0
252,-545,0,0,0,0,0,0,0,0,0,-1,1476,1569,0,0
259,-545,0,0,0,0,0,0,0,0,0,-1,1483,1569,0,0
266,-545,0,0,0,0,0,0,0,0,0,-1,1490,1569,0,0
273,-545,0,0,0,0,0,0,0,0,0,-1,1497,1569,0,0
280,-545,0,0,0,0,0,0,0,0,0,-1,1504,1569,0,0
287,-545,0,0,0,0,0,0,0,0,0,-1,1511,1569,0,0
294,-545,0,0,0,0,0,0,0,0,0,-1,1518,1569,0,0
301,-545,0,0,0,0,0,0,0,0,0,-1,1525,1569,0,0
308,-545,0,0,0,0,0,0,0,0,0,-1,1532,1569,0,0
315,-545,0,0,0,0,0,0,0,0,0,-1,1539,1569,0,0
322,-545,0,0,0,0,0,0,0,0,0,-1,1546,1569,0,0
329,-545,0,0,0,0,0,0,0,0,0,-1,1553,1569,0,0
336,-545,0,0,0,0,0,0,0,0,0,-1,1560,1569,0,0
343,-545,0,0,0,0,0,0,0,0,0,-1,1567,1569,0,0
350,-545,0,0,0,0,0,0,0,0,0,-1,1574,1569,0,0
357,-545,0,0,0,0,0,0,0,0,0,-1,1581,1569,0,0
364,-545,7.19495,4.88098,0,0,0,0,0,0,0,-1,1588,1569,7.19497,-4.88095
371,-545,7.82324,3.84302,0,0,0,0,0,0,0,-1,1595,1569,7.82324,-3.84307
378,-545,7.65674,5.52673,0,0,0,0,0,0,0,-1,1602,1569,7.6567,-5.52667
385,-545,8.58447,1.16125,0,0,0,0,0,0,0,-1,1609,1569,8.5845,-1.1612
392,-545,12.5654,3.89526,0,0,0,0,0,0,0,-1,1616,1569,12.5655,-3.89532
399,-545,11.5869,5.6333,0,0,0,0,0,0,0,-1,1623,1569,11.5869,-5.63326
406,-545,11.234,6.36414,0,0,0,0,0,0,0,-1,1630,1569,11.234,-6.3641
413,-545,12.1521,13.4817,0,0,0,0,0,0,0,-1,1637,1569,12.1521,-13.4817
420,-545,11.1954,13.6047,0,0,0,0,0,0,0,-1,1644,1569,11.1954,-13.6047
427,-545,9.61072,14.9135,0,0,0,0,0,0,0,-1,1651,1569,9.61076,-14.9134
434,-545,13.1598,23.9921,0,0,0,0,0,0,0,-1,1658,1569,13.1598,-23.992
441,-545,12.2833,22.2238,0,0,0,0,0,0,0,-1,1665,1569,12.2833,-22.2237
448,-545,13.0082,21.941,0,0,0,0,0,0,0,-1,1672,1569,13.0082,-21.941
455,-545,13.733,21.6583,0,0,0,0,0,0,0,-1,1679,1569,13.733,-21.6583
462,-545,12.449,20.7413,0,0,0,0,0,0,0,-1,1686,1569,12.4489,-20.7413
469,-545,12.7837,17.7919,0,0,0,0,0,0,0,-1,1693,1569,12.7837,-17.7919
476,-545,15.7562,24.8708,0,0,0,0,0,0,0,-1,1700,1569,15.7563,-24.8709
483,-545,23.7953,40.6218,0,0,0,0,0,0,0,-1,1707,1569,23.7952,-40.6218
490,-545,23.8296,39.7628,0.0080395,0.0084833,-0.00574014,0.0140058,0.00251697,-0.804717,0.00862158,0.0290143,1714,1569,23.8296,-39.7628
497,-545,23.8568,38.9774,0.00671665,0.00652942,-0.00445464,0.0110787,0.00216741,-0.774892,0.00677978,0.0239563,1721,1569,23.8568,-38.9774
504,-545,23.9255,38.1808,0.00536425,0.0049625,-0.00350516,0.00867428,0.00165247,-0.756775,0.00531831,0.0169392,1728,1569,23.9256,-38.1808
511,-545,23.8533,37.4098,0.00421184,0.00390233,-0.00280347,0.00686482,0.00124935,-0.757826,0.00422217,0.0121035,1735,1569,23.8533,-37.4097
518,-545,23.8287,36.6334,0.00320747,0.0031175,-0.00231848,0.00548141,0.000843567,-0.775698,0.00340806,0.0133027,1742,1569,23.8288,-36.6335
525,-545,23.7659,35.8734,0.00227753,0.00233257,-0.00184811,0.00415337,0.000456738,-0.792843,0.00262992,0.0147646,1749,1569,23.7659,-35.8734
532,-545,23.7013,35.1294,0.00149477,0.0016677,-0.00145654,0.00304034,0.000122137,-0.815045,0.00198743,0.0149272,1756,1569,23.7013,-35.1294
539,-545,23.6602,34.3522,0.000948448,0.00116732,-0.00113085,0.00219401,-7.8247e-05,-0.833635,0.00148944,0.0174285,1763,1569,23.6602,-34.3521
546,-545,23.5723,33.5588,0.000547684,0.000587575,-0.000814078,0.00138195,-0.000246693,-0.797646,0.00101359,0.019673,1770,1569,23.5723,-33.5589
553,-545,23.5686,32.7716,0.000342923,0.000209633,-0.000589339,0.000869373,-0.000316817,-0.729095,0.000709182,0.02835,1777,1569,23.5686,-32.7717
560,-545,23.5281,31.9832,0.000414521,2.30446e-05,-0.000505462,0.00076082,-0.000323255,-0.600667,0.000642661,0.0313371,1784,1569,23.5281,-31.9832
567,-545,23.5327,31.1658,0,0,0,0,0,0,0,-1,1791,1569,23.5327,-31.1658
574,-545,23.5002,30.2622,0,0,0,0,0,0,0,-1,1798,1569,23.5003,-30.2622
581,-545,23.4236,28.8615,0,0,0,0,0,0,0,-1,1805,1569,23.4236,-28.8614
588,-545,15.4786,16.7035,0,0,0,0,0,0,0,-1,1812,1569,15.4786,-16.7035
595,-545,10.2859,9.11218,0,0,0,0,0,0,0,-1,1819,1569,10.2858,-9.11215
602,-545,8.82117,6.32214,0,0,0,0,0,0,0,-1,1826,1569,8.82121,-6.32217
609,-545,10.2406,5.22351,0,0,0,0,0,0,0,-1,1833,1569,10.2406,-5.22353
616,-545,11.701,3.93188,0,0,0,0,0,0,0,-1,1840,1569,11.701,-3.93191
623,-545,13.2139,2.32043,0,0,0,0,0,0,0,-1,1847,1569,13.2139,-2.32042
630,-545,0,0,0,0,0,0,0,0,0,-1,1854,1569,0,0
637,-545,0,0,0,0,0,0,0,0,0,-1,1861,1569,0,0
644,-545,0,0,0,0,0,0,0,0,0,-1,1868,1569,0,0
651,-545,0,0,0,0,0,0,0,0,0,-1,1875,1569,0,0
658,-545,0,0,0,0,0,0,0,0,0,-1,1882,1569,0,0
665,-545,0,0,0,0,0,0,0,0,0,-1,1889,1569,0,0
672,-545,0,0,0,0,0,0,0,0,0,-1,1896,1569,0,0
679,-545,0,0,0,0,0,0,0,0,0,-1,1903,1569,0,0
686,-545,0,0,0,0,0,0,0,0,0,-1,1910,1569,0,0
693,-545,0,0,0,0,0,0,0,0,0,-1,1917,1569,0,0
700,-545,0,0,0,0,0,0,0,0,0,-1,1924,1569,0,0
707,-545,0,0,0,0,0,0,0,0,0,-1,1931,1569,0,0
714,-545,0,0,0,0,0,0,0,0,0,-1,1938,1569,0,0
721,-545,0,0,0,0,0,0,0,0,0,-1,1945,1569,0,0
728,-545,0,0,0,0,0,0,0,0,0,-1,1952,1569,0,0
735,-545,0,0,0,0,0,0,0,0,0,-1,1959,1569,0,0
742,-545,0,0,0,0,0,0,0,0,0,-1,1966,1569,0,0
749,-545,0,0,0,0,0,0,0,0,0,-1,1973,1569,0,0
756,-545,0,0,0,0,0,0,0,0,0,-1,1980,1569,0,0
763,-545,0,0,0,0,0,0,0,0,0,-1,1987,1569,0,0
770,-545,0,0,0,0,0,0,0,0,0,-1,1994,1569,0,0
777,-545,0,0,0,0,0,0,0,0,0,-1,2001,1569,0,0
784,-545,0,0,0,0,0,0,0,0,0,-1,2008,1569,0,0
791,-545,0,0,0,0,0,0,0,0,0,-1,2015,1569,0,0
798,-545,0,0,0,0,0,0,0,0,0,-1,2022,1569,0,0
805,-545,0,0,0,0,0,0,0,0,0,-1,2029,1569,0,0
812,-545,0,0,0,0,0,0,0,0,0,-1,2036,1569,0,0
-700,-552,0,0,0,0,0,0,0,0,0,-1,524,1576,0,0
-693,-552,0,0,0,0,0,0,0,0,0,-1,531,1576,0,0
-686,-552,0,0,0,0,0,0,0,0,0,-1,538,1576,0,0
-679,-552,0,0,0,0,0,0,0,0,0,-1,545,1576,0,0
-672,-552,0,0,0,0,0,0,0,0,0,-1,552,1576,0,0
-665,-552,0,0,0,0,0,0,0,0,0,-1,559,1576,0,0
-658,-552,0,0,0,0,0,0,0,0,0,-1,566,1576,0,0
-651,-552,0,0,0,0,0,0,0,0,0,-1,573,1576,0,0
-644,-552,0,0,0,0,0,0,0,0,0,-1,580,1576,0,0
-637,-552,0,0,0,0,0,0,0,0,0,-1,587,1576,0,0
-630,-552,0,0,0,0,0,0,0,0,0,-1,594,1576,0,0
-623,-552,0,0,0,0,0,0,0,0,0,-1,601,1576,0,0
-616,-552,0,0,0,0,0,0,0,0,0,-1,608,1576,0,0
-609,-552,0,0,0,0,0,0,0,0,0,-1,615,1576,0,0
-602,-552,0,0,0,0,0,0,0,0,0,-1,622,1576,0,0
-595,-552,0,0,0,0,0,0,0,0,0,-1,629,1576,0,0
-588,-552,0,0,0,0,0,0,0,0,0,-1,636,1576,0,0
-581,-552,0,0,0,0,0,0,0,0,0,-1,643,1576,0,0
-574,-552,0,0,0,0,0,0,0,0,0,-1,650,1576,0,0
-567,-552,0,0,0,0,0,0,0,0,0,-1,657,1576,0,0
-560,-552,0,0,0,0,0,0,0,0,0,-1,664,1576,0,0
-553,-552,0,0,0,0,0,0,0,0,0,-1,671,1576,0,0
-546,-552,0,0,0,0,0,0,0,0,0,-1,678,1576,0,0
-539,-552,0,0,0,0,0,0,0,0,0,-1,685,1576,0,0
-532,-552,0,0,0,0,0,0,0,0,0,-1,692,1576,0,0
-525,-552,0,0,0,0,0,0,0,0,0,-1,699,1576,0,0
-518,-552,0,0,0,0,0,0,0,0,0,-1,706,1576,0,0
-511,-552,0,0,0,0,0,0,0,0,0,-1,713,1576,0,0
-504,-552,0,0,0,0,0,0,0,0,0,-1,720,1576,0,0
-497,-552,1.51282,3.96924,0,0,0,0,0,0,0,-1,727,1576,1.5128,-3.96924
-490,-552,-3.82312,6.32104,0,0,0,0,0,0,0,-1,734,1576,-3.82314,-6.3211
-483,-552,-3.50586,6.47986,0,0,0,0,0,0,0,-1,741,1576,-3.50587,-6.47983
-476,-552,-1.95129,4.43054,0,0,0,0,0,0,0,-1,748,1576,-1.95128,-4.43054
-469,-552,-1.40491,7.9895,0,0,0,0,0,0,0,-1,755,1576,-1.40491,-7.98947
-462,-552,0.0459595,16.3469,0,0,0,0,0,0,0,-1,762,1576,0.0459611,-16.3469
-455,-552,-3.21484,22.3766,0,0,0,0,0,0,0,-1,769,1576,-3.21487,-22.3766
-448,-552,-4.31531,29.2926,0,0,0,0,0,0,0,-1,776,1576,-4.31533,-29.2926
-441,-552,-4.77905,30.6949,0,0,0,0,0,0,0,-1,783,1576,-4.77908,-30.6949
-434,-552,-5.12891,31.7761,-0.00513258,-0.002322,-0.00301757,-0.000398547,-0.00705603,-1.00332,0.00457696,0.0442092,790,1576,-5.12892,-31.7761
-427,-552,-5.46704,32.2815,-0.00317168,-0.00125831,-0.00154359,-0.000398976,-0.00403101,-1.06282,0.00256471,0.0384989,797,1576,-5.46703,-32.2815
-420,-552,-5.40308,33.1815,-0.00179667,-0.000406981,-0.000514212,-0.000237405,-0.00196625,-1.25225,0.0012393,0.0245345,804,1576,-5.4031,-33.1815
-413,-552,-5.40173,33.9435,-0.00078488,6.65398e-05,0.000172839,0.000100289,-0.000818628,1.37796,0.000582069,0.0178373,811,1576,-5.40172,-33.9435
-406,-552,-5.47107,34.7559,6.13609e-05,0.000584683,0.000667565,0.00104004,-0.000393992,0.972178,0.000855485,0.0135652,818,1576,-5.47107,-34.7558
-399,-552,-5.52234,35.5182,0.000657097,0.00084997,0.000905859,0.00166451,-0.000157444,0.838428,0.00116571,0.0140771,825,1576,-5.52236,-35.5182
-392,-552,-5.60193,36.2938,0.00113564,0.00112779,0.00105946,0.00219118,7.22464e-05,0.783545,0.00143731,0.0160753,832,1576,-5.60192,-36.2938
-385,-552,-5.62494,37.1139,0.00156906,0.00144877,0.00105684,0.00256747,0.000450365,0.756976,0.00158302,0.0151023,839,1576,-5.62493,-37.1139
-378,-552,-5.66864,37.9004,0.00207802,0.00179347,0.00109671,0.00304165,0.000829845,0.720894,0.00181551,0.0164196,846,1576,-5.66861,-37.9004
-371,-552,-5.70819,38.708,0.00263232,0.00224821,0.00123552,0.00369062,0.0011899,0.708293,0.00217512,0.0202216,853,1576,-5.70821,-38.708
-364,-552,-5.73596,39.4626,0.00338529,0.00310221,0.00157881,0.0048289,0.00165861,0.740693,0.00283314,0.0153298,860,1576,-5.73596,-39.4627
-357,-552,-5.75739,40.2051,0.00427543,0.00418899,0.00207719,0.00630985,0.00215457,0.774997,0.00370353,0.0107311,867,1576,-5.7574,-40.2051
-350,-552,-5.75958,41.0547,0.00524427,0.00557242,0.00275574,0.00816896,0.00264773,0.815134,0.00481263,0.0173478,874,1576,-5.75958,-41.0546
-343,-552,-5.77905,41.8318,0.00611628,0.00659585,0.00332552,0.00969022,0.00302191,0.821387,0.00572516,0.0324911,881,1576,-5.77902,-41.8317
-336,-552,-5.84467,42.495,0,0,0,0,0,0,0,-1,888,1576,-5.84466,-42.495
-329,-552,-3.68982,37.6417,0,0,0,0,0,0,0,-1,895,1576,-3.68984,-37.6417
-322,-552,-1.23962,28.5371,0,0,0,0,0,0,0,-1,902,1576,-1.23964,-28.5371
-315,-552,-0.605347,28.994,0,0,0,0,0,0,0,-1,909,1576,-0.605331,-28.9941
-308,-552,-1.01624,30.3169,0,0,0,0,0,0,0,-1,916,1576,-1.01624,-30.3169
-301,-552,1.39453,18.4995,0,0,0,0,0,0,0,-1,923,1576,1.3945,-18.4995
-294,-552,0.842163,13.7863,0,0,0,0,0,0,0,-1,930,1576,0.842149,-13.7863
-287,-552,-0.663757,13.3474,0,0,0,0,0,0,0,-1,937,1576,-0.663744,-13.3474
-280,-552,-5.47241,8.96765,0,0,0,0,0,0,0,-1,944,1576,-5.47239,-8.96766
-273,-552,1.64587,10.6685,0,0,0,0,0,0,0,-1,951,1576,1.6459,-10.6685
-266,-552,-1.32678,8.05688,0,0,0,0,0,0,0,-1,958,1576,-1.32677,-8.05683
-259,-552,-5.54321,8.31213,0,0,0,0,0,0,0,-1,965,1576,-5.54324,-8.31214
-252,-552,-1.93445,7.81543,0,0,0,0,0,0,0,-1,972,1576,-1.93445,-7.81546
-245,-552,-2.53613,6.92212,0,0,0,0,0,0,0,-1,979,1576,-2.53614,-6.92216
-238,-552,-6.5365,2.81885,0,0,0,0,0,0,0,-1,986,1576,-6.53649,-2.8188
-231,-552,-4.32239,4.34583,0,0,0,0,0,0,0,-1,993,1576,-4.32239,-4.34587
-224,-552,0,0,0,0,0,0,0,0,0,-1,1000,1576,0,0
-217,-552,0,0,0,0,0,0,0,0,0,-1,1007,1576,0,0
-210,-552,0,0,0,0,0,0,0,0,0,-1,1014,1576,0,0
-203,-552,0,0,0,0,0,0,0,0,0,-1,1021,1576,0,0
-196,-552,0,0,0,0,0,0,0,0,0,-1,1028,1576,0,0
-189,-552,0,0,0,0,0,0,0,0,0,-1,1035,1576,0,0
-182,-552,0,0,0,0,0,0,0,0,0,-1,1042,1576,0,0
-175,-552,0,0,0,0,0,0,0,0,0,-1,1049,1576,0,0
-168,-552,0,0,0,0,0,0,0,0,0,-1,1056,1576,0,0
-161,-552,0,0,0,0,0,0,0,0,0,-1,1063,1576,0,0
-154,-552,0,0,0,0,0,0,0,0,0,-1,1070,1576,0,0
-147,-552,0,0,0,0,0,0,0,0,0,-1,1077,1576,0,0
-140,-552,0,0,0,0,0,0,0,0,0,-1,1084,1576,0,0
-133,-552,0,0,0,0,0,0,0,0,0,-1,1091,1576,0,0
-126,-552,0,0,0,0,0,0,0,0,0,-1,1098,1576,0,0
-119,-552,0,0,0,0,0,0,0,0,0,-1,1105,1576,0,0
-112,-552,0,0,0,0,0,0,0,0,0,-1,1112,1576,0,0
-105,-552,0,0,0,0,0,0,0,0,0,-1,1119,1576,0,0
-98,-552,0,0,0,0,0,0,0,0,0,-1,1126,1576,0,0
-91,-552,0,0,0,0,0,0,0,0,0,-1,1133,1576,0,0
-84,-552,0,0,0,0,0,0,0,0,0,-1,1140,1576,0,0
-77,-552,0,0,0,0,0,0,0,0,0,-1,1147,1576,0,0
-70,-552,0,0,0,0,0,0,0,0,0,-1,1154,1576,0,0
-63,-552,0,0,0,0,0,0,0,0,0,-1,1161,1576,0,0
-56,-552,0,0,0,0,0,0,0,0,0,-1,1168,1576,0,0
-49,-552,0,0,0,0,0,0,0,0,0,-1,1175,1576,0,0
-42,-552,0,0,0,0,0,0,0,0,0,-1,1182,1576,0,0
-35,-552,0,0,0,0,0,0,0,0,0,-1,1189,1576,0,0
-28,-552,0,0,0,0,0,0,0,0,0,-1,1196,1576,0,0
-21,-552,0,0,0,0,0,0,0,0,0,-1,1203,1576,0,0
-14,-552,0,0,0,0,0,0,0,0,0,-1,1210,1576,0,0
-7,-552,0,0,0,0,0,0,0,0,0,-1,1217,1576,0,0
0,-552,0,0,0,0,0,0,0,0,0,-1,1224,1576,0,0
7,-552,0,0,0,0,0,0,0,0,0,-1,1231,1576,0,0
14,-552,0,0,0,0,0,0,0,0,0,-1,1238,1576,0,0
21,-552,0,0,0,0,0,0,0,0,0,-1,1245,1576,0,0
28,-552,0,0,0,0,0,0,0,0,0,-1,1252,1576,0,0
35,-552,0,0,0,0,0,0,0,0,0,-1,1259,1576,0,0
42,-552,0,0,0,0,0,0,0,0,0,-1,1266,1576,0,0
49,-552,0,0,0,0,0,0,0,0,0,-1,1273,1576,0,0
56,-552,0,0,0,0,0,0,0,0,0,-1,1280,1576,0,0
63,-552,0,0,0,0,0,0,0,0,0,-1,1287,1576,0,0
70,-552,0,0,0,0,0,0,0,0,0,-1,1294,1576,0,0
77,-552,0,0,0,0,0,0,0,0,0,-1,1301,1576,0,0
84,-552,0,0,0,0,0,0,0,0,0,-1,1308,1576,0,0
91,-552,0,0,0,0,0,0,0,0,0,-1,1315,1576,0,0
98,-552,0,0,0,0,0,0,0,0,0,-1,1322,1576,0,0
105,-552,0,0,0,0,0,0,0,0,0,-1,1329,1576,0,0
112,-552,0,0,0,0,0,0,0,0,0,-1,1336,1576,0,0
119,-552,0,0,0,0,0,0,0,0,0,-1,1343,1576,0,0
126,-552,0,0,0,0,0,0,0,0,0,-1,1350,1576,0,0
133,-552,0,0,0,0,0,0,0,0,0,-1,1357,1576,0,0
140,-552,0,0,0,0,0,0,0,0,0,-1,1364,1576,0,0
147,-552,0,0,0,0,0,0,0,0,0,-1,1371,1576,0,0
154,-552,0,0,0,0,0,0,0,0,0,-1,1378,1576,0,0
161,-552,0,0,0,0,0,0,0,0,0,-1,1385,1576,0,0
168,-552,0,0,0,0,0,0,0,0,0,-1,1392,1576,0,0
175,-552,0,0,0,0,0,0,0,0,0,-1,1399,1576,0,0
182,-552,0,0,0,0,0,0,0,0,0,-1,1406,1576,0,0
189,-552,0,0,0,0,0,0,0,0,0,-1,1413,1576,0,0
196,-552,0,0,0,0,0,0,0,0,0,-1,1420,1576,0,0
203,-552,0,0,0,0,0,0,0,0,0,-1,1427,1576,0,0
210,-552,0,0,0,0,0,0,0,0,0,-1,1434,1576,0,0
217,-552,0,0,0,0,0,0,0,0,0,-1,1441,1576,0,0
224,-552,0,0,0,0,0,0,0,0,0,-1,1448,1576,0,0
231,-552,0,0,0,0,0,0,0,0,0,-1,1455,1576,0,0
238,-552,0,0,0,0,0,0,0,0,0,-1,1462,1576,0,0
245,-552,0,0,0,0,0,0,0,0,0,-1,1469,1576,0,0
252,-552,0,0,0,0,0,0,0,0,0,-1,1476,1576,0,0
259,-552,0,0,0,0,0,0,0,0,0,-1,1483,1576,0,0
266,-552,0,0,0,0,0,0,0,0,0,-1,1490,1576,0,0
273,-552,0,0,0,0,0,0,0,0,0,-1,1497,1576,0,0
280,-552,0,0,0,0,0,0,0,0,0,-1,1504,1576,0,0
287,-552,0,0,0,0,0,0,0,0,0,-1,1511,1576,0,0
294,-552,0,0,0,0,0,0,0,0,0,-1,1518,1576,0,0
301,-552,0,0,0,0,0,0,0,0,0,-1,1525,1576,0,0
308,-552,0,0,0,0,0,0,0,0,0,-1,1532,1576,0,0
315,-552,0,0,0,0,0,0,0,0,0,-1,1539,1576,0,0
322,-552,0,0,0,0,0,0,0,0,0,-1,1546,1576,0,0
329,-552,0,0,0,0,0,0,0,0,0,-1,1553,1576,0,0
336,-552,0,0,0,0,0,0,0,0,0,-1,1560,1576,0,0
343,-552,0,0,0,0,0,0,0,0,0,-1,1567,1576,0,0
350,-552,4.97876,4.09888,0,0,0,0,0,0,0,-1,1574,1576,4.97875,-4.09883
357,-552,5.18469,4.10706,0,0,0,0,0,0,0,-1,1581,1576,5.1847,-4.10702
364,-552,5.80872,5.07031,0,0,0,0,0,0,0,-1,1588,1576,5.80874,-5.07037
371,-552,7.10657,5.64783,0,0,0,0,0,0,0,-1,1595,1576,7.10651,-5.64786
378,-552,6.44446,4.91492,0,0,0,0,0,0,0,-1,1602,1576,6.44448,-4.91496
385,-552,12.8276,3.16504,0,0,0,0,0,0,0,-1,1609,1576,12.8276,-3.16503
392,-552,12.1301,4.3363,0,0,0,0,0,0,0,-1,1616,1576,12.1302,-4.33631
399,-552,11.3486,5.6012,0,0,0,0,0,0,0,-1,1623,1576,11.3486,-5.60115
406,-552,10.7863,6.42542,0,0,0,0,0,0,0,-1,1630,1576,10.7863,-6.42536
413,-552,8.39307,10.365,0,0,0,0,0,0,0,-1,1637,1576,8.3931,-10.365
420,-552,10.2306,12.7225,0,0,0,0,0,0,0,-1,1644,1576,10.2305,-12.7226
427,-552,9.73267,14.783,0,0,0,0,0,0,0,-1,1651,1576,9.73269,-14.783
434,-552,12.0377,20.1364,0,0,0,0,0,0,0,-1,1658,1576,12.0377,-20.1364
441,-552,12.4963,21.5277,0,0,0,0,0,0,0,-1,1665,1576,12.4964,-21.5277
448,-552,12.9141,21.5482,0,0,0,0,0,0,0,-1,1672,1576,12.9141,-21.5482
455,-552,13.3318,21.5687,0,0,0,0,0,0,0,-1,1679,1576,13.3317,-21.5687
462,-552,12.745,20.5947,0,0,0,0,0,0,0,-1,1686,1576,12.745,-20.5947
469,-552,17.7067,29.6902,0,0,0,0,0,0,0,-1,1693,1576,17.7067,-29.6902
476,-552,22.985,40.6584,0,0,0,0,0,0,0,-1,1700,1576,22.985,-40.6584
483,-552,23.1724,40.4078,0,0,0,0,0,0,0,-1,1707,1576,23.1724,-40.4079
490,-552,23.1506,39.6725,0.00618324,0.00683155,-0.00429478,0.0108144,0.00220039,-0.823065,0.00659956,0.0151854,1714,1576,23.1506,-39.6725
497,-552,23.2417,38.9449,0.00506032,0.00513885,-0.00328068,0.00838049,0.00181867,-0.791382,0.00509025,0.0223973,1721,1576,23.2417,-38.9449
504,-552,23.1946,38.2223,0.00391202,0.0037063,-0.00254169,0.00635294,0.00126539,-0.765174,0.00388284,0.0251209,1728,1576,23.1946,-38.2222
511,-552,23.1232,37.4229,0.0029005,0.00279122,-0.00199532,0.00484193,0.00084979,-0.771709,0.00298528,0.0189707,1735,1576,23.1232,-37.4228
518,-552,23.0863,36.6498,0.00202701,0.00210874,-0.00164604,0.00371442,0.000421331,-0.797809,0.00234847,0.0163782,1742,1576,23.0863,-36.6498
525,-552,23.0033,35.9115,0.00123938,0.00141711,-0.00130576,0.00263703,1.94729e-05,-0.819374,0.00175156,0.0159576,1749,1576,23.0034,-35.9115
532,-552,22.9491,35.162,0.000608771,0.000829458,-0.00104461,0.00176953,-0.000331304,-0.838019,0.00130423,0.0162761,1756,1576,22.949,-35.162
539,-552,22.9147,34.3859,0.00021432,0.000403483,-0.000840435,0.00115464,-0.000536839,-0.841432,0.000998054,0.0198175,1763,1576,22.9147,-34.3859
546,-552,22.8423,33.6042,6.95361e-06,-8.44143e-05,-0.000646851,0.000609732,-0.000687192,-0.750144,0.000749225,0.0239423,1770,1576,22.8422,-33.6043
553,-552,22.8375,32.7817,-1.26306e-06,-0.00040022,-0.000540142,0.000375058,-0.000776541,-0.608513,0.000678211,0.0275049,1777,1576,22.8376,-32.7818
560,-552,22.8698,31.777,0,0,0,0,0,0,0,-1,1784,1576,22.8697,-31.777
567,-552,20.6783,26.0908,0,0,0,0,0,0,0,-1,1791,1576,20.6784,-26.0908
574,-552,12.8835,14.8463,0,0,0,0,0,0,0,-1,1798,1576,12.8836,-14.8463
581,-552,9.74841,9.98645,0,0,0,0,0,0,0,-1,1805,1576,9.74847,-9.9864
588,-552,10.5619,9.34924,0,0,0,0,0,0,0,-1,1812,1576,10.5619,-9.34921
595,-552,5.36194,6.62744,0,0,0,0,0,0,0,-1,1819,1576,5.36193,-6.62742
602,-552,10.6863,4.31616,0,0,0,0,0,0,0,-1,1826,1576,10.6862,-4.31619
609,-552,12.146,3.18286,0,0,0,0,0,0,0,-1,1833,1576,12.1459,-3.18281
616,-552,13.8762,2.08167,0,0,0,0,0,0,0,-1,1840,1576,13.8763,-2.08167
623,-552,0,0,0,0,0,0,0,0,0,-1,1847,1576,0,0
630,-552,0,0,0,0,0,0,0,0,0,-1,1854,1576,0,0
637,-552,0,0,0,0,0,0,0,0,0,-1,1861,1576,0,0
644,-552,0,0,0,0,0,0,0,0,0,-1,1868,1576,0,0
651,-552,0,0,0,0,0,0,0,0,0,-1,1875,1576,0,0
658,-552,0,0,0,0,0,0,0,0,0,-1,1882,1576,0,0
665,-552,0,0,0,0,0,0,0,0,0,-1,1889,1576,0,0
672,-552,0,0,0,0,0,0,0,0,0,-1,1896,1576,0,0
679,-552,0,0,0,0,0,0,0,0,0,-1,1903,1576,0,0
686,-552,0,0,0,0,0,0,0,0,0,-1,1910,1576,0,0
693,-552,0,0,0,0,0,0,0,0,0,-1,1917,1576,0,0
700,-552,0,0,0,0,0,0,0,0,0,-1,1924,1576,0,0
707,-552,0,0,0,0,0,0,0,0,0,-1,1931,1576,0,0
714,-552,0,0,0,0,0,0,0,0,0,-1,1938,1576,0,0
721,-552,0,0,0,0,0,0,0,0,0,-1,1945,1576,0,0
728,-552,0,0,0,0,0,0,0,0,0,-1,1952,1576,0,0
735,-552,0,0,0,0,0,0,0,0,0,-1,1959,1576,0,0
742,-552,0,0,0,0,0,0,0,0,0,-1,1966,1576,0,0
749,-552,0,0,0,0,0,0,0,0,0,-1,1973,1576,0,0
756,-552,0,0,0,0,0,0,0,0,0,-1,1980,1576,0,0
763,-552,0,0,0,0,0,0,0,0,0,-1,1987,1576,0,0
770,-552,0,0,0,0,0,0,0,0,0,-1,1994,1576,0,0
777,-552,0,0,0,0,0,0,0,0,0,-1,2001,1576,0,0
784,-552,0,0,0,0,0,0,0,0,0,-1,2008,1576,0,0
791,-552,0,0,0,0,0,0,0,0,0,-1,2015,1576,0,0
798,-552,0,0,0,0,0,0,0,0,0,-1,2022,1576,0,0
805,-552,0,0,0,0,0,0,0,0,0,-1,2029,1576,0,0
812,-552,0,0,0,0,0,0,0,0,0,-1,2036,1576,0,0
-700,-559,0,0,0,0,0,0,0,0,0,-1,524,1583,0,0
-693,-559,0,0,0,0,0,0,0,0,0,-1,531,1583,0,0
-686,-559,0,0,0,0,0,0,0,0,0,-1,538,1583,0,0
-679,-559,0,0,0,0,0,0,0,0,0,-1,545,1583,0,0
-672,-559,0,0,0,0,0,0,0,0,0,-1,552,1583,0,0
-665,-559,0,0,0,0,0,0,0,0,0,-1,559,1583,0,0
-658,-559,0,0,0,0,0,0,0,0,0,-1,566,1583,0,0
-651,-559,0,0,0,0,0,0,0,0,0,-1,573,1583,0,0
-644,-559,0,0,0,0,0,0,0,0,0,-1,580,1583,0,0
-637,-559,0,0,0,0,0,0,0,0,0,-1,587,1583,0,0
-630,-559,0,0,0,0,0,0,0,0,0,-1,594,1583,0,0
-623,-559,0,0,0,0,0,0,0,0,0,-1,601,1583,0,0
-616,-559,0,0,0,0,0,0,0,0,0,-1,608,1583,0,0
-609,-559,0,0,0,0,0,0,0,0,0,-1,615,1583,0,0
-602,-559,0,0,0,0,0,0,0,0,0,-1,622,1583,0,0
-595,-559,0,0,0,0,0,0,0,0,0,-1,629,1583,0,0
-588,-559,0,0,0,0,0,0,0,0,0,-1,636,1583,0,0
-581,-559,0,0,0,0,0,0,0,0,0,-1,643,1583,0,0
-574,-559,0,0,0,0,0,0,0,0,0,-1,650,1583,0,0
-567,-559,0,0,0,0,0,0,0,0,0,-1,657,1583,0,0
-560,-559,0,0,0,0,0,0,0,0,0,-1,664,1583,0,0
-553,-559,0,0,0,0,0,0,0,0,0,-1,671,1583,0,0
-546,-559,0,0,0,0,0,0,0,0,0,-1,678,1583,0,0
-539,-559,0,0,0,0,0,0,0,0,0,-1,685,1583,0,0
-532,-559,0,0,0,0,0,0,0,0,0,-1,692,1583,0,0
-525,-559,0,0,0,0,0,0,0,0,0,-1,699,1583,0,0
-518,-559,0,0,0,0,0,0,0,0,0,-1,706,1583,0,0
-511,-559,0,0,0,0,0,0,0,0,0,-1,713,1583,0,0
-504,-559,0,0,0,0,0,0,0,0,0,-1,720,1583,0,0
-497,-559,0,0,0,0,0,0,0,0,0,-1,727,1583,0,0
-490,-559,-5.49835,4.47424,0,0,0,0,0,0,0,-1,734,1583,-5.49833,-4.4743
-483,-559,-5.24078,4.74561,0,0,0,0,0,0,0,-1,741,1583,-5.24079,-4.74563
-476,-559,-4.98022,4.99316,0,0,0,0,0,0,0,-1,748,1583,-4.98024,-4.99321
-469,-559,-4.6424,5.38062,0,0,0,0,0,0,0,-1,755,1583,-4.64237,-5.38058
-462,-559,-0.161865,6.49438,0,0,0,0,0,0,0,-1,762,1583,-0.161835,-6.49444
-455,-559,1.08826,7.02527,0,0,0,0,0,0,0,-1,769,1583,1.08823,-7.02529
-448,-559,-2.86023,20.0852,0,0,0,0,0,0,0,-1,776,1583,-2.86025,-20.0852
-441,-559,-3.86279,30.3889,0,0,0,0,0,0,0,-1,783,1583,-3.86278,-30.3889
-434,-559,-3.88989,31.7469,0,0,0,0,0,0,0,-1,790,1583,-3.88991,-31.7469
-427,-559,-4.61151,32.1022,0,0,0,0,0,0,0,-1,797,1583,-4.61153,-32.1022
-420,-559,-4.60876,33.0527,0,0,0,0,0,0,0,-1,804,1583,-4.60877,-33.0528
-413,-559,-4.66504,33.9911,-0.000695112,0.000506688,0.000654539,0.000794327,-0.000982751,1.15675,0.00102792,0.0189787,811,1583,-4.66506,-33.991
-406,-559,-4.70203,34.8165,3.16194e-05,0.000765512,0.00104148,0.0015028,-0.000705672,0.954773,0.00130246,0.00970584,818,1583,-4.702,-34.8166
-399,-559,-4.73309,35.6091,0.000524226,0.000810313,0.00116604,0.00184205,-0.000507512,0.84643,0.0014276,0.0129518,825,1583,-4.73308,-35.6091
-392,-559,-4.81335,36.3735,0.000911644,0.000896042,0.00120213,0.00210599,-0.000298308,0.782153,0.00151327,0.0172671,832,1583,-4.81338,-36.3736
-385,-559,-4.83954,37.1571,0.00123719,0.001059,0.00110238,0.00225406,4.21215e-05,0.745075,0.00148887,0.0173315,839,1583,-4.83954,-37.1571
-378,-559,-4.87042,37.9568,0.00167435,0.00130177,0.00109585,0.00259963,0.000376482,0.701206,0.00162222,0.0163467,846,1583,-4.87042,-37.9567
-371,-559,-4.93823,38.7839,0.00211697,0.00154943,0.00109488,0.00296426,0.00070214,0.6586,0.00178867,0.0245884,853,1583,-4.93824,-38.7839
-364,-559,-4.96246,39.5106,0.00273596,0.00219216,0.00130217,0.00379431,0.0011338,0.682474,0.00224898,0.0215442,860,1583,-4.96249,-39.5106
-357,-559,-4.99072,40.2405,0.00350529,0.00302253,0.00164627,0.00492778,0.00160003,0.712606,0.00290276,0.0121298,867,1583,-4.99073,-40.2405
-350,-559,-5.00958,40.9957,0.00439958,0.00404841,0.0021517,0.00638285,0.00206515,0.744687,0.00376085,0.00979683,874,1583,-5.00961,-40.9957
-343,-559,-5.04926,41.7645,0.00525292,0.0049236,0.00264819,0.00774156,0.00243496,0.754349,0.00457094,0.0112405,881,1583,-5.04926,-41.7645
-336,-559,-5.02173,42.5413,0,0,0,0,0,0,0,-1,888,1583,-5.02174,-42.5413
-329,-559,-5.05927,43.4648,0,0,0,0,0,0,0,-1,895,1583,-5.05927,-43.4649
-322,-559,-4.86597,44.8291,0,0,0,0,0,0,0,-1,902,1583,-4.86594,-44.8291
-315,-559,-0.659607,29.1698,0,0,0,0,0,0,0,-1,909,1583,-0.659577,-29.1698
-308,-559,-0.755493,30.4624,0,0,0,0,0,0,0,-1,916,1583,-0.755509,-30.4625
-301,-559,-1.22174,31.0372,0,0,0,0,0,0,0,-1,923,1583,-1.22176,-31.0372
-294,-559,0.945129,18.5165,0,0,0,0,0,0,0,-1,930,1583,0.945117,-18.5165
-287,-559,-0.11792,15.4912,0,0,0,0,0,0,0,-1,937,1583,-0.117939,-15.4912
-280,-559,0.191467,13.5093,0,0,0,0,0,0,0,-1,944,1583,0.191441,-13.5093
-273,-559,2.12836,10.3059,0,0,0,0,0,0,0,-1,951,1583,2.12839,-10.3059
-266,-559,-0.597046,6.68933,0,0,0,0,0,0,0,-1,958,1583,-0.597031,-6.68937
-259,-559,-7.00311,8.62756,0,0,0,0,0,0,0,-1,965,1583,-7.00312,-8.6275
-252,-559,-9.4483,2.87805,0,0,0,0,0,0,0,-1,972,1583,-9.44829,-2.87805
-245,-559,-4.80804,7.1803,0,0,0,0,0,0,0,-1,979,1583,-4.80804,-7.18027
-238,-559,-8.45764,2.54858,0,0,0,0,0,0,0,-1,986,1583,-8.45763,-2.54862
-231,-559,-5.86914,4.34021,0,0,0,0,0,0,0,-1,993,1583,-5.86914,-4.34019
-224,-559,-3.30505,6.22864,0,0,0,0,0,0,0,-1,1000,1583,-3.30505,-6.22859
-217,-559,0,0,0,0,0,0,0,0,0,-1,1007,1583,0,0
-210,-559,0,0,0,0,0,0,0,0,0,-1,1014,1583,0,0
-203,-559,0,0,0,0,0,0,0,0,0,-1,1021,1583,0,0
-196,-559,0,0,0,0,0,0,0,0,0,-1,1028,1583,0,0
-189,-559,0,0,0,0,0,0,0,0,0,-1,1035,1583,0,0
-182,-559,0,0,0,0,0,0,0,0,0,-1,1042,1583,0,0
-175,-559,0,0,0,0,0,0,0,0,0,-1,1049,1583,0,0
-168,-559,0,0,0,0,0,0,0,0,0,-1,1056,1583,0,0
-161,-559,0,0,0,0,0,0,0,0,0,-1,1063,1583,0,0
-154,-559,0,0,0,0,0,0,0,0,0,-1,1070,1583,0,0
-147,-559,0,0,0,0,0,0,0,0,0,-1,1077,1583,0,0
-140,-559,0,0,0,0,0,0,0,0,0,-1,1084,1583,0,0
-133,-559,0,0,0,0,0,0,0,0,0,-1,1091,1583,0,0
-126,-559,0,0,0,0,0,0,0,0,0,-1,1098,1583,0,0
-119,-559,0,0,0,0,0,0,0,0,0,-1,1105,1583,0,0
-112,-559,0,0,0,0,0,0,0,0,0,-1,1112,1583,0,0
-105,-559,0,0,0,0,0,0,0,0,0,-1,1119,1583,0,0
-98,-559,0,0,0,0,0,0,0,0,0,-1,1126,1583,0,0
-91,-559,0,0,0,0,0,0,0,0,0,-1,1133,1583,0,0
-84,-559,0,0,0,0,0,0,0,0,0,-1,1140,1583,0,0
-77,-559,0,0,0,0,0,0,0,0,0,-1,1147,1583,0,0
-70,-559,0,0,0,0,0,0,0,0,0,-1,1154,1583,0,0
-63,-559,0,0,0,0,0,0,0,0,0,-1,1161,1583,0,0
-56,-559,0,0,0,0,0,0,0,0,0,-1,1168,1583,0,0
-49,-559,0,0,0,0,0,0,0,0,0,-1,1175,1583,0,0
-42,-559,0,0,0,0,0,0,0,0,0,-1,1182,1583,0,0
-35,-559,0,0,0,0,0,0,0,0,0,-1,1189,1583,0,0
-28,-559,0,0,0,0,0,0,0,0,0,-1,1196,1583,0,0
-21,-559,0,0,0,0,0,0,0,0,0,-1,1203,1583,0,0
-14,-559,0,0,0,0,0,0,0,0,0,-1,1210,1583,0,0
-7,-559,0,0,0,0,0,0,0,0,0,-1,1217,1583,0,0
0,-559,0,0,0,0,0,0,0,0,0,-1,1224,1583,0,0
7,-559,0,0,0,0,0,0,0,0,0,-1,1231,1583,0,0
14,-559,0,0,0,0,0,0,0,0,0,-1,1238,1583,0,0
21,-559,0,0,0,0,0,0,0,0,0,-1,1245,1583,0,0
28,-559,0,0,0,0,0,0,0,0,0,-1,1252,1583,0,0
35,-559,0,0,0,0,0,0,0,0,0,-1,1259,1583,0,0
42,-559,0,0,0,0,0,0,0,0,0,-1,1266,1583,0,0
49,-559,0,0,0,0,0,0,0,0,0,-1,1273,1583,0,0
56,-559,0,0,0,0,0,0,0,0,0,-1,1280,1583,0,0
63,-559,0,0,0,0,0,0,0,0,0,-1,1287,1583,0,0
70,-559,0,0,0,0,0,0,0,0,0,-1,1294,1583,0,0
77,-559,0,0,0,0,0,0,0,0,0,-1,1301,1583,0,0
84,-559,0,0,0,0,0,0,0,0,0,-1,1308,1583,0,0
91,-559,0,0,0,0,0,0,0,0,0,-1,1315,1583,0,0
98,-559,0,0,0,0,0,0,0,0,0,-1,1322,1583,0,0
105,-559,0,0,0,0,0,0,0,0,0,-1,1329,1583,0,0
112,-559,0,0,0,0,0,0,0,0,0,-1,1336,1583,0,0
119,-559,0,0,0,0,0,0,0,0,0,-1,1343,1583,0,0
126,-559,0,0,0,0,0,0,0,0,0,-1,1350,1583,0,0
133,-559,0,0,0,0,0,0,0,0,0,-1,1357,1583,0,0
140,-559,0,0,0,0,0,0,0,0,0,-1,1364,1583,0,0
147,-559,0,0,0,0,0,0,0,0,0,-1,1371,1583,0,0
154,-559,0,0,0,0,0,0,0,0,0,-1,1378,1583,0,0
161,-559,0,0,0,0,0,0,0,0,0,-1,1385,1583,0,0
168,-559,0,0,0,0,0,0,0,0,0,-1,1392,1583,0,0
175,-559,0,0,0,0,0,0,0,0,0,-1,1399,1583,0,0
182,-559,0,0,0,0,0,0,0,0,0,-1,1406,1583,0,0
189,-559,0,0,0,0,0,0,0,0,0,-1,1413,1583,0,0
196,-559,0,0,0,0,0,0,0,0,0,-1,1420,1583,0,0
203,-559,0,0,0,0,0,0,0,0,0,-1,1427,1583,0,0
210,-559,0,0,0,0,0,0,0,0,0,-1,1434,1583,0,0
217,-559,0,0,0,0,0,0,0,0,0,-1,1441,1583,0,0
224,-559,0,0,0,0,0,0,0,0,0,-1,1448,1583,0,0
231,-559,0,0,0,0,0,0,0,0,0,-1,1455,1583,0,0
238,-559,0,0,0,0,0,0,0,0,0,-1,1462,1583,0,0
245,-559,0,0,0,0,0,0,0,0,0,-1,1469,1583,0,0
252,-559,0,0,0,0,0,0,0,0,0,-1,1476,1583,0,0
259,-559,0,0,0,0,0,0,0,0,0,-1,1483,1583,0,0
266,-559,0,0,0,0,0,0,0,0,0,-1,1490,1583,0,0
273,-559,0,0,0,0,0,0,0,0,0,-1,1497,1583,0,0
280,-559,0,0,0,0,0,0,0,0,0,-1,1504,1583,0,0
287,-559,0,0,0,0,0,0,0,0,0,-1,1511,1583,0,0
294,-559,0,0,0,0,0,0,0,0,0,-1,1518,1583,0,0
301,-559,0,0,0,0,0,0,0,0,0,-1,1525,1583,0,0
308,-559,0,0,0,0,0,0,0,0,0,-1,1532,1583,0,0
315,-559,0,0,0,0,0,0,0,0,0,-1,1539,1583,0,0
322,-559,0,0,0,0,0,0,0,0,0,-1,1546,1583,0,0
329,-559,0,0,0,0,0,0,0,0,0,-1,1553,1583,0,0
336,-559,5.97668,3.09827,0,0,0,0,0,0,0,-1,1560,1583,5.97667,-3.09824
343,-559,5.44824,2.88696,0,0,0,0,0,0,0,-1,1567,1583,5.44819,-2.88693
350,-559,4.69775,3.27051,0,0,0,0,0,0,0,-1,1574,1583,4.69771,-3.27048
357,-559,3.88025,3.60999,0,0,0,0,0,0,0,-1,1581,1583,3.88027,-3.60998
364,-559,5.00928,5.32605,0,0,0,0,0,0,0,-1,1588,1583,5.00928,-5.32607
371,-559,1.84436,2.52441,0,0,0,0,0,0,0,-1,1595,1583,1.84441,-2.52447
378,-559,6.34753,1.53137,0,0,0,0,0,0,0,-1,1602,1583,6.34752,-1.53139
385,-559,6.95911,1.48181,0,0,0,0,0,0,0,-1,1609,1583,6.95916,-1.48175
392,-559,11.6949,4.77734,0,0,0,0,0,0,0,-1,1616,1583,11.6949,-4.77731
399,-559,11.1104,5.56909,0,0,0,0,0,0,0,-1,1623,1583,11.1103,-5.56905
406,-559,10.3385,6.48657,0,0,0,0,0,0,0,-1,1630,1583,10.3385,-6.48661
413,-559,9.76147,6.97571,0,0,0,0,0,0,0,-1,1637,1583,9.76143,-6.97574
420,-559,7.77124,10.5851,0,0,0,0,0,0,0,-1,1644,1583,7.77128,-10.585
427,-559,10.1022,12.5565,0,0,0,0,0,0,0,-1,1651,1583,10.1021,-12.5565
434,-559,9.62769,14.6309,0,0,0,0,0,0,0,-1,1658,1583,9.62771,-14.6309
441,-559,12.6149,21.3678,0,0,0,0,0,0,0,-1,1665,1583,12.6149,-21.3678
448,-559,13.7046,22.6677,0,0,0,0,0,0,0,-1,1672,1583,13.7046,-22.6677
455,-559,13.9427,23.0509,0,0,0,0,0,0,0,-1,1679,1583,13.9427,-23.0509
462,-559,21.9476,42.0568,0,0,0,0,0,0,0,-1,1686,1583,21.9477,-42.0568
469,-559,22.1837,42.1873,0,0,0,0,0,0,0,-1,1693,1583,22.1837,-42.1873
476,-559,22.4575,41.2324,0,0,0,0,0,0,0,-1,1700,1583,22.4575,-41.2324
483,-559,22.4656,40.4336,0.00519503,0.00755891,-0.00409574,0.0106398,0.0021141,-0.925871,0.00650408,0.0145869,1707,1583,22.4656,-40.4336
490,-559,22.4275,39.6796,0.00458887,0.00527846,-0.00314746,0.00809995,0.00176738,-0.839954,0.00491787,0.015586,1714,1583,22.4276,-39.6796
497,-559,22.4553,38.9832,0.00367416,0.00387055,-0.00237179,0.00614618,0.00139853,-0.806086,0.00371996,0.0186196,1721,1583,22.4554,-38.9832
504,-559,22.3892,38.2496,0.00272135,0.00260265,-0.00181876,0.00448172,0.000842276,-0.769089,0.00275039,0.0240383,1728,1583,22.3892,-38.2496
511,-559,22.3336,37.4609,0.0018585,0.00183007,-0.0014111,0.00325545,0.000433114,-0.780362,0.0020413,0.0228636,1735,1583,22.3336,-37.461
518,-559,22.3369,36.697,0.00111697,0.00124232,-0.00117626,0.00235758,1.7134e-06,-0.812016,0.00157115,0.0153295,1742,1583,22.3369,-36.697
525,-559,22.2587,35.9536,0.000462542,0.00063913,-0.000955972,0.00151088,-0.000409205,-0.831448,0.0011678,0.0137832,1749,1583,22.2587,-35.9536
532,-559,22.2047,35.2029,-3.37548e-05,0.000111085,-0.000813556,0.000855439,-0.000778108,-0.829789,0.000943481,0.0155233,1756,1583,22.2048,-35.2029
539,-559,22.1754,34.4244,-0.000308577,-0.00027391,-0.000724325,0.000433289,-0.00101578,-0.797361,0.000858853,0.0201487,1763,1583,22.1755,-34.4244
546,-559,22.0941,33.6508,-0.000348592,-0.000682811,-0.000653424,0.000158753,-0.00119016,-0.660209,0.000851304,0.0180144,1770,1583,22.0941,-33.6507
553,-559,22.145,32.8206,-0.000198923,-0.000970074,-0.00065487,0.000175452,-0.00134445,-0.519333,0.000960141,0.02491,1777,1583,22.145,-32.8205
560,-559,22.1112,31.9644,0,0,0,0,0,0,0,-1,1784,1583,22.1113,-31.9643
567,-559,21.7423,29.5544,0,0,0,0,0,0,0,-1,1791,1583,21.7423,-29.5544
574,-559,10.5109,10.7317,0,0,0,0,0,0,0,-1,1798,1583,10.5108,-10.7317
581,-559,5.97095,5.96179,0,0,0,0,0,0,0,-1,1805,1583,5.97093,-5.96181
588,-559,5.79102,5.89954,0,0,0,0,0,0,0,-1,1812,1583,5.79098,-5.89949
595,-559,5.79089,6.24231,0,0,0,0,0,0,0,-1,1819,1583,5.7909,-6.24227
602,-559,12.478,2.35669,0,0,0,0,0,0,0,-1,1826,1583,12.4781,-2.35675
609,-559,14.0479,1.22681,0,0,0,0,0,0,0,-1,1833,1583,14.0479,-1.22681
616,-559,0,0,0,0,0,0,0,0,0,-1,1840,1583,0,0
623,-559,0,0,0,0,0,0,0,0,0,-1,1847,1583,0,0
630,-559,0,0,0,0,0,0,0,0,0,-1,1854,1583,0,0
637,-559,0,0,0,0,0,0,0,0,0,-1,1861,1583,0,0
644,-559,0,0,0,0,0,0,0,0,0,-1,1868,1583,0,0
651,-559,0,0,0,0,0,0,0,0,0,-1,1875,1583,0,0
658,-559,0,0,0,0,0,0,0,0,0,-1,1882,1583,0,0
665,-559,0,0,0,0,0,0,0,0,0,-1,1889,1583,0,0
672,-559,0,0,0,0,0,0,0,0,0,-1,1896,1583,0,0
679,-559,0,0,0,0,0,0,0,0,0,-1,1903,1583,0,0
686,-559,0,0,0,0,0,0,0,0,0,-1,1910,1583,0,0
693,-559,0,0,0,0,0,0,0,0,0,-1,1917,1583,0,0
700,-559,0,0,0,0,0,0,0,0,0,-1,1924,1583,0,0
707,-559,0,0,0,0,0,0,0,0,0,-1,1931,1583,0,0
714,-559,0,0,0,0,0,0,0,0,0,-1,1938,1583,0,0
721,-559,0,0,0,0,0,0,0,0,0,-1,1945,1583,0,0
728,-559,0,0,0,0,0,0,0,0,0,-1,1952,1583,0,0
735,-559,0,0,0,0,0,0,0,0,0,-1,1959,1583,0,0
742,-559,0,0,0,0,0,0,0,0,0,-1,1966,1583,0,0
749,-559,0,0,0,0,0,0,0,0,0,-1,1973,1583,0,0
756,-559,0,0,0,0,0,0,0,0,0,-1,1980,1583,0,0
763,-559,0,0,0,0,0,0,0,0,0,-1,1987,1583,0,0
770,-559,0,0,0,0,0,0,0,0,0,-1,1994,1583,0,0
777,-559,0,0,0,0,0,0,0,0,0,-1,2001,1583,0,0
784,-559,0,0,0,0,0,0,0,0,0,-1,2008,1583,0,0
791,-559,0,0,0,0,0,0,0,0,0,-1,2015,1583,0,0
798,-559,0,0,0,0,0,0,0,0,0,-1,2022,1583,0,0
805,-559,0,0,0,0,0,0,0,0,0,-1,2029,1583,0,0
812,-559,0,0,0,0,0,0,0,0,0,-1,2036,1583,0,0
-700,-566,0,0,0,0,0,0,0,0,0,-1,524,1590,0,0
-693,-566,0,0,0,0,0,0,0,0,0,-1,531,1590,0,0
-686,-566,0,0,0,0,0,0,0,0,0,-1,538,1590,0,0
-679,-566,0,0,0,0,0,0,0,0,0,-1,545,1590,0,0
-672,-566,0,0,0,0,0,0,0,0,0,-1,552,1590,0,0
-665,-566,0,0,0,0,0,0,0,0,0,-1,559,1590,0,0
-658,-566,0,0,0,0,0,0,0,0,0,-1,566,1590,0,0
-651,-566,0,0,0,0,0,0,0,0,0,-1,573,1590,0,0
-644,-566,0,0,0,0,0,0,0,0,0,-1,580,1590,0,0
-637,-566,0,0,0,0,0,0,0,0,0,-1,587,1590,0,0
-630,-566,0,0,0,0,0,0,0,0,0,-1,594,1590,0,0
-623,-566,0,0,0,0,0,0,0,0,0,-1,601,1590,0,0
-616,-566,0,0,0,0,0,0,0,0,0,-1,608,1590,0,0
-609,-566,0,0,0,0,0,0,0,0,0,-1,615,1590,0,0
-602,-566,0,0,0,0,0,0,0,0,0,-1,622,1590,0,0
-595,-566,0,0,0,0,0,0,0,0,0,-1,629,1590,0,0
-588,-566,0,0,0,0,0,0,0,0,0,-1,636,1590,0,0
-581,-566,0,0,0,0,0,0,0,0,0,-1,643,1590,0,0
-574,-566,0,0,0,0,0,0,0,0,0,-1,650,1590,0,0
-567,-566,0,0,0,0,0,0,0,0,0,-1,657,1590,0,0
-560,-566,0,0,0,0,0,0,0,0,0,-1,664,1590,0,0
-553,-566,0,0,0,0,0,0,0,0,0,-1,671,1590,0,0
-546,-566,0,0,0,0,0,0,0,0,0,-1,678,1590,0,0
-539,-566,0,0,0,0,0,0,0,0,0,-1,685,1590,0,0
-532,-566,0,0,0,0,0,0,0,0,0,-1,692,1590,0,0
-525,-566,0,0,0,0,0,0,0,0,0,-1,699,1590,0,0
-518,-566,0,0,0,0,0,0,0,0,0,-1,706,1590,0,0
-511,-566,0,0,0,0,0,0,0,0,0,-1,713,1590,0,0
-504,-566,0,0,0,0,0,0,0,0,0,-1,720,1590,0,0
-497,-566,0,0,0,0,0,0,0,0,0,-1,727,1590,0,0
-490,-566,0,0,0,0,0,0,0,0,0,-1,734,1590,0,0
-483,-566,-7.17084,2.78613,0,0,0,0,0,0,0,-1,741,1590,-7.17083,-2.78618
-476,-566,-7.13971,2.87183,0,0,0,0,0,0,0,-1,748,1590,-7.13971,-2.87184
-469,-566,-6.43829,3.2998,0,0,0,0,0,0,0,-1,755,1590,-6.43829,-3.2998
-462,-566,-0.459106,3.89343,0,0,0,0,0,0,0,-1,762,1590,-0.459095,-3.89341
-455,-566,0.280212,4.74023,0,0,0,0,0,0,0,-1,769,1590,0.280207,-4.74023
-448,-566,0.436951,5.51306,0,0,0,0,0,0,0,-1,776,1590,0.436971,-5.51301
-441,-566,-0.440735,12.4063,0,0,0,0,0,0,0,-1,783,1590,-0.440753,-12.4062
-434,-566,-2.66687,31.0841,0,0,0,0,0,0,0,-1,790,1590,-2.66687,-31.0841
-427,-566,-2.94269,31.6073,0,0,0,0,0,0,0,-1,797,1590,-2.94269,-31.6072
-420,-566,-4.07178,33.0385,0,0,0,0,0,0,0,-1,804,1590,-4.07178,-33.0385
-413,-566,-3.92584,33.9935,-0.000586702,0.0010968,0.00118879,0.00171167,-0.00120158,1.09346,0.00169054,0.0375956,811,1590,-3.92585,-33.9936
-406,-566,-3.92584,34.8414,0.0001269,0.00112278,0.00154123,0.00224452,-0.000994833,0.941646,0.00191607,0.0154942,818,1590,-3.92582,-34.8414
-399,-566,-3.96686,35.6517,0.000585713,0.000957469,0.00160188,0.00238421,-0.000841033,0.843159,0.00193184,0.0113638,825,1590,-3.96685,-35.6517
-392,-566,-4.03424,36.4246,0.00093661,0.000861209,0.00156635,0.00246571,-0.000667892,0.773366,0.00190585,0.0151985,832,1590,-4.03422,-36.4246
-385,-566,-4.05878,37.2211,0.0011821,0.000891162,0.00141561,0.00245969,-0.000386429,0.734197,0.00178262,0.0172362,839,1590,-4.05875,-37.2211
-378,-566,-4.104,38.0259,0.00154035,0.00105463,0.0013713,0.00269013,-9.51419e-05,0.697756,0.00182596,0.0174188,846,1590,-4.10403,-38.0259
-371,-566,-4.16907,38.8213,0.00184982,0.00113375,0.00123804,0.00278056,0.000203017,0.644642,0.00178987,0.0248309,853,1590,-4.16907,-38.8213
-364,-566,-4.20294,39.5494,0.0023033,0.00159225,0.00131313,0.00330818,0.000587369,0.653194,0.00203808,0.024347,860,1590,-4.20296,-39.5495
-357,-566,-4.23798,40.2487,0.00291573,0.00223337,0.00151529,0.00412778,0.00102132,0.674666,0.00248246,0.0180815,867,1590,-4.23795,-40.2486
-350,-566,-4.23187,41.0118,0.00366865,0.00302566,0.00186012,0.00523485,0.00145946,0.699825,0.00311938,0.0195126,874,1590,-4.23186,-41.0119
-343,-566,-4.25366,41.7859,0.00439822,0.00376556,0.00222758,0.00633183,0.00183196,0.714867,0.00376229,0.0246932,881,1590,-4.25367,-41.7859
-336,-566,-4.41138,42.5455,0.00544486,0.00496602,0.00294363,0.0081588,0.00225209,0.74482,0.00486546,0.030928,888,1590,-4.41137,-42.5456
-329,-566,-4.31415,43.2306,0.00690997,0.00689368,0.00409387,0.0109957,0.00280795,0.784403,0.00659679,0.031766,895,1590,-4.31417,-43.2306
-322,-566,-4.25543,44.1757,0.00879481,0.00931427,0.00558651,0.0146471,0.00346199,0.808627,0.00883967,0.0433618,902,1590,-4.25546,-44.1756
-315,-566,-4.18317,45.3324,0,0,0,0,0,0,0,-1,909,1590,-4.18317,-45.3324
-308,-566,-0.127258,29.7607,0,0,0,0,0,0,0,-1,916,1590,-0.12725,-29.7608
-301,-566,0.424011,30.6545,0,0,0,0,0,0,0,-1,923,1590,0.424036,-30.6546
-294,-566,-2.54523,43.1459,0,0,0,0,0,0,0,-1,930,1590,-2.54522,-43.1458
-287,-566,1.25391,23.4589,0,0,0,0,0,0,0,-1,937,1590,1.2539,-23.4589
-280,-566,1.59406,17.8762,0,0,0,0,0,0,0,-1,944,1590,1.59405,-17.8762
-273,-566,0.49762,11.2427,0,0,0,0,0,0,0,-1,951,1590,0.497591,-11.2426
-266,-566,0.392151,6.90295,0,0,0,0,0,0,0,-1,958,1590,0.392151,-6.90294
-259,-566,0.343628,6.47437,0,0,0,0,0,0,0,-1,965,1590,0.34363,-6.47438
-252,-566,-7.68311,1.01343,0,0,0,0,0,0,0,-1,972,1590,-7.68308,-1.01348
-245,-566,-11.1835,1.97522,0,0,0,0,0,0,0,-1,979,1590,-11.1835,-1.97527
-238,-566,-10.4883,2.40491,0,0,0,0,0,0,0,-1,986,1590,-10.4883,-2.40487
-231,-566,-7.41827,4.22803,0,0,0,0,0,0,0,-1,993,1590,-7.41827,-4.22803
-224,-566,-4.67188,6.30859,0,0,0,0,0,0,0,-1,1000,1590,-4.67185,-6.30853
-217,-566,-2.82867,7.52527,0,0,0,0,0,0,0,-1,1007,1590,-2.82869,-7.52531
-210,-566,-1.03436,8.67737,0,0,0,0,0,0,0,-1,1014,1590,-1.03439,-8.67733
-203,-566,0,0,0,0,0,0,0,0,0,-1,1021,1590,0,0
-196,-566,0,0,0,0,0,0,0,0,0,-1,1028,1590,0,0
-189,-566,0,0,0,0,0,0,0,0,0,-1,1035,1590,0,0
-182,-566,0,0,0,0,0,0,0,0,0,-1,1042,1590,0,0
-175,-566,0,0,0,0,0,0,0,0,0,-1,1049,1590,0,0
-168,-566,0,0,0,0,0,0,0,0,0,-1,1056,1590,0,0
-161,-566,0,0,0,0,0,0,0,0,0,-1,1063,1590,0,0
-154,-566,0,0,0,0,0,0,0,0,0,-1,1070,1590,0,0
-147,-566,0,0,0,0,0,0,0,0,0,-1,1077,1590,0,0
-140,-566,0,0,0,0,0,0,0,0,0,-1,1084,1590,0,0
-133,-566,0,0,0,0,0,0,0,0,0,-1,1091,1590,0,0
-126,-566,0,0,0,0,0,0,0,0,0,-1,1098,1590,0,0
-119,-566,0,0,0,0,0,0,0,0,0,-1,1105,1590,0,0
-112,-566,0,0,0,0,0,0,0,0,0,-1,1112,1590,0,0
-105,-566,0,0,0,0,0,0,0,0,0,-1,1119,1590,0,0
-98,-566,0,0,0,0,0,0,0,0,0,-1,1126,1590,0,0
-91,-566,0,0,0,0,0,0,0,0,0,-1,1133,1590,0,0
-84,-566,0,0,0,0,0,0,0,0,0,-1,1140,1590,0,0
-77,-566,0,0,0,0,0,0,0,0,0,-1,1147,1590,0,0
-70,-566,0,0,0,0,0,0,0,0,0,-1,1154,1590,0,0
-63,-566,0,0,0,0,0,0,0,0,0,-1,1161,1590,0,0
-56,-566,0,0,0,0,0,0,0,0,0,-1,1168,1590,0,0
-49,-566,0,0,0,0,0,0,0,0,0,-1,1175,1590,0,0
-42,-566,0,0,0,0,0,0,0,0,0,-1,1182,1590,0,0
-35,-566,0,0,0,0,0,0,0,0,0,-1,1189,1590,0,0
-28,-566,0,0,0,0,0,0,0,0,0,-1,1196,1590,0,0
-21,-566,0,0,0,0,0,0,0,0,0,-1,1203,1590,0,0
-14,-566,0,0,0,0,0,0,0,0,0,-1,1210,1590,0,0
-7,-566,0,0,0,0,0,0,0,0,0,-1,1217,1590,0,0
0,-566,0,0,0,0,0,0,0,0,0,-1,1224,1590,0,0
7,-566,0,0,0,0,0,0,0,0,0,-1,1231,1590,0,0
14,-566,0,0,0,0,0,0,0,0,0,-1,1238,1590,0,0
21,-566,0,0,0,0,0,0,0,0,0,-1,1245,1590,0,0
28,-566,0,0,0,0,0,0,0,0,0,-1,1252,1590,0,0
35,-566,0,0,0,0,0,0,0,0,0,-1,1259,1590,0,0
42,-566,0,0,0,0,0,0,0,0,0,-1,1266,1590,0,0
49,-566,0,0,0,0,0,0,0,0,0,-1,1273,1590,0,0
56,-566,0,0,0,0,0,0,0,0,0,-1,1280,1590,0,0
63,-566,0,0,0,0,0,0,0,0,0,-1,1287,1590,0,0
70,-566,0,0,0,0,0,0,0,0,0,-1,1294,1590,0,0
77,-566,0,0,0,0,0,0,0,0,0,-1,1301,1590,0,0
84,-566,0,0,0,0,0,0,0,0,0,-1,1308,1590,0,0
91,-566,0,0,0,0,0,0,0,0,0,-1,1315,1590,0,0
98,-566,0,0,0,0,0,0,0,0,0,-1,1322,1590,0,0
105,-566,0,0,0,0,0,0,0,0,0,-1,1329,1590,0,0
112,-566,0,0,0,0,0,0,0,0,0,-1,1336,1590,0,0
119,-566,0,0,0,0,0,0,0,0,0,-1,1343,1590,0,0
126,-566,0,0,0,0,0,0,0,0,0,-1,1350,1590,0,0
133,-566,0,0,0,0,0,0,0,0,0,-1,1357,1590,0,0
140,-566,0,0,0,0,0,0,0,0,0,-1,1364,1590,0,0
147,-566,0,0,0,0,0,0,0,0,0,-1,1371,1590,0,0
154,-566,0,0,0,0,0,0,0,0,0,-1,1378,1590,0,0
161,-566,0,0,0,0,0,0,0,0,0,-1,1385,1590,0,0
168,-566,0,0,0,0,0,0,0,0,0,-1,1392,1590,0,0
175,-566,0,0,0,0,0,0,0,0,0,-1,1399,1590,0,0
182,-566,0,0,0,0,0,0,0,0,0,-1,1406,1590,0,0
189,-566,0,0,0,0,0,0,0,0,0,-1,1413,1590,0,0
196,-566,0,0,0,0,0,0,0,0,0,-1,1420,1590,0,0
203,-566,0,0,0,0,0,0,0,0,0,-1,1427,1590,0,0
210,-566,0,0,0,0,0,0,0,0,0,-1,1434,1590,0,0
217,-566,0,0,0,0,0,0,0,0,0,-1,1441,1590,0,0
224,-566,0,0,0,0,0,0,0,0,0,-1,1448,1590,0,0
231,-566,0,0,0,0,0,0,0,0,0,-1,1455,1590,0,0
238,-566,0,0,0,0,0,0,0,0,0,-1,1462,1590,0,0
245,-566,0,0,0,0,0,0,0,0,0,-1,1469,1590,0,0
252,-566,0,0,0,0,0,0,0,0,0,-1,1476,1590,0,0
259,-566,0,0,0,0,0,0,0,0,0,-1,1483,1590,0,0
266,-566,0,0,0,0,0,0,0,0,0,-1,1490,1590,0,0
273,-566,0,0,0,0,0,0,0,0,0,-1,1497,1590,0,0
280,-566,0,0,0,0,0,0,0,0,0,-1,1504,1590,0,0
287,-566,0,0,0,0,0,0,0,0,0,-1,1511,1590,0,0
294,-566,0,0,0,0,0,0,0,0,0,-1,1518,1590,0,0
301,-566,0,0,0,0,0,0,0,0,0,-1,1525,1590,0,0
308,-566,0,0,0,0,0,0,0,0,0,-1,1532,1590,0,0
315,-566,0,0,0,0,0,0,0,0,0,-1,1539,1590,0,0
322,-566,6.07983,4.44873,0,0,0,0,0,0,0,-1,1546,1590,6.07983,-4.44873
329,-566,5.77026,3.47534,0,0,0,0,0,0,0,-1,1553,1590,5.77026,-3.47535
336,-566,5.41138,2.62915,0,0,0,0,0,0,0,-1,1560,1590,5.41138,-2.62909
343,-566,4.81873,1.79089,0,0,0,0,0,0,0,-1,1567,1590,4.81878,-1.79095
350,-566,24.2104,52.894,0,0,0,0,0,0,0,-1,1574,1590,24.2105,-52.8941
357,-566,6.34058,5.18579,0,0,0,0,0,0,0,-1,1581,1590,6.34059,-5.1858
364,-566,6.06262,4.20251,0,0,0,0,0,0,0,-1,1588,1590,6.06259,-4.20246
371,-566,5.78455,3.21912,0,0,0,0,0,0,0,-1,1595,1590,5.7846,-3.21912
378,-566,5.7439,0.695557,0,0,0,0,0,0,0,-1,1602,1590,5.74392,-0.695531
385,-566,5.67615,-0.573975,0,0,0,0,0,0,0,-1,1609,1590,5.67612,0.573956
392,-566,5.78638,1.82434,0,0,0,0,0,0,0,-1,1616,1590,5.78637,-1.82439
399,-566,18.6853,38.6455,0,0,0,0,0,0,0,-1,1623,1590,18.6853,-38.6456
406,-566,4.30359,5.26868,0,0,0,0,0,0,0,-1,1630,1590,4.30364,-5.26867
413,-566,4.27124,5.79492,0,0,0,0,0,0,0,-1,1637,1590,4.27123,-5.7949
420,-566,18.0121,32.5314,0,0,0,0,0,0,0,-1,1644,1590,18.0121,-32.5313
427,-566,19.4491,36.9315,0,0,0,0,0,0,0,-1,1651,1590,19.4491,-36.9315
434,-566,19.338,36.7385,0,0,0,0,0,0,0,-1,1658,1590,19.338,-36.7386
441,-566,15.5841,27.5869,0,0,0,0,0,0,0,-1,1665,1590,15.5842,-27.587
448,-566,21.8796,45.052,0,0,0,0,0,0,0,-1,1672,1590,21.8797,-45.052
455,-566,21.5256,44.0173,0,0,0,0,0,0,0,-1,1679,1590,21.5256,-44.0173
462,-566,21.5695,42.8821,0,0,0,0,0,0,0,-1,1686,1590,21.5695,-42.8821
469,-566,21.6597,42.0537,0.0047347,0.010572,-0.00462801,0.0131248,0.00218188,-1.06672,0.00812089,0.0216606,1693,1590,21.6596,-42.0537
476,-566,21.7181,41.2428,0.00437161,0.00795504,-0.00388076,0.0104377,0.00188891,-1.00167,0.00642212,0.0108927,1700,1590,21.7181,-41.2428
483,-566,21.7104,40.4821,0.00381537,0.00587369,-0.00307151,0.00808387,0.00160519,-0.947053,0.00494186,0.0106563,1707,1590,21.7105,-40.4821
490,-566,21.6816,39.7285,0.00331909,0.00393775,-0.00234366,0.00599241,0.00126443,-0.851012,0.00364727,0.0127503,1714,1590,21.6817,-39.7286
497,-566,21.702,39.0049,0.00256702,0.00279447,-0.00177369,0.00445808,0.000903407,-0.817413,0.00272137,0.0161089,1721,1590,21.702,-39.0049
504,-566,21.6498,38.2847,0.00176481,0.00169526,-0.00136954,0.00310002,0.00036005,-0.772706,0.00195773,0.0198321,1728,1590,21.6498,-38.2847
511,-566,21.5886,37.528,0.00102677,0.00105103,-0.00107486,0.00211383,-3.60333e-05,-0.791039,0.00142139,0.0203737,1735,1590,21.5886,-37.528
518,-566,21.5566,36.7833,0.000396738,0.000541912,-0.000921335,0.00139352,-0.000454865,-0.824709,0.00111209,0.0126932,1742,1590,21.5566,-36.7833
525,-566,21.4926,36.0101,-0.000144562,1.47427e-05,-0.000792902,0.000731983,-0.000861802,-0.835459,0.000921189,0.0122206,1749,1590,21.4925,-36.0102
532,-566,21.4509,35.2258,-0.000535056,-0.000480649,-0.000731701,0.000224355,-0.00124006,-0.803979,0.000910749,0.0146002,1756,1590,21.451,-35.2258
539,-566,21.4235,34.427,-0.000745525,-0.000884627,-0.000712788,-9.89031e-05,-0.00153125,-0.736764,0.000989514,0.0206353,1763,1590,21.4234,-34.427
546,-566,21.4746,33.5828,-0.000667932,-0.00122796,-0.00074563,-0.000151471,-0.00174442,-0.605776,0.00111589,0.0273601,1770,1590,21.4747,-33.5828
553,-566,21.4589,33.04,-0.000396739,-0.00148704,-0.000846286,6.4782e-05,-0.00194856,-0.499265,0.00132117,0.0413486,1777,1590,21.4589,-33.0401
560,-566,21.2518,32.4138,0,0,0,0,0,0,0,-1,1784,1590,21.2519,-32.4138
567,-566,21.1824,31.5983,0,0,0,0,0,0,0,-1,1791,1590,21.1823,-31.5982
574,-566,7.99548,3.14514,0,0,0,0,0,0,0,-1,1798,1590,7.99543,-3.14511
581,-566,2.54102,5.1311,0,0,0,0,0,0,0,-1,1805,1590,2.54099,-5.13111
588,-566,-1.91321,8.39197,0,0,0,0,0,0,0,-1,1812,1590,-1.91316,-8.39199
595,-566,9.0271,4.66467,0,0,0,0,0,0,0,-1,1819,1590,9.02705,-4.66468
602,-566,9.953,3.54895,0,0,0,0,0,0,0,-1,1826,1590,9.953,-3.54898
609,-566,0,0,0,0,0,0,0,0,0,-1,1833,1590,0,0
616,-566,0,0,0,0,0,0,0,0,0,-1,1840,1590,0,0
623,-566,0,0,0,0,0,0,0,0,0,-1,1847,1590,0,0
630,-566,0,0,0,0,0,0,0,0,0,-1,1854,1590,0,0
637,-566,0,0,0,0,0,0,0,0,0,-1,1861,1590,0,0
644,-566,0,0,0,0,0,0,0,0,0,-1,1868,1590,0,0
651,-566,0,0,0,0,0,0,0,0,0,-1,1875,1590,0,0
658,-566,0,0,0,0,0,0,0,0,0,-1,1882,1590,0,0
665,-566,0,0,0,0,0,0,0,0,0,-1,1889,1590,0,0
672,-566,0,0,0,0,0,0,0,0,0,-1,1896,1590,0,0
679,-566,0,0,0,0,0,0,0,0,0,-1,1903,1590,0,0
686,-566,0,0,0,0,0,0,0,0,0,-1,1910,1590,0,0
693,-566,0,0,0,0,0,0,0,0,0,-1,1917,1590,0,0
700,-566,0,0,0,0,0,0,0,0,0,-1,1924,1590,0,0
707,-566,0,0,0,0,0,0,0,0,0,-1,1931,1590,0,0
714,-566,0,0,0,0,0,0,0,0,0,-1,1938,1590,0,0
721,-566,0,0,0,0,0,0,0,0,0,-1,1945,1590,0,0
728,-566,0,0,0,0,0,0,0,0,0,-1,1952,1590,0,0
735,-566,0,0,0,0,0,0,0,0,0,-1,1959,1590,0,0
742,-566,0,0,0,0,0,0,0,0,0,-1,1966,1590,0,0
749,-566,0,0,0,0,0,0,0,0,0,-1,1973,1590,0,0
756,-566,0,0,0,0,0,0,0,0,0,-1,1980,1590,0,0
763,-566,0,0,0,0,0,0,0,0,0,-1,1987,1590,0,0
770,-566,0,0,0,0,0,0,0,0,0,-1,1994,1590,0,0
777,-566,0,0,0,0,0,0,0,0,0,-1,2001,1590,0,0
784,-566,0,0,0,0,0,0,0,0,0,-1,2008,1590,0,0
791,-566,0,0,0,0,0,0,0,0,0,-1,2015,1590,0,0
798,-566,0,0,0,0,0,0,0,0,0,-1,2022,1590,0,0
805,-566,0,0,0,0,0,0,0,0,0,-1,2029,1590,0,0
812,-566,0,0,0,0,0,0,0,0,0,-1,2036,1590,0,0
-700,-573,0,0,0,0,0,0,0,0,0,-1,524,1597,0,0
-693,-573,0,0,0,0,0,0,0,0,0,-1,531,1597,0,0
-686,-573,0,0,0,0,0,0,0,0,0,-1,538,1597,0,0
-679,-573,0,0,0,0,0,0,0,0,0,-1,545,1597,0,0
-672,-573,0,0,0,0,0,0,0,0,0,-1,552,1597,0,0
-665,-573,0,0,0,0,0,0,0,0,0,-1,559,1597,0,0
-658,-573,0,0,0,0,0,0,0,0,0,-1,566,1597,0,0
-651,-573,0,0,0,0,0,0,0,0,0,-1,573,1597,0,0
-644,-573,0,0,0,0,0,0,0,0,0,-1,580,1597,0,0
-637,-573,0,0,0,0,0,0,0,0,0,-1,587,1597,0,0
-630,-573,0,0,0,0,0,0,0,0,0,-1,594,1597,0,0
-623,-573,0,0,0,0,0,0,0,0,0,-1,601,1597,0,0
-616,-573,0,0,0,0,0,0,0,0,0,-1,608,1597,0,0
-609,-573,0,0,0,0,0,0,0,0,0,-1,615,1597,0,0
-602,-573,0,0,0,0,0,0,0,0,0,-1,622,1597,0,0
-595,-573,0,0,0,0,0,0,0,0,0,-1,629,1597,0,0
-588,-573,0,0,0,0,0,0,0,0,0,-1,636,1597,0,0
-581,-573,0,0,0,0,0,0,0,0,0,-1,643,1597,0,0
-574,-573,0,0,0,0,0,0,0,0,0,-1,650,1597,0,0
-567,-573,0,0,0,0,0,0,0,0,0,-1,657,1597,0,0
-560,-573,0,0,0,0,0,0,0,0,0,-1,664,1597,0,0
-553,-573,0,0,0,0,0,0,0,0,0,-1,671,1597,0,0
-546,-573,0,0,0,0,0,0,0,0,0,-1,678,1597,0,0
-539,-573,0,0,0,0,0,0,0,0,0,-1,685,1597,0,0
-532,-573,0,0,0,0,0,0,0,0,0,-1,692,1597,0,0
-525,-573,0,0,0,0,0,0,0,0,0,-1,699,1597,0,0
-518,-573,0,0,0,0,0,0,0,0,0,-1,706,1597,0,0
-511,-573,0,0,0,0,0,0,0,0,0,-1,713,1597,0,0
-504,-573,0,0,0,0,0,0,0,0,0,-1,720,1597,0,0
-497,-573,0,0,0,0,0,0,0,0,0,-1,727,1597,0,0
-490,-573,0,0,0,0,0,0,0,0,0,-1,734,1597,0,0
-483,-573,0,0,0,0,0,0,0,0,0,-1,741,1597,0,0
-476,-573,-9.3327,0.972778,0,0,0,0,0,0,0,-1,748,1597,-9.33268,-0.972776
-469,-573,-1.41681,1.13379,0,0,0,0,0,0,0,-1,755,1597,-1.41681,-1.13382
-462,-573,-0.748535,2.02588,0,0,0,0,0,0,0,-1,762,1597,-0.748533,-2.02584
-455,-573,-0.112976,2.70703,0,0,0,0,0,0,0,-1,769,1597,-0.112988,-2.70697
-448,-573,-1.26172,3.33252,0,0,0,0,0,0,0,-1,776,1597,-1.26173,-3.33248
-441,-573,0.108582,5.06726,0,0,0,0,0,0,0,-1,783,1597,0.108584,-5.06721
-434,-573,1.61768,7.05444,0,0,0,0,0,0,0,-1,790,1597,1.61767,-7.05446
-427,-573,-1.37927,24.4124,0,0,0,0,0,0,0,-1,797,1597,-1.37928,-24.4124
-420,-573,-1.15186,28.0936,0,0,0,0,0,0,0,-1,804,1597,-1.15185,-28.0936
-413,-573,-3.29224,33.6581,0,0,0,0,0,0,0,-1,811,1597,-3.29222,-33.6581
-406,-573,-3.15607,34.7596,0.000412156,0.00160089,0.00213359,0.00322136,-0.00120831,0.921242,0.00264404,0.0463464,818,1597,-3.15608,-34.7597
-399,-573,-3.21167,35.6694,0.000770532,0.00121211,0.00214696,0.0031496,-0.00116696,0.836637,0.00257831,0.0188636,825,1597,-3.21164,-35.6694
-392,-573,-3.24457,36.488,0.00106277,0.000927585,0.00204694,0.00304323,-0.00105287,0.768893,0.00245619,0.0147412,832,1597,-3.24454,-36.488
-385,-573,-3.31525,37.2683,0.00122173,0.000836752,0.00185282,0.00289203,-0.000833549,0.733639,0.00225776,0.0160275,839,1597,-3.31526,-37.2683
-378,-573,-3.35522,38.0349,0.00147575,0.000928459,0.00175504,0.00297835,-0.000574142,0.708061,0.00220204,0.0165339,846,1597,-3.35524,-38.0349
-371,-573,-3.36035,38.8309,0.00163683,0.000854009,0.00148526,0.00278139,-0.000290551,0.656563,0.00195831,0.0175587,853,1597,-3.36033,-38.8309
-364,-573,-3.41168,39.5585,0.00191692,0.00112438,0.00141655,0.00299159,4.97173e-05,0.649012,0.00197803,0.0193784,860,1597,-3.41167,-39.5585
-357,-573,-3.45752,40.2734,0.00236839,0.00158269,0.00147532,0.00350227,0.000448806,0.655277,0.00220055,0.0219587,867,1597,-3.45755,-40.2734
-350,-573,-3.46814,41.0931,0.00297076,0.00216648,0.00166558,0.00428206,0.000855177,0.666943,0.00261665,0.0176399,874,1597,-3.46817,-41.0931
-343,-573,-3.46277,41.8582,0.00356653,0.0027658,0.00189778,0.00510571,0.00122661,0.68144,0.00307753,0.0221622,881,1597,-3.46277,-41.8581
-336,-573,-3.54034,42.6217,0.00442352,0.00377725,0.00243201,0.00655377,0.00164699,0.719351,0.00393675,0.0177552,888,1597,-3.54033,-42.6217
-329,-573,-3.53253,43.3572,0.00561351,0.00538716,0.00331685,0.00881911,0.00218156,0.768344,0.00530394,0.020347,895,1597,-3.53251,-43.3572
-322,-573,-3.60364,44.14,0.00710398,0.00740116,0.00448818,0.0117432,0.00276193,0.801946,0.00708982,0.0187861,902,1597,-3.60363,-44.14
-315,-573,-3.47974,45.1249,0.0085931,0.00956925,0.00574112,0.014843,0.00331935,0.827803,0.0089954,0.0433376,909,1597,-3.47975,-45.1249
-308,-573,-3.10876,46.1838,0,0,0,0,0,0,0,-1,916,1597,-3.10877,-46.1838
-301,-573,-3.35211,46.7513,0,0,0,0,0,0,0,-1,923,1597,-3.35211,-46.7513
-294,-573,-3.27997,47.2086,0,0,0,0,0,0,0,-1,930,1597,-3.27998,-47.2086
-287,-573,-2.00739,43.4723,0,0,0,0,0,0,0,-1,937,1597,-2.00739,-43.4723
-280,-573,1.19684,26.4906,0,0,0,0,0,0,0,-1,944,1597,1.19685,-26.4906
-273,-573,2.24805,25.4375,0,0,0,0,0,0,0,-1,951,1597,2.24803,-25.4374
-266,-573,1.31116,7.1814,0,0,0,0,0,0,0,-1,958,1597,1.31118,-7.18142
-259,-573,1.2514,6.70959,0,0,0,0,0,0,0,-1,965,1597,1.25137,-6.70965
-252,-573,2.07874,5.27161,0,0,0,0,0,0,0,-1,972,1597,2.07875,-5.27157
-245,-573,-10.2592,1.09827,0,0,0,0,0,0,0,-1,979,1597,-10.2592,-1.09823
-238,-573,-11.5463,4.44141,0,0,0,0,0,0,0,-1,986,1597,-11.5463,-4.44146
-231,-573,-9.23431,4.14539,0,0,0,0,0,0,0,-1,993,1597,-9.23431,-4.14534
-224,-573,-6.70044,7.40857,0,0,0,0,0,0,0,-1,1000,1597,-6.70045,-7.40851
-217,-573,-4.25824,8.59119,0,0,0,0,0,0,0,-1,1007,1597,-4.25824,-8.59122
-210,-573,-2.39661,9.73914,0,0,0,0,0,0,0,-1,1014,1597,-2.39658,-9.73915
-203,-573,-0.557373,10.9005,0,0,0,0,0,0,0,-1,1021,1597,-0.557387,-10.9006
-196,-573,-1.65344,9.02246,0,0,0,0,0,0,0,-1,1028,1597,-1.65349,-9.02241
-189,-573,-6.12915,6.66882,0,0,0,0,0,0,0,-1,1035,1597,-6.12913,-6.66884
-182,-573,0,0,0,0,0,0,0,0,0,-1,1042,1597,0,0
-175,-573,0,0,0,0,0,0,0,0,0,-1,1049,1597,0,0
-168,-573,0,0,0,0,0,0,0,0,0,-1,1056,1597,0,0
-161,-573,0,0,0,0,0,0,0,0,0,-1,1063,1597,0,0
-154,-573,0,0,0,0,0,0,0,0,0,-1,1070,1597,0,0
-147,-573,0,0,0,0,0,0,0,0,0,-1,1077,1597,0,0
-140,-573,0,0,0,0,0,0,0,0,0,-1,1084,1597,0,0
-133,-573,0,0,0,0,0,0,0,0,0,-1,1091,1597,0,0
-126,-573,0,0,0,0,0,0,0,0,0,-1,1098,1597,0,0
-119,-573,0,0,0,0,0,0,0,0,0,-1,1105,1597,0,0
-112,-573,0,0,0,0,0,0,0,0,0,-1,1112,1597,0,0
-105,-573,0,0,0,0,0,0,0,0,0,-1,1119,1597,0,0
-98,-573,0,0,0,0,0,0,0,0,0,-1,1126,1597,0,0
-91,-573,0,0,0,0,0,0,0,0,0,-1,1133,1597,0,0
-84,-573,0,0,0,0,0,0,0,0,0,-1,1140,1597,0,0
-77,-573,0,0,0,0,0,0,0,0,0,-1,1147,1597,0,0
-70,-573,0,0,0,0,0,0,0,0,0,-1,1154,1597,0,0
-63,-573,0,0,0,0,0,0,0,0,0,-1,1161,1597,0,0
-56,-573,0,0,0,0,0,0,0,0,0,-1,1168,1597,0,0
-49,-573,0,0,0,0,0,0,0,0,0,-1,1175,1597,0,0
-42,-573,0,0,0,0,0,0,0,0,0,-1,1182,1597,0,0
-35,-573,0,0,0,0,0,0,0,0,0,-1,1189,1597,0,0
-28,-573,0,0,0,0,0,0,0,0,0,-1,1196,1597,0,0
-21,-573,0,0,0,0,0,0,0,0,0,-1,1203,1597,0,0
-14,-573,0,0,0,0,0,0,0,0,0,-1,1210,1597,0,0
-7,-573,0,0,0,0,0,0,0,0,0,-1,1217,1597,0,0
0,-573,0,0,0,0,0,0,0,0,0,-1,1224,1597,0,0
7,-573,0,0,0,0,0,0,0,0,0,-1,1231,1597,0,0
14,-573,0,0,0,0,0,0,0,0,0,-1,1238,1597,0,0
21,-573,0,0,0,0,0,0,0,0,0,-1,1245,1597,0,0
28,-573,0,0,0,0,0,0,0,0,0,-1,1252,1597,0,0
35,-573,0,0,0,0,0,0,0,0,0,-1,1259,1597,0,0
42,-573,0,0,0,0,0,0,0,0,0,-1,1266,1597,0,0
49,-573,0,0,0,0,0,0,0,0,0,-1,1273,1597,0,0
56,-573,0,0,0,0,0,0,0,0,0,-1,1280,1597,0,0
63,-573,0,0,0,0,0,0,0,0,0,-1,1287,1597,0,0
70,-573,0,0,0,0,0,0,0,0,0,-1,1294,1597,0,0
77,-573,0,0,0,0,0,0,0,0,0,-1,1301,1597,0,0
84,-573,0,0,0,0,0,0,0,0,0,-1,1308,1597,0,0
91,-573,0,0,0,0,0,0,0,0,0,-1,1315,1597,0,0
98,-573,0,0,0,0,0,0,0,0,0,-1,1322,1597,0,0
105,-573,0,0,0,0,0,0,0,0,0,-1,1329,1597,0,0
112,-573,0,0,0,0,0,0,0,0,0,-1,1336,1597,0,0
119,-573,0,0,0,0,0,0,0,0,0,-1,1343,1597,0,0
126,-573,0,0,0,0,0,0,0,0,0,-1,1350,1597,0,0
133,-573,0,0,0,0,0,0,0,0,0,-1,1357,1597,0,0
140,-573,0,0,0,0,0,0,0,0,0,-1,1364,1597,0,0
147,-573,0,0,0,0,0,0,0,0,0,-1,1371,1597,0,0
154,-573,0,0,0,0,0,0,0,0,0,-1,1378,1597,0,0
161,-573,0,0,0,0,0,0,0,0,0,-1,1385,1597,0,0
168,-573,0,0,0,0,0,0,0,0,0,-1,1392,1597,0,0
175,-573,0,0,0,0,0,0,0,0,0,-1,1399,1597,0,0
182,-573,0,0,0,0,0,0,0,0,0,-1,1406,1597,0,0
189,-573,0,0,0,0,0,0,0,0,0,-1,1413,1597,0,0
196,-573,0,0,0,0,0,0,0,0,0,-1,1420,1597,0,0
203,-573,0,0,0,0,0,0,0,0,0,-1,1427,1597,0,0
210,-573,0,0,0,0,0,0,0,0,0,-1,1434,1597,0,0
217,-573,0,0,0,0,0,0,0,0,0,-1,1441,1597,0,0
224,-573,0,0,0,0,0,0,0,0,0,-1,1448,1597,0,0
231,-573,0,0,0,0,0,0,0,0,0,-1,1455,1597,0,0
238,-573,0,0,0,0,0,0,0,0,0,-1,1462,1597,0,0
245,-573,0,0,0,0,0,0,0,0,0,-1,1469,1597,0,0
252,-573,0,0,0,0,0,0,0,0,0,-1,1476,1597,0,0
259,-573,0,0,0,0,0,0,0,0,0,-1,1483,1597,0,0
266,-573,0,0,0,0,0,0,0,0,0,-1,1490,1597,0,0
273,-573,0,0,0,0,0,0,0,0,0,-1,1497,1597,0,0
280,-573,0,0,0,0,0,0,0,0,0,-1,1504,1597,0,0
287,-573,0,0,0,0,0,0,0,0,0,-1,1511,1597,0,0
294,-573,0,0,0,0,0,0,0,0,0,-1,1518,1597,0,0
301,-573,0,0,0,0,0,0,0,0,0,-1,1525,1597,0,0
308,-573,5.93042,9.71143,0,0,0,0,0,0,0,-1,1532,1597,5.93046,-9.71144
315,-573,4.34204,11.719,0,0,0,0,0,0,0,-1,1539,1597,4.34205,-11.719
322,-573,10.3269,7.77563,0,0,0,0,0,0,0,-1,1546,1597,10.327,-7.77565
329,-573,4.99573,3.80273,0,0,0,0,0,0,0,-1,1553,1597,4.9957,-3.80273
336,-573,4.85693,2.53455,0,0,0,0,0,0,0,-1,1560,1597,4.8569,-2.53459
343,-573,21.4159,52.1832,0,0,0,0,0,0,0,-1,1567,1597,21.4159,-52.1833
350,-573,21.6807,52.4836,0,0,0,0,0,0,0,-1,1574,1597,21.6806,-52.4836
357,-573,21.9453,52.7841,0,0,0,0,0,0,0,-1,1581,1597,21.9453,-52.784
364,-573,7.14551,3.02087,0,0,0,0,0,0,0,-1,1588,1597,7.14556,-3.02084
371,-573,6.88867,2.00549,0,0,0,0,0,0,0,-1,1595,1597,6.88868,-2.00553
378,-573,8.62012,6.09106,0,0,0,0,0,0,0,-1,1602,1597,8.62012,-6.09103
385,-573,6.54346,-0.951904,0,0,0,0,0,0,0,-1,1609,1597,6.54349,0.951901
392,-573,17.5164,38.3645,0,0,0,0,0,0,0,-1,1616,1597,17.5164,-38.3645
399,-573,20.5255,42.9893,0,0,0,0,0,0,0,-1,1623,1597,20.5255,-42.9893
406,-573,20.2545,44.7974,0,0,0,0,0,0,0,-1,1630,1597,20.2545,-44.7974
413,-573,19.0908,43.9061,0,0,0,0,0,0,0,-1,1637,1597,19.0908,-43.9062
420,-573,18.8063,37.0011,0,0,0,0,0,0,0,-1,1644,1597,18.8063,-37.0011
427,-573,20.4286,42.2079,0,0,0,0,0,0,0,-1,1651,1597,20.4285,-42.2079
434,-573,21.1938,46.7201,0,0,0,0,0,0,0,-1,1658,1597,21.1939,-46.7201
441,-573,20.877,45.5139,0,0,0,0,0,0,0,-1,1665,1597,20.877,-45.5139
448,-573,20.9899,44.5431,0.00404067,0.0156967,-0.00551074,0.0178895,0.00184783,-1.19208,0.0113606,0.0482976,1672,1597,20.9898,-44.5431
455,-573,20.9895,43.6202,0.00366377,0.0130048,-0.00479579,0.0150286,0.00164001,-1.17148,0.00951959,0.0343153,1679,1597,20.9895,-43.6202
462,-573,21.0795,42.6868,0.00360549,0.0105788,-0.00415411,0.0125156,0.00166874,-1.13453,0.00784685,0.0236594,1686,1597,21.0794,-42.6868
469,-573,21.0325,41.9673,0.00345927,0.00823104,-0.00353435,0.0101094,0.00158087,-1.08229,0.00627935,0.0154767,1693,1597,21.0325,-41.9673
476,-573,21.0182,41.2698,0.00315935,0.00615504,-0.00295295,0.00796831,0.00134609,-1.02011,0.00492521,0.0142379,1700,1597,21.0182,-41.2698
483,-573,21.0093,40.5408,0.00271747,0.00440037,-0.00235348,0.00605829,0.00105954,-0.957084,0.0037361,0.012856,1707,1597,21.0093,-40.5408
490,-573,20.9614,39.7766,0.00230257,0.00279977,-0.00180307,0.0043713,0.000731049,-0.853904,0.00270366,0.0147247,1714,1597,20.9615,-39.7766
497,-573,20.9575,39,0.0016773,0.00188697,-0.00140034,0.00318639,0.000377876,-0.822759,0.00201018,0.0226976,1721,1597,20.9575,-39
504,-573,20.9172,38.2933,0.000999378,0.000965485,-0.00112075,0.00210331,-0.000138444,-0.777838,0.00145056,0.0192778,1728,1597,20.9172,-38.2933
511,-573,20.8479,37.5448,0.000371166,0.000439871,-0.000927814,0.00133397,-0.000522931,-0.803902,0.00110564,0.0197374,1735,1597,20.8479,-37.5448
518,-573,20.7809,36.8224,-0.000158712,-6.00702e-06,-0.000839345,0.000760451,-0.00092517,-0.830757,0.000974742,0.0151419,1742,1597,20.7809,-36.8224
525,-573,20.7299,36.062,-0.000589868,-0.000473029,-0.000787522,0.000258238,-0.00132113,-0.822421,0.000978264,0.0180419,1749,1597,20.7299,-36.062
532,-573,20.7189,35.2499,-0.000872973,-0.000976179,-0.000779422,-0.000143447,-0.0017057,-0.752343,0.00109246,0.0185371,1756,1597,20.7189,-35.2498
539,-573,20.6185,34.4828,-0.000957333,-0.00147314,-0.000825909,-0.000349998,-0.00208048,-0.634061,0.00128629,0.0391157,1763,1597,20.6185,-34.4827
546,-573,20.8451,33.5623,0,0,0,0,0,0,0,-1,1770,1597,20.8451,-33.5623
553,-573,20.5895,33.2573,0,0,0,0,0,0,0,-1,1777,1597,20.5894,-33.2573
560,-573,20.4034,32.5906,0,0,0,0,0,0,0,-1,1784,1597,20.4034,-32.5906
567,-573,19.8645,28.3368,0,0,0,0,0,0,0,-1,1791,1597,19.8645,-28.3368
574,-573,0.83374,5.7041,0,0,0,0,0,0,0,-1,1798,1597,0.833718,-5.70405
581,-573,-0.224854,7.41602,0,0,0,0,0,0,0,-1,1805,1597,-0.224904,-7.41596
588,-573,-0.134033,7.67065,0,0,0,0,0,0,0,-1,1812,1597,-0.134037,-7.67063
595,-573,-0.0825195,8.35083,0,0,0,0,0,0,0,-1,1819,1597,-0.0824684,-8.35088
602,-573,0,0,0,0,0,0,0,0,0,-1,1826,1597,0,0
609,-573,0,0,0,0,0,0,0,0,0,-1,1833,1597,0,0
616,-573,0,0,0,0,0,0,0,0,0,-1,1840,1597,0,0
623,-573,0,0,0,0,0,0,0,0,0,-1,1847,1597,0,0
630,-573,0,0,0,0,0,0,0,0,0,-1,1854,1597,0,0
637,-573,0,0,0,0,0,0,0,0,0,-1,1861,1597,0,0
644,-573,0,0,0,0,0,0,0,0,0,-1,1868,1597,0,0
651,-573,0,0,0,0,0,0,0,0,0,-1,1875,1597,0,0
658,-573,0,0,0,0,0,0,0,0,0,-1,1882,1597,0,0
665,-573,0,0,0,0,0,0,0,0,0,-1,1889,1597,0,0
672,-573,0,0,0,0,0,0,0,0,0,-1,1896,1597,0,0
679,-573,0,0,0,0,0,0,0,0,0,-1,1903,1597,0,0
686,-573,0,0,0,0,0,0,0,0,0,-1,1910,1597,0,0
693,-573,0,0,0,0,0,0,0,0,0,-1,1917,1597,0,0
700,-573,0,0,0,0,0,0,0,0,0,-1,1924,1597,0,0
707,-573,0,0,0,0,0,0,0,0,0,-1,1931,1597,0,0
714,-573,0,0,0,0,0,0,0,0,0,-1,1938,1597,0,0
721,-573,0,0,0,0,0,0,0,0,0,-1,1945,1597,0,0
728,-573,0,0,0,0,0,0,0,0,0,-1,1952,1597,0,0
735,-573,0,0,0,0,0,0,0,0,0,-1,1959,1597,0,0
742,-573,0,0,0,0,0,0,0,0,0,-1,1966,1597,0,0
749,-573,0,0,0,0,0,0,0,0,0,-1,1973,1597,0,0
756,-573,0,0,0,0,0,0,0,0,0,-1,1980,1597,0,0
763,-573,0,0,0,0,0,0,0,0,0,-1,1987,1597,0,0
770,-573,0,0,0,0,0,0,0,0,0,-1,1994,1597,0,0
777,-573,0,0,0,0,0,0,0,0,0,-1,2001,1597,0,0
784,-573,0,0,0,0,0,0,0,0,0,-1,2008,1597,0,0
791,-573,0,0,0,0,0,0,0,0,0,-1,2015,1597,0,0
798,-573,0,0,0,0,0,0,0,0,0,-1,2022,1597,0,0
805,-573,0,0,0,0,0,0,0,0,0,-1,2029,1597,0,0
812,-573,0,0,0,0,0,0,0,0,0,-1,2036,1597,0,0
-700,-580,0,0,0,0,0,0,0,0,0,-1,524,1604,0,0
-693,-580,0,0,0,0,0,0,0,0,0,-1,531,1604,0,0
-686,-580,0,0,0,0,0,0,0,0,0,-1,538,1604,0,0
-679,-580,0,0,0,0,0,0,0,0,0,-1,545,1604,0,0
-672,-580,0,0,0,0,0,0,0,0,0,-1,552,1604,0,0
-665,-580,0,0,0,0,0,0,0,0,0,-1,559,1604,0,0
-658,-580,0,0,0,0,0,0,0,0,0,-1,566,1604,0,0
-651,-580,0,0,0,0,0,0,0,0,0,-1,573,1604,0,0
-644,-580,0,0,0,0,0,0,0,0,0,-1,580,1604,0,0
-637,-580,0,0,0,0,0,0,0,0,0,-1,587,1604,0,0
-630,-580,0,0,0,0,0,0,0,0,0,-1,594,1604,0,0
-623,-580,0,0,0,0,0,0,0,0,0,-1,601,1604,0,0
-616,-580,0,0,0,0,0,0,0,0,0,-1,608,1604,0,0
-609,-580,0,0,0,0,0,0,0,0,0,-1,615,1604,0,0
-602,-580,0,0,0,0,0,0,0,0,0,-1,622,1604,0,0
-595,-580,0,0,0,0,0,0,0,0,0,-1,629,1604,0,0
-588,-580,0,0,0,0,0,0,0,0,0,-1,636,1604,0,0
-581,-580,0,0,0,0,0,0,0,0,0,-1,643,1604,0,0
-574,-580,0,0,0,0,0,0,0,0,0,-1,650,1604,0,0
-567,-580,0,0,0,0,0,0,0,0,0,-1,657,1604,0,0
-560,-580,0,0,0,0,0,0,0,0,0,-1,664,1604,0,0
-553,-580,0,0,0,0,0,0,0,0,0,-1,671,1604,0,0
-546,-580,0,0,0,0,0,0,0,0,0,-1,678,1604,0,0
-539,-580,0,0,0,0,0,0,0,0,0,-1,685,1604,0,0
-532,-580,0,0,0,0,0,0,0,0,0,-1,692,1604,0,0
-525,-580,0,0,0,0,0,0,0,0,0,-1,699,1604,0,0
-518,-580,0,0,0,0,0,0,0,0,0,-1,706,1604,0,0
-511,-580,0,0,0,0,0,0,0,0,0,-1,713,1604,0,0
-504,-580,0,0,0,0,0,0,0,0,0,-1,720,1604,0,0
-497,-580,0,0,0,0,0,0,0,0,0,-1,727,1604,0,0
-490,-580,0,0,0,0,0,0,0,0,0,-1,734,1604,0,0
-483,-580,0,0,0,0,0,0,0,0,0,-1,741,1604,0,0
-476,-580,0,0,0,0,0,0,0,0,0,-1,748,1604,0,0
-469,-580,-1.69189,-0.38916,0,0,0,0,0,0,0,-1,755,1604,-1.69192,0.389188
-462,-580,-0.859863,0.675293,0,0,0,0,0,0,0,-1,762,1604,-0.859834,-0.675245
-455,-580,-0.730164,0.651978,0,0,0,0,0,0,0,-1,769,1604,-0.730153,-0.651957
-448,-580,-3.31891,2.07544,0,0,0,0,0,0,0,-1,776,1604,-3.3189,-2.07539
-441,-580,-1.63843,3.9469,0,0,0,0,0,0,0,-1,783,1604,-1.63842,-3.94695
-434,-580,0.23291,5.97876,0,0,0,0,0,0,0,-1,790,1604,0.232901,-5.97878
-427,-580,1.62756,8.05493,0,0,0,0,0,0,0,-1,797,1604,1.62758,-8.05488
-420,-580,0.986572,11.2383,0,0,0,0,0,0,0,-1,804,1604,0.986544,-11.2382
-413,-580,0.922913,21.5701,0,0,0,0,0,0,0,-1,811,1604,0.922905,-21.5701
-406,-580,-2.43878,34.7032,0,0,0,0,0,0,0,-1,818,1604,-2.43876,-34.7033
-399,-580,-2.50793,35.6504,0,0,0,0,0,0,0,-1,825,1604,-2.50791,-35.6504
-392,-580,-2.50464,36.5406,0.00138668,0.0010941,0.00257767,0.00382221,-0.00134143,0.757053,0.00309379,0.0242231,832,1604,-2.50465,-36.5407
-385,-580,-2.55896,37.313,0.00149517,0.000888377,0.00234794,0.00355924,-0.00117568,0.721145,0.00284683,0.0131427,839,1604,-2.55897,-37.3129
-378,-580,-2.58502,38.0901,0.00163478,0.000910624,0.00217989,0.00348246,-0.000937056,0.7031,0.00268898,0.0155791,846,1604,-2.58504,-38.0901
-371,-580,-2.6048,38.8921,0.00163454,0.000693418,0.00177723,0.00300245,-0.000674495,0.655982,0.00226027,0.0143456,853,1604,-2.60477,-38.892
-364,-580,-2.64233,39.6313,0.00172827,0.000765337,0.00157329,0.00289212,-0.000398512,0.636911,0.00207372,0.0193322,860,1604,-2.64231,-39.6313
-357,-580,-2.69171,40.369,0.00200543,0.00103376,0.00150903,0.0031049,-6.57116e-05,0.629662,0.00209218,0.0141917,867,1604,-2.69171,-40.369
-350,-580,-2.73425,41.1543,0.0024362,0.00142571,0.00157174,0.00358191,0.000280004,0.629887,0.00230029,0.0114986,874,1604,-2.73424,-41.1542
-343,-580,-2.74152,41.9181,0.00287315,0.00190491,0.00169619,0.00415296,0.000625103,0.646386,0.00258558,0.011742,881,1604,-2.74152,-41.9181
-336,-580,-2.73535,42.6082,0.00351647,0.00273716,0.00206773,0.00523094,0.00102269,0.692268,0.00320132,0.0209555,888,1604,-2.73538,-42.6082
-329,-580,-2.7973,43.4122,0.00442072,0.00406563,0.00271429,0.00696327,0.00152308,0.752739,0.00422696,0.0206409,895,1604,-2.79731,-43.4122
-322,-580,-2.85919,44.1832,0.00555203,0.00575629,0.00360573,0.00926133,0.00204699,0.799557,0.00561762,0.02275,902,1604,-2.85919,-44.1832
-315,-580,-2.83636,44.9119,0.00673692,0.00752204,0.00457123,0.0117175,0.00254143,0.828231,0.00711744,0.025093,909,1604,-2.83636,-44.9119
-308,-580,-2.7652,45.8246,0.00804419,0.00913125,0.00569008,0.0143037,0.00287174,0.833015,0.00873731,0.0370852,916,1604,-2.76517,-45.8245
-301,-580,-2.72089,46.4391,0.00971949,0.0113976,0.00728485,0.0178916,0.00322553,0.842735,0.0110111,0.0349257,923,1604,-2.7209,-46.4391
-294,-580,-2.84204,46.9879,0.0117027,0.013946,0.00922842,0.0221207,0.00352803,0.845874,0.0137231,0.0345917,930,1604,-2.84203,-46.9879
-287,-580,-2.80908,47.8064,0,0,0,0,0,0,0,-1,937,1604,-2.80909,-47.8064
-280,-580,-2.34033,49.3627,0,0,0,0,0,0,0,-1,944,1604,-2.34033,-49.3627
-273,-580,-2.1452,49.8976,0,0,0,0,0,0,0,-1,951,1604,-2.14518,-49.8975
-266,-580,-1.22644,48.4485,0,0,0,0,0,0,0,-1,958,1604,-1.22644,-48.4485
-259,-580,1.31091,9.11536,0,0,0,0,0,0,0,-1,965,1604,1.31092,-9.11539
-252,-580,1.07629,7.74097,0,0,0,0,0,0,0,-1,972,1604,1.07627,-7.74101
-245,-580,3.80304,9.16028,0,0,0,0,0,0,0,-1,979,1604,3.80306,-9.16034
-238,-580,-10.3588,1.57556,0,0,0,0,0,0,0,-1,986,1604,-10.3588,-1.5755
-231,-580,-10.576,6.43787,0,0,0,0,0,0,0,-1,993,1604,-10.576,-6.43783
-224,-580,-8.27435,7.58972,0,0,0,0,0,0,0,-1,1000,1604,-8.27435,-7.5897
-217,-580,-5.85632,9.51221,0,0,0,0,0,0,0,-1,1007,1604,-5.85632,-9.5122
-210,-580,-3.6684,11.1569,0,0,0,0,0,0,0,-1,1014,1604,-3.66839,-11.1569
-203,-580,-1.92474,12.7845,0,0,0,0,0,0,0,-1,1021,1604,-1.92477,-12.7845
-196,-580,-2.28552,10.3289,0,0,0,0,0,0,0,-1,1028,1604,-2.28552,-10.3288
-189,-580,-4.58252,7.59058,0,0,0,0,0,0,0,-1,1035,1604,-4.58256,-7.59057
-182,-580,-5.45874,7.65942,0,0,0,0,0,0,0,-1,1042,1604,-5.45876,-7.65939
-175,-580,-6.38977,7.55005,0,0,0,0,0,0,0,-1,1049,1604,-6.38981,-7.5501
-168,-580,0,0,0,0,0,0,0,0,0,-1,1056,1604,0,0
-161,-580,0,0,0,0,0,0,0,0,0,-1,1063,1604,0,0
-154,-580,0,0,0,0,0,0,0,0,0,-1,1070,1604,0,0
-147,-580,0,0,0,0,0,0,0,0,0,-1,1077,1604,0,0
-140,-580,0,0,0,0,0,0,0,0,0,-1,1084,1604,0,0
-133,-580,0,0,0,0,0,0,0,0,0,-1,1091,1604,0,0
-126,-580,0,0,0,0,0,0,0,0,0,-1,1098,1604,0,0
-119,-580,0,0,0,0,0,0,0,0,0,-1,1105,1604,0,0
-112,-580,0,0,0,0,0,0,0,0,0,-1,1112,1604,0,0
-105,-580,0,0,0,0,0,0,0,0,0,-1,1119,1604,0,0
-98,-580,0,0,0,0,0,0,0,0,0,-1,1126,1604,0,0
-91,-580,0,0,0,0,0,0,0,0,0,-1,1133,1604,0,0
-84,-580,0,0,0,0,0,0,0,0,0,-1,1140,1604,0,0
-77,-580,0,0,0,0,0,0,0,0,0,-1,1147,1604,0,0
-70,-580,0,0,0,0,0,0,0,0,0,-1,1154,1604,0,0
-63,-580,0,0,0,0,0,0,0,0,0,-1,1161,1604,0,0
-56,-580,0,0,0,0,0,0,0,0,0,-1,1168,1604,0,0
-49,-580,0,0,0,0,0,0,0,0,0,-1,1175,1604,0,0
-42,-580,0,0,0,0,0,0,0,0,0,-1,1182,1604,0,0
-35,-580,0,0,0,0,0,0,0,0,0,-1,1189,1604,0,0
-28,-580,0,0,0,0,0,0,0,0,0,-1,1196,1604,0,0
-21,-580,0,0,0,0,0,0,0,0,0,-1,1203,1604,0,0
-14,-580,0,0,0,0,0,0,0,0,0,-1,1210,1604,0,0
-7,-580,0,0,0,0,0,0,0,0,0,-1,1217,1604,0,0
0,-580,0,0,0,0,0,0,0,0,0,-1,1224,1604,0,0
7,-580,0,0,0,0,0,0,0,0,0,-1,1231,1604,0,0
14,-580,0,0,0,0,0,0,0,0,0,-1,1238,1604,0,0
21,-580,0,0,0,0,0,0,0,0,0,-1,1245,1604,0,0
28,-580,0,0,0,0,0,0,0,0,0,-1,1252,1604,0,0
35,-580,0,0,0,0,0,0,0,0,0,-1,1259,1604,0,0
42,-580,0,0,0,0,0,0,0,0,0,-1,1266,1604,0,0
49,-580,0,0,0,0,0,0,0,0,0,-1,1273,1604,0,0
56,-580,0,0,0,0,0,0,0,0,0,-1,1280,1604,0,0
63,-580,0,0,0,0,0,0,0,0,0,-1,1287,1604,0,0
70,-580,0,0,0,0,0,0,0,0,0,-1,1294,1604,0,0
77,-580,0,0,0,0,0,0,0,0,0,-1,1301,1604,0,0
84,-580,0,0,0,0,0,0,0,0,0,-1,1308,1604,0,0
91,-580,0,0,0,0,0,0,0,0,0,-1,1315,1604,0,0
98,-580,0,0,0,0,0,0,0,0,0,-1,1322,1604,0,0
105,-580,0,0,0,0,0,0,0,0,0,-1,1329,1604,0,0
112,-580,0,0,0,0,0,0,0,0,0,-1,1336,1604,0,0
119,-580,0,0,0,0,0,0,0,0,0,-1,1343,1604,0,0
126,-580,0,0,0,0,0,0,0,0,0,-1,1350,1604,0,0
133,-580,0,0,0,0,0,0,0,0,0,-1,1357,1604,0,0
140,-580,0,0,0,0,0,0,0,0,0,-1,1364,1604,0,0
147,-580,0,0,0,0,0,0,0,0,0,-1,1371,1604,0,0
154,-580,0,0,0,0,0,0,0,0,0,-1,1378,1604,0,0
161,-580,0,0,0,0,0,0,0,0,0,-1,1385,1604,0,0
168,-580,0,0,0,0,0,0,0,0,0,-1,1392,1604,0,0
175,-580,0,0,0,0,0,0,0,0,0,-1,1399,1604,0,0
182,-580,0,0,0,0,0,0,0,0,0,-1,1406,1604,0,0
189,-580,0,0,0,0,0,0,0,0,0,-1,1413,1604,0,0
196,-580,0,0,0,0,0,0,0,0,0,-1,1420,1604,0,0
203,-580,0,0,0,0,0,0,0,0,0,-1,1427,1604,0,0
210,-580,0,0,0,0,0,0,0,0,0,-1,1434,1604,0,0
217,-580,0,0,0,0,0,0,0,0,0,-1,1441,1604,0,0
224,-580,0,0,0,0,0,0,0,0,0,-1,1448,1604,0,0
231,-580,0,0,0,0,0,0,0,0,0,-1,1455,1604,0,0
238,-580,0,0,0,0,0,0,0,0,0,-1,1462,1604,0,0
245,-580,0,0,0,0,0,0,0,0,0,-1,1469,1604,0,0
252,-580,0,0,0,0,0,0,0,0,0,-1,1476,1604,0,0
259,-580,0,0,0,0,0,0,0,0,0,-1,1483,1604,0,0
266,-580,0,0,0,0,0,0,0,0,0,-1,1490,1604,0,0
273,-580,0,0,0,0,0,0,0,0,0,-1,1497,1604,0,0
280,-580,0,0,0,0,0,0,0,0,0,-1,1504,1604,0,0
287,-580,0,0,0,0,0,0,0,0,0,-1,1511,1604,0,0
294,-580,4.0437,0.177368,0,0,0,0,0,0,0,-1,1518,1604,4.04369,-0.177371
301,-580,7.55164,8.05798,0,0,0,0,0,0,0,-1,1525,1604,7.55158,-8.05802
308,-580,5.9126,9.99341,0,0,0,0,0,0,0,-1,1532,1604,5.91255,-9.99337
315,-580,4.27356,11.9287,0,0,0,0,0,0,0,-1,1539,1604,4.27352,-11.9287
322,-580,10.2366,7.50281,0,0,0,0,0,0,0,-1,1546,1604,10.2366,-7.50282
329,-580,10.5962,8.69641,0,0,0,0,0,0,0,-1,1553,1604,10.5962,-8.69642
336,-580,3.66431,1.58862,0,0,0,0,0,0,0,-1,1560,1604,3.6643,-1.58864
343,-580,19.0659,51.8346,0,0,0,0,0,0,0,-1,1567,1604,19.0659,-51.8346
350,-580,21.4856,54.0978,0,0,0,0,0,0,0,-1,1574,1604,21.4857,-54.0978
357,-580,21.0597,54.0709,0,0,0,0,0,0,0,-1,1581,1604,21.0597,-54.071
364,-580,19.9648,53.4946,0,0,0,0,0,0,0,-1,1588,1604,19.9648,-53.4946
371,-580,19.2758,53.1096,0,0,0,0,0,0,0,-1,1595,1604,19.2757,-53.1096
378,-580,20.821,51.3619,0,0,0,0,0,0,0,-1,1602,1604,20.821,-51.362
385,-580,18.6182,47.5352,0,0,0,0,0,0,0,-1,1609,1604,18.6181,-47.5352
392,-580,19.1388,46.7451,0,0,0,0,0,0,0,-1,1616,1604,19.1388,-46.7452
399,-580,19.433,45.329,0,0,0,0,0,0,0,-1,1623,1604,19.433,-45.329
406,-580,20.5618,48.501,0,0,0,0,0,0,0,-1,1630,1604,20.5618,-48.5009
413,-580,20.5979,47.7275,0,0,0,0,0,0,0,-1,1637,1604,20.5979,-47.7276
420,-580,20.4285,47.177,0,0,0,0,0,0,0,-1,1644,1604,20.4284,-47.1771
427,-580,20.8872,46.9156,0,0,0,0,0,0,0,-1,1651,1604,20.8872,-46.9156
434,-580,20.5361,45.9628,0.00531197,0.0166532,-0.00566456,0.0189978,0.00296742,-1.17837,0.0118011,0.0490465,1658,1604,20.5362,-45.9627
441,-580,20.2552,44.9807,0.0040677,0.0143736,-0.00470318,0.0161973,0.00224406,-1.2009,0.0101333,0.0278231,1665,1604,20.2553,-44.9807
448,-580,20.3319,44.1614,0.00321424,0.0118612,-0.00402409,0.0134441,0.0016313,-1.19602,0.00847149,0.0184253,1672,1604,20.3319,-44.1613
455,-580,20.4127,43.4401,0.00284147,0.00984484,-0.00358236,0.0113527,0.00133366,-1.1724,0.00716538,0.0211155,1679,1604,20.4127,-43.4401
462,-580,20.3439,42.6921,0.00275674,0.00794645,-0.0031776,0.00945408,0.00124911,-1.12779,0.00593036,0.0237395,1686,1604,20.3438,-42.6922
469,-580,20.283,41.975,0.00263248,0.00613443,-0.00278404,0.00767234,0.00109457,-1.06611,0.00479189,0.0202758,1693,1604,20.2829,-41.975
476,-580,20.2722,41.2849,0.00237533,0.00453619,-0.00237022,0.00606062,0.000850902,-0.999246,0.00378876,0.0150246,1700,1604,20.2722,-41.2849
483,-580,20.2423,40.5677,0.00200558,0.00309788,-0.00195045,0.0045772,0.000526259,-0.921908,0.00289205,0.0136124,1707,1604,20.2423,-40.5677
490,-580,20.1951,39.8295,0.00162031,0.00183631,-0.00155342,0.00328548,0.000171137,-0.820104,0.00213556,0.0188325,1714,1604,20.1951,-39.8295
497,-580,20.163,39.0702,0.00107445,0.00113874,-0.00129451,0.0024015,-0.000188321,-0.797812,0.00166732,0.0151812,1721,1604,20.1629,-39.0702
504,-580,20.1152,38.3137,0.000477326,0.000408401,-0.00111485,0.00155824,-0.000672516,-0.769947,0.00132134,0.0179513,1728,1604,20.1152,-38.3138
511,-580,20.0793,37.5883,-8.50193e-05,-1.70111e-05,-0.00100077,0.000950333,-0.00105236,-0.802381,0.00115676,0.0180879,1735,1604,20.0794,-37.5882
518,-580,20.0211,36.8445,-0.000577392,-0.000443226,-0.000940745,0.000432825,-0.00145344,-0.820992,0.00114094,0.0165478,1742,1604,20.0211,-36.8445
525,-580,19.9745,36.0747,-0.00098066,-0.000897107,-0.00090783,-3.00924e-05,-0.00184767,-0.808391,0.00122188,0.0192041,1749,1604,19.9745,-36.0747
532,-580,19.8903,35.3329,-0.00126752,-0.00147733,-0.000884755,-0.000481468,-0.00226337,-0.726389,0.00137678,0.0339949,1756,1604,19.8903,-35.3328
539,-580,20.0414,34.4315,0,0,0,0,0,0,0,-1,1763,1604,20.0414,-34.4316
546,-580,20.2579,33.7653,0,0,0,0,0,0,0,-1,1770,1604,20.2579,-33.7652
553,-580,17.1749,26.6359,0,0,0,0,0,0,0,-1,1777,1604,17.1749,-26.6358
560,-580,18.9662,29.0388,0,0,0,0,0,0,0,-1,1784,1604,18.9661,-29.0389
567,-580,3.87708,4.0647,0,0,0,0,0,0,0,-1,1791,1604,3.87711,-4.06471
574,-580,2.31653,5.62952,0,0,0,0,0,0,0,-1,1798,1604,2.31654,-5.62947
581,-580,1.60876,6.67664,0,0,0,0,0,0,0,-1,1805,1604,1.60873,-6.67667
588,-580,1.38684,7.14441,0,0,0,0,0,0,0,-1,1812,1604,1.38689,-7.14443
595,-580,0,0,0,0,0,0,0,0,0,-1,1819,1604,0,0
602,-580,0,0,0,0,0,0,0,0,0,-1,1826,1604,0,0
609,-580,0,0,0,0,0,0,0,0,0,-1,1833,1604,0,0
616,-580,0,0,0,0,0,0,0,0,0,-1,1840,1604,0,0
623,-580,0,0,0,0,0,0,0,0,0,-1,1847,1604,0,0
630,-580,0,0,0,0,0,0,0,0,0,-1,1854,1604,0,0
637,-580,0,0,0,0,0,0,0,0,0,-1,1861,1604,0,0
644,-580,0,0,0,0,0,0,0,0,0,-1,1868,1604,0,0
651,-580,0,0,0,0,0,0,0,0,0,-1,1875,1604,0,0
658,-580,0,0,0,0,0,0,0,0,0,-1,1882,1604,0,0
665,-580,0,0,0,0,0,0,0,0,0,-1,1889,1604,0,0
672,-580,0,0,0,0,0,0,0,0,0,-1,1896,1604,0,0
679,-580,0,0,0,0,0,0,0,0,0,-1,1903,1604,0,0
686,-580,0,0,0,0,0,0,0,0,0,-1,1910,1604,0,0
693,-580,0,0,0,0,0,0,0,0,0,-1,1917,1604,0,0
700,-580,0,0,0,0,0,0,0,0,0,-1,1924,1604,0,0
707,-580,0,0,0,0,0,0,0,0,0,-1,1931,1604,0,0
714,-580,0,0,0,0,0,0,0,0,0,-1,1938,1604,0,0
721,-580,0,0,0,0,0,0,0,0,0,-1,1945,1604,0,0
728,-580,0,0,0,0,0,0,0,0,0,-1,1952,1604,0,0
735,-580,0,0,0,0,0,0,0,0,0,-1,1959,1604,0,0
742,-580,0,0,0,0,0,0,0,0,0,-1,1966,1604,0,0
749,-580,0,0,0,0,0,0,0,0,0,-1,1973,1604,0,0
756,-580,0,0,0,0,0,0,0,0,0,-1,1980,1604,0,0
763,-580,0,0,0,0,0,0,0,0,0,-1,1987,1604,0,0
770,-580,0,0,0,0,0,0,0,0,0,-1,1994,1604,0,0
777,-580,0,0,0,0,0,0,0,0,0,-1,2001,1604,0,0
784,-580,0,0,0,0,0,0,0,0,0,-1,2008,1604,0,0
791,-580,0,0,0,0,0,0,0,0,0,-1,2015,1604,0,0
798,-580,0,0,0,0,0,0,0,0,0,-1,2022,1604,0,0
805,-580,0,0,0,0,0,0,0,0,0,-1,2029,1604,0,0
812,-580,0,0,0,0,0,0,0,0,0,-1,2036,1604,0,0
-700,-587,0,0,0,0,0,0,0,0,0,-1,524,1611,0,0
-693,-587,0,0,0,0,0,0,0,0,0,-1,531,1611,0,0
-686,-587,0,0,0,0,0,0,0,0,0,-1,538,1611,0,0
-679,-587,0,0,0,0,0,0,0,0,0,-1,545,1611,0,0
-672,-587,0,0,0,0,0,0,0,0,0,-1,552,1611,0,0
-665,-587,0,0,0,0,0,0,0,0,0,-1,559,1611,0,0
-658,-587,0,0,0,0,0,0,0,0,0,-1,566,1611,0,0
-651,-587,0,0,0,0,0,0,0,0,0,-1,573,1611,0,0
-644,-587,0,0,0,0,0,0,0,0,0,-1,580,1611,0,0
-637,-587,0,0,0,0,0,0,0,0,0,-1,587,1611,0,0
-630,-587,0,0,0,0,0,0,0,0,0,-1,594,1611,0,0
-623,-587,0,0,0,0,0,0,0,0,0,-1,601,1611,0,0
-616,-587,0,0,0,0,0,0,0,0,0,-1,608,1611,0,0
-609,-587,0,0,0,0,0,0,0,0,0,-1,615,1611,0,0
-602,-587,0,0,0,0,0,0,0,0,0,-1,622,1611,0,0
-595,-587,0,0,0,0,0,0,0,0,0,-1,629,1611,0,0
-588,-587,0,0,0,0,0,0,0,0,0,-1,636,1611,0,0
-581,-587,0,0,0,0,0,0,0,0,0,-1,643,1611,0,0
-574,-587,0,0,0,0,0,0,0,0,0,-1,650,1611,0,0
-567,-587,0,0,0,0,0,0,0,0,0,-1,657,1611,0,0
-560,-587,0,0,0,0,0,0,0,0,0,-1,664,1611,0,0
-553,-587,0,0,0,0,0,0,0,0,0,-1,671,1611,0,0
-546,-587,0,0,0,0,0,0,0,0,0,-1,678,1611,0,0
-539,-587,0,0,0,0,0,0,0,0,0,-1,685,1611,0,0
-532,-587,0,0,0,0,0,0,0,0,0,-1,692,1611,0,0
-525,-587,0,0,0,0,0,0,0,0,0,-1,699,1611,0,0
-518,-587,0,0,0,0,0,0,0,0,0,-1,706,1611,0,0
-511,-587,0,0,0,0,0,0,0,0,0,-1,713,1611,0,0
-504,-587,0,0,0,0,0,0,0,0,0,-1,720,1611,0,0
-497,-587,0,0,0,0,0,0,0,0,0,-1,727,1611,0,0
-490,-587,0,0,0,0,0,0,0,0,0,-1,734,1611,0,0
-483,-587,0,0,0,0,0,0,0,0,0,-1,741,1611,0,0
-476,-587,0,0,0,0,0,0,0,0,0,-1,748,1611,0,0
-469,-587,0,0,0,0,0,0,0,0,0,-1,755,1611,0,0
-462,-587,-0.714355,-0.418457,0,0,0,0,0,0,0,-1,762,1611,-0.714359,0.418483
-455,-587,-0.619812,-0.522461,0,0,0,0,0,0,0,-1,769,1611,-0.619802,0.522515
-448,-587,-0.461731,-0.686523,0,0,0,0,0,0,0,-1,776,1611,-0.461739,0.686559
-441,-587,-3.56555,2.72253,0,0,0,0,0,0,0,-1,783,1611,-3.56555,-2.72259
-434,-587,-1.77319,4.76318,0,0,0,0,0,0,0,-1,790,1611,-1.77318,-4.76323
-427,-587,0.0346069,6.92944,0,0,0,0,0,0,0,-1,797,1611,0.034587,-6.92941
-420,-587,-0.647156,10.1157,0,0,0,0,0,0,0,-1,804,1611,-0.647128,-10.1158
-413,-587,2.13971,10.3901,0,0,0,0,0,0,0,-1,811,1611,2.13971,-10.3902
-406,-587,2.2525,19.7814,0,0,0,0,0,0,0,-1,818,1611,2.25253,-19.7814
-399,-587,-1.5578,34.803,0,0,0,0,0,0,0,-1,825,1611,-1.55782,-34.803
-392,-587,-1.90118,36.4236,0,0,0,0,0,0,0,-1,832,1611,-1.9012,-36.4236
-385,-587,-1.90173,37.2874,0.00191197,0.000868001,0.00290272,0.00433927,-0.0015593,0.696436,0.00352936,0.0316858,839,1611,-1.90172,-37.2873
-378,-587,-1.86615,38.1403,0.00195529,0.000854431,0.00269141,0.00415198,-0.00134226,0.684532,0.00330747,0.0146398,846,1611,-1.86612,-38.1403
-371,-587,-1.90607,38.9666,0.00179506,0.000514307,0.00218665,0.00343318,-0.00112381,0.642953,0.00274128,0.0146118,853,1611,-1.90605,-38.9666
-364,-587,-1.89777,39.7081,0.00172053,0.000386327,0.00186857,0.00303751,-0.000930649,0.613944,0.00239624,0.018459,860,1611,-1.8978,-39.7081
-357,-587,-1.94513,40.4025,0.00185023,0.000480455,0.00169859,0.00299681,-0.000666123,0.593763,0.00225298,0.0181664,867,1611,-1.94514,-40.4024
-350,-587,-2.00122,41.194,0.00213324,0.000719055,0.00164844,0.00321984,-0.000367542,0.582794,0.00227897,0.0103876,874,1611,-2.00123,-41.194
-343,-587,-2.03333,41.9293,0.002441,0.00111893,0.00167335,0.00357915,-1.92188e-05,0.597289,0.00239253,0.0130974,881,1611,-2.03333,-41.9294
-336,-587,-2.0744,42.6561,0.00289833,0.00181235,0.0018793,0.00431151,0.000399174,0.644762,0.00275095,0.013922,888,1611,-2.07443,-42.6561
-329,-587,-2.11646,43.4108,0.00355031,0.00291033,0.00228979,0.00554235,0.000918282,0.715975,0.00343003,0.0160742,895,1611,-2.11645,-43.4108
-322,-587,-2.09924,44.178,0.0043672,0.00433307,0.00291652,0.00726671,0.00143356,0.782472,0.00444436,0.0189328,902,1611,-2.09923,-44.178
-315,-587,-2.14886,44.8932,0.00528291,0.00578647,0.00361839,0.00916182,0.00190755,0.820134,0.00558176,0.0160699,909,1611,-2.14884,-44.8931
-308,-587,-2.18048,45.6299,0.00637299,0.00709294,0.0044575,0.011205,0.00226095,0.82569,0.00684201,0.0160798,916,1611,-2.1805,-45.6299
-301,-587,-2.11829,46.4005,0.0077907,0.00900856,0.00570744,0.0141395,0.00265979,0.838542,0.00867668,0.0158535,923,1611,-2.11832,-46.4005
-294,-587,-2.05646,47.1688,0.00943776,0.011137,0.00722966,0.0175668,0.00300797,0.843889,0.0108485,0.0231254,930,1611,-2.05647,-47.1688
-287,-587,-2.07751,47.9237,0.0114962,0.0134862,0.00898443,0.0215306,0.00345186,0.840548,0.0133527,0.0355401,937,1611,-2.07752,-47.9237
-280,-587,-1.87836,48.8782,0.0138799,0.0159381,0.0111388,0.0260952,0.0037228,0.831461,0.0162982,0.0451456,944,1611,-1.87834,-48.8782
-273,-587,-1.73651,49.5857,0.016392,0.0186981,0.0133314,0.0309263,0.00416388,0.828537,0.0193792,0.0470417,951,1611,-1.7365,-49.5857
-266,-587,-1.65155,50.2588,0,0,0,0,0,0,0,-1,958,1611,-1.65156,-50.2588
-259,-587,-1.63641,50.392,0,0,0,0,0,0,0,-1,965,1611,-1.63641,-50.3919
-252,-587,1.30188,10.3103,0,0,0,0,0,0,0,-1,972,1611,1.30188,-10.3104
-245,-587,1.52075,27.4791,0,0,0,0,0,0,0,-1,979,1611,1.52076,-27.4791
-238,-587,2.87799,9.53821,0,0,0,0,0,0,0,-1,986,1611,2.87797,-9.53823
-231,-587,2.49548,9.14465,0,0,0,0,0,0,0,-1,993,1611,2.49551,-9.14468
-224,-587,-9.72528,9.21069,0,0,0,0,0,0,0,-1,1000,1611,-9.72529,-9.21072
-217,-587,-7.07495,10.7847,0,0,0,0,0,0,0,-1,1007,1611,-7.07495,-10.7847
-210,-587,-4.72308,12.5889,0,0,0,0,0,0,0,-1,1014,1611,-4.72307,-12.5888
-203,-587,-3.2583,13.7289,0,0,0,0,0,0,0,-1,1021,1611,-3.25828,-13.7289
-196,-587,-1.953,14.8145,0,0,0,0,0,0,0,-1,1028,1611,-1.95302,-14.8144
-189,-587,-3.04138,8.66638,0,0,0,0,0,0,0,-1,1035,1611,-3.04136,-8.66635
-182,-587,-3.97095,9.7146,0,0,0,0,0,0,0,-1,1042,1611,-3.97093,-9.71461
-175,-587,-4.80969,8.37878,0,0,0,0,0,0,0,-1,1049,1611,-4.80964,-8.37883
-168,-587,-5.91394,8.72546,0,0,0,0,0,0,0,-1,1056,1611,-5.91398,-8.72542
-161,-587,-7.06946,8.88501,0,0,0,0,0,0,0,-1,1063,1611,-7.06947,-8.885
-154,-587,-2.24731,6.56519,0,0,0,0,0,0,0,-1,1070,1611,-2.24728,-6.56517
-147,-587,0,0,0,0,0,0,0,0,0,-1,1077,1611,0,0
-140,-587,0,0,0,0,0,0,0,0,0,-1,1084,1611,0,0
-133,-587,0,0,0,0,0,0,0,0,0,-1,1091,1611,0,0
-126,-587,0,0,0,0,0,0,0,0,0,-1,1098,1611,0,0
-119,-587,0,0,0,0,0,0,0,0,0,-1,1105,1611,0,0
-112,-587,0,0,0,0,0,0,0,0,0,-1,1112,1611,0,0
-105,-587,0,0,0,0,0,0,0,0,0,-1,1119,1611,0,0
-98,-587,0,0,0,0,0,0,0,0,0,-1,1126,1611,0,0
-91,-587,0,0,0,0,0,0,0,0,0,-1,1133,1611,0,0
-84,-587,0,0,0,0,0,0,0,0,0,-1,1140,1611,0,0
-77,-587,0,0,0,0,0,0,0,0,0,-1,1147,1611,0,0
-70,-587,0,0,0,0,0,0,0,0,0,-1,1154,1611,0,0
-63,-587,0,0,0,0,0,0,0,0,0,-1,1161,1611,0,0
-56,-587,0,0,0,0,0,0,0,0,0,-1,1168,1611,0,0
-49,-587,0,0,0,0,0,0,0,0,0,-1,1175,1611,0,0
-42,-587,0,0,0,0,0,0,0,0,0,-1,1182,1611,0,0
-35,-587,0,0,0,0,0,0,0,0,0,-1,1189,1611,0,0
-28,-587,0,0,0,0,0,0,0,0,0,-1,1196,1611,0,0
-21,-587,0,0,0,0,0,0,0,0,0,-1,1203,1611,0,0
-14,-587,0,0,0,0,0,0,0,0,0,-1,1210,1611,0,0
-7,-587,0,0,0,0,0,0,0,0,0,-1,1217,1611,0,0
0,-587,0,0,0,0,0,0,0,0,0,-1,1224,1611,0,0
7,-587,0,0,0,0,0,0,0,0,0,-1,1231,1611,0,0
14,-587,0,0,0,0,0,0,0,0,0,-1,1238,1611,0,0
21,-587,0,0,0,0,0,0,0,0,0,-1,1245,1611,0,0
28,-587,0,0,0,0,0,0,0,0,0,-1,1252,1611,0,0
35,-587,0,0,0,0,0,0,0,0,0,-1,1259,1611,0,0
42,-587,0,0,0,0,0,0,0,0,0,-1,1266,1611,0,0
49,-587,0,0,0,0,0,0,0,0,0,-1,1273,1611,0,0
56,-587,0,0,0,0,0,0,0,0,0,-1,1280,1611,0,0
63,-587,0,0,0,0,0,0,0,0,0,-1,1287,1611,0,0
70,-587,0,0,0,0,0,0,0,0,0,-1,1294,1611,0,0
77,-587,0,0,0,0,0,0,0,0,0,-1,1301,1611,0,0
84,-587,0,0,0,0,0,0,0,0,0,-1,1308,1611,0,0
91,-587,0,0,0,0,0,0,0,0,0,-1,1315,1611,0,0
98,-587,0,0,0,0,0,0,0,0,0,-1,1322,1611,0,0
105,-587,0,0,0,0,0,0,0,0,0,-1,1329,1611,0,0
112,-587,0,0,0,0,0,0,0,0,0,-1,1336,1611,0,0
119,-587,0,0,0,0,0,0,0,0,0,-1,1343,1611,0,0
126,-587,0,0,0,0,0,0,0,0,0,-1,1350,1611,0,0
133,-587,0,0,0,0,0,0,0,0,0,-1,1357,1611,0,0
140,-587,0,0,0,0,0,0,0,0,0,-1,1364,1611,0,0
147,-587,0,0,0,0,0,0,0,0,0,-1,1371,1611,0,0
154,-587,0,0,0,0,0,0,0,0,0,-1,1378,1611,0,0
161,-587,0,0,0,0,0,0,0,0,0,-1,1385,1611,0,0
168,-587,0,0,0,0,0,0,0,0,0,-1,1392,1611,0,0
175,-587,0,0,0,0,0,0,0,0,0,-1,1399,1611,0,0
182,-587,0,0,0,0,0,0,0,0,0,-1,1406,1611,0,0
189,-587,0,0,0,0,0,0,0,0,0,-1,1413,1611,0,0
196,-587,0,0,0,0,0,0,0,0,0,-1,1420,1611,0,0
203,-587,0,0,0,0,0,0,0,0,0,-1,1427,1611,0,0
210,-587,0,0,0,0,0,0,0,0,0,-1,1434,1611,0,0
217,-587,0,0,0,0,0,0,0,0,0,-1,1441,1611,0,0
224,-587,0,0,0,0,0,0,0,0,0,-1,1448,1611,0,0
231,-587,0,0,0,0,0,0,0,0,0,-1,1455,1611,0,0
238,-587,0,0,0,0,0,0,0,0,0,-1,1462,1611,0,0
245,-587,0,0,0,0,0,0,0,0,0,-1,1469,1611,0,0
252,-587,0,0,0,0,0,0,0,0,0,-1,1476,1611,0,0
259,-587,0,0,0,0,0,0,0,0,0,-1,1483,1611,0,0
266,-587,0,0,0,0,0,0,0,0,0,-1,1490,1611,0,0
273,-587,10.2936,6.35083,0,0,0,0,0,0,0,-1,1497,1611,10.2936,-6.35087
280,-587,2.09204,1.1217,0,0,0,0,0,0,0,-1,1504,1611,2.092,-1.12176
287,-587,3.2865,0.671509,0,0,0,0,0,0,0,-1,1511,1611,3.28656,-0.671538
294,-587,4.24646,1.58765,0,0,0,0,0,0,0,-1,1518,1611,4.24648,-1.58761
301,-587,7.60474,8.37085,0,0,0,0,0,0,0,-1,1525,1611,7.60478,-8.37084
308,-587,5.99316,10.2291,0,0,0,0,0,0,0,-1,1532,1611,5.99315,-10.2291
315,-587,4.34558,12.3289,0,0,0,0,0,0,0,-1,1539,1611,4.34556,-12.3288
322,-587,10.4526,6.38245,0,0,0,0,0,0,0,-1,1546,1611,10.4526,-6.38245
329,-587,10.7738,8.42444,0,0,0,0,0,0,0,-1,1553,1611,10.7738,-8.42438
336,-587,7.5531,5.96619,0,0,0,0,0,0,0,-1,1560,1611,7.55311,-5.96617
343,-587,20.0991,54.4835,0,0,0,0,0,0,0,-1,1567,1611,20.0991,-54.4835
350,-587,19.8248,54.2876,0,0,0,0,0,0,0,-1,1574,1611,19.8249,-54.2876
357,-587,19.5122,53.9628,0,0,0,0,0,0,0,-1,1581,1611,19.5122,-53.9628
364,-587,18.6493,54.2388,0,0,0,0,0,0,0,-1,1588,1611,18.6493,-54.2388
371,-587,18.7421,53.0825,0,0,0,0,0,0,0,-1,1595,1611,18.7421,-53.0825
378,-587,18.7177,51.8282,0,0,0,0,0,0,0,-1,1602,1611,18.7176,-51.8283
385,-587,18.849,51.0443,0,0,0,0,0,0,0,-1,1609,1611,18.849,-51.0444
392,-587,19.4634,50.3171,0,0,0,0,0,0,0,-1,1616,1611,19.4634,-50.3172
399,-587,19.9731,49.2731,0,0,0,0,0,0,0,-1,1623,1611,19.9731,-49.2731
406,-587,19.7697,48.509,0.0148924,0.0187532,-0.0128115,0.0297789,0.00386667,-0.860173,0.0186975,0.0415452,1630,1611,19.7696,-48.509
413,-587,19.7993,47.775,0.0114572,0.0170862,-0.00986011,0.0245256,0.00401778,-0.924421,0.0151893,0.0323918,1637,1611,19.7993,-47.7751
420,-587,19.7449,47.0925,0.0086957,0.0156027,-0.0077226,0.0206088,0.00368957,-0.995657,0.0126894,0.0293546,1644,1611,19.7449,-47.0926
427,-587,19.7264,46.4696,0.00639109,0.0140237,-0.0055397,0.0169344,0.00348041,-1.08702,0.0103268,0.02553,1651,1611,19.7265,-46.4696
434,-587,19.6969,45.5878,0.00456474,0.0123728,-0.00405643,0.0140987,0.00283884,-1.16853,0.0086103,0.0208056,1658,1611,19.6969,-45.5877
441,-587,19.6672,44.7887,0.00339014,0.0106219,-0.00337734,0.0119539,0.0020582,-1.19515,0.00737949,0.0246813,1665,1611,19.6672,-44.7887
448,-587,19.657,44.2195,0.00262258,0.00869788,-0.00296913,0.00990794,0.00141251,-1.1838,0.00618843,0.0164256,1672,1611,19.657,-44.2195
455,-587,19.6638,43.5005,0.00226192,0.00717018,-0.0027264,0.00838429,0.0010478,-1.15184,0.00527506,0.0144519,1679,1611,19.6639,-43.5005
462,-587,19.6052,42.7474,0.00215022,0.0056809,-0.00250736,0.00698204,0.000849081,-1.09212,0.00439907,0.0188763,1686,1611,19.6053,-42.7475
469,-587,19.5502,42.0411,0.00203707,0.0042839,-0.00229208,0.00571308,0.000607901,-1.01326,0.00362312,0.0166972,1693,1611,19.5501,-42.0412
476,-587,19.5293,41.3314,0.00181264,0.00308511,-0.00202967,0.00457592,0.000321823,-0.937282,0.0029492,0.0105213,1700,1611,19.5293,-41.3314
483,-587,19.4712,40.594,0.00150908,0.00192794,-0.00177501,0.00350583,-6.88131e-05,-0.84412,0.00236049,0.0128786,1707,1611,19.4712,-40.594
490,-587,19.4304,39.8679,0.00115377,0.00100023,-0.00153304,0.00261196,-0.000457962,-0.76038,0.00191233,0.0161099,1714,1611,19.4305,-39.868
497,-587,19.4006,39.1367,0.000687487,0.00051012,-0.00141922,0.00202079,-0.000823187,-0.754195,0.0016898,0.0132639,1721,1611,19.4006,-39.1367
504,-587,19.3477,38.4154,0.000187785,6.05805e-06,-0.00134739,0.00144737,-0.00125353,-0.751731,0.0015607,0.0125498,1728,1611,19.3477,-38.4155
511,-587,19.3014,37.6702,-0.000273157,-0.00028231,-0.00133108,0.00105335,-0.00160882,-0.783679,0.00154812,0.0142633,1735,1611,19.3014,-37.6701
518,-587,19.2933,36.8972,-0.000710132,-0.000687457,-0.00129695,0.000598204,-0.00199579,-0.789769,0.00156843,0.0142246,1742,1611,19.2933,-36.8972
525,-587,19.2733,36.1746,-0.00110344,-0.00111354,-0.00127551,0.000167034,-0.00238401,-0.783418,0.00164785,0.0202856,1749,1611,19.2734,-36.1746
532,-587,19.3009,35.5081,-0.00138142,-0.00176125,-0.0011943,-0.000362033,-0.00278064,-0.706548,0.00174564,0.0417357,1756,1611,19.3009,-35.5081
539,-587,19.4285,34.6042,0,0,0,0,0,0,0,-1,1763,1611,19.4285,-34.6043
546,-587,17.6716,25.2673,0,0,0,0,0,0,0,-1,1770,1611,17.6716,-25.2674
553,-587,7.5813,8.45068,0,0,0,0,0,0,0,-1,1777,1611,7.58125,-8.45068
560,-587,4.21179,5.23547,0,0,0,0,0,0,0,-1,1784,1611,4.21185,-5.23553
567,-587,4.03711,5.46387,0,0,0,0,0,0,0,-1,1791,1611,4.03715,-5.46382
574,-587,3.83142,5.68884,0,0,0,0,0,0,0,-1,1798,1611,3.83141,-5.68881
581,-587,3.47168,6.00977,0,0,0,0,0,0,0,-1,1805,1611,3.47167,-6.00983
588,-587,0,0,0,0,0,0,0,0,0,-1,1812,1611,0,0
595,-587,0,0,0,0,0,0,0,0,0,-1,1819,1611,0,0
602,-587,0,0,0,0,0,0,0,0,0,-1,1826,1611,0,0
609,-587,0,0,0,0,0,0,0,0,0,-1,1833,1611,0,0
616,-587,0,0,0,0,0,0,0,0,0,-1,1840,1611,0,0
623,-587,0,0,0,0,0,0,0,0,0,-1,1847,1611,0,0
630,-587,0,0,0,0,0,0,0,0,0,-1,1854,1611,0,0
637,-587,0,0,0,0,0,0,0,0,0,-1,1861,1611,0,0
644,-587,0,0,0,0,0,0,0,0,0,-1,1868,1611,0,0
651,-587,0,0,0,0,0,0,0,0,0,-1,1875,1611,0,0
658,-587,0,0,0,0,0,0,0,0,0,-1,1882,1611,0,0
665,-587,0,0,0,0,0,0,0,0,0,-1,1889,1611,0,0
672,-587,0,0,0,0,0,0,0,0,0,-1,1896,1611,0,0
679,-587,0,0,0,0,0,0,0,0,0,-1,1903,1611,0,0
686,-587,0,0,0,0,0,0,0,0,0,-1,1910,1611,0,0
693,-587,0,0,0,0,0,0,0,0,0,-1,1917,1611,0,0
700,-587,0,0,0,0,0,0,0,0,0,-1,1924,1611,0,0
707,-587,0,0,0,0,0,0,0,0,0,-1,1931,1611,0,0
714,-587,0,0,0,0,0,0,0,0,0,-1,1938,1611,0,0
721,-587,0,0,0,0,0,0,0,0,0,-1,1945,1611,0,0
728,-587,0,0,0,0,0,0,0,0,0,-1,1952,1611,0,0
735,-587,0,0,0,0,0,0,0,0,0,-1,1959,1611,0,0
742,-587,0,0,0,0,0,0,0,0,0,-1,1966,1611,0,0
749,-587,0,0,0,0,0,0,0,0,0,-1,1973,1611,0,0
756,-587,0,0,0,0,0,0,0,0,0,-1,1980,1611,0,0
763,-587,0,0,0,0,0,0,0,0,0,-1,1987,1611,0,0
770,-587,0,0,0,0,0,0,0,0,0,-1,1994,1611,0,0
777,-587,0,0,0,0,0,0,0,0,0,-1,2001,1611,0,0
784,-587,0,0,0,0,0,0,0,0,0,-1,2008,1611,0,0
791,-587,0,0,0,0,0,0,0,0,0,-1,2015,1611,0,0
798,-587,0,0,0,0,0,0,0,0,0,-1,2022,1611,0,0
805,-587,0,0,0,0,0,0,0,0,0,-1,2029,1611,0,0
812,-587,0,0,0,0,0,0,0,0,0,-1,2036,1611,0,0
-700,-594,0,0,0,0,0,0,0,0,0,-1,524,1618,0,0
-693,-594,0,0,0,0,0,0,0,0,0,-1,531,1618,0,0
-686,-594,0,0,0,0,0,0,0,0,0,-1,538,1618,0,0
-679,-594,0,0,0,0,0,0,0,0,0,-1,545,1618,0,0
-672,-594,0,0,0,0,0,0,0,0,0,-1,552,1618,0,0
-665,-594,0,0,0,0,0,0,0,0,0,-1,559,1618,0,0
-658,-594,0,0,0,0,0,0,0,0,0,-1,566,1618,0,0
-651,-594,0,0,0,0,0,0,0,0,0,-1,573,1618,0,0
-644,-594,0,0,0,0,0,0,0,0,0,-1,580,1618,0,0
-637,-594,0,0,0,0,0,0,0,0,0,-1,587,1618,0,0
-630,-594,0,0,0,0,0,0,0,0,0,-1,594,1618,0,0
-623,-594,0,0,0,0,0,0,0,0,0,-1,601,1618,0,0
-616,-594,0,0,0,0,0,0,0,0,0,-1,608,1618,0,0
-609,-594,0,0,0,0,0,0,0,0,0,-1,615,1618,0,0
-602,-594,0,0,0,0,0,0,0,0,0,-1,622,1618,0,0
-595,-594,0,0,0,0,0,0,0,0,0,-1,629,1618,0,0
-588,-594,0,0,0,0,0,0,0,0,0,-1,636,1618,0,0
-581,-594,0,0,0,0,0,0,0,0,0,-1,643,1618,0,0
-574,-594,0,0,0,0,0,0,0,0,0,-1,650,1618,0,0
-567,-594,0,0,0,0,0,0,0,0,0,-1,657,1618,0,0
-560,-594,0,0,0,0,0,0,0,0,0,-1,664,1618,0,0
-553,-594,0,0,0,0,0,0,0,0,0,-1,671,1618,0,0
-546,-594,0,0,0,0,0,0,0,0,0,-1,678,1618,0,0
-539,-594,0,0,0,0,0,0,0,0,0,-1,685,1618,0,0
-532,-594,0,0,0,0,0,0,0,0,0,-1,692,1618,0,0
-525,-594,0,0,0,0,0,0,0,0,0,-1,699,1618,0,0
-518,-594,0,0,0,0,0,0,0,0,0,-1,706,1618,0,0
-511,-594,0,0,0,0,0,0,0,0,0,-1,713,1618,0,0
-504,-594,0,0,0,0,0,0,0,0,0,-1,720,1618,0,0
-497,-594,0,0,0,0,0,0,0,0,0,-1,727,1618,0,0
-490,-594,0,0,0,0,0,0,0,0,0,-1,734,1618,0,0
-483,-594,0,0,0,0,0,0,0,0,0,-1,741,1618,0,0
-476,-594,0,0,0,0,0,0,0,0,0,-1,748,1618,0,0
-469,-594,0,0,0,0,0,0,0,0,0,-1,755,1618,0,0
-462,-594,0,0,0,0,0,0,0,0,0,-1,762,1618,0,0
-455,-594,-0.509216,-1.58411,0,0,0,0,0,0,0,-1,769,1618,-0.509245,1.58415
-448,-594,-7.71887,-0.0559082,0,0,0,0,0,0,0,-1,776,1618,-7.71885,0.055939
-441,-594,-5.78473,1.18298,0,0,0,0,0,0,0,-1,783,1618,-5.78474,-1.18295
-434,-594,-3.93628,3.06213,0,0,0,0,0,0,0,-1,790,1618,-3.93631,-3.06208
-427,-594,-3.97693,6.77759,0,0,0,0,0,0,0,-1,797,1618,-3.97695,-6.77764
-420,-594,-2.53046,7.71606,0,0,0,0,0,0,0,-1,804,1618,-2.53047,-7.71609
-413,-594,-0.860413,8.00391,0,0,0,0,0,0,0,-1,811,1618,-0.860423,-8.00389
-406,-594,2.45746,13.6218,0,0,0,0,0,0,0,-1,818,1618,2.45747,-13.6218
-399,-594,1.30414,24.9963,0,0,0,0,0,0,0,-1,825,1618,1.30415,-24.9963
-392,-594,-0.504883,35.921,0,0,0,0,0,0,0,-1,832,1618,-0.50491,-35.921
-385,-594,-1.16241,37.2727,0,0,0,0,0,0,0,-1,839,1618,-1.1624,-37.2728
-378,-594,-1.17163,38.1466,0.00309512,0.000604933,0.00319373,0.00527788,-0.00157782,0.599533,0.00414584,0.02213,846,1618,-1.17161,-38.1466
-371,-594,-1.13153,38.9736,0.00272721,0.000133849,0.00255814,0.00429854,-0.00143747,0.550828,0.00344627,0.0140853,853,1618,-1.13151,-38.9737
-364,-594,-1.13342,39.7266,0.00245562,-0.000210324,0.00210118,0.00361097,-0.00136568,0.502735,0.00296915,0.0117727,860,1618,-1.13342,-39.7266
-357,-594,-1.18066,40.479,0.00240817,-0.000274137,0.00182408,0.00333107,-0.00119704,0.468401,0.00270936,0.0115978,867,1618,-1.18068,-40.4791
-350,-594,-1.23547,41.2445,0.00249838,-0.00014301,0.0016847,0.00331836,-0.000962983,0.452965,0.00259353,0.0159718,874,1618,-1.23549,-41.2445
-343,-594,-1.29449,42.0094,0.00262172,0.00023102,0.00164719,0.00346158,-0.000608843,0.471518,0.00253516,0.0192525,881,1618,-1.29449,-42.0094
-336,-594,-1.36279,42.7487,0.00282751,0.000841311,0.00173916,0.00383714,-0.000168323,0.525979,0.00261601,0.0170532,888,1618,-1.36278,-42.7486
-329,-594,-1.37744,43.4725,0.00316351,0.00176887,0.00198242,0.00456768,0.000364707,0.61628,0.00293112,0.0159662,895,1618,-1.37745,-43.4726
-322,-594,-1.35547,44.2072,0.00362523,0.00299386,0.00242381,0.00575382,0.000865269,0.720641,0.00358246,0.0173792,902,1618,-1.35547,-44.2072
-315,-594,-1.37152,44.9358,0.00421924,0.00420063,0.00293199,0.00714194,0.00127794,0.783811,0.00439765,0.0180254,909,1618,-1.3715,-44.9358
-308,-594,-1.40094,45.6421,0.00504011,0.00527629,0.00355783,0.00871799,0.00159841,0.801988,0.00535924,0.0164462,916,1618,-1.40095,-45.6421
-301,-594,-1.44971,46.3485,0.0061492,0.00687076,0.00451494,0.0110393,0.00198065,0.825267,0.00679622,0.0127967,923,1618,-1.4497,-46.3486
-294,-594,-1.43896,47.0549,0.0074626,0.00863203,0.00569122,0.0137685,0.00232613,0.836589,0.00851026,0.0138652,930,1618,-1.43894,-47.055
-287,-594,-1.50879,47.7532,0.00905961,0.0105039,0.00701161,0.0168305,0.00273306,0.836714,0.0104293,0.0192013,937,1618,-1.50881,-47.7532
-280,-594,-1.43622,48.5114,0.011112,0.0123391,0.00863997,0.0203873,0.00306382,0.820847,0.0126941,0.0213391,944,1618,-1.43624,-48.5113
-273,-594,-1.29901,49.3206,0.013285,0.0144417,0.0103056,0.0241852,0.00354155,0.813431,0.0150822,0.0288334,951,1618,-1.299,-49.3205
-266,-594,-1.18695,50.0161,0.0154659,0.0164801,0.0120855,0.0280691,0.00387687,0.806366,0.0175637,0.0383843,958,1618,-1.18697,-50.0161
-259,-594,-1.13568,50.446,0.0177645,0.0181916,0.0140012,0.0319809,0.00397521,0.793024,0.0201268,0.0477765,965,1618,-1.13569,-50.4461
-252,-594,-1.12732,50.8245,0,0,0,0,0,0,0,-1,972,1618,-1.12731,-50.8245
-245,-594,2.27759,35.1766,0,0,0,0,0,0,0,-1,979,1618,2.27756,-35.1766
-238,-594,2.09015,28.0121,0,0,0,0,0,0,0,-1,986,1618,2.09012,-28.0121
-231,-594,1.93774,9.35388,0,0,0,0,0,0,0,-1,993,1618,1.93776,-9.35393
-224,-594,1.81824,8.62744,0,0,0,0,0,0,0,-1,1000,1618,1.81822,-8.62745
-217,-594,-8.24066,12.0752,0,0,0,0,0,0,0,-1,1007,1618,-8.24068,-12.0751
-210,-594,-5.61438,14.2119,0,0,0,0,0,0,0,-1,1014,1618,-5.6144,-14.212
-203,-594,-3.94507,15.5768,0,0,0,0,0,0,0,-1,1021,1618,-3.94506,-15.5768
-196,-594,2.78613,10.5815,0,0,0,0,0,0,0,-1,1028,1618,2.78612,-10.5815
-189,-594,2.60913,9.48865,0,0,0,0,0,0,0,-1,1035,1618,2.6091,-9.48871
-182,-594,1.2395,9.38806,0,0,0,0,0,0,0,-1,1042,1618,1.23951,-9.38804
-175,-594,0.234863,8.73792,0,0,0,0,0,0,0,-1,1049,1618,0.234812,-8.73786
-168,-594,-0.495483,8.46289,0,0,0,0,0,0,0,-1,1056,1618,-0.495513,-8.46285
-161,-594,-1.39734,8.28699,0,0,0,0,0,0,0,-1,1063,1618,-1.39729,-8.28699
-154,-594,-0.000854492,7.68445,0,0,0,0,0,0,0,-1,1070,1618,-0.000805755,-7.6845
-147,-594,0.348267,9.3385,0,0,0,0,0,0,0,-1,1077,1618,0.348237,-9.33849
-140,-594,0.675171,11.5884,0,0,0,0,0,0,0,-1,1084,1618,0.675204,-11.5884
-133,-594,0,0,0,0,0,0,0,0,0,-1,1091,1618,0,0
-126,-594,0,0,0,0,0,0,0,0,0,-1,1098,1618,0,0
-119,-594,0,0,0,0,0,0,0,0,0,-1,1105,1618,0,0
-112,-594,0,0,0,0,0,0,0,0,0,-1,1112,1618,0,0
-105,-594,0,0,0,0,0,0,0,0,0,-1,1119,1618,0,0
-98,-594,0,0,0,0,0,0,0,0,0,-1,1126,1618,0,0
-91,-594,0,0,0,0,0,0,0,0,0,-1,1133,1618,0,0
-84,-594,0,0,0,0,0,0,0,0,0,-1,1140,1618,0,0
-77,-594,0,0,0,0,0,0,0,0,0,-1,1147,1618,0,0
-70,-594,0,0,0,0,0,0,0,0,0,-1,1154,1618,0,0
-63,-594,0,0,0,0,0,0,0,0,0,-1,1161,1618,0,0
-56,-594,0,0,0,0,0,0,0,0,0,-1,1168,1618,0,0
-49,-594,0,0,0,0,0,0,0,0,0,-1,1175,1618,0,0
-42,-594,0,0,0,0,0,0,0,0,0,-1,1182,1618,0,0
-35,-594,0,0,0,0,0,0,0,0,0,-1,1189,1618,0,0
-28,-594,0,0,0,0,0,0,0,0,0,-1,1196,1618,0,0
-21,-594,0,0,0,0,0,0,0,0,0,-1,1203,1618,0,0
-14,-594,0,0,0,0,0,0,0,0,0,-1,1210,1618,0,0
-7,-594,0,0,0,0,0,0,0,0,0,-1,1217,1618,0,0
0,-594,0,0,0,0,0,0,0,0,0,-1,1224,1618,0,0
7,-594,0,0,0,0,0,0,0,0,0,-1,1231,1618,0,0
14,-594,0,0,0,0,0,0,0,0,0,-1,1238,1618,0,0
21,-594,0,0,0,0,0,0,0,0,0,-1,1245,1618,0,0
28,-594,0,0,0,0,0,0,0,0,0,-1,1252,1618,0,0
35,-594,0,0,0,0,0,0,0,0,0,-1,1259,1618,0,0
42,-594,0,0,0,0,0,0,0,0,0,-1,1266,1618,0,0
49,-594,0,0,0,0,0,0,0,0,0,-1,1273,1618,0,0
56,-594,0,0,0,0,0,0,0,0,0,-1,1280,1618,0,0
63,-594,0,0,0,0,0,0,0,0,0,-1,1287,1618,0,0
70,-594,0,0,0,0,0,0,0,0,0,-1,1294,1618,0,0
77,-594,0,0,0,0,0,0,0,0,0,-1,1301,1618,0,0
84,-594,0,0,0,0,0,0,0,0,0,-1,1308,1618,0,0
91,-594,0,0,0,0,0,0,0,0,0,-1,1315,1618,0,0
98,-594,0,0,0,0,0,0,0,0,0,-1,1322,1618,0,0
105,-594,0,0,0,0,0,0,0,0,0,-1,1329,1618,0,0
112,-594,0,0,0,0,0,0,0,0,0,-1,1336,1618,0,0
119,-594,0,0,0,0,0,0,0,0,0,-1,1343,1618,0,0
126,-594,0,0,0,0,0,0,0,0,0,-1,1350,1618,0,0
133,-594,0,0,0,0,0,0,0,0,0,-1,1357,1618,0,0
140,-594,0,0,0,0,0,0,0,0,0,-1,1364,1618,0,0
147,-594,0,0,0,0,0,0,0,0,0,-1,1371,1618,0,0
154,-594,0,0,0,0,0,0,0,0,0,-1,1378,1618,0,0
161,-594,0,0,0,0,0,0,0,0,0,-1,1385,1618,0,0
168,-594,0,0,0,0,0,0,0,0,0,-1,1392,1618,0,0
175,-594,0,0,0,0,0,0,0,0,0,-1,1399,1618,0,0
182,-594,0,0,0,0,0,0,0,0,0,-1,1406,1618,0,0
189,-594,0,0,0,0,0,0,0,0,0,-1,1413,1618,0,0
196,-594,0,0,0,0,0,0,0,0,0,-1,1420,1618,0,0
203,-594,0,0,0,0,0,0,0,0,0,-1,1427,1618,0,0
210,-594,0,0,0,0,0,0,0,0,0,-1,1434,1618,0,0
217,-594,0,0,0,0,0,0,0,0,0,-1,1441,1618,0,0
224,-594,0,0,0,0,0,0,0,0,0,-1,1448,1618,0,0
231,-594,0,0,0,0,0,0,0,0,0,-1,1455,1618,0,0
238,-594,0,0,0,0,0,0,0,0,0,-1,1462,1618,0,0
245,-594,0,0,0,0,0,0,0,0,0,-1,1469,1618,0,0
252,-594,3.03674,1.20996,0,0,0,0,0,0,0,-1,1476,1618,3.0368,-1.20999
259,-594,4.79834,1.53113,0,0,0,0,0,0,0,-1,1483,1618,4.79837,-1.53118
266,-594,3.71606,2.68152,0,0,0,0,0,0,0,-1,1490,1618,3.71609,-2.68149
273,-594,9.7655,6.33557,0,0,0,0,0,0,0,-1,1497,1618,9.76555,-6.33554
280,-594,3.13281,0.911255,0,0,0,0,0,0,0,-1,1504,1618,3.13277,-0.911207
287,-594,4.42749,1.51563,0,0,0,0,0,0,0,-1,1511,1618,4.42747,-1.51564
294,-594,5.36475,3.34937,0,0,0,0,0,0,0,-1,1518,1618,5.36475,-3.3494
301,-594,7.97144,9.04333,0,0,0,0,0,0,0,-1,1525,1618,7.9714,-9.04328
308,-594,6.30347,10.4633,0,0,0,0,0,0,0,-1,1532,1618,6.30351,-10.4633
315,-594,4.62012,11.934,0,0,0,0,0,0,0,-1,1539,1618,4.62006,-11.934
322,-594,2.91528,13.3134,0,0,0,0,0,0,0,-1,1546,1618,2.91523,-13.3133
329,-594,4.19861,9.77258,0,0,0,0,0,0,0,-1,1553,1618,4.19865,-9.77264
336,-594,10.1353,4.66528,0,0,0,0,0,0,0,-1,1560,1618,10.1353,-4.66533
343,-594,18.1643,55.3273,0,0,0,0,0,0,0,-1,1567,1618,18.1643,-55.3273
350,-594,18.2991,54.4825,0,0,0,0,0,0,0,-1,1574,1618,18.2991,-54.4826
357,-594,18.2343,53.7335,0,0,0,0,0,0,0,-1,1581,1618,18.2343,-53.7335
364,-594,18.2244,54.1168,0,0,0,0,0,0,0,-1,1588,1618,18.2244,-54.1168
371,-594,18.2651,52.9504,0.0300652,0.0258329,-0.0343242,0.0623384,-0.00644037,-0.754611,0.0438636,0.0474995,1595,1618,18.2652,-52.9505
378,-594,18.2626,51.7769,0.027142,0.0228051,-0.0281998,0.0532566,-0.00330943,-0.747026,0.0366574,0.0478362,1602,1618,18.2625,-51.7769
385,-594,18.4843,50.8547,0.02344,0.0205333,-0.0225722,0.0446057,-0.000632327,-0.753249,0.0299501,0.0446776,1609,1618,18.4842,-50.8548
392,-594,18.7853,50.2805,0.0195185,0.018179,-0.0176054,0.0364669,0.00123066,-0.766386,0.0239116,0.0446355,1616,1618,18.7853,-50.2805
399,-594,19.1154,49.2223,0.0158875,0.016543,-0.0134984,0.0297176,0.00271286,-0.797535,0.0189722,0.0403832,1623,1618,19.1153,-49.2223
406,-594,19.0355,48.5093,0.0126582,0.0149908,-0.0103563,0.0242462,0.00340269,-0.841471,0.0151578,0.0259615,1630,1618,19.0355,-48.5093
413,-594,19.0193,47.7842,0.00980103,0.0132543,-0.00779958,0.0195161,0.00353925,-0.894328,0.0120061,0.0177832,1637,1618,19.0193,-47.7842
420,-594,19.0107,47.1013,0.00748635,0.0118579,-0.00598102,0.01604,0.00330423,-0.960586,0.00977982,0.0153216,1644,1618,19.0107,-47.1014
427,-594,19.0056,46.411,0.00548842,0.0104577,-0.00417708,0.0128333,0.00311288,-1.0537,0.00772972,0.0137786,1651,1618,19.0056,-46.411
434,-594,18.9688,45.7,0.00392478,0.00913529,-0.00300682,0.0105085,0.00255155,-1.14238,0.00632899,0.0197048,1658,1618,18.9687,-45.6999
441,-594,18.9319,44.9635,0.00289356,0.00772684,-0.00253189,0.00881028,0.00181011,-1.16645,0.00537277,0.0181611,1665,1618,18.9319,-44.9635
448,-594,18.9349,44.2638,0.00225931,0.00621162,-0.00232683,0.00728822,0.00118271,-1.13744,0.00451649,0.0181935,1672,1618,18.9349,-44.2638
455,-594,18.9023,43.5216,0.0019879,0.00502785,-0.00226543,0.00623597,0.00077978,-1.08088,0.00392331,0.0134585,1679,1618,18.9023,-43.5216
462,-594,18.8734,42.8011,0.00189987,0.00382741,-0.00220733,0.0052722,0.000455086,-0.991235,0.00337335,0.0149036,1686,1618,18.8734,-42.8011
469,-594,18.8352,42.103,0.0018204,0.00273626,-0.00215171,0.00447823,7.84288e-05,-0.890244,0.00295969,0.013581,1693,1618,18.8352,-42.1031
476,-594,18.8115,41.3724,0.00163442,0.00185146,-0.00203046,0.0037763,-0.000290412,-0.812095,0.00261971,0.0127223,1700,1618,18.8115,-41.3724
483,-594,18.7604,40.6411,0.00138367,0.000936067,-0.00193319,0.00310596,-0.000786231,-0.727771,0.00237647,0.0146298,1707,1618,18.7604,-40.6412
490,-594,18.7146,39.9041,0.00102339,0.000324519,-0.00184336,0.00255014,-0.00120224,-0.691728,0.00221254,0.0136043,1714,1618,18.7146,-39.904
497,-594,18.6711,39.1687,0.000581215,1.28882e-05,-0.00185565,0.00217434,-0.00158023,-0.709421,0.00217673,0.0106732,1721,1618,18.6712,-39.1687
504,-594,18.6252,38.4319,0.000131321,-0.000253546,-0.00187147,0.00182022,-0.00194245,-0.734166,0.00217276,0.0108497,1728,1618,18.6252,-38.4319
511,-594,18.5945,37.6516,-0.000311357,-0.000367843,-0.00192648,0.00158708,-0.00226628,-0.778069,0.00223623,0.0173655,1735,1618,18.5945,-37.6516
518,-594,18.5153,36.8718,-0.000842889,-0.000767287,-0.00180759,0.0010029,-0.00261307,-0.795853,0.00215557,0.0238406,1742,1618,18.5153,-36.8719
525,-594,18.4076,36.0884,-0.00134442,-0.0011574,-0.00171749,0.000469126,-0.00297094,-0.812594,0.0021541,0.0351482,1749,1618,18.4076,-36.0884
532,-594,18.7983,35.5448,0,0,0,0,0,0,0,-1,1756,1618,18.7983,-35.5448
539,-594,21.0237,24.9617,0,0,0,0,0,0,0,-1,1763,1618,21.0237,-24.9616
546,-594,7.48645,8.54785,0,0,0,0,0,0,0,-1,1770,1618,7.48639,-8.54789
553,-594,3.69714,5.68762,0,0,0,0,0,0,0,-1,1777,1618,3.69715,-5.68764
560,-594,6.06616,4.44482,0,0,0,0,0,0,0,-1,1784,1618,6.06621,-4.44477
567,-594,5.97266,4.73303,0,0,0,0,0,0,0,-1,1791,1618,5.97271,-4.73309
574,-594,5.9906,4.96326,0,0,0,0,0,0,0,-1,1798,1618,5.99065,-4.96326
581,-594,0,0,0,0,0,0,0,0,0,-1,1805,1618,0,0
588,-594,0,0,0,0,0,0,0,0,0,-1,1812,1618,0,0
595,-594,0,0,0,0,0,0,0,0,0,-1,1819,1618,0,0
602,-594,0,0,0,0,0,0,0,0,0,-1,1826,1618,0,0
609,-594,0,0,0,0,0,0,0,0,0,-1,1833,1618,0,0
616,-594,0,0,0,0,0,0,0,0,0,-1,1840,1618,0,0
623,-594,0,0,0,0,0,0,0,0,0,-1,1847,1618,0,0
630,-594,0,0,0,0,0,0,0,0,0,-1,1854,1618,0,0
637,-594,0,0,0,0,0,0,0,0,0,-1,1861,1618,0,0
644,-594,0,0,0,0,0,0,0,0,0,-1,1868,1618,0,0
651,-594,0,0,0,0,0,0,0,0,0,-1,1875,1618,0,0
658,-594,0,0,0,0,0,0,0,0,0,-1,1882,1618,0,0
665,-594,0,0,0,0,0,0,0,0,0,-1,1889,1618,0,0
672,-594,0,0,0,0,0,0,0,0,0,-1,1896,1618,0,0
679,-594,0,0,0,0,0,0,0,0,0,-1,1903,1618,0,0
686,-594,0,0,0,0,0,0,0,0,0,-1,1910,1618,0,0
693,-594,0,0,0,0,0,0,0,0,0,-1,1917,1618,0,0
700,-594,0,0,0,0,0,0,0,0,0,-1,1924,1618,0,0
707,-594,0,0,0,0,0,0,0,0,0,-1,1931,1618,0,0
714,-594,0,0,0,0,0,0,0,0,0,-1,1938,1618,0,0
721,-594,0,0,0,0,0,0,0,0,0,-1,1945,1618,0,0
728,-594,0,0,0,0,0,0,0,0,0,-1,1952,1618,0,0
735,-594,0,0,0,0,0,0,0,0,0,-1,1959,1618,0,0
742,-594,0,0,0,0,0,0,0,0,0,-1,1966,1618,0,0
749,-594,0,0,0,0,0,0,0,0,0,-1,1973,1618,0,0
756,-594,0,0,0,0,0,0,0,0,0,-1,1980,1618,0,0
763,-594,0,0,0,0,0,0,0,0,0,-1,1987,1618,0,0
770,-594,0,0,0,0,0,0,0,0,0,-1,1994,1618,0,0
777,-594,0,0,0,0,0,0,0,0,0,-1,2001,1618,0,0
784,-594,0,0,0,0,0,0,0,0,0,-1,2008,1618,0,0
791,-594,0,0,0,0,0,0,0,0,0,-1,2015,1618,0,0
798,-594,0,0,0,0,0,0,0,0,0,-1,2022,1618,0,0
805,-594,0,0,0,0,0,0,0,0,0,-1,2029,1618,0,0
812,-594,0,0,0,0,0,0,0,0,0,-1,2036,1618,0,0
-700,-601,0,0,0,0,0,0,0,0,0,-1,524,1625,0,0
-693,-601,0,0,0,0,0,0,0,0,0,-1,531,1625,0,0
-686,-601,0,0,0,0,0,0,0,0,0,-1,538,1625,0,0
-679,-601,0,0,0,0,0,0,0,0,0,-1,545,1625,0,0
-672,-601,0,0,0,0,0,0,0,0,0,-1,552,1625,0,0
-665,-601,0,0,0,0,0,0,0,0,0,-1,559,1625,0,0
-658,-601,0,0,0,0,0,0,0,0,0,-1,566,1625,0,0
-651,-601,0,0,0,0,0,0,0,0,0,-1,573,1625,0,0
-644,-601,0,0,0,0,0,0,0,0,0,-1,580,1625,0,0
-637,-601,0,0,0,0,0,0,0,0,0,-1,587,1625,0,0
-630,-601,0,0,0,0,0,0,0,0,0,-1,594,1625,0,0
-623,-601,0,0,0,0,0,0,0,0,0,-1,601,1625,0,0
-616,-601,0,0,0,0,0,0,0,0,0,-1,608,1625,0,0
-609,-601,0,0,0,0,0,0,0,0,0,-1,615,1625,0,0
-602,-601,0,0,0,0,0,0,0,0,0,-1,622,1625,0,0
-595,-601,0,0,0,0,0,0,0,0,0,-1,629,1625,0,0
-588,-601,0,0,0,0,0,0,0,0,0,-1,636,1625,0,0
-581,-601,0,0,0,0,0,0,0,0,0,-1,643,1625,0,0
-574,-601,0,0,0,0,0,0,0,0,0,-1,650,1625,0,0
-567,-601,0,0,0,0,0,0,0,0,0,-1,657,1625,0,0
-560,-601,0,0,0,0,0,0,0,0,0,-1,664,1625,0,0
-553,-601,0,0,0,0,0,0,0,0,0,-1,671,1625,0,0
-546,-601,0,0,0,0,0,0,0,0,0,-1,678,1625,0,0
-539,-601,0,0,0,0,0,0,0,0,0,-1,685,1625,0,0
-532,-601,0,0,0,0,0,0,0,0,0,-1,692,1625,0,0
-525,-601,0,0,0,0,0,0,0,0,0,-1,699,1625,0,0
-518,-601,0,0,0,0,0,0,0,0,0,-1,706,1625,0,0
-511,-601,0,0,0,0,0,0,0,0,0,-1,713,1625,0,0
-504,-601,0,0,0,0,0,0,0,0,0,-1,720,1625,0,0
-497,-601,0,0,0,0,0,0,0,0,0,-1,727,1625,0,0
-490,-601,0,0,0,0,0,0,0,0,0,-1,734,1625,0,0
-483,-601,0,0,0,0,0,0,0,0,0,-1,741,1625,0,0
-476,-601,0,0,0,0,0,0,0,0,0,-1,748,1625,0,0
-469,-601,0,0,0,0,0,0,0,0,0,-1,755,1625,0,0
-462,-601,0,0,0,0,0,0,0,0,0,-1,762,1625,0,0
-455,-601,0,0,0,0,0,0,0,0,0,-1,769,1625,0,0
-448,-601,-7.07623,2.7616,0,0,0,0,0,0,0,-1,776,1625,-7.07626,-2.76161
-441,-601,-6.06689,3.33447,0,0,0,0,0,0,0,-1,783,1625,-6.06691,-3.33448
-434,-601,-5.02655,3.8468,0,0,0,0,0,0,0,-1,790,1625,-5.02657,-3.84674
-427,-601,-5.78601,4.2406,0,0,0,0,0,0,0,-1,797,1625,-5.786,-4.24058
-420,-601,-5.5191,5.60364,0,0,0,0,0,0,0,-1,804,1625,-5.51907,-5.60368
-413,-601,-4.30756,5.86047,0,0,0,0,0,0,0,-1,811,1625,-4.30757,-5.86046
-406,-601,-1.67493,7.20422,0,0,0,0,0,0,0,-1,818,1625,-1.67493,-7.20428
-399,-601,1.40094,15.3108,0,0,0,0,0,0,0,-1,825,1625,1.40096,-15.3107
-392,-601,0.678833,30.98,0,0,0,0,0,0,0,-1,832,1625,0.678827,-30.98
-385,-601,-0.0147095,37.3687,0,0,0,0,0,0,0,-1,839,1625,-0.0147267,-37.3687
-378,-601,-0.407654,38.2852,0.0044586,0.00061289,0.00385451,0.00684325,-0.00177176,0.554031,0.00525331,0.0497333,846,1625,-0.407636,-38.2851
-371,-601,-0.362427,38.9203,0.00382904,5.9992e-05,0.00316262,0.00562603,-0.00173701,0.516708,0.00444432,0.0247537,853,1625,-0.362454,-38.9203
-364,-601,-0.393127,39.7327,0.00333885,-0.000520941,0.00258813,0.00463741,-0.0018195,0.465035,0.00384441,0.0136376,860,1625,-0.393102,-39.7327
-357,-601,-0.467102,40.5006,0.0031129,-0.000767784,0.00222023,0.00412117,-0.00177606,0.426284,0.00349335,0.0109012,867,1625,-0.467129,-40.5006
-350,-601,-0.476501,41.3087,0.00302392,-0.000747068,0.00199749,0.00388526,-0.0016084,0.407117,0.0032613,0.0219665,874,1625,-0.476521,-41.3087
-343,-601,-0.561218,42.1147,0.00300358,-0.000412428,0.00189208,0.00384455,-0.00125339,0.418242,0.00306741,0.0261807,881,1625,-0.56122,-42.1147
-336,-601,-0.656067,42.8536,0.00302117,9.2607e-05,0.00185889,0.00392323,-0.000809459,0.451795,0.00292291,0.0236219,888,1625,-0.656057,-42.8537
-329,-601,-0.644714,43.5773,0.00311981,0.00083501,0.00192529,0.00421612,-0.000261301,0.517635,0.00290177,0.0195077,895,1625,-0.644692,-43.5772
-322,-601,-0.65509,44.2694,0.00331799,0.00185692,0.00217429,0.00488119,0.000293717,0.623329,0.00316078,0.0146076,902,1625,-0.655088,-44.2694
-315,-601,-0.65564,44.9281,0.00366464,0.00283873,0.0024801,0.00576593,0.000737446,0.702901,0.00362324,0.0146827,909,1625,-0.65566,-44.9281
-308,-601,-0.69574,45.6563,0.00425043,0.00370677,0.0028792,0.0068706,0.0010866,0.738332,0.0042646,0.013764,916,1625,-0.695713,-45.6562
-301,-601,-0.718811,46.3911,0.0050899,0.00501781,0.00355966,0.00861369,0.00149401,0.780335,0.00531492,0.0112008,923,1625,-0.718794,-46.3911
-294,-601,-0.753357,47.0984,0.00610537,0.00646417,0.0044228,0.0107112,0.00185833,0.805668,0.00660903,0.010943,930,1625,-0.753359,-47.0984
-287,-601,-0.814331,47.8228,0.00730366,0.00795634,0.0053752,0.0130151,0.00224491,0.815717,0.00803367,0.0109976,937,1625,-0.814355,-47.8228
-280,-601,-0.813721,48.5321,0.00886432,0.00941105,0.00655189,0.0156953,0.00258009,0.806248,0.00971833,0.0120122,944,1625,-0.813732,-48.5321
-273,-601,-0.804321,49.2445,0.0105917,0.0109583,0.00777549,0.0185527,0.00299736,0.797185,0.0115003,0.0128425,951,1625,-0.804325,-49.2445
-266,-601,-0.758606,49.9514,0.0123538,0.0125656,0.00915424,0.0216146,0.00330487,0.791184,0.0134442,0.0163153,958,1625,-0.758595,-49.9514
-259,-601,-0.690674,50.5018,0.0142593,0.013983,0.0105929,0.024715,0.00352734,0.77888,0.0154358,0.0291471,965,1625,-0.6907,-50.5018
-252,-601,-0.571289,51.572,0.0163477,0.0154654,0.0121039,0.0280185,0.00379459,0.767183,0.0175514,0.0492622,972,1625,-0.571281,-51.572
-245,-601,-0.488159,52.6381,0,0,0,0,0,0,0,-1,979,1625,-0.48816,-52.6381
-238,-601,-0.0498657,52.927,0,0,0,0,0,0,0,-1,986,1625,-0.0498886,-52.9271
-231,-601,2.66772,13.7051,0,0,0,0,0,0,0,-1,993,1625,2.6677,-13.7051
-224,-601,-0.0305176,9.13684,0,0,0,0,0,0,0,-1,1000,1625,-0.030498,-9.13681
-217,-601,3.39429,10.3898,0,0,0,0,0,0,0,-1,1007,1625,3.39431,-10.3898
-210,-601,-6.53699,15.7931,0,0,0,0,0,0,0,-1,1014,1625,-6.53697,-15.7931
-203,-601,2.69348,15.9099,0,0,0,0,0,0,0,-1,1021,1625,2.69351,-15.91
-196,-601,2.66992,16.1815,0,0,0,0,0,0,0,-1,1028,1625,2.66995,-16.1815
-189,-601,2.849,16.6105,0,0,0,0,0,0,0,-1,1035,1625,2.84902,-16.6104
-182,-601,1.82153,13.9752,0,0,0,0,0,0,0,-1,1042,1625,1.82155,-13.9752
-175,-601,0.544922,9.28687,0,0,0,0,0,0,0,-1,1049,1625,0.544879,-9.28685
-168,-601,-0.247559,8.97461,0,0,0,0,0,0,0,-1,1056,1625,-0.247598,-8.97466
-161,-601,-1.16833,8.80078,0,0,0,0,0,0,0,-1,1063,1625,-1.16837,-8.80081
-154,-601,1.12756,7.94861,0,0,0,0,0,0,0,-1,1070,1625,1.12762,-7.94855
-147,-601,1.35352,9.55432,0,0,0,0,0,0,0,-1,1077,1625,1.35351,-9.55429
-140,-601,1.72437,11.1498,0,0,0,0,0,0,0,-1,1084,1625,1.72432,-11.1498
-133,-601,2.13281,12.8347,0,0,0,0,0,0,0,-1,1091,1625,2.13287,-12.8348
-126,-601,3.09534,15.427,0,0,0,0,0,0,0,-1,1098,1625,3.0953,-15.4271
-119,-601,1.22485,9.43457,0,0,0,0,0,0,0,-1,1105,1625,1.22489,-9.43456
-112,-601,0,0,0,0,0,0,0,0,0,-1,1112,1625,0,0
-105,-601,0,0,0,0,0,0,0,0,0,-1,1119,1625,0,0
-98,-601,0,0,0,0,0,0,0,0,0,-1,1126,1625,0,0
-91,-601,0,0,0,0,0,0,0,0,0,-1,1133,1625,0,0
-84,-601,0,0,0,0,0,0,0,0,0,-1,1140,1625,0,0
-77,-601,0,0,0,0,0,0,0,0,0,-1,1147,1625,0,0
-70,-601,0,0,0,0,0,0,0,0,0,-1,1154,1625,0,0
-63,-601,0,0,0,0,0,0,0,0,0,-1,1161,1625,0,0
-56,-601,0,0,0,0,0,0,0,0,0,-1,1168,1625,0,0
-49,-601,0,0,0,0,0,0,0,0,0,-1,1175,1625,0,0
-42,-601,0,0,0,0,0,0,0,0,0,-1,1182,1625,0,0
-35,-601,0,0,0,0,0,0,0,0,0,-1,1189,1625,0,0
-28,-601,0,0,0,0,0,0,0,0,0,-1,1196,1625,0,0
-21,-601,0,0,0,0,0,0,0,0,0,-1,1203,1625,0,0
-14,-601,0,0,0,0,0,0,0,0,0,-1,1210,1625,0,0
-7,-601,0,0,0,0,0,0,0,0,0,-1,1217,1625,0,0
0,-601,0,0,0,0,0,0,0,0,0,-1,1224,1625,0,0
7,-601,0,0,0,0,0,0,0,0,0,-1,1231,1625,0,0
14,-601,0,0,0,0,0,0,0,0,0,-1,1238,1625,0,0
21,-601,0,0,0,0,0,0,0,0,0,-1,1245,1625,0,0
28,-601,0,0,0,0,0,0,0,0,0,-1,1252,1625,0,0
35,-601,0,0,0,0,0,0,0,0,0,-1,1259,1625,0,0
42,-601,0,0,0,0,0,0,0,0,0,-1,1266,1625,0,0
49,-601,0,0,0,0,0,0,0,0,0,-1,1273,1625,0,0
56,-601,0,0,0,0,0,0,0,0,0,-1,1280,1625,0,0
63,-601,0,0,0,0,0,0,0,0,0,-1,1287,1625,0,0
70,-601,0,0,0,0,0,0,0,0,0,-1,1294,1625,0,0
77,-601,0,0,0,0,0,0,0,0,0,-1,1301,1625,0,0
84,-601,0,0,0,0,0,0,0,0,0,-1,1308,1625,0,0
91,-601,0,0,0,0,0,0,0,0,0,-1,1315,1625,0,0
98,-601,0,0,0,0,0,0,0,0,0,-1,1322,1625,0,0
105,-601,0,0,0,0,0,0,0,0,0,-1,1329,1625,0,0
112,-601,0,0,0,0,0,0,0,0,0,-1,1336,1625,0,0
119,-601,0,0,0,0,0,0,0,0,0,-1,1343,1625,0,0
126,-601,0,0,0,0,0,0,0,0,0,-1,1350,1625,0,0
133,-601,0,0,0,0,0,0,0,0,0,-1,1357,1625,0,0
140,-601,0,0,0,0,0,0,0,0,0,-1,1364,1625,0,0
147,-601,0,0,0,0,0,0,0,0,0,-1,1371,1625,0,0
154,-601,0,0,0,0,0,0,0,0,0,-1,1378,1625,0,0
161,-601,0,0,0,0,0,0,0,0,0,-1,1385,1625,0,0
168,-601,0,0,0,0,0,0,0,0,0,-1,1392,1625,0,0
175,-601,0,0,0,0,0,0,0,0,0,-1,1399,1625,0,0
182,-601,0,0,0,0,0,0,0,0,0,-1,1406,1625,0,0
189,-601,0,0,0,0,0,0,0,0,0,-1,1413,1625,0,0
196,-601,0,0,0,0,0,0,0,0,0,-1,1420,1625,0,0
203,-601,0,0,0,0,0,0,0,0,0,-1,1427,1625,0,0
210,-601,0,0,0,0,0,0,0,0,0,-1,1434,1625,0,0
217,-601,0,0,0,0,0,0,0,0,0,-1,1441,1625,0,0
224,-601,0,0,0,0,0,0,0,0,0,-1,1448,1625,0,0
231,-601,-0.0371094,0.525879,0,0,0,0,0,0,0,-1,1455,1625,-0.0371518,-0.525824
238,-601,2.03369,-1.32861,0,0,0,0,0,0,0,-1,1462,1625,2.03364,1.32858
245,-601,2.71375,2.44983,0,0,0,0,0,0,0,-1,1469,1625,2.71371,-2.44979
252,-601,4.66943,2.28381,0,0,0,0,0,0,0,-1,1476,1625,4.66947,-2.28376
259,-601,6.42712,2.61987,0,0,0,0,0,0,0,-1,1483,1625,6.42711,-2.61985
266,-601,6.75317,1.68701,0,0,0,0,0,0,0,-1,1490,1625,6.75323,-1.687
273,-601,5.4314,2.92053,0,0,0,0,0,0,0,-1,1497,1625,5.43144,-2.92051
280,-601,4.64722,1.17786,0,0,0,0,0,0,0,-1,1504,1625,4.64722,-1.1779
287,-601,5.32532,2.6217,0,0,0,0,0,0,0,-1,1511,1625,5.32535,-2.62171
294,-601,5.97693,4.22693,0,0,0,0,0,0,0,-1,1518,1625,5.97697,-4.22694
301,-601,7.28162,9.50024,0,0,0,0,0,0,0,-1,1525,1625,7.28162,-9.50025
308,-601,6.53528,10.3927,0,0,0,0,0,0,0,-1,1532,1625,6.53529,-10.3927
315,-601,4.88013,11.7184,0,0,0,0,0,0,0,-1,1539,1625,4.88015,-11.7184
322,-601,3.38098,12.7864,0,0,0,0,0,0,0,-1,1546,1625,3.38104,-12.7864
329,-601,1.8772,13.8768,0,0,0,0,0,0,0,-1,1553,1625,1.87716,-13.8768
336,-601,4.67847,9.53308,0,0,0,0,0,0,0,-1,1560,1625,4.67848,-9.53309
343,-601,11.1404,3.14575,0,0,0,0,0,0,0,-1,1567,1625,11.1404,-3.1458
350,-601,16.8986,54.5154,0,0,0,0,0,0,0,-1,1574,1625,16.8985,-54.5154
357,-601,17.2762,53.5797,0,0,0,0,0,0,0,-1,1581,1625,17.2763,-53.5797
364,-601,17.5978,54.0197,0,0,0,0,0,0,0,-1,1588,1625,17.5978,-54.0197
371,-601,17.7533,52.873,0.0239657,0.0223594,-0.0268196,0.0499942,-0.00366907,-0.770429,0.0346173,0.0478297,1595,1625,17.7533,-52.873
378,-601,17.8328,51.6969,0.0217397,0.0196263,-0.0222919,0.0429999,-0.00163395,-0.761715,0.0292265,0.0435469,1602,1625,17.8327,-51.6969
385,-601,17.9747,50.7936,0.0189795,0.0173774,-0.0179945,0.0361907,0.000166133,-0.763154,0.024072,0.0439023,1609,1625,17.9747,-50.7936
392,-601,18.1631,50.0211,0.0159432,0.015112,-0.0140785,0.0296123,0.00144292,-0.770643,0.0192786,0.0385647,1616,1625,18.1631,-50.0211
399,-601,18.3065,49.2212,0.0130916,0.0134141,-0.0108205,0.0240746,0.00243116,-0.792849,0.0153039,0.0197155,1623,1625,18.3065,-49.2212
406,-601,18.3572,48.4592,0.0105275,0.0118375,-0.0082754,0.0194838,0.00288125,-0.824891,0.0121433,0.0128018,1630,1625,18.3572,-48.4593
413,-601,18.3209,47.7665,0.0082489,0.01018,-0.00619346,0.0154827,0.00294616,-0.862724,0.00949337,0.0125081,1637,1625,18.321,-47.7665
420,-601,18.3036,47.0656,0.00635818,0.00890528,-0.00469645,0.0124978,0.00276566,-0.917801,0.00758006,0.0118477,1644,1625,18.3036,-47.0655
427,-601,18.3041,46.3806,0.00467393,0.00767385,-0.00324963,0.00975299,0.00259479,-1.00162,0.00583274,0.0167048,1651,1625,18.3041,-46.3806
434,-601,18.2574,45.6666,0.00337549,0.00659955,-0.0023651,0.00784974,0.0021253,-1.08453,0.00468816,0.0168864,1658,1625,18.2575,-45.6666
441,-601,18.2562,44.9644,0.00251788,0.00544846,-0.00206406,0.00651446,0.00145188,-1.09407,0.00394901,0.0179347,1665,1625,18.2562,-44.9644
448,-601,18.2327,44.2753,0.00203601,0.00425426,-0.00201795,0.0054478,0.000842466,-1.03668,0.00338616,0.0159079,1672,1625,18.2327,-44.2753
455,-601,18.2034,43.5364,0.00186021,0.00332823,-0.00209894,0.00481781,0.000370635,-0.953605,0.00309573,0.0142088,1679,1625,18.2033,-43.5364
462,-601,18.1599,42.8383,0.00181286,0.00234776,-0.00216654,0.00426329,-0.000102672,-0.84681,0.00287703,0.012939,1686,1625,18.1599,-42.8383
469,-601,18.1252,42.1586,0.00178577,0.00149798,-0.00224298,0.00388947,-0.000605718,-0.753365,0.00281668,0.0133755,1693,1625,18.1253,-42.1586
476,-601,18.0848,41.4274,0.00166262,0.000870381,-0.00224953,0.00355064,-0.00101764,-0.698246,0.00276935,0.0146013,1700,1625,18.0849,-41.4274
483,-601,18.0233,40.6965,0.00149381,0.000169635,-0.002312,0.00323665,-0.00157321,-0.645945,0.00283179,0.0168218,1707,1625,18.0233,-40.6965
490,-601,17.9843,39.9614,0.00115956,-0.000133031,-0.00239348,0.00299247,-0.00196594,-0.653531,0.00288312,0.01297,1714,1625,17.9843,-39.9614
497,-601,17.9609,39.2123,0.000771953,-0.000260643,-0.00257524,0.00288214,-0.00237083,-0.686467,0.00303758,0.012385,1721,1625,17.961,-39.2123
504,-601,17.9923,38.4435,0.000425639,-0.000228009,-0.00274821,0.00286639,-0.00266876,-0.726215,0.00319639,0.0267134,1728,1625,17.9923,-38.4434
511,-601,17.8744,37.7924,4.44748e-05,-9.71638e-05,-0.00296387,0.00293837,-0.00299106,-0.773453,0.00342341,0.043355,1735,1625,17.8744,-37.7924
518,-601,17.7542,36.8483,0,0,0,0,0,0,0,-1,1742,1625,17.7541,-36.8482
525,-601,17.5128,35.8875,0,0,0,0,0,0,0,-1,1749,1625,17.5128,-35.8874
532,-601,15.9053,24.3068,0,0,0,0,0,0,0,-1,1756,1625,15.9053,-24.3067
539,-601,7.77112,11.4299,0,0,0,0,0,0,0,-1,1763,1625,7.77116,-11.4299
546,-601,6.56873,3.62354,0,0,0,0,0,0,0,-1,1770,1625,6.56867,-3.62352
553,-601,7.03015,4.25049,0,0,0,0,0,0,0,-1,1777,1625,7.03011,-4.25048
560,-601,7.50745,4.83374,0,0,0,0,0,0,0,-1,1784,1625,7.50744,-4.83376
567,-601,7.82043,3.83301,0,0,0,0,0,0,0,-1,1791,1625,7.82041,-3.83303
574,-601,0,0,0,0,0,0,0,0,0,-1,1798,1625,0,0
581,-601,0,0,0,0,0,0,0,0,0,-1,1805,1625,0,0
588,-601,0,0,0,0,0,0,0,0,0,-1,1812,1625,0,0
595,-601,0,0,0,0,0,0,0,0,0,-1,1819,1625,0,0
602,-601,0,0,0,0,0,0,0,0,0,-1,1826,1625,0,0
609,-601,0,0,0,0,0,0,0,0,0,-1,1833,1625,0,0
616,-601,0,0,0,0,0,0,0,0,0,-1,1840,1625,0,0
623,-601,0,0,0,0,0,0,0,0,0,-1,1847,1625,0,0
630,-601,0,0,0,0,0,0,0,0,0,-1,1854,1625,0,0
637,-601,0,0,0,0,0,0,0,0,0,-1,1861,1625,0,0
644,-601,0,0,0,0,0,0,0,0,0,-1,1868,1625,0,0
651,-601,0,0,0,0,0,0,0,0,0,-1,1875,1625,0,0
658,-601,0,0,0,0,0,0,0,0,0,-1,1882,1625,0,0
665,-601,0,0,0,0,0,0,0,0,0,-1,1889,1625,0,0
672,-601,0,0,0,0,0,0,0,0,0,-1,1896,1625,0,0
679,-601,0,0,0,0,0,0,0,0,0,-1,1903,1625,0,0
686,-601,0,0,0,0,0,0,0,0,0,-1,1910,1625,0,0
693,-601,0,0,0,0,0,0,0,0,0,-1,1917,1625,0,0
700,-601,0,0,0,0,0,0,0,0,0,-1,1924,1625,0,0
707,-601,0,0,0,0,0,0,0,0,0,-1,1931,1625,0,0
714,-601,0,0,0,0,0,0,0,0,0,-1,1938,1625,0,0
721,-601,0,0,0,0,0,0,0,0,0,-1,1945,1625,0,0
728,-601,0,0,0,0,0,0,0,0,0,-1,1952,1625,0,0
735,-601,0,0,0,0,0,0,0,0,0,-1,1959,1625,0,0
742,-601,0,0,0,0,0,0,0,0,0,-1,1966,1625,0,0
749,-601,0,0,0,0,0,0,0,0,0,-1,1973,1625,0,0
756,-601,0,0,0,0,0,0,0,0,0,-1,1980,1625,0,0
763,-601,0,0,0,0,0,0,0,0,0,-1,1987,1625,0,0
770,-601,0,0,0,0,0,0,0,0,0,-1,1994,1625,0,0
777,-601,0,0,0,0,0,0,0,0,0,-1,2001,1625,0,0
784,-601,0,0,0,0,0,0,0,0,0,-1,2008,1625,0,0
791,-601,0,0,0,0,0,0,0,0,0,-1,2015,1625,0,0
798,-601,0,0,0,0,0,0,0,0,0,-1,2022,1625,0,0
805,-601,0,0,0,0,0,0,0,0,0,-1,2029,1625,0,0
812,-601,0,0,0,0,0,0,0,0,0,-1,2036,1625,0,0
-700,-608,0,0,0,0,0,0,0,0,0,-1,524,1632,0,0
-693,-608,0,0,0,0,0,0,0,0,0,-1,531,1632,0,0
-686,-608,0,0,0,0,0,0,0,0,0,-1,538,1632,0,0
-679,-608,0,0,0,0,0,0,0,0,0,-1,545,1632,0,0
-672,-608,0,0,0,0,0,0,0,0,0,-1,552,1632,0,0
-665,-608,0,0,0,0,0,0,0,0,0,-1,559,1632,0,0
-658,-608,0,0,0,0,0,0,0,0,0,-1,566,1632,0,0
-651,-608,0,0,0,0,0,0,0,0,0,-1,573,1632,0,0
-644,-608,0,0,0,0,0,0,0,0,0,-1,580,1632,0,0
-637,-608,0,0,0,0,0,0,0,0,0,-1,587,1632,0,0
-630,-608,0,0,0,0,0,0,0,0,0,-1,594,1632,0,0
-623,-608,0,0,0,0,0,0,0,0,0,-1,601,1632,0,0
-616,-608,0,0,0,0,0,0,0,0,0,-1,608,1632,0,0
-609,-608,0,0,0,0,0,0,0,0,0,-1,615,1632,0,0
-602,-608,0,0,0,0,0,0,0,0,0,-1,622,1632,0,0
-595,-608,0,0,0,0,0,0,0,0,0,-1,629,1632,0,0
-588,-608,0,0,0,0,0,0,0,0,0,-1,636,1632,0,0
-581,-608,0,0,0,0,0,0,0,0,0,-1,643,1632,0,0
-574,-608,0,0,0,0,0,0,0,0,0,-1,650,1632,0,0
-567,-608,0,0,0,0,0,0,0,0,0,-1,657,1632,0,0
-560,-608,0,0,0,0,0,0,0,0,0,-1,664,1632,0,0
-553,-608,0,0,0,0,0,0,0,0,0,-1,671,1632,0,0
-546,-608,0,0,0,0,0,0,0,0,0,-1,678,1632,0,0
-539,-608,0,0,0,0,0,0,0,0,0,-1,685,1632,0,0
-532,-608,0,0,0,0,0,0,0,0,0,-1,692,1632,0,0
-525,-608,0,0,0,0,0,0,0,0,0,-1,699,1632,0,0
-518,-608,0,0,0,0,0,0,0,0,0,-1,706,1632,0,0
-511,-608,0,0,0,0,0,0,0,0,0,-1,713,1632,0,0
-504,-608,0,0,0,0,0,0,0,0,0,-1,720,1632,0,0
-497,-608,0,0,0,0,0,0,0,0,0,-1,727,1632,0,0
-490,-608,0,0,0,0,0,0,0,0,0,-1,734,1632,0,0
-483,-608,0,0,0,0,0,0,0,0,0,-1,741,1632,0,0
-476,-608,0,0,0,0,0,0,0,0,0,-1,748,1632,0,0
-469,-608,0,0,0,0,0,0,0,0,0,-1,755,1632,0,0
-462,-608,0,0,0,0,0,0,0,0,0,-1,762,1632,0,0
-455,-608,0,0,0,0,0,0,0,0,0,-1,769,1632,0,0
-448,-608,0,0,0,0,0,0,0,0,0,-1,776,1632,0,0
-441,-608,-7.34601,2.78052,0,0,0,0,0,0,0,-1,783,1632,-7.346,-2.78056
-434,-608,-6.34558,3.27405,0,0,0,0,0,0,0,-1,790,1632,-6.34555,-3.27406
-427,-608,-7.74335,4.17688,0,0,0,0,0,0,0,-1,797,1632,-7.74334,-4.17693
-420,-608,-6.82794,4.34839,0,0,0,0,0,0,0,-1,804,1632,-6.82794,-4.34838
-413,-608,-5.41919,5.66138,0,0,0,0,0,0,0,-1,811,1632,-5.41917,-5.66133
-406,-608,-4.79681,4.98999,0,0,0,0,0,0,0,-1,818,1632,-4.79684,-4.98997
-399,-608,-2.60645,6.34167,0,0,0,0,0,0,0,-1,825,1632,-2.60643,-6.34169
-392,-608,2.08356,15.437,0,0,0,0,0,0,0,-1,832,1632,2.08354,-15.437
-385,-608,1.51526,31.5153,0,0,0,0,0,0,0,-1,839,1632,1.51527,-31.5153
-378,-608,0.340515,38.2742,0,0,0,0,0,0,0,-1,846,1632,0.340526,-38.2742
-371,-608,0.539429,38.8597,0,0,0,0,0,0,0,-1,853,1632,0.539406,-38.8597
-364,-608,0.383972,39.6659,0.00502425,-0.000530562,0.00342562,0.00665694,-0.00216325,0.44476,0.00530807,0.0273688,860,1632,0.383974,-39.6659
-357,-608,0.257141,40.479,0.00460781,-0.000941501,0.00303163,0.00594283,-0.00227653,0.414813,0.00490029,0.0200029,867,1632,0.257141,-40.479
-350,-608,0.25946,41.3073,0.00431637,-0.000995302,0.00275124,0.00548451,-0.00216344,0.40152,0.0045522,0.0213515,874,1632,0.259483,-41.3072
-343,-608,0.202454,42.092,0.00410334,-0.000687251,0.00258711,0.00523375,-0.00181766,0.411939,0.00422738,0.0270028,881,1632,0.202478,-42.0921
-336,-608,0.133301,42.8795,0.0038783,-0.000273524,0.00242654,0.00499574,-0.00139097,0.431558,0.00387821,0.0195352,888,1632,0.13329,-42.8796
-329,-608,0.0516968,43.6387,0.00368342,0.000302737,0.00231106,0.00485634,-0.000870183,0.469649,0.00356322,0.0185331,895,1632,0.0516688,-43.6387
-322,-608,0.00183105,44.3214,0.00356837,0.00113567,0.00235788,0.00500515,-0.000301109,0.547268,0.00344153,0.0185216,902,1632,0.00181896,-44.3214
-315,-608,0.0310669,44.9762,0.00360887,0.00191749,0.00245007,0.00535509,0.000171264,0.619215,0.00351437,0.0171925,909,1632,0.0310787,-44.9762
-308,-608,-0.00549316,45.7277,0.00388695,0.00260075,0.00260913,0.00593106,0.000556635,0.664567,0.00378218,0.0176685,916,1632,-0.00552299,-45.7277
-301,-608,-0.036499,46.4526,0.00438477,0.0036322,0.002997,0.00702902,0.000987961,0.722948,0.00439387,0.0115905,923,1632,-0.0364789,-46.4526
-294,-608,-0.0386353,47.1447,0.00507103,0.0047942,0.00355774,0.00849305,0.00137218,0.765956,0.00526459,0.011618,930,1632,-0.0386476,-47.1446
-287,-608,-0.0797729,47.8361,0.00587597,0.00596075,0.00417572,0.0100943,0.00174243,0.790474,0.00623047,0.0115996,937,1632,-0.0797933,-47.836
-280,-608,-0.0848389,48.531,0.00696839,0.00711472,0.00496162,0.0120037,0.0020794,0.792771,0.00740728,0.0102733,944,1632,-0.0848452,-48.5309
-273,-608,-0.132874,49.235,0.00828808,0.00822657,0.0058135,0.0140709,0.00244375,0.782753,0.00868144,0.0107466,951,1632,-0.132898,-49.235
-266,-608,-0.129822,49.9432,0.00969859,0.00946046,0.00681783,0.0163984,0.00276066,0.776667,0.0101381,0.0110826,958,1632,-0.129839,-49.9432
-259,-608,-0.0649414,50.6014,0.0112435,0.0106064,0.00784852,0.01878,0.00307002,0.765115,0.0116325,0.0152483,965,1632,-0.0649173,-50.6015
-252,-608,0.019043,51.261,0.0129139,0.0117803,0.00892515,0.0212902,0.00340398,0.753686,0.0132059,0.0271099,972,1632,0.0190497,-51.261
-245,-608,0.145142,52.2856,0.0144842,0.0128338,0.00994563,0.0236388,0.00367917,0.744007,0.0146872,0.0422946,979,1632,0.145127,-52.2857
-238,-608,0.192688,53.0745,0,0,0,0,0,0,0,-1,986,1632,0.192695,-53.0744
-231,-608,0.28894,53.5061,0,0,0,0,0,0,0,-1,993,1632,0.288912,-53.5061
-224,-608,1.53741,51.8016,0,0,0,0,0,0,0,-1,1000,1632,1.53741,-51.8016
-217,-608,1.04419,12.8451,0,0,0,0,0,0,0,-1,1007,1632,1.04418,-12.8451
-210,-608,2.75903,15.9414,0,0,0,0,0,0,0,-1,1014,1632,2.75903,-15.9414
-203,-608,2.76776,16.217,0,0,0,0,0,0,0,-1,1021,1632,2.76773,-16.217
-196,-608,1.53955,18.6058,0,0,0,0,0,0,0,-1,1028,1632,1.53959,-18.6058
-189,-608,1.37634,19.119,0,0,0,0,0,0,0,-1,1035,1632,1.37634,-19.1191
-182,-608,2.89221,16.7092,0,0,0,0,0,0,0,-1,1042,1632,2.89224,-16.7093
-175,-608,0.219116,15.1643,0,0,0,0,0,0,0,-1,1049,1632,0.219173,-15.1644
-168,-608,0.000366211,9.48645,0,0,0,0,0,0,0,-1,1056,1632,0.000317105,-9.48648
-161,-608,2.27832,15.4423,0,0,0,0,0,0,0,-1,1063,1632,2.27826,-15.4423
-154,-608,1.3999,16.4037,0,0,0,0,0,0,0,-1,1070,1632,1.39987,-16.4037
-147,-608,2.4386,9.50317,0,0,0,0,0,0,0,-1,1077,1632,2.43858,-9.50313
-140,-608,2.60132,10.8401,0,0,0,0,0,0,0,-1,1084,1632,2.60134,-10.8401
-133,-608,3.2312,12.4738,0,0,0,0,0,0,0,-1,1091,1632,3.23116,-12.4738
-126,-608,3.76465,13.9644,0,0,0,0,0,0,0,-1,1098,1632,3.76466,-13.9644
-119,-608,4.28906,15.4196,0,0,0,0,0,0,0,-1,1105,1632,4.28911,-15.4195
-112,-608,0.745117,10.5587,0,0,0,0,0,0,0,-1,1112,1632,0.745145,-10.5587
-105,-608,-0.252319,1.42419,0,0,0,0,0,0,0,-1,1119,1632,-0.252331,-1.42418
-98,-608,-2.8595,3.0863,0,0,0,0,0,0,0,-1,1126,1632,-2.85948,-3.08625
-91,-608,-3.71948,1.73608,0,0,0,0,0,0,0,-1,1133,1632,-3.7195,-1.73607
-84,-608,0,0,0,0,0,0,0,0,0,-1,1140,1632,0,0
-77,-608,0,0,0,0,0,0,0,0,0,-1,1147,1632,0,0
-70,-608,0,0,0,0,0,0,0,0,0,-1,1154,1632,0,0
-63,-608,0,0,0,0,0,0,0,0,0,-1,1161,1632,0,0
-56,-608,0,0,0,0,0,0,0,0,0,-1,1168,1632,0,0
-49,-608,0,0,0,0,0,0,0,0,0,-1,1175,1632,0,0
-42,-608,0,0,0,0,0,0,0,0,0,-1,1182,1632,0,0
-35,-608,0,0,0,0,0,0,0,0,0,-1,1189,1632,0,0
-28,-608,0,0,0,0,0,0,0,0,0,-1,1196,1632,0,0
-21,-608,0,0,0,0,0,0,0,0,0,-1,1203,1632,0,0
-14,-608,0,0,0,0,0,0,0,0,0,-1,1210,1632,0,0
-7,-608,0,0,0,0,0,0,0,0,0,-1,1217,1632,0,0
0,-608,0,0,0,0,0,0,0,0,0,-1,1224,1632,0,0
7,-608,0,0,0,0,0,0,0,0,0,-1,1231,1632,0,0
14,-608,0,0,0,0,0,0,0,0,0,-1,1238,1632,0,0
21,-608,0,0,0,0,0,0,0,0,0,-1,1245,1632,0,0
28,-608,0,0,0,0,0,0,0,0,0,-1,1252,1632,0,0
35,-608,0,0,0,0,0,0,0,0,0,-1,1259,1632,0,0
42,-608,0,0,0,0,0,0,0,0,0,-1,1266,1632,0,0
49,-608,0,0,0,0,0,0,0,0,0,-1,1273,1632,0,0
56,-608,0,0,0,0,0,0,0,0,0,-1,1280,1632,0,0
63,-608,0,0,0,0,0,0,0,0,0,-1,1287,1632,0,0
70,-608,0,0,0,0,0,0,0,0,0,-1,1294,1632,0,0
77,-608,0,0,0,0,0,0,0,0,0,-1,1301,1632,0,0
84,-608,0,0,0,0,0,0,0,0,0,-1,1308,1632,0,0
91,-608,0,0,0,0,0,0,0,0,0,-1,1315,1632,0,0
98,-608,0,0,0,0,0,0,0,0,0,-1,1322,1632,0,0
105,-608,0,0,0,0,0,0,0,0,0,-1,1329,1632,0,0
112,-608,0,0,0,0,0,0,0,0,0,-1,1336,1632,0,0
119,-608,0,0,0,0,0,0,0,0,0,-1,1343,1632,0,0
126,-608,0,0,0,0,0,0,0,0,0,-1,1350,1632,0,0
133,-608,0,0,0,0,0,0,0,0,0,-1,1357,1632,0,0
140,-608,0,0,0,0,0,0,0,0,0,-1,1364,1632,0,0
147,-608,0,0,0,0,0,0,0,0,0,-1,1371,1632,0,0
154,-608,0,0,0,0,0,0,0,0,0,-1,1378,1632,0,0
161,-608,0,0,0,0,0,0,0,0,0,-1,1385,1632,0,0
168,-608,0,0,0,0,0,0,0,0,0,-1,1392,1632,0,0
175,-608,0,0,0,0,0,0,0,0,0,-1,1399,1632,0,0
182,-608,0,0,0,0,0,0,0,0,0,-1,1406,1632,0,0
189,-608,0,0,0,0,0,0,0,0,0,-1,1413,1632,0,0
196,-608,0,0,0,0,0,0,0,0,0,-1,1420,1632,0,0
203,-608,0,0,0,0,0,0,0,0,0,-1,1427,1632,0,0
210,-608,5.7157,-0.333008,0,0,0,0,0,0,0,-1,1434,1632,5.71566,0.333004
217,-608,4.49402,-0.831787,0,0,0,0,0,0,0,-1,1441,1632,4.49396,0.831738
224,-608,4.18018,-1.11792,0,0,0,0,0,0,0,-1,1448,1632,4.1802,1.11796
231,-608,0.361816,0.825195,0,0,0,0,0,0,0,-1,1455,1632,0.36185,-0.825226
238,-608,2.85388,-0.28833,0,0,0,0,0,0,0,-1,1462,1632,2.85391,0.288282
245,-608,3.87537,4.02173,0,0,0,0,0,0,0,-1,1469,1632,3.87538,-4.02168
252,-608,5.66956,3.5282,0,0,0,0,0,0,0,-1,1476,1632,5.6696,-3.52815
259,-608,7.47437,3.07178,0,0,0,0,0,0,0,-1,1483,1632,7.4744,-3.07172
266,-608,9.46936,2.34766,0,0,0,0,0,0,0,-1,1490,1632,9.46932,-2.34764
273,-608,6.03003,3.34241,0,0,0,0,0,0,0,-1,1497,1632,6.02997,-3.34245
280,-608,5.72461,2.0769,0,0,0,0,0,0,0,-1,1504,1632,5.72457,-2.07688
287,-608,6.20581,3.59338,0,0,0,0,0,0,0,-1,1511,1632,6.20585,-3.59341
294,-608,6.94922,5.17151,0,0,0,0,0,0,0,-1,1518,1632,6.94925,-5.17151
301,-608,7.60083,6.68018,0,0,0,0,0,0,0,-1,1525,1632,7.60086,-6.68013
308,-608,7.64746,9.93848,0,0,0,0,0,0,0,-1,1532,1632,7.64745,-9.93842
315,-608,5.30688,11.2054,0,0,0,0,0,0,0,-1,1539,1632,5.30694,-11.2054
322,-608,5.32617,13.7581,0,0,0,0,0,0,0,-1,1546,1632,5.32613,-13.758
329,-608,7.12231,13.9607,0,0,0,0,0,0,0,-1,1553,1632,7.12231,-13.9607
336,-608,5.48633,7.82446,0,0,0,0,0,0,0,-1,1560,1632,5.48634,-7.82446
343,-608,5.47192,5.61047,0,0,0,0,0,0,0,-1,1567,1632,5.47192,-5.61045
350,-608,11.6957,1.71387,0,0,0,0,0,0,0,-1,1574,1632,11.6957,-1.71388
357,-608,3.77002,5.10046,0,0,0,0,0,0,0,-1,1581,1632,3.77002,-5.10043
364,-608,16.8955,53.9475,0,0,0,0,0,0,0,-1,1588,1632,16.8955,-53.9475
371,-608,17.1404,52.8062,0.0187305,0.0187804,-0.0203726,0.0391281,-0.00161719,-0.786011,0.0266408,0.0446366,1595,1632,17.1403,-52.8062
378,-608,17.3927,51.5964,0.0170125,0.0163689,-0.0170861,0.0337798,-0.000398392,-0.775982,0.0226538,0.0361865,1602,1632,17.3928,-51.5965
385,-608,17.5186,50.5569,0.0149438,0.0143011,-0.0139038,0.0285299,0.000714988,-0.773844,0.0187861,0.0329017,1609,1632,17.5185,-50.5569
392,-608,17.5939,49.8514,0.0126782,0.0123057,-0.0109729,0.0234664,0.00151739,-0.776912,0.0151638,0.0219696,1616,1632,17.5939,-49.8515
399,-608,17.6339,49.137,0.0104812,0.0107302,-0.00848858,0.0190952,0.00211619,-0.792731,0.0120866,0.0110253,1623,1632,17.6339,-49.137
406,-608,17.6577,48.4276,0.00849925,0.00925773,-0.00651594,0.0154055,0.00235152,-0.814466,0.00958312,0.00938272,1630,1632,17.6577,-48.4276
413,-608,17.6356,47.7488,0.00674482,0.00775847,-0.00489754,0.0121753,0.00232794,-0.836958,0.00746294,0.010548,1637,1632,17.6356,-47.7488
420,-608,17.5833,47.0897,0.00527075,0.00664027,-0.00373182,0.00974964,0.00216138,-0.876135,0.00591248,0.0197366,1644,1632,17.5833,-47.0897
427,-608,17.5997,46.3831,0.00392773,0.00558362,-0.00264311,0.00752542,0.00198593,-0.937181,0.00450338,0.0219562,1651,1632,17.5997,-46.3831
434,-608,17.5758,45.6885,0.00292314,0.00471721,-0.00204225,0.00605075,0.00158961,-0.992332,0.00362216,0.0166768,1658,1632,17.5758,-45.6885
441,-608,17.5439,45.0172,0.00228535,0.00378523,-0.0019191,0.00509572,0.000974865,-0.971663,0.00312332,0.0141853,1665,1632,17.5439,-45.0172
448,-608,17.5325,44.3342,0.00200095,0.00285945,-0.00203496,0.00450994,0.000350465,-0.889343,0.00289688,0.0150115,1672,1632,17.5324,-44.3343
455,-608,17.5179,43.5939,0.00196246,0.00212806,-0.00225367,0.00430045,-0.000209928,-0.80376,0.00293944,0.0115167,1679,1632,17.5179,-43.5939
462,-608,17.4635,42.8843,0.00199351,0.00131706,-0.00244612,0.00412468,-0.000814109,-0.716699,0.0030575,0.0116469,1686,1632,17.4635,-42.8843
469,-608,17.4032,42.1929,0.00205264,0.000649022,-0.00264765,0.00408992,-0.00138826,-0.655843,0.00328854,0.00929807,1693,1632,17.4031,-42.1929
476,-608,17.3644,41.4764,0.00202453,0.000206546,-0.00276535,0.00402645,-0.00179537,-0.626607,0.00344252,0.0090999,1700,1632,17.3644,-41.4764
483,-608,17.3378,40.7336,0.00194854,-0.000342285,-0.00296765,0.00398415,-0.0023779,-0.601223,0.00371195,0.00875235,1707,1632,17.3378,-40.7336
490,-608,17.3331,39.9943,0.00162469,-0.000398133,-0.00318552,0.0039555,-0.00272895,-0.63168,0.00388087,0.0120496,1714,1632,17.3331,-39.9943
497,-608,17.3406,39.2203,0.00131578,-0.000351986,-0.00351466,0.00409412,-0.00313033,-0.668922,0.00418339,0.0319231,1721,1632,17.3406,-39.2204
504,-608,17.527,38.3096,0,0,0,0,0,0,0,-1,1728,1632,17.527,-38.3096
511,-608,17.1603,37.9537,0,0,0,0,0,0,0,-1,1735,1632,17.1603,-37.9538
518,-608,17.4116,35.865,0,0,0,0,0,0,0,-1,1742,1632,17.4117,-35.865
525,-608,11.2109,16.2579,0,0,0,0,0,0,0,-1,1749,1632,11.2109,-16.2579
532,-608,8.27917,11.6693,0,0,0,0,0,0,0,-1,1756,1632,8.27919,-11.6694
539,-608,9.40796,1.43457,0,0,0,0,0,0,0,-1,1763,1632,9.40801,-1.43463
546,-608,9.94031,2.1134,0,0,0,0,0,0,0,-1,1770,1632,9.94031,-2.11346
553,-608,10.363,2.81335,0,0,0,0,0,0,0,-1,1777,1632,10.3631,-2.81333
560,-608,9.23999,4.5636,0,0,0,0,0,0,0,-1,1784,1632,9.24,-4.56354
567,-608,0,0,0,0,0,0,0,0,0,-1,1791,1632,0,0
574,-608,0,0,0,0,0,0,0,0,0,-1,1798,1632,0,0
581,-608,0,0,0,0,0,0,0,0,0,-1,1805,1632,0,0
588,-608,0,0,0,0,0,0,0,0,0,-1,1812,1632,0,0
595,-608,0,0,0,0,0,0,0,0,0,-1,1819,1632,0,0
602,-608,0,0,0,0,0,0,0,0,0,-1,1826,1632,0,0
609,-608,0,0,0,0,0,0,0,0,0,-1,1833,1632,0,0
616,-608,0,0,0,0,0,0,0,0,0,-1,1840,1632,0,0
623,-608,0,0,0,0,0,0,0,0,0,-1,1847,1632,0,0
630,-608,0,0,0,0,0,0,0,0,0,-1,1854,1632,0,0
637,-608,0,0,0,0,0,0,0,0,0,-1,1861,1632,0,0
644,-608,0,0,0,0,0,0,0,0,0,-1,1868,1632,0,0
651,-608,0,0,0,0,0,0,0,0,0,-1,1875,1632,0,0
658,-608,0,0,0,0,0,0,0,0,0,-1,1882,1632,0,0
665,-608,0,0,0,0,0,0,0,0,0,-1,1889,1632,0,0
672,-608,0,0,0,0,0,0,0,0,0,-1,1896,1632,0,0
679,-608,0,0,0,0,0,0,0,0,0,-1,1903,1632,0,0
686,-608,0,0,0,0,0,0,0,0,0,-1,1910,1632,0,0
693,-608,0,0,0,0,0,0,0,0,0,-1,1917,1632,0,0
700,-608,0,0,0,0,0,0,0,0,0,-1,1924,1632,0,0
707,-608,0,0,0,0,0,0,0,0,0,-1,1931,1632,0,0
714,-608,0,0,0,0,0,0,0,0,0,-1,1938,1632,0,0
721,-608,0,0,0,0,0,0,0,0,0,-1,1945,1632,0,0
728,-608,0,0,0,0,0,0,0,0,0,-1,1952,1632,0,0
735,-608,0,0,0,0,0,0,0,0,0,-1,1959,1632,0,0
742,-608,0,0,0,0,0,0,0,0,0,-1,1966,1632,0,0
749,-608,0,0,0,0,0,0,0,0,0,-1,1973,1632,0,0
756,-608,0,0,0,0,0,0,0,0,0,-1,1980,1632,0,0
763,-608,0,0,0,0,0,0,0,0,0,-1,1987,1632,0,0
770,-608,0,0,0,0,0,0,0,0,0,-1,1994,1632,0,0
777,-608,0,0,0,0,0,0,0,0,0,-1,2001,1632,0,0
784,-608,0,0,0,0,0,0,0,0,0,-1,2008,1632,0,0
791,-608,0,0,0,0,0,0,0,0,0,-1,2015,1632,0,0
798,-608,0,0,0,0,0,0,0,0,0,-1,2022,1632,0,0
805,-608,0,0,0,0,0,0,0,0,0,-1,2029,1632,0,0
812,-608,0,0,0,0,0,0,0,0,0,-1,2036,1632,0,0
-700,-615,0,0,0,0,0,0,0,0,0,-1,524,1639,0,0
-693,-615,0,0,0,0,0,0,0,0,0,-1,531,1639,0,0
-686,-615,0,0,0,0,0,0,0,0,0,-1,538,1639,0,0
-679,-615,0,0,0,0,0,0,0,0,0,-1,545,1639,0,0
-672,-615,0,0,0,0,0,0,0,0,0,-1,552,1639,0,0
-665,-615,0,0,0,0,0,0,0,0,0,-1,559,1639,0,0
-658,-615,0,0,0,0,0,0,0,0,0,-1,566,1639,0,0
-651,-615,0,0,0,0,0,0,0,0,0,-1,573,1639,0,0
-644,-615,0,0,0,0,0,0,0,0,0,-1,580,1639,0,0
-637,-615,0,0,0,0,0,0,0,0,0,-1,587,1639,0,0
-630,-615,0,0,0,0,0,0,0,0,0,-1,594,1639,0,0
-623,-615,0,0,0,0,0,0,0,0,0,-1,601,1639,0,0
-616,-615,0,0,0,0,0,0,0,0,0,-1,608,1639,0,0
-609,-615,0,0,0,0,0,0,0,0,0,-1,615,1639,0,0
-602,-615,0,0,0,0,0,0,0,0,0,-1,622,1639,0,0
-595,-615,0,0,0,0,0,0,0,0,0,-1,629,1639,0,0
-588,-615,0,0,0,0,0,0,0,0,0,-1,636,1639,0,0
-581,-615,0,0,0,0,0,0,0,0,0,-1,643,1639,0,0
-574,-615,0,0,0,0,0,0,0,0,0,-1,650,1639,0,0
-567,-615,0,0,0,0,0,0,0,0,0,-1,657,1639,0,0
-560,-615,0,0,0,0,0,0,0,0,0,-1,664,1639,0,0
-553,-615,0,0,0,0,0,0,0,0,0,-1,671,1639,0,0
-546,-615,0,0,0,0,0,0,0,0,0,-1,678,1639,0,0
-539,-615,0,0,0,0,0,0,0,0,0,-1,685,1639,0,0
-532,-615,0,0,0,0,0,0,0,0,0,-1,692,1639,0,0
-525,-615,0,0,0,0,0,0,0,0,0,-1,699,1639,0,0
-518,-615,0,0,0,0,0,0,0,0,0,-1,706,1639,0,0
-511,-615,0,0,0,0,0,0,0,0,0,-1,713,1639,0,0
-504,-615,0,0,0,0,0,0,0,0,0,-1,720,1639,0,0
-497,-615,0,0,0,0,0,0,0,0,0,-1,727,1639,0,0
-490,-615,0,0,0,0,0,0,0,0,0,-1,734,1639,0,0
-483,-615,0,0,0,0,0,0,0,0,0,-1,741,1639,0,0
-476,-615,0,0,0,0,0,0,0,0,0,-1,748,1639,0,0
-469,-615,0,0,0,0,0,0,0,0,0,-1,755,1639,0,0
-462,-615,0,0,0,0,0,0,0,0,0,-1,762,1639,0,0
-455,-615,0,0,0,0,0,0,0,0,0,-1,769,1639,0,0
-448,-615,0,0,0,0,0,0,0,0,0,-1,776,1639,0,0
-441,-615,0,0,0,0,0,0,0,0,0,-1,783,1639,0,0
-434,-615,-7.64508,2.98596,0,0,0,0,0,0,0,-1,790,1639,-7.64505,-2.98594
-427,-615,-9.0011,2.89404,0,0,0,0,0,0,0,-1,797,1639,-9.00107,-2.89399
-420,-615,-8.07568,3.0752,0,0,0,0,0,0,0,-1,804,1639,-8.07569,-3.07514
-413,-615,-7.09149,3.396,0,0,0,0,0,0,0,-1,811,1639,-7.09147,-3.39599
-406,-615,-6.21368,3.7312,0,0,0,0,0,0,0,-1,818,1639,-6.21366,-3.73114
-399,-615,-4.84875,3.91907,0,0,0,0,0,0,0,-1,825,1639,-4.84877,-3.91901
-392,-615,1.7395,13.3127,0,0,0,0,0,0,0,-1,832,1639,1.73953,-13.3128
-385,-615,3.42297,14.9401,0,0,0,0,0,0,0,-1,839,1639,3.42296,-14.94
-378,-615,1.73071,36.7645,0,0,0,0,0,0,0,-1,846,1639,1.73071,-36.7646
-371,-615,1.50739,37.6987,0,0,0,0,0,0,0,-1,853,1639,1.50741,-37.6987
-364,-615,0.965576,39.8539,0,0,0,0,0,0,0,-1,860,1639,0.96555,-39.8539
-357,-615,0.921448,40.5562,0,0,0,0,0,0,0,-1,867,1639,0.921463,-40.5561
-350,-615,0.984436,41.4695,0.00776881,-0.00078082,0.00443983,0.00965729,-0.00266929,0.402166,0.00748826,0.0368313,874,1639,0.984433,-41.4695
-343,-615,0.90918,42.0923,0.00723267,-0.000470466,0.00419996,0.00907972,-0.00231751,0.41432,0.00695556,0.0227425,881,1639,0.909159,-42.0923
-336,-615,0.872131,42.8683,0.00659754,-0.000137372,0.00387362,0.00836279,-0.00190262,0.427593,0.00630582,0.0121048,888,1639,0.872108,-42.8683
-329,-615,0.795105,43.6158,0.00590252,0.000284367,0.00352619,0.00760176,-0.00141488,0.449056,0.00559937,0.0125784,895,1639,0.795089,-43.6158
-322,-615,0.765869,44.3605,0.00525508,0.000924412,0.00330932,0.00704453,-0.000865035,0.495698,0.00500965,0.0137691,902,1639,0.765871,-44.3604
-315,-615,0.767212,45.1064,0.0047507,0.00150057,0.00311638,0.00664027,-0.000388998,0.545065,0.00456204,0.017272,909,1639,0.767192,-45.1064
-308,-615,0.681458,45.8198,0.00448887,0.00199275,0.00297193,0.00646417,1.74558e-05,0.586606,0.00430364,0.0252928,916,1639,0.681462,-45.8198
-301,-615,0.679504,46.4816,0.00443559,0.00273051,0.00300865,0.00671016,0.000455944,0.647336,0.00432947,0.0135385,923,1639,0.679482,-46.4816
-294,-615,0.655396,47.1732,0.00462918,0.00360277,0.0032251,0.00738165,0.000850292,0.706495,0.00466358,0.0108964,930,1639,0.655386,-47.1732
-287,-615,0.624207,47.8698,0.00494446,0.00446661,0.00349588,0.00820957,0.0012015,0.751279,0.00511976,0.0091255,937,1639,0.624201,-47.8697
-280,-615,0.611572,48.5671,0.00552033,0.00537411,0.00390977,0.00935767,0.00153677,0.776049,0.00579452,0.0124887,944,1639,0.61157,-48.5671
-273,-615,0.566223,49.2629,0.00641479,0.00614462,0.00441962,0.0107014,0.00185802,0.770121,0.00660264,0.0142093,951,1639,0.566193,-49.263
-266,-615,0.526611,49.9387,0.00748458,0.00704217,0.00504836,0.0123166,0.00221016,0.763504,0.00758247,0.0136315,958,1639,0.526609,-49.9387
-259,-615,0.546631,50.5955,0.00877987,0.00795964,0.00574061,0.014125,0.00261451,0.749738,0.00867746,0.0144264,965,1639,0.546624,-50.5954
-252,-615,0.558716,51.2971,0.0100849,0.00889499,0.00642177,0.0159392,0.00304067,0.739207,0.00977157,0.0167207,972,1639,0.558712,-51.2971
-245,-615,0.671204,52.106,0.011283,0.00973955,0.00708941,0.0176425,0.00337997,0.731185,0.0108126,0.0256172,979,1639,0.671192,-52.1059
-238,-615,0.69165,52.7798,0.012503,0.00966888,0.00752659,0.0187448,0.00342712,0.69235,0.0115253,0.0335586,986,1639,0.691623,-52.7797
-231,-615,0.775879,53.3838,0.0134858,0.00734473,0.00757021,0.0185845,0.00224605,0.592732,0.011713,0.0434705,993,1639,0.775861,-53.3837
-224,-615,0.909058,54.2426,0,0,0,0,0,0,0,-1,1000,1639,0.909062,-54.2426
-217,-615,2.12091,52.5619,0,0,0,0,0,0,0,-1,1007,1639,2.12091,-52.5618
-210,-615,2.48901,18.9324,0,0,0,0,0,0,0,-1,1014,1639,2.48902,-18.9323
-203,-615,2.13684,18.6173,0,0,0,0,0,0,0,-1,1021,1639,2.13683,-18.6173
-196,-615,4.27161,21.3264,0,0,0,0,0,0,0,-1,1028,1639,4.27165,-21.3264
-189,-615,2.07971,55.2854,0,0,0,0,0,0,0,-1,1035,1639,2.07976,-55.2854
-182,-615,2.98364,52.7119,0,0,0,0,0,0,0,-1,1042,1639,2.9836,-52.7119
-175,-615,2.25159,49.2682,0,0,0,0,0,0,0,-1,1049,1639,2.25158,-49.2682
-168,-615,3.85754,15.472,0,0,0,0,0,0,0,-1,1056,1639,3.85757,-15.472
-161,-615,2.14307,46.5156,0,0,0,0,0,0,0,-1,1063,1639,2.14303,-46.5156
-154,-615,1.37329,47.9545,0,0,0,0,0,0,0,-1,1070,1639,1.37327,-47.9545
-147,-615,0.0180664,48.1396,0,0,0,0,0,0,0,-1,1077,1639,0.0180157,-48.1397
-140,-615,3.73401,10.2349,0,0,0,0,0,0,0,-1,1084,1639,3.73402,-10.2348
-133,-615,2.6178,17.45,0,0,0,0,0,0,0,-1,1091,1639,2.61776,-17.4499
-126,-615,4.43408,12.5017,0,0,0,0,0,0,0,-1,1098,1639,4.43403,-12.5018
-119,-615,4.82983,13.9279,0,0,0,0,0,0,0,-1,1105,1639,4.82986,-13.9278
-112,-615,3.65698,14.4874,0,0,0,0,0,0,0,-1,1112,1639,3.65695,-14.4875
-105,-615,0.958496,2.45398,0,0,0,0,0,0,0,-1,1119,1639,0.958452,-2.45398
-98,-615,-0.647705,2.12109,0,0,0,0,0,0,0,-1,1126,1639,-0.647756,-2.12105
-91,-615,-3.07983,2.97375,0,0,0,0,0,0,0,-1,1133,1639,-3.07989,-2.97376
-84,-615,-2.46509,0.703247,0,0,0,0,0,0,0,-1,1140,1639,-2.46505,-0.703273
-77,-615,-3.17859,1.23755,0,0,0,0,0,0,0,-1,1147,1639,-3.17865,-1.23752
-70,-615,-4.03943,1.43335,0,0,0,0,0,0,0,-1,1154,1639,-4.03942,-1.43339
-63,-615,-4.8877,1.45544,0,0,0,0,0,0,0,-1,1161,1639,-4.88766,-1.45549
-56,-615,0,0,0,0,0,0,0,0,0,-1,1168,1639,0,0
-49,-615,0,0,0,0,0,0,0,0,0,-1,1175,1639,0,0
-42,-615,0,0,0,0,0,0,0,0,0,-1,1182,1639,0,0
-35,-615,0,0,0,0,0,0,0,0,0,-1,1189,1639,0,0
-28,-615,0,0,0,0,0,0,0,0,0,-1,1196,1639,0,0
-21,-615,0,0,0,0,0,0,0,0,0,-1,1203,1639,0,0
-14,-615,0,0,0,0,0,0,0,0,0,-1,1210,1639,0,0
-7,-615,0,0,0,0,0,0,0,0,0,-1,1217,1639,0,0
0,-615,0,0,0,0,0,0,0,0,0,-1,1224,1639,0,0
7,-615,0,0,0,0,0,0,0,0,0,-1,1231,1639,0,0
14,-615,0,0,0,0,0,0,0,0,0,-1,1238,1639,0,0
21,-615,0,0,0,0,0,0,0,0,0,-1,1245,1639,0,0
28,-615,0,0,0,0,0,0,0,0,0,-1,1252,1639,0,0
35,-615,0,0,0,0,0,0,0,0,0,-1,1259,1639,0,0
42,-615,0,0,0,0,0,0,0,0,0,-1,1266,1639,0,0
49,-615,0,0,0,0,0,0,0,0,0,-1,1273,1639,0,0
56,-615,0,0,0,0,0,0,0,0,0,-1,1280,1639,0,0
63,-615,0,0,0,0,0,0,0,0,0,-1,1287,1639,0,0
70,-615,0,0,0,0,0,0,0,0,0,-1,1294,1639,0,0
77,-615,0,0,0,0,0,0,0,0,0,-1,1301,1639,0,0
84,-615,0,0,0,0,0,0,0,0,0,-1,1308,1639,0,0
91,-615,0,0,0,0,0,0,0,0,0,-1,1315,1639,0,0
98,-615,0,0,0,0,0,0,0,0,0,-1,1322,1639,0,0
105,-615,0,0,0,0,0,0,0,0,0,-1,1329,1639,0,0
112,-615,0,0,0,0,0,0,0,0,0,-1,1336,1639,0,0
119,-615,0,0,0,0,0,0,0,0,0,-1,1343,1639,0,0
126,-615,0,0,0,0,0,0,0,0,0,-1,1350,1639,0,0
133,-615,0,0,0,0,0,0,0,0,0,-1,1357,1639,0,0
140,-615,0,0,0,0,0,0,0,0,0,-1,1364,1639,0,0
147,-615,0,0,0,0,0,0,0,0,0,-1,1371,1639,0,0
154,-615,0,0,0,0,0,0,0,0,0,-1,1378,1639,0,0
161,-615,0,0,0,0,0,0,0,0,0,-1,1385,1639,0,0
168,-615,0,0,0,0,0,0,0,0,0,-1,1392,1639,0,0
175,-615,5.39648,-2.00879,0,0,0,0,0,0,0,-1,1399,1639,5.3965,2.00881
182,-615,5.65393,-1.51025,0,0,0,0,0,0,0,-1,1406,1639,5.65388,1.51028
189,-615,5.58972,-1.35608,0,0,0,0,0,0,0,-1,1413,1639,5.58967,1.35607
196,-615,5.49915,-0.693604,0,0,0,0,0,0,0,-1,1420,1639,5.4991,0.693602
203,-615,5.33411,-0.226685,0,0,0,0,0,0,0,-1,1427,1639,5.33414,0.226689
210,-615,5.60278,0.108276,0,0,0,0,0,0,0,-1,1434,1639,5.60284,-0.10831
217,-615,6.26331,-0.307373,0,0,0,0,0,0,0,-1,1441,1639,6.26331,0.307372
224,-615,5.45422,-0.333984,0,0,0,0,0,0,0,-1,1448,1639,5.45422,0.333992
231,-615,4.92542,1.80298,0,0,0,0,0,0,0,-1,1455,1639,4.92537,-1.80297
238,-615,4.76355,1.96729,0,0,0,0,0,0,0,-1,1462,1639,4.76357,-1.96734
245,-615,4.08643,3.15906,0,0,0,0,0,0,0,-1,1469,1639,4.08638,-3.159
252,-615,6.37805,3.73889,0,0,0,0,0,0,0,-1,1476,1639,6.37806,-3.73891
259,-615,8.35974,3.16443,0,0,0,0,0,0,0,-1,1483,1639,8.35975,-3.16444
266,-615,10.3414,2.58997,0,0,0,0,0,0,0,-1,1490,1639,10.3414,-2.58996
273,-615,6.57043,1.84766,0,0,0,0,0,0,0,-1,1497,1639,6.5704,-1.84771
280,-615,7.10449,3.23438,0,0,0,0,0,0,0,-1,1504,1639,7.10447,-3.23435
287,-615,7.35779,4.68542,0,0,0,0,0,0,0,-1,1511,1639,7.35776,-4.68546
294,-615,7.63733,6.29114,0,0,0,0,0,0,0,-1,1518,1639,7.63735,-6.29109
301,-615,8.47925,11.452,0,0,0,0,0,0,0,-1,1525,1639,8.47922,-11.452
308,-615,6.8114,10.9059,0,0,0,0,0,0,0,-1,1532,1639,6.81137,-10.9058
315,-615,5.1427,14.7251,0,0,0,0,0,0,0,-1,1539,1639,5.14269,-14.7251
322,-615,7.17981,17.6864,0,0,0,0,0,0,0,-1,1546,1639,7.17985,-17.6864
329,-615,7.62134,20.4354,0,0,0,0,0,0,0,-1,1553,1639,7.62139,-20.4354
336,-615,6.45007,14.1138,0,0,0,0,0,0,0,-1,1560,1639,6.45011,-14.1138
343,-615,2.40491,6.50134,0,0,0,0,0,0,0,-1,1567,1639,2.40489,-6.50137
350,-615,15.046,46.4662,0,0,0,0,0,0,0,-1,1574,1639,15.046,-46.4662
357,-615,16.9232,53.8081,0,0,0,0,0,0,0,-1,1581,1639,16.9232,-53.8081
364,-615,16.3036,53.1581,0,0,0,0,0,0,0,-1,1588,1639,16.3035,-53.1581
371,-615,16.6416,52.276,0,0,0,0,0,0,0,-1,1595,1639,16.6416,-52.276
378,-615,16.938,51.2987,0,0,0,0,0,0,0,-1,1602,1639,16.938,-51.2987
385,-615,16.9908,50.4611,0.0115798,0.0116074,-0.0105484,0.022142,0.00104519,-0.786052,0.0144256,0.0119543,1609,1639,16.9908,-50.461
392,-615,16.9982,49.7994,0.00990198,0.00990227,-0.00840989,0.018312,0.00149223,-0.785407,0.0117422,0.0109666,1616,1639,16.9982,-49.7994
399,-615,16.9779,49.1338,0.00822398,0.00850949,-0.00657818,0.0149465,0.00178701,-0.796247,0.00942528,0.0122531,1623,1639,16.9779,-49.1337
406,-615,16.9601,48.4581,0.00671388,0.00718286,-0.00510771,0.0120615,0.00183527,-0.808337,0.0075044,0.0115121,1630,1639,16.9601,-48.4582
413,-615,16.949,47.7994,0.00539475,0.00586277,-0.00390923,0.00954499,0.00171254,-0.815293,0.00587626,0.012408,1637,1639,16.949,-47.7995
420,-615,16.929,47.1343,0.00428605,0.00489522,-0.00305667,0.00766245,0.00151882,-0.835057,0.00468482,0.0139612,1644,1639,16.9289,-47.1342
427,-615,16.9113,46.4307,0.00327322,0.00399801,-0.00231203,0.00597588,0.00129535,-0.863138,0.00363001,0.015991,1651,1639,16.9113,-46.4307
434,-615,16.8807,45.7314,0.00255572,0.00329811,-0.00198349,0.00494484,0.000908987,-0.877899,0.00303922,0.0155294,1658,1639,16.8808,-45.7314
441,-615,16.8585,45.0431,0.00215969,0.00254378,-0.0020301,0.0043909,0.000312573,-0.832557,0.00282884,0.015674,1665,1639,16.8585,-45.0431
448,-615,16.8395,44.3722,0.00208787,0.00184025,-0.00229511,0.0042625,-0.000334385,-0.758452,0.00295943,0.0146587,1672,1639,16.8395,-44.3722
455,-615,16.8154,43.6555,0.00220314,0.00126031,-0.00263851,0.00441201,-0.000948563,-0.696998,0.00330325,0.0133804,1679,1639,16.8154,-43.6556
462,-615,16.7761,42.9617,0.00233875,0.000588975,-0.00295022,0.00454107,-0.00161335,-0.641254,0.00368483,0.0140936,1686,1639,16.7762,-42.9617
469,-615,16.7106,42.2374,0.00250746,7.20686e-05,-0.00327257,0.00478154,-0.00220201,-0.607288,0.00412262,0.0117485,1693,1639,16.7106,-42.2374
476,-615,16.6886,41.4921,0.00259711,-0.000249455,-0.00349305,0.00494571,-0.00259806,-0.591937,0.00442514,0.0116165,1700,1639,16.6887,-41.4921
483,-615,16.7197,40.6558,0.00263457,-0.00067939,-0.00383547,0.00515568,-0.0032005,-0.5815,0.00486826,0.0315254,1707,1639,16.7197,-40.6558
490,-615,16.7596,39.9485,0,0,0,0,0,0,0,-1,1714,1639,16.7596,-39.9485
497,-615,16.7543,39.0613,0,0,0,0,0,0,0,-1,1721,1639,16.7543,-39.0613
504,-615,16.4989,34.738,0,0,0,0,0,0,0,-1,1728,1639,16.4989,-34.738
511,-615,15.2349,30.2052,0,0,0,0,0,0,0,-1,1735,1639,15.2348,-30.2052
518,-615,13.2416,9.81812,0,0,0,0,0,0,0,-1,1742,1639,13.2416,-9.81813
525,-615,4.37524,3.90491,0,0,0,0,0,0,0,-1,1749,1639,4.37518,-3.90495
532,-615,7.3645,0.848145,0,0,0,0,0,0,0,-1,1756,1639,7.36451,-0.848093
539,-615,12.8112,-0.0476074,0,0,0,0,0,0,0,-1,1763,1639,12.8111,0.0475553
546,-615,8.33813,2.94556,0,0,0,0,0,0,0,-1,1770,1639,8.33813,-2.9455
553,-615,5.82532,-2.04199,0,0,0,0,0,0,0,-1,1777,1639,5.82534,2.04195
560,-615,0,0,0,0,0,0,0,0,0,-1,1784,1639,0,0
567,-615,0,0,0,0,0,0,0,0,0,-1,1791,1639,0,0
574,-615,0,0,0,0,0,0,0,0,0,-1,1798,1639,0,0
581,-615,0,0,0,0,0,0,0,0,0,-1,1805,1639,0,0
588,-615,0,0,0,0,0,0,0,0,0,-1,1812,1639,0,0
595,-615,0,0,0,0,0,0,0,0,0,-1,1819,1639,0,0
602,-615,0,0,0,0,0,0,0,0,0,-1,1826,1639,0,0
609,-615,0,0,0,0,0,0,0,0,0,-1,1833,1639,0,0
616,-615,0,0,0,0,0,0,0,0,0,-1,1840,1639,0,0
623,-615,0,0,0,0,0,0,0,0,0,-1,1847,1639,0,0
630,-615,0,0,0,0,0,0,0,0,0,-1,1854,1639,0,0
637,-615,0,0,0,0,0,0,0,0,0,-1,1861,1639,0,0
644,-615,0,0,0,0,0,0,0,0,0,-1,1868,1639,0,0
651,-615,0,0,0,0,0,0,0,0,0,-1,1875,1639,0,0
658,-615,0,0,0,0,0,0,0,0,0,-1,1882,1639,0,0
665,-615,0,0,0,0,0,0,0,0,0,-1,1889,1639,0,0
672,-615,0,0,0,0,0,0,0,0,0,-1,1896,1639,0,0
679,-615,0,0,0,0,0,0,0,0,0,-1,1903,1639,0,0
686,-615,0,0,0,0,0,0,0,0,0,-1,1910,1639,0,0
693,-615,0,0,0,0,0,0,0,0,0,-1,1917,1639,0,0
700,-615,0,0,0,0,0,0,0,0,0,-1,1924,1639,0,0
707,-615,0,0,0,0,0,0,0,0,0,-1,1931,1639,0,0
714,-615,0,0,0,0,0,0,0,0,0,-1,1938,1639,0,0
721,-615,0,0,0,0,0,0,0,0,0,-1,1945,1639,0,0
728,-615,0,0,0,0,0,0,0,0,0,-1,1952,1639,0,0
735,-615,0,0,0,0,0,0,0,0,0,-1,1959,1639,0,0
742,-615,0,0,0,0,0,0,0,0,0,-1,1966,1639,0,0
749,-615,0,0,0,0,0,0,0,0,0,-1,1973,1639,0,0
756,-615,0,0,0,0,0,0,0,0,0,-1,1980,1639,0,0
763,-615,0,0,0,0,0,0,0,0,0,-1,1987,1639,0,0
770,-615,0,0,0,0,0,0,0,0,0,-1,1994,1639,0,0
777,-615,0,0,0,0,0,0,0,0,0,-1,2001,1639,0,0
784,-615,0,0,0,0,0,0,0,0,0,-1,2008,1639,0,0
791,-615,0,0,0,0,0,0,0,0,0,-1,2015,1639,0,0
798,-615,0,0,0,0,0,0,0,0,0,-1,2022,1639,0,0
805,-615,0,0,0,0,0,0,0,0,0,-1,2029,1639,0,0
812,-615,0,0,0,0,0,0,0,0,0,-1,2036,1639,0,0
-700,-622,0,0,0,0,0,0,0,0,0,-1,524,1646,0,0
-693,-622,0,0,0,0,0,0,0,0,0,-1,531,1646,0,0
-686,-622,0,0,0,0,0,0,0,0,0,-1,538,1646,0,0
-679,-622,0,0,0,0,0,0,0,0,0,-1,545,1646,0,0
-672,-622,0,0,0,0,0,0,0,0,0,-1,552,1646,0,0
-665,-622,0,0,0,0,0,0,0,0,0,-1,559,1646,0,0
-658,-622,0,0,0,0,0,0,0,0,0,-1,566,1646,0,0
-651,-622,0,0,0,0,0,0,0,0,0,-1,573,1646,0,0
-644,-622,0,0,0,0,0,0,0,0,0,-1,580,1646,0,0
-637,-622,0,0,0,0,0,0,0,0,0,-1,587,1646,0,0
-630,-622,0,0,0,0,0,0,0,0,0,-1,594,1646,0,0
-623,-622,0,0,0,0,0,0,0,0,0,-1,601,1646,0,0
-616,-622,0,0,0,0,0,0,0,0,0,-1,608,1646,0,0
-609,-622,0,0,0,0,0,0,0,0,0,-1,615,1646,0,0
-602,-622,0,0,0,0,0,0,0,0,0,-1,622,1646,0,0
-595,-622,0,0,0,0,0,0,0,0,0,-1,629,1646,0,0
-588,-622,0,0,0,0,0,0,0,0,0,-1,636,1646,0,0
-581,-622,0,0,0,0,0,0,0,0,0,-1,643,1646,0,0
-574,-622,0,0,0,0,0,0,0,0,0,-1,650,1646,0,0
-567,-622,0,0,0,0,0,0,0,0,0,-1,657,1646,0,0
-560,-622,0,0,0,0,0,0,0,0,0,-1,664,1646,0,0
-553,-622,0,0,0,0,0,0,0,0,0,-1,671,1646,0,0
-546,-622,0,0,0,0,0,0,0,0,0,-1,678,1646,0,0
-539,-622,0,0,0,0,0,0,0,0,0,-1,685,1646,0,0
-532,-622,0,0,0,0,0,0,0,0,0,-1,692,1646,0,0
-525,-622,0,0,0,0,0,0,0,0,0,-1,699,1646,0,0
-518,-622,0,0,0,0,0,0,0,0,0,-1,706,1646,0,0
-511,-622,0,0,0,0,0,0,0,0,0,-1,713,1646,0,0
-504,-622,0,0,0,0,0,0,0,0,0,-1,720,1646,0,0
-497,-622,0,0,0,0,0,0,0,0,0,-1,727,1646,0,0
-490,-622,0,0,0,0,0,0,0,0,0,-1,734,1646,0,0
-483,-622,0,0,0,0,0,0,0,0,0,-1,741,1646,0,0
-476,-622,0,0,0,0,0,0,0,0,0,-1,748,1646,0,0
-469,-622,0,0,0,0,0,0,0,0,0,-1,755,1646,0,0
-462,-622,0,0,0,0,0,0,0,0,0,-1,762,1646,0,0
-455,-622,0,0,0,0,0,0,0,0,0,-1,769,1646,0,0
-448,-622,0,0,0,0,0,0,0,0,0,-1,776,1646,0,0
-441,-622,0,0,0,0,0,0,0,0,0,-1,783,1646,0,0
-434,-622,0,0,0,0,0,0,0,0,0,-1,790,1646,0,0
-427,-622,-7.62891,3.48096,0,0,0,0,0,0,0,-1,797,1646,-7.62892,-3.48092
-420,-622,-9.35791,1.77185,0,0,0,0,0,0,0,-1,804,1646,-9.35789,-1.77183
-413,-622,-8.46075,1.96777,0,0,0,0,0,0,0,-1,811,1646,-8.46074,-1.96774
-406,-622,-4.44318,2.16858,0,0,0,0,0,0,0,-1,818,1646,-4.44315,-2.16859
-399,-622,-7.06976,1.51001,0,0,0,0,0,0,0,-1,825,1646,-7.06976,-1.51005
-392,-622,3.89551,5.85376,0,0,0,0,0,0,0,-1,832,1646,3.8955,-5.85379
-385,-622,2.00543,14.0448,0,0,0,0,0,0,0,-1,839,1646,2.00544,-14.0448
-378,-622,1.49036,15.3436,0,0,0,0,0,0,0,-1,846,1646,1.49033,-15.3436
-371,-622,1.81262,37.543,0,0,0,0,0,0,0,-1,853,1646,1.81261,-37.543
-364,-622,1.73224,38.5248,0,0,0,0,0,0,0,-1,860,1646,1.73226,-38.5248
-357,-622,1.66394,40.6271,0,0,0,0,0,0,0,-1,867,1646,1.66396,-40.6271
-350,-622,1.57617,41.5408,0.0117638,-0.00144639,0.0067273,0.0145865,-0.00426912,0.397282,0.0114166,0.0483413,874,1646,1.57619,-41.5408
-343,-622,1.48169,42.2289,0.0106493,-0.00115781,0.00644417,0.0134852,-0.00399378,0.414577,0.0105758,0.03011,881,1646,1.48168,-42.2288
-336,-622,1.58008,42.8898,0.00941344,-0.000897288,0.00595573,0.0121352,-0.00361901,0.428653,0.00952835,0.0107988,888,1646,1.58006,-42.8898
-329,-622,1.52026,43.6309,0.00811128,-0.000587655,0.00538868,0.0106868,-0.00316319,0.445855,0.00838036,0.00910421,895,1646,1.52029,-43.6309
-322,-622,1.49963,44.3723,0.00690609,-7.33844e-05,0.00493132,0.00945756,-0.00262485,0.477471,0.00733818,0.0103985,902,1646,1.49962,-44.3723
-315,-622,1.48566,45.1074,0.00588751,0.000382624,0.00447114,0.0083855,-0.00211536,0.509492,0.00641282,0.01464,909,1646,1.48568,-45.1074
-308,-622,1.44586,45.8033,0.00514242,0.000790818,0.004034,0.00754999,-0.00161675,0.538077,0.00564989,0.0156267,916,1646,1.44587,-45.8033
-301,-622,1.40558,46.4823,0.00462549,0.00137689,0.00372372,0.00706376,-0.00106138,0.579737,0.00509992,0.0145839,923,1646,1.40557,-46.4823
-294,-622,1.34869,47.1957,0.00441905,0.00211284,0.00358486,0.0070317,-0.000499807,0.629794,0.00486297,0.0112746,930,1646,1.34868,-47.1957
-287,-622,1.32062,47.8838,0.00434974,0.00285676,0.0034968,0.00717883,2.76596e-05,0.680237,0.0047767,0.00922717,937,1646,1.32059,-47.8838
-280,-622,1.29236,48.5745,0.00450433,0.00370314,0.00352718,0.00765358,0.000553879,0.728854,0.00492815,0.0114992,944,1646,1.29233,-48.5744
-273,-622,1.28412,49.2416,0.00505357,0.00433912,0.00367774,0.00839139,0.0010013,0.736985,0.00529216,0.0175919,951,1646,1.28415,-49.2415
-266,-622,1.22992,49.9233,0.00574424,0.00504032,0.00385529,0.0092636,0.00152096,0.739878,0.00573636,0.0161152,958,1646,1.22994,-49.9234
-259,-622,1.20911,50.6273,0.00667684,0.00586587,0.00415333,0.0104444,0.00209828,0.736738,0.0063796,0.0133063,965,1646,1.2091,-50.6273
-252,-622,1.19434,51.2626,0.00768767,0.00665386,0.00451104,0.0117113,0.00263021,0.728353,0.00709522,0.0125161,972,1646,1.19432,-51.2626
-245,-622,1.2373,51.9342,0.0086255,0.00732662,0.00490319,0.0129221,0.00303004,0.719555,0.00780333,0.0108524,979,1646,1.23728,-51.9342
-238,-622,1.22882,52.6093,0.0096122,0.00715446,0.00511588,0.0136447,0.00312193,0.667528,0.00825503,0.0134576,986,1646,1.22883,-52.6092
-231,-622,1.26801,53.3303,0.0104316,0.00527359,0.0050574,0.0135296,0.00217557,0.549612,0.0083891,0.0210117,993,1646,1.26798,-53.3303
-224,-622,1.39972,53.859,0.0109905,0.0033832,0.00479681,0.0133087,0.001065,0.450182,0.00853966,0.0322263,1000,1646,1.39973,-53.859
-217,-622,1.51141,54.4349,0,0,0,0,0,0,0,-1,1007,1646,1.51143,-54.435
-210,-622,1.97565,53.1395,0,0,0,0,0,0,0,-1,1014,1646,1.97565,-53.1395
-203,-622,4.21375,20.9574,0,0,0,0,0,0,0,-1,1021,1646,4.21375,-20.9574
-196,-622,2.57556,55.0887,0,0,0,0,0,0,0,-1,1028,1646,2.57557,-55.0888
-189,-622,2.19141,56.5549,0,0,0,0,0,0,0,-1,1035,1646,2.19139,-56.555
-182,-622,2.22131,56.3733,0,0,0,0,0,0,0,-1,1042,1646,2.22125,-56.3733
-175,-622,3.61438,53.5428,0,0,0,0,0,0,0,-1,1049,1646,3.61438,-53.5428
-168,-622,3.44849,53.4453,0,0,0,0,0,0,0,-1,1056,1646,3.44848,-53.4453
-161,-622,2.79761,52.5291,0,0,0,0,0,0,0,-1,1063,1646,2.79756,-52.529
-154,-622,2.00879,52.2384,0,0,0,0,0,0,0,-1,1070,1646,2.00874,-52.2384
-147,-622,0.939453,52.2694,0,0,0,0,0,0,0,-1,1077,1646,0.939511,-52.2694
-140,-622,0.546997,48.6783,0,0,0,0,0,0,0,-1,1084,1646,0.547022,-48.6784
-133,-622,3.09644,17.677,0,0,0,0,0,0,0,-1,1091,1646,3.09638,-17.677
-126,-622,3.5061,19.5251,0,0,0,0,0,0,0,-1,1098,1646,3.50616,-19.5252
-119,-622,4.06384,13.1715,0,0,0,0,0,0,0,-1,1105,1646,4.06379,-13.1716
-112,-622,4.33276,14.6605,0,0,0,0,0,0,0,-1,1112,1646,4.33281,-14.6605
-105,-622,0.306519,4.38159,0,0,0,0,0,0,0,-1,1119,1646,0.306536,-4.38159
-98,-622,-0.510376,3.5033,0,0,0,0,0,0,0,-1,1126,1646,-0.510393,-3.50324
-91,-622,-1.146,0.975952,0,0,0,0,0,0,0,-1,1133,1646,-1.14599,-0.97597
-84,-622,-2.04895,1.31787,0,0,0,0,0,0,0,-1,1140,1646,-2.0489,-1.31781
-77,-622,-1.80627,0.332275,0,0,0,0,0,0,0,-1,1147,1646,-1.80622,-0.33223
-70,-622,-3.65588,2.28149,0,0,0,0,0,0,0,-1,1154,1646,-3.65589,-2.28155
-63,-622,-2.49683,1.27087,0,0,0,0,0,0,0,-1,1161,1646,-2.49679,-1.27093
-56,-622,-2.44238,-0.575562,0,0,0,0,0,0,0,-1,1168,1646,-2.44242,0.575508
-49,-622,-2.41089,1.38818,0,0,0,0,0,0,0,-1,1175,1646,-2.41088,-1.38815
-42,-622,-2.71497,2.85242,0,0,0,0,0,0,0,-1,1182,1646,-2.71491,-2.85247
-35,-622,-3.0177,4.25842,0,0,0,0,0,0,0,-1,1189,1646,-3.01773,-4.25838
-28,-622,-0.896606,0.678833,0,0,0,0,0,0,0,-1,1196,1646,-0.89661,-0.678835
-21,-622,16.4141,36.2849,0,0,0,0,0,0,0,-1,1203,1646,16.4141,-36.285
-14,-622,-4.54675,49.5179,0,0,0,0,0,0,0,-1,1210,1646,-4.54671,-49.5179
-7,-622,-3.02295,48.9022,0,0,0,0,0,0,0,-1,1217,1646,-3.0229,-48.9022
0,-622,0,0,0,0,0,0,0,0,0,-1,1224,1646,0,0
7,-622,0,0,0,0,0,0,0,0,0,-1,1231,1646,0,0
14,-622,0,0,0,0,0,0,0,0,0,-1,1238,1646,0,0
21,-622,0,0,0,0,0,0,0,0,0,-1,1245,1646,0,0
28,-622,0,0,0,0,0,0,0,0,0,-1,1252,1646,0,0
35,-622,0,0,0,0,0,0,0,0,0,-1,1259,1646,0,0
42,-622,0,0,0,0,0,0,0,0,0,-1,1266,1646,0,0
49,-622,0,0,0,0,0,0,0,0,0,-1,1273,1646,0,0
56,-622,0,0,0,0,0,0,0,0,0,-1,1280,1646,0,0
63,-622,0,0,0,0,0,0,0,0,0,-1,1287,1646,0,0
70,-622,0,0,0,0,0,0,0,0,0,-1,1294,1646,0,0
77,-622,0,0,0,0,0,0,0,0,0,-1,1301,1646,0,0
84,-622,0,0,0,0,0,0,0,0,0,-1,1308,1646,0,0
91,-622,0,0,0,0,0,0,0,0,0,-1,1315,1646,0,0
98,-622,0,0,0,0,0,0,0,0,0,-1,1322,1646,0,0
105,-622,0,0,0,0,0,0,0,0,0,-1,1329,1646,0,0
112,-622,0,0,0,0,0,0,0,0,0,-1,1336,1646,0,0
119,-622,0,0,0,0,0,0,0,0,0,-1,1343,1646,0,0
126,-622,18.3229,73.4049,0.0500861,0.164845,0.175488,0.292097,-0.0771653,0.943405,0.224909,0.0435928,1350,1646,18.3228,-73.4049
133,-622,18.094,74.5099,0.0554419,0.181112,0.189319,0.317751,-0.0811976,0.945628,0.243456,0.0474891,1357,1646,18.094,-74.5099
140,-622,19.1415,76.2731,0,0,0,0,0,0,0,-1,1364,1646,19.1415,-76.273
147,-622,16.3705,60.7258,0,0,0,0,0,0,0,-1,1371,1646,16.3705,-60.7258
154,-622,2.5271,52.655,0,0,0,0,0,0,0,-1,1378,1646,2.52706,-52.655
161,-622,10.6884,6.46448,0,0,0,0,0,0,0,-1,1385,1646,10.6883,-6.46442
168,-622,12.2402,5.18091,0,0,0,0,0,0,0,-1,1392,1646,12.2403,-5.1809
175,-622,5.64355,-1.77075,0,0,0,0,0,0,0,-1,1399,1646,5.64351,1.77077
182,-622,5.88586,-1.32251,0,0,0,0,0,0,0,-1,1406,1646,5.88587,1.32256
189,-622,5.97986,-1.18005,0,0,0,0,0,0,0,-1,1413,1646,5.97986,1.18003
196,-622,5.85022,-0.244507,0,0,0,0,0,0,0,-1,1420,1646,5.85026,0.244478
203,-622,5.25159,0.138794,0,0,0,0,0,0,0,-1,1427,1646,5.25162,-0.138822
210,-622,6.66833,0.0397949,0,0,0,0,0,0,0,-1,1434,1646,6.6684,-0.0398278
217,-622,6.12061,0.0506592,0,0,0,0,0,0,0,-1,1441,1646,6.12058,-0.0507181
224,-622,5.57275,0.0616455,0,0,0,0,0,0,0,-1,1448,1646,5.57276,-0.0616084
231,-622,5.31348,1.3949,0,0,0,0,0,0,0,-1,1455,1646,5.31342,-1.39495
238,-622,3.76477,2.90686,0,0,0,0,0,0,0,-1,1462,1646,3.7648,-2.90686
245,-622,5.13794,2.67993,0,0,0,0,0,0,0,-1,1469,1646,5.13796,-2.67992
252,-622,6.66528,2.53992,0,0,0,0,0,0,0,-1,1476,1646,6.66522,-2.53991
259,-622,8.93787,3.31458,0,0,0,0,0,0,0,-1,1483,1646,8.93791,-3.31454
266,-622,5.72644,3.11926,0,0,0,0,0,0,0,-1,1490,1646,5.72647,-3.1192
273,-622,7.28076,3.61218,0,0,0,0,0,0,0,-1,1497,1646,7.28071,-3.61212
280,-622,8.43127,4.4447,0,0,0,0,0,0,0,-1,1504,1646,8.43123,-4.44467
287,-622,8.60315,5.94617,0,0,0,0,0,0,0,-1,1511,1646,8.60319,-5.94622
294,-622,7.62756,11.5143,0,0,0,0,0,0,0,-1,1518,1646,7.62762,-11.5143
301,-622,7.36548,11.6569,0,0,0,0,0,0,0,-1,1525,1646,7.36549,-11.6569
308,-622,7.10339,11.7994,0,0,0,0,0,0,0,-1,1532,1646,7.10335,-11.7995
315,-622,8.28687,16.5842,0,0,0,0,0,0,0,-1,1539,1646,8.28689,-16.5843
322,-622,7.43689,20.5786,0,0,0,0,0,0,0,-1,1546,1646,7.43685,-20.5786
329,-622,9.76477,26.4202,0,0,0,0,0,0,0,-1,1553,1646,9.7648,-26.4202
336,-622,10.4526,28.8552,0,0,0,0,0,0,0,-1,1560,1646,10.4526,-28.8552
343,-622,15.1061,49.1334,0,0,0,0,0,0,0,-1,1567,1646,15.1061,-49.1335
350,-622,16.4706,53.9031,0,0,0,0,0,0,0,-1,1574,1646,16.4706,-53.9031
357,-622,16.3628,53.4335,0.0117017,0.0156339,-0.0135546,0.0273643,-2.86996e-05,-0.857422,0.0182524,0.0447756,1581,1646,16.3628,-53.4335
364,-622,16.2767,52.5989,0.0114071,0.0139368,-0.0123682,0.0251047,0.000239225,-0.836355,0.0166573,0.0361424,1588,1646,16.2768,-52.5988
371,-622,16.256,51.7917,0,0,0,0,0,0,0,-1,1595,1646,16.2559,-51.7918
378,-622,16.3357,51.146,0.00982696,0.0106234,-0.00937797,0.0196116,0.000838757,-0.806617,0.012804,0.0122211,1602,1646,16.3357,-51.146
385,-622,16.3367,50.473,0.00878076,0.00915079,-0.00784907,0.016817,0.00111453,-0.797182,0.0108589,0.0100845,1609,1646,16.3367,-50.473
392,-622,16.3281,49.8254,0.00753732,0.00772121,-0.0063323,0.0139622,0.0012963,-0.792658,0.00890755,0.0110387,1616,1646,16.3281,-49.8255
399,-622,16.2981,49.163,0.00625991,0.0065314,-0.00503222,0.0114297,0.00136161,-0.798882,0.00720892,0.011832,1623,1646,16.2981,-49.1629
406,-622,16.2789,48.4869,0.00512445,0.0053736,-0.00398429,0.00923526,0.00126279,-0.801026,0.00578206,0.0150839,1630,1646,16.2789,-48.487
413,-622,16.2727,47.8312,0.00416169,0.00426003,-0.00315549,0.00736673,0.00105498,-0.793189,0.0046,0.0161809,1637,1646,16.2727,-47.8311
420,-622,16.2471,47.1919,0.00336496,0.00345591,-0.00258671,0.00599755,0.00082332,-0.794187,0.00375414,0.0157796,1644,1646,16.2471,-47.1919
427,-622,16.2086,46.4813,0.00266552,0.00273388,-0.00216689,0.00486686,0.00053254,-0.793283,0.00308243,0.0126275,1651,1646,16.2086,-46.4813
434,-622,16.1816,45.7562,0.00222692,0.00219302,-0.00209678,0.00430681,0.000113117,-0.781356,0.00283426,0.0139732,1658,1646,16.1817,-45.7562
441,-622,16.1512,45.0713,0.00207856,0.00161347,-0.00231238,0.00417006,-0.000478025,-0.735283,0.00295231,0.0164734,1665,1646,16.1512,-45.0713
448,-622,16.1116,44.3967,0.0022315,0.00111955,-0.00272162,0.00445335,-0.0011023,-0.684645,0.00339649,0.0147649,1672,1646,16.1116,-44.3968
455,-622,16.0765,43.6801,0.00252666,0.00068347,-0.00318955,0.00492509,-0.00171496,-0.644757,0.00398017,0.0158958,1679,1646,16.0766,-43.6801
462,-622,16.0667,42.9818,0.00282731,0.000150451,-0.00364204,0.00536906,-0.0023913,-0.609311,0.00458908,0.0168231,1686,1646,16.0667,-42.9818
469,-622,16.0115,42.2643,0.00319793,-0.000201726,-0.00413918,0.00597272,-0.00297652,-0.590564,0.00526248,0.0177026,1693,1646,16.0115,-42.2643
476,-622,16.1221,41.5199,0.00350764,-0.000416146,-0.00452286,0.00647579,-0.00338429,-0.580759,0.00578524,0.0401082,1700,1646,16.1221,-41.5199
483,-622,16.1011,40.5891,0,0,0,0,0,0,0,-1,1707,1646,16.1011,-40.5891
490,-622,15.8815,36.627,0,0,0,0,0,0,0,-1,1714,1646,15.8814,-36.6269
497,-622,14.9666,32.1024,0,0,0,0,0,0,0,-1,1721,1646,14.9665,-32.1024
504,-622,10.8306,19.8021,0,0,0,0,0,0,0,-1,1728,1646,10.8306,-19.8022
511,-622,5.29004,4.14587,0,0,0,0,0,0,0,-1,1735,1646,5.29008,-4.14589
518,-622,5.6001,1.55359,0,0,0,0,0,0,0,-1,1742,1646,5.60015,-1.5536
525,-622,5.83093,2.01807,0,0,0,0,0,0,0,-1,1749,1646,5.83097,-2.01802
532,-622,5.44202,0.57373,0,0,0,0,0,0,0,-1,1756,1646,5.44196,-0.573705
539,-622,9.32129,1.06116,0,0,0,0,0,0,0,-1,1763,1646,9.32131,-1.0612
546,-622,6.50977,-3.45618,0,0,0,0,0,0,0,-1,1770,1646,6.50981,3.4562
553,-622,0,0,0,0,0,0,0,0,0,-1,1777,1646,0,0
560,-622,0,0,0,0,0,0,0,0,0,-1,1784,1646,0,0
567,-622,0,0,0,0,0,0,0,0,0,-1,1791,1646,0,0
574,-622,0,0,0,0,0,0,0,0,0,-1,1798,1646,0,0
581,-622,0,0,0,0,0,0,0,0,0,-1,1805,1646,0,0
588,-622,0,0,0,0,0,0,0,0,0,-1,1812,1646,0,0
595,-622,0,0,0,0,0,0,0,0,0,-1,1819,1646,0,0
602,-622,0,0,0,0,0,0,0,0,0,-1,1826,1646,0,0
609,-622,0,0,0,0,0,0,0,0,0,-1,1833,1646,0,0
616,-622,0,0,0,0,0,0,0,0,0,-1,1840,1646,0,0
623,-622,0,0,0,0,0,0,0,0,0,-1,1847,1646,0,0
630,-622,0,0,0,0,0,0,0,0,0,-1,1854,1646,0,0
637,-622,0,0,0,0,0,0,0,0,0,-1,1861,1646,0,0
644,-622,0,0,0,0,0,0,0,0,0,-1,1868,1646,0,0
651,-622,0,0,0,0,0,0,0,0,0,-1,1875,1646,0,0
658,-622,0,0,0,0,0,0,0,0,0,-1,1882,1646,0,0
665,-622,0,0,0,0,0,0,0,0,0,-1,1889,1646,0,0
672,-622,0,0,0,0,0,0,0,0,0,-1,1896,1646,0,0
679,-622,0,0,0,0,0,0,0,0,0,-1,1903,1646,0,0
686,-622,0,0,0,0,0,0,0,0,0,-1,1910,1646,0,0
693,-622,0,0,0,0,0,0,0,0,0,-1,1917,1646,0,0
700,-622,0,0,0,0,0,0,0,0,0,-1,1924,1646,0,0
707,-622,0,0,0,0,0,0,0,0,0,-1,1931,1646,0,0
714,-622,0,0,0,0,0,0,0,0,0,-1,1938,1646,0,0
721,-622,0,0,0,0,0,0,0,0,0,-1,1945,1646,0,0
728,-622,0,0,0,0,0,0,0,0,0,-1,1952,1646,0,0
735,-622,0,0,0,0,0,0,0,0,0,-1,1959,1646,0,0
742,-622,0,0,0,0,0,0,0,0,0,-1,1966,1646,0,0
749,-622,0,0,0,0,0,0,0,0,0,-1,1973,1646,0,0
756,-622,0,0,0,0,0,0,0,0,0,-1,1980,1646,0,0
763,-622,0,0,0,0,0,0,0,0,0,-1,1987,1646,0,0
770,-622,0,0,0,0,0,0,0,0,0,-1,1994,1646,0,0
777,-622,0,0,0,0,0,0,0,0,0,-1,2001,1646,0,0
784,-622,0,0,0,0,0,0,0,0,0,-1,2008,1646,0,0
791,-622,0,0,0,0,0,0,0,0,0,-1,2015,1646,0,0
798,-622,0,0,0,0,0,0,0,0,0,-1,2022,1646,0,0
805,-622,0,0,0,0,0,0,0,0,0,-1,2029,1646,0,0
812,-622,0,0,0,0,0,0,0,0,0,-1,2036,1646,0,0
-700,-629,0,0,0,0,0,0,0,0,0,-1,524,1653,0,0
-693,-629,0,0,0,0,0,0,0,0,0,-1,531,1653,0,0
-686,-629,0,0,0,0,0,0,0,0,0,-1,538,1653,0,0
-679,-629,0,0,0,0,0,0,0,0,0,-1,545,1653,0,0
-672,-629,0,0,0,0,0,0,0,0,0,-1,552,1653,0,0
-665,-629,0,0,0,0,0,0,0,0,0,-1,559,1653,0,0
-658,-629,0,0,0,0,0,0,0,0,0,-1,566,1653,0,0
-651,-629,0,0,0,0,0,0,0,0,0,-1,573,1653,0,0
-644,-629,0,0,0,0,0,0,0,0,0,-1,580,1653,0,0
-637,-629,0,0,0,0,0,0,0,0,0,-1,587,1653,0,0
-630,-629,0,0,0,0,0,0,0,0,0,-1,594,1653,0,0
-623,-629,0,0,0,0,0,0,0,0,0,-1,601,1653,0,0
-616,-629,0,0,0,0,0,0,0,0,0,-1,608,1653,0,0
-609,-629,0,0,0,0,0,0,0,0,0,-1,615,1653,0,0
-602,-629,0,0,0,0,0,0,0,0,0,-1,622,1653,0,0
-595,-629,0,0,0,0,0,0,0,0,0,-1,629,1653,0,0
-588,-629,0,0,0,0,0,0,0,0,0,-1,636,1653,0,0
-581,-629,0,0,0,0,0,0,0,0,0,-1,643,1653,0,0
-574,-629,0,0,0,0,0,0,0,0,0,-1,650,1653,0,0
-567,-629,0,0,0,0,0,0,0,0,0,-1,657,1653,0,0
-560,-629,0,0,0,0,0,0,0,0,0,-1,664,1653,0,0
-553,-629,0,0,0,0,0,0,0,0,0,-1,671,1653,0,0
-546,-629,0,0,0,0,0,0,0,0,0,-1,678,1653,0,0
-539,-629,0,0,0,0,0,0,0,0,0,-1,685,1653,0,0
-532,-629,0,0,0,0,0,0,0,0,0,-1,692,1653,0,0
-525,-629,0,0,0,0,0,0,0,0,0,-1,699,1653,0,0
-518,-629,0,0,0,0,0,0,0,0,0,-1,706,1653,0,0
-511,-629,0,0,0,0,0,0,0,0,0,-1,713,1653,0,0
-504,-629,0,0,0,0,0,0,0,0,0,-1,720,1653,0,0
-497,-629,0,0,0,0,0,0,0,0,0,-1,727,1653,0,0
-490,-629,0,0,0,0,0,0,0,0,0,-1,734,1653,0,0
-483,-629,0,0,0,0,0,0,0,0,0,-1,741,1653,0,0
-476,-629,0,0,0,0,0,0,0,0,0,-1,748,1653,0,0
-469,-629,0,0,0,0,0,0,0,0,0,-1,755,1653,0,0
-462,-629,0,0,0,0,0,0,0,0,0,-1,762,1653,0,0
-455,-629,0,0,0,0,0,0,0,0,0,-1,769,1653,0,0
-448,-629,0,0,0,0,0,0,0,0,0,-1,776,1653,0,0
-441,-629,0,0,0,0,0,0,0,0,0,-1,783,1653,0,0
-434,-629,0,0,0,0,0,0,0,0,0,-1,790,1653,0,0
-427,-629,0,0,0,0,0,0,0,0,0,-1,797,1653,0,0
-420,-629,-3.87103,3.37634,0,0,0,0,0,0,0,-1,804,1653,-3.87101,-3.37633
-413,-629,-5.69751,1.33582,0,0,0,0,0,0,0,-1,811,1653,-5.69754,-1.3358
-406,-629,2.85406,6.01501,0,0,0,0,0,0,0,-1,818,1653,2.85405,-6.01507
-399,-629,-0.455627,10.8687,0,0,0,0,0,0,0,-1,825,1653,-0.455625,-10.8687
-392,-629,1.15369,11.1295,0,0,0,0,0,0,0,-1,832,1653,1.1537,-11.1295
-385,-629,1.81976,11.6935,0,0,0,0,0,0,0,-1,839,1653,1.81975,-11.6935
-378,-629,2.19452,14.7941,0,0,0,0,0,0,0,-1,846,1653,2.19451,-14.7941
-371,-629,3.60114,14.7299,0,0,0,0,0,0,0,-1,853,1653,3.60113,-14.7299
-364,-629,3.26898,21.0801,0,0,0,0,0,0,0,-1,860,1653,3.26895,-21.08
-357,-629,4.38782,16.3444,0,0,0,0,0,0,0,-1,867,1653,4.38783,-16.3443
-350,-629,1.83112,41.5813,0,0,0,0,0,0,0,-1,874,1653,1.83114,-41.5813
-343,-629,2.09546,42.283,0.0155516,-0.00253968,0.00981687,0.0198549,-0.006843,0.413132,0.0160126,0.0418378,881,1653,2.09548,-42.2829
-336,-629,2.25262,42.943,0.0134132,-0.00245545,0.00899157,0.0174707,-0.00651286,0.42389,0.0143205,0.0200819,888,1653,2.2526,-42.943
-329,-629,2.24261,43.6786,0.0112305,-0.00232731,0.00806446,0.0149867,-0.00608354,0.435896,0.0125217,0.0119733,895,1653,2.24261,-43.6786
-322,-629,2.22028,44.4048,0.00927653,-0.0019731,0.00726601,0.0128405,-0.00553706,0.456016,0.010886,0.0111791,902,1653,2.2203,-44.4048
-315,-629,2.17468,45.1177,0.00760297,-0.00165353,0.0064602,0.0109217,-0.00497228,0.474566,0.00938825,0.0144077,909,1653,2.17467,-45.1177
-308,-629,2.13422,45.8317,0.00625749,-0.00130934,0.00567028,0.0092907,-0.00434255,0.4912,0.00804211,0.0129807,916,1653,2.13424,-45.8317
-301,-629,2.10028,46.559,0.00519869,-0.000809573,0.00497776,0.00800858,-0.00361947,0.5139,0.00687102,0.01199,923,1653,2.10026,-46.559
-294,-629,2.05743,47.2406,0.00454226,-0.000111686,0.00446348,0.00724891,-0.00281834,0.545113,0.00599703,0.0132395,930,1653,2.05745,-47.2406
-287,-629,2.01642,47.931,0.00408079,0.00064509,0.00401908,0.00673375,-0.00200787,0.583437,0.00528711,0.0109898,937,1653,2.01644,-47.931
-280,-629,1.98663,48.6274,0.0038325,0.00157378,0.00369779,0.00656955,-0.00116327,0.63719,0.00481453,0.0113786,944,1653,1.98664,-48.6275
-273,-629,1.95123,49.2839,0.00404774,0.00225696,0.00352131,0.00678571,-0.000481016,0.660898,0.00469237,0.0146944,951,1653,1.95122,-49.284
-266,-629,1.91913,49.9602,0.00438484,0.00291833,0.00329418,0.00702639,0.000276793,0.675888,0.00459477,0.0144191,958,1653,1.91914,-49.9602
-259,-629,1.89777,50.6644,0.00499611,0.00380169,0.00327252,0.00772547,0.00107233,0.695145,0.00483269,0.0148851,965,1653,1.89779,-50.6644
-252,-629,1.87946,51.3015,0.00575177,0.00464833,0.00331276,0.00855844,0.00184167,0.702883,0.00520158,0.0111491,972,1653,1.87947,-51.3015
-245,-629,1.89032,51.9532,0.00645882,0.00524672,0.00344543,0.00935109,0.00235444,0.698339,0.00561624,0.00830077,979,1653,1.89031,-51.9533
-238,-629,1.87708,52.615,0.00723669,0.00510806,0.00348338,0.00981473,0.00253002,0.637132,0.00588401,0.0119394,986,1653,1.87706,-52.615
-231,-629,1.82953,53.2603,0.00790365,0.00368733,0.00334205,0.0097469,0.00184408,0.504019,0.0059788,0.0152733,993,1653,1.82956,-53.2602
-224,-629,1.9353,53.9824,0.00834139,0.00232754,0.0030598,0.00962445,0.00104448,0.397057,0.00609803,0.0171733,1000,1653,1.93529,-53.9824
-217,-629,1.91125,54.528,0.00876689,0.000409324,0.00277184,0.00960262,-0.000426401,0.292838,0.00654851,0.0278456,1007,1653,1.91126,-54.528
-210,-629,2.07703,55.2397,0,0,0,0,0,0,0,-1,1014,1653,2.07701,-55.2398
-203,-629,2.47308,54.7053,0,0,0,0,0,0,0,-1,1021,1653,2.47305,-54.7054
-196,-629,2.46802,56.4172,0,0,0,0,0,0,0,-1,1028,1653,2.46808,-56.4172
-189,-629,2.4209,56.6057,0.010704,-0.013096,-0.000114336,0.0107045,-0.0130965,-0.0048039,0.0137646,0.0430096,1035,1653,2.42091,-56.6057
-182,-629,2.51025,56.8191,0.0113941,-0.0160526,-0.000493668,0.0114029,-0.0160615,-0.0179787,0.0159325,0.0478314,1042,1653,2.5103,-56.8192
-175,-629,2.66919,57.3239,0,0,0,0,0,0,0,-1,1049,1653,2.66914,-57.3239
-168,-629,3.94775,55.7037,0,0,0,0,0,0,0,-1,1056,1653,3.94774,-55.7038
-161,-629,3.2146,53.0543,0,0,0,0,0,0,0,-1,1063,1653,3.21462,-53.0543
-154,-629,2.30042,52.7101,0,0,0,0,0,0,0,-1,1070,1653,2.30043,-52.7101
-147,-629,1.22363,52.6086,0,0,0,0,0,0,0,-1,1077,1653,1.22368,-52.6087
-140,-629,3.68201,55.7941,0,0,0,0,0,0,0,-1,1084,1653,3.68206,-55.7941
-133,-629,1.99792,57.769,0,0,0,0,0,0,0,-1,1091,1653,1.99792,-57.769
-126,-629,4.01025,19.5328,0,0,0,0,0,0,0,-1,1098,1653,4.01022,-19.5328
-119,-629,4.94177,13.5525,0,0,0,0,0,0,0,-1,1105,1653,4.94172,-13.5525
-112,-629,5.63123,15.9187,0,0,0,0,0,0,0,-1,1112,1653,5.63118,-15.9187
-105,-629,2.15881,4.38342,0,0,0,0,0,0,0,-1,1119,1653,2.15878,-4.38347
-98,-629,0.825806,4.19385,0,0,0,0,0,0,0,-1,1126,1653,0.825779,-4.1939
-91,-629,-0.452271,3.64465,0,0,0,0,0,0,0,-1,1133,1653,-0.452278,-3.6446
-84,-629,-2.6084,0.466797,0,0,0,0,0,0,0,-1,1140,1653,-2.6084,-0.466786
-77,-629,-3.50903,2.10706,0,0,0,0,0,0,0,-1,1147,1653,-3.509,-2.10707
-70,-629,-1.20886,2.52502,0,0,0,0,0,0,0,-1,1154,1653,-1.20886,-2.525
-63,-629,-0.960693,4.30212,0,0,0,0,0,0,0,-1,1161,1653,-0.960691,-4.30215
-56,-629,-1.31934,5.64343,0,0,0,0,0,0,0,-1,1168,1653,-1.31928,-5.6434
-49,-629,-2.15662,2.57458,0,0,0,0,0,0,0,-1,1175,1653,-2.15656,-2.57459
-42,-629,-2.46326,3.91467,0,0,0,0,0,0,0,-1,1182,1653,-2.4633,-3.91466
-35,-629,-2.67261,5.24292,0,0,0,0,0,0,0,-1,1189,1653,-2.67257,-5.24298
-28,-629,-0.402954,-0.866577,0,0,0,0,0,0,0,-1,1196,1653,-0.402943,0.866612
-21,-629,3.45508,27.0596,0,0,0,0,0,0,0,-1,1203,1653,3.45508,-27.0596
-14,-629,-2.63892,51.2357,0,0,0,0,0,0,0,-1,1210,1653,-2.63893,-51.2357
-7,-629,2.755,61.8965,0,0,0,0,0,0,0,-1,1217,1653,2.75496,-61.8965
0,-629,4.72217,62.3287,0.276311,-0.129647,0.0587778,0.28465,-0.137986,0.140933,0.248858,0.049867,1224,1653,4.72213,-62.3288
7,-629,6.94263,62.5924,0.244104,-0.0639369,0.0665198,0.257855,-0.0776877,0.203846,0.202821,0.0449381,1231,1653,6.94268,-62.5924
14,-629,8.60852,62.9576,0.21518,-0.00262121,0.0789229,0.240772,-0.0282129,0.313564,0.170698,0.0441923,1238,1653,8.60855,-62.9577
21,-629,10.4419,63.234,0,0,0,0,0,0,0,-1,1245,1653,10.4418,-63.234
28,-629,6.57373,48.2787,0,0,0,0,0,0,0,-1,1252,1653,6.57371,-48.2787
35,-629,12.5718,70.7719,0,0,0,0,0,0,0,-1,1259,1653,12.5718,-70.7719
42,-629,14.3582,70.8307,0,0,0,0,0,0,0,-1,1266,1653,14.3582,-70.8307
49,-629,14.9591,70.7635,0,0,0,0,0,0,0,-1,1273,1653,14.9591,-70.7635
56,-629,14.3896,70.4841,0,0,0,0,0,0,0,-1,1280,1653,14.3897,-70.4842
63,-629,14.6455,70.8424,0.0268961,0.221253,0.104337,0.266657,-0.0185081,1.16034,0.184251,0.0452427,1287,1653,14.6455,-70.8424
70,-629,14.7275,71.4268,0.0170411,0.217389,0.104599,0.262046,-0.0276152,1.16729,0.184592,0.0436573,1294,1653,14.7275,-71.4267
77,-629,14.0337,68.741,0,0,0,0,0,0,0,-1,1301,1653,14.0337,-68.7409
84,-629,14.1582,68.751,0.0228196,0.200786,0.112644,0.255353,-0.0317471,1.11969,0.181744,0.0456264,1308,1653,14.1583,-68.751
91,-629,14.1781,68.8502,0.0294927,0.189438,0.120118,0.253771,-0.0348398,1.07909,0.181909,0.0453753,1315,1653,14.1781,-68.8502
98,-629,16.9023,68.6481,0,0,0,0,0,0,0,-1,1322,1653,16.9024,-68.648
105,-629,17.0219,69.3818,0,0,0,0,0,0,0,-1,1329,1653,17.0218,-69.3819
112,-629,17.2563,70.4343,0,0,0,0,0,0,0,-1,1336,1653,17.2564,-70.4343
119,-629,17.4133,71.4916,0,0,0,0,0,0,0,-1,1343,1653,17.4133,-71.4916
126,-629,17.3113,72.5366,0.0551874,0.166207,0.163651,0.283506,-0.0621119,0.948907,0.212752,0.0411045,1350,1653,17.3113,-72.5366
133,-629,17.2153,73.5892,0.0593434,0.182237,0.175464,0.306703,-0.0651221,0.953823,0.22928,0.044636,1357,1653,17.2153,-73.5892
140,-629,18.104,75.2791,0.0677143,0.202751,0.187751,0.334755,-0.0642901,0.958006,0.2474,0.0492486,1364,1653,18.104,-75.279
147,-629,18.5498,76.5547,0,0,0,0,0,0,0,-1,1371,1653,18.5498,-76.5547
154,-629,6.41516,53.151,0,0,0,0,0,0,0,-1,1378,1653,6.41517,-53.151
161,-629,10.5461,6.83752,0,0,0,0,0,0,0,-1,1385,1653,10.5461,-6.83758
168,-629,12.0059,5.56348,0,0,0,0,0,0,0,-1,1392,1653,12.0059,-5.56352
175,-629,5.84485,-1.78845,0,0,0,0,0,0,0,-1,1399,1653,5.84479,1.7884
182,-629,5.99036,-1.27783,0,0,0,0,0,0,0,-1,1406,1653,5.99041,1.27778
189,-629,5.97668,-0.748535,0,0,0,0,0,0,0,-1,1413,1653,5.97671,0.748544
196,-629,4.52869,9.24695,0,0,0,0,0,0,0,-1,1420,1653,4.52869,-9.2469
203,-629,3.75085,6.88037,0,0,0,0,0,0,0,-1,1427,1653,3.75087,-6.88032
210,-629,3.5907,6.52637,0,0,0,0,0,0,0,-1,1434,1653,3.59067,-6.52642
217,-629,2.4585,4.84448,0,0,0,0,0,0,0,-1,1441,1653,2.45855,-4.84448
224,-629,1.31982,3.68481,0,0,0,0,0,0,0,-1,1448,1653,1.31986,-3.68487
231,-629,3.63025,1.73499,0,0,0,0,0,0,0,-1,1455,1653,3.6303,-1.735
238,-629,4.26428,2.11255,0,0,0,0,0,0,0,-1,1462,1653,4.26429,-2.11253
245,-629,5.61816,1.95361,0,0,0,0,0,0,0,-1,1469,1653,5.61815,-1.95359
252,-629,7.27136,2.18982,0,0,0,0,0,0,0,-1,1476,1653,7.27131,-2.18985
259,-629,8.67334,2.18628,0,0,0,0,0,0,0,-1,1483,1653,8.6733,-2.18633
266,-629,6.86475,3.72058,0,0,0,0,0,0,0,-1,1490,1653,6.86479,-3.72063
273,-629,7.9021,3.8717,0,0,0,0,0,0,0,-1,1497,1653,7.90205,-3.87171
280,-629,9.70837,4.39087,0,0,0,0,0,0,0,-1,1504,1653,9.7084,-4.39082
287,-629,9.82947,7.19348,0,0,0,0,0,0,0,-1,1511,1653,9.8295,-7.19347
294,-629,6.56555,11.6359,0,0,0,0,0,0,0,-1,1518,1653,6.5656,-11.6358
301,-629,13.903,44.4862,0,0,0,0,0,0,0,-1,1525,1653,13.903,-44.4862
308,-629,6.08264,12.1423,0,0,0,0,0,0,0,-1,1532,1653,6.08263,-12.1423
315,-629,6.82043,18.2764,0,0,0,0,0,0,0,-1,1539,1653,6.82049,-18.2764
322,-629,14.1931,43.8071,0,0,0,0,0,0,0,-1,1546,1653,14.1931,-43.8071
329,-629,15.5028,55.4247,0,0,0,0,0,0,0,-1,1553,1653,15.5028,-55.4247
336,-629,15.1304,54.8464,0,0,0,0,0,0,0,-1,1560,1653,15.1303,-54.8465
343,-629,15.5142,54.3065,0,0,0,0,0,0,0,-1,1567,1653,15.5142,-54.3065
350,-629,15.7728,53.781,0.00845515,0.0144389,-0.00958245,0.0214857,0.00140836,-0.936714,0.0138782,0.0349636,1574,1653,15.7728,-53.7811
357,-629,15.7688,53.0431,0.00853791,0.0120673,-0.00927232,0.0197413,0.00086383,-0.879432,0.0128826,0.0183929,1581,1653,15.7687,-53.0431
364,-629,15.7017,52.4137,0.00835148,0.0107259,-0.00860714,0.0182273,0.000850046,-0.853932,0.0118783,0.0151496,1588,1653,15.7017,-52.4137
371,-629,15.6774,51.7878,0.00788857,0.00938645,-0.00771166,0.0163855,0.000889575,-0.833805,0.0106395,0.0120928,1595,1653,15.6773,-51.7878
378,-629,15.6735,51.1322,0.00721836,0.00812001,-0.00674924,0.0144335,0.000904903,-0.818747,0.00933531,0.0110005,1602,1653,15.6735,-51.1322
385,-629,15.6776,50.5073,0.00649991,0.00693407,-0.00577777,0.0124988,0.000935142,-0.804175,0.00803899,0.0134011,1609,1653,15.6777,-50.5074
392,-629,15.6594,49.8562,0.00559882,0.00577619,-0.00477015,0.0104585,0.000916531,-0.794693,0.00668778,0.011613,1616,1653,15.6595,-49.8562
399,-629,15.6364,49.1844,0.0046455,0.00477874,-0.00390839,0.00862107,0.000803163,-0.79392,0.00549925,0.0116199,1623,1653,15.6364,-49.1845
406,-629,15.6202,48.5004,0.00380847,0.00379119,-0.00320894,0.00700878,0.000590879,-0.784052,0.00448854,0.0150265,1630,1653,15.6203,-48.5004
413,-629,15.6008,47.8477,0.00313196,0.00290206,-0.00270094,0.00572039,0.000313625,-0.764131,0.00371347,0.0239602,1637,1653,15.6008,-47.8477
420,-629,15.5715,47.2267,0.00260755,0.00227708,-0.00239452,0.00484253,4.2096e-05,-0.75095,0.00321442,0.0223265,1644,1653,15.5716,-47.2267
427,-629,15.5492,46.5417,0.00220557,0.00174087,-0.00227779,0.00426283,-0.000316388,-0.73457,0.00295301,0.0157138,1651,1653,15.5491,-46.5418
434,-629,15.5211,45.8309,0.00203763,0.00137271,-0.00245784,0.0041854,-0.000775049,-0.718174,0.00308128,0.0140501,1658,1653,15.5211,-45.831
441,-629,15.4484,45.1332,0.00214011,0.00100183,-0.00285926,0.00448633,-0.00134438,-0.687157,0.00352552,0.0170688,1665,1653,15.4484,-45.1332
448,-629,15.4116,44.4247,0.00252762,0.000770582,-0.00343573,0.00519538,-0.00189717,-0.66023,0.0042399,0.0163535,1672,1653,15.4116,-44.4247
455,-629,15.3899,43.7026,0.00304757,0.000572726,-0.0040731,0.00606706,-0.00244677,-0.637927,0.00506143,0.0152913,1679,1653,15.3899,-43.7026
462,-629,15.3906,43.0453,0.00360329,0.000309368,-0.0047421,0.00697629,-0.00306363,-0.618262,0.00594146,0.0204219,1686,1653,15.3907,-43.0452
469,-629,15.3643,42.2982,0.0042701,0.000260536,-0.00552457,0.0081424,-0.00361176,-0.611345,0.00695228,0.0340764,1693,1653,15.3643,-42.2982
476,-629,15.491,41.4927,0,0,0,0,0,0,0,-1,1700,1653,15.4909,-41.4927
483,-629,14.0381,30.967,0,0,0,0,0,0,0,-1,1707,1653,14.0381,-30.9671
490,-629,13.9072,28.8588,0,0,0,0,0,0,0,-1,1714,1653,13.9072,-28.8587
497,-629,10.3662,19.8605,0,0,0,0,0,0,0,-1,1721,1653,10.3662,-19.8605
504,-629,7.89453,15.5316,0,0,0,0,0,0,0,-1,1728,1653,7.89447,-15.5316
511,-629,6.29138,3.40295,0,0,0,0,0,0,0,-1,1735,1653,6.29137,-3.403
518,-629,5.84387,1.41858,0,0,0,0,0,0,0,-1,1742,1653,5.84391,-1.4186
525,-629,6.4729,1.02319,0,0,0,0,0,0,0,-1,1749,1653,6.47284,-1.02316
532,-629,6.86511,0.903687,0,0,0,0,0,0,0,-1,1756,1653,6.86514,-0.903691
539,-629,6.60803,0.746704,0,0,0,0,0,0,0,-1,1763,1653,6.60809,-0.746691
546,-629,0,0,0,0,0,0,0,0,0,-1,1770,1653,0,0
553,-629,0,0,0,0,0,0,0,0,0,-1,1777,1653,0,0
560,-629,0,0,0,0,0,0,0,0,0,-1,1784,1653,0,0
567,-629,0,0,0,0,0,0,0,0,0,-1,1791,1653,0,0
574,-629,0,0,0,0,0,0,0,0,0,-1,1798,1653,0,0
581,-629,0,0,0,0,0,0,0,0,0,-1,1805,1653,0,0
588,-629,0,0,0,0,0,0,0,0,0,-1,1812,1653,0,0
595,-629,0,0,0,0,0,0,0,0,0,-1,1819,1653,0,0
602,-629,0,0,0,0,0,0,0,0,0,-1,1826,1653,0,0
609,-629,0,0,0,0,0,0,0,0,0,-1,1833,1653,0,0
616,-629,0,0,0,0,0,0,0,0,0,-1,1840,1653,0,0
623,-629,0,0,0,0,0,0,0,0,0,-1,1847,1653,0,0
630,-629,0,0,0,0,0,0,0,0,0,-1,1854,1653,0,0
637,-629,0,0,0,0,0,0,0,0,0,-1,1861,1653,0,0
644,-629,0,0,0,0,0,0,0,0,0,-1,1868,1653,0,0
651,-629,0,0,0,0,0,0,0,0,0,-1,1875,1653,0,0
658,-629,0,0,0,0,0,0,0,0,0,-1,1882,1653,0,0
665,-629,0,0,0,0,0,0,0,0,0,-1,1889,1653,0,0
672,-629,0,0,0,0,0,0,0,0,0,-1,1896,1653,0,0
679,-629,0,0,0,0,0,0,0,0,0,-1,1903,1653,0,0
686,-629,0,0,0,0,0,0,0,0,0,-1,1910,1653,0,0
693,-629,0,0,0,0,0,0,0,0,0,-1,1917,1653,0,0
700,-629,0,0,0,0,0,0,0,0,0,-1,1924,1653,0,0
707,-629,0,0,0,0,0,0,0,0,0,-1,1931,1653,0,0
714,-629,0,0,0,0,0,0,0,0,0,-1,1938,1653,0,0
721,-629,0,0,0,0,0,0,0,0,0,-1,1945,1653,0,0
728,-629,0,0,0,0,0,0,0,0,0,-1,1952,1653,0,0
735,-629,0,0,0,0,0,0,0,0,0,-1,1959,1653,0,0
742,-629,0,0,0,0,0,0,0,0,0,-1,1966,1653,0,0
749,-629,0,0,0,0,0,0,0,0,0,-1,1973,1653,0,0
756,-629,0,0,0,0,0,0,0,0,0,-1,1980,1653,0,0
763,-629,0,0,0,0,0,0,0,0,0,-1,1987,1653,0,0
770,-629,0,0,0,0,0,0,0,0,0,-1,1994,1653,0,0
777,-629,0,0,0,0,0,0,0,0,0,-1,2001,1653,0,0
784,-629,0,0,0,0,0,0,0,0,0,-1,2008,1653,0,0
791,-629,0,0,0,0,0,0,0,0,0,-1,2015,1653,0,0
798,-629,0,0,0,0,0,0,0,0,0,-1,2022,1653,0,0
805,-629,0,0,0,0,0,0,0,0,0,-1,2029,1653,0,0
812,-629,0,0,0,0,0,0,0,0,0,-1,2036,1653,0,0
-700,-636,0,0,0,0,0,0,0,0,0,-1,524,1660,0,0
-693,-636,0,0,0,0,0,0,0,0,0,-1,531,1660,0,0
-686,-636,0,0,0,0,0,0,0,0,0,-1,538,1660,0,0
-679,-636,0,0,0,0,0,0,0,0,0,-1,545,1660,0,0
-672,-636,0,0,0,0,0,0,0,0,0,-1,552,1660,0,0
-665,-636,0,0,0,0,0,0,0,0,0,-1,559,1660,0,0
-658,-636,0,0,0,0,0,0,0,0,0,-1,566,1660,0,0
-651,-636,0,0,0,0,0,0,0,0,0,-1,573,1660,0,0
-644,-636,0,0,0,0,0,0,0,0,0,-1,580,1660,0,0
-637,-636,0,0,0,0,0,0,0,0,0,-1,587,1660,0,0
-630,-636,0,0,0,0,0,0,0,0,0,-1,594,1660,0,0
-623,-636,0,0,0,0,0,0,0,0,0,-1,601,1660,0,0
-616,-636,0,0,0,0,0,0,0,0,0,-1,608,1660,0,0
-609,-636,0,0,0,0,0,0,0,0,0,-1,615,1660,0,0
-602,-636,0,0,0,0,0,0,0,0,0,-1,622,1660,0,0
-595,-636,0,0,0,0,0,0,0,0,0,-1,629,1660,0,0
-588,-636,0,0,0,0,0,0,0,0,0,-1,636,1660,0,0
-581,-636,0,0,0,0,0,0,0,0,0,-1,643,1660,0,0
-574,-636,0,0,0,0,0,0,0,0,0,-1,650,1660,0,0
-567,-636,0,0,0,0,0,0,0,0,0,-1,657,1660,0,0
-560,-636,0,0,0,0,0,0,0,0,0,-1,664,1660,0,0
-553,-636,0,0,0,0,0,0,0,0,0,-1,671,1660,0,0
-546,-636,0,0,0,0,0,0,0,0,0,-1,678,1660,0,0
-539,-636,0,0,0,0,0,0,0,0,0,-1,685,1660,0,0
-532,-636,0,0,0,0,0,0,0,0,0,-1,692,1660,0,0
-525,-636,0,0,0,0,0,0,0,0,0,-1,699,1660,0,0
-518,-636,0,0,0,0,0,0,0,0,0,-1,706,1660,0,0
-511,-636,0,0,0,0,0,0,0,0,0,-1,713,1660,0,0
-504,-636,0,0,0,0,0,0,0,0,0,-1,720,1660,0,0
-497,-636,0,0,0,0,0,0,0,0,0,-1,727,1660,0,0
-490,-636,0,0,0,0,0,0,0,0,0,-1,734,1660,0,0
-483,-636,0,0,0,0,0,0,0,0,0,-1,741,1660,0,0
-476,-636,0,0,0,0,0,0,0,0,0,-1,748,1660,0,0
-469,-636,0,0,0,0,0,0,0,0,0,-1,755,1660,0,0
-462,-636,0,0,0,0,0,0,0,0,0,-1,762,1660,0,0
-455,-636,0,0,0,0,0,0,0,0,0,-1,769,1660,0,0
-448,-636,0,0,0,0,0,0,0,0,0,-1,776,1660,0,0
-441,-636,0,0,0,0,0,0,0,0,0,-1,783,1660,0,0
-434,-636,0,0,0,0,0,0,0,0,0,-1,790,1660,0,0
-427,-636,0,0,0,0,0,0,0,0,0,-1,797,1660,0,0
-420,-636,0,0,0,0,0,0,0,0,0,-1,804,1660,0,0
-413,-636,0,0,0,0,0,0,0,0,0,-1,811,1660,0,0
-406,-636,-0.591125,10.6943,0,0,0,0,0,0,0,-1,818,1660,-0.59115,-10.6943
-399,-636,0.0766602,11.2408,0,0,0,0,0,0,0,-1,825,1660,0.076685,-11.2409
-392,-636,0.75946,11.9233,0,0,0,0,0,0,0,-1,832,1660,0.759481,-11.9233
-385,-636,1.68878,12.517,0,0,0,0,0,0,0,-1,839,1660,1.6888,-12.5169
-378,-636,2.22107,13.0013,0,0,0,0,0,0,0,-1,846,1660,2.22107,-13.0014
-371,-636,2.52185,11.9684,0,0,0,0,0,0,0,-1,853,1660,2.52184,-11.9684
-364,-636,4.51947,14.8503,0,0,0,0,0,0,0,-1,860,1660,4.51949,-14.8504
-357,-636,4.55682,15.8809,0,0,0,0,0,0,0,-1,867,1660,4.55681,-15.8808
-350,-636,2.57788,36.7095,0,0,0,0,0,0,0,-1,874,1660,2.57785,-36.7094
-343,-636,2.75891,42.3431,0,0,0,0,0,0,0,-1,881,1660,2.75889,-42.3431
-336,-636,2.73102,42.9882,0.0191015,-0.00335075,0.0129937,0.0250469,-0.00929619,0.429125,0.0205113,0.0357414,888,1660,2.73103,-42.9882
-329,-636,2.91992,43.7219,0.0156832,-0.0034403,0.0115738,0.0211341,-0.00889121,0.440155,0.017809,0.0187141,895,1660,2.91992,-43.7219
-322,-636,2.90442,44.4255,0.0126806,-0.00330873,0.0103005,0.0177249,-0.00835303,0.455386,0.0153768,0.0124324,902,1660,2.90443,-44.4255
-315,-636,2.84283,45.1366,0.0101129,-0.00318521,0.00903475,0.0146815,-0.00775384,0.468177,0.0131573,0.0137878,909,1660,2.84284,-45.1366
-308,-636,2.80164,45.876,0.00800088,-0.00296229,0.00780254,0.0120549,-0.00701629,0.479184,0.0111381,0.0117175,916,1660,2.80161,-45.876
-301,-636,2.77393,46.618,0.00629317,-0.00260602,0.00666336,0.00985602,-0.00616887,0.491015,0.00933325,0.0116183,923,1660,2.77395,-46.6181
-294,-636,2.73285,47.3131,0.00511437,-0.00200521,0.00572456,0.0082957,-0.00518654,0.507235,0.00785267,0.0151307,930,1660,2.73287,-47.3131
-287,-636,2.70459,47.9924,0.00422802,-0.0012675,0.00490968,0.00710655,-0.00414603,0.530283,0.0065712,0.014387,937,1660,2.7046,-47.9924
-280,-636,2.6756,48.6829,0.00356612,-0.000308171,0.00424447,0.0062946,-0.00303665,0.571319,0.00549576,0.0143709,944,1660,2.67558,-48.6828
-273,-636,2.63007,49.3495,0.00344978,0.000386482,0.00376579,0.00598349,-0.00214723,0.592252,0.00486533,0.0133915,951,1660,2.63009,-49.3495
-266,-636,2.60236,50.0305,0.00343888,0.000965622,0.00317285,0.00560757,-0.00120307,0.599577,0.00419728,0.0140269,958,1660,2.60238,-50.0305
-259,-636,2.58917,50.7064,0.00374895,0.00186845,0.00289526,0.00585281,-0.000235414,0.628393,0.00398267,0.0162785,965,1660,2.58919,-50.7064
-252,-636,2.57166,51.3215,0.00429178,0.00282938,0.00267241,0.00633121,0.00078994,0.651861,0.00398369,0.01245,972,1660,2.57163,-51.3216
-245,-636,2.56689,51.9976,0.00479049,0.00341759,0.00258177,0.00677552,0.00143257,0.655463,0.00412329,0.0116278,979,1660,2.5669,-51.9976
-238,-636,2.54681,52.6622,0.00536045,0.00340239,0.00247759,0.00704543,0.00171741,0.597238,0.00424199,0.0130305,986,1660,2.54681,-52.6622
-231,-636,2.53131,53.2993,0.00589911,0.00239874,0.00231403,0.00705029,0.00124756,0.461626,0.00434446,0.0120608,993,1660,2.53133,-53.2993
-224,-636,2.54102,53.9193,0.00627915,0.00143343,0.00203233,0.00701866,0.000693914,0.348983,0.00446581,0.0102072,1000,1660,2.541,-53.9193
-217,-636,2.53149,54.5967,0.00663906,7.58837e-05,0.0017398,0.00707173,-0.000356789,0.243746,0.00483781,0.0161665,1007,1660,2.53147,-54.5967
-210,-636,2.52924,55.187,0.00715522,-0.00171598,0.00133449,0.00735161,-0.00191237,0.146122,0.00564751,0.026084,1014,1660,2.52923,-55.187
-203,-636,2.49243,55.8148,0,0,0,0,0,0,0,-1,1021,1660,2.49243,-55.8148
-196,-636,2.75366,56.3276,0.00832621,-0.00635626,0.000336126,0.0083339,-0.00636395,0.022877,0.00851118,0.0309267,1028,1660,2.75362,-56.3277
-189,-636,2.73633,56.8076,0.00873961,-0.00880977,-0.000303708,0.00874486,-0.00881502,-0.017299,0.0101382,0.0305799,1035,1660,2.73627,-56.8076
-182,-636,2.81055,57.2953,0.00934324,-0.0101236,-0.000524399,0.00935736,-0.0101378,-0.026912,0.0112585,0.0489832,1042,1660,2.8106,-57.2953
-175,-636,2.97168,57.7795,0,0,0,0,0,0,0,-1,1049,1660,2.97171,-57.7795
-168,-636,3.87,56.0028,0,0,0,0,0,0,0,-1,1056,1660,3.87004,-56.0028
-161,-636,4.54553,56.2565,0,0,0,0,0,0,0,-1,1063,1660,4.5455,-56.2564
-154,-636,2.71875,59.7118,0,0,0,0,0,0,0,-1,1070,1660,2.71874,-59.7118
-147,-636,4.22656,55.8413,0,0,0,0,0,0,0,-1,1077,1660,4.22662,-55.8413
-140,-636,3.20886,57.1307,0,0,0,0,0,0,0,-1,1084,1660,3.20882,-57.1307
-133,-636,2.82764,57.9807,0,0,0,0,0,0,0,-1,1091,1660,2.82766,-57.9807
-126,-636,2.44653,58.8307,0,0,0,0,0,0,0,-1,1098,1660,2.44649,-58.8307
-119,-636,1.8667,13.8916,0,0,0,0,0,0,0,-1,1105,1660,1.86668,-13.8916
-112,-636,-1.24963,9.7998,0,0,0,0,0,0,0,-1,1112,1660,-1.24968,-9.79978
-105,-636,3.51624,4.72791,0,0,0,0,0,0,0,-1,1119,1660,3.51618,-4.7279
-98,-636,1.54504,5.11914,0,0,0,0,0,0,0,-1,1126,1660,1.54503,-5.11912
-91,-636,-1.87964,-2.25012,0,0,0,0,0,0,0,-1,1133,1660,-1.87966,2.25016
-84,-636,-2.84143,0.133667,0,0,0,0,0,0,0,-1,1140,1660,-2.84144,-0.133701
-77,-636,-3.57349,2.45935,0,0,0,0,0,0,0,-1,1147,1660,-3.57345,-2.45939
-70,-636,-4.23682,4.82312,0,0,0,0,0,0,0,-1,1154,1660,-4.23681,-4.82307
-63,-636,-2.21033,6.97168,0,0,0,0,0,0,0,-1,1161,1660,-2.21034,-6.97165
-56,-636,-2.51917,8.80359,0,0,0,0,0,0,0,-1,1168,1660,-2.51916,-8.80361
-49,-636,-3.13,10.4113,0,0,0,0,0,0,0,-1,1175,1660,-3.12996,-10.4112
-42,-636,-2.27771,4.90173,0,0,0,0,0,0,0,-1,1182,1660,-2.27775,-4.90173
-35,-636,-2.27698,5.89685,0,0,0,0,0,0,0,-1,1189,1660,-2.27695,-5.89686
-28,-636,-1.70654,4.83936,0,0,0,0,0,0,0,-1,1196,1660,-1.70656,-4.8393
-21,-636,4.24683,27.7834,0,0,0,0,0,0,0,-1,1203,1660,4.24687,-27.7835
-14,-636,1.65759,62.2151,0,0,0,0,0,0,0,-1,1210,1660,1.65763,-62.2151
-7,-636,3.43738,62.5488,0,0,0,0,0,0,0,-1,1217,1660,3.43737,-62.5489
0,-636,5.00415,63.0626,0.221517,-0.116587,0.039097,0.22598,-0.121049,0.113638,0.203387,0.0483512,1224,1660,5.00418,-63.0626
7,-636,6.97266,63.2166,0.191515,-0.0555462,0.0415765,0.198324,-0.0623552,0.16233,0.157179,0.0470969,1231,1660,6.97263,-63.2166
14,-636,8.84351,63.4756,0.167182,0.0029179,0.0517165,0.182108,-0.0120081,0.280977,0.125599,0.0443313,1238,1660,8.84353,-63.4756
21,-636,10.6752,63.7886,0.146365,0.0527781,0.0634551,0.178414,0.0207289,0.467695,0.112671,0.0472145,1245,1660,10.6752,-63.7885
28,-636,12.5627,64.0664,0,0,0,0,0,0,0,-1,1252,1660,12.5627,-64.0664
35,-636,11.428,69.5251,0,0,0,0,0,0,0,-1,1259,1660,11.4279,-69.5251
42,-636,12.2467,69.271,0.0850185,0.156123,0.0875821,0.215094,0.0260478,0.978202,0.13555,0.04636,1266,1660,12.2467,-69.271
49,-636,12.8597,69.0764,0.0673496,0.178587,0.0922746,0.230709,0.0152278,1.05662,0.14899,0.0469091,1273,1660,12.8598,-69.0764
56,-636,13.2583,69.1073,0,0,0,0,0,0,0,-1,1280,1660,13.2584,-69.1073
63,-636,13.5228,69.4856,0.036232,0.207845,0.09774,0.2521,-0.00802245,1.14564,0.170804,0.04894,1287,1660,13.5229,-69.4856
70,-636,13.2783,69.8344,0.0293141,0.206744,0.101139,0.252563,-0.0165049,1.14542,0.174138,0.0458336,1294,1660,13.2784,-69.8344
77,-636,12.6697,68.4768,0,0,0,0,0,0,0,-1,1301,1660,12.6697,-68.4768
84,-636,13.0172,68.4513,0.034333,0.188026,0.108893,0.244458,-0.0220985,1.09267,0.170815,0.0460881,1308,1660,13.0172,-68.4513
91,-636,13.4089,68.4019,0.0386481,0.174154,0.113412,0.23851,-0.0257078,1.05465,0.168232,0.042136,1315,1660,13.4089,-68.4019
98,-636,13.943,68.3315,0,0,0,0,0,0,0,-1,1322,1660,13.943,-68.3315
105,-636,15.2491,67.387,0,0,0,0,0,0,0,-1,1329,1660,15.2492,-67.3869
112,-636,14.5778,68.2675,0,0,0,0,0,0,0,-1,1336,1660,14.5778,-68.2674
119,-636,16.0249,70.373,0,0,0,0,0,0,0,-1,1343,1660,16.0249,-70.3731
126,-636,16.3948,71.5645,0.0553586,0.158591,0.149385,0.265025,-0.0510758,0.95174,0.195941,0.0437752,1350,1660,16.3948,-71.5645
133,-636,16.6313,72.7728,0.0574891,0.175015,0.15926,0.286007,-0.0535035,0.962137,0.210782,0.0450884,1357,1660,16.6313,-72.7728
140,-636,17.037,74.2544,0.063169,0.196997,0.168648,0.311521,-0.0513544,0.974257,0.226746,0.044384,1364,1660,17.037,-74.2544
147,-636,17.4777,75.5483,0.0730017,0.223739,0.16519,0.329942,-0.0332011,0.999419,0.231822,0.0493872,1371,1660,17.4777,-75.5483
154,-636,17.9296,76.7925,0,0,0,0,0,0,0,-1,1378,1660,17.9296,-76.7925
161,-636,10.2961,7.13025,0,0,0,0,0,0,0,-1,1385,1660,10.2961,-7.13021
168,-636,11.7659,5.83899,0,0,0,0,0,0,0,-1,1392,1660,11.7658,-5.83899
175,-636,5.94592,-1.72888,0,0,0,0,0,0,0,-1,1399,1660,5.94598,1.72886
182,-636,5.93994,-1.11938,0,0,0,0,0,0,0,-1,1406,1660,5.93998,1.11936
189,-636,5.32544,11.9595,0,0,0,0,0,0,0,-1,1413,1660,5.32542,-11.9595
196,-636,5.3623,9.38025,0,0,0,0,0,0,0,-1,1420,1660,5.36225,-9.38027
203,-636,5.18542,9.02429,0,0,0,0,0,0,0,-1,1427,1660,5.18547,-9.0243
210,-636,4.09167,7.17041,0,0,0,0,0,0,0,-1,1434,1660,4.09173,-7.17041
217,-636,2.94897,5.28992,0,0,0,0,0,0,0,-1,1441,1660,2.94899,-5.28991
224,-636,1.49194,3.63916,0,0,0,0,0,0,0,-1,1448,1660,1.49197,-3.63918
231,-636,0.17749,2.24854,0,0,0,0,0,0,0,-1,1455,1660,0.177501,-2.24855
238,-636,-0.764648,1.00598,0,0,0,0,0,0,0,-1,1462,1660,-0.764704,-1.00595
245,-636,6.21204,1.18005,0,0,0,0,0,0,0,-1,1469,1660,6.21206,-1.18001
252,-636,7.70251,0.865723,0,0,0,0,0,0,0,-1,1476,1660,7.7025,-0.865692
259,-636,9.03601,0.787231,0,0,0,0,0,0,0,-1,1483,1660,9.03598,-0.787243
266,-636,10.1071,3.24109,0,0,0,0,0,0,0,-1,1490,1660,10.1071,-3.24103
273,-636,8.48535,5.02466,0,0,0,0,0,0,0,-1,1497,1660,8.48533,-5.02472
280,-636,11.908,32.0698,0,0,0,0,0,0,0,-1,1504,1660,11.9079,-32.0698
287,-636,12.1218,36.4158,0,0,0,0,0,0,0,-1,1511,1660,12.1218,-36.4158
294,-636,13.3706,44.9711,0,0,0,0,0,0,0,-1,1518,1660,13.3706,-44.9711
301,-636,15.9498,58.8107,0,0,0,0,0,0,0,-1,1525,1660,15.9498,-58.8107
308,-636,15.3407,57.6718,0,0,0,0,0,0,0,-1,1532,1660,15.3407,-57.6717
315,-636,14.9542,56.9281,0,0,0,0,0,0,0,-1,1539,1660,14.9542,-56.9281
322,-636,15.078,56.2926,0,0,0,0,0,0,0,-1,1546,1660,15.078,-56.2926
329,-636,14.9421,55.5659,0.00446151,0.0158468,-0.00542953,0.0180209,0.00228739,-1.18992,0.0113287,0.0401562,1553,1660,14.9421,-55.566
336,-636,14.7888,54.986,0.00537559,0.0137973,-0.00599961,0.0169163,0.0022566,-1.09138,0.0106057,0.0317109,1560,1660,14.7888,-54.986
343,-636,14.9939,54.2838,0.00582988,0.0122519,-0.00620106,0.016024,0.00205779,-1.0243,0.0100671,0.0277098,1567,1660,14.9938,-54.2838
350,-636,15.0789,53.6638,0.00602086,0.0107647,-0.00625457,0.015082,0.00170357,-0.966636,0.00953767,0.01282,1574,1660,15.0788,-53.6639
357,-636,15.0703,53.0419,0.00610308,0.00894723,-0.0062524,0.0139372,0.00111307,-0.897218,0.00894359,0.0111903,1581,1660,15.0703,-53.0419
364,-636,15.0651,52.4126,0.00600099,0.00795036,-0.00594572,0.0130008,0.000950592,-0.866641,0.00836832,0.0112895,1588,1660,15.0651,-52.4126
371,-636,15.0448,51.8015,0.00569822,0.00696238,-0.00545456,0.0118214,0.00083924,-0.843081,0.00761659,0.0100962,1595,1660,15.0448,-51.8015
378,-636,15.0493,51.1533,0.00524935,0.00601619,-0.0048961,0.0105439,0.000721684,-0.824474,0.00680145,0.0102982,1602,1660,15.0494,-51.1533
385,-636,15.0479,50.5126,0.00481869,0.00507882,-0.00432995,0.00928066,0.000616855,-0.800413,0.00599208,0.016687,1609,1660,15.0478,-50.5126
392,-636,15.0077,49.8682,0.00421096,0.0041554,-0.00369793,0.00788122,0.000485144,-0.781642,0.00510013,0.0176961,1616,1660,15.0076,-49.8682
399,-636,14.958,49.2052,0.00352832,0.00335749,-0.00317963,0.00662368,0.000262126,-0.77197,0.00433106,0.0128999,1623,1660,14.9581,-49.2052
406,-636,14.9506,48.5427,0.00293833,0.00255013,-0.00277015,0.00552117,-3.27167e-05,-0.750421,0.00369174,0.0146412,1630,1660,14.9505,-48.5428
413,-636,14.9449,47.8684,0.00249512,0.00189725,-0.00254518,0.00475886,-0.00036649,-0.72694,0.00330152,0.0233577,1637,1660,14.9449,-47.8684
420,-636,14.9037,47.2118,0.00218552,0.00146932,-0.00248357,0.00433667,-0.000681829,-0.713797,0.00314314,0.0242458,1644,1660,14.9036,-47.2118
427,-636,14.9012,46.5686,0.00202951,0.00115349,-0.00265507,0.00428246,-0.00109946,-0.703649,0.00328341,0.0165942,1651,1660,14.9012,-46.5686
434,-636,14.8545,45.865,0.00208627,0.00100972,-0.00309237,0.00468687,-0.00159088,-0.699229,0.00376852,0.0157468,1658,1660,14.8545,-45.865
441,-636,14.7949,45.1589,0.00237884,0.000915396,-0.00371931,0.00543772,-0.00214349,-0.688271,0.00451266,0.0133635,1665,1660,14.7949,-45.1589
448,-636,14.7986,44.4517,0.00291131,0.00102585,-0.00449143,0.00655788,-0.00262072,-0.681952,0.00545935,0.0155689,1672,1660,14.7986,-44.4516
455,-636,14.7639,43.7261,0.00363086,0.00116695,-0.00534631,0.00788532,-0.00308751,-0.672159,0.00653391,0.0194739,1679,1660,14.7639,-43.726
462,-636,14.6433,43.0153,0.0044293,0.00127756,-0.00627667,0.00932491,-0.00361804,-0.662407,0.00771095,0.0287291,1686,1660,14.6433,-43.0153
469,-636,14.7218,42.2965,0.00539249,0.00163636,-0.00737579,0.0111256,-0.00409671,-0.660734,0.00909552,0.0495357,1693,1660,14.7218,-42.2965
476,-636,15.0205,41.615,0,0,0,0,0,0,0,-1,1700,1660,15.0205,-41.615
483,-636,11.3833,24.3958,0,0,0,0,0,0,0,-1,1707,1660,11.3833,-24.3957
490,-636,10.8951,23.9569,0,0,0,0,0,0,0,-1,1714,1660,10.8951,-23.9569
497,-636,9.55579,18.0111,0,0,0,0,0,0,0,-1,1721,1660,9.55574,-18.0111
504,-636,6.26428,19.4268,0,0,0,0,0,0,0,-1,1728,1660,6.26433,-19.4268
511,-636,5.65466,9.23218,0,0,0,0,0,0,0,-1,1735,1660,5.65461,-9.23216
518,-636,6.72791,1.07605,0,0,0,0,0,0,0,-1,1742,1660,6.7279,-1.0761
525,-636,7.04309,0.93335,0,0,0,0,0,0,0,-1,1749,1660,7.04308,-0.933298
532,-636,0,0,0,0,0,0,0,0,0,-1,1756,1660,0,0
539,-636,0,0,0,0,0,0,0,0,0,-1,1763,1660,0,0
546,-636,0,0,0,0,0,0,0,0,0,-1,1770,1660,0,0
553,-636,0,0,0,0,0,0,0,0,0,-1,1777,1660,0,0
560,-636,0,0,0,0,0,0,0,0,0,-1,1784,1660,0,0
567,-636,0,0,0,0,0,0,0,0,0,-1,1791,1660,0,0
574,-636,0,0,0,0,0,0,0,0,0,-1,1798,1660,0,0
581,-636,0,0,0,0,0,0,0,0,0,-1,1805,1660,0,0
588,-636,0,0,0,0,0,0,0,0,0,-1,1812,1660,0,0
595,-636,0,0,0,0,0,0,0,0,0,-1,1819,1660,0,0
602,-636,0,0,0,0,0,0,0,0,0,-1,1826,1660,0,0
609,-636,0,0,0,0,0,0,0,0,0,-1,1833,1660,0,0
616,-636,0,0,0,0,0,0,0,0,0,-1,1840,1660,0,0
623,-636,0,0,0,0,0,0,0,0,0,-1,1847,1660,0,0
630,-636,0,0,0,0,0,0,0,0,0,-1,1854,1660,0,0
637,-636,0,0,0,0,0,0,0,0,0,-1,1861,1660,0,0
644,-636,0,0,0,0,0,0,0,0,0,-1,1868,1660,0,0
651,-636,0,0,0,0,0,0,0,0,0,-1,1875,1660,0,0
658,-636,0,0,0,0,0,0,0,0,0,-1,1882,1660,0,0
665,-636,0,0,0,0,0,0,0,0,0,-1,1889,1660,0,0
672,-636,0,0,0,0,0,0,0,0,0,-1,1896,1660,0,0
679,-636,0,0,0,0,0,0,0,0,0,-1,1903,1660,0,0
686,-636,0,0,0,0,0,0,0,0,0,-1,1910,1660,0,0
693,-636,0,0,0,0,0,0,0,0,0,-1,1917,1660,0,0
700,-636,0,0,0,0,0,0,0,0,0,-1,1924,1660,0,0
707,-636,0,0,0,0,0,0,0,0,0,-1,1931,1660,0,0
714,-636,0,0,0,0,0,0,0,0,0,-1,1938,1660,0,0
721,-636,0,0,0,0,0,0,0,0,0,-1,1945,1660,0,0
728,-636,0,0,0,0,0,0,0,0,0,-1,1952,1660,0,0
735,-636,0,0,0,0,0,0,0,0,0,-1,1959,1660,0,0
742,-636,0,0,0,0,0,0,0,0,0,-1,1966,1660,0,0
749,-636,0,0,0,0,0,0,0,0,0,-1,1973,1660,0,0
756,-636,0,0,0,0,0,0,0,0,0,-1,1980,1660,0,0
763,-636,0,0,0,0,0,0,0,0,0,-1,1987,1660,0,0
770,-636,0,0,0,0,0,0,0,0,0,-1,1994,1660,0,0
777,-636,0,0,0,0,0,0,0,0,0,-1,2001,1660,0,0
784,-636,0,0,0,0,0,0,0,0,0,-1,2008,1660,0,0
791,-636,0,0,0,0,0,0,0,0,0,-1,2015,1660,0,0
798,-636,0,0,0,0,0,0,0,0,0,-1,2022,1660,0,0
805,-636,0,0,0,0,0,0,0,0,0,-1,2029,1660,0,0
812,-636,0,0,0,0,0,0,0,0,0,-1,2036,1660,0,0
-700,-643,0,0,0,0,0,0,0,0,0,-1,524,1667,0,0
-693,-643,0,0,0,0,0,0,0,0,0,-1,531,1667,0,0
-686,-643,0,0,0,0,0,0,0,0,0,-1,538,1667,0,0
-679,-643,0,0,0,0,0,0,0,0,0,-1,545,1667,0,0
-672,-643,0,0,0,0,0,0,0,0,0,-1,552,1667,0,0
-665,-643,0,0,0,0,0,0,0,0,0,-1,559,1667,0,0
-658,-643,0,0,0,0,0,0,0,0,0,-1,566,1667,0,0
-651,-643,0,0,0,0,0,0,0,0,0,-1,573,1667,0,0
-644,-643,0,0,0,0,0,0,0,0,0,-1,580,1667,0,0
-637,-643,0,0,0,0,0,0,0,0,0,-1,587,1667,0,0
-630,-643,0,0,0,0,0,0,0,0,0,-1,594,1667,0,0
-623,-643,0,0,0,0,0,0,0,0,0,-1,601,1667,0,0
-616,-643,0,0,0,0,0,0,0,0,0,-1,608,1667,0,0
-609,-643,0,0,0,0,0,0,0,0,0,-1,615,1667,0,0
-602,-643,0,0,0,0,0,0,0,0,0,-1,622,1667,0,0
-595,-643,0,0,0,0,0,0,0,0,0,-1,629,1667,0,0
-588,-643,0,0,0,0,0,0,0,0,0,-1,636,1667,0,0
-581,-643,0,0,0,0,0,0,0,0,0,-1,643,1667,0,0
-574,-643,0,0,0,0,0,0,0,0,0,-1,650,1667,0,0
-567,-643,0,0,0,0,0,0,0,0,0,-1,657,1667,0,0
-560,-643,0,0,0,0,0,0,0,0,0,-1,664,1667,0,0
-553,-643,0,0,0,0,0,0,0,0,0,-1,671,1667,0,0
-546,-643,0,0,0,0,0,0,0,0,0,-1,678,1667,0,0
-539,-643,0,0,0,0,0,0,0,0,0,-1,685,1667,0,0
-532,-643,0,0,0,0,0,0,0,0,0,-1,692,1667,0,0
-525,-643,0,0,0,0,0,0,0,0,0,-1,699,1667,0,0
-518,-643,0,0,0,0,0,0,0,0,0,-1,706,1667,0,0
-511,-643,0,0,0,0,0,0,0,0,0,-1,713,1667,0,0
-504,-643,0,0,0,0,0,0,0,0,0,-1,720,1667,0,0
-497,-643,0,0,0,0,0,0,0,0,0,-1,727,1667,0,0
-490,-643,0,0,0,0,0,0,0,0,0,-1,734,1667,0,0
-483,-643,0,0,0,0,0,0,0,0,0,-1,741,1667,0,0
-476,-643,0,0,0,0,0,0,0,0,0,-1,748,1667,0,0
-469,-643,0,0,0,0,0,0,0,0,0,-1,755,1667,0,0
-462,-643,0,0,0,0,0,0,0,0,0,-1,762,1667,0,0
-455,-643,0,0,0,0,0,0,0,0,0,-1,769,1667,0,0
-448,-643,0,0,0,0,0,0,0,0,0,-1,776,1667,0,0
-441,-643,0,0,0,0,0,0,0,0,0,-1,783,1667,0,0
-434,-643,0,0,0,0,0,0,0,0,0,-1,790,1667,0,0
-427,-643,0,0,0,0,0,0,0,0,0,-1,797,1667,0,0
-420,-643,0,0,0,0,0,0,0,0,0,-1,804,1667,0,0
-413,-643,0,0,0,0,0,0,0,0,0,-1,811,1667,0,0
-406,-643,0,0,0,0,0,0,0,0,0,-1,818,1667,0,0
-399,-643,0.589417,11.6465,0,0,0,0,0,0,0,-1,825,1667,0.58939,-11.6465
-392,-643,0.865295,12.6523,0,0,0,0,0,0,0,-1,832,1667,0.865315,-12.6523
-385,-643,1.72968,13.2692,0,0,0,0,0,0,0,-1,839,1667,1.72967,-13.2692
-378,-643,2.66522,13.8193,0,0,0,0,0,0,0,-1,846,1667,2.66524,-13.8193
-371,-643,0.466125,3.35095,0,0,0,0,0,0,0,-1,853,1667,0.466148,-3.351
-364,-643,1.69513,9.922,0,0,0,0,0,0,0,-1,860,1667,1.69511,-9.92205
-357,-643,1.14227,10.8429,0,0,0,0,0,0,0,-1,867,1667,1.14228,-10.8429
-350,-643,4.48804,36.1799,0,0,0,0,0,0,0,-1,874,1667,4.48801,-36.1799
-343,-643,2.77307,42.8276,0,0,0,0,0,0,0,-1,881,1667,2.77305,-42.8277
-336,-643,2.98865,43.4744,0.0269041,-0.00462058,0.0187175,0.0356121,-0.0133286,0.435448,0.0292159,0.0472947,888,1667,2.98864,-43.4744
-329,-643,3.57086,43.6958,0.0218628,-0.00485953,0.0166999,0.0298887,-0.0128854,0.448005,0.0253377,0.0401922,895,1667,3.57088,-43.6957
-322,-643,3.5769,44.4711,0.0173958,-0.00498932,0.0147376,0.0247092,-0.0123027,0.460636,0.0217653,0.0296161,902,1667,3.5769,-44.4711
-315,-643,3.49323,45.2173,0.0135137,-0.00514215,0.0127326,0.0199696,-0.0115981,0.469262,0.018438,0.019656,909,1667,3.49323,-45.2172
-308,-643,3.5036,45.9054,0.0103102,-0.00510027,0.010807,0.0158775,-0.0106676,0.475703,0.0154239,0.0135347,916,1667,3.5036,-45.9054
-301,-643,3.46985,46.6243,0.0077228,-0.00490743,0.00901621,0.0124155,-0.00960017,0.479895,0.0127454,0.0147959,923,1667,3.46987,-46.6243
-294,-643,3.41736,47.3184,0.00586174,-0.00439836,0.0074882,0.00980861,-0.00834524,0.485075,0.0104925,0.0134867,930,1667,3.41735,-47.3184
-287,-643,3.39594,48.0046,0.00449061,-0.00357852,0.00622527,0.00787438,-0.00696229,0.497881,0.00857135,0.0113083,937,1667,3.39592,-48.0047
-280,-643,3.3689,48.7111,0.00340368,-0.00251247,0.00517151,0.00640335,-0.00551214,0.525612,0.00688583,0.0159003,944,1667,3.36889,-48.7111
-273,-643,3.32465,49.3838,0.00295887,-0.00169736,0.00436361,0.00557659,-0.00431507,0.540343,0.00572641,0.0140027,951,1667,3.32462,-49.3838
-266,-643,3.27411,50.0581,0.00261795,-0.00109545,0.00341862,0.00465154,-0.00312904,0.536628,0.00452069,0.0135274,958,1667,3.27411,-50.0581
-259,-643,3.26257,50.722,0.00266826,-6.377e-05,0.00291604,0.00452238,-0.00191789,0.566353,0.0038183,0.0137695,965,1667,3.26256,-50.7221
-252,-643,3.24994,51.3685,0.00307716,0.00114517,0.00245815,0.00475231,-0.000529982,0.598179,0.00335883,0.0151978,972,1667,3.24995,-51.3686
-245,-643,3.20709,52.0295,0.00346182,0.00183431,0.00218735,0.00498189,0.000314249,0.607317,0.00322162,0.0136406,979,1667,3.20712,-52.0295
-238,-643,3.21161,52.6913,0.00391107,0.00204892,0.00198689,0.00517423,0.000785763,0.566288,0.00321968,0.0161138,986,1667,3.21161,-52.6913
-231,-643,3.18683,53.3256,0.00435915,0.00143612,0.00179633,0.00521341,0.000581858,0.443905,0.0032988,0.0115958,993,1667,3.18682,-53.3255
-224,-643,3.18811,53.937,0.00469953,0.000782644,0.00148174,0.00519691,0.000285266,0.323853,0.00337354,0.00967954,1000,1667,3.18813,-53.937
-217,-643,3.1698,54.5243,0.0049856,-0.000185633,0.00112509,0.00521978,-0.000419813,0.205212,0.00362789,0.0090032,1007,1667,3.16982,-54.5243
-210,-643,3.15851,55.1586,0.00537986,-0.00147921,0.00069267,0.00544911,-0.00154846,0.0996455,0.00424412,0.0122353,1014,1667,3.15853,-55.1586
-203,-643,3.1554,55.8252,0.00591715,-0.00291694,0.000271169,0.00592546,-0.00292525,0.0306573,0.00520691,0.0168587,1021,1667,3.15541,-55.8252
-196,-643,3.17041,56.3994,0.00648174,-0.00458959,-0.000111528,0.00648286,-0.00459071,-0.0100723,0.00642437,0.0179052,1028,1667,3.17042,-56.3994
-189,-643,3.24414,56.9523,0.0069284,-0.00598362,-0.000547512,0.00695158,-0.00600679,-0.042302,0.00748814,0.019565,1035,1667,3.24419,-56.9523
-182,-643,3.21045,57.2982,0,0,0,0,0,0,0,-1,1042,1667,3.21047,-57.2982
-175,-643,3.3551,58.199,0,0,0,0,0,0,0,-1,1049,1667,3.35514,-58.199
-168,-643,3.3396,58.858,0,0,0,0,0,0,0,-1,1056,1667,3.33962,-58.858
-161,-643,3.09766,59.2938,0,0,0,0,0,0,0,-1,1063,1667,3.09765,-59.2938
-154,-643,3.26782,59.5856,0,0,0,0,0,0,0,-1,1070,1667,3.26786,-59.5855
-147,-643,3.27795,60.0399,0,0,0,0,0,0,0,-1,1077,1667,3.27801,-60.0399
-140,-643,3.34644,59.9519,0,0,0,0,0,0,0,-1,1084,1667,3.34647,-59.9519
-133,-643,2.95386,62.4661,0,0,0,0,0,0,0,-1,1091,1667,2.95388,-62.466
-126,-643,3.28662,58.6659,0,0,0,0,0,0,0,-1,1098,1667,3.28657,-58.6658
-119,-643,3.76282,14.1458,0,0,0,0,0,0,0,-1,1105,1667,3.76283,-14.1458
-112,-643,3.81458,16.2069,0,0,0,0,0,0,0,-1,1112,1667,3.81463,-16.2069
-105,-643,-2.23413,10.0996,0,0,0,0,0,0,0,-1,1119,1667,-2.23415,-10.0996
-98,-643,3.11035,4.68066,0,0,0,0,0,0,0,-1,1126,1667,3.11041,-4.68071
-91,-643,-1.74146,-2.5885,0,0,0,0,0,0,0,-1,1133,1667,-1.74146,2.58856
-84,-643,-3.07446,-0.199341,0,0,0,0,0,0,0,-1,1140,1667,-3.07449,0.199383
-77,-643,-3.63794,2.81165,0,0,0,0,0,0,0,-1,1147,1667,-3.63791,-2.8117
-70,-643,-3.36938,4.45203,0,0,0,0,0,0,0,-1,1154,1667,-3.36941,-4.452
-63,-643,-3.67822,6.26855,0,0,0,0,0,0,0,-1,1161,1667,-3.67823,-6.26856
-56,-643,-3.95142,8.1073,0,0,0,0,0,0,0,-1,1168,1667,-3.95139,-8.10732
-49,-643,-4.23535,9.90552,0,0,0,0,0,0,0,-1,1175,1667,-4.23537,-9.90557
-42,-643,-4.25195,10.7059,0,0,0,0,0,0,0,-1,1182,1667,-4.25192,-10.706
-35,-643,-4.10986,11.6588,0,0,0,0,0,0,0,-1,1189,1667,-4.10982,-11.6589
-28,-643,-1.38513,5.604,0,0,0,0,0,0,0,-1,1196,1667,-1.3851,-5.60403
-21,-643,1.61011,23.1276,0,0,0,0,0,0,0,-1,1203,1667,1.61011,-23.1275
-14,-643,13.2256,68.0854,0,0,0,0,0,0,0,-1,1210,1667,13.2256,-68.0855
-7,-643,3.80188,63.2836,0,0,0,0,0,0,0,-1,1217,1667,3.80194,-63.2836
0,-643,5.56506,63.6469,0.159043,-0.0842671,0.0161124,0.160106,-0.0853294,0.0658384,0.143877,0.0477657,1224,1667,5.56509,-63.6468
7,-643,5.10522,64.4312,0.13921,-0.0359146,0.0179613,0.141033,-0.0377378,0.10116,0.108805,0.0443399,1231,1667,5.10519,-64.4312
14,-643,6.5177,64.9526,0,0,0,0,0,0,0,-1,1238,1667,6.5177,-64.9527
21,-643,4.9165,66.2876,0.107884,0.0590442,0.0398879,0.130233,0.0366947,0.510722,0.0775411,0.0434832,1245,1667,4.91647,-66.2876
28,-643,4.30432,66.01,0.0951026,0.102736,0.0534877,0.152543,0.0452958,0.821017,0.0904594,0.0411649,1252,1667,4.30438,-66.01
35,-643,4.9563,64.9644,0,0,0,0,0,0,0,-1,1259,1667,4.95635,-64.9643
42,-643,10.5844,67.6814,0.0743087,0.144699,0.0692633,0.187196,0.0318115,1.02047,0.115661,0.0448655,1266,1667,10.5843,-67.6814
49,-643,10.7966,67.1526,0.065506,0.16374,0.0771793,0.206106,0.0231401,1.06878,0.130377,0.0445437,1273,1667,10.7966,-67.1526
56,-643,11.5134,67.5612,0,0,0,0,0,0,0,-1,1280,1667,11.5134,-67.5611
63,-643,11.7875,67.8816,0.0468219,0.191926,0.0903004,0.23521,0.00353811,1.12382,0.155641,0.0484051,1287,1667,11.7875,-67.8816
70,-643,12.0164,68.1428,0.0411418,0.194952,0.0968336,0.241704,-0.0056105,1.12099,0.163038,0.0458794,1294,1667,12.0163,-68.1429
77,-643,12.2205,68.1986,0,0,0,0,0,0,0,-1,1301,1667,12.2205,-68.1985
84,-643,12.291,67.9556,0.0435594,0.174087,0.104185,0.231762,-0.0141153,1.06521,0.159422,0.0453735,1308,1667,12.291,-67.9555
91,-643,12.6952,67.921,0.0448658,0.157671,0.105613,0.220999,-0.0184619,1.03066,0.153856,0.0448678,1315,1667,12.6952,-67.921
98,-643,14.0959,66.9371,0,0,0,0,0,0,0,-1,1322,1667,14.0959,-66.9372
105,-643,14.1473,67.2737,0.0468456,0.135868,0.112264,0.212123,-0.0294093,0.974135,0.152168,0.0481211,1329,1667,14.1473,-67.2736
112,-643,14.0808,68.0082,0.0477091,0.134134,0.11778,0.216378,-0.0345351,0.96122,0.157035,0.0479078,1336,1667,14.0808,-68.0081
119,-643,14.9342,69.3912,0.0490783,0.136045,0.124261,0.224212,-0.0390883,0.953707,0.164063,0.0453729,1343,1667,14.9342,-69.3912
126,-643,15.3743,70.3312,0.049654,0.14516,0.132519,0.238267,-0.0434534,0.958329,0.175135,0.041702,1350,1667,15.3743,-70.3311
133,-643,15.8124,71.1643,0.0499972,0.159919,0.140317,0.255655,-0.0457384,0.972061,0.187551,0.0473156,1357,1667,15.8124,-71.1643
140,-643,16.2854,72.0806,0,0,0,0,0,0,0,-1,1364,1667,16.2854,-72.0805
147,-643,16.3885,74.5012,0,0,0,0,0,0,0,-1,1371,1667,16.3885,-74.5012
154,-643,16.9066,75.6637,0,0,0,0,0,0,0,-1,1378,1667,16.9066,-75.6637
161,-643,5.57935,26.2754,0,0,0,0,0,0,0,-1,1385,1667,5.57931,-26.2754
168,-643,10.5563,10.9818,0,0,0,0,0,0,0,-1,1392,1667,10.5562,-10.9819
175,-643,5.88525,-1.1698,0,0,0,0,0,0,0,-1,1399,1667,5.88526,1.16977
182,-643,5.80945,-0.418701,0,0,0,0,0,0,0,-1,1406,1667,5.80949,0.418712
189,-643,5.42297,12.9208,0,0,0,0,0,0,0,-1,1413,1667,5.42298,-12.9208
196,-643,5.51953,11.2415,0,0,0,0,0,0,0,-1,1420,1667,5.51948,-11.2414
203,-643,5.60828,9.82153,0,0,0,0,0,0,0,-1,1427,1667,5.60833,-9.82148
210,-643,4.73218,7.58728,0,0,0,0,0,0,0,-1,1434,1667,4.73222,-7.58728
217,-643,3.8031,5.28955,0,0,0,0,0,0,0,-1,1441,1667,3.80305,-5.28955
224,-643,2.96436,2.97095,0,0,0,0,0,0,0,-1,1448,1667,2.96432,-2.97095
231,-643,2.13403,1.08472,0,0,0,0,0,0,0,-1,1455,1667,2.13403,-1.08467
238,-643,1.18152,-0.261963,0,0,0,0,0,0,0,-1,1462,1667,1.18152,0.26192
245,-643,-0.157471,-1.79016,0,0,0,0,0,0,0,-1,1469,1667,-0.157517,1.7901
252,-643,8.08789,0.0202637,0,0,0,0,0,0,0,-1,1476,1667,8.08791,-0.0203056
259,-643,9.02979,-0.46936,0,0,0,0,0,0,0,-1,1483,1667,9.02974,0.46933
266,-643,4.55066,5.17554,0,0,0,0,0,0,0,-1,1490,1667,4.55063,-5.17556
273,-643,10.74,31.432,0,0,0,0,0,0,0,-1,1497,1667,10.7399,-31.4319
280,-643,12.1675,42.5023,0,0,0,0,0,0,0,-1,1504,1667,12.1675,-42.5023
287,-643,12.9725,46.299,0,0,0,0,0,0,0,-1,1511,1667,12.9725,-46.299
294,-643,14.8097,59.0042,0,0,0,0,0,0,0,-1,1518,1667,14.8097,-59.0041
301,-643,14.7787,58.2474,0.00279925,0.0192811,-0.000768909,0.0193169,0.00276345,-1.52428,0.0120628,0.0469127,1525,1667,14.7787,-58.2474
308,-643,14.5463,57.3398,0.00278239,0.0173325,-0.00107198,0.0174111,0.00270384,-1.49765,0.0108193,0.0389394,1532,1667,14.5463,-57.3398
315,-643,14.3876,56.746,0.00268388,0.0150571,-0.0014516,0.0152251,0.00251587,-1.45556,0.00942404,0.0315882,1539,1667,14.3876,-56.746
322,-643,14.3956,56.1124,0.00318956,0.0130925,-0.00239747,0.0136424,0.00263968,-1.34533,0.00835519,0.0199538,1546,1667,14.3956,-56.1124
329,-643,14.407,55.4969,0.00373008,0.0112615,-0.00323358,0.0124593,0.00253226,-1.21604,0.00760401,0.0133592,1553,1667,14.4069,-55.4969
336,-643,14.3967,54.91,0.00414385,0.00991648,-0.00367077,0.0116998,0.00236055,-1.11856,0.00714421,0.0124198,1560,1667,14.3967,-54.9101
343,-643,14.4243,54.3103,0.00430229,0.00886662,-0.00390927,0.0111111,0.0020578,-1.0496,0.00682567,0.0137283,1567,1667,14.4243,-54.3103
350,-643,14.4485,53.6771,0.00435713,0.00784514,-0.00410026,0.0105569,0.00164539,-0.986477,0.00655862,0.0121713,1574,1667,14.4485,-53.6771
357,-643,14.4272,53.0667,0.004411,0.00653205,-0.00428825,0.00988897,0.00105408,-0.90662,0.00627089,0.0109675,1581,1667,14.4272,-53.0667
364,-643,14.4258,52.4596,0.00434921,0.00583912,-0.00421866,0.00937809,0.000810233,-0.87279,0.00600025,0.0100929,1588,1667,14.4258,-52.4597
371,-643,14.4221,51.8488,0.00414885,0.00515022,-0.00400816,0.00868885,0.00061022,-0.847534,0.00560025,0.00879787,1595,1667,14.4221,-51.8488
378,-643,14.4175,51.2064,0.00385264,0.00445953,-0.00372862,0.00789703,0.000415141,-0.825999,0.00513191,0.0102165,1602,1667,14.4175,-51.2064
385,-643,14.4104,50.5304,0.00358865,0.00374398,-0.00345894,0.00712613,0.000206504,-0.796623,0.00468344,0.0170118,1609,1667,14.4104,-50.5303
392,-643,14.3545,49.8678,0.00317273,0.00302032,-0.00312517,0.00622262,-2.95762e-05,-0.773209,0.00415831,0.0185436,1616,1667,14.3544,-49.8678
399,-643,14.2941,49.2487,0.00268932,0.00239977,-0.00288143,0.00542962,-0.000340522,-0.760297,0.00373842,0.015003,1623,1667,14.2941,-49.2487
406,-643,14.2947,48.5702,0.00228081,0.00175631,-0.00270774,0.00473896,-0.000701849,-0.737123,0.00341737,0.0131981,1630,1667,14.2947,-48.5702
413,-643,14.2976,47.8878,0.00201275,0.00131727,-0.00272202,0.00440915,-0.00107913,-0.721867,0.00335746,0.0192049,1637,1667,14.2976,-47.8878
420,-643,14.2444,47.2463,0.00186872,0.00105374,-0.00287814,0.00436807,-0.00144561,-0.715075,0.00349504,0.019227,1644,1667,14.2443,-47.2464
427,-643,14.2207,46.5891,0.00193574,0.000945011,-0.00329996,0.00477731,-0.00189655,-0.710898,0.003971,0.0164088,1651,1667,14.2207,-46.5892
434,-643,14.183,45.8936,0.00223789,0.00101309,-0.00396764,0.00564011,-0.00238913,-0.708828,0.00476066,0.0167682,1658,1667,14.183,-45.8935
441,-643,14.1489,45.1844,0.00277985,0.00118316,-0.00481029,0.0068576,-0.00289459,-0.703165,0.00578332,0.0172042,1665,1667,14.1489,-45.1845
448,-643,14.1738,44.4706,0.00353576,0.00158995,-0.0057532,0.00839774,-0.00327203,-0.701637,0.00695081,0.0237357,1672,1667,14.1739,-44.4706
455,-643,14.0599,43.8738,0.00455772,0.00199031,-0.00677849,0.010173,-0.00362496,-0.691817,0.00825986,0.0332901,1679,1667,14.0599,-43.8738
462,-643,14.0995,43.0162,0.00568796,0.00232102,-0.00788579,0.012068,-0.00405899,-0.680236,0.00968607,0.048399,1686,1667,14.0995,-43.0162
469,-643,14.2156,42.1644,0,0,0,0,0,0,0,-1,1693,1667,14.2155,-42.1644
476,-643,10.5598,24.5066,0,0,0,0,0,0,0,-1,1700,1667,10.5598,-24.5065
483,-643,10.4502,24.3062,0,0,0,0,0,0,0,-1,1707,1667,10.4502,-24.3062
490,-643,10.6885,24.1522,0,0,0,0,0,0,0,-1,1714,1667,10.6884,-24.1522
497,-643,10.9073,23.9465,0,0,0,0,0,0,0,-1,1721,1667,10.9074,-23.9465
504,-643,8.05591,19.0656,0,0,0,0,0,0,0,-1,1728,1667,8.0559,-19.0655
511,-643,7.74719,18.1564,0,0,0,0,0,0,0,-1,1735,1667,7.74724,-18.1563
518,-643,7.40564,0.922607,0,0,0,0,0,0,0,-1,1742,1667,7.4057,-0.922598
525,-643,0,0,0,0,0,0,0,0,0,-1,1749,1667,0,0
532,-643,0,0,0,0,0,0,0,0,0,-1,1756,1667,0,0
539,-643,0,0,0,0,0,0,0,0,0,-1,1763,1667,0,0
546,-643,0,0,0,0,0,0,0,0,0,-1,1770,1667,0,0
553,-643,0,0,0,0,0,0,0,0,0,-1,1777,1667,0,0
560,-643,0,0,0,0,0,0,0,0,0,-1,1784,1667,0,0
567,-643,0,0,0,0,0,0,0,0,0,-1,1791,1667,0,0
574,-643,0,0,0,0,0,0,0,0,0,-1,1798,1667,0,0
581,-643,0,0,0,0,0,0,0,0,0,-1,1805,1667,0,0
588,-643,0,0,0,0,0,0,0,0,0,-1,1812,1667,0,0
595,-643,0,0,0,0,0,0,0,0,0,-1,1819,1667,0,0
602,-643,0,0,0,0,0,0,0,0,0,-1,1826,1667,0,0
609,-643,0,0,0,0,0,0,0,0,0,-1,1833,1667,0,0
616,-643,0,0,0,0,0,0,0,0,0,-1,1840,1667,0,0
623,-643,0,0,0,0,0,0,0,0,0,-1,1847,1667,0,0
630,-643,0,0,0,0,0,0,0,0,0,-1,1854,1667,0,0
637,-643,0,0,0,0,0,0,0,0,0,-1,1861,1667,0,0
644,-643,0,0,0,0,0,0,0,0,0,-1,1868,1667,0,0
651,-643,0,0,0,0,0,0,0,0,0,-1,1875,1667,0,0
658,-643,0,0,0,0,0,0,0,0,0,-1,1882,1667,0,0
665,-643,0,0,0,0,0,0,0,0,0,-1,1889,1667,0,0
672,-643,0,0,0,0,0,0,0,0,0,-1,1896,1667,0,0
679,-643,0,0,0,0,0,0,0,0,0,-1,1903,1667,0,0
686,-643,0,0,0,0,0,0,0,0,0,-1,1910,1667,0,0
693,-643,0,0,0,0,0,0,0,0,0,-1,1917,1667,0,0
700,-643,0,0,0,0,0,0,0,0,0,-1,1924,1667,0,0
707,-643,0,0,0,0,0,0,0,0,0,-1,1931,1667,0,0
714,-643,0,0,0,0,0,0,0,0,0,-1,1938,1667,0,0
721,-643,0,0,0,0,0,0,0,0,0,-1,1945,1667,0,0
728,-643,0,0,0,0,0,0,0,0,0,-1,1952,1667,0,0
735,-643,0,0,0,0,0,0,0,0,0,-1,1959,1667,0,0
742,-643,0,0,0,0,0,0,0,0,0,-1,1966,1667,0,0
749,-643,0,0,0,0,0,0,0,0,0,-1,1973,1667,0,0
756,-643,0,0,0,0,0,0,0,0,0,-1,1980,1667,0,0
763,-643,0,0,0,0,0,0,0,0,0,-1,1987,1667,0,0
770,-643,0,0,0,0,0,0,0,0,0,-1,1994,1667,0,0
777,-643,0,0,0,0,0,0,0,0,0,-1,2001,1667,0,0
784,-643,0,0,0,0,0,0,0,0,0,-1,2008,1667,0,0
791,-643,0,0,0,0,0,0,0,0,0,-1,2015,1667,0,0
798,-643,0,0,0,0,0,0,0,0,0,-1,2022,1667,0,0
805,-643,0,0,0,0,0,0,0,0,0,-1,2029,1667,0,0
812,-643,0,0,0,0,0,0,0,0,0,-1,2036,1667,0,0
-700,-650,0,0,0,0,0,0,0,0,0,-1,524,1674,0,0
-693,-650,0,0,0,0,0,0,0,0,0,-1,531,1674,0,0
-686,-650,0,0,0,0,0,0,0,0,0,-1,538,1674,0,0
-679,-650,0,0,0,0,0,0,0,0,0,-1,545,1674,0,0
-672,-650,0,0,0,0,0,0,0,0,0,-1,552,1674,0,0
-665,-650,0,0,0,0,0,0,0,0,0,-1,559,1674,0,0
-658,-650,0,0,0,0,0,0,0,0,0,-1,566,1674,0,0
-651,-650,0,0,0,0,0,0,0,0,0,-1,573,1674,0,0
-644,-650,0,0,0,0,0,0,0,0,0,-1,580,1674,0,0
-637,-650,0,0,0,0,0,0,0,0,0,-1,587,1674,0,0
-630,-650,0,0,0,0,0,0,0,0,0,-1,594,1674,0,0
-623,-650,0,0,0,0,0,0,0,0,0,-1,601,1674,0,0
-616,-650,0,0,0,0,0,0,0,0,0,-1,608,1674,0,0
-609,-650,0,0,0,0,0,0,0,0,0,-1,615,1674,0,0
-602,-650,0,0,0,0,0,0,0,0,0,-1,622,1674,0,0
-595,-650,0,0,0,0,0,0,0,0,0,-1,629,1674,0,0
-588,-650,0,0,0,0,0,0,0,0,0,-1,636,1674,0,0
-581,-650,0,0,0,0,0,0,0,0,0,-1,643,1674,0,0
-574,-650,0,0,0,0,0,0,0,0,0,-1,650,1674,0,0
-567,-650,0,0,0,0,0,0,0,0,0,-1,657,1674,0,0
-560,-650,0,0,0,0,0,0,0,0,0,-1,664,1674,0,0
-553,-650,0,0,0,0,0,0,0,0,0,-1,671,1674,0,0
-546,-650,0,0,0,0,0,0,0,0,0,-1,678,1674,0,0
-539,-650,0,0,0,0,0,0,0,0,0,-1,685,1674,0,0
-532,-650,0,0,0,0,0,0,0,0,0,-1,692,1674,0,0
-525,-650,0,0,0,0,0,0,0,0,0,-1,699,1674,0,0
-518,-650,0,0,0,0,0,0,0,0,0,-1,706,1674,0,0
-511,-650,0,0,0,0,0,0,0,0,0,-1,713,1674,0,0
-504,-650,0,0,0,0,0,0,0,0,0,-1,720,1674,0,0
-497,-650,0,0,0,0,0,0,0,0,0,-1,727,1674,0,0
-490,-650,0,0,0,0,0,0,0,0,0,-1,734,1674,0,0
-483,-650,0,0,0,0,0,0,0,0,0,-1,741,1674,0,0
-476,-650,0,0,0,0,0,0,0,0,0,-1,748,1674,0,0
-469,-650,0,0,0,0,0,0,0,0,0,-1,755,1674,0,0
-462,-650,0,0,0,0,0,0,0,0,0,-1,762,1674,0,0
-455,-650,0,0,0,0,0,0,0,0,0,-1,769,1674,0,0
-448,-650,0,0,0,0,0,0,0,0,0,-1,776,1674,0,0
-441,-650,0,0,0,0,0,0,0,0,0,-1,783,1674,0,0
-434,-650,0,0,0,0,0,0,0,0,0,-1,790,1674,0,0
-427,-650,0,0,0,0,0,0,0,0,0,-1,797,1674,0,0
-420,-650,0,0,0,0,0,0,0,0,0,-1,804,1674,0,0
-413,-650,0,0,0,0,0,0,0,0,0,-1,811,1674,0,0
-406,-650,0,0,0,0,0,0,0,0,0,-1,818,1674,0,0
-399,-650,0,0,0,0,0,0,0,0,0,-1,825,1674,0,0
-392,-650,5.44415,6.85669,0,0,0,0,0,0,0,-1,832,1674,5.44414,-6.85674
-385,-650,1.74451,14.0183,0,0,0,0,0,0,0,-1,839,1674,1.74453,-14.0183
-378,-650,0.997986,4.11108,0,0,0,0,0,0,0,-1,846,1674,0.998006,-4.11113
-371,-650,-1.80096,3.78625,0,0,0,0,0,0,0,-1,853,1674,-1.80094,-3.78625
-364,-650,-2.95679,2.57507,0,0,0,0,0,0,0,-1,860,1674,-2.95681,-2.57506
-357,-650,5.76074,34.531,0,0,0,0,0,0,0,-1,867,1674,5.76077,-34.531
-350,-650,5.11011,35.4972,0,0,0,0,0,0,0,-1,874,1674,5.1101,-35.4971
-343,-650,5.20538,37.4165,0,0,0,0,0,0,0,-1,881,1674,5.20538,-37.4166
-336,-650,3.26898,43.8756,0,0,0,0,0,0,0,-1,888,1674,3.26897,-43.8756
-329,-650,4.2243,43.657,0,0,0,0,0,0,0,-1,895,1674,4.22428,-43.657
-322,-650,4.13629,44.3418,0.0232764,-0.00764287,0.0206312,0.0335976,-0.017964,0.463861,0.0302218,0.0461628,902,1674,4.13627,-44.3417
-315,-650,4.1311,45.2495,0.0178172,-0.00802398,0.0177146,0.0268226,-0.0170294,0.470313,0.0255275,0.041371,909,1674,4.13112,-45.2495
-308,-650,4.20532,45.9178,0.013319,-0.00809112,0.0149166,0.0209743,-0.0157465,0.474159,0.0212723,0.0235137,916,1674,4.2053,-45.9179
-301,-650,4.16669,46.6483,0.00970072,-0.0079244,0.0123,0.0160193,-0.014243,0.474552,0.017482,0.0120206,923,1674,4.16668,-46.6484
-294,-650,4.10431,47.34,0.0070571,-0.00734829,0.0100335,0.0122055,-0.0124967,0.474092,0.0142622,0.0101641,930,1674,4.1043,-47.34
-287,-650,4.0658,48.0402,0.00514314,-0.00628695,0.00819568,0.00941963,-0.0105635,0.480934,0.0115435,0.0137607,937,1674,4.06579,-48.0402
-280,-650,4.02429,48.7119,0.00361364,-0.00496886,0.00665462,0.00724065,-0.00859587,0.499024,0.00915437,0.0156316,944,1674,4.02429,-48.7119
-273,-650,3.97919,49.4191,0.00282456,-0.00388439,0.00543932,0.0058606,-0.00692043,0.509091,0.00738758,0.0151227,951,1674,3.97921,-49.4191
-266,-650,3.93988,50.1014,0.00215138,-0.00313782,0.00409534,0.00438179,-0.00536824,0.498705,0.00563877,0.0123061,958,1674,3.93987,-50.1015
-259,-650,3.92419,50.7518,0.00195041,-0.00187421,0.0033357,0.00388307,-0.00380687,0.525125,0.00443986,0.0153599,965,1674,3.92419,-50.7518
-252,-650,3.89594,51.4209,0.00223618,-0.000304759,0.00261333,0.0038715,-0.00194007,0.559145,0.00341652,0.0146013,972,1674,3.89596,-51.4209
-245,-650,3.85144,52.0698,0.00251312,0.000575528,0.00216204,0.0039135,-0.000824852,0.574764,0.00292301,0.0131759,979,1674,3.85143,-52.0698
-238,-650,3.81915,52.7043,0.00285392,0.00110985,0.00189864,0.00407122,-0.000107438,0.57012,0.00275066,0.0133217,986,1674,3.81914,-52.7043
-231,-650,3.78961,53.3516,0.00322308,0.00089537,0.00171959,0.00413566,-1.72041e-05,0.487898,0.00276286,0.0168891,993,1674,3.78963,-53.3515
-224,-650,3.79565,53.9814,0.00352838,0.000516287,0.0014109,0.00408602,-4.13549e-05,0.376395,0.0027379,0.0143203,1000,1674,3.79568,-53.9814
-217,-650,3.78583,54.571,0.00373959,-0.000142618,0.00103059,0.00399621,-0.000399241,0.244042,0.0028067,0.0102617,1007,1674,3.78586,-54.571
-210,-650,3.79077,55.1659,0.0040155,-0.00103774,0.000620049,0.00409047,-0.00111271,0.120325,0.00316379,0.00971714,1014,1674,3.79079,-55.1659
-203,-650,3.81909,55.7559,0.00445445,-0.00207005,0.000230684,0.0044626,-0.0020782,0.0352978,0.00385906,0.0146357,1021,1674,3.8191,-55.7559
-196,-650,3.80396,56.3378,0.00497045,-0.00315482,-7.10697e-05,0.00497108,-0.00315544,-0.00874586,0.00473072,0.0150944,1028,1674,3.80396,-56.3378
-189,-650,3.78992,56.9269,0.00539918,-0.00394406,-0.000413518,0.00541745,-0.00396233,-0.0441434,0.0054371,0.0129803,1035,1674,3.78992,-56.9269
-182,-650,3.84595,57.5775,0.00594939,-0.00390162,-0.000518772,0.00597664,-0.00392886,-0.0524683,0.00575953,0.0142668,1042,1674,3.84601,-57.5775
-175,-650,3.85193,58.0742,0.00660895,-0.00370373,-0.000455171,0.00662901,-0.00372378,-0.0440229,0.00605513,0.0255605,1049,1674,3.85197,-58.0742
-168,-650,3.8114,58.6259,0.0072093,-0.00278123,-0.000374712,0.00722334,-0.00279527,-0.0374365,0.0059696,0.0317224,1056,1674,3.8114,-58.6259
-161,-650,3.73657,59.1263,0.00809411,-0.00107682,-7.02354e-05,0.00809465,-0.00107736,-0.00765789,0.00578906,0.0390676,1063,1674,3.73654,-59.1263
-154,-650,3.84851,59.6392,0.00896413,0.00149528,0.000313787,0.00897729,0.00148212,0.0419143,0.0055571,0.0364344,1070,1674,3.84855,-59.6391
-147,-650,4.00598,60.2701,0.00976397,0.00483103,0.000792737,0.00988824,0.00470677,0.155489,0.00571117,0.0418842,1077,1674,4.00601,-60.2701
-140,-650,4.10242,60.8901,0,0,0,0,0,0,0,-1,1084,1674,4.10242,-60.8901
-133,-650,3.71692,62.1738,0,0,0,0,0,0,0,-1,1091,1674,3.71697,-62.1738
-126,-650,3.76416,63.0907,0,0,0,0,0,0,0,-1,1098,1674,3.7642,-63.0907
-119,-650,5.16663,20.6232,0,0,0,0,0,0,0,-1,1105,1674,5.16665,-20.6232
-112,-650,3.86292,14.4513,0,0,0,0,0,0,0,-1,1112,1674,3.8629,-14.4513
-105,-650,7.92102,38.1313,0,0,0,0,0,0,0,-1,1119,1674,7.92104,-38.1314
-98,-650,3.3761,6.78003,0,0,0,0,0,0,0,-1,1126,1674,3.37611,-6.78009
-91,-650,3.66809,7.04443,0,0,0,0,0,0,0,-1,1133,1674,3.66806,-7.04439
-84,-650,-3.82666,-1.59521,0,0,0,0,0,0,0,-1,1140,1674,-3.82661,1.59517
-77,-650,-4.70557,1.90198,0,0,0,0,0,0,0,-1,1147,1674,-4.7056,-1.90194
-70,-650,-4.88171,3.81653,0,0,0,0,0,0,0,-1,1154,1674,-4.88176,-3.81651
-63,-650,-5.14612,5.56543,0,0,0,0,0,0,0,-1,1161,1674,-5.14612,-5.56547
-56,-650,-5.38367,7.41101,0,0,0,0,0,0,0,-1,1168,1674,-5.38361,-7.41102
-49,-650,-5.11316,8.23706,0,0,0,0,0,0,0,-1,1175,1674,-5.11317,-8.23708
-42,-650,-4.99487,9.6792,0,0,0,0,0,0,0,-1,1182,1674,-4.99484,-9.67921
-35,-650,-4.77771,11.3369,0,0,0,0,0,0,0,-1,1189,1674,-4.77769,-11.3369
-28,-650,-4.1936,13.1501,0,0,0,0,0,0,0,-1,1196,1674,-4.19358,-13.1501
-21,-650,7.52466,48.5822,0,0,0,0,0,0,0,-1,1203,1674,7.52469,-48.5821
-14,-650,2.70374,63.2556,0,0,0,0,0,0,0,-1,1210,1674,2.70374,-63.2556
-7,-650,4.38525,63.6826,0,0,0,0,0,0,0,-1,1217,1674,4.38531,-63.6827
0,-650,5.81531,64.3081,0.118312,-0.0554048,0.00539939,0.11848,-0.0555725,0.0310416,0.102654,0.0430192,1224,1674,5.81526,-64.3081
7,-650,5.77563,64.8049,0.105988,-0.0219095,0.00625211,0.106292,-0.0222144,0.0487291,0.0793103,0.0453108,1231,1674,5.77568,-64.805
14,-650,6.70276,64.8442,0.0953124,0.0175484,0.0154347,0.0982639,0.014597,0.188943,0.0612264,0.040587,1238,1674,6.70276,-64.8442
21,-650,6.03699,65.5409,0.0848837,0.0569726,0.0271237,0.101431,0.0404248,0.547802,0.058962,0.0414519,1245,1674,6.03697,-65.5409
28,-650,5.89172,65.0142,0.0764755,0.0944297,0.0402412,0.126683,0.0442222,0.895142,0.0742428,0.0420726,1252,1674,5.89178,-65.0142
35,-650,6.11279,64.3765,0,0,0,0,0,0,0,-1,1259,1674,6.1128,-64.3765
42,-650,6.33337,63.7522,0,0,0,0,0,0,0,-1,1266,1674,6.33332,-63.7522
49,-650,6.51331,63.1588,0,0,0,0,0,0,0,-1,1273,1674,6.51335,-63.1589
56,-650,9.74792,65.8574,0,0,0,0,0,0,0,-1,1280,1674,9.74798,-65.8574
63,-650,10.0747,66.2485,0.050647,0.168444,0.0808681,0.209589,0.00950213,1.10014,0.136669,0.0483791,1287,1674,10.0747,-66.2486
70,-650,10.6841,66.7854,0.0465532,0.173086,0.0884932,0.218602,0.00103683,1.09574,0.14539,0.0481169,1294,1674,10.6841,-66.7854
77,-650,11.7841,67.9237,0,0,0,0,0,0,0,-1,1301,1674,11.784,-67.9237
84,-650,11.7455,67.0978,0.0481304,0.154407,0.0960613,0.211047,-0.00851051,1.03803,0.143619,0.0470621,1308,1674,11.7455,-67.0977
91,-650,12.0234,67.441,0.0473912,0.137836,0.0954629,0.198247,-0.0130188,1.0066,0.136711,0.0468101,1315,1674,12.0234,-67.441
98,-650,12.5609,66.7471,0,0,0,0,0,0,0,-1,1322,1674,12.5609,-66.7471
105,-650,13.0116,67.1404,0.045301,0.116087,0.0985878,0.185442,-0.0240545,0.957733,0.132377,0.0468841,1329,1674,13.0116,-67.1404
112,-650,13.4575,67.5469,0.0440449,0.11411,0.102267,0.187179,-0.0290233,0.950414,0.1355,0.0448958,1336,1674,13.4576,-67.5469
119,-650,13.8521,68.1697,0.0434869,0.116858,0.107382,0.193648,-0.0333035,0.95,0.141512,0.0441033,1343,1674,13.8521,-68.1697
126,-650,14.2446,69.0343,0.0428139,0.125783,0.113699,0.205329,-0.0367327,0.960324,0.150631,0.0453371,1350,1674,14.2447,-69.0343
133,-650,14.7651,69.2065,0.0429717,0.1376,0.11947,0.218784,-0.0382123,0.973939,0.160121,0.0484211,1357,1674,14.7651,-69.2065
140,-650,15.1809,69.452,0,0,0,0,0,0,0,-1,1364,1674,15.1809,-69.452
147,-650,15.6283,69.7383,0,0,0,0,0,0,0,-1,1371,1674,15.6283,-69.7382
154,-650,7.51245,59.8033,0,0,0,0,0,0,0,-1,1378,1674,7.51242,-59.8033
161,-650,4.09106,30.3021,0,0,0,0,0,0,0,-1,1385,1674,4.09104,-30.3021
168,-650,11.2113,7.87231,0,0,0,0,0,0,0,-1,1392,1674,11.2113,-7.87236
175,-650,5.62537,-0.230713,0,0,0,0,0,0,0,-1,1399,1674,5.62538,0.230745
182,-650,5.56006,0.421631,0,0,0,0,0,0,0,-1,1406,1674,5.56,-0.421652
189,-650,4.81543,11.0654,0,0,0,0,0,0,0,-1,1413,1674,4.81542,-11.0654
196,-650,5.39575,11.9077,0,0,0,0,0,0,0,-1,1420,1674,5.39575,-11.9078
203,-650,3.93628,11.8215,0,0,0,0,0,0,0,-1,1427,1674,3.93624,-11.8216
210,-650,5.40955,8.08594,0,0,0,0,0,0,0,-1,1434,1674,5.40958,-8.086
217,-650,5.12451,4.69739,0,0,0,0,0,0,0,-1,1441,1674,5.12451,-4.69738
224,-650,4.79041,1.45813,0,0,0,0,0,0,0,-1,1448,1674,4.79046,-1.45816
231,-650,4.04102,-0.642212,0,0,0,0,0,0,0,-1,1455,1674,4.04101,0.642209
238,-650,3.23022,-1.43396,0,0,0,0,0,0,0,-1,1462,1674,3.23023,1.43394
245,-650,1.65894,-2.55042,0,0,0,0,0,0,0,-1,1469,1674,1.65889,2.55036
252,-650,8.75342,0.355103,0,0,0,0,0,0,0,-1,1476,1674,8.75337,-0.355147
259,-650,5.61255,3.17566,0,0,0,0,0,0,0,-1,1483,1674,5.61257,-3.17572
266,-650,4.00403,6.10229,0,0,0,0,0,0,0,-1,1490,1674,4.00401,-6.10225
273,-650,11.9524,42.7109,0,0,0,0,0,0,0,-1,1497,1674,11.9524,-42.7109
280,-650,12.3011,46.7283,0,0,0,0,0,0,0,-1,1504,1674,12.3011,-46.7283
287,-650,13.3734,58.6578,0,0,0,0,0,0,0,-1,1511,1674,13.3734,-58.6578
294,-650,13.4615,58.2904,0,0,0,0,0,0,0,-1,1518,1674,13.4616,-58.2904
301,-650,13.6956,57.6974,0.00375029,0.0130069,-0.000569066,0.0130418,0.00371544,-1.50963,0.00775849,0.0377928,1525,1674,13.6956,-57.6973
308,-650,13.806,57.2045,0.0034754,0.0117172,-0.00065218,0.0117685,0.00342411,-1.49232,0.00698968,0.0228615,1532,1674,13.8061,-57.2045
315,-650,13.8293,56.6783,0.00318495,0.0101825,-0.000861311,0.010287,0.00308049,-1.45011,0.00609636,0.014183,1539,1674,13.8293,-56.6783
322,-650,13.8082,56.1115,0.00315019,0.00903462,-0.0013004,0.00930919,0.00287563,-1.36271,0.00550396,0.0128057,1546,1674,13.8083,-56.1115
329,-650,13.8318,55.4902,0.00320629,0.00793117,-0.0017808,0.00852717,0.00261029,-1.24783,0.00504503,0.0172972,1553,1674,13.8317,-55.4903
336,-650,13.8186,54.9274,0.00323013,0.00713049,-0.00209248,0.00804067,0.00231995,-1.1605,0.00477869,0.0154114,1560,1674,13.8186,-54.9274
343,-650,13.8142,54.3315,0.00311036,0.00645701,-0.00232954,0.00765193,0.00191545,-1.09685,0.00459778,0.0140712,1567,1674,13.8142,-54.3315
350,-650,13.8457,53.6989,0.00299151,0.00579747,-0.00260247,0.00735104,0.00143793,-1.03261,0.00449865,0.0154372,1574,1674,13.8457,-53.6988
357,-650,13.8156,53.075,0.00294984,0.00486222,-0.00289269,0.00695266,0.000859403,-0.945022,0.00437685,0.0133516,1581,1674,13.8156,-53.075
364,-650,13.7986,52.4763,0.00284794,0.00436765,-0.00297573,0.00667901,0.000536588,-0.910402,0.00428502,0.00952713,1588,1674,13.7986,-52.4763
371,-650,13.7799,51.8623,0.00268433,0.00387778,-0.00297514,0.00631544,0.000246665,-0.884371,0.00413053,0.0120599,1595,1674,13.7799,-51.8623
378,-650,13.7521,51.2213,0.00250733,0.00336404,-0.00292655,0.00589342,-2.20465e-05,-0.858066,0.00393631,0.0133631,1602,1674,13.7521,-51.2213
385,-650,13.7346,50.5551,0.00240821,0.00281827,-0.00292266,0.00554308,-0.000316605,-0.820416,0.00380532,0.0152706,1609,1674,13.7346,-50.555
392,-650,13.7162,49.9038,0.00220987,0.00225463,-0.00287979,0.00511213,-0.000647629,-0.789284,0.0036432,0.0200871,1616,1674,13.7162,-49.9038
399,-650,13.6952,49.2753,0.0019868,0.00177372,-0.00291332,0.00479553,-0.00103501,-0.767122,0.00359208,0.0172389,1623,1674,13.6952,-49.2753
406,-650,13.6575,48.6218,0.00184033,0.00128299,-0.00298401,0.00455866,-0.00143534,-0.73884,0.00361385,0.0140901,1630,1674,13.6575,-48.6218
413,-650,13.6259,47.9452,0.00183598,0.00104399,-0.00325244,0.00471644,-0.00183647,-0.724819,0.00390322,0.0155177,1637,1674,13.6259,-47.9452
420,-650,13.5627,47.3038,0.00195618,0.000918568,-0.00365734,0.00513132,-0.00225658,-0.714942,0.00437172,0.0166255,1644,1674,13.5627,-47.3038
427,-650,13.5154,46.6403,0.00230302,0.00104951,-0.00431944,0.00604095,-0.00268841,-0.71335,0.0051623,0.0155577,1651,1674,13.5154,-46.6403
434,-650,13.4698,45.9539,0.00288293,0.00134381,-0.00519141,0.00736151,-0.00313477,-0.711815,0.00622165,0.0220524,1658,1674,13.4698,-45.9538
441,-650,13.4912,45.1791,0.00363975,0.00177858,-0.00625599,0.009034,-0.00361566,-0.711564,0.0075233,0.0425793,1665,1674,13.4913,-45.1791
448,-650,13.4518,44.4376,0,0,0,0,0,0,0,-1,1672,1674,13.4517,-44.4376
455,-650,13.3135,43.9921,0,0,0,0,0,0,0,-1,1679,1674,13.3135,-43.9921
462,-650,13.6555,42.9463,0,0,0,0,0,0,0,-1,1686,1674,13.6556,-42.9463
469,-650,11.3628,29.8889,0,0,0,0,0,0,0,-1,1693,1674,11.3628,-29.8889
476,-650,10.9189,27.1289,0,0,0,0,0,0,0,-1,1700,1674,10.919,-27.1289
483,-650,10.2426,24.5127,0,0,0,0,0,0,0,-1,1707,1674,10.2425,-24.5127
490,-650,10.4818,24.3475,0,0,0,0,0,0,0,-1,1714,1674,10.4818,-24.3475
497,-650,10.4985,20.1362,0,0,0,0,0,0,0,-1,1721,1674,10.4986,-20.1362
504,-650,9.69458,18.7721,0,0,0,0,0,0,0,-1,1728,1674,9.6946,-18.772
511,-650,9.37158,17.7506,0,0,0,0,0,0,0,-1,1735,1674,9.37159,-17.7506
518,-650,0,0,0,0,0,0,0,0,0,-1,1742,1674,0,0
525,-650,0,0,0,0,0,0,0,0,0,-1,1749,1674,0,0
532,-650,0,0,0,0,0,0,0,0,0,-1,1756,1674,0,0
539,-650,0,0,0,0,0,0,0,0,0,-1,1763,1674,0,0
546,-650,0,0,0,0,0,0,0,0,0,-1,1770,1674,0,0
553,-650,0,0,0,0,0,0,0,0,0,-1,1777,1674,0,0
560,-650,0,0,0,0,0,0,0,0,0,-1,1784,1674,0,0
567,-650,0,0,0,0,0,0,0,0,0,-1,1791,1674,0,0
574,-650,0,0,0,0,0,0,0,0,0,-1,1798,1674,0,0
581,-650,0,0,0,0,0,0,0,0,0,-1,1805,1674,0,0
588,-650,0,0,0,0,0,0,0,0,0,-1,1812,1674,0,0
595,-650,0,0,0,0,0,0,0,0,0,-1,1819,1674,0,0
602,-650,0,0,0,0,0,0,0,0,0,-1,1826,1674,0,0
609,-650,0,0,0,0,0,0,0,0,0,-1,1833,1674,0,0
616,-650,0,0,0,0,0,0,0,0,0,-1,1840,1674,0,0
623,-650,0,0,0,0,0,0,0,0,0,-1,1847,1674,0,0
630,-650,0,0,0,0,0,0,0,0,0,-1,1854,1674,0,0
637,-650,0,0,0,0,0,0,0,0,0,-1,1861,1674,0,0
644,-650,0,0,0,0,0,0,0,0,0,-1,1868,1674,0,0
651,-650,0,0,0,0,0,0,0,0,0,-1,1875,1674,0,0
658,-650,0,0,0,0,0,0,0,0,0,-1,1882,1674,0,0
665,-650,0,0,0,0,0,0,0,0,0,-1,1889,1674,0,0
672,-650,0,0,0,0,0,0,0,0,0,-1,1896,1674,0,0
679,-650,0,0,0,0,0,0,0,0,0,-1,1903,1674,0,0
686,-650,0,0,0,0,0,0,0,0,0,-1,1910,1674,0,0
693,-650,0,0,0,0,0,0,0,0,0,-1,1917,1674,0,0
700,-650,0,0,0,0,0,0,0,0,0,-1,1924,1674,0,0
707,-650,0,0,0,0,0,0,0,0,0,-1,1931,1674,0,0
714,-650,0,0,0,0,0,0,0,0,0,-1,1938,1674,0,0
721,-650,0,0,0,0,0,0,0,0,0,-1,1945,1674,0,0
728,-650,0,0,0,0,0,0,0,0,0,-1,1952,1674,0,0
735,-650,0,0,0,0,0,0,0,0,0,-1,1959,1674,0,0
742,-650,0,0,0,0,0,0,0,0,0,-1,1966,1674,0,0
749,-650,0,0,0,0,0,0,0,0,0,-1,1973,1674,0,0
756,-650,0,0,0,0,0,0,0,0,0,-1,1980,1674,0,0
763,-650,0,0,0,0,0,0,0,0,0,-1,1987,1674,0,0
770,-650,0,0,0,0,0,0,0,0,0,-1,1994,1674,0,0
777,-650,0,0,0,0,0,0,0,0,0,-1,2001,1674,0,0
784,-650,0,0,0,0,0,0,0,0,0,-1,2008,1674,0,0
791,-650,0,0,0,0,0,0,0,0,0,-1,2015,1674,0,0
798,-650,0,0,0,0,0,0,0,0,0,-1,2022,1674,0,0
805,-650,0,0,0,0,0,0,0,0,0,-1,2029,1674,0,0
812,-650,0,0,0,0,0,0,0,0,0,-1,2036,1674,0,0
-700,-657,0,0,0,0,0,0,0,0,0,-1,524,1681,0,0
-693,-657,0,0,0,0,0,0,0,0,0,-1,531,1681,0,0
-686,-657,0,0,0,0,0,0,0,0,0,-1,538,1681,0,0
-679,-657,0,0,0,0,0,0,0,0,0,-1,545,1681,0,0
-672,-657,0,0,0,0,0,0,0,0,0,-1,552,1681,0,0
-665,-657,0,0,0,0,0,0,0,0,0,-1,559,1681,0,0
-658,-657,0,0,0,0,0,0,0,0,0,-1,566,1681,0,0
-651,-657,0,0,0,0,0,0,0,0,0,-1,573,1681,0,0
-644,-657,0,0,0,0,0,0,0,0,0,-1,580,1681,0,0
-637,-657,0,0,0,0,0,0,0,0,0,-1,587,1681,0,0
-630,-657,0,0,0,0,0,0,0,0,0,-1,594,1681,0,0
-623,-657,0,0,0,0,0,0,0,0,0,-1,601,1681,0,0
-616,-657,0,0,0,0,0,0,0,0,0,-1,608,1681,0,0
-609,-657,0,0,0,0,0,0,0,0,0,-1,615,1681,0,0
-602,-657,0,0,0,0,0,0,0,0,0,-1,622,1681,0,0
-595,-657,0,0,0,0,0,0,0,0,0,-1,629,1681,0,0
-588,-657,0,0,0,0,0,0,0,0,0,-1,636,1681,0,0
-581,-657,0,0,0,0,0,0,0,0,0,-1,643,1681,0,0
-574,-657,0,0,0,0,0,0,0,0,0,-1,650,1681,0,0
-567,-657,0,0,0,0,0,0,0,0,0,-1,657,1681,0,0
-560,-657,0,0,0,0,0,0,0,0,0,-1,664,1681,0,0
-553,-657,0,0,0,0,0,0,0,0,0,-1,671,1681,0,0
-546,-657,0,0,0,0,0,0,0,0,0,-1,678,1681,0,0
-539,-657,0,0,0,0,0,0,0,0,0,-1,685,1681,0,0
-532,-657,0,0,0,0,0,0,0,0,0,-1,692,1681,0,0
-525,-657,0,0,0,0,0,0,0,0,0,-1,699,1681,0,0
-518,-657,0,0,0,0,0,0,0,0,0,-1,706,1681,0,0
-511,-657,0,0,0,0,0,0,0,0,0,-1,713,1681,0,0
-504,-657,0,0,0,0,0,0,0,0,0,-1,720,1681,0,0
-497,-657,0,0,0,0,0,0,0,0,0,-1,727,1681,0,0
-490,-657,0,0,0,0,0,0,0,0,0,-1,734,1681,0,0
-483,-657,0,0,0,0,0,0,0,0,0,-1,741,1681,0,0
-476,-657,0,0,0,0,0,0,0,0,0,-1,748,1681,0,0
-469,-657,0,0,0,0,0,0,0,0,0,-1,755,1681,0,0
-462,-657,0,0,0,0,0,0,0,0,0,-1,762,1681,0,0
-455,-657,0,0,0,0,0,0,0,0,0,-1,769,1681,0,0
-448,-657,0,0,0,0,0,0,0,0,0,-1,776,1681,0,0
-441,-657,0,0,0,0,0,0,0,0,0,-1,783,1681,0,0
-434,-657,0,0,0,0,0,0,0,0,0,-1,790,1681,0,0
-427,-657,0,0,0,0,0,0,0,0,0,-1,797,1681,0,0
-420,-657,0,0,0,0,0,0,0,0,0,-1,804,1681,0,0
-413,-657,0,0,0,0,0,0,0,0,0,-1,811,1681,0,0
-406,-657,0,0,0,0,0,0,0,0,0,-1,818,1681,0,0
-399,-657,0,0,0,0,0,0,0,0,0,-1,825,1681,0,0
-392,-657,0,0,0,0,0,0,0,0,0,-1,832,1681,0,0
-385,-657,1.09814,6.18896,0,0,0,0,0,0,0,-1,839,1681,1.09814,-6.18894
-378,-657,0.31488,4.46753,0,0,0,0,0,0,0,-1,846,1681,0.31487,-4.46755
-371,-657,-0.519043,2.69421,0,0,0,0,0,0,0,-1,853,1681,-0.519064,-2.69422
-364,-657,-3.42017,4.18323,0,0,0,0,0,0,0,-1,860,1681,-3.42019,-4.18319
-357,-657,5.03418,34.7598,0,0,0,0,0,0,0,-1,867,1681,5.03417,-34.7597
-350,-657,4.23431,35.8203,0,0,0,0,0,0,0,-1,874,1681,4.23429,-35.8203
-343,-657,3.60156,36.754,0,0,0,0,0,0,0,-1,881,1681,3.60154,-36.754
-336,-657,3.56458,40.4229,0,0,0,0,0,0,0,-1,888,1681,3.5646,-40.4229
-329,-657,4.00995,42.2004,0,0,0,0,0,0,0,-1,895,1681,4.00995,-42.2004
-322,-657,4.5791,44.0381,0.0303178,-0.0121087,0.0281731,0.044371,-0.0261619,0.462701,0.0411721,0.0426822,902,1681,4.57908,-44.0381
-315,-657,4.81116,45.0961,0.0228961,-0.0126345,0.0240584,0.0350376,-0.0247759,0.467373,0.0347023,0.0440894,909,1681,4.81117,-45.0961
-308,-657,4.71204,45.9082,0.0169008,-0.0126566,0.0201867,0.0271404,-0.0228961,0.469424,0.0289232,0.0393857,916,1681,4.71205,-45.9082
-301,-657,4.82544,46.6497,0.0121565,-0.0122506,0.0165886,0.0205468,-0.0206409,0.468268,0.0237798,0.0280009,923,1681,4.82546,-46.6497
-294,-657,4.76154,47.4077,0.00863071,-0.0113593,0.0133931,0.0153472,-0.0180758,0.46484,0.0193182,0.0161259,930,1681,4.76155,-47.4077
-287,-657,4.70905,48.0908,0.0061393,-0.00975742,0.0108533,0.0116435,-0.0152616,0.469346,0.0155804,0.0119579,937,1681,4.70904,-48.0909
-280,-657,4.66052,48.7382,0.00416376,-0.00795356,0.00871981,0.00872313,-0.0125129,0.481779,0.0123256,0.0149069,944,1681,4.66055,-48.7382
-273,-657,4.63464,49.4414,0.00301806,-0.00637831,0.00701209,0.00676039,-0.0101206,0.490241,0.00981042,0.0112828,951,1681,4.63463,-49.4414
-266,-657,4.6001,50.1136,0.00202563,-0.00530254,0.0052135,0.00473383,-0.00801074,0.479094,0.00743872,0.0149992,958,1681,4.60011,-50.1136
-259,-657,4.59088,50.7531,0.00159097,-0.00367405,0.00414843,0.00387167,-0.00595474,0.502669,0.00571562,0.0188815,965,1681,4.59086,-50.7531
-252,-657,4.51569,51.4207,0.0017639,-0.00161541,0.00310849,0.00361227,-0.00346378,0.536455,0.00408566,0.0141051,972,1681,4.51566,-51.4207
-245,-657,4.48578,52.087,0.00192599,-0.000466144,0.00244603,0.00345273,-0.00199288,0.558,0.00318146,0.0163184,979,1681,4.48581,-52.087
-238,-657,4.4809,52.7216,0.00214633,0.000454596,0.00209676,0.00356141,-0.000960487,0.593674,0.00275091,0.0201777,986,1681,4.48089,-52.7216
-231,-657,4.45844,53.3583,0.00243038,0.000629381,0.00191282,0.00364407,-0.000584309,0.565403,0.00264574,0.0202884,993,1681,4.45846,-53.3583
-224,-657,4.41681,54.0011,0.00268503,0.000489217,0.00158579,0.00351588,-0.000341641,0.482615,0.0024657,0.0163348,1000,1681,4.4168,-54.0011
-217,-657,4.41492,54.627,0.00280067,7.45748e-05,0.0011567,0.00322532,-0.000350074,0.351844,0.0022759,0.0104089,1007,1681,4.41491,-54.627
-210,-657,4.41644,55.2222,0.00294845,-0.000507383,0.000760509,0.00310841,-0.000667341,0.207308,0.00232684,0.011207,1014,1681,4.41645,-55.2222
-203,-657,4.38928,55.8014,0.00328626,-0.00124099,0.000408713,0.00332286,-0.00127759,0.0893162,0.00274217,0.0134116,1021,1681,4.38931,-55.8014
-196,-657,4.37903,56.3719,0.00373344,-0.00193132,0.000161799,0.00373806,-0.00193594,0.0285313,0.00333051,0.0137833,1028,1681,4.37897,-56.372
-189,-657,4.38147,56.9639,0.00411578,-0.00241894,-0.000148058,0.00411913,-0.00242229,-0.0226417,0.00381881,0.010451,1035,1681,4.3815,-56.9639
-182,-657,4.38672,57.5554,0.00458139,-0.00230898,-0.000328455,0.00459701,-0.0023246,-0.047525,0.00406735,0.00868011,1042,1681,4.38666,-57.5554
-175,-657,4.40869,58.1077,0.00520765,-0.00198239,-0.000317229,0.00522162,-0.00199636,-0.0440065,0.00430375,0.0117613,1049,1681,4.4087,-58.1077
-168,-657,4.37512,58.6637,0.00579145,-0.00119027,-0.000314759,0.00580561,-0.00120444,-0.0449617,0.00432811,0.0158597,1056,1681,4.37512,-58.6636
-161,-657,4.37842,59.226,0.00657771,0.000151713,-0.000150432,0.00658123,0.000148193,-0.0233928,0.00433893,0.0161528,1063,1681,4.37843,-59.2259
-154,-657,4.44116,59.7039,0.00739426,0.00209009,8.39892e-05,0.00739559,0.00208876,0.0158293,0.00440253,0.0154816,1070,1681,4.44111,-59.7038
-147,-657,4.48547,60.2386,0.00816288,0.00451905,0.000396146,0.00820545,0.00447648,0.107051,0.00474397,0.0232669,1077,1681,4.48542,-60.2387
-140,-657,4.46802,60.9481,0.00885833,0.00706947,0.000729049,0.00911782,0.00680999,0.34194,0.00547391,0.0345142,1084,1681,4.46805,-60.9481
-133,-657,4.37012,61.5808,0.00947384,0.0102675,0.00127414,0.0112052,0.00853616,0.936357,0.00675845,0.0432205,1091,1681,4.37013,-61.5808
-126,-657,4.58386,62.2218,0,0,0,0,0,0,0,-1,1098,1681,4.58382,-62.2217
-119,-657,5.64758,54.4952,0,0,0,0,0,0,0,-1,1105,1681,5.64753,-54.4952
-112,-657,6.24219,42.9092,0,0,0,0,0,0,0,-1,1112,1681,6.24217,-42.9092
-105,-657,7.37256,41.0361,0,0,0,0,0,0,0,-1,1119,1681,7.37254,-41.0362
-98,-657,8.14404,38.4435,0,0,0,0,0,0,0,-1,1126,1681,8.14405,-38.4435
-91,-657,3.6521,16.6017,0,0,0,0,0,0,0,-1,1133,1681,3.65215,-16.6017
-84,-657,4.08008,10.4579,0,0,0,0,0,0,0,-1,1140,1681,4.08006,-10.4579
-77,-657,-5.29846,0.396606,0,0,0,0,0,0,0,-1,1147,1681,-5.29842,-0.396573
-70,-657,-4.14893,2.14575,0,0,0,0,0,0,0,-1,1154,1681,-4.14893,-2.1458
-63,-657,-4.1239,3.177,0,0,0,0,0,0,0,-1,1161,1681,-4.12391,-3.17698
-56,-657,-6.40576,5.73987,0,0,0,0,0,0,0,-1,1168,1681,-6.40577,-5.7399
-49,-657,-5.98462,7.54053,0,0,0,0,0,0,0,-1,1175,1681,-5.98466,-7.5405
-42,-657,-5.71948,9.28955,0,0,0,0,0,0,0,-1,1182,1681,-5.71951,-9.2895
-35,-657,-5.44556,11.015,0,0,0,0,0,0,0,-1,1189,1681,-5.44555,-11.015
-28,-657,-1.3446,8.92847,0,0,0,0,0,0,0,-1,1196,1681,-1.34459,-8.92848
-21,-657,6.72778,64.8701,0,0,0,0,0,0,0,-1,1203,1681,6.72773,-64.8701
-14,-657,7.29407,64.7698,0,0,0,0,0,0,0,-1,1210,1681,7.29401,-64.7698
-7,-657,5.40125,64.3676,0,0,0,0,0,0,0,-1,1217,1681,5.40123,-64.3675
0,-657,6.25696,64.8076,0.0901299,-0.0374124,-0.00142201,0.0901458,-0.0374283,-0.0111475,0.0757221,0.0452047,1224,1681,6.25696,-64.8076
7,-657,6.63867,65.0433,0.0830467,-0.0138775,-0.000385493,0.0830483,-0.0138791,-0.00397718,0.0605247,0.0463735,1231,1681,6.6387,-65.0434
14,-657,7.10181,65.0015,0.0763859,0.0173262,0.00809036,0.0774741,0.0162379,0.133705,0.0471776,0.0443306,1238,1681,7.10176,-65.0015
21,-657,7.28516,64.8575,0.0694427,0.0501148,0.0188236,0.0809382,0.0386194,0.548244,0.046746,0.0414263,1245,1681,7.28515,-64.8576
28,-657,7.58032,64.0876,0.063989,0.0815164,0.0308241,0.104798,0.040707,0.923899,0.0610054,0.0414433,1252,1681,7.58028,-64.0877
35,-657,7.95325,63.4587,0,0,0,0,0,0,0,-1,1259,1681,7.95329,-63.4587
42,-657,7.46887,63.1486,0,0,0,0,0,0,0,-1,1266,1681,7.46887,-63.1485
49,-657,7.64954,62.5742,0,0,0,0,0,0,0,-1,1273,1681,7.64956,-62.5742
56,-657,7.80017,63.8206,0.0533197,0.13447,0.0635149,0.169264,0.0185258,1.06964,0.107202,0.0454784,1280,1681,7.80023,-63.8206
63,-657,8.46362,64.4843,0.0496709,0.14387,0.0708652,0.18186,0.0116809,1.0787,0.11754,0.0493917,1287,1681,8.46368,-64.4843
70,-657,10.5634,66.7581,0,0,0,0,0,0,0,-1,1294,1681,10.5633,-66.7581
77,-657,10.8365,66.9093,0.0474715,0.141272,0.0799606,0.187072,0.00167153,1.05063,0.124161,0.047362,1301,1681,10.8365,-66.9093
84,-657,11.2273,66.6752,0.0481789,0.132072,0.0856608,0.185505,-0.00525426,1.01308,0.125458,0.0470366,1308,1681,11.2273,-66.6752
91,-657,11.3188,66.922,0.0464793,0.116934,0.0841221,0.172907,-0.00949349,0.983688,0.118563,0.0430384,1315,1681,11.3188,-66.922
98,-657,11.6663,66.8872,0.0443058,0.103982,0.0837248,0.163027,-0.0147388,0.956574,0.113916,0.0440826,1322,1681,11.6662,-66.8873
105,-657,12.1289,66.899,0.0417665,0.0966068,0.0847477,0.15826,-0.0198866,0.941858,0.112722,0.0466339,1329,1681,12.1289,-66.899
112,-657,12.536,67.1814,0.0391251,0.0947256,0.086949,0.158211,-0.0243599,0.940127,0.114461,0.0464662,1336,1681,12.536,-67.1814
119,-657,12.8389,67.3811,0.0374702,0.0977028,0.0907041,0.16316,-0.0279866,0.945686,0.119202,0.0494428,1343,1681,12.8388,-67.3812
126,-657,13.1752,67.9064,0,0,0,0,0,0,0,-1,1350,1681,13.1752,-67.9063
133,-657,13.9032,68.3469,0,0,0,0,0,0,0,-1,1357,1681,13.9031,-68.3469
140,-657,14.3274,68.5485,0,0,0,0,0,0,0,-1,1364,1681,14.3274,-68.5485
147,-657,8.12402,60.651,0,0,0,0,0,0,0,-1,1371,1681,8.124,-60.651
154,-657,10.6222,48.2162,0,0,0,0,0,0,0,-1,1378,1681,10.6223,-48.2162
161,-657,4.2926,24.9226,0,0,0,0,0,0,0,-1,1385,1681,4.29264,-24.9226
168,-657,5.21643,0.70105,0,0,0,0,0,0,0,-1,1392,1681,5.21648,-0.7011
175,-657,5.52771,0.649048,0,0,0,0,0,0,0,-1,1399,1681,5.52774,-0.649019
182,-657,5.73999,1.02612,0,0,0,0,0,0,0,-1,1406,1681,5.73995,-1.02611
189,-657,5.92126,1.44116,0,0,0,0,0,0,0,-1,1413,1681,5.92126,-1.44115
196,-657,4.92834,9.59021,0,0,0,0,0,0,0,-1,1420,1681,4.9284,-9.59018
203,-657,6.26343,5.16492,0,0,0,0,0,0,0,-1,1427,1681,6.26345,-5.16488
210,-657,3.9856,5.28088,0,0,0,0,0,0,0,-1,1434,1681,3.98555,-5.28084
217,-657,3.95178,5.2843,0,0,0,0,0,0,0,-1,1441,1681,3.95174,-5.28431
224,-657,6.66736,-0.250244,0,0,0,0,0,0,0,-1,1448,1681,6.66737,0.250229
231,-657,6.85498,-1.70752,0,0,0,0,0,0,0,-1,1455,1681,6.855,1.70758
238,-657,5.34143,-2.89819,0,0,0,0,0,0,0,-1,1462,1681,5.34143,2.89813
245,-657,8.66003,-0.102783,0,0,0,0,0,0,0,-1,1469,1681,8.66,0.102824
252,-657,4.78955,0.623779,0,0,0,0,0,0,0,-1,1476,1681,4.7895,-0.623826
259,-657,2.61523,4.31909,0,0,0,0,0,0,0,-1,1483,1681,2.61523,-4.31908
266,-657,5.35437,11.4742,0,0,0,0,0,0,0,-1,1490,1681,5.35441,-11.4742
273,-657,11.9164,46.0638,0,0,0,0,0,0,0,-1,1497,1681,11.9164,-46.0638
280,-657,12.7181,59.259,0,0,0,0,0,0,0,-1,1504,1681,12.7182,-59.2591
287,-657,12.6284,58.7262,0,0,0,0,0,0,0,-1,1511,1681,12.6284,-58.7261
294,-657,13.3058,58.3838,0,0,0,0,0,0,0,-1,1518,1681,13.3058,-58.3838
301,-657,13.1945,57.8167,0.00386991,0.00859857,-0.000553569,0.00866251,0.00380597,-1.4558,0.00501355,0.0262214,1525,1681,13.1945,-57.8166
308,-657,13.208,57.2584,0.00346474,0.00789955,-0.000591933,0.0079772,0.00338709,-1.44036,0.00462306,0.016569,1532,1681,13.208,-57.2585
315,-657,13.2278,56.6675,0.00306512,0.00703315,-0.000724507,0.0071613,0.00293697,-1.39573,0.00415679,0.0123805,1539,1681,13.2278,-56.6674
322,-657,13.2521,56.0714,0.00277676,0.00640751,-0.000939137,0.00663605,0.00254822,-1.33209,0.00386554,0.0147197,1546,1681,13.2521,-56.0715
329,-657,13.249,55.4862,0.00259356,0.00577667,-0.00122983,0.00619647,0.00217376,-1.24185,0.00363023,0.020838,1553,1681,13.249,-55.4861
336,-657,13.2241,54.9171,0.00243779,0.00531822,-0.00142467,0.00590381,0.00185219,-1.18081,0.00348652,0.0179991,1560,1681,13.2241,-54.9172
343,-657,13.228,54.3412,0.00222987,0.00490703,-0.00162651,0.00567495,0.00146195,-1.1297,0.00340234,0.0138831,1567,1681,13.228,-54.3412
350,-657,13.2423,53.7275,0.00205186,0.00446828,-0.00191508,0.00552443,0.00099571,-1.06681,0.0034,0.0158531,1574,1681,13.2423,-53.7276
357,-657,13.2114,53.1007,0.00197336,0.00379274,-0.00223877,0.00529958,0.00046652,-0.978377,0.00338827,0.015353,1581,1681,13.2114,-53.1007
364,-657,13.1887,52.4854,0.00188254,0.0033997,-0.00240613,0.005164,0.000118244,-0.938101,0.00340393,0.0111116,1588,1681,13.1887,-52.4854
371,-657,13.1628,51.8707,0.00179131,0.00303282,-0.00256006,0.0050463,-0.000222178,-0.904341,0.00344065,0.0156709,1595,1681,13.1629,-51.8707
378,-657,13.1108,51.2321,0.00175489,0.00264573,-0.00270139,0.00493818,-0.000537555,-0.867106,0.00348515,0.0164174,1602,1681,13.1108,-51.2321
385,-657,13.0695,50.5829,0.00183243,0.00223679,-0.00293634,0.0049779,-0.000908687,-0.819772,0.0036593,0.0148047,1609,1681,13.0694,-50.5829
392,-657,13.0516,49.9443,0.00184848,0.00181865,-0.0031694,0.005003,-0.00133587,-0.783045,0.00385849,0.0150595,1616,1681,13.0517,-49.9444
399,-657,13.0536,49.3082,0.00187461,0.00145943,-0.00346719,0.00514042,-0.00180638,-0.755498,0.00416186,0.0140563,1623,1681,13.0536,-49.3082
406,-657,13.0192,48.6522,0.00197928,0.00114501,-0.00378905,0.00537409,-0.0022498,-0.730574,0.00452318,0.0141945,1630,1681,13.0192,-48.6522
413,-657,12.9791,47.984,0.00222164,0.00114256,-0.00432787,0.00604348,-0.00267927,-0.723385,0.00515943,0.0152636,1637,1681,12.9791,-47.984
420,-657,12.9323,47.2706,0.00258618,0.00118653,-0.0050022,0.00693727,-0.00316456,-0.715898,0.00596634,0.0204141,1644,1681,12.9322,-47.2706
427,-657,12.8589,46.5099,0.00315902,0.0015685,-0.00585776,0.00827525,-0.00354774,-0.71793,0.00700554,0.0284613,1651,1681,12.8589,-46.5099
434,-657,13.0061,45.8108,0.00399058,0.0021155,-0.00689225,0.0100088,-0.00390269,-0.717799,0.00828566,0.0390116,1658,1681,13.0061,-45.8107
441,-657,13.5024,45.1162,0,0,0,0,0,0,0,-1,1665,1681,13.5024,-45.1162
448,-657,12.2732,43.7693,0,0,0,0,0,0,0,-1,1672,1681,12.2732,-43.7693
455,-657,12.3906,43.379,0,0,0,0,0,0,0,-1,1679,1681,12.3906,-43.3791
462,-657,10.2832,30.1719,0,0,0,0,0,0,0,-1,1686,1681,10.2831,-30.1718
469,-657,9.22205,26.4175,0,0,0,0,0,0,0,-1,1693,1681,9.2221,-26.4175
476,-657,8.9519,20.5712,0,0,0,0,0,0,0,-1,1700,1681,8.95194,-20.5712
483,-657,10.0663,21.8628,0,0,0,0,0,0,0,-1,1707,1681,10.0663,-21.8628
490,-657,11.6039,21.2185,0,0,0,0,0,0,0,-1,1714,1681,11.6038,-21.2185
497,-657,9.20862,17.8127,0,0,0,0,0,0,0,-1,1721,1681,9.2086,-17.8127
504,-657,0,0,0,0,0,0,0,0,0,-1,1728,1681,0,0
511,-657,0,0,0,0,0,0,0,0,0,-1,1735,1681,0,0
518,-657,0,0,0,0,0,0,0,0,0,-1,1742,1681,0,0
525,-657,0,0,0,0,0,0,0,0,0,-1,1749,1681,0,0
532,-657,0,0,0,0,0,0,0,0,0,-1,1756,1681,0,0
539,-657,0,0,0,0,0,0,0,0,0,-1,1763,1681,0,0
546,-657,0,0,0,0,0,0,0,0,0,-1,1770,1681,0,0
553,-657,0,0,0,0,0,0,0,0,0,-1,1777,1681,0,0
560,-657,0,0,0,0,0,0,0,0,0,-1,1784,1681,0,0
567,-657,0,0,0,0,0,0,0,0,0,-1,1791,1681,0,0
574,-657,0,0,0,0,0,0,0,0,0,-1,1798,1681,0,0
581,-657,0,0,0,0,0,0,0,0,0,-1,1805,1681,0,0
588,-657,0,0,0,0,0,0,0,0,0,-1,1812,1681,0,0
595,-657,0,0,0,0,0,0,0,0,0,-1,1819,1681,0,0
602,-657,0,0,0,0,0,0,0,0,0,-1,1826,1681,0,0
609,-657,0,0,0,0,0,0,0,0,0,-1,1833,1681,0,0
616,-657,0,0,0,0,0,0,0,0,0,-1,1840,1681,0,0
623,-657,0,0,0,0,0,0,0,0,0,-1,1847,1681,0,0
630,-657,0,0,0,0,0,0,0,0,0,-1,1854,1681,0,0
637,-657,0,0,0,0,0,0,0,0,0,-1,1861,1681,0,0
644,-657,0,0,0,0,0,0,0,0,0,-1,1868,1681,0,0
651,-657,0,0,0,0,0,0,0,0,0,-1,1875,1681,0,0
658,-657,0,0,0,0,0,0,0,0,0,-1,1882,1681,0,0
665,-657,0,0,0,0,0,0,0,0,0,-1,1889,1681,0,0
672,-657,0,0,0,0,0,0,0,0,0,-1,1896,1681,0,0
679,-657,0,0,0,0,0,0,0,0,0,-1,1903,1681,0,0
686,-657,0,0,0,0,0,0,0,0,0,-1,1910,1681,0,0
693,-657,0,0,0,0,0,0,0,0,0,-1,1917,1681,0,0
700,-657,0,0,0,0,0,0,0,0,0,-1,1924,1681,0,0
707,-657,0,0,0,0,0,0,0,0,0,-1,1931,1681,0,0
714,-657,0,0,0,0,0,0,0,0,0,-1,1938,1681,0,0
721,-657,0,0,0,0,0,0,0,0,0,-1,1945,1681,0,0
728,-657,0,0,0,0,0,0,0,0,0,-1,1952,1681,0,0
735,-657,0,0,0,0,0,0,0,0,0,-1,1959,1681,0,0
742,-657,0,0,0,0,0,0,0,0,0,-1,1966,1681,0,0
749,-657,0,0,0,0,0,0,0,0,0,-1,1973,1681,0,0
756,-657,0,0,0,0,0,0,0,0,0,-1,1980,1681,0,0
763,-657,0,0,0,0,0,0,0,0,0,-1,1987,1681,0,0
770,-657,0,0,0,0,0,0,0,0,0,-1,1994,1681,0,0
777,-657,0,0,0,0,0,0,0,0,0,-1,2001,1681,0,0
784,-657,0,0,0,0,0,0,0,0,0,-1,2008,1681,0,0
791,-657,0,0,0,0,0,0,0,0,0,-1,2015,1681,0,0
798,-657,0,0,0,0,0,0,0,0,0,-1,2022,1681,0,0
805,-657,0,0,0,0,0,0,0,0,0,-1,2029,1681,0,0
812,-657,0,0,0,0,0,0,0,0,0,-1,2036,1681,0,0
-700,-664,0,0,0,0,0,0,0,0,0,-1,524,1688,0,0
-693,-664,0,0,0,0,0,0,0,0,0,-1,531,1688,0,0
-686,-664,0,0,0,0,0,0,0,0,0,-1,538,1688,0,0
-679,-664,0,0,0,0,0,0,0,0,0,-1,545,1688,0,0
-672,-664,0,0,0,0,0,0,0,0,0,-1,552,1688,0,0
-665,-664,0,0,0,0,0,0,0,0,0,-1,559,1688,0,0
-658,-664,0,0,0,0,0,0,0,0,0,-1,566,1688,0,0
-651,-664,0,0,0,0,0,0,0,0,0,-1,573,1688,0,0
-644,-664,0,0,0,0,0,0,0,0,0,-1,580,1688,0,0
-637,-664,0,0,0,0,0,0,0,0,0,-1,587,1688,0,0
-630,-664,0,0,0,0,0,0,0,0,0,-1,594,1688,0,0
-623,-664,0,0,0,0,0,0,0,0,0,-1,601,1688,0,0
-616,-664,0,0,0,0,0,0,0,0,0,-1,608,1688,0,0
-609,-664,0,0,0,0,0,0,0,0,0,-1,615,1688,0,0
-602,-664,0,0,0,0,0,0,0,0,0,-1,622,1688,0,0
-595,-664,0,0,0,0,0,0,0,0,0,-1,629,1688,0,0
-588,-664,0,0,0,0,0,0,0,0,0,-1,636,1688,0,0
-581,-664,0,0,0,0,0,0,0,0,0,-1,643,1688,0,0
-574,-664,0,0,0,0,0,0,0,0,0,-1,650,1688,0,0
-567,-664,0,0,0,0,0,0,0,0,0,-1,657,1688,0,0
-560,-664,0,0,0,0,0,0,0,0,0,-1,664,1688,0,0
-553,-664,0,0,0,0,0,0,0,0,0,-1,671,1688,0,0
-546,-664,0,0,0,0,0,0,0,0,0,-1,678,1688,0,0
-539,-664,0,0,0,0,0,0,0,0,0,-1,685,1688,0,0
-532,-664,0,0,0,0,0,0,0,0,0,-1,692,1688,0,0
-525,-664,0,0,0,0,0,0,0,0,0,-1,699,1688,0,0
-518,-664,0,0,0,0,0,0,0,0,0,-1,706,1688,0,0
-511,-664,0,0,0,0,0,0,0,0,0,-1,713,1688,0,0
-504,-664,0,0,0,0,0,0,0,0,0,-1,720,1688,0,0
-497,-664,0,0,0,0,0,0,0,0,0,-1,727,1688,0,0
-490,-664,0,0,0,0,0,0,0,0,0,-1,734,1688,0,0
-483,-664,0,0,0,0,0,0,0,0,0,-1,741,1688,0,0
-476,-664,0,0,0,0,0,0,0,0,0,-1,748,1688,0,0
-469,-664,0,0,0,0,0,0,0,0,0,-1,755,1688,0,0
-462,-664,0,0,0,0,0,0,0,0,0,-1,762,1688,0,0
-455,-664,0,0,0,0,0,0,0,0,0,-1,769,1688,0,0
-448,-664,0,0,0,0,0,0,0,0,0,-1,776,1688,0,0
-441,-664,0,0,0,0,0,0,0,0,0,-1,783,1688,0,0
-434,-664,0,0,0,0,0,0,0,0,0,-1,790,1688,0,0
-427,-664,0,0,0,0,0,0,0,0,0,-1,797,1688,0,0
-420,-664,0,0,0,0,0,0,0,0,0,-1,804,1688,0,0
-413,-664,0,0,0,0,0,0,0,0,0,-1,811,1688,0,0
-406,-664,0,0,0,0,0,0,0,0,0,-1,818,1688,0,0
-399,-664,0,0,0,0,0,0,0,0,0,-1,825,1688,0,0
-392,-664,0,0,0,0,0,0,0,0,0,-1,832,1688,0,0
-385,-664,0,0,0,0,0,0,0,0,0,-1,839,1688,0,0
-378,-664,0,0,0,0,0,0,0,0,0,-1,846,1688,0,0
-371,-664,-1.61676,5.92737,0,0,0,0,0,0,0,-1,853,1688,-1.61675,-5.92735
-364,-664,-3.901,5.87024,0,0,0,0,0,0,0,-1,860,1688,-3.90097,-5.87027
-357,-664,-4.81012,4.53479,0,0,0,0,0,0,0,-1,867,1688,-4.81012,-4.5348
-350,-664,3.26105,36.0225,0,0,0,0,0,0,0,-1,874,1688,3.26104,-36.0224
-343,-664,5.2652,32.889,0,0,0,0,0,0,0,-1,881,1688,5.26517,-32.889
-336,-664,6.70184,40.4547,0,0,0,0,0,0,0,-1,888,1688,6.70183,-40.4547
-329,-664,3.99152,42.0475,0,0,0,0,0,0,0,-1,895,1688,3.99154,-42.0475
-322,-664,4.79321,43.5608,0.0384984,-0.0189482,0.0376013,0.057092,-0.0375417,0.459232,0.055024,0.0476329,902,1688,4.79322,-43.5608
-315,-664,5.59894,45.0641,0.028702,-0.0195915,0.0319377,0.0445938,-0.0354832,0.461715,0.0463321,0.0487868,909,1688,5.59892,-45.0641
-308,-664,5.6651,45.7321,0,0,0,0,0,0,0,-1,916,1688,5.66512,-45.732
-301,-664,5.56079,46.6349,0.0149806,-0.0184964,0.0218696,0.0257822,-0.029298,0.458764,0.0318222,0.0434337,923,1688,5.56079,-46.6349
-294,-664,5.43414,47.4493,0.010547,-0.0169543,0.0176059,0.0191357,-0.025543,0.453866,0.0258836,0.038479,930,1688,5.43413,-47.4493
-287,-664,5.40961,48.1201,0.00746661,-0.0143875,0.0142387,0.0144878,-0.0214087,0.458119,0.0208529,0.0281895,937,1688,5.40963,-48.1201
-280,-664,5.32202,48.7867,0.00506031,-0.0117572,0.0114141,0.0108286,-0.0175255,0.467932,0.0165218,0.0192002,944,1688,5.32202,-48.7867
-273,-664,5.24402,49.4871,0.00355956,-0.00936892,0.00914047,0.00829061,-0.0141,0.477623,0.0130714,0.0159399,951,1688,5.24404,-49.4871
-266,-664,5.22925,50.1355,0.00225533,-0.00769478,0.00686055,0.00575485,-0.0111943,0.471689,0.00995215,0.0215824,958,1688,5.22926,-50.1354
-259,-664,5.2027,50.7891,0.00159441,-0.00550396,0.0054654,0.00456192,-0.00847147,0.497424,0.00763684,0.0196922,965,1688,5.20272,-50.789
-252,-664,5.19116,51.4655,0.00165047,-0.00279076,0.00407057,0.00406673,-0.00520703,0.535696,0.00536768,0.017865,972,1688,5.19119,-51.4654
-245,-664,5.11963,52.1449,0.00169543,-0.00126303,0.00315167,0.00369774,-0.00326535,0.565984,0.00402273,0.0219986,979,1688,5.11965,-52.1449
-238,-664,5.13666,52.7684,0.00177957,0.000153726,0.00267678,0.00376415,-0.00183085,0.637977,0.00329393,0.0237628,986,1688,5.13668,-52.7684
-231,-664,5.12457,53.3726,0.00196766,0.000735403,0.00245492,0.00388259,-0.00117953,0.662449,0.00305835,0.0200656,993,1688,5.1246,-53.3726
-224,-664,5.05774,54.0211,0.00217187,0.000837268,0.00206952,0.00367901,-0.000669873,0.62944,0.00270377,0.0150441,1000,1688,5.05776,-54.0211
-217,-664,5.02069,54.6521,0.00218302,0.000633059,0.00154715,0.00313844,-0.000322361,0.553212,0.0022076,0.0112947,1007,1688,5.02071,-54.6521
-210,-664,5.00348,55.2559,0.00218941,0.000306719,0.00113235,0.0027206,-0.000224466,0.438623,0.001893,0.0120952,1014,1688,5.0035,-55.2558
-203,-664,4.96704,55.8379,0.00240625,-0.000200356,0.000774034,0.00261877,-0.000412879,0.267962,0.0018985,0.0141058,1021,1688,4.96703,-55.8379
-196,-664,4.95117,56.3973,0.00275004,-0.00068361,0.000520456,0.00282719,-0.000760764,0.147172,0.00218303,0.0143627,1028,1688,4.9512,-56.3973
-189,-664,4.94153,56.9972,0.00307791,-0.0010237,0.000241055,0.00309203,-0.00103782,0.0585024,0.00248074,0.0106466,1035,1688,4.94153,-56.9971
-182,-664,4.95715,57.585,0.00344195,-0.0010116,-2.12147e-05,0.00344205,-0.0010117,-0.0047634,0.00269597,0.00995615,1042,1688,4.95715,-57.585
-175,-664,4.979,58.1171,0.00399578,-0.000721566,-7.2278e-05,0.00399689,-0.000722673,-0.015317,0.00293529,0.0128857,1049,1688,4.979,-58.1171
-168,-664,4.98291,58.6396,0.00452179,-0.000151013,-0.000136393,0.00452577,-0.00015499,-0.0291556,0.00307015,0.0141065,1056,1688,4.98291,-58.6397
-161,-664,4.96265,59.1647,0.00515319,0.00079226,-8.80712e-05,0.00515497,0.000790481,-0.0201845,0.00320581,0.0112198,1063,1688,4.96267,-59.1647
-154,-664,5.0155,59.6823,0.00585936,0.0021319,1.49393e-05,0.00585942,0.00213184,0.00400782,0.0034245,0.0117216,1070,1688,5.01548,-59.6822
-147,-664,5.02966,60.1949,0.00657163,0.00376339,0.000168004,0.00658165,0.00375337,0.0595422,0.00381241,0.0158029,1077,1688,5.02963,-60.195
-140,-664,5.06104,60.7489,0.0072696,0.00545294,0.000301814,0.00731843,0.00540411,0.160397,0.0043825,0.018176,1084,1688,5.06104,-60.7489
-133,-664,5.03003,61.2683,0.00790501,0.00766478,0.000581086,0.00837827,0.00719153,0.683478,0.00523496,0.0212463,1091,1688,5.03004,-61.2684
-126,-664,5.16711,61.9196,0.00852402,0.010077,0.000826753,0.0104348,0.00816629,1.16244,0.00633717,0.0439001,1098,1688,5.16709,-61.9196
-119,-664,5.38049,62.6421,0,0,0,0,0,0,0,-1,1105,1688,5.38054,-62.642
-112,-664,6.3916,51.1235,0,0,0,0,0,0,0,-1,1112,1688,6.39161,-51.1236
-105,-664,6.87256,43.2527,0,0,0,0,0,0,0,-1,1119,1688,6.87258,-43.2527
-98,-664,7.69324,41.3359,0,0,0,0,0,0,0,-1,1126,1688,7.69321,-41.3359
-91,-664,5.41931,25.6302,0,0,0,0,0,0,0,-1,1133,1688,5.41932,-25.6302
-84,-664,3.48389,16.6913,0,0,0,0,0,0,0,-1,1140,1688,3.4839,-16.6913
-77,-664,4.52014,11.2122,0,0,0,0,0,0,0,-1,1147,1688,4.5202,-11.2122
-70,-664,4.20374,8.24524,0,0,0,0,0,0,0,-1,1154,1688,4.20379,-8.24519
-63,-664,-4.677,2.40503,0,0,0,0,0,0,0,-1,1161,1688,-4.67702,-2.40498
-56,-664,-4.66504,3.32727,0,0,0,0,0,0,0,-1,1168,1688,-4.6651,-3.32724
-49,-664,-2.54297,3.31848,0,0,0,0,0,0,0,-1,1175,1688,-2.54297,-3.31852
-42,-664,-0.359253,4.38684,0,0,0,0,0,0,0,-1,1182,1688,-0.359261,-4.38685
-35,-664,-0.705566,3.55017,0,0,0,0,0,0,0,-1,1189,1688,-0.705567,-3.55023
-28,-664,-1.54236,10.2538,0,0,0,0,0,0,0,-1,1196,1688,-1.54236,-10.2538
-21,-664,6.83887,65.1248,0,0,0,0,0,0,0,-1,1203,1688,6.83882,-65.1248
-14,-664,7.18762,65.0942,0,0,0,0,0,0,0,-1,1210,1688,7.18762,-65.0943
-7,-664,7.11621,65.1479,0,0,0,0,0,0,0,-1,1217,1688,7.11627,-65.1479
0,-664,7.16309,65.0707,0.0698086,-0.0268498,-0.00572574,0.0701466,-0.0271878,-0.058962,0.0579918,0.0467586,1224,1688,7.1631,-65.0707
7,-664,7.56226,65.163,0.0660687,-0.00988401,-0.00431647,0.0663133,-0.0101285,-0.0565882,0.047943,0.0457228,1231,1688,7.56227,-65.163
14,-664,8.0426,65.1438,0.0621292,0.0147401,0.00332294,0.0623611,0.0145082,0.069666,0.0376808,0.0436125,1238,1688,8.04256,-65.1439
21,-664,8.49451,65.1571,0,0,0,0,0,0,0,-1,1245,1688,8.49447,-65.157
28,-664,8.78552,65.2484,0.054247,0.0672877,0.0232876,0.0849506,0.0365841,0.921899,0.0492032,0.0432754,1252,1688,8.78547,-65.2485
35,-664,9.1593,66.1066,0,0,0,0,0,0,0,-1,1259,1688,9.15933,-66.1065
42,-664,9.38672,66.7562,0,0,0,0,0,0,0,-1,1266,1688,9.38675,-66.7563
49,-664,5.76123,61.6282,0,0,0,0,0,0,0,-1,1273,1688,5.76121,-61.6282
56,-664,6.46082,62.1884,0.0493356,0.112938,0.0542443,0.144016,0.0182579,1.05053,0.0905404,0.0481707,1280,1688,6.46077,-62.1884
63,-664,7.0437,62.9401,0.0467491,0.120445,0.0612082,0.15504,0.0121532,1.05635,0.0995568,0.0496869,1287,1688,7.04374,-62.94
70,-664,9.51318,65.7037,0,0,0,0,0,0,0,-1,1294,1688,9.5132,-65.7038
77,-664,9.78931,65.8547,0.04553,0.117547,0.0698449,0.16012,0.00295793,1.0234,0.105774,0.047497,1301,1688,9.78925,-65.8547
84,-664,10.0243,65.8799,0.0458355,0.109888,0.0745603,0.159009,-0.00328587,0.98825,0.107118,0.0462409,1308,1688,10.0243,-65.8799
91,-664,10.3936,65.9733,0.0436843,0.0968468,0.0726499,0.147626,-0.00709439,0.960774,0.100865,0.0401365,1315,1688,10.3935,-65.9732
98,-664,10.9595,66.3396,0.0408396,0.085368,0.0715404,0.138029,-0.011821,0.936253,0.0962018,0.0478129,1322,1688,10.9595,-66.3396
105,-664,11.4086,66.5864,0.0374479,0.0787485,0.071569,0.132587,-0.0163905,0.925852,0.0943306,0.0495921,1329,1688,11.4085,-66.5864
112,-664,11.9755,66.823,0.0340071,0.07696,0.0725717,0.131166,-0.0201992,0.929259,0.0948966,0.0462671,1336,1688,11.9755,-66.823
119,-664,9.89526,67.4348,0,0,0,0,0,0,0,-1,1343,1688,9.89525,-67.4348
126,-664,10.5459,65.9015,0,0,0,0,0,0,0,-1,1350,1688,10.5459,-65.9015
133,-664,8.73865,67.8632,0,0,0,0,0,0,0,-1,1357,1688,8.73866,-67.8632
140,-664,8.37451,67.2654,0,0,0,0,0,0,0,-1,1364,1688,8.37452,-67.2654
147,-664,8.04968,66.6101,0,0,0,0,0,0,0,-1,1371,1688,8.04964,-66.6102
154,-664,20.1138,63.4268,0,0,0,0,0,0,0,-1,1378,1688,20.1137,-63.4268
161,-664,4.60132,1.56238,0,0,0,0,0,0,0,-1,1385,1688,4.60134,-1.56233
168,-664,5.172,1.25488,0,0,0,0,0,0,0,-1,1392,1688,5.17203,-1.25484
175,-664,5.58313,1.16467,0,0,0,0,0,0,0,-1,1399,1688,5.58317,-1.16466
182,-664,5.74268,1.41113,0,0,0,0,0,0,0,-1,1406,1688,5.74263,-1.41115
189,-664,5.87744,1.87061,0,0,0,0,0,0,0,-1,1413,1688,5.87745,-1.87065
196,-664,6.7594,5.97473,0,0,0,0,0,0,0,-1,1420,1688,6.75943,-5.97478
203,-664,5.38452,5.22034,0,0,0,0,0,0,0,-1,1427,1688,5.38453,-5.2203
210,-664,5.25549,6.45715,0,0,0,0,0,0,0,-1,1434,1688,5.25549,-6.45721
217,-664,5.72009,6.73975,0,0,0,0,0,0,0,-1,1441,1688,5.72014,-6.73972
224,-664,5.05725,7.42908,0,0,0,0,0,0,0,-1,1448,1688,5.05723,-7.42912
231,-664,5.13318,7.60864,0,0,0,0,0,0,0,-1,1455,1688,5.13313,-7.60862
238,-664,4.23193,6.45471,0,0,0,0,0,0,0,-1,1462,1688,4.23197,-6.45476
245,-664,4.42004,6.80896,0,0,0,0,0,0,0,-1,1469,1688,4.4201,-6.80901
252,-664,3.67346,6.85461,0,0,0,0,0,0,0,-1,1476,1688,3.6734,-6.85462
259,-664,4.55823,11.7435,0,0,0,0,0,0,0,-1,1483,1688,4.55826,-11.7435
266,-664,12.2645,60.077,0,0,0,0,0,0,0,-1,1490,1688,12.2645,-60.077
273,-664,12.4102,59.8181,0,0,0,0,0,0,0,-1,1497,1688,12.4102,-59.8181
280,-664,12.3885,59.34,0.0053794,0.00620061,-0.000962313,0.00683626,0.00474375,-0.987047,0.00404465,0.0419005,1504,1688,12.3885,-59.34
287,-664,12.3536,58.7863,0.00466766,0.00628859,-0.000879653,0.00667422,0.00428203,-1.15764,0.00390452,0.0365458,1511,1688,12.3537,-58.7863
294,-664,12.5671,58.3182,0.00412919,0.00600868,-0.000718998,0.00625219,0.00388568,-1.24425,0.00364505,0.0241515,1518,1688,12.5671,-58.3183
301,-664,12.6473,57.7811,0.00364141,0.00573309,-0.000640378,0.00591357,0.00346093,-1.29609,0.00343071,0.0143448,1525,1688,12.6474,-57.7812
308,-664,12.6648,57.2194,0.00314848,0.00537901,-0.000681998,0.00557101,0.00295648,-1.29638,0.00321844,0.012195,1532,1688,12.6648,-57.2193
315,-664,12.671,56.6516,0.00268117,0.00494989,-0.000783909,0.0051944,0.00243666,-1.26845,0.0030009,0.0119984,1539,1688,12.671,-56.6516
322,-664,12.6869,56.1019,0.00225276,0.00463592,-0.000909877,0.00494359,0.00194509,-1.24473,0.0028757,0.0153181,1546,1688,12.6869,-56.1019
329,-664,12.6667,55.5586,0.0019304,0.00433274,-0.00112015,0.00477399,0.00148915,-1.19554,0.00282051,0.018774,1553,1688,12.6667,-55.5586
336,-664,12.6487,54.9535,0.00168723,0.00413869,-0.00126618,0.00467524,0.00115068,-1.16998,0.00281285,0.0154573,1560,1688,12.6486,-54.9535
343,-664,12.6298,54.3553,0.00148322,0.00397136,-0.00147978,0.00466055,0.000794043,-1.13494,0.00287908,0.0113578,1567,1688,12.6298,-54.3554
350,-664,12.6176,53.759,0.00132292,0.00374458,-0.00180286,0.00470548,0.000362018,-1.08111,0.00302354,0.0140412,1574,1688,12.6176,-53.7591
357,-664,12.5931,53.1274,0.00127398,0.00332988,-0.00218162,0.00471359,-0.000109738,-1.00556,0.00317961,0.0143058,1581,1688,12.5931,-53.1274
364,-664,12.5887,52.4934,0.00124819,0.00306257,-0.00244984,0.00476779,-0.000457031,-0.962723,0.00334131,0.0113648,1588,1688,12.5887,-52.4935
371,-664,12.5657,51.8832,0.00128716,0.002836,-0.00276804,0.00493591,-0.000812748,-0.921796,0.0035923,0.0140382,1595,1688,12.5657,-51.8831
378,-664,12.5167,51.26,0.00144189,0.00258065,-0.00310569,0.00516872,-0.00114619,-0.876059,0.00388466,0.014375,1602,1688,12.5167,-51.26
385,-664,12.4645,50.6285,0.0017409,0.00231164,-0.00358836,0.00562596,-0.00157342,-0.825079,0.00437056,0.0150945,1609,1688,12.4645,-50.6286
392,-664,12.4009,50.0255,0.00201407,0.00203335,-0.00411195,0.00613567,-0.00208825,-0.78657,0.00493604,0.0170949,1616,1688,12.4009,-50.0255
399,-664,12.4,49.3749,0.00233465,0.00177607,-0.00468764,0.00675132,-0.00264059,-0.755643,0.00559287,0.0148336,1623,1688,12.4,-49.3749
406,-664,12.3815,48.6932,0.00272858,0.00160821,-0.00527554,0.00747359,-0.0031368,-0.732504,0.00629417,0.014075,1630,1688,12.3815,-48.6932
413,-664,12.364,47.9825,0.00325323,0.00178313,-0.00610146,0.00866376,-0.0036274,-0.725452,0.00729218,0.017015,1637,1688,12.364,-47.9825
420,-664,12.3574,47.218,0.00389511,0.00189713,-0.00707588,0.0100422,-0.00424993,-0.71527,0.00847443,0.0413429,1644,1688,12.3574,-47.2181
427,-664,12.4067,46.4065,0,0,0,0,0,0,0,-1,1651,1688,12.4067,-46.4065
434,-664,12.4692,45.4623,0,0,0,0,0,0,0,-1,1658,1688,12.4692,-45.4622
441,-664,13.1577,42.9857,0,0,0,0,0,0,0,-1,1665,1688,13.1577,-42.9857
448,-664,12.5538,38.7155,0,0,0,0,0,0,0,-1,1672,1688,12.5539,-38.7154
455,-664,12.1709,39.3733,0,0,0,0,0,0,0,-1,1679,1688,12.1708,-39.3733
462,-664,4.3147,4.25439,0,0,0,0,0,0,0,-1,1686,1688,4.31467,-4.25435
469,-664,6.05469,7.49341,0,0,0,0,0,0,0,-1,1693,1688,6.05474,-7.49339
476,-664,10.2377,22.7128,0,0,0,0,0,0,0,-1,1700,1688,10.2377,-22.7128
483,-664,8.41895,10.9768,0,0,0,0,0,0,0,-1,1707,1688,8.41897,-10.9769
490,-664,3.90771,13.2842,0,0,0,0,0,0,0,-1,1714,1688,3.90776,-13.2841
497,-664,0,0,0,0,0,0,0,0,0,-1,1721,1688,0,0
504,-664,0,0,0,0,0,0,0,0,0,-1,1728,1688,0,0
511,-664,0,0,0,0,0,0,0,0,0,-1,1735,1688,0,0
518,-664,0,0,0,0,0,0,0,0,0,-1,1742,1688,0,0
525,-664,0,0,0,0,0,0,0,0,0,-1,1749,1688,0,0
532,-664,0,0,0,0,0,0,0,0,0,-1,1756,1688,0,0
539,-664,0,0,0,0,0,0,0,0,0,-1,1763,1688,0,0
546,-664,0,0,0,0,0,0,0,0,0,-1,1770,1688,0,0
553,-664,0,0,0,0,0,0,0,0,0,-1,1777,1688,0,0
560,-664,0,0,0,0,0,0,0,0,0,-1,1784,1688,0,0
567,-664,0,0,0,0,0,0,0,0,0,-1,1791,1688,0,0
574,-664,0,0,0,0,0,0,0,0,0,-1,1798,1688,0,0
581,-664,0,0,0,0,0,0,0,0,0,-1,1805,1688,0,0
588,-664,0,0,0,0,0,0,0,0,0,-1,1812,1688,0,0
595,-664,0,0,0,0,0,0,0,0,0,-1,1819,1688,0,0
602,-664,0,0,0,0,0,0,0,0,0,-1,1826,1688,0,0
609,-664,0,0,0,0,0,0,0,0,0,-1,1833,1688,0,0
616,-664,0,0,0,0,0,0,0,0,0,-1,1840,1688,0,0
623,-664,0,0,0,0,0,0,0,0,0,-1,1847,1688,0,0
630,-664,0,0,0,0,0,0,0,0,0,-1,1854,1688,0,0
637,-664,0,0,0,0,0,0,0,0,0,-1,1861,1688,0,0
644,-664,0,0,0,0,0,0,0,0,0,-1,1868,1688,0,0
651,-664,0,0,0,0,0,0,0,0,0,-1,1875,1688,0,0
658,-664,0,0,0,0,0,0,0,0,0,-1,1882,1688,0,0
665,-664,0,0,0,0,0,0,0,0,0,-1,1889,1688,0,0
672,-664,0,0,0,0,0,0,0,0,0,-1,1896,1688,0,0
679,-664,0,0,0,0,0,0,0,0,0,-1,1903,1688,0,0
686,-664,0,0,0,0,0,0,0,0,0,-1,1910,1688,0,0
693,-664,0,0,0,0,0,0,0,0,0,-1,1917,1688,0,0
700,-664,0,0,0,0,0,0,0,0,0,-1,1924,1688,0,0
707,-664,0,0,0,0,0,0,0,0,0,-1,1931,1688,0,0
714,-664,0,0,0,0,0,0,0,0,0,-1,1938,1688,0,0
721,-664,0,0,0,0,0,0,0,0,0,-1,1945,1688,0,0
728,-664,0,0,0,0,0,0,0,0,0,-1,1952,1688,0,0
735,-664,0,0,0,0,0,0,0,0,0,-1,1959,1688,0,0
742,-664,0,0,0,0,0,0,0,0,0,-1,1966,1688,0,0
749,-664,0,0,0,0,0,0,0,0,0,-1,1973,1688,0,0
756,-664,0,0,0,0,0,0,0,0,0,-1,1980,1688,0,0
763,-664,0,0,0,0,0,0,0,0,0,-1,1987,1688,0,0
770,-664,0,0,0,0,0,0,0,0,0,-1,1994,1688,0,0
777,-664,0,0,0,0,0,0,0,0,0,-1,2001,1688,0,0
784,-664,0,0,0,0,0,0,0,0,0,-1,2008,1688,0,0
791,-664,0,0,0,0,0,0,0,0,0,-1,2015,1688,0,0
798,-664,0,0,0,0,0,0,0,0,0,-1,2022,1688,0,0
805,-664,0,0,0,0,0,0,0,0,0,-1,2029,1688,0,0
812,-664,0,0,0,0,0,0,0,0,0,-1,2036,1688,0,0
-700,-671,0,0,0,0,0,0,0,0,0,-1,524,1695,0,0
-693,-671,0,0,0,0,0,0,0,0,0,-1,531,1695,0,0
-686,-671,0,0,0,0,0,0,0,0,0,-1,538,1695,0,0
-679,-671,0,0,0,0,0,0,0,0,0,-1,545,1695,0,0
-672,-671,0,0,0,0,0,0,0,0,0,-1,552,1695,0,0
-665,-671,0,0,0,0,0,0,0,0,0,-1,559,1695,0,0
-658,-671,0,0,0,0,0,0,0,0,0,-1,566,1695,0,0
-651,-671,0,0,0,0,0,0,0,0,0,-1,573,1695,0,0
-644,-671,0,0,0,0,0,0,0,0,0,-1,580,1695,0,0
-637,-671,0,0,0,0,0,0,0,0,0,-1,587,1695,0,0
-630,-671,0,0,0,0,0,0,0,0,0,-1,594,1695,0,0
-623,-671,0,0,0,0,0,0,0,0,0,-1,601,1695,0,0
-616,-671,0,0,0,0,0,0,0,0,0,-1,608,1695,0,0
-609,-671,0,0,0,0,0,0,0,0,0,-1,615,1695,0,0
-602,-671,0,0,0,0,0,0,0,0,0,-1,622,1695,0,0
-595,-671,0,0,0,0,0,0,0,0,0,-1,629,1695,0,0
-588,-671,0,0,0,0,0,0,0,0,0,-1,636,1695,0,0
-581,-671,0,0,0,0,0,0,0,0,0,-1,643,1695,0,0
-574,-671,0,0,0,0,0,0,0,0,0,-1,650,1695,0,0
-567,-671,0,0,0,0,0,0,0,0,0,-1,657,1695,0,0
-560,-671,0,0,0,0,0,0,0,0,0,-1,664,1695,0,0
-553,-671,0,0,0,0,0,0,0,0,0,-1,671,1695,0,0
-546,-671,0,0,0,0,0,0,0,0,0,-1,678,1695,0,0
-539,-671,0,0,0,0,0,0,0,0,0,-1,685,1695,0,0
-532,-671,0,0,0,0,0,0,0,0,0,-1,692,1695,0,0
-525,-671,0,0,0,0,0,0,0,0,0,-1,699,1695,0,0
-518,-671,0,0,0,0,0,0,0,0,0,-1,706,1695,0,0
-511,-671,0,0,0,0,0,0,0,0,0,-1,713,1695,0,0
-504,-671,0,0,0,0,0,0,0,0,0,-1,720,1695,0,0
-497,-671,0,0,0,0,0,0,0,0,0,-1,727,1695,0,0
-490,-671,0,0,0,0,0,0,0,0,0,-1,734,1695,0,0
-483,-671,0,0,0,0,0,0,0,0,0,-1,741,1695,0,0
-476,-671,0,0,0,0,0,0,0,0,0,-1,748,1695,0,0
-469,-671,0,0,0,0,0,0,0,0,0,-1,755,1695,0,0
-462,-671,0,0,0,0,0,0,0,0,0,-1,762,1695,0,0
-455,-671,0,0,0,0,0,0,0,0,0,-1,769,1695,0,0
-448,-671,0,0,0,0,0,0,0,0,0,-1,776,1695,0,0
-441,-671,0,0,0,0,0,0,0,0,0,-1,783,1695,0,0
-434,-671,0,0,0,0,0,0,0,0,0,-1,790,1695,0,0
-427,-671,0,0,0,0,0,0,0,0,0,-1,797,1695,0,0
-420,-671,0,0,0,0,0,0,0,0,0,-1,804,1695,0,0
-413,-671,0,0,0,0,0,0,0,0,0,-1,811,1695,0,0
-406,-671,0,0,0,0,0,0,0,0,0,-1,818,1695,0,0
-399,-671,0,0,0,0,0,0,0,0,0,-1,825,1695,0,0
-392,-671,0,0,0,0,0,0,0,0,0,-1,832,1695,0,0
-385,-671,0,0,0,0,0,0,0,0,0,-1,839,1695,0,0
-378,-671,0,0,0,0,0,0,0,0,0,-1,846,1695,0,0
-371,-671,0,0,0,0,0,0,0,0,0,-1,853,1695,0,0
-364,-671,-4.18738,7.51416,0,0,0,0,0,0,0,-1,860,1695,-4.18739,-7.51419
-357,-671,-5.02393,6.07129,0,0,0,0,0,0,0,-1,867,1695,-5.0239,-6.07135
-350,-671,6.93323,33.8943,0,0,0,0,0,0,0,-1,874,1695,6.93325,-33.8943
-343,-671,6.16626,32.3158,0,0,0,0,0,0,0,-1,881,1695,6.16623,-32.3158
-336,-671,5.67371,33.653,0,0,0,0,0,0,0,-1,888,1695,5.67369,-33.653
-329,-671,7.40582,41.647,0,0,0,0,0,0,0,-1,895,1695,7.40582,-41.647
-322,-671,4.9801,43.188,0,0,0,0,0,0,0,-1,902,1695,4.9801,-43.188
-315,-671,5.73804,44.6799,0,0,0,0,0,0,0,-1,909,1695,5.73803,-44.6799
-308,-671,6.25452,44.8154,0.0251855,-0.028982,0.0344937,0.0419577,-0.0457542,0.452579,0.0506563,0.0461877,916,1695,6.25454,-44.8154
-301,-671,6.0318,46.391,0.017979,-0.0272395,0.0282013,0.0315152,-0.0407757,0.447507,0.0418511,0.0429557,923,1695,6.03178,-46.391
-294,-671,6.09869,47.6367,0.0126444,-0.0245988,0.0226434,0.0233398,-0.0352942,0.441277,0.0340861,0.0466402,930,1695,6.09872,-47.6367
-287,-671,6.03857,48.4113,0.00906694,-0.0204807,0.0183667,0.0178643,-0.0292781,0.446695,0.0274823,0.0424522,937,1695,6.03857,-48.4113
-280,-671,5.94214,48.8677,0.00631566,-0.016584,0.01477,0.0135541,-0.0238224,0.455678,0.0218491,0.0363952,944,1695,5.94212,-48.8677
-273,-671,5.84247,49.5126,0.0044813,-0.0129596,0.0118379,0.0104639,-0.0189422,0.467945,0.0172113,0.0351311,951,1695,5.84249,-49.5125
-266,-671,5.88782,50.2015,0.00291175,-0.0103332,0.00903186,0.00748891,-0.0149103,0.469056,0.0131667,0.0249017,958,1695,5.88784,-50.2016
-259,-671,5.80658,50.8264,0.00205874,-0.00732736,0.00726234,0.00601244,-0.0112811,0.498542,0.0101377,0.0226535,965,1695,5.80659,-50.8264
-252,-671,5.78259,51.5101,0.0020021,-0.00375841,0.00546437,0.00529884,-0.00705514,0.542853,0.00715656,0.0183703,972,1695,5.78259,-51.5101
-245,-671,5.75287,52.1672,0.00189974,-0.00175368,0.00425443,0.00470304,-0.00455698,0.582616,0.0053465,0.0207253,979,1695,5.75287,-52.1672
-238,-671,5.75385,52.799,0.00180632,0.000181447,0.00362063,0.00470455,-0.00271678,0.675031,0.00433563,0.0200015,986,1695,5.75386,-52.799
-231,-671,5.74402,53.4202,0.00183327,0.00114054,0.00331049,0.00481547,-0.00184165,0.733274,0.00396926,0.0154874,993,1695,5.74402,-53.4201
-224,-671,5.66187,54.0352,0.00192641,0.00144963,0.00282824,0.0045263,-0.00115025,0.743353,0.00346518,0.0129978,1000,1695,5.66189,-54.0351
-217,-671,5.60284,54.6473,0.00176668,0.00139895,0.00217697,0.00376753,-0.0006019,0.743269,0.00273449,0.0124409,1007,1695,5.60283,-54.6474
-210,-671,5.59467,55.2792,0.00157274,0.00127026,0.00171227,0.00314043,-0.000297434,0.741349,0.00219948,0.0118661,1014,1695,5.59466,-55.2791
-203,-671,5.5498,55.8373,0.00162767,0.000937572,0.00131948,0.00264647,-8.12307e-05,0.657511,0.001792,0.0193475,1021,1695,5.54975,-55.8373
-196,-671,5.53149,56.4159,0.00183572,0.000580097,0.00102488,0.00240979,6.02531e-06,0.510592,0.00160452,0.0172648,1028,1695,5.53152,-56.4159
-189,-671,5.53479,57.0533,0.0020869,0.00031044,0.000732191,0.00234978,4.75595e-05,0.3447,0.00155091,0.0127339,1035,1695,5.5348,-57.0534
-182,-671,5.50867,57.6168,0.00236654,0.000189322,0.000394799,0.00243592,0.000119944,0.173956,0.00158548,0.00984184,1042,1695,5.50865,-57.6168
-175,-671,5.51099,58.1515,0.00286431,0.000399129,0.000288906,0.00289771,0.000365724,0.115117,0.00182217,0.0126441,1049,1695,5.51099,-58.1515
-168,-671,5.52124,58.6443,0.00335225,0.000739359,0.000172227,0.00336355,0.000728055,0.0655364,0.00204338,0.014278,1056,1695,5.52127,-58.6443
-161,-671,5.50854,59.1644,0.00387841,0.00131922,0.00012716,0.00388471,0.00131292,0.0495253,0.00228176,0.0106978,1063,1695,5.50858,-59.1645
-154,-671,5.52148,59.7125,0.00451806,0.00216113,0.000121924,0.00452435,0.00215483,0.0515466,0.00261312,0.0100397,1070,1695,5.52152,-59.7126
-147,-671,5.53479,60.2556,0.00520248,0.0031686,0.000140092,0.00521209,0.003159,0.0684483,0.00303169,0.0110273,1077,1695,5.53483,-60.2556
-140,-671,5.57153,60.7402,0.00586629,0.00415769,0.000107797,0.00587306,0.00415092,0.062759,0.00348612,0.0137168,1084,1695,5.57147,-60.7403
-133,-671,5.57312,61.1699,0.00648238,0.00545634,0.00016552,0.00650842,0.0054303,0.156048,0.00402796,0.0206199,1091,1695,5.57317,-61.1699
-126,-671,5.64001,61.8086,0.00705453,0.00687404,0.000171139,0.00715776,0.00677081,0.542757,0.00464823,0.0399104,1098,1695,5.64006,-61.8085
-119,-671,5.74207,62.6302,0,0,0,0,0,0,0,-1,1105,1695,5.74205,-62.6302
-112,-671,6.58704,44.6255,0,0,0,0,0,0,0,-1,1112,1695,6.58701,-44.6255
-105,-671,7.33252,41.3418,0,0,0,0,0,0,0,-1,1119,1695,7.33247,-41.3418
-98,-671,6.34534,45.6299,0,0,0,0,0,0,0,-1,1126,1695,6.34533,-45.6299
-91,-671,6.40063,38.2443,0,0,0,0,0,0,0,-1,1133,1695,6.40059,-38.2442
-84,-671,5.4209,26.2415,0,0,0,0,0,0,0,-1,1140,1695,5.42096,-26.2414
-77,-671,4.31763,16.489,0,0,0,0,0,0,0,-1,1147,1695,4.31757,-16.489
-70,-671,3.06067,10.7737,0,0,0,0,0,0,0,-1,1154,1695,3.0607,-10.7737
-63,-671,2.94592,6.90198,0,0,0,0,0,0,0,-1,1161,1695,2.94594,-6.90198
-56,-671,-3.07678,2.87976,0,0,0,0,0,0,0,-1,1168,1695,-3.07675,-2.87979
-49,-671,-1.05957,4.76917,0,0,0,0,0,0,0,-1,1175,1695,-1.05958,-4.76921
-42,-671,0.539307,3.7865,0,0,0,0,0,0,0,-1,1182,1695,0.539266,-3.78648
-35,-671,-0.272461,0.347534,0,0,0,0,0,0,0,-1,1189,1695,-0.272434,-0.347569
-28,-671,-10.4878,17.2009,0,0,0,0,0,0,0,-1,1196,1695,-10.4878,-17.2009
-21,-671,7.08203,65.218,0,0,0,0,0,0,0,-1,1203,1695,7.082,-65.218
-14,-671,7.26147,65.9518,0,0,0,0,0,0,0,-1,1210,1695,7.26143,-65.9518
-7,-671,7.28064,65.5034,0.0564508,-0.0291879,-0.00768521,0.057135,-0.0298721,-0.0887946,0.0510489,0.044331,1217,1695,7.28066,-65.5035
0,-671,7.6925,65.5175,0.0545312,-0.0208457,-0.00812505,0.0553971,-0.0217116,-0.106167,0.0459129,0.0433182,1224,1695,7.69247,-65.5174
7,-671,8.13208,65.4991,0.0528048,-0.00837728,-0.00649969,0.0534877,-0.00906015,-0.104678,0.0390306,0.0427023,1231,1695,8.13204,-65.4992
14,-671,8.95044,65.2766,0.0506657,0.010894,0.000130293,0.0506661,0.0108936,0.00327598,0.0307953,0.0437443,1238,1695,8.95045,-65.2766
21,-671,9.37585,65.5989,0,0,0,0,0,0,0,-1,1245,1695,9.37582,-65.5988
28,-671,9.96851,66.1788,0,0,0,0,0,0,0,-1,1252,1695,9.96847,-66.1788
35,-671,10.6898,66.7151,0,0,0,0,0,0,0,-1,1259,1695,10.6898,-66.7151
42,-671,7.7854,60.4417,0,0,0,0,0,0,0,-1,1266,1695,7.78535,-60.4417
49,-671,7.76172,61.6395,0,0,0,0,0,0,0,-1,1273,1695,7.76178,-61.6396
56,-671,5.1095,60.7341,0,0,0,0,0,0,0,-1,1280,1695,5.10947,-60.7342
63,-671,5.58765,61.4481,0,0,0,0,0,0,0,-1,1287,1695,5.58761,-61.4481
70,-671,7.05212,63.5221,0,0,0,0,0,0,0,-1,1294,1695,7.05212,-63.5221
77,-671,8.76025,64.8373,0,0,0,0,0,0,0,-1,1301,1695,8.76031,-64.8373
84,-671,9.12573,65.2245,0.0420778,0.0888621,0.0633961,0.133044,-0.0021041,0.962141,0.0894057,0.0494182,1308,1695,9.12572,-65.2245
91,-671,9.28247,64.9854,0.0397634,0.0781579,0.0614554,0.123345,-0.00542341,0.936784,0.0840959,0.0451397,1315,1695,9.28245,-64.9854
98,-671,11.1393,67.0287,0,0,0,0,0,0,0,-1,1322,1695,11.1393,-67.0287
105,-671,10.9561,66.7701,0.0329039,0.0627431,0.0593497,0.10902,-0.0133728,0.908539,0.0775229,0.0456638,1329,1695,10.956,-66.7701
112,-671,10.504,67.6963,0.0291439,0.060958,0.0594143,0.106558,-0.0164559,0.916196,0.0771114,0.0449131,1336,1695,10.504,-67.6963
119,-671,9.95215,67.4072,0.0266122,0.062842,0.0607424,0.108113,-0.0186589,0.930312,0.0790327,0.0472336,1343,1695,9.95216,-67.4073
126,-671,9.45215,67.2813,0,0,0,0,0,0,0,-1,1350,1695,9.45214,-67.2813
133,-671,9.08789,67.0519,0.0255079,0.0751862,0.0661817,0.121037,-0.0203424,0.964922,0.0882568,0.0497841,1357,1695,9.08789,-67.0518
140,-671,8.69348,66.4346,0,0,0,0,0,0,0,-1,1364,1695,8.69352,-66.4346
147,-671,8.34424,65.7878,0,0,0,0,0,0,0,-1,1371,1695,8.34426,-65.7878
154,-671,8.01001,65.1267,0,0,0,0,0,0,0,-1,1378,1695,8.00997,-65.1268
161,-671,4.49292,4.91272,0,0,0,0,0,0,0,-1,1385,1695,4.49297,-4.91273
168,-671,5.17639,6.1416,0,0,0,0,0,0,0,-1,1392,1695,5.1764,-6.14164
175,-671,5.6731,1.64685,0,0,0,0,0,0,0,-1,1399,1695,5.67313,-1.64691
182,-671,5.56812,1.71692,0,0,0,0,0,0,0,-1,1406,1695,5.56809,-1.71686
189,-671,6.98315,6.36169,0,0,0,0,0,0,0,-1,1413,1695,6.98312,-6.36175
196,-671,5.38123,5.69775,0,0,0,0,0,0,0,-1,1420,1695,5.38125,-5.69769
203,-671,5.95117,8.11658,0,0,0,0,0,0,0,-1,1427,1695,5.9512,-8.11662
210,-671,4.73596,8.39624,0,0,0,0,0,0,0,-1,1434,1695,4.736,-8.39618
217,-671,5.37097,11.863,0,0,0,0,0,0,0,-1,1441,1695,5.37094,-11.863
224,-671,5.08167,13.6694,0,0,0,0,0,0,0,-1,1448,1695,5.08165,-13.6695
231,-671,5.66663,15.3348,0,0,0,0,0,0,0,-1,1455,1695,5.66667,-15.3349
238,-671,6.32959,16.2036,0,0,0,0,0,0,0,-1,1462,1695,6.32961,-16.2037
245,-671,11.9244,57.5367,0,0,0,0,0,0,0,-1,1469,1695,11.9245,-57.5367
252,-671,11.8997,61.6394,0,0,0,0,0,0,0,-1,1476,1695,11.8996,-61.6394
259,-671,11.8462,60.7646,0,0,0,0,0,0,0,-1,1483,1695,11.8462,-60.7646
266,-671,11.9688,60.3545,0.0059924,0.00298697,-0.000983602,0.00628569,0.00269368,-0.289783,0.00364138,0.0330786,1490,1695,11.9687,-60.3545
273,-671,12.0417,59.8923,0.00546989,0.00346557,-0.00099584,0.00588053,0.00305492,-0.391118,0.00339599,0.0123129,1497,1695,12.0418,-59.8924
280,-671,12.0481,59.4086,0.00475195,0.00374021,-0.000963459,0.00533427,0.00315789,-0.543653,0.00309707,0.0119705,1504,1695,12.0481,-59.4086
287,-671,12.0424,58.7882,0.00407614,0.00393473,-0.000921245,0.00492939,0.00308148,-0.747099,0.00287553,0.0139384,1511,1695,12.0423,-58.7882
294,-671,12.0546,58.2411,0.00354014,0.00386483,-0.000821279,0.00453965,0.00286531,-0.882976,0.00265086,0.013126,1518,1695,12.0545,-58.2411
301,-671,12.0891,57.7594,0.00303561,0.00378946,-0.000797547,0.00429467,0.00253041,-1.00614,0.00249264,0.011387,1525,1695,12.0891,-57.7594
308,-671,12.0996,57.25,0.00253133,0.00366401,-0.000873476,0.00413868,0.00205666,-1.07301,0.00238949,0.01236,1532,1695,12.0996,-57.2499
315,-671,12.1113,56.6954,0.00205904,0.00357906,-0.00097706,0.0040569,0.00158121,-1.11594,0.00236115,0.0136189,1539,1695,12.1114,-56.6955
322,-671,12.1044,56.1565,0.00164272,0.00355849,-0.00112661,0.00407938,0.00112183,-1.13771,0.00243342,0.015156,1546,1695,12.1044,-56.1565
329,-671,12.0562,55.6199,0.00131421,0.00356385,-0.00137294,0.0042139,0.000664147,-1.12859,0.00261614,0.0148431,1553,1695,12.0562,-55.6199
336,-671,12.0422,55.0046,0.00108481,0.00366191,-0.00156967,0.00440418,0.000342538,-1.12908,0.00282886,0.0118131,1560,1695,12.0422,-55.0047
343,-671,12.0568,54.363,0.000968258,0.00377923,-0.0018718,0.00471447,3.30142e-05,-1.10743,0.00313203,0.0120094,1567,1695,12.0568,-54.363
350,-671,12.0331,53.8102,0.000888635,0.00381681,-0.0022832,0.00506502,-0.000359577,-1.0705,0.0035027,0.0129384,1574,1695,12.033,-53.8102
357,-671,11.9895,53.1577,0.000917793,0.00370297,-0.00275306,0.00539562,-0.00077485,-1.01955,0.00388123,0.0119616,1581,1695,11.9895,-53.1578
364,-671,11.9784,52.5183,0.000983602,0.00358657,-0.00312983,0.00567474,-0.00110456,-0.982438,0.00420004,0.0127015,1588,1695,11.9784,-52.5183
371,-671,11.9343,51.9244,0.00115893,0.00348075,-0.0035854,0.0060885,-0.00144882,-0.941966,0.00461832,0.0145757,1595,1695,11.9343,-51.9245
378,-671,11.8972,51.3069,0.00148761,0.00329462,-0.00406393,0.00655427,-0.00177204,-0.894781,0.00506461,0.0130816,1602,1695,11.8972,-51.3069
385,-671,11.8503,50.6378,0.00196381,0.00306946,-0.00471101,0.00725997,-0.0022267,-0.843805,0.00572833,0.014456,1609,1695,11.8504,-50.6378
392,-671,11.7843,50.0708,0.00242991,0.00281145,-0.0054234,0.00804743,-0.00280607,-0.802979,0.00650527,0.018478,1616,1695,11.7843,-50.0708
399,-671,11.7596,49.4294,0.00297772,0.00249635,-0.00616232,0.00890405,-0.00342998,-0.765879,0.00735112,0.015587,1623,1695,11.7597,-49.4294
406,-671,11.7881,48.7245,0.00360521,0.00231175,-0.0069109,0.00989957,-0.00398261,-0.738743,0.00825399,0.023522,1630,1695,11.7881,-48.7245
413,-671,11.7219,48.1344,0.00438179,0.00245645,-0.00793241,0.0114097,-0.00457149,-0.725014,0.00950415,0.0365878,1637,1695,11.7219,-48.1344
420,-671,11.7523,47.3748,0,0,0,0,0,0,0,-1,1644,1695,11.7524,-47.3747
427,-671,11.9879,42.9364,0,0,0,0,0,0,0,-1,1651,1695,11.988,-42.9364
434,-671,12.0647,42.6493,0,0,0,0,0,0,0,-1,1658,1695,12.0648,-42.6493
441,-671,11.8904,39.6104,0,0,0,0,0,0,0,-1,1665,1695,11.8904,-39.6103
448,-671,11.6979,39.1995,0,0,0,0,0,0,0,-1,1672,1695,11.6979,-39.1994
455,-671,11.5221,39.0929,0,0,0,0,0,0,0,-1,1679,1695,11.5221,-39.0929
462,-671,5.86255,4.47961,0,0,0,0,0,0,0,-1,1686,1695,5.8625,-4.4796
469,-671,3.71301,3.76978,0,0,0,0,0,0,0,-1,1693,1695,3.71297,-3.76974
476,-671,3.75574,3.18848,0,0,0,0,0,0,0,-1,1700,1695,3.7558,-3.18847
483,-671,7.81824,12.1041,0,0,0,0,0,0,0,-1,1707,1695,7.81826,-12.1041
490,-671,0,0,0,0,0,0,0,0,0,-1,1714,1695,0,0
497,-671,0,0,0,0,0,0,0,0,0,-1,1721,1695,0,0
504,-671,0,0,0,0,0,0,0,0,0,-1,1728,1695,0,0
511,-671,0,0,0,0,0,0,0,0,0,-1,1735,1695,0,0
518,-671,0,0,0,0,0,0,0,0,0,-1,1742,1695,0,0
525,-671,0,0,0,0,0,0,0,0,0,-1,1749,1695,0,0
532,-671,0,0,0,0,0,0,0,0,0,-1,1756,1695,0,0
539,-671,0,0,0,0,0,0,0,0,0,-1,1763,1695,0,0
546,-671,0,0,0,0,0,0,0,0,0,-1,1770,1695,0,0
553,-671,0,0,0,0,0,0,0,0,0,-1,1777,1695,0,0
560,-671,0,0,0,0,0,0,0,0,0,-1,1784,1695,0,0
567,-671,0,0,0,0,0,0,0,0,0,-1,1791,1695,0,0
574,-671,0,0,0,0,0,0,0,0,0,-1,1798,1695,0,0
581,-671,0,0,0,0,0,0,0,0,0,-1,1805,1695,0,0
588,-671,0,0,0,0,0,0,0,0,0,-1,1812,1695,0,0
595,-671,0,0,0,0,0,0,0,0,0,-1,1819,1695,0,0
602,-671,0,0,0,0,0,0,0,0,0,-1,1826,1695,0,0
609,-671,0,0,0,0,0,0,0,0,0,-1,1833,1695,0,0
616,-671,0,0,0,0,0,0,0,0,0,-1,1840,1695,0,0
623,-671,0,0,0,0,0,0,0,0,0,-1,1847,1695,0,0
630,-671,0,0,0,0,0,0,0,0,0,-1,1854,1695,0,0
637,-671,0,0,0,0,0,0,0,0,0,-1,1861,1695,0,0
644,-671,0,0,0,0,0,0,0,0,0,-1,1868,1695,0,0
651,-671,0,0,0,0,0,0,0,0,0,-1,1875,1695,0,0
658,-671,0,0,0,0,0,0,0,0,0,-1,1882,1695,0,0
665,-671,0,0,0,0,0,0,0,0,0,-1,1889,1695,0,0
672,-671,0,0,0,0,0,0,0,0,0,-1,1896,1695,0,0
679,-671,0,0,0,0,0,0,0,0,0,-1,1903,1695,0,0
686,-671,0,0,0,0,0,0,0,0,0,-1,1910,1695,0,0
693,-671,0,0,0,0,0,0,0,0,0,-1,1917,1695,0,0
700,-671,0,0,0,0,0,0,0,0,0,-1,1924,1695,0,0
707,-671,0,0,0,0,0,0,0,0,0,-1,1931,1695,0,0
714,-671,0,0,0,0,0,0,0,0,0,-1,1938,1695,0,0
721,-671,0,0,0,0,0,0,0,0,0,-1,1945,1695,0,0
728,-671,0,0,0,0,0,0,0,0,0,-1,1952,1695,0,0
735,-671,0,0,0,0,0,0,0,0,0,-1,1959,1695,0,0
742,-671,0,0,0,0,0,0,0,0,0,-1,1966,1695,0,0
749,-671,0,0,0,0,0,0,0,0,0,-1,1973,1695,0,0
756,-671,0,0,0,0,0,0,0,0,0,-1,1980,1695,0,0
763,-671,0,0,0,0,0,0,0,0,0,-1,1987,1695,0,0
770,-671,0,0,0,0,0,0,0,0,0,-1,1994,1695,0,0
777,-671,0,0,0,0,0,0,0,0,0,-1,2001,1695,0,0
784,-671,0,0,0,0,0,0,0,0,0,-1,2008,1695,0,0
791,-671,0,0,0,0,0,0,0,0,0,-1,2015,1695,0,0
798,-671,0,0,0,0,0,0,0,0,0,-1,2022,1695,0,0
805,-671,0,0,0,0,0,0,0,0,0,-1,2029,1695,0,0
812,-671,0,0,0,0,0,0,0,0,0,-1,2036,1695,0,0
-700,-678,0,0,0,0,0,0,0,0,0,-1,524,1702,0,0
-693,-678,0,0,0,0,0,0,0,0,0,-1,531,1702,0,0
-686,-678,0,0,0,0,0,0,0,0,0,-1,538,1702,0,0
-679,-678,0,0,0,0,0,0,0,0,0,-1,545,1702,0,0
-672,-678,0,0,0,0,0,0,0,0,0,-1,552,1702,0,0
-665,-678,0,0,0,0,0,0,0,0,0,-1,559,1702,0,0
-658,-678,0,0,0,0,0,0,0,0,0,-1,566,1702,0,0
-651,-678,0,0,0,0,0,0,0,0,0,-1,573,1702,0,0
-644,-678,0,0,0,0,0,0,0,0,0,-1,580,1702,0,0
-637,-678,0,0,0,0,0,0,0,0,0,-1,587,1702,0,0
-630,-678,0,0,0,0,0,0,0,0,0,-1,594,1702,0,0
-623,-678,0,0,0,0,0,0,0,0,0,-1,601,1702,0,0
-616,-678,0,0,0,0,0,0,0,0,0,-1,608,1702,0,0
-609,-678,0,0,0,0,0,0,0,0,0,-1,615,1702,0,0
-602,-678,0,0,0,0,0,0,0,0,0,-1,622,1702,0,0
-595,-678,0,0,0,0,0,0,0,0,0,-1,629,1702,0,0
-588,-678,0,0,0,0,0,0,0,0,0,-1,636,1702,0,0
-581,-678,0,0,0,0,0,0,0,0,0,-1,643,1702,0,0
-574,-678,0,0,0,0,0,0,0,0,0,-1,650,1702,0,0
-567,-678,0,0,0,0,0,0,0,0,0,-1,657,1702,0,0
-560,-678,0,0,0,0,0,0,0,0,0,-1,664,1702,0,0
-553,-678,0,0,0,0,0,0,0,0,0,-1,671,1702,0,0
-546,-678,0,0,0,0,0,0,0,0,0,-1,678,1702,0,0
-539,-678,0,0,0,0,0,0,0,0,0,-1,685,1702,0,0
-532,-678,0,0,0,0,0,0,0,0,0,-1,692,1702,0,0
-525,-678,0,0,0,0,0,0,0,0,0,-1,699,1702,0,0
-518,-678,0,0,0,0,0,0,0,0,0,-1,706,1702,0,0
-511,-678,0,0,0,0,0,0,0,0,0,-1,713,1702,0,0
-504,-678,0,0,0,0,0,0,0,0,0,-1,720,1702,0,0
-497,-678,0,0,0,0,0,0,0,0,0,-1,727,1702,0,0
-490,-678,0,0,0,0,0,0,0,0,0,-1,734,1702,0,0
-483,-678,0,0,0,0,0,0,0,0,0,-1,741,1702,0,0
-476,-678,0,0,0,0,0,0,0,0,0,-1,748,1702,0,0
-469,-678,0,0,0,0,0,0,0,0,0,-1,755,1702,0,0
-462,-678,0,0,0,0,0,0,0,0,0,-1,762,1702,0,0
-455,-678,0,0,0,0,0,0,0,0,0,-1,769,1702,0,0
-448,-678,0,0,0,0,0,0,0,0,0,-1,776,1702,0,0
-441,-678,0,0,0,0,0,0,0,0,0,-1,783,1702,0,0
-434,-678,0,0,0,0,0,0,0,0,0,-1,790,1702,0,0
-427,-678,0,0,0,0,0,0,0,0,0,-1,797,1702,0,0
-420,-678,0,0,0,0,0,0,0,0,0,-1,804,1702,0,0
-413,-678,0,0,0,0,0,0,0,0,0,-1,811,1702,0,0
-406,-678,0,0,0,0,0,0,0,0,0,-1,818,1702,0,0
-399,-678,0,0,0,0,0,0,0,0,0,-1,825,1702,0,0
-392,-678,0,0,0,0,0,0,0,0,0,-1,832,1702,0,0
-385,-678,0,0,0,0,0,0,0,0,0,-1,839,1702,0,0
-378,-678,0,0,0,0,0,0,0,0,0,-1,846,1702,0,0
-371,-678,0,0,0,0,0,0,0,0,0,-1,853,1702,0,0
-364,-678,0,0,0,0,0,0,0,0,0,-1,860,1702,0,0
-357,-678,0,0,0,0,0,0,0,0,0,-1,867,1702,0,0
-350,-678,-5.79944,6.11865,0,0,0,0,0,0,0,-1,874,1702,-5.79942,-6.11864
-343,-678,8.79578,34.4388,0,0,0,0,0,0,0,-1,881,1702,8.79579,-34.4388
-336,-678,9.06317,34.813,0,0,0,0,0,0,0,-1,888,1702,9.06318,-34.8129
-329,-678,8.68359,35.6151,0,0,0,0,0,0,0,-1,895,1702,8.68362,-35.6152
-322,-678,8.50494,35.5048,0,0,0,0,0,0,0,-1,902,1702,8.50495,-35.5047
-315,-678,6.50409,44.3799,0,0,0,0,0,0,0,-1,909,1702,6.50409,-44.3799
-308,-678,6.55951,45.7273,0.0292747,-0.0425595,0.0436917,0.0499173,-0.0632021,0.441375,0.0654595,0.0488485,916,1702,6.55948,-45.7273
-301,-678,6.50897,47.0946,0.0208825,-0.0393713,0.0355572,0.0373597,-0.0558485,0.433941,0.0541656,0.0445317,923,1702,6.50899,-47.0946
-294,-678,6.50842,48.4463,0.0147477,-0.0349849,0.0284556,0.027671,-0.0479082,0.426305,0.044154,0.0458394,930,1702,6.50842,-48.4463
-287,-678,6.58917,48.787,0.0108327,-0.0284834,0.0232084,0.0215896,-0.0392403,0.434017,0.0356096,0.0482996,937,1702,6.58916,-48.787
-280,-678,6.37006,49.0381,0.00787751,-0.0227115,0.018769,0.0167945,-0.0316285,0.443524,0.0283909,0.0478993,944,1702,6.37007,-49.0381
-273,-678,6.02283,49.5017,0.00580755,-0.017368,0.0151132,0.0132641,-0.0248245,0.458336,0.0223255,0.0454646,951,1702,6.02283,-49.5017
-266,-678,6.33276,50.2715,0.00405298,-0.0133306,0.0117167,0.0099498,-0.0192274,0.466272,0.017127,0.0371597,958,1702,6.33276,-50.2715
-259,-678,6.37244,50.91,0.00305431,-0.00919637,0.00950527,0.00823693,-0.014379,0.499179,0.0132168,0.022271,965,1702,6.37242,-50.91
-252,-678,6.39709,51.5565,0.00288201,-0.00452332,0.0072408,0.00731193,-0.00895324,0.54905,0.00940662,0.0182345,972,1702,6.39711,-51.5566
-245,-678,6.37476,52.1969,0.00259936,-0.00189735,0.00569406,0.00647288,-0.00577088,0.597364,0.00707281,0.0188853,979,1702,6.37479,-52.1969
-238,-678,6.34296,52.8301,0.00227926,0.000658164,0.00486603,0.00640178,-0.00346436,0.70287,0.00577976,0.0151729,986,1702,6.34294,-52.8301
-231,-678,6.29504,53.454,0.0021007,0.00198136,0.00443964,0.00648107,-0.002399,0.778679,0.0053044,0.0132852,993,1702,6.29501,-53.454
-224,-678,6.22766,54.061,0.00204137,0.00247179,0.00382654,0.00608916,-0.00157601,0.813489,0.0046742,0.0139353,1000,1702,6.22768,-54.061
-217,-678,6.18677,54.6915,0.00166665,0.0025284,0.00301499,0.00514315,-0.000948106,0.856373,0.0037846,0.0146282,1007,1702,6.18675,-54.6916
-210,-678,6.17163,55.3406,0.00122652,0.00253652,0.00246826,0.00443521,-0.000672172,0.915094,0.00320445,0.0155071,1014,1702,6.17162,-55.3406
-203,-678,6.14185,55.895,0.00107209,0.00231434,0.00200804,0.00379513,-0.000408688,0.93539,0.00267673,0.0204543,1021,1702,6.1419,-55.895
-196,-678,6.10864,56.4661,0.0010964,0.00201655,0.00164173,0.00326145,-0.000148506,0.922013,0.00222546,0.0194995,1028,1702,6.10863,-56.4661
-189,-678,6.08752,57.0696,0.00122375,0.00172606,0.00130935,0.00280812,0.000141682,0.880155,0.00182669,0.010668,1035,1702,6.08752,-57.0695
-182,-678,6.08447,57.6466,0.00137573,0.00139381,0.000884476,0.00226929,0.000500249,0.790508,0.00137675,0.010061,1042,1702,6.0845,-57.6466
-175,-678,6.05127,58.1958,0.00177423,0.00145802,0.000720253,0.00235353,0.000878725,0.677355,0.00137326,0.0112804,1049,1702,6.05124,-58.1958
-168,-678,6.04163,58.6932,0.00219612,0.00154481,0.000565842,0.00252332,0.0012176,0.524286,0.00145714,0.0106909,1056,1702,6.04158,-58.6932
-161,-678,6.03125,59.2009,0.00259377,0.00178304,0.000456853,0.00279917,0.00157763,0.422522,0.00162045,0.0101652,1063,1702,6.0313,-59.2009
-154,-678,6.03345,59.7513,0.00315706,0.00221303,0.000396509,0.0033015,0.00206859,0.349339,0.00192637,0.00952676,1070,1702,6.03348,-59.7513
-147,-678,6.02649,60.2888,0.00380355,0.00274482,0.000343835,0.00390542,0.00264296,0.28802,0.00230127,0.011234,1077,1702,6.0265,-60.2888
-140,-678,6.06348,60.7559,0.00442112,0.00325201,0.000230499,0.00446493,0.00320821,0.187798,0.00265863,0.0117066,1084,1702,6.06352,-60.7558
-133,-678,6.10291,61.2072,0.00499592,0.0039628,0.000179814,0.00502632,0.0039324,0.16749,0.0030523,0.013698,1091,1702,6.10292,-61.2072
-126,-678,6.09265,61.7268,0.00551587,0.00475247,7.41642e-05,0.00552301,0.00474534,0.095955,0.0034521,0.0194663,1098,1702,6.09268,-61.7268
-119,-678,6.0929,62.4358,0,0,0,0,0,0,0,-1,1105,1702,6.09287,-62.4358
-112,-678,6.16077,62.5419,0,0,0,0,0,0,0,-1,1112,1702,6.16071,-62.5418
-105,-678,6.12683,63.0656,0,0,0,0,0,0,0,-1,1119,1702,6.12686,-63.0656
-98,-678,6.24011,63.5756,0,0,0,0,0,0,0,-1,1126,1702,6.24017,-63.5755
-91,-678,6.38513,63.7836,0,0,0,0,0,0,0,-1,1133,1702,6.38509,-63.7835
-84,-678,6.58545,36.5073,0,0,0,0,0,0,0,-1,1140,1702,6.58544,-36.5073
-77,-678,5.95154,29.1879,0,0,0,0,0,0,0,-1,1147,1702,5.95156,-29.1878
-70,-678,4.75891,19.6552,0,0,0,0,0,0,0,-1,1154,1702,4.75895,-19.6551
-63,-678,3.41687,11.0365,0,0,0,0,0,0,0,-1,1161,1702,3.41682,-11.0365
-56,-678,1.72388,6.13159,0,0,0,0,0,0,0,-1,1168,1702,1.72388,-6.13157
-49,-678,-0.241699,5.29895,0,0,0,0,0,0,0,-1,1175,1702,-0.241682,-5.29897
-42,-678,0.297119,3.90649,0,0,0,0,0,0,0,-1,1182,1702,0.297139,-3.90655
-35,-678,0.498413,3.64038,0,0,0,0,0,0,0,-1,1189,1702,0.498471,-3.64038
-28,-678,0.132446,3.55994,0,0,0,0,0,0,0,-1,1196,1702,0.132432,-3.55993
-21,-678,7.39966,66.1985,0,0,0,0,0,0,0,-1,1203,1702,7.39963,-66.1984
-14,-678,7.49084,66.2429,0.043617,-0.027389,-0.00850372,0.0446212,-0.0283932,-0.117546,0.0425005,0.0391275,1210,1702,7.49078,-66.243
-7,-678,7.52893,66.1129,0.0432526,-0.023403,-0.0089586,0.0444356,-0.0245861,-0.131298,0.0403952,0.041381,1217,1702,7.52889,-66.1129
0,-678,7.91565,66.2007,0.0425533,-0.017379,-0.00899299,0.0438737,-0.0186993,-0.145777,0.0370883,0.0422602,1224,1702,7.91561,-66.2006
7,-678,8.42456,66.3097,0,0,0,0,0,0,0,-1,1231,1702,8.4246,-66.3097
14,-678,9.80786,65.4615,0,0,0,0,0,0,0,-1,1238,1702,9.80786,-65.4616
21,-678,10.6947,66.2948,0,0,0,0,0,0,0,-1,1245,1702,10.6947,-66.2948
28,-678,11.3567,67.101,0,0,0,0,0,0,0,-1,1252,1702,11.3567,-67.1009
35,-678,8.01453,63.4049,0,0,0,0,0,0,0,-1,1259,1702,8.01451,-63.4049
42,-678,7.75903,63.1885,0,0,0,0,0,0,0,-1,1266,1702,7.75907,-63.1885
49,-678,7.81714,63.0876,0,0,0,0,0,0,0,-1,1273,1702,7.81718,-63.0876
56,-678,7.99451,63.1449,0,0,0,0,0,0,0,-1,1280,1702,7.99447,-63.1449
63,-678,6.87268,63.5459,0,0,0,0,0,0,0,-1,1287,1702,6.8727,-63.5459
70,-678,10.2922,67.0183,0,0,0,0,0,0,0,-1,1294,1702,10.2922,-67.0182
77,-678,9.39319,65.823,0,0,0,0,0,0,0,-1,1301,1702,9.39319,-65.823
84,-678,8.42407,64.6694,0.0375705,0.069452,0.0524583,0.108338,-0.00131553,0.932902,0.0726678,0.0471001,1308,1702,8.42404,-64.6694
91,-678,11.0526,67.0398,0.0353356,0.0610501,0.0506717,0.10047,-0.00408453,0.909644,0.0683824,0.0453736,1315,1702,11.0526,-67.0398
98,-678,10.7228,66.7804,0.0323285,0.0532475,0.0491019,0.0929916,-0.00741559,0.890338,0.0646083,0.0413956,1322,1702,10.7228,-66.7804
105,-678,10.6792,66.8062,0.0287585,0.0485209,0.0480685,0.0877133,-0.0104339,0.886768,0.0622457,0.0408108,1329,1702,10.6793,-66.8061
112,-678,10.4603,67.155,0.0252088,0.0467689,0.0474537,0.0846516,-0.0126739,0.897087,0.0610988,0.0425924,1336,1702,10.4604,-67.1551
119,-678,10.0133,67.3091,0.0228124,0.0478185,0.0478138,0.084737,-0.014106,0.913282,0.0617329,0.0406808,1343,1702,10.0133,-67.3091
126,-678,9.61987,66.9166,0,0,0,0,0,0,0,-1,1350,1702,9.61982,-66.9166
133,-678,9.34961,66.3705,0,0,0,0,0,0,0,-1,1357,1702,9.34959,-66.3705
140,-678,8.97961,65.8912,0,0,0,0,0,0,0,-1,1364,1702,8.97962,-65.8912
147,-678,8.62781,64.9655,0,0,0,0,0,0,0,-1,1371,1702,8.62786,-64.9654
154,-678,8.32007,64.3206,0,0,0,0,0,0,0,-1,1378,1702,8.32001,-64.3205
161,-678,8.81226,34.8624,0,0,0,0,0,0,0,-1,1385,1702,8.81229,-34.8624
168,-678,4.21863,5.25781,0,0,0,0,0,0,0,-1,1392,1702,4.21865,-5.25781
175,-678,5.21899,5.9635,0,0,0,0,0,0,0,-1,1399,1702,5.21894,-5.96346
182,-678,7.31262,6.75122,0,0,0,0,0,0,0,-1,1406,1702,7.3126,-6.75123
189,-678,5.96021,6.36853,0,0,0,0,0,0,0,-1,1413,1702,5.96018,-6.36851
196,-678,5.01599,8.15771,0,0,0,0,0,0,0,-1,1420,1702,5.01596,-8.15767
203,-678,4.64771,13.0559,0,0,0,0,0,0,0,-1,1427,1702,4.64766,-13.0559
210,-678,5.6532,18.5957,0,0,0,0,0,0,0,-1,1434,1702,5.65318,-18.5958
217,-678,6.88049,23.4835,0,0,0,0,0,0,0,-1,1441,1702,6.88047,-23.4835
224,-678,8.521,32.0977,0,0,0,0,0,0,0,-1,1448,1702,8.52098,-32.0977
231,-678,9.96838,42.3734,0,0,0,0,0,0,0,-1,1455,1702,9.96844,-42.3734
238,-678,11.3928,62.3912,0,0,0,0,0,0,0,-1,1462,1702,11.3928,-62.3913
245,-678,11.4917,61.8361,0,0,0,0,0,0,0,-1,1469,1702,11.4917,-61.836
252,-678,11.46,61.3975,0.00677859,0.00052532,-0.000540502,0.00682496,0.000478946,-0.0855893,0.00439903,0.0202655,1476,1702,11.4599,-61.3975
259,-678,11.4801,60.9315,0.00565372,0.00119897,-0.000688468,0.00575769,0.001095,-0.149889,0.00353053,0.016523,1483,1702,11.4801,-60.9315
266,-678,11.5464,60.4132,0.00483211,0.00163294,-0.000938195,0.00508695,0.0013781,-0.265226,0.00303797,0.0131015,1490,1702,11.5463,-60.4133
273,-678,11.5623,59.9249,0.0043647,0.00204049,-0.00101279,0.0047441,0.00166109,-0.358427,0.00277971,0.011641,1497,1702,11.5622,-59.925
280,-678,11.5514,59.4242,0.00374842,0.00230913,-0.00103499,0.00428937,0.00176818,-0.48161,0.00248916,0.0123865,1504,1702,11.5514,-59.4242
287,-678,11.5648,58.87,0.00315936,0.002504,-0.00102204,0.00390497,0.0017584,-0.630269,0.00225824,0.0127321,1511,1702,11.5648,-58.87
294,-678,11.5559,58.3275,0.00268058,0.00253143,-0.00097591,0.00358476,0.00162725,-0.747266,0.00207259,0.013235,1518,1702,11.5559,-58.3275
301,-678,11.5499,57.8148,0.00220422,0.0025618,-0.00101273,0.0034114,0.00135462,-0.872769,0.00198343,0.0121722,1525,1702,11.5499,-57.8148
308,-678,11.5498,57.2781,0.00172664,0.00258188,-0.00113385,0.00336607,0.000942456,-0.965721,0.00200513,0.014206,1532,1702,11.5498,-57.278
315,-678,11.5341,56.7238,0.00128113,0.00278065,-0.00125529,0.00349305,0.000568733,-1.05461,0.00216417,0.0163306,1539,1702,11.5341,-56.7237
322,-678,11.5106,56.209,0.00091184,0.00299266,-0.00144912,0.00373617,0.000168324,-1.09674,0.00243661,0.0188627,1546,1702,11.5106,-56.209
329,-678,11.4894,55.6265,0.00060518,0.00327916,-0.00174936,0.00414395,-0.000259605,-1.11168,0.00285311,0.0159611,1553,1702,11.4894,-55.6265
336,-678,11.4423,55.011,0.000410176,0.00367278,-0.00202662,0.00464308,-0.000560124,-1.12427,0.00329799,0.01378,1560,1702,11.4423,-55.011
343,-678,11.4521,54.4058,0.000397581,0.00409865,-0.00244653,0.00531569,-0.000819452,-1.10919,0.00384615,0.0145686,1567,1702,11.4522,-54.4058
350,-678,11.4421,53.8116,0.000411986,0.00445044,-0.00296715,0.00602026,-0.00115783,-1.08417,0.00444994,0.0145186,1574,1702,11.4421,-53.8116
357,-678,11.3933,53.2053,0.000537614,0.00469589,-0.00355809,0.00673778,-0.00150427,-1.04981,0.00506824,0.0106972,1581,1702,11.3933,-53.2053
364,-678,11.3635,52.5894,0.000712653,0.00482395,-0.0040804,0.00733725,-0.00180065,-1.01873,0.00558925,0.0120073,1588,1702,11.3635,-52.5894
371,-678,11.2946,51.9805,0.00104993,0.00492554,-0.00471601,0.00808635,-0.00211088,-0.980332,0.00621518,0.0126118,1595,1702,11.2945,-51.9805
378,-678,11.2654,51.3507,0.00159018,0.00487716,-0.00538854,0.00886727,-0.00239993,-0.933416,0.00685302,0.0127907,1602,1702,11.2654,-51.3507
385,-678,11.234,50.7169,0.0022912,0.00474971,-0.00626153,0.0099015,-0.0028606,-0.882325,0.00773296,0.013405,1609,1702,11.2339,-50.7169
392,-678,11.2684,50.119,0.00301233,0.00454591,-0.00723348,0.0110531,-0.00349489,-0.838204,0.00876902,0.0229908,1616,1702,11.2684,-50.119
399,-678,11.3334,49.4896,0.00387144,0.00414364,-0.00819739,0.0122061,-0.00419098,-0.793699,0.00983661,0.0330725,1623,1702,11.3334,-49.4896
406,-678,11.2917,48.7799,0.00483185,0.00388802,-0.00916169,0.0135338,-0.0048139,-0.759666,0.0109846,0.0455033,1630,1702,11.2918,-48.7799
413,-678,11.1046,48.229,0,0,0,0,0,0,0,-1,1637,1702,11.1046,-48.2291
420,-678,11.2355,43.032,0,0,0,0,0,0,0,-1,1644,1702,11.2355,-43.032
427,-678,10.0541,38.9548,0,0,0,0,0,0,0,-1,1651,1702,10.0541,-38.9548
434,-678,10.1094,38.722,0,0,0,0,0,0,0,-1,1658,1702,10.1094,-38.7221
441,-678,11.6007,39.4658,0,0,0,0,0,0,0,-1,1665,1702,11.6007,-39.4658
448,-678,11.344,38.9084,0,0,0,0,0,0,0,-1,1672,1702,11.344,-38.9084
455,-678,5.44678,5.54297,0,0,0,0,0,0,0,-1,1679,1702,5.44676,-5.54294
462,-678,3.86792,2.87402,0,0,0,0,0,0,0,-1,1686,1702,3.86796,-2.87406
469,-678,2.26587,1.98755,0,0,0,0,0,0,0,-1,1693,1702,2.26592,-1.98755
476,-678,0,0,0,0,0,0,0,0,0,-1,1700,1702,0,0
483,-678,0,0,0,0,0,0,0,0,0,-1,1707,1702,0,0
490,-678,0,0,0,0,0,0,0,0,0,-1,1714,1702,0,0
497,-678,0,0,0,0,0,0,0,0,0,-1,1721,1702,0,0
504,-678,0,0,0,0,0,0,0,0,0,-1,1728,1702,0,0
511,-678,0,0,0,0,0,0,0,0,0,-1,1735,1702,0,0
518,-678,0,0,0,0,0,0,0,0,0,-1,1742,1702,0,0
525,-678,0,0,0,0,0,0,0,0,0,-1,1749,1702,0,0
532,-678,0,0,0,0,0,0,0,0,0,-1,1756,1702,0,0
539,-678,0,0,0,0,0,0,0,0,0,-1,1763,1702,0,0
546,-678,0,0,0,0,0,0,0,0,0,-1,1770,1702,0,0
553,-678,0,0,0,0,0,0,0,0,0,-1,1777,1702,0,0
560,-678,0,0,0,0,0,0,0,0,0,-1,1784,1702,0,0
567,-678,0,0,0,0,0,0,0,0,0,-1,1791,1702,0,0
574,-678,0,0,0,0,0,0,0,0,0,-1,1798,1702,0,0
581,-678,0,0,0,0,0,0,0,0,0,-1,1805,1702,0,0
588,-678,0,0,0,0,0,0,0,0,0,-1,1812,1702,0,0
595,-678,0,0,0,0,0,0,0,0,0,-1,1819,1702,0,0
602,-678,0,0,0,0,0,0,0,0,0,-1,1826,1702,0,0
609,-678,0,0,0,0,0,0,0,0,0,-1,1833,1702,0,0
616,-678,0,0,0,0,0,0,0,0,0,-1,1840,1702,0,0
623,-678,0,0,0,0,0,0,0,0,0,-1,1847,1702,0,0
630,-678,0,0,0,0,0,0,0,0,0,-1,1854,1702,0,0
637,-678,0,0,0,0,0,0,0,0,0,-1,1861,1702,0,0
644,-678,0,0,0,0,0,0,0,0,0,-1,1868,1702,0,0
651,-678,0,0,0,0,0,0,0,0,0,-1,1875,1702,0,0
658,-678,0,0,0,0,0,0,0,0,0,-1,1882,1702,0,0
665,-678,0,0,0,0,0,0,0,0,0,-1,1889,1702,0,0
672,-678,0,0,0,0,0,0,0,0,0,-1,1896,1702,0,0
679,-678,0,0,0,0,0,0,0,0,0,-1,1903,1702,0,0
686,-678,0,0,0,0,0,0,0,0,0,-1,1910,1702,0,0
693,-678,0,0,0,0,0,0,0,0,0,-1,1917,1702,0,0
700,-678,0,0,0,0,0,0,0,0,0,-1,1924,1702,0,0
707,-678,0,0,0,0,0,0,0,0,0,-1,1931,1702,0,0
714,-678,0,0,0,0,0,0,0,0,0,-1,1938,1702,0,0
721,-678,0,0,0,0,0,0,0,0,0,-1,1945,1702,0,0
728,-678,0,0,0,0,0,0,0,0,0,-1,1952,1702,0,0
735,-678,0,0,0,0,0,0,0,0,0,-1,1959,1702,0,0
742,-678,0,0,0,0,0,0,0,0,0,-1,1966,1702,0,0
749,-678,0,0,0,0,0,0,0,0,0,-1,1973,1702,0,0
756,-678,0,0,0,0,0,0,0,0,0,-1,1980,1702,0,0
763,-678,0,0,0,0,0,0,0,0,0,-1,1987,1702,0,0
770,-678,0,0,0,0,0,0,0,0,0,-1,1994,1702,0,0
777,-678,0,0,0,0,0,0,0,0,0,-1,2001,1702,0,0
784,-678,0,0,0,0,0,0,0,0,0,-1,2008,1702,0,0
791,-678,0,0,0,0,0,0,0,0,0,-1,2015,1702,0,0
798,-678,0,0,0,0,0,0,0,0,0,-1,2022,1702,0,0
805,-678,0,0,0,0,0,0,0,0,0,-1,2029,1702,0,0
812,-678,0,0,0,0,0,0,0,0,0,-1,2036,1702,0,0
-700,-685,0,0,0,0,0,0,0,0,0,-1,524,1709,0,0
-693,-685,0,0,0,0,0,0,0,0,0,-1,531,1709,0,0
-686,-685,0,0,0,0,0,0,0,0,0,-1,538,1709,0,0
-679,-685,0,0,0,0,0,0,0,0,0,-1,545,1709,0,0
-672,-685,0,0,0,0,0,0,0,0,0,-1,552,1709,0,0
-665,-685,0,0,0,0,0,0,0,0,0,-1,559,1709,0,0
-658,-685,0,0,0,0,0,0,0,0,0,-1,566,1709,0,0
-651,-685,0,0,0,0,0,0,0,0,0,-1,573,1709,0,0
-644,-685,0,0,0,0,0,0,0,0,0,-1,580,1709,0,0
-637,-685,0,0,0,0,0,0,0,0,0,-1,587,1709,0,0
-630,-685,0,0,0,0,0,0,0,0,0,-1,594,1709,0,0
-623,-685,0,0,0,0,0,0,0,0,0,-1,601,1709,0,0
-616,-685,0,0,0,0,0,0,0,0,0,-1,608,1709,0,0
-609,-685,0,0,0,0,0,0,0,0,0,-1,615,1709,0,0
-602,-685,0,0,0,0,0,0,0,0,0,-1,622,1709,0,0
-595,-685,0,0,0,0,0,0,0,0,0,-1,629,1709,0,0
-588,-685,0,0,0,0,0,0,0,0,0,-1,636,1709,0,0
-581,-685,0,0,0,0,0,0,0,0,0,-1,643,1709,0,0
-574,-685,0,0,0,0,0,0,0,0,0,-1,650,1709,0,0
-567,-685,0,0,0,0,0,0,0,0,0,-1,657,1709,0,0
-560,-685,0,0,0,0,0,0,0,0,0,-1,664,1709,0,0
-553,-685,0,0,0,0,0,0,0,0,0,-1,671,1709,0,0
-546,-685,0,0,0,0,0,0,0,0,0,-1,678,1709,0,0
-539,-685,0,0,0,0,0,0,0,0,0,-1,685,1709,0,0
-532,-685,0,0,0,0,0,0,0,0,0,-1,692,1709,0,0
-525,-685,0,0,0,0,0,0,0,0,0,-1,699,1709,0,0
-518,-685,0,0,0,0,0,0,0,0,0,-1,706,1709,0,0
-511,-685,0,0,0,0,0,0,0,0,0,-1,713,1709,0,0
-504,-685,0,0,0,0,0,0,0,0,0,-1,720,1709,0,0
-497,-685,0,0,0,0,0,0,0,0,0,-1,727,1709,0,0
-490,-685,0,0,0,0,0,0,0,0,0,-1,734,1709,0,0
-483,-685,0,0,0,0,0,0,0,0,0,-1,741,1709,0,0
-476,-685,0,0,0,0,0,0,0,0,0,-1,748,1709,0,0
-469,-685,0,0,0,0,0,0,0,0,0,-1,755,1709,0,0
-462,-685,0,0,0,0,0,0,0,0,0,-1,762,1709,0,0
-455,-685,0,0,0,0,0,0,0,0,0,-1,769,1709,0,0
-448,-685,0,0,0,0,0,0,0,0,0,-1,776,1709,0,0
-441,-685,0,0,0,0,0,0,0,0,0,-1,783,1709,0,0
-434,-685,0,0,0,0,0,0,0,0,0,-1,790,1709,0,0
-427,-685,0,0,0,0,0,0,0,0,0,-1,797,1709,0,0
-420,-685,0,0,0,0,0,0,0,0,0,-1,804,1709,0,0
-413,-685,0,0,0,0,0,0,0,0,0,-1,811,1709,0,0
-406,-685,0,0,0,0,0,0,0,0,0,-1,818,1709,0,0
-399,-685,0,0,0,0,0,0,0,0,0,-1,825,1709,0,0
-392,-685,0,0,0,0,0,0,0,0,0,-1,832,1709,0,0
-385,-685,0,0,0,0,0,0,0,0,0,-1,839,1709,0,0
-378,-685,0,0,0,0,0,0,0,0,0,-1,846,1709,0,0
-371,-685,0,0,0,0,0,0,0,0,0,-1,853,1709,0,0
-364,-685,0,0,0,0,0,0,0,0,0,-1,860,1709,0,0
-357,-685,0,0,0,0,0,0,0,0,0,-1,867,1709,0,0
-350,-685,0,0,0,0,0,0,0,0,0,-1,874,1709,0,0
-343,-685,-5.98505,6.56335,0,0,0,0,0,0,0,-1,881,1709,-5.98505,-6.56329
-336,-685,-6.51312,5.10571,0,0,0,0,0,0,0,-1,888,1709,-6.51311,-5.10575
-329,-685,9.98907,36.2474,0,0,0,0,0,0,0,-1,895,1709,9.98909,-36.2475
-322,-685,3.83191,16.7219,0,0,0,0,0,0,0,-1,902,1709,3.8319,-16.7219
-315,-685,5.15784,21.4388,0,0,0,0,0,0,0,-1,909,1709,5.15783,-21.4389
-308,-685,6.98718,46.6025,0,0,0,0,0,0,0,-1,916,1709,6.98718,-46.6026
-301,-685,7.08698,47.9332,0,0,0,0,0,0,0,-1,923,1709,7.08697,-47.9332
-294,-685,7.24225,49.2125,0,0,0,0,0,0,0,-1,930,1709,7.24223,-49.2126
-287,-685,7.26007,49.184,0,0,0,0,0,0,0,-1,937,1709,7.26005,-49.1839
-280,-685,6.87903,49.0376,0,0,0,0,0,0,0,-1,944,1709,6.87902,-49.0376
-273,-685,6.77856,49.7488,0,0,0,0,0,0,0,-1,951,1709,6.77853,-49.7487
-266,-685,6.79315,50.3607,0.0057394,-0.0170409,0.0149455,0.0131403,-0.0244418,0.459794,0.0220226,0.047286,958,1709,6.79318,-50.3608
-259,-685,6.89508,50.946,0.00463245,-0.0113423,0.012174,0.0112055,-0.0179153,0.495073,0.016961,0.0432375,965,1709,6.8951,-50.946
-252,-685,7.01453,51.6567,0.00430941,-0.00522807,0.0093429,0.0100302,-0.0109489,0.549426,0.0121162,0.0403232,972,1709,7.01452,-51.6567
-245,-685,7.02881,52.2437,0.00379287,-0.00178022,0.00739365,0.00890765,-0.00689499,0.605188,0.00914829,0.0380901,979,1709,7.02881,-52.2437
-238,-685,6.97711,52.8748,0.00321397,0.00150259,0.0063304,0.00874624,-0.00402969,0.718219,0.00754188,0.0289752,986,1709,6.9771,-52.8747
-231,-685,6.88293,53.5337,0.00278818,0.00314801,0.00574857,0.00871948,-0.00278329,0.801042,0.00692964,0.0187255,993,1709,6.88292,-53.5336
-224,-685,6.81665,54.1062,0.00252787,0.0038262,0.00497459,0.0081938,-0.00183973,0.85028,0.00616792,0.0172049,1000,1709,6.81668,-54.1062
-217,-685,6.78076,54.7365,0.00187797,0.00397403,0.00398455,0.00704607,-0.00119407,0.913997,0.00514183,0.0128977,1007,1709,6.78074,-54.7364
-210,-685,6.75262,55.4012,0.00113465,0.00409607,0.00334212,0.0062708,-0.00104009,0.993926,0.00456688,0.0177938,1014,1709,6.75264,-55.4013
-203,-685,6.72949,55.9657,0.000718831,0.00396361,0.00280134,0.00557846,-0.000896012,1.04787,0.00405081,0.0183332,1021,1709,6.72952,-55.9657
-196,-685,6.68628,56.5214,0.000510883,0.00369767,0.00235906,0.00495104,-0.000742492,1.08242,0.00357399,0.0144422,1028,1709,6.68624,-56.5214
-189,-685,6.65967,57.0708,0.000468353,0.00335477,0.00198275,0.00436394,-0.000540817,1.1,0.0031053,0.00934706,1035,1709,6.65966,-57.0708
-182,-685,6.62659,57.666,0.000453854,0.00278763,0.00146767,0.00349576,-0.000254277,1.12126,0.00241972,0.0135241,1042,1709,6.62664,-57.666
-175,-685,6.59619,58.2366,0.000717697,0.00267339,0.00124439,0.00327816,0.000112925,1.11841,0.00214879,0.0142135,1049,1709,6.59624,-58.2365
-168,-685,6.57471,58.74,0.00104446,0.00250783,0.00106074,0.00306477,0.000487527,1.08732,0.00190162,0.0107844,1056,1709,6.57465,-58.74
-161,-685,6.5741,59.2418,0.00130723,0.00241081,0.000896872,0.00291204,0.000805998,1.06117,0.00173622,0.0122096,1063,1709,6.57405,-59.2418
-154,-685,6.57043,59.7749,0.0017917,0.00245246,0.000788778,0.00297726,0.00126691,0.983724,0.00172526,0.0116048,1070,1709,6.5704,-59.7749
-147,-685,6.53857,60.2761,0.00240136,0.00255199,0.000673888,0.00315476,0.00179859,0.841047,0.00182736,0.0107238,1077,1709,6.53855,-60.2762
-140,-685,6.55896,60.7247,0.00298233,0.00264461,0.000497739,0.00333907,0.00228787,0.621866,0.00197139,0.0128538,1084,1709,6.55893,-60.7247
-133,-685,6.58826,61.2128,0.00353941,0.00285342,0.000369775,0.00370078,0.00269206,0.411478,0.00220909,0.0126118,1091,1709,6.5883,-61.2128
-126,-685,6.59094,61.7087,0.00405189,0.00316064,0.000204156,0.00409643,0.0031161,0.214797,0.0024699,0.0109837,1098,1709,6.59097,-61.7087
-119,-685,6.59924,62.1604,0.00462964,0.00343896,0.0001039,0.00463863,0.00342996,0.0863908,0.00277859,0.0149296,1105,1709,6.59921,-62.1604
-112,-685,6.61194,62.5884,0.00513611,0.00339852,-5.30198e-05,0.00513773,0.0033969,-0.0304755,0.0030172,0.0155789,1112,1709,6.61192,-62.5883
-105,-685,6.6073,63.0129,0.00543899,0.00311132,-0.000245941,0.00546469,0.00308561,-0.104128,0.00316382,0.0179061,1119,1709,6.6073,-63.013
-98,-685,6.71021,63.368,0.00565583,0.00269576,-0.000533859,0.00574917,0.00260242,-0.173091,0.00332424,0.0255924,1126,1709,6.71023,-63.368
-91,-685,6.71899,63.6337,0.00603887,0.00215548,-0.0010568,0.00630783,0.00188651,-0.249215,0.00373856,0.0483274,1133,1709,6.71897,-63.6337
-84,-685,6.73169,64.0836,0,0,0,0,0,0,0,-1,1140,1709,6.73171,-64.0836
-77,-685,6.76819,64.5883,0,0,0,0,0,0,0,-1,1147,1709,6.76816,-64.5882
-70,-685,6.93103,65.2582,0,0,0,0,0,0,0,-1,1154,1709,6.93098,-65.2582
-63,-685,6.03015,29.7728,0,0,0,0,0,0,0,-1,1161,1709,6.0302,-29.7728
-56,-685,3.93909,15.8704,0,0,0,0,0,0,0,-1,1168,1709,3.93905,-15.8704
-49,-685,3.07471,9.86011,0,0,0,0,0,0,0,-1,1175,1709,3.07467,-9.86009
-42,-685,2.70618,7.54504,0,0,0,0,0,0,0,-1,1182,1709,2.7062,-7.54504
-35,-685,2.95264,7.91516,0,0,0,0,0,0,0,-1,1189,1709,2.95262,-7.91517
-28,-685,8.11353,52.4509,0,0,0,0,0,0,0,-1,1196,1709,8.1135,-52.451
-21,-685,7.67444,66.3435,0,0,0,0,0,0,0,-1,1203,1709,7.67441,-66.3436
-14,-685,7.68555,66.5858,0.0281296,-0.0214123,-0.0090197,0.0297206,-0.0230033,-0.174601,0.0305224,0.0321148,1210,1709,7.68553,-66.5858
-7,-685,7.70874,66.8207,0.0287097,-0.0183807,-0.00919576,0.0304417,-0.0201127,-0.18617,0.02939,0.0460906,1217,1709,7.7087,-66.8207
0,-685,7.65454,67.0798,0,0,0,0,0,0,0,-1,1224,1709,7.6545,-67.0798
7,-685,7.80676,67.1256,0,0,0,0,0,0,0,-1,1231,1709,7.80673,-67.1256
14,-685,8.0127,67.7401,0,0,0,0,0,0,0,-1,1238,1709,8.01275,-67.7402
21,-685,8.41504,67.8152,0,0,0,0,0,0,0,-1,1245,1709,8.415,-67.8152
28,-685,8.40479,67.6552,0,0,0,0,0,0,0,-1,1252,1709,8.40475,-67.6552
35,-685,8.39697,67.7347,0,0,0,0,0,0,0,-1,1259,1709,8.39693,-67.7347
42,-685,8.58459,67.8728,0,0,0,0,0,0,0,-1,1266,1709,8.58461,-67.8728
49,-685,8.74585,67.8469,0,0,0,0,0,0,0,-1,1273,1709,8.74582,-67.847
56,-685,8.50098,63.9211,0,0,0,0,0,0,0,-1,1280,1709,8.50092,-63.9212
63,-685,9.48206,68.7321,0,0,0,0,0,0,0,-1,1287,1709,9.4821,-68.732
70,-685,9.06604,68.2952,0,0,0,0,0,0,0,-1,1294,1709,9.06602,-68.2951
77,-685,8.61243,65.4349,0,0,0,0,0,0,0,-1,1301,1709,8.61237,-65.435
84,-685,7.52271,63.9279,0,0,0,0,0,0,0,-1,1308,1709,7.52265,-63.9279
91,-685,9.27356,66.7228,0,0,0,0,0,0,0,-1,1315,1709,9.27362,-66.7228
98,-685,9.00464,66.6479,0,0,0,0,0,0,0,-1,1322,1709,9.00469,-66.648
105,-685,10.4012,66.3586,0,0,0,0,0,0,0,-1,1329,1709,10.4013,-66.3586
112,-685,10.1744,66.7903,0.0209861,0.0339416,0.0366409,0.0646729,-0.00974522,0.872889,0.0467038,0.0468115,1336,1709,10.1744,-66.7903
119,-685,9.83484,66.9739,0.0182573,0.0340324,0.0359151,0.0629159,-0.0106262,0.89349,0.0458978,0.045705,1343,1709,9.83486,-66.9739
126,-685,9.9751,66.677,0,0,0,0,0,0,0,-1,1350,1709,9.97506,-66.677
133,-685,10.1796,66.5979,0,0,0,0,0,0,0,-1,1357,1709,10.1795,-66.5979
140,-685,10.015,66.6033,0,0,0,0,0,0,0,-1,1364,1709,10.015,-66.6032
147,-685,8.97046,64.183,0,0,0,0,0,0,0,-1,1371,1709,8.9704,-64.183
154,-685,10.0796,56.0078,0,0,0,0,0,0,0,-1,1378,1709,10.0796,-56.0079
161,-685,10.4932,55.8827,0,0,0,0,0,0,0,-1,1385,1709,10.4932,-55.8827
168,-685,4.37524,10.8778,0,0,0,0,0,0,0,-1,1392,1709,4.37525,-10.8778
175,-685,3.97522,8.94324,0,0,0,0,0,0,0,-1,1399,1709,3.97519,-8.94328
182,-685,3.98218,9.19739,0,0,0,0,0,0,0,-1,1406,1709,3.98221,-9.1974
189,-685,4.53479,15.2343,0,0,0,0,0,0,0,-1,1413,1709,4.53474,-15.2343
196,-685,10.5027,65,0,0,0,0,0,0,0,-1,1420,1709,10.5027,-65
203,-685,10.5804,64.3826,0,0,0,0,0,0,0,-1,1427,1709,10.5804,-64.3826
210,-685,11.0067,63.8862,0,0,0,0,0,0,0,-1,1434,1709,11.0067,-63.8862
217,-685,10.944,63.3926,0,0,0,0,0,0,0,-1,1441,1709,10.944,-63.3926
224,-685,10.8708,63.0657,0,0,0,0,0,0,0,-1,1448,1709,10.8709,-63.0657
231,-685,10.9089,62.8604,0,0,0,0,0,0,0,-1,1455,1709,10.9089,-62.8604
238,-685,10.9569,62.2632,0.00635504,-0.000740153,-0.000318616,0.00636931,-0.000754432,-0.0447857,0.00451873,0.0375057,1462,1709,10.9569,-62.2631
245,-685,10.9736,61.7716,0.00584565,-0.000584669,-0.000567871,0.00589542,-0.000634434,-0.0874099,0.00415792,0.0224303,1469,1709,10.9736,-61.7717
252,-685,11.0005,61.3684,0.0050956,0.000362376,-0.00056763,0.00516273,0.000295255,-0.117701,0.00334774,0.0152628,1476,1709,11.0005,-61.3684
259,-685,11.0208,60.9249,0.00421407,0.000807411,-0.000751161,0.00437234,0.000649135,-0.207671,0.00272442,0.0113579,1483,1709,11.0207,-60.925
266,-685,11.0541,60.444,0.00353284,0.00109147,-0.001009,0.00389587,0.000728443,-0.345372,0.0023917,0.0129435,1490,1709,11.0541,-60.444
273,-685,11.0555,59.9368,0.00309262,0.00138667,-0.00111463,0.0036432,0.000836085,-0.458803,0.00220363,0.0153186,1497,1709,11.0555,-59.9367
280,-685,11.0347,59.4211,0.00254473,0.0016007,-0.00116747,0.00333199,0.000813439,-0.593291,0.00200593,0.0170533,1504,1709,11.0347,-59.4211
287,-685,11.0281,58.9169,0.0020368,0.00174727,-0.00117623,0.00307714,0.000706936,-0.724169,0.00186109,0.0134,1511,1709,11.0281,-58.9168
294,-685,11.0269,58.3912,0.00163029,0.0018261,-0.00118346,0.0029157,0.000540696,-0.826669,0.00179098,0.0118682,1518,1709,11.0269,-58.3912
301,-685,11.0195,57.8488,0.00120112,0.00190986,-0.00128411,0.0028876,0.000223379,-0.920032,0.0018551,0.0132876,1525,1709,11.0195,-57.8487
308,-685,11.0194,57.301,0.000756299,0.00209978,-0.00148848,0.00306108,-0.000204998,-0.997362,0.00211237,0.0149282,1532,1709,11.0194,-57.301
315,-685,11.0101,56.755,0.000344004,0.00259535,-0.00167373,0.00348673,-0.000547381,-1.08143,0.00252679,0.0143311,1539,1709,11.0101,-56.755
322,-685,10.9764,56.1958,4.16694e-05,0.00304207,-0.00194292,0.00399656,-0.000912825,-1.11416,0.00301507,0.0227565,1546,1709,10.9765,-56.1958
329,-685,10.9335,55.6313,-0.000224911,0.00362386,-0.00232418,0.00471694,-0.00131799,-1.13118,0.00366385,0.0205891,1553,1709,10.9335,-55.6314
336,-685,10.8926,55.0223,-0.000372786,0.00434443,-0.0027146,0.00558195,-0.0016103,-1.14307,0.00435838,0.0142665,1560,1709,10.8926,-55.0223
343,-685,10.8693,54.427,-0.000273179,0.00512239,-0.00327927,0.00667098,-0.00182177,-1.12961,0.00516285,0.0125062,1567,1709,10.8692,-54.4271
350,-685,10.8234,53.8318,-0.000151574,0.00585581,-0.00392187,0.00779208,-0.00208784,-1.11219,0.00601274,0.0125508,1574,1709,10.8233,-53.8317
357,-685,10.7916,53.2482,9.64578e-05,0.0065343,-0.00465016,0.00897095,-0.00234019,-1.08814,0.00689438,0.0108469,1581,1709,10.7917,-53.2481
364,-685,10.7552,52.65,0.000412326,0.00700401,-0.00533237,0.00997688,-0.00256054,-1.0622,0.00764899,0.0116526,1588,1709,10.7552,-52.65
371,-685,10.7479,52.0038,0.000959207,0.00738863,-0.00615814,0.0111207,-0.00277281,-1.02595,0.00849033,0.0188415,1595,1709,10.748,-52.0038
378,-685,10.7585,51.3267,0.00178091,0.00752388,-0.00704315,0.0122584,-0.00295361,-0.978961,0.00931425,0.0217515,1602,1709,10.7585,-51.3266
385,-685,10.6984,50.6541,0.00279615,0.00752987,-0.00817533,0.0136741,-0.00334804,-0.926302,0.010413,0.0334692,1609,1709,10.6983,-50.654
392,-685,10.9281,50.0472,0.00388653,0.0074026,-0.00946081,0.0152673,-0.0039782,-0.877262,0.0117313,0.0403518,1616,1709,10.9281,-50.0472
399,-685,10.9252,49.551,0,0,0,0,0,0,0,-1,1623,1709,10.9251,-49.5511
406,-685,10.7931,48.8821,0,0,0,0,0,0,0,-1,1630,1709,10.793,-48.8821
413,-685,10.9447,43.5477,0,0,0,0,0,0,0,-1,1637,1709,10.9447,-43.5477
420,-685,10.3047,40.3569,0,0,0,0,0,0,0,-1,1644,1709,10.3047,-40.3569
427,-685,10.7286,38.6702,0,0,0,0,0,0,0,-1,1651,1709,10.7286,-38.6702
434,-685,4.87769,8.91418,0,0,0,0,0,0,0,-1,1658,1709,4.87768,-8.91413
441,-685,5.62,8.75549,0,0,0,0,0,0,0,-1,1665,1709,5.61996,-8.75545
448,-685,6.4043,8.58972,0,0,0,0,0,0,0,-1,1672,1709,6.40435,-8.58971
455,-685,2.31958,4.09802,0,0,0,0,0,0,0,-1,1679,1709,2.31957,-4.09803
462,-685,0,0,0,0,0,0,0,0,0,-1,1686,1709,0,0
469,-685,0,0,0,0,0,0,0,0,0,-1,1693,1709,0,0
476,-685,0,0,0,0,0,0,0,0,0,-1,1700,1709,0,0
483,-685,0,0,0,0,0,0,0,0,0,-1,1707,1709,0,0
490,-685,0,0,0,0,0,0,0,0,0,-1,1714,1709,0,0
497,-685,0,0,0,0,0,0,0,0,0,-1,1721,1709,0,0
504,-685,0,0,0,0,0,0,0,0,0,-1,1728,1709,0,0
511,-685,0,0,0,0,0,0,0,0,0,-1,1735,1709,0,0
518,-685,0,0,0,0,0,0,0,0,0,-1,1742,1709,0,0
525,-685,0,0,0,0,0,0,0,0,0,-1,1749,1709,0,0
532,-685,0,0,0,0,0,0,0,0,0,-1,1756,1709,0,0
539,-685,0,0,0,0,0,0,0,0,0,-1,1763,1709,0,0
546,-685,0,0,0,0,0,0,0,0,0,-1,1770,1709,0,0
553,-685,0,0,0,0,0,0,0,0,0,-1,1777,1709,0,0
560,-685,0,0,0,0,0,0,0,0,0,-1,1784,1709,0,0
567,-685,0,0,0,0,0,0,0,0,0,-1,1791,1709,0,0
574,-685,0,0,0,0,0,0,0,0,0,-1,1798,1709,0,0
581,-685,0,0,0,0,0,0,0,0,0,-1,1805,1709,0,0
588,-685,0,0,0,0,0,0,0,0,0,-1,1812,1709,0,0
595,-685,0,0,0,0,0,0,0,0,0,-1,1819,1709,0,0
602,-685,0,0,0,0,0,0,0,0,0,-1,1826,1709,0,0
609,-685,0,0,0,0,0,0,0,0,0,-1,1833,1709,0,0
616,-685,0,0,0,0,0,0,0,0,0,-1,1840,1709,0,0
623,-685,0,0,0,0,0,0,0,0,0,-1,1847,1709,0,0
630,-685,0,0,0,0,0,0,0,0,0,-1,1854,1709,0,0
637,-685,0,0,0,0,0,0,0,0,0,-1,1861,1709,0,0
644,-685,0,0,0,0,0,0,0,0,0,-1,1868,1709,0,0
651,-685,0,0,0,0,0,0,0,0,0,-1,1875,1709,0,0
658,-685,0,0,0,0,0,0,0,0,0,-1,1882,1709,0,0
665,-685,0,0,0,0,0,0,0,0,0,-1,1889,1709,0,0
672,-685,0,0,0,0,0,0,0,0,0,-1,1896,1709,0,0
679,-685,0,0,0,0,0,0,0,0,0,-1,1903,1709,0,0
686,-685,0,0,0,0,0,0,0,0,0,-1,1910,1709,0,0
693,-685,0,0,0,0,0,0,0,0,0,-1,1917,1709,0,0
700,-685,0,0,0,0,0,0,0,0,0,-1,1924,1709,0,0
707,-685,0,0,0,0,0,0,0,0,0,-1,1931,1709,0,0
714,-685,0,0,0,0,0,0,0,0,0,-1,1938,1709,0,0
721,-685,0,0,0,0,0,0,0,0,0,-1,1945,1709,0,0
728,-685,0,0,0,0,0,0,0,0,0,-1,1952,1709,0,0
735,-685,0,0,0,0,0,0,0,0,0,-1,1959,1709,0,0
742,-685,0,0,0,0,0,0,0,0,0,-1,1966,1709,0,0
749,-685,0,0,0,0,0,0,0,0,0,-1,1973,1709,0,0
756,-685,0,0,0,0,0,0,0,0,0,-1,1980,1709,0,0
763,-685,0,0,0,0,0,0,0,0,0,-1,1987,1709,0,0
770,-685,0,0,0,0,0,0,0,0,0,-1,1994,1709,0,0
777,-685,0,0,0,0,0,0,0,0,0,-1,2001,1709,0,0
784,-685,0,0,0,0,0,0,0,0,0,-1,2008,1709,0,0
791,-685,0,0,0,0,0,0,0,0,0,-1,2015,1709,0,0
798,-685,0,0,0,0,0,0,0,0,0,-1,2022,1709,0,0
805,-685,0,0,0,0,0,0,0,0,0,-1,2029,1709,0,0
812,-685,0,0,0,0,0,0,0,0,0,-1,2036,1709,0,0
-700,-692,0,0,0,0,0,0,0,0,0,-1,524,1716,0,0
-693,-692,0,0,0,0,0,0,0,0,0,-1,531,1716,0,0
-686,-692,0,0,0,0,0,0,0,0,0,-1,538,1716,0,0
-679,-692,0,0,0,0,0,0,0,0,0,-1,545,1716,0,0
-672,-692,0,0,0,0,0,0,0,0,0,-1,552,1716,0,0
-665,-692,0,0,0,0,0,0,0,0,0,-1,559,1716,0,0
-658,-692,0,0,0,0,0,0,0,0,0,-1,566,1716,0,0
-651,-692,0,0,0,0,0,0,0,0,0,-1,573,1716,0,0
-644,-692,0,0,0,0,0,0,0,0,0,-1,580,1716,0,0
-637,-692,0,0,0,0,0,0,0,0,0,-1,587,1716,0,0
-630,-692,0,0,0,0,0,0,0,0,0,-1,594,1716,0,0
-623,-692,0,0,0,0,0,0,0,0,0,-1,601,1716,0,0
-616,-692,0,0,0,0,0,0,0,0,0,-1,608,1716,0,0
-609,-692,0,0,0,0,0,0,0,0,0,-1,615,1716,0,0
-602,-692,0,0,0,0,0,0,0,0,0,-1,622,1716,0,0
-595,-692,0,0,0,0,0,0,0,0,0,-1,629,1716,0,0
-588,-692,0,0,0,0,0,0,0,0,0,-1,636,1716,0,0
-581,-692,0,0,0,0,0,0,0,0,0,-1,643,1716,0,0
-574,-692,0,0,0,0,0,0,0,0,0,-1,650,1716,0,0
-567,-692,0,0,0,0,0,0,0,0,0,-1,657,1716,0,0
-560,-692,0,0,0,0,0,0,0,0,0,-1,664,1716,0,0
-553,-692,0,0,0,0,0,0,0,0,0,-1,671,1716,0,0
-546,-692,0,0,0,0,0,0,0,0,0,-1,678,1716,0,0
-539,-692,0,0,0,0,0,0,0,0,0,-1,685,1716,0,0
-532,-692,0,0,0,0,0,0,0,0,0,-1,692,1716,0,0
-525,-692,0,0,0,0,0,0,0,0,0,-1,699,1716,0,0
-518,-692,0,0,0,0,0,0,0,0,0,-1,706,1716,0,0
-511,-692,0,0,0,0,0,0,0,0,0,-1,713,1716,0,0
-504,-692,0,0,0,0,0,0,0,0,0,-1,720,1716,0,0
-497,-692,0,0,0,0,0,0,0,0,0,-1,727,1716,0,0
-490,-692,0,0,0,0,0,0,0,0,0,-1,734,1716,0,0
-483,-692,0,0,0,0,0,0,0,0,0,-1,741,1716,0,0
-476,-692,0,0,0,0,0,0,0,0,0,-1,748,1716,0,0
-469,-692,0,0,0,0,0,0,0,0,0,-1,755,1716,0,0
-462,-692,0,0,0,0,0,0,0,0,0,-1,762,1716,0,0
-455,-692,0,0,0,0,0,0,0,0,0,-1,769,1716,0,0
-448,-692,0,0,0,0,0,0,0,0,0,-1,776,1716,0,0
-441,-692,0,0,0,0,0,0,0,0,0,-1,783,1716,0,0
-434,-692,0,0,0,0,0,0,0,0,0,-1,790,1716,0,0
-427,-692,0,0,0,0,0,0,0,0,0,-1,797,1716,0,0
-420,-692,0,0,0,0,0,0,0,0,0,-1,804,1716,0,0
-413,-692,0,0,0,0,0,0,0,0,0,-1,811,1716,0,0
-406,-692,0,0,0,0,0,0,0,0,0,-1,818,1716,0,0
-399,-692,0,0,0,0,0,0,0,0,0,-1,825,1716,0,0
-392,-692,0,0,0,0,0,0,0,0,0,-1,832,1716,0,0
-385,-692,0,0,0,0,0,0,0,0,0,-1,839,1716,0,0
-378,-692,0,0,0,0,0,0,0,0,0,-1,846,1716,0,0
-371,-692,0,0,0,0,0,0,0,0,0,-1,853,1716,0,0
-364,-692,0,0,0,0,0,0,0,0,0,-1,860,1716,0,0
-357,-692,0,0,0,0,0,0,0,0,0,-1,867,1716,0,0
-350,-692,0,0,0,0,0,0,0,0,0,-1,874,1716,0,0
-343,-692,0,0,0,0,0,0,0,0,0,-1,881,1716,0,0
-336,-692,0,0,0,0,0,0,0,0,0,-1,888,1716,0,0
-329,-692,3.03107,4.10266,0,0,0,0,0,0,0,-1,895,1716,3.03105,-4.10267
-322,-692,4.43713,18.5242,0,0,0,0,0,0,0,-1,902,1716,4.43711,-18.5241
-315,-692,5.38965,17.975,0,0,0,0,0,0,0,-1,909,1716,5.38963,-17.975
-308,-692,5.86938,17.4392,0,0,0,0,0,0,0,-1,916,1716,5.86937,-17.4392
-301,-692,12.015,41.2892,0,0,0,0,0,0,0,-1,923,1716,12.015,-41.2892
-294,-692,8.41125,35.4742,0,0,0,0,0,0,0,-1,930,1716,8.41125,-35.4742
-287,-692,8.92493,45.6644,0,0,0,0,0,0,0,-1,937,1716,8.92492,-45.6644
-280,-692,7.70099,48.0779,0,0,0,0,0,0,0,-1,944,1716,7.70101,-48.0779
-273,-692,9.55292,48.0288,0,0,0,0,0,0,0,-1,951,1716,9.55291,-48.0288
-266,-692,7.34961,50.4009,0,0,0,0,0,0,0,-1,958,1716,7.34959,-50.4009
-259,-692,7.45966,51.056,0,0,0,0,0,0,0,-1,965,1716,7.45965,-51.0561
-252,-692,7.62683,51.7799,0,0,0,0,0,0,0,-1,972,1716,7.62682,-51.7799
-245,-692,7.77856,52.1882,0,0,0,0,0,0,0,-1,979,1716,7.77858,-52.1882
-238,-692,7.39935,52.3962,0.00474049,0.00292394,0.00804784,0.0119311,-0.00426671,0.729206,0.00969453,0.0456579,986,1716,7.39933,-52.3963
-231,-692,7.52679,53.5966,0.00397053,0.00480978,0.00729603,0.0116982,-0.00291793,0.814124,0.00893179,0.0409472,993,1716,7.5268,-53.5965
-224,-692,7.37231,54.1731,0.00341368,0.00563652,0.00632184,0.0109439,-0.00189369,0.872412,0.0080022,0.0213648,1000,1716,7.37233,-54.173
-217,-692,7.34668,54.7643,0.00238987,0.00580511,0.00512207,0.00949671,-0.00130173,0.946297,0.00680667,0.0146509,1007,1716,7.34668,-54.7643
-210,-692,7.31738,55.387,0.00126469,0.0059654,0.00435399,0.00856291,-0.00133282,1.03289,0.00620081,0.015524,1014,1716,7.31736,-55.387
-203,-692,7.30579,55.9647,0.000531165,0.00584647,0.00369797,0.00774273,-0.0013651,1.09697,0.00567188,0.0179809,1021,1716,7.30584,-55.9647
-196,-692,7.25586,56.5339,4.76409e-05,0.00553403,0.00315507,0.00697169,-0.00139002,1.14324,0.00517376,0.0186857,1028,1716,7.25584,-56.5339
-189,-692,7.19055,57.0734,-0.000202743,0.00507335,0.00271654,0.00622198,-0.00135136,1.17077,0.00466416,0.00928843,1035,1716,7.19059,-57.0734
-182,-692,7.14453,57.6776,-0.000411416,0.00422418,0.00210224,0.00503553,-0.00122277,1.20246,0.00383023,0.0139343,1042,1716,7.1445,-57.6776
-175,-692,7.09326,58.2714,-0.00030588,0.00387038,0.00181176,0.0045468,-0.000982307,1.21347,0.00340618,0.0157422,1049,1716,7.09331,-58.2713
-168,-692,7.10107,58.7665,-8.90881e-05,0.00342247,0.00159717,0.00404024,-0.000706856,1.20173,0.00295741,0.0121873,1056,1716,7.10111,-58.7665
-161,-692,7.11279,59.2749,3.81342e-05,0.00299755,0.00139221,0.00354954,-0.00051385,1.19333,0.00255492,0.0143647,1063,1716,7.11274,-59.2749
-154,-692,7.09314,59.8185,0.000444377,0.00269223,0.00125468,0.00325277,-0.000116167,1.15064,0.00220825,0.0155303,1070,1716,7.09308,-59.8185
-147,-692,7.05786,60.309,0.00101881,0.00241856,0.00109573,0.00301886,0.000418515,1.0696,0.00188859,0.0157748,1077,1716,7.05789,-60.3089
-140,-692,7.03101,60.7694,0.00155994,0.00217219,0.000881111,0.00279884,0.000933292,0.952591,0.00164552,0.0121698,1084,1716,7.03104,-60.7694
-133,-692,7.03503,61.231,0.00209731,0.00199695,0.000710624,0.00275952,0.00133474,0.750149,0.00159349,0.010814,1091,1716,7.03504,-61.2309
-126,-692,7.04395,61.7061,0.00260904,0.00200001,0.000524528,0.00291104,0.00169801,0.5224,0.00168845,0.00854367,1098,1716,7.04396,-61.706
-119,-692,7.02856,62.1506,0.00314438,0.0021312,0.000395132,0.00328025,0.00199532,0.331208,0.0019086,0.0122568,1105,1716,7.02857,-62.1506
-112,-692,7.04773,62.5815,0.00362817,0.00212477,0.000246805,0.00366765,0.00208529,0.15862,0.00212414,0.0121038,1112,1716,7.04775,-62.5816
-105,-692,7.08301,63.0179,0.00394128,0.00192859,3.13981e-05,0.00394177,0.0019281,0.015595,0.00227596,0.0179493,1119,1716,7.08301,-63.0179
-98,-692,7.13391,63.4025,0.00418815,0.00162368,-0.000240291,0.00421047,0.00160136,-0.0926257,0.00245402,0.0217289,1126,1716,7.13396,-63.4024
-91,-692,7.11816,63.7827,0.00457038,0.00126945,-0.000637143,0.00468909,0.00115074,-0.184207,0.00282181,0.022264,1133,1716,7.11811,-63.7827
-84,-692,7.20691,64.1443,0.00525235,0.000884556,-0.00101557,0.00547693,0.000659968,-0.217641,0.00345239,0.0243598,1140,1716,7.20687,-64.1443
-77,-692,7.16821,64.5803,0.00593846,7.7744e-05,-0.00139405,0.00625315,-0.00023695,-0.22202,0.00424995,0.0199606,1147,1716,7.16819,-64.5803
-70,-692,7.23804,65.0125,0.00637382,-0.000703457,-0.00180548,0.00680781,-0.00113744,-0.235895,0.00496134,0.0375949,1154,1716,7.23803,-65.0125
-63,-692,7.33081,65.1825,0,0,0,0,0,0,0,-1,1161,1716,7.33083,-65.1825
-56,-692,7.31604,65.474,0,0,0,0,0,0,0,-1,1168,1716,7.31599,-65.474
-49,-692,7.32349,65.8401,0,0,0,0,0,0,0,-1,1175,1716,7.32345,-65.84
-42,-692,7.35339,66.3395,0,0,0,0,0,0,0,-1,1182,1716,7.35341,-66.3395
-35,-692,7.48914,66.6719,0,0,0,0,0,0,0,-1,1189,1716,7.48913,-66.6719
-28,-692,7.75476,66.6776,0,0,0,0,0,0,0,-1,1196,1716,7.75478,-66.6777
-21,-692,7.75549,66.6466,0.0158097,-0.0160451,-0.00891712,0.0181359,-0.0183714,-0.255191,0.0210777,0.0382879,1203,1716,7.75551,-66.6466
-14,-692,7.83362,66.8485,0.0166275,-0.0166782,-0.0100365,0.0194181,-0.0194689,-0.271198,0.0224514,0.0199094,1210,1716,7.8336,-66.8485
-7,-692,7.82947,67.0737,0.0172603,-0.015117,-0.0106661,0.0204582,-0.0183149,-0.29129,0.022397,0.0178537,1217,1716,7.82946,-67.0737
0,-692,7.86084,67.2164,0.0176827,-0.0127845,-0.0111476,0.0213259,-0.0164276,-0.315869,0.0218581,0.0253229,1224,1716,7.86086,-67.2165
7,-692,8.04956,67.2858,0.018264,-0.00809692,-0.0103186,0.0218227,-0.0116556,-0.332105,0.0196235,0.0335253,1231,1716,8.04953,-67.2858
14,-692,8.18774,67.6427,0.0189584,-0.000521711,-0.00744992,0.0214809,-0.00304421,-0.326477,0.0154357,0.0348256,1238,1716,8.18777,-67.6427
21,-692,8.34229,67.7477,0.0194346,0.00731518,-0.0042934,0.0208014,0.00594835,-0.308209,0.0123711,0.0344943,1245,1716,8.34233,-67.7477
28,-692,8.39941,67.6954,0.0200317,0.016364,-7.53842e-05,0.0200333,0.0163624,-0.0205416,0.0123156,0.0358173,1252,1716,8.39946,-67.6955
35,-692,8.4519,67.7994,0.0234242,0.0250742,0.00639611,0.0306983,0.0178001,0.849537,0.0177988,0.03268,1259,1716,8.45187,-67.7994
42,-692,8.56653,67.8845,0.0261968,0.0308786,0.0110216,0.0398052,0.0172702,0.890038,0.0230484,0.0309124,1266,1716,8.56657,-67.8845
49,-692,8.66931,67.8871,0.0279304,0.0366989,0.0163154,0.0492089,0.0154204,0.916657,0.029063,0.0409319,1273,1716,8.6693,-67.8871
56,-692,8.80981,67.9069,0,0,0,0,0,0,0,-1,1280,1716,8.80977,-67.9069
63,-692,8.87402,67.9248,0,0,0,0,0,0,0,-1,1287,1716,8.87401,-67.9248
70,-692,8.94873,68.0665,0,0,0,0,0,0,0,-1,1294,1716,8.94871,-68.0666
77,-692,9.03943,68.2032,0,0,0,0,0,0,0,-1,1301,1716,9.03938,-68.2033
84,-692,9.20557,67.8015,0,0,0,0,0,0,0,-1,1308,1716,9.20557,-67.8015
91,-692,9.45618,67.2958,0,0,0,0,0,0,0,-1,1315,1716,9.45614,-67.2958
98,-692,9.27393,67.3452,0.0233353,0.026768,0.029845,0.0549459,-0.00484269,0.814121,0.0383469,0.0396734,1322,1716,9.27394,-67.3452
105,-692,9.37598,67.2657,0.0200491,0.0238722,0.0283534,0.0503785,-0.00645717,0.819057,0.035932,0.0474864,1329,1716,9.37602,-67.2658
112,-692,9.6571,67.3456,0,0,0,0,0,0,0,-1,1336,1716,9.65709,-67.3455
119,-692,9.65063,67.1598,0.0139098,0.0210058,0.0250497,0.0427575,-0.0078419,0.855749,0.0314466,0.0427994,1343,1716,9.65066,-67.1598
126,-692,9.78101,66.9181,0.0120047,0.0220167,0.024177,0.0417005,-0.00767914,0.887483,0.0306821,0.0440744,1350,1716,9.78095,-66.9181
133,-692,9.8623,66.7924,0.0107819,0.0232819,0.0233537,0.0412074,-0.00714365,0.916146,0.0301364,0.0351906,1357,1716,9.86228,-66.7924
140,-692,9.78796,66.7528,0.00909925,0.0241645,0.0219352,0.0398244,-0.00656068,0.950791,0.0289851,0.037947,1364,1716,9.78796,-66.7528
147,-692,9.70752,66.7192,0,0,0,0,0,0,0,-1,1371,1716,9.70748,-66.7192
154,-692,9.92883,56.0276,0,0,0,0,0,0,0,-1,1378,1716,9.92887,-56.0276
161,-692,9.87207,66.0195,0,0,0,0,0,0,0,-1,1385,1716,9.87211,-66.0196
168,-692,10.2106,65.9565,0,0,0,0,0,0,0,-1,1392,1716,10.2106,-65.9566
175,-692,10.3885,65.6299,0,0,0,0,0,0,0,-1,1399,1716,10.3885,-65.6299
182,-692,10.3335,65.3074,0,0,0,0,0,0,0,-1,1406,1716,10.3335,-65.3073
189,-692,10.2831,64.9718,0,0,0,0,0,0,0,-1,1413,1716,10.2831,-64.9718
196,-692,10.1801,64.5553,0.00897075,-0.000190153,0.00133703,0.0091619,-0.000381303,0.142004,0.00623892,0.0400231,1420,1716,10.18,-64.5553
203,-692,10.2587,64.2217,0.00822537,-6.62199e-05,0.00111722,0.00837327,-0.000214119,0.131615,0.0056549,0.0284244,1427,1716,10.2586,-64.2217
210,-692,10.5271,63.9246,0.00752199,-1.60534e-05,0.000846704,0.00761592,-0.000109988,0.11049,0.00511434,0.0213804,1434,1716,10.527,-63.9246
217,-692,10.5151,63.4985,0.00675739,-0.000192129,0.000680003,0.0068233,-0.000258041,0.0966278,0.00463728,0.0181342,1441,1716,10.5152,-63.4986
224,-692,10.5068,63.1182,0.00595109,-0.000185424,0.000462352,0.00598573,-0.000220065,0.0747818,0.00406583,0.0155207,1448,1716,10.5069,-63.1182
231,-692,10.4939,62.7158,0.00514065,-0.000169072,-1.30802e-05,0.00514069,-0.000169104,-0.00246342,0.00348486,0.0136477,1455,1716,10.4939,-62.7158
238,-692,10.5215,62.2219,0.00453409,-0.000153179,-0.000458612,0.00457854,-0.000197629,-0.0966212,0.00312032,0.0203772,1462,1716,10.5215,-62.2219
245,-692,10.5239,61.7645,0.0040299,-2.87133e-05,-0.000665026,0.00413609,-0.000134903,-0.158341,0.00280344,0.0225694,1469,1716,10.5239,-61.7645
252,-692,10.5338,61.3762,0.00340591,0.000541578,-0.000729716,0.0035811,0.000366391,-0.235617,0.00227513,0.0192644,1476,1716,10.5338,-61.3762
259,-692,10.5416,60.9486,0.00270048,0.000832214,-0.000916478,0.00307499,0.000457708,-0.387929,0.00191574,0.0105251,1483,1716,10.5416,-60.9486
266,-692,10.5352,60.4624,0.00212581,0.00102177,-0.00116604,0.0028639,0.000283683,-0.564323,0.00182208,0.0110154,1490,1716,10.5352,-60.4624
273,-692,10.5449,59.9581,0.00170121,0.00124337,-0.00129481,0.00278718,0.000157401,-0.697904,0.00180794,0.0156322,1497,1716,10.5449,-59.9581
280,-692,10.5388,59.4325,0.00121356,0.00142078,-0.00136658,0.00268767,-5.3338e-05,-0.823235,0.00180982,0.0148062,1504,1716,10.5389,-59.4325
287,-692,10.5093,58.9319,0.000777761,0.00152401,-0.00138753,0.00258771,-0.000285935,-0.916747,0.00182792,0.0121582,1511,1716,10.5093,-58.9319
294,-692,10.4948,58.4286,0.000443118,0.00165158,-0.001446,0.00261451,-0.000519821,-0.983303,0.00193964,0.012091,1518,1716,10.4947,-58.4286
301,-692,10.4882,57.8903,6.49504e-05,0.00178887,-0.00161986,0.00276183,-0.000908008,-1.0299,0.00220706,0.0142913,1525,1716,10.4882,-57.8903
308,-692,10.4657,57.3656,-0.000346063,0.00216341,-0.00192607,0.00320739,-0.00139004,-1.0741,0.00272258,0.0179708,1532,1716,10.4657,-57.3656
315,-692,10.4772,56.8082,-0.000723524,0.00296648,-0.00220333,0.00399527,-0.00175232,-1.13396,0.00340155,0.0170342,1539,1716,10.4772,-56.8082
322,-692,10.4014,56.1974,-0.000944445,0.00364149,-0.0025791,0.00479954,-0.00210249,-1.14877,0.00408504,0.0213189,1546,1716,10.4014,-56.1974
329,-692,10.339,55.6294,-0.00115153,0.00453606,-0.00307173,0.00587827,-0.00249375,-1.15884,0.0049635,0.0196373,1553,1716,10.339,-55.6294
336,-692,10.3116,55.0521,-0.00123545,0.00562832,-0.00362248,0.00718645,-0.00279358,-1.16459,0.00594512,0.0133639,1560,1716,10.3116,-55.0521
343,-692,10.2897,54.4803,-0.00100859,0.00681899,-0.00438034,0.0087793,-0.0029689,-1.15,0.00705393,0.0126999,1567,1716,10.2896,-54.4803
350,-692,10.2356,53.8973,-0.000750032,0.0080287,-0.00518051,0.0104293,-0.00315068,-1.13686,0.00820725,0.0148839,1574,1716,10.2356,-53.8973
357,-692,10.1646,53.2283,-0.000327063,0.00925109,-0.00609321,0.012212,-0.00328799,-1.11846,0.00943038,0.0232678,1581,1716,10.1645,-53.2283
364,-692,10.127,52.4897,0.000191483,0.010196,-0.00698772,0.0137874,-0.00339991,-1.09604,0.0105098,0.0309304,1588,1716,10.127,-52.4898
371,-692,10.2672,51.8833,0.00103459,0.0109703,-0.00805582,0.0154669,-0.00346201,-1.06169,0.0116382,0.0385128,1595,1716,10.2672,-51.8833
378,-692,10.2823,51.2711,0.00225339,0.0113542,-0.00921351,0.0170797,-0.00347214,-1.01477,0.012703,0.0455425,1602,1716,10.2823,-51.2711
385,-692,10.1497,50.5563,0,0,0,0,0,0,0,-1,1609,1716,10.1497,-50.5563
392,-692,10.5355,49.9816,0,0,0,0,0,0,0,-1,1616,1716,10.5355,-49.9816
399,-692,10.6187,48.0621,0,0,0,0,0,0,0,-1,1623,1716,10.6187,-48.0621
406,-692,11.3221,42.7773,0,0,0,0,0,0,0,-1,1630,1716,11.3222,-42.7773
413,-692,11.4845,42.9004,0,0,0,0,0,0,0,-1,1637,1716,11.4845,-42.9004
420,-692,9.65894,40.2512,0,0,0,0,0,0,0,-1,1644,1716,9.65889,-40.2513
427,-692,3.79578,8.60339,0,0,0,0,0,0,0,-1,1651,1716,3.79577,-8.6034
434,-692,4.78516,8.64636,0,0,0,0,0,0,0,-1,1658,1716,4.78512,-8.64634
441,-692,5.8208,8.74036,0,0,0,0,0,0,0,-1,1665,1716,5.82084,-8.7404
448,-692,6.73792,8.51013,0,0,0,0,0,0,0,-1,1672,1716,6.73793,-8.5101
455,-692,0,0,0,0,0,0,0,0,0,-1,1679,1716,0,0
462,-692,0,0,0,0,0,0,0,0,0,-1,1686,1716,0,0
469,-692,0,0,0,0,0,0,0,0,0,-1,1693,1716,0,0
476,-692,0,0,0,0,0,0,0,0,0,-1,1700,1716,0,0
483,-692,0,0,0,0,0,0,0,0,0,-1,1707,1716,0,0
490,-692,0,0,0,0,0,0,0,0,0,-1,1714,1716,0,0
497,-692,0,0,0,0,0,0,0,0,0,-1,1721,1716,0,0
504,-692,0,0,0,0,0,0,0,0,0,-1,1728,1716,0,0
511,-692,0,0,0,0,0,0,0,0,0,-1,1735,1716,0,0
518,-692,0,0,0,0,0,0,0,0,0,-1,1742,1716,0,0
525,-692,0,0,0,0,0,0,0,0,0,-1,1749,1716,0,0
532,-692,0,0,0,0,0,0,0,0,0,-1,1756,1716,0,0
539,-692,0,0,0,0,0,0,0,0,0,-1,1763,1716,0,0
546,-692,0,0,0,0,0,0,0,0,0,-1,1770,1716,0,0
553,-692,0,0,0,0,0,0,0,0,0,-1,1777,1716,0,0
560,-692,0,0,0,0,0,0,0,0,0,-1,1784,1716,0,0
567,-692,0,0,0,0,0,0,0,0,0,-1,1791,1716,0,0
574,-692,0,0,0,0,0,0,0,0,0,-1,1798,1716,0,0
581,-692,0,0,0,0,0,0,0,0,0,-1,1805,1716,0,0
588,-692,0,0,0,0,0,0,0,0,0,-1,1812,1716,0,0
595,-692,0,0,0,0,0,0,0,0,0,-1,1819,1716,0,0
602,-692,0,0,0,0,0,0,0,0,0,-1,1826,1716,0,0
609,-692,0,0,0,0,0,0,0,0,0,-1,1833,1716,0,0
616,-692,0,0,0,0,0,0,0,0,0,-1,1840,1716,0,0
623,-692,0,0,0,0,0,0,0,0,0,-1,1847,1716,0,0
630,-692,0,0,0,0,0,0,0,0,0,-1,1854,1716,0,0
637,-692,0,0,0,0,0,0,0,0,0,-1,1861,1716,0,0
644,-692,0,0,0,0,0,0,0,0,0,-1,1868,1716,0,0
651,-692,0,0,0,0,0,0,0,0,0,-1,1875,1716,0,0
658,-692,0,0,0,0,0,0,0,0,0,-1,1882,1716,0,0
665,-692,0,0,0,0,0,0,0,0,0,-1,1889,1716,0,0
672,-692,0,0,0,0,0,0,0,0,0,-1,1896,1716,0,0
679,-692,0,0,0,0,0,0,0,0,0,-1,1903,1716,0,0
686,-692,0,0,0,0,0,0,0,0,0,-1,1910,1716,0,0
693,-692,0,0,0,0,0,0,0,0,0,-1,1917,1716,0,0
700,-692,0,0,0,0,0,0,0,0,0,-1,1924,1716,0,0
707,-692,0,0,0,0,0,0,0,0,0,-1,1931,1716,0,0
714,-692,0,0,0,0,0,0,0,0,0,-1,1938,1716,0,0
721,-692,0,0,0,0,0,0,0,0,0,-1,1945,1716,0,0
728,-692,0,0,0,0,0,0,0,0,0,-1,1952,1716,0,0
735,-692,0,0,0,0,0,0,0,0,0,-1,1959,1716,0,0
742,-692,0,0,0,0,0,0,0,0,0,-1,1966,1716,0,0
749,-692,0,0,0,0,0,0,0,0,0,-1,1973,1716,0,0
756,-692,0,0,0,0,0,0,0,0,0,-1,1980,1716,0,0
763,-692,0,0,0,0,0,0,0,0,0,-1,1987,1716,0,0
770,-692,0,0,0,0,0,0,0,0,0,-1,1994,1716,0,0
777,-692,0,0,0,0,0,0,0,0,0,-1,2001,1716,0,0
784,-692,0,0,0,0,0,0,0,0,0,-1,2008,1716,0,0
791,-692,0,0,0,0,0,0,0,0,0,-1,2015,1716,0,0
798,-692,0,0,0,0,0,0,0,0,0,-1,2022,1716,0,0
805,-692,0,0,0,0,0,0,0,0,0,-1,2029,1716,0,0
812,-692,0,0,0,0,0,0,0,0,0,-1,2036,1716,0,0
-700,-699,0,0,0,0,0,0,0,0,0,-1,524,1723,0,0
-693,-699,0,0,0,0,0,0,0,0,0,-1,531,1723,0,0
-686,-699,0,0,0,0,0,0,0,0,0,-1,538,1723,0,0
-679,-699,0,0,0,0,0,0,0,0,0,-1,545,1723,0,0
-672,-699,0,0,0,0,0,0,0,0,0,-1,552,1723,0,0
-665,-699,0,0,0,0,0,0,0,0,0,-1,559,1723,0,0
-658,-699,0,0,0,0,0,0,0,0,0,-1,566,1723,0,0
-651,-699,0,0,0,0,0,0,0,0,0,-1,573,1723,0,0
-644,-699,0,0,0,0,0,0,0,0,0,-1,580,1723,0,0
-637,-699,0,0,0,0,0,0,0,0,0,-1,587,1723,0,0
-630,-699,0,0,0,0,0,0,0,0,0,-1,594,1723,0,0
-623,-699,0,0,0,0,0,0,0,0,0,-1,601,1723,0,0
-616,-699,0,0,0,0,0,0,0,0,0,-1,608,1723,0,0
-609,-699,0,0,0,0,0,0,0,0,0,-1,615,1723,0,0
-602,-699,0,0,0,0,0,0,0,0,0,-1,622,1723,0,0
-595,-699,0,0,0,0,0,0,0,0,0,-1,629,1723,0,0
-588,-699,0,0,0,0,0,0,0,0,0,-1,636,1723,0,0
-581,-699,0,0,0,0,0,0,0,0,0,-1,643,1723,0,0
-574,-699,0,0,0,0,0,0,0,0,0,-1,650,1723,0,0
-567,-699,0,0,0,0,0,0,0,0,0,-1,657,1723,0,0
-560,-699,0,0,0,0,0,0,0,0,0,-1,664,1723,0,0
-553,-699,0,0,0,0,0,0,0,0,0,-1,671,1723,0,0
-546,-699,0,0,0,0,0,0,0,0,0,-1,678,1723,0,0
-539,-699,0,0,0,0,0,0,0,0,0,-1,685,1723,0,0
-532,-699,0,0,0,0,0,0,0,0,0,-1,692,1723,0,0
-525,-699,0,0,0,0,0,0,0,0,0,-1,699,1723,0,0
-518,-699,0,0,0,0,0,0,0,0,0,-1,706,1723,0,0
-511,-699,0,0,0,0,0,0,0,0,0,-1,713,1723,0,0
-504,-699,0,0,0,0,0,0,0,0,0,-1,720,1723,0,0
-497,-699,0,0,0,0,0,0,0,0,0,-1,727,1723,0,0
-490,-699,0,0,0,0,0,0,0,0,0,-1,734,1723,0,0
-483,-699,0,0,0,0,0,0,0,0,0,-1,741,1723,0,0
-476,-699,0,0,0,0,0,0,0,0,0,-1,748,1723,0,0
-469,-699,0,0,0,0,0,0,0,0,0,-1,755,1723,0,0
-462,-699,0,0,0,0,0,0,0,0,0,-1,762,1723,0,0
-455,-699,0,0,0,0,0,0,0,0,0,-1,769,1723,0,0
-448,-699,0,0,0,0,0,0,0,0,0,-1,776,1723,0,0
-441,-699,0,0,0,0,0,0,0,0,0,-1,783,1723,0,0
-434,-699,0,0,0,0,0,0,0,0,0,-1,790,1723,0,0
-427,-699,0,0,0,0,0,0,0,0,0,-1,797,1723,0,0
-420,-699,0,0,0,0,0,0,0,0,0,-1,804,1723,0,0
-413,-699,0,0,0,0,0,0,0,0,0,-1,811,1723,0,0
-406,-699,0,0,0,0,0,0,0,0,0,-1,818,1723,0,0
-399,-699,0,0,0,0,0,0,0,0,0,-1,825,1723,0,0
-392,-699,0,0,0,0,0,0,0,0,0,-1,832,1723,0,0
-385,-699,0,0,0,0,0,0,0,0,0,-1,839,1723,0,0
-378,-699,0,0,0,0,0,0,0,0,0,-1,846,1723,0,0
-371,-699,0,0,0,0,0,0,0,0,0,-1,853,1723,0,0
-364,-699,0,0,0,0,0,0,0,0,0,-1,860,1723,0,0
-357,-699,0,0,0,0,0,0,0,0,0,-1,867,1723,0,0
-350,-699,0,0,0,0,0,0,0,0,0,-1,874,1723,0,0
-343,-699,0,0,0,0,0,0,0,0,0,-1,881,1723,0,0
-336,-699,0,0,0,0,0,0,0,0,0,-1,888,1723,0,0
-329,-699,0,0,0,0,0,0,0,0,0,-1,895,1723,0,0
-322,-699,0,0,0,0,0,0,0,0,0,-1,902,1723,0,0
-315,-699,6.20001,19.5193,0,0,0,0,0,0,0,-1,909,1723,6.20001,-19.5193
-308,-699,6.98151,18.9218,0,0,0,0,0,0,0,-1,916,1723,6.98151,-18.9217
-301,-699,4.72729,12.8752,0,0,0,0,0,0,0,-1,923,1723,4.72732,-12.8752
-294,-699,6.90332,19.8601,0,0,0,0,0,0,0,-1,930,1723,6.90332,-19.8601
-287,-699,9.0968,36.3315,0,0,0,0,0,0,0,-1,937,1723,9.09678,-36.3315
-280,-699,9.53729,45.2391,0,0,0,0,0,0,0,-1,944,1723,9.53728,-45.2391
-273,-699,8.216,48.0923,0,0,0,0,0,0,0,-1,951,1723,8.21601,-48.0923
-266,-699,6.81915,20.8951,0,0,0,0,0,0,0,-1,958,1723,6.81914,-20.8952
-259,-699,5.39758,14.5466,0,0,0,0,0,0,0,-1,965,1723,5.39759,-14.5466
-252,-699,8.3866,31.6284,0,0,0,0,0,0,0,-1,972,1723,8.38657,-31.6284
-245,-699,7.94281,50.88,0,0,0,0,0,0,0,-1,979,1723,7.9428,-50.88
-238,-699,7.6759,51.9694,0,0,0,0,0,0,0,-1,986,1723,7.67591,-51.9694
-231,-699,7.98608,53.6167,0,0,0,0,0,0,0,-1,993,1723,7.98607,-53.6167
-224,-699,7.8927,54.0585,0,0,0,0,0,0,0,-1,1000,1723,7.89268,-54.0585
-217,-699,7.75922,54.7694,0.00330034,0.00856425,0.0063285,0.0127863,-0.000921695,0.982462,0.00884744,0.0269306,1007,1723,7.7592,-54.7694
-210,-699,7.86853,55.2971,0.00166477,0.00863589,0.00543027,0.011603,-0.00130234,1.07072,0.00820397,0.0205472,1014,1723,7.86851,-55.2971
-203,-699,7.89343,55.9257,0.00051916,0.00838668,0.00466227,0.010553,-0.00164718,1.13582,0.0076438,0.0254402,1021,1723,7.89342,-55.9256
-196,-699,7.80908,56.5774,-0.000312737,0.00787554,0.00403655,0.00953081,-0.00196801,1.18164,0.00710136,0.0188213,1028,1723,7.80911,-56.5774
-189,-699,7.73401,57.1279,-0.000831681,0.00716964,0.00355467,0.00852071,-0.00218275,1.20758,0.00653079,0.0093577,1035,1723,7.73397,-57.128
-182,-699,7.68262,57.7007,-0.00127509,0.0059434,0.00286414,0.00694176,-0.00227344,1.2354,0.00554329,0.0132377,1042,1723,7.68266,-57.7007
-175,-699,7.64075,58.2758,-0.00135134,0.0052403,0.00251979,0.00609319,-0.00220422,1.24443,0.00496281,0.0155716,1049,1723,7.64069,-58.2758
-168,-699,7.62268,58.7869,-0.00125435,0.00443525,0.00227829,0.0052351,-0.0020542,1.23316,0.00433999,0.0163449,1056,1723,7.62263,-58.7868
-161,-699,7.61523,59.2963,-0.0012589,0.00365612,0.00203734,0.0043908,-0.00199359,1.2247,0.00377165,0.0144198,1063,1723,7.61523,-59.2963
-154,-699,7.5874,59.8295,-0.000916306,0.0030214,0.00188244,0.00377651,-0.00167142,1.18931,0.00322268,0.0139523,1070,1723,7.58738,-59.8295
-147,-699,7.55334,60.3219,-0.000366297,0.00241323,0.00168592,0.00320836,-0.00116143,1.1301,0.00261354,0.0171807,1077,1723,7.55333,-60.3219
-140,-699,7.51489,60.7815,0.000145376,0.00189516,0.00143959,0.00270487,-0.000664326,1.05844,0.0020607,0.0120307,1084,1723,7.51488,-60.7815
-133,-699,7.50513,61.2739,0.000673006,0.00141848,0.0012342,0.002335,-0.000243512,0.932046,0.00164386,0.00991225,1091,1723,7.50515,-61.274
-126,-699,7.50916,61.7227,0.0011939,0.0012452,0.00103288,0.00225274,0.000186356,0.797812,0.00144372,0.0120539,1098,1723,7.50919,-61.7226
-119,-699,7.50269,62.1593,0.00169927,0.00125696,0.000883053,0.00238844,0.000567789,0.6627,0.00144082,0.0178561,1105,1723,7.50268,-62.1593
-112,-699,7.46912,62.6034,0.00218281,0.00133608,0.000751519,0.00262201,0.00089688,0.528884,0.00153879,0.0120814,1112,1723,7.46916,-62.6033
-105,-699,7.47266,63.0479,0.00251589,0.00127731,0.000529738,0.00271155,0.00108165,0.353809,0.00157614,0.0126832,1119,1723,7.47271,-63.0479
-98,-699,7.52271,63.4574,0.00277132,0.00112637,0.000288252,0.00282037,0.00107732,0.168546,0.00164339,0.0160209,1126,1723,7.52267,-63.4575
-91,-699,7.53906,63.8264,0.00312873,0.000974489,-1.25689e-05,0.00312881,0.000974416,-0.00583423,0.00184874,0.0223354,1133,1723,7.53909,-63.8264
-84,-699,7.56421,64.219,0.0036582,0.000828564,-0.000323542,0.00369473,0.000792041,-0.112408,0.00224618,0.0270122,1140,1723,7.56423,-64.219
-77,-699,7.56226,64.5613,0.00417767,0.000472272,-0.000635333,0.00428358,0.000366364,-0.165178,0.00274177,0.0182137,1147,1723,7.56228,-64.5612
-70,-699,7.57922,64.8899,0.00459374,2.89675e-05,-0.000935593,0.00477805,-0.000155349,-0.194514,0.00323839,0.0186521,1154,1723,7.57926,-64.8899
-63,-699,7.6239,65.2449,0.00494962,-0.00140791,-0.000897279,0.00507383,-0.00153212,-0.137558,0.00399249,0.0159327,1161,1723,7.62385,-65.2448
-56,-699,7.61987,65.5365,0.00603677,-0.00455667,-0.00101693,0.0061335,-0.00465341,-0.0948417,0.00624734,0.0126026,1168,1723,7.61988,-65.5366
-49,-699,7.62158,65.8439,0.00781456,-0.00768705,-0.00183881,0.0080297,-0.00790219,-0.116467,0.00919838,0.0274599,1175,1723,7.62161,-65.8438
-42,-699,7.65601,66.2037,0.00981761,-0.00947267,-0.00303559,0.010284,-0.00993908,-0.152456,0.0116764,0.0298953,1182,1723,7.65596,-66.2038
-35,-699,7.7395,66.4872,0.0116047,-0.0105299,-0.00419368,0.0123726,-0.0112978,-0.181104,0.0136708,0.0264605,1189,1723,7.73954,-66.4872
-28,-699,7.89258,66.6156,0.0126151,-0.0111493,-0.00541732,0.0137917,-0.012326,-0.213883,0.015087,0.0222183,1196,1723,7.89262,-66.6156
-21,-699,7.91516,66.7346,0.013718,-0.0121519,-0.00687946,0.0154337,-0.0138676,-0.244401,0.0169251,0.016086,1203,1723,7.91516,-66.7346
-14,-699,7.95239,66.9625,0.0146433,-0.01305,-0.00783557,0.0167065,-0.0151133,-0.257478,0.0183789,0.0140175,1210,1723,7.95239,-66.9625
-7,-699,7.99597,67.1964,0.0154025,-0.0131759,-0.00865937,0.0178216,-0.015595,-0.272413,0.0193073,0.0101954,1217,1723,7.99599,-67.1964
0,-699,8.07971,67.359,0.0160073,-0.012723,-0.00934108,0.0187773,-0.015493,-0.288279,0.0198162,0.0143303,1224,1723,8.07975,-67.3591
7,-699,8.23303,67.4196,0.0166857,-0.010272,-0.00892197,0.0193711,-0.0129573,-0.292356,0.0187869,0.0238981,1231,1723,8.23305,-67.4196
14,-699,8.31799,67.5931,0.0173594,-0.00613845,-0.0072596,0.0194213,-0.00820036,-0.276737,0.0163801,0.0228777,1238,1723,8.31793,-67.5932
21,-699,8.30322,67.7023,0.017821,-0.00211246,-0.00549757,0.0192367,-0.00352813,-0.252032,0.0141479,0.0188849,1245,1723,8.3032,-67.7023
28,-699,8.40405,67.7371,0.0182584,0.00326248,-0.00276367,0.0187515,0.00276936,-0.176569,0.0116878,0.0175885,1252,1723,8.40403,-67.7371
35,-699,8.5033,67.885,0.0210135,0.00938084,0.00215767,0.0214009,0.00899352,0.177615,0.0124081,0.0147574,1259,1723,8.50332,-67.885
42,-699,8.57861,67.9487,0.023273,0.0137784,0.00577385,0.0260006,0.0110508,0.441329,0.0150676,0.0135359,1266,1723,8.57855,-67.9488
49,-699,8.63403,67.9791,0.0245487,0.0184142,0.010143,0.032078,0.0108848,0.638568,0.0188363,0.0170436,1273,1723,8.63405,-67.9791
56,-699,8.75183,68.0063,0.0251379,0.0213915,0.0145325,0.0379174,0.00861204,0.721303,0.0229526,0.0187382,1280,1723,8.75179,-68.0064
63,-699,8.85278,67.9774,0.0248733,0.023029,0.0185063,0.0424804,0.00542191,0.760504,0.0266971,0.0157728,1287,1723,8.85284,-67.9775
70,-699,8.90747,67.9806,0.0241852,0.0232303,0.0210184,0.0447316,0.00268394,0.774042,0.0289679,0.0122798,1294,1723,8.90745,-67.9806
77,-699,8.98474,67.9399,0.0240334,0.0215635,0.0224465,0.0452789,0.000318019,0.757917,0.0300805,0.0124535,1301,1723,8.98478,-67.94
84,-699,9.0907,67.8684,0.0227387,0.0202181,0.0230637,0.0445765,-0.00161975,0.758103,0.030272,0.0156828,1308,1723,9.0907,-67.8684
91,-699,9.16821,67.7998,0.0206836,0.0176875,0.0220261,0.0412625,-0.00289138,0.751445,0.028521,0.0147455,1315,1723,9.16816,-67.7998
98,-699,9.23181,67.7073,0.0181576,0.0152603,0.0208279,0.0375872,-0.00416934,0.750677,0.0265572,0.0121329,1322,1723,9.23176,-67.7073
105,-699,9.28638,67.623,0.0153334,0.0132696,0.0194818,0.0338106,-0.00520757,0.75894,0.0244617,0.0163215,1329,1723,9.28635,-67.623
112,-699,9.38391,67.5167,0.0124369,0.0112218,0.0176841,0.0295239,-0.00586513,0.768227,0.021901,0.0230797,1336,1723,9.38395,-67.5167
119,-699,9.39111,67.3634,0.00990379,0.00989342,0.0159554,0.0258541,-0.00605684,0.785236,0.0195699,0.0179137,1343,1723,9.39115,-67.3634
126,-699,9.47986,67.1682,0.00806284,0.00988023,0.0147062,0.0237058,-0.00576271,0.816254,0.0180343,0.0201703,1350,1723,9.47987,-67.1682
133,-699,9.61108,66.993,0.00673327,0.00980355,0.0134241,0.02178,-0.00524321,0.842329,0.016547,0.0193278,1357,1723,9.61108,-66.993
140,-699,9.65979,66.7968,0.00468097,0.00947893,0.0114552,0.0187837,-0.0046238,0.888617,0.0143149,0.020097,1364,1723,9.65981,-66.7968
147,-699,9.70874,66.5723,0,0,0,0,0,0,0,-1,1371,1723,9.7087,-66.5723
154,-699,9.41309,66.3732,0,0,0,0,0,0,0,-1,1378,1723,9.4131,-66.3732
161,-699,9.75415,66.1586,0.0041816,0.00882647,0.00612041,0.0130503,-4.21945e-05,0.966735,0.00871427,0.0311024,1385,1723,9.75413,-66.1586
168,-699,9.86938,65.8972,0.00509187,0.00704184,0.00334139,0.00954758,0.00258613,0.927352,0.00570197,0.0132197,1392,1723,9.8694,-65.8972
175,-699,9.94189,65.6273,0.00685886,0.00456839,0.00196202,0.00798543,0.00344183,0.521224,0.00462499,0.0193714,1399,1723,9.94185,-65.6273
182,-699,9.9657,65.3302,0.00628355,0.0029586,0.000872091,0.00649841,0.00274374,0.241556,0.00376696,0.0203058,1406,1723,9.96566,-65.3303
189,-699,9.93835,65.0017,0.00663019,0.000221489,0.000880792,0.00674904,0.00010264,0.134124,0.00446554,0.018177,1413,1723,9.93833,-65.0017
196,-699,9.92773,64.5881,0.0064851,0.000335194,0.00069954,0.00656366,0.000256626,0.111845,0.00429279,0.0203386,1420,1723,9.92774,-64.5881
203,-699,9.97021,64.2393,0.00589948,0.000400542,0.000503096,0.00594513,0.000354893,0.0904887,0.00385058,0.0168144,1427,1723,9.97018,-64.2393
210,-699,10.0664,63.9463,0.00530799,0.000416795,0.000276925,0.00532362,0.000401166,0.0563768,0.0034232,0.0145192,1434,1723,10.0664,-63.9463
217,-699,10.0839,63.5642,0.00465723,0.000346753,0.000129498,0.00466112,0.000342866,0.0300065,0.00299966,0.0145691,1441,1723,10.0839,-63.5642
224,-699,10.0714,63.1426,0.00399346,0.000382138,-8.67148e-05,0.00399554,0.000380057,-0.0239935,0.00254648,0.0163977,1448,1723,10.0714,-63.1426
231,-699,10.0911,62.7286,0.00331974,0.000431838,-0.000438757,0.00338492,0.000366649,-0.147497,0.00214487,0.0134549,1455,1723,10.091,-62.7286
238,-699,10.0771,62.272,0.0027676,0.000488336,-0.000747286,0.00299076,0.000265177,-0.290195,0.00191159,0.0119904,1462,1723,10.0771,-62.272
245,-699,10.0803,61.8369,0.00227758,0.000596248,-0.000922551,0.00268504,0.000188788,-0.415902,0.00173054,0.0137897,1469,1723,10.0803,-61.8369
252,-699,10.0723,61.4229,0.00176256,0.000883163,-0.00102487,0.00243807,0.000207648,-0.58276,0.00156078,0.0114182,1476,1723,10.0723,-61.4229
259,-699,10.0514,60.972,0.0012062,0.00106468,-0.00119782,0.00233535,-6.44648e-05,-0.755896,0.00157883,0.0113275,1483,1723,10.0513,-60.9721
266,-699,10.0334,60.4679,0.000713329,0.00121102,-0.00142375,0.00240751,-0.000483163,-0.871915,0.00178796,0.0138605,1490,1723,10.0334,-60.4679
273,-699,10.0409,59.9556,0.000283281,0.00141822,-0.00156739,0.0025177,-0.000816204,-0.959081,0.00200665,0.01292,1497,1723,10.0409,-59.9556
280,-699,10.0446,59.4463,-0.000215437,0.00163957,-0.001654,0.00260837,-0.00118424,-1.04093,0.00224053,0.0134028,1504,1723,10.0446,-59.4463
287,-699,9.99768,58.9246,-0.000633773,0.00179511,-0.00170061,0.00267038,-0.00150905,-1.09547,0.00244385,0.0118487,1511,1723,9.99768,-58.9245
294,-699,9.96582,58.4261,-0.000936066,0.00206726,-0.00181929,0.00292458,-0.00179339,-1.13042,0.0027499,0.0122609,1518,1723,9.96588,-58.4261
301,-699,9.9574,57.9146,-0.0013094,0.00236312,-0.00207586,0.00329833,-0.00224461,-1.14751,0.00321944,0.0135733,1525,1723,9.95743,-57.9145
308,-699,9.95862,57.3857,-0.0017316,0.00302341,-0.00250207,0.00409741,-0.0028056,-1.16534,0.00400865,0.0184519,1532,1723,9.9586,-57.3858
315,-699,9.95825,56.8164,-0.00210699,0.00422571,-0.00290336,0.00535532,-0.00323659,-1.19975,0.00501056,0.0206766,1539,1723,9.9582,-56.8165
322,-699,9.8678,56.2208,-0.00225762,0.00519193,-0.00342232,0.00652544,-0.00359113,-1.19924,0.00592213,0.020362,1546,1723,9.86781,-56.2208
329,-699,9.76855,55.63,-0.00239494,0.00646568,-0.00406141,0.00804559,-0.00397484,-1.1998,0.00707141,0.0166896,1553,1723,9.76855,-55.63
336,-699,9.74341,55.0834,-0.00239847,0.00800773,-0.00483466,0.00990718,-0.00429792,-1.19644,0.00841175,0.0143969,1560,1723,9.74346,-55.0833
343,-699,9.76233,54.5226,-0.00202196,0.00968518,-0.00584748,0.0121055,-0.00444229,-1.17836,0.00988946,0.0218894,1567,1723,9.76232,-54.5226
350,-699,9.71655,53.8455,-0.00158224,0.0114765,-0.00684225,0.0144049,-0.00451062,-1.1664,0.011408,0.0386561,1574,1723,9.71653,-53.8454
357,-699,9.61072,52.9773,-0.00086926,0.0131659,-0.00798605,0.0167796,-0.00448292,-1.14587,0.0129421,0.04767,1581,1723,9.61076,-52.9773
364,-699,9.38745,52.1471,-4.27853e-05,0.0146892,-0.00912454,0.0190499,-0.00440348,-1.12498,0.0143941,0.0463851,1588,1723,9.38743,-52.1471
371,-699,9.67004,52.0001,0,0,0,0,0,0,0,-1,1595,1723,9.67006,-52.0001
378,-699,9.70459,51.3977,0,0,0,0,0,0,0,-1,1602,1723,9.70457,-51.3977
385,-699,8.04944,42.8464,0,0,0,0,0,0,0,-1,1609,1723,8.04943,-42.8464
392,-699,8.04492,42.0624,0,0,0,0,0,0,0,-1,1616,1723,8.04492,-42.0623
399,-699,8.49963,41.4828,0,0,0,0,0,0,0,-1,1623,1723,8.49961,-41.4828
406,-699,11.7264,44.1525,0,0,0,0,0,0,0,-1,1630,1723,11.7264,-44.1525
413,-699,12.3215,44.3011,0,0,0,0,0,0,0,-1,1637,1723,12.3215,-44.3011
420,-699,8.41907,38.2246,0,0,0,0,0,0,0,-1,1644,1723,8.41902,-38.2247
427,-699,2.98743,11.8593,0,0,0,0,0,0,0,-1,1651,1723,2.98746,-11.8592
434,-699,4.66455,8.90222,0,0,0,0,0,0,0,-1,1658,1723,4.66456,-8.90223
441,-699,0,0,0,0,0,0,0,0,0,-1,1665,1723,0,0
448,-699,0,0,0,0,0,0,0,0,0,-1,1672,1723,0,0
455,-699,0,0,0,0,0,0,0,0,0,-1,1679,1723,0,0
462,-699,0,0,0,0,0,0,0,0,0,-1,1686,1723,0,0
469,-699,0,0,0,0,0,0,0,0,0,-1,1693,1723,0,0
476,-699,0,0,0,0,0,0,0,0,0,-1,1700,1723,0,0
483,-699,0,0,0,0,0,0,0,0,0,-1,1707,1723,0,0
490,-699,0,0,0,0,0,0,0,0,0,-1,1714,1723,0,0
497,-699,0,0,0,0,0,0,0,0,0,-1,1721,1723,0,0
504,-699,0,0,0,0,0,0,0,0,0,-1,1728,1723,0,0
511,-699,0,0,0,0,0,0,0,0,0,-1,1735,1723,0,0
518,-699,0,0,0,0,0,0,0,0,0,-1,1742,1723,0,0
525,-699,0,0,0,0,0,0,0,0,0,-1,1749,1723,0,0
532,-699,0,0,0,0,0,0,0,0,0,-1,1756,1723,0,0
539,-699,0,0,0,0,0,0,0,0,0,-1,1763,1723,0,0
546,-699,0,0,0,0,0,0,0,0,0,-1,1770,1723,0,0
553,-699,0,0,0,0,0,0,0,0,0,-1,1777,1723,0,0
560,-699,0,0,0,0,0,0,0,0,0,-1,1784,1723,0,0
567,-699,0,0,0,0,0,0,0,0,0,-1,1791,1723,0,0
574,-699,0,0,0,0,0,0,0,0,0,-1,1798,1723,0,0
581,-699,0,0,0,0,0,0,0,0,0,-1,1805,1723,0,0
588,-699,0,0,0,0,0,0,0,0,0,-1,1812,1723,0,0
595,-699,0,0,0,0,0,0,0,0,0,-1,1819,1723,0,0
602,-699,0,0,0,0,0,0,0,0,0,-1,1826,1723,0,0
609,-699,0,0,0,0,0,0,0,0,0,-1,1833,1723,0,0
616,-699,0,0,0,0,0,0,0,0,0,-1,1840,1723,0,0
623,-699,0,0,0,0,0,0,0,0,0,-1,1847,1723,0,0
630,-699,0,0,0,0,0,0,0,0,0,-1,1854,1723,0,0
637,-699,0,0,0,0,0,0,0,0,0,-1,1861,1723,0,0
644,-699,0,0,0,0,0,0,0,0,0,-1,1868,1723,0,0
651,-699,0,0,0,0,0,0,0,0,0,-1,1875,1723,0,0
658,-699,0,0,0,0,0,0,0,0,0,-1,1882,1723,0,0
665,-699,0,0,0,0,0,0,0,0,0,-1,1889,1723,0,0
672,-699,0,0,0,0,0,0,0,0,0,-1,1896,1723,0,0
679,-699,0,0,0,0,0,0,0,0,0,-1,1903,1723,0,0
686,-699,0,0,0,0,0,0,0,0,0,-1,1910,1723,0,0
693,-699,0,0,0,0,0,0,0,0,0,-1,1917,1723,0,0
700,-699,0,0,0,0,0,0,0,0,0,-1,1924,1723,0,0
707,-699,0,0,0,0,0,0,0,0,0,-1,1931,1723,0,0
714,-699,0,0,0,0,0,0,0,0,0,-1,1938,1723,0,0
721,-699,0,0,0,0,0,0,0,0,0,-1,1945,1723,0,0
728,-699,0,0,0,0,0,0,0,0,0,-1,1952,1723,0,0
735,-699,0,0,0,0,0,0,0,0,0,-1,1959,1723,0,0
742,-699,0,0,0,0,0,0,0,0,0,-1,1966,1723,0,0
749,-699,0,0,0,0,0,0,0,0,0,-1,1973,1723,0,0
756,-699,0,0,0,0,0,0,0,0,0,-1,1980,1723,0,0
763,-699,0,0,0,0,0,0,0,0,0,-1,1987,1723,0,0
770,-699,0,0,0,0,0,0,0,0,0,-1,1994,1723,0,0
777,-699,0,0,0,0,0,0,0,0,0,-1,2001,1723,0,0
784,-699,0,0,0,0,0,0,0,0,0,-1,2008,1723,0,0
791,-699,0,0,0,0,0,0,0,0,0,-1,2015,1723,0,0
798,-699,0,0,0,0,0,0,0,0,0,-1,2022,1723,0,0
805,-699,0,0,0,0,0,0,0,0,0,-1,2029,1723,0,0
812,-699,0,0,0,0,0,0,0,0,0,-1,2036,1723,0,0
-700,-706,0,0,0,0,0,0,0,0,0,-1,524,1730,0,0
-693,-706,0,0,0,0,0,0,0,0,0,-1,531,1730,0,0
-686,-706,0,0,0,0,0,0,0,0,0,-1,538,1730,0,0
-679,-706,0,0,0,0,0,0,0,0,0,-1,545,1730,0,0
-672,-706,0,0,0,0,0,0,0,0,0,-1,552,1730,0,0
-665,-706,0,0,0,0,0,0,0,0,0,-1,559,1730,0,0
-658,-706,0,0,0,0,0,0,0,0,0,-1,566,1730,0,0
-651,-706,0,0,0,0,0,0,0,0,0,-1,573,1730,0,0
-644,-706,0,0,0,0,0,0,0,0,0,-1,580,1730,0,0
-637,-706,0,0,0,0,0,0,0,0,0,-1,587,1730,0,0
-630,-706,0,0,0,0,0,0,0,0,0,-1,594,1730,0,0
-623,-706,0,0,0,0,0,0,0,0,0,-1,601,1730,0,0
-616,-706,0,0,0,0,0,0,0,0,0,-1,608,1730,0,0
-609,-706,0,0,0,0,0,0,0,0,0,-1,615,1730,0,0
-602,-706,0,0,0,0,0,0,0,0,0,-1,622,1730,0,0
-595,-706,0,0,0,0,0,0,0,0,0,-1,629,1730,0,0
-588,-706,0,0,0,0,0,0,0,0,0,-1,636,1730,0,0
-581,-706,0,0,0,0,0,0,0,0,0,-1,643,1730,0,0
-574,-706,0,0,0,0,0,0,0,0,0,-1,650,1730,0,0
-567,-706,0,0,0,0,0,0,0,0,0,-1,657,1730,0,0
-560,-706,0,0,0,0,0,0,0,0,0,-1,664,1730,0,0
-553,-706,0,0,0,0,0,0,0,0,0,-1,671,1730,0,0
-546,-706,0,0,0,0,0,0,0,0,0,-1,678,1730,0,0
-539,-706,0,0,0,0,0,0,0,0,0,-1,685,1730,0,0
-532,-706,0,0,0,0,0,0,0,0,0,-1,692,1730,0,0
-525,-706,0,0,0,0,0,0,0,0,0,-1,699,1730,0,0
-518,-706,0,0,0,0,0,0,0,0,0,-1,706,1730,0,0
-511,-706,0,0,0,0,0,0,0,0,0,-1,713,1730,0,0
-504,-706,0,0,0,0,0,0,0,0,0,-1,720,1730,0,0
-497,-706,0,0,0,0,0,0,0,0,0,-1,727,1730,0,0
-490,-706,0,0,0,0,0,0,0,0,0,-1,734,1730,0,0
-483,-706,0,0,0,0,0,0,0,0,0,-1,741,1730,0,0
-476,-706,0,0,0,0,0,0,0,0,0,-1,748,1730,0,0
-469,-706,0,0,0,0,0,0,0,0,0,-1,755,1730,0,0
-462,-706,0,0,0,0,0,0,0,0,0,-1,762,1730,0,0
-455,-706,0,0,0,0,0,0,0,0,0,-1,769,1730,0,0
-448,-706,0,0,0,0,0,0,0,0,0,-1,776,1730,0,0
-441,-706,0,0,0,0,0,0,0,0,0,-1,783,1730,0,0
-434,-706,0,0,0,0,0,0,0,0,0,-1,790,1730,0,0
-427,-706,0,0,0,0,0,0,0,0,0,-1,797,1730,0,0
-420,-706,0,0,0,0,0,0,0,0,0,-1,804,1730,0,0
-413,-706,0,0,0,0,0,0,0,0,0,-1,811,1730,0,0
-406,-706,0,0,0,0,0,0,0,0,0,-1,818,1730,0,0
-399,-706,0,0,0,0,0,0,0,0,0,-1,825,1730,0,0
-392,-706,0,0,0,0,0,0,0,0,0,-1,832,1730,0,0
-385,-706,0,0,0,0,0,0,0,0,0,-1,839,1730,0,0
-378,-706,0,0,0,0,0,0,0,0,0,-1,846,1730,0,0
-371,-706,0,0,0,0,0,0,0,0,0,-1,853,1730,0,0
-364,-706,0,0,0,0,0,0,0,0,0,-1,860,1730,0,0
-357,-706,0,0,0,0,0,0,0,0,0,-1,867,1730,0,0
-350,-706,0,0,0,0,0,0,0,0,0,-1,874,1730,0,0
-343,-706,0,0,0,0,0,0,0,0,0,-1,881,1730,0,0
-336,-706,0,0,0,0,0,0,0,0,0,-1,888,1730,0,0
-329,-706,0,0,0,0,0,0,0,0,0,-1,895,1730,0,0
-322,-706,0,0,0,0,0,0,0,0,0,-1,902,1730,0,0
-315,-706,0,0,0,0,0,0,0,0,0,-1,909,1730,0,0
-308,-706,5.08191,14.6245,0,0,0,0,0,0,0,-1,916,1730,5.08188,-14.6245
-301,-706,7.45007,21.1975,0,0,0,0,0,0,0,-1,923,1730,7.45005,-21.1976
-294,-706,11.8603,21.026,0,0,0,0,0,0,0,-1,930,1730,11.8603,-21.026
-287,-706,10.3292,20.8425,0,0,0,0,0,0,0,-1,937,1730,10.3292,-20.8425
-280,-706,7.9162,21.8951,0,0,0,0,0,0,0,-1,944,1730,7.9162,-21.8952
-273,-706,7.38953,20.6355,0,0,0,0,0,0,0,-1,951,1730,7.38955,-20.6355
-266,-706,9.66724,22.8231,0,0,0,0,0,0,0,-1,958,1730,9.66722,-22.8231
-259,-706,3.47852,20.7363,0,0,0,0,0,0,0,-1,965,1730,3.47851,-20.7364
-252,-706,3.84259,20.1979,0,0,0,0,0,0,0,-1,972,1730,3.84256,-20.1979
-245,-706,4.698,19.2992,0,0,0,0,0,0,0,-1,979,1730,4.69799,-19.2991
-238,-706,7.87585,53.6793,0,0,0,0,0,0,0,-1,986,1730,7.87588,-53.6793
-231,-706,8.12811,53.9858,0,0,0,0,0,0,0,-1,993,1730,8.12809,-53.9859
-224,-706,8.11737,54.4551,0,0,0,0,0,0,0,-1,1000,1730,8.11735,-54.4551
-217,-706,8.25964,54.7936,0.00472617,0.0124008,0.0076079,0.0170844,4.26192e-05,1.01897,0.0113754,0.0408424,1007,1730,8.25963,-54.7935
-210,-706,8.40936,55.3054,0.00240084,0.0123138,0.0065619,0.0155808,-0.000866136,1.10885,0.0106876,0.040103,1014,1730,8.40939,-55.3055
-203,-706,8.44421,55.8474,0.000746144,0.0118568,0.00567922,0.014246,-0.00164303,1.17258,0.0100897,0.0332276,1021,1730,8.44419,-55.8474
-196,-706,8.3457,56.4609,-0.000502839,0.0110613,0.00500304,0.0129253,-0.00236686,1.21415,0.0095046,0.0259838,1028,1730,8.34569,-56.4609
-189,-706,8.23816,57.1239,-0.00138116,0.00998621,0.00448864,0.0115449,-0.00293986,1.23657,0.00884102,0.0212179,1035,1730,8.23815,-57.124
-182,-706,8.1947,57.713,-0.00211767,0.00826571,0.00373808,0.00947144,-0.00332339,1.25878,0.0076661,0.0164113,1042,1730,8.19465,-57.713
-175,-706,8.17822,58.2715,-0.00240423,0.00706987,0.00334652,0.00813272,-0.00346708,1.26327,0.00687535,0.0164992,1049,1730,8.17826,-58.2715
-168,-706,8.13892,58.7946,-0.00243486,0.00580575,0.00308076,0.00683015,-0.00345926,1.24978,0.00604593,0.0179042,1056,1730,8.13898,-58.7946
-161,-706,8.10535,59.322,-0.00256363,0.0046094,0.00280927,0.00557867,-0.0035329,1.23856,0.00530458,0.0144196,1063,1730,8.10537,-59.322
-154,-706,8.06177,59.8488,-0.00226581,0.00363391,0.0026514,0.00465036,-0.00328226,1.20471,0.00460255,0.0132644,1070,1730,8.06174,-59.8488
-147,-706,8.01282,60.3314,-0.00172779,0.00269097,0.00242735,0.00376388,-0.0028007,1.15461,0.00380363,0.0132618,1077,1730,8.01283,-60.3314
-140,-706,8.00024,60.8253,-0.00124361,0.00193001,0.00216008,0.00302348,-0.00233709,1.10219,0.00310337,0.0124781,1084,1730,8.00028,-60.8253
-133,-706,7.97278,61.2904,-0.000722953,0.00119133,0.001929,0.00238759,-0.00191922,1.01569,0.00249144,0.0098615,1091,1730,7.97284,-61.2904
-126,-706,7.95874,61.7247,-0.00017948,0.000871143,0.00172916,0.00215303,-0.00146136,0.932866,0.00209947,0.0147583,1098,1730,7.9587,-61.7247
-119,-706,7.94617,62.1643,0.000306522,0.000791056,0.00156182,0.00212928,-0.0010317,0.862344,0.00186131,0.0190739,1105,1730,7.94612,-62.1643
-112,-706,7.92468,62.6438,0.000807495,0.00100613,0.00145171,0.00236192,-0.000548288,0.819553,0.00178566,0.0130249,1112,1730,7.92467,-62.6437
-105,-706,7.89526,63.077,0.00116577,0.00111596,0.00123244,0.00237355,-9.18247e-05,0.775297,0.00161385,0.00964256,1119,1730,7.89522,-63.077
-98,-706,7.92603,63.4617,0.00141652,0.00113845,0.00102668,0.00231354,0.000241434,0.718099,0.00146851,0.0116506,1126,1730,7.92599,-63.4616
-91,-706,7.93347,63.8611,0.0017414,0.00118144,0.000801479,0.00231039,0.000612444,0.61736,0.00138211,0.0151982,1133,1730,7.93345,-63.861
-84,-706,7.91357,64.2554,0.00214425,0.00116893,0.000530964,0.00237751,0.000935663,0.413942,0.00138299,0.0184296,1140,1730,7.91354,-64.2553
-77,-706,7.90918,64.5648,0.00253244,0.00106112,0.000255633,0.00257559,0.00101797,0.167218,0.00149786,0.0165829,1147,1730,7.9092,-64.5649
-70,-706,7.90454,64.916,0.0028631,0.000800541,-2.17653e-05,0.00286332,0.000800312,-0.010551,0.00170588,0.0185762,1154,1730,7.90455,-64.9161
-63,-706,7.90625,65.2593,0.00321212,-3.14379e-06,-0.000102789,0.0032154,-6.42636e-06,-0.0319255,0.00214575,0.0138613,1161,1730,7.90626,-65.2593
-56,-706,7.92236,65.5432,0.00394981,-0.00178515,-0.000247034,0.00396043,-0.00179577,-0.042969,0.00340077,0.0135887,1168,1730,7.92237,-65.5432
-49,-706,7.91272,65.8284,0.00511794,-0.00369532,-0.0008177,0.00519316,-0.00377055,-0.0917372,0.00519688,0.015196,1175,1730,7.91269,-65.8283
-42,-706,7.96448,66.1265,0.00638691,-0.00510407,-0.00148332,0.0065753,-0.00529246,-0.126327,0.00686518,0.0194517,1182,1730,7.96442,-66.1265
-35,-706,8.02539,66.3704,0.00770961,-0.00615475,-0.00223041,0.00805959,-0.00650473,-0.155644,0.00842467,0.0177045,1189,1730,8.02545,-66.3703
-28,-706,8.07312,66.5851,0.00871342,-0.00719159,-0.00296539,0.00924831,-0.00772648,-0.178459,0.00981352,0.0118141,1196,1730,8.07307,-66.5851
-21,-706,8.09082,66.7661,0.0097269,-0.00855956,-0.00376938,0.0104734,-0.00930607,-0.195515,0.0114263,0.0136171,1203,1730,8.09087,-66.7662
-14,-706,8.14148,66.9841,0.0105961,-0.0096339,-0.00439031,0.0115078,-0.0105456,-0.204751,0.0127366,0.0129393,1210,1730,8.14143,-66.9841
-7,-706,8.20691,67.2079,0.0113392,-0.0101683,-0.00491033,0.0124073,-0.0112364,-0.214171,0.0136562,0.0096813,1217,1730,8.2069,-67.2079
0,-706,8.2843,67.3776,0.0119763,-0.0102347,-0.00527474,0.0131653,-0.0114237,-0.22171,0.0142083,0.0138997,1224,1730,8.28427,-67.3776
7,-706,8.32129,67.5181,0.0126375,-0.00888969,-0.00489081,0.0136965,-0.00994874,-0.213247,0.0137086,0.0168875,1231,1730,8.32126,-67.5181
14,-706,8.36914,67.6543,0.0131755,-0.00673973,-0.00391929,0.013919,-0.00748329,-0.187488,0.0125415,0.0169584,1238,1730,8.3691,-67.6543
21,-706,8.41772,67.7566,0.0134696,-0.00476909,-0.00298554,0.0139458,-0.00524537,-0.158194,0.0114533,0.013113,1245,1730,8.41776,-67.7565
28,-706,8.47437,67.8268,0.0137204,-0.00164915,-0.00137638,0.0138427,-0.00177144,-0.088613,0.00987205,0.0125248,1252,1730,8.47439,-67.8268
35,-706,8.5376,67.912,0.0157675,0.00222492,0.00173646,0.0159866,0.00200582,0.125518,0.010056,0.0139153,1259,1730,8.53763,-67.912
42,-706,8.60352,67.9761,0.0174962,0.00504335,0.00388668,0.0186097,0.00392984,0.27902,0.0113261,0.0113934,1266,1730,8.60352,-67.9761
49,-706,8.64709,68.0133,0.0184102,0.00817972,0.00674335,0.0217589,0.00483101,0.46092,0.0131938,0.0147018,1273,1730,8.64715,-68.0133
56,-706,8.73645,68.0378,0.0187585,0.0100878,0.0096102,0.024966,0.00388036,0.573505,0.0155132,0.0163389,1280,1730,8.73645,-68.0379
63,-706,8.81873,68.027,0.0184889,0.0112943,0.0121643,0.0275766,0.00220658,0.641632,0.0176948,0.0140141,1287,1730,8.8187,-68.027
70,-706,8.86353,68.0122,0.0177725,0.0113815,0.0136208,0.0285677,0.000586345,0.67018,0.0188527,0.0135275,1294,1730,8.86358,-68.0122
77,-706,8.90552,67.9767,0.0174586,0.0103797,0.0143319,0.0286817,-0.000843316,0.664339,0.0194083,0.0119478,1301,1730,8.90554,-67.9766
84,-706,8.97705,67.9314,0.0163297,0.00959953,0.0144811,0.0278316,-0.00190232,0.671235,0.0192199,0.00949931,1308,1730,8.97706,-67.9314
91,-706,9.04675,67.8915,0.0147497,0.00807036,0.0138704,0.0256768,-0.00285678,0.667259,0.0181452,0.0102856,1315,1730,9.04677,-67.8915
98,-706,9.09998,67.821,0.0128229,0.00649042,0.0131045,0.0231382,-0.00382491,0.666862,0.0168458,0.0139274,1322,1730,9.10001,-67.821
105,-706,9.13525,67.7394,0.0106553,0.00505649,0.0121366,0.0203111,-0.00459936,0.672052,0.015306,0.0166156,1329,1730,9.13524,-67.7394
112,-706,9.14001,67.6283,0.0083762,0.00331787,0.0106572,0.0168002,-0.00510615,0.668893,0.0132347,0.0171255,1336,1730,9.14007,-67.6283
119,-706,9.18298,67.4891,0.00636464,0.00212022,0.00921538,0.013699,-0.00521416,0.672226,0.0112799,0.0149949,1343,1730,9.18297,-67.4891
126,-706,9.27588,67.2852,0.00488894,0.00182147,0.00809727,0.0115964,-0.00488604,0.6918,0.00977552,0.0163184,1350,1730,9.27583,-67.2851
133,-706,9.37659,67.0458,0.00374569,0.00135488,0.00685117,0.00950496,-0.00440439,0.699027,0.00820857,0.0144702,1357,1730,9.37655,-67.0458
140,-706,9.42786,66.8011,0.00194014,0.000892845,0.00506502,0.00650851,-0.00367552,0.733888,0.00595511,0.0135972,1364,1730,9.42785,-66.8012
147,-706,9.48279,66.5941,0.00118955,0.00126975,0.00425139,0.00548123,-0.00302193,0.790114,0.00497728,0.0237576,1371,1730,9.48275,-66.5941
154,-706,9.53003,66.4274,0.00152104,0.00113145,0.00282742,0.00416036,-0.00150787,0.751005,0.00338989,0.0238094,1378,1730,9.53007,-66.4274
161,-706,9.51648,66.1593,0.00210376,0.00154566,0.00161727,0.00346588,0.000183542,0.699968,0.0022519,0.0115898,1385,1730,9.51652,-66.1592
168,-706,9.54517,65.8778,0.00305516,0.000901468,0.000227787,0.00307899,0.000877639,0.104229,0.0018316,0.0109643,1392,1730,9.5452,-65.8778
175,-706,9.60339,65.5983,0.00431842,0.000508746,2.11006e-05,0.00431854,0.000508629,0.00553845,0.00272535,0.0111303,1399,1730,9.60337,-65.5983
182,-706,9.59717,65.2915,0.00411911,0.000996446,-1.69266e-05,0.00411921,0.000996355,-0.00542034,0.00248161,0.0121523,1406,1730,9.59722,-65.2915
189,-706,9.61401,64.952,0.00432592,0.000715692,0.000210254,0.00433812,0.000703488,0.0579771,0.00268844,0.0163356,1413,1730,9.61395,-64.952
196,-706,9.63391,64.6165,0.004121,0.000789272,4.23184e-05,0.00412153,0.000788734,0.0126989,0.00252616,0.0137831,1420,1730,9.63389,-64.6165
203,-706,9.6333,64.2877,0.00366736,0.000846476,-0.000141987,0.00367449,0.000839347,-0.0501652,0.00222333,0.0142394,1427,1730,9.63336,-64.2878
210,-706,9.65918,63.9219,0.00318184,0.000889034,-0.000338976,0.0032309,0.000839968,-0.143748,0.00193568,0.013677,1434,1730,9.65917,-63.9218
217,-706,9.66199,63.5631,0.00264966,0.000947128,-0.000489341,0.00278028,0.000816503,-0.260857,0.00165012,0.0153874,1441,1730,9.66198,-63.5631
224,-706,9.63855,63.163,0.00212107,0.00102341,-0.000703468,0.00246447,0.000680003,-0.454129,0.00146972,0.0198501,1448,1730,9.63853,-63.163
231,-706,9.67175,62.7272,0.00155661,0.00110117,-0.000963333,0.00231877,0.000339008,-0.669336,0.00144615,0.0140475,1455,1730,9.6717,-62.7272
238,-706,9.66602,62.2936,0.00105851,0.00119598,-0.00116516,0.00229443,-3.99442e-05,-0.81486,0.00154311,0.00936913,1462,1730,9.66598,-62.2935
245,-706,9.65588,61.8483,0.000590459,0.00129964,-0.00132128,0.00231308,-0.000422987,-0.916493,0.00170068,0.0123447,1469,1730,9.65594,-61.8482
252,-706,9.63281,61.4083,9.25788e-05,0.0015724,-0.00144228,0.00245349,-0.000788511,-1.0224,0.00195231,0.0122683,1476,1730,9.63275,-61.4084
259,-706,9.62805,60.9491,-0.000399028,0.00175354,-0.00159324,0.00259996,-0.00124545,-1.08246,0.00226559,0.0129517,1483,1730,9.628,-60.9491
266,-706,9.58142,60.4796,-0.000858446,0.00193751,-0.00178205,0.00280449,-0.00172543,-1.118,0.00263997,0.0132691,1490,1730,9.58143,-60.4796
273,-706,9.54675,59.978,-0.00130623,0.00219003,-0.00192931,0.0030454,-0.0021616,-1.15348,0.00302067,0.0138771,1497,1730,9.54677,-59.9781
280,-706,9.53613,59.4435,-0.00181355,0.00249483,-0.00201142,0.0032879,-0.00260662,-1.19523,0.00341077,0.0115465,1504,1730,9.53619,-59.4435
287,-706,9.49133,58.9425,-0.00219629,0.00272688,-0.00205821,0.00347397,-0.00294338,-1.2226,0.00370928,0.0118607,1511,1730,9.49134,-58.9425
294,-706,9.46667,58.458,-0.00242368,0.00315488,-0.002202,0.00391932,-0.00318811,-1.23666,0.00411071,0.0118949,1518,1730,9.46662,-58.458
301,-706,9.45093,57.9194,-0.00272974,0.00360832,-0.00250342,0.00447784,-0.00359925,-1.2365,0.0046725,0.0111964,1525,1730,9.45091,-57.9194
308,-706,9.43921,57.3706,-0.00310049,0.00456355,-0.00301593,0.00560803,-0.00414497,-1.2374,0.00565197,0.0183852,1532,1730,9.43921,-57.3706
315,-706,9.44971,56.7804,-0.00342349,0.00619167,-0.00353056,0.0073488,-0.00458061,-1.25408,0.00694898,0.0436435,1539,1730,9.44973,-56.7804
322,-706,9.39282,56.2452,0,0,0,0,0,0,0,-1,1546,1730,9.39281,-56.2452
329,-706,9.26733,55.5966,-0.0034958,0.00920008,-0.00499453,0.0109294,-0.00522509,-1.23748,0.00951863,0.0381914,1553,1730,9.26735,-55.5966
336,-706,9.18115,55.1001,-0.00341471,0.0113135,-0.0060622,0.0134878,-0.00558895,-1.22643,0.0113243,0.0378006,1560,1730,9.18111,-55.1001
343,-706,9.1908,54.3892,-0.00291464,0.0136252,-0.00741784,0.0164646,-0.00575399,-1.20523,0.0133154,0.0492053,1567,1730,9.19079,-54.3891
350,-706,9.15369,53.7964,0,0,0,0,0,0,0,-1,1574,1730,9.15374,-53.7964
357,-706,9.10583,52.9056,0,0,0,0,0,0,0,-1,1581,1730,9.10585,-52.9057
364,-706,8.49194,51.9574,0,0,0,0,0,0,0,-1,1588,1730,8.49189,-51.9574
371,-706,8.6084,48.7302,0,0,0,0,0,0,0,-1,1595,1730,8.60844,-48.7303
378,-706,7.63867,44.0519,0,0,0,0,0,0,0,-1,1602,1730,7.63863,-44.0519
385,-706,7.3186,43.2451,0,0,0,0,0,0,0,-1,1609,1730,7.31862,-43.2451
392,-706,7.33728,42.4652,0,0,0,0,0,0,0,-1,1616,1730,7.3373,-42.4651
399,-706,7.51855,41.7692,0,0,0,0,0,0,0,-1,1623,1730,7.51855,-41.7691
406,-706,7.46301,40.9797,0,0,0,0,0,0,0,-1,1630,1730,7.46301,-40.9797
413,-706,8.43433,40.3345,0,0,0,0,0,0,0,-1,1637,1730,8.43428,-40.3344
420,-706,8.0636,39.6101,0,0,0,0,0,0,0,-1,1644,1730,8.06362,-39.6101
427,-706,0,0,0,0,0,0,0,0,0,-1,1651,1730,0,0
434,-706,0,0,0,0,0,0,0,0,0,-1,1658,1730,0,0
441,-706,0,0,0,0,0,0,0,0,0,-1,1665,1730,0,0
448,-706,0,0,0,0,0,0,0,0,0,-1,1672,1730,0,0
455,-706,0,0,0,0,0,0,0,0,0,-1,1679,1730,0,0
462,-706,0,0,0,0,0,0,0,0,0,-1,1686,1730,0,0
469,-706,0,0,0,0,0,0,0,0,0,-1,1693,1730,0,0
476,-706,0,0,0,0,0,0,0,0,0,-1,1700,1730,0,0
483,-706,0,0,0,0,0,0,0,0,0,-1,1707,1730,0,0
490,-706,0,0,0,0,0,0,0,0,0,-1,1714,1730,0,0
497,-706,0,0,0,0,0,0,0,0,0,-1,1721,1730,0,0
504,-706,0,0,0,0,0,0,0,0,0,-1,1728,1730,0,0
511,-706,0,0,0,0,0,0,0,0,0,-1,1735,1730,0,0
518,-706,0,0,0,0,0,0,0,0,0,-1,1742,1730,0,0
525,-706,0,0,0,0,0,0,0,0,0,-1,1749,1730,0,0
532,-706,0,0,0,0,0,0,0,0,0,-1,1756,1730,0,0
539,-706,0,0,0,0,0,0,0,0,0,-1,1763,1730,0,0
546,-706,0,0,0,0,0,0,0,0,0,-1,1770,1730,0,0
553,-706,0,0,0,0,0,0,0,0,0,-1,1777,1730,0,0
560,-706,0,0,0,0,0,0,0,0,0,-1,1784,1730,0,0
567,-706,0,0,0,0,0,0,0,0,0,-1,1791,1730,0,0
574,-706,0,0,0,0,0,0,0,0,0,-1,1798,1730,0,0
581,-706,0,0,0,0,0,0,0,0,0,-1,1805,1730,0,0
588,-706,0,0,0,0,0,0,0,0,0,-1,1812,1730,0,0
595,-706,0,0,0,0,0,0,0,0,0,-1,1819,1730,0,0
602,-706,0,0,0,0,0,0,0,0,0,-1,1826,1730,0,0
609,-706,0,0,0,0,0,0,0,0,0,-1,1833,1730,0,0
616,-706,0,0,0,0,0,0,0,0,0,-1,1840,1730,0,0
623,-706,0,0,0,0,0,0,0,0,0,-1,1847,1730,0,0
630,-706,0,0,0,0,0,0,0,0,0,-1,1854,1730,0,0
637,-706,0,0,0,0,0,0,0,0,0,-1,1861,1730,0,0
644,-706,0,0,0,0,0,0,0,0,0,-1,1868,1730,0,0
651,-706,0,0,0,0,0,0,0,0,0,-1,1875,1730,0,0
658,-706,0,0,0,0,0,0,0,0,0,-1,1882,1730,0,0
665,-706,0,0,0,0,0,0,0,0,0,-1,1889,1730,0,0
672,-706,0,0,0,0,0,0,0,0,0,-1,1896,1730,0,0
679,-706,0,0,0,0,0,0,0,0,0,-1,1903,1730,0,0
686,-706,0,0,0,0,0,0,0,0,0,-1,1910,1730,0,0
693,-706,0,0,0,0,0,0,0,0,0,-1,1917,1730,0,0
700,-706,0,0,0,0,0,0,0,0,0,-1,1924,1730,0,0
707,-706,0,0,0,0,0,0,0,0,0,-1,1931,1730,0,0
714,-706,0,0,0,0,0,0,0,0,0,-1,1938,1730,0,0
721,-706,0,0,0,0,0,0,0,0,0,-1,1945,1730,0,0
728,-706,0,0,0,0,0,0,0,0,0,-1,1952,1730,0,0
735,-706,0,0,0,0,0,0,0,0,0,-1,1959,1730,0,0
742,-706,0,0,0,0,0,0,0,0,0,-1,1966,1730,0,0
749,-706,0,0,0,0,0,0,0,0,0,-1,1973,1730,0,0
756,-706,0,0,0,0,0,0,0,0,0,-1,1980,1730,0,0
763,-706,0,0,0,0,0,0,0,0,0,-1,1987,1730,0,0
770,-706,0,0,0,0,0,0,0,0,0,-1,1994,1730,0,0
777,-706,0,0,0,0,0,0,0,0,0,-1,2001,1730,0,0
784,-706,0,0,0,0,0,0,0,0,0,-1,2008,1730,0,0
791,-706,0,0,0,0,0,0,0,0,0,-1,2015,1730,0,0
798,-706,0,0,0,0,0,0,0,0,0,-1,2022,1730,0,0
805,-706,0,0,0,0,0,0,0,0,0,-1,2029,1730,0,0
812,-706,0,0,0,0,0,0,0,0,0,-1,2036,1730,0,0
-700,-713,0,0,0,0,0,0,0,0,0,-1,524,1737,0,0
-693,-713,0,0,0,0,0,0,0,0,0,-1,531,1737,0,0
-686,-713,0,0,0,0,0,0,0,0,0,-1,538,1737,0,0
-679,-713,0,0,0,0,0,0,0,0,0,-1,545,1737,0,0
-672,-713,0,0,0,0,0,0,0,0,0,-1,552,1737,0,0
-665,-713,0,0,0,0,0,0,0,0,0,-1,559,1737,0,0
-658,-713,0,0,0,0,0,0,0,0,0,-1,566,1737,0,0
-651,-713,0,0,0,0,0,0,0,0,0,-1,573,1737,0,0
-644,-713,0,0,0,0,0,0,0,0,0,-1,580,1737,0,0
-637,-713,0,0,0,0,0,0,0,0,0,-1,587,1737,0,0
-630,-713,0,0,0,0,0,0,0,0,0,-1,594,1737,0,0
-623,-713,0,0,0,0,0,0,0,0,0,-1,601,1737,0,0
-616,-713,0,0,0,0,0,0,0,0,0,-1,608,1737,0,0
-609,-713,0,0,0,0,0,0,0,0,0,-1,615,1737,0,0
-602,-713,0,0,0,0,0,0,0,0,0,-1,622,1737,0,0
-595,-713,0,0,0,0,0,0,0,0,0,-1,629,1737,0,0
-588,-713,0,0,0,0,0,0,0,0,0,-1,636,1737,0,0
-581,-713,0,0,0,0,0,0,0,0,0,-1,643,1737,0,0
-574,-713,0,0,0,0,0,0,0,0,0,-1,650,1737,0,0
-567,-713,0,0,0,0,0,0,0,0,0,-1,657,1737,0,0
-560,-713,0,0,0,0,0,0,0,0,0,-1,664,1737,0,0
-553,-713,0,0,0,0,0,0,0,0,0,-1,671,1737,0,0
-546,-713,0,0,0,0,0,0,0,0,0,-1,678,1737,0,0
-539,-713,0,0,0,0,0,0,0,0,0,-1,685,1737,0,0
-532,-713,0,0,0,0,0,0,0,0,0,-1,692,1737,0,0
-525,-713,0,0,0,0,0,0,0,0,0,-1,699,1737,0,0
-518,-713,0,0,0,0,0,0,0,0,0,-1,706,1737,0,0
-511,-713,0,0,0,0,0,0,0,0,0,-1,713,1737,0,0
-504,-713,0,0,0,0,0,0,0,0,0,-1,720,1737,0,0
-497,-713,0,0,0,0,0,0,0,0,0,-1,727,1737,0,0
-490,-713,0,0,0,0,0,0,0,0,0,-1,734,1737,0,0
-483,-713,0,0,0,0,0,0,0,0,0,-1,741,1737,0,0
-476,-713,0,0,0,0,0,0,0,0,0,-1,748,1737,0,0
-469,-713,0,0,0,0,0,0,0,0,0,-1,755,1737,0,0
-462,-713,0,0,0,0,0,0,0,0,0,-1,762,1737,0,0
-455,-713,0,0,0,0,0,0,0,0,0,-1,769,1737,0,0
-448,-713,0,0,0,0,0,0,0,0,0,-1,776,1737,0,0
-441,-713,0,0,0,0,0,0,0,0,0,-1,783,1737,0,0
-434,-713,0,0,0,0,0,0,0,0,0,-1,790,1737,0,0
-427,-713,0,0,0,0,0,0,0,0,0,-1,797,1737,0,0
-420,-713,0,0,0,0,0,0,0,0,0,-1,804,1737,0,0
-413,-713,0,0,0,0,0,0,0,0,0,-1,811,1737,0,0
-406,-713,0,0,0,0,0,0,0,0,0,-1,818,1737,0,0
-399,-713,0,0,0,0,0,0,0,0,0,-1,825,1737,0,0
-392,-713,0,0,0,0,0,0,0,0,0,-1,832,1737,0,0
-385,-713,0,0,0,0,0,0,0,0,0,-1,839,1737,0,0
-378,-713,0,0,0,0,0,0,0,0,0,-1,846,1737,0,0
-371,-713,0,0,0,0,0,0,0,0,0,-1,853,1737,0,0
-364,-713,0,0,0,0,0,0,0,0,0,-1,860,1737,0,0
-357,-713,0,0,0,0,0,0,0,0,0,-1,867,1737,0,0
-350,-713,0,0,0,0,0,0,0,0,0,-1,874,1737,0,0
-343,-713,0,0,0,0,0,0,0,0,0,-1,881,1737,0,0
-336,-713,0,0,0,0,0,0,0,0,0,-1,888,1737,0,0
-329,-713,0,0,0,0,0,0,0,0,0,-1,895,1737,0,0
-322,-713,0,0,0,0,0,0,0,0,0,-1,902,1737,0,0
-315,-713,0,0,0,0,0,0,0,0,0,-1,909,1737,0,0
-308,-713,0,0,0,0,0,0,0,0,0,-1,916,1737,0,0
-301,-713,0,0,0,0,0,0,0,0,0,-1,923,1737,0,0
-294,-713,7.17883,22.0453,0,0,0,0,0,0,0,-1,930,1737,7.17881,-22.0453
-287,-713,11.8916,21.5834,0,0,0,0,0,0,0,-1,937,1737,11.8916,-21.5833
-280,-713,10.2786,21.3551,0,0,0,0,0,0,0,-1,944,1737,10.2787,-21.3551
-273,-713,11.1981,23.8683,0,0,0,0,0,0,0,-1,951,1737,11.198,-23.8683
-266,-713,3.17981,19.8851,0,0,0,0,0,0,0,-1,958,1737,3.17983,-19.8851
-259,-713,3.5921,19.6868,0,0,0,0,0,0,0,-1,965,1737,3.59207,-19.6868
-252,-713,4.55469,20.5758,0,0,0,0,0,0,0,-1,972,1737,4.55466,-20.5758
-245,-713,3.89014,25.9825,0,0,0,0,0,0,0,-1,979,1737,3.89013,-25.9826
-238,-713,6.62506,30.5463,0,0,0,0,0,0,0,-1,986,1737,6.62509,-30.5462
-231,-713,8.52356,54.5547,0,0,0,0,0,0,0,-1,993,1737,8.52359,-54.5547
-224,-713,8.64856,54.6,0,0,0,0,0,0,0,-1,1000,1737,8.64857,-54.6
-217,-713,8.78528,54.8555,0,0,0,0,0,0,0,-1,1007,1737,8.78528,-54.8554
-210,-713,8.96594,55.4213,0,0,0,0,0,0,0,-1,1014,1737,8.96594,-55.4213
-203,-713,8.72827,55.8073,0,0,0,0,0,0,0,-1,1021,1737,8.72832,-55.8073
-196,-713,8.6936,56.3655,-0.000613677,0.0152329,0.00601852,0.0172595,-0.00264031,1.24599,0.0124799,0.0488259,1028,1737,8.6936,-56.3655
-189,-713,8.79761,56.7192,-0.00197422,0.0138008,0.00553338,0.0155481,-0.0037216,1.26492,0.0118032,0.0444975,1035,1737,8.79757,-56.7192
-182,-713,8.70764,57.5637,-0.00310633,0.01161,0.00477112,0.0130214,-0.00451779,1.28317,0.0105155,0.0288213,1042,1737,8.7077,-57.5638
-175,-713,8.73706,58.1975,-0.00364195,0.00975915,0.00434858,0.0110466,-0.00492936,1.28296,0.0094464,0.0229391,1049,1737,8.73708,-58.1976
-168,-713,8.74023,58.766,-0.00380849,0.00791767,0.00406616,0.00918967,-0.0050805,1.26761,0.00835197,0.0260877,1056,1737,8.74019,-58.766
-161,-713,8.59448,59.3386,-0.004052,0.00621987,0.00377324,0.00745694,-0.00528906,1.25399,0.0073943,0.0133502,1063,1737,8.59443,-59.3387
-154,-713,8.51904,59.828,-0.00376,0.0048681,0.00363599,0.00619598,-0.00508789,1.22064,0.00652521,0.0118235,1070,1737,8.51903,-59.8281
-147,-713,8.47498,60.3535,-0.00319555,0.00355402,0.00339497,0.0049662,-0.00460773,1.17661,0.0055288,0.0198999,1077,1737,8.47501,-60.3535
-140,-713,8.4718,60.8864,-0.00271056,0.00253824,0.00311815,0.00398942,-0.00416174,1.13521,0.00470642,0.0203511,1084,1737,8.47185,-60.8863
-133,-713,8.41516,61.3206,-0.00216052,0.00152784,0.00286576,0.00309153,-0.00372421,1.0713,0.00394072,0.0135369,1091,1737,8.41519,-61.3206
-126,-713,8.39575,61.728,-0.00155193,0.00104674,0.00267712,0.00272318,-0.00322837,1.01133,0.00344025,0.0197541,1098,1737,8.39575,-61.728
-119,-713,8.38281,62.1505,-0.00104549,0.00085954,0.00248383,0.00256723,-0.00275318,0.968493,0.00307237,0.0265898,1105,1737,8.3828,-62.1505
-112,-713,8.32629,62.6542,-0.000477313,0.00122614,0.00239256,0.00291406,-0.00216523,0.956399,0.00294313,0.014194,1112,1737,8.32632,-62.6541
-105,-713,8.31335,63.0685,-7.18962e-05,0.00149579,0.0021801,0.00302868,-0.00160479,0.957974,0.00271691,0.012043,1119,1737,8.31334,-63.0684
-98,-713,8.3114,63.4707,0.000157143,0.00166542,0.00199909,0.00304789,-0.00122533,0.965765,0.00254084,0.0116626,1126,1737,8.31142,-63.4707
-91,-713,8.28247,63.8647,0.000425766,0.0018329,0.001797,0.00305915,-0.000800486,0.971987,0.00235212,0.0109002,1133,1737,8.28246,-63.8648
-84,-713,8.24805,64.25,0.000724392,0.00183422,0.00153845,0.00291478,-0.000356166,0.958484,0.00207214,0.0102615,1140,1737,8.24805,-64.2499
-77,-713,8.24292,64.5758,0.000998819,0.00182683,0.00127122,0.00274977,7.5887e-05,0.94282,0.00180841,0.0135608,1147,1737,8.24286,-64.5758
-70,-713,8.24585,64.9194,0.00120331,0.00164235,0.000960559,0.00240816,0.00043751,0.897736,0.0014813,0.0155956,1154,1737,8.24583,-64.9195
-63,-713,8.25037,65.2601,0.00147019,0.00119431,0.000731656,0.00207679,0.000587702,0.692227,0.00123611,0.0135182,1161,1737,8.25036,-65.2602
-56,-713,8.26465,65.5529,0.00192611,0.000350749,0.000506258,0.00207477,0.000202087,0.285621,0.00132098,0.012844,1168,1737,8.26464,-65.5528
-49,-713,8.2168,65.8369,0.00250004,-0.000780723,0.000129601,0.00250515,-0.000785835,0.0394216,0.0019846,0.0157793,1175,1737,8.21683,-65.8369
-42,-713,8.22412,66.1127,0.00323247,-0.00179086,-0.000204202,0.00324076,-0.00179915,-0.0405615,0.00294921,0.0192366,1182,1737,8.22406,-66.1127
-35,-713,8.2843,66.356,0.00409292,-0.00271036,-0.000569709,0.0041403,-0.00275774,-0.0829701,0.00400916,0.0155537,1189,1737,8.2843,-66.3559
-28,-713,8.30334,66.6229,0.0048271,-0.00377586,-0.000902053,0.00492067,-0.00386942,-0.103356,0.00508704,0.0140233,1196,1737,8.30338,-66.6229
-21,-713,8.30432,66.8143,0.005584,-0.00498736,-0.00120196,0.00571894,-0.0051223,-0.111799,0.00626235,0.010609,1203,1737,8.30427,-66.8143
-14,-713,8.32861,67.0117,0.00626701,-0.00599826,-0.00146022,0.00643846,-0.00616971,-0.116876,0.00727988,0.011828,1210,1737,8.32867,-67.0118
-7,-713,8.39453,67.2262,0.00685185,-0.00664898,-0.00165983,0.00705292,-0.00685005,-0.120551,0.00802717,0.00980303,1217,1737,8.39451,-67.2262
0,-713,8.4447,67.3826,0.0073783,-0.00691566,-0.00170418,0.00757867,-0.00711603,-0.117039,0.00848539,0.014678,1224,1737,8.44468,-67.3826
7,-713,8.46704,67.5144,0.0078519,-0.0065279,-0.00146419,0.00799947,-0.00667547,-0.100449,0.00848407,0.018944,1231,1737,8.46705,-67.5145
14,-713,8.47522,67.6755,0.00818241,-0.00575241,-0.00100116,0.00825397,-0.00582397,-0.0713571,0.00816816,0.0142013,1238,1737,8.47521,-67.6756
21,-713,8.51184,67.7896,0.00834427,-0.00495967,-0.000545922,0.00836664,-0.00498203,-0.0409429,0.007789,0.012019,1245,1737,8.51189,-67.7895
28,-713,8.53015,67.8636,0.00845704,-0.00365719,0.000120962,0.00845825,-0.00365839,0.00998375,0.00717618,0.0119952,1252,1737,8.53015,-67.8636
35,-713,8.5863,67.936,0.00988808,-0.00171713,0.00172107,0.0101379,-0.00196698,0.144168,0.00750075,0.0110969,1259,1737,8.58632,-67.936
42,-713,8.66797,67.995,0.0111408,-0.000478694,0.00262589,0.0117066,-0.00104456,0.21225,0.00817488,0.0104979,1266,1737,8.66802,-67.995
49,-713,8.70972,67.9789,0.0118074,0.00107,0.004081,0.0131824,-0.000304997,0.324981,0.00889169,0.0148829,1273,1737,8.70977,-67.9789
56,-713,8.7301,68.0078,0.0121187,0.00192541,0.0055751,0.0145757,-0.000531598,0.415101,0.00989908,0.0188959,1280,1737,8.73015,-68.0078
63,-713,8.76953,68.0461,0.0119885,0.00266183,0.00698056,0.0157201,-0.00106975,0.490919,0.0108543,0.0173874,1287,1737,8.76949,-68.0461
70,-713,8.82092,68.0488,0.0115021,0.00268598,0.00772199,0.0159856,-0.00179753,0.526044,0.011304,0.013462,1294,1737,8.82096,-68.0488
77,-713,8.86475,68.0181,0.011325,0.00226017,0.00804422,0.0160258,-0.00244064,0.528848,0.0115834,0.0127602,1301,1737,8.86478,-68.0181
84,-713,8.91052,67.9751,0.0105229,0.00196196,0.00805381,0.0153631,-0.0028782,0.541139,0.0113241,0.0125591,1308,1737,8.91051,-67.9752
91,-713,8.95911,67.9283,0.00941005,0.00132418,0.00783148,0.0141806,-0.00344637,0.54712,0.0107876,0.0126551,1315,1737,8.95909,-67.9283
98,-713,8.97913,67.8324,0.00809758,0.000620429,0.00753762,0.0127728,-0.00405483,0.555181,0.0101408,0.0120369,1322,1737,8.97911,-67.8324
105,-713,9.00146,67.7351,0.00662289,-1.80788e-05,0.00704366,0.0110895,-0.00448468,0.565139,0.00925736,0.0138378,1329,1737,9.00146,-67.7351
112,-713,9.03259,67.641,0.00511059,-0.000803879,0.00618834,0.00901199,-0.00470528,0.562504,0.00804873,0.0155473,1336,1737,9.03258,-67.641
119,-713,9.05029,67.5054,0.00377378,-0.00130029,0.00529388,0.00710715,-0.00463367,0.561947,0.00682852,0.0166568,1343,1737,9.05031,-67.5053
126,-713,9.08936,67.3312,0.00278099,-0.00136155,0.00449877,0.00566241,-0.00424297,0.56966,0.00573841,0.0150619,1350,1737,9.08937,-67.3311
133,-713,9.14478,67.109,0.00205079,-0.00137124,0.003614,0.00433835,-0.00365879,0.564311,0.0046227,0.0133912,1357,1737,9.14474,-67.109
140,-713,9.21045,66.865,0.000841447,-0.0013794,0.00235982,0.00233905,-0.00287701,0.565491,0.00301683,0.0141211,1364,1737,9.2105,-66.865
147,-713,9.21484,66.6384,0.000454642,-0.000727976,0.00184647,0.00180217,-0.00207551,0.630439,0.00224063,0.0146258,1371,1737,9.21479,-66.6384
154,-713,9.20911,66.4492,0.00081885,-0.00038891,0.000997238,0.0013808,-0.000950857,0.513152,0.00135379,0.0136944,1378,1737,9.20915,-66.4493
161,-713,9.22961,66.1548,0.00129599,0.000204162,0.000390479,0.00142126,7.88859e-05,0.310453,0.000922338,0.0101318,1385,1737,9.22959,-66.1548
168,-713,9.24609,65.8627,0.00187064,0.000139434,-0.000239739,0.00190323,0.000106848,-0.135094,0.00123474,0.0103934,1392,1737,9.2461,-65.8626
175,-713,9.26379,65.5858,0.00242221,0.000387461,-0.000262671,0.00245557,0.000354099,-0.126334,0.00153271,0.0139882,1399,1737,9.26377,-65.5858
182,-713,9.27527,65.2917,0.00219499,0.000789264,-0.000374482,0.00228853,0.000695727,-0.244769,0.0013547,0.0133004,1406,1737,9.27526,-65.2918
189,-713,9.29248,64.9744,0.00212163,0.000893645,-0.000435049,0.00226014,0.000755139,-0.308222,0.00132862,0.012424,1413,1737,9.29245,-64.9743
196,-713,9.2998,64.6426,0.00187583,0.00103776,-0.00061985,0.00220499,0.000708592,-0.488171,0.00129986,0.0131034,1420,1737,9.29984,-64.6426
203,-713,9.28711,64.306,0.0015165,0.00123911,-0.000813718,0.00220326,0.000552351,-0.700988,0.00132371,0.0167138,1427,1737,9.28708,-64.306
210,-713,9.2887,63.9063,0.00114235,0.00139969,-0.00100707,0.00228628,0.000255763,-0.848935,0.00144649,0.0143074,1434,1737,9.28868,-63.9062
217,-713,9.29333,63.524,0.000731265,0.0016042,-0.00117387,0.00242012,-8.46548e-05,-0.963388,0.00164236,0.0128689,1441,1737,9.29335,-63.5241
224,-713,9.28455,63.1573,0.000332472,0.00173641,-0.00138516,0.00258732,-0.000518436,-1.01993,0.00192115,0.012508,1448,1737,9.28458,-63.1574
231,-713,9.28308,62.7457,-0.000144284,0.00184545,-0.00157602,0.00271434,-0.00101318,-1.06694,0.00222554,0.0109897,1455,1737,9.28305,-62.7458
238,-713,9.24475,62.3062,-0.000589685,0.00197973,-0.00169588,0.00282257,-0.00143253,-1.10956,0.0025,0.00868525,1462,1737,9.24481,-62.3061
245,-713,9.22961,61.8704,-0.00102851,0.00209072,-0.00184441,0.00294652,-0.00188432,-1.13636,0.00281147,0.0112786,1469,1737,9.22966,-61.8704
252,-713,9.20215,61.4033,-0.00150652,0.00240588,-0.00197022,0.0032261,-0.00232673,-1.17631,0.00321992,0.0118004,1476,1737,9.20212,-61.4033
259,-713,9.19238,60.9181,-0.00194784,0.00261196,-0.00209073,0.00342546,-0.00276133,-1.19972,0.0035788,0.0125544,1483,1737,9.19243,-60.9181
266,-713,9.13123,60.4781,-0.00239267,0.00285461,-0.00223741,0.00367908,-0.00321715,-1.21774,0.00398452,0.0121493,1490,1737,9.13123,-60.4782
273,-713,9.07971,60.0027,-0.00286901,0.00317372,-0.00239664,0.00400884,-0.00370413,-1.2355,0.00445425,0.010499,1497,1737,9.07974,-60.0027
280,-713,9.03894,59.4775,-0.00340272,0.00356246,-0.00248804,0.00435992,-0.00420017,-1.26063,0.00494246,0.0108251,1504,1737,9.03889,-59.4775
287,-713,9.00757,58.9618,-0.00377895,0.00386958,-0.00255634,0.0046453,-0.00455467,-1.27618,0.0053117,0.0112065,1511,1737,9.00752,-58.9617
294,-713,8.99084,58.4508,-0.00395813,0.00444567,-0.00275103,0.00526613,-0.00477859,-1.28096,0.0058016,0.0201446,1518,1737,8.99083,-58.4508
301,-713,8.85156,57.8143,-0.00421538,0.00505044,-0.00312663,0.00600677,-0.00517171,-1.27397,0.0064599,0.037334,1525,1737,8.85159,-57.8144
308,-713,8.90515,57.314,0,0,0,0,0,0,0,-1,1532,1737,8.90511,-57.3139
315,-713,8.86487,56.5039,0,0,0,0,0,0,0,-1,1539,1737,8.86482,-56.5038
322,-713,9.14771,54.0642,0,0,0,0,0,0,0,-1,1546,1737,9.14768,-54.0642
329,-713,8.78601,55.5863,0,0,0,0,0,0,0,-1,1553,1737,8.78602,-55.5863
336,-713,8.73621,55.1804,0,0,0,0,0,0,0,-1,1560,1737,8.73615,-55.1804
343,-713,8.45264,54.3165,0,0,0,0,0,0,0,-1,1567,1737,8.45263,-54.3165
350,-713,8.63867,47.4143,0,0,0,0,0,0,0,-1,1574,1737,8.6387,-47.4143
357,-713,8.53796,49.5679,0,0,0,0,0,0,0,-1,1581,1737,8.53795,-49.5679
364,-713,7.52661,46.5348,0,0,0,0,0,0,0,-1,1588,1737,7.52664,-46.5347
371,-713,7.3302,45.0861,0,0,0,0,0,0,0,-1,1595,1737,7.33021,-45.0861
378,-713,6.73975,44.3853,0,0,0,0,0,0,0,-1,1602,1737,6.7397,-44.3853
385,-713,6.58777,43.6438,0,0,0,0,0,0,0,-1,1609,1737,6.58781,-43.6438
392,-713,6.62964,42.8679,0,0,0,0,0,0,0,-1,1616,1737,6.62968,-42.868
399,-713,6.53748,42.0555,0,0,0,0,0,0,0,-1,1623,1737,6.53749,-42.0555
406,-713,2.49878,27.8931,0,0,0,0,0,0,0,-1,1630,1737,2.49884,-27.893
413,-713,1.36597,29.459,0,0,0,0,0,0,0,-1,1637,1737,1.36593,-29.459
420,-713,0,0,0,0,0,0,0,0,0,-1,1644,1737,0,0
427,-713,0,0,0,0,0,0,0,0,0,-1,1651,1737,0,0
434,-713,0,0,0,0,0,0,0,0,0,-1,1658,1737,0,0
441,-713,0,0,0,0,0,0,0,0,0,-1,1665,1737,0,0
448,-713,0,0,0,0,0,0,0,0,0,-1,1672,1737,0,0
455,-713,0,0,0,0,0,0,0,0,0,-1,1679,1737,0,0
462,-713,0,0,0,0,0,0,0,0,0,-1,1686,1737,0,0
469,-713,0,0,0,0,0,0,0,0,0,-1,1693,1737,0,0
476,-713,0,0,0,0,0,0,0,0,0,-1,1700,1737,0,0
483,-713,0,0,0,0,0,0,0,0,0,-1,1707,1737,0,0
490,-713,0,0,0,0,0,0,0,0,0,-1,1714,1737,0,0
497,-713,0,0,0,0,0,0,0,0,0,-1,1721,1737,0,0
504,-713,0,0,0,0,0,0,0,0,0,-1,1728,1737,0,0
511,-713,0,0,0,0,0,0,0,0,0,-1,1735,1737,0,0
518,-713,0,0,0,0,0,0,0,0,0,-1,1742,1737,0,0
525,-713,0,0,0,0,0,0,0,0,0,-1,1749,1737,0,0
532,-713,0,0,0,0,0,0,0,0,0,-1,1756,1737,0,0
539,-713,0,0,0,0,0,0,0,0,0,-1,1763,1737,0,0
546,-713,0,0,0,0,0,0,0,0,0,-1,1770,1737,0,0
553,-713,0,0,0,0,0,0,0,0,0,-1,1777,1737,0,0
560,-713,0,0,0,0,0,0,0,0,0,-1,1784,1737,0,0
567,-713,0,0,0,0,0,0,0,0,0,-1,1791,1737,0,0
574,-713,0,0,0,0,0,0,0,0,0,-1,1798,1737,0,0
581,-713,0,0,0,0,0,0,0,0,0,-1,1805,1737,0,0
588,-713,0,0,0,0,0,0,0,0,0,-1,1812,1737,0,0
595,-713,0,0,0,0,0,0,0,0,0,-1,1819,1737,0,0
602,-713,0,0,0,0,0,0,0,0,0,-1,1826,1737,0,0
609,-713,0,0,0,0,0,0,0,0,0,-1,1833,1737,0,0
616,-713,0,0,0,0,0,0,0,0,0,-1,1840,1737,0,0
623,-713,0,0,0,0,0,0,0,0,0,-1,1847,1737,0,0
630,-713,0,0,0,0,0,0,0,0,0,-1,1854,1737,0,0
637,-713,0,0,0,0,0,0,0,0,0,-1,1861,1737,0,0
644,-713,0,0,0,0,0,0,0,0,0,-1,1868,1737,0,0
651,-713,0,0,0,0,0,0,0,0,0,-1,1875,1737,0,0
658,-713,0,0,0,0,0,0,0,0,0,-1,1882,1737,0,0
665,-713,0,0,0,0,0,0,0,0,0,-1,1889,1737,0,0
672,-713,0,0,0,0,0,0,0,0,0,-1,1896,1737,0,0
679,-713,0,0,0,0,0,0,0,0,0,-1,1903,1737,0,0
686,-713,0,0,0,0,0,0,0,0,0,-1,1910,1737,0,0
693,-713,0,0,0,0,0,0,0,0,0,-1,1917,1737,0,0
700,-713,0,0,0,0,0,0,0,0,0,-1,1924,1737,0,0
707,-713,0,0,0,0,0,0,0,0,0,-1,1931,1737,0,0
714,-713,0,0,0,0,0,0,0,0,0,-1,1938,1737,0,0
721,-713,0,0,0,0,0,0,0,0,0,-1,1945,1737,0,0
728,-713,0,0,0,0,0,0,0,0,0,-1,1952,1737,0,0
735,-713,0,0,0,0,0,0,0,0,0,-1,1959,1737,0,0
742,-713,0,0,0,0,0,0,0,0,0,-1,1966,1737,0,0
749,-713,0,0,0,0,0,0,0,0,0,-1,1973,1737,0,0
756,-713,0,0,0,0,0,0,0,0,0,-1,1980,1737,0,0
763,-713,0,0,0,0,0,0,0,0,0,-1,1987,1737,0,0
770,-713,0,0,0,0,0,0,0,0,0,-1,1994,1737,0,0
777,-713,0,0,0,0,0,0,0,0,0,-1,2001,1737,0,0
784,-713,0,0,0,0,0,0,0,0,0,-1,2008,1737,0,0
791,-713,0,0,0,0,0,0,0,0,0,-1,2015,1737,0,0
798,-713,0,0,0,0,0,0,0,0,0,-1,2022,1737,0,0
805,-713,0,0,0,0,0,0,0,0,0,-1,2029,1737,0,0
812,-713,0,0,0,0,0,0,0,0,0,-1,2036,1737,0,0
-700,-720,0,0,0,0,0,0,0,0,0,-1,524,1744,0,0
-693,-720,0,0,0,0,0,0,0,0,0,-1,531,1744,0,0
-686,-720,0,0,0,0,0,0,0,0,0,-1,538,1744,0,0
-679,-720,0,0,0,0,0,0,0,0,0,-1,545,1744,0,0
-672,-720,0,0,0,0,0,0,0,0,0,-1,552,1744,0,0
-665,-720,0,0,0,0,0,0,0,0,0,-1,559,1744,0,0
-658,-720,0,0,0,0,0,0,0,0,0,-1,566,1744,0,0
-651,-720,0,0,0,0,0,0,0,0,0,-1,573,1744,0,0
-644,-720,0,0,0,0,0,0,0,0,0,-1,580,1744,0,0
-637,-720,0,0,0,0,0,0,0,0,0,-1,587,1744,0,0
-630,-720,0,0,0,0,0,0,0,0,0,-1,594,1744,0,0
-623,-720,0,0,0,0,0,0,0,0,0,-1,601,1744,0,0
-616,-720,0,0,0,0,0,0,0,0,0,-1,608,1744,0,0
-609,-720,0,0,0,0,0,0,0,0,0,-1,615,1744,0,0
-602,-720,0,0,0,0,0,0,0,0,0,-1,622,1744,0,0
-595,-720,0,0,0,0,0,0,0,0,0,-1,629,1744,0,0
-588,-720,0,0,0,0,0,0,0,0,0,-1,636,1744,0,0
-581,-720,0,0,0,0,0,0,0,0,0,-1,643,1744,0,0
-574,-720,0,0,0,0,0,0,0,0,0,-1,650,1744,0,0
-567,-720,0,0,0,0,0,0,0,0,0,-1,657,1744,0,0
-560,-720,0,0,0,0,0,0,0,0,0,-1,664,1744,0,0
-553,-720,0,0,0,0,0,0,0,0,0,-1,671,1744,0,0
-546,-720,0,0,0,0,0,0,0,0,0,-1,678,1744,0,0
-539,-720,0,0,0,0,0,0,0,0,0,-1,685,1744,0,0
-532,-720,0,0,0,0,0,0,0,0,0,-1,692,1744,0,0
-525,-720,0,0,0,0,0,0,0,0,0,-1,699,1744,0,0
-518,-720,0,0,0,0,0,0,0,0,0,-1,706,1744,0,0
-511,-720,0,0,0,0,0,0,0,0,0,-1,713,1744,0,0
-504,-720,0,0,0,0,0,0,0,0,0,-1,720,1744,0,0
-497,-720,0,0,0,0,0,0,0,0,0,-1,727,1744,0,0
-490,-720,0,0,0,0,0,0,0,0,0,-1,734,1744,0,0
-483,-720,0,0,0,0,0,0,0,0,0,-1,741,1744,0,0
-476,-720,0,0,0,0,0,0,0,0,0,-1,748,1744,0,0
-469,-720,0,0,0,0,0,0,0,0,0,-1,755,1744,0,0
-462,-720,0,0,0,0,0,0,0,0,0,-1,762,1744,0,0
-455,-720,0,0,0,0,0,0,0,0,0,-1,769,1744,0,0
-448,-720,0,0,0,0,0,0,0,0,0,-1,776,1744,0,0
-441,-720,0,0,0,0,0,0,0,0,0,-1,783,1744,0,0
-434,-720,0,0,0,0,0,0,0,0,0,-1,790,1744,0,0
-427,-720,0,0,0,0,0,0,0,0,0,-1,797,1744,0,0
-420,-720,0,0,0,0,0,0,0,0,0,-1,804,1744,0,0
-413,-720,0,0,0,0,0,0,0,0,0,-1,811,1744,0,0
-406,-720,0,0,0,0,0,0,0,0,0,-1,818,1744,0,0
-399,-720,0,0,0,0,0,0,0,0,0,-1,825,1744,0,0
-392,-720,0,0,0,0,0,0,0,0,0,-1,832,1744,0,0
-385,-720,0,0,0,0,0,0,0,0,0,-1,839,1744,0,0
-378,-720,0,0,0,0,0,0,0,0,0,-1,846,1744,0,0
-371,-720,0,0,0,0,0,0,0,0,0,-1,853,1744,0,0
-364,-720,0,0,0,0,0,0,0,0,0,-1,860,1744,0,0
-357,-720,0,0,0,0,0,0,0,0,0,-1,867,1744,0,0
-350,-720,0,0,0,0,0,0,0,0,0,-1,874,1744,0,0
-343,-720,0,0,0,0,0,0,0,0,0,-1,881,1744,0,0
-336,-720,0,0,0,0,0,0,0,0,0,-1,888,1744,0,0
-329,-720,0,0,0,0,0,0,0,0,0,-1,895,1744,0,0
-322,-720,0,0,0,0,0,0,0,0,0,-1,902,1744,0,0
-315,-720,0,0,0,0,0,0,0,0,0,-1,909,1744,0,0
-308,-720,0,0,0,0,0,0,0,0,0,-1,916,1744,0,0
-301,-720,0,0,0,0,0,0,0,0,0,-1,923,1744,0,0
-294,-720,0,0,0,0,0,0,0,0,0,-1,930,1744,0,0
-287,-720,0,0,0,0,0,0,0,0,0,-1,937,1744,0,0
-280,-720,6.46796,22.6417,0,0,0,0,0,0,0,-1,944,1744,6.46793,-22.6417
-273,-720,8.54633,13.262,0,0,0,0,0,0,0,-1,951,1744,8.54636,-13.2619
-266,-720,7.28027,13.3165,0,0,0,0,0,0,0,-1,958,1744,7.28026,-13.3166
-259,-720,3.70563,18.6372,0,0,0,0,0,0,0,-1,965,1744,3.70564,-18.6372
-252,-720,4.00989,18.5059,0,0,0,0,0,0,0,-1,972,1744,4.00988,-18.5058
-245,-720,7.05634,33.8489,0,0,0,0,0,0,0,-1,979,1744,7.05634,-33.8489
-238,-720,5.02216,24.1455,0,0,0,0,0,0,0,-1,986,1744,5.02217,-24.1455
-231,-720,9.45819,50.8396,0,0,0,0,0,0,0,-1,993,1744,9.45816,-50.8396
-224,-720,10.0804,54.4775,0,0,0,0,0,0,0,-1,1000,1744,10.0805,-54.4775
-217,-720,9.41168,53.88,0,0,0,0,0,0,0,-1,1007,1744,9.41166,-53.88
-210,-720,8.74036,38.6686,0,0,0,0,0,0,0,-1,1014,1744,8.74035,-38.6686
-203,-720,8.89441,54.4926,0,0,0,0,0,0,0,-1,1021,1744,8.89436,-54.4925
-196,-720,9.08118,56.3926,0,0,0,0,0,0,0,-1,1028,1744,9.08118,-56.3926
-189,-720,9.39563,56.4669,0,0,0,0,0,0,0,-1,1035,1744,9.39565,-56.4669
-182,-720,9.47205,57.4147,-0.00416504,0.016112,0.00590096,0.0177043,-0.00575729,1.30724,0.0141188,0.0498432,1042,1744,9.47204,-57.4147
-175,-720,9.30371,58.0631,-0.00491027,0.0134837,0.00553082,0.0150187,-0.00644523,1.30008,0.0127174,0.0430536,1049,1744,9.30369,-58.0631
-168,-720,9.21533,58.7463,-0.00519558,0.0109239,0.00525075,0.0124834,-0.00675508,1.28209,0.0112702,0.0373441,1056,1744,9.21531,-58.7463
-161,-720,8.9635,59.3251,-0.00551632,0.00862237,0.00495492,0.0101859,-0.00707987,1.26513,0.010022,0.029722,1063,1744,8.96344,-59.325
-154,-720,8.9823,59.849,-0.00516707,0.00687533,0.0048828,0.00860632,-0.00689807,1.23011,0.00896956,0.0242358,1070,1744,8.98236,-59.849
-147,-720,8.93311,60.4309,-0.00452976,0.00517112,0.00465276,0.00704191,-0.00640055,1.1885,0.00776395,0.0259429,1077,1744,8.93315,-60.4309
-140,-720,8.9126,60.9348,-0.00401905,0.00391103,0.00439088,0.00586219,-0.00597021,1.15264,0.00683153,0.022445,1084,1744,8.91256,-60.9349
-133,-720,8.84973,61.354,-0.00341933,0.00264872,0.00412935,0.00473884,-0.00550944,1.10223,0.00592242,0.0168498,1091,1744,8.84974,-61.354
-126,-720,8.81677,61.8044,-0.00272419,0.0020077,0.00396772,0.00426133,-0.00497782,1.05425,0.00533957,0.0157667,1098,1744,8.8168,-61.8044
-119,-720,8.76843,62.2291,-0.0021949,0.00169523,0.00373371,0.00396014,-0.00445981,1.02553,0.00486411,0.0152101,1105,1744,8.76838,-62.2291
-112,-720,8.72754,62.6619,-0.00156084,0.002232,0.00365578,0.00445397,-0.00378281,1.02466,0.00476077,0.0141545,1112,1744,8.72749,-62.6618
-105,-720,8.71729,63.0648,-0.00113406,0.00261812,0.00343645,0.00465724,-0.00317318,1.03526,0.00454788,0.0149759,1119,1744,8.71728,-63.0648
-98,-720,8.69104,63.4708,-0.000965224,0.0028676,0.00325426,0.0047278,-0.00282543,1.0515,0.00440672,0.0122529,1126,1744,8.69107,-63.4708
-91,-720,8.64685,63.8621,-0.000777493,0.0030586,0.00303037,0.00472692,-0.00244581,1.06754,0.00421041,0.0102097,1133,1744,8.64683,-63.862
-84,-720,8.60815,64.2435,-0.000582885,0.00289499,0.00273007,0.0043929,-0.0020808,1.06897,0.00381622,0.0112301,1140,1744,8.60816,-64.2436
-77,-720,8.59265,64.6115,-0.000411158,0.00277781,0.0024229,0.00408381,-0.00171716,1.07642,0.00344085,0.0155964,1147,1744,8.5927,-64.6114
-70,-720,8.57935,64.9264,-0.000380407,0.00257024,0.00202443,0.00359989,-0.00141006,1.10028,0.00298318,0.0129684,1154,1744,8.5794,-64.9264
-63,-720,8.57495,65.2646,-0.000255356,0.00227762,0.00162732,0.00307321,-0.00105095,1.11607,0.00247466,0.0114314,1161,1744,8.5749,-65.2647
-56,-720,8.57837,65.5569,-4.01353e-05,0.00204236,0.00127599,0.00264804,-0.000645812,1.12762,0.00201542,0.0131731,1168,1744,8.57842,-65.5569
-49,-720,8.52966,65.8289,0.000198418,0.00139141,0.000910662,0.00188354,-0.000293715,1.07534,0.00136418,0.0191532,1175,1744,8.52965,-65.8288
-42,-720,8.51501,66.0858,0.000623774,0.000799863,0.00067416,0.0013917,3.19338e-05,0.85033,0.000917343,0.0221257,1182,1744,8.51496,-66.0858
-35,-720,8.54468,66.3544,0.0011592,9.01669e-05,0.000472346,0.001338,-8.86322e-05,0.361865,0.000922962,0.0198226,1189,1744,8.54467,-66.3544
-28,-720,8.55176,66.6361,0.00160499,-0.000696768,0.000231558,0.00162805,-0.000719831,0.0992749,0.00138895,0.0116522,1196,1744,8.5518,-66.6361
-21,-720,8.54333,66.8679,0.00209214,-0.00143714,0.000139548,0.00209765,-0.00144265,0.039458,0.00205562,0.009766,1203,1744,8.54331,-66.8679
-14,-720,8.53833,67.0387,0.00259513,-0.00214845,0.000112837,0.00259782,-0.00215113,0.0237694,0.00274585,0.0123058,1210,1744,8.53834,-67.0387
-7,-720,8.56909,67.2361,0.00299535,-0.00264862,5.25671e-05,0.00299584,-0.00264911,0.00931277,0.00326116,0.0129861,1217,1744,8.5691,-67.2361
0,-720,8.59058,67.4142,0.00342221,-0.00274891,0.000127307,0.00342483,-0.00275154,0.0206177,0.00357299,0.0133599,1224,1744,8.59064,-67.4142
7,-720,8.61011,67.5295,0.00377117,-0.00260298,0.000232889,0.00377967,-0.00261147,0.0364717,0.00371042,0.0162506,1231,1744,8.61005,-67.5296
14,-720,8.62695,67.6758,0.00399374,-0.0023296,0.000352149,0.00401329,-0.00234916,0.0554617,0.00371501,0.0150062,1238,1744,8.627,-67.6758
21,-720,8.62292,67.8035,0.00411992,-0.00201586,0.000460814,0.00415433,-0.00205027,0.0745456,0.00365024,0.0118622,1245,1744,8.62291,-67.8035
28,-720,8.62842,67.8966,0.00420114,-0.00169183,0.000521273,0.0042469,-0.00173758,0.0875508,0.00355495,0.0113495,1252,1744,8.62838,-67.8966
35,-720,8.66333,67.9666,0.00513072,-0.00106485,0.00108144,0.00531406,-0.00124819,0.167937,0.00402383,0.0115864,1259,1744,8.66337,-67.9666
42,-720,8.70032,68.0116,0.00590486,-0.00105199,0.00114206,0.00608755,-0.00123468,0.158618,0.00452641,0.0118903,1266,1744,8.70034,-68.0116
49,-720,8.73462,68.0203,0.00628361,-0.000873762,0.00155859,0.00660828,-0.00119843,0.205374,0.00485456,0.015747,1273,1744,8.73458,-68.0203
56,-720,8.74377,68.0609,0.00648082,-0.000952845,0.00206506,0.00701597,-0.00148799,0.253564,0.00524415,0.0157502,1280,1744,8.7438,-68.0609
63,-720,8.77478,68.0885,0.00635122,-0.000792414,0.00267045,0.00723913,-0.00168033,0.320996,0.00547287,0.0159363,1287,1744,8.77477,-68.0885
70,-720,8.81458,68.0867,0.00601831,-0.00089635,0.00303783,0.00716332,-0.00204136,0.360451,0.00558184,0.0147276,1294,1744,8.81461,-68.0866
77,-720,8.82532,68.0358,0.00588848,-0.00119073,0.00326456,0.00716407,-0.00246633,0.372498,0.00577641,0.0164175,1301,1744,8.82534,-68.0357
84,-720,8.85645,67.9409,0.00530414,-0.00139303,0.00330112,0.00665772,-0.00274662,0.38913,0.00558392,0.0153481,1308,1744,8.85642,-67.941
91,-720,8.89197,67.8739,0.00446008,-0.00153388,0.00328715,0.00591138,-0.00298518,0.41577,0.00522823,0.0153581,1315,1744,8.89192,-67.8739
98,-720,8.86694,67.8278,0.00355486,-0.0017252,0.00333831,0.0051709,-0.00334124,0.450836,0.00495218,0.0139752,1322,1744,8.86693,-67.8277
105,-720,8.87805,67.7213,0.00255371,-0.0018981,0.00325026,0.0042672,-0.00361159,0.485159,0.00455407,0.0122087,1329,1744,8.87807,-67.7213
112,-720,8.90479,67.5952,0.00164849,-0.00201136,0.00297568,0.00331189,-0.00367475,0.509724,0.00403555,0.0122317,1336,1744,8.90475,-67.5953
119,-720,8.90857,67.4657,0.000905929,-0.00203552,0.00261161,0.00243246,-0.00356205,0.528957,0.00348135,0.0127576,1343,1744,8.9086,-67.4657
126,-720,8.94214,67.2878,0.000410523,-0.00195468,0.00219561,0.00172176,-0.00326592,0.538365,0.00292528,0.0121835,1350,1744,8.94213,-67.2879
133,-720,8.97876,67.0978,0.000128971,-0.00174854,0.00172199,0.00115147,-0.00277104,0.535839,0.00232812,0.0134611,1357,1744,8.97877,-67.0978
140,-720,9.01526,66.9148,-0.000426403,-0.00156245,0.00100513,0.000160105,-0.00214895,0.528209,0.00148888,0.0196676,1364,1744,9.01526,-66.9148
147,-720,8.99438,66.683,-0.000468614,-0.00101417,0.000698417,8.40356e-06,-0.00149119,0.599223,0.00099694,0.0199776,1371,1744,8.99437,-66.683
154,-720,8.96143,66.4415,-0.000138127,-0.000658442,0.000219813,-5.76969e-05,-0.000738871,0.350769,0.000474519,0.0130845,1378,1744,8.96137,-66.4415
161,-720,8.99585,66.156,0.000170098,-0.000228133,-0.000120089,0.000203509,-0.000261543,-0.271353,0.000269194,0.0103808,1385,1744,8.99589,-66.156
168,-720,8.98071,65.8755,0.00042566,-0.000187659,-0.000492682,0.000699324,-0.000461323,-0.507024,0.00067478,0.0107968,1392,1744,8.98067,-65.8754
175,-720,8.95996,65.5758,0.000498692,8.11519e-05,-0.000707933,0.001028,-0.000448153,-0.642012,0.000873898,0.0163226,1399,1744,8.95998,-65.5758
182,-720,8.96594,65.2882,0.000295719,0.00042732,-0.000830564,0.00119469,-0.000471648,-0.824928,0.000991788,0.0159025,1406,1744,8.96593,-65.2882
189,-720,9.00098,64.9858,7.15758e-05,0.000824684,-0.0010637,0.00157652,-0.000680257,-0.955516,0.00133676,0.012682,1413,1744,9.00103,-64.9859
196,-720,8.98328,64.6328,-0.00023351,0.00112994,-0.00129056,0.00190777,-0.00101134,-1.02839,0.00171163,0.0137351,1420,1744,8.98333,-64.6328
203,-720,8.92468,64.2797,-0.000553594,0.00159721,-0.00151414,0.00237899,-0.00133537,-1.09418,0.00217252,0.0156481,1427,1744,8.92462,-64.2797
210,-720,8.91577,63.9323,-0.00081278,0.00194145,-0.00172511,0.00277169,-0.00164303,-1.12224,0.00257646,0.0139015,1434,1744,8.91576,-63.9323
217,-720,8.9093,63.5289,-0.00110013,0.00231427,-0.00192332,0.00317878,-0.00196464,-1.14837,0.00299701,0.0143888,1441,1744,8.90936,-63.5289
224,-720,8.89063,63.1244,-0.00137251,0.00251926,-0.00213094,0.00345909,-0.00231234,-1.15542,0.00335399,0.010622,1448,1744,8.8906,-63.1243
231,-720,8.88965,62.7209,-0.00178812,0.00266361,-0.0022861,0.00362847,-0.00275298,-1.17142,0.00369587,0.0102788,1455,1744,8.88969,-62.721
238,-720,8.85144,62.3004,-0.00217906,0.00284224,-0.00236957,0.00378386,-0.00312069,-1.19255,0.00399247,0.00903096,1462,1744,8.85139,-62.3005
245,-720,8.81323,61.8905,-0.0025626,0.00298907,-0.00254369,0.00397829,-0.00355182,-1.1999,0.00434983,0.0112546,1469,1744,8.81321,-61.8905
252,-720,8.77356,61.4324,-0.00300895,0.00336994,-0.00271673,0.00437015,-0.00400915,-1.21803,0.00483929,0.0115536,1476,1744,8.77357,-61.4323
259,-720,8.72595,60.9606,-0.00340027,0.00363068,-0.00284494,0.00463762,-0.00440721,-1.23061,0.0052226,0.0112199,1483,1744,8.72594,-60.9606
266,-720,8.67432,60.4852,-0.00382638,0.00396602,-0.00298052,0.00497532,-0.00483568,-1.24429,0.00566457,0.00933371,1490,1744,8.67431,-60.4852
273,-720,8.63269,59.9923,-0.00431401,0.00440143,-0.00319038,0.00544447,-0.00535705,-1.25482,0.00623633,0.0148995,1497,1744,8.63274,-59.9923
280,-720,8.53198,59.488,-0.0048523,0.00492387,-0.00333257,0.00595181,-0.00588024,-1.2716,0.00683128,0.0212429,1504,1744,8.53192,-59.488
287,-720,8.48291,58.9225,-0.00520058,0.00538115,-0.00346413,0.00641433,-0.00623376,-1.28095,0.00730262,0.0363065,1511,1744,8.48297,-58.9224
294,-720,8.53149,58.4017,0,0,0,0,0,0,0,-1,1518,1744,8.53151,-58.4017
301,-720,8.27844,57.6843,0,0,0,0,0,0,0,-1,1525,1744,8.27843,-57.6844
308,-720,8.48608,51.5551,0,0,0,0,0,0,0,-1,1532,1744,8.48612,-51.555
315,-720,8.66516,48.6633,0,0,0,0,0,0,0,-1,1539,1744,8.6651,-48.6633
322,-720,8.98181,43.5223,0,0,0,0,0,0,0,-1,1546,1744,8.98176,-43.5223
329,-720,9.15906,34.7668,0,0,0,0,0,0,0,-1,1553,1744,9.1591,-34.7669
336,-720,6.14148,26.5682,0,0,0,0,0,0,0,-1,1560,1744,6.14151,-26.5683
343,-720,6.78552,21.3625,0,0,0,0,0,0,0,-1,1567,1744,6.78551,-21.3625
350,-720,4.0741,11.1836,0,0,0,0,0,0,0,-1,1574,1744,4.07412,-11.1836
357,-720,6.90833,21.4504,0,0,0,0,0,0,0,-1,1581,1744,6.90827,-21.4505
364,-720,6.59497,44.1384,0,0,0,0,0,0,0,-1,1588,1744,6.59492,-44.1385
371,-720,6.67773,45.2386,0,0,0,0,0,0,0,-1,1595,1744,6.67779,-45.2386
378,-720,3.88257,25.5404,0,0,0,0,0,0,0,-1,1602,1744,3.88262,-25.5404
385,-720,4.672,37.3854,0,0,0,0,0,0,0,-1,1609,1744,4.67202,-37.3854
392,-720,4.89319,36.2684,0,0,0,0,0,0,0,-1,1616,1744,4.89323,-36.2684
399,-720,2.37317,24.7166,0,0,0,0,0,0,0,-1,1623,1744,2.37317,-24.7166
406,-720,0,0,0,0,0,0,0,0,0,-1,1630,1744,0,0
413,-720,0,0,0,0,0,0,0,0,0,-1,1637,1744,0,0
420,-720,0,0,0,0,0,0,0,0,0,-1,1644,1744,0,0
427,-720,0,0,0,0,0,0,0,0,0,-1,1651,1744,0,0
434,-720,0,0,0,0,0,0,0,0,0,-1,1658,1744,0,0
441,-720,0,0,0,0,0,0,0,0,0,-1,1665,1744,0,0
448,-720,0,0,0,0,0,0,0,0,0,-1,1672,1744,0,0
455,-720,0,0,0,0,0,0,0,0,0,-1,1679,1744,0,0
462,-720,0,0,0,0,0,0,0,0,0,-1,1686,1744,0,0
469,-720,0,0,0,0,0,0,0,0,0,-1,1693,1744,0,0
476,-720,0,0,0,0,0,0,0,0,0,-1,1700,1744,0,0
483,-720,0,0,0,0,0,0,0,0,0,-1,1707,1744,0,0
490,-720,0,0,0,0,0,0,0,0,0,-1,1714,1744,0,0
497,-720,0,0,0,0,0,0,0,0,0,-1,1721,1744,0,0
504,-720,0,0,0,0,0,0,0,0,0,-1,1728,1744,0,0
511,-720,0,0,0,0,0,0,0,0,0,-1,1735,1744,0,0
518,-720,0,0,0,0,0,0,0,0,0,-1,1742,1744,0,0
525,-720,0,0,0,0,0,0,0,0,0,-1,1749,1744,0,0
532,-720,0,0,0,0,0,0,0,0,0,-1,1756,1744,0,0
539,-720,0,0,0,0,0,0,0,0,0,-1,1763,1744,0,0
546,-720,0,0,0,0,0,0,0,0,0,-1,1770,1744,0,0
553,-720,0,0,0,0,0,0,0,0,0,-1,1777,1744,0,0
560,-720,0,0,0,0,0,0,0,0,0,-1,1784,1744,0,0
567,-720,0,0,0,0,0,0,0,0,0,-1,1791,1744,0,0
574,-720,0,0,0,0,0,0,0,0,0,-1,1798,1744,0,0
581,-720,0,0,0,0,0,0,0,0,0,-1,1805,1744,0,0
588,-720,0,0,0,0,0,0,0,0,0,-1,1812,1744,0,0
595,-720,0,0,0,0,0,0,0,0,0,-1,1819,1744,0,0
602,-720,0,0,0,0,0,0,0,0,0,-1,1826,1744,0,0
609,-720,0,0,0,0,0,0,0,0,0,-1,1833,1744,0,0
616,-720,0,0,0,0,0,0,0,0,0,-1,1840,1744,0,0
623,-720,0,0,0,0,0,0,0,0,0,-1,1847,1744,0,0
630,-720,0,0,0,0,0,0,0,0,0,-1,1854,1744,0,0
637,-720,0,0,0,0,0,0,0,0,0,-1,1861,1744,0,0
644,-720,0,0,0,0,0,0,0,0,0,-1,1868,1744,0,0
651,-720,0,0,0,0,0,0,0,0,0,-1,1875,1744,0,0
658,-720,0,0,0,0,0,0,0,0,0,-1,1882,1744,0,0
665,-720,0,0,0,0,0,0,0,0,0,-1,1889,1744,0,0
672,-720,0,0,0,0,0,0,0,0,0,-1,1896,1744,0,0
679,-720,0,0,0,0,0,0,0,0,0,-1,1903,1744,0,0
686,-720,0,0,0,0,0,0,0,0,0,-1,1910,1744,0,0
693,-720,0,0,0,0,0,0,0,0,0,-1,1917,1744,0,0
700,-720,0,0,0,0,0,0,0,0,0,-1,1924,1744,0,0
707,-720,0,0,0,0,0,0,0,0,0,-1,1931,1744,0,0
714,-720,0,0,0,0,0,0,0,0,0,-1,1938,1744,0,0
721,-720,0,0,0,0,0,0,0,0,0,-1,1945,1744,0,0
728,-720,0,0,0,0,0,0,0,0,0,-1,1952,1744,0,0
735,-720,0,0,0,0,0,0,0,0,0,-1,1959,1744,0,0
742,-720,0,0,0,0,0,0,0,0,0,-1,1966,1744,0,0
749,-720,0,0,0,0,0,0,0,0,0,-1,1973,1744,0,0
756,-720,0,0,0,0,0,0,0,0,0,-1,1980,1744,0,0
763,-720,0,0,0,0,0,0,0,0,0,-1,1987,1744,0,0
770,-720,0,0,0,0,0,0,0,0,0,-1,1994,1744,0,0
777,-720,0,0,0,0,0,0,0,0,0,-1,2001,1744,0,0
784,-720,0,0,0,0,0,0,0,0,0,-1,2008,1744,0,0
791,-720,0,0,0,0,0,0,0,0,0,-1,2015,1744,0,0
798,-720,0,0,0,0,0,0,0,0,0,-1,2022,1744,0,0
805,-720,0,0,0,0,0,0,0,0,0,-1,2029,1744,0,0
812,-720,0,0,0,0,0,0,0,0,0,-1,2036,1744,0,0
-700,-727,0,0,0,0,0,0,0,0,0,-1,524,1751,0,0
-693,-727,0,0,0,0,0,0,0,0,0,-1,531,1751,0,0
-686,-727,0,0,0,0,0,0,0,0,0,-1,538,1751,0,0
-679,-727,0,0,0,0,0,0,0,0,0,-1,545,1751,0,0
-672,-727,0,0,0,0,0,0,0,0,0,-1,552,1751,0,0
-665,-727,0,0,0,0,0,0,0,0,0,-1,559,1751,0,0
-658,-727,0,0,0,0,0,0,0,0,0,-1,566,1751,0,0
-651,-727,0,0,0,0,0,0,0,0,0,-1,573,1751,0,0
-644,-727,0,0,0,0,0,0,0,0,0,-1,580,1751,0,0
-637,-727,0,0,0,0,0,0,0,0,0,-1,587,1751,0,0
-630,-727,0,0,0,0,0,0,0,0,0,-1,594,1751,0,0
-623,-727,0,0,0,0,0,0,0,0,0,-1,601,1751,0,0
-616,-727,0,0,0,0,0,0,0,0,0,-1,608,1751,0,0
-609,-727,0,0,0,0,0,0,0,0,0,-1,615,1751,0,0
-602,-727,0,0,0,0,0,0,0,0,0,-1,622,1751,0,0
-595,-727,0,0,0,0,0,0,0,0,0,-1,629,1751,0,0
-588,-727,0,0,0,0,0,0,0,0,0,-1,636,1751,0,0
-581,-727,0,0,0,0,0,0,0,0,0,-1,643,1751,0,0
-574,-727,0,0,0,0,0,0,0,0,0,-1,650,1751,0,0
-567,-727,0,0,0,0,0,0,0,0,0,-1,657,1751,0,0
-560,-727,0,0,0,0,0,0,0,0,0,-1,664,1751,0,0
-553,-727,0,0,0,0,0,0,0,0,0,-1,671,1751,0,0
-546,-727,0,0,0,0,0,0,0,0,0,-1,678,1751,0,0
-539,-727,0,0,0,0,0,0,0,0,0,-1,685,1751,0,0
-532,-727,0,0,0,0,0,0,0,0,0,-1,692,1751,0,0
-525,-727,0,0,0,0,0,0,0,0,0,-1,699,1751,0,0
-518,-727,0,0,0,0,0,0,0,0,0,-1,706,1751,0,0
-511,-727,0,0,0,0,0,0,0,0,0,-1,713,1751,0,0
-504,-727,0,0,0,0,0,0,0,0,0,-1,720,1751,0,0
-497,-727,0,0,0,0,0,0,0,0,0,-1,727,1751,0,0
-490,-727,0,0,0,0,0,0,0,0,0,-1,734,1751,0,0
-483,-727,0,0,0,0,0,0,0,0,0,-1,741,1751,0,0
-476,-727,0,0,0,0,0,0,0,0,0,-1,748,1751,0,0
-469,-727,0,0,0,0,0,0,0,0,0,-1,755,1751,0,0
-462,-727,0,0,0,0,0,0,0,0,0,-1,762,1751,0,0
-455,-727,0,0,0,0,0,0,0,0,0,-1,769,1751,0,0
-448,-727,0,0,0,0,0,0,0,0,0,-1,776,1751,0,0
-441,-727,0,0,0,0,0,0,0,0,0,-1,783,1751,0,0
-434,-727,0,0,0,0,0,0,0,0,0,-1,790,1751,0,0
-427,-727,0,0,0,0,0,0,0,0,0,-1,797,1751,0,0
-420,-727,0,0,0,0,0,0,0,0,0,-1,804,1751,0,0
-413,-727,0,0,0,0,0,0,0,0,0,-1,811,1751,0,0
-406,-727,0,0,0,0,0,0,0,0,0,-1,818,1751,0,0
-399,-727,0,0,0,0,0,0,0,0,0,-1,825,1751,0,0
-392,-727,0,0,0,0,0,0,0,0,0,-1,832,1751,0,0
-385,-727,0,0,0,0,0,0,0,0,0,-1,839,1751,0,0
-378,-727,0,0,0,0,0,0,0,0,0,-1,846,1751,0,0
-371,-727,0,0,0,0,0,0,0,0,0,-1,853,1751,0,0
-364,-727,0,0,0,0,0,0,0,0,0,-1,860,1751,0,0
-357,-727,0,0,0,0,0,0,0,0,0,-1,867,1751,0,0
-350,-727,0,0,0,0,0,0,0,0,0,-1,874,1751,0,0
-343,-727,0,0,0,0,0,0,0,0,0,-1,881,1751,0,0
-336,-727,0,0,0,0,0,0,0,0,0,-1,888,1751,0,0
-329,-727,0,0,0,0,0,0,0,0,0,-1,895,1751,0,0
-322,-727,0,0,0,0,0,0,0,0,0,-1,902,1751,0,0
-315,-727,0,0,0,0,0,0,0,0,0,-1,909,1751,0,0
-308,-727,0,0,0,0,0,0,0,0,0,-1,916,1751,0,0
-301,-727,0,0,0,0,0,0,0,0,0,-1,923,1751,0,0
-294,-727,0,0,0,0,0,0,0,0,0,-1,930,1751,0,0
-287,-727,0,0,0,0,0,0,0,0,0,-1,937,1751,0,0
-280,-727,0,0,0,0,0,0,0,0,0,-1,944,1751,0,0
-273,-727,0,0,0,0,0,0,0,0,0,-1,951,1751,0,0
-266,-727,4.24805,7.61145,0,0,0,0,0,0,0,-1,958,1751,4.24802,-7.6115
-259,-727,3.65228,5.4082,0,0,0,0,0,0,0,-1,965,1751,3.65229,-5.40818
-252,-727,5.8797,32.9292,0,0,0,0,0,0,0,-1,972,1751,5.87972,-32.9292
-245,-727,6.59198,32.2588,0,0,0,0,0,0,0,-1,979,1751,6.59195,-32.2587
-238,-727,6.6189,30.4597,0,0,0,0,0,0,0,-1,986,1751,6.61889,-30.4598
-231,-727,9.95819,51.5021,0,0,0,0,0,0,0,-1,993,1751,9.95818,-51.5021
-224,-727,10.0845,52.0088,0,0,0,0,0,0,0,-1,1000,1751,10.0845,-52.0088
-217,-727,10.2109,52.5154,0,0,0,0,0,0,0,-1,1007,1751,10.2109,-52.5154
-210,-727,5.0921,32.4524,0,0,0,0,0,0,0,-1,1014,1751,5.09209,-32.4523
-203,-727,14.1763,48.6819,0,0,0,0,0,0,0,-1,1021,1751,14.1763,-48.6819
-196,-727,13.0454,48.5956,0,0,0,0,0,0,0,-1,1028,1751,13.0455,-48.5955
-189,-727,10.3168,48.1697,0,0,0,0,0,0,0,-1,1035,1751,10.3168,-48.1697
-182,-727,10.214,57.3904,0,0,0,0,0,0,0,-1,1042,1751,10.214,-57.3903
-175,-727,9.92737,57.9479,0,0,0,0,0,0,0,-1,1049,1751,9.92735,-57.9479
-168,-727,9.59985,58.7634,0,0,0,0,0,0,0,-1,1056,1751,9.59986,-58.7635
-161,-727,9.29846,59.4111,0,0,0,0,0,0,0,-1,1063,1751,9.29848,-59.4111
-154,-727,9.44055,59.7924,0,0,0,0,0,0,0,-1,1070,1751,9.4406,-59.7924
-147,-727,9.46753,60.4402,0,0,0,0,0,0,0,-1,1077,1751,9.46748,-60.4402
-140,-727,9.19434,60.656,0,0,0,0,0,0,0,-1,1084,1751,9.19428,-60.656
-133,-727,9.44214,61.0289,0,0,0,0,0,0,0,-1,1091,1751,9.4421,-61.0289
-126,-727,9.18201,61.8083,-0.00370233,0.00329253,0.00565176,0.00644148,-0.00685128,1.06247,0.00767579,0.0218361,1098,1751,9.18195,-61.8083
-119,-727,9.17761,62.2312,-0.00313955,0.00288159,0.00533785,0.00599933,-0.00625729,1.04216,0.00707689,0.0302017,1105,1751,9.1776,-62.2312
-112,-727,9.1283,62.7415,0,0,0,0,0,0,0,-1,1112,1751,9.12825,-62.7415
-105,-727,8.97607,62.8794,-0.00200056,0.00417775,0.00499826,0.00696443,-0.00478724,1.06219,0.00682353,0.0432259,1119,1751,8.97603,-62.8794
-98,-727,9.04163,63.4442,-0.00191488,0.00448213,0.0047751,0.00703097,-0.00446373,1.08049,0.00669141,0.0175643,1126,1751,9.04165,-63.4442
-91,-727,9.00952,63.8385,-0.00182864,0.0046474,0.00449582,0.00694988,-0.00413112,1.09749,0.00646625,0.0133906,1133,1751,9.00948,-63.8385
-84,-727,8.96057,64.2465,-0.00175061,0.00423462,0.00411647,0.00633131,-0.0038473,1.0997,0.00593467,0.0129039,1140,1751,8.96058,-64.2464
-77,-727,8.91736,64.5939,-0.00169634,0.00392508,0.00372596,0.00578158,-0.00355284,1.10854,0.0054402,0.0139845,1147,1751,8.9174,-64.5939
-70,-727,8.89941,64.953,-0.00188369,0.00359872,0.0031808,0.00505652,-0.0033415,1.14105,0.00488219,0.0143562,1154,1751,8.89936,-64.953
-63,-727,8.87488,65.2876,-0.00195846,0.00328483,0.00260107,0.00435623,-0.00302986,1.18007,0.00428722,0.0113955,1161,1751,8.87494,-65.2876
-56,-727,8.83655,65.569,-0.00189146,0.00327951,0.0020713,0.00400688,-0.00261883,1.23308,0.00385323,0.0115068,1168,1751,8.83658,-65.5689
-49,-727,8.8103,65.8353,-0.00168108,0.0028222,0.00154284,0.00330007,-0.00215896,1.27043,0.00317464,0.0137398,1175,1751,8.81025,-65.8353
-42,-727,8.8114,66.1033,-0.00129184,0.00264706,0.00121056,0.00298936,-0.00163414,1.29523,0.00270733,0.0172617,1182,1751,8.81141,-66.1033
-35,-727,8.79736,66.3696,-0.000907325,0.00253877,0.00123194,0.00293387,-0.00130243,1.26044,0.00250556,0.0158009,1189,1751,8.79735,-66.3696
-28,-727,8.76843,66.6115,-0.000757879,0.00234779,0.00118634,0.0027491,-0.00115919,1.2446,0.00231785,0.00955395,1196,1751,8.76847,-66.6115
-21,-727,8.74158,66.8555,-0.000520906,0.00217865,0.0013028,0.00270482,-0.00104708,1.18695,0.00223553,0.0115038,1203,1751,8.74161,-66.8555
-14,-727,8.73706,67.0315,-0.000207995,0.00190292,0.00154197,0.00271606,-0.00102113,1.08552,0.00223041,0.0133182,1210,1751,8.73701,-67.0315
-7,-727,8.7334,67.2185,-5.27829e-06,0.00168851,0.00166587,0.0027104,-0.00102717,1.02056,0.00222964,0.0164526,1217,1751,8.7334,-67.2185
0,-727,8.74072,67.4431,0.0003484,0.00195545,0.00193013,0.00324263,-0.000938783,0.98264,0.00253334,0.0150915,1224,1751,8.74076,-67.4431
7,-727,8.75085,67.5505,0.000672802,0.00236712,0.00216057,0.00384068,-0.000800755,0.972237,0.00286492,0.0139537,1231,1751,8.75087,-67.5505
14,-727,8.74658,67.6765,0.000949249,0.00283104,0.00230339,0.0043783,-0.000598007,0.979297,0.00313726,0.0143936,1238,1751,8.74662,-67.6765
21,-727,8.72998,67.8094,0.00116539,0.00319303,0.00235551,0.00474364,-0.000385214,0.988616,0.00329834,0.0127486,1245,1751,8.72998,-67.8095
28,-727,8.74414,67.8993,0.00139132,0.00344394,0.00238038,0.00500984,-0.000174578,0.988934,0.00339958,0.0112532,1252,1751,8.74409,-67.8992
35,-727,8.76917,67.9735,0.00210249,0.00371821,0.00253436,0.00557036,0.000250345,0.939688,0.003633,0.0129508,1259,1751,8.76919,-67.9735
42,-727,8.74646,68.0044,0.00265696,0.00352731,0.00235226,0.00548431,0.000699964,0.876866,0.00344666,0.0131508,1266,1751,8.74643,-68.0044
49,-727,8.7356,68.0317,0.0029435,0.00326991,0.00227977,0.00539231,0.0008211,0.821132,0.00335484,0.0117359,1273,1751,8.73555,-68.0317
56,-727,8.72705,68.1038,0.00313203,0.00290589,0.0021748,0.0051967,0.000841228,0.759426,0.00322088,0.0110348,1280,1751,8.72706,-68.1038
63,-727,8.75562,68.1002,0.00307528,0.00265942,0.00223982,0.00511679,0.000617898,0.739114,0.00322502,0.0131451,1287,1751,8.7556,-68.1002
70,-727,8.78613,68.0684,0.00290082,0.00217999,0.00221176,0.00478134,0.000299466,0.704631,0.00309258,0.0156744,1294,1751,8.78619,-68.0683
77,-727,8.7937,68.0502,0.0027677,0.00156184,0.00210372,0.00435318,-2.36435e-05,0.645839,0.00291003,0.0183354,1301,1751,8.7937,-68.0502
84,-727,8.81641,67.9016,0.0023255,0.00092585,0.00196868,0.00371504,-0.000463689,0.614624,0.00264484,0.0178332,1308,1751,8.81645,-67.9017
91,-727,8.81396,67.7988,0.00163184,0.000509418,0.00179188,0.00294834,-0.000807085,0.633639,0.00228266,0.0195746,1315,1751,8.81399,-67.7988
98,-727,8.78467,67.7849,0.000965988,2.31251e-05,0.0017853,0.00234105,-0.00135194,0.656313,0.00215749,0.0158907,1322,1751,8.78464,-67.785
105,-727,8.78088,67.6827,0.000170647,-0.000517665,0.00168294,0.00154426,-0.00189127,0.68454,0.00198687,0.0140535,1329,1751,8.78093,-67.6827
112,-727,8.7865,67.5767,-0.000499414,-0.000915771,0.00150934,0.000816036,-0.00223122,0.716867,0.00182148,0.0124129,1336,1751,8.78644,-67.5766
119,-727,8.77966,67.4612,-0.00102326,-0.00121544,0.00131665,0.0002008,-0.0024395,0.748971,0.00169723,0.0102716,1343,1751,8.77971,-67.4612
126,-727,8.81396,67.2689,-0.00130795,-0.00134206,0.00110275,-0.000222126,-0.00242788,0.777668,0.00154986,0.0115877,1350,1751,8.81399,-67.2689
133,-727,8.82373,67.0952,-0.00145903,-0.0013547,0.000758784,-0.000646292,-0.00216744,0.819717,0.0012849,0.0164233,1357,1751,8.82369,-67.0952
140,-727,8.82043,66.9189,-0.00171036,-0.00126767,0.000367999,-0.00105958,-0.00191845,1.05615,0.00110964,0.0229273,1364,1751,8.82038,-66.919
147,-727,8.79871,66.6859,-0.00170737,-0.00101155,0.000122349,-0.000990664,-0.00172825,1.40172,0.00100137,0.0191897,1371,1751,8.7987,-66.6859
154,-727,8.75879,66.4146,-0.00157269,-0.000804634,-0.00017423,-0.000766959,-0.00161037,-1.35784,0.000930095,0.0122417,1378,1751,8.75877,-66.4145
161,-727,8.75586,66.1587,-0.00149678,-0.000583832,-0.000406801,-0.000428869,-0.00165174,-1.20684,0.000989681,0.0104395,1385,1751,8.75589,-66.1587
168,-727,8.7063,65.8933,-0.00147991,-0.000519072,-0.000851708,-2.16318e-05,-0.00197735,-1.04219,0.00131108,0.0133772,1392,1751,8.70625,-65.8933
175,-727,8.68921,65.5981,-0.0015681,-0.000362234,-0.00128451,0.000453813,-0.00238414,-1.00483,0.00176031,0.018314,1399,1751,8.68921,-65.5982
182,-727,8.69275,65.3021,-0.00163285,-3.4034e-05,-0.00139562,0.000774916,-0.0024418,-1.04549,0.00193851,0.019462,1406,1751,8.6928,-65.3022
189,-727,8.66162,64.9624,-0.00184805,0.000507265,-0.00166567,0.00136954,-0.00271032,-1.09311,0.00239753,0.0120447,1413,1751,8.66158,-64.9624
196,-727,8.63452,64.6248,-0.00221843,0.00103832,-0.0019565,0.00195544,-0.00313554,-1.13246,0.00296548,0.0141704,1420,1751,8.63454,-64.6248
203,-727,8.57263,64.2723,-0.00255051,0.00189853,-0.00223309,0.00282602,-0.003478,-1.17714,0.00364611,0.0172865,1427,1751,8.5726,-64.2724
210,-727,8.55139,63.92,-0.00268513,0.00250907,-0.00249125,0.00351076,-0.00368682,-1.1885,0.00415594,0.0173428,1434,1751,8.55144,-63.92
217,-727,8.52051,63.5505,-0.00283918,0.00306737,-0.00274595,0.00414672,-0.00391854,-1.19628,0.0046571,0.0135582,1441,1751,8.52054,-63.5506
224,-727,8.48206,63.1188,-0.00297857,0.00335852,-0.00295523,0.00452276,-0.00414281,-1.19551,0.00500467,0.0131644,1448,1751,8.482,-63.1187
231,-727,8.47229,62.719,-0.00333557,0.00354811,-0.00310323,0.00474053,-0.00452798,-1.20394,0.00535165,0.0114388,1455,1751,8.47226,-62.719
238,-727,8.46301,62.239,-0.0036658,0.00376831,-0.00319208,0.00495083,-0.00484832,-1.21602,0.00565765,0.0248079,1462,1751,8.46295,-62.239
245,-727,8.46167,61.7423,0,0,0,0,0,0,0,-1,1469,1751,8.46167,-61.7423
252,-727,8.35254,61.4408,0,0,0,0,0,0,0,-1,1476,1751,8.35253,-61.4408
259,-727,8.47522,60.6848,0,0,0,0,0,0,0,-1,1483,1751,8.47517,-60.6848
266,-727,8.32996,60.3749,-0.005173,0.00510201,-0.00396978,0.00645705,-0.00652804,-1.24186,0.00749698,0.0361775,1490,1751,8.32999,-60.3749
273,-727,8.29907,59.9729,-0.00570061,0.0056544,-0.00424509,0.00706596,-0.00711218,-1.24978,0.00818577,0.0421816,1497,1751,8.29913,-59.9729
280,-727,7.99792,59.5204,0,0,0,0,0,0,0,-1,1504,1751,7.99798,-59.5204
287,-727,7.93164,58.9316,0,0,0,0,0,0,0,-1,1511,1751,7.93161,-58.9317
294,-727,8.48657,53.1189,0,0,0,0,0,0,0,-1,1518,1751,8.48656,-53.1189
301,-727,8.44385,46.1619,0,0,0,0,0,0,0,-1,1525,1751,8.4439,-46.1619
308,-727,8.77002,44.8007,0,0,0,0,0,0,0,-1,1532,1751,8.76996,-44.8006
315,-727,8.10571,41.24,0,0,0,0,0,0,0,-1,1539,1751,8.10567,-41.2399
322,-727,8.24133,40.2081,0,0,0,0,0,0,0,-1,1546,1751,8.24136,-40.2082
329,-727,5.54419,31.0325,0,0,0,0,0,0,0,-1,1553,1751,5.54425,-31.0325
336,-727,5.55823,20.2439,0,0,0,0,0,0,0,-1,1560,1751,5.55829,-20.2438
343,-727,2.41699,8.72095,0,0,0,0,0,0,0,-1,1567,1751,2.41702,-8.72098
350,-727,3.89783,7.50195,0,0,0,0,0,0,0,-1,1574,1751,3.89782,-7.50193
357,-727,4.48462,10.2948,0,0,0,0,0,0,0,-1,1581,1751,4.48464,-10.2948
364,-727,6.96729,17.2365,0,0,0,0,0,0,0,-1,1588,1751,6.96732,-17.2365
371,-727,5.04565,23.2227,0,0,0,0,0,0,0,-1,1595,1751,5.04564,-23.2227
378,-727,4.56726,23.0574,0,0,0,0,0,0,0,-1,1602,1751,4.56727,-23.0574
385,-727,3.52307,22.6431,0,0,0,0,0,0,0,-1,1609,1751,3.52303,-22.643
392,-727,0,0,0,0,0,0,0,0,0,-1,1616,1751,0,0
399,-727,0,0,0,0,0,0,0,0,0,-1,1623,1751,0,0
406,-727,0,0,0,0,0,0,0,0,0,-1,1630,1751,0,0
413,-727,0,0,0,0,0,0,0,0,0,-1,1637,1751,0,0
420,-727,0,0,0,0,0,0,0,0,0,-1,1644,1751,0,0
427,-727,0,0,0,0,0,0,0,0,0,-1,1651,1751,0,0
434,-727,0,0,0,0,0,0,0,0,0,-1,1658,1751,0,0
441,-727,0,0,0,0,0,0,0,0,0,-1,1665,1751,0,0
448,-727,0,0,0,0,0,0,0,0,0,-1,1672,1751,0,0
455,-727,0,0,0,0,0,0,0,0,0,-1,1679,1751,0,0
462,-727,0,0,0,0,0,0,0,0,0,-1,1686,1751,0,0
469,-727,0,0,0,0,0,0,0,0,0,-1,1693,1751,0,0
476,-727,0,0,0,0,0,0,0,0,0,-1,1700,1751,0,0
483,-727,0,0,0,0,0,0,0,0,0,-1,1707,1751,0,0
490,-727,0,0,0,0,0,0,0,0,0,-1,1714,1751,0,0
497,-727,0,0,0,0,0,0,0,0,0,-1,1721,1751,0,0
504,-727,0,0,0,0,0,0,0,0,0,-1,1728,1751,0,0
511,-727,0,0,0,0,0,0,0,0,0,-1,1735,1751,0,0
518,-727,0,0,0,0,0,0,0,0,0,-1,1742,1751,0,0
525,-727,0,0,0,0,0,0,0,0,0,-1,1749,1751,0,0
532,-727,0,0,0,0,0,0,0,0,0,-1,1756,1751,0,0
539,-727,0,0,0,0,0,0,0,0,0,-1,1763,1751,0,0
546,-727,0,0,0,0,0,0,0,0,0,-1,1770,1751,0,0
553,-727,0,0,0,0,0,0,0,0,0,-1,1777,1751,0,0
560,-727,0,0,0,0,0,0,0,0,0,-1,1784,1751,0,0
567,-727,0,0,0,0,0,0,0,0,0,-1,1791,1751,0,0
574,-727,0,0,0,0,0,0,0,0,0,-1,1798,1751,0,0
581,-727,0,0,0,0,0,0,0,0,0,-1,1805,1751,0,0
588,-727,0,0,0,0,0,0,0,0,0,-1,1812,1751,0,0
595,-727,0,0,0,0,0,0,0,0,0,-1,1819,1751,0,0
602,-727,0,0,0,0,0,0,0,0,0,-1,1826,1751,0,0
609,-727,0,0,0,0,0,0,0,0,0,-1,1833,1751,0,0
616,-727,0,0,0,0,0,0,0,0,0,-1,1840,1751,0,0
623,-727,0,0,0,0,0,0,0,0,0,-1,1847,1751,0,0
630,-727,0,0,0,0,0,0,0,0,0,-1,1854,1751,0,0
637,-727,0,0,0,0,0,0,0,0,0,-1,1861,1751,0,0
644,-727,0,0,0,0,0,0,0,0,0,-1,1868,1751,0,0
651,-727,0,0,0,0,0,0,0,0,0,-1,1875,1751,0,0
658,-727,0,0,0,0,0,0,0,0,0,-1,1882,1751,0,0
665,-727,0,0,0,0,0,0,0,0,0,-1,1889,1751,0,0
672,-727,0,0,0,0,0,0,0,0,0,-1,1896,1751,0,0
679,-727,0,0,0,0,0,0,0,0,0,-1,1903,1751,0,0
686,-727,0,0,0,0,0,0,0,0,0,-1,1910,1751,0,0
693,-727,0,0,0,0,0,0,0,0,0,-1,1917,1751,0,0
700,-727,0,0,0,0,0,0,0,0,0,-1,1924,1751,0,0
707,-727,0,0,0,0,0,0,0,0,0,-1,1931,1751,0,0
714,-727,0,0,0,0,0,0,0,0,0,-1,1938,1751,0,0
721,-727,0,0,0,0,0,0,0,0,0,-1,1945,1751,0,0
728,-727,0,0,0,0,0,0,0,0,0,-1,1952,1751,0,0
735,-727,0,0,0,0,0,0,0,0,0,-1,1959,1751,0,0
742,-727,0,0,0,0,0,0,0,0,0,-1,1966,1751,0,0
749,-727,0,0,0,0,0,0,0,0,0,-1,1973,1751,0,0
756,-727,0,0,0,0,0,0,0,0,0,-1,1980,1751,0,0
763,-727,0,0,0,0,0,0,0,0,0,-1,1987,1751,0,0
770,-727,0,0,0,0,0,0,0,0,0,-1,1994,1751,0,0
777,-727,0,0,0,0,0,0,0,0,0,-1,2001,1751,0,0
784,-727,0,0,0,0,0,0,0,0,0,-1,2008,1751,0,0
791,-727,0,0,0,0,0,0,0,0,0,-1,2015,1751,0,0
798,-727,0,0,0,0,0,0,0,0,0,-1,2022,1751,0,0
805,-727,0,0,0,0,0,0,0,0,0,-1,2029,1751,0,0
812,-727,0,0,0,0,0,0,0,0,0,-1,2036,1751,0,0
-700,-734,0,0,0,0,0,0,0,0,0,-1,524,1758,0,0
-693,-734,0,0,0,0,0,0,0,0,0,-1,531,1758,0,0
-686,-734,0,0,0,0,0,0,0,0,0,-1,538,1758,0,0
-679,-734,0,0,0,0,0,0,0,0,0,-1,545,1758,0,0
-672,-734,0,0,0,0,0,0,0,0,0,-1,552,1758,0,0
-665,-734,0,0,0,0,0,0,0,0,0,-1,559,1758,0,0
-658,-734,0,0,0,0,0,0,0,0,0,-1,566,1758,0,0
-651,-734,0,0,0,0,0,0,0,0,0,-1,573,1758,0,0
-644,-734,0,0,0,0,0,0,0,0,0,-1,580,1758,0,0
-637,-734,0,0,0,0,0,0,0,0,0,-1,587,1758,0,0
-630,-734,0,0,0,0,0,0,0,0,0,-1,594,1758,0,0
-623,-734,0,0,0,0,0,0,0,0,0,-1,601,1758,0,0
-616,-734,0,0,0,0,0,0,0,0,0,-1,608,1758,0,0
-609,-734,0,0,0,0,0,0,0,0,0,-1,615,1758,0,0
-602,-734,0,0,0,0,0,0,0,0,0,-1,622,1758,0,0
-595,-734,0,0,0,0,0,0,0,0,0,-1,629,1758,0,0
-588,-734,0,0,0,0,0,0,0,0,0,-1,636,1758,0,0
-581,-734,0,0,0,0,0,0,0,0,0,-1,643,1758,0,0
-574,-734,0,0,0,0,0,0,0,0,0,-1,650,1758,0,0
-567,-734,0,0,0,0,0,0,0,0,0,-1,657,1758,0,0
-560,-734,0,0,0,0,0,0,0,0,0,-1,664,1758,0,0
-553,-734,0,0,0,0,0,0,0,0,0,-1,671,1758,0,0
-546,-734,0,0,0,0,0,0,0,0,0,-1,678,1758,0,0
-539,-734,0,0,0,0,0,0,0,0,0,-1,685,1758,0,0
-532,-734,0,0,0,0,0,0,0,0,0,-1,692,1758,0,0
-525,-734,0,0,0,0,0,0,0,0,0,-1,699,1758,0,0
-518,-734,0,0,0,0,0,0,0,0,0,-1,706,1758,0,0
-511,-734,0,0,0,0,0,0,0,0,0,-1,713,1758,0,0
-504,-734,0,0,0,0,0,0,0,0,0,-1,720,1758,0,0
-497,-734,0,0,0,0,0,0,0,0,0,-1,727,1758,0,0
-490,-734,0,0,0,0,0,0,0,0,0,-1,734,1758,0,0
-483,-734,0,0,0,0,0,0,0,0,0,-1,741,1758,0,0
-476,-734,0,0,0,0,0,0,0,0,0,-1,748,1758,0,0
-469,-734,0,0,0,0,0,0,0,0,0,-1,755,1758,0,0
-462,-734,0,0,0,0,0,0,0,0,0,-1,762,1758,0,0
-455,-734,0,0,0,0,0,0,0,0,0,-1,769,1758,0,0
-448,-734,0,0,0,0,0,0,0,0,0,-1,776,1758,0,0
-441,-734,0,0,0,0,0,0,0,0,0,-1,783,1758,0,0
-434,-734,0,0,0,0,0,0,0,0,0,-1,790,1758,0,0
-427,-734,0,0,0,0,0,0,0,0,0,-1,797,1758,0,0
-420,-734,0,0,0,0,0,0,0,0,0,-1,804,1758,0,0
-413,-734,0,0,0,0,0,0,0,0,0,-1,811,1758,0,0
-406,-734,0,0,0,0,0,0,0,0,0,-1,818,1758,0,0
-399,-734,0,0,0,0,0,0,0,0,0,-1,825,1758,0,0
-392,-734,0,0,0,0,0,0,0,0,0,-1,832,1758,0,0
-385,-734,0,0,0,0,0,0,0,0,0,-1,839,1758,0,0
-378,-734,0,0,0,0,0,0,0,0,0,-1,846,1758,0,0
-371,-734,0,0,0,0,0,0,0,0,0,-1,853,1758,0,0
-364,-734,0,0,0,0,0,0,0,0,0,-1,860,1758,0,0
-357,-734,0,0,0,0,0,0,0,0,0,-1,867,1758,0,0
-350,-734,0,0,0,0,0,0,0,0,0,-1,874,1758,0,0
-343,-734,0,0,0,0,0,0,0,0,0,-1,881,1758,0,0
-336,-734,0,0,0,0,0,0,0,0,0,-1,888,1758,0,0
-329,-734,0,0,0,0,0,0,0,0,0,-1,895,1758,0,0
-322,-734,0,0,0,0,0,0,0,0,0,-1,902,1758,0,0
-315,-734,0,0,0,0,0,0,0,0,0,-1,909,1758,0,0
-308,-734,0,0,0,0,0,0,0,0,0,-1,916,1758,0,0
-301,-734,0,0,0,0,0,0,0,0,0,-1,923,1758,0,0
-294,-734,0,0,0,0,0,0,0,0,0,-1,930,1758,0,0
-287,-734,0,0,0,0,0,0,0,0,0,-1,937,1758,0,0
-280,-734,0,0,0,0,0,0,0,0,0,-1,944,1758,0,0
-273,-734,0,0,0,0,0,0,0,0,0,-1,951,1758,0,0
-266,-734,0,0,0,0,0,0,0,0,0,-1,958,1758,0,0
-259,-734,0,0,0,0,0,0,0,0,0,-1,965,1758,0,0
-252,-734,5.73883,31.5245,0,0,0,0,0,0,0,-1,972,1758,5.73884,-31.5246
-245,-734,6.32513,30.9761,0,0,0,0,0,0,0,-1,979,1758,6.32511,-30.9761
-238,-734,6.82385,30.0449,0,0,0,0,0,0,0,-1,986,1758,6.82387,-30.0449
-231,-734,7.1958,29.1666,0,0,0,0,0,0,0,-1,993,1758,7.19578,-29.1666
-224,-734,10.8631,52.8424,0,0,0,0,0,0,0,-1,1000,1758,10.8631,-52.8424
-217,-734,7.45984,28.4386,0,0,0,0,0,0,0,-1,1007,1758,7.45986,-28.4386
-210,-734,7.45483,28.4388,0,0,0,0,0,0,0,-1,1014,1758,7.45482,-28.4388
-203,-734,14.3309,49.7766,0,0,0,0,0,0,0,-1,1021,1758,14.3309,-49.7766
-196,-734,13.0366,49.6821,0,0,0,0,0,0,0,-1,1028,1758,13.0366,-49.6822
-189,-734,11.8075,49.2727,0,0,0,0,0,0,0,-1,1035,1758,11.8075,-49.2728
-182,-734,10.8073,48.8035,0,0,0,0,0,0,0,-1,1042,1758,10.8072,-48.8035
-175,-734,9.90186,48.634,0,0,0,0,0,0,0,-1,1049,1758,9.90187,-48.6341
-168,-734,8.91504,48.7642,0,0,0,0,0,0,0,-1,1056,1758,8.91505,-48.7641
-161,-734,10.4485,52.0808,0,0,0,0,0,0,0,-1,1063,1758,10.4485,-52.0808
-154,-734,10.3014,52.4893,0,0,0,0,0,0,0,-1,1070,1758,10.3014,-52.4893
-147,-734,10.325,56.6101,0,0,0,0,0,0,0,-1,1077,1758,10.3249,-56.6101
-140,-734,9.64087,60.6821,0,0,0,0,0,0,0,-1,1084,1758,9.64088,-60.6822
-133,-734,9.77417,60.1726,0,0,0,0,0,0,0,-1,1091,1758,9.77417,-60.1726
-126,-734,9.53589,61.7412,0,0,0,0,0,0,0,-1,1098,1758,9.53584,-61.7412
-119,-734,9.55713,62.0966,0,0,0,0,0,0,0,-1,1105,1758,9.55716,-62.0965
-112,-734,9.52307,61.2794,0,0,0,0,0,0,0,-1,1112,1758,9.52313,-61.2794
-105,-734,9.20349,62.6074,0,0,0,0,0,0,0,-1,1119,1758,9.20348,-62.6074
-98,-734,9.35632,63.3921,0,0,0,0,0,0,0,-1,1126,1758,9.35637,-63.3921
-91,-734,9.35583,63.8027,0,0,0,0,0,0,0,-1,1133,1758,9.35581,-63.8027
-84,-734,9.29187,64.2238,0,0,0,0,0,0,0,-1,1140,1758,9.29185,-64.2237
-77,-734,9.23779,64.6228,0,0,0,0,0,0,0,-1,1147,1758,9.2378,-64.6229
-70,-734,9.23364,64.9895,0,0,0,0,0,0,0,-1,1154,1758,9.23367,-64.9895
-63,-734,9.08667,65.075,-0.00365984,0.00408151,0.00360286,0.00549882,-0.00507714,1.19601,0.00610765,0.03666,1161,1758,9.0867,-65.075
-56,-734,9.10156,65.5221,-0.00376095,0.00399755,0.00283223,0.00492143,-0.00468483,1.25548,0.00554674,0.0184208,1168,1758,9.10155,-65.5221
-49,-734,9.06421,65.8433,-0.00340553,0.00342609,0.00212231,0.00403172,-0.00401116,1.29282,0.00464356,0.0137892,1175,1758,9.06422,-65.8433
-42,-734,9.03931,66.137,-0.00296995,0.00361691,0.00167486,0.00401832,-0.00337135,1.33557,0.00427188,0.0145913,1182,1758,9.03925,-66.137
-35,-734,9.02148,66.3904,-0.00236479,0.00474657,0.00234499,0.00545022,-0.00306843,1.27928,0.00498191,0.0152819,1189,1758,9.02144,-66.3904
-28,-734,8.99561,66.6152,-0.00219315,0.00560794,0.00275554,0.00648309,-0.0030683,1.26328,0.00563075,0.0107718,1196,1758,8.99563,-66.6153
-21,-734,8.99939,66.8298,-0.00188658,0.00634106,0.00313783,0.00740117,-0.00294669,1.24499,0.00615609,0.0171244,1203,1758,8.99942,-66.8298
-14,-734,8.91357,67.0381,-0.00144487,0.00683949,0.00366532,0.00822834,-0.00283371,1.2086,0.006635,0.0178181,1210,1758,8.91363,-67.0381
-7,-734,8.89636,67.2107,-0.00112976,0.00729305,0.00401193,0.00889814,-0.00273484,1.19022,0.00702349,0.0198258,1217,1758,8.89637,-67.2106
0,-734,8.88794,67.4,-0.000586774,0.00817973,0.00446638,0.0100544,-0.00246143,1.1734,0.00765644,0.0182843,1224,1758,8.88789,-67.4
7,-734,8.87048,67.5737,-4.07974e-05,0.00913679,0.00480289,0.0111906,-0.00209465,1.1667,0.00824779,0.0127638,1231,1758,8.87047,-67.5737
14,-734,8.84192,67.6929,0.000502489,0.0100467,0.00493653,0.0121407,-0.00159143,1.16963,0.00867306,0.0135846,1238,1758,8.84195,-67.6928
21,-734,8.79871,67.7976,0.00101192,0.0106815,0.0049115,0.0127386,-0.00104517,1.17416,0.00886138,0.0123837,1245,1758,8.79869,-67.7976
28,-734,8.80664,67.8978,0.00141391,0.0109844,0.00483447,0.0130014,-0.000603094,1.17554,0.00887548,0.011675,1252,1758,8.80665,-67.8979
35,-734,8.8147,68.0076,0.0018426,0.0111244,0.00456424,0.0129927,-2.5745e-05,1.18226,0.0086704,0.0149586,1259,1758,8.81469,-68.0076
42,-734,8.79761,68.0387,0.00201773,0.0107931,0.00396063,0.0123163,0.000494548,1.20365,0.00805109,0.012565,1266,1758,8.79761,-68.0387
49,-734,8.76697,68.0579,0.00197601,0.0101373,0.00317895,0.0112294,0.000883899,1.23988,0.00720973,0.010823,1273,1758,8.76699,-68.0579
56,-734,8.74402,68.0981,0.00178034,0.00946787,0.00232869,0.0101182,0.00112997,1.29845,0.00640217,0.0106317,1280,1758,8.74398,-68.0981
63,-734,8.73499,68.0699,0.00123805,0.00866268,0.00177551,0.00906542,0.0008353,1.34774,0.00578532,0.0132535,1287,1758,8.73504,-68.0699
70,-734,8.73145,68.0491,0.000532426,0.00746805,0.00110641,0.00764028,0.0003602,1.41637,0.0049778,0.0134476,1294,1758,8.7314,-68.0491
77,-734,8.74719,68.0439,-0.000104695,0.00621158,0.000429487,0.00624065,-0.000133764,1.50321,0.00420573,0.0184592,1301,1758,8.74723,-68.044
84,-734,8.73474,67.9365,-0.000940948,0.00498347,-9.9563e-05,0.00498515,-0.000942621,-1.554,0.00367812,0.018,1308,1758,8.73468,-67.9365
91,-734,8.71057,67.8656,-0.00190447,0.0040496,-0.00054741,0.00409951,-0.00195438,-1.47987,0.0035676,0.0209126,1315,1758,8.71062,-67.8656
98,-734,8.70996,67.8167,-0.00269797,0.00304038,-0.000639044,0.00311068,-0.00276828,-1.46122,0.00339614,0.0149735,1322,1758,8.71001,-67.8166
105,-734,8.69275,67.6986,-0.00354505,0.00200568,-0.000732089,0.00210061,-0.00363998,-1.44184,0.00335382,0.0154982,1329,1758,8.69271,-67.6986
112,-734,8.68689,67.5657,-0.00415442,0.00113315,-0.00074224,0.00123537,-0.00425664,-1.43395,0.0033269,0.0137656,1336,1758,8.68684,-67.5656
119,-734,8.67444,67.4252,-0.00456513,0.000375899,-0.000671339,0.000465489,-0.00465473,-1.43813,0.00326938,0.014904,1343,1758,8.6744,-67.4252
126,-734,8.67358,67.2332,-0.00467371,-0.000106063,-0.000587708,-3.16564e-05,-0.00474812,-1.44486,0.00315492,0.0173866,1350,1758,8.67361,-67.2331
133,-734,8.62598,67.0518,-0.0045622,-0.000407207,-0.00069223,-0.000294915,-0.0046745,-1.40998,0.00302282,0.0151508,1357,1758,8.62593,-67.0518
140,-734,8.59119,66.874,-0.0044462,-0.00057949,-0.000704957,-0.000454976,-0.00457071,-1.39597,0.00290737,0.0196421,1364,1758,8.59115,-66.874
147,-734,8.56567,66.6417,-0.00434392,-0.000634468,-0.000661272,-0.000520111,-0.00445828,-1.39955,0.00281488,0.0144498,1371,1758,8.56571,-66.6417
154,-734,8.53186,66.4153,-0.00420942,-0.000762776,-0.000652757,-0.000643293,-0.0043289,-1.38976,0.0026972,0.0100826,1378,1758,8.53187,-66.4153
161,-734,8.5094,66.1707,-0.00408197,-0.000900252,-0.000673109,-0.000763712,-0.00421851,-1.37066,0.0025955,0.00938246,1385,1758,8.50941,-66.1707
168,-734,8.44214,65.8907,-0.00394712,-0.00103107,-0.00125884,-0.00056282,-0.00441537,-1.21469,0.00277506,0.0150027,1392,1758,8.44209,-65.8907
175,-734,8.40649,65.6115,-0.00373785,-0.00116674,-0.00187222,-0.000181204,-0.00472339,-1.08625,0.0030903,0.0185231,1399,1758,8.40646,-65.6115
182,-734,8.44226,65.2733,-0.00343516,-0.000864671,-0.00192446,0.00016426,-0.00446409,-1.07981,0.0030323,0.0167838,1406,1758,8.44221,-65.2733
189,-734,8.37585,64.9474,-0.00361589,-0.000130648,-0.00222374,0.000951929,-0.00469846,-1.11774,0.00349313,0.0124196,1413,1758,8.37591,-64.9473
196,-734,8.30298,64.6272,-0.00406997,0.000698403,-0.00259961,0.00184158,-0.00521314,-1.1565,0.00422525,0.0149491,1420,1758,8.30292,-64.6272
203,-734,8.28748,64.2456,-0.00449046,0.00212489,-0.00296143,0.0032569,-0.00562246,-1.20568,0.00518679,0.0220467,1427,1758,8.28746,-64.2457
210,-734,8.28284,63.866,-0.00448625,0.00313082,-0.00332046,0.00437504,-0.00573048,-1.21228,0.00585189,0.0385497,1434,1758,8.28286,-63.866
217,-734,8.16956,63.5929,0,0,0,0,0,0,0,-1,1441,1758,8.16957,-63.5929
224,-734,8.10156,63.2107,0,0,0,0,0,0,0,-1,1448,1758,8.10151,-63.2107
231,-734,8.03528,62.731,0,0,0,0,0,0,0,-1,1455,1758,8.03524,-62.731
238,-734,8.04541,62.1465,0,0,0,0,0,0,0,-1,1462,1758,8.04545,-62.1465
245,-734,8.29065,60.4988,0,0,0,0,0,0,0,-1,1469,1758,8.29062,-60.4987
252,-734,8.17517,58.5679,0,0,0,0,0,0,0,-1,1476,1758,8.1752,-58.5678
259,-734,8.07666,59.5597,0,0,0,0,0,0,0,-1,1483,1758,8.07667,-59.5597
266,-734,7.98584,60.198,0,0,0,0,0,0,0,-1,1490,1758,7.98584,-60.198
273,-734,8.01184,59.9795,0,0,0,0,0,0,0,-1,1497,1758,8.01187,-59.9795
280,-734,7.90149,52.7294,0,0,0,0,0,0,0,-1,1504,1758,7.90153,-52.7294
287,-734,7.56177,50.5933,0,0,0,0,0,0,0,-1,1511,1758,7.56172,-50.5933
294,-734,7.42676,47.7545,0,0,0,0,0,0,0,-1,1518,1758,7.4268,-47.7545
301,-734,7.21814,42.6078,0,0,0,0,0,0,0,-1,1525,1758,7.21809,-42.6078
308,-734,8.0509,41.5156,0,0,0,0,0,0,0,-1,1532,1758,8.05087,-41.5157
315,-734,7.93787,40.8274,0,0,0,0,0,0,0,-1,1539,1758,7.93784,-40.8273
322,-734,7.82483,40.139,0,0,0,0,0,0,0,-1,1546,1758,7.82481,-40.139
329,-734,5.73267,19.656,0,0,0,0,0,0,0,-1,1553,1758,5.73262,-19.656
336,-734,6.71375,23.7469,0,0,0,0,0,0,0,-1,1560,1758,6.71372,-23.7469
343,-734,5.54968,5.14221,0,0,0,0,0,0,0,-1,1567,1758,5.54973,-5.14225
350,-734,5.07397,6.73242,0,0,0,0,0,0,0,-1,1574,1758,5.07402,-6.73243
357,-734,5.05542,7.19189,0,0,0,0,0,0,0,-1,1581,1758,5.05541,-7.19184
364,-734,4.43896,10.4904,0,0,0,0,0,0,0,-1,1588,1758,4.43893,-10.4904
371,-734,7.36975,17.4751,0,0,0,0,0,0,0,-1,1595,1758,7.36972,-17.4752
378,-734,0,0,0,0,0,0,0,0,0,-1,1602,1758,0,0
385,-734,0,0,0,0,0,0,0,0,0,-1,1609,1758,0,0
392,-734,0,0,0,0,0,0,0,0,0,-1,1616,1758,0,0
399,-734,0,0,0,0,0,0,0,0,0,-1,1623,1758,0,0
406,-734,0,0,0,0,0,0,0,0,0,-1,1630,1758,0,0
413,-734,0,0,0,0,0,0,0,0,0,-1,1637,1758,0,0
420,-734,0,0,0,0,0,0,0,0,0,-1,1644,1758,0,0
427,-734,0,0,0,0,0,0,0,0,0,-1,1651,1758,0,0
434,-734,0,0,0,0,0,0,0,0,0,-1,1658,1758,0,0
441,-734,0,0,0,0,0,0,0,0,0,-1,1665,1758,0,0
448,-734,0,0,0,0,0,0,0,0,0,-1,1672,1758,0,0
455,-734,0,0,0,0,0,0,0,0,0,-1,1679,1758,0,0
462,-734,0,0,0,0,0,0,0,0,0,-1,1686,1758,0,0
469,-734,0,0,0,0,0,0,0,0,0,-1,1693,1758,0,0
476,-734,0,0,0,0,0,0,0,0,0,-1,1700,1758,0,0
483,-734,0,0,0,0,0,0,0,0,0,-1,1707,1758,0,0
490,-734,0,0,0,0,0,0,0,0,0,-1,1714,1758,0,0
497,-734,0,0,0,0,0,0,0,0,0,-1,1721,1758,0,0
504,-734,0,0,0,0,0,0,0,0,0,-1,1728,1758,0,0
511,-734,0,0,0,0,0,0,0,0,0,-1,1735,1758,0,0
518,-734,0,0,0,0,0,0,0,0,0,-1,1742,1758,0,0
525,-734,0,0,0,0,0,0,0,0,0,-1,1749,1758,0,0
532,-734,0,0,0,0,0,0,0,0,0,-1,1756,1758,0,0
539,-734,0,0,0,0,0,0,0,0,0,-1,1763,1758,0,0
546,-734,0,0,0,0,0,0,0,0,0,-1,1770,1758,0,0
553,-734,0,0,0,0,0,0,0,0,0,-1,1777,1758,0,0
560,-734,0,0,0,0,0,0,0,0,0,-1,1784,1758,0,0
567,-734,0,0,0,0,0,0,0,0,0,-1,1791,1758,0,0
574,-734,0,0,0,0,0,0,0,0,0,-1,1798,1758,0,0
581,-734,0,0,0,0,0,0,0,0,0,-1,1805,1758,0,0
588,-734,0,0,0,0,0,0,0,0,0,-1,1812,1758,0,0
595,-734,0,0,0,0,0,0,0,0,0,-1,1819,1758,0,0
602,-734,0,0,0,0,0,0,0,0,0,-1,1826,1758,0,0
609,-734,0,0,0,0,0,0,0,0,0,-1,1833,1758,0,0
616,-734,0,0,0,0,0,0,0,0,0,-1,1840,1758,0,0
623,-734,0,0,0,0,0,0,0,0,0,-1,1847,1758,0,0
630,-734,0,0,0,0,0,0,0,0,0,-1,1854,1758,0,0
637,-734,0,0,0,0,0,0,0,0,0,-1,1861,1758,0,0
644,-734,0,0,0,0,0,0,0,0,0,-1,1868,1758,0,0
651,-734,0,0,0,0,0,0,0,0,0,-1,1875,1758,0,0
658,-734,0,0,0,0,0,0,0,0,0,-1,1882,1758,0,0
665,-734,0,0,0,0,0,0,0,0,0,-1,1889,1758,0,0
672,-734,0,0,0,0,0,0,0,0,0,-1,1896,1758,0,0
679,-734,0,0,0,0,0,0,0,0,0,-1,1903,1758,0,0
686,-734,0,0,0,0,0,0,0,0,0,-1,1910,1758,0,0
693,-734,0,0,0,0,0,0,0,0,0,-1,1917,1758,0,0
700,-734,0,0,0,0,0,0,0,0,0,-1,1924,1758,0,0
707,-734,0,0,0,0,0,0,0,0,0,-1,1931,1758,0,0
714,-734,0,0,0,0,0,0,0,0,0,-1,1938,1758,0,0
721,-734,0,0,0,0,0,0,0,0,0,-1,1945,1758,0,0
728,-734,0,0,0,0,0,0,0,0,0,-1,1952,1758,0,0
735,-734,0,0,0,0,0,0,0,0,0,-1,1959,1758,0,0
742,-734,0,0,0,0,0,0,0,0,0,-1,1966,1758,0,0
749,-734,0,0,0,0,0,0,0,0,0,-1,1973,1758,0,0
756,-734,0,0,0,0,0,0,0,0,0,-1,1980,1758,0,0
763,-734,0,0,0,0,0,0,0,0,0,-1,1987,1758,0,0
770,-734,0,0,0,0,0,0,0,0,0,-1,1994,1758,0,0
777,-734,0,0,0,0,0,0,0,0,0,-1,2001,1758,0,0
784,-734,0,0,0,0,0,0,0,0,0,-1,2008,1758,0,0
791,-734,0,0,0,0,0,0,0,0,0,-1,2015,1758,0,0
798,-734,0,0,0,0,0,0,0,0,0,-1,2022,1758,0,0
805,-734,0,0,0,0,0,0,0,0,0,-1,2029,1758,0,0
812,-734,0,0,0,0,0,0,0,0,0,-1,2036,1758,0,0
-700,-741,0,0,0,0,0,0,0,0,0,-1,524,1765,0,0
-693,-741,0,0,0,0,0,0,0,0,0,-1,531,1765,0,0
-686,-741,0,0,0,0,0,0,0,0,0,-1,538,1765,0,0
-679,-741,0,0,0,0,0,0,0,0,0,-1,545,1765,0,0
-672,-741,0,0,0,0,0,0,0,0,0,-1,552,1765,0,0
-665,-741,0,0,0,0,0,0,0,0,0,-1,559,1765,0,0
-658,-741,0,0,0,0,0,0,0,0,0,-1,566,1765,0,0
-651,-741,0,0,0,0,0,0,0,0,0,-1,573,1765,0,0
-644,-741,0,0,0,0,0,0,0,0,0,-1,580,1765,0,0
-637,-741,0,0,0,0,0,0,0,0,0,-1,587,1765,0,0
-630,-741,0,0,0,0,0,0,0,0,0,-1,594,1765,0,0
-623,-741,0,0,0,0,0,0,0,0,0,-1,601,1765,0,0
-616,-741,0,0,0,0,0,0,0,0,0,-1,608,1765,0,0
-609,-741,0,0,0,0,0,0,0,0,0,-1,615,1765,0,0
-602,-741,0,0,0,0,0,0,0,0,0,-1,622,1765,0,0
-595,-741,0,0,0,0,0,0,0,0,0,-1,629,1765,0,0
-588,-741,0,0,0,0,0,0,0,0,0,-1,636,1765,0,0
-581,-741,0,0,0,0,0,0,0,0,0,-1,643,1765,0,0
-574,-741,0,0,0,0,0,0,0,0,0,-1,650,1765,0,0
-567,-741,0,0,0,0,0,0,0,0,0,-1,657,1765,0,0
-560,-741,0,0,0,0,0,0,0,0,0,-1,664,1765,0,0
-553,-741,0,0,0,0,0,0,0,0,0,-1,671,1765,0,0
-546,-741,0,0,0,0,0,0,0,0,0,-1,678,1765,0,0
-539,-741,0,0,0,0,0,0,0,0,0,-1,685,1765,0,0
-532,-741,0,0,0,0,0,0,0,0,0,-1,692,1765,0,0
-525,-741,0,0,0,0,0,0,0,0,0,-1,699,1765,0,0
-518,-741,0,0,0,0,0,0,0,0,0,-1,706,1765,0,0
-511,-741,0,0,0,0,0,0,0,0,0,-1,713,1765,0,0
-504,-741,0,0,0,0,0,0,0,0,0,-1,720,1765,0,0
-497,-741,0,0,0,0,0,0,0,0,0,-1,727,1765,0,0
-490,-741,0,0,0,0,0,0,0,0,0,-1,734,1765,0,0
-483,-741,0,0,0,0,0,0,0,0,0,-1,741,1765,0,0
-476,-741,0,0,0,0,0,0,0,0,0,-1,748,1765,0,0
-469,-741,0,0,0,0,0,0,0,0,0,-1,755,1765,0,0
-462,-741,0,0,0,0,0,0,0,0,0,-1,762,1765,0,0
-455,-741,0,0,0,0,0,0,0,0,0,-1,769,1765,0,0
-448,-741,0,0,0,0,0,0,0,0,0,-1,776,1765,0,0
-441,-741,0,0,0,0,0,0,0,0,0,-1,783,1765,0,0
-434,-741,0,0,0,0,0,0,0,0,0,-1,790,1765,0,0
-427,-741,0,0,0,0,0,0,0,0,0,-1,797,1765,0,0
-420,-741,0,0,0,0,0,0,0,0,0,-1,804,1765,0,0
-413,-741,0,0,0,0,0,0,0,0,0,-1,811,1765,0,0
-406,-741,0,0,0,0,0,0,0,0,0,-1,818,1765,0,0
-399,-741,0,0,0,0,0,0,0,0,0,-1,825,1765,0,0
-392,-741,0,0,0,0,0,0,0,0,0,-1,832,1765,0,0
-385,-741,0,0,0,0,0,0,0,0,0,-1,839,1765,0,0
-378,-741,0,0,0,0,0,0,0,0,0,-1,846,1765,0,0
-371,-741,0,0,0,0,0,0,0,0,0,-1,853,1765,0,0
-364,-741,0,0,0,0,0,0,0,0,0,-1,860,1765,0,0
-357,-741,0,0,0,0,0,0,0,0,0,-1,867,1765,0,0
-350,-741,0,0,0,0,0,0,0,0,0,-1,874,1765,0,0
-343,-741,0,0,0,0,0,0,0,0,0,-1,881,1765,0,0
-336,-741,0,0,0,0,0,0,0,0,0,-1,888,1765,0,0
-329,-741,0,0,0,0,0,0,0,0,0,-1,895,1765,0,0
-322,-741,0,0,0,0,0,0,0,0,0,-1,902,1765,0,0
-315,-741,0,0,0,0,0,0,0,0,0,-1,909,1765,0,0
-308,-741,0,0,0,0,0,0,0,0,0,-1,916,1765,0,0
-301,-741,0,0,0,0,0,0,0,0,0,-1,923,1765,0,0
-294,-741,0,0,0,0,0,0,0,0,0,-1,930,1765,0,0
-287,-741,0,0,0,0,0,0,0,0,0,-1,937,1765,0,0
-280,-741,0,0,0,0,0,0,0,0,0,-1,944,1765,0,0
-273,-741,0,0,0,0,0,0,0,0,0,-1,951,1765,0,0
-266,-741,0,0,0,0,0,0,0,0,0,-1,958,1765,0,0
-259,-741,0,0,0,0,0,0,0,0,0,-1,965,1765,0,0
-252,-741,0,0,0,0,0,0,0,0,0,-1,972,1765,0,0
-245,-741,0,0,0,0,0,0,0,0,0,-1,979,1765,0,0
-238,-741,7.13855,29.8348,0,0,0,0,0,0,0,-1,986,1765,7.13856,-29.8348
-231,-741,7.74182,29.3066,0,0,0,0,0,0,0,-1,993,1765,7.74183,-29.3066
-224,-741,7.80078,29.0964,0,0,0,0,0,0,0,-1,1000,1765,7.80079,-29.0964
-217,-741,8.15863,29.113,0,0,0,0,0,0,0,-1,1007,1765,8.15863,-29.1131
-210,-741,8.37024,29.3896,0,0,0,0,0,0,0,-1,1014,1765,8.37022,-29.3896
-203,-741,7.703,44.0701,0,0,0,0,0,0,0,-1,1021,1765,7.70306,-44.0701
-196,-741,13.1698,50.7012,0,0,0,0,0,0,0,-1,1028,1765,13.1698,-50.7012
-189,-741,12.3024,50.0712,0,0,0,0,0,0,0,-1,1035,1765,12.3023,-50.0712
-182,-741,11.3236,49.675,0,0,0,0,0,0,0,-1,1042,1765,11.3236,-49.675
-175,-741,10.1451,49.7836,0,0,0,0,0,0,0,-1,1049,1765,10.1451,-49.7836
-168,-741,9.26172,49.837,0,0,0,0,0,0,0,-1,1056,1765,9.26167,-49.837
-161,-741,8.42102,49.8832,0,0,0,0,0,0,0,-1,1063,1765,8.42099,-49.8832
-154,-741,10.5177,48.0798,0,0,0,0,0,0,0,-1,1070,1765,10.5177,-48.0798
-147,-741,10.9515,48.8568,0,0,0,0,0,0,0,-1,1077,1765,10.9515,-48.8569
-140,-741,10.5068,51.2876,0,0,0,0,0,0,0,-1,1084,1765,10.5068,-51.2876
-133,-741,10.6208,54.5072,0,0,0,0,0,0,0,-1,1091,1765,10.6208,-54.5072
-126,-741,9.89746,52.7167,0,0,0,0,0,0,0,-1,1098,1765,9.8975,-52.7167
-119,-741,9.33801,50.1482,0,0,0,0,0,0,0,-1,1105,1765,9.33802,-50.1482
-112,-741,9.6283,47.2815,0,0,0,0,0,0,0,-1,1112,1765,9.62827,-47.2815
-105,-741,9.61792,45.9158,0,0,0,0,0,0,0,-1,1119,1765,9.61797,-45.9158
-98,-741,9.19971,40.25,0,0,0,0,0,0,0,-1,1126,1765,9.19971,-40.25
-91,-741,8.40002,36.3687,0,0,0,0,0,0,0,-1,1133,1765,8.40002,-36.3687
-84,-741,7.8877,35.0892,0,0,0,0,0,0,0,-1,1140,1765,7.88776,-35.0892
-77,-741,7.73303,34.1174,0,0,0,0,0,0,0,-1,1147,1765,7.73304,-34.1174
-70,-741,7.5437,32.0275,0,0,0,0,0,0,0,-1,1154,1765,7.5437,-32.0275
-63,-741,9.13403,64.6985,0,0,0,0,0,0,0,-1,1161,1765,9.13407,-64.6985
-56,-741,9.39905,65.4331,0,0,0,0,0,0,0,-1,1168,1765,9.399,-65.4331
-49,-741,9.32068,65.8939,0,0,0,0,0,0,0,-1,1175,1765,9.32073,-65.8939
-42,-741,9.24451,66.0593,0,0,0,0,0,0,0,-1,1182,1765,9.24446,-66.0593
-35,-741,9.25073,66.4005,-0.00359588,0.00690757,0.0036208,0.00803478,-0.00472309,1.26899,0.00744802,0.024665,1189,1765,9.25072,-66.4005
-28,-741,9.23877,66.6237,-0.00311827,0.00889389,0.00441252,0.0103405,-0.00456493,1.25399,0.0088184,0.0151226,1196,1765,9.23876,-66.6237
-21,-741,9.19067,66.8204,-0.00247972,0.0105101,0.00496717,0.0121918,-0.0041614,1.24435,0.00981363,0.0203426,1203,1765,9.19073,-66.8204
-14,-741,9.10852,67.0441,-0.001717,0.0118414,0.00569275,0.0139146,-0.0037902,1.22154,0.0107646,0.0207574,1210,1765,9.10855,-67.044
-7,-741,9.0907,67.1888,-0.00110248,0.0130956,0.00622839,0.0154406,-0.00344743,1.21072,0.0116147,0.0177449,1217,1765,9.09076,-67.1889
0,-741,9.04895,67.3512,-0.000296683,0.0147241,0.00687775,0.0173975,-0.00297007,1.20007,0.0127046,0.0170795,1224,1765,9.04893,-67.3511
7,-741,8.97351,67.526,0.000525841,0.0163858,0.00737211,0.0192832,-0.00237157,1.19632,0.0137145,0.0180116,1231,1765,8.97347,-67.526
14,-741,8.95361,67.6847,0.00142667,0.0179876,0.00755945,0.0209192,-0.00150498,1.20084,0.0144739,0.017086,1238,1765,8.95357,-67.6847
21,-741,8.9082,67.7861,0.00241235,0.0191187,0.00772856,0.0221456,-0.000614556,1.19751,0.0149728,0.013947,1245,1765,8.90816,-67.7862
28,-741,8.87842,67.9105,0.00308955,0.0196984,0.00772588,0.0227365,5.14593e-05,1.19614,0.0151406,0.013947,1252,1765,8.87837,-67.9106
35,-741,8.88367,67.9791,0.00383197,0.0199774,0.00730232,0.0227901,0.00101925,1.20313,0.0148653,0.0149789,1259,1765,8.88363,-67.9791
42,-741,8.84802,68.0104,0.00418017,0.0194818,0.00630525,0.0217452,0.0019168,1.22616,0.013902,0.0162402,1266,1765,8.84808,-68.0104
49,-741,8.80652,68.0469,0.00422817,0.0186239,0.00491379,0.0201412,0.00271084,1.2713,0.0126213,0.0111791,1273,1765,8.80654,-68.0468
56,-741,8.76819,68.0808,0.00401468,0.0177379,0.00343043,0.0185476,0.00320494,1.33899,0.0114473,0.010944,1280,1765,8.76819,-68.0808
63,-741,8.72876,68.0583,0.00324233,0.0163231,0.00224282,0.0166969,0.00286846,1.40562,0.010309,0.0152529,1287,1765,8.72871,-68.0583
70,-741,8.70703,68.0588,0.00208688,0.014295,0.000810225,0.0143485,0.00203334,1.50481,0.00896511,0.0172987,1294,1765,8.70699,-68.0589
77,-741,8.67957,68.0226,0.000924403,0.012249,-0.00059842,0.0122805,0.000892868,-1.51815,0.0079062,0.0151937,1301,1765,8.67962,-68.0225
84,-741,8.6355,67.9746,-0.000521129,0.0102646,-0.00174562,0.0105401,-0.000796614,-1.41427,0.00730677,0.0180248,1308,1765,8.63549,-67.9746
91,-741,8.59802,67.9437,-0.00213249,0.008652,-0.002702,0.00929109,-0.00277158,-1.33854,0.00729557,0.0143803,1315,1765,8.59803,-67.9438
98,-741,8.58557,67.8256,-0.00354531,0.00696481,-0.003081,0.0078014,-0.0043819,-1.30566,0.00712579,0.0110538,1322,1765,8.58551,-67.8255
105,-741,8.56384,67.6718,-0.00495827,0.00535381,-0.00333119,0.0063363,-0.00594076,-1.28399,0.00708939,0.0116214,1329,1765,8.56379,-67.6718
112,-741,8.5697,67.5272,-0.00607254,0.00393878,-0.00332008,0.00493975,-0.00707351,-1.27797,0.00697223,0.0117638,1336,1765,8.56975,-67.5272
119,-741,8.53015,67.3794,-0.00700095,0.002558,-0.00309878,0.00347465,-0.0079176,-1.28319,0.00674199,0.0145154,1343,1765,8.53013,-67.3794
126,-741,8.48535,67.1949,-0.00758116,0.00160025,-0.0029426,0.00246238,-0.0084433,-1.28579,0.00660448,0.0189397,1350,1765,8.48535,-67.1949
133,-741,8.44543,67.0237,-0.00754578,0.000911264,-0.00273881,0.00172074,-0.00835526,-1.28342,0.00622356,0.0145778,1357,1765,8.44543,-67.0237
140,-741,8.37085,66.8317,-0.0075123,0.000307472,-0.00219783,0.000882856,-0.00808769,-1.31475,0.00570888,0.011037,1364,1765,8.37086,-66.8316
147,-741,8.33606,66.621,-0.00744626,-0.000149492,-0.00158222,0.000178823,-0.00777458,-1.3662,0.00524368,0.0106787,1371,1765,8.33602,-66.621
154,-741,8.29651,66.4268,-0.00731486,-0.000891567,-0.000985074,-0.000743892,-0.00746253,-1.42199,0.00474653,0.00920199,1378,1765,8.29652,-66.4268
161,-741,8.26648,66.1613,-0.00701917,-0.00145579,-0.000768988,-0.00135146,-0.0071235,-1.43594,0.00436876,0.0111347,1385,1765,8.26648,-66.1613
168,-741,8.21863,65.8899,-0.00653878,-0.00193749,-0.0015703,-0.00145267,-0.0070236,-1.27134,0.00428113,0.0262485,1392,1765,8.21866,-65.8899
175,-741,8.09766,65.6099,0,0,0,0,0,0,0,-1,1399,1765,8.09764,-65.6099
182,-741,8.15991,65.2639,0,0,0,0,0,0,0,-1,1406,1765,8.15987,-65.264
189,-741,8.07434,64.9839,0,0,0,0,0,0,0,-1,1413,1765,8.07437,-64.9838
196,-741,7.98376,64.6635,0,0,0,0,0,0,0,-1,1420,1765,7.98379,-64.6635
203,-741,7.96924,64.1688,0,0,0,0,0,0,0,-1,1427,1765,7.96923,-64.1688
210,-741,7.88464,63.5511,0,0,0,0,0,0,0,-1,1434,1765,7.88469,-63.5511
217,-741,8.4032,40.1213,0,0,0,0,0,0,0,-1,1441,1765,8.40325,-40.1214
224,-741,8.0719,38.4249,0,0,0,0,0,0,0,-1,1448,1765,8.07187,-38.4249
231,-741,7.95923,39.0671,0,0,0,0,0,0,0,-1,1455,1765,7.9592,-39.0671
238,-741,7.96619,42.4865,0,0,0,0,0,0,0,-1,1462,1765,7.96621,-42.4864
245,-741,8.53577,45.7744,0,0,0,0,0,0,0,-1,1469,1765,8.53581,-45.7744
252,-741,8.59167,47.473,0,0,0,0,0,0,0,-1,1476,1765,8.59162,-47.473
259,-741,8.47412,48.5269,0,0,0,0,0,0,0,-1,1483,1765,8.47412,-48.5269
266,-741,8.50134,48.3838,0,0,0,0,0,0,0,-1,1490,1765,8.50132,-48.3838
273,-741,8.81421,49.1227,0,0,0,0,0,0,0,-1,1497,1765,8.81426,-49.1227
280,-741,7.33093,51.4729,0,0,0,0,0,0,0,-1,1504,1765,7.33092,-51.4729
287,-741,7.52783,49.7068,0,0,0,0,0,0,0,-1,1511,1765,7.52783,-49.7068
294,-741,5.91187,43.7742,0,0,0,0,0,0,0,-1,1518,1765,5.91188,-43.7742
301,-741,6.20667,38.5165,0,0,0,0,0,0,0,-1,1525,1765,6.20667,-38.5165
308,-741,7.99036,42.5969,0,0,0,0,0,0,0,-1,1532,1765,7.99037,-42.5969
315,-741,7.83838,41.6693,0,0,0,0,0,0,0,-1,1539,1765,7.83835,-41.6694
322,-741,7.68628,40.7418,0,0,0,0,0,0,0,-1,1546,1765,7.68633,-40.7418
329,-741,4.74414,17.928,0,0,0,0,0,0,0,-1,1553,1765,4.74414,-17.928
336,-741,5.74304,22.0945,0,0,0,0,0,0,0,-1,1560,1765,5.74306,-22.0945
343,-741,7.09888,26.501,0,0,0,0,0,0,0,-1,1567,1765,7.09885,-26.501
350,-741,4.90369,5.44666,0,0,0,0,0,0,0,-1,1574,1765,4.90368,-5.44664
357,-741,4.02063,5.16626,0,0,0,0,0,0,0,-1,1581,1765,4.02058,-5.1662
364,-741,0,0,0,0,0,0,0,0,0,-1,1588,1765,0,0
371,-741,0,0,0,0,0,0,0,0,0,-1,1595,1765,0,0
378,-741,0,0,0,0,0,0,0,0,0,-1,1602,1765,0,0
385,-741,0,0,0,0,0,0,0,0,0,-1,1609,1765,0,0
392,-741,0,0,0,0,0,0,0,0,0,-1,1616,1765,0,0
399,-741,0,0,0,0,0,0,0,0,0,-1,1623,1765,0,0
406,-741,0,0,0,0,0,0,0,0,0,-1,1630,1765,0,0
413,-741,0,0,0,0,0,0,0,0,0,-1,1637,1765,0,0
420,-741,0,0,0,0,0,0,0,0,0,-1,1644,1765,0,0
427,-741,0,0,0,0,0,0,0,0,0,-1,1651,1765,0,0
434,-741,0,0,0,0,0,0,0,0,0,-1,1658,1765,0,0
441,-741,0,0,0,0,0,0,0,0,0,-1,1665,1765,0,0
448,-741,0,0,0,0,0,0,0,0,0,-1,1672,1765,0,0
455,-741,0,0,0,0,0,0,0,0,0,-1,1679,1765,0,0
462,-741,0,0,0,0,0,0,0,0,0,-1,1686,1765,0,0
469,-741,0,0,0,0,0,0,0,0,0,-1,1693,1765,0,0
476,-741,0,0,0,0,0,0,0,0,0,-1,1700,1765,0,0
483,-741,0,0,0,0,0,0,0,0,0,-1,1707,1765,0,0
490,-741,0,0,0,0,0,0,0,0,0,-1,1714,1765,0,0
497,-741,0,0,0,0,0,0,0,0,0,-1,1721,1765,0,0
504,-741,0,0,0,0,0,0,0,0,0,-1,1728,1765,0,0
511,-741,0,0,0,0,0,0,0,0,0,-1,1735,1765,0,0
518,-741,0,0,0,0,0,0,0,0,0,-1,1742,1765,0,0
525,-741,0,0,0,0,0,0,0,0,0,-1,1749,1765,0,0
532,-741,0,0,0,0,0,0,0,0,0,-1,1756,1765,0,0
539,-741,0,0,0,0,0,0,0,0,0,-1,1763,1765,0,0
546,-741,0,0,0,0,0,0,0,0,0,-1,1770,1765,0,0
553,-741,0,0,0,0,0,0,0,0,0,-1,1777,1765,0,0
560,-741,0,0,0,0,0,0,0,0,0,-1,1784,1765,0,0
567,-741,0,0,0,0,0,0,0,0,0,-1,1791,1765,0,0
574,-741,0,0,0,0,0,0,0,0,0,-1,1798,1765,0,0
581,-741,0,0,0,0,0,0,0,0,0,-1,1805,1765,0,0
588,-741,0,0,0,0,0,0,0,0,0,-1,1812,1765,0,0
595,-741,0,0,0,0,0,0,0,0,0,-1,1819,1765,0,0
602,-741,0,0,0,0,0,0,0,0,0,-1,1826,1765,0,0
609,-741,0,0,0,0,0,0,0,0,0,-1,1833,1765,0,0
616,-741,0,0,0,0,0,0,0,0,0,-1,1840,1765,0,0
623,-741,0,0,0,0,0,0,0,0,0,-1,1847,1765,0,0
630,-741,0,0,0,0,0,0,0,0,0,-1,1854,1765,0,0
637,-741,0,0,0,0,0,0,0,0,0,-1,1861,1765,0,0
644,-741,0,0,0,0,0,0,0,0,0,-1,1868,1765,0,0
651,-741,0,0,0,0,0,0,0,0,0,-1,1875,1765,0,0
658,-741,0,0,0,0,0,0,0,0,0,-1,1882,1765,0,0
665,-741,0,0,0,0,0,0,0,0,0,-1,1889,1765,0,0
672,-741,0,0,0,0,0,0,0,0,0,-1,1896,1765,0,0
679,-741,0,0,0,0,0,0,0,0,0,-1,1903,1765,0,0
686,-741,0,0,0,0,0,0,0,0,0,-1,1910,1765,0,0
693,-741,0,0,0,0,0,0,0,0,0,-1,1917,1765,0,0
700,-741,0,0,0,0,0,0,0,0,0,-1,1924,1765,0,0
707,-741,0,0,0,0,0,0,0,0,0,-1,1931,1765,0,0
714,-741,0,0,0,0,0,0,0,0,0,-1,1938,1765,0,0
721,-741,0,0,0,0,0,0,0,0,0,-1,1945,1765,0,0
728,-741,0,0,0,0,0,0,0,0,0,-1,1952,1765,0,0
735,-741,0,0,0,0,0,0,0,0,0,-1,1959,1765,0,0
742,-741,0,0,0,0,0,0,0,0,0,-1,1966,1765,0,0
749,-741,0,0,0,0,0,0,0,0,0,-1,1973,1765,0,0
756,-741,0,0,0,0,0,0,0,0,0,-1,1980,1765,0,0
763,-741,0,0,0,0,0,0,0,0,0,-1,1987,1765,0,0
770,-741,0,0,0,0,0,0,0,0,0,-1,1994,1765,0,0
777,-741,0,0,0,0,0,0,0,0,0,-1,2001,1765,0,0
784,-741,0,0,0,0,0,0,0,0,0,-1,2008,1765,0,0
791,-741,0,0,0,0,0,0,0,0,0,-1,2015,1765,0,0
798,-741,0,0,0,0,0,0,0,0,0,-1,2022,1765,0,0
805,-741,0,0,0,0,0,0,0,0,0,-1,2029,1765,0,0
812,-741,0,0,0,0,0,0,0,0,0,-1,2036,1765,0,0
-700,-748,0,0,0,0,0,0,0,0,0,-1,524,1772,0,0
-693,-748,0,0,0,0,0,0,0,0,0,-1,531,1772,0,0
-686,-748,0,0,0,0,0,0,0,0,0,-1,538,1772,0,0
-679,-748,0,0,0,0,0,0,0,0,0,-1,545,1772,0,0
-672,-748,0,0,0,0,0,0,0,0,0,-1,552,1772,0,0
-665,-748,0,0,0,0,0,0,0,0,0,-1,559,1772,0,0
-658,-748,0,0,0,0,0,0,0,0,0,-1,566,1772,0,0
-651,-748,0,0,0,0,0,0,0,0,0,-1,573,1772,0,0
-644,-748,0,0,0,0,0,0,0,0,0,-1,580,1772,0,0
-637,-748,0,0,0,0,0,0,0,0,0,-1,587,1772,0,0
-630,-748,0,0,0,0,0,0,0,0,0,-1,594,1772,0,0
-623,-748,0,0,0,0,0,0,0,0,0,-1,601,1772,0,0
-616,-748,0,0,0,0,0,0,0,0,0,-1,608,1772,0,0
-609,-748,0,0,0,0,0,0,0,0,0,-1,615,1772,0,0
-602,-748,0,0,0,0,0,0,0,0,0,-1,622,1772,0,0
-595,-748,0,0,0,0,0,0,0,0,0,-1,629,1772,0,0
-588,-748,0,0,0,0,0,0,0,0,0,-1,636,1772,0,0
-581,-748,0,0,0,0,0,0,0,0,0,-1,643,1772,0,0
-574,-748,0,0,0,0,0,0,0,0,0,-1,650,1772,0,0
-567,-748,0,0,0,0,0,0,0,0,0,-1,657,1772,0,0
-560,-748,0,0,0,0,0,0,0,0,0,-1,664,1772,0,0
-553,-748,0,0,0,0,0,0,0,0,0,-1,671,1772,0,0
-546,-748,0,0,0,0,0,0,0,0,0,-1,678,1772,0,0
-539,-748,0,0,0,0,0,0,0,0,0,-1,685,1772,0,0
-532,-748,0,0,0,0,0,0,0,0,0,-1,692,1772,0,0
-525,-748,0,0,0,0,0,0,0,0,0,-1,699,1772,0,0
-518,-748,0,0,0,0,0,0,0,0,0,-1,706,1772,0,0
-511,-748,0,0,0,0,0,0,0,0,0,-1,713,1772,0,0
-504,-748,0,0,0,0,0,0,0,0,0,-1,720,1772,0,0
-497,-748,0,0,0,0,0,0,0,0,0,-1,727,1772,0,0
-490,-748,0,0,0,0,0,0,0,0,0,-1,734,1772,0,0
-483,-748,0,0,0,0,0,0,0,0,0,-1,741,1772,0,0
-476,-748,0,0,0,0,0,0,0,0,0,-1,748,1772,0,0
-469,-748,0,0,0,0,0,0,0,0,0,-1,755,1772,0,0
-462,-748,0,0,0,0,0,0,0,0,0,-1,762,1772,0,0
-455,-748,0,0,0,0,0,0,0,0,0,-1,769,1772,0,0
-448,-748,0,0,0,0,0,0,0,0,0,-1,776,1772,0,0
-441,-748,0,0,0,0,0,0,0,0,0,-1,783,1772,0,0
-434,-748,0,0,0,0,0,0,0,0,0,-1,790,1772,0,0
-427,-748,0,0,0,0,0,0,0,0,0,-1,797,1772,0,0
-420,-748,0,0,0,0,0,0,0,0,0,-1,804,1772,0,0
-413,-748,0,0,0,0,0,0,0,0,0,-1,811,1772,0,0
-406,-748,0,0,0,0,0,0,0,0,0,-1,818,1772,0,0
-399,-748,0,0,0,0,0,0,0,0,0,-1,825,1772,0,0
-392,-748,0,0,0,0,0,0,0,0,0,-1,832,1772,0,0
-385,-748,0,0,0,0,0,0,0,0,0,-1,839,1772,0,0
-378,-748,0,0,0,0,0,0,0,0,0,-1,846,1772,0,0
-371,-748,0,0,0,0,0,0,0,0,0,-1,853,1772,0,0
-364,-748,0,0,0,0,0,0,0,0,0,-1,860,1772,0,0
-357,-748,0,0,0,0,0,0,0,0,0,-1,867,1772,0,0
-350,-748,0,0,0,0,0,0,0,0,0,-1,874,1772,0,0
-343,-748,0,0,0,0,0,0,0,0,0,-1,881,1772,0,0
-336,-748,0,0,0,0,0,0,0,0,0,-1,888,1772,0,0
-329,-748,0,0,0,0,0,0,0,0,0,-1,895,1772,0,0
-322,-748,0,0,0,0,0,0,0,0,0,-1,902,1772,0,0
-315,-748,0,0,0,0,0,0,0,0,0,-1,909,1772,0,0
-308,-748,0,0,0,0,0,0,0,0,0,-1,916,1772,0,0
-301,-748,0,0,0,0,0,0,0,0,0,-1,923,1772,0,0
-294,-748,0,0,0,0,0,0,0,0,0,-1,930,1772,0,0
-287,-748,0,0,0,0,0,0,0,0,0,-1,937,1772,0,0
-280,-748,0,0,0,0,0,0,0,0,0,-1,944,1772,0,0
-273,-748,0,0,0,0,0,0,0,0,0,-1,951,1772,0,0
-266,-748,0,0,0,0,0,0,0,0,0,-1,958,1772,0,0
-259,-748,0,0,0,0,0,0,0,0,0,-1,965,1772,0,0
-252,-748,0,0,0,0,0,0,0,0,0,-1,972,1772,0,0
-245,-748,0,0,0,0,0,0,0,0,0,-1,979,1772,0,0
-238,-748,0,0,0,0,0,0,0,0,0,-1,986,1772,0,0
-231,-748,0,0,0,0,0,0,0,0,0,-1,993,1772,0,0
-224,-748,0,0,0,0,0,0,0,0,0,-1,1000,1772,0,0
-217,-748,8.97742,29.9884,0,0,0,0,0,0,0,-1,1007,1772,8.97744,-29.9884
-210,-748,8.8941,30.14,0,0,0,0,0,0,0,-1,1014,1772,8.8941,-30.14
-203,-748,7.88,43.3942,0,0,0,0,0,0,0,-1,1021,1772,7.87999,-43.3941
-196,-748,7.95483,43.9952,0,0,0,0,0,0,0,-1,1028,1772,7.95478,-43.9953
-189,-748,8.18359,44.5873,0,0,0,0,0,0,0,-1,1035,1772,8.18358,-44.5873
-182,-748,8.49304,45.5183,0,0,0,0,0,0,0,-1,1042,1772,8.49308,-45.5183
-175,-748,10.4392,50.6167,0,0,0,0,0,0,0,-1,1049,1772,10.4392,-50.6167
-168,-748,9.54541,50.6587,0,0,0,0,0,0,0,-1,1056,1772,9.54547,-50.6586
-161,-748,10.7574,47.7889,0,0,0,0,0,0,0,-1,1063,1772,10.7574,-47.7889
-154,-748,11.4552,48.7113,0,0,0,0,0,0,0,-1,1070,1772,11.4552,-48.7113
-147,-748,11.7789,49.4792,0,0,0,0,0,0,0,-1,1077,1772,11.7789,-49.4793
-140,-748,10.4108,44.9001,0,0,0,0,0,0,0,-1,1084,1772,10.4107,-44.9001
-133,-748,7.44727,22.0308,0,0,0,0,0,0,0,-1,1091,1772,7.44728,-22.0308
-126,-748,5.98035,22.6067,0,0,0,0,0,0,0,-1,1098,1772,5.9803,-22.6067
-119,-748,6.63342,26.309,0,0,0,0,0,0,0,-1,1105,1772,6.6334,-26.3089
-112,-748,6.91333,24.923,0,0,0,0,0,0,0,-1,1112,1772,6.91339,-24.923
-105,-748,6.83313,25.0537,0,0,0,0,0,0,0,-1,1119,1772,6.83311,-25.0537
-98,-748,8.13623,30.8743,0,0,0,0,0,0,0,-1,1126,1772,8.13628,-30.8742
-91,-748,4.85352,15.3033,0,0,0,0,0,0,0,-1,1133,1772,4.85351,-15.3033
-84,-748,-0.192017,7.26196,0,0,0,0,0,0,0,-1,1140,1772,-0.192047,-7.26201
-77,-748,4.42615,13.5537,0,0,0,0,0,0,0,-1,1147,1772,4.4261,-13.5538
-70,-748,4.46191,13.7446,0,0,0,0,0,0,0,-1,1154,1772,4.4619,-13.7446
-63,-748,4.49768,13.9355,0,0,0,0,0,0,0,-1,1161,1772,4.49769,-13.9355
-56,-748,3.05762,7.87817,0,0,0,0,0,0,0,-1,1168,1772,3.05768,-7.87822
-49,-748,3.04102,7.82471,0,0,0,0,0,0,0,-1,1175,1772,3.04096,-7.82468
-42,-748,0.793457,14.9474,0,0,0,0,0,0,0,-1,1182,1772,0.793413,-14.9474
-35,-748,9.53198,66.3457,0,0,0,0,0,0,0,-1,1189,1772,9.53196,-66.3456
-28,-748,9.43323,66.6849,0,0,0,0,0,0,0,-1,1196,1772,9.43325,-66.6849
-21,-748,9.36353,66.8236,-0.00271851,0.0138283,0.00706324,0.0164333,-0.00532346,1.21747,0.0130958,0.0233175,1203,1772,9.36351,-66.8236
-14,-748,9.276,66.9883,-0.00181088,0.0160261,0.00797461,0.0190715,-0.00485624,1.20601,0.0146047,0.0180033,1210,1772,9.27606,-66.9883
-7,-748,9.25098,67.1667,-0.00106348,0.0181379,0.00873481,0.0215168,-0.0044424,1.20169,0.0160318,0.0174888,1217,1772,9.251,-67.1667
0,-748,9.18103,67.3203,-9.35209e-05,0.0206671,0.00962587,0.0244434,-0.00386977,1.19694,0.0177269,0.0168977,1224,1772,9.18105,-67.3203
7,-748,9.11475,67.4506,0.000968251,0.0232291,0.0103132,0.0272726,-0.00307526,1.19714,0.0192887,0.0161173,1231,1772,9.11473,-67.4506
14,-748,9.06824,67.6395,0.00229829,0.0257421,0.0105769,0.0298086,-0.00176821,1.20375,0.0204873,0.0178389,1238,1772,9.06827,-67.6396
21,-748,9.02466,67.7833,0.00384749,0.027574,0.0108581,0.0317929,-0.000371424,1.2002,0.0213202,0.0127675,1245,1772,9.0247,-67.7834
28,-748,8.98523,67.8618,0.00494487,0.0286552,0.0109206,0.0329186,0.000681566,1.1986,0.0217221,0.0125345,1252,1772,8.98526,-67.8619
35,-748,8.92358,67.9138,0.00618041,0.0293302,0.0103896,0.0333092,0.00220143,1.20505,0.0215099,0.0133856,1259,1772,8.92364,-67.9138
42,-748,8.89417,67.9471,0.0068542,0.0288617,0.00901939,0.0320858,0.00363009,1.22749,0.020289,0.0155874,1266,1772,8.89413,-67.9471
49,-748,8.84973,67.9839,0.00713565,0.0280609,0.00687568,0.0301179,0.00507863,1.2801,0.0186181,0.0116016,1273,1772,8.84976,-67.9839
56,-748,8.77588,68.0397,0.00703118,0.0271654,0.00468158,0.0282007,0.00599586,1.35315,0.0171547,0.0107264,1280,1772,8.77586,-68.0397
63,-748,8.71423,68.0305,0.00604203,0.0252546,0.00277495,0.0256473,0.00564926,1.43019,0.0155608,0.0131299,1287,1772,8.71422,-68.0305
70,-748,8.68835,68.0164,0.00437073,0.0224394,0.000452932,0.0224508,0.00435938,1.54575,0.0137464,0.0156955,1294,1772,8.68831,-68.0163
77,-748,8.65039,67.9885,0.00257425,0.0195941,-0.00181721,0.019786,0.0023824,-1.46561,0.0124726,0.014707,1301,1772,8.65042,-67.9885
84,-748,8.56299,67.9717,0.000360149,0.0168462,-0.00370482,0.0176405,-0.000434144,-1.3596,0.0119077,0.0163999,1308,1772,8.56304,-67.9717
91,-748,8.51965,67.943,-0.00208623,0.0145166,-0.00528131,0.0160542,-0.0036238,-1.28749,0.0120931,0.0133082,1315,1772,8.51967,-67.9429
98,-748,8.47205,67.8271,-0.00430486,0.01209,-0.00604482,0.0140778,-0.0062926,-1.2531,0.0120437,0.0118343,1322,1772,8.47203,-67.8271
105,-748,8.45435,67.644,-0.00646914,0.00978454,-0.00654156,0.0120902,-0.00877482,-1.23193,0.012097,0.0125614,1329,1772,8.45433,-67.644
112,-748,8.43237,67.4762,-0.00823861,0.00767735,-0.00657404,0.0100416,-0.0106028,-1.22557,0.0119205,0.0161479,1336,1772,8.43237,-67.4762
119,-748,8.38147,67.3517,-0.00986782,0.00543241,-0.00630141,0.0076935,-0.0121289,-1.22628,0.0115396,0.0138107,1343,1772,8.38152,-67.3517
126,-748,8.31812,67.225,-0.0110225,0.00374273,-0.00605957,0.0059111,-0.0131909,-1.22715,0.0112923,0.0146282,1350,1772,8.31811,-67.225
133,-748,8.22314,67.041,-0.0110168,0.00244439,-0.00550162,0.00440682,-0.0129793,-1.22816,0.0104367,0.00960112,1357,1772,8.22309,-67.041
140,-748,8.18176,66.8224,-0.0109808,0.00113535,-0.00435221,0.00253664,-0.0123821,-1.25931,0.00921734,0.0123374,1364,1772,8.1818,-66.8224
147,-748,8.15015,66.6135,-0.0108764,-3.19126e-06,-0.00307179,0.000804606,-0.0116842,-1.31365,0.00807104,0.0146208,1371,1772,8.15013,-66.6136
154,-748,8.06262,66.4027,-0.0108027,-0.00179613,-0.0014049,-0.00158207,-0.0110168,-1.41959,0.00687807,0.0133971,1378,1772,8.06263,-66.4027
161,-748,8.01172,66.174,-0.0102499,-0.00288557,-0.000814156,-0.00279664,-0.0103389,-1.46199,0.0061752,0.0197501,1385,1772,8.01175,-66.1739
168,-748,7.9895,65.9104,0,0,0,0,0,0,0,-1,1392,1772,7.98955,-65.9105
175,-748,11.6235,16.8242,0,0,0,0,0,0,0,-1,1399,1772,11.6236,-16.8242
182,-748,7.62476,10.3058,0,0,0,0,0,0,0,-1,1406,1772,7.62476,-10.3058
189,-748,6.15857,6.95898,0,0,0,0,0,0,0,-1,1413,1772,6.15862,-6.95896
196,-748,3.9425,8.46021,0,0,0,0,0,0,0,-1,1420,1772,3.9425,-8.46026
203,-748,3.9668,12.9835,0,0,0,0,0,0,0,-1,1427,1772,3.96678,-12.9836
210,-748,4.71472,16.8318,0,0,0,0,0,0,0,-1,1434,1772,4.71471,-16.8317
217,-748,5.38452,21.5551,0,0,0,0,0,0,0,-1,1441,1772,5.38455,-21.555
224,-748,6.14258,25.2345,0,0,0,0,0,0,0,-1,1448,1772,6.14263,-25.2345
231,-748,6.46045,29.7867,0,0,0,0,0,0,0,-1,1455,1772,6.46049,-29.7867
238,-748,7.41565,32.8574,0,0,0,0,0,0,0,-1,1462,1772,7.41562,-32.8574
245,-748,7.84912,32.0914,0,0,0,0,0,0,0,-1,1469,1772,7.84914,-32.0914
252,-748,7.57336,29.4369,0,0,0,0,0,0,0,-1,1476,1772,7.57337,-29.4369
259,-748,9.47351,46.1896,0,0,0,0,0,0,0,-1,1483,1772,9.4735,-46.1895
266,-748,8.36536,48.6908,0,0,0,0,0,0,0,-1,1490,1772,8.36541,-48.6909
273,-748,7.31421,46.6743,0,0,0,0,0,0,0,-1,1497,1772,7.31415,-46.6743
280,-748,8.76538,40.4501,0,0,0,0,0,0,0,-1,1504,1772,8.76537,-40.45
287,-748,14.161,8.32813,0,0,0,0,0,0,0,-1,1511,1772,14.161,-8.32808
294,-748,6.38525,32.4724,0,0,0,0,0,0,0,-1,1518,1772,6.38521,-32.4725
301,-748,5.40393,38.9807,0,0,0,0,0,0,0,-1,1525,1772,5.40397,-38.9807
308,-748,5.95227,37.1827,0,0,0,0,0,0,0,-1,1532,1772,5.95229,-37.1827
315,-748,7.71741,42.637,0,0,0,0,0,0,0,-1,1539,1772,7.71738,-42.637
322,-748,4.26538,29.0557,0,0,0,0,0,0,0,-1,1546,1772,4.26537,-29.0556
329,-748,3.87256,16.1473,0,0,0,0,0,0,0,-1,1553,1772,3.87259,-16.1474
336,-748,4.81006,19.6141,0,0,0,0,0,0,0,-1,1560,1772,4.81011,-19.6141
343,-748,0,0,0,0,0,0,0,0,0,-1,1567,1772,0,0
350,-748,0,0,0,0,0,0,0,0,0,-1,1574,1772,0,0
357,-748,0,0,0,0,0,0,0,0,0,-1,1581,1772,0,0
364,-748,0,0,0,0,0,0,0,0,0,-1,1588,1772,0,0
371,-748,0,0,0,0,0,0,0,0,0,-1,1595,1772,0,0
378,-748,0,0,0,0,0,0,0,0,0,-1,1602,1772,0,0
385,-748,0,0,0,0,0,0,0,0,0,-1,1609,1772,0,0
392,-748,0,0,0,0,0,0,0,0,0,-1,1616,1772,0,0
399,-748,0,0,0,0,0,0,0,0,0,-1,1623,1772,0,0
406,-748,0,0,0,0,0,0,0,0,0,-1,1630,1772,0,0
413,-748,0,0,0,0,0,0,0,0,0,-1,1637,1772,0,0
420,-748,0,0,0,0,0,0,0,0,0,-1,1644,1772,0,0
427,-748,0,0,0,0,0,0,0,0,0,-1,1651,1772,0,0
434,-748,0,0,0,0,0,0,0,0,0,-1,1658,1772,0,0
441,-748,0,0,0,0,0,0,0,0,0,-1,1665,1772,0,0
448,-748,0,0,0,0,0,0,0,0,0,-1,1672,1772,0,0
455,-748,0,0,0,0,0,0,0,0,0,-1,1679,1772,0,0
462,-748,0,0,0,0,0,0,0,0,0,-1,1686,1772,0,0
469,-748,0,0,0,0,0,0,0,0,0,-1,1693,1772,0,0
476,-748,0,0,0,0,0,0,0,0,0,-1,1700,1772,0,0
483,-748,0,0,0,0,0,0,0,0,0,-1,1707,1772,0,0
490,-748,0,0,0,0,0,0,0,0,0,-1,1714,1772,0,0
497,-748,0,0,0,0,0,0,0,0,0,-1,1721,1772,0,0
504,-748,0,0,0,0,0,0,0,0,0,-1,1728,1772,0,0
511,-748,0,0,0,0,0,0,0,0,0,-1,1735,1772,0,0
518,-748,0,0,0,0,0,0,0,0,0,-1,1742,1772,0,0
525,-748,0,0,0,0,0,0,0,0,0,-1,1749,1772,0,0
532,-748,0,0,0,0,0,0,0,0,0,-1,1756,1772,0,0
539,-748,0,0,0,0,0,0,0,0,0,-1,1763,1772,0,0
546,-748,0,0,0,0,0,0,0,0,0,-1,1770,1772,0,0
553,-748,0,0,0,0,0,0,0,0,0,-1,1777,1772,0,0
560,-748,0,0,0,0,0,0,0,0,0,-1,1784,1772,0,0
567,-748,0,0,0,0,0,0,0,0,0,-1,1791,1772,0,0
574,-748,0,0,0,0,0,0,0,0,0,-1,1798,1772,0,0
581,-748,0,0,0,0,0,0,0,0,0,-1,1805,1772,0,0
588,-748,0,0,0,0,0,0,0,0,0,-1,1812,1772,0,0
595,-748,0,0,0,0,0,0,0,0,0,-1,1819,1772,0,0
602,-748,0,0,0,0,0,0,0,0,0,-1,1826,1772,0,0
609,-748,0,0,0,0,0,0,0,0,0,-1,1833,1772,0,0
616,-748,0,0,0,0,0,0,0,0,0,-1,1840,1772,0,0
623,-748,0,0,0,0,0,0,0,0,0,-1,1847,1772,0,0
630,-748,0,0,0,0,0,0,0,0,0,-1,1854,1772,0,0
637,-748,0,0,0,0,0,0,0,0,0,-1,1861,1772,0,0
644,-748,0,0,0,0,0,0,0,0,0,-1,1868,1772,0,0
651,-748,0,0,0,0,0,0,0,0,0,-1,1875,1772,0,0
658,-748,0,0,0,0,0,0,0,0,0,-1,1882,1772,0,0
665,-748,0,0,0,0,0,0,0,0,0,-1,1889,1772,0,0
672,-748,0,0,0,0,0,0,0,0,0,-1,1896,1772,0,0
679,-748,0,0,0,0,0,0,0,0,0,-1,1903,1772,0,0
686,-748,0,0,0,0,0,0,0,0,0,-1,1910,1772,0,0
693,-748,0,0,0,0,0,0,0,0,0,-1,1917,1772,0,0
700,-748,0,0,0,0,0,0,0,0,0,-1,1924,1772,0,0
707,-748,0,0,0,0,0,0,0,0,0,-1,1931,1772,0,0
714,-748,0,0,0,0,0,0,0,0,0,-1,1938,1772,0,0
721,-748,0,0,0,0,0,0,0,0,0,-1,1945,1772,0,0
728,-748,0,0,0,0,0,0,0,0,0,-1,1952,1772,0,0
735,-748,0,0,0,0,0,0,0,0,0,-1,1959,1772,0,0
742,-748,0,0,0,0,0,0,0,0,0,-1,1966,1772,0,0
749,-748,0,0,0,0,0,0,0,0,0,-1,1973,1772,0,0
756,-748,0,0,0,0,0,0,0,0,0,-1,1980,1772,0,0
763,-748,0,0,0,0,0,0,0,0,0,-1,1987,1772,0,0
770,-748,0,0,0,0,0,0,0,0,0,-1,1994,1772,0,0
777,-748,0,0,0,0,0,0,0,0,0,-1,2001,1772,0,0
784,-748,0,0,0,0,0,0,0,0,0,-1,2008,1772,0,0
791,-748,0,0,0,0,0,0,0,0,0,-1,2015,1772,0,0
798,-748,0,0,0,0,0,0,0,0,0,-1,2022,1772,0,0
805,-748,0,0,0,0,0,0,0,0,0,-1,2029,1772,0,0
812,-748,0,0,0,0,0,0,0,0,0,-1,2036,1772,0,0
-700,-755,0,0,0,0,0,0,0,0,0,-1,524,1779,0,0
-693,-755,0,0,0,0,0,0,0,0,0,-1,531,1779,0,0
-686,-755,0,0,0,0,0,0,0,0,0,-1,538,1779,0,0
-679,-755,0,0,0,0,0,0,0,0,0,-1,545,1779,0,0
-672,-755,0,0,0,0,0,0,0,0,0,-1,552,1779,0,0
-665,-755,0,0,0,0,0,0,0,0,0,-1,559,1779,0,0
-658,-755,0,0,0,0,0,0,0,0,0,-1,566,1779,0,0
-651,-755,0,0,0,0,0,0,0,0,0,-1,573,1779,0,0
-644,-755,0,0,0,0,0,0,0,0,0,-1,580,1779,0,0
-637,-755,0,0,0,0,0,0,0,0,0,-1,587,1779,0,0
-630,-755,0,0,0,0,0,0,0,0,0,-1,594,1779,0,0
-623,-755,0,0,0,0,0,0,0,0,0,-1,601,1779,0,0
-616,-755,0,0,0,0,0,0,0,0,0,-1,608,1779,0,0
-609,-755,0,0,0,0,0,0,0,0,0,-1,615,1779,0,0
-602,-755,0,0,0,0,0,0,0,0,0,-1,622,1779,0,0
-595,-755,0,0,0,0,0,0,0,0,0,-1,629,1779,0,0
-588,-755,0,0,0,0,0,0,0,0,0,-1,636,1779,0,0
-581,-755,0,0,0,0,0,0,0,0,0,-1,643,1779,0,0
-574,-755,0,0,0,0,0,0,0,0,0,-1,650,1779,0,0
-567,-755,0,0,0,0,0,0,0,0,0,-1,657,1779,0,0
-560,-755,0,0,0,0,0,0,0,0,0,-1,664,1779,0,0
-553,-755,0,0,0,0,0,0,0,0,0,-1,671,1779,0,0
-546,-755,0,0,0,0,0,0,0,0,0,-1,678,1779,0,0
-539,-755,0,0,0,0,0,0,0,0,0,-1,685,1779,0,0
-532,-755,0,0,0,0,0,0,0,0,0,-1,692,1779,0,0
-525,-755,0,0,0,0,0,0,0,0,0,-1,699,1779,0,0
-518,-755,0,0,0,0,0,0,0,0,0,-1,706,1779,0,0
-511,-755,0,0,0,0,0,0,0,0,0,-1,713,1779,0,0
-504,-755,0,0,0,0,0,0,0,0,0,-1,720,1779,0,0
-497,-755,0,0,0,0,0,0,0,0,0,-1,727,1779,0,0
-490,-755,0,0,0,0,0,0,0,0,0,-1,734,1779,0,0
-483,-755,0,0,0,0,0,0,0,0,0,-1,741,1779,0,0
-476,-755,0,0,0,0,0,0,0,0,0,-1,748,1779,0,0
-469,-755,0,0,0,0,0,0,0,0,0,-1,755,1779,0,0
-462,-755,0,0,0,0,0,0,0,0,0,-1,762,1779,0,0
-455,-755,0,0,0,0,0,0,0,0,0,-1,769,1779,0,0
-448,-755,0,0,0,0,0,0,0,0,0,-1,776,1779,0,0
-441,-755,0,0,0,0,0,0,0,0,0,-1,783,1779,0,0
-434,-755,0,0,0,0,0,0,0,0,0,-1,790,1779,0,0
-427,-755,0,0,0,0,0,0,0,0,0,-1,797,1779,0,0
-420,-755,0,0,0,0,0,0,0,0,0,-1,804,1779,0,0
-413,-755,0,0,0,0,0,0,0,0,0,-1,811,1779,0,0
-406,-755,0,0,0,0,0,0,0,0,0,-1,818,1779,0,0
-399,-755,0,0,0,0,0,0,0,0,0,-1,825,1779,0,0
-392,-755,0,0,0,0,0,0,0,0,0,-1,832,1779,0,0
-385,-755,0,0,0,0,0,0,0,0,0,-1,839,1779,0,0
-378,-755,0,0,0,0,0,0,0,0,0,-1,846,1779,0,0
-371,-755,0,0,0,0,0,0,0,0,0,-1,853,1779,0,0
-364,-755,0,0,0,0,0,0,0,0,0,-1,860,1779,0,0
-357,-755,0,0,0,0,0,0,0,0,0,-1,867,1779,0,0
-350,-755,0,0,0,0,0,0,0,0,0,-1,874,1779,0,0
-343,-755,0,0,0,0,0,0,0,0,0,-1,881,1779,0,0
-336,-755,0,0,0,0,0,0,0,0,0,-1,888,1779,0,0
-329,-755,0,0,0,0,0,0,0,0,0,-1,895,1779,0,0
-322,-755,0,0,0,0,0,0,0,0,0,-1,902,1779,0,0
-315,-755,0,0,0,0,0,0,0,0,0,-1,909,1779,0,0
-308,-755,0,0,0,0,0,0,0,0,0,-1,916,1779,0,0
-301,-755,0,0,0,0,0,0,0,0,0,-1,923,1779,0,0
-294,-755,0,0,0,0,0,0,0,0,0,-1,930,1779,0,0
-287,-755,0,0,0,0,0,0,0,0,0,-1,937,1779,0,0
-280,-755,0,0,0,0,0,0,0,0,0,-1,944,1779,0,0
-273,-755,0,0,0,0,0,0,0,0,0,-1,951,1779,0,0
-266,-755,0,0,0,0,0,0,0,0,0,-1,958,1779,0,0
-259,-755,0,0,0,0,0,0,0,0,0,-1,965,1779,0,0
-252,-755,0,0,0,0,0,0,0,0,0,-1,972,1779,0,0
-245,-755,0,0,0,0,0,0,0,0,0,-1,979,1779,0,0
-238,-755,0,0,0,0,0,0,0,0,0,-1,986,1779,0,0
-231,-755,0,0,0,0,0,0,0,0,0,-1,993,1779,0,0
-224,-755,0,0,0,0,0,0,0,0,0,-1,1000,1779,0,0
-217,-755,0,0,0,0,0,0,0,0,0,-1,1007,1779,0,0
-210,-755,0,0,0,0,0,0,0,0,0,-1,1014,1779,0,0
-203,-755,8.97363,30.5414,0,0,0,0,0,0,0,-1,1021,1779,8.97362,-30.5414
-196,-755,8.08667,43.2203,0,0,0,0,0,0,0,-1,1028,1779,8.08666,-43.2204
-189,-755,0.725098,39.8892,0,0,0,0,0,0,0,-1,1035,1779,0.725055,-39.8891
-182,-755,1.80835,40.9692,0,0,0,0,0,0,0,-1,1042,1779,1.80838,-40.9692
-175,-755,3.04749,41.9612,0,0,0,0,0,0,0,-1,1049,1779,3.0475,-41.9612
-168,-755,4.8302,42.7631,0,0,0,0,0,0,0,-1,1056,1779,4.8302,-42.7631
-161,-755,6.46777,44.0007,0,0,0,0,0,0,0,-1,1063,1779,6.46773,-44.0007
-154,-755,7.71094,44.9023,0,0,0,0,0,0,0,-1,1070,1779,7.71089,-44.9023
-147,-755,-6.45593,10.2422,0,0,0,0,0,0,0,-1,1077,1779,-6.45594,-10.2422
-140,-755,1.33521,21.3856,0,0,0,0,0,0,0,-1,1084,1779,1.33522,-21.3857
-133,-755,2.89417,21.0964,0,0,0,0,0,0,0,-1,1091,1779,2.89422,-21.0964
-126,-755,3.26404,20.9304,0,0,0,0,0,0,0,-1,1098,1779,3.26399,-20.9305
-119,-755,5.17761,21.9325,0,0,0,0,0,0,0,-1,1105,1779,5.17761,-21.9325
-112,-755,5.40247,24.5646,0,0,0,0,0,0,0,-1,1112,1779,5.40244,-24.5646
-105,-755,7.01294,20.1539,0,0,0,0,0,0,0,-1,1119,1779,7.01295,-20.154
-98,-755,5.50708,16.9628,0,0,0,0,0,0,0,-1,1126,1779,5.5071,-16.9628
-91,-755,5.51025,12.0438,0,0,0,0,0,0,0,-1,1133,1779,5.51022,-12.0439
-84,-755,0.169312,8.66443,0,0,0,0,0,0,0,-1,1140,1779,0.16932,-8.66446
-77,-755,-0.0491943,6.87439,0,0,0,0,0,0,0,-1,1147,1779,-0.0491385,-6.87443
-70,-755,4.5686,13.2169,0,0,0,0,0,0,0,-1,1154,1779,4.56865,-13.2169
-63,-755,-1.36316,7.3147,0,0,0,0,0,0,0,-1,1161,1779,-1.36312,-7.31473
-56,-755,0.0483398,5.06079,0,0,0,0,0,0,0,-1,1168,1779,0.0483138,-5.06084
-49,-755,-1.32263,5.33716,0,0,0,0,0,0,0,-1,1175,1779,-1.32264,-5.33718
-42,-755,-2.03613,4.01672,0,0,0,0,0,0,0,-1,1182,1779,-2.0361,-4.01671
-35,-755,-2.72498,2.37476,0,0,0,0,0,0,0,-1,1189,1779,-2.72502,-2.37473
-28,-755,9.73157,65.6016,0,0,0,0,0,0,0,-1,1196,1779,9.73152,-65.6016
-21,-755,9.51746,66.7411,0,0,0,0,0,0,0,-1,1203,1779,9.51744,-66.7411
-14,-755,9.45154,66.9287,-0.00122925,0.0208174,0.010583,0.0250752,-0.00548707,1.18829,0.0188144,0.0352581,1210,1779,9.45157,-66.9287
-7,-755,9.34119,67.095,-0.000285995,0.0240299,0.0117106,0.0287525,-0.00500866,1.18747,0.0210376,0.0263068,1217,1779,9.34118,-67.095
0,-755,9.28528,67.2544,0.000949261,0.0278024,0.0130139,0.0330743,-0.00432268,1.1859,0.0236227,0.0163557,1224,1779,9.2853,-67.2544
7,-755,9.24219,67.4049,0.00241984,0.0316406,0.0140446,0.0372963,-0.00323587,1.18797,0.02601,0.0151161,1231,1779,9.24216,-67.4049
14,-755,9.21057,67.5894,0.0043282,0.0353496,0.0144475,0.0410358,-0.00135806,1.19583,0.0278209,0.0137921,1238,1779,9.21058,-67.5893
21,-755,9.11023,67.7078,0.00655457,0.0380873,0.0148841,0.044003,0.000638803,1.19249,0.0291247,0.0184279,1245,1779,9.11017,-67.7078
28,-755,9.02747,67.7407,0.00817632,0.0397689,0.0150094,0.0457626,0.00218257,1.19087,0.0298075,0.0216363,1252,1779,9.02745,-67.7407
35,-755,8.98975,67.8656,0.00993647,0.0408038,0.0142748,0.0463932,0.00434709,1.19759,0.0295864,0.0219295,1259,1779,8.98979,-67.8656
42,-755,8.92358,67.9189,0.0108697,0.0401937,0.0123556,0.0447056,0.00635788,1.22068,0.0279267,0.0157845,1266,1779,8.92356,-67.919
49,-755,8.87402,67.917,0.0112863,0.0392667,0.0093351,0.0420952,0.00845781,1.27659,0.0257121,0.0111078,1273,1779,8.87404,-67.917
56,-755,8.79712,67.9745,0.0111773,0.03819,0.0063045,0.039589,0.00977835,1.35244,0.0238121,0.0107221,1280,1779,8.79712,-67.9744
63,-755,8.73364,68.0247,0.00980997,0.0355599,0.00352943,0.0360349,0.00933497,1.43702,0.021595,0.0106775,1287,1779,8.7337,-68.0247
70,-755,8.70813,67.9757,0.00748699,0.0317534,0.00016964,0.0317546,0.00748581,1.56381,0.019168,0.0149518,1294,1779,8.70817,-67.9757
77,-755,8.62158,67.9052,0.00492483,0.0279167,-0.00309427,0.0283258,0.00451568,-1.43933,0.0175731,0.0146147,1301,1779,8.62156,-67.9052
84,-755,8.52234,67.899,0.00181296,0.0242565,-0.00586182,0.0256953,0.000374202,-1.33011,0.0170068,0.0157379,1308,1779,8.52239,-67.899
91,-755,8.46582,67.8405,-0.00161133,0.0210619,-0.00821445,0.0237251,-0.00427458,-1.25727,0.0174173,0.01619,1315,1779,8.46581,-67.8405
98,-755,8.36853,67.7753,-0.00478257,0.017744,-0.00953769,0.0212398,-0.00827832,-1.21948,0.0175814,0.0158315,1322,1779,8.36849,-67.7752
105,-755,8.30298,67.6101,-0.00784659,0.0146238,-0.0104234,0.0187143,-0.0119371,-1.19683,0.0178402,0.0188157,1329,1779,8.30298,-67.6101
112,-755,8.22876,67.4393,-0.0104432,0.0116893,-0.0105985,0.0159459,-0.0146998,-1.18889,0.0176982,0.0256053,1336,1779,8.22871,-67.4393
119,-755,8.16724,67.3125,-0.0129111,0.00847101,-0.0103156,0.0126363,-0.0170764,-1.18703,0.0172184,0.0252388,1343,1779,8.16724,-67.3125
126,-755,8.15723,67.2566,-0.0148346,0.00578231,-0.0101333,0.0099289,-0.0189812,-1.18238,0.0169618,0.0274297,1350,1779,8.15719,-67.2565
133,-755,8.05603,67.0513,-0.0148989,0.00377149,-0.00906101,0.00744581,-0.0185733,-1.18555,0.0154733,0.0284906,1357,1779,8.05598,-67.0513
140,-755,7.97424,66.8114,-0.014869,0.00162897,-0.00711142,0.00427119,-0.0175112,-1.21506,0.013328,0.0364541,1364,1779,7.97427,-66.8114
147,-755,7.97217,66.7196,-0.0147161,-0.000309229,-0.00501026,0.00126185,-0.0162872,-1.26693,0.0113023,0.0381881,1371,1779,7.97219,-66.7197
154,-755,7.87134,66.5969,-0.014675,-0.00328795,-0.0020647,-0.00292513,-0.0150378,-1.39685,0.0092064,0.0361128,1378,1779,7.87139,-66.597
161,-755,7.69702,66.4486,0,0,0,0,0,0,0,-1,1385,1779,7.69705,-66.4486
168,-755,3.98181,7.35901,0,0,0,0,0,0,0,-1,1392,1779,3.98184,-7.35904
175,-755,8.17065,1.34363,0,0,0,0,0,0,0,-1,1399,1779,8.1706,-1.34368
182,-755,8.09216,2.96924,0,0,0,0,0,0,0,-1,1406,1779,8.09213,-2.9693
189,-755,8.04419,4.68042,0,0,0,0,0,0,0,-1,1413,1779,8.04419,-4.68046
196,-755,7.74841,7.4541,0,0,0,0,0,0,0,-1,1420,1779,7.74842,-7.45405
203,-755,4.80554,6.88696,0,0,0,0,0,0,0,-1,1427,1779,4.80554,-6.88697
210,-755,25.1694,7.35693,0,0,0,0,0,0,0,-1,1434,1779,25.1694,-7.35688
217,-755,5.01648,16.411,0,0,0,0,0,0,0,-1,1441,1779,5.01646,-16.411
224,-755,5.18103,22.6283,0,0,0,0,0,0,0,-1,1448,1779,5.18101,-22.6283
231,-755,5.7489,30.15,0,0,0,0,0,0,0,-1,1455,1779,5.74885,-30.15
238,-755,6.56323,29.2726,0,0,0,0,0,0,0,-1,1462,1779,6.56327,-29.2726
245,-755,8.29639,28.2113,0,0,0,0,0,0,0,-1,1469,1779,8.29639,-28.2113
252,-755,6.8877,28.8699,0,0,0,0,0,0,0,-1,1476,1779,6.88774,-28.8698
259,-755,6.42676,30.8574,0,0,0,0,0,0,0,-1,1483,1779,6.42677,-30.8575
266,-755,17.255,7.86096,0,0,0,0,0,0,0,-1,1490,1779,17.255,-7.86092
273,-755,15.7932,7.59778,0,0,0,0,0,0,0,-1,1497,1779,15.7932,-7.59777
280,-755,14.6255,7.34802,0,0,0,0,0,0,0,-1,1504,1779,14.6254,-7.34806
287,-755,13.8279,7.83105,0,0,0,0,0,0,0,-1,1511,1779,13.8279,-7.83104
294,-755,12.5695,7.96814,0,0,0,0,0,0,0,-1,1518,1779,12.5694,-7.9682
301,-755,11.2659,8.27087,0,0,0,0,0,0,0,-1,1525,1779,11.2658,-8.27087
308,-755,5.17737,37.2896,0,0,0,0,0,0,0,-1,1532,1779,5.17742,-37.2896
315,-755,0.828613,31.032,0,0,0,0,0,0,0,-1,1539,1779,0.828668,-31.032
322,-755,0,0,0,0,0,0,0,0,0,-1,1546,1779,0,0
329,-755,0,0,0,0,0,0,0,0,0,-1,1553,1779,0,0
336,-755,0,0,0,0,0,0,0,0,0,-1,1560,1779,0,0
343,-755,0,0,0,0,0,0,0,0,0,-1,1567,1779,0,0
350,-755,0,0,0,0,0,0,0,0,0,-1,1574,1779,0,0
357,-755,0,0,0,0,0,0,0,0,0,-1,1581,1779,0,0
364,-755,0,0,0,0,0,0,0,0,0,-1,1588,1779,0,0
371,-755,0,0,0,0,0,0,0,0,0,-1,1595,1779,0,0
378,-755,0,0,0,0,0,0,0,0,0,-1,1602,1779,0,0
385,-755,0,0,0,0,0,0,0,0,0,-1,1609,1779,0,0
392,-755,0,0,0,0,0,0,0,0,0,-1,1616,1779,0,0
399,-755,0,0,0,0,0,0,0,0,0,-1,1623,1779,0,0
406,-755,0,0,0,0,0,0,0,0,0,-1,1630,1779,0,0
413,-755,0,0,0,0,0,0,0,0,0,-1,1637,1779,0,0
420,-755,0,0,0,0,0,0,0,0,0,-1,1644,1779,0,0
427,-755,0,0,0,0,0,0,0,0,0,-1,1651,1779,0,0
434,-755,0,0,0,0,0,0,0,0,0,-1,1658,1779,0,0
441,-755,0,0,0,0,0,0,0,0,0,-1,1665,1779,0,0
448,-755,0,0,0,0,0,0,0,0,0,-1,1672,1779,0,0
455,-755,0,0,0,0,0,0,0,0,0,-1,1679,1779,0,0
462,-755,0,0,0,0,0,0,0,0,0,-1,1686,1779,0,0
469,-755,0,0,0,0,0,0,0,0,0,-1,1693,1779,0,0
476,-755,0,0,0,0,0,0,0,0,0,-1,1700,1779,0,0
483,-755,0,0,0,0,0,0,0,0,0,-1,1707,1779,0,0
490,-755,0,0,0,0,0,0,0,0,0,-1,1714,1779,0,0
497,-755,0,0,0,0,0,0,0,0,0,-1,1721,1779,0,0
504,-755,0,0,0,0,0,0,0,0,0,-1,1728,1779,0,0
511,-755,0,0,0,0,0,0,0,0,0,-1,1735,1779,0,0
518,-755,0,0,0,0,0,0,0,0,0,-1,1742,1779,0,0
525,-755,0,0,0,0,0,0,0,0,0,-1,1749,1779,0,0
532,-755,0,0,0,0,0,0,0,0,0,-1,1756,1779,0,0
539,-755,0,0,0,0,0,0,0,0,0,-1,1763,1779,0,0
546,-755,0,0,0,0,0,0,0,0,0,-1,1770,1779,0,0
553,-755,0,0,0,0,0,0,0,0,0,-1,1777,1779,0,0
560,-755,0,0,0,0,0,0,0,0,0,-1,1784,1779,0,0
567,-755,0,0,0,0,0,0,0,0,0,-1,1791,1779,0,0
574,-755,0,0,0,0,0,0,0,0,0,-1,1798,1779,0,0
581,-755,0,0,0,0,0,0,0,0,0,-1,1805,1779,0,0
588,-755,0,0,0,0,0,0,0,0,0,-1,1812,1779,0,0
595,-755,0,0,0,0,0,0,0,0,0,-1,1819,1779,0,0
602,-755,0,0,0,0,0,0,0,0,0,-1,1826,1779,0,0
609,-755,0,0,0,0,0,0,0,0,0,-1,1833,1779,0,0
616,-755,0,0,0,0,0,0,0,0,0,-1,1840,1779,0,0
623,-755,0,0,0,0,0,0,0,0,0,-1,1847,1779,0,0
630,-755,0,0,0,0,0,0,0,0,0,-1,1854,1779,0,0
637,-755,0,0,0,0,0,0,0,0,0,-1,1861,1779,0,0
644,-755,0,0,0,0,0,0,0,0,0,-1,1868,1779,0,0
651,-755,0,0,0,0,0,0,0,0,0,-1,1875,1779,0,0
658,-755,0,0,0,0,0,0,0,0,0,-1,1882,1779,0,0
665,-755,0,0,0,0,0,0,0,0,0,-1,1889,1779,0,0
672,-755,0,0,0,0,0,0,0,0,0,-1,1896,1779,0,0
679,-755,0,0,0,0,0,0,0,0,0,-1,1903,1779,0,0
686,-755,0,0,0,0,0,0,0,0,0,-1,1910,1779,0,0
693,-755,0,0,0,0,0,0,0,0,0,-1,1917,1779,0,0
700,-755,0,0,0,0,0,0,0,0,0,-1,1924,1779,0,0
707,-755,0,0,0,0,0,0,0,0,0,-1,1931,1779,0,0
714,-755,0,0,0,0,0,0,0,0,0,-1,1938,1779,0,0
721,-755,0,0,0,0,0,0,0,0,0,-1,1945,1779,0,0
728,-755,0,0,0,0,0,0,0,0,0,-1,1952,1779,0,0
735,-755,0,0,0,0,0,0,0,0,0,-1,1959,1779,0,0
742,-755,0,0,0,0,0,0,0,0,0,-1,1966,1779,0,0
749,-755,0,0,0,0,0,0,0,0,0,-1,1973,1779,0,0
756,-755,0,0,0,0,0,0,0,0,0,-1,1980,1779,0,0
763,-755,0,0,0,0,0,0,0,0,0,-1,1987,1779,0,0
770,-755,0,0,0,0,0,0,0,0,0,-1,1994,1779,0,0
777,-755,0,0,0,0,0,0,0,0,0,-1,2001,1779,0,0
784,-755,0,0,0,0,0,0,0,0,0,-1,2008,1779,0,0
791,-755,0,0,0,0,0,0,0,0,0,-1,2015,1779,0,0
798,-755,0,0,0,0,0,0,0,0,0,-1,2022,1779,0,0
805,-755,0,0,0,0,0,0,0,0,0,-1,2029,1779,0,0
812,-755,0,0,0,0,0,0,0,0,0,-1,2036,1779,0,0
-700,-762,0,0,0,0,0,0,0,0,0,-1,524,1786,0,0
-693,-762,0,0,0,0,0,0,0,0,0,-1,531,1786,0,0
-686,-762,0,0,0,0,0,0,0,0,0,-1,538,1786,0,0
-679,-762,0,0,0,0,0,0,0,0,0,-1,545,1786,0,0
-672,-762,0,0,0,0,0,0,0,0,0,-1,552,1786,0,0
-665,-762,0,0,0,0,0,0,0,0,0,-1,559,1786,0,0
-658,-762,0,0,0,0,0,0,0,0,0,-1,566,1786,0,0
-651,-762,0,0,0,0,0,0,0,0,0,-1,573,1786,0,0
-644,-762,0,0,0,0,0,0,0,0,0,-1,580,1786,0,0
-637,-762,0,0,0,0,0,0,0,0,0,-1,587,1786,0,0
-630,-762,0,0,0,0,0,0,0,0,0,-1,594,1786,0,0
-623,-762,0,0,0,0,0,0,0,0,0,-1,601,1786,0,0
-616,-762,0,0,0,0,0,0,0,0,0,-1,608,1786,0,0
-609,-762,0,0,0,0,0,0,0,0,0,-1,615,1786,0,0
-602,-762,0,0,0,0,0,0,0,0,0,-1,622,1786,0,0
-595,-762,0,0,0,0,0,0,0,0,0,-1,629,1786,0,0
-588,-762,0,0,0,0,0,0,0,0,0,-1,636,1786,0,0
-581,-762,0,0,0,0,0,0,0,0,0,-1,643,1786,0,0
-574,-762,0,0,0,0,0,0,0,0,0,-1,650,1786,0,0
-567,-762,0,0,0,0,0,0,0,0,0,-1,657,1786,0,0
-560,-762,0,0,0,0,0,0,0,0,0,-1,664,1786,0,0
-553,-762,0,0,0,0,0,0,0,0,0,-1,671,1786,0,0
-546,-762,0,0,0,0,0,0,0,0,0,-1,678,1786,0,0
-539,-762,0,0,0,0,0,0,0,0,0,-1,685,1786,0,0
-532,-762,0,0,0,0,0,0,0,0,0,-1,692,1786,0,0
-525,-762,0,0,0,0,0,0,0,0,0,-1,699,1786,0,0
-518,-762,0,0,0,0,0,0,0,0,0,-1,706,1786,0,0
-511,-762,0,0,0,0,0,0,0,0,0,-1,713,1786,0,0
-504,-762,0,0,0,0,0,0,0,0,0,-1,720,1786,0,0
-497,-762,0,0,0,0,0,0,0,0,0,-1,727,1786,0,0
-490,-762,0,0,0,0,0,0,0,0,0,-1,734,1786,0,0
-483,-762,0,0,0,0,0,0,0,0,0,-1,741,1786,0,0
-476,-762,0,0,0,0,0,0,0,0,0,-1,748,1786,0,0
-469,-762,0,0,0,0,0,0,0,0,0,-1,755,1786,0,0
-462,-762,0,0,0,0,0,0,0,0,0,-1,762,1786,0,0
-455,-762,0,0,0,0,0,0,0,0,0,-1,769,1786,0,0
-448,-762,0,0,0,0,0,0,0,0,0,-1,776,1786,0,0
-441,-762,0,0,0,0,0,0,0,0,0,-1,783,1786,0,0
-434,-762,0,0,0,0,0,0,0,0,0,-1,790,1786,0,0
-427,-762,0,0,0,0,0,0,0,0,0,-1,797,1786,0,0
-420,-762,0,0,0,0,0,0,0,0,0,-1,804,1786,0,0
-413,-762,0,0,0,0,0,0,0,0,0,-1,811,1786,0,0
-406,-762,0,0,0,0,0,0,0,0,0,-1,818,1786,0,0
-399,-762,0,0,0,0,0,0,0,0,0,-1,825,1786,0,0
-392,-762,0,0,0,0,0,0,0,0,0,-1,832,1786,0,0
-385,-762,0,0,0,0,0,0,0,0,0,-1,839,1786,0,0
-378,-762,0,0,0,0,0,0,0,0,0,-1,846,1786,0,0
-371,-762,0,0,0,0,0,0,0,0,0,-1,853,1786,0,0
-364,-762,0,0,0,0,0,0,0,0,0,-1,860,1786,0,0
-357,-762,0,0,0,0,0,0,0,0,0,-1,867,1786,0,0
-350,-762,0,0,0,0,0,0,0,0,0,-1,874,1786,0,0
-343,-762,0,0,0,0,0,0,0,0,0,-1,881,1786,0,0
-336,-762,0,0,0,0,0,0,0,0,0,-1,888,1786,0,0
-329,-762,0,0,0,0,0,0,0,0,0,-1,895,1786,0,0
-322,-762,0,0,0,0,0,0,0,0,0,-1,902,1786,0,0
-315,-762,0,0,0,0,0,0,0,0,0,-1,909,1786,0,0
-308,-762,0,0,0,0,0,0,0,0,0,-1,916,1786,0,0
-301,-762,0,0,0,0,0,0,0,0,0,-1,923,1786,0,0
-294,-762,0,0,0,0,0,0,0,0,0,-1,930,1786,0,0
-287,-762,0,0,0,0,0,0,0,0,0,-1,937,1786,0,0
-280,-762,0,0,0,0,0,0,0,0,0,-1,944,1786,0,0
-273,-762,0,0,0,0,0,0,0,0,0,-1,951,1786,0,0
-266,-762,0,0,0,0,0,0,0,0,0,-1,958,1786,0,0
-259,-762,0,0,0,0,0,0,0,0,0,-1,965,1786,0,0
-252,-762,0,0,0,0,0,0,0,0,0,-1,972,1786,0,0
-245,-762,0,0,0,0,0,0,0,0,0,-1,979,1786,0,0
-238,-762,0,0,0,0,0,0,0,0,0,-1,986,1786,0,0
-231,-762,0,0,0,0,0,0,0,0,0,-1,993,1786,0,0
-224,-762,0,0,0,0,0,0,0,0,0,-1,1000,1786,0,0
-217,-762,0,0,0,0,0,0,0,0,0,-1,1007,1786,0,0
-210,-762,0,0,0,0,0,0,0,0,0,-1,1014,1786,0,0
-203,-762,0,0,0,0,0,0,0,0,0,-1,1021,1786,0,0
-196,-762,0,0,0,0,0,0,0,0,0,-1,1028,1786,0,0
-189,-762,0,0,0,0,0,0,0,0,0,-1,1035,1786,0,0
-182,-762,4.44226,13.2462,0,0,0,0,0,0,0,-1,1042,1786,4.44227,-13.2462
-175,-762,1.14465,40.1932,0,0,0,0,0,0,0,-1,1049,1786,1.1447,-40.1932
-168,-762,3.26794,41.3881,0,0,0,0,0,0,0,-1,1056,1786,3.26794,-41.388
-161,-762,-3.29077,11.9508,0,0,0,0,0,0,0,-1,1063,1786,-3.29076,-11.9508
-154,-762,-4.55823,11.1176,0,0,0,0,0,0,0,-1,1070,1786,-4.55828,-11.1175
-147,-762,-6.52454,9.41418,0,0,0,0,0,0,0,-1,1077,1786,-6.52458,-9.41419
-140,-762,4.99792,5.28589,0,0,0,0,0,0,0,-1,1084,1786,4.99793,-5.28587
-133,-762,0.689819,19.2172,0,0,0,0,0,0,0,-1,1091,1786,0.689867,-19.2171
-126,-762,1.48743,19.9288,0,0,0,0,0,0,0,-1,1098,1786,1.48738,-19.9289
-119,-762,2.65637,20.208,0,0,0,0,0,0,0,-1,1105,1786,2.65632,-20.208
-112,-762,6.84705,25.5554,0,0,0,0,0,0,0,-1,1112,1786,6.84706,-25.5554
-105,-762,5.57947,21.618,0,0,0,0,0,0,0,-1,1119,1786,5.57948,-21.618
-98,-762,5.0636,17.9901,0,0,0,0,0,0,0,-1,1126,1786,5.06361,-17.9901
-91,-762,4.54773,14.3622,0,0,0,0,0,0,0,-1,1133,1786,4.54774,-14.3622
-84,-762,3.96375,10.4547,0,0,0,0,0,0,0,-1,1140,1786,3.96371,-10.4548
-77,-762,0.305054,8.49365,0,0,0,0,0,0,0,-1,1147,1786,0.305008,-8.49362
-70,-762,0.183716,6.74622,0,0,0,0,0,0,0,-1,1154,1786,0.183696,-6.74621
-63,-762,-0.883057,9.08813,0,0,0,0,0,0,0,-1,1161,1786,-0.88311,-9.08808
-56,-762,-0.578979,5.10254,0,0,0,0,0,0,0,-1,1168,1786,-0.578951,-5.10249
-49,-762,-2.04541,3.66321,0,0,0,0,0,0,0,-1,1175,1786,-2.0454,-3.66319
-42,-762,-2.23462,3.474,0,0,0,0,0,0,0,-1,1182,1786,-2.23459,-3.47399
-35,-762,-3.28992,1.68164,0,0,0,0,0,0,0,-1,1189,1786,-3.28998,-1.68164
-28,-762,-3.75378,1.37769,0,0,0,0,0,0,0,-1,1196,1786,-3.75373,-1.37767
-21,-762,9.69189,67.1995,0,0,0,0,0,0,0,-1,1203,1786,9.69185,-67.1995
-14,-762,9.46606,67.3638,0,0,0,0,0,0,0,-1,1210,1786,9.46603,-67.3637
-7,-762,9.24023,67.528,0,0,0,0,0,0,0,-1,1217,1786,9.24022,-67.528
0,-762,9.33826,67.2527,0.00281167,0.0354395,0.0167585,0.0425135,-0.00426227,1.17138,0.0298646,0.0387837,1224,1786,9.33822,-67.2527
7,-762,9.40149,67.3853,0.00493188,0.0410885,0.0183467,0.0487672,-0.00274687,1.17441,0.0334647,0.0239899,1231,1786,9.4015,-67.3852
14,-762,9.25244,67.4741,0,0,0,0,0,0,0,-1,1238,1786,9.25248,-67.4741
21,-762,9.08728,67.5365,0.0108852,0.0503663,0.0197201,0.0585287,0.00272286,1.17836,0.0381439,0.0487802,1245,1786,9.08722,-67.5365
28,-762,8.69434,67.4905,0.0133003,0.0529121,0.0199817,0.0612405,0.00497189,1.17589,0.0392748,0.0482993,1252,1786,8.69431,-67.4905
35,-762,8.70239,67.7639,0.01581,0.0544391,0.0190122,0.0622265,0.00802263,1.18204,0.0390855,0.049203,1259,1786,8.7024,-67.7639
42,-762,8.8623,67.939,0,0,0,0,0,0,0,-1,1266,1786,8.86232,-67.9389
49,-762,8.86816,67.9673,0.0177379,0.0526372,0.0122723,0.0565206,0.0138544,1.26433,0.0340161,0.0451547,1273,1786,8.86819,-67.9672
56,-762,8.87,68.0149,0.017654,0.0513456,0.00820271,0.0532365,0.015763,1.34423,0.0315766,0.0358184,1280,1786,8.87003,-68.0149
63,-762,8.79761,68.0195,0.0158106,0.0477672,0.00425381,0.0483237,0.0152541,1.4407,0.0285247,0.0326742,1287,1786,8.79763,-68.0196
70,-762,8.73206,67.995,0.0126839,0.0427281,-0.000477402,0.0427357,0.0126764,-1.55491,0.0253447,0.0331109,1294,1786,8.7321,-67.9949
77,-762,8.53784,67.8169,0.00913605,0.0376635,-0.00504546,0.0385296,0.00826999,-1.4008,0.0234216,0.0409372,1301,1786,8.53785,-67.8169
84,-762,8.44556,67.8003,0,0,0,0,0,0,0,-1,1308,1786,8.44556,-67.8002
91,-762,8.48694,67.6907,0,0,0,0,0,0,0,-1,1315,1786,8.48697,-67.6907
98,-762,8.16748,67.6631,0,0,0,0,0,0,0,-1,1322,1786,8.16746,-67.6631
105,-762,8.02576,67.5883,0,0,0,0,0,0,0,-1,1329,1786,8.02571,-67.5882
112,-762,7.70642,67.3304,-0.0122117,0.0164184,-0.0163835,0.0238598,-0.019653,-1.14446,0.0251612,0.0469983,1336,1786,7.70646,-67.3305
119,-762,7.49023,67.4708,-0.0158001,0.0121518,-0.0161414,0.019527,-0.0231753,-1.14221,0.0246842,0.0473619,1343,1786,7.49024,-67.4708
126,-762,7.97974,67.3137,0,0,0,0,0,0,0,-1,1350,1786,7.97977,-67.3138
133,-762,7.92542,67.1954,-0.0190268,0.00562567,-0.0141794,0.0120875,-0.0254887,-1.1432,0.0221497,0.0483193,1357,1786,7.92541,-67.1954
140,-762,7.89258,66.9731,-0.0191252,0.00252879,-0.0111806,0.00726555,-0.023862,-1.17006,0.0188037,0.0441307,1364,1786,7.89257,-66.9731
147,-762,7.99939,67.0139,-0.0190625,-0.000429779,-0.00804768,0.00256483,-0.0220571,-1.21456,0.01563,0.0427552,1371,1786,7.99942,-67.0139
154,-762,7.59851,66.9086,0,0,0,0,0,0,0,-1,1378,1786,7.59852,-66.9085
161,-762,8.65051,34.8102,0,0,0,0,0,0,0,-1,1385,1786,8.65054,-34.8101
168,-762,8.19287,0.880615,0,0,0,0,0,0,0,-1,1392,1786,8.19291,-0.880603
175,-762,8.33997,1.95947,0,0,0,0,0,0,0,-1,1399,1786,8.33997,-1.95942
182,-762,8.28418,3.56482,0,0,0,0,0,0,0,-1,1406,1786,8.28415,-3.56485
189,-762,8.21179,5.23389,0,0,0,0,0,0,0,-1,1413,1786,8.21183,-5.23383
196,-762,8.05969,6.95483,0,0,0,0,0,0,0,-1,1420,1786,8.05972,-6.9548
203,-762,24.0077,7.10425,0,0,0,0,0,0,0,-1,1427,1786,24.0077,-7.10426
210,-762,23.8073,7.6499,0,0,0,0,0,0,0,-1,1434,1786,23.8073,-7.64987
217,-762,23.3193,8.24426,0,0,0,0,0,0,0,-1,1441,1786,23.3194,-8.2442
224,-762,2.65149,20.6106,0,0,0,0,0,0,0,-1,1448,1786,2.65153,-20.6106
231,-762,5.46655,23.521,0,0,0,0,0,0,0,-1,1455,1786,5.46653,-23.521
238,-762,5.35632,29.7203,0,0,0,0,0,0,0,-1,1462,1786,5.35629,-29.7203
245,-762,6.93054,27.8312,0,0,0,0,0,0,0,-1,1469,1786,6.93058,-27.8312
252,-762,6.20215,28.3027,0,0,0,0,0,0,0,-1,1476,1786,6.20211,-28.3027
259,-762,5.46472,28.8762,0,0,0,0,0,0,0,-1,1483,1786,5.46476,-28.8762
266,-762,16.451,7.67773,0,0,0,0,0,0,0,-1,1490,1786,16.4511,-7.67773
273,-762,15.287,7.5304,0,0,0,0,0,0,0,-1,1497,1786,15.2869,-7.53044
280,-762,14.1501,7.38379,0,0,0,0,0,0,0,-1,1504,1786,14.1502,-7.38376
287,-762,12.6891,7.99133,0,0,0,0,0,0,0,-1,1511,1786,12.6891,-7.99135
294,-762,12.6959,8.30371,0,0,0,0,0,0,0,-1,1518,1786,12.6959,-8.30368
301,-762,11.4222,8.84143,0,0,0,0,0,0,0,-1,1525,1786,11.4223,-8.84149
308,-762,0,0,0,0,0,0,0,0,0,-1,1532,1786,0,0
315,-762,0,0,0,0,0,0,0,0,0,-1,1539,1786,0,0
322,-762,0,0,0,0,0,0,0,0,0,-1,1546,1786,0,0
329,-762,0,0,0,0,0,0,0,0,0,-1,1553,1786,0,0
336,-762,0,0,0,0,0,0,0,0,0,-1,1560,1786,0,0
343,-762,0,0,0,0,0,0,0,0,0,-1,1567,1786,0,0
350,-762,0,0,0,0,0,0,0,0,0,-1,1574,1786,0,0
357,-762,0,0,0,0,0,0,0,0,0,-1,1581,1786,0,0
364,-762,0,0,0,0,0,0,0,0,0,-1,1588,1786,0,0
371,-762,0,0,0,0,0,0,0,0,0,-1,1595,1786,0,0
378,-762,0,0,0,0,0,0,0,0,0,-1,1602,1786,0,0
385,-762,0,0,0,0,0,0,0,0,0,-1,1609,1786,0,0
392,-762,0,0,0,0,0,0,0,0,0,-1,1616,1786,0,0
399,-762,0,0,0,0,0,0,0,0,0,-1,1623,1786,0,0
406,-762,0,0,0,0,0,0,0,0,0,-1,1630,1786,0,0
413,-762,0,0,0,0,0,0,0,0,0,-1,1637,1786,0,0
420,-762,0,0,0,0,0,0,0,0,0,-1,1644,1786,0,0
427,-762,0,0,0,0,0,0,0,0,0,-1,1651,1786,0,0
434,-762,0,0,0,0,0,0,0,0,0,-1,1658,1786,0,0
441,-762,0,0,0,0,0,0,0,0,0,-1,1665,1786,0,0
448,-762,0,0,0,0,0,0,0,0,0,-1,1672,1786,0,0
455,-762,0,0,0,0,0,0,0,0,0,-1,1679,1786,0,0
462,-762,0,0,0,0,0,0,0,0,0,-1,1686,1786,0,0
469,-762,0,0,0,0,0,0,0,0,0,-1,1693,1786,0,0
476,-762,0,0,0,0,0,0,0,0,0,-1,1700,1786,0,0
483,-762,0,0,0,0,0,0,0,0,0,-1,1707,1786,0,0
490,-762,0,0,0,0,0,0,0,0,0,-1,1714,1786,0,0
497,-762,0,0,0,0,0,0,0,0,0,-1,1721,1786,0,0
504,-762,0,0,0,0,0,0,0,0,0,-1,1728,1786,0,0
511,-762,0,0,0,0,0,0,0,0,0,-1,1735,1786,0,0
518,-762,0,0,0,0,0,0,0,0,0,-1,1742,1786,0,0
525,-762,0,0,0,0,0,0,0,0,0,-1,1749,1786,0,0
532,-762,0,0,0,0,0,0,0,0,0,-1,1756,1786,0,0
539,-762,0,0,0,0,0,0,0,0,0,-1,1763,1786,0,0
546,-762,0,0,0,0,0,0,0,0,0,-1,1770,1786,0,0
553,-762,0,0,0,0,0,0,0,0,0,-1,1777,1786,0,0
560,-762,0,0,0,0,0,0,0,0,0,-1,1784,1786,0,0
567,-762,0,0,0,0,0,0,0,0,0,-1,1791,1786,0,0
574,-762,0,0,0,0,0,0,0,0,0,-1,1798,1786,0,0
581,-762,0,0,0,0,0,0,0,0,0,-1,1805,1786,0,0
588,-762,0,0,0,0,0,0,0,0,0,-1,1812,1786,0,0
595,-762,0,0,0,0,0,0,0,0,0,-1,1819,1786,0,0
602,-762,0,0,0,0,0,0,0,0,0,-1,1826,1786,0,0
609,-762,0,0,0,0,0,0,0,0,0,-1,1833,1786,0,0
616,-762,0,0,0,0,0,0,0,0,0,-1,1840,1786,0,0
623,-762,0,0,0,0,0,0,0,0,0,-1,1847,1786,0,0
630,-762,0,0,0,0,0,0,0,0,0,-1,1854,1786,0,0
637,-762,0,0,0,0,0,0,0,0,0,-1,1861,1786,0,0
644,-762,0,0,0,0,0,0,0,0,0,-1,1868,1786,0,0
651,-762,0,0,0,0,0,0,0,0,0,-1,1875,1786,0,0
658,-762,0,0,0,0,0,0,0,0,0,-1,1882,1786,0,0
665,-762,0,0,0,0,0,0,0,0,0,-1,1889,1786,0,0
672,-762,0,0,0,0,0,0,0,0,0,-1,1896,1786,0,0
679,-762,0,0,0,0,0,0,0,0,0,-1,1903,1786,0,0
686,-762,0,0,0,0,0,0,0,0,0,-1,1910,1786,0,0
693,-762,0,0,0,0,0,0,0,0,0,-1,1917,1786,0,0
700,-762,0,0,0,0,0,0,0,0,0,-1,1924,1786,0,0
707,-762,0,0,0,0,0,0,0,0,0,-1,1931,1786,0,0
714,-762,0,0,0,0,0,0,0,0,0,-1,1938,1786,0,0
721,-762,0,0,0,0,0,0,0,0,0,-1,1945,1786,0,0
728,-762,0,0,0,0,0,0,0,0,0,-1,1952,1786,0,0
735,-762,0,0,0,0,0,0,0,0,0,-1,1959,1786,0,0
742,-762,0,0,0,0,0,0,0,0,0,-1,1966,1786,0,0
749,-762,0,0,0,0,0,0,0,0,0,-1,1973,1786,0,0
756,-762,0,0,0,0,0,0,0,0,0,-1,1980,1786,0,0
763,-762,0,0,0,0,0,0,0,0,0,-1,1987,1786,0,0
770,-762,0,0,0,0,0,0,0,0,0,-1,1994,1786,0,0
777,-762,0,0,0,0,0,0,0,0,0,-1,2001,1786,0,0
784,-762,0,0,0,0,0,0,0,0,0,-1,2008,1786,0,0
791,-762,0,0,0,0,0,0,0,0,0,-1,2015,1786,0,0
798,-762,0,0,0,0,0,0,0,0,0,-1,2022,1786,0,0
805,-762,0,0,0,0,0,0,0,0,0,-1,2029,1786,0,0
812,-762,0,0,0,0,0,0,0,0,0,-1,2036,1786,0,0
-700,-769,0,0,0,0,0,0,0,0,0,-1,524,1793,0,0
-693,-769,0,0,0,0,0,0,0,0,0,-1,531,1793,0,0
-686,-769,0,0,0,0,0,0,0,0,0,-1,538,1793,0,0
-679,-769,0,0,0,0,0,0,0,0,0,-1,545,1793,0,0
-672,-769,0,0,0,0,0,0,0,0,0,-1,552,1793,0,0
-665,-769,0,0,0,0,0,0,0,0,0,-1,559,1793,0,0
-658,-769,0,0,0,0,0,0,0,0,0,-1,566,1793,0,0
-651,-769,0,0,0,0,0,0,0,0,0,-1,573,1793,0,0
-644,-769,0,0,0,0,0,0,0,0,0,-1,580,1793,0,0
-637,-769,0,0,0,0,0,0,0,0,0,-1,587,1793,0,0
-630,-769,0,0,0,0,0,0,0,0,0,-1,594,1793,0,0
-623,-769,0,0,0,0,0,0,0,0,0,-1,601,1793,0,0
-616,-769,0,0,0,0,0,0,0,0,0,-1,608,1793,0,0
-609,-769,0,0,0,0,0,0,0,0,0,-1,615,1793,0,0
-602,-769,0,0,0,0,0,0,0,0,0,-1,622,1793,0,0
-595,-769,0,0,0,0,0,0,0,0,0,-1,629,1793,0,0
-588,-769,0,0,0,0,0,0,0,0,0,-1,636,1793,0,0
-581,-769,0,0,0,0,0,0,0,0,0,-1,643,1793,0,0
-574,-769,0,0,0,0,0,0,0,0,0,-1,650,1793,0,0
-567,-769,0,0,0,0,0,0,0,0,0,-1,657,1793,0,0
-560,-769,0,0,0,0,0,0,0,0,0,-1,664,1793,0,0
-553,-769,0,0,0,0,0,0,0,0,0,-1,671,1793,0,0
-546,-769,0,0,0,0,0,0,0,0,0,-1,678,1793,0,0
-539,-769,0,0,0,0,0,0,0,0,0,-1,685,1793,0,0
-532,-769,0,0,0,0,0,0,0,0,0,-1,692,1793,0,0
-525,-769,0,0,0,0,0,0,0,0,0,-1,699,1793,0,0
-518,-769,0,0,0,0,0,0,0,0,0,-1,706,1793,0,0
-511,-769,0,0,0,0,0,0,0,0,0,-1,713,1793,0,0
-504,-769,0,0,0,0,0,0,0,0,0,-1,720,1793,0,0
-497,-769,0,0,0,0,0,0,0,0,0,-1,727,1793,0,0
-490,-769,0,0,0,0,0,0,0,0,0,-1,734,1793,0,0
-483,-769,0,0,0,0,0,0,0,0,0,-1,741,1793,0,0
-476,-769,0,0,0,0,0,0,0,0,0,-1,748,1793,0,0
-469,-769,0,0,0,0,0,0,0,0,0,-1,755,1793,0,0
-462,-769,0,0,0,0,0,0,0,0,0,-1,762,1793,0,0
-455,-769,0,0,0,0,0,0,0,0,0,-1,769,1793,0,0
-448,-769,0,0,0,0,0,0,0,0,0,-1,776,1793,0,0
-441,-769,0,0,0,0,0,0,0,0,0,-1,783,1793,0,0
-434,-769,0,0,0,0,0,0,0,0,0,-1,790,1793,0,0
-427,-769,0,0,0,0,0,0,0,0,0,-1,797,1793,0,0
-420,-769,0,0,0,0,0,0,0,0,0,-1,804,1793,0,0
-413,-769,0,0,0,0,0,0,0,0,0,-1,811,1793,0,0
-406,-769,0,0,0,0,0,0,0,0,0,-1,818,1793,0,0
-399,-769,0,0,0,0,0,0,0,0,0,-1,825,1793,0,0
-392,-769,0,0,0,0,0,0,0,0,0,-1,832,1793,0,0
-385,-769,0,0,0,0,0,0,0,0,0,-1,839,1793,0,0
-378,-769,0,0,0,0,0,0,0,0,0,-1,846,1793,0,0
-371,-769,0,0,0,0,0,0,0,0,0,-1,853,1793,0,0
-364,-769,0,0,0,0,0,0,0,0,0,-1,860,1793,0,0
-357,-769,0,0,0,0,0,0,0,0,0,-1,867,1793,0,0
-350,-769,0,0,0,0,0,0,0,0,0,-1,874,1793,0,0
-343,-769,0,0,0,0,0,0,0,0,0,-1,881,1793,0,0
-336,-769,0,0,0,0,0,0,0,0,0,-1,888,1793,0,0
-329,-769,0,0,0,0,0,0,0,0,0,-1,895,1793,0,0
-322,-769,0,0,0,0,0,0,0,0,0,-1,902,1793,0,0
-315,-769,0,0,0,0,0,0,0,0,0,-1,909,1793,0,0
-308,-769,0,0,0,0,0,0,0,0,0,-1,916,1793,0,0
-301,-769,0,0,0,0,0,0,0,0,0,-1,923,1793,0,0
-294,-769,0,0,0,0,0,0,0,0,0,-1,930,1793,0,0
-287,-769,0,0,0,0,0,0,0,0,0,-1,937,1793,0,0
-280,-769,0,0,0,0,0,0,0,0,0,-1,944,1793,0,0
-273,-769,0,0,0,0,0,0,0,0,0,-1,951,1793,0,0
-266,-769,0,0,0,0,0,0,0,0,0,-1,958,1793,0,0
-259,-769,0,0,0,0,0,0,0,0,0,-1,965,1793,0,0
-252,-769,0,0,0,0,0,0,0,0,0,-1,972,1793,0,0
-245,-769,0,0,0,0,0,0,0,0,0,-1,979,1793,0,0
-238,-769,0,0,0,0,0,0,0,0,0,-1,986,1793,0,0
-231,-769,0,0,0,0,0,0,0,0,0,-1,993,1793,0,0
-224,-769,0,0,0,0,0,0,0,0,0,-1,1000,1793,0,0
-217,-769,0,0,0,0,0,0,0,0,0,-1,1007,1793,0,0
-210,-769,0,0,0,0,0,0,0,0,0,-1,1014,1793,0,0
-203,-769,0,0,0,0,0,0,0,0,0,-1,1021,1793,0,0
-196,-769,0,0,0,0,0,0,0,0,0,-1,1028,1793,0,0
-189,-769,0,0,0,0,0,0,0,0,0,-1,1035,1793,0,0
-182,-769,0,0,0,0,0,0,0,0,0,-1,1042,1793,0,0
-175,-769,0,0,0,0,0,0,0,0,0,-1,1049,1793,0,0
-168,-769,0,0,0,0,0,0,0,0,0,-1,1056,1793,0,0
-161,-769,-3.61145,12.4761,0,0,0,0,0,0,0,-1,1063,1793,-3.6114,-12.476
-154,-769,-0.813232,5.32874,0,0,0,0,0,0,0,-1,1070,1793,-0.813269,-5.32872
-147,-769,4.26587,4.7002,0,0,0,0,0,0,0,-1,1077,1793,4.26593,-4.70022
-140,-769,4.10376,5.28589,0,0,0,0,0,0,0,-1,1084,1793,4.10371,-5.28584
-133,-769,6.422,8.21777,0,0,0,0,0,0,0,-1,1091,1793,6.42198,-8.21773
-126,-769,-0.352295,19.326,0,0,0,0,0,0,0,-1,1098,1793,-0.352235,-19.326
-119,-769,6.01685,16.2577,0,0,0,0,0,0,0,-1,1105,1793,6.01689,-16.2576
-112,-769,5.76416,27.2615,0,0,0,0,0,0,0,-1,1112,1793,5.7642,-27.2615
-105,-769,4.97009,22.8479,0,0,0,0,0,0,0,-1,1119,1793,4.97006,-22.8479
-98,-769,4.69373,18.9142,0,0,0,0,0,0,0,-1,1126,1793,4.69376,-18.9142
-91,-769,4.41748,14.9805,0,0,0,0,0,0,0,-1,1133,1793,4.41746,-14.9805
-84,-769,3.2207,12.4565,0,0,0,0,0,0,0,-1,1140,1793,3.22066,-12.4565
-77,-769,2.48816,8.98486,0,0,0,0,0,0,0,-1,1147,1793,2.48815,-8.98489
-70,-769,1.04944,11.9852,0,0,0,0,0,0,0,-1,1154,1793,1.04947,-11.9852
-63,-769,-2.39709,9.60339,0,0,0,0,0,0,0,-1,1161,1793,-2.39706,-9.6034
-56,-769,-5.84363,7.22156,0,0,0,0,0,0,0,-1,1168,1793,-5.84359,-7.22157
-49,-769,-2.41443,3.95471,0,0,0,0,0,0,0,-1,1175,1793,-2.41446,-3.95471
-42,-769,-3.1991,2.64941,0,0,0,0,0,0,0,-1,1182,1793,-3.19914,-2.64944
-35,-769,-3.50183,1.73389,0,0,0,0,0,0,0,-1,1189,1793,-3.50189,-1.7339
-28,-769,-3.96985,1.14075,0,0,0,0,0,0,0,-1,1196,1793,-3.96985,-1.14078
-21,-769,8.19836,65.4261,0,0,0,0,0,0,0,-1,1203,1793,8.19842,-65.4261
-14,-769,9.40796,67.6819,0,0,0,0,0,0,0,-1,1210,1793,9.40801,-67.6819
-7,-769,9.35071,67.0939,0,0,0,0,0,0,0,-1,1217,1793,9.35074,-67.0939
0,-769,9.29663,67.24,0.00535167,0.0430639,0.0206103,0.0521424,-0.00372674,1.15589,0.036068,0.0483277,1224,1793,9.29667,-67.2399
7,-769,9.36694,67.1979,0.00849132,0.0512567,0.0230484,0.0613135,-0.00156557,1.15936,0.0414074,0.04513,1231,1793,9.36698,-67.1979
14,-769,9.29309,67.2502,0.0124675,0.0587822,0.0241443,0.0690794,0.00217029,1.16767,0.0453468,0.0432251,1238,1793,9.29313,-67.2502
21,-769,9.11182,67.2456,0.0169757,0.0642774,0.0252592,0.0752299,0.00602323,1.16166,0.0482709,0.045636,1245,1793,9.11181,-67.2457
28,-769,8.09705,66.6287,0.0205075,0.0680239,0.0257504,0.0793019,0.00922945,1.15799,0.0500758,0.0433551,1252,1793,8.09708,-66.6286
35,-769,8.22083,67.4661,0.023996,0.070209,0.0245281,0.0808002,0.0134048,1.16318,0.0500011,0.0464907,1259,1793,8.2208,-67.4661
42,-769,7.94824,68.5759,0,0,0,0,0,0,0,-1,1266,1793,7.94828,-68.5759
49,-769,8.34558,68.3318,0.0266871,0.0683082,0.0156879,0.0735589,0.0214364,1.24782,0.0436837,0.0441098,1273,1793,8.34552,-68.3317
56,-769,8.75903,67.5896,0.0266679,0.066859,0.01044,0.0694091,0.0241178,1.33123,0.0406901,0.0495753,1280,1793,8.75906,-67.5896
63,-769,8.80554,67.3949,0.0242511,0.0621303,0.00498873,0.0627763,0.0236051,1.44202,0.0366134,0.0482966,1287,1793,8.8055,-67.3949
70,-769,8.82971,67.6377,0.0201959,0.0556978,-0.0014542,0.0557572,0.0201364,-1.52993,0.0326026,0.044808,1294,1793,8.82974,-67.6377
77,-769,8.48291,67.7256,0.0154523,0.0492482,-0.0076546,0.050901,0.0137994,-1.35813,0.0303969,0.0429026,1301,1793,8.48295,-67.7256
84,-769,8.38,67.652,0,0,0,0,0,0,0,-1,1308,1793,8.38005,-67.652
91,-769,8.2395,68.7238,0.0035098,0.0378423,-0.0180016,0.0455505,-0.00419837,-1.16622,0.0318588,0.0450359,1315,1793,8.2395,-68.7237
98,-769,7.93762,68.2545,-0.00248642,0.0323057,-0.0213222,0.042428,-0.0126087,-1.12757,0.0332938,0.0445867,1322,1793,7.93756,-68.2546
105,-769,7.58374,67.2156,0,0,0,0,0,0,0,-1,1329,1793,7.5837,-67.2156
112,-769,7.2113,67.0236,-0.0133058,0.0224765,-0.0243562,0.0348064,-0.0256358,-1.10217,0.03503,0.0461913,1336,1793,7.21125,-67.0235
119,-769,6.73352,67.4691,-0.0183395,0.0171157,-0.0242926,0.0294614,-0.0306851,-1.10061,0.034728,0.0442309,1343,1793,6.73347,-67.4691
126,-769,6.4436,66.6006,-0.0227652,0.0122471,-0.0244519,0.0248135,-0.0353317,-1.09607,0.0349014,0.0488311,1350,1793,6.4436,-66.6005
133,-769,7.74548,67.202,0,0,0,0,0,0,0,-1,1357,1793,7.7455,-67.202
140,-769,7.80957,66.9146,0,0,0,0,0,0,0,-1,1364,1793,7.80962,-66.9145
147,-769,7.98975,67.1919,0,0,0,0,0,0,0,-1,1371,1793,7.98974,-67.1919
154,-769,7.29382,55.4241,0,0,0,0,0,0,0,-1,1378,1793,7.29384,-55.4241
161,-769,6.57019,1.53223,0,0,0,0,0,0,0,-1,1385,1793,6.57019,-1.53226
168,-769,8.27637,0.756958,0,0,0,0,0,0,0,-1,1392,1793,8.27639,-0.756944
175,-769,8.47144,2.41174,0,0,0,0,0,0,0,-1,1399,1793,8.47147,-2.4118
182,-769,8.41479,4.05994,0,0,0,0,0,0,0,-1,1406,1793,8.41479,-4.05997
189,-769,8.25049,5.68433,0,0,0,0,0,0,0,-1,1413,1793,8.25054,-5.68428
196,-769,7.97729,7.42847,0,0,0,0,0,0,0,-1,1420,1793,7.9773,-7.42848
203,-769,22.0977,6.73889,0,0,0,0,0,0,0,-1,1427,1793,22.0977,-6.7389
210,-769,22.1115,7.77246,0,0,0,0,0,0,0,-1,1434,1793,22.1115,-7.77248
217,-769,22.4723,8.79102,0,0,0,0,0,0,0,-1,1441,1793,22.4723,-8.79099
224,-769,22.1348,9.35278,0,0,0,0,0,0,0,-1,1448,1793,22.1348,-9.35283
231,-769,3.13318,19.7184,0,0,0,0,0,0,0,-1,1455,1793,3.13323,-19.7184
238,-769,5.74512,18.6597,0,0,0,0,0,0,0,-1,1462,1793,5.74512,-18.6596
245,-769,5.80798,22.87,0,0,0,0,0,0,0,-1,1469,1793,5.80796,-22.87
252,-769,6.20837,28.394,0,0,0,0,0,0,0,-1,1476,1793,6.20833,-28.3941
259,-769,10.974,17.7698,0,0,0,0,0,0,0,-1,1483,1793,10.974,-17.7698
266,-769,15.8488,7.3905,0,0,0,0,0,0,0,-1,1490,1793,15.8488,-7.39046
273,-769,14.8075,7.56152,0,0,0,0,0,0,0,-1,1497,1793,14.8075,-7.56152
280,-769,13.6519,7.43054,0,0,0,0,0,0,0,-1,1504,1793,13.6518,-7.43058
287,-769,0,0,0,0,0,0,0,0,0,-1,1511,1793,0,0
294,-769,0,0,0,0,0,0,0,0,0,-1,1518,1793,0,0
301,-769,0,0,0,0,0,0,0,0,0,-1,1525,1793,0,0
308,-769,0,0,0,0,0,0,0,0,0,-1,1532,1793,0,0
315,-769,0,0,0,0,0,0,0,0,0,-1,1539,1793,0,0
322,-769,0,0,0,0,0,0,0,0,0,-1,1546,1793,0,0
329,-769,0,0,0,0,0,0,0,0,0,-1,1553,1793,0,0
336,-769,0,0,0,0,0,0,0,0,0,-1,1560,1793,0,0
343,-769,0,0,0,0,0,0,0,0,0,-1,1567,1793,0,0
350,-769,0,0,0,0,0,0,0,0,0,-1,1574,1793,0,0
357,-769,0,0,0,0,0,0,0,0,0,-1,1581,1793,0,0
364,-769,0,0,0,0,0,0,0,0,0,-1,1588,1793,0,0
371,-769,0,0,0,0,0,0,0,0,0,-1,1595,1793,0,0
378,-769,0,0,0,0,0,0,0,0,0,-1,1602,1793,0,0
385,-769,0,0,0,0,0,0,0,0,0,-1,1609,1793,0,0
392,-769,0,0,0,0,0,0,0,0,0,-1,1616,1793,0,0
399,-769,0,0,0,0,0,0,0,0,0,-1,1623,1793,0,0
406,-769,0,0,0,0,0,0,0,0,0,-1,1630,1793,0,0
413,-769,0,0,0,0,0,0,0,0,0,-1,1637,1793,0,0
420,-769,0,0,0,0,0,0,0,0,0,-1,1644,1793,0,0
427,-769,0,0,0,0,0,0,0,0,0,-1,1651,1793,0,0
434,-769,0,0,0,0,0,0,0,0,0,-1,1658,1793,0,0
441,-769,0,0,0,0,0,0,0,0,0,-1,1665,1793,0,0
448,-769,0,0,0,0,0,0,0,0,0,-1,1672,1793,0,0
455,-769,0,0,0,0,0,0,0,0,0,-1,1679,1793,0,0
462,-769,0,0,0,0,0,0,0,0,0,-1,1686,1793,0,0
469,-769,0,0,0,0,0,0,0,0,0,-1,1693,1793,0,0
476,-769,0,0,0,0,0,0,0,0,0,-1,1700,1793,0,0
483,-769,0,0,0,0,0,0,0,0,0,-1,1707,1793,0,0
490,-769,0,0,0,0,0,0,0,0,0,-1,1714,1793,0,0
497,-769,0,0,0,0,0,0,0,0,0,-1,1721,1793,0,0
504,-769,0,0,0,0,0,0,0,0,0,-1,1728,1793,0,0
511,-769,0,0,0,0,0,0,0,0,0,-1,1735,1793,0,0
518,-769,0,0,0,0,0,0,0,0,0,-1,1742,1793,0,0
525,-769,0,0,0,0,0,0,0,0,0,-1,1749,1793,0,0
532,-769,0,0,0,0,0,0,0,0,0,-1,1756,1793,0,0
539,-769,0,0,0,0,0,0,0,0,0,-1,1763,1793,0,0
546,-769,0,0,0,0,0,0,0,0,0,-1,1770,1793,0,0
553,-769,0,0,0,0,0,0,0,0,0,-1,1777,1793,0,0
560,-769,0,0,0,0,0,0,0,0,0,-1,1784,1793,0,0
567,-769,0,0,0,0,0,0,0,0,0,-1,1791,1793,0,0
574,-769,0,0,0,0,0,0,0,0,0,-1,1798,1793,0,0
581,-769,0,0,0,0,0,0,0,0,0,-1,1805,1793,0,0
588,-769,0,0,0,0,0,0,0,0,0,-1,1812,1793,0,0
595,-769,0,0,0,0,0,0,0,0,0,-1,1819,1793,0,0
602,-769,0,0,0,0,0,0,0,0,0,-1,1826,1793,0,0
609,-769,0,0,0,0,0,0,0,0,0,-1,1833,1793,0,0
616,-769,0,0,0,0,0,0,0,0,0,-1,1840,1793,0,0
623,-769,0,0,0,0,0,0,0,0,0,-1,1847,1793,0,0
630,-769,0,0,0,0,0,0,0,0,0,-1,1854,1793,0,0
637,-769,0,0,0,0,0,0,0,0,0,-1,1861,1793,0,0
644,-769,0,0,0,0,0,0,0,0,0,-1,1868,1793,0,0
651,-769,0,0,0,0,0,0,0,0,0,-1,1875,1793,0,0
658,-769,0,0,0,0,0,0,0,0,0,-1,1882,1793,0,0
665,-769,0,0,0,0,0,0,0,0,0,-1,1889,1793,0,0
672,-769,0,0,0,0,0,0,0,0,0,-1,1896,1793,0,0
679,-769,0,0,0,0,0,0,0,0,0,-1,1903,1793,0,0
686,-769,0,0,0,0,0,0,0,0,0,-1,1910,1793,0,0
693,-769,0,0,0,0,0,0,0,0,0,-1,1917,1793,0,0
700,-769,0,0,0,0,0,0,0,0,0,-1,1924,1793,0,0
707,-769,0,0,0,0,0,0,0,0,0,-1,1931,1793,0,0
714,-769,0,0,0,0,0,0,0,0,0,-1,1938,1793,0,0
721,-769,0,0,0,0,0,0,0,0,0,-1,1945,1793,0,0
728,-769,0,0,0,0,0,0,0,0,0,-1,1952,1793,0,0
735,-769,0,0,0,0,0,0,0,0,0,-1,1959,1793,0,0
742,-769,0,0,0,0,0,0,0,0,0,-1,1966,1793,0,0
749,-769,0,0,0,0,0,0,0,0,0,-1,1973,1793,0,0
756,-769,0,0,0,0,0,0,0,0,0,-1,1980,1793,0,0
763,-769,0,0,0,0,0,0,0,0,0,-1,1987,1793,0,0
770,-769,0,0,0,0,0,0,0,0,0,-1,1994,1793,0,0
777,-769,0,0,0,0,0,0,0,0,0,-1,2001,1793,0,0
784,-769,0,0,0,0,0,0,0,0,0,-1,2008,1793,0,0
791,-769,0,0,0,0,0,0,0,0,0,-1,2015,1793,0,0
798,-769,0,0,0,0,0,0,0,0,0,-1,2022,1793,0,0
805,-769,0,0,0,0,0,0,0,0,0,-1,2029,1793,0,0
812,-769,0,0,0,0,0,0,0,0,0,-1,2036,1793,0,0
-700,-776,0,0,0,0,0,0,0,0,0,-1,524,1800,0,0
-693,-776,0,0,0,0,0,0,0,0,0,-1,531,1800,0,0
-686,-776,0,0,0,0,0,0,0,0,0,-1,538,1800,0,0
-679,-776,0,0,0,0,0,0,0,0,0,-1,545,1800,0,0
-672,-776,0,0,0,0,0,0,0,0,0,-1,552,1800,0,0
-665,-776,0,0,0,0,0,0,0,0,0,-1,559,1800,0,0
-658,-776,0,0,0,0,0,0,0,0,0,-1,566,1800,0,0
-651,-776,0,0,0,0,0,0,0,0,0,-1,573,1800,0,0
-644,-776,0,0,0,0,0,0,0,0,0,-1,580,1800,0,0
-637,-776,0,0,0,0,0,0,0,0,0,-1,587,1800,0,0
-630,-776,0,0,0,0,0,0,0,0,0,-1,594,1800,0,0
-623,-776,0,0,0,0,0,0,0,0,0,-1,601,1800,0,0
-616,-776,0,0,0,0,0,0,0,0,0,-1,608,1800,0,0
-609,-776,0,0,0,0,0,0,0,0,0,-1,615,1800,0,0
-602,-776,0,0,0,0,0,0,0,0,0,-1,622,1800,0,0
-595,-776,0,0,0,0,0,0,0,0,0,-1,629,1800,0,0
-588,-776,0,0,0,0,0,0,0,0,0,-1,636,1800,0,0
-581,-776,0,0,0,0,0,0,0,0,0,-1,643,1800,0,0
-574,-776,0,0,0,0,0,0,0,0,0,-1,650,1800,0,0
-567,-776,0,0,0,0,0,0,0,0,0,-1,657,1800,0,0
-560,-776,0,0,0,0,0,0,0,0,0,-1,664,1800,0,0
-553,-776,0,0,0,0,0,0,0,0,0,-1,671,1800,0,0
-546,-776,0,0,0,0,0,0,0,0,0,-1,678,1800,0,0
-539,-776,0,0,0,0,0,0,0,0,0,-1,685,1800,0,0
-532,-776,0,0,0,0,0,0,0,0,0,-1,692,1800,0,0
-525,-776,0,0,0,0,0,0,0,0,0,-1,699,1800,0,0
-518,-776,0,0,0,0,0,0,0,0,0,-1,706,1800,0,0
-511,-776,0,0,0,0,0,0,0,0,0,-1,713,1800,0,0
-504,-776,0,0,0,0,0,0,0,0,0,-1,720,1800,0,0
-497,-776,0,0,0,0,0,0,0,0,0,-1,727,1800,0,0
-490,-776,0,0,0,0,0,0,0,0,0,-1,734,1800,0,0
-483,-776,0,0,0,0,0,0,0,0,0,-1,741,1800,0,0
-476,-776,0,0,0,0,0,0,0,0,0,-1,748,1800,0,0
-469,-776,0,0,0,0,0,0,0,0,0,-1,755,1800,0,0
-462,-776,0,0,0,0,0,0,0,0,0,-1,762,1800,0,0
-455,-776,0,0,0,0,0,0,0,0,0,-1,769,1800,0,0
-448,-776,0,0,0,0,0,0,0,0,0,-1,776,1800,0,0
-441,-776,0,0,0,0,0,0,0,0,0,-1,783,1800,0,0
-434,-776,0,0,0,0,0,0,0,0,0,-1,790,1800,0,0
-427,-776,0,0,0,0,0,0,0,0,0,-1,797,1800,0,0
-420,-776,0,0,0,0,0,0,0,0,0,-1,804,1800,0,0
-413,-776,0,0,0,0,0,0,0,0,0,-1,811,1800,0,0
-406,-776,0,0,0,0,0,0,0,0,0,-1,818,1800,0,0
-399,-776,0,0,0,0,0,0,0,0,0,-1,825,1800,0,0
-392,-776,0,0,0,0,0,0,0,0,0,-1,832,1800,0,0
-385,-776,0,0,0,0,0,0,0,0,0,-1,839,1800,0,0
-378,-776,0,0,0,0,0,0,0,0,0,-1,846,1800,0,0
-371,-776,0,0,0,0,0,0,0,0,0,-1,853,1800,0,0
-364,-776,0,0,0,0,0,0,0,0,0,-1,860,1800,0,0
-357,-776,0,0,0,0,0,0,0,0,0,-1,867,1800,0,0
-350,-776,0,0,0,0,0,0,0,0,0,-1,874,1800,0,0
-343,-776,0,0,0,0,0,0,0,0,0,-1,881,1800,0,0
-336,-776,0,0,0,0,0,0,0,0,0,-1,888,1800,0,0
-329,-776,0,0,0,0,0,0,0,0,0,-1,895,1800,0,0
-322,-776,0,0,0,0,0,0,0,0,0,-1,902,1800,0,0
-315,-776,0,0,0,0,0,0,0,0,0,-1,909,1800,0,0
-308,-776,0,0,0,0,0,0,0,0,0,-1,916,1800,0,0
-301,-776,0,0,0,0,0,0,0,0,0,-1,923,1800,0,0
-294,-776,0,0,0,0,0,0,0,0,0,-1,930,1800,0,0
-287,-776,0,0,0,0,0,0,0,0,0,-1,937,1800,0,0
-280,-776,0,0,0,0,0,0,0,0,0,-1,944,1800,0,0
-273,-776,0,0,0,0,0,0,0,0,0,-1,951,1800,0,0
-266,-776,0,0,0,0,0,0,0,0,0,-1,958,1800,0,0
-259,-776,0,0,0,0,0,0,0,0,0,-1,965,1800,0,0
-252,-776,0,0,0,0,0,0,0,0,0,-1,972,1800,0,0
-245,-776,0,0,0,0,0,0,0,0,0,-1,979,1800,0,0
-238,-776,0,0,0,0,0,0,0,0,0,-1,986,1800,0,0
-231,-776,0,0,0,0,0,0,0,0,0,-1,993,1800,0,0
-224,-776,0,0,0,0,0,0,0,0,0,-1,1000,1800,0,0
-217,-776,0,0,0,0,0,0,0,0,0,-1,1007,1800,0,0
-210,-776,0,0,0,0,0,0,0,0,0,-1,1014,1800,0,0
-203,-776,0,0,0,0,0,0,0,0,0,-1,1021,1800,0,0
-196,-776,0,0,0,0,0,0,0,0,0,-1,1028,1800,0,0
-189,-776,0,0,0,0,0,0,0,0,0,-1,1035,1800,0,0
-182,-776,0,0,0,0,0,0,0,0,0,-1,1042,1800,0,0
-175,-776,0,0,0,0,0,0,0,0,0,-1,1049,1800,0,0
-168,-776,0,0,0,0,0,0,0,0,0,-1,1056,1800,0,0
-161,-776,0,0,0,0,0,0,0,0,0,-1,1063,1800,0,0
-154,-776,0,0,0,0,0,0,0,0,0,-1,1070,1800,0,0
-147,-776,0,0,0,0,0,0,0,0,0,-1,1077,1800,0,0
-140,-776,2.98499,5.20911,0,0,0,0,0,0,0,-1,1084,1800,2.98493,-5.2091
-133,-776,6.72363,9.35828,0,0,0,0,0,0,0,-1,1091,1800,6.72358,-9.35824
-126,-776,6.55029,13.7832,0,0,0,0,0,0,0,-1,1098,1800,6.55029,-13.7832
-119,-776,5.72107,13.7787,0,0,0,0,0,0,0,-1,1105,1800,5.72106,-13.7787
-112,-776,6.84998,20.4421,0,0,0,0,0,0,0,-1,1112,1800,6.84993,-20.4421
-105,-776,4.46863,24.6742,0,0,0,0,0,0,0,-1,1119,1800,4.46868,-24.6742
-98,-776,4.31616,19.7659,0,0,0,0,0,0,0,-1,1126,1800,4.31619,-19.7659
-91,-776,3.30225,18.134,0,0,0,0,0,0,0,-1,1133,1800,3.30222,-18.134
-84,-776,2.67932,14.3162,0,0,0,0,0,0,0,-1,1140,1800,2.67926,-14.3161
-77,-776,0.580078,11.1272,0,0,0,0,0,0,0,-1,1147,1800,0.58002,-11.1272
-70,-776,-0.562866,12.3163,0,0,0,0,0,0,0,-1,1154,1800,-0.562897,-12.3163
-63,-776,-3.96106,9.97656,0,0,0,0,0,0,0,-1,1161,1800,-3.961,-9.97654
-56,-776,-7.35913,7.63672,0,0,0,0,0,0,0,-1,1168,1800,-7.3591,-7.63676
-49,-776,-7.62952,3.1908,0,0,0,0,0,0,0,-1,1175,1800,-7.62955,-3.19076
-42,-776,-3.41272,3.0249,0,0,0,0,0,0,0,-1,1182,1800,-3.41269,-3.02488
-35,-776,-3.71753,1.63635,0,0,0,0,0,0,0,-1,1189,1800,-3.71755,-1.63631
-28,-776,-4.03979,0.716064,0,0,0,0,0,0,0,-1,1196,1800,-4.03977,-0.716055
-21,-776,7.70789,65.0439,0,0,0,0,0,0,0,-1,1203,1800,7.70794,-65.0439
-14,-776,8.68103,64.7498,0,0,0,0,0,0,0,-1,1210,1800,8.68101,-64.7497
-7,-776,9.29443,67.0813,0,0,0,0,0,0,0,-1,1217,1800,9.29446,-67.0813
0,-776,9.20361,67.2012,0.00839336,0.0500516,0.0243044,0.0612312,-0.00278621,1.13967,0.0417805,0.0491765,1224,1800,9.2036,-67.2012
7,-776,9.37927,66.9667,0.0131103,0.0617296,0.0279378,0.0744534,0.000386499,1.14343,0.0495073,0.0470944,1231,1800,9.37926,-66.9667
14,-776,9.36841,67.0685,0.0187917,0.0720701,0.0296261,0.0852725,0.00558931,1.15158,0.0550798,0.0445374,1238,1800,9.36835,-67.0685
21,-776,9.15308,67.0566,0.0249779,0.0794837,0.0313149,0.093744,0.0107176,1.14347,0.0592475,0.0457934,1245,1800,9.15303,-67.0566
28,-776,6.57214,66.8477,0,0,0,0,0,0,0,-1,1252,1800,6.57218,-66.8477
35,-776,7.17249,66.9102,0,0,0,0,0,0,0,-1,1259,1800,7.17247,-66.9102
42,-776,7.69836,66.8162,0,0,0,0,0,0,0,-1,1266,1800,7.69837,-66.8162
49,-776,8.03394,66.3464,0.0383513,0.0861698,0.0195067,0.0931178,0.0314034,1.22863,0.0547027,0.0445046,1273,1800,8.03393,-66.3464
56,-776,8.44702,66.7352,0.0384762,0.0847254,0.0130118,0.0881348,0.0350668,1.31453,0.0512372,0.0458584,1280,1800,8.44706,-66.7353
63,-776,8.77942,66.697,0.0353914,0.0786574,0.00568415,0.0793917,0.0346571,1.44232,0.0459598,0.0469207,1287,1800,8.77936,-66.697
70,-776,9.29297,66.8198,0,0,0,0,0,0,0,-1,1294,1800,9.29294,-66.8198
77,-776,8.61499,67.5894,0.0241686,0.0628145,-0.0110454,0.0657486,0.0212345,-1.31115,0.038745,0.0482529,1301,1800,8.61494,-67.5893
84,-776,8.49109,69.8953,0,0,0,0,0,0,0,-1,1308,1800,8.49111,-69.8953
91,-776,8.19019,69.1595,0.00871709,0.0488321,-0.0252693,0.0610366,-0.00348745,-1.12086,0.041902,0.0454455,1315,1800,8.19018,-69.1596
98,-776,7.87781,68.4052,0.000870718,0.0420803,-0.0302602,0.0580848,-0.0151337,-1.0843,0.0446314,0.0429234,1322,1800,7.87786,-68.4051
105,-776,7.48328,67.4753,-0.00666241,0.0360391,-0.0336661,0.0545539,-0.0251772,-1.06799,0.0470627,0.0434629,1329,1800,7.48331,-67.4754
112,-776,7.06177,66.8875,-0.0134898,0.030278,-0.0351181,0.0497727,-0.0329845,-1.06403,0.0481065,0.0478248,1336,1800,7.06181,-66.8875
119,-776,6.7179,66.7423,-0.0203082,0.0238486,-0.0354295,0.0435159,-0.0399755,-1.06404,0.0482182,0.0466802,1343,1800,6.71784,-66.7423
126,-776,6.33508,66.5664,-0.026564,0.0177064,-0.0360744,0.0378953,-0.0467529,-1.06058,0.0489608,0.0479961,1350,1800,6.33507,-66.5664
133,-776,5.93616,66.4218,0,0,0,0,0,0,0,-1,1357,1800,5.93613,-66.4218
140,-776,7.28528,65.5995,0,0,0,0,0,0,0,-1,1364,1800,7.28524,-65.5995
147,-776,9.61267,62.2073,0,0,0,0,0,0,0,-1,1371,1800,9.61271,-62.2073
154,-776,38.4338,21.854,0,0,0,0,0,0,0,-1,1378,1800,38.4339,-21.854
161,-776,6.50293,1.1731,0,0,0,0,0,0,0,-1,1385,1800,6.5029,-1.17313
168,-776,8.44971,1.22913,0,0,0,0,0,0,0,-1,1392,1800,8.44974,-1.22915
175,-776,8.61523,2.87061,0,0,0,0,0,0,0,-1,1399,1800,8.6152,-2.87063
182,-776,8.54065,4.60645,0,0,0,0,0,0,0,-1,1406,1800,8.5407,-4.60643
189,-776,8.35303,6.28223,0,0,0,0,0,0,0,-1,1413,1800,8.35297,-6.28225
196,-776,8.0387,8.21704,0,0,0,0,0,0,0,-1,1420,1800,8.03865,-8.217
203,-776,7.91736,9.79919,0,0,0,0,0,0,0,-1,1427,1800,7.91735,-9.79922
210,-776,20.2479,7.85718,0,0,0,0,0,0,0,-1,1434,1800,20.248,-7.85719
217,-776,21.5171,9.3418,0,0,0,0,0,0,0,-1,1441,1800,21.5171,-9.34182
224,-776,3.09253,14.9313,0,0,0,0,0,0,0,-1,1448,1800,3.09254,-14.9313
231,-776,20.8671,9.21057,0,0,0,0,0,0,0,-1,1455,1800,20.867,-9.21054
238,-776,20.7511,9.05847,0,0,0,0,0,0,0,-1,1462,1800,20.7511,-9.05848
245,-776,3.80823,15.4108,0,0,0,0,0,0,0,-1,1469,1800,3.80826,-15.4108
252,-776,8.57837,20.2009,0,0,0,0,0,0,0,-1,1476,1800,8.57841,-20.2009
259,-776,14.1882,7.69055,0,0,0,0,0,0,0,-1,1483,1800,14.1882,-7.69061
266,-776,0,0,0,0,0,0,0,0,0,-1,1490,1800,0,0
273,-776,0,0,0,0,0,0,0,0,0,-1,1497,1800,0,0
280,-776,0,0,0,0,0,0,0,0,0,-1,1504,1800,0,0
287,-776,0,0,0,0,0,0,0,0,0,-1,1511,1800,0,0
294,-776,0,0,0,0,0,0,0,0,0,-1,1518,1800,0,0
301,-776,0,0,0,0,0,0,0,0,0,-1,1525,1800,0,0
308,-776,0,0,0,0,0,0,0,0,0,-1,1532,1800,0,0
315,-776,0,0,0,0,0,0,0,0,0,-1,1539,1800,0,0
322,-776,0,0,0,0,0,0,0,0,0,-1,1546,1800,0,0
329,-776,0,0,0,0,0,0,0,0,0,-1,1553,1800,0,0
336,-776,0,0,0,0,0,0,0,0,0,-1,1560,1800,0,0
343,-776,0,0,0,0,0,0,0,0,0,-1,1567,1800,0,0
350,-776,0,0,0,0,0,0,0,0,0,-1,1574,1800,0,0
357,-776,0,0,0,0,0,0,0,0,0,-1,1581,1800,0,0
364,-776,0,0,0,0,0,0,0,0,0,-1,1588,1800,0,0
371,-776,0,0,0,0,0,0,0,0,0,-1,1595,1800,0,0
378,-776,0,0,0,0,0,0,0,0,0,-1,1602,1800,0,0
385,-776,0,0,0,0,0,0,0,0,0,-1,1609,1800,0,0
392,-776,0,0,0,0,0,0,0,0,0,-1,1616,1800,0,0
399,-776,0,0,0,0,0,0,0,0,0,-1,1623,1800,0,0
406,-776,0,0,0,0,0,0,0,0,0,-1,1630,1800,0,0
413,-776,0,0,0,0,0,0,0,0,0,-1,1637,1800,0,0
420,-776,0,0,0,0,0,0,0,0,0,-1,1644,1800,0,0
427,-776,0,0,0,0,0,0,0,0,0,-1,1651,1800,0,0
434,-776,0,0,0,0,0,0,0,0,0,-1,1658,1800,0,0
441,-776,0,0,0,0,0,0,0,0,0,-1,1665,1800,0,0
448,-776,0,0,0,0,0,0,0,0,0,-1,1672,1800,0,0
455,-776,0,0,0,0,0,0,0,0,0,-1,1679,1800,0,0
462,-776,0,0,0,0,0,0,0,0,0,-1,1686,1800,0,0
469,-776,0,0,0,0,0,0,0,0,0,-1,1693,1800,0,0
476,-776,0,0,0,0,0,0,0,0,0,-1,1700,1800,0,0
483,-776,0,0,0,0,0,0,0,0,0,-1,1707,1800,0,0
490,-776,0,0,0,0,0,0,0,0,0,-1,1714,1800,0,0
497,-776,0,0,0,0,0,0,0,0,0,-1,1721,1800,0,0
504,-776,0,0,0,0,0,0,0,0,0,-1,1728,1800,0,0
511,-776,0,0,0,0,0,0,0,0,0,-1,1735,1800,0,0
518,-776,0,0,0,0,0,0,0,0,0,-1,1742,1800,0,0
525,-776,0,0,0,0,0,0,0,0,0,-1,1749,1800,0,0
532,-776,0,0,0,0,0,0,0,0,0,-1,1756,1800,0,0
539,-776,0,0,0,0,0,0,0,0,0,-1,1763,1800,0,0
546,-776,0,0,0,0,0,0,0,0,0,-1,1770,1800,0,0
553,-776,0,0,0,0,0,0,0,0,0,-1,1777,1800,0,0
560,-776,0,0,0,0,0,0,0,0,0,-1,1784,1800,0,0
567,-776,0,0,0,0,0,0,0,0,0,-1,1791,1800,0,0
574,-776,0,0,0,0,0,0,0,0,0,-1,1798,1800,0,0
581,-776,0,0,0,0,0,0,0,0,0,-1,1805,1800,0,0
588,-776,0,0,0,0,0,0,0,0,0,-1,1812,1800,0,0
595,-776,0,0,0,0,0,0,0,0,0,-1,1819,1800,0,0
602,-776,0,0,0,0,0,0,0,0,0,-1,1826,1800,0,0
609,-776,0,0,0,0,0,0,0,0,0,-1,1833,1800,0,0
616,-776,0,0,0,0,0,0,0,0,0,-1,1840,1800,0,0
623,-776,0,0,0,0,0,0,0,0,0,-1,1847,1800,0,0
630,-776,0,0,0,0,0,0,0,0,0,-1,1854,1800,0,0
637,-776,0,0,0,0,0,0,0,0,0,-1,1861,1800,0,0
644,-776,0,0,0,0,0,0,0,0,0,-1,1868,1800,0,0
651,-776,0,0,0,0,0,0,0,0,0,-1,1875,1800,0,0
658,-776,0,0,0,0,0,0,0,0,0,-1,1882,1800,0,0
665,-776,0,0,0,0,0,0,0,0,0,-1,1889,1800,0,0
672,-776,0,0,0,0,0,0,0,0,0,-1,1896,1800,0,0
679,-776,0,0,0,0,0,0,0,0,0,-1,1903,1800,0,0
686,-776,0,0,0,0,0,0,0,0,0,-1,1910,1800,0,0
693,-776,0,0,0,0,0,0,0,0,0,-1,1917,1800,0,0
700,-776,0,0,0,0,0,0,0,0,0,-1,1924,1800,0,0
707,-776,0,0,0,0,0,0,0,0,0,-1,1931,1800,0,0
714,-776,0,0,0,0,0,0,0,0,0,-1,1938,1800,0,0
721,-776,0,0,0,0,0,0,0,0,0,-1,1945,1800,0,0
728,-776,0,0,0,0,0,0,0,0,0,-1,1952,1800,0,0
735,-776,0,0,0,0,0,0,0,0,0,-1,1959,1800,0,0
742,-776,0,0,0,0,0,0,0,0,0,-1,1966,1800,0,0
749,-776,0,0,0,0,0,0,0,0,0,-1,1973,1800,0,0
756,-776,0,0,0,0,0,0,0,0,0,-1,1980,1800,0,0
763,-776,0,0,0,0,0,0,0,0,0,-1,1987,1800,0,0
770,-776,0,0,0,0,0,0,0,0,0,-1,1994,1800,0,0
777,-776,0,0,0,0,0,0,0,0,0,-1,2001,1800,0,0
784,-776,0,0,0,0,0,0,0,0,0,-1,2008,1800,0,0
791,-776,0,0,0,0,0,0,0,0,0,-1,2015,1800,0,0
798,-776,0,0,0,0,0,0,0,0,0,-1,2022,1800,0,0
805,-776,0,0,0,0,0,0,0,0,0,-1,2029,1800,0,0
812,-776,0,0,0,0,0,0,0,0,0,-1,2036,1800,0,0
-700,-783,0,0,0,0,0,0,0,0,0,-1,524,1807,0,0
-693,-783,0,0,0,0,0,0,0,0,0,-1,531,1807,0,0
-686,-783,0,0,0,0,0,0,0,0,0,-1,538,1807,0,0
-679,-783,0,0,0,0,0,0,0,0,0,-1,545,1807,0,0
-672,-783,0,0,0,0,0,0,0,0,0,-1,552,1807,0,0
-665,-783,0,0,0,0,0,0,0,0,0,-1,559,1807,0,0
-658,-783,0,0,0,0,0,0,0,0,0,-1,566,1807,0,0
-651,-783,0,0,0,0,0,0,0,0,0,-1,573,1807,0,0
-644,-783,0,0,0,0,0,0,0,0,0,-1,580,1807,0,0
-637,-783,0,0,0,0,0,0,0,0,0,-1,587,1807,0,0
-630,-783,0,0,0,0,0,0,0,0,0,-1,594,1807,0,0
-623,-783,0,0,0,0,0,0,0,0,0,-1,601,1807,0,0
-616,-783,0,0,0,0,0,0,0,0,0,-1,608,1807,0,0
-609,-783,0,0,0,0,0,0,0,0,0,-1,615,1807,0,0
-602,-783,0,0,0,0,0,0,0,0,0,-1,622,1807,0,0
-595,-783,0,0,0,0,0,0,0,0,0,-1,629,1807,0,0
-588,-783,0,0,0,0,0,0,0,0,0,-1,636,1807,0,0
-581,-783,0,0,0,0,0,0,0,0,0,-1,643,1807,0,0
-574,-783,0,0,0,0,0,0,0,0,0,-1,650,1807,0,0
-567,-783,0,0,0,0,0,0,0,0,0,-1,657,1807,0,0
-560,-783,0,0,0,0,0,0,0,0,0,-1,664,1807,0,0
-553,-783,0,0,0,0,0,0,0,0,0,-1,671,1807,0,0
-546,-783,0,0,0,0,0,0,0,0,0,-1,678,1807,0,0
-539,-783,0,0,0,0,0,0,0,0,0,-1,685,1807,0,0
-532,-783,0,0,0,0,0,0,0,0,0,-1,692,1807,0,0
-525,-783,0,0,0,0,0,0,0,0,0,-1,699,1807,0,0
-518,-783,0,0,0,0,0,0,0,0,0,-1,706,1807,0,0
-511,-783,0,0,0,0,0,0,0,0,0,-1,713,1807,0,0
-504,-783,0,0,0,0,0,0,0,0,0,-1,720,1807,0,0
-497,-783,0,0,0,0,0,0,0,0,0,-1,727,1807,0,0
-490,-783,0,0,0,0,0,0,0,0,0,-1,734,1807,0,0
-483,-783,0,0,0,0,0,0,0,0,0,-1,741,1807,0,0
-476,-783,0,0,0,0,0,0,0,0,0,-1,748,1807,0,0
-469,-783,0,0,0,0,0,0,0,0,0,-1,755,1807,0,0
-462,-783,0,0,0,0,0,0,0,0,0,-1,762,1807,0,0
-455,-783,0,0,0,0,0,0,0,0,0,-1,769,1807,0,0
-448,-783,0,0,0,0,0,0,0,0,0,-1,776,1807,0,0
-441,-783,0,0,0,0,0,0,0,0,0,-1,783,1807,0,0
-434,-783,0,0,0,0,0,0,0,0,0,-1,790,1807,0,0
-427,-783,0,0,0,0,0,0,0,0,0,-1,797,1807,0,0
-420,-783,0,0,0,0,0,0,0,0,0,-1,804,1807,0,0
-413,-783,0,0,0,0,0,0,0,0,0,-1,811,1807,0,0
-406,-783,0,0,0,0,0,0,0,0,0,-1,818,1807,0,0
-399,-783,0,0,0,0,0,0,0,0,0,-1,825,1807,0,0
-392,-783,0,0,0,0,0,0,0,0,0,-1,832,1807,0,0
-385,-783,0,0,0,0,0,0,0,0,0,-1,839,1807,0,0
-378,-783,0,0,0,0,0,0,0,0,0,-1,846,1807,0,0
-371,-783,0,0,0,0,0,0,0,0,0,-1,853,1807,0,0
-364,-783,0,0,0,0,0,0,0,0,0,-1,860,1807,0,0
-357,-783,0,0,0,0,0,0,0,0,0,-1,867,1807,0,0
-350,-783,0,0,0,0,0,0,0,0,0,-1,874,1807,0,0
-343,-783,0,0,0,0,0,0,0,0,0,-1,881,1807,0,0
-336,-783,0,0,0,0,0,0,0,0,0,-1,888,1807,0,0
-329,-783,0,0,0,0,0,0,0,0,0,-1,895,1807,0,0
-322,-783,0,0,0,0,0,0,0,0,0,-1,902,1807,0,0
-315,-783,0,0,0,0,0,0,0,0,0,-1,909,1807,0,0
-308,-783,0,0,0,0,0,0,0,0,0,-1,916,1807,0,0
-301,-783,0,0,0,0,0,0,0,0,0,-1,923,1807,0,0
-294,-783,0,0,0,0,0,0,0,0,0,-1,930,1807,0,0
-287,-783,0,0,0,0,0,0,0,0,0,-1,937,1807,0,0
-280,-783,0,0,0,0,0,0,0,0,0,-1,944,1807,0,0
-273,-783,0,0,0,0,0,0,0,0,0,-1,951,1807,0,0
-266,-783,0,0,0,0,0,0,0,0,0,-1,958,1807,0,0
-259,-783,0,0,0,0,0,0,0,0,0,-1,965,1807,0,0
-252,-783,0,0,0,0,0,0,0,0,0,-1,972,1807,0,0
-245,-783,0,0,0,0,0,0,0,0,0,-1,979,1807,0,0
-238,-783,0,0,0,0,0,0,0,0,0,-1,986,1807,0,0
-231,-783,0,0,0,0,0,0,0,0,0,-1,993,1807,0,0
-224,-783,0,0,0,0,0,0,0,0,0,-1,1000,1807,0,0
-217,-783,0,0,0,0,0,0,0,0,0,-1,1007,1807,0,0
-210,-783,0,0,0,0,0,0,0,0,0,-1,1014,1807,0,0
-203,-783,0,0,0,0,0,0,0,0,0,-1,1021,1807,0,0
-196,-783,0,0,0,0,0,0,0,0,0,-1,1028,1807,0,0
-189,-783,0,0,0,0,0,0,0,0,0,-1,1035,1807,0,0
-182,-783,0,0,0,0,0,0,0,0,0,-1,1042,1807,0,0
-175,-783,0,0,0,0,0,0,0,0,0,-1,1049,1807,0,0
-168,-783,0,0,0,0,0,0,0,0,0,-1,1056,1807,0,0
-161,-783,0,0,0,0,0,0,0,0,0,-1,1063,1807,0,0
-154,-783,0,0,0,0,0,0,0,0,0,-1,1070,1807,0,0
-147,-783,0,0,0,0,0,0,0,0,0,-1,1077,1807,0,0
-140,-783,0,0,0,0,0,0,0,0,0,-1,1084,1807,0,0
-133,-783,0,0,0,0,0,0,0,0,0,-1,1091,1807,0,0
-126,-783,0,0,0,0,0,0,0,0,0,-1,1098,1807,0,0
-119,-783,0,0,0,0,0,0,0,0,0,-1,1105,1807,0,0
-112,-783,5.33936,14.7699,0,0,0,0,0,0,0,-1,1112,1807,5.33931,-14.7699
-105,-783,6.44263,21.2224,0,0,0,0,0,0,0,-1,1119,1807,6.44263,-21.2224
-98,-783,5.54773,20.5695,0,0,0,0,0,0,0,-1,1126,1807,5.54772,-20.5695
-91,-783,2.6106,20.2491,0,0,0,0,0,0,0,-1,1133,1807,2.61056,-20.2492
-84,-783,-0.0491943,14.5743,0,0,0,0,0,0,0,-1,1140,1807,-0.0491562,-14.5743
-77,-783,0.332764,12.7788,0,0,0,0,0,0,0,-1,1147,1807,0.332743,-12.7788
-70,-783,-1.93176,5.12817,0,0,0,0,0,0,0,-1,1154,1807,-1.93171,-5.12813
-63,-783,-5.31702,10.54,0,0,0,0,0,0,0,-1,1161,1807,-5.31703,-10.54
-56,-783,-6.26135,6.9679,0,0,0,0,0,0,0,-1,1168,1807,-6.26136,-6.96785
-49,-783,-3.17688,4.59705,0,0,0,0,0,0,0,-1,1175,1807,-3.17685,-4.5971
-42,-783,-3.72876,3.1405,0,0,0,0,0,0,0,-1,1182,1807,-3.72874,-3.14055
-35,-783,-3.97046,1.59399,0,0,0,0,0,0,0,-1,1189,1807,-3.97041,-1.59401
-28,-783,-4.12195,0.270386,0,0,0,0,0,0,0,-1,1196,1807,-4.12197,-0.270408
-21,-783,7.37439,64.7983,0,0,0,0,0,0,0,-1,1203,1807,7.37443,-64.7983
-14,-783,9.36841,66.8837,0,0,0,0,0,0,0,-1,1210,1807,9.36841,-66.8836
-7,-783,9.27429,67.0208,0.00591636,0.0384371,0.0209481,0.0486951,-0.00434163,1.11543,0.0340031,0.0494174,1217,1807,9.27424,-67.0208
0,-783,9.15125,67.1262,0.0118618,0.055969,0.027643,0.0692778,-0.00144693,1.1221,0.046675,0.0453341,1224,1807,9.1513,-67.1262
7,-783,4.51245,65.8763,0,0,0,0,0,0,0,-1,1231,1807,4.51247,-65.8764
14,-783,5.11597,65.8469,0.0268804,0.0859368,0.0352045,0.102357,0.01046,1.13436,0.0650324,0.0477469,1238,1807,5.11598,-65.8469
21,-783,5.68506,65.8206,0.0350637,0.0954848,0.0376432,0.113541,0.0170074,1.12355,0.07071,0.0476539,1245,1807,5.685,-65.8206
28,-783,6.23779,65.8489,0.0419318,0.102747,0.0389426,0.121748,0.0229315,1.11687,0.0747038,0.0466974,1252,1807,6.23776,-65.8488
35,-783,6.83533,65.8894,0.0480037,0.10676,0.0372064,0.124788,0.0299751,1.11958,0.0752183,0.0481574,1259,1807,6.83538,-65.8894
42,-783,7.37854,65.817,0.0511346,0.105971,0.0321473,0.120805,0.0363011,1.13849,0.0715735,0.0473822,1266,1807,7.37858,-65.817
49,-783,7.6792,65.9723,0.0528729,0.105936,0.023657,0.114951,0.0438577,1.2067,0.0669853,0.0496461,1273,1807,7.67924,-65.9723
56,-783,8.26233,65.9149,0.0532918,0.104813,0.0159678,0.10936,0.0487443,1.29335,0.063263,0.0499764,1280,1807,8.26231,-65.9149
63,-783,8.89453,65.8904,0.0494502,0.0972346,0.00634744,0.0980634,0.0486214,1.44096,0.0566176,0.0495874,1287,1807,8.89452,-65.8904
70,-783,9.83215,65.5945,0.0432838,0.0877808,-0.00466052,0.0882637,0.0428009,-1.46755,0.0509668,0.0479451,1294,1807,9.83213,-65.5945
77,-783,10.5309,65.5948,0,0,0,0,0,0,0,-1,1301,1807,10.5308,-65.5949
84,-783,8.76929,70.1506,0,0,0,0,0,0,0,-1,1308,1807,8.7693,-70.1506
91,-783,8.57715,69.1263,0.0161204,0.0617786,-0.0345198,0.0803353,-0.00243628,-1.07755,0.0543872,0.0474309,1315,1807,8.57718,-69.1263
98,-783,8.42053,68.0922,0.00617002,0.0538233,-0.0418085,0.078118,-0.0181246,-1.04439,0.0590547,0.0459737,1322,1807,8.42058,-68.0921
105,-783,8.17224,67.1007,-0.00349992,0.0467939,-0.0469051,0.0748678,-0.0315738,-1.03146,0.0631258,0.0492187,1329,1807,8.17219,-67.1007
112,-783,6.90723,66.7799,0,0,0,0,0,0,0,-1,1336,1807,6.90723,-66.7799
119,-783,6.58228,66.7692,-0.0213811,0.0326726,-0.0503573,0.0627973,-0.0515059,-1.03169,0.0661003,0.0473102,1343,1807,6.58228,-66.7691
126,-783,6.15356,66.6484,-0.029803,0.0251169,-0.0517693,0.0562582,-0.0609443,-1.02924,0.0676849,0.0492148,1350,1807,6.15358,-66.6485
133,-783,5.77795,66.4485,0,0,0,0,0,0,0,-1,1357,1807,5.77794,-66.4485
140,-783,5.83472,62.489,0,0,0,0,0,0,0,-1,1364,1807,5.83474,-62.489
147,-783,9.6698,63.2255,0,0,0,0,0,0,0,-1,1371,1807,9.66982,-63.2254
154,-783,38.2109,17.545,0,0,0,0,0,0,0,-1,1378,1807,38.2109,-17.545
161,-783,39.5087,17.5449,0,0,0,0,0,0,0,-1,1385,1807,39.5087,-17.545
168,-783,8.62561,1.79944,0,0,0,0,0,0,0,-1,1392,1807,8.62561,-1.79946
175,-783,8.78699,3.40857,0,0,0,0,0,0,0,-1,1399,1807,8.78697,-3.40854
182,-783,8.70984,5.14661,0,0,0,0,0,0,0,-1,1406,1807,8.70989,-5.14666
189,-783,8.55762,6.79871,0,0,0,0,0,0,0,-1,1413,1807,8.55766,-6.79872
196,-783,8.25488,8.66626,0,0,0,0,0,0,0,-1,1420,1807,8.25492,-8.66628
203,-783,7.86755,10.5735,0,0,0,0,0,0,0,-1,1427,1807,7.8676,-10.5734
210,-783,5.6969,8.99231,0,0,0,0,0,0,0,-1,1434,1807,5.69693,-8.99234
217,-783,5.28503,3.80872,0,0,0,0,0,0,0,-1,1441,1807,5.285,-3.80868
224,-783,3.22571,6.62903,0,0,0,0,0,0,0,-1,1448,1807,3.2257,-6.62907
231,-783,4.27942,4.56262,0,0,0,0,0,0,0,-1,1455,1807,4.27948,-4.56267
238,-783,0,0,0,0,0,0,0,0,0,-1,1462,1807,0,0
245,-783,0,0,0,0,0,0,0,0,0,-1,1469,1807,0,0
252,-783,0,0,0,0,0,0,0,0,0,-1,1476,1807,0,0
259,-783,0,0,0,0,0,0,0,0,0,-1,1483,1807,0,0
266,-783,0,0,0,0,0,0,0,0,0,-1,1490,1807,0,0
273,-783,0,0,0,0,0,0,0,0,0,-1,1497,1807,0,0
280,-783,0,0,0,0,0,0,0,0,0,-1,1504,1807,0,0
287,-783,0,0,0,0,0,0,0,0,0,-1,1511,1807,0,0
294,-783,0,0,0,0,0,0,0,0,0,-1,1518,1807,0,0
301,-783,0,0,0,0,0,0,0,0,0,-1,1525,1807,0,0
308,-783,0,0,0,0,0,0,0,0,0,-1,1532,1807,0,0
315,-783,0,0,0,0,0,0,0,0,0,-1,1539,1807,0,0
322,-783,0,0,0,0,0,0,0,0,0,-1,1546,1807,0,0
329,-783,0,0,0,0,0,0,0,0,0,-1,1553,1807,0,0
336,-783,0,0,0,0,0,0,0,0,0,-1,1560,1807,0,0
343,-783,0,0,0,0,0,0,0,0,0,-1,1567,1807,0,0
350,-783,0,0,0,0,0,0,0,0,0,-1,1574,1807,0,0
357,-783,0,0,0,0,0,0,0,0,0,-1,1581,1807,0,0
364,-783,0,0,0,0,0,0,0,0,0,-1,1588,1807,0,0
371,-783,0,0,0,0,0,0,0,0,0,-1,1595,1807,0,0
378,-783,0,0,0,0,0,0,0,0,0,-1,1602,1807,0,0
385,-783,0,0,0,0,0,0,0,0,0,-1,1609,1807,0,0
392,-783,0,0,0,0,0,0,0,0,0,-1,1616,1807,0,0
399,-783,0,0,0,0,0,0,0,0,0,-1,1623,1807,0,0
406,-783,0,0,0,0,0,0,0,0,0,-1,1630,1807,0,0
413,-783,0,0,0,0,0,0,0,0,0,-1,1637,1807,0,0
420,-783,0,0,0,0,0,0,0,0,0,-1,1644,1807,0,0
427,-783,0,0,0,0,0,0,0,0,0,-1,1651,1807,0,0
434,-783,0,0,0,0,0,0,0,0,0,-1,1658,1807,0,0
441,-783,0,0,0,0,0,0,0,0,0,-1,1665,1807,0,0
448,-783,0,0,0,0,0,0,0,0,0,-1,1672,1807,0,0
455,-783,0,0,0,0,0,0,0,0,0,-1,1679,1807,0,0
462,-783,0,0,0,0,0,0,0,0,0,-1,1686,1807,0,0
469,-783,0,0,0,0,0,0,0,0,0,-1,1693,1807,0,0
476,-783,0,0,0,0,0,0,0,0,0,-1,1700,1807,0,0
483,-783,0,0,0,0,0,0,0,0,0,-1,1707,1807,0,0
490,-783,0,0,0,0,0,0,0,0,0,-1,1714,1807,0,0
497,-783,0,0,0,0,0,0,0,0,0,-1,1721,1807,0,0
504,-783,0,0,0,0,0,0,0,0,0,-1,1728,1807,0,0
511,-783,0,0,0,0,0,0,0,0,0,-1,1735,1807,0,0
518,-783,0,0,0,0,0,0,0,0,0,-1,1742,1807,0,0
525,-783,0,0,0,0,0,0,0,0,0,-1,1749,1807,0,0
532,-783,0,0,0,0,0,0,0,0,0,-1,1756,1807,0,0
539,-783,0,0,0,0,0,0,0,0,0,-1,1763,1807,0,0
546,-783,0,0,0,0,0,0,0,0,0,-1,1770,1807,0,0
553,-783,0,0,0,0,0,0,0,0,0,-1,1777,1807,0,0
560,-783,0,0,0,0,0,0,0,0,0,-1,1784,1807,0,0
567,-783,0,0,0,0,0,0,0,0,0,-1,1791,1807,0,0
574,-783,0,0,0,0,0,0,0,0,0,-1,1798,1807,0,0
581,-783,0,0,0,0,0,0,0,0,0,-1,1805,1807,0,0
588,-783,0,0,0,0,0,0,0,0,0,-1,1812,1807,0,0
595,-783,0,0,0,0,0,0,0,0,0,-1,1819,1807,0,0
602,-783,0,0,0,0,0,0,0,0,0,-1,1826,1807,0,0
609,-783,0,0,0,0,0,0,0,0,0,-1,1833,1807,0,0
616,-783,0,0,0,0,0,0,0,0,0,-1,1840,1807,0,0
623,-783,0,0,0,0,0,0,0,0,0,-1,1847,1807,0,0
630,-783,0,0,0,0,0,0,0,0,0,-1,1854,1807,0,0
637,-783,0,0,0,0,0,0,0,0,0,-1,1861,1807,0,0
644,-783,0,0,0,0,0,0,0,0,0,-1,1868,1807,0,0
651,-783,0,0,0,0,0,0,0,0,0,-1,1875,1807,0,0
658,-783,0,0,0,0,0,0,0,0,0,-1,1882,1807,0,0
665,-783,0,0,0,0,0,0,0,0,0,-1,1889,1807,0,0
672,-783,0,0,0,0,0,0,0,0,0,-1,1896,1807,0,0
679,-783,0,0,0,0,0,0,0,0,0,-1,1903,1807,0,0
686,-783,0,0,0,0,0,0,0,0,0,-1,1910,1807,0,0
693,-783,0,0,0,0,0,0,0,0,0,-1,1917,1807,0,0
700,-783,0,0,0,0,0,0,0,0,0,-1,1924,1807,0,0
707,-783,0,0,0,0,0,0,0,0,0,-1,1931,1807,0,0
714,-783,0,0,0,0,0,0,0,0,0,-1,1938,1807,0,0
721,-783,0,0,0,0,0,0,0,0,0,-1,1945,1807,0,0
728,-783,0,0,0,0,0,0,0,0,0,-1,1952,1807,0,0
735,-783,0,0,0,0,0,0,0,0,0,-1,1959,1807,0,0
742,-783,0,0,0,0,0,0,0,0,0,-1,1966,1807,0,0
749,-783,0,0,0,0,0,0,0,0,0,-1,1973,1807,0,0
756,-783,0,0,0,0,0,0,0,0,0,-1,1980,1807,0,0
763,-783,0,0,0,0,0,0,0,0,0,-1,1987,1807,0,0
770,-783,0,0,0,0,0,0,0,0,0,-1,1994,1807,0,0
777,-783,0,0,0,0,0,0,0,0,0,-1,2001,1807,0,0
784,-783,0,0,0,0,0,0,0,0,0,-1,2008,1807,0,0
791,-783,0,0,0,0,0,0,0,0,0,-1,2015,1807,0,0
798,-783,0,0,0,0,0,0,0,0,0,-1,2022,1807,0,0
805,-783,0,0,0,0,0,0,0,0,0,-1,2029,1807,0,0
812,-783,0,0,0,0,0,0,0,0,0,-1,2036,1807,0,0
-700,-790,0,0,0,0,0,0,0,0,0,-1,524,1814,0,0
-693,-790,0,0,0,0,0,0,0,0,0,-1,531,1814,0,0
-686,-790,0,0,0,0,0,0,0,0,0,-1,538,1814,0,0
-679,-790,0,0,0,0,0,0,0,0,0,-1,545,1814,0,0
-672,-790,0,0,0,0,0,0,0,0,0,-1,552,1814,0,0
-665,-790,0,0,0,0,0,0,0,0,0,-1,559,1814,0,0
-658,-790,0,0,0,0,0,0,0,0,0,-1,566,1814,0,0
-651,-790,0,0,0,0,0,0,0,0,0,-1,573,1814,0,0
-644,-790,0,0,0,0,0,0,0,0,0,-1,580,1814,0,0
-637,-790,0,0,0,0,0,0,0,0,0,-1,587,1814,0,0
-630,-790,0,0,0,0,0,0,0,0,0,-1,594,1814,0,0
-623,-790,0,0,0,0,0,0,0,0,0,-1,601,1814,0,0
-616,-790,0,0,0,0,0,0,0,0,0,-1,608,1814,0,0
-609,-790,0,0,0,0,0,0,0,0,0,-1,615,1814,0,0
-602,-790,0,0,0,0,0,0,0,0,0,-1,622,1814,0,0
-595,-790,0,0,0,0,0,0,0,0,0,-1,629,1814,0,0
-588,-790,0,0,0,0,0,0,0,0,0,-1,636,1814,0,0
-581,-790,0,0,0,0,0,0,0,0,0,-1,643,1814,0,0
-574,-790,0,0,0,0,0,0,0,0,0,-1,650,1814,0,0
-567,-790,0,0,0,0,0,0,0,0,0,-1,657,1814,0,0
-560,-790,0,0,0,0,0,0,0,0,0,-1,664,1814,0,0
-553,-790,0,0,0,0,0,0,0,0,0,-1,671,1814,0,0
-546,-790,0,0,0,0,0,0,0,0,0,-1,678,1814,0,0
-539,-790,0,0,0,0,0,0,0,0,0,-1,685,1814,0,0
-532,-790,0,0,0,0,0,0,0,0,0,-1,692,1814,0,0
-525,-790,0,0,0,0,0,0,0,0,0,-1,699,1814,0,0
-518,-790,0,0,0,0,0,0,0,0,0,-1,706,1814,0,0
-511,-790,0,0,0,0,0,0,0,0,0,-1,713,1814,0,0
-504,-790,0,0,0,0,0,0,0,0,0,-1,720,1814,0,0
-497,-790,0,0,0,0,0,0,0,0,0,-1,727,1814,0,0
-490,-790,0,0,0,0,0,0,0,0,0,-1,734,1814,0,0
-483,-790,0,0,0,0,0,0,0,0,0,-1,741,1814,0,0
-476,-790,0,0,0,0,0,0,0,0,0,-1,748,1814,0,0
-469,-790,0,0,0,0,0,0,0,0,0,-1,755,1814,0,0
-462,-790,0,0,0,0,0,0,0,0,0,-1,762,1814,0,0
-455,-790,0,0,0,0,0,0,0,0,0,-1,769,1814,0,0
-448,-790,0,0,0,0,0,0,0,0,0,-1,776,1814,0,0
-441,-790,0,0,0,0,0,0,0,0,0,-1,783,1814,0,0
-434,-790,0,0,0,0,0,0,0,0,0,-1,790,1814,0,0
-427,-790,0,0,0,0,0,0,0,0,0,-1,797,1814,0,0
-420,-790,0,0,0,0,0,0,0,0,0,-1,804,1814,0,0
-413,-790,0,0,0,0,0,0,0,0,0,-1,811,1814,0,0
-406,-790,0,0,0,0,0,0,0,0,0,-1,818,1814,0,0
-399,-790,0,0,0,0,0,0,0,0,0,-1,825,1814,0,0
-392,-790,0,0,0,0,0,0,0,0,0,-1,832,1814,0,0
-385,-790,0,0,0,0,0,0,0,0,0,-1,839,1814,0,0
-378,-790,0,0,0,0,0,0,0,0,0,-1,846,1814,0,0
-371,-790,0,0,0,0,0,0,0,0,0,-1,853,1814,0,0
-364,-790,0,0,0,0,0,0,0,0,0,-1,860,1814,0,0
-357,-790,0,0,0,0,0,0,0,0,0,-1,867,1814,0,0
-350,-790,0,0,0,0,0,0,0,0,0,-1,874,1814,0,0
-343,-790,0,0,0,0,0,0,0,0,0,-1,881,1814,0,0
-336,-790,0,0,0,0,0,0,0,0,0,-1,888,1814,0,0
-329,-790,0,0,0,0,0,0,0,0,0,-1,895,1814,0,0
-322,-790,0,0,0,0,0,0,0,0,0,-1,902,1814,0,0
-315,-790,0,0,0,0,0,0,0,0,0,-1,909,1814,0,0
-308,-790,0,0,0,0,0,0,0,0,0,-1,916,1814,0,0
-301,-790,0,0,0,0,0,0,0,0,0,-1,923,1814,0,0
-294,-790,0,0,0,0,0,0,0,0,0,-1,930,1814,0,0
-287,-790,0,0,0,0,0,0,0,0,0,-1,937,1814,0,0
-280,-790,0,0,0,0,0,0,0,0,0,-1,944,1814,0,0
-273,-790,0,0,0,0,0,0,0,0,0,-1,951,1814,0,0
-266,-790,0,0,0,0,0,0,0,0,0,-1,958,1814,0,0
-259,-790,0,0,0,0,0,0,0,0,0,-1,965,1814,0,0
-252,-790,0,0,0,0,0,0,0,0,0,-1,972,1814,0,0
-245,-790,0,0,0,0,0,0,0,0,0,-1,979,1814,0,0
-238,-790,0,0,0,0,0,0,0,0,0,-1,986,1814,0,0
-231,-790,0,0,0,0,0,0,0,0,0,-1,993,1814,0,0
-224,-790,0,0,0,0,0,0,0,0,0,-1,1000,1814,0,0
-217,-790,0,0,0,0,0,0,0,0,0,-1,1007,1814,0,0
-210,-790,0,0,0,0,0,0,0,0,0,-1,1014,1814,0,0
-203,-790,0,0,0,0,0,0,0,0,0,-1,1021,1814,0,0
-196,-790,0,0,0,0,0,0,0,0,0,-1,1028,1814,0,0
-189,-790,0,0,0,0,0,0,0,0,0,-1,1035,1814,0,0
-182,-790,0,0,0,0,0,0,0,0,0,-1,1042,1814,0,0
-175,-790,0,0,0,0,0,0,0,0,0,-1,1049,1814,0,0
-168,-790,0,0,0,0,0,0,0,0,0,-1,1056,1814,0,0
-161,-790,0,0,0,0,0,0,0,0,0,-1,1063,1814,0,0
-154,-790,0,0,0,0,0,0,0,0,0,-1,1070,1814,0,0
-147,-790,0,0,0,0,0,0,0,0,0,-1,1077,1814,0,0
-140,-790,0,0,0,0,0,0,0,0,0,-1,1084,1814,0,0
-133,-790,0,0,0,0,0,0,0,0,0,-1,1091,1814,0,0
-126,-790,0,0,0,0,0,0,0,0,0,-1,1098,1814,0,0
-119,-790,0,0,0,0,0,0,0,0,0,-1,1105,1814,0,0
-112,-790,0,0,0,0,0,0,0,0,0,-1,1112,1814,0,0
-105,-790,0,0,0,0,0,0,0,0,0,-1,1119,1814,0,0
-98,-790,0,0,0,0,0,0,0,0,0,-1,1126,1814,0,0
-91,-790,0,0,0,0,0,0,0,0,0,-1,1133,1814,0,0
-84,-790,0,0,0,0,0,0,0,0,0,-1,1140,1814,0,0
-77,-790,-0.969238,5.30847,0,0,0,0,0,0,0,-1,1147,1814,-0.969277,-5.3085
-70,-790,-1.23169,4.98914,0,0,0,0,0,0,0,-1,1154,1814,-1.23163,-4.98916
-63,-790,-1.69128,4.32263,0,0,0,0,0,0,0,-1,1161,1814,-1.69128,-4.32258
-56,-790,-2.24756,3.75305,0,0,0,0,0,0,0,-1,1168,1814,-2.24758,-3.75302
-49,-790,-3.11011,3.35779,0,0,0,0,0,0,0,-1,1175,1814,-3.11006,-3.35781
-42,-790,0.593262,1.19165,0,0,0,0,0,0,0,-1,1182,1814,0.593225,-1.19165
-35,-790,0.307129,-0.20105,0,0,0,0,0,0,0,-1,1189,1814,0.307178,0.201006
-28,-790,-2.78467,0.785156,0,0,0,0,0,0,0,-1,1196,1814,-2.78471,-0.785183
-21,-790,9.19263,66.6621,0,0,0,0,0,0,0,-1,1203,1814,9.19259,-66.6621
-14,-790,9.33997,66.7231,0,0,0,0,0,0,0,-1,1210,1814,9.33998,-66.7231
-7,-790,9.31018,66.9088,0.0062884,0.0354043,0.0207943,0.0462301,-0.00453743,1.09079,0.0324385,0.0456117,1217,1814,9.31015,-66.9088
0,-790,9.14783,67.0485,0.0160423,0.0607478,0.0304762,0.0761898,0.000600308,1.10181,0.0505943,0.043895,1224,1814,9.14788,-67.0484
7,-790,4.02734,65.0505,0,0,0,0,0,0,0,-1,1231,1814,4.02739,-65.0505
14,-790,4.69153,64.9791,0.0371869,0.0999292,0.0404448,0.119743,0.0173728,1.11526,0.0747143,0.047084,1238,1814,4.69148,-64.9792
21,-790,5.13843,64.9985,0.0474528,0.111448,0.0438174,0.133707,0.0251934,1.10077,0.08204,0.0460647,1245,1814,5.13843,-64.9985
28,-790,5.82458,64.9071,0.0564555,0.120957,0.0457201,0.144657,0.0327559,1.09257,0.0875853,0.0463337,1252,1814,5.82458,-64.9072
35,-790,6.50525,64.884,0.0639499,0.126074,0.0437628,0.148678,0.041346,1.09403,0.0886124,0.0487184,1259,1814,6.50529,-64.884
42,-790,7.07178,64.8679,0.0679088,0.125716,0.0379918,0.144549,0.0490757,1.11058,0.0848765,0.0476744,1266,1814,7.07176,-64.868
49,-790,7.4469,64.9174,0,0,0,0,0,0,0,-1,1273,1814,7.44692,-64.9174
56,-790,8.11047,64.8584,0,0,0,0,0,0,0,-1,1280,1814,8.11046,-64.8584
63,-790,8.78528,64.9028,0.0666059,0.117529,0.00706114,0.11849,0.0656449,1.43553,0.0685431,0.0448393,1287,1814,8.78533,-64.9029
70,-790,9.39368,64.8832,0.0593543,0.106593,-0.00685895,0.107569,0.0583785,-1.42949,0.0621805,0.041631,1294,1814,9.39362,-64.8831
77,-790,9.00513,71.2269,0,0,0,0,0,0,0,-1,1301,1814,9.00513,-71.227
84,-790,9.11096,70.1058,0.0384953,0.0861782,-0.0337338,0.103645,0.0210284,-1.09302,0.0632632,0.0449072,1308,1814,9.11095,-70.1059
91,-790,9.28638,68.8096,0.0261103,0.0767258,-0.0460759,0.103987,-0.00115074,-1.03654,0.0697113,0.0480491,1315,1814,9.28639,-68.8096
98,-790,9.46619,67.4823,0.0138702,0.0676865,-0.0564718,0.103333,-0.0217765,-1.00773,0.0771786,0.0480232,1322,1814,9.46623,-67.4823
105,-790,8.86853,66.6875,0,0,0,0,0,0,0,-1,1329,1814,8.86857,-66.6875
112,-790,9.36401,65.0063,0,0,0,0,0,0,0,-1,1336,1814,9.36402,-65.0063
119,-790,6.39185,66.7599,0,0,0,0,0,0,0,-1,1343,1814,6.39182,-66.7598
126,-790,5.97742,66.7308,0,0,0,0,0,0,0,-1,1350,1814,5.97744,-66.7308
133,-790,5.75708,66.4446,0,0,0,0,0,0,0,-1,1357,1814,5.75703,-66.4445
140,-790,5.82996,65.7621,0,0,0,0,0,0,0,-1,1364,1814,5.83,-65.7621
147,-790,5.21094,62.8239,0,0,0,0,0,0,0,-1,1371,1814,5.2109,-62.8239
154,-790,40.215,13.2396,0,0,0,0,0,0,0,-1,1378,1814,40.2149,-13.2396
161,-790,39.3429,13.0336,0,0,0,0,0,0,0,-1,1385,1814,39.3429,-13.0336
168,-790,7.04077,2.23279,0,0,0,0,0,0,0,-1,1392,1814,7.04082,-2.23275
175,-790,9.03918,3.98535,0,0,0,0,0,0,0,-1,1399,1814,9.0392,-3.98535
182,-790,8.96997,5.67896,0,0,0,0,0,0,0,-1,1406,1814,8.97001,-5.6789
189,-790,8.59729,6.86975,0,0,0,0,0,0,0,-1,1413,1814,8.59728,-6.86972
196,-790,8.21924,9.29053,0,0,0,0,0,0,0,-1,1420,1814,8.21924,-9.29048
203,-790,0,0,0,0,0,0,0,0,0,-1,1427,1814,0,0
210,-790,0,0,0,0,0,0,0,0,0,-1,1434,1814,0,0
217,-790,0,0,0,0,0,0,0,0,0,-1,1441,1814,0,0
224,-790,0,0,0,0,0,0,0,0,0,-1,1448,1814,0,0
231,-790,0,0,0,0,0,0,0,0,0,-1,1455,1814,0,0
238,-790,0,0,0,0,0,0,0,0,0,-1,1462,1814,0,0
245,-790,0,0,0,0,0,0,0,0,0,-1,1469,1814,0,0
252,-790,0,0,0,0,0,0,0,0,0,-1,1476,1814,0,0
259,-790,0,0,0,0,0,0,0,0,0,-1,1483,1814,0,0
266,-790,0,0,0,0,0,0,0,0,0,-1,1490,1814,0,0
273,-790,0,0,0,0,0,0,0,0,0,-1,1497,1814,0,0
280,-790,0,0,0,0,0,0,0,0,0,-1,1504,1814,0,0
287,-790,0,0,0,0,0,0,0,0,0,-1,1511,1814,0,0
294,-790,0,0,0,0,0,0,0,0,0,-1,1518,1814,0,0
301,-790,0,0,0,0,0,0,0,0,0,-1,1525,1814,0,0
308,-790,0,0,0,0,0,0,0,0,0,-1,1532,1814,0,0
315,-790,0,0,0,0,0,0,0,0,0,-1,1539,1814,0,0
322,-790,0,0,0,0,0,0,0,0,0,-1,1546,1814,0,0
329,-790,0,0,0,0,0,0,0,0,0,-1,1553,1814,0,0
336,-790,0,0,0,0,0,0,0,0,0,-1,1560,1814,0,0
343,-790,0,0,0,0,0,0,0,0,0,-1,1567,1814,0,0
350,-790,0,0,0,0,0,0,0,0,0,-1,1574,1814,0,0
357,-790,0,0,0,0,0,0,0,0,0,-1,1581,1814,0,0
364,-790,0,0,0,0,0,0,0,0,0,-1,1588,1814,0,0
371,-790,0,0,0,0,0,0,0,0,0,-1,1595,1814,0,0
378,-790,0,0,0,0,0,0,0,0,0,-1,1602,1814,0,0
385,-790,0,0,0,0,0,0,0,0,0,-1,1609,1814,0,0
392,-790,0,0,0,0,0,0,0,0,0,-1,1616,1814,0,0
399,-790,0,0,0,0,0,0,0,0,0,-1,1623,1814,0,0
406,-790,0,0,0,0,0,0,0,0,0,-1,1630,1814,0,0
413,-790,0,0,0,0,0,0,0,0,0,-1,1637,1814,0,0
420,-790,0,0,0,0,0,0,0,0,0,-1,1644,1814,0,0
427,-790,0,0,0,0,0,0,0,0,0,-1,1651,1814,0,0
434,-790,0,0,0,0,0,0,0,0,0,-1,1658,1814,0,0
441,-790,0,0,0,0,0,0,0,0,0,-1,1665,1814,0,0
448,-790,0,0,0,0,0,0,0,0,0,-1,1672,1814,0,0
455,-790,0,0,0,0,0,0,0,0,0,-1,1679,1814,0,0
462,-790,0,0,0,0,0,0,0,0,0,-1,1686,1814,0,0
469,-790,0,0,0,0,0,0,0,0,0,-1,1693,1814,0,0
476,-790,0,0,0,0,0,0,0,0,0,-1,1700,1814,0,0
483,-790,0,0,0,0,0,0,0,0,0,-1,1707,1814,0,0
490,-790,0,0,0,0,0,0,0,0,0,-1,1714,1814,0,0
497,-790,0,0,0,0,0,0,0,0,0,-1,1721,1814,0,0
504,-790,0,0,0,0,0,0,0,0,0,-1,1728,1814,0,0
511,-790,0,0,0,0,0,0,0,0,0,-1,1735,1814,0,0
518,-790,0,0,0,0,0,0,0,0,0,-1,1742,1814,0,0
525,-790,0,0,0,0,0,0,0,0,0,-1,1749,1814,0,0
532,-790,0,0,0,0,0,0,0,0,0,-1,1756,1814,0,0
539,-790,0,0,0,0,0,0,0,0,0,-1,1763,1814,0,0
546,-790,0,0,0,0,0,0,0,0,0,-1,1770,1814,0,0
553,-790,0,0,0,0,0,0,0,0,0,-1,1777,1814,0,0
560,-790,0,0,0,0,0,0,0,0,0,-1,1784,1814,0,0
567,-790,0,0,0,0,0,0,0,0,0,-1,1791,1814,0,0
574,-790,0,0,0,0,0,0,0,0,0,-1,1798,1814,0,0
581,-790,0,0,0,0,0,0,0,0,0,-1,1805,1814,0,0
588,-790,0,0,0,0,0,0,0,0,0,-1,1812,1814,0,0
595,-790,0,0,0,0,0,0,0,0,0,-1,1819,1814,0,0
602,-790,0,0,0,0,0,0,0,0,0,-1,1826,1814,0,0
609,-790,0,0,0,0,0,0,0,0,0,-1,1833,1814,0,0
616,-790,0,0,0,0,0,0,0,0,0,-1,1840,1814,0,0
623,-790,0,0,0,0,0,0,0,0,0,-1,1847,1814,0,0
630,-790,0,0,0,0,0,0,0,0,0,-1,1854,1814,0,0
637,-790,0,0,0,0,0,0,0,0,0,-1,1861,1814,0,0
644,-790,0,0,0,0,0,0,0,0,0,-1,1868,1814,0,0
651,-790,0,0,0,0,0,0,0,0,0,-1,1875,1814,0,0
658,-790,0,0,0,0,0,0,0,0,0,-1,1882,1814,0,0
665,-790,0,0,0,0,0,0,0,0,0,-1,1889,1814,0,0
672,-790,0,0,0,0,0,0,0,0,0,-1,1896,1814,0,0
679,-790,0,0,0,0,0,0,0,0,0,-1,1903,1814,0,0
686,-790,0,0,0,0,0,0,0,0,0,-1,1910,1814,0,0
693,-790,0,0,0,0,0,0,0,0,0,-1,1917,1814,0,0
700,-790,0,0,0,0,0,0,0,0,0,-1,1924,1814,0,0
707,-790,0,0,0,0,0,0,0,0,0,-1,1931,1814,0,0
714,-790,0,0,0,0,0,0,0,0,0,-1,1938,1814,0,0
721,-790,0,0,0,0,0,0,0,0,0,-1,1945,1814,0,0
728,-790,0,0,0,0,0,0,0,0,0,-1,1952,1814,0,0
735,-790,0,0,0,0,0,0,0,0,0,-1,1959,1814,0,0
742,-790,0,0,0,0,0,0,0,0,0,-1,1966,1814,0,0
749,-790,0,0,0,0,0,0,0,0,0,-1,1973,1814,0,0
756,-790,0,0,0,0,0,0,0,0,0,-1,1980,1814,0,0
763,-790,0,0,0,0,0,0,0,0,0,-1,1987,1814,0,0
770,-790,0,0,0,0,0,0,0,0,0,-1,1994,1814,0,0
777,-790,0,0,0,0,0,0,0,0,0,-1,2001,1814,0,0
784,-790,0,0,0,0,0,0,0,0,0,-1,2008,1814,0,0
791,-790,0,0,0,0,0,0,0,0,0,-1,2015,1814,0,0
798,-790,0,0,0,0,0,0,0,0,0,-1,2022,1814,0,0
805,-790,0,0,0,0,0,0,0,0,0,-1,2029,1814,0,0
812,-790,0,0,0,0,0,0,0,0,0,-1,2036,1814,0,0
-700,-797,0,0,0,0,0,0,0,0,0,-1,524,1821,0,0
-693,-797,0,0,0,0,0,0,0,0,0,-1,531,1821,0,0
-686,-797,0,0,0,0,0,0,0,0,0,-1,538,1821,0,0
-679,-797,0,0,0,0,0,0,0,0,0,-1,545,1821,0,0
-672,-797,0,0,0,0,0,0,0,0,0,-1,552,1821,0,0
-665,-797,0,0,0,0,0,0,0,0,0,-1,559,1821,0,0
-658,-797,0,0,0,0,0,0,0,0,0,-1,566,1821,0,0
-651,-797,0,0,0,0,0,0,0,0,0,-1,573,1821,0,0
-644,-797,0,0,0,0,0,0,0,0,0,-1,580,1821,0,0
-637,-797,0,0,0,0,0,0,0,0,0,-1,587,1821,0,0
-630,-797,0,0,0,0,0,0,0,0,0,-1,594,1821,0,0
-623,-797,0,0,0,0,0,0,0,0,0,-1,601,1821,0,0
-616,-797,0,0,0,0,0,0,0,0,0,-1,608,1821,0,0
-609,-797,0,0,0,0,0,0,0,0,0,-1,615,1821,0,0
-602,-797,0,0,0,0,0,0,0,0,0,-1,622,1821,0,0
-595,-797,0,0,0,0,0,0,0,0,0,-1,629,1821,0,0
-588,-797,0,0,0,0,0,0,0,0,0,-1,636,1821,0,0
-581,-797,0,0,0,0,0,0,0,0,0,-1,643,1821,0,0
-574,-797,0,0,0,0,0,0,0,0,0,-1,650,1821,0,0
-567,-797,0,0,0,0,0,0,0,0,0,-1,657,1821,0,0
-560,-797,0,0,0,0,0,0,0,0,0,-1,664,1821,0,0
-553,-797,0,0,0,0,0,0,0,0,0,-1,671,1821,0,0
-546,-797,0,0,0,0,0,0,0,0,0,-1,678,1821,0,0
-539,-797,0,0,0,0,0,0,0,0,0,-1,685,1821,0,0
-532,-797,0,0,0,0,0,0,0,0,0,-1,692,1821,0,0
-525,-797,0,0,0,0,0,0,0,0,0,-1,699,1821,0,0
-518,-797,0,0,0,0,0,0,0,0,0,-1,706,1821,0,0
-511,-797,0,0,0,0,0,0,0,0,0,-1,713,1821,0,0
-504,-797,0,0,0,0,0,0,0,0,0,-1,720,1821,0,0
-497,-797,0,0,0,0,0,0,0,0,0,-1,727,1821,0,0
-490,-797,0,0,0,0,0,0,0,0,0,-1,734,1821,0,0
-483,-797,0,0,0,0,0,0,0,0,0,-1,741,1821,0,0
-476,-797,0,0,0,0,0,0,0,0,0,-1,748,1821,0,0
-469,-797,0,0,0,0,0,0,0,0,0,-1,755,1821,0,0
-462,-797,0,0,0,0,0,0,0,0,0,-1,762,1821,0,0
-455,-797,0,0,0,0,0,0,0,0,0,-1,769,1821,0,0
-448,-797,0,0,0,0,0,0,0,0,0,-1,776,1821,0,0
-441,-797,0,0,0,0,0,0,0,0,0,-1,783,1821,0,0
-434,-797,0,0,0,0,0,0,0,0,0,-1,790,1821,0,0
-427,-797,0,0,0,0,0,0,0,0,0,-1,797,1821,0,0
-420,-797,0,0,0,0,0,0,0,0,0,-1,804,1821,0,0
-413,-797,0,0,0,0,0,0,0,0,0,-1,811,1821,0,0
-406,-797,0,0,0,0,0,0,0,0,0,-1,818,1821,0,0
-399,-797,0,0,0,0,0,0,0,0,0,-1,825,1821,0,0
-392,-797,0,0,0,0,0,0,0,0,0,-1,832,1821,0,0
-385,-797,0,0,0,0,0,0,0,0,0,-1,839,1821,0,0
-378,-797,0,0,0,0,0,0,0,0,0,-1,846,1821,0,0
-371,-797,0,0,0,0,0,0,0,0,0,-1,853,1821,0,0
-364,-797,0,0,0,0,0,0,0,0,0,-1,860,1821,0,0
-357,-797,0,0,0,0,0,0,0,0,0,-1,867,1821,0,0
-350,-797,0,0,0,0,0,0,0,0,0,-1,874,1821,0,0
-343,-797,0,0,0,0,0,0,0,0,0,-1,881,1821,0,0
-336,-797,0,0,0,0,0,0,0,0,0,-1,888,1821,0,0
-329,-797,0,0,0,0,0,0,0,0,0,-1,895,1821,0,0
-322,-797,0,0,0,0,0,0,0,0,0,-1,902,1821,0,0
-315,-797,0,0,0,0,0,0,0,0,0,-1,909,1821,0,0
-308,-797,0,0,0,0,0,0,0,0,0,-1,916,1821,0,0
-301,-797,0,0,0,0,0,0,0,0,0,-1,923,1821,0,0
-294,-797,0,0,0,0,0,0,0,0,0,-1,930,1821,0,0
-287,-797,0,0,0,0,0,0,0,0,0,-1,937,1821,0,0
-280,-797,0,0,0,0,0,0,0,0,0,-1,944,1821,0,0
-273,-797,0,0,0,0,0,0,0,0,0,-1,951,1821,0,0
-266,-797,0,0,0,0,0,0,0,0,0,-1,958,1821,0,0
-259,-797,0,0,0,0,0,0,0,0,0,-1,965,1821,0,0
-252,-797,0,0,0,0,0,0,0,0,0,-1,972,1821,0,0
-245,-797,0,0,0,0,0,0,0,0,0,-1,979,1821,0,0
-238,-797,0,0,0,0,0,0,0,0,0,-1,986,1821,0,0
-231,-797,0,0,0,0,0,0,0,0,0,-1,993,1821,0,0
-224,-797,0,0,0,0,0,0,0,0,0,-1,1000,1821,0,0
-217,-797,0,0,0,0,0,0,0,0,0,-1,1007,1821,0,0
-210,-797,0,0,0,0,0,0,0,0,0,-1,1014,1821,0,0
-203,-797,0,0,0,0,0,0,0,0,0,-1,1021,1821,0,0
-196,-797,0,0,0,0,0,0,0,0,0,-1,1028,1821,0,0
-189,-797,0,0,0,0,0,0,0,0,0,-1,1035,1821,0,0
-182,-797,0,0,0,0,0,0,0,0,0,-1,1042,1821,0,0
-175,-797,0,0,0,0,0,0,0,0,0,-1,1049,1821,0,0
-168,-797,0,0,0,0,0,0,0,0,0,-1,1056,1821,0,0
-161,-797,0,0,0,0,0,0,0,0,0,-1,1063,1821,0,0
-154,-797,0,0,0,0,0,0,0,0,0,-1,1070,1821,0,0
-147,-797,0,0,0,0,0,0,0,0,0,-1,1077,1821,0,0
-140,-797,0,0,0,0,0,0,0,0,0,-1,1084,1821,0,0
-133,-797,0,0,0,0,0,0,0,0,0,-1,1091,1821,0,0
-126,-797,0,0,0,0,0,0,0,0,0,-1,1098,1821,0,0
-119,-797,0,0,0,0,0,0,0,0,0,-1,1105,1821,0,0
-112,-797,0,0,0,0,0,0,0,0,0,-1,1112,1821,0,0
-105,-797,0,0,0,0,0,0,0,0,0,-1,1119,1821,0,0
-98,-797,0,0,0,0,0,0,0,0,0,-1,1126,1821,0,0
-91,-797,0,0,0,0,0,0,0,0,0,-1,1133,1821,0,0
-84,-797,0,0,0,0,0,0,0,0,0,-1,1140,1821,0,0
-77,-797,0,0,0,0,0,0,0,0,0,-1,1147,1821,0,0
-70,-797,0,0,0,0,0,0,0,0,0,-1,1154,1821,0,0
-63,-797,0,0,0,0,0,0,0,0,0,-1,1161,1821,0,0
-56,-797,0,0,0,0,0,0,0,0,0,-1,1168,1821,0,0
-49,-797,0,0,0,0,0,0,0,0,0,-1,1175,1821,0,0
-42,-797,0.579834,0.692871,0,0,0,0,0,0,0,-1,1182,1821,0.579856,-0.692816
-35,-797,-0.185425,5.55396,0,0,0,0,0,0,0,-1,1189,1821,-0.18542,-5.55396
-28,-797,-0.310181,4.71509,0,0,0,0,0,0,0,-1,1196,1821,-0.310228,-4.71503
-21,-797,13.5989,54.6854,0,0,0,0,0,0,0,-1,1203,1821,13.5989,-54.6854
-14,-797,9.36084,66.8438,0,0,0,0,0,0,0,-1,1210,1821,9.36078,-66.8437
-7,-797,9.48682,66.8972,0.00816413,0.0329279,0.0206421,0.0446169,-0.00352483,1.05555,0.0309864,0.0474607,1217,1821,9.48686,-66.8972
0,-797,9.41138,67.2446,0.0224779,0.0656438,0.0327468,0.0832805,0.00484127,1.07677,0.053979,0.0476349,1224,1821,9.41135,-67.2446
7,-797,3.04297,63.897,0,0,0,0,0,0,0,-1,1231,1821,3.04303,-63.897
14,-797,4.03601,64.0299,0,0,0,0,0,0,0,-1,1238,1821,4.03604,-64.0299
21,-797,4.73206,64.3369,0,0,0,0,0,0,0,-1,1245,1821,4.73203,-64.3369
28,-797,5.34106,64.1851,0,0,0,0,0,0,0,-1,1252,1821,5.34101,-64.185
35,-797,6.1593,63.8748,0,0,0,0,0,0,0,-1,1259,1821,6.15927,-63.8747
42,-797,6.66602,63.6956,0,0,0,0,0,0,0,-1,1266,1821,6.66602,-63.6956
49,-797,6.97046,63.494,0,0,0,0,0,0,0,-1,1273,1821,6.9705,-63.494
56,-797,8.07043,63.8987,0,0,0,0,0,0,0,-1,1280,1821,8.07045,-63.8987
63,-797,8.78174,63.9884,0.0868583,0.139113,0.00797562,0.140303,0.0856681,1.42266,0.0816618,0.0446581,1287,1821,8.78168,-63.9884
70,-797,9.45007,64.4829,0.0786004,0.1269,-0.0093119,0.128633,0.0768673,-1.38679,0.0747362,0.0420003,1294,1821,9.45004,-64.4829
77,-797,9.90662,64.9144,0,0,0,0,0,0,0,-1,1301,1821,9.90666,-64.9144
84,-797,10.0474,69.9814,0,0,0,0,0,0,0,-1,1308,1821,10.0474,-69.9815
91,-797,10.7109,67.876,0,0,0,0,0,0,0,-1,1315,1821,10.7109,-67.876
98,-797,10.7073,66.7556,0.0245705,0.084149,-0.0749772,0.135038,-0.0263185,-0.974491,0.0999598,0.0465372,1322,1821,10.7073,-66.7556
105,-797,10.78,65.6279,0,0,0,0,0,0,0,-1,1329,1821,10.7801,-65.6279
112,-797,10.6793,64.4285,0,0,0,0,0,0,0,-1,1336,1821,10.6793,-64.4284
119,-797,6.46228,66.8196,0,0,0,0,0,0,0,-1,1343,1821,6.46223,-66.8196
126,-797,5.96289,66.6696,0,0,0,0,0,0,0,-1,1350,1821,5.96293,-66.6695
133,-797,5.75049,65.9568,0,0,0,0,0,0,0,-1,1357,1821,5.75054,-65.9568
140,-797,5.70532,65.1594,0,0,0,0,0,0,0,-1,1364,1821,5.70535,-65.1595
147,-797,5.64172,64.4486,0,0,0,0,0,0,0,-1,1371,1821,5.64177,-64.4486
154,-797,40.2623,8.88733,0,0,0,0,0,0,0,-1,1378,1821,40.2623,-8.88731
161,-797,42.2798,8.17371,0,0,0,0,0,0,0,-1,1385,1821,42.2798,-8.17367
168,-797,0,0,0,0,0,0,0,0,0,-1,1392,1821,0,0
175,-797,0,0,0,0,0,0,0,0,0,-1,1399,1821,0,0
182,-797,0,0,0,0,0,0,0,0,0,-1,1406,1821,0,0
189,-797,0,0,0,0,0,0,0,0,0,-1,1413,1821,0,0
196,-797,0,0,0,0,0,0,0,0,0,-1,1420,1821,0,0
203,-797,0,0,0,0,0,0,0,0,0,-1,1427,1821,0,0
210,-797,0,0,0,0,0,0,0,0,0,-1,1434,1821,0,0
217,-797,0,0,0,0,0,0,0,0,0,-1,1441,1821,0,0
224,-797,0,0,0,0,0,0,0,0,0,-1,1448,1821,0,0
231,-797,0,0,0,0,0,0,0,0,0,-1,1455,1821,0,0
238,-797,0,0,0,0,0,0,0,0,0,-1,1462,1821,0,0
245,-797,0,0,0,0,0,0,0,0,0,-1,1469,1821,0,0
252,-797,0,0,0,0,0,0,0,0,0,-1,1476,1821,0,0
259,-797,0,0,0,0,0,0,0,0,0,-1,1483,1821,0,0
266,-797,0,0,0,0,0,0,0,0,0,-1,1490,1821,0,0
273,-797,0,0,0,0,0,0,0,0,0,-1,1497,1821,0,0
280,-797,0,0,0,0,0,0,0,0,0,-1,1504,1821,0,0
287,-797,0,0,0,0,0,0,0,0,0,-1,1511,1821,0,0
294,-797,0,0,0,0,0,0,0,0,0,-1,1518,1821,0,0
301,-797,0,0,0,0,0,0,0,0,0,-1,1525,1821,0,0
308,-797,0,0,0,0,0,0,0,0,0,-1,1532,1821,0,0
315,-797,0,0,0,0,0,0,0,0,0,-1,1539,1821,0,0
322,-797,0,0,0,0,0,0,0,0,0,-1,1546,1821,0,0
329,-797,0,0,0,0,0,0,0,0,0,-1,1553,1821,0,0
336,-797,0,0,0,0,0,0,0,0,0,-1,1560,1821,0,0
343,-797,0,0,0,0,0,0,0,0,0,-1,1567,1821,0,0
350,-797,0,0,0,0,0,0,0,0,0,-1,1574,1821,0,0
357,-797,0,0,0,0,0,0,0,0,0,-1,1581,1821,0,0
364,-797,0,0,0,0,0,0,0,0,0,-1,1588,1821,0,0
371,-797,0,0,0,0,0,0,0,0,0,-1,1595,1821,0,0
378,-797,0,0,0,0,0,0,0,0,0,-1,1602,1821,0,0
385,-797,0,0,0,0,0,0,0,0,0,-1,1609,1821,0,0
392,-797,0,0,0,0,0,0,0,0,0,-1,1616,1821,0,0
399,-797,0,0,0,0,0,0,0,0,0,-1,1623,1821,0,0
406,-797,0,0,0,0,0,0,0,0,0,-1,1630,1821,0,0
413,-797,0,0,0,0,0,0,0,0,0,-1,1637,1821,0,0
420,-797,0,0,0,0,0,0,0,0,0,-1,1644,1821,0,0
427,-797,0,0,0,0,0,0,0,0,0,-1,1651,1821,0,0
434,-797,0,0,0,0,0,0,0,0,0,-1,1658,1821,0,0
441,-797,0,0,0,0,0,0,0,0,0,-1,1665,1821,0,0
448,-797,0,0,0,0,0,0,0,0,0,-1,1672,1821,0,0
455,-797,0,0,0,0,0,0,0,0,0,-1,1679,1821,0,0
462,-797,0,0,0,0,0,0,0,0,0,-1,1686,1821,0,0
469,-797,0,0,0,0,0,0,0,0,0,-1,1693,1821,0,0
476,-797,0,0,0,0,0,0,0,0,0,-1,1700,1821,0,0
483,-797,0,0,0,0,0,0,0,0,0,-1,1707,1821,0,0
490,-797,0,0,0,0,0,0,0,0,0,-1,1714,1821,0,0
497,-797,0,0,0,0,0,0,0,0,0,-1,1721,1821,0,0
504,-797,0,0,0,0,0,0,0,0,0,-1,1728,1821,0,0
511,-797,0,0,0,0,0,0,0,0,0,-1,1735,1821,0,0
518,-797,0,0,0,0,0,0,0,0,0,-1,1742,1821,0,0
525,-797,0,0,0,0,0,0,0,0,0,-1,1749,1821,0,0
532,-797,0,0,0,0,0,0,0,0,0,-1,1756,1821,0,0
539,-797,0,0,0,0,0,0,0,0,0,-1,1763,1821,0,0
546,-797,0,0,0,0,0,0,0,0,0,-1,1770,1821,0,0
553,-797,0,0,0,0,0,0,0,0,0,-1,1777,1821,0,0
560,-797,0,0,0,0,0,0,0,0,0,-1,1784,1821,0,0
567,-797,0,0,0,0,0,0,0,0,0,-1,1791,1821,0,0
574,-797,0,0,0,0,0,0,0,0,0,-1,1798,1821,0,0
581,-797,0,0,0,0,0,0,0,0,0,-1,1805,1821,0,0
588,-797,0,0,0,0,0,0,0,0,0,-1,1812,1821,0,0
595,-797,0,0,0,0,0,0,0,0,0,-1,1819,1821,0,0
602,-797,0,0,0,0,0,0,0,0,0,-1,1826,1821,0,0
609,-797,0,0,0,0,0,0,0,0,0,-1,1833,1821,0,0
616,-797,0,0,0,0,0,0,0,0,0,-1,1840,1821,0,0
623,-797,0,0,0,0,0,0,0,0,0,-1,1847,1821,0,0
630,-797,0,0,0,0,0,0,0,0,0,-1,1854,1821,0,0
637,-797,0,0,0,0,0,0,0,0,0,-1,1861,1821,0,0
644,-797,0,0,0,0,0,0,0,0,0,-1,1868,1821,0,0
651,-797,0,0,0,0,0,0,0,0,0,-1,1875,1821,0,0
658,-797,0,0,0,0,0,0,0,0,0,-1,1882,1821,0,0
665,-797,0,0,0,0,0,0,0,0,0,-1,1889,1821,0,0
672,-797,0,0,0,0,0,0,0,0,0,-1,1896,1821,0,0
679,-797,0,0,0,0,0,0,0,0,0,-1,1903,1821,0,0
686,-797,0,0,0,0,0,0,0,0,0,-1,1910,1821,0,0
693,-797,0,0,0,0,0,0,0,0,0,-1,1917,1821,0,0
700,-797,0,0,0,0,0,0,0,0,0,-1,1924,1821,0,0
707,-797,0,0,0,0,0,0,0,0,0,-1,1931,1821,0,0
714,-797,0,0,0,0,0,0,0,0,0,-1,1938,1821,0,0
721,-797,0,0,0,0,0,0,0,0,0,-1,1945,1821,0,0
728,-797,0,0,0,0,0,0,0,0,0,-1,1952,1821,0,0
735,-797,0,0,0,0,0,0,0,0,0,-1,1959,1821,0,0
742,-797,0,0,0,0,0,0,0,0,0,-1,1966,1821,0,0
749,-797,0,0,0,0,0,0,0,0,0,-1,1973,1821,0,0
756,-797,0,0,0,0,0,0,0,0,0,-1,1980,1821,0,0
763,-797,0,0,0,0,0,0,0,0,0,-1,1987,1821,0,0
770,-797,0,0,0,0,0,0,0,0,0,-1,1994,1821,0,0
777,-797,0,0,0,0,0,0,0,0,0,-1,2001,1821,0,0
784,-797,0,0,0,0,0,0,0,0,0,-1,2008,1821,0,0
791,-797,0,0,0,0,0,0,0,0,0,-1,2015,1821,0,0
798,-797,0,0,0,0,0,0,0,0,0,-1,2022,1821,0,0
805,-797,0,0,0,0,0,0,0,0,0,-1,2029,1821,0,0
812,-797,0,0,0,0,0,0,0,0,0,-1,2036,1821,0,0
-700,-804,0,0,0,0,0,0,0,0,0,-1,524,1828,0,0
-693,-804,0,0,0,0,0,0,0,0,0,-1,531,1828,0,0
-686,-804,0,0,0,0,0,0,0,0,0,-1,538,1828,0,0
-679,-804,0,0,0,0,0,0,0,0,0,-1,545,1828,0,0
-672,-804,0,0,0,0,0,0,0,0,0,-1,552,1828,0,0
-665,-804,0,0,0,0,0,0,0,0,0,-1,559,1828,0,0
-658,-804,0,0,0,0,0,0,0,0,0,-1,566,1828,0,0
-651,-804,0,0,0,0,0,0,0,0,0,-1,573,1828,0,0
-644,-804,0,0,0,0,0,0,0,0,0,-1,580,1828,0,0
-637,-804,0,0,0,0,0,0,0,0,0,-1,587,1828,0,0
-630,-804,0,0,0,0,0,0,0,0,0,-1,594,1828,0,0
-623,-804,0,0,0,0,0,0,0,0,0,-1,601,1828,0,0
-616,-804,0,0,0,0,0,0,0,0,0,-1,608,1828,0,0
-609,-804,0,0,0,0,0,0,0,0,0,-1,615,1828,0,0
-602,-804,0,0,0,0,0,0,0,0,0,-1,622,1828,0,0
-595,-804,0,0,0,0,0,0,0,0,0,-1,629,1828,0,0
-588,-804,0,0,0,0,0,0,0,0,0,-1,636,1828,0,0
-581,-804,0,0,0,0,0,0,0,0,0,-1,643,1828,0,0
-574,-804,0,0,0,0,0,0,0,0,0,-1,650,1828,0,0
-567,-804,0,0,0,0,0,0,0,0,0,-1,657,1828,0,0
-560,-804,0,0,0,0,0,0,0,0,0,-1,664,1828,0,0
-553,-804,0,0,0,0,0,0,0,0,0,-1,671,1828,0,0
-546,-804,0,0,0,0,0,0,0,0,0,-1,678,1828,0,0
-539,-804,0,0,0,0,0,0,0,0,0,-1,685,1828,0,0
-532,-804,0,0,0,0,0,0,0,0,0,-1,692,1828,0,0
-525,-804,0,0,0,0,0,0,0,0,0,-1,699,1828,0,0
-518,-804,0,0,0,0,0,0,0,0,0,-1,706,1828,0,0
-511,-804,0,0,0,0,0,0,0,0,0,-1,713,1828,0,0
-504,-804,0,0,0,0,0,0,0,0,0,-1,720,1828,0,0
-497,-804,0,0,0,0,0,0,0,0,0,-1,727,1828,0,0
-490,-804,0,0,0,0,0,0,0,0,0,-1,734,1828,0,0
-483,-804,0,0,0,0,0,0,0,0,0,-1,741,1828,0,0
-476,-804,0,0,0,0,0,0,0,0,0,-1,748,1828,0,0
-469,-804,0,0,0,0,0,0,0,0,0,-1,755,1828,0,0
-462,-804,0,0,0,0,0,0,0,0,0,-1,762,1828,0,0
-455,-804,0,0,0,0,0,0,0,0,0,-1,769,1828,0,0
-448,-804,0,0,0,0,0,0,0,0,0,-1,776,1828,0,0
-441,-804,0,0,0,0,0,0,0,0,0,-1,783,1828,0,0
-434,-804,0,0,0,0,0,0,0,0,0,-1,790,1828,0,0
-427,-804,0,0,0,0,0,0,0,0,0,-1,797,1828,0,0
-420,-804,0,0,0,0,0,0,0,0,0,-1,804,1828,0,0
-413,-804,0,0,0,0,0,0,0,0,0,-1,811,1828,0,0
-406,-804,0,0,0,0,0,0,0,0,0,-1,818,1828,0,0
-399,-804,0,0,0,0,0,0,0,0,0,-1,825,1828,0,0
-392,-804,0,0,0,0,0,0,0,0,0,-1,832,1828,0,0
-385,-804,0,0,0,0,0,0,0,0,0,-1,839,1828,0,0
-378,-804,0,0,0,0,0,0,0,0,0,-1,846,1828,0,0
-371,-804,0,0,0,0,0,0,0,0,0,-1,853,1828,0,0
-364,-804,0,0,0,0,0,0,0,0,0,-1,860,1828,0,0
-357,-804,0,0,0,0,0,0,0,0,0,-1,867,1828,0,0
-350,-804,0,0,0,0,0,0,0,0,0,-1,874,1828,0,0
-343,-804,0,0,0,0,0,0,0,0,0,-1,881,1828,0,0
-336,-804,0,0,0,0,0,0,0,0,0,-1,888,1828,0,0
-329,-804,0,0,0,0,0,0,0,0,0,-1,895,1828,0,0
-322,-804,0,0,0,0,0,0,0,0,0,-1,902,1828,0,0
-315,-804,0,0,0,0,0,0,0,0,0,-1,909,1828,0,0
-308,-804,0,0,0,0,0,0,0,0,0,-1,916,1828,0,0
-301,-804,0,0,0,0,0,0,0,0,0,-1,923,1828,0,0
-294,-804,0,0,0,0,0,0,0,0,0,-1,930,1828,0,0
-287,-804,0,0,0,0,0,0,0,0,0,-1,937,1828,0,0
-280,-804,0,0,0,0,0,0,0,0,0,-1,944,1828,0,0
-273,-804,0,0,0,0,0,0,0,0,0,-1,951,1828,0,0
-266,-804,0,0,0,0,0,0,0,0,0,-1,958,1828,0,0
-259,-804,0,0,0,0,0,0,0,0,0,-1,965,1828,0,0
-252,-804,0,0,0,0,0,0,0,0,0,-1,972,1828,0,0
-245,-804,0,0,0,0,0,0,0,0,0,-1,979,1828,0,0
-238,-804,0,0,0,0,0,0,0,0,0,-1,986,1828,0,0
-231,-804,0,0,0,0,0,0,0,0,0,-1,993,1828,0,0
-224,-804,0,0,0,0,0,0,0,0,0,-1,1000,1828,0,0
-217,-804,0,0,0,0,0,0,0,0,0,-1,1007,1828,0,0
-210,-804,0,0,0,0,0,0,0,0,0,-1,1014,1828,0,0
-203,-804,0,0,0,0,0,0,0,0,0,-1,1021,1828,0,0
-196,-804,0,0,0,0,0,0,0,0,0,-1,1028,1828,0,0
-189,-804,0,0,0,0,0,0,0,0,0,-1,1035,1828,0,0
-182,-804,0,0,0,0,0,0,0,0,0,-1,1042,1828,0,0
-175,-804,0,0,0,0,0,0,0,0,0,-1,1049,1828,0,0
-168,-804,0,0,0,0,0,0,0,0,0,-1,1056,1828,0,0
-161,-804,0,0,0,0,0,0,0,0,0,-1,1063,1828,0,0
-154,-804,0,0,0,0,0,0,0,0,0,-1,1070,1828,0,0
-147,-804,0,0,0,0,0,0,0,0,0,-1,1077,1828,0,0
-140,-804,0,0,0,0,0,0,0,0,0,-1,1084,1828,0,0
-133,-804,0,0,0,0,0,0,0,0,0,-1,1091,1828,0,0
-126,-804,0,0,0,0,0,0,0,0,0,-1,1098,1828,0,0
-119,-804,0,0,0,0,0,0,0,0,0,-1,1105,1828,0,0
-112,-804,0,0,0,0,0,0,0,0,0,-1,1112,1828,0,0
-105,-804,0,0,0,0,0,0,0,0,0,-1,1119,1828,0,0
-98,-804,0,0,0,0,0,0,0,0,0,-1,1126,1828,0,0
-91,-804,0,0,0,0,0,0,0,0,0,-1,1133,1828,0,0
-84,-804,0,0,0,0,0,0,0,0,0,-1,1140,1828,0,0
-77,-804,0,0,0,0,0,0,0,0,0,-1,1147,1828,0,0
-70,-804,0,0,0,0,0,0,0,0,0,-1,1154,1828,0,0
-63,-804,0,0,0,0,0,0,0,0,0,-1,1161,1828,0,0
-56,-804,0,0,0,0,0,0,0,0,0,-1,1168,1828,0,0
-49,-804,0,0,0,0,0,0,0,0,0,-1,1175,1828,0,0
-42,-804,0,0,0,0,0,0,0,0,0,-1,1182,1828,0,0
-35,-804,0,0,0,0,0,0,0,0,0,-1,1189,1828,0,0
-28,-804,0,0,0,0,0,0,0,0,0,-1,1196,1828,0,0
-21,-804,0,0,0,0,0,0,0,0,0,-1,1203,1828,0,0
-14,-804,0,0,0,0,0,0,0,0,0,-1,1210,1828,0,0
-7,-804,0,0,0,0,0,0,0,0,0,-1,1217,1828,0,0
0,-804,0,0,0,0,0,0,0,0,0,-1,1224,1828,0,0
7,-804,0,0,0,0,0,0,0,0,0,-1,1231,1828,0,0
14,-804,0,0,0,0,0,0,0,0,0,-1,1238,1828,0,0
21,-804,0,0,0,0,0,0,0,0,0,-1,1245,1828,0,0
28,-804,0,0,0,0,0,0,0,0,0,-1,1252,1828,0,0
35,-804,6.24011,68.0378,0,0,0,0,0,0,0,-1,1259,1828,6.24016,-68.0379
42,-804,6.17188,62.3298,0,0,0,0,0,0,0,-1,1266,1828,6.17182,-62.3298
49,-804,6.55737,66.5819,0,0,0,0,0,0,0,-1,1273,1828,6.5574,-66.5819
56,-804,6.9364,65.6929,0,0,0,0,0,0,0,-1,1280,1828,6.93646,-65.6928
63,-804,8.80469,63.0479,0,0,0,0,0,0,0,-1,1287,1828,8.80463,-63.0478
70,-804,9.61133,63.5326,0.100732,0.147899,-0.0116798,0.150633,0.0979982,-1.34088,0.0882729,0.0462944,1294,1828,9.6113,-63.5325
77,-804,9.552,64.1805,0,0,0,0,0,0,0,-1,1301,1828,9.55201,-64.1806
84,-804,9.56885,64.7772,0,0,0,0,0,0,0,-1,1308,1828,9.56886,-64.7772
91,-804,0,0,0,0,0,0,0,0,0,-1,1315,1828,0,0
98,-804,0,0,0,0,0,0,0,0,0,-1,1322,1828,0,0
105,-804,0,0,0,0,0,0,0,0,0,-1,1329,1828,0,0
112,-804,0,0,0,0,0,0,0,0,0,-1,1336,1828,0,0
119,-804,0,0,0,0,0,0,0,0,0,-1,1343,1828,0,0
126,-804,0,0,0,0,0,0,0,0,0,-1,1350,1828,0,0
133,-804,0,0,0,0,0,0,0,0,0,-1,1357,1828,0,0
140,-804,0,0,0,0,0,0,0,0,0,-1,1364,1828,0,0
147,-804,0,0,0,0,0,0,0,0,0,-1,1371,1828,0,0
154,-804,0,0,0,0,0,0,0,0,0,-1,1378,1828,0,0
161,-804,0,0,0,0,0,0,0,0,0,-1,1385,1828,0,0
168,-804,0,0,0,0,0,0,0,0,0,-1,1392,1828,0,0
175,-804,0,0,0,0,0,0,0,0,0,-1,1399,1828,0,0
182,-804,0,0,0,0,0,0,0,0,0,-1,1406,1828,0,0
189,-804,0,0,0,0,0,0,0,0,0,-1,1413,1828,0,0
196,-804,0,0,0,0,0,0,0,0,0,-1,1420,1828,0,0
203,-804,0,0,0,0,0,0,0,0,0,-1,1427,1828,0,0
210,-804,0,0,0,0,0,0,0,0,0,-1,1434,1828,0,0
217,-804,0,0,0,0,0,0,0,0,0,-1,1441,1828,0,0
224,-804,0,0,0,0,0,0,0,0,0,-1,1448,1828,0,0
231,-804,0,0,0,0,0,0,0,0,0,-1,1455,1828,0,0
238,-804,0,0,0,0,0,0,0,0,0,-1,1462,1828,0,0
245,-804,0,0,0,0,0,0,0,0,0,-1,1469,1828,0,0
252,-804,0,0,0,0,0,0,0,0,0,-1,1476,1828,0,0
259,-804,0,0,0,0,0,0,0,0,0,-1,1483,1828,0,0
266,-804,0,0,0,0,0,0,0,0,0,-1,1490,1828,0,0
273,-804,0,0,0,0,0,0,0,0,0,-1,1497,1828,0,0
280,-804,0,0,0,0,0,0,0,0,0,-1,1504,1828,0,0
287,-804,0,0,0,0,0,0,0,0,0,-1,1511,1828,0,0
294,-804,0,0,0,0,0,0,0,0,0,-1,1518,1828,0,0
301,-804,0,0,0,0,0,0,0,0,0,-1,1525,1828,0,0
308,-804,0,0,0,0,0,0,0,0,0,-1,1532,1828,0,0
315,-804,0,0,0,0,0,0,0,0,0,-1,1539,1828,0,0
322,-804,0,0,0,0,0,0,0,0,0,-1,1546,1828,0,0
329,-804,0,0,0,0,0,0,0,0,0,-1,1553,1828,0,0
336,-804,0,0,0,0,0,0,0,0,0,-1,1560,1828,0,0
343,-804,0,0,0,0,0,0,0,0,0,-1,1567,1828,0,0
350,-804,0,0,0,0,0,0,0,0,0,-1,1574,1828,0,0
357,-804,0,0,0,0,0,0,0,0,0,-1,1581,1828,0,0
364,-804,0,0,0,0,0,0,0,0,0,-1,1588,1828,0,0
371,-804,0,0,0,0,0,0,0,0,0,-1,1595,1828,0,0
378,-804,0,0,0,0,0,0,0,0,0,-1,1602,1828,0,0
385,-804,0,0,0,0,0,0,0,0,0,-1,1609,1828,0,0
392,-804,0,0,0,0,0,0,0,0,0,-1,1616,1828,0,0
399,-804,0,0,0,0,0,0,0,0,0,-1,1623,1828,0,0
406,-804,0,0,0,0,0,0,0,0,0,-1,1630,1828,0,0
413,-804,0,0,0,0,0,0,0,0,0,-1,1637,1828,0,0
420,-804,0,0,0,0,0,0,0,0,0,-1,1644,1828,0,0
427,-804,0,0,0,0,0,0,0,0,0,-1,1651,1828,0,0
434,-804,0,0,0,0,0,0,0,0,0,-1,1658,1828,0,0
441,-804,0,0,0,0,0,0,0,0,0,-1,1665,1828,0,0
448,-804,0,0,0,0,0,0,0,0,0,-1,1672,1828,0,0
455,-804,0,0,0,0,0,0,0,0,0,-1,1679,1828,0,0
462,-804,0,0,0,0,0,0,0,0,0,-1,1686,1828,0,0
469,-804,0,0,0,0,0,0,0,0,0,-1,1693,1828,0,0
476,-804,0,0,0,0,0,0,0,0,0,-1,1700,1828,0,0
483,-804,0,0,0,0,0,0,0,0,0,-1,1707,1828,0,0
490,-804,0,0,0,0,0,0,0,0,0,-1,1714,1828,0,0
497,-804,0,0,0,0,0,0,0,0,0,-1,1721,1828,0,0
504,-804,0,0,0,0,0,0,0,0,0,-1,1728,1828,0,0
511,-804,0,0,0,0,0,0,0,0,0,-1,1735,1828,0,0
518,-804,0,0,0,0,0,0,0,0,0,-1,1742,1828,0,0
525,-804,0,0,0,0,0,0,0,0,0,-1,1749,1828,0,0
532,-804,0,0,0,0,0,0,0,0,0,-1,1756,1828,0,0
539,-804,0,0,0,0,0,0,0,0,0,-1,1763,1828,0,0
546,-804,0,0,0,0,0,0,0,0,0,-1,1770,1828,0,0
553,-804,0,0,0,0,0,0,0,0,0,-1,1777,1828,0,0
560,-804,0,0,0,0,0,0,0,0,0,-1,1784,1828,0,0
567,-804,0,0,0,0,0,0,0,0,0,-1,1791,1828,0,0
574,-804,0,0,0,0,0,0,0,0,0,-1,1798,1828,0,0
581,-804,0,0,0,0,0,0,0,0,0,-1,1805,1828,0,0
588,-804,0,0,0,0,0,0,0,0,0,-1,1812,1828,0,0
595,-804,0,0,0,0,0,0,0,0,0,-1,1819,1828,0,0
602,-804,0,0,0,0,0,0,0,0,0,-1,1826,1828,0,0
609,-804,0,0,0,0,0,0,0,0,0,-1,1833,1828,0,0
616,-804,0,0,0,0,0,0,0,0,0,-1,1840,1828,0,0
623,-804,0,0,0,0,0,0,0,0,0,-1,1847,1828,0,0
630,-804,0,0,0,0,0,0,0,0,0,-1,1854,1828,0,0
637,-804,0,0,0,0,0,0,0,0,0,-1,1861,1828,0,0
644,-804,0,0,0,0,0,0,0,0,0,-1,1868,1828,0,0
651,-804,0,0,0,0,0,0,0,0,0,-1,1875,1828,0,0
658,-804,0,0,0,0,0,0,0,0,0,-1,1882,1828,0,0
665,-804,0,0,0,0,0,0,0,0,0,-1,1889,1828,0,0
672,-804,0,0,0,0,0,0,0,0,0,-1,1896,1828,0,0
679,-804,0,0,0,0,0,0,0,0,0,-1,1903,1828,0,0
686,-804,0,0,0,0,0,0,0,0,0,-1,1910,1828,0,0
693,-804,0,0,0,0,0,0,0,0,0,-1,1917,1828,0,0
700,-804,0,0,0,0,0,0,0,0,0,-1,1924,1828,0,0
707,-804,0,0,0,0,0,0,0,0,0,-1,1931,1828,0,0
714,-804,0,0,0,0,0,0,0,0,0,-1,1938,1828,0,0
721,-804,0,0,0,0,0,0,0,0,0,-1,1945,1828,0,0
728,-804,0,0,0,0,0,0,0,0,0,-1,1952,1828,0,0
735,-804,0,0,0,0,0,0,0,0,0,-1,1959,1828,0,0
742,-804,0,0,0,0,0,0,0,0,0,-1,1966,1828,0,0
749,-804,0,0,0,0,0,0,0,0,0,-1,1973,1828,0,0
756,-804,0,0,0,0,0,0,0,0,0,-1,1980,1828,0,0
763,-804,0,0,0,0,0,0,0,0,0,-1,1987,1828,0,0
770,-804,0,0,0,0,0,0,0,0,0,-1,1994,1828,0,0
777,-804,0,0,0,0,0,0,0,0,0,-1,2001,1828,0,0
784,-804,0,0,0,0,0,0,0,0,0,-1,2008,1828,0,0
791,-804,0,0,0,0,0,0,0,0,0,-1,2015,1828,0,0
798,-804,0,0,0,0,0,0,0,0,0,-1,2022,1828,0,0
805,-804,0,0,0,0,0,0,0,0,0,-1,2029,1828,0,0
812,-804,0,0,0,0,0,0,0,0,0,-1,2036,1828,0,0

